# vtk DataFile Version 3.0
vtk output
ASCII
DATASET UNSTRUCTURED_GRID
POINTS 4 float
0	0	0	
1	0	0	
1	1	0	
0	1	0	
CELLS 1 5
4	0	1	2	3	
CELL_TYPES 1
9
CELL_DATA 1
POINT_DATA 4
SCALARS Pressure float 
LOOKUP_TABLE default
1 1 1 1 
VECTORS Velocity float 
2 -0.764731 0 
2 0.764731 0 
2 -0.764731 0 
2 0.764731 0 
TENSORS Stress float 
-29.5943 1.52946 0 
1.52946 27.5943 0 
0 0 0 
27.5943 1.52946 0 
1.52946 -29.5943 0 
0 0 0 
27.5943 -1.52946 0 
-1.52946 -29.5943 0 
0 0 0 
-29.5943 -1.52946 0 
-1.52946 27.5943 0 
0 0 0 
METADATA
COMPONENT_NAMES
XX
XY
XZ
YX
YY
YZ
ZX
ZY
ZZ

