# vtk DataFile Version 3.0
vtk output
ASCII
DATASET UNSTRUCTURED_GRID
POINTS 4 float
-1	-1	0	
1	-1	0	
1	1	0	
-1	1	0	
CELLS 1 5
4	0	1	2	3	
CELL_TYPES 1
9
CELL_DATA 1
POINT_DATA 4
SCALARS Pressure float 
LOOKUP_TABLE default
-5.73837e-17 -5.73837e-17 -5.73837e-17 -5.73837e-17 
VECTORS Velocity float 
-4.99978e-12 -5.00002e-12 0 
-4.99989e-12 5.00008e-12 0 
-1 5.0002e-12 0 
-1 -5.00025e-12 0 
TENSORS Stress float 
-6.85199e-16 -0.5 0 
-0.5 7.44456e-16 0 
0 0 0 
1.28668e-15 -0.5 0 
-0.5 -1.17192e-15 0 
0 0 0 
-1.30249e-15 -0.5 0 
-0.5 1.36174e-15 0 
0 0 0 
7.80418e-16 -0.5 0 
-0.5 -6.10139e-16 0 
0 0 0 
METADATA
COMPONENT_NAMES
XX
XY
XZ
YX
YY
YZ
ZX
ZY
ZZ

