# vtk DataFile Version 3.0
vtk output
ASCII
DATASET UNSTRUCTURED_GRID
POINTS 8 float
0	0	0	
1	0	0	
1	1	0	
0	1	0	
0	0	1	
1	0	1	
1	1	1	
0	1	1	
CELLS 1 9
8	0	1	2	3	4	5	6	7	
CELL_TYPES 1
12
CELL_DATA 1
POINT_DATA 8
SCALARS Pressure float 
LOOKUP_TABLE default
-3.23688e-16 -3.23688e-16 -3.23688e-16 -3.23688e-16 -3.23688e-16 -3.23688e-16 -3.23688e-16 -3.23688e-16 
VECTORS Velocity float 
4.48461e-16 9.9979e-12 9.99972e-12 
3.40281e-15 1.00017e-11 1.00024e-11 
-8.25756e-16 1.00005e-11 1 
-2.34901e-15 9.9984e-12 1 
-6.5856e-17 -9.99889e-12 9.99872e-12 
-3.50194e-15 -1.00014e-11 1.00028e-11 
9.90896e-16 -1.00006e-11 1 
2.34672e-15 -9.99909e-12 1 
TENSORS Stress float 
3.80835e-15 1.02892e-15 2.26124e-15 
1.02892e-15 1.9681e-14 1 
2.26124e-15 1 -2.28189e-14 
3.32819e-15 -4.02176e-16 -4.12919e-15 
-4.02176e-16 1.92972e-14 1 
-4.12919e-15 1 -2.16543e-14 
-1.13875e-14 -2.15068e-15 2.59381e-15 
-2.15068e-15 -1.11128e-14 1 
2.59381e-15 1 2.32493e-14 
1.6969e-14 -7.19584e-16 5.47289e-15 
-7.19584e-16 -2.00572e-14 1 
5.47289e-15 1 4.23299e-15 
3.358e-14 -1.31296e-16 3.48249e-15 
-1.31296e-16 -5.62988e-14 1 
3.48249e-15 1 2.33385e-14 
-4.0179e-14 1.94896e-15 -2.90794e-15 
1.94896e-15 3.51928e-14 1 
-2.90794e-15 1 6.29028e-15 
4.89005e-14 3.01893e-15 1.26154e-15 
3.01893e-15 -4.0291e-14 1 
1.26154e-15 1 -8.41556e-15 
-5.2137e-14 9.38675e-16 4.14062e-15 
9.38675e-16 5.4303e-14 1 
4.14062e-15 1 -1.54261e-15 
METADATA
COMPONENT_NAMES
XX
XY
XZ
YX
YY
YZ
ZX
ZY
ZZ

