# vtk DataFile Version 3.0
vtk output
ASCII
DATASET UNSTRUCTURED_GRID
POINTS 21608 float
-0.1808	-0.171958	0.287248	
-0.0754532	-0.211832	0.265564	
-0.161333	-0.314459	0.347253	
-0.182528	-0.349181	0.246007	
-0.1808	-0.171958	0.287248	
-0.13253	-0.300587	0.178341	
-0.0754532	-0.211832	0.265564	
-0.182528	-0.349181	0.246007	
0.184962	0.0799289	0	
0.269795	0.177145	0.0946573	
0.175408	0.155763	0.126683	
0.140726	0.0548949	0.0839438	
0.184962	0.0799289	0	
0.246838	-0.00334576	0.115071	
0.269795	0.177145	0.0946573	
0.140726	0.0548949	0.0839438	
0.175408	0.155763	0.126683	
0.269795	0.177145	0.0946573	
0.246838	-0.00334576	0.115071	
0.140726	0.0548949	0.0839438	
0.22142	0.00817938	0.394574	
0.327533	-0.0664701	0.421022	
0.220158	-0.126618	0.388055	
0.251264	-0.0990305	0.284445	
-0.268365	-0.14329	0.5	
-0.298593	-0.101011	0.5	
-0.257817	-0.0951035	0.5	
-0.275537	-0.116472	0.371913	
-0.0144004	-0.334766	0.39505	
-0.00291132	-0.295217	0.296268	
-0.161333	-0.314459	0.347253	
-0.053625	-0.263276	0.422334	
-0.234106	-0.240455	0.5	
-0.172599	-0.285692	0.5	
-0.280119	-0.240952	0.383653	
-0.204987	-0.16964	0.406672	
-0.127619	0.285659	0.171874	
-0.265311	0.22544	0.150174	
-0.131938	0.201784	0.249878	
-0.192258	0.331995	0.253348	
-0.254144	-0.321855	0.5	
-0.161333	-0.314459	0.347253	
-0.317197	-0.386505	0.431175	
-0.280119	-0.240952	0.383653	
0.25658	0.429146	0.33124	
0.278137	0.247763	0.376191	
0.154396	0.322847	0.356278	
0.223388	0.316601	0.257498	
-0.237047	0.0201392	0	
-0.263013	0.108209	0.143902	
-0.339187	0.0209536	0.163183	
-0.26618	-0.0688348	0.104833	
-0.13253	-0.300587	0.178341	
-0.1808	-0.171958	0.287248	
-0.252329	-0.26938	0.229497	
-0.182528	-0.349181	0.246007	
0.305435	0.121825	0.172512	
0.295217	0.00291132	0.296268	
0.272001	0.0982822	0.26656	
0.230609	-0.0211924	0.217185	
-0.278552	0.259099	0.267592	
-0.131938	0.201784	0.249878	
-0.265311	0.22544	0.150174	
-0.192258	0.331995	0.253348	
-0.323938	-0.380873	0.347739	
-0.280119	-0.240952	0.383653	
-0.161333	-0.314459	0.347253	
-0.252329	-0.26938	0.229497	
-0.0843611	0.070836	0.404426	
-0.16628	0.0337112	0.418012	
-0.133323	0.00734514	0.338693	
-0.0627858	-0.0916667	0.423956	
-0.161333	-0.314459	0.347253	
-0.0754532	-0.211832	0.265564	
-0.0762452	-0.385017	0.309762	
-0.0480147	-0.273566	0.222301	
-0.133323	0.00734514	0.338693	
-0.224353	-0.050686	0.284463	
-0.233822	0.0792854	0.380146	
-0.158971	0.0982818	0.323671	
-0.428104	0.258315	0.196896	
-0.345491	0.130711	0.235494	
-0.265311	0.22544	0.150174	
-0.278552	0.259099	0.267592	
-0.13253	-0.300587	0.178341	
-0.1808	-0.171958	0.287248	
-0.0887698	-0.154954	0.166843	
-0.201128	-0.131883	0.196277	
-0.13253	-0.300587	0.178341	
-0.0887698	-0.154954	0.166843	
-0.1808	-0.171958	0.287248	
-0.0754532	-0.211832	0.265564	
-0.265311	0.22544	0.150174	
-0.278552	0.259099	0.267592	
-0.214953	0.122747	0.250047	
-0.131938	0.201784	0.249878	
0.305435	0.121825	0.172512	
0.366259	0.00318862	0.135411	
0.295217	0.00291132	0.296268	
0.230609	-0.0211924	0.217185	
-0.110158	0.209083	0.5	
-0.05	0.133333	0.5	
-0.173778	0.167507	0.398056	
-0.0162135	0.209048	0.397765	
-0.263013	0.108209	0.143902	
-0.26618	-0.0688348	0.104833	
-0.153254	0.0418185	0.0989321	
-0.199362	0.0555217	0.187248	
-0.224353	-0.050686	0.284463	
-0.273431	0.0345527	0.245119	
-0.233822	0.0792854	0.380146	
-0.158971	0.0982818	0.323671	
0.00434744	-0.0456526	0.250312	
-0.0544044	0.00856195	0.134425	
-0.0887698	-0.154954	0.166843	
-0.1108	-0.078009	0.257656	
0.0593425	-0.191106	0.170296	
0.195794	-0.195794	0.279578	
0.0700441	-0.20677	0.284029	
0.0597845	-0.282871	0.216064	
0.460548	0.194667	0.23433	
0.322691	0.187554	0.276787	
0.305435	0.121825	0.172512	
0.3762	0.0879078	0.311936	
-0.0913051	-8.8983e-18	0.5	
-0.16628	0.0337112	0.418012	
-0.0843611	0.070836	0.404426	
-0.0627858	-0.0916667	0.423956	
-0.161333	-0.314459	0.347253	
-0.252329	-0.26938	0.229497	
-0.1808	-0.171958	0.287248	
-0.182528	-0.349181	0.246007	
-0.237047	0.0201392	0	
-0.153254	0.0418185	0.0989321	
-0.263013	0.108209	0.143902	
-0.26618	-0.0688348	0.104833	
-0.0887698	-0.154954	0.166843	
-0.0544044	0.00856195	0.134425	
0.00434744	-0.0456526	0.250312	
-0.000733888	-0.121505	0.108367	
0.154396	0.322847	0.356278	
0.278137	0.247763	0.376191	
0.172599	0.285692	0.5	
0.19157	0.189079	0.398239	
0.374193	0.331632	0.334643	
0.322691	0.187554	0.276787	
0.278137	0.247763	0.376191	
0.223388	0.316601	0.257498	
-0.323938	-0.380873	0.347739	
-0.252329	-0.26938	0.229497	
-0.161333	-0.314459	0.347253	
-0.182528	-0.349181	0.246007	
0.0593425	-0.191106	0.170296	
0.195794	-0.195794	0.279578	
0.153165	-0.314436	0.187787	
0.166494	-0.172227	0.119812	
-0.493378	0.0811073	0.146993	
-0.345491	0.130711	0.235494	
-0.339187	0.0209536	0.163183	
-0.372288	0.117054	0.109759	
0.285692	-0.172599	0.5	
0.220158	-0.126618	0.388055	
0.330561	-0.223946	0.39789	
0.172223	-0.208401	0.404687	
-0.1808	-0.171958	0.287248	
-0.293731	-0.159381	0.165241	
-0.348281	-0.114759	0.26937	
-0.201128	-0.131883	0.196277	
0.25658	0.429146	0.33124	
0.317206	0.386498	0.299678	
0.278137	0.247763	0.376191	
0.223388	0.316601	0.257498	
0.460548	0.194667	0.23433	
0.3762	0.0879078	0.311936	
0.305435	0.121825	0.172512	
0.405658	0.0360531	0.226292	
0.295217	0.00291132	0.296268	
0.327533	-0.0664701	0.421022	
0.22142	0.00817938	0.394574	
0.251264	-0.0990305	0.284445	
0.116472	-0.275537	0.364096	
0.0700441	-0.20677	0.284029	
0.195794	-0.195794	0.279578	
0.187872	-0.340275	0.296975	
-0.273431	0.0345527	0.245119	
-0.158971	0.0982818	0.323671	
-0.115637	0.0557776	0.228432	
-0.199362	0.0555217	0.187248	
-0.13253	-0.300587	0.178341	
-0.252329	-0.26938	0.229497	
-0.1808	-0.171958	0.287248	
-0.201128	-0.131883	0.196277	
-0.293731	-0.159381	0.165241	
-0.252329	-0.26938	0.229497	
-0.386498	-0.317206	0.200322	
-0.307464	-0.233367	0.0932852	
0.232997	-0.11062	0	
0.245477	-0.191651	0	
0.287303	-0.106912	0.163595	
0.166494	-0.172227	0.119812	
-0.0249018	-0.155268	0.351606	
-0.1108	-0.078009	0.257656	
-0.14418	-0.0987583	0.389626	
-0.0627858	-0.0916667	0.423956	
-0.307691	0.175889	0.353161	
-0.36554	0.108479	0.408539	
-0.450312	0.217299	0.354112	
-0.393116	0.0762957	0.312097	
0.245477	-0.191651	0	
0.287303	-0.106912	0.163595	
0.166494	-0.172227	0.119812	
0.345961	-0.17739	0.102725	
0.133074	0.264097	0	
0.240662	0.264403	0.150106	
0.0897997	0.249573	0.16264	
0.175408	0.155763	0.126683	
-0.05	0.133333	0.5	
-0.139117	0.156778	0.5	
-0.173778	0.167507	0.398056	
-0.0843611	0.070836	0.404426	
0.285692	-0.172599	0.5	
0.210048	-0.166493	0.5	
0.220158	-0.126618	0.388055	
0.172223	-0.208401	0.404687	
0.374193	0.331632	0.334643	
0.376757	0.328716	0.246468	
0.322691	0.187554	0.276787	
0.223388	0.316601	0.257498	
0.285692	-0.172599	0.5	
0.330561	-0.223946	0.39789	
0.240455	-0.234106	0.5	
0.172223	-0.208401	0.404687	
-0.110158	0.209083	0.5	
-0.173778	0.167507	0.398056	
-0.0992017	0.278039	0.399962	
-0.0162135	0.209048	0.397765	
-0.127619	0.285659	0.171874	
-0.0766135	0.239584	0.316589	
-0.0375749	0.231137	0.225021	
-0.11066	0.378543	0.212059	
-0.293731	-0.159381	0.165241	
-0.1808	-0.171958	0.287248	
-0.348281	-0.114759	0.26937	
-0.332305	-0.222015	0.288549	
-0.376393	0.0217786	0.5	
-0.359322	0.070805	0.5	
-0.334766	0.0144004	0.413573	
-0.36554	0.108479	0.408539	
-0.307691	0.175889	0.353161	
-0.345491	0.130711	0.235494	
-0.429476	0.256028	0.291579	
-0.278552	0.259099	0.267592	
0.305435	0.121825	0.172512	
0.272001	0.0982822	0.26656	
0.295217	0.00291132	0.296268	
0.405658	0.0360531	0.226292	
-0.429146	-0.25658	0.16876	
-0.293731	-0.159381	0.165241	
-0.386498	-0.317206	0.200322	
-0.307464	-0.233367	0.0932852	
0.0712814	-0.153152	0	
0.00183684	-0.222331	0	
0.0593425	-0.191106	0.170296	
-0.000733888	-0.121505	0.108367	
-0.0249018	-0.155268	0.351606	
-0.0188474	-0.0311526	0.378242	
-0.1108	-0.078009	0.257656	
-0.0627858	-0.0916667	0.423956	
-0.0188474	-0.0311526	0.378242	
-0.0843611	0.070836	0.404426	
-0.133323	0.00734514	0.338693	
-0.0627858	-0.0916667	0.423956	
-0.234106	-0.240455	0.5	
-0.166493	-0.210048	0.5	
-0.172599	-0.285692	0.5	
-0.204987	-0.16964	0.406672	
-0.344127	-0.112227	0	
-0.278713	-0.14304	0	
-0.376845	-0.0849991	0.114782	
-0.307464	-0.233367	0.0932852	
-0.224353	-0.050686	0.284463	
-0.273431	0.0345527	0.245119	
-0.115637	0.0557776	0.228432	
-0.199362	0.0555217	0.187248	
0.116472	-0.275537	0.364096	
0.0700441	-0.20677	0.284029	
0.187872	-0.340275	0.296975	
0.0597845	-0.282871	0.216064	
0.295217	0.00291132	0.296268	
0.366259	0.00318862	0.135411	
0.305435	0.121825	0.172512	
0.405658	0.0360531	0.226292	
-0.293731	-0.159381	0.165241	
-0.348281	-0.114759	0.26937	
-0.434698	-0.247057	0.249501	
-0.332305	-0.222015	0.288549	
0.234106	0.240455	0.5	
0.172599	0.285692	0.5	
0.278137	0.247763	0.376191	
0.19157	0.189079	0.398239	
-0.166493	-0.210048	0.5	
-0.122747	-0.214953	0.392685	
-0.172599	-0.285692	0.5	
-0.204987	-0.16964	0.406672	
-0.265311	0.22544	0.150174	
-0.345491	0.130711	0.235494	
-0.428104	0.258315	0.196896	
-0.341436	0.209355	0.0876866	
0.184962	0.0799289	0	
0.246838	-0.00334576	0.115071	
0.276476	0.0535537	0	
0.269795	0.177145	0.0946573	
-0.3	0.05	0.5	
-0.233822	0.0792854	0.380146	
-0.334766	0.0144004	0.413573	
-0.36554	0.108479	0.408539	
0.0712814	-0.153152	0	
-0.000733888	-0.121505	0.108367	
0.166494	-0.172227	0.119812	
0.163971	-0.0679077	0.102014	
-0.31384	0.0131388	0.5	
-0.279144	0.0168063	0.5	
-0.307123	-0.0146863	0.5	
-0.334766	0.0144004	0.413573	
0.232997	-0.11062	0	
0.287303	-0.106912	0.163595	
0.245477	-0.191651	0	
0.345961	-0.17739	0.102725	
-0.0249018	-0.155268	0.351606	
-0.122747	-0.214953	0.392685	
-0.05	-0.216667	0.5	
-0.0627858	-0.0916667	0.423956	
0.373696	-0.332191	0.334057	
0.248064	-0.277814	0.232664	
0.240952	-0.280119	0.382753	
0.267469	-0.189723	0.33864	
0.199062	0.200989	0.281957	
0.223388	0.316601	0.257498	
0.240662	0.264403	0.150106	
0.103003	0.248456	0.2762	
-0.1808	-0.171958	0.287248	
-0.348281	-0.114759	0.26937	
-0.275537	-0.116472	0.371913	
-0.224353	-0.050686	0.284463	
-0.214953	0.122747	0.250047	
-0.153413	0.147726	0.129273	
-0.265311	0.22544	0.150174	
-0.131938	0.201784	0.249878	
-0.0992017	0.278039	0.399962	
-0.173778	0.167507	0.398056	
-0.0770993	0.146668	0.334099	
-0.0162135	0.209048	0.397765	
-0.00291132	0.295217	0.296268	
-0.102488	0.367447	0.313744	
-0.0375749	0.231137	0.225021	
-0.0766135	0.239584	0.316589	
0.285692	-0.172599	0.5	
0.240455	-0.234106	0.5	
0.210048	-0.166493	0.5	
0.172223	-0.208401	0.404687	
0.0593425	-0.191106	0.170296	
0.153165	-0.314436	0.187787	
0.195794	-0.195794	0.279578	
0.0597845	-0.282871	0.216064	
0.373696	-0.332191	0.334057	
0.321316	-0.199848	0.247358	
0.248064	-0.277814	0.232664	
0.267469	-0.189723	0.33864	
-0.05	-0.216667	0.5	
-0.122747	-0.214953	0.392685	
-0.0249018	-0.155268	0.351606	
-0.053625	-0.263276	0.422334	
0.276476	0.0535537	0	
0.305435	0.121825	0.172512	
0.366259	0.00318862	0.135411	
0.370295	0.150924	0.0941864	
0.287303	-0.106912	0.163595	
0.195794	-0.195794	0.279578	
0.145439	-0.0925419	0.206952	
0.166494	-0.172227	0.119812	
-0.323938	-0.380873	0.347739	
-0.317197	-0.386505	0.431175	
-0.161333	-0.314459	0.347253	
-0.280119	-0.240952	0.383653	
-0.265311	0.22544	0.150174	
-0.153413	0.147726	0.129273	
-0.127619	0.285659	0.171874	
-0.131938	0.201784	0.249878	
0.0593425	-0.191106	0.170296	
0.145439	-0.0925419	0.206952	
0.0660646	-0.0345177	0.124489	
-0.00254485	-0.146451	0.237696	
-0.13253	-0.300587	0.178341	
-0.0311508	-0.245667	0.113138	
-0.168688	-0.281701	0	
-0.190069	-0.194114	0.116906	
0.0897997	0.249573	0.16264	
0.199062	0.200989	0.281957	
0.240662	0.264403	0.150106	
0.103003	0.248456	0.2762	
0.00434744	-0.0456526	0.250312	
0.0660646	-0.0345177	0.124489	
0.145439	-0.0925419	0.206952	
-0.00254485	-0.146451	0.237696	
-0.386498	-0.317206	0.200322	
-0.293731	-0.159381	0.165241	
-0.429146	-0.25658	0.16876	
-0.332305	-0.222015	0.288549	
-0.386498	-0.317206	0.200322	
-0.252329	-0.26938	0.229497	
-0.293731	-0.159381	0.165241	
-0.332305	-0.222015	0.288549	
-0.0162135	0.209048	0.397765	
0.0896207	0.295594	0.416487	
-0.0144004	0.334766	0.39505	
-0.00291132	0.295217	0.441595	
-0.110158	0.209083	0.5	
-0.05	0.133333	0.5	
-0.139117	0.156778	0.5	
-0.173778	0.167507	0.398056	
0.334354	-0.126769	0.353658	
0.220158	-0.126618	0.388055	
0.285692	-0.172599	0.5	
0.327533	-0.0664701	0.421022	
-0.374084	-0.0305468	0.5	
-0.376393	0.0217786	0.5	
-0.35	0	0.5	
-0.334766	0.0144004	0.413573	
-0.13253	-0.300587	0.178341	
-0.190069	-0.194114	0.116906	
-0.252329	-0.26938	0.229497	
-0.201128	-0.131883	0.196277	
-0.13253	-0.300587	0.178341	
-0.0887698	-0.154954	0.166843	
-0.190069	-0.194114	0.116906	
-0.201128	-0.131883	0.196277	
0.220158	-0.126618	0.388055	
0.22142	0.00817938	0.394574	
0.216667	-0.05	0.5	
0.327533	-0.0664701	0.421022	
0.0897997	0.249573	0.16264	
-0.0258974	0.236971	0.122489	
-0.00366878	0.359505	0.167012	
0.0676938	0.392306	0.0963758	
0.00200732	-0.17494	0.5	
-0.05	-0.216667	0.5	
-0.0249018	-0.155268	0.351606	
-0.053625	-0.263276	0.422334	
0.0153159	0.363557	0	
-0.00366878	0.359505	0.167012	
-0.0555676	0.325574	0	
-0.0258974	0.236971	0.122489	
-0.307123	-0.0146863	0.5	
-0.35	0	0.5	
-0.31384	0.0131388	0.5	
-0.334766	0.0144004	0.413573	
-0.1808	-0.171958	0.287248	
-0.14418	-0.0987583	0.389626	
-0.0249018	-0.155268	0.351606	
-0.1108	-0.078009	0.257656	
0.330561	-0.223946	0.39789	
0.172223	-0.208401	0.404687	
0.220158	-0.126618	0.388055	
0.267469	-0.189723	0.33864	
-0.3	0.05	0.5	
-0.335355	0.0353553	0.5	
-0.359322	0.070805	0.5	
-0.334766	0.0144004	0.413573	
0.00200732	-0.17494	0.5	
0.0242468	-0.236607	0.397464	
-0.0249018	-0.155268	0.351606	
0.0505995	-0.0799908	0.413216	
0.287303	-0.106912	0.163595	
0.262514	-0.243164	0.131417	
0.195794	-0.195794	0.279578	
0.166494	-0.172227	0.119812	
0.172599	0.285692	0.5	
0.154396	0.322847	0.356278	
0.254144	0.321855	0.5	
0.278137	0.247763	0.376191	
0.199062	0.200989	0.281957	
0.240662	0.264403	0.150106	
0.305435	0.121825	0.172512	
0.187564	0.123247	0.222007	
-0.317319	0.386405	0.201487	
-0.278552	0.259099	0.267592	
-0.265311	0.22544	0.150174	
-0.192258	0.331995	0.253348	
-0.127619	0.285659	0.171874	
-0.131938	0.201784	0.249878	
-0.153413	0.147726	0.129273	
-0.0375749	0.231137	0.225021	
-0.1808	-0.171958	0.287248	
-0.348281	-0.114759	0.26937	
-0.224353	-0.050686	0.284463	
-0.201128	-0.131883	0.196277	
0.154396	0.322847	0.356278	
0.0790424	0.390413	0.396102	
-0.00291132	0.295217	0.296268	
0.0896207	0.295594	0.416487	
0.00183684	-0.222331	0	
-0.0311508	-0.245667	0.113138	
0.0593425	-0.191106	0.170296	
-0.000733888	-0.121505	0.108367	
0.276476	0.0535537	0	
0.366259	0.00318862	0.135411	
0.305435	0.121825	0.172512	
0.246838	-0.00334576	0.115071	
0.450312	-0.217299	0.354112	
0.334354	-0.126769	0.353658	
0.429476	-0.256028	0.291579	
0.330561	-0.223946	0.39789	
-0.172599	-0.285692	0.5	
-0.161333	-0.314459	0.347253	
-0.254144	-0.321855	0.5	
-0.280119	-0.240952	0.383653	
-0.3	0.05	0.5	
-0.279144	0.0168063	0.5	
-0.334766	0.0144004	0.413573	
-0.233822	0.0792854	0.380146	
-0.0913051	-8.8983e-18	0.5	
-0.0843611	0.070836	0.404426	
-0.0188474	-0.0311526	0.378242	
-0.0627858	-0.0916667	0.423956	
-0.490316	0.0979281	0.24092	
-0.339187	0.0209536	0.163183	
-0.493378	0.0811073	0.146993	
-0.345491	0.130711	0.235494	
-0.00291132	-0.295217	0.296268	
-0.0762452	-0.385017	0.309762	
-0.0754532	-0.211832	0.265564	
-0.0480147	-0.273566	0.222301	
0.305435	0.121825	0.172512	
0.240662	0.264403	0.150106	
0.199062	0.200989	0.281957	
0.322691	0.187554	0.276787	
0.195794	-0.195794	0.279578	
0.220158	-0.126618	0.388055	
0.143938	-0.0508772	0.336308	
0.0950848	-0.154753	0.38384	
-0.275537	-0.116472	0.371913	
-0.348281	-0.114759	0.26937	
-0.1808	-0.171958	0.287248	
-0.332305	-0.222015	0.288549	
-0.161333	-0.314459	0.347253	
-0.280119	-0.240952	0.383653	
-0.1808	-0.171958	0.287248	
-0.252329	-0.26938	0.229497	
0	0.5	0.2	
-0.00366878	0.359505	0.167012	
0.012676	0.397096	0.315269	
-0.11066	0.378543	0.212059	
-0.337562	0.0547633	0	
-0.339187	0.0209536	0.163183	
-0.237047	0.0201392	0	
-0.263013	0.108209	0.143902	
0.0712814	-0.153152	0	
0.0660646	-0.0345177	0.124489	
-0.000733888	-0.121505	0.108367	
0.163971	-0.0679077	0.102014	
0.3168	0.386831	0.395903	
0.154396	0.322847	0.356278	
0.25658	0.429146	0.33124	
0.278137	0.247763	0.376191	
-0.339187	0.0209536	0.163183	
-0.26618	-0.0688348	0.104833	
-0.263013	0.108209	0.143902	
-0.199362	0.0555217	0.187248	
0.255435	-0.105455	0.5	
0.220158	-0.126618	0.388055	
0.216667	-0.05	0.5	
0.327533	-0.0664701	0.421022	
-0.0144004	0.334766	0.39505	
-0.0162135	0.209048	0.397765	
-0.00291132	0.295217	0.296268	
0.0896207	0.295594	0.416487	
0.327662	-0.113303	0.5	
0.334354	-0.126769	0.353658	
0.285692	-0.172599	0.5	
0.327533	-0.0664701	0.421022	
0.199062	0.200989	0.281957	
0.0897997	0.249573	0.16264	
0.240662	0.264403	0.150106	
0.175408	0.155763	0.126683	
-0.1808	-0.171958	0.287248	
-0.122747	-0.214953	0.392685	
-0.0249018	-0.155268	0.351606	
-0.14418	-0.0987583	0.389626	
-0.293731	-0.159381	0.165241	
-0.376845	-0.0849991	0.114782	
-0.278713	-0.14304	0	
-0.307464	-0.233367	0.0932852	
0.0712814	-0.153152	0	
0.0593425	-0.191106	0.170296	
0.00183684	-0.222331	0	
0.0830692	-0.28072	0.10633	
-0.385896	0.317937	0.065638	
-0.217377	0.323067	0.106345	
-0.265311	0.22544	0.150174	
-0.341436	0.209355	0.0876866	
0.305435	0.121825	0.172512	
0.246838	-0.00334576	0.115071	
0.175408	0.155763	0.126683	
0.269795	0.177145	0.0946573	
-0.429476	0.256028	0.291579	
-0.450312	0.217299	0.354112	
-0.471122	0.167464	0.300106	
-0.307691	0.175889	0.353161	
-0.1808	-0.171958	0.287248	
-0.161333	-0.314459	0.347253	
-0.122747	-0.214953	0.392685	
-0.204987	-0.16964	0.406672	
0.0897997	0.249573	0.16264	
0.240662	0.264403	0.150106	
0.223388	0.316601	0.257498	
0.103003	0.248456	0.2762	
-0.214953	0.122747	0.250047	
-0.131938	0.201784	0.249878	
-0.278552	0.259099	0.267592	
-0.222074	0.179419	0.32139	
-0.127619	0.285659	0.171874	
-0.192258	0.331995	0.253348	
-0.131938	0.201784	0.249878	
-0.0766135	0.239584	0.316589	
-0.243391	-0.436762	0.403062	
-0.317197	-0.386505	0.431175	
-0.254144	-0.321855	0.5	
-0.161333	-0.314459	0.347253	
0.0897997	0.249573	0.16264	
0.0401436	0.291204	0	
-0.0258974	0.236971	0.122489	
0.0676938	0.392306	0.0963758	
-0.05	0.05	0.5	
2.83347e-18	-1.91537e-18	0.5	
-0.0843611	0.070836	0.404426	
0.00204538	0.114384	0.406195	
-0.422892	0.0550581	0.5	
-0.334766	0.0144004	0.413573	
-0.376393	0.0217786	0.5	
-0.413166	0.00148403	0.364386	
0.376757	0.328716	0.246468	
0.322691	0.187554	0.276787	
0.223388	0.316601	0.257498	
0.335416	0.221718	0.163027	
0.373696	-0.332191	0.334057	
0.330561	-0.223946	0.39789	
0.321316	-0.199848	0.247358	
0.267469	-0.189723	0.33864	
-0.0887698	-0.154954	0.166843	
-0.1108	-0.078009	0.257656	
-0.0544044	0.00856195	0.134425	
-0.112893	-0.0740846	0.102366	
0.3168	0.386831	0.395903	
0.254144	0.321855	0.5	
0.154396	0.322847	0.356278	
0.278137	0.247763	0.376191	
-0.444481	-0.228991	0.0919014	
-0.376845	-0.0849991	0.114782	
-0.293731	-0.159381	0.165241	
-0.307464	-0.233367	0.0932852	
0.373696	-0.332191	0.334057	
0.240952	-0.280119	0.382753	
0.330561	-0.223946	0.39789	
0.267469	-0.189723	0.33864	
-0.265311	0.22544	0.150174	
-0.345491	0.130711	0.235494	
-0.214953	0.122747	0.250047	
-0.278552	0.259099	0.267592	
-0.00291132	-0.295217	0.296268	
-0.0762452	-0.385017	0.309762	
-0.161333	-0.314459	0.347253	
-0.0754532	-0.211832	0.265564	
-0.429146	-0.25658	0.16876	
-0.293731	-0.159381	0.165241	
-0.434698	-0.247057	0.249501	
-0.332305	-0.222015	0.288549	
-0.334766	0.0144004	0.413573	
-0.233822	0.0792854	0.380146	
-0.279144	0.0168063	0.5	
-0.238936	-0.0228922	0.39847	
-0.0249018	-0.155268	0.351606	
-0.00291132	-0.295217	0.296268	
0.0242468	-0.236607	0.397464	
-0.053625	-0.263276	0.422334	
-0.373696	0.332191	0.334057	
-0.416747	0.276265	0.362548	
-0.278552	0.259099	0.267592	
-0.351832	0.232849	0.406107	
-0.0144004	0.334766	0.39505	
-0.00291132	0.295217	0.296268	
0.0790424	0.390413	0.396102	
0.0896207	0.295594	0.416487	
0.0593425	-0.191106	0.170296	
0.145439	-0.0925419	0.206952	
0.195794	-0.195794	0.279578	
0.166494	-0.172227	0.119812	
0.0627858	0.0916667	0.334361	
-0.0346597	0.0490732	0.303617	
0.0188132	0.185036	0.296288	
0.0179503	0.0450589	0.203027	
0.00200732	-0.17494	0.5	
-0.0249018	-0.155268	0.351606	
0.0242468	-0.236607	0.397464	
-0.053625	-0.263276	0.422334	
0.105455	0.255435	0.5	
0.166493	0.210048	0.5	
0.0895096	0.211893	0.376173	
0.0896207	0.295594	0.416487	
0.172599	0.285692	0.5	
0.19157	0.189079	0.398239	
0.166493	0.210048	0.5	
0.0896207	0.295594	0.416487	
-0.317319	0.386405	0.201487	
-0.192258	0.331995	0.253348	
-0.265311	0.22544	0.150174	
-0.217377	0.323067	0.106345	
0.245477	-0.191651	0	
0.166494	-0.172227	0.119812	
0.262514	-0.243164	0.131417	
0.345961	-0.17739	0.102725	
-0.102488	0.367447	0.313744	
-0.0375749	0.231137	0.225021	
-0.0766135	0.239584	0.316589	
-0.11066	0.378543	0.212059	
-0.0144004	-0.334766	0.39505	
-0.161333	-0.314459	0.347253	
-0.00291132	-0.295217	0.296268	
-0.0762452	-0.385017	0.309762	
0.133074	0.264097	0	
0.0897997	0.249573	0.16264	
0.240662	0.264403	0.150106	
0.164017	0.352353	0.113218	
-0.00291132	-0.295217	0.296268	
-0.0249018	-0.155268	0.351606	
-0.0754532	-0.211832	0.265564	
-0.053625	-0.263276	0.422334	
-0.0162135	0.209048	0.397765	
-0.0843611	0.070836	0.404426	
-0.0770993	0.146668	0.334099	
0.00204538	0.114384	0.406195	
-0.335355	0.0353553	0.5	
-0.376393	0.0217786	0.5	
-0.359322	0.070805	0.5	
-0.334766	0.0144004	0.413573	
0.133074	0.264097	0	
0.231243	0.24169	0	
0.240662	0.264403	0.150106	
0.175408	0.155763	0.126683	
-0.127619	0.285659	0.171874	
-0.153413	0.147726	0.129273	
-0.0258974	0.236971	0.122489	
-0.0375749	0.231137	0.225021	
-0.0353553	0.335355	0.5	
-0.0144004	0.334766	0.39505	
-0.0722049	0.334139	0.5	
-0.0376575	0.408608	0.42489	
-0.471122	0.167464	0.300106	
-0.307691	0.175889	0.353161	
-0.450312	0.217299	0.354112	
-0.393116	0.0762957	0.312097	
0.195794	-0.195794	0.279578	
0.262514	-0.243164	0.131417	
0.287303	-0.106912	0.163595	
0.321316	-0.199848	0.247358	
0.285692	-0.172599	0.5	
0.220158	-0.126618	0.388055	
0.255435	-0.105455	0.5	
0.327533	-0.0664701	0.421022	
-0.471122	0.167464	0.300106	
-0.429476	0.256028	0.291579	
-0.307691	0.175889	0.353161	
-0.345491	0.130711	0.235494	
0.154396	0.322847	0.356278	
-0.00291132	0.295217	0.296268	
0.0790424	0.390413	0.396102	
0.012676	0.397096	0.315269	
0.195794	-0.195794	0.279578	
0.145439	-0.0925419	0.206952	
0.0593425	-0.191106	0.170296	
0.0700441	-0.20677	0.284029	
0.154201	0.040391	0.180059	
0.175408	0.155763	0.126683	
0.305435	0.121825	0.172512	
0.246838	-0.00334576	0.115071	
0.0593425	-0.191106	0.170296	
0.0660646	-0.0345177	0.124489	
-0.000733888	-0.121505	0.108367	
-0.00254485	-0.146451	0.237696	
0.0712814	-0.153152	0	
0.0593425	-0.191106	0.170296	
0.166494	-0.172227	0.119812	
-0.000733888	-0.121505	0.108367	
-0.1808	-0.171958	0.287248	
-0.280119	-0.240952	0.383653	
-0.161333	-0.314459	0.347253	
-0.204987	-0.16964	0.406672	
0.172599	0.285692	0.5	
0.154396	0.322847	0.356278	
0.19157	0.189079	0.398239	
0.0896207	0.295594	0.416487	
-0.434698	-0.247057	0.249501	
-0.293731	-0.159381	0.165241	
-0.468495	-0.174678	0.182891	
-0.348281	-0.114759	0.26937	
0.220158	-0.126618	0.388055	
0.327533	-0.0664701	0.421022	
0.334354	-0.126769	0.353658	
0.251264	-0.0990305	0.284445	
0.10302	0.108424	0.5	
0.144848	0.0930502	0.402842	
0.05	0.05	0.5	
0.00204538	0.114384	0.406195	
0.3168	0.386831	0.395903	
0.25658	0.429146	0.33124	
0.317206	0.386498	0.299678	
0.278137	0.247763	0.376191	
-0.105455	-0.255435	0.5	
-0.105697	-0.361806	0.410161	
-0.122747	-0.214953	0.392685	
-0.053625	-0.263276	0.422334	
0.285692	-0.172599	0.5	
0.220158	-0.126618	0.388055	
0.334354	-0.126769	0.353658	
0.330561	-0.223946	0.39789	
-0.05	0.133333	0.5	
-0.0843611	0.070836	0.404426	
-0.0162135	0.209048	0.397765	
0.00204538	0.114384	0.406195	
0.460548	0.194667	0.23433	
0.305435	0.121825	0.172512	
0.469721	0.171353	0.161666	
0.405658	0.0360531	0.226292	
0.195794	-0.195794	0.279578	
0.0950848	-0.154753	0.38384	
0.143938	-0.0508772	0.336308	
0.0684949	-0.106805	0.298921	
0.199062	0.200989	0.281957	
0.0897997	0.249573	0.16264	
0.175408	0.155763	0.126683	
0.187564	0.123247	0.222007	
0.105455	0.255435	0.5	
0.172599	0.285692	0.5	
0.166493	0.210048	0.5	
0.0896207	0.295594	0.416487	
-0.133323	0.00734514	0.338693	
-0.16628	0.0337112	0.418012	
-0.14418	-0.0987583	0.389626	
-0.0627858	-0.0916667	0.423956	
0.05	0.133333	0.5	
0.00200732	0.174835	0.5	
0.05	0.216667	0.5	
-0.0162135	0.209048	0.397765	
-0.293731	-0.159381	0.165241	
-0.252329	-0.26938	0.229497	
-0.1808	-0.171958	0.287248	
-0.332305	-0.222015	0.288549	
0.0593425	-0.191106	0.170296	
-0.0311508	-0.245667	0.113138	
0.00183684	-0.222331	0	
0.0830692	-0.28072	0.10633	
-0.0249018	-0.155268	0.351606	
0.0242468	-0.236607	0.397464	
0.0950848	-0.154753	0.38384	
0.0505995	-0.0799908	0.413216	
-0.298593	-0.101011	0.5	
-0.257817	-0.0951035	0.5	
-0.275537	-0.116472	0.371913	
-0.322104	-0.0533627	0.432186	
-0.345491	0.130711	0.235494	
-0.372288	0.117054	0.109759	
-0.428104	0.258315	0.196896	
-0.341436	0.209355	0.0876866	
-0.113303	-0.327662	0.5	
-0.172599	-0.285692	0.5	
-0.105455	-0.255435	0.5	
-0.105697	-0.361806	0.410161	
0.305435	0.121825	0.172512	
0.276476	0.0535537	0	
0.246838	-0.00334576	0.115071	
0.269795	0.177145	0.0946573	
-0.0249018	-0.155268	0.351606	
-0.0188474	-0.0311526	0.378242	
0.00434744	-0.0456526	0.250312	
-0.1108	-0.078009	0.257656	
-0.133323	0.00734514	0.338693	
-0.233822	0.0792854	0.380146	
-0.224353	-0.050686	0.284463	
-0.238936	-0.0228922	0.39847	
-0.122747	-0.214953	0.392685	
-0.0754532	-0.211832	0.265564	
-0.0249018	-0.155268	0.351606	
-0.053625	-0.263276	0.422334	
-0.490316	0.0979281	0.24092	
-0.339187	0.0209536	0.163183	
-0.345491	0.130711	0.235494	
-0.400982	-0.0203096	0.245361	
-0.471122	0.167464	0.300106	
-0.345491	0.130711	0.235494	
-0.307691	0.175889	0.353161	
-0.393116	0.0762957	0.312097	
0.287303	-0.106912	0.163595	
0.145439	-0.0925419	0.206952	
0.195794	-0.195794	0.279578	
0.251264	-0.0990305	0.284445	
0.05	0.133333	0.5	
0.05	0.216667	0.5	
0.0895096	0.211893	0.376173	
-0.0162135	0.209048	0.397765	
-0.429476	0.256028	0.291579	
-0.345491	0.130711	0.235494	
-0.428104	0.258315	0.196896	
-0.278552	0.259099	0.267592	
-0.0258974	0.236971	0.122489	
-0.100366	0.376948	0.109973	
-0.0555676	0.325574	0	
-0.163724	0.239688	0.0901709	
-0.332433	-0.136577	0.5	
-0.298593	-0.101011	0.5	
-0.268365	-0.14329	0.5	
-0.346733	-0.171878	0.409849	
0.240662	0.264403	0.150106	
0.322691	0.187554	0.276787	
0.305435	0.121825	0.172512	
0.335416	0.221718	0.163027	
-0.153413	0.147726	0.129273	
-0.131938	0.201784	0.249878	
-0.0310626	0.135135	0.191478	
-0.0375749	0.231137	0.225021	
-0.0887698	-0.154954	0.166843	
-0.000733888	-0.121505	0.108367	
0.00434744	-0.0456526	0.250312	
-0.00254485	-0.146451	0.237696	
0.471122	-0.167464	0.300106	
0.429476	-0.256028	0.291579	
0.450312	-0.217299	0.354112	
0.334354	-0.126769	0.353658	
-0.1808	-0.171958	0.287248	
-0.1108	-0.078009	0.257656	
-0.0249018	-0.155268	0.351606	
-0.0754532	-0.211832	0.265564	
-0.0144004	-0.334766	0.39505	
-0.161333	-0.314459	0.347253	
-0.105697	-0.361806	0.410161	
-0.053625	-0.263276	0.422334	
0.276476	0.0535537	0	
0.305435	0.121825	0.172512	
0.370295	0.150924	0.0941864	
0.269795	0.177145	0.0946573	
-0.00291132	0.295217	0.296268	
-0.00366878	0.359505	0.167012	
0.0897997	0.249573	0.16264	
-0.0375749	0.231137	0.225021	
-0.468495	-0.174678	0.182891	
-0.434698	-0.247057	0.249501	
-0.429146	-0.25658	0.16876	
-0.293731	-0.159381	0.165241	
-0.31384	0.0131388	0.5	
-0.35	0	0.5	
-0.335355	0.0353553	0.5	
-0.334766	0.0144004	0.413573	
0.154201	0.040391	0.180059	
0.305435	0.121825	0.172512	
0.175408	0.155763	0.126683	
0.187564	0.123247	0.222007	
-0.05	0.133333	0.5	
-0.108424	0.10302	0.5	
-0.139117	0.156778	0.5	
-0.0843611	0.070836	0.404426	
0.416747	-0.276265	0.362548	
0.429476	-0.256028	0.291579	
0.373696	-0.332191	0.334057	
0.330561	-0.223946	0.39789	
-0.327738	-0.00493982	0.327054	
-0.224353	-0.050686	0.284463	
-0.233822	0.0792854	0.380146	
-0.238936	-0.0228922	0.39847	
0.092986	0.0135469	0.266479	
0.0781847	0.00688243	0.395457	
-0.0188474	-0.0311526	0.378242	
0.0684949	-0.106805	0.298921	
-0.323938	-0.380873	0.347739	
-0.280119	-0.240952	0.383653	
-0.252329	-0.26938	0.229497	
-0.332305	-0.222015	0.288549	
-0.444481	-0.228991	0.0919014	
-0.293731	-0.159381	0.165241	
-0.429146	-0.25658	0.16876	
-0.307464	-0.233367	0.0932852	
-0.0188474	-0.0311526	0.378242	
-0.0843611	0.070836	0.404426	
2.83347e-18	-1.91537e-18	0.5	
0.00204538	0.114384	0.406195	
-0.0544044	0.00856195	0.134425	
-0.000733888	-0.121505	0.108367	
-0.0887698	-0.154954	0.166843	
-0.112893	-0.0740846	0.102366	
-0.127619	0.285659	0.171874	
-0.100366	0.376948	0.109973	
-0.0258974	0.236971	0.122489	
-0.163724	0.239688	0.0901709	
-0.113303	-0.327662	0.5	
-0.105697	-0.361806	0.410161	
-0.105455	-0.255435	0.5	
-0.053625	-0.263276	0.422334	
0.247868	0.146306	0	
0.184962	0.0799289	0	
0.276476	0.0535537	0	
0.269795	0.177145	0.0946573	
0.0712814	-0.153152	0	
0.166494	-0.172227	0.119812	
0.0593425	-0.191106	0.170296	
0.0830692	-0.28072	0.10633	
-0.172599	-0.285692	0.5	
-0.122747	-0.214953	0.392685	
-0.105455	-0.255435	0.5	
-0.105697	-0.361806	0.410161	
-0.214953	0.122747	0.250047	
-0.158971	0.0982818	0.323671	
-0.273431	0.0345527	0.245119	
-0.199362	0.0555217	0.187248	
0.295217	0.00291132	0.296268	
0.181535	0.0644307	0.301014	
0.143938	-0.0508772	0.336308	
0.22142	0.00817938	0.394574	
0.0627858	0.0916667	0.334361	
0.0188132	0.185036	0.296288	
0.0902163	0.139414	0.221996	
0.0179503	0.0450589	0.203027	
-0.374084	-0.0305468	0.5	
-0.437042	-0.0584891	0.5	
-0.422954	-0.00233139	0.5	
-0.384449	-0.0847771	0.386001	
-0.00291132	0.295217	0.296268	
-0.0375749	0.231137	0.225021	
-0.102488	0.367447	0.313744	
-0.11066	0.378543	0.212059	
0.327662	-0.113303	0.5	
0.285692	-0.172599	0.5	
0.334354	-0.126769	0.353658	
0.330561	-0.223946	0.39789	
0.476132	-0.152637	0.402329	
0.334354	-0.126769	0.353658	
0.327533	-0.0664701	0.421022	
0.408281	-0.0263474	0.41881	
-0.237047	0.0201392	0	
-0.339187	0.0209536	0.163183	
-0.337562	0.0547633	0	
-0.26618	-0.0688348	0.104833	
-0.0372406	0.417791	0	
0	0.5	0.1	
-0.100366	0.376948	0.109973	
0.0676938	0.392306	0.0963758	
0.195794	-0.195794	0.279578	
0.153165	-0.314436	0.187787	
0.166494	-0.172227	0.119812	
0.248064	-0.277814	0.232664	
0.154201	0.040391	0.180059	
0.230609	-0.0211924	0.217185	
0.305435	0.121825	0.172512	
0.187564	0.123247	0.222007	
-0.0310626	0.135135	0.191478	
0.0188132	0.185036	0.296288	
-0.0346597	0.0490732	0.303617	
0.0179503	0.0450589	0.203027	
-0.468495	-0.174678	0.182891	
-0.348281	-0.114759	0.26937	
-0.376845	-0.0849991	0.114782	
-0.400982	-0.0203096	0.245361	
-0.298593	-0.101011	0.5	
-0.275537	-0.116472	0.371913	
-0.268365	-0.14329	0.5	
-0.346733	-0.171878	0.409849	
-0.0722049	0.334139	0.5	
-0.0144004	0.334766	0.39505	
-0.0353553	0.335355	0.5	
-0.00291132	0.295217	0.441595	
0.493389	0.0810399	0.14715	
0.370295	0.150924	0.0941864	
0.366259	0.00318862	0.135411	
0.405658	0.0360531	0.226292	
-0.293731	-0.159381	0.165241	
-0.1808	-0.171958	0.287248	
-0.252329	-0.26938	0.229497	
-0.201128	-0.131883	0.196277	
-0.00291132	0.295217	0.296268	
-0.0162135	0.209048	0.397765	
0.0895096	0.211893	0.376173	
0.0896207	0.295594	0.416487	
0.199062	0.200989	0.281957	
0.0902163	0.139414	0.221996	
0.0897997	0.249573	0.16264	
0.187564	0.123247	0.222007	
-0.153413	0.147726	0.129273	
-0.0310626	0.135135	0.191478	
-0.0258974	0.236971	0.122489	
-0.0375749	0.231137	0.225021	
0.262514	-0.243164	0.131417	
0.166494	-0.172227	0.119812	
0.287303	-0.106912	0.163595	
0.345961	-0.17739	0.102725	
-0.0144004	-0.334766	0.39505	
0.0883979	-0.384548	0.385617	
-0.00291132	-0.295217	0.296268	
0.0533627	-0.322104	0.427266	
-0.153254	0.0418185	0.0989321	
-0.26618	-0.0688348	0.104833	
-0.182857	-0.0350536	0.172086	
-0.199362	0.0555217	0.187248	
-0.00291132	0.295217	0.296268	
0.103003	0.248456	0.2762	
0.154396	0.322847	0.356278	
0.0896207	0.295594	0.416487	
-0.0555676	0.325574	0	
-0.0258974	0.236971	0.122489	
-0.00366878	0.359505	0.167012	
-0.100366	0.376948	0.109973	
-0.493378	0.0811073	0.146993	
-0.339187	0.0209536	0.163183	
-0.490316	0.0979281	0.24092	
-0.400982	-0.0203096	0.245361	
0.334766	0.0144004	0.39505	
0.22142	0.00817938	0.394574	
0.295217	0.00291132	0.296268	
0.327533	-0.0664701	0.421022	
0.166493	0.210048	0.5	
0.19157	0.189079	0.398239	
0.0895096	0.211893	0.376173	
0.0896207	0.295594	0.416487	
-0.214953	0.122747	0.250047	
-0.278552	0.259099	0.267592	
-0.345491	0.130711	0.235494	
-0.222074	0.179419	0.32139	
0.195794	-0.195794	0.279578	
0.143938	-0.0508772	0.336308	
0.145439	-0.0925419	0.206952	
0.0684949	-0.106805	0.298921	
-0.374084	-0.0305468	0.5	
-0.384449	-0.0847771	0.386001	
-0.334766	0.0144004	0.413573	
-0.322104	-0.0533627	0.432186	
0.00200732	-0.17494	0.5	
0.0505995	-0.0799908	0.413216	
-0.0249018	-0.155268	0.351606	
-0.0627858	-0.0916667	0.423956	
-0.1808	-0.171958	0.287248	
-0.0249018	-0.155268	0.351606	
-0.122747	-0.214953	0.392685	
-0.0754532	-0.211832	0.265564	
0.172599	0.285692	0.5	
0.254144	0.321855	0.5	
0.234106	0.240455	0.5	
0.278137	0.247763	0.376191	
-0.127619	0.285659	0.171874	
-0.153413	0.147726	0.129273	
-0.265311	0.22544	0.150174	
-0.163724	0.239688	0.0901709	
0.295217	0.00291132	0.296268	
0.334354	-0.126769	0.353658	
0.327533	-0.0664701	0.421022	
0.251264	-0.0990305	0.284445	
0.327662	-0.113303	0.5	
0.285692	-0.172599	0.5	
0.255435	-0.105455	0.5	
0.327533	-0.0664701	0.421022	
-0.0310626	0.135135	0.191478	
-0.115637	0.0557776	0.228432	
-0.0770993	0.146668	0.334099	
-0.131938	0.201784	0.249878	
-0.468495	-0.174678	0.182891	
-0.348281	-0.114759	0.26937	
-0.293731	-0.159381	0.165241	
-0.376845	-0.0849991	0.114782	
-0.268365	-0.14329	0.5	
-0.275537	-0.116472	0.371913	
-0.257817	-0.0951035	0.5	
-0.204987	-0.16964	0.406672	
0.154396	0.322847	0.356278	
0.100485	0.350272	0.242427	
-0.00291132	0.295217	0.296268	
0.012676	0.397096	0.315269	
-0.344127	-0.112227	0	
-0.376845	-0.0849991	0.114782	
-0.278713	-0.14304	0	
-0.26618	-0.0688348	0.104833	
-0.385896	0.317937	0.065638	
-0.318983	0.261743	0	
-0.217377	0.323067	0.106345	
-0.341436	0.209355	0.0876866	
-0.278713	-0.14304	0	
-0.376845	-0.0849991	0.114782	
-0.293731	-0.159381	0.165241	
-0.26618	-0.0688348	0.104833	
-0.422954	-0.00233139	0.5	
-0.422892	0.0550581	0.5	
-0.376393	0.0217786	0.5	
-0.413166	0.00148403	0.364386	
-0.234106	-0.240455	0.5	
-0.172599	-0.285692	0.5	
-0.254144	-0.321855	0.5	
-0.280119	-0.240952	0.383653	
0.00434744	-0.0456526	0.250312	
-0.115637	0.0557776	0.228432	
-0.0544044	0.00856195	0.134425	
-0.1108	-0.078009	0.257656	
2.83347e-18	-1.91537e-18	0.5	
0.0781847	0.00688243	0.395457	
-0.0188474	-0.0311526	0.378242	
0.00204538	0.114384	0.406195	
0.366259	0.00318862	0.135411	
0.370442	-0.0792839	0.247792	
0.295217	0.00291132	0.296268	
0.230609	-0.0211924	0.217185	
-0.133323	0.00734514	0.338693	
-0.0188474	-0.0311526	0.378242	
-0.1108	-0.078009	0.257656	
-0.0346597	0.0490732	0.303617	
-0.337562	0.0547633	0	
-0.26618	-0.0688348	0.104833	
-0.339187	0.0209536	0.163183	
-0.402083	0.00682085	0.0882368	
0.495293	0.0684459	0.0685965	
0.366259	0.00318862	0.135411	
0.493389	0.0810399	0.14715	
0.370295	0.150924	0.0941864	
0.175	-0.00200732	0.5	
0.0781847	0.00688243	0.395457	
0.22142	0.00817938	0.394574	
0.142037	-0.0864505	0.418568	
0	0.5	0.2	
-0.00366878	0.359505	0.167012	
0.0854243	0.492649	0.251403	
0.012676	0.397096	0.315269	
-0.376393	0.0217786	0.5	
-0.334766	0.0144004	0.413573	
-0.422892	0.0550581	0.5	
-0.36554	0.108479	0.408539	
0.05	0.133333	0.5	
-0.0162135	0.209048	0.397765	
0.0895096	0.211893	0.376173	
0.00204538	0.114384	0.406195	
-0.327738	-0.00493982	0.327054	
-0.233822	0.0792854	0.380146	
-0.224353	-0.050686	0.284463	
-0.273431	0.0345527	0.245119	
-0.0311508	-0.245667	0.113138	
-0.157858	-0.37335	0.109158	
-0.0638367	-0.295761	0	
-0.0517812	-0.402083	0.08893	
0.00200732	0.174835	0.5	
-0.0162135	0.209048	0.397765	
0.05	0.133333	0.5	
0.00204538	0.114384	0.406195	
2.83347e-18	-1.91537e-18	0.5	
0.05	0.05	0.5	
0.0781847	0.00688243	0.395457	
0.00204538	0.114384	0.406195	
0.476132	-0.152637	0.402329	
0.334354	-0.126769	0.353658	
0.403225	-0.114629	0.5	
0.327533	-0.0664701	0.421022	
0.00434744	-0.0456526	0.250312	
0.092986	0.0135469	0.266479	
-0.0188474	-0.0311526	0.378242	
0.0684949	-0.106805	0.298921	
0.334354	-0.126769	0.353658	
0.321316	-0.199848	0.247358	
0.429476	-0.256028	0.291579	
0.330561	-0.223946	0.39789	
-0.0353553	0.335355	0.5	
-0.0722049	0.334139	0.5	
-0.0305468	0.374084	0.5	
-0.0376575	0.408608	0.42489	
-0.0188474	-0.0311526	0.378242	
0.092986	0.0135469	0.266479	
-0.0346597	0.0490732	0.303617	
0.0781847	0.00688243	0.395457	
0.376757	0.328716	0.246468	
0.223388	0.316601	0.257498	
0.240662	0.264403	0.150106	
0.335416	0.221718	0.163027	
-0.0555676	0.325574	0	
-0.100366	0.376948	0.109973	
-0.138674	0.323797	0	
-0.163724	0.239688	0.0901709	
-0.373696	0.332191	0.334057	
-0.416747	0.276265	0.362548	
-0.429476	0.256028	0.291579	
-0.278552	0.259099	0.267592	
0.183279	0.368447	0.5	
0.228991	0.444481	0.408099	
0.254144	0.321855	0.5	
0.154396	0.322847	0.356278	
0.199062	0.200989	0.281957	
0.322691	0.187554	0.276787	
0.240662	0.264403	0.150106	
0.223388	0.316601	0.257498	
0.154201	0.040391	0.180059	
0.246838	-0.00334576	0.115071	
0.305435	0.121825	0.172512	
0.230609	-0.0211924	0.217185	
-0.252329	-0.26938	0.229497	
-0.235178	-0.304806	0.115901	
-0.331632	-0.374193	0.165357	
-0.307464	-0.233367	0.0932852	
-0.00366878	0.359505	0.167012	
0.100485	0.350272	0.242427	
0.0854243	0.492649	0.251403	
0.012676	0.397096	0.315269	
-0.233822	0.0792854	0.380146	
-0.36554	0.108479	0.408539	
-0.3	0.05	0.5	
-0.24957	0.148488	0.428331	
-0.374084	-0.0305468	0.5	
-0.384449	-0.0847771	0.386001	
-0.422954	-0.00233139	0.5	
-0.413166	0.00148403	0.364386	
0.276476	0.0535537	0	
0.370295	0.150924	0.0941864	
0.337634	0.115561	0	
0.269795	0.177145	0.0946573	
0.295217	0.00291132	0.296268	
0.143938	-0.0508772	0.336308	
0.181535	0.0644307	0.301014	
0.230609	-0.0211924	0.217185	
-0.468495	-0.174678	0.182891	
-0.293731	-0.159381	0.165241	
-0.444481	-0.228991	0.0919014	
-0.376845	-0.0849991	0.114782	
0.414991	0.0495125	0	
0.366259	0.00318862	0.135411	
0.495293	0.0684459	0.0685965	
0.370295	0.150924	0.0941864	
0.216667	-0.05	0.5	
0.22142	0.00817938	0.394574	
0.258333	-0.0120439	0.5	
0.327533	-0.0664701	0.421022	
0.328092	0.270243	0	
0.386505	0.317197	0.0688254	
0.240662	0.264403	0.150106	
0.335416	0.221718	0.163027	
0.279144	0.0168063	0.5	
0.22142	0.00817938	0.394574	
0.312528	0.0818724	0.426151	
0.330353	-0.0125725	0.446558	
-0.048473	-0.0328568	0	
0.0660646	-0.0345177	0.124489	
-0.0544044	0.00856195	0.134425	
-0.000733888	-0.121505	0.108367	
0.14072	-0.0839746	0	
0.0660646	-0.0345177	0.124489	
0.0712814	-0.153152	0	
0.163971	-0.0679077	0.102014	
-0.386498	-0.317206	0.200322	
-0.252329	-0.26938	0.229497	
-0.331632	-0.374193	0.165357	
-0.307464	-0.233367	0.0932852	
-0.307691	0.175889	0.353161	
-0.345491	0.130711	0.235494	
-0.278552	0.259099	0.267592	
-0.222074	0.179419	0.32139	
0.328092	0.270243	0	
0.317233	0.386476	0.0904728	
0.261819	0.319027	0	
0.240662	0.264403	0.150106	
0.232997	-0.11062	0	
0.166494	-0.172227	0.119812	
0.287303	-0.106912	0.163595	
0.163971	-0.0679077	0.102014	
0.305435	0.121825	0.172512	
0.246838	-0.00334576	0.115071	
0.366259	0.00318862	0.135411	
0.230609	-0.0211924	0.217185	
-0.243391	-0.436762	0.403062	
-0.323938	-0.380873	0.347739	
-0.317197	-0.386505	0.431175	
-0.161333	-0.314459	0.347253	
-0.374084	-0.0305468	0.5	
-0.334766	0.0144004	0.413573	
-0.384449	-0.0847771	0.386001	
-0.413166	0.00148403	0.364386	
0.228991	0.444481	0.408099	
0.3168	0.386831	0.395903	
0.254144	0.321855	0.5	
0.154396	0.322847	0.356278	
0.305435	0.121825	0.172512	
0.230609	-0.0211924	0.217185	
0.272001	0.0982822	0.26656	
0.187564	0.123247	0.222007	
0.0153159	0.363557	0	
-0.0555676	0.325574	0	
0.0401436	0.291204	0	
-0.0258974	0.236971	0.122489	
0	0.5	0.2	
0.012676	0.397096	0.315269	
-0.0853821	0.492656	0.251348	
-0.11066	0.378543	0.212059	
-0.13253	-0.300587	0.178341	
-0.157858	-0.37335	0.109158	
-0.0311508	-0.245667	0.113138	
-0.0517812	-0.402083	0.08893	
-0.28972	-0.19595	0.5	
-0.346733	-0.171878	0.409849	
-0.268365	-0.14329	0.5	
-0.204987	-0.16964	0.406672	
0.05	0.216667	0.5	
0.104344	0.174965	0.5	
0.05	0.133333	0.5	
0.0895096	0.211893	0.376173	
0.00434744	-0.0456526	0.250312	
-0.000733888	-0.121505	0.108367	
0.0660646	-0.0345177	0.124489	
-0.00254485	-0.146451	0.237696	
-0.344127	-0.112227	0	
-0.376845	-0.0849991	0.114782	
-0.356684	-0.19351	0	
-0.307464	-0.233367	0.0932852	
-0.00291132	0.295217	0.296268	
0.0897997	0.249573	0.16264	
-0.00366878	0.359505	0.167012	
0.100485	0.350272	0.242427	
-0.119993	0.246691	0	
-0.0258974	0.236971	0.122489	
-0.0555676	0.325574	0	
-0.163724	0.239688	0.0901709	
0.0209546	0.0362755	0	
-0.0544044	0.00856195	0.134425	
-0.048473	-0.0328568	0	
0.0660646	-0.0345177	0.124489	
-0.0770993	0.146668	0.334099	
-0.173778	0.167507	0.398056	
-0.0992017	0.278039	0.399962	
-0.0766135	0.239584	0.316589	
-0.468495	-0.174678	0.182891	
-0.376845	-0.0849991	0.114782	
-0.493315	-0.0814864	0.152319	
-0.400982	-0.0203096	0.245361	
0.305435	0.121825	0.172512	
0.322691	0.187554	0.276787	
0.460548	0.194667	0.23433	
0.335416	0.221718	0.163027	
-0.348281	-0.114759	0.26937	
-0.289823	-0.0590788	0.205332	
-0.224353	-0.050686	0.284463	
-0.201128	-0.131883	0.196277	
-0.0310626	0.135135	0.191478	
-0.153413	0.147726	0.129273	
-0.115637	0.0557776	0.228432	
-0.131938	0.201784	0.249878	
-0.38078	0.324048	0.150149	
-0.265311	0.22544	0.150174	
-0.385896	0.317937	0.065638	
-0.217377	0.323067	0.106345	
0.133074	0.264097	0	
0.175408	0.155763	0.126683	
0.0897997	0.249573	0.16264	
0.0541187	0.184721	0.0970632	
0.0897997	0.249573	0.16264	
0.240662	0.264403	0.150106	
0.164017	0.352353	0.113218	
0.223388	0.316601	0.257498	
0.14072	-0.0839746	0	
0.0461078	-0.0584269	0	
0.0712814	-0.153152	0	
0.0660646	-0.0345177	0.124489	
0.240952	-0.280119	0.382753	
0.240455	-0.234106	0.5	
0.330561	-0.223946	0.39789	
0.172223	-0.208401	0.404687	
-0.153254	0.0418185	0.0989321	
-0.26618	-0.0688348	0.104833	
-0.211369	-0.0761151	0	
-0.112893	-0.0740846	0.102366	
-0.214953	0.122747	0.250047	
-0.115637	0.0557776	0.228432	
-0.153413	0.147726	0.129273	
-0.131938	0.201784	0.249878	
0.328092	0.270243	0	
0.386505	0.317197	0.0688254	
0.317233	0.386476	0.0904728	
0.240662	0.264403	0.150106	
-0.172599	-0.285692	0.5	
-0.183279	-0.368447	0.5	
-0.254144	-0.321855	0.5	
-0.161333	-0.314459	0.347253	
0.0897997	0.249573	0.16264	
0.164017	0.352353	0.113218	
0.100485	0.350272	0.242427	
0.223388	0.316601	0.257498	
-0.356684	-0.19351	0	
-0.376845	-0.0849991	0.114782	
-0.444481	-0.228991	0.0919014	
-0.307464	-0.233367	0.0932852	
0.240662	0.264403	0.150106	
0.223388	0.316601	0.257498	
0.322691	0.187554	0.276787	
0.335416	0.221718	0.163027	
0.144848	0.0930502	0.402842	
0.0781847	0.00688243	0.395457	
0.05	0.05	0.5	
0.00204538	0.114384	0.406195	
0.469721	0.171353	0.161666	
0.305435	0.121825	0.172512	
0.370295	0.150924	0.0941864	
0.405658	0.0360531	0.226292	
0.469721	0.171353	0.161666	
0.370295	0.150924	0.0941864	
0.493389	0.0810399	0.14715	
0.405658	0.0360531	0.226292	
-0.323938	-0.380873	0.347739	
-0.328716	-0.376757	0.253532	
-0.252329	-0.26938	0.229497	
-0.182528	-0.349181	0.246007	
0.476132	-0.152637	0.402329	
0.327533	-0.0664701	0.421022	
0.403225	-0.114629	0.5	
0.408281	-0.0263474	0.41881	
-0.444481	-0.228991	0.0919014	
-0.468495	-0.174678	0.182891	
-0.429146	-0.25658	0.16876	
-0.293731	-0.159381	0.165241	
-0.0544044	0.00856195	0.134425	
0.0660646	-0.0345177	0.124489	
0.00434744	-0.0456526	0.250312	
-0.000733888	-0.121505	0.108367	
0.328092	0.270243	0	
0.240662	0.264403	0.150106	
0.269795	0.177145	0.0946573	
0.335416	0.221718	0.163027	
0.00434744	-0.0456526	0.250312	
-0.1108	-0.078009	0.257656	
-0.0188474	-0.0311526	0.378242	
-0.0346597	0.0490732	0.303617	
-0.0144004	0.334766	0.39505	
0.0790424	0.390413	0.396102	
-0.00291132	0.295217	0.296268	
0.012676	0.397096	0.315269	
0.133074	0.264097	0	
0.231243	0.24169	0	
0.189613	0.313662	0	
0.240662	0.264403	0.150106	
-0.133333	-0.05	0.5	
-0.16628	0.0337112	0.418012	
-0.0913051	-8.8983e-18	0.5	
-0.0627858	-0.0916667	0.423956	
-0.133333	-0.05	0.5	
-0.14418	-0.0987583	0.389626	
-0.16628	0.0337112	0.418012	
-0.0627858	-0.0916667	0.423956	
-0.00366878	0.359505	0.167012	
-0.100366	0.376948	0.109973	
0	0.5	0.1	
0.0676938	0.392306	0.0963758	
-0.307123	-0.0146863	0.5	
-0.335355	-0.0353553	0.5	
-0.35	0	0.5	
-0.322104	-0.0533627	0.432186	
0.258333	-0.0120439	0.5	
0.327533	-0.0664701	0.421022	
0.22142	0.00817938	0.394574	
0.330353	-0.0125725	0.446558	
-0.275537	-0.116472	0.371913	
-0.1808	-0.171958	0.287248	
-0.280119	-0.240952	0.383653	
-0.332305	-0.222015	0.288549	
-0.0346597	0.0490732	0.303617	
0.092986	0.0135469	0.266479	
0.0627858	0.0916667	0.334361	
0.0781847	0.00688243	0.395457	
0.314271	-0.0501881	0	
0.366259	0.00318862	0.135411	
0.287303	-0.106912	0.163595	
0.391185	-0.0962828	0.148015	
-0.00366878	0.359505	0.167012	
-0.0375749	0.231137	0.225021	
-0.00291132	0.295217	0.296268	
-0.11066	0.378543	0.212059	
-0.133323	0.00734514	0.338693	
-0.224353	-0.050686	0.284463	
-0.115637	0.0557776	0.228432	
-0.1108	-0.078009	0.257656	
-0.254144	-0.321855	0.5	
-0.183279	-0.368447	0.5	
-0.243391	-0.436762	0.403062	
-0.161333	-0.314459	0.347253	
0.143938	-0.0508772	0.336308	
0.295217	0.00291132	0.296268	
0.22142	0.00817938	0.394574	
0.251264	-0.0990305	0.284445	
-0.00366878	0.359505	0.167012	
-0.00291132	0.295217	0.296268	
0.012676	0.397096	0.315269	
-0.11066	0.378543	0.212059	
0.113303	0.327662	0.5	
0.0790424	0.390413	0.396102	
0.154396	0.322847	0.356278	
0.0896207	0.295594	0.416487	
-0.450312	0.217299	0.354112	
-0.36554	0.108479	0.408539	
-0.307691	0.175889	0.353161	
-0.351832	0.232849	0.406107	
0.0814864	0.493315	0.347681	
0.174678	0.468495	0.317109	
0.0790424	0.390413	0.396102	
0.012676	0.397096	0.315269	
0.373696	-0.332191	0.334057	
0.317163	-0.386533	0.299742	
0.240952	-0.280119	0.382753	
0.248064	-0.277814	0.232664	
0.175408	0.155763	0.126683	
0.246838	-0.00334576	0.115071	
0.154201	0.040391	0.180059	
0.140726	0.0548949	0.0839438	
-0.278713	-0.14304	0	
-0.190069	-0.194114	0.116906	
-0.293731	-0.159381	0.165241	
-0.307464	-0.233367	0.0932852	
0.195794	-0.195794	0.279578	
0.145439	-0.0925419	0.206952	
0.143938	-0.0508772	0.336308	
0.251264	-0.0990305	0.284445	
0.175	-0.00200732	0.5	
0.144848	0.0930502	0.402842	
0.22142	0.00817938	0.394574	
0.0781847	0.00688243	0.395457	
-0.385896	0.317937	0.065638	
-0.265311	0.22544	0.150174	
-0.38078	0.324048	0.150149	
-0.341436	0.209355	0.0876866	
0.199062	0.200989	0.281957	
0.305435	0.121825	0.172512	
0.322691	0.187554	0.276787	
0.187564	0.123247	0.222007	
0.0153159	0.363557	0	
-0.0372406	0.417791	0	
-0.100366	0.376948	0.109973	
0.0676938	0.392306	0.0963758	
-0.0310626	0.135135	0.191478	
0.0902163	0.139414	0.221996	
0.0188132	0.185036	0.296288	
0.0179503	0.0450589	0.203027	
0.199062	0.200989	0.281957	
0.0897997	0.249573	0.16264	
0.0902163	0.139414	0.221996	
0.103003	0.248456	0.2762	
0.0788737	-0.375807	0.268102	
-0.0790397	-0.393483	0.200637	
0	-0.5	0.2	
0.0108992	-0.403509	0.337337	
0.313791	-0.154465	0	
0.232997	-0.11062	0	
0.245477	-0.191651	0	
0.345961	-0.17739	0.102725	
-0.136577	0.332433	0.5	
-0.101011	0.298593	0.5	
-0.14329	0.268365	0.5	
-0.0992017	0.278039	0.399962	
-0.428104	0.258315	0.196896	
-0.265311	0.22544	0.150174	
-0.38078	0.324048	0.150149	
-0.278552	0.259099	0.267592	
-0.0983601	0.156434	0	
-0.0593477	0.116045	0.0905459	
-0.0258974	0.236971	0.122489	
-0.163724	0.239688	0.0901709	
-0.131938	0.201784	0.249878	
-0.0375749	0.231137	0.225021	
-0.127619	0.285659	0.171874	
-0.0766135	0.239584	0.316589	
-0.307123	-0.0146863	0.5	
-0.334766	0.0144004	0.413573	
-0.279144	0.0168063	0.5	
-0.322104	-0.0533627	0.432186	
-0.00291132	-0.295217	0.296268	
0.00794249	-0.354079	0.147071	
0.0788737	-0.375807	0.268102	
-0.0790397	-0.393483	0.200637	
-0.265311	0.22544	0.150174	
-0.192258	0.331995	0.253348	
-0.127619	0.285659	0.171874	
-0.217377	0.323067	0.106345	
-0.3	0.05	0.5	
-0.36554	0.108479	0.408539	
-0.327662	0.113303	0.5	
-0.24957	0.148488	0.428331	
0.314271	-0.0501881	0	
0.287303	-0.106912	0.163595	
0.345961	-0.17739	0.102725	
0.391185	-0.0962828	0.148015	
-0.00291132	-0.295217	0.296268	
0.0788737	-0.375807	0.268102	
-0.0762452	-0.385017	0.309762	
-0.0790397	-0.393483	0.200637	
-0.0555676	0.325574	0	
-0.138674	0.323797	0	
-0.119993	0.246691	0	
-0.163724	0.239688	0.0901709	
0.143938	-0.0508772	0.336308	
0.220158	-0.126618	0.388055	
0.195794	-0.195794	0.279578	
0.251264	-0.0990305	0.284445	
0.105455	0.255435	0.5	
0.166493	0.210048	0.5	
0.104344	0.174965	0.5	
0.0895096	0.211893	0.376173	
0.00434744	-0.0456526	0.250312	
-0.0346597	0.0490732	0.303617	
-0.0188474	-0.0311526	0.378242	
0.092986	0.0135469	0.266479	
-0.0925337	-0.196451	0	
-0.168688	-0.281701	0	
-0.0311508	-0.245667	0.113138	
-0.190069	-0.194114	0.116906	
-0.257956	0.116321	0	
-0.263013	0.108209	0.143902	
-0.153254	0.0418185	0.0989321	
-0.23094	0.170935	0.0823842	
-0.376393	0.0217786	0.5	
-0.335355	0.0353553	0.5	
-0.35	0	0.5	
-0.334766	0.0144004	0.413573	
0.00794249	-0.354079	0.147071	
-0.0790397	-0.393483	0.200637	
-0.00291132	-0.295217	0.296268	
-0.0480147	-0.273566	0.222301	
0.116472	-0.275537	0.364096	
-0.00291132	-0.295217	0.296268	
0.0883979	-0.384548	0.385617	
0.0533627	-0.322104	0.427266	
0.172599	0.285692	0.5	
0.113303	0.327662	0.5	
0.154396	0.322847	0.356278	
0.0896207	0.295594	0.416487	
-0.0555676	0.325574	0	
-0.00366878	0.359505	0.167012	
0.0153159	0.363557	0	
-0.100366	0.376948	0.109973	
0.247868	0.146306	0	
0.175408	0.155763	0.126683	
0.184962	0.0799289	0	
0.269795	0.177145	0.0946573	
0.143938	-0.0508772	0.336308	
0.22142	0.00817938	0.394574	
0.220158	-0.126618	0.388055	
0.251264	-0.0990305	0.284445	
0.0461078	-0.0584269	0	
0.0712814	-0.153152	0	
0.0660646	-0.0345177	0.124489	
-0.000733888	-0.121505	0.108367	
0.240662	0.264403	0.150106	
0.175408	0.155763	0.126683	
0.305435	0.121825	0.172512	
0.187564	0.123247	0.222007	
-0.214953	0.122747	0.250047	
-0.345491	0.130711	0.235494	
-0.265311	0.22544	0.150174	
-0.263013	0.108209	0.143902	
0.374193	0.331632	0.334643	
0.278137	0.247763	0.376191	
0.317206	0.386498	0.299678	
0.223388	0.316601	0.257498	
-0.168688	-0.281701	0	
-0.235178	-0.304806	0.115901	
-0.13253	-0.300587	0.178341	
-0.190069	-0.194114	0.116906	
-0.0328721	-0.370689	0	
0.0248177	-0.313374	0	
-0.0638367	-0.295761	0	
-0.0517812	-0.402083	0.08893	
0.195794	-0.195794	0.279578	
0.0950848	-0.154753	0.38384	
0.116472	-0.275537	0.364096	
0.172223	-0.208401	0.404687	
0.346509	0.0237889	0	
0.366259	0.00318862	0.135411	
0.414991	0.0495125	0	
0.370295	0.150924	0.0941864	
-0.131938	0.201784	0.249878	
-0.192258	0.331995	0.253348	
-0.17825	0.257762	0.338534	
-0.0766135	0.239584	0.316589	
-0.493378	0.0811073	0.146993	
-0.5	0	0.2	
-0.339187	0.0209536	0.163183	
-0.400982	-0.0203096	0.245361	
-0.0770993	0.146668	0.334099	
-0.0992017	0.278039	0.399962	
-0.0162135	0.209048	0.397765	
-0.0766135	0.239584	0.316589	
0.232997	-0.11062	0	
0.287303	-0.106912	0.163595	
0.246838	-0.00334576	0.115071	
0.163971	-0.0679077	0.102014	
0.0807477	0.493437	0.154224	
0.100485	0.350272	0.242427	
-0.00366878	0.359505	0.167012	
0.0676938	0.392306	0.0963758	
0.154396	0.322847	0.356278	
0.0895096	0.211893	0.376173	
0.199062	0.200989	0.281957	
0.19157	0.189079	0.398239	
0.240662	0.264403	0.150106	
0.175408	0.155763	0.126683	
0.231243	0.24169	0	
0.269795	0.177145	0.0946573	
-0.0544044	0.00856195	0.134425	
-0.115637	0.0557776	0.228432	
-0.182857	-0.0350536	0.172086	
-0.1108	-0.078009	0.257656	
-0.470668	-0.168734	0.298219	
-0.348281	-0.114759	0.26937	
-0.384449	-0.0847771	0.386001	
-0.346733	-0.171878	0.409849	
0.199062	0.200989	0.281957	
0.175408	0.155763	0.126683	
0.240662	0.264403	0.150106	
0.187564	0.123247	0.222007	
0.368447	-0.183279	0.5	
0.334354	-0.126769	0.353658	
0.476132	-0.152637	0.402329	
0.330561	-0.223946	0.39789	
0.0902163	0.139414	0.221996	
0.175408	0.155763	0.126683	
0.0897997	0.249573	0.16264	
0.187564	0.123247	0.222007	
-0.0310626	0.135135	0.191478	
0.0902163	0.139414	0.221996	
0.0897997	0.249573	0.16264	
-0.0375749	0.231137	0.225021	
-0.376393	0.0217786	0.5	
-0.422892	0.0550581	0.5	
-0.359322	0.070805	0.5	
-0.36554	0.108479	0.408539	
0.287303	-0.106912	0.163595	
0.366259	0.00318862	0.135411	
0.314271	-0.0501881	0	
0.246838	-0.00334576	0.115071	
-0.0770993	0.146668	0.334099	
-0.115637	0.0557776	0.228432	
-0.0310626	0.135135	0.191478	
-0.0346597	0.0490732	0.303617	
0.145439	-0.0925419	0.206952	
0.0684949	-0.106805	0.298921	
0.00434744	-0.0456526	0.250312	
-0.00254485	-0.146451	0.237696	
-0.142648	-0.00714059	0	
-0.153254	0.0418185	0.0989321	
-0.211369	-0.0761151	0	
-0.112893	-0.0740846	0.102366	
-0.26105	0.203399	0	
-0.214341	0.273759	0	
-0.265311	0.22544	0.150174	
-0.23094	0.170935	0.0823842	
0.366259	0.00318862	0.135411	
0.370295	0.150924	0.0941864	
0.305435	0.121825	0.172512	
0.405658	0.0360531	0.226292	
0.00434744	-0.0456526	0.250312	
-0.1108	-0.078009	0.257656	
-0.0887698	-0.154954	0.166843	
-0.00254485	-0.146451	0.237696	
0.232997	-0.11062	0	
0.287303	-0.106912	0.163595	
0.314271	-0.0501881	0	
0.246838	-0.00334576	0.115071	
0.133074	0.264097	0	
0.240662	0.264403	0.150106	
0.189613	0.313662	0	
0.164017	0.352353	0.113218	
0.429476	-0.256028	0.291579	
0.334354	-0.126769	0.353658	
0.471122	-0.167464	0.300106	
0.321316	-0.199848	0.247358	
-0.428104	0.258315	0.196896	
-0.345491	0.130711	0.235494	
-0.469621	0.171627	0.160116	
-0.372288	0.117054	0.109759	
0.0897997	0.249573	0.16264	
0.223388	0.316601	0.257498	
0.100485	0.350272	0.242427	
0.103003	0.248456	0.2762	
-0.00291132	0.295217	0.296268	
0.100485	0.350272	0.242427	
0.154396	0.322847	0.356278	
0.103003	0.248456	0.2762	
-0.469621	0.171627	0.160116	
-0.345491	0.130711	0.235494	
-0.493378	0.0811073	0.146993	
-0.372288	0.117054	0.109759	
0.295217	0.00291132	0.296268	
0.251264	-0.0990305	0.284445	
0.143938	-0.0508772	0.336308	
0.230609	-0.0211924	0.217185	
0.0153159	0.363557	0	
-0.100366	0.376948	0.109973	
-0.00366878	0.359505	0.167012	
0.0676938	0.392306	0.0963758	
-0.0310626	0.135135	0.191478	
0.0188132	0.185036	0.296288	
-0.0770993	0.146668	0.334099	
-0.0346597	0.0490732	0.303617	
-0.115637	0.0557776	0.228432	
-0.224353	-0.050686	0.284463	
-0.182857	-0.0350536	0.172086	
-0.1108	-0.078009	0.257656	
0.374193	0.331632	0.334643	
0.317206	0.386498	0.299678	
0.376757	0.328716	0.246468	
0.223388	0.316601	0.257498	
0.195794	-0.195794	0.279578	
0.220158	-0.126618	0.388055	
0.0950848	-0.154753	0.38384	
0.172223	-0.208401	0.404687	
-0.182857	-0.0350536	0.172086	
-0.26618	-0.0688348	0.104833	
-0.153254	0.0418185	0.0989321	
-0.112893	-0.0740846	0.102366	
-0.0722049	0.334139	0.5	
-0.0992017	0.278039	0.399962	
-0.101011	0.298593	0.5	
-0.129243	0.372125	0.409369	
-0.339187	0.0209536	0.163183	
-0.182857	-0.0350536	0.172086	
-0.26618	-0.0688348	0.104833	
-0.199362	0.0555217	0.187248	
0.300884	0.198715	0	
0.373926	0.198925	0	
0.328092	0.270243	0	
0.370295	0.150924	0.0941864	
-0.00291132	0.295217	0.296268	
0.0895096	0.211893	0.376173	
0.103003	0.248456	0.2762	
0.0896207	0.295594	0.416487	
0.416747	-0.276265	0.362548	
0.450312	-0.217299	0.354112	
0.429476	-0.256028	0.291579	
0.330561	-0.223946	0.39789	
-0.161333	-0.314459	0.347253	
-0.0762452	-0.385017	0.309762	
-0.0144004	-0.334766	0.39505	
-0.105697	-0.361806	0.410161	
-0.1808	-0.171958	0.287248	
-0.122747	-0.214953	0.392685	
-0.161333	-0.314459	0.347253	
-0.0754532	-0.211832	0.265564	
-0.0544044	0.00856195	0.134425	
0.0660646	-0.0345177	0.124489	
0.0209546	0.0362755	0	
0.0540853	0.0877179	0.116287	
-0.279144	0.0168063	0.5	
-0.233822	0.0792854	0.380146	
-0.216667	0.05	0.5	
-0.238936	-0.0228922	0.39847	
0.316847	0.386792	0.198616	
0.240662	0.264403	0.150106	
0.376757	0.328716	0.246468	
0.223388	0.316601	0.257498	
-0.233822	0.0792854	0.380146	
-0.158971	0.0982818	0.323671	
-0.273431	0.0345527	0.245119	
-0.30053	0.0904691	0.315276	
-0.0925337	-0.196451	0	
-0.0887698	-0.154954	0.166843	
-0.000733888	-0.121505	0.108367	
-0.112893	-0.0740846	0.102366	
0.335355	0.0353553	0.5	
0.31384	0.0131388	0.5	
0.3	0.05	0.5	
0.330353	-0.0125725	0.446558	
-0.3	0.05	0.5	
-0.216667	0.05	0.5	
-0.279144	0.0168063	0.5	
-0.233822	0.0792854	0.380146	
0.00434744	-0.0456526	0.250312	
0.145439	-0.0925419	0.206952	
0.0660646	-0.0345177	0.124489	
0.092986	0.0135469	0.266479	
0.216667	-0.05	0.5	
0.22142	0.00817938	0.394574	
0.220158	-0.126618	0.388055	
0.142037	-0.0864505	0.418568	
-0.327738	-0.00493982	0.327054	
-0.233822	0.0792854	0.380146	
-0.273431	0.0345527	0.245119	
-0.30053	0.0904691	0.315276	
0.0461078	-0.0584269	0	
0.0660646	-0.0345177	0.124489	
-0.048473	-0.0328568	0	
-0.000733888	-0.121505	0.108367	
-0.161333	-0.314459	0.347253	
-0.122747	-0.214953	0.392685	
-0.172599	-0.285692	0.5	
-0.105697	-0.361806	0.410161	
0.366259	0.00318862	0.135411	
0.295217	0.00291132	0.296268	
0.370442	-0.0792839	0.247792	
0.405658	0.0360531	0.226292	
0.476132	-0.152637	0.402329	
0.334354	-0.126769	0.353658	
0.450312	-0.217299	0.354112	
0.330561	-0.223946	0.39789	
0.00434744	-0.0456526	0.250312	
-0.115637	0.0557776	0.228432	
-0.1108	-0.078009	0.257656	
-0.0346597	0.0490732	0.303617	
0.0807477	0.493437	0.154224	
0.0854243	0.492649	0.251403	
-0.00366878	0.359505	0.167012	
0.100485	0.350272	0.242427	
-0.17825	0.257762	0.338534	
-0.0770993	0.146668	0.334099	
-0.173778	0.167507	0.398056	
-0.222074	0.179419	0.32139	
0.262514	-0.243164	0.131417	
0.321316	-0.199848	0.247358	
0.195794	-0.195794	0.279578	
0.248064	-0.277814	0.232664	
-0.255435	0.105455	0.5	
-0.3	0.05	0.5	
-0.327662	0.113303	0.5	
-0.24957	0.148488	0.428331	
-0.0770993	0.146668	0.334099	
-0.131938	0.201784	0.249878	
-0.115637	0.0557776	0.228432	
-0.158971	0.0982818	0.323671	
0.143938	-0.0508772	0.336308	
0.22142	0.00817938	0.394574	
0.181535	0.0644307	0.301014	
0.144848	0.0930502	0.402842	
0.195794	-0.195794	0.279578	
0.166494	-0.172227	0.119812	
0.262514	-0.243164	0.131417	
0.248064	-0.277814	0.232664	
0.471122	-0.167464	0.300106	
0.321316	-0.199848	0.247358	
0.334354	-0.126769	0.353658	
0.370442	-0.0792839	0.247792	
-0.293731	-0.159381	0.165241	
-0.190069	-0.194114	0.116906	
-0.278713	-0.14304	0	
-0.26618	-0.0688348	0.104833	
0.116472	-0.275537	0.364096	
0.187872	-0.340275	0.296975	
0.0788737	-0.375807	0.268102	
0.0597845	-0.282871	0.216064	
-0.444481	-0.228991	0.0919014	
-0.356684	-0.19351	0	
-0.41072	-0.12459	0	
-0.376845	-0.0849991	0.114782	
0.493012	-0.0833019	0.344789	
0.334354	-0.126769	0.353658	
0.408281	-0.0263474	0.41881	
0.396971	-0.0114452	0.318812	
-0.255435	0.105455	0.5	
-0.233822	0.0792854	0.380146	
-0.3	0.05	0.5	
-0.24957	0.148488	0.428331	
0.0627858	0.0916667	0.334361	
0.144848	0.0930502	0.402842	
0.0895096	0.211893	0.376173	
0.00204538	0.114384	0.406195	
0.287303	-0.106912	0.163595	
0.195794	-0.195794	0.279578	
0.321316	-0.199848	0.247358	
0.251264	-0.0990305	0.284445	
-0.277785	-0.415735	0.134138	
-0.257824	-0.4284	0.204976	
-0.217356	-0.450285	0.144698	
-0.157858	-0.37335	0.109158	
-0.17825	0.257762	0.338534	
-0.131938	0.201784	0.249878	
-0.278552	0.259099	0.267592	
-0.192258	0.331995	0.253348	
0.183279	0.368447	0.5	
0.254144	0.321855	0.5	
0.172599	0.285692	0.5	
0.154396	0.322847	0.356278	
-0.17825	0.257762	0.338534	
-0.131938	0.201784	0.249878	
-0.0770993	0.146668	0.334099	
-0.222074	0.179419	0.32139	
0.154396	0.322847	0.356278	
0.199062	0.200989	0.281957	
0.278137	0.247763	0.376191	
0.19157	0.189079	0.398239	
0.0807376	-0.493438	0.154216	
0.00794249	-0.354079	0.147071	
0.0788737	-0.375807	0.268102	
0.0970803	-0.385859	0.0985367	
-0.339187	0.0209536	0.163183	
-0.289823	-0.0590788	0.205332	
-0.182857	-0.0350536	0.172086	
-0.199362	0.0555217	0.187248	
-0.0925337	-0.196451	0	
-0.190069	-0.194114	0.116906	
-0.0887698	-0.154954	0.166843	
-0.112893	-0.0740846	0.102366	
0.22142	0.00817938	0.394574	
0.144848	0.0930502	0.402842	
0.143938	-0.0508772	0.336308	
0.0781847	0.00688243	0.395457	
0.0209546	0.0362755	0	
-0.048473	-0.0328568	0	
0.0461078	-0.0584269	0	
0.0660646	-0.0345177	0.124489	
-0.490316	0.0979281	0.24092	
-0.400982	-0.0203096	0.245361	
-0.345491	0.130711	0.235494	
-0.393116	0.0762957	0.312097	
-0.1808	-0.171958	0.287248	
-0.252329	-0.26938	0.229497	
-0.280119	-0.240952	0.383653	
-0.332305	-0.222015	0.288549	
0.429476	-0.256028	0.291579	
0.321316	-0.199848	0.247358	
0.373696	-0.332191	0.334057	
0.330561	-0.223946	0.39789	
-0.273315	0.334955	0	
-0.317131	0.386559	0.0881616	
-0.318983	0.261743	0	
-0.217377	0.323067	0.106345	
-0.339187	0.0209536	0.163183	
-0.263013	0.108209	0.143902	
-0.337562	0.0547633	0	
-0.372288	0.117054	0.109759	
-0.0544044	0.00856195	0.134425	
-0.1108	-0.078009	0.257656	
-0.182857	-0.0350536	0.172086	
-0.112893	-0.0740846	0.102366	
-0.173778	0.167507	0.398056	
-0.0843611	0.070836	0.404426	
-0.174965	0.104344	0.5	
-0.16628	0.0337112	0.418012	
-0.00291132	0.295217	0.296268	
0.0897997	0.249573	0.16264	
0.103003	0.248456	0.2762	
-0.0375749	0.231137	0.225021	
-0.5	0	0.2	
-0.493378	0.0811073	0.146993	
-0.339187	0.0209536	0.163183	
-0.402083	0.00682085	0.0882368	
-0.214953	0.122747	0.250047	
-0.115637	0.0557776	0.228432	
-0.158971	0.0982818	0.323671	
-0.199362	0.0555217	0.187248	
-0.384449	-0.0847771	0.386001	
-0.348281	-0.114759	0.26937	
-0.493437	-0.0807477	0.345776	
-0.400982	-0.0203096	0.245361	
0.278137	0.247763	0.376191	
0.322691	0.187554	0.276787	
0.374193	0.331632	0.334643	
0.359753	0.20612	0.3581	
-0.493315	-0.0814864	0.152319	
-0.400982	-0.0203096	0.245361	
-0.376845	-0.0849991	0.114782	
-0.402083	0.00682085	0.0882368	
-0.17825	0.257762	0.338534	
-0.278552	0.259099	0.267592	
-0.131938	0.201784	0.249878	
-0.222074	0.179419	0.32139	
-0.257956	0.116321	0	
-0.263013	0.108209	0.143902	
-0.237047	0.0201392	0	
-0.153254	0.0418185	0.0989321	
0.10302	0.108424	0.5	
0.05	0.05	0.5	
0.05	0.133333	0.5	
0.00204538	0.114384	0.406195	
0.0895096	0.211893	0.376173	
0.19157	0.189079	0.398239	
0.104344	0.174965	0.5	
0.144848	0.0930502	0.402842	
0.0807477	0.493437	0.154224	
0.0854243	0.492649	0.251403	
0	0.5	0.2	
-0.00366878	0.359505	0.167012	
0.403225	-0.114629	0.5	
0.476132	-0.152637	0.402329	
0.368447	-0.183279	0.5	
0.334354	-0.126769	0.353658	
-0.323938	-0.380873	0.347739	
-0.252329	-0.26938	0.229497	
-0.386792	-0.316847	0.301384	
-0.332305	-0.222015	0.288549	
0.240952	-0.280119	0.382753	
0.172223	-0.208401	0.404687	
0.330561	-0.223946	0.39789	
0.267469	-0.189723	0.33864	
0.100485	0.350272	0.242427	
0.164017	0.352353	0.113218	
0.168734	0.470668	0.201781	
0.223388	0.316601	0.257498	
-0.265311	0.22544	0.150174	
-0.153413	0.147726	0.129273	
-0.214953	0.122747	0.250047	
-0.263013	0.108209	0.143902	
0.166494	-0.172227	0.119812	
0.0830692	-0.28072	0.10633	
0.201164	-0.273578	0	
0.216998	-0.338361	0.102062	
-0.422892	0.0550581	0.5	
-0.36554	0.108479	0.408539	
-0.334766	0.0144004	0.413573	
-0.413166	0.00148403	0.364386	
0.300884	0.198715	0	
0.370295	0.150924	0.0941864	
0.328092	0.270243	0	
0.269795	0.177145	0.0946573	
-0.416747	0.276265	0.362548	
-0.450312	0.217299	0.354112	
-0.429476	0.256028	0.291579	
-0.351832	0.232849	0.406107	
-0.428104	0.258315	0.196896	
-0.38078	0.324048	0.150149	
-0.377032	0.3284	0.243217	
-0.278552	0.259099	0.267592	
-0.323938	-0.380873	0.347739	
-0.328716	-0.376757	0.253532	
-0.386792	-0.316847	0.301384	
-0.252329	-0.26938	0.229497	
-0.0762452	-0.385017	0.309762	
-0.0790397	-0.393483	0.200637	
0.0788737	-0.375807	0.268102	
0.0108992	-0.403509	0.337337	
0.287303	-0.106912	0.163595	
0.370442	-0.0792839	0.247792	
0.366259	0.00318862	0.135411	
0.230609	-0.0211924	0.217185	
0.469721	0.171353	0.161666	
0.305435	0.121825	0.172512	
0.460548	0.194667	0.23433	
0.335416	0.221718	0.163027	
0.327662	-0.113303	0.5	
0.334354	-0.126769	0.353658	
0.368447	-0.183279	0.5	
0.330561	-0.223946	0.39789	
-0.307691	0.175889	0.353161	
-0.345491	0.130711	0.235494	
-0.222074	0.179419	0.32139	
-0.30053	0.0904691	0.315276	
0.373696	-0.332191	0.334057	
0.321316	-0.199848	0.247358	
0.377032	-0.3284	0.243217	
0.248064	-0.277814	0.232664	
-0.275537	-0.116472	0.371913	
-0.280119	-0.240952	0.383653	
-0.1808	-0.171958	0.287248	
-0.204987	-0.16964	0.406672	
-0.182857	-0.0350536	0.172086	
-0.224353	-0.050686	0.284463	
-0.115637	0.0557776	0.228432	
-0.199362	0.0555217	0.187248	
0.133074	0.264097	0	
0.158056	0.171884	0	
0.231243	0.24169	0	
0.175408	0.155763	0.126683	
0.0902163	0.139414	0.221996	
0.0188132	0.185036	0.296288	
0.0897997	0.249573	0.16264	
-0.0375749	0.231137	0.225021	
-0.13253	-0.300587	0.178341	
-0.0311508	-0.245667	0.113138	
0.00794249	-0.354079	0.147071	
-0.0517812	-0.402083	0.08893	
-0.00291132	-0.295217	0.296268	
-0.0762452	-0.385017	0.309762	
0.0788737	-0.375807	0.268102	
0.0108992	-0.403509	0.337337	
-0.275537	-0.116472	0.371913	
-0.14418	-0.0987583	0.389626	
-0.1808	-0.171958	0.287248	
-0.224353	-0.050686	0.284463	
0.305435	0.121825	0.172512	
0.175408	0.155763	0.126683	
0.240662	0.264403	0.150106	
0.269795	0.177145	0.0946573	
-0.127619	0.285659	0.171874	
-0.0375749	0.231137	0.225021	
-0.00366878	0.359505	0.167012	
-0.11066	0.378543	0.212059	
-0.0258974	0.236971	0.122489	
-0.0593477	0.116045	0.0905459	
-0.153413	0.147726	0.129273	
-0.163724	0.239688	0.0901709	
0.3	-0.05	0.5	
0.255435	-0.105455	0.5	
0.216667	-0.05	0.5	
0.327533	-0.0664701	0.421022	
-0.444481	-0.228991	0.0919014	
-0.41072	-0.12459	0	
-0.477948	-0.146853	0.0840084	
-0.376845	-0.0849991	0.114782	
0.104344	0.174965	0.5	
0.0895096	0.211893	0.376173	
0.166493	0.210048	0.5	
0.19157	0.189079	0.398239	
-0.0925337	-0.196451	0	
-0.0311508	-0.245667	0.113138	
-0.0887698	-0.154954	0.166843	
-0.190069	-0.194114	0.116906	
-0.428104	0.258315	0.196896	
-0.372288	0.117054	0.109759	
-0.469621	0.171627	0.160116	
-0.341436	0.209355	0.0876866	
-0.17494	-0.00200732	0.5	
-0.133333	-0.05	0.5	
-0.216667	-0.05	0.5	
-0.238936	-0.0228922	0.39847	
-0.323938	-0.380873	0.347739	
-0.161333	-0.314459	0.347253	
-0.258165	-0.428195	0.298245	
-0.182528	-0.349181	0.246007	
0.153165	-0.314436	0.187787	
0.0830692	-0.28072	0.10633	
0.166494	-0.172227	0.119812	
0.216998	-0.338361	0.102062	
-0.265311	0.22544	0.150174	
-0.372288	0.117054	0.109759	
-0.345491	0.130711	0.235494	
-0.341436	0.209355	0.0876866	
-0.273431	0.0345527	0.245119	
-0.158971	0.0982818	0.323671	
-0.214953	0.122747	0.250047	
-0.30053	0.0904691	0.315276	
0	0.35	0.5	
-0.0131388	0.31384	0.5	
-0.0353553	0.335355	0.5	
-0.00291132	0.295217	0.441595	
0.0897997	0.249573	0.16264	
-0.0258974	0.236971	0.122489	
0.0401436	0.291204	0	
0.0541187	0.184721	0.0970632	
0.00794249	-0.354079	0.147071	
-0.0311508	-0.245667	0.113138	
0.0248177	-0.313374	0	
-0.0517812	-0.402083	0.08893	
-0.00291132	0.295217	0.296268	
0.0897997	0.249573	0.16264	
0.100485	0.350272	0.242427	
0.103003	0.248456	0.2762	
0.493012	-0.0833019	0.344789	
0.370442	-0.0792839	0.247792	
0.334354	-0.126769	0.353658	
0.396971	-0.0114452	0.318812	
0.231243	0.24169	0	
0.328092	0.270243	0	
0.240662	0.264403	0.150106	
0.269795	0.177145	0.0946573	
-0.0144004	0.334766	0.39505	
-0.0992017	0.278039	0.399962	
-0.0722049	0.334139	0.5	
-0.129243	0.372125	0.409369	
0.278137	0.247763	0.376191	
0.322691	0.187554	0.276787	
0.199062	0.200989	0.281957	
0.223388	0.316601	0.257498	
-0.19595	0.28972	0.5	
-0.129243	0.372125	0.409369	
-0.136577	0.332433	0.5	
-0.178187	0.257719	0.423389	
-0.265311	0.22544	0.150174	
-0.263013	0.108209	0.143902	
-0.345491	0.130711	0.235494	
-0.372288	0.117054	0.109759	
0.175	-0.00200732	0.5	
0.133333	-0.05	0.5	
0.0781847	0.00688243	0.395457	
0.142037	-0.0864505	0.418568	
0.143938	-0.0508772	0.336308	
0.092986	0.0135469	0.266479	
0.181535	0.0644307	0.301014	
0.230609	-0.0211924	0.217185	
0.195794	-0.195794	0.279578	
0.145439	-0.0925419	0.206952	
0.0700441	-0.20677	0.284029	
0.0684949	-0.106805	0.298921	
0.00794249	-0.354079	0.147071	
0	-0.5	0.2	
0.0788737	-0.375807	0.268102	
-0.0790397	-0.393483	0.200637	
-0.0310626	0.135135	0.191478	
0.0897997	0.249573	0.16264	
-0.0258974	0.236971	0.122489	
-0.0375749	0.231137	0.225021	
0.00434744	-0.0456526	0.250312	
-0.0544044	0.00856195	0.134425	
-0.115637	0.0557776	0.228432	
0.0179503	0.0450589	0.203027	
0.143938	-0.0508772	0.336308	
0.144848	0.0930502	0.402842	
0.181535	0.0644307	0.301014	
0.0781847	0.00688243	0.395457	
0.262514	-0.243164	0.131417	
0.321316	-0.199848	0.247358	
0.428104	-0.258315	0.196896	
0.345961	-0.17739	0.102725	
-0.468495	-0.174678	0.182891	
-0.492649	-0.0854243	0.248597	
-0.348281	-0.114759	0.26937	
-0.400982	-0.0203096	0.245361	
0.3	-0.05	0.5	
0.216667	-0.05	0.5	
0.258333	-0.0120439	0.5	
0.327533	-0.0664701	0.421022	
-0.348281	-0.114759	0.26937	
-0.346733	-0.171878	0.409849	
-0.470668	-0.168734	0.298219	
-0.332305	-0.222015	0.288549	
0.321316	-0.199848	0.247358	
0.469621	-0.171627	0.160116	
0.345961	-0.17739	0.102725	
0.391185	-0.0962828	0.148015	
-0.115637	0.0557776	0.228432	
-0.153254	0.0418185	0.0989321	
-0.153413	0.147726	0.129273	
-0.0593477	0.116045	0.0905459	
0.174678	0.468495	0.317109	
0.154396	0.322847	0.356278	
0.100485	0.350272	0.242427	
0.223388	0.316601	0.257498	
0.00434744	-0.0456526	0.250312	
-0.0249018	-0.155268	0.351606	
-0.1108	-0.078009	0.257656	
-0.00254485	-0.146451	0.237696	
0.195794	-0.195794	0.279578	
0.116472	-0.275537	0.364096	
0.0950848	-0.154753	0.38384	
0.0700441	-0.20677	0.284029	
-0.0704474	0.495012	0.0718449	
-0.0372406	0.417791	0	
0	0.5	0.1	
-0.100366	0.376948	0.109973	
-0.257956	0.116321	0	
-0.153254	0.0418185	0.0989321	
-0.16685	0.0883447	0	
-0.23094	0.170935	0.0823842	
0.471122	-0.167464	0.300106	
0.334354	-0.126769	0.353658	
0.493012	-0.0833019	0.344789	
0.370442	-0.0792839	0.247792	
-0.102488	0.367447	0.313744	
0.012676	0.397096	0.315269	
-0.00291132	0.295217	0.296268	
-0.11066	0.378543	0.212059	
-0.119993	0.246691	0	
-0.0983601	0.156434	0	
-0.0258974	0.236971	0.122489	
-0.163724	0.239688	0.0901709	
-0.257817	-0.0951035	0.5	
-0.238936	-0.0228922	0.39847	
-0.275537	-0.116472	0.371913	
-0.322104	-0.0533627	0.432186	
0.261819	0.319027	0	
0.231243	0.24169	0	
0.328092	0.270243	0	
0.240662	0.264403	0.150106	
-0.268365	-0.14329	0.5	
-0.346733	-0.171878	0.409849	
-0.275537	-0.116472	0.371913	
-0.204987	-0.16964	0.406672	
0.199062	0.200989	0.281957	
0.322691	0.187554	0.276787	
0.272001	0.0982822	0.26656	
0.187564	0.123247	0.222007	
-0.437042	-0.0584891	0.5	
-0.422954	-0.00233139	0.5	
-0.384449	-0.0847771	0.386001	
-0.413166	0.00148403	0.364386	
0.05	0.216667	0.5	
0.0896207	0.295594	0.416487	
-0.0162135	0.209048	0.397765	
-0.00291132	0.295217	0.441595	
0.0897997	0.249573	0.16264	
0.0902163	0.139414	0.221996	
-0.0310626	0.135135	0.191478	
0.0541187	0.184721	0.0970632	
-0.00291132	-0.295217	0.296268	
0.0242468	-0.236607	0.397464	
-0.0144004	-0.334766	0.39505	
0.0533627	-0.322104	0.427266	
-0.05	0.216667	0.5	
-0.0992017	0.278039	0.399962	
-0.0951035	0.257817	0.5	
-0.00291132	0.295217	0.441595	
-0.0925337	-0.196451	0	
-0.0887698	-0.154954	0.166843	
-0.0311508	-0.245667	0.113138	
-0.000733888	-0.121505	0.108367	
-0.0353553	0.335355	0.5	
-0.0305468	0.374084	0.5	
0.0222826	0.353795	0.441823	
-0.0376575	0.408608	0.42489	
-0.214953	0.122747	0.250047	
-0.222074	0.179419	0.32139	
-0.345491	0.130711	0.235494	
-0.30053	0.0904691	0.315276	
-0.302044	-0.0506462	0	
-0.26618	-0.0688348	0.104833	
-0.337562	0.0547633	0	
-0.402083	0.00682085	0.0882368	
0	-0.5	0.3	
0	-0.5	0.2	
-0.0790397	-0.393483	0.200637	
0.0108992	-0.403509	0.337337	
-0.317163	0.386533	0.299742	
-0.271387	0.271262	0.399079	
-0.278552	0.259099	0.267592	
-0.214786	0.345979	0.366075	
-0.298593	-0.101011	0.5	
-0.332433	-0.136577	0.5	
-0.322104	-0.0533627	0.432186	
-0.346733	-0.171878	0.409849	
-0.05	0.133333	0.5	
-0.110158	0.209083	0.5	
-0.05	0.216667	0.5	
-0.0162135	0.209048	0.397765	
0.195794	-0.195794	0.279578	
0.0700441	-0.20677	0.284029	
0.0950848	-0.154753	0.38384	
0.0684949	-0.106805	0.298921	
0	-0.5	0.3	
-0.0790397	-0.393483	0.200637	
-0.0762452	-0.385017	0.309762	
0.0108992	-0.403509	0.337337	
0.305435	0.121825	0.172512	
0.272001	0.0982822	0.26656	
0.322691	0.187554	0.276787	
0.187564	0.123247	0.222007	
0.328092	0.270243	0	
0.269795	0.177145	0.0946573	
0.370295	0.150924	0.0941864	
0.335416	0.221718	0.163027	
-0.133323	0.00734514	0.338693	
-0.1108	-0.078009	0.257656	
-0.115637	0.0557776	0.228432	
-0.0346597	0.0490732	0.303617	
0.158056	0.171884	0	
0.175408	0.155763	0.126683	
0.133074	0.264097	0	
0.0541187	0.184721	0.0970632	
-0.26105	0.203399	0	
-0.265311	0.22544	0.150174	
-0.341436	0.209355	0.0876866	
-0.23094	0.170935	0.0823842	
-0.209083	-0.110158	0.5	
-0.238936	-0.0228922	0.39847	
-0.14418	-0.0987583	0.389626	
-0.204987	-0.16964	0.406672	
-0.127619	0.285659	0.171874	
-0.0258974	0.236971	0.122489	
-0.153413	0.147726	0.129273	
-0.163724	0.239688	0.0901709	
-0.13253	-0.300587	0.178341	
-0.235178	-0.304806	0.115901	
-0.168688	-0.281701	0	
-0.157858	-0.37335	0.109158	
-0.339187	0.0209536	0.163183	
-0.26618	-0.0688348	0.104833	
-0.182857	-0.0350536	0.172086	
-0.289823	-0.0590788	0.205332	
-0.38078	0.324048	0.150149	
-0.265311	0.22544	0.150174	
-0.317319	0.386405	0.201487	
-0.278552	0.259099	0.267592	
0.373926	0.198925	0	
0.436762	0.243391	0.0969381	
0.328092	0.270243	0	
0.370295	0.150924	0.0941864	
0.334766	0.0144004	0.39505	
0.327533	-0.0664701	0.421022	
0.295217	0.00291132	0.296268	
0.396971	-0.0114452	0.318812	
-0.0887698	-0.154954	0.166843	
-0.0311508	-0.245667	0.113138	
-0.13253	-0.300587	0.178341	
-0.190069	-0.194114	0.116906	
-0.209083	-0.110158	0.5	
-0.257817	-0.0951035	0.5	
-0.216667	-0.05	0.5	
-0.238936	-0.0228922	0.39847	
-0.0544044	0.00856195	0.134425	
0.0540853	0.0877179	0.116287	
0.0209546	0.0362755	0	
-0.0593477	0.116045	0.0905459	
0.0712814	-0.153152	0	
0.0943468	-0.245334	0	
0.166494	-0.172227	0.119812	
0.0830692	-0.28072	0.10633	
0.262514	-0.243164	0.131417	
0.166494	-0.172227	0.119812	
0.153165	-0.314436	0.187787	
0.248064	-0.277814	0.232664	
-0.0310626	0.135135	0.191478	
-0.115637	0.0557776	0.228432	
-0.153413	0.147726	0.129273	
-0.0593477	0.116045	0.0905459	
0.316847	0.386792	0.198616	
0.376757	0.328716	0.246468	
0.240662	0.264403	0.150106	
0.335416	0.221718	0.163027	
5.20231e-18	-0.0913051	0.5	
0.0505995	-0.0799908	0.413216	
0.00200732	-0.17494	0.5	
-0.0627858	-0.0916667	0.423956	
-0.298593	-0.101011	0.5	
-0.322104	-0.0533627	0.432186	
-0.275537	-0.116472	0.371913	
-0.346733	-0.171878	0.409849	
0.143938	-0.0508772	0.336308	
0.145439	-0.0925419	0.206952	
0.092986	0.0135469	0.266479	
0.230609	-0.0211924	0.217185	
-0.190069	-0.194114	0.116906	
-0.112893	-0.0740846	0.102366	
-0.26618	-0.0688348	0.104833	
-0.201128	-0.131883	0.196277	
-0.468495	-0.174678	0.182891	
-0.493315	-0.0814864	0.152319	
-0.492649	-0.0854243	0.248597	
-0.400982	-0.0203096	0.245361	
0.460762	-0.19416	0.234059	
0.469621	-0.171627	0.160116	
0.321316	-0.199848	0.247358	
0.391185	-0.0962828	0.148015	
0.476132	-0.152637	0.402329	
0.493012	-0.0833019	0.344789	
0.334354	-0.126769	0.353658	
0.408281	-0.0263474	0.41881	
-0.00291132	-0.295217	0.296268	
0.0883979	-0.384548	0.385617	
-0.0144004	-0.334766	0.39505	
0.0108992	-0.403509	0.337337	
-0.0992017	0.278039	0.399962	
-0.102488	0.367447	0.313744	
-0.0144004	0.334766	0.39505	
-0.0766135	0.239584	0.316589	
0.368925	0.202831	0.5	
0.302513	0.160103	0.430769	
0.319213	0.265223	0.5	
0.359753	0.20612	0.3581	
-0.450312	0.217299	0.354112	
-0.307691	0.175889	0.353161	
-0.429476	0.256028	0.291579	
-0.351832	0.232849	0.406107	
0.199062	0.200989	0.281957	
0.0895096	0.211893	0.376173	
0.154396	0.322847	0.356278	
0.103003	0.248456	0.2762	
0.143938	-0.0508772	0.336308	
0.0781847	0.00688243	0.395457	
0.092986	0.0135469	0.266479	
0.0684949	-0.106805	0.298921	
-0.0992017	0.278039	0.399962	
-0.173778	0.167507	0.398056	
-0.17825	0.257762	0.338534	
-0.0766135	0.239584	0.316589	
0.0807376	-0.493438	0.154216	
0.00794249	-0.354079	0.147071	
0	-0.5	0.2	
0.0788737	-0.375807	0.268102	
-0.0638367	-0.295761	0	
0.0248177	-0.313374	0	
-0.0311508	-0.245667	0.113138	
-0.0517812	-0.402083	0.08893	
-0.277785	-0.415735	0.134138	
-0.235178	-0.304806	0.115901	
-0.257824	-0.4284	0.204976	
-0.157858	-0.37335	0.109158	
0.240952	-0.280119	0.382753	
0.317163	-0.386533	0.299742	
0.187872	-0.340275	0.296975	
0.248064	-0.277814	0.232664	
-0.05	0.05	0.5	
-4.34906e-18	0.0906746	0.5	
2.83347e-18	-1.91537e-18	0.5	
0.00204538	0.114384	0.406195	
-0.0144004	0.334766	0.39505	
-0.0162135	0.209048	0.397765	
-0.0992017	0.278039	0.399962	
-0.0766135	0.239584	0.316589	
0.261819	0.319027	0	
0.240662	0.264403	0.150106	
0.317233	0.386476	0.0904728	
0.164017	0.352353	0.113218	
-0.0544044	0.00856195	0.134425	
-0.153254	0.0418185	0.0989321	
-0.115637	0.0557776	0.228432	
-0.0593477	0.116045	0.0905459	
0.133333	0.05	0.5	
0.144848	0.0930502	0.402842	
0.175	-0.00200732	0.5	
0.0781847	0.00688243	0.395457	
0.0188132	0.185036	0.296288	
0.103003	0.248456	0.2762	
0.0897997	0.249573	0.16264	
-0.0375749	0.231137	0.225021	
-0.257824	-0.4284	0.204976	
-0.277785	-0.415735	0.134138	
-0.331632	-0.374193	0.165357	
-0.235178	-0.304806	0.115901	
0.00200732	-0.17494	0.5	
0.05	-0.133333	0.5	
0.05	-0.216667	0.5	
0.0242468	-0.236607	0.397464	
-0.334766	0.0144004	0.413573	
-0.36554	0.108479	0.408539	
-0.233822	0.0792854	0.380146	
-0.30053	0.0904691	0.315276	
0.00434744	-0.0456526	0.250312	
-0.0188474	-0.0311526	0.378242	
-0.0249018	-0.155268	0.351606	
0.0684949	-0.106805	0.298921	
0.228991	0.444481	0.408099	
0.154396	0.322847	0.356278	
0.183279	0.368447	0.5	
0.0790424	0.390413	0.396102	
-0.317131	0.386559	0.0881616	
-0.38078	0.324048	0.150149	
-0.385896	0.317937	0.065638	
-0.217377	0.323067	0.106345	
-0.14418	-0.0987583	0.389626	
-0.238936	-0.0228922	0.39847	
-0.275537	-0.116472	0.371913	
-0.204987	-0.16964	0.406672	
0.0897997	0.249573	0.16264	
-0.0310626	0.135135	0.191478	
-0.0258974	0.236971	0.122489	
0.0541187	0.184721	0.0970632	
-0.17825	0.257762	0.338534	
-0.0770993	0.146668	0.334099	
-0.131938	0.201784	0.249878	
-0.0766135	0.239584	0.316589	
0.428104	-0.258315	0.196896	
0.321316	-0.199848	0.247358	
0.469621	-0.171627	0.160116	
0.345961	-0.17739	0.102725	
0.334766	0.0144004	0.39505	
0.312528	0.0818724	0.426151	
0.22142	0.00817938	0.394574	
0.330353	-0.0125725	0.446558	
0.261819	0.319027	0	
0.235698	0.440961	0.068569	
0.202324	0.378521	0	
0.164017	0.352353	0.113218	
0.154396	0.322847	0.356278	
0.278137	0.247763	0.376191	
0.199062	0.200989	0.281957	
0.223388	0.316601	0.257498	
0.153165	-0.314436	0.187787	
0.166494	-0.172227	0.119812	
0.262514	-0.243164	0.131417	
0.216998	-0.338361	0.102062	
-0.307691	0.175889	0.353161	
-0.271387	0.271262	0.399079	
-0.278552	0.259099	0.267592	
-0.351832	0.232849	0.406107	
-0.00366878	0.359505	0.167012	
0.100485	0.350272	0.242427	
0.0897997	0.249573	0.16264	
0.0676938	0.392306	0.0963758	
2.83347e-18	-1.91537e-18	0.5	
-4.34906e-18	0.0906746	0.5	
0.05	0.05	0.5	
0.00204538	0.114384	0.406195	
0.346509	0.0237889	0	
0.366259	0.00318862	0.135411	
0.276476	0.0535537	0	
0.246838	-0.00334576	0.115071	
-0.102488	0.367447	0.313744	
-0.17825	0.257762	0.338534	
-0.192258	0.331995	0.253348	
-0.0766135	0.239584	0.316589	
-0.0992017	0.278039	0.399962	
-0.173778	0.167507	0.398056	
-0.110158	0.209083	0.5	
-0.178187	0.257719	0.423389	
0.385896	-0.317937	0.065638	
0.268393	-0.334301	0	
0.317131	-0.386559	0.0881616	
0.262514	-0.243164	0.131417	
-0.237047	0.0201392	0	
-0.211369	-0.0761151	0	
-0.153254	0.0418185	0.0989321	
-0.26618	-0.0688348	0.104833	
-0.337562	0.0547633	0	
-0.237047	0.0201392	0	
-0.257956	0.116321	0	
-0.263013	0.108209	0.143902	
0.0593425	-0.191106	0.170296	
0.0700441	-0.20677	0.284029	
0.145439	-0.0925419	0.206952	
0.0684949	-0.106805	0.298921	
-0.339187	0.0209536	0.163183	
-0.273431	0.0345527	0.245119	
-0.345491	0.130711	0.235494	
-0.400982	-0.0203096	0.245361	
-0.133333	-0.05	0.5	
-0.14418	-0.0987583	0.389626	
-0.216667	-0.05	0.5	
-0.238936	-0.0228922	0.39847	
0.334354	-0.126769	0.353658	
0.330561	-0.223946	0.39789	
0.220158	-0.126618	0.388055	
0.267469	-0.189723	0.33864	
-0.00291132	-0.295217	0.296268	
0.116472	-0.275537	0.364096	
0.0883979	-0.384548	0.385617	
0.0788737	-0.375807	0.268102	
-0.0310626	0.135135	0.191478	
-0.131938	0.201784	0.249878	
-0.0770993	0.146668	0.334099	
-0.0375749	0.231137	0.225021	
-0.0925337	-0.196451	0	
-0.000733888	-0.121505	0.108367	
-0.0232782	-0.127584	0	
-0.112893	-0.0740846	0.102366	
-0.293731	-0.159381	0.165241	
-0.289823	-0.0590788	0.205332	
-0.348281	-0.114759	0.26937	
-0.201128	-0.131883	0.196277	
0.168734	0.470668	0.201781	
0.100485	0.350272	0.242427	
0.0807477	0.493437	0.154224	
0.0676938	0.392306	0.0963758	
-0.174965	0.104344	0.5	
-0.0843611	0.070836	0.404426	
-0.108424	0.10302	0.5	
-0.16628	0.0337112	0.418012	
-0.172599	-0.285692	0.5	
-0.183279	-0.368447	0.5	
-0.161333	-0.314459	0.347253	
-0.105697	-0.361806	0.410161	
0.275537	0.116472	0.367425	
0.199062	0.200989	0.281957	
0.181535	0.0644307	0.301014	
0.137145	0.147864	0.327542	
-0.0983601	0.156434	0	
-0.153413	0.147726	0.129273	
-0.0593477	0.116045	0.0905459	
-0.163724	0.239688	0.0901709	
0.00434744	-0.0456526	0.250312	
-0.115637	0.0557776	0.228432	
-0.0346597	0.0490732	0.303617	
0.0179503	0.0450589	0.203027	
-0.19595	0.28972	0.5	
-0.178187	0.257719	0.423389	
-0.271387	0.271262	0.399079	
-0.214786	0.345979	0.366075	
0.439384	-0.238625	0.423358	
0.476132	-0.152637	0.402329	
0.450312	-0.217299	0.354112	
0.330561	-0.223946	0.39789	
-0.257824	-0.4284	0.204976	
-0.235178	-0.304806	0.115901	
-0.252329	-0.26938	0.229497	
-0.182528	-0.349181	0.246007	
0.113303	0.327662	0.5	
0.183279	0.368447	0.5	
0.154396	0.322847	0.356278	
0.0790424	0.390413	0.396102	
-0.0328721	-0.370689	0	
0.0404524	-0.41072	0	
0.0248177	-0.313374	0	
-0.0517812	-0.402083	0.08893	
-0.0188474	-0.0311526	0.378242	
0.0684949	-0.106805	0.298921	
0.0781847	0.00688243	0.395457	
0.0505995	-0.0799908	0.413216	
-0.257824	-0.4284	0.204976	
-0.331632	-0.374193	0.165357	
-0.252329	-0.26938	0.229497	
-0.235178	-0.304806	0.115901	
-0.101011	0.298593	0.5	
-0.0722049	0.334139	0.5	
-0.05	0.3	0.5	
-0.0992017	0.278039	0.399962	
-0.268365	-0.14329	0.5	
-0.257817	-0.0951035	0.5	
-0.209083	-0.110158	0.5	
-0.204987	-0.16964	0.406672	
-0.278713	-0.14304	0	
-0.344127	-0.112227	0	
-0.356684	-0.19351	0	
-0.307464	-0.233367	0.0932852	
0.385896	-0.317937	0.065638	
0.314857	-0.257449	0	
0.268393	-0.334301	0	
0.262514	-0.243164	0.131417	
-0.469621	0.171627	0.160116	
-0.490316	0.0979281	0.24092	
-0.493378	0.0811073	0.146993	
-0.345491	0.130711	0.235494	
0.295217	0.00291132	0.296268	
0.327533	-0.0664701	0.421022	
0.334354	-0.126769	0.353658	
0.396971	-0.0114452	0.318812	
0.0897997	0.249573	0.16264	
0.0188132	0.185036	0.296288	
0.0902163	0.139414	0.221996	
0.103003	0.248456	0.2762	
-0.048473	-0.0328568	0	
-0.000733888	-0.121505	0.108367	
-0.0544044	0.00856195	0.134425	
-0.112893	-0.0740846	0.102366	
0.0305468	-0.374084	0.5	
-0.0144004	-0.334766	0.449619	
0.0533627	-0.322104	0.427266	
-0.0263522	-0.412693	0.422334	
-0.345491	0.130711	0.235494	
-0.400982	-0.0203096	0.245361	
-0.273431	0.0345527	0.245119	
-0.393116	0.0762957	0.312097	
-0.243391	-0.436762	0.403062	
-0.161333	-0.314459	0.347253	
-0.183279	-0.368447	0.5	
-0.105697	-0.361806	0.410161	
0.0305468	-0.374084	0.5	
0.0892306	-0.377437	0.5	
0.0584891	-0.437042	0.5	
0.0883979	-0.384548	0.385617	
-0.0168063	-0.279144	0.5	
0.0120439	-0.258333	0.5	
0.0146863	-0.307123	0.5	
-0.0144004	-0.334766	0.449619	
-0.0722049	0.334139	0.5	
-0.0992017	0.278039	0.399962	
-0.0144004	0.334766	0.39505	
-0.00291132	0.295217	0.441595	
0.0807376	-0.493438	0.154216	
0.0788737	-0.375807	0.268102	
0.16873	-0.47067	0.201799	
0.0970803	-0.385859	0.0985367	
-0.317131	0.386559	0.0881616	
-0.385896	0.317937	0.065638	
-0.318983	0.261743	0	
-0.217377	0.323067	0.106345	
0.319213	0.265223	0.5	
0.302513	0.160103	0.430769	
0.278137	0.247763	0.376191	
0.359753	0.20612	0.3581	
-0.493378	0.0811073	0.146993	
-0.372288	0.117054	0.109759	
-0.339187	0.0209536	0.163183	
-0.402083	0.00682085	0.0882368	
-0.214953	0.122747	0.250047	
-0.115637	0.0557776	0.228432	
-0.131938	0.201784	0.249878	
-0.158971	0.0982818	0.323671	
0.228991	0.444481	0.408099	
0.25658	0.429146	0.33124	
0.3168	0.386831	0.395903	
0.154396	0.322847	0.356278	
-0.00291132	-0.295217	0.296268	
0.0597845	-0.282871	0.216064	
0.00794249	-0.354079	0.147071	
-0.0480147	-0.273566	0.222301	
0.295217	0.00291132	0.296268	
0.275537	0.116472	0.367425	
0.181535	0.0644307	0.301014	
0.22142	0.00817938	0.394574	
0.154201	0.040391	0.180059	
0.0660646	-0.0345177	0.124489	
0.145439	-0.0925419	0.206952	
0.092986	0.0135469	0.266479	
-0.275537	-0.116472	0.371913	
-0.1808	-0.171958	0.287248	
-0.14418	-0.0987583	0.389626	
-0.204987	-0.16964	0.406672	
0.0712814	-0.153152	0	
0.00183684	-0.222331	0	
0.0943468	-0.245334	0	
0.0830692	-0.28072	0.10633	
-0.493315	-0.0814864	0.152319	
-0.5	0	0.2	
-0.400982	-0.0203096	0.245361	
-0.402083	0.00682085	0.0882368	
-0.38078	0.324048	0.150149	
-0.317319	0.386405	0.201487	
-0.265311	0.22544	0.150174	
-0.217377	0.323067	0.106345	
0.460762	-0.19416	0.234059	
0.321316	-0.199848	0.247358	
0.370442	-0.0792839	0.247792	
0.391185	-0.0962828	0.148015	
-0.00291132	-0.295217	0.296268	
0.0700441	-0.20677	0.284029	
0.116472	-0.275537	0.364096	
0.0597845	-0.282871	0.216064	
-0.104344	-0.174965	0.5	
-0.122747	-0.214953	0.392685	
-0.14418	-0.0987583	0.389626	
-0.0627858	-0.0916667	0.423956	
-0.13253	-0.300587	0.178341	
-0.0762452	-0.385017	0.309762	
-0.0790397	-0.393483	0.200637	
-0.0480147	-0.273566	0.222301	
-0.384449	-0.0847771	0.386001	
-0.400982	-0.0203096	0.245361	
-0.493437	-0.0807477	0.345776	
-0.413166	0.00148403	0.364386	
-0.0346597	0.0490732	0.303617	
-0.0843611	0.070836	0.404426	
-0.0188474	-0.0311526	0.378242	
0.00204538	0.114384	0.406195	
0.460762	-0.19416	0.234059	
0.469621	-0.171627	0.160116	
0.428104	-0.258315	0.196896	
0.321316	-0.199848	0.247358	
-0.00291132	-0.295217	0.296268	
0.0700441	-0.20677	0.284029	
-0.0249018	-0.155268	0.351606	
0.0242468	-0.236607	0.397464	
0.409478	-0.032947	0	
0.366259	0.00318862	0.135411	
0.314271	-0.0501881	0	
0.391185	-0.0962828	0.148015	
0.460548	0.194667	0.23433	
0.490343	0.0977967	0.241226	
0.3762	0.0879078	0.311936	
0.405658	0.0360531	0.226292	
-0.26618	-0.0688348	0.104833	
-0.112893	-0.0740846	0.102366	
-0.182857	-0.0350536	0.172086	
-0.201128	-0.131883	0.196277	
0.0120439	-0.258333	0.5	
0.0533627	-0.322104	0.427266	
0.0146863	-0.307123	0.5	
-0.0144004	-0.334766	0.449619	
-0.1808	-0.171958	0.287248	
-0.224353	-0.050686	0.284463	
-0.14418	-0.0987583	0.389626	
-0.1108	-0.078009	0.257656	
0.262514	-0.243164	0.131417	
0.166494	-0.172227	0.119812	
0.201164	-0.273578	0	
0.216998	-0.338361	0.102062	
0.0584891	-0.437042	0.5	
0.0305468	-0.374084	0.5	
0.0883979	-0.384548	0.385617	
-0.0263522	-0.412693	0.422334	
-0.14418	-0.0987583	0.389626	
-0.224353	-0.050686	0.284463	
-0.275537	-0.116472	0.371913	
-0.238936	-0.0228922	0.39847	
-0.00291132	-0.295217	0.296268	
0.116472	-0.275537	0.364096	
0.0242468	-0.236607	0.397464	
0.0533627	-0.322104	0.427266	
0.16873	-0.47067	0.201799	
0.0788737	-0.375807	0.268102	
0.153165	-0.314436	0.187787	
0.0970803	-0.385859	0.0985367	
0.174678	0.468495	0.317109	
0.25658	0.429146	0.33124	
0.154396	0.322847	0.356278	
0.223388	0.316601	0.257498	
-0.307123	-0.0146863	0.5	
-0.279144	0.0168063	0.5	
-0.258333	-0.0120439	0.5	
-0.322104	-0.0533627	0.432186	
-0.28972	-0.19595	0.5	
-0.268365	-0.14329	0.5	
-0.22133	-0.175555	0.5	
-0.204987	-0.16964	0.406672	
0.0627858	0.0916667	0.334361	
0.092986	0.0135469	0.266479	
0.181535	0.0644307	0.301014	
0.0781847	0.00688243	0.395457	
-0.493378	0.0811073	0.146993	
-0.490316	0.0979281	0.24092	
-0.5	0	0.2	
-0.400982	-0.0203096	0.245361	
-0.344127	-0.112227	0	
-0.41072	-0.12459	0	
-0.356684	-0.19351	0	
-0.376845	-0.0849991	0.114782	
-0.0722049	0.334139	0.5	
-0.0353553	0.335355	0.5	
-0.05	0.3	0.5	
-0.00291132	0.295217	0.441595	
-0.0310626	0.135135	0.191478	
-0.0544044	0.00856195	0.134425	
-0.115637	0.0557776	0.228432	
-0.0593477	0.116045	0.0905459	
0.394936	-0.119803	0	
0.314271	-0.0501881	0	
0.345961	-0.17739	0.102725	
0.391185	-0.0962828	0.148015	
-0.0770993	0.146668	0.334099	
-0.17825	0.257762	0.338534	
-0.173778	0.167507	0.398056	
-0.0766135	0.239584	0.316589	
0.439384	-0.238625	0.423358	
0.368447	-0.183279	0.5	
0.476132	-0.152637	0.402329	
0.330561	-0.223946	0.39789	
0.0593425	-0.191106	0.170296	
0.0684949	-0.106805	0.298921	
0.145439	-0.0925419	0.206952	
-0.00254485	-0.146451	0.237696	
-0.278552	0.259099	0.267592	
-0.271387	0.271262	0.399079	
-0.373696	0.332191	0.334057	
-0.351832	0.232849	0.406107	
-0.476132	0.152637	0.402329	
-0.450312	0.217299	0.354112	
-0.36554	0.108479	0.408539	
-0.393116	0.0762957	0.312097	
-0.136577	0.332433	0.5	
-0.0722049	0.334139	0.5	
-0.101011	0.298593	0.5	
-0.129243	0.372125	0.409369	
-0.374084	-0.0305468	0.5	
-0.377437	-0.0892306	0.5	
-0.437042	-0.0584891	0.5	
-0.384449	-0.0847771	0.386001	
0.0895096	0.211893	0.376173	
-0.0162135	0.209048	0.397765	
0.05	0.216667	0.5	
0.0896207	0.295594	0.416487	
-0.36554	0.108479	0.408539	
-0.351832	0.232849	0.406107	
-0.285692	0.172599	0.5	
-0.24957	0.148488	0.428331	
0.199062	0.200989	0.281957	
0.275537	0.116472	0.367425	
0.181535	0.0644307	0.301014	
0.272001	0.0982822	0.26656	
-0.00291132	-0.295217	0.296268	
0.116472	-0.275537	0.364096	
0.0788737	-0.375807	0.268102	
0.0597845	-0.282871	0.216064	
-0.0770993	0.146668	0.334099	
-0.131938	0.201784	0.249878	
-0.158971	0.0982818	0.323671	
-0.222074	0.179419	0.32139	
-0.263013	0.108209	0.143902	
-0.372288	0.117054	0.109759	
-0.265311	0.22544	0.150174	
-0.341436	0.209355	0.0876866	
0.183279	0.368447	0.5	
0.172599	0.285692	0.5	
0.113303	0.327662	0.5	
0.154396	0.322847	0.356278	
0.168734	0.470668	0.201781	
0.164017	0.352353	0.113218	
0.100485	0.350272	0.242427	
0.0676938	0.392306	0.0963758	
0.174678	0.468495	0.317109	
0.100485	0.350272	0.242427	
0.247057	0.434698	0.250499	
0.223388	0.316601	0.257498	
0.2429	-0.437035	0.152631	
0.153165	-0.314436	0.187787	
0.248064	-0.277814	0.232664	
0.216998	-0.338361	0.102062	
-0.257956	0.116321	0	
-0.372288	0.117054	0.109759	
-0.263013	0.108209	0.143902	
-0.23094	0.170935	0.0823842	
0.0895096	0.211893	0.376173	
0.19157	0.189079	0.398239	
0.154396	0.322847	0.356278	
0.0896207	0.295594	0.416487	
-0.153413	0.147726	0.129273	
-0.0258974	0.236971	0.122489	
-0.0310626	0.135135	0.191478	
-0.0593477	0.116045	0.0905459	
-0.133323	0.00734514	0.338693	
-0.14418	-0.0987583	0.389626	
-0.224353	-0.050686	0.284463	
-0.1108	-0.078009	0.257656	
-0.217377	0.323067	0.106345	
-0.163724	0.239688	0.0901709	
-0.265311	0.22544	0.150174	
-0.23094	0.170935	0.0823842	
0.0401436	0.291204	0	
0.133074	0.264097	0	
0.0897997	0.249573	0.16264	
0.0541187	0.184721	0.0970632	
-0.3	0.05	0.5	
-0.255435	0.105455	0.5	
-0.216667	0.05	0.5	
-0.233822	0.0792854	0.380146	
-0.252329	-0.26938	0.229497	
-0.293731	-0.159381	0.165241	
-0.190069	-0.194114	0.116906	
-0.307464	-0.233367	0.0932852	
-0.00366878	0.359505	0.167012	
-0.0258974	0.236971	0.122489	
0.0897997	0.249573	0.16264	
-0.0375749	0.231137	0.225021	
0.00794249	-0.354079	0.147071	
-0.00291132	-0.295217	0.296268	
0.0788737	-0.375807	0.268102	
0.0597845	-0.282871	0.216064	
-0.110158	0.209083	0.5	
-0.0992017	0.278039	0.399962	
-0.05	0.216667	0.5	
-0.0162135	0.209048	0.397765	
0	0.35	0.5	
-0.0353553	0.335355	0.5	
-0.0305468	0.374084	0.5	
0.0222826	0.353795	0.441823	
-0.00291132	-0.295217	0.296268	
-0.0249018	-0.155268	0.351606	
0.0700441	-0.20677	0.284029	
-0.0754532	-0.211832	0.265564	
0.242822	0.437078	0.152991	
0.164017	0.352353	0.113218	
0.240662	0.264403	0.150106	
0.223388	0.316601	0.257498	
-0.0310626	0.135135	0.191478	
-0.0770993	0.146668	0.334099	
0.0188132	0.185036	0.296288	
-0.0375749	0.231137	0.225021	
-0.133323	0.00734514	0.338693	
-0.224353	-0.050686	0.284463	
-0.14418	-0.0987583	0.389626	
-0.238936	-0.0228922	0.39847	
0.346509	0.0237889	0	
0.414991	0.0495125	0	
0.337634	0.115561	0	
0.370295	0.150924	0.0941864	
-0.233822	0.0792854	0.380146	
-0.173778	0.167507	0.398056	
-0.174965	0.104344	0.5	
-0.16628	0.0337112	0.418012	
0.242822	0.437078	0.152991	
0.168734	0.470668	0.201781	
0.164017	0.352353	0.113218	
0.223388	0.316601	0.257498	
0.409478	-0.032947	0	
0.495208	-0.0690617	0.0692099	
0.366259	0.00318862	0.135411	
0.391185	-0.0962828	0.148015	
-0.0638367	-0.295761	0	
-0.0925337	-0.196451	0	
-0.168688	-0.281701	0	
-0.0311508	-0.245667	0.113138	
0.0903521	0.10545	0	
0.140726	0.0548949	0.0839438	
0.175408	0.155763	0.126683	
0.0541187	0.184721	0.0970632	
0.199062	0.200989	0.281957	
0.275537	0.116472	0.367425	
0.278137	0.247763	0.376191	
0.19157	0.189079	0.398239	
-0.376845	-0.0849991	0.114782	
-0.400982	-0.0203096	0.245361	
-0.339187	0.0209536	0.163183	
-0.402083	0.00682085	0.0882368	
0.295217	0.00291132	0.296268	
0.334766	0.0144004	0.39505	
0.275537	0.116472	0.367425	
0.22142	0.00817938	0.394574	
0.334354	-0.126769	0.353658	
0.321316	-0.199848	0.247358	
0.330561	-0.223946	0.39789	
0.267469	-0.189723	0.33864	
0.268365	0.14329	0.5	
0.22133	0.175555	0.5	
0.302513	0.160103	0.430769	
0.232356	0.0814649	0.425205	
0.261819	0.319027	0	
0.189613	0.313662	0	
0.231243	0.24169	0	
0.240662	0.264403	0.150106	
-0.192258	0.331995	0.253348	
-0.217377	0.323067	0.106345	
-0.2429	0.437035	0.152631	
-0.11066	0.378543	0.212059	
0.261819	0.319027	0	
0.189613	0.313662	0	
0.240662	0.264403	0.150106	
0.164017	0.352353	0.113218	
0.0209546	0.0362755	0	
0.0540853	0.0877179	0.116287	
0.0660646	-0.0345177	0.124489	
0.140726	0.0548949	0.0839438	
-0.376845	-0.0849991	0.114782	
-0.400982	-0.0203096	0.245361	
-0.348281	-0.114759	0.26937	
-0.289823	-0.0590788	0.205332	
-0.142648	-0.00714059	0	
-0.237047	0.0201392	0	
-0.211369	-0.0761151	0	
-0.153254	0.0418185	0.0989321	
0.05	-0.133333	0.5	
0.0950848	-0.154753	0.38384	
0.05	-0.216667	0.5	
0.0242468	-0.236607	0.397464	
-0.373696	0.332191	0.334057	
-0.278552	0.259099	0.267592	
-0.317163	0.386533	0.299742	
-0.271387	0.271262	0.399079	
0.153165	-0.314436	0.187787	
0.187872	-0.340275	0.296975	
0.247023	-0.434718	0.250558	
0.248064	-0.277814	0.232664	
0.181535	0.0644307	0.301014	
0.092986	0.0135469	0.266479	
0.143938	-0.0508772	0.336308	
0.0781847	0.00688243	0.395457	
-0.0770993	0.146668	0.334099	
-0.158971	0.0982818	0.323671	
-0.173778	0.167507	0.398056	
-0.222074	0.179419	0.32139	
-0.0353553	-0.335355	0.5	
-0.070805	-0.359322	0.5	
-0.05	-0.3	0.5	
-0.0144004	-0.334766	0.449619	
0.0895096	0.211893	0.376173	
-0.0162135	0.209048	0.397765	
-0.00291132	0.295217	0.296268	
0.0188132	0.185036	0.296288	
-0.335355	0.0353553	0.5	
-0.3	0.05	0.5	
-0.31384	0.0131388	0.5	
-0.334766	0.0144004	0.413573	
-0.101011	0.298593	0.5	
-0.0951035	0.257817	0.5	
-0.14329	0.268365	0.5	
-0.0992017	0.278039	0.399962	
0.242822	0.437078	0.152991	
0.240662	0.264403	0.150106	
0.316847	0.386792	0.198616	
0.223388	0.316601	0.257498	
-0.19595	0.28972	0.5	
-0.202831	0.368925	0.5	
-0.136577	0.332433	0.5	
-0.129243	0.372125	0.409369	
0.116472	-0.275537	0.364096	
0.195794	-0.195794	0.279578	
0.240952	-0.280119	0.382753	
0.187872	-0.340275	0.296975	
-0.214341	0.273759	0	
-0.217377	0.323067	0.106345	
-0.265311	0.22544	0.150174	
-0.23094	0.170935	0.0823842	
-0.359322	0.070805	0.5	
-0.3	0.05	0.5	
-0.334766	0.0144004	0.413573	
-0.36554	0.108479	0.408539	
0.328092	0.270243	0	
0.370295	0.150924	0.0941864	
0.436762	0.243391	0.0969381	
0.335416	0.221718	0.163027	
-0.0734441	0.0616893	0	
-0.0544044	0.00856195	0.134425	
0.0209546	0.0362755	0	
-0.0593477	0.116045	0.0905459	
0.428104	-0.258315	0.196896	
0.262514	-0.243164	0.131417	
0.38078	-0.324048	0.150149	
0.321316	-0.199848	0.247358	
-0.323938	-0.380873	0.347739	
-0.386792	-0.316847	0.301384	
-0.280119	-0.240952	0.383653	
-0.332305	-0.222015	0.288549	
0.174965	-0.104344	0.5	
0.210048	-0.166493	0.5	
0.139117	-0.156778	0.5	
0.220158	-0.126618	0.388055	
-0.104344	-0.174965	0.5	
-0.14418	-0.0987583	0.389626	
-0.10302	-0.108424	0.5	
-0.0627858	-0.0916667	0.423956	
0.414991	0.0495125	0	
0.495293	0.0684459	0.0685965	
0.414183	0.131147	0	
0.370295	0.150924	0.0941864	
0	0.5	0.1	
-0.00366878	0.359505	0.167012	
-0.0807376	0.493438	0.154216	
-0.100366	0.376948	0.109973	
-0.374084	-0.0305468	0.5	
-0.35	0	0.5	
-0.335355	-0.0353553	0.5	
-0.322104	-0.0533627	0.432186	
0.181535	0.0644307	0.301014	
0.144848	0.0930502	0.402842	
0.0627858	0.0916667	0.334361	
0.0781847	0.00688243	0.395457	
-0.127619	0.285659	0.171874	
-0.217377	0.323067	0.106345	
-0.192258	0.331995	0.253348	
-0.11066	0.378543	0.212059	
-0.0295403	0.225144	0	
-0.119993	0.246691	0	
-0.0983601	0.156434	0	
-0.0258974	0.236971	0.122489	
0.116472	-0.275537	0.364096	
0.240952	-0.280119	0.382753	
0.195794	-0.195794	0.279578	
0.172223	-0.208401	0.404687	
-0.110158	0.209083	0.5	
-0.0951035	0.257817	0.5	
-0.05	0.216667	0.5	
-0.0992017	0.278039	0.399962	
0.22142	0.00817938	0.394574	
0.0781847	0.00688243	0.395457	
0.143938	-0.0508772	0.336308	
0.142037	-0.0864505	0.418568	
-0.214953	0.122747	0.250047	
-0.153413	0.147726	0.129273	
-0.115637	0.0557776	0.228432	
-0.199362	0.0555217	0.187248	
0.234106	0.240455	0.5	
0.166493	0.210048	0.5	
0.172599	0.285692	0.5	
0.19157	0.189079	0.398239	
0.22133	0.175555	0.5	
0.19157	0.189079	0.398239	
0.234106	0.240455	0.5	
0.302513	0.160103	0.430769	
-0.5	0	0.2	
-0.339187	0.0209536	0.163183	
-0.400982	-0.0203096	0.245361	
-0.402083	0.00682085	0.0882368	
-0.302044	-0.0506462	0	
-0.237047	0.0201392	0	
-0.337562	0.0547633	0	
-0.26618	-0.0688348	0.104833	
-0.252329	-0.26938	0.229497	
-0.190069	-0.194114	0.116906	
-0.235178	-0.304806	0.115901	
-0.307464	-0.233367	0.0932852	
-0.0734441	0.0616893	0	
-0.142648	-0.00714059	0	
-0.0544044	0.00856195	0.134425	
-0.153254	0.0418185	0.0989321	
0.100485	0.350272	0.242427	
0.164017	0.352353	0.113218	
0.0897997	0.249573	0.16264	
0.0676938	0.392306	0.0963758	
-0.0770993	0.146668	0.334099	
0.0188132	0.185036	0.296288	
0.0627858	0.0916667	0.334361	
-0.0346597	0.0490732	0.303617	
-0.0887698	-0.154954	0.166843	
-0.0311508	-0.245667	0.113138	
-0.00254485	-0.146451	0.237696	
-0.0480147	-0.273566	0.222301	
-0.0311508	-0.245667	0.113138	
0.0593425	-0.191106	0.170296	
-0.00254485	-0.146451	0.237696	
-0.0480147	-0.273566	0.222301	
0.156778	0.139117	0.5	
0.104344	0.174965	0.5	
0.19157	0.189079	0.398239	
0.144848	0.0930502	0.402842	
0.376393	-0.0217786	0.5	
0.35	0	0.5	
0.374084	0.0305468	0.5	
0.330353	-0.0125725	0.446558	
0.19595	-0.28972	0.5	
0.172223	-0.208401	0.404687	
0.240952	-0.280119	0.382753	
0.116472	-0.275537	0.434883	
-0.38078	0.324048	0.150149	
-0.265311	0.22544	0.150174	
-0.428104	0.258315	0.196896	
-0.341436	0.209355	0.0876866	
0.247057	0.434698	0.250499	
0.100485	0.350272	0.242427	
0.168734	0.470668	0.201781	
0.223388	0.316601	0.257498	
-0.0770993	0.146668	0.334099	
-0.0346597	0.0490732	0.303617	
0.0627858	0.0916667	0.334361	
0.00204538	0.114384	0.406195	
0.328092	0.270243	0	
0.436762	0.243391	0.0969381	
0.386505	0.317197	0.0688254	
0.335416	0.221718	0.163027	
0.22142	0.00817938	0.394574	
0.327533	-0.0664701	0.421022	
0.334766	0.0144004	0.39505	
0.330353	-0.0125725	0.446558	
-0.0249018	-0.155268	0.351606	
-0.0754532	-0.211832	0.265564	
-0.1108	-0.078009	0.257656	
-0.00254485	-0.146451	0.237696	
-0.437042	-0.0584891	0.5	
-0.495012	-0.0704482	0.428155	
-0.422954	-0.00233139	0.5	
-0.413166	0.00148403	0.364386	
0.275537	0.116472	0.367425	
0.199062	0.200989	0.281957	
0.278137	0.247763	0.376191	
0.322691	0.187554	0.276787	
-0.0754532	-0.211832	0.265564	
-0.00254485	-0.146451	0.237696	
0.0700441	-0.20677	0.284029	
-0.0480147	-0.273566	0.222301	
0.0209546	0.0362755	0	
0.0660646	-0.0345177	0.124489	
0.115537	0.0107471	0	
0.140726	0.0548949	0.0839438	
0.4284	0.257824	0.295024	
0.374193	0.331632	0.334643	
0.322691	0.187554	0.276787	
0.359753	0.20612	0.3581	
0.38078	-0.324048	0.150149	
0.262514	-0.243164	0.131417	
0.428104	-0.258315	0.196896	
0.345961	-0.17739	0.102725	
0.0627858	0.0916667	0.334361	
0.0781847	0.00688243	0.395457	
0.144848	0.0930502	0.402842	
0.00204538	0.114384	0.406195	
0.38078	-0.324048	0.150149	
0.377032	-0.3284	0.243217	
0.321316	-0.199848	0.247358	
0.248064	-0.277814	0.232664	
0.242822	0.437078	0.152991	
0.247057	0.434698	0.250499	
0.168734	0.470668	0.201781	
0.223388	0.316601	0.257498	
0.28972	0.19595	0.5	
0.22133	0.175555	0.5	
0.234106	0.240455	0.5	
0.302513	0.160103	0.430769	
0.388274	0.315029	0.420807	
0.368925	0.202831	0.5	
0.319213	0.265223	0.5	
0.359753	0.20612	0.3581	
0.386505	0.317197	0.0688254	
0.380873	0.323938	0.152261	
0.240662	0.264403	0.150106	
0.335416	0.221718	0.163027	
0.110158	-0.209083	0.5	
0.0242468	-0.236607	0.397464	
0.0950848	-0.154753	0.38384	
0.116472	-0.275537	0.434883	
0.275537	0.116472	0.367425	
0.19157	0.189079	0.398239	
0.199062	0.200989	0.281957	
0.137145	0.147864	0.327542	
-0.14329	0.268365	0.5	
-0.0992017	0.278039	0.399962	
-0.0951035	0.257817	0.5	
-0.178187	0.257719	0.423389	
-0.377032	0.3284	0.243217	
-0.429476	0.256028	0.291579	
-0.428104	0.258315	0.196896	
-0.278552	0.259099	0.267592	
-0.142648	-0.00714059	0	
-0.048473	-0.0328568	0	
-0.0734441	0.0616893	0	
-0.0544044	0.00856195	0.134425	
0.0627858	0.0916667	0.334361	
0.0902163	0.139414	0.221996	
0.181535	0.0644307	0.301014	
0.092986	0.0135469	0.266479	
0.38078	-0.324048	0.150149	
0.321316	-0.199848	0.247358	
0.262514	-0.243164	0.131417	
0.248064	-0.277814	0.232664	
0.469721	0.171353	0.161666	
0.370295	0.150924	0.0941864	
0.305435	0.121825	0.172512	
0.335416	0.221718	0.163027	
-0.307691	0.175889	0.353161	
-0.351832	0.232849	0.406107	
-0.36554	0.108479	0.408539	
-0.24957	0.148488	0.428331	
0.258333	-0.0120439	0.5	
0.22142	0.00817938	0.394574	
0.279144	0.0168063	0.5	
0.330353	-0.0125725	0.446558	
-0.323938	-0.380873	0.347739	
-0.258165	-0.428195	0.298245	
-0.328716	-0.376757	0.253532	
-0.182528	-0.349181	0.246007	
-0.0144004	0.334766	0.39505	
-0.00291132	0.295217	0.296268	
-0.0162135	0.209048	0.397765	
-0.0766135	0.239584	0.316589	
-0.0232782	-0.127584	0	
-0.0311508	-0.245667	0.113138	
0.00183684	-0.222331	0	
-0.000733888	-0.121505	0.108367	
-0.00291132	0.295217	0.296268	
0.100485	0.350272	0.242427	
-0.00366878	0.359505	0.167012	
0.012676	0.397096	0.315269	
-0.00366878	0.359505	0.167012	
-0.0258974	0.236971	0.122489	
-0.127619	0.285659	0.171874	
-0.100366	0.376948	0.109973	
-0.339187	0.0209536	0.163183	
-0.273431	0.0345527	0.245119	
-0.289823	-0.0590788	0.205332	
-0.199362	0.0555217	0.187248	
0.490343	0.0977967	0.241226	
0.460548	0.194667	0.23433	
0.469721	0.171353	0.161666	
0.405658	0.0360531	0.226292	
-0.428104	0.258315	0.196896	
-0.429476	0.256028	0.291579	
-0.460762	0.19416	0.234059	
-0.345491	0.130711	0.235494	
-0.0144004	0.334766	0.39505	
-0.129243	0.372125	0.409369	
-0.0722049	0.334139	0.5	
-0.0376575	0.408608	0.42489	
-0.0807376	0.493438	0.154216	
-0.00366878	0.359505	0.167012	
0	0.5	0.2	
-0.11066	0.378543	0.212059	
-0.00291132	-0.295217	0.296268	
-0.0754532	-0.211832	0.265564	
0.0700441	-0.20677	0.284029	
-0.0480147	-0.273566	0.222301	
0.181535	0.0644307	0.301014	
0.144848	0.0930502	0.402842	
0.275537	0.116472	0.367425	
0.137145	0.147864	0.327542	
0.268393	-0.334301	0	
0.317131	-0.386559	0.0881616	
0.262514	-0.243164	0.131417	
0.216998	-0.338361	0.102062	
-0.0310626	0.135135	0.191478	
0.0188132	0.185036	0.296288	
0.0902163	0.139414	0.221996	
-0.0375749	0.231137	0.225021	
-0.0925337	-0.196451	0	
-0.0232782	-0.127584	0	
-0.117671	-0.10197	0	
-0.112893	-0.0740846	0.102366	
0.0627858	0.0916667	0.334361	
0.0188132	0.185036	0.296288	
-0.0770993	0.146668	0.334099	
0.00204538	0.114384	0.406195	
0.275537	0.116472	0.367425	
0.144848	0.0930502	0.402842	
0.19157	0.189079	0.398239	
0.137145	0.147864	0.327542	
-0.127619	0.285659	0.171874	
-0.0258974	0.236971	0.122489	
-0.00366878	0.359505	0.167012	
-0.0375749	0.231137	0.225021	
-0.293731	-0.159381	0.165241	
-0.376845	-0.0849991	0.114782	
-0.348281	-0.114759	0.26937	
-0.289823	-0.0590788	0.205332	
-0.327738	-0.00493982	0.327054	
-0.233822	0.0792854	0.380146	
-0.334766	0.0144004	0.413573	
-0.238936	-0.0228922	0.39847	
0.0593425	-0.191106	0.170296	
0.166494	-0.172227	0.119812	
0.153165	-0.314436	0.187787	
0.0830692	-0.28072	0.10633	
0.0903521	0.10545	0	
0.0540853	0.0877179	0.116287	
0.140726	0.0548949	0.0839438	
0.0541187	0.184721	0.0970632	
-0.0353553	0.335355	0.5	
0.0222826	0.353795	0.441823	
-0.0144004	0.334766	0.39505	
-0.0376575	0.408608	0.42489	
-0.209083	-0.110158	0.5	
-0.216667	-0.05	0.5	
-0.14418	-0.0987583	0.389626	
-0.238936	-0.0228922	0.39847	
0.00434744	-0.0456526	0.250312	
0.145439	-0.0925419	0.206952	
0.092986	0.0135469	0.266479	
0.0684949	-0.106805	0.298921	
-0.0762452	-0.385017	0.309762	
-0.182528	-0.349181	0.246007	
-0.13253	-0.300587	0.178341	
-0.0790397	-0.393483	0.200637	
0.373696	-0.332191	0.334057	
0.377032	-0.3284	0.243217	
0.317163	-0.386533	0.299742	
0.248064	-0.277814	0.232664	
-0.048473	-0.0328568	0	
-0.0544044	0.00856195	0.134425	
-0.142648	-0.00714059	0	
-0.112893	-0.0740846	0.102366	
0.5	0	0.1	
0.495293	0.0684459	0.0685965	
0.414991	0.0495125	0	
0.366259	0.00318862	0.135411	
0.394936	-0.119803	0	
0.409478	-0.032947	0	
0.314271	-0.0501881	0	
0.391185	-0.0962828	0.148015	
0.139117	-0.156778	0.5	
0.220158	-0.126618	0.388055	
0.210048	-0.166493	0.5	
0.172223	-0.208401	0.404687	
-0.0544044	0.00856195	0.134425	
-0.153254	0.0418185	0.0989321	
-0.142648	-0.00714059	0	
-0.112893	-0.0740846	0.102366	
-0.0951035	0.257817	0.5	
-0.0992017	0.278039	0.399962	
-0.05	0.3	0.5	
-0.00291132	0.295217	0.441595	
-0.0887698	-0.154954	0.166843	
-0.0311508	-0.245667	0.113138	
0.0593425	-0.191106	0.170296	
-0.00254485	-0.146451	0.237696	
-0.214341	0.273759	0	
-0.163724	0.239688	0.0901709	
-0.217377	0.323067	0.106345	
-0.23094	0.170935	0.0823842	
-0.317163	0.386533	0.299742	
-0.278552	0.259099	0.267592	
-0.192258	0.331995	0.253348	
-0.214786	0.345979	0.366075	
0.258333	-0.0120439	0.5	
0.3	-0.05	0.5	
0.327533	-0.0664701	0.421022	
0.330353	-0.0125725	0.446558	
0.409478	-0.032947	0	
0.495208	-0.0690617	0.0692099	
0.5	0	0.1	
0.366259	0.00318862	0.135411	
-0.217377	0.323067	0.106345	
-0.100366	0.376948	0.109973	
-0.2429	0.437035	0.152631	
-0.11066	0.378543	0.212059	
0.0660646	-0.0345177	0.124489	
0.00434744	-0.0456526	0.250312	
0.092986	0.0135469	0.266479	
0.0179503	0.0450589	0.203027	
0.145439	-0.0925419	0.206952	
0.143938	-0.0508772	0.336308	
0.251264	-0.0990305	0.284445	
0.230609	-0.0211924	0.217185	
0.153165	-0.314436	0.187787	
0.0788737	-0.375807	0.268102	
0.00794249	-0.354079	0.147071	
0.0970803	-0.385859	0.0985367	
-0.332433	-0.136577	0.5	
-0.377437	-0.0892306	0.5	
-0.322104	-0.0533627	0.432186	
-0.346733	-0.171878	0.409849	
-0.315029	-0.388274	0.0791933	
-0.263582	-0.319413	0	
-0.331361	-0.272953	0	
-0.307464	-0.233367	0.0932852	
0.0903521	0.10545	0	
0.175408	0.155763	0.126683	
0.158056	0.171884	0	
0.0541187	0.184721	0.0970632	
-0.38078	0.324048	0.150149	
-0.317319	0.386405	0.201487	
-0.377032	0.3284	0.243217	
-0.278552	0.259099	0.267592	
0.316847	0.386792	0.198616	
0.380873	0.323938	0.152261	
0.376757	0.328716	0.246468	
0.335416	0.221718	0.163027	
0.05	-0.216667	0.5	
0.0242468	-0.236607	0.397464	
0.110158	-0.209083	0.5	
0.116472	-0.275537	0.434883	
0.471122	-0.167464	0.300106	
0.460762	-0.19416	0.234059	
0.321316	-0.199848	0.247358	
0.370442	-0.0792839	0.247792	
0.175408	0.155763	0.126683	
0.140726	0.0548949	0.0839438	
0.0540853	0.0877179	0.116287	
0.0541187	0.184721	0.0970632	
-0.411745	-0.136955	0.5	
-0.437042	-0.0584891	0.5	
-0.377437	-0.0892306	0.5	
-0.384449	-0.0847771	0.386001	
0.439458	0.238488	0.424308	
0.368925	0.202831	0.5	
0.388274	0.315029	0.420807	
0.359753	0.20612	0.3581	
0.146853	0.477948	0.415992	
0.228991	0.444481	0.408099	
0.183279	0.368447	0.5	
0.0790424	0.390413	0.396102	
0.374193	0.331632	0.334643	
0.376757	0.328716	0.246468	
0.4284	0.257824	0.295024	
0.322691	0.187554	0.276787	
0.380873	0.323938	0.152261	
0.317233	0.386476	0.0904728	
0.386505	0.317197	0.0688254	
0.240662	0.264403	0.150106	
-0.00291132	0.295217	0.296268	
-0.0144004	0.334766	0.39505	
-0.102488	0.367447	0.313744	
-0.0766135	0.239584	0.316589	
-0.257956	0.116321	0	
-0.237047	0.0201392	0	
-0.16685	0.0883447	0	
-0.153254	0.0418185	0.0989321	
0.317319	-0.386405	0.201487	
0.2429	-0.437035	0.152631	
0.248064	-0.277814	0.232664	
0.216998	-0.338361	0.102062	
0.327662	-0.113303	0.5	
0.368447	-0.183279	0.5	
0.285692	-0.172599	0.5	
0.330561	-0.223946	0.39789	
-0.174965	0.104344	0.5	
-0.173778	0.167507	0.398056	
-0.233822	0.0792854	0.380146	
-0.24957	0.148488	0.428331	
0.175	-0.00200732	0.5	
0.22142	0.00817938	0.394574	
0.216667	-0.05	0.5	
0.142037	-0.0864505	0.418568	
0.0627858	0.0916667	0.334361	
0.181535	0.0644307	0.301014	
0.0902163	0.139414	0.221996	
0.137145	0.147864	0.327542	
-0.0722049	0.334139	0.5	
-0.05	0.3	0.5	
-0.0992017	0.278039	0.399962	
-0.00291132	0.295217	0.441595	
-0.257824	-0.4284	0.204976	
-0.235178	-0.304806	0.115901	
-0.182528	-0.349181	0.246007	
-0.157858	-0.37335	0.109158	
0.143938	-0.0508772	0.336308	
0.0950848	-0.154753	0.38384	
0.220158	-0.126618	0.388055	
0.142037	-0.0864505	0.418568	
0.175	-0.00200732	0.5	
0.133333	-0.05	0.5	
0.0916667	9.90691e-18	0.5	
0.0781847	0.00688243	0.395457	
-0.258165	-0.428195	0.298245	
-0.323938	-0.380873	0.347739	
-0.243391	-0.436762	0.403062	
-0.161333	-0.314459	0.347253	
-0.278713	-0.14304	0	
-0.190069	-0.194114	0.116906	
-0.186407	-0.169451	0	
-0.26618	-0.0688348	0.104833	
0.316847	0.386792	0.198616	
0.240662	0.264403	0.150106	
0.380873	0.323938	0.152261	
0.335416	0.221718	0.163027	
-0.327738	-0.00493982	0.327054	
-0.275537	-0.116472	0.371913	
-0.348281	-0.114759	0.26937	
-0.224353	-0.050686	0.284463	
0.388345	-0.314941	0.420199	
0.240952	-0.280119	0.382753	
0.321855	-0.254144	0.5	
0.330561	-0.223946	0.39789	
-0.437078	-0.242822	0.347009	
-0.470668	-0.168734	0.298219	
-0.346733	-0.171878	0.409849	
-0.332305	-0.222015	0.288549	
-0.00254485	-0.146451	0.237696	
0.0597845	-0.282871	0.216064	
0.0700441	-0.20677	0.284029	
-0.0480147	-0.273566	0.222301	
-0.05	0.3	0.5	
-0.0951035	0.257817	0.5	
-0.101011	0.298593	0.5	
-0.0992017	0.278039	0.399962	
0.216667	0.05	0.5	
0.22142	0.00817938	0.394574	
0.175	-0.00200732	0.5	
0.232356	0.0814649	0.425205	
0.210048	-0.166493	0.5	
0.255435	-0.105455	0.5	
0.285692	-0.172599	0.5	
0.220158	-0.126618	0.388055	
0.388274	0.315029	0.420807	
0.319213	0.265223	0.5	
0.278137	0.247763	0.376191	
0.359753	0.20612	0.3581	
0.0420691	0.427134	0	
0	0.5	0.1	
-0.0372406	0.417791	0	
0.0676938	0.392306	0.0963758	
0.275537	0.116472	0.367425	
0.22142	0.00817938	0.394574	
0.334766	0.0144004	0.39505	
0.312528	0.0818724	0.426151	
-0.235698	0.440961	0.0686036	
-0.217377	0.323067	0.106345	
-0.201912	0.369986	0	
-0.100366	0.376948	0.109973	
-0.265223	0.319213	0.5	
-0.202831	0.368925	0.5	
-0.19595	0.28972	0.5	
-0.214786	0.345979	0.366075	
0.476132	-0.152637	0.402329	
0.471122	-0.167464	0.300106	
0.450312	-0.217299	0.354112	
0.334354	-0.126769	0.353658	
-0.0295403	0.225144	0	
-0.0258974	0.236971	0.122489	
-0.0983601	0.156434	0	
-0.0593477	0.116045	0.0905459	
0.16873	-0.47067	0.201799	
0.187872	-0.340275	0.296975	
0.153165	-0.314436	0.187787	
0.0788737	-0.375807	0.268102	
-0.337562	0.0547633	0	
-0.263013	0.108209	0.143902	
-0.257956	0.116321	0	
-0.372288	0.117054	0.109759	
0.0305468	-0.374084	0.5	
0.0533627	-0.322104	0.427266	
0.0883979	-0.384548	0.385617	
-0.0263522	-0.412693	0.422334	
-0.493437	-0.0807477	0.345776	
-0.384449	-0.0847771	0.386001	
-0.470668	-0.168734	0.298219	
-0.348281	-0.114759	0.26937	
0.00434744	-0.0456526	0.250312	
0.0660646	-0.0345177	0.124489	
-0.0544044	0.00856195	0.134425	
0.0179503	0.0450589	0.203027	
-0.22133	-0.175555	0.5	
-0.234106	-0.240455	0.5	
-0.28972	-0.19595	0.5	
-0.204987	-0.16964	0.406672	
-0.104344	-0.174965	0.5	
-0.122747	-0.214953	0.392685	
-0.156778	-0.139117	0.5	
-0.14418	-0.0987583	0.389626	
-0.339187	0.0209536	0.163183	
-0.372288	0.117054	0.109759	
-0.337562	0.0547633	0	
-0.402083	0.00682085	0.0882368	
-0.201912	0.369986	0	
-0.118932	0.39861	0	
-0.235698	0.440961	0.0686036	
-0.100366	0.376948	0.109973	
-0.307691	0.175889	0.353161	
-0.36554	0.108479	0.408539	
-0.233822	0.0792854	0.380146	
-0.24957	0.148488	0.428331	
0.0807477	0.493437	0.154224	
-0.00366878	0.359505	0.167012	
0	0.5	0.1	
0.0676938	0.392306	0.0963758	
-0.0734441	0.0616893	0	
-0.048473	-0.0328568	0	
0.0209546	0.0362755	0	
-0.0544044	0.00856195	0.134425	
0.136955	-0.411745	0.5	
0.0584891	-0.437042	0.5	
0.0892306	-0.377437	0.5	
0.0883979	-0.384548	0.385617	
0.154201	0.040391	0.180059	
0.0660646	-0.0345177	0.124489	
0.092986	0.0135469	0.266479	
0.0179503	0.0450589	0.203027	
0.136577	-0.332433	0.5	
0.0892306	-0.377437	0.5	
0.0722049	-0.334139	0.5	
0.0533627	-0.322104	0.427266	
0.5	0	0.1	
0.414991	0.0495125	0	
0.409478	-0.032947	0	
0.366259	0.00318862	0.135411	
0.335355	0.0353553	0.5	
0.330353	-0.0125725	0.446558	
0.312528	0.0818724	0.426151	
0.399339	0.0585413	0.429959	
0.0807477	0.493437	0.154224	
0	0.5	0.2	
0	0.5	0.1	
-0.00366878	0.359505	0.167012	
0.298593	0.101011	0.5	
0.257817	0.0951035	0.5	
0.268365	0.14329	0.5	
0.302513	0.160103	0.430769	
-0.265223	0.319213	0.5	
-0.19595	0.28972	0.5	
-0.271387	0.271262	0.399079	
-0.214786	0.345979	0.366075	
-0.28972	-0.19595	0.5	
-0.280119	-0.240952	0.383653	
-0.346733	-0.171878	0.409849	
-0.204987	-0.16964	0.406672	
0.279144	0.0168063	0.5	
0.312528	0.0818724	0.426151	
0.22142	0.00817938	0.394574	
0.232356	0.0814649	0.425205	
5.20231e-18	-0.0913051	0.5	
0.00200732	-0.17494	0.5	
-0.05	-0.133333	0.5	
-0.0627858	-0.0916667	0.423956	
-0.13253	-0.300587	0.178341	
0.00794249	-0.354079	0.147071	
-0.0311508	-0.245667	0.113138	
-0.0480147	-0.273566	0.222301	
0.153165	-0.314436	0.187787	
0.195794	-0.195794	0.279578	
0.187872	-0.340275	0.296975	
0.248064	-0.277814	0.232664	
2.83347e-18	-1.91537e-18	0.5	
-0.05	-0.05	0.5	
-0.0913051	-8.8983e-18	0.5	
-0.0188474	-0.0311526	0.378242	
-0.493437	-0.0807477	0.345776	
-0.348281	-0.114759	0.26937	
-0.492649	-0.0854243	0.248597	
-0.400982	-0.0203096	0.245361	
-0.175555	0.22133	0.5	
-0.210048	0.166493	0.5	
-0.240455	0.234106	0.5	
-0.178187	0.257719	0.423389	
-0.136577	0.332433	0.5	
-0.101011	0.298593	0.5	
-0.0992017	0.278039	0.399962	
-0.129243	0.372125	0.409369	
0.104344	0.174965	0.5	
0.05	0.216667	0.5	
0.105455	0.255435	0.5	
0.0895096	0.211893	0.376173	
-0.317197	-0.386505	0.431175	
-0.319213	-0.265223	0.5	
-0.254144	-0.321855	0.5	
-0.280119	-0.240952	0.383653	
-0.0892306	0.377437	0.5	
-0.0722049	0.334139	0.5	
-0.129243	0.372125	0.409369	
-0.0376575	0.408608	0.42489	
-0.422892	0.0550581	0.5	
-0.495102	0.0698146	0.4276	
-0.36554	0.108479	0.408539	
-0.413166	0.00148403	0.364386	
0.366259	0.00318862	0.135411	
0.246838	-0.00334576	0.115071	
0.287303	-0.106912	0.163595	
0.230609	-0.0211924	0.217185	
0.256554	-0.429162	0.331268	
0.240952	-0.280119	0.382753	
0.187872	-0.340275	0.296975	
0.186455	-0.365077	0.406768	
0.0627858	0.0916667	0.334361	
0.0902163	0.139414	0.221996	
0.092986	0.0135469	0.266479	
0.0179503	0.0450589	0.203027	
-0.0853821	0.492656	0.251348	
0.012676	0.397096	0.315269	
-0.102488	0.367447	0.313744	
-0.11066	0.378543	0.212059	
0.0892306	-0.377437	0.5	
0.0883979	-0.384548	0.385617	
0.0305468	-0.374084	0.5	
0.0533627	-0.322104	0.427266	
0.174678	0.468495	0.317109	
0.247057	0.434698	0.250499	
0.25658	0.429146	0.33124	
0.223388	0.316601	0.257498	
-0.138674	0.323797	0	
-0.100366	0.376948	0.109973	
-0.217377	0.323067	0.106345	
-0.163724	0.239688	0.0901709	
0.3168	0.386831	0.395903	
0.319213	0.265223	0.5	
0.254144	0.321855	0.5	
0.278137	0.247763	0.376191	
-0.05	-0.05	0.5	
-0.0913051	-8.8983e-18	0.5	
-0.0188474	-0.0311526	0.378242	
-0.0627858	-0.0916667	0.423956	
0.216667	0.05	0.5	
0.175	-0.00200732	0.5	
0.144848	0.0930502	0.402842	
0.232356	0.0814649	0.425205	
0.0593425	-0.191106	0.170296	
0.0700441	-0.20677	0.284029	
0.0684949	-0.106805	0.298921	
-0.00254485	-0.146451	0.237696	
0.0902163	0.139414	0.221996	
0.175408	0.155763	0.126683	
0.154201	0.040391	0.180059	
0.0540853	0.0877179	0.116287	
-0.104344	-0.174965	0.5	
-0.156778	-0.139117	0.5	
-0.10302	-0.108424	0.5	
-0.14418	-0.0987583	0.389626	
0.0943468	-0.245334	0	
0.201164	-0.273578	0	
0.166494	-0.172227	0.119812	
0.0830692	-0.28072	0.10633	
0.114629	0.403225	0.5	
0.146853	0.477948	0.415992	
0.183279	0.368447	0.5	
0.0790424	0.390413	0.396102	
0.414183	0.131147	0	
0.495293	0.0684459	0.0685965	
0.478555	0.144862	0.0783483	
0.370295	0.150924	0.0941864	
-0.257824	-0.4284	0.204976	
-0.182528	-0.349181	0.246007	
-0.217356	-0.450285	0.144698	
-0.157858	-0.37335	0.109158	
-0.275537	-0.116472	0.371913	
-0.346733	-0.171878	0.409849	
-0.348281	-0.114759	0.26937	
-0.332305	-0.222015	0.288549	
0.216667	-0.05	0.5	
0.255435	-0.105455	0.5	
0.174965	-0.104344	0.5	
0.220158	-0.126618	0.388055	
0.305435	0.121825	0.172512	
0.3762	0.0879078	0.311936	
0.322691	0.187554	0.276787	
0.272001	0.0982822	0.26656	
0.256554	-0.429162	0.331268	
0.240952	-0.280119	0.382753	
0.317163	-0.386533	0.299742	
0.187872	-0.340275	0.296975	
0.145439	-0.0925419	0.206952	
0.287303	-0.106912	0.163595	
0.166494	-0.172227	0.119812	
0.163971	-0.0679077	0.102014	
-0.471122	0.167464	0.300106	
-0.460762	0.19416	0.234059	
-0.429476	0.256028	0.291579	
-0.345491	0.130711	0.235494	
0.321855	-0.254144	0.5	
0.388345	-0.314941	0.420199	
0.265223	-0.319213	0.5	
0.240952	-0.280119	0.382753	
0.05	0.05	0.5	
0.10302	0.108424	0.5	
0.133333	0.05	0.5	
0.144848	0.0930502	0.402842	
0.0404524	-0.41072	0	
0.00794249	-0.354079	0.147071	
0.0248177	-0.313374	0	
-0.0517812	-0.402083	0.08893	
0.0584891	-0.437042	0.5	
0.00233139	-0.422954	0.5	
0.0305468	-0.374084	0.5	
-0.0263522	-0.412693	0.422334	
0.388274	0.315029	0.420807	
0.319213	0.265223	0.5	
0.3168	0.386831	0.395903	
0.278137	0.247763	0.376191	
-0.174965	0.104344	0.5	
-0.216667	0.05	0.5	
-0.255435	0.105455	0.5	
-0.24957	0.148488	0.428331	
0.00794249	-0.354079	0.147071	
0.0788737	-0.375807	0.268102	
0.153165	-0.314436	0.187787	
0.0597845	-0.282871	0.216064	
-0.377437	-0.0892306	0.5	
-0.384449	-0.0847771	0.386001	
-0.374084	-0.0305468	0.5	
-0.322104	-0.0533627	0.432186	
0.181535	0.0644307	0.301014	
0.092986	0.0135469	0.266479	
0.0902163	0.139414	0.221996	
0.187564	0.123247	0.222007	
-0.271387	0.271262	0.399079	
-0.178187	0.257719	0.423389	
-0.173778	0.167507	0.398056	
-0.222074	0.179419	0.32139	
-0.173778	0.167507	0.398056	
-0.158971	0.0982818	0.323671	
-0.0843611	0.070836	0.404426	
-0.16628	0.0337112	0.418012	
0.158056	0.171884	0	
0.231243	0.24169	0	
0.175408	0.155763	0.126683	
0.269795	0.177145	0.0946573	
-0.211369	-0.0761151	0	
-0.278713	-0.14304	0	
-0.186407	-0.169451	0	
-0.26618	-0.0688348	0.104833	
0.493012	-0.0833019	0.344789	
0.471122	-0.167464	0.300106	
0.476132	-0.152637	0.402329	
0.334354	-0.126769	0.353658	
-0.285692	0.172599	0.5	
-0.327662	0.113303	0.5	
-0.36554	0.108479	0.408539	
-0.24957	0.148488	0.428331	
-0.1808	-0.171958	0.287248	
-0.0887698	-0.154954	0.166843	
-0.1108	-0.078009	0.257656	
-0.0754532	-0.211832	0.265564	
-0.327738	-0.00493982	0.327054	
-0.334766	0.0144004	0.413573	
-0.233822	0.0792854	0.380146	
-0.30053	0.0904691	0.315276	
-0.386498	-0.317206	0.200322	
-0.429146	-0.25658	0.16876	
-0.434698	-0.247057	0.249501	
-0.332305	-0.222015	0.288549	
0.174965	-0.104344	0.5	
0.220158	-0.126618	0.388055	
0.139117	-0.156778	0.5	
0.142037	-0.0864505	0.418568	
-0.05	0.216667	0.5	
-0.0162135	0.209048	0.397765	
-0.0992017	0.278039	0.399962	
-0.00291132	0.295217	0.441595	
0.153165	-0.314436	0.187787	
0.216998	-0.338361	0.102062	
0.2429	-0.437035	0.152631	
0.0970803	-0.385859	0.0985367	
-0.0168063	-0.279144	0.5	
0.0120439	-0.258333	0.5	
-0.0144004	-0.334766	0.449619	
-0.053625	-0.263276	0.422334	
-0.0887698	-0.154954	0.166843	
-0.182857	-0.0350536	0.172086	
-0.1108	-0.078009	0.257656	
-0.112893	-0.0740846	0.102366	
-0.384449	-0.0847771	0.386001	
-0.348281	-0.114759	0.26937	
-0.275537	-0.116472	0.371913	
-0.346733	-0.171878	0.409849	
0	0.5	0.2	
0	0.5	0.3	
-0.0853821	0.492656	0.251348	
0.012676	0.397096	0.315269	
-0.328716	-0.376757	0.253532	
-0.257824	-0.4284	0.204976	
-0.331632	-0.374193	0.165357	
-0.252329	-0.26938	0.229497	
0.0627858	0.0916667	0.334361	
0.0895096	0.211893	0.376173	
0.0188132	0.185036	0.296288	
0.00204538	0.114384	0.406195	
-0.0188474	-0.0311526	0.378242	
-0.0249018	-0.155268	0.351606	
0.0684949	-0.106805	0.298921	
0.0505995	-0.0799908	0.413216	
-0.328307	0.16356	0	
-0.372288	0.117054	0.109759	
-0.257956	0.116321	0	
-0.23094	0.170935	0.0823842	
-0.0249018	-0.155268	0.351606	
-0.14418	-0.0987583	0.389626	
-0.122747	-0.214953	0.392685	
-0.0627858	-0.0916667	0.423956	
-0.136577	0.332433	0.5	
-0.0992017	0.278039	0.399962	
-0.14329	0.268365	0.5	
-0.178187	0.257719	0.423389	
0.136577	-0.332433	0.5	
0.0722049	-0.334139	0.5	
0.101011	-0.298593	0.5	
0.0533627	-0.322104	0.427266	
0.00794249	-0.354079	0.147071	
-0.0790397	-0.393483	0.200637	
-0.13253	-0.300587	0.178341	
-0.0517812	-0.402083	0.08893	
-0.17825	0.257762	0.338534	
-0.173778	0.167507	0.398056	
-0.178187	0.257719	0.423389	
-0.222074	0.179419	0.32139	
-0.105455	-0.255435	0.5	
-0.172599	-0.285692	0.5	
-0.166493	-0.210048	0.5	
-0.122747	-0.214953	0.392685	
0.247023	-0.434718	0.250558	
0.153165	-0.314436	0.187787	
0.16873	-0.47067	0.201799	
0.187872	-0.340275	0.296975	
-0.327738	-0.00493982	0.327054	
-0.348281	-0.114759	0.26937	
-0.384449	-0.0847771	0.386001	
-0.400982	-0.0203096	0.245361	
0.0781847	0.00688243	0.395457	
0.0684949	-0.106805	0.298921	
0.143938	-0.0508772	0.336308	
0.0505995	-0.0799908	0.413216	
0.305435	0.121825	0.172512	
0.3762	0.0879078	0.311936	
0.272001	0.0982822	0.26656	
0.405658	0.0360531	0.226292	
-0.233822	0.0792854	0.380146	
-0.36554	0.108479	0.408539	
-0.307691	0.175889	0.353161	
-0.30053	0.0904691	0.315276	
0.261819	0.319027	0	
0.317233	0.386476	0.0904728	
0.235698	0.440961	0.068569	
0.164017	0.352353	0.113218	
0.199062	0.200989	0.281957	
0.19157	0.189079	0.398239	
0.0895096	0.211893	0.376173	
0.137145	0.147864	0.327542	
0.05	0.3	0.5	
0.0353553	0.335355	0.5	
0.070805	0.359322	0.5	
0.0222826	0.353795	0.441823	
0.216667	-0.05	0.5	
0.220158	-0.126618	0.388055	
0.174965	-0.104344	0.5	
0.142037	-0.0864505	0.418568	
-0.476132	0.152637	0.402329	
-0.471122	0.167464	0.300106	
-0.450312	0.217299	0.354112	
-0.393116	0.0762957	0.312097	
0.181535	0.0644307	0.301014	
0.154201	0.040391	0.180059	
0.092986	0.0135469	0.266479	
0.187564	0.123247	0.222007	
0.181535	0.0644307	0.301014	
0.092986	0.0135469	0.266479	
0.154201	0.040391	0.180059	
0.230609	-0.0211924	0.217185	
-0.070805	-0.359322	0.5	
-0.105697	-0.361806	0.410161	
-0.05	-0.3	0.5	
-0.0144004	-0.334766	0.449619	
-0.0807376	0.493438	0.154216	
0	0.5	0.1	
0	0.5	0.2	
-0.00366878	0.359505	0.167012	
-0.153413	0.147726	0.129273	
-0.16685	0.0883447	0	
-0.153254	0.0418185	0.0989321	
-0.23094	0.170935	0.0823842	
-0.175555	0.22133	0.5	
-0.173778	0.167507	0.398056	
-0.210048	0.166493	0.5	
-0.178187	0.257719	0.423389	
-0.327738	-0.00493982	0.327054	
-0.400982	-0.0203096	0.245361	
-0.384449	-0.0847771	0.386001	
-0.413166	0.00148403	0.364386	
-0.386831	-0.3168	0.104097	
-0.386498	-0.317206	0.200322	
-0.331632	-0.374193	0.165357	
-0.307464	-0.233367	0.0932852	
0.478555	0.144862	0.0783483	
0.495293	0.0684459	0.0685965	
0.493389	0.0810399	0.14715	
0.370295	0.150924	0.0941864	
0.145439	-0.0925419	0.206952	
0.154201	0.040391	0.180059	
0.092986	0.0135469	0.266479	
0.230609	-0.0211924	0.217185	
-0.3	0.05	0.5	
-0.279144	0.0168063	0.5	
-0.31384	0.0131388	0.5	
-0.334766	0.0144004	0.413573	
0.327533	-0.0664701	0.421022	
0.408281	-0.0263474	0.41881	
0.334354	-0.126769	0.353658	
0.396971	-0.0114452	0.318812	
0.346509	0.0237889	0	
0.314271	-0.0501881	0	
0.366259	0.00318862	0.135411	
0.246838	-0.00334576	0.115071	
0.22142	0.00817938	0.394574	
0.144848	0.0930502	0.402842	
0.175	-0.00200732	0.5	
0.232356	0.0814649	0.425205	
-0.293731	-0.159381	0.165241	
-0.252329	-0.26938	0.229497	
-0.190069	-0.194114	0.116906	
-0.201128	-0.131883	0.196277	
0.220158	-0.126618	0.388055	
0.22142	0.00817938	0.394574	
0.143938	-0.0508772	0.336308	
0.142037	-0.0864505	0.418568	
-0.0925337	-0.196451	0	
-0.0311508	-0.245667	0.113138	
-0.0232782	-0.127584	0	
-0.000733888	-0.121505	0.108367	
-0.13253	-0.300587	0.178341	
-0.0887698	-0.154954	0.166843	
-0.0754532	-0.211832	0.265564	
-0.0480147	-0.273566	0.222301	
-0.271387	0.271262	0.399079	
-0.222074	0.179419	0.32139	
-0.173778	0.167507	0.398056	
-0.24957	0.148488	0.428331	
0.133074	0.264097	0	
0.164017	0.352353	0.113218	
0.114055	0.374109	0	
0.0676938	0.392306	0.0963758	
-0.469621	0.171627	0.160116	
-0.428104	0.258315	0.196896	
-0.460762	0.19416	0.234059	
-0.345491	0.130711	0.235494	
0.275537	0.116472	0.367425	
0.295217	0.00291132	0.296268	
0.181535	0.0644307	0.301014	
0.272001	0.0982822	0.26656	
0.19595	-0.28972	0.5	
0.240952	-0.280119	0.382753	
0.186455	-0.365077	0.406768	
0.116472	-0.275537	0.434883	
-0.13253	-0.300587	0.178341	
-0.235178	-0.304806	0.115901	
-0.252329	-0.26938	0.229497	
-0.190069	-0.194114	0.116906	
-0.0144004	-0.334766	0.39505	
0.0242468	-0.236607	0.397464	
-0.00291132	-0.295217	0.296268	
-0.053625	-0.263276	0.422334	
-0.0555676	0.325574	0	
0.0153159	0.363557	0	
-0.0372406	0.417791	0	
-0.100366	0.376948	0.109973	
0.145439	-0.0925419	0.206952	
0.230609	-0.0211924	0.217185	
0.287303	-0.106912	0.163595	
0.163971	-0.0679077	0.102014	
-0.102488	0.367447	0.313744	
0.012676	0.397096	0.315269	
-0.082983	0.493066	0.348347	
-0.0376575	0.408608	0.42489	
0.272001	0.0982822	0.26656	
0.230609	-0.0211924	0.217185	
0.181535	0.0644307	0.301014	
0.187564	0.123247	0.222007	
0.265223	-0.319213	0.5	
0.31678	-0.386847	0.395869	
0.202831	-0.368925	0.5	
0.186455	-0.365077	0.406768	
0.19595	-0.28972	0.5	
0.175555	-0.22133	0.5	
0.240455	-0.234106	0.5	
0.172223	-0.208401	0.404687	
-0.174965	0.104344	0.5	
-0.233822	0.0792854	0.380146	
-0.216667	0.05	0.5	
-0.24957	0.148488	0.428331	
0.493389	0.0810399	0.14715	
0.495293	0.0684459	0.0685965	
0.5	0	0.1	
0.366259	0.00318862	0.135411	
-0.233822	0.0792854	0.380146	
-0.238936	-0.0228922	0.39847	
-0.133323	0.00734514	0.338693	
-0.16628	0.0337112	0.418012	
0.19157	0.189079	0.398239	
0.302513	0.160103	0.430769	
0.22133	0.175555	0.5	
0.232356	0.0814649	0.425205	
0.287303	-0.106912	0.163595	
0.321316	-0.199848	0.247358	
0.345961	-0.17739	0.102725	
0.391185	-0.0962828	0.148015	
-0.437042	-0.0584891	0.5	
-0.384449	-0.0847771	0.386001	
-0.495012	-0.0704482	0.428155	
-0.413166	0.00148403	0.364386	
-0.17825	0.257762	0.338534	
-0.102488	0.367447	0.313744	
-0.0992017	0.278039	0.399962	
-0.0766135	0.239584	0.316589	
0.470916	0.168043	0.300126	
0.322691	0.187554	0.276787	
0.460548	0.194667	0.23433	
0.3762	0.0879078	0.311936	
-0.00291132	-0.295217	0.296268	
0.0788737	-0.375807	0.268102	
0.0883979	-0.384548	0.385617	
0.0108992	-0.403509	0.337337	
-0.422954	-0.00233139	0.5	
-0.495102	0.0698146	0.4276	
-0.422892	0.0550581	0.5	
-0.413166	0.00148403	0.364386	
0.0903521	0.10545	0	
0.158056	0.171884	0	
0.175408	0.155763	0.126683	
0.140726	0.0548949	0.0839438	
0.495208	-0.0690617	0.0692099	
0.5	0	0.1	
0.366259	0.00318862	0.135411	
0.391185	-0.0962828	0.148015	
-0.0770993	0.146668	0.334099	
-0.115637	0.0557776	0.228432	
-0.0346597	0.0490732	0.303617	
-0.158971	0.0982818	0.323671	
-0.127619	0.285659	0.171874	
-0.100366	0.376948	0.109973	
-0.217377	0.323067	0.106345	
-0.11066	0.378543	0.212059	
-0.0162135	0.209048	0.397765	
0.0188132	0.185036	0.296288	
0.0895096	0.211893	0.376173	
0.00204538	0.114384	0.406195	
-0.332433	-0.136577	0.5	
-0.377437	-0.0892306	0.5	
-0.334139	-0.0722049	0.5	
-0.322104	-0.0533627	0.432186	
-0.216667	0.05	0.5	
-0.233822	0.0792854	0.380146	
-0.174965	0.104344	0.5	
-0.16628	0.0337112	0.418012	
-0.171353	-0.469721	0.338334	
-0.161333	-0.314459	0.347253	
-0.243391	-0.436762	0.403062	
-0.105697	-0.361806	0.410161	
-0.153413	0.147726	0.129273	
-0.153254	0.0418185	0.0989321	
-0.263013	0.108209	0.143902	
-0.23094	0.170935	0.0823842	
-0.17825	0.257762	0.338534	
-0.178187	0.257719	0.423389	
-0.271387	0.271262	0.399079	
-0.222074	0.179419	0.32139	
-0.2429	0.437035	0.152631	
-0.192258	0.331995	0.253348	
-0.317319	0.386405	0.201487	
-0.217377	0.323067	0.106345	
-0.05	0.216667	0.5	
-0.0951035	0.257817	0.5	
-0.05	0.3	0.5	
-0.00291132	0.295217	0.441595	
0.05	-0.216667	0.5	
0.0950848	-0.154753	0.38384	
0.110158	-0.209083	0.5	
0.0242468	-0.236607	0.397464	
-0.261345	-0.230036	0	
-0.190069	-0.194114	0.116906	
-0.278713	-0.14304	0	
-0.307464	-0.233367	0.0932852	
-0.17825	0.257762	0.338534	
-0.173778	0.167507	0.398056	
-0.0992017	0.278039	0.399962	
-0.178187	0.257719	0.423389	
-0.273315	0.334955	0	
-0.318983	0.261743	0	
-0.214341	0.273759	0	
-0.217377	0.323067	0.106345	
0.242822	0.437078	0.152991	
0.317233	0.386476	0.0904728	
0.240662	0.264403	0.150106	
0.164017	0.352353	0.113218	
0.429476	-0.256028	0.291579	
0.377032	-0.3284	0.243217	
0.373696	-0.332191	0.334057	
0.321316	-0.199848	0.247358	
0.409478	-0.032947	0	
0.394936	-0.119803	0	
0.495208	-0.0690617	0.0692099	
0.391185	-0.0962828	0.148015	
-0.0249018	-0.155268	0.351606	
0.00434744	-0.0456526	0.250312	
0.0684949	-0.106805	0.298921	
-0.00254485	-0.146451	0.237696	
0.335355	0.0353553	0.5	
0.374084	0.0305468	0.5	
0.330353	-0.0125725	0.446558	
0.399339	0.0585413	0.429959	
0.234106	0.240455	0.5	
0.19157	0.189079	0.398239	
0.278137	0.247763	0.376191	
0.302513	0.160103	0.430769	
0.139117	-0.156778	0.5	
0.220158	-0.126618	0.388055	
0.172223	-0.208401	0.404687	
0.142037	-0.0864505	0.418568	
-0.173778	0.167507	0.398056	
-0.178187	0.257719	0.423389	
-0.271387	0.271262	0.399079	
-0.24957	0.148488	0.428331	
-0.00291132	-0.295217	0.296268	
0.0700441	-0.20677	0.284029	
0.0597845	-0.282871	0.216064	
-0.0480147	-0.273566	0.222301	
0.113303	0.327662	0.5	
0.114629	0.403225	0.5	
0.183279	0.368447	0.5	
0.0790424	0.390413	0.396102	
-0.0249018	-0.155268	0.351606	
0.0700441	-0.20677	0.284029	
-0.0754532	-0.211832	0.265564	
-0.00254485	-0.146451	0.237696	
0.0902163	0.139414	0.221996	
0.092986	0.0135469	0.266479	
0.154201	0.040391	0.180059	
0.187564	0.123247	0.222007	
0.0550581	0.422892	0.5	
0.0222826	0.353795	0.441823	
-0.00233139	0.422954	0.5	
-0.0376575	0.408608	0.42489	
-0.00291132	-0.295217	0.296268	
0.116472	-0.275537	0.364096	
0.0700441	-0.20677	0.284029	
0.0242468	-0.236607	0.397464	
-0.117671	-0.10197	0	
-0.211369	-0.0761151	0	
-0.186407	-0.169451	0	
-0.112893	-0.0740846	0.102366	
0.145439	-0.0925419	0.206952	
0.251264	-0.0990305	0.284445	
0.287303	-0.106912	0.163595	
0.230609	-0.0211924	0.217185	
0.470916	0.168043	0.300126	
0.372125	0.129243	0.405713	
0.450285	0.217356	0.355302	
0.359753	0.20612	0.3581	
-0.122747	-0.214953	0.392685	
-0.105697	-0.361806	0.410161	
-0.161333	-0.314459	0.347253	
-0.053625	-0.263276	0.422334	
0.335355	0.0353553	0.5	
0.374084	0.0305468	0.5	
0.35	0	0.5	
0.330353	-0.0125725	0.446558	
0.0353553	-0.335355	0.5	
0.0305468	-0.374084	0.5	
0	-0.35	0.5	
-0.0144004	-0.334766	0.449619	
0.242822	0.437078	0.152991	
0.317233	0.386476	0.0904728	
0.316847	0.386792	0.198616	
0.240662	0.264403	0.150106	
-0.386476	-0.317233	0.409527	
-0.319213	-0.265223	0.5	
-0.317197	-0.386505	0.431175	
-0.280119	-0.240952	0.383653	
5.20231e-18	-0.0913051	0.5	
0.05	-0.133333	0.5	
0.00200732	-0.17494	0.5	
0.0505995	-0.0799908	0.413216	
-0.133323	0.00734514	0.338693	
-0.238936	-0.0228922	0.39847	
-0.14418	-0.0987583	0.389626	
-0.16628	0.0337112	0.418012	
-0.450312	0.217299	0.354112	
-0.476132	0.152637	0.402329	
-0.36554	0.108479	0.408539	
-0.351832	0.232849	0.406107	
0.279144	0.0168063	0.5	
0.3	0.05	0.5	
0.31384	0.0131388	0.5	
0.330353	-0.0125725	0.446558	
-0.210048	0.166493	0.5	
-0.240455	0.234106	0.5	
-0.178187	0.257719	0.423389	
-0.24957	0.148488	0.428331	
0.0401436	0.291204	0	
0.133074	0.264097	0	
0.114055	0.374109	0	
0.0676938	0.392306	0.0963758	
-0.359322	0.070805	0.5	
-0.327662	0.113303	0.5	
-0.3	0.05	0.5	
-0.36554	0.108479	0.408539	
-0.334766	0.0144004	0.413573	
-0.393116	0.0762957	0.312097	
-0.36554	0.108479	0.408539	
-0.30053	0.0904691	0.315276	
-0.257824	-0.4284	0.204976	
-0.252329	-0.26938	0.229497	
-0.328716	-0.376757	0.253532	
-0.182528	-0.349181	0.246007	
0.174738	-0.468473	0.317184	
0.187872	-0.340275	0.296975	
0.0883979	-0.384548	0.385617	
0.186455	-0.365077	0.406768	
0.164797	-0.177585	0	
0.0943468	-0.245334	0	
0.201164	-0.273578	0	
0.166494	-0.172227	0.119812	
-0.470668	-0.168734	0.298219	
-0.384449	-0.0847771	0.386001	
-0.47591	-0.153328	0.40763	
-0.346733	-0.171878	0.409849	
0.0593425	-0.191106	0.170296	
0.0597845	-0.282871	0.216064	
-0.00254485	-0.146451	0.237696	
-0.0480147	-0.273566	0.222301	
0.181535	0.0644307	0.301014	
0.275537	0.116472	0.367425	
0.144848	0.0930502	0.402842	
0.232356	0.0814649	0.425205	
-0.13253	-0.300587	0.178341	
-0.0311508	-0.245667	0.113138	
-0.0887698	-0.154954	0.166843	
-0.0480147	-0.273566	0.222301	
0.0627858	0.0916667	0.334361	
0.092986	0.0135469	0.266479	
-0.0346597	0.0490732	0.303617	
0.0179503	0.0450589	0.203027	
0.317319	-0.386405	0.201487	
0.248064	-0.277814	0.232664	
0.262514	-0.243164	0.131417	
0.216998	-0.338361	0.102062	
0.0550581	0.422892	0.5	
0.0790424	0.390413	0.396102	
0.0222826	0.353795	0.441823	
-0.0376575	0.408608	0.42489	
-0.339187	0.0209536	0.163183	
-0.26618	-0.0688348	0.104833	
-0.376845	-0.0849991	0.114782	
-0.402083	0.00682085	0.0882368	
-0.0887698	-0.154954	0.166843	
-0.1108	-0.078009	0.257656	
-0.182857	-0.0350536	0.172086	
-0.201128	-0.131883	0.196277	
0.201164	-0.273578	0	
0.262514	-0.243164	0.131417	
0.245477	-0.191651	0	
0.166494	-0.172227	0.119812	
-0.216667	0.05	0.5	
-0.238936	-0.0228922	0.39847	
-0.233822	0.0792854	0.380146	
-0.16628	0.0337112	0.418012	
0	-0.35	0.5	
0.0305468	-0.374084	0.5	
-0.0217786	-0.376393	0.5	
-0.0144004	-0.334766	0.449619	
-0.216667	0.05	0.5	
-0.233822	0.0792854	0.380146	
-0.255435	0.105455	0.5	
-0.24957	0.148488	0.428331	
0.275537	0.116472	0.367425	
0.334766	0.0144004	0.39505	
0.295217	0.00291132	0.296268	
0.3762	0.0879078	0.311936	
-0.0310626	0.135135	0.191478	
-0.0544044	0.00856195	0.134425	
-0.0593477	0.116045	0.0905459	
0.0179503	0.0450589	0.203027	
-0.278552	0.259099	0.267592	
-0.271387	0.271262	0.399079	
-0.17825	0.257762	0.338534	
-0.214786	0.345979	0.366075	
0.133333	0.05	0.5	
0.216667	0.05	0.5	
0.175	-0.00200732	0.5	
0.144848	0.0930502	0.402842	
-0.302044	-0.0506462	0	
-0.376845	-0.0849991	0.114782	
-0.26618	-0.0688348	0.104833	
-0.402083	0.00682085	0.0882368	
0.0807376	-0.493438	0.154216	
0	-0.5	0.2	
0.0853821	-0.492656	0.251348	
0.0788737	-0.375807	0.268102	
-0.1808	-0.171958	0.287248	
-0.1108	-0.078009	0.257656	
-0.0887698	-0.154954	0.166843	
-0.201128	-0.131883	0.196277	
-0.0310626	0.135135	0.191478	
-0.0593477	0.116045	0.0905459	
0.0540853	0.0877179	0.116287	
0.0179503	0.0450589	0.203027	
-0.334766	0.0144004	0.413573	
-0.238936	-0.0228922	0.39847	
-0.279144	0.0168063	0.5	
-0.322104	-0.0533627	0.432186	
0.231243	0.24169	0	
0.300884	0.198715	0	
0.328092	0.270243	0	
0.269795	0.177145	0.0946573	
0.0248177	-0.313374	0	
-0.0311508	-0.245667	0.113138	
0.00794249	-0.354079	0.147071	
0.0830692	-0.28072	0.10633	
-0.384449	-0.0847771	0.386001	
-0.322104	-0.0533627	0.432186	
-0.377437	-0.0892306	0.5	
-0.346733	-0.171878	0.409849	
0.28972	0.19595	0.5	
0.234106	0.240455	0.5	
0.278137	0.247763	0.376191	
0.302513	0.160103	0.430769	
-0.327738	-0.00493982	0.327054	
-0.275537	-0.116472	0.371913	
-0.384449	-0.0847771	0.386001	
-0.348281	-0.114759	0.26937	
-0.0544044	0.00856195	0.134425	
-0.182857	-0.0350536	0.172086	
-0.115637	0.0557776	0.228432	
-0.153254	0.0418185	0.0989321	
-0.0887698	-0.154954	0.166843	
-0.00254485	-0.146451	0.237696	
-0.0754532	-0.211832	0.265564	
-0.0480147	-0.273566	0.222301	
-0.168043	-0.470916	0.199874	
-0.217356	-0.450285	0.144698	
-0.182528	-0.349181	0.246007	
-0.157858	-0.37335	0.109158	
0.154201	0.040391	0.180059	
0.181535	0.0644307	0.301014	
0.230609	-0.0211924	0.217185	
0.187564	0.123247	0.222007	
-0.119993	0.246691	0	
-0.0295403	0.225144	0	
-0.0555676	0.325574	0	
-0.0258974	0.236971	0.122489	
0.0248177	-0.313374	0	
0.00794249	-0.354079	0.147071	
0.0404524	-0.41072	0	
0.0970803	-0.385859	0.0985367	
-0.0925337	-0.196451	0	
0.00183684	-0.222331	0	
-0.0232782	-0.127584	0	
-0.0311508	-0.245667	0.113138	
-0.374084	-0.0305468	0.5	
-0.334766	0.0144004	0.413573	
-0.35	0	0.5	
-0.322104	-0.0533627	0.432186	
0	-0.5	0.1	
0.00794249	-0.354079	0.147071	
0.0807376	-0.493438	0.154216	
0.0970803	-0.385859	0.0985367	
0.394936	-0.119803	0	
0.314271	-0.0501881	0	
0.313791	-0.154465	0	
0.345961	-0.17739	0.102725	
0.0627858	0.0916667	0.334361	
0.0895096	0.211893	0.376173	
0.144848	0.0930502	0.402842	
0.137145	0.147864	0.327542	
-0.0295403	0.225144	0	
-0.0258974	0.236971	0.122489	
-0.0593477	0.116045	0.0905459	
0.0541187	0.184721	0.0970632	
-0.258333	-0.0120439	0.5	
-0.279144	0.0168063	0.5	
-0.216667	0.05	0.5	
-0.238936	-0.0228922	0.39847	
0.199062	0.200989	0.281957	
0.322691	0.187554	0.276787	
0.275537	0.116472	0.367425	
0.272001	0.0982822	0.26656	
0.0540853	0.0877179	0.116287	
-0.0593477	0.116045	0.0905459	
-0.0544044	0.00856195	0.134425	
0.0179503	0.0450589	0.203027	
-0.210048	0.166493	0.5	
-0.178187	0.257719	0.423389	
-0.173778	0.167507	0.398056	
-0.24957	0.148488	0.428331	
0.0902163	0.139414	0.221996	
0.0540853	0.0877179	0.116287	
-0.0310626	0.135135	0.191478	
0.0541187	0.184721	0.0970632	
0.110158	-0.209083	0.5	
0.0950848	-0.154753	0.38384	
0.172223	-0.208401	0.404687	
0.116472	-0.275537	0.434883	
-0.328307	0.16356	0	
-0.341436	0.209355	0.0876866	
-0.372288	0.117054	0.109759	
-0.23094	0.170935	0.0823842	
-0.334139	-0.0722049	0.5	
-0.298593	-0.101011	0.5	
-0.332433	-0.136577	0.5	
-0.322104	-0.0533627	0.432186	
0.115537	0.0107471	0	
0.0461078	-0.0584269	0	
0.14072	-0.0839746	0	
0.0660646	-0.0345177	0.124489	
0.195794	-0.195794	0.279578	
0.240952	-0.280119	0.382753	
0.187872	-0.340275	0.296975	
0.248064	-0.277814	0.232664	
0.428104	-0.258315	0.196896	
0.38078	-0.324048	0.150149	
0.377032	-0.3284	0.243217	
0.321316	-0.199848	0.247358	
0.0712814	-0.153152	0	
0.0943468	-0.245334	0	
0.164797	-0.177585	0	
0.166494	-0.172227	0.119812	
0.335355	-0.0353553	0.5	
0.376393	-0.0217786	0.5	
0.359322	-0.070805	0.5	
0.330353	-0.0125725	0.446558	
0.153165	-0.314436	0.187787	
0.0788737	-0.375807	0.268102	
0.187872	-0.340275	0.296975	
0.0597845	-0.282871	0.216064	
0.0584891	-0.437042	0.5	
0.0883979	-0.384548	0.385617	
0.0690566	-0.495208	0.430964	
-0.0263522	-0.412693	0.422334	
-0.0770993	0.146668	0.334099	
-0.0375749	0.231137	0.225021	
-0.131938	0.201784	0.249878	
-0.0766135	0.239584	0.316589	
0.116472	-0.275537	0.364096	
0.187872	-0.340275	0.296975	
0.0883979	-0.384548	0.385617	
0.0788737	-0.375807	0.268102	
0.156778	0.139117	0.5	
0.104344	0.174965	0.5	
0.166493	0.210048	0.5	
0.19157	0.189079	0.398239	
0.143938	-0.0508772	0.336308	
0.092986	0.0135469	0.266479	
0.145439	-0.0925419	0.206952	
0.0684949	-0.106805	0.298921	
-0.386476	-0.317233	0.409527	
-0.368925	-0.202831	0.5	
-0.319213	-0.265223	0.5	
-0.346733	-0.171878	0.409849	
0.240662	0.264403	0.150106	
0.305435	0.121825	0.172512	
0.269795	0.177145	0.0946573	
0.335416	0.221718	0.163027	
0.16873	-0.47067	0.201799	
0.153165	-0.314436	0.187787	
0.2429	-0.437035	0.152631	
0.0970803	-0.385859	0.0985367	
-0.00291132	0.295217	0.296268	
0.0895096	0.211893	0.376173	
0.0188132	0.185036	0.296288	
0.103003	0.248456	0.2762	
0.0950848	-0.154753	0.38384	
0.0242468	-0.236607	0.397464	
0.116472	-0.275537	0.364096	
0.116472	-0.275537	0.434883	
-0.307691	0.175889	0.353161	
-0.222074	0.179419	0.32139	
-0.271387	0.271262	0.399079	
-0.24957	0.148488	0.428331	
0.19157	0.189079	0.398239	
0.144848	0.0930502	0.402842	
0.275537	0.116472	0.367425	
0.232356	0.0814649	0.425205	
-0.14329	0.268365	0.5	
-0.0951035	0.257817	0.5	
-0.110158	0.209083	0.5	
-0.178187	0.257719	0.423389	
-0.368447	0.183279	0.5	
-0.285692	0.172599	0.5	
-0.36554	0.108479	0.408539	
-0.351832	0.232849	0.406107	
-0.285692	0.172599	0.5	
-0.351832	0.232849	0.406107	
-0.271387	0.271262	0.399079	
-0.24957	0.148488	0.428331	
0.5	0	0.2	
0.366259	0.00318862	0.135411	
0.391185	-0.0962828	0.148015	
0.405658	0.0360531	0.226292	
0.175408	0.155763	0.126683	
0.0540853	0.0877179	0.116287	
0.0902163	0.139414	0.221996	
0.0541187	0.184721	0.0970632	
0.317319	-0.386405	0.201487	
0.262514	-0.243164	0.131417	
0.317131	-0.386559	0.0881616	
0.216998	-0.338361	0.102062	
-0.0992017	0.278039	0.399962	
-0.0162135	0.209048	0.397765	
-0.0144004	0.334766	0.39505	
-0.00291132	0.295217	0.441595	
-0.0992017	0.278039	0.399962	
-0.17825	0.257762	0.338534	
-0.178187	0.257719	0.423389	
-0.214786	0.345979	0.366075	
-0.171353	-0.469721	0.338334	
-0.161333	-0.314459	0.347253	
-0.0762452	-0.385017	0.309762	
-0.182528	-0.349181	0.246007	
0	-0.5	0.1	
0.0970803	-0.385859	0.0985367	
0.0404524	-0.41072	0	
-0.0517812	-0.402083	0.08893	
0	-0.5	0.1	
0.00794249	-0.354079	0.147071	
0.0970803	-0.385859	0.0985367	
-0.0517812	-0.402083	0.08893	
-0.0295403	0.225144	0	
-0.0593477	0.116045	0.0905459	
-0.00425413	0.131001	0	
0.0541187	0.184721	0.0970632	
-0.00291132	0.295217	0.296268	
0.103003	0.248456	0.2762	
0.0188132	0.185036	0.296288	
-0.0375749	0.231137	0.225021	
-0.0310626	0.135135	0.191478	
-0.0346597	0.0490732	0.303617	
-0.115637	0.0557776	0.228432	
0.0179503	0.0450589	0.203027	
-0.235698	0.440961	0.0686036	
-0.2429	0.437035	0.152631	
-0.217377	0.323067	0.106345	
-0.100366	0.376948	0.109973	
-0.345491	0.130711	0.235494	
-0.307691	0.175889	0.353161	
-0.393116	0.0762957	0.312097	
-0.30053	0.0904691	0.315276	
0.115537	0.0107471	0	
0.0660646	-0.0345177	0.124489	
0.14072	-0.0839746	0	
0.163971	-0.0679077	0.102014	
0.154396	0.322847	0.356278	
0.223388	0.316601	0.257498	
0.199062	0.200989	0.281957	
0.103003	0.248456	0.2762	
-0.201912	0.369986	0	
-0.217377	0.323067	0.106345	
-0.138674	0.323797	0	
-0.100366	0.376948	0.109973	
0.195794	-0.195794	0.279578	
0.240952	-0.280119	0.382753	
0.248064	-0.277814	0.232664	
0.267469	-0.189723	0.33864	
-0.327738	-0.00493982	0.327054	
-0.273431	0.0345527	0.245119	
-0.400982	-0.0203096	0.245361	
-0.393116	0.0762957	0.312097	
-0.278552	0.259099	0.267592	
-0.271387	0.271262	0.399079	
-0.307691	0.175889	0.353161	
-0.222074	0.179419	0.32139	
-0.315029	-0.388274	0.0791933	
-0.235178	-0.304806	0.115901	
-0.263582	-0.319413	0	
-0.307464	-0.233367	0.0932852	
-0.372288	0.117054	0.109759	
-0.341436	0.209355	0.0876866	
-0.263013	0.108209	0.143902	
-0.23094	0.170935	0.0823842	
-0.16685	0.0883447	0	
-0.153413	0.147726	0.129273	
-0.153254	0.0418185	0.0989321	
-0.0593477	0.116045	0.0905459	
-0.0249018	-0.155268	0.351606	
0.0700441	-0.20677	0.284029	
0.0950848	-0.154753	0.38384	
0.0242468	-0.236607	0.397464	
0.154201	0.040391	0.180059	
0.0540853	0.0877179	0.116287	
0.0660646	-0.0345177	0.124489	
0.0179503	0.0450589	0.203027	
-0.271387	0.271262	0.399079	
-0.178187	0.257719	0.423389	
-0.240455	0.234106	0.5	
-0.24957	0.148488	0.428331	
0.154396	0.322847	0.356278	
0.103003	0.248456	0.2762	
0.0895096	0.211893	0.376173	
0.0896207	0.295594	0.416487	
-0.104344	-0.174965	0.5	
-0.166493	-0.210048	0.5	
-0.156778	-0.139117	0.5	
-0.122747	-0.214953	0.392685	
0.133333	0.05	0.5	
0.05	0.05	0.5	
0.144848	0.0930502	0.402842	
0.0781847	0.00688243	0.395457	
0.298593	0.101011	0.5	
0.312528	0.0818724	0.426151	
0.257817	0.0951035	0.5	
0.302513	0.160103	0.430769	
-0.317163	0.386533	0.299742	
-0.278552	0.259099	0.267592	
-0.317319	0.386405	0.201487	
-0.192258	0.331995	0.253348	
-0.315029	-0.388274	0.0791933	
-0.331361	-0.272953	0	
-0.386831	-0.3168	0.104097	
-0.307464	-0.233367	0.0932852	
-0.0232782	-0.127584	0	
-0.000733888	-0.121505	0.108367	
-0.048473	-0.0328568	0	
-0.112893	-0.0740846	0.102366	
-0.0704474	0.495012	0.0718449	
0	0.5	0.1	
-0.0807376	0.493438	0.154216	
-0.100366	0.376948	0.109973	
-0.115637	0.0557776	0.228432	
-0.153413	0.147726	0.129273	
-0.153254	0.0418185	0.0989321	
-0.199362	0.0555217	0.187248	
-0.156778	-0.139117	0.5	
-0.14418	-0.0987583	0.389626	
-0.122747	-0.214953	0.392685	
-0.204987	-0.16964	0.406672	
-0.31678	0.386847	0.395869	
-0.202831	0.368925	0.5	
-0.265223	0.319213	0.5	
-0.214786	0.345979	0.366075	
-0.16685	0.0883447	0	
-0.0983601	0.156434	0	
-0.153413	0.147726	0.129273	
-0.0593477	0.116045	0.0905459	
0.265223	-0.319213	0.5	
0.388345	-0.314941	0.420199	
0.31678	-0.386847	0.395869	
0.240952	-0.280119	0.382753	
0.388345	-0.314941	0.420199	
0.373696	-0.332191	0.334057	
0.240952	-0.280119	0.382753	
0.330561	-0.223946	0.39789	
-0.171353	-0.469721	0.338334	
-0.258165	-0.428195	0.298245	
-0.161333	-0.314459	0.347253	
-0.182528	-0.349181	0.246007	
-0.422954	-0.00233139	0.5	
-0.5	0	0.4	
-0.495102	0.0698146	0.4276	
-0.413166	0.00148403	0.364386	
0.210048	-0.166493	0.5	
0.174965	-0.104344	0.5	
0.255435	-0.105455	0.5	
0.220158	-0.126618	0.388055	
0.0120439	0.258333	0.5	
0.05	0.216667	0.5	
-0.0162135	0.209048	0.397765	
-0.00291132	0.295217	0.441595	
-0.422954	-0.00233139	0.5	
-0.495012	-0.0704482	0.428155	
-0.5	0	0.4	
-0.413166	0.00148403	0.364386	
0.295217	0.00291132	0.296268	
0.370442	-0.0792839	0.247792	
0.334354	-0.126769	0.353658	
0.251264	-0.0990305	0.284445	
-0.307123	-0.0146863	0.5	
-0.35	0	0.5	
-0.334766	0.0144004	0.413573	
-0.322104	-0.0533627	0.432186	
-0.0310626	0.135135	0.191478	
-0.115637	0.0557776	0.228432	
-0.0544044	0.00856195	0.134425	
0.0179503	0.0450589	0.203027	
0.0593425	-0.191106	0.170296	
-0.0311508	-0.245667	0.113138	
-0.0887698	-0.154954	0.166843	
-0.000733888	-0.121505	0.108367	
0.385896	-0.317937	0.065638	
0.262514	-0.243164	0.131417	
0.38078	-0.324048	0.150149	
0.345961	-0.17739	0.102725	
-0.339187	0.0209536	0.163183	
-0.400982	-0.0203096	0.245361	
-0.376845	-0.0849991	0.114782	
-0.289823	-0.0590788	0.205332	
0.256554	-0.429162	0.331268	
0.31678	-0.386847	0.395869	
0.240952	-0.280119	0.382753	
0.186455	-0.365077	0.406768	
-0.214953	0.122747	0.250047	
-0.345491	0.130711	0.235494	
-0.263013	0.108209	0.143902	
-0.273431	0.0345527	0.245119	
-0.136577	0.332433	0.5	
-0.129243	0.372125	0.409369	
-0.0992017	0.278039	0.399962	
-0.178187	0.257719	0.423389	
0.428195	0.258165	0.201755	
0.322691	0.187554	0.276787	
0.376757	0.328716	0.246468	
0.335416	0.221718	0.163027	
0.265223	-0.319213	0.5	
0.240952	-0.280119	0.382753	
0.31678	-0.386847	0.395869	
0.186455	-0.365077	0.406768	
-0.328716	-0.376757	0.253532	
-0.386498	-0.317206	0.200322	
-0.386792	-0.316847	0.301384	
-0.252329	-0.26938	0.229497	
0.317163	-0.386533	0.299742	
0.247023	-0.434718	0.250558	
0.187872	-0.340275	0.296975	
0.248064	-0.277814	0.232664	
-0.122747	-0.214953	0.392685	
-0.14418	-0.0987583	0.389626	
-0.1808	-0.171958	0.287248	
-0.204987	-0.16964	0.406672	
0.154201	0.040391	0.180059	
0.0902163	0.139414	0.221996	
0.0540853	0.0877179	0.116287	
0.0179503	0.0450589	0.203027	
0.5	0	0.2	
0.366259	0.00318862	0.135411	
0.493378	-0.0811073	0.146993	
0.391185	-0.0962828	0.148015	
0.105455	0.255435	0.5	
0.0895096	0.211893	0.376173	
0.05	0.216667	0.5	
0.0896207	0.295594	0.416487	
0.0700441	-0.20677	0.284029	
-0.00254485	-0.146451	0.237696	
0.0593425	-0.191106	0.170296	
0.0597845	-0.282871	0.216064	
0.0533627	-0.322104	0.427266	
-0.0144004	-0.334766	0.449619	
-0.0144004	-0.334766	0.39505	
-0.0263522	-0.412693	0.422334	
-0.327738	-0.00493982	0.327054	
-0.275537	-0.116472	0.371913	
-0.224353	-0.050686	0.284463	
-0.238936	-0.0228922	0.39847	
-0.0892306	0.377437	0.5	
-0.0305468	0.374084	0.5	
-0.0722049	0.334139	0.5	
-0.0376575	0.408608	0.42489	
0.3168	0.386831	0.395903	
0.317206	0.386498	0.299678	
0.374193	0.331632	0.334643	
0.278137	0.247763	0.376191	
-0.171353	-0.469721	0.338334	
-0.0762452	-0.385017	0.309762	
-0.161333	-0.314459	0.347253	
-0.105697	-0.361806	0.410161	
0.334354	-0.126769	0.353658	
0.370442	-0.0792839	0.247792	
0.295217	0.00291132	0.296268	
0.396971	-0.0114452	0.318812	
-0.386476	-0.317233	0.409527	
-0.319213	-0.265223	0.5	
-0.280119	-0.240952	0.383653	
-0.346733	-0.171878	0.409849	
-0.133323	0.00734514	0.338693	
-0.0843611	0.070836	0.404426	
-0.0346597	0.0490732	0.303617	
-0.158971	0.0982818	0.323671	
-0.0346597	0.0490732	0.303617	
-0.0843611	0.070836	0.404426	
-0.0770993	0.146668	0.334099	
-0.158971	0.0982818	0.323671	
0.322691	0.187554	0.276787	
0.3762	0.0879078	0.311936	
0.470916	0.168043	0.300126	
0.359753	0.20612	0.3581	
0.154201	0.040391	0.180059	
0.092986	0.0135469	0.266479	
0.0902163	0.139414	0.221996	
0.0179503	0.0450589	0.203027	
-0.386498	-0.317206	0.200322	
-0.386792	-0.316847	0.301384	
-0.252329	-0.26938	0.229497	
-0.332305	-0.222015	0.288549	
-0.127619	0.285659	0.171874	
-0.265311	0.22544	0.150174	
-0.217377	0.323067	0.106345	
-0.163724	0.239688	0.0901709	
-0.278552	0.259099	0.267592	
-0.17825	0.257762	0.338534	
-0.192258	0.331995	0.253348	
-0.214786	0.345979	0.366075	
-0.234106	-0.240455	0.5	
-0.280119	-0.240952	0.383653	
-0.28972	-0.19595	0.5	
-0.204987	-0.16964	0.406672	
0.261819	0.319027	0	
0.202324	0.378521	0	
0.189613	0.313662	0	
0.164017	0.352353	0.113218	
-0.17825	0.257762	0.338534	
-0.271387	0.271262	0.399079	
-0.278552	0.259099	0.267592	
-0.222074	0.179419	0.32139	
-0.00233139	0.422954	0.5	
0.0728232	0.494668	0.426459	
0.0550581	0.422892	0.5	
-0.0376575	0.408608	0.42489	
-0.173778	0.167507	0.398056	
-0.233822	0.0792854	0.380146	
-0.158971	0.0982818	0.323671	
-0.16628	0.0337112	0.418012	
-0.082983	0.493066	0.348347	
-0.129243	0.372125	0.409369	
-0.102488	0.367447	0.313744	
-0.0376575	0.408608	0.42489	
0.385896	-0.317937	0.065638	
0.314857	-0.257449	0	
0.262514	-0.243164	0.131417	
0.345961	-0.17739	0.102725	
0	-0.5	0.1	
0.0704474	-0.495012	0.0718449	
0.0404524	-0.41072	0	
0.0970803	-0.385859	0.0985367	
0.145439	-0.0925419	0.206952	
0.0660646	-0.0345177	0.124489	
0.154201	0.040391	0.180059	
0.163971	-0.0679077	0.102014	
0.0209546	0.0362755	0	
0.0461078	-0.0584269	0	
0.115537	0.0107471	0	
0.0660646	-0.0345177	0.124489	
-0.0144004	0.334766	0.39505	
0.0222826	0.353795	0.441823	
-0.0353553	0.335355	0.5	
-0.00291132	0.295217	0.441595	
-0.194667	-0.460548	0.26567	
-0.182528	-0.349181	0.246007	
-0.0762452	-0.385017	0.309762	
-0.0790397	-0.393483	0.200637	
-0.00291132	-0.295217	0.296268	
-0.0790397	-0.393483	0.200637	
-0.0762452	-0.385017	0.309762	
-0.0480147	-0.273566	0.222301	
0	-0.5	0.2	
0.0807376	-0.493438	0.154216	
0	-0.5	0.1	
0.00794249	-0.354079	0.147071	
-0.285692	0.172599	0.5	
-0.271387	0.271262	0.399079	
-0.240455	0.234106	0.5	
-0.24957	0.148488	0.428331	
0.287303	-0.106912	0.163595	
0.370442	-0.0792839	0.247792	
0.321316	-0.199848	0.247358	
0.391185	-0.0962828	0.148015	
-0.0951035	0.257817	0.5	
-0.0992017	0.278039	0.399962	
-0.110158	0.209083	0.5	
-0.178187	0.257719	0.423389	
0.460762	-0.19416	0.234059	
0.429476	-0.256028	0.291579	
0.471122	-0.167464	0.300106	
0.321316	-0.199848	0.247358	
0.295217	0.00291132	0.296268	
0.272001	0.0982822	0.26656	
0.3762	0.0879078	0.311936	
0.405658	0.0360531	0.226292	
0.295217	0.00291132	0.296268	
0.370442	-0.0792839	0.247792	
0.251264	-0.0990305	0.284445	
0.230609	-0.0211924	0.217185	
0.174678	0.468495	0.317109	
0.168734	0.470668	0.201781	
0.247057	0.434698	0.250499	
0.100485	0.350272	0.242427	
-0.440961	-0.235698	0.431431	
-0.368925	-0.202831	0.5	
-0.386476	-0.317233	0.409527	
-0.346733	-0.171878	0.409849	
0.287303	-0.106912	0.163595	
0.251264	-0.0990305	0.284445	
0.370442	-0.0792839	0.247792	
0.230609	-0.0211924	0.217185	
0	-0.5	0.2	
0.00794249	-0.354079	0.147071	
0	-0.5	0.1	
-0.0517812	-0.402083	0.08893	
0.136577	-0.332433	0.5	
0.0533627	-0.322104	0.427266	
0.101011	-0.298593	0.5	
0.116472	-0.275537	0.434883	
-0.411745	-0.136955	0.5	
-0.384449	-0.0847771	0.386001	
-0.377437	-0.0892306	0.5	
-0.346733	-0.171878	0.409849	
0.174738	-0.468473	0.317184	
0.256554	-0.429162	0.331268	
0.187872	-0.340275	0.296975	
0.186455	-0.365077	0.406768	
0	-0.5	0.3	
-0.0977967	-0.490343	0.258774	
-0.0762452	-0.385017	0.309762	
-0.0790397	-0.393483	0.200637	
0.403225	-0.114629	0.5	
0.327533	-0.0664701	0.421022	
0.359322	-0.070805	0.5	
0.408281	-0.0263474	0.41881	
0.154201	0.040391	0.180059	
0.0540853	0.0877179	0.116287	
0.175408	0.155763	0.126683	
0.140726	0.0548949	0.0839438	
-0.411745	-0.136955	0.5	
-0.495012	-0.0704482	0.428155	
-0.437042	-0.0584891	0.5	
-0.384449	-0.0847771	0.386001	
0.0188132	0.185036	0.296288	
-0.0375749	0.231137	0.225021	
-0.0770993	0.146668	0.334099	
-0.0766135	0.239584	0.316589	
0.0209546	0.0362755	0	
0.0540853	0.0877179	0.116287	
-0.00425413	0.131001	0	
-0.0593477	0.116045	0.0905459	
-0.450312	0.217299	0.354112	
-0.439384	0.238625	0.423358	
-0.476132	0.152637	0.402329	
-0.351832	0.232849	0.406107	
0.133333	0.05	0.5	
0.175	-0.00200732	0.5	
0.0916667	9.90691e-18	0.5	
0.0781847	0.00688243	0.395457	
-0.0144004	0.334766	0.39505	
0.012676	0.397096	0.315269	
-0.102488	0.367447	0.313744	
-0.0376575	0.408608	0.42489	
-0.0992017	0.278039	0.399962	
-0.178187	0.257719	0.423389	
-0.129243	0.372125	0.409369	
-0.214786	0.345979	0.366075	
-0.243391	-0.436762	0.403062	
-0.171353	-0.469721	0.338334	
-0.258165	-0.428195	0.298245	
-0.161333	-0.314459	0.347253	
-0.0217786	-0.376393	0.5	
-0.070805	-0.359322	0.5	
-0.0144004	-0.334766	0.449619	
-0.0263522	-0.412693	0.422334	
0.181535	0.0644307	0.301014	
0.22142	0.00817938	0.394574	
0.275537	0.116472	0.367425	
0.232356	0.0814649	0.425205	
0.495208	-0.0690617	0.0692099	
0.493378	-0.0811073	0.146993	
0.5	0	0.1	
0.391185	-0.0962828	0.148015	
-0.0807376	0.493438	0.154216	
-0.100366	0.376948	0.109973	
-0.00366878	0.359505	0.167012	
-0.11066	0.378543	0.212059	
0	-0.5	0.2	
-0.0790397	-0.393483	0.200637	
0.00794249	-0.354079	0.147071	
-0.0517812	-0.402083	0.08893	
0.415735	0.277785	0.365862	
0.278137	0.247763	0.376191	
0.374193	0.331632	0.334643	
0.359753	0.20612	0.3581	
-0.468495	-0.174678	0.182891	
-0.444481	-0.228991	0.0919014	
-0.477948	-0.146853	0.0840084	
-0.376845	-0.0849991	0.114782	
0.334766	0.0144004	0.39505	
0.3762	0.0879078	0.311936	
0.275537	0.116472	0.367425	
0.312528	0.0818724	0.426151	
0.5	0	0.1	
0.493378	-0.0811073	0.146993	
0.5	0	0.2	
0.366259	0.00318862	0.135411	
0.19595	-0.28972	0.5	
0.240455	-0.234106	0.5	
0.240952	-0.280119	0.382753	
0.172223	-0.208401	0.404687	
-0.118932	0.39861	0	
-0.153329	0.47591	0.0923815	
-0.235698	0.440961	0.0686036	
-0.100366	0.376948	0.109973	
0.0593425	-0.191106	0.170296	
-0.000733888	-0.121505	0.108367	
-0.0887698	-0.154954	0.166843	
-0.00254485	-0.146451	0.237696	
0.0883979	-0.384548	0.385617	
0.187872	-0.340275	0.296975	
0.174738	-0.468473	0.317184	
0.0788737	-0.375807	0.268102	
0.174738	-0.468473	0.317184	
0.0883979	-0.384548	0.385617	
0.147585	-0.477722	0.416442	
0.186455	-0.365077	0.406768	
0.201164	-0.273578	0	
0.245477	-0.191651	0	
0.164797	-0.177585	0	
0.166494	-0.172227	0.119812	
-0.133323	0.00734514	0.338693	
-0.0188474	-0.0311526	0.378242	
-0.0346597	0.0490732	0.303617	
-0.0843611	0.070836	0.404426	
-0.0168063	-0.279144	0.5	
0.0146863	-0.307123	0.5	
-0.0131388	-0.31384	0.5	
-0.0144004	-0.334766	0.449619	
-0.345491	0.130711	0.235494	
-0.393116	0.0762957	0.312097	
-0.273431	0.0345527	0.245119	
-0.30053	0.0904691	0.315276	
-0.327738	-0.00493982	0.327054	
-0.224353	-0.050686	0.284463	
-0.348281	-0.114759	0.26937	
-0.289823	-0.0590788	0.205332	
0.202831	-0.368925	0.5	
0.31678	-0.386847	0.395869	
0.228959	-0.444497	0.408094	
0.186455	-0.365077	0.406768	
-0.0807376	0.493438	0.154216	
0	0.5	0.2	
-0.0853821	0.492656	0.251348	
-0.11066	0.378543	0.212059	
-0.156778	-0.139117	0.5	
-0.122747	-0.214953	0.392685	
-0.166493	-0.210048	0.5	
-0.204987	-0.16964	0.406672	
-0.493012	0.0833019	0.344789	
-0.36554	0.108479	0.408539	
-0.495102	0.0698146	0.4276	
-0.413166	0.00148403	0.364386	
-0.0887698	-0.154954	0.166843	
-0.182857	-0.0350536	0.172086	
-0.112893	-0.0740846	0.102366	
-0.201128	-0.131883	0.196277	
0.0892306	-0.377437	0.5	
0.136955	-0.411745	0.5	
0.0883979	-0.384548	0.385617	
0.186455	-0.365077	0.406768	
-0.217377	0.323067	0.106345	
-0.100366	0.376948	0.109973	
-0.127619	0.285659	0.171874	
-0.163724	0.239688	0.0901709	
0.493378	-0.0811073	0.146993	
0.366259	0.00318862	0.135411	
0.5	0	0.1	
0.391185	-0.0962828	0.148015	
-0.0168063	0.279144	0.5	
-0.05	0.216667	0.5	
-0.05	0.3	0.5	
-0.00291132	0.295217	0.441595	
5.20231e-18	-0.0913051	0.5	
-0.05	-0.05	0.5	
2.83347e-18	-1.91537e-18	0.5	
-0.0188474	-0.0311526	0.378242	
-0.133333	0.05	0.5	
-0.174965	0.104344	0.5	
-0.108424	0.10302	0.5	
-0.16628	0.0337112	0.418012	
-0.368447	0.183279	0.5	
-0.285692	0.172599	0.5	
-0.327662	0.113303	0.5	
-0.36554	0.108479	0.408539	
0.0242468	-0.236607	0.397464	
0.0533627	-0.322104	0.427266	
0.0120439	-0.258333	0.5	
-0.0144004	-0.334766	0.449619	
0.22142	0.00817938	0.394574	
0.312528	0.0818724	0.426151	
0.275537	0.116472	0.367425	
0.232356	0.0814649	0.425205	
-0.0770993	0.146668	0.334099	
-0.0843611	0.070836	0.404426	
-0.173778	0.167507	0.398056	
-0.158971	0.0982818	0.323671	
-0.334766	0.0144004	0.413573	
-0.327738	-0.00493982	0.327054	
-0.393116	0.0762957	0.312097	
-0.30053	0.0904691	0.315276	
0.0892306	-0.377437	0.5	
0.136577	-0.332433	0.5	
0.136955	-0.411745	0.5	
0.186455	-0.365077	0.406768	
0.156778	0.139117	0.5	
0.10302	0.108424	0.5	
0.104344	0.174965	0.5	
0.144848	0.0930502	0.402842	
-0.437078	-0.242822	0.347009	
-0.346733	-0.171878	0.409849	
-0.280119	-0.240952	0.383653	
-0.332305	-0.222015	0.288549	
0.247868	0.146306	0	
0.276476	0.0535537	0	
0.337634	0.115561	0	
0.269795	0.177145	0.0946573	
0.0950848	-0.154753	0.38384	
0.116472	-0.275537	0.364096	
0.172223	-0.208401	0.404687	
0.116472	-0.275537	0.434883	
0.0897997	0.249573	0.16264	
0.175408	0.155763	0.126683	
0.0902163	0.139414	0.221996	
0.0541187	0.184721	0.0970632	
0.376757	0.328716	0.246468	
0.428195	0.258165	0.201755	
0.4284	0.257824	0.295024	
0.322691	0.187554	0.276787	
-0.13253	-0.300587	0.178341	
-0.182528	-0.349181	0.246007	
-0.235178	-0.304806	0.115901	
-0.157858	-0.37335	0.109158	
0.470916	0.168043	0.300126	
0.3762	0.0879078	0.311936	
0.372125	0.129243	0.405713	
0.359753	0.20612	0.3581	
-0.133323	0.00734514	0.338693	
-0.0346597	0.0490732	0.303617	
-0.115637	0.0557776	0.228432	
-0.158971	0.0982818	0.323671	
0.334354	-0.126769	0.353658	
0.370442	-0.0792839	0.247792	
0.321316	-0.199848	0.247358	
0.251264	-0.0990305	0.284445	
-0.16685	0.0883447	0	
-0.0983601	0.156434	0	
-0.18644	0.1823	0	
-0.153413	0.147726	0.129273	
0.154201	0.040391	0.180059	
0.230609	-0.0211924	0.217185	
0.145439	-0.0925419	0.206952	
0.163971	-0.0679077	0.102014	
0.0950848	-0.154753	0.38384	
0.0700441	-0.20677	0.284029	
0.116472	-0.275537	0.364096	
0.0242468	-0.236607	0.397464	
0.287303	-0.106912	0.163595	
0.321316	-0.199848	0.247358	
0.262514	-0.243164	0.131417	
0.345961	-0.17739	0.102725	
0.5	0	0.4	
0.396971	-0.0114452	0.318812	
0.408281	-0.0263474	0.41881	
0.399339	0.0585413	0.429959	
0.0404524	-0.41072	0	
0.0970803	-0.385859	0.0985367	
0.00794249	-0.354079	0.147071	
-0.0517812	-0.402083	0.08893	
0.28972	0.19595	0.5	
0.278137	0.247763	0.376191	
0.319213	0.265223	0.5	
0.302513	0.160103	0.430769	
0.199062	0.200989	0.281957	
0.0895096	0.211893	0.376173	
0.103003	0.248456	0.2762	
0.137145	0.147864	0.327542	
-0.386792	-0.316847	0.301384	
-0.386476	-0.317233	0.409527	
-0.280119	-0.240952	0.383653	
-0.332305	-0.222015	0.288549	
0.0242468	-0.236607	0.397464	
-0.0144004	-0.334766	0.449619	
0.0120439	-0.258333	0.5	
-0.053625	-0.263276	0.422334	
-0.492649	-0.0854243	0.248597	
-0.493437	-0.0807477	0.345776	
-0.470668	-0.168734	0.298219	
-0.348281	-0.114759	0.26937	
-0.386831	-0.3168	0.104097	
-0.331632	-0.374193	0.165357	
-0.235178	-0.304806	0.115901	
-0.307464	-0.233367	0.0932852	
-0.082983	0.493066	0.348347	
-0.102488	0.367447	0.313744	
-0.0853821	0.492656	0.251348	
0.012676	0.397096	0.315269	
-0.05	-0.3	0.5	
-0.0144004	-0.334766	0.449619	
-0.105697	-0.361806	0.410161	
-0.053625	-0.263276	0.422334	
-0.0544044	0.00856195	0.134425	
-0.0734441	0.0616893	0	
-0.153254	0.0418185	0.0989321	
-0.0593477	0.116045	0.0905459	
-0.0188474	-0.0311526	0.378242	
0.0781847	0.00688243	0.395457	
2.83347e-18	-1.91537e-18	0.5	
0.0505995	-0.0799908	0.413216	
-0.0892306	0.377437	0.5	
-0.136955	0.411745	0.5	
-0.0584891	0.437042	0.5	
-0.0376575	0.408608	0.42489	
0.05	-0.05	0.5	
2.83347e-18	-1.91537e-18	0.5	
0.0781847	0.00688243	0.395457	
0.0505995	-0.0799908	0.413216	
0.388274	0.315029	0.420807	
0.278137	0.247763	0.376191	
0.415735	0.277785	0.365862	
0.359753	0.20612	0.3581	
0	0.5	0.4	
0.012676	0.397096	0.315269	
0.0790424	0.390413	0.396102	
-0.0376575	0.408608	0.42489	
0.314271	-0.0501881	0	
0.409478	-0.032947	0	
0.346509	0.0237889	0	
0.366259	0.00318862	0.135411	
0.0781847	0.00688243	0.395457	
0.142037	-0.0864505	0.418568	
0.133333	-0.05	0.5	
0.0505995	-0.0799908	0.413216	
-0.182857	-0.0350536	0.172086	
-0.289823	-0.0590788	0.205332	
-0.273431	0.0345527	0.245119	
-0.199362	0.0555217	0.187248	
-0.275537	-0.116472	0.371913	
-0.280119	-0.240952	0.383653	
-0.346733	-0.171878	0.409849	
-0.332305	-0.222015	0.288549	
-0.38078	0.324048	0.150149	
-0.317131	0.386559	0.0881616	
-0.317319	0.386405	0.201487	
-0.217377	0.323067	0.106345	
0.0807477	0.493437	0.154224	
0.168734	0.470668	0.201781	
0.0854243	0.492649	0.251403	
0.100485	0.350272	0.242427	
0.335355	0.0353553	0.5	
0.312528	0.0818724	0.426151	
0.334139	0.0722049	0.5	
0.399339	0.0585413	0.429959	
0	0.5	0.4	
-0.082983	0.493066	0.348347	
0.012676	0.397096	0.315269	
-0.0376575	0.408608	0.42489	
0.5	0	0.2	
0.493389	0.0810399	0.14715	
0.5	0	0.1	
0.366259	0.00318862	0.135411	
-0.495208	0.0690617	0.0692099	
-0.426463	0.0441363	0	
-0.372288	0.117054	0.109759	
-0.402083	0.00682085	0.0882368	
-0.493012	0.0833019	0.344789	
-0.393116	0.0762957	0.312097	
-0.36554	0.108479	0.408539	
-0.413166	0.00148403	0.364386	
0.158056	0.171884	0	
0.184962	0.0799289	0	
0.247868	0.146306	0	
0.175408	0.155763	0.126683	
0.174738	-0.468473	0.317184	
0.187872	-0.340275	0.296975	
0.16873	-0.47067	0.201799	
0.0788737	-0.375807	0.268102	
-0.493315	-0.0814864	0.152319	
-0.5	0	0.1	
-0.5	0	0.2	
-0.402083	0.00682085	0.0882368	
0.370442	-0.0792839	0.247792	
0.396971	-0.0114452	0.318812	
0.490316	-0.0979281	0.24092	
0.405658	0.0360531	0.226292	
0.38078	-0.324048	0.150149	
0.317131	-0.386559	0.0881616	
0.317319	-0.386405	0.201487	
0.262514	-0.243164	0.131417	
-0.16685	0.0883447	0	
-0.153413	0.147726	0.129273	
-0.18644	0.1823	0	
-0.23094	0.170935	0.0823842	
-0.339187	0.0209536	0.163183	
-0.263013	0.108209	0.143902	
-0.345491	0.130711	0.235494	
-0.273431	0.0345527	0.245119	
0.287303	-0.106912	0.163595	
0.230609	-0.0211924	0.217185	
0.246838	-0.00334576	0.115071	
0.163971	-0.0679077	0.102014	
0.38078	-0.324048	0.150149	
0.262514	-0.243164	0.131417	
0.317319	-0.386405	0.201487	
0.248064	-0.277814	0.232664	
0.335355	0.0353553	0.5	
0.3	0.05	0.5	
0.312528	0.0818724	0.426151	
0.330353	-0.0125725	0.446558	
0.0120439	0.258333	0.5	
0.0896207	0.295594	0.416487	
0.05	0.216667	0.5	
-0.00291132	0.295217	0.441595	
-0.31678	0.386847	0.395869	
-0.271387	0.271262	0.399079	
-0.317163	0.386533	0.299742	
-0.214786	0.345979	0.366075	
0.158056	0.171884	0	
0.133074	0.264097	0	
0.0651412	0.200096	0	
0.0541187	0.184721	0.0970632	
0.5	0	0.4	
0.493012	0.0833019	0.344789	
0.396971	-0.0114452	0.318812	
0.399339	0.0585413	0.429959	
-0.168043	-0.470916	0.199874	
-0.182528	-0.349181	0.246007	
-0.0790397	-0.393483	0.200637	
-0.157858	-0.37335	0.109158	
-0.118932	0.39861	0	
-0.201912	0.369986	0	
-0.138674	0.323797	0	
-0.100366	0.376948	0.109973	
0.268393	-0.334301	0	
0.262514	-0.243164	0.131417	
0.201164	-0.273578	0	
0.216998	-0.338361	0.102062	
0.275537	0.116472	0.367425	
0.322691	0.187554	0.276787	
0.278137	0.247763	0.376191	
0.359753	0.20612	0.3581	
0.256554	-0.429162	0.331268	
0.31678	-0.386847	0.395869	
0.317163	-0.386533	0.299742	
0.240952	-0.280119	0.382753	
0.05	-0.3	0.5	
0.0533627	-0.322104	0.427266	
0.0242468	-0.236607	0.397464	
0.116472	-0.275537	0.434883	
-0.153413	0.147726	0.129273	
-0.263013	0.108209	0.143902	
-0.265311	0.22544	0.150174	
-0.23094	0.170935	0.0823842	
-0.437078	-0.242822	0.347009	
-0.386476	-0.317233	0.409527	
-0.280119	-0.240952	0.383653	
-0.346733	-0.171878	0.409849	
0.201164	-0.273578	0	
0.0830692	-0.28072	0.10633	
0.112799	-0.33356	0	
0.216998	-0.338361	0.102062	
0.136955	-0.411745	0.5	
0.147585	-0.477722	0.416442	
0.0584891	-0.437042	0.5	
0.0883979	-0.384548	0.385617	
0.0593425	-0.191106	0.170296	
0.0830692	-0.28072	0.10633	
0.153165	-0.314436	0.187787	
0.0597845	-0.282871	0.216064	
-0.174738	0.468473	0.317184	
-0.256554	0.429162	0.331268	
-0.192258	0.331995	0.253348	
-0.214786	0.345979	0.366075	
-0.182857	-0.0350536	0.172086	
-0.273431	0.0345527	0.245119	
-0.224353	-0.050686	0.284463	
-0.199362	0.0555217	0.187248	
-0.174738	0.468473	0.317184	
-0.192258	0.331995	0.253348	
-0.102488	0.367447	0.313744	
-0.214786	0.345979	0.366075	
0.0660646	-0.0345177	0.124489	
0.0540853	0.0877179	0.116287	
-0.0544044	0.00856195	0.134425	
0.0179503	0.0450589	0.203027	
-0.174738	0.468473	0.317184	
-0.192258	0.331995	0.253348	
-0.247023	0.434718	0.250558	
-0.11066	0.378543	0.212059	
0	0.5	0.2	
0.0854243	0.492649	0.251403	
0	0.5	0.3	
0.012676	0.397096	0.315269	
-0.0810399	-0.493389	0.35285	
-0.0762452	-0.385017	0.309762	
-0.105697	-0.361806	0.410161	
-0.0263522	-0.412693	0.422334	
-0.429146	-0.25658	0.16876	
-0.386498	-0.317206	0.200322	
-0.386831	-0.3168	0.104097	
-0.307464	-0.233367	0.0932852	
-0.0887698	-0.154954	0.166843	
-0.112893	-0.0740846	0.102366	
-0.190069	-0.194114	0.116906	
-0.201128	-0.131883	0.196277	
0.372125	0.129243	0.405713	
0.302513	0.160103	0.430769	
0.368925	0.202831	0.5	
0.359753	0.20612	0.3581	
0.235698	-0.440961	0.0686036	
0.216998	-0.338361	0.102062	
0.194604	-0.371188	0	
0.0970803	-0.385859	0.0985367	
0.346509	0.0237889	0	
0.409478	-0.032947	0	
0.414991	0.0495125	0	
0.366259	0.00318862	0.135411	
0.478516	-0.14499	0.0762896	
0.495208	-0.0690617	0.0692099	
0.394936	-0.119803	0	
0.391185	-0.0962828	0.148015	
0.16873	-0.47067	0.201799	
0.247023	-0.434718	0.250558	
0.2429	-0.437035	0.152631	
0.153165	-0.314436	0.187787	
-0.434698	-0.247057	0.249501	
-0.468495	-0.174678	0.182891	
-0.470668	-0.168734	0.298219	
-0.348281	-0.114759	0.26937	
0.115537	0.0107471	0	
0.0660646	-0.0345177	0.124489	
0.163971	-0.0679077	0.102014	
0.140726	0.0548949	0.0839438	
0.428195	0.258165	0.201755	
0.460548	0.194667	0.23433	
0.322691	0.187554	0.276787	
0.335416	0.221718	0.163027	
-0.0983601	0.156434	0	
-0.18644	0.1823	0	
-0.153413	0.147726	0.129273	
-0.163724	0.239688	0.0901709	
-0.238488	-0.439458	0.0756919	
-0.203173	-0.373024	0	
-0.315029	-0.388274	0.0791933	
-0.235178	-0.304806	0.115901	
-0.0144004	0.334766	0.39505	
-0.102488	0.367447	0.313744	
-0.0992017	0.278039	0.399962	
-0.129243	0.372125	0.409369	
0.493012	0.0833019	0.344789	
0.3762	0.0879078	0.311936	
0.396971	-0.0114452	0.318812	
0.399339	0.0585413	0.429959	
-0.437078	-0.242822	0.347009	
-0.280119	-0.240952	0.383653	
-0.386476	-0.317233	0.409527	
-0.332305	-0.222015	0.288549	
0.0807376	-0.493438	0.154216	
0.0853821	-0.492656	0.251348	
0.16873	-0.47067	0.201799	
0.0788737	-0.375807	0.268102	
-0.05	-0.05	0.5	
-0.0188474	-0.0311526	0.378242	
5.20231e-18	-0.0913051	0.5	
-0.0627858	-0.0916667	0.423956	
-0.331361	-0.272953	0	
-0.356684	-0.19351	0	
-0.415735	-0.277785	0	
-0.307464	-0.233367	0.0932852	
-0.1108	-0.078009	0.257656	
-0.0754532	-0.211832	0.265564	
-0.0887698	-0.154954	0.166843	
-0.00254485	-0.146451	0.237696	
-0.0770993	0.146668	0.334099	
0.0188132	0.185036	0.296288	
-0.0162135	0.209048	0.397765	
0.00204538	0.114384	0.406195	
0.385896	-0.317937	0.065638	
0.436811	-0.243302	0.0936268	
0.380207	-0.19708	0	
0.345961	-0.17739	0.102725	
0.385896	-0.317937	0.065638	
0.380207	-0.19708	0	
0.314857	-0.257449	0	
0.345961	-0.17739	0.102725	
-0.0638367	-0.295761	0	
-0.157858	-0.37335	0.109158	
-0.114467	-0.386332	0	
-0.0517812	-0.402083	0.08893	
0	0.5	0.4	
0.0728232	0.494668	0.426459	
-0.00233139	0.422954	0.5	
-0.0376575	0.408608	0.42489	
0.5	0	0.2	
0.493378	-0.0811073	0.146993	
0.490316	-0.0979281	0.24092	
0.391185	-0.0962828	0.148015	
0.321316	-0.199848	0.247358	
0.370442	-0.0792839	0.247792	
0.287303	-0.106912	0.163595	
0.251264	-0.0990305	0.284445	
-0.105455	-0.255435	0.5	
-0.104344	-0.174965	0.5	
-0.05	-0.216667	0.5	
-0.122747	-0.214953	0.392685	
0.4284	0.257824	0.295024	
0.322691	0.187554	0.276787	
0.470916	0.168043	0.300126	
0.359753	0.20612	0.3581	
0.359322	-0.070805	0.5	
0.376393	-0.0217786	0.5	
0.408281	-0.0263474	0.41881	
0.330353	-0.0125725	0.446558	
0.234106	0.240455	0.5	
0.319213	0.265223	0.5	
0.28972	0.19595	0.5	
0.278137	0.247763	0.376191	
0.470916	0.168043	0.300126	
0.460548	0.194667	0.23433	
0.490343	0.0977967	0.241226	
0.3762	0.0879078	0.311936	
5.20231e-18	-0.0913051	0.5	
-0.0188474	-0.0311526	0.378242	
2.83347e-18	-1.91537e-18	0.5	
0.0505995	-0.0799908	0.413216	
0.490343	0.0977967	0.241226	
0.469721	0.171353	0.161666	
0.493389	0.0810399	0.14715	
0.405658	0.0360531	0.226292	
-0.252329	-0.26938	0.229497	
-0.235178	-0.304806	0.115901	
-0.13253	-0.300587	0.178341	
-0.182528	-0.349181	0.246007	
-0.411745	-0.136955	0.5	
-0.377437	-0.0892306	0.5	
-0.332433	-0.136577	0.5	
-0.346733	-0.171878	0.409849	
0.0248177	-0.313374	0	
0.0830692	-0.28072	0.10633	
0.00794249	-0.354079	0.147071	
0.0970803	-0.385859	0.0985367	
0.0790424	0.390413	0.396102	
-0.0144004	0.334766	0.39505	
0.0222826	0.353795	0.441823	
-0.0376575	0.408608	0.42489	
0.0401436	0.291204	0	
0.0651412	0.200096	0	
0.133074	0.264097	0	
0.0541187	0.184721	0.0970632	
0.493389	0.0810399	0.14715	
0.366259	0.00318862	0.135411	
0.5	0	0.2	
0.405658	0.0360531	0.226292	
-0.404541	0.126945	0	
-0.495208	0.0690617	0.0692099	
-0.426463	0.0441363	0	
-0.372288	0.117054	0.109759	
-0.235178	-0.304806	0.115901	
-0.190069	-0.194114	0.116906	
-0.261345	-0.230036	0	
-0.307464	-0.233367	0.0932852	
-0.0790397	-0.393483	0.200637	
-0.157858	-0.37335	0.109158	
-0.13253	-0.300587	0.178341	
-0.0517812	-0.402083	0.08893	
-0.275537	-0.116472	0.371913	
-0.327738	-0.00493982	0.327054	
-0.384449	-0.0847771	0.386001	
-0.322104	-0.0533627	0.432186	
-0.214953	0.122747	0.250047	
-0.263013	0.108209	0.143902	
-0.153413	0.147726	0.129273	
-0.199362	0.0555217	0.187248	
-0.327738	-0.00493982	0.327054	
-0.275537	-0.116472	0.371913	
-0.238936	-0.0228922	0.39847	
-0.322104	-0.0533627	0.432186	
0.174678	0.468495	0.317109	
0.25658	0.429146	0.33124	
0.228991	0.444481	0.408099	
0.154396	0.322847	0.356278	
-0.373696	0.332191	0.334057	
-0.429476	0.256028	0.291579	
-0.377032	0.3284	0.243217	
-0.278552	0.259099	0.267592	
0.279144	0.0168063	0.5	
0.312528	0.0818724	0.426151	
0.3	0.05	0.5	
0.330353	-0.0125725	0.446558	
-0.13253	-0.300587	0.178341	
-0.0790397	-0.393483	0.200637	
0.00794249	-0.354079	0.147071	
-0.0480147	-0.273566	0.222301	
0.380873	0.323938	0.152261	
0.316847	0.386792	0.198616	
0.317233	0.386476	0.0904728	
0.240662	0.264403	0.150106	
0.0305468	-0.374084	0.5	
-0.0217786	-0.376393	0.5	
-0.0144004	-0.334766	0.449619	
-0.0263522	-0.412693	0.422334	
-0.0892306	0.377437	0.5	
-0.129243	0.372125	0.409369	
-0.136955	0.411745	0.5	
-0.0376575	0.408608	0.42489	
-0.228959	0.444497	0.408094	
-0.202831	0.368925	0.5	
-0.31678	0.386847	0.395869	
-0.214786	0.345979	0.366075	
0.403225	-0.114629	0.5	
0.327662	-0.113303	0.5	
0.359322	-0.070805	0.5	
0.327533	-0.0664701	0.421022	
-0.00291132	0.295217	0.296268	
0.0188132	0.185036	0.296288	
-0.0162135	0.209048	0.397765	
-0.0766135	0.239584	0.316589	
-0.0232782	-0.127584	0	
0.0461078	-0.0584269	0	
-0.048473	-0.0328568	0	
-0.000733888	-0.121505	0.108367	
0.240952	-0.280119	0.382753	
0.195794	-0.195794	0.279578	
0.172223	-0.208401	0.404687	
0.267469	-0.189723	0.33864	
0.439458	0.238488	0.424308	
0.372125	0.129243	0.405713	
0.368925	0.202831	0.5	
0.359753	0.20612	0.3581	
0.0712814	-0.153152	0	
-0.0232782	-0.127584	0	
0.00183684	-0.222331	0	
-0.000733888	-0.121505	0.108367	
-0.317163	0.386533	0.299742	
-0.192258	0.331995	0.253348	
-0.256554	0.429162	0.331268	
-0.214786	0.345979	0.366075	
0.0420691	0.427134	0	
-0.0372406	0.417791	0	
0.0153159	0.363557	0	
0.0676938	0.392306	0.0963758	
0.0728232	0.494668	0.426459	
0.0790424	0.390413	0.396102	
0.0550581	0.422892	0.5	
-0.0376575	0.408608	0.42489	
0.0883979	-0.384548	0.385617	
0.187872	-0.340275	0.296975	
0.116472	-0.275537	0.364096	
0.186455	-0.365077	0.406768	
0.0950848	-0.154753	0.38384	
0.0700441	-0.20677	0.284029	
-0.0249018	-0.155268	0.351606	
0.0684949	-0.106805	0.298921	
-0.345491	0.130711	0.235494	
-0.263013	0.108209	0.143902	
-0.339187	0.0209536	0.163183	
-0.372288	0.117054	0.109759	
0.0353553	-0.335355	0.5	
0.0533627	-0.322104	0.427266	
0.0305468	-0.374084	0.5	
-0.0144004	-0.334766	0.449619	
-0.16873	0.47067	0.201799	
-0.2429	0.437035	0.152631	
-0.100366	0.376948	0.109973	
-0.11066	0.378543	0.212059	
0.154396	0.322847	0.356278	
0.100485	0.350272	0.242427	
0.223388	0.316601	0.257498	
0.103003	0.248456	0.2762	
-0.0295403	0.225144	0	
0.0401436	0.291204	0	
-0.0555676	0.325574	0	
-0.0258974	0.236971	0.122489	
0.184962	0.0799289	0	
0.175408	0.155763	0.126683	
0.158056	0.171884	0	
0.140726	0.0548949	0.0839438	
0.0903521	0.10545	0	
0.0540853	0.0877179	0.116287	
0.0209546	0.0362755	0	
0.140726	0.0548949	0.0839438	
-0.0770993	0.146668	0.334099	
-0.0843611	0.070836	0.404426	
-0.0346597	0.0490732	0.303617	
0.00204538	0.114384	0.406195	
-0.0310626	0.135135	0.191478	
-0.0593477	0.116045	0.0905459	
-0.0258974	0.236971	0.122489	
0.0541187	0.184721	0.0970632	
0.113303	0.327662	0.5	
0.070805	0.359322	0.5	
0.0790424	0.390413	0.396102	
0.0896207	0.295594	0.416487	
0.385896	-0.317937	0.065638	
0.317131	-0.386559	0.0881616	
0.38078	-0.324048	0.150149	
0.262514	-0.243164	0.131417	
-0.102488	0.367447	0.313744	
-0.192258	0.331995	0.253348	
-0.174738	0.468473	0.317184	
-0.11066	0.378543	0.212059	
-0.182857	-0.0350536	0.172086	
-0.115637	0.0557776	0.228432	
-0.153254	0.0418185	0.0989321	
-0.199362	0.0555217	0.187248	
0.153328	0.47591	0.0923699	
0.168734	0.470668	0.201781	
0.0807477	0.493437	0.154224	
0.0676938	0.392306	0.0963758	
0.374193	0.331632	0.334643	
0.415735	0.277785	0.365862	
0.388274	0.315029	0.420807	
0.278137	0.247763	0.376191	
-0.172599	-0.285692	0.5	
-0.113303	-0.327662	0.5	
-0.183279	-0.368447	0.5	
-0.105697	-0.361806	0.410161	
0.05	-0.216667	0.5	
0.110158	-0.209083	0.5	
0.0951035	-0.257817	0.5	
0.116472	-0.275537	0.434883	
0.232997	-0.11062	0	
0.246838	-0.00334576	0.115071	
0.210156	-0.0147965	0	
0.163971	-0.0679077	0.102014	
-0.258333	-0.0120439	0.5	
-0.279144	0.0168063	0.5	
-0.238936	-0.0228922	0.39847	
-0.322104	-0.0533627	0.432186	
0.295217	0.00291132	0.296268	
0.181535	0.0644307	0.301014	
0.272001	0.0982822	0.26656	
0.230609	-0.0211924	0.217185	
0.133333	-0.05	0.5	
0.0916667	9.90691e-18	0.5	
0.0781847	0.00688243	0.395457	
0.0505995	-0.0799908	0.413216	
0.174738	-0.468473	0.317184	
0.228959	-0.444497	0.408094	
0.256554	-0.429162	0.331268	
0.186455	-0.365077	0.406768	
0.00183684	-0.222331	0	
-0.0311508	-0.245667	0.113138	
0.0248177	-0.313374	0	
0.0830692	-0.28072	0.10633	
-0.214953	0.122747	0.250047	
-0.158971	0.0982818	0.323671	
-0.131938	0.201784	0.249878	
-0.222074	0.179419	0.32139	
-0.327738	-0.00493982	0.327054	
-0.273431	0.0345527	0.245119	
-0.393116	0.0762957	0.312097	
-0.30053	0.0904691	0.315276	
-0.171353	-0.469721	0.338334	
-0.0810399	-0.493389	0.35285	
-0.0762452	-0.385017	0.309762	
-0.105697	-0.361806	0.410161	
-0.175555	0.22133	0.5	
-0.110158	0.209083	0.5	
-0.173778	0.167507	0.398056	
-0.178187	0.257719	0.423389	
0.275537	0.116472	0.367425	
0.3762	0.0879078	0.311936	
0.322691	0.187554	0.276787	
0.359753	0.20612	0.3581	
-0.5	0	0.2	
-0.5	0	0.1	
-0.493378	0.0811073	0.146993	
-0.402083	0.00682085	0.0882368	
-0.0833019	-0.493012	0.155211	
-0.0790397	-0.393483	0.200637	
0	-0.5	0.2	
-0.0517812	-0.402083	0.08893	
0.0950848	-0.154753	0.38384	
0.0684949	-0.106805	0.298921	
-0.0249018	-0.155268	0.351606	
0.0505995	-0.0799908	0.413216	
-0.0310626	0.135135	0.191478	
0.0540853	0.0877179	0.116287	
-0.0593477	0.116045	0.0905459	
0.0541187	0.184721	0.0970632	
0.232997	-0.11062	0	
0.164797	-0.177585	0	
0.245477	-0.191651	0	
0.166494	-0.172227	0.119812	
0.164797	-0.177585	0	
0.166494	-0.172227	0.119812	
0.232997	-0.11062	0	
0.163971	-0.0679077	0.102014	
-0.263013	0.108209	0.143902	
-0.273431	0.0345527	0.245119	
-0.339187	0.0209536	0.163183	
-0.199362	0.0555217	0.187248	
0.220158	-0.126618	0.388055	
0.172223	-0.208401	0.404687	
0.195794	-0.195794	0.279578	
0.267469	-0.189723	0.33864	
0.154201	0.040391	0.180059	
0.175408	0.155763	0.126683	
0.0902163	0.139414	0.221996	
0.187564	0.123247	0.222007	
-0.257824	-0.4284	0.204976	
-0.168043	-0.470916	0.199874	
-0.217356	-0.450285	0.144698	
-0.182528	-0.349181	0.246007	
-0.235698	0.440961	0.0686036	
-0.153329	0.47591	0.0923815	
-0.2429	0.437035	0.152631	
-0.100366	0.376948	0.109973	
-0.243391	-0.436762	0.403062	
-0.183279	-0.368447	0.5	
-0.144862	-0.478555	0.421652	
-0.105697	-0.361806	0.410161	
-0.327738	-0.00493982	0.327054	
-0.400982	-0.0203096	0.245361	
-0.273431	0.0345527	0.245119	
-0.289823	-0.0590788	0.205332	
-0.133333	-0.05	0.5	
-0.209083	-0.110158	0.5	
-0.216667	-0.05	0.5	
-0.14418	-0.0987583	0.389626	
-0.1808	-0.171958	0.287248	
-0.224353	-0.050686	0.284463	
-0.1108	-0.078009	0.257656	
-0.201128	-0.131883	0.196277	
0.153328	0.47591	0.0923699	
0.164017	0.352353	0.113218	
0.168734	0.470668	0.201781	
0.0676938	0.392306	0.0963758	
0.366259	0.00318862	0.135411	
0.370442	-0.0792839	0.247792	
0.287303	-0.106912	0.163595	
0.391185	-0.0962828	0.148015	
0.414183	0.131147	0	
0.337634	0.115561	0	
0.414991	0.0495125	0	
0.370295	0.150924	0.0941864	
0.181535	0.0644307	0.301014	
0.199062	0.200989	0.281957	
0.272001	0.0982822	0.26656	
0.187564	0.123247	0.222007	
0.05	-0.133333	0.5	
0.110158	-0.209083	0.5	
0.05	-0.216667	0.5	
0.0950848	-0.154753	0.38384	
0.35	0	0.5	
0.31384	0.0131388	0.5	
0.335355	0.0353553	0.5	
0.330353	-0.0125725	0.446558	
0.374084	0.0305468	0.5	
0.335355	0.0353553	0.5	
0.334139	0.0722049	0.5	
0.399339	0.0585413	0.429959	
0	0.5	0.3	
-0.082983	0.493066	0.348347	
-0.0853821	0.492656	0.251348	
0.012676	0.397096	0.315269	
-0.469621	0.171627	0.160116	
-0.460762	0.19416	0.234059	
-0.490316	0.0979281	0.24092	
-0.345491	0.130711	0.235494	
-0.28972	-0.19595	0.5	
-0.332433	-0.136577	0.5	
-0.268365	-0.14329	0.5	
-0.346733	-0.171878	0.409849	
-0.133333	0.05	0.5	
-0.108424	0.10302	0.5	
-0.0843611	0.070836	0.404426	
-0.16628	0.0337112	0.418012	
-0.271387	0.271262	0.399079	
-0.351832	0.232849	0.406107	
-0.307691	0.175889	0.353161	
-0.24957	0.148488	0.428331	
-0.434698	-0.247057	0.249501	
-0.348281	-0.114759	0.26937	
-0.470668	-0.168734	0.298219	
-0.332305	-0.222015	0.288549	
0.317163	-0.386533	0.299742	
0.317319	-0.386405	0.201487	
0.247023	-0.434718	0.250558	
0.248064	-0.277814	0.232664	
0.139117	-0.156778	0.5	
0.172223	-0.208401	0.404687	
0.0950848	-0.154753	0.38384	
0.142037	-0.0864505	0.418568	
0.147585	-0.477722	0.416442	
0.0883979	-0.384548	0.385617	
0.136955	-0.411745	0.5	
0.186455	-0.365077	0.406768	
0.112799	-0.33356	0	
0.216998	-0.338361	0.102062	
0.0830692	-0.28072	0.10633	
0.0970803	-0.385859	0.0985367	
-0.261345	-0.230036	0	
-0.235178	-0.304806	0.115901	
-0.168688	-0.281701	0	
-0.190069	-0.194114	0.116906	
-0.36554	0.108479	0.408539	
-0.393116	0.0762957	0.312097	
-0.334766	0.0144004	0.413573	
-0.413166	0.00148403	0.364386	
-0.328716	-0.376757	0.253532	
-0.331632	-0.374193	0.165357	
-0.386498	-0.317206	0.200322	
-0.252329	-0.26938	0.229497	
0.278137	0.247763	0.376191	
0.19157	0.189079	0.398239	
0.275537	0.116472	0.367425	
0.302513	0.160103	0.430769	
0.476132	-0.152637	0.402329	
0.403225	-0.114629	0.5	
0.495102	-0.0698146	0.4276	
0.408281	-0.0263474	0.41881	
0.370442	-0.0792839	0.247792	
0.391185	-0.0962828	0.148015	
0.366259	0.00318862	0.135411	
0.405658	0.0360531	0.226292	
0.240455	-0.234106	0.5	
0.175555	-0.22133	0.5	
0.210048	-0.166493	0.5	
0.172223	-0.208401	0.404687	
0.05	-0.05	0.5	
5.20231e-18	-0.0913051	0.5	
2.83347e-18	-1.91537e-18	0.5	
0.0505995	-0.0799908	0.413216	
0.234106	0.240455	0.5	
0.254144	0.321855	0.5	
0.319213	0.265223	0.5	
0.278137	0.247763	0.376191	
-0.0144004	0.334766	0.39505	
0.0790424	0.390413	0.396102	
0.0222826	0.353795	0.441823	
0.0896207	0.295594	0.416487	
0.256554	-0.429162	0.331268	
0.228959	-0.444497	0.408094	
0.31678	-0.386847	0.395869	
0.186455	-0.365077	0.406768	
-0.373696	0.332191	0.334057	
-0.317163	0.386533	0.299742	
-0.31678	0.386847	0.395869	
-0.271387	0.271262	0.399079	
-0.436811	0.243302	0.0936268	
-0.428104	0.258315	0.196896	
-0.469621	0.171627	0.160116	
-0.341436	0.209355	0.0876866	
0.05	-0.216667	0.5	
0.05	-0.3	0.5	
0.0120439	-0.258333	0.5	
0.0242468	-0.236607	0.397464	
-0.105455	-0.255435	0.5	
-0.122747	-0.214953	0.392685	
-0.05	-0.216667	0.5	
-0.053625	-0.263276	0.422334	
-0.275537	-0.116472	0.371913	
-0.346733	-0.171878	0.409849	
-0.280119	-0.240952	0.383653	
-0.204987	-0.16964	0.406672	
-0.0346597	0.0490732	0.303617	
0.092986	0.0135469	0.266479	
0.00434744	-0.0456526	0.250312	
0.0179503	0.0450589	0.203027	
-0.104344	-0.174965	0.5	
-0.105455	-0.255435	0.5	
-0.166493	-0.210048	0.5	
-0.122747	-0.214953	0.392685	
0.210156	-0.0147965	0	
0.246838	-0.00334576	0.115071	
0.184962	0.0799289	0	
0.140726	0.0548949	0.0839438	
-0.0144004	-0.334766	0.39505	
0.0533627	-0.322104	0.427266	
0.0242468	-0.236607	0.397464	
-0.0144004	-0.334766	0.449619	
0.0902163	0.139414	0.221996	
0.103003	0.248456	0.2762	
0.0188132	0.185036	0.296288	
0.137145	0.147864	0.327542	
0.181535	0.0644307	0.301014	
0.187564	0.123247	0.222007	
0.0902163	0.139414	0.221996	
0.137145	0.147864	0.327542	
-0.386476	-0.317233	0.409527	
-0.317197	-0.386505	0.431175	
-0.323938	-0.380873	0.347739	
-0.280119	-0.240952	0.383653	
-0.0810399	-0.493389	0.35285	
-0.105697	-0.361806	0.410161	
-0.144862	-0.478555	0.421652	
-0.0263522	-0.412693	0.422334	
0.277785	0.415735	0	
0.261819	0.319027	0	
0.235698	0.440961	0.068569	
0.202324	0.378521	0	
0.113303	0.327662	0.5	
0.070805	0.359322	0.5	
0.114629	0.403225	0.5	
0.0790424	0.390413	0.396102	
0.153165	-0.314436	0.187787	
0.0830692	-0.28072	0.10633	
0.00794249	-0.354079	0.147071	
0.0597845	-0.282871	0.216064	
0.199062	0.200989	0.281957	
0.103003	0.248456	0.2762	
0.0902163	0.139414	0.221996	
0.137145	0.147864	0.327542	
0.268365	0.14329	0.5	
0.209083	0.110158	0.5	
0.22133	0.175555	0.5	
0.232356	0.0814649	0.425205	
-0.258333	-0.0120439	0.5	
-0.216667	0.05	0.5	
-0.17494	-0.00200732	0.5	
-0.238936	-0.0228922	0.39847	
0.275537	0.116472	0.367425	
0.3762	0.0879078	0.311936	
0.295217	0.00291132	0.296268	
0.272001	0.0982822	0.26656	
-0.171353	-0.469721	0.338334	
-0.0762452	-0.385017	0.309762	
-0.194667	-0.460548	0.26567	
-0.182528	-0.349181	0.246007	
0.268393	-0.334301	0	
0.314857	-0.257449	0	
0.201164	-0.273578	0	
0.262514	-0.243164	0.131417	
-0.0144004	-0.334766	0.39505	
-0.0144004	-0.334766	0.449619	
0.0242468	-0.236607	0.397464	
-0.053625	-0.263276	0.422334	
0.082983	-0.493066	0.348347	
0.0883979	-0.384548	0.385617	
0.174738	-0.468473	0.317184	
0.0788737	-0.375807	0.268102	
0.209083	0.110158	0.5	
0.19157	0.189079	0.398239	
0.22133	0.175555	0.5	
0.232356	0.0814649	0.425205	
-0.36554	0.108479	0.408539	
-0.393116	0.0762957	0.312097	
-0.307691	0.175889	0.353161	
-0.30053	0.0904691	0.315276	
-0.31678	0.386847	0.395869	
-0.265223	0.319213	0.5	
-0.271387	0.271262	0.399079	
-0.214786	0.345979	0.366075	
-0.102488	0.367447	0.313744	
-0.129243	0.372125	0.409369	
-0.0144004	0.334766	0.39505	
-0.0376575	0.408608	0.42489	
-0.190069	-0.194114	0.116906	
-0.26618	-0.0688348	0.104833	
-0.293731	-0.159381	0.165241	
-0.201128	-0.131883	0.196277	
-0.315029	-0.388274	0.0791933	
-0.203173	-0.373024	0	
-0.263582	-0.319413	0	
-0.235178	-0.304806	0.115901	
0.0902163	0.139414	0.221996	
0.0188132	0.185036	0.296288	
0.0627858	0.0916667	0.334361	
0.137145	0.147864	0.327542	
0	-0.5	0.3	
0	-0.5	0.2	
-0.0977967	-0.490343	0.258774	
-0.0790397	-0.393483	0.200637	
0.376393	-0.0217786	0.5	
0.374084	0.0305468	0.5	
0.408281	-0.0263474	0.41881	
0.330353	-0.0125725	0.446558	
-0.05	-0.3	0.5	
-0.070805	-0.359322	0.5	
-0.113303	-0.327662	0.5	
-0.105697	-0.361806	0.410161	
0.275537	0.116472	0.367425	
0.372125	0.129243	0.405713	
0.3762	0.0879078	0.311936	
0.359753	0.20612	0.3581	
-0.166493	-0.210048	0.5	
-0.234106	-0.240455	0.5	
-0.22133	-0.175555	0.5	
-0.204987	-0.16964	0.406672	
0.158056	0.171884	0	
0.175408	0.155763	0.126683	
0.247868	0.146306	0	
0.269795	0.177145	0.0946573	
-0.238488	-0.439458	0.0756919	
-0.315029	-0.388274	0.0791933	
-0.277785	-0.415735	0.134138	
-0.235178	-0.304806	0.115901	
0	0.35	0.5	
-0.0353553	0.335355	0.5	
0.0222826	0.353795	0.441823	
-0.00291132	0.295217	0.441595	
0.0660646	-0.0345177	0.124489	
0.0540853	0.0877179	0.116287	
0.154201	0.040391	0.180059	
0.140726	0.0548949	0.0839438	
0.490316	-0.0979281	0.24092	
0.396971	-0.0114452	0.318812	
0.5	0	0.3	
0.405658	0.0360531	0.226292	
-0.0353553	-0.335355	0.5	
-0.0217786	-0.376393	0.5	
-0.070805	-0.359322	0.5	
-0.0144004	-0.334766	0.449619	
0.321855	-0.254144	0.5	
0.240952	-0.280119	0.382753	
0.240455	-0.234106	0.5	
0.330561	-0.223946	0.39789	
0.070805	0.359322	0.5	
0.0222826	0.353795	0.441823	
0.0790424	0.390413	0.396102	
0.0896207	0.295594	0.416487	
-0.0188474	-0.0311526	0.378242	
0.0505995	-0.0799908	0.413216	
5.20231e-18	-0.0913051	0.5	
-0.0627858	-0.0916667	0.423956	
-0.0232782	-0.127584	0	
-0.048473	-0.0328568	0	
-0.117671	-0.10197	0	
-0.112893	-0.0740846	0.102366	
-0.0295403	0.225144	0	
0.0401436	0.291204	0	
-0.0258974	0.236971	0.122489	
0.0541187	0.184721	0.0970632	
0.133333	-0.05	0.5	
0.05	-0.05	0.5	
0.0916667	9.90691e-18	0.5	
0.0505995	-0.0799908	0.413216	
0.154201	0.040391	0.180059	
0.246838	-0.00334576	0.115071	
0.230609	-0.0211924	0.217185	
0.163971	-0.0679077	0.102014	
-0.00425413	0.131001	0	
-0.0593477	0.116045	0.0905459	
0.0540853	0.0877179	0.116287	
0.0541187	0.184721	0.0970632	
-0.13253	-0.300587	0.178341	
-0.0790397	-0.393483	0.200637	
-0.182528	-0.349181	0.246007	
-0.157858	-0.37335	0.109158	
0.368925	0.202831	0.5	
0.28972	0.19595	0.5	
0.319213	0.265223	0.5	
0.302513	0.160103	0.430769	
0.181535	0.0644307	0.301014	
0.144848	0.0930502	0.402842	
0.22142	0.00817938	0.394574	
0.232356	0.0814649	0.425205	
0.174738	-0.468473	0.317184	
0.247023	-0.434718	0.250558	
0.16873	-0.47067	0.201799	
0.187872	-0.340275	0.296975	
0.154201	0.040391	0.180059	
0.163971	-0.0679077	0.102014	
0.0660646	-0.0345177	0.124489	
0.140726	0.0548949	0.0839438	
-0.235698	0.440961	0.0686036	
-0.273315	0.334955	0	
-0.201912	0.369986	0	
-0.217377	0.323067	0.106345	
-0.182857	-0.0350536	0.172086	
-0.1108	-0.078009	0.257656	
-0.224353	-0.050686	0.284463	
-0.201128	-0.131883	0.196277	
-0.194667	-0.460548	0.26567	
-0.0762452	-0.385017	0.309762	
-0.0977967	-0.490343	0.258774	
-0.0790397	-0.393483	0.200637	
-0.216667	0.05	0.5	
-0.17494	-0.00200732	0.5	
-0.238936	-0.0228922	0.39847	
-0.16628	0.0337112	0.418012	
0.0903521	0.10545	0	
0.0209546	0.0362755	0	
0.115537	0.0107471	0	
0.140726	0.0548949	0.0839438	
0.0690566	-0.495208	0.430964	
0.0584891	-0.437042	0.5	
0.147585	-0.477722	0.416442	
0.0883979	-0.384548	0.385617	
-0.437078	-0.242822	0.347009	
-0.470668	-0.168734	0.298219	
-0.47591	-0.153328	0.40763	
-0.346733	-0.171878	0.409849	
0.14072	-0.0839746	0	
0.164797	-0.177585	0	
0.232997	-0.11062	0	
0.163971	-0.0679077	0.102014	
0.210156	-0.0147965	0	
0.232997	-0.11062	0	
0.314271	-0.0501881	0	
0.246838	-0.00334576	0.115071	
0.439458	0.238488	0.424308	
0.411745	0.136955	0.5	
0.368925	0.202831	0.5	
0.372125	0.129243	0.405713	
-0.147585	0.477722	0.416442	
-0.129243	0.372125	0.409369	
-0.082983	0.493066	0.348347	
-0.0376575	0.408608	0.42489	
0.228959	-0.444497	0.408094	
0.174738	-0.468473	0.317184	
0.147585	-0.477722	0.416442	
0.186455	-0.365077	0.406768	
0.470916	0.168043	0.300126	
0.4284	0.257824	0.295024	
0.460548	0.194667	0.23433	
0.322691	0.187554	0.276787	
-0.214953	0.122747	0.250047	
-0.345491	0.130711	0.235494	
-0.273431	0.0345527	0.245119	
-0.30053	0.0904691	0.315276	
0.258333	-0.0120439	0.5	
0.216667	0.05	0.5	
0.279144	0.0168063	0.5	
0.22142	0.00817938	0.394574	
0.0883979	-0.384548	0.385617	
0.0533627	-0.322104	0.427266	
-0.0144004	-0.334766	0.39505	
-0.0263522	-0.412693	0.422334	
-0.17825	0.257762	0.338534	
-0.102488	0.367447	0.313744	
-0.192258	0.331995	0.253348	
-0.214786	0.345979	0.366075	
-0.436811	0.243302	0.0936268	
-0.478516	0.14499	0.0762896	
-0.389036	0.207425	0	
-0.341436	0.209355	0.0876866	
0.0353553	-0.335355	0.5	
0.0722049	-0.334139	0.5	
0.0305468	-0.374084	0.5	
0.0533627	-0.322104	0.427266	
0.377032	-0.3284	0.243217	
0.38078	-0.324048	0.150149	
0.317319	-0.386405	0.201487	
0.248064	-0.277814	0.232664	
-0.00291132	0.295217	0.296268	
-0.102488	0.367447	0.313744	
-0.0144004	0.334766	0.39505	
0.012676	0.397096	0.315269	
-0.0310626	0.135135	0.191478	
0.0540853	0.0877179	0.116287	
0.0902163	0.139414	0.221996	
0.0179503	0.0450589	0.203027	
0.373696	-0.332191	0.334057	
0.317163	-0.386533	0.299742	
0.31678	-0.386847	0.395869	
0.240952	-0.280119	0.382753	
0.245477	-0.191651	0	
0.262514	-0.243164	0.131417	
0.314857	-0.257449	0	
0.345961	-0.17739	0.102725	
0.31678	-0.386847	0.395869	
0.388345	-0.314941	0.420199	
0.373696	-0.332191	0.334057	
0.240952	-0.280119	0.382753	
0.334766	0.0144004	0.39505	
0.408281	-0.0263474	0.41881	
0.327533	-0.0664701	0.421022	
0.396971	-0.0114452	0.318812	
-0.495208	0.0690617	0.0692099	
-0.372288	0.117054	0.109759	
-0.493378	0.0811073	0.146993	
-0.402083	0.00682085	0.0882368	
-0.171353	-0.469721	0.338334	
-0.243391	-0.436762	0.403062	
-0.144862	-0.478555	0.421652	
-0.105697	-0.361806	0.410161	
0.275537	0.116472	0.367425	
0.278137	0.247763	0.376191	
0.302513	0.160103	0.430769	
0.359753	0.20612	0.3581	
-0.386792	-0.316847	0.301384	
-0.437078	-0.242822	0.347009	
-0.386476	-0.317233	0.409527	
-0.332305	-0.222015	0.288549	
-0.490316	0.0979281	0.24092	
-0.345491	0.130711	0.235494	
-0.471122	0.167464	0.300106	
-0.393116	0.0762957	0.312097	
-0.327738	-0.00493982	0.327054	
-0.348281	-0.114759	0.26937	
-0.400982	-0.0203096	0.245361	
-0.289823	-0.0590788	0.205332	
-0.16685	0.0883447	0	
-0.153254	0.0418185	0.0989321	
-0.0734441	0.0616893	0	
-0.0593477	0.116045	0.0905459	
-0.315029	-0.388274	0.0791933	
-0.386831	-0.3168	0.104097	
-0.235178	-0.304806	0.115901	
-0.307464	-0.233367	0.0932852	
-0.386792	-0.316847	0.301384	
-0.386476	-0.317233	0.409527	
-0.323938	-0.380873	0.347739	
-0.280119	-0.240952	0.383653	
0.317206	0.386498	0.299678	
0.316847	0.386792	0.198616	
0.376757	0.328716	0.246468	
0.223388	0.316601	0.257498	
-0.0833019	-0.493012	0.155211	
0	-0.5	0.2	
0	-0.5	0.1	
-0.0517812	-0.402083	0.08893	
-0.203173	-0.373024	0	
-0.235178	-0.304806	0.115901	
-0.238488	-0.439458	0.0756919	
-0.157858	-0.37335	0.109158	
-0.240455	0.234106	0.5	
-0.285692	0.172599	0.5	
-0.321855	0.254144	0.5	
-0.271387	0.271262	0.399079	
-0.386831	-0.3168	0.104097	
-0.331361	-0.272953	0	
-0.415735	-0.277785	0	
-0.307464	-0.233367	0.0932852	
-0.28972	-0.19595	0.5	
-0.280119	-0.240952	0.383653	
-0.319213	-0.265223	0.5	
-0.346733	-0.171878	0.409849	
0.4284	0.257824	0.295024	
0.415735	0.277785	0.365862	
0.374193	0.331632	0.334643	
0.359753	0.20612	0.3581	
-0.238488	-0.439458	0.0756919	
-0.235178	-0.304806	0.115901	
-0.277785	-0.415735	0.134138	
-0.157858	-0.37335	0.109158	
-0.285692	0.172599	0.5	
-0.321855	0.254144	0.5	
-0.271387	0.271262	0.399079	
-0.351832	0.232849	0.406107	
-0.136955	0.411745	0.5	
-0.129243	0.372125	0.409369	
-0.147585	0.477722	0.416442	
-0.0376575	0.408608	0.42489	
-0.05	0.216667	0.5	
0.00200732	0.174835	0.5	
-0.05	0.133333	0.5	
-0.0162135	0.209048	0.397765	
-0.368447	0.183279	0.5	
-0.403225	0.114629	0.5	
-0.476132	0.152637	0.402329	
-0.36554	0.108479	0.408539	
0.242822	0.437078	0.152991	
0.316847	0.386792	0.198616	
0.247057	0.434698	0.250499	
0.223388	0.316601	0.257498	
-0.224353	-0.050686	0.284463	
-0.273431	0.0345527	0.245119	
-0.182857	-0.0350536	0.172086	
-0.289823	-0.0590788	0.205332	
0.00794249	-0.354079	0.147071	
0.0830692	-0.28072	0.10633	
0.153165	-0.314436	0.187787	
0.0970803	-0.385859	0.0985367	
0.439458	0.238488	0.424308	
0.388274	0.315029	0.420807	
0.415735	0.277785	0.365862	
0.359753	0.20612	0.3581	
0.385896	-0.317937	0.065638	
0.38078	-0.324048	0.150149	
0.436811	-0.243302	0.0936268	
0.345961	-0.17739	0.102725	
-0.261345	-0.230036	0	
-0.186407	-0.169451	0	
-0.278713	-0.14304	0	
-0.190069	-0.194114	0.116906	
0.470916	0.168043	0.300126	
0.476114	0.152694	0.40246	
0.450285	0.217356	0.355302	
0.372125	0.129243	0.405713	
-0.307691	0.175889	0.353161	
-0.233822	0.0792854	0.380146	
-0.222074	0.179419	0.32139	
-0.24957	0.148488	0.428331	
-0.327738	-0.00493982	0.327054	
-0.273431	0.0345527	0.245119	
-0.224353	-0.050686	0.284463	
-0.289823	-0.0590788	0.205332	
0.460762	-0.19416	0.234059	
0.370442	-0.0792839	0.247792	
0.490316	-0.0979281	0.24092	
0.391185	-0.0962828	0.148015	
0.0584891	-0.437042	0.5	
0.0690566	-0.495208	0.430964	
0.00233139	-0.422954	0.5	
-0.0263522	-0.412693	0.422334	
-0.492649	-0.0854243	0.248597	
-0.470668	-0.168734	0.298219	
-0.468495	-0.174678	0.182891	
-0.348281	-0.114759	0.26937	
0.0895096	0.211893	0.376173	
0.0627858	0.0916667	0.334361	
0.0188132	0.185036	0.296288	
0.137145	0.147864	0.327542	
-0.19595	0.28972	0.5	
-0.136577	0.332433	0.5	
-0.14329	0.268365	0.5	
-0.178187	0.257719	0.423389	
-0.265223	0.319213	0.5	
-0.321855	0.254144	0.5	
-0.388345	0.314941	0.420199	
-0.271387	0.271262	0.399079	
0.19157	0.189079	0.398239	
0.144848	0.0930502	0.402842	
0.0895096	0.211893	0.376173	
0.137145	0.147864	0.327542	
0.158056	0.171884	0	
0.247868	0.146306	0	
0.231243	0.24169	0	
0.269795	0.177145	0.0946573	
-0.307691	0.175889	0.353161	
-0.222074	0.179419	0.32139	
-0.233822	0.0792854	0.380146	
-0.30053	0.0904691	0.315276	
0.175	-0.00200732	0.5	
0.216667	-0.05	0.5	
0.133333	-0.05	0.5	
0.142037	-0.0864505	0.418568	
0	-0.5	0.1	
0.0807376	-0.493438	0.154216	
0.0704474	-0.495012	0.0718449	
0.0970803	-0.385859	0.0985367	
0.493012	0.0833019	0.344789	
0.372125	0.129243	0.405713	
0.3762	0.0879078	0.311936	
0.399339	0.0585413	0.429959	
0.334354	-0.126769	0.353658	
0.251264	-0.0990305	0.284445	
0.321316	-0.199848	0.247358	
0.267469	-0.189723	0.33864	
-0.105697	-0.361806	0.410161	
-0.0144004	-0.334766	0.449619	
-0.070805	-0.359322	0.5	
-0.0263522	-0.412693	0.422334	
0	0.5	0.4	
0.0790424	0.390413	0.396102	
0.0728232	0.494668	0.426459	
-0.0376575	0.408608	0.42489	
-0.136577	0.332433	0.5	
-0.0892306	0.377437	0.5	
-0.0722049	0.334139	0.5	
-0.129243	0.372125	0.409369	
0	-0.5	0.1	
0.0404524	-0.41072	0	
-0.0422582	-0.437473	0	
-0.0517812	-0.402083	0.08893	
-0.327738	-0.00493982	0.327054	
-0.238936	-0.0228922	0.39847	
-0.334766	0.0144004	0.413573	
-0.322104	-0.0533627	0.432186	
0.108424	-0.10302	0.5	
0.142037	-0.0864505	0.418568	
0.0950848	-0.154753	0.38384	
0.0505995	-0.0799908	0.413216	
-0.0249018	-0.155268	0.351606	
0.0505995	-0.0799908	0.413216	
-0.0188474	-0.0311526	0.378242	
-0.0627858	-0.0916667	0.423956	
-0.127619	0.285659	0.171874	
-0.00366878	0.359505	0.167012	
-0.100366	0.376948	0.109973	
-0.11066	0.378543	0.212059	
-0.265223	0.319213	0.5	
-0.388345	0.314941	0.420199	
-0.31678	0.386847	0.395869	
-0.271387	0.271262	0.399079	
-0.182857	-0.0350536	0.172086	
-0.153254	0.0418185	0.0989321	
-0.0544044	0.00856195	0.134425	
-0.112893	-0.0740846	0.102366	
-0.05	0.133333	0.5	
-0.0162135	0.209048	0.397765	
0.00200732	0.174835	0.5	
0.00204538	0.114384	0.406195	
0.478516	-0.14499	0.0762896	
0.394936	-0.119803	0	
0.345961	-0.17739	0.102725	
0.391185	-0.0962828	0.148015	
-0.00425413	0.131001	0	
0.0540853	0.0877179	0.116287	
0.0903521	0.10545	0	
0.0541187	0.184721	0.0970632	
-0.0810399	-0.493389	0.35285	
-0.144862	-0.478555	0.421652	
-0.0684459	-0.495293	0.431403	
-0.0263522	-0.412693	0.422334	
-0.174738	0.468473	0.317184	
-0.102488	0.367447	0.313744	
-0.129243	0.372125	0.409369	
-0.214786	0.345979	0.366075	
0.346509	0.0237889	0	
0.276476	0.0535537	0	
0.314271	-0.0501881	0	
0.246838	-0.00334576	0.115071	
0.0790424	0.390413	0.396102	
0.012676	0.397096	0.315269	
-0.0144004	0.334766	0.39505	
-0.0376575	0.408608	0.42489	
0.05	-0.133333	0.5	
0.108424	-0.10302	0.5	
0.139117	-0.156778	0.5	
0.0950848	-0.154753	0.38384	
0.279144	0.0168063	0.5	
0.31384	0.0131388	0.5	
0.307123	-0.0146863	0.5	
0.330353	-0.0125725	0.446558	
0.0950848	-0.154753	0.38384	
0.143938	-0.0508772	0.336308	
0.0684949	-0.106805	0.298921	
0.0505995	-0.0799908	0.413216	
0	0.5	0.4	
0.0814864	0.493315	0.347681	
0.0790424	0.390413	0.396102	
0.012676	0.397096	0.315269	
0.166493	0.210048	0.5	
0.234106	0.240455	0.5	
0.22133	0.175555	0.5	
0.19157	0.189079	0.398239	
0.0950848	-0.154753	0.38384	
0.142037	-0.0864505	0.418568	
0.143938	-0.0508772	0.336308	
0.0505995	-0.0799908	0.413216	
-0.168043	-0.470916	0.199874	
-0.182528	-0.349181	0.246007	
-0.194667	-0.460548	0.26567	
-0.0790397	-0.393483	0.200637	
0.334766	0.0144004	0.39505	
0.372125	0.129243	0.405713	
0.3762	0.0879078	0.311936	
0.312528	0.0818724	0.426151	
-0.317319	0.386405	0.201487	
-0.2429	0.437035	0.152631	
-0.247023	0.434718	0.250558	
-0.192258	0.331995	0.253348	
-0.298593	-0.101011	0.5	
-0.3	-0.05	0.5	
-0.257817	-0.0951035	0.5	
-0.322104	-0.0533627	0.432186	
-0.171353	-0.469721	0.338334	
-0.144862	-0.478555	0.421652	
-0.0810399	-0.493389	0.35285	
-0.105697	-0.361806	0.410161	
-0.471122	0.167464	0.300106	
-0.490316	0.0979281	0.24092	
-0.460762	0.19416	0.234059	
-0.345491	0.130711	0.235494	
0.0550581	0.422892	0.5	
0.0217786	0.376393	0.5	
-0.00233139	0.422954	0.5	
0.0222826	0.353795	0.441823	
0.490316	-0.0979281	0.24092	
0.471122	-0.167464	0.300106	
0.493012	-0.0833019	0.344789	
0.370442	-0.0792839	0.247792	
0.3168	0.386831	0.395903	
0.319213	0.265223	0.5	
0.353553	0.353553	0.5	
0.254144	0.321855	0.5	
0.209083	0.110158	0.5	
0.144848	0.0930502	0.402842	
0.19157	0.189079	0.398239	
0.232356	0.0814649	0.425205	
0.3168	0.386831	0.395903	
0.353553	0.353553	0.5	
0.319213	0.265223	0.5	
0.388274	0.315029	0.420807	
-0.210048	0.166493	0.5	
-0.173778	0.167507	0.398056	
-0.174965	0.104344	0.5	
-0.24957	0.148488	0.428331	
-0.265311	0.22544	0.150174	
-0.163724	0.239688	0.0901709	
-0.153413	0.147726	0.129273	
-0.23094	0.170935	0.0823842	
0.275537	0.116472	0.367425	
0.302513	0.160103	0.430769	
0.19157	0.189079	0.398239	
0.232356	0.0814649	0.425205	
0.108424	-0.10302	0.5	
0.139117	-0.156778	0.5	
0.0950848	-0.154753	0.38384	
0.142037	-0.0864505	0.418568	
-0.403225	0.114629	0.5	
-0.422892	0.0550581	0.5	
-0.495102	0.0698146	0.4276	
-0.36554	0.108479	0.408539	
0.0353553	-0.335355	0.5	
0.0146863	-0.307123	0.5	
0.0533627	-0.322104	0.427266	
-0.0144004	-0.334766	0.449619	
0.436811	-0.243302	0.0936268	
0.38078	-0.324048	0.150149	
0.428104	-0.258315	0.196896	
0.345961	-0.17739	0.102725	
0.279144	0.0168063	0.5	
0.22142	0.00817938	0.394574	
0.216667	0.05	0.5	
0.232356	0.0814649	0.425205	
0.136577	-0.332433	0.5	
0.14329	-0.268365	0.5	
0.19595	-0.28972	0.5	
0.116472	-0.275537	0.434883	
0.265223	-0.319213	0.5	
0.19595	-0.28972	0.5	
0.240952	-0.280119	0.382753	
0.186455	-0.365077	0.406768	
-0.174738	0.468473	0.317184	
-0.102488	0.367447	0.313744	
-0.082983	0.493066	0.348347	
-0.129243	0.372125	0.409369	
-0.133323	0.00734514	0.338693	
-0.158971	0.0982818	0.323671	
-0.233822	0.0792854	0.380146	
-0.16628	0.0337112	0.418012	
-0.263013	0.108209	0.143902	
-0.341436	0.209355	0.0876866	
-0.265311	0.22544	0.150174	
-0.23094	0.170935	0.0823842	
-0.273431	0.0345527	0.245119	
-0.400982	-0.0203096	0.245361	
-0.339187	0.0209536	0.163183	
-0.289823	-0.0590788	0.205332	
0.228959	-0.444497	0.408094	
0.136955	-0.411745	0.5	
0.202831	-0.368925	0.5	
0.186455	-0.365077	0.406768	
0.0883979	-0.384548	0.385617	
0.0788737	-0.375807	0.268102	
0.082983	-0.493066	0.348347	
0.0108992	-0.403509	0.337337	
-0.228959	0.444497	0.408094	
-0.129243	0.372125	0.409369	
-0.202831	0.368925	0.5	
-0.214786	0.345979	0.366075	
-0.16873	0.47067	0.201799	
-0.174738	0.468473	0.317184	
-0.247023	0.434718	0.250558	
-0.11066	0.378543	0.212059	
-0.263013	0.108209	0.143902	
-0.153254	0.0418185	0.0989321	
-0.153413	0.147726	0.129273	
-0.199362	0.0555217	0.187248	
0.156778	0.139117	0.5	
0.19157	0.189079	0.398239	
0.209083	0.110158	0.5	
0.144848	0.0930502	0.402842	
0.428195	0.258165	0.201755	
0.460548	0.194667	0.23433	
0.4284	0.257824	0.295024	
0.322691	0.187554	0.276787	
0.05	0.133333	0.5	
0.05	0.05	0.5	
-4.34906e-18	0.0906746	0.5	
0.00204538	0.114384	0.406195	
0.0651412	0.200096	0	
0.0903521	0.10545	0	
0.158056	0.171884	0	
0.0541187	0.184721	0.0970632	
-0.31678	0.386847	0.395869	
-0.277785	0.415735	0.5	
-0.265223	0.319213	0.5	
-0.202831	0.368925	0.5	
0.265223	-0.319213	0.5	
0.277785	-0.415735	0.5	
0.202831	-0.368925	0.5	
0.31678	-0.386847	0.395869	
-0.105697	-0.361806	0.410161	
-0.0144004	-0.334766	0.449619	
-0.0144004	-0.334766	0.39505	
-0.053625	-0.263276	0.422334	
-0.247023	0.434718	0.250558	
-0.174738	0.468473	0.317184	
-0.256554	0.429162	0.331268	
-0.192258	0.331995	0.253348	
0.265223	-0.319213	0.5	
0.240455	-0.234106	0.5	
0.321855	-0.254144	0.5	
0.240952	-0.280119	0.382753	
0.0903521	0.10545	0	
-0.00425413	0.131001	0	
0.0209546	0.0362755	0	
0.0540853	0.0877179	0.116287	
0.16873	-0.47067	0.201799	
0.2429	-0.437035	0.152631	
0.153329	-0.47591	0.0923815	
0.0970803	-0.385859	0.0985367	
-0.183279	-0.368447	0.5	
-0.114629	-0.403225	0.5	
-0.144862	-0.478555	0.421652	
-0.105697	-0.361806	0.410161	
-0.104344	-0.174965	0.5	
-0.10302	-0.108424	0.5	
-0.05	-0.133333	0.5	
-0.0627858	-0.0916667	0.423956	
0.246838	-0.00334576	0.115071	
0.163971	-0.0679077	0.102014	
0.154201	0.040391	0.180059	
0.140726	0.0548949	0.0839438	
0.334766	0.0144004	0.39505	
0.396971	-0.0114452	0.318812	
0.3762	0.0879078	0.311936	
0.399339	0.0585413	0.429959	
-0.319213	-0.265223	0.5	
-0.234106	-0.240455	0.5	
-0.254144	-0.321855	0.5	
-0.280119	-0.240952	0.383653	
0.0950848	-0.154753	0.38384	
0.172223	-0.208401	0.404687	
0.220158	-0.126618	0.388055	
0.142037	-0.0864505	0.418568	
-0.328307	0.16356	0	
-0.337562	0.0547633	0	
-0.257956	0.116321	0	
-0.372288	0.117054	0.109759	
-0.377032	0.3284	0.243217	
-0.317319	0.386405	0.201487	
-0.317163	0.386533	0.299742	
-0.278552	0.259099	0.267592	
0.05	0.216667	0.5	
0.0120439	0.258333	0.5	
0.05	0.3	0.5	
0.0896207	0.295594	0.416487	
-0.0704474	0.495012	0.0718449	
-0.118932	0.39861	0	
-0.0372406	0.417791	0	
-0.100366	0.376948	0.109973	
-0.0249018	-0.155268	0.351606	
0.0684949	-0.106805	0.298921	
0.0700441	-0.20677	0.284029	
-0.00254485	-0.146451	0.237696	
0.0353553	-0.335355	0.5	
0	-0.35	0.5	
0.0146863	-0.307123	0.5	
-0.0144004	-0.334766	0.449619	
-0.411745	-0.136955	0.5	
-0.47591	-0.153328	0.40763	
-0.384449	-0.0847771	0.386001	
-0.346733	-0.171878	0.409849	
0.174678	0.468495	0.317109	
0.0854243	0.492649	0.251403	
0.168734	0.470668	0.201781	
0.100485	0.350272	0.242427	
0.108424	-0.10302	0.5	
0.0950848	-0.154753	0.38384	
0.05	-0.133333	0.5	
0.0505995	-0.0799908	0.413216	
-0.191342	0.46194	0	
-0.201912	0.369986	0	
-0.118932	0.39861	0	
-0.235698	0.440961	0.0686036	
0.0593425	-0.191106	0.170296	
-0.0311508	-0.245667	0.113138	
0.0597845	-0.282871	0.216064	
-0.0480147	-0.273566	0.222301	
-0.0311508	-0.245667	0.113138	
0.0830692	-0.28072	0.10633	
0.0593425	-0.191106	0.170296	
0.0597845	-0.282871	0.216064	
0.0690566	-0.495208	0.430964	
0.0883979	-0.384548	0.385617	
0.082983	-0.493066	0.348347	
0.0108992	-0.403509	0.337337	
0.490316	-0.0979281	0.24092	
0.370442	-0.0792839	0.247792	
0.493012	-0.0833019	0.344789	
0.396971	-0.0114452	0.318812	
0.209083	0.110158	0.5	
0.156778	0.139117	0.5	
0.22133	0.175555	0.5	
0.19157	0.189079	0.398239	
0.5	0	0.2	
0.490316	-0.0979281	0.24092	
0.5	0	0.3	
0.405658	0.0360531	0.226292	
0.493012	0.0833019	0.344789	
0.5	0	0.3	
0.3762	0.0879078	0.311936	
0.405658	0.0360531	0.226292	
0.00794249	-0.354079	0.147071	
0.0597845	-0.282871	0.216064	
-0.0311508	-0.245667	0.113138	
-0.0480147	-0.273566	0.222301	
0.478516	-0.14499	0.0762896	
0.394936	-0.119803	0	
0.380207	-0.19708	0	
0.345961	-0.17739	0.102725	
0.228959	-0.444497	0.408094	
0.147585	-0.477722	0.416442	
0.136955	-0.411745	0.5	
0.186455	-0.365077	0.406768	
-0.5	0	0.3	
-0.493437	-0.0807477	0.345776	
-0.400982	-0.0203096	0.245361	
-0.413166	0.00148403	0.364386	
-0.0734441	0.0616893	0	
0.0209546	0.0362755	0	
-0.00425413	0.131001	0	
-0.0593477	0.116045	0.0905459	
0.181535	0.0644307	0.301014	
0.199062	0.200989	0.281957	
0.187564	0.123247	0.222007	
0.137145	0.147864	0.327542	
0.470916	0.168043	0.300126	
0.3762	0.0879078	0.311936	
0.476114	0.152694	0.40246	
0.372125	0.129243	0.405713	
0.5	0	0.3	
0.396971	-0.0114452	0.318812	
0.3762	0.0879078	0.311936	
0.405658	0.0360531	0.226292	
-0.168688	-0.281701	0	
-0.114467	-0.386332	0	
-0.0638367	-0.295761	0	
-0.157858	-0.37335	0.109158	
0.184962	0.0799289	0	
0.210156	-0.0147965	0	
0.276476	0.0535537	0	
0.246838	-0.00334576	0.115071	
-0.209083	-0.110158	0.5	
-0.22133	-0.175555	0.5	
-0.268365	-0.14329	0.5	
-0.204987	-0.16964	0.406672	
0.0903521	0.10545	0	
0.184962	0.0799289	0	
0.158056	0.171884	0	
0.140726	0.0548949	0.0839438	
-0.247023	0.434718	0.250558	
-0.317163	0.386533	0.299742	
-0.317319	0.386405	0.201487	
-0.192258	0.331995	0.253348	
0.05	-0.3	0.5	
0.0120439	-0.258333	0.5	
0.0242468	-0.236607	0.397464	
0.0533627	-0.322104	0.427266	
0.00794249	-0.354079	0.147071	
0.0830692	-0.28072	0.10633	
-0.0311508	-0.245667	0.113138	
0.0597845	-0.282871	0.216064	
0.0188132	0.185036	0.296288	
0.103003	0.248456	0.2762	
0.0895096	0.211893	0.376173	
0.137145	0.147864	0.327542	
0.0916667	9.90691e-18	0.5	
0.05	-0.05	0.5	
2.83347e-18	-1.91537e-18	0.5	
0.0781847	0.00688243	0.395457	
-0.05	-0.3	0.5	
-0.105697	-0.361806	0.410161	
-0.113303	-0.327662	0.5	
-0.053625	-0.263276	0.422334	
0	0.5	0.3	
0	0.5	0.4	
-0.082983	0.493066	0.348347	
0.012676	0.397096	0.315269	
-0.144862	-0.478555	0.421652	
-0.105697	-0.361806	0.410161	
-0.114629	-0.403225	0.5	
-0.0263522	-0.412693	0.422334	
-0.240455	0.234106	0.5	
-0.271387	0.271262	0.399079	
-0.19595	0.28972	0.5	
-0.178187	0.257719	0.423389	
0.5	0	0.4	
0.408281	-0.0263474	0.41881	
0.422954	0.00233139	0.5	
0.399339	0.0585413	0.429959	
-0.202831	0.368925	0.5	
-0.228959	0.444497	0.408094	
-0.136955	0.411745	0.5	
-0.129243	0.372125	0.409369	
-0.327738	-0.00493982	0.327054	
-0.334766	0.0144004	0.413573	
-0.393116	0.0762957	0.312097	
-0.413166	0.00148403	0.364386	
-0.256554	0.429162	0.331268	
-0.317163	0.386533	0.299742	
-0.247023	0.434718	0.250558	
-0.192258	0.331995	0.253348	
-0.437078	-0.242822	0.347009	
-0.440961	-0.235698	0.431431	
-0.386476	-0.317233	0.409527	
-0.346733	-0.171878	0.409849	
0.257817	0.0951035	0.5	
0.268365	0.14329	0.5	
0.302513	0.160103	0.430769	
0.232356	0.0814649	0.425205	
-0.0305468	0.374084	0.5	
-0.00233139	0.422954	0.5	
0.0217786	0.376393	0.5	
0.0222826	0.353795	0.441823	
0.153328	0.47591	0.0923699	
0.202324	0.378521	0	
0.235698	0.440961	0.068569	
0.164017	0.352353	0.113218	
-0.0833019	-0.493012	0.155211	
-0.157858	-0.37335	0.109158	
-0.0790397	-0.393483	0.200637	
-0.0517812	-0.402083	0.08893	
-0.477948	-0.146853	0.0840084	
-0.41072	-0.12459	0	
-0.494668	-0.0728232	0.0735406	
-0.376845	-0.0849991	0.114782	
0.450285	0.217356	0.355302	
0.4284	0.257824	0.295024	
0.470916	0.168043	0.300126	
0.359753	0.20612	0.3581	
0.321316	-0.199848	0.247358	
0.251264	-0.0990305	0.284445	
0.195794	-0.195794	0.279578	
0.267469	-0.189723	0.33864	
-0.117671	-0.10197	0	
-0.142648	-0.00714059	0	
-0.211369	-0.0761151	0	
-0.112893	-0.0740846	0.102366	
0.195794	-0.195794	0.279578	
0.251264	-0.0990305	0.284445	
0.220158	-0.126618	0.388055	
0.267469	-0.189723	0.33864	
0.210156	-0.0147965	0	
0.163971	-0.0679077	0.102014	
0.246838	-0.00334576	0.115071	
0.140726	0.0548949	0.0839438	
0.19595	-0.28972	0.5	
0.240455	-0.234106	0.5	
0.265223	-0.319213	0.5	
0.240952	-0.280119	0.382753	
0.493012	0.0833019	0.344789	
0.3762	0.0879078	0.311936	
0.490343	0.0977967	0.241226	
0.405658	0.0360531	0.226292	
-0.147585	0.477722	0.416442	
-0.174738	0.468473	0.317184	
-0.082983	0.493066	0.348347	
-0.129243	0.372125	0.409369	
0.108424	-0.10302	0.5	
0.05	-0.05	0.5	
0.133333	-0.05	0.5	
0.0505995	-0.0799908	0.413216	
-0.495012	-0.0704482	0.428155	
-0.411745	-0.136955	0.5	
-0.47591	-0.153328	0.40763	
-0.384449	-0.0847771	0.386001	
0.0902163	0.139414	0.221996	
0.187564	0.123247	0.222007	
0.199062	0.200989	0.281957	
0.137145	0.147864	0.327542	
-0.0295403	0.225144	0	
0.0651412	0.200096	0	
0.0401436	0.291204	0	
0.0541187	0.184721	0.0970632	
-0.28972	-0.19595	0.5	
-0.234106	-0.240455	0.5	
-0.319213	-0.265223	0.5	
-0.280119	-0.240952	0.383653	
0.112799	-0.33356	0	
0.194604	-0.371188	0	
0.216998	-0.338361	0.102062	
0.0970803	-0.385859	0.0985367	
-0.444481	-0.228991	0.0919014	
-0.415735	-0.277785	0	
-0.356684	-0.19351	0	
-0.307464	-0.233367	0.0932852	
0.275537	0.116472	0.367425	
0.322691	0.187554	0.276787	
0.3762	0.0879078	0.311936	
0.272001	0.0982822	0.26656	
0.476132	-0.152637	0.402329	
0.495102	-0.0698146	0.4276	
0.493012	-0.0833019	0.344789	
0.408281	-0.0263474	0.41881	
0.258333	-0.0120439	0.5	
0.307123	-0.0146863	0.5	
0.3	-0.05	0.5	
0.330353	-0.0125725	0.446558	
0.0146863	0.307123	0.5	
0.0353553	0.335355	0.5	
0.05	0.3	0.5	
0.0222826	0.353795	0.441823	
0.110158	-0.209083	0.5	
0.0950848	-0.154753	0.38384	
0.139117	-0.156778	0.5	
0.172223	-0.208401	0.404687	
0.0916667	9.90691e-18	0.5	
2.83347e-18	-1.91537e-18	0.5	
0.05	0.05	0.5	
0.0781847	0.00688243	0.395457	
-0.376845	-0.0849991	0.114782	
-0.26618	-0.0688348	0.104833	
-0.339187	0.0209536	0.163183	
-0.289823	-0.0590788	0.205332	
-0.0770993	0.146668	0.334099	
-0.0162135	0.209048	0.397765	
0.0188132	0.185036	0.296288	
-0.0766135	0.239584	0.316589	
0.05	0.3	0.5	
0.0896207	0.295594	0.416487	
0.0120439	0.258333	0.5	
-0.00291132	0.295217	0.441595	
0.439384	-0.238625	0.423358	
0.450312	-0.217299	0.354112	
0.416747	-0.276265	0.362548	
0.330561	-0.223946	0.39789	
-0.133333	0.05	0.5	
-0.0843611	0.070836	0.404426	
-0.0913051	-8.8983e-18	0.5	
-0.16628	0.0337112	0.418012	
-0.334139	-0.0722049	0.5	
-0.374084	-0.0305468	0.5	
-0.335355	-0.0353553	0.5	
-0.322104	-0.0533627	0.432186	
0.0461078	-0.0584269	0	
-0.0232782	-0.127584	0	
0.0712814	-0.153152	0	
-0.000733888	-0.121505	0.108367	
0.116472	-0.275537	0.364096	
0.0533627	-0.322104	0.427266	
0.0883979	-0.384548	0.385617	
0.116472	-0.275537	0.434883	
0.0627858	0.0916667	0.334361	
0.144848	0.0930502	0.402842	
0.181535	0.0644307	0.301014	
0.137145	0.147864	0.327542	
-0.317131	0.386559	0.0881616	
-0.273315	0.334955	0	
-0.235698	0.440961	0.0686036	
-0.217377	0.323067	0.106345	
0.0120439	-0.258333	0.5	
0.00200732	-0.17494	0.5	
0.05	-0.216667	0.5	
0.0242468	-0.236607	0.397464	
0.0892306	-0.377437	0.5	
0.0305468	-0.374084	0.5	
0.0722049	-0.334139	0.5	
0.0533627	-0.322104	0.427266	
-0.144862	-0.478555	0.421652	
-0.114629	-0.403225	0.5	
-0.0684459	-0.495293	0.431403	
-0.0263522	-0.412693	0.422334	
0.115537	0.0107471	0	
0.163971	-0.0679077	0.102014	
0.210156	-0.0147965	0	
0.140726	0.0548949	0.0839438	
0.439458	0.238488	0.424308	
0.450285	0.217356	0.355302	
0.372125	0.129243	0.405713	
0.359753	0.20612	0.3581	
-0.315029	-0.388274	0.0791933	
-0.386831	-0.3168	0.104097	
-0.331632	-0.374193	0.165357	
-0.235178	-0.304806	0.115901	
-0.334766	0.0144004	0.413573	
-0.384449	-0.0847771	0.386001	
-0.327738	-0.00493982	0.327054	
-0.322104	-0.0533627	0.432186	
0.201164	-0.273578	0	
0.314857	-0.257449	0	
0.245477	-0.191651	0	
0.262514	-0.243164	0.131417	
0.108424	-0.10302	0.5	
0.133333	-0.05	0.5	
0.142037	-0.0864505	0.418568	
0.0505995	-0.0799908	0.413216	
0.388274	0.315029	0.420807	
0.3168	0.386831	0.395903	
0.374193	0.331632	0.334643	
0.278137	0.247763	0.376191	
0.285692	-0.172599	0.5	
0.321855	-0.254144	0.5	
0.240455	-0.234106	0.5	
0.330561	-0.223946	0.39789	
0.216667	-0.05	0.5	
0.175	-0.00200732	0.5	
0.258333	-0.0120439	0.5	
0.22142	0.00817938	0.394574	
0.242822	0.437078	0.152991	
0.235698	0.440961	0.068569	
0.317233	0.386476	0.0904728	
0.164017	0.352353	0.113218	
-0.0684459	-0.495293	0.431403	
-0.114629	-0.403225	0.5	
-0.0550581	-0.422892	0.5	
-0.0263522	-0.412693	0.422334	
-0.0762452	-0.385017	0.309762	
-0.0263522	-0.412693	0.422334	
-0.0810399	-0.493389	0.35285	
0.0108992	-0.403509	0.337337	
-0.493315	-0.0814864	0.152319	
-0.376845	-0.0849991	0.114782	
-0.494668	-0.0728232	0.0735406	
-0.402083	0.00682085	0.0882368	
-0.302044	-0.0506462	0	
-0.376845	-0.0849991	0.114782	
-0.344127	-0.112227	0	
-0.26618	-0.0688348	0.104833	
0.332433	0.136577	0.5	
0.377437	0.0892306	0.5	
0.334139	0.0722049	0.5	
0.312528	0.0818724	0.426151	
-0.2429	0.437035	0.152631	
-0.153329	0.47591	0.0923815	
-0.16873	0.47067	0.201799	
-0.100366	0.376948	0.109973	
0.3762	0.0879078	0.311936	
0.372125	0.129243	0.405713	
0.275537	0.116472	0.367425	
0.312528	0.0818724	0.426151	
0.110158	-0.209083	0.5	
0.05	-0.133333	0.5	
0.139117	-0.156778	0.5	
0.0950848	-0.154753	0.38384	
0.0420691	0.427134	0	
0.0704482	0.495012	0.0718447	
0	0.5	0.1	
0.0676938	0.392306	0.0963758	
-0.18644	0.1823	0	
-0.153413	0.147726	0.129273	
-0.163724	0.239688	0.0901709	
-0.23094	0.170935	0.0823842	
-0.16685	0.0883447	0	
-0.0734441	0.0616893	0	
-0.0983601	0.156434	0	
-0.0593477	0.116045	0.0905459	
0.00200732	0.174835	0.5	
0.0120439	0.258333	0.5	
0.05	0.216667	0.5	
-0.0162135	0.209048	0.397765	
0	0.35	0.5	
0.0353553	0.335355	0.5	
0.0146863	0.307123	0.5	
0.0222826	0.353795	0.441823	
0.216667	0.05	0.5	
0.258333	-0.0120439	0.5	
0.175	-0.00200732	0.5	
0.22142	0.00817938	0.394574	
0.279144	0.0168063	0.5	
0.3	0.05	0.5	
0.312528	0.0818724	0.426151	
0.232356	0.0814649	0.425205	
-0.17494	-0.00200732	0.5	
-0.216667	-0.05	0.5	
-0.258333	-0.0120439	0.5	
-0.238936	-0.0228922	0.39847	
0.317319	-0.386405	0.201487	
0.317163	-0.386533	0.299742	
0.377032	-0.3284	0.243217	
0.248064	-0.277814	0.232664	
0.495102	-0.0698146	0.4276	
0.403225	-0.114629	0.5	
0.422892	-0.0550581	0.5	
0.408281	-0.0263474	0.41881	
0.105455	0.255435	0.5	
0.05	0.216667	0.5	
0.05	0.3	0.5	
0.0896207	0.295594	0.416487	
-0.0144004	-0.334766	0.39505	
-0.105697	-0.361806	0.410161	
-0.0762452	-0.385017	0.309762	
-0.0263522	-0.412693	0.422334	
0.22133	0.175555	0.5	
0.156778	0.139117	0.5	
0.166493	0.210048	0.5	
0.19157	0.189079	0.398239	
-0.0295403	0.225144	0	
-0.0983601	0.156434	0	
-0.00425413	0.131001	0	
-0.0593477	0.116045	0.0905459	
0.478516	-0.14499	0.0762896	
0.380207	-0.19708	0	
0.436811	-0.243302	0.0936268	
0.345961	-0.17739	0.102725	
-0.495208	0.0690617	0.0692099	
-0.404541	0.126945	0	
-0.478516	0.14499	0.0762896	
-0.372288	0.117054	0.109759	
0.295217	0.00291132	0.296268	
0.396971	-0.0114452	0.318812	
0.370442	-0.0792839	0.247792	
0.405658	0.0360531	0.226292	
0.469721	0.171353	0.161666	
0.478555	0.144862	0.0783483	
0.493389	0.0810399	0.14715	
0.370295	0.150924	0.0941864	
-0.426463	0.0441363	0	
-0.337562	0.0547633	0	
-0.372288	0.117054	0.109759	
-0.402083	0.00682085	0.0882368	
0.493012	0.0833019	0.344789	
0.3762	0.0879078	0.311936	
0.5	0	0.3	
0.396971	-0.0114452	0.318812	
-0.28972	-0.19595	0.5	
-0.319213	-0.265223	0.5	
-0.368925	-0.202831	0.5	
-0.346733	-0.171878	0.409849	
-0.174738	0.468473	0.317184	
-0.129243	0.372125	0.409369	
-0.228959	0.444497	0.408094	
-0.214786	0.345979	0.366075	
0.422954	0.00233139	0.5	
0.437042	0.0584891	0.5	
0.495101	0.0698189	0.427621	
0.399339	0.0585413	0.429959	
-0.493012	0.0833019	0.344789	
-0.476132	0.152637	0.402329	
-0.36554	0.108479	0.408539	
-0.393116	0.0762957	0.312097	
-0.411745	-0.136955	0.5	
-0.368925	-0.202831	0.5	
-0.440961	-0.235698	0.431431	
-0.346733	-0.171878	0.409849	
-0.401548	-0.0423374	0	
-0.376845	-0.0849991	0.114782	
-0.302044	-0.0506462	0	
-0.402083	0.00682085	0.0882368	
0.0943468	-0.245334	0	
0.112799	-0.33356	0	
0.201164	-0.273578	0	
0.0830692	-0.28072	0.10633	
-0.277785	0.415735	0.5	
-0.31678	0.386847	0.395869	
-0.228959	0.444497	0.408094	
-0.202831	0.368925	0.5	
0.228959	-0.444497	0.408094	
0.202831	-0.368925	0.5	
0.277785	-0.415735	0.5	
0.31678	-0.386847	0.395869	
0.101011	-0.298593	0.5	
0.05	-0.3	0.5	
0.0951035	-0.257817	0.5	
0.116472	-0.275537	0.434883	
-0.0372406	0.417791	0	
0	0.5	0	
0	0.5	0.1	
0.0420691	0.427134	0	
0.114055	0.374109	0	
0.202324	0.378521	0	
0.153328	0.47591	0.0923699	
0.164017	0.352353	0.113218	
0.428195	0.258165	0.201755	
0.469721	0.171353	0.161666	
0.460548	0.194667	0.23433	
0.335416	0.221718	0.163027	
0.258333	-0.0120439	0.5	
0.279144	0.0168063	0.5	
0.307123	-0.0146863	0.5	
0.330353	-0.0125725	0.446558	
0.0830692	-0.28072	0.10633	
0.216998	-0.338361	0.102062	
0.153165	-0.314436	0.187787	
0.0970803	-0.385859	0.0985367	
-0.356684	-0.19351	0	
-0.46194	-0.191342	0	
-0.444481	-0.228991	0.0919014	
-0.41072	-0.12459	0	
-0.171353	-0.469721	0.338334	
-0.194667	-0.460548	0.26567	
-0.258165	-0.428195	0.298245	
-0.182528	-0.349181	0.246007	
-0.175555	0.22133	0.5	
-0.110158	0.209083	0.5	
-0.139117	0.156778	0.5	
-0.173778	0.167507	0.398056	
-0.0168063	0.279144	0.5	
0.0120439	0.258333	0.5	
-0.05	0.216667	0.5	
-0.00291132	0.295217	0.441595	
-0.0925337	-0.196451	0	
-0.186407	-0.169451	0	
-0.168688	-0.281701	0	
-0.190069	-0.194114	0.116906	
-0.401548	-0.0423374	0	
-0.494668	-0.0728232	0.0735406	
-0.41072	-0.12459	0	
-0.376845	-0.0849991	0.114782	
0.133333	0.05	0.5	
0.0916667	9.90691e-18	0.5	
0.05	0.05	0.5	
0.0781847	0.00688243	0.395457	
0.460762	-0.19416	0.234059	
0.490316	-0.0979281	0.24092	
0.469621	-0.171627	0.160116	
0.391185	-0.0962828	0.148015	
0.277785	0.415735	0	
0.261819	0.319027	0	
0.317233	0.386476	0.0904728	
0.235698	0.440961	0.068569	
-0.214953	0.122747	0.250047	
-0.273431	0.0345527	0.245119	
-0.263013	0.108209	0.143902	
-0.199362	0.0555217	0.187248	
-0.476132	0.152637	0.402329	
-0.495102	0.0698146	0.4276	
-0.493012	0.0833019	0.344789	
-0.36554	0.108479	0.408539	
-0.377032	0.3284	0.243217	
-0.317163	0.386533	0.299742	
-0.373696	0.332191	0.334057	
-0.278552	0.259099	0.267592	
0	-0.5	0.4	
0.0690566	-0.495208	0.430964	
0.082983	-0.493066	0.348347	
0.0108992	-0.403509	0.337337	
-0.436811	0.243302	0.0936268	
-0.372288	0.117054	0.109759	
-0.478516	0.14499	0.0762896	
-0.341436	0.209355	0.0876866	
0.240952	-0.280119	0.382753	
0.116472	-0.275537	0.364096	
0.187872	-0.340275	0.296975	
0.186455	-0.365077	0.406768	
0.05	-0.05	0.5	
0.0781847	0.00688243	0.395457	
0.0916667	9.90691e-18	0.5	
0.0505995	-0.0799908	0.413216	
0.411745	0.136955	0.5	
0.495101	0.0698189	0.427621	
0.437042	0.0584891	0.5	
0.399339	0.0585413	0.429959	
0.00183684	-0.222331	0	
-0.0638367	-0.295761	0	
0.0248177	-0.313374	0	
-0.0311508	-0.245667	0.113138	
-0.147585	0.477722	0.416442	
-0.082983	0.493066	0.348347	
-0.0690566	0.495208	0.430964	
-0.0376575	0.408608	0.42489	
-0.224353	-0.050686	0.284463	
-0.289823	-0.0590788	0.205332	
-0.182857	-0.0350536	0.172086	
-0.201128	-0.131883	0.196277	
0.476114	0.152694	0.40246	
0.3762	0.0879078	0.311936	
0.493012	0.0833019	0.344789	
0.372125	0.129243	0.405713	
0.277785	0.415735	0.5	
0.228991	0.444481	0.408099	
0.3168	0.386831	0.395903	
0.254144	0.321855	0.5	
0.0690566	-0.495208	0.430964	
0	-0.5	0.4	
0.00233139	-0.422954	0.5	
-0.0263522	-0.412693	0.422334	
0.220158	-0.126618	0.388055	
0.251264	-0.0990305	0.284445	
0.334354	-0.126769	0.353658	
0.267469	-0.189723	0.33864	
0.228991	0.444481	0.408099	
0.277785	0.415735	0.5	
0.183279	0.368447	0.5	
0.254144	0.321855	0.5	
-0.293731	-0.159381	0.165241	
-0.26618	-0.0688348	0.104833	
-0.376845	-0.0849991	0.114782	
-0.289823	-0.0590788	0.205332	
-0.203173	-0.373024	0	
-0.168688	-0.281701	0	
-0.235178	-0.304806	0.115901	
-0.157858	-0.37335	0.109158	
0.245477	-0.191651	0	
0.314857	-0.257449	0	
0.313791	-0.154465	0	
0.345961	-0.17739	0.102725	
-0.133333	-0.05	0.5	
-0.10302	-0.108424	0.5	
-0.156778	-0.139117	0.5	
-0.14418	-0.0987583	0.389626	
0.414991	0.0495125	0	
0.5	0	0	
0.5	0	0.1	
0.409478	-0.032947	0	
0.0120439	0.258333	0.5	
-0.0162135	0.209048	0.397765	
-0.05	0.216667	0.5	
-0.00291132	0.295217	0.441595	
0.439458	0.238488	0.424308	
0.476114	0.152694	0.40246	
0.411745	0.136955	0.5	
0.372125	0.129243	0.405713	
-0.490316	0.0979281	0.24092	
-0.5	0	0.3	
-0.400982	-0.0203096	0.245361	
-0.393116	0.0762957	0.312097	
0.0120439	0.258333	0.5	
0.00200732	0.174835	0.5	
-0.05	0.216667	0.5	
-0.0162135	0.209048	0.397765	
-0.476132	0.152637	0.402329	
-0.403225	0.114629	0.5	
-0.495102	0.0698146	0.4276	
-0.36554	0.108479	0.408539	
0.265223	-0.319213	0.5	
0.202831	-0.368925	0.5	
0.19595	-0.28972	0.5	
0.186455	-0.365077	0.406768	
0.377032	-0.3284	0.243217	
0.429476	-0.256028	0.291579	
0.428104	-0.258315	0.196896	
0.321316	-0.199848	0.247358	
0.5	0	0.4	
0.422954	0.00233139	0.5	
0.495101	0.0698189	0.427621	
0.399339	0.0585413	0.429959	
-0.0853821	0.492656	0.251348	
-0.102488	0.367447	0.313744	
-0.174738	0.468473	0.317184	
-0.11066	0.378543	0.212059	
-0.173778	0.167507	0.398056	
-0.158971	0.0982818	0.323671	
-0.233822	0.0792854	0.380146	
-0.222074	0.179419	0.32139	
0.195794	-0.195794	0.279578	
0.248064	-0.277814	0.232664	
0.321316	-0.199848	0.247358	
0.267469	-0.189723	0.33864	
0.262514	-0.243164	0.131417	
0.248064	-0.277814	0.232664	
0.153165	-0.314436	0.187787	
0.216998	-0.338361	0.102062	
-0.0422582	-0.437473	0	
0	-0.5	0.1	
0	-0.5	0	
0.0404524	-0.41072	0	
0.372125	0.129243	0.405713	
0.312528	0.0818724	0.426151	
0.334766	0.0144004	0.39505	
0.399339	0.0585413	0.429959	
-0.436811	0.243302	0.0936268	
-0.469621	0.171627	0.160116	
-0.372288	0.117054	0.109759	
-0.341436	0.209355	0.0876866	
0.05	-0.3	0.5	
0.0146863	-0.307123	0.5	
0.0120439	-0.258333	0.5	
0.0533627	-0.322104	0.427266	
-0.0638367	-0.295761	0	
-0.114467	-0.386332	0	
-0.0328721	-0.370689	0	
-0.0517812	-0.402083	0.08893	
0.175555	-0.22133	0.5	
0.139117	-0.156778	0.5	
0.210048	-0.166493	0.5	
0.172223	-0.208401	0.404687	
-0.209083	-0.110158	0.5	
-0.133333	-0.05	0.5	
-0.156778	-0.139117	0.5	
-0.14418	-0.0987583	0.389626	
-0.209083	-0.110158	0.5	
-0.14418	-0.0987583	0.389626	
-0.156778	-0.139117	0.5	
-0.204987	-0.16964	0.406672	
-0.477948	-0.146853	0.0840084	
-0.444481	-0.228991	0.0919014	
-0.46194	-0.191342	0	
-0.41072	-0.12459	0	
-0.139117	0.156778	0.5	
-0.210048	0.166493	0.5	
-0.175555	0.22133	0.5	
-0.173778	0.167507	0.398056	
-0.217356	-0.450285	0.144698	
-0.238488	-0.439458	0.0756919	
-0.277785	-0.415735	0.134138	
-0.157858	-0.37335	0.109158	
0.415735	-0.277785	0.5	
0.439384	-0.238625	0.423358	
0.388345	-0.314941	0.420199	
0.330561	-0.223946	0.39789	
0.28972	0.19595	0.5	
0.268365	0.14329	0.5	
0.22133	0.175555	0.5	
0.302513	0.160103	0.430769	
0.3762	0.0879078	0.311936	
0.372125	0.129243	0.405713	
0.334766	0.0144004	0.39505	
0.399339	0.0585413	0.429959	
-0.174965	0.104344	0.5	
-0.210048	0.166493	0.5	
-0.139117	0.156778	0.5	
-0.173778	0.167507	0.398056	
-0.386831	-0.3168	0.104097	
-0.415735	-0.277785	0	
-0.444481	-0.228991	0.0919014	
-0.307464	-0.233367	0.0932852	
0.470916	0.168043	0.300126	
0.493012	0.0833019	0.344789	
0.476114	0.152694	0.40246	
0.3762	0.0879078	0.311936	
0.235698	-0.440961	0.0686036	
0.194604	-0.371188	0	
0.191342	-0.46194	0	
0.125573	-0.41396	0	
-0.00291132	-0.295217	0.296268	
-0.0144004	-0.334766	0.39505	
-0.0762452	-0.385017	0.309762	
0.0108992	-0.403509	0.337337	
-0.0144004	-0.334766	0.39505	
0.0883979	-0.384548	0.385617	
-0.0263522	-0.412693	0.422334	
0.0108992	-0.403509	0.337337	
-0.168043	-0.470916	0.199874	
-0.194667	-0.460548	0.26567	
-0.0977967	-0.490343	0.258774	
-0.0790397	-0.393483	0.200637	
-0.133323	0.00734514	0.338693	
-0.0843611	0.070836	0.404426	
-0.158971	0.0982818	0.323671	
-0.16628	0.0337112	0.418012	
0.334766	0.0144004	0.39505	
0.408281	-0.0263474	0.41881	
0.396971	-0.0114452	0.318812	
0.399339	0.0585413	0.429959	
0.436811	-0.243302	0.0936268	
0.380207	-0.19708	0	
0.415735	-0.277785	0	
0.385896	-0.317937	0.065638	
0.257817	0.0951035	0.5	
0.302513	0.160103	0.430769	
0.312528	0.0818724	0.426151	
0.232356	0.0814649	0.425205	
0.359322	-0.070805	0.5	
0.408281	-0.0263474	0.41881	
0.327533	-0.0664701	0.421022	
0.330353	-0.0125725	0.446558	
0.0781847	0.00688243	0.395457	
0.143938	-0.0508772	0.336308	
0.142037	-0.0864505	0.418568	
0.0505995	-0.0799908	0.413216	
-0.411745	-0.136955	0.5	
-0.440961	-0.235698	0.431431	
-0.47591	-0.153328	0.40763	
-0.346733	-0.171878	0.409849	
-0.173778	0.167507	0.398056	
-0.222074	0.179419	0.32139	
-0.233822	0.0792854	0.380146	
-0.24957	0.148488	0.428331	
-0.319213	-0.265223	0.5	
-0.386476	-0.317233	0.409527	
-0.415735	-0.277785	0.5	
-0.368925	-0.202831	0.5	
-0.235698	0.440961	0.0686036	
-0.118932	0.39861	0	
-0.191342	0.46194	0	
-0.153329	0.47591	0.0923815	
-0.0690566	0.495208	0.430964	
-0.00233139	0.422954	0.5	
-0.0584891	0.437042	0.5	
-0.0376575	0.408608	0.42489	
-0.138674	0.323797	0	
-0.217377	0.323067	0.106345	
-0.214341	0.273759	0	
-0.163724	0.239688	0.0901709	
-0.0807376	0.493438	0.154216	
-0.16873	0.47067	0.201799	
-0.100366	0.376948	0.109973	
-0.11066	0.378543	0.212059	
-0.243391	-0.436762	0.403062	
-0.317197	-0.386505	0.431175	
-0.277785	-0.415735	0.5	
-0.254144	-0.321855	0.5	
-0.404541	0.126945	0	
-0.426463	0.0441363	0	
-0.337562	0.0547633	0	
-0.372288	0.117054	0.109759	
-0.334139	-0.0722049	0.5	
-0.377437	-0.0892306	0.5	
-0.374084	-0.0305468	0.5	
-0.322104	-0.0533627	0.432186	
-0.263582	-0.319413	0	
-0.235178	-0.304806	0.115901	
-0.261345	-0.230036	0	
-0.307464	-0.233367	0.0932852	
-0.05	-0.3	0.5	
-0.113303	-0.327662	0.5	
-0.105455	-0.255435	0.5	
-0.053625	-0.263276	0.422334	
0.422892	-0.0550581	0.5	
0.403225	-0.114629	0.5	
0.359322	-0.070805	0.5	
0.408281	-0.0263474	0.41881	
-0.493315	-0.0814864	0.152319	
-0.494668	-0.0728232	0.0735406	
-0.5	0	0.1	
-0.402083	0.00682085	0.0882368	
0.05	0.3	0.5	
0.0222826	0.353795	0.441823	
0.070805	0.359322	0.5	
0.0896207	0.295594	0.416487	
0.373926	0.198925	0	
0.414183	0.131147	0	
0.46194	0.191342	0	
0.370295	0.150924	0.0941864	
-0.263582	-0.319413	0	
-0.353553	-0.353553	0	
-0.315029	-0.388274	0.0791933	
-0.331361	-0.272953	0	
0.0853821	-0.492656	0.251348	
0.082983	-0.493066	0.348347	
0.0788737	-0.375807	0.268102	
0.0108992	-0.403509	0.337337	
0.0943468	-0.245334	0	
0.00183684	-0.222331	0	
0.0248177	-0.313374	0	
0.0830692	-0.28072	0.10633	
-0.353553	0.353553	0.5	
-0.265223	0.319213	0.5	
-0.388345	0.314941	0.420199	
-0.31678	0.386847	0.395869	
0.31678	-0.386847	0.395869	
0.265223	-0.319213	0.5	
0.353553	-0.353553	0.5	
0.388345	-0.314941	0.420199	
-0.133333	-0.05	0.5	
-0.10302	-0.108424	0.5	
-0.14418	-0.0987583	0.389626	
-0.0627858	-0.0916667	0.423956	
0.374084	0.0305468	0.5	
0.422954	0.00233139	0.5	
0.376393	-0.0217786	0.5	
0.408281	-0.0263474	0.41881	
0.116472	-0.275537	0.364096	
0.0883979	-0.384548	0.385617	
0.186455	-0.365077	0.406768	
0.116472	-0.275537	0.434883	
-0.0833019	-0.493012	0.155211	
-0.152694	-0.476114	0.0975404	
-0.157858	-0.37335	0.109158	
-0.0517812	-0.402083	0.08893	
-0.277785	0.415735	0	
-0.201912	0.369986	0	
-0.235698	0.440961	0.0686036	
-0.273315	0.334955	0	
0.0550581	0.422892	0.5	
0.0790424	0.390413	0.396102	
0.070805	0.359322	0.5	
0.0222826	0.353795	0.441823	
0.436811	-0.243302	0.0936268	
0.428104	-0.258315	0.196896	
0.469621	-0.171627	0.160116	
0.345961	-0.17739	0.102725	
-0.493315	-0.0814864	0.152319	
-0.468495	-0.174678	0.182891	
-0.477948	-0.146853	0.0840084	
-0.376845	-0.0849991	0.114782	
0.0305468	-0.374084	0.5	
0.00233139	-0.422954	0.5	
-0.0217786	-0.376393	0.5	
-0.0263522	-0.412693	0.422334	
0.388345	-0.314941	0.420199	
0.416747	-0.276265	0.362548	
0.373696	-0.332191	0.334057	
0.330561	-0.223946	0.39789	
0.0975452	0.490393	0	
0.0704482	0.495012	0.0718447	
0.0420691	0.427134	0	
0.0676938	0.392306	0.0963758	
-0.0144004	-0.334766	0.39505	
-0.0263522	-0.412693	0.422334	
-0.0762452	-0.385017	0.309762	
0.0108992	-0.403509	0.337337	
-0.444481	-0.228991	0.0919014	
-0.429146	-0.25658	0.16876	
-0.386831	-0.3168	0.104097	
-0.307464	-0.233367	0.0932852	
0.110158	-0.209083	0.5	
0.172223	-0.208401	0.404687	
0.175555	-0.22133	0.5	
0.116472	-0.275537	0.434883	
0.295217	0.00291132	0.296268	
0.3762	0.0879078	0.311936	
0.334766	0.0144004	0.39505	
0.396971	-0.0114452	0.318812	
-0.265223	0.319213	0.5	
-0.19595	0.28972	0.5	
-0.240455	0.234106	0.5	
-0.271387	0.271262	0.399079	
-0.238488	-0.439458	0.0756919	
-0.277785	-0.415735	0	
-0.315029	-0.388274	0.0791933	
-0.203173	-0.373024	0	
-0.14329	0.268365	0.5	
-0.110158	0.209083	0.5	
-0.175555	0.22133	0.5	
-0.178187	0.257719	0.423389	
-0.0555676	0.325574	0	
-0.0372406	0.417791	0	
-0.118932	0.39861	0	
-0.100366	0.376948	0.109973	
-0.440961	-0.235698	0.431431	
-0.415735	-0.277785	0.5	
-0.386476	-0.317233	0.409527	
-0.368925	-0.202831	0.5	
0.493012	0.0833019	0.344789	
0.490343	0.0977967	0.241226	
0.5	0	0.3	
0.405658	0.0360531	0.226292	
0.471122	-0.167464	0.300106	
0.490316	-0.0979281	0.24092	
0.460762	-0.19416	0.234059	
0.370442	-0.0792839	0.247792	
-0.327738	-0.00493982	0.327054	
-0.384449	-0.0847771	0.386001	
-0.334766	0.0144004	0.413573	
-0.413166	0.00148403	0.364386	
-0.147585	0.477722	0.416442	
-0.136955	0.411745	0.5	
-0.228959	0.444497	0.408094	
-0.129243	0.372125	0.409369	
-0.476132	0.152637	0.402329	
-0.439384	0.238625	0.423358	
-0.46194	0.191342	0.5	
-0.368447	0.183279	0.5	
0.439384	-0.238625	0.423358	
0.368447	-0.183279	0.5	
0.46194	-0.191342	0.5	
0.476132	-0.152637	0.402329	
0.414991	0.0495125	0	
0.5	0	0.1	
0.5	0	0	
0.495293	0.0684459	0.0685965	
0.0550581	0.422892	0.5	
0.070805	0.359322	0.5	
0.0217786	0.376393	0.5	
0.0222826	0.353795	0.441823	
-0.182857	-0.0350536	0.172086	
-0.289823	-0.0590788	0.205332	
-0.26618	-0.0688348	0.104833	
-0.201128	-0.131883	0.196277	
0.209083	0.110158	0.5	
0.216667	0.05	0.5	
0.144848	0.0930502	0.402842	
0.232356	0.0814649	0.425205	
0.335355	-0.0353553	0.5	
0.359322	-0.070805	0.5	
0.327533	-0.0664701	0.421022	
0.330353	-0.0125725	0.446558	
0.112799	-0.33356	0	
0.125573	-0.41396	0	
0.194604	-0.371188	0	
0.0970803	-0.385859	0.0985367	
0.493012	-0.0833019	0.344789	
0.408281	-0.0263474	0.41881	
0.5	0	0.4	
0.396971	-0.0114452	0.318812	
-0.470668	-0.168734	0.298219	
-0.493437	-0.0807477	0.345776	
-0.47591	-0.153328	0.40763	
-0.384449	-0.0847771	0.386001	
-0.275537	-0.116472	0.371913	
-0.322104	-0.0533627	0.432186	
-0.384449	-0.0847771	0.386001	
-0.346733	-0.171878	0.409849	
-0.277785	-0.415735	0.5	
-0.243391	-0.436762	0.403062	
-0.254144	-0.321855	0.5	
-0.183279	-0.368447	0.5	
0.476114	0.152694	0.40246	
0.372125	0.129243	0.405713	
0.493012	0.0833019	0.344789	
0.399339	0.0585413	0.429959	
0.174678	0.468495	0.317109	
0.146853	0.477948	0.415992	
0.0814864	0.493315	0.347681	
0.0790424	0.390413	0.396102	
-0.388345	0.314941	0.420199	
-0.265223	0.319213	0.5	
-0.353553	0.353553	0.5	
-0.321855	0.254144	0.5	
0.265223	-0.319213	0.5	
0.321855	-0.254144	0.5	
0.353553	-0.353553	0.5	
0.388345	-0.314941	0.420199	
-0.331361	-0.272953	0	
-0.353553	-0.353553	0	
-0.315029	-0.388274	0.0791933	
-0.386831	-0.3168	0.104097	
0.3762	0.0879078	0.311936	
0.396971	-0.0114452	0.318812	
0.295217	0.00291132	0.296268	
0.405658	0.0360531	0.226292	
0.415735	0.277785	0.5	
0.439458	0.238488	0.424308	
0.368925	0.202831	0.5	
0.388274	0.315029	0.420807	
-0.0975452	0.490393	0.5	
-0.0690566	0.495208	0.430964	
-0.0584891	0.437042	0.5	
-0.136955	0.411745	0.5	
0.385896	-0.317937	0.065638	
0.380207	-0.19708	0	
0.415735	-0.277785	0	
0.314857	-0.257449	0	
-0.186407	-0.169451	0	
-0.261345	-0.230036	0	
-0.168688	-0.281701	0	
-0.190069	-0.194114	0.116906	
0.312528	0.0818724	0.426151	
0.330353	-0.0125725	0.446558	
0.334766	0.0144004	0.39505	
0.399339	0.0585413	0.429959	
0.460762	-0.19416	0.234059	
0.428104	-0.258315	0.196896	
0.429476	-0.256028	0.291579	
0.321316	-0.199848	0.247358	
-0.238488	-0.439458	0.0756919	
-0.191342	-0.46194	0	
-0.203173	-0.373024	0	
-0.157858	-0.37335	0.109158	
0.183279	0.368447	0.5	
0.114629	0.403225	0.5	
0.191342	0.46194	0.5	
0.146853	0.477948	0.415992	
-0.0810399	-0.493389	0.35285	
-0.0263522	-0.412693	0.422334	
0	-0.5	0.4	
0.0108992	-0.403509	0.337337	
-0.315029	-0.388274	0.0791933	
-0.331632	-0.374193	0.165357	
-0.277785	-0.415735	0.134138	
-0.235178	-0.304806	0.115901	
-0.403225	0.114629	0.5	
-0.476132	0.152637	0.402329	
-0.46194	0.191342	0.5	
-0.368447	0.183279	0.5	
0.476132	-0.152637	0.402329	
0.368447	-0.183279	0.5	
0.46194	-0.191342	0.5	
0.403225	-0.114629	0.5	
-0.05	-0.05	0.5	
-0.133333	-0.05	0.5	
-0.0913051	-8.8983e-18	0.5	
-0.0627858	-0.0916667	0.423956	
-0.17494	-0.00200732	0.5	
-0.0913051	-8.8983e-18	0.5	
-0.133333	-0.05	0.5	
-0.16628	0.0337112	0.418012	
0.194604	-0.371188	0	
0.201164	-0.273578	0	
0.112799	-0.33356	0	
0.216998	-0.338361	0.102062	
0.112799	-0.33356	0	
0.0830692	-0.28072	0.10633	
0.0248177	-0.313374	0	
0.0970803	-0.385859	0.0985367	
-0.388345	0.314941	0.420199	
-0.373696	0.332191	0.334057	
-0.271387	0.271262	0.399079	
-0.351832	0.232849	0.406107	
-0.436811	0.243302	0.0936268	
-0.38078	0.324048	0.150149	
-0.428104	0.258315	0.196896	
-0.341436	0.209355	0.0876866	
-0.258333	-0.0120439	0.5	
-0.3	-0.05	0.5	
-0.307123	-0.0146863	0.5	
-0.322104	-0.0533627	0.432186	
0.136577	-0.332433	0.5	
0.19595	-0.28972	0.5	
0.186455	-0.365077	0.406768	
0.116472	-0.275537	0.434883	
-0.00425413	0.131001	0	
0.0903521	0.10545	0	
0.0651412	0.200096	0	
0.0541187	0.184721	0.0970632	
0.14329	-0.268365	0.5	
0.110158	-0.209083	0.5	
0.175555	-0.22133	0.5	
0.116472	-0.275537	0.434883	
0.268393	-0.334301	0	
0.194604	-0.371188	0	
0.235698	-0.440961	0.0686036	
0.216998	-0.338361	0.102062	
-0.00425413	0.131001	0	
0.0651412	0.200096	0	
-0.0295403	0.225144	0	
0.0541187	0.184721	0.0970632	
-0.0144004	0.334766	0.39505	
0.0896207	0.295594	0.416487	
0.0222826	0.353795	0.441823	
-0.00291132	0.295217	0.441595	
-0.0983601	0.156434	0	
-0.119993	0.246691	0	
-0.18644	0.1823	0	
-0.163724	0.239688	0.0901709	
0.5	0	0.4	
0.495101	0.0698189	0.427621	
0.493012	0.0833019	0.344789	
0.399339	0.0585413	0.429959	
0	0.35	0.5	
-0.0305468	0.374084	0.5	
0.0217786	0.376393	0.5	
0.0222826	0.353795	0.441823	
-0.26618	-0.0688348	0.104833	
-0.289823	-0.0590788	0.205332	
-0.293731	-0.159381	0.165241	
-0.201128	-0.131883	0.196277	
0.415735	-0.277785	0.5	
0.388345	-0.314941	0.420199	
0.321855	-0.254144	0.5	
0.330561	-0.223946	0.39789	
0.133333	-0.05	0.5	
0.216667	-0.05	0.5	
0.174965	-0.104344	0.5	
0.142037	-0.0864505	0.418568	
0.368925	0.202831	0.5	
0.319213	0.265223	0.5	
0.415735	0.277785	0.5	
0.388274	0.315029	0.420807	
0.268393	-0.334301	0	
0.353553	-0.353553	0	
0.385896	-0.317937	0.065638	
0.317131	-0.386559	0.0881616	
0.3	0.05	0.5	
0.257817	0.0951035	0.5	
0.298593	0.101011	0.5	
0.312528	0.0818724	0.426151	
-0.117671	-0.10197	0	
-0.048473	-0.0328568	0	
-0.142648	-0.00714059	0	
-0.112893	-0.0740846	0.102366	
-0.388345	0.314941	0.420199	
-0.271387	0.271262	0.399079	
-0.321855	0.254144	0.5	
-0.351832	0.232849	0.406107	
-0.05	0.133333	0.5	
-0.05	0.05	0.5	
-0.108424	0.10302	0.5	
-0.0843611	0.070836	0.404426	
0.082983	-0.493066	0.348347	
0.174738	-0.468473	0.317184	
0.0853821	-0.492656	0.251348	
0.0788737	-0.375807	0.268102	
-0.203173	-0.373024	0	
-0.168688	-0.281701	0	
-0.263582	-0.319413	0	
-0.235178	-0.304806	0.115901	
-0.263582	-0.319413	0	
-0.168688	-0.281701	0	
-0.261345	-0.230036	0	
-0.235178	-0.304806	0.115901	
-0.494668	-0.0728232	0.0735406	
-0.376845	-0.0849991	0.114782	
-0.401548	-0.0423374	0	
-0.402083	0.00682085	0.0882368	
0.0853821	-0.492656	0.251348	
0.174738	-0.468473	0.317184	
0.16873	-0.47067	0.201799	
0.0788737	-0.375807	0.268102	
0.256554	-0.429162	0.331268	
0.317163	-0.386533	0.299742	
0.247023	-0.434718	0.250558	
0.187872	-0.340275	0.296975	
-0.493012	0.0833019	0.344789	
-0.471122	0.167464	0.300106	
-0.476132	0.152637	0.402329	
-0.393116	0.0762957	0.312097	
0.114055	0.374109	0	
0.133074	0.264097	0	
0.189613	0.313662	0	
0.164017	0.352353	0.113218	
0.209083	0.110158	0.5	
0.216667	0.05	0.5	
0.133333	0.05	0.5	
0.144848	0.0930502	0.402842	
-0.0704474	0.495012	0.0718449	
-0.153329	0.47591	0.0923815	
-0.118932	0.39861	0	
-0.100366	0.376948	0.109973	
0.136955	-0.411745	0.5	
0.202831	-0.368925	0.5	
0.191342	-0.46194	0.5	
0.228959	-0.444497	0.408094	
-0.202831	0.368925	0.5	
-0.228959	0.444497	0.408094	
-0.191342	0.46194	0.5	
-0.136955	0.411745	0.5	
0.332433	0.136577	0.5	
0.372125	0.129243	0.405713	
0.377437	0.0892306	0.5	
0.312528	0.0818724	0.426151	
0	0.5	0.4	
0	0.5	0.3	
0.0814864	0.493315	0.347681	
0.012676	0.397096	0.315269	
0.334139	0.0722049	0.5	
0.298593	0.101011	0.5	
0.332433	0.136577	0.5	
0.312528	0.0818724	0.426151	
-0.26105	0.203399	0	
-0.18644	0.1823	0	
-0.214341	0.273759	0	
-0.23094	0.170935	0.0823842	
0	-0.5	0.3	
-0.0762452	-0.385017	0.309762	
-0.0810399	-0.493389	0.35285	
0.0108992	-0.403509	0.337337	
0.115537	0.0107471	0	
0.14072	-0.0839746	0	
0.210156	-0.0147965	0	
0.163971	-0.0679077	0.102014	
-0.263582	-0.319413	0	
-0.315029	-0.388274	0.0791933	
-0.277785	-0.415735	0	
-0.203173	-0.373024	0	
0.337634	0.115561	0	
0.370295	0.150924	0.0941864	
0.300884	0.198715	0	
0.269795	0.177145	0.0946573	
-0.344127	-0.112227	0	
-0.302044	-0.0506462	0	
-0.401548	-0.0423374	0	
-0.376845	-0.0849991	0.114782	
-0.22133	-0.175555	0.5	
-0.156778	-0.139117	0.5	
-0.166493	-0.210048	0.5	
-0.204987	-0.16964	0.406672	
-0.2429	0.437035	0.152631	
-0.317319	0.386405	0.201487	
-0.317131	0.386559	0.0881616	
-0.217377	0.323067	0.106345	
-0.133333	0.05	0.5	
-0.05	0.05	0.5	
-0.0913051	-8.8983e-18	0.5	
-0.0843611	0.070836	0.404426	
-0.108424	0.10302	0.5	
-0.05	0.05	0.5	
-0.133333	0.05	0.5	
-0.0843611	0.070836	0.404426	
0.275537	0.116472	0.367425	
0.302513	0.160103	0.430769	
0.372125	0.129243	0.405713	
0.359753	0.20612	0.3581	
-0.26105	0.203399	0	
-0.341436	0.209355	0.0876866	
-0.328307	0.16356	0	
-0.23094	0.170935	0.0823842	
-0.403225	0.114629	0.5	
-0.359322	0.070805	0.5	
-0.422892	0.0550581	0.5	
-0.36554	0.108479	0.408539	
0.191342	0.46194	0.5	
0.183279	0.368447	0.5	
0.146853	0.477948	0.415992	
0.228991	0.444481	0.408099	
-0.302044	-0.0506462	0	
-0.344127	-0.112227	0	
-0.278713	-0.14304	0	
-0.26618	-0.0688348	0.104833	
-0.400982	-0.0203096	0.245361	
-0.393116	0.0762957	0.312097	
-0.5	0	0.3	
-0.413166	0.00148403	0.364386	
-0.495208	0.0690617	0.0692099	
-0.478516	0.14499	0.0762896	
-0.493378	0.0811073	0.146993	
-0.372288	0.117054	0.109759	
-0.495012	-0.0704482	0.428155	
-0.384449	-0.0847771	0.386001	
-0.493437	-0.0807477	0.345776	
-0.413166	0.00148403	0.364386	
0.172599	0.285692	0.5	
0.105455	0.255435	0.5	
0.113303	0.327662	0.5	
0.0896207	0.295594	0.416487	
0.469621	-0.171627	0.160116	
0.478516	-0.14499	0.0762896	
0.345961	-0.17739	0.102725	
0.391185	-0.0962828	0.148015	
0.495101	0.0698189	0.427621	
0.411745	0.136955	0.5	
0.476114	0.152694	0.40246	
0.399339	0.0585413	0.429959	
0.495101	0.0698189	0.427621	
0.422954	0.00233139	0.5	
0.5	0	0.5	
0.437042	0.0584891	0.5	
-0.257824	-0.4284	0.204976	
-0.328716	-0.376757	0.253532	
-0.258165	-0.428195	0.298245	
-0.182528	-0.349181	0.246007	
-0.138674	0.323797	0	
-0.0555676	0.325574	0	
-0.118932	0.39861	0	
-0.100366	0.376948	0.109973	
0.469721	0.171353	0.161666	
0.436762	0.243391	0.0969381	
0.370295	0.150924	0.0941864	
0.335416	0.221718	0.163027	
0.422954	0.00233139	0.5	
0.495102	-0.0698146	0.4276	
0.422892	-0.0550581	0.5	
0.408281	-0.0263474	0.41881	
0.317206	0.386498	0.299678	
0.25658	0.429146	0.33124	
0.247057	0.434698	0.250499	
0.223388	0.316601	0.257498	
0	0.5	0.4	
-0.00233139	0.422954	0.5	
0	0.5	0.5	
-0.0376575	0.408608	0.42489	
-0.404541	0.126945	0	
-0.328307	0.16356	0	
-0.389036	0.207425	0	
-0.341436	0.209355	0.0876866	
0.153328	0.47591	0.0923699	
0.114055	0.374109	0	
0.164017	0.352353	0.113218	
0.0676938	0.392306	0.0963758	
-0.317131	0.386559	0.0881616	
-0.277785	0.415735	0	
-0.235698	0.440961	0.0686036	
-0.273315	0.334955	0	
0.153329	-0.47591	0.0923815	
0.235698	-0.440961	0.0686036	
0.191342	-0.46194	0	
0.125573	-0.41396	0	
0.276476	0.0535537	0	
0.210156	-0.0147965	0	
0.314271	-0.0501881	0	
0.246838	-0.00334576	0.115071	
-0.0638367	-0.295761	0	
0.00183684	-0.222331	0	
-0.0925337	-0.196451	0	
-0.0311508	-0.245667	0.113138	
-0.0131388	0.31384	0.5	
-0.05	0.3	0.5	
-0.0353553	0.335355	0.5	
-0.00291132	0.295217	0.441595	
0.255435	-0.105455	0.5	
0.3	-0.05	0.5	
0.327662	-0.113303	0.5	
0.327533	-0.0664701	0.421022	
0.408281	-0.0263474	0.41881	
0.330353	-0.0125725	0.446558	
0.374084	0.0305468	0.5	
0.399339	0.0585413	0.429959	
0.0704482	0.495012	0.0718447	
0.0975452	0.490393	0	
0.153328	0.47591	0.0923699	
0.0676938	0.392306	0.0963758	
0.0242468	-0.236607	0.397464	
0.0533627	-0.322104	0.427266	
0.116472	-0.275537	0.364096	
0.116472	-0.275537	0.434883	
-0.00291132	0.295217	0.296268	
-0.0375749	0.231137	0.225021	
0.0188132	0.185036	0.296288	
-0.0766135	0.239584	0.316589	
-0.16873	0.47067	0.201799	
-0.153329	0.47591	0.0923815	
-0.0807376	0.493438	0.154216	
-0.100366	0.376948	0.109973	
-0.171353	-0.469721	0.338334	
-0.0977967	-0.490343	0.258774	
-0.194667	-0.460548	0.26567	
-0.0762452	-0.385017	0.309762	
-0.263582	-0.319413	0	
-0.261345	-0.230036	0	
-0.331361	-0.272953	0	
-0.307464	-0.233367	0.0932852	
-0.317197	-0.386505	0.431175	
-0.386476	-0.317233	0.409527	
-0.353553	-0.353553	0.5	
-0.319213	-0.265223	0.5	
0.153329	-0.47591	0.0923815	
0.0807376	-0.493438	0.154216	
0.16873	-0.47067	0.201799	
0.0970803	-0.385859	0.0985367	
0.235698	0.440961	0.068569	
0.153328	0.47591	0.0923699	
0.191342	0.46194	0	
0.202324	0.378521	0	
0.411745	0.136955	0.5	
0.372125	0.129243	0.405713	
0.476114	0.152694	0.40246	
0.399339	0.0585413	0.429959	
0.490316	-0.0979281	0.24092	
0.493012	-0.0833019	0.344789	
0.5	0	0.3	
0.396971	-0.0114452	0.318812	
-0.255435	0.105455	0.5	
-0.210048	0.166493	0.5	
-0.174965	0.104344	0.5	
-0.24957	0.148488	0.428331	
-0.147585	0.477722	0.416442	
-0.228959	0.444497	0.408094	
-0.174738	0.468473	0.317184	
-0.129243	0.372125	0.409369	
-0.00233139	0.422954	0.5	
0	0.5	0.4	
0	0.5	0.5	
0.0728232	0.494668	0.426459	
0.314857	-0.257449	0	
0.353553	-0.353553	0	
0.385896	-0.317937	0.065638	
0.268393	-0.334301	0	
-0.495208	0.0690617	0.0692099	
-0.5	0	0.1	
-0.426463	0.0441363	0	
-0.402083	0.00682085	0.0882368	
-0.5	0	0.1	
-0.494668	-0.0728232	0.0735406	
-0.5	0	0	
-0.402083	0.00682085	0.0882368	
0.0975452	0.490393	0	
0.0420691	0.427134	0	
0.114055	0.374109	0	
0.0676938	0.392306	0.0963758	
-0.422954	-0.00233139	0.5	
-0.437042	-0.0584891	0.5	
-0.5	0	0.5	
-0.495012	-0.0704482	0.428155	
0.0853821	-0.492656	0.251348	
0	-0.5	0.3	
0.082983	-0.493066	0.348347	
0.0108992	-0.403509	0.337337	
0.439458	0.238488	0.424308	
0.450285	0.217356	0.355302	
0.476114	0.152694	0.40246	
0.372125	0.129243	0.405713	
0.235698	-0.440961	0.0686036	
0.277785	-0.415735	0	
0.194604	-0.371188	0	
0.268393	-0.334301	0	
-0.0853821	0.492656	0.251348	
-0.082983	0.493066	0.348347	
-0.174738	0.468473	0.317184	
-0.102488	0.367447	0.313744	
-0.0853821	0.492656	0.251348	
-0.174738	0.468473	0.317184	
-0.16873	0.47067	0.201799	
-0.11066	0.378543	0.212059	
0.0728232	0.494668	0.426459	
0	0.5	0.4	
0.0814864	0.493315	0.347681	
0.0790424	0.390413	0.396102	
0.5	0	0.4	
0.5	0	0.5	
0.422954	0.00233139	0.5	
0.408281	-0.0263474	0.41881	
-0.214341	0.273759	0	
-0.138674	0.323797	0	
-0.201912	0.369986	0	
-0.217377	0.323067	0.106345	
-0.5	0	0.3	
-0.493437	-0.0807477	0.345776	
-0.492649	-0.0854243	0.248597	
-0.400982	-0.0203096	0.245361	
0.5	0	0.5	
0.495102	-0.0698146	0.4276	
0.422954	0.00233139	0.5	
0.408281	-0.0263474	0.41881	
0.5	0	0.4	
0.493012	0.0833019	0.344789	
0.5	0	0.3	
0.396971	-0.0114452	0.318812	
0.334139	0.0722049	0.5	
0.312528	0.0818724	0.426151	
0.377437	0.0892306	0.5	
0.399339	0.0585413	0.429959	
0.268393	-0.334301	0	
0.235698	-0.440961	0.0686036	
0.317131	-0.386559	0.0881616	
0.216998	-0.338361	0.102062	
0.495208	-0.0690617	0.0692099	
0.5	0	0.1	
0.5	0	0	
0.409478	-0.032947	0	
-0.5	0	0.4	
-0.5	0	0.5	
-0.422954	-0.00233139	0.5	
-0.495102	0.0698146	0.4276	
0.082983	-0.493066	0.348347	
0.147585	-0.477722	0.416442	
0.174738	-0.468473	0.317184	
0.0883979	-0.384548	0.385617	
0.114055	0.374109	0	
0.191342	0.46194	0	
0.153328	0.47591	0.0923699	
0.202324	0.378521	0	
-0.0690566	0.495208	0.430964	
0	0.5	0.5	
-0.00233139	0.422954	0.5	
-0.0376575	0.408608	0.42489	
-0.0131388	-0.31384	0.5	
0.0146863	-0.307123	0.5	
0	-0.35	0.5	
-0.0144004	-0.334766	0.449619	
0.422954	0.00233139	0.5	
0.5	0	0.5	
0.5	0	0.4	
0.495101	0.0698189	0.427621	
-0.0144004	-0.334766	0.39505	
-0.0144004	-0.334766	0.449619	
-0.105697	-0.361806	0.410161	
-0.0263522	-0.412693	0.422334	
-0.0422582	-0.437473	0	
-0.114467	-0.386332	0	
-0.0698189	-0.495101	0.0723791	
-0.0517812	-0.402083	0.08893	
-0.490316	0.0979281	0.24092	
-0.5	0	0.3	
-0.5	0	0.2	
-0.400982	-0.0203096	0.245361	
-0.401548	-0.0423374	0	
-0.41072	-0.12459	0	
-0.344127	-0.112227	0	
-0.376845	-0.0849991	0.114782	
-0.257956	0.116321	0	
-0.16685	0.0883447	0	
-0.18644	0.1823	0	
-0.23094	0.170935	0.0823842	
0.112799	-0.33356	0	
0.0248177	-0.313374	0	
0.0404524	-0.41072	0	
0.0970803	-0.385859	0.0985367	
-0.0734441	0.0616893	0	
-0.16685	0.0883447	0	
-0.142648	-0.00714059	0	
-0.153254	0.0418185	0.0989321	
0.125573	-0.41396	0	
0.0404524	-0.41072	0	
0.0704474	-0.495012	0.0718449	
0.0970803	-0.385859	0.0985367	
0.0704474	-0.495012	0.0718449	
0	-0.5	0	
0	-0.5	0.1	
0.0404524	-0.41072	0	
-0.271387	0.271262	0.399079	
-0.178187	0.257719	0.423389	
-0.17825	0.257762	0.338534	
-0.214786	0.345979	0.366075	
0.334139	0.0722049	0.5	
0.335355	0.0353553	0.5	
0.3	0.05	0.5	
0.312528	0.0818724	0.426151	
-0.18644	0.1823	0	
-0.163724	0.239688	0.0901709	
-0.214341	0.273759	0	
-0.23094	0.170935	0.0823842	
-0.327738	-0.00493982	0.327054	
-0.393116	0.0762957	0.312097	
-0.400982	-0.0203096	0.245361	
-0.413166	0.00148403	0.364386	
-0.493315	-0.0814864	0.152319	
-0.5	0	0.2	
-0.492649	-0.0854243	0.248597	
-0.400982	-0.0203096	0.245361	
-0.31678	0.386847	0.395869	
-0.388345	0.314941	0.420199	
-0.373696	0.332191	0.334057	
-0.271387	0.271262	0.399079	
0.3	0.05	0.5	
0.216667	0.05	0.5	
0.257817	0.0951035	0.5	
0.232356	0.0814649	0.425205	
0	-0.5	0.4	
0	-0.5	0.5	
0.0690566	-0.495208	0.430964	
0.00233139	-0.422954	0.5	
-0.440961	-0.235698	0.431431	
-0.437078	-0.242822	0.347009	
-0.47591	-0.153328	0.40763	
-0.346733	-0.171878	0.409849	
-0.386498	-0.317206	0.200322	
-0.434698	-0.247057	0.249501	
-0.386792	-0.316847	0.301384	
-0.332305	-0.222015	0.288549	
-0.389036	0.207425	0	
-0.46194	0.191342	0	
-0.404541	0.126945	0	
-0.478516	0.14499	0.0762896	
0.235698	-0.440961	0.0686036	
0.277785	-0.415735	0	
0.268393	-0.334301	0	
0.317131	-0.386559	0.0881616	
-0.144862	-0.478555	0.421652	
-0.243391	-0.436762	0.403062	
-0.191342	-0.46194	0.5	
-0.183279	-0.368447	0.5	
-0.114467	-0.386332	0	
-0.152694	-0.476114	0.0975404	
-0.0698189	-0.495101	0.0723791	
-0.0517812	-0.402083	0.08893	
0.46194	0.191342	0	
0.436762	0.243391	0.0969381	
0.373926	0.198925	0	
0.370295	0.150924	0.0941864	
-0.422954	-0.00233139	0.5	
-0.5	0	0.5	
-0.5	0	0.4	
-0.495012	-0.0704482	0.428155	
-0.495012	-0.0704482	0.428155	
-0.437042	-0.0584891	0.5	
-0.490393	-0.0975452	0.5	
-0.411745	-0.136955	0.5	
0.368925	0.202831	0.5	
0.372125	0.129243	0.405713	
0.332433	0.136577	0.5	
0.302513	0.160103	0.430769	
0.247868	0.146306	0	
0.337634	0.115561	0	
0.300884	0.198715	0	
0.269795	0.177145	0.0946573	
-0.0217786	-0.376393	0.5	
-0.0550581	-0.422892	0.5	
-0.070805	-0.359322	0.5	
-0.0263522	-0.412693	0.422334	
0.478555	0.144862	0.0783483	
0.46194	0.191342	0	
0.414183	0.131147	0	
0.370295	0.150924	0.0941864	
0.359322	-0.070805	0.5	
0.376393	-0.0217786	0.5	
0.422892	-0.0550581	0.5	
0.408281	-0.0263474	0.41881	
-0.0810399	-0.493389	0.35285	
0	-0.5	0.3	
-0.0977967	-0.490343	0.258774	
-0.0762452	-0.385017	0.309762	
0.0690566	-0.495208	0.430964	
0	-0.5	0.5	
0.0584891	-0.437042	0.5	
0.00233139	-0.422954	0.5	
0	0.5	0.5	
-0.0690566	0.495208	0.430964	
-0.00233139	0.422954	0.5	
-0.0584891	0.437042	0.5	
-0.133333	0.05	0.5	
-0.0913051	-8.8983e-18	0.5	
-0.17494	-0.00200732	0.5	
-0.16628	0.0337112	0.418012	
0.316847	0.386792	0.198616	
0.317206	0.386498	0.299678	
0.247057	0.434698	0.250499	
0.223388	0.316601	0.257498	
-0.434698	-0.247057	0.249501	
-0.470668	-0.168734	0.298219	
-0.437078	-0.242822	0.347009	
-0.332305	-0.222015	0.288549	
0.0550581	0.422892	0.5	
0.0728232	0.494668	0.426459	
0.114629	0.403225	0.5	
0.0790424	0.390413	0.396102	
-0.404541	0.126945	0	
-0.372288	0.117054	0.109759	
-0.328307	0.16356	0	
-0.341436	0.209355	0.0876866	
0.257817	0.0951035	0.5	
0.209083	0.110158	0.5	
0.268365	0.14329	0.5	
0.232356	0.0814649	0.425205	
-0.114467	-0.386332	0	
-0.203173	-0.373024	0	
-0.191342	-0.46194	0	
-0.157858	-0.37335	0.109158	
0.478516	-0.14499	0.0762896	
0.380207	-0.19708	0	
0.46194	-0.191342	0	
0.436811	-0.243302	0.0936268	
0	-0.5	0.5	
0.00233139	-0.422954	0.5	
0	-0.5	0.4	
-0.0263522	-0.412693	0.422334	
-0.5	0	0	
-0.426463	0.0441363	0	
-0.5	0	0.1	
-0.402083	0.00682085	0.0882368	
-0.238488	-0.439458	0.0756919	
-0.152694	-0.476114	0.0975404	
-0.191342	-0.46194	0	
-0.157858	-0.37335	0.109158	
-0.302044	-0.0506462	0	
-0.211369	-0.0761151	0	
-0.237047	0.0201392	0	
-0.26618	-0.0688348	0.104833	
0.0854243	0.492649	0.251403	
0.0814864	0.493315	0.347681	
0	0.5	0.3	
0.012676	0.397096	0.315269	
-0.254144	-0.321855	0.5	
-0.317197	-0.386505	0.431175	
-0.353553	-0.353553	0.5	
-0.319213	-0.265223	0.5	
-0.0422582	-0.437473	0	
0.0404524	-0.41072	0	
-0.0328721	-0.370689	0	
-0.0517812	-0.402083	0.08893	
0.35	0	0.5	
0.376393	-0.0217786	0.5	
0.335355	-0.0353553	0.5	
0.330353	-0.0125725	0.446558	
0.495101	0.0698189	0.427621	
0.490393	0.0975452	0.5	
0.411745	0.136955	0.5	
0.437042	0.0584891	0.5	
0.0550581	0.422892	0.5	
-0.00233139	0.422954	0.5	
0	0.5	0.5	
0.0728232	0.494668	0.426459	
-0.237047	0.0201392	0	
-0.142648	-0.00714059	0	
-0.16685	0.0883447	0	
-0.153254	0.0418185	0.0989321	
0.332433	0.136577	0.5	
0.368925	0.202831	0.5	
0.411745	0.136955	0.5	
0.372125	0.129243	0.405713	
-0.0372406	0.417791	0	
0	0.5	0.1	
0	0.5	0	
-0.0704474	0.495012	0.0718449	
0.0728232	0.494668	0.426459	
0.146853	0.477948	0.415992	
0.114629	0.403225	0.5	
0.0790424	0.390413	0.396102	
0.3	0.05	0.5	
0.257817	0.0951035	0.5	
0.312528	0.0818724	0.426151	
0.232356	0.0814649	0.425205	
0.439458	0.238488	0.424308	
0.411745	0.136955	0.5	
0.46194	0.191342	0.5	
0.368925	0.202831	0.5	
0.0153159	0.363557	0	
0.0401436	0.291204	0	
0.114055	0.374109	0	
0.0676938	0.392306	0.0963758	
-0.495208	0.0690617	0.0692099	
-0.426463	0.0441363	0	
-0.490393	0.0975452	0	
-0.404541	0.126945	0	
-0.174738	0.468473	0.317184	
-0.228959	0.444497	0.408094	
-0.256554	0.429162	0.331268	
-0.214786	0.345979	0.366075	
0.147585	-0.477722	0.416442	
0.136955	-0.411745	0.5	
0.191342	-0.46194	0.5	
0.228959	-0.444497	0.408094	
-0.228959	0.444497	0.408094	
-0.147585	0.477722	0.416442	
-0.191342	0.46194	0.5	
-0.136955	0.411745	0.5	
-0.495208	0.0690617	0.0692099	
-0.493378	0.0811073	0.146993	
-0.5	0	0.1	
-0.402083	0.00682085	0.0882368	
-0.0690566	0.495208	0.430964	
-0.0975452	0.490393	0.5	
-0.147585	0.477722	0.416442	
-0.136955	0.411745	0.5	
0.422954	0.00233139	0.5	
0.5	0	0.5	
0.422892	-0.0550581	0.5	
0.495102	-0.0698146	0.4276	
0.469721	0.171353	0.161666	
0.428195	0.258165	0.201755	
0.436762	0.243391	0.0969381	
0.335416	0.221718	0.163027	
-0.436811	0.243302	0.0936268	
-0.389036	0.207425	0	
-0.415735	0.277785	0	
-0.341436	0.209355	0.0876866	
0.317319	-0.386405	0.201487	
0.317131	-0.386559	0.0881616	
0.2429	-0.437035	0.152631	
0.216998	-0.338361	0.102062	
-0.401548	-0.0423374	0	
-0.302044	-0.0506462	0	
-0.337562	0.0547633	0	
-0.402083	0.00682085	0.0882368	
0.14072	-0.0839746	0	
0.232997	-0.11062	0	
0.210156	-0.0147965	0	
0.163971	-0.0679077	0.102014	
0.470916	0.168043	0.300126	
0.490343	0.0977967	0.241226	
0.493012	0.0833019	0.344789	
0.3762	0.0879078	0.311936	
0.386505	0.317197	0.0688254	
0.436762	0.243391	0.0969381	
0.380873	0.323938	0.152261	
0.335416	0.221718	0.163027	
0.411745	0.136955	0.5	
0.377437	0.0892306	0.5	
0.332433	0.136577	0.5	
0.372125	0.129243	0.405713	
0.136955	-0.411745	0.5	
0.136577	-0.332433	0.5	
0.202831	-0.368925	0.5	
0.186455	-0.365077	0.406768	
0.110158	-0.209083	0.5	
0.139117	-0.156778	0.5	
0.175555	-0.22133	0.5	
0.172223	-0.208401	0.404687	
-0.0550581	-0.422892	0.5	
0.00233139	-0.422954	0.5	
0	-0.5	0.5	
-0.0263522	-0.412693	0.422334	
0	-0.5	0.1	
-0.0422582	-0.437473	0	
-0.0698189	-0.495101	0.0723791	
-0.0517812	-0.402083	0.08893	
0.0975452	0.490393	0	
0.114055	0.374109	0	
0.153328	0.47591	0.0923699	
0.0676938	0.392306	0.0963758	
0.113303	0.327662	0.5	
0.05	0.3	0.5	
0.070805	0.359322	0.5	
0.0896207	0.295594	0.416487	
-0.201912	0.369986	0	
-0.273315	0.334955	0	
-0.214341	0.273759	0	
-0.217377	0.323067	0.106345	
-0.46194	0.191342	0	
-0.389036	0.207425	0	
-0.436811	0.243302	0.0936268	
-0.478516	0.14499	0.0762896	
-0.469621	0.171627	0.160116	
-0.478516	0.14499	0.0762896	
-0.436811	0.243302	0.0936268	
-0.372288	0.117054	0.109759	
-0.5	0	0	
-0.494668	-0.0728232	0.0735406	
-0.401548	-0.0423374	0	
-0.402083	0.00682085	0.0882368	
0.380873	0.323938	0.152261	
0.428195	0.258165	0.201755	
0.376757	0.328716	0.246468	
0.335416	0.221718	0.163027	
-0.114467	-0.386332	0	
-0.157858	-0.37335	0.109158	
-0.152694	-0.476114	0.0975404	
-0.0517812	-0.402083	0.08893	
0.490393	0.0975452	0	
0.414183	0.131147	0	
0.414991	0.0495125	0	
0.495293	0.0684459	0.0685965	
-0.203173	-0.373024	0	
-0.114467	-0.386332	0	
-0.168688	-0.281701	0	
-0.157858	-0.37335	0.109158	
0.436811	-0.243302	0.0936268	
0.469621	-0.171627	0.160116	
0.478516	-0.14499	0.0762896	
0.345961	-0.17739	0.102725	
0.101011	-0.298593	0.5	
0.0533627	-0.322104	0.427266	
0.05	-0.3	0.5	
0.116472	-0.275537	0.434883	
-0.261345	-0.230036	0	
-0.278713	-0.14304	0	
-0.356684	-0.19351	0	
-0.307464	-0.233367	0.0932852	
-0.5	0	0.5	
-0.422954	-0.00233139	0.5	
-0.495102	0.0698146	0.4276	
-0.422892	0.0550581	0.5	
0.478516	-0.14499	0.0762896	
0.493378	-0.0811073	0.146993	
0.495208	-0.0690617	0.0692099	
0.391185	-0.0962828	0.148015	
0.0120439	-0.258333	0.5	
-0.0168063	-0.279144	0.5	
-0.05	-0.216667	0.5	
-0.053625	-0.263276	0.422334	
-0.152694	-0.476114	0.0975404	
-0.217356	-0.450285	0.144698	
-0.168043	-0.470916	0.199874	
-0.157858	-0.37335	0.109158	
-0.183279	-0.368447	0.5	
-0.191342	-0.46194	0.5	
-0.144862	-0.478555	0.421652	
-0.114629	-0.403225	0.5	
0.242822	0.437078	0.152991	
0.168734	0.470668	0.201781	
0.153328	0.47591	0.0923699	
0.164017	0.352353	0.113218	
0.337634	0.115561	0	
0.373926	0.198925	0	
0.300884	0.198715	0	
0.370295	0.150924	0.0941864	
0.476114	0.152694	0.40246	
0.411745	0.136955	0.5	
0.46194	0.191342	0.5	
0.439458	0.238488	0.424308	
-0.426463	0.0441363	0	
-0.5	0	0	
-0.5	0	0.1	
-0.495208	0.0690617	0.0692099	
0	-0.5	0.3	
-0.0810399	-0.493389	0.35285	
0	-0.5	0.4	
0.0108992	-0.403509	0.337337	
-0.404541	0.126945	0	
-0.337562	0.0547633	0	
-0.328307	0.16356	0	
-0.372288	0.117054	0.109759	
-0.202831	0.368925	0.5	
-0.136955	0.411745	0.5	
-0.136577	0.332433	0.5	
-0.129243	0.372125	0.409369	
0.0704482	0.495012	0.0718447	
0	0.5	0.1	
0	0.5	0	
0.0420691	0.427134	0	
0.495101	0.0698189	0.427621	
0.476114	0.152694	0.40246	
0.493012	0.0833019	0.344789	
0.399339	0.0585413	0.429959	
0.313791	-0.154465	0	
0.314857	-0.257449	0	
0.380207	-0.19708	0	
0.345961	-0.17739	0.102725	
0.279144	0.0168063	0.5	
0.216667	0.05	0.5	
0.3	0.05	0.5	
0.232356	0.0814649	0.425205	
0.380207	-0.19708	0	
0.46194	-0.191342	0	
0.394936	-0.119803	0	
0.478516	-0.14499	0.0762896	
-0.00233139	0.422954	0.5	
0.0222826	0.353795	0.441823	
-0.0305468	0.374084	0.5	
-0.0376575	0.408608	0.42489	
0.335355	-0.0353553	0.5	
0.359322	-0.070805	0.5	
0.3	-0.05	0.5	
0.327533	-0.0664701	0.421022	
-4.34906e-18	0.0906746	0.5	
0.00200732	0.174835	0.5	
0.05	0.133333	0.5	
0.00204538	0.114384	0.406195	
0.0704482	0.495012	0.0718447	
0.0807477	0.493437	0.154224	
0	0.5	0.1	
0.0676938	0.392306	0.0963758	
-0.152694	-0.476114	0.0975404	
-0.114467	-0.386332	0	
-0.191342	-0.46194	0	
-0.157858	-0.37335	0.109158	
0.247023	-0.434718	0.250558	
0.174738	-0.468473	0.317184	
0.256554	-0.429162	0.331268	
0.187872	-0.340275	0.296975	
-0.388345	0.314941	0.420199	
-0.416747	0.276265	0.362548	
-0.373696	0.332191	0.334057	
-0.351832	0.232849	0.406107	
-0.278713	-0.14304	0	
-0.211369	-0.0761151	0	
-0.302044	-0.0506462	0	
-0.26618	-0.0688348	0.104833	
0.334139	0.0722049	0.5	
0.377437	0.0892306	0.5	
0.374084	0.0305468	0.5	
0.399339	0.0585413	0.429959	
0.298593	0.101011	0.5	
0.332433	0.136577	0.5	
0.312528	0.0818724	0.426151	
0.302513	0.160103	0.430769	
0.070805	0.359322	0.5	
0.0550581	0.422892	0.5	
0.114629	0.403225	0.5	
0.0790424	0.390413	0.396102	
-0.332433	-0.136577	0.5	
-0.368925	-0.202831	0.5	
-0.411745	-0.136955	0.5	
-0.346733	-0.171878	0.409849	
-0.477948	-0.146853	0.0840084	
-0.494668	-0.0728232	0.0735406	
-0.493315	-0.0814864	0.152319	
-0.376845	-0.0849991	0.114782	
0.388345	-0.314941	0.420199	
0.439384	-0.238625	0.423358	
0.416747	-0.276265	0.362548	
0.330561	-0.223946	0.39789	
-0.133333	0.05	0.5	
-0.216667	0.05	0.5	
-0.174965	0.104344	0.5	
-0.16628	0.0337112	0.418012	
-0.05	-0.3	0.5	
-0.0168063	-0.279144	0.5	
-0.0131388	-0.31384	0.5	
-0.0144004	-0.334766	0.449619	
-0.114467	-0.386332	0	
-0.0975452	-0.490393	0	
-0.0422582	-0.437473	0	
-0.0698189	-0.495101	0.0723791	
-0.0810399	-0.493389	0.35285	
-0.0977967	-0.490343	0.258774	
-0.171353	-0.469721	0.338334	
-0.0762452	-0.385017	0.309762	
0.125573	-0.41396	0	
0.0704474	-0.495012	0.0718449	
0.153329	-0.47591	0.0923815	
0.0970803	-0.385859	0.0985367	
-0.368447	0.183279	0.5	
-0.321855	0.254144	0.5	
-0.285692	0.172599	0.5	
-0.351832	0.232849	0.406107	
-0.440961	-0.235698	0.431431	
-0.411745	-0.136955	0.5	
-0.46194	-0.191342	0.5	
-0.368925	-0.202831	0.5	
-0.257956	0.116321	0	
-0.26105	0.203399	0	
-0.328307	0.16356	0	
-0.23094	0.170935	0.0823842	
-0.136577	0.332433	0.5	
-0.136955	0.411745	0.5	
-0.0892306	0.377437	0.5	
-0.129243	0.372125	0.409369	
0.377437	0.0892306	0.5	
0.312528	0.0818724	0.426151	
0.372125	0.129243	0.405713	
0.399339	0.0585413	0.429959	
0.5	0	0.3	
0.493012	-0.0833019	0.344789	
0.5	0	0.4	
0.396971	-0.0114452	0.318812	
0.156778	0.139117	0.5	
0.209083	0.110158	0.5	
0.133333	0.05	0.5	
0.144848	0.0930502	0.402842	
0.133333	0.05	0.5	
0.10302	0.108424	0.5	
0.156778	0.139117	0.5	
0.144848	0.0930502	0.402842	
-0.478516	0.14499	0.0762896	
-0.469621	0.171627	0.160116	
-0.493378	0.0811073	0.146993	
-0.372288	0.117054	0.109759	
-0.436811	0.243302	0.0936268	
-0.415735	0.277785	0	
-0.385896	0.317937	0.065638	
-0.341436	0.209355	0.0876866	
0.490316	-0.0979281	0.24092	
0.493378	-0.0811073	0.146993	
0.469621	-0.171627	0.160116	
0.391185	-0.0962828	0.148015	
-0.401548	-0.0423374	0	
-0.426463	0.0441363	0	
-0.5	0	0	
-0.402083	0.00682085	0.0882368	
-0.168043	-0.470916	0.199874	
-0.257824	-0.4284	0.204976	
-0.194667	-0.460548	0.26567	
-0.182528	-0.349181	0.246007	
-0.0690566	0.495208	0.430964	
-0.082983	0.493066	0.348347	
0	0.5	0.4	
-0.0376575	0.408608	0.42489	
-0.490316	0.0979281	0.24092	
-0.493012	0.0833019	0.344789	
-0.5	0	0.3	
-0.393116	0.0762957	0.312097	
-0.285692	0.172599	0.5	
-0.255435	0.105455	0.5	
-0.327662	0.113303	0.5	
-0.24957	0.148488	0.428331	
0.14329	-0.268365	0.5	
0.136577	-0.332433	0.5	
0.101011	-0.298593	0.5	
0.116472	-0.275537	0.434883	
-0.118932	0.39861	0	
-0.0372406	0.417791	0	
-0.0975452	0.490393	0	
-0.0704474	0.495012	0.0718449	
-0.0690566	0.495208	0.430964	
0	0.5	0.4	
0	0.5	0.5	
-0.0376575	0.408608	0.42489	
-0.385896	0.317937	0.065638	
-0.38078	0.324048	0.150149	
-0.436811	0.243302	0.0936268	
-0.341436	0.209355	0.0876866	
0.114055	0.374109	0	
0.189613	0.313662	0	
0.202324	0.378521	0	
0.164017	0.352353	0.113218	
0.394936	-0.119803	0	
0.495208	-0.0690617	0.0692099	
0.490393	-0.0975452	0	
0.409478	-0.032947	0	
0.082983	-0.493066	0.348347	
0.0690566	-0.495208	0.430964	
0.147585	-0.477722	0.416442	
0.0883979	-0.384548	0.385617	
0.411745	0.136955	0.5	
0.377437	0.0892306	0.5	
0.372125	0.129243	0.405713	
0.399339	0.0585413	0.429959	
0.368447	-0.183279	0.5	
0.321855	-0.254144	0.5	
0.285692	-0.172599	0.5	
0.330561	-0.223946	0.39789	
0.46194	0.191342	0	
0.478555	0.144862	0.0783483	
0.436762	0.243391	0.0969381	
0.370295	0.150924	0.0941864	
0.05	0.3	0.5	
0.0222826	0.353795	0.441823	
0.0896207	0.295594	0.416487	
-0.00291132	0.295217	0.441595	
-0.0698189	-0.495101	0.0723791	
-0.114467	-0.386332	0	
-0.0975452	-0.490393	0	
-0.152694	-0.476114	0.0975404	
-0.28972	-0.19595	0.5	
-0.368925	-0.202831	0.5	
-0.332433	-0.136577	0.5	
-0.346733	-0.171878	0.409849	
-0.210048	0.166493	0.5	
-0.285692	0.172599	0.5	
-0.240455	0.234106	0.5	
-0.24957	0.148488	0.428331	
-0.5	0	0.3	
-0.393116	0.0762957	0.312097	
-0.493012	0.0833019	0.344789	
-0.413166	0.00148403	0.364386	
0.411745	0.136955	0.5	
0.437042	0.0584891	0.5	
0.377437	0.0892306	0.5	
0.399339	0.0585413	0.429959	
0.5	0	0.4	
0.495102	-0.0698146	0.4276	
0.5	0	0.5	
0.408281	-0.0263474	0.41881	
-0.5	0	0.4	
-0.495012	-0.0704482	0.428155	
-0.493437	-0.0807477	0.345776	
-0.413166	0.00148403	0.364386	
0.0146863	-0.307123	0.5	
0.05	-0.3	0.5	
0.0353553	-0.335355	0.5	
0.0533627	-0.322104	0.427266	
-0.22133	-0.175555	0.5	
-0.209083	-0.110158	0.5	
-0.156778	-0.139117	0.5	
-0.204987	-0.16964	0.406672	
0.414183	0.131147	0	
0.490393	0.0975452	0	
0.478555	0.144862	0.0783483	
0.495293	0.0684459	0.0685965	
-0.368447	0.183279	0.5	
-0.439384	0.238625	0.423358	
-0.415735	0.277785	0.5	
-0.351832	0.232849	0.406107	
0.115537	0.0107471	0	
0.210156	-0.0147965	0	
0.184962	0.0799289	0	
0.140726	0.0548949	0.0839438	
-0.2429	0.437035	0.152631	
-0.317131	0.386559	0.0881616	
-0.235698	0.440961	0.0686036	
-0.217377	0.323067	0.106345	
-0.440961	-0.235698	0.431431	
-0.46194	-0.191342	0.5	
-0.411745	-0.136955	0.5	
-0.47591	-0.153328	0.40763	
-0.31678	0.386847	0.395869	
-0.317163	0.386533	0.299742	
-0.256554	0.429162	0.331268	
-0.214786	0.345979	0.366075	
0.0217786	0.376393	0.5	
0.070805	0.359322	0.5	
0.0353553	0.335355	0.5	
0.0222826	0.353795	0.441823	
-0.138674	0.323797	0	
-0.214341	0.273759	0	
-0.119993	0.246691	0	
-0.163724	0.239688	0.0901709	
0.374084	0.0305468	0.5	
0.422954	0.00233139	0.5	
0.408281	-0.0263474	0.41881	
0.399339	0.0585413	0.429959	
-0.133333	-0.05	0.5	
-0.05	-0.05	0.5	
-0.10302	-0.108424	0.5	
-0.0627858	-0.0916667	0.423956	
-0.240455	0.234106	0.5	
-0.321855	0.254144	0.5	
-0.265223	0.319213	0.5	
-0.271387	0.271262	0.399079	
0.247868	0.146306	0	
0.300884	0.198715	0	
0.231243	0.24169	0	
0.269795	0.177145	0.0946573	
-0.0807376	0.493438	0.154216	
-0.153329	0.47591	0.0923815	
-0.0704474	0.495012	0.0718449	
-0.100366	0.376948	0.109973	
0	-0.35	0.5	
-0.0217786	-0.376393	0.5	
-0.0353553	-0.335355	0.5	
-0.0144004	-0.334766	0.449619	
-0.403225	0.114629	0.5	
-0.327662	0.113303	0.5	
-0.359322	0.070805	0.5	
-0.36554	0.108479	0.408539	
0.394936	-0.119803	0	
0.313791	-0.154465	0	
0.380207	-0.19708	0	
0.345961	-0.17739	0.102725	
0.202831	-0.368925	0.5	
0.136577	-0.332433	0.5	
0.19595	-0.28972	0.5	
0.186455	-0.365077	0.406768	
0.493012	-0.0833019	0.344789	
0.495102	-0.0698146	0.4276	
0.5	0	0.4	
0.408281	-0.0263474	0.41881	
-0.490393	0.0975452	0	
-0.495208	0.0690617	0.0692099	
-0.404541	0.126945	0	
-0.478516	0.14499	0.0762896	
-0.0833019	-0.493012	0.155211	
-0.0977967	-0.490343	0.258774	
0	-0.5	0.2	
-0.0790397	-0.393483	0.200637	
-0.0704474	0.495012	0.0718449	
-0.0975452	0.490393	0	
-0.118932	0.39861	0	
-0.153329	0.47591	0.0923815	
0.495101	0.0698189	0.427621	
0.411745	0.136955	0.5	
0.490393	0.0975452	0.5	
0.476114	0.152694	0.40246	
-4.34906e-18	0.0906746	0.5	
-0.05	0.133333	0.5	
0.00200732	0.174835	0.5	
0.00204538	0.114384	0.406195	
0.35	0	0.5	
0.307123	-0.0146863	0.5	
0.31384	0.0131388	0.5	
0.330353	-0.0125725	0.446558	
0.490393	-0.0975452	0	
0.495208	-0.0690617	0.0692099	
0.394936	-0.119803	0	
0.478516	-0.14499	0.0762896	
-0.05	-0.3	0.5	
-0.0168063	-0.279144	0.5	
-0.0144004	-0.334766	0.449619	
-0.053625	-0.263276	0.422334	
-0.368447	0.183279	0.5	
-0.327662	0.113303	0.5	
-0.403225	0.114629	0.5	
-0.36554	0.108479	0.408539	
-0.0734441	0.0616893	0	
-0.00425413	0.131001	0	
-0.0983601	0.156434	0	
-0.0593477	0.116045	0.0905459	
-0.0807376	0.493438	0.154216	
-0.0853821	0.492656	0.251348	
-0.16873	0.47067	0.201799	
-0.11066	0.378543	0.212059	
0.05	-0.05	0.5	
0.108424	-0.10302	0.5	
0.05	-0.133333	0.5	
0.0505995	-0.0799908	0.413216	
0	-0.5	0	
0	-0.5	0.1	
-0.0422582	-0.437473	0	
-0.0698189	-0.495101	0.0723791	
-0.493012	0.0833019	0.344789	
-0.495102	0.0698146	0.4276	
-0.5	0	0.4	
-0.413166	0.00148403	0.364386	
-0.411745	-0.136955	0.5	
-0.490393	-0.0975452	0.5	
-0.495012	-0.0704482	0.428155	
-0.47591	-0.153328	0.40763	
0	-0.5	0.4	
0.082983	-0.493066	0.348347	
0	-0.5	0.3	
0.0108992	-0.403509	0.337337	
0.268393	-0.334301	0	
0.201164	-0.273578	0	
0.194604	-0.371188	0	
0.216998	-0.338361	0.102062	
-0.439384	0.238625	0.423358	
-0.450312	0.217299	0.354112	
-0.416747	0.276265	0.362548	
-0.351832	0.232849	0.406107	
0.0975452	-0.490393	0	
0.0704474	-0.495012	0.0718449	
0.125573	-0.41396	0	
0.0404524	-0.41072	0	
0.0943468	-0.245334	0	
0.0248177	-0.313374	0	
0.112799	-0.33356	0	
0.0830692	-0.28072	0.10633	
-0.0684459	-0.495293	0.431403	
-0.0550581	-0.422892	0.5	
0	-0.5	0.5	
-0.0263522	-0.412693	0.422334	
0.112799	-0.33356	0	
0.0404524	-0.41072	0	
0.125573	-0.41396	0	
0.0970803	-0.385859	0.0985367	
0.153328	0.47591	0.0923699	
0.235698	0.440961	0.068569	
0.242822	0.437078	0.152991	
0.164017	0.352353	0.113218	
0.298593	0.101011	0.5	
0.268365	0.14329	0.5	
0.332433	0.136577	0.5	
0.302513	0.160103	0.430769	
0.439458	0.238488	0.424308	
0.415735	0.277785	0.365862	
0.450285	0.217356	0.355302	
0.359753	0.20612	0.3581	
-0.495012	-0.0704482	0.428155	
-0.47591	-0.153328	0.40763	
-0.493437	-0.0807477	0.345776	
-0.384449	-0.0847771	0.386001	
0.334766	0.0144004	0.39505	
0.330353	-0.0125725	0.446558	
0.408281	-0.0263474	0.41881	
0.399339	0.0585413	0.429959	
0.05	0.3	0.5	
0.0146863	0.307123	0.5	
0.0222826	0.353795	0.441823	
-0.00291132	0.295217	0.441595	
-0.495102	0.0698146	0.4276	
-0.476132	0.152637	0.402329	
-0.490393	0.0975452	0.5	
-0.403225	0.114629	0.5	
0.495102	-0.0698146	0.4276	
0.476132	-0.152637	0.402329	
0.490393	-0.0975452	0.5	
0.403225	-0.114629	0.5	
0.108424	-0.10302	0.5	
0.174965	-0.104344	0.5	
0.139117	-0.156778	0.5	
0.142037	-0.0864505	0.418568	
-0.0810399	-0.493389	0.35285	
-0.0684459	-0.495293	0.431403	
0	-0.5	0.4	
-0.0263522	-0.412693	0.422334	
-0.41072	-0.12459	0	
-0.401548	-0.0423374	0	
-0.490393	-0.0975452	0	
-0.494668	-0.0728232	0.0735406	
0.335355	-0.0353553	0.5	
0.327533	-0.0664701	0.421022	
0.3	-0.05	0.5	
0.330353	-0.0125725	0.446558	
-0.240455	0.234106	0.5	
-0.19595	0.28972	0.5	
-0.175555	0.22133	0.5	
-0.178187	0.257719	0.423389	
0	-0.5	0.5	
0	-0.5	0.4	
-0.0684459	-0.495293	0.431403	
-0.0263522	-0.412693	0.422334	
0.14329	-0.268365	0.5	
0.0951035	-0.257817	0.5	
0.110158	-0.209083	0.5	
0.116472	-0.275537	0.434883	
-0.0892306	0.377437	0.5	
-0.0584891	0.437042	0.5	
-0.0305468	0.374084	0.5	
-0.0376575	0.408608	0.42489	
0.370295	0.150924	0.0941864	
0.269795	0.177145	0.0946573	
0.305435	0.121825	0.172512	
0.335416	0.221718	0.163027	
-0.368447	0.183279	0.5	
-0.415735	0.277785	0.5	
-0.321855	0.254144	0.5	
-0.351832	0.232849	0.406107	
-0.493012	0.0833019	0.344789	
-0.490316	0.0979281	0.24092	
-0.471122	0.167464	0.300106	
-0.393116	0.0762957	0.312097	
-0.05	-0.3	0.5	
-0.0131388	-0.31384	0.5	
-0.0353553	-0.335355	0.5	
-0.0144004	-0.334766	0.449619	
0.372125	0.129243	0.405713	
0.312528	0.0818724	0.426151	
0.332433	0.136577	0.5	
0.302513	0.160103	0.430769	
-0.183279	-0.368447	0.5	
-0.113303	-0.327662	0.5	
-0.114629	-0.403225	0.5	
-0.105697	-0.361806	0.410161	
0.0722049	-0.334139	0.5	
0.05	-0.3	0.5	
0.101011	-0.298593	0.5	
0.0533627	-0.322104	0.427266	
-0.331361	-0.272953	0	
-0.261345	-0.230036	0	
-0.356684	-0.19351	0	
-0.307464	-0.233367	0.0932852	
0.353553	0.353553	0	
0.277785	0.415735	0	
0.261819	0.319027	0	
0.317233	0.386476	0.0904728	
0.337634	0.115561	0	
0.414183	0.131147	0	
0.373926	0.198925	0	
0.370295	0.150924	0.0941864	
0.327533	-0.0664701	0.421022	
0.408281	-0.0263474	0.41881	
0.334766	0.0144004	0.39505	
0.330353	-0.0125725	0.446558	
-0.0353553	-0.335355	0.5	
-0.0131388	-0.31384	0.5	
0	-0.35	0.5	
-0.0144004	-0.334766	0.449619	
-0.0698189	-0.495101	0.0723791	
-0.0833019	-0.493012	0.155211	
0	-0.5	0.1	
-0.0517812	-0.402083	0.08893	
-0.0833019	-0.493012	0.155211	
-0.0698189	-0.495101	0.0723791	
-0.152694	-0.476114	0.0975404	
-0.0517812	-0.402083	0.08893	
0.353553	0.353553	0.5	
0.277785	0.415735	0.5	
0.3168	0.386831	0.395903	
0.254144	0.321855	0.5	
0.115537	0.0107471	0	
0.184962	0.0799289	0	
0.0903521	0.10545	0	
0.140726	0.0548949	0.0839438	
-0.070805	-0.359322	0.5	
-0.114629	-0.403225	0.5	
-0.113303	-0.327662	0.5	
-0.105697	-0.361806	0.410161	
-0.41072	-0.12459	0	
-0.490393	-0.0975452	0	
-0.477948	-0.146853	0.0840084	
-0.494668	-0.0728232	0.0735406	
0.490343	0.0977967	0.241226	
0.493389	0.0810399	0.14715	
0.5	0	0.2	
0.405658	0.0360531	0.226292	
0.35	0	0.5	
0.335355	-0.0353553	0.5	
0.307123	-0.0146863	0.5	
0.330353	-0.0125725	0.446558	
-0.388345	0.314941	0.420199	
-0.321855	0.254144	0.5	
-0.415735	0.277785	0.5	
-0.351832	0.232849	0.406107	
-0.444481	-0.228991	0.0919014	
-0.415735	-0.277785	0	
-0.46194	-0.191342	0	
-0.356684	-0.19351	0	
0.153328	0.47591	0.0923699	
0.0975452	0.490393	0	
0.191342	0.46194	0	
0.114055	0.374109	0	
-0.114467	-0.386332	0	
-0.191342	-0.46194	0	
-0.0975452	-0.490393	0	
-0.152694	-0.476114	0.0975404	
-0.243391	-0.436762	0.403062	
-0.277785	-0.415735	0.5	
-0.191342	-0.46194	0.5	
-0.183279	-0.368447	0.5	
0.4284	0.257824	0.295024	
0.450285	0.217356	0.355302	
0.415735	0.277785	0.365862	
0.359753	0.20612	0.3581	
-0.265223	0.319213	0.5	
-0.353553	0.353553	0.5	
-0.277785	0.415735	0.5	
-0.31678	0.386847	0.395869	
0.353553	-0.353553	0.5	
0.277785	-0.415735	0.5	
0.265223	-0.319213	0.5	
0.31678	-0.386847	0.395869	
0.380873	0.323938	0.152261	
0.436762	0.243391	0.0969381	
0.428195	0.258165	0.201755	
0.335416	0.221718	0.163027	
-0.0684459	-0.495293	0.431403	
-0.0975452	-0.490393	0.5	
-0.0550581	-0.422892	0.5	
-0.114629	-0.403225	0.5	
-0.335355	-0.0353553	0.5	
-0.307123	-0.0146863	0.5	
-0.3	-0.05	0.5	
-0.322104	-0.0533627	0.432186	
-0.490393	0.0975452	0.5	
-0.495102	0.0698146	0.4276	
-0.403225	0.114629	0.5	
-0.422892	0.0550581	0.5	
0.495102	-0.0698146	0.4276	
0.490393	-0.0975452	0.5	
0.422892	-0.0550581	0.5	
0.403225	-0.114629	0.5	
-0.401548	-0.0423374	0	
-0.337562	0.0547633	0	
-0.426463	0.0441363	0	
-0.402083	0.00682085	0.0882368	
0.28972	0.19595	0.5	
0.368925	0.202831	0.5	
0.332433	0.136577	0.5	
0.302513	0.160103	0.430769	
-0.133333	0.05	0.5	
-0.17494	-0.00200732	0.5	
-0.216667	0.05	0.5	
-0.16628	0.0337112	0.418012	
0.0704474	-0.495012	0.0718449	
0.153329	-0.47591	0.0923815	
0.0975452	-0.490393	0	
0.125573	-0.41396	0	
0.113303	0.327662	0.5	
0.105455	0.255435	0.5	
0.05	0.3	0.5	
0.0896207	0.295594	0.416487	
0.312528	0.0818724	0.426151	
0.302513	0.160103	0.430769	
0.275537	0.116472	0.367425	
0.232356	0.0814649	0.425205	
0.153328	0.47591	0.0923699	
0.0807477	0.493437	0.154224	
0.0704482	0.495012	0.0718447	
0.0676938	0.392306	0.0963758	
0.0975452	0.490393	0.5	
0.114629	0.403225	0.5	
0.0728232	0.494668	0.426459	
0.146853	0.477948	0.415992	
0.0814864	0.493315	0.347681	
0.146853	0.477948	0.415992	
0.0728232	0.494668	0.426459	
0.0790424	0.390413	0.396102	
0.0217786	0.376393	0.5	
0.0353553	0.335355	0.5	
0	0.35	0.5	
0.0222826	0.353795	0.441823	
0.0975452	0.490393	0.5	
0.114629	0.403225	0.5	
0.0550581	0.422892	0.5	
0.0728232	0.494668	0.426459	
-0.05	-0.3	0.5	
-0.05	-0.216667	0.5	
-0.0168063	-0.279144	0.5	
-0.053625	-0.263276	0.422334	
0.183279	0.368447	0.5	
0.191342	0.46194	0.5	
0.277785	0.415735	0.5	
0.228991	0.444481	0.408099	
-0.168043	-0.470916	0.199874	
-0.0977967	-0.490343	0.258774	
-0.0833019	-0.493012	0.155211	
-0.0790397	-0.393483	0.200637	
-0.437078	-0.242822	0.347009	
-0.386792	-0.316847	0.301384	
-0.434698	-0.247057	0.249501	
-0.332305	-0.222015	0.288549	
0.5	0	0.3	
0.490343	0.0977967	0.241226	
0.5	0	0.2	
0.405658	0.0360531	0.226292	
-0.175555	0.22133	0.5	
-0.19595	0.28972	0.5	
-0.14329	0.268365	0.5	
-0.178187	0.257719	0.423389	
-0.0975452	0.490393	0	
-0.191342	0.46194	0	
-0.118932	0.39861	0	
-0.153329	0.47591	0.0923815	
-0.214341	0.273759	0	
-0.18644	0.1823	0	
-0.119993	0.246691	0	
-0.163724	0.239688	0.0901709	
-0.46194	0.191342	0.5	
-0.490393	0.0975452	0.5	
-0.476132	0.152637	0.402329	
-0.403225	0.114629	0.5	
0.476132	-0.152637	0.402329	
0.46194	-0.191342	0.5	
0.490393	-0.0975452	0.5	
0.403225	-0.114629	0.5	
0.478555	0.144862	0.0783483	
0.469721	0.171353	0.161666	
0.436762	0.243391	0.0969381	
0.370295	0.150924	0.0941864	
0.469621	-0.171627	0.160116	
0.493378	-0.0811073	0.146993	
0.478516	-0.14499	0.0762896	
0.391185	-0.0962828	0.148015	
0.359322	-0.070805	0.5	
0.327662	-0.113303	0.5	
0.3	-0.05	0.5	
0.327533	-0.0664701	0.421022	
-0.105455	-0.255435	0.5	
-0.05	-0.216667	0.5	
-0.05	-0.3	0.5	
-0.053625	-0.263276	0.422334	
-0.26105	0.203399	0	
-0.318983	0.261743	0	
-0.328307	0.16356	0	
-0.341436	0.209355	0.0876866	
-0.439384	0.238625	0.423358	
-0.388345	0.314941	0.420199	
-0.415735	0.277785	0.5	
-0.351832	0.232849	0.406107	
0.373926	0.198925	0	
0.46194	0.191342	0	
0.415735	0.277785	0	
0.436762	0.243391	0.0969381	
-0.144862	-0.478555	0.421652	
-0.0975452	-0.490393	0.5	
-0.0684459	-0.495293	0.431403	
-0.114629	-0.403225	0.5	
-0.415735	-0.277785	0	
-0.353553	-0.353553	0	
-0.331361	-0.272953	0	
-0.386831	-0.3168	0.104097	
0.0153159	0.363557	0	
0.114055	0.374109	0	
0.0420691	0.427134	0	
0.0676938	0.392306	0.0963758	
-0.3	-0.05	0.5	
-0.298593	-0.101011	0.5	
-0.334139	-0.0722049	0.5	
-0.322104	-0.0533627	0.432186	
-0.5	0	0.3	
-0.5	0	0.4	
-0.493437	-0.0807477	0.345776	
-0.413166	0.00148403	0.364386	
0.0704474	-0.495012	0.0718449	
0.0807376	-0.493438	0.154216	
0.153329	-0.47591	0.0923815	
0.0970803	-0.385859	0.0985367	
-0.5	0	0.3	
-0.493012	0.0833019	0.344789	
-0.5	0	0.4	
-0.413166	0.00148403	0.364386	
0.275537	0.116472	0.367425	
0.312528	0.0818724	0.426151	
0.372125	0.129243	0.405713	
0.302513	0.160103	0.430769	
0.202831	-0.368925	0.5	
0.277785	-0.415735	0.5	
0.191342	-0.46194	0.5	
0.228959	-0.444497	0.408094	
-0.191342	0.46194	0.5	
-0.277785	0.415735	0.5	
-0.228959	0.444497	0.408094	
-0.202831	0.368925	0.5	
-0.228959	0.444497	0.408094	
-0.31678	0.386847	0.395869	
-0.256554	0.429162	0.331268	
-0.214786	0.345979	0.366075	
-0.257824	-0.4284	0.204976	
-0.258165	-0.428195	0.298245	
-0.194667	-0.460548	0.26567	
-0.182528	-0.349181	0.246007	
-0.26105	0.203399	0	
-0.257956	0.116321	0	
-0.18644	0.1823	0	
-0.23094	0.170935	0.0823842	
0.2429	-0.437035	0.152631	
0.317131	-0.386559	0.0881616	
0.235698	-0.440961	0.0686036	
0.216998	-0.338361	0.102062	
0.298593	0.101011	0.5	
0.334139	0.0722049	0.5	
0.3	0.05	0.5	
0.312528	0.0818724	0.426151	
-0.05	-0.133333	0.5	
-0.10302	-0.108424	0.5	
-0.05	-0.05	0.5	
-0.0627858	-0.0916667	0.423956	
0.05	-0.133333	0.5	
5.20231e-18	-0.0913051	0.5	
0.05	-0.05	0.5	
0.0505995	-0.0799908	0.413216	
0.5	0	0	
0.490393	-0.0975452	0	
0.495208	-0.0690617	0.0692099	
0.409478	-0.032947	0	
0.380207	-0.19708	0	
0.415735	-0.277785	0	
0.46194	-0.191342	0	
0.436811	-0.243302	0.0936268	
0.307123	-0.0146863	0.5	
0.335355	-0.0353553	0.5	
0.3	-0.05	0.5	
0.330353	-0.0125725	0.446558	
-0.5	0	0.3	
-0.492649	-0.0854243	0.248597	
-0.5	0	0.2	
-0.400982	-0.0203096	0.245361	
0.114629	0.403225	0.5	
0.0975452	0.490393	0.5	
0.191342	0.46194	0.5	
0.146853	0.477948	0.415992	
-0.415735	0.277785	0.5	
-0.46194	0.191342	0.5	
-0.439384	0.238625	0.423358	
-0.368447	0.183279	0.5	
0.46194	-0.191342	0.5	
0.415735	-0.277785	0.5	
0.368447	-0.183279	0.5	
0.439384	-0.238625	0.423358	
-0.401548	-0.0423374	0	
-0.5	0	0	
-0.490393	-0.0975452	0	
-0.494668	-0.0728232	0.0735406	
-0.152694	-0.476114	0.0975404	
-0.238488	-0.439458	0.0756919	
-0.217356	-0.450285	0.144698	
-0.157858	-0.37335	0.109158	
0.108424	-0.10302	0.5	
0.133333	-0.05	0.5	
0.174965	-0.104344	0.5	
0.142037	-0.0864505	0.418568	
0.14329	-0.268365	0.5	
0.101011	-0.298593	0.5	
0.0951035	-0.257817	0.5	
0.116472	-0.275537	0.434883	
0.191342	-0.46194	0	
0.0975452	-0.490393	0	
0.153329	-0.47591	0.0923815	
0.125573	-0.41396	0	
0.136955	-0.411745	0.5	
0.191342	-0.46194	0.5	
0.0975452	-0.490393	0.5	
0.147585	-0.477722	0.416442	
-0.0975452	0.490393	0.5	
-0.191342	0.46194	0.5	
-0.147585	0.477722	0.416442	
-0.136955	0.411745	0.5	
-0.0422582	-0.437473	0	
-0.0328721	-0.370689	0	
-0.114467	-0.386332	0	
-0.0517812	-0.402083	0.08893	
-0.317131	0.386559	0.0881616	
-0.353553	0.353553	0	
-0.277785	0.415735	0	
-0.273315	0.334955	0	
-0.46194	-0.191342	0.5	
-0.490393	-0.0975452	0.5	
-0.411745	-0.136955	0.5	
-0.47591	-0.153328	0.40763	
0.414991	0.0495125	0	
0.5	0	0	
0.490393	0.0975452	0	
0.495293	0.0684459	0.0685965	
-0.05	-0.133333	0.5	
-0.05	-0.05	0.5	
5.20231e-18	-0.0913051	0.5	
-0.0627858	-0.0916667	0.423956	
-0.386476	-0.317233	0.409527	
-0.415735	-0.277785	0.5	
-0.353553	-0.353553	0.5	
-0.319213	-0.265223	0.5	
0.277785	-0.415735	0	
0.353553	-0.353553	0	
0.268393	-0.334301	0	
0.317131	-0.386559	0.0881616	
0.411745	0.136955	0.5	
0.46194	0.191342	0.5	
0.490393	0.0975452	0.5	
0.476114	0.152694	0.40246	
-0.389036	0.207425	0	
-0.328307	0.16356	0	
-0.318983	0.261743	0	
-0.341436	0.209355	0.0876866	
-0.477948	-0.146853	0.0840084	
-0.46194	-0.191342	0	
-0.490393	-0.0975452	0	
-0.41072	-0.12459	0	
-0.353553	0.353553	0.5	
-0.415735	0.277785	0.5	
-0.388345	0.314941	0.420199	
-0.321855	0.254144	0.5	
0.321855	-0.254144	0.5	
0.415735	-0.277785	0.5	
0.353553	-0.353553	0.5	
0.388345	-0.314941	0.420199	
0.0704474	-0.495012	0.0718449	
0.0975452	-0.490393	0	
0	-0.5	0	
0.0404524	-0.41072	0	
-0.285692	0.172599	0.5	
-0.210048	0.166493	0.5	
-0.255435	0.105455	0.5	
-0.24957	0.148488	0.428331	
0.422892	-0.0550581	0.5	
0.376393	-0.0217786	0.5	
0.422954	0.00233139	0.5	
0.408281	-0.0263474	0.41881	
-0.277785	-0.415735	0	
-0.353553	-0.353553	0	
-0.315029	-0.388274	0.0791933	
-0.263582	-0.319413	0	
0.05	-0.3	0.5	
0.0722049	-0.334139	0.5	
0.0353553	-0.335355	0.5	
0.0533627	-0.322104	0.427266	
-0.0372406	0.417791	0	
0	0.5	0	
-0.0975452	0.490393	0	
-0.0704474	0.495012	0.0718449	
-0.389036	0.207425	0	
-0.415735	0.277785	0	
-0.46194	0.191342	0	
-0.436811	0.243302	0.0936268	
0.319213	0.265223	0.5	
0.353553	0.353553	0.5	
0.415735	0.277785	0.5	
0.388274	0.315029	0.420807	
0.374084	0.0305468	0.5	
0.437042	0.0584891	0.5	
0.422954	0.00233139	0.5	
0.399339	0.0585413	0.429959	
-0.00233139	0.422954	0.5	
-0.0305468	0.374084	0.5	
-0.0584891	0.437042	0.5	
-0.0376575	0.408608	0.42489	
-0.238488	-0.439458	0.0756919	
-0.191342	-0.46194	0	
-0.277785	-0.415735	0	
-0.203173	-0.373024	0	
0.385896	-0.317937	0.065638	
0.415735	-0.277785	0	
0.353553	-0.353553	0	
0.314857	-0.257449	0	
0.439458	0.238488	0.424308	
0.46194	0.191342	0.5	
0.415735	0.277785	0.5	
0.368925	0.202831	0.5	
-0.415735	0.277785	0	
-0.353553	0.353553	0	
-0.385896	0.317937	0.065638	
-0.318983	0.261743	0	
0.437042	0.0584891	0.5	
0.374084	0.0305468	0.5	
0.377437	0.0892306	0.5	
0.399339	0.0585413	0.429959	
0.28972	0.19595	0.5	
0.332433	0.136577	0.5	
0.268365	0.14329	0.5	
0.302513	0.160103	0.430769	
0.191342	-0.46194	0	
0.277785	-0.415735	0	
0.194604	-0.371188	0	
0.235698	-0.440961	0.0686036	
-0.0217786	-0.376393	0.5	
0.00233139	-0.422954	0.5	
-0.0550581	-0.422892	0.5	
-0.0263522	-0.412693	0.422334	
0.05	0.3	0.5	
0.0120439	0.258333	0.5	
0.0146863	0.307123	0.5	
-0.00291132	0.295217	0.441595	
-0.439384	0.238625	0.423358	
-0.416747	0.276265	0.362548	
-0.388345	0.314941	0.420199	
-0.351832	0.232849	0.406107	
0.394936	-0.119803	0	
0.46194	-0.191342	0	
0.490393	-0.0975452	0	
0.478516	-0.14499	0.0762896	
0.0550581	0.422892	0.5	
0	0.5	0.5	
0.0975452	0.490393	0.5	
0.0728232	0.494668	0.426459	
-0.201912	0.369986	0	
-0.191342	0.46194	0	
-0.277785	0.415735	0	
-0.235698	0.440961	0.0686036	
-0.426463	0.0441363	0	
-0.490393	0.0975452	0	
-0.5	0	0	
-0.495208	0.0690617	0.0692099	
-0.317197	-0.386505	0.431175	
-0.353553	-0.353553	0.5	
-0.277785	-0.415735	0.5	
-0.254144	-0.321855	0.5	
0.422892	-0.0550581	0.5	
0.5	0	0.5	
0.490393	-0.0975452	0.5	
0.495102	-0.0698146	0.4276	
-0.495102	0.0698146	0.4276	
-0.490393	0.0975452	0.5	
-0.5	0	0.5	
-0.422892	0.0550581	0.5	
-0.0690566	0.495208	0.430964	
0	0.5	0.5	
-0.0975452	0.490393	0.5	
-0.0584891	0.437042	0.5	
0.0584891	-0.437042	0.5	
0.0975452	-0.490393	0.5	
0	-0.5	0.5	
0.0690566	-0.495208	0.430964	
-0.404541	0.126945	0	
-0.46194	0.191342	0	
-0.490393	0.0975452	0	
-0.478516	0.14499	0.0762896	
0.478555	0.144862	0.0783483	
0.46194	0.191342	0	
0.490393	0.0975452	0	
0.414183	0.131147	0	
-0.334139	-0.0722049	0.5	
-0.335355	-0.0353553	0.5	
-0.3	-0.05	0.5	
-0.322104	-0.0533627	0.432186	
-0.144862	-0.478555	0.421652	
-0.191342	-0.46194	0.5	
-0.0975452	-0.490393	0.5	
-0.114629	-0.403225	0.5	
-0.0550581	-0.422892	0.5	
0	-0.5	0.5	
-0.0975452	-0.490393	0.5	
-0.0684459	-0.495293	0.431403	
-0.440961	-0.235698	0.431431	
-0.46194	-0.191342	0.5	
-0.415735	-0.277785	0.5	
-0.368925	-0.202831	0.5	
0	0.5	0	
0.0975452	0.490393	0	
0.0704482	0.495012	0.0718447	
0.0420691	0.427134	0	
-0.437042	-0.0584891	0.5	
-0.490393	-0.0975452	0.5	
-0.5	0	0.5	
-0.495012	-0.0704482	0.428155	
0.5	0	0.5	
0.490393	0.0975452	0.5	
0.495101	0.0698189	0.427621	
0.437042	0.0584891	0.5	
-0.0131388	0.31384	0.5	
0.0146863	0.307123	0.5	
-0.0168063	0.279144	0.5	
-0.00291132	0.295217	0.441595	
-0.05	0.3	0.5	
-0.0131388	0.31384	0.5	
-0.0168063	0.279144	0.5	
-0.00291132	0.295217	0.441595	
0.328092	0.270243	0	
0.415735	0.277785	0	
0.353553	0.353553	0	
0.386505	0.317197	0.0688254	
-0.0422582	-0.437473	0	
-0.0975452	-0.490393	0	
0	-0.5	0	
-0.0698189	-0.495101	0.0723791	
0.257817	0.0951035	0.5	
0.216667	0.05	0.5	
0.209083	0.110158	0.5	
0.232356	0.0814649	0.425205	
0.235698	0.440961	0.068569	
0.191342	0.46194	0	
0.277785	0.415735	0	
0.202324	0.378521	0	
0.0120439	0.258333	0.5	
-0.0168063	0.279144	0.5	
0.0146863	0.307123	0.5	
-0.00291132	0.295217	0.441595	
-0.0162135	0.209048	0.397765	
-0.0843611	0.070836	0.404426	
-0.173778	0.167507	0.398056	
-0.0770993	0.146668	0.334099	
-0.173778	0.167507	0.398056	
-0.0843611	0.070836	0.404426	
-0.0162135	0.209048	0.397765	
-0.05	0.133333	0.5	
-0.182528	-0.349181	0.246007	
-0.0762452	-0.385017	0.309762	
-0.0480147	-0.273566	0.222301	
-0.161333	-0.314459	0.347253	
-0.0480147	-0.273566	0.222301	
-0.0762452	-0.385017	0.309762	
-0.182528	-0.349181	0.246007	
-0.13253	-0.300587	0.178341	
-0.0480147	-0.273566	0.222301	
-0.0754532	-0.211832	0.265564	
-0.182528	-0.349181	0.246007	
-0.161333	-0.314459	0.347253	
-0.182528	-0.349181	0.246007	
-0.0754532	-0.211832	0.265564	
-0.0480147	-0.273566	0.222301	
-0.13253	-0.300587	0.178341	
-0.0754532	-0.211832	0.265564	
-0.053625	-0.263276	0.422334	
-0.161333	-0.314459	0.347253	
-0.00291132	-0.295217	0.296268	
-0.161333	-0.314459	0.347253	
-0.053625	-0.263276	0.422334	
-0.0754532	-0.211832	0.265564	
-0.122747	-0.214953	0.392685	
-0.0627858	-0.0916667	0.423956	
-0.05	-0.216667	0.5	
0.00200732	-0.17494	0.5	
-0.05	-0.133333	0.5	
-0.0627858	-0.0916667	0.423956	
0.00200732	-0.17494	0.5	
-0.05	-0.216667	0.5	
-0.0249018	-0.155268	0.351606	
-0.05	-0.216667	0.5	
-0.0627858	-0.0916667	0.423956	
-0.104344	-0.174965	0.5	
-0.05	-0.133333	0.5	
-0.104344	-0.174965	0.5	
-0.0627858	-0.0916667	0.423956	
-0.05	-0.216667	0.5	
-0.122747	-0.214953	0.392685	
-0.376393	0.0217786	0.5	
-0.413166	0.00148403	0.364386	
-0.374084	-0.0305468	0.5	
-0.422954	-0.00233139	0.5	
-0.374084	-0.0305468	0.5	
-0.413166	0.00148403	0.364386	
-0.376393	0.0217786	0.5	
-0.334766	0.0144004	0.413573	
-0.158971	0.0982818	0.323671	
-0.224353	-0.050686	0.284463	
-0.115637	0.0557776	0.228432	
-0.133323	0.00734514	0.338693	
-0.158971	0.0982818	0.323671	
-0.115637	0.0557776	0.228432	
-0.224353	-0.050686	0.284463	
-0.273431	0.0345527	0.245119	
0.370295	0.150924	0.0941864	
0.346509	0.0237889	0	
0.276476	0.0535537	0	
0.337634	0.115561	0	
0.370295	0.150924	0.0941864	
0.276476	0.0535537	0	
0.346509	0.0237889	0	
0.366259	0.00318862	0.135411	
-0.157858	-0.37335	0.109158	
-0.0311508	-0.245667	0.113138	
-0.168688	-0.281701	0	
-0.13253	-0.300587	0.178341	
-0.157858	-0.37335	0.109158	
-0.168688	-0.281701	0	
-0.0311508	-0.245667	0.113138	
-0.0638367	-0.295761	0	
-0.0766135	0.239584	0.316589	
-0.11066	0.378543	0.212059	
-0.192258	0.331995	0.253348	
-0.102488	0.367447	0.313744	
-0.192258	0.331995	0.253348	
-0.11066	0.378543	0.212059	
-0.0766135	0.239584	0.316589	
-0.127619	0.285659	0.171874	
0.163971	-0.0679077	0.102014	
0.145439	-0.0925419	0.206952	
0.0593425	-0.191106	0.170296	
0.166494	-0.172227	0.119812	
0.0593425	-0.191106	0.170296	
0.145439	-0.0925419	0.206952	
0.163971	-0.0679077	0.102014	
0.0660646	-0.0345177	0.124489	
0.0593425	-0.191106	0.170296	
-0.000733888	-0.121505	0.108367	
0.163971	-0.0679077	0.102014	
0.166494	-0.172227	0.119812	
0.163971	-0.0679077	0.102014	
-0.000733888	-0.121505	0.108367	
0.0593425	-0.191106	0.170296	
0.0660646	-0.0345177	0.124489	
-0.0258974	0.236971	0.122489	
0.0676938	0.392306	0.0963758	
0.0153159	0.363557	0	
-0.00366878	0.359505	0.167012	
0.0153159	0.363557	0	
0.0676938	0.392306	0.0963758	
-0.0258974	0.236971	0.122489	
0.0401436	0.291204	0	
-0.053625	-0.263276	0.422334	
0.00200732	-0.17494	0.5	
0.0120439	-0.258333	0.5	
0.0242468	-0.236607	0.397464	
-0.053625	-0.263276	0.422334	
0.0120439	-0.258333	0.5	
0.00200732	-0.17494	0.5	
-0.05	-0.216667	0.5	
-0.429476	0.256028	0.291579	
-0.351832	0.232849	0.406107	
-0.278552	0.259099	0.267592	
-0.416747	0.276265	0.362548	
-0.278552	0.259099	0.267592	
-0.351832	0.232849	0.406107	
-0.429476	0.256028	0.291579	
-0.307691	0.175889	0.353161	
0.327662	-0.113303	0.5	
0.334354	-0.126769	0.353658	
0.403225	-0.114629	0.5	
0.368447	-0.183279	0.5	
0.327662	-0.113303	0.5	
0.403225	-0.114629	0.5	
0.334354	-0.126769	0.353658	
0.327533	-0.0664701	0.421022	
0.00204538	0.114384	0.406195	
0.10302	0.108424	0.5	
0.0895096	0.211893	0.376173	
0.05	0.133333	0.5	
0.00204538	0.114384	0.406195	
0.0895096	0.211893	0.376173	
0.10302	0.108424	0.5	
0.144848	0.0930502	0.402842	
0.104344	0.174965	0.5	
0.0895096	0.211893	0.376173	
0.10302	0.108424	0.5	
0.05	0.133333	0.5	
0.104344	0.174965	0.5	
0.10302	0.108424	0.5	
0.0895096	0.211893	0.376173	
0.144848	0.0930502	0.402842	
2.83347e-18	-1.91537e-18	0.5	
-0.0843611	0.070836	0.404426	
-0.0913051	-8.8983e-18	0.5	
-0.05	0.05	0.5	
-0.0913051	-8.8983e-18	0.5	
-0.0843611	0.070836	0.404426	
2.83347e-18	-1.91537e-18	0.5	
-0.0188474	-0.0311526	0.378242	
0.0597845	-0.282871	0.216064	
0.195794	-0.195794	0.279578	
0.187872	-0.340275	0.296975	
0.153165	-0.314436	0.187787	
0.0597845	-0.282871	0.216064	
0.187872	-0.340275	0.296975	
0.195794	-0.195794	0.279578	
0.0700441	-0.20677	0.284029	
0.345961	-0.17739	0.102725	
0.232997	-0.11062	0	
0.314271	-0.0501881	0	
0.313791	-0.154465	0	
0.345961	-0.17739	0.102725	
0.314271	-0.0501881	0	
0.232997	-0.11062	0	
0.287303	-0.106912	0.163595	
0.012676	0.397096	0.315269	
0.174678	0.468495	0.317109	
0.0854243	0.492649	0.251403	
0.0814864	0.493315	0.347681	
0.012676	0.397096	0.315269	
0.0854243	0.492649	0.251403	
0.174678	0.468495	0.317109	
0.100485	0.350272	0.242427	
-0.204987	-0.16964	0.406672	
-0.161333	-0.314459	0.347253	
-0.172599	-0.285692	0.5	
-0.280119	-0.240952	0.383653	
-0.204987	-0.16964	0.406672	
-0.172599	-0.285692	0.5	
-0.161333	-0.314459	0.347253	
-0.122747	-0.214953	0.392685	
-0.0843611	0.070836	0.404426	
-0.139117	0.156778	0.5	
-0.174965	0.104344	0.5	
-0.108424	0.10302	0.5	
-0.0843611	0.070836	0.404426	
-0.174965	0.104344	0.5	
-0.139117	0.156778	0.5	
-0.173778	0.167507	0.398056	
-0.341436	0.209355	0.0876866	
-0.26105	0.203399	0	
-0.214341	0.273759	0	
-0.265311	0.22544	0.150174	
-0.214341	0.273759	0	
-0.26105	0.203399	0	
-0.341436	0.209355	0.0876866	
-0.318983	0.261743	0	
-0.214341	0.273759	0	
-0.217377	0.323067	0.106345	
-0.341436	0.209355	0.0876866	
-0.265311	0.22544	0.150174	
-0.341436	0.209355	0.0876866	
-0.217377	0.323067	0.106345	
-0.214341	0.273759	0	
-0.318983	0.261743	0	
-0.318983	0.261743	0	
-0.317131	0.386559	0.0881616	
-0.353553	0.353553	0	
-0.385896	0.317937	0.065638	
-0.318983	0.261743	0	
-0.353553	0.353553	0	
-0.317131	0.386559	0.0881616	
-0.273315	0.334955	0	
0.012676	0.397096	0.315269	
0.154396	0.322847	0.356278	
0.174678	0.468495	0.317109	
0.0790424	0.390413	0.396102	
0.012676	0.397096	0.315269	
0.174678	0.468495	0.317109	
0.154396	0.322847	0.356278	
0.100485	0.350272	0.242427	
-0.204987	-0.16964	0.406672	
-0.257817	-0.0951035	0.5	
-0.238936	-0.0228922	0.39847	
-0.275537	-0.116472	0.371913	
-0.204987	-0.16964	0.406672	
-0.238936	-0.0228922	0.39847	
-0.257817	-0.0951035	0.5	
-0.209083	-0.110158	0.5	
-0.238936	-0.0228922	0.39847	
-0.133333	-0.05	0.5	
-0.16628	0.0337112	0.418012	
-0.17494	-0.00200732	0.5	
-0.238936	-0.0228922	0.39847	
-0.16628	0.0337112	0.418012	
-0.133333	-0.05	0.5	
-0.14418	-0.0987583	0.389626	
-0.30053	0.0904691	0.315276	
-0.158971	0.0982818	0.323671	
-0.222074	0.179419	0.32139	
-0.233822	0.0792854	0.380146	
-0.30053	0.0904691	0.315276	
-0.222074	0.179419	0.32139	
-0.158971	0.0982818	0.323671	
-0.214953	0.122747	0.250047	
-0.0346597	0.0490732	0.303617	
0.0781847	0.00688243	0.395457	
0.00204538	0.114384	0.406195	
-0.0188474	-0.0311526	0.378242	
0.00204538	0.114384	0.406195	
0.0781847	0.00688243	0.395457	
-0.0346597	0.0490732	0.303617	
0.0627858	0.0916667	0.334361	
-0.214786	0.345979	0.366075	
-0.19595	0.28972	0.5	
-0.129243	0.372125	0.409369	
-0.202831	0.368925	0.5	
-0.214786	0.345979	0.366075	
-0.129243	0.372125	0.409369	
-0.19595	0.28972	0.5	
-0.178187	0.257719	0.423389	
0.0676938	0.392306	0.0963758	
0.133074	0.264097	0	
0.0897997	0.249573	0.16264	
0.0401436	0.291204	0	
0.0676938	0.392306	0.0963758	
0.0897997	0.249573	0.16264	
0.133074	0.264097	0	
0.164017	0.352353	0.113218	
0.0242468	-0.236607	0.397464	
0.05	-0.133333	0.5	
0.0505995	-0.0799908	0.413216	
0.00200732	-0.17494	0.5	
0.0242468	-0.236607	0.397464	
0.0505995	-0.0799908	0.413216	
0.05	-0.133333	0.5	
0.0950848	-0.154753	0.38384	
0.175555	-0.22133	0.5	
0.116472	-0.275537	0.434883	
0.19595	-0.28972	0.5	
0.14329	-0.268365	0.5	
0.19595	-0.28972	0.5	
0.116472	-0.275537	0.434883	
0.175555	-0.22133	0.5	
0.172223	-0.208401	0.404687	
-0.0627858	-0.0916667	0.423956	
-0.133323	0.00734514	0.338693	
-0.1108	-0.078009	0.257656	
-0.14418	-0.0987583	0.389626	
-0.0627858	-0.0916667	0.423956	
-0.1108	-0.078009	0.257656	
-0.133323	0.00734514	0.338693	
-0.0188474	-0.0311526	0.378242	
0.2429	-0.437035	0.152631	
0.248064	-0.277814	0.232664	
0.247023	-0.434718	0.250558	
0.317319	-0.386405	0.201487	
0.247023	-0.434718	0.250558	
0.248064	-0.277814	0.232664	
0.2429	-0.437035	0.152631	
0.153165	-0.314436	0.187787	
0.0790424	0.390413	0.396102	
0.228991	0.444481	0.408099	
0.174678	0.468495	0.317109	
0.146853	0.477948	0.415992	
0.0790424	0.390413	0.396102	
0.174678	0.468495	0.317109	
0.228991	0.444481	0.408099	
0.154396	0.322847	0.356278	
-0.186407	-0.169451	0	
-0.26618	-0.0688348	0.104833	
-0.112893	-0.0740846	0.102366	
-0.211369	-0.0761151	0	
-0.112893	-0.0740846	0.102366	
-0.26618	-0.0688348	0.104833	
-0.186407	-0.169451	0	
-0.190069	-0.194114	0.116906	
0.116472	-0.275537	0.434883	
0.05	-0.216667	0.5	
0.05	-0.3	0.5	
0.0951035	-0.257817	0.5	
0.116472	-0.275537	0.434883	
0.05	-0.3	0.5	
0.05	-0.216667	0.5	
0.0242468	-0.236607	0.397464	
-0.186407	-0.169451	0	
-0.112893	-0.0740846	0.102366	
-0.0925337	-0.196451	0	
-0.117671	-0.10197	0	
-0.0925337	-0.196451	0	
-0.112893	-0.0740846	0.102366	
-0.186407	-0.169451	0	
-0.190069	-0.194114	0.116906	
0.436762	0.243391	0.0969381	
0.328092	0.270243	0	
0.415735	0.277785	0	
0.373926	0.198925	0	
0.436762	0.243391	0.0969381	
0.415735	0.277785	0	
0.328092	0.270243	0	
0.386505	0.317197	0.0688254	
-0.214786	0.345979	0.366075	
-0.0992017	0.278039	0.399962	
-0.102488	0.367447	0.313744	
-0.129243	0.372125	0.409369	
-0.214786	0.345979	0.366075	
-0.102488	0.367447	0.313744	
-0.0992017	0.278039	0.399962	
-0.17825	0.257762	0.338534	
0.317233	0.386476	0.0904728	
0.328092	0.270243	0	
0.353553	0.353553	0	
0.386505	0.317197	0.0688254	
0.317233	0.386476	0.0904728	
0.353553	0.353553	0	
0.328092	0.270243	0	
0.261819	0.319027	0	
-0.351832	0.232849	0.406107	
-0.476132	0.152637	0.402329	
-0.368447	0.183279	0.5	
-0.439384	0.238625	0.423358	
-0.351832	0.232849	0.406107	
-0.368447	0.183279	0.5	
-0.476132	0.152637	0.402329	
-0.36554	0.108479	0.408539	
0.235698	-0.440961	0.0686036	
0.125573	-0.41396	0	
0.0970803	-0.385859	0.0985367	
0.194604	-0.371188	0	
0.0970803	-0.385859	0.0985367	
0.125573	-0.41396	0	
0.235698	-0.440961	0.0686036	
0.153329	-0.47591	0.0923815	
0.116472	-0.275537	0.434883	
0.240952	-0.280119	0.382753	
0.116472	-0.275537	0.364096	
0.172223	-0.208401	0.404687	
0.116472	-0.275537	0.434883	
0.116472	-0.275537	0.364096	
0.240952	-0.280119	0.382753	
0.186455	-0.365077	0.406768	
-0.341436	0.209355	0.0876866	
-0.404541	0.126945	0	
-0.478516	0.14499	0.0762896	
-0.389036	0.207425	0	
-0.341436	0.209355	0.0876866	
-0.478516	0.14499	0.0762896	
-0.404541	0.126945	0	
-0.372288	0.117054	0.109759	
-0.00291132	0.295217	0.441595	
0	0.35	0.5	
0.0146863	0.307123	0.5	
0.0222826	0.353795	0.441823	
-0.00291132	0.295217	0.441595	
0.0146863	0.307123	0.5	
0	0.35	0.5	
-0.0131388	0.31384	0.5	
0.163971	-0.0679077	0.102014	
0.164797	-0.177585	0	
0.0712814	-0.153152	0	
0.14072	-0.0839746	0	
0.163971	-0.0679077	0.102014	
0.0712814	-0.153152	0	
0.164797	-0.177585	0	
0.166494	-0.172227	0.119812	
0.405658	0.0360531	0.226292	
0.490316	-0.0979281	0.24092	
0.391185	-0.0962828	0.148015	
0.5	0	0.2	
0.405658	0.0360531	0.226292	
0.391185	-0.0962828	0.148015	
0.490316	-0.0979281	0.24092	
0.370442	-0.0792839	0.247792	
0.0108992	-0.403509	0.337337	
0.0690566	-0.495208	0.430964	
-0.0263522	-0.412693	0.422334	
0	-0.5	0.4	
0.0108992	-0.403509	0.337337	
-0.0263522	-0.412693	0.422334	
0.0690566	-0.495208	0.430964	
0.0883979	-0.384548	0.385617	
0.00204538	0.114384	0.406195	
-0.05	0.05	0.5	
-0.05	0.133333	0.5	
-0.0843611	0.070836	0.404426	
0.00204538	0.114384	0.406195	
-0.05	0.133333	0.5	
-0.05	0.05	0.5	
-4.34906e-18	0.0906746	0.5	
-0.247023	0.434718	0.250558	
-0.11066	0.378543	0.212059	
-0.2429	0.437035	0.152631	
-0.16873	0.47067	0.201799	
-0.2429	0.437035	0.152631	
-0.11066	0.378543	0.212059	
-0.247023	0.434718	0.250558	
-0.192258	0.331995	0.253348	
-0.257817	-0.0951035	0.5	
-0.322104	-0.0533627	0.432186	
-0.216667	-0.05	0.5	
-0.238936	-0.0228922	0.39847	
-0.257817	-0.0951035	0.5	
-0.216667	-0.05	0.5	
-0.322104	-0.0533627	0.432186	
-0.3	-0.05	0.5	
-0.258333	-0.0120439	0.5	
-0.216667	-0.05	0.5	
-0.322104	-0.0533627	0.432186	
-0.238936	-0.0228922	0.39847	
-0.258333	-0.0120439	0.5	
-0.322104	-0.0533627	0.432186	
-0.216667	-0.05	0.5	
-0.3	-0.05	0.5	
0.0970803	-0.385859	0.0985367	
0.235698	-0.440961	0.0686036	
0.2429	-0.437035	0.152631	
0.153329	-0.47591	0.0923815	
0.0970803	-0.385859	0.0985367	
0.2429	-0.437035	0.152631	
0.235698	-0.440961	0.0686036	
0.216998	-0.338361	0.102062	
0.330561	-0.223946	0.39789	
0.415735	-0.277785	0.5	
0.368447	-0.183279	0.5	
0.321855	-0.254144	0.5	
0.330561	-0.223946	0.39789	
0.368447	-0.183279	0.5	
0.415735	-0.277785	0.5	
0.439384	-0.238625	0.423358	
0.116472	-0.275537	0.434883	
0.0883979	-0.384548	0.385617	
0.136577	-0.332433	0.5	
0.0533627	-0.322104	0.427266	
0.116472	-0.275537	0.434883	
0.136577	-0.332433	0.5	
0.0883979	-0.384548	0.385617	
0.186455	-0.365077	0.406768	
0.0892306	-0.377437	0.5	
0.136577	-0.332433	0.5	
0.0883979	-0.384548	0.385617	
0.0533627	-0.322104	0.427266	
0.0892306	-0.377437	0.5	
0.0883979	-0.384548	0.385617	
0.136577	-0.332433	0.5	
0.186455	-0.365077	0.406768	
0.0108992	-0.403509	0.337337	
0.0853821	-0.492656	0.251348	
0	-0.5	0.2	
0.0788737	-0.375807	0.268102	
0.0108992	-0.403509	0.337337	
0	-0.5	0.2	
0.0853821	-0.492656	0.251348	
0	-0.5	0.3	
-0.157858	-0.37335	0.109158	
-0.0833019	-0.493012	0.155211	
-0.168043	-0.470916	0.199874	
-0.152694	-0.476114	0.0975404	
-0.157858	-0.37335	0.109158	
-0.168043	-0.470916	0.199874	
-0.0833019	-0.493012	0.155211	
-0.0790397	-0.393483	0.200637	
0.147585	-0.477722	0.416442	
0.0584891	-0.437042	0.5	
0.0975452	-0.490393	0.5	
0.136955	-0.411745	0.5	
0.147585	-0.477722	0.416442	
0.0975452	-0.490393	0.5	
0.0584891	-0.437042	0.5	
0.0690566	-0.495208	0.430964	
-0.0690566	0.495208	0.430964	
-0.136955	0.411745	0.5	
-0.0376575	0.408608	0.42489	
-0.0584891	0.437042	0.5	
-0.0376575	0.408608	0.42489	
-0.136955	0.411745	0.5	
-0.0690566	0.495208	0.430964	
-0.147585	0.477722	0.416442	
-0.341436	0.209355	0.0876866	
-0.415735	0.277785	0	
-0.318983	0.261743	0	
-0.389036	0.207425	0	
-0.341436	0.209355	0.0876866	
-0.318983	0.261743	0	
-0.415735	0.277785	0	
-0.385896	0.317937	0.065638	
-0.0263522	-0.412693	0.422334	
-0.114629	-0.403225	0.5	
-0.070805	-0.359322	0.5	
-0.105697	-0.361806	0.410161	
-0.0263522	-0.412693	0.422334	
-0.070805	-0.359322	0.5	
-0.114629	-0.403225	0.5	
-0.0550581	-0.422892	0.5	
-0.490343	0.0977967	0.758774	
-0.369146	0.1248	0.88989	
-0.327614	0.0876466	0.725276	
-0.357252	0.187897	0.739185	
-0.104309	-0.0175295	0.603853	
-0.259968	-0.0294564	0.588658	
-0.216667	-0.05	0.5	
-0.203542	-0.0724399	0.653763	
-0.17494	-0.00200732	0.5	
-0.216667	-0.05	0.5	
-0.104309	-0.0175295	0.603853	
-0.259968	-0.0294564	0.588658	
-0.05	0.05	0.5	
-0.104309	-0.0175295	0.603853	
-0.00961934	0.119858	0.599022	
-0.124864	0.0783821	0.585361	
-0.0833019	-0.493012	0.655211	
-0.0656658	-0.406088	0.605213	
-0.0924024	-0.340318	0.735056	
0.0170927	-0.420241	0.640557	
-0.0924024	-0.340318	0.735056	
-0.0656658	-0.406088	0.605213	
-0.0144004	-0.334766	0.641321	
0.0170927	-0.420241	0.640557	
-0.327614	0.0876466	0.725276	
-0.357252	0.187897	0.739185	
-0.369146	0.1248	0.88989	
-0.290365	0.115706	0.809779	
0.193656	-0.194449	0.720197	
0.175	-0.0611989	0.634692	
0.0558284	-0.130931	0.665335	
0.0829508	-0.0830948	0.742858	
0.460548	-0.194667	0.76567	
0.366266	-0.0917065	0.74426	
0.309086	-0.228865	0.737481	
0.344185	-0.180158	0.894872	
-0.332366	0.0316806	0.831947	
-0.327614	0.0876466	0.725276	
-0.490343	0.0977967	0.758774	
-0.369146	0.1248	0.88989	
-0.0623911	0.203393	0.630433	
-0.108627	0.359588	0.683823	
-0.116472	0.275537	0.591143	
-0.0949641	0.22959	0.742345	
-0.0144004	-0.334766	0.641321	
0.00809469	-0.342857	0.777216	
-0.0924024	-0.340318	0.735056	
0.0170927	-0.420241	0.640557	
-0.05	0.05	0.5	
-0.104309	-0.0175295	0.603853	
-0.00100849	-0.0205955	0.627967	
-0.00961934	0.119858	0.599022	
0.0558284	-0.130931	0.665335	
0.175	-0.0611989	0.634692	
0.193656	-0.194449	0.720197	
0.171958	-0.1808	0.606406	
0	-0.5	0.7	
-0.0924024	-0.340318	0.735056	
0.00809469	-0.342857	0.777216	
0.0170927	-0.420241	0.640557	
-0.00291132	0.295217	0.703732	
-0.116472	0.275537	0.591143	
-0.0623911	0.203393	0.630433	
-0.108627	0.359588	0.683823	
-0.0328721	-0.370689	1	
-0.0422582	-0.437473	1	
-0.0685138	-0.341556	0.85476	
0.0415638	-0.384519	0.881679	
-0.165932	-0.151801	0.614298	
-0.0312742	-0.12116	0.604392	
-0.10302	-0.108424	0.5	
-0.104309	-0.0175295	0.603853	
0.4284	0.257824	0.795024	
0.415735	0.277785	0.865862	
0.374193	0.331632	0.834643	
0.296877	0.173007	0.841873	
-0.257956	0.116321	1	
-0.291878	0.202294	0.852394	
-0.26105	0.203399	1	
-0.166409	0.150419	0.871568	
0.374193	0.331632	0.834643	
0.296877	0.173007	0.841873	
0.415735	0.277785	0.865862	
0.296275	0.264777	0.897601	
0.0892306	-0.377437	0.5	
0.0584891	-0.437042	0.5	
0.136955	-0.411745	0.5	
0.0545279	-0.357398	0.586263	
0.0353553	-0.335355	0.5	
0.05	-0.3	0.5	
0.0146863	-0.307123	0.5	
-0.0144004	-0.334766	0.569106	
0.112799	-0.33356	1	
0.0248177	-0.313374	1	
0.0124212	-0.23804	0.873103	
0.0415638	-0.384519	0.881679	
0.05	0.3	0.5	
0.12289	0.290081	0.637079	
0.113303	0.327662	0.5	
0.0222826	0.353795	0.558177	
-0.0435837	0.153197	0.818477	
-0.132843	0.148259	0.702998	
-0.166409	0.150419	0.871568	
-0.189541	0.216222	0.763213	
0.296877	0.173007	0.841873	
0.223491	0.0887848	0.734304	
0.350295	0.0306837	0.84806	
0.258755	0.0906035	0.896517	
0.296877	0.173007	0.841873	
0.363042	0.112521	0.74989	
0.350295	0.0306837	0.84806	
0.223491	0.0887848	0.734304	
0.428195	-0.258165	0.798245	
0.460548	-0.194667	0.76567	
0.309086	-0.228865	0.737481	
0.344185	-0.180158	0.894872	
0.0815829	-0.137875	0.832541	
-0.0218405	-0.241762	0.749515	
0.0124212	-0.23804	0.873103	
-0.00860123	-0.101114	0.760951	
-0.0435837	0.153197	0.818477	
-0.113452	0.0682357	0.775647	
-0.166409	0.150419	0.871568	
-0.132843	0.148259	0.702998	
-0.168043	-0.470916	0.699874	
-0.140302	-0.350193	0.62321	
-0.0924024	-0.340318	0.735056	
-0.0656658	-0.406088	0.605213	
-0.0788669	0.0768903	0.663116	
-0.00961934	0.119858	0.599022	
-0.104309	-0.0175295	0.603853	
-0.124864	0.0783821	0.585361	
-0.0699367	-0.141385	0.854754	
0.0124212	-0.23804	0.873103	
-0.0218405	-0.241762	0.749515	
-0.00860123	-0.101114	0.760951	
0.299755	0.133787	0.640165	
0.316638	0.224466	0.734195	
0.428195	0.258165	0.701755	
0.327747	0.217533	0.591075	
0.0545279	-0.357398	0.586263	
-0.0144004	-0.334766	0.569106	
0.00233139	-0.422954	0.5	
0.0170927	-0.420241	0.640557	
0.193656	-0.194449	0.720197	
0.174523	-0.0723952	0.765964	
0.175	-0.0611989	0.634692	
0.0829508	-0.0830948	0.742858	
-0.0144004	0.334766	0.60495	
-0.0623911	0.203393	0.630433	
-0.00291132	0.295217	0.703732	
-0.116472	0.275537	0.591143	
-0.493437	-0.0807477	0.845776	
-0.349811	-0.108212	0.856986	
-0.385513	-0.0181868	0.734694	
-0.404225	0.0311984	0.902579	
0.00233139	-0.422954	0.5	
-0.0144004	-0.334766	0.569106	
-0.0217786	-0.376393	0.5	
-0.0656658	-0.406088	0.605213	
-0.17494	-0.00200732	0.5	
-0.104309	-0.0175295	0.603853	
-0.198991	0.0214385	0.631757	
-0.259968	-0.0294564	0.588658	
-0.327614	0.0876466	0.725276	
-0.369146	0.1248	0.88989	
-0.332366	0.0316806	0.831947	
-0.290365	0.115706	0.809779	
0.0458333	0.00416667	0.749305	
0.086984	-0.0195503	0.879555	
-0.0338793	0.0189553	0.867322	
-0.00860123	-0.101114	0.760951	
0.112799	-0.33356	1	
0.0124212	-0.23804	0.873103	
0.118204	-0.307408	0.828129	
0.0415638	-0.384519	0.881679	
-0.332366	0.0316806	0.831947	
-0.385513	-0.0181868	0.734694	
-0.349811	-0.108212	0.856986	
-0.404225	0.0311984	0.902579	
-0.0435837	0.153197	0.818477	
-0.0949641	0.22959	0.742345	
-0.132843	0.148259	0.702998	
-0.189541	0.216222	0.763213	
-0.0422582	-0.437473	1	
-0.0684459	-0.495293	0.931403	
-0.0685138	-0.341556	0.85476	
0.0415638	-0.384519	0.881679	
0.05	0.3	0.5	
0.0335927	0.239842	0.602535	
0.0222826	0.353795	0.558177	
-0.00291132	0.295217	0.558405	
0.439458	-0.238488	0.575692	
0.450285	-0.217356	0.644698	
0.316097	-0.149618	0.645405	
0.329947	-0.238467	0.603405	
-0.0685138	-0.341556	0.85476	
-0.0924024	-0.340318	0.735056	
-0.171353	-0.469721	0.838334	
-0.194168	-0.311781	0.817902	
-0.26105	0.203399	1	
-0.166409	0.150419	0.871568	
-0.291878	0.202294	0.852394	
-0.172627	0.234526	0.919455	
-0.133333	-0.05	0.5	
-0.104309	-0.0175295	0.603853	
-0.216667	-0.05	0.5	
-0.203542	-0.0724399	0.653763	
-0.0338793	0.0189553	0.867322	
-0.00860123	-0.101114	0.760951	
0.086984	-0.0195503	0.879555	
0.0136102	-0.0944981	0.903895	
-0.00100849	-0.0205955	0.627967	
-0.104309	-0.0175295	0.603853	
-0.0788669	0.0768903	0.663116	
-0.00961934	0.119858	0.599022	
0.299755	0.133787	0.640165	
0.363042	0.112521	0.74989	
0.334766	0.0144004	0.60495	
0.38867	0.101377	0.601055	
0.295217	0.00291132	0.703732	
0.190245	0.0667888	0.625379	
0.175	-0.0611989	0.634692	
0.145586	0.022498	0.744291	
0.0912931	0.252729	0.837007	
0.045063	0.398304	0.900567	
-0.0275533	0.349484	0.845155	
0.0295128	0.209804	0.905326	
-0.257956	0.116321	1	
-0.291878	0.202294	0.852394	
-0.166409	0.150419	0.871568	
-0.230911	0.053351	0.887346	
-0.0338793	0.0189553	0.867322	
-0.00860123	-0.101114	0.760951	
0.0136102	-0.0944981	0.903895	
-0.0730504	-0.0481965	0.809858	
-0.0951035	0.257817	0.5	
-0.116472	0.275537	0.591143	
-0.05	0.216667	0.5	
-0.00291132	0.295217	0.558405	
0.199071	0.201004	0.718052	
0.0942175	0.125111	0.789315	
0.0781685	0.124409	0.653995	
0.223491	0.0887848	0.734304	
-0.0217786	-0.376393	0.5	
0.00233139	-0.422954	0.5	
0.0305468	-0.374084	0.5	
-0.0144004	-0.334766	0.569106	
0.295217	0.00291132	0.703732	
0.334766	0.0144004	0.60495	
0.299755	0.133787	0.640165	
0.363042	0.112521	0.74989	
-0.133333	-0.05	0.5	
-0.165932	-0.151801	0.614298	
-0.104309	-0.0175295	0.603853	
-0.203542	-0.0724399	0.653763	
0.5	0	0.8	
0.350295	0.0306837	0.84806	
0.363042	0.112521	0.74989	
0.393693	-0.0146265	0.683142	
0.450285	0.217356	0.855302	
0.4284	0.257824	0.795024	
0.470916	0.168043	0.800126	
0.296877	0.173007	0.841873	
-0.493437	-0.0807477	0.845776	
-0.385513	-0.0181868	0.734694	
-0.5	0	0.8	
-0.404225	0.0311984	0.902579	
-0.214953	0.122747	0.749953	
-0.166409	0.150419	0.871568	
-0.132843	0.148259	0.702998	
-0.189541	0.216222	0.763213	
-0.198991	0.0214385	0.631757	
-0.14275	-0.0105591	0.697053	
-0.132843	0.148259	0.702998	
-0.249851	0.075261	0.682349	
-0.133333	-0.05	0.5	
-0.216667	-0.05	0.5	
-0.209083	-0.110158	0.5	
-0.203542	-0.0724399	0.653763	
-0.0977967	-0.490343	0.758774	
-0.0924024	-0.340318	0.735056	
-0.0685138	-0.341556	0.85476	
0.00809469	-0.342857	0.777216	
0.199071	0.201004	0.718052	
0.296877	0.173007	0.841873	
0.177848	0.156277	0.877262	
0.223491	0.0887848	0.734304	
-0.214953	0.122747	0.749953	
-0.166409	0.150419	0.871568	
-0.113452	0.0682357	0.775647	
-0.132843	0.148259	0.702998	
0	-0.5	0.7	
-0.0833019	-0.493012	0.655211	
-0.0924024	-0.340318	0.735056	
0.0170927	-0.420241	0.640557	
0.0814864	0.493315	0.847681	
-0.0218361	0.398667	0.744009	
0.106564	0.358516	0.753234	
0.045063	0.398304	0.900567	
-0.230163	-0.183396	0.833896	
-0.349811	-0.108212	0.856986	
-0.278713	-0.14304	1	
-0.243062	-0.0438203	0.910197	
-0.214953	0.122747	0.749953	
-0.132843	0.148259	0.702998	
-0.14275	-0.0105591	0.697053	
-0.249851	0.075261	0.682349	
0.470916	-0.168043	0.699874	
0.316097	-0.149618	0.645405	
0.309086	-0.228865	0.737481	
0.366266	-0.0917065	0.74426	
0.309086	-0.228865	0.737481	
0.366266	-0.0917065	0.74426	
0.282439	-0.104966	0.83613	
0.344185	-0.180158	0.894872	
0.470916	-0.168043	0.699874	
0.316097	-0.149618	0.645405	
0.4284	-0.257824	0.704976	
0.309086	-0.228865	0.737481	
-0.469721	0.171353	0.838334	
-0.369146	0.1248	0.88989	
-0.490343	0.0977967	0.758774	
-0.357252	0.187897	0.739185	
-0.17825	0.257762	0.661466	
-0.0623911	0.203393	0.630433	
-0.116472	0.275537	0.591143	
-0.0949641	0.22959	0.742345	
-0.104344	-0.174965	0.5	
-0.10302	-0.108424	0.5	
-0.165932	-0.151801	0.614298	
-0.0312742	-0.12116	0.604392	
-0.230163	-0.183396	0.833896	
-0.278713	-0.14304	1	
-0.170347	-0.112486	0.899727	
-0.243062	-0.0438203	0.910197	
0.168734	-0.470668	0.798219	
0.118204	-0.307408	0.828129	
0.0848114	-0.374635	0.706588	
0.0415638	-0.384519	0.881679	
0.223491	0.0887848	0.734304	
0.258755	0.0906035	0.896517	
0.190324	0.0393932	0.833873	
0.255406	-0.0213367	0.790897	
0.0916667	9.90691e-18	0.5	
0.0877437	0.0690174	0.581458	
0.0851262	-0.069993	0.591553	
0.21299	-0.0111081	0.575703	
0.0458333	0.00416667	0.749305	
-0.0338793	0.0189553	0.867322	
0.0378724	0.109427	0.891855	
-0.0173799	0.0733829	0.771387	
-0.17825	0.257762	0.661466	
-0.116472	0.275537	0.591143	
-0.108627	0.359588	0.683823	
-0.0949641	0.22959	0.742345	
0.193656	-0.194449	0.720197	
0.0850581	-0.218776	0.727528	
0.118204	-0.307408	0.828129	
0.200293	-0.156985	0.812694	
0.12289	0.290081	0.637079	
0.05	0.3	0.5	
0.0335927	0.239842	0.602535	
0.0222826	0.353795	0.558177	
0.0458333	0.00416667	0.749305	
0.086984	-0.0195503	0.879555	
0.0942175	0.125111	0.789315	
0.0378724	0.109427	0.891855	
-0.19595	0.28972	0.5	
-0.116472	0.275537	0.591143	
-0.21408	0.346313	0.633756	
-0.181479	0.221098	0.584819	
-0.411745	-0.136955	0.5	
-0.377437	-0.0892306	0.5	
-0.437042	-0.0584891	0.5	
-0.357398	-0.0545279	0.581884	
-0.0353553	0.335355	0.5	
-0.0144004	0.334766	0.60495	
-0.0722049	0.334139	0.5	
-0.00291132	0.295217	0.558405	
0.4284	0.257824	0.795024	
0.450285	0.217356	0.855302	
0.415735	0.277785	0.865862	
0.296877	0.173007	0.841873	
-0.0623911	0.203393	0.630433	
-0.179918	0.142525	0.617274	
-0.139117	0.156778	0.5	
-0.124864	0.0783821	0.585361	
0.0815829	-0.137875	0.832541	
0.0124212	-0.23804	0.873103	
-0.0699367	-0.141385	0.854754	
-0.00860123	-0.101114	0.760951	
-0.0338793	0.0189553	0.867322	
0.0458333	0.00416667	0.749305	
-0.00860123	-0.101114	0.760951	
-0.0730504	-0.0481965	0.809858	
0.112799	-0.33356	1	
0.0248177	-0.313374	1	
0.0943468	-0.245334	1	
0.0124212	-0.23804	0.873103	
0.470916	-0.168043	0.699874	
0.450285	-0.217356	0.644698	
0.4284	-0.257824	0.704976	
0.316097	-0.149618	0.645405	
2.83347e-18	-1.91537e-18	0.5	
-0.05	0.05	0.5	
-0.00100849	-0.0205955	0.627967	
-0.00961934	0.119858	0.599022	
0.299755	0.133787	0.640165	
0.363042	0.112521	0.74989	
0.469721	0.171353	0.661666	
0.316638	0.224466	0.734195	
0.0851262	-0.069993	0.591553	
0.0877437	0.0690174	0.581458	
0.0989017	0.0145443	0.654463	
0.21299	-0.0111081	0.575703	
-0.198991	0.0214385	0.631757	
-0.0788669	0.0768903	0.663116	
-0.132843	0.148259	0.702998	
-0.14275	-0.0105591	0.697053	
-0.376393	0.0217786	0.5	
-0.334766	0.0144004	0.563203	
-0.359322	0.070805	0.5	
-0.416699	0.00631676	0.584325	
0.0458333	0.00416667	0.749305	
-0.0338793	0.0189553	0.867322	
0.086984	-0.0195503	0.879555	
0.0378724	0.109427	0.891855	
0.199071	0.201004	0.718052	
0.0912931	0.252729	0.837007	
0.0942175	0.125111	0.789315	
0.177848	0.156277	0.877262	
0.350295	0.0306837	0.84806	
0.258755	0.0906035	0.896517	
0.223491	0.0887848	0.734304	
0.255406	-0.0213367	0.790897	
0	0.5	0.8	
-0.0218361	0.398667	0.744009	
0.0814864	0.493315	0.847681	
0.045063	0.398304	0.900567	
-0.133333	-0.05	0.5	
-0.209083	-0.110158	0.5	
-0.165932	-0.151801	0.614298	
-0.203542	-0.0724399	0.653763	
-0.214953	0.122747	0.749953	
-0.220651	0.0125647	0.740031	
-0.113452	0.0682357	0.775647	
-0.230911	0.053351	0.887346	
0.199071	0.201004	0.718052	
0.223611	0.287945	0.822031	
0.0912931	0.252729	0.837007	
0.177848	0.156277	0.877262	
0.469721	0.171353	0.661666	
0.299755	0.133787	0.640165	
0.428195	0.258165	0.701755	
0.327747	0.217533	0.591075	
-0.490343	0.0977967	0.758774	
-0.493389	0.0810399	0.85285	
-0.332366	0.0316806	0.831947	
-0.369146	0.1248	0.88989	
0.376757	0.328716	0.746468	
0.316638	0.224466	0.734195	
0.223611	0.287945	0.822031	
0.198642	0.311382	0.714561	
0.19595	-0.28972	0.5	
0.240952	-0.280119	0.617373	
0.175555	-0.22133	0.5	
0.116472	-0.275537	0.565587	
-0.0144004	0.334766	0.60495	
-0.116472	0.275537	0.591143	
-0.00291132	0.295217	0.703732	
-0.108627	0.359588	0.683823	
-0.171353	-0.469721	0.838334	
-0.0924024	-0.340318	0.735056	
-0.194667	-0.460548	0.76567	
-0.194168	-0.311781	0.817902	
0.316097	-0.149618	0.645405	
0.240952	-0.280119	0.617373	
0.193656	-0.194449	0.720197	
0.171958	-0.1808	0.606406	
0.317206	0.386498	0.799678	
0.376757	0.328716	0.746468	
0.223611	0.287945	0.822031	
0.198642	0.311382	0.714561	
0.112799	-0.33356	1	
0.0943468	-0.245334	1	
0.118204	-0.307408	0.828129	
0.0124212	-0.23804	0.873103	
0.0815829	-0.137875	0.832541	
0.0124212	-0.23804	0.873103	
0.0712814	-0.153152	1	
0.0136102	-0.0944981	0.903895	
-0.0232782	-0.127584	1	
0.00183684	-0.222331	1	
-0.0699367	-0.141385	0.854754	
0.0124212	-0.23804	0.873103	
0.172599	0.285692	0.5	
0.185114	0.178816	0.60757	
0.253284	0.276753	0.625058	
0.112623	0.215093	0.576525	
0.0712814	-0.153152	1	
0.0124212	-0.23804	0.873103	
0.0815829	-0.137875	0.832541	
0.153768	-0.209711	0.888749	
0.172599	0.285692	0.5	
0.166493	0.210048	0.5	
0.185114	0.178816	0.60757	
0.112623	0.215093	0.576525	
0.428195	0.258165	0.701755	
0.299755	0.133787	0.640165	
0.469721	0.171353	0.661666	
0.316638	0.224466	0.734195	
-0.139117	0.156778	0.5	
-0.179918	0.142525	0.617274	
-0.0623911	0.203393	0.630433	
-0.181479	0.221098	0.584819	
-0.163252	0.278732	0.833643	
-0.0435837	0.153197	0.818477	
-0.0949641	0.22959	0.742345	
-0.0640422	0.245911	0.888875	
-0.163252	0.278732	0.833643	
-0.166409	0.150419	0.871568	
-0.0435837	0.153197	0.818477	
-0.0640422	0.245911	0.888875	
0.316097	-0.149618	0.645405	
0.272064	-0.0681442	0.59838	
0.251569	-0.0890044	0.696136	
0.393693	-0.0146265	0.683142	
0.0781685	0.124409	0.653995	
0.223491	0.0887848	0.734304	
0.0942175	0.125111	0.789315	
0.145586	0.022498	0.744291	
-0.198991	0.0214385	0.631757	
-0.259968	-0.0294564	0.588658	
-0.104309	-0.0175295	0.603853	
-0.203542	-0.0724399	0.653763	
0.25658	0.429146	0.83124	
0.106564	0.358516	0.753234	
0.223611	0.287945	0.822031	
0.138051	0.361812	0.873206	
0.334766	0.0144004	0.60495	
0.38867	0.101377	0.601055	
0.363042	0.112521	0.74989	
0.393693	-0.0146265	0.683142	
0.0815829	-0.137875	0.832541	
-0.0218405	-0.241762	0.749515	
-0.00860123	-0.101114	0.760951	
0.0850581	-0.218776	0.727528	
-0.133333	-0.05	0.5	
-0.165932	-0.151801	0.614298	
-0.10302	-0.108424	0.5	
-0.104309	-0.0175295	0.603853	
0.450285	0.217356	0.855302	
0.296877	0.173007	0.841873	
0.470916	0.168043	0.800126	
0.370295	0.150924	0.909678	
0.0781685	0.124409	0.653995	
0.0877437	0.0690174	0.581458	
0.05	0.133333	0.5	
0.112623	0.215093	0.576525	
0.118204	-0.307408	0.828129	
0.0848114	-0.374635	0.706588	
0.0415638	-0.384519	0.881679	
0.00809469	-0.342857	0.777216	
0.0458333	0.00416667	0.749305	
0.0378724	0.109427	0.891855	
0.0942175	0.125111	0.789315	
-0.0173799	0.0733829	0.771387	
0.39071	-0.0800656	0.604798	
0.272064	-0.0681442	0.59838	
0.316097	-0.149618	0.645405	
0.393693	-0.0146265	0.683142	
0.5	0	0.8	
0.366266	-0.0917065	0.74426	
0.350295	0.0306837	0.84806	
0.393693	-0.0146265	0.683142	
-0.307291	0.177008	0.64695	
-0.27609	0.255234	0.739837	
-0.374193	0.331632	0.665357	
-0.357252	0.187897	0.739185	
0.0781685	0.124409	0.653995	
0.05	0.133333	0.5	
-0.00961934	0.119858	0.599022	
0.112623	0.215093	0.576525	
0.334766	0.0144004	0.60495	
0.295217	0.00291132	0.703732	
0.281543	0.0750159	0.578871	
0.21299	-0.0111081	0.575703	
0.234106	0.240455	0.5	
0.172599	0.285692	0.5	
0.166493	0.210048	0.5	
0.185114	0.178816	0.60757	
-0.214953	0.122747	0.749953	
-0.132843	0.148259	0.702998	
-0.113452	0.0682357	0.775647	
-0.14275	-0.0105591	0.697053	
-0.163252	0.278732	0.833643	
-0.27609	0.255234	0.739837	
-0.25253	0.295971	0.897838	
-0.195673	0.329094	0.742315	
0.282439	-0.104966	0.83613	
0.251569	-0.0890044	0.696136	
0.309086	-0.228865	0.737481	
0.200293	-0.156985	0.812694	
0.334766	0.0144004	0.60495	
0.363042	0.112521	0.74989	
0.295217	0.00291132	0.703732	
0.393693	-0.0146265	0.683142	
-0.133333	-0.05	0.5	
-0.17494	-0.00200732	0.5	
-0.216667	-0.05	0.5	
-0.104309	-0.0175295	0.603853	
-0.00291132	0.295217	0.703732	
-0.108627	0.359588	0.683823	
-0.0623911	0.203393	0.630433	
-0.0949641	0.22959	0.742345	
0.247057	0.434698	0.750499	
0.223611	0.287945	0.822031	
0.25658	0.429146	0.83124	
0.106564	0.358516	0.753234	
-0.316847	0.386792	0.801384	
-0.25253	0.295971	0.897838	
-0.27609	0.255234	0.739837	
-0.195673	0.329094	0.742315	
0.240952	-0.280119	0.617373	
0.171958	-0.1808	0.606406	
0.316097	-0.149618	0.645405	
0.24957	-0.148488	0.574982	
-0.313218	-0.202403	0.699795	
-0.267754	-0.225502	0.603013	
-0.429146	-0.25658	0.66876	
-0.370241	-0.156649	0.594441	
0.0912931	0.252729	0.837007	
0.0401436	0.291204	1	
0.045063	0.398304	0.900567	
0.0295128	0.209804	0.905326	
-0.257956	0.116321	1	
-0.26105	0.203399	1	
-0.18644	0.1823	1	
-0.166409	0.150419	0.871568	
-0.0275533	0.349484	0.845155	
0.045063	0.398304	0.900567	
0.0401436	0.291204	1	
0.0295128	0.209804	0.905326	
0.450285	-0.217356	0.644698	
0.316097	-0.149618	0.645405	
0.470916	-0.168043	0.699874	
0.39071	-0.0800656	0.604798	
-0.3	-0.05	0.5	
-0.307123	-0.0146863	0.5	
-0.335355	-0.0353553	0.5	
-0.334766	0.0144004	0.563203	
0.199071	0.201004	0.718052	
0.296877	0.173007	0.841873	
0.223611	0.287945	0.822031	
0.177848	0.156277	0.877262	
-0.257956	0.116321	1	
-0.291878	0.202294	0.852394	
-0.230911	0.053351	0.887346	
-0.369146	0.1248	0.88989	
-0.230163	-0.183396	0.833896	
-0.194168	-0.311781	0.817902	
-0.190903	-0.246146	0.678266	
-0.125401	-0.180396	0.755134	
0.247868	0.146306	1	
0.296877	0.173007	0.841873	
0.177848	0.156277	0.877262	
0.296275	0.264777	0.897601	
-0.104344	-0.174965	0.5	
-0.165932	-0.151801	0.614298	
-0.0717603	-0.216541	0.630077	
-0.0312742	-0.12116	0.604392	
0.175	-0.00200732	0.5	
0.0916667	9.90691e-18	0.5	
0.133333	-0.05	0.5	
0.21299	-0.0111081	0.575703	
0.0815829	-0.137875	0.832541	
0.0712814	-0.153152	1	
0.176835	-0.0957025	0.888175	
0.0136102	-0.0944981	0.903895	
-0.194667	-0.460548	0.76567	
-0.194168	-0.311781	0.817902	
-0.0924024	-0.340318	0.735056	
-0.191043	-0.351595	0.71168	
0.118204	-0.307408	0.828129	
0.0124212	-0.23804	0.873103	
0.0815829	-0.137875	0.832541	
0.0850581	-0.218776	0.727528	
-0.0722049	0.334139	0.5	
-0.0144004	0.334766	0.60495	
-0.116472	0.275537	0.591143	
-0.00291132	0.295217	0.558405	
0.295217	0.00291132	0.703732	
0.175	-0.0611989	0.634692	
0.251569	-0.0890044	0.696136	
0.145586	0.022498	0.744291	
-0.0144004	-0.334766	0.569106	
-0.0656658	-0.406088	0.605213	
0.00233139	-0.422954	0.5	
0.0170927	-0.420241	0.640557	
-0.281543	-0.0750159	0.710149	
-0.334766	0.0144004	0.629791	
-0.198991	0.0214385	0.631757	
-0.259968	-0.0294564	0.588658	
-0.0168063	-0.279144	0.5	
-0.0144004	-0.334766	0.569106	
0.0232632	-0.246364	0.605213	
-0.0912866	-0.293514	0.577692	
-0.0232782	-0.127584	1	
0.0124212	-0.23804	0.873103	
-0.0699367	-0.141385	0.854754	
0.0136102	-0.0944981	0.903895	
-0.0977967	-0.490343	0.758774	
0	-0.5	0.7	
-0.0924024	-0.340318	0.735056	
0.00809469	-0.342857	0.777216	
0.0545279	-0.357398	0.586263	
0.159651	-0.364489	0.598434	
0.0848114	-0.374635	0.706588	
0.0170927	-0.420241	0.640557	
-0.214953	0.122747	0.749953	
-0.14275	-0.0105591	0.697053	
-0.220651	0.0125647	0.740031	
-0.249851	0.075261	0.682349	
0.300884	0.198715	1	
0.296877	0.173007	0.841873	
0.247868	0.146306	1	
0.296275	0.264777	0.897601	
-0.0218405	-0.241762	0.749515	
0.0815829	-0.137875	0.832541	
0.0124212	-0.23804	0.873103	
0.0850581	-0.218776	0.727528	
0.350295	0.0306837	0.84806	
0.366266	-0.0917065	0.74426	
0.5	0	0.8	
0.382055	-0.0743662	0.891735	
0.327662	-0.113303	0.5	
0.285692	-0.172599	0.5	
0.316097	-0.149618	0.645405	
0.24957	-0.148488	0.574982	
0.199071	0.201004	0.718052	
0.177848	0.156277	0.877262	
0.0942175	0.125111	0.789315	
0.223491	0.0887848	0.734304	
0.0458333	0.00416667	0.749305	
0.0942175	0.125111	0.789315	
0.086984	-0.0195503	0.879555	
0.145586	0.022498	0.744291	
0.190245	0.0667888	0.625379	
0.223491	0.0887848	0.734304	
0.0781685	0.124409	0.653995	
0.145586	0.022498	0.744291	
-0.278713	-0.14304	1	
-0.349811	-0.108212	0.856986	
-0.230163	-0.183396	0.833896	
-0.318327	-0.225041	0.895751	
-0.18644	0.1823	1	
-0.166409	0.150419	0.871568	
-0.26105	0.203399	1	
-0.172627	0.234526	0.919455	
-0.05	0.133333	0.5	
-0.0623911	0.203393	0.630433	
-0.139117	0.156778	0.5	
-0.124864	0.0783821	0.585361	
0.172599	0.285692	0.5	
0.253284	0.276753	0.625058	
0.12289	0.290081	0.637079	
0.112623	0.215093	0.576525	
0.105455	0.255435	0.5	
0.113303	0.327662	0.5	
0.05	0.3	0.5	
0.12289	0.290081	0.637079	
0.415735	0.277785	0.865862	
0.296877	0.173007	0.841873	
0.450285	0.217356	0.855302	
0.370295	0.150924	0.909678	
-0.0722049	0.334139	0.5	
-0.0144004	0.334766	0.60495	
-0.0353553	0.335355	0.5	
-0.0376575	0.408608	0.57511	
-0.0218405	-0.241762	0.749515	
0.0124212	-0.23804	0.873103	
0.118204	-0.307408	0.828129	
0.0850581	-0.218776	0.727528	
0.0916667	9.90691e-18	0.5	
0.0851262	-0.069993	0.591553	
0.133333	-0.05	0.5	
0.21299	-0.0111081	0.575703	
0.193656	-0.194449	0.720197	
0.309086	-0.228865	0.737481	
0.251569	-0.0890044	0.696136	
0.200293	-0.156985	0.812694	
-0.0977967	-0.490343	0.758774	
-0.0685138	-0.341556	0.85476	
0	-0.5	0.8	
0.00809469	-0.342857	0.777216	
0.350295	0.0306837	0.84806	
0.223491	0.0887848	0.734304	
0.363042	0.112521	0.74989	
0.255406	-0.0213367	0.790897	
-0.216667	-0.05	0.5	
-0.259968	-0.0294564	0.588658	
-0.209083	-0.110158	0.5	
-0.203542	-0.0724399	0.653763	
0.193656	-0.194449	0.720197	
0.0850581	-0.218776	0.727528	
0.200293	-0.156985	0.812694	
0.0829508	-0.0830948	0.742858	
0.493012	0.0833019	0.844789	
0.363042	0.112521	0.74989	
0.350295	0.0306837	0.84806	
0.370295	0.150924	0.909678	
-0.242822	0.437078	0.847009	
-0.163252	0.278732	0.833643	
-0.25253	0.295971	0.897838	
-0.195673	0.329094	0.742315	
0.00233139	-0.422954	0.5	
0.0545279	-0.357398	0.586263	
0.0305468	-0.374084	0.5	
-0.0144004	-0.334766	0.569106	
-0.0704482	0.495012	0.928155	
-0.0275533	0.349484	0.845155	
-0.0372406	0.417791	1	
-0.124209	0.359991	0.89696	
0.316847	-0.386792	0.801384	
0.192404	-0.317473	0.724143	
0.253273	-0.249599	0.843605	
0.309086	-0.228865	0.737481	
-0.070805	-0.359322	0.5	
-0.113303	-0.327662	0.5	
-0.140302	-0.350193	0.62321	
-0.0912866	-0.293514	0.577692	
0.317206	-0.386498	0.700322	
0.192404	-0.317473	0.724143	
0.316847	-0.386792	0.801384	
0.309086	-0.228865	0.737481	
0.0335927	0.239842	0.602535	
-0.00961934	0.119858	0.599022	
0.05	0.133333	0.5	
0.112623	0.215093	0.576525	
-0.214953	0.122747	0.749953	
-0.113452	0.0682357	0.775647	
-0.166409	0.150419	0.871568	
-0.230911	0.053351	0.887346	
-0.490343	0.0977967	0.758774	
-0.327614	0.0876466	0.725276	
-0.332366	0.0316806	0.831947	
-0.385513	-0.0181868	0.734694	
0.317206	-0.386498	0.700322	
0.240952	-0.280119	0.617373	
0.192404	-0.317473	0.724143	
0.309086	-0.228865	0.737481	
0.0850581	-0.218776	0.727528	
0.153768	-0.209711	0.888749	
0.118204	-0.307408	0.828129	
0.200293	-0.156985	0.812694	
-0.05	-0.216667	0.5	
0.00200732	-0.17494	0.5	
-0.0717603	-0.216541	0.630077	
0.0232632	-0.246364	0.605213	
0.414991	0.0495125	1	
0.350295	0.0306837	0.84806	
0.5	0	0.9	
0.382055	-0.0743662	0.891735	
0.112799	-0.33356	1	
0.125573	-0.41396	1	
0.0415638	-0.384519	0.881679	
0.205413	-0.339549	0.892186	
-0.190903	-0.246146	0.678266	
-0.230163	-0.183396	0.833896	
-0.232732	-0.157842	0.680234	
-0.307536	-0.237004	0.795298	
0.363042	0.112521	0.74989	
0.223491	0.0887848	0.734304	
0.295217	0.00291132	0.703732	
0.255406	-0.0213367	0.790897	
0.0815829	-0.137875	0.832541	
0.200293	-0.156985	0.812694	
0.0850581	-0.218776	0.727528	
0.0829508	-0.0830948	0.742858	
0.0815829	-0.137875	0.832541	
0.153768	-0.209711	0.888749	
0.0850581	-0.218776	0.727528	
0.200293	-0.156985	0.812694	
0.086984	-0.0195503	0.879555	
-0.00860123	-0.101114	0.760951	
0.0458333	0.00416667	0.749305	
0.0829508	-0.0830948	0.742858	
-0.275537	-0.116472	0.607416	
-0.357398	-0.0545279	0.581884	
-0.334766	0.0144004	0.629791	
-0.259968	-0.0294564	0.588658	
-0.05	0.216667	0.5	
-0.116472	0.275537	0.591143	
-0.0623911	0.203393	0.630433	
-0.00291132	0.295217	0.558405	
-0.0372406	0.417791	1	
-0.0275533	0.349484	0.845155	
-0.0704482	0.495012	0.928155	
0.045063	0.398304	0.900567	
0.282439	-0.104966	0.83613	
0.366266	-0.0917065	0.74426	
0.309086	-0.228865	0.737481	
0.251569	-0.0890044	0.696136	
-0.0810399	-0.493389	0.85285	
0	-0.5	0.8	
-0.0977967	-0.490343	0.758774	
-0.0685138	-0.341556	0.85476	
0.12289	0.290081	0.637079	
0.0827402	0.389706	0.606734	
0.106564	0.358516	0.753234	
0.19252	0.354505	0.600343	
0.240952	-0.280119	0.617373	
0.171958	-0.1808	0.606406	
0.175555	-0.22133	0.5	
0.116472	-0.275537	0.565587	
0.12289	0.290081	0.637079	
0.0827402	0.389706	0.606734	
0.113303	0.327662	0.5	
0.0222826	0.353795	0.558177	
0.316097	-0.149618	0.645405	
0.171958	-0.1808	0.606406	
0.251569	-0.0890044	0.696136	
0.24957	-0.148488	0.574982	
0.0912931	0.252729	0.837007	
0.0401436	0.291204	1	
0.138051	0.361812	0.873206	
0.045063	0.398304	0.900567	
0.199071	0.201004	0.718052	
0.0839731	0.219451	0.721314	
0.0912931	0.252729	0.837007	
0.198642	0.311382	0.714561	
0.190324	0.0393932	0.833873	
0.086984	-0.0195503	0.879555	
0.0942175	0.125111	0.789315	
0.145586	0.022498	0.744291	
-0.0977967	-0.490343	0.758774	
-0.171353	-0.469721	0.838334	
-0.0685138	-0.341556	0.85476	
-0.0924024	-0.340318	0.735056	
0.469721	-0.171353	0.838334	
0.366266	-0.0917065	0.74426	
0.460548	-0.194667	0.76567	
0.344185	-0.180158	0.894872	
0.193656	-0.194449	0.720197	
0.240952	-0.280119	0.617373	
0.316097	-0.149618	0.645405	
0.309086	-0.228865	0.737481	
-0.113452	0.0682357	0.775647	
-0.220651	0.0125647	0.740031	
-0.164797	-0.0240318	0.828417	
-0.230911	0.053351	0.887346	
0.190245	0.0667888	0.625379	
0.281543	0.0750159	0.578871	
0.295217	0.00291132	0.703732	
0.21299	-0.0111081	0.575703	
-0.0328721	-0.370689	1	
-0.0685138	-0.341556	0.85476	
0.0248177	-0.313374	1	
0.0415638	-0.384519	0.881679	
-0.00100849	-0.0205955	0.627967	
-0.0312742	-0.12116	0.604392	
0.0558284	-0.130931	0.665335	
-0.026527	-0.165458	0.694773	
0.05	0.133333	0.5	
0.0781685	0.124409	0.653995	
-0.00961934	0.119858	0.599022	
0.0877437	0.0690174	0.581458	
0.0146863	-0.307123	0.5	
-0.0144004	-0.334766	0.569106	
0.05	-0.3	0.5	
0.0232632	-0.246364	0.605213	
-0.281543	-0.0750159	0.710149	
-0.198991	0.0214385	0.631757	
-0.334766	0.0144004	0.629791	
-0.249851	0.075261	0.682349	
-0.168043	-0.470916	0.699874	
-0.0924024	-0.340318	0.735056	
-0.0833019	-0.493012	0.655211	
-0.0656658	-0.406088	0.605213	
0.0815829	-0.137875	0.832541	
-0.00860123	-0.101114	0.760951	
0.086984	-0.0195503	0.879555	
0.0829508	-0.0830948	0.742858	
0.363042	0.112521	0.74989	
0.38867	0.101377	0.601055	
0.493389	0.0810399	0.64715	
0.393693	-0.0146265	0.683142	
0.05	0.3	0.5	
0.105455	0.255435	0.5	
0.12289	0.290081	0.637079	
0.112623	0.215093	0.576525	
-0.332366	0.0316806	0.831947	
-0.404225	0.0311984	0.902579	
-0.349811	-0.108212	0.856986	
-0.243062	-0.0438203	0.910197	
-0.0969866	-0.088866	0.682079	
-0.0312742	-0.12116	0.604392	
-0.00100849	-0.0205955	0.627967	
-0.026527	-0.165458	0.694773	
2.83347e-18	-1.91537e-18	0.5	
-4.34906e-18	0.0906746	0.5	
-0.05	0.05	0.5	
-0.00961934	0.119858	0.599022	
0.4284	0.257824	0.795024	
0.296877	0.173007	0.841873	
0.374193	0.331632	0.834643	
0.316638	0.224466	0.734195	
-0.0788669	0.0768903	0.663116	
-0.179918	0.142525	0.617274	
-0.198991	0.0214385	0.631757	
-0.132843	0.148259	0.702998	
0.193656	-0.194449	0.720197	
0.118204	-0.307408	0.828129	
0.253273	-0.249599	0.843605	
0.200293	-0.156985	0.812694	
0.493389	-0.0810399	0.85285	
0.5	0	0.8	
0.366266	-0.0917065	0.74426	
0.382055	-0.0743662	0.891735	
0.199071	0.201004	0.718052	
0.0942175	0.125111	0.789315	
0.0912931	0.252729	0.837007	
0.0839731	0.219451	0.721314	
0.106564	0.358516	0.753234	
-0.0218361	0.398667	0.744009	
-0.0275533	0.349484	0.845155	
0.045063	0.398304	0.900567	
0.14072	-0.0839746	1	
0.176835	-0.0957025	0.888175	
0.0712814	-0.153152	1	
0.0136102	-0.0944981	0.903895	
0.0353553	-0.335355	0.5	
0	-0.35	0.5	
0.0305468	-0.374084	0.5	
-0.0144004	-0.334766	0.569106	
0.0248177	-0.313374	1	
-0.0685138	-0.341556	0.85476	
0.0124212	-0.23804	0.873103	
0.0415638	-0.384519	0.881679	
0.247868	0.146306	1	
0.177848	0.156277	0.877262	
0.231243	0.24169	1	
0.296275	0.264777	0.897601	
0.317233	-0.386476	0.909527	
0.268393	-0.334301	1	
0.253273	-0.249599	0.843605	
0.205413	-0.339549	0.892186	
-0.0722049	0.334139	0.5	
-0.101011	0.298593	0.5	
-0.05	0.3	0.5	
-0.116472	0.275537	0.591143	
-0.190903	-0.246146	0.678266	
-0.230163	-0.183396	0.833896	
-0.125401	-0.180396	0.755134	
-0.232732	-0.157842	0.680234	
0.296877	0.173007	0.841873	
0.374193	0.331632	0.834643	
0.316638	0.224466	0.734195	
0.296275	0.264777	0.897601	
0.295217	0.00291132	0.703732	
0.251569	-0.0890044	0.696136	
0.272064	-0.0681442	0.59838	
0.393693	-0.0146265	0.683142	
-0.05	-0.216667	0.5	
-0.0717603	-0.216541	0.630077	
0.00200732	-0.17494	0.5	
-0.0312742	-0.12116	0.604392	
-0.332433	-0.136577	0.5	
-0.275537	-0.116472	0.607416	
-0.298593	-0.101011	0.5	
-0.357398	-0.0545279	0.581884	
-0.261345	-0.230036	1	
-0.230163	-0.183396	0.833896	
-0.127689	-0.241885	0.89237	
-0.258725	-0.308783	0.897858	
-0.214953	0.122747	0.749953	
-0.113452	0.0682357	0.775647	
-0.220651	0.0125647	0.740031	
-0.14275	-0.0105591	0.697053	
-0.00291132	0.295217	0.703732	
0.12289	0.290081	0.637079	
-0.0144004	0.334766	0.60495	
0.0827402	0.389706	0.606734	
0.0815829	-0.137875	0.832541	
0.086984	-0.0195503	0.879555	
-0.00860123	-0.101114	0.760951	
0.0136102	-0.0944981	0.903895	
0.0815829	-0.137875	0.832541	
0.176835	-0.0957025	0.888175	
0.0712814	-0.153152	1	
0.153768	-0.209711	0.888749	
0.469721	0.171353	0.661666	
0.38867	0.101377	0.601055	
0.299755	0.133787	0.640165	
0.327747	0.217533	0.591075	
-0.05	0.133333	0.5	
-0.00961934	0.119858	0.599022	
-0.0623911	0.203393	0.630433	
-0.124864	0.0783821	0.585361	
-0.349811	-0.108212	0.856986	
-0.404225	0.0311984	0.902579	
-0.302044	-0.0506462	1	
-0.243062	-0.0438203	0.910197	
0.125573	-0.41396	1	
0.153328	-0.47591	0.90763	
0.0415638	-0.384519	0.881679	
0.205413	-0.339549	0.892186	
-0.0168063	-0.279144	0.5	
0.0232632	-0.246364	0.605213	
-0.05	-0.216667	0.5	
-0.0912866	-0.293514	0.577692	
0.00200732	-0.17494	0.5	
-0.0717603	-0.216541	0.630077	
0.0232632	-0.246364	0.605213	
-0.0312742	-0.12116	0.604392	
0.193656	-0.194449	0.720197	
0.316097	-0.149618	0.645405	
0.171958	-0.1808	0.606406	
0.251569	-0.0890044	0.696136	
-0.19595	0.28972	0.5	
-0.116472	0.275537	0.591143	
-0.129243	0.372125	0.588708	
-0.21408	0.346313	0.633756	
0.0558284	-0.130931	0.665335	
-0.00860123	-0.101114	0.760951	
-0.00100849	-0.0205955	0.627967	
-0.026527	-0.165458	0.694773	
0.174965	-0.104344	0.5	
0.171958	-0.1808	0.606406	
0.175	-0.0611989	0.634692	
0.0851262	-0.069993	0.591553	
0.470916	0.168043	0.800126	
0.363042	0.112521	0.74989	
0.493012	0.0833019	0.844789	
0.370295	0.150924	0.909678	
0.4284	0.257824	0.795024	
0.470916	0.168043	0.800126	
0.296877	0.173007	0.841873	
0.363042	0.112521	0.74989	
0.156778	0.139117	0.5	
0.10302	0.108424	0.5	
0.0877437	0.0690174	0.581458	
0.112623	0.215093	0.576525	
0.118204	-0.307408	0.828129	
-0.0218405	-0.241762	0.749515	
0.0850581	-0.218776	0.727528	
0.00809469	-0.342857	0.777216	
-0.268365	-0.14329	0.5	
-0.332433	-0.136577	0.5	
-0.28972	-0.19595	0.5	
-0.275537	-0.116472	0.607416	
0.247057	0.434698	0.750499	
0.223611	0.287945	0.822031	
0.106564	0.358516	0.753234	
0.198642	0.311382	0.714561	
-0.172599	-0.285692	0.5	
-0.2387	-0.321065	0.626825	
-0.140302	-0.350193	0.62321	
-0.172932	-0.247597	0.585974	
-0.281543	-0.0750159	0.710149	
-0.230163	-0.183396	0.833896	
-0.266891	-0.0501392	0.812706	
-0.369358	-0.124566	0.75116	
-0.198991	0.0214385	0.631757	
-0.132843	0.148259	0.702998	
-0.179918	0.142525	0.617274	
-0.249851	0.075261	0.682349	
-0.332433	-0.136577	0.5	
-0.298593	-0.101011	0.5	
-0.334139	-0.0722049	0.5	
-0.357398	-0.0545279	0.581884	
-0.0969866	-0.088866	0.682079	
-0.00100849	-0.0205955	0.627967	
-0.00860123	-0.101114	0.760951	
-0.026527	-0.165458	0.694773	
0.253273	-0.249599	0.843605	
0.192404	-0.317473	0.724143	
0.316847	-0.386792	0.801384	
0.205413	-0.339549	0.892186	
0.253284	0.276753	0.625058	
0.185114	0.178816	0.60757	
0.12289	0.290081	0.637079	
0.112623	0.215093	0.576525	
-0.298593	-0.101011	0.5	
-0.275537	-0.116472	0.607416	
-0.257817	-0.0951035	0.5	
-0.259968	-0.0294564	0.588658	
0.193656	-0.194449	0.720197	
0.253273	-0.249599	0.843605	
0.118204	-0.307408	0.828129	
0.192404	-0.317473	0.724143	
0.118204	-0.307408	0.828129	
0.0124212	-0.23804	0.873103	
0.0943468	-0.245334	1	
0.153768	-0.209711	0.888749	
0.168734	-0.470668	0.798219	
0.0848114	-0.374635	0.706588	
0.118204	-0.307408	0.828129	
0.192404	-0.317473	0.724143	
0.193656	-0.194449	0.720197	
0.0558284	-0.130931	0.665335	
0.0850581	-0.218776	0.727528	
0.0829508	-0.0830948	0.742858	
0.175	-0.0611989	0.634692	
0.190245	0.0667888	0.625379	
0.295217	0.00291132	0.703732	
0.21299	-0.0111081	0.575703	
0.495101	0.0698189	0.927621	
0.350295	0.0306837	0.84806	
0.414991	0.0495125	1	
0.370295	0.150924	0.909678	
0.190324	0.0393932	0.833873	
0.086984	-0.0195503	0.879555	
0.176835	-0.0957025	0.888175	
0.130088	0.0681493	0.912467	
-0.190903	-0.246146	0.678266	
-0.232732	-0.157842	0.680234	
-0.313218	-0.202403	0.699795	
-0.307536	-0.237004	0.795298	
-0.291878	0.202294	0.852394	
-0.27609	0.255234	0.739837	
-0.380873	0.323938	0.847739	
-0.25253	0.295971	0.897838	
-0.125401	-0.180396	0.755134	
-0.170347	-0.112486	0.899727	
-0.0699367	-0.141385	0.854754	
-0.182236	-0.0903375	0.74647	
-0.00291132	0.295217	0.703732	
0.106564	0.358516	0.753234	
0.12289	0.290081	0.637079	
0.0827402	0.389706	0.606734	
-0.0638367	-0.295761	1	
0.0248177	-0.313374	1	
-0.0328721	-0.370689	1	
-0.0685138	-0.341556	0.85476	
-0.0353553	0.335355	0.5	
-0.0131388	0.31384	0.5	
0	0.35	0.5	
-0.00291132	0.295217	0.558405	
0.199071	0.201004	0.718052	
0.0912931	0.252729	0.837007	
0.223611	0.287945	0.822031	
0.198642	0.311382	0.714561	
-0.230163	-0.183396	0.833896	
-0.281543	-0.0750159	0.710149	
-0.182236	-0.0903375	0.74647	
-0.232732	-0.157842	0.680234	
0.450285	-0.217356	0.644698	
0.4284	-0.257824	0.704976	
0.316097	-0.149618	0.645405	
0.329947	-0.238467	0.603405	
0.234106	0.240455	0.5	
0.253284	0.276753	0.625058	
0.172599	0.285692	0.5	
0.185114	0.178816	0.60757	
0.0401436	0.291204	1	
-0.0640422	0.245911	0.888875	
-0.0275533	0.349484	0.845155	
0.0295128	0.209804	0.905326	
0.295217	0.00291132	0.703732	
0.363042	0.112521	0.74989	
0.350295	0.0306837	0.84806	
0.393693	-0.0146265	0.683142	
-0.0722049	0.334139	0.5	
-0.116472	0.275537	0.591143	
-0.05	0.3	0.5	
-0.00291132	0.295217	0.558405	
0.0781685	0.124409	0.653995	
0.0839731	0.219451	0.721314	
0.185114	0.178816	0.60757	
0.112623	0.215093	0.576525	
-0.0144004	0.334766	0.60495	
0.12289	0.290081	0.637079	
0.0335927	0.239842	0.602535	
0.0222826	0.353795	0.558177	
0.0558284	-0.130931	0.665335	
0.171958	-0.1808	0.606406	
0.193656	-0.194449	0.720197	
0.0850581	-0.218776	0.727528	
0.317206	0.386498	0.799678	
0.316847	0.386792	0.698616	
0.376757	0.328716	0.746468	
0.198642	0.311382	0.714561	
0.118204	-0.307408	0.828129	
0.0850581	-0.218776	0.727528	
0.0815829	-0.137875	0.832541	
0.153768	-0.209711	0.888749	
-0.0722049	0.334139	0.5	
-0.116472	0.275537	0.591143	
-0.0144004	0.334766	0.60495	
-0.129243	0.372125	0.588708	
0.295217	0.00291132	0.703732	
0.223491	0.0887848	0.734304	
0.190245	0.0667888	0.625379	
0.145586	0.022498	0.744291	
0.281543	0.0750159	0.578871	
0.295217	0.00291132	0.558405	
0.334766	0.0144004	0.60495	
0.21299	-0.0111081	0.575703	
-0.0722049	0.334139	0.5	
-0.0353553	0.335355	0.5	
-0.0305468	0.374084	0.5	
-0.0376575	0.408608	0.57511	
0.156778	0.139117	0.5	
0.0877437	0.0690174	0.581458	
0.185114	0.178816	0.60757	
0.112623	0.215093	0.576525	
-0.275537	-0.116472	0.607416	
-0.209083	-0.110158	0.5	
-0.259968	-0.0294564	0.588658	
-0.203542	-0.0724399	0.653763	
0.299755	0.133787	0.640165	
0.295217	0.00291132	0.703732	
0.190245	0.0667888	0.625379	
0.281543	0.0750159	0.578871	
0.05	-0.05	0.5	
0.0916667	9.90691e-18	0.5	
-0.00100849	-0.0205955	0.627967	
0.0851262	-0.069993	0.591553	
0.177848	0.156277	0.877262	
0.223491	0.0887848	0.734304	
0.296877	0.173007	0.841873	
0.258755	0.0906035	0.896517	
0.376757	-0.328716	0.753532	
0.317206	-0.386498	0.700322	
0.316847	-0.386792	0.801384	
0.309086	-0.228865	0.737481	
-0.0218405	-0.241762	0.749515	
0.118204	-0.307408	0.828129	
0.0124212	-0.23804	0.873103	
0.00809469	-0.342857	0.777216	
-0.0623911	0.203393	0.630433	
-0.116472	0.275537	0.591143	
-0.0144004	0.334766	0.60495	
-0.00291132	0.295217	0.558405	
0.0248177	-0.313374	1	
-0.0685138	-0.341556	0.85476	
-0.0638367	-0.295761	1	
0.0124212	-0.23804	0.873103	
0.0916667	9.90691e-18	0.5	
-0.00100849	-0.0205955	0.627967	
0.0851262	-0.069993	0.591553	
0.0877437	0.0690174	0.581458	
0.0781685	0.124409	0.653995	
0.145586	0.022498	0.744291	
0.0942175	0.125111	0.789315	
0.0134301	0.0589223	0.678402	
-0.070805	-0.359322	0.5	
-0.140302	-0.350193	0.62321	
-0.0656658	-0.406088	0.605213	
-0.0912866	-0.293514	0.577692	
0.469721	0.171353	0.661666	
0.363042	0.112521	0.74989	
0.299755	0.133787	0.640165	
0.38867	0.101377	0.601055	
-0.0685138	-0.341556	0.85476	
0.0415638	-0.384519	0.881679	
0	-0.5	0.8	
0.00809469	-0.342857	0.777216	
-0.436762	0.243391	0.903062	
-0.318983	0.261743	1	
-0.389036	0.207425	1	
-0.291878	0.202294	0.852394	
0.350295	0.0306837	0.84806	
0.363042	0.112521	0.74989	
0.295217	0.00291132	0.703732	
0.255406	-0.0213367	0.790897	
0.5	0	0.9	
0.414991	0.0495125	1	
0.495101	0.0698189	0.927621	
0.350295	0.0306837	0.84806	
0.295217	0.00291132	0.703732	
0.350295	0.0306837	0.84806	
0.366266	-0.0917065	0.74426	
0.393693	-0.0146265	0.683142	
0.192404	-0.317473	0.724143	
0.0850581	-0.218776	0.727528	
0.116472	-0.275537	0.636806	
0.0420743	-0.281954	0.683615	
-0.469721	0.171353	0.838334	
-0.490343	0.0977967	0.758774	
-0.460548	0.194667	0.76567	
-0.357252	0.187897	0.739185	
0.199071	0.201004	0.718052	
0.0781685	0.124409	0.653995	
0.0942175	0.125111	0.789315	
0.0839731	0.219451	0.721314	
0.414991	0.0495125	1	
0.5	0	0.9	
0.409478	-0.032947	1	
0.382055	-0.0743662	0.891735	
-0.19595	0.28972	0.5	
-0.116472	0.275537	0.591143	
-0.136577	0.332433	0.5	
-0.129243	0.372125	0.588708	
0.317206	-0.386498	0.700322	
0.374193	-0.331632	0.665357	
0.240952	-0.280119	0.617373	
0.309086	-0.228865	0.737481	
0.470916	-0.168043	0.699874	
0.309086	-0.228865	0.737481	
0.460548	-0.194667	0.76567	
0.366266	-0.0917065	0.74426	
0.00200732	0.174835	0.5	
0.05	0.133333	0.5	
0.0335927	0.239842	0.602535	
-0.00961934	0.119858	0.599022	
0.300884	0.198715	1	
0.247868	0.146306	1	
0.231243	0.24169	1	
0.296275	0.264777	0.897601	
-0.105455	-0.255435	0.5	
-0.0717603	-0.216541	0.630077	
-0.104344	-0.174965	0.5	
-0.172932	-0.247597	0.585974	
0.05	0.216667	0.5	
0.0335927	0.239842	0.602535	
0.05	0.133333	0.5	
0.112623	0.215093	0.576525	
0.327662	-0.113303	0.5	
0.316097	-0.149618	0.645405	
0.368447	-0.183279	0.5	
0.39071	-0.0800656	0.604798	
-0.0925337	-0.196451	1	
-0.0699367	-0.141385	0.854754	
0.00183684	-0.222331	1	
0.0124212	-0.23804	0.873103	
0.00200732	0.174835	0.5	
0.05	0.133333	0.5	
0.05	0.216667	0.5	
0.0335927	0.239842	0.602535	
0.470916	-0.168043	0.699874	
0.39071	-0.0800656	0.604798	
0.316097	-0.149618	0.645405	
0.366266	-0.0917065	0.74426	
0.0912931	0.252729	0.837007	
0.138051	0.361812	0.873206	
0.0401436	0.291204	1	
0.169783	0.254878	0.90212	
-0.0810399	-0.493389	0.85285	
0	-0.5	0.8	
-0.0685138	-0.341556	0.85476	
0.0415638	-0.384519	0.881679	
0.190324	0.0393932	0.833873	
0.176835	-0.0957025	0.888175	
0.262288	-0.0152307	0.900549	
0.130088	0.0681493	0.912467	
-0.104344	-0.174965	0.5	
-0.0717603	-0.216541	0.630077	
-0.05	-0.216667	0.5	
-0.0312742	-0.12116	0.604392	
-0.110158	0.209083	0.5	
-0.139117	0.156778	0.5	
-0.0623911	0.203393	0.630433	
-0.181479	0.221098	0.584819	
0.470916	-0.168043	0.699874	
0.4284	-0.257824	0.704976	
0.460548	-0.194667	0.76567	
0.309086	-0.228865	0.737481	
0.299755	0.133787	0.640165	
0.185114	0.178816	0.60757	
0.253284	0.276753	0.625058	
0.257762	0.17825	0.572115	
-0.0435837	0.153197	0.818477	
0.0942175	0.125111	0.789315	
-0.00874456	0.250849	0.799219	
0.0295128	0.209804	0.905326	
-0.281543	-0.0750159	0.710149	
-0.327614	0.0876466	0.725276	
-0.334766	0.0144004	0.629791	
-0.385513	-0.0181868	0.734694	
0.0584891	-0.437042	0.5	
0.0545279	-0.357398	0.586263	
0.00233139	-0.422954	0.5	
0.0170927	-0.420241	0.640557	
-0.00291132	0.295217	0.703732	
-0.0623911	0.203393	0.630433	
0.0335927	0.239842	0.602535	
-0.0119975	0.149532	0.712677	
0.0848114	-0.374635	0.706588	
0.0850581	-0.218776	0.727528	
0.192404	-0.317473	0.724143	
0.0420743	-0.281954	0.683615	
-0.22133	-0.175555	0.5	
-0.165932	-0.151801	0.614298	
-0.275537	-0.116472	0.607416	
-0.267754	-0.225502	0.603013	
0.190324	0.0393932	0.833873	
0.223491	0.0887848	0.734304	
0.177848	0.156277	0.877262	
0.258755	0.0906035	0.896517	
0.4284	0.257824	0.795024	
0.363042	0.112521	0.74989	
0.296877	0.173007	0.841873	
0.316638	0.224466	0.734195	
0.296877	0.173007	0.841873	
0.223491	0.0887848	0.734304	
0.199071	0.201004	0.718052	
0.316638	0.224466	0.734195	
-0.0717603	-0.216541	0.630077	
-0.165932	-0.151801	0.614298	
-0.104344	-0.174965	0.5	
-0.172932	-0.247597	0.585974	
0.193656	-0.194449	0.720197	
0.192404	-0.317473	0.724143	
0.118204	-0.307408	0.828129	
0.0850581	-0.218776	0.727528	
-0.261345	-0.230036	1	
-0.278713	-0.14304	1	
-0.230163	-0.183396	0.833896	
-0.318327	-0.225041	0.895751	
0.185114	0.178816	0.60757	
0.0839731	0.219451	0.721314	
0.12289	0.290081	0.637079	
0.112623	0.215093	0.576525	
0.0854243	0.492649	0.751403	
0.106564	0.358516	0.753234	
0.0814864	0.493315	0.847681	
-0.0218361	0.398667	0.744009	
2.83347e-18	-1.91537e-18	0.5	
0.0916667	9.90691e-18	0.5	
0.05	0.05	0.5	
0.0877437	0.0690174	0.581458	
-0.0969866	-0.088866	0.682079	
-0.0312742	-0.12116	0.604392	
-0.165932	-0.151801	0.614298	
-0.104309	-0.0175295	0.603853	
-0.216667	0.05	0.5	
-0.174965	0.104344	0.5	
-0.268836	0.0809708	0.594884	
-0.124864	0.0783821	0.585361	
-0.242822	0.437078	0.847009	
-0.25253	0.295971	0.897838	
-0.163252	0.278732	0.833643	
-0.124209	0.359991	0.89696	
0.106564	0.358516	0.753234	
0.0827402	0.389706	0.606734	
0.168734	0.470668	0.701781	
0.19252	0.354505	0.600343	
0	0.5	0.8	
0.0854243	0.492649	0.751403	
0.0814864	0.493315	0.847681	
-0.0218361	0.398667	0.744009	
0.316847	0.386792	0.698616	
0.316638	0.224466	0.734195	
0.376757	0.328716	0.746468	
0.198642	0.311382	0.714561	
-0.00291132	0.295217	0.703732	
0.106564	0.358516	0.753234	
-0.0275533	0.349484	0.845155	
-0.00874456	0.250849	0.799219	
0.493012	0.0833019	0.844789	
0.5	0	0.8	
0.350295	0.0306837	0.84806	
0.363042	0.112521	0.74989	
-0.268365	-0.14329	0.5	
-0.22133	-0.175555	0.5	
-0.275537	-0.116472	0.607416	
-0.267754	-0.225502	0.603013	
0.299755	0.133787	0.640165	
0.185114	0.178816	0.60757	
0.190245	0.0667888	0.625379	
0.223491	0.0887848	0.734304	
0.14072	-0.0839746	1	
0.086984	-0.0195503	0.879555	
0.176835	-0.0957025	0.888175	
0.0136102	-0.0944981	0.903895	
0.470916	0.168043	0.800126	
0.296877	0.173007	0.841873	
0.363042	0.112521	0.74989	
0.370295	0.150924	0.909678	
-0.05	-0.133333	0.5	
-0.104344	-0.174965	0.5	
-0.05	-0.216667	0.5	
-0.0312742	-0.12116	0.604392	
2.83347e-18	-1.91537e-18	0.5	
-0.00100849	-0.0205955	0.627967	
0.0916667	9.90691e-18	0.5	
0.0877437	0.0690174	0.581458	
-0.101011	0.298593	0.5	
-0.116472	0.275537	0.591143	
-0.0722049	0.334139	0.5	
-0.129243	0.372125	0.588708	
0.12289	0.290081	0.637079	
0.106564	0.358516	0.753234	
0.198642	0.311382	0.714561	
0.19252	0.354505	0.600343	
0.332433	0.136577	0.5	
0.268365	0.14329	0.5	
0.298593	0.101011	0.5	
0.257762	0.17825	0.572115	
0.175	-0.0611989	0.634692	
0.174523	-0.0723952	0.765964	
0.193656	-0.194449	0.720197	
0.251569	-0.0890044	0.696136	
0.118204	-0.307408	0.828129	
0.0850581	-0.218776	0.727528	
0.0848114	-0.374635	0.706588	
0.0420743	-0.281954	0.683615	
0.05	-0.05	0.5	
0.0916667	9.90691e-18	0.5	
2.83347e-18	-1.91537e-18	0.5	
-0.00100849	-0.0205955	0.627967	
-0.332366	0.0316806	0.831947	
-0.369146	0.1248	0.88989	
-0.493389	0.0810399	0.85285	
-0.404225	0.0311984	0.902579	
-0.070805	-0.359322	0.5	
-0.0656658	-0.406088	0.605213	
-0.0144004	-0.334766	0.569106	
-0.0912866	-0.293514	0.577692	
0.106564	0.358516	0.753234	
0.0827402	0.389706	0.606734	
-0.00291132	0.295217	0.703732	
0.00685904	0.408881	0.656439	
-0.230911	0.053351	0.887346	
-0.369146	0.1248	0.88989	
-0.291878	0.202294	0.852394	
-0.290365	0.115706	0.809779	
-0.0232782	-0.127584	1	
0.00183684	-0.222331	1	
0.0124212	-0.23804	0.873103	
0.0136102	-0.0944981	0.903895	
-0.0717603	-0.216541	0.630077	
-0.125401	-0.180396	0.755134	
-0.0969866	-0.088866	0.682079	
-0.165932	-0.151801	0.614298	
0.223611	0.287945	0.822031	
0.316638	0.224466	0.734195	
0.374193	0.331632	0.834643	
0.296275	0.264777	0.897601	
-0.436762	0.243391	0.903062	
-0.291878	0.202294	0.852394	
-0.389036	0.207425	1	
-0.369146	0.1248	0.88989	
-0.168043	-0.470916	0.699874	
-0.0924024	-0.340318	0.735056	
-0.140302	-0.350193	0.62321	
-0.191043	-0.351595	0.71168	
0.0903521	0.10545	1	
0.0378724	0.109427	0.891855	
0.177848	0.156277	0.877262	
0.130088	0.0681493	0.912467	
-0.0232782	-0.127584	1	
0.00183684	-0.222331	1	
-0.0925337	-0.196451	1	
-0.0699367	-0.141385	0.854754	
-0.316847	0.386792	0.801384	
-0.380873	0.323938	0.847739	
-0.27609	0.255234	0.739837	
-0.25253	0.295971	0.897838	
0.05	0.3	0.5	
0.12289	0.290081	0.637079	
0.0335927	0.239842	0.602535	
0.112623	0.215093	0.576525	
0.118204	-0.307408	0.828129	
0.0415638	-0.384519	0.881679	
0.153328	-0.47591	0.90763	
0.205413	-0.339549	0.892186	
0.5	0	0.8	
0.363042	0.112521	0.74989	
0.490343	0.0977967	0.741226	
0.393693	-0.0146265	0.683142	
0	-0.5	0.8	
0.0415638	-0.384519	0.881679	
0.0807477	-0.493437	0.845776	
0.00809469	-0.342857	0.777216	
0.116472	-0.275537	0.636806	
0.0850581	-0.218776	0.727528	
0.171958	-0.1808	0.606406	
0.0797732	-0.172712	0.582888	
0.210156	-0.0147965	1	
0.176835	-0.0957025	0.888175	
0.086984	-0.0195503	0.879555	
0.130088	0.0681493	0.912467	
-0.27609	0.255234	0.739837	
-0.270598	0.271491	0.600584	
-0.317206	0.386498	0.700322	
-0.21408	0.346313	0.633756	
-0.0217786	-0.376393	0.5	
-0.0144004	-0.334766	0.569106	
-0.070805	-0.359322	0.5	
-0.0656658	-0.406088	0.605213	
-0.428195	0.258165	0.798245	
-0.291878	0.202294	0.852394	
-0.369146	0.1248	0.88989	
-0.357252	0.187897	0.739185	
-0.190903	-0.246146	0.678266	
-0.125401	-0.180396	0.755134	
-0.194168	-0.311781	0.817902	
-0.10367	-0.266109	0.799505	
-0.070805	-0.359322	0.5	
-0.0144004	-0.334766	0.569106	
-0.0353553	-0.335355	0.5	
-0.0912866	-0.293514	0.577692	
0.0942175	0.125111	0.789315	
0.086984	-0.0195503	0.879555	
0.190324	0.0393932	0.833873	
0.130088	0.0681493	0.912467	
-0.0217786	-0.376393	0.5	
0.0305468	-0.374084	0.5	
0	-0.35	0.5	
-0.0144004	-0.334766	0.569106	
0.0458333	0.00416667	0.749305	
0.0942175	0.125111	0.789315	
0.145586	0.022498	0.744291	
0.0134301	0.0589223	0.678402	
0.136955	-0.411745	0.5	
0.0892306	-0.377437	0.5	
0.0545279	-0.357398	0.586263	
0.159651	-0.364489	0.598434	
-0.113452	0.0682357	0.775647	
-0.132843	0.148259	0.702998	
-0.0788669	0.0768903	0.663116	
-0.14275	-0.0105591	0.697053	
-0.337562	0.0547633	1	
-0.404225	0.0311984	0.902579	
-0.332366	0.0316806	0.831947	
-0.243062	-0.0438203	0.910197	
-0.281543	-0.0750159	0.710149	
-0.220651	0.0125647	0.740031	
-0.198991	0.0214385	0.631757	
-0.249851	0.075261	0.682349	
0.216667	-0.05	0.5	
0.174965	-0.104344	0.5	
0.272064	-0.0681442	0.59838	
0.21299	-0.0111081	0.575703	
0.314271	-0.0501881	1	
0.282439	-0.104966	0.83613	
0.382055	-0.0743662	0.891735	
0.243698	-0.168497	0.902816	
0.0912931	0.252729	0.837007	
0.106564	0.358516	0.753234	
-0.0275533	0.349484	0.845155	
0.138051	0.361812	0.873206	
-0.0977967	-0.490343	0.758774	
0	-0.5	0.7	
-0.0833019	-0.493012	0.655211	
-0.0924024	-0.340318	0.735056	
0.376757	0.328716	0.746468	
0.374193	0.331632	0.834643	
0.223611	0.287945	0.822031	
0.316638	0.224466	0.734195	
0.193656	-0.194449	0.720197	
0.200293	-0.156985	0.812694	
0.174523	-0.0723952	0.765964	
0.0829508	-0.0830948	0.742858	
0.185114	0.178816	0.60757	
0.0877437	0.0690174	0.581458	
0.0781685	0.124409	0.653995	
0.112623	0.215093	0.576525	
0.0146863	-0.307123	0.5	
0.0120439	-0.258333	0.5	
-0.0168063	-0.279144	0.5	
-0.0144004	-0.334766	0.569106	
-0.0435837	0.153197	0.818477	
0.0942175	0.125111	0.789315	
-0.0119975	0.149532	0.712677	
-0.00874456	0.250849	0.799219	
-0.10302	-0.108424	0.5	
-0.0312742	-0.12116	0.604392	
-0.05	-0.05	0.5	
-0.104309	-0.0175295	0.603853	
-0.0338793	0.0189553	0.867322	
0.086984	-0.0195503	0.879555	
0.0209546	0.0362755	1	
0.0136102	-0.0944981	0.903895	
0.247868	0.146306	1	
0.177848	0.156277	0.877262	
0.296877	0.173007	0.841873	
0.258755	0.0906035	0.896517	
0	-0.35	0.5	
0.0353553	-0.335355	0.5	
0.0146863	-0.307123	0.5	
-0.0144004	-0.334766	0.569106	
-0.186407	-0.169451	1	
-0.230163	-0.183396	0.833896	
-0.278713	-0.14304	1	
-0.170347	-0.112486	0.899727	
0.190245	0.0667888	0.625379	
0.185114	0.178816	0.60757	
0.156778	0.139117	0.5	
0.0877437	0.0690174	0.581458	
0.414991	0.0495125	1	
0.350295	0.0306837	0.84806	
0.346509	0.0237889	1	
0.370295	0.150924	0.909678	
-0.163252	0.278732	0.833643	
-0.27609	0.255234	0.739837	
-0.291878	0.202294	0.852394	
-0.25253	0.295971	0.897838	
0.156778	0.139117	0.5	
0.104344	0.174965	0.5	
0.10302	0.108424	0.5	
0.112623	0.215093	0.576525	
0.460548	0.194667	0.73433	
0.469721	0.171353	0.661666	
0.363042	0.112521	0.74989	
0.316638	0.224466	0.734195	
-0.133333	-0.05	0.5	
-0.156778	-0.139117	0.5	
-0.10302	-0.108424	0.5	
-0.165932	-0.151801	0.614298	
0.268365	0.14329	0.5	
0.281543	0.0750159	0.578871	
0.298593	0.101011	0.5	
0.257762	0.17825	0.572115	
-0.00291132	0.295217	0.703732	
0.0335927	0.239842	0.602535	
0.0839731	0.219451	0.721314	
-0.0119975	0.149532	0.712677	
0.174523	-0.0723952	0.765964	
0.251569	-0.0890044	0.696136	
0.175	-0.0611989	0.634692	
0.145586	0.022498	0.744291	
-0.386831	-0.3168	0.604097	
-0.429146	-0.25658	0.66876	
-0.267754	-0.225502	0.603013	
-0.370241	-0.156649	0.594441	
0.14329	-0.268365	0.5	
0.19595	-0.28972	0.5	
0.175555	-0.22133	0.5	
0.116472	-0.275537	0.565587	
0.296877	0.173007	0.841873	
0.363042	0.112521	0.74989	
0.223491	0.0887848	0.734304	
0.316638	0.224466	0.734195	
-0.275537	-0.116472	0.607416	
-0.165932	-0.151801	0.614298	
-0.209083	-0.110158	0.5	
-0.203542	-0.0724399	0.653763	
0.242822	-0.437078	0.847009	
0.316847	-0.386792	0.801384	
0.192404	-0.317473	0.724143	
0.205413	-0.339549	0.892186	
-0.389036	0.207425	1	
-0.291878	0.202294	0.852394	
-0.328307	0.16356	1	
-0.369146	0.1248	0.88989	
0.0712814	-0.153152	1	
0.0124212	-0.23804	0.873103	
0.00183684	-0.222331	1	
0.0136102	-0.0944981	0.903895	
-0.198991	0.0214385	0.631757	
-0.179918	0.142525	0.617274	
-0.0788669	0.0768903	0.663116	
-0.124864	0.0783821	0.585361	
-0.242822	0.437078	0.847009	
-0.25253	0.295971	0.897838	
-0.316847	0.386792	0.801384	
-0.195673	0.329094	0.742315	
0.0839731	0.219451	0.721314	
-0.0119975	0.149532	0.712677	
0.0942175	0.125111	0.789315	
-0.00874456	0.250849	0.799219	
0.0989017	0.0145443	0.654463	
0.145586	0.022498	0.744291	
0.0781685	0.124409	0.653995	
0.0134301	0.0589223	0.678402	
-0.0422582	-0.437473	1	
0	-0.5	0.9	
-0.0684459	-0.495293	0.931403	
0.0415638	-0.384519	0.881679	
-0.0131388	-0.31384	0.5	
0.0146863	-0.307123	0.5	
-0.0168063	-0.279144	0.5	
-0.0144004	-0.334766	0.569106	
-0.0717603	-0.216541	0.630077	
-0.0218405	-0.241762	0.749515	
-0.125401	-0.180396	0.755134	
-0.0872901	-0.296751	0.662404	
-0.298593	-0.101011	0.5	
-0.257817	-0.0951035	0.5	
-0.3	-0.05	0.5	
-0.259968	-0.0294564	0.588658	
-0.450285	0.217356	0.644698	
-0.307291	0.177008	0.64695	
-0.364126	0.107425	0.596298	
-0.351055	0.232374	0.591168	
-0.00100849	-0.0205955	0.627967	
-0.00860123	-0.101114	0.760951	
0.0558284	-0.130931	0.665335	
0.0829508	-0.0830948	0.742858	
-0.0951035	0.257817	0.5	
-0.05	0.3	0.5	
-0.116472	0.275537	0.591143	
-0.00291132	0.295217	0.558405	
0.316097	-0.149618	0.645405	
0.251569	-0.0890044	0.696136	
0.366266	-0.0917065	0.74426	
0.393693	-0.0146265	0.683142	
0.118204	-0.307408	0.828129	
0.153768	-0.209711	0.888749	
0.112799	-0.33356	1	
0.205413	-0.339549	0.892186	
-0.00860123	-0.101114	0.760951	
0.0850581	-0.218776	0.727528	
-0.0218405	-0.241762	0.749515	
-0.026527	-0.165458	0.694773	
0.175	-0.0611989	0.634692	
0.272064	-0.0681442	0.59838	
0.174965	-0.104344	0.5	
0.21299	-0.0111081	0.575703	
-0.0275533	0.349484	0.845155	
0.138051	0.361812	0.873206	
0.106564	0.358516	0.753234	
0.045063	0.398304	0.900567	
0.316097	-0.149618	0.645405	
0.39071	-0.0800656	0.604798	
0.327662	-0.113303	0.5	
0.272064	-0.0681442	0.59838	
-0.298593	-0.101011	0.5	
-0.3	-0.05	0.5	
-0.357398	-0.0545279	0.581884	
-0.259968	-0.0294564	0.588658	
-0.386831	-0.3168	0.604097	
-0.2387	-0.321065	0.626825	
-0.267754	-0.225502	0.603013	
-0.276638	-0.296057	0.718432	
0.469721	-0.171353	0.838334	
0.382055	-0.0743662	0.891735	
0.366266	-0.0917065	0.74426	
0.344185	-0.180158	0.894872	
-0.298593	-0.101011	0.5	
-0.357398	-0.0545279	0.581884	
-0.275537	-0.116472	0.607416	
-0.259968	-0.0294564	0.588658	
0.327662	-0.113303	0.5	
0.285692	-0.172599	0.5	
0.368447	-0.183279	0.5	
0.316097	-0.149618	0.645405	
0.190245	0.0667888	0.625379	
0.0781685	0.124409	0.653995	
0.0989017	0.0145443	0.654463	
0.145586	0.022498	0.744291	
-0.108424	0.10302	0.5	
-0.05	0.133333	0.5	
-0.139117	0.156778	0.5	
-0.124864	0.0783821	0.585361	
-0.0275533	0.349484	0.845155	
0.106564	0.358516	0.753234	
-0.00291132	0.295217	0.703732	
-0.0218361	0.398667	0.744009	
0	-0.5	0.7	
0.00809469	-0.342857	0.777216	
0.0848114	-0.374635	0.706588	
0.0170927	-0.420241	0.640557	
0.428195	-0.258165	0.798245	
0.309086	-0.228865	0.737481	
0.253273	-0.249599	0.843605	
0.344185	-0.180158	0.894872	
-0.242822	0.437078	0.847009	
-0.163252	0.278732	0.833643	
-0.195673	0.329094	0.742315	
-0.115526	0.359753	0.796074	
0.299755	0.133787	0.640165	
0.199071	0.201004	0.718052	
0.185114	0.178816	0.60757	
0.223491	0.0887848	0.734304	
0.174678	0.468495	0.817109	
0.106564	0.358516	0.753234	
0.25658	0.429146	0.83124	
0.138051	0.361812	0.873206	
0.0942175	0.125111	0.789315	
0.0378724	0.109427	0.891855	
0.086984	-0.0195503	0.879555	
0.130088	0.0681493	0.912467	
0.251569	-0.0890044	0.696136	
0.145586	0.022498	0.744291	
0.174523	-0.0723952	0.765964	
0.255406	-0.0213367	0.790897	
-0.261345	-0.230036	1	
-0.230163	-0.183396	0.833896	
-0.186407	-0.169451	1	
-0.127689	-0.241885	0.89237	
-0.0977967	-0.490343	0.758774	
-0.194667	-0.460548	0.76567	
-0.171353	-0.469721	0.838334	
-0.0924024	-0.340318	0.735056	
0.0781685	0.124409	0.653995	
-0.00961934	0.119858	0.599022	
0.0335927	0.239842	0.602535	
0.112623	0.215093	0.576525	
2.83347e-18	-1.91537e-18	0.5	
-0.00100849	-0.0205955	0.627967	
-0.05	0.05	0.5	
-0.104309	-0.0175295	0.603853	
-0.0144004	0.334766	0.60495	
0.0827402	0.389706	0.606734	
0.12289	0.290081	0.637079	
0.0222826	0.353795	0.558177	
-0.190903	-0.246146	0.678266	
-0.125401	-0.180396	0.755134	
-0.0717603	-0.216541	0.630077	
-0.165932	-0.151801	0.614298	
0.0781685	0.124409	0.653995	
0.199071	0.201004	0.718052	
0.185114	0.178816	0.60757	
0.0839731	0.219451	0.721314	
0.282439	-0.104966	0.83613	
0.344185	-0.180158	0.894872	
0.382055	-0.0743662	0.891735	
0.243698	-0.168497	0.902816	
-0.00291132	0.295217	0.703732	
0.0827402	0.389706	0.606734	
-0.0144004	0.334766	0.60495	
0.00685904	0.408881	0.656439	
0.334766	0.0144004	0.60495	
0.272064	-0.0681442	0.59838	
0.39071	-0.0800656	0.604798	
0.393693	-0.0146265	0.683142	
0.0401436	0.291204	1	
-0.0555676	0.325574	1	
-0.0275533	0.349484	0.845155	
-0.0640422	0.245911	0.888875	
0.0728232	-0.494668	0.573541	
0.136955	-0.411745	0.5	
0.0584891	-0.437042	0.5	
0.0545279	-0.357398	0.586263	
-0.179918	0.142525	0.617274	
-0.268836	0.0809708	0.594884	
-0.174965	0.104344	0.5	
-0.124864	0.0783821	0.585361	
-0.0144004	0.334766	0.60495	
0.0222826	0.353795	0.558177	
0.0335927	0.239842	0.602535	
-0.00291132	0.295217	0.558405	
-0.0218405	-0.241762	0.749515	
-0.125401	-0.180396	0.755134	
-0.0699367	-0.141385	0.854754	
-0.00860123	-0.101114	0.760951	
0.210156	-0.0147965	1	
0.262288	-0.0152307	0.900549	
0.176835	-0.0957025	0.888175	
0.130088	0.0681493	0.912467	
-0.278713	-0.14304	1	
-0.186407	-0.169451	1	
-0.261345	-0.230036	1	
-0.230163	-0.183396	0.833896	
-0.319213	-0.265223	0.5	
-0.267754	-0.225502	0.603013	
-0.386831	-0.3168	0.604097	
-0.2387	-0.321065	0.626825	
-0.495012	-0.0704482	0.928155	
-0.349811	-0.108212	0.856986	
-0.493437	-0.0807477	0.845776	
-0.404225	0.0311984	0.902579	
0.0912931	0.252729	0.837007	
0.138051	0.361812	0.873206	
-0.0275533	0.349484	0.845155	
0.045063	0.398304	0.900567	
-0.281543	-0.0750159	0.710149	
-0.275537	-0.116472	0.607416	
-0.334766	0.0144004	0.629791	
-0.259968	-0.0294564	0.588658	
-0.4284	0.257824	0.704976	
-0.450285	0.217356	0.644698	
-0.415735	0.277785	0.634138	
-0.351055	0.232374	0.591168	
-0.328307	0.16356	1	
-0.389036	0.207425	1	
-0.318983	0.261743	1	
-0.291878	0.202294	0.852394	
-0.332366	0.0316806	0.831947	
-0.230911	0.053351	0.887346	
-0.337562	0.0547633	1	
-0.243062	-0.0438203	0.910197	
0.327662	-0.113303	0.5	
0.39071	-0.0800656	0.604798	
0.359322	-0.070805	0.5	
0.353795	-0.0222826	0.558177	
-0.281543	-0.0750159	0.710149	
-0.327614	0.0876466	0.725276	
-0.385513	-0.0181868	0.734694	
-0.220651	0.0125647	0.740031	
0.086984	-0.0195503	0.879555	
0.145586	0.022498	0.744291	
0.174523	-0.0723952	0.765964	
0.0829508	-0.0830948	0.742858	
0	0.5	0.8	
-0.0275533	0.349484	0.845155	
-0.0218361	0.398667	0.744009	
0.045063	0.398304	0.900567	
0.158056	0.171884	1	
0.0295128	0.209804	0.905326	
0.0651412	0.200096	1	
0.169783	0.254878	0.90212	
0.0942175	0.125111	0.789315	
0.0378724	0.109427	0.891855	
0.177848	0.156277	0.877262	
0.0295128	0.209804	0.905326	
-0.281543	-0.0750159	0.710149	
-0.230163	-0.183396	0.833896	
-0.182236	-0.0903375	0.74647	
-0.266891	-0.0501392	0.812706	
0.0146863	-0.307123	0.5	
0.0120439	-0.258333	0.5	
-0.0144004	-0.334766	0.569106	
0.0232632	-0.246364	0.605213	
-0.230163	-0.183396	0.833896	
-0.170347	-0.112486	0.899727	
-0.125401	-0.180396	0.755134	
-0.182236	-0.0903375	0.74647	
-0.334766	0.0144004	0.629791	
-0.275537	-0.116472	0.607416	
-0.281543	-0.0750159	0.710149	
-0.357398	-0.0545279	0.581884	
-0.332366	0.0316806	0.831947	
-0.385513	-0.0181868	0.734694	
-0.327614	0.0876466	0.725276	
-0.220651	0.0125647	0.740031	
0.309086	-0.228865	0.737481	
0.366266	-0.0917065	0.74426	
0.316097	-0.149618	0.645405	
0.251569	-0.0890044	0.696136	
0.177848	0.156277	0.877262	
0.0295128	0.209804	0.905326	
0.158056	0.171884	1	
0.169783	0.254878	0.90212	
0.175	-0.0611989	0.634692	
0.174965	-0.104344	0.5	
0.272064	-0.0681442	0.59838	
0.24957	-0.148488	0.574982	
0.317206	0.386498	0.799678	
0.376757	0.328716	0.746468	
0.374193	0.331632	0.834643	
0.223611	0.287945	0.822031	
0.493012	0.0833019	0.844789	
0.350295	0.0306837	0.84806	
0.495101	0.0698189	0.927621	
0.370295	0.150924	0.909678	
-0.313218	-0.202403	0.699795	
-0.276638	-0.296057	0.718432	
-0.190903	-0.246146	0.678266	
-0.307536	-0.237004	0.795298	
-0.386831	-0.3168	0.604097	
-0.429146	-0.25658	0.66876	
-0.313218	-0.202403	0.699795	
-0.267754	-0.225502	0.603013	
-0.0144004	0.334766	0.60495	
0.12289	0.290081	0.637079	
-0.00291132	0.295217	0.703732	
0.0335927	0.239842	0.602535	
0.174678	0.468495	0.817109	
0.247057	0.434698	0.750499	
0.25658	0.429146	0.83124	
0.106564	0.358516	0.753234	
0.118204	-0.307408	0.828129	
0.192404	-0.317473	0.724143	
0.0848114	-0.374635	0.706588	
0.0850581	-0.218776	0.727528	
-0.105455	-0.255435	0.5	
-0.05	-0.216667	0.5	
-0.104344	-0.174965	0.5	
-0.0717603	-0.216541	0.630077	
-0.3	0.05	0.5	
-0.327662	0.113303	0.5	
-0.359322	0.070805	0.5	
-0.334766	0.0144004	0.563203	
0.153328	-0.47591	0.90763	
0.118204	-0.307408	0.828129	
0.168734	-0.470668	0.798219	
0.0415638	-0.384519	0.881679	
0.199071	0.201004	0.718052	
0.253284	0.276753	0.625058	
0.299755	0.133787	0.640165	
0.185114	0.178816	0.60757	
-0.428195	0.258165	0.798245	
-0.27609	0.255234	0.739837	
-0.291878	0.202294	0.852394	
-0.357252	0.187897	0.739185	
0.0815829	-0.137875	0.832541	
0.0124212	-0.23804	0.873103	
0.118204	-0.307408	0.828129	
0.153768	-0.209711	0.888749	
-0.268365	-0.14329	0.5	
-0.298593	-0.101011	0.5	
-0.332433	-0.136577	0.5	
-0.275537	-0.116472	0.607416	
0.314271	-0.0501881	1	
0.382055	-0.0743662	0.891735	
0.313791	-0.154465	1	
0.243698	-0.168497	0.902816	
0.295217	0.00291132	0.703732	
0.145586	0.022498	0.744291	
0.251569	-0.0890044	0.696136	
0.255406	-0.0213367	0.790897	
0.171958	-0.1808	0.606406	
0.0850581	-0.218776	0.727528	
0.0558284	-0.130931	0.665335	
0.0797732	-0.172712	0.582888	
-0.490343	0.0977967	0.758774	
-0.469721	0.171353	0.838334	
-0.493389	0.0810399	0.85285	
-0.369146	0.1248	0.88989	
-0.328307	0.16356	1	
-0.26105	0.203399	1	
-0.257956	0.116321	1	
-0.291878	0.202294	0.852394	
0.0848114	-0.374635	0.706588	
0.159651	-0.364489	0.598434	
0.0814864	-0.493315	0.652319	
0.0170927	-0.420241	0.640557	
0.175	-0.0611989	0.634692	
0.295217	0.00291132	0.703732	
0.272064	-0.0681442	0.59838	
0.21299	-0.0111081	0.575703	
-0.214953	0.122747	0.749953	
-0.357252	0.187897	0.739185	
-0.27609	0.255234	0.739837	
-0.225046	0.183718	0.683937	
0.0912931	0.252729	0.837007	
-0.00874456	0.250849	0.799219	
0.0942175	0.125111	0.789315	
0.0295128	0.209804	0.905326	
0.4284	-0.257824	0.704976	
0.309086	-0.228865	0.737481	
0.316097	-0.149618	0.645405	
0.329947	-0.238467	0.603405	
0.0942175	0.125111	0.789315	
0.177848	0.156277	0.877262	
0.190324	0.0393932	0.833873	
0.223491	0.0887848	0.734304	
-0.490343	0.0977967	0.758774	
-0.327614	0.0876466	0.725276	
-0.385513	-0.0181868	0.734694	
-0.401952	0.0654763	0.671747	
-0.105455	-0.255435	0.5	
-0.0912866	-0.293514	0.577692	
-0.0717603	-0.216541	0.630077	
-0.172932	-0.247597	0.585974	
-0.242822	0.437078	0.847009	
-0.124209	0.359991	0.89696	
-0.163252	0.278732	0.833643	
-0.115526	0.359753	0.796074	
0.313791	-0.154465	1	
0.382055	-0.0743662	0.891735	
0.344185	-0.180158	0.894872	
0.243698	-0.168497	0.902816	
0.0848114	-0.374635	0.706588	
0.192404	-0.317473	0.724143	
0.116472	-0.275537	0.636806	
0.0420743	-0.281954	0.683615	
-0.19595	0.28972	0.5	
-0.21408	0.346313	0.633756	
-0.270598	0.271491	0.600584	
-0.181479	0.221098	0.584819	
0.112799	-0.33356	1	
0.118204	-0.307408	0.828129	
0.0943468	-0.245334	1	
0.153768	-0.209711	0.888749	
0.0458333	0.00416667	0.749305	
-0.00860123	-0.101114	0.760951	
-0.00100849	-0.0205955	0.627967	
0.0829508	-0.0830948	0.742858	
-0.0788669	0.0768903	0.663116	
-0.179918	0.142525	0.617274	
-0.0623911	0.203393	0.630433	
-0.124864	0.0783821	0.585361	
0.0353553	-0.335355	0.5	
0.0545279	-0.357398	0.586263	
0.05	-0.3	0.5	
-0.0144004	-0.334766	0.569106	
-0.05	0.216667	0.5	
-0.0623911	0.203393	0.630433	
0.00200732	0.174835	0.5	
0.0335927	0.239842	0.602535	
0.153328	-0.47591	0.90763	
0.168734	-0.470668	0.798219	
0.118204	-0.307408	0.828129	
0.205413	-0.339549	0.892186	
0.201164	-0.273578	1	
0.253273	-0.249599	0.843605	
0.268393	-0.334301	1	
0.205413	-0.339549	0.892186	
0.296877	0.173007	0.841873	
0.370295	0.150924	0.909678	
0.415735	0.277785	0.865862	
0.296275	0.264777	0.897601	
0.285692	-0.172599	0.5	
0.329947	-0.238467	0.603405	
0.316097	-0.149618	0.645405	
0.24957	-0.148488	0.574982	
-0.319213	-0.265223	0.5	
-0.386831	-0.3168	0.604097	
-0.267754	-0.225502	0.603013	
-0.370241	-0.156649	0.594441	
-0.00291132	0.295217	0.703732	
-0.0949641	0.22959	0.742345	
-0.00874456	0.250849	0.799219	
-0.115526	0.359753	0.796074	
0.327662	-0.113303	0.5	
0.316097	-0.149618	0.645405	
0.272064	-0.0681442	0.59838	
0.24957	-0.148488	0.574982	
-0.0275533	0.349484	0.845155	
0.106564	0.358516	0.753234	
0.0912931	0.252729	0.837007	
-0.00874456	0.250849	0.799219	
-0.113303	-0.327662	0.5	
-0.114629	-0.403225	0.5	
-0.070805	-0.359322	0.5	
-0.140302	-0.350193	0.62321	
0.0722049	-0.334139	0.5	
0.136577	-0.332433	0.5	
0.101011	-0.298593	0.5	
0.116472	-0.275537	0.565587	
0.332433	0.136577	0.5	
0.298593	0.101011	0.5	
0.281543	0.0750159	0.578871	
0.257762	0.17825	0.572115	
0.118204	-0.307408	0.828129	
0.00809469	-0.342857	0.777216	
0.0850581	-0.218776	0.727528	
0.0420743	-0.281954	0.683615	
-0.377437	-0.0892306	0.5	
-0.357398	-0.0545279	0.581884	
-0.411745	-0.136955	0.5	
-0.370241	-0.156649	0.594441	
-0.164797	-0.0240318	0.828417	
-0.0858575	-0.0573451	0.909067	
-0.124832	0.0586014	0.906551	
-0.243062	-0.0438203	0.910197	
0.105455	0.255435	0.5	
0.172599	0.285692	0.5	
0.113303	0.327662	0.5	
0.12289	0.290081	0.637079	
-0.104344	-0.174965	0.5	
-0.05	-0.133333	0.5	
-0.10302	-0.108424	0.5	
-0.0312742	-0.12116	0.604392	
-0.216667	0.05	0.5	
-0.268836	0.0809708	0.594884	
-0.198991	0.0214385	0.631757	
-0.124864	0.0783821	0.585361	
0.242822	-0.437078	0.847009	
0.247057	-0.434698	0.749501	
0.168734	-0.470668	0.798219	
0.192404	-0.317473	0.724143	
0.247868	0.146306	1	
0.296877	0.173007	0.841873	
0.300884	0.198715	1	
0.258755	0.0906035	0.896517	
0.172599	0.285692	0.5	
0.12289	0.290081	0.637079	
0.253284	0.276753	0.625058	
0.19252	0.354505	0.600343	
-0.0810399	-0.493389	0.85285	
-0.144862	-0.478555	0.921652	
-0.0684459	-0.495293	0.931403	
-0.0685138	-0.341556	0.85476	
0.175	-0.0611989	0.634692	
0.171958	-0.1808	0.606406	
0.174965	-0.104344	0.5	
0.24957	-0.148488	0.574982	
0.175	-0.0611989	0.634692	
0.0851262	-0.069993	0.591553	
0.0989017	0.0145443	0.654463	
0.21299	-0.0111081	0.575703	
0.0458333	0.00416667	0.749305	
0.145586	0.022498	0.744291	
0.086984	-0.0195503	0.879555	
0.0829508	-0.0830948	0.742858	
-0.0144004	-0.334766	0.641321	
0.0232632	-0.246364	0.605213	
-0.0144004	-0.334766	0.569106	
-0.0912866	-0.293514	0.577692	
-0.048473	-0.0328568	1	
-0.0338793	0.0189553	0.867322	
0.0209546	0.0362755	1	
0.0136102	-0.0944981	0.903895	
-0.356684	-0.19351	1	
-0.41072	-0.12459	1	
-0.344127	-0.112227	1	
-0.349811	-0.108212	0.856986	
0.193656	-0.194449	0.720197	
0.171958	-0.1808	0.606406	
0.175	-0.0611989	0.634692	
0.251569	-0.0890044	0.696136	
-0.190903	-0.246146	0.678266	
-0.125401	-0.180396	0.755134	
-0.10367	-0.266109	0.799505	
-0.0872901	-0.296751	0.662404	
-0.356684	-0.19351	1	
-0.47591	-0.153328	0.90763	
-0.41072	-0.12459	1	
-0.349811	-0.108212	0.856986	
-0.291878	0.202294	0.852394	
-0.27609	0.255234	0.739837	
-0.163252	0.278732	0.833643	
-0.189541	0.216222	0.763213	
0.460548	0.194667	0.73433	
0.428195	0.258165	0.701755	
0.469721	0.171353	0.661666	
0.316638	0.224466	0.734195	
-0.00291132	0.295217	0.703732	
0.0839731	0.219451	0.721314	
0.106564	0.358516	0.753234	
-0.00874456	0.250849	0.799219	
0.0232632	-0.246364	0.605213	
0.0420743	-0.281954	0.683615	
0.0850581	-0.218776	0.727528	
-0.026527	-0.165458	0.694773	
0.216667	-0.05	0.5	
0.272064	-0.0681442	0.59838	
0.174965	-0.104344	0.5	
0.24957	-0.148488	0.574982	
0.299755	0.133787	0.640165	
0.223491	0.0887848	0.734304	
0.363042	0.112521	0.74989	
0.316638	0.224466	0.734195	
0.314271	-0.0501881	1	
0.262288	-0.0152307	0.900549	
0.282439	-0.104966	0.83613	
0.243698	-0.168497	0.902816	
-0.261345	-0.230036	1	
-0.318327	-0.225041	0.895751	
-0.230163	-0.183396	0.833896	
-0.258725	-0.308783	0.897858	
0	-0.5	0.8	
0.0807477	-0.493437	0.845776	
0.0854243	-0.492649	0.748597	
0.00809469	-0.342857	0.777216	
-0.0353553	0.335355	0.5	
-0.0722049	0.334139	0.5	
-0.05	0.3	0.5	
-0.00291132	0.295217	0.558405	
0.450285	-0.217356	0.644698	
0.415735	-0.277785	0.634138	
0.4284	-0.257824	0.704976	
0.329947	-0.238467	0.603405	
-0.317206	0.386498	0.700322	
-0.27609	0.255234	0.739837	
-0.374193	0.331632	0.665357	
-0.270598	0.271491	0.600584	
0.231243	0.24169	1	
0.296275	0.264777	0.897601	
0.177848	0.156277	0.877262	
0.169783	0.254878	0.90212	
-0.386505	0.317197	0.931175	
-0.318983	0.261743	1	
-0.291878	0.202294	0.852394	
-0.25253	0.295971	0.897838	
0.334766	0.0144004	0.60495	
0.272064	-0.0681442	0.59838	
0.295217	0.00291132	0.703732	
0.21299	-0.0111081	0.575703	
0.106564	0.358516	0.753234	
0.168734	0.470668	0.701781	
0.198642	0.311382	0.714561	
0.19252	0.354505	0.600343	
-0.0372406	0.417791	1	
0.0153159	0.363557	1	
-0.0275533	0.349484	0.845155	
0.045063	0.398304	0.900567	
-0.0810399	-0.493389	0.85285	
-0.0977967	-0.490343	0.758774	
-0.171353	-0.469721	0.838334	
-0.0685138	-0.341556	0.85476	
0.0232632	-0.246364	0.605213	
0.0850581	-0.218776	0.727528	
0.116472	-0.275537	0.636806	
0.0797732	-0.172712	0.582888	
-0.0977967	-0.490343	0.758774	
0	-0.5	0.8	
0	-0.5	0.7	
0.00809469	-0.342857	0.777216	
0.0461078	-0.0584269	1	
0.0209546	0.0362755	1	
0.086984	-0.0195503	0.879555	
0.0136102	-0.0944981	0.903895	
-0.220651	0.0125647	0.740031	
-0.230911	0.053351	0.887346	
-0.214953	0.122747	0.749953	
-0.290365	0.115706	0.809779	
0.242822	-0.437078	0.847009	
0.316847	-0.386792	0.801384	
0.247057	-0.434698	0.749501	
0.192404	-0.317473	0.724143	
0.115537	0.0107471	1	
0.210156	-0.0147965	1	
0.086984	-0.0195503	0.879555	
0.130088	0.0681493	0.912467	
0.070805	0.359322	0.5	
0.113303	0.327662	0.5	
0.0827402	0.389706	0.606734	
0.0222826	0.353795	0.558177	
-0.05	-0.216667	0.5	
0.0232632	-0.246364	0.605213	
-0.0717603	-0.216541	0.630077	
-0.0912866	-0.293514	0.577692	
-0.319213	-0.265223	0.5	
-0.368925	-0.202831	0.5	
-0.386831	-0.3168	0.604097	
-0.370241	-0.156649	0.594441	
0.295217	0.00291132	0.703732	
0.272064	-0.0681442	0.59838	
0.334766	0.0144004	0.60495	
0.393693	-0.0146265	0.683142	
0.0912931	0.252729	0.837007	
0.0839731	0.219451	0.721314	
0.106564	0.358516	0.753234	
0.198642	0.311382	0.714561	
0.12289	0.290081	0.637079	
0.185114	0.178816	0.60757	
0.199071	0.201004	0.718052	
0.0839731	0.219451	0.721314	
0.0848114	-0.374635	0.706588	
0.00809469	-0.342857	0.777216	
-0.0144004	-0.334766	0.641321	
0.0170927	-0.420241	0.640557	
0.0807477	0.493437	0.654224	
0.0827402	0.389706	0.606734	
0.106564	0.358516	0.753234	
0.00685904	0.408881	0.656439	
-0.05	0.133333	0.5	
-0.110158	0.209083	0.5	
-0.139117	0.156778	0.5	
-0.0623911	0.203393	0.630433	
-0.171353	-0.469721	0.838334	
-0.0685138	-0.341556	0.85476	
-0.194168	-0.311781	0.817902	
-0.156768	-0.340879	0.911535	
0.0942175	0.125111	0.789315	
0.177848	0.156277	0.877262	
0.0912931	0.252729	0.837007	
0.0295128	0.209804	0.905326	
0.299755	0.133787	0.640165	
0.199071	0.201004	0.718052	
0.223491	0.0887848	0.734304	
0.316638	0.224466	0.734195	
0	0.5	0.9	
-0.0704482	0.495012	0.928155	
-0.0275533	0.349484	0.845155	
0.045063	0.398304	0.900567	
0.0153159	0.363557	1	
0.0401436	0.291204	1	
-0.0275533	0.349484	0.845155	
0.045063	0.398304	0.900567	
-0.386505	0.317197	0.931175	
-0.318983	0.261743	1	
-0.436762	0.243391	0.903062	
-0.291878	0.202294	0.852394	
0.295217	0.00291132	0.703732	
0.366266	-0.0917065	0.74426	
0.350295	0.0306837	0.84806	
0.255406	-0.0213367	0.790897	
-0.386831	-0.3168	0.604097	
-0.267754	-0.225502	0.603013	
-0.313218	-0.202403	0.699795	
-0.276638	-0.296057	0.718432	
-0.190903	-0.246146	0.678266	
-0.0717603	-0.216541	0.630077	
-0.125401	-0.180396	0.755134	
-0.0872901	-0.296751	0.662404	
-0.0925337	-0.196451	1	
-0.0699367	-0.141385	0.854754	
0.0124212	-0.23804	0.873103	
-0.127689	-0.241885	0.89237	
0.0712814	-0.153152	1	
0.0943468	-0.245334	1	
0.0124212	-0.23804	0.873103	
0.153768	-0.209711	0.888749	
0.108424	-0.10302	0.5	
0.139117	-0.156778	0.5	
0.0851262	-0.069993	0.591553	
0.0797732	-0.172712	0.582888	
-0.0372406	0.417791	1	
-0.0275533	0.349484	0.845155	
-0.0555676	0.325574	1	
-0.124209	0.359991	0.89696	
-0.142648	-0.00714059	1	
-0.124832	0.0586014	0.906551	
-0.0858575	-0.0573451	0.909067	
-0.243062	-0.0438203	0.910197	
-0.209083	-0.110158	0.5	
-0.257817	-0.0951035	0.5	
-0.275537	-0.116472	0.607416	
-0.259968	-0.0294564	0.588658	
-0.327614	0.0876466	0.725276	
-0.357252	0.187897	0.739185	
-0.214953	0.122747	0.749953	
-0.225046	0.183718	0.683937	
0.366266	-0.0917065	0.74426	
0.382055	-0.0743662	0.891735	
0.282439	-0.104966	0.83613	
0.344185	-0.180158	0.894872	
-0.190903	-0.246146	0.678266	
-0.10367	-0.266109	0.799505	
-0.0924024	-0.340318	0.735056	
-0.0872901	-0.296751	0.662404	
0.35	0	0.5	
0.335355	0.0353553	0.5	
0.31384	0.0131388	0.5	
0.295217	0.00291132	0.558405	
0.0153159	0.363557	1	
0.0401436	0.291204	1	
-0.0555676	0.325574	1	
-0.0275533	0.349484	0.845155	
0.0781685	0.124409	0.653995	
-0.0119975	0.149532	0.712677	
0.0335927	0.239842	0.602535	
-0.00961934	0.119858	0.599022	
0.175	-0.0611989	0.634692	
0.0989017	0.0145443	0.654463	
0.0851262	-0.069993	0.591553	
0.0829508	-0.0830948	0.742858	
-0.05	0.216667	0.5	
-0.0623911	0.203393	0.630433	
0.0335927	0.239842	0.602535	
-0.00291132	0.295217	0.558405	
0.316847	0.386792	0.698616	
0.253284	0.276753	0.625058	
0.316638	0.224466	0.734195	
0.198642	0.311382	0.714561	
-0.163252	0.278732	0.833643	
-0.00874456	0.250849	0.799219	
-0.0949641	0.22959	0.742345	
-0.115526	0.359753	0.796074	
-0.198991	0.0214385	0.631757	
-0.281543	-0.0750159	0.710149	
-0.259968	-0.0294564	0.588658	
-0.203542	-0.0724399	0.653763	
0.0401436	0.291204	1	
0.0295128	0.209804	0.905326	
0.0912931	0.252729	0.837007	
0.169783	0.254878	0.90212	
-0.356684	-0.19351	1	
-0.440961	-0.235698	0.931431	
-0.349811	-0.108212	0.856986	
-0.318327	-0.225041	0.895751	
-0.4284	0.257824	0.704976	
-0.307291	0.177008	0.64695	
-0.450285	0.217356	0.644698	
-0.351055	0.232374	0.591168	
0.439458	-0.238488	0.575692	
0.476114	-0.152694	0.59754	
0.368447	-0.183279	0.5	
0.39071	-0.0800656	0.604798	
-0.344127	-0.112227	1	
-0.278713	-0.14304	1	
-0.349811	-0.108212	0.856986	
-0.243062	-0.0438203	0.910197	
-0.0699367	-0.141385	0.854754	
-0.125401	-0.180396	0.755134	
-0.182236	-0.0903375	0.74647	
-0.0730504	-0.0481965	0.809858	
-0.493437	-0.0807477	0.845776	
-0.385513	-0.0181868	0.734694	
-0.349811	-0.108212	0.856986	
-0.369358	-0.124566	0.75116	
-0.401548	-0.0423374	1	
-0.41072	-0.12459	1	
-0.495012	-0.0704482	0.928155	
-0.349811	-0.108212	0.856986	
-0.401548	-0.0423374	1	
-0.349811	-0.108212	0.856986	
-0.495012	-0.0704482	0.928155	
-0.404225	0.0311984	0.902579	
-0.163252	0.278732	0.833643	
-0.166409	0.150419	0.871568	
-0.291878	0.202294	0.852394	
-0.189541	0.216222	0.763213	
-0.0144004	-0.334766	0.641321	
-0.0656658	-0.406088	0.605213	
-0.0924024	-0.340318	0.735056	
-0.0872901	-0.296751	0.662404	
-0.0699367	-0.141385	0.854754	
-0.0218405	-0.241762	0.749515	
0.0124212	-0.23804	0.873103	
-0.10367	-0.266109	0.799505	
-0.214953	0.122747	0.749953	
-0.189541	0.216222	0.763213	
-0.27609	0.255234	0.739837	
-0.290365	0.115706	0.809779	
0.0781685	0.124409	0.653995	
0.0839731	0.219451	0.721314	
0.0335927	0.239842	0.602535	
-0.0119975	0.149532	0.712677	
-0.0807477	0.493437	0.845776	
-0.0275533	0.349484	0.845155	
-0.0704482	0.495012	0.928155	
-0.124209	0.359991	0.89696	
0.175	-0.0611989	0.634692	
0.171958	-0.1808	0.606406	
0.0558284	-0.130931	0.665335	
0.0851262	-0.069993	0.591553	
-0.359322	0.070805	0.5	
-0.335355	0.0353553	0.5	
-0.3	0.05	0.5	
-0.334766	0.0144004	0.563203	
-0.0555676	0.325574	1	
-0.0372406	0.417791	1	
0.0153159	0.363557	1	
-0.0275533	0.349484	0.845155	
-0.0924024	-0.340318	0.735056	
-0.190903	-0.246146	0.678266	
-0.191043	-0.351595	0.71168	
-0.10367	-0.266109	0.799505	
0.118204	-0.307408	0.828129	
0.0848114	-0.374635	0.706588	
0.00809469	-0.342857	0.777216	
0.0420743	-0.281954	0.683615	
0.115537	0.0107471	1	
0.086984	-0.0195503	0.879555	
0.210156	-0.0147965	1	
0.176835	-0.0957025	0.888175	
-0.166409	0.150419	0.871568	
-0.230911	0.053351	0.887346	
-0.113452	0.0682357	0.775647	
-0.124832	0.0586014	0.906551	
-0.183279	-0.368447	0.5	
-0.140302	-0.350193	0.62321	
-0.172599	-0.285692	0.5	
-0.2387	-0.321065	0.626825	
0.00200732	0.174835	0.5	
-0.0623911	0.203393	0.630433	
-0.05	0.216667	0.5	
-0.00961934	0.119858	0.599022	
-0.0218405	-0.241762	0.749515	
-0.125401	-0.180396	0.755134	
-0.00860123	-0.101114	0.760951	
-0.026527	-0.165458	0.694773	
-0.257956	0.116321	1	
-0.328307	0.16356	1	
-0.291878	0.202294	0.852394	
-0.369146	0.1248	0.88989	
0.316097	-0.149618	0.645405	
0.309086	-0.228865	0.737481	
0.240952	-0.280119	0.617373	
0.329947	-0.238467	0.603405	
0.175	-0.0611989	0.634692	
0.0851262	-0.069993	0.591553	
0.0558284	-0.130931	0.665335	
0.0829508	-0.0830948	0.742858	
-0.281543	-0.0750159	0.710149	
-0.220651	0.0125647	0.740031	
-0.385513	-0.0181868	0.734694	
-0.266891	-0.0501392	0.812706	
-0.166493	-0.210048	0.5	
-0.104344	-0.174965	0.5	
-0.165932	-0.151801	0.614298	
-0.172932	-0.247597	0.585974	
-0.05	0.3	0.5	
-0.101011	0.298593	0.5	
-0.0951035	0.257817	0.5	
-0.116472	0.275537	0.591143	
-0.385513	-0.0181868	0.734694	
-0.220651	0.0125647	0.740031	
-0.332366	0.0316806	0.831947	
-0.266891	-0.0501392	0.812706	
-0.411745	-0.136955	0.5	
-0.437042	-0.0584891	0.5	
-0.494668	-0.0728232	0.573541	
-0.357398	-0.0545279	0.581884	
0.199071	0.201004	0.718052	
0.223611	0.287945	0.822031	
0.296877	0.173007	0.841873	
0.316638	0.224466	0.734195	
-0.0699367	-0.141385	0.854754	
-0.125401	-0.180396	0.755134	
-0.230163	-0.183396	0.833896	
-0.170347	-0.112486	0.899727	
0.0814864	0.493315	0.847681	
0.106564	0.358516	0.753234	
0.138051	0.361812	0.873206	
0.045063	0.398304	0.900567	
-0.110158	0.209083	0.5	
-0.0623911	0.203393	0.630433	
-0.116472	0.275537	0.591143	
-0.181479	0.221098	0.584819	
-0.490343	0.0977967	0.758774	
-0.357252	0.187897	0.739185	
-0.327614	0.0876466	0.725276	
-0.401952	0.0654763	0.671747	
0.25658	-0.429146	0.66876	
0.192404	-0.317473	0.724143	
0.240952	-0.280119	0.617373	
0.159651	-0.364489	0.598434	
-0.27609	0.255234	0.739837	
-0.357252	0.187897	0.739185	
-0.214953	0.122747	0.749953	
-0.290365	0.115706	0.809779	
0.05	-0.3	0.5	
-0.0144004	-0.334766	0.569106	
0.0545279	-0.357398	0.586263	
0.0232632	-0.246364	0.605213	
0.0335927	0.239842	0.602535	
-0.0119975	0.149532	0.712677	
-0.0623911	0.203393	0.630433	
-0.00961934	0.119858	0.599022	
0.00200732	0.174835	0.5	
0.0335927	0.239842	0.602535	
-0.0623911	0.203393	0.630433	
-0.00961934	0.119858	0.599022	
0.469721	-0.171353	0.838334	
0.460548	-0.194667	0.76567	
0.428195	-0.258165	0.798245	
0.344185	-0.180158	0.894872	
-0.0699367	-0.141385	0.854754	
-0.230163	-0.183396	0.833896	
-0.125401	-0.180396	0.755134	
-0.127689	-0.241885	0.89237	
0.115537	0.0107471	1	
0.14072	-0.0839746	1	
0.086984	-0.0195503	0.879555	
0.176835	-0.0957025	0.888175	
-0.0305468	0.374084	0.5	
-0.0353553	0.335355	0.5	
0.0222826	0.353795	0.558177	
-0.0376575	0.408608	0.57511	
-0.428195	0.258165	0.798245	
-0.369146	0.1248	0.88989	
-0.469721	0.171353	0.838334	
-0.357252	0.187897	0.739185	
-0.166409	0.150419	0.871568	
-0.230911	0.053351	0.887346	
-0.291878	0.202294	0.852394	
-0.290365	0.115706	0.809779	
0.299755	0.133787	0.640165	
0.190245	0.0667888	0.625379	
0.295217	0.00291132	0.703732	
0.223491	0.0887848	0.734304	
-0.349811	-0.108212	0.856986	
-0.266891	-0.0501392	0.812706	
-0.230163	-0.183396	0.833896	
-0.369358	-0.124566	0.75116	
-0.0638367	-0.295761	1	
0.0124212	-0.23804	0.873103	
-0.0685138	-0.341556	0.85476	
-0.127689	-0.241885	0.89237	
-0.0969866	-0.088866	0.682079	
-0.00860123	-0.101114	0.760951	
-0.00100849	-0.0205955	0.627967	
-0.0557779	-0.00339833	0.72595	
0.112799	-0.33356	1	
0.0415638	-0.384519	0.881679	
0.118204	-0.307408	0.828129	
0.205413	-0.339549	0.892186	
-0.275537	-0.116472	0.607416	
-0.313218	-0.202403	0.699795	
-0.281543	-0.0750159	0.710149	
-0.396738	-0.0922406	0.663051	
0.0989017	0.0145443	0.654463	
0.0877437	0.0690174	0.581458	
0.190245	0.0667888	0.625379	
0.21299	-0.0111081	0.575703	
-0.298593	-0.101011	0.5	
-0.268365	-0.14329	0.5	
-0.257817	-0.0951035	0.5	
-0.275537	-0.116472	0.607416	
-0.0218405	-0.241762	0.749515	
-0.10367	-0.266109	0.799505	
-0.125401	-0.180396	0.755134	
-0.0872901	-0.296751	0.662404	
-0.268365	-0.14329	0.5	
-0.22133	-0.175555	0.5	
-0.209083	-0.110158	0.5	
-0.275537	-0.116472	0.607416	
0.0892306	-0.377437	0.5	
0.136577	-0.332433	0.5	
0.0722049	-0.334139	0.5	
0.0545279	-0.357398	0.586263	
0.299755	0.133787	0.640165	
0.253284	0.276753	0.625058	
0.199071	0.201004	0.718052	
0.316638	0.224466	0.734195	
-0.0623911	0.203393	0.630433	
-0.179918	0.142525	0.617274	
-0.17825	0.257762	0.661466	
-0.181479	0.221098	0.584819	
0.299755	0.133787	0.640165	
0.334766	0.0144004	0.60495	
0.295217	0.00291132	0.703732	
0.281543	0.0750159	0.578871	
-0.0969866	-0.088866	0.682079	
-0.165932	-0.151801	0.614298	
-0.125401	-0.180396	0.755134	
-0.182236	-0.0903375	0.74647	
-0.209083	-0.110158	0.5	
-0.275537	-0.116472	0.607416	
-0.22133	-0.175555	0.5	
-0.165932	-0.151801	0.614298	
0.193656	-0.194449	0.720197	
0.309086	-0.228865	0.737481	
0.316097	-0.149618	0.645405	
0.251569	-0.0890044	0.696136	
-0.0435837	0.153197	0.818477	
0.0378724	0.109427	0.891855	
0.0942175	0.125111	0.789315	
0.0295128	0.209804	0.905326	
-0.156778	-0.139117	0.5	
-0.133333	-0.05	0.5	
-0.209083	-0.110158	0.5	
-0.165932	-0.151801	0.614298	
0.0728232	-0.494668	0.573541	
0.146853	-0.477948	0.584008	
0.0545279	-0.357398	0.586263	
0.0170927	-0.420241	0.640557	
0.334766	0.0144004	0.60495	
0.295217	0.00291132	0.558405	
0.272064	-0.0681442	0.59838	
0.21299	-0.0111081	0.575703	
-0.070805	-0.359322	0.5	
-0.0217786	-0.376393	0.5	
-0.0353553	-0.335355	0.5	
-0.0144004	-0.334766	0.569106	
0.490343	0.0977967	0.741226	
0.363042	0.112521	0.74989	
0.493389	0.0810399	0.64715	
0.393693	-0.0146265	0.683142	
-0.450285	0.217356	0.644698	
-0.307291	0.177008	0.64695	
-0.4284	0.257824	0.704976	
-0.357252	0.187897	0.739185	
-0.337562	0.0547633	1	
-0.302044	-0.0506462	1	
-0.404225	0.0311984	0.902579	
-0.243062	-0.0438203	0.910197	
0.282439	-0.104966	0.83613	
0.314271	-0.0501881	1	
0.382055	-0.0743662	0.891735	
0.262288	-0.0152307	0.900549	
0.0232632	-0.246364	0.605213	
0.0850581	-0.218776	0.727528	
0.0558284	-0.130931	0.665335	
-0.026527	-0.165458	0.694773	
0.116472	-0.275537	0.636806	
0.193656	-0.194449	0.720197	
0.171958	-0.1808	0.606406	
0.0850581	-0.218776	0.727528	
-0.380873	0.323938	0.847739	
-0.291878	0.202294	0.852394	
-0.428195	0.258165	0.798245	
-0.27609	0.255234	0.739837	
-0.0623911	0.203393	0.630433	
-0.179918	0.142525	0.617274	
-0.0788669	0.0768903	0.663116	
-0.132843	0.148259	0.702998	
0.174965	-0.104344	0.5	
0.175	-0.0611989	0.634692	
0.133333	-0.05	0.5	
0.0851262	-0.069993	0.591553	
0.00183684	-0.222331	1	
0.0124212	-0.23804	0.873103	
-0.0638367	-0.295761	1	
-0.127689	-0.241885	0.89237	
0.253273	-0.249599	0.843605	
0.309086	-0.228865	0.737481	
0.282439	-0.104966	0.83613	
0.344185	-0.180158	0.894872	
-0.00100849	-0.0205955	0.627967	
-0.00860123	-0.101114	0.760951	
0.0458333	0.00416667	0.749305	
-0.0557779	-0.00339833	0.72595	
0.296877	0.173007	0.841873	
0.370295	0.150924	0.909678	
0.300884	0.198715	1	
0.258755	0.0906035	0.896517	
-0.334139	-0.0722049	0.5	
-0.298593	-0.101011	0.5	
-0.3	-0.05	0.5	
-0.357398	-0.0545279	0.581884	
0.0458333	0.00416667	0.749305	
0.145586	0.022498	0.744291	
0.0989017	0.0145443	0.654463	
0.0134301	0.0589223	0.678402	
0.469721	-0.171353	0.838334	
0.493389	-0.0810399	0.85285	
0.366266	-0.0917065	0.74426	
0.382055	-0.0743662	0.891735	
0.118204	-0.307408	0.828129	
0.153768	-0.209711	0.888749	
0.253273	-0.249599	0.843605	
0.200293	-0.156985	0.812694	
-0.17494	-0.00200732	0.5	
-0.216667	0.05	0.5	
-0.198991	0.0214385	0.631757	
-0.124864	0.0783821	0.585361	
0.172599	0.285692	0.5	
0.12289	0.290081	0.637079	
0.105455	0.255435	0.5	
0.112623	0.215093	0.576525	
0.175555	-0.22133	0.5	
0.19595	-0.28972	0.5	
0.240455	-0.234106	0.5	
0.240952	-0.280119	0.617373	
0.493012	0.0833019	0.844789	
0.490343	0.0977967	0.741226	
0.5	0	0.8	
0.363042	0.112521	0.74989	
0.133074	0.264097	1	
0.0401436	0.291204	1	
0.138051	0.361812	0.873206	
0.169783	0.254878	0.90212	
-0.070805	-0.359322	0.5	
-0.140302	-0.350193	0.62321	
-0.114629	-0.403225	0.5	
-0.0656658	-0.406088	0.605213	
-0.0807477	0.493437	0.845776	
0	0.5	0.9	
-0.0704482	0.495012	0.928155	
-0.0275533	0.349484	0.845155	
-0.307291	0.177008	0.64695	
-0.357252	0.187897	0.739185	
-0.327614	0.0876466	0.725276	
-0.225046	0.183718	0.683937	
0.376757	-0.328716	0.753532	
0.316847	-0.386792	0.801384	
0.253273	-0.249599	0.843605	
0.309086	-0.228865	0.737481	
-0.0144004	-0.334766	0.641321	
0.0420743	-0.281954	0.683615	
0.0232632	-0.246364	0.605213	
-0.0872901	-0.296751	0.662404	
0.0722049	-0.334139	0.5	
0.0545279	-0.357398	0.586263	
0.136577	-0.332433	0.5	
0.116472	-0.275537	0.565587	
0.0209546	0.0362755	1	
0.086984	-0.0195503	0.879555	
-0.0338793	0.0189553	0.867322	
0.0378724	0.109427	0.891855	
0.327662	-0.113303	0.5	
0.272064	-0.0681442	0.59838	
0.39071	-0.0800656	0.604798	
0.353795	-0.0222826	0.558177	
-0.359322	0.070805	0.5	
-0.334766	0.0144004	0.563203	
-0.364126	0.107425	0.596298	
-0.416699	0.00631676	0.584325	
-0.163252	0.278732	0.833643	
-0.0640422	0.245911	0.888875	
-0.00874456	0.250849	0.799219	
-0.115526	0.359753	0.796074	
-0.125401	-0.180396	0.755134	
-0.182236	-0.0903375	0.74647	
-0.165932	-0.151801	0.614298	
-0.232732	-0.157842	0.680234	
-0.113303	-0.327662	0.5	
-0.172599	-0.285692	0.5	
-0.140302	-0.350193	0.62321	
-0.0912866	-0.293514	0.577692	
0.174523	-0.0723952	0.765964	
0.200293	-0.156985	0.812694	
0.0815829	-0.137875	0.832541	
0.0829508	-0.0830948	0.742858	
-0.108627	0.359588	0.683823	
-0.0949641	0.22959	0.742345	
-0.00291132	0.295217	0.703732	
-0.115526	0.359753	0.796074	
0.296877	0.173007	0.841873	
0.316638	0.224466	0.734195	
0.223611	0.287945	0.822031	
0.296275	0.264777	0.897601	
-0.374084	-0.0305468	0.5	
-0.335355	-0.0353553	0.5	
-0.35	0	0.5	
-0.334766	0.0144004	0.563203	
-0.125401	-0.180396	0.755134	
-0.00860123	-0.101114	0.760951	
-0.0969866	-0.088866	0.682079	
-0.0730504	-0.0481965	0.809858	
0.380873	-0.323938	0.847739	
0.253273	-0.249599	0.843605	
0.428195	-0.258165	0.798245	
0.309086	-0.228865	0.737481	
-0.401548	-0.0423374	1	
-0.302044	-0.0506462	1	
-0.349811	-0.108212	0.856986	
-0.404225	0.0311984	0.902579	
-0.048473	-0.0328568	1	
0.0209546	0.0362755	1	
0.0461078	-0.0584269	1	
0.0136102	-0.0944981	0.903895	
-0.235698	0.440961	0.931431	
-0.201912	0.369986	1	
-0.25253	0.295971	0.897838	
-0.124209	0.359991	0.89696	
0.193656	-0.194449	0.720197	
0.240952	-0.280119	0.617373	
0.116472	-0.275537	0.636806	
0.171958	-0.1808	0.606406	
0.374193	-0.331632	0.665357	
0.240952	-0.280119	0.617373	
0.309086	-0.228865	0.737481	
0.329947	-0.238467	0.603405	
-0.05	-0.216667	0.5	
-0.0717603	-0.216541	0.630077	
-0.105455	-0.255435	0.5	
-0.0912866	-0.293514	0.577692	
0.282439	-0.104966	0.83613	
0.366266	-0.0917065	0.74426	
0.350295	0.0306837	0.84806	
0.382055	-0.0743662	0.891735	
-0.315029	-0.388274	0.579193	
-0.319213	-0.265223	0.5	
-0.386831	-0.3168	0.604097	
-0.2387	-0.321065	0.626825	
0.469721	0.171353	0.661666	
0.493389	0.0810399	0.64715	
0.363042	0.112521	0.74989	
0.38867	0.101377	0.601055	
0.350295	0.0306837	0.84806	
0.366266	-0.0917065	0.74426	
0.282439	-0.104966	0.83613	
0.255406	-0.0213367	0.790897	
-0.22133	-0.175555	0.5	
-0.165932	-0.151801	0.614298	
-0.267754	-0.225502	0.603013	
-0.172932	-0.247597	0.585974	
0.0558284	-0.130931	0.665335	
0.0850581	-0.218776	0.727528	
0.0232632	-0.246364	0.605213	
0.0797732	-0.172712	0.582888	
0.0912931	0.252729	0.837007	
0.106564	0.358516	0.753234	
0.0839731	0.219451	0.721314	
-0.00874456	0.250849	0.799219	
0.136955	-0.411745	0.5	
0.0545279	-0.357398	0.586263	
0.146853	-0.477948	0.584008	
0.159651	-0.364489	0.598434	
-0.327662	0.113303	0.5	
-0.364126	0.107425	0.596298	
-0.359322	0.070805	0.5	
-0.334766	0.0144004	0.563203	
0.316097	-0.149618	0.645405	
0.366266	-0.0917065	0.74426	
0.39071	-0.0800656	0.604798	
0.393693	-0.0146265	0.683142	
-0.0623911	0.203393	0.630433	
-0.0144004	0.334766	0.60495	
0.0335927	0.239842	0.602535	
-0.00291132	0.295217	0.558405	
-0.26105	0.203399	1	
-0.291878	0.202294	0.852394	
-0.25253	0.295971	0.897838	
-0.172627	0.234526	0.919455	
-0.110158	0.209083	0.5	
-0.05	0.216667	0.5	
-0.0951035	0.257817	0.5	
-0.116472	0.275537	0.591143	
-0.315029	-0.388274	0.579193	
-0.254144	-0.321855	0.5	
-0.319213	-0.265223	0.5	
-0.2387	-0.321065	0.626825	
0.19595	-0.28972	0.5	
0.159651	-0.364489	0.598434	
0.240952	-0.280119	0.617373	
0.116472	-0.275537	0.565587	
-0.136577	0.332433	0.5	
-0.19595	0.28972	0.5	
-0.14329	0.268365	0.5	
-0.116472	0.275537	0.591143	
-0.0969866	-0.088866	0.682079	
-0.125401	-0.180396	0.755134	
-0.0717603	-0.216541	0.630077	
-0.026527	-0.165458	0.694773	
0.0335927	0.239842	0.602535	
0.0839731	0.219451	0.721314	
0.0781685	0.124409	0.653995	
0.112623	0.215093	0.576525	
-0.291878	0.202294	0.852394	
-0.166409	0.150419	0.871568	
-0.163252	0.278732	0.833643	
-0.172627	0.234526	0.919455	
0.0461078	-0.0584269	1	
0.086984	-0.0195503	0.879555	
0.14072	-0.0839746	1	
0.0136102	-0.0944981	0.903895	
-0.0338793	0.0189553	0.867322	
-0.0435837	0.153197	0.818477	
-0.113452	0.0682357	0.775647	
-0.124832	0.0586014	0.906551	
0.202831	-0.368925	0.5	
0.3168	-0.386831	0.604097	
0.240952	-0.280119	0.617373	
0.159651	-0.364489	0.598434	
0.175555	-0.22133	0.5	
0.240952	-0.280119	0.617373	
0.240455	-0.234106	0.5	
0.171958	-0.1808	0.606406	
0.0781685	0.124409	0.653995	
0.185114	0.178816	0.60757	
0.190245	0.0667888	0.625379	
0.0877437	0.0690174	0.581458	
0.295217	0.00291132	0.703732	
0.366266	-0.0917065	0.74426	
0.251569	-0.0890044	0.696136	
0.393693	-0.0146265	0.683142	
0.0815829	-0.137875	0.832541	
0.0850581	-0.218776	0.727528	
-0.00860123	-0.101114	0.760951	
0.0829508	-0.0830948	0.742858	
-0.05	-0.05	0.5	
-0.0312742	-0.12116	0.604392	
-0.00100849	-0.0205955	0.627967	
-0.104309	-0.0175295	0.603853	
-0.41072	-0.12459	1	
-0.47591	-0.153328	0.90763	
-0.495012	-0.0704482	0.928155	
-0.349811	-0.108212	0.856986	
-0.268365	-0.14329	0.5	
-0.275537	-0.116472	0.607416	
-0.28972	-0.19595	0.5	
-0.267754	-0.225502	0.603013	
0.174523	-0.0723952	0.765964	
0.086984	-0.0195503	0.879555	
0.190324	0.0393932	0.833873	
0.145586	0.022498	0.744291	
0.332433	0.136577	0.5	
0.281543	0.0750159	0.578871	
0.299755	0.133787	0.640165	
0.257762	0.17825	0.572115	
-0.307291	0.177008	0.64695	
-0.327614	0.0876466	0.725276	
-0.357252	0.187897	0.739185	
-0.401952	0.0654763	0.671747	
-0.194168	-0.311781	0.817902	
-0.125401	-0.180396	0.755134	
-0.230163	-0.183396	0.833896	
-0.10367	-0.266109	0.799505	
-0.332433	-0.136577	0.5	
-0.28972	-0.19595	0.5	
-0.275537	-0.116472	0.607416	
-0.370241	-0.156649	0.594441	
0.0850581	-0.218776	0.727528	
0.00809469	-0.342857	0.777216	
-0.0218405	-0.241762	0.749515	
0.0420743	-0.281954	0.683615	
0	-0.5	0.7	
0.0854243	-0.492649	0.748597	
0.0848114	-0.374635	0.706588	
0.00809469	-0.342857	0.777216	
0.0815829	-0.137875	0.832541	
0.176835	-0.0957025	0.888175	
0.086984	-0.0195503	0.879555	
0.0136102	-0.0944981	0.903895	
-0.0218405	-0.241762	0.749515	
-0.0717603	-0.216541	0.630077	
0.0420743	-0.281954	0.683615	
-0.0872901	-0.296751	0.662404	
0.00200732	-0.17494	0.5	
-0.0312742	-0.12116	0.604392	
0.0232632	-0.246364	0.605213	
0.0797732	-0.172712	0.582888	
0.209083	0.110158	0.5	
0.190245	0.0667888	0.625379	
0.281543	0.0750159	0.578871	
0.257762	0.17825	0.572115	
-0.125401	-0.180396	0.755134	
-0.0969866	-0.088866	0.682079	
-0.182236	-0.0903375	0.74647	
-0.0730504	-0.0481965	0.809858	
0.174965	-0.104344	0.5	
0.133333	-0.05	0.5	
0.175	-0.0611989	0.634692	
0.21299	-0.0111081	0.575703	
0.0815829	-0.137875	0.832541	
0.086984	-0.0195503	0.879555	
0.174523	-0.0723952	0.765964	
0.0829508	-0.0830948	0.742858	
-0.17825	0.257762	0.661466	
-0.179918	0.142525	0.617274	
-0.0623911	0.203393	0.630433	
-0.132843	0.148259	0.702998	
-0.166409	0.150419	0.871568	
-0.113452	0.0682357	0.775647	
-0.0435837	0.153197	0.818477	
-0.124832	0.0586014	0.906551	
-0.05	-0.05	0.5	
-0.00100849	-0.0205955	0.627967	
2.83347e-18	-1.91537e-18	0.5	
-0.104309	-0.0175295	0.603853	
-0.216667	0.05	0.5	
-0.17494	-0.00200732	0.5	
-0.198991	0.0214385	0.631757	
-0.259968	-0.0294564	0.588658	
-0.230163	-0.183396	0.833896	
-0.182236	-0.0903375	0.74647	
-0.125401	-0.180396	0.755134	
-0.232732	-0.157842	0.680234	
-0.00291132	0.295217	0.703732	
-0.00874456	0.250849	0.799219	
-0.0275533	0.349484	0.845155	
-0.115526	0.359753	0.796074	
0.386505	-0.317197	0.931175	
0.253273	-0.249599	0.843605	
0.314857	-0.257449	1	
0.344185	-0.180158	0.894872	
-0.183279	-0.368447	0.5	
-0.238488	-0.439458	0.575692	
-0.140302	-0.350193	0.62321	
-0.2387	-0.321065	0.626825	
-0.194168	-0.311781	0.817902	
-0.191043	-0.351595	0.71168	
-0.190903	-0.246146	0.678266	
-0.10367	-0.266109	0.799505	
0.268393	-0.334301	1	
0.201164	-0.273578	1	
0.314857	-0.257449	1	
0.253273	-0.249599	0.843605	
-0.0144004	0.334766	0.60495	
-0.00291132	0.295217	0.703732	
-0.0623911	0.203393	0.630433	
0.0335927	0.239842	0.602535	
-0.0788669	0.0768903	0.663116	
-0.0623911	0.203393	0.630433	
-0.00961934	0.119858	0.599022	
-0.124864	0.0783821	0.585361	
0.193656	-0.194449	0.720197	
0.192404	-0.317473	0.724143	
0.240952	-0.280119	0.617373	
0.309086	-0.228865	0.737481	
-0.268365	-0.14329	0.5	
-0.28972	-0.19595	0.5	
-0.22133	-0.175555	0.5	
-0.267754	-0.225502	0.603013	
-0.356684	-0.19351	1	
-0.440961	-0.235698	0.931431	
-0.47591	-0.153328	0.90763	
-0.349811	-0.108212	0.856986	
0.0458333	0.00416667	0.749305	
-0.00100849	-0.0205955	0.627967	
0.0989017	0.0145443	0.654463	
0.0829508	-0.0830948	0.742858	
0.190324	0.0393932	0.833873	
0.086984	-0.0195503	0.879555	
0.174523	-0.0723952	0.765964	
0.176835	-0.0957025	0.888175	
-0.0913051	-8.8983e-18	0.5	
2.83347e-18	-1.91537e-18	0.5	
-0.05	0.05	0.5	
-0.104309	-0.0175295	0.603853	
0.175	-0.0611989	0.634692	
0.145586	0.022498	0.744291	
0.0989017	0.0145443	0.654463	
0.0829508	-0.0830948	0.742858	
0.350295	0.0306837	0.84806	
0.363042	0.112521	0.74989	
0.296877	0.173007	0.841873	
0.370295	0.150924	0.909678	
-0.275537	-0.116472	0.607416	
-0.370241	-0.156649	0.594441	
-0.313218	-0.202403	0.699795	
-0.396738	-0.0922406	0.663051	
-0.113452	0.0682357	0.775647	
-0.230911	0.053351	0.887346	
-0.164797	-0.0240318	0.828417	
-0.124832	0.0586014	0.906551	
0.232997	-0.11062	1	
0.262288	-0.0152307	0.900549	
0.314271	-0.0501881	1	
0.243698	-0.168497	0.902816	
-0.138674	0.323797	1	
-0.25253	0.295971	0.897838	
-0.124209	0.359991	0.89696	
-0.172627	0.234526	0.919455	
-0.254144	-0.321855	0.5	
-0.267754	-0.225502	0.603013	
-0.319213	-0.265223	0.5	
-0.2387	-0.321065	0.626825	
-0.275537	-0.116472	0.607416	
-0.281543	-0.0750159	0.710149	
-0.357398	-0.0545279	0.581884	
-0.396738	-0.0922406	0.663051	
-0.0924024	-0.340318	0.735056	
-0.0656658	-0.406088	0.605213	
-0.140302	-0.350193	0.62321	
-0.0872901	-0.296751	0.662404	
-0.00100849	-0.0205955	0.627967	
0.0877437	0.0690174	0.581458	
-0.00961934	0.119858	0.599022	
0.0134301	0.0589223	0.678402	
0.190245	0.0667888	0.625379	
0.0989017	0.0145443	0.654463	
0.175	-0.0611989	0.634692	
0.145586	0.022498	0.744291	
0.5	0	0.9	
0.350295	0.0306837	0.84806	
0.5	0	0.8	
0.382055	-0.0743662	0.891735	
0.193656	-0.194449	0.720197	
0.116472	-0.275537	0.636806	
0.240952	-0.280119	0.617373	
0.192404	-0.317473	0.724143	
0.0912931	0.252729	0.837007	
0.106564	0.358516	0.753234	
0.223611	0.287945	0.822031	
0.198642	0.311382	0.714561	
0.493389	-0.0810399	0.85285	
0.5	0	0.8	
0.490343	-0.0977967	0.758774	
0.366266	-0.0917065	0.74426	
-0.267754	-0.225502	0.603013	
-0.2387	-0.321065	0.626825	
-0.234106	-0.240455	0.5	
-0.172932	-0.247597	0.585974	
-0.323938	-0.380873	0.847739	
-0.194168	-0.311781	0.817902	
-0.276638	-0.296057	0.718432	
-0.307536	-0.237004	0.795298	
-0.334766	0.0144004	0.629791	
-0.357398	-0.0545279	0.581884	
-0.281543	-0.0750159	0.710149	
-0.396738	-0.0922406	0.663051	
-0.00291132	0.295217	0.703732	
-0.0949641	0.22959	0.742345	
-0.0623911	0.203393	0.630433	
-0.0119975	0.149532	0.712677	
0.0903521	0.10545	1	
0.177848	0.156277	0.877262	
0.158056	0.171884	1	
0.130088	0.0681493	0.912467	
0.175	-0.0611989	0.634692	
0.272064	-0.0681442	0.59838	
0.295217	0.00291132	0.703732	
0.251569	-0.0890044	0.696136	
-0.163252	0.278732	0.833643	
-0.0640422	0.245911	0.888875	
-0.0949641	0.22959	0.742345	
-0.00874456	0.250849	0.799219	
-0.117671	-0.10197	1	
-0.0232782	-0.127584	1	
-0.0699367	-0.141385	0.854754	
-0.0858575	-0.0573451	0.909067	
-0.0305468	0.374084	0.5	
-0.0353553	0.335355	0.5	
0	0.35	0.5	
0.0222826	0.353795	0.558177	
-0.344127	-0.112227	1	
-0.349811	-0.108212	0.856986	
-0.278713	-0.14304	1	
-0.318327	-0.225041	0.895751	
0.164797	-0.177585	1	
0.0712814	-0.153152	1	
0.176835	-0.0957025	0.888175	
0.153768	-0.209711	0.888749	
0.116472	-0.275537	0.636806	
0.0850581	-0.218776	0.727528	
0.0232632	-0.246364	0.605213	
0.0420743	-0.281954	0.683615	
-0.27609	0.255234	0.739837	
-0.317206	0.386498	0.700322	
-0.195673	0.329094	0.742315	
-0.21408	0.346313	0.633756	
0	0.5	0.9	
-0.0275533	0.349484	0.845155	
0	0.5	0.8	
0.045063	0.398304	0.900567	
0.428195	-0.258165	0.798245	
0.253273	-0.249599	0.843605	
0.380873	-0.323938	0.847739	
0.344185	-0.180158	0.894872	
0.317206	-0.386498	0.700322	
0.240952	-0.280119	0.617373	
0.25658	-0.429146	0.66876	
0.192404	-0.317473	0.724143	
-0.376757	0.328716	0.753532	
-0.380873	0.323938	0.847739	
-0.428195	0.258165	0.798245	
-0.27609	0.255234	0.739837	
-0.0638367	-0.295761	1	
-0.0685138	-0.341556	0.85476	
-0.0328721	-0.370689	1	
-0.156768	-0.340879	0.911535	
0.253273	-0.249599	0.843605	
0.192404	-0.317473	0.724143	
0.193656	-0.194449	0.720197	
0.309086	-0.228865	0.737481	
0.12289	0.290081	0.637079	
0.253284	0.276753	0.625058	
0.199071	0.201004	0.718052	
0.185114	0.178816	0.60757	
-0.186407	-0.169451	1	
-0.127689	-0.241885	0.89237	
-0.230163	-0.183396	0.833896	
-0.170347	-0.112486	0.899727	
-0.386831	-0.3168	0.604097	
-0.313218	-0.202403	0.699795	
-0.386498	-0.317206	0.700322	
-0.276638	-0.296057	0.718432	
5.20231e-18	-0.0913051	0.5	
0.05	-0.05	0.5	
-0.00100849	-0.0205955	0.627967	
0.0851262	-0.069993	0.591553	
0.171958	-0.1808	0.606406	
0.0851262	-0.069993	0.591553	
0.139117	-0.156778	0.5	
0.0797732	-0.172712	0.582888	
0.0912931	0.252729	0.837007	
-0.0275533	0.349484	0.845155	
-0.00874456	0.250849	0.799219	
0.0295128	0.209804	0.905326	
-0.217356	-0.450285	0.644698	
-0.140302	-0.350193	0.62321	
-0.238488	-0.439458	0.575692	
-0.2387	-0.321065	0.626825	
-0.05	-0.216667	0.5	
0.00200732	-0.17494	0.5	
-0.05	-0.133333	0.5	
-0.0312742	-0.12116	0.604392	
0.3168	-0.386831	0.604097	
0.265223	-0.319213	0.5	
0.202831	-0.368925	0.5	
0.240952	-0.280119	0.617373	
0.332433	0.136577	0.5	
0.281543	0.0750159	0.578871	
0.298593	0.101011	0.5	
0.357398	0.0545279	0.558521	
-0.385513	-0.0181868	0.734694	
-0.416699	0.00631676	0.584325	
-0.334766	0.0144004	0.629791	
-0.396738	-0.0922406	0.663051	
0.12289	0.290081	0.637079	
0.106564	0.358516	0.753234	
-0.00291132	0.295217	0.703732	
0.0839731	0.219451	0.721314	
-0.138674	0.323797	1	
-0.25253	0.295971	0.897838	
-0.201912	0.369986	1	
-0.124209	0.359991	0.89696	
-0.386831	-0.3168	0.604097	
-0.331632	-0.374193	0.665357	
-0.2387	-0.321065	0.626825	
-0.276638	-0.296057	0.718432	
-0.209083	-0.110158	0.5	
-0.216667	-0.05	0.5	
-0.257817	-0.0951035	0.5	
-0.259968	-0.0294564	0.588658	
0.0912931	0.252729	0.837007	
0.177848	0.156277	0.877262	
0.223611	0.287945	0.822031	
0.169783	0.254878	0.90212	
-0.337562	0.0547633	1	
-0.230911	0.053351	0.887346	
-0.332366	0.0316806	0.831947	
-0.369146	0.1248	0.88989	
0.171958	-0.1808	0.606406	
0.175	-0.0611989	0.634692	
0.251569	-0.0890044	0.696136	
0.24957	-0.148488	0.574982	
-0.22133	-0.175555	0.5	
-0.166493	-0.210048	0.5	
-0.165932	-0.151801	0.614298	
-0.172932	-0.247597	0.585974	
-0.105455	-0.255435	0.5	
-0.104344	-0.174965	0.5	
-0.166493	-0.210048	0.5	
-0.172932	-0.247597	0.585974	
-0.364126	0.107425	0.596298	
-0.268836	0.0809708	0.594884	
-0.307291	0.177008	0.64695	
-0.249851	0.075261	0.682349	
-0.376393	0.0217786	0.5	
-0.374084	-0.0305468	0.5	
-0.35	0	0.5	
-0.334766	0.0144004	0.563203	
-0.0685138	-0.341556	0.85476	
0.0124212	-0.23804	0.873103	
-0.0218405	-0.241762	0.749515	
-0.10367	-0.266109	0.799505	
-0.110158	0.209083	0.5	
-0.05	0.133333	0.5	
-0.05	0.216667	0.5	
-0.0623911	0.203393	0.630433	
-0.05	-0.05	0.5	
5.20231e-18	-0.0913051	0.5	
-0.00100849	-0.0205955	0.627967	
-0.0312742	-0.12116	0.604392	
-0.26105	0.203399	1	
-0.291878	0.202294	0.852394	
-0.318983	0.261743	1	
-0.25253	0.295971	0.897838	
-0.230163	-0.183396	0.833896	
-0.127689	-0.241885	0.89237	
-0.0699367	-0.141385	0.854754	
-0.170347	-0.112486	0.899727	
0.0558284	-0.130931	0.665335	
0.0850581	-0.218776	0.727528	
-0.00860123	-0.101114	0.760951	
-0.026527	-0.165458	0.694773	
-0.0807477	0.493437	0.845776	
0	0.5	0.8	
0	0.5	0.9	
-0.0275533	0.349484	0.845155	
-0.168043	-0.470916	0.699874	
-0.0977967	-0.490343	0.758774	
-0.0833019	-0.493012	0.655211	
-0.0924024	-0.340318	0.735056	
-0.285692	0.172599	0.5	
-0.351055	0.232374	0.591168	
-0.364126	0.107425	0.596298	
-0.247844	0.169866	0.575357	
-0.27609	0.255234	0.739837	
-0.189541	0.216222	0.763213	
-0.291878	0.202294	0.852394	
-0.290365	0.115706	0.809779	
0	-0.35	0.5	
0.0146863	-0.307123	0.5	
-0.0131388	-0.31384	0.5	
-0.0144004	-0.334766	0.569106	
0.350295	0.0306837	0.84806	
0.382055	-0.0743662	0.891735	
0.346509	0.0237889	1	
0.262288	-0.0152307	0.900549	
0.295217	0.00291132	0.703732	
0.363042	0.112521	0.74989	
0.299755	0.133787	0.640165	
0.223491	0.0887848	0.734304	
-0.198991	0.0214385	0.631757	
-0.104309	-0.0175295	0.603853	
-0.17494	-0.00200732	0.5	
-0.124864	0.0783821	0.585361	
-0.202831	0.368925	0.5	
-0.19595	0.28972	0.5	
-0.129243	0.372125	0.588708	
-0.21408	0.346313	0.633756	
0.5	0	0.9	
0.495101	0.0698189	0.927621	
0.493012	0.0833019	0.844789	
0.350295	0.0306837	0.84806	
-0.0717603	-0.216541	0.630077	
-0.125401	-0.180396	0.755134	
-0.0218405	-0.241762	0.749515	
-0.026527	-0.165458	0.694773	
0.368447	-0.183279	0.5	
0.316097	-0.149618	0.645405	
0.285692	-0.172599	0.5	
0.329947	-0.238467	0.603405	
-0.172599	-0.285692	0.5	
-0.140302	-0.350193	0.62321	
-0.0912866	-0.293514	0.577692	
-0.172932	-0.247597	0.585974	
5.20231e-18	-0.0913051	0.5	
-0.00100849	-0.0205955	0.627967	
-0.0312742	-0.12116	0.604392	
0.0851262	-0.069993	0.591553	
-0.332366	0.0316806	0.831947	
-0.230911	0.053351	0.887346	
-0.220651	0.0125647	0.740031	
-0.290365	0.115706	0.809779	
0.174523	-0.0723952	0.765964	
0.145586	0.022498	0.744291	
0.175	-0.0611989	0.634692	
0.0829508	-0.0830948	0.742858	
-0.323938	-0.380873	0.847739	
-0.194168	-0.311781	0.817902	
-0.328716	-0.376757	0.753532	
-0.276638	-0.296057	0.718432	
-0.0218405	-0.241762	0.749515	
0.0124212	-0.23804	0.873103	
-0.0685138	-0.341556	0.85476	
0.00809469	-0.342857	0.777216	
0.0912931	0.252729	0.837007	
0.0839731	0.219451	0.721314	
0.0942175	0.125111	0.789315	
-0.00874456	0.250849	0.799219	
-0.0717603	-0.216541	0.630077	
0.0420743	-0.281954	0.683615	
0.0232632	-0.246364	0.605213	
-0.026527	-0.165458	0.694773	
-0.00860123	-0.101114	0.760951	
0.0850581	-0.218776	0.727528	
0.0558284	-0.130931	0.665335	
0.0829508	-0.0830948	0.742858	
-0.428195	0.258165	0.798245	
-0.291878	0.202294	0.852394	
-0.436762	0.243391	0.903062	
-0.369146	0.1248	0.88989	
-0.164797	-0.0240318	0.828417	
-0.182236	-0.0903375	0.74647	
-0.170347	-0.112486	0.899727	
-0.266891	-0.0501392	0.812706	
0.282439	-0.104966	0.83613	
0.309086	-0.228865	0.737481	
0.253273	-0.249599	0.843605	
0.200293	-0.156985	0.812694	
-0.174965	0.104344	0.5	
-0.255435	0.105455	0.5	
-0.268836	0.0809708	0.594884	
-0.247844	0.169866	0.575357	
0.146853	-0.477948	0.584008	
0.136955	-0.411745	0.5	
0.0728232	-0.494668	0.573541	
0.0545279	-0.357398	0.586263	
-0.136577	0.332433	0.5	
-0.101011	0.298593	0.5	
-0.0722049	0.334139	0.5	
-0.129243	0.372125	0.588708	
0.415735	0.277785	0.865862	
0.370295	0.150924	0.909678	
0.439458	0.238488	0.924308	
0.296275	0.264777	0.897601	
0.174678	-0.468495	0.682891	
0.0848114	-0.374635	0.706588	
0.168734	-0.470668	0.798219	
0.192404	-0.317473	0.724143	
-0.0275533	0.349484	0.845155	
-0.0218361	0.398667	0.744009	
-0.00291132	0.295217	0.703732	
-0.115526	0.359753	0.796074	
-0.170347	-0.112486	0.899727	
-0.182236	-0.0903375	0.74647	
-0.230163	-0.183396	0.833896	
-0.266891	-0.0501392	0.812706	
0.0942175	0.125111	0.789315	
-0.0119975	0.149532	0.712677	
0.0781685	0.124409	0.653995	
0.0134301	0.0589223	0.678402	
0.193656	-0.194449	0.720197	
0.116472	-0.275537	0.636806	
0.192404	-0.317473	0.724143	
0.0850581	-0.218776	0.727528	
-0.214953	0.122747	0.749953	
-0.230911	0.053351	0.887346	
-0.166409	0.150419	0.871568	
-0.290365	0.115706	0.809779	
-0.334766	0.0144004	0.629791	
-0.416699	0.00631676	0.584325	
-0.385513	-0.0181868	0.734694	
-0.401952	0.0654763	0.671747	
0.240952	-0.280119	0.617373	
0.316097	-0.149618	0.645405	
0.329947	-0.238467	0.603405	
0.24957	-0.148488	0.574982	
0.070805	0.359322	0.5	
0.05	0.3	0.5	
0.113303	0.327662	0.5	
0.0222826	0.353795	0.558177	
0.05	-0.3	0.5	
0.0232632	-0.246364	0.605213	
0.0545279	-0.357398	0.586263	
0.116472	-0.275537	0.565587	
0.118204	-0.307408	0.828129	
0.192404	-0.317473	0.724143	
0.253273	-0.249599	0.843605	
0.205413	-0.339549	0.892186	
-0.05	0.133333	0.5	
-0.05	0.216667	0.5	
-0.0623911	0.203393	0.630433	
-0.00961934	0.119858	0.599022	
0.3	-0.05	0.5	
0.327662	-0.113303	0.5	
0.359322	-0.070805	0.5	
0.353795	-0.0222826	0.558177	
0.0558284	-0.130931	0.665335	
0.0851262	-0.069993	0.591553	
0.171958	-0.1808	0.606406	
0.0797732	-0.172712	0.582888	
-0.10302	-0.108424	0.5	
-0.156778	-0.139117	0.5	
-0.104344	-0.174965	0.5	
-0.165932	-0.151801	0.614298	
0.0401436	0.291204	1	
0.133074	0.264097	1	
0.0295128	0.209804	0.905326	
0.169783	0.254878	0.90212	
0.0815829	-0.137875	0.832541	
0.174523	-0.0723952	0.765964	
0.086984	-0.0195503	0.879555	
0.176835	-0.0957025	0.888175	
-0.0218405	-0.241762	0.749515	
-0.0699367	-0.141385	0.854754	
-0.125401	-0.180396	0.755134	
-0.10367	-0.266109	0.799505	
-0.323938	-0.380873	0.847739	
-0.276638	-0.296057	0.718432	
-0.328716	-0.376757	0.753532	
-0.307536	-0.237004	0.795298	
-0.242822	0.437078	0.847009	
-0.235698	0.440961	0.931431	
-0.25253	0.295971	0.897838	
-0.124209	0.359991	0.89696	
-0.0925337	-0.196451	1	
0.0124212	-0.23804	0.873103	
0.00183684	-0.222331	1	
-0.127689	-0.241885	0.89237	
0.113303	0.327662	0.5	
0.12289	0.290081	0.637079	
0.172599	0.285692	0.5	
0.19252	0.354505	0.600343	
0.115537	0.0107471	1	
0.210156	-0.0147965	1	
0.14072	-0.0839746	1	
0.176835	-0.0957025	0.888175	
0.14072	-0.0839746	1	
0.164797	-0.177585	1	
0.0712814	-0.153152	1	
0.176835	-0.0957025	0.888175	
-0.0218405	-0.241762	0.749515	
0.0420743	-0.281954	0.683615	
-0.0717603	-0.216541	0.630077	
-0.026527	-0.165458	0.694773	
-0.257956	0.116321	1	
-0.166409	0.150419	0.871568	
-0.16685	0.0883447	1	
-0.230911	0.053351	0.887346	
-0.376393	0.0217786	0.5	
-0.359322	0.070805	0.5	
-0.422892	0.0550581	0.5	
-0.416699	0.00631676	0.584325	
-0.19595	0.28972	0.5	
-0.136577	0.332433	0.5	
-0.202831	0.368925	0.5	
-0.129243	0.372125	0.588708	
-0.477948	-0.146853	0.584008	
-0.411745	-0.136955	0.5	
-0.357398	-0.0545279	0.581884	
-0.370241	-0.156649	0.594441	
-0.17825	0.257762	0.661466	
-0.270598	0.271491	0.600584	
-0.27609	0.255234	0.739837	
-0.21408	0.346313	0.633756	
0.0232632	-0.246364	0.605213	
0.0420743	-0.281954	0.683615	
-0.0717603	-0.216541	0.630077	
-0.0872901	-0.296751	0.662404	
0.299755	0.133787	0.640165	
0.281543	0.0750159	0.578871	
0.332433	0.136577	0.5	
0.38867	0.101377	0.601055	
-0.0699367	-0.141385	0.854754	
0.0124212	-0.23804	0.873103	
0.0815829	-0.137875	0.832541	
0.0136102	-0.0944981	0.903895	
-0.0435837	0.153197	0.818477	
-0.0119975	0.149532	0.712677	
-0.113452	0.0682357	0.775647	
-0.132843	0.148259	0.702998	
-0.174965	0.104344	0.5	
-0.268836	0.0809708	0.594884	
-0.179918	0.142525	0.617274	
-0.247844	0.169866	0.575357	
-0.171353	-0.469721	0.838334	
-0.144862	-0.478555	0.921652	
-0.0810399	-0.493389	0.85285	
-0.0685138	-0.341556	0.85476	
-0.437078	-0.242822	0.847009	
-0.369358	-0.124566	0.75116	
-0.349811	-0.108212	0.856986	
-0.307536	-0.237004	0.795298	
-0.0913051	-8.8983e-18	0.5	
-0.05	-0.05	0.5	
2.83347e-18	-1.91537e-18	0.5	
-0.104309	-0.0175295	0.603853	
0.133333	0.05	0.5	
0.190245	0.0667888	0.625379	
0.156778	0.139117	0.5	
0.0877437	0.0690174	0.581458	
-0.0338793	0.0189553	0.867322	
-0.0435837	0.153197	0.818477	
-0.124832	0.0586014	0.906551	
-0.0565371	0.130102	0.914035	
0.253284	0.276753	0.625058	
0.185114	0.178816	0.60757	
0.234106	0.240455	0.5	
0.257762	0.17825	0.572115	
-0.216667	0.05	0.5	
-0.268836	0.0809708	0.594884	
-0.279144	0.0168063	0.5	
-0.259968	-0.0294564	0.588658	
-0.0232782	-0.127584	1	
0.0712814	-0.153152	1	
0.00183684	-0.222331	1	
0.0136102	-0.0944981	0.903895	
0.337634	0.115561	1	
0.414991	0.0495125	1	
0.346509	0.0237889	1	
0.370295	0.150924	0.909678	
-0.41072	-0.12459	1	
-0.401548	-0.0423374	1	
-0.344127	-0.112227	1	
-0.349811	-0.108212	0.856986	
0.210048	-0.166493	0.5	
0.175555	-0.22133	0.5	
0.240455	-0.234106	0.5	
0.171958	-0.1808	0.606406	
-0.0218405	-0.241762	0.749515	
0.00809469	-0.342857	0.777216	
-0.0685138	-0.341556	0.85476	
-0.10367	-0.266109	0.799505	
0.209083	0.110158	0.5	
0.185114	0.178816	0.60757	
0.190245	0.0667888	0.625379	
0.257762	0.17825	0.572115	
-0.00100849	-0.0205955	0.627967	
-0.00961934	0.119858	0.599022	
-0.0788669	0.0768903	0.663116	
0.0134301	0.0589223	0.678402	
0	-0.5	0.7	
0	-0.5	0.8	
0.0854243	-0.492649	0.748597	
0.00809469	-0.342857	0.777216	
-0.17825	0.257762	0.661466	
-0.21408	0.346313	0.633756	
-0.116472	0.275537	0.591143	
-0.181479	0.221098	0.584819	
-0.0810399	-0.493389	0.85285	
0	-0.5	0.9	
0	-0.5	0.8	
0.0415638	-0.384519	0.881679	
-0.230163	-0.183396	0.833896	
-0.349811	-0.108212	0.856986	
-0.369358	-0.124566	0.75116	
-0.307536	-0.237004	0.795298	
-0.05	0.133333	0.5	
0.00200732	0.174835	0.5	
-0.05	0.216667	0.5	
-0.00961934	0.119858	0.599022	
-0.14329	0.268365	0.5	
-0.116472	0.275537	0.591143	
-0.19595	0.28972	0.5	
-0.181479	0.221098	0.584819	
-0.28972	-0.19595	0.5	
-0.267754	-0.225502	0.603013	
-0.275537	-0.116472	0.607416	
-0.370241	-0.156649	0.594441	
-0.168043	-0.470916	0.699874	
-0.194667	-0.460548	0.76567	
-0.0924024	-0.340318	0.735056	
-0.191043	-0.351595	0.71168	
0.313791	-0.154465	1	
0.232997	-0.11062	1	
0.314271	-0.0501881	1	
0.243698	-0.168497	0.902816	
0.0558284	-0.130931	0.665335	
-0.0312742	-0.12116	0.604392	
0.0232632	-0.246364	0.605213	
-0.026527	-0.165458	0.694773	
-0.257956	0.116321	1	
-0.230911	0.053351	0.887346	
-0.337562	0.0547633	1	
-0.369146	0.1248	0.88989	
-0.327614	0.0876466	0.725276	
-0.364126	0.107425	0.596298	
-0.307291	0.177008	0.64695	
-0.249851	0.075261	0.682349	
-0.31384	0.0131388	0.5	
-0.307123	-0.0146863	0.5	
-0.279144	0.0168063	0.5	
-0.334766	0.0144004	0.563203	
-0.144862	-0.478555	0.921652	
-0.0685138	-0.341556	0.85476	
-0.171353	-0.469721	0.838334	
-0.156768	-0.340879	0.911535	
0.493389	0.0810399	0.64715	
0.393693	-0.0146265	0.683142	
0.38867	0.101377	0.601055	
0.417761	0.0130281	0.59815	
-0.0717603	-0.216541	0.630077	
-0.165932	-0.151801	0.614298	
-0.0969866	-0.088866	0.682079	
-0.0312742	-0.12116	0.604392	
0.0461078	-0.0584269	1	
0.14072	-0.0839746	1	
0.0712814	-0.153152	1	
0.0136102	-0.0944981	0.903895	
-0.0275533	0.349484	0.845155	
-0.00874456	0.250849	0.799219	
-0.0640422	0.245911	0.888875	
-0.115526	0.359753	0.796074	
0.332433	0.136577	0.5	
0.298593	0.101011	0.5	
0.334139	0.0722049	0.5	
0.357398	0.0545279	0.558521	
-0.214953	0.122747	0.749953	
-0.357252	0.187897	0.739185	
-0.327614	0.0876466	0.725276	
-0.290365	0.115706	0.809779	
0.116472	-0.275537	0.636806	
0.171958	-0.1808	0.606406	
0.240952	-0.280119	0.617373	
0.116472	-0.275537	0.565587	
-0.369146	0.1248	0.88989	
-0.357252	0.187897	0.739185	
-0.291878	0.202294	0.852394	
-0.290365	0.115706	0.809779	
-0.490343	0.0977967	0.758774	
-0.470916	0.168043	0.699874	
-0.357252	0.187897	0.739185	
-0.401952	0.0654763	0.671747	
-0.220651	0.0125647	0.740031	
-0.14275	-0.0105591	0.697053	
-0.198991	0.0214385	0.631757	
-0.249851	0.075261	0.682349	
0.0305468	-0.374084	0.5	
0.00233139	-0.422954	0.5	
0.0584891	-0.437042	0.5	
0.0545279	-0.357398	0.586263	
0.0989017	0.0145443	0.654463	
0.0851262	-0.069993	0.591553	
-0.00100849	-0.0205955	0.627967	
0.0877437	0.0690174	0.581458	
0.0848114	-0.374635	0.706588	
0.192404	-0.317473	0.724143	
0.174678	-0.468495	0.682891	
0.159651	-0.364489	0.598434	
-0.349811	-0.108212	0.856986	
-0.230163	-0.183396	0.833896	
-0.266891	-0.0501392	0.812706	
-0.243062	-0.0438203	0.910197	
-0.26105	0.203399	1	
-0.328307	0.16356	1	
-0.318983	0.261743	1	
-0.291878	0.202294	0.852394	
-0.216667	0.05	0.5	
-0.198991	0.0214385	0.631757	
-0.268836	0.0809708	0.594884	
-0.259968	-0.0294564	0.588658	
0.0807477	0.493437	0.654224	
0.168734	0.470668	0.701781	
0.106564	0.358516	0.753234	
0.0827402	0.389706	0.606734	
0.0209546	0.0362755	1	
0.0378724	0.109427	0.891855	
-0.0338793	0.0189553	0.867322	
-0.0565371	0.130102	0.914035	
-0.279144	0.0168063	0.5	
-0.268836	0.0809708	0.594884	
-0.334766	0.0144004	0.563203	
-0.259968	-0.0294564	0.588658	
0.346509	0.0237889	1	
0.350295	0.0306837	0.84806	
0.262288	-0.0152307	0.900549	
0.258755	0.0906035	0.896517	
0.202831	-0.368925	0.5	
0.240952	-0.280119	0.617373	
0.19595	-0.28972	0.5	
0.159651	-0.364489	0.598434	
0.0584891	-0.437042	0.5	
0.00233139	-0.422954	0.5	
0.0728232	-0.494668	0.573541	
0.0170927	-0.420241	0.640557	
-0.337562	0.0547633	1	
-0.369146	0.1248	0.88989	
-0.332366	0.0316806	0.831947	
-0.404225	0.0311984	0.902579	
-0.138674	0.323797	1	
-0.124209	0.359991	0.89696	
-0.0640422	0.245911	0.888875	
-0.172627	0.234526	0.919455	
0.0807477	-0.493437	0.845776	
0.153328	-0.47591	0.90763	
0.168734	-0.470668	0.798219	
0.0415638	-0.384519	0.881679	
0.201164	-0.273578	1	
0.112799	-0.33356	1	
0.153768	-0.209711	0.888749	
0.205413	-0.339549	0.892186	
-0.0722049	0.334139	0.5	
-0.129243	0.372125	0.588708	
-0.0144004	0.334766	0.60495	
-0.0376575	0.408608	0.57511	
-0.0951035	0.257817	0.5	
-0.05	0.216667	0.5	
-0.05	0.3	0.5	
-0.00291132	0.295217	0.558405	
-0.16685	0.0883447	1	
-0.257956	0.116321	1	
-0.18644	0.1823	1	
-0.166409	0.150419	0.871568	
0.245477	-0.191651	1	
0.314857	-0.257449	1	
0.201164	-0.273578	1	
0.243698	-0.168497	0.902816	
0.0209546	0.0362755	1	
0.086984	-0.0195503	0.879555	
0.0378724	0.109427	0.891855	
0.130088	0.0681493	0.912467	
-0.140302	-0.350193	0.62321	
-0.2387	-0.321065	0.626825	
-0.217356	-0.450285	0.644698	
-0.191043	-0.351595	0.71168	
0.316847	0.386792	0.698616	
0.253284	0.276753	0.625058	
0.380873	0.323938	0.652261	
0.316638	0.224466	0.734195	
0.0209546	0.0362755	1	
-0.0338793	0.0189553	0.867322	
-0.0734441	0.0616893	1	
-0.0565371	0.130102	0.914035	
-0.0969866	-0.088866	0.682079	
-0.104309	-0.0175295	0.603853	
-0.165932	-0.151801	0.614298	
-0.203542	-0.0724399	0.653763	
0.493012	-0.0833019	0.655211	
0.39071	-0.0800656	0.604798	
0.470916	-0.168043	0.699874	
0.366266	-0.0917065	0.74426	
0.386505	-0.317197	0.931175	
0.380873	-0.323938	0.847739	
0.253273	-0.249599	0.843605	
0.344185	-0.180158	0.894872	
0.436762	0.243391	0.596938	
0.368925	0.202831	0.5	
0.411745	0.136955	0.5	
0.38867	0.101377	0.601055	
-0.428195	0.258165	0.798245	
-0.376757	0.328716	0.753532	
-0.27609	0.255234	0.739837	
-0.357252	0.187897	0.739185	
-0.0144004	0.334766	0.60495	
0.0222826	0.353795	0.558177	
-0.0353553	0.335355	0.5	
-0.0376575	0.408608	0.57511	
-0.386505	0.317197	0.931175	
-0.291878	0.202294	0.852394	
-0.380873	0.323938	0.847739	
-0.25253	0.295971	0.897838	
-0.3	0.05	0.5	
-0.327662	0.113303	0.5	
-0.334766	0.0144004	0.563203	
-0.268836	0.0809708	0.594884	
-0.190903	-0.246146	0.678266	
-0.125401	-0.180396	0.755134	
-0.165932	-0.151801	0.614298	
-0.232732	-0.157842	0.680234	
0.113303	0.327662	0.5	
0.0827402	0.389706	0.606734	
0.12289	0.290081	0.637079	
0.19252	0.354505	0.600343	
2.83347e-18	-1.91537e-18	0.5	
5.20231e-18	-0.0913051	0.5	
0.05	-0.05	0.5	
-0.00100849	-0.0205955	0.627967	
-0.281543	-0.0750159	0.710149	
-0.198991	0.0214385	0.631757	
-0.220651	0.0125647	0.740031	
-0.203542	-0.0724399	0.653763	
0.247057	0.434698	0.750499	
0.317206	0.386498	0.799678	
0.223611	0.287945	0.822031	
0.198642	0.311382	0.714561	
-0.220651	0.0125647	0.740031	
-0.230911	0.053351	0.887346	
-0.332366	0.0316806	0.831947	
-0.266891	-0.0501392	0.812706	
-0.5	0	0.7	
-0.416699	0.00631676	0.584325	
-0.385513	-0.0181868	0.734694	
-0.396738	-0.0922406	0.663051	
0.190245	0.0667888	0.625379	
0.0877437	0.0690174	0.581458	
0.133333	0.05	0.5	
0.21299	-0.0111081	0.575703	
-0.142648	-0.00714059	1	
-0.0858575	-0.0573451	0.909067	
-0.170347	-0.112486	0.899727	
-0.243062	-0.0438203	0.910197	
-0.05	-0.05	0.5	
5.20231e-18	-0.0913051	0.5	
2.83347e-18	-1.91537e-18	0.5	
-0.00100849	-0.0205955	0.627967	
0.317233	-0.386476	0.909527	
0.386505	-0.317197	0.931175	
0.380873	-0.323938	0.847739	
0.253273	-0.249599	0.843605	
-0.0699367	-0.141385	0.854754	
-0.00860123	-0.101114	0.760951	
-0.125401	-0.180396	0.755134	
-0.0730504	-0.0481965	0.809858	
-0.285692	0.172599	0.5	
-0.364126	0.107425	0.596298	
-0.327662	0.113303	0.5	
-0.247844	0.169866	0.575357	
-0.444481	-0.228991	0.591901	
-0.386831	-0.3168	0.604097	
-0.368925	-0.202831	0.5	
-0.370241	-0.156649	0.594441	
0.460548	0.194667	0.73433	
0.363042	0.112521	0.74989	
0.4284	0.257824	0.795024	
0.316638	0.224466	0.734195	
0.247057	-0.434698	0.749501	
0.174678	-0.468495	0.682891	
0.168734	-0.470668	0.798219	
0.192404	-0.317473	0.724143	
-0.110158	0.209083	0.5	
-0.0623911	0.203393	0.630433	
-0.05	0.216667	0.5	
-0.116472	0.275537	0.591143	
0.116472	-0.275537	0.636806	
0.0848114	-0.374635	0.706588	
0.0545279	-0.357398	0.586263	
0.159651	-0.364489	0.598434	
0.493389	-0.0810399	0.85285	
0.5	0	0.9	
0.5	0	0.8	
0.382055	-0.0743662	0.891735	
-0.364126	0.107425	0.596298	
-0.351055	0.232374	0.591168	
-0.307291	0.177008	0.64695	
-0.247844	0.169866	0.575357	
-0.493437	-0.0807477	0.845776	
-0.492649	-0.0854243	0.748597	
-0.385513	-0.0181868	0.734694	
-0.369358	-0.124566	0.75116	
0.104344	0.174965	0.5	
0.05	0.216667	0.5	
0.05	0.133333	0.5	
0.112623	0.215093	0.576525	
0.190245	0.0667888	0.625379	
0.299755	0.133787	0.640165	
0.281543	0.0750159	0.578871	
0.257762	0.17825	0.572115	
-0.202831	0.368925	0.5	
-0.265223	0.319213	0.5	
-0.19595	0.28972	0.5	
-0.21408	0.346313	0.633756	
-0.0640422	0.245911	0.888875	
-0.00874456	0.250849	0.799219	
-0.0275533	0.349484	0.845155	
0.0295128	0.209804	0.905326	
-0.0168063	-0.279144	0.5	
0.0120439	-0.258333	0.5	
-0.05	-0.216667	0.5	
0.0232632	-0.246364	0.605213	
0.0712814	-0.153152	1	
0.0943468	-0.245334	1	
0.00183684	-0.222331	1	
0.0124212	-0.23804	0.873103	
0.0550581	0.422892	0.5	
0.0222826	0.353795	0.558177	
0.0827402	0.389706	0.606734	
-0.0376575	0.408608	0.57511	
-0.209083	-0.110158	0.5	
-0.257817	-0.0951035	0.5	
-0.268365	-0.14329	0.5	
-0.275537	-0.116472	0.607416	
0.380873	-0.323938	0.847739	
0.376757	-0.328716	0.753532	
0.253273	-0.249599	0.843605	
0.309086	-0.228865	0.737481	
0.414183	0.131147	1	
0.495101	0.0698189	0.927621	
0.414991	0.0495125	1	
0.370295	0.150924	0.909678	
-0.334139	-0.0722049	0.5	
-0.377437	-0.0892306	0.5	
-0.332433	-0.136577	0.5	
-0.357398	-0.0545279	0.581884	
0.476114	-0.152694	0.59754	
0.450285	-0.217356	0.644698	
0.470916	-0.168043	0.699874	
0.39071	-0.0800656	0.604798	
-0.198991	0.0214385	0.631757	
-0.268836	0.0809708	0.594884	
-0.179918	0.142525	0.617274	
-0.124864	0.0783821	0.585361	
-0.166409	0.150419	0.871568	
-0.124832	0.0586014	0.906551	
-0.0435837	0.153197	0.818477	
-0.0565371	0.130102	0.914035	
-0.17494	-0.00200732	0.5	
-0.133333	0.05	0.5	
-0.216667	0.05	0.5	
-0.124864	0.0783821	0.585361	
-0.170347	-0.112486	0.899727	
-0.0858575	-0.0573451	0.909067	
-0.164797	-0.0240318	0.828417	
-0.243062	-0.0438203	0.910197	
-0.0119975	0.149532	0.712677	
0.0134301	0.0589223	0.678402	
0.0942175	0.125111	0.789315	
-0.0173799	0.0733829	0.771387	
0.25658	-0.429146	0.66876	
0.174678	-0.468495	0.682891	
0.192404	-0.317473	0.724143	
0.159651	-0.364489	0.598434	
0.0584891	-0.437042	0.5	
0.0728232	-0.494668	0.573541	
0.0545279	-0.357398	0.586263	
0.0170927	-0.420241	0.640557	
-0.217356	-0.450285	0.644698	
-0.2387	-0.321065	0.626825	
-0.277785	-0.415735	0.634138	
-0.191043	-0.351595	0.71168	
0.0854243	0.492649	0.751403	
0.0807477	0.493437	0.654224	
0.106564	0.358516	0.753234	
0.00685904	0.408881	0.656439	
0.255435	-0.105455	0.5	
0.216667	-0.05	0.5	
0.174965	-0.104344	0.5	
0.24957	-0.148488	0.574982	
-0.113452	0.0682357	0.775647	
-0.0119975	0.149532	0.712677	
-0.0788669	0.0768903	0.663116	
-0.132843	0.148259	0.702998	
-0.494668	-0.0728232	0.573541	
-0.477948	-0.146853	0.584008	
-0.411745	-0.136955	0.5	
-0.357398	-0.0545279	0.581884	
0.253284	0.276753	0.625058	
0.316638	0.224466	0.734195	
0.299755	0.133787	0.640165	
0.327747	0.217533	0.591075	
0.174965	-0.104344	0.5	
0.133333	-0.05	0.5	
0.108424	-0.10302	0.5	
0.0851262	-0.069993	0.591553	
-0.265223	0.319213	0.5	
-0.270598	0.271491	0.600584	
-0.19595	0.28972	0.5	
-0.21408	0.346313	0.633756	
-0.3	-0.05	0.5	
-0.335355	-0.0353553	0.5	
-0.357398	-0.0545279	0.581884	
-0.334766	0.0144004	0.563203	
0	0.5	0.8	
-0.0275533	0.349484	0.845155	
-0.0807477	0.493437	0.845776	
-0.0218361	0.398667	0.744009	
0.300884	0.198715	1	
0.370295	0.150924	0.909678	
0.296877	0.173007	0.841873	
0.296275	0.264777	0.897601	
-0.119993	0.246691	1	
-0.138674	0.323797	1	
-0.0640422	0.245911	0.888875	
-0.172627	0.234526	0.919455	
-0.0144004	-0.334766	0.569106	
-0.0656658	-0.406088	0.605213	
-0.0144004	-0.334766	0.641321	
-0.0912866	-0.293514	0.577692	
-0.0232782	-0.127584	1	
-0.0925337	-0.196451	1	
-0.117671	-0.10197	1	
-0.0699367	-0.141385	0.854754	
-0.0623911	0.203393	0.630433	
-0.17825	0.257762	0.661466	
-0.116472	0.275537	0.591143	
-0.181479	0.221098	0.584819	
-0.5	0	0.7	
-0.385513	-0.0181868	0.734694	
-0.416699	0.00631676	0.584325	
-0.401952	0.0654763	0.671747	
-0.117671	-0.10197	1	
-0.0699367	-0.141385	0.854754	
-0.0925337	-0.196451	1	
-0.170347	-0.112486	0.899727	
-0.261345	-0.230036	1	
-0.127689	-0.241885	0.89237	
-0.168688	-0.281701	1	
-0.258725	-0.308783	0.897858	
-0.254144	-0.321855	0.5	
-0.234106	-0.240455	0.5	
-0.2387	-0.321065	0.626825	
-0.172932	-0.247597	0.585974	
0.253284	0.276753	0.625058	
0.198642	0.311382	0.714561	
0.316847	0.386792	0.698616	
0.19252	0.354505	0.600343	
0.133333	-0.05	0.5	
0.0851262	-0.069993	0.591553	
0.175	-0.0611989	0.634692	
0.21299	-0.0111081	0.575703	
0.0545279	-0.357398	0.586263	
0.0848114	-0.374635	0.706588	
0.116472	-0.275537	0.636806	
0.0420743	-0.281954	0.683615	
0.156778	0.139117	0.5	
0.190245	0.0667888	0.625379	
0.209083	0.110158	0.5	
0.185114	0.178816	0.60757	
0.12289	0.290081	0.637079	
0.0839731	0.219451	0.721314	
0.0335927	0.239842	0.602535	
0.112623	0.215093	0.576525	
-0.00291132	0.295217	0.703732	
-0.0119975	0.149532	0.712677	
0.0839731	0.219451	0.721314	
-0.00874456	0.250849	0.799219	
-0.0949641	0.22959	0.742345	
-0.0119975	0.149532	0.712677	
-0.00291132	0.295217	0.703732	
-0.00874456	0.250849	0.799219	
0.0815829	-0.137875	0.832541	
-0.00860123	-0.101114	0.760951	
-0.0699367	-0.141385	0.854754	
0.0136102	-0.0944981	0.903895	
-0.335355	-0.0353553	0.5	
-0.307123	-0.0146863	0.5	
-0.35	0	0.5	
-0.334766	0.0144004	0.563203	
-0.0807477	0.493437	0.845776	
-0.0218361	0.398667	0.744009	
-0.0275533	0.349484	0.845155	
-0.115526	0.359753	0.796074	
0	-0.5	0.6	
0.00233139	-0.422954	0.5	
-0.0656658	-0.406088	0.605213	
0.0170927	-0.420241	0.640557	
-0.117671	-0.10197	1	
-0.0699367	-0.141385	0.854754	
-0.170347	-0.112486	0.899727	
-0.0858575	-0.0573451	0.909067	
-0.436762	0.243391	0.903062	
-0.318983	0.261743	1	
-0.386505	0.317197	0.931175	
-0.389036	0.207425	1	
-0.0640422	0.245911	0.888875	
-0.0565371	0.130102	0.914035	
-0.0983601	0.156434	1	
-0.172627	0.234526	0.919455	
0.19595	-0.28972	0.5	
0.202831	-0.368925	0.5	
0.265223	-0.319213	0.5	
0.240952	-0.280119	0.617373	
-0.277785	-0.415735	0.634138	
-0.217356	-0.450285	0.644698	
-0.238488	-0.439458	0.575692	
-0.2387	-0.321065	0.626825	
0.202831	-0.368925	0.5	
0.228991	-0.444481	0.591901	
0.3168	-0.386831	0.604097	
0.159651	-0.364489	0.598434	
-0.376757	0.328716	0.753532	
-0.316847	0.386792	0.801384	
-0.380873	0.323938	0.847739	
-0.27609	0.255234	0.739837	
0.240455	-0.234106	0.5	
0.171958	-0.1808	0.606406	
0.240952	-0.280119	0.617373	
0.24957	-0.148488	0.574982	
-0.194168	-0.311781	0.817902	
-0.191043	-0.351595	0.71168	
-0.258165	-0.428195	0.798245	
-0.276638	-0.296057	0.718432	
0.373926	0.198925	1	
0.439458	0.238488	0.924308	
0.370295	0.150924	0.909678	
0.296275	0.264777	0.897601	
-0.166409	0.150419	0.871568	
-0.0983601	0.156434	1	
-0.0565371	0.130102	0.914035	
-0.172627	0.234526	0.919455	
-0.327614	0.0876466	0.725276	
-0.307291	0.177008	0.64695	
-0.225046	0.183718	0.683937	
-0.249851	0.075261	0.682349	
0.332433	0.136577	0.5	
0.299755	0.133787	0.640165	
0.327747	0.217533	0.591075	
0.257762	0.17825	0.572115	
-0.216667	0.05	0.5	
-0.174965	0.104344	0.5	
-0.255435	0.105455	0.5	
-0.268836	0.0809708	0.594884	
-0.450285	0.217356	0.644698	
-0.470916	0.168043	0.699874	
-0.476114	0.152694	0.59754	
-0.364126	0.107425	0.596298	
0.116472	-0.275537	0.636806	
0.192404	-0.317473	0.724143	
0.0848114	-0.374635	0.706588	
0.159651	-0.364489	0.598434	
-0.136577	0.332433	0.5	
-0.116472	0.275537	0.591143	
-0.101011	0.298593	0.5	
-0.129243	0.372125	0.588708	
-0.138674	0.323797	1	
-0.214341	0.273759	1	
-0.25253	0.295971	0.897838	
-0.172627	0.234526	0.919455	
0.314857	-0.257449	1	
0.253273	-0.249599	0.843605	
0.201164	-0.273578	1	
0.243698	-0.168497	0.902816	
0.469721	-0.171353	0.838334	
0.493389	-0.0810399	0.85285	
0.490343	-0.0977967	0.758774	
0.366266	-0.0917065	0.74426	
-0.344127	-0.112227	1	
-0.401548	-0.0423374	1	
-0.302044	-0.0506462	1	
-0.349811	-0.108212	0.856986	
-0.142648	-0.00714059	1	
-0.230911	0.053351	0.887346	
-0.124832	0.0586014	0.906551	
-0.243062	-0.0438203	0.910197	
-0.0969866	-0.088866	0.682079	
-0.165932	-0.151801	0.614298	
-0.182236	-0.0903375	0.74647	
-0.203542	-0.0724399	0.653763	
-0.00291132	0.295217	0.703732	
0.0335927	0.239842	0.602535	
0.12289	0.290081	0.637079	
0.0839731	0.219451	0.721314	
-0.0144004	-0.334766	0.641321	
0.0848114	-0.374635	0.706588	
0.0545279	-0.357398	0.586263	
0.0420743	-0.281954	0.683615	
0.0353553	-0.335355	0.5	
0.0305468	-0.374084	0.5	
0.0545279	-0.357398	0.586263	
-0.0144004	-0.334766	0.569106	
-0.17825	0.257762	0.661466	
-0.0949641	0.22959	0.742345	
-0.108627	0.359588	0.683823	
-0.195673	0.329094	0.742315	
0.0232632	-0.246364	0.605213	
-0.0312742	-0.12116	0.604392	
0.0558284	-0.130931	0.665335	
0.0797732	-0.172712	0.582888	
-0.344127	-0.112227	1	
-0.356684	-0.19351	1	
-0.349811	-0.108212	0.856986	
-0.318327	-0.225041	0.895751	
-0.468495	-0.174678	0.682891	
-0.313218	-0.202403	0.699795	
-0.370241	-0.156649	0.594441	
-0.396738	-0.0922406	0.663051	
0.268365	0.14329	0.5	
0.257817	0.0951035	0.5	
0.298593	0.101011	0.5	
0.281543	0.0750159	0.578871	
-0.0555676	0.325574	1	
-0.0275533	0.349484	0.845155	
-0.0640422	0.245911	0.888875	
-0.124209	0.359991	0.89696	
-0.17825	0.257762	0.661466	
-0.0623911	0.203393	0.630433	
-0.0949641	0.22959	0.742345	
-0.132843	0.148259	0.702998	
0.0458333	0.00416667	0.749305	
0.0942175	0.125111	0.789315	
0.0134301	0.0589223	0.678402	
-0.0173799	0.0733829	0.771387	
-0.323938	-0.380873	0.847739	
-0.194168	-0.311781	0.817902	
-0.307536	-0.237004	0.795298	
-0.258725	-0.308783	0.897858	
0.0353553	0.335355	0.5	
0.05	0.3	0.5	
0.070805	0.359322	0.5	
0.0222826	0.353795	0.558177	
-0.437078	-0.242822	0.847009	
-0.349811	-0.108212	0.856986	
-0.440961	-0.235698	0.931431	
-0.318327	-0.225041	0.895751	
-0.116472	0.275537	0.591143	
-0.108627	0.359588	0.683823	
-0.0144004	0.334766	0.60495	
-0.129243	0.372125	0.588708	
0.317206	0.386498	0.799678	
0.25658	0.429146	0.83124	
0.247057	0.434698	0.750499	
0.223611	0.287945	0.822031	
-0.174678	0.468495	0.682891	
-0.195673	0.329094	0.742315	
-0.108627	0.359588	0.683823	
-0.115526	0.359753	0.796074	
0.136577	-0.332433	0.5	
0.0545279	-0.357398	0.586263	
0.0892306	-0.377437	0.5	
0.159651	-0.364489	0.598434	
0.335355	-0.0353553	0.5	
0.3	-0.05	0.5	
0.359322	-0.070805	0.5	
0.353795	-0.0222826	0.558177	
0.4284	0.257824	0.795024	
0.460548	0.194667	0.73433	
0.470916	0.168043	0.800126	
0.363042	0.112521	0.74989	
0.332433	0.136577	0.5	
0.411745	0.136955	0.5	
0.368925	0.202831	0.5	
0.38867	0.101377	0.601055	
0	0.5	0.9	
-0.0372406	0.417791	1	
-0.0704482	0.495012	0.928155	
0.045063	0.398304	0.900567	
-0.307291	0.177008	0.64695	
-0.225046	0.183718	0.683937	
-0.268836	0.0809708	0.594884	
-0.247844	0.169866	0.575357	
0.403225	-0.114629	0.5	
0.327662	-0.113303	0.5	
0.368447	-0.183279	0.5	
0.39071	-0.0800656	0.604798	
-0.273315	0.334955	1	
-0.235698	0.440961	0.931431	
-0.201912	0.369986	1	
-0.25253	0.295971	0.897838	
0.469721	0.171353	0.661666	
0.428195	0.258165	0.701755	
0.436762	0.243391	0.596938	
0.327747	0.217533	0.591075	
0.0124212	-0.23804	0.873103	
0.0415638	-0.384519	0.881679	
-0.0685138	-0.341556	0.85476	
0.00809469	-0.342857	0.777216	
-0.3	-0.05	0.5	
-0.307123	-0.0146863	0.5	
-0.334766	0.0144004	0.563203	
-0.259968	-0.0294564	0.588658	
0.0146863	-0.307123	0.5	
0.05	-0.3	0.5	
0.0120439	-0.258333	0.5	
0.0232632	-0.246364	0.605213	
-0.0699367	-0.141385	0.854754	
0.0124212	-0.23804	0.873103	
-0.127689	-0.241885	0.89237	
-0.10367	-0.266109	0.799505	
-0.166409	0.150419	0.871568	
-0.0565371	0.130102	0.914035	
-0.0640422	0.245911	0.888875	
-0.172627	0.234526	0.919455	
-0.0435837	0.153197	0.818477	
-0.0949641	0.22959	0.742345	
-0.0119975	0.149532	0.712677	
-0.132843	0.148259	0.702998	
0.0232632	-0.246364	0.605213	
-0.0312742	-0.12116	0.604392	
-0.0717603	-0.216541	0.630077	
-0.026527	-0.165458	0.694773	
0.0912931	0.252729	0.837007	
0.0295128	0.209804	0.905326	
0.177848	0.156277	0.877262	
0.169783	0.254878	0.90212	
0.317206	-0.386498	0.700322	
0.376757	-0.328716	0.753532	
0.374193	-0.331632	0.665357	
0.309086	-0.228865	0.737481	
-0.0353553	0.335355	0.5	
0.0222826	0.353795	0.558177	
-0.0144004	0.334766	0.60495	
-0.00291132	0.295217	0.558405	
0.3	-0.05	0.5	
0.272064	-0.0681442	0.59838	
0.327662	-0.113303	0.5	
0.353795	-0.0222826	0.558177	
-0.0892306	0.377437	0.5	
-0.129243	0.372125	0.588708	
-0.0722049	0.334139	0.5	
-0.0376575	0.408608	0.57511	
0.136577	-0.332433	0.5	
0.159651	-0.364489	0.598434	
0.19595	-0.28972	0.5	
0.116472	-0.275537	0.565587	
-0.214953	0.122747	0.749953	
-0.327614	0.0876466	0.725276	
-0.225046	0.183718	0.683937	
-0.249851	0.075261	0.682349	
0.25658	-0.429146	0.66876	
0.240952	-0.280119	0.617373	
0.3168	-0.386831	0.604097	
0.159651	-0.364489	0.598434	
-0.118932	0.39861	1	
-0.0704482	0.495012	0.928155	
-0.0372406	0.417791	1	
-0.124209	0.359991	0.89696	
-0.344127	-0.112227	1	
-0.302044	-0.0506462	1	
-0.278713	-0.14304	1	
-0.243062	-0.0438203	0.910197	
0.114055	0.374109	1	
0.138051	0.361812	0.873206	
0.0401436	0.291204	1	
0.045063	0.398304	0.900567	
0.257817	0.0951035	0.5	
0.281543	0.0750159	0.578871	
0.268365	0.14329	0.5	
0.257762	0.17825	0.572115	
0.118204	-0.307408	0.828129	
0.0415638	-0.384519	0.881679	
0.0124212	-0.23804	0.873103	
0.00809469	-0.342857	0.777216	
-0.268836	0.0809708	0.594884	
-0.225046	0.183718	0.683937	
-0.179918	0.142525	0.617274	
-0.247844	0.169866	0.575357	
0.194604	-0.371188	1	
0.125573	-0.41396	1	
0.112799	-0.33356	1	
0.205413	-0.339549	0.892186	
-0.307291	0.177008	0.64695	
-0.270598	0.271491	0.600584	
-0.27609	0.255234	0.739837	
-0.225046	0.183718	0.683937	
0.190245	0.0667888	0.625379	
0.185114	0.178816	0.60757	
0.299755	0.133787	0.640165	
0.257762	0.17825	0.572115	
-0.0925337	-0.196451	1	
0.00183684	-0.222331	1	
-0.0638367	-0.295761	1	
-0.127689	-0.241885	0.89237	
-0.434698	-0.247057	0.749501	
-0.369358	-0.124566	0.75116	
-0.437078	-0.242822	0.847009	
-0.307536	-0.237004	0.795298	
-0.216667	0.05	0.5	
-0.279144	0.0168063	0.5	
-0.258333	-0.0120439	0.5	
-0.259968	-0.0294564	0.588658	
-0.17825	0.257762	0.661466	
-0.27609	0.255234	0.739837	
-0.195673	0.329094	0.742315	
-0.21408	0.346313	0.633756	
-0.332366	0.0316806	0.831947	
-0.220651	0.0125647	0.740031	
-0.327614	0.0876466	0.725276	
-0.290365	0.115706	0.809779	
-0.307291	0.177008	0.64695	
-0.364126	0.107425	0.596298	
-0.327614	0.0876466	0.725276	
-0.401952	0.0654763	0.671747	
-0.27609	0.255234	0.739837	
-0.189541	0.216222	0.763213	
-0.214953	0.122747	0.749953	
-0.225046	0.183718	0.683937	
0.332433	0.136577	0.5	
0.38867	0.101377	0.601055	
0.281543	0.0750159	0.578871	
0.357398	0.0545279	0.558521	
-0.152694	-0.476114	0.59754	
-0.140302	-0.350193	0.62321	
-0.168043	-0.470916	0.699874	
-0.0656658	-0.406088	0.605213	
-0.279144	0.0168063	0.5	
-0.334766	0.0144004	0.563203	
-0.307123	-0.0146863	0.5	
-0.259968	-0.0294564	0.588658	
0.190324	0.0393932	0.833873	
0.176835	-0.0957025	0.888175	
0.174523	-0.0723952	0.765964	
0.255406	-0.0213367	0.790897	
-0.0435837	0.153197	0.818477	
-0.0338793	0.0189553	0.867322	
-0.113452	0.0682357	0.775647	
-0.0173799	0.0733829	0.771387	
-0.0699367	-0.141385	0.854754	
-0.127689	-0.241885	0.89237	
-0.0925337	-0.196451	1	
-0.170347	-0.112486	0.899727	
-0.344127	-0.112227	1	
-0.349811	-0.108212	0.856986	
-0.302044	-0.0506462	1	
-0.243062	-0.0438203	0.910197	
-0.0275533	0.349484	0.845155	
-0.124209	0.359991	0.89696	
-0.0807477	0.493437	0.845776	
-0.115526	0.359753	0.796074	
-0.182236	-0.0903375	0.74647	
-0.203542	-0.0724399	0.653763	
-0.165932	-0.151801	0.614298	
-0.232732	-0.157842	0.680234	
-0.164797	-0.0240318	0.828417	
-0.0338793	0.0189553	0.867322	
-0.113452	0.0682357	0.775647	
-0.124832	0.0586014	0.906551	
0.376757	-0.328716	0.753532	
0.316847	-0.386792	0.801384	
0.380873	-0.323938	0.847739	
0.253273	-0.249599	0.843605	
0.0814864	-0.493315	0.652319	
0.0848114	-0.374635	0.706588	
0.174678	-0.468495	0.682891	
0.159651	-0.364489	0.598434	
-0.316847	0.386792	0.801384	
-0.27609	0.255234	0.739837	
-0.317206	0.386498	0.700322	
-0.195673	0.329094	0.742315	
0.0854243	0.492649	0.751403	
0.106564	0.358516	0.753234	
-0.0218361	0.398667	0.744009	
0.00685904	0.408881	0.656439	
-0.0422582	-0.437473	1	
-0.0328721	-0.370689	1	
0.0404524	-0.41072	1	
0.0415638	-0.384519	0.881679	
-0.0814864	0.493315	0.652319	
-0.108627	0.359588	0.683823	
-0.129243	0.372125	0.588708	
-0.0376575	0.408608	0.57511	
-0.437078	-0.242822	0.847009	
-0.349811	-0.108212	0.856986	
-0.318327	-0.225041	0.895751	
-0.307536	-0.237004	0.795298	
-0.359322	0.070805	0.5	
-0.376393	0.0217786	0.5	
-0.335355	0.0353553	0.5	
-0.334766	0.0144004	0.563203	
0.493012	-0.0833019	0.655211	
0.39071	-0.0800656	0.604798	
0.366266	-0.0917065	0.74426	
0.393693	-0.0146265	0.683142	
-0.0353553	-0.335355	0.5	
-0.0144004	-0.334766	0.569106	
-0.05	-0.3	0.5	
-0.0912866	-0.293514	0.577692	
0.332433	0.136577	0.5	
0.299755	0.133787	0.640165	
0.38867	0.101377	0.601055	
0.327747	0.217533	0.591075	
-0.0144004	-0.334766	0.641321	
0.00809469	-0.342857	0.777216	
0.0848114	-0.374635	0.706588	
0.0420743	-0.281954	0.683615	
-0.05	0.216667	0.5	
0.0335927	0.239842	0.602535	
0.0120439	0.258333	0.5	
-0.00291132	0.295217	0.558405	
-0.477948	-0.146853	0.584008	
-0.370241	-0.156649	0.594441	
-0.357398	-0.0545279	0.581884	
-0.396738	-0.0922406	0.663051	
-0.10302	-0.108424	0.5	
-0.05	-0.133333	0.5	
-0.05	-0.05	0.5	
-0.0312742	-0.12116	0.604392	
-0.138674	0.323797	1	
-0.214341	0.273759	1	
-0.201912	0.369986	1	
-0.25253	0.295971	0.897838	
0.295217	0.00291132	0.703732	
0.223491	0.0887848	0.734304	
0.145586	0.022498	0.744291	
0.255406	-0.0213367	0.790897	
-0.493315	-0.0814864	0.652319	
-0.416699	0.00631676	0.584325	
-0.5	0	0.7	
-0.396738	-0.0922406	0.663051	
-0.0924024	-0.340318	0.735056	
-0.191043	-0.351595	0.71168	
-0.190903	-0.246146	0.678266	
-0.0872901	-0.296751	0.662404	
-0.268836	0.0809708	0.594884	
-0.225046	0.183718	0.683937	
-0.307291	0.177008	0.64695	
-0.249851	0.075261	0.682349	
0.223611	0.287945	0.822031	
0.106564	0.358516	0.753234	
0.0912931	0.252729	0.837007	
0.138051	0.361812	0.873206	
-0.254144	-0.321855	0.5	
-0.2387	-0.321065	0.626825	
-0.172599	-0.285692	0.5	
-0.172932	-0.247597	0.585974	
0.136577	-0.332433	0.5	
0.0545279	-0.357398	0.586263	
0.159651	-0.364489	0.598434	
0.116472	-0.275537	0.565587	
0.0545279	-0.357398	0.586263	
-0.0144004	-0.334766	0.569106	
-0.0144004	-0.334766	0.641321	
0.0232632	-0.246364	0.605213	
-0.429146	-0.25658	0.66876	
-0.468495	-0.174678	0.682891	
-0.313218	-0.202403	0.699795	
-0.370241	-0.156649	0.594441	
-0.125401	-0.180396	0.755134	
-0.127689	-0.241885	0.89237	
-0.230163	-0.183396	0.833896	
-0.10367	-0.266109	0.799505	
-0.190903	-0.246146	0.678266	
-0.191043	-0.351595	0.71168	
-0.194168	-0.311781	0.817902	
-0.276638	-0.296057	0.718432	
-0.108627	0.359588	0.683823	
-0.00291132	0.295217	0.703732	
-0.0218361	0.398667	0.744009	
-0.115526	0.359753	0.796074	
0.240455	-0.234106	0.5	
0.240952	-0.280119	0.617373	
0.329947	-0.238467	0.603405	
0.24957	-0.148488	0.574982	
0.255435	-0.105455	0.5	
0.272064	-0.0681442	0.59838	
0.216667	-0.05	0.5	
0.24957	-0.148488	0.574982	
-0.254144	-0.321855	0.5	
-0.234106	-0.240455	0.5	
-0.267754	-0.225502	0.603013	
-0.2387	-0.321065	0.626825	
-0.495012	-0.0704482	0.928155	
-0.493437	-0.0807477	0.845776	
-0.5	0	0.9	
-0.404225	0.0311984	0.902579	
0.373926	0.198925	1	
0.328092	0.270243	1	
0.439458	0.238488	0.924308	
0.296275	0.264777	0.897601	
0.0545279	-0.357398	0.586263	
0.0232632	-0.246364	0.605213	
0.116472	-0.275537	0.636806	
0.116472	-0.275537	0.565587	
0.5	0	0.9	
0.493012	0.0833019	0.844789	
0.5	0	0.8	
0.350295	0.0306837	0.84806	
-0.168043	-0.470916	0.699874	
-0.140302	-0.350193	0.62321	
-0.217356	-0.450285	0.644698	
-0.191043	-0.351595	0.71168	
-0.328716	-0.376757	0.753532	
-0.194168	-0.311781	0.817902	
-0.258165	-0.428195	0.798245	
-0.276638	-0.296057	0.718432	
-0.291878	0.202294	0.852394	
-0.163252	0.278732	0.833643	
-0.25253	0.295971	0.897838	
-0.172627	0.234526	0.919455	
0.174678	0.468495	0.817109	
0.0814864	0.493315	0.847681	
0.106564	0.358516	0.753234	
0.138051	0.361812	0.873206	
0.3168	-0.386831	0.604097	
0.265223	-0.319213	0.5	
0.240952	-0.280119	0.617373	
0.329947	-0.238467	0.603405	
-0.0734441	0.0616893	1	
-0.124832	0.0586014	0.906551	
-0.0338793	0.0189553	0.867322	
-0.0858575	-0.0573451	0.909067	
0.00183684	-0.222331	1	
0.0248177	-0.313374	1	
-0.0638367	-0.295761	1	
0.0124212	-0.23804	0.873103	
0.209083	0.110158	0.5	
0.156778	0.139117	0.5	
0.133333	0.05	0.5	
0.190245	0.0667888	0.625379	
0.332433	0.136577	0.5	
0.38867	0.101377	0.601055	
0.368925	0.202831	0.5	
0.327747	0.217533	0.591075	
0.376757	0.328716	0.746468	
0.316847	0.386792	0.698616	
0.380873	0.323938	0.652261	
0.316638	0.224466	0.734195	
0.106564	0.358516	0.753234	
0.0839731	0.219451	0.721314	
0.12289	0.290081	0.637079	
0.198642	0.311382	0.714561	
0.436762	0.243391	0.596938	
0.368925	0.202831	0.5	
0.38867	0.101377	0.601055	
0.327747	0.217533	0.591075	
0.403225	-0.114629	0.5	
0.368447	-0.183279	0.5	
0.476114	-0.152694	0.59754	
0.39071	-0.0800656	0.604798	
0.490343	-0.0977967	0.758774	
0.366266	-0.0917065	0.74426	
0.5	0	0.8	
0.393693	-0.0146265	0.683142	
-0.0814864	0.493315	0.652319	
-0.108627	0.359588	0.683823	
-0.0376575	0.408608	0.57511	
0.00685904	0.408881	0.656439	
-0.164797	-0.0240318	0.828417	
-0.230911	0.053351	0.887346	
-0.220651	0.0125647	0.740031	
-0.266891	-0.0501392	0.812706	
-0.194667	-0.460548	0.76567	
-0.0977967	-0.490343	0.758774	
-0.168043	-0.470916	0.699874	
-0.0924024	-0.340318	0.735056	
0.0728232	-0.494668	0.573541	
0.0814864	-0.493315	0.652319	
0.146853	-0.477948	0.584008	
0.0170927	-0.420241	0.640557	
-0.0168063	-0.279144	0.5	
-0.0144004	-0.334766	0.569106	
0.0120439	-0.258333	0.5	
0.0232632	-0.246364	0.605213	
-0.179918	0.142525	0.617274	
-0.225046	0.183718	0.683937	
-0.268836	0.0809708	0.594884	
-0.249851	0.075261	0.682349	
-0.164797	-0.0240318	0.828417	
-0.124832	0.0586014	0.906551	
-0.230911	0.053351	0.887346	
-0.243062	-0.0438203	0.910197	
-0.156778	-0.139117	0.5	
-0.166493	-0.210048	0.5	
-0.104344	-0.174965	0.5	
-0.165932	-0.151801	0.614298	
-0.0949641	0.22959	0.742345	
-0.0640422	0.245911	0.888875	
-0.0435837	0.153197	0.818477	
-0.00874456	0.250849	0.799219	
-0.0788669	0.0768903	0.663116	
-0.0119975	0.149532	0.712677	
-0.113452	0.0682357	0.775647	
-0.0173799	0.0733829	0.771387	
-0.048473	-0.0328568	1	
-0.0338793	0.0189553	0.867322	
0.0136102	-0.0944981	0.903895	
-0.0858575	-0.0573451	0.909067	
0.386505	0.317197	0.568825	
0.317233	0.386476	0.590473	
0.319213	0.265223	0.5	
0.253284	0.276753	0.625058	
-0.133333	0.05	0.5	
-0.17494	-0.00200732	0.5	
-0.104309	-0.0175295	0.603853	
-0.124864	0.0783821	0.585361	
0.490343	0.0977967	0.741226	
0.469721	0.171353	0.661666	
0.493389	0.0810399	0.64715	
0.363042	0.112521	0.74989	
-0.364126	0.107425	0.596298	
-0.334766	0.0144004	0.563203	
-0.327662	0.113303	0.5	
-0.268836	0.0809708	0.594884	
-0.27609	0.255234	0.739837	
-0.270598	0.271491	0.600584	
-0.17825	0.257762	0.661466	
-0.225046	0.183718	0.683937	
-0.164797	-0.0240318	0.828417	
-0.113452	0.0682357	0.775647	
-0.0730504	-0.0481965	0.809858	
-0.14275	-0.0105591	0.697053	
-0.0338793	0.0189553	0.867322	
-0.0173799	0.0733829	0.771387	
0.0458333	0.00416667	0.749305	
-0.0730504	-0.0481965	0.809858	
-0.101011	0.298593	0.5	
-0.136577	0.332433	0.5	
-0.14329	0.268365	0.5	
-0.116472	0.275537	0.591143	
0.0550581	0.422892	0.5	
-0.00233139	0.422954	0.5	
0.0222826	0.353795	0.558177	
-0.0376575	0.408608	0.57511	
-0.237047	0.0201392	1	
-0.337562	0.0547633	1	
-0.230911	0.053351	0.887346	
-0.243062	-0.0438203	0.910197	
-0.0734441	0.0616893	1	
-0.0338793	0.0189553	0.867322	
-0.048473	-0.0328568	1	
-0.0858575	-0.0573451	0.909067	
-0.469721	0.171353	0.838334	
-0.428195	0.258165	0.798245	
-0.436762	0.243391	0.903062	
-0.369146	0.1248	0.88989	
-0.386498	-0.317206	0.700322	
-0.386831	-0.3168	0.604097	
-0.429146	-0.25658	0.66876	
-0.313218	-0.202403	0.699795	
-0.494668	-0.0728232	0.573541	
-0.357398	-0.0545279	0.581884	
-0.416699	0.00631676	0.584325	
-0.396738	-0.0922406	0.663051	
0.247868	0.146306	1	
0.158056	0.171884	1	
0.231243	0.24169	1	
0.177848	0.156277	0.877262	
0.299755	0.133787	0.640165	
0.253284	0.276753	0.625058	
0.327747	0.217533	0.591075	
0.257762	0.17825	0.572115	
0.0458333	0.00416667	0.749305	
-0.0173799	0.0733829	0.771387	
-0.0557779	-0.00339833	0.72595	
-0.0730504	-0.0481965	0.809858	
-0.291878	0.202294	0.852394	
-0.357252	0.187897	0.739185	
-0.27609	0.255234	0.739837	
-0.290365	0.115706	0.809779	
-0.166409	0.150419	0.871568	
-0.0640422	0.245911	0.888875	
-0.163252	0.278732	0.833643	
-0.172627	0.234526	0.919455	
0.106564	0.358516	0.753234	
-0.00291132	0.295217	0.703732	
-0.0218361	0.398667	0.744009	
0.00685904	0.408881	0.656439	
-0.450285	0.217356	0.644698	
-0.364126	0.107425	0.596298	
-0.476114	0.152694	0.59754	
-0.351055	0.232374	0.591168	
-0.364126	0.107425	0.596298	
-0.268836	0.0809708	0.594884	
-0.327662	0.113303	0.5	
-0.247844	0.169866	0.575357	
-0.0555676	0.325574	1	
-0.0640422	0.245911	0.888875	
-0.138674	0.323797	1	
-0.124209	0.359991	0.89696	
-0.156778	-0.139117	0.5	
-0.22133	-0.175555	0.5	
-0.166493	-0.210048	0.5	
-0.165932	-0.151801	0.614298	
-0.170347	-0.112486	0.899727	
-0.266891	-0.0501392	0.812706	
-0.230163	-0.183396	0.833896	
-0.243062	-0.0438203	0.910197	
0.242822	0.437078	0.652991	
0.198642	0.311382	0.714561	
0.168734	0.470668	0.701781	
0.19252	0.354505	0.600343	
-0.05	0.216667	0.5	
-0.0168063	0.279144	0.5	
-0.05	0.3	0.5	
-0.00291132	0.295217	0.558405	
-0.164797	-0.0240318	0.828417	
-0.113452	0.0682357	0.775647	
-0.0338793	0.0189553	0.867322	
-0.0730504	-0.0481965	0.809858	
-0.05	-0.3	0.5	
-0.0144004	-0.334766	0.569106	
-0.0168063	-0.279144	0.5	
-0.0912866	-0.293514	0.577692	
-0.386505	0.317197	0.931175	
-0.436762	0.243391	0.903062	
-0.380873	0.323938	0.847739	
-0.291878	0.202294	0.852394	
0.0942175	0.125111	0.789315	
0.0839731	0.219451	0.721314	
0.0781685	0.124409	0.653995	
-0.0119975	0.149532	0.712677	
-0.0557779	-0.00339833	0.72595	
-0.0730504	-0.0481965	0.809858	
-0.113452	0.0682357	0.775647	
-0.14275	-0.0105591	0.697053	
-0.108627	0.359588	0.683823	
-0.195673	0.329094	0.742315	
-0.0949641	0.22959	0.742345	
-0.115526	0.359753	0.796074	
-0.113303	-0.327662	0.5	
-0.172599	-0.285692	0.5	
-0.183279	-0.368447	0.5	
-0.140302	-0.350193	0.62321	
-0.0435837	0.153197	0.818477	
-0.113452	0.0682357	0.775647	
-0.0119975	0.149532	0.712677	
-0.0173799	0.0733829	0.771387	
0.174965	-0.104344	0.5	
0.216667	-0.05	0.5	
0.133333	-0.05	0.5	
0.21299	-0.0111081	0.575703	
-0.0969866	-0.088866	0.682079	
-0.182236	-0.0903375	0.74647	
-0.0730504	-0.0481965	0.809858	
-0.14275	-0.0105591	0.697053	
0.317233	-0.386476	0.909527	
0.253273	-0.249599	0.843605	
0.316847	-0.386792	0.801384	
0.205413	-0.339549	0.892186	
-0.05	0.05	0.5	
-0.00961934	0.119858	0.599022	
-0.05	0.133333	0.5	
-0.124864	0.0783821	0.585361	
-0.349811	-0.108212	0.856986	
-0.266891	-0.0501392	0.812706	
-0.332366	0.0316806	0.831947	
-0.243062	-0.0438203	0.910197	
0.5	0	0.8	
0.490343	0.0977967	0.741226	
0.5	0	0.7	
0.393693	-0.0146265	0.683142	
-0.349811	-0.108212	0.856986	
-0.385513	-0.0181868	0.734694	
-0.332366	0.0316806	0.831947	
-0.266891	-0.0501392	0.812706	
-0.386831	-0.3168	0.604097	
-0.444481	-0.228991	0.591901	
-0.429146	-0.25658	0.66876	
-0.370241	-0.156649	0.594441	
0.240455	-0.234106	0.5	
0.210048	-0.166493	0.5	
0.171958	-0.1808	0.606406	
0.24957	-0.148488	0.574982	
0.05	-0.3	0.5	
0.0722049	-0.334139	0.5	
0.101011	-0.298593	0.5	
0.116472	-0.275537	0.565587	
0.199071	0.201004	0.718052	
0.223611	0.287945	0.822031	
0.316638	0.224466	0.734195	
0.198642	0.311382	0.714561	
-0.0550581	-0.422892	0.5	
0.00233139	-0.422954	0.5	
-0.0217786	-0.376393	0.5	
-0.0656658	-0.406088	0.605213	
0.380873	0.323938	0.652261	
0.316638	0.224466	0.734195	
0.253284	0.276753	0.625058	
0.327747	0.217533	0.591075	
0.22133	0.175555	0.5	
0.166493	0.210048	0.5	
0.185114	0.178816	0.60757	
0.257762	0.17825	0.572115	
0.0942175	0.125111	0.789315	
0.223491	0.0887848	0.734304	
0.190324	0.0393932	0.833873	
0.145586	0.022498	0.744291	
0.240952	-0.280119	0.617373	
0.159651	-0.364489	0.598434	
0.116472	-0.275537	0.636806	
0.116472	-0.275537	0.565587	
-0.216667	0.05	0.5	
-0.258333	-0.0120439	0.5	
-0.17494	-0.00200732	0.5	
-0.259968	-0.0294564	0.588658	
0.439458	0.238488	0.924308	
0.415735	0.277785	0.865862	
0.450285	0.217356	0.855302	
0.370295	0.150924	0.909678	
-0.0131388	-0.31384	0.5	
-0.0353553	-0.335355	0.5	
0	-0.35	0.5	
-0.0144004	-0.334766	0.569106	
-0.0435837	0.153197	0.818477	
-0.0119975	0.149532	0.712677	
0.0942175	0.125111	0.789315	
-0.0173799	0.0733829	0.771387	
0.22133	0.175555	0.5	
0.234106	0.240455	0.5	
0.166493	0.210048	0.5	
0.257762	0.17825	0.572115	
-0.0734441	0.0616893	1	
0.0209546	0.0362755	1	
-0.048473	-0.0328568	1	
-0.0338793	0.0189553	0.867322	
0.209083	0.110158	0.5	
0.281543	0.0750159	0.578871	
0.257817	0.0951035	0.5	
0.257762	0.17825	0.572115	
-0.344127	-0.112227	1	
-0.278713	-0.14304	1	
-0.356684	-0.19351	1	
-0.318327	-0.225041	0.895751	
0.469721	0.171353	0.661666	
0.436762	0.243391	0.596938	
0.38867	0.101377	0.601055	
0.327747	0.217533	0.591075	
0.282439	-0.104966	0.83613	
0.174523	-0.0723952	0.765964	
0.251569	-0.0890044	0.696136	
0.200293	-0.156985	0.812694	
0.240952	-0.280119	0.617373	
0.192404	-0.317473	0.724143	
0.116472	-0.275537	0.636806	
0.159651	-0.364489	0.598434	
-0.10302	-0.108424	0.5	
-0.05	-0.05	0.5	
-0.133333	-0.05	0.5	
-0.104309	-0.0175295	0.603853	
-0.275537	-0.116472	0.607416	
-0.357398	-0.0545279	0.581884	
-0.332433	-0.136577	0.5	
-0.370241	-0.156649	0.594441	
0.12289	0.290081	0.637079	
0.199071	0.201004	0.718052	
0.253284	0.276753	0.625058	
0.198642	0.311382	0.714561	
0.272064	-0.0681442	0.59838	
0.251569	-0.0890044	0.696136	
0.175	-0.0611989	0.634692	
0.24957	-0.148488	0.574982	
-0.0232782	-0.127584	1	
0.0136102	-0.0944981	0.903895	
-0.0699367	-0.141385	0.854754	
-0.0858575	-0.0573451	0.909067	
0.201164	-0.273578	1	
0.112799	-0.33356	1	
0.0943468	-0.245334	1	
0.153768	-0.209711	0.888749	
0.314271	-0.0501881	1	
0.346509	0.0237889	1	
0.382055	-0.0743662	0.891735	
0.262288	-0.0152307	0.900549	
-0.114467	-0.386332	1	
-0.0638367	-0.295761	1	
-0.0328721	-0.370689	1	
-0.156768	-0.340879	0.911535	
0.133074	0.264097	1	
0.0401436	0.291204	1	
0.114055	0.374109	1	
0.138051	0.361812	0.873206	
0.314857	-0.257449	1	
0.344185	-0.180158	0.894872	
0.253273	-0.249599	0.843605	
0.243698	-0.168497	0.902816	
0.253273	-0.249599	0.843605	
0.153768	-0.209711	0.888749	
0.201164	-0.273578	1	
0.243698	-0.168497	0.902816	
-0.328716	-0.376757	0.753532	
-0.258165	-0.428195	0.798245	
-0.191043	-0.351595	0.71168	
-0.276638	-0.296057	0.718432	
-0.202831	0.368925	0.5	
-0.3168	0.386831	0.604097	
-0.265223	0.319213	0.5	
-0.21408	0.346313	0.633756	
-0.17825	0.257762	0.661466	
-0.108627	0.359588	0.683823	
-0.116472	0.275537	0.591143	
-0.21408	0.346313	0.633756	
-0.0435837	0.153197	0.818477	
-0.0640422	0.245911	0.888875	
-0.166409	0.150419	0.871568	
-0.0565371	0.130102	0.914035	
-0.493437	-0.0807477	0.845776	
-0.5	0	0.8	
-0.5	0	0.9	
-0.404225	0.0311984	0.902579	
-0.0969866	-0.088866	0.682079	
-0.00860123	-0.101114	0.760951	
-0.125401	-0.180396	0.755134	
-0.026527	-0.165458	0.694773	
-0.357398	-0.0545279	0.581884	
-0.334766	0.0144004	0.629791	
-0.416699	0.00631676	0.584325	
-0.396738	-0.0922406	0.663051	
0.216667	0.05	0.5	
0.190245	0.0667888	0.625379	
0.133333	0.05	0.5	
0.21299	-0.0111081	0.575703	
-0.05	0.05	0.5	
-0.05	0.133333	0.5	
-0.108424	0.10302	0.5	
-0.124864	0.0783821	0.585361	
0.05	-0.133333	0.5	
0.0851262	-0.069993	0.591553	
-0.0312742	-0.12116	0.604392	
0.0797732	-0.172712	0.582888	
-0.05	-0.216667	0.5	
0.0120439	-0.258333	0.5	
0.00200732	-0.17494	0.5	
0.0232632	-0.246364	0.605213	
0.232997	-0.11062	1	
0.176835	-0.0957025	0.888175	
0.262288	-0.0152307	0.900549	
0.243698	-0.168497	0.902816	
0.0209546	0.0362755	1	
0.115537	0.0107471	1	
0.086984	-0.0195503	0.879555	
0.130088	0.0681493	0.912467	
5.20231e-18	-0.0913051	0.5	
-0.0312742	-0.12116	0.604392	
0.05	-0.133333	0.5	
0.0851262	-0.069993	0.591553	
-0.171353	-0.469721	0.838334	
-0.194168	-0.311781	0.817902	
-0.243391	-0.436762	0.903062	
-0.156768	-0.340879	0.911535	
-0.16685	0.0883447	1	
-0.166409	0.150419	0.871568	
-0.0983601	0.156434	1	
-0.124832	0.0586014	0.906551	
0.3168	-0.386831	0.604097	
0.388274	-0.315029	0.579193	
0.265223	-0.319213	0.5	
0.329947	-0.238467	0.603405	
-0.437078	-0.242822	0.847009	
-0.47591	-0.153328	0.90763	
-0.440961	-0.235698	0.931431	
-0.349811	-0.108212	0.856986	
-0.0218405	-0.241762	0.749515	
-0.0924024	-0.340318	0.735056	
-0.10367	-0.266109	0.799505	
-0.0872901	-0.296751	0.662404	
-0.238488	-0.439458	0.575692	
-0.152694	-0.476114	0.59754	
-0.183279	-0.368447	0.5	
-0.140302	-0.350193	0.62321	
-0.070805	-0.359322	0.5	
-0.0353553	-0.335355	0.5	
-0.05	-0.3	0.5	
-0.0912866	-0.293514	0.577692	
0.317233	0.386476	0.590473	
0.254144	0.321855	0.5	
0.319213	0.265223	0.5	
0.253284	0.276753	0.625058	
0.240455	-0.234106	0.5	
0.329947	-0.238467	0.603405	
0.285692	-0.172599	0.5	
0.24957	-0.148488	0.574982	
-0.477948	-0.146853	0.584008	
-0.357398	-0.0545279	0.581884	
-0.494668	-0.0728232	0.573541	
-0.396738	-0.0922406	0.663051	
0.317206	0.386498	0.799678	
0.223611	0.287945	0.822031	
0.374193	0.331632	0.834643	
0.296275	0.264777	0.897601	
-0.0422582	-0.437473	1	
0.0404524	-0.41072	1	
0	-0.5	0.9	
0.0415638	-0.384519	0.881679	
0.116472	-0.275537	0.636806	
0.0232632	-0.246364	0.605213	
0.0545279	-0.357398	0.586263	
0.0420743	-0.281954	0.683615	
0.0728232	-0.494668	0.573541	
0.00233139	-0.422954	0.5	
0	-0.5	0.6	
0.0170927	-0.420241	0.640557	
-0.05	0.216667	0.5	
0.00200732	0.174835	0.5	
0.0120439	0.258333	0.5	
0.0335927	0.239842	0.602535	
-0.194168	-0.311781	0.817902	
-0.127689	-0.241885	0.89237	
-0.230163	-0.183396	0.833896	
-0.258725	-0.308783	0.897858	
0.247057	-0.434698	0.749501	
0.316847	-0.386792	0.801384	
0.317206	-0.386498	0.700322	
0.192404	-0.317473	0.724143	
0.319213	0.265223	0.5	
0.386505	0.317197	0.568825	
0.253284	0.276753	0.625058	
0.327747	0.217533	0.591075	
-0.05	0.05	0.5	
-0.0913051	-8.8983e-18	0.5	
-0.104309	-0.0175295	0.603853	
-0.124864	0.0783821	0.585361	
0.0545279	-0.357398	0.586263	
0.0232632	-0.246364	0.605213	
-0.0144004	-0.334766	0.641321	
0.0420743	-0.281954	0.683615	
-0.179918	0.142525	0.617274	
-0.132843	0.148259	0.702998	
-0.214953	0.122747	0.749953	
-0.249851	0.075261	0.682349	
-0.183279	-0.368447	0.5	
-0.254144	-0.321855	0.5	
-0.238488	-0.439458	0.575692	
-0.2387	-0.321065	0.626825	
-0.450285	0.217356	0.644698	
-0.476114	0.152694	0.59754	
-0.439458	0.238488	0.575692	
-0.351055	0.232374	0.591168	
-0.163252	0.278732	0.833643	
-0.27609	0.255234	0.739837	
-0.195673	0.329094	0.742315	
-0.189541	0.216222	0.763213	
0.234106	0.240455	0.5	
0.185114	0.178816	0.60757	
0.166493	0.210048	0.5	
0.257762	0.17825	0.572115	
-0.368447	0.183279	0.5	
-0.364126	0.107425	0.596298	
-0.285692	0.172599	0.5	
-0.351055	0.232374	0.591168	
-0.0924024	-0.340318	0.735056	
-0.191043	-0.351595	0.71168	
-0.194168	-0.311781	0.817902	
-0.10367	-0.266109	0.799505	
0.476114	0.152694	0.90246	
0.493012	0.0833019	0.844789	
0.495101	0.0698189	0.927621	
0.370295	0.150924	0.909678	
-0.214953	0.122747	0.749953	
-0.132843	0.148259	0.702998	
-0.179918	0.142525	0.617274	
-0.225046	0.183718	0.683937	
-0.254144	-0.321855	0.5	
-0.183279	-0.368447	0.5	
-0.172599	-0.285692	0.5	
-0.2387	-0.321065	0.626825	
-0.0788669	0.0768903	0.663116	
-0.104309	-0.0175295	0.603853	
-0.198991	0.0214385	0.631757	
-0.124864	0.0783821	0.585361	
-0.214953	0.122747	0.749953	
-0.225046	0.183718	0.683937	
-0.179918	0.142525	0.617274	
-0.249851	0.075261	0.682349	
-0.368447	0.183279	0.5	
-0.327662	0.113303	0.5	
-0.285692	0.172599	0.5	
-0.364126	0.107425	0.596298	
0.262288	-0.0152307	0.900549	
0.258755	0.0906035	0.896517	
0.190324	0.0393932	0.833873	
0.130088	0.0681493	0.912467	
0.0353553	-0.335355	0.5	
0.0722049	-0.334139	0.5	
0.05	-0.3	0.5	
0.0545279	-0.357398	0.586263	
-0.0949641	0.22959	0.742345	
-0.195673	0.329094	0.742315	
-0.163252	0.278732	0.833643	
-0.115526	0.359753	0.796074	
0.247057	0.434698	0.750499	
0.316847	0.386792	0.698616	
0.317206	0.386498	0.799678	
0.198642	0.311382	0.714561	
0.210048	-0.166493	0.5	
0.174965	-0.104344	0.5	
0.171958	-0.1808	0.606406	
0.24957	-0.148488	0.574982	
0.317233	0.386476	0.590473	
0.253284	0.276753	0.625058	
0.316847	0.386792	0.698616	
0.19252	0.354505	0.600343	
0.110158	-0.209083	0.5	
0.175555	-0.22133	0.5	
0.171958	-0.1808	0.606406	
0.116472	-0.275537	0.565587	
-0.334766	0.0144004	0.629791	
-0.268836	0.0809708	0.594884	
-0.198991	0.0214385	0.631757	
-0.259968	-0.0294564	0.588658	
-0.210048	0.166493	0.5	
-0.174965	0.104344	0.5	
-0.179918	0.142525	0.617274	
-0.247844	0.169866	0.575357	
0.0942175	0.125111	0.789315	
0.0378724	0.109427	0.891855	
-0.0435837	0.153197	0.818477	
-0.0173799	0.0733829	0.771387	
0.4284	0.257824	0.795024	
0.374193	0.331632	0.834643	
0.376757	0.328716	0.746468	
0.316638	0.224466	0.734195	
-0.0983601	0.156434	1	
-0.124832	0.0586014	0.906551	
-0.166409	0.150419	0.871568	
-0.0565371	0.130102	0.914035	
-0.152694	-0.476114	0.59754	
-0.114629	-0.403225	0.5	
-0.183279	-0.368447	0.5	
-0.140302	-0.350193	0.62321	
0.199071	0.201004	0.718052	
0.12289	0.290081	0.637079	
0.0839731	0.219451	0.721314	
0.198642	0.311382	0.714561	
0.216667	0.05	0.5	
0.209083	0.110158	0.5	
0.133333	0.05	0.5	
0.190245	0.0667888	0.625379	
-0.0699367	-0.141385	0.854754	
-0.127689	-0.241885	0.89237	
-0.125401	-0.180396	0.755134	
-0.10367	-0.266109	0.799505	
-0.174678	0.468495	0.682891	
-0.168734	0.470668	0.798219	
-0.195673	0.329094	0.742315	
-0.115526	0.359753	0.796074	
-0.0788669	0.0768903	0.663116	
-0.104309	-0.0175295	0.603853	
-0.00100849	-0.0205955	0.627967	
-0.0557779	-0.00339833	0.72595	
-0.190903	-0.246146	0.678266	
-0.165932	-0.151801	0.614298	
-0.0717603	-0.216541	0.630077	
-0.172932	-0.247597	0.585974	
-0.490343	0.0977967	0.758774	
-0.470916	0.168043	0.699874	
-0.460548	0.194667	0.76567	
-0.357252	0.187897	0.739185	
-0.114629	-0.403225	0.5	
-0.140302	-0.350193	0.62321	
-0.152694	-0.476114	0.59754	
-0.0656658	-0.406088	0.605213	
-0.214953	0.122747	0.749953	
-0.327614	0.0876466	0.725276	
-0.220651	0.0125647	0.740031	
-0.290365	0.115706	0.809779	
0.0704482	0.495012	0.571845	
-0.00233139	0.422954	0.5	
0.0550581	0.422892	0.5	
-0.0376575	0.408608	0.57511	
0.242822	0.437078	0.652991	
0.316847	0.386792	0.698616	
0.198642	0.311382	0.714561	
0.19252	0.354505	0.600343	
0.436762	0.243391	0.596938	
0.411745	0.136955	0.5	
0.478555	0.144862	0.578348	
0.38867	0.101377	0.601055	
-0.0217786	-0.376393	0.5	
0	-0.35	0.5	
-0.0353553	-0.335355	0.5	
-0.0144004	-0.334766	0.569106	
-0.0699367	-0.141385	0.854754	
0.0136102	-0.0944981	0.903895	
-0.00860123	-0.101114	0.760951	
-0.0730504	-0.0481965	0.809858	
0.05	-0.3	0.5	
0.0545279	-0.357398	0.586263	
0.0722049	-0.334139	0.5	
0.116472	-0.275537	0.565587	
-0.476114	0.152694	0.59754	
-0.364126	0.107425	0.596298	
-0.470916	0.168043	0.699874	
-0.401952	0.0654763	0.671747	
-0.0892306	0.377437	0.5	
-0.0722049	0.334139	0.5	
-0.0305468	0.374084	0.5	
-0.0376575	0.408608	0.57511	
0.10302	0.108424	0.5	
0.133333	0.05	0.5	
0.156778	0.139117	0.5	
0.0877437	0.0690174	0.581458	
-0.437078	-0.242822	0.847009	
-0.470668	-0.168734	0.798219	
-0.349811	-0.108212	0.856986	
-0.369358	-0.124566	0.75116	
0.380873	0.323938	0.652261	
0.428195	0.258165	0.701755	
0.316638	0.224466	0.734195	
0.327747	0.217533	0.591075	
-0.214953	0.122747	0.749953	
-0.220651	0.0125647	0.740031	
-0.327614	0.0876466	0.725276	
-0.249851	0.075261	0.682349	
-0.211369	-0.0761151	1	
-0.170347	-0.112486	0.899727	
-0.278713	-0.14304	1	
-0.243062	-0.0438203	0.910197	
-0.0623911	0.203393	0.630433	
-0.0788669	0.0768903	0.663116	
-0.0119975	0.149532	0.712677	
-0.132843	0.148259	0.702998	
-0.0983601	0.156434	1	
-0.16685	0.0883447	1	
-0.18644	0.1823	1	
-0.166409	0.150419	0.871568	
-0.281543	-0.0750159	0.710149	
-0.313218	-0.202403	0.699795	
-0.275537	-0.116472	0.607416	
-0.232732	-0.157842	0.680234	
0.201164	-0.273578	1	
0.153768	-0.209711	0.888749	
0.253273	-0.249599	0.843605	
0.205413	-0.339549	0.892186	
0.125573	-0.41396	1	
0.153328	-0.47591	0.90763	
0.0704482	-0.495012	0.928155	
0.0415638	-0.384519	0.881679	
0.388274	0.315029	0.920807	
0.415735	0.277785	0.865862	
0.439458	0.238488	0.924308	
0.296275	0.264777	0.897601	
0.476114	0.152694	0.90246	
0.470916	0.168043	0.800126	
0.493012	0.0833019	0.844789	
0.370295	0.150924	0.909678	
-0.210048	0.166493	0.5	
-0.255435	0.105455	0.5	
-0.174965	0.104344	0.5	
-0.247844	0.169866	0.575357	
-0.386831	-0.3168	0.604097	
-0.386498	-0.317206	0.700322	
-0.331632	-0.374193	0.665357	
-0.276638	-0.296057	0.718432	
-0.468495	-0.174678	0.682891	
-0.369358	-0.124566	0.75116	
-0.313218	-0.202403	0.699795	
-0.396738	-0.0922406	0.663051	
-0.0555676	0.325574	1	
-0.119993	0.246691	1	
-0.138674	0.323797	1	
-0.0640422	0.245911	0.888875	
0.25658	0.429146	0.83124	
0.138051	0.361812	0.873206	
0.223611	0.287945	0.822031	
0.223912	0.340615	0.913264	
-0.386792	-0.316847	0.801384	
-0.307536	-0.237004	0.795298	
-0.318327	-0.225041	0.895751	
-0.258725	-0.308783	0.897858	
-0.0144004	-0.334766	0.641321	
-0.0912866	-0.293514	0.577692	
-0.0656658	-0.406088	0.605213	
-0.0872901	-0.296751	0.662404	
-0.174678	0.468495	0.682891	
-0.108627	0.359588	0.683823	
-0.0854243	0.492649	0.748597	
-0.115526	0.359753	0.796074	
-0.0144004	0.334766	0.60495	
-0.108627	0.359588	0.683823	
-0.00291132	0.295217	0.703732	
0.00685904	0.408881	0.656439	
0.216667	0.05	0.5	
0.209083	0.110158	0.5	
0.190245	0.0667888	0.625379	
0.281543	0.0750159	0.578871	
0.373926	0.198925	1	
0.370295	0.150924	0.909678	
0.300884	0.198715	1	
0.296275	0.264777	0.897601	
-0.281543	-0.0750159	0.710149	
-0.313218	-0.202403	0.699795	
-0.369358	-0.124566	0.75116	
-0.396738	-0.0922406	0.663051	
-0.164797	-0.0240318	0.828417	
-0.0730504	-0.0481965	0.809858	
-0.182236	-0.0903375	0.74647	
-0.14275	-0.0105591	0.697053	
-0.0969866	-0.088866	0.682079	
-0.0730504	-0.0481965	0.809858	
-0.0557779	-0.00339833	0.72595	
-0.14275	-0.0105591	0.697053	
0.366266	-0.0917065	0.74426	
0.251569	-0.0890044	0.696136	
0.282439	-0.104966	0.83613	
0.255406	-0.0213367	0.790897	
0.193656	-0.194449	0.720197	
0.253273	-0.249599	0.843605	
0.309086	-0.228865	0.737481	
0.200293	-0.156985	0.812694	
-0.163252	0.278732	0.833643	
-0.124209	0.359991	0.89696	
-0.25253	0.295971	0.897838	
-0.172627	0.234526	0.919455	
0.199071	0.201004	0.718052	
0.316638	0.224466	0.734195	
0.253284	0.276753	0.625058	
0.198642	0.311382	0.714561	
-0.273315	0.334955	1	
-0.317233	0.386476	0.909527	
-0.235698	0.440961	0.931431	
-0.25253	0.295971	0.897838	
0.114629	0.403225	0.5	
0.0827402	0.389706	0.606734	
0.113303	0.327662	0.5	
0.19252	0.354505	0.600343	
-0.275537	-0.116472	0.607416	
-0.267754	-0.225502	0.603013	
-0.313218	-0.202403	0.699795	
-0.370241	-0.156649	0.594441	
-0.494668	-0.0728232	0.573541	
-0.357398	-0.0545279	0.581884	
-0.437042	-0.0584891	0.5	
-0.416699	0.00631676	0.584325	
0.0942175	0.125111	0.789315	
0.177848	0.156277	0.877262	
0.0378724	0.109427	0.891855	
0.130088	0.0681493	0.912467	
0.346509	0.0237889	1	
0.276476	0.0535537	1	
0.337634	0.115561	1	
0.258755	0.0906035	0.896517	
-0.334766	0.0144004	0.629791	
-0.281543	-0.0750159	0.710149	
-0.385513	-0.0181868	0.734694	
-0.396738	-0.0922406	0.663051	
-0.108627	0.359588	0.683823	
-0.129243	0.372125	0.588708	
-0.116472	0.275537	0.591143	
-0.21408	0.346313	0.633756	
0.234106	0.240455	0.5	
0.254144	0.321855	0.5	
0.172599	0.285692	0.5	
0.253284	0.276753	0.625058	
-0.359322	0.070805	0.5	
-0.364126	0.107425	0.596298	
-0.422892	0.0550581	0.5	
-0.416699	0.00631676	0.584325	
0.39071	-0.0800656	0.604798	
0.272064	-0.0681442	0.59838	
0.334766	0.0144004	0.60495	
0.353795	-0.0222826	0.558177	
0.346509	0.0237889	1	
0.262288	-0.0152307	0.900549	
0.276476	0.0535537	1	
0.258755	0.0906035	0.896517	
0.0892306	-0.377437	0.5	
0.0305468	-0.374084	0.5	
0.0584891	-0.437042	0.5	
0.0545279	-0.357398	0.586263	
-0.16685	0.0883447	1	
-0.230911	0.053351	0.887346	
-0.166409	0.150419	0.871568	
-0.124832	0.0586014	0.906551	
0.231243	0.24169	1	
0.177848	0.156277	0.877262	
0.158056	0.171884	1	
0.169783	0.254878	0.90212	
-0.315029	-0.388274	0.579193	
-0.238488	-0.439458	0.575692	
-0.254144	-0.321855	0.5	
-0.2387	-0.321065	0.626825	
-0.0638367	-0.295761	1	
-0.127689	-0.241885	0.89237	
-0.0685138	-0.341556	0.85476	
-0.156768	-0.340879	0.911535	
-0.0969866	-0.088866	0.682079	
-0.0717603	-0.216541	0.630077	
-0.0312742	-0.12116	0.604392	
-0.026527	-0.165458	0.694773	
0.146853	-0.477948	0.584008	
0.0814864	-0.493315	0.652319	
0.174678	-0.468495	0.682891	
0.159651	-0.364489	0.598434	
0.350295	0.0306837	0.84806	
0.370295	0.150924	0.909678	
0.296877	0.173007	0.841873	
0.258755	0.0906035	0.896517	
-0.194667	-0.460548	0.76567	
-0.258165	-0.428195	0.798245	
-0.194168	-0.311781	0.817902	
-0.191043	-0.351595	0.71168	
-0.0814864	0.493315	0.652319	
-0.0218361	0.398667	0.744009	
-0.108627	0.359588	0.683823	
0.00685904	0.408881	0.656439	
-0.0949641	0.22959	0.742345	
-0.195673	0.329094	0.742315	
-0.17825	0.257762	0.661466	
-0.189541	0.216222	0.763213	
0.0545279	-0.357398	0.586263	
0.0848114	-0.374635	0.706588	
-0.0144004	-0.334766	0.641321	
0.0170927	-0.420241	0.640557	
0.316847	-0.386792	0.801384	
0.317233	-0.386476	0.909527	
0.380873	-0.323938	0.847739	
0.253273	-0.249599	0.843605	
0.380873	-0.323938	0.847739	
0.428195	-0.258165	0.798245	
0.376757	-0.328716	0.753532	
0.309086	-0.228865	0.737481	
-0.198991	0.0214385	0.631757	
-0.104309	-0.0175295	0.603853	
-0.0788669	0.0768903	0.663116	
-0.14275	-0.0105591	0.697053	
-0.495101	0.0698189	0.572379	
-0.416699	0.00631676	0.584325	
-0.364126	0.107425	0.596298	
-0.401952	0.0654763	0.671747	
-0.0983601	0.156434	1	
-0.119993	0.246691	1	
-0.0640422	0.245911	0.888875	
-0.172627	0.234526	0.919455	
-0.0353553	0.335355	0.5	
0	0.35	0.5	
0.0222826	0.353795	0.558177	
-0.00291132	0.295217	0.558405	
-0.0338793	0.0189553	0.867322	
-0.0435837	0.153197	0.818477	
0.0378724	0.109427	0.891855	
-0.0173799	0.0733829	0.771387	
0.190324	0.0393932	0.833873	
0.262288	-0.0152307	0.900549	
0.176835	-0.0957025	0.888175	
0.255406	-0.0213367	0.790897	
-0.168688	-0.281701	1	
-0.261345	-0.230036	1	
-0.186407	-0.169451	1	
-0.127689	-0.241885	0.89237	
-0.0218405	-0.241762	0.749515	
0.0850581	-0.218776	0.727528	
0.0420743	-0.281954	0.683615	
-0.026527	-0.165458	0.694773	
-0.493437	-0.0807477	0.845776	
-0.492649	-0.0854243	0.748597	
-0.5	0	0.8	
-0.385513	-0.0181868	0.734694	
0.202324	0.378521	1	
0.146853	0.477948	0.915992	
0.228991	0.444481	0.908099	
0.138051	0.361812	0.873206	
-0.328716	-0.376757	0.753532	
-0.323938	-0.380873	0.847739	
-0.258165	-0.428195	0.798245	
-0.194168	-0.311781	0.817902	
0.247057	0.434698	0.750499	
0.106564	0.358516	0.753234	
0.168734	0.470668	0.701781	
0.198642	0.311382	0.714561	
0.0942175	0.125111	0.789315	
0.190324	0.0393932	0.833873	
0.177848	0.156277	0.877262	
0.130088	0.0681493	0.912467	
-0.163252	0.278732	0.833643	
-0.195673	0.329094	0.742315	
-0.0949641	0.22959	0.742345	
-0.189541	0.216222	0.763213	
-0.317206	0.386498	0.700322	
-0.270598	0.271491	0.600584	
-0.3168	0.386831	0.604097	
-0.21408	0.346313	0.633756	
-0.307291	0.177008	0.64695	
-0.27609	0.255234	0.739837	
-0.357252	0.187897	0.739185	
-0.225046	0.183718	0.683937	
0.153328	0.47591	0.59237	
0.168734	0.470668	0.701781	
0.0827402	0.389706	0.606734	
0.19252	0.354505	0.600343	
-0.237047	0.0201392	1	
-0.230911	0.053351	0.887346	
-0.142648	-0.00714059	1	
-0.243062	-0.0438203	0.910197	
-0.194168	-0.311781	0.817902	
-0.230163	-0.183396	0.833896	
-0.127689	-0.241885	0.89237	
-0.10367	-0.266109	0.799505	
0.25658	0.429146	0.83124	
0.223611	0.287945	0.822031	
0.317206	0.386498	0.799678	
0.223912	0.340615	0.913264	
-0.0685138	-0.341556	0.85476	
-0.127689	-0.241885	0.89237	
0.0124212	-0.23804	0.873103	
-0.10367	-0.266109	0.799505	
-0.380873	0.323938	0.847739	
-0.436762	0.243391	0.903062	
-0.428195	0.258165	0.798245	
-0.291878	0.202294	0.852394	
-0.332366	0.0316806	0.831947	
-0.369146	0.1248	0.88989	
-0.230911	0.053351	0.887346	
-0.290365	0.115706	0.809779	
0.216667	0.05	0.5	
0.281543	0.0750159	0.578871	
0.190245	0.0667888	0.625379	
0.21299	-0.0111081	0.575703	
-0.428195	0.258165	0.798245	
-0.469721	0.171353	0.838334	
-0.460548	0.194667	0.76567	
-0.357252	0.187897	0.739185	
-0.385513	-0.0181868	0.734694	
-0.266891	-0.0501392	0.812706	
-0.349811	-0.108212	0.856986	
-0.369358	-0.124566	0.75116	
-0.108627	0.359588	0.683823	
-0.0144004	0.334766	0.60495	
-0.0376575	0.408608	0.57511	
0.00685904	0.408881	0.656439	
0.0248177	-0.313374	1	
0.00183684	-0.222331	1	
0.0943468	-0.245334	1	
0.0124212	-0.23804	0.873103	
0.3168	-0.386831	0.604097	
0.25658	-0.429146	0.66876	
0.317206	-0.386498	0.700322	
0.240952	-0.280119	0.617373	
0.25658	-0.429146	0.66876	
0.3168	-0.386831	0.604097	
0.228991	-0.444481	0.591901	
0.159651	-0.364489	0.598434	
-0.0924024	-0.340318	0.735056	
-0.194168	-0.311781	0.817902	
-0.0685138	-0.341556	0.85476	
-0.10367	-0.266109	0.799505	
-0.0550581	-0.422892	0.5	
-0.0217786	-0.376393	0.5	
-0.070805	-0.359322	0.5	
-0.0656658	-0.406088	0.605213	
-0.118932	0.39861	1	
-0.201912	0.369986	1	
-0.235698	0.440961	0.931431	
-0.124209	0.359991	0.89696	
-0.22133	-0.175555	0.5	
-0.267754	-0.225502	0.603013	
-0.234106	-0.240455	0.5	
-0.172932	-0.247597	0.585974	
-0.171353	-0.469721	0.838334	
-0.258165	-0.428195	0.798245	
-0.243391	-0.436762	0.903062	
-0.194168	-0.311781	0.817902	
0.321855	-0.254144	0.5	
0.265223	-0.319213	0.5	
0.388274	-0.315029	0.579193	
0.329947	-0.238467	0.603405	
0.175	-0.0611989	0.634692	
0.0989017	0.0145443	0.654463	
0.190245	0.0667888	0.625379	
0.21299	-0.0111081	0.575703	
-0.334766	0.0144004	0.629791	
-0.198991	0.0214385	0.631757	
-0.268836	0.0809708	0.594884	
-0.249851	0.075261	0.682349	
-0.0623911	0.203393	0.630433	
-0.0119975	0.149532	0.712677	
-0.0788669	0.0768903	0.663116	
-0.00961934	0.119858	0.599022	
-0.493437	-0.0807477	0.845776	
-0.495012	-0.0704482	0.928155	
-0.47591	-0.153328	0.90763	
-0.349811	-0.108212	0.856986	
-0.258165	-0.428195	0.798245	
-0.171353	-0.469721	0.838334	
-0.194667	-0.460548	0.76567	
-0.194168	-0.311781	0.817902	
0.0704482	0.495012	0.571845	
0.0550581	0.422892	0.5	
0.0827402	0.389706	0.606734	
-0.0376575	0.408608	0.57511	
-0.0983601	0.156434	1	
-0.166409	0.150419	0.871568	
-0.18644	0.1823	1	
-0.172627	0.234526	0.919455	
0.282439	-0.104966	0.83613	
0.251569	-0.0890044	0.696136	
0.174523	-0.0723952	0.765964	
0.255406	-0.0213367	0.790897	
-0.332433	-0.136577	0.5	
-0.357398	-0.0545279	0.581884	
-0.377437	-0.0892306	0.5	
-0.370241	-0.156649	0.594441	
0.388274	0.315029	0.920807	
0.439458	0.238488	0.924308	
0.328092	0.270243	1	
0.296275	0.264777	0.897601	
-0.0584891	0.437042	0.5	
-0.136955	0.411745	0.5	
-0.0892306	0.377437	0.5	
-0.0376575	0.408608	0.57511	
-0.00425413	0.131001	1	
0.0378724	0.109427	0.891855	
0.0209546	0.0362755	1	
-0.0565371	0.130102	0.914035	
-0.434698	-0.247057	0.749501	
-0.313218	-0.202403	0.699795	
-0.369358	-0.124566	0.75116	
-0.307536	-0.237004	0.795298	
-0.376393	0.0217786	0.5	
-0.374084	-0.0305468	0.5	
-0.334766	0.0144004	0.563203	
-0.416699	0.00631676	0.584325	
0.209083	0.110158	0.5	
0.257817	0.0951035	0.5	
0.268365	0.14329	0.5	
0.257762	0.17825	0.572115	
0.262288	-0.0152307	0.900549	
0.258755	0.0906035	0.896517	
0.350295	0.0306837	0.84806	
0.255406	-0.0213367	0.790897	
-0.210048	0.166493	0.5	
-0.174965	0.104344	0.5	
-0.139117	0.156778	0.5	
-0.179918	0.142525	0.617274	
-0.152694	-0.476114	0.59754	
-0.217356	-0.450285	0.644698	
-0.168043	-0.470916	0.699874	
-0.140302	-0.350193	0.62321	
-0.25658	0.429146	0.66876	
-0.174678	0.468495	0.682891	
-0.195673	0.329094	0.742315	
-0.21408	0.346313	0.633756	
0.38867	0.101377	0.601055	
0.393693	-0.0146265	0.683142	
0.334766	0.0144004	0.60495	
0.417761	0.0130281	0.59815	
0.0951035	-0.257817	0.5	
0.110158	-0.209083	0.5	
0.05	-0.216667	0.5	
0.116472	-0.275537	0.565587	
0.133074	0.264097	1	
0.0651412	0.200096	1	
0.0295128	0.209804	0.905326	
0.169783	0.254878	0.90212	
-0.190903	-0.246146	0.678266	
-0.172932	-0.247597	0.585974	
-0.0717603	-0.216541	0.630077	
-0.0872901	-0.296751	0.662404	
0.125573	-0.41396	1	
0.0704482	-0.495012	0.928155	
0.0404524	-0.41072	1	
0.0415638	-0.384519	0.881679	
-0.108627	0.359588	0.683823	
-0.195673	0.329094	0.742315	
-0.174678	0.468495	0.682891	
-0.21408	0.346313	0.633756	
-0.142648	-0.00714059	1	
-0.170347	-0.112486	0.899727	
-0.211369	-0.0761151	1	
-0.243062	-0.0438203	0.910197	
-0.140302	-0.350193	0.62321	
-0.172932	-0.247597	0.585974	
-0.190903	-0.246146	0.678266	
-0.0872901	-0.296751	0.662404	
0.0461078	-0.0584269	1	
0.0209546	0.0362755	1	
0.115537	0.0107471	1	
0.086984	-0.0195503	0.879555	
0.428195	-0.258165	0.798245	
0.460548	-0.194667	0.76567	
0.4284	-0.257824	0.704976	
0.309086	-0.228865	0.737481	
-0.495101	0.0698189	0.572379	
-0.422892	0.0550581	0.5	
-0.364126	0.107425	0.596298	
-0.416699	0.00631676	0.584325	
-0.168734	0.470668	0.798219	
-0.0807477	0.493437	0.845776	
-0.124209	0.359991	0.89696	
-0.115526	0.359753	0.796074	
0.190324	0.0393932	0.833873	
0.258755	0.0906035	0.896517	
0.262288	-0.0152307	0.900549	
0.255406	-0.0213367	0.790897	
0.153328	-0.47591	0.90763	
0.242822	-0.437078	0.847009	
0.168734	-0.470668	0.798219	
0.205413	-0.339549	0.892186	
-0.0951035	0.257817	0.5	
-0.101011	0.298593	0.5	
-0.14329	0.268365	0.5	
-0.116472	0.275537	0.591143	
-0.434698	-0.247057	0.749501	
-0.429146	-0.25658	0.66876	
-0.468495	-0.174678	0.682891	
-0.313218	-0.202403	0.699795	
-0.181479	0.221098	0.584819	
-0.225046	0.183718	0.683937	
-0.270598	0.271491	0.600584	
-0.247844	0.169866	0.575357	
-0.0734441	0.0616893	1	
-0.142648	-0.00714059	1	
-0.124832	0.0586014	0.906551	
-0.0858575	-0.0573451	0.909067	
0.193656	-0.194449	0.720197	
0.251569	-0.0890044	0.696136	
0.174523	-0.0723952	0.765964	
0.200293	-0.156985	0.812694	
-0.139117	0.156778	0.5	
-0.210048	0.166493	0.5	
-0.179918	0.142525	0.617274	
-0.181479	0.221098	0.584819	
-0.174678	0.468495	0.682891	
-0.168734	0.470668	0.798219	
-0.247057	0.434698	0.749501	
-0.195673	0.329094	0.742315	
-0.216667	0.05	0.5	
-0.133333	0.05	0.5	
-0.174965	0.104344	0.5	
-0.124864	0.0783821	0.585361	
-0.31384	0.0131388	0.5	
-0.35	0	0.5	
-0.307123	-0.0146863	0.5	
-0.334766	0.0144004	0.563203	
-0.0969866	-0.088866	0.682079	
-0.00100849	-0.0205955	0.627967	
-0.104309	-0.0175295	0.603853	
-0.0557779	-0.00339833	0.72595	
0.172599	0.285692	0.5	
0.253284	0.276753	0.625058	
0.254144	0.321855	0.5	
0.19252	0.354505	0.600343	
-0.140302	-0.350193	0.62321	
-0.190903	-0.246146	0.678266	
-0.191043	-0.351595	0.71168	
-0.0872901	-0.296751	0.662404	
-0.386498	-0.317206	0.700322	
-0.313218	-0.202403	0.699795	
-0.434698	-0.247057	0.749501	
-0.307536	-0.237004	0.795298	
0.0854243	0.492649	0.751403	
0.0807477	0.493437	0.654224	
0.168734	0.470668	0.701781	
0.106564	0.358516	0.753234	
0.0558284	-0.130931	0.665335	
-0.0312742	-0.12116	0.604392	
-0.00100849	-0.0205955	0.627967	
0.0851262	-0.069993	0.591553	
0.133074	0.264097	1	
0.138051	0.361812	0.873206	
0.189613	0.313662	1	
0.169783	0.254878	0.90212	
-0.228991	0.444481	0.591901	
-0.3168	0.386831	0.604097	
-0.202831	0.368925	0.5	
-0.21408	0.346313	0.633756	
-0.05	-0.3	0.5	
-0.0168063	-0.279144	0.5	
-0.05	-0.216667	0.5	
-0.0912866	-0.293514	0.577692	
-0.242822	0.437078	0.847009	
-0.195673	0.329094	0.742315	
-0.168734	0.470668	0.798219	
-0.115526	0.359753	0.796074	
-0.164797	-0.0240318	0.828417	
-0.220651	0.0125647	0.740031	
-0.113452	0.0682357	0.775647	
-0.14275	-0.0105591	0.697053	
-0.255435	0.105455	0.5	
-0.327662	0.113303	0.5	
-0.268836	0.0809708	0.594884	
-0.247844	0.169866	0.575357	
-0.273315	0.334955	1	
-0.318983	0.261743	1	
-0.386505	0.317197	0.931175	
-0.25253	0.295971	0.897838	
0.216667	0.05	0.5	
0.133333	0.05	0.5	
0.175	-0.00200732	0.5	
0.21299	-0.0111081	0.575703	
-0.0623911	0.203393	0.630433	
-0.0119975	0.149532	0.712677	
-0.0949641	0.22959	0.742345	
-0.132843	0.148259	0.702998	
-0.493437	-0.0807477	0.845776	
-0.349811	-0.108212	0.856986	
-0.470668	-0.168734	0.798219	
-0.369358	-0.124566	0.75116	
-0.0734441	0.0616893	1	
-0.048473	-0.0328568	1	
-0.142648	-0.00714059	1	
-0.0858575	-0.0573451	0.909067	
-0.317206	0.386498	0.700322	
-0.316847	0.386792	0.801384	
-0.376757	0.328716	0.753532	
-0.27609	0.255234	0.739837	
0.3168	0.386831	0.895903	
0.223611	0.287945	0.822031	
0.317206	0.386498	0.799678	
0.296275	0.264777	0.897601	
0	-0.5	0.6	
0.00233139	-0.422954	0.5	
-0.0698189	-0.495101	0.572379	
-0.0656658	-0.406088	0.605213	
-0.3	0.05	0.5	
-0.334766	0.0144004	0.563203	
-0.279144	0.0168063	0.5	
-0.268836	0.0809708	0.594884	
-0.0807477	0.493437	0.845776	
-0.0854243	0.492649	0.748597	
-0.0218361	0.398667	0.744009	
-0.115526	0.359753	0.796074	
0.0401436	0.291204	1	
-0.0295403	0.225144	1	
-0.0640422	0.245911	0.888875	
0.0295128	0.209804	0.905326	
-0.437078	-0.242822	0.847009	
-0.434698	-0.247057	0.749501	
-0.470668	-0.168734	0.798219	
-0.369358	-0.124566	0.75116	
-0.00100849	-0.0205955	0.627967	
-0.0312742	-0.12116	0.604392	
-0.0969866	-0.088866	0.682079	
-0.104309	-0.0175295	0.603853	
0.0401436	0.291204	1	
-0.0295403	0.225144	1	
-0.0555676	0.325574	1	
-0.0640422	0.245911	0.888875	
-0.0338793	0.0189553	0.867322	
0.0378724	0.109427	0.891855	
-0.0435837	0.153197	0.818477	
-0.0565371	0.130102	0.914035	
-0.142648	-0.00714059	1	
-0.230911	0.053351	0.887346	
-0.237047	0.0201392	1	
-0.124832	0.0586014	0.906551	
0.115537	0.0107471	1	
0.14072	-0.0839746	1	
0.0461078	-0.0584269	1	
0.086984	-0.0195503	0.879555	
0.184962	0.0799289	1	
0.177848	0.156277	0.877262	
0.247868	0.146306	1	
0.258755	0.0906035	0.896517	
0.114055	0.374109	1	
0.146853	0.477948	0.915992	
0.202324	0.378521	1	
0.138051	0.361812	0.873206	
-0.140302	-0.350193	0.62321	
-0.0656658	-0.406088	0.605213	
-0.0912866	-0.293514	0.577692	
-0.0872901	-0.296751	0.662404	
-0.386792	-0.316847	0.801384	
-0.318327	-0.225041	0.895751	
-0.386476	-0.317233	0.909527	
-0.258725	-0.308783	0.897858	
-0.00100849	-0.0205955	0.627967	
0.0989017	0.0145443	0.654463	
0.0877437	0.0690174	0.581458	
0.0134301	0.0589223	0.678402	
0.0232632	-0.246364	0.605213	
0.116472	-0.275537	0.565587	
0.05	-0.216667	0.5	
0.0797732	-0.172712	0.582888	
0.210048	-0.166493	0.5	
0.174965	-0.104344	0.5	
0.139117	-0.156778	0.5	
0.171958	-0.1808	0.606406	
-0.0144004	0.334766	0.60495	
-0.129243	0.372125	0.588708	
-0.108627	0.359588	0.683823	
-0.0376575	0.408608	0.57511	
0.403225	-0.114629	0.5	
0.359322	-0.070805	0.5	
0.327662	-0.113303	0.5	
0.39071	-0.0800656	0.604798	
0.05	-0.133333	0.5	
-0.0312742	-0.12116	0.604392	
0.00200732	-0.17494	0.5	
0.0797732	-0.172712	0.582888	
0.282439	-0.104966	0.83613	
0.262288	-0.0152307	0.900549	
0.176835	-0.0957025	0.888175	
0.243698	-0.168497	0.902816	
-0.0338793	0.0189553	0.867322	
-0.113452	0.0682357	0.775647	
-0.0173799	0.0733829	0.771387	
-0.0730504	-0.0481965	0.809858	
-0.3168	0.386831	0.604097	
-0.317206	0.386498	0.700322	
-0.374193	0.331632	0.665357	
-0.270598	0.271491	0.600584	
0.116472	-0.275537	0.636806	
0.159651	-0.364489	0.598434	
0.0545279	-0.357398	0.586263	
0.116472	-0.275537	0.565587	
0.409478	-0.032947	1	
0.5	0	0.9	
0.495293	-0.0684459	0.931403	
0.382055	-0.0743662	0.891735	
-0.434698	-0.247057	0.749501	
-0.313218	-0.202403	0.699795	
-0.468495	-0.174678	0.682891	
-0.369358	-0.124566	0.75116	
0.0722049	-0.334139	0.5	
0.0353553	-0.335355	0.5	
0.0305468	-0.374084	0.5	
0.0545279	-0.357398	0.586263	
-0.0557779	-0.00339833	0.72595	
-0.0173799	0.0733829	0.771387	
-0.113452	0.0682357	0.775647	
-0.0730504	-0.0481965	0.809858	
-0.0698189	-0.495101	0.572379	
0.00233139	-0.422954	0.5	
-0.0550581	-0.422892	0.5	
-0.0656658	-0.406088	0.605213	
0.470916	0.168043	0.800126	
0.490343	0.0977967	0.741226	
0.493012	0.0833019	0.844789	
0.363042	0.112521	0.74989	
-0.136955	0.411745	0.5	
-0.129243	0.372125	0.588708	
-0.0892306	0.377437	0.5	
-0.0376575	0.408608	0.57511	
-0.327614	0.0876466	0.725276	
-0.364126	0.107425	0.596298	
-0.334766	0.0144004	0.629791	
-0.401952	0.0654763	0.671747	
0.414183	0.131147	1	
0.476114	0.152694	0.90246	
0.495101	0.0698189	0.927621	
0.370295	0.150924	0.909678	
0.0704482	0.495012	0.571845	
0	0.5	0.6	
-0.00233139	0.422954	0.5	
-0.0376575	0.408608	0.57511	
-0.140302	-0.350193	0.62321	
-0.2387	-0.321065	0.626825	
-0.190903	-0.246146	0.678266	
-0.172932	-0.247597	0.585974	
-0.493315	-0.0814864	0.652319	
-0.5	0	0.6	
-0.5	0	0.7	
-0.416699	0.00631676	0.584325	
-0.17825	0.257762	0.661466	
-0.270598	0.271491	0.600584	
-0.21408	0.346313	0.633756	
-0.181479	0.221098	0.584819	
-0.238488	-0.439458	0.575692	
-0.217356	-0.450285	0.644698	
-0.152694	-0.476114	0.59754	
-0.140302	-0.350193	0.62321	
-0.258165	-0.428195	0.798245	
-0.243391	-0.436762	0.903062	
-0.194168	-0.311781	0.817902	
-0.258725	-0.308783	0.897858	
0.282439	-0.104966	0.83613	
0.382055	-0.0743662	0.891735	
0.350295	0.0306837	0.84806	
0.262288	-0.0152307	0.900549	
0.174678	0.468495	0.817109	
0.0814864	0.493315	0.847681	
0.0854243	0.492649	0.751403	
0.106564	0.358516	0.753234	
0.00200732	-0.17494	0.5	
0.0120439	-0.258333	0.5	
0.05	-0.216667	0.5	
0.0232632	-0.246364	0.605213	
-0.386498	-0.317206	0.700322	
-0.276638	-0.296057	0.718432	
-0.313218	-0.202403	0.699795	
-0.307536	-0.237004	0.795298	
-0.275537	-0.116472	0.607416	
-0.357398	-0.0545279	0.581884	
-0.370241	-0.156649	0.594441	
-0.396738	-0.0922406	0.663051	
-0.164797	-0.0240318	0.828417	
-0.0338793	0.0189553	0.867322	
-0.124832	0.0586014	0.906551	
-0.0858575	-0.0573451	0.909067	
0.253284	0.276753	0.625058	
0.234106	0.240455	0.5	
0.327747	0.217533	0.591075	
0.257762	0.17825	0.572115	
0.05	-0.216667	0.5	
0.0120439	-0.258333	0.5	
0.05	-0.3	0.5	
0.0232632	-0.246364	0.605213	
-0.242822	0.437078	0.847009	
-0.316847	0.386792	0.801384	
-0.247057	0.434698	0.749501	
-0.195673	0.329094	0.742315	
0.0458333	0.00416667	0.749305	
-0.0557779	-0.00339833	0.72595	
-0.00860123	-0.101114	0.760951	
-0.0730504	-0.0481965	0.809858	
-0.0734441	0.0616893	1	
-0.0338793	0.0189553	0.867322	
-0.124832	0.0586014	0.906551	
-0.0565371	0.130102	0.914035	
-0.257824	-0.4284	0.704976	
-0.217356	-0.450285	0.644698	
-0.277785	-0.415735	0.634138	
-0.191043	-0.351595	0.71168	
0.00200732	-0.17494	0.5	
0.0232632	-0.246364	0.605213	
0.05	-0.216667	0.5	
0.0797732	-0.172712	0.582888	
-0.243391	-0.436762	0.903062	
-0.156768	-0.340879	0.911535	
-0.194168	-0.311781	0.817902	
-0.258725	-0.308783	0.897858	
-0.168734	0.470668	0.798219	
-0.242822	0.437078	0.847009	
-0.247057	0.434698	0.749501	
-0.195673	0.329094	0.742315	
-0.0699367	-0.141385	0.854754	
-0.170347	-0.112486	0.899727	
-0.0858575	-0.0573451	0.909067	
-0.0730504	-0.0481965	0.809858	
-0.00425413	0.131001	1	
0.0209546	0.0362755	1	
-0.0734441	0.0616893	1	
-0.0565371	0.130102	0.914035	
-0.323938	-0.380873	0.847739	
-0.307536	-0.237004	0.795298	
-0.386792	-0.316847	0.801384	
-0.258725	-0.308783	0.897858	
0.335355	0.0353553	0.5	
0.353795	-0.0222826	0.558177	
0.35	0	0.5	
0.357398	0.0545279	0.558521	
0.174523	-0.0723952	0.765964	
0.176835	-0.0957025	0.888175	
0.282439	-0.104966	0.83613	
0.255406	-0.0213367	0.790897	
-0.0640422	0.245911	0.888875	
-0.124209	0.359991	0.89696	
-0.163252	0.278732	0.833643	
-0.172627	0.234526	0.919455	
-0.183279	-0.368447	0.5	
-0.114629	-0.403225	0.5	
-0.113303	-0.327662	0.5	
-0.140302	-0.350193	0.62321	
-0.108627	0.359588	0.683823	
-0.0218361	0.398667	0.744009	
-0.0854243	0.492649	0.748597	
-0.115526	0.359753	0.796074	
-0.0312742	-0.12116	0.604392	
0.0851262	-0.069993	0.591553	
0.0558284	-0.130931	0.665335	
0.0797732	-0.172712	0.582888	
-0.17825	0.257762	0.661466	
-0.179918	0.142525	0.617274	
-0.132843	0.148259	0.702998	
-0.225046	0.183718	0.683937	
-0.254144	-0.321855	0.5	
-0.172599	-0.285692	0.5	
-0.234106	-0.240455	0.5	
-0.172932	-0.247597	0.585974	
-0.19595	0.28972	0.5	
-0.270598	0.271491	0.600584	
-0.240455	0.234106	0.5	
-0.181479	0.221098	0.584819	
0.317206	-0.386498	0.700322	
0.374193	-0.331632	0.665357	
0.3168	-0.386831	0.604097	
0.240952	-0.280119	0.617373	
-0.281543	-0.0750159	0.710149	
-0.266891	-0.0501392	0.812706	
-0.385513	-0.0181868	0.734694	
-0.369358	-0.124566	0.75116	
0.070805	0.359322	0.5	
0.113303	0.327662	0.5	
0.114629	0.403225	0.5	
0.0827402	0.389706	0.606734	
0.158056	0.171884	1	
0.247868	0.146306	1	
0.184962	0.0799289	1	
0.177848	0.156277	0.877262	
0.242822	0.437078	0.652991	
0.317233	0.386476	0.590473	
0.316847	0.386792	0.698616	
0.19252	0.354505	0.600343	
0.380207	-0.19708	1	
0.386505	-0.317197	0.931175	
0.314857	-0.257449	1	
0.344185	-0.180158	0.894872	
0.116472	-0.275537	0.636806	
0.171958	-0.1808	0.606406	
0.116472	-0.275537	0.565587	
0.0797732	-0.172712	0.582888	
0.112799	-0.33356	1	
0.125573	-0.41396	1	
0.0404524	-0.41072	1	
0.0415638	-0.384519	0.881679	
-0.3168	0.386831	0.604097	
-0.270598	0.271491	0.600584	
-0.265223	0.319213	0.5	
-0.21408	0.346313	0.633756	
0.380207	-0.19708	1	
0.436762	-0.243391	0.903062	
0.386505	-0.317197	0.931175	
0.344185	-0.180158	0.894872	
-0.14329	0.268365	0.5	
-0.110158	0.209083	0.5	
-0.0951035	0.257817	0.5	
-0.116472	0.275537	0.591143	
0.216667	0.05	0.5	
0.257817	0.0951035	0.5	
0.209083	0.110158	0.5	
0.281543	0.0750159	0.578871	
0.174678	-0.468495	0.682891	
0.247057	-0.434698	0.749501	
0.25658	-0.429146	0.66876	
0.192404	-0.317473	0.724143	
-0.164797	-0.0240318	0.828417	
-0.0858575	-0.0573451	0.909067	
-0.170347	-0.112486	0.899727	
-0.0730504	-0.0481965	0.809858	
-0.140302	-0.350193	0.62321	
-0.0912866	-0.293514	0.577692	
-0.172932	-0.247597	0.585974	
-0.0872901	-0.296751	0.662404	
-0.194168	-0.311781	0.817902	
-0.230163	-0.183396	0.833896	
-0.307536	-0.237004	0.795298	
-0.258725	-0.308783	0.897858	
-0.273315	0.334955	1	
-0.386505	0.317197	0.931175	
-0.317233	0.386476	0.909527	
-0.25253	0.295971	0.897838	
-0.0435837	0.153197	0.818477	
-0.0119975	0.149532	0.712677	
-0.0949641	0.22959	0.742345	
-0.00874456	0.250849	0.799219	
0.5	0	0.7	
0.490343	0.0977967	0.741226	
0.493389	0.0810399	0.64715	
0.393693	-0.0146265	0.683142	
-0.174678	0.468495	0.682891	
-0.0854243	0.492649	0.748597	
-0.168734	0.470668	0.798219	
-0.115526	0.359753	0.796074	
-0.0833019	-0.493012	0.655211	
-0.152694	-0.476114	0.59754	
-0.168043	-0.470916	0.699874	
-0.0656658	-0.406088	0.605213	
-0.258333	-0.0120439	0.5	
-0.216667	-0.05	0.5	
-0.17494	-0.00200732	0.5	
-0.259968	-0.0294564	0.588658	
-0.0584891	0.437042	0.5	
-0.0728232	0.494668	0.573541	
-0.136955	0.411745	0.5	
-0.0376575	0.408608	0.57511	
0.282439	-0.104966	0.83613	
0.262288	-0.0152307	0.900549	
0.350295	0.0306837	0.84806	
0.255406	-0.0213367	0.790897	
-0.209083	-0.110158	0.5	
-0.22133	-0.175555	0.5	
-0.156778	-0.139117	0.5	
-0.165932	-0.151801	0.614298	
0	0.5	0.9	
0.0420691	0.427134	1	
-0.0372406	0.417791	1	
0.045063	0.398304	0.900567	
-0.237047	0.0201392	1	
-0.302044	-0.0506462	1	
-0.337562	0.0547633	1	
-0.243062	-0.0438203	0.910197	
-0.478555	0.144862	0.921652	
-0.389036	0.207425	1	
-0.404541	0.126945	1	
-0.369146	0.1248	0.88989	
0.295217	0.00291132	0.703732	
0.251569	-0.0890044	0.696136	
0.366266	-0.0917065	0.74426	
0.255406	-0.0213367	0.790897	
-0.17825	0.257762	0.661466	
-0.270598	0.271491	0.600584	
-0.181479	0.221098	0.584819	
-0.225046	0.183718	0.683937	
0.28972	0.19595	0.5	
0.327747	0.217533	0.591075	
0.234106	0.240455	0.5	
0.257762	0.17825	0.572115	
-0.307291	0.177008	0.64695	
-0.270598	0.271491	0.600584	
-0.225046	0.183718	0.683937	
-0.247844	0.169866	0.575357	
0.133074	0.264097	1	
0.158056	0.171884	1	
0.0651412	0.200096	1	
0.169783	0.254878	0.90212	
-0.0372406	0.417791	1	
-0.0555676	0.325574	1	
-0.118932	0.39861	1	
-0.124209	0.359991	0.89696	
0.0209546	0.0362755	1	
0.0378724	0.109427	0.891855	
0.0903521	0.10545	1	
0.130088	0.0681493	0.912467	
0.3168	0.386831	0.895903	
0.317206	0.386498	0.799678	
0.374193	0.331632	0.834643	
0.296275	0.264777	0.897601	
0.209083	0.110158	0.5	
0.22133	0.175555	0.5	
0.185114	0.178816	0.60757	
0.257762	0.17825	0.572115	
-0.0144004	-0.334766	0.641321	
-0.0144004	-0.334766	0.569106	
0.0545279	-0.357398	0.586263	
0.0170927	-0.420241	0.640557	
-0.174965	0.104344	0.5	
-0.139117	0.156778	0.5	
-0.179918	0.142525	0.617274	
-0.124864	0.0783821	0.585361	
-0.275537	-0.116472	0.607416	
-0.267754	-0.225502	0.603013	
-0.165932	-0.151801	0.614298	
-0.232732	-0.157842	0.680234	
-0.242822	0.437078	0.847009	
-0.168734	0.470668	0.798219	
-0.124209	0.359991	0.89696	
-0.115526	0.359753	0.796074	
-0.174678	0.468495	0.682891	
-0.0814864	0.493315	0.652319	
-0.108627	0.359588	0.683823	
-0.129243	0.372125	0.588708	
-0.317206	0.386498	0.700322	
-0.376757	0.328716	0.753532	
-0.374193	0.331632	0.665357	
-0.27609	0.255234	0.739837	
-0.374084	-0.0305468	0.5	
-0.357398	-0.0545279	0.581884	
-0.335355	-0.0353553	0.5	
-0.334766	0.0144004	0.563203	
-0.25658	0.429146	0.66876	
-0.195673	0.329094	0.742315	
-0.317206	0.386498	0.700322	
-0.21408	0.346313	0.633756	
-0.164797	-0.0240318	0.828417	
-0.0338793	0.0189553	0.867322	
-0.0858575	-0.0573451	0.909067	
-0.0730504	-0.0481965	0.809858	
0.0854243	0.492649	0.751403	
-0.0218361	0.398667	0.744009	
0	0.5	0.7	
0.00685904	0.408881	0.656439	
0.319213	0.265223	0.5	
0.253284	0.276753	0.625058	
0.234106	0.240455	0.5	
0.327747	0.217533	0.591075	
-0.0814864	0.493315	0.652319	
-0.129243	0.372125	0.588708	
-0.146853	0.477948	0.584008	
-0.0376575	0.408608	0.57511	
-0.275537	-0.116472	0.607416	
-0.259968	-0.0294564	0.588658	
-0.281543	-0.0750159	0.710149	
-0.203542	-0.0724399	0.653763	
-0.104309	-0.0175295	0.603853	
-0.0557779	-0.00339833	0.72595	
-0.0788669	0.0768903	0.663116	
-0.14275	-0.0105591	0.697053	
-0.323938	-0.380873	0.847739	
-0.328716	-0.376757	0.753532	
-0.386792	-0.316847	0.801384	
-0.307536	-0.237004	0.795298	
-0.495293	0.0684459	0.931403	
-0.404541	0.126945	1	
-0.426463	0.0441363	1	
-0.404225	0.0311984	0.902579	
-0.0854243	0.492649	0.748597	
-0.108627	0.359588	0.683823	
-0.0814864	0.493315	0.652319	
-0.0218361	0.398667	0.744009	
-0.0717603	-0.216541	0.630077	
-0.172932	-0.247597	0.585974	
-0.0912866	-0.293514	0.577692	
-0.0872901	-0.296751	0.662404	
-0.22133	-0.175555	0.5	
-0.234106	-0.240455	0.5	
-0.166493	-0.210048	0.5	
-0.172932	-0.247597	0.585974	
0.202324	0.378521	1	
0.138051	0.361812	0.873206	
0.228991	0.444481	0.908099	
0.223912	0.340615	0.913264	
0.35	0	0.5	
0.353795	-0.0222826	0.558177	
0.335355	0.0353553	0.5	
0.295217	0.00291132	0.558405	
-0.05	-0.3	0.5	
-0.0353553	-0.335355	0.5	
-0.0131388	-0.31384	0.5	
-0.0144004	-0.334766	0.569106	
0.190245	0.0667888	0.625379	
0.0989017	0.0145443	0.654463	
0.0781685	0.124409	0.653995	
0.0877437	0.0690174	0.581458	
-0.307291	0.177008	0.64695	
-0.268836	0.0809708	0.594884	
-0.364126	0.107425	0.596298	
-0.247844	0.169866	0.575357	
0.328092	0.270243	1	
0.373926	0.198925	1	
0.300884	0.198715	1	
0.296275	0.264777	0.897601	
0.177848	0.156277	0.877262	
0.258755	0.0906035	0.896517	
0.184962	0.0799289	1	
0.130088	0.0681493	0.912467	
-0.257824	-0.4284	0.704976	
-0.328716	-0.376757	0.753532	
-0.258165	-0.428195	0.798245	
-0.191043	-0.351595	0.71168	
-0.140302	-0.350193	0.62321	
-0.190903	-0.246146	0.678266	
-0.2387	-0.321065	0.626825	
-0.191043	-0.351595	0.71168	
0.316097	-0.149618	0.645405	
0.251569	-0.0890044	0.696136	
0.272064	-0.0681442	0.59838	
0.24957	-0.148488	0.574982	
-0.142648	-0.00714059	1	
-0.117671	-0.10197	1	
-0.170347	-0.112486	0.899727	
-0.0858575	-0.0573451	0.909067	
-0.230163	-0.183396	0.833896	
-0.318327	-0.225041	0.895751	
-0.349811	-0.108212	0.856986	
-0.307536	-0.237004	0.795298	
-0.16685	0.0883447	1	
-0.237047	0.0201392	1	
-0.230911	0.053351	0.887346	
-0.124832	0.0586014	0.906551	
-0.16685	0.0883447	1	
-0.142648	-0.00714059	1	
-0.237047	0.0201392	1	
-0.124832	0.0586014	0.906551	
-0.494668	-0.0728232	0.573541	
-0.416699	0.00631676	0.584325	
-0.493315	-0.0814864	0.652319	
-0.396738	-0.0922406	0.663051	
0.414991	0.0495125	1	
0.337634	0.115561	1	
0.414183	0.131147	1	
0.370295	0.150924	0.909678	
-0.267754	-0.225502	0.603013	
-0.2387	-0.321065	0.626825	
-0.190903	-0.246146	0.678266	
-0.276638	-0.296057	0.718432	
-0.190903	-0.246146	0.678266	
-0.267754	-0.225502	0.603013	
-0.165932	-0.151801	0.614298	
-0.172932	-0.247597	0.585974	
-0.179918	0.142525	0.617274	
-0.181479	0.221098	0.584819	
-0.210048	0.166493	0.5	
-0.247844	0.169866	0.575357	
0.476114	0.152694	0.90246	
0.450285	0.217356	0.855302	
0.470916	0.168043	0.800126	
0.370295	0.150924	0.909678	
-0.368447	0.183279	0.5	
-0.476114	0.152694	0.59754	
-0.403225	0.114629	0.5	
-0.364126	0.107425	0.596298	
0.05	0.133333	0.5	
-0.00961934	0.119858	0.599022	
-4.34906e-18	0.0906746	0.5	
0.0877437	0.0690174	0.581458	
0.136577	-0.332433	0.5	
0.19595	-0.28972	0.5	
0.14329	-0.268365	0.5	
0.116472	-0.275537	0.565587	
0.174523	-0.0723952	0.765964	
0.176835	-0.0957025	0.888175	
0.0815829	-0.137875	0.832541	
0.200293	-0.156985	0.812694	
-0.323938	-0.380873	0.847739	
-0.386792	-0.316847	0.801384	
-0.386476	-0.317233	0.909527	
-0.258725	-0.308783	0.897858	
-0.437042	-0.0584891	0.5	
-0.357398	-0.0545279	0.581884	
-0.374084	-0.0305468	0.5	
-0.416699	0.00631676	0.584325	
0.411745	0.136955	0.5	
0.332433	0.136577	0.5	
0.377437	0.0892306	0.5	
0.38867	0.101377	0.601055	
-0.17825	0.257762	0.661466	
-0.132843	0.148259	0.702998	
-0.0949641	0.22959	0.742345	
-0.189541	0.216222	0.763213	
-0.0913051	-8.8983e-18	0.5	
-0.133333	0.05	0.5	
-0.17494	-0.00200732	0.5	
-0.104309	-0.0175295	0.603853	
0.3168	-0.386831	0.604097	
0.240952	-0.280119	0.617373	
0.374193	-0.331632	0.665357	
0.329947	-0.238467	0.603405	
0.00200732	0.174835	0.5	
0.05	0.216667	0.5	
0.0120439	0.258333	0.5	
0.0335927	0.239842	0.602535	
-0.14329	0.268365	0.5	
-0.110158	0.209083	0.5	
-0.116472	0.275537	0.591143	
-0.181479	0.221098	0.584819	
-0.3	-0.05	0.5	
-0.335355	-0.0353553	0.5	
-0.334139	-0.0722049	0.5	
-0.357398	-0.0545279	0.581884	
-0.388274	0.315029	0.579193	
-0.321855	0.254144	0.5	
-0.265223	0.319213	0.5	
-0.270598	0.271491	0.600584	
0.242822	0.437078	0.652991	
0.247057	0.434698	0.750499	
0.168734	0.470668	0.701781	
0.198642	0.311382	0.714561	
-0.0144004	-0.334766	0.641321	
-0.0656658	-0.406088	0.605213	
-0.0144004	-0.334766	0.569106	
0.0170927	-0.420241	0.640557	
0.189613	0.313662	1	
0.133074	0.264097	1	
0.114055	0.374109	1	
0.138051	0.361812	0.873206	
-0.437042	-0.0584891	0.5	
-0.377437	-0.0892306	0.5	
-0.374084	-0.0305468	0.5	
-0.357398	-0.0545279	0.581884	
0.171958	-0.1808	0.606406	
0.110158	-0.209083	0.5	
0.116472	-0.275537	0.565587	
0.0797732	-0.172712	0.582888	
0.3168	0.386831	0.895903	
0.317206	0.386498	0.799678	
0.223611	0.287945	0.822031	
0.223912	0.340615	0.913264	
-0.174678	0.468495	0.682891	
-0.129243	0.372125	0.588708	
-0.108627	0.359588	0.683823	
-0.21408	0.346313	0.633756	
-0.146853	0.477948	0.584008	
-0.129243	0.372125	0.588708	
-0.136955	0.411745	0.5	
-0.0376575	0.408608	0.57511	
0.116472	-0.275537	0.636806	
0.116472	-0.275537	0.565587	
0.0232632	-0.246364	0.605213	
0.0797732	-0.172712	0.582888	
0.469721	-0.171353	0.838334	
0.490343	-0.0977967	0.758774	
0.460548	-0.194667	0.76567	
0.366266	-0.0917065	0.74426	
0.377437	0.0892306	0.5	
0.38867	0.101377	0.601055	
0.332433	0.136577	0.5	
0.357398	0.0545279	0.558521	
-0.388274	0.315029	0.579193	
-0.265223	0.319213	0.5	
-0.3168	0.386831	0.604097	
-0.270598	0.271491	0.600584	
0.327662	-0.113303	0.5	
0.272064	-0.0681442	0.59838	
0.255435	-0.105455	0.5	
0.24957	-0.148488	0.574982	
-0.3	-0.05	0.5	
-0.334766	0.0144004	0.563203	
-0.357398	-0.0545279	0.581884	
-0.259968	-0.0294564	0.588658	
-0.05	-0.3	0.5	
-0.0131388	-0.31384	0.5	
-0.0168063	-0.279144	0.5	
-0.0144004	-0.334766	0.569106	
-0.478555	0.144862	0.921652	
-0.436762	0.243391	0.903062	
-0.389036	0.207425	1	
-0.369146	0.1248	0.88989	
0.334766	0.0144004	0.60495	
0.281543	0.0750159	0.578871	
0.299755	0.133787	0.640165	
0.38867	0.101377	0.601055	
0.490343	-0.0977967	0.758774	
0.5	0	0.8	
0.5	0	0.7	
0.393693	-0.0146265	0.683142	
-0.328716	-0.376757	0.753532	
-0.191043	-0.351595	0.71168	
-0.257824	-0.4284	0.704976	
-0.276638	-0.296057	0.718432	
-0.403225	0.114629	0.5	
-0.495101	0.0698189	0.572379	
-0.422892	0.0550581	0.5	
-0.364126	0.107425	0.596298	
0.3168	0.386831	0.895903	
0.25658	0.429146	0.83124	
0.317206	0.386498	0.799678	
0.223912	0.340615	0.913264	
0.319213	0.265223	0.5	
0.254144	0.321855	0.5	
0.234106	0.240455	0.5	
0.253284	0.276753	0.625058	
0.184962	0.0799289	1	
0.158056	0.171884	1	
0.177848	0.156277	0.877262	
0.130088	0.0681493	0.912467	
-0.255435	0.105455	0.5	
-0.285692	0.172599	0.5	
-0.327662	0.113303	0.5	
-0.247844	0.169866	0.575357	
-0.127689	-0.241885	0.89237	
-0.156768	-0.340879	0.911535	
-0.168688	-0.281701	1	
-0.258725	-0.308783	0.897858	
-0.0218405	-0.241762	0.749515	
-0.0924024	-0.340318	0.735056	
0.00809469	-0.342857	0.777216	
-0.10367	-0.266109	0.799505	
-0.0969866	-0.088866	0.682079	
-0.00860123	-0.101114	0.760951	
-0.0557779	-0.00339833	0.72595	
-0.0730504	-0.0481965	0.809858	
-0.332433	-0.136577	0.5	
-0.368925	-0.202831	0.5	
-0.28972	-0.19595	0.5	
-0.370241	-0.156649	0.594441	
-0.118932	0.39861	1	
-0.235698	0.440961	0.931431	
-0.153328	0.47591	0.90763	
-0.124209	0.359991	0.89696	
-0.313218	-0.202403	0.699795	
-0.267754	-0.225502	0.603013	
-0.190903	-0.246146	0.678266	
-0.276638	-0.296057	0.718432	
-0.142648	-0.00714059	1	
-0.117671	-0.10197	1	
-0.211369	-0.0761151	1	
-0.170347	-0.112486	0.899727	
-0.108627	0.359588	0.683823	
-0.0218361	0.398667	0.744009	
-0.00291132	0.295217	0.703732	
0.00685904	0.408881	0.656439	
-0.179918	0.142525	0.617274	
-0.268836	0.0809708	0.594884	
-0.198991	0.0214385	0.631757	
-0.249851	0.075261	0.682349	
0.22133	0.175555	0.5	
0.166493	0.210048	0.5	
0.156778	0.139117	0.5	
0.185114	0.178816	0.60757	
-0.153328	0.47591	0.90763	
-0.168734	0.470668	0.798219	
-0.0807477	0.493437	0.845776	
-0.124209	0.359991	0.89696	
0.0550581	0.422892	0.5	
-0.00233139	0.422954	0.5	
0.0217786	0.376393	0.5	
0.0222826	0.353795	0.558177	
-0.0983601	0.156434	1	
-0.0640422	0.245911	0.888875	
-0.0295403	0.225144	1	
-0.0565371	0.130102	0.914035	
-0.0788669	0.0768903	0.663116	
-0.0557779	-0.00339833	0.72595	
-0.00100849	-0.0205955	0.627967	
0.0134301	0.0589223	0.678402	
0.184962	0.0799289	1	
0.276476	0.0535537	1	
0.210156	-0.0147965	1	
0.258755	0.0906035	0.896517	
-0.26105	0.203399	1	
-0.25253	0.295971	0.897838	
-0.214341	0.273759	1	
-0.172627	0.234526	0.919455	
-0.334766	0.0144004	0.629791	
-0.334766	0.0144004	0.563203	
-0.268836	0.0809708	0.594884	
-0.259968	-0.0294564	0.588658	
0.376393	-0.0217786	0.5	
0.422892	-0.0550581	0.5	
0.422954	0.00233139	0.5	
0.353795	-0.0222826	0.558177	
0.240455	-0.234106	0.5	
0.265223	-0.319213	0.5	
0.321855	-0.254144	0.5	
0.240952	-0.280119	0.617373	
-0.321855	0.254144	0.5	
-0.285692	0.172599	0.5	
-0.240455	0.234106	0.5	
-0.247844	0.169866	0.575357	
0.0814864	0.493315	0.847681	
0	0.5	0.9	
0	0.5	0.8	
0.045063	0.398304	0.900567	
0.321855	-0.254144	0.5	
0.240455	-0.234106	0.5	
0.240952	-0.280119	0.617373	
0.329947	-0.238467	0.603405	
-0.364126	0.107425	0.596298	
-0.334766	0.0144004	0.563203	
-0.334766	0.0144004	0.629791	
-0.416699	0.00631676	0.584325	
-0.321855	0.254144	0.5	
-0.351055	0.232374	0.591168	
-0.285692	0.172599	0.5	
-0.247844	0.169866	0.575357	
-0.0328721	-0.370689	1	
0.0248177	-0.313374	1	
0.0404524	-0.41072	1	
0.0415638	-0.384519	0.881679	
0.183279	0.368447	0.5	
0.114629	0.403225	0.5	
0.113303	0.327662	0.5	
0.19252	0.354505	0.600343	
0.253273	-0.249599	0.843605	
0.344185	-0.180158	0.894872	
0.282439	-0.104966	0.83613	
0.243698	-0.168497	0.902816	
-0.174678	0.468495	0.682891	
-0.146853	0.477948	0.584008	
-0.0814864	0.493315	0.652319	
-0.129243	0.372125	0.588708	
0.254144	0.321855	0.5	
0.253284	0.276753	0.625058	
0.317233	0.386476	0.590473	
0.19252	0.354505	0.600343	
-0.316847	0.386792	0.801384	
-0.317206	0.386498	0.700322	
-0.247057	0.434698	0.749501	
-0.195673	0.329094	0.742315	
0.317206	-0.386498	0.700322	
0.25658	-0.429146	0.66876	
0.247057	-0.434698	0.749501	
0.192404	-0.317473	0.724143	
0.153328	0.47591	0.59237	
0.0827402	0.389706	0.606734	
0.114629	0.403225	0.5	
0.19252	0.354505	0.600343	
-0.247057	0.434698	0.749501	
-0.25658	0.429146	0.66876	
-0.174678	0.468495	0.682891	
-0.195673	0.329094	0.742315	
0.0458333	0.00416667	0.749305	
0.0989017	0.0145443	0.654463	
0.145586	0.022498	0.744291	
0.0829508	-0.0830948	0.742858	
0.176835	-0.0957025	0.888175	
0.262288	-0.0152307	0.900549	
0.282439	-0.104966	0.83613	
0.255406	-0.0213367	0.790897	
-0.386831	-0.3168	0.604097	
-0.319213	-0.265223	0.5	
-0.415735	-0.277785	0.5	
-0.368925	-0.202831	0.5	
-0.202831	0.368925	0.5	
-0.277785	0.415735	0.5	
-0.265223	0.319213	0.5	
-0.3168	0.386831	0.604097	
0.277785	-0.415735	0.5	
0.202831	-0.368925	0.5	
0.3168	-0.386831	0.604097	
0.265223	-0.319213	0.5	
0.493012	-0.0833019	0.655211	
0.366266	-0.0917065	0.74426	
0.490343	-0.0977967	0.758774	
0.393693	-0.0146265	0.683142	
0.223611	0.287945	0.822031	
0.296275	0.264777	0.897601	
0.3168	0.386831	0.895903	
0.223912	0.340615	0.913264	
-0.321855	0.254144	0.5	
-0.240455	0.234106	0.5	
-0.270598	0.271491	0.600584	
-0.247844	0.169866	0.575357	
-0.153328	0.47591	0.90763	
-0.0807477	0.493437	0.845776	
-0.0704482	0.495012	0.928155	
-0.124209	0.359991	0.89696	
0.380207	-0.19708	1	
0.394936	-0.119803	1	
0.478555	-0.144862	0.921652	
0.344185	-0.180158	0.894872	
0.202831	-0.368925	0.5	
0.19595	-0.28972	0.5	
0.136577	-0.332433	0.5	
0.159651	-0.364489	0.598434	
0.245477	-0.191651	1	
0.201164	-0.273578	1	
0.153768	-0.209711	0.888749	
0.243698	-0.168497	0.902816	
-0.228991	0.444481	0.591901	
-0.202831	0.368925	0.5	
-0.129243	0.372125	0.588708	
-0.21408	0.346313	0.633756	
0.321855	-0.254144	0.5	
0.240952	-0.280119	0.617373	
0.265223	-0.319213	0.5	
0.329947	-0.238467	0.603405	
-0.258165	-0.428195	0.798245	
-0.194168	-0.311781	0.817902	
-0.323938	-0.380873	0.847739	
-0.258725	-0.308783	0.897858	
-0.186407	-0.169451	1	
-0.0925337	-0.196451	1	
-0.127689	-0.241885	0.89237	
-0.170347	-0.112486	0.899727	
0.0458333	0.00416667	0.749305	
0.0989017	0.0145443	0.654463	
-0.00100849	-0.0205955	0.627967	
0.0134301	0.0589223	0.678402	
0.334139	0.0722049	0.5	
0.377437	0.0892306	0.5	
0.332433	0.136577	0.5	
0.357398	0.0545279	0.558521	
-0.313218	-0.202403	0.699795	
-0.267754	-0.225502	0.603013	
-0.275537	-0.116472	0.607416	
-0.232732	-0.157842	0.680234	
0.282439	-0.104966	0.83613	
0.176835	-0.0957025	0.888175	
0.174523	-0.0723952	0.765964	
0.200293	-0.156985	0.812694	
-0.254144	-0.321855	0.5	
-0.234106	-0.240455	0.5	
-0.319213	-0.265223	0.5	
-0.267754	-0.225502	0.603013	
0.136955	-0.411745	0.5	
0.136577	-0.332433	0.5	
0.0892306	-0.377437	0.5	
0.159651	-0.364489	0.598434	
0.174678	0.468495	0.817109	
0.168734	0.470668	0.701781	
0.247057	0.434698	0.750499	
0.106564	0.358516	0.753234	
0.0854243	-0.492649	0.748597	
0.0848114	-0.374635	0.706588	
0.0814864	-0.493315	0.652319	
0.0170927	-0.420241	0.640557	
0.0651412	0.200096	1	
0.0903521	0.10545	1	
-0.00425413	0.131001	1	
0.0378724	0.109427	0.891855	
-0.493437	-0.0807477	0.845776	
-0.470668	-0.168734	0.798219	
-0.492649	-0.0854243	0.748597	
-0.369358	-0.124566	0.75116	
-0.153328	0.47591	0.90763	
-0.0704482	0.495012	0.928155	
-0.118932	0.39861	1	
-0.124209	0.359991	0.89696	
-0.0892306	0.377437	0.5	
-0.136577	0.332433	0.5	
-0.0722049	0.334139	0.5	
-0.129243	0.372125	0.588708	
-0.242822	0.437078	0.847009	
-0.235698	0.440961	0.931431	
-0.317233	0.386476	0.909527	
-0.25253	0.295971	0.897838	
-0.165932	-0.151801	0.614298	
-0.267754	-0.225502	0.603013	
-0.190903	-0.246146	0.678266	
-0.232732	-0.157842	0.680234	
0.439458	-0.238488	0.575692	
0.415735	-0.277785	0.634138	
0.450285	-0.217356	0.644698	
0.329947	-0.238467	0.603405	
-0.05	0.216667	0.5	
0.0120439	0.258333	0.5	
-0.0168063	0.279144	0.5	
-0.00291132	0.295217	0.558405	
-0.00100849	-0.0205955	0.627967	
-0.0557779	-0.00339833	0.72595	
0.0458333	0.00416667	0.749305	
0.0134301	0.0589223	0.678402	
0.156778	0.139117	0.5	
0.209083	0.110158	0.5	
0.22133	0.175555	0.5	
0.185114	0.178816	0.60757	
-0.404541	0.126945	1	
-0.495293	0.0684459	0.931403	
-0.478555	0.144862	0.921652	
-0.404225	0.0311984	0.902579	
0.156778	0.139117	0.5	
0.185114	0.178816	0.60757	
0.166493	0.210048	0.5	
0.112623	0.215093	0.576525	
-0.277785	-0.415735	0.634138	
-0.238488	-0.439458	0.575692	
-0.315029	-0.388274	0.579193	
-0.2387	-0.321065	0.626825	
-0.191342	0.46194	1	
-0.235698	0.440961	0.931431	
-0.118932	0.39861	1	
-0.201912	0.369986	1	
-0.422954	-0.00233139	0.5	
-0.5	0	0.5	
-0.437042	-0.0584891	0.5	
-0.416699	0.00631676	0.584325	
0.380873	0.323938	0.652261	
0.253284	0.276753	0.625058	
0.386505	0.317197	0.568825	
0.327747	0.217533	0.591075	
0.253273	-0.249599	0.843605	
0.153768	-0.209711	0.888749	
0.118204	-0.307408	0.828129	
0.205413	-0.339549	0.892186	
-0.17825	0.257762	0.661466	
-0.132843	0.148259	0.702998	
-0.189541	0.216222	0.763213	
-0.225046	0.183718	0.683937	
-0.331361	-0.272953	1	
-0.317197	-0.386505	0.931175	
-0.386476	-0.317233	0.909527	
-0.258725	-0.308783	0.897858	
-0.5	0	0.7	
-0.416699	0.00631676	0.584325	
-0.5	0	0.6	
-0.401952	0.0654763	0.671747	
-0.05	-0.05	0.5	
-0.05	-0.133333	0.5	
5.20231e-18	-0.0913051	0.5	
-0.0312742	-0.12116	0.604392	
-0.321855	0.254144	0.5	
-0.270598	0.271491	0.600584	
-0.351055	0.232374	0.591168	
-0.247844	0.169866	0.575357	
0.240455	-0.234106	0.5	
0.19595	-0.28972	0.5	
0.265223	-0.319213	0.5	
0.240952	-0.280119	0.617373	
0.138051	0.361812	0.873206	
0.223912	0.340615	0.913264	
0.189613	0.313662	1	
0.169783	0.254878	0.90212	
0.0136102	-0.0944981	0.903895	
-0.0858575	-0.0573451	0.909067	
-0.0338793	0.0189553	0.867322	
-0.0730504	-0.0481965	0.809858	
-0.257956	0.116321	1	
-0.337562	0.0547633	1	
-0.328307	0.16356	1	
-0.369146	0.1248	0.88989	
-0.28972	-0.19595	0.5	
-0.234106	-0.240455	0.5	
-0.22133	-0.175555	0.5	
-0.267754	-0.225502	0.603013	
-0.490343	0.0977967	0.758774	
-0.385513	-0.0181868	0.734694	
-0.5	0	0.7	
-0.401952	0.0654763	0.671747	
-0.337562	0.0547633	1	
-0.302044	-0.0506462	1	
-0.401548	-0.0423374	1	
-0.404225	0.0311984	0.902579	
-0.315029	-0.388274	0.579193	
-0.386831	-0.3168	0.604097	
-0.331632	-0.374193	0.665357	
-0.2387	-0.321065	0.626825	
-0.356684	-0.19351	1	
-0.331361	-0.272953	1	
-0.440961	-0.235698	0.931431	
-0.318327	-0.225041	0.895751	
-0.279144	0.0168063	0.5	
-0.307123	-0.0146863	0.5	
-0.258333	-0.0120439	0.5	
-0.259968	-0.0294564	0.588658	
-0.164797	-0.0240318	0.828417	
-0.266891	-0.0501392	0.812706	
-0.170347	-0.112486	0.899727	
-0.243062	-0.0438203	0.910197	
0.28972	0.19595	0.5	
0.319213	0.265223	0.5	
0.234106	0.240455	0.5	
0.327747	0.217533	0.591075	
-0.337562	0.0547633	1	
-0.257956	0.116321	1	
-0.237047	0.0201392	1	
-0.230911	0.053351	0.887346	
0.409478	-0.032947	1	
0.314271	-0.0501881	1	
0.346509	0.0237889	1	
0.382055	-0.0743662	0.891735	
0.00200732	-0.17494	0.5	
0.05	-0.133333	0.5	
5.20231e-18	-0.0913051	0.5	
-0.0312742	-0.12116	0.604392	
0.493012	-0.0833019	0.655211	
0.470916	-0.168043	0.699874	
0.490343	-0.0977967	0.758774	
0.366266	-0.0917065	0.74426	
-0.0305468	0.374084	0.5	
0.0217786	0.376393	0.5	
-0.00233139	0.422954	0.5	
0.0222826	0.353795	0.558177	
0.411745	0.136955	0.5	
0.377437	0.0892306	0.5	
0.437042	0.0584891	0.5	
0.38867	0.101377	0.601055	
-0.144862	-0.478555	0.921652	
-0.243391	-0.436762	0.903062	
-0.203173	-0.373024	1	
-0.156768	-0.340879	0.911535	
0.376393	-0.0217786	0.5	
0.422954	0.00233139	0.5	
0.374084	0.0305468	0.5	
0.353795	-0.0222826	0.558177	
0.276476	0.0535537	1	
0.262288	-0.0152307	0.900549	
0.210156	-0.0147965	1	
0.258755	0.0906035	0.896517	
0.0651412	0.200096	1	
0.0378724	0.109427	0.891855	
-0.00425413	0.131001	1	
0.0295128	0.209804	0.905326	
-0.186407	-0.169451	1	
-0.278713	-0.14304	1	
-0.211369	-0.0761151	1	
-0.170347	-0.112486	0.899727	
0.321855	-0.254144	0.5	
0.285692	-0.172599	0.5	
0.240455	-0.234106	0.5	
0.329947	-0.238467	0.603405	
-0.113452	0.0682357	0.775647	
-0.0788669	0.0768903	0.663116	
-0.0557779	-0.00339833	0.72595	
-0.14275	-0.0105591	0.697053	
0.232997	-0.11062	1	
0.176835	-0.0957025	0.888175	
0.210156	-0.0147965	1	
0.262288	-0.0152307	0.900549	
-0.263582	-0.319413	1	
-0.317197	-0.386505	0.931175	
-0.331361	-0.272953	1	
-0.258725	-0.308783	0.897858	
-0.202831	0.368925	0.5	
-0.136955	0.411745	0.5	
-0.228991	0.444481	0.591901	
-0.129243	0.372125	0.588708	
-0.242822	0.437078	0.847009	
-0.317233	0.386476	0.909527	
-0.316847	0.386792	0.801384	
-0.25253	0.295971	0.897838	
0.114055	0.374109	1	
0.0420691	0.427134	1	
0.0728232	0.494668	0.926459	
0.045063	0.398304	0.900567	
-0.0969866	-0.088866	0.682079	
-0.0557779	-0.00339833	0.72595	
-0.104309	-0.0175295	0.603853	
-0.14275	-0.0105591	0.697053	
0.476114	-0.152694	0.59754	
0.470916	-0.168043	0.699874	
0.493012	-0.0833019	0.655211	
0.39071	-0.0800656	0.604798	
0.255435	-0.105455	0.5	
0.327662	-0.113303	0.5	
0.3	-0.05	0.5	
0.272064	-0.0681442	0.59838	
0.05	-0.3	0.5	
0.101011	-0.298593	0.5	
0.0951035	-0.257817	0.5	
0.116472	-0.275537	0.565587	
0.05	0.3	0.5	
0.0353553	0.335355	0.5	
0.0146863	0.307123	0.5	
0.0222826	0.353795	0.558177	
0.422892	-0.0550581	0.5	
0.353795	-0.0222826	0.558177	
0.39071	-0.0800656	0.604798	
0.417761	0.0130281	0.59815	
0.253273	-0.249599	0.843605	
0.282439	-0.104966	0.83613	
0.200293	-0.156985	0.812694	
0.243698	-0.168497	0.902816	
-0.470668	-0.168734	0.798219	
-0.47591	-0.153328	0.90763	
-0.437078	-0.242822	0.847009	
-0.349811	-0.108212	0.856986	
0.216667	0.05	0.5	
0.279144	0.0168063	0.5	
0.281543	0.0750159	0.578871	
0.295217	0.00291132	0.558405	
0.415735	0.277785	1	
0.439458	0.238488	0.924308	
0.373926	0.198925	1	
0.328092	0.270243	1	
0.314857	-0.257449	1	
0.245477	-0.191651	1	
0.344185	-0.180158	0.894872	
0.243698	-0.168497	0.902816	
0.307123	-0.0146863	0.5	
0.3	-0.05	0.5	
0.335355	-0.0353553	0.5	
0.353795	-0.0222826	0.558177	
0.0401436	0.291204	1	
0.133074	0.264097	1	
0.0651412	0.200096	1	
0.0295128	0.209804	0.905326	
-0.404541	0.126945	1	
-0.478555	0.144862	0.921652	
-0.369146	0.1248	0.88989	
-0.404225	0.0311984	0.902579	
0	0.5	0.7	
-0.0218361	0.398667	0.744009	
-0.0814864	0.493315	0.652319	
0.00685904	0.408881	0.656439	
-0.175555	0.22133	0.5	
-0.14329	0.268365	0.5	
-0.19595	0.28972	0.5	
-0.181479	0.221098	0.584819	
-0.386476	-0.317233	0.909527	
-0.440961	-0.235698	0.931431	
-0.331361	-0.272953	1	
-0.318327	-0.225041	0.895751	
0.428195	-0.258165	0.798245	
0.380873	-0.323938	0.847739	
0.436762	-0.243391	0.903062	
0.344185	-0.180158	0.894872	
0.05	0.3	0.5	
0.0120439	0.258333	0.5	
0.05	0.216667	0.5	
0.0335927	0.239842	0.602535	
-0.0295403	0.225144	1	
-0.0983601	0.156434	1	
-0.119993	0.246691	1	
-0.0640422	0.245911	0.888875	
-0.3	0.05	0.5	
-0.279144	0.0168063	0.5	
-0.216667	0.05	0.5	
-0.268836	0.0809708	0.594884	
-0.429146	-0.25658	0.66876	
-0.434698	-0.247057	0.749501	
-0.386498	-0.317206	0.700322	
-0.313218	-0.202403	0.699795	
-0.220651	0.0125647	0.740031	
-0.164797	-0.0240318	0.828417	
-0.182236	-0.0903375	0.74647	
-0.14275	-0.0105591	0.697053	
0.386505	-0.317197	0.931175	
0.436762	-0.243391	0.903062	
0.380873	-0.323938	0.847739	
0.344185	-0.180158	0.894872	
0.332433	0.136577	0.5	
0.327747	0.217533	0.591075	
0.28972	0.19595	0.5	
0.257762	0.17825	0.572115	
-0.0685138	-0.341556	0.85476	
0.00809469	-0.342857	0.777216	
-0.0924024	-0.340318	0.735056	
-0.10367	-0.266109	0.799505	
-0.334766	0.0144004	0.629791	
-0.385513	-0.0181868	0.734694	
-0.327614	0.0876466	0.725276	
-0.401952	0.0654763	0.671747	
0.146853	0.477948	0.915992	
0.138051	0.361812	0.873206	
0.114055	0.374109	1	
0.045063	0.398304	0.900567	
0.223611	0.287945	0.822031	
0.138051	0.361812	0.873206	
0.0912931	0.252729	0.837007	
0.169783	0.254878	0.90212	
0.428195	0.258165	0.701755	
0.460548	0.194667	0.73433	
0.4284	0.257824	0.795024	
0.316638	0.224466	0.734195	
0.164797	-0.177585	1	
0.245477	-0.191651	1	
0.153768	-0.209711	0.888749	
0.243698	-0.168497	0.902816	
0.380207	-0.19708	1	
0.478555	-0.144862	0.921652	
0.436762	-0.243391	0.903062	
0.344185	-0.180158	0.894872	
-0.228991	0.444481	0.591901	
-0.129243	0.372125	0.588708	
-0.174678	0.468495	0.682891	
-0.21408	0.346313	0.633756	
0.0353553	0.335355	0.5	
0	0.35	0.5	
0.0146863	0.307123	0.5	
0.0222826	0.353795	0.558177	
0.0209546	0.0362755	1	
0.0903521	0.10545	1	
0.115537	0.0107471	1	
0.130088	0.0681493	0.912467	
-0.422954	-0.00233139	0.5	
-0.437042	-0.0584891	0.5	
-0.374084	-0.0305468	0.5	
-0.416699	0.00631676	0.584325	
0.0404524	-0.41072	1	
0.0248177	-0.313374	1	
0.112799	-0.33356	1	
0.0415638	-0.384519	0.881679	
0.4284	-0.257824	0.704976	
0.374193	-0.331632	0.665357	
0.376757	-0.328716	0.753532	
0.309086	-0.228865	0.737481	
0.0943468	-0.245334	1	
0.0712814	-0.153152	1	
0.164797	-0.177585	1	
0.153768	-0.209711	0.888749	
0.139117	-0.156778	0.5	
0.175555	-0.22133	0.5	
0.210048	-0.166493	0.5	
0.171958	-0.1808	0.606406	
0.307123	-0.0146863	0.5	
0.335355	-0.0353553	0.5	
0.35	0	0.5	
0.353795	-0.0222826	0.558177	
0.0814864	0.493315	0.847681	
0.138051	0.361812	0.873206	
0.146853	0.477948	0.915992	
0.045063	0.398304	0.900567	
0.0781685	0.124409	0.653995	
-0.00961934	0.119858	0.599022	
0.0877437	0.0690174	0.581458	
0.0134301	0.0589223	0.678402	
0.0550581	0.422892	0.5	
0.070805	0.359322	0.5	
0.0827402	0.389706	0.606734	
0.0222826	0.353795	0.558177	
-0.386792	-0.316847	0.801384	
-0.386498	-0.317206	0.700322	
-0.434698	-0.247057	0.749501	
-0.307536	-0.237004	0.795298	
-0.27609	0.255234	0.739837	
-0.17825	0.257762	0.661466	
-0.195673	0.329094	0.742315	
-0.189541	0.216222	0.763213	
0.0120439	0.258333	0.5	
0.0335927	0.239842	0.602535	
0.05	0.3	0.5	
-0.00291132	0.295217	0.558405	
-0.0788669	0.0768903	0.663116	
-0.113452	0.0682357	0.775647	
-0.0557779	-0.00339833	0.72595	
-0.0173799	0.0733829	0.771387	
-0.335355	0.0353553	0.5	
-0.35	0	0.5	
-0.31384	0.0131388	0.5	
-0.334766	0.0144004	0.563203	
-0.194168	-0.311781	0.817902	
-0.0685138	-0.341556	0.85476	
-0.10367	-0.266109	0.799505	
-0.156768	-0.340879	0.911535	
-0.146853	0.477948	0.584008	
-0.136955	0.411745	0.5	
-0.0728232	0.494668	0.573541	
-0.0376575	0.408608	0.57511	
0.0854243	-0.492649	0.748597	
0	-0.5	0.7	
0.0848114	-0.374635	0.706588	
0.0170927	-0.420241	0.640557	
-0.133333	0.05	0.5	
-0.104309	-0.0175295	0.603853	
-0.0913051	-8.8983e-18	0.5	
-0.124864	0.0783821	0.585361	
-0.140302	-0.350193	0.62321	
-0.191043	-0.351595	0.71168	
-0.0924024	-0.340318	0.735056	
-0.0872901	-0.296751	0.662404	
-0.127689	-0.241885	0.89237	
-0.194168	-0.311781	0.817902	
-0.156768	-0.340879	0.911535	
-0.258725	-0.308783	0.897858	
-0.258165	-0.428195	0.798245	
-0.323938	-0.380873	0.847739	
-0.243391	-0.436762	0.903062	
-0.258725	-0.308783	0.897858	
-0.05	-0.133333	0.5	
0.00200732	-0.17494	0.5	
5.20231e-18	-0.0913051	0.5	
-0.0312742	-0.12116	0.604392	
-0.35	0	0.5	
-0.335355	0.0353553	0.5	
-0.376393	0.0217786	0.5	
-0.334766	0.0144004	0.563203	
-0.318327	-0.225041	0.895751	
-0.307536	-0.237004	0.795298	
-0.230163	-0.183396	0.833896	
-0.258725	-0.308783	0.897858	
0.164797	-0.177585	1	
0.153768	-0.209711	0.888749	
0.176835	-0.0957025	0.888175	
0.243698	-0.168497	0.902816	
0.216667	0.05	0.5	
0.295217	0.00291132	0.558405	
0.281543	0.0750159	0.578871	
0.21299	-0.0111081	0.575703	
0.172599	0.285692	0.5	
0.105455	0.255435	0.5	
0.166493	0.210048	0.5	
0.112623	0.215093	0.576525	
0.411745	0.136955	0.5	
0.436762	0.243391	0.596938	
0.46194	0.191342	0.5	
0.368925	0.202831	0.5	
0.386505	0.317197	0.568825	
0.380873	0.323938	0.652261	
0.317233	0.386476	0.590473	
0.253284	0.276753	0.625058	
-0.0969866	-0.088866	0.682079	
-0.104309	-0.0175295	0.603853	
-0.203542	-0.0724399	0.653763	
-0.14275	-0.0105591	0.697053	
0.422892	-0.0550581	0.5	
0.495101	-0.0698189	0.572379	
0.422954	0.00233139	0.5	
0.417761	0.0130281	0.59815	
-0.386498	-0.317206	0.700322	
-0.386792	-0.316847	0.801384	
-0.276638	-0.296057	0.718432	
-0.307536	-0.237004	0.795298	
0.0704482	-0.495012	0.928155	
0	-0.5	0.9	
0.0404524	-0.41072	1	
0.0415638	-0.384519	0.881679	
0.437042	0.0584891	0.5	
0.38867	0.101377	0.601055	
0.377437	0.0892306	0.5	
0.357398	0.0545279	0.558521	
-0.05	0.05	0.5	
-0.133333	0.05	0.5	
-0.0913051	-8.8983e-18	0.5	
-0.124864	0.0783821	0.585361	
0.190324	0.0393932	0.833873	
0.145586	0.022498	0.744291	
0.223491	0.0887848	0.734304	
0.255406	-0.0213367	0.790897	
-0.357398	-0.0545279	0.581884	
-0.334766	0.0144004	0.563203	
-0.374084	-0.0305468	0.5	
-0.416699	0.00631676	0.584325	
-0.444481	-0.228991	0.591901	
-0.386831	-0.3168	0.604097	
-0.415735	-0.277785	0.5	
-0.368925	-0.202831	0.5	
-0.277785	0.415735	0.5	
-0.202831	0.368925	0.5	
-0.228991	0.444481	0.591901	
-0.3168	0.386831	0.604097	
0.202831	-0.368925	0.5	
0.228991	-0.444481	0.591901	
0.277785	-0.415735	0.5	
0.3168	-0.386831	0.604097	
-0.243391	-0.436762	0.903062	
-0.203173	-0.373024	1	
-0.156768	-0.340879	0.911535	
-0.258725	-0.308783	0.897858	
0.314271	-0.0501881	1	
0.394936	-0.119803	1	
0.313791	-0.154465	1	
0.382055	-0.0743662	0.891735	
-0.0640422	0.245911	0.888875	
0.0295128	0.209804	0.905326	
-0.0295403	0.225144	1	
-0.0565371	0.130102	0.914035	
0.194604	-0.371188	1	
0.268393	-0.334301	1	
0.235698	-0.440961	0.931431	
0.205413	-0.339549	0.892186	
0.332433	0.136577	0.5	
0.28972	0.19595	0.5	
0.268365	0.14329	0.5	
0.257762	0.17825	0.572115	
-0.470668	-0.168734	0.798219	
-0.493437	-0.0807477	0.845776	
-0.47591	-0.153328	0.90763	
-0.349811	-0.108212	0.856986	
0.313791	-0.154465	1	
0.344185	-0.180158	0.894872	
0.245477	-0.191651	1	
0.243698	-0.168497	0.902816	
0.394936	-0.119803	1	
0.382055	-0.0743662	0.891735	
0.478555	-0.144862	0.921652	
0.344185	-0.180158	0.894872	
0.164797	-0.177585	1	
0.176835	-0.0957025	0.888175	
0.232997	-0.11062	1	
0.243698	-0.168497	0.902816	
-0.0854243	0.492649	0.748597	
0	0.5	0.8	
-0.0807477	0.493437	0.845776	
-0.0218361	0.398667	0.744009	
0.0854243	0.492649	0.751403	
0	0.5	0.7	
0.0807477	0.493437	0.654224	
0.00685904	0.408881	0.656439	
-0.331361	-0.272953	1	
-0.386476	-0.317233	0.909527	
-0.318327	-0.225041	0.895751	
-0.258725	-0.308783	0.897858	
-0.3	-0.05	0.5	
-0.257817	-0.0951035	0.5	
-0.216667	-0.05	0.5	
-0.259968	-0.0294564	0.588658	
-0.328716	-0.376757	0.753532	
-0.276638	-0.296057	0.718432	
-0.386792	-0.316847	0.801384	
-0.307536	-0.237004	0.795298	
0.0827402	0.389706	0.606734	
-0.0376575	0.408608	0.57511	
0.0222826	0.353795	0.558177	
0.00685904	0.408881	0.656439	
0.281543	0.0750159	0.578871	
0.38867	0.101377	0.601055	
0.334766	0.0144004	0.60495	
0.357398	0.0545279	0.558521	
-0.25658	0.429146	0.66876	
-0.247057	0.434698	0.749501	
-0.317206	0.386498	0.700322	
-0.195673	0.329094	0.742315	
-0.127689	-0.241885	0.89237	
-0.10367	-0.266109	0.799505	
-0.0685138	-0.341556	0.85476	
-0.156768	-0.340879	0.911535	
-0.14329	0.268365	0.5	
-0.175555	0.22133	0.5	
-0.110158	0.209083	0.5	
-0.181479	0.221098	0.584819	
0.353553	0.353553	0.5	
0.319213	0.265223	0.5	
0.386505	0.317197	0.568825	
0.317233	0.386476	0.590473	
-0.5	0	0.8	
-0.5	0	0.7	
-0.490343	0.0977967	0.758774	
-0.385513	-0.0181868	0.734694	
0.422892	-0.0550581	0.5	
0.422954	0.00233139	0.5	
0.353795	-0.0222826	0.558177	
0.417761	0.0130281	0.59815	
-4.34906e-18	0.0906746	0.5	
-0.05	0.133333	0.5	
-0.05	0.05	0.5	
-0.00961934	0.119858	0.599022	
0.261819	0.319027	1	
0.353553	0.353553	1	
0.328092	0.270243	1	
0.296275	0.264777	0.897601	
0.359322	-0.070805	0.5	
0.39071	-0.0800656	0.604798	
0.422892	-0.0550581	0.5	
0.353795	-0.0222826	0.558177	
-0.335355	-0.0353553	0.5	
-0.374084	-0.0305468	0.5	
-0.334139	-0.0722049	0.5	
-0.357398	-0.0545279	0.581884	
-0.190903	-0.246146	0.678266	
-0.267754	-0.225502	0.603013	
-0.313218	-0.202403	0.699795	
-0.232732	-0.157842	0.680234	
0.313791	-0.154465	1	
0.382055	-0.0743662	0.891735	
0.394936	-0.119803	1	
0.344185	-0.180158	0.894872	
-0.139117	0.156778	0.5	
-0.175555	0.22133	0.5	
-0.210048	0.166493	0.5	
-0.181479	0.221098	0.584819	
-0.0814864	0.493315	0.652319	
-0.146853	0.477948	0.584008	
-0.0728232	0.494668	0.573541	
-0.0376575	0.408608	0.57511	
0.469721	-0.171353	0.838334	
0.478555	-0.144862	0.921652	
0.382055	-0.0743662	0.891735	
0.344185	-0.180158	0.894872	
-0.495101	0.0698189	0.572379	
-0.403225	0.114629	0.5	
-0.476114	0.152694	0.59754	
-0.364126	0.107425	0.596298	
-0.05	-0.216667	0.5	
-0.105455	-0.255435	0.5	
-0.05	-0.3	0.5	
-0.0912866	-0.293514	0.577692	
0.183279	0.368447	0.5	
0.153328	0.47591	0.59237	
0.114629	0.403225	0.5	
0.19252	0.354505	0.600343	
0.235698	0.440961	0.568569	
0.254144	0.321855	0.5	
0.317233	0.386476	0.590473	
0.19252	0.354505	0.600343	
0.0153159	0.363557	1	
0.114055	0.374109	1	
0.0401436	0.291204	1	
0.045063	0.398304	0.900567	
0.114055	0.374109	1	
0.202324	0.378521	1	
0.189613	0.313662	1	
0.223912	0.340615	0.913264	
0.39071	-0.0800656	0.604798	
0.393693	-0.0146265	0.683142	
0.493012	-0.0833019	0.655211	
0.417761	0.0130281	0.59815	
0.168734	-0.470668	0.798219	
0.174678	-0.468495	0.682891	
0.0854243	-0.492649	0.748597	
0.0848114	-0.374635	0.706588	
0.247057	0.434698	0.750499	
0.242822	0.437078	0.652991	
0.316847	0.386792	0.698616	
0.198642	0.311382	0.714561	
-0.0699367	-0.141385	0.854754	
-0.0858575	-0.0573451	0.909067	
0.0136102	-0.0944981	0.903895	
-0.0730504	-0.0481965	0.809858	
0.136955	-0.411745	0.5	
0.228991	-0.444481	0.591901	
0.202831	-0.368925	0.5	
0.159651	-0.364489	0.598434	
-0.243391	-0.436762	0.903062	
-0.317197	-0.386505	0.931175	
-0.203173	-0.373024	1	
-0.258725	-0.308783	0.897858	
0.164797	-0.177585	1	
0.245477	-0.191651	1	
0.201164	-0.273578	1	
0.153768	-0.209711	0.888749	
0.380873	0.323938	0.652261	
0.436762	0.243391	0.596938	
0.428195	0.258165	0.701755	
0.327747	0.217533	0.591075	
-0.332366	0.0316806	0.831947	
-0.266891	-0.0501392	0.812706	
-0.230911	0.053351	0.887346	
-0.243062	-0.0438203	0.910197	
-0.153328	0.47591	0.90763	
-0.242822	0.437078	0.847009	
-0.168734	0.470668	0.798219	
-0.124209	0.359991	0.89696	
-0.263582	-0.319413	1	
-0.203173	-0.373024	1	
-0.317197	-0.386505	0.931175	
-0.258725	-0.308783	0.897858	
-0.0788669	0.0768903	0.663116	
-0.00961934	0.119858	0.599022	
-0.0119975	0.149532	0.712677	
0.0134301	0.0589223	0.678402	
0.05	0.05	0.5	
0.05	0.133333	0.5	
-4.34906e-18	0.0906746	0.5	
0.0877437	0.0690174	0.581458	
0	-0.5	0.9	
0.0807477	-0.493437	0.845776	
0	-0.5	0.8	
0.0415638	-0.384519	0.881679	
-0.0372406	0.417791	1	
0	0.5	0.9	
0	0.5	1	
0.0420691	0.427134	1	
-0.5	0	1	
-0.426463	0.0441363	1	
-0.401548	-0.0423374	1	
-0.404225	0.0311984	0.902579	
0	-0.5	1	
-0.0422582	-0.437473	1	
0.0404524	-0.41072	1	
0	-0.5	0.9	
0.5	0	0.9	
0.409478	-0.032947	1	
0.5	0	1	
0.414991	0.0495125	1	
-0.317233	0.386476	0.909527	
-0.380873	0.323938	0.847739	
-0.316847	0.386792	0.801384	
-0.25253	0.295971	0.897838	
0.380873	0.323938	0.652261	
0.316847	0.386792	0.698616	
0.317233	0.386476	0.590473	
0.253284	0.276753	0.625058	
-0.0854243	0.492649	0.748597	
-0.174678	0.468495	0.682891	
-0.0814864	0.493315	0.652319	
-0.108627	0.359588	0.683823	
0.317233	-0.386476	0.909527	
0.235698	-0.440961	0.931431	
0.268393	-0.334301	1	
0.205413	-0.339549	0.892186	
-0.194168	-0.311781	0.817902	
-0.10367	-0.266109	0.799505	
-0.127689	-0.241885	0.89237	
-0.156768	-0.340879	0.911535	
0.5	0	0.6	
0.422954	0.00233139	0.5	
0.495101	-0.0698189	0.572379	
0.417761	0.0130281	0.59815	
-0.0435837	0.153197	0.818477	
-0.00874456	0.250849	0.799219	
-0.0640422	0.245911	0.888875	
0.0295128	0.209804	0.905326	
-0.0435837	0.153197	0.818477	
0.0295128	0.209804	0.905326	
-0.0640422	0.245911	0.888875	
-0.0565371	0.130102	0.914035	
-0.108627	0.359588	0.683823	
-0.17825	0.257762	0.661466	
-0.195673	0.329094	0.742315	
-0.21408	0.346313	0.633756	
0.460548	0.194667	0.73433	
0.469721	0.171353	0.661666	
0.490343	0.0977967	0.741226	
0.363042	0.112521	0.74989	
0.388274	-0.315029	0.579193	
0.3168	-0.386831	0.604097	
0.374193	-0.331632	0.665357	
0.329947	-0.238467	0.603405	
0.374084	0.0305468	0.5	
0.353795	-0.0222826	0.558177	
0.422954	0.00233139	0.5	
0.417761	0.0130281	0.59815	
0.0728232	0.494668	0.926459	
0.146853	0.477948	0.915992	
0.114055	0.374109	1	
0.045063	0.398304	0.900567	
0.153328	0.47591	0.59237	
0.242822	0.437078	0.652991	
0.168734	0.470668	0.701781	
0.19252	0.354505	0.600343	
-0.198991	0.0214385	0.631757	
-0.203542	-0.0724399	0.653763	
-0.104309	-0.0175295	0.603853	
-0.14275	-0.0105591	0.697053	
0.353553	0.353553	0.5	
0.319213	0.265223	0.5	
0.317233	0.386476	0.590473	
0.254144	0.321855	0.5	
-0.144862	-0.478555	0.921652	
-0.203173	-0.373024	1	
-0.114467	-0.386332	1	
-0.156768	-0.340879	0.911535	
-0.5	0	0.9	
-0.5	0	0.8	
-0.493389	0.0810399	0.85285	
-0.404225	0.0311984	0.902579	
-0.493012	0.0833019	0.655211	
-0.5	0	0.6	
-0.416699	0.00631676	0.584325	
-0.401952	0.0654763	0.671747	
0.14072	-0.0839746	1	
0.232997	-0.11062	1	
0.164797	-0.177585	1	
0.176835	-0.0957025	0.888175	
0.268393	-0.334301	1	
0.353553	-0.353553	1	
0.317233	-0.386476	0.909527	
0.386505	-0.317197	0.931175	
-0.17825	0.257762	0.661466	
-0.189541	0.216222	0.763213	
-0.27609	0.255234	0.739837	
-0.225046	0.183718	0.683937	
-0.334766	0.0144004	0.629791	
-0.334766	0.0144004	0.563203	
-0.364126	0.107425	0.596298	
-0.268836	0.0809708	0.594884	
-0.495101	0.0698189	0.572379	
-0.493012	0.0833019	0.655211	
-0.416699	0.00631676	0.584325	
-0.401952	0.0654763	0.671747	
0.194604	-0.371188	1	
0.235698	-0.440961	0.931431	
0.191342	-0.46194	1	
0.125573	-0.41396	1	
-0.0788669	0.0768903	0.663116	
0.0134301	0.0589223	0.678402	
-0.0119975	0.149532	0.712677	
-0.0173799	0.0733829	0.771387	
-0.401548	-0.0423374	1	
-0.495012	-0.0704482	0.928155	
-0.5	0	0.9	
-0.404225	0.0311984	0.902579	
0.139117	-0.156778	0.5	
0.110158	-0.209083	0.5	
0.175555	-0.22133	0.5	
0.171958	-0.1808	0.606406	
0.114055	0.374109	1	
0.138051	0.361812	0.873206	
0.202324	0.378521	1	
0.223912	0.340615	0.913264	
0.184962	0.0799289	1	
0.210156	-0.0147965	1	
0.115537	0.0107471	1	
0.130088	0.0681493	0.912467	
-0.376393	0.0217786	0.5	
-0.422954	-0.00233139	0.5	
-0.374084	-0.0305468	0.5	
-0.416699	0.00631676	0.584325	
0.0781685	0.124409	0.653995	
-0.0119975	0.149532	0.712677	
-0.00961934	0.119858	0.599022	
0.0134301	0.0589223	0.678402	
-0.242822	0.437078	0.847009	
-0.153328	0.47591	0.90763	
-0.235698	0.440961	0.931431	
-0.124209	0.359991	0.89696	
-0.388274	0.315029	0.579193	
-0.270598	0.271491	0.600584	
-0.374193	0.331632	0.665357	
-0.351055	0.232374	0.591168	
-0.186407	-0.169451	1	
-0.117671	-0.10197	1	
-0.0925337	-0.196451	1	
-0.170347	-0.112486	0.899727	
0.415735	-0.277785	1	
0.386505	-0.317197	0.931175	
0.380207	-0.19708	1	
0.436762	-0.243391	0.903062	
0.232997	-0.11062	1	
0.14072	-0.0839746	1	
0.210156	-0.0147965	1	
0.176835	-0.0957025	0.888175	
-0.0353553	0.335355	0.5	
-0.05	0.3	0.5	
-0.0131388	0.31384	0.5	
-0.00291132	0.295217	0.558405	
-0.273315	0.334955	1	
-0.201912	0.369986	1	
-0.214341	0.273759	1	
-0.25253	0.295971	0.897838	
5.20231e-18	-0.0913051	0.5	
0.05	-0.133333	0.5	
0.05	-0.05	0.5	
0.0851262	-0.069993	0.591553	
-0.191342	0.46194	1	
-0.235698	0.440961	0.931431	
-0.153328	0.47591	0.90763	
-0.118932	0.39861	1	
0.38867	0.101377	0.601055	
0.357398	0.0545279	0.558521	
0.437042	0.0584891	0.5	
0.417761	0.0130281	0.59815	
0.261819	0.319027	1	
0.3168	0.386831	0.895903	
0.353553	0.353553	1	
0.296275	0.264777	0.897601	
-0.415735	-0.277785	1	
-0.386476	-0.317233	0.909527	
-0.440961	-0.235698	0.931431	
-0.331361	-0.272953	1	
0.231243	0.24169	1	
0.223912	0.340615	0.913264	
0.296275	0.264777	0.897601	
0.169783	0.254878	0.90212	
0.495293	-0.0684459	0.931403	
0.5	0	0.9	
0.493389	-0.0810399	0.85285	
0.382055	-0.0743662	0.891735	
0.495293	0.0684459	0.568597	
0.437042	0.0584891	0.5	
0.422954	0.00233139	0.5	
0.417761	0.0130281	0.59815	
0.12289	0.290081	0.637079	
0.198642	0.311382	0.714561	
0.253284	0.276753	0.625058	
0.19252	0.354505	0.600343	
-0.0295403	0.225144	1	
0.0295128	0.209804	0.905326	
-0.00425413	0.131001	1	
-0.0565371	0.130102	0.914035	
0.314857	-0.257449	1	
0.245477	-0.191651	1	
0.313791	-0.154465	1	
0.344185	-0.180158	0.894872	
0.414183	0.131147	1	
0.373926	0.198925	1	
0.46194	0.191342	1	
0.370295	0.150924	0.909678	
-0.214341	0.273759	1	
-0.26105	0.203399	1	
-0.318983	0.261743	1	
-0.25253	0.295971	0.897838	
0.422892	-0.0550581	0.5	
0.39071	-0.0800656	0.604798	
0.495101	-0.0698189	0.572379	
0.417761	0.0130281	0.59815	
0.183279	0.368447	0.5	
0.113303	0.327662	0.5	
0.172599	0.285692	0.5	
0.19252	0.354505	0.600343	
-0.353553	-0.353553	0.5	
-0.315029	-0.388274	0.579193	
-0.319213	-0.265223	0.5	
-0.386831	-0.3168	0.604097	
-0.3168	0.386831	0.604097	
-0.353553	0.353553	0.5	
-0.265223	0.319213	0.5	
-0.388274	0.315029	0.579193	
0.388274	-0.315029	0.579193	
0.353553	-0.353553	0.5	
0.3168	-0.386831	0.604097	
0.265223	-0.319213	0.5	
-0.444481	-0.228991	0.591901	
-0.368925	-0.202831	0.5	
-0.411745	-0.136955	0.5	
-0.370241	-0.156649	0.594441	
-0.0807477	0.493437	0.845776	
-0.168734	0.470668	0.798219	
-0.0854243	0.492649	0.748597	
-0.115526	0.359753	0.796074	
0.5	0	0.6	
0.493012	-0.0833019	0.655211	
0.393693	-0.0146265	0.683142	
0.417761	0.0130281	0.59815	
0.110158	-0.209083	0.5	
0.05	-0.216667	0.5	
0.116472	-0.275537	0.565587	
0.0797732	-0.172712	0.582888	
-0.450285	0.217356	0.644698	
-0.4284	0.257824	0.704976	
-0.470916	0.168043	0.699874	
-0.357252	0.187897	0.739185	
0.415735	0.277785	1	
0.388274	0.315029	0.920807	
0.439458	0.238488	0.924308	
0.328092	0.270243	1	
0.110158	-0.209083	0.5	
0.14329	-0.268365	0.5	
0.175555	-0.22133	0.5	
0.116472	-0.275537	0.565587	
-0.240455	0.234106	0.5	
-0.181479	0.221098	0.584819	
-0.270598	0.271491	0.600584	
-0.247844	0.169866	0.575357	
-0.359322	0.070805	0.5	
-0.403225	0.114629	0.5	
-0.422892	0.0550581	0.5	
-0.364126	0.107425	0.596298	
-0.428195	0.258165	0.798245	
-0.4284	0.257824	0.704976	
-0.376757	0.328716	0.753532	
-0.357252	0.187897	0.739185	
-0.17825	0.257762	0.661466	
-0.181479	0.221098	0.584819	
-0.179918	0.142525	0.617274	
-0.225046	0.183718	0.683937	
-0.00425413	0.131001	1	
0.0903521	0.10545	1	
0.0209546	0.0362755	1	
0.0378724	0.109427	0.891855	
-0.332433	-0.136577	0.5	
-0.377437	-0.0892306	0.5	
-0.411745	-0.136955	0.5	
-0.370241	-0.156649	0.594441	
-0.220651	0.0125647	0.740031	
-0.203542	-0.0724399	0.653763	
-0.198991	0.0214385	0.631757	
-0.14275	-0.0105591	0.697053	
0.428195	-0.258165	0.798245	
0.436762	-0.243391	0.903062	
0.469721	-0.171353	0.838334	
0.344185	-0.180158	0.894872	
-0.144862	-0.478555	0.921652	
-0.171353	-0.469721	0.838334	
-0.243391	-0.436762	0.903062	
-0.156768	-0.340879	0.911535	
-0.048473	-0.0328568	1	
0.0136102	-0.0944981	0.903895	
-0.0232782	-0.127584	1	
-0.0858575	-0.0573451	0.909067	
0.255435	-0.105455	0.5	
0.3	-0.05	0.5	
0.216667	-0.05	0.5	
0.272064	-0.0681442	0.59838	
-0.495101	0.0698189	0.572379	
-0.422954	-0.00233139	0.5	
-0.422892	0.0550581	0.5	
-0.416699	0.00631676	0.584325	
0.0722049	-0.334139	0.5	
0.0305468	-0.374084	0.5	
0.0892306	-0.377437	0.5	
0.0545279	-0.357398	0.586263	
0.216667	0.05	0.5	
0.279144	0.0168063	0.5	
0.295217	0.00291132	0.558405	
0.21299	-0.0111081	0.575703	
-0.281543	-0.0750159	0.710149	
-0.220651	0.0125647	0.740031	
-0.182236	-0.0903375	0.74647	
-0.203542	-0.0724399	0.653763	
0.495101	-0.0698189	0.572379	
0.39071	-0.0800656	0.604798	
0.493012	-0.0833019	0.655211	
0.417761	0.0130281	0.59815	
0.321855	-0.254144	0.5	
0.439458	-0.238488	0.575692	
0.368447	-0.183279	0.5	
0.329947	-0.238467	0.603405	
0.0550581	0.422892	0.5	
0.0217786	0.376393	0.5	
0.070805	0.359322	0.5	
0.0222826	0.353795	0.558177	
0.175	-0.00200732	0.5	
0.133333	-0.05	0.5	
0.216667	-0.05	0.5	
0.21299	-0.0111081	0.575703	
-0.478555	0.144862	0.921652	
-0.493389	0.0810399	0.85285	
-0.369146	0.1248	0.88989	
-0.404225	0.0311984	0.902579	
-0.353553	-0.353553	1	
-0.386476	-0.317233	0.909527	
-0.331361	-0.272953	1	
-0.317197	-0.386505	0.931175	
0.359322	-0.070805	0.5	
0.422892	-0.0550581	0.5	
0.376393	-0.0217786	0.5	
0.353795	-0.0222826	0.558177	
-0.46194	0.191342	0.5	
-0.439458	0.238488	0.575692	
-0.476114	0.152694	0.59754	
-0.368447	0.183279	0.5	
0.439458	-0.238488	0.575692	
0.46194	-0.191342	0.5	
0.368447	-0.183279	0.5	
0.476114	-0.152694	0.59754	
-0.0734441	0.0616893	1	
-0.124832	0.0586014	0.906551	
-0.0983601	0.156434	1	
-0.0565371	0.130102	0.914035	
-0.415735	-0.277785	1	
-0.440961	-0.235698	0.931431	
-0.356684	-0.19351	1	
-0.331361	-0.272953	1	
0.428195	-0.258165	0.798245	
0.4284	-0.257824	0.704976	
0.376757	-0.328716	0.753532	
0.309086	-0.228865	0.737481	
-0.146853	0.477948	0.584008	
-0.228991	0.444481	0.591901	
-0.136955	0.411745	0.5	
-0.129243	0.372125	0.588708	
-0.0788669	0.0768903	0.663116	
-0.0557779	-0.00339833	0.72595	
0.0134301	0.0589223	0.678402	
-0.0173799	0.0733829	0.771387	
0.5	0	0.7	
0.393693	-0.0146265	0.683142	
0.493389	0.0810399	0.64715	
0.417761	0.0130281	0.59815	
-0.164797	-0.0240318	0.828417	
-0.230911	0.053351	0.887346	
-0.266891	-0.0501392	0.812706	
-0.243062	-0.0438203	0.910197	
0.153328	0.47591	0.59237	
0.168734	0.470668	0.701781	
0.0807477	0.493437	0.654224	
0.0827402	0.389706	0.606734	
0.0378724	0.109427	0.891855	
0.0295128	0.209804	0.905326	
-0.0435837	0.153197	0.818477	
-0.0565371	0.130102	0.914035	
-0.0584891	0.437042	0.5	
-0.00233139	0.422954	0.5	
0	0.5	0.5	
-0.0376575	0.408608	0.57511	
0.153328	0.47591	0.59237	
0.183279	0.368447	0.5	
0.235698	0.440961	0.568569	
0.19252	0.354505	0.600343	
0.374084	0.0305468	0.5	
0.357398	0.0545279	0.558521	
0.353795	-0.0222826	0.558177	
0.417761	0.0130281	0.59815	
0.0854243	-0.492649	0.748597	
0.0814864	-0.493315	0.652319	
0	-0.5	0.7	
0.0170927	-0.420241	0.640557	
-0.279144	0.0168063	0.5	
-0.3	0.05	0.5	
-0.31384	0.0131388	0.5	
-0.334766	0.0144004	0.563203	
-0.19595	0.28972	0.5	
-0.265223	0.319213	0.5	
-0.240455	0.234106	0.5	
-0.270598	0.271491	0.600584	
0.328092	0.270243	1	
0.353553	0.353553	1	
0.388274	0.315029	0.920807	
0.296275	0.264777	0.897601	
0.478555	0.144862	0.578348	
0.411745	0.136955	0.5	
0.437042	0.0584891	0.5	
0.38867	0.101377	0.601055	
0.5	0	0.6	
0.495293	0.0684459	0.568597	
0.422954	0.00233139	0.5	
0.417761	0.0130281	0.59815	
-0.331361	-0.272953	1	
-0.263582	-0.319413	1	
-0.353553	-0.353553	1	
-0.317197	-0.386505	0.931175	
-0.05	0.05	0.5	
-0.108424	0.10302	0.5	
-0.133333	0.05	0.5	
-0.124864	0.0783821	0.585361	
0.176835	-0.0957025	0.888175	
0.153768	-0.209711	0.888749	
0.0815829	-0.137875	0.832541	
0.200293	-0.156985	0.812694	
0.156778	0.139117	0.5	
0.166493	0.210048	0.5	
0.104344	0.174965	0.5	
0.112623	0.215093	0.576525	
-0.353553	0.353553	1	
-0.273315	0.334955	1	
-0.386505	0.317197	0.931175	
-0.317233	0.386476	0.909527	
-0.386792	-0.316847	0.801384	
-0.437078	-0.242822	0.847009	
-0.318327	-0.225041	0.895751	
-0.307536	-0.237004	0.795298	
0.114055	0.374109	1	
0.189613	0.313662	1	
0.138051	0.361812	0.873206	
0.223912	0.340615	0.913264	
-0.0734441	0.0616893	1	
-0.16685	0.0883447	1	
-0.0983601	0.156434	1	
-0.124832	0.0586014	0.906551	
-0.235698	0.440961	0.931431	
-0.277785	0.415735	1	
-0.273315	0.334955	1	
-0.201912	0.369986	1	
-0.237047	0.0201392	1	
-0.257956	0.116321	1	
-0.16685	0.0883447	1	
-0.230911	0.053351	0.887346	
0.174523	-0.0723952	0.765964	
0.145586	0.022498	0.744291	
0.190324	0.0393932	0.833873	
0.255406	-0.0213367	0.790897	
-0.353553	-0.353553	0.5	
-0.315029	-0.388274	0.579193	
-0.254144	-0.321855	0.5	
-0.319213	-0.265223	0.5	
-0.476114	0.152694	0.59754	
-0.403225	0.114629	0.5	
-0.46194	0.191342	0.5	
-0.368447	0.183279	0.5	
0.476114	-0.152694	0.59754	
0.46194	-0.191342	0.5	
0.368447	-0.183279	0.5	
0.403225	-0.114629	0.5	
-0.353553	0.353553	0.5	
-0.265223	0.319213	0.5	
-0.388274	0.315029	0.579193	
-0.321855	0.254144	0.5	
0.353553	-0.353553	0.5	
0.388274	-0.315029	0.579193	
0.321855	-0.254144	0.5	
0.265223	-0.319213	0.5	
-0.5	0	1	
-0.401548	-0.0423374	1	
-0.5	0	0.9	
-0.404225	0.0311984	0.902579	
0.439458	-0.238488	0.575692	
0.321855	-0.254144	0.5	
0.415735	-0.277785	0.5	
0.329947	-0.238467	0.603405	
-0.331361	-0.272953	1	
-0.318327	-0.225041	0.895751	
-0.261345	-0.230036	1	
-0.258725	-0.308783	0.897858	
0.25658	0.429146	0.83124	
0.228991	0.444481	0.908099	
0.138051	0.361812	0.873206	
0.223912	0.340615	0.913264	
0.415735	-0.277785	1	
0.386505	-0.317197	0.931175	
0.314857	-0.257449	1	
0.380207	-0.19708	1	
-0.179918	0.142525	0.617274	
-0.225046	0.183718	0.683937	
-0.181479	0.221098	0.584819	
-0.247844	0.169866	0.575357	
0.3	0.05	0.5	
0.257817	0.0951035	0.5	
0.216667	0.05	0.5	
0.281543	0.0750159	0.578871	
-0.3	0.05	0.5	
-0.255435	0.105455	0.5	
-0.327662	0.113303	0.5	
-0.268836	0.0809708	0.594884	
0.469721	0.171353	0.661666	
0.436762	0.243391	0.596938	
0.478555	0.144862	0.578348	
0.38867	0.101377	0.601055	
-0.321855	0.254144	0.5	
-0.270598	0.271491	0.600584	
-0.388274	0.315029	0.579193	
-0.351055	0.232374	0.591168	
0.190324	0.0393932	0.833873	
0.258755	0.0906035	0.896517	
0.177848	0.156277	0.877262	
0.130088	0.0681493	0.912467	
-0.172599	-0.285692	0.5	
-0.0912866	-0.293514	0.577692	
-0.105455	-0.255435	0.5	
-0.172932	-0.247597	0.585974	
0.261819	0.319027	1	
0.3168	0.386831	0.895903	
0.296275	0.264777	0.897601	
0.223912	0.340615	0.913264	
0.394936	-0.119803	1	
0.409478	-0.032947	1	
0.495293	-0.0684459	0.931403	
0.382055	-0.0743662	0.891735	
-0.0555676	0.325574	1	
-0.0295403	0.225144	1	
-0.119993	0.246691	1	
-0.0640422	0.245911	0.888875	
-0.00425413	0.131001	1	
0.0295128	0.209804	0.905326	
0.0378724	0.109427	0.891855	
-0.0565371	0.130102	0.914035	
0.436762	0.243391	0.596938	
0.46194	0.191342	0.5	
0.478555	0.144862	0.578348	
0.411745	0.136955	0.5	
-0.353553	0.353553	1	
-0.273315	0.334955	1	
-0.318983	0.261743	1	
-0.386505	0.317197	0.931175	
0.174678	0.468495	0.817109	
0.146853	0.477948	0.915992	
0.0814864	0.493315	0.847681	
0.138051	0.361812	0.873206	
0	0.35	0.5	
0.0217786	0.376393	0.5	
-0.0305468	0.374084	0.5	
0.0222826	0.353795	0.558177	
-0.337562	0.0547633	1	
-0.426463	0.0441363	1	
-0.404541	0.126945	1	
-0.404225	0.0311984	0.902579	
-0.478555	0.144862	0.921652	
-0.495293	0.0684459	0.931403	
-0.493389	0.0810399	0.85285	
-0.404225	0.0311984	0.902579	
-0.335355	0.0353553	0.5	
-0.31384	0.0131388	0.5	
-0.3	0.05	0.5	
-0.334766	0.0144004	0.563203	
0.210048	-0.166493	0.5	
0.255435	-0.105455	0.5	
0.174965	-0.104344	0.5	
0.24957	-0.148488	0.574982	
0.136955	-0.411745	0.5	
0.146853	-0.477948	0.584008	
0.228991	-0.444481	0.591901	
0.159651	-0.364489	0.598434	
-0.263582	-0.319413	1	
-0.156768	-0.340879	0.911535	
-0.203173	-0.373024	1	
-0.258725	-0.308783	0.897858	
0.376393	-0.0217786	0.5	
0.374084	0.0305468	0.5	
0.35	0	0.5	
0.353795	-0.0222826	0.558177	
-0.386505	0.317197	0.931175	
-0.380873	0.323938	0.847739	
-0.317233	0.386476	0.909527	
-0.25253	0.295971	0.897838	
0.258333	-0.0120439	0.5	
0.216667	-0.05	0.5	
0.3	-0.05	0.5	
0.272064	-0.0681442	0.59838	
-0.19595	0.28972	0.5	
-0.240455	0.234106	0.5	
-0.175555	0.22133	0.5	
-0.181479	0.221098	0.584819	
0.0584891	-0.437042	0.5	
0	-0.5	0.5	
0.0728232	-0.494668	0.573541	
0.00233139	-0.422954	0.5	
-0.0913051	-8.8983e-18	0.5	
-0.17494	-0.00200732	0.5	
-0.133333	-0.05	0.5	
-0.104309	-0.0175295	0.603853	
-0.216667	0.05	0.5	
-0.255435	0.105455	0.5	
-0.3	0.05	0.5	
-0.268836	0.0809708	0.594884	
0.0781685	0.124409	0.653995	
0.0877437	0.0690174	0.581458	
0.0989017	0.0145443	0.654463	
0.0134301	0.0589223	0.678402	
-0.254144	-0.321855	0.5	
-0.315029	-0.388274	0.579193	
-0.277785	-0.415735	0.5	
-0.238488	-0.439458	0.575692	
-0.319213	-0.265223	0.5	
-0.234106	-0.240455	0.5	
-0.28972	-0.19595	0.5	
-0.267754	-0.225502	0.603013	
-0.357398	-0.0545279	0.581884	
-0.334766	0.0144004	0.563203	
-0.334766	0.0144004	0.629791	
-0.259968	-0.0294564	0.588658	
-0.174965	0.104344	0.5	
-0.108424	0.10302	0.5	
-0.139117	0.156778	0.5	
-0.124864	0.0783821	0.585361	
0.495293	0.0684459	0.568597	
0.38867	0.101377	0.601055	
0.437042	0.0584891	0.5	
0.417761	0.0130281	0.59815	
0.184962	0.0799289	1	
0.0903521	0.10545	1	
0.158056	0.171884	1	
0.130088	0.0681493	0.912467	
0.353553	-0.353553	1	
0.268393	-0.334301	1	
0.314857	-0.257449	1	
0.386505	-0.317197	0.931175	
0.242822	-0.437078	0.847009	
0.317233	-0.386476	0.909527	
0.316847	-0.386792	0.801384	
0.205413	-0.339549	0.892186	
-0.5	0	0.7	
-0.492649	-0.0854243	0.748597	
-0.493315	-0.0814864	0.652319	
-0.396738	-0.0922406	0.663051	
-0.220651	0.0125647	0.740031	
-0.182236	-0.0903375	0.74647	
-0.164797	-0.0240318	0.828417	
-0.266891	-0.0501392	0.812706	
-0.337562	0.0547633	1	
-0.404541	0.126945	1	
-0.369146	0.1248	0.88989	
-0.404225	0.0311984	0.902579	
-0.182236	-0.0903375	0.74647	
-0.203542	-0.0724399	0.653763	
-0.220651	0.0125647	0.740031	
-0.14275	-0.0105591	0.697053	
-0.228991	0.444481	0.591901	
-0.202831	0.368925	0.5	
-0.191342	0.46194	0.5	
-0.136955	0.411745	0.5	
0.202831	-0.368925	0.5	
0.191342	-0.46194	0.5	
0.228991	-0.444481	0.591901	
0.136955	-0.411745	0.5	
-0.46194	-0.191342	0.5	
-0.411745	-0.136955	0.5	
-0.444481	-0.228991	0.591901	
-0.368925	-0.202831	0.5	
-0.190903	-0.246146	0.678266	
-0.2387	-0.321065	0.626825	
-0.267754	-0.225502	0.603013	
-0.172932	-0.247597	0.585974	
-0.307291	0.177008	0.64695	
-0.351055	0.232374	0.591168	
-0.270598	0.271491	0.600584	
-0.247844	0.169866	0.575357	
0.0854243	0.492649	0.751403	
0	0.5	0.8	
0	0.5	0.7	
-0.0218361	0.398667	0.744009	
0.235698	0.440961	0.568569	
0.183279	0.368447	0.5	
0.254144	0.321855	0.5	
0.19252	0.354505	0.600343	
0.388274	0.315029	0.920807	
0.353553	0.353553	1	
0.3168	0.386831	0.895903	
0.296275	0.264777	0.897601	
-0.389036	0.207425	1	
-0.328307	0.16356	1	
-0.404541	0.126945	1	
-0.369146	0.1248	0.88989	
-0.0854243	0.492649	0.748597	
-0.0814864	0.493315	0.652319	
0	0.5	0.7	
-0.0218361	0.398667	0.744009	
-0.240455	0.234106	0.5	
-0.210048	0.166493	0.5	
-0.175555	0.22133	0.5	
-0.181479	0.221098	0.584819	
-0.364126	0.107425	0.596298	
-0.416699	0.00631676	0.584325	
-0.334766	0.0144004	0.629791	
-0.401952	0.0654763	0.671747	
-0.281543	-0.0750159	0.710149	
-0.182236	-0.0903375	0.74647	
-0.220651	0.0125647	0.740031	
-0.266891	-0.0501392	0.812706	
0.0704482	-0.495012	0.928155	
0.153328	-0.47591	0.90763	
0.0807477	-0.493437	0.845776	
0.0415638	-0.384519	0.881679	
0.335355	0.0353553	0.5	
0.35	0	0.5	
0.374084	0.0305468	0.5	
0.357398	0.0545279	0.558521	
0.5	0	1	
0.5	0	0.9	
0.414991	0.0495125	1	
0.495101	0.0698189	0.927621	
-0.317233	0.386476	0.909527	
-0.277785	0.415735	1	
-0.273315	0.334955	1	
-0.235698	0.440961	0.931431	
-0.494668	-0.0728232	0.573541	
-0.5	0	0.6	
-0.493315	-0.0814864	0.652319	
-0.416699	0.00631676	0.584325	
-0.243391	-0.436762	0.903062	
-0.191342	-0.46194	1	
-0.144862	-0.478555	0.921652	
-0.203173	-0.373024	1	
-0.0698189	-0.495101	0.572379	
-0.114629	-0.403225	0.5	
-0.152694	-0.476114	0.59754	
-0.0656658	-0.406088	0.605213	
-0.152694	-0.476114	0.59754	
-0.183279	-0.368447	0.5	
-0.191342	-0.46194	0.5	
-0.238488	-0.439458	0.575692	
-0.0913051	-8.8983e-18	0.5	
-0.133333	-0.05	0.5	
-0.05	-0.05	0.5	
-0.104309	-0.0175295	0.603853	
0.201164	-0.273578	1	
0.194604	-0.371188	1	
0.112799	-0.33356	1	
0.205413	-0.339549	0.892186	
0.0704482	0.495012	0.571845	
0.0827402	0.389706	0.606734	
0.0807477	0.493437	0.654224	
0.00685904	0.408881	0.656439	
0.422892	-0.0550581	0.5	
0.403225	-0.114629	0.5	
0.495101	-0.0698189	0.572379	
0.39071	-0.0800656	0.604798	
0.174678	0.468495	0.817109	
0.0854243	0.492649	0.751403	
0.168734	0.470668	0.701781	
0.106564	0.358516	0.753234	
-0.228991	0.444481	0.591901	
-0.146853	0.477948	0.584008	
-0.174678	0.468495	0.682891	
-0.129243	0.372125	0.588708	
-0.5	0	0.7	
-0.385513	-0.0181868	0.734694	
-0.492649	-0.0854243	0.748597	
-0.396738	-0.0922406	0.663051	
0.261819	0.319027	1	
0.296275	0.264777	0.897601	
0.231243	0.24169	1	
0.223912	0.340615	0.913264	
0.114055	0.374109	1	
0.202324	0.378521	1	
0.146853	0.477948	0.915992	
0.191342	0.46194	1	
0.272064	-0.0681442	0.59838	
0.353795	-0.0222826	0.558177	
0.3	-0.05	0.5	
0.295217	0.00291132	0.558405	
0.388274	-0.315029	0.579193	
0.439458	-0.238488	0.575692	
0.415735	-0.277785	0.5	
0.329947	-0.238467	0.603405	
-0.070805	-0.359322	0.5	
-0.114629	-0.403225	0.5	
-0.0550581	-0.422892	0.5	
-0.0656658	-0.406088	0.605213	
0.495293	-0.0684459	0.931403	
0.478555	-0.144862	0.921652	
0.394936	-0.119803	1	
0.382055	-0.0743662	0.891735	
-0.191342	-0.46194	0.5	
-0.183279	-0.368447	0.5	
-0.152694	-0.476114	0.59754	
-0.114629	-0.403225	0.5	
0.5	0	0.5	
0.495101	-0.0698189	0.572379	
0.5	0	0.6	
0.422954	0.00233139	0.5	
0.114629	0.403225	0.5	
0.191342	0.46194	0.5	
0.153328	0.47591	0.59237	
0.183279	0.368447	0.5	
-0.5	0	0.5	
-0.422954	-0.00233139	0.5	
-0.495101	0.0698189	0.572379	
-0.416699	0.00631676	0.584325	
0.202324	0.378521	1	
0.228991	0.444481	0.908099	
0.146853	0.477948	0.915992	
0.191342	0.46194	1	
0.0550581	0.422892	0.5	
0.114629	0.403225	0.5	
0.0704482	0.495012	0.571845	
0.0827402	0.389706	0.606734	
0.0728232	0.494668	0.926459	
0.0420691	0.427134	1	
0.114055	0.374109	1	
0.0975452	0.490393	1	
0.476114	-0.152694	0.59754	
0.495101	-0.0698189	0.572379	
0.403225	-0.114629	0.5	
0.39071	-0.0800656	0.604798	
-0.168688	-0.281701	1	
-0.127689	-0.241885	0.89237	
-0.0638367	-0.295761	1	
-0.156768	-0.340879	0.911535	
-0.476114	0.152694	0.59754	
-0.470916	0.168043	0.699874	
-0.493012	0.0833019	0.655211	
-0.401952	0.0654763	0.671747	
0.108424	-0.10302	0.5	
0.0851262	-0.069993	0.591553	
0.05	-0.133333	0.5	
0.0797732	-0.172712	0.582888	
-0.2387	-0.321065	0.626825	
-0.191043	-0.351595	0.71168	
-0.190903	-0.246146	0.678266	
-0.276638	-0.296057	0.718432	
0.332433	0.136577	0.5	
0.368925	0.202831	0.5	
0.28972	0.19595	0.5	
0.327747	0.217533	0.591075	
-0.0698189	-0.495101	0.572379	
-0.0550581	-0.422892	0.5	
-0.114629	-0.403225	0.5	
-0.0656658	-0.406088	0.605213	
-0.386498	-0.317206	0.700322	
-0.386792	-0.316847	0.801384	
-0.328716	-0.376757	0.753532	
-0.276638	-0.296057	0.718432	
0.153328	-0.47591	0.90763	
0.191342	-0.46194	1	
0.235698	-0.440961	0.931431	
0.125573	-0.41396	1	
0.376757	0.328716	0.746468	
0.380873	0.323938	0.652261	
0.428195	0.258165	0.701755	
0.316638	0.224466	0.734195	
-0.0814864	0.493315	0.652319	
-0.0376575	0.408608	0.57511	
0	0.5	0.6	
0.00685904	0.408881	0.656439	
-0.0728232	0.494668	0.573541	
-0.0975452	0.490393	0.5	
-0.0584891	0.437042	0.5	
-0.136955	0.411745	0.5	
0.0584891	-0.437042	0.5	
0.0728232	-0.494668	0.573541	
0.0975452	-0.490393	0.5	
0.136955	-0.411745	0.5	
-0.3168	0.386831	0.604097	
-0.374193	0.331632	0.665357	
-0.388274	0.315029	0.579193	
-0.270598	0.271491	0.600584	
0.470916	-0.168043	0.699874	
0.460548	-0.194667	0.76567	
0.490343	-0.0977967	0.758774	
0.366266	-0.0917065	0.74426	
-0.492649	-0.0854243	0.748597	
-0.385513	-0.0181868	0.734694	
-0.369358	-0.124566	0.75116	
-0.396738	-0.0922406	0.663051	
0.3	0.05	0.5	
0.31384	0.0131388	0.5	
0.335355	0.0353553	0.5	
0.295217	0.00291132	0.558405	
-0.237047	0.0201392	1	
-0.142648	-0.00714059	1	
-0.211369	-0.0761151	1	
-0.243062	-0.0438203	0.910197	
0.493012	-0.0833019	0.655211	
0.490343	-0.0977967	0.758774	
0.5	0	0.7	
0.393693	-0.0146265	0.683142	
0	0.5	0.6	
0	0.5	0.5	
-0.00233139	0.422954	0.5	
-0.0376575	0.408608	0.57511	
-0.331361	-0.272953	1	
-0.261345	-0.230036	1	
-0.263582	-0.319413	1	
-0.258725	-0.308783	0.897858	
0.46194	0.191342	1	
0.373926	0.198925	1	
0.439458	0.238488	0.924308	
0.370295	0.150924	0.909678	
-0.429146	-0.25658	0.66876	
-0.444481	-0.228991	0.591901	
-0.468495	-0.174678	0.682891	
-0.370241	-0.156649	0.594441	
0.495101	-0.0698189	0.572379	
0.493012	-0.0833019	0.655211	
0.5	0	0.6	
0.417761	0.0130281	0.59815	
0.05	0.133333	0.5	
0.00200732	0.174835	0.5	
-4.34906e-18	0.0906746	0.5	
-0.00961934	0.119858	0.599022	
0.436762	0.243391	0.596938	
0.415735	0.277785	0.5	
0.368925	0.202831	0.5	
0.327747	0.217533	0.591075	
0.25658	-0.429146	0.66876	
0.228991	-0.444481	0.591901	
0.174678	-0.468495	0.682891	
0.159651	-0.364489	0.598434	
0	0.5	0.6	
-0.00233139	0.422954	0.5	
0	0.5	0.5	
0.0704482	0.495012	0.571845	
-0.477948	-0.146853	0.584008	
-0.444481	-0.228991	0.591901	
-0.411745	-0.136955	0.5	
-0.370241	-0.156649	0.594441	
0.235698	-0.440961	0.931431	
0.242822	-0.437078	0.847009	
0.153328	-0.47591	0.90763	
0.205413	-0.339549	0.892186	
0.437042	0.0584891	0.5	
0.495293	0.0684459	0.568597	
0.478555	0.144862	0.578348	
0.38867	0.101377	0.601055	
-0.386476	-0.317233	0.909527	
-0.386792	-0.316847	0.801384	
-0.437078	-0.242822	0.847009	
-0.318327	-0.225041	0.895751	
0.439458	-0.238488	0.575692	
0.368447	-0.183279	0.5	
0.415735	-0.277785	0.5	
0.321855	-0.254144	0.5	
-0.183279	-0.368447	0.5	
-0.254144	-0.321855	0.5	
-0.277785	-0.415735	0.5	
-0.238488	-0.439458	0.575692	
-0.495012	-0.0704482	0.928155	
-0.5	0	1	
-0.401548	-0.0423374	1	
-0.5	0	0.9	
0.258333	-0.0120439	0.5	
0.216667	-0.05	0.5	
0.272064	-0.0681442	0.59838	
0.21299	-0.0111081	0.575703	
0.5	0	1	
0.495293	-0.0684459	0.931403	
0.409478	-0.032947	1	
0.5	0	0.9	
-0.5	0	0.5	
-0.494668	-0.0728232	0.573541	
-0.437042	-0.0584891	0.5	
-0.416699	0.00631676	0.584325	
0.495293	0.0684459	0.568597	
0.5	0	0.5	
0.5	0	0.6	
0.422954	0.00233139	0.5	
0	-0.5	0.5	
-0.0698189	-0.495101	0.572379	
0	-0.5	0.6	
0.00233139	-0.422954	0.5	
0.235698	0.440961	0.568569	
0.153328	0.47591	0.59237	
0.191342	0.46194	0.5	
0.183279	0.368447	0.5	
-0.165932	-0.151801	0.614298	
-0.203542	-0.0724399	0.653763	
-0.275537	-0.116472	0.607416	
-0.232732	-0.157842	0.680234	
0.0420691	0.427134	1	
0	0.5	0.9	
0.0728232	0.494668	0.926459	
0.045063	0.398304	0.900567	
0.235698	-0.440961	0.931431	
0.277785	-0.415735	1	
0.317233	-0.386476	0.909527	
0.268393	-0.334301	1	
0.0222826	0.353795	0.558177	
-0.0376575	0.408608	0.57511	
-0.0144004	0.334766	0.60495	
0.00685904	0.408881	0.656439	
-0.048473	-0.0328568	1	
0.0461078	-0.0584269	1	
-0.0232782	-0.127584	1	
0.0136102	-0.0944981	0.903895	
-0.281543	-0.0750159	0.710149	
-0.369358	-0.124566	0.75116	
-0.385513	-0.0181868	0.734694	
-0.396738	-0.0922406	0.663051	
0.277785	-0.415735	1	
0.235698	-0.440961	0.931431	
0.194604	-0.371188	1	
0.268393	-0.334301	1	
-0.3	-0.05	0.5	
-0.258333	-0.0120439	0.5	
-0.307123	-0.0146863	0.5	
-0.259968	-0.0294564	0.588658	
0.174678	0.468495	0.817109	
0.25658	0.429146	0.83124	
0.228991	0.444481	0.908099	
0.138051	0.361812	0.873206	
-0.386792	-0.316847	0.801384	
-0.434698	-0.247057	0.749501	
-0.437078	-0.242822	0.847009	
-0.307536	-0.237004	0.795298	
0.209083	0.110158	0.5	
0.268365	0.14329	0.5	
0.22133	0.175555	0.5	
0.257762	0.17825	0.572115	
0	-0.5	0.9	
0.0404524	-0.41072	1	
0	-0.5	1	
0.0704482	-0.495012	0.928155	
0.376757	0.328716	0.746468	
0.428195	0.258165	0.701755	
0.4284	0.257824	0.795024	
0.316638	0.224466	0.734195	
0.279144	0.0168063	0.5	
0.3	0.05	0.5	
0.216667	0.05	0.5	
0.281543	0.0750159	0.578871	
-0.328716	-0.376757	0.753532	
-0.257824	-0.4284	0.704976	
-0.331632	-0.374193	0.665357	
-0.276638	-0.296057	0.718432	
0.422954	0.00233139	0.5	
0.495293	0.0684459	0.568597	
0.5	0	0.5	
0.437042	0.0584891	0.5	
0.0704482	0.495012	0.571845	
0.0807477	0.493437	0.654224	
0	0.5	0.6	
0.00685904	0.408881	0.656439	
0.469721	-0.171353	0.838334	
0.478555	-0.144862	0.921652	
0.493389	-0.0810399	0.85285	
0.382055	-0.0743662	0.891735	
0	-0.5	0.6	
0.0728232	-0.494668	0.573541	
0	-0.5	0.5	
0.00233139	-0.422954	0.5	
0.216667	0.05	0.5	
0.258333	-0.0120439	0.5	
0.279144	0.0168063	0.5	
0.21299	-0.0111081	0.575703	
-0.318983	0.261743	1	
-0.415735	0.277785	1	
-0.386505	0.317197	0.931175	
-0.389036	0.207425	1	
0.108424	-0.10302	0.5	
0.05	-0.05	0.5	
0.05	-0.133333	0.5	
0.0851262	-0.069993	0.591553	
-0.389036	0.207425	1	
-0.46194	0.191342	1	
-0.478555	0.144862	0.921652	
-0.404541	0.126945	1	
0.46194	-0.191342	1	
0.380207	-0.19708	1	
0.478555	-0.144862	0.921652	
0.436762	-0.243391	0.903062	
-0.119993	0.246691	1	
-0.0983601	0.156434	1	
-0.18644	0.1823	1	
-0.172627	0.234526	0.919455	
0.0827402	0.389706	0.606734	
0.0222826	0.353795	0.558177	
-0.0144004	0.334766	0.60495	
0.00685904	0.408881	0.656439	
0.201164	-0.273578	1	
0.0943468	-0.245334	1	
0.164797	-0.177585	1	
0.153768	-0.209711	0.888749	
-0.261345	-0.230036	1	
-0.168688	-0.281701	1	
-0.263582	-0.319413	1	
-0.258725	-0.308783	0.897858	
-0.388274	0.315029	0.579193	
-0.374193	0.331632	0.665357	
-0.415735	0.277785	0.634138	
-0.351055	0.232374	0.591168	
-0.110158	0.209083	0.5	
-0.175555	0.22133	0.5	
-0.139117	0.156778	0.5	
-0.181479	0.221098	0.584819	
0.277785	0.415735	0.5	
0.317233	0.386476	0.590473	
0.235698	0.440961	0.568569	
0.254144	0.321855	0.5	
-0.493012	0.0833019	0.655211	
-0.5	0	0.7	
-0.5	0	0.6	
-0.401952	0.0654763	0.671747	
0.334766	0.0144004	0.60495	
0.39071	-0.0800656	0.604798	
0.353795	-0.0222826	0.558177	
0.417761	0.0130281	0.59815	
-0.113303	-0.327662	0.5	
-0.105455	-0.255435	0.5	
-0.172599	-0.285692	0.5	
-0.0912866	-0.293514	0.577692	
-0.201912	0.369986	1	
-0.118932	0.39861	1	
-0.138674	0.323797	1	
-0.124209	0.359991	0.89696	
-0.492649	-0.0854243	0.748597	
-0.369358	-0.124566	0.75116	
-0.468495	-0.174678	0.682891	
-0.396738	-0.0922406	0.663051	
-0.477948	-0.146853	0.584008	
-0.468495	-0.174678	0.682891	
-0.370241	-0.156649	0.594441	
-0.396738	-0.0922406	0.663051	
-0.210048	0.166493	0.5	
-0.181479	0.221098	0.584819	
-0.240455	0.234106	0.5	
-0.247844	0.169866	0.575357	
0.110158	-0.209083	0.5	
0.171958	-0.1808	0.606406	
0.139117	-0.156778	0.5	
0.0797732	-0.172712	0.582888	
-0.168688	-0.281701	1	
-0.156768	-0.340879	0.911535	
-0.263582	-0.319413	1	
-0.258725	-0.308783	0.897858	
0.0854243	-0.492649	0.748597	
0.174678	-0.468495	0.682891	
0.0814864	-0.493315	0.652319	
0.0848114	-0.374635	0.706588	
-0.0372406	0.417791	1	
0.0420691	0.427134	1	
0.0153159	0.363557	1	
0.045063	0.398304	0.900567	
-0.117671	-0.10197	1	
-0.048473	-0.0328568	1	
-0.0232782	-0.127584	1	
-0.0858575	-0.0573451	0.909067	
0.46194	0.191342	1	
0.476114	0.152694	0.90246	
0.414183	0.131147	1	
0.370295	0.150924	0.909678	
0.114629	0.403225	0.5	
0.153328	0.47591	0.59237	
0.0704482	0.495012	0.571845	
0.0827402	0.389706	0.606734	
-0.477948	-0.146853	0.584008	
-0.494668	-0.0728232	0.573541	
-0.493315	-0.0814864	0.652319	
-0.396738	-0.0922406	0.663051	
-0.263582	-0.319413	1	
-0.168688	-0.281701	1	
-0.203173	-0.373024	1	
-0.156768	-0.340879	0.911535	
-0.302044	-0.0506462	1	
-0.211369	-0.0761151	1	
-0.278713	-0.14304	1	
-0.243062	-0.0438203	0.910197	
0.436762	0.243391	0.596938	
0.386505	0.317197	0.568825	
0.415735	0.277785	0.5	
0.327747	0.217533	0.591075	
0.388274	-0.315029	0.579193	
0.415735	-0.277785	0.5	
0.321855	-0.254144	0.5	
0.329947	-0.238467	0.603405	
0.05	0.133333	0.5	
0.05	0.05	0.5	
0.10302	0.108424	0.5	
0.0877437	0.0690174	0.581458	
-0.261345	-0.230036	1	
-0.356684	-0.19351	1	
-0.278713	-0.14304	1	
-0.318327	-0.225041	0.895751	
-0.404541	0.126945	1	
-0.490393	0.0975452	1	
-0.495293	0.0684459	0.931403	
-0.426463	0.0441363	1	
-0.273315	0.334955	1	
-0.214341	0.273759	1	
-0.318983	0.261743	1	
-0.25253	0.295971	0.897838	
0.5	0	0.7	
0.5	0	0.6	
0.393693	-0.0146265	0.683142	
0.417761	0.0130281	0.59815	
-0.0232782	-0.127584	1	
0.0461078	-0.0584269	1	
0.0712814	-0.153152	1	
0.0136102	-0.0944981	0.903895	
-0.114467	-0.386332	1	
-0.144862	-0.478555	0.921652	
-0.191342	-0.46194	1	
-0.203173	-0.373024	1	
-0.317197	-0.386505	0.931175	
-0.277785	-0.415735	1	
-0.243391	-0.436762	0.903062	
-0.203173	-0.373024	1	
-0.216667	-0.05	0.5	
-0.258333	-0.0120439	0.5	
-0.3	-0.05	0.5	
-0.259968	-0.0294564	0.588658	
0.0550581	0.422892	0.5	
0.070805	0.359322	0.5	
0.114629	0.403225	0.5	
0.0827402	0.389706	0.606734	
0.189613	0.313662	1	
0.223912	0.340615	0.913264	
0.231243	0.24169	1	
0.169783	0.254878	0.90212	
-0.277785	-0.415735	1	
-0.317197	-0.386505	0.931175	
-0.263582	-0.319413	1	
-0.203173	-0.373024	1	
0.146853	-0.477948	0.584008	
0.228991	-0.444481	0.591901	
0.191342	-0.46194	0.5	
0.136955	-0.411745	0.5	
-0.146853	0.477948	0.584008	
-0.228991	0.444481	0.591901	
-0.191342	0.46194	0.5	
-0.136955	0.411745	0.5	
-0.46194	-0.191342	0.5	
-0.411745	-0.136955	0.5	
-0.477948	-0.146853	0.584008	
-0.444481	-0.228991	0.591901	
0.368447	-0.183279	0.5	
0.285692	-0.172599	0.5	
0.321855	-0.254144	0.5	
0.329947	-0.238467	0.603405	
0.258333	-0.0120439	0.5	
0.272064	-0.0681442	0.59838	
0.3	-0.05	0.5	
0.295217	0.00291132	0.558405	
-0.436762	0.243391	0.903062	
-0.386505	0.317197	0.931175	
-0.415735	0.277785	1	
-0.389036	0.207425	1	
-0.0555676	0.325574	1	
-0.138674	0.323797	1	
-0.118932	0.39861	1	
-0.124209	0.359991	0.89696	
0.374193	0.331632	0.834643	
0.415735	0.277785	0.865862	
0.388274	0.315029	0.920807	
0.296275	0.264777	0.897601	
-0.0422582	-0.437473	1	
-0.114467	-0.386332	1	
-0.0684459	-0.495293	0.931403	
-0.0975452	-0.490393	1	
0.335355	0.0353553	0.5	
0.295217	0.00291132	0.558405	
0.353795	-0.0222826	0.558177	
0.357398	0.0545279	0.558521	
0.495101	-0.0698189	0.572379	
0.5	0	0.5	
0.422892	-0.0550581	0.5	
0.422954	0.00233139	0.5	
-0.168043	-0.470916	0.699874	
-0.217356	-0.450285	0.644698	
-0.257824	-0.4284	0.704976	
-0.191043	-0.351595	0.71168	
-0.228991	0.444481	0.591901	
-0.174678	0.468495	0.682891	
-0.25658	0.429146	0.66876	
-0.21408	0.346313	0.633756	
0.232997	-0.11062	1	
0.210156	-0.0147965	1	
0.314271	-0.0501881	1	
0.262288	-0.0152307	0.900549	
0.258333	-0.0120439	0.5	
0.295217	0.00291132	0.558405	
0.279144	0.0168063	0.5	
0.21299	-0.0111081	0.575703	
-0.0969866	-0.088866	0.682079	
-0.203542	-0.0724399	0.653763	
-0.182236	-0.0903375	0.74647	
-0.14275	-0.0105591	0.697053	
0.05	-0.05	0.5	
0.108424	-0.10302	0.5	
0.133333	-0.05	0.5	
0.0851262	-0.069993	0.591553	
0.0975452	0.490393	1	
0.114055	0.374109	1	
0.0728232	0.494668	0.926459	
0.146853	0.477948	0.915992	
-0.478555	0.144862	0.921652	
-0.436762	0.243391	0.903062	
-0.46194	0.191342	1	
-0.389036	0.207425	1	
0.258333	-0.0120439	0.5	
0.272064	-0.0681442	0.59838	
0.295217	0.00291132	0.558405	
0.21299	-0.0111081	0.575703	
0.422892	-0.0550581	0.5	
0.359322	-0.070805	0.5	
0.403225	-0.114629	0.5	
0.39071	-0.0800656	0.604798	
-0.070805	-0.359322	0.5	
-0.05	-0.3	0.5	
-0.113303	-0.327662	0.5	
-0.0912866	-0.293514	0.577692	
-0.0704482	0.495012	0.928155	
0	0.5	0.9	
0	0.5	1	
-0.0372406	0.417791	1	
-0.411745	-0.136955	0.5	
-0.437042	-0.0584891	0.5	
-0.490393	-0.0975452	0.5	
-0.494668	-0.0728232	0.573541	
0.05	-0.05	0.5	
0.133333	-0.05	0.5	
0.0916667	9.90691e-18	0.5	
0.0851262	-0.069993	0.591553	
-0.194667	-0.460548	0.76567	
-0.257824	-0.4284	0.704976	
-0.258165	-0.428195	0.798245	
-0.191043	-0.351595	0.71168	
0.469721	-0.171353	0.838334	
0.436762	-0.243391	0.903062	
0.478555	-0.144862	0.921652	
0.344185	-0.180158	0.894872	
0.5	0	0.7	
0.5	0	0.6	
0.493012	-0.0833019	0.655211	
0.393693	-0.0146265	0.683142	
-0.166493	-0.210048	0.5	
-0.172599	-0.285692	0.5	
-0.105455	-0.255435	0.5	
-0.172932	-0.247597	0.585974	
-0.331632	-0.374193	0.665357	
-0.277785	-0.415735	0.634138	
-0.315029	-0.388274	0.579193	
-0.2387	-0.321065	0.626825	
-0.470668	-0.168734	0.798219	
-0.434698	-0.247057	0.749501	
-0.468495	-0.174678	0.682891	
-0.369358	-0.124566	0.75116	
-0.469721	0.171353	0.838334	
-0.478555	0.144862	0.921652	
-0.493389	0.0810399	0.85285	
-0.369146	0.1248	0.88989	
0	-0.5	0.6	
-0.0656658	-0.406088	0.605213	
-0.0833019	-0.493012	0.655211	
0.0170927	-0.420241	0.640557	
0.0704482	0.495012	0.571845	
-0.00233139	0.422954	0.5	
0	0.5	0.5	
0.0550581	0.422892	0.5	
0.136955	-0.411745	0.5	
0.202831	-0.368925	0.5	
0.136577	-0.332433	0.5	
0.159651	-0.364489	0.598434	
-0.0698189	-0.495101	0.572379	
0	-0.5	0.5	
-0.0550581	-0.422892	0.5	
0.00233139	-0.422954	0.5	
-0.422892	0.0550581	0.5	
-0.5	0	0.5	
-0.422954	-0.00233139	0.5	
-0.495101	0.0698189	0.572379	
-0.374084	-0.0305468	0.5	
-0.377437	-0.0892306	0.5	
-0.334139	-0.0722049	0.5	
-0.357398	-0.0545279	0.581884	
0.470916	0.168043	0.800126	
0.460548	0.194667	0.73433	
0.490343	0.0977967	0.741226	
0.363042	0.112521	0.74989	
-0.214953	0.122747	0.749953	
-0.189541	0.216222	0.763213	
-0.132843	0.148259	0.702998	
-0.225046	0.183718	0.683937	
-0.281543	-0.0750159	0.710149	
-0.275537	-0.116472	0.607416	
-0.203542	-0.0724399	0.653763	
-0.232732	-0.157842	0.680234	
0.5	0	0.7	
0.493389	0.0810399	0.64715	
0.5	0	0.6	
0.417761	0.0130281	0.59815	
-0.337562	0.0547633	1	
-0.404541	0.126945	1	
-0.328307	0.16356	1	
-0.369146	0.1248	0.88989	
0.334766	0.0144004	0.60495	
0.353795	-0.0222826	0.558177	
0.272064	-0.0681442	0.59838	
0.295217	0.00291132	0.558405	
0.493389	0.0810399	0.64715	
0.38867	0.101377	0.601055	
0.495293	0.0684459	0.568597	
0.417761	0.0130281	0.59815	
0.327662	-0.113303	0.5	
0.255435	-0.105455	0.5	
0.285692	-0.172599	0.5	
0.24957	-0.148488	0.574982	
0.0651412	0.200096	1	
-0.00425413	0.131001	1	
-0.0295403	0.225144	1	
0.0295128	0.209804	0.905326	
-0.0983601	0.156434	1	
-0.0295403	0.225144	1	
-0.00425413	0.131001	1	
-0.0565371	0.130102	0.914035	
0.478555	-0.144862	0.921652	
0.380207	-0.19708	1	
0.46194	-0.191342	1	
0.394936	-0.119803	1	
0.201164	-0.273578	1	
0.268393	-0.334301	1	
0.194604	-0.371188	1	
0.205413	-0.339549	0.892186	
0.136577	-0.332433	0.5	
0.14329	-0.268365	0.5	
0.101011	-0.298593	0.5	
0.116472	-0.275537	0.565587	
0.328092	0.270243	1	
0.300884	0.198715	1	
0.231243	0.24169	1	
0.296275	0.264777	0.897601	
-0.5	0	0.6	
-0.495101	0.0698189	0.572379	
-0.493012	0.0833019	0.655211	
-0.416699	0.00631676	0.584325	
-0.0584891	0.437042	0.5	
0	0.5	0.5	
-0.0728232	0.494668	0.573541	
-0.0376575	0.408608	0.57511	
0.276476	0.0535537	1	
0.247868	0.146306	1	
0.337634	0.115561	1	
0.258755	0.0906035	0.896517	
0.240455	-0.234106	0.5	
0.285692	-0.172599	0.5	
0.210048	-0.166493	0.5	
0.24957	-0.148488	0.574982	
0.334766	0.0144004	0.60495	
0.393693	-0.0146265	0.683142	
0.39071	-0.0800656	0.604798	
0.417761	0.0130281	0.59815	
0.0814864	0.493315	0.847681	
0.146853	0.477948	0.915992	
0.0728232	0.494668	0.926459	
0.045063	0.398304	0.900567	
0.439458	0.238488	0.924308	
0.476114	0.152694	0.90246	
0.46194	0.191342	1	
0.370295	0.150924	0.909678	
-0.00233139	0.422954	0.5	
-0.0305468	0.374084	0.5	
0.0222826	0.353795	0.558177	
-0.0376575	0.408608	0.57511	
0.172599	0.285692	0.5	
0.254144	0.321855	0.5	
0.183279	0.368447	0.5	
0.19252	0.354505	0.600343	
-0.359322	0.070805	0.5	
-0.327662	0.113303	0.5	
-0.403225	0.114629	0.5	
-0.364126	0.107425	0.596298	
0.146853	-0.477948	0.584008	
0.0975452	-0.490393	0.5	
0.0728232	-0.494668	0.573541	
0.136955	-0.411745	0.5	
-0.0975452	0.490393	0.5	
-0.0728232	0.494668	0.573541	
-0.146853	0.477948	0.584008	
-0.136955	0.411745	0.5	
0.346509	0.0237889	1	
0.314271	-0.0501881	1	
0.276476	0.0535537	1	
0.262288	-0.0152307	0.900549	
0.146853	-0.477948	0.584008	
0.174678	-0.468495	0.682891	
0.228991	-0.444481	0.591901	
0.159651	-0.364489	0.598434	
0.314857	-0.257449	1	
0.313791	-0.154465	1	
0.380207	-0.19708	1	
0.344185	-0.180158	0.894872	
-0.5	0	0.5	
-0.5	0	0.6	
-0.494668	-0.0728232	0.573541	
-0.416699	0.00631676	0.584325	
0.189613	0.313662	1	
0.261819	0.319027	1	
0.231243	0.24169	1	
0.223912	0.340615	0.913264	
-0.0925337	-0.196451	1	
-0.168688	-0.281701	1	
-0.186407	-0.169451	1	
-0.127689	-0.241885	0.89237	
0.296275	0.264777	0.897601	
0.223912	0.340615	0.913264	
0.223611	0.287945	0.822031	
0.169783	0.254878	0.90212	
0.0704482	-0.495012	0.928155	
0.0807477	-0.493437	0.845776	
0	-0.5	0.9	
0.0415638	-0.384519	0.881679	
0.228991	0.444481	0.908099	
0.146853	0.477948	0.915992	
0.174678	0.468495	0.817109	
0.138051	0.361812	0.873206	
0.276476	0.0535537	1	
0.184962	0.0799289	1	
0.247868	0.146306	1	
0.258755	0.0906035	0.896517	
-0.136577	0.332433	0.5	
-0.136955	0.411745	0.5	
-0.202831	0.368925	0.5	
-0.129243	0.372125	0.588708	
-0.281543	-0.0750159	0.710149	
-0.203542	-0.0724399	0.653763	
-0.182236	-0.0903375	0.74647	
-0.232732	-0.157842	0.680234	
-0.469721	0.171353	0.838334	
-0.436762	0.243391	0.903062	
-0.478555	0.144862	0.921652	
-0.369146	0.1248	0.88989	
0.183279	0.368447	0.5	
0.277785	0.415735	0.5	
0.235698	0.440961	0.568569	
0.254144	0.321855	0.5	
-0.168688	-0.281701	1	
-0.0925337	-0.196451	1	
-0.0638367	-0.295761	1	
-0.127689	-0.241885	0.89237	
-0.401548	-0.0423374	1	
-0.426463	0.0441363	1	
-0.337562	0.0547633	1	
-0.404225	0.0311984	0.902579	
0.298593	0.101011	0.5	
0.257817	0.0951035	0.5	
0.3	0.05	0.5	
0.281543	0.0750159	0.578871	
0.314271	-0.0501881	1	
0.409478	-0.032947	1	
0.394936	-0.119803	1	
0.382055	-0.0743662	0.891735	
-0.368447	0.183279	0.5	
-0.403225	0.114629	0.5	
-0.327662	0.113303	0.5	
-0.364126	0.107425	0.596298	
0.35	0	0.5	
0.353795	-0.0222826	0.558177	
0.374084	0.0305468	0.5	
0.357398	0.0545279	0.558521	
0.394936	-0.119803	1	
0.490393	-0.0975452	1	
0.495293	-0.0684459	0.931403	
0.409478	-0.032947	1	
-0.118932	0.39861	1	
-0.0704482	0.495012	0.928155	
-0.0975452	0.490393	1	
-0.0372406	0.417791	1	
0.245477	-0.191651	1	
0.164797	-0.177585	1	
0.232997	-0.11062	1	
0.243698	-0.168497	0.902816	
0.0420691	0.427134	1	
0	0.5	0.9	
0	0.5	1	
0.0728232	0.494668	0.926459	
0.380873	0.323938	0.652261	
0.386505	0.317197	0.568825	
0.436762	0.243391	0.596938	
0.327747	0.217533	0.591075	
0.374084	0.0305468	0.5	
0.437042	0.0584891	0.5	
0.377437	0.0892306	0.5	
0.357398	0.0545279	0.558521	
-4.34906e-18	0.0906746	0.5	
0.00200732	0.174835	0.5	
-0.05	0.133333	0.5	
-0.00961934	0.119858	0.599022	
0.223611	0.287945	0.822031	
0.223912	0.340615	0.913264	
0.138051	0.361812	0.873206	
0.169783	0.254878	0.90212	
0.328092	0.270243	1	
0.231243	0.24169	1	
0.261819	0.319027	1	
0.296275	0.264777	0.897601	
0.313791	-0.154465	1	
0.394936	-0.119803	1	
0.380207	-0.19708	1	
0.344185	-0.180158	0.894872	
-0.334766	0.0144004	0.629791	
-0.334766	0.0144004	0.563203	
-0.357398	-0.0545279	0.581884	
-0.416699	0.00631676	0.584325	
0.0458333	0.00416667	0.749305	
0.0134301	0.0589223	0.678402	
-0.0557779	-0.00339833	0.72595	
-0.0173799	0.0733829	0.771387	
0.495293	-0.0684459	0.931403	
0.493389	-0.0810399	0.85285	
0.478555	-0.144862	0.921652	
0.382055	-0.0743662	0.891735	
0.373926	0.198925	1	
0.337634	0.115561	1	
0.300884	0.198715	1	
0.370295	0.150924	0.909678	
0.05	0.3	0.5	
0.0222826	0.353795	0.558177	
0.0146863	0.307123	0.5	
-0.00291132	0.295217	0.558405	
-0.468495	-0.174678	0.682891	
-0.492649	-0.0854243	0.748597	
-0.470668	-0.168734	0.798219	
-0.369358	-0.124566	0.75116	
-0.25658	0.429146	0.66876	
-0.317206	0.386498	0.700322	
-0.3168	0.386831	0.604097	
-0.21408	0.346313	0.633756	
-0.470916	0.168043	0.699874	
-0.490343	0.0977967	0.758774	
-0.493012	0.0833019	0.655211	
-0.401952	0.0654763	0.671747	
-0.16685	0.0883447	1	
-0.0734441	0.0616893	1	
-0.142648	-0.00714059	1	
-0.124832	0.0586014	0.906551	
-0.0892306	0.377437	0.5	
-0.136955	0.411745	0.5	
-0.136577	0.332433	0.5	
-0.129243	0.372125	0.588708	
-0.490343	0.0977967	0.758774	
-0.5	0	0.7	
-0.493012	0.0833019	0.655211	
-0.401952	0.0654763	0.671747	
-0.142648	-0.00714059	1	
-0.048473	-0.0328568	1	
-0.117671	-0.10197	1	
-0.0858575	-0.0573451	0.909067	
0	0.5	0.7	
-0.0814864	0.493315	0.652319	
0	0.5	0.6	
0.00685904	0.408881	0.656439	
0.133074	0.264097	1	
0.231243	0.24169	1	
0.158056	0.171884	1	
0.169783	0.254878	0.90212	
-0.261345	-0.230036	1	
-0.331361	-0.272953	1	
-0.356684	-0.19351	1	
-0.318327	-0.225041	0.895751	
-0.439458	0.238488	0.575692	
-0.415735	0.277785	0.634138	
-0.450285	0.217356	0.644698	
-0.351055	0.232374	0.591168	
-0.444481	-0.228991	0.591901	
-0.477948	-0.146853	0.584008	
-0.468495	-0.174678	0.682891	
-0.370241	-0.156649	0.594441	
-0.440961	-0.235698	0.931431	
-0.386476	-0.317233	0.909527	
-0.437078	-0.242822	0.847009	
-0.318327	-0.225041	0.895751	
0.070805	0.359322	0.5	
0.0217786	0.376393	0.5	
0.0353553	0.335355	0.5	
0.0222826	0.353795	0.558177	
-0.0422582	-0.437473	1	
0	-0.5	1	
-0.0684459	-0.495293	0.931403	
0	-0.5	0.9	
0.3168	0.386831	0.895903	
0.261819	0.319027	1	
0.277785	0.415735	1	
0.223912	0.340615	0.913264	
-0.411745	-0.136955	0.5	
-0.368925	-0.202831	0.5	
-0.332433	-0.136577	0.5	
-0.370241	-0.156649	0.594441	
-0.5	0	0.7	
-0.5	0	0.8	
-0.492649	-0.0854243	0.748597	
-0.385513	-0.0181868	0.734694	
0.359322	-0.070805	0.5	
0.376393	-0.0217786	0.5	
0.335355	-0.0353553	0.5	
0.353795	-0.0222826	0.558177	
-0.321855	0.254144	0.5	
-0.368447	0.183279	0.5	
-0.285692	0.172599	0.5	
-0.351055	0.232374	0.591168	
-0.0975452	-0.490393	1	
-0.114467	-0.386332	1	
-0.0684459	-0.495293	0.931403	
-0.144862	-0.478555	0.921652	
-0.265223	0.319213	0.5	
-0.321855	0.254144	0.5	
-0.240455	0.234106	0.5	
-0.270598	0.271491	0.600584	
0.388274	-0.315029	0.579193	
0.374193	-0.331632	0.665357	
0.415735	-0.277785	0.634138	
0.329947	-0.238467	0.603405	
-0.168043	-0.470916	0.699874	
-0.257824	-0.4284	0.704976	
-0.194667	-0.460548	0.76567	
-0.191043	-0.351595	0.71168	
-0.478555	0.144862	0.921652	
-0.404541	0.126945	1	
-0.490393	0.0975452	1	
-0.495293	0.0684459	0.931403	
0	0.5	0.6	
-0.0728232	0.494668	0.573541	
0	0.5	0.5	
-0.0376575	0.408608	0.57511	
0.490393	0.0975452	1	
0.495101	0.0698189	0.927621	
0.414991	0.0495125	1	
0.414183	0.131147	1	
-0.234106	-0.240455	0.5	
-0.172599	-0.285692	0.5	
-0.166493	-0.210048	0.5	
-0.172932	-0.247597	0.585974	
0.490393	-0.0975452	1	
0.495293	-0.0684459	0.931403	
0.478555	-0.144862	0.921652	
0.394936	-0.119803	1	
0.3	0.05	0.5	
0.295217	0.00291132	0.558405	
0.335355	0.0353553	0.5	
0.357398	0.0545279	0.558521	
0.282439	-0.104966	0.83613	
0.176835	-0.0957025	0.888175	
0.200293	-0.156985	0.812694	
0.243698	-0.168497	0.902816	
-0.415735	0.277785	0.5	
-0.439458	0.238488	0.575692	
-0.368447	0.183279	0.5	
-0.351055	0.232374	0.591168	
-0.422954	-0.00233139	0.5	
-0.376393	0.0217786	0.5	
-0.422892	0.0550581	0.5	
-0.416699	0.00631676	0.584325	
-0.0704482	0.495012	0.928155	
-0.0975452	0.490393	1	
-0.153328	0.47591	0.90763	
-0.118932	0.39861	1	
-0.477948	-0.146853	0.584008	
-0.411745	-0.136955	0.5	
-0.490393	-0.0975452	0.5	
-0.494668	-0.0728232	0.573541	
0	0.5	0.6	
-0.0814864	0.493315	0.652319	
-0.0728232	0.494668	0.573541	
-0.0376575	0.408608	0.57511	
-0.18644	0.1823	1	
-0.26105	0.203399	1	
-0.214341	0.273759	1	
-0.172627	0.234526	0.919455	
-0.5	0	0.5	
-0.495101	0.0698189	0.572379	
-0.5	0	0.6	
-0.416699	0.00631676	0.584325	
0.253273	-0.249599	0.843605	
0.200293	-0.156985	0.812694	
0.153768	-0.209711	0.888749	
0.243698	-0.168497	0.902816	
-0.492649	-0.0854243	0.748597	
-0.468495	-0.174678	0.682891	
-0.493315	-0.0814864	0.652319	
-0.396738	-0.0922406	0.663051	
0.153768	-0.209711	0.888749	
0.200293	-0.156985	0.812694	
0.176835	-0.0957025	0.888175	
0.243698	-0.168497	0.902816	
0.110158	-0.209083	0.5	
0.0951035	-0.257817	0.5	
0.14329	-0.268365	0.5	
0.116472	-0.275537	0.565587	
0	0.5	0.8	
-0.0854243	0.492649	0.748597	
0	0.5	0.7	
-0.0218361	0.398667	0.744009	
0.242822	0.437078	0.652991	
0.235698	0.440961	0.568569	
0.317233	0.386476	0.590473	
0.19252	0.354505	0.600343	
0.3168	0.386831	0.895903	
0.374193	0.331632	0.834643	
0.388274	0.315029	0.920807	
0.296275	0.264777	0.897601	
0.490393	0.0975452	0.5	
0.478555	0.144862	0.578348	
0.411745	0.136955	0.5	
0.437042	0.0584891	0.5	
0.0975452	-0.490393	1	
0.0404524	-0.41072	1	
0.125573	-0.41396	1	
0.0704482	-0.495012	0.928155	
-0.138674	0.323797	1	
-0.119993	0.246691	1	
-0.214341	0.273759	1	
-0.172627	0.234526	0.919455	
-0.211369	-0.0761151	1	
-0.117671	-0.10197	1	
-0.186407	-0.169451	1	
-0.170347	-0.112486	0.899727	
0.153328	0.47591	0.59237	
0.235698	0.440961	0.568569	
0.242822	0.437078	0.652991	
0.19252	0.354505	0.600343	
0.228991	0.444481	0.908099	
0.277785	0.415735	1	
0.202324	0.378521	1	
0.223912	0.340615	0.913264	
0.0401436	0.291204	1	
0.0651412	0.200096	1	
-0.0295403	0.225144	1	
0.0295128	0.209804	0.905326	
-0.477948	-0.146853	0.584008	
-0.493315	-0.0814864	0.652319	
-0.468495	-0.174678	0.682891	
-0.396738	-0.0922406	0.663051	
0.114055	0.374109	1	
0.0153159	0.363557	1	
0.0420691	0.427134	1	
0.045063	0.398304	0.900567	
0.414183	0.131147	1	
0.490393	0.0975452	1	
0.495101	0.0698189	0.927621	
0.476114	0.152694	0.90246	
-0.0698189	-0.495101	0.572379	
-0.0975452	-0.490393	0.5	
-0.152694	-0.476114	0.59754	
-0.114629	-0.403225	0.5	
-0.495101	0.0698189	0.572379	
-0.403225	0.114629	0.5	
-0.490393	0.0975452	0.5	
-0.476114	0.152694	0.59754	
0.476114	-0.152694	0.59754	
0.495101	-0.0698189	0.572379	
0.490393	-0.0975452	0.5	
0.403225	-0.114629	0.5	
-0.168688	-0.281701	1	
-0.0638367	-0.295761	1	
-0.114467	-0.386332	1	
-0.156768	-0.340879	0.911535	
0.232997	-0.11062	1	
0.313791	-0.154465	1	
0.245477	-0.191651	1	
0.243698	-0.168497	0.902816	
-0.174965	0.104344	0.5	
-0.133333	0.05	0.5	
-0.108424	0.10302	0.5	
-0.124864	0.0783821	0.585361	
0.05	-0.133333	0.5	
0.00200732	-0.17494	0.5	
0.05	-0.216667	0.5	
0.0797732	-0.172712	0.582888	
-0.323938	-0.380873	0.847739	
-0.317197	-0.386505	0.931175	
-0.243391	-0.436762	0.903062	
-0.258725	-0.308783	0.897858	
0.388274	-0.315029	0.579193	
0.415735	-0.277785	0.634138	
0.439458	-0.238488	0.575692	
0.329947	-0.238467	0.603405	
0.307123	-0.0146863	0.5	
0.3	-0.05	0.5	
0.353795	-0.0222826	0.558177	
0.295217	0.00291132	0.558405	
-0.386476	-0.317233	0.909527	
-0.317197	-0.386505	0.931175	
-0.323938	-0.380873	0.847739	
-0.258725	-0.308783	0.897858	
0.166493	0.210048	0.5	
0.105455	0.255435	0.5	
0.104344	0.174965	0.5	
0.112623	0.215093	0.576525	
0.202324	0.378521	1	
0.277785	0.415735	1	
0.261819	0.319027	1	
0.223912	0.340615	0.913264	
-0.00425413	0.131001	1	
-0.0734441	0.0616893	1	
-0.0983601	0.156434	1	
-0.0565371	0.130102	0.914035	
-0.470916	0.168043	0.699874	
-0.4284	0.257824	0.704976	
-0.460548	0.194667	0.76567	
-0.357252	0.187897	0.739185	
0.493389	0.0810399	0.64715	
0.469721	0.171353	0.661666	
0.478555	0.144862	0.578348	
0.38867	0.101377	0.601055	
0.184962	0.0799289	1	
0.115537	0.0107471	1	
0.0903521	0.10545	1	
0.130088	0.0681493	0.912467	
0.210156	-0.0147965	1	
0.276476	0.0535537	1	
0.314271	-0.0501881	1	
0.262288	-0.0152307	0.900549	
0.450285	0.217356	0.855302	
0.476114	0.152694	0.90246	
0.439458	0.238488	0.924308	
0.370295	0.150924	0.909678	
-0.401548	-0.0423374	1	
-0.41072	-0.12459	1	
-0.490393	-0.0975452	1	
-0.495012	-0.0704482	0.928155	
0.108424	-0.10302	0.5	
0.05	-0.133333	0.5	
0.139117	-0.156778	0.5	
0.0797732	-0.172712	0.582888	
-0.0584891	0.437042	0.5	
-0.0892306	0.377437	0.5	
-0.0305468	0.374084	0.5	
-0.0376575	0.408608	0.57511	
0	0.5	0.7	
0	0.5	0.6	
0.0807477	0.493437	0.654224	
0.00685904	0.408881	0.656439	
0.334139	0.0722049	0.5	
0.3	0.05	0.5	
0.335355	0.0353553	0.5	
0.357398	0.0545279	0.558521	
0.261819	0.319027	1	
0.3168	0.386831	0.895903	
0.277785	0.415735	1	
0.353553	0.353553	1	
0.0975452	0.490393	0.5	
0.153328	0.47591	0.59237	
0.0704482	0.495012	0.571845	
0.114629	0.403225	0.5	
0.242822	-0.437078	0.847009	
0.235698	-0.440961	0.931431	
0.317233	-0.386476	0.909527	
0.205413	-0.339549	0.892186	
-0.415735	0.277785	0.5	
-0.368447	0.183279	0.5	
-0.321855	0.254144	0.5	
-0.351055	0.232374	0.591168	
-0.41072	-0.12459	1	
-0.490393	-0.0975452	1	
-0.495012	-0.0704482	0.928155	
-0.47591	-0.153328	0.90763	
0.114629	0.403225	0.5	
0.0704482	0.495012	0.571845	
0.0975452	0.490393	0.5	
0.0550581	0.422892	0.5	
0.3	0.05	0.5	
0.281543	0.0750159	0.578871	
0.279144	0.0168063	0.5	
0.295217	0.00291132	0.558405	
-0.319213	-0.265223	0.5	
-0.415735	-0.277785	0.5	
-0.353553	-0.353553	0.5	
-0.386831	-0.3168	0.604097	
-0.265223	0.319213	0.5	
-0.277785	0.415735	0.5	
-0.353553	0.353553	0.5	
-0.3168	0.386831	0.604097	
0.3168	-0.386831	0.604097	
0.353553	-0.353553	0.5	
0.277785	-0.415735	0.5	
0.265223	-0.319213	0.5	
0.493389	0.0810399	0.64715	
0.478555	0.144862	0.578348	
0.495293	0.0684459	0.568597	
0.38867	0.101377	0.601055	
0	-0.5	0.7	
0	-0.5	0.6	
-0.0833019	-0.493012	0.655211	
0.0170927	-0.420241	0.640557	
-0.0550581	-0.422892	0.5	
-0.0975452	-0.490393	0.5	
-0.0698189	-0.495101	0.572379	
-0.114629	-0.403225	0.5	
0.422892	-0.0550581	0.5	
0.490393	-0.0975452	0.5	
0.495101	-0.0698189	0.572379	
0.403225	-0.114629	0.5	
-0.422892	0.0550581	0.5	
-0.403225	0.114629	0.5	
-0.490393	0.0975452	0.5	
-0.495101	0.0698189	0.572379	
0.478555	0.144862	0.578348	
0.490393	0.0975452	0.5	
0.495293	0.0684459	0.568597	
0.437042	0.0584891	0.5	
0.334766	0.0144004	0.60495	
0.357398	0.0545279	0.558521	
0.38867	0.101377	0.601055	
0.417761	0.0130281	0.59815	
-0.0833019	-0.493012	0.655211	
0	-0.5	0.6	
-0.0698189	-0.495101	0.572379	
-0.0656658	-0.406088	0.605213	
-0.328716	-0.376757	0.753532	
-0.331632	-0.374193	0.665357	
-0.386498	-0.317206	0.700322	
-0.276638	-0.296057	0.718432	
0.125573	-0.41396	1	
0.153328	-0.47591	0.90763	
0.0975452	-0.490393	1	
0.0704482	-0.495012	0.928155	
0.104344	0.174965	0.5	
0.105455	0.255435	0.5	
0.05	0.216667	0.5	
0.112623	0.215093	0.576525	
-0.415735	0.277785	0.5	
-0.321855	0.254144	0.5	
-0.388274	0.315029	0.579193	
-0.351055	0.232374	0.591168	
-0.210048	0.166493	0.5	
-0.285692	0.172599	0.5	
-0.255435	0.105455	0.5	
-0.247844	0.169866	0.575357	
0	0.35	0.5	
0.0353553	0.335355	0.5	
0.0217786	0.376393	0.5	
0.0222826	0.353795	0.558177	
0.228991	0.444481	0.908099	
0.3168	0.386831	0.895903	
0.277785	0.415735	1	
0.223912	0.340615	0.913264	
0.146853	0.477948	0.915992	
0.0975452	0.490393	1	
0.114055	0.374109	1	
0.191342	0.46194	1	
0.335355	-0.0353553	0.5	
0.376393	-0.0217786	0.5	
0.35	0	0.5	
0.353795	-0.0222826	0.558177	
0.0728232	0.494668	0.926459	
0	0.5	0.9	
0.0814864	0.493315	0.847681	
0.045063	0.398304	0.900567	
-0.191342	0.46194	1	
-0.153328	0.47591	0.90763	
-0.0975452	0.490393	1	
-0.118932	0.39861	1	
-0.403225	0.114629	0.5	
-0.46194	0.191342	0.5	
-0.490393	0.0975452	0.5	
-0.476114	0.152694	0.59754	
0.490393	-0.0975452	0.5	
0.46194	-0.191342	0.5	
0.476114	-0.152694	0.59754	
0.403225	-0.114629	0.5	
0.436762	0.243391	0.596938	
0.415735	0.277785	0.5	
0.46194	0.191342	0.5	
0.368925	0.202831	0.5	
0.373926	0.198925	1	
0.414183	0.131147	1	
0.337634	0.115561	1	
0.370295	0.150924	0.909678	
-0.495293	0.0684459	0.931403	
-0.5	0	0.9	
-0.493389	0.0810399	0.85285	
-0.404225	0.0311984	0.902579	
0.153328	0.47591	0.59237	
0.0807477	0.493437	0.654224	
0.0704482	0.495012	0.571845	
0.0827402	0.389706	0.606734	
0.495101	-0.0698189	0.572379	
0.476114	-0.152694	0.59754	
0.493012	-0.0833019	0.655211	
0.39071	-0.0800656	0.604798	
0.28972	0.19595	0.5	
0.368925	0.202831	0.5	
0.319213	0.265223	0.5	
0.327747	0.217533	0.591075	
-0.428195	0.258165	0.798245	
-0.460548	0.194667	0.76567	
-0.4284	0.257824	0.704976	
-0.357252	0.187897	0.739185	
-0.105455	-0.255435	0.5	
-0.113303	-0.327662	0.5	
-0.05	-0.3	0.5	
-0.0912866	-0.293514	0.577692	
0.10302	0.108424	0.5	
0.05	0.05	0.5	
0.133333	0.05	0.5	
0.0877437	0.0690174	0.581458	
0.133074	0.264097	1	
0.189613	0.313662	1	
0.231243	0.24169	1	
0.169783	0.254878	0.90212	
0.0975452	0.490393	0.5	
0.191342	0.46194	0.5	
0.153328	0.47591	0.59237	
0.114629	0.403225	0.5	
0.258333	-0.0120439	0.5	
0.216667	0.05	0.5	
0.175	-0.00200732	0.5	
0.21299	-0.0111081	0.575703	
0.3168	0.386831	0.895903	
0.228991	0.444481	0.908099	
0.25658	0.429146	0.83124	
0.223912	0.340615	0.913264	
0.28972	0.19595	0.5	
0.234106	0.240455	0.5	
0.22133	0.175555	0.5	
0.257762	0.17825	0.572115	
-0.331361	-0.272953	1	
-0.415735	-0.277785	1	
-0.386476	-0.317233	0.909527	
-0.353553	-0.353553	1	
-0.3168	0.386831	0.604097	
-0.228991	0.444481	0.591901	
-0.25658	0.429146	0.66876	
-0.21408	0.346313	0.633756	
-0.439458	0.238488	0.575692	
-0.415735	0.277785	0.5	
-0.388274	0.315029	0.579193	
-0.351055	0.232374	0.591168	
0.228991	-0.444481	0.591901	
0.277785	-0.415735	0.5	
0.191342	-0.46194	0.5	
0.202831	-0.368925	0.5	
-0.202831	0.368925	0.5	
-0.191342	0.46194	0.5	
-0.277785	0.415735	0.5	
-0.228991	0.444481	0.591901	
-0.444481	-0.228991	0.591901	
-0.415735	-0.277785	0.5	
-0.46194	-0.191342	0.5	
-0.368925	-0.202831	0.5	
-0.0975452	-0.490393	0.5	
-0.191342	-0.46194	0.5	
-0.152694	-0.476114	0.59754	
-0.114629	-0.403225	0.5	
0.0951035	-0.257817	0.5	
0.101011	-0.298593	0.5	
0.14329	-0.268365	0.5	
0.116472	-0.275537	0.565587	
0.380207	-0.19708	1	
0.46194	-0.191342	1	
0.415735	-0.277785	1	
0.436762	-0.243391	0.903062	
0.0916667	9.90691e-18	0.5	
0.133333	0.05	0.5	
0.05	0.05	0.5	
0.0877437	0.0690174	0.581458	
-0.285692	0.172599	0.5	
-0.210048	0.166493	0.5	
-0.240455	0.234106	0.5	
-0.247844	0.169866	0.575357	
0.490393	0.0975452	1	
0.414183	0.131147	1	
0.46194	0.191342	1	
0.476114	0.152694	0.90246	
0.3	0.05	0.5	
0.281543	0.0750159	0.578871	
0.295217	0.00291132	0.558405	
0.357398	0.0545279	0.558521	
0.5	0	0.6	
0.493389	0.0810399	0.64715	
0.495293	0.0684459	0.568597	
0.417761	0.0130281	0.59815	
0.05	-0.133333	0.5	
0.05	-0.216667	0.5	
0.110158	-0.209083	0.5	
0.0797732	-0.172712	0.582888	
-0.277785	-0.415735	1	
-0.191342	-0.46194	1	
-0.243391	-0.436762	0.903062	
-0.203173	-0.373024	1	
0.490393	-0.0975452	1	
0.5	0	1	
0.495293	-0.0684459	0.931403	
0.409478	-0.032947	1	
0.353553	-0.353553	1	
0.317233	-0.386476	0.909527	
0.277785	-0.415735	1	
0.268393	-0.334301	1	
-0.273315	0.334955	1	
-0.353553	0.353553	1	
-0.277785	0.415735	1	
-0.317233	0.386476	0.909527	
0.05	-0.133333	0.5	
0.110158	-0.209083	0.5	
0.139117	-0.156778	0.5	
0.0797732	-0.172712	0.582888	
-0.439458	0.238488	0.575692	
-0.46194	0.191342	0.5	
-0.415735	0.277785	0.5	
-0.368447	0.183279	0.5	
0.415735	-0.277785	0.5	
0.46194	-0.191342	0.5	
0.368447	-0.183279	0.5	
0.439458	-0.238488	0.575692	
-0.237047	0.0201392	1	
-0.211369	-0.0761151	1	
-0.302044	-0.0506462	1	
-0.243062	-0.0438203	0.910197	
-0.168688	-0.281701	1	
-0.114467	-0.386332	1	
-0.203173	-0.373024	1	
-0.156768	-0.340879	0.911535	
0.255435	-0.105455	0.5	
0.210048	-0.166493	0.5	
0.285692	-0.172599	0.5	
0.24957	-0.148488	0.574982	
0.191342	-0.46194	1	
0.153328	-0.47591	0.90763	
0.0975452	-0.490393	1	
0.125573	-0.41396	1	
0.317233	0.386476	0.590473	
0.277785	0.415735	0.5	
0.353553	0.353553	0.5	
0.254144	0.321855	0.5	
0.191342	-0.46194	0.5	
0.0975452	-0.490393	0.5	
0.146853	-0.477948	0.584008	
0.136955	-0.411745	0.5	
-0.146853	0.477948	0.584008	
-0.191342	0.46194	0.5	
-0.0975452	0.490393	0.5	
-0.136955	0.411745	0.5	
-0.46194	-0.191342	1	
-0.440961	-0.235698	0.931431	
-0.356684	-0.19351	1	
-0.415735	-0.277785	1	
-0.41072	-0.12459	1	
-0.490393	-0.0975452	1	
-0.47591	-0.153328	0.90763	
-0.46194	-0.191342	1	
0.46194	0.191342	1	
0.439458	0.238488	0.924308	
0.373926	0.198925	1	
0.415735	0.277785	1	
0.0814864	-0.493315	0.652319	
0.0728232	-0.494668	0.573541	
0	-0.5	0.6	
0.0170927	-0.420241	0.640557	
-0.5	0	1	
-0.401548	-0.0423374	1	
-0.490393	-0.0975452	1	
-0.495012	-0.0704482	0.928155	
-0.214341	0.273759	1	
-0.119993	0.246691	1	
-0.18644	0.1823	1	
-0.172627	0.234526	0.919455	
0.268365	0.14329	0.5	
0.28972	0.19595	0.5	
0.22133	0.175555	0.5	
0.257762	0.17825	0.572115	
-0.152694	-0.476114	0.59754	
-0.0833019	-0.493012	0.655211	
-0.0698189	-0.495101	0.572379	
-0.0656658	-0.406088	0.605213	
-0.183279	-0.368447	0.5	
-0.277785	-0.415735	0.5	
-0.191342	-0.46194	0.5	
-0.238488	-0.439458	0.575692	
0.0404524	-0.41072	1	
0.0975452	-0.490393	1	
0	-0.5	1	
0.0704482	-0.495012	0.928155	
-0.46194	0.191342	1	
-0.436762	0.243391	0.903062	
-0.415735	0.277785	1	
-0.389036	0.207425	1	
-0.277785	-0.415735	0.5	
-0.353553	-0.353553	0.5	
-0.315029	-0.388274	0.579193	
-0.254144	-0.321855	0.5	
-0.388274	0.315029	0.579193	
-0.415735	0.277785	0.5	
-0.353553	0.353553	0.5	
-0.321855	0.254144	0.5	
0.415735	-0.277785	0.5	
0.353553	-0.353553	0.5	
0.388274	-0.315029	0.579193	
0.321855	-0.254144	0.5	
0.353795	-0.0222826	0.558177	
0.357398	0.0545279	0.558521	
0.334766	0.0144004	0.60495	
0.417761	0.0130281	0.59815	
0.258333	-0.0120439	0.5	
0.175	-0.00200732	0.5	
0.216667	-0.05	0.5	
0.21299	-0.0111081	0.575703	
0.0120439	0.258333	0.5	
0.05	0.3	0.5	
0.0146863	0.307123	0.5	
-0.00291132	0.295217	0.558405	
0.0814864	-0.493315	0.652319	
0	-0.5	0.6	
0	-0.5	0.7	
0.0170927	-0.420241	0.640557	
-0.144862	-0.478555	0.921652	
-0.0975452	-0.490393	1	
-0.114467	-0.386332	1	
-0.191342	-0.46194	1	
-0.411745	-0.136955	0.5	
-0.490393	-0.0975452	0.5	
-0.46194	-0.191342	0.5	
-0.477948	-0.146853	0.584008	
-0.0704482	0.495012	0.928155	
0	0.5	1	
-0.0975452	0.490393	1	
-0.0372406	0.417791	1	
0.334139	0.0722049	0.5	
0.335355	0.0353553	0.5	
0.374084	0.0305468	0.5	
0.357398	0.0545279	0.558521	
0.386505	-0.317197	0.931175	
0.314857	-0.257449	1	
0.353553	-0.353553	1	
0.415735	-0.277785	1	
0.202324	0.378521	1	
0.228991	0.444481	0.908099	
0.191342	0.46194	1	
0.277785	0.415735	1	
0.495101	0.0698189	0.927621	
0.414991	0.0495125	1	
0.5	0	1	
0.490393	0.0975452	1	
-0.00233139	0.422954	0.5	
-0.0584891	0.437042	0.5	
-0.0305468	0.374084	0.5	
-0.0376575	0.408608	0.57511	
0.334766	0.0144004	0.60495	
0.295217	0.00291132	0.558405	
0.281543	0.0750159	0.578871	
0.357398	0.0545279	0.558521	
-0.353553	0.353553	1	
-0.318983	0.261743	1	
-0.415735	0.277785	1	
-0.386505	0.317197	0.931175	
-0.263582	-0.319413	1	
-0.353553	-0.353553	1	
-0.317197	-0.386505	0.931175	
-0.277785	-0.415735	1	
-0.388274	0.315029	0.579193	
-0.415735	0.277785	0.634138	
-0.439458	0.238488	0.575692	
-0.351055	0.232374	0.591168	
0.490393	-0.0975452	1	
0.478555	-0.144862	0.921652	
0.46194	-0.191342	1	
0.394936	-0.119803	1	
0.307123	-0.0146863	0.5	
0.258333	-0.0120439	0.5	
0.3	-0.05	0.5	
0.295217	0.00291132	0.558405	
0.235698	0.440961	0.568569	
0.191342	0.46194	0.5	
0.277785	0.415735	0.5	
0.183279	0.368447	0.5	
0.191342	-0.46194	1	
0.235698	-0.440961	0.931431	
0.194604	-0.371188	1	
0.277785	-0.415735	1	
-0.0584891	0.437042	0.5	
0	0.5	0.5	
-0.0975452	0.490393	0.5	
-0.0728232	0.494668	0.573541	
0.0728232	-0.494668	0.573541	
0.0975452	-0.490393	0.5	
0	-0.5	0.5	
0.0584891	-0.437042	0.5	
-0.495293	0.0684459	0.931403	
-0.490393	0.0975452	1	
-0.5	0	1	
-0.426463	0.0441363	1	
0.0704482	0.495012	0.571845	
0	0.5	0.5	
0.0975452	0.490393	0.5	
0.0550581	0.422892	0.5	
0.495101	-0.0698189	0.572379	
0.5	0	0.5	
0.490393	-0.0975452	0.5	
0.422892	-0.0550581	0.5	
-0.235698	0.440961	0.931431	
-0.191342	0.46194	1	
-0.277785	0.415735	1	
-0.201912	0.369986	1	
-0.0168063	0.279144	0.5	
0.0146863	0.307123	0.5	
-0.0131388	0.31384	0.5	
-0.00291132	0.295217	0.558405	
0.202324	0.378521	1	
0.261819	0.319027	1	
0.189613	0.313662	1	
0.223912	0.340615	0.913264	
0.415735	0.277785	0.5	
0.353553	0.353553	0.5	
0.319213	0.265223	0.5	
0.386505	0.317197	0.568825	
-0.0550581	-0.422892	0.5	
-0.0975452	-0.490393	0.5	
0	-0.5	0.5	
-0.0698189	-0.495101	0.572379	
-0.422892	0.0550581	0.5	
-0.490393	0.0975452	0.5	
-0.5	0	0.5	
-0.495101	0.0698189	0.572379	
-0.404541	0.126945	1	
-0.46194	0.191342	1	
-0.478555	0.144862	0.921652	
-0.490393	0.0975452	1	
-0.0131388	0.31384	0.5	
-0.05	0.3	0.5	
-0.0168063	0.279144	0.5	
-0.00291132	0.295217	0.558405	
0.328092	0.270243	1	
0.415735	0.277785	1	
0.388274	0.315029	0.920807	
0.353553	0.353553	1	
0.0728232	0.494668	0.926459	
0	0.5	1	
0.0420691	0.427134	1	
0.0975452	0.490393	1	
-0.437042	-0.0584891	0.5	
-0.5	0	0.5	
-0.490393	-0.0975452	0.5	
-0.494668	-0.0728232	0.573541	
0.353795	-0.0222826	0.558177	
0.295217	0.00291132	0.558405	
0.334766	0.0144004	0.60495	
0.357398	0.0545279	0.558521	
-0.0422582	-0.437473	1	
-0.0684459	-0.495293	0.931403	
0	-0.5	1	
-0.0975452	-0.490393	1	
0.374084	0.0305468	0.5	
0.377437	0.0892306	0.5	
0.334139	0.0722049	0.5	
0.357398	0.0545279	0.558521	
0.279144	0.0168063	0.5	
0.307123	-0.0146863	0.5	
0.31384	0.0131388	0.5	
0.295217	0.00291132	0.558405	
0.3	0.05	0.5	
0.279144	0.0168063	0.5	
0.31384	0.0131388	0.5	
0.295217	0.00291132	0.558405	
0.495293	0.0684459	0.568597	
0.490393	0.0975452	0.5	
0.5	0	0.5	
0.437042	0.0584891	0.5	
0.478555	0.144862	0.578348	
0.46194	0.191342	0.5	
0.490393	0.0975452	0.5	
0.411745	0.136955	0.5	
0.0120439	0.258333	0.5	
0.0146863	0.307123	0.5	
-0.0168063	0.279144	0.5	
-0.00291132	0.295217	0.558405	
0.307123	-0.0146863	0.5	
0.279144	0.0168063	0.5	
0.258333	-0.0120439	0.5	
0.295217	0.00291132	0.558405	
-0.307291	0.177008	0.64695	
-0.374193	0.331632	0.665357	
-0.4284	0.257824	0.704976	
-0.357252	0.187897	0.739185	
0.316097	-0.149618	0.645405	
0.439458	-0.238488	0.575692	
0.368447	-0.183279	0.5	
0.39071	-0.0800656	0.604798	
0.316097	-0.149618	0.645405	
0.368447	-0.183279	0.5	
0.439458	-0.238488	0.575692	
0.329947	-0.238467	0.603405	
0.0170927	-0.420241	0.640557	
0.159651	-0.364489	0.598434	
0.146853	-0.477948	0.584008	
0.0545279	-0.357398	0.586263	
0.0170927	-0.420241	0.640557	
0.146853	-0.477948	0.584008	
0.159651	-0.364489	0.598434	
0.0814864	-0.493315	0.652319	
-0.374193	0.331632	0.665357	
-0.307291	0.177008	0.64695	
-0.270598	0.271491	0.600584	
-0.27609	0.255234	0.739837	
-0.270598	0.271491	0.600584	
-0.307291	0.177008	0.64695	
-0.374193	0.331632	0.665357	
-0.351055	0.232374	0.591168	
-0.401952	0.0654763	0.671747	
-0.307291	0.177008	0.64695	
-0.470916	0.168043	0.699874	
-0.357252	0.187897	0.739185	
-0.401952	0.0654763	0.671747	
-0.470916	0.168043	0.699874	
-0.307291	0.177008	0.64695	
-0.364126	0.107425	0.596298	
-0.450285	0.217356	0.644698	
-0.470916	0.168043	0.699874	
-0.307291	0.177008	0.64695	
-0.357252	0.187897	0.739185	
-0.450285	0.217356	0.644698	
-0.307291	0.177008	0.64695	
-0.470916	0.168043	0.699874	
-0.364126	0.107425	0.596298	
-0.189541	0.216222	0.763213	
-0.0435837	0.153197	0.818477	
-0.163252	0.278732	0.833643	
-0.166409	0.150419	0.871568	
-0.189541	0.216222	0.763213	
-0.163252	0.278732	0.833643	
-0.0435837	0.153197	0.818477	
-0.0949641	0.22959	0.742345	
0.0877437	0.0690174	0.581458	
-0.00961934	0.119858	0.599022	
2.83347e-18	-1.91537e-18	0.5	
-0.00100849	-0.0205955	0.627967	
-0.190903	-0.246146	0.678266	
-0.307536	-0.237004	0.795298	
-0.194168	-0.311781	0.817902	
-0.230163	-0.183396	0.833896	
-0.194168	-0.311781	0.817902	
-0.307536	-0.237004	0.795298	
-0.190903	-0.246146	0.678266	
-0.276638	-0.296057	0.718432	
-0.351055	0.232374	0.591168	
-0.4284	0.257824	0.704976	
-0.374193	0.331632	0.665357	
-0.415735	0.277785	0.634138	
-0.351055	0.232374	0.591168	
-0.374193	0.331632	0.665357	
-0.4284	0.257824	0.704976	
-0.307291	0.177008	0.64695	
0.39071	-0.0800656	0.604798	
0.450285	-0.217356	0.644698	
0.439458	-0.238488	0.575692	
0.476114	-0.152694	0.59754	
0.39071	-0.0800656	0.604798	
0.439458	-0.238488	0.575692	
0.450285	-0.217356	0.644698	
0.316097	-0.149618	0.645405	
0.112623	0.215093	0.576525	
0.10302	0.108424	0.5	
0.05	0.133333	0.5	
0.104344	0.174965	0.5	
0.112623	0.215093	0.576525	
0.05	0.133333	0.5	
0.10302	0.108424	0.5	
0.0877437	0.0690174	0.581458	
0.112623	0.215093	0.576525	
0.05	0.3	0.5	
0.05	0.216667	0.5	
0.0335927	0.239842	0.602535	
0.112623	0.215093	0.576525	
0.05	0.216667	0.5	
0.05	0.3	0.5	
0.105455	0.255435	0.5	
-0.370241	-0.156649	0.594441	
-0.319213	-0.265223	0.5	
-0.28972	-0.19595	0.5	
-0.267754	-0.225502	0.603013	
-0.370241	-0.156649	0.594441	
-0.28972	-0.19595	0.5	
-0.319213	-0.265223	0.5	
-0.368925	-0.202831	0.5	
0.0415638	-0.384519	0.881679	
-0.0810399	-0.493389	0.85285	
-0.0684459	-0.495293	0.931403	
-0.0685138	-0.341556	0.85476	
0.0415638	-0.384519	0.881679	
-0.0684459	-0.495293	0.931403	
-0.0810399	-0.493389	0.85285	
0	-0.5	0.9	
-0.385513	-0.0181868	0.734694	
-0.404225	0.0311984	0.902579	
-0.493389	0.0810399	0.85285	
-0.5	0	0.8	
-0.493389	0.0810399	0.85285	
-0.404225	0.0311984	0.902579	
-0.385513	-0.0181868	0.734694	
-0.332366	0.0316806	0.831947	
-0.493389	0.0810399	0.85285	
-0.490343	0.0977967	0.758774	
-0.385513	-0.0181868	0.734694	
-0.5	0	0.8	
-0.385513	-0.0181868	0.734694	
-0.490343	0.0977967	0.758774	
-0.493389	0.0810399	0.85285	
-0.332366	0.0316806	0.831947	
0.00809469	-0.342857	0.777216	
0.0807477	-0.493437	0.845776	
0.0848114	-0.374635	0.706588	
0.0415638	-0.384519	0.881679	
0.00809469	-0.342857	0.777216	
0.0848114	-0.374635	0.706588	
0.0807477	-0.493437	0.845776	
0.0854243	-0.492649	0.748597	
0.168734	-0.470668	0.798219	
0.0848114	-0.374635	0.706588	
0.0807477	-0.493437	0.845776	
0.0415638	-0.384519	0.881679	
0.168734	-0.470668	0.798219	
0.0807477	-0.493437	0.845776	
0.0848114	-0.374635	0.706588	
0.0854243	-0.492649	0.748597	
0.0295128	0.209804	0.905326	
0.158056	0.171884	1	
0.0378724	0.109427	0.891855	
0.177848	0.156277	0.877262	
0.0295128	0.209804	0.905326	
0.0378724	0.109427	0.891855	
0.158056	0.171884	1	
0.0651412	0.200096	1	
0.0903521	0.10545	1	
0.0378724	0.109427	0.891855	
0.158056	0.171884	1	
0.177848	0.156277	0.877262	
0.0903521	0.10545	1	
0.158056	0.171884	1	
0.0378724	0.109427	0.891855	
0.0651412	0.200096	1	
0.185114	0.178816	0.60757	
0.223491	0.0887848	0.734304	
0.0781685	0.124409	0.653995	
0.190245	0.0667888	0.625379	
0.0781685	0.124409	0.653995	
0.223491	0.0887848	0.734304	
0.185114	0.178816	0.60757	
0.199071	0.201004	0.718052	
-0.249851	0.075261	0.682349	
-0.281543	-0.0750159	0.710149	
-0.327614	0.0876466	0.725276	
-0.334766	0.0144004	0.629791	
-0.249851	0.075261	0.682349	
-0.327614	0.0876466	0.725276	
-0.281543	-0.0750159	0.710149	
-0.220651	0.0125647	0.740031	
0.139117	-0.156778	0.5	
0.0851262	-0.069993	0.591553	
0.174965	-0.104344	0.5	
0.108424	-0.10302	0.5	
0.174965	-0.104344	0.5	
0.0851262	-0.069993	0.591553	
0.139117	-0.156778	0.5	
0.171958	-0.1808	0.606406	
0.382055	-0.0743662	0.891735	
0.414991	0.0495125	1	
0.346509	0.0237889	1	
0.409478	-0.032947	1	
0.382055	-0.0743662	0.891735	
0.346509	0.0237889	1	
0.414991	0.0495125	1	
0.350295	0.0306837	0.84806	
0.346509	0.0237889	1	
0.370295	0.150924	0.909678	
0.258755	0.0906035	0.896517	
0.337634	0.115561	1	
0.258755	0.0906035	0.896517	
0.370295	0.150924	0.909678	
0.346509	0.0237889	1	
0.350295	0.0306837	0.84806	
0.133333	0.05	0.5	
0.21299	-0.0111081	0.575703	
0.0916667	9.90691e-18	0.5	
0.175	-0.00200732	0.5	
0.0916667	9.90691e-18	0.5	
0.21299	-0.0111081	0.575703	
0.133333	0.05	0.5	
0.0877437	0.0690174	0.581458	
0.205413	-0.339549	0.892186	
0.168734	-0.470668	0.798219	
0.192404	-0.317473	0.724143	
0.242822	-0.437078	0.847009	
0.205413	-0.339549	0.892186	
0.192404	-0.317473	0.724143	
0.168734	-0.470668	0.798219	
0.118204	-0.307408	0.828129	
-0.374193	0.331632	0.665357	
-0.357252	0.187897	0.739185	
-0.376757	0.328716	0.753532	
-0.4284	0.257824	0.704976	
-0.376757	0.328716	0.753532	
-0.357252	0.187897	0.739185	
-0.374193	0.331632	0.665357	
-0.27609	0.255234	0.739837	
-0.356684	-0.19351	1	
-0.47591	-0.153328	0.90763	
-0.46194	-0.191342	1	
-0.41072	-0.12459	1	
-0.46194	-0.191342	1	
-0.47591	-0.153328	0.90763	
-0.356684	-0.19351	1	
-0.440961	-0.235698	0.931431	
0.0420743	-0.281954	0.683615	
-0.0872901	-0.296751	0.662404	
-0.0924024	-0.340318	0.735056	
-0.0218405	-0.241762	0.749515	
-0.0924024	-0.340318	0.735056	
-0.0872901	-0.296751	0.662404	
0.0420743	-0.281954	0.683615	
-0.0144004	-0.334766	0.641321	
-0.0924024	-0.340318	0.735056	
0.00809469	-0.342857	0.777216	
0.0420743	-0.281954	0.683615	
-0.0218405	-0.241762	0.749515	
0.0420743	-0.281954	0.683615	
0.00809469	-0.342857	0.777216	
-0.0924024	-0.340318	0.735056	
-0.0144004	-0.334766	0.641321	
0.329947	-0.238467	0.603405	
0.4284	-0.257824	0.704976	
0.374193	-0.331632	0.665357	
0.415735	-0.277785	0.634138	
0.329947	-0.238467	0.603405	
0.374193	-0.331632	0.665357	
0.4284	-0.257824	0.704976	
0.309086	-0.228865	0.737481	
0.268393	-0.334301	1	
0.386505	-0.317197	0.931175	
0.253273	-0.249599	0.843605	
0.314857	-0.257449	1	
0.253273	-0.249599	0.843605	
0.386505	-0.317197	0.931175	
0.268393	-0.334301	1	
0.317233	-0.386476	0.909527	
0.0851262	-0.069993	0.591553	
0.0829508	-0.0830948	0.742858	
-0.00100849	-0.0205955	0.627967	
0.0558284	-0.130931	0.665335	
-0.00100849	-0.0205955	0.627967	
0.0829508	-0.0830948	0.742858	
0.0851262	-0.069993	0.591553	
0.0989017	0.0145443	0.654463	
-0.307536	-0.237004	0.795298	
-0.369358	-0.124566	0.75116	
-0.281543	-0.0750159	0.710149	
-0.313218	-0.202403	0.699795	
-0.281543	-0.0750159	0.710149	
-0.369358	-0.124566	0.75116	
-0.307536	-0.237004	0.795298	
-0.230163	-0.183396	0.833896	
-0.281543	-0.0750159	0.710149	
-0.232732	-0.157842	0.680234	
-0.307536	-0.237004	0.795298	
-0.313218	-0.202403	0.699795	
-0.307536	-0.237004	0.795298	
-0.232732	-0.157842	0.680234	
-0.281543	-0.0750159	0.710149	
-0.230163	-0.183396	0.833896	
-4.34906e-18	0.0906746	0.5	
0.0877437	0.0690174	0.581458	
2.83347e-18	-1.91537e-18	0.5	
0.05	0.05	0.5	
2.83347e-18	-1.91537e-18	0.5	
0.0877437	0.0690174	0.581458	
-4.34906e-18	0.0906746	0.5	
-0.00961934	0.119858	0.599022	
0.05	-0.216667	0.5	
0.116472	-0.275537	0.565587	
0.05	-0.3	0.5	
0.0951035	-0.257817	0.5	
0.05	-0.3	0.5	
0.116472	-0.275537	0.565587	
0.05	-0.216667	0.5	
0.0232632	-0.246364	0.605213	
-0.0730504	-0.0481965	0.809858	
-0.170347	-0.112486	0.899727	
-0.182236	-0.0903375	0.74647	
-0.0699367	-0.141385	0.854754	
-0.0730504	-0.0481965	0.809858	
-0.182236	-0.0903375	0.74647	
-0.170347	-0.112486	0.899727	
-0.164797	-0.0240318	0.828417	
-0.290365	0.115706	0.809779	
-0.189541	0.216222	0.763213	
-0.166409	0.150419	0.871568	
-0.214953	0.122747	0.749953	
-0.290365	0.115706	0.809779	
-0.166409	0.150419	0.871568	
-0.189541	0.216222	0.763213	
-0.291878	0.202294	0.852394	
0.300884	0.198715	1	
0.258755	0.0906035	0.896517	
0.337634	0.115561	1	
0.247868	0.146306	1	
0.337634	0.115561	1	
0.258755	0.0906035	0.896517	
0.300884	0.198715	1	
0.370295	0.150924	0.909678	
-0.249851	0.075261	0.682349	
-0.364126	0.107425	0.596298	
-0.334766	0.0144004	0.629791	
-0.327614	0.0876466	0.725276	
-0.249851	0.075261	0.682349	
-0.334766	0.0144004	0.629791	
-0.364126	0.107425	0.596298	
-0.268836	0.0809708	0.594884	
0.296275	0.264777	0.897601	
0.177848	0.156277	0.877262	
0.223611	0.287945	0.822031	
0.296877	0.173007	0.841873	
0.296275	0.264777	0.897601	
0.223611	0.287945	0.822031	
0.177848	0.156277	0.877262	
0.169783	0.254878	0.90212	
-0.0328721	-0.370689	1	
-0.156768	-0.340879	0.911535	
-0.0422582	-0.437473	1	
-0.114467	-0.386332	1	
-0.0422582	-0.437473	1	
-0.156768	-0.340879	0.911535	
-0.0328721	-0.370689	1	
-0.0685138	-0.341556	0.85476	
-0.156768	-0.340879	0.911535	
-0.0684459	-0.495293	0.931403	
-0.0422582	-0.437473	1	
-0.114467	-0.386332	1	
-0.0422582	-0.437473	1	
-0.0684459	-0.495293	0.931403	
-0.156768	-0.340879	0.911535	
-0.0685138	-0.341556	0.85476	
-0.156768	-0.340879	0.911535	
-0.144862	-0.478555	0.921652	
-0.0684459	-0.495293	0.931403	
-0.114467	-0.386332	1	
-0.0684459	-0.495293	0.931403	
-0.144862	-0.478555	0.921652	
-0.156768	-0.340879	0.911535	
-0.0685138	-0.341556	0.85476	
0.0232632	-0.246364	0.605213	
-0.0872901	-0.296751	0.662404	
-0.0912866	-0.293514	0.577692	
-0.0144004	-0.334766	0.641321	
-0.0912866	-0.293514	0.577692	
-0.0872901	-0.296751	0.662404	
0.0232632	-0.246364	0.605213	
-0.0717603	-0.216541	0.630077	
-0.115526	0.359753	0.796074	
-0.0640422	0.245911	0.888875	
-0.124209	0.359991	0.89696	
-0.163252	0.278732	0.833643	
-0.115526	0.359753	0.796074	
-0.124209	0.359991	0.89696	
-0.0640422	0.245911	0.888875	
-0.0275533	0.349484	0.845155	
0.125573	-0.41396	1	
0.235698	-0.440961	0.931431	
0.205413	-0.339549	0.892186	
0.194604	-0.371188	1	
0.125573	-0.41396	1	
0.205413	-0.339549	0.892186	
0.235698	-0.440961	0.931431	
0.153328	-0.47591	0.90763	
-0.351055	0.232374	0.591168	
-0.476114	0.152694	0.59754	
-0.368447	0.183279	0.5	
-0.364126	0.107425	0.596298	
-0.351055	0.232374	0.591168	
-0.368447	0.183279	0.5	
-0.476114	0.152694	0.59754	
-0.439458	0.238488	0.575692	
-0.00291132	0.295217	0.558405	
0	0.35	0.5	
0.0146863	0.307123	0.5	
-0.0131388	0.31384	0.5	
-0.00291132	0.295217	0.558405	
0.0146863	0.307123	0.5	
0	0.35	0.5	
0.0222826	0.353795	0.558177	
0.357398	0.0545279	0.558521	
0.298593	0.101011	0.5	
0.3	0.05	0.5	
0.281543	0.0750159	0.578871	
0.357398	0.0545279	0.558521	
0.3	0.05	0.5	
0.298593	0.101011	0.5	
0.334139	0.0722049	0.5	
0.210156	-0.0147965	1	
0.258755	0.0906035	0.896517	
0.130088	0.0681493	0.912467	
0.184962	0.0799289	1	
0.130088	0.0681493	0.912467	
0.258755	0.0906035	0.896517	
0.210156	-0.0147965	1	
0.262288	-0.0152307	0.900549	
-0.277785	-0.415735	0.634138	
-0.191043	-0.351595	0.71168	
-0.276638	-0.296057	0.718432	
-0.257824	-0.4284	0.704976	
-0.276638	-0.296057	0.718432	
-0.191043	-0.351595	0.71168	
-0.277785	-0.415735	0.634138	
-0.2387	-0.321065	0.626825	
-0.276638	-0.296057	0.718432	
-0.331632	-0.374193	0.665357	
-0.277785	-0.415735	0.634138	
-0.257824	-0.4284	0.704976	
-0.277785	-0.415735	0.634138	
-0.331632	-0.374193	0.665357	
-0.276638	-0.296057	0.718432	
-0.2387	-0.321065	0.626825	
0.295217	0.00291132	0.558405	
0.35	0	0.5	
0.307123	-0.0146863	0.5	
0.31384	0.0131388	0.5	
0.295217	0.00291132	0.558405	
0.307123	-0.0146863	0.5	
0.35	0	0.5	
0.353795	-0.0222826	0.558177	
-0.404225	0.0311984	0.902579	
-0.5	0	1	
-0.495293	0.0684459	0.931403	
-0.5	0	0.9	
-0.404225	0.0311984	0.902579	
-0.495293	0.0684459	0.931403	
-0.5	0	1	
-0.426463	0.0441363	1	
-0.401952	0.0654763	0.671747	
-0.476114	0.152694	0.59754	
-0.495101	0.0698189	0.572379	
-0.493012	0.0833019	0.655211	
-0.401952	0.0654763	0.671747	
-0.495101	0.0698189	0.572379	
-0.476114	0.152694	0.59754	
-0.364126	0.107425	0.596298	
0.327747	0.217533	0.591075	
0.415735	0.277785	0.5	
0.319213	0.265223	0.5	
0.386505	0.317197	0.568825	
0.327747	0.217533	0.591075	
0.319213	0.265223	0.5	
0.415735	0.277785	0.5	
0.368925	0.202831	0.5	
0.417761	0.0130281	0.59815	
0.374084	0.0305468	0.5	
0.437042	0.0584891	0.5	
0.422954	0.00233139	0.5	
0.417761	0.0130281	0.59815	
0.437042	0.0584891	0.5	
0.374084	0.0305468	0.5	
0.357398	0.0545279	0.558521	
0.00685904	0.408881	0.656439	
0.0704482	0.495012	0.571845	
-0.0376575	0.408608	0.57511	
0	0.5	0.6	
0.00685904	0.408881	0.656439	
-0.0376575	0.408608	0.57511	
0.0704482	0.495012	0.571845	
0.0827402	0.389706	0.606734	
CELLS 5402 27010
4	0	1	2	3	
4	4	5	6	7	
4	8	9	10	11	
4	12	13	14	15	
4	16	17	18	19	
4	20	21	22	23	
4	24	25	26	27	
4	28	29	30	31	
4	32	33	34	35	
4	36	37	38	39	
4	40	41	42	43	
4	44	45	46	47	
4	48	49	50	51	
4	52	53	54	55	
4	56	57	58	59	
4	60	61	62	63	
4	64	65	66	67	
4	68	69	70	71	
4	72	73	74	75	
4	76	77	78	79	
4	80	81	82	83	
4	84	85	86	87	
4	88	89	90	91	
4	92	93	94	95	
4	96	97	98	99	
4	100	101	102	103	
4	104	105	106	107	
4	108	109	110	111	
4	112	113	114	115	
4	116	117	118	119	
4	120	121	122	123	
4	124	125	126	127	
4	128	129	130	131	
4	132	133	134	135	
4	136	137	138	139	
4	140	141	142	143	
4	144	145	146	147	
4	148	149	150	151	
4	152	153	154	155	
4	156	157	158	159	
4	160	161	162	163	
4	164	165	166	167	
4	168	169	170	171	
4	172	173	174	175	
4	176	177	178	179	
4	180	181	182	183	
4	184	185	186	187	
4	188	189	190	191	
4	192	193	194	195	
4	196	197	198	199	
4	200	201	202	203	
4	204	205	206	207	
4	208	209	210	211	
4	212	213	214	215	
4	216	217	218	219	
4	220	221	222	223	
4	224	225	226	227	
4	228	229	230	231	
4	232	233	234	235	
4	236	237	238	239	
4	240	241	242	243	
4	244	245	246	247	
4	248	249	250	251	
4	252	253	254	255	
4	256	257	258	259	
4	260	261	262	263	
4	264	265	266	267	
4	268	269	270	271	
4	272	273	274	275	
4	276	277	278	279	
4	280	281	282	283	
4	284	285	286	287	
4	288	289	290	291	
4	292	293	294	295	
4	296	297	298	299	
4	300	301	302	303	
4	304	305	306	307	
4	308	309	310	311	
4	312	313	314	315	
4	316	317	318	319	
4	320	321	322	323	
4	324	325	326	327	
4	328	329	330	331	
4	332	333	334	335	
4	336	337	338	339	
4	340	341	342	343	
4	344	345	346	347	
4	348	349	350	351	
4	352	353	354	355	
4	356	357	358	359	
4	360	361	362	363	
4	364	365	366	367	
4	368	369	370	371	
4	372	373	374	375	
4	376	377	378	379	
4	380	381	382	383	
4	384	385	386	387	
4	388	389	390	391	
4	392	393	394	395	
4	396	397	398	399	
4	400	401	402	403	
4	404	405	406	407	
4	408	409	410	411	
4	412	413	414	415	
4	416	417	418	419	
4	420	421	422	423	
4	424	425	426	427	
4	428	429	430	431	
4	432	433	434	435	
4	436	437	438	439	
4	440	441	442	443	
4	444	445	446	447	
4	448	449	450	451	
4	452	453	454	455	
4	456	457	458	459	
4	460	461	462	463	
4	464	465	466	467	
4	468	469	470	471	
4	472	473	474	475	
4	476	477	478	479	
4	480	481	482	483	
4	484	485	486	487	
4	488	489	490	491	
4	492	493	494	495	
4	496	497	498	499	
4	500	501	502	503	
4	504	505	506	507	
4	508	509	510	511	
4	512	513	514	515	
4	516	517	518	519	
4	520	521	522	523	
4	524	525	526	527	
4	528	529	530	531	
4	532	533	534	535	
4	536	537	538	539	
4	540	541	542	543	
4	544	545	546	547	
4	548	549	550	551	
4	552	553	554	555	
4	556	557	558	559	
4	560	561	562	563	
4	564	565	566	567	
4	568	569	570	571	
4	572	573	574	575	
4	576	577	578	579	
4	580	581	582	583	
4	584	585	586	587	
4	588	589	590	591	
4	592	593	594	595	
4	596	597	598	599	
4	600	601	602	603	
4	604	605	606	607	
4	608	609	610	611	
4	612	613	614	615	
4	616	617	618	619	
4	620	621	622	623	
4	624	625	626	627	
4	628	629	630	631	
4	632	633	634	635	
4	636	637	638	639	
4	640	641	642	643	
4	644	645	646	647	
4	648	649	650	651	
4	652	653	654	655	
4	656	657	658	659	
4	660	661	662	663	
4	664	665	666	667	
4	668	669	670	671	
4	672	673	674	675	
4	676	677	678	679	
4	680	681	682	683	
4	684	685	686	687	
4	688	689	690	691	
4	692	693	694	695	
4	696	697	698	699	
4	700	701	702	703	
4	704	705	706	707	
4	708	709	710	711	
4	712	713	714	715	
4	716	717	718	719	
4	720	721	722	723	
4	724	725	726	727	
4	728	729	730	731	
4	732	733	734	735	
4	736	737	738	739	
4	740	741	742	743	
4	744	745	746	747	
4	748	749	750	751	
4	752	753	754	755	
4	756	757	758	759	
4	760	761	762	763	
4	764	765	766	767	
4	768	769	770	771	
4	772	773	774	775	
4	776	777	778	779	
4	780	781	782	783	
4	784	785	786	787	
4	788	789	790	791	
4	792	793	794	795	
4	796	797	798	799	
4	800	801	802	803	
4	804	805	806	807	
4	808	809	810	811	
4	812	813	814	815	
4	816	817	818	819	
4	820	821	822	823	
4	824	825	826	827	
4	828	829	830	831	
4	832	833	834	835	
4	836	837	838	839	
4	840	841	842	843	
4	844	845	846	847	
4	848	849	850	851	
4	852	853	854	855	
4	856	857	858	859	
4	860	861	862	863	
4	864	865	866	867	
4	868	869	870	871	
4	872	873	874	875	
4	876	877	878	879	
4	880	881	882	883	
4	884	885	886	887	
4	888	889	890	891	
4	892	893	894	895	
4	896	897	898	899	
4	900	901	902	903	
4	904	905	906	907	
4	908	909	910	911	
4	912	913	914	915	
4	916	917	918	919	
4	920	921	922	923	
4	924	925	926	927	
4	928	929	930	931	
4	932	933	934	935	
4	936	937	938	939	
4	940	941	942	943	
4	944	945	946	947	
4	948	949	950	951	
4	952	953	954	955	
4	956	957	958	959	
4	960	961	962	963	
4	964	965	966	967	
4	968	969	970	971	
4	972	973	974	975	
4	976	977	978	979	
4	980	981	982	983	
4	984	985	986	987	
4	988	989	990	991	
4	992	993	994	995	
4	996	997	998	999	
4	1000	1001	1002	1003	
4	1004	1005	1006	1007	
4	1008	1009	1010	1011	
4	1012	1013	1014	1015	
4	1016	1017	1018	1019	
4	1020	1021	1022	1023	
4	1024	1025	1026	1027	
4	1028	1029	1030	1031	
4	1032	1033	1034	1035	
4	1036	1037	1038	1039	
4	1040	1041	1042	1043	
4	1044	1045	1046	1047	
4	1048	1049	1050	1051	
4	1052	1053	1054	1055	
4	1056	1057	1058	1059	
4	1060	1061	1062	1063	
4	1064	1065	1066	1067	
4	1068	1069	1070	1071	
4	1072	1073	1074	1075	
4	1076	1077	1078	1079	
4	1080	1081	1082	1083	
4	1084	1085	1086	1087	
4	1088	1089	1090	1091	
4	1092	1093	1094	1095	
4	1096	1097	1098	1099	
4	1100	1101	1102	1103	
4	1104	1105	1106	1107	
4	1108	1109	1110	1111	
4	1112	1113	1114	1115	
4	1116	1117	1118	1119	
4	1120	1121	1122	1123	
4	1124	1125	1126	1127	
4	1128	1129	1130	1131	
4	1132	1133	1134	1135	
4	1136	1137	1138	1139	
4	1140	1141	1142	1143	
4	1144	1145	1146	1147	
4	1148	1149	1150	1151	
4	1152	1153	1154	1155	
4	1156	1157	1158	1159	
4	1160	1161	1162	1163	
4	1164	1165	1166	1167	
4	1168	1169	1170	1171	
4	1172	1173	1174	1175	
4	1176	1177	1178	1179	
4	1180	1181	1182	1183	
4	1184	1185	1186	1187	
4	1188	1189	1190	1191	
4	1192	1193	1194	1195	
4	1196	1197	1198	1199	
4	1200	1201	1202	1203	
4	1204	1205	1206	1207	
4	1208	1209	1210	1211	
4	1212	1213	1214	1215	
4	1216	1217	1218	1219	
4	1220	1221	1222	1223	
4	1224	1225	1226	1227	
4	1228	1229	1230	1231	
4	1232	1233	1234	1235	
4	1236	1237	1238	1239	
4	1240	1241	1242	1243	
4	1244	1245	1246	1247	
4	1248	1249	1250	1251	
4	1252	1253	1254	1255	
4	1256	1257	1258	1259	
4	1260	1261	1262	1263	
4	1264	1265	1266	1267	
4	1268	1269	1270	1271	
4	1272	1273	1274	1275	
4	1276	1277	1278	1279	
4	1280	1281	1282	1283	
4	1284	1285	1286	1287	
4	1288	1289	1290	1291	
4	1292	1293	1294	1295	
4	1296	1297	1298	1299	
4	1300	1301	1302	1303	
4	1304	1305	1306	1307	
4	1308	1309	1310	1311	
4	1312	1313	1314	1315	
4	1316	1317	1318	1319	
4	1320	1321	1322	1323	
4	1324	1325	1326	1327	
4	1328	1329	1330	1331	
4	1332	1333	1334	1335	
4	1336	1337	1338	1339	
4	1340	1341	1342	1343	
4	1344	1345	1346	1347	
4	1348	1349	1350	1351	
4	1352	1353	1354	1355	
4	1356	1357	1358	1359	
4	1360	1361	1362	1363	
4	1364	1365	1366	1367	
4	1368	1369	1370	1371	
4	1372	1373	1374	1375	
4	1376	1377	1378	1379	
4	1380	1381	1382	1383	
4	1384	1385	1386	1387	
4	1388	1389	1390	1391	
4	1392	1393	1394	1395	
4	1396	1397	1398	1399	
4	1400	1401	1402	1403	
4	1404	1405	1406	1407	
4	1408	1409	1410	1411	
4	1412	1413	1414	1415	
4	1416	1417	1418	1419	
4	1420	1421	1422	1423	
4	1424	1425	1426	1427	
4	1428	1429	1430	1431	
4	1432	1433	1434	1435	
4	1436	1437	1438	1439	
4	1440	1441	1442	1443	
4	1444	1445	1446	1447	
4	1448	1449	1450	1451	
4	1452	1453	1454	1455	
4	1456	1457	1458	1459	
4	1460	1461	1462	1463	
4	1464	1465	1466	1467	
4	1468	1469	1470	1471	
4	1472	1473	1474	1475	
4	1476	1477	1478	1479	
4	1480	1481	1482	1483	
4	1484	1485	1486	1487	
4	1488	1489	1490	1491	
4	1492	1493	1494	1495	
4	1496	1497	1498	1499	
4	1500	1501	1502	1503	
4	1504	1505	1506	1507	
4	1508	1509	1510	1511	
4	1512	1513	1514	1515	
4	1516	1517	1518	1519	
4	1520	1521	1522	1523	
4	1524	1525	1526	1527	
4	1528	1529	1530	1531	
4	1532	1533	1534	1535	
4	1536	1537	1538	1539	
4	1540	1541	1542	1543	
4	1544	1545	1546	1547	
4	1548	1549	1550	1551	
4	1552	1553	1554	1555	
4	1556	1557	1558	1559	
4	1560	1561	1562	1563	
4	1564	1565	1566	1567	
4	1568	1569	1570	1571	
4	1572	1573	1574	1575	
4	1576	1577	1578	1579	
4	1580	1581	1582	1583	
4	1584	1585	1586	1587	
4	1588	1589	1590	1591	
4	1592	1593	1594	1595	
4	1596	1597	1598	1599	
4	1600	1601	1602	1603	
4	1604	1605	1606	1607	
4	1608	1609	1610	1611	
4	1612	1613	1614	1615	
4	1616	1617	1618	1619	
4	1620	1621	1622	1623	
4	1624	1625	1626	1627	
4	1628	1629	1630	1631	
4	1632	1633	1634	1635	
4	1636	1637	1638	1639	
4	1640	1641	1642	1643	
4	1644	1645	1646	1647	
4	1648	1649	1650	1651	
4	1652	1653	1654	1655	
4	1656	1657	1658	1659	
4	1660	1661	1662	1663	
4	1664	1665	1666	1667	
4	1668	1669	1670	1671	
4	1672	1673	1674	1675	
4	1676	1677	1678	1679	
4	1680	1681	1682	1683	
4	1684	1685	1686	1687	
4	1688	1689	1690	1691	
4	1692	1693	1694	1695	
4	1696	1697	1698	1699	
4	1700	1701	1702	1703	
4	1704	1705	1706	1707	
4	1708	1709	1710	1711	
4	1712	1713	1714	1715	
4	1716	1717	1718	1719	
4	1720	1721	1722	1723	
4	1724	1725	1726	1727	
4	1728	1729	1730	1731	
4	1732	1733	1734	1735	
4	1736	1737	1738	1739	
4	1740	1741	1742	1743	
4	1744	1745	1746	1747	
4	1748	1749	1750	1751	
4	1752	1753	1754	1755	
4	1756	1757	1758	1759	
4	1760	1761	1762	1763	
4	1764	1765	1766	1767	
4	1768	1769	1770	1771	
4	1772	1773	1774	1775	
4	1776	1777	1778	1779	
4	1780	1781	1782	1783	
4	1784	1785	1786	1787	
4	1788	1789	1790	1791	
4	1792	1793	1794	1795	
4	1796	1797	1798	1799	
4	1800	1801	1802	1803	
4	1804	1805	1806	1807	
4	1808	1809	1810	1811	
4	1812	1813	1814	1815	
4	1816	1817	1818	1819	
4	1820	1821	1822	1823	
4	1824	1825	1826	1827	
4	1828	1829	1830	1831	
4	1832	1833	1834	1835	
4	1836	1837	1838	1839	
4	1840	1841	1842	1843	
4	1844	1845	1846	1847	
4	1848	1849	1850	1851	
4	1852	1853	1854	1855	
4	1856	1857	1858	1859	
4	1860	1861	1862	1863	
4	1864	1865	1866	1867	
4	1868	1869	1870	1871	
4	1872	1873	1874	1875	
4	1876	1877	1878	1879	
4	1880	1881	1882	1883	
4	1884	1885	1886	1887	
4	1888	1889	1890	1891	
4	1892	1893	1894	1895	
4	1896	1897	1898	1899	
4	1900	1901	1902	1903	
4	1904	1905	1906	1907	
4	1908	1909	1910	1911	
4	1912	1913	1914	1915	
4	1916	1917	1918	1919	
4	1920	1921	1922	1923	
4	1924	1925	1926	1927	
4	1928	1929	1930	1931	
4	1932	1933	1934	1935	
4	1936	1937	1938	1939	
4	1940	1941	1942	1943	
4	1944	1945	1946	1947	
4	1948	1949	1950	1951	
4	1952	1953	1954	1955	
4	1956	1957	1958	1959	
4	1960	1961	1962	1963	
4	1964	1965	1966	1967	
4	1968	1969	1970	1971	
4	1972	1973	1974	1975	
4	1976	1977	1978	1979	
4	1980	1981	1982	1983	
4	1984	1985	1986	1987	
4	1988	1989	1990	1991	
4	1992	1993	1994	1995	
4	1996	1997	1998	1999	
4	2000	2001	2002	2003	
4	2004	2005	2006	2007	
4	2008	2009	2010	2011	
4	2012	2013	2014	2015	
4	2016	2017	2018	2019	
4	2020	2021	2022	2023	
4	2024	2025	2026	2027	
4	2028	2029	2030	2031	
4	2032	2033	2034	2035	
4	2036	2037	2038	2039	
4	2040	2041	2042	2043	
4	2044	2045	2046	2047	
4	2048	2049	2050	2051	
4	2052	2053	2054	2055	
4	2056	2057	2058	2059	
4	2060	2061	2062	2063	
4	2064	2065	2066	2067	
4	2068	2069	2070	2071	
4	2072	2073	2074	2075	
4	2076	2077	2078	2079	
4	2080	2081	2082	2083	
4	2084	2085	2086	2087	
4	2088	2089	2090	2091	
4	2092	2093	2094	2095	
4	2096	2097	2098	2099	
4	2100	2101	2102	2103	
4	2104	2105	2106	2107	
4	2108	2109	2110	2111	
4	2112	2113	2114	2115	
4	2116	2117	2118	2119	
4	2120	2121	2122	2123	
4	2124	2125	2126	2127	
4	2128	2129	2130	2131	
4	2132	2133	2134	2135	
4	2136	2137	2138	2139	
4	2140	2141	2142	2143	
4	2144	2145	2146	2147	
4	2148	2149	2150	2151	
4	2152	2153	2154	2155	
4	2156	2157	2158	2159	
4	2160	2161	2162	2163	
4	2164	2165	2166	2167	
4	2168	2169	2170	2171	
4	2172	2173	2174	2175	
4	2176	2177	2178	2179	
4	2180	2181	2182	2183	
4	2184	2185	2186	2187	
4	2188	2189	2190	2191	
4	2192	2193	2194	2195	
4	2196	2197	2198	2199	
4	2200	2201	2202	2203	
4	2204	2205	2206	2207	
4	2208	2209	2210	2211	
4	2212	2213	2214	2215	
4	2216	2217	2218	2219	
4	2220	2221	2222	2223	
4	2224	2225	2226	2227	
4	2228	2229	2230	2231	
4	2232	2233	2234	2235	
4	2236	2237	2238	2239	
4	2240	2241	2242	2243	
4	2244	2245	2246	2247	
4	2248	2249	2250	2251	
4	2252	2253	2254	2255	
4	2256	2257	2258	2259	
4	2260	2261	2262	2263	
4	2264	2265	2266	2267	
4	2268	2269	2270	2271	
4	2272	2273	2274	2275	
4	2276	2277	2278	2279	
4	2280	2281	2282	2283	
4	2284	2285	2286	2287	
4	2288	2289	2290	2291	
4	2292	2293	2294	2295	
4	2296	2297	2298	2299	
4	2300	2301	2302	2303	
4	2304	2305	2306	2307	
4	2308	2309	2310	2311	
4	2312	2313	2314	2315	
4	2316	2317	2318	2319	
4	2320	2321	2322	2323	
4	2324	2325	2326	2327	
4	2328	2329	2330	2331	
4	2332	2333	2334	2335	
4	2336	2337	2338	2339	
4	2340	2341	2342	2343	
4	2344	2345	2346	2347	
4	2348	2349	2350	2351	
4	2352	2353	2354	2355	
4	2356	2357	2358	2359	
4	2360	2361	2362	2363	
4	2364	2365	2366	2367	
4	2368	2369	2370	2371	
4	2372	2373	2374	2375	
4	2376	2377	2378	2379	
4	2380	2381	2382	2383	
4	2384	2385	2386	2387	
4	2388	2389	2390	2391	
4	2392	2393	2394	2395	
4	2396	2397	2398	2399	
4	2400	2401	2402	2403	
4	2404	2405	2406	2407	
4	2408	2409	2410	2411	
4	2412	2413	2414	2415	
4	2416	2417	2418	2419	
4	2420	2421	2422	2423	
4	2424	2425	2426	2427	
4	2428	2429	2430	2431	
4	2432	2433	2434	2435	
4	2436	2437	2438	2439	
4	2440	2441	2442	2443	
4	2444	2445	2446	2447	
4	2448	2449	2450	2451	
4	2452	2453	2454	2455	
4	2456	2457	2458	2459	
4	2460	2461	2462	2463	
4	2464	2465	2466	2467	
4	2468	2469	2470	2471	
4	2472	2473	2474	2475	
4	2476	2477	2478	2479	
4	2480	2481	2482	2483	
4	2484	2485	2486	2487	
4	2488	2489	2490	2491	
4	2492	2493	2494	2495	
4	2496	2497	2498	2499	
4	2500	2501	2502	2503	
4	2504	2505	2506	2507	
4	2508	2509	2510	2511	
4	2512	2513	2514	2515	
4	2516	2517	2518	2519	
4	2520	2521	2522	2523	
4	2524	2525	2526	2527	
4	2528	2529	2530	2531	
4	2532	2533	2534	2535	
4	2536	2537	2538	2539	
4	2540	2541	2542	2543	
4	2544	2545	2546	2547	
4	2548	2549	2550	2551	
4	2552	2553	2554	2555	
4	2556	2557	2558	2559	
4	2560	2561	2562	2563	
4	2564	2565	2566	2567	
4	2568	2569	2570	2571	
4	2572	2573	2574	2575	
4	2576	2577	2578	2579	
4	2580	2581	2582	2583	
4	2584	2585	2586	2587	
4	2588	2589	2590	2591	
4	2592	2593	2594	2595	
4	2596	2597	2598	2599	
4	2600	2601	2602	2603	
4	2604	2605	2606	2607	
4	2608	2609	2610	2611	
4	2612	2613	2614	2615	
4	2616	2617	2618	2619	
4	2620	2621	2622	2623	
4	2624	2625	2626	2627	
4	2628	2629	2630	2631	
4	2632	2633	2634	2635	
4	2636	2637	2638	2639	
4	2640	2641	2642	2643	
4	2644	2645	2646	2647	
4	2648	2649	2650	2651	
4	2652	2653	2654	2655	
4	2656	2657	2658	2659	
4	2660	2661	2662	2663	
4	2664	2665	2666	2667	
4	2668	2669	2670	2671	
4	2672	2673	2674	2675	
4	2676	2677	2678	2679	
4	2680	2681	2682	2683	
4	2684	2685	2686	2687	
4	2688	2689	2690	2691	
4	2692	2693	2694	2695	
4	2696	2697	2698	2699	
4	2700	2701	2702	2703	
4	2704	2705	2706	2707	
4	2708	2709	2710	2711	
4	2712	2713	2714	2715	
4	2716	2717	2718	2719	
4	2720	2721	2722	2723	
4	2724	2725	2726	2727	
4	2728	2729	2730	2731	
4	2732	2733	2734	2735	
4	2736	2737	2738	2739	
4	2740	2741	2742	2743	
4	2744	2745	2746	2747	
4	2748	2749	2750	2751	
4	2752	2753	2754	2755	
4	2756	2757	2758	2759	
4	2760	2761	2762	2763	
4	2764	2765	2766	2767	
4	2768	2769	2770	2771	
4	2772	2773	2774	2775	
4	2776	2777	2778	2779	
4	2780	2781	2782	2783	
4	2784	2785	2786	2787	
4	2788	2789	2790	2791	
4	2792	2793	2794	2795	
4	2796	2797	2798	2799	
4	2800	2801	2802	2803	
4	2804	2805	2806	2807	
4	2808	2809	2810	2811	
4	2812	2813	2814	2815	
4	2816	2817	2818	2819	
4	2820	2821	2822	2823	
4	2824	2825	2826	2827	
4	2828	2829	2830	2831	
4	2832	2833	2834	2835	
4	2836	2837	2838	2839	
4	2840	2841	2842	2843	
4	2844	2845	2846	2847	
4	2848	2849	2850	2851	
4	2852	2853	2854	2855	
4	2856	2857	2858	2859	
4	2860	2861	2862	2863	
4	2864	2865	2866	2867	
4	2868	2869	2870	2871	
4	2872	2873	2874	2875	
4	2876	2877	2878	2879	
4	2880	2881	2882	2883	
4	2884	2885	2886	2887	
4	2888	2889	2890	2891	
4	2892	2893	2894	2895	
4	2896	2897	2898	2899	
4	2900	2901	2902	2903	
4	2904	2905	2906	2907	
4	2908	2909	2910	2911	
4	2912	2913	2914	2915	
4	2916	2917	2918	2919	
4	2920	2921	2922	2923	
4	2924	2925	2926	2927	
4	2928	2929	2930	2931	
4	2932	2933	2934	2935	
4	2936	2937	2938	2939	
4	2940	2941	2942	2943	
4	2944	2945	2946	2947	
4	2948	2949	2950	2951	
4	2952	2953	2954	2955	
4	2956	2957	2958	2959	
4	2960	2961	2962	2963	
4	2964	2965	2966	2967	
4	2968	2969	2970	2971	
4	2972	2973	2974	2975	
4	2976	2977	2978	2979	
4	2980	2981	2982	2983	
4	2984	2985	2986	2987	
4	2988	2989	2990	2991	
4	2992	2993	2994	2995	
4	2996	2997	2998	2999	
4	3000	3001	3002	3003	
4	3004	3005	3006	3007	
4	3008	3009	3010	3011	
4	3012	3013	3014	3015	
4	3016	3017	3018	3019	
4	3020	3021	3022	3023	
4	3024	3025	3026	3027	
4	3028	3029	3030	3031	
4	3032	3033	3034	3035	
4	3036	3037	3038	3039	
4	3040	3041	3042	3043	
4	3044	3045	3046	3047	
4	3048	3049	3050	3051	
4	3052	3053	3054	3055	
4	3056	3057	3058	3059	
4	3060	3061	3062	3063	
4	3064	3065	3066	3067	
4	3068	3069	3070	3071	
4	3072	3073	3074	3075	
4	3076	3077	3078	3079	
4	3080	3081	3082	3083	
4	3084	3085	3086	3087	
4	3088	3089	3090	3091	
4	3092	3093	3094	3095	
4	3096	3097	3098	3099	
4	3100	3101	3102	3103	
4	3104	3105	3106	3107	
4	3108	3109	3110	3111	
4	3112	3113	3114	3115	
4	3116	3117	3118	3119	
4	3120	3121	3122	3123	
4	3124	3125	3126	3127	
4	3128	3129	3130	3131	
4	3132	3133	3134	3135	
4	3136	3137	3138	3139	
4	3140	3141	3142	3143	
4	3144	3145	3146	3147	
4	3148	3149	3150	3151	
4	3152	3153	3154	3155	
4	3156	3157	3158	3159	
4	3160	3161	3162	3163	
4	3164	3165	3166	3167	
4	3168	3169	3170	3171	
4	3172	3173	3174	3175	
4	3176	3177	3178	3179	
4	3180	3181	3182	3183	
4	3184	3185	3186	3187	
4	3188	3189	3190	3191	
4	3192	3193	3194	3195	
4	3196	3197	3198	3199	
4	3200	3201	3202	3203	
4	3204	3205	3206	3207	
4	3208	3209	3210	3211	
4	3212	3213	3214	3215	
4	3216	3217	3218	3219	
4	3220	3221	3222	3223	
4	3224	3225	3226	3227	
4	3228	3229	3230	3231	
4	3232	3233	3234	3235	
4	3236	3237	3238	3239	
4	3240	3241	3242	3243	
4	3244	3245	3246	3247	
4	3248	3249	3250	3251	
4	3252	3253	3254	3255	
4	3256	3257	3258	3259	
4	3260	3261	3262	3263	
4	3264	3265	3266	3267	
4	3268	3269	3270	3271	
4	3272	3273	3274	3275	
4	3276	3277	3278	3279	
4	3280	3281	3282	3283	
4	3284	3285	3286	3287	
4	3288	3289	3290	3291	
4	3292	3293	3294	3295	
4	3296	3297	3298	3299	
4	3300	3301	3302	3303	
4	3304	3305	3306	3307	
4	3308	3309	3310	3311	
4	3312	3313	3314	3315	
4	3316	3317	3318	3319	
4	3320	3321	3322	3323	
4	3324	3325	3326	3327	
4	3328	3329	3330	3331	
4	3332	3333	3334	3335	
4	3336	3337	3338	3339	
4	3340	3341	3342	3343	
4	3344	3345	3346	3347	
4	3348	3349	3350	3351	
4	3352	3353	3354	3355	
4	3356	3357	3358	3359	
4	3360	3361	3362	3363	
4	3364	3365	3366	3367	
4	3368	3369	3370	3371	
4	3372	3373	3374	3375	
4	3376	3377	3378	3379	
4	3380	3381	3382	3383	
4	3384	3385	3386	3387	
4	3388	3389	3390	3391	
4	3392	3393	3394	3395	
4	3396	3397	3398	3399	
4	3400	3401	3402	3403	
4	3404	3405	3406	3407	
4	3408	3409	3410	3411	
4	3412	3413	3414	3415	
4	3416	3417	3418	3419	
4	3420	3421	3422	3423	
4	3424	3425	3426	3427	
4	3428	3429	3430	3431	
4	3432	3433	3434	3435	
4	3436	3437	3438	3439	
4	3440	3441	3442	3443	
4	3444	3445	3446	3447	
4	3448	3449	3450	3451	
4	3452	3453	3454	3455	
4	3456	3457	3458	3459	
4	3460	3461	3462	3463	
4	3464	3465	3466	3467	
4	3468	3469	3470	3471	
4	3472	3473	3474	3475	
4	3476	3477	3478	3479	
4	3480	3481	3482	3483	
4	3484	3485	3486	3487	
4	3488	3489	3490	3491	
4	3492	3493	3494	3495	
4	3496	3497	3498	3499	
4	3500	3501	3502	3503	
4	3504	3505	3506	3507	
4	3508	3509	3510	3511	
4	3512	3513	3514	3515	
4	3516	3517	3518	3519	
4	3520	3521	3522	3523	
4	3524	3525	3526	3527	
4	3528	3529	3530	3531	
4	3532	3533	3534	3535	
4	3536	3537	3538	3539	
4	3540	3541	3542	3543	
4	3544	3545	3546	3547	
4	3548	3549	3550	3551	
4	3552	3553	3554	3555	
4	3556	3557	3558	3559	
4	3560	3561	3562	3563	
4	3564	3565	3566	3567	
4	3568	3569	3570	3571	
4	3572	3573	3574	3575	
4	3576	3577	3578	3579	
4	3580	3581	3582	3583	
4	3584	3585	3586	3587	
4	3588	3589	3590	3591	
4	3592	3593	3594	3595	
4	3596	3597	3598	3599	
4	3600	3601	3602	3603	
4	3604	3605	3606	3607	
4	3608	3609	3610	3611	
4	3612	3613	3614	3615	
4	3616	3617	3618	3619	
4	3620	3621	3622	3623	
4	3624	3625	3626	3627	
4	3628	3629	3630	3631	
4	3632	3633	3634	3635	
4	3636	3637	3638	3639	
4	3640	3641	3642	3643	
4	3644	3645	3646	3647	
4	3648	3649	3650	3651	
4	3652	3653	3654	3655	
4	3656	3657	3658	3659	
4	3660	3661	3662	3663	
4	3664	3665	3666	3667	
4	3668	3669	3670	3671	
4	3672	3673	3674	3675	
4	3676	3677	3678	3679	
4	3680	3681	3682	3683	
4	3684	3685	3686	3687	
4	3688	3689	3690	3691	
4	3692	3693	3694	3695	
4	3696	3697	3698	3699	
4	3700	3701	3702	3703	
4	3704	3705	3706	3707	
4	3708	3709	3710	3711	
4	3712	3713	3714	3715	
4	3716	3717	3718	3719	
4	3720	3721	3722	3723	
4	3724	3725	3726	3727	
4	3728	3729	3730	3731	
4	3732	3733	3734	3735	
4	3736	3737	3738	3739	
4	3740	3741	3742	3743	
4	3744	3745	3746	3747	
4	3748	3749	3750	3751	
4	3752	3753	3754	3755	
4	3756	3757	3758	3759	
4	3760	3761	3762	3763	
4	3764	3765	3766	3767	
4	3768	3769	3770	3771	
4	3772	3773	3774	3775	
4	3776	3777	3778	3779	
4	3780	3781	3782	3783	
4	3784	3785	3786	3787	
4	3788	3789	3790	3791	
4	3792	3793	3794	3795	
4	3796	3797	3798	3799	
4	3800	3801	3802	3803	
4	3804	3805	3806	3807	
4	3808	3809	3810	3811	
4	3812	3813	3814	3815	
4	3816	3817	3818	3819	
4	3820	3821	3822	3823	
4	3824	3825	3826	3827	
4	3828	3829	3830	3831	
4	3832	3833	3834	3835	
4	3836	3837	3838	3839	
4	3840	3841	3842	3843	
4	3844	3845	3846	3847	
4	3848	3849	3850	3851	
4	3852	3853	3854	3855	
4	3856	3857	3858	3859	
4	3860	3861	3862	3863	
4	3864	3865	3866	3867	
4	3868	3869	3870	3871	
4	3872	3873	3874	3875	
4	3876	3877	3878	3879	
4	3880	3881	3882	3883	
4	3884	3885	3886	3887	
4	3888	3889	3890	3891	
4	3892	3893	3894	3895	
4	3896	3897	3898	3899	
4	3900	3901	3902	3903	
4	3904	3905	3906	3907	
4	3908	3909	3910	3911	
4	3912	3913	3914	3915	
4	3916	3917	3918	3919	
4	3920	3921	3922	3923	
4	3924	3925	3926	3927	
4	3928	3929	3930	3931	
4	3932	3933	3934	3935	
4	3936	3937	3938	3939	
4	3940	3941	3942	3943	
4	3944	3945	3946	3947	
4	3948	3949	3950	3951	
4	3952	3953	3954	3955	
4	3956	3957	3958	3959	
4	3960	3961	3962	3963	
4	3964	3965	3966	3967	
4	3968	3969	3970	3971	
4	3972	3973	3974	3975	
4	3976	3977	3978	3979	
4	3980	3981	3982	3983	
4	3984	3985	3986	3987	
4	3988	3989	3990	3991	
4	3992	3993	3994	3995	
4	3996	3997	3998	3999	
4	4000	4001	4002	4003	
4	4004	4005	4006	4007	
4	4008	4009	4010	4011	
4	4012	4013	4014	4015	
4	4016	4017	4018	4019	
4	4020	4021	4022	4023	
4	4024	4025	4026	4027	
4	4028	4029	4030	4031	
4	4032	4033	4034	4035	
4	4036	4037	4038	4039	
4	4040	4041	4042	4043	
4	4044	4045	4046	4047	
4	4048	4049	4050	4051	
4	4052	4053	4054	4055	
4	4056	4057	4058	4059	
4	4060	4061	4062	4063	
4	4064	4065	4066	4067	
4	4068	4069	4070	4071	
4	4072	4073	4074	4075	
4	4076	4077	4078	4079	
4	4080	4081	4082	4083	
4	4084	4085	4086	4087	
4	4088	4089	4090	4091	
4	4092	4093	4094	4095	
4	4096	4097	4098	4099	
4	4100	4101	4102	4103	
4	4104	4105	4106	4107	
4	4108	4109	4110	4111	
4	4112	4113	4114	4115	
4	4116	4117	4118	4119	
4	4120	4121	4122	4123	
4	4124	4125	4126	4127	
4	4128	4129	4130	4131	
4	4132	4133	4134	4135	
4	4136	4137	4138	4139	
4	4140	4141	4142	4143	
4	4144	4145	4146	4147	
4	4148	4149	4150	4151	
4	4152	4153	4154	4155	
4	4156	4157	4158	4159	
4	4160	4161	4162	4163	
4	4164	4165	4166	4167	
4	4168	4169	4170	4171	
4	4172	4173	4174	4175	
4	4176	4177	4178	4179	
4	4180	4181	4182	4183	
4	4184	4185	4186	4187	
4	4188	4189	4190	4191	
4	4192	4193	4194	4195	
4	4196	4197	4198	4199	
4	4200	4201	4202	4203	
4	4204	4205	4206	4207	
4	4208	4209	4210	4211	
4	4212	4213	4214	4215	
4	4216	4217	4218	4219	
4	4220	4221	4222	4223	
4	4224	4225	4226	4227	
4	4228	4229	4230	4231	
4	4232	4233	4234	4235	
4	4236	4237	4238	4239	
4	4240	4241	4242	4243	
4	4244	4245	4246	4247	
4	4248	4249	4250	4251	
4	4252	4253	4254	4255	
4	4256	4257	4258	4259	
4	4260	4261	4262	4263	
4	4264	4265	4266	4267	
4	4268	4269	4270	4271	
4	4272	4273	4274	4275	
4	4276	4277	4278	4279	
4	4280	4281	4282	4283	
4	4284	4285	4286	4287	
4	4288	4289	4290	4291	
4	4292	4293	4294	4295	
4	4296	4297	4298	4299	
4	4300	4301	4302	4303	
4	4304	4305	4306	4307	
4	4308	4309	4310	4311	
4	4312	4313	4314	4315	
4	4316	4317	4318	4319	
4	4320	4321	4322	4323	
4	4324	4325	4326	4327	
4	4328	4329	4330	4331	
4	4332	4333	4334	4335	
4	4336	4337	4338	4339	
4	4340	4341	4342	4343	
4	4344	4345	4346	4347	
4	4348	4349	4350	4351	
4	4352	4353	4354	4355	
4	4356	4357	4358	4359	
4	4360	4361	4362	4363	
4	4364	4365	4366	4367	
4	4368	4369	4370	4371	
4	4372	4373	4374	4375	
4	4376	4377	4378	4379	
4	4380	4381	4382	4383	
4	4384	4385	4386	4387	
4	4388	4389	4390	4391	
4	4392	4393	4394	4395	
4	4396	4397	4398	4399	
4	4400	4401	4402	4403	
4	4404	4405	4406	4407	
4	4408	4409	4410	4411	
4	4412	4413	4414	4415	
4	4416	4417	4418	4419	
4	4420	4421	4422	4423	
4	4424	4425	4426	4427	
4	4428	4429	4430	4431	
4	4432	4433	4434	4435	
4	4436	4437	4438	4439	
4	4440	4441	4442	4443	
4	4444	4445	4446	4447	
4	4448	4449	4450	4451	
4	4452	4453	4454	4455	
4	4456	4457	4458	4459	
4	4460	4461	4462	4463	
4	4464	4465	4466	4467	
4	4468	4469	4470	4471	
4	4472	4473	4474	4475	
4	4476	4477	4478	4479	
4	4480	4481	4482	4483	
4	4484	4485	4486	4487	
4	4488	4489	4490	4491	
4	4492	4493	4494	4495	
4	4496	4497	4498	4499	
4	4500	4501	4502	4503	
4	4504	4505	4506	4507	
4	4508	4509	4510	4511	
4	4512	4513	4514	4515	
4	4516	4517	4518	4519	
4	4520	4521	4522	4523	
4	4524	4525	4526	4527	
4	4528	4529	4530	4531	
4	4532	4533	4534	4535	
4	4536	4537	4538	4539	
4	4540	4541	4542	4543	
4	4544	4545	4546	4547	
4	4548	4549	4550	4551	
4	4552	4553	4554	4555	
4	4556	4557	4558	4559	
4	4560	4561	4562	4563	
4	4564	4565	4566	4567	
4	4568	4569	4570	4571	
4	4572	4573	4574	4575	
4	4576	4577	4578	4579	
4	4580	4581	4582	4583	
4	4584	4585	4586	4587	
4	4588	4589	4590	4591	
4	4592	4593	4594	4595	
4	4596	4597	4598	4599	
4	4600	4601	4602	4603	
4	4604	4605	4606	4607	
4	4608	4609	4610	4611	
4	4612	4613	4614	4615	
4	4616	4617	4618	4619	
4	4620	4621	4622	4623	
4	4624	4625	4626	4627	
4	4628	4629	4630	4631	
4	4632	4633	4634	4635	
4	4636	4637	4638	4639	
4	4640	4641	4642	4643	
4	4644	4645	4646	4647	
4	4648	4649	4650	4651	
4	4652	4653	4654	4655	
4	4656	4657	4658	4659	
4	4660	4661	4662	4663	
4	4664	4665	4666	4667	
4	4668	4669	4670	4671	
4	4672	4673	4674	4675	
4	4676	4677	4678	4679	
4	4680	4681	4682	4683	
4	4684	4685	4686	4687	
4	4688	4689	4690	4691	
4	4692	4693	4694	4695	
4	4696	4697	4698	4699	
4	4700	4701	4702	4703	
4	4704	4705	4706	4707	
4	4708	4709	4710	4711	
4	4712	4713	4714	4715	
4	4716	4717	4718	4719	
4	4720	4721	4722	4723	
4	4724	4725	4726	4727	
4	4728	4729	4730	4731	
4	4732	4733	4734	4735	
4	4736	4737	4738	4739	
4	4740	4741	4742	4743	
4	4744	4745	4746	4747	
4	4748	4749	4750	4751	
4	4752	4753	4754	4755	
4	4756	4757	4758	4759	
4	4760	4761	4762	4763	
4	4764	4765	4766	4767	
4	4768	4769	4770	4771	
4	4772	4773	4774	4775	
4	4776	4777	4778	4779	
4	4780	4781	4782	4783	
4	4784	4785	4786	4787	
4	4788	4789	4790	4791	
4	4792	4793	4794	4795	
4	4796	4797	4798	4799	
4	4800	4801	4802	4803	
4	4804	4805	4806	4807	
4	4808	4809	4810	4811	
4	4812	4813	4814	4815	
4	4816	4817	4818	4819	
4	4820	4821	4822	4823	
4	4824	4825	4826	4827	
4	4828	4829	4830	4831	
4	4832	4833	4834	4835	
4	4836	4837	4838	4839	
4	4840	4841	4842	4843	
4	4844	4845	4846	4847	
4	4848	4849	4850	4851	
4	4852	4853	4854	4855	
4	4856	4857	4858	4859	
4	4860	4861	4862	4863	
4	4864	4865	4866	4867	
4	4868	4869	4870	4871	
4	4872	4873	4874	4875	
4	4876	4877	4878	4879	
4	4880	4881	4882	4883	
4	4884	4885	4886	4887	
4	4888	4889	4890	4891	
4	4892	4893	4894	4895	
4	4896	4897	4898	4899	
4	4900	4901	4902	4903	
4	4904	4905	4906	4907	
4	4908	4909	4910	4911	
4	4912	4913	4914	4915	
4	4916	4917	4918	4919	
4	4920	4921	4922	4923	
4	4924	4925	4926	4927	
4	4928	4929	4930	4931	
4	4932	4933	4934	4935	
4	4936	4937	4938	4939	
4	4940	4941	4942	4943	
4	4944	4945	4946	4947	
4	4948	4949	4950	4951	
4	4952	4953	4954	4955	
4	4956	4957	4958	4959	
4	4960	4961	4962	4963	
4	4964	4965	4966	4967	
4	4968	4969	4970	4971	
4	4972	4973	4974	4975	
4	4976	4977	4978	4979	
4	4980	4981	4982	4983	
4	4984	4985	4986	4987	
4	4988	4989	4990	4991	
4	4992	4993	4994	4995	
4	4996	4997	4998	4999	
4	5000	5001	5002	5003	
4	5004	5005	5006	5007	
4	5008	5009	5010	5011	
4	5012	5013	5014	5015	
4	5016	5017	5018	5019	
4	5020	5021	5022	5023	
4	5024	5025	5026	5027	
4	5028	5029	5030	5031	
4	5032	5033	5034	5035	
4	5036	5037	5038	5039	
4	5040	5041	5042	5043	
4	5044	5045	5046	5047	
4	5048	5049	5050	5051	
4	5052	5053	5054	5055	
4	5056	5057	5058	5059	
4	5060	5061	5062	5063	
4	5064	5065	5066	5067	
4	5068	5069	5070	5071	
4	5072	5073	5074	5075	
4	5076	5077	5078	5079	
4	5080	5081	5082	5083	
4	5084	5085	5086	5087	
4	5088	5089	5090	5091	
4	5092	5093	5094	5095	
4	5096	5097	5098	5099	
4	5100	5101	5102	5103	
4	5104	5105	5106	5107	
4	5108	5109	5110	5111	
4	5112	5113	5114	5115	
4	5116	5117	5118	5119	
4	5120	5121	5122	5123	
4	5124	5125	5126	5127	
4	5128	5129	5130	5131	
4	5132	5133	5134	5135	
4	5136	5137	5138	5139	
4	5140	5141	5142	5143	
4	5144	5145	5146	5147	
4	5148	5149	5150	5151	
4	5152	5153	5154	5155	
4	5156	5157	5158	5159	
4	5160	5161	5162	5163	
4	5164	5165	5166	5167	
4	5168	5169	5170	5171	
4	5172	5173	5174	5175	
4	5176	5177	5178	5179	
4	5180	5181	5182	5183	
4	5184	5185	5186	5187	
4	5188	5189	5190	5191	
4	5192	5193	5194	5195	
4	5196	5197	5198	5199	
4	5200	5201	5202	5203	
4	5204	5205	5206	5207	
4	5208	5209	5210	5211	
4	5212	5213	5214	5215	
4	5216	5217	5218	5219	
4	5220	5221	5222	5223	
4	5224	5225	5226	5227	
4	5228	5229	5230	5231	
4	5232	5233	5234	5235	
4	5236	5237	5238	5239	
4	5240	5241	5242	5243	
4	5244	5245	5246	5247	
4	5248	5249	5250	5251	
4	5252	5253	5254	5255	
4	5256	5257	5258	5259	
4	5260	5261	5262	5263	
4	5264	5265	5266	5267	
4	5268	5269	5270	5271	
4	5272	5273	5274	5275	
4	5276	5277	5278	5279	
4	5280	5281	5282	5283	
4	5284	5285	5286	5287	
4	5288	5289	5290	5291	
4	5292	5293	5294	5295	
4	5296	5297	5298	5299	
4	5300	5301	5302	5303	
4	5304	5305	5306	5307	
4	5308	5309	5310	5311	
4	5312	5313	5314	5315	
4	5316	5317	5318	5319	
4	5320	5321	5322	5323	
4	5324	5325	5326	5327	
4	5328	5329	5330	5331	
4	5332	5333	5334	5335	
4	5336	5337	5338	5339	
4	5340	5341	5342	5343	
4	5344	5345	5346	5347	
4	5348	5349	5350	5351	
4	5352	5353	5354	5355	
4	5356	5357	5358	5359	
4	5360	5361	5362	5363	
4	5364	5365	5366	5367	
4	5368	5369	5370	5371	
4	5372	5373	5374	5375	
4	5376	5377	5378	5379	
4	5380	5381	5382	5383	
4	5384	5385	5386	5387	
4	5388	5389	5390	5391	
4	5392	5393	5394	5395	
4	5396	5397	5398	5399	
4	5400	5401	5402	5403	
4	5404	5405	5406	5407	
4	5408	5409	5410	5411	
4	5412	5413	5414	5415	
4	5416	5417	5418	5419	
4	5420	5421	5422	5423	
4	5424	5425	5426	5427	
4	5428	5429	5430	5431	
4	5432	5433	5434	5435	
4	5436	5437	5438	5439	
4	5440	5441	5442	5443	
4	5444	5445	5446	5447	
4	5448	5449	5450	5451	
4	5452	5453	5454	5455	
4	5456	5457	5458	5459	
4	5460	5461	5462	5463	
4	5464	5465	5466	5467	
4	5468	5469	5470	5471	
4	5472	5473	5474	5475	
4	5476	5477	5478	5479	
4	5480	5481	5482	5483	
4	5484	5485	5486	5487	
4	5488	5489	5490	5491	
4	5492	5493	5494	5495	
4	5496	5497	5498	5499	
4	5500	5501	5502	5503	
4	5504	5505	5506	5507	
4	5508	5509	5510	5511	
4	5512	5513	5514	5515	
4	5516	5517	5518	5519	
4	5520	5521	5522	5523	
4	5524	5525	5526	5527	
4	5528	5529	5530	5531	
4	5532	5533	5534	5535	
4	5536	5537	5538	5539	
4	5540	5541	5542	5543	
4	5544	5545	5546	5547	
4	5548	5549	5550	5551	
4	5552	5553	5554	5555	
4	5556	5557	5558	5559	
4	5560	5561	5562	5563	
4	5564	5565	5566	5567	
4	5568	5569	5570	5571	
4	5572	5573	5574	5575	
4	5576	5577	5578	5579	
4	5580	5581	5582	5583	
4	5584	5585	5586	5587	
4	5588	5589	5590	5591	
4	5592	5593	5594	5595	
4	5596	5597	5598	5599	
4	5600	5601	5602	5603	
4	5604	5605	5606	5607	
4	5608	5609	5610	5611	
4	5612	5613	5614	5615	
4	5616	5617	5618	5619	
4	5620	5621	5622	5623	
4	5624	5625	5626	5627	
4	5628	5629	5630	5631	
4	5632	5633	5634	5635	
4	5636	5637	5638	5639	
4	5640	5641	5642	5643	
4	5644	5645	5646	5647	
4	5648	5649	5650	5651	
4	5652	5653	5654	5655	
4	5656	5657	5658	5659	
4	5660	5661	5662	5663	
4	5664	5665	5666	5667	
4	5668	5669	5670	5671	
4	5672	5673	5674	5675	
4	5676	5677	5678	5679	
4	5680	5681	5682	5683	
4	5684	5685	5686	5687	
4	5688	5689	5690	5691	
4	5692	5693	5694	5695	
4	5696	5697	5698	5699	
4	5700	5701	5702	5703	
4	5704	5705	5706	5707	
4	5708	5709	5710	5711	
4	5712	5713	5714	5715	
4	5716	5717	5718	5719	
4	5720	5721	5722	5723	
4	5724	5725	5726	5727	
4	5728	5729	5730	5731	
4	5732	5733	5734	5735	
4	5736	5737	5738	5739	
4	5740	5741	5742	5743	
4	5744	5745	5746	5747	
4	5748	5749	5750	5751	
4	5752	5753	5754	5755	
4	5756	5757	5758	5759	
4	5760	5761	5762	5763	
4	5764	5765	5766	5767	
4	5768	5769	5770	5771	
4	5772	5773	5774	5775	
4	5776	5777	5778	5779	
4	5780	5781	5782	5783	
4	5784	5785	5786	5787	
4	5788	5789	5790	5791	
4	5792	5793	5794	5795	
4	5796	5797	5798	5799	
4	5800	5801	5802	5803	
4	5804	5805	5806	5807	
4	5808	5809	5810	5811	
4	5812	5813	5814	5815	
4	5816	5817	5818	5819	
4	5820	5821	5822	5823	
4	5824	5825	5826	5827	
4	5828	5829	5830	5831	
4	5832	5833	5834	5835	
4	5836	5837	5838	5839	
4	5840	5841	5842	5843	
4	5844	5845	5846	5847	
4	5848	5849	5850	5851	
4	5852	5853	5854	5855	
4	5856	5857	5858	5859	
4	5860	5861	5862	5863	
4	5864	5865	5866	5867	
4	5868	5869	5870	5871	
4	5872	5873	5874	5875	
4	5876	5877	5878	5879	
4	5880	5881	5882	5883	
4	5884	5885	5886	5887	
4	5888	5889	5890	5891	
4	5892	5893	5894	5895	
4	5896	5897	5898	5899	
4	5900	5901	5902	5903	
4	5904	5905	5906	5907	
4	5908	5909	5910	5911	
4	5912	5913	5914	5915	
4	5916	5917	5918	5919	
4	5920	5921	5922	5923	
4	5924	5925	5926	5927	
4	5928	5929	5930	5931	
4	5932	5933	5934	5935	
4	5936	5937	5938	5939	
4	5940	5941	5942	5943	
4	5944	5945	5946	5947	
4	5948	5949	5950	5951	
4	5952	5953	5954	5955	
4	5956	5957	5958	5959	
4	5960	5961	5962	5963	
4	5964	5965	5966	5967	
4	5968	5969	5970	5971	
4	5972	5973	5974	5975	
4	5976	5977	5978	5979	
4	5980	5981	5982	5983	
4	5984	5985	5986	5987	
4	5988	5989	5990	5991	
4	5992	5993	5994	5995	
4	5996	5997	5998	5999	
4	6000	6001	6002	6003	
4	6004	6005	6006	6007	
4	6008	6009	6010	6011	
4	6012	6013	6014	6015	
4	6016	6017	6018	6019	
4	6020	6021	6022	6023	
4	6024	6025	6026	6027	
4	6028	6029	6030	6031	
4	6032	6033	6034	6035	
4	6036	6037	6038	6039	
4	6040	6041	6042	6043	
4	6044	6045	6046	6047	
4	6048	6049	6050	6051	
4	6052	6053	6054	6055	
4	6056	6057	6058	6059	
4	6060	6061	6062	6063	
4	6064	6065	6066	6067	
4	6068	6069	6070	6071	
4	6072	6073	6074	6075	
4	6076	6077	6078	6079	
4	6080	6081	6082	6083	
4	6084	6085	6086	6087	
4	6088	6089	6090	6091	
4	6092	6093	6094	6095	
4	6096	6097	6098	6099	
4	6100	6101	6102	6103	
4	6104	6105	6106	6107	
4	6108	6109	6110	6111	
4	6112	6113	6114	6115	
4	6116	6117	6118	6119	
4	6120	6121	6122	6123	
4	6124	6125	6126	6127	
4	6128	6129	6130	6131	
4	6132	6133	6134	6135	
4	6136	6137	6138	6139	
4	6140	6141	6142	6143	
4	6144	6145	6146	6147	
4	6148	6149	6150	6151	
4	6152	6153	6154	6155	
4	6156	6157	6158	6159	
4	6160	6161	6162	6163	
4	6164	6165	6166	6167	
4	6168	6169	6170	6171	
4	6172	6173	6174	6175	
4	6176	6177	6178	6179	
4	6180	6181	6182	6183	
4	6184	6185	6186	6187	
4	6188	6189	6190	6191	
4	6192	6193	6194	6195	
4	6196	6197	6198	6199	
4	6200	6201	6202	6203	
4	6204	6205	6206	6207	
4	6208	6209	6210	6211	
4	6212	6213	6214	6215	
4	6216	6217	6218	6219	
4	6220	6221	6222	6223	
4	6224	6225	6226	6227	
4	6228	6229	6230	6231	
4	6232	6233	6234	6235	
4	6236	6237	6238	6239	
4	6240	6241	6242	6243	
4	6244	6245	6246	6247	
4	6248	6249	6250	6251	
4	6252	6253	6254	6255	
4	6256	6257	6258	6259	
4	6260	6261	6262	6263	
4	6264	6265	6266	6267	
4	6268	6269	6270	6271	
4	6272	6273	6274	6275	
4	6276	6277	6278	6279	
4	6280	6281	6282	6283	
4	6284	6285	6286	6287	
4	6288	6289	6290	6291	
4	6292	6293	6294	6295	
4	6296	6297	6298	6299	
4	6300	6301	6302	6303	
4	6304	6305	6306	6307	
4	6308	6309	6310	6311	
4	6312	6313	6314	6315	
4	6316	6317	6318	6319	
4	6320	6321	6322	6323	
4	6324	6325	6326	6327	
4	6328	6329	6330	6331	
4	6332	6333	6334	6335	
4	6336	6337	6338	6339	
4	6340	6341	6342	6343	
4	6344	6345	6346	6347	
4	6348	6349	6350	6351	
4	6352	6353	6354	6355	
4	6356	6357	6358	6359	
4	6360	6361	6362	6363	
4	6364	6365	6366	6367	
4	6368	6369	6370	6371	
4	6372	6373	6374	6375	
4	6376	6377	6378	6379	
4	6380	6381	6382	6383	
4	6384	6385	6386	6387	
4	6388	6389	6390	6391	
4	6392	6393	6394	6395	
4	6396	6397	6398	6399	
4	6400	6401	6402	6403	
4	6404	6405	6406	6407	
4	6408	6409	6410	6411	
4	6412	6413	6414	6415	
4	6416	6417	6418	6419	
4	6420	6421	6422	6423	
4	6424	6425	6426	6427	
4	6428	6429	6430	6431	
4	6432	6433	6434	6435	
4	6436	6437	6438	6439	
4	6440	6441	6442	6443	
4	6444	6445	6446	6447	
4	6448	6449	6450	6451	
4	6452	6453	6454	6455	
4	6456	6457	6458	6459	
4	6460	6461	6462	6463	
4	6464	6465	6466	6467	
4	6468	6469	6470	6471	
4	6472	6473	6474	6475	
4	6476	6477	6478	6479	
4	6480	6481	6482	6483	
4	6484	6485	6486	6487	
4	6488	6489	6490	6491	
4	6492	6493	6494	6495	
4	6496	6497	6498	6499	
4	6500	6501	6502	6503	
4	6504	6505	6506	6507	
4	6508	6509	6510	6511	
4	6512	6513	6514	6515	
4	6516	6517	6518	6519	
4	6520	6521	6522	6523	
4	6524	6525	6526	6527	
4	6528	6529	6530	6531	
4	6532	6533	6534	6535	
4	6536	6537	6538	6539	
4	6540	6541	6542	6543	
4	6544	6545	6546	6547	
4	6548	6549	6550	6551	
4	6552	6553	6554	6555	
4	6556	6557	6558	6559	
4	6560	6561	6562	6563	
4	6564	6565	6566	6567	
4	6568	6569	6570	6571	
4	6572	6573	6574	6575	
4	6576	6577	6578	6579	
4	6580	6581	6582	6583	
4	6584	6585	6586	6587	
4	6588	6589	6590	6591	
4	6592	6593	6594	6595	
4	6596	6597	6598	6599	
4	6600	6601	6602	6603	
4	6604	6605	6606	6607	
4	6608	6609	6610	6611	
4	6612	6613	6614	6615	
4	6616	6617	6618	6619	
4	6620	6621	6622	6623	
4	6624	6625	6626	6627	
4	6628	6629	6630	6631	
4	6632	6633	6634	6635	
4	6636	6637	6638	6639	
4	6640	6641	6642	6643	
4	6644	6645	6646	6647	
4	6648	6649	6650	6651	
4	6652	6653	6654	6655	
4	6656	6657	6658	6659	
4	6660	6661	6662	6663	
4	6664	6665	6666	6667	
4	6668	6669	6670	6671	
4	6672	6673	6674	6675	
4	6676	6677	6678	6679	
4	6680	6681	6682	6683	
4	6684	6685	6686	6687	
4	6688	6689	6690	6691	
4	6692	6693	6694	6695	
4	6696	6697	6698	6699	
4	6700	6701	6702	6703	
4	6704	6705	6706	6707	
4	6708	6709	6710	6711	
4	6712	6713	6714	6715	
4	6716	6717	6718	6719	
4	6720	6721	6722	6723	
4	6724	6725	6726	6727	
4	6728	6729	6730	6731	
4	6732	6733	6734	6735	
4	6736	6737	6738	6739	
4	6740	6741	6742	6743	
4	6744	6745	6746	6747	
4	6748	6749	6750	6751	
4	6752	6753	6754	6755	
4	6756	6757	6758	6759	
4	6760	6761	6762	6763	
4	6764	6765	6766	6767	
4	6768	6769	6770	6771	
4	6772	6773	6774	6775	
4	6776	6777	6778	6779	
4	6780	6781	6782	6783	
4	6784	6785	6786	6787	
4	6788	6789	6790	6791	
4	6792	6793	6794	6795	
4	6796	6797	6798	6799	
4	6800	6801	6802	6803	
4	6804	6805	6806	6807	
4	6808	6809	6810	6811	
4	6812	6813	6814	6815	
4	6816	6817	6818	6819	
4	6820	6821	6822	6823	
4	6824	6825	6826	6827	
4	6828	6829	6830	6831	
4	6832	6833	6834	6835	
4	6836	6837	6838	6839	
4	6840	6841	6842	6843	
4	6844	6845	6846	6847	
4	6848	6849	6850	6851	
4	6852	6853	6854	6855	
4	6856	6857	6858	6859	
4	6860	6861	6862	6863	
4	6864	6865	6866	6867	
4	6868	6869	6870	6871	
4	6872	6873	6874	6875	
4	6876	6877	6878	6879	
4	6880	6881	6882	6883	
4	6884	6885	6886	6887	
4	6888	6889	6890	6891	
4	6892	6893	6894	6895	
4	6896	6897	6898	6899	
4	6900	6901	6902	6903	
4	6904	6905	6906	6907	
4	6908	6909	6910	6911	
4	6912	6913	6914	6915	
4	6916	6917	6918	6919	
4	6920	6921	6922	6923	
4	6924	6925	6926	6927	
4	6928	6929	6930	6931	
4	6932	6933	6934	6935	
4	6936	6937	6938	6939	
4	6940	6941	6942	6943	
4	6944	6945	6946	6947	
4	6948	6949	6950	6951	
4	6952	6953	6954	6955	
4	6956	6957	6958	6959	
4	6960	6961	6962	6963	
4	6964	6965	6966	6967	
4	6968	6969	6970	6971	
4	6972	6973	6974	6975	
4	6976	6977	6978	6979	
4	6980	6981	6982	6983	
4	6984	6985	6986	6987	
4	6988	6989	6990	6991	
4	6992	6993	6994	6995	
4	6996	6997	6998	6999	
4	7000	7001	7002	7003	
4	7004	7005	7006	7007	
4	7008	7009	7010	7011	
4	7012	7013	7014	7015	
4	7016	7017	7018	7019	
4	7020	7021	7022	7023	
4	7024	7025	7026	7027	
4	7028	7029	7030	7031	
4	7032	7033	7034	7035	
4	7036	7037	7038	7039	
4	7040	7041	7042	7043	
4	7044	7045	7046	7047	
4	7048	7049	7050	7051	
4	7052	7053	7054	7055	
4	7056	7057	7058	7059	
4	7060	7061	7062	7063	
4	7064	7065	7066	7067	
4	7068	7069	7070	7071	
4	7072	7073	7074	7075	
4	7076	7077	7078	7079	
4	7080	7081	7082	7083	
4	7084	7085	7086	7087	
4	7088	7089	7090	7091	
4	7092	7093	7094	7095	
4	7096	7097	7098	7099	
4	7100	7101	7102	7103	
4	7104	7105	7106	7107	
4	7108	7109	7110	7111	
4	7112	7113	7114	7115	
4	7116	7117	7118	7119	
4	7120	7121	7122	7123	
4	7124	7125	7126	7127	
4	7128	7129	7130	7131	
4	7132	7133	7134	7135	
4	7136	7137	7138	7139	
4	7140	7141	7142	7143	
4	7144	7145	7146	7147	
4	7148	7149	7150	7151	
4	7152	7153	7154	7155	
4	7156	7157	7158	7159	
4	7160	7161	7162	7163	
4	7164	7165	7166	7167	
4	7168	7169	7170	7171	
4	7172	7173	7174	7175	
4	7176	7177	7178	7179	
4	7180	7181	7182	7183	
4	7184	7185	7186	7187	
4	7188	7189	7190	7191	
4	7192	7193	7194	7195	
4	7196	7197	7198	7199	
4	7200	7201	7202	7203	
4	7204	7205	7206	7207	
4	7208	7209	7210	7211	
4	7212	7213	7214	7215	
4	7216	7217	7218	7219	
4	7220	7221	7222	7223	
4	7224	7225	7226	7227	
4	7228	7229	7230	7231	
4	7232	7233	7234	7235	
4	7236	7237	7238	7239	
4	7240	7241	7242	7243	
4	7244	7245	7246	7247	
4	7248	7249	7250	7251	
4	7252	7253	7254	7255	
4	7256	7257	7258	7259	
4	7260	7261	7262	7263	
4	7264	7265	7266	7267	
4	7268	7269	7270	7271	
4	7272	7273	7274	7275	
4	7276	7277	7278	7279	
4	7280	7281	7282	7283	
4	7284	7285	7286	7287	
4	7288	7289	7290	7291	
4	7292	7293	7294	7295	
4	7296	7297	7298	7299	
4	7300	7301	7302	7303	
4	7304	7305	7306	7307	
4	7308	7309	7310	7311	
4	7312	7313	7314	7315	
4	7316	7317	7318	7319	
4	7320	7321	7322	7323	
4	7324	7325	7326	7327	
4	7328	7329	7330	7331	
4	7332	7333	7334	7335	
4	7336	7337	7338	7339	
4	7340	7341	7342	7343	
4	7344	7345	7346	7347	
4	7348	7349	7350	7351	
4	7352	7353	7354	7355	
4	7356	7357	7358	7359	
4	7360	7361	7362	7363	
4	7364	7365	7366	7367	
4	7368	7369	7370	7371	
4	7372	7373	7374	7375	
4	7376	7377	7378	7379	
4	7380	7381	7382	7383	
4	7384	7385	7386	7387	
4	7388	7389	7390	7391	
4	7392	7393	7394	7395	
4	7396	7397	7398	7399	
4	7400	7401	7402	7403	
4	7404	7405	7406	7407	
4	7408	7409	7410	7411	
4	7412	7413	7414	7415	
4	7416	7417	7418	7419	
4	7420	7421	7422	7423	
4	7424	7425	7426	7427	
4	7428	7429	7430	7431	
4	7432	7433	7434	7435	
4	7436	7437	7438	7439	
4	7440	7441	7442	7443	
4	7444	7445	7446	7447	
4	7448	7449	7450	7451	
4	7452	7453	7454	7455	
4	7456	7457	7458	7459	
4	7460	7461	7462	7463	
4	7464	7465	7466	7467	
4	7468	7469	7470	7471	
4	7472	7473	7474	7475	
4	7476	7477	7478	7479	
4	7480	7481	7482	7483	
4	7484	7485	7486	7487	
4	7488	7489	7490	7491	
4	7492	7493	7494	7495	
4	7496	7497	7498	7499	
4	7500	7501	7502	7503	
4	7504	7505	7506	7507	
4	7508	7509	7510	7511	
4	7512	7513	7514	7515	
4	7516	7517	7518	7519	
4	7520	7521	7522	7523	
4	7524	7525	7526	7527	
4	7528	7529	7530	7531	
4	7532	7533	7534	7535	
4	7536	7537	7538	7539	
4	7540	7541	7542	7543	
4	7544	7545	7546	7547	
4	7548	7549	7550	7551	
4	7552	7553	7554	7555	
4	7556	7557	7558	7559	
4	7560	7561	7562	7563	
4	7564	7565	7566	7567	
4	7568	7569	7570	7571	
4	7572	7573	7574	7575	
4	7576	7577	7578	7579	
4	7580	7581	7582	7583	
4	7584	7585	7586	7587	
4	7588	7589	7590	7591	
4	7592	7593	7594	7595	
4	7596	7597	7598	7599	
4	7600	7601	7602	7603	
4	7604	7605	7606	7607	
4	7608	7609	7610	7611	
4	7612	7613	7614	7615	
4	7616	7617	7618	7619	
4	7620	7621	7622	7623	
4	7624	7625	7626	7627	
4	7628	7629	7630	7631	
4	7632	7633	7634	7635	
4	7636	7637	7638	7639	
4	7640	7641	7642	7643	
4	7644	7645	7646	7647	
4	7648	7649	7650	7651	
4	7652	7653	7654	7655	
4	7656	7657	7658	7659	
4	7660	7661	7662	7663	
4	7664	7665	7666	7667	
4	7668	7669	7670	7671	
4	7672	7673	7674	7675	
4	7676	7677	7678	7679	
4	7680	7681	7682	7683	
4	7684	7685	7686	7687	
4	7688	7689	7690	7691	
4	7692	7693	7694	7695	
4	7696	7697	7698	7699	
4	7700	7701	7702	7703	
4	7704	7705	7706	7707	
4	7708	7709	7710	7711	
4	7712	7713	7714	7715	
4	7716	7717	7718	7719	
4	7720	7721	7722	7723	
4	7724	7725	7726	7727	
4	7728	7729	7730	7731	
4	7732	7733	7734	7735	
4	7736	7737	7738	7739	
4	7740	7741	7742	7743	
4	7744	7745	7746	7747	
4	7748	7749	7750	7751	
4	7752	7753	7754	7755	
4	7756	7757	7758	7759	
4	7760	7761	7762	7763	
4	7764	7765	7766	7767	
4	7768	7769	7770	7771	
4	7772	7773	7774	7775	
4	7776	7777	7778	7779	
4	7780	7781	7782	7783	
4	7784	7785	7786	7787	
4	7788	7789	7790	7791	
4	7792	7793	7794	7795	
4	7796	7797	7798	7799	
4	7800	7801	7802	7803	
4	7804	7805	7806	7807	
4	7808	7809	7810	7811	
4	7812	7813	7814	7815	
4	7816	7817	7818	7819	
4	7820	7821	7822	7823	
4	7824	7825	7826	7827	
4	7828	7829	7830	7831	
4	7832	7833	7834	7835	
4	7836	7837	7838	7839	
4	7840	7841	7842	7843	
4	7844	7845	7846	7847	
4	7848	7849	7850	7851	
4	7852	7853	7854	7855	
4	7856	7857	7858	7859	
4	7860	7861	7862	7863	
4	7864	7865	7866	7867	
4	7868	7869	7870	7871	
4	7872	7873	7874	7875	
4	7876	7877	7878	7879	
4	7880	7881	7882	7883	
4	7884	7885	7886	7887	
4	7888	7889	7890	7891	
4	7892	7893	7894	7895	
4	7896	7897	7898	7899	
4	7900	7901	7902	7903	
4	7904	7905	7906	7907	
4	7908	7909	7910	7911	
4	7912	7913	7914	7915	
4	7916	7917	7918	7919	
4	7920	7921	7922	7923	
4	7924	7925	7926	7927	
4	7928	7929	7930	7931	
4	7932	7933	7934	7935	
4	7936	7937	7938	7939	
4	7940	7941	7942	7943	
4	7944	7945	7946	7947	
4	7948	7949	7950	7951	
4	7952	7953	7954	7955	
4	7956	7957	7958	7959	
4	7960	7961	7962	7963	
4	7964	7965	7966	7967	
4	7968	7969	7970	7971	
4	7972	7973	7974	7975	
4	7976	7977	7978	7979	
4	7980	7981	7982	7983	
4	7984	7985	7986	7987	
4	7988	7989	7990	7991	
4	7992	7993	7994	7995	
4	7996	7997	7998	7999	
4	8000	8001	8002	8003	
4	8004	8005	8006	8007	
4	8008	8009	8010	8011	
4	8012	8013	8014	8015	
4	8016	8017	8018	8019	
4	8020	8021	8022	8023	
4	8024	8025	8026	8027	
4	8028	8029	8030	8031	
4	8032	8033	8034	8035	
4	8036	8037	8038	8039	
4	8040	8041	8042	8043	
4	8044	8045	8046	8047	
4	8048	8049	8050	8051	
4	8052	8053	8054	8055	
4	8056	8057	8058	8059	
4	8060	8061	8062	8063	
4	8064	8065	8066	8067	
4	8068	8069	8070	8071	
4	8072	8073	8074	8075	
4	8076	8077	8078	8079	
4	8080	8081	8082	8083	
4	8084	8085	8086	8087	
4	8088	8089	8090	8091	
4	8092	8093	8094	8095	
4	8096	8097	8098	8099	
4	8100	8101	8102	8103	
4	8104	8105	8106	8107	
4	8108	8109	8110	8111	
4	8112	8113	8114	8115	
4	8116	8117	8118	8119	
4	8120	8121	8122	8123	
4	8124	8125	8126	8127	
4	8128	8129	8130	8131	
4	8132	8133	8134	8135	
4	8136	8137	8138	8139	
4	8140	8141	8142	8143	
4	8144	8145	8146	8147	
4	8148	8149	8150	8151	
4	8152	8153	8154	8155	
4	8156	8157	8158	8159	
4	8160	8161	8162	8163	
4	8164	8165	8166	8167	
4	8168	8169	8170	8171	
4	8172	8173	8174	8175	
4	8176	8177	8178	8179	
4	8180	8181	8182	8183	
4	8184	8185	8186	8187	
4	8188	8189	8190	8191	
4	8192	8193	8194	8195	
4	8196	8197	8198	8199	
4	8200	8201	8202	8203	
4	8204	8205	8206	8207	
4	8208	8209	8210	8211	
4	8212	8213	8214	8215	
4	8216	8217	8218	8219	
4	8220	8221	8222	8223	
4	8224	8225	8226	8227	
4	8228	8229	8230	8231	
4	8232	8233	8234	8235	
4	8236	8237	8238	8239	
4	8240	8241	8242	8243	
4	8244	8245	8246	8247	
4	8248	8249	8250	8251	
4	8252	8253	8254	8255	
4	8256	8257	8258	8259	
4	8260	8261	8262	8263	
4	8264	8265	8266	8267	
4	8268	8269	8270	8271	
4	8272	8273	8274	8275	
4	8276	8277	8278	8279	
4	8280	8281	8282	8283	
4	8284	8285	8286	8287	
4	8288	8289	8290	8291	
4	8292	8293	8294	8295	
4	8296	8297	8298	8299	
4	8300	8301	8302	8303	
4	8304	8305	8306	8307	
4	8308	8309	8310	8311	
4	8312	8313	8314	8315	
4	8316	8317	8318	8319	
4	8320	8321	8322	8323	
4	8324	8325	8326	8327	
4	8328	8329	8330	8331	
4	8332	8333	8334	8335	
4	8336	8337	8338	8339	
4	8340	8341	8342	8343	
4	8344	8345	8346	8347	
4	8348	8349	8350	8351	
4	8352	8353	8354	8355	
4	8356	8357	8358	8359	
4	8360	8361	8362	8363	
4	8364	8365	8366	8367	
4	8368	8369	8370	8371	
4	8372	8373	8374	8375	
4	8376	8377	8378	8379	
4	8380	8381	8382	8383	
4	8384	8385	8386	8387	
4	8388	8389	8390	8391	
4	8392	8393	8394	8395	
4	8396	8397	8398	8399	
4	8400	8401	8402	8403	
4	8404	8405	8406	8407	
4	8408	8409	8410	8411	
4	8412	8413	8414	8415	
4	8416	8417	8418	8419	
4	8420	8421	8422	8423	
4	8424	8425	8426	8427	
4	8428	8429	8430	8431	
4	8432	8433	8434	8435	
4	8436	8437	8438	8439	
4	8440	8441	8442	8443	
4	8444	8445	8446	8447	
4	8448	8449	8450	8451	
4	8452	8453	8454	8455	
4	8456	8457	8458	8459	
4	8460	8461	8462	8463	
4	8464	8465	8466	8467	
4	8468	8469	8470	8471	
4	8472	8473	8474	8475	
4	8476	8477	8478	8479	
4	8480	8481	8482	8483	
4	8484	8485	8486	8487	
4	8488	8489	8490	8491	
4	8492	8493	8494	8495	
4	8496	8497	8498	8499	
4	8500	8501	8502	8503	
4	8504	8505	8506	8507	
4	8508	8509	8510	8511	
4	8512	8513	8514	8515	
4	8516	8517	8518	8519	
4	8520	8521	8522	8523	
4	8524	8525	8526	8527	
4	8528	8529	8530	8531	
4	8532	8533	8534	8535	
4	8536	8537	8538	8539	
4	8540	8541	8542	8543	
4	8544	8545	8546	8547	
4	8548	8549	8550	8551	
4	8552	8553	8554	8555	
4	8556	8557	8558	8559	
4	8560	8561	8562	8563	
4	8564	8565	8566	8567	
4	8568	8569	8570	8571	
4	8572	8573	8574	8575	
4	8576	8577	8578	8579	
4	8580	8581	8582	8583	
4	8584	8585	8586	8587	
4	8588	8589	8590	8591	
4	8592	8593	8594	8595	
4	8596	8597	8598	8599	
4	8600	8601	8602	8603	
4	8604	8605	8606	8607	
4	8608	8609	8610	8611	
4	8612	8613	8614	8615	
4	8616	8617	8618	8619	
4	8620	8621	8622	8623	
4	8624	8625	8626	8627	
4	8628	8629	8630	8631	
4	8632	8633	8634	8635	
4	8636	8637	8638	8639	
4	8640	8641	8642	8643	
4	8644	8645	8646	8647	
4	8648	8649	8650	8651	
4	8652	8653	8654	8655	
4	8656	8657	8658	8659	
4	8660	8661	8662	8663	
4	8664	8665	8666	8667	
4	8668	8669	8670	8671	
4	8672	8673	8674	8675	
4	8676	8677	8678	8679	
4	8680	8681	8682	8683	
4	8684	8685	8686	8687	
4	8688	8689	8690	8691	
4	8692	8693	8694	8695	
4	8696	8697	8698	8699	
4	8700	8701	8702	8703	
4	8704	8705	8706	8707	
4	8708	8709	8710	8711	
4	8712	8713	8714	8715	
4	8716	8717	8718	8719	
4	8720	8721	8722	8723	
4	8724	8725	8726	8727	
4	8728	8729	8730	8731	
4	8732	8733	8734	8735	
4	8736	8737	8738	8739	
4	8740	8741	8742	8743	
4	8744	8745	8746	8747	
4	8748	8749	8750	8751	
4	8752	8753	8754	8755	
4	8756	8757	8758	8759	
4	8760	8761	8762	8763	
4	8764	8765	8766	8767	
4	8768	8769	8770	8771	
4	8772	8773	8774	8775	
4	8776	8777	8778	8779	
4	8780	8781	8782	8783	
4	8784	8785	8786	8787	
4	8788	8789	8790	8791	
4	8792	8793	8794	8795	
4	8796	8797	8798	8799	
4	8800	8801	8802	8803	
4	8804	8805	8806	8807	
4	8808	8809	8810	8811	
4	8812	8813	8814	8815	
4	8816	8817	8818	8819	
4	8820	8821	8822	8823	
4	8824	8825	8826	8827	
4	8828	8829	8830	8831	
4	8832	8833	8834	8835	
4	8836	8837	8838	8839	
4	8840	8841	8842	8843	
4	8844	8845	8846	8847	
4	8848	8849	8850	8851	
4	8852	8853	8854	8855	
4	8856	8857	8858	8859	
4	8860	8861	8862	8863	
4	8864	8865	8866	8867	
4	8868	8869	8870	8871	
4	8872	8873	8874	8875	
4	8876	8877	8878	8879	
4	8880	8881	8882	8883	
4	8884	8885	8886	8887	
4	8888	8889	8890	8891	
4	8892	8893	8894	8895	
4	8896	8897	8898	8899	
4	8900	8901	8902	8903	
4	8904	8905	8906	8907	
4	8908	8909	8910	8911	
4	8912	8913	8914	8915	
4	8916	8917	8918	8919	
4	8920	8921	8922	8923	
4	8924	8925	8926	8927	
4	8928	8929	8930	8931	
4	8932	8933	8934	8935	
4	8936	8937	8938	8939	
4	8940	8941	8942	8943	
4	8944	8945	8946	8947	
4	8948	8949	8950	8951	
4	8952	8953	8954	8955	
4	8956	8957	8958	8959	
4	8960	8961	8962	8963	
4	8964	8965	8966	8967	
4	8968	8969	8970	8971	
4	8972	8973	8974	8975	
4	8976	8977	8978	8979	
4	8980	8981	8982	8983	
4	8984	8985	8986	8987	
4	8988	8989	8990	8991	
4	8992	8993	8994	8995	
4	8996	8997	8998	8999	
4	9000	9001	9002	9003	
4	9004	9005	9006	9007	
4	9008	9009	9010	9011	
4	9012	9013	9014	9015	
4	9016	9017	9018	9019	
4	9020	9021	9022	9023	
4	9024	9025	9026	9027	
4	9028	9029	9030	9031	
4	9032	9033	9034	9035	
4	9036	9037	9038	9039	
4	9040	9041	9042	9043	
4	9044	9045	9046	9047	
4	9048	9049	9050	9051	
4	9052	9053	9054	9055	
4	9056	9057	9058	9059	
4	9060	9061	9062	9063	
4	9064	9065	9066	9067	
4	9068	9069	9070	9071	
4	9072	9073	9074	9075	
4	9076	9077	9078	9079	
4	9080	9081	9082	9083	
4	9084	9085	9086	9087	
4	9088	9089	9090	9091	
4	9092	9093	9094	9095	
4	9096	9097	9098	9099	
4	9100	9101	9102	9103	
4	9104	9105	9106	9107	
4	9108	9109	9110	9111	
4	9112	9113	9114	9115	
4	9116	9117	9118	9119	
4	9120	9121	9122	9123	
4	9124	9125	9126	9127	
4	9128	9129	9130	9131	
4	9132	9133	9134	9135	
4	9136	9137	9138	9139	
4	9140	9141	9142	9143	
4	9144	9145	9146	9147	
4	9148	9149	9150	9151	
4	9152	9153	9154	9155	
4	9156	9157	9158	9159	
4	9160	9161	9162	9163	
4	9164	9165	9166	9167	
4	9168	9169	9170	9171	
4	9172	9173	9174	9175	
4	9176	9177	9178	9179	
4	9180	9181	9182	9183	
4	9184	9185	9186	9187	
4	9188	9189	9190	9191	
4	9192	9193	9194	9195	
4	9196	9197	9198	9199	
4	9200	9201	9202	9203	
4	9204	9205	9206	9207	
4	9208	9209	9210	9211	
4	9212	9213	9214	9215	
4	9216	9217	9218	9219	
4	9220	9221	9222	9223	
4	9224	9225	9226	9227	
4	9228	9229	9230	9231	
4	9232	9233	9234	9235	
4	9236	9237	9238	9239	
4	9240	9241	9242	9243	
4	9244	9245	9246	9247	
4	9248	9249	9250	9251	
4	9252	9253	9254	9255	
4	9256	9257	9258	9259	
4	9260	9261	9262	9263	
4	9264	9265	9266	9267	
4	9268	9269	9270	9271	
4	9272	9273	9274	9275	
4	9276	9277	9278	9279	
4	9280	9281	9282	9283	
4	9284	9285	9286	9287	
4	9288	9289	9290	9291	
4	9292	9293	9294	9295	
4	9296	9297	9298	9299	
4	9300	9301	9302	9303	
4	9304	9305	9306	9307	
4	9308	9309	9310	9311	
4	9312	9313	9314	9315	
4	9316	9317	9318	9319	
4	9320	9321	9322	9323	
4	9324	9325	9326	9327	
4	9328	9329	9330	9331	
4	9332	9333	9334	9335	
4	9336	9337	9338	9339	
4	9340	9341	9342	9343	
4	9344	9345	9346	9347	
4	9348	9349	9350	9351	
4	9352	9353	9354	9355	
4	9356	9357	9358	9359	
4	9360	9361	9362	9363	
4	9364	9365	9366	9367	
4	9368	9369	9370	9371	
4	9372	9373	9374	9375	
4	9376	9377	9378	9379	
4	9380	9381	9382	9383	
4	9384	9385	9386	9387	
4	9388	9389	9390	9391	
4	9392	9393	9394	9395	
4	9396	9397	9398	9399	
4	9400	9401	9402	9403	
4	9404	9405	9406	9407	
4	9408	9409	9410	9411	
4	9412	9413	9414	9415	
4	9416	9417	9418	9419	
4	9420	9421	9422	9423	
4	9424	9425	9426	9427	
4	9428	9429	9430	9431	
4	9432	9433	9434	9435	
4	9436	9437	9438	9439	
4	9440	9441	9442	9443	
4	9444	9445	9446	9447	
4	9448	9449	9450	9451	
4	9452	9453	9454	9455	
4	9456	9457	9458	9459	
4	9460	9461	9462	9463	
4	9464	9465	9466	9467	
4	9468	9469	9470	9471	
4	9472	9473	9474	9475	
4	9476	9477	9478	9479	
4	9480	9481	9482	9483	
4	9484	9485	9486	9487	
4	9488	9489	9490	9491	
4	9492	9493	9494	9495	
4	9496	9497	9498	9499	
4	9500	9501	9502	9503	
4	9504	9505	9506	9507	
4	9508	9509	9510	9511	
4	9512	9513	9514	9515	
4	9516	9517	9518	9519	
4	9520	9521	9522	9523	
4	9524	9525	9526	9527	
4	9528	9529	9530	9531	
4	9532	9533	9534	9535	
4	9536	9537	9538	9539	
4	9540	9541	9542	9543	
4	9544	9545	9546	9547	
4	9548	9549	9550	9551	
4	9552	9553	9554	9555	
4	9556	9557	9558	9559	
4	9560	9561	9562	9563	
4	9564	9565	9566	9567	
4	9568	9569	9570	9571	
4	9572	9573	9574	9575	
4	9576	9577	9578	9579	
4	9580	9581	9582	9583	
4	9584	9585	9586	9587	
4	9588	9589	9590	9591	
4	9592	9593	9594	9595	
4	9596	9597	9598	9599	
4	9600	9601	9602	9603	
4	9604	9605	9606	9607	
4	9608	9609	9610	9611	
4	9612	9613	9614	9615	
4	9616	9617	9618	9619	
4	9620	9621	9622	9623	
4	9624	9625	9626	9627	
4	9628	9629	9630	9631	
4	9632	9633	9634	9635	
4	9636	9637	9638	9639	
4	9640	9641	9642	9643	
4	9644	9645	9646	9647	
4	9648	9649	9650	9651	
4	9652	9653	9654	9655	
4	9656	9657	9658	9659	
4	9660	9661	9662	9663	
4	9664	9665	9666	9667	
4	9668	9669	9670	9671	
4	9672	9673	9674	9675	
4	9676	9677	9678	9679	
4	9680	9681	9682	9683	
4	9684	9685	9686	9687	
4	9688	9689	9690	9691	
4	9692	9693	9694	9695	
4	9696	9697	9698	9699	
4	9700	9701	9702	9703	
4	9704	9705	9706	9707	
4	9708	9709	9710	9711	
4	9712	9713	9714	9715	
4	9716	9717	9718	9719	
4	9720	9721	9722	9723	
4	9724	9725	9726	9727	
4	9728	9729	9730	9731	
4	9732	9733	9734	9735	
4	9736	9737	9738	9739	
4	9740	9741	9742	9743	
4	9744	9745	9746	9747	
4	9748	9749	9750	9751	
4	9752	9753	9754	9755	
4	9756	9757	9758	9759	
4	9760	9761	9762	9763	
4	9764	9765	9766	9767	
4	9768	9769	9770	9771	
4	9772	9773	9774	9775	
4	9776	9777	9778	9779	
4	9780	9781	9782	9783	
4	9784	9785	9786	9787	
4	9788	9789	9790	9791	
4	9792	9793	9794	9795	
4	9796	9797	9798	9799	
4	9800	9801	9802	9803	
4	9804	9805	9806	9807	
4	9808	9809	9810	9811	
4	9812	9813	9814	9815	
4	9816	9817	9818	9819	
4	9820	9821	9822	9823	
4	9824	9825	9826	9827	
4	9828	9829	9830	9831	
4	9832	9833	9834	9835	
4	9836	9837	9838	9839	
4	9840	9841	9842	9843	
4	9844	9845	9846	9847	
4	9848	9849	9850	9851	
4	9852	9853	9854	9855	
4	9856	9857	9858	9859	
4	9860	9861	9862	9863	
4	9864	9865	9866	9867	
4	9868	9869	9870	9871	
4	9872	9873	9874	9875	
4	9876	9877	9878	9879	
4	9880	9881	9882	9883	
4	9884	9885	9886	9887	
4	9888	9889	9890	9891	
4	9892	9893	9894	9895	
4	9896	9897	9898	9899	
4	9900	9901	9902	9903	
4	9904	9905	9906	9907	
4	9908	9909	9910	9911	
4	9912	9913	9914	9915	
4	9916	9917	9918	9919	
4	9920	9921	9922	9923	
4	9924	9925	9926	9927	
4	9928	9929	9930	9931	
4	9932	9933	9934	9935	
4	9936	9937	9938	9939	
4	9940	9941	9942	9943	
4	9944	9945	9946	9947	
4	9948	9949	9950	9951	
4	9952	9953	9954	9955	
4	9956	9957	9958	9959	
4	9960	9961	9962	9963	
4	9964	9965	9966	9967	
4	9968	9969	9970	9971	
4	9972	9973	9974	9975	
4	9976	9977	9978	9979	
4	9980	9981	9982	9983	
4	9984	9985	9986	9987	
4	9988	9989	9990	9991	
4	9992	9993	9994	9995	
4	9996	9997	9998	9999	
4	10000	10001	10002	10003	
4	10004	10005	10006	10007	
4	10008	10009	10010	10011	
4	10012	10013	10014	10015	
4	10016	10017	10018	10019	
4	10020	10021	10022	10023	
4	10024	10025	10026	10027	
4	10028	10029	10030	10031	
4	10032	10033	10034	10035	
4	10036	10037	10038	10039	
4	10040	10041	10042	10043	
4	10044	10045	10046	10047	
4	10048	10049	10050	10051	
4	10052	10053	10054	10055	
4	10056	10057	10058	10059	
4	10060	10061	10062	10063	
4	10064	10065	10066	10067	
4	10068	10069	10070	10071	
4	10072	10073	10074	10075	
4	10076	10077	10078	10079	
4	10080	10081	10082	10083	
4	10084	10085	10086	10087	
4	10088	10089	10090	10091	
4	10092	10093	10094	10095	
4	10096	10097	10098	10099	
4	10100	10101	10102	10103	
4	10104	10105	10106	10107	
4	10108	10109	10110	10111	
4	10112	10113	10114	10115	
4	10116	10117	10118	10119	
4	10120	10121	10122	10123	
4	10124	10125	10126	10127	
4	10128	10129	10130	10131	
4	10132	10133	10134	10135	
4	10136	10137	10138	10139	
4	10140	10141	10142	10143	
4	10144	10145	10146	10147	
4	10148	10149	10150	10151	
4	10152	10153	10154	10155	
4	10156	10157	10158	10159	
4	10160	10161	10162	10163	
4	10164	10165	10166	10167	
4	10168	10169	10170	10171	
4	10172	10173	10174	10175	
4	10176	10177	10178	10179	
4	10180	10181	10182	10183	
4	10184	10185	10186	10187	
4	10188	10189	10190	10191	
4	10192	10193	10194	10195	
4	10196	10197	10198	10199	
4	10200	10201	10202	10203	
4	10204	10205	10206	10207	
4	10208	10209	10210	10211	
4	10212	10213	10214	10215	
4	10216	10217	10218	10219	
4	10220	10221	10222	10223	
4	10224	10225	10226	10227	
4	10228	10229	10230	10231	
4	10232	10233	10234	10235	
4	10236	10237	10238	10239	
4	10240	10241	10242	10243	
4	10244	10245	10246	10247	
4	10248	10249	10250	10251	
4	10252	10253	10254	10255	
4	10256	10257	10258	10259	
4	10260	10261	10262	10263	
4	10264	10265	10266	10267	
4	10268	10269	10270	10271	
4	10272	10273	10274	10275	
4	10276	10277	10278	10279	
4	10280	10281	10282	10283	
4	10284	10285	10286	10287	
4	10288	10289	10290	10291	
4	10292	10293	10294	10295	
4	10296	10297	10298	10299	
4	10300	10301	10302	10303	
4	10304	10305	10306	10307	
4	10308	10309	10310	10311	
4	10312	10313	10314	10315	
4	10316	10317	10318	10319	
4	10320	10321	10322	10323	
4	10324	10325	10326	10327	
4	10328	10329	10330	10331	
4	10332	10333	10334	10335	
4	10336	10337	10338	10339	
4	10340	10341	10342	10343	
4	10344	10345	10346	10347	
4	10348	10349	10350	10351	
4	10352	10353	10354	10355	
4	10356	10357	10358	10359	
4	10360	10361	10362	10363	
4	10364	10365	10366	10367	
4	10368	10369	10370	10371	
4	10372	10373	10374	10375	
4	10376	10377	10378	10379	
4	10380	10381	10382	10383	
4	10384	10385	10386	10387	
4	10388	10389	10390	10391	
4	10392	10393	10394	10395	
4	10396	10397	10398	10399	
4	10400	10401	10402	10403	
4	10404	10405	10406	10407	
4	10408	10409	10410	10411	
4	10412	10413	10414	10415	
4	10416	10417	10418	10419	
4	10420	10421	10422	10423	
4	10424	10425	10426	10427	
4	10428	10429	10430	10431	
4	10432	10433	10434	10435	
4	10436	10437	10438	10439	
4	10440	10441	10442	10443	
4	10444	10445	10446	10447	
4	10448	10449	10450	10451	
4	10452	10453	10454	10455	
4	10456	10457	10458	10459	
4	10460	10461	10462	10463	
4	10464	10465	10466	10467	
4	10468	10469	10470	10471	
4	10472	10473	10474	10475	
4	10476	10477	10478	10479	
4	10480	10481	10482	10483	
4	10484	10485	10486	10487	
4	10488	10489	10490	10491	
4	10492	10493	10494	10495	
4	10496	10497	10498	10499	
4	10500	10501	10502	10503	
4	10504	10505	10506	10507	
4	10508	10509	10510	10511	
4	10512	10513	10514	10515	
4	10516	10517	10518	10519	
4	10520	10521	10522	10523	
4	10524	10525	10526	10527	
4	10528	10529	10530	10531	
4	10532	10533	10534	10535	
4	10536	10537	10538	10539	
4	10540	10541	10542	10543	
4	10544	10545	10546	10547	
4	10548	10549	10550	10551	
4	10552	10553	10554	10555	
4	10556	10557	10558	10559	
4	10560	10561	10562	10563	
4	10564	10565	10566	10567	
4	10568	10569	10570	10571	
4	10572	10573	10574	10575	
4	10576	10577	10578	10579	
4	10580	10581	10582	10583	
4	10584	10585	10586	10587	
4	10588	10589	10590	10591	
4	10592	10593	10594	10595	
4	10596	10597	10598	10599	
4	10600	10601	10602	10603	
4	10604	10605	10606	10607	
4	10608	10609	10610	10611	
4	10612	10613	10614	10615	
4	10616	10617	10618	10619	
4	10620	10621	10622	10623	
4	10624	10625	10626	10627	
4	10628	10629	10630	10631	
4	10632	10633	10634	10635	
4	10636	10637	10638	10639	
4	10640	10641	10642	10643	
4	10644	10645	10646	10647	
4	10648	10649	10650	10651	
4	10652	10653	10654	10655	
4	10656	10657	10658	10659	
4	10660	10661	10662	10663	
4	10664	10665	10666	10667	
4	10668	10669	10670	10671	
4	10672	10673	10674	10675	
4	10676	10677	10678	10679	
4	10680	10681	10682	10683	
4	10684	10685	10686	10687	
4	10688	10689	10690	10691	
4	10692	10693	10694	10695	
4	10696	10697	10698	10699	
4	10700	10701	10702	10703	
4	10704	10705	10706	10707	
4	10708	10709	10710	10711	
4	10712	10713	10714	10715	
4	10716	10717	10718	10719	
4	10720	10721	10722	10723	
4	10724	10725	10726	10727	
4	10728	10729	10730	10731	
4	10732	10733	10734	10735	
4	10736	10737	10738	10739	
4	10740	10741	10742	10743	
4	10744	10745	10746	10747	
4	10748	10749	10750	10751	
4	10752	10753	10754	10755	
4	10756	10757	10758	10759	
4	10760	10761	10762	10763	
4	10764	10765	10766	10767	
4	10768	10769	10770	10771	
4	10772	10773	10774	10775	
4	10776	10777	10778	10779	
4	10780	10781	10782	10783	
4	10784	10785	10786	10787	
4	10788	10789	10790	10791	
4	10792	10793	10794	10795	
4	10796	10797	10798	10799	
4	10800	10801	10802	10803	
4	10804	10805	10806	10807	
4	10808	10809	10810	10811	
4	10812	10813	10814	10815	
4	10816	10817	10818	10819	
4	10820	10821	10822	10823	
4	10824	10825	10826	10827	
4	10828	10829	10830	10831	
4	10832	10833	10834	10835	
4	10836	10837	10838	10839	
4	10840	10841	10842	10843	
4	10844	10845	10846	10847	
4	10848	10849	10850	10851	
4	10852	10853	10854	10855	
4	10856	10857	10858	10859	
4	10860	10861	10862	10863	
4	10864	10865	10866	10867	
4	10868	10869	10870	10871	
4	10872	10873	10874	10875	
4	10876	10877	10878	10879	
4	10880	10881	10882	10883	
4	10884	10885	10886	10887	
4	10888	10889	10890	10891	
4	10892	10893	10894	10895	
4	10896	10897	10898	10899	
4	10900	10901	10902	10903	
4	10904	10905	10906	10907	
4	10908	10909	10910	10911	
4	10912	10913	10914	10915	
4	10916	10917	10918	10919	
4	10920	10921	10922	10923	
4	10924	10925	10926	10927	
4	10928	10929	10930	10931	
4	10932	10933	10934	10935	
4	10936	10937	10938	10939	
4	10940	10941	10942	10943	
4	10944	10945	10946	10947	
4	10948	10949	10950	10951	
4	10952	10953	10954	10955	
4	10956	10957	10958	10959	
4	10960	10961	10962	10963	
4	10964	10965	10966	10967	
4	10968	10969	10970	10971	
4	10972	10973	10974	10975	
4	10976	10977	10978	10979	
4	10980	10981	10982	10983	
4	10984	10985	10986	10987	
4	10988	10989	10990	10991	
4	10992	10993	10994	10995	
4	10996	10997	10998	10999	
4	11000	11001	11002	11003	
4	11004	11005	11006	11007	
4	11008	11009	11010	11011	
4	11012	11013	11014	11015	
4	11016	11017	11018	11019	
4	11020	11021	11022	11023	
4	11024	11025	11026	11027	
4	11028	11029	11030	11031	
4	11032	11033	11034	11035	
4	11036	11037	11038	11039	
4	11040	11041	11042	11043	
4	11044	11045	11046	11047	
4	11048	11049	11050	11051	
4	11052	11053	11054	11055	
4	11056	11057	11058	11059	
4	11060	11061	11062	11063	
4	11064	11065	11066	11067	
4	11068	11069	11070	11071	
4	11072	11073	11074	11075	
4	11076	11077	11078	11079	
4	11080	11081	11082	11083	
4	11084	11085	11086	11087	
4	11088	11089	11090	11091	
4	11092	11093	11094	11095	
4	11096	11097	11098	11099	
4	11100	11101	11102	11103	
4	11104	11105	11106	11107	
4	11108	11109	11110	11111	
4	11112	11113	11114	11115	
4	11116	11117	11118	11119	
4	11120	11121	11122	11123	
4	11124	11125	11126	11127	
4	11128	11129	11130	11131	
4	11132	11133	11134	11135	
4	11136	11137	11138	11139	
4	11140	11141	11142	11143	
4	11144	11145	11146	11147	
4	11148	11149	11150	11151	
4	11152	11153	11154	11155	
4	11156	11157	11158	11159	
4	11160	11161	11162	11163	
4	11164	11165	11166	11167	
4	11168	11169	11170	11171	
4	11172	11173	11174	11175	
4	11176	11177	11178	11179	
4	11180	11181	11182	11183	
4	11184	11185	11186	11187	
4	11188	11189	11190	11191	
4	11192	11193	11194	11195	
4	11196	11197	11198	11199	
4	11200	11201	11202	11203	
4	11204	11205	11206	11207	
4	11208	11209	11210	11211	
4	11212	11213	11214	11215	
4	11216	11217	11218	11219	
4	11220	11221	11222	11223	
4	11224	11225	11226	11227	
4	11228	11229	11230	11231	
4	11232	11233	11234	11235	
4	11236	11237	11238	11239	
4	11240	11241	11242	11243	
4	11244	11245	11246	11247	
4	11248	11249	11250	11251	
4	11252	11253	11254	11255	
4	11256	11257	11258	11259	
4	11260	11261	11262	11263	
4	11264	11265	11266	11267	
4	11268	11269	11270	11271	
4	11272	11273	11274	11275	
4	11276	11277	11278	11279	
4	11280	11281	11282	11283	
4	11284	11285	11286	11287	
4	11288	11289	11290	11291	
4	11292	11293	11294	11295	
4	11296	11297	11298	11299	
4	11300	11301	11302	11303	
4	11304	11305	11306	11307	
4	11308	11309	11310	11311	
4	11312	11313	11314	11315	
4	11316	11317	11318	11319	
4	11320	11321	11322	11323	
4	11324	11325	11326	11327	
4	11328	11329	11330	11331	
4	11332	11333	11334	11335	
4	11336	11337	11338	11339	
4	11340	11341	11342	11343	
4	11344	11345	11346	11347	
4	11348	11349	11350	11351	
4	11352	11353	11354	11355	
4	11356	11357	11358	11359	
4	11360	11361	11362	11363	
4	11364	11365	11366	11367	
4	11368	11369	11370	11371	
4	11372	11373	11374	11375	
4	11376	11377	11378	11379	
4	11380	11381	11382	11383	
4	11384	11385	11386	11387	
4	11388	11389	11390	11391	
4	11392	11393	11394	11395	
4	11396	11397	11398	11399	
4	11400	11401	11402	11403	
4	11404	11405	11406	11407	
4	11408	11409	11410	11411	
4	11412	11413	11414	11415	
4	11416	11417	11418	11419	
4	11420	11421	11422	11423	
4	11424	11425	11426	11427	
4	11428	11429	11430	11431	
4	11432	11433	11434	11435	
4	11436	11437	11438	11439	
4	11440	11441	11442	11443	
4	11444	11445	11446	11447	
4	11448	11449	11450	11451	
4	11452	11453	11454	11455	
4	11456	11457	11458	11459	
4	11460	11461	11462	11463	
4	11464	11465	11466	11467	
4	11468	11469	11470	11471	
4	11472	11473	11474	11475	
4	11476	11477	11478	11479	
4	11480	11481	11482	11483	
4	11484	11485	11486	11487	
4	11488	11489	11490	11491	
4	11492	11493	11494	11495	
4	11496	11497	11498	11499	
4	11500	11501	11502	11503	
4	11504	11505	11506	11507	
4	11508	11509	11510	11511	
4	11512	11513	11514	11515	
4	11516	11517	11518	11519	
4	11520	11521	11522	11523	
4	11524	11525	11526	11527	
4	11528	11529	11530	11531	
4	11532	11533	11534	11535	
4	11536	11537	11538	11539	
4	11540	11541	11542	11543	
4	11544	11545	11546	11547	
4	11548	11549	11550	11551	
4	11552	11553	11554	11555	
4	11556	11557	11558	11559	
4	11560	11561	11562	11563	
4	11564	11565	11566	11567	
4	11568	11569	11570	11571	
4	11572	11573	11574	11575	
4	11576	11577	11578	11579	
4	11580	11581	11582	11583	
4	11584	11585	11586	11587	
4	11588	11589	11590	11591	
4	11592	11593	11594	11595	
4	11596	11597	11598	11599	
4	11600	11601	11602	11603	
4	11604	11605	11606	11607	
4	11608	11609	11610	11611	
4	11612	11613	11614	11615	
4	11616	11617	11618	11619	
4	11620	11621	11622	11623	
4	11624	11625	11626	11627	
4	11628	11629	11630	11631	
4	11632	11633	11634	11635	
4	11636	11637	11638	11639	
4	11640	11641	11642	11643	
4	11644	11645	11646	11647	
4	11648	11649	11650	11651	
4	11652	11653	11654	11655	
4	11656	11657	11658	11659	
4	11660	11661	11662	11663	
4	11664	11665	11666	11667	
4	11668	11669	11670	11671	
4	11672	11673	11674	11675	
4	11676	11677	11678	11679	
4	11680	11681	11682	11683	
4	11684	11685	11686	11687	
4	11688	11689	11690	11691	
4	11692	11693	11694	11695	
4	11696	11697	11698	11699	
4	11700	11701	11702	11703	
4	11704	11705	11706	11707	
4	11708	11709	11710	11711	
4	11712	11713	11714	11715	
4	11716	11717	11718	11719	
4	11720	11721	11722	11723	
4	11724	11725	11726	11727	
4	11728	11729	11730	11731	
4	11732	11733	11734	11735	
4	11736	11737	11738	11739	
4	11740	11741	11742	11743	
4	11744	11745	11746	11747	
4	11748	11749	11750	11751	
4	11752	11753	11754	11755	
4	11756	11757	11758	11759	
4	11760	11761	11762	11763	
4	11764	11765	11766	11767	
4	11768	11769	11770	11771	
4	11772	11773	11774	11775	
4	11776	11777	11778	11779	
4	11780	11781	11782	11783	
4	11784	11785	11786	11787	
4	11788	11789	11790	11791	
4	11792	11793	11794	11795	
4	11796	11797	11798	11799	
4	11800	11801	11802	11803	
4	11804	11805	11806	11807	
4	11808	11809	11810	11811	
4	11812	11813	11814	11815	
4	11816	11817	11818	11819	
4	11820	11821	11822	11823	
4	11824	11825	11826	11827	
4	11828	11829	11830	11831	
4	11832	11833	11834	11835	
4	11836	11837	11838	11839	
4	11840	11841	11842	11843	
4	11844	11845	11846	11847	
4	11848	11849	11850	11851	
4	11852	11853	11854	11855	
4	11856	11857	11858	11859	
4	11860	11861	11862	11863	
4	11864	11865	11866	11867	
4	11868	11869	11870	11871	
4	11872	11873	11874	11875	
4	11876	11877	11878	11879	
4	11880	11881	11882	11883	
4	11884	11885	11886	11887	
4	11888	11889	11890	11891	
4	11892	11893	11894	11895	
4	11896	11897	11898	11899	
4	11900	11901	11902	11903	
4	11904	11905	11906	11907	
4	11908	11909	11910	11911	
4	11912	11913	11914	11915	
4	11916	11917	11918	11919	
4	11920	11921	11922	11923	
4	11924	11925	11926	11927	
4	11928	11929	11930	11931	
4	11932	11933	11934	11935	
4	11936	11937	11938	11939	
4	11940	11941	11942	11943	
4	11944	11945	11946	11947	
4	11948	11949	11950	11951	
4	11952	11953	11954	11955	
4	11956	11957	11958	11959	
4	11960	11961	11962	11963	
4	11964	11965	11966	11967	
4	11968	11969	11970	11971	
4	11972	11973	11974	11975	
4	11976	11977	11978	11979	
4	11980	11981	11982	11983	
4	11984	11985	11986	11987	
4	11988	11989	11990	11991	
4	11992	11993	11994	11995	
4	11996	11997	11998	11999	
4	12000	12001	12002	12003	
4	12004	12005	12006	12007	
4	12008	12009	12010	12011	
4	12012	12013	12014	12015	
4	12016	12017	12018	12019	
4	12020	12021	12022	12023	
4	12024	12025	12026	12027	
4	12028	12029	12030	12031	
4	12032	12033	12034	12035	
4	12036	12037	12038	12039	
4	12040	12041	12042	12043	
4	12044	12045	12046	12047	
4	12048	12049	12050	12051	
4	12052	12053	12054	12055	
4	12056	12057	12058	12059	
4	12060	12061	12062	12063	
4	12064	12065	12066	12067	
4	12068	12069	12070	12071	
4	12072	12073	12074	12075	
4	12076	12077	12078	12079	
4	12080	12081	12082	12083	
4	12084	12085	12086	12087	
4	12088	12089	12090	12091	
4	12092	12093	12094	12095	
4	12096	12097	12098	12099	
4	12100	12101	12102	12103	
4	12104	12105	12106	12107	
4	12108	12109	12110	12111	
4	12112	12113	12114	12115	
4	12116	12117	12118	12119	
4	12120	12121	12122	12123	
4	12124	12125	12126	12127	
4	12128	12129	12130	12131	
4	12132	12133	12134	12135	
4	12136	12137	12138	12139	
4	12140	12141	12142	12143	
4	12144	12145	12146	12147	
4	12148	12149	12150	12151	
4	12152	12153	12154	12155	
4	12156	12157	12158	12159	
4	12160	12161	12162	12163	
4	12164	12165	12166	12167	
4	12168	12169	12170	12171	
4	12172	12173	12174	12175	
4	12176	12177	12178	12179	
4	12180	12181	12182	12183	
4	12184	12185	12186	12187	
4	12188	12189	12190	12191	
4	12192	12193	12194	12195	
4	12196	12197	12198	12199	
4	12200	12201	12202	12203	
4	12204	12205	12206	12207	
4	12208	12209	12210	12211	
4	12212	12213	12214	12215	
4	12216	12217	12218	12219	
4	12220	12221	12222	12223	
4	12224	12225	12226	12227	
4	12228	12229	12230	12231	
4	12232	12233	12234	12235	
4	12236	12237	12238	12239	
4	12240	12241	12242	12243	
4	12244	12245	12246	12247	
4	12248	12249	12250	12251	
4	12252	12253	12254	12255	
4	12256	12257	12258	12259	
4	12260	12261	12262	12263	
4	12264	12265	12266	12267	
4	12268	12269	12270	12271	
4	12272	12273	12274	12275	
4	12276	12277	12278	12279	
4	12280	12281	12282	12283	
4	12284	12285	12286	12287	
4	12288	12289	12290	12291	
4	12292	12293	12294	12295	
4	12296	12297	12298	12299	
4	12300	12301	12302	12303	
4	12304	12305	12306	12307	
4	12308	12309	12310	12311	
4	12312	12313	12314	12315	
4	12316	12317	12318	12319	
4	12320	12321	12322	12323	
4	12324	12325	12326	12327	
4	12328	12329	12330	12331	
4	12332	12333	12334	12335	
4	12336	12337	12338	12339	
4	12340	12341	12342	12343	
4	12344	12345	12346	12347	
4	12348	12349	12350	12351	
4	12352	12353	12354	12355	
4	12356	12357	12358	12359	
4	12360	12361	12362	12363	
4	12364	12365	12366	12367	
4	12368	12369	12370	12371	
4	12372	12373	12374	12375	
4	12376	12377	12378	12379	
4	12380	12381	12382	12383	
4	12384	12385	12386	12387	
4	12388	12389	12390	12391	
4	12392	12393	12394	12395	
4	12396	12397	12398	12399	
4	12400	12401	12402	12403	
4	12404	12405	12406	12407	
4	12408	12409	12410	12411	
4	12412	12413	12414	12415	
4	12416	12417	12418	12419	
4	12420	12421	12422	12423	
4	12424	12425	12426	12427	
4	12428	12429	12430	12431	
4	12432	12433	12434	12435	
4	12436	12437	12438	12439	
4	12440	12441	12442	12443	
4	12444	12445	12446	12447	
4	12448	12449	12450	12451	
4	12452	12453	12454	12455	
4	12456	12457	12458	12459	
4	12460	12461	12462	12463	
4	12464	12465	12466	12467	
4	12468	12469	12470	12471	
4	12472	12473	12474	12475	
4	12476	12477	12478	12479	
4	12480	12481	12482	12483	
4	12484	12485	12486	12487	
4	12488	12489	12490	12491	
4	12492	12493	12494	12495	
4	12496	12497	12498	12499	
4	12500	12501	12502	12503	
4	12504	12505	12506	12507	
4	12508	12509	12510	12511	
4	12512	12513	12514	12515	
4	12516	12517	12518	12519	
4	12520	12521	12522	12523	
4	12524	12525	12526	12527	
4	12528	12529	12530	12531	
4	12532	12533	12534	12535	
4	12536	12537	12538	12539	
4	12540	12541	12542	12543	
4	12544	12545	12546	12547	
4	12548	12549	12550	12551	
4	12552	12553	12554	12555	
4	12556	12557	12558	12559	
4	12560	12561	12562	12563	
4	12564	12565	12566	12567	
4	12568	12569	12570	12571	
4	12572	12573	12574	12575	
4	12576	12577	12578	12579	
4	12580	12581	12582	12583	
4	12584	12585	12586	12587	
4	12588	12589	12590	12591	
4	12592	12593	12594	12595	
4	12596	12597	12598	12599	
4	12600	12601	12602	12603	
4	12604	12605	12606	12607	
4	12608	12609	12610	12611	
4	12612	12613	12614	12615	
4	12616	12617	12618	12619	
4	12620	12621	12622	12623	
4	12624	12625	12626	12627	
4	12628	12629	12630	12631	
4	12632	12633	12634	12635	
4	12636	12637	12638	12639	
4	12640	12641	12642	12643	
4	12644	12645	12646	12647	
4	12648	12649	12650	12651	
4	12652	12653	12654	12655	
4	12656	12657	12658	12659	
4	12660	12661	12662	12663	
4	12664	12665	12666	12667	
4	12668	12669	12670	12671	
4	12672	12673	12674	12675	
4	12676	12677	12678	12679	
4	12680	12681	12682	12683	
4	12684	12685	12686	12687	
4	12688	12689	12690	12691	
4	12692	12693	12694	12695	
4	12696	12697	12698	12699	
4	12700	12701	12702	12703	
4	12704	12705	12706	12707	
4	12708	12709	12710	12711	
4	12712	12713	12714	12715	
4	12716	12717	12718	12719	
4	12720	12721	12722	12723	
4	12724	12725	12726	12727	
4	12728	12729	12730	12731	
4	12732	12733	12734	12735	
4	12736	12737	12738	12739	
4	12740	12741	12742	12743	
4	12744	12745	12746	12747	
4	12748	12749	12750	12751	
4	12752	12753	12754	12755	
4	12756	12757	12758	12759	
4	12760	12761	12762	12763	
4	12764	12765	12766	12767	
4	12768	12769	12770	12771	
4	12772	12773	12774	12775	
4	12776	12777	12778	12779	
4	12780	12781	12782	12783	
4	12784	12785	12786	12787	
4	12788	12789	12790	12791	
4	12792	12793	12794	12795	
4	12796	12797	12798	12799	
4	12800	12801	12802	12803	
4	12804	12805	12806	12807	
4	12808	12809	12810	12811	
4	12812	12813	12814	12815	
4	12816	12817	12818	12819	
4	12820	12821	12822	12823	
4	12824	12825	12826	12827	
4	12828	12829	12830	12831	
4	12832	12833	12834	12835	
4	12836	12837	12838	12839	
4	12840	12841	12842	12843	
4	12844	12845	12846	12847	
4	12848	12849	12850	12851	
4	12852	12853	12854	12855	
4	12856	12857	12858	12859	
4	12860	12861	12862	12863	
4	12864	12865	12866	12867	
4	12868	12869	12870	12871	
4	12872	12873	12874	12875	
4	12876	12877	12878	12879	
4	12880	12881	12882	12883	
4	12884	12885	12886	12887	
4	12888	12889	12890	12891	
4	12892	12893	12894	12895	
4	12896	12897	12898	12899	
4	12900	12901	12902	12903	
4	12904	12905	12906	12907	
4	12908	12909	12910	12911	
4	12912	12913	12914	12915	
4	12916	12917	12918	12919	
4	12920	12921	12922	12923	
4	12924	12925	12926	12927	
4	12928	12929	12930	12931	
4	12932	12933	12934	12935	
4	12936	12937	12938	12939	
4	12940	12941	12942	12943	
4	12944	12945	12946	12947	
4	12948	12949	12950	12951	
4	12952	12953	12954	12955	
4	12956	12957	12958	12959	
4	12960	12961	12962	12963	
4	12964	12965	12966	12967	
4	12968	12969	12970	12971	
4	12972	12973	12974	12975	
4	12976	12977	12978	12979	
4	12980	12981	12982	12983	
4	12984	12985	12986	12987	
4	12988	12989	12990	12991	
4	12992	12993	12994	12995	
4	12996	12997	12998	12999	
4	13000	13001	13002	13003	
4	13004	13005	13006	13007	
4	13008	13009	13010	13011	
4	13012	13013	13014	13015	
4	13016	13017	13018	13019	
4	13020	13021	13022	13023	
4	13024	13025	13026	13027	
4	13028	13029	13030	13031	
4	13032	13033	13034	13035	
4	13036	13037	13038	13039	
4	13040	13041	13042	13043	
4	13044	13045	13046	13047	
4	13048	13049	13050	13051	
4	13052	13053	13054	13055	
4	13056	13057	13058	13059	
4	13060	13061	13062	13063	
4	13064	13065	13066	13067	
4	13068	13069	13070	13071	
4	13072	13073	13074	13075	
4	13076	13077	13078	13079	
4	13080	13081	13082	13083	
4	13084	13085	13086	13087	
4	13088	13089	13090	13091	
4	13092	13093	13094	13095	
4	13096	13097	13098	13099	
4	13100	13101	13102	13103	
4	13104	13105	13106	13107	
4	13108	13109	13110	13111	
4	13112	13113	13114	13115	
4	13116	13117	13118	13119	
4	13120	13121	13122	13123	
4	13124	13125	13126	13127	
4	13128	13129	13130	13131	
4	13132	13133	13134	13135	
4	13136	13137	13138	13139	
4	13140	13141	13142	13143	
4	13144	13145	13146	13147	
4	13148	13149	13150	13151	
4	13152	13153	13154	13155	
4	13156	13157	13158	13159	
4	13160	13161	13162	13163	
4	13164	13165	13166	13167	
4	13168	13169	13170	13171	
4	13172	13173	13174	13175	
4	13176	13177	13178	13179	
4	13180	13181	13182	13183	
4	13184	13185	13186	13187	
4	13188	13189	13190	13191	
4	13192	13193	13194	13195	
4	13196	13197	13198	13199	
4	13200	13201	13202	13203	
4	13204	13205	13206	13207	
4	13208	13209	13210	13211	
4	13212	13213	13214	13215	
4	13216	13217	13218	13219	
4	13220	13221	13222	13223	
4	13224	13225	13226	13227	
4	13228	13229	13230	13231	
4	13232	13233	13234	13235	
4	13236	13237	13238	13239	
4	13240	13241	13242	13243	
4	13244	13245	13246	13247	
4	13248	13249	13250	13251	
4	13252	13253	13254	13255	
4	13256	13257	13258	13259	
4	13260	13261	13262	13263	
4	13264	13265	13266	13267	
4	13268	13269	13270	13271	
4	13272	13273	13274	13275	
4	13276	13277	13278	13279	
4	13280	13281	13282	13283	
4	13284	13285	13286	13287	
4	13288	13289	13290	13291	
4	13292	13293	13294	13295	
4	13296	13297	13298	13299	
4	13300	13301	13302	13303	
4	13304	13305	13306	13307	
4	13308	13309	13310	13311	
4	13312	13313	13314	13315	
4	13316	13317	13318	13319	
4	13320	13321	13322	13323	
4	13324	13325	13326	13327	
4	13328	13329	13330	13331	
4	13332	13333	13334	13335	
4	13336	13337	13338	13339	
4	13340	13341	13342	13343	
4	13344	13345	13346	13347	
4	13348	13349	13350	13351	
4	13352	13353	13354	13355	
4	13356	13357	13358	13359	
4	13360	13361	13362	13363	
4	13364	13365	13366	13367	
4	13368	13369	13370	13371	
4	13372	13373	13374	13375	
4	13376	13377	13378	13379	
4	13380	13381	13382	13383	
4	13384	13385	13386	13387	
4	13388	13389	13390	13391	
4	13392	13393	13394	13395	
4	13396	13397	13398	13399	
4	13400	13401	13402	13403	
4	13404	13405	13406	13407	
4	13408	13409	13410	13411	
4	13412	13413	13414	13415	
4	13416	13417	13418	13419	
4	13420	13421	13422	13423	
4	13424	13425	13426	13427	
4	13428	13429	13430	13431	
4	13432	13433	13434	13435	
4	13436	13437	13438	13439	
4	13440	13441	13442	13443	
4	13444	13445	13446	13447	
4	13448	13449	13450	13451	
4	13452	13453	13454	13455	
4	13456	13457	13458	13459	
4	13460	13461	13462	13463	
4	13464	13465	13466	13467	
4	13468	13469	13470	13471	
4	13472	13473	13474	13475	
4	13476	13477	13478	13479	
4	13480	13481	13482	13483	
4	13484	13485	13486	13487	
4	13488	13489	13490	13491	
4	13492	13493	13494	13495	
4	13496	13497	13498	13499	
4	13500	13501	13502	13503	
4	13504	13505	13506	13507	
4	13508	13509	13510	13511	
4	13512	13513	13514	13515	
4	13516	13517	13518	13519	
4	13520	13521	13522	13523	
4	13524	13525	13526	13527	
4	13528	13529	13530	13531	
4	13532	13533	13534	13535	
4	13536	13537	13538	13539	
4	13540	13541	13542	13543	
4	13544	13545	13546	13547	
4	13548	13549	13550	13551	
4	13552	13553	13554	13555	
4	13556	13557	13558	13559	
4	13560	13561	13562	13563	
4	13564	13565	13566	13567	
4	13568	13569	13570	13571	
4	13572	13573	13574	13575	
4	13576	13577	13578	13579	
4	13580	13581	13582	13583	
4	13584	13585	13586	13587	
4	13588	13589	13590	13591	
4	13592	13593	13594	13595	
4	13596	13597	13598	13599	
4	13600	13601	13602	13603	
4	13604	13605	13606	13607	
4	13608	13609	13610	13611	
4	13612	13613	13614	13615	
4	13616	13617	13618	13619	
4	13620	13621	13622	13623	
4	13624	13625	13626	13627	
4	13628	13629	13630	13631	
4	13632	13633	13634	13635	
4	13636	13637	13638	13639	
4	13640	13641	13642	13643	
4	13644	13645	13646	13647	
4	13648	13649	13650	13651	
4	13652	13653	13654	13655	
4	13656	13657	13658	13659	
4	13660	13661	13662	13663	
4	13664	13665	13666	13667	
4	13668	13669	13670	13671	
4	13672	13673	13674	13675	
4	13676	13677	13678	13679	
4	13680	13681	13682	13683	
4	13684	13685	13686	13687	
4	13688	13689	13690	13691	
4	13692	13693	13694	13695	
4	13696	13697	13698	13699	
4	13700	13701	13702	13703	
4	13704	13705	13706	13707	
4	13708	13709	13710	13711	
4	13712	13713	13714	13715	
4	13716	13717	13718	13719	
4	13720	13721	13722	13723	
4	13724	13725	13726	13727	
4	13728	13729	13730	13731	
4	13732	13733	13734	13735	
4	13736	13737	13738	13739	
4	13740	13741	13742	13743	
4	13744	13745	13746	13747	
4	13748	13749	13750	13751	
4	13752	13753	13754	13755	
4	13756	13757	13758	13759	
4	13760	13761	13762	13763	
4	13764	13765	13766	13767	
4	13768	13769	13770	13771	
4	13772	13773	13774	13775	
4	13776	13777	13778	13779	
4	13780	13781	13782	13783	
4	13784	13785	13786	13787	
4	13788	13789	13790	13791	
4	13792	13793	13794	13795	
4	13796	13797	13798	13799	
4	13800	13801	13802	13803	
4	13804	13805	13806	13807	
4	13808	13809	13810	13811	
4	13812	13813	13814	13815	
4	13816	13817	13818	13819	
4	13820	13821	13822	13823	
4	13824	13825	13826	13827	
4	13828	13829	13830	13831	
4	13832	13833	13834	13835	
4	13836	13837	13838	13839	
4	13840	13841	13842	13843	
4	13844	13845	13846	13847	
4	13848	13849	13850	13851	
4	13852	13853	13854	13855	
4	13856	13857	13858	13859	
4	13860	13861	13862	13863	
4	13864	13865	13866	13867	
4	13868	13869	13870	13871	
4	13872	13873	13874	13875	
4	13876	13877	13878	13879	
4	13880	13881	13882	13883	
4	13884	13885	13886	13887	
4	13888	13889	13890	13891	
4	13892	13893	13894	13895	
4	13896	13897	13898	13899	
4	13900	13901	13902	13903	
4	13904	13905	13906	13907	
4	13908	13909	13910	13911	
4	13912	13913	13914	13915	
4	13916	13917	13918	13919	
4	13920	13921	13922	13923	
4	13924	13925	13926	13927	
4	13928	13929	13930	13931	
4	13932	13933	13934	13935	
4	13936	13937	13938	13939	
4	13940	13941	13942	13943	
4	13944	13945	13946	13947	
4	13948	13949	13950	13951	
4	13952	13953	13954	13955	
4	13956	13957	13958	13959	
4	13960	13961	13962	13963	
4	13964	13965	13966	13967	
4	13968	13969	13970	13971	
4	13972	13973	13974	13975	
4	13976	13977	13978	13979	
4	13980	13981	13982	13983	
4	13984	13985	13986	13987	
4	13988	13989	13990	13991	
4	13992	13993	13994	13995	
4	13996	13997	13998	13999	
4	14000	14001	14002	14003	
4	14004	14005	14006	14007	
4	14008	14009	14010	14011	
4	14012	14013	14014	14015	
4	14016	14017	14018	14019	
4	14020	14021	14022	14023	
4	14024	14025	14026	14027	
4	14028	14029	14030	14031	
4	14032	14033	14034	14035	
4	14036	14037	14038	14039	
4	14040	14041	14042	14043	
4	14044	14045	14046	14047	
4	14048	14049	14050	14051	
4	14052	14053	14054	14055	
4	14056	14057	14058	14059	
4	14060	14061	14062	14063	
4	14064	14065	14066	14067	
4	14068	14069	14070	14071	
4	14072	14073	14074	14075	
4	14076	14077	14078	14079	
4	14080	14081	14082	14083	
4	14084	14085	14086	14087	
4	14088	14089	14090	14091	
4	14092	14093	14094	14095	
4	14096	14097	14098	14099	
4	14100	14101	14102	14103	
4	14104	14105	14106	14107	
4	14108	14109	14110	14111	
4	14112	14113	14114	14115	
4	14116	14117	14118	14119	
4	14120	14121	14122	14123	
4	14124	14125	14126	14127	
4	14128	14129	14130	14131	
4	14132	14133	14134	14135	
4	14136	14137	14138	14139	
4	14140	14141	14142	14143	
4	14144	14145	14146	14147	
4	14148	14149	14150	14151	
4	14152	14153	14154	14155	
4	14156	14157	14158	14159	
4	14160	14161	14162	14163	
4	14164	14165	14166	14167	
4	14168	14169	14170	14171	
4	14172	14173	14174	14175	
4	14176	14177	14178	14179	
4	14180	14181	14182	14183	
4	14184	14185	14186	14187	
4	14188	14189	14190	14191	
4	14192	14193	14194	14195	
4	14196	14197	14198	14199	
4	14200	14201	14202	14203	
4	14204	14205	14206	14207	
4	14208	14209	14210	14211	
4	14212	14213	14214	14215	
4	14216	14217	14218	14219	
4	14220	14221	14222	14223	
4	14224	14225	14226	14227	
4	14228	14229	14230	14231	
4	14232	14233	14234	14235	
4	14236	14237	14238	14239	
4	14240	14241	14242	14243	
4	14244	14245	14246	14247	
4	14248	14249	14250	14251	
4	14252	14253	14254	14255	
4	14256	14257	14258	14259	
4	14260	14261	14262	14263	
4	14264	14265	14266	14267	
4	14268	14269	14270	14271	
4	14272	14273	14274	14275	
4	14276	14277	14278	14279	
4	14280	14281	14282	14283	
4	14284	14285	14286	14287	
4	14288	14289	14290	14291	
4	14292	14293	14294	14295	
4	14296	14297	14298	14299	
4	14300	14301	14302	14303	
4	14304	14305	14306	14307	
4	14308	14309	14310	14311	
4	14312	14313	14314	14315	
4	14316	14317	14318	14319	
4	14320	14321	14322	14323	
4	14324	14325	14326	14327	
4	14328	14329	14330	14331	
4	14332	14333	14334	14335	
4	14336	14337	14338	14339	
4	14340	14341	14342	14343	
4	14344	14345	14346	14347	
4	14348	14349	14350	14351	
4	14352	14353	14354	14355	
4	14356	14357	14358	14359	
4	14360	14361	14362	14363	
4	14364	14365	14366	14367	
4	14368	14369	14370	14371	
4	14372	14373	14374	14375	
4	14376	14377	14378	14379	
4	14380	14381	14382	14383	
4	14384	14385	14386	14387	
4	14388	14389	14390	14391	
4	14392	14393	14394	14395	
4	14396	14397	14398	14399	
4	14400	14401	14402	14403	
4	14404	14405	14406	14407	
4	14408	14409	14410	14411	
4	14412	14413	14414	14415	
4	14416	14417	14418	14419	
4	14420	14421	14422	14423	
4	14424	14425	14426	14427	
4	14428	14429	14430	14431	
4	14432	14433	14434	14435	
4	14436	14437	14438	14439	
4	14440	14441	14442	14443	
4	14444	14445	14446	14447	
4	14448	14449	14450	14451	
4	14452	14453	14454	14455	
4	14456	14457	14458	14459	
4	14460	14461	14462	14463	
4	14464	14465	14466	14467	
4	14468	14469	14470	14471	
4	14472	14473	14474	14475	
4	14476	14477	14478	14479	
4	14480	14481	14482	14483	
4	14484	14485	14486	14487	
4	14488	14489	14490	14491	
4	14492	14493	14494	14495	
4	14496	14497	14498	14499	
4	14500	14501	14502	14503	
4	14504	14505	14506	14507	
4	14508	14509	14510	14511	
4	14512	14513	14514	14515	
4	14516	14517	14518	14519	
4	14520	14521	14522	14523	
4	14524	14525	14526	14527	
4	14528	14529	14530	14531	
4	14532	14533	14534	14535	
4	14536	14537	14538	14539	
4	14540	14541	14542	14543	
4	14544	14545	14546	14547	
4	14548	14549	14550	14551	
4	14552	14553	14554	14555	
4	14556	14557	14558	14559	
4	14560	14561	14562	14563	
4	14564	14565	14566	14567	
4	14568	14569	14570	14571	
4	14572	14573	14574	14575	
4	14576	14577	14578	14579	
4	14580	14581	14582	14583	
4	14584	14585	14586	14587	
4	14588	14589	14590	14591	
4	14592	14593	14594	14595	
4	14596	14597	14598	14599	
4	14600	14601	14602	14603	
4	14604	14605	14606	14607	
4	14608	14609	14610	14611	
4	14612	14613	14614	14615	
4	14616	14617	14618	14619	
4	14620	14621	14622	14623	
4	14624	14625	14626	14627	
4	14628	14629	14630	14631	
4	14632	14633	14634	14635	
4	14636	14637	14638	14639	
4	14640	14641	14642	14643	
4	14644	14645	14646	14647	
4	14648	14649	14650	14651	
4	14652	14653	14654	14655	
4	14656	14657	14658	14659	
4	14660	14661	14662	14663	
4	14664	14665	14666	14667	
4	14668	14669	14670	14671	
4	14672	14673	14674	14675	
4	14676	14677	14678	14679	
4	14680	14681	14682	14683	
4	14684	14685	14686	14687	
4	14688	14689	14690	14691	
4	14692	14693	14694	14695	
4	14696	14697	14698	14699	
4	14700	14701	14702	14703	
4	14704	14705	14706	14707	
4	14708	14709	14710	14711	
4	14712	14713	14714	14715	
4	14716	14717	14718	14719	
4	14720	14721	14722	14723	
4	14724	14725	14726	14727	
4	14728	14729	14730	14731	
4	14732	14733	14734	14735	
4	14736	14737	14738	14739	
4	14740	14741	14742	14743	
4	14744	14745	14746	14747	
4	14748	14749	14750	14751	
4	14752	14753	14754	14755	
4	14756	14757	14758	14759	
4	14760	14761	14762	14763	
4	14764	14765	14766	14767	
4	14768	14769	14770	14771	
4	14772	14773	14774	14775	
4	14776	14777	14778	14779	
4	14780	14781	14782	14783	
4	14784	14785	14786	14787	
4	14788	14789	14790	14791	
4	14792	14793	14794	14795	
4	14796	14797	14798	14799	
4	14800	14801	14802	14803	
4	14804	14805	14806	14807	
4	14808	14809	14810	14811	
4	14812	14813	14814	14815	
4	14816	14817	14818	14819	
4	14820	14821	14822	14823	
4	14824	14825	14826	14827	
4	14828	14829	14830	14831	
4	14832	14833	14834	14835	
4	14836	14837	14838	14839	
4	14840	14841	14842	14843	
4	14844	14845	14846	14847	
4	14848	14849	14850	14851	
4	14852	14853	14854	14855	
4	14856	14857	14858	14859	
4	14860	14861	14862	14863	
4	14864	14865	14866	14867	
4	14868	14869	14870	14871	
4	14872	14873	14874	14875	
4	14876	14877	14878	14879	
4	14880	14881	14882	14883	
4	14884	14885	14886	14887	
4	14888	14889	14890	14891	
4	14892	14893	14894	14895	
4	14896	14897	14898	14899	
4	14900	14901	14902	14903	
4	14904	14905	14906	14907	
4	14908	14909	14910	14911	
4	14912	14913	14914	14915	
4	14916	14917	14918	14919	
4	14920	14921	14922	14923	
4	14924	14925	14926	14927	
4	14928	14929	14930	14931	
4	14932	14933	14934	14935	
4	14936	14937	14938	14939	
4	14940	14941	14942	14943	
4	14944	14945	14946	14947	
4	14948	14949	14950	14951	
4	14952	14953	14954	14955	
4	14956	14957	14958	14959	
4	14960	14961	14962	14963	
4	14964	14965	14966	14967	
4	14968	14969	14970	14971	
4	14972	14973	14974	14975	
4	14976	14977	14978	14979	
4	14980	14981	14982	14983	
4	14984	14985	14986	14987	
4	14988	14989	14990	14991	
4	14992	14993	14994	14995	
4	14996	14997	14998	14999	
4	15000	15001	15002	15003	
4	15004	15005	15006	15007	
4	15008	15009	15010	15011	
4	15012	15013	15014	15015	
4	15016	15017	15018	15019	
4	15020	15021	15022	15023	
4	15024	15025	15026	15027	
4	15028	15029	15030	15031	
4	15032	15033	15034	15035	
4	15036	15037	15038	15039	
4	15040	15041	15042	15043	
4	15044	15045	15046	15047	
4	15048	15049	15050	15051	
4	15052	15053	15054	15055	
4	15056	15057	15058	15059	
4	15060	15061	15062	15063	
4	15064	15065	15066	15067	
4	15068	15069	15070	15071	
4	15072	15073	15074	15075	
4	15076	15077	15078	15079	
4	15080	15081	15082	15083	
4	15084	15085	15086	15087	
4	15088	15089	15090	15091	
4	15092	15093	15094	15095	
4	15096	15097	15098	15099	
4	15100	15101	15102	15103	
4	15104	15105	15106	15107	
4	15108	15109	15110	15111	
4	15112	15113	15114	15115	
4	15116	15117	15118	15119	
4	15120	15121	15122	15123	
4	15124	15125	15126	15127	
4	15128	15129	15130	15131	
4	15132	15133	15134	15135	
4	15136	15137	15138	15139	
4	15140	15141	15142	15143	
4	15144	15145	15146	15147	
4	15148	15149	15150	15151	
4	15152	15153	15154	15155	
4	15156	15157	15158	15159	
4	15160	15161	15162	15163	
4	15164	15165	15166	15167	
4	15168	15169	15170	15171	
4	15172	15173	15174	15175	
4	15176	15177	15178	15179	
4	15180	15181	15182	15183	
4	15184	15185	15186	15187	
4	15188	15189	15190	15191	
4	15192	15193	15194	15195	
4	15196	15197	15198	15199	
4	15200	15201	15202	15203	
4	15204	15205	15206	15207	
4	15208	15209	15210	15211	
4	15212	15213	15214	15215	
4	15216	15217	15218	15219	
4	15220	15221	15222	15223	
4	15224	15225	15226	15227	
4	15228	15229	15230	15231	
4	15232	15233	15234	15235	
4	15236	15237	15238	15239	
4	15240	15241	15242	15243	
4	15244	15245	15246	15247	
4	15248	15249	15250	15251	
4	15252	15253	15254	15255	
4	15256	15257	15258	15259	
4	15260	15261	15262	15263	
4	15264	15265	15266	15267	
4	15268	15269	15270	15271	
4	15272	15273	15274	15275	
4	15276	15277	15278	15279	
4	15280	15281	15282	15283	
4	15284	15285	15286	15287	
4	15288	15289	15290	15291	
4	15292	15293	15294	15295	
4	15296	15297	15298	15299	
4	15300	15301	15302	15303	
4	15304	15305	15306	15307	
4	15308	15309	15310	15311	
4	15312	15313	15314	15315	
4	15316	15317	15318	15319	
4	15320	15321	15322	15323	
4	15324	15325	15326	15327	
4	15328	15329	15330	15331	
4	15332	15333	15334	15335	
4	15336	15337	15338	15339	
4	15340	15341	15342	15343	
4	15344	15345	15346	15347	
4	15348	15349	15350	15351	
4	15352	15353	15354	15355	
4	15356	15357	15358	15359	
4	15360	15361	15362	15363	
4	15364	15365	15366	15367	
4	15368	15369	15370	15371	
4	15372	15373	15374	15375	
4	15376	15377	15378	15379	
4	15380	15381	15382	15383	
4	15384	15385	15386	15387	
4	15388	15389	15390	15391	
4	15392	15393	15394	15395	
4	15396	15397	15398	15399	
4	15400	15401	15402	15403	
4	15404	15405	15406	15407	
4	15408	15409	15410	15411	
4	15412	15413	15414	15415	
4	15416	15417	15418	15419	
4	15420	15421	15422	15423	
4	15424	15425	15426	15427	
4	15428	15429	15430	15431	
4	15432	15433	15434	15435	
4	15436	15437	15438	15439	
4	15440	15441	15442	15443	
4	15444	15445	15446	15447	
4	15448	15449	15450	15451	
4	15452	15453	15454	15455	
4	15456	15457	15458	15459	
4	15460	15461	15462	15463	
4	15464	15465	15466	15467	
4	15468	15469	15470	15471	
4	15472	15473	15474	15475	
4	15476	15477	15478	15479	
4	15480	15481	15482	15483	
4	15484	15485	15486	15487	
4	15488	15489	15490	15491	
4	15492	15493	15494	15495	
4	15496	15497	15498	15499	
4	15500	15501	15502	15503	
4	15504	15505	15506	15507	
4	15508	15509	15510	15511	
4	15512	15513	15514	15515	
4	15516	15517	15518	15519	
4	15520	15521	15522	15523	
4	15524	15525	15526	15527	
4	15528	15529	15530	15531	
4	15532	15533	15534	15535	
4	15536	15537	15538	15539	
4	15540	15541	15542	15543	
4	15544	15545	15546	15547	
4	15548	15549	15550	15551	
4	15552	15553	15554	15555	
4	15556	15557	15558	15559	
4	15560	15561	15562	15563	
4	15564	15565	15566	15567	
4	15568	15569	15570	15571	
4	15572	15573	15574	15575	
4	15576	15577	15578	15579	
4	15580	15581	15582	15583	
4	15584	15585	15586	15587	
4	15588	15589	15590	15591	
4	15592	15593	15594	15595	
4	15596	15597	15598	15599	
4	15600	15601	15602	15603	
4	15604	15605	15606	15607	
4	15608	15609	15610	15611	
4	15612	15613	15614	15615	
4	15616	15617	15618	15619	
4	15620	15621	15622	15623	
4	15624	15625	15626	15627	
4	15628	15629	15630	15631	
4	15632	15633	15634	15635	
4	15636	15637	15638	15639	
4	15640	15641	15642	15643	
4	15644	15645	15646	15647	
4	15648	15649	15650	15651	
4	15652	15653	15654	15655	
4	15656	15657	15658	15659	
4	15660	15661	15662	15663	
4	15664	15665	15666	15667	
4	15668	15669	15670	15671	
4	15672	15673	15674	15675	
4	15676	15677	15678	15679	
4	15680	15681	15682	15683	
4	15684	15685	15686	15687	
4	15688	15689	15690	15691	
4	15692	15693	15694	15695	
4	15696	15697	15698	15699	
4	15700	15701	15702	15703	
4	15704	15705	15706	15707	
4	15708	15709	15710	15711	
4	15712	15713	15714	15715	
4	15716	15717	15718	15719	
4	15720	15721	15722	15723	
4	15724	15725	15726	15727	
4	15728	15729	15730	15731	
4	15732	15733	15734	15735	
4	15736	15737	15738	15739	
4	15740	15741	15742	15743	
4	15744	15745	15746	15747	
4	15748	15749	15750	15751	
4	15752	15753	15754	15755	
4	15756	15757	15758	15759	
4	15760	15761	15762	15763	
4	15764	15765	15766	15767	
4	15768	15769	15770	15771	
4	15772	15773	15774	15775	
4	15776	15777	15778	15779	
4	15780	15781	15782	15783	
4	15784	15785	15786	15787	
4	15788	15789	15790	15791	
4	15792	15793	15794	15795	
4	15796	15797	15798	15799	
4	15800	15801	15802	15803	
4	15804	15805	15806	15807	
4	15808	15809	15810	15811	
4	15812	15813	15814	15815	
4	15816	15817	15818	15819	
4	15820	15821	15822	15823	
4	15824	15825	15826	15827	
4	15828	15829	15830	15831	
4	15832	15833	15834	15835	
4	15836	15837	15838	15839	
4	15840	15841	15842	15843	
4	15844	15845	15846	15847	
4	15848	15849	15850	15851	
4	15852	15853	15854	15855	
4	15856	15857	15858	15859	
4	15860	15861	15862	15863	
4	15864	15865	15866	15867	
4	15868	15869	15870	15871	
4	15872	15873	15874	15875	
4	15876	15877	15878	15879	
4	15880	15881	15882	15883	
4	15884	15885	15886	15887	
4	15888	15889	15890	15891	
4	15892	15893	15894	15895	
4	15896	15897	15898	15899	
4	15900	15901	15902	15903	
4	15904	15905	15906	15907	
4	15908	15909	15910	15911	
4	15912	15913	15914	15915	
4	15916	15917	15918	15919	
4	15920	15921	15922	15923	
4	15924	15925	15926	15927	
4	15928	15929	15930	15931	
4	15932	15933	15934	15935	
4	15936	15937	15938	15939	
4	15940	15941	15942	15943	
4	15944	15945	15946	15947	
4	15948	15949	15950	15951	
4	15952	15953	15954	15955	
4	15956	15957	15958	15959	
4	15960	15961	15962	15963	
4	15964	15965	15966	15967	
4	15968	15969	15970	15971	
4	15972	15973	15974	15975	
4	15976	15977	15978	15979	
4	15980	15981	15982	15983	
4	15984	15985	15986	15987	
4	15988	15989	15990	15991	
4	15992	15993	15994	15995	
4	15996	15997	15998	15999	
4	16000	16001	16002	16003	
4	16004	16005	16006	16007	
4	16008	16009	16010	16011	
4	16012	16013	16014	16015	
4	16016	16017	16018	16019	
4	16020	16021	16022	16023	
4	16024	16025	16026	16027	
4	16028	16029	16030	16031	
4	16032	16033	16034	16035	
4	16036	16037	16038	16039	
4	16040	16041	16042	16043	
4	16044	16045	16046	16047	
4	16048	16049	16050	16051	
4	16052	16053	16054	16055	
4	16056	16057	16058	16059	
4	16060	16061	16062	16063	
4	16064	16065	16066	16067	
4	16068	16069	16070	16071	
4	16072	16073	16074	16075	
4	16076	16077	16078	16079	
4	16080	16081	16082	16083	
4	16084	16085	16086	16087	
4	16088	16089	16090	16091	
4	16092	16093	16094	16095	
4	16096	16097	16098	16099	
4	16100	16101	16102	16103	
4	16104	16105	16106	16107	
4	16108	16109	16110	16111	
4	16112	16113	16114	16115	
4	16116	16117	16118	16119	
4	16120	16121	16122	16123	
4	16124	16125	16126	16127	
4	16128	16129	16130	16131	
4	16132	16133	16134	16135	
4	16136	16137	16138	16139	
4	16140	16141	16142	16143	
4	16144	16145	16146	16147	
4	16148	16149	16150	16151	
4	16152	16153	16154	16155	
4	16156	16157	16158	16159	
4	16160	16161	16162	16163	
4	16164	16165	16166	16167	
4	16168	16169	16170	16171	
4	16172	16173	16174	16175	
4	16176	16177	16178	16179	
4	16180	16181	16182	16183	
4	16184	16185	16186	16187	
4	16188	16189	16190	16191	
4	16192	16193	16194	16195	
4	16196	16197	16198	16199	
4	16200	16201	16202	16203	
4	16204	16205	16206	16207	
4	16208	16209	16210	16211	
4	16212	16213	16214	16215	
4	16216	16217	16218	16219	
4	16220	16221	16222	16223	
4	16224	16225	16226	16227	
4	16228	16229	16230	16231	
4	16232	16233	16234	16235	
4	16236	16237	16238	16239	
4	16240	16241	16242	16243	
4	16244	16245	16246	16247	
4	16248	16249	16250	16251	
4	16252	16253	16254	16255	
4	16256	16257	16258	16259	
4	16260	16261	16262	16263	
4	16264	16265	16266	16267	
4	16268	16269	16270	16271	
4	16272	16273	16274	16275	
4	16276	16277	16278	16279	
4	16280	16281	16282	16283	
4	16284	16285	16286	16287	
4	16288	16289	16290	16291	
4	16292	16293	16294	16295	
4	16296	16297	16298	16299	
4	16300	16301	16302	16303	
4	16304	16305	16306	16307	
4	16308	16309	16310	16311	
4	16312	16313	16314	16315	
4	16316	16317	16318	16319	
4	16320	16321	16322	16323	
4	16324	16325	16326	16327	
4	16328	16329	16330	16331	
4	16332	16333	16334	16335	
4	16336	16337	16338	16339	
4	16340	16341	16342	16343	
4	16344	16345	16346	16347	
4	16348	16349	16350	16351	
4	16352	16353	16354	16355	
4	16356	16357	16358	16359	
4	16360	16361	16362	16363	
4	16364	16365	16366	16367	
4	16368	16369	16370	16371	
4	16372	16373	16374	16375	
4	16376	16377	16378	16379	
4	16380	16381	16382	16383	
4	16384	16385	16386	16387	
4	16388	16389	16390	16391	
4	16392	16393	16394	16395	
4	16396	16397	16398	16399	
4	16400	16401	16402	16403	
4	16404	16405	16406	16407	
4	16408	16409	16410	16411	
4	16412	16413	16414	16415	
4	16416	16417	16418	16419	
4	16420	16421	16422	16423	
4	16424	16425	16426	16427	
4	16428	16429	16430	16431	
4	16432	16433	16434	16435	
4	16436	16437	16438	16439	
4	16440	16441	16442	16443	
4	16444	16445	16446	16447	
4	16448	16449	16450	16451	
4	16452	16453	16454	16455	
4	16456	16457	16458	16459	
4	16460	16461	16462	16463	
4	16464	16465	16466	16467	
4	16468	16469	16470	16471	
4	16472	16473	16474	16475	
4	16476	16477	16478	16479	
4	16480	16481	16482	16483	
4	16484	16485	16486	16487	
4	16488	16489	16490	16491	
4	16492	16493	16494	16495	
4	16496	16497	16498	16499	
4	16500	16501	16502	16503	
4	16504	16505	16506	16507	
4	16508	16509	16510	16511	
4	16512	16513	16514	16515	
4	16516	16517	16518	16519	
4	16520	16521	16522	16523	
4	16524	16525	16526	16527	
4	16528	16529	16530	16531	
4	16532	16533	16534	16535	
4	16536	16537	16538	16539	
4	16540	16541	16542	16543	
4	16544	16545	16546	16547	
4	16548	16549	16550	16551	
4	16552	16553	16554	16555	
4	16556	16557	16558	16559	
4	16560	16561	16562	16563	
4	16564	16565	16566	16567	
4	16568	16569	16570	16571	
4	16572	16573	16574	16575	
4	16576	16577	16578	16579	
4	16580	16581	16582	16583	
4	16584	16585	16586	16587	
4	16588	16589	16590	16591	
4	16592	16593	16594	16595	
4	16596	16597	16598	16599	
4	16600	16601	16602	16603	
4	16604	16605	16606	16607	
4	16608	16609	16610	16611	
4	16612	16613	16614	16615	
4	16616	16617	16618	16619	
4	16620	16621	16622	16623	
4	16624	16625	16626	16627	
4	16628	16629	16630	16631	
4	16632	16633	16634	16635	
4	16636	16637	16638	16639	
4	16640	16641	16642	16643	
4	16644	16645	16646	16647	
4	16648	16649	16650	16651	
4	16652	16653	16654	16655	
4	16656	16657	16658	16659	
4	16660	16661	16662	16663	
4	16664	16665	16666	16667	
4	16668	16669	16670	16671	
4	16672	16673	16674	16675	
4	16676	16677	16678	16679	
4	16680	16681	16682	16683	
4	16684	16685	16686	16687	
4	16688	16689	16690	16691	
4	16692	16693	16694	16695	
4	16696	16697	16698	16699	
4	16700	16701	16702	16703	
4	16704	16705	16706	16707	
4	16708	16709	16710	16711	
4	16712	16713	16714	16715	
4	16716	16717	16718	16719	
4	16720	16721	16722	16723	
4	16724	16725	16726	16727	
4	16728	16729	16730	16731	
4	16732	16733	16734	16735	
4	16736	16737	16738	16739	
4	16740	16741	16742	16743	
4	16744	16745	16746	16747	
4	16748	16749	16750	16751	
4	16752	16753	16754	16755	
4	16756	16757	16758	16759	
4	16760	16761	16762	16763	
4	16764	16765	16766	16767	
4	16768	16769	16770	16771	
4	16772	16773	16774	16775	
4	16776	16777	16778	16779	
4	16780	16781	16782	16783	
4	16784	16785	16786	16787	
4	16788	16789	16790	16791	
4	16792	16793	16794	16795	
4	16796	16797	16798	16799	
4	16800	16801	16802	16803	
4	16804	16805	16806	16807	
4	16808	16809	16810	16811	
4	16812	16813	16814	16815	
4	16816	16817	16818	16819	
4	16820	16821	16822	16823	
4	16824	16825	16826	16827	
4	16828	16829	16830	16831	
4	16832	16833	16834	16835	
4	16836	16837	16838	16839	
4	16840	16841	16842	16843	
4	16844	16845	16846	16847	
4	16848	16849	16850	16851	
4	16852	16853	16854	16855	
4	16856	16857	16858	16859	
4	16860	16861	16862	16863	
4	16864	16865	16866	16867	
4	16868	16869	16870	16871	
4	16872	16873	16874	16875	
4	16876	16877	16878	16879	
4	16880	16881	16882	16883	
4	16884	16885	16886	16887	
4	16888	16889	16890	16891	
4	16892	16893	16894	16895	
4	16896	16897	16898	16899	
4	16900	16901	16902	16903	
4	16904	16905	16906	16907	
4	16908	16909	16910	16911	
4	16912	16913	16914	16915	
4	16916	16917	16918	16919	
4	16920	16921	16922	16923	
4	16924	16925	16926	16927	
4	16928	16929	16930	16931	
4	16932	16933	16934	16935	
4	16936	16937	16938	16939	
4	16940	16941	16942	16943	
4	16944	16945	16946	16947	
4	16948	16949	16950	16951	
4	16952	16953	16954	16955	
4	16956	16957	16958	16959	
4	16960	16961	16962	16963	
4	16964	16965	16966	16967	
4	16968	16969	16970	16971	
4	16972	16973	16974	16975	
4	16976	16977	16978	16979	
4	16980	16981	16982	16983	
4	16984	16985	16986	16987	
4	16988	16989	16990	16991	
4	16992	16993	16994	16995	
4	16996	16997	16998	16999	
4	17000	17001	17002	17003	
4	17004	17005	17006	17007	
4	17008	17009	17010	17011	
4	17012	17013	17014	17015	
4	17016	17017	17018	17019	
4	17020	17021	17022	17023	
4	17024	17025	17026	17027	
4	17028	17029	17030	17031	
4	17032	17033	17034	17035	
4	17036	17037	17038	17039	
4	17040	17041	17042	17043	
4	17044	17045	17046	17047	
4	17048	17049	17050	17051	
4	17052	17053	17054	17055	
4	17056	17057	17058	17059	
4	17060	17061	17062	17063	
4	17064	17065	17066	17067	
4	17068	17069	17070	17071	
4	17072	17073	17074	17075	
4	17076	17077	17078	17079	
4	17080	17081	17082	17083	
4	17084	17085	17086	17087	
4	17088	17089	17090	17091	
4	17092	17093	17094	17095	
4	17096	17097	17098	17099	
4	17100	17101	17102	17103	
4	17104	17105	17106	17107	
4	17108	17109	17110	17111	
4	17112	17113	17114	17115	
4	17116	17117	17118	17119	
4	17120	17121	17122	17123	
4	17124	17125	17126	17127	
4	17128	17129	17130	17131	
4	17132	17133	17134	17135	
4	17136	17137	17138	17139	
4	17140	17141	17142	17143	
4	17144	17145	17146	17147	
4	17148	17149	17150	17151	
4	17152	17153	17154	17155	
4	17156	17157	17158	17159	
4	17160	17161	17162	17163	
4	17164	17165	17166	17167	
4	17168	17169	17170	17171	
4	17172	17173	17174	17175	
4	17176	17177	17178	17179	
4	17180	17181	17182	17183	
4	17184	17185	17186	17187	
4	17188	17189	17190	17191	
4	17192	17193	17194	17195	
4	17196	17197	17198	17199	
4	17200	17201	17202	17203	
4	17204	17205	17206	17207	
4	17208	17209	17210	17211	
4	17212	17213	17214	17215	
4	17216	17217	17218	17219	
4	17220	17221	17222	17223	
4	17224	17225	17226	17227	
4	17228	17229	17230	17231	
4	17232	17233	17234	17235	
4	17236	17237	17238	17239	
4	17240	17241	17242	17243	
4	17244	17245	17246	17247	
4	17248	17249	17250	17251	
4	17252	17253	17254	17255	
4	17256	17257	17258	17259	
4	17260	17261	17262	17263	
4	17264	17265	17266	17267	
4	17268	17269	17270	17271	
4	17272	17273	17274	17275	
4	17276	17277	17278	17279	
4	17280	17281	17282	17283	
4	17284	17285	17286	17287	
4	17288	17289	17290	17291	
4	17292	17293	17294	17295	
4	17296	17297	17298	17299	
4	17300	17301	17302	17303	
4	17304	17305	17306	17307	
4	17308	17309	17310	17311	
4	17312	17313	17314	17315	
4	17316	17317	17318	17319	
4	17320	17321	17322	17323	
4	17324	17325	17326	17327	
4	17328	17329	17330	17331	
4	17332	17333	17334	17335	
4	17336	17337	17338	17339	
4	17340	17341	17342	17343	
4	17344	17345	17346	17347	
4	17348	17349	17350	17351	
4	17352	17353	17354	17355	
4	17356	17357	17358	17359	
4	17360	17361	17362	17363	
4	17364	17365	17366	17367	
4	17368	17369	17370	17371	
4	17372	17373	17374	17375	
4	17376	17377	17378	17379	
4	17380	17381	17382	17383	
4	17384	17385	17386	17387	
4	17388	17389	17390	17391	
4	17392	17393	17394	17395	
4	17396	17397	17398	17399	
4	17400	17401	17402	17403	
4	17404	17405	17406	17407	
4	17408	17409	17410	17411	
4	17412	17413	17414	17415	
4	17416	17417	17418	17419	
4	17420	17421	17422	17423	
4	17424	17425	17426	17427	
4	17428	17429	17430	17431	
4	17432	17433	17434	17435	
4	17436	17437	17438	17439	
4	17440	17441	17442	17443	
4	17444	17445	17446	17447	
4	17448	17449	17450	17451	
4	17452	17453	17454	17455	
4	17456	17457	17458	17459	
4	17460	17461	17462	17463	
4	17464	17465	17466	17467	
4	17468	17469	17470	17471	
4	17472	17473	17474	17475	
4	17476	17477	17478	17479	
4	17480	17481	17482	17483	
4	17484	17485	17486	17487	
4	17488	17489	17490	17491	
4	17492	17493	17494	17495	
4	17496	17497	17498	17499	
4	17500	17501	17502	17503	
4	17504	17505	17506	17507	
4	17508	17509	17510	17511	
4	17512	17513	17514	17515	
4	17516	17517	17518	17519	
4	17520	17521	17522	17523	
4	17524	17525	17526	17527	
4	17528	17529	17530	17531	
4	17532	17533	17534	17535	
4	17536	17537	17538	17539	
4	17540	17541	17542	17543	
4	17544	17545	17546	17547	
4	17548	17549	17550	17551	
4	17552	17553	17554	17555	
4	17556	17557	17558	17559	
4	17560	17561	17562	17563	
4	17564	17565	17566	17567	
4	17568	17569	17570	17571	
4	17572	17573	17574	17575	
4	17576	17577	17578	17579	
4	17580	17581	17582	17583	
4	17584	17585	17586	17587	
4	17588	17589	17590	17591	
4	17592	17593	17594	17595	
4	17596	17597	17598	17599	
4	17600	17601	17602	17603	
4	17604	17605	17606	17607	
4	17608	17609	17610	17611	
4	17612	17613	17614	17615	
4	17616	17617	17618	17619	
4	17620	17621	17622	17623	
4	17624	17625	17626	17627	
4	17628	17629	17630	17631	
4	17632	17633	17634	17635	
4	17636	17637	17638	17639	
4	17640	17641	17642	17643	
4	17644	17645	17646	17647	
4	17648	17649	17650	17651	
4	17652	17653	17654	17655	
4	17656	17657	17658	17659	
4	17660	17661	17662	17663	
4	17664	17665	17666	17667	
4	17668	17669	17670	17671	
4	17672	17673	17674	17675	
4	17676	17677	17678	17679	
4	17680	17681	17682	17683	
4	17684	17685	17686	17687	
4	17688	17689	17690	17691	
4	17692	17693	17694	17695	
4	17696	17697	17698	17699	
4	17700	17701	17702	17703	
4	17704	17705	17706	17707	
4	17708	17709	17710	17711	
4	17712	17713	17714	17715	
4	17716	17717	17718	17719	
4	17720	17721	17722	17723	
4	17724	17725	17726	17727	
4	17728	17729	17730	17731	
4	17732	17733	17734	17735	
4	17736	17737	17738	17739	
4	17740	17741	17742	17743	
4	17744	17745	17746	17747	
4	17748	17749	17750	17751	
4	17752	17753	17754	17755	
4	17756	17757	17758	17759	
4	17760	17761	17762	17763	
4	17764	17765	17766	17767	
4	17768	17769	17770	17771	
4	17772	17773	17774	17775	
4	17776	17777	17778	17779	
4	17780	17781	17782	17783	
4	17784	17785	17786	17787	
4	17788	17789	17790	17791	
4	17792	17793	17794	17795	
4	17796	17797	17798	17799	
4	17800	17801	17802	17803	
4	17804	17805	17806	17807	
4	17808	17809	17810	17811	
4	17812	17813	17814	17815	
4	17816	17817	17818	17819	
4	17820	17821	17822	17823	
4	17824	17825	17826	17827	
4	17828	17829	17830	17831	
4	17832	17833	17834	17835	
4	17836	17837	17838	17839	
4	17840	17841	17842	17843	
4	17844	17845	17846	17847	
4	17848	17849	17850	17851	
4	17852	17853	17854	17855	
4	17856	17857	17858	17859	
4	17860	17861	17862	17863	
4	17864	17865	17866	17867	
4	17868	17869	17870	17871	
4	17872	17873	17874	17875	
4	17876	17877	17878	17879	
4	17880	17881	17882	17883	
4	17884	17885	17886	17887	
4	17888	17889	17890	17891	
4	17892	17893	17894	17895	
4	17896	17897	17898	17899	
4	17900	17901	17902	17903	
4	17904	17905	17906	17907	
4	17908	17909	17910	17911	
4	17912	17913	17914	17915	
4	17916	17917	17918	17919	
4	17920	17921	17922	17923	
4	17924	17925	17926	17927	
4	17928	17929	17930	17931	
4	17932	17933	17934	17935	
4	17936	17937	17938	17939	
4	17940	17941	17942	17943	
4	17944	17945	17946	17947	
4	17948	17949	17950	17951	
4	17952	17953	17954	17955	
4	17956	17957	17958	17959	
4	17960	17961	17962	17963	
4	17964	17965	17966	17967	
4	17968	17969	17970	17971	
4	17972	17973	17974	17975	
4	17976	17977	17978	17979	
4	17980	17981	17982	17983	
4	17984	17985	17986	17987	
4	17988	17989	17990	17991	
4	17992	17993	17994	17995	
4	17996	17997	17998	17999	
4	18000	18001	18002	18003	
4	18004	18005	18006	18007	
4	18008	18009	18010	18011	
4	18012	18013	18014	18015	
4	18016	18017	18018	18019	
4	18020	18021	18022	18023	
4	18024	18025	18026	18027	
4	18028	18029	18030	18031	
4	18032	18033	18034	18035	
4	18036	18037	18038	18039	
4	18040	18041	18042	18043	
4	18044	18045	18046	18047	
4	18048	18049	18050	18051	
4	18052	18053	18054	18055	
4	18056	18057	18058	18059	
4	18060	18061	18062	18063	
4	18064	18065	18066	18067	
4	18068	18069	18070	18071	
4	18072	18073	18074	18075	
4	18076	18077	18078	18079	
4	18080	18081	18082	18083	
4	18084	18085	18086	18087	
4	18088	18089	18090	18091	
4	18092	18093	18094	18095	
4	18096	18097	18098	18099	
4	18100	18101	18102	18103	
4	18104	18105	18106	18107	
4	18108	18109	18110	18111	
4	18112	18113	18114	18115	
4	18116	18117	18118	18119	
4	18120	18121	18122	18123	
4	18124	18125	18126	18127	
4	18128	18129	18130	18131	
4	18132	18133	18134	18135	
4	18136	18137	18138	18139	
4	18140	18141	18142	18143	
4	18144	18145	18146	18147	
4	18148	18149	18150	18151	
4	18152	18153	18154	18155	
4	18156	18157	18158	18159	
4	18160	18161	18162	18163	
4	18164	18165	18166	18167	
4	18168	18169	18170	18171	
4	18172	18173	18174	18175	
4	18176	18177	18178	18179	
4	18180	18181	18182	18183	
4	18184	18185	18186	18187	
4	18188	18189	18190	18191	
4	18192	18193	18194	18195	
4	18196	18197	18198	18199	
4	18200	18201	18202	18203	
4	18204	18205	18206	18207	
4	18208	18209	18210	18211	
4	18212	18213	18214	18215	
4	18216	18217	18218	18219	
4	18220	18221	18222	18223	
4	18224	18225	18226	18227	
4	18228	18229	18230	18231	
4	18232	18233	18234	18235	
4	18236	18237	18238	18239	
4	18240	18241	18242	18243	
4	18244	18245	18246	18247	
4	18248	18249	18250	18251	
4	18252	18253	18254	18255	
4	18256	18257	18258	18259	
4	18260	18261	18262	18263	
4	18264	18265	18266	18267	
4	18268	18269	18270	18271	
4	18272	18273	18274	18275	
4	18276	18277	18278	18279	
4	18280	18281	18282	18283	
4	18284	18285	18286	18287	
4	18288	18289	18290	18291	
4	18292	18293	18294	18295	
4	18296	18297	18298	18299	
4	18300	18301	18302	18303	
4	18304	18305	18306	18307	
4	18308	18309	18310	18311	
4	18312	18313	18314	18315	
4	18316	18317	18318	18319	
4	18320	18321	18322	18323	
4	18324	18325	18326	18327	
4	18328	18329	18330	18331	
4	18332	18333	18334	18335	
4	18336	18337	18338	18339	
4	18340	18341	18342	18343	
4	18344	18345	18346	18347	
4	18348	18349	18350	18351	
4	18352	18353	18354	18355	
4	18356	18357	18358	18359	
4	18360	18361	18362	18363	
4	18364	18365	18366	18367	
4	18368	18369	18370	18371	
4	18372	18373	18374	18375	
4	18376	18377	18378	18379	
4	18380	18381	18382	18383	
4	18384	18385	18386	18387	
4	18388	18389	18390	18391	
4	18392	18393	18394	18395	
4	18396	18397	18398	18399	
4	18400	18401	18402	18403	
4	18404	18405	18406	18407	
4	18408	18409	18410	18411	
4	18412	18413	18414	18415	
4	18416	18417	18418	18419	
4	18420	18421	18422	18423	
4	18424	18425	18426	18427	
4	18428	18429	18430	18431	
4	18432	18433	18434	18435	
4	18436	18437	18438	18439	
4	18440	18441	18442	18443	
4	18444	18445	18446	18447	
4	18448	18449	18450	18451	
4	18452	18453	18454	18455	
4	18456	18457	18458	18459	
4	18460	18461	18462	18463	
4	18464	18465	18466	18467	
4	18468	18469	18470	18471	
4	18472	18473	18474	18475	
4	18476	18477	18478	18479	
4	18480	18481	18482	18483	
4	18484	18485	18486	18487	
4	18488	18489	18490	18491	
4	18492	18493	18494	18495	
4	18496	18497	18498	18499	
4	18500	18501	18502	18503	
4	18504	18505	18506	18507	
4	18508	18509	18510	18511	
4	18512	18513	18514	18515	
4	18516	18517	18518	18519	
4	18520	18521	18522	18523	
4	18524	18525	18526	18527	
4	18528	18529	18530	18531	
4	18532	18533	18534	18535	
4	18536	18537	18538	18539	
4	18540	18541	18542	18543	
4	18544	18545	18546	18547	
4	18548	18549	18550	18551	
4	18552	18553	18554	18555	
4	18556	18557	18558	18559	
4	18560	18561	18562	18563	
4	18564	18565	18566	18567	
4	18568	18569	18570	18571	
4	18572	18573	18574	18575	
4	18576	18577	18578	18579	
4	18580	18581	18582	18583	
4	18584	18585	18586	18587	
4	18588	18589	18590	18591	
4	18592	18593	18594	18595	
4	18596	18597	18598	18599	
4	18600	18601	18602	18603	
4	18604	18605	18606	18607	
4	18608	18609	18610	18611	
4	18612	18613	18614	18615	
4	18616	18617	18618	18619	
4	18620	18621	18622	18623	
4	18624	18625	18626	18627	
4	18628	18629	18630	18631	
4	18632	18633	18634	18635	
4	18636	18637	18638	18639	
4	18640	18641	18642	18643	
4	18644	18645	18646	18647	
4	18648	18649	18650	18651	
4	18652	18653	18654	18655	
4	18656	18657	18658	18659	
4	18660	18661	18662	18663	
4	18664	18665	18666	18667	
4	18668	18669	18670	18671	
4	18672	18673	18674	18675	
4	18676	18677	18678	18679	
4	18680	18681	18682	18683	
4	18684	18685	18686	18687	
4	18688	18689	18690	18691	
4	18692	18693	18694	18695	
4	18696	18697	18698	18699	
4	18700	18701	18702	18703	
4	18704	18705	18706	18707	
4	18708	18709	18710	18711	
4	18712	18713	18714	18715	
4	18716	18717	18718	18719	
4	18720	18721	18722	18723	
4	18724	18725	18726	18727	
4	18728	18729	18730	18731	
4	18732	18733	18734	18735	
4	18736	18737	18738	18739	
4	18740	18741	18742	18743	
4	18744	18745	18746	18747	
4	18748	18749	18750	18751	
4	18752	18753	18754	18755	
4	18756	18757	18758	18759	
4	18760	18761	18762	18763	
4	18764	18765	18766	18767	
4	18768	18769	18770	18771	
4	18772	18773	18774	18775	
4	18776	18777	18778	18779	
4	18780	18781	18782	18783	
4	18784	18785	18786	18787	
4	18788	18789	18790	18791	
4	18792	18793	18794	18795	
4	18796	18797	18798	18799	
4	18800	18801	18802	18803	
4	18804	18805	18806	18807	
4	18808	18809	18810	18811	
4	18812	18813	18814	18815	
4	18816	18817	18818	18819	
4	18820	18821	18822	18823	
4	18824	18825	18826	18827	
4	18828	18829	18830	18831	
4	18832	18833	18834	18835	
4	18836	18837	18838	18839	
4	18840	18841	18842	18843	
4	18844	18845	18846	18847	
4	18848	18849	18850	18851	
4	18852	18853	18854	18855	
4	18856	18857	18858	18859	
4	18860	18861	18862	18863	
4	18864	18865	18866	18867	
4	18868	18869	18870	18871	
4	18872	18873	18874	18875	
4	18876	18877	18878	18879	
4	18880	18881	18882	18883	
4	18884	18885	18886	18887	
4	18888	18889	18890	18891	
4	18892	18893	18894	18895	
4	18896	18897	18898	18899	
4	18900	18901	18902	18903	
4	18904	18905	18906	18907	
4	18908	18909	18910	18911	
4	18912	18913	18914	18915	
4	18916	18917	18918	18919	
4	18920	18921	18922	18923	
4	18924	18925	18926	18927	
4	18928	18929	18930	18931	
4	18932	18933	18934	18935	
4	18936	18937	18938	18939	
4	18940	18941	18942	18943	
4	18944	18945	18946	18947	
4	18948	18949	18950	18951	
4	18952	18953	18954	18955	
4	18956	18957	18958	18959	
4	18960	18961	18962	18963	
4	18964	18965	18966	18967	
4	18968	18969	18970	18971	
4	18972	18973	18974	18975	
4	18976	18977	18978	18979	
4	18980	18981	18982	18983	
4	18984	18985	18986	18987	
4	18988	18989	18990	18991	
4	18992	18993	18994	18995	
4	18996	18997	18998	18999	
4	19000	19001	19002	19003	
4	19004	19005	19006	19007	
4	19008	19009	19010	19011	
4	19012	19013	19014	19015	
4	19016	19017	19018	19019	
4	19020	19021	19022	19023	
4	19024	19025	19026	19027	
4	19028	19029	19030	19031	
4	19032	19033	19034	19035	
4	19036	19037	19038	19039	
4	19040	19041	19042	19043	
4	19044	19045	19046	19047	
4	19048	19049	19050	19051	
4	19052	19053	19054	19055	
4	19056	19057	19058	19059	
4	19060	19061	19062	19063	
4	19064	19065	19066	19067	
4	19068	19069	19070	19071	
4	19072	19073	19074	19075	
4	19076	19077	19078	19079	
4	19080	19081	19082	19083	
4	19084	19085	19086	19087	
4	19088	19089	19090	19091	
4	19092	19093	19094	19095	
4	19096	19097	19098	19099	
4	19100	19101	19102	19103	
4	19104	19105	19106	19107	
4	19108	19109	19110	19111	
4	19112	19113	19114	19115	
4	19116	19117	19118	19119	
4	19120	19121	19122	19123	
4	19124	19125	19126	19127	
4	19128	19129	19130	19131	
4	19132	19133	19134	19135	
4	19136	19137	19138	19139	
4	19140	19141	19142	19143	
4	19144	19145	19146	19147	
4	19148	19149	19150	19151	
4	19152	19153	19154	19155	
4	19156	19157	19158	19159	
4	19160	19161	19162	19163	
4	19164	19165	19166	19167	
4	19168	19169	19170	19171	
4	19172	19173	19174	19175	
4	19176	19177	19178	19179	
4	19180	19181	19182	19183	
4	19184	19185	19186	19187	
4	19188	19189	19190	19191	
4	19192	19193	19194	19195	
4	19196	19197	19198	19199	
4	19200	19201	19202	19203	
4	19204	19205	19206	19207	
4	19208	19209	19210	19211	
4	19212	19213	19214	19215	
4	19216	19217	19218	19219	
4	19220	19221	19222	19223	
4	19224	19225	19226	19227	
4	19228	19229	19230	19231	
4	19232	19233	19234	19235	
4	19236	19237	19238	19239	
4	19240	19241	19242	19243	
4	19244	19245	19246	19247	
4	19248	19249	19250	19251	
4	19252	19253	19254	19255	
4	19256	19257	19258	19259	
4	19260	19261	19262	19263	
4	19264	19265	19266	19267	
4	19268	19269	19270	19271	
4	19272	19273	19274	19275	
4	19276	19277	19278	19279	
4	19280	19281	19282	19283	
4	19284	19285	19286	19287	
4	19288	19289	19290	19291	
4	19292	19293	19294	19295	
4	19296	19297	19298	19299	
4	19300	19301	19302	19303	
4	19304	19305	19306	19307	
4	19308	19309	19310	19311	
4	19312	19313	19314	19315	
4	19316	19317	19318	19319	
4	19320	19321	19322	19323	
4	19324	19325	19326	19327	
4	19328	19329	19330	19331	
4	19332	19333	19334	19335	
4	19336	19337	19338	19339	
4	19340	19341	19342	19343	
4	19344	19345	19346	19347	
4	19348	19349	19350	19351	
4	19352	19353	19354	19355	
4	19356	19357	19358	19359	
4	19360	19361	19362	19363	
4	19364	19365	19366	19367	
4	19368	19369	19370	19371	
4	19372	19373	19374	19375	
4	19376	19377	19378	19379	
4	19380	19381	19382	19383	
4	19384	19385	19386	19387	
4	19388	19389	19390	19391	
4	19392	19393	19394	19395	
4	19396	19397	19398	19399	
4	19400	19401	19402	19403	
4	19404	19405	19406	19407	
4	19408	19409	19410	19411	
4	19412	19413	19414	19415	
4	19416	19417	19418	19419	
4	19420	19421	19422	19423	
4	19424	19425	19426	19427	
4	19428	19429	19430	19431	
4	19432	19433	19434	19435	
4	19436	19437	19438	19439	
4	19440	19441	19442	19443	
4	19444	19445	19446	19447	
4	19448	19449	19450	19451	
4	19452	19453	19454	19455	
4	19456	19457	19458	19459	
4	19460	19461	19462	19463	
4	19464	19465	19466	19467	
4	19468	19469	19470	19471	
4	19472	19473	19474	19475	
4	19476	19477	19478	19479	
4	19480	19481	19482	19483	
4	19484	19485	19486	19487	
4	19488	19489	19490	19491	
4	19492	19493	19494	19495	
4	19496	19497	19498	19499	
4	19500	19501	19502	19503	
4	19504	19505	19506	19507	
4	19508	19509	19510	19511	
4	19512	19513	19514	19515	
4	19516	19517	19518	19519	
4	19520	19521	19522	19523	
4	19524	19525	19526	19527	
4	19528	19529	19530	19531	
4	19532	19533	19534	19535	
4	19536	19537	19538	19539	
4	19540	19541	19542	19543	
4	19544	19545	19546	19547	
4	19548	19549	19550	19551	
4	19552	19553	19554	19555	
4	19556	19557	19558	19559	
4	19560	19561	19562	19563	
4	19564	19565	19566	19567	
4	19568	19569	19570	19571	
4	19572	19573	19574	19575	
4	19576	19577	19578	19579	
4	19580	19581	19582	19583	
4	19584	19585	19586	19587	
4	19588	19589	19590	19591	
4	19592	19593	19594	19595	
4	19596	19597	19598	19599	
4	19600	19601	19602	19603	
4	19604	19605	19606	19607	
4	19608	19609	19610	19611	
4	19612	19613	19614	19615	
4	19616	19617	19618	19619	
4	19620	19621	19622	19623	
4	19624	19625	19626	19627	
4	19628	19629	19630	19631	
4	19632	19633	19634	19635	
4	19636	19637	19638	19639	
4	19640	19641	19642	19643	
4	19644	19645	19646	19647	
4	19648	19649	19650	19651	
4	19652	19653	19654	19655	
4	19656	19657	19658	19659	
4	19660	19661	19662	19663	
4	19664	19665	19666	19667	
4	19668	19669	19670	19671	
4	19672	19673	19674	19675	
4	19676	19677	19678	19679	
4	19680	19681	19682	19683	
4	19684	19685	19686	19687	
4	19688	19689	19690	19691	
4	19692	19693	19694	19695	
4	19696	19697	19698	19699	
4	19700	19701	19702	19703	
4	19704	19705	19706	19707	
4	19708	19709	19710	19711	
4	19712	19713	19714	19715	
4	19716	19717	19718	19719	
4	19720	19721	19722	19723	
4	19724	19725	19726	19727	
4	19728	19729	19730	19731	
4	19732	19733	19734	19735	
4	19736	19737	19738	19739	
4	19740	19741	19742	19743	
4	19744	19745	19746	19747	
4	19748	19749	19750	19751	
4	19752	19753	19754	19755	
4	19756	19757	19758	19759	
4	19760	19761	19762	19763	
4	19764	19765	19766	19767	
4	19768	19769	19770	19771	
4	19772	19773	19774	19775	
4	19776	19777	19778	19779	
4	19780	19781	19782	19783	
4	19784	19785	19786	19787	
4	19788	19789	19790	19791	
4	19792	19793	19794	19795	
4	19796	19797	19798	19799	
4	19800	19801	19802	19803	
4	19804	19805	19806	19807	
4	19808	19809	19810	19811	
4	19812	19813	19814	19815	
4	19816	19817	19818	19819	
4	19820	19821	19822	19823	
4	19824	19825	19826	19827	
4	19828	19829	19830	19831	
4	19832	19833	19834	19835	
4	19836	19837	19838	19839	
4	19840	19841	19842	19843	
4	19844	19845	19846	19847	
4	19848	19849	19850	19851	
4	19852	19853	19854	19855	
4	19856	19857	19858	19859	
4	19860	19861	19862	19863	
4	19864	19865	19866	19867	
4	19868	19869	19870	19871	
4	19872	19873	19874	19875	
4	19876	19877	19878	19879	
4	19880	19881	19882	19883	
4	19884	19885	19886	19887	
4	19888	19889	19890	19891	
4	19892	19893	19894	19895	
4	19896	19897	19898	19899	
4	19900	19901	19902	19903	
4	19904	19905	19906	19907	
4	19908	19909	19910	19911	
4	19912	19913	19914	19915	
4	19916	19917	19918	19919	
4	19920	19921	19922	19923	
4	19924	19925	19926	19927	
4	19928	19929	19930	19931	
4	19932	19933	19934	19935	
4	19936	19937	19938	19939	
4	19940	19941	19942	19943	
4	19944	19945	19946	19947	
4	19948	19949	19950	19951	
4	19952	19953	19954	19955	
4	19956	19957	19958	19959	
4	19960	19961	19962	19963	
4	19964	19965	19966	19967	
4	19968	19969	19970	19971	
4	19972	19973	19974	19975	
4	19976	19977	19978	19979	
4	19980	19981	19982	19983	
4	19984	19985	19986	19987	
4	19988	19989	19990	19991	
4	19992	19993	19994	19995	
4	19996	19997	19998	19999	
4	20000	20001	20002	20003	
4	20004	20005	20006	20007	
4	20008	20009	20010	20011	
4	20012	20013	20014	20015	
4	20016	20017	20018	20019	
4	20020	20021	20022	20023	
4	20024	20025	20026	20027	
4	20028	20029	20030	20031	
4	20032	20033	20034	20035	
4	20036	20037	20038	20039	
4	20040	20041	20042	20043	
4	20044	20045	20046	20047	
4	20048	20049	20050	20051	
4	20052	20053	20054	20055	
4	20056	20057	20058	20059	
4	20060	20061	20062	20063	
4	20064	20065	20066	20067	
4	20068	20069	20070	20071	
4	20072	20073	20074	20075	
4	20076	20077	20078	20079	
4	20080	20081	20082	20083	
4	20084	20085	20086	20087	
4	20088	20089	20090	20091	
4	20092	20093	20094	20095	
4	20096	20097	20098	20099	
4	20100	20101	20102	20103	
4	20104	20105	20106	20107	
4	20108	20109	20110	20111	
4	20112	20113	20114	20115	
4	20116	20117	20118	20119	
4	20120	20121	20122	20123	
4	20124	20125	20126	20127	
4	20128	20129	20130	20131	
4	20132	20133	20134	20135	
4	20136	20137	20138	20139	
4	20140	20141	20142	20143	
4	20144	20145	20146	20147	
4	20148	20149	20150	20151	
4	20152	20153	20154	20155	
4	20156	20157	20158	20159	
4	20160	20161	20162	20163	
4	20164	20165	20166	20167	
4	20168	20169	20170	20171	
4	20172	20173	20174	20175	
4	20176	20177	20178	20179	
4	20180	20181	20182	20183	
4	20184	20185	20186	20187	
4	20188	20189	20190	20191	
4	20192	20193	20194	20195	
4	20196	20197	20198	20199	
4	20200	20201	20202	20203	
4	20204	20205	20206	20207	
4	20208	20209	20210	20211	
4	20212	20213	20214	20215	
4	20216	20217	20218	20219	
4	20220	20221	20222	20223	
4	20224	20225	20226	20227	
4	20228	20229	20230	20231	
4	20232	20233	20234	20235	
4	20236	20237	20238	20239	
4	20240	20241	20242	20243	
4	20244	20245	20246	20247	
4	20248	20249	20250	20251	
4	20252	20253	20254	20255	
4	20256	20257	20258	20259	
4	20260	20261	20262	20263	
4	20264	20265	20266	20267	
4	20268	20269	20270	20271	
4	20272	20273	20274	20275	
4	20276	20277	20278	20279	
4	20280	20281	20282	20283	
4	20284	20285	20286	20287	
4	20288	20289	20290	20291	
4	20292	20293	20294	20295	
4	20296	20297	20298	20299	
4	20300	20301	20302	20303	
4	20304	20305	20306	20307	
4	20308	20309	20310	20311	
4	20312	20313	20314	20315	
4	20316	20317	20318	20319	
4	20320	20321	20322	20323	
4	20324	20325	20326	20327	
4	20328	20329	20330	20331	
4	20332	20333	20334	20335	
4	20336	20337	20338	20339	
4	20340	20341	20342	20343	
4	20344	20345	20346	20347	
4	20348	20349	20350	20351	
4	20352	20353	20354	20355	
4	20356	20357	20358	20359	
4	20360	20361	20362	20363	
4	20364	20365	20366	20367	
4	20368	20369	20370	20371	
4	20372	20373	20374	20375	
4	20376	20377	20378	20379	
4	20380	20381	20382	20383	
4	20384	20385	20386	20387	
4	20388	20389	20390	20391	
4	20392	20393	20394	20395	
4	20396	20397	20398	20399	
4	20400	20401	20402	20403	
4	20404	20405	20406	20407	
4	20408	20409	20410	20411	
4	20412	20413	20414	20415	
4	20416	20417	20418	20419	
4	20420	20421	20422	20423	
4	20424	20425	20426	20427	
4	20428	20429	20430	20431	
4	20432	20433	20434	20435	
4	20436	20437	20438	20439	
4	20440	20441	20442	20443	
4	20444	20445	20446	20447	
4	20448	20449	20450	20451	
4	20452	20453	20454	20455	
4	20456	20457	20458	20459	
4	20460	20461	20462	20463	
4	20464	20465	20466	20467	
4	20468	20469	20470	20471	
4	20472	20473	20474	20475	
4	20476	20477	20478	20479	
4	20480	20481	20482	20483	
4	20484	20485	20486	20487	
4	20488	20489	20490	20491	
4	20492	20493	20494	20495	
4	20496	20497	20498	20499	
4	20500	20501	20502	20503	
4	20504	20505	20506	20507	
4	20508	20509	20510	20511	
4	20512	20513	20514	20515	
4	20516	20517	20518	20519	
4	20520	20521	20522	20523	
4	20524	20525	20526	20527	
4	20528	20529	20530	20531	
4	20532	20533	20534	20535	
4	20536	20537	20538	20539	
4	20540	20541	20542	20543	
4	20544	20545	20546	20547	
4	20548	20549	20550	20551	
4	20552	20553	20554	20555	
4	20556	20557	20558	20559	
4	20560	20561	20562	20563	
4	20564	20565	20566	20567	
4	20568	20569	20570	20571	
4	20572	20573	20574	20575	
4	20576	20577	20578	20579	
4	20580	20581	20582	20583	
4	20584	20585	20586	20587	
4	20588	20589	20590	20591	
4	20592	20593	20594	20595	
4	20596	20597	20598	20599	
4	20600	20601	20602	20603	
4	20604	20605	20606	20607	
4	20608	20609	20610	20611	
4	20612	20613	20614	20615	
4	20616	20617	20618	20619	
4	20620	20621	20622	20623	
4	20624	20625	20626	20627	
4	20628	20629	20630	20631	
4	20632	20633	20634	20635	
4	20636	20637	20638	20639	
4	20640	20641	20642	20643	
4	20644	20645	20646	20647	
4	20648	20649	20650	20651	
4	20652	20653	20654	20655	
4	20656	20657	20658	20659	
4	20660	20661	20662	20663	
4	20664	20665	20666	20667	
4	20668	20669	20670	20671	
4	20672	20673	20674	20675	
4	20676	20677	20678	20679	
4	20680	20681	20682	20683	
4	20684	20685	20686	20687	
4	20688	20689	20690	20691	
4	20692	20693	20694	20695	
4	20696	20697	20698	20699	
4	20700	20701	20702	20703	
4	20704	20705	20706	20707	
4	20708	20709	20710	20711	
4	20712	20713	20714	20715	
4	20716	20717	20718	20719	
4	20720	20721	20722	20723	
4	20724	20725	20726	20727	
4	20728	20729	20730	20731	
4	20732	20733	20734	20735	
4	20736	20737	20738	20739	
4	20740	20741	20742	20743	
4	20744	20745	20746	20747	
4	20748	20749	20750	20751	
4	20752	20753	20754	20755	
4	20756	20757	20758	20759	
4	20760	20761	20762	20763	
4	20764	20765	20766	20767	
4	20768	20769	20770	20771	
4	20772	20773	20774	20775	
4	20776	20777	20778	20779	
4	20780	20781	20782	20783	
4	20784	20785	20786	20787	
4	20788	20789	20790	20791	
4	20792	20793	20794	20795	
4	20796	20797	20798	20799	
4	20800	20801	20802	20803	
4	20804	20805	20806	20807	
4	20808	20809	20810	20811	
4	20812	20813	20814	20815	
4	20816	20817	20818	20819	
4	20820	20821	20822	20823	
4	20824	20825	20826	20827	
4	20828	20829	20830	20831	
4	20832	20833	20834	20835	
4	20836	20837	20838	20839	
4	20840	20841	20842	20843	
4	20844	20845	20846	20847	
4	20848	20849	20850	20851	
4	20852	20853	20854	20855	
4	20856	20857	20858	20859	
4	20860	20861	20862	20863	
4	20864	20865	20866	20867	
4	20868	20869	20870	20871	
4	20872	20873	20874	20875	
4	20876	20877	20878	20879	
4	20880	20881	20882	20883	
4	20884	20885	20886	20887	
4	20888	20889	20890	20891	
4	20892	20893	20894	20895	
4	20896	20897	20898	20899	
4	20900	20901	20902	20903	
4	20904	20905	20906	20907	
4	20908	20909	20910	20911	
4	20912	20913	20914	20915	
4	20916	20917	20918	20919	
4	20920	20921	20922	20923	
4	20924	20925	20926	20927	
4	20928	20929	20930	20931	
4	20932	20933	20934	20935	
4	20936	20937	20938	20939	
4	20940	20941	20942	20943	
4	20944	20945	20946	20947	
4	20948	20949	20950	20951	
4	20952	20953	20954	20955	
4	20956	20957	20958	20959	
4	20960	20961	20962	20963	
4	20964	20965	20966	20967	
4	20968	20969	20970	20971	
4	20972	20973	20974	20975	
4	20976	20977	20978	20979	
4	20980	20981	20982	20983	
4	20984	20985	20986	20987	
4	20988	20989	20990	20991	
4	20992	20993	20994	20995	
4	20996	20997	20998	20999	
4	21000	21001	21002	21003	
4	21004	21005	21006	21007	
4	21008	21009	21010	21011	
4	21012	21013	21014	21015	
4	21016	21017	21018	21019	
4	21020	21021	21022	21023	
4	21024	21025	21026	21027	
4	21028	21029	21030	21031	
4	21032	21033	21034	21035	
4	21036	21037	21038	21039	
4	21040	21041	21042	21043	
4	21044	21045	21046	21047	
4	21048	21049	21050	21051	
4	21052	21053	21054	21055	
4	21056	21057	21058	21059	
4	21060	21061	21062	21063	
4	21064	21065	21066	21067	
4	21068	21069	21070	21071	
4	21072	21073	21074	21075	
4	21076	21077	21078	21079	
4	21080	21081	21082	21083	
4	21084	21085	21086	21087	
4	21088	21089	21090	21091	
4	21092	21093	21094	21095	
4	21096	21097	21098	21099	
4	21100	21101	21102	21103	
4	21104	21105	21106	21107	
4	21108	21109	21110	21111	
4	21112	21113	21114	21115	
4	21116	21117	21118	21119	
4	21120	21121	21122	21123	
4	21124	21125	21126	21127	
4	21128	21129	21130	21131	
4	21132	21133	21134	21135	
4	21136	21137	21138	21139	
4	21140	21141	21142	21143	
4	21144	21145	21146	21147	
4	21148	21149	21150	21151	
4	21152	21153	21154	21155	
4	21156	21157	21158	21159	
4	21160	21161	21162	21163	
4	21164	21165	21166	21167	
4	21168	21169	21170	21171	
4	21172	21173	21174	21175	
4	21176	21177	21178	21179	
4	21180	21181	21182	21183	
4	21184	21185	21186	21187	
4	21188	21189	21190	21191	
4	21192	21193	21194	21195	
4	21196	21197	21198	21199	
4	21200	21201	21202	21203	
4	21204	21205	21206	21207	
4	21208	21209	21210	21211	
4	21212	21213	21214	21215	
4	21216	21217	21218	21219	
4	21220	21221	21222	21223	
4	21224	21225	21226	21227	
4	21228	21229	21230	21231	
4	21232	21233	21234	21235	
4	21236	21237	21238	21239	
4	21240	21241	21242	21243	
4	21244	21245	21246	21247	
4	21248	21249	21250	21251	
4	21252	21253	21254	21255	
4	21256	21257	21258	21259	
4	21260	21261	21262	21263	
4	21264	21265	21266	21267	
4	21268	21269	21270	21271	
4	21272	21273	21274	21275	
4	21276	21277	21278	21279	
4	21280	21281	21282	21283	
4	21284	21285	21286	21287	
4	21288	21289	21290	21291	
4	21292	21293	21294	21295	
4	21296	21297	21298	21299	
4	21300	21301	21302	21303	
4	21304	21305	21306	21307	
4	21308	21309	21310	21311	
4	21312	21313	21314	21315	
4	21316	21317	21318	21319	
4	21320	21321	21322	21323	
4	21324	21325	21326	21327	
4	21328	21329	21330	21331	
4	21332	21333	21334	21335	
4	21336	21337	21338	21339	
4	21340	21341	21342	21343	
4	21344	21345	21346	21347	
4	21348	21349	21350	21351	
4	21352	21353	21354	21355	
4	21356	21357	21358	21359	
4	21360	21361	21362	21363	
4	21364	21365	21366	21367	
4	21368	21369	21370	21371	
4	21372	21373	21374	21375	
4	21376	21377	21378	21379	
4	21380	21381	21382	21383	
4	21384	21385	21386	21387	
4	21388	21389	21390	21391	
4	21392	21393	21394	21395	
4	21396	21397	21398	21399	
4	21400	21401	21402	21403	
4	21404	21405	21406	21407	
4	21408	21409	21410	21411	
4	21412	21413	21414	21415	
4	21416	21417	21418	21419	
4	21420	21421	21422	21423	
4	21424	21425	21426	21427	
4	21428	21429	21430	21431	
4	21432	21433	21434	21435	
4	21436	21437	21438	21439	
4	21440	21441	21442	21443	
4	21444	21445	21446	21447	
4	21448	21449	21450	21451	
4	21452	21453	21454	21455	
4	21456	21457	21458	21459	
4	21460	21461	21462	21463	
4	21464	21465	21466	21467	
4	21468	21469	21470	21471	
4	21472	21473	21474	21475	
4	21476	21477	21478	21479	
4	21480	21481	21482	21483	
4	21484	21485	21486	21487	
4	21488	21489	21490	21491	
4	21492	21493	21494	21495	
4	21496	21497	21498	21499	
4	21500	21501	21502	21503	
4	21504	21505	21506	21507	
4	21508	21509	21510	21511	
4	21512	21513	21514	21515	
4	21516	21517	21518	21519	
4	21520	21521	21522	21523	
4	21524	21525	21526	21527	
4	21528	21529	21530	21531	
4	21532	21533	21534	21535	
4	21536	21537	21538	21539	
4	21540	21541	21542	21543	
4	21544	21545	21546	21547	
4	21548	21549	21550	21551	
4	21552	21553	21554	21555	
4	21556	21557	21558	21559	
4	21560	21561	21562	21563	
4	21564	21565	21566	21567	
4	21568	21569	21570	21571	
4	21572	21573	21574	21575	
4	21576	21577	21578	21579	
4	21580	21581	21582	21583	
4	21584	21585	21586	21587	
4	21588	21589	21590	21591	
4	21592	21593	21594	21595	
4	21596	21597	21598	21599	
4	21600	21601	21602	21603	
4	21604	21605	21606	21607	
CELL_TYPES 5402
10
10
10
10
10
10
10
10
10
10
10
10
10
10
10
10
10
10
10
10
10
10
10
10
10
10
10
10
10
10
10
10
10
10
10
10
10
10
10
10
10
10
10
10
10
10
10
10
10
10
10
10
10
10
10
10
10
10
10
10
10
10
10
10
10
10
10
10
10
10
10
10
10
10
10
10
10
10
10
10
10
10
10
10
10
10
10
10
10
10
10
10
10
10
10
10
10
10
10
10
10
10
10
10
10
10
10
10
10
10
10
10
10
10
10
10
10
10
10
10
10
10
10
10
10
10
10
10
10
10
10
10
10
10
10
10
10
10
10
10
10
10
10
10
10
10
10
10
10
10
10
10
10
10
10
10
10
10
10
10
10
10
10
10
10
10
10
10
10
10
10
10
10
10
10
10
10
10
10
10
10
10
10
10
10
10
10
10
10
10
10
10
10
10
10
10
10
10
10
10
10
10
10
10
10
10
10
10
10
10
10
10
10
10
10
10
10
10
10
10
10
10
10
10
10
10
10
10
10
10
10
10
10
10
10
10
10
10
10
10
10
10
10
10
10
10
10
10
10
10
10
10
10
10
10
10
10
10
10
10
10
10
10
10
10
10
10
10
10
10
10
10
10
10
10
10
10
10
10
10
10
10
10
10
10
10
10
10
10
10
10
10
10
10
10
10
10
10
10
10
10
10
10
10
10
10
10
10
10
10
10
10
10
10
10
10
10
10
10
10
10
10
10
10
10
10
10
10
10
10
10
10
10
10
10
10
10
10
10
10
10
10
10
10
10
10
10
10
10
10
10
10
10
10
10
10
10
10
10
10
10
10
10
10
10
10
10
10
10
10
10
10
10
10
10
10
10
10
10
10
10
10
10
10
10
10
10
10
10
10
10
10
10
10
10
10
10
10
10
10
10
10
10
10
10
10
10
10
10
10
10
10
10
10
10
10
10
10
10
10
10
10
10
10
10
10
10
10
10
10
10
10
10
10
10
10
10
10
10
10
10
10
10
10
10
10
10
10
10
10
10
10
10
10
10
10
10
10
10
10
10
10
10
10
10
10
10
10
10
10
10
10
10
10
10
10
10
10
10
10
10
10
10
10
10
10
10
10
10
10
10
10
10
10
10
10
10
10
10
10
10
10
10
10
10
10
10
10
10
10
10
10
10
10
10
10
10
10
10
10
10
10
10
10
10
10
10
10
10
10
10
10
10
10
10
10
10
10
10
10
10
10
10
10
10
10
10
10
10
10
10
10
10
10
10
10
10
10
10
10
10
10
10
10
10
10
10
10
10
10
10
10
10
10
10
10
10
10
10
10
10
10
10
10
10
10
10
10
10
10
10
10
10
10
10
10
10
10
10
10
10
10
10
10
10
10
10
10
10
10
10
10
10
10
10
10
10
10
10
10
10
10
10
10
10
10
10
10
10
10
10
10
10
10
10
10
10
10
10
10
10
10
10
10
10
10
10
10
10
10
10
10
10
10
10
10
10
10
10
10
10
10
10
10
10
10
10
10
10
10
10
10
10
10
10
10
10
10
10
10
10
10
10
10
10
10
10
10
10
10
10
10
10
10
10
10
10
10
10
10
10
10
10
10
10
10
10
10
10
10
10
10
10
10
10
10
10
10
10
10
10
10
10
10
10
10
10
10
10
10
10
10
10
10
10
10
10
10
10
10
10
10
10
10
10
10
10
10
10
10
10
10
10
10
10
10
10
10
10
10
10
10
10
10
10
10
10
10
10
10
10
10
10
10
10
10
10
10
10
10
10
10
10
10
10
10
10
10
10
10
10
10
10
10
10
10
10
10
10
10
10
10
10
10
10
10
10
10
10
10
10
10
10
10
10
10
10
10
10
10
10
10
10
10
10
10
10
10
10
10
10
10
10
10
10
10
10
10
10
10
10
10
10
10
10
10
10
10
10
10
10
10
10
10
10
10
10
10
10
10
10
10
10
10
10
10
10
10
10
10
10
10
10
10
10
10
10
10
10
10
10
10
10
10
10
10
10
10
10
10
10
10
10
10
10
10
10
10
10
10
10
10
10
10
10
10
10
10
10
10
10
10
10
10
10
10
10
10
10
10
10
10
10
10
10
10
10
10
10
10
10
10
10
10
10
10
10
10
10
10
10
10
10
10
10
10
10
10
10
10
10
10
10
10
10
10
10
10
10
10
10
10
10
10
10
10
10
10
10
10
10
10
10
10
10
10
10
10
10
10
10
10
10
10
10
10
10
10
10
10
10
10
10
10
10
10
10
10
10
10
10
10
10
10
10
10
10
10
10
10
10
10
10
10
10
10
10
10
10
10
10
10
10
10
10
10
10
10
10
10
10
10
10
10
10
10
10
10
10
10
10
10
10
10
10
10
10
10
10
10
10
10
10
10
10
10
10
10
10
10
10
10
10
10
10
10
10
10
10
10
10
10
10
10
10
10
10
10
10
10
10
10
10
10
10
10
10
10
10
10
10
10
10
10
10
10
10
10
10
10
10
10
10
10
10
10
10
10
10
10
10
10
10
10
10
10
10
10
10
10
10
10
10
10
10
10
10
10
10
10
10
10
10
10
10
10
10
10
10
10
10
10
10
10
10
10
10
10
10
10
10
10
10
10
10
10
10
10
10
10
10
10
10
10
10
10
10
10
10
10
10
10
10
10
10
10
10
10
10
10
10
10
10
10
10
10
10
10
10
10
10
10
10
10
10
10
10
10
10
10
10
10
10
10
10
10
10
10
10
10
10
10
10
10
10
10
10
10
10
10
10
10
10
10
10
10
10
10
10
10
10
10
10
10
10
10
10
10
10
10
10
10
10
10
10
10
10
10
10
10
10
10
10
10
10
10
10
10
10
10
10
10
10
10
10
10
10
10
10
10
10
10
10
10
10
10
10
10
10
10
10
10
10
10
10
10
10
10
10
10
10
10
10
10
10
10
10
10
10
10
10
10
10
10
10
10
10
10
10
10
10
10
10
10
10
10
10
10
10
10
10
10
10
10
10
10
10
10
10
10
10
10
10
10
10
10
10
10
10
10
10
10
10
10
10
10
10
10
10
10
10
10
10
10
10
10
10
10
10
10
10
10
10
10
10
10
10
10
10
10
10
10
10
10
10
10
10
10
10
10
10
10
10
10
10
10
10
10
10
10
10
10
10
10
10
10
10
10
10
10
10
10
10
10
10
10
10
10
10
10
10
10
10
10
10
10
10
10
10
10
10
10
10
10
10
10
10
10
10
10
10
10
10
10
10
10
10
10
10
10
10
10
10
10
10
10
10
10
10
10
10
10
10
10
10
10
10
10
10
10
10
10
10
10
10
10
10
10
10
10
10
10
10
10
10
10
10
10
10
10
10
10
10
10
10
10
10
10
10
10
10
10
10
10
10
10
10
10
10
10
10
10
10
10
10
10
10
10
10
10
10
10
10
10
10
10
10
10
10
10
10
10
10
10
10
10
10
10
10
10
10
10
10
10
10
10
10
10
10
10
10
10
10
10
10
10
10
10
10
10
10
10
10
10
10
10
10
10
10
10
10
10
10
10
10
10
10
10
10
10
10
10
10
10
10
10
10
10
10
10
10
10
10
10
10
10
10
10
10
10
10
10
10
10
10
10
10
10
10
10
10
10
10
10
10
10
10
10
10
10
10
10
10
10
10
10
10
10
10
10
10
10
10
10
10
10
10
10
10
10
10
10
10
10
10
10
10
10
10
10
10
10
10
10
10
10
10
10
10
10
10
10
10
10
10
10
10
10
10
10
10
10
10
10
10
10
10
10
10
10
10
10
10
10
10
10
10
10
10
10
10
10
10
10
10
10
10
10
10
10
10
10
10
10
10
10
10
10
10
10
10
10
10
10
10
10
10
10
10
10
10
10
10
10
10
10
10
10
10
10
10
10
10
10
10
10
10
10
10
10
10
10
10
10
10
10
10
10
10
10
10
10
10
10
10
10
10
10
10
10
10
10
10
10
10
10
10
10
10
10
10
10
10
10
10
10
10
10
10
10
10
10
10
10
10
10
10
10
10
10
10
10
10
10
10
10
10
10
10
10
10
10
10
10
10
10
10
10
10
10
10
10
10
10
10
10
10
10
10
10
10
10
10
10
10
10
10
10
10
10
10
10
10
10
10
10
10
10
10
10
10
10
10
10
10
10
10
10
10
10
10
10
10
10
10
10
10
10
10
10
10
10
10
10
10
10
10
10
10
10
10
10
10
10
10
10
10
10
10
10
10
10
10
10
10
10
10
10
10
10
10
10
10
10
10
10
10
10
10
10
10
10
10
10
10
10
10
10
10
10
10
10
10
10
10
10
10
10
10
10
10
10
10
10
10
10
10
10
10
10
10
10
10
10
10
10
10
10
10
10
10
10
10
10
10
10
10
10
10
10
10
10
10
10
10
10
10
10
10
10
10
10
10
10
10
10
10
10
10
10
10
10
10
10
10
10
10
10
10
10
10
10
10
10
10
10
10
10
10
10
10
10
10
10
10
10
10
10
10
10
10
10
10
10
10
10
10
10
10
10
10
10
10
10
10
10
10
10
10
10
10
10
10
10
10
10
10
10
10
10
10
10
10
10
10
10
10
10
10
10
10
10
10
10
10
10
10
10
10
10
10
10
10
10
10
10
10
10
10
10
10
10
10
10
10
10
10
10
10
10
10
10
10
10
10
10
10
10
10
10
10
10
10
10
10
10
10
10
10
10
10
10
10
10
10
10
10
10
10
10
10
10
10
10
10
10
10
10
10
10
10
10
10
10
10
10
10
10
10
10
10
10
10
10
10
10
10
10
10
10
10
10
10
10
10
10
10
10
10
10
10
10
10
10
10
10
10
10
10
10
10
10
10
10
10
10
10
10
10
10
10
10
10
10
10
10
10
10
10
10
10
10
10
10
10
10
10
10
10
10
10
10
10
10
10
10
10
10
10
10
10
10
10
10
10
10
10
10
10
10
10
10
10
10
10
10
10
10
10
10
10
10
10
10
10
10
10
10
10
10
10
10
10
10
10
10
10
10
10
10
10
10
10
10
10
10
10
10
10
10
10
10
10
10
10
10
10
10
10
10
10
10
10
10
10
10
10
10
10
10
10
10
10
10
10
10
10
10
10
10
10
10
10
10
10
10
10
10
10
10
10
10
10
10
10
10
10
10
10
10
10
10
10
10
10
10
10
10
10
10
10
10
10
10
10
10
10
10
10
10
10
10
10
10
10
10
10
10
10
10
10
10
10
10
10
10
10
10
10
10
10
10
10
10
10
10
10
10
10
10
10
10
10
10
10
10
10
10
10
10
10
10
10
10
10
10
10
10
10
10
10
10
10
10
10
10
10
10
10
10
10
10
10
10
10
10
10
10
10
10
10
10
10
10
10
10
10
10
10
10
10
10
10
10
10
10
10
10
10
10
10
10
10
10
10
10
10
10
10
10
10
10
10
10
10
10
10
10
10
10
10
10
10
10
10
10
10
10
10
10
10
10
10
10
10
10
10
10
10
10
10
10
10
10
10
10
10
10
10
10
10
10
10
10
10
10
10
10
10
10
10
10
10
10
10
10
10
10
10
10
10
10
10
10
10
10
10
10
10
10
10
10
10
10
10
10
10
10
10
10
10
10
10
10
10
10
10
10
10
10
10
10
10
10
10
10
10
10
10
10
10
10
10
10
10
10
10
10
10
10
10
10
10
10
10
10
10
10
10
10
10
10
10
10
10
10
10
10
10
10
10
10
10
10
10
10
10
10
10
10
10
10
10
10
10
10
10
10
10
10
10
10
10
10
10
10
10
10
10
10
10
10
10
10
10
10
10
10
10
10
10
10
10
10
10
10
10
10
10
10
10
10
10
10
10
10
10
10
10
10
10
10
10
10
10
10
10
10
10
10
10
10
10
10
10
10
10
10
10
10
10
10
10
10
10
10
10
10
10
10
10
10
10
10
10
10
10
10
10
10
10
10
10
10
10
10
10
10
10
10
10
10
10
10
10
10
10
10
10
10
10
10
10
10
10
10
10
10
10
10
10
10
10
10
10
10
10
10
10
10
10
10
10
10
10
10
10
10
10
10
10
10
10
10
10
10
10
10
10
10
10
10
10
10
10
10
10
10
10
10
10
10
10
10
10
10
10
10
10
10
10
10
10
10
10
10
10
10
10
10
10
10
10
10
10
10
10
10
10
10
10
10
10
10
10
10
10
10
10
10
10
10
10
10
10
10
10
10
10
10
10
10
10
10
10
10
10
10
10
10
10
10
10
10
10
10
10
10
10
10
10
10
10
10
10
10
10
10
10
10
10
10
10
10
10
10
10
10
10
10
10
10
10
10
10
10
10
10
10
10
10
10
10
10
10
10
10
10
10
10
10
10
10
10
10
10
10
10
10
10
10
10
10
10
10
10
10
10
10
10
10
10
10
10
10
10
10
10
10
10
10
10
10
10
10
10
10
10
10
10
10
10
10
10
10
10
10
10
10
10
10
10
10
10
10
10
10
10
10
10
10
10
10
10
10
10
10
10
10
10
10
10
10
10
10
10
10
10
10
10
10
10
10
10
10
10
10
10
10
10
10
10
10
10
10
10
10
10
10
10
10
10
10
10
10
10
10
10
10
10
10
10
10
10
10
10
10
10
10
10
10
10
10
10
10
10
10
10
10
10
10
10
10
10
10
10
10
10
10
10
10
10
10
10
10
10
10
10
10
10
10
10
10
10
10
10
10
10
10
10
10
10
10
10
10
10
10
10
10
10
10
10
10
10
10
10
10
10
10
10
10
10
10
10
10
10
10
10
10
10
10
10
10
10
10
10
10
10
10
10
10
10
10
10
10
10
10
10
10
10
10
10
10
10
10
10
10
10
10
10
10
10
10
10
10
10
10
10
10
10
10
10
10
10
10
10
10
10
10
10
10
10
10
10
10
10
10
10
10
10
10
10
10
10
10
10
10
10
10
10
10
10
10
10
10
10
10
10
10
10
10
10
10
10
10
10
10
10
10
10
10
10
10
10
10
10
10
10
10
10
10
10
10
10
10
10
10
10
10
10
10
10
10
10
10
10
10
10
10
10
10
10
10
10
10
10
10
10
10
10
10
10
10
10
10
10
10
10
10
10
10
10
10
10
10
10
10
10
10
10
10
10
10
10
10
10
10
10
10
10
10
10
10
10
10
10
10
10
10
10
10
10
10
10
10
10
10
10
10
10
10
10
10
10
10
10
10
10
10
10
10
10
10
10
10
10
10
10
10
10
10
10
10
10
10
10
10
10
10
10
10
10
10
10
10
10
10
10
10
10
10
10
10
10
10
10
10
10
10
10
10
10
10
10
10
10
10
10
10
10
10
10
10
10
10
10
10
10
10
10
10
10
10
10
10
10
10
10
10
10
10
10
10
10
10
10
10
10
10
10
10
10
10
10
10
10
10
10
10
10
10
10
10
10
10
10
10
10
10
10
10
10
10
10
10
10
10
10
10
10
10
10
10
10
10
10
10
10
10
10
10
10
10
10
10
10
10
10
10
10
10
10
10
10
10
10
10
10
10
10
10
10
10
10
10
10
10
10
10
10
10
10
10
10
10
10
10
10
10
10
10
10
10
10
10
10
10
10
10
10
10
10
10
10
10
10
10
10
10
10
10
10
10
10
10
10
10
10
10
10
10
10
10
10
10
10
10
10
10
10
10
10
10
10
10
10
10
10
10
10
10
10
10
10
10
10
10
10
10
10
10
10
10
10
10
10
10
10
10
10
10
10
10
10
10
10
10
10
10
10
10
10
10
10
10
10
10
10
10
10
10
10
10
10
10
10
10
10
10
10
10
10
10
10
10
10
10
10
10
10
10
10
10
10
10
10
10
10
10
10
10
10
10
10
10
10
10
10
10
10
10
10
10
10
10
10
10
10
10
10
10
10
10
10
10
10
10
10
10
10
10
10
10
10
10
10
10
10
10
10
10
10
10
10
10
10
10
10
10
10
10
10
10
10
10
10
10
10
10
10
10
10
10
10
10
10
10
10
10
10
10
10
10
10
10
10
10
10
10
10
10
10
10
10
10
10
10
10
10
10
10
10
10
10
10
10
10
10
10
10
10
10
10
10
10
10
10
10
10
10
10
10
10
10
10
10
10
10
10
10
10
10
10
10
10
10
10
10
10
10
10
10
10
10
10
10
10
10
10
10
10
10
10
10
10
10
10
10
10
10
10
10
10
10
10
10
10
10
10
10
10
10
10
10
10
10
10
10
10
10
10
10
10
10
10
10
10
10
10
10
10
10
10
10
10
10
10
10
10
10
10
10
10
10
10
10
10
10
10
10
10
10
10
10
10
10
10
10
10
10
10
10
10
10
10
10
10
10
10
10
10
10
10
10
10
10
10
10
10
10
10
10
10
10
10
10
10
10
10
10
10
10
10
10
10
10
10
10
10
10
10
10
10
10
10
10
10
10
10
10
10
10
10
10
10
10
10
10
10
10
10
10
10
10
10
10
10
10
10
10
10
10
10
10
10
10
10
10
10
10
10
10
10
10
10
10
10
10
10
10
10
10
10
10
10
10
10
10
10
10
10
10
10
10
10
10
10
10
10
10
10
10
10
10
10
10
10
10
10
10
10
10
10
10
10
10
10
10
10
10
10
10
10
10
10
10
10
10
10
10
10
10
10
10
10
10
10
10
10
10
10
10
10
10
10
10
10
10
10
10
10
10
10
10
10
10
10
10
10
10
10
10
10
10
10
10
10
10
10
10
10
10
10
10
10
10
10
10
10
10
10
10
10
10
10
10
10
10
10
10
10
10
10
10
10
10
10
10
10
10
10
10
10
10
10
10
10
10
10
10
10
10
10
10
10
10
10
10
10
10
10
10
10
10
10
10
10
10
10
10
10
10
10
10
10
10
10
10
10
10
10
10
10
10
10
10
10
10
10
10
10
10
10
10
10
10
10
10
10
10
10
10
10
10
10
10
10
10
10
10
10
10
10
10
10
10
10
10
10
10
10
10
10
10
10
10
10
10
10
10
10
10
10
10
10
10
10
10
10
10
10
10
10
10
10
10
10
10
10
10
10
10
10
10
10
10
10
10
10
10
10
10
10
10
10
10
10
10
10
10
10
10
10
10
10
10
10
10
10
10
10
10
10
10
10
10
10
10
10
10
10
10
10
10
10
10
10
10
10
10
10
10
10
10
10
10
10
10
10
10
10
10
10
10
10
10
10
10
10
10
10
10
10
10
10
10
10
10
10
10
10
10
10
10
10
10
10
10
10
10
10
10
10
10
10
10
10
10
10
10
10
10
10
10
10
10
10
10
10
10
10
10
10
10
10
10
10
10
10
10
10
10
10
10
10
10
10
10
10
10
10
10
10
10
10
10
10
10
10
10
10
10
10
10
10
10
10
10
10
10
10
10
10
10
10
10
10
10
10
10
10
10
10
10
10
10
10
10
10
10
10
10
10
10
10
10
10
10
10
10
10
10
10
10
10
10
10
10
10
10
10
10
10
10
10
10
10
10
10
10
10
10
10
10
10
10
10
10
10
10
10
10
10
10
10
10
10
10
10
10
10
10
10
10
10
10
10
10
10
10
10
10
10
10
10
10
10
10
10
10
10
10
10
10
10
10
10
10
10
10
10
10
10
10
10
10
10
10
10
10
10
10
10
10
10
10
10
10
10
10
10
10
10
10
10
10
10
10
10
10
10
10
10
10
10
10
10
10
10
10
10
10
10
10
10
10
10
10
10
10
10
10
10
10
10
10
10
10
10
10
10
10
10
10
10
10
10
10
10
10
10
10
10
10
10
10
10
10
10
10
10
10
10
10
10
10
10
10
10
10
10
10
10
10
10
10
10
10
10
10
10
10
10
10
10
10
10
10
10
10
10
10
10
10
10
10
10
10
10
10
10
10
10
10
10
10
10
10
10
10
10
10
10
10
10
10
10
10
10
10
10
10
10
10
10
10
10
10
10
10
10
10
10
10
10
10
10
10
10
10
10
10
10
10
10
10
10
10
10
10
10
10
10
10
10
10
10
10
10
10
10
10
10
10
10
10
10
10
10
10
10
10
10
10
10
10
10
10
10
10
10
10
10
10
10
10
10
10
10
10
10
10
10
10
10
10
10
10
10
10
10
10
10
10
10
10
10
10
10
10
10
10
10
10
10
10
10
10
10
10
10
10
10
10
10
10
10
10
10
10
10
10
10
10
10
10
10
10
10
10
10
10
10
10
10
10
10
10
10
10
10
10
10
10
10
10
10
10
10
10
10
10
10
10
10
10
10
10
10
10
10
10
10
10
10
10
10
10
10
10
10
10
10
10
10
10
10
10
10
10
10
10
10
10
10
10
10
10
10
10
10
10
10
10
10
10
10
10
10
10
10
10
10
10
10
10
10
10
10
10
10
10
10
10
10
10
10
10
10
10
10
10
10
10
10
10
10
10
10
10
10
10
10
10
10
10
10
10
10
10
10
10
10
10
10
10
10
10
10
10
10
10
10
10
10
10
10
10
10
10
10
10
10
10
10
10
10
10
10
10
10
10
10
10
10
10
10
10
10
10
10
10
10
10
10
10
10
10
10
10
10
10
10
10
10
10
10
10
10
10
10
10
10
10
10
10
10
10
10
10
10
10
10
10
10
10
10
10
10
10
10
10
10
10
10
10
10
10
10
10
10
10
10
10
10
10
10
10
10
10
10
10
10
10
10
10
10
10
10
10
10
10
10
10
10
10
10
10
10
10
10
10
10
10
10
10
10
10
10
10
10
10
10
10
10
10
10
10
10
10
10
10
10
10
10
10
10
10
10
10
10
10
10
10
10
10
10
10
10
10
10
10
10
10
10
10
10
10
10
10
10
10
10
10
10
10
10
10
10
10
10
10
10
10
10
10
10
10
10
10
10
10
10
10
10
10
10
10
10
10
10
10
10
10
10
10
10
10
10
10
10
10
10
10
10
10
10
10
10
10
10
10
10
10
10
10
10
10
10
10
10
10
10
10
10
10
10
10
10
10
10
10
10
10
10
10
10
10
10
10
10
10
10
10
10
10
10
10
10
10
10
10
10
10
10
10
10
10
10
10
10
10
10
10
10
10
10
10
10
10
10
10
10
10
10
10
10
10
10
10
10
10
10
10
10
10
10
10
10
10
10
10
10
10
10
10
10
10
10
10
10
10
10
10
10
10
10
10
10
10
10
10
10
10
10
10
10
10
10
10
10
10
10
10
10
10
10
10
10
10
10
10
10
10
10
10
10
10
10
10
10
10
10
10
10
10
10
10
10
10
10
10
10
10
10
10
10
10
10
10
10
10
10
10
10
10
10
10
10
10
10
10
10
10
10
10
10
10
10
10
10
10
10
10
10
10
10
10
10
10
10
10
10
10
10
10
10
10
10
10
10
10
10
10
10
10
10
10
10
10
10
10
10
10
10
10
10
10
10
10
10
10
10
10
10
10
10
10
10
10
10
10
10
10
10
10
10
10
10
10
10
10
10
10
10
10
10
10
10
10
10
10
10
10
10
10
10
10
10
10
10
10
10
10
10
10
10
10
10
10
10
10
10
10
10
10
10
10
10
10
10
10
10
10
10
10
10
10
10
10
10
10
10
10
10
10
10
10
10
10
10
10
10
10
10
10
10
10
10
10
10
10
10
10
10
10
10
10
10
10
10
10
10
10
10
10
10
10
10
10
10
10
10
10
10
10
10
10
10
10
10
10
10
10
10
10
10
10
10
10
10
10
10
10
10
10
10
10
10
10
10
10
10
10
10
10
10
10
10
10
10
10
10
10
10
10
10
10
10
10
10
10
10
10
10
10
10
10
10
10
10
10
10
10
10
10
10
10
10
10
10
10
10
10
10
10
10
10
10
10
10
10
10
10
10
10
10
10
10
10
10
10
10
10
10
10
10
10
10
10
10
10
10
10
10
10
10
10
10
10
10
10
10
10
10
10
10
10
10
10
10
10
10
10
10
10
10
10
10
10
10
10
10
10
10
10
10
10
10
10
10
10
10
10
10
10
10
10
10
10
10
10
10
10
10
10
10
10
10
10
10
10
10
10
10
10
10
10
10
10
10
10
10
10
10
10
10
10
10
10
10
10
10
10
10
10
10
10
10
10
10
10
10
10
10
10
10
10
10
10
10
10
10
10
10
10
10
10
10
10
10
10
10
10
10
10
10
10
10
10
10
10
10
10
10
10
10
10
10
10
10
10
10
10
10
10
10
10
10
10
10
10
CELL_DATA 5402
POINT_DATA 21608
SCALARS Pressure float 
LOOKUP_TABLE default
9.78277 9.78277 9.78277 9.78277 9.80671 9.80671 9.80671 9.80671 9.90804 9.90804 9.90804 9.90804 9.91075 9.91075 9.91075 9.91075 9.87445 9.87445 9.87445 9.87445 9.49576 9.49576 9.49576 9.49576 10.7153 10.7153 10.7153 10.7153 9.746 9.746 9.746 9.746 10.2513 10.2513 10.2513 10.2513 9.86959 9.86959 9.86959 9.86959 10.0046 10.0046 10.0046 10.0046 9.89097 9.89097 9.89097 9.89097 9.88069 9.88069 9.88069 9.88069 9.84113 9.84113 9.84113 9.84113 9.76428 9.76428 9.76428 9.76428 9.87494 9.87494 9.87494 9.87494 9.87839 9.87839 9.87839 9.87839 8.64188 8.64188 8.64188 8.64188 9.78849 9.78849 9.78849 9.78849 9.50531 9.50531 9.50531 9.50531 9.80505 9.80505 9.80505 9.80505 9.77503 9.77503 9.77503 9.77503 9.76908 9.76908 9.76908 9.76908 9.83949 9.83949 9.83949 9.83949 9.82494 9.82494 9.82494 9.82494 10.7876 10.7876 10.7876 10.7876 9.88165 9.88165 9.88165 9.88165 9.56063 9.56063 9.56063 9.56063 9.65633 9.65633 9.65633 9.65633 9.81377 9.81377 9.81377 9.81377 9.80471 9.80471 9.80471 9.80471 8.18825 8.18825 8.18825 8.18825 9.83629 9.83629 9.83629 9.83629 9.87693 9.87693 9.87693 9.87693 9.78964 9.78964 9.78964 9.78964 10.068 10.068 10.068 10.068 9.85058 9.85058 9.85058 9.85058 9.88526 9.88526 9.88526 9.88526 9.78721 9.78721 9.78721 9.78721 9.82746 9.82746 9.82746 9.82746 10.1581 10.1581 10.1581 10.1581 9.76594 9.76594 9.76594 9.76594 9.84513 9.84513 9.84513 9.84513 9.82801 9.82801 9.82801 9.82801 9.57227 9.57227 9.57227 9.57227 9.75597 9.75597 9.75597 9.75597 9.58146 9.58146 9.58146 9.58146 9.82394 9.82394 9.82394 9.82394 9.85339 9.85339 9.85339 9.85339 9.92505 9.92505 9.92505 9.92505 9.81732 9.81732 9.81732 9.81732 9.86313 9.86313 9.86313 9.86313 9.90285 9.90285 9.90285 9.90285 9.90372 9.90372 9.90372 9.90372 11.7092 11.7092 11.7092 11.7092 10.3099 10.3099 10.3099 10.3099 9.87301 9.87301 9.87301 9.87301 10.1628 10.1628 10.1628 10.1628 9.97662 9.97662 9.97662 9.97662 9.76513 9.76513 9.76513 9.76513 9.8558 9.8558 9.8558 9.8558 10.0271 10.0271 10.0271 10.0271 9.81326 9.81326 9.81326 9.81326 9.77313 9.77313 9.77313 9.77313 9.86844 9.86844 9.86844 9.86844 9.92555 9.92555 9.92555 9.92555 8.76233 8.76233 8.76233 8.76233 7.90576 7.90576 7.90576 7.90576 10.3658 10.3658 10.3658 10.3658 9.93398 9.93398 9.93398 9.93398 9.64654 9.64654 9.64654 9.64654 9.78629 9.78629 9.78629 9.78629 9.87309 9.87309 9.87309 9.87309 9.79075 9.79075 9.79075 9.79075 10.1835 10.1835 10.1835 10.1835 10.3207 10.3207 10.3207 10.3207 9.86078 9.86078 9.86078 9.86078 9.93697 9.93697 9.93697 9.93697 9.80009 9.80009 9.80009 9.80009 9.86906 9.86906 9.86906 9.86906 3.70493 3.70493 3.70493 3.70493 9.95506 9.95506 9.95506 9.95506 9.77919 9.77919 9.77919 9.77919 9.88319 9.88319 9.88319 9.88319 9.83285 9.83285 9.83285 9.83285 9.71262 9.71262 9.71262 9.71262 9.82367 9.82367 9.82367 9.82367 9.87588 9.87588 9.87588 9.87588 9.70303 9.70303 9.70303 9.70303 10.2965 10.2965 10.2965 10.2965 9.76282 9.76282 9.76282 9.76282 9.87165 9.87165 9.87165 9.87165 9.47577 9.47577 9.47577 9.47577 9.89855 9.89855 9.89855 9.89855 9.80916 9.80916 9.80916 9.80916 9.97234 9.97234 9.97234 9.97234 9.86462 9.86462 9.86462 9.86462 9.74145 9.74145 9.74145 9.74145 9.88764 9.88764 9.88764 9.88764 9.82089 9.82089 9.82089 9.82089 9.69168 9.69168 9.69168 9.69168 9.80952 9.80952 9.80952 9.80952 9.7997 9.7997 9.7997 9.7997 9.59386 9.59386 9.59386 9.59386 11.9221 11.9221 11.9221 11.9221 10.0905 10.0905 10.0905 10.0905 11.7137 11.7137 11.7137 11.7137 9.85114 9.85114 9.85114 9.85114 9.81151 9.81151 9.81151 9.81151 9.22864 9.22864 9.22864 9.22864 9.84324 9.84324 9.84324 9.84324 5.78757 5.78757 5.78757 5.78757 9.94834 9.94834 9.94834 9.94834 4.25024 4.25024 4.25024 4.25024 9.56285 9.56285 9.56285 9.56285 10.0521 10.0521 10.0521 10.0521 11.338 11.338 11.338 11.338 8.49568 8.49568 8.49568 8.49568 9.82724 9.82724 9.82724 9.82724 10.0229 10.0229 10.0229 10.0229 9.81803 9.81803 9.81803 9.81803 9.8153 9.8153 9.8153 9.8153 9.7627 9.7627 9.7627 9.7627 9.75502 9.75502 9.75502 9.75502 9.78962 9.78962 9.78962 9.78962 9.84696 9.84696 9.84696 9.84696 9.8856 9.8856 9.8856 9.8856 9.91614 9.91614 9.91614 9.91614 10.0469 10.0469 10.0469 10.0469 7.95173 7.95173 7.95173 7.95173 7.92208 7.92208 7.92208 7.92208 9.80215 9.80215 9.80215 9.80215 9.72856 9.72856 9.72856 9.72856 9.86823 9.86823 9.86823 9.86823 9.72943 9.72943 9.72943 9.72943 9.83423 9.83423 9.83423 9.83423 9.91158 9.91158 9.91158 9.91158 9.77143 9.77143 9.77143 9.77143 9.89873 9.89873 9.89873 9.89873 9.8453 9.8453 9.8453 9.8453 9.93967 9.93967 9.93967 9.93967 9.88568 9.88568 9.88568 9.88568 11.3064 11.3064 11.3064 11.3064 9.18173 9.18173 9.18173 9.18173 10.3014 10.3014 10.3014 10.3014 9.82168 9.82168 9.82168 9.82168 9.60906 9.60906 9.60906 9.60906 9.91106 9.91106 9.91106 9.91106 9.96565 9.96565 9.96565 9.96565 9.89932 9.89932 9.89932 9.89932 9.86981 9.86981 9.86981 9.86981 9.9095 9.9095 9.9095 9.9095 9.96602 9.96602 9.96602 9.96602 9.89468 9.89468 9.89468 9.89468 9.75306 9.75306 9.75306 9.75306 9.85637 9.85637 9.85637 9.85637 9.97102 9.97102 9.97102 9.97102 9.88343 9.88343 9.88343 9.88343 5.38549 5.38549 5.38549 5.38549 10.0828 10.0828 10.0828 10.0828 9.83666 9.83666 9.83666 9.83666 9.89078 9.89078 9.89078 9.89078 9.76368 9.76368 9.76368 9.76368 9.97651 9.97651 9.97651 9.97651 9.8812 9.8812 9.8812 9.8812 9.92229 9.92229 9.92229 9.92229 9.85986 9.85986 9.85986 9.85986 9.69088 9.69088 9.69088 9.69088 9.81116 9.81116 9.81116 9.81116 8.60905 8.60905 8.60905 8.60905 8.96234 8.96234 8.96234 8.96234 9.8652 9.8652 9.8652 9.8652 9.61138 9.61138 9.61138 9.61138 9.74584 9.74584 9.74584 9.74584 9.3255 9.3255 9.3255 9.3255 8.04284 8.04284 8.04284 8.04284 10.6441 10.6441 10.6441 10.6441 10.2719 10.2719 10.2719 10.2719 9.84933 9.84933 9.84933 9.84933 9.9314 9.9314 9.9314 9.9314 9.6544 9.6544 9.6544 9.6544 9.8056 9.8056 9.8056 9.8056 9.91253 9.91253 9.91253 9.91253 9.45466 9.45466 9.45466 9.45466 8.73639 8.73639 8.73639 8.73639 12.1622 12.1622 12.1622 12.1622 9.95278 9.95278 9.95278 9.95278 9.86827 9.86827 9.86827 9.86827 10.5173 10.5173 10.5173 10.5173 9.89022 9.89022 9.89022 9.89022 9.85746 9.85746 9.85746 9.85746 10.3867 10.3867 10.3867 10.3867 9.80136 9.80136 9.80136 9.80136 9.77637 9.77637 9.77637 9.77637 9.79913 9.79913 9.79913 9.79913 9.87828 9.87828 9.87828 9.87828 9.80666 9.80666 9.80666 9.80666 9.85303 9.85303 9.85303 9.85303 9.84508 9.84508 9.84508 9.84508 10.2621 10.2621 10.2621 10.2621 9.81399 9.81399 9.81399 9.81399 9.8965 9.8965 9.8965 9.8965 11.7554 11.7554 11.7554 11.7554 9.92534 9.92534 9.92534 9.92534 10.1436 10.1436 10.1436 10.1436 10.0099 10.0099 10.0099 10.0099 8.71658 8.71658 8.71658 8.71658 9.83253 9.83253 9.83253 9.83253 9.57861 9.57861 9.57861 9.57861 9.80061 9.80061 9.80061 9.80061 10.5626 10.5626 10.5626 10.5626 9.15686 9.15686 9.15686 9.15686 3.68259 3.68259 3.68259 3.68259 9.87416 9.87416 9.87416 9.87416 9.89683 9.89683 9.89683 9.89683 9.52327 9.52327 9.52327 9.52327 10.6249 10.6249 10.6249 10.6249 9.86687 9.86687 9.86687 9.86687 10.6505 10.6505 10.6505 10.6505 9.90341 9.90341 9.90341 9.90341 9.50272 9.50272 9.50272 9.50272 9.33663 9.33663 9.33663 9.33663 9.65966 9.65966 9.65966 9.65966 9.76656 9.76656 9.76656 9.76656 9.78553 9.78553 9.78553 9.78553 9.79325 9.79325 9.79325 9.79325 8.51862 8.51862 8.51862 8.51862 9.8388 9.8388 9.8388 9.8388 9.92714 9.92714 9.92714 9.92714 10.4095 10.4095 10.4095 10.4095 9.84754 9.84754 9.84754 9.84754 9.70616 9.70616 9.70616 9.70616 9.70493 9.70493 9.70493 9.70493 9.89709 9.89709 9.89709 9.89709 9.7007 9.7007 9.7007 9.7007 9.69945 9.69945 9.69945 9.69945 9.92427 9.92427 9.92427 9.92427 9.78839 9.78839 9.78839 9.78839 9.8201 9.8201 9.8201 9.8201 5.09401 5.09401 5.09401 5.09401 9.80543 9.80543 9.80543 9.80543 13.4904 13.4904 13.4904 13.4904 9.89676 9.89676 9.89676 9.89676 9.45145 9.45145 9.45145 9.45145 8.98867 8.98867 8.98867 8.98867 9.81678 9.81678 9.81678 9.81678 9.8893 9.8893 9.8893 9.8893 7.25382 7.25382 7.25382 7.25382 9.78818 9.78818 9.78818 9.78818 9.88359 9.88359 9.88359 9.88359 10.3031 10.3031 10.3031 10.3031 9.97491 9.97491 9.97491 9.97491 9.91463 9.91463 9.91463 9.91463 10.3032 10.3032 10.3032 10.3032 9.78953 9.78953 9.78953 9.78953 9.72007 9.72007 9.72007 9.72007 9.59546 9.59546 9.59546 9.59546 10.1451 10.1451 10.1451 10.1451 9.63798 9.63798 9.63798 9.63798 9.91444 9.91444 9.91444 9.91444 9.84751 9.84751 9.84751 9.84751 9.91211 9.91211 9.91211 9.91211 9.91074 9.91074 9.91074 9.91074 9.86707 9.86707 9.86707 9.86707 9.74855 9.74855 9.74855 9.74855 9.53067 9.53067 9.53067 9.53067 9.78101 9.78101 9.78101 9.78101 10.2649 10.2649 10.2649 10.2649 9.03615 9.03615 9.03615 9.03615 9.851 9.851 9.851 9.851 9.80534 9.80534 9.80534 9.80534 9.35598 9.35598 9.35598 9.35598 9.7742 9.7742 9.7742 9.7742 9.79652 9.79652 9.79652 9.79652 9.88209 9.88209 9.88209 9.88209 9.56542 9.56542 9.56542 9.56542 9.82987 9.82987 9.82987 9.82987 9.77922 9.77922 9.77922 9.77922 9.90733 9.90733 9.90733 9.90733 9.79624 9.79624 9.79624 9.79624 9.30146 9.30146 9.30146 9.30146 10.0153 10.0153 10.0153 10.0153 9.78084 9.78084 9.78084 9.78084 9.6853 9.6853 9.6853 9.6853 9.43237 9.43237 9.43237 9.43237 7.93277 7.93277 7.93277 7.93277 9.62424 9.62424 9.62424 9.62424 10.0886 10.0886 10.0886 10.0886 9.87439 9.87439 9.87439 9.87439 9.77629 9.77629 9.77629 9.77629 10.6922 10.6922 10.6922 10.6922 9.73106 9.73106 9.73106 9.73106 9.83246 9.83246 9.83246 9.83246 10.579 10.579 10.579 10.579 9.74094 9.74094 9.74094 9.74094 9.96693 9.96693 9.96693 9.96693 9.9352 9.9352 9.9352 9.9352 9.89716 9.89716 9.89716 9.89716 10.2783 10.2783 10.2783 10.2783 10.1297 10.1297 10.1297 10.1297 9.5098 9.5098 9.5098 9.5098 7.50244 7.50244 7.50244 7.50244 9.77882 9.77882 9.77882 9.77882 9.33797 9.33797 9.33797 9.33797 9.90759 9.90759 9.90759 9.90759 9.88945 9.88945 9.88945 9.88945 8.49476 8.49476 8.49476 8.49476 9.78041 9.78041 9.78041 9.78041 10.218 10.218 10.218 10.218 8.58522 8.58522 8.58522 8.58522 9.49121 9.49121 9.49121 9.49121 9.9247 9.9247 9.9247 9.9247 5.17216 5.17216 5.17216 5.17216 5.22005 5.22005 5.22005 5.22005 10.069 10.069 10.069 10.069 9.39383 9.39383 9.39383 9.39383 9.87796 9.87796 9.87796 9.87796 12.1148 12.1148 12.1148 12.1148 8.72253 8.72253 8.72253 8.72253 9.8276 9.8276 9.8276 9.8276 9.95624 9.95624 9.95624 9.95624 9.83635 9.83635 9.83635 9.83635 9.96649 9.96649 9.96649 9.96649 9.87691 9.87691 9.87691 9.87691 9.80471 9.80471 9.80471 9.80471 9.8621 9.8621 9.8621 9.8621 9.76592 9.76592 9.76592 9.76592 10.387 10.387 10.387 10.387 10.2427 10.2427 10.2427 10.2427 9.95243 9.95243 9.95243 9.95243 9.58697 9.58697 9.58697 9.58697 9.86623 9.86623 9.86623 9.86623 9.91995 9.91995 9.91995 9.91995 7.12847 7.12847 7.12847 7.12847 9.90564 9.90564 9.90564 9.90564 8.42361 8.42361 8.42361 8.42361 9.81288 9.81288 9.81288 9.81288 9.92227 9.92227 9.92227 9.92227 9.84484 9.84484 9.84484 9.84484 9.87545 9.87545 9.87545 9.87545 9.9438 9.9438 9.9438 9.9438 9.88212 9.88212 9.88212 9.88212 9.85125 9.85125 9.85125 9.85125 9.93453 9.93453 9.93453 9.93453 9.87072 9.87072 9.87072 9.87072 9.96107 9.96107 9.96107 9.96107 9.75052 9.75052 9.75052 9.75052 9.98967 9.98967 9.98967 9.98967 9.78269 9.78269 9.78269 9.78269 9.88218 9.88218 9.88218 9.88218 10.291 10.291 10.291 10.291 13.2608 13.2608 13.2608 13.2608 9.74144 9.74144 9.74144 9.74144 9.93614 9.93614 9.93614 9.93614 9.82728 9.82728 9.82728 9.82728 9.94112 9.94112 9.94112 9.94112 9.89938 9.89938 9.89938 9.89938 9.8777 9.8777 9.8777 9.8777 9.81211 9.81211 9.81211 9.81211 9.82648 9.82648 9.82648 9.82648 9.83365 9.83365 9.83365 9.83365 9.68956 9.68956 9.68956 9.68956 9.90031 9.90031 9.90031 9.90031 9.86924 9.86924 9.86924 9.86924 9.85634 9.85634 9.85634 9.85634 9.9905 9.9905 9.9905 9.9905 10.1568 10.1568 10.1568 10.1568 9.87842 9.87842 9.87842 9.87842 9.77605 9.77605 9.77605 9.77605 9.92556 9.92556 9.92556 9.92556 10.0442 10.0442 10.0442 10.0442 9.82744 9.82744 9.82744 9.82744 9.91847 9.91847 9.91847 9.91847 9.83781 9.83781 9.83781 9.83781 8.64727 8.64727 8.64727 8.64727 9.83938 9.83938 9.83938 9.83938 9.84488 9.84488 9.84488 9.84488 9.84764 9.84764 9.84764 9.84764 10.0085 10.0085 10.0085 10.0085 9.84784 9.84784 9.84784 9.84784 9.85788 9.85788 9.85788 9.85788 9.90871 9.90871 9.90871 9.90871 9.40673 9.40673 9.40673 9.40673 9.7489 9.7489 9.7489 9.7489 9.95675 9.95675 9.95675 9.95675 6.80667 6.80667 6.80667 6.80667 8.47754 8.47754 8.47754 8.47754 9.89 9.89 9.89 9.89 5.11663 5.11663 5.11663 5.11663 8.22585 8.22585 8.22585 8.22585 9.95006 9.95006 9.95006 9.95006 9.15856 9.15856 9.15856 9.15856 9.89564 9.89564 9.89564 9.89564 9.80771 9.80771 9.80771 9.80771 9.71946 9.71946 9.71946 9.71946 9.97412 9.97412 9.97412 9.97412 9.86667 9.86667 9.86667 9.86667 9.84335 9.84335 9.84335 9.84335 10.169 10.169 10.169 10.169 9.95174 9.95174 9.95174 9.95174 9.76925 9.76925 9.76925 9.76925 9.82879 9.82879 9.82879 9.82879 9.89207 9.89207 9.89207 9.89207 9.91674 9.91674 9.91674 9.91674 9.85079 9.85079 9.85079 9.85079 8.3025 8.3025 8.3025 8.3025 9.90623 9.90623 9.90623 9.90623 9.84141 9.84141 9.84141 9.84141 9.93342 9.93342 9.93342 9.93342 9.62724 9.62724 9.62724 9.62724 9.76771 9.76771 9.76771 9.76771 9.75264 9.75264 9.75264 9.75264 9.98102 9.98102 9.98102 9.98102 10.4942 10.4942 10.4942 10.4942 9.82176 9.82176 9.82176 9.82176 9.89531 9.89531 9.89531 9.89531 9.72979 9.72979 9.72979 9.72979 6.61113 6.61113 6.61113 6.61113 9.84224 9.84224 9.84224 9.84224 9.84659 9.84659 9.84659 9.84659 11.0543 11.0543 11.0543 11.0543 9.92718 9.92718 9.92718 9.92718 9.80066 9.80066 9.80066 9.80066 9.96989 9.96989 9.96989 9.96989 9.6796 9.6796 9.6796 9.6796 11.0985 11.0985 11.0985 11.0985 9.3605 9.3605 9.3605 9.3605 9.92123 9.92123 9.92123 9.92123 9.90913 9.90913 9.90913 9.90913 11.197 11.197 11.197 11.197 9.81219 9.81219 9.81219 9.81219 9.9006 9.9006 9.9006 9.9006 10.245 10.245 10.245 10.245 9.93748 9.93748 9.93748 9.93748 9.94676 9.94676 9.94676 9.94676 9.47819 9.47819 9.47819 9.47819 9.90181 9.90181 9.90181 9.90181 9.88947 9.88947 9.88947 9.88947 9.86285 9.86285 9.86285 9.86285 9.83699 9.83699 9.83699 9.83699 9.91176 9.91176 9.91176 9.91176 9.97421 9.97421 9.97421 9.97421 9.91271 9.91271 9.91271 9.91271 9.93303 9.93303 9.93303 9.93303 9.7763 9.7763 9.7763 9.7763 9.81124 9.81124 9.81124 9.81124 9.52748 9.52748 9.52748 9.52748 9.88399 9.88399 9.88399 9.88399 9.81525 9.81525 9.81525 9.81525 9.89549 9.89549 9.89549 9.89549 9.92753 9.92753 9.92753 9.92753 9.6776 9.6776 9.6776 9.6776 9.77857 9.77857 9.77857 9.77857 9.80798 9.80798 9.80798 9.80798 9.98681 9.98681 9.98681 9.98681 9.81715 9.81715 9.81715 9.81715 9.73197 9.73197 9.73197 9.73197 10.4784 10.4784 10.4784 10.4784 9.88443 9.88443 9.88443 9.88443 9.48068 9.48068 9.48068 9.48068 9.60834 9.60834 9.60834 9.60834 9.92752 9.92752 9.92752 9.92752 9.95411 9.95411 9.95411 9.95411 9.86426 9.86426 9.86426 9.86426 9.53944 9.53944 9.53944 9.53944 9.92146 9.92146 9.92146 9.92146 9.9221 9.9221 9.9221 9.9221 9.83347 9.83347 9.83347 9.83347 9.83047 9.83047 9.83047 9.83047 9.85892 9.85892 9.85892 9.85892 9.73075 9.73075 9.73075 9.73075 9.836 9.836 9.836 9.836 9.7115 9.7115 9.7115 9.7115 9.92515 9.92515 9.92515 9.92515 9.31068 9.31068 9.31068 9.31068 9.6052 9.6052 9.6052 9.6052 9.829 9.829 9.829 9.829 10.0228 10.0228 10.0228 10.0228 9.89116 9.89116 9.89116 9.89116 10.4287 10.4287 10.4287 10.4287 9.81159 9.81159 9.81159 9.81159 9.97319 9.97319 9.97319 9.97319 9.67799 9.67799 9.67799 9.67799 9.88568 9.88568 9.88568 9.88568 9.87462 9.87462 9.87462 9.87462 9.73115 9.73115 9.73115 9.73115 9.80165 9.80165 9.80165 9.80165 7.50682 7.50682 7.50682 7.50682 9.8172 9.8172 9.8172 9.8172 9.89511 9.89511 9.89511 9.89511 9.84955 9.84955 9.84955 9.84955 3.26481 3.26481 3.26481 3.26481 7.24346 7.24346 7.24346 7.24346 9.58458 9.58458 9.58458 9.58458 9.40712 9.40712 9.40712 9.40712 9.65875 9.65875 9.65875 9.65875 9.91554 9.91554 9.91554 9.91554 10.0828 10.0828 10.0828 10.0828 9.84478 9.84478 9.84478 9.84478 9.92611 9.92611 9.92611 9.92611 9.50981 9.50981 9.50981 9.50981 9.79787 9.79787 9.79787 9.79787 9.6511 9.6511 9.6511 9.6511 9.89599 9.89599 9.89599 9.89599 11.6239 11.6239 11.6239 11.6239 9.73937 9.73937 9.73937 9.73937 9.25448 9.25448 9.25448 9.25448 9.85161 9.85161 9.85161 9.85161 9.84605 9.84605 9.84605 9.84605 9.89071 9.89071 9.89071 9.89071 9.79117 9.79117 9.79117 9.79117 9.95061 9.95061 9.95061 9.95061 9.75651 9.75651 9.75651 9.75651 10.5399 10.5399 10.5399 10.5399 9.56381 9.56381 9.56381 9.56381 9.86332 9.86332 9.86332 9.86332 9.84695 9.84695 9.84695 9.84695 9.79595 9.79595 9.79595 9.79595 10.0281 10.0281 10.0281 10.0281 9.85657 9.85657 9.85657 9.85657 9.86124 9.86124 9.86124 9.86124 9.82718 9.82718 9.82718 9.82718 9.77105 9.77105 9.77105 9.77105 9.88991 9.88991 9.88991 9.88991 9.95388 9.95388 9.95388 9.95388 9.99637 9.99637 9.99637 9.99637 9.75845 9.75845 9.75845 9.75845 9.86685 9.86685 9.86685 9.86685 9.83958 9.83958 9.83958 9.83958 9.95326 9.95326 9.95326 9.95326 9.89794 9.89794 9.89794 9.89794 9.76596 9.76596 9.76596 9.76596 9.90212 9.90212 9.90212 9.90212 9.68509 9.68509 9.68509 9.68509 9.8514 9.8514 9.8514 9.8514 9.75281 9.75281 9.75281 9.75281 9.80394 9.80394 9.80394 9.80394 9.85537 9.85537 9.85537 9.85537 9.83866 9.83866 9.83866 9.83866 9.79981 9.79981 9.79981 9.79981 9.94525 9.94525 9.94525 9.94525 14.4665 14.4665 14.4665 14.4665 10.3213 10.3213 10.3213 10.3213 9.81166 9.81166 9.81166 9.81166 9.99574 9.99574 9.99574 9.99574 9.84111 9.84111 9.84111 9.84111 9.95237 9.95237 9.95237 9.95237 9.82189 9.82189 9.82189 9.82189 9.85428 9.85428 9.85428 9.85428 9.91975 9.91975 9.91975 9.91975 10.1234 10.1234 10.1234 10.1234 9.95983 9.95983 9.95983 9.95983 9.89485 9.89485 9.89485 9.89485 9.85206 9.85206 9.85206 9.85206 9.84919 9.84919 9.84919 9.84919 9.73801 9.73801 9.73801 9.73801 9.84475 9.84475 9.84475 9.84475 9.86461 9.86461 9.86461 9.86461 10.018 10.018 10.018 10.018 9.87662 9.87662 9.87662 9.87662 9.86271 9.86271 9.86271 9.86271 9.85644 9.85644 9.85644 9.85644 9.74828 9.74828 9.74828 9.74828 9.9782 9.9782 9.9782 9.9782 9.75745 9.75745 9.75745 9.75745 9.8434 9.8434 9.8434 9.8434 9.79827 9.79827 9.79827 9.79827 9.75022 9.75022 9.75022 9.75022 9.8754 9.8754 9.8754 9.8754 9.8423 9.8423 9.8423 9.8423 9.85275 9.85275 9.85275 9.85275 13.1183 13.1183 13.1183 13.1183 9.91753 9.91753 9.91753 9.91753 10.4253 10.4253 10.4253 10.4253 9.9143 9.9143 9.9143 9.9143 9.85649 9.85649 9.85649 9.85649 4.08108 4.08108 4.08108 4.08108 9.84571 9.84571 9.84571 9.84571 9.8656 9.8656 9.8656 9.8656 9.85814 9.85814 9.85814 9.85814 9.74447 9.74447 9.74447 9.74447 2.99399 2.99399 2.99399 2.99399 9.85896 9.85896 9.85896 9.85896 9.91454 9.91454 9.91454 9.91454 9.72745 9.72745 9.72745 9.72745 9.78507 9.78507 9.78507 9.78507 9.93599 9.93599 9.93599 9.93599 9.72185 9.72185 9.72185 9.72185 9.88579 9.88579 9.88579 9.88579 10.1476 10.1476 10.1476 10.1476 9.85109 9.85109 9.85109 9.85109 7.25058 7.25058 7.25058 7.25058 9.42877 9.42877 9.42877 9.42877 9.78422 9.78422 9.78422 9.78422 9.76 9.76 9.76 9.76 9.76481 9.76481 9.76481 9.76481 9.57708 9.57708 9.57708 9.57708 9.13483 9.13483 9.13483 9.13483 9.84634 9.84634 9.84634 9.84634 9.74087 9.74087 9.74087 9.74087 6.40604 6.40604 6.40604 6.40604 9.81085 9.81085 9.81085 9.81085 9.8282 9.8282 9.8282 9.8282 9.88402 9.88402 9.88402 9.88402 9.82005 9.82005 9.82005 9.82005 9.59388 9.59388 9.59388 9.59388 9.7315 9.7315 9.7315 9.7315 9.91797 9.91797 9.91797 9.91797 9.94739 9.94739 9.94739 9.94739 9.80023 9.80023 9.80023 9.80023 9.74291 9.74291 9.74291 9.74291 9.92549 9.92549 9.92549 9.92549 9.39596 9.39596 9.39596 9.39596 9.95601 9.95601 9.95601 9.95601 10.2068 10.2068 10.2068 10.2068 9.78612 9.78612 9.78612 9.78612 10.0383 10.0383 10.0383 10.0383 8.55058 8.55058 8.55058 8.55058 9.74819 9.74819 9.74819 9.74819 9.24828 9.24828 9.24828 9.24828 10.3087 10.3087 10.3087 10.3087 9.86009 9.86009 9.86009 9.86009 10.2286 10.2286 10.2286 10.2286 9.79338 9.79338 9.79338 9.79338 9.9672 9.9672 9.9672 9.9672 9.77241 9.77241 9.77241 9.77241 9.86424 9.86424 9.86424 9.86424 10.2032 10.2032 10.2032 10.2032 12.8067 12.8067 12.8067 12.8067 9.62727 9.62727 9.62727 9.62727 9.6948 9.6948 9.6948 9.6948 9.84433 9.84433 9.84433 9.84433 9.92251 9.92251 9.92251 9.92251 9.50712 9.50712 9.50712 9.50712 9.9329 9.9329 9.9329 9.9329 9.92638 9.92638 9.92638 9.92638 10.0256 10.0256 10.0256 10.0256 9.85577 9.85577 9.85577 9.85577 9.91662 9.91662 9.91662 9.91662 9.83448 9.83448 9.83448 9.83448 9.81992 9.81992 9.81992 9.81992 9.95601 9.95601 9.95601 9.95601 9.52559 9.52559 9.52559 9.52559 9.8901 9.8901 9.8901 9.8901 11.4068 11.4068 11.4068 11.4068 9.85077 9.85077 9.85077 9.85077 9.92642 9.92642 9.92642 9.92642 9.84329 9.84329 9.84329 9.84329 9.75973 9.75973 9.75973 9.75973 9.8422 9.8422 9.8422 9.8422 6.34392 6.34392 6.34392 6.34392 9.97753 9.97753 9.97753 9.97753 9.63189 9.63189 9.63189 9.63189 9.85252 9.85252 9.85252 9.85252 9.79645 9.79645 9.79645 9.79645 9.8344 9.8344 9.8344 9.8344 9.89502 9.89502 9.89502 9.89502 9.77173 9.77173 9.77173 9.77173 9.51638 9.51638 9.51638 9.51638 10.0508 10.0508 10.0508 10.0508 9.93412 9.93412 9.93412 9.93412 9.86701 9.86701 9.86701 9.86701 9.54288 9.54288 9.54288 9.54288 9.72434 9.72434 9.72434 9.72434 9.79823 9.79823 9.79823 9.79823 9.96662 9.96662 9.96662 9.96662 9.86579 9.86579 9.86579 9.86579 9.832 9.832 9.832 9.832 2.44817 2.44817 2.44817 2.44817 9.32956 9.32956 9.32956 9.32956 9.91039 9.91039 9.91039 9.91039 9.84777 9.84777 9.84777 9.84777 7.21378 7.21378 7.21378 7.21378 9.76499 9.76499 9.76499 9.76499 9.85582 9.85582 9.85582 9.85582 4.84076 4.84076 4.84076 4.84076 9.70437 9.70437 9.70437 9.70437 9.35814 9.35814 9.35814 9.35814 9.92267 9.92267 9.92267 9.92267 9.89344 9.89344 9.89344 9.89344 9.76373 9.76373 9.76373 9.76373 9.8296 9.8296 9.8296 9.8296 9.79002 9.79002 9.79002 9.79002 9.83465 9.83465 9.83465 9.83465 9.03078 9.03078 9.03078 9.03078 9.9558 9.9558 9.9558 9.9558 9.91526 9.91526 9.91526 9.91526 9.85403 9.85403 9.85403 9.85403 9.95999 9.95999 9.95999 9.95999 9.82119 9.82119 9.82119 9.82119 3.49961 3.49961 3.49961 3.49961 9.95924 9.95924 9.95924 9.95924 9.78864 9.78864 9.78864 9.78864 10.4593 10.4593 10.4593 10.4593 9.92864 9.92864 9.92864 9.92864 9.95348 9.95348 9.95348 9.95348 9.96846 9.96846 9.96846 9.96846 9.76764 9.76764 9.76764 9.76764 9.83151 9.83151 9.83151 9.83151 9.02479 9.02479 9.02479 9.02479 9.9442 9.9442 9.9442 9.9442 9.65737 9.65737 9.65737 9.65737 9.76064 9.76064 9.76064 9.76064 9.91372 9.91372 9.91372 9.91372 9.78306 9.78306 9.78306 9.78306 9.83497 9.83497 9.83497 9.83497 11.5375 11.5375 11.5375 11.5375 10.0817 10.0817 10.0817 10.0817 9.76928 9.76928 9.76928 9.76928 9.87595 9.87595 9.87595 9.87595 9.62954 9.62954 9.62954 9.62954 10.1164 10.1164 10.1164 10.1164 9.94827 9.94827 9.94827 9.94827 9.82799 9.82799 9.82799 9.82799 10.0377 10.0377 10.0377 10.0377 9.97698 9.97698 9.97698 9.97698 8.29849 8.29849 8.29849 8.29849 9.82855 9.82855 9.82855 9.82855 11.6878 11.6878 11.6878 11.6878 11.3967 11.3967 11.3967 11.3967 9.96582 9.96582 9.96582 9.96582 9.95438 9.95438 9.95438 9.95438 9.82467 9.82467 9.82467 9.82467 9.82561 9.82561 9.82561 9.82561 9.70886 9.70886 9.70886 9.70886 9.85065 9.85065 9.85065 9.85065 9.73232 9.73232 9.73232 9.73232 9.79904 9.79904 9.79904 9.79904 9.94866 9.94866 9.94866 9.94866 10.2174 10.2174 10.2174 10.2174 2.36339 2.36339 2.36339 2.36339 9.72987 9.72987 9.72987 9.72987 9.82772 9.82772 9.82772 9.82772 9.93448 9.93448 9.93448 9.93448 10.0493 10.0493 10.0493 10.0493 9.88568 9.88568 9.88568 9.88568 9.77393 9.77393 9.77393 9.77393 9.92761 9.92761 9.92761 9.92761 9.76778 9.76778 9.76778 9.76778 9.79237 9.79237 9.79237 9.79237 9.78796 9.78796 9.78796 9.78796 9.9472 9.9472 9.9472 9.9472 9.98259 9.98259 9.98259 9.98259 9.82202 9.82202 9.82202 9.82202 9.87586 9.87586 9.87586 9.87586 9.82267 9.82267 9.82267 9.82267 9.58207 9.58207 9.58207 9.58207 10.0881 10.0881 10.0881 10.0881 9.82215 9.82215 9.82215 9.82215 9.7288 9.7288 9.7288 9.7288 8.40462 8.40462 8.40462 8.40462 9.83578 9.83578 9.83578 9.83578 9.57108 9.57108 9.57108 9.57108 9.91723 9.91723 9.91723 9.91723 9.78018 9.78018 9.78018 9.78018 9.79379 9.79379 9.79379 9.79379 5.73266 5.73266 5.73266 5.73266 9.59783 9.59783 9.59783 9.59783 9.92768 9.92768 9.92768 9.92768 10.1538 10.1538 10.1538 10.1538 9.70765 9.70765 9.70765 9.70765 9.7163 9.7163 9.7163 9.7163 9.82145 9.82145 9.82145 9.82145 9.84293 9.84293 9.84293 9.84293 3.31857 3.31857 3.31857 3.31857 10.5135 10.5135 10.5135 10.5135 9.50387 9.50387 9.50387 9.50387 9.79601 9.79601 9.79601 9.79601 9.96823 9.96823 9.96823 9.96823 10.6049 10.6049 10.6049 10.6049 9.67942 9.67942 9.67942 9.67942 9.92883 9.92883 9.92883 9.92883 9.59203 9.59203 9.59203 9.59203 9.95682 9.95682 9.95682 9.95682 9.64766 9.64766 9.64766 9.64766 9.88039 9.88039 9.88039 9.88039 9.89175 9.89175 9.89175 9.89175 10.4162 10.4162 10.4162 10.4162 10.2278 10.2278 10.2278 10.2278 8.80228 8.80228 8.80228 8.80228 10.124 10.124 10.124 10.124 9.76499 9.76499 9.76499 9.76499 9.62459 9.62459 9.62459 9.62459 9.77502 9.77502 9.77502 9.77502 9.86741 9.86741 9.86741 9.86741 10.094 10.094 10.094 10.094 9.85693 9.85693 9.85693 9.85693 9.81528 9.81528 9.81528 9.81528 9.84912 9.84912 9.84912 9.84912 9.93736 9.93736 9.93736 9.93736 9.89371 9.89371 9.89371 9.89371 9.86704 9.86704 9.86704 9.86704 9.24887 9.24887 9.24887 9.24887 9.88885 9.88885 9.88885 9.88885 9.9357 9.9357 9.9357 9.9357 13.4006 13.4006 13.4006 13.4006 9.84937 9.84937 9.84937 9.84937 9.84183 9.84183 9.84183 9.84183 9.79622 9.79622 9.79622 9.79622 10.8393 10.8393 10.8393 10.8393 10.6126 10.6126 10.6126 10.6126 9.656 9.656 9.656 9.656 9.84312 9.84312 9.84312 9.84312 9.48915 9.48915 9.48915 9.48915 9.57421 9.57421 9.57421 9.57421 9.97473 9.97473 9.97473 9.97473 10.113 10.113 10.113 10.113 9.81716 9.81716 9.81716 9.81716 9.89825 9.89825 9.89825 9.89825 9.97483 9.97483 9.97483 9.97483 9.8804 9.8804 9.8804 9.8804 9.90767 9.90767 9.90767 9.90767 9.86135 9.86135 9.86135 9.86135 9.71795 9.71795 9.71795 9.71795 9.98409 9.98409 9.98409 9.98409 10.4246 10.4246 10.4246 10.4246 9.95774 9.95774 9.95774 9.95774 9.80918 9.80918 9.80918 9.80918 9.93013 9.93013 9.93013 9.93013 9.87815 9.87815 9.87815 9.87815 9.77435 9.77435 9.77435 9.77435 9.99174 9.99174 9.99174 9.99174 9.12542 9.12542 9.12542 9.12542 9.83854 9.83854 9.83854 9.83854 9.80723 9.80723 9.80723 9.80723 9.50011 9.50011 9.50011 9.50011 9.55552 9.55552 9.55552 9.55552 12.2298 12.2298 12.2298 12.2298 9.4231 9.4231 9.4231 9.4231 4.95373 4.95373 4.95373 4.95373 10.8572 10.8572 10.8572 10.8572 9.82659 9.82659 9.82659 9.82659 10.091 10.091 10.091 10.091 9.9462 9.9462 9.9462 9.9462 9.91335 9.91335 9.91335 9.91335 10.0287 10.0287 10.0287 10.0287 9.90717 9.90717 9.90717 9.90717 9.92528 9.92528 9.92528 9.92528 9.82851 9.82851 9.82851 9.82851 9.8221 9.8221 9.8221 9.8221 10.7894 10.7894 10.7894 10.7894 11.2378 11.2378 11.2378 11.2378 9.95701 9.95701 9.95701 9.95701 9.86603 9.86603 9.86603 9.86603 11.1779 11.1779 11.1779 11.1779 8.87106 8.87106 8.87106 8.87106 9.82664 9.82664 9.82664 9.82664 9.98422 9.98422 9.98422 9.98422 9.86946 9.86946 9.86946 9.86946 12.3737 12.3737 12.3737 12.3737 8.71317 8.71317 8.71317 8.71317 9.77665 9.77665 9.77665 9.77665 10.2941 10.2941 10.2941 10.2941 10.1835 10.1835 10.1835 10.1835 9.80747 9.80747 9.80747 9.80747 9.97584 9.97584 9.97584 9.97584 9.87328 9.87328 9.87328 9.87328 9.93502 9.93502 9.93502 9.93502 9.86089 9.86089 9.86089 9.86089 9.19291 9.19291 9.19291 9.19291 9.7751 9.7751 9.7751 9.7751 9.78991 9.78991 9.78991 9.78991 10.8545 10.8545 10.8545 10.8545 13.0259 13.0259 13.0259 13.0259 10.2877 10.2877 10.2877 10.2877 9.87335 9.87335 9.87335 9.87335 9.82129 9.82129 9.82129 9.82129 9.44466 9.44466 9.44466 9.44466 9.91566 9.91566 9.91566 9.91566 9.80208 9.80208 9.80208 9.80208 9.68868 9.68868 9.68868 9.68868 9.97659 9.97659 9.97659 9.97659 9.96083 9.96083 9.96083 9.96083 9.58534 9.58534 9.58534 9.58534 9.92712 9.92712 9.92712 9.92712 9.82399 9.82399 9.82399 9.82399 9.8667 9.8667 9.8667 9.8667 8.8906 8.8906 8.8906 8.8906 9.84475 9.84475 9.84475 9.84475 9.83078 9.83078 9.83078 9.83078 10.2474 10.2474 10.2474 10.2474 9.98563 9.98563 9.98563 9.98563 9.87454 9.87454 9.87454 9.87454 9.93272 9.93272 9.93272 9.93272 9.86125 9.86125 9.86125 9.86125 10.3189 10.3189 10.3189 10.3189 9.82766 9.82766 9.82766 9.82766 10.0177 10.0177 10.0177 10.0177 9.57409 9.57409 9.57409 9.57409 9.82499 9.82499 9.82499 9.82499 9.87309 9.87309 9.87309 9.87309 9.97755 9.97755 9.97755 9.97755 5.00972 5.00972 5.00972 5.00972 9.81721 9.81721 9.81721 9.81721 9.6043 9.6043 9.6043 9.6043 9.94216 9.94216 9.94216 9.94216 9.83035 9.83035 9.83035 9.83035 9.83356 9.83356 9.83356 9.83356 9.78802 9.78802 9.78802 9.78802 9.79747 9.79747 9.79747 9.79747 9.80925 9.80925 9.80925 9.80925 9.92441 9.92441 9.92441 9.92441 9.79871 9.79871 9.79871 9.79871 9.66055 9.66055 9.66055 9.66055 9.77545 9.77545 9.77545 9.77545 9.91356 9.91356 9.91356 9.91356 9.80782 9.80782 9.80782 9.80782 9.9774 9.9774 9.9774 9.9774 9.47927 9.47927 9.47927 9.47927 9.89145 9.89145 9.89145 9.89145 9.87186 9.87186 9.87186 9.87186 9.82517 9.82517 9.82517 9.82517 9.14899 9.14899 9.14899 9.14899 9.86751 9.86751 9.86751 9.86751 9.88028 9.88028 9.88028 9.88028 9.44262 9.44262 9.44262 9.44262 11.4717 11.4717 11.4717 11.4717 9.40429 9.40429 9.40429 9.40429 9.8295 9.8295 9.8295 9.8295 9.84492 9.84492 9.84492 9.84492 9.92958 9.92958 9.92958 9.92958 9.92259 9.92259 9.92259 9.92259 9.96415 9.96415 9.96415 9.96415 10.4505 10.4505 10.4505 10.4505 9.84446 9.84446 9.84446 9.84446 9.64744 9.64744 9.64744 9.64744 9.83776 9.83776 9.83776 9.83776 9.93551 9.93551 9.93551 9.93551 9.84792 9.84792 9.84792 9.84792 6.71998 6.71998 6.71998 6.71998 9.92181 9.92181 9.92181 9.92181 9.85773 9.85773 9.85773 9.85773 9.55144 9.55144 9.55144 9.55144 9.75508 9.75508 9.75508 9.75508 9.82091 9.82091 9.82091 9.82091 10.1552 10.1552 10.1552 10.1552 9.95448 9.95448 9.95448 9.95448 9.92223 9.92223 9.92223 9.92223 9.84849 9.84849 9.84849 9.84849 9.85293 9.85293 9.85293 9.85293 11.4202 11.4202 11.4202 11.4202 9.8272 9.8272 9.8272 9.8272 9.87842 9.87842 9.87842 9.87842 10.056 10.056 10.056 10.056 9.97525 9.97525 9.97525 9.97525 9.96599 9.96599 9.96599 9.96599 9.84897 9.84897 9.84897 9.84897 9.89098 9.89098 9.89098 9.89098 9.75252 9.75252 9.75252 9.75252 9.99801 9.99801 9.99801 9.99801 9.84348 9.84348 9.84348 9.84348 10.1654 10.1654 10.1654 10.1654 10.1239 10.1239 10.1239 10.1239 7.54536 7.54536 7.54536 7.54536 9.67153 9.67153 9.67153 9.67153 9.60004 9.60004 9.60004 9.60004 9.84327 9.84327 9.84327 9.84327 9.8011 9.8011 9.8011 9.8011 3.03916 3.03916 3.03916 3.03916 9.91671 9.91671 9.91671 9.91671 9.92592 9.92592 9.92592 9.92592 9.84747 9.84747 9.84747 9.84747 9.53914 9.53914 9.53914 9.53914 9.99029 9.99029 9.99029 9.99029 9.84647 9.84647 9.84647 9.84647 9.69476 9.69476 9.69476 9.69476 12.0827 12.0827 12.0827 12.0827 8.24339 8.24339 8.24339 8.24339 10.5662 10.5662 10.5662 10.5662 9.99182 9.99182 9.99182 9.99182 9.95368 9.95368 9.95368 9.95368 9.51681 9.51681 9.51681 9.51681 9.91677 9.91677 9.91677 9.91677 10.0239 10.0239 10.0239 10.0239 9.92666 9.92666 9.92666 9.92666 9.94665 9.94665 9.94665 9.94665 9.76511 9.76511 9.76511 9.76511 9.96425 9.96425 9.96425 9.96425 9.97329 9.97329 9.97329 9.97329 9.75084 9.75084 9.75084 9.75084 9.72671 9.72671 9.72671 9.72671 10.4138 10.4138 10.4138 10.4138 10.6855 10.6855 10.6855 10.6855 9.91405 9.91405 9.91405 9.91405 9.95765 9.95765 9.95765 9.95765 9.86558 9.86558 9.86558 9.86558 9.87325 9.87325 9.87325 9.87325 10.0228 10.0228 10.0228 10.0228 10.0252 10.0252 10.0252 10.0252 9.74425 9.74425 9.74425 9.74425 10.7285 10.7285 10.7285 10.7285 9.95013 9.95013 9.95013 9.95013 9.43936 9.43936 9.43936 9.43936 9.85407 9.85407 9.85407 9.85407 10.6104 10.6104 10.6104 10.6104 10.0355 10.0355 10.0355 10.0355 10.1916 10.1916 10.1916 10.1916 9.01339 9.01339 9.01339 9.01339 3.99983 3.99983 3.99983 3.99983 9.87671 9.87671 9.87671 9.87671 9.87419 9.87419 9.87419 9.87419 3.32124 3.32124 3.32124 3.32124 9.73999 9.73999 9.73999 9.73999 10.3871 10.3871 10.3871 10.3871 10.2991 10.2991 10.2991 10.2991 12.5404 12.5404 12.5404 12.5404 10.0059 10.0059 10.0059 10.0059 10.3494 10.3494 10.3494 10.3494 9.92433 9.92433 9.92433 9.92433 9.87515 9.87515 9.87515 9.87515 9.87621 9.87621 9.87621 9.87621 9.61743 9.61743 9.61743 9.61743 9.72115 9.72115 9.72115 9.72115 10.1866 10.1866 10.1866 10.1866 9.84363 9.84363 9.84363 9.84363 9.92597 9.92597 9.92597 9.92597 9.98257 9.98257 9.98257 9.98257 8.32391 8.32391 8.32391 8.32391 7.6805 7.6805 7.6805 7.6805 9.5978 9.5978 9.5978 9.5978 9.80104 9.80104 9.80104 9.80104 11.3918 11.3918 11.3918 11.3918 9.93955 9.93955 9.93955 9.93955 9.97408 9.97408 9.97408 9.97408 9.93481 9.93481 9.93481 9.93481 9.82993 9.82993 9.82993 9.82993 9.92288 9.92288 9.92288 9.92288 12.0601 12.0601 12.0601 12.0601 9.85699 9.85699 9.85699 9.85699 9.84179 9.84179 9.84179 9.84179 9.89645 9.89645 9.89645 9.89645 9.81145 9.81145 9.81145 9.81145 9.99036 9.99036 9.99036 9.99036 15.0336 15.0336 15.0336 15.0336 9.93975 9.93975 9.93975 9.93975 10.264 10.264 10.264 10.264 9.98532 9.98532 9.98532 9.98532 12.585 12.585 12.585 12.585 9.85127 9.85127 9.85127 9.85127 10.2336 10.2336 10.2336 10.2336 9.60141 9.60141 9.60141 9.60141 10.0054 10.0054 10.0054 10.0054 9.94341 9.94341 9.94341 9.94341 9.95853 9.95853 9.95853 9.95853 9.97241 9.97241 9.97241 9.97241 9.91506 9.91506 9.91506 9.91506 10.3412 10.3412 10.3412 10.3412 9.72144 9.72144 9.72144 9.72144 9.6078 9.6078 9.6078 9.6078 9.81959 9.81959 9.81959 9.81959 11.0059 11.0059 11.0059 11.0059 8.58031 8.58031 8.58031 8.58031 9.87944 9.87944 9.87944 9.87944 4.96748 4.96748 4.96748 4.96748 9.84085 9.84085 9.84085 9.84085 9.91786 9.91786 9.91786 9.91786 9.77938 9.77938 9.77938 9.77938 9.84779 9.84779 9.84779 9.84779 9.48236 9.48236 9.48236 9.48236 8.80615 8.80615 8.80615 8.80615 9.94816 9.94816 9.94816 9.94816 9.77689 9.77689 9.77689 9.77689 10.2858 10.2858 10.2858 10.2858 10.941 10.941 10.941 10.941 9.84066 9.84066 9.84066 9.84066 10.0222 10.0222 10.0222 10.0222 10.502 10.502 10.502 10.502 9.80008 9.80008 9.80008 9.80008 9.77593 9.77593 9.77593 9.77593 8.6777 8.6777 8.6777 8.6777 9.83735 9.83735 9.83735 9.83735 9.92406 9.92406 9.92406 9.92406 9.93009 9.93009 9.93009 9.93009 9.83741 9.83741 9.83741 9.83741 11.5688 11.5688 11.5688 11.5688 11.6836 11.6836 11.6836 11.6836 9.8631 9.8631 9.8631 9.8631 9.67388 9.67388 9.67388 9.67388 9.61647 9.61647 9.61647 9.61647 10.2437 10.2437 10.2437 10.2437 9.85409 9.85409 9.85409 9.85409 9.89272 9.89272 9.89272 9.89272 10.4858 10.4858 10.4858 10.4858 9.71669 9.71669 9.71669 9.71669 9.86148 9.86148 9.86148 9.86148 9.90022 9.90022 9.90022 9.90022 9.76553 9.76553 9.76553 9.76553 4.41791 4.41791 4.41791 4.41791 10.0638 10.0638 10.0638 10.0638 9.96548 9.96548 9.96548 9.96548 8.78507 8.78507 8.78507 8.78507 9.86756 9.86756 9.86756 9.86756 9.26335 9.26335 9.26335 9.26335 9.94617 9.94617 9.94617 9.94617 9.79249 9.79249 9.79249 9.79249 9.99568 9.99568 9.99568 9.99568 9.93009 9.93009 9.93009 9.93009 9.82423 9.82423 9.82423 9.82423 9.59073 9.59073 9.59073 9.59073 10.1737 10.1737 10.1737 10.1737 9.84133 9.84133 9.84133 9.84133 8.76383 8.76383 8.76383 8.76383 9.96847 9.96847 9.96847 9.96847 9.79223 9.79223 9.79223 9.79223 9.75869 9.75869 9.75869 9.75869 9.78501 9.78501 9.78501 9.78501 9.99578 9.99578 9.99578 9.99578 10.277 10.277 10.277 10.277 11.1865 11.1865 11.1865 11.1865 9.88414 9.88414 9.88414 9.88414 9.09637 9.09637 9.09637 9.09637 10.4041 10.4041 10.4041 10.4041 9.85029 9.85029 9.85029 9.85029 9.88061 9.88061 9.88061 9.88061 9.81878 9.81878 9.81878 9.81878 9.83736 9.83736 9.83736 9.83736 9.75393 9.75393 9.75393 9.75393 9.99886 9.99886 9.99886 9.99886 9.93417 9.93417 9.93417 9.93417 9.87962 9.87962 9.87962 9.87962 9.54904 9.54904 9.54904 9.54904 9.87922 9.87922 9.87922 9.87922 9.18436 9.18436 9.18436 9.18436 10.4347 10.4347 10.4347 10.4347 11.0523 11.0523 11.0523 11.0523 9.90684 9.90684 9.90684 9.90684 9.86511 9.86511 9.86511 9.86511 9.93073 9.93073 9.93073 9.93073 9.83339 9.83339 9.83339 9.83339 12.8539 12.8539 12.8539 12.8539 11.2224 11.2224 11.2224 11.2224 9.96164 9.96164 9.96164 9.96164 10.1801 10.1801 10.1801 10.1801 9.9666 9.9666 9.9666 9.9666 9.87545 9.87545 9.87545 9.87545 9.85904 9.85904 9.85904 9.85904 9.95006 9.95006 9.95006 9.95006 9.38461 9.38461 9.38461 9.38461 10.0473 10.0473 10.0473 10.0473 10.1722 10.1722 10.1722 10.1722 10.3644 10.3644 10.3644 10.3644 10.1746 10.1746 10.1746 10.1746 9.74148 9.74148 9.74148 9.74148 10.1057 10.1057 10.1057 10.1057 9.66001 9.66001 9.66001 9.66001 9.73759 9.73759 9.73759 9.73759 10.1605 10.1605 10.1605 10.1605 9.86278 9.86278 9.86278 9.86278 9.98616 9.98616 9.98616 9.98616 9.6863 9.6863 9.6863 9.6863 9.90809 9.90809 9.90809 9.90809 9.86709 9.86709 9.86709 9.86709 11.6324 11.6324 11.6324 11.6324 10.994 10.994 10.994 10.994 9.86974 9.86974 9.86974 9.86974 9.99022 9.99022 9.99022 9.99022 3.66171 3.66171 3.66171 3.66171 9.09023 9.09023 9.09023 9.09023 10.0316 10.0316 10.0316 10.0316 3.24168 3.24168 3.24168 3.24168 10.3405 10.3405 10.3405 10.3405 9.97671 9.97671 9.97671 9.97671 11.2995 11.2995 11.2995 11.2995 9.87853 9.87853 9.87853 9.87853 9.81353 9.81353 9.81353 9.81353 9.87816 9.87816 9.87816 9.87816 9.97749 9.97749 9.97749 9.97749 9.87772 9.87772 9.87772 9.87772 9.76638 9.76638 9.76638 9.76638 9.90584 9.90584 9.90584 9.90584 9.82642 9.82642 9.82642 9.82642 9.20222 9.20222 9.20222 9.20222 9.8579 9.8579 9.8579 9.8579 10.2001 10.2001 10.2001 10.2001 9.87585 9.87585 9.87585 9.87585 9.82013 9.82013 9.82013 9.82013 9.95695 9.95695 9.95695 9.95695 8.73043 8.73043 8.73043 8.73043 12.5593 12.5593 12.5593 12.5593 10.6307 10.6307 10.6307 10.6307 9.72311 9.72311 9.72311 9.72311 9.68356 9.68356 9.68356 9.68356 9.93517 9.93517 9.93517 9.93517 6.63147 6.63147 6.63147 6.63147 9.93253 9.93253 9.93253 9.93253 9.79459 9.79459 9.79459 9.79459 9.71401 9.71401 9.71401 9.71401 9.77903 9.77903 9.77903 9.77903 8.46744 8.46744 8.46744 8.46744 9.98354 9.98354 9.98354 9.98354 9.89927 9.89927 9.89927 9.89927 10.1437 10.1437 10.1437 10.1437 10.1762 10.1762 10.1762 10.1762 9.6234 9.6234 9.6234 9.6234 9.77353 9.77353 9.77353 9.77353 9.71728 9.71728 9.71728 9.71728 9.81475 9.81475 9.81475 9.81475 9.7913 9.7913 9.7913 9.7913 9.98123 9.98123 9.98123 9.98123 9.92986 9.92986 9.92986 9.92986 9.99001 9.99001 9.99001 9.99001 10.1553 10.1553 10.1553 10.1553 9.88063 9.88063 9.88063 9.88063 9.9746 9.9746 9.9746 9.9746 9.55136 9.55136 9.55136 9.55136 9.87803 9.87803 9.87803 9.87803 3.35931 3.35931 3.35931 3.35931 9.80765 9.80765 9.80765 9.80765 9.8642 9.8642 9.8642 9.8642 10.4209 10.4209 10.4209 10.4209 9.73843 9.73843 9.73843 9.73843 10.4858 10.4858 10.4858 10.4858 9.93603 9.93603 9.93603 9.93603 10.7827 10.7827 10.7827 10.7827 10.0054 10.0054 10.0054 10.0054 9.89416 9.89416 9.89416 9.89416 9.84188 9.84188 9.84188 9.84188 9.97704 9.97704 9.97704 9.97704 11.8097 11.8097 11.8097 11.8097 9.78013 9.78013 9.78013 9.78013 9.90451 9.90451 9.90451 9.90451 9.78576 9.78576 9.78576 9.78576 9.86409 9.86409 9.86409 9.86409 10.8355 10.8355 10.8355 10.8355 9.43549 9.43549 9.43549 9.43549 10.0206 10.0206 10.0206 10.0206 9.88373 9.88373 9.88373 9.88373 9.8485 9.8485 9.8485 9.8485 9.54287 9.54287 9.54287 9.54287 9.3377 9.3377 9.3377 9.3377 9.94091 9.94091 9.94091 9.94091 10.0154 10.0154 10.0154 10.0154 10.7049 10.7049 10.7049 10.7049 10.1111 10.1111 10.1111 10.1111 10.1772 10.1772 10.1772 10.1772 9.81782 9.81782 9.81782 9.81782 9.87221 9.87221 9.87221 9.87221 9.88298 9.88298 9.88298 9.88298 9.72836 9.72836 9.72836 9.72836 10.015 10.015 10.015 10.015 9.83106 9.83106 9.83106 9.83106 9.91414 9.91414 9.91414 9.91414 9.90432 9.90432 9.90432 9.90432 9.9293 9.9293 9.9293 9.9293 9.82898 9.82898 9.82898 9.82898 9.73409 9.73409 9.73409 9.73409 9.89375 9.89375 9.89375 9.89375 9.8852 9.8852 9.8852 9.8852 9.92732 9.92732 9.92732 9.92732 9.79449 9.79449 9.79449 9.79449 9.93151 9.93151 9.93151 9.93151 9.91054 9.91054 9.91054 9.91054 9.79119 9.79119 9.79119 9.79119 9.95719 9.95719 9.95719 9.95719 9.9257 9.9257 9.9257 9.9257 9.9089 9.9089 9.9089 9.9089 9.86017 9.86017 9.86017 9.86017 9.32208 9.32208 9.32208 9.32208 9.79398 9.79398 9.79398 9.79398 10.2398 10.2398 10.2398 10.2398 9.86236 9.86236 9.86236 9.86236 10.709 10.709 10.709 10.709 10.4357 10.4357 10.4357 10.4357 10.6106 10.6106 10.6106 10.6106 9.86555 9.86555 9.86555 9.86555 9.92616 9.92616 9.92616 9.92616 9.91542 9.91542 9.91542 9.91542 9.88734 9.88734 9.88734 9.88734 9.85048 9.85048 9.85048 9.85048 10.2906 10.2906 10.2906 10.2906 9.97371 9.97371 9.97371 9.97371 9.92896 9.92896 9.92896 9.92896 9.97444 9.97444 9.97444 9.97444 9.96759 9.96759 9.96759 9.96759 9.80974 9.80974 9.80974 9.80974 9.94607 9.94607 9.94607 9.94607 10.8949 10.8949 10.8949 10.8949 5.53388 5.53388 5.53388 5.53388 9.92953 9.92953 9.92953 9.92953 9.72828 9.72828 9.72828 9.72828 7.84475 7.84475 7.84475 7.84475 9.66865 9.66865 9.66865 9.66865 9.816 9.816 9.816 9.816 9.90176 9.90176 9.90176 9.90176 9.83324 9.83324 9.83324 9.83324 9.93047 9.93047 9.93047 9.93047 9.77356 9.77356 9.77356 9.77356 10.1885 10.1885 10.1885 10.1885 9.8226 9.8226 9.8226 9.8226 9.9847 9.9847 9.9847 9.9847 9.83848 9.83848 9.83848 9.83848 9.84339 9.84339 9.84339 9.84339 10.0847 10.0847 10.0847 10.0847 9.69467 9.69467 9.69467 9.69467 9.83666 9.83666 9.83666 9.83666 11.5498 11.5498 11.5498 11.5498 9.65914 9.65914 9.65914 9.65914 9.49153 9.49153 9.49153 9.49153 9.78169 9.78169 9.78169 9.78169 10.6039 10.6039 10.6039 10.6039 9.90904 9.90904 9.90904 9.90904 9.81887 9.81887 9.81887 9.81887 9.74275 9.74275 9.74275 9.74275 10.0141 10.0141 10.0141 10.0141 9.16923 9.16923 9.16923 9.16923 9.5246 9.5246 9.5246 9.5246 9.8338 9.8338 9.8338 9.8338 9.66871 9.66871 9.66871 9.66871 9.85568 9.85568 9.85568 9.85568 9.87702 9.87702 9.87702 9.87702 9.93173 9.93173 9.93173 9.93173 10.2562 10.2562 10.2562 10.2562 9.96674 9.96674 9.96674 9.96674 9.96832 9.96832 9.96832 9.96832 9.95655 9.95655 9.95655 9.95655 9.87998 9.87998 9.87998 9.87998 9.80013 9.80013 9.80013 9.80013 9.92474 9.92474 9.92474 9.92474 9.92112 9.92112 9.92112 9.92112 9.752 9.752 9.752 9.752 10.0081 10.0081 10.0081 10.0081 8.43408 8.43408 8.43408 8.43408 9.80214 9.80214 9.80214 9.80214 9.67039 9.67039 9.67039 9.67039 9.84691 9.84691 9.84691 9.84691 10.2202 10.2202 10.2202 10.2202 9.82711 9.82711 9.82711 9.82711 10.5392 10.5392 10.5392 10.5392 9.83746 9.83746 9.83746 9.83746 9.79657 9.79657 9.79657 9.79657 9.6934 9.6934 9.6934 9.6934 9.82374 9.82374 9.82374 9.82374 10.0027 10.0027 10.0027 10.0027 9.72074 9.72074 9.72074 9.72074 9.86728 9.86728 9.86728 9.86728 10.5019 10.5019 10.5019 10.5019 9.97252 9.97252 9.97252 9.97252 9.83899 9.83899 9.83899 9.83899 9.74554 9.74554 9.74554 9.74554 10.2335 10.2335 10.2335 10.2335 9.84183 9.84183 9.84183 9.84183 9.97072 9.97072 9.97072 9.97072 9.48275 9.48275 9.48275 9.48275 9.92395 9.92395 9.92395 9.92395 9.96676 9.96676 9.96676 9.96676 3.23548 3.23548 3.23548 3.23548 9.95166 9.95166 9.95166 9.95166 10.041 10.041 10.041 10.041 9.90868 9.90868 9.90868 9.90868 10.3408 10.3408 10.3408 10.3408 9.00855 9.00855 9.00855 9.00855 9.87777 9.87777 9.87777 9.87777 9.81064 9.81064 9.81064 9.81064 9.82512 9.82512 9.82512 9.82512 9.92466 9.92466 9.92466 9.92466 9.88357 9.88357 9.88357 9.88357 9.64116 9.64116 9.64116 9.64116 9.85623 9.85623 9.85623 9.85623 10.2165 10.2165 10.2165 10.2165 9.92669 9.92669 9.92669 9.92669 9.85704 9.85704 9.85704 9.85704 9.80393 9.80393 9.80393 9.80393 9.93067 9.93067 9.93067 9.93067 9.97747 9.97747 9.97747 9.97747 8.7165 8.7165 8.7165 8.7165 3.23043 3.23043 3.23043 3.23043 9.76169 9.76169 9.76169 9.76169 9.7488 9.7488 9.7488 9.7488 9.97018 9.97018 9.97018 9.97018 9.80893 9.80893 9.80893 9.80893 10.5226 10.5226 10.5226 10.5226 9.86825 9.86825 9.86825 9.86825 9.79711 9.79711 9.79711 9.79711 9.97183 9.97183 9.97183 9.97183 9.90323 9.90323 9.90323 9.90323 9.86546 9.86546 9.86546 9.86546 3.23561 3.23561 3.23561 3.23561 3.29747 3.29747 3.29747 3.29747 13.5253 13.5253 13.5253 13.5253 10.3208 10.3208 10.3208 10.3208 7.58685 7.58685 7.58685 7.58685 9.13972 9.13972 9.13972 9.13972 9.77945 9.77945 9.77945 9.77945 9.81962 9.81962 9.81962 9.81962 10.0958 10.0958 10.0958 10.0958 11.6804 11.6804 11.6804 11.6804 9.88093 9.88093 9.88093 9.88093 9.97685 9.97685 9.97685 9.97685 9.98664 9.98664 9.98664 9.98664 9.89859 9.89859 9.89859 9.89859 9.85323 9.85323 9.85323 9.85323 9.86131 9.86131 9.86131 9.86131 9.83221 9.83221 9.83221 9.83221 9.24698 9.24698 9.24698 9.24698 9.86485 9.86485 9.86485 9.86485 9.97998 9.97998 9.97998 9.97998 9.75938 9.75938 9.75938 9.75938 9.58876 9.58876 9.58876 9.58876 9.85796 9.85796 9.85796 9.85796 9.80245 9.80245 9.80245 9.80245 9.92397 9.92397 9.92397 9.92397 10.0943 10.0943 10.0943 10.0943 9.76353 9.76353 9.76353 9.76353 9.89975 9.89975 9.89975 9.89975 7.62045 7.62045 7.62045 7.62045 9.78392 9.78392 9.78392 9.78392 9.89315 9.89315 9.89315 9.89315 9.76293 9.76293 9.76293 9.76293 9.26892 9.26892 9.26892 9.26892 9.85589 9.85589 9.85589 9.85589 7.2417 7.2417 7.2417 7.2417 10.1302 10.1302 10.1302 10.1302 5.66811 5.66811 5.66811 5.66811 9.9586 9.9586 9.9586 9.9586 9.75687 9.75687 9.75687 9.75687 9.96707 9.96707 9.96707 9.96707 9.18068 9.18068 9.18068 9.18068 9.82954 9.82954 9.82954 9.82954 10.0115 10.0115 10.0115 10.0115 9.87613 9.87613 9.87613 9.87613 9.8162 9.8162 9.8162 9.8162 11.1954 11.1954 11.1954 11.1954 9.80423 9.80423 9.80423 9.80423 9.85245 9.85245 9.85245 9.85245 9.92148 9.92148 9.92148 9.92148 9.76491 9.76491 9.76491 9.76491 9.98257 9.98257 9.98257 9.98257 9.80772 9.80772 9.80772 9.80772 9.84827 9.84827 9.84827 9.84827 9.77948 9.77948 9.77948 9.77948 9.8744 9.8744 9.8744 9.8744 9.95535 9.95535 9.95535 9.95535 9.85807 9.85807 9.85807 9.85807 9.86913 9.86913 9.86913 9.86913 9.83007 9.83007 9.83007 9.83007 8.38474 8.38474 8.38474 8.38474 6.96493 6.96493 6.96493 6.96493 9.94367 9.94367 9.94367 9.94367 9.98262 9.98262 9.98262 9.98262 9.82828 9.82828 9.82828 9.82828 9.80201 9.80201 9.80201 9.80201 9.9729 9.9729 9.9729 9.9729 9.92903 9.92903 9.92903 9.92903 9.98375 9.98375 9.98375 9.98375 9.91574 9.91574 9.91574 9.91574 9.85152 9.85152 9.85152 9.85152 9.87843 9.87843 9.87843 9.87843 9.94626 9.94626 9.94626 9.94626 9.96206 9.96206 9.96206 9.96206 9.97384 9.97384 9.97384 9.97384 9.82155 9.82155 9.82155 9.82155 9.80749 9.80749 9.80749 9.80749 9.84713 9.84713 9.84713 9.84713 9.82917 9.82917 9.82917 9.82917 9.85437 9.85437 9.85437 9.85437 9.79908 9.79908 9.79908 9.79908 9.78374 9.78374 9.78374 9.78374 9.75219 9.75219 9.75219 9.75219 9.85695 9.85695 9.85695 9.85695 9.8066 9.8066 9.8066 9.8066 10.0571 10.0571 10.0571 10.0571 9.91969 9.91969 9.91969 9.91969 9.9681 9.9681 9.9681 9.9681 9.92573 9.92573 9.92573 9.92573 9.83633 9.83633 9.83633 9.83633 9.82652 9.82652 9.82652 9.82652 9.86423 9.86423 9.86423 9.86423 9.80954 9.80954 9.80954 9.80954 9.94561 9.94561 9.94561 9.94561 9.92777 9.92777 9.92777 9.92777 9.75956 9.75956 9.75956 9.75956 9.79101 9.79101 9.79101 9.79101 9.88392 9.88392 9.88392 9.88392 9.8064 9.8064 9.8064 9.8064 7.08929 7.08929 7.08929 7.08929 9.97753 9.97753 9.97753 9.97753 9.61277 9.61277 9.61277 9.61277 9.25081 9.25081 9.25081 9.25081 9.93474 9.93474 9.93474 9.93474 9.96125 9.96125 9.96125 9.96125 9.93739 9.93739 9.93739 9.93739 9.88475 9.88475 9.88475 9.88475 9.82255 9.82255 9.82255 9.82255 9.85951 9.85951 9.85951 9.85951 11.9791 11.9791 11.9791 11.9791 9.81713 9.81713 9.81713 9.81713 10.4306 10.4306 10.4306 10.4306 10.0701 10.0701 10.0701 10.0701 9.82869 9.82869 9.82869 9.82869 5.70282 5.70282 5.70282 5.70282 9.83647 9.83647 9.83647 9.83647 9.84944 9.84944 9.84944 9.84944 10.0751 10.0751 10.0751 10.0751 9.9197 9.9197 9.9197 9.9197 9.77854 9.77854 9.77854 9.77854 9.97816 9.97816 9.97816 9.97816 9.81643 9.81643 9.81643 9.81643 9.95461 9.95461 9.95461 9.95461 9.94106 9.94106 9.94106 9.94106 9.88257 9.88257 9.88257 9.88257 9.87319 9.87319 9.87319 9.87319 9.76786 9.76786 9.76786 9.76786 9.59031 9.59031 9.59031 9.59031 9.90748 9.90748 9.90748 9.90748 9.82965 9.82965 9.82965 9.82965 6.64786 6.64786 6.64786 6.64786 9.85875 9.85875 9.85875 9.85875 9.86663 9.86663 9.86663 9.86663 10.2725 10.2725 10.2725 10.2725 10.0877 10.0877 10.0877 10.0877 9.95049 9.95049 9.95049 9.95049 10.417 10.417 10.417 10.417 9.73632 9.73632 9.73632 9.73632 9.99722 9.99722 9.99722 9.99722 9.89095 9.89095 9.89095 9.89095 10.0081 10.0081 10.0081 10.0081 9.99191 9.99191 9.99191 9.99191 9.82034 9.82034 9.82034 9.82034 9.97574 9.97574 9.97574 9.97574 9.83166 9.83166 9.83166 9.83166 9.9298 9.9298 9.9298 9.9298 9.1988 9.1988 9.1988 9.1988 9.82169 9.82169 9.82169 9.82169 10.2532 10.2532 10.2532 10.2532 9.82103 9.82103 9.82103 9.82103 9.83217 9.83217 9.83217 9.83217 9.98326 9.98326 9.98326 9.98326 9.95347 9.95347 9.95347 9.95347 9.95513 9.95513 9.95513 9.95513 8.97124 8.97124 8.97124 8.97124 9.90006 9.90006 9.90006 9.90006 10.2299 10.2299 10.2299 10.2299 9.9027 9.9027 9.9027 9.9027 9.83949 9.83949 9.83949 9.83949 9.78927 9.78927 9.78927 9.78927 9.85582 9.85582 9.85582 9.85582 9.95774 9.95774 9.95774 9.95774 10.2423 10.2423 10.2423 10.2423 12.5559 12.5559 12.5559 12.5559 9.94391 9.94391 9.94391 9.94391 5.69449 5.69449 5.69449 5.69449 9.79195 9.79195 9.79195 9.79195 7.71729 7.71729 7.71729 7.71729 9.9069 9.9069 9.9069 9.9069 9.91877 9.91877 9.91877 9.91877 9.82286 9.82286 9.82286 9.82286 9.71708 9.71708 9.71708 9.71708 9.78713 9.78713 9.78713 9.78713 10.6945 10.6945 10.6945 10.6945 9.90603 9.90603 9.90603 9.90603 9.85117 9.85117 9.85117 9.85117 9.81973 9.81973 9.81973 9.81973 9.45951 9.45951 9.45951 9.45951 9.85908 9.85908 9.85908 9.85908 9.98007 9.98007 9.98007 9.98007 9.93618 9.93618 9.93618 9.93618 9.83855 9.83855 9.83855 9.83855 9.97021 9.97021 9.97021 9.97021 9.74176 9.74176 9.74176 9.74176 9.81716 9.81716 9.81716 9.81716 9.88618 9.88618 9.88618 9.88618 10.0003 10.0003 10.0003 10.0003 9.80805 9.80805 9.80805 9.80805 13.1355 13.1355 13.1355 13.1355 9.65839 9.65839 9.65839 9.65839 9.8744 9.8744 9.8744 9.8744 9.84097 9.84097 9.84097 9.84097 9.97308 9.97308 9.97308 9.97308 9.78762 9.78762 9.78762 9.78762 13.2318 13.2318 13.2318 13.2318 3.26309 3.26309 3.26309 3.26309 12.1909 12.1909 12.1909 12.1909 9.76649 9.76649 9.76649 9.76649 9.79099 9.79099 9.79099 9.79099 10.2235 10.2235 10.2235 10.2235 12.3037 12.3037 12.3037 12.3037 10.0001 10.0001 10.0001 10.0001 9.79267 9.79267 9.79267 9.79267 9.84015 9.84015 9.84015 9.84015 10.4052 10.4052 10.4052 10.4052 9.96908 9.96908 9.96908 9.96908 9.92866 9.92866 9.92866 9.92866 9.96827 9.96827 9.96827 9.96827 9.96247 9.96247 9.96247 9.96247 9.84764 9.84764 9.84764 9.84764 9.98014 9.98014 9.98014 9.98014 10.0283 10.0283 10.0283 10.0283 9.82101 9.82101 9.82101 9.82101 10.323 10.323 10.323 10.323 3.77059 3.77059 3.77059 3.77059 10.0335 10.0335 10.0335 10.0335 9.40969 9.40969 9.40969 9.40969 9.9269 9.9269 9.9269 9.9269 9.91398 9.91398 9.91398 9.91398 9.8683 9.8683 9.8683 9.8683 4.51492 4.51492 4.51492 4.51492 10.8325 10.8325 10.8325 10.8325 9.93072 9.93072 9.93072 9.93072 9.39829 9.39829 9.39829 9.39829 10.8104 10.8104 10.8104 10.8104 9.96088 9.96088 9.96088 9.96088 9.15565 9.15565 9.15565 9.15565 9.63928 9.63928 9.63928 9.63928 9.63563 9.63563 9.63563 9.63563 9.94627 9.94627 9.94627 9.94627 9.86938 9.86938 9.86938 9.86938 9.98218 9.98218 9.98218 9.98218 10.2199 10.2199 10.2199 10.2199 9.8826 9.8826 9.8826 9.8826 9.76881 9.76881 9.76881 9.76881 10.6621 10.6621 10.6621 10.6621 2.83888 2.83888 2.83888 2.83888 9.68143 9.68143 9.68143 9.68143 9.83249 9.83249 9.83249 9.83249 9.9642 9.9642 9.9642 9.9642 8.85124 8.85124 8.85124 8.85124 9.78285 9.78285 9.78285 9.78285 10.5189 10.5189 10.5189 10.5189 9.8675 9.8675 9.8675 9.8675 9.98914 9.98914 9.98914 9.98914 9.92333 9.92333 9.92333 9.92333 9.89337 9.89337 9.89337 9.89337 9.9529 9.9529 9.9529 9.9529 9.61836 9.61836 9.61836 9.61836 9.76377 9.76377 9.76377 9.76377 10.2386 10.2386 10.2386 10.2386 11.224 11.224 11.224 11.224 9.9255 9.9255 9.9255 9.9255 10.4591 10.4591 10.4591 10.4591 9.97413 9.97413 9.97413 9.97413 9.89954 9.89954 9.89954 9.89954 8.23995 8.23995 8.23995 8.23995 9.80045 9.80045 9.80045 9.80045 9.79195 9.79195 9.79195 9.79195 12.7526 12.7526 12.7526 12.7526 10.0417 10.0417 10.0417 10.0417 9.85706 9.85706 9.85706 9.85706 7.94828 7.94828 7.94828 7.94828 9.99113 9.99113 9.99113 9.99113 9.936 9.936 9.936 9.936 6.01508 6.01508 6.01508 6.01508 9.80279 9.80279 9.80279 9.80279 9.8552 9.8552 9.8552 9.8552 9.8322 9.8322 9.8322 9.8322 10.1452 10.1452 10.1452 10.1452 9.45498 9.45498 9.45498 9.45498 9.82881 9.82881 9.82881 9.82881 9.84286 9.84286 9.84286 9.84286 9.95764 9.95764 9.95764 9.95764 9.74647 9.74647 9.74647 9.74647 9.7799 9.7799 9.7799 9.7799 5.88757 5.88757 5.88757 5.88757 9.991 9.991 9.991 9.991 9.96131 9.96131 9.96131 9.96131 9.86489 9.86489 9.86489 9.86489 9.99187 9.99187 9.99187 9.99187 9.97648 9.97648 9.97648 9.97648 10.0396 10.0396 10.0396 10.0396 9.85098 9.85098 9.85098 9.85098 9.90992 9.90992 9.90992 9.90992 9.84969 9.84969 9.84969 9.84969 9.73985 9.73985 9.73985 9.73985 3.48796 3.48796 3.48796 3.48796 9.53899 9.53899 9.53899 9.53899 9.88819 9.88819 9.88819 9.88819 9.92894 9.92894 9.92894 9.92894 13.2472 13.2472 13.2472 13.2472 9.84872 9.84872 9.84872 9.84872 9.8693 9.8693 9.8693 9.8693 9.66944 9.66944 9.66944 9.66944 9.93298 9.93298 9.93298 9.93298 9.93299 9.93299 9.93299 9.93299 9.94813 9.94813 9.94813 9.94813 9.57095 9.57095 9.57095 9.57095 9.89346 9.89346 9.89346 9.89346 9.95045 9.95045 9.95045 9.95045 9.96418 9.96418 9.96418 9.96418 9.86963 9.86963 9.86963 9.86963 9.80709 9.80709 9.80709 9.80709 9.80977 9.80977 9.80977 9.80977 9.93346 9.93346 9.93346 9.93346 9.89788 9.89788 9.89788 9.89788 9.93323 9.93323 9.93323 9.93323 9.85882 9.85882 9.85882 9.85882 9.85094 9.85094 9.85094 9.85094 9.91832 9.91832 9.91832 9.91832 10.1037 10.1037 10.1037 10.1037 9.95096 9.95096 9.95096 9.95096 10.0573 10.0573 10.0573 10.0573 9.90001 9.90001 9.90001 9.90001 9.88699 9.88699 9.88699 9.88699 10.0524 10.0524 10.0524 10.0524 9.93776 9.93776 9.93776 9.93776 3.75609 3.75609 3.75609 3.75609 10.0851 10.0851 10.0851 10.0851 9.83626 9.83626 9.83626 9.83626 9.76087 9.76087 9.76087 9.76087 9.84003 9.84003 9.84003 9.84003 9.95601 9.95601 9.95601 9.95601 9.89709 9.89709 9.89709 9.89709 9.97477 9.97477 9.97477 9.97477 9.92476 9.92476 9.92476 9.92476 9.89388 9.89388 9.89388 9.89388 9.76534 9.76534 9.76534 9.76534 9.81815 9.81815 9.81815 9.81815 9.99949 9.99949 9.99949 9.99949 9.80698 9.80698 9.80698 9.80698 9.68193 9.68193 9.68193 9.68193 10.2188 10.2188 10.2188 10.2188 10.0049 10.0049 10.0049 10.0049 10.0522 10.0522 10.0522 10.0522 9.9795 9.9795 9.9795 9.9795 9.93953 9.93953 9.93953 9.93953 6.27445 6.27445 6.27445 6.27445 9.89148 9.89148 9.89148 9.89148 9.85876 9.85876 9.85876 9.85876 9.85554 9.85554 9.85554 9.85554 10.285 10.285 10.285 10.285 9.83519 9.83519 9.83519 9.83519 10.4608 10.4608 10.4608 10.4608 9.95223 9.95223 9.95223 9.95223 9.09519 9.09519 9.09519 9.09519 10.0512 10.0512 10.0512 10.0512 7.83575 7.83575 7.83575 7.83575 9.83438 9.83438 9.83438 9.83438 9.98603 9.98603 9.98603 9.98603 9.81913 9.81913 9.81913 9.81913 5.32044 5.32044 5.32044 5.32044 9.91271 9.91271 9.91271 9.91271 9.95407 9.95407 9.95407 9.95407 9.94103 9.94103 9.94103 9.94103 9.80994 9.80994 9.80994 9.80994 9.99251 9.99251 9.99251 9.99251 9.84263 9.84263 9.84263 9.84263 12.3648 12.3648 12.3648 12.3648 3.85537 3.85537 3.85537 3.85537 9.75506 9.75506 9.75506 9.75506 9.76922 9.76922 9.76922 9.76922 10.3161 10.3161 10.3161 10.3161 9.5312 9.5312 9.5312 9.5312 9.80292 9.80292 9.80292 9.80292 9.69984 9.69984 9.69984 9.69984 9.83449 9.83449 9.83449 9.83449 12.1449 12.1449 12.1449 12.1449 9.9099 9.9099 9.9099 9.9099 9.79256 9.79256 9.79256 9.79256 10.4356 10.4356 10.4356 10.4356 9.80663 9.80663 9.80663 9.80663 9.98892 9.98892 9.98892 9.98892 10.2828 10.2828 10.2828 10.2828 9.99541 9.99541 9.99541 9.99541 10.6641 10.6641 10.6641 10.6641 9.90117 9.90117 9.90117 9.90117 10.1798 10.1798 10.1798 10.1798 10.9818 10.9818 10.9818 10.9818 10.0815 10.0815 10.0815 10.0815 6.90434 6.90434 6.90434 6.90434 9.87401 9.87401 9.87401 9.87401 8.46126 8.46126 8.46126 8.46126 10.3568 10.3568 10.3568 10.3568 10.0276 10.0276 10.0276 10.0276 9.76773 9.76773 9.76773 9.76773 9.45833 9.45833 9.45833 9.45833 9.88237 9.88237 9.88237 9.88237 9.79624 9.79624 9.79624 9.79624 9.9787 9.9787 9.9787 9.9787 9.74936 9.74936 9.74936 9.74936 9.97643 9.97643 9.97643 9.97643 9.80334 9.80334 9.80334 9.80334 9.85381 9.85381 9.85381 9.85381 10.563 10.563 10.563 10.563 9.85912 9.85912 9.85912 9.85912 3.30848 3.30848 3.30848 3.30848 9.98206 9.98206 9.98206 9.98206 9.99066 9.99066 9.99066 9.99066 9.9889 9.9889 9.9889 9.9889 9.7463 9.7463 9.7463 9.7463 9.8312 9.8312 9.8312 9.8312 10.0455 10.0455 10.0455 10.0455 10.0198 10.0198 10.0198 10.0198 9.85169 9.85169 9.85169 9.85169 10.0077 10.0077 10.0077 10.0077 14.3344 14.3344 14.3344 14.3344 9.88696 9.88696 9.88696 9.88696 9.92772 9.92772 9.92772 9.92772 10.0753 10.0753 10.0753 10.0753 9.80244 9.80244 9.80244 9.80244 9.98266 9.98266 9.98266 9.98266 9.84254 9.84254 9.84254 9.84254 6.65432 6.65432 6.65432 6.65432 9.95606 9.95606 9.95606 9.95606 9.53785 9.53785 9.53785 9.53785 4.06001 4.06001 4.06001 4.06001 9.92663 9.92663 9.92663 9.92663 9.79969 9.79969 9.79969 9.79969 11.678 11.678 11.678 11.678 9.98407 9.98407 9.98407 9.98407 9.76898 9.76898 9.76898 9.76898 9.84776 9.84776 9.84776 9.84776 9.81272 9.81272 9.81272 9.81272 9.77574 9.77574 9.77574 9.77574 10.694 10.694 10.694 10.694 9.78219 9.78219 9.78219 9.78219 9.82137 9.82137 9.82137 9.82137 9.78113 9.78113 9.78113 9.78113 9.95582 9.95582 9.95582 9.95582 9.94604 9.94604 9.94604 9.94604 9.7743 9.7743 9.7743 9.7743 9.99655 9.99655 9.99655 9.99655 9.82034 9.82034 9.82034 9.82034 9.86351 9.86351 9.86351 9.86351 9.74896 9.74896 9.74896 9.74896 9.97526 9.97526 9.97526 9.97526 9.98678 9.98678 9.98678 9.98678 10.917 10.917 10.917 10.917 9.9933 9.9933 9.9933 9.9933 9.82686 9.82686 9.82686 9.82686 6.47832 6.47832 6.47832 6.47832 9.87129 9.87129 9.87129 9.87129 9.62227 9.62227 9.62227 9.62227 3.3966 3.3966 3.3966 3.3966 11.0239 11.0239 11.0239 11.0239 9.76773 9.76773 9.76773 9.76773 9.95249 9.95249 9.95249 9.95249 10.1697 10.1697 10.1697 10.1697 9.97301 9.97301 9.97301 9.97301 10.0042 10.0042 10.0042 10.0042 9.88553 9.88553 9.88553 9.88553 9.84537 9.84537 9.84537 9.84537 9.95671 9.95671 9.95671 9.95671 10.535 10.535 10.535 10.535 10.9478 10.9478 10.9478 10.9478 9.9261 9.9261 9.9261 9.9261 9.85554 9.85554 9.85554 9.85554 9.9255 9.9255 9.9255 9.9255 9.88636 9.88636 9.88636 9.88636 9.82512 9.82512 9.82512 9.82512 9.99714 9.99714 9.99714 9.99714 9.85602 9.85602 9.85602 9.85602 9.88257 9.88257 9.88257 9.88257 10.0761 10.0761 10.0761 10.0761 9.79291 9.79291 9.79291 9.79291 9.87275 9.87275 9.87275 9.87275 16.6715 16.6715 16.6715 16.6715 9.94388 9.94388 9.94388 9.94388 9.77547 9.77547 9.77547 9.77547 9.98467 9.98467 9.98467 9.98467 10.1066 10.1066 10.1066 10.1066 9.93708 9.93708 9.93708 9.93708 9.95176 9.95176 9.95176 9.95176 9.77521 9.77521 9.77521 9.77521 9.99289 9.99289 9.99289 9.99289 3.02037 3.02037 3.02037 3.02037 4.83506 4.83506 4.83506 4.83506 10.6412 10.6412 10.6412 10.6412 3.4863 3.4863 3.4863 3.4863 9.85345 9.85345 9.85345 9.85345 9.67306 9.67306 9.67306 9.67306 7.2167 7.2167 7.2167 7.2167 9.93536 9.93536 9.93536 9.93536 6.64423 6.64423 6.64423 6.64423 12.7518 12.7518 12.7518 12.7518 10.0042 10.0042 10.0042 10.0042 10.1009 10.1009 10.1009 10.1009 9.4339 9.4339 9.4339 9.4339 9.93254 9.93254 9.93254 9.93254 3.85125 3.85125 3.85125 3.85125 11.1807 11.1807 11.1807 11.1807 10.0025 10.0025 10.0025 10.0025 9.92714 9.92714 9.92714 9.92714 9.96719 9.96719 9.96719 9.96719 9.89699 9.89699 9.89699 9.89699 9.43402 9.43402 9.43402 9.43402 9.96221 9.96221 9.96221 9.96221 12.6052 12.6052 12.6052 12.6052 9.95371 9.95371 9.95371 9.95371 10.0481 10.0481 10.0481 10.0481 3.94088 3.94088 3.94088 3.94088 9.90263 9.90263 9.90263 9.90263 10.0261 10.0261 10.0261 10.0261 9.73715 9.73715 9.73715 9.73715 9.88417 9.88417 9.88417 9.88417 9.96238 9.96238 9.96238 9.96238 10.6378 10.6378 10.6378 10.6378 9.85246 9.85246 9.85246 9.85246 10.0715 10.0715 10.0715 10.0715 12.004 12.004 12.004 12.004 9.92799 9.92799 9.92799 9.92799 9.93078 9.93078 9.93078 9.93078 9.99903 9.99903 9.99903 9.99903 3.72941 3.72941 3.72941 3.72941 5.25801 5.25801 5.25801 5.25801 4.02705 4.02705 4.02705 4.02705 8.99415 8.99415 8.99415 8.99415 3.15672 3.15672 3.15672 3.15672 9.84393 9.84393 9.84393 9.84393 10.0672 10.0672 10.0672 10.0672 13.528 13.528 13.528 13.528 9.75281 9.75281 9.75281 9.75281 10.5263 10.5263 10.5263 10.5263 10.0059 10.0059 10.0059 10.0059 9.92833 9.92833 9.92833 9.92833 9.93092 9.93092 9.93092 9.93092 9.83453 9.83453 9.83453 9.83453 9.87895 9.87895 9.87895 9.87895 9.93397 9.93397 9.93397 9.93397 9.81137 9.81137 9.81137 9.81137 10.0755 10.0755 10.0755 10.0755 9.91548 9.91548 9.91548 9.91548 10.0781 10.0781 10.0781 10.0781 9.88527 9.88527 9.88527 9.88527 10.0018 10.0018 10.0018 10.0018 9.935 9.935 9.935 9.935 9.97688 9.97688 9.97688 9.97688 9.96896 9.96896 9.96896 9.96896 9.96565 9.96565 9.96565 9.96565 11.8424 11.8424 11.8424 11.8424 9.97774 9.97774 9.97774 9.97774 9.94415 9.94415 9.94415 9.94415 9.82726 9.82726 9.82726 9.82726 3.3436 3.3436 3.3436 3.3436 9.88046 9.88046 9.88046 9.88046 9.98006 9.98006 9.98006 9.98006 9.81837 9.81837 9.81837 9.81837 10.7451 10.7451 10.7451 10.7451 3.22297 3.22297 3.22297 3.22297 9.97928 9.97928 9.97928 9.97928 9.95327 9.95327 9.95327 9.95327 3.9735 3.9735 3.9735 3.9735 9.80415 9.80415 9.80415 9.80415 9.95763 9.95763 9.95763 9.95763 9.71439 9.71439 9.71439 9.71439 9.94359 9.94359 9.94359 9.94359 9.85494 9.85494 9.85494 9.85494 9.78333 9.78333 9.78333 9.78333 9.90664 9.90664 9.90664 9.90664 9.99568 9.99568 9.99568 9.99568 8.69974 8.69974 8.69974 8.69974 10.0717 10.0717 10.0717 10.0717 9.98225 9.98225 9.98225 9.98225 9.92478 9.92478 9.92478 9.92478 9.82352 9.82352 9.82352 9.82352 9.84074 9.84074 9.84074 9.84074 9.97639 9.97639 9.97639 9.97639 10.0289 10.0289 10.0289 10.0289 9.84964 9.84964 9.84964 9.84964 9.98267 9.98267 9.98267 9.98267 9.86196 9.86196 9.86196 9.86196 9.92963 9.92963 9.92963 9.92963 9.97809 9.97809 9.97809 9.97809 12.3807 12.3807 12.3807 12.3807 9.9784 9.9784 9.9784 9.9784 4.89647 4.89647 4.89647 4.89647 10.0034 10.0034 10.0034 10.0034 9.75115 9.75115 9.75115 9.75115 3.4955 3.4955 3.4955 3.4955 10.0284 10.0284 10.0284 10.0284 10.0455 10.0455 10.0455 10.0455 9.8508 9.8508 9.8508 9.8508 10.0079 10.0079 10.0079 10.0079 9.81468 9.81468 9.81468 9.81468 9.65903 9.65903 9.65903 9.65903 9.84669 9.84669 9.84669 9.84669 9.87175 9.87175 9.87175 9.87175 9.97701 9.97701 9.97701 9.97701 9.69151 9.69151 9.69151 9.69151 9.88837 9.88837 9.88837 9.88837 4.04205 4.04205 4.04205 4.04205 9.98281 9.98281 9.98281 9.98281 10.5059 10.5059 10.5059 10.5059 11.9377 11.9377 11.9377 11.9377 10.8246 10.8246 10.8246 10.8246 9.94582 9.94582 9.94582 9.94582 10.5914 10.5914 10.5914 10.5914 9.87845 9.87845 9.87845 9.87845 9.96628 9.96628 9.96628 9.96628 10.243 10.243 10.243 10.243 9.93241 9.93241 9.93241 9.93241 11.0322 11.0322 11.0322 11.0322 9.92364 9.92364 9.92364 9.92364 9.84454 9.84454 9.84454 9.84454 9.98394 9.98394 9.98394 9.98394 9.82405 9.82405 9.82405 9.82405 9.77558 9.77558 9.77558 9.77558 9.7684 9.7684 9.7684 9.7684 9.56776 9.56776 9.56776 9.56776 9.84602 9.84602 9.84602 9.84602 9.95375 9.95375 9.95375 9.95375 10.2409 10.2409 10.2409 10.2409 10.3233 10.3233 10.3233 10.3233 8.91289 8.91289 8.91289 8.91289 9.95477 9.95477 9.95477 9.95477 10.0095 10.0095 10.0095 10.0095 10.0018 10.0018 10.0018 10.0018 9.95102 9.95102 9.95102 9.95102 10.0069 10.0069 10.0069 10.0069 9.96816 9.96816 9.96816 9.96816 9.82182 9.82182 9.82182 9.82182 9.99465 9.99465 9.99465 9.99465 9.96802 9.96802 9.96802 9.96802 10.9498 10.9498 10.9498 10.9498 9.94192 9.94192 9.94192 9.94192 11.9144 11.9144 11.9144 11.9144 10.3043 10.3043 10.3043 10.3043 9.88368 9.88368 9.88368 9.88368 10.8619 10.8619 10.8619 10.8619 9.9801 9.9801 9.9801 9.9801 9.98083 9.98083 9.98083 9.98083 9.76033 9.76033 9.76033 9.76033 9.98234 9.98234 9.98234 9.98234 9.98808 9.98808 9.98808 9.98808 9.98158 9.98158 9.98158 9.98158 12.3104 12.3104 12.3104 12.3104 10.4491 10.4491 10.4491 10.4491 9.85891 9.85891 9.85891 9.85891 9.87448 9.87448 9.87448 9.87448 9.98237 9.98237 9.98237 9.98237 10.1539 10.1539 10.1539 10.1539 9.8613 9.8613 9.8613 9.8613 9.8569 9.8569 9.8569 9.8569 10.4067 10.4067 10.4067 10.4067 9.93657 9.93657 9.93657 9.93657 9.95867 9.95867 9.95867 9.95867 9.82068 9.82068 9.82068 9.82068 9.88317 9.88317 9.88317 9.88317 10.773 10.773 10.773 10.773 9.93903 9.93903 9.93903 9.93903 10.0957 10.0957 10.0957 10.0957 9.95515 9.95515 9.95515 9.95515 10.6144 10.6144 10.6144 10.6144 9.97363 9.97363 9.97363 9.97363 9.98573 9.98573 9.98573 9.98573 9.7648 9.7648 9.7648 9.7648 9.82907 9.82907 9.82907 9.82907 9.86615 9.86615 9.86615 9.86615 9.97319 9.97319 9.97319 9.97319 10.0202 10.0202 10.0202 10.0202 9.98656 9.98656 9.98656 9.98656 9.95496 9.95496 9.95496 9.95496 10.6459 10.6459 10.6459 10.6459 9.78598 9.78598 9.78598 9.78598 12.0143 12.0143 12.0143 12.0143 10.4882 10.4882 10.4882 10.4882 9.9742 9.9742 9.9742 9.9742 9.85655 9.85655 9.85655 9.85655 9.87489 9.87489 9.87489 9.87489 9.96129 9.96129 9.96129 9.96129 9.98854 9.98854 9.98854 9.98854 9.91706 9.91706 9.91706 9.91706 9.89013 9.89013 9.89013 9.89013 10.0063 10.0063 10.0063 10.0063 9.99434 9.99434 9.99434 9.99434 9.94665 9.94665 9.94665 9.94665 9.77893 9.77893 9.77893 9.77893 10.0015 10.0015 10.0015 10.0015 9.9838 9.9838 9.9838 9.9838 9.98511 9.98511 9.98511 9.98511 9.97889 9.97889 9.97889 9.97889 9.66666 9.66666 9.66666 9.66666 9.84922 9.84922 9.84922 9.84922 9.95505 9.95505 9.95505 9.95505 9.96465 9.96465 9.96465 9.96465 9.79492 9.79492 9.79492 9.79492 9.87666 9.87666 9.87666 9.87666 10.0344 10.0344 10.0344 10.0344 10.0116 10.0116 10.0116 10.0116 6.09278 6.09278 6.09278 6.09278 2.84924 2.84924 2.84924 2.84924 9.97294 9.97294 9.97294 9.97294 9.96763 9.96763 9.96763 9.96763 9.97692 9.97692 9.97692 9.97692 9.87341 9.87341 9.87341 9.87341 3.50482 3.50482 3.50482 3.50482 10.1799 10.1799 10.1799 10.1799 9.98485 9.98485 9.98485 9.98485 10.7465 10.7465 10.7465 10.7465 9.9582 9.9582 9.9582 9.9582 9.98624 9.98624 9.98624 9.98624 9.40616 9.40616 9.40616 9.40616 9.98521 9.98521 9.98521 9.98521 9.94486 9.94486 9.94486 9.94486 12.7353 12.7353 12.7353 12.7353 9.85001 9.85001 9.85001 9.85001 9.98046 9.98046 9.98046 9.98046 14.161 14.161 14.161 14.161 10.0087 10.0087 10.0087 10.0087 9.95603 9.95603 9.95603 9.95603 12.0175 12.0175 12.0175 12.0175 9.99632 9.99632 9.99632 9.99632 10.0124 10.0124 10.0124 10.0124 15.6747 15.6747 15.6747 15.6747 9.78237 9.78237 9.78237 9.78237 9.9648 9.9648 9.9648 9.9648 9.96698 9.96698 9.96698 9.96698 9.91585 9.91585 9.91585 9.91585 9.79896 9.79896 9.79896 9.79896 9.87367 9.87367 9.87367 9.87367 9.82762 9.82762 9.82762 9.82762 9.97602 9.97602 9.97602 9.97602 13.7891 13.7891 13.7891 13.7891 9.92308 9.92308 9.92308 9.92308 9.99062 9.99062 9.99062 9.99062 9.97841 9.97841 9.97841 9.97841 10.3388 10.3388 10.3388 10.3388 9.77849 9.77849 9.77849 9.77849 10.7656 10.7656 10.7656 10.7656 9.97623 9.97623 9.97623 9.97623 9.76009 9.76009 9.76009 9.76009 9.99573 9.99573 9.99573 9.99573 9.98162 9.98162 9.98162 9.98162 9.9741 9.9741 9.9741 9.9741 9.97436 9.97436 9.97436 9.97436 10.6297 10.6297 10.6297 10.6297 9.86512 9.86512 9.86512 9.86512 6.77672 6.77672 6.77672 6.77672 16.4999 16.4999 16.4999 16.4999 9.97063 9.97063 9.97063 9.97063 9.97282 9.97282 9.97282 9.97282 10.2371 10.2371 10.2371 10.2371 9.96672 9.96672 9.96672 9.96672 9.98767 9.98767 9.98767 9.98767 9.73272 9.73272 9.73272 9.73272 9.89727 9.89727 9.89727 9.89727 9.7987 9.7987 9.7987 9.7987 10.4827 10.4827 10.4827 10.4827 9.88704 9.88704 9.88704 9.88704 10.0529 10.0529 10.0529 10.0529 10.0756 10.0756 10.0756 10.0756 9.83898 9.83898 9.83898 9.83898 9.9743 9.9743 9.9743 9.9743 9.86274 9.86274 9.86274 9.86274 10.0934 10.0934 10.0934 10.0934 9.86862 9.86862 9.86862 9.86862 9.90813 9.90813 9.90813 9.90813 9.97447 9.97447 9.97447 9.97447 9.90445 9.90445 9.90445 9.90445 9.95602 9.95602 9.95602 9.95602 9.94868 9.94868 9.94868 9.94868 9.98484 9.98484 9.98484 9.98484 9.9837 9.9837 9.9837 9.9837 3.29383 3.29383 3.29383 3.29383 12.1075 12.1075 12.1075 12.1075 10.1022 10.1022 10.1022 10.1022 9.92563 9.92563 9.92563 9.92563 9.41095 9.41095 9.41095 9.41095 9.51559 9.51559 9.51559 9.51559 9.84924 9.84924 9.84924 9.84924 9.83761 9.83761 9.83761 9.83761 9.97151 9.97151 9.97151 9.97151 10.0023 10.0023 10.0023 10.0023 9.84897 9.84897 9.84897 9.84897 9.95498 9.95498 9.95498 9.95498 10.0162 10.0162 10.0162 10.0162 9.80604 9.80604 9.80604 9.80604 11.0219 11.0219 11.0219 11.0219 9.91175 9.91175 9.91175 9.91175 9.90463 9.90463 9.90463 9.90463 9.98571 9.98571 9.98571 9.98571 9.92927 9.92927 9.92927 9.92927 9.92586 9.92586 9.92586 9.92586 9.9811 9.9811 9.9811 9.9811 10.0887 10.0887 10.0887 10.0887 9.77932 9.77932 9.77932 9.77932 9.96053 9.96053 9.96053 9.96053 9.98222 9.98222 9.98222 9.98222 9.81989 9.81989 9.81989 9.81989 9.78054 9.78054 9.78054 9.78054 9.86098 9.86098 9.86098 9.86098 10.0395 10.0395 10.0395 10.0395 9.96973 9.96973 9.96973 9.96973 9.76363 9.76363 9.76363 9.76363 10.091 10.091 10.091 10.091 9.80999 9.80999 9.80999 9.80999 10.6669 10.6669 10.6669 10.6669 9.93435 9.93435 9.93435 9.93435 9.95507 9.95507 9.95507 9.95507 10.0116 10.0116 10.0116 10.0116 9.9126 9.9126 9.9126 9.9126 9.97346 9.97346 9.97346 9.97346 9.94093 9.94093 9.94093 9.94093 3.4263 3.4263 3.4263 3.4263 10.0332 10.0332 10.0332 10.0332 10.2399 10.2399 10.2399 10.2399 9.95876 9.95876 9.95876 9.95876 9.77828 9.77828 9.77828 9.77828 9.97368 9.97368 9.97368 9.97368 9.9831 9.9831 9.9831 9.9831 9.97689 9.97689 9.97689 9.97689 10.0064 10.0064 10.0064 10.0064 9.95671 9.95671 9.95671 9.95671 9.95417 9.95417 9.95417 9.95417 9.93416 9.93416 9.93416 9.93416 11.7895 11.7895 11.7895 11.7895 9.94046 9.94046 9.94046 9.94046 9.79366 9.79366 9.79366 9.79366 9.79279 9.79279 9.79279 9.79279 9.94651 9.94651 9.94651 9.94651 14.7269 14.7269 14.7269 14.7269 9.99142 9.99142 9.99142 9.99142 9.9297 9.9297 9.9297 9.9297 9.82062 9.82062 9.82062 9.82062 9.98173 9.98173 9.98173 9.98173 9.95674 9.95674 9.95674 9.95674 9.98261 9.98261 9.98261 9.98261 9.92456 9.92456 9.92456 9.92456 9.95507 9.95507 9.95507 9.95507 10.0083 10.0083 10.0083 10.0083 10.0133 10.0133 10.0133 10.0133 10.086 10.086 10.086 10.086 9.97591 9.97591 9.97591 9.97591 10.3525 10.3525 10.3525 10.3525 9.9528 9.9528 9.9528 9.9528 10.4236 10.4236 10.4236 10.4236 9.78831 9.78831 9.78831 9.78831 10.0482 10.0482 10.0482 10.0482 9.99781 9.99781 9.99781 9.99781 3.80174 3.80174 3.80174 3.80174 9.84774 9.84774 9.84774 9.84774 9.84141 9.84141 9.84141 9.84141 9.96635 9.96635 9.96635 9.96635 9.949 9.949 9.949 9.949 10.9651 10.9651 10.9651 10.9651 9.97392 9.97392 9.97392 9.97392 9.95394 9.95394 9.95394 9.95394 9.99866 9.99866 9.99866 9.99866 9.95049 9.95049 9.95049 9.95049 9.92253 9.92253 9.92253 9.92253 9.9819 9.9819 9.9819 9.9819 9.78035 9.78035 9.78035 9.78035 10.0166 10.0166 10.0166 10.0166 9.97504 9.97504 9.97504 9.97504 11.9409 11.9409 11.9409 11.9409 10.0369 10.0369 10.0369 10.0369 9.92772 9.92772 9.92772 9.92772 10.0031 10.0031 10.0031 10.0031 10.0922 10.0922 10.0922 10.0922 9.9519 9.9519 9.9519 9.9519 9.92706 9.92706 9.92706 9.92706 11.8938 11.8938 11.8938 11.8938 10.0213 10.0213 10.0213 10.0213 9.9777 9.9777 9.9777 9.9777 9.98274 9.98274 9.98274 9.98274 9.90476 9.90476 9.90476 9.90476 9.96315 9.96315 9.96315 9.96315 9.94893 9.94893 9.94893 9.94893 9.88718 9.88718 9.88718 9.88718 9.97405 9.97405 9.97405 9.97405 10.0997 10.0997 10.0997 10.0997 9.8647 9.8647 9.8647 9.8647 9.95127 9.95127 9.95127 9.95127 9.86132 9.86132 9.86132 9.86132 9.98545 9.98545 9.98545 9.98545 9.99687 9.99687 9.99687 9.99687 9.79864 9.79864 9.79864 9.79864 9.87634 9.87634 9.87634 9.87634 10.1364 10.1364 10.1364 10.1364 10.0576 10.0576 10.0576 10.0576 10.7981 10.7981 10.7981 10.7981 10.0404 10.0404 10.0404 10.0404 9.92207 9.92207 9.92207 9.92207 9.94757 9.94757 9.94757 9.94757 11.3634 11.3634 11.3634 11.3634 9.9722 9.9722 9.9722 9.9722 9.95344 9.95344 9.95344 9.95344 9.89175 9.89175 9.89175 9.89175 9.95469 9.95469 9.95469 9.95469 9.83497 9.83497 9.83497 9.83497 9.91225 9.91225 9.91225 9.91225 9.98451 9.98451 9.98451 9.98451 9.97314 9.97314 9.97314 9.97314 9.89374 9.89374 9.89374 9.89374 11.3727 11.3727 11.3727 11.3727 9.97771 9.97771 9.97771 9.97771 10.0718 10.0718 10.0718 10.0718 9.88855 9.88855 9.88855 9.88855 3.55191 3.55191 3.55191 3.55191 9.86918 9.86918 9.86918 9.86918 9.98574 9.98574 9.98574 9.98574 9.87721 9.87721 9.87721 9.87721 9.97681 9.97681 9.97681 9.97681 9.9979 9.9979 9.9979 9.9979 9.95394 9.95394 9.95394 9.95394 9.788 9.788 9.788 9.788 9.97378 9.97378 9.97378 9.97378 10.0765 10.0765 10.0765 10.0765 9.95413 9.95413 9.95413 9.95413 9.97015 9.97015 9.97015 9.97015 9.9738 9.9738 9.9738 9.9738 8.22862 8.22862 8.22862 8.22862 9.98395 9.98395 9.98395 9.98395 10.1871 10.1871 10.1871 10.1871 12.2101 12.2101 12.2101 12.2101 2.70735 2.70735 2.70735 2.70735 9.89692 9.89692 9.89692 9.89692 9.94071 9.94071 9.94071 9.94071 9.85567 9.85567 9.85567 9.85567 9.94822 9.94822 9.94822 9.94822 9.98306 9.98306 9.98306 9.98306 10.6691 10.6691 10.6691 10.6691 10.3626 10.3626 10.3626 10.3626 10.0579 10.0579 10.0579 10.0579 10.0397 10.0397 10.0397 10.0397 9.89092 9.89092 9.89092 9.89092 9.94474 9.94474 9.94474 9.94474 13.7903 13.7903 13.7903 13.7903 3.61175 3.61175 3.61175 3.61175 9.98084 9.98084 9.98084 9.98084 9.80568 9.80568 9.80568 9.80568 9.92472 9.92472 9.92472 9.92472 10.0578 10.0578 10.0578 10.0578 10.007 10.007 10.007 10.007 9.98054 9.98054 9.98054 9.98054 10.1714 10.1714 10.1714 10.1714 10.1834 10.1834 10.1834 10.1834 9.81809 9.81809 9.81809 9.81809 12.5042 12.5042 12.5042 12.5042 13.2501 13.2501 13.2501 13.2501 9.86961 9.86961 9.86961 9.86961 9.93559 9.93559 9.93559 9.93559 9.82886 9.82886 9.82886 9.82886 9.98321 9.98321 9.98321 9.98321 9.81602 9.81602 9.81602 9.81602 9.90718 9.90718 9.90718 9.90718 9.81132 9.81132 9.81132 9.81132 10.5692 10.5692 10.5692 10.5692 10.5692 10.5692 10.5692 10.5692 9.98206 9.98206 9.98206 9.98206 9.94914 9.94914 9.94914 9.94914 9.89733 9.89733 9.89733 9.89733 9.97095 9.97095 9.97095 9.97095 9.98495 9.98495 9.98495 9.98495 9.92806 9.92806 9.92806 9.92806 10.101 10.101 10.101 10.101 10.0501 10.0501 10.0501 10.0501 9.92808 9.92808 9.92808 9.92808 8.65616 8.65616 8.65616 8.65616 9.94939 9.94939 9.94939 9.94939 10.1011 10.1011 10.1011 10.1011 10.2958 10.2958 10.2958 10.2958 9.79912 9.79912 9.79912 9.79912 10.1612 10.1612 10.1612 10.1612 10.0347 10.0347 10.0347 10.0347 9.85333 9.85333 9.85333 9.85333 4.7568 4.7568 4.7568 4.7568 10.9547 10.9547 10.9547 10.9547 9.95808 9.95808 9.95808 9.95808 10.0025 10.0025 10.0025 10.0025 10.0057 10.0057 10.0057 10.0057 9.89905 9.89905 9.89905 9.89905 9.96601 9.96601 9.96601 9.96601 9.91842 9.91842 9.91842 9.91842 12.182 12.182 12.182 12.182 9.97871 9.97871 9.97871 9.97871 10.3022 10.3022 10.3022 10.3022 16.7448 16.7448 16.7448 16.7448 10.0517 10.0517 10.0517 10.0517 9.97634 9.97634 9.97634 9.97634 9.8858 9.8858 9.8858 9.8858 11.9982 11.9982 11.9982 11.9982 10.4221 10.4221 10.4221 10.4221 9.97382 9.97382 9.97382 9.97382 10.0871 10.0871 10.0871 10.0871 9.98707 9.98707 9.98707 9.98707 9.95748 9.95748 9.95748 9.95748 9.80613 9.80613 9.80613 9.80613 9.95036 9.95036 9.95036 9.95036 10.0254 10.0254 10.0254 10.0254 3.02996 3.02996 3.02996 3.02996 3.75184 3.75184 3.75184 3.75184 9.95764 9.95764 9.95764 9.95764 6.86172 6.86172 6.86172 6.86172 10.2333 10.2333 10.2333 10.2333 10.0085 10.0085 10.0085 10.0085 9.8045 9.8045 9.8045 9.8045 16.2237 16.2237 16.2237 16.2237 9.94788 9.94788 9.94788 9.94788 9.88135 9.88135 9.88135 9.88135 9.97062 9.97062 9.97062 9.97062 9.77985 9.77985 9.77985 9.77985 9.9719 9.9719 9.9719 9.9719 9.94241 9.94241 9.94241 9.94241 9.98075 9.98075 9.98075 9.98075 9.98154 9.98154 9.98154 9.98154 10.023 10.023 10.023 10.023 9.978 9.978 9.978 9.978 9.90017 9.90017 9.90017 9.90017 10.4334 10.4334 10.4334 10.4334 9.93057 9.93057 9.93057 9.93057 9.88984 9.88984 9.88984 9.88984 10.1185 10.1185 10.1185 10.1185 5.93612 5.93612 5.93612 5.93612 10.031 10.031 10.031 10.031 10.0069 10.0069 10.0069 10.0069 11.517 11.517 11.517 11.517 9.92832 9.92832 9.92832 9.92832 9.98047 9.98047 9.98047 9.98047 8.54687 8.54687 8.54687 8.54687 10.292 10.292 10.292 10.292 10.0004 10.0004 10.0004 10.0004 10.7451 10.7451 10.7451 10.7451 10.2732 10.2732 10.2732 10.2732 9.88931 9.88931 9.88931 9.88931 10.0133 10.0133 10.0133 10.0133 9.80545 9.80545 9.80545 9.80545 3.10859 3.10859 3.10859 3.10859 10.316 10.316 10.316 10.316 10.0888 10.0888 10.0888 10.0888 12.4079 12.4079 12.4079 12.4079 9.97673 9.97673 9.97673 9.97673 9.98408 9.98408 9.98408 9.98408 9.97857 9.97857 9.97857 9.97857 10.0045 10.0045 10.0045 10.0045 3.47276 3.47276 3.47276 3.47276 9.88663 9.88663 9.88663 9.88663 9.88983 9.88983 9.88983 9.88983 9.98352 9.98352 9.98352 9.98352 10.0053 10.0053 10.0053 10.0053 10.2023 10.2023 10.2023 10.2023 9.95158 9.95158 9.95158 9.95158 9.81737 9.81737 9.81737 9.81737 4.35965 4.35965 4.35965 4.35965 10.0043 10.0043 10.0043 10.0043 9.98277 9.98277 9.98277 9.98277 9.98013 9.98013 9.98013 9.98013 9.98058 9.98058 9.98058 9.98058 9.98395 9.98395 9.98395 9.98395 9.90162 9.90162 9.90162 9.90162 9.98805 9.98805 9.98805 9.98805 9.98251 9.98251 9.98251 9.98251 9.86215 9.86215 9.86215 9.86215 10.0137 10.0137 10.0137 10.0137 4.2835 4.2835 4.2835 4.2835 10.0641 10.0641 10.0641 10.0641 10.0562 10.0562 10.0562 10.0562 9.98194 9.98194 9.98194 9.98194 10.1861 10.1861 10.1861 10.1861 4.32935 4.32935 4.32935 4.32935 9.94965 9.94965 9.94965 9.94965 11.8528 11.8528 11.8528 11.8528 10.1104 10.1104 10.1104 10.1104 9.89333 9.89333 9.89333 9.89333 9.95171 9.95171 9.95171 9.95171 9.89779 9.89779 9.89779 9.89779 12.2096 12.2096 12.2096 12.2096 9.96045 9.96045 9.96045 9.96045 6.17789 6.17789 6.17789 6.17789 9.97491 9.97491 9.97491 9.97491 9.80456 9.80456 9.80456 9.80456 9.83528 9.83528 9.83528 9.83528 9.78177 9.78177 9.78177 9.78177 10.3325 10.3325 10.3325 10.3325 9.98268 9.98268 9.98268 9.98268 9.98332 9.98332 9.98332 9.98332 10.0371 10.0371 10.0371 10.0371 10.0091 10.0091 10.0091 10.0091 9.8992 9.8992 9.8992 9.8992 9.85998 9.85998 9.85998 9.85998 11.7486 11.7486 11.7486 11.7486 13.5849 13.5849 13.5849 13.5849 9.97916 9.97916 9.97916 9.97916 9.99294 9.99294 9.99294 9.99294 9.98126 9.98126 9.98126 9.98126 9.99887 9.99887 9.99887 9.99887 9.98108 9.98108 9.98108 9.98108 9.9829 9.9829 9.9829 9.9829 12.5059 12.5059 12.5059 12.5059 9.86594 9.86594 9.86594 9.86594 9.88957 9.88957 9.88957 9.88957 9.86462 9.86462 9.86462 9.86462 10.0925 10.0925 10.0925 10.0925 9.97461 9.97461 9.97461 9.97461 9.97252 9.97252 9.97252 9.97252 9.93749 9.93749 9.93749 9.93749 9.83326 9.83326 9.83326 9.83326 9.98209 9.98209 9.98209 9.98209 9.90304 9.90304 9.90304 9.90304 12.1363 12.1363 12.1363 12.1363 17.1501 17.1501 17.1501 17.1501 5.62868 5.62868 5.62868 5.62868 9.98638 9.98638 9.98638 9.98638 9.98395 9.98395 9.98395 9.98395 3.91826 3.91826 3.91826 3.91826 9.77656 9.77656 9.77656 9.77656 9.96006 9.96006 9.96006 9.96006 10.0167 10.0167 10.0167 10.0167 9.9903 9.9903 9.9903 9.9903 9.98555 9.98555 9.98555 9.98555 9.89308 9.89308 9.89308 9.89308 13.7398 13.7398 13.7398 13.7398 10.6478 10.6478 10.6478 10.6478 9.98175 9.98175 9.98175 9.98175 9.975 9.975 9.975 9.975 9.96564 9.96564 9.96564 9.96564 9.97926 9.97926 9.97926 9.97926 9.98449 9.98449 9.98449 9.98449 9.9697 9.9697 9.9697 9.9697 9.98711 9.98711 9.98711 9.98711 5.5891 5.5891 5.5891 5.5891 10.0008 10.0008 10.0008 10.0008 9.98385 9.98385 9.98385 9.98385 10.0121 10.0121 10.0121 10.0121 9.97909 9.97909 9.97909 9.97909 9.9842 9.9842 9.9842 9.9842 10.0025 10.0025 10.0025 10.0025 9.98522 9.98522 9.98522 9.98522 9.98553 9.98553 9.98553 9.98553 10.5754 10.5754 10.5754 10.5754 10.3016 10.3016 10.3016 10.3016 9.98588 9.98588 9.98588 9.98588 12.9374 12.9374 12.9374 12.9374 9.98459 9.98459 9.98459 9.98459 9.98352 9.98352 9.98352 9.98352 10.0004 10.0004 10.0004 10.0004 10.2392 10.2392 10.2392 10.2392 10.2047 10.2047 10.2047 10.2047 9.98775 9.98775 9.98775 9.98775 9.99014 9.99014 9.99014 9.99014 10.0085 10.0085 10.0085 10.0085 9.99095 9.99095 9.99095 9.99095 10.357 10.357 10.357 10.357 10.2744 10.2744 10.2744 10.2744 9.98759 9.98759 9.98759 9.98759 10.2417 10.2417 10.2417 10.2417 2.74615 2.74615 2.74615 2.74615 9.97319 9.97319 9.97319 9.97319 9.9875 9.9875 9.9875 9.9875 9.93755 9.93755 9.93755 9.93755 9.98814 9.98814 9.98814 9.98814 9.98535 9.98535 9.98535 9.98535 10.0117 10.0117 10.0117 10.0117 10.0627 10.0627 10.0627 10.0627 10.0393 10.0393 10.0393 10.0393 9.96144 9.96144 9.96144 9.96144 9.99667 9.99667 9.99667 9.99667 9.98787 9.98787 9.98787 9.98787 9.98634 9.98634 9.98634 9.98634 12.6025 12.6025 12.6025 12.6025 9.99315 9.99315 9.99315 9.99315 10.0053 10.0053 10.0053 10.0053 9.99119 9.99119 9.99119 9.99119 9.98597 9.98597 9.98597 9.98597 10.013 10.013 10.013 10.013 10.0473 10.0473 10.0473 10.0473 3.47607 3.47607 3.47607 3.47607 3.32265 3.32265 3.32265 3.32265 9.99339 9.99339 9.99339 9.99339 9.98404 9.98404 9.98404 9.98404 12.6771 12.6771 12.6771 12.6771 9.98986 9.98986 9.98986 9.98986 3.3981 3.3981 3.3981 3.3981 9.72769 9.72769 9.72769 9.72769 9.62826 9.62826 9.62826 9.62826 9.75977 9.75977 9.75977 9.75977 9.81241 9.81241 9.81241 9.81241 9.79986 9.79986 9.79986 9.79986 9.82277 9.82277 9.82277 9.82277 9.84381 9.84381 9.84381 9.84381 9.87706 9.87706 9.87706 9.87706 6.10538 6.10538 6.10538 6.10538 7.39219 7.39219 7.39219 7.39219 13.5739 13.5739 13.5739 13.5739 11.1987 11.1987 11.1987 11.1987 10.4145 10.4145 10.4145 10.4145 10.031 10.031 10.031 10.031 9.57082 9.57082 9.57082 9.57082 9.5243 9.5243 9.5243 9.5243 9.97953 9.97953 9.97953 9.97953 9.93535 9.93535 9.93535 9.93535 9.89554 9.89554 9.89554 9.89554 9.96206 9.96206 9.96206 9.96206 9.8475 9.8475 9.8475 9.8475 9.86658 9.86658 9.86658 9.86658 9.8391 9.8391 9.8391 9.8391 9.82201 9.82201 9.82201 9.82201 9.87179 9.87179 9.87179 9.87179 9.81319 9.81319 9.81319 9.81319 9.91435 9.91435 9.91435 9.91435 9.95255 9.95255 9.95255 9.95255 6.35333 6.35333 6.35333 6.35333 4.10053 4.10053 4.10053 4.10053 9.88007 9.88007 9.88007 9.88007 9.92361 9.92361 9.92361 9.92361 10.0802 10.0802 10.0802 10.0802 10.1446 10.1446 10.1446 10.1446 11.0617 11.0617 11.0617 11.0617 9.8057 9.8057 9.8057 9.8057 13.1945 13.1945 13.1945 13.1945 11.0882 11.0882 11.0882 11.0882 3.79511 3.79511 3.79511 3.79511 6.0119 6.0119 6.0119 6.0119 9.8073 9.8073 9.8073 9.8073 9.85679 9.85679 9.85679 9.85679 9.9794 9.9794 9.9794 9.9794 9.95133 9.95133 9.95133 9.95133 9.79004 9.79004 9.79004 9.79004 9.78001 9.78001 9.78001 9.78001 10.1242 10.1242 10.1242 10.1242 10.2394 10.2394 10.2394 10.2394 12.5451 12.5451 12.5451 12.5451 11.1075 11.1075 11.1075 11.1075 9.94468 9.94468 9.94468 9.94468 9.9779 9.9779 9.9779 9.9779 9.91993 9.91993 9.91993 9.91993 9.94316 9.94316 9.94316 9.94316 9.95835 9.95835 9.95835 9.95835 9.97778 9.97778 9.97778 9.97778 9.76463 9.76463 9.76463 9.76463 9.75909 9.75909 9.75909 9.75909 9.97467 9.97467 9.97467 9.97467 10.6145 10.6145 10.6145 10.6145 5.48364 5.48364 5.48364 5.48364 8.27915 8.27915 8.27915 8.27915 9.78728 9.78728 9.78728 9.78728 9.85505 9.85505 9.85505 9.85505 8.43766 8.43766 8.43766 8.43766 8.84511 8.84511 8.84511 8.84511 10.0434 10.0434 10.0434 10.0434 10.1072 10.1072 10.1072 10.1072 9.96201 9.96201 9.96201 9.96201 9.92429 9.92429 9.92429 9.92429 5.73589 5.73589 5.73589 5.73589 9.09209 9.09209 9.09209 9.09209 10.3867 10.3867 10.3867 10.3867 10.3633 10.3633 10.3633 10.3633 9.55274 9.55274 9.55274 9.55274 8.71141 8.71141 8.71141 8.71141 9.83866 9.83866 9.83866 9.83866 9.84563 9.84563 9.84563 9.84563 9.92004 9.92004 9.92004 9.92004 9.89146 9.89146 9.89146 9.89146 9.94517 9.94517 9.94517 9.94517 9.88788 9.88788 9.88788 9.88788 13.8525 13.8525 13.8525 13.8525 9.96718 9.96718 9.96718 9.96718 9.97547 9.97547 9.97547 9.97547 9.9338 9.9338 9.9338 9.9338 9.97728 9.97728 9.97728 9.97728 9.95785 9.95785 9.95785 9.95785 9.92596 9.92596 9.92596 9.92596 9.93511 9.93511 9.93511 9.93511 9.95904 9.95904 9.95904 9.95904 9.97785 9.97785 9.97785 9.97785 10.0056 10.0056 10.0056 10.0056 10.0589 10.0589 10.0589 10.0589 9.95728 9.95728 9.95728 9.95728 9.9263 9.9263 9.9263 9.9263 9.95612 9.95612 9.95612 9.95612 9.92066 9.92066 9.92066 9.92066 9.95267 9.95267 9.95267 9.95267 9.92803 9.92803 9.92803 9.92803 6.43084 6.43084 6.43084 6.43084 3.27098 3.27098 3.27098 3.27098 9.98153 9.98153 9.98153 9.98153 9.93049 9.93049 9.93049 9.93049 9.79938 9.79938 9.79938 9.79938 9.79303 9.79303 9.79303 9.79303 9.81455 9.81455 9.81455 9.81455 9.83123 9.83123 9.83123 9.83123 9.44505 9.44505 9.44505 9.44505 3.46941 3.46941 3.46941 3.46941 9.80851 9.80851 9.80851 9.80851 9.81772 9.81772 9.81772 9.81772 10.936 10.936 10.936 10.936 13.1233 13.1233 13.1233 13.1233 6.35797 6.35797 6.35797 6.35797 5.26496 5.26496 5.26496 5.26496 9.88737 9.88737 9.88737 9.88737 9.89712 9.89712 9.89712 9.89712 9.99186 9.99186 9.99186 9.99186 9.97061 9.97061 9.97061 9.97061 10.2316 10.2316 10.2316 10.2316 10.0343 10.0343 10.0343 10.0343 10.3107 10.3107 10.3107 10.3107 9.9675 9.9675 9.9675 9.9675 9.74932 9.74932 9.74932 9.74932 9.75781 9.75781 9.75781 9.75781 9.85659 9.85659 9.85659 9.85659 9.83837 9.83837 9.83837 9.83837 9.99228 9.99228 9.99228 9.99228 9.97481 9.97481 9.97481 9.97481 10.0128 10.0128 10.0128 10.0128 9.99025 9.99025 9.99025 9.99025 9.98162 9.98162 9.98162 9.98162 9.9663 9.9663 9.9663 9.9663 10.1071 10.1071 10.1071 10.1071 10.1865 10.1865 10.1865 10.1865 -9.84555 -9.84555 -9.84555 -9.84555 -8.33362 -8.33362 -8.33362 -8.33362 -5.42439 -5.42439 -5.42439 -5.42439 -8.31489 -8.31489 -8.31489 -8.31489 -9.73283 -9.73283 -9.73283 -9.73283 -9.82321 -9.82321 -9.82321 -9.82321 -9.85371 -9.85371 -9.85371 -9.85371 -9.72952 -9.72952 -9.72952 -9.72952 -9.80954 -9.80954 -9.80954 -9.80954 -9.82939 -9.82939 -9.82939 -9.82939 -9.66465 -9.66465 -9.66465 -9.66465 -9.85395 -9.85395 -9.85395 -9.85395 -8.25955 -8.25955 -8.25955 -8.25955 -9.71814 -9.71814 -9.71814 -9.71814 -9.74378 -9.74378 -9.74378 -9.74378 -9.59051 -9.59051 -9.59051 -9.59051 -9.91715 -9.91715 -9.91715 -9.91715 -9.39589 -9.39589 -9.39589 -9.39589 -9.86444 -9.86444 -9.86444 -9.86444 -9.9461 -9.9461 -9.9461 -9.9461 -9.87169 -9.87169 -9.87169 -9.87169 -10.1425 -10.1425 -10.1425 -10.1425 -3.75048 -3.75048 -3.75048 -3.75048 -9.96366 -9.96366 -9.96366 -9.96366 -10.5428 -10.5428 -10.5428 -10.5428 -9.80188 -9.80188 -9.80188 -9.80188 -9.87473 -9.87473 -9.87473 -9.87473 -9.86558 -9.86558 -9.86558 -9.86558 -9.80914 -9.80914 -9.80914 -9.80914 -9.72509 -9.72509 -9.72509 -9.72509 -9.64508 -9.64508 -9.64508 -9.64508 -9.77437 -9.77437 -9.77437 -9.77437 -8.73374 -8.73374 -8.73374 -8.73374 -9.79366 -9.79366 -9.79366 -9.79366 -9.89526 -9.89526 -9.89526 -9.89526 -9.80736 -9.80736 -9.80736 -9.80736 -9.71319 -9.71319 -9.71319 -9.71319 -9.69414 -9.69414 -9.69414 -9.69414 -9.84422 -9.84422 -9.84422 -9.84422 -10.081 -10.081 -10.081 -10.081 -7.95488 -7.95488 -7.95488 -7.95488 -9.82388 -9.82388 -9.82388 -9.82388 -9.68783 -9.68783 -9.68783 -9.68783 -9.88982 -9.88982 -9.88982 -9.88982 -9.84666 -9.84666 -9.84666 -9.84666 -9.78816 -9.78816 -9.78816 -9.78816 -9.90525 -9.90525 -9.90525 -9.90525 -8.66061 -8.66061 -8.66061 -8.66061 -9.95029 -9.95029 -9.95029 -9.95029 -9.83453 -9.83453 -9.83453 -9.83453 -9.91962 -9.91962 -9.91962 -9.91962 -8.18322 -8.18322 -8.18322 -8.18322 -9.78279 -9.78279 -9.78279 -9.78279 -8.73602 -8.73602 -8.73602 -8.73602 -9.81341 -9.81341 -9.81341 -9.81341 -9.25376 -9.25376 -9.25376 -9.25376 -9.85114 -9.85114 -9.85114 -9.85114 -9.88985 -9.88985 -9.88985 -9.88985 -9.74131 -9.74131 -9.74131 -9.74131 -10.3521 -10.3521 -10.3521 -10.3521 -9.80847 -9.80847 -9.80847 -9.80847 -11.2971 -11.2971 -11.2971 -11.2971 -9.69145 -9.69145 -9.69145 -9.69145 -9.71917 -9.71917 -9.71917 -9.71917 -9.77145 -9.77145 -9.77145 -9.77145 -9.84336 -9.84336 -9.84336 -9.84336 -9.82646 -9.82646 -9.82646 -9.82646 -9.85255 -9.85255 -9.85255 -9.85255 -9.77895 -9.77895 -9.77895 -9.77895 -12.4333 -12.4333 -12.4333 -12.4333 -9.77358 -9.77358 -9.77358 -9.77358 -9.80356 -9.80356 -9.80356 -9.80356 -9.68892 -9.68892 -9.68892 -9.68892 -9.77792 -9.77792 -9.77792 -9.77792 -9.78949 -9.78949 -9.78949 -9.78949 -9.89353 -9.89353 -9.89353 -9.89353 -9.61421 -9.61421 -9.61421 -9.61421 -9.80819 -9.80819 -9.80819 -9.80819 -9.81681 -9.81681 -9.81681 -9.81681 -9.80659 -9.80659 -9.80659 -9.80659 -9.79896 -9.79896 -9.79896 -9.79896 -9.90746 -9.90746 -9.90746 -9.90746 -10.8697 -10.8697 -10.8697 -10.8697 -9.88316 -9.88316 -9.88316 -9.88316 -9.83094 -9.83094 -9.83094 -9.83094 -9.74712 -9.74712 -9.74712 -9.74712 -7.83435 -7.83435 -7.83435 -7.83435 -9.68687 -9.68687 -9.68687 -9.68687 -9.8293 -9.8293 -9.8293 -9.8293 -9.78649 -9.78649 -9.78649 -9.78649 -9.07002 -9.07002 -9.07002 -9.07002 -9.76435 -9.76435 -9.76435 -9.76435 -10.1882 -10.1882 -10.1882 -10.1882 -10.1054 -10.1054 -10.1054 -10.1054 -9.01452 -9.01452 -9.01452 -9.01452 -9.86265 -9.86265 -9.86265 -9.86265 -10.1846 -10.1846 -10.1846 -10.1846 -9.87003 -9.87003 -9.87003 -9.87003 -9.63377 -9.63377 -9.63377 -9.63377 -9.97816 -9.97816 -9.97816 -9.97816 -9.86286 -9.86286 -9.86286 -9.86286 -5.28237 -5.28237 -5.28237 -5.28237 -9.86038 -9.86038 -9.86038 -9.86038 -8.3939 -8.3939 -8.3939 -8.3939 -9.64815 -9.64815 -9.64815 -9.64815 -10.3346 -10.3346 -10.3346 -10.3346 -9.85288 -9.85288 -9.85288 -9.85288 -9.78269 -9.78269 -9.78269 -9.78269 -9.77023 -9.77023 -9.77023 -9.77023 -9.831 -9.831 -9.831 -9.831 -10.9741 -10.9741 -10.9741 -10.9741 -9.69207 -9.69207 -9.69207 -9.69207 -9.81615 -9.81615 -9.81615 -9.81615 -9.89785 -9.89785 -9.89785 -9.89785 -9.85505 -9.85505 -9.85505 -9.85505 -9.82584 -9.82584 -9.82584 -9.82584 -10.2243 -10.2243 -10.2243 -10.2243 -9.5915 -9.5915 -9.5915 -9.5915 -9.85297 -9.85297 -9.85297 -9.85297 -9.89634 -9.89634 -9.89634 -9.89634 -9.81477 -9.81477 -9.81477 -9.81477 -9.89799 -9.89799 -9.89799 -9.89799 -9.84229 -9.84229 -9.84229 -9.84229 -9.87331 -9.87331 -9.87331 -9.87331 -10.3808 -10.3808 -10.3808 -10.3808 -9.89868 -9.89868 -9.89868 -9.89868 -10.4305 -10.4305 -10.4305 -10.4305 -9.82225 -9.82225 -9.82225 -9.82225 -10.1156 -10.1156 -10.1156 -10.1156 -9.81934 -9.81934 -9.81934 -9.81934 -9.87768 -9.87768 -9.87768 -9.87768 -9.87675 -9.87675 -9.87675 -9.87675 -9.61093 -9.61093 -9.61093 -9.61093 -9.53115 -9.53115 -9.53115 -9.53115 -9.82786 -9.82786 -9.82786 -9.82786 -9.93095 -9.93095 -9.93095 -9.93095 -9.66672 -9.66672 -9.66672 -9.66672 -11.2181 -11.2181 -11.2181 -11.2181 -9.85231 -9.85231 -9.85231 -9.85231 -10.8402 -10.8402 -10.8402 -10.8402 -9.80154 -9.80154 -9.80154 -9.80154 -9.55589 -9.55589 -9.55589 -9.55589 -9.90784 -9.90784 -9.90784 -9.90784 -9.77613 -9.77613 -9.77613 -9.77613 -9.87578 -9.87578 -9.87578 -9.87578 -8.63592 -8.63592 -8.63592 -8.63592 -9.0946 -9.0946 -9.0946 -9.0946 -10.3059 -10.3059 -10.3059 -10.3059 -9.60023 -9.60023 -9.60023 -9.60023 -9.86175 -9.86175 -9.86175 -9.86175 -9.86421 -9.86421 -9.86421 -9.86421 -9.84995 -9.84995 -9.84995 -9.84995 -4.3551 -4.3551 -4.3551 -4.3551 -9.74488 -9.74488 -9.74488 -9.74488 -9.83088 -9.83088 -9.83088 -9.83088 -9.8329 -9.8329 -9.8329 -9.8329 -9.96787 -9.96787 -9.96787 -9.96787 -9.88378 -9.88378 -9.88378 -9.88378 -9.89431 -9.89431 -9.89431 -9.89431 -9.9816 -9.9816 -9.9816 -9.9816 -9.90045 -9.90045 -9.90045 -9.90045 -9.85144 -9.85144 -9.85144 -9.85144 -3.85879 -3.85879 -3.85879 -3.85879 -9.84591 -9.84591 -9.84591 -9.84591 -9.90653 -9.90653 -9.90653 -9.90653 -9.79743 -9.79743 -9.79743 -9.79743 -9.91738 -9.91738 -9.91738 -9.91738 -9.88891 -9.88891 -9.88891 -9.88891 -3.01645 -3.01645 -3.01645 -3.01645 -9.86262 -9.86262 -9.86262 -9.86262 -9.82159 -9.82159 -9.82159 -9.82159 -9.83757 -9.83757 -9.83757 -9.83757 -9.7455 -9.7455 -9.7455 -9.7455 -9.69201 -9.69201 -9.69201 -9.69201 -10.1255 -10.1255 -10.1255 -10.1255 -9.33959 -9.33959 -9.33959 -9.33959 -8.67782 -8.67782 -8.67782 -8.67782 -9.84817 -9.84817 -9.84817 -9.84817 -9.75161 -9.75161 -9.75161 -9.75161 -10.0612 -10.0612 -10.0612 -10.0612 -9.75191 -9.75191 -9.75191 -9.75191 -9.93443 -9.93443 -9.93443 -9.93443 -9.67041 -9.67041 -9.67041 -9.67041 -9.8133 -9.8133 -9.8133 -9.8133 -10.1927 -10.1927 -10.1927 -10.1927 -9.73977 -9.73977 -9.73977 -9.73977 -9.66044 -9.66044 -9.66044 -9.66044 -9.58513 -9.58513 -9.58513 -9.58513 -9.91326 -9.91326 -9.91326 -9.91326 -9.9483 -9.9483 -9.9483 -9.9483 -11.5254 -11.5254 -11.5254 -11.5254 -10.1091 -10.1091 -10.1091 -10.1091 -11.2688 -11.2688 -11.2688 -11.2688 -9.86563 -9.86563 -9.86563 -9.86563 -10.5695 -10.5695 -10.5695 -10.5695 -9.7649 -9.7649 -9.7649 -9.7649 -6.23166 -6.23166 -6.23166 -6.23166 -9.82819 -9.82819 -9.82819 -9.82819 -9.81061 -9.81061 -9.81061 -9.81061 -9.7335 -9.7335 -9.7335 -9.7335 -10.5267 -10.5267 -10.5267 -10.5267 -9.66966 -9.66966 -9.66966 -9.66966 -9.82132 -9.82132 -9.82132 -9.82132 -9.84282 -9.84282 -9.84282 -9.84282 -10.3033 -10.3033 -10.3033 -10.3033 -9.91612 -9.91612 -9.91612 -9.91612 -9.80939 -9.80939 -9.80939 -9.80939 -10.3213 -10.3213 -10.3213 -10.3213 -9.86811 -9.86811 -9.86811 -9.86811 -9.23526 -9.23526 -9.23526 -9.23526 -9.79769 -9.79769 -9.79769 -9.79769 -9.77674 -9.77674 -9.77674 -9.77674 -9.82902 -9.82902 -9.82902 -9.82902 -9.84617 -9.84617 -9.84617 -9.84617 -6.72821 -6.72821 -6.72821 -6.72821 -9.90475 -9.90475 -9.90475 -9.90475 -9.92489 -9.92489 -9.92489 -9.92489 -9.86071 -9.86071 -9.86071 -9.86071 -9.79212 -9.79212 -9.79212 -9.79212 -9.77313 -9.77313 -9.77313 -9.77313 -9.75815 -9.75815 -9.75815 -9.75815 -9.47422 -9.47422 -9.47422 -9.47422 -9.9267 -9.9267 -9.9267 -9.9267 -9.11329 -9.11329 -9.11329 -9.11329 -9.91772 -9.91772 -9.91772 -9.91772 -9.87525 -9.87525 -9.87525 -9.87525 -9.80866 -9.80866 -9.80866 -9.80866 -9.93669 -9.93669 -9.93669 -9.93669 -10.2783 -10.2783 -10.2783 -10.2783 -10.0641 -10.0641 -10.0641 -10.0641 -9.80718 -9.80718 -9.80718 -9.80718 -9.9184 -9.9184 -9.9184 -9.9184 -9.85924 -9.85924 -9.85924 -9.85924 -9.79055 -9.79055 -9.79055 -9.79055 -9.80514 -9.80514 -9.80514 -9.80514 -9.83422 -9.83422 -9.83422 -9.83422 -9.89022 -9.89022 -9.89022 -9.89022 -9.74539 -9.74539 -9.74539 -9.74539 -9.23839 -9.23839 -9.23839 -9.23839 -9.92748 -9.92748 -9.92748 -9.92748 -8.99008 -8.99008 -8.99008 -8.99008 -8.91014 -8.91014 -8.91014 -8.91014 -6.50372 -6.50372 -6.50372 -6.50372 -9.72267 -9.72267 -9.72267 -9.72267 -9.799 -9.799 -9.799 -9.799 -9.65361 -9.65361 -9.65361 -9.65361 -9.75578 -9.75578 -9.75578 -9.75578 -11.2278 -11.2278 -11.2278 -11.2278 -9.86211 -9.86211 -9.86211 -9.86211 -9.07683 -9.07683 -9.07683 -9.07683 -3.30495 -3.30495 -3.30495 -3.30495 -9.81789 -9.81789 -9.81789 -9.81789 -9.40896 -9.40896 -9.40896 -9.40896 -9.8047 -9.8047 -9.8047 -9.8047 -9.80548 -9.80548 -9.80548 -9.80548 -9.75653 -9.75653 -9.75653 -9.75653 -9.80785 -9.80785 -9.80785 -9.80785 -9.93513 -9.93513 -9.93513 -9.93513 -10.7522 -10.7522 -10.7522 -10.7522 -9.90426 -9.90426 -9.90426 -9.90426 -9.96234 -9.96234 -9.96234 -9.96234 -9.90939 -9.90939 -9.90939 -9.90939 -11.7117 -11.7117 -11.7117 -11.7117 -9.82935 -9.82935 -9.82935 -9.82935 -9.83535 -9.83535 -9.83535 -9.83535 -9.69129 -9.69129 -9.69129 -9.69129 -7.0368 -7.0368 -7.0368 -7.0368 -10.2546 -10.2546 -10.2546 -10.2546 -9.91593 -9.91593 -9.91593 -9.91593 -9.75814 -9.75814 -9.75814 -9.75814 -9.72221 -9.72221 -9.72221 -9.72221 -9.78126 -9.78126 -9.78126 -9.78126 -9.91056 -9.91056 -9.91056 -9.91056 -9.89834 -9.89834 -9.89834 -9.89834 -9.05999 -9.05999 -9.05999 -9.05999 -9.91592 -9.91592 -9.91592 -9.91592 -9.91172 -9.91172 -9.91172 -9.91172 -7.89742 -7.89742 -7.89742 -7.89742 -8.72879 -8.72879 -8.72879 -8.72879 -9.78999 -9.78999 -9.78999 -9.78999 -10.1208 -10.1208 -10.1208 -10.1208 -9.22134 -9.22134 -9.22134 -9.22134 -10.2243 -10.2243 -10.2243 -10.2243 -9.83315 -9.83315 -9.83315 -9.83315 -9.81649 -9.81649 -9.81649 -9.81649 -11.1299 -11.1299 -11.1299 -11.1299 -9.7567 -9.7567 -9.7567 -9.7567 -10.3153 -10.3153 -10.3153 -10.3153 -9.79859 -9.79859 -9.79859 -9.79859 -10.0788 -10.0788 -10.0788 -10.0788 -9.85094 -9.85094 -9.85094 -9.85094 -9.47837 -9.47837 -9.47837 -9.47837 -10.4689 -10.4689 -10.4689 -10.4689 -9.41887 -9.41887 -9.41887 -9.41887 -9.84979 -9.84979 -9.84979 -9.84979 -9.89674 -9.89674 -9.89674 -9.89674 -10.2933 -10.2933 -10.2933 -10.2933 -9.8492 -9.8492 -9.8492 -9.8492 -9.88688 -9.88688 -9.88688 -9.88688 -9.77943 -9.77943 -9.77943 -9.77943 -9.70024 -9.70024 -9.70024 -9.70024 -9.7957 -9.7957 -9.7957 -9.7957 -9.91739 -9.91739 -9.91739 -9.91739 -9.84744 -9.84744 -9.84744 -9.84744 -9.90011 -9.90011 -9.90011 -9.90011 -9.8469 -9.8469 -9.8469 -9.8469 -9.77277 -9.77277 -9.77277 -9.77277 -9.67138 -9.67138 -9.67138 -9.67138 -9.96166 -9.96166 -9.96166 -9.96166 -3.11476 -3.11476 -3.11476 -3.11476 -9.82489 -9.82489 -9.82489 -9.82489 -9.71827 -9.71827 -9.71827 -9.71827 -9.90701 -9.90701 -9.90701 -9.90701 -10.2035 -10.2035 -10.2035 -10.2035 -9.89769 -9.89769 -9.89769 -9.89769 -9.79821 -9.79821 -9.79821 -9.79821 -9.88779 -9.88779 -9.88779 -9.88779 -9.85669 -9.85669 -9.85669 -9.85669 -9.37517 -9.37517 -9.37517 -9.37517 -9.69685 -9.69685 -9.69685 -9.69685 -9.87288 -9.87288 -9.87288 -9.87288 -9.82594 -9.82594 -9.82594 -9.82594 -9.84696 -9.84696 -9.84696 -9.84696 -9.6009 -9.6009 -9.6009 -9.6009 -9.20063 -9.20063 -9.20063 -9.20063 -12.128 -12.128 -12.128 -12.128 -10.5557 -10.5557 -10.5557 -10.5557 -9.95214 -9.95214 -9.95214 -9.95214 -9.77638 -9.77638 -9.77638 -9.77638 -7.15828 -7.15828 -7.15828 -7.15828 -9.87997 -9.87997 -9.87997 -9.87997 -9.83136 -9.83136 -9.83136 -9.83136 -9.85902 -9.85902 -9.85902 -9.85902 -9.8983 -9.8983 -9.8983 -9.8983 -9.95015 -9.95015 -9.95015 -9.95015 -7.93706 -7.93706 -7.93706 -7.93706 -9.30471 -9.30471 -9.30471 -9.30471 -10.086 -10.086 -10.086 -10.086 -9.80831 -9.80831 -9.80831 -9.80831 -9.84458 -9.84458 -9.84458 -9.84458 -9.9481 -9.9481 -9.9481 -9.9481 -9.74368 -9.74368 -9.74368 -9.74368 -9.91713 -9.91713 -9.91713 -9.91713 -9.81043 -9.81043 -9.81043 -9.81043 -9.62548 -9.62548 -9.62548 -9.62548 -9.79866 -9.79866 -9.79866 -9.79866 -9.81524 -9.81524 -9.81524 -9.81524 -9.94549 -9.94549 -9.94549 -9.94549 -10.2323 -10.2323 -10.2323 -10.2323 -9.84617 -9.84617 -9.84617 -9.84617 -9.80916 -9.80916 -9.80916 -9.80916 -5.64504 -5.64504 -5.64504 -5.64504 -9.97467 -9.97467 -9.97467 -9.97467 -10.6071 -10.6071 -10.6071 -10.6071 -10.3808 -10.3808 -10.3808 -10.3808 -10.0312 -10.0312 -10.0312 -10.0312 -9.94318 -9.94318 -9.94318 -9.94318 -4.62371 -4.62371 -4.62371 -4.62371 -9.75414 -9.75414 -9.75414 -9.75414 -9.93688 -9.93688 -9.93688 -9.93688 -9.8464 -9.8464 -9.8464 -9.8464 -9.87441 -9.87441 -9.87441 -9.87441 -10.7284 -10.7284 -10.7284 -10.7284 -10.6808 -10.6808 -10.6808 -10.6808 -9.82454 -9.82454 -9.82454 -9.82454 -9.96755 -9.96755 -9.96755 -9.96755 -9.71956 -9.71956 -9.71956 -9.71956 -9.75768 -9.75768 -9.75768 -9.75768 -10.0146 -10.0146 -10.0146 -10.0146 -9.19398 -9.19398 -9.19398 -9.19398 -9.83247 -9.83247 -9.83247 -9.83247 -10.2815 -10.2815 -10.2815 -10.2815 -9.81124 -9.81124 -9.81124 -9.81124 -9.79511 -9.79511 -9.79511 -9.79511 -9.83666 -9.83666 -9.83666 -9.83666 -10.2801 -10.2801 -10.2801 -10.2801 -9.83241 -9.83241 -9.83241 -9.83241 -9.95623 -9.95623 -9.95623 -9.95623 -9.94147 -9.94147 -9.94147 -9.94147 -9.78191 -9.78191 -9.78191 -9.78191 -3.53319 -3.53319 -3.53319 -3.53319 -9.57032 -9.57032 -9.57032 -9.57032 -11.5139 -11.5139 -11.5139 -11.5139 -9.89527 -9.89527 -9.89527 -9.89527 -9.81344 -9.81344 -9.81344 -9.81344 -9.79133 -9.79133 -9.79133 -9.79133 -9.86457 -9.86457 -9.86457 -9.86457 -9.81476 -9.81476 -9.81476 -9.81476 -9.79292 -9.79292 -9.79292 -9.79292 -10.3598 -10.3598 -10.3598 -10.3598 -9.93058 -9.93058 -9.93058 -9.93058 -9.83931 -9.83931 -9.83931 -9.83931 -9.84514 -9.84514 -9.84514 -9.84514 -12.9434 -12.9434 -12.9434 -12.9434 -6.10012 -6.10012 -6.10012 -6.10012 -10.5196 -10.5196 -10.5196 -10.5196 -9.95166 -9.95166 -9.95166 -9.95166 -10.3845 -10.3845 -10.3845 -10.3845 -9.84405 -9.84405 -9.84405 -9.84405 -9.82043 -9.82043 -9.82043 -9.82043 -3.60145 -3.60145 -3.60145 -3.60145 -9.87969 -9.87969 -9.87969 -9.87969 -9.95879 -9.95879 -9.95879 -9.95879 -9.75891 -9.75891 -9.75891 -9.75891 -9.87915 -9.87915 -9.87915 -9.87915 -9.90154 -9.90154 -9.90154 -9.90154 -9.73378 -9.73378 -9.73378 -9.73378 -9.83216 -9.83216 -9.83216 -9.83216 -9.90916 -9.90916 -9.90916 -9.90916 -9.81668 -9.81668 -9.81668 -9.81668 -9.85859 -9.85859 -9.85859 -9.85859 -9.98634 -9.98634 -9.98634 -9.98634 -9.84361 -9.84361 -9.84361 -9.84361 -9.55296 -9.55296 -9.55296 -9.55296 -9.88393 -9.88393 -9.88393 -9.88393 -9.75982 -9.75982 -9.75982 -9.75982 -9.82996 -9.82996 -9.82996 -9.82996 -9.99138 -9.99138 -9.99138 -9.99138 -9.84539 -9.84539 -9.84539 -9.84539 -9.86102 -9.86102 -9.86102 -9.86102 -10.1881 -10.1881 -10.1881 -10.1881 -9.83958 -9.83958 -9.83958 -9.83958 -9.77728 -9.77728 -9.77728 -9.77728 -10.6686 -10.6686 -10.6686 -10.6686 -9.7637 -9.7637 -9.7637 -9.7637 -12.811 -12.811 -12.811 -12.811 -9.5913 -9.5913 -9.5913 -9.5913 -10.0847 -10.0847 -10.0847 -10.0847 -9.58325 -9.58325 -9.58325 -9.58325 -9.91106 -9.91106 -9.91106 -9.91106 -9.70525 -9.70525 -9.70525 -9.70525 -10.4314 -10.4314 -10.4314 -10.4314 -9.93172 -9.93172 -9.93172 -9.93172 -9.84309 -9.84309 -9.84309 -9.84309 -9.78494 -9.78494 -9.78494 -9.78494 -9.85157 -9.85157 -9.85157 -9.85157 -9.65035 -9.65035 -9.65035 -9.65035 -10.0119 -10.0119 -10.0119 -10.0119 -3.63387 -3.63387 -3.63387 -3.63387 -9.76716 -9.76716 -9.76716 -9.76716 -10.882 -10.882 -10.882 -10.882 -9.83617 -9.83617 -9.83617 -9.83617 -9.89835 -9.89835 -9.89835 -9.89835 -4.30735 -4.30735 -4.30735 -4.30735 -9.92782 -9.92782 -9.92782 -9.92782 -10.203 -10.203 -10.203 -10.203 -9.93168 -9.93168 -9.93168 -9.93168 -9.8635 -9.8635 -9.8635 -9.8635 -11.5775 -11.5775 -11.5775 -11.5775 -9.81099 -9.81099 -9.81099 -9.81099 -13.0297 -13.0297 -13.0297 -13.0297 -10.3292 -10.3292 -10.3292 -10.3292 -9.73327 -9.73327 -9.73327 -9.73327 -9.63066 -9.63066 -9.63066 -9.63066 -9.96415 -9.96415 -9.96415 -9.96415 -10.3278 -10.3278 -10.3278 -10.3278 -9.85562 -9.85562 -9.85562 -9.85562 -9.99976 -9.99976 -9.99976 -9.99976 -9.82895 -9.82895 -9.82895 -9.82895 -9.92469 -9.92469 -9.92469 -9.92469 -9.93615 -9.93615 -9.93615 -9.93615 -9.44887 -9.44887 -9.44887 -9.44887 -9.8423 -9.8423 -9.8423 -9.8423 -9.67019 -9.67019 -9.67019 -9.67019 -9.21311 -9.21311 -9.21311 -9.21311 -9.92338 -9.92338 -9.92338 -9.92338 -3.61011 -3.61011 -3.61011 -3.61011 -9.75937 -9.75937 -9.75937 -9.75937 -12.3181 -12.3181 -12.3181 -12.3181 -9.94723 -9.94723 -9.94723 -9.94723 -9.37963 -9.37963 -9.37963 -9.37963 -9.80204 -9.80204 -9.80204 -9.80204 -9.7335 -9.7335 -9.7335 -9.7335 -9.91656 -9.91656 -9.91656 -9.91656 -9.59874 -9.59874 -9.59874 -9.59874 -9.45078 -9.45078 -9.45078 -9.45078 -9.84573 -9.84573 -9.84573 -9.84573 -9.99365 -9.99365 -9.99365 -9.99365 -10.5239 -10.5239 -10.5239 -10.5239 -9.9239 -9.9239 -9.9239 -9.9239 -9.84303 -9.84303 -9.84303 -9.84303 -9.82443 -9.82443 -9.82443 -9.82443 -10.1064 -10.1064 -10.1064 -10.1064 -9.44469 -9.44469 -9.44469 -9.44469 -12.981 -12.981 -12.981 -12.981 -9.85716 -9.85716 -9.85716 -9.85716 -9.75001 -9.75001 -9.75001 -9.75001 -9.82558 -9.82558 -9.82558 -9.82558 -9.80611 -9.80611 -9.80611 -9.80611 -9.72515 -9.72515 -9.72515 -9.72515 -9.82214 -9.82214 -9.82214 -9.82214 -9.79824 -9.79824 -9.79824 -9.79824 -9.67281 -9.67281 -9.67281 -9.67281 -9.92222 -9.92222 -9.92222 -9.92222 -9.81902 -9.81902 -9.81902 -9.81902 -9.14152 -9.14152 -9.14152 -9.14152 -4.83104 -4.83104 -4.83104 -4.83104 -9.6137 -9.6137 -9.6137 -9.6137 -9.8376 -9.8376 -9.8376 -9.8376 -9.65672 -9.65672 -9.65672 -9.65672 -9.89958 -9.89958 -9.89958 -9.89958 -9.74516 -9.74516 -9.74516 -9.74516 -9.50052 -9.50052 -9.50052 -9.50052 -9.9477 -9.9477 -9.9477 -9.9477 -10.0427 -10.0427 -10.0427 -10.0427 -10.046 -10.046 -10.046 -10.046 -9.2504 -9.2504 -9.2504 -9.2504 -9.70466 -9.70466 -9.70466 -9.70466 -9.89076 -9.89076 -9.89076 -9.89076 -9.95639 -9.95639 -9.95639 -9.95639 -10.0318 -10.0318 -10.0318 -10.0318 -9.88165 -9.88165 -9.88165 -9.88165 -9.87097 -9.87097 -9.87097 -9.87097 -9.86465 -9.86465 -9.86465 -9.86465 -9.87881 -9.87881 -9.87881 -9.87881 -9.9627 -9.9627 -9.9627 -9.9627 -9.89922 -9.89922 -9.89922 -9.89922 -10.3196 -10.3196 -10.3196 -10.3196 -9.68438 -9.68438 -9.68438 -9.68438 -9.64437 -9.64437 -9.64437 -9.64437 -9.83161 -9.83161 -9.83161 -9.83161 -9.95306 -9.95306 -9.95306 -9.95306 -9.89768 -9.89768 -9.89768 -9.89768 -9.83811 -9.83811 -9.83811 -9.83811 -5.73396 -5.73396 -5.73396 -5.73396 -9.83065 -9.83065 -9.83065 -9.83065 -9.46558 -9.46558 -9.46558 -9.46558 -9.76744 -9.76744 -9.76744 -9.76744 -9.8414 -9.8414 -9.8414 -9.8414 -9.91088 -9.91088 -9.91088 -9.91088 -9.81924 -9.81924 -9.81924 -9.81924 -9.83994 -9.83994 -9.83994 -9.83994 -9.88687 -9.88687 -9.88687 -9.88687 -9.8861 -9.8861 -9.8861 -9.8861 -9.87773 -9.87773 -9.87773 -9.87773 -9.72016 -9.72016 -9.72016 -9.72016 -9.82946 -9.82946 -9.82946 -9.82946 -9.84081 -9.84081 -9.84081 -9.84081 -12.0572 -12.0572 -12.0572 -12.0572 -12.0909 -12.0909 -12.0909 -12.0909 -9.86759 -9.86759 -9.86759 -9.86759 -9.91149 -9.91149 -9.91149 -9.91149 -9.81119 -9.81119 -9.81119 -9.81119 -9.88338 -9.88338 -9.88338 -9.88338 -10.6249 -10.6249 -10.6249 -10.6249 -9.94952 -9.94952 -9.94952 -9.94952 -9.60203 -9.60203 -9.60203 -9.60203 -9.90566 -9.90566 -9.90566 -9.90566 -9.84996 -9.84996 -9.84996 -9.84996 -9.96001 -9.96001 -9.96001 -9.96001 -9.77421 -9.77421 -9.77421 -9.77421 -9.58598 -9.58598 -9.58598 -9.58598 -9.80257 -9.80257 -9.80257 -9.80257 -9.797 -9.797 -9.797 -9.797 -9.88671 -9.88671 -9.88671 -9.88671 -9.75461 -9.75461 -9.75461 -9.75461 -9.74066 -9.74066 -9.74066 -9.74066 -10.0436 -10.0436 -10.0436 -10.0436 -9.85879 -9.85879 -9.85879 -9.85879 -9.92463 -9.92463 -9.92463 -9.92463 -9.71312 -9.71312 -9.71312 -9.71312 -10.1194 -10.1194 -10.1194 -10.1194 -9.91479 -9.91479 -9.91479 -9.91479 -9.63864 -9.63864 -9.63864 -9.63864 -9.58227 -9.58227 -9.58227 -9.58227 -8.13618 -8.13618 -8.13618 -8.13618 -6.95915 -6.95915 -6.95915 -6.95915 -9.89271 -9.89271 -9.89271 -9.89271 -9.92436 -9.92436 -9.92436 -9.92436 -9.88858 -9.88858 -9.88858 -9.88858 -10.0486 -10.0486 -10.0486 -10.0486 -10.0325 -10.0325 -10.0325 -10.0325 -9.77419 -9.77419 -9.77419 -9.77419 -10.0126 -10.0126 -10.0126 -10.0126 -9.82122 -9.82122 -9.82122 -9.82122 -10.2566 -10.2566 -10.2566 -10.2566 -10.6932 -10.6932 -10.6932 -10.6932 -10.3448 -10.3448 -10.3448 -10.3448 -9.80696 -9.80696 -9.80696 -9.80696 -10.0494 -10.0494 -10.0494 -10.0494 -9.89772 -9.89772 -9.89772 -9.89772 -10.4959 -10.4959 -10.4959 -10.4959 -14.312 -14.312 -14.312 -14.312 -10.039 -10.039 -10.039 -10.039 -9.82586 -9.82586 -9.82586 -9.82586 -9.92378 -9.92378 -9.92378 -9.92378 -10.0366 -10.0366 -10.0366 -10.0366 -9.88978 -9.88978 -9.88978 -9.88978 -10.0131 -10.0131 -10.0131 -10.0131 -9.33552 -9.33552 -9.33552 -9.33552 -9.50788 -9.50788 -9.50788 -9.50788 -9.16873 -9.16873 -9.16873 -9.16873 -9.92871 -9.92871 -9.92871 -9.92871 -9.96354 -9.96354 -9.96354 -9.96354 -9.74891 -9.74891 -9.74891 -9.74891 -9.84454 -9.84454 -9.84454 -9.84454 -9.94977 -9.94977 -9.94977 -9.94977 -9.89685 -9.89685 -9.89685 -9.89685 -9.83746 -9.83746 -9.83746 -9.83746 -9.77527 -9.77527 -9.77527 -9.77527 -9.72855 -9.72855 -9.72855 -9.72855 -11.1281 -11.1281 -11.1281 -11.1281 -9.82712 -9.82712 -9.82712 -9.82712 -9.90236 -9.90236 -9.90236 -9.90236 -9.93417 -9.93417 -9.93417 -9.93417 -9.80409 -9.80409 -9.80409 -9.80409 -10.783 -10.783 -10.783 -10.783 -9.87619 -9.87619 -9.87619 -9.87619 -9.83652 -9.83652 -9.83652 -9.83652 -9.93155 -9.93155 -9.93155 -9.93155 -9.92421 -9.92421 -9.92421 -9.92421 -9.33066 -9.33066 -9.33066 -9.33066 -9.80892 -9.80892 -9.80892 -9.80892 -9.93782 -9.93782 -9.93782 -9.93782 -9.8318 -9.8318 -9.8318 -9.8318 -9.52288 -9.52288 -9.52288 -9.52288 -9.7839 -9.7839 -9.7839 -9.7839 -9.90991 -9.90991 -9.90991 -9.90991 -9.77172 -9.77172 -9.77172 -9.77172 -9.83025 -9.83025 -9.83025 -9.83025 -9.93192 -9.93192 -9.93192 -9.93192 -10.3549 -10.3549 -10.3549 -10.3549 -9.01133 -9.01133 -9.01133 -9.01133 -10.018 -10.018 -10.018 -10.018 -9.39012 -9.39012 -9.39012 -9.39012 -9.85042 -9.85042 -9.85042 -9.85042 -9.74873 -9.74873 -9.74873 -9.74873 -9.82939 -9.82939 -9.82939 -9.82939 -9.74544 -9.74544 -9.74544 -9.74544 -12.3216 -12.3216 -12.3216 -12.3216 -9.85187 -9.85187 -9.85187 -9.85187 -9.89243 -9.89243 -9.89243 -9.89243 -9.78175 -9.78175 -9.78175 -9.78175 -9.89553 -9.89553 -9.89553 -9.89553 -9.92887 -9.92887 -9.92887 -9.92887 -9.92793 -9.92793 -9.92793 -9.92793 -9.79763 -9.79763 -9.79763 -9.79763 -9.89896 -9.89896 -9.89896 -9.89896 -9.82165 -9.82165 -9.82165 -9.82165 -9.88851 -9.88851 -9.88851 -9.88851 -9.90857 -9.90857 -9.90857 -9.90857 -11.2206 -11.2206 -11.2206 -11.2206 -9.93112 -9.93112 -9.93112 -9.93112 -9.88553 -9.88553 -9.88553 -9.88553 -10.6668 -10.6668 -10.6668 -10.6668 -9.78406 -9.78406 -9.78406 -9.78406 -9.86639 -9.86639 -9.86639 -9.86639 -9.90835 -9.90835 -9.90835 -9.90835 -2.93667 -2.93667 -2.93667 -2.93667 -9.96748 -9.96748 -9.96748 -9.96748 -9.44995 -9.44995 -9.44995 -9.44995 -9.15377 -9.15377 -9.15377 -9.15377 -8.38382 -8.38382 -8.38382 -8.38382 -9.83977 -9.83977 -9.83977 -9.83977 -9.81585 -9.81585 -9.81585 -9.81585 -9.48304 -9.48304 -9.48304 -9.48304 -9.90674 -9.90674 -9.90674 -9.90674 -9.92225 -9.92225 -9.92225 -9.92225 -9.92714 -9.92714 -9.92714 -9.92714 -9.96469 -9.96469 -9.96469 -9.96469 -9.9546 -9.9546 -9.9546 -9.9546 -9.69789 -9.69789 -9.69789 -9.69789 -9.78439 -9.78439 -9.78439 -9.78439 -9.9489 -9.9489 -9.9489 -9.9489 -9.90722 -9.90722 -9.90722 -9.90722 -9.85281 -9.85281 -9.85281 -9.85281 -9.73291 -9.73291 -9.73291 -9.73291 -9.82295 -9.82295 -9.82295 -9.82295 -9.84793 -9.84793 -9.84793 -9.84793 -9.59106 -9.59106 -9.59106 -9.59106 -9.88383 -9.88383 -9.88383 -9.88383 -9.66869 -9.66869 -9.66869 -9.66869 -11.7926 -11.7926 -11.7926 -11.7926 -9.96852 -9.96852 -9.96852 -9.96852 -9.81354 -9.81354 -9.81354 -9.81354 -9.85628 -9.85628 -9.85628 -9.85628 -9.92075 -9.92075 -9.92075 -9.92075 -9.89639 -9.89639 -9.89639 -9.89639 -10.0631 -10.0631 -10.0631 -10.0631 -5.73872 -5.73872 -5.73872 -5.73872 -9.71035 -9.71035 -9.71035 -9.71035 -9.92428 -9.92428 -9.92428 -9.92428 -9.96096 -9.96096 -9.96096 -9.96096 -9.89967 -9.89967 -9.89967 -9.89967 -9.69181 -9.69181 -9.69181 -9.69181 -10.8059 -10.8059 -10.8059 -10.8059 -12.0159 -12.0159 -12.0159 -12.0159 -9.81218 -9.81218 -9.81218 -9.81218 -10.059 -10.059 -10.059 -10.059 -9.8759 -9.8759 -9.8759 -9.8759 -9.86163 -9.86163 -9.86163 -9.86163 -9.84986 -9.84986 -9.84986 -9.84986 -10.1703 -10.1703 -10.1703 -10.1703 -9.79799 -9.79799 -9.79799 -9.79799 -9.86959 -9.86959 -9.86959 -9.86959 -9.85986 -9.85986 -9.85986 -9.85986 -8.62024 -8.62024 -8.62024 -8.62024 -9.33404 -9.33404 -9.33404 -9.33404 -8.5966 -8.5966 -8.5966 -8.5966 -9.81963 -9.81963 -9.81963 -9.81963 -9.84264 -9.84264 -9.84264 -9.84264 -9.94388 -9.94388 -9.94388 -9.94388 -10.2511 -10.2511 -10.2511 -10.2511 -9.81835 -9.81835 -9.81835 -9.81835 -9.88099 -9.88099 -9.88099 -9.88099 -9.75407 -9.75407 -9.75407 -9.75407 -9.83619 -9.83619 -9.83619 -9.83619 -9.89378 -9.89378 -9.89378 -9.89378 -9.28402 -9.28402 -9.28402 -9.28402 -9.9135 -9.9135 -9.9135 -9.9135 -9.77792 -9.77792 -9.77792 -9.77792 -9.17082 -9.17082 -9.17082 -9.17082 -11.0361 -11.0361 -11.0361 -11.0361 -9.67943 -9.67943 -9.67943 -9.67943 -10.8237 -10.8237 -10.8237 -10.8237 -10.744 -10.744 -10.744 -10.744 -9.90299 -9.90299 -9.90299 -9.90299 -9.93575 -9.93575 -9.93575 -9.93575 -9.7314 -9.7314 -9.7314 -9.7314 -9.58251 -9.58251 -9.58251 -9.58251 -10.7209 -10.7209 -10.7209 -10.7209 -9.78666 -9.78666 -9.78666 -9.78666 -9.76938 -9.76938 -9.76938 -9.76938 -12.4272 -12.4272 -12.4272 -12.4272 -9.92844 -9.92844 -9.92844 -9.92844 -9.37995 -9.37995 -9.37995 -9.37995 -11.4916 -11.4916 -11.4916 -11.4916 -9.75062 -9.75062 -9.75062 -9.75062 -9.83296 -9.83296 -9.83296 -9.83296 -9.97178 -9.97178 -9.97178 -9.97178 -9.89108 -9.89108 -9.89108 -9.89108 -9.58086 -9.58086 -9.58086 -9.58086 -9.68763 -9.68763 -9.68763 -9.68763 -9.82131 -9.82131 -9.82131 -9.82131 -9.65452 -9.65452 -9.65452 -9.65452 -11.6971 -11.6971 -11.6971 -11.6971 -9.91445 -9.91445 -9.91445 -9.91445 -9.84926 -9.84926 -9.84926 -9.84926 -9.56535 -9.56535 -9.56535 -9.56535 -9.91051 -9.91051 -9.91051 -9.91051 -11.8446 -11.8446 -11.8446 -11.8446 -9.31018 -9.31018 -9.31018 -9.31018 -9.82526 -9.82526 -9.82526 -9.82526 -9.85618 -9.85618 -9.85618 -9.85618 -7.39175 -7.39175 -7.39175 -7.39175 -10.5282 -10.5282 -10.5282 -10.5282 -10.1569 -10.1569 -10.1569 -10.1569 -9.79183 -9.79183 -9.79183 -9.79183 -9.95439 -9.95439 -9.95439 -9.95439 -10.1736 -10.1736 -10.1736 -10.1736 -9.88335 -9.88335 -9.88335 -9.88335 -9.82775 -9.82775 -9.82775 -9.82775 -9.81952 -9.81952 -9.81952 -9.81952 -9.75691 -9.75691 -9.75691 -9.75691 -10.5797 -10.5797 -10.5797 -10.5797 -9.78804 -9.78804 -9.78804 -9.78804 -9.89074 -9.89074 -9.89074 -9.89074 -10.1719 -10.1719 -10.1719 -10.1719 -9.85621 -9.85621 -9.85621 -9.85621 -9.64506 -9.64506 -9.64506 -9.64506 -10.2665 -10.2665 -10.2665 -10.2665 -9.75252 -9.75252 -9.75252 -9.75252 -9.72443 -9.72443 -9.72443 -9.72443 -9.84575 -9.84575 -9.84575 -9.84575 -10.7695 -10.7695 -10.7695 -10.7695 -9.68533 -9.68533 -9.68533 -9.68533 -9.80466 -9.80466 -9.80466 -9.80466 -9.92256 -9.92256 -9.92256 -9.92256 -9.9852 -9.9852 -9.9852 -9.9852 -9.92396 -9.92396 -9.92396 -9.92396 -9.93437 -9.93437 -9.93437 -9.93437 -9.87775 -9.87775 -9.87775 -9.87775 -11.5927 -11.5927 -11.5927 -11.5927 -9.82719 -9.82719 -9.82719 -9.82719 -9.98988 -9.98988 -9.98988 -9.98988 -9.79599 -9.79599 -9.79599 -9.79599 -9.83805 -9.83805 -9.83805 -9.83805 -10.3265 -10.3265 -10.3265 -10.3265 -9.19926 -9.19926 -9.19926 -9.19926 -9.7921 -9.7921 -9.7921 -9.7921 -10.0511 -10.0511 -10.0511 -10.0511 -10.2434 -10.2434 -10.2434 -10.2434 -9.73216 -9.73216 -9.73216 -9.73216 -9.47606 -9.47606 -9.47606 -9.47606 -9.92363 -9.92363 -9.92363 -9.92363 -12.1435 -12.1435 -12.1435 -12.1435 -10.0036 -10.0036 -10.0036 -10.0036 -10.1796 -10.1796 -10.1796 -10.1796 -10.3036 -10.3036 -10.3036 -10.3036 -9.5611 -9.5611 -9.5611 -9.5611 -9.74341 -9.74341 -9.74341 -9.74341 -9.88265 -9.88265 -9.88265 -9.88265 -9.90808 -9.90808 -9.90808 -9.90808 -9.76618 -9.76618 -9.76618 -9.76618 -9.99766 -9.99766 -9.99766 -9.99766 -10.2421 -10.2421 -10.2421 -10.2421 -9.58783 -9.58783 -9.58783 -9.58783 -9.72897 -9.72897 -9.72897 -9.72897 -9.59167 -9.59167 -9.59167 -9.59167 -8.51185 -8.51185 -8.51185 -8.51185 -9.92353 -9.92353 -9.92353 -9.92353 -10.2549 -10.2549 -10.2549 -10.2549 -9.76563 -9.76563 -9.76563 -9.76563 -10.2392 -10.2392 -10.2392 -10.2392 -9.77895 -9.77895 -9.77895 -9.77895 -9.85357 -9.85357 -9.85357 -9.85357 -10.1808 -10.1808 -10.1808 -10.1808 -9.79427 -9.79427 -9.79427 -9.79427 -9.73937 -9.73937 -9.73937 -9.73937 -9.84497 -9.84497 -9.84497 -9.84497 -9.55215 -9.55215 -9.55215 -9.55215 -8.31635 -8.31635 -8.31635 -8.31635 -10.2325 -10.2325 -10.2325 -10.2325 -9.81115 -9.81115 -9.81115 -9.81115 -10.1419 -10.1419 -10.1419 -10.1419 -9.82283 -9.82283 -9.82283 -9.82283 -9.83815 -9.83815 -9.83815 -9.83815 -9.82203 -9.82203 -9.82203 -9.82203 -5.22359 -5.22359 -5.22359 -5.22359 -5.91501 -5.91501 -5.91501 -5.91501 -9.73296 -9.73296 -9.73296 -9.73296 -9.82006 -9.82006 -9.82006 -9.82006 -9.91473 -9.91473 -9.91473 -9.91473 -10.0004 -10.0004 -10.0004 -10.0004 -9.82762 -9.82762 -9.82762 -9.82762 -9.95581 -9.95581 -9.95581 -9.95581 -9.09227 -9.09227 -9.09227 -9.09227 -9.29328 -9.29328 -9.29328 -9.29328 -9.8692 -9.8692 -9.8692 -9.8692 -10.3019 -10.3019 -10.3019 -10.3019 -9.92954 -9.92954 -9.92954 -9.92954 -9.34477 -9.34477 -9.34477 -9.34477 -9.77566 -9.77566 -9.77566 -9.77566 -3.23301 -3.23301 -3.23301 -3.23301 -9.50098 -9.50098 -9.50098 -9.50098 -9.84186 -9.84186 -9.84186 -9.84186 -9.96237 -9.96237 -9.96237 -9.96237 -9.80562 -9.80562 -9.80562 -9.80562 -9.94019 -9.94019 -9.94019 -9.94019 -9.93658 -9.93658 -9.93658 -9.93658 -10.041 -10.041 -10.041 -10.041 -9.67824 -9.67824 -9.67824 -9.67824 -9.86981 -9.86981 -9.86981 -9.86981 -8.21669 -8.21669 -8.21669 -8.21669 -9.16548 -9.16548 -9.16548 -9.16548 -9.86058 -9.86058 -9.86058 -9.86058 -9.94423 -9.94423 -9.94423 -9.94423 -9.80321 -9.80321 -9.80321 -9.80321 -9.7984 -9.7984 -9.7984 -9.7984 -10.1832 -10.1832 -10.1832 -10.1832 -9.82791 -9.82791 -9.82791 -9.82791 -9.56516 -9.56516 -9.56516 -9.56516 -9.58534 -9.58534 -9.58534 -9.58534 -9.92037 -9.92037 -9.92037 -9.92037 -9.49223 -9.49223 -9.49223 -9.49223 -9.85359 -9.85359 -9.85359 -9.85359 -9.92721 -9.92721 -9.92721 -9.92721 -10.6503 -10.6503 -10.6503 -10.6503 -9.93275 -9.93275 -9.93275 -9.93275 -9.92615 -9.92615 -9.92615 -9.92615 -9.80522 -9.80522 -9.80522 -9.80522 -9.84528 -9.84528 -9.84528 -9.84528 -9.86485 -9.86485 -9.86485 -9.86485 -9.85172 -9.85172 -9.85172 -9.85172 -9.8341 -9.8341 -9.8341 -9.8341 -9.84918 -9.84918 -9.84918 -9.84918 -9.94091 -9.94091 -9.94091 -9.94091 -9.87598 -9.87598 -9.87598 -9.87598 -9.88407 -9.88407 -9.88407 -9.88407 -9.89581 -9.89581 -9.89581 -9.89581 -9.90208 -9.90208 -9.90208 -9.90208 -7.75753 -7.75753 -7.75753 -7.75753 -10.2465 -10.2465 -10.2465 -10.2465 -9.85871 -9.85871 -9.85871 -9.85871 -9.97095 -9.97095 -9.97095 -9.97095 -5.06125 -5.06125 -5.06125 -5.06125 -9.99028 -9.99028 -9.99028 -9.99028 -10.4143 -10.4143 -10.4143 -10.4143 -9.85627 -9.85627 -9.85627 -9.85627 -9.63606 -9.63606 -9.63606 -9.63606 -9.93744 -9.93744 -9.93744 -9.93744 -9.87882 -9.87882 -9.87882 -9.87882 -12.655 -12.655 -12.655 -12.655 -9.85744 -9.85744 -9.85744 -9.85744 -9.90531 -9.90531 -9.90531 -9.90531 -9.94439 -9.94439 -9.94439 -9.94439 -10.498 -10.498 -10.498 -10.498 -10.9987 -10.9987 -10.9987 -10.9987 -9.82676 -9.82676 -9.82676 -9.82676 -12.3249 -12.3249 -12.3249 -12.3249 -9.81993 -9.81993 -9.81993 -9.81993 -12.5632 -12.5632 -12.5632 -12.5632 -6.13152 -6.13152 -6.13152 -6.13152 -9.93138 -9.93138 -9.93138 -9.93138 -9.86941 -9.86941 -9.86941 -9.86941 -9.43341 -9.43341 -9.43341 -9.43341 -9.85471 -9.85471 -9.85471 -9.85471 -9.8201 -9.8201 -9.8201 -9.8201 -10.1148 -10.1148 -10.1148 -10.1148 -9.85718 -9.85718 -9.85718 -9.85718 -4.05642 -4.05642 -4.05642 -4.05642 -9.90777 -9.90777 -9.90777 -9.90777 -9.6838 -9.6838 -9.6838 -9.6838 -8.28001 -8.28001 -8.28001 -8.28001 -10.0544 -10.0544 -10.0544 -10.0544 -9.88128 -9.88128 -9.88128 -9.88128 -9.60759 -9.60759 -9.60759 -9.60759 -10.0217 -10.0217 -10.0217 -10.0217 -10.263 -10.263 -10.263 -10.263 -8.16669 -8.16669 -8.16669 -8.16669 -9.84101 -9.84101 -9.84101 -9.84101 -9.51302 -9.51302 -9.51302 -9.51302 -9.84237 -9.84237 -9.84237 -9.84237 -9.85024 -9.85024 -9.85024 -9.85024 -9.71412 -9.71412 -9.71412 -9.71412 -9.46556 -9.46556 -9.46556 -9.46556 -9.61465 -9.61465 -9.61465 -9.61465 -9.87858 -9.87858 -9.87858 -9.87858 -9.80736 -9.80736 -9.80736 -9.80736 -9.8379 -9.8379 -9.8379 -9.8379 -10.4956 -10.4956 -10.4956 -10.4956 -10.0285 -10.0285 -10.0285 -10.0285 -10.4443 -10.4443 -10.4443 -10.4443 -9.90498 -9.90498 -9.90498 -9.90498 -9.816 -9.816 -9.816 -9.816 -9.86235 -9.86235 -9.86235 -9.86235 -9.86527 -9.86527 -9.86527 -9.86527 -9.26781 -9.26781 -9.26781 -9.26781 -9.74078 -9.74078 -9.74078 -9.74078 -9.85402 -9.85402 -9.85402 -9.85402 -9.87237 -9.87237 -9.87237 -9.87237 -9.90979 -9.90979 -9.90979 -9.90979 -11.707 -11.707 -11.707 -11.707 -9.92675 -9.92675 -9.92675 -9.92675 -9.84156 -9.84156 -9.84156 -9.84156 -7.68733 -7.68733 -7.68733 -7.68733 -11.6774 -11.6774 -11.6774 -11.6774 -10.1188 -10.1188 -10.1188 -10.1188 -11.9601 -11.9601 -11.9601 -11.9601 -9.95161 -9.95161 -9.95161 -9.95161 -9.77114 -9.77114 -9.77114 -9.77114 -9.73899 -9.73899 -9.73899 -9.73899 -9.83928 -9.83928 -9.83928 -9.83928 -9.898 -9.898 -9.898 -9.898 -9.95439 -9.95439 -9.95439 -9.95439 -10.1673 -10.1673 -10.1673 -10.1673 -9.9862 -9.9862 -9.9862 -9.9862 -9.99095 -9.99095 -9.99095 -9.99095 -9.47427 -9.47427 -9.47427 -9.47427 -9.91015 -9.91015 -9.91015 -9.91015 -10.385 -10.385 -10.385 -10.385 -10.1399 -10.1399 -10.1399 -10.1399 -10.0243 -10.0243 -10.0243 -10.0243 -9.93294 -9.93294 -9.93294 -9.93294 -9.58693 -9.58693 -9.58693 -9.58693 -10.2341 -10.2341 -10.2341 -10.2341 -9.81803 -9.81803 -9.81803 -9.81803 -9.56913 -9.56913 -9.56913 -9.56913 -10.2353 -10.2353 -10.2353 -10.2353 -9.86501 -9.86501 -9.86501 -9.86501 -9.82446 -9.82446 -9.82446 -9.82446 -3.47795 -3.47795 -3.47795 -3.47795 -11.3866 -11.3866 -11.3866 -11.3866 -9.82662 -9.82662 -9.82662 -9.82662 -10.208 -10.208 -10.208 -10.208 -7.33021 -7.33021 -7.33021 -7.33021 -10.0053 -10.0053 -10.0053 -10.0053 -9.97132 -9.97132 -9.97132 -9.97132 -9.96521 -9.96521 -9.96521 -9.96521 -10.3937 -10.3937 -10.3937 -10.3937 -9.78652 -9.78652 -9.78652 -9.78652 -10.1129 -10.1129 -10.1129 -10.1129 -8.93633 -8.93633 -8.93633 -8.93633 -9.77407 -9.77407 -9.77407 -9.77407 -9.9964 -9.9964 -9.9964 -9.9964 -9.85051 -9.85051 -9.85051 -9.85051 -9.87165 -9.87165 -9.87165 -9.87165 -4.19724 -4.19724 -4.19724 -4.19724 -10.2824 -10.2824 -10.2824 -10.2824 -10.1797 -10.1797 -10.1797 -10.1797 -9.83614 -9.83614 -9.83614 -9.83614 -9.97534 -9.97534 -9.97534 -9.97534 -9.45208 -9.45208 -9.45208 -9.45208 -9.96138 -9.96138 -9.96138 -9.96138 -9.8793 -9.8793 -9.8793 -9.8793 -3.36631 -3.36631 -3.36631 -3.36631 -9.89487 -9.89487 -9.89487 -9.89487 -9.74623 -9.74623 -9.74623 -9.74623 -9.56508 -9.56508 -9.56508 -9.56508 -9.99054 -9.99054 -9.99054 -9.99054 -9.83987 -9.83987 -9.83987 -9.83987 -10.5472 -10.5472 -10.5472 -10.5472 -9.84276 -9.84276 -9.84276 -9.84276 -9.99163 -9.99163 -9.99163 -9.99163 -9.8831 -9.8831 -9.8831 -9.8831 -9.84225 -9.84225 -9.84225 -9.84225 -9.63358 -9.63358 -9.63358 -9.63358 -10.3461 -10.3461 -10.3461 -10.3461 -7.92523 -7.92523 -7.92523 -7.92523 -9.78918 -9.78918 -9.78918 -9.78918 -9.8672 -9.8672 -9.8672 -9.8672 -9.96037 -9.96037 -9.96037 -9.96037 -8.71666 -8.71666 -8.71666 -8.71666 -9.77044 -9.77044 -9.77044 -9.77044 -9.86167 -9.86167 -9.86167 -9.86167 -8.22153 -8.22153 -8.22153 -8.22153 -9.89814 -9.89814 -9.89814 -9.89814 -10.0615 -10.0615 -10.0615 -10.0615 -9.91039 -9.91039 -9.91039 -9.91039 -9.91476 -9.91476 -9.91476 -9.91476 -9.92761 -9.92761 -9.92761 -9.92761 -9.8551 -9.8551 -9.8551 -9.8551 -9.96168 -9.96168 -9.96168 -9.96168 -9.97246 -9.97246 -9.97246 -9.97246 -12.8652 -12.8652 -12.8652 -12.8652 -9.97939 -9.97939 -9.97939 -9.97939 -9.97955 -9.97955 -9.97955 -9.97955 -9.86785 -9.86785 -9.86785 -9.86785 -9.90099 -9.90099 -9.90099 -9.90099 -9.85224 -9.85224 -9.85224 -9.85224 -9.94301 -9.94301 -9.94301 -9.94301 -9.34623 -9.34623 -9.34623 -9.34623 -9.75703 -9.75703 -9.75703 -9.75703 -9.88752 -9.88752 -9.88752 -9.88752 -9.97739 -9.97739 -9.97739 -9.97739 -9.82176 -9.82176 -9.82176 -9.82176 -9.56578 -9.56578 -9.56578 -9.56578 -9.90256 -9.90256 -9.90256 -9.90256 -10.8543 -10.8543 -10.8543 -10.8543 -9.71726 -9.71726 -9.71726 -9.71726 -9.96296 -9.96296 -9.96296 -9.96296 -3.39559 -3.39559 -3.39559 -3.39559 -9.62368 -9.62368 -9.62368 -9.62368 -9.79337 -9.79337 -9.79337 -9.79337 -9.85072 -9.85072 -9.85072 -9.85072 -9.73517 -9.73517 -9.73517 -9.73517 -8.12931 -8.12931 -8.12931 -8.12931 -9.91547 -9.91547 -9.91547 -9.91547 -3.3557 -3.3557 -3.3557 -3.3557 -9.89038 -9.89038 -9.89038 -9.89038 -9.66759 -9.66759 -9.66759 -9.66759 -10.1995 -10.1995 -10.1995 -10.1995 -9.99941 -9.99941 -9.99941 -9.99941 -9.79436 -9.79436 -9.79436 -9.79436 -9.80707 -9.80707 -9.80707 -9.80707 -11.347 -11.347 -11.347 -11.347 -9.89774 -9.89774 -9.89774 -9.89774 -9.86001 -9.86001 -9.86001 -9.86001 -9.96375 -9.96375 -9.96375 -9.96375 -9.78532 -9.78532 -9.78532 -9.78532 -14.2396 -14.2396 -14.2396 -14.2396 -9.90147 -9.90147 -9.90147 -9.90147 -10.0182 -10.0182 -10.0182 -10.0182 -9.89255 -9.89255 -9.89255 -9.89255 -3.68717 -3.68717 -3.68717 -3.68717 -9.98455 -9.98455 -9.98455 -9.98455 -10.1724 -10.1724 -10.1724 -10.1724 -11.3191 -11.3191 -11.3191 -11.3191 -9.8325 -9.8325 -9.8325 -9.8325 -9.95386 -9.95386 -9.95386 -9.95386 -10.4872 -10.4872 -10.4872 -10.4872 -9.88651 -9.88651 -9.88651 -9.88651 -9.64493 -9.64493 -9.64493 -9.64493 -9.87097 -9.87097 -9.87097 -9.87097 -6.24379 -6.24379 -6.24379 -6.24379 -9.87183 -9.87183 -9.87183 -9.87183 -9.62443 -9.62443 -9.62443 -9.62443 -9.8318 -9.8318 -9.8318 -9.8318 -9.89374 -9.89374 -9.89374 -9.89374 -9.86862 -9.86862 -9.86862 -9.86862 -9.76617 -9.76617 -9.76617 -9.76617 -12.7184 -12.7184 -12.7184 -12.7184 -9.58468 -9.58468 -9.58468 -9.58468 -10.0379 -10.0379 -10.0379 -10.0379 -9.99582 -9.99582 -9.99582 -9.99582 -13.5584 -13.5584 -13.5584 -13.5584 -10.0202 -10.0202 -10.0202 -10.0202 -8.25209 -8.25209 -8.25209 -8.25209 -9.81346 -9.81346 -9.81346 -9.81346 -9.92744 -9.92744 -9.92744 -9.92744 -9.93989 -9.93989 -9.93989 -9.93989 -9.79618 -9.79618 -9.79618 -9.79618 -9.9925 -9.9925 -9.9925 -9.9925 -9.83917 -9.83917 -9.83917 -9.83917 -9.73347 -9.73347 -9.73347 -9.73347 -9.93213 -9.93213 -9.93213 -9.93213 -9.96653 -9.96653 -9.96653 -9.96653 -10.1182 -10.1182 -10.1182 -10.1182 -9.86203 -9.86203 -9.86203 -9.86203 -7.98554 -7.98554 -7.98554 -7.98554 -9.6519 -9.6519 -9.6519 -9.6519 -10.3017 -10.3017 -10.3017 -10.3017 -9.61841 -9.61841 -9.61841 -9.61841 -9.63629 -9.63629 -9.63629 -9.63629 -9.74478 -9.74478 -9.74478 -9.74478 -9.83174 -9.83174 -9.83174 -9.83174 -3.90733 -3.90733 -3.90733 -3.90733 -9.7899 -9.7899 -9.7899 -9.7899 -9.7996 -9.7996 -9.7996 -9.7996 -9.86245 -9.86245 -9.86245 -9.86245 -9.96063 -9.96063 -9.96063 -9.96063 -9.91737 -9.91737 -9.91737 -9.91737 -10.0438 -10.0438 -10.0438 -10.0438 -9.93626 -9.93626 -9.93626 -9.93626 -9.97942 -9.97942 -9.97942 -9.97942 -9.8577 -9.8577 -9.8577 -9.8577 -10.2208 -10.2208 -10.2208 -10.2208 -9.81574 -9.81574 -9.81574 -9.81574 -9.9265 -9.9265 -9.9265 -9.9265 -9.90035 -9.90035 -9.90035 -9.90035 -9.90532 -9.90532 -9.90532 -9.90532 -9.95999 -9.95999 -9.95999 -9.95999 -12.1868 -12.1868 -12.1868 -12.1868 -9.91505 -9.91505 -9.91505 -9.91505 -9.88205 -9.88205 -9.88205 -9.88205 -10.3823 -10.3823 -10.3823 -10.3823 -9.97018 -9.97018 -9.97018 -9.97018 -9.93982 -9.93982 -9.93982 -9.93982 -9.81318 -9.81318 -9.81318 -9.81318 -9.96799 -9.96799 -9.96799 -9.96799 -9.8967 -9.8967 -9.8967 -9.8967 -9.6726 -9.6726 -9.6726 -9.6726 -9.91007 -9.91007 -9.91007 -9.91007 -9.57821 -9.57821 -9.57821 -9.57821 -10.2173 -10.2173 -10.2173 -10.2173 -9.7506 -9.7506 -9.7506 -9.7506 -8.7277 -8.7277 -8.7277 -8.7277 -9.93447 -9.93447 -9.93447 -9.93447 -9.81395 -9.81395 -9.81395 -9.81395 -10.7194 -10.7194 -10.7194 -10.7194 -9.91497 -9.91497 -9.91497 -9.91497 -9.87237 -9.87237 -9.87237 -9.87237 -9.63106 -9.63106 -9.63106 -9.63106 -9.85463 -9.85463 -9.85463 -9.85463 -11.9701 -11.9701 -11.9701 -11.9701 -9.89806 -9.89806 -9.89806 -9.89806 -9.86909 -9.86909 -9.86909 -9.86909 -9.83285 -9.83285 -9.83285 -9.83285 -9.83815 -9.83815 -9.83815 -9.83815 -10.1855 -10.1855 -10.1855 -10.1855 -12.1535 -12.1535 -12.1535 -12.1535 -9.82807 -9.82807 -9.82807 -9.82807 -10.0125 -10.0125 -10.0125 -10.0125 -9.92142 -9.92142 -9.92142 -9.92142 -10.0106 -10.0106 -10.0106 -10.0106 -10.0824 -10.0824 -10.0824 -10.0824 -9.95686 -9.95686 -9.95686 -9.95686 -9.88214 -9.88214 -9.88214 -9.88214 -9.86281 -9.86281 -9.86281 -9.86281 -6.80194 -6.80194 -6.80194 -6.80194 -4.08864 -4.08864 -4.08864 -4.08864 -9.83653 -9.83653 -9.83653 -9.83653 -9.87332 -9.87332 -9.87332 -9.87332 -9.65648 -9.65648 -9.65648 -9.65648 -9.39427 -9.39427 -9.39427 -9.39427 -9.86889 -9.86889 -9.86889 -9.86889 -9.86177 -9.86177 -9.86177 -9.86177 -8.52186 -8.52186 -8.52186 -8.52186 -10.691 -10.691 -10.691 -10.691 -10.374 -10.374 -10.374 -10.374 -10.1937 -10.1937 -10.1937 -10.1937 -9.86127 -9.86127 -9.86127 -9.86127 -9.94863 -9.94863 -9.94863 -9.94863 -9.95602 -9.95602 -9.95602 -9.95602 -9.9955 -9.9955 -9.9955 -9.9955 -9.92989 -9.92989 -9.92989 -9.92989 -10.4565 -10.4565 -10.4565 -10.4565 -9.83873 -9.83873 -9.83873 -9.83873 -10.0702 -10.0702 -10.0702 -10.0702 -9.9689 -9.9689 -9.9689 -9.9689 -9.95822 -9.95822 -9.95822 -9.95822 -9.94356 -9.94356 -9.94356 -9.94356 -9.96803 -9.96803 -9.96803 -9.96803 -9.84825 -9.84825 -9.84825 -9.84825 -3.30842 -3.30842 -3.30842 -3.30842 -9.93315 -9.93315 -9.93315 -9.93315 -9.81757 -9.81757 -9.81757 -9.81757 -9.86021 -9.86021 -9.86021 -9.86021 -9.79034 -9.79034 -9.79034 -9.79034 -9.98535 -9.98535 -9.98535 -9.98535 -9.90721 -9.90721 -9.90721 -9.90721 -5.36205 -5.36205 -5.36205 -5.36205 -9.80204 -9.80204 -9.80204 -9.80204 -9.71669 -9.71669 -9.71669 -9.71669 -9.90392 -9.90392 -9.90392 -9.90392 -9.95416 -9.95416 -9.95416 -9.95416 -9.83352 -9.83352 -9.83352 -9.83352 -9.75879 -9.75879 -9.75879 -9.75879 -9.74955 -9.74955 -9.74955 -9.74955 -9.83888 -9.83888 -9.83888 -9.83888 -9.77461 -9.77461 -9.77461 -9.77461 -9.86009 -9.86009 -9.86009 -9.86009 -9.75595 -9.75595 -9.75595 -9.75595 -9.97229 -9.97229 -9.97229 -9.97229 -9.82399 -9.82399 -9.82399 -9.82399 -9.84649 -9.84649 -9.84649 -9.84649 -12.2627 -12.2627 -12.2627 -12.2627 -9.71739 -9.71739 -9.71739 -9.71739 -9.52783 -9.52783 -9.52783 -9.52783 -9.96779 -9.96779 -9.96779 -9.96779 -9.75163 -9.75163 -9.75163 -9.75163 -5.62733 -5.62733 -5.62733 -5.62733 -9.92537 -9.92537 -9.92537 -9.92537 -15.0368 -15.0368 -15.0368 -15.0368 -9.96903 -9.96903 -9.96903 -9.96903 -9.70387 -9.70387 -9.70387 -9.70387 -9.74032 -9.74032 -9.74032 -9.74032 -9.89549 -9.89549 -9.89549 -9.89549 -9.85405 -9.85405 -9.85405 -9.85405 -9.8379 -9.8379 -9.8379 -9.8379 -10.0942 -10.0942 -10.0942 -10.0942 -10.0577 -10.0577 -10.0577 -10.0577 -9.39888 -9.39888 -9.39888 -9.39888 -9.85592 -9.85592 -9.85592 -9.85592 -9.89208 -9.89208 -9.89208 -9.89208 -9.88818 -9.88818 -9.88818 -9.88818 -9.78136 -9.78136 -9.78136 -9.78136 -10.1441 -10.1441 -10.1441 -10.1441 -11.0281 -11.0281 -11.0281 -11.0281 -10.0727 -10.0727 -10.0727 -10.0727 -9.88029 -9.88029 -9.88029 -9.88029 -9.95349 -9.95349 -9.95349 -9.95349 -9.61703 -9.61703 -9.61703 -9.61703 -9.85862 -9.85862 -9.85862 -9.85862 -9.8916 -9.8916 -9.8916 -9.8916 -9.80328 -9.80328 -9.80328 -9.80328 -9.87652 -9.87652 -9.87652 -9.87652 -9.83047 -9.83047 -9.83047 -9.83047 -9.99008 -9.99008 -9.99008 -9.99008 -9.88612 -9.88612 -9.88612 -9.88612 -9.97983 -9.97983 -9.97983 -9.97983 -11.9099 -11.9099 -11.9099 -11.9099 -10.0103 -10.0103 -10.0103 -10.0103 -9.86416 -9.86416 -9.86416 -9.86416 -9.80517 -9.80517 -9.80517 -9.80517 -9.9688 -9.9688 -9.9688 -9.9688 -9.95849 -9.95849 -9.95849 -9.95849 -9.76328 -9.76328 -9.76328 -9.76328 -9.78026 -9.78026 -9.78026 -9.78026 -9.82467 -9.82467 -9.82467 -9.82467 -9.83173 -9.83173 -9.83173 -9.83173 -9.84909 -9.84909 -9.84909 -9.84909 -4.92277 -4.92277 -4.92277 -4.92277 -9.75851 -9.75851 -9.75851 -9.75851 -9.87365 -9.87365 -9.87365 -9.87365 -11.1486 -11.1486 -11.1486 -11.1486 -9.71096 -9.71096 -9.71096 -9.71096 -9.57909 -9.57909 -9.57909 -9.57909 -9.84194 -9.84194 -9.84194 -9.84194 -9.96783 -9.96783 -9.96783 -9.96783 -7.79228 -7.79228 -7.79228 -7.79228 -9.78543 -9.78543 -9.78543 -9.78543 -9.94336 -9.94336 -9.94336 -9.94336 -9.96133 -9.96133 -9.96133 -9.96133 -9.67505 -9.67505 -9.67505 -9.67505 -9.56373 -9.56373 -9.56373 -9.56373 -10.5108 -10.5108 -10.5108 -10.5108 -10.1445 -10.1445 -10.1445 -10.1445 -9.93121 -9.93121 -9.93121 -9.93121 -9.93857 -9.93857 -9.93857 -9.93857 -9.85688 -9.85688 -9.85688 -9.85688 -9.88919 -9.88919 -9.88919 -9.88919 -9.84429 -9.84429 -9.84429 -9.84429 -9.97812 -9.97812 -9.97812 -9.97812 -9.87536 -9.87536 -9.87536 -9.87536 -9.58072 -9.58072 -9.58072 -9.58072 -9.85069 -9.85069 -9.85069 -9.85069 -9.8667 -9.8667 -9.8667 -9.8667 -9.83734 -9.83734 -9.83734 -9.83734 -9.99219 -9.99219 -9.99219 -9.99219 -10.1442 -10.1442 -10.1442 -10.1442 -9.96994 -9.96994 -9.96994 -9.96994 -10.8386 -10.8386 -10.8386 -10.8386 -9.86361 -9.86361 -9.86361 -9.86361 -9.84102 -9.84102 -9.84102 -9.84102 -3.37398 -3.37398 -3.37398 -3.37398 -9.73229 -9.73229 -9.73229 -9.73229 -7.56508 -7.56508 -7.56508 -7.56508 -9.89874 -9.89874 -9.89874 -9.89874 -9.49826 -9.49826 -9.49826 -9.49826 -9.63157 -9.63157 -9.63157 -9.63157 -9.83582 -9.83582 -9.83582 -9.83582 -10.0808 -10.0808 -10.0808 -10.0808 -9.57456 -9.57456 -9.57456 -9.57456 -12.6691 -12.6691 -12.6691 -12.6691 -9.5429 -9.5429 -9.5429 -9.5429 -9.88179 -9.88179 -9.88179 -9.88179 -10.5134 -10.5134 -10.5134 -10.5134 -9.87144 -9.87144 -9.87144 -9.87144 -9.77576 -9.77576 -9.77576 -9.77576 -9.84431 -9.84431 -9.84431 -9.84431 -9.94419 -9.94419 -9.94419 -9.94419 -10.365 -10.365 -10.365 -10.365 -11.8306 -11.8306 -11.8306 -11.8306 -9.8759 -9.8759 -9.8759 -9.8759 -10.3107 -10.3107 -10.3107 -10.3107 -9.87451 -9.87451 -9.87451 -9.87451 -10.4111 -10.4111 -10.4111 -10.4111 -9.69728 -9.69728 -9.69728 -9.69728 -9.93062 -9.93062 -9.93062 -9.93062 -3.25016 -3.25016 -3.25016 -3.25016 -9.88063 -9.88063 -9.88063 -9.88063 -5.2083 -5.2083 -5.2083 -5.2083 -9.63462 -9.63462 -9.63462 -9.63462 -10.4028 -10.4028 -10.4028 -10.4028 -10.0286 -10.0286 -10.0286 -10.0286 -10.6157 -10.6157 -10.6157 -10.6157 -9.9642 -9.9642 -9.9642 -9.9642 -9.91226 -9.91226 -9.91226 -9.91226 -9.76668 -9.76668 -9.76668 -9.76668 -9.98544 -9.98544 -9.98544 -9.98544 -14.6991 -14.6991 -14.6991 -14.6991 -9.98133 -9.98133 -9.98133 -9.98133 -9.91475 -9.91475 -9.91475 -9.91475 -9.81769 -9.81769 -9.81769 -9.81769 -9.85283 -9.85283 -9.85283 -9.85283 -9.97729 -9.97729 -9.97729 -9.97729 -9.96161 -9.96161 -9.96161 -9.96161 -9.97013 -9.97013 -9.97013 -9.97013 -9.96924 -9.96924 -9.96924 -9.96924 -9.90892 -9.90892 -9.90892 -9.90892 -9.91123 -9.91123 -9.91123 -9.91123 -9.83994 -9.83994 -9.83994 -9.83994 -9.96725 -9.96725 -9.96725 -9.96725 -9.89139 -9.89139 -9.89139 -9.89139 -9.88122 -9.88122 -9.88122 -9.88122 -9.84915 -9.84915 -9.84915 -9.84915 -9.61544 -9.61544 -9.61544 -9.61544 -9.68116 -9.68116 -9.68116 -9.68116 -7.94042 -7.94042 -7.94042 -7.94042 -15.9178 -15.9178 -15.9178 -15.9178 -9.1624 -9.1624 -9.1624 -9.1624 -3.79265 -3.79265 -3.79265 -3.79265 -9.9105 -9.9105 -9.9105 -9.9105 -9.92823 -9.92823 -9.92823 -9.92823 -7.39889 -7.39889 -7.39889 -7.39889 -9.86341 -9.86341 -9.86341 -9.86341 -9.93898 -9.93898 -9.93898 -9.93898 -9.97626 -9.97626 -9.97626 -9.97626 -9.89319 -9.89319 -9.89319 -9.89319 -9.69928 -9.69928 -9.69928 -9.69928 -9.99084 -9.99084 -9.99084 -9.99084 -12.0769 -12.0769 -12.0769 -12.0769 -9.97831 -9.97831 -9.97831 -9.97831 -10.1851 -10.1851 -10.1851 -10.1851 -9.92062 -9.92062 -9.92062 -9.92062 -9.86041 -9.86041 -9.86041 -9.86041 -9.9475 -9.9475 -9.9475 -9.9475 -9.7189 -9.7189 -9.7189 -9.7189 -9.89748 -9.89748 -9.89748 -9.89748 -3.66182 -3.66182 -3.66182 -3.66182 -9.86018 -9.86018 -9.86018 -9.86018 -9.82985 -9.82985 -9.82985 -9.82985 -9.99089 -9.99089 -9.99089 -9.99089 -8.32963 -8.32963 -8.32963 -8.32963 -9.61606 -9.61606 -9.61606 -9.61606 -9.65838 -9.65838 -9.65838 -9.65838 -10.0058 -10.0058 -10.0058 -10.0058 -9.94459 -9.94459 -9.94459 -9.94459 -9.87187 -9.87187 -9.87187 -9.87187 -10.2709 -10.2709 -10.2709 -10.2709 -10.0848 -10.0848 -10.0848 -10.0848 -9.8168 -9.8168 -9.8168 -9.8168 -9.8839 -9.8839 -9.8839 -9.8839 -9.7584 -9.7584 -9.7584 -9.7584 -10.07 -10.07 -10.07 -10.07 -8.5359 -8.5359 -8.5359 -8.5359 -9.77591 -9.77591 -9.77591 -9.77591 -10.1325 -10.1325 -10.1325 -10.1325 -9.90386 -9.90386 -9.90386 -9.90386 -11.714 -11.714 -11.714 -11.714 -9.869 -9.869 -9.869 -9.869 -9.85153 -9.85153 -9.85153 -9.85153 -10.7535 -10.7535 -10.7535 -10.7535 -9.95282 -9.95282 -9.95282 -9.95282 -10.5287 -10.5287 -10.5287 -10.5287 -9.29005 -9.29005 -9.29005 -9.29005 -10.6274 -10.6274 -10.6274 -10.6274 -9.69687 -9.69687 -9.69687 -9.69687 -9.84755 -9.84755 -9.84755 -9.84755 -9.88542 -9.88542 -9.88542 -9.88542 -10.0238 -10.0238 -10.0238 -10.0238 -9.74987 -9.74987 -9.74987 -9.74987 -13.0521 -13.0521 -13.0521 -13.0521 -9.79698 -9.79698 -9.79698 -9.79698 -9.8101 -9.8101 -9.8101 -9.8101 -8.64969 -8.64969 -8.64969 -8.64969 -10.0395 -10.0395 -10.0395 -10.0395 -9.81308 -9.81308 -9.81308 -9.81308 -9.97099 -9.97099 -9.97099 -9.97099 -9.71199 -9.71199 -9.71199 -9.71199 -9.96539 -9.96539 -9.96539 -9.96539 -9.83767 -9.83767 -9.83767 -9.83767 -9.96077 -9.96077 -9.96077 -9.96077 -11.6427 -11.6427 -11.6427 -11.6427 -9.74916 -9.74916 -9.74916 -9.74916 -11.4415 -11.4415 -11.4415 -11.4415 -9.85524 -9.85524 -9.85524 -9.85524 -10.6244 -10.6244 -10.6244 -10.6244 -13.2219 -13.2219 -13.2219 -13.2219 -9.81303 -9.81303 -9.81303 -9.81303 -9.85449 -9.85449 -9.85449 -9.85449 -9.8005 -9.8005 -9.8005 -9.8005 -9.9365 -9.9365 -9.9365 -9.9365 -9.59286 -9.59286 -9.59286 -9.59286 -9.97948 -9.97948 -9.97948 -9.97948 -9.76811 -9.76811 -9.76811 -9.76811 -9.91691 -9.91691 -9.91691 -9.91691 -9.92539 -9.92539 -9.92539 -9.92539 -9.90645 -9.90645 -9.90645 -9.90645 -9.8512 -9.8512 -9.8512 -9.8512 -10.8212 -10.8212 -10.8212 -10.8212 -9.8645 -9.8645 -9.8645 -9.8645 -9.80496 -9.80496 -9.80496 -9.80496 -9.98806 -9.98806 -9.98806 -9.98806 -9.86361 -9.86361 -9.86361 -9.86361 -9.86206 -9.86206 -9.86206 -9.86206 -9.7461 -9.7461 -9.7461 -9.7461 -9.81424 -9.81424 -9.81424 -9.81424 -9.92976 -9.92976 -9.92976 -9.92976 -11.5908 -11.5908 -11.5908 -11.5908 -9.94375 -9.94375 -9.94375 -9.94375 -9.82818 -9.82818 -9.82818 -9.82818 -9.6862 -9.6862 -9.6862 -9.6862 -9.34708 -9.34708 -9.34708 -9.34708 -9.77285 -9.77285 -9.77285 -9.77285 -9.82887 -9.82887 -9.82887 -9.82887 -9.89991 -9.89991 -9.89991 -9.89991 -9.86947 -9.86947 -9.86947 -9.86947 -9.93378 -9.93378 -9.93378 -9.93378 -10.1082 -10.1082 -10.1082 -10.1082 -10.0708 -10.0708 -10.0708 -10.0708 -9.97685 -9.97685 -9.97685 -9.97685 -9.88439 -9.88439 -9.88439 -9.88439 -9.97471 -9.97471 -9.97471 -9.97471 -9.77236 -9.77236 -9.77236 -9.77236 -9.92964 -9.92964 -9.92964 -9.92964 -10.0653 -10.0653 -10.0653 -10.0653 -10.1874 -10.1874 -10.1874 -10.1874 -9.41963 -9.41963 -9.41963 -9.41963 -9.9203 -9.9203 -9.9203 -9.9203 -10.4251 -10.4251 -10.4251 -10.4251 -9.87218 -9.87218 -9.87218 -9.87218 -9.93945 -9.93945 -9.93945 -9.93945 -9.99267 -9.99267 -9.99267 -9.99267 -9.91914 -9.91914 -9.91914 -9.91914 -9.78164 -9.78164 -9.78164 -9.78164 -9.90439 -9.90439 -9.90439 -9.90439 -9.84598 -9.84598 -9.84598 -9.84598 -9.80799 -9.80799 -9.80799 -9.80799 -9.78363 -9.78363 -9.78363 -9.78363 -9.76712 -9.76712 -9.76712 -9.76712 -9.65366 -9.65366 -9.65366 -9.65366 -9.85853 -9.85853 -9.85853 -9.85853 -9.83517 -9.83517 -9.83517 -9.83517 -9.3634 -9.3634 -9.3634 -9.3634 -9.84726 -9.84726 -9.84726 -9.84726 -9.94221 -9.94221 -9.94221 -9.94221 -8.3028 -8.3028 -8.3028 -8.3028 -9.83829 -9.83829 -9.83829 -9.83829 -9.80809 -9.80809 -9.80809 -9.80809 -9.97542 -9.97542 -9.97542 -9.97542 -9.7051 -9.7051 -9.7051 -9.7051 -9.80707 -9.80707 -9.80707 -9.80707 -9.92148 -9.92148 -9.92148 -9.92148 -9.85031 -9.85031 -9.85031 -9.85031 -9.78255 -9.78255 -9.78255 -9.78255 -9.8243 -9.8243 -9.8243 -9.8243 -9.85444 -9.85444 -9.85444 -9.85444 -9.94206 -9.94206 -9.94206 -9.94206 -9.87747 -9.87747 -9.87747 -9.87747 -9.93976 -9.93976 -9.93976 -9.93976 -9.92807 -9.92807 -9.92807 -9.92807 -9.87902 -9.87902 -9.87902 -9.87902 -9.85888 -9.85888 -9.85888 -9.85888 -9.86697 -9.86697 -9.86697 -9.86697 -9.87498 -9.87498 -9.87498 -9.87498 -9.83156 -9.83156 -9.83156 -9.83156 -8.10645 -8.10645 -8.10645 -8.10645 -9.82033 -9.82033 -9.82033 -9.82033 -9.79194 -9.79194 -9.79194 -9.79194 -9.99422 -9.99422 -9.99422 -9.99422 -9.98035 -9.98035 -9.98035 -9.98035 -9.92923 -9.92923 -9.92923 -9.92923 -9.93941 -9.93941 -9.93941 -9.93941 -9.86325 -9.86325 -9.86325 -9.86325 -10.3874 -10.3874 -10.3874 -10.3874 -9.96197 -9.96197 -9.96197 -9.96197 -10.2637 -10.2637 -10.2637 -10.2637 -9.86249 -9.86249 -9.86249 -9.86249 -9.98295 -9.98295 -9.98295 -9.98295 -9.65695 -9.65695 -9.65695 -9.65695 -9.36174 -9.36174 -9.36174 -9.36174 -9.41183 -9.41183 -9.41183 -9.41183 -9.88921 -9.88921 -9.88921 -9.88921 -9.83604 -9.83604 -9.83604 -9.83604 -9.88185 -9.88185 -9.88185 -9.88185 -9.94686 -9.94686 -9.94686 -9.94686 -9.75892 -9.75892 -9.75892 -9.75892 -10.1364 -10.1364 -10.1364 -10.1364 -9.92953 -9.92953 -9.92953 -9.92953 -10.1536 -10.1536 -10.1536 -10.1536 -9.91984 -9.91984 -9.91984 -9.91984 -9.78144 -9.78144 -9.78144 -9.78144 -10.1296 -10.1296 -10.1296 -10.1296 -10.9423 -10.9423 -10.9423 -10.9423 -9.87897 -9.87897 -9.87897 -9.87897 -10.8304 -10.8304 -10.8304 -10.8304 -9.91463 -9.91463 -9.91463 -9.91463 -9.80661 -9.80661 -9.80661 -9.80661 -9.93188 -9.93188 -9.93188 -9.93188 -12.5248 -12.5248 -12.5248 -12.5248 -9.92097 -9.92097 -9.92097 -9.92097 -9.90524 -9.90524 -9.90524 -9.90524 -9.95375 -9.95375 -9.95375 -9.95375 -9.83945 -9.83945 -9.83945 -9.83945 -9.93527 -9.93527 -9.93527 -9.93527 -9.83748 -9.83748 -9.83748 -9.83748 -10.0081 -10.0081 -10.0081 -10.0081 -9.86003 -9.86003 -9.86003 -9.86003 -9.94858 -9.94858 -9.94858 -9.94858 -9.84601 -9.84601 -9.84601 -9.84601 -9.85926 -9.85926 -9.85926 -9.85926 -9.86666 -9.86666 -9.86666 -9.86666 -10.8505 -10.8505 -10.8505 -10.8505 -9.87053 -9.87053 -9.87053 -9.87053 -9.96411 -9.96411 -9.96411 -9.96411 -9.93798 -9.93798 -9.93798 -9.93798 -9.7195 -9.7195 -9.7195 -9.7195 -10.5204 -10.5204 -10.5204 -10.5204 -9.8108 -9.8108 -9.8108 -9.8108 -13.9102 -13.9102 -13.9102 -13.9102 -3.13185 -3.13185 -3.13185 -3.13185 -8.92214 -8.92214 -8.92214 -8.92214 -10.0222 -10.0222 -10.0222 -10.0222 -9.89834 -9.89834 -9.89834 -9.89834 -9.82219 -9.82219 -9.82219 -9.82219 -9.78554 -9.78554 -9.78554 -9.78554 -8.4042 -8.4042 -8.4042 -8.4042 -9.93822 -9.93822 -9.93822 -9.93822 -9.95084 -9.95084 -9.95084 -9.95084 -7.53462 -7.53462 -7.53462 -7.53462 -9.80151 -9.80151 -9.80151 -9.80151 -9.74432 -9.74432 -9.74432 -9.74432 -10.3161 -10.3161 -10.3161 -10.3161 -9.96201 -9.96201 -9.96201 -9.96201 -2.74835 -2.74835 -2.74835 -2.74835 -9.58086 -9.58086 -9.58086 -9.58086 -9.82325 -9.82325 -9.82325 -9.82325 -9.99371 -9.99371 -9.99371 -9.99371 -9.84187 -9.84187 -9.84187 -9.84187 -9.88347 -9.88347 -9.88347 -9.88347 -9.91345 -9.91345 -9.91345 -9.91345 -7.29157 -7.29157 -7.29157 -7.29157 -9.80853 -9.80853 -9.80853 -9.80853 -9.93327 -9.93327 -9.93327 -9.93327 -9.82216 -9.82216 -9.82216 -9.82216 -8.83851 -8.83851 -8.83851 -8.83851 -9.97334 -9.97334 -9.97334 -9.97334 -9.79808 -9.79808 -9.79808 -9.79808 -9.92886 -9.92886 -9.92886 -9.92886 -10.0077 -10.0077 -10.0077 -10.0077 -9.92838 -9.92838 -9.92838 -9.92838 -9.94882 -9.94882 -9.94882 -9.94882 -9.8788 -9.8788 -9.8788 -9.8788 -9.88787 -9.88787 -9.88787 -9.88787 -8.56046 -8.56046 -8.56046 -8.56046 -9.97459 -9.97459 -9.97459 -9.97459 -10.7905 -10.7905 -10.7905 -10.7905 -9.965 -9.965 -9.965 -9.965 -10.2637 -10.2637 -10.2637 -10.2637 -7.23546 -7.23546 -7.23546 -7.23546 -9.8849 -9.8849 -9.8849 -9.8849 -9.58854 -9.58854 -9.58854 -9.58854 -9.91641 -9.91641 -9.91641 -9.91641 -9.81354 -9.81354 -9.81354 -9.81354 -9.92258 -9.92258 -9.92258 -9.92258 -9.7935 -9.7935 -9.7935 -9.7935 -12.5636 -12.5636 -12.5636 -12.5636 -9.67223 -9.67223 -9.67223 -9.67223 -10.0059 -10.0059 -10.0059 -10.0059 -9.80492 -9.80492 -9.80492 -9.80492 -10.1097 -10.1097 -10.1097 -10.1097 -9.7955 -9.7955 -9.7955 -9.7955 -9.925 -9.925 -9.925 -9.925 -9.92689 -9.92689 -9.92689 -9.92689 -9.867 -9.867 -9.867 -9.867 -9.83096 -9.83096 -9.83096 -9.83096 -9.89903 -9.89903 -9.89903 -9.89903 -9.95344 -9.95344 -9.95344 -9.95344 -9.89216 -9.89216 -9.89216 -9.89216 -9.84404 -9.84404 -9.84404 -9.84404 -9.81502 -9.81502 -9.81502 -9.81502 -3.82122 -3.82122 -3.82122 -3.82122 -9.8341 -9.8341 -9.8341 -9.8341 -9.90119 -9.90119 -9.90119 -9.90119 -9.82502 -9.82502 -9.82502 -9.82502 -10.1101 -10.1101 -10.1101 -10.1101 -4.20048 -4.20048 -4.20048 -4.20048 -9.84076 -9.84076 -9.84076 -9.84076 -9.46699 -9.46699 -9.46699 -9.46699 -9.87216 -9.87216 -9.87216 -9.87216 -9.86443 -9.86443 -9.86443 -9.86443 -7.13262 -7.13262 -7.13262 -7.13262 -9.88416 -9.88416 -9.88416 -9.88416 -9.83228 -9.83228 -9.83228 -9.83228 -9.86827 -9.86827 -9.86827 -9.86827 -9.99046 -9.99046 -9.99046 -9.99046 -9.84236 -9.84236 -9.84236 -9.84236 -9.30456 -9.30456 -9.30456 -9.30456 -9.79991 -9.79991 -9.79991 -9.79991 -9.88442 -9.88442 -9.88442 -9.88442 -10.1162 -10.1162 -10.1162 -10.1162 -9.75339 -9.75339 -9.75339 -9.75339 -9.1232 -9.1232 -9.1232 -9.1232 -9.73807 -9.73807 -9.73807 -9.73807 -10.2074 -10.2074 -10.2074 -10.2074 -10.1993 -10.1993 -10.1993 -10.1993 -9.92843 -9.92843 -9.92843 -9.92843 -9.81641 -9.81641 -9.81641 -9.81641 -10.2979 -10.2979 -10.2979 -10.2979 -9.97895 -9.97895 -9.97895 -9.97895 -9.91957 -9.91957 -9.91957 -9.91957 -9.96056 -9.96056 -9.96056 -9.96056 -10.1382 -10.1382 -10.1382 -10.1382 -9.97155 -9.97155 -9.97155 -9.97155 -9.97839 -9.97839 -9.97839 -9.97839 -9.93035 -9.93035 -9.93035 -9.93035 -10.7913 -10.7913 -10.7913 -10.7913 -12.6379 -12.6379 -12.6379 -12.6379 -9.83343 -9.83343 -9.83343 -9.83343 -9.84848 -9.84848 -9.84848 -9.84848 -10.0059 -10.0059 -10.0059 -10.0059 -9.87236 -9.87236 -9.87236 -9.87236 -9.93609 -9.93609 -9.93609 -9.93609 -9.74802 -9.74802 -9.74802 -9.74802 -9.77371 -9.77371 -9.77371 -9.77371 -9.78693 -9.78693 -9.78693 -9.78693 -9.91359 -9.91359 -9.91359 -9.91359 -3.67074 -3.67074 -3.67074 -3.67074 -10.0315 -10.0315 -10.0315 -10.0315 -9.86758 -9.86758 -9.86758 -9.86758 -11.1038 -11.1038 -11.1038 -11.1038 -9.9492 -9.9492 -9.9492 -9.9492 -9.98459 -9.98459 -9.98459 -9.98459 -9.95537 -9.95537 -9.95537 -9.95537 -9.70552 -9.70552 -9.70552 -9.70552 -9.88493 -9.88493 -9.88493 -9.88493 -10.1563 -10.1563 -10.1563 -10.1563 -9.90113 -9.90113 -9.90113 -9.90113 -9.97444 -9.97444 -9.97444 -9.97444 -9.97042 -9.97042 -9.97042 -9.97042 -9.92877 -9.92877 -9.92877 -9.92877 -9.85658 -9.85658 -9.85658 -9.85658 -10.6425 -10.6425 -10.6425 -10.6425 -9.55185 -9.55185 -9.55185 -9.55185 -10.8595 -10.8595 -10.8595 -10.8595 -9.96389 -9.96389 -9.96389 -9.96389 -9.8393 -9.8393 -9.8393 -9.8393 -9.78688 -9.78688 -9.78688 -9.78688 -9.8568 -9.8568 -9.8568 -9.8568 -10.0961 -10.0961 -10.0961 -10.0961 -9.81882 -9.81882 -9.81882 -9.81882 -9.79095 -9.79095 -9.79095 -9.79095 -9.76856 -9.76856 -9.76856 -9.76856 -10.0476 -10.0476 -10.0476 -10.0476 -9.8687 -9.8687 -9.8687 -9.8687 -9.80774 -9.80774 -9.80774 -9.80774 -9.32717 -9.32717 -9.32717 -9.32717 -9.8406 -9.8406 -9.8406 -9.8406 -9.95727 -9.95727 -9.95727 -9.95727 -9.77806 -9.77806 -9.77806 -9.77806 -10.0228 -10.0228 -10.0228 -10.0228 -10.4296 -10.4296 -10.4296 -10.4296 -9.91763 -9.91763 -9.91763 -9.91763 -6.98087 -6.98087 -6.98087 -6.98087 -4.74181 -4.74181 -4.74181 -4.74181 -9.29082 -9.29082 -9.29082 -9.29082 -10.0676 -10.0676 -10.0676 -10.0676 -9.97045 -9.97045 -9.97045 -9.97045 -9.89475 -9.89475 -9.89475 -9.89475 -9.84795 -9.84795 -9.84795 -9.84795 -9.94319 -9.94319 -9.94319 -9.94319 -9.89535 -9.89535 -9.89535 -9.89535 -9.95172 -9.95172 -9.95172 -9.95172 -9.86827 -9.86827 -9.86827 -9.86827 -9.94897 -9.94897 -9.94897 -9.94897 -9.99919 -9.99919 -9.99919 -9.99919 -9.82022 -9.82022 -9.82022 -9.82022 -9.97336 -9.97336 -9.97336 -9.97336 -9.94657 -9.94657 -9.94657 -9.94657 -10.0891 -10.0891 -10.0891 -10.0891 -10.2502 -10.2502 -10.2502 -10.2502 -9.86552 -9.86552 -9.86552 -9.86552 -10.0482 -10.0482 -10.0482 -10.0482 -7.48532 -7.48532 -7.48532 -7.48532 -10.3097 -10.3097 -10.3097 -10.3097 -9.77767 -9.77767 -9.77767 -9.77767 -9.86683 -9.86683 -9.86683 -9.86683 -10.1854 -10.1854 -10.1854 -10.1854 -10.0671 -10.0671 -10.0671 -10.0671 -9.76376 -9.76376 -9.76376 -9.76376 -3.12028 -3.12028 -3.12028 -3.12028 -9.94866 -9.94866 -9.94866 -9.94866 -3.38431 -3.38431 -3.38431 -3.38431 -10.6313 -10.6313 -10.6313 -10.6313 -12.0855 -12.0855 -12.0855 -12.0855 -10.0004 -10.0004 -10.0004 -10.0004 -9.84893 -9.84893 -9.84893 -9.84893 -9.97047 -9.97047 -9.97047 -9.97047 -9.9718 -9.9718 -9.9718 -9.9718 -10.3325 -10.3325 -10.3325 -10.3325 -10.2947 -10.2947 -10.2947 -10.2947 -9.8827 -9.8827 -9.8827 -9.8827 -9.83009 -9.83009 -9.83009 -9.83009 -9.9614 -9.9614 -9.9614 -9.9614 -9.66839 -9.66839 -9.66839 -9.66839 -9.79958 -9.79958 -9.79958 -9.79958 -10.301 -10.301 -10.301 -10.301 -9.9816 -9.9816 -9.9816 -9.9816 -10.2614 -10.2614 -10.2614 -10.2614 -8.53772 -8.53772 -8.53772 -8.53772 -3.6353 -3.6353 -3.6353 -3.6353 -9.93019 -9.93019 -9.93019 -9.93019 -9.62437 -9.62437 -9.62437 -9.62437 -9.77617 -9.77617 -9.77617 -9.77617 -9.85602 -9.85602 -9.85602 -9.85602 -10.031 -10.031 -10.031 -10.031 -9.85182 -9.85182 -9.85182 -9.85182 -10.0256 -10.0256 -10.0256 -10.0256 -9.93887 -9.93887 -9.93887 -9.93887 -10.502 -10.502 -10.502 -10.502 -9.93973 -9.93973 -9.93973 -9.93973 -9.7757 -9.7757 -9.7757 -9.7757 -9.34723 -9.34723 -9.34723 -9.34723 -10.0751 -10.0751 -10.0751 -10.0751 -9.93089 -9.93089 -9.93089 -9.93089 -9.91579 -9.91579 -9.91579 -9.91579 -9.98061 -9.98061 -9.98061 -9.98061 -9.74306 -9.74306 -9.74306 -9.74306 -9.62903 -9.62903 -9.62903 -9.62903 -10.5207 -10.5207 -10.5207 -10.5207 -9.85799 -9.85799 -9.85799 -9.85799 -10.4013 -10.4013 -10.4013 -10.4013 -9.96066 -9.96066 -9.96066 -9.96066 -8.95935 -8.95935 -8.95935 -8.95935 -9.97067 -9.97067 -9.97067 -9.97067 -9.96868 -9.96868 -9.96868 -9.96868 -8.76913 -8.76913 -8.76913 -8.76913 -10.502 -10.502 -10.502 -10.502 -10.0382 -10.0382 -10.0382 -10.0382 -10.1947 -10.1947 -10.1947 -10.1947 -9.85957 -9.85957 -9.85957 -9.85957 -10.0287 -10.0287 -10.0287 -10.0287 -10.1135 -10.1135 -10.1135 -10.1135 -10.1138 -10.1138 -10.1138 -10.1138 -9.97133 -9.97133 -9.97133 -9.97133 -10.1325 -10.1325 -10.1325 -10.1325 -9.86498 -9.86498 -9.86498 -9.86498 -9.88715 -9.88715 -9.88715 -9.88715 -9.98432 -9.98432 -9.98432 -9.98432 -9.82347 -9.82347 -9.82347 -9.82347 -9.85202 -9.85202 -9.85202 -9.85202 -9.98967 -9.98967 -9.98967 -9.98967 -9.81736 -9.81736 -9.81736 -9.81736 -9.59061 -9.59061 -9.59061 -9.59061 -9.85495 -9.85495 -9.85495 -9.85495 -10.0134 -10.0134 -10.0134 -10.0134 -9.98081 -9.98081 -9.98081 -9.98081 -9.99285 -9.99285 -9.99285 -9.99285 -9.73879 -9.73879 -9.73879 -9.73879 -9.88201 -9.88201 -9.88201 -9.88201 -10.1489 -10.1489 -10.1489 -10.1489 -9.89284 -9.89284 -9.89284 -9.89284 -9.94897 -9.94897 -9.94897 -9.94897 -10.0868 -10.0868 -10.0868 -10.0868 -9.94344 -9.94344 -9.94344 -9.94344 -9.98504 -9.98504 -9.98504 -9.98504 -9.99631 -9.99631 -9.99631 -9.99631 -9.85986 -9.85986 -9.85986 -9.85986 -9.94707 -9.94707 -9.94707 -9.94707 -8.9891 -8.9891 -8.9891 -8.9891 -10.5469 -10.5469 -10.5469 -10.5469 -9.96817 -9.96817 -9.96817 -9.96817 -9.83057 -9.83057 -9.83057 -9.83057 -10.0984 -10.0984 -10.0984 -10.0984 -10.1432 -10.1432 -10.1432 -10.1432 -9.81593 -9.81593 -9.81593 -9.81593 -9.77667 -9.77667 -9.77667 -9.77667 -10.0004 -10.0004 -10.0004 -10.0004 -9.80151 -9.80151 -9.80151 -9.80151 -9.92886 -9.92886 -9.92886 -9.92886 -10.4942 -10.4942 -10.4942 -10.4942 -9.89675 -9.89675 -9.89675 -9.89675 -9.93806 -9.93806 -9.93806 -9.93806 -9.91514 -9.91514 -9.91514 -9.91514 -3.22309 -3.22309 -3.22309 -3.22309 -9.26334 -9.26334 -9.26334 -9.26334 -10.8053 -10.8053 -10.8053 -10.8053 -9.93285 -9.93285 -9.93285 -9.93285 -10.589 -10.589 -10.589 -10.589 -9.97195 -9.97195 -9.97195 -9.97195 -9.98455 -9.98455 -9.98455 -9.98455 -10.0527 -10.0527 -10.0527 -10.0527 -9.95948 -9.95948 -9.95948 -9.95948 -9.8636 -9.8636 -9.8636 -9.8636 -9.86318 -9.86318 -9.86318 -9.86318 -9.92972 -9.92972 -9.92972 -9.92972 -9.83419 -9.83419 -9.83419 -9.83419 -5.19896 -5.19896 -5.19896 -5.19896 -10.0933 -10.0933 -10.0933 -10.0933 -10.0803 -10.0803 -10.0803 -10.0803 -9.9311 -9.9311 -9.9311 -9.9311 -9.84138 -9.84138 -9.84138 -9.84138 -9.97799 -9.97799 -9.97799 -9.97799 -10.2026 -10.2026 -10.2026 -10.2026 -9.75349 -9.75349 -9.75349 -9.75349 -9.98517 -9.98517 -9.98517 -9.98517 -9.96201 -9.96201 -9.96201 -9.96201 -9.96106 -9.96106 -9.96106 -9.96106 -2.70852 -2.70852 -2.70852 -2.70852 -9.85811 -9.85811 -9.85811 -9.85811 -10.0712 -10.0712 -10.0712 -10.0712 -9.98565 -9.98565 -9.98565 -9.98565 -9.96775 -9.96775 -9.96775 -9.96775 -2.96292 -2.96292 -2.96292 -2.96292 -9.78523 -9.78523 -9.78523 -9.78523 -10.9188 -10.9188 -10.9188 -10.9188 -10.0419 -10.0419 -10.0419 -10.0419 -9.93927 -9.93927 -9.93927 -9.93927 -10.956 -10.956 -10.956 -10.956 -9.92544 -9.92544 -9.92544 -9.92544 -9.93491 -9.93491 -9.93491 -9.93491 -9.98957 -9.98957 -9.98957 -9.98957 -10.0826 -10.0826 -10.0826 -10.0826 -9.35016 -9.35016 -9.35016 -9.35016 -9.95033 -9.95033 -9.95033 -9.95033 -9.95633 -9.95633 -9.95633 -9.95633 -10.0202 -10.0202 -10.0202 -10.0202 -9.8737 -9.8737 -9.8737 -9.8737 -9.95376 -9.95376 -9.95376 -9.95376 -9.54877 -9.54877 -9.54877 -9.54877 -9.87484 -9.87484 -9.87484 -9.87484 -11.6815 -11.6815 -11.6815 -11.6815 -12.0319 -12.0319 -12.0319 -12.0319 -4.90344 -4.90344 -4.90344 -4.90344 -10.224 -10.224 -10.224 -10.224 -9.86983 -9.86983 -9.86983 -9.86983 -9.86529 -9.86529 -9.86529 -9.86529 -6.79285 -6.79285 -6.79285 -6.79285 -9.98055 -9.98055 -9.98055 -9.98055 -9.95988 -9.95988 -9.95988 -9.95988 -4.74395 -4.74395 -4.74395 -4.74395 -9.98318 -9.98318 -9.98318 -9.98318 -9.9229 -9.9229 -9.9229 -9.9229 -9.77238 -9.77238 -9.77238 -9.77238 -10.3502 -10.3502 -10.3502 -10.3502 -9.93793 -9.93793 -9.93793 -9.93793 -9.86446 -9.86446 -9.86446 -9.86446 -5.24676 -5.24676 -5.24676 -5.24676 -9.98613 -9.98613 -9.98613 -9.98613 -7.14068 -7.14068 -7.14068 -7.14068 -9.87078 -9.87078 -9.87078 -9.87078 -9.74979 -9.74979 -9.74979 -9.74979 -9.89252 -9.89252 -9.89252 -9.89252 -10.1793 -10.1793 -10.1793 -10.1793 -9.76889 -9.76889 -9.76889 -9.76889 -9.89616 -9.89616 -9.89616 -9.89616 -9.90945 -9.90945 -9.90945 -9.90945 -9.87085 -9.87085 -9.87085 -9.87085 -9.85358 -9.85358 -9.85358 -9.85358 -9.92842 -9.92842 -9.92842 -9.92842 -9.92268 -9.92268 -9.92268 -9.92268 -9.92181 -9.92181 -9.92181 -9.92181 -5.27015 -5.27015 -5.27015 -5.27015 -9.99302 -9.99302 -9.99302 -9.99302 -10.2953 -10.2953 -10.2953 -10.2953 -9.97001 -9.97001 -9.97001 -9.97001 -9.85603 -9.85603 -9.85603 -9.85603 -9.98236 -9.98236 -9.98236 -9.98236 -10.5109 -10.5109 -10.5109 -10.5109 -5.0595 -5.0595 -5.0595 -5.0595 -9.88101 -9.88101 -9.88101 -9.88101 -9.08289 -9.08289 -9.08289 -9.08289 -10.2142 -10.2142 -10.2142 -10.2142 -9.82217 -9.82217 -9.82217 -9.82217 -9.82572 -9.82572 -9.82572 -9.82572 -6.04389 -6.04389 -6.04389 -6.04389 -9.39375 -9.39375 -9.39375 -9.39375 -3.53259 -3.53259 -3.53259 -3.53259 -9.87695 -9.87695 -9.87695 -9.87695 -10.0088 -10.0088 -10.0088 -10.0088 -9.76793 -9.76793 -9.76793 -9.76793 -8.43407 -8.43407 -8.43407 -8.43407 -9.90555 -9.90555 -9.90555 -9.90555 -9.88734 -9.88734 -9.88734 -9.88734 -9.86698 -9.86698 -9.86698 -9.86698 -4.01271 -4.01271 -4.01271 -4.01271 -11.5111 -11.5111 -11.5111 -11.5111 -9.89113 -9.89113 -9.89113 -9.89113 -9.90874 -9.90874 -9.90874 -9.90874 -8.19159 -8.19159 -8.19159 -8.19159 -10.7363 -10.7363 -10.7363 -10.7363 -9.9724 -9.9724 -9.9724 -9.9724 -9.93788 -9.93788 -9.93788 -9.93788 -9.62607 -9.62607 -9.62607 -9.62607 -9.9286 -9.9286 -9.9286 -9.9286 -9.83272 -9.83272 -9.83272 -9.83272 -9.91867 -9.91867 -9.91867 -9.91867 -10.2215 -10.2215 -10.2215 -10.2215 -5.79378 -5.79378 -5.79378 -5.79378 -9.72925 -9.72925 -9.72925 -9.72925 -9.81727 -9.81727 -9.81727 -9.81727 -9.99655 -9.99655 -9.99655 -9.99655 -9.96827 -9.96827 -9.96827 -9.96827 -9.9763 -9.9763 -9.9763 -9.9763 -9.93251 -9.93251 -9.93251 -9.93251 -9.97298 -9.97298 -9.97298 -9.97298 -9.88677 -9.88677 -9.88677 -9.88677 -9.95897 -9.95897 -9.95897 -9.95897 -10.2475 -10.2475 -10.2475 -10.2475 -9.85794 -9.85794 -9.85794 -9.85794 -9.97523 -9.97523 -9.97523 -9.97523 -9.90958 -9.90958 -9.90958 -9.90958 -9.96489 -9.96489 -9.96489 -9.96489 -9.80952 -9.80952 -9.80952 -9.80952 -9.79372 -9.79372 -9.79372 -9.79372 -9.92428 -9.92428 -9.92428 -9.92428 -13.4129 -13.4129 -13.4129 -13.4129 -9.80514 -9.80514 -9.80514 -9.80514 -10.1365 -10.1365 -10.1365 -10.1365 -9.45328 -9.45328 -9.45328 -9.45328 -9.83249 -9.83249 -9.83249 -9.83249 -9.86787 -9.86787 -9.86787 -9.86787 -10.6417 -10.6417 -10.6417 -10.6417 -9.97622 -9.97622 -9.97622 -9.97622 -9.78797 -9.78797 -9.78797 -9.78797 -10.2058 -10.2058 -10.2058 -10.2058 -4.5847 -4.5847 -4.5847 -4.5847 -9.97209 -9.97209 -9.97209 -9.97209 -10.2317 -10.2317 -10.2317 -10.2317 -12.5318 -12.5318 -12.5318 -12.5318 -9.92743 -9.92743 -9.92743 -9.92743 -9.93377 -9.93377 -9.93377 -9.93377 -10.6502 -10.6502 -10.6502 -10.6502 -9.93736 -9.93736 -9.93736 -9.93736 -9.88041 -9.88041 -9.88041 -9.88041 -10.0215 -10.0215 -10.0215 -10.0215 -13.5659 -13.5659 -13.5659 -13.5659 -10.0091 -10.0091 -10.0091 -10.0091 -9.99052 -9.99052 -9.99052 -9.99052 -9.98131 -9.98131 -9.98131 -9.98131 -9.97136 -9.97136 -9.97136 -9.97136 -9.68929 -9.68929 -9.68929 -9.68929 -9.79742 -9.79742 -9.79742 -9.79742 -9.86913 -9.86913 -9.86913 -9.86913 -9.85422 -9.85422 -9.85422 -9.85422 -9.98987 -9.98987 -9.98987 -9.98987 -9.93028 -9.93028 -9.93028 -9.93028 -9.9727 -9.9727 -9.9727 -9.9727 -9.90273 -9.90273 -9.90273 -9.90273 -9.85705 -9.85705 -9.85705 -9.85705 -9.86609 -9.86609 -9.86609 -9.86609 -9.95728 -9.95728 -9.95728 -9.95728 -9.28819 -9.28819 -9.28819 -9.28819 -6.50473 -6.50473 -6.50473 -6.50473 -9.85223 -9.85223 -9.85223 -9.85223 -9.97602 -9.97602 -9.97602 -9.97602 -9.97961 -9.97961 -9.97961 -9.97961 -9.97621 -9.97621 -9.97621 -9.97621 -9.9774 -9.9774 -9.9774 -9.9774 -9.87871 -9.87871 -9.87871 -9.87871 -9.92121 -9.92121 -9.92121 -9.92121 -9.83296 -9.83296 -9.83296 -9.83296 -9.93353 -9.93353 -9.93353 -9.93353 -9.86371 -9.86371 -9.86371 -9.86371 -9.87512 -9.87512 -9.87512 -9.87512 -9.85654 -9.85654 -9.85654 -9.85654 -9.90866 -9.90866 -9.90866 -9.90866 -9.8992 -9.8992 -9.8992 -9.8992 -9.80369 -9.80369 -9.80369 -9.80369 -9.9461 -9.9461 -9.9461 -9.9461 -10.2297 -10.2297 -10.2297 -10.2297 -9.92538 -9.92538 -9.92538 -9.92538 -9.89197 -9.89197 -9.89197 -9.89197 -9.59756 -9.59756 -9.59756 -9.59756 -9.98457 -9.98457 -9.98457 -9.98457 -9.96339 -9.96339 -9.96339 -9.96339 -9.85594 -9.85594 -9.85594 -9.85594 -9.79701 -9.79701 -9.79701 -9.79701 -9.99105 -9.99105 -9.99105 -9.99105 -9.95646 -9.95646 -9.95646 -9.95646 -9.84673 -9.84673 -9.84673 -9.84673 -9.77068 -9.77068 -9.77068 -9.77068 -9.79405 -9.79405 -9.79405 -9.79405 -9.98434 -9.98434 -9.98434 -9.98434 -9.18302 -9.18302 -9.18302 -9.18302 -9.9277 -9.9277 -9.9277 -9.9277 -10.6384 -10.6384 -10.6384 -10.6384 -9.94192 -9.94192 -9.94192 -9.94192 -9.99218 -9.99218 -9.99218 -9.99218 -10.502 -10.502 -10.502 -10.502 -9.29803 -9.29803 -9.29803 -9.29803 -9.89044 -9.89044 -9.89044 -9.89044 -9.96434 -9.96434 -9.96434 -9.96434 -9.98072 -9.98072 -9.98072 -9.98072 -9.95124 -9.95124 -9.95124 -9.95124 -9.98792 -9.98792 -9.98792 -9.98792 -3.3113 -3.3113 -3.3113 -3.3113 -9.97012 -9.97012 -9.97012 -9.97012 -5.73081 -5.73081 -5.73081 -5.73081 -9.95144 -9.95144 -9.95144 -9.95144 -10.1135 -10.1135 -10.1135 -10.1135 -9.94631 -9.94631 -9.94631 -9.94631 -9.95799 -9.95799 -9.95799 -9.95799 -9.9353 -9.9353 -9.9353 -9.9353 -9.89664 -9.89664 -9.89664 -9.89664 -10.012 -10.012 -10.012 -10.012 -9.99323 -9.99323 -9.99323 -9.99323 -9.93286 -9.93286 -9.93286 -9.93286 -9.97463 -9.97463 -9.97463 -9.97463 -9.97878 -9.97878 -9.97878 -9.97878 -9.97167 -9.97167 -9.97167 -9.97167 -9.84726 -9.84726 -9.84726 -9.84726 -10.1678 -10.1678 -10.1678 -10.1678 -9.99887 -9.99887 -9.99887 -9.99887 -9.98061 -9.98061 -9.98061 -9.98061 -9.97673 -9.97673 -9.97673 -9.97673 -9.99544 -9.99544 -9.99544 -9.99544 -9.81511 -9.81511 -9.81511 -9.81511 -9.78309 -9.78309 -9.78309 -9.78309 -11.9866 -11.9866 -11.9866 -11.9866 -9.80261 -9.80261 -9.80261 -9.80261 -9.95745 -9.95745 -9.95745 -9.95745 -10.5652 -10.5652 -10.5652 -10.5652 -10.2532 -10.2532 -10.2532 -10.2532 -10.1979 -10.1979 -10.1979 -10.1979 -9.83932 -9.83932 -9.83932 -9.83932 -10.0293 -10.0293 -10.0293 -10.0293 -10.0093 -10.0093 -10.0093 -10.0093 -10.0883 -10.0883 -10.0883 -10.0883 -9.50119 -9.50119 -9.50119 -9.50119 -9.84293 -9.84293 -9.84293 -9.84293 -9.90492 -9.90492 -9.90492 -9.90492 -9.93613 -9.93613 -9.93613 -9.93613 -13.6094 -13.6094 -13.6094 -13.6094 -10.0361 -10.0361 -10.0361 -10.0361 -11.0759 -11.0759 -11.0759 -11.0759 -5.14771 -5.14771 -5.14771 -5.14771 -9.69242 -9.69242 -9.69242 -9.69242 -9.795 -9.795 -9.795 -9.795 -9.98454 -9.98454 -9.98454 -9.98454 -10.619 -10.619 -10.619 -10.619 -3.03089 -3.03089 -3.03089 -3.03089 -9.89249 -9.89249 -9.89249 -9.89249 -9.95598 -9.95598 -9.95598 -9.95598 -10.7157 -10.7157 -10.7157 -10.7157 -10.0103 -10.0103 -10.0103 -10.0103 -9.97716 -9.97716 -9.97716 -9.97716 -9.94434 -9.94434 -9.94434 -9.94434 -9.98633 -9.98633 -9.98633 -9.98633 -9.83254 -9.83254 -9.83254 -9.83254 -9.98922 -9.98922 -9.98922 -9.98922 -9.02556 -9.02556 -9.02556 -9.02556 -9.73832 -9.73832 -9.73832 -9.73832 -9.85054 -9.85054 -9.85054 -9.85054 -9.90173 -9.90173 -9.90173 -9.90173 -9.87548 -9.87548 -9.87548 -9.87548 -10.0101 -10.0101 -10.0101 -10.0101 -9.99149 -9.99149 -9.99149 -9.99149 -9.73308 -9.73308 -9.73308 -9.73308 -9.81211 -9.81211 -9.81211 -9.81211 -3.38451 -3.38451 -3.38451 -3.38451 -10.0855 -10.0855 -10.0855 -10.0855 -9.95292 -9.95292 -9.95292 -9.95292 -9.97251 -9.97251 -9.97251 -9.97251 -9.9035 -9.9035 -9.9035 -9.9035 -9.98298 -9.98298 -9.98298 -9.98298 -16.6829 -16.6829 -16.6829 -16.6829 -9.8236 -9.8236 -9.8236 -9.8236 -10.9336 -10.9336 -10.9336 -10.9336 -9.95553 -9.95553 -9.95553 -9.95553 -9.83934 -9.83934 -9.83934 -9.83934 -9.94766 -9.94766 -9.94766 -9.94766 -9.9979 -9.9979 -9.9979 -9.9979 -9.98288 -9.98288 -9.98288 -9.98288 -9.98202 -9.98202 -9.98202 -9.98202 -9.74887 -9.74887 -9.74887 -9.74887 -10.0132 -10.0132 -10.0132 -10.0132 -10.0162 -10.0162 -10.0162 -10.0162 -9.96708 -9.96708 -9.96708 -9.96708 -10.0001 -10.0001 -10.0001 -10.0001 -9.98733 -9.98733 -9.98733 -9.98733 -9.94414 -9.94414 -9.94414 -9.94414 -9.98795 -9.98795 -9.98795 -9.98795 -9.93605 -9.93605 -9.93605 -9.93605 -9.8871 -9.8871 -9.8871 -9.8871 -9.98755 -9.98755 -9.98755 -9.98755 -10.082 -10.082 -10.082 -10.082 -15.2513 -15.2513 -15.2513 -15.2513 -11.9621 -11.9621 -11.9621 -11.9621 -9.93966 -9.93966 -9.93966 -9.93966 -10.0012 -10.0012 -10.0012 -10.0012 -9.86424 -9.86424 -9.86424 -9.86424 -10.3553 -10.3553 -10.3553 -10.3553 -9.92354 -9.92354 -9.92354 -9.92354 -9.9598 -9.9598 -9.9598 -9.9598 -9.98407 -9.98407 -9.98407 -9.98407 -9.87738 -9.87738 -9.87738 -9.87738 -9.94805 -9.94805 -9.94805 -9.94805 -9.98615 -9.98615 -9.98615 -9.98615 -9.86562 -9.86562 -9.86562 -9.86562 -12.6329 -12.6329 -12.6329 -12.6329 -9.97227 -9.97227 -9.97227 -9.97227 -9.90377 -9.90377 -9.90377 -9.90377 -3.33052 -3.33052 -3.33052 -3.33052 -11.0208 -11.0208 -11.0208 -11.0208 -9.95835 -9.95835 -9.95835 -9.95835 -9.95289 -9.95289 -9.95289 -9.95289 -12.0408 -12.0408 -12.0408 -12.0408 -9.90291 -9.90291 -9.90291 -9.90291 -6.04022 -6.04022 -6.04022 -6.04022 -10.3532 -10.3532 -10.3532 -10.3532 -10.0341 -10.0341 -10.0341 -10.0341 -2.89777 -2.89777 -2.89777 -2.89777 -14.2447 -14.2447 -14.2447 -14.2447 -9.14355 -9.14355 -9.14355 -9.14355 -10.0104 -10.0104 -10.0104 -10.0104 -10.1252 -10.1252 -10.1252 -10.1252 -9.26584 -9.26584 -9.26584 -9.26584 -11.695 -11.695 -11.695 -11.695 -9.90417 -9.90417 -9.90417 -9.90417 -9.99517 -9.99517 -9.99517 -9.99517 -9.98481 -9.98481 -9.98481 -9.98481 -9.86587 -9.86587 -9.86587 -9.86587 -9.76776 -9.76776 -9.76776 -9.76776 -9.69799 -9.69799 -9.69799 -9.69799 -9.93753 -9.93753 -9.93753 -9.93753 -9.61405 -9.61405 -9.61405 -9.61405 -9.99192 -9.99192 -9.99192 -9.99192 -9.99758 -9.99758 -9.99758 -9.99758 -10.0036 -10.0036 -10.0036 -10.0036 -9.93204 -9.93204 -9.93204 -9.93204 -9.96863 -9.96863 -9.96863 -9.96863 -9.77764 -9.77764 -9.77764 -9.77764 -10.0063 -10.0063 -10.0063 -10.0063 -9.9237 -9.9237 -9.9237 -9.9237 -9.97203 -9.97203 -9.97203 -9.97203 -9.76728 -9.76728 -9.76728 -9.76728 -10.4138 -10.4138 -10.4138 -10.4138 -9.76076 -9.76076 -9.76076 -9.76076 -9.69431 -9.69431 -9.69431 -9.69431 -9.89456 -9.89456 -9.89456 -9.89456 -11.5376 -11.5376 -11.5376 -11.5376 -9.95149 -9.95149 -9.95149 -9.95149 -9.9565 -9.9565 -9.9565 -9.9565 -9.89652 -9.89652 -9.89652 -9.89652 -9.95699 -9.95699 -9.95699 -9.95699 -10.0066 -10.0066 -10.0066 -10.0066 -10.0108 -10.0108 -10.0108 -10.0108 -4.39802 -4.39802 -4.39802 -4.39802 -9.96881 -9.96881 -9.96881 -9.96881 -9.80423 -9.80423 -9.80423 -9.80423 -9.96021 -9.96021 -9.96021 -9.96021 -9.80235 -9.80235 -9.80235 -9.80235 -9.92434 -9.92434 -9.92434 -9.92434 -9.73781 -9.73781 -9.73781 -9.73781 -9.94114 -9.94114 -9.94114 -9.94114 -9.97763 -9.97763 -9.97763 -9.97763 -8.56218 -8.56218 -8.56218 -8.56218 -9.96671 -9.96671 -9.96671 -9.96671 -10.2004 -10.2004 -10.2004 -10.2004 -9.93142 -9.93142 -9.93142 -9.93142 -10.0261 -10.0261 -10.0261 -10.0261 -9.89771 -9.89771 -9.89771 -9.89771 -10.008 -10.008 -10.008 -10.008 -10.0294 -10.0294 -10.0294 -10.0294 -9.94898 -9.94898 -9.94898 -9.94898 -9.9835 -9.9835 -9.9835 -9.9835 -9.97966 -9.97966 -9.97966 -9.97966 -9.92793 -9.92793 -9.92793 -9.92793 -9.97232 -9.97232 -9.97232 -9.97232 -9.82584 -9.82584 -9.82584 -9.82584 -12.5965 -12.5965 -12.5965 -12.5965 -9.92333 -9.92333 -9.92333 -9.92333 -10.1015 -10.1015 -10.1015 -10.1015 -10.0357 -10.0357 -10.0357 -10.0357 -9.84962 -9.84962 -9.84962 -9.84962 -9.95324 -9.95324 -9.95324 -9.95324 -9.86442 -9.86442 -9.86442 -9.86442 -9.81085 -9.81085 -9.81085 -9.81085 -10.0023 -10.0023 -10.0023 -10.0023 -9.99249 -9.99249 -9.99249 -9.99249 -9.94811 -9.94811 -9.94811 -9.94811 -9.80188 -9.80188 -9.80188 -9.80188 -9.74 -9.74 -9.74 -9.74 -2.70974 -2.70974 -2.70974 -2.70974 -9.99602 -9.99602 -9.99602 -9.99602 -9.76136 -9.76136 -9.76136 -9.76136 -9.94001 -9.94001 -9.94001 -9.94001 -9.96924 -9.96924 -9.96924 -9.96924 -9.95748 -9.95748 -9.95748 -9.95748 -9.90971 -9.90971 -9.90971 -9.90971 -9.83164 -9.83164 -9.83164 -9.83164 -3.09408 -3.09408 -3.09408 -3.09408 -9.96571 -9.96571 -9.96571 -9.96571 -9.92003 -9.92003 -9.92003 -9.92003 -9.94882 -9.94882 -9.94882 -9.94882 -9.95578 -9.95578 -9.95578 -9.95578 -9.90326 -9.90326 -9.90326 -9.90326 -9.96212 -9.96212 -9.96212 -9.96212 -9.86745 -9.86745 -9.86745 -9.86745 -9.98904 -9.98904 -9.98904 -9.98904 -10.0128 -10.0128 -10.0128 -10.0128 -9.95479 -9.95479 -9.95479 -9.95479 -6.29619 -6.29619 -6.29619 -6.29619 -9.95394 -9.95394 -9.95394 -9.95394 -10.0165 -10.0165 -10.0165 -10.0165 -9.9187 -9.9187 -9.9187 -9.9187 -9.94796 -9.94796 -9.94796 -9.94796 -10.0049 -10.0049 -10.0049 -10.0049 -9.57898 -9.57898 -9.57898 -9.57898 -9.91964 -9.91964 -9.91964 -9.91964 -9.95673 -9.95673 -9.95673 -9.95673 -9.59373 -9.59373 -9.59373 -9.59373 -10.0113 -10.0113 -10.0113 -10.0113 -9.79345 -9.79345 -9.79345 -9.79345 -9.98381 -9.98381 -9.98381 -9.98381 -4.1914 -4.1914 -4.1914 -4.1914 -9.85741 -9.85741 -9.85741 -9.85741 -9.83207 -9.83207 -9.83207 -9.83207 -10.6904 -10.6904 -10.6904 -10.6904 -9.9538 -9.9538 -9.9538 -9.9538 -9.84503 -9.84503 -9.84503 -9.84503 -7.79446 -7.79446 -7.79446 -7.79446 -9.85724 -9.85724 -9.85724 -9.85724 -10.0033 -10.0033 -10.0033 -10.0033 -9.78944 -9.78944 -9.78944 -9.78944 -9.8626 -9.8626 -9.8626 -9.8626 -9.95697 -9.95697 -9.95697 -9.95697 -3.4018 -3.4018 -3.4018 -3.4018 -9.98184 -9.98184 -9.98184 -9.98184 -16.1909 -16.1909 -16.1909 -16.1909 -9.98081 -9.98081 -9.98081 -9.98081 -9.95119 -9.95119 -9.95119 -9.95119 -9.98731 -9.98731 -9.98731 -9.98731 -9.6423 -9.6423 -9.6423 -9.6423 -9.98013 -9.98013 -9.98013 -9.98013 -9.97226 -9.97226 -9.97226 -9.97226 -9.93805 -9.93805 -9.93805 -9.93805 -11.0473 -11.0473 -11.0473 -11.0473 -9.98748 -9.98748 -9.98748 -9.98748 -9.76793 -9.76793 -9.76793 -9.76793 -9.72177 -9.72177 -9.72177 -9.72177 -10.3178 -10.3178 -10.3178 -10.3178 -9.97368 -9.97368 -9.97368 -9.97368 -9.79357 -9.79357 -9.79357 -9.79357 -9.84573 -9.84573 -9.84573 -9.84573 -10.3238 -10.3238 -10.3238 -10.3238 -10.4114 -10.4114 -10.4114 -10.4114 -9.94065 -9.94065 -9.94065 -9.94065 -9.79918 -9.79918 -9.79918 -9.79918 -9.97185 -9.97185 -9.97185 -9.97185 -10.0092 -10.0092 -10.0092 -10.0092 -9.94458 -9.94458 -9.94458 -9.94458 -9.97494 -9.97494 -9.97494 -9.97494 -9.79144 -9.79144 -9.79144 -9.79144 -9.973 -9.973 -9.973 -9.973 -9.98087 -9.98087 -9.98087 -9.98087 -9.95781 -9.95781 -9.95781 -9.95781 -9.98108 -9.98108 -9.98108 -9.98108 -16.7113 -16.7113 -16.7113 -16.7113 -9.97597 -9.97597 -9.97597 -9.97597 -9.98168 -9.98168 -9.98168 -9.98168 -9.97224 -9.97224 -9.97224 -9.97224 -9.77298 -9.77298 -9.77298 -9.77298 -10.0058 -10.0058 -10.0058 -10.0058 -9.98166 -9.98166 -9.98166 -9.98166 -9.95504 -9.95504 -9.95504 -9.95504 -4.0892 -4.0892 -4.0892 -4.0892 -10.1062 -10.1062 -10.1062 -10.1062 -9.97109 -9.97109 -9.97109 -9.97109 -9.98406 -9.98406 -9.98406 -9.98406 -9.96592 -9.96592 -9.96592 -9.96592 -9.96733 -9.96733 -9.96733 -9.96733 -9.95959 -9.95959 -9.95959 -9.95959 -10.0491 -10.0491 -10.0491 -10.0491 -6.38302 -6.38302 -6.38302 -6.38302 -9.95362 -9.95362 -9.95362 -9.95362 -9.97163 -9.97163 -9.97163 -9.97163 -9.8822 -9.8822 -9.8822 -9.8822 -9.98463 -9.98463 -9.98463 -9.98463 -8.99345 -8.99345 -8.99345 -8.99345 -9.95568 -9.95568 -9.95568 -9.95568 -9.83741 -9.83741 -9.83741 -9.83741 -9.90902 -9.90902 -9.90902 -9.90902 -9.98783 -9.98783 -9.98783 -9.98783 -3.64368 -3.64368 -3.64368 -3.64368 -9.47359 -9.47359 -9.47359 -9.47359 -16.9894 -16.9894 -16.9894 -16.9894 -9.95316 -9.95316 -9.95316 -9.95316 -9.9543 -9.9543 -9.9543 -9.9543 -7.49601 -7.49601 -7.49601 -7.49601 -10.1111 -10.1111 -10.1111 -10.1111 -11.4741 -11.4741 -11.4741 -11.4741 -9.954 -9.954 -9.954 -9.954 -10.0042 -10.0042 -10.0042 -10.0042 -6.95127 -6.95127 -6.95127 -6.95127 -9.84074 -9.84074 -9.84074 -9.84074 -9.88641 -9.88641 -9.88641 -9.88641 -9.76197 -9.76197 -9.76197 -9.76197 -10.5508 -10.5508 -10.5508 -10.5508 -9.95708 -9.95708 -9.95708 -9.95708 -9.81957 -9.81957 -9.81957 -9.81957 -9.88228 -9.88228 -9.88228 -9.88228 -9.80723 -9.80723 -9.80723 -9.80723 -9.95521 -9.95521 -9.95521 -9.95521 -10.0583 -10.0583 -10.0583 -10.0583 -10.0414 -10.0414 -10.0414 -10.0414 -10.0341 -10.0341 -10.0341 -10.0341 -10.9285 -10.9285 -10.9285 -10.9285 -9.79412 -9.79412 -9.79412 -9.79412 -9.81213 -9.81213 -9.81213 -9.81213 -9.75985 -9.75985 -9.75985 -9.75985 -9.80844 -9.80844 -9.80844 -9.80844 -9.97123 -9.97123 -9.97123 -9.97123 -9.53527 -9.53527 -9.53527 -9.53527 -9.84229 -9.84229 -9.84229 -9.84229 -10.5288 -10.5288 -10.5288 -10.5288 -9.99368 -9.99368 -9.99368 -9.99368 -10.0068 -10.0068 -10.0068 -10.0068 -9.9807 -9.9807 -9.9807 -9.9807 -9.9716 -9.9716 -9.9716 -9.9716 -10.5506 -10.5506 -10.5506 -10.5506 -9.97065 -9.97065 -9.97065 -9.97065 -9.90906 -9.90906 -9.90906 -9.90906 -10.0077 -10.0077 -10.0077 -10.0077 -9.98362 -9.98362 -9.98362 -9.98362 -10.3133 -10.3133 -10.3133 -10.3133 -9.79444 -9.79444 -9.79444 -9.79444 -9.8974 -9.8974 -9.8974 -9.8974 -9.92474 -9.92474 -9.92474 -9.92474 -10.1949 -10.1949 -10.1949 -10.1949 -10.0547 -10.0547 -10.0547 -10.0547 -10.4092 -10.4092 -10.4092 -10.4092 -9.96906 -9.96906 -9.96906 -9.96906 -9.99182 -9.99182 -9.99182 -9.99182 -9.99313 -9.99313 -9.99313 -9.99313 -9.92814 -9.92814 -9.92814 -9.92814 -9.97016 -9.97016 -9.97016 -9.97016 -9.98275 -9.98275 -9.98275 -9.98275 -9.97609 -9.97609 -9.97609 -9.97609 -9.97644 -9.97644 -9.97644 -9.97644 -9.88711 -9.88711 -9.88711 -9.88711 -9.88758 -9.88758 -9.88758 -9.88758 -9.89074 -9.89074 -9.89074 -9.89074 -9.98557 -9.98557 -9.98557 -9.98557 -10.1104 -10.1104 -10.1104 -10.1104 -9.81971 -9.81971 -9.81971 -9.81971 -9.89908 -9.89908 -9.89908 -9.89908 -10.0045 -10.0045 -10.0045 -10.0045 -9.97546 -9.97546 -9.97546 -9.97546 -9.97838 -9.97838 -9.97838 -9.97838 -12.5469 -12.5469 -12.5469 -12.5469 -9.97395 -9.97395 -9.97395 -9.97395 -10.1156 -10.1156 -10.1156 -10.1156 -11.1981 -11.1981 -11.1981 -11.1981 -9.98171 -9.98171 -9.98171 -9.98171 -9.98508 -9.98508 -9.98508 -9.98508 -9.97967 -9.97967 -9.97967 -9.97967 -9.94828 -9.94828 -9.94828 -9.94828 -9.92714 -9.92714 -9.92714 -9.92714 -10.4258 -10.4258 -10.4258 -10.4258 -3.44262 -3.44262 -3.44262 -3.44262 -9.86664 -9.86664 -9.86664 -9.86664 -9.97074 -9.97074 -9.97074 -9.97074 -9.9704 -9.9704 -9.9704 -9.9704 -9.83387 -9.83387 -9.83387 -9.83387 -9.42057 -9.42057 -9.42057 -9.42057 -9.89978 -9.89978 -9.89978 -9.89978 -9.97354 -9.97354 -9.97354 -9.97354 -6.53019 -6.53019 -6.53019 -6.53019 -9.7921 -9.7921 -9.7921 -9.7921 -9.91347 -9.91347 -9.91347 -9.91347 -9.81103 -9.81103 -9.81103 -9.81103 -10.0079 -10.0079 -10.0079 -10.0079 -10.2041 -10.2041 -10.2041 -10.2041 -9.77529 -9.77529 -9.77529 -9.77529 -10.0111 -10.0111 -10.0111 -10.0111 -9.818 -9.818 -9.818 -9.818 -9.97878 -9.97878 -9.97878 -9.97878 -9.97297 -9.97297 -9.97297 -9.97297 -9.93657 -9.93657 -9.93657 -9.93657 -9.92853 -9.92853 -9.92853 -9.92853 -9.90479 -9.90479 -9.90479 -9.90479 -12.35 -12.35 -12.35 -12.35 -9.95359 -9.95359 -9.95359 -9.95359 -9.95324 -9.95324 -9.95324 -9.95324 -10.0538 -10.0538 -10.0538 -10.0538 -9.79432 -9.79432 -9.79432 -9.79432 -12.43 -12.43 -12.43 -12.43 -10.0565 -10.0565 -10.0565 -10.0565 -9.95945 -9.95945 -9.95945 -9.95945 -10.0464 -10.0464 -10.0464 -10.0464 -9.93171 -9.93171 -9.93171 -9.93171 -9.83208 -9.83208 -9.83208 -9.83208 -9.95821 -9.95821 -9.95821 -9.95821 -9.96698 -9.96698 -9.96698 -9.96698 -9.98337 -9.98337 -9.98337 -9.98337 -10.3642 -10.3642 -10.3642 -10.3642 -9.9543 -9.9543 -9.9543 -9.9543 -7.81933 -7.81933 -7.81933 -7.81933 -9.8268 -9.8268 -9.8268 -9.8268 -9.99557 -9.99557 -9.99557 -9.99557 -10.2729 -10.2729 -10.2729 -10.2729 -9.95413 -9.95413 -9.95413 -9.95413 -9.96527 -9.96527 -9.96527 -9.96527 -9.92047 -9.92047 -9.92047 -9.92047 -9.97612 -9.97612 -9.97612 -9.97612 -9.98355 -9.98355 -9.98355 -9.98355 -9.88667 -9.88667 -9.88667 -9.88667 -9.79267 -9.79267 -9.79267 -9.79267 -9.85418 -9.85418 -9.85418 -9.85418 -10.9326 -10.9326 -10.9326 -10.9326 -9.78866 -9.78866 -9.78866 -9.78866 -9.9634 -9.9634 -9.9634 -9.9634 -9.88629 -9.88629 -9.88629 -9.88629 -9.99272 -9.99272 -9.99272 -9.99272 -9.98188 -9.98188 -9.98188 -9.98188 -9.98279 -9.98279 -9.98279 -9.98279 -9.9886 -9.9886 -9.9886 -9.9886 -9.95785 -9.95785 -9.95785 -9.95785 -9.95279 -9.95279 -9.95279 -9.95279 -9.99534 -9.99534 -9.99534 -9.99534 -9.80852 -9.80852 -9.80852 -9.80852 -9.97451 -9.97451 -9.97451 -9.97451 -9.95007 -9.95007 -9.95007 -9.95007 -10.0178 -10.0178 -10.0178 -10.0178 -10.0101 -10.0101 -10.0101 -10.0101 -9.95407 -9.95407 -9.95407 -9.95407 -9.98192 -9.98192 -9.98192 -9.98192 -9.97919 -9.97919 -9.97919 -9.97919 -14.2945 -14.2945 -14.2945 -14.2945 -5.60526 -5.60526 -5.60526 -5.60526 -9.8946 -9.8946 -9.8946 -9.8946 -9.93506 -9.93506 -9.93506 -9.93506 -6.09127 -6.09127 -6.09127 -6.09127 -9.90116 -9.90116 -9.90116 -9.90116 -11.1388 -11.1388 -11.1388 -11.1388 -9.97847 -9.97847 -9.97847 -9.97847 -10.01 -10.01 -10.01 -10.01 -9.79536 -9.79536 -9.79536 -9.79536 -9.92117 -9.92117 -9.92117 -9.92117 -10.005 -10.005 -10.005 -10.005 -9.98892 -9.98892 -9.98892 -9.98892 -9.89154 -9.89154 -9.89154 -9.89154 -9.98184 -9.98184 -9.98184 -9.98184 -12.2841 -12.2841 -12.2841 -12.2841 -10.2935 -10.2935 -10.2935 -10.2935 -9.78869 -9.78869 -9.78869 -9.78869 -12.2475 -12.2475 -12.2475 -12.2475 -9.97971 -9.97971 -9.97971 -9.97971 -9.98457 -9.98457 -9.98457 -9.98457 -9.9048 -9.9048 -9.9048 -9.9048 -10.0149 -10.0149 -10.0149 -10.0149 -9.95425 -9.95425 -9.95425 -9.95425 -9.98231 -9.98231 -9.98231 -9.98231 -6.88954 -6.88954 -6.88954 -6.88954 -10.0086 -10.0086 -10.0086 -10.0086 -9.97834 -9.97834 -9.97834 -9.97834 -9.98223 -9.98223 -9.98223 -9.98223 -9.91187 -9.91187 -9.91187 -9.91187 -9.84207 -9.84207 -9.84207 -9.84207 -10.0263 -10.0263 -10.0263 -10.0263 -9.97303 -9.97303 -9.97303 -9.97303 -10.0306 -10.0306 -10.0306 -10.0306 -9.97938 -9.97938 -9.97938 -9.97938 -9.73954 -9.73954 -9.73954 -9.73954 -9.90421 -9.90421 -9.90421 -9.90421 -9.85968 -9.85968 -9.85968 -9.85968 -9.95375 -9.95375 -9.95375 -9.95375 -13.1193 -13.1193 -13.1193 -13.1193 -10.0012 -10.0012 -10.0012 -10.0012 -10.4651 -10.4651 -10.4651 -10.4651 -12.1265 -12.1265 -12.1265 -12.1265 -9.9257 -9.9257 -9.9257 -9.9257 -9.98321 -9.98321 -9.98321 -9.98321 -11.8996 -11.8996 -11.8996 -11.8996 -9.88909 -9.88909 -9.88909 -9.88909 -9.98269 -9.98269 -9.98269 -9.98269 -10.0216 -10.0216 -10.0216 -10.0216 -9.96339 -9.96339 -9.96339 -9.96339 -9.96724 -9.96724 -9.96724 -9.96724 -9.97766 -9.97766 -9.97766 -9.97766 -9.88204 -9.88204 -9.88204 -9.88204 -9.92896 -9.92896 -9.92896 -9.92896 -9.88985 -9.88985 -9.88985 -9.88985 -10.0381 -10.0381 -10.0381 -10.0381 -9.82693 -9.82693 -9.82693 -9.82693 -11.6964 -11.6964 -11.6964 -11.6964 -17.0483 -17.0483 -17.0483 -17.0483 -9.98001 -9.98001 -9.98001 -9.98001 -9.99992 -9.99992 -9.99992 -9.99992 -2.4983 -2.4983 -2.4983 -2.4983 -9.88495 -9.88495 -9.88495 -9.88495 -10.3191 -10.3191 -10.3191 -10.3191 -9.98464 -9.98464 -9.98464 -9.98464 -9.9363 -9.9363 -9.9363 -9.9363 -9.98338 -9.98338 -9.98338 -9.98338 -9.9853 -9.9853 -9.9853 -9.9853 -9.97823 -9.97823 -9.97823 -9.97823 -9.99852 -9.99852 -9.99852 -9.99852 -10.0229 -10.0229 -10.0229 -10.0229 -10.7608 -10.7608 -10.7608 -10.7608 -9.98268 -9.98268 -9.98268 -9.98268 -5.36872 -5.36872 -5.36872 -5.36872 -10.2963 -10.2963 -10.2963 -10.2963 -9.9804 -9.9804 -9.9804 -9.9804 -8.69448 -8.69448 -8.69448 -8.69448 -9.8455 -9.8455 -9.8455 -9.8455 -14.3849 -14.3849 -14.3849 -14.3849 -9.98383 -9.98383 -9.98383 -9.98383 -9.98627 -9.98627 -9.98627 -9.98627 -9.98435 -9.98435 -9.98435 -9.98435 -9.9849 -9.9849 -9.9849 -9.9849 -12.4679 -12.4679 -12.4679 -12.4679 -10.011 -10.011 -10.011 -10.011 -9.99374 -9.99374 -9.99374 -9.99374 -9.98983 -9.98983 -9.98983 -9.98983 -9.98169 -9.98169 -9.98169 -9.98169 -10.4763 -10.4763 -10.4763 -10.4763 -9.98173 -9.98173 -9.98173 -9.98173 -9.98337 -9.98337 -9.98337 -9.98337 -9.98295 -9.98295 -9.98295 -9.98295 -9.98587 -9.98587 -9.98587 -9.98587 -9.9913 -9.9913 -9.9913 -9.9913 -9.98387 -9.98387 -9.98387 -9.98387 -9.98634 -9.98634 -9.98634 -9.98634 -9.86572 -9.86572 -9.86572 -9.86572 -9.9864 -9.9864 -9.9864 -9.9864 -9.98509 -9.98509 -9.98509 -9.98509 -10.3579 -10.3579 -10.3579 -10.3579 -9.94903 -9.94903 -9.94903 -9.94903 -10.015 -10.015 -10.015 -10.015 -9.98603 -9.98603 -9.98603 -9.98603 -9.98091 -9.98091 -9.98091 -9.98091 -10.0089 -10.0089 -10.0089 -10.0089 -9.99664 -9.99664 -9.99664 -9.99664 -9.98626 -9.98626 -9.98626 -9.98626 -9.43791 -9.43791 -9.43791 -9.43791 -2.18876 -2.18876 -2.18876 -2.18876 -3.35544 -3.35544 -3.35544 -3.35544 -9.82814 -9.82814 -9.82814 -9.82814 -9.98731 -9.98731 -9.98731 -9.98731 -9.97642 -9.97642 -9.97642 -9.97642 -9.98655 -9.98655 -9.98655 -9.98655 -12.6348 -12.6348 -12.6348 -12.6348 -9.99029 -9.99029 -9.99029 -9.99029 -9.98307 -9.98307 -9.98307 -9.98307 -9.98644 -9.98644 -9.98644 -9.98644 -10.2226 -10.2226 -10.2226 -10.2226 -9.64234 -9.64234 -9.64234 -9.64234 -9.98964 -9.98964 -9.98964 -9.98964 -9.98835 -9.98835 -9.98835 -9.98835 -9.95796 -9.95796 -9.95796 -9.95796 -9.98516 -9.98516 -9.98516 -9.98516 -2.91919 -2.91919 -2.91919 -2.91919 -10.0073 -10.0073 -10.0073 -10.0073 -9.98887 -9.98887 -9.98887 -9.98887 -9.98401 -9.98401 -9.98401 -9.98401 -9.99508 -9.99508 -9.99508 -9.99508 -9.98627 -9.98627 -9.98627 -9.98627 -9.9671 -9.9671 -9.9671 -9.9671 -9.94239 -9.94239 -9.94239 -9.94239 -9.98819 -9.98819 -9.98819 -9.98819 -3.55664 -3.55664 -3.55664 -3.55664 -9.97926 -9.97926 -9.97926 -9.97926 -9.97698 -9.97698 -9.97698 -9.97698 -9.99777 -9.99777 -9.99777 -9.99777 -10.0111 -10.0111 -10.0111 -10.0111 -9.98712 -9.98712 -9.98712 -9.98712 -3.41566 -3.41566 -3.41566 -3.41566 -9.98715 -9.98715 -9.98715 -9.98715 -9.98335 -9.98335 -9.98335 -9.98335 -10.0139 -10.0139 -10.0139 -10.0139 -9.40201 -9.40201 -9.40201 -9.40201 -9.98623 -9.98623 -9.98623 -9.98623 -10.8744 -10.8744 -10.8744 -10.8744 -2.82882 -2.82882 -2.82882 -2.82882 -2.99908 -2.99908 -2.99908 -2.99908 -9.97276 -9.97276 -9.97276 -9.97276 -9.96929 -9.96929 -9.96929 -9.96929 -3.28947 -3.28947 -3.28947 -3.28947 -2.66412 -2.66412 -2.66412 -2.66412 -9.82001 -9.82001 -9.82001 -9.82001 -9.92661 -9.92661 -9.92661 -9.92661 -9.96885 -9.96885 -9.96885 -9.96885 -9.91327 -9.91327 -9.91327 -9.91327 -9.90271 -9.90271 -9.90271 -9.90271 -9.87196 -9.87196 -9.87196 -9.87196 -9.94455 -9.94455 -9.94455 -9.94455 -9.7971 -9.7971 -9.7971 -9.7971 -9.79068 -9.79068 -9.79068 -9.79068 -9.86269 -9.86269 -9.86269 -9.86269 -9.89506 -9.89506 -9.89506 -9.89506 -9.79965 -9.79965 -9.79965 -9.79965 -9.77816 -9.77816 -9.77816 -9.77816 -7.39443 -7.39443 -7.39443 -7.39443 -9.83346 -9.83346 -9.83346 -9.83346 -9.89147 -9.89147 -9.89147 -9.89147 -9.87928 -9.87928 -9.87928 -9.87928 -9.91563 -9.91563 -9.91563 -9.91563 -9.9026 -9.9026 -9.9026 -9.9026 -9.88863 -9.88863 -9.88863 -9.88863 -13.0059 -13.0059 -13.0059 -13.0059 -12.0763 -12.0763 -12.0763 -12.0763 -10.6616 -10.6616 -10.6616 -10.6616 -13.4072 -13.4072 -13.4072 -13.4072 -10.0547 -10.0547 -10.0547 -10.0547 -10.0573 -10.0573 -10.0573 -10.0573 -9.87192 -9.87192 -9.87192 -9.87192 -9.88041 -9.88041 -9.88041 -9.88041 -9.82552 -9.82552 -9.82552 -9.82552 -9.82516 -9.82516 -9.82516 -9.82516 -9.8056 -9.8056 -9.8056 -9.8056 -9.79734 -9.79734 -9.79734 -9.79734 -9.78166 -9.78166 -9.78166 -9.78166 -9.76241 -9.76241 -9.76241 -9.76241 -9.82292 -9.82292 -9.82292 -9.82292 -9.80223 -9.80223 -9.80223 -9.80223 -9.88445 -9.88445 -9.88445 -9.88445 -9.93946 -9.93946 -9.93946 -9.93946 -9.90812 -9.90812 -9.90812 -9.90812 -9.98375 -9.98375 -9.98375 -9.98375 -9.78681 -9.78681 -9.78681 -9.78681 -9.63927 -9.63927 -9.63927 -9.63927 -9.69971 -9.69971 -9.69971 -9.69971 -9.65612 -9.65612 -9.65612 -9.65612 -12.0482 -12.0482 -12.0482 -12.0482 -10.7817 -10.7817 -10.7817 -10.7817 -9.96861 -9.96861 -9.96861 -9.96861 -9.92901 -9.92901 -9.92901 -9.92901 -9.96182 -9.96182 -9.96182 -9.96182 -9.91671 -9.91671 -9.91671 -9.91671 -2.70229 -2.70229 -2.70229 -2.70229 -5.8673 -5.8673 -5.8673 -5.8673 -9.81348 -9.81348 -9.81348 -9.81348 -9.82262 -9.82262 -9.82262 -9.82262 -9.82421 -9.82421 -9.82421 -9.82421 -9.86207 -9.86207 -9.86207 -9.86207 -9.97833 -9.97833 -9.97833 -9.97833 -9.95983 -9.95983 -9.95983 -9.95983 -9.62703 -9.62703 -9.62703 -9.62703 -9.53662 -9.53662 -9.53662 -9.53662 -9.77542 -9.77542 -9.77542 -9.77542 -9.72351 -9.72351 -9.72351 -9.72351 -9.88861 -9.88861 -9.88861 -9.88861 -9.84463 -9.84463 -9.84463 -9.84463 -9.94741 -9.94741 -9.94741 -9.94741 -9.92304 -9.92304 -9.92304 -9.92304 -8.91775 -8.91775 -8.91775 -8.91775 -8.71336 -8.71336 -8.71336 -8.71336 -9.82771 -9.82771 -9.82771 -9.82771 -9.86079 -9.86079 -9.86079 -9.86079 -9.82815 -9.82815 -9.82815 -9.82815 -9.78351 -9.78351 -9.78351 -9.78351 -3.87137 -3.87137 -3.87137 -3.87137 -6.09902 -6.09902 -6.09902 -6.09902 -13.635 -13.635 -13.635 -13.635 -9.94718 -9.94718 -9.94718 -9.94718 -9.74119 -9.74119 -9.74119 -9.74119 -9.73781 -9.73781 -9.73781 -9.73781 -9.8401 -9.8401 -9.8401 -9.8401 -9.82007 -9.82007 -9.82007 -9.82007 -9.97453 -9.97453 -9.97453 -9.97453 -9.96306 -9.96306 -9.96306 -9.96306 -9.71839 -9.71839 -9.71839 -9.71839 -9.76992 -9.76992 -9.76992 -9.76992 -9.86308 -9.86308 -9.86308 -9.86308 -9.88585 -9.88585 -9.88585 -9.88585 -9.97873 -9.97873 -9.97873 -9.97873 -9.94404 -9.94404 -9.94404 -9.94404 -9.95765 -9.95765 -9.95765 -9.95765 -9.92779 -9.92779 -9.92779 -9.92779 -9.9382 -9.9382 -9.9382 -9.9382 -9.90511 -9.90511 -9.90511 -9.90511 -9.34484 -9.34484 -9.34484 -9.34484 -9.21947 -9.21947 -9.21947 -9.21947 -9.85481 -9.85481 -9.85481 -9.85481 -9.84333 -9.84333 -9.84333 -9.84333 -9.95761 -9.95761 -9.95761 -9.95761 -9.93056 -9.93056 -9.93056 -9.93056 -10.0378 -10.0378 -10.0378 -10.0378 -9.98346 -9.98346 -9.98346 -9.98346 -3.38689 -3.38689 -3.38689 -3.38689 -6.4426 -6.4426 -6.4426 -6.4426 -11.6307 -11.6307 -11.6307 -11.6307 -12.1097 -12.1097 -12.1097 -12.1097 -9.95679 -9.95679 -9.95679 -9.95679 -9.91205 -9.91205 -9.91205 -9.91205 -9.87097 -9.87097 -9.87097 -9.87097 -9.86552 -9.86552 -9.86552 -9.86552 -9.83989 -9.83989 -9.83989 -9.83989 -9.8497 -9.8497 -9.8497 -9.8497 -2.85865 -2.85865 -2.85865 -2.85865 -6.12693 -6.12693 -6.12693 -6.12693 -9.92204 -9.92204 -9.92204 -9.92204 -9.9535 -9.9535 -9.9535 -9.9535 -9.82435 -9.82435 -9.82435 -9.82435 -9.87747 -9.87747 -9.87747 -9.87747 -9.98508 -9.98508 -9.98508 -9.98508 -9.9872 -9.9872 -9.9872 -9.9872 -10.2338 -10.2338 -10.2338 -10.2338 -10.2055 -10.2055 -10.2055 -10.2055 -9.84398 -9.84398 -9.84398 -9.84398 -9.85653 -9.85653 -9.85653 -9.85653 
VECTORS Velocity float 
0.0153872 0.0111249 0.0487876 
0.0171818 0.0225303 0.0662689 
0.00931797 0.00318462 0.0146825 
0.00245566 0.000174218 0.0136719 
0.015223 0.0126175 0.0491559 
0.0039486 0.00616263 0.0383029 
0.0118266 0.0160369 0.0653787 
0.00451094 0.00254943 0.0139862 
-0.000195656 -0.000492189 0.0641056 
-0.00376986 -0.00242067 0.0403112 
-0.00552167 -0.00356151 0.0596778 
-0.00412464 -0.00211481 0.0750542 
-0.000152577 -0.000397823 0.0643875 
-0.00497444 -0.00149041 0.0599079 
-0.00377868 -0.00248341 0.0400279 
-0.00414141 -0.00208628 0.0752835 
-0.00683562 -0.004371 0.0598236 
-0.00345374 -0.00252067 0.0401033 
-0.00489282 -0.00152373 0.0599302 
-0.00438543 -0.00203571 0.0752237 
-0.02805 0.0293183 0.147625 
-0.0166083 0.0202744 0.032999 
-0.00521552 0.0247396 0.0136462 
-0.0133774 0.0139487 0.0306992 
-0.00345869 -0.00497958 0 
0.00163764 0.0014849 0 
0.00314619 0.000587277 0 
0.00746104 0.0243274 0.0181865 
0.00468983 0.0195291 0.0518863 
-0.00902362 0.0162301 0.0606994 
0.0241189 0.00653029 0.0085161 
0.0411325 0.0230439 0.0702909 
7.78557e-05 -0.00191635 -0.000879924 
0.00418613 -0.00191671 -0.000738206 
-0.000164456 0.00236618 0.00471422 
0.0010336 0.0020945 0.00481109 
0.00473006 -0.00556881 0.0422253 
0.00335983 -0.00332556 0.0327252 
0.0117418 -0.0106639 0.0534018 
0.00512582 -0.00491114 0.018466 
-0.0013632 -0.00236748 -0.00224022 
0.00904215 0.0041079 0.00917356 
-0.00206834 -0.00174202 -0.00299494 
0.00194134 0.000704792 0.00543465 
0.000623248 0.00356077 -0.000120514 
-0.00432765 -0.00312708 0.0064478 
-0.0059978 -0.00444429 0.0112028 
-0.00411636 -0.00262623 0.0145089 
-0.000495282 -9.95423e-05 0.0603202 
0.00609424 -0.00168845 0.0522066 
0.00593096 -0.000934865 0.0371498 
0.00509349 0.000234945 0.0537285 
0.00307327 0.00492615 0.0393918 
0.0165931 0.0118549 0.0467818 
0.00346964 0.00582396 0.0224874 
0.00272588 0.00399784 0.0171923 
-0.00474266 -0.00359089 0.0344715 
-0.0142681 -0.00253043 0.0488981 
-0.0122541 -0.00833533 0.046187 
-0.0135423 0.0007335 0.0657999 
0.00457091 -0.00503376 0.0156785 
0.0117571 -0.0121078 0.0528276 
0.00456907 -0.0032416 0.0337505 
0.00408448 -0.00403111 0.0179701 
-0.00219949 -0.00423627 -0.00228194 
0.00291041 0.00342065 0.00584638 
0.00665609 0.00464639 0.0125192 
0.00466303 0.00557165 0.0201733 
0.0328043 -0.0397199 0.154438 
0.0202222 -0.0372083 0.123596 
0.0304535 -0.0111467 0.116054 
0.0493151 0.0596653 0.211907 
0.0139437 0.00384815 0.0174745 
0.0100372 0.016398 0.0667723 
0.00611955 0.00652349 0.0160245 
0.00335478 0.0132171 0.0568396 
0.0329855 -0.00100362 0.123698 
0.0322323 0.0281732 0.0858385 
0.0104217 -0.0386375 0.070878 
0.0130445 -0.0345726 0.0817976 
-0.00336317 0.000631279 -0.000604442 
0.00466298 -0.0049273 0.0252914 
0.00395 -0.00354343 0.0321623 
0.00459213 -0.00435898 0.018199 
0.0033858 0.00600766 0.0371519 
0.0143927 0.015875 0.0544849 
0.00775754 0.00927218 0.075301 
0.01105 0.00702317 0.0599419 
0.00418446 0.00221886 0.0347976 
0.0061747 0.00860735 0.077248 
0.0156604 0.0169611 0.0531098 
0.0102078 0.0165475 0.0656202 
0.00310587 -0.00320978 0.0317307 
0.00497082 -0.00572256 0.013465 
0.0124645 -0.0117588 0.0542874 
0.013034 -0.0119386 0.0553909 
-0.00431225 -0.00670634 0.0388767 
-0.00117168 -0.000759259 0.0287654 
-0.0141731 0.000161476 0.0458695 
-0.014212 0.00159312 0.0636668 
-0.0385247 -0.0138333 -0.0403849 
0.0476772 -0.00145926 0.0578068 
-0.0113694 -0.0272787 -0.0483586 
0.111601 0.00079739 0.195805 
0.00615043 -0.00505276 0.0511565 
0.00589075 0.00400507 0.0556078 
0.00531953 -0.0013522 0.0756474 
0.0102775 -0.00422413 0.0682407 
0.0206189 0.00897938 0.0837344 
0.0144195 -0.0037481 0.0502668 
0.0183708 -0.0255639 0.0722752 
0.0206383 -0.0227268 0.082702 
0.00504981 0.00769214 0.118922 
0.00341422 -0.00600219 0.0973971 
0.00660673 0.0149445 0.0746523 
0.0143824 0.0128514 0.100913 
-0.00358143 0.0102589 0.0735804 
-0.0189896 0.0114765 0.0425453 
-0.0113487 0.0168937 0.0685575 
-0.00335841 0.00883935 0.0520469 
0.00451017 0.00145424 -0.0010652 
-0.00433736 -0.00546195 0.0188215 
-0.00597475 -0.00397677 0.0353958 
-0.00649848 -0.00573764 0.0177706 
0.0155999 0.00222062 0.29717 
0.0157733 -0.0634181 0.127578 
0.0454686 -0.117631 0.163558 
0.0322875 0.171426 0.198705 
0.00951309 0.00335019 0.0155855 
0.00377498 0.00557895 0.0225833 
0.0147071 0.0129738 0.0460993 
0.00310855 0.00216558 0.016965 
-0.000115447 -2.69873e-05 0.0586255 
0.0056167 -0.00128445 0.0755815 
0.006144 -0.00253747 0.0517257 
0.00480742 0.00065638 0.0551485 
0.00718369 0.00978555 0.078165 
0.00401415 -0.00147737 0.0959739 
0.000601172 0.00807999 0.112055 
-0.0007035 0.00668456 0.0819522 
-0.0129141 -0.00296893 0.0143677 
-0.00105076 -0.00321318 0.00393602 
0.000617914 0.000496724 -0.00506334 
-0.0112878 -0.00507737 0.0126537 
0.00265969 0.00264302 -0.00318909 
-0.00426234 -0.00574421 0.0167128 
-0.00428174 -0.00327152 0.00708238 
-0.00433186 -0.00384503 0.0160223 
-0.00141134 -0.00211452 -0.00486719 
0.00378552 0.0046158 0.0210333 
0.00797352 0.00426283 0.0138379 
0.00317595 0.00240303 0.0174943 
-0.00827251 0.0097264 0.0702097 
-0.0115482 0.0124512 0.0459332 
-0.00428906 0.00567924 0.0310015 
-0.00565634 0.00384668 0.0596489 
-0.00196448 -2.27883e-05 -1.2372e-06 
0.00502485 -0.00287281 0.0278978 
0.00469149 -0.00155951 0.0372591 
0.00152939 -0.00152654 0.0263582 
0.00498674 -0.000922078 -0.00680882 
-0.00469522 0.0187368 0.0198804 
-0.00282419 0.00172986 0.00119389 
-0.00725425 0.00847774 0.0116118 
0.0164764 0.0142643 0.0508429 
0.0031458 0.00353662 0.0355953 
0.00614206 0.00707797 0.026842 
0.0100537 0.00832907 0.0580817 
0.000474395 0.00110907 -0.000473689 
0.000810209 0.00104023 0.000192532 
-0.00396476 -0.00299819 0.00724129 
-0.00480516 -0.00199907 0.0130129 
0.00205376 0.000130906 -0.00176295 
-0.00517036 -0.00519907 0.0184409 
-0.00597047 -0.00384459 0.0351819 
-0.00257025 -0.000146271 0.0201114 
-0.0215145 -0.00628317 0.054059 
-0.0128468 0.0240231 0.042657 
-0.0290381 0.00476829 0.112953 
-0.00925538 0.0202789 0.0443132 
-0.018406 0.0126541 0.031536 
-0.0186038 0.0236473 0.0673299 
-0.011086 0.00753609 0.0395264 
-0.00478581 -0.00237007 0.010857 
0.0131312 -0.00488358 0.0536659 
0.025629 -0.0181093 0.0854521 
0.0167275 -0.00659766 0.094041 
0.00958645 -0.00410475 0.0660976 
0.00372936 0.00542639 0.0396223 
0.00428653 0.00502944 0.021696 
0.0148274 0.0142541 0.0490112 
0.0104092 0.00843992 0.0585626 
0.00383938 0.00451555 0.0360543 
0.00408926 0.00423349 0.0229183 
-0.000892982 -0.000663021 -0.00142293 
0.000743519 0.00106167 0.0270554 
-3.47223e-05 -0.000731729 0.0550207 
0.000251526 -0.000673341 0.0432027 
-0.00578219 0.00446379 0.0437251 
-0.00556024 0.00467153 0.058787 
0.0219746 0.0121632 0.136018 
0.0172563 0.0134067 0.110579 
0.0372826 0.0348347 0.0572673 
0.0452994 0.0363383 0.116888 
0.00493072 -0.0102846 0.0123882 
0.0053328 -0.0091262 0.0067141 
-0.00408444 0.00398627 -0.00317319 
0.00403767 -0.00564489 0.0151907 
0.000480637 -0.000339194 0.0437881 
-0.00609579 0.00419402 0.043372 
-0.00547304 0.00449273 0.0582787 
-0.00157544 0.00140383 0.0252462 
0.000421322 3.33471e-05 0.0481093 
-0.00447076 -0.00286658 0.0287451 
-0.00505148 -0.00697242 0.0542151 
-0.00489121 -0.00560154 0.0591437 
0.0125279 -0.0135621 -0.00201488 
-0.0224968 0.00977945 -0.0423856 
0.0183958 -0.0123824 0.0218698 
0.0652276 -0.0674693 0.124736 
0.0079737 -0.00172431 -0.00281062 
0.00383748 -0.00132124 -0.00233211 
-0.0110029 0.0183038 0.0132529 
-0.00881002 0.00944541 0.00905996 
0.000344452 0.000115549 -0.0048943 
0.000297842 -7.10753e-05 -0.00042555 
-0.00293164 -0.00430546 0.0176897 
-0.00337896 -0.0014056 0.0170414 
0.001031 0.00194058 -0.0013583 
-0.00145811 0.00349968 0.00519867 
0.000216344 -0.00149231 -0.000800382 
-0.00152317 0.00504463 0.00523953 
-0.0023393 0.00320853 -0.0095838 
0.00627844 -0.00989855 0.00397934 
0.0240101 -0.0185321 0.0289696 
0.0820143 -0.0255938 0.119362 
0.00443201 -0.00528334 0.0409945 
0.0152926 -0.0172051 0.0579723 
0.00635986 -0.0143221 0.0649831 
0.000838401 -0.00171854 0.0185804 
0.00436432 0.0039287 0.0391443 
0.0136358 0.0141859 0.0461039 
0.00531229 0.00767604 0.0280846 
0.00337137 0.00535594 0.00792356 
0.00484969 0.0116059 0.0012441 
-0.00459253 0.00720374 -0.00937531 
0.0383633 -0.0375643 0.0489885 
0.00732009 -0.0131613 0.00394136 
0.00594759 -0.00867367 0.0136752 
0.00503888 -0.0059156 0.0241414 
-0.00358847 0.00248841 -0.0028985 
0.0033227 -0.00458314 0.0170414 
-0.00584223 -0.00305341 0.0364489 
-0.0121611 -0.00780518 0.0455303 
-0.0130002 -0.00374691 0.0471254 
-0.00177735 -1.22801e-05 0.0171977 
-0.000841315 0.000433038 -0.00013628 
0.00329767 0.00304164 0.0354174 
-0.000282751 0.000649015 -0.00123636 
0.000867371 0.000841235 0.0263515 
-0.000762418 -0.000563313 0.0714044 
0.000745008 -0.000176595 0.0622212 
-0.00321665 0.00841607 0.0694768 
-0.000940047 0.00539787 0.0809187 
0.00375294 0.0258281 0.10559 
0.0220068 0.0232028 0.20263 
0.0166144 0.00645993 0.0808819 
0.0515282 0.0433434 0.172284 
0.042474 0.00639908 0.222209 
0.0506565 -0.03259 0.177612 
0.0255929 0.0033089 0.110557 
0.0368572 0.0369522 0.194856 
-0.00253127 -0.000866996 0 
8.30831e-05 -0.000888341 0 
0.000703859 -8.51254e-05 0 
0.00705186 -0.000617247 0.00307618 
0.000162562 -0.000181573 0.0338997 
0.000680731 1.75522e-05 0.0435938 
0.00132579 0.00149586 0.029124 
0.00122418 0.00133379 0.0278052 
0.0158638 0.00063142 0.079817 
0.0155698 -0.00391994 0.0505182 
0.0152126 -0.0072852 0.0964006 
0.0123457 -0.00387876 0.0664657 
-0.0204786 0.0141861 0.0350952 
-0.0140698 0.0182943 0.0688288 
-0.00772972 0.00153271 0.00790254 
-0.00210316 0.0114876 0.0574779 
-0.0130103 -0.000251354 0.0435899 
-0.00261492 -0.000290726 0.0316319 
-0.00456491 -0.00503184 0.0380306 
-0.00247435 -0.00110057 0.0185293 
0.00574647 0.00491347 0.0353903 
0.00720113 0.0077015 0.0236507 
-0.00383424 -0.00145108 -0.00163645 
0.00151998 0.00378512 0.0130849 
9.06109e-05 0.00077572 -0.00112645 
-0.00213225 0.00192588 -0.0014468 
-0.00365433 -0.00239679 0.00688469 
-0.00382368 -0.00525806 0.0061126 
-0.00149775 -0.0046272 -0.00285885 
0.0220646 0.0146422 0.0162121 
-0.0016502 -0.00742851 -0.00393684 
0.00984023 0.00691286 0.00795007 
0.00323121 -0.00304995 0.0321729 
0.00382459 -0.00462367 0.0254566 
-0.00118657 -6.08426e-06 -0.001118 
0.000805779 -0.000723184 0.0238923 
-4.213e-05 0.000266957 0.06435 
-0.00564825 -0.00187424 0.0590402 
-6.47539e-05 -9.67677e-05 0.0495577 
-0.00275093 -0.00179966 0.0413221 
0.0234514 -0.0470123 0.0527262 
-0.00779699 -0.0207977 0.0635364 
0.0234747 -0.02727 0.0718783 
0.00945054 -0.00243291 -0.0155936 
0.000188553 -0.000114256 0.0700841 
-0.00242007 0.00525933 0.0845266 
-0.00484361 0.00473262 0.059022 
-0.00452051 0.00335609 0.0732719 
0.00972064 -0.00269686 0.156132 
0.0107873 -0.00828108 0.218206 
0.0147337 0.01028 0.192424 
0.0725393 -0.0282526 0.0773567 
-0.000178051 -0.00011698 0.0548757 
-0.00608024 0.00356869 0.0424256 
0.000535408 5.40241e-06 0.0443606 
-0.00190948 0.00176848 0.0255366 
0.0302427 0.0252244 0.157763 
0.019546 0.00571403 0.0187677 
0.0900219 0.021981 0.0660604 
0.0308112 0.0100402 0.110377 
0.00322447 -0.00142565 -0.0034091 
-0.00557525 0.00337605 0.0198947 
-0.00388815 0.0027593 0.00660989 
-0.00631968 0.00667767 0.0162857 
-0.0116635 -0.0104256 0.037626 
-0.00429797 -0.00343228 0.0142011 
-0.00212894 -0.0025284 0.0297849 
-0.0134239 -0.0124736 0.04867 
0.0102375 0.0173639 0.0486384 
0.00766817 0.00496123 0.0239932 
0.00894826 0.0210125 0.0340648 
0.0254359 0.0146902 0.0711906 
0.0133494 -0.0114127 0.0546151 
0.00503191 -0.00516153 0.066336 
0.00159738 -0.00224009 0.0301371 
0.0130521 -0.0126228 0.0558564 
0.0254319 -0.0110426 0.029127 
0.0395749 -0.00913315 0.00373746 
0.0253322 -0.0276333 0.0950942 
0.0363542 -0.0257534 0.119714 
0.00291817 -0.0143873 0.0569947 
0.0111834 -0.0139257 0.0126403 
0.00393862 -0.0101863 0.0706876 
0.0139144 -0.0200095 0.0651146 
0.000968327 0.000166931 0 
0.000878346 -0.00158712 0 
0.000506092 4.77398e-05 0 
-0.00276737 0.00610948 0.00302196 
-0.00606834 0.00960665 0.0719538 
-0.00447656 0.00376271 0.0299283 
-0.0139803 0.014548 0.0449517 
-0.0060014 0.00765786 0.05056 
0.00143219 -0.00109701 -0.00527406 
-0.00315996 0.00390585 0.0191741 
-0.00450627 0.00252627 0.0203951 
-0.00632215 0.00807275 0.0175885 
0.0906514 0.01358 0.0920732 
0.027728 0.00889469 0.0207474 
0.0118362 0.0240219 0.135504 
0.0288185 0.0118433 0.0755739 
-0.000236752 0.000186873 0.049979 
-0.00568091 -0.00361534 0.0378312 
-0.00270546 -0.00034803 0.0319715 
-0.00137023 -0.000970998 0.0237774 
-0.00709268 0.00361921 0.0427223 
-0.0127801 0.0116212 0.0441968 
-0.0123043 0.0105121 0.0763602 
-0.00527626 0.00519169 0.0589905 
-0.000139743 0.000407687 -0.00116481 
-0.000498836 -0.000250599 -0.00400438 
0.00492605 0.000985284 0.0116516 
0.00181097 0.00131625 0.00536069 
0.0040164 -0.00247798 0.0322908 
0.00522357 -0.00605387 0.0649285 
0.00502037 -0.00557649 0.0424003 
0.010996 -0.0121925 0.0544381 
-0.00491056 0.0128743 0.0707558 
-0.0105402 0.0101515 0.0810831 
-0.00345884 -0.00183264 0.0916909 
-0.00406408 0.0142511 0.0950408 
0.00435301 0.00553475 0.0382171 
0.00241242 0.00533901 0.0600415 
-0.000722661 -0.000725515 0.0399135 
0.00414481 0.00455515 0.0530352 
-0.00428532 -0.00764457 0.0553591 
-0.0136085 -0.0113953 0.0405983 
-0.000918913 -0.00188252 0.0278675 
-0.0126309 -0.0125927 0.0482811 
-0.00309316 0.00869607 0.11789 
-0.00473876 5.51353e-05 0.0892775 
-0.0148727 0.00956835 0.0808505 
0.000617863 0.0157134 0.094345 
-0.000839769 -0.000540774 -0.000939014 
0.0044408 0.00471799 0.0350813 
-0.000883799 -0.000211023 8.4528e-05 
0.00190745 0.00311458 0.01505 
-0.00237224 -0.00316207 -0.000871335 
0.00389427 0.00511002 0.0224569 
0.00543884 0.00644611 0.0357996 
0.00214983 0.00347605 0.0131083 
0.0196525 -0.0351927 0.145653 
-0.0762982 0.00558274 0.0276627 
0.0117731 -0.0410442 0.0593621 
0.00849611 -0.0418427 0.120643 
-0.00860175 -0.0033057 0 
-0.000129423 -0.0102641 0 
0.000420145 0.00308107 0 
0.0136145 -0.0106515 -0.00807406 
-0.00859391 0.0124257 0.0217146 
-0.00955689 0.0216921 0.0288778 
0.0123112 0.00353511 -0.0229657 
-0.0138383 0.0228882 0.0293229 
-0.000395548 0.0107023 0 
-0.00861232 -0.0181976 0 
0.0289323 0.00273513 0 
0.0468323 0.0116379 0.0695701 
0.00472943 0.00513351 0.0391977 
0.00430825 0.00456978 0.0521498 
0.00571946 0.0060414 0.0209798 
0.00906692 0.00904772 0.0591163 
0.00385922 0.00617548 0.0370278 
0.00899905 0.00851367 0.0749759 
0.00388703 0.00525716 0.0514991 
0.00956446 0.00844003 0.0603308 
-0.0161913 0.0184826 0.0102714 
-0.0178614 0.0298149 0.150515 
0.00767934 0.102999 0.104215 
-0.0282578 -0.00685578 0.0284801 
-0.00442179 -0.00956845 0.0551697 
5.4241e-05 -0.0060058 0.0610549 
0.000293825 -0.00330931 0.0324098 
-4.16928e-05 -0.000363884 0.0239065 
0.035987 0.0280108 0.331889 
0.0805233 0.0110429 0.21035 
0.0131651 0.00530193 0.0699581 
0.0331554 0.024668 0.0557488 
-0.000534565 0.000150509 0.0334336 
0.000130719 -0.00397137 0.032448 
0.000280835 -0.000139233 0.0408625 
0.00102702 -0.00491191 0.0590513 
0.0158585 0.00742797 0.194253 
0.0119398 0.00800692 0.0688558 
0.00967487 -0.00157663 0.157073 
0.0698429 -0.0237858 0.0705749 
0.0158999 0.0193583 0.0403863 
0.0324958 0.0318449 0.0762396 
0.0248143 0.0163875 0.116632 
0.0175705 0.0150483 0.104538 
0.00334359 0.00240852 0.000712739 
-0.00901969 0.00828043 0.01175 
-0.00866257 0.0159019 0.0205941 
-0.00836982 0.00958597 0.0195652 
0.0307565 -0.0526133 0 
0.0261344 -0.0220357 0 
-0.0286144 0.0430958 0 
0.0345617 -0.0228485 0.136594 
0.0122936 -0.0023693 0.251347 
-0.0230461 0.0161502 0.0981624 
0.0286332 0.0235504 0.15814 
-0.0503599 0.0513502 0.135075 
-0.00598293 0.00403275 0.0438301 
-0.00208944 0.00168203 0.0302304 
-0.0129162 0.011684 0.0436315 
-0.00534107 0.00530591 0.0584021 
-0.000446881 0.000219221 -0.000254274 
-0.0112488 -0.00269382 0.00770318 
0.00337685 0.00143572 -0.00190872 
-0.00426321 -0.0015397 0.00490631 
-0.0117389 -0.0113636 0.0402673 
-0.00218771 -0.00173765 0.0289102 
-0.00529258 -0.00377329 0.0376815 
-0.012085 -0.0109922 0.0599892 
-0.00154773 0.00345808 -0.000366804 
0.00410746 -0.00492031 0.0170525 
0.00391655 -0.00446829 0.0321224 
0.00422932 -0.00363042 0.0186614 
0.00448831 -0.00660456 0.0389762 
0.0112588 -0.0127331 0.057598 
0.00555938 -0.00471357 0.0661211 
0.00785861 -0.0127409 0.0671067 
0.0157053 0.0151043 0.0492151 
0.00755625 0.00770103 0.0240286 
0.0170514 0.0135568 0.0702256 
0.00983356 0.0078233 0.0596152 
-0.0135395 -0.00487176 0.0171522 
-0.00551614 -0.00864247 0.0107467 
-0.00162347 -0.0178647 0.0549071 
-0.0297074 -0.016142 0.0330645 
-0.000310516 -0.000674013 0.0591813 
0.0010277 0.00548233 0.0583994 
-0.00215835 0.00906559 0.0726958 
-0.000168179 0.00509257 0.0823826 
-0.000234517 -2.9383e-05 0.0496546 
-0.00379949 6.75715e-05 0.0300195 
-0.00520654 -0.00283221 0.0401461 
-0.0055874 -0.00102165 0.0571931 
0.000992815 -0.000171428 -0.000698385 
-0.00219012 0.00518875 0.0110189 
0.000291077 0.000185214 0.000934637 
-0.00105421 0.00285729 0.00389509 
0.000198259 2.96333e-05 -0.000236811 
0.0120094 0.00248276 0.00785954 
-0.00312869 -0.00129302 -0.00166457 
0.00285188 0.000653304 0.00417393 
0.00156884 -0.0518027 0.128519 
0.0192179 -0.0281986 0.229315 
0.0711403 0.00509716 0.0688664 
-0.0147134 -0.0342528 -0.000753494 
0.00999637 0.0529262 0.285066 
0.036366 -0.108963 0.20486 
0.0581703 -0.0125203 0.214731 
0.0441319 0.131221 0.168889 
-0.000772107 -0.000267087 -0.00206105 
0.00470539 -0.00167527 0.0371855 
-0.00102779 0.000380637 0.000620012 
0.00442291 -0.00312164 0.0275057 
0.00416307 0.0141135 0.0578324 
0.00623931 0.0114706 0.0145551 
0.00945413 0.0155961 0.0682105 
0.00501846 0.0111014 0.053817 
-0.00550134 -0.00334483 0.0376386 
-0.00360232 -0.00184774 0.0314629 
-0.0100518 -0.0126651 0.0385748 
-0.0051633 -0.00496845 0.0173623 
-0.0125261 0.0051404 0.0346526 
-0.0151337 0.0200928 0.026233 
-0.02822 0.0402078 0.101998 
-0.0228587 0.0261728 0.06126 
0.010546 0.0189616 0.0280678 
0.00652156 0.00644689 0.0283538 
0.013652 0.015438 0.0458897 
0.000999947 0.00187472 0.00840696 
0.00878531 0.00354623 0.0146868 
0.00250201 0.00310273 -0.00142897 
0.0156734 0.0157919 0.0464859 
0.00531702 0.0055081 0.0243973 
0.00012006 0.00291899 -0.000229696 
0.000346554 -0.00421167 0.0324565 
-0.000130469 -0.00601132 0.0202038 
0.003388 -0.00375439 0.0236312 
-0.00104408 0.000126039 0.0371993 
0.00529812 -0.0010282 0.0380462 
8.29315e-05 0.000142175 0.0596836 
0.00635221 -0.00240718 0.050959 
-8.37109e-05 -0.000666286 0.0692062 
-0.00416092 0.00461935 0.0893037 
-0.00239101 0.00514847 0.0842949 
-0.00457576 0.00329064 0.0731831 
-0.000578829 0.001476 -0.00316361 
-0.00411221 -0.00269163 0.0107923 
-0.000714366 0.000539766 0.000608877 
-0.00319217 -0.00132033 0.00601539 
0.00572898 -0.000832991 0.0372775 
0.00487694 0.00554833 0.055062 
0.00630826 -0.00634664 0.051025 
0.0109886 -0.00450617 0.0687879 
-0.0112413 -0.00824822 -0.0298823 
-0.00347187 0.027217 0.0164914 
-0.00919685 0.0290914 0.00632534 
0.00523518 0.0447481 0.086002 
0.00441559 -0.0220797 0.0574502 
0.0112719 -0.034914 0.143997 
-0.00230622 -0.0164587 0.0441899 
-0.0388097 -0.0191413 0.0356475 
0.00120747 0.00374872 -0.00672208 
-0.00803577 0.0120869 0.0194291 
0.0071098 0.00436805 -0.00329892 
-0.0106031 0.0181099 0.0140993 
-0.0121676 -0.0119326 0.0419482 
-0.00549125 -0.00718326 0.0542044 
-0.00220968 -0.00232076 0.0286486 
-0.0057882 -0.00509664 0.0593855 
0.00921758 0.0169436 0.0354873 
0.0210261 0.017885 0.0288414 
0.0481894 0.0229388 0.131381 
0.0244397 0.0219134 0.0614909 
0.00381458 0.0036907 0.0372178 
0.00193415 0.000677355 0.0286674 
0.000352117 -0.000117123 0.0441611 
0.00110347 0.00205052 0.0275877 
-8.95618e-05 -4.4902e-05 0.0723968 
-0.00393805 0.00821693 0.0660822 
0.00114178 -7.01552e-05 0.0641085 
-0.00195119 0.00375549 0.0480741 
-0.00135013 0.00122557 0.000129415 
0.00158165 -0.0018033 0.0267215 
0.00289764 -0.00280452 0.0328282 
0.00126325 -0.000792725 0.0240371 
-0.00567189 -0.00425544 0.0373166 
-0.00524502 -0.000733208 0.0599871 
-0.00660969 -0.00536697 0.0598224 
-0.0028986 -0.00236821 0.0399131 
0.000362884 0.000797323 0.000193103 
0.000440296 0.000732362 -0.00221953 
-0.000161886 -0.000285723 0.000644322 
0.000931402 -0.007824 0.0116455 
0.0158943 0.0203486 0.0507868 
0.0104271 -0.00108659 0.015281 
0.0192457 0.0112931 0.0267943 
0.00923728 0.0144923 0.0129976 
-0.00445464 -0.00763304 0.0540353 
-0.00319261 -0.00217974 0.0315565 
-0.0069207 -0.00407741 0.0160268 
-0.0101761 -0.0122942 0.0453625 
0.0139661 -0.0126565 0.0540785 
0.0147502 -0.0133254 0.0551203 
0.0024096 -0.00302031 0.0139249 
0.0143488 -0.0156921 0.0332833 
0.00503552 -0.00670951 0.0426093 
0.00560596 -0.00346986 0.0163712 
0.0115127 -0.0122964 0.0551895 
0.0137025 -0.0142603 0.0519119 
0.000132316 -0.000302644 8.65475e-05 
-0.00121955 -0.000426983 -0.000781028 
0.000361001 -0.000607921 -0.000382244 
0.00627831 0.00130546 0.00624757 
-0.00312217 -0.0075623 0.054868 
0.00016249 0.000403336 0.0475423 
-0.000439555 -0.00635989 0.0610048 
-0.000486404 -0.00139162 0.0241475 
0.100472 -0.0993158 0.342402 
0.0119961 -0.0349677 0.457221 
0.0878652 -0.0445475 0.106848 
-0.0381576 0.0299174 0.122223 
-0.006319 0.000141314 -0.00597019 
0.0295602 -0.00863318 0.0287136 
0.00755734 -0.000447678 0.00306041 
0.00884584 -0.000178368 0.0155576 
0.00154417 0.00239057 -0.000971462 
-0.00378354 -0.00506857 0.0178853 
-0.00391869 -0.00366337 0.0175079 
-0.00178874 -0.00162409 0.0207257 
0.00122825 -0.00291611 -0.00226715 
-0.00114943 0.00308635 0.00221831 
-0.00296687 0.00426205 0.0182844 
-0.00593886 0.00891167 0.0156335 
0.00551837 0.0112116 0.076236 
0.0154203 0.0110038 0.0973198 
0.00404894 -0.000613623 0.0977109 
0.00379458 0.00283725 0.0778461 
0.00132681 0.00157119 -0.00275306 
0.00140571 0.00220713 -0.00313661 
-0.00837 -0.00367369 0.00981115 
-0.00339799 -0.00164532 0.00594493 
-0.0014969 -0.00110427 -2.05982e-05 
0.00195918 0.000924406 0.0288812 
0.00350099 0.00373818 0.0368554 
0.00110194 0.00192076 0.0274901 
0.00185462 -0.00352324 -0.00200771 
-0.00210607 0.00249526 0.00580775 
8.77774e-05 0.00172676 0.0025335 
-0.00680567 0.00988286 0.0154356 
0.00344604 -0.0038631 0.0332765 
0.00440751 -0.00526877 0.0254802 
0.0120803 -0.0110399 0.05213 
0.00479447 -0.00524678 0.015622 
0.00718758 0.0216366 0.0562988 
0.00639965 0.00619909 0.0159243 
0.0149782 0.000575917 0.0176277 
0.00836325 0.0176358 0.0675478 
-0.000694763 -0.000340519 0.00100771 
0.00416977 0.00484137 0.0339756 
-0.00112182 -0.000236083 -0.00203317 
0.00211594 0.00326752 0.0150331 
0.0433635 -0.00617226 0.0573604 
-0.0119358 -0.056129 0.0727216 
0.0140028 -0.0187858 0.190908 
0.0428909 0.0233024 0.135963 
0.014813 0.00621494 0.106212 
-0.00118449 0.021236 0.0382162 
-0.00914029 0.0303295 0.126082 
0.0298152 0.023841 0.11072 
-0.000775368 0.000586395 -0.000176565 
-0.00103186 -0.000115857 -0.000273765 
0.00348127 -0.00274247 0.00910686 
0.00057144 -0.00195076 0.00167934 
-0.00320815 -0.0203992 0.0524603 
0.00203545 -0.013133 0.0593306 
-0.0121901 -0.0136942 0.0024276 
-0.0247891 -0.0239117 0.0399997 
-0.00641182 0.00945252 0.0729683 
-0.0121474 0.0108477 0.0787024 
-0.0131188 0.0125437 0.0444423 
-0.00529709 0.00442635 0.0563599 
-0.0155898 -0.0251585 0.136295 
0.0061471 -0.017884 0.144926 
-0.00429945 -0.0314148 0.0893303 
-0.00402061 -0.00130336 0.110775 
0.0114562 0.0033807 0.272207 
0.0250842 0.0179228 0.0977963 
-0.0284286 0.0319085 0.12711 
0.0463198 0.0270867 0.106957 
-0.00232392 0.000888015 0.0024768 
0.00975518 -0.00281717 -0.0239852 
-0.0387325 -0.0132804 0.0526973 
-0.0340309 0.00471187 0.0352353 
0.000723871 0.00722762 -0.00385534 
-0.00988038 -0.00969027 0.00977641 
0.00168742 0.00822935 0.00031747 
-0.0218342 -0.0117129 0.0114543 
-0.000887182 0.000959404 -0.00125784 
0.0051569 -0.00310796 0.0195339 
0.00300022 -0.0034921 0.0320467 
0.00131489 -0.000998426 0.0260346 
-0.000329144 -0.000263403 0.0442089 
-0.00484168 0.00439161 0.0576755 
-0.00258313 0.00252232 0.0307375 
-0.00191973 0.00147127 0.0256557 
0.00678283 -0.00528997 0.0189694 
0.00631872 -0.0164711 0.0681033 
0.015462 -0.0198477 0.0612265 
0.000514108 0.00197262 0.0142673 
0.00692917 0.0229333 0.0433594 
0.01834 0.00323968 0.0168275 
0.00370392 0.0176281 0.056972 
0.00457555 0.00293733 0.0161315 
5.25243e-05 1.93171e-05 0.0477958 
-0.00479103 -0.00678999 0.0517649 
-0.00336982 -0.00293246 0.0313496 
-0.00161773 -0.0017145 0.0257013 
-0.00672073 0.0218178 0.0519629 
0.0122864 0.0245413 0.112582 
0.0100572 0.0159535 0.0604549 
0.0379466 0.0143538 0.0904827 
0.00418916 -0.0260399 0.113623 
0.0451135 -0.0325143 0.125549 
0.0320144 -0.014174 0.0874792 
0.0294822 -0.0512055 0.21258 
0.0239946 -0.0188707 0 
0.00648161 0.0144655 0 
-0.0076742 0.0121221 0 
0.0286748 -0.028691 0.0739767 
0.000450047 -0.000261201 0.0483331 
0.000373149 7.2452e-05 0.038101 
-0.00357798 -0.00310472 0.0301407 
-0.00511028 -0.00463399 0.0582344 
0.00603621 -0.00569982 0.0402182 
0.00720405 -0.00612612 0.0670175 
0.000245789 -0.00636688 0.062809 
0.00410525 -0.0133271 0.0643817 
0.0207008 -0.00978473 0.0092663 
0.0131247 -0.0554137 0.0702649 
0.0158082 0.0163908 -0.00781671 
-0.00192456 -0.00481494 -0.00369633 
-0.000561078 -0.000641355 0.000190069 
0.003636 -0.00671088 0.013467 
-0.00270843 -0.000928152 -0.00469343 
0.00436835 -0.0046158 0.015565 
-0.011271 0.0111982 0.0403649 
-0.00266854 0.0018877 0.0313999 
-0.0059551 0.00531504 0.0445065 
-0.00448409 0.00379328 0.0182189 
0.0068917 -0.0125162 -0.0101766 
-0.00504344 0.0264992 0.0277331 
0.00169786 -0.000578605 0.0044947 
-0.00762736 0.0366796 0.0197786 
-0.00132622 0.000437248 6.65892e-05 
-0.00125703 0.00175179 -0.000597579 
0.00583204 -0.00866894 0.0135164 
0.00290382 -0.00583728 0.0211954 
-0.0178269 -0.00171262 0.0188367 
-0.00289062 -0.0215539 0.0514818 
-0.0085405 -0.00656499 0.0118068 
0.00246779 -0.0115989 0.0203661 
-0.0196929 0.0118669 0.0394643 
-0.0104279 0.0129771 0.0793833 
-0.00269501 0.01002 0.0757239 
-0.0140972 0.0164859 0.0698089 
-0.0104341 -0.00314962 0.0779557 
-0.00482972 -0.00718429 0.0600955 
-0.0063817 -0.00483179 0.0368669 
-0.00710589 0.0016248 0.0598215 
-0.004521 0.00957342 0.0710514 
-0.00382245 0.0026819 0.0910732 
0.000930864 0.00451952 0.082904 
-0.00106287 0.0140283 0.0913091 
-9.1863e-05 -0.000201061 0.0680789 
-0.00355408 0.00826242 0.0710493 
-0.00540407 0.00496525 0.0597075 
-0.00152529 0.00495901 0.0842537 
0.0175653 0.0192707 0.0435549 
0.00050838 -0.000661722 0.00170946 
0.00994026 0.00126678 0.0151241 
0.00871025 0.0154036 0.0146443 
-0.000348797 0.00296043 -0.0105648 
-0.0121114 -0.00531858 0.0176156 
-0.0110395 -0.00588481 0.0133071 
-0.0184267 -0.00914074 0.0186994 
-0.00153024 0.000864827 -0.00220969 
0.00496222 0.00378175 0.0352727 
-0.00109881 -0.000510389 0.000875562 
0.00456595 0.00513382 0.0243802 
-0.00942615 0.0209706 0.0280572 
-0.0151285 0.0215679 0.0282795 
-0.00443527 0.0107891 0.018695 
-0.013596 0.0125329 0.0450331 
0.0161835 -0.00736097 -0.0719506 
0.0404864 -0.0492424 0.0172161 
-0.0465009 -0.0251216 0.0796875 
-0.141465 -0.0232777 0.286576 
-8.18211e-05 5.63136e-05 -0.00248952 
-0.000702455 0.000494288 0.000626534 
0.000499092 -0.00035053 0.000898475 
-0.00320909 -0.000825024 0.00593381 
0.00818565 -0.0095087 -0.0102741 
0.0150643 0.00936719 0.0123356 
0.026743 0.00670884 0.0358194 
0.0474431 0.0266774 0.0575511 
0.00518493 -0.00115669 -0.00733008 
-0.00911672 0.0231868 0.0244547 
-0.00541316 0.0138848 0.016558 
-0.000732615 -0.000543487 -0.00248447 
0.11319 0.0427357 0.1673 
0.0474078 -0.00936034 0.123889 
-0.00284481 -0.0603545 0.115866 
-0.00142629 -0.0837592 0.213264 
0.000638732 -0.000293034 -0.00235195 
-0.00447469 -0.0030776 0.0357713 
0.000271642 -0.000115473 -0.000165403 
-0.00210566 -0.00190319 0.0205023 
-0.00711246 0.00820359 0.0291776 
-0.0315705 0.0288517 0.0702577 
-0.027385 0.0287354 0.10086 
-0.0187077 0.0216943 0.107432 
-0.0121486 -0.0119198 0.0420184 
-0.00472491 -0.00764549 0.0547592 
-0.00578682 -0.00471113 0.0602837 
-0.0119842 -0.0107288 0.0618133 
-0.00424362 0.0031573 0 
0.00386602 -0.00175925 0 
0.000381888 -0.00399955 0 
-0.0203887 0.00255086 0.0117476 
0.0188869 -0.00290957 0.149979 
0.0035325 -0.0301585 0.201508 
0.0442141 0.0558054 0.0619913 
0.0553821 0.0701922 0.105189 
-0.0217297 -0.00252397 0.242981 
0.0403694 -0.015865 0.298055 
-0.031366 -0.00347591 0.169555 
-0.0402573 -0.0366246 0.159025 
0.00521989 0.00461915 0.0381318 
0.00484207 0.00350536 0.0229145 
0.0112961 0.0139199 0.0448741 
0.00340077 0.00437486 0.0103656 
-0.00299997 0.00864588 0.0687549 
0.000455331 0.00510143 0.0594291 
0.000347842 -0.000338146 0.061971 
-0.00198706 0.00415472 0.0485163 
0.0243591 0.0230174 0.154487 
-0.0121353 0.0181682 0.107457 
-0.0657966 0.0290908 0.0576084 
-0.0397148 0.0351866 0.144943 
0.00170603 -0.00164638 -0.0213994 
0.000444065 0.000399906 0.00139053 
0.0154599 0.0264455 0.0247213 
0.0125013 0.0401687 0.0557301 
0.0038702 -0.00468801 0.0254671 
0.00139625 -0.000820116 0.026064 
-0.000810349 -0.000667101 -0.000801356 
0.000689124 -0.000565734 0.0238779 
-0.00930865 0.00401731 0 
-0.00386366 0.00320733 0 
0.00982865 -0.000309739 0 
0.0115725 0.00188748 0.00286304 
-0.00540177 -0.00335943 0.0374772 
-0.000159074 0.000150048 0.0501394 
-0.00563958 -0.00103168 0.0594226 
-0.00266745 -0.00276568 0.0404306 
0.0109856 0.0317193 0.115416 
0.00979168 0.0127459 0.185957 
-0.00429096 0.00951148 0.127816 
0.027548 0.012564 0.0953026 
0.0308079 0.00255513 0.126086 
0.0161512 -0.0550676 0.05933 
0.0240241 0.018736 0.0778163 
0.0220377 0.0236164 0.126064 
0.0331093 0.0113653 0.0190146 
0.0138314 0.0207469 0.0659799 
0.0194368 0.0271097 0.133317 
0.033276 0.0148445 0.0735196 
-0.00204861 0.000333861 -0.00143634 
0.00476626 -0.00163092 0.037203 
0.00642203 -0.00396694 0.0265895 
0.00379343 -0.00146433 0.0223988 
-0.00494496 0.000264487 -0.00107453 
0.00484859 -0.00504664 0.0235099 
0.00769516 -0.00841041 0.0145174 
0.00420106 -0.00462574 0.0155105 
-0.00515828 0.00330821 0.0422343 
-0.0169257 0.00911716 0.0794433 
-0.010725 0.0144248 0.0408679 
-0.0128917 0.0118718 0.0473293 
-0.0876415 -0.00868585 0.141211 
-0.0644902 -0.000798389 0.118411 
-0.0244581 -0.0126125 -0.0331032 
0.0177431 -0.0406954 0.248579 
-0.000919832 0.000658995 -0.00395639 
0.00324065 -0.00538654 0.0246175 
-0.000412958 0.000245933 0.000788755 
0.00285323 -0.00381121 0.0173789 
0.00155197 -0.0059298 0.0601502 
0.00145089 -0.00188523 0.0261777 
-0.000479696 0.000117677 0.0407265 
0.00278463 -0.00289805 0.0487131 
2.47563e-05 0.000143021 0 
-4.48974e-05 0.00192297 0 
-0.00195536 -0.00021638 0 
-0.000502192 0.00346539 0.00198977 
-0.00363517 -0.00269684 0.0305782 
-0.00428715 -0.00498844 0.0194745 
-0.00536671 -0.00439383 0.0369717 
-0.00157712 -0.00125569 0.0191414 
0.00768711 -0.00442856 0.0645563 
0.0109161 -0.0123137 0.0590902 
0.00654467 -0.0132547 0.088664 
0.00503302 -0.0137166 0.0675932 
0.00899342 0.00952599 0.0751009 
0.000230959 0.00543364 0.0781744 
-0.000324948 0.0100404 0.117216 
0.00049148 0.0140482 0.0910967 
0.0001645 0.000247719 0.00109964 
-0.000222683 -0.000454089 -0.000248828 
-4.83439e-05 3.00363e-05 -0.00139674 
-0.000442225 0.00527391 0.0126721 
0.0268109 0.0142422 0.049142 
0.012882 0.0204598 0.0986015 
0.0147005 0.0242041 0.106436 
0.0118698 0.0152346 0.0665945 
0.0206673 0.0157598 0.0561376 
0.00332469 0.0120742 0.00337012 
-0.00476325 0.013791 -0.00440981 
0.055261 0.0151641 0.0712943 
-1.86988e-05 0.000668634 0.0511567 
-0.00549413 -0.00375913 0.0367514 
-0.000975436 -0.000784844 0.0233346 
-0.00289774 -0.00241545 0.0399206 
-0.000559062 -0.0168491 0.0490492 
0.000329069 -0.00208138 0.0303826 
-0.00748447 -0.005315 0.056327 
0.00175236 -0.0157802 0.0656797 
5.63609e-05 -0.000130746 0.000500013 
-0.00019731 0.000460552 -0.0018601 
2.38804e-05 -4.19874e-05 -0.000307484 
0.00204196 0.00356549 0.0355311 
0.00354195 -0.00436083 0.162492 
0.0223319 0.00894177 0.0965555 
0.0218109 -0.0119164 0.0874085 
0.0610438 -0.0214787 0.0169114 
-0.0112444 -0.00575728 0.0790889 
-0.00709188 -0.00247362 0.0355231 
-0.00458207 -0.00581625 0.0594617 
-0.0121746 -0.00949336 0.0625628 
0.00279369 -0.00949317 0 
-0.00959704 0.00351593 0 
-0.0138092 0.0392195 0 
0.0685445 -0.118121 0.05823 
-0.000121939 -0.000140758 -0.000459473 
0.000112865 0.00010541 0.00095901 
-0.000415388 -0.000562744 0.000221095 
0.000292939 0.00233231 0.00299238 
0.0212354 -0.00427548 0.0403121 
0.0244223 0.010371 0.0732317 
0.013898 -0.0336365 0.0802614 
0.0235163 0.0172482 0.113817 
-0.0148615 -0.00414358 0.113656 
-0.0346127 0.00187466 0.189865 
-0.0137154 0.00974376 0.211597 
-0.0147719 0.0407128 0.106886 
-0.00138538 -0.00218255 -0.00243899 
0.00357761 0.00567899 0.00658631 
0.00416385 0.00340695 0.0189023 
0.00254708 0.00422843 0.0117438 
-0.000338962 -0.000330089 0.00077385 
0.00240813 0.00290662 0.0360083 
-0.00047228 8.51325e-05 -0.000836867 
0.00085937 0.00133493 0.0269149 
0.0220375 0.0300261 0.255377 
0.0737608 -0.0875269 0.136257 
0.00574292 0.0139057 0.414021 
0.00211092 -0.033161 0.192073 
0.00388814 0.00336939 0.0957456 
-0.00257024 0.00526154 0.0832377 
0.00627998 0.00723589 0.0789059 
0.0057324 0.0030812 0.0800203 
0.00436526 -0.00520565 0.0416073 
0.000689032 -0.0012271 0.026022 
0.00212869 -0.00721951 0.0602398 
0.00338325 -0.00269455 0.0488612 
-0.00781504 -0.000879366 -0.0160828 
0.0103777 0.00638769 0.0162316 
0.0105403 -0.00383543 -0.00869127 
0.0491066 0.0289165 0.0571698 
0.000135712 -0.000288149 0.047387 
-0.000393281 3.41844e-05 0.0640902 
-0.000107407 0.000468528 0.0499879 
-0.00277831 -0.001925 0.0412185 
0.000152135 -0.00099461 0.0718064 
-0.0045579 0.00513307 0.0592227 
-0.00425121 0.0089435 0.0676851 
-0.00211943 0.00432275 0.0486411 
-0.00799981 -0.00426094 -0.00473818 
0.0254465 0.00584084 0.0245494 
0.00857601 0.000982327 0.00156961 
0.0145393 0.00969458 0.00833317 
0.0134238 -0.0138994 0.054611 
0.0230908 -0.0209211 0.0762104 
0.0125758 -0.004171 0.0587642 
0.0113102 -0.00242571 0.0711377 
-0.00867666 -0.000795643 0.04732 
-0.0156078 -0.0199858 0.0854272 
-0.0345177 0.0139836 0.112375 
-0.0252305 -0.00836992 0.093165 
-0.020992 -0.0283031 0.122083 
-0.00615011 -0.0240518 0.0899678 
-0.0119601 -0.0136006 0.0792528 
-0.00127853 -0.00315867 0.115737 
0.00339138 0.00207176 0 
-0.00441218 -0.00136467 0 
0.0010628 -0.00100057 0 
0.00705029 0.00459571 0.00942473 
0.00506646 -0.0180413 0.0548013 
0.00590378 -0.0157003 0.0667992 
0.00674719 -0.00526237 0.0181385 
0.00141634 0.000208099 0.015455 
0.000277487 0.00378883 0.00192298 
0.00323492 -0.00093252 -0.00218841 
-0.00394472 0.0166496 0.0116574 
-0.00114935 -0.000125954 -0.00151527 
0.00535969 -0.00831448 -0.00877685 
-0.00602027 0.0120495 0.0190752 
-0.012525 0.0189347 0.0190664 
-0.00856679 0.00651578 0.0115138 
0.000127189 0.00025126 0.0590933 
0.00545715 -0.00107318 0.0379996 
-0.00110004 -4.66651e-05 0.0381108 
0.00496896 3.01697e-05 0.054062 
-5.82508e-05 3.15979e-05 0.0208401 
0.000187007 0.000359191 0.000349292 
-0.000426639 -0.00174535 0.0279213 
0.000138175 -0.00104441 0.0256324 
-0.0127325 0.0125325 0.0402768 
-0.00416806 0.00434262 0.0328011 
-0.00528293 0.00457098 0.0607427 
-0.00483345 0.00413719 0.0207796 
-0.0117348 -0.00430554 0.0802666 
-0.0116827 -0.00162477 0.0672309 
-0.00629681 -0.00394488 0.0342068 
-0.013781 -0.00833117 0.0640054 
0.00425602 -0.0133015 0.083139 
-0.00434171 -0.0235045 0.0947699 
0.00875826 -0.0171878 0.14054 
-0.00458126 -0.00470894 0.10951 
-0.00183007 -0.000957087 0.000164229 
0.00627259 0.00571393 0.026443 
0.00102151 0.000242643 0.027808 
0.00400038 0.00213111 0.0222127 
0.000372716 0.00310328 0.00115098 
0.00917491 0.0217965 0.0192067 
-0.00469185 -0.00271402 -0.00412605 
-0.00050263 0.00548192 0.0033048 
0.0279432 0.0165712 -0.0258554 
0.0161469 -0.0554062 0.0627161 
0.0199534 -0.00948432 0.0358906 
0.0178061 -0.0541474 0.169373 
0.0013693 1.61016e-05 -0.000105379 
-0.00125888 -0.00175455 0.0247591 
-0.00309164 -0.000408399 0.0309829 
-0.00208463 -0.000623332 0.0193121 
0.00343315 0.00317584 0.0365058 
0.0148449 0.0147771 0.048476 
0.00423621 0.0045812 0.0220731 
0.0102035 0.00833301 0.0582059 
0.00248455 -0.0263379 0.0640674 
0.00115245 -0.0479628 0.148791 
-0.0381064 -0.0069966 0.0523948 
-0.0341838 -0.00813399 0.0265012 
-0.0142837 -0.0106935 0.0398451 
-0.0118016 -0.0156584 0.0794253 
-0.00350908 -0.00899125 0.0556263 
-0.0123998 -0.00966926 0.0618599 
0.0106486 -0.00372414 0.0664521 
0.00381687 -0.0133124 0.0871463 
-3.64373e-06 -0.00658261 0.0610287 
0.00293375 -0.0141046 0.0662924 
-0.00166833 0.00281375 0.0305537 
-0.00618958 0.00400039 0.0579347 
-0.00692127 0.00449458 0.043673 
-0.000925752 0.00174091 0.0254703 
-0.002196 0.0225913 0.0517065 
-0.010504 0.0119851 0.0077544 
0.00166488 0.0104074 0.0584931 
-0.0252518 0.0271945 0.0483711 
0.00417692 -0.00215334 0.0761717 
0.00529332 0.0018357 0.0533281 
0.0111477 0.00249962 0.0739207 
0.0110431 -0.00227556 0.0699491 
-0.00497879 -0.0194075 0.0587268 
-0.00981154 -0.0124672 0.0493128 
-0.012488 -0.00408987 0.014359 
-0.0247487 -0.0144855 0.0307546 
-3.50299e-05 -0.000459162 0.0398744 
0.00126889 -0.00536406 0.0599822 
0.000470851 -0.00337098 0.033448 
0.00151709 -0.00194711 0.025965 
-0.000392727 -1.85006e-06 -1.33628e-05 
0.00432791 -0.00146584 0.0374688 
-0.000633599 -0.00034884 -0.00219052 
0.00324328 -0.00109384 0.0226192 
-0.0210808 -0.00335768 0.0508876 
-0.0237355 -0.00533376 0.130215 
-0.0174849 -0.00157855 0.0362018 
-0.0228833 0.0309171 0.0405724 
0.00945203 0.0012701 -0.0225165 
-0.00696509 -0.0125653 0.00607768 
-0.0399635 -0.0124706 0.0510914 
-0.0346377 0.000665615 0.0323123 
0.0136625 -0.0133598 0.051893 
0.00332203 -0.00375595 0.0157184 
0.00400859 -0.00399259 0.0256685 
0.0139779 -0.0148871 0.0334021 
-0.0141241 0.0167454 0.0318794 
-0.023838 0.0182002 0.0966997 
-0.013633 0.00891111 0.0821226 
-0.0222438 0.0212605 0.106663 
-0.000761827 -0.00246471 -0.00207861 
0.00752601 0.00253437 -0.00908435 
0.039415 0.0157451 0.0753735 
0.0269816 0.0305013 0.0533592 
0.0166586 0.00765192 0.239494 
-0.0438204 0.0355847 0.201005 
0.0177673 0.0311583 0.0991302 
0.0723263 0.0239156 0.162557 
0.0165701 0.013555 0.0454357 
0.0255743 0.0264231 0.112269 
0.0298233 0.0141251 0.0402571 
0.00897152 0.0181345 0.0694881 
-0.000591687 0.000329025 0 
0.000564542 0.00149483 0 
-6.81441e-05 0.000531365 0 
-0.00214689 -0.0021471 0.00264745 
0.00500111 -0.00525254 0.0424984 
0.00557155 -0.00698027 0.0646551 
0.00434923 -0.00300429 0.0321388 
0.00270813 -0.00334548 0.047635 
-0.015163 0.000339458 0.0622877 
-0.00627894 0.0104438 0.0159496 
-0.0183674 0.0257509 0.0294864 
-0.00976992 0.0123466 0.0495937 
-0.00597293 -0.0103975 0 
-0.00419094 -0.0135617 0 
0.00338192 0.00700824 0 
0.00419573 0.0434319 0.00668464 
-1.70027e-05 -0.0102181 0.0952978 
0.0142769 -0.0121984 0.0969646 
0.0244253 -0.0250869 0.0896888 
0.0141986 -0.0127025 0.0555515 
-0.00223524 -0.00116323 -0.00011448 
0.00590866 0.00580522 0.0253504 
0.00430483 0.00419084 0.0362707 
0.00136131 9.95278e-05 0.0290044 
-0.00425008 -0.00741826 -0.0025293 
0.00849231 0.0253347 0.0261491 
0.00289118 0.00107592 -0.00355499 
0.00235631 0.0137232 0.00807026 
-0.0106699 -0.00683383 0.020727 
-0.00452351 -0.00501348 0.026645 
-0.00726614 -0.0173958 0.0504614 
-0.0012478 -0.00813209 0.0194912 
-0.000267373 -3.20399e-06 0.0336651 
0.00218616 0.000924044 0.0275062 
0.000167789 0.000400387 0.0449656 
0.00343741 0.00149686 0.0514739 
-0.000531689 0.00026684 0.000428299 
-0.000169313 -8.12886e-05 0.0216172 
0.00179642 -0.000775633 0.0266683 
0.000590067 -0.00131885 0.0239265 
-0.000348482 0.00029849 0.0449733 
0.00217363 0.000733263 0.0272307 
0.00425525 0.00320893 0.0379969 
0.0044185 0.0019906 0.0518988 
-0.000443346 0.000396527 0 
-0.001301 -0.00139801 0 
0.00306074 0.00171863 0 
0.00725884 -0.001979 0.00701451 
-0.000164936 -0.00147809 0 
0.00137949 0.000365368 0 
-0.000615668 -0.00150083 0 
0.000441021 0.00117161 0.00217551 
0.0048687 0.00337726 0.126146 
0.0125293 -0.00532191 0.0982078 
0.00405062 -0.00149711 0.0900384 
0.0155517 0.0116992 0.103344 
0.00550368 0.00959295 0.416252 
-0.061021 -0.00323326 0.203733 
0.0220893 0.042722 0.243554 
-0.00358053 -0.0795903 0.190998 
-0.00183696 -0.00101097 0.0279179 
-0.00490427 0.00537902 0.0237869 
-0.0143112 0.000370545 0.0481627 
-0.0133706 0.00176218 0.063328 
0.0346838 -0.00257181 0.12432 
0.0190029 0.00777323 0.196941 
0.0222084 0.0259527 0.0869817 
0.0112926 -0.0224452 0.151489 
-0.000777367 -0.000792871 0.0394323 
0.00462002 0.000815289 0.0527316 
0.00516825 -0.000530555 0.0373837 
0.000904306 -0.000157802 0.0245235 
0.000188587 0.000109239 0.000626589 
-0.00216672 -0.000830478 0.0313514 
6.85633e-05 -0.000153015 -0.000405148 
-0.000712681 -0.000793076 0.02463 
0.0014144 0.00531136 0.240467 
-0.0645766 -0.00686666 0.202397 
-0.0195906 -0.00877522 0.125952 
-0.00242296 0.112781 0.0817479 
0.000146905 0.000838415 1.85044e-05 
0.000247576 -0.00354122 0.0315568 
-0.00087043 0.000700736 -0.000509509 
-0.000182749 -0.0040546 0.019725 
0.00959816 -0.0013174 0.000782003 
0.0403861 -0.0161607 0.0278629 
-0.0139703 0.00612152 -0.00791415 
0.00083546 -0.0128989 0.0180947 
-0.099278 -0.0500518 0.204909 
0.0373373 0.0265128 0.144976 
-0.055815 -0.0564837 0.0375711 
0.00243362 -0.00967153 0.180658 
0.0176826 -0.000184669 0.0436136 
0.0236561 -0.023232 0.0869841 
0.016139 0.00836515 0.072506 
0.0136828 -0.00241533 0.0497247 
0.00122496 0.00438056 0.0577678 
0.00125465 0.00161148 0.0229343 
0.000180017 0.000323861 0.0464647 
0.000384526 0.00102659 0.0239437 
0.00608913 0.0126692 0.3042 
0.0219168 -0.0776646 0.0885419 
-0.054029 0.0140648 0.305804 
-0.00361573 -0.0122874 0.168765 
-0.0100352 -0.00488218 0.447481 
-0.0613046 -0.0747036 0.335859 
-0.0443976 0.00201125 0.17849 
0.00940616 -0.0454548 0.147324 
0.00259154 -0.00252607 -0.0034908 
-0.00722564 0.0116509 0.0179313 
0.00144663 -0.000686194 -0.00648463 
-0.00818137 0.0131737 0.0146928 
-0.00219597 0.00912929 0.121009 
-0.0220528 -0.0055361 0.120736 
0.00425304 0.0146928 0.1938 
-0.0183552 0.0273595 0.111326 
-0.00584885 0.00779766 0.0143709 
-0.00368691 0.00384478 0.0170501 
0.00243118 -0.00132522 -0.00103239 
-0.000120327 0.00297627 0.00271924 
0.00858581 -0.00113816 0 
0.0077234 0.00849262 0 
-0.0102285 -0.00410967 0 
0.00917597 -0.00770103 -0.000364771 
-0.0111732 0.0107211 0.214978 
-0.0113132 -0.00267969 0.103144 
0.0261282 -0.0200356 0.143993 
-0.0491647 -0.00395526 0.206473 
0.00059525 0.00130278 -0.00174695 
-0.00475548 -0.00324498 0.0179717 
-0.00327478 -0.00314745 0.0279699 
-0.000863453 -0.00163522 0.020589 
-0.000638408 0.000105172 0.0409537 
0.00142044 -0.00176051 0.0263275 
-0.000380039 -3.21624e-05 0.03512 
0.00243255 -0.00320046 0.0489876 
0.000341522 0.000410178 -0.000944668 
0.000292559 0.000334425 -0.00117286 
-0.000194862 -0.000218181 0.000879193 
0.000507183 -0.00305475 0.0111383 
-0.000153817 0.000974547 -0.000652869 
-6.07433e-05 -1.53508e-05 0.000516453 
0.000139305 0.00044548 -0.000502266 
-0.00736973 -0.0013171 0.00470852 
-0.0108379 -0.0103032 0.0342477 
-0.00420094 -0.00587958 0.0188668 
-0.00283906 -0.00260013 0.0327132 
-0.0047061 -0.00311177 0.0161265 
-0.0115505 -0.00177196 0.0792873 
-0.0063529 0.000273593 0.0586513 
-0.00569556 -0.00668657 0.0353985 
-0.0125249 0.000383678 0.0662917 
0.0037945 0.00400387 0.024306 
0.00142503 0.00154652 0.0260097 
-0.000859914 -0.000945692 -0.000537114 
0.00123498 0.00122981 0.0267675 
0.000377267 -0.00314686 0.0337023 
-0.0049023 -0.00690999 0.0277626 
0.000642272 0.00277366 -0.000969919 
-0.0018694 -0.00643086 0.0195832 
0.0381214 -0.0319069 0.0558772 
-0.00265659 -0.00725479 0.00504633 
-0.00412369 -0.0230348 0.0157506 
-0.00519632 -0.0155942 0.00403573 
0.00692643 -0.000458319 -0.000926022 
0.00806461 0.00950236 0.0198228 
-0.00115813 -0.00342131 -0.00701057 
0.00893744 0.00604177 0.0146414 
-0.000461923 -0.000114185 0.0504611 
-0.00144747 -0.000997127 0.0230763 
0.000172938 -7.94761e-05 0.0331673 
-0.00254632 -0.00152976 0.040678 
-0.0162347 0.000638407 0.0482958 
-0.0281066 0.0112873 0.111915 
-0.0180039 -0.0138977 0.0843361 
-0.0133527 0.000534468 0.0592357 
-0.000541435 -0.000584518 -0.000595785 
0.00331329 0.00354529 0.0367736 
-0.000279573 -0.000276361 0.000548 
0.0010108 0.000991303 0.028375 
5.53108e-05 0.00010965 0.0204496 
-0.00247785 -0.000812986 0.0314655 
0.000559729 -1.82389e-05 0.000519069 
-0.000929017 -0.000485957 0.0246301 
0.00402988 0.056425 0.188461 
-0.00704889 -0.000448342 0.19247 
0.0283206 -0.00765426 0.261772 
-0.0611918 0.0688153 -0.0707063 
0.000205593 0.000317087 0.0189049 
0.000870365 0.000705678 0.00109097 
-0.0026421 -0.00233472 0.0301754 
-0.00154222 -0.00170412 0.0205212 
0.00203013 -0.0335557 0.204256 
-0.00451213 0.00491868 0.128979 
-0.0438318 -0.0645531 0.012292 
-0.0328876 0.0161246 0.107024 
-0.000608577 0.000393487 0.0811197 
-0.00257274 0.00139161 0.0910608 
0.00341692 0.000582051 0.0958639 
-0.000252674 0.00505774 0.0833841 
0.000483221 8.13986e-05 0.0710012 
-0.00567414 0.00282237 0.0872106 
0.00144393 0.00145156 0.0716397 
-0.004794 0.00245284 0.0722707 
-0.000182821 -0.000736451 -0.000539737 
0.00304394 0.00364972 0.0231622 
-0.000336373 -0.00102288 0.000533503 
0.00091203 0.00173601 0.0257212 
0.00554943 -0.00934608 0.0131518 
0.00619079 -0.00444182 0.0273735 
0.00385941 -0.00320957 0.0160449 
0.0102864 -0.0151337 0.0306609 
-0.000192903 0.000130875 0.01866 
7.13743e-05 0.000339407 0.000381109 
-3.26781e-05 -4.25847e-06 0.0213042 
-0.00198352 -0.00199242 0.0313683 
0.000329756 -0.000264166 0.0536353 
-0.00541459 0.00465576 0.05937 
-0.00698928 0.0037118 0.0438452 
-0.00570706 0.00306351 0.0716034 
-0.00509084 -0.00491584 0.0393525 
-0.00634056 0.000138783 0.0575324 
-0.00302889 -0.000568539 0.0298868 
-0.0120007 0.000865684 0.06233 
0.000934524 -0.000637652 -0.000248125 
-0.000273918 0.000181187 0.000544462 
0.000287192 -0.000178342 -0.0015306 
0.00286892 0.000515089 0.00797504 
0.00503627 0.00979108 0.00333889 
0.0357169 0.000325232 0.0473798 
0.0074971 0.011368 0.0195959 
0.010729 -0.0054573 0.0083791 
-0.000442235 0.000771365 -0.000389313 
0.00031148 0.000398024 -0.000709858 
-1.68371e-07 0.000765113 -0.000847974 
-0.00590322 -0.00151844 0.00690649 
-0.00392233 -0.00251662 0.0330756 
-0.0146949 -0.00043363 0.0683893 
-0.0120495 -0.00849237 0.0450587 
-0.0125894 -0.0107202 0.0637237 
-0.000162481 0.000238949 0.0335636 
0.00029036 -0.000151698 0.0408831 
-0.000245441 9.93568e-05 0.0478379 
0.000503071 -0.00488532 0.058691 
-0.000892046 0.000349253 0.00133738 
0.000760577 -0.00497552 0.020049 
0.000628976 0.00112317 -0.00104392 
0.00317836 -0.00224718 0.0219193 
0.00369596 0.00556112 0.038689 
0.0010954 0.00110116 0.0228685 
0.00187622 0.00522136 0.0578203 
-0.000678425 0.000418307 0.0239907 
-0.00215504 -0.00522702 -0.00162258 
-0.000239279 0.00725336 0.00420903 
-0.00147468 -0.00250917 -4.53528e-05 
0.000321683 0.00841634 0.00375979 
-0.0267088 -0.000674218 0 
0.0301257 -0.0118219 0 
-0.0425852 0.0256332 0 
-0.0696438 -0.0224167 0.108513 
-0.000385779 0.0090956 0.112347 
0.000152925 0.00429425 0.0781904 
-0.00549704 0.000449581 0.0909657 
0.000604392 0.0157351 0.094379 
1.65896e-05 0.000163821 0.0338635 
0.00122036 0.00175371 0.0290774 
2.8703e-05 -0.000233555 0.0233016 
0.0014743 0.000738064 0.0278767 
-0.00163697 -0.0153058 0.0485377 
-0.00488339 -0.00754694 0.0545181 
0.000354846 -0.00364859 0.0335157 
-0.00627737 -0.00558738 0.0274052 
5.36217e-05 1.59314e-05 0.0518455 
0.00200859 -0.0056007 0.0598135 
0.000160381 0.000438456 0.040439 
0.00167203 -0.00357116 0.0493646 
-0.000714545 -0.00115529 0.085114 
0.00170924 -9.84158e-06 0.0919062 
0.000332131 0.00109341 0.0845741 
-0.00128152 0.000640387 0.0899677 
0.0272769 -0.0379019 0.0898213 
0.0329529 0.00100868 0.0116452 
0.0283238 -0.00541585 0.0297435 
0.0128409 -0.0279178 0.0714534 
-0.000859962 0.000399898 -3.6575e-05 
0.00173986 0.000844713 0.0271456 
-0.000267285 -0.000109444 8.43822e-05 
0.00297793 0.00107153 0.0228971 
-0.00522842 -0.00408382 0.0349199 
-0.00420287 -0.00465645 0.0201298 
0.00187393 0.000435138 -0.00174586 
-0.00178829 -0.00187217 0.0203688 
0.00711162 0.00855257 0.0250305 
0.00984165 0.00272877 0.047559 
0.0173567 0.00934624 0.065997 
0.00953698 0.00821463 0.0601109 
0.00651109 -0.0116467 0.0917746 
0.00532383 -0.00534798 0.0610884 
0.0155232 -0.0110967 0.0964141 
0.0113325 -0.0135543 0.056967 
-5.05156e-05 -2.44575e-05 -0.000677725 
0.00206333 -0.00214486 0.032232 
-9.58304e-06 0.000238479 0.00104547 
0.00102429 -0.00110616 0.0261754 
0.000351324 0.00133709 0.0452771 
-0.005423 -0.00552357 0.0605442 
-0.00447658 -0.00772152 0.0542515 
-0.00244914 -0.00523722 0.0698254 
-0.00604712 -0.00857563 0.0526222 
-0.00379149 -0.0024679 0.0311554 
-0.00141184 -0.0013383 0.0255229 
-0.00457424 -0.00273961 0.0180084 
-0.000295954 3.18737e-06 0.071703 
0.000429404 -1.49223e-05 0.0827944 
-0.000104402 0.00107858 0.0728154 
-0.00397304 0.00247935 0.0851621 
-0.00436747 0.000698275 0.00609184 
0.00279845 -0.00114691 -0.00400686 
0.000590752 0.00378727 0.0025845 
-0.0049546 0.0044167 0.0103738 
0.00551095 -0.000695069 0.0771712 
0.00480719 0.00156661 0.0532966 
-0.000661 -0.000155686 0.0611245 
0.00579522 0.00260262 0.0809621 
0.0147878 -0.00999893 0.0547716 
0.0153796 -0.0115565 0.0955478 
0.00569029 -0.00562476 0.0624219 
0.0113928 -0.0138802 0.057017 
-0.000121825 4.44723e-05 0.018482 
0.000294587 0.000226003 0.000346345 
3.69799e-06 0.000181071 0.000402837 
-0.00181414 -0.00163358 0.0312909 
0.000580249 0.000251382 0 
-0.001466 -0.000515483 0 
-0.00143986 -0.000176132 0 
0.010824 0.0010219 0.00362885 
-0.00594513 -0.00839295 0.0524898 
-0.00126227 -0.00114402 0.0254434 
-0.00470499 -0.00527177 0.027973 
-0.00490959 -0.00274252 0.0175127 
4.18922e-05 -3.2674e-05 0.0236777 
0.00120933 0.00172341 0.0289914 
-0.000448814 -3.39486e-05 0.000157632 
0.00131127 0.000714842 0.0273101 
-0.00368737 -0.00231081 0.0295216 
-0.00389185 -0.00378593 0.0177141 
-0.00455188 -0.00508434 0.0200612 
-0.0015863 -0.00152992 0.019946 
-0.0815201 -0.0416377 0.0377048 
0.0025753 -0.0624914 0.226906 
-0.0537411 -0.0901809 0.189589 
-0.0375221 0.0217842 0.183612 
0.00114766 0.000519826 -0.000416531 
-0.00446405 -0.00346562 0.0359744 
-0.000949154 -0.000787372 0.0232839 
-0.0026644 -0.00202543 0.0205151 
0.000663662 -0.000329226 -8.15287e-05 
-0.000789746 -0.000733276 0.0233732 
0.000321977 -0.000140627 0.000370445 
-0.00232591 -0.00116399 0.0200439 
-0.0011723 -0.000409738 -0.00619353 
0.00011687 0.000176953 -0.00128297 
0.00344677 0.00349707 0.022006 
0.00392671 0.00127829 0.0178582 
0.0050384 -0.00372618 -0.00833413 
-0.0149986 0.0169572 0.0190658 
0.00720941 -0.00401928 -0.0073859 
-0.00983896 0.00741641 0.0116888 
5.25455e-05 -6.64205e-05 0.000798404 
-9.18536e-05 0.000218786 0.000558119 
-5.61427e-05 0.000101002 -0.000281554 
0.00133323 0.00241632 0.0354733 
0.00376576 -0.00123537 0.0955049 
-0.00480799 0.00131884 0.091075 
-0.000155776 0.00729105 0.108126 
-0.00017229 0.00661358 0.0836867 
0.000525425 4.81781e-05 0.0193957 
-0.00321695 -0.00226419 0.0307721 
-0.0027369 -0.00248261 0.0396274 
-0.00170374 -0.00134044 0.0194569 
-0.00423118 0.00924195 0.126089 
0.0255395 0.0128255 0.100399 
0.0119088 0.0127689 0.182382 
0.0112527 -0.010333 0.144031 
0.00151816 -0.0214518 0.0442679 
-0.00882518 -0.00747183 0.0114599 
-0.00202963 -0.0187215 0.052531 
-0.000528686 -0.00835811 0.0167169 
-0.000198528 -0.000370425 0.0467799 
-0.000104097 0.000175979 0.0380684 
-4.36304e-06 6.28393e-05 0.0313477 
-0.00249821 -0.00294692 0.0325815 
-0.0393538 0.104212 0.165991 
0.068654 -0.0438696 0.24433 
0.0674641 -0.0411553 0.326608 
-0.0121252 0.111515 0.0414968 
-0.0230419 0.10847 0.123004 
0.0524148 0.0163879 0.0541903 
0.0155762 0.0302902 0.223253 
0.0393664 0.02616 0.086471 
0.000168256 -0.00354353 0.0324071 
0.00203381 -0.00149173 0.0277217 
-0.000343624 0.0013431 0.000375427 
-0.00152691 -0.00147885 0.0257717 
0.00872333 -0.00185329 0.177953 
0.0134399 0.0258007 0.0794342 
0.0267485 -0.000314696 0.0981225 
0.0391187 0.0434154 0.00112633 
-0.00386582 0.0133497 0.226297 
-0.0565223 0.0700946 0.0069081 
0.000931334 -0.00874559 0.149516 
-0.0218343 0.0110785 0.0913783 
0.00855668 0.014912 0.0248072 
0.017457 0.0149413 0.0441625 
0.000441005 0.00507677 0.000722325 
0.00186442 0.00466904 0.0108234 
0.0112159 -0.0165538 0.15606 
-0.0152633 -0.00192777 0.10831 
-0.0231241 -0.0301207 0.133237 
-0.0369076 -0.00629273 0.190491 
0.000110334 -0.000564794 0.0431871 
-0.00284135 0.000245177 0.0314918 
-0.00617221 0.00276309 0.0428968 
-0.00224322 0.00123186 0.021872 
-1.52101e-05 -0.00432547 0.0328003 
0.00199492 -0.0137993 0.0631992 
-2.22171e-05 -0.0157831 0.0500095 
0.00674538 -0.00221003 0.0204472 
0.0318616 0.00244392 0.117542 
0.019989 0.0150396 0.0716454 
0.0152051 -0.0134316 0.102225 
0.0124673 0.0164955 0.0994078 
0.000261829 -0.00106052 -0.000523423 
0.000570351 -0.00143685 -0.000932102 
3.25157e-05 3.76617e-05 0.000489187 
0.00727292 0.00255738 0.00541334 
-0.0228493 0.0154578 0.1026 
-0.0193328 -0.00335303 0.0532194 
-0.0229655 -0.00519982 0.0984778 
-0.0127787 0.0275807 0.0537284 
0.000425488 -0.00425451 0.032313 
-0.00112532 -0.013688 0.0466387 
-0.00118678 -0.0059445 0.0201845 
0.00712302 -0.0039822 0.0237319 
0.00119734 4.51398e-05 -0.011982 
-0.013788 -0.00600246 0.0165725 
-0.0126751 -0.00623539 0.0168745 
-0.0213972 -0.00951753 0.024388 
-0.00243771 -2.33439e-05 -0.00087791 
0.00454923 -0.00711953 0.00555743 
0.00428876 -0.00618815 0.00983895 
-0.00222648 -0.000843647 -0.000342817 
0.000559313 0.00164914 -0.000628588 
-0.000428328 0.00134493 0.000487662 
-0.00591649 -0.00572948 0.00974515 
-0.00217178 -0.00476854 0.0160095 
0.00121765 -0.000710374 -0.000589803 
0.000418542 -0.000880448 0.000244223 
-0.00484608 0.00312861 0.00714837 
-0.00346245 0.00266827 0.0156163 
-0.00500797 -0.00653064 0.0600457 
-0.00660397 0.000533158 0.0597319 
-0.00971189 -0.00277869 0.0772304 
-0.0045068 -0.00201068 0.0751768 
0.000140292 -0.000602201 0.0455298 
0.00454239 0.00424662 0.0512671 
0.00398186 0.0041891 0.0365726 
0.00102392 0.00141404 0.0263857 
-0.0138797 0.0177701 0.0374328 
-0.01389 0.00936724 0.0815106 
-0.0232466 0.015395 0.0921252 
-0.0127492 0.0122402 0.047299 
-0.0088746 0.00475304 0.245538 
0.012064 -0.120554 0.071972 
-0.0146734 -0.00775902 0.115462 
-0.0689829 -0.00438624 0.175292 
-0.000234001 0.000414247 0.000917366 
0.00223219 -0.00227266 0.0323643 
2.12693e-05 -0.000114341 -0.000908183 
0.000684293 -0.000681905 0.0235904 
-0.0104636 -0.0124716 0.038823 
-0.00607913 -0.00224268 0.039277 
-0.00455328 -0.00649879 0.015063 
-0.0137065 -0.0111632 0.0605116 
0.000162712 -2.69383e-05 0.0329739 
-0.000180692 0.000162319 0.0204257 
-0.000372967 -0.0018686 0.0283001 
0.000110948 -0.00113151 0.0258876 
0.00806587 -0.0113046 0.0899521 
-0.0170221 -0.0127318 0.0829347 
-0.00701774 -0.0202987 0.0930137 
-0.00111816 -0.0118552 0.109812 
-0.015953 -0.0103435 0.0382323 
-0.00311527 -0.00821705 0.0555479 
-0.0106596 -0.0164824 0.0808417 
-0.0120401 -0.012826 0.0495395 
-0.00264425 0.00621605 0.0251582 
0.00273109 0.00194754 0.0237687 
0.000598527 -0.00301042 -0.000480354 
-0.00120764 0.00664753 0.0179575 
0.000120148 -7.17347e-05 0.0347909 
-0.000390956 0.000263658 0.0547214 
0.000127492 1.45317e-05 0.0439539 
-0.0016826 0.00133108 0.0256961 
-0.00211465 0.00292502 0 
0.000432447 0.0016836 0 
-0.000438997 0.0019237 0 
0.0208356 -0.0128798 0.00600549 
-0.00126695 0.000405426 -0.000481986 
0.00360253 -0.00367652 0.0315167 
-0.0011421 0.000915961 -6.96367e-05 
0.00388524 -0.00400796 0.0191655 
0.000320122 -0.000436547 0.0684702 
0.0024845 -0.00451783 0.0801633 
0.00225453 -0.00522745 0.0621076 
0.00330687 -0.00399388 0.0482882 
0.012607 -0.0117698 0.0567362 
0.00644459 -0.0149112 0.0690909 
0.00329881 -0.00410568 0.0366176 
0.0152264 -0.0171456 0.0577869 
0.0249957 0.0213262 0.193149 
0.0427583 -0.0346909 0.0384754 
0.0286183 -0.00554929 0.243098 
0.0209927 0.0644905 0.0526892 
-0.00103326 0.012659 0.0456084 
0.000466037 0.00442616 0.0349423 
-0.00480009 0.00500635 0.0257315 
0.00362438 0.00338627 0.0229843 
0.00340308 -0.0030207 0.0330834 
0.00468324 -0.00401501 0.019735 
0.00554734 -0.00566716 0.0417941 
0.0013818 -0.000670863 0.0252035 
-0.000932241 -0.000967445 -0.00446065 
-0.000445785 -0.0127169 0.011586 
-0.00252806 0.00758726 -0.00148427 
0.00220667 -0.0139109 0.00616116 
-9.1143e-05 -0.000884 0.0441001 
-0.00547803 0.00330594 0.0413977 
-0.00156712 0.00159625 0.0258947 
-0.00195828 0.00115698 0.0221369 
0.00112992 0.0148981 0.0479368 
-0.00771368 0.00541887 0.0250061 
0.00684354 0.00753604 0.0229736 
0.00291468 0.00194005 0.02172 
-0.000354482 8.71317e-05 0.0409797 
-4.97473e-05 0.000292652 0.0347771 
0.000111608 -0.000117913 0.0514486 
0.00177563 -0.00348709 0.0492817 
-0.0248297 0.0285364 0.0961266 
-0.0123788 0.0274113 0.0380032 
-0.0142658 0.00861564 0.0351909 
-0.0151094 0.00455055 0.0461618 
-0.000738662 -0.00139884 0 
0.0157109 0.00348487 0 
0.0053817 -0.00013739 0 
-0.0518889 -0.016317 0.0240432 
-0.00292569 0.00827153 0.119244 
0.0122389 -0.0141249 0.145897 
0.00825102 0.0177682 0.196315 
-0.0278208 -0.00937505 0.119743 
4.88542e-05 -0.000103371 0.0633503 
-0.000846213 -0.00055472 0.0401051 
0.00319848 0.00492673 0.0597959 
0.00338485 0.00499238 0.0533285 
-0.000199521 -0.000144295 0.0492521 
0.00536967 -0.00322983 0.049054 
0.00583469 -0.00218533 0.0766966 
0.00270288 -0.00284995 0.0484059 
-0.0325475 0.00155314 0 
0.0289896 -0.0172182 0 
0.0298151 0.00200672 0 
0.0553467 -0.00971249 0.115471 
-0.00133796 0.00325143 0.0352544 
0.00290963 0.00152796 0.0199956 
0.000773413 0.0153977 0.0487865 
0.00397817 0.0111335 0.0515553 
-0.0257596 0.0107886 0.0346634 
0.0013664 0.0144917 0.0684237 
-0.00514236 0.00594321 0.0108542 
-0.027583 0.0256694 0.0358309 
-6.82788e-06 0.00308651 -0.0108189 
-0.00235629 -0.000422827 -0.00377524 
-0.0116866 -0.00537669 0.0180697 
-0.019186 -0.00931184 0.0188733 
-9.69679e-05 -0.000370255 0.0400828 
0.000783182 -0.00359806 0.0330943 
-0.000883297 -1.31065e-05 0.0340681 
0.00126597 -0.00161406 0.0267235 
0.000576011 0.000148353 0.0470417 
-0.00578236 -0.00407513 0.0590468 
-0.000265224 0.000273057 0.0653652 
-0.00322887 -0.00251743 0.0397805 
-0.0254547 0.0225149 0.109866 
-0.0219965 0.0222594 0.126465 
-0.00828697 0.0309376 0.0245925 
-0.0148344 0.00946075 0.0352963 
0.000381846 -0.000142114 0.0824095 
-0.000411527 0.000851415 0.0710766 
-0.00370058 0.0033313 0.0875225 
-0.00201594 0.00376361 0.0825073 
-0.00233072 -0.0045171 0.0299432 
-0.00637835 -0.00542616 0.0590729 
-0.0058261 -0.00338502 0.0377719 
-0.0115148 -0.00838977 0.058837 
0.0117924 -0.0112877 0.052349 
0.00543418 -0.0051043 0.0253798 
0.00270257 -0.00345364 0.0328491 
0.0058415 -0.00361974 0.0494069 
0.00198365 0.000131883 -0.000552034 
-0.00415014 -0.00357025 0.00753034 
0.000778262 0.00105112 0.000148393 
-0.00453215 -0.00108298 0.012524 
-0.00068413 -0.00022935 0.0416058 
0.00190616 0.00167255 0.0258882 
0.00459897 0.00498589 0.038207 
0.00388819 0.00445113 0.0510768 
2.20612e-05 -0.000143346 0.0310844 
-0.000144921 9.32863e-06 0.0447266 
-2.50641e-05 0.000105714 0.0464166 
0.000234103 0.00146169 0.0237751 
-0.0143523 0.0136264 0.0434972 
-0.0297159 0.0218652 0.0596304 
-0.0231818 0.00364816 0.0303682 
-0.0126859 0.00757038 0.00861042 
-0.000233076 -7.77515e-05 0.0358691 
-0.00266484 -0.000774139 0.0319399 
0.000211295 4.82274e-05 0.0200599 
-0.000958556 -0.000474857 0.024704 
0.0135006 -0.0146342 0.0559435 
0.00262531 -0.00149266 0.0145613 
0.0136329 -0.00913504 0.0226926 
0.0181419 -0.0168322 0.0547733 
-0.000505214 -0.000515987 0.000731707 
-0.000914083 6.87273e-05 -0.00035427 
0.00394675 -0.00103877 0.0370512 
0.00311101 -0.000249886 0.0215306 
0.0257378 -0.0290533 0.0944579 
0.0285142 -0.011842 0.0300639 
0.0264151 -0.0202346 0.118392 
0.0156973 -0.0253791 0.0596696 
-0.000102972 -4.97597e-05 0.053926 
-0.00649958 0.00348764 0.0436369 
-0.00555604 0.000586447 0.0581723 
-0.00587358 0.0031874 0.0719858 
0.000321543 0.00152411 1.39194e-05 
-0.00289158 -0.0053063 0.0294063 
-0.000887802 -0.00384895 0.0328239 
-0.000670257 -0.000816898 0.0245007 
-0.00963989 -0.00166518 0.0114517 
-0.0264178 -0.0156309 0.0497534 
-0.0125035 -0.0143953 0.0371041 
-0.0138635 -0.00972245 0.0146749 
-0.00355266 -0.00305369 0.0303352 
-0.00515828 -0.00472555 0.0579739 
0.000354606 6.01945e-05 0.0384828 
-0.00289395 -0.00215787 0.0397664 
0.000591996 -0.00135516 0.0960598 
0.0123752 -0.00283404 0.0977769 
0.0130347 0.00275628 0.0737322 
0.0176188 0.0091768 0.100432 
-0.00344311 -0.00137868 -0.00161603 
0.00720043 0.00799968 0.0226659 
0.00820676 0.00815101 0.0122346 
9.86764e-05 0.0069274 0.00482497 
-0.0121819 -0.0119623 0.041794 
-0.00579231 -0.00506528 0.0603433 
-0.00181842 -0.00174769 0.0268226 
-0.0121289 -0.0106597 0.0607677 
0.00166905 0.000890058 -0.00263749 
-0.00444155 0.00791997 0.00925448 
0.000304537 -0.000197512 -0.000643405 
-0.000741432 0.00329723 0.00356057 
-0.01077 -0.0133312 0.0780783 
-0.00567061 -0.00447178 0.0583162 
-0.00452664 -0.00795501 0.0551586 
-0.0121653 -0.0106186 0.0623508 
0.00153033 -0.0109982 0.0901288 
-0.00869064 -0.0167913 0.0845094 
-0.00653344 -0.0104502 0.0525847 
0.00339154 -0.0101039 0.0674359 
0.00220936 0.0047785 0 
-0.0103246 -0.00466196 0 
-0.00482395 0.000846696 0 
0.0105031 -0.00233765 0.00117054 
-0.00630904 0.00228197 0.0452836 
-0.00336852 -0.000296284 0.0301204 
0.000397093 1.25077e-05 0.0416558 
-0.00554626 0.000364651 0.0574287 
0.022756 -0.0220711 0.100675 
0.0182999 -0.00820378 0.0956987 
0.000374066 -0.0137817 0.0863291 
0.0108981 -0.0173691 0.140573 
-0.0201357 0.00591799 0.0816962 
-0.0161855 0.0211293 0.110837 
-0.000589322 0.0114749 0.117637 
0.00385556 0.0184897 0.0939006 
-0.00058361 -7.185e-05 0.0745878 
0.00464209 2.60511e-05 0.0765119 
0.000733396 0.000380705 0.0627415 
0.00493712 0.00123852 0.0796258 
2.46826e-05 -1.19559e-05 0.0396446 
-0.000228563 -0.000255699 0.0368474 
0.00324538 -0.00302765 0.0330381 
0.00269117 -0.00230058 0.0482747 
-0.0026933 3.64999e-05 0.0318624 
-0.00148458 -0.00101504 0.0239137 
-0.00535648 -0.00431276 0.0376494 
-0.0022905 -0.000992164 0.0189063 
0.00693101 0.012396 0.123292 
0.0178958 0.0148958 0.101826 
0.0027616 0.00931763 0.0700083 
0.000564093 0.0136153 0.0911258 
0.000183709 0.000466304 0.0551323 
-0.00611563 0.00263814 0.0441893 
0.000538506 -0.000251586 0.041673 
-0.00578625 0.00070333 0.0575703 
-0.000469963 -0.000520325 0.0466393 
-0.002379 -0.00293436 0.0327283 
-4.08474e-05 7.1664e-05 0.0312825 
-0.0014827 -0.00168076 0.0259162 
0.00160325 -0.000470751 -0.000834218 
-0.00433543 0.00637267 0.0141818 
0.00165991 0.000572989 0.000703581 
-0.00304276 0.00303909 0.0167177 
-0.0010119 -0.000149338 -0.000470924 
0.00326915 -0.00357423 0.0255676 
-0.000875714 0.000306226 0.000448129 
0.00171059 -0.00156746 0.0256724 
-0.00344555 -0.0070931 0.0542993 
-0.0072515 -0.0042301 0.015613 
-0.00482576 -0.0050366 0.0281112 
-0.0106301 -0.0126081 0.0461989 
-0.00878221 -0.0204492 0.0569302 
-0.00553081 -0.00459265 0.0247494 
-0.0106437 -0.00436557 0.0145079 
-0.0103148 -0.0120406 0.0495973 
-0.000912124 0.00017965 -0.000248475 
0.00349612 -0.00338531 0.0269891 
-0.000538365 0.000447691 0.00066748 
0.0016244 -0.00152575 0.0256847 
-0.0144792 0.00132029 0.0527358 
-0.0153718 0.0175145 0.0519297 
-0.0251517 0.012237 0.102556 
-0.0129379 0.000731256 0.0633168 
-0.000561752 -3.0702e-05 0.0332947 
0.00144466 -0.00170194 0.0281553 
0.000278751 -0.00348537 0.0322795 
-0.00102294 -0.00134556 0.0255156 
0.00268978 -0.0145092 0.0793262 
-0.00505814 -0.0228887 0.0913302 
0.0191137 -0.0213661 0.1122 
0.00982668 -0.0160033 0.142618 
0.0145511 -0.0056349 0.100631 
0.020262 0.00850947 0.073061 
0.00956201 0.0016544 0.0701772 
0.01687 0.0127881 0.0989747 
-0.000199821 0.000184548 -0.00169494 
-0.000548749 0.000527545 -0.000492866 
5.43832e-05 -4.87095e-05 0.000765745 
-0.0018519 -0.00139063 0.0139503 
-0.0140909 0.0125349 0.0476927 
-0.011646 0.0227988 0.0295982 
-0.0296534 0.022366 0.0571802 
-0.011731 0.00793297 0.0042136 
0.0107407 0.00249202 0.0733566 
0.00588289 0.00244731 0.0532465 
0.00416037 -0.00290538 0.0772734 
0.00481139 0.00304748 0.0809633 
0.000218834 0.00563969 -0.00503932 
0.0268752 -0.0224195 0.0268962 
-0.00102444 0.005898 -0.00676652 
0.00861641 -0.00265602 0.00802391 
0.00522803 -0.00177227 0.0366551 
0.0110909 0.0020431 0.0737479 
0.00471494 0.00268799 0.0531795 
0.0116363 -0.00201069 0.0704351 
-0.000121855 2.6937e-05 0.0320541 
4.10158e-05 -5.95613e-06 0.0183241 
4.92352e-05 2.22837e-05 0.018701 
-0.000796016 -0.00101215 0.0243207 
0.00015805 -0.0197415 0.0642151 
-0.0288458 -0.0190514 0.0586229 
-0.0111723 -0.0134017 0.0444414 
-0.0250868 -0.012761 0.0360818 
-0.000114819 -0.000212166 -0.00030466 
4.6986e-05 9.02494e-05 0.00023397 
6.37316e-05 0.000142624 0.000961789 
0.000101972 0.00256246 0.00280213 
0.0114424 0.00377505 0.0141206 
0.00716352 0.00499943 0.0196553 
0.0113846 0.023367 0.0459719 
0.0100782 0.0073505 0.00537777 
0.0135235 0.0143666 0.0479699 
0.0261814 0.0161368 0.0374704 
0.0100457 0.00525236 0.0134228 
0.0157895 0.0151576 0.0702975 
0.00186688 -0.00159117 0.0954699 
-0.00321247 0.000719171 0.0915617 
4.61977e-05 0.000563084 0.0803827 
-0.00226351 -0.00407271 0.0866809 
0.00420268 0.0152772 0.214423 
0.0297133 -0.0727316 -0.0336831 
-0.000240615 -0.0615769 0.164392 
0.013876 0.0243736 0.21062 
0.000117346 0.00122079 0.000317596 
-0.00327157 -0.00313205 0.0279997 
0.00105043 0.00157371 -0.00131403 
-0.00389638 -0.00332455 0.0176177 
0.0174099 -0.0293057 0.0563671 
0.0210586 -0.0246556 0.0727057 
0.0163244 0.000704562 0.067704 
0.0129 -0.0115462 0.0366971 
-0.000511973 -0.000689971 0.0611093 
0.00588016 0.00977516 0.0767653 
0.000588652 0.00479209 0.0826323 
0.00410545 0.00287549 0.0807322 
0.000903472 -0.0207472 0.101235 
0.00740982 -0.000424034 0.169788 
0.0133865 -0.0221186 0.158439 
-0.107083 0.00435092 0.10911 
-0.0250331 -0.0327164 0.149223 
-0.00982983 -0.0600798 0.143818 
0.00147549 0.0126556 0.218083 
0.0508677 -0.0454665 -0.0837035 
-0.00339231 0.00728331 0.123088 
-0.015403 0.011191 0.0761295 
-0.004037 0.00132503 0.0839863 
-0.0146481 0.00113456 0.117507 
0.0082547 0.0894416 0.085499 
-0.0182231 0.0386169 0.162361 
-0.0160981 0.00960481 0.00530903 
-0.00228029 0.0303446 0.0553529 
0.0152951 -0.00180129 0.0486782 
0.0226793 -0.025414 0.0704617 
0.0130105 -0.00233236 0.0577325 
0.0144928 -0.0139082 0.0343105 
0.000572613 0.000112441 0.0821026 
-0.00396946 0.00296222 0.0885472 
0.00273789 -0.000837107 0.0855159 
-0.00208015 0.00368337 0.0822975 
0.0118526 0.00580769 0.0164726 
0.0219771 0.0114289 0.0286885 
-0.000398882 -0.00440564 -0.0176384 
0.0131446 0.00454347 0.0123404 
-0.00319207 -0.000725614 0.0305569 
-0.0120596 0.000118041 0.0434505 
-0.00451615 0.00394056 0.0250352 
-0.00292764 -0.0011635 0.0192189 
0.00056233 0.000303276 -0.000809784 
-0.00228146 0.00661299 0.0104207 
0.000680465 -0.000894332 -0.00027244 
-0.000685246 0.00330669 0.00357069 
-0.00320844 0.00780913 0.125197 
0.0177275 -0.00794179 0.098768 
0.019359 0.014913 0.102632 
0.0165593 -0.0109775 0.142666 
0.00054331 0.00132499 0.000268293 
-0.00014568 0.000781603 -0.0018311 
-0.000598338 -0.00364502 0.0329135 
-0.0034279 -0.00535426 0.0290679 
0.00855915 -0.00766887 0.0180603 
0.0353292 -0.0268412 0.0794745 
0.0183836 -0.0217653 0.0272147 
0.011534 -0.0131761 0.028691 
-0.00338675 0.00248089 0.0332361 
-0.00374953 0.00416002 0.0191619 
-0.00991882 0.0101215 0.0370242 
-0.0044888 0.00321727 0.021366 
-0.00699269 0.00541067 0 
-0.00874237 0.00359263 0 
-0.00118674 8.80308e-05 0 
0.0136714 -0.00141985 -0.00681504 
0.0226009 -0.0286654 0.0849462 
0.0122804 -0.00880894 0.0533104 
0.0159198 -0.00854723 0.101389 
0.0239826 -0.024322 0.0740572 
-0.0232834 0.0170705 0.12484 
-0.0208651 -0.0183944 0.106242 
-0.0215436 -0.0126927 0.0722945 
-0.026438 -0.0473884 0.0993188 
-0.0113008 0.0105256 0.0409819 
-0.00640537 0.00607564 0.0596194 
-0.00216197 0.00173432 0.0303268 
-0.00486695 0.00422145 0.0210728 
0.00280697 -0.00126636 -0.00191409 
-0.00402705 0.00486122 0.0193168 
-0.00548537 0.00820111 0.0167835 
-0.0043994 0.0040758 0.0231486 
0.00456142 0.00398259 0.0363936 
0.00471599 0.0039447 0.0529908 
-0.00041797 -0.000186501 0.0440973 
0.00436261 0.00227564 0.0538996 
-0.0201011 0.0137159 0.0343017 
-0.00770177 0.00318811 0.0136375 
-0.00274385 0.00613768 0.0243353 
-0.00409856 0.0109659 0.0513638 
-0.000260978 0.000158531 5.46221e-05 
-6.54508e-05 -7.64382e-06 0.023845 
5.93093e-05 -7.10804e-06 0.0184027 
0.00127874 0.00124556 0.0285125 
0.00464755 -0.00134237 -0.00509952 
-0.00954391 0.0093699 0.0212821 
-0.00768936 0.00214092 0.00966311 
-0.00858824 0.00179481 0.0198635 
-0.00147605 0.0242987 -0.0241141 
0.0170685 -0.0913068 0.0810758 
0.000951561 0.00860178 0.0141468 
0.00689783 -0.00501096 -0.0165174 
-0.0290748 -0.0274358 0.128313 
-0.0484822 -0.0374869 0.0447847 
-0.0281492 -0.0210094 0.0518686 
-0.0357718 -0.0300262 0.178292 
-0.00631534 0.00365646 0.0462812 
-0.0116296 0.0121293 0.0395309 
-0.00368055 0.00425795 0.0175185 
-0.0123258 0.0117042 0.0453547 
3.00116e-05 -2.04967e-05 0.000184676 
8.66624e-05 -3.30286e-05 -0.000872949 
0.000122806 -6.88384e-05 -5.24703e-05 
0.000779451 0.000585245 0.0220883 
0.0135538 -0.00954119 0.0238248 
0.0143558 -0.0147812 0.052573 
0.00308504 -0.00341661 0.0158209 
0.00267315 -0.00342759 0.0181387 
0.0015037 0.000178168 0 
0.00129458 -8.83711e-05 0 
-0.00130052 -0.000239363 0 
-0.00951991 -0.00053939 0.00329336 
0.0145266 -0.0102547 0.0183968 
0.0125303 -0.0137232 0.0606858 
0.0263556 -0.0228801 0.0789794 
0.0142851 -0.0153726 0.0286948 
-0.00977468 -0.00200431 0.0139445 
-0.0129689 -0.0122169 0.034962 
-0.00241547 -0.00177041 0.00351754 
-0.0130612 -0.0124614 0.0151054 
0.000293588 -0.00172503 0.000241156 
-0.00104958 0.00326457 0.0344884 
-0.00258014 0.0051927 0.0242184 
-0.00124438 0.000656135 0.0251142 
0.00494838 -0.00121845 0.0367254 
0.00736057 0.00226243 0.0483229 
0.0119014 0.00198064 0.0738374 
0.013182 -0.00322487 0.0703975 
-0.000562557 7.80998e-05 0.0627081 
0.00529198 0.00432261 0.0525207 
0.00589494 0.00866494 0.0737317 
0.00392621 0.00384443 0.0813195 
-0.0109056 -0.00693443 0.115511 
-0.0228215 -0.10677 0.0734717 
-0.0266609 0.0633418 0.144756 
-0.0394776 -0.00199864 0.175303 
9.82932e-05 -0.00125748 0.0860947 
0.001268 -0.000118505 0.0868805 
8.70945e-05 0.000362834 0.0826086 
-0.00315559 0.00220718 0.0862744 
-0.0035772 0.000547975 -0.00141058 
0.00521178 -0.000166715 0.0222907 
0.00470148 -0.00508632 0.026695 
0.00525749 -0.00444543 0.0163939 
0.0149973 0.0141705 0.0440732 
0.00410278 0.00383999 0.0233787 
0.00335222 0.00541715 0.0023387 
0.00175295 0.00457696 0.0109703 
0.000573483 -0.000642333 0.000353032 
-0.00279167 0.00384505 0.0138775 
0.000447209 -0.000958217 -0.000727448 
-0.00121005 0.00322551 0.00468296 
7.47503e-06 9.69045e-05 0.0166025 
0.000100427 9.04067e-05 7.33586e-05 
0.000142983 0.000123586 0.0218082 
0.00124456 -0.000943756 0.02632 
0.00459638 -0.00179956 0.0380584 
0.00543478 -0.00300988 0.0489078 
-0.000197658 0.000707412 0.0389628 
0.00168051 -0.00135134 0.0259354 
0.00397609 -0.000630295 0.0957389 
0.015529 0.011186 0.0967418 
0.011307 0.00208634 0.0743706 
0.00376607 0.00271886 0.0795794 
0.015256 0.014575 -0.00661927 
0.0350354 -0.0776818 0.121382 
-0.00470707 0.00447777 -0.0386007 
0.0245714 -0.0929857 0.12316 
-0.00363347 -0.0151827 0.0537088 
-0.00450898 -0.00728015 0.0512911 
-0.009977 -0.0134421 0.0531343 
0.000830095 -0.0144 0.0683925 
1.66335e-05 -2.72658e-05 -0.000427939 
-0.000299794 -0.000332152 0.000583889 
0.00331051 -0.000922074 0.0370688 
0.000952349 -1.37989e-07 0.0239141 
0.013101 -0.013493 0.0545524 
0.0166501 -0.00642686 0.0944705 
0.0234574 -0.0207748 0.0771152 
0.0114846 -0.00252405 0.0713365 
0.00882166 0.00728696 0.0130286 
0.00681357 0.00731336 0.0252046 
-0.00240851 -0.00142966 -0.00357759 
0.00430641 0.000551052 0.0230351 
-0.00316394 -0.00341885 0.00569065 
-0.00383345 -0.00789741 0.0144836 
0.00167986 0.00435173 -0.000692018 
-0.00168602 -0.00270358 0.00403026 
-0.000873945 -0.000131414 0.000202592 
0.00318463 0.000531544 0.0218057 
0.0018734 0.00106403 0.0275313 
0.000821042 -0.000417007 0.0249769 
0.0114551 -0.00975895 0.0218015 
0.00111631 -0.00321342 0.0148165 
0.0174654 -0.0146752 0.0550957 
0.0132655 -0.013273 0.0313139 
-0.000303211 -0.00016674 0.0503758 
0.00570146 -0.00348908 0.0496616 
0.000201991 0.000835053 0.0604366 
0.00533263 -0.00170138 0.0746136 
0.0997353 -0.00520886 0 
-0.128414 -0.0157991 0 
-0.0833739 0.0179915 0 
-0.0391226 -0.034528 0.385819 
-0.0505072 -0.0157652 0.0495243 
-0.00647448 -0.00983098 0.00562791 
0.00691921 -0.000289931 -0.00967664 
-0.0156097 -0.0307209 0.0520985 
-0.000281311 2.21781e-05 0.000327625 
-0.00053876 4.68643e-05 -0.000446625 
8.86237e-05 -6.58173e-06 -0.000202375 
0.000312217 -0.00212746 0.0319059 
0.000433315 0.000849182 -0.000125359 
-0.000897867 -0.000744745 0.000996218 
0.00157835 0.000425827 -0.00138147 
-0.00421203 0.008712 0.00710073 
-0.00266794 0.000951817 -0.00250064 
0.00534083 0.00124437 0.0186557 
-0.00235485 0.00125219 -0.00104911 
0.00360537 0.00289479 0.0112626 
-0.00485757 -4.66653e-05 0.00588116 
-0.00692613 0.00815055 0.0114929 
-0.000107903 0.0021761 0.00212369 
-0.0040674 0.0103737 0.0167055 
-0.0042335 -0.00508282 0.0257942 
-0.00129434 -0.00123056 0.0261096 
-0.000285035 0.00264279 0.000967855 
-0.00392856 -0.00316508 0.0187142 
0.00229537 -0.0039091 0.0319177 
0.00609437 -0.00522827 0.0650545 
0.0125247 -0.0103833 0.0540322 
0.00597832 -0.0040791 0.0496609 
-0.00440079 0.00440191 0.0584498 
-0.0026489 0.00318285 0.0488323 
0.000302923 -0.000104648 0.0376328 
-0.00157658 0.00138438 0.0224485 
-0.0018045 -0.00472206 -0.0175393 
0.00530376 -0.0116405 0.012249 
0.0262805 -0.00424572 0.0393126 
0.0108968 -0.000808146 0.014359 
-7.03814e-05 6.79252e-05 0.0320926 
-0.00110598 -0.00124276 0.0240817 
0.000278993 0.000395925 0.0187952 
-0.0020164 -0.0020256 0.0392248 
9.96256e-05 0.000186735 -0.000348664 
-3.32243e-05 -6.83021e-05 0.000308479 
-0.000199334 -0.00037594 0.000771444 
-3.40269e-05 -0.00162934 0.00103118 
-0.000327088 -0.000459221 0.000880125 
2.85484e-05 2.68191e-05 0.0014287 
3.40914e-05 5.44157e-05 -0.000835564 
0.00110706 -0.00200623 0.0157241 
-0.000328397 0.000316675 -0.00239641 
7.56969e-05 -7.39636e-05 0.000435445 
-0.000450166 0.000455471 -0.000704914 
0.0023 0.00234983 0.0182606 
0.00268396 0.00707467 0.0212524 
0.00250616 0.00201921 0.0231989 
-0.00271865 0.00592888 0.0264902 
-0.000564121 0.00687263 0.0174838 
-0.00551509 0.00430101 0.0439671 
-0.00471775 0.0049772 0.0242755 
-0.004147 -0.0022545 0.0304541 
-0.0130277 0.00220881 0.0625897 
0.000132982 2.82741e-05 0.000356431 
-0.00410111 -0.00313914 0.0352655 
0.000277791 -0.000412477 -0.00235749 
-0.00111669 -0.00137156 0.0205902 
0.000294242 0.00195415 0.000891279 
-0.00385117 0.0129081 0.00829892 
0.0013066 -0.00335382 -0.0013598 
-0.0012087 0.00435017 0.00139202 
0.00467113 -0.010385 0.0104503 
0.00599452 -0.00449547 0.0273088 
0.0117555 -0.0146744 0.0313197 
0.0125066 -0.0125816 0.0359604 
0.000860044 -0.000427421 -0.00590673 
-0.00314054 0.00346621 0.0193644 
0.000489801 -0.000262685 -0.00133123 
-0.00383026 0.00248304 0.0208397 
0.0105699 0.0217121 0.0225283 
-0.00100838 -0.00185416 0.00248533 
0.0153917 0.0178093 0.0459085 
0.0100191 0.0162207 0.0129115 
0.00984206 0.00328471 0.0749678 
0.0171735 0.00565722 0.0752796 
0.016274 -0.005288 0.0948653 
0.0118329 -0.00684729 0.0692748 
0.000435181 -0.000102255 0.0481334 
-0.000210586 -1.77021e-05 0.0585738 
0.000508016 0.000301658 0.0377672 
-0.00511878 -0.00463438 0.0582374 
-0.0113982 -0.0148608 0.0845805 
-0.00754566 -0.0208877 0.0840994 
-0.00445941 -0.00780074 0.0502994 
0.00471804 -0.012857 0.0683777 
0.00258347 0.00626682 0.0397421 
0.00151063 0.00578425 0.0582517 
0.000401557 0.00313572 0.035216 
0.00025857 -0.000297481 0.0230724 
-0.00172033 0.0170074 0.0488677 
0.00993943 0.00623775 0.0220346 
-0.00890195 0.00682379 0.0254323 
-0.00127029 0.00695634 0.0174028 
0.00811172 0.0302189 0.0310161 
0.0229272 0.0385884 0.069629 
0.0158463 0.00941663 0.0456564 
0.0216821 0.00878212 0.0780761 
-0.00485827 -0.00482421 0.038109 
-0.00703523 -0.00467159 0.0588433 
-0.00288972 -0.00364852 0.0297486 
-0.00263668 -0.00217935 0.0396404 
0.00559477 -0.00483893 0.0420167 
0.00245472 -0.0124406 0.0625368 
-0.00115088 -0.00597849 0.0338821 
0.00524934 -0.0032743 0.0215101 
0.00272617 -0.00558642 0.0621489 
0.00249653 -0.00356194 0.0803556 
0.00555849 -0.00692581 0.0664468 
0.00326211 -0.00474229 0.0481292 
0.0101728 0.0130627 0 
-0.0311016 -0.0336106 0 
0.0106809 0.0120396 0 
0.00231606 0.0863367 0.0652105 
-0.000227619 5.78701e-05 0.000611271 
0.000110207 0.000215062 0.0180584 
-0.00012115 -5.29361e-05 7.58239e-05 
0.00101208 0.000746492 0.0282043 
0.00161104 -0.00165238 -0.00167702 
-0.0393561 -0.0144586 0.038301 
0.00816569 0.00324877 -0.0109966 
-0.0105314 -0.0108547 0.0116788 
-0.000151963 0.000158242 0.0625867 
0.00133502 0.00543729 0.0602075 
0.00541287 0.0082472 0.0725407 
0.00513131 0.00444629 0.053207 
-0.000810372 -0.000698154 -0.000806085 
0.00152855 -0.00135036 0.0258275 
-0.000229228 -0.000593161 -0.000170795 
0.000909092 -0.000587942 0.0236164 
0.000985699 -0.0412179 0.30291 
0.00720472 0.0314162 0.229286 
0.0168963 0.0426415 0.206889 
0.0228217 0.0874567 0.0714815 
-0.000916584 -0.000905029 -0.000953015 
0.00700395 0.0034207 0.0121068 
-0.000546486 -0.00109276 0.000455571 
0.00283589 0.00138526 0.0140793 
-0.00518113 0.00476194 0.0328723 
-0.00157942 0.00319165 0.0488507 
-0.00547959 0.00566571 0.0585736 
-0.00091423 0.000514273 0.022362 
0.00340775 -0.00348337 0.0332324 
0.00158081 -0.000748094 0.026978 
0.00388314 -0.00516118 0.026573 
0.000603278 -0.00038438 0.0229847 
0.0144777 -0.00464267 0.0610379 
0.0207794 -0.0228155 0.0750086 
0.0138297 -0.0121225 0.0539081 
0.0136202 -0.01139 0.0368854 
-0.0235671 -0.000923955 0.117605 
0.00718118 -0.00825289 0.156714 
0.0176263 -0.0121644 0.120794 
0.0425961 -0.0423423 0.134118 
-0.00332196 -0.00803151 0.0561818 
-8.08143e-05 -0.00630771 0.0610888 
0.000121341 0.000839456 0.0461661 
-0.00161862 -0.00485125 0.0687948 
-2.57005e-06 0.00304021 0.0348293 
0.00102566 0.00497123 0.0577671 
-0.00078806 0.000147126 0.0446358 
0.000633368 0.00100179 0.0234667 
-0.00592426 -0.014184 0.0538287 
-0.00358433 -0.00760506 0.0531681 
-0.00517183 -0.00666525 0.0253324 
-0.0101945 -0.0134733 0.0500437 
-0.000111272 -0.000178946 -0.0056213 
-0.00497746 0.00334159 0.0233588 
-0.00880155 0.00730906 0.0219636 
-0.0060776 0.00284198 0.0196084 
0.000351175 -1.34909e-05 0.0382123 
0.00117986 0.000445776 0.0182937 
-0.00360951 -0.00258497 0.0314282 
-0.00286563 -0.00219606 0.0398664 
0.0327677 -0.0324209 0.0536556 
0.024922 -0.00543398 0.0358913 
0.0115194 -0.00791512 0.00826613 
-0.0012826 0.00315878 -0.00830496 
-0.00437507 -0.00322629 0.00350581 
-0.00391767 -0.00614676 0.0189018 
-0.0115968 -0.0112845 0.0344903 
-0.0046671 -0.00340457 0.0161821 
-0.00345013 -0.000609537 -0.00211029 
0.00806398 -0.000972433 0.00507516 
-0.000882682 -0.00114933 0.000544232 
0.00706545 0.00138307 0.00114365 
0.00246019 -0.00446784 0.0330838 
0.00653939 -0.00428861 0.0486167 
0.00452947 -0.00445731 0.0263972 
0.00191055 -0.000406327 0.0270368 
0.0355186 -0.0015657 0.275331 
0.0044168 0.0846995 0.185088 
-0.0390569 -0.00737457 0.230916 
-0.0558365 0.0876931 0.00835338 
-0.028424 0.00927297 0.112047 
-0.0206727 -0.000646821 0.116108 
-0.0185292 -0.0146647 0.0849642 
-0.0123622 0.00157492 0.0579864 
-0.0189303 0.0176912 0.0354575 
-0.0140583 0.00980103 0.0814882 
-0.0123635 0.0148528 0.070981 
-0.0168101 0.0202546 0.102543 
-0.000780523 0.00419542 0.0346887 
0.000178415 -0.00225083 -0.000419285 
-0.000866188 0.00597792 0.0257875 
0.00102619 0.00262909 0.0233005 
0.00368122 -0.0131892 0.0882919 
-0.0075682 -0.00693025 0.0542404 
0.000100656 -0.0072766 0.0602906 
0.00281936 -0.0126648 0.0669402 
0.00433719 0.00391057 0.124107 
0.00274879 -0.000322261 0.0880819 
0.0134974 -0.00631283 0.102375 
-0.00255576 -0.0071969 0.106976 
-0.0215885 0.0142719 0.119431 
-0.0282441 -0.0384168 0.107942 
-0.0224909 -0.0164426 0.0727806 
-0.0369302 -0.0109887 0.169869 
-0.00295003 0.00267053 0.03034 
-0.00368326 0.00376 0.0210203 
0.00095329 -0.000458057 -0.00104497 
-0.0013078 0.00122295 0.0258892 
-0.0015001 -0.000689145 0.000413515 
-0.00114327 -0.000839837 -0.000845317 
0.00563173 0.00648528 0.0261076 
0.00370892 0.00167962 0.0219678 
-0.0328472 0.0371779 0.115638 
0.00726707 0.0500312 0.182179 
0.0142895 -0.0157853 0.264899 
-0.00630117 0.0480732 -0.118272 
0.00677121 0.00820476 0.0218061 
0.00103054 0.00677454 0.00597918 
-0.00150461 -0.000826728 -0.00133473 
0.00174434 0.00508397 0.0132716 
-0.0044873 0.00308781 0.0227456 
0.0018457 -8.20555e-07 -9.68791e-05 
-0.00131327 0.00140428 0.0255944 
-0.00168596 0.00148078 0.0221443 
0.0133254 -0.00576653 0.0881061 
0.00473465 -0.00162496 0.0762745 
0.0063022 -0.00685699 0.0657549 
0.00214294 -0.00473312 0.0818965 
0.00170408 0.00217814 -0.0020523 
-0.00871977 -0.00532063 0.0160625 
-0.00585852 -0.00473223 0.0251809 
-0.00555872 -0.00314116 0.0173279 
0.00104708 0.014402 0.124151 
0.00529328 0.0305334 0.115373 
0.0255816 0.00730035 0.100048 
-0.000115868 0.0161141 0.0915243 
-0.00525721 0.012768 0.0340203 
-0.0269417 0.0098388 0.0341611 
-0.0379176 0.0194233 0.0682452 
-0.00882037 0.0183189 0.0739208 
5.50932e-05 0.000107823 -1.90975e-05 
-0.000124812 -0.000168284 0.0205111 
9.68818e-05 0.000300093 0.000504073 
-2.02971e-05 -0.00133554 0.0276301 
-8.91139e-05 0.000432561 0.0498611 
0.00511689 -0.00266391 0.0752566 
0.000113754 -0.000366397 0.067677 
0.00304264 -0.00218831 0.0494225 
0.00164526 -0.00143477 -0.000649237 
-0.0078648 0.00931821 0.0170706 
0.000832052 -0.00161479 -0.000994282 
-0.00316039 0.00451552 0.0213898 
0.0080023 -0.00631978 0.0208506 
-0.00112137 -0.00811539 0.0201087 
0.00392473 -0.0169936 0.0506214 
0.00271296 -0.000984723 0.0202606 
-0.000326827 6.56955e-05 0.0512166 
7.27827e-05 2.05995e-05 0.0689943 
0.003075 -0.00574621 0.0616531 
0.00225555 -0.00351457 0.0486319 
0.00180047 -0.00274615 -0.00471694 
0.023332 0.0579706 0.133329 
0.00838397 0.0279904 0.00710967 
0.0193752 0.0353531 0.0618083 
7.02875e-05 2.85124e-05 0.0210721 
-0.000163916 -0.000234927 0.0376884 
6.62902e-05 0.000116136 0.0182836 
-0.00232298 -0.00210944 0.0321528 
-0.00792982 -0.00438431 -0.00585946 
-0.000764979 0.00606286 0.000248147 
0.0124924 0.0236389 0.0204493 
0.00471463 0.0112859 0.0130712 
-0.0115378 -0.0139802 0.0376244 
-0.00321122 -0.00634616 0.0152352 
-0.0111199 -0.0102783 0.0445806 
-0.0148648 -0.0101825 0.061214 
-0.00230714 -0.00420609 -0.00542731 
-0.00175415 -0.00425861 0.00385136 
0.00967334 0.00814257 0.00608638 
0.00835424 0.00780986 0.0141323 
-0.0838316 -0.0260754 0.177204 
-0.0860168 -0.0644138 -0.00823883 
0.039068 -0.00163322 0.158829 
0.024052 0.014972 0.147685 
-0.00450494 -0.00892502 0.0523133 
-0.00837526 -0.0140954 0.0831449 
3.40446e-05 -0.0122772 0.0904118 
-0.00176771 -0.00465763 0.0671713 
0.0034533 0.0188936 0.0366223 
-0.0163434 0.0248997 0.111083 
0.00405467 0.0239146 0.0542453 
-0.0290707 0.0204376 0.0633994 
0.035192 0.00281078 0.0476308 
0.0445248 -0.0076829 -0.00738003 
-0.0234056 0.00953943 -0.0610224 
0.0755842 -0.035484 0.225554 
-9.39141e-06 -0.000304071 0.0615994 
0.00533723 0.00926191 0.0758285 
0.000620157 0.00580579 0.0581546 
0.000934253 0.00496143 0.0825635 
0.00988951 -0.0191564 0.0233351 
-0.0108791 0.013719 -0.0188761 
0.00663533 -0.0535446 0.0697867 
0.00670692 -0.000560226 -0.0224793 
0.0152803 -0.0115778 0.0544857 
0.013439 -0.0149224 0.0332545 
0.00193386 -0.00519739 0.0237294 
0.0127456 -0.0116548 0.0354307 
0.000153079 0.00024531 0.045859 
0.00362125 0.00128541 0.052708 
5.30098e-05 -0.00103511 0.0392815 
0.00132092 -0.000409885 0.0245975 
4.50359e-06 -0.00045201 -0.00175418 
0.000278872 -0.00106941 0.00138897 
0.00152749 0.00243274 0.0223732 
-0.000394836 0.00471718 0.0169189 
-0.00106671 0.00201169 -0.00127468 
0.00241412 -0.00122035 0.00279214 
0.00376274 -0.00582648 0.013825 
0.0031551 -0.000944517 0.00470311 
-7.28996e-05 0.00139012 -0.00223876 
-0.00306357 -0.00446566 -0.0060608 
0.0159407 0.0288436 0.0228033 
-0.000375419 0.00393667 0.00349309 
0.104131 -0.00567837 0 
-0.0899163 0.00416434 0 
0.0743309 0.00202695 0 
0.0413927 -0.0234479 0.293193 
-0.0144643 0.0119892 0.0343965 
-0.012605 0.0166015 0.0712518 
-0.0290262 0.0247072 0.0770397 
-0.0170885 0.0220047 0.102816 
0.000758782 -0.00258674 -0.00104368 
0.00171454 0.00215833 0.0226036 
0.00240101 0.00701098 0.0196843 
-0.000585238 0.00684363 0.0170771 
-0.00561146 -0.00346523 0.0370224 
-0.010857 -0.00846538 0.0444198 
-0.0046304 -0.00677815 0.0146213 
-0.0131537 -0.0101353 0.0620293 
0.000357075 -4.62483e-05 0.0191624 
-0.00255481 -0.00227194 0.0395644 
-0.00121917 -0.000660434 0.0236005 
-0.00164228 -0.00156384 0.0202911 
0.0308757 -0.0045235 0.125412 
0.0126455 0.0269583 0.0942685 
0.0159073 -0.0111418 0.0976993 
0.022806 -0.0152753 0.149167 
-0.000240364 0.000270163 0.0590443 
-0.00479641 -0.00513492 0.0600597 
0.00020221 0.000192271 0.0466388 
-0.0032705 -0.0044679 0.0689459 
0.000103128 -0.000123785 0.0396065 
0.00316376 -0.00286702 0.0334885 
0.00132287 -0.000937516 0.0229496 
0.00268261 -0.0023183 0.0480012 
-0.00622765 -0.014414 -0.0106077 
0.0202143 0.0868884 0.10946 
0.0149332 0.0422474 0.0733141 
0.0063704 -0.00103446 -0.00719659 
0.00426221 -0.00573035 0.0407568 
0.00247538 -0.00599369 0.0622549 
0.00642787 -0.00734455 0.0668112 
0.00263506 -0.00345356 0.0474719 
0.00345587 0.00500718 0.0369877 
0.00178323 0.00158449 0.0264504 
0.000294368 -9.92679e-05 0.0415113 
0.000964363 0.000863917 0.0231095 
0.00560003 -0.00167465 0.0369031 
0.00480145 0.00175677 0.0523001 
0.0105496 0.00235303 0.073831 
0.00774077 0.00312586 0.0477138 
-0.0011727 0.000983893 0.000149918 
0.00372178 -0.00380113 0.0313972 
-0.000821443 0.00120242 -0.000972358 
0.00377207 -0.00398145 0.0187971 
4.27059e-06 -1.92326e-05 0.0184478 
7.6935e-05 -5.8292e-05 -5.76731e-05 
6.88767e-06 -5.72687e-05 0.0189563 
-0.000686541 -0.000915844 0.0238525 
-0.0222538 -0.00189476 0.0469493 
-0.0240992 0.0169532 0.0451448 
-0.0120295 7.63409e-05 0.049789 
-0.00462402 0.000364048 0.00928391 
0.006641 0.00910791 0.0734266 
-0.000341991 0.00600854 0.060267 
0.0049767 0.00597824 0.0377404 
0.00588414 0.00396195 0.0530147 
0.00523807 -0.0166686 0 
0.0103457 -0.00553336 0 
-0.00505969 0.0712837 0 
0.0136315 0.066978 0.134752 
0.00150422 -0.00212056 0.0943476 
-0.00132575 -0.0032959 0.0869378 
-0.000560799 0.000718686 0.0831578 
0.0030242 -0.00501424 0.0812126 
0.00028871 3.12713e-05 0.0712086 
-0.000149482 -0.000656731 0.0534391 
-0.00356684 0.00545367 0.0600904 
-0.00233652 0.00363103 0.0489052 
-0.00322969 0.00234761 0.0305966 
-0.00700453 0.00711572 0.0581894 
-0.00429132 0.0040748 0.0328622 
-0.00404482 0.00336629 0.0217353 
0.00522566 -0.0107255 0.0904048 
0.0128639 -0.00937766 0.0937497 
0.00815405 -0.00601175 0.0628655 
0.00160235 -0.00298999 0.0798588 
-0.00057827 0.000586079 -0.000155691 
-0.000866439 0.000779353 -0.00267828 
-0.00186656 -0.00244038 0.0289927 
-0.000765463 -0.00196468 0.0204256 
0.00736333 0.0146632 0.32584 
-0.102216 0.0285986 0.207425 
0.00388113 -0.00944464 0.255123 
0.141584 0.0465022 0.141876 
-0.00115677 9.00108e-05 -0.00435394 
0.0205378 0.0313135 0.032655 
0.0129234 0.0291478 0.0325813 
-0.00591378 -0.00263051 -0.00733709 
-0.0254998 0.0136669 0.102233 
-0.013147 0.0105885 0.0790244 
-0.017447 0.000548499 0.11152 
-0.0139128 -0.000366917 0.0625275 
0.00348537 0.005664 0.0526912 
0.00571065 0.00385729 0.081067 
0.00554951 -8.33181e-05 0.053923 
0.0097785 0.00803569 0.0600637 
-0.00018975 0.000699223 0.000646131 
-7.47362e-06 2.26881e-05 0.000348221 
-3.18144e-05 0.000130503 -0.000774344 
0.00193865 0.000145814 0.0218619 
0.000640613 0.000171661 -0.00175308 
0.000279134 -0.00028413 0.000815123 
-0.0025601 0.00332985 0.0216924 
-0.00182287 0.00159593 0.0221337 
0.00424492 0.0024056 -0.00548743 
0.000559268 0.0019728 -0.00103787 
-0.00586884 0.00547669 0.0168418 
-0.00882588 0.00191782 0.00980293 
-0.000903461 0.0134288 0.0548778 
-0.0135047 0.0108249 0.0136912 
0.00200083 0.0228067 0.0464519 
-0.0014957 0.00673012 0.0140812 
0.0256893 -0.0167321 0.0399575 
0.00573493 -0.00201519 0.0085419 
0.0142614 -0.0237339 0.0525593 
0.0151891 -0.0158192 0.0624924 
-2.18337e-06 0.000926347 0.00024615 
0.000839394 -0.00288199 -0.000542035 
-0.000652584 0.00137205 0.000208003 
0.000227892 -0.0023166 0.00294411 
-0.00100742 -9.2571e-05 -0.000474703 
0.00183113 -0.00619128 0.00900051 
0.000770666 -0.000462263 0.00178051 
-0.000413815 -0.00120992 -0.000164043 
-0.0115907 -0.0128575 0.0368172 
-0.0263218 -0.0166428 0.0493643 
-0.0105729 -0.00501605 0.011201 
-0.0131336 -0.0136611 0.0522123 
-0.0270678 0.0223068 0.104419 
-0.0348294 -0.0031063 0.183668 
-0.0160875 -0.00794802 0.118955 
-0.0155029 0.0399867 0.112598 
0.0249255 -0.0112213 0.0287595 
0.0189243 -0.0122373 0.0200935 
0.00715321 -0.00763174 0.0174731 
0.0250836 -0.0166735 0.0637126 
-0.000293357 -0.000728144 5.67781e-05 
-0.00102467 0.00339178 0.0346657 
0.000664882 -0.000941529 -0.00024273 
-0.00178242 0.00441779 0.025049 
0.000152184 4.58975e-06 0.046473 
-0.000840806 0.000153474 0.0447215 
0.00111678 0.00427571 0.0573703 
0.000401156 0.00125293 0.0239253 
-0.000269723 2.72465e-05 -0.000337333 
0.00161684 0.00106061 0.0265981 
-0.000301425 5.39602e-05 -0.00164456 
0.00140834 0.000578013 0.0228301 
-0.00472496 0.00294029 0.00723979 
0.0017339 -0.00263292 -0.00216802 
-0.00555578 0.00322153 0.0136237 
-0.00458037 0.00403332 0.0191134 
0.0473335 -0.0376542 0.335535 
0.00373623 0.042249 0.297459 
0.00707981 0.0123504 0.423059 
-0.0149273 -0.111341 0.217316 
0.0113167 -0.0176317 0.0650965 
0.0258292 -0.0171753 0.129228 
0.0348957 -0.0173497 0.029043 
0.0129032 -0.0252485 0.0505216 
0.000123515 0.000120738 0.0219757 
-0.00233989 -0.00245904 0.0309965 
0.000336592 0.00069948 0.000575857 
-0.00157532 -0.00142845 0.0259641 
0.00383023 -0.0010145 0.0932723 
0.00507354 -0.00133834 0.0760864 
0.0140763 -0.0055777 0.0914479 
0.000953548 -0.00553005 0.0807967 
0.021953 -0.0885743 0.196439 
-0.0650155 -0.080346 -0.03445 
0.0348323 -0.00816066 0.298964 
-0.0438009 0.000927696 0.197146 
-0.00683686 -0.0206764 0.0835541 
-0.0124246 -0.0137501 0.0524989 
-0.00518634 -0.00732717 0.0496007 
0.00451931 -0.0139632 0.0704384 
0.000101987 -8.84116e-05 -0.000352424 
-8.22874e-05 6.63387e-05 0.000133772 
-0.000155884 0.000109114 -0.000245638 
0.00109564 0.000759926 0.0255238 
0.0311857 0.0120248 0.330819 
-0.0210538 -0.016441 0.180709 
-0.0411668 4.28347e-05 0.168395 
-0.090456 0.0417297 0.0959527 
0.015931 -0.0222893 0.073062 
0.0083749 -0.0105235 -0.014248 
0.0136194 -0.0273581 0.0591625 
0.0153642 -0.0138149 0.0321998 
-0.00323084 0.00999645 0.122507 
0.00736572 0.011624 0.198099 
0.0101975 0.0309169 0.119154 
-0.0223791 0.0314069 0.104237 
0.00211816 0.00360927 -0.00389203 
-0.0102478 -0.00612472 0.0121771 
0.00213852 0.00477616 -0.00432559 
-0.0102058 -0.00688556 0.00847457 
0.000279615 0.000280686 0.000227997 
-1.56297e-06 -6.90418e-06 -0.000441259 
0.000204952 0.0002113 0.000625863 
0.000294032 -0.00111702 0.0261581 
0.022697 0.0381901 0.0723842 
0.0349536 0.0414689 0.111281 
0.0022282 0.0206571 0.0268167 
-0.00604282 0.0318675 -0.0082216 
-0.00490462 -0.00780605 0.0559797 
0.00143617 -0.0123442 0.0867514 
0.00119885 -0.00715605 0.0606711 
-0.00235879 -0.0045715 0.0688524 
0.0181412 -0.0144589 0.0142691 
0.0233468 -0.0192436 0.0847337 
0.0131805 -0.014726 0.0557668 
0.018915 -0.0122046 0.0624662 
0.000562518 -0.000327186 -0.000553013 
-0.00332133 0.00338631 0.0214986 
0.000819711 -0.00024321 0.000851996 
-0.0012795 0.00153498 0.0246643 
-0.0251619 -0.0152877 0.0506731 
-0.00442999 -0.046455 0.0277482 
-0.0235792 -0.00431513 0.121561 
-0.0406914 0.0068534 0.104706 
-0.000213574 4.26153e-05 0.021865 
-4.82658e-05 0.000106619 0.000244328 
-1.17046e-05 5.72354e-05 0.0173957 
-0.00123672 -0.00116471 0.0262779 
-0.00857678 -0.00369607 0.0133073 
-0.00467561 -0.00154643 0.00216678 
-0.0116694 -0.01292 0.0352446 
-0.00412605 -0.0034316 0.0170101 
-0.00509263 0.00458868 0.0328011 
-0.00532409 0.00688361 0.0579306 
-0.00318209 0.00184396 0.0308168 
-0.000976104 1.44501e-05 0.022623 
0.00420307 -0.00716831 0.0110336 
0.000836942 -0.00237567 0.00210232 
0.00502256 -0.00477643 0.0154106 
-0.00095145 -0.00053549 -0.00160505 
-0.000145131 -0.00380318 0.0330127 
-0.00431061 -0.00540541 0.0290818 
-0.00450277 -0.00813404 0.0544015 
0.000212183 -0.000459358 0.0237775 
0.00643089 0.00519123 0.452819 
0.00424902 0.0872378 0.273941 
-0.0408723 0.00274081 0.288253 
-0.0150483 -0.160372 0.222862 
0.000469946 8.38193e-05 0.0358827 
-0.00357428 -0.000160742 0.0305807 
-0.000433855 -0.000267538 0.0501145 
-0.00493242 -0.000400448 0.0560327 
0.00664713 -0.00455856 0.0201012 
0.0122647 -0.00866772 0.0227143 
0.00271846 -0.0021782 0.0153638 
0.0198207 -0.0176453 0.0550416 
0.0262045 -0.0109551 0.0207963 
0.0115704 -0.00886062 0.0170648 
-0.00225007 6.97074e-05 -0.0033569 
0.00370006 0.0020366 0.00136402 
0.000170648 3.28196e-06 0.000347988 
2.68404e-05 2.02594e-05 0.0181068 
0.00017394 -0.000254762 0.000373839 
-0.00185634 0.00131087 0.0316478 
0.000301973 -0.000263818 0.0597079 
-0.000611808 0.000927738 0.0628527 
0.00596154 -0.00107241 0.0757786 
0.00395983 0.000823633 0.0534869 
-0.000485251 0.000290151 0.0378479 
0.00033633 0.000288603 0.0601086 
-0.000244788 -0.000420325 0.0503063 
0.00550861 -0.00266671 0.0499585 
-0.00253454 0.0116371 0.0701861 
-0.0120382 0.0187397 0.0710899 
-0.0134701 0.00884025 0.080646 
-0.0164212 0.0181055 0.10179 
0.00493137 -0.000979754 0.0372869 
0.0124639 -0.00298571 0.052163 
0.00550908 -0.00661282 0.0266613 
0.0048476 0.00110899 0.0220455 
-0.000446905 0.0695716 0.0863793 
0.0286118 0.0267534 -0.0451134 
-0.0100065 0.0678703 0.112397 
0.0265239 0.0415914 0.243265 
-0.00457407 0.0127032 0.0168287 
-0.000377492 0.00374425 -0.00449278 
-0.00834128 0.017976 0.0265311 
-0.00703338 0.0078541 0.0182964 
-0.00711951 0.0209728 0.0607736 
-0.01723 0.0125264 0.0393906 
-0.00797081 0.00485751 0.00946953 
-0.00502867 0.00608038 0.0185638 
0.00182379 -0.0109306 0.0911389 
0.0152152 -0.0137169 0.057068 
0.0214812 -0.022993 0.0904795 
0.00341743 -0.0139015 0.0681219 
0.00113502 0.000338046 0.0627656 
0.000557523 0.00484441 0.0826662 
0.000109243 5.98259e-05 0.0773157 
0.00236341 0.00342984 0.0804733 
0.00421919 0.00361234 0.0354659 
0.00833828 0.00370341 0.0478577 
0.00650072 0.00686495 0.0263191 
0.0106121 0.00891507 0.0591145 
-0.000232602 0.000673021 -0.000137217 
-0.00325389 -0.00340488 0.027789 
0.000462157 0.000480554 0.000642374 
-0.000707455 -0.0013689 0.0243365 
-0.0181812 -0.0156079 -0.0514663 
0.0650193 -0.0633702 0.11719 
-0.0113959 -0.0107685 -0.0199793 
0.00637095 -0.0861615 0.14246 
0.000208982 -0.00301821 -0.000517096 
-0.00185999 -0.00414596 -0.000760263 
0.0108303 0.00608845 0.0102331 
0.00999252 0.0062524 0.000376583 
-0.0125657 -0.017047 0.0258341 
-0.0110838 -0.00728239 0.0330199 
-0.0213459 -0.0255359 0.0804871 
-0.0183941 -0.0228464 0.0603612 
5.19016e-05 -0.000146327 0.0680422 
0.00501854 -0.0056274 0.0661221 
0.0027208 -0.00475607 0.0808112 
0.00318119 -0.00387944 0.0477532 
-0.00237504 0.00624579 0.124509 
0.021742 -0.00899475 0.10179 
0.0100771 -0.0108292 0.136267 
-0.005329 -0.00581335 0.106938 
-0.00132041 0.00129008 -0.00291677 
0.00407661 -0.000602001 0.00310584 
0.000544131 -0.00112065 0.00254145 
0.00473115 -0.000351475 0.00489807 
-0.000154352 -0.000405438 -0.000568473 
0.00033492 0.000777545 -0.000282675 
-5.65394e-05 -8.22563e-05 0.000774783 
0.000213674 0.00238081 0.00235231 
-0.000380028 -0.00261387 0.000338313 
0.00157268 0.00163204 0.0264333 
0.00344156 0.00457978 0.0226973 
0.00334023 0.00310744 0.0176958 
-0.00117476 -0.00071333 0.000261888 
0.00477533 0.00334534 -0.00364341 
-0.0125682 -0.00492217 0.0114511 
-0.0120918 -0.00563634 0.00848873 
0.000118385 -8.63734e-05 0.0313576 
-0.000108281 5.02208e-05 0.0222563 
1.37522e-05 0.00026819 0.0440126 
-0.000153117 0.000990689 0.0243837 
-0.00235545 0.0315273 0.228566 
-0.0126354 0.00890334 0.0790955 
-0.0362825 0.0180325 0.204075 
-0.0444696 0.0565738 0.180234 
-0.00023014 -0.000749762 0.000122826 
-0.00068182 -0.000458076 0.000160361 
0.00318601 0.00314183 0.023687 
0.00180123 0.00145657 0.0250256 
-0.00181246 0.00646691 0 
-0.00421256 0.00131938 0 
0.0038221 -0.00676383 0 
0.0314209 -0.0187949 0.018183 
-0.00431114 0.000863291 0 
0.000727768 0.00322508 0 
-0.00440438 -0.00728701 0 
0.00393387 0.000486998 0.00203021 
0.000336052 0.00024683 0.0435337 
-1.0002e-05 -8.11358e-05 0.0338825 
-0.000127784 -5.73194e-05 0.0229921 
0.0016192 0.000820101 0.0280994 
0.000339033 -0.000168025 0.000156758 
2.21614e-05 2.84588e-05 0.0225549 
-4.84592e-06 0.000127597 0.0182528 
-0.0020289 0.0015342 0.0319138 
0.000106693 0.000423503 0.000362525 
5.54563e-05 0.000176025 -0.000600559 
0.000180557 0.000743722 0.00109699 
0.00120486 -0.0041944 0.0256185 
-0.0161295 -0.000913676 0.0517261 
-0.0174683 0.0236915 0.0326928 
-0.00658016 0.0153112 0.0234494 
-0.00891636 -0.00467968 0.0185814 
-0.00381531 -0.00622564 0.0485483 
-0.00907273 -0.0226538 0.08718 
-0.0103045 -0.0147827 0.0830198 
-0.0121013 -0.0132017 0.0492053 
-0.000355773 -3.07857e-05 0.0819132 
-1.98237e-05 0.00453406 0.0834686 
0.00299637 0.00139485 0.0950643 
0.00451808 0.0029968 0.0797943 
-0.0129546 -0.00415368 -0.00459646 
0.0111549 0.0583561 0.071666 
-0.021844 0.0223271 0.0670122 
-0.00105829 0.0140948 -0.0148259 
0.00376958 -0.00780154 0.0266985 
0.00674712 0.00387342 0.0218924 
0.014699 -0.00439554 0.0523408 
0.00471162 -0.00603628 0.0163955 
-0.00237452 -0.00279642 -0.00275392 
0.0103085 0.0058539 0.0113013 
-0.000955769 -0.00302075 -0.00436774 
0.00829207 0.00442375 0.00645843 
-0.00102067 0.00459818 0 
-0.00306583 -0.00226394 0 
0.00040205 -0.00425735 0 
-0.00618457 0.00825736 0.0061751 
0.00418718 0.00677676 0.215326 
-0.012051 -0.00873114 0.255996 
-0.00308582 1.1796e-05 0.187715 
0.040245 0.106048 0.106285 
0.0299543 0.000751342 -0.0025913 
0.0341812 -0.000438069 0.0321557 
0.00677403 -0.0464016 0.064262 
0.0310092 -0.0456801 0.131259 
0.000348634 -0.000591064 0.000692383 
-0.00267058 0.00325404 0.0234145 
-0.000573268 -0.000716967 -0.000624333 
-0.00106806 0.0015823 0.0243194 
0.000151127 0.000214226 0.000191401 
-0.000393823 0.000291215 0.000489948 
2.31606e-06 -0.00018586 0.0215045 
0.0013541 -0.000881048 0.0264323 
0.000714283 0.00142712 -0.00255674 
-0.000625288 -0.00350325 0.00186604 
-0.00208194 -0.00203371 0.0044183 
-0.000757888 -0.00264212 0.00465615 
-0.00125045 -0.000220817 2.53821e-05 
0.00154899 -0.00174514 0.0264869 
0.00412854 -0.00124712 0.0371443 
0.00116594 0.000358427 0.0247174 
0.0121388 -0.0128485 0.0547336 
0.0183105 -0.00729449 0.0957369 
0.011105 -0.0158209 0.0567967 
0.0237746 -0.0214267 0.0742167 
-0.000370728 0.000266898 -0.000565997 
-2.63106e-05 -3.65486e-05 0.00141794 
0.000750659 -0.000459575 -0.000978333 
-0.00540113 0.00048756 0.00768803 
0.00082372 0.0159348 0.0506162 
-0.00465589 0.009378 0.0508577 
-0.000948144 0.00143245 0.0308143 
0.00391645 0.0122066 0.0547019 
-0.0175825 0.0016359 0.0542509 
-0.0118473 -0.0347733 0.0321348 
-0.0205702 -0.0146501 0.0783545 
-0.0217906 -0.0128084 0.1001 
-0.012031 -0.00360446 0.0816724 
-0.0030683 0.00400886 0.0907017 
-0.0121682 0.00984873 0.0812111 
-0.0161418 -0.00287351 0.107371 
0.00410862 0.0258884 0.0250654 
0.0205586 0.0135693 0.0513124 
0.0189169 0.0394891 0.0711459 
0.00928135 0.0182785 0.000150121 
2.78223e-05 0.000315423 0.072211 
0.000771319 -0.000268958 0.0639786 
-0.000287945 -8.20081e-06 0.0533133 
-0.00214873 0.003442 0.0481632 
-0.000335963 0.000217703 0.000785774 
-0.00039441 -0.000218958 -0.000249667 
0.00239573 -1.17775e-05 0.0211262 
0.00106522 -9.23621e-05 0.024311 
-0.000718369 -0.000519024 -0.000340945 
-0.000589557 -0.000322406 -0.00155657 
0.00314758 -0.00210678 0.0319272 
0.00151921 -0.000496682 0.025849 
0.00183641 -0.000835756 -0.000895211 
-0.00291663 0.00478341 0.0203754 
-0.00460275 0.00401796 0.0230608 
-0.0020359 0.00113961 0.0225659 
-0.0034212 0.0149326 0.0564149 
-0.0126294 0.0181273 0.0723956 
-0.0176835 0.0167065 0.043583 
-0.00524712 0.00942957 0.0483587 
0.00399272 -0.00510002 -0.0255856 
0.0232512 0.0131416 0.032565 
0.0250087 0.0462034 0.0556804 
0.0624288 0.0376864 0.114487 
0.00461034 0.00516717 0.0387559 
0.00568232 0.0049124 0.0187924 
0.00116282 0.00161267 0.0207079 
0.00476171 0.011279 0.0503274 
0.0114114 0.00761902 0.013083 
0.0037228 0.000746976 0.0224524 
-0.00439043 -0.00189988 -0.00316398 
0.00713344 2.83468e-05 0.0124733 
0.010423 -0.0189608 0.12863 
0.0553525 -0.0357665 0.148325 
0.014135 -0.00630003 0.248621 
0.0108605 -0.0362056 0.190732 
-0.000123062 -0.000220349 -0.000490551 
-0.000194329 -0.000484148 0.00145604 
-0.000339321 -0.000690617 7.58801e-06 
-0.000184106 0.00397627 0.0196542 
0.00617039 0.0117388 0.047038 
-0.0234313 0.0135775 0.0782787 
0.00901455 0.0367608 0.116148 
-0.0188918 0.0241907 0.100665 
0.00016802 -0.000142305 0.0218166 
-0.00269612 0.000292731 0.0318275 
-0.000598415 9.20534e-05 0.0419203 
-0.0017113 0.000787956 0.0228433 
0.000852329 -0.000327859 3.98445e-05 
0.00109933 0.000383788 -0.000148106 
-0.00435152 -0.00407533 0.0177448 
-0.00189657 -0.00120679 0.0182351 
0.0058646 0.00150641 0.0514839 
0.00409716 0.00348352 0.0817454 
0.0108295 0.00338277 0.0750287 
0.00928137 0.00715487 0.0614371 
-0.0074623 0.0264347 0.266693 
-0.0727282 0.0197051 0.023826 
0.000805864 0.0352218 0.197267 
0.0373175 0.050001 0.0964624 
0.0144125 0.0189343 0.0487201 
0.0169094 0.0106305 0.0712372 
0.0319506 0.0319946 0.080789 
0.0185051 0.0151735 0.0986088 
-0.0029261 0.00247417 0.0309994 
-0.00443601 0.00460329 0.0577372 
0.00027986 -0.000103676 0.0382757 
-0.00157477 0.00134684 0.0227155 
0.00262235 -0.0070029 -0.00215359 
-0.00117883 0.00418639 0.000732909 
-0.00963045 0.0109398 0.0110236 
0.000237308 0.00953375 0.00870451 
0.0189447 0.0364938 0.0715878 
0.0212275 0.0115078 0.0735492 
0.0136202 0.0316482 0.030659 
0.0208531 0.0207942 0.104801 
0.0141293 0.020485 0.0650249 
-0.0369346 0.00869804 0.0289944 
-0.0197488 0.0268794 0.103342 
-0.0338356 0.0181991 0.0499122 
0.000325028 -0.0016739 -0.00114081 
-0.00453085 0.00532835 0.0229075 
-0.00467509 0.00462089 0.0318854 
-0.000135574 0.000440899 0.026304 
-0.000529387 0.00138069 0.00121414 
-0.000205285 0.00153851 -0.00113526 
-0.0064293 -0.00361343 0.0126516 
-0.00348076 -0.00204928 0.0142648 
-0.00099491 -0.0143649 0.17314 
0.0102771 -0.0178601 0.269006 
-0.0141348 -0.00837383 0.222671 
0.0523073 0.0945215 0.0364723 
-0.000771449 0.00136005 0 
-0.000406986 0.000212414 0 
0.000656901 -0.00152683 0 
-0.00185568 -0.00137147 0.00150183 
-0.0220664 -0.0291954 0.123064 
-0.0167444 -0.00156596 0.119026 
-0.0259544 -0.0170766 0.0768058 
-0.0343931 -0.00764938 0.173879 
-1.81429e-05 -0.000329578 0.000760271 
-6.73043e-05 -0.000680508 -0.000285088 
-1.94888e-05 -0.00023548 0.00013759 
0.00181247 0.000385234 0.0206851 
0.00017507 7.82825e-05 0.0333298 
-8.32944e-05 -8.53592e-05 0.0180421 
-0.000136238 0.00021637 0.0240304 
0.00133657 0.0010881 0.0283965 
-0.0620808 0.0318422 0 
0.0470969 -0.0339117 0 
0.0727949 -0.0344993 0 
0.0353068 -0.0167114 0.221612 
0.0039186 -0.0120328 0.0922067 
0.00351952 0.00138261 0.0926781 
0.0122272 -0.0101893 0.0972842 
0.00241607 -0.0020122 0.076245 
0.000290237 -7.6071e-05 0.0211623 
-0.000600713 0.000209811 0.0428154 
-0.00136318 0.000924243 0.0264992 
-0.00180848 0.000960487 0.0224663 
0.0330096 -0.0314978 0.0846173 
0.0105893 -0.0046854 0.0143234 
0.0193278 -0.0197496 0.0250372 
0.0229489 -0.0123075 0.0614795 
0.000274809 -0.000382781 -0.000494274 
0.000199121 0.000724412 -0.000150577 
0.000281058 -7.15283e-05 -1.62916e-05 
-0.000735627 0.00295497 0.0019848 
-0.00208904 0.0102897 0.0672375 
-0.0157614 0.0200868 0.104142 
-0.0151278 0.0079083 0.081572 
-0.00162754 0.0166183 0.0957356 
0.00443433 -0.00538792 0.0104651 
0.00170072 -0.00189129 0.00311383 
-0.000620634 0.00115143 -0.00100816 
-0.000371625 -7.49642e-05 0.00112016 
-0.000481359 0.000789458 -0.000965016 
-0.00109282 0.00110868 -0.000130874 
0.0039638 -0.00795329 0.00515425 
0.00206548 -0.00556796 0.0110645 
-0.00377365 -0.000334148 0 
0.000370377 -0.000198957 0 
0.00145669 0.000868736 0 
0.00675416 0.000936263 0.00309783 
0.003028 0.00191049 0 
-0.000536007 0.00271758 0 
-0.00365327 -0.00102785 0 
0.00823741 0.00421466 0.00733926 
-0.0191112 -0.00834339 0.04762 
-0.0140153 -0.0467122 0.152688 
-0.0838776 -0.00101761 0.128371 
-0.0195228 -0.0178138 0.0186519 
0.00474882 -0.0121374 0.00594852 
-0.000708865 0.000128443 -0.000126211 
-0.00468013 0.00497445 -0.00575521 
0.0028679 -0.00939994 0.00540518 
-0.010388 -0.01188 0.0347464 
-0.00874109 -0.0220477 0.0303003 
-0.0223227 -0.0175389 0.077681 
-0.0140667 -0.00896028 0.0458296 
-0.00573082 0.0145315 0.0562708 
-0.0167189 0.0168839 0.0430711 
-0.00460708 0.00695922 0.0194454 
-0.00447245 0.00952914 0.0504193 
0.0229329 -0.0228186 0.0800021 
0.0133834 -0.0116337 0.0565188 
0.0216508 -0.0256809 0.0737433 
0.0177608 -0.0163169 0.0292953 
0.00531704 -0.0043511 0.0482251 
0.00114636 -0.00108014 0.0267541 
0.00375374 -0.00347711 0.0335534 
0.00032294 -0.000424465 0.022744 
0.00178136 0.00232957 0 
-0.00101498 0.00197306 0 
-0.00205101 -0.00127645 0 
-0.00975111 -0.00455413 0.00508655 
-2.19912e-06 0.00133636 -0.000700326 
-0.00149356 -0.0016583 0.0261648 
-0.00448618 -0.00452593 0.0267775 
0.000190671 -0.00116557 0.0260911 
0.00243841 0.00125078 -0.00230599 
-0.00783608 -0.00411639 0.0249735 
0.00175712 0.000373629 -0.00119438 
-0.00615376 -0.00145245 0.0179771 
1.62579e-05 -0.00221336 0.000247978 
-0.00403436 0.00394592 0.031064 
-0.00354464 0.00371878 0.0231002 
-0.00125304 0.000479743 0.0229265 
-0.000215277 -0.000159336 0.0504735 
0.00167603 -0.00123702 0.0268925 
0.00533978 -0.00330718 0.0476847 
0.00291118 -0.00243761 0.048379 
-0.0300216 -0.0204174 0.0504863 
-0.0143897 0.00298514 0.0111568 
-0.00686977 -0.00117392 0.0117504 
-0.0249144 -0.0166003 0.027152 
0.00810331 -0.00512203 0.0663192 
0.00124157 -0.00722399 0.0620209 
0.00328672 -0.0114871 0.085638 
0.00285065 -0.00314325 0.0803959 
0.0298963 0.0123356 0.126928 
0.0309144 0.0308663 0.0869734 
0.0161879 0.011516 0.0683384 
0.0189238 0.0151683 0.098098 
0.00185359 -0.00150628 0.0251495 
0.00301964 -0.00322167 0.0472858 
0.0031742 -0.00314655 0.0331652 
0.0022805 -0.00243817 0.0492341 
0.000734805 5.20853e-05 0.0483231 
-0.000625554 0.000520671 0.0471036 
-0.00394914 -0.0071092 0.053913 
-0.00188613 -0.00494701 0.0680918 
0.00208185 0.00374503 0 
-0.00581677 0.0295734 0 
0.00594468 -0.0249391 0 
0.0141214 -0.0890168 0.0945316 
0.00434974 0.0045922 0.0238042 
0.00407651 0.0041917 0.0365626 
0.00530374 0.00470262 0.0516211 
0.000402339 0.0010503 0.0261051 
-0.000610684 -0.00473826 0.0316882 
0.00102638 -0.00719222 0.0609963 
-0.00522251 -0.00670648 0.0557956 
0.00175583 -0.0126982 0.0646446 
0.000634046 0.00362233 0.0329569 
-0.00117841 0.0146036 0.051099 
-0.00609644 0.00509627 0.0225918 
-0.00421948 0.00942646 0.0502163 
0.000584751 0.0126828 -0.0248733 
0.025761 -0.0152949 0.022927 
0.0543644 0.00401084 0.0387397 
0.0417116 -0.0368365 0.177607 
0.0192494 -0.0351164 0 
0.0315449 -0.0235471 0 
-0.0279087 0.0211993 0 
-0.0128141 -0.047466 0.0910234 
-0.00276994 0.0171954 0.0535895 
0.0111287 0.0240245 0.11105 
-0.0221246 0.0180387 0.0789514 
0.0178765 0.0192521 0.0706912 
0.00108691 0.00141722 -1.01958e-05 
-0.00139346 -0.00126854 0.0258564 
-0.00361861 -0.00289779 0.0304113 
-0.00410235 -0.00287756 0.0196777 
0.0029425 -0.0124169 0.0875023 
0.017572 -0.0245268 0.102234 
-0.00137481 -0.0200207 0.0956741 
0.00532042 -0.014293 0.0622385 
0.037589 0.00877721 0.136408 
0.018057 0.0133633 0.0690723 
0.0187929 0.0366617 0.0719261 
0.0248556 0.016893 0.0995589 
-8.90481e-05 -2.622e-05 0.035867 
-8.13263e-05 -1.06242e-05 0.0201006 
0.000159542 -8.64067e-05 0.0334528 
-0.00116549 -0.0001929 0.0249906 
0.0182433 -0.0341989 0.0726713 
0.0164655 -0.00414736 -0.00696271 
-0.00495103 -0.00913673 -0.0168565 
0.0236887 -0.0773222 0.120919 
0.000510097 0.000549053 -1.65852e-05 
-9.57003e-05 0.000770124 0.000308842 
-0.00179299 -0.001 0.0248534 
-0.00342834 -0.00257194 0.0204989 
5.22483e-05 -2.4057e-05 0.0221546 
0.000767695 -0.000122976 0.000179347 
-0.0025737 0.000291994 0.0313267 
-0.00163728 0.000413339 0.0229721 
-0.000142753 1.65907e-05 0.0462949 
5.89244e-05 0.000210157 0.0630603 
0.000418217 -0.00039093 0.0413059 
0.00169667 0.00466625 0.0584329 
0.000305167 0.000514675 0.074832 
-0.00373416 -0.00308526 0.0758164 
-0.0054745 -0.00524202 0.0599658 
-0.003031 -0.00399437 0.0708514 
-0.012938 -0.0123035 0.0367546 
-0.00782591 -0.0152999 0.0250144 
-0.00168288 -0.001202 0.00212911 
-0.0130715 -0.0124611 0.0149864 
0.00165346 0.00173343 0.0281818 
0.00339549 -0.000117782 0.0212329 
0.00483181 -0.000730384 0.0371728 
0.000768678 -0.000178647 0.0245991 
-0.0159139 -5.70729e-05 0.0513974 
-0.018119 -0.00287916 0.0542438 
-0.00981329 -0.0410776 0.0269573 
-0.0272891 -0.00749455 0.109397 
-0.0054577 0.0100359 0.0175143 
-0.00333196 0.00393824 0.0218207 
-0.000600795 0.0037838 -0.00466319 
-0.00693658 0.00903636 0.0177926 
-0.00190455 0.00259676 -0.000988883 
-0.00133531 0.0018495 -0.00454616 
-0.00124225 -0.00422891 0.00647363 
0.00665223 -0.0280316 0.0128919 
0.00021216 0.000389778 0.020745 
0.000116435 -6.41412e-05 0.0316628 
-5.35028e-05 4.28307e-05 0.0378925 
-0.00260643 -0.0028276 0.0323206 
0.00450434 -0.00375096 0.0207201 
0.00156347 -0.00100274 0.025814 
-0.000846218 0.00233169 -0.000262517 
0.00324555 -0.00325002 0.0224889 
0.000389797 0.000196535 0.0213291 
7.47314e-05 -4.21359e-05 0.0315918 
-0.00260473 -0.00272009 0.0320167 
-0.00165428 -0.00145878 0.0261717 
0.00127656 0.000239859 0.0841644 
-0.00271373 -0.00287434 0.0855566 
-0.00343091 -0.000298742 0.0906319 
-0.00560508 -0.00187778 0.0756339 
0.000880403 0.000273074 0.0262741 
0.00458628 0.00087471 0.0211164 
0.00651934 0.00564344 0.0290111 
0.00836444 0.00357505 0.0470807 
-0.000535675 0.000238277 0.0750227 
0.000162635 -0.000119042 0.0595967 
0.000252977 0.000457497 0.0636693 
0.00491646 -0.000784699 0.0747091 
-0.0510391 0.00855665 0.0613232 
-0.0253479 0.0163796 -0.0292311 
-0.0580391 -0.00377566 0.101219 
-0.0539939 0.0107221 0.241126 
-0.000800338 0.00124694 -0.0012113 
0.00306293 -0.00437391 0.0111177 
-0.000598565 0.00100076 0.000385814 
0.00295235 -0.00268381 0.00354525 
-0.00574609 0.00536176 0.0300133 
-0.00527973 0.0032301 0.0146015 
0.00194506 -0.00329658 -0.00128043 
-0.00535865 0.00341451 0.0214145 
-0.0298779 -0.0192733 0.0795182 
-0.0201963 -0.00354538 0.117986 
-0.019069 0.0118894 0.117167 
-0.0295612 -0.00504551 0.163117 
0.0324939 -0.0262222 0.0807798 
0.0262465 -0.0313166 0.0739227 
0.015303 -0.0210249 0.0237312 
0.0122485 -0.0133395 0.0288962 
0.0340311 0.031705 0 
-0.068277 -0.0423222 0 
0.0686691 0.0350025 0 
0.0266299 0.0424975 0.125238 
-0.0365951 -0.0173348 0.0640336 
0.0014303 -0.0283524 0.126169 
0.00346916 -0.0202374 0.0568744 
-0.00765202 -0.0254229 0.0862132 
0.0153327 -0.00897249 0.0714981 
0.00541228 -0.0278177 0.143888 
0.00193427 0.000998153 0.178204 
0.0746566 -0.0340705 0.0231342 
-0.00241355 -0.000351166 0 
-0.00441249 -0.00239906 0 
-0.00344068 -0.00022237 0 
0.0296432 -0.00712167 0.0035377 
0.000877818 0.000644184 0.0011618 
-0.003433 -0.00240802 0.0293531 
0.00049916 0.000737841 -0.00106275 
-0.00396259 -0.00255208 0.018877 
0.000277426 0.00127069 0 
-0.00205216 0.00110267 0 
-3.0967e-05 -0.000329946 0 
0.00555099 -0.00122559 0.000981082 
-0.0142144 0.00803664 0.0276491 
-0.0108965 0.0135376 0.0389432 
-0.00628273 -0.000375689 0.00084755 
-0.00693944 0.00153064 0.0127538 
-0.000159947 -9.94838e-05 0.0366102 
0.00148777 -0.00137663 0.0257394 
0.00311919 -0.00290807 0.0333179 
0.00270314 -0.00288103 0.048467 
-0.00789301 0.0208404 -0.0271041 
0.0101871 -0.0224841 0.0414392 
0.0398765 -0.0505682 0.0898368 
0.00660248 -0.00548379 -0.0227503 
0.00043531 -0.000279137 0.0193987 
-0.00116833 -0.000743722 0.0233952 
0.000384523 2.04487e-05 0.00013636 
-0.00186442 -0.00116661 0.0210124 
0.000316948 0.000232182 0.0804938 
0.00331234 -0.00206862 0.0914179 
-0.00223291 0.000317524 0.0860375 
0.00272427 -0.00301787 0.080732 
0.00114636 -0.000281417 -0.00059878 
-0.00344747 0.00255299 0.029833 
0.00123104 -0.00129054 0.000136425 
-0.00315603 0.00353533 0.020893 
-0.000267535 -0.00177335 -0.000631601 
-0.00215095 -0.000194377 -0.000461824 
0.00329656 0.00438972 0.00646646 
0.00153958 0.00422961 0.0100105 
0.000373385 0.002171 0 
-0.00154526 -0.00422075 0 
-0.00371263 0.00109155 0 
-0.00107834 0.0217047 0.0115687 
-0.00302244 -0.00711576 -0.026895 
0.0306916 0.0397047 0.0662909 
-0.0091101 0.00556562 -0.0209842 
0.0848826 0.0506616 0.111017 
0.000220586 1.27021e-05 0.0204301 
0.000351591 -5.84774e-05 0.000351718 
-0.000189649 -2.11923e-06 0.016354 
-0.00121643 -0.000270031 0.02472 
-0.000634777 1.72788e-05 0.000879162 
0.000760222 -0.00329912 0.0325841 
-1.81936e-05 0.000599653 1.37088e-07 
0.0013748 -0.000660962 0.0269841 
-0.0303694 0.00720731 0 
0.0360937 -0.00264018 0 
0.0278675 0.00735106 0 
0.0332735 0.0393068 0.0894749 
-0.0165786 -0.0122847 0.0685833 
-0.0161898 -0.0431047 0.0810518 
-0.0265263 -0.0283708 0.124477 
-0.0558219 -0.0179229 0.192126 
0.00535942 -0.00565525 0.0412164 
0.00187877 -0.000830531 0.0258811 
0.00436437 -0.00380461 0.0200163 
0.00295881 -0.0034065 0.0224241 
-0.000566339 3.97258e-05 0.0610782 
0.000131914 1.59883e-05 0.051813 
0.000560499 -8.54907e-05 0.0696114 
0.00189646 -0.00561341 0.0601225 
-0.0194956 0.00749538 0.0277156 
0.000291337 0.00108226 -0.00014971 
-0.0154198 0.0120596 0.0401832 
-0.0128655 0.00818874 0.0160051 
-0.00816639 -0.00522202 0 
-0.00876451 -0.0138731 0 
0.0187212 0.0256861 0 
0.0392399 -0.00600279 0.0116862 
-0.00948425 0.000992428 0.123468 
-0.0428039 0.0184796 0.195969 
-0.027986 0.0279845 0.109184 
-0.024239 0.0506991 0.0973707 
0.0134567 -0.0107031 0.0576486 
0.00542343 -0.00626696 0.0638081 
0.0155373 -0.00900721 0.0912237 
0.0112285 -0.00362773 0.0700553 
0.0020733 0.000232527 0 
0.00122606 0.00147882 0 
-0.000707936 0.00205359 0 
-0.00780582 -0.0044542 0.00349673 
0.00212885 0.000904134 -0.000982494 
-0.00443444 -0.0102703 0.00635463 
0.00101129 0.00525106 -0.000464605 
-0.0019891 -0.00658126 0.00112208 
-0.00125815 -0.000175491 0.000132929 
0.00444582 -0.000790569 0.0365618 
0.00332747 -0.000173594 0.0213825 
0.000896562 -6.74934e-06 0.0239367 
0.000177544 0.00014766 0.0458292 
-1.79824e-05 0.000175212 0.0592267 
-0.00032285 -0.000626724 0.0384415 
0.00406632 0.000744608 0.0536347 
0.00377231 0.00405406 0.024481 
0.00475299 0.00495037 0.0505178 
0.00139883 0.00158607 0.0260895 
0.00134776 0.00112551 0.026849 
-0.000390088 -0.000560718 0.0815606 
0.000301124 0.000846729 0.0751233 
0.00428756 -0.000993615 0.0907191 
0.00448783 -0.00136446 0.075522 
-0.00454344 -0.00477966 0.0281369 
-0.00153041 -0.00153109 0.025606 
-0.00506514 -0.00709196 0.051987 
0.000771172 -0.00140823 0.0262019 
0.0211152 -0.0104158 0.112629 
-0.00277995 -0.0294651 0.0895334 
-0.0161218 -0.0384369 0.138931 
0.00636416 -0.0146255 0.144314 
0.00642039 0.00736667 0.074898 
0.00103471 0.004936 0.0564425 
0.00135012 0.0171242 0.0902251 
0.00375287 0.0110637 0.0534246 
0.000990399 0.00476212 0.056129 
-0.00569086 0.00834441 0.0720886 
0.000941353 0.0157188 0.0885194 
0.00395898 0.0119768 0.0555049 
0.0103633 -0.00210486 -0.0091094 
0.00296669 -8.73126e-05 -0.00459042 
-0.0158172 -0.00751628 0.0186859 
-0.00689369 -0.0441742 0.0335455 
0.0158383 0.0185677 0 
-0.0378305 -0.00645148 0 
0.00851486 -0.0108613 0 
-0.0574487 0.00650924 0.0775011 
0.00348565 -0.00261185 -0.00487009 
-0.00843684 0.0039133 0.012265 
-0.00458677 0.00193153 0.00519601 
-0.00799544 0.000994683 0.0064801 
7.40293e-05 0.000546733 -0.000364202 
0.00230003 -0.00311584 0.0317594 
-6.23408e-05 1.90409e-05 -0.000764664 
0.000474556 -0.000926001 0.0232643 
-6.90663e-05 0.000891046 -0.00141968 
-0.00458577 -0.00359196 0.0252596 
0.00151377 0.000265864 0.00185238 
-0.0053527 -0.00139515 0.0180533 
0.0365867 -0.0280427 0.108297 
0.011444 -0.0145365 0.145112 
-0.0342973 -0.0224752 0.142227 
0.00448061 -0.0339409 0.171579 
-0.000198771 3.31897e-05 0.0183117 
-3.05194e-05 -1.89743e-05 0.000241744 
0.000245935 0.00026652 0.000177149 
-0.000921836 -0.00130136 0.0215243 
-0.0301774 -0.00986735 0.131538 
-0.00843798 0.0626747 0.0306279 
-0.0264638 -0.0178395 0.0554488 
-0.0349324 0.0166335 0.0864875 
0.0127831 0.0277045 0.104874 
0.0121123 0.0161571 0.0672035 
0.0154832 0.0140388 0.100217 
-0.00109416 0.0159245 0.0955703 
-0.00155026 0.000154767 -0.0002505 
-0.001788 -0.00042756 -0.00428688 
-0.000831719 -0.00121908 0.00139545 
0.00726787 0.00180142 0.0076682 
-0.00893464 -0.0138765 0.023784 
-0.0134804 -0.0101447 0.0362165 
-0.00159692 -0.0042627 0.00209564 
-0.00518756 -0.00627773 0.0184811 
0.00705714 0.0168016 0.0700549 
0.00104872 0.0167926 0.09097 
-0.00419482 0.0208234 0.0801217 
0.00292918 0.0105088 0.0519697 
0.00183038 -0.000749852 0.0858367 
-0.00527959 0.000259734 0.0883266 
0.000142362 0.000342645 0.0773852 
-0.00370755 -0.000667566 0.0758713 
0.000226151 0.000315882 0.00025099 
0.00108122 0.0019121 -0.0010079 
-0.00362283 -0.00540282 0.013832 
-0.00140735 -0.00315832 0.0049187 
-0.000132189 -0.000966831 -0.000323011 
-0.00186179 0.00276856 0.0306043 
-0.000328672 -0.000576238 -0.001354 
-0.000706715 0.001731 0.0256537 
-0.0285242 -0.0285644 0.1229 
-0.0292745 -0.043402 0.228988 
-0.062917 -0.0367136 0.0379851 
-0.0237081 -0.0317337 0.178497 
0.000474812 -0.000497076 0.00198846 
0.000238924 -0.000348456 -0.00136678 
-0.00274459 0.00275134 0.0193512 
-0.00296398 0.00259663 0.0209475 
0.000252404 -0.000118449 0.000709473 
-0.000178923 8.78217e-05 -0.00134423 
-0.000241857 0.000106153 0.000923074 
-0.00329284 -0.00073673 0.0190643 
0.000533905 0.000752712 0 
0.000662832 -0.000471109 0 
-0.000477079 0.000561892 0 
-0.00106523 -0.00166541 0.00115815 
8.11436e-06 0.000199137 -0.000299073 
0.000316754 0.000491204 -0.000355418 
4.93514e-05 0.0004812 3.75728e-05 
-5.1866e-05 -0.00205742 0.00135744 
8.99139e-05 0.000270786 0.00165603 
0.000178748 0.000276086 -3.70625e-06 
-0.00131319 -0.00167702 0.029284 
-0.00126218 -0.00150189 0.020279 
0.0155649 -0.00588369 -0.0105024 
-0.0830915 0.0111888 0.125261 
-0.0420664 0.0055112 0.0721234 
-0.0178148 0.010721 -0.00388409 
-0.00611966 -0.0170939 0.0263554 
-0.0131073 -0.0118995 0.0117234 
-0.0133289 -0.0120378 0.0373444 
-0.0235186 -0.0228739 0.060008 
-0.00653511 0.00139762 -0.00487943 
0.0292499 -0.00842995 0.0107558 
0.000141044 -0.00293828 -0.00236869 
0.00676843 0.000889936 0.00526021 
0.000634766 0.000874736 -0.000292021 
0.000432566 0.000597077 -0.000431539 
0.00018035 0.000242518 0.00134208 
-0.000848879 -0.00379725 0.0142337 
0.000731896 -3.75718e-05 0.0775721 
-0.000132395 0.000572313 0.0850931 
0.000103266 -0.000396326 0.0821693 
0.00287994 -0.00022033 0.0866651 
-0.0204711 -0.0296552 0.122538 
-0.0107632 -0.0138521 0.0789662 
-0.025636 -0.0131707 0.0800363 
-0.0173908 -0.00482629 0.116364 
0.00220622 -0.00178164 0.000515335 
-0.00389577 0.00376546 0.0204238 
-0.00347903 0.00292669 0.0302775 
-0.00421433 0.00341225 0.0219461 
0.001005 0.000386827 0.000290957 
-0.00104643 -0.000811206 0.0232477 
-0.00407732 -0.00326213 0.0352747 
-0.00198408 -0.00162891 0.0206471 
0.00339518 -0.00774513 0.0106435 
-0.00193356 0.00163685 -0.000412226 
0.00425461 -0.00867933 0.00571948 
0.00458327 -0.0117938 0.005817 
-0.00883127 0.00934818 0.256861 
0.0225358 -0.00645652 0.117191 
-0.00977762 -0.0209685 0.239648 
-0.060311 0.0175377 0.0788127 
0.00047338 -0.000329573 -0.00194372 
0.000408283 -0.000294417 -0.000210814 
-8.39695e-05 5.92591e-05 0.000229667 
0.0020554 0.00110153 0.014637 
0.00459547 -0.0190518 0.0562594 
-0.00361254 -0.020902 0.0545493 
0.0148966 -0.0245535 0.11506 
0.0231556 -0.0153888 0.0636885 
0.000155655 0.000316149 0.0774818 
0.00072595 0.00480614 0.0589856 
-0.000514036 0.000162912 0.0608307 
9.77545e-05 0.00482983 0.0810332 
-0.00119873 -0.0145186 0.0471995 
-0.00713835 -0.00615806 0.0280784 
0.00060725 -0.00338181 0.033119 
-0.00127748 -0.00649043 0.0199869 
0.000625079 -0.00378967 0.0334419 
0.0019926 -0.00672242 0.0601043 
0.00403267 -0.00699865 0.0426795 
0.000538255 -0.000378697 0.0257331 
0.00451545 -8.04666e-05 0.0361967 
0.0131978 -0.00342867 0.0539795 
0.0076344 0.00314877 0.0480713 
0.0123406 -0.0049386 0.0708021 
0.000124164 -0.000373386 -0.00031944 
9.4633e-05 -0.000296908 -0.000101853 
4.43244e-05 -0.000199942 0.000651588 
-0.00125291 -0.000970768 0.0183518 
-0.00010558 -0.000206014 0.0004384 
-0.000238604 -0.000477826 -0.00180783 
-0.000294734 -0.00058036 2.24949e-05 
0.00149647 -0.00266496 0.0232073 
0.0282147 -0.0277691 0.0382739 
0.00632137 -0.0017736 0.00311492 
0.00809886 -0.00708016 0.0100898 
-0.00548681 -0.011326 0.00385323 
-0.000195513 0.000680143 0.000143261 
0.000980075 -0.00323116 0.0324573 
-0.000272501 0.00131905 -0.000472942 
0.00206529 -0.00395719 0.0240809 
0.000884302 0.0166581 0.0542195 
0.00947064 0.0166669 0.0701981 
-0.00931028 0.0212121 0.0798951 
0.00504836 0.00991972 0.0517444 
-0.0154691 -0.0176257 0.0871347 
-0.0285508 -0.033573 0.0658298 
-0.00795556 -0.0220275 0.0250538 
-0.0247274 -0.0186665 0.0600063 
0.000209375 -0.00020587 0.0183861 
0.000349959 -0.000612279 0.000409607 
-0.00220061 0.00195417 0.0314841 
-0.00146083 0.00104118 0.0227826 
0.00454859 -0.0103809 0.091075 
-0.00508153 -0.0229811 0.0882294 
-0.0154038 -0.0119848 0.0846639 
0.00833438 -0.0153296 0.0667054 
-0.000288237 0.000525088 0.0639158 
-0.000636228 -6.88906e-05 0.0777554 
0.000191084 0.000201781 0.0738399 
0.00403815 0.00299493 0.0789657 
-0.0311197 -0.0235983 0.134438 
-0.007317 -0.0199177 0.0856481 
0.0470618 -0.0323266 0.118524 
-0.0154566 -0.0259984 0.165159 
-0.00246785 -0.021308 0.0239303 
-0.0212869 -0.0294784 0.0600152 
-0.00943912 -0.0168092 0.00859237 
-0.028977 -0.0192386 0.0608971 
0.00583801 -0.00587774 0.0426275 
0.00121826 -0.00660117 0.0603767 
-0.0008164 -0.00488482 0.0334003 
0.00214733 -0.0120248 0.062235 
0.00376943 0.00464902 0.0366317 
0.00132008 0.000183118 0.0274525 
0.00580695 0.00584652 0.0269148 
0.0087097 0.00372178 0.0472968 
0.0133976 -0.00335901 0.034154 
-0.00415331 -0.0471594 0.0694772 
0.0277444 -0.0021865 0.0601739 
0.0513571 0.0150264 0.135466 
-0.0055728 0.00999344 0.0690297 
-0.00543935 0.00440665 0.0593166 
-0.00609494 0.00426882 0.0323341 
-0.00128816 0.00459684 0.0483213 
0.000117983 0.000331161 0.0731574 
-0.00339169 -0.00422285 0.0844964 
-0.00414474 -0.00238579 0.0761868 
-0.00244971 -0.0048276 0.0709033 
0.0226202 -0.0487692 0.0457392 
-0.0118207 -0.0178736 0.0449043 
0.00901783 -0.0291328 0.0598592 
-0.000203712 0.0024181 -0.0209348 
-0.0074465 0.0104856 -0.0498794 
-0.000471678 0.0681968 0.0226135 
0.0214546 0.0193936 0.101734 
0.0207562 0.0533663 0.163882 
0.000790194 0.00779693 0.122735 
-0.0164282 0.00807124 0.0747503 
-0.0172109 0.00412062 0.11934 
-0.0187302 0.020901 0.113461 
0.00571999 0.00489117 0.0191664 
0.00572137 0.00237302 0.0179022 
0.00402747 0.00597841 0.0368834 
0.000925265 0.00228405 0.022707 
-0.000249583 -0.000229833 -0.00175177 
-0.000122457 -0.000120499 0.000368876 
-0.000310603 -0.000297339 -0.000382633 
-0.00184387 0.00193197 0.0169277 
-0.000643225 0.000448252 0.0842029 
0.0037541 0.000730585 0.0906831 
0.00110304 -0.000681824 0.0757384 
0.00356192 0.00185571 0.0798507 
0.000220726 3.19229e-05 0.000207749 
0.000234841 -9.42937e-05 0.000238765 
-0.000341593 7.25182e-06 0.0201554 
-0.00159621 -0.000437464 0.0313666 
7.42961e-05 0.000166255 0.0215707 
7.75248e-05 -0.000279718 0.0221151 
-0.000632394 0.000107272 0.0418676 
-0.00153968 0.000789988 0.0229149 
0.000376616 0.00104783 -0.00140105 
-0.0089605 0.020958 0.0165238 
0.00250601 -0.00294894 -0.00495615 
-0.00907365 0.0092517 0.00792428 
0.00547817 -5.6873e-05 0.0941735 
0.0051333 -0.00149745 0.0759443 
-0.000779581 2.35226e-05 0.072049 
0.0046318 0.00241052 0.0811928 
-0.0158329 0.00576235 -0.033699 
0.0358621 -0.0116517 0.000239392 
0.0155327 -0.00864976 0.0402384 
0.0821767 -0.024846 0.184031 
0.00738948 0.00916178 0.077476 
0.00113028 0.00564349 0.0572528 
-0.0052936 0.00937699 0.0733698 
0.00048088 0.0138782 0.086198 
-0.000117212 9.50845e-05 0.0363041 
0.00264957 -0.00281504 0.0473701 
0.00153447 -0.00132025 0.0251955 
0.00266434 -0.00274376 0.0491655 
-0.00274615 0.00154538 -0.00293971 
0.00451648 -0.00409053 0.0153505 
0.00565058 -0.00311521 0.0175004 
0.00339271 -0.00144349 0.00465067 
-0.0160165 0.0149625 0.236094 
-0.0352527 0.0390069 0.118961 
-0.00703786 0.0407204 -0.0446776 
-0.0289078 0.00346762 0.0927006 
-0.000103526 3.49281e-05 0.0219658 
0.000243076 0.000169678 0.000436413 
0.000310326 6.25494e-05 0.000345414 
-0.00195216 -5.39761e-05 0.0310293 
0.0017789 -0.00129183 0.0258018 
0.000929075 -0.00139845 0.0272451 
-0.000405457 0.00110825 -0.000642957 
0.00336193 -0.00268485 0.0228881 
-0.00307806 0.00164913 0.0827197 
-0.00339672 0.00675274 0.120683 
-0.0155981 0.000731498 0.118388 
-0.00115465 -0.00715811 0.105614 
-0.0151575 0.00804869 0.076201 
-0.0202709 0.0152302 0.0943595 
-0.012452 0.013978 0.0530268 
-0.0165051 -0.000533287 0.0682678 
-0.00482677 0.00482423 0.0340125 
-0.00437904 0.00582934 0.0249868 
-0.00041163 0.00306051 0.0351893 
1.09629e-05 0.000198394 0.0239739 
-0.00219778 -0.000622135 -0.00453253 
0.00187781 -0.00134724 -0.00422794 
0.0145341 0.0217471 0.0222831 
-4.4979e-05 0.00567142 0.00345952 
-0.000199119 -0.000158885 0.000323418 
5.94545e-05 -0.000129704 0.0213342 
0.000159526 4.07869e-05 0.017881 
0.000829228 0.00120488 0.0275371 
0.000848742 0.000496222 0.0751317 
-0.00560595 -0.00498217 0.0602763 
0.000166138 0.000249109 0.0583667 
-0.00374522 -0.00444423 0.0697466 
2.72299e-05 3.82582e-05 0.00156694 
0.00046239 0.0004552 0.000488174 
5.78087e-05 5.16443e-05 -0.000646212 
0.000871583 -0.0018602 0.0154064 
-0.000390536 0.000380991 -1.36616e-05 
0.000146842 -0.000140489 0.000347062 
6.91331e-05 -8.2949e-05 -0.00191571 
-0.00125144 -0.00103539 0.0201945 
-0.065934 -0.00452423 0.0202166 
-0.0663956 0.00501719 0.132964 
-0.00135572 0.000475866 -0.0181983 
0.0192089 0.0143977 0.0316202 
0.000783244 -0.000832864 -0.00276026 
0.000494413 -0.000701295 -0.000759054 
-0.00182431 0.0043157 0.0202491 
-0.00418137 0.00514527 0.0230686 
-0.00612803 -0.00517469 0.0597784 
-0.00518869 -0.000270382 0.0762359 
-0.00423731 -0.00525895 0.0850807 
-0.000993909 -0.00675988 0.0706333 
1.66757e-05 -0.000117686 0 
-0.000684807 -0.00255884 0 
0.00181169 0.00150674 0 
0.00391431 0.00646994 0.00384943 
0.000194156 3.86124e-05 -0.000219342 
0.000241491 0.00011706 -0.000245264 
-6.10553e-07 0.000100613 -0.000111064 
-3.80724e-06 -0.00175821 0.00109549 
-0.00036852 0.000300349 -5.83041e-05 
-0.000117097 0.000659961 -0.000631594 
-0.00115855 0.000975975 -0.000399101 
-0.00442892 -0.00171109 0.00397604 
0.000117644 -0.000148707 -0.00180733 
0.000183536 -0.000255259 0.00066982 
0.000434562 -0.000592611 -0.000179852 
-0.0020186 -0.00215383 0.0150818 
-0.000107718 0.00010046 -0.000501894 
-9.64368e-05 0.000102365 0.000466275 
-7.3811e-05 8.10199e-05 0.00055375 
-0.000800311 -0.00130177 0.0307322 
-0.000927058 -0.0167518 0.0580185 
0.00776113 -0.0210934 0.0466002 
0.0100665 -0.00503244 0.0122891 
0.0177184 -0.0199624 0.0642569 
0.000112943 -6.00746e-05 0.0508669 
0.000215194 0.000417573 0.0603499 
-5.72162e-05 -0.000329935 0.0677145 
0.00454749 -0.00182523 0.0737059 
0.000731076 -0.000330079 -0.000388091 
-3.26063e-05 -0.000734138 0.000658189 
-0.00347487 0.00247259 0.022853 
-0.00159818 0.000409367 0.0217111 
9.60986e-05 0.00137177 0 
0.000589245 -0.000715824 0 
0.00199125 -0.000230546 0 
-0.000782695 0.00315726 0.000945581 
0.00540512 0.00131486 -0.00583185 
0.0174616 -0.0146065 0.0131924 
-0.000734049 -0.0532288 0.052265 
0.00714022 -0.011377 0.00170232 
-0.0261871 -0.00493704 0.294669 
-0.0427524 -0.00456146 0.197375 
0.0256481 0.0796638 0.140663 
0.0146234 0.085672 -0.0194157 
-0.0215701 -0.0267155 0.117641 
-0.0202683 -0.0157403 0.0811213 
-0.011418 -0.0150021 0.0816684 
-0.0244904 -0.020922 0.0613077 
-0.0139363 -0.0104613 -0.0273965 
0.0278761 -0.00793224 0.0367056 
0.0227755 -0.0109746 0.012575 
0.081768 -0.0273837 0.169128 
-0.00018734 -0.000791062 -0.00120353 
0.00149531 0.00158535 0.0263558 
0.00399054 0.00264602 0.0192147 
0.000705403 0.0011587 0.0229172 
-0.0230244 0.0309671 0.107685 
-0.0350794 0.0263089 0.0593207 
-0.0144137 0.0194988 0.0266575 
-0.0271881 0.0494463 0.058568 
0.00707762 0.0051742 0.241035 
0.0291141 0.0491799 0.240628 
-0.0247399 0.00115909 0.303024 
-0.0229241 -0.0188847 0.257044 
-0.000127112 0.000110029 0.00113976 
-0.000923603 0.000653648 8.46675e-05 
-0.000328978 0.000212726 -0.00109949 
0.00496761 -0.00121279 0.00958654 
-0.000797809 0.000198607 0.0437767 
0.00502449 0.00326408 0.0528523 
-0.000124239 -6.09668e-05 0.0568391 
0.00413259 0.00279062 0.054011 
-0.000251154 0.000718334 -4.30663e-05 
-0.00164137 -0.0016092 0.0292503 
0.000849934 0.000418186 2.63661e-05 
-0.00158576 -0.00171518 0.0202846 
0.0163547 0.00537826 0.0488162 
0.0183952 0.0226767 0.0428868 
0.00568353 0.00472886 0.0218605 
0.0177604 0.0111192 0.0693089 
0.000947215 -0.000770269 -0.00128992 
-0.00129734 0.00145339 0.0043375 
0.00123918 -0.00062475 -0.00154986 
-0.000951934 0.00240538 0.00226177 
-0.0010873 -0.000182752 -0.00155859 
-0.000606713 -0.000103035 0.00148818 
0.00177204 0.00635981 0.00557875 
0.00101242 0.00412636 0.00997836 
-0.000296178 0.0163058 0.0902442 
-0.00554754 0.0108861 0.0493803 
-0.00989738 0.020198 0.0769251 
0.00770142 0.0111503 0.054635 
0.00730636 -0.00666773 0 
-0.00578271 0.00705858 0 
-0.00339504 0.00642326 0 
0.0315539 -0.0193469 0.0154849 
-0.0104756 -0.0940263 0.167459 
-0.00361026 0.0268877 0.13553 
0.00247012 0.0099317 0.307292 
-0.0375723 -0.110998 0.00592809 
0.00259233 -0.00206845 0 
-0.000481964 0.000265837 0 
0.00650948 -0.00262778 0 
-0.00910547 0.0194572 0.00965874 
0.000796512 0.000507694 -0.00148398 
0.00133657 0.00150138 -0.0013393 
-0.00226125 -0.00191089 0.00456645 
-0.00129091 -0.00294533 0.00278439 
3.03796e-06 -4.8253e-05 0.0180038 
5.17525e-05 7.66819e-05 -2.31574e-06 
6.90936e-05 7.87442e-06 0.0209622 
-8.74857e-05 -0.000940058 0.0254608 
-0.00712111 -0.0254419 0.0229428 
-0.0343731 -0.0230058 0.113298 
-0.0236707 -0.0058703 0.0549187 
-0.00474667 -0.0370126 0.0320426 
-0.000166941 0.000462446 0.00030363 
0.00115555 -0.00128684 0.0259706 
-8.66966e-05 0.000195846 0.0198087 
0.00159287 -0.00137267 0.0273822 
-0.000621243 6.52278e-05 0 
-0.000549869 2.34528e-05 0 
0.000361263 0.00031996 0 
0.00330805 0.00123459 0.000815151 
-2.78975e-05 -0.000100556 -0.00130257 
-0.000138815 -0.000298586 0.00173942 
-0.000292452 -0.000734119 -0.000616251 
-0.000659954 0.00702366 0.0113782 
-0.000452631 0.000151085 0.0610458 
0.00126624 -0.0062236 0.060407 
0.000893794 0.000235141 0.0694299 
0.00214917 -0.0046318 0.0795205 
-0.00015197 -0.00318194 -0.000421958 
-0.00503174 0.00362335 0.0161721 
-0.00428898 0.00515456 0.0314289 
-0.00475746 0.00581004 0.0230305 
0.000198682 0.000776844 0.0392925 
0.00463998 -0.00328064 0.0479799 
8.17076e-05 -0.000167553 0.0502962 
0.00195426 -0.00122145 0.0263292 
-0.00509715 0.0029752 0.00101405 
-0.0284012 0.0234096 0.0423174 
-0.00466589 0.0111362 0.00546344 
0.00673802 0.0130127 0.0139525 
-0.000968108 -0.00084735 -0.000162053 
0.00704731 0.00710463 0.0112487 
-0.0027558 -0.000719592 -0.000940239 
0.00560491 0.00663891 0.0214954 
-0.000955375 0.00540113 0.116103 
-0.00616854 0.00248632 0.0887113 
0.00647076 -0.00186899 0.0940685 
-0.00168409 -0.00429965 0.106039 
-0.000936341 -0.00200197 0 
-0.000464176 -0.000769886 0 
-0.00266009 0.000796816 0 
0.0031929 0.000132682 0.00163064 
0.00813095 -0.00415738 -0.00748363 
0.025003 0.0155506 0.0417338 
-0.00546613 -0.0011507 -0.0153313 
0.023167 0.0399659 0.0432662 
0.00431451 -0.000916933 0.0373269 
0.00163068 -0.0013648 0.0265354 
0.000184802 -0.000180348 0.0386221 
0.00109591 -0.000103068 0.0246942 
3.24038e-05 6.30098e-05 0.0197353 
-0.000102586 -9.78536e-05 0.0215018 
0.000131992 0.000223543 0.000255061 
0.00107357 -0.00114863 0.0271925 
0.00416512 -0.00495184 0.00729914 
0.0049699 -0.00741646 0.00444434 
0.0210598 -0.0398528 0.0515613 
0.00146255 -0.0129572 0.00540374 
-6.79927e-05 0.000696045 -8.33218e-05 
-0.000466878 -0.0032004 0.0327458 
3.47388e-05 0.000237877 0.000584974 
-0.000799711 -0.000626011 0.0248151 
6.41062e-05 -0.000262217 0.0820689 
-0.000180679 0.000748196 0.0850439 
-0.000960025 -0.000553602 0.0875173 
0.00295706 -0.000445334 0.0871398 
0.000714629 -4.03549e-05 0 
0.00236917 -0.000443272 0 
-0.00136841 0.00102719 0 
-0.00868013 0.0032614 0.00290193 
-0.0126358 -0.00421767 0.0807987 
-0.00204875 0.00473756 0.0906602 
-0.0168982 -0.00325668 0.108184 
-0.00340739 -0.00414635 0.107857 
0.00436801 -0.00327481 0 
0.00450962 -0.000374398 0 
-0.00184444 0.00353564 0 
-0.0371106 0.014799 0.0107327 
0.000257279 2.35745e-05 0.00021736 
-4.0917e-05 -0.000254856 0.0207335 
-3.84092e-05 0.000122362 0.0222628 
-0.00209248 -0.000138321 0.0307568 
-0.0326572 -0.0264524 0.0403349 
-0.0541233 -0.0221499 0.0897786 
0.00464747 -0.0251267 0.0380032 
0.00275099 0.00659156 -0.0240924 
-0.000108814 8.84455e-06 0.000230007 
0.000295661 -2.40317e-05 -0.0003199 
-0.000216297 1.75809e-05 0.000535173 
2.50685e-05 -0.00150255 0.0322186 
0.000450613 2.74325e-05 0 
0.0011002 -0.000407573 0 
-0.00187387 0.00154067 0 
0.00432673 -0.0028513 0.00222411 
-0.00122533 0.000662683 -0.000944674 
-0.000345917 0.000613002 2.23124e-05 
0.00117929 0.000123558 0.00144632 
0.00402942 0.000369024 0.00236555 
-0.00277844 -0.00386315 -0.00663798 
0.00179804 0.00289193 0.0046723 
-0.00137426 0.00755181 0.00307622 
0.00180396 0.00687591 0.00945197 
-0.00467157 -0.021733 0.163237 
-0.00855028 -0.0258997 0.00181859 
-0.0430056 -0.0460515 0.160149 
0.00920069 -0.0571295 0.0438687 
-0.0306481 0.0699535 0.281415 
0.0109967 0.0171746 0.264514 
0.0518945 -0.028498 0.163738 
0.112615 0.00663003 0.105636 
0.00571131 0.00507174 0.0390476 
-0.00176628 0.00386575 0.0357421 
0.000851415 0.00578067 0.0585146 
0.00367621 0.00995007 0.0510181 
-0.00498845 0.00461594 0.0328266 
-0.0124517 0.00978877 0.0384104 
-0.00570107 0.00360982 0.0131198 
-0.00389687 0.00438563 0.0211433 
0.000783339 0.004266 0.426853 
0.0363597 0.031586 0.310371 
0.0138711 -0.0108215 0.273886 
0.0323856 0.0634042 0.270793 
-0.00155524 -0.000699548 -0.00461295 
0.00673772 0.00546044 0.0264237 
-0.00087123 -0.000419634 -0.000899439 
0.00447096 0.00206148 0.0219721 
-0.00157095 0.00024788 0 
-7.40078e-05 -0.000582531 0 
-0.00157333 0.000698541 0 
0.00195935 0.000690171 0.000966222 
-0.00561421 0.00495968 -0.00687953 
0.000771712 0.00140354 0.000227079 
0.0234346 -0.0133 0.0169093 
0.00890314 -0.0035641 0.00786662 
0.00548147 0.00708922 0 
-0.0228202 -0.00365821 0 
-0.000638499 0.00585659 0 
-0.0482776 -0.0276591 0.0544488 
0.000249792 -0.000150926 0.000178389 
-0.00054543 7.29055e-05 -0.000197485 
0.000308235 -0.000916926 -0.000200377 
-0.000636433 -6.01884e-05 0.00108408 
-0.00201957 0.00322341 -0.00293101 
0.00123476 -0.00209896 -0.00136349 
0.00647435 -0.00508623 0.00764015 
0.006589 -0.00809637 0.00800789 
-0.00335544 0.00036088 -0.00254866 
-0.0046774 0.00112113 -0.00481055 
0.0082942 -0.00795226 0.00921119 
0.0102807 -0.00462937 0.00911448 
-0.00334682 -0.000656041 0.0302662 
-0.00572345 0.000201423 0.057459 
-0.00643197 0.00415374 0.0445234 
-0.0117957 0.00100721 0.061559 
0.00110149 -0.000888892 -0.000469364 
-0.0048495 0.000870135 0.00578626 
-0.00661455 0.00268229 0.0110551 
-0.00367079 2.54142e-05 0.00230407 
-0.0210487 -0.0285711 0.124012 
-0.0118517 -0.0137891 0.0825887 
-0.0158754 -0.00535011 0.111507 
-0.000440609 -0.00155682 0.110869 
-0.000274715 0.00313774 -0.00144658 
0.00235854 -0.00732421 0.0209605 
0.00541709 -0.00693907 0.0204605 
0.00277677 -0.00116448 0.0217711 
-0.000153464 -0.00322291 -0.0126638 
-0.00793703 0.00880771 0.0133688 
-0.00385701 0.00461291 -0.00235466 
-0.0247404 0.0211908 0.0358457 
-0.000951322 0.000448345 0.00054053 
0.000471633 -0.000223751 -0.000148434 
-0.000428117 0.00022853 -0.00192378 
-0.00309716 -4.70896e-05 0.0154884 
-0.000311469 -0.000107886 0.035878 
0.00171163 -0.00142203 0.0273787 
0.0017132 -0.00137143 0.0255095 
0.00232002 -0.00298806 0.0474542 
-0.000273731 0.000266573 0.000207323 
0.00010772 0.000157349 -0.000188234 
-0.000138227 0.000731107 -0.000465439 
-0.00142536 -0.000567894 0.00184639 
0.0638577 0.0496579 0.199806 
-0.0280972 0.0141296 0.329539 
0.0340691 0.0586004 0.276747 
0.0915522 0.0830049 0.0793491 
-0.0105614 -0.0909823 0.147623 
-0.0619826 -0.0672053 0.286447 
0.0283998 0.00759276 -0.0433707 
0.0154096 -0.0522141 0.05218 
-0.00298992 0.00818971 0.064026 
-0.0119312 0.019003 0.0723616 
-0.0159755 0.0227724 0.108234 
0.000395366 0.0158231 0.0945454 
-0.0119019 -0.0132764 0.0807493 
-0.00577257 -0.00526319 0.0574272 
-0.0100062 -0.0051581 0.0804717 
-0.00213679 -0.00379234 0.0876543 
0.00706129 -0.00674651 0 
-0.00194579 -0.0103598 0 
-0.00133284 0.00131397 0 
0.0145383 0.055143 0.0223556 
0.00033656 -0.00018932 0.0543772 
0.000494677 -3.96645e-05 0.0375058 
-0.00439475 0.00462943 0.0586389 
-0.00265579 0.0032136 0.0488652 
-0.000312314 0.00061281 -0.000312132 
-0.000530231 0.000610349 -0.000348747 
-0.000975795 0.000718838 -0.00011452 
-0.0051968 -0.00260147 0.00370357 
-0.00015346 -1.36081e-05 0.0162316 
0.000201721 1.53667e-05 0.000614796 
6.57058e-05 -1.97268e-05 -0.000161071 
-0.000882854 -0.000457776 0.0243515 
-1.06654e-05 -0.000575194 -0.00101734 
0.00300638 0.00207697 0.0200768 
-0.000363031 -0.00043715 0.000364181 
0.00135187 0.00133195 0.0217496 
0.00911812 0.0188329 0.02605 
0.00110214 0.00791103 0.00126722 
0.00669002 0.00643006 0.0285909 
0.00232894 0.00239825 0.0102977 
0.00017078 0.0116446 0 
-0.00229306 -0.00192913 0 
0.00568338 -6.29225e-05 0 
-0.00681955 0.0308594 0.0146999 
-0.0055487 -0.00336263 0.0370124 
-0.00569763 -0.00577499 0.0196775 
-0.00499735 -0.00699879 0.0157612 
-0.0105052 -0.0082163 0.0434343 
0.000819885 -0.00103437 -0.000844547 
-0.0046948 0.0023757 0.00664819 
0.00124377 -0.000406511 1.4913e-05 
-0.00565703 0.00120066 0.0114217 
-0.0111737 0.00888303 0.0744386 
-0.00783284 0.00412815 0.0434001 
-0.00553747 0.00534704 0.0592044 
-0.00532128 0.00210267 0.0719301 
-0.000255993 -0.000499436 -0.000563618 
4.59263e-05 5.18166e-05 0.000618845 
-5.45863e-05 -1.33248e-05 -0.00139684 
0.00139948 -0.00409296 0.022136 
0.000574111 0.000263441 -0.000151042 
5.29772e-05 0.000313872 0.00035479 
-5.81367e-05 -0.000486308 -0.000199011 
-0.000735866 -8.4914e-05 0.00146569 
0.0071555 -0.0164084 0 
-0.00233444 0.0177513 0 
0.00287584 -0.0393061 0 
-0.0128256 -0.0707721 0.0760445 
-7.56784e-05 -0.00018138 0.0222608 
-0.000424954 0.00267436 0.0345769 
-0.000203266 0.000793566 0.0441425 
0.000401675 0.000708684 0.023885 
0.0021065 -0.00121507 0 
0.00165781 -0.000503442 0 
-0.000703887 0.0015421 0 
-0.00246888 0.00349806 0.00305546 
0.000365156 0.000156716 -0.000428861 
0.000161652 0.000684779 -0.000424004 
-0.000380775 0.000644408 -0.000449568 
-0.00122867 -0.00113568 0.00295354 
-0.000269501 -0.00339741 0 
0.00176496 -0.000386176 0 
0.00198313 0.00797678 0 
-0.000642102 -0.0076392 0.00174061 
0.0027225 0.00380715 0.0363362 
-0.00487256 0.00586703 0.0244241 
-0.00791897 0.0040529 0.0329664 
-0.00544441 0.00951101 0.0481911 
-0.00151215 -0.00141971 -0.0116058 
0.00890722 0.0119685 0.0108961 
0.00280288 -0.00124964 -0.000698583 
0.0205484 0.0214561 0.0360026 
-0.0247225 -0.016396 0.0816697 
-0.0221896 -0.00926164 0.115064 
-0.0075339 -0.0123594 0.0803494 
-0.00984536 -0.0109457 0.0589365 
-0.00175109 0.00447528 0.00136518 
0.00689983 -0.00343151 0.00303282 
0.0115966 -0.0169715 0.0142904 
0.0112968 -0.0152461 0.0284992 
0.0207596 -0.0397257 0.00124402 
0.0263765 -0.0291328 0.0791053 
0.0346261 -0.0361679 0.115006 
0.0202526 -0.0432241 0.115885 
-0.000388864 -0.000256755 0.0588414 
0.000585677 0.000271758 0.0381704 
-0.00498832 -0.00426836 0.0573006 
-0.00281509 -0.00245141 0.0401975 
-0.000242616 -0.00023408 0.0621751 
-0.000144379 -0.000258904 0.0434121 
4.1735e-06 0.000561173 0.057727 
0.00381533 0.00247589 0.0534645 
8.80373e-05 0.000332175 0.000310475 
-0.000131401 -0.000531003 0.000266721 
-0.000162693 -0.000458642 -0.00379208 
-0.00255453 0.00806743 0.0151848 
0.00602665 0.00855154 -0.00417613 
0.00374094 0.0093437 0.00377485 
-0.00526919 -0.0140639 0.007494 
-0.00379169 -0.0151777 -0.00313791 
0.0200888 0.0160949 0.0506129 
0.00411736 0.00970959 0.0770382 
0.0151833 0.0172495 0.0984227 
0.0110377 0.0155616 0.0667642 
0.0172081 0.00348327 0.0483946 
0.0195202 -0.00964229 0.0552416 
0.0179456 -0.0311938 0.0683727 
0.0135399 -0.0158471 0.0341865 
0.000194578 -0.000273367 0.000311983 
0.00012157 -0.000150621 0.00124473 
-0.000125538 0.000172619 -0.00039647 
0.000340399 0.00267422 0.0131449 
0.00217988 0.00320218 -0.00204079 
-0.0148452 0.0264043 0.0430278 
-0.00143917 -0.00631288 -0.013591 
-0.0106912 0.0495455 0.0292559 
0.08817 -0.0432965 0.132918 
0.00972482 -0.00178593 0.136576 
0.0380681 -0.0218609 0.00445405 
0.00890689 -0.00341303 0.147359 
-0.00419106 0.00327262 0.0319767 
-0.00140124 0.000782676 0.0228882 
-7.29098e-05 -0.00124955 -0.000524875 
-0.000587501 0.00155096 0.0260045 
0.0219972 0.0177348 0.213667 
9.9421e-05 0.0196979 0.273269 
0.0146008 0.0616239 0.0835125 
0.051911 0.000202191 0.0712236 
0.00564849 0.0107931 0.0774391 
0.0111029 0.00216473 0.0765965 
0.015241 0.0114669 0.0901667 
0.00388158 0.00261764 0.0815641 
0.00736482 0.00843795 0.0160205 
0.00682973 0.00627466 0.0291563 
0.012986 0.0193906 0.0299305 
0.000382555 0.0103189 -0.00553983 
0.000305911 2.63126e-05 0.00112033 
-0.000250131 -2.15148e-05 -9.94278e-05 
0.000424775 3.65365e-05 0.00034222 
-0.000647027 -0.00181667 0.0170196 
-7.97251e-05 6.37621e-05 -0.00111053 
0.000230223 -0.000170878 0.00049125 
-5.79024e-05 3.93414e-05 0.000621692 
0.00209677 0.000937852 0.0227049 
-0.0233094 -0.0253813 0.123868 
-0.0355277 -0.0265102 0.0559376 
-0.00573969 -0.0264141 0.0906992 
-0.0190824 -0.0221415 0.166518 
0.000262743 0.0270278 0.206848 
0.027724 0.0234587 0.105156 
-0.0251755 0.0212855 0.10366 
-0.036885 0.0522738 0.193012 
-0.000492913 0.00020649 0.0315869 
0.00159447 -0.00129998 0.0268453 
0.000351659 -0.000134778 0.049985 
0.00301927 -0.00215737 0.0488307 
0.0433145 0.0062143 0.13471 
0.0310544 0.0366234 0.0577183 
0.0167811 0.0198103 0.0302025 
0.0485506 0.0290459 0.108257 
-0.00123162 0.00024567 -0.00270279 
0.019658 -0.010982 0.00920214 
7.95294e-05 0.00321352 -0.000890349 
0.00730144 0.00102346 0.0049144 
0.0207998 -0.00283941 0 
-0.00203262 0.00353065 0 
0.000859426 -0.00589328 0 
-0.0552425 0.0140211 0.0124585 
0.000131166 0.00370736 0.0357494 
0.00178265 0.00279399 0.0215454 
0.00330988 0.00556947 0.0391555 
-1.46111e-05 0.000265947 0.0235971 
0.0133016 -0.00724059 0.024649 
0.0137328 -0.0171664 0.017802 
0.00471377 -0.00366509 -0.000717777 
0.0127448 -0.0144811 0.0312049 
0.00203654 -0.00125853 0 
-0.0030042 -0.00414113 0 
-0.00255151 -0.00311365 0 
0.0247772 0.0124497 0.00918711 
0.000681928 -0.00150529 -0.00132931 
-0.00477928 0.00386857 0.0294874 
0.000136687 -0.000773898 0.00112005 
-0.00505653 0.00321282 0.0159904 
0.0187685 0.00215832 0.0430999 
0.00604087 0.00817576 0.0268487 
0.00693624 0.0104651 0.012937 
0.00560643 -0.00138747 0.0221321 
-0.0340475 0.0389364 0.219769 
-0.0138407 0.0116441 0.0879487 
-0.0325553 0.0233011 0.10606 
-0.0403656 0.0471891 0.150025 
-0.00584704 -0.00342415 0.0372512 
-0.00510318 -0.00536805 0.0180524 
-0.0101804 -0.00842271 0.0442793 
-0.00419877 0.00097968 0.018218 
0.0162749 -0.02847 0.0470724 
0.00496338 -0.00891486 0.00524787 
0.00673633 -0.0111139 0.00973562 
0.00991745 -0.0124845 0.0360848 
-9.62479e-05 -0.000104298 0.0216929 
0.000116457 0.000518033 0.000371366 
-7.38302e-05 -6.03734e-05 0.000214338 
-0.00129589 -0.00112611 0.0263526 
-0.0154371 -0.0137168 0.0362723 
-0.0106171 -0.009723 0.00908339 
-0.0258387 -0.0161763 0.0534885 
-0.0245103 -0.0238718 0.0637074 
-0.0435554 -0.0122563 0 
-0.0183099 -0.0148655 0 
0.0469028 0.0199257 0 
-0.0306276 -0.0402325 0.0767897 
0.0143824 0.028586 -0.00217717 
-0.0184524 0.0283841 0.0321937 
0.0190296 -0.00523152 -0.0311153 
-0.0314303 0.0596918 0.0879598 
0.000257793 0.000680382 -0.00189849 
-0.00014659 -0.000379177 0.000765309 
3.26621e-05 0.000113761 -0.00136332 
0.00126304 -0.00539694 0.012066 
-0.0216478 -0.0136775 0.08147 
-0.0105909 -0.00262396 0.0806917 
-0.0187973 -0.00535051 0.113503 
-0.0128842 -0.0142381 0.0600239 
-0.0193785 -0.0119849 0.0874987 
-0.0179865 -0.00503813 0.111787 
-0.0121334 -0.00359687 0.0789452 
-0.0158914 0.00538255 0.0618891 
-0.0253809 -0.0095933 -0.0331195 
0.00818026 0.0081617 -0.0214659 
0.02702 0.0125336 0.0355982 
0.0501823 0.0422053 0.100301 
0.000132413 1.07613e-05 0.00017577 
-0.000217217 -1.76534e-05 0.000630473 
0.000296919 2.41308e-05 -0.000445724 
2.17373e-05 -0.00163012 0.032284 
0.0058719 -0.00479972 0.0652336 
-7.56227e-05 -5.22034e-05 0.0676389 
0.00502235 -0.00276609 0.0762771 
0.00362344 -0.00292796 0.0486406 
-0.00293801 -0.000691201 -0.00233042 
0.00968647 -0.00695399 0.00964064 
-0.00186853 -0.00176826 -0.00314787 
0.00446397 0.00247004 0.00512378 
0.0165976 0.000899948 0.0421227 
0.00408749 0.000341126 0.0167554 
0.0108444 0.00813123 0.022969 
0.00773775 -0.0012678 0.00843343 
1.04687e-05 -1.12683e-05 0.000625316 
-6.31778e-05 6.62282e-05 -0.000932571 
0.000288676 -0.000299743 -0.000333538 
0.00056188 0.0011051 0.0262841 
-5.51673e-05 0.000244277 -0.000118498 
-5.14821e-05 0.000267519 0.000674865 
1.64214e-05 -8.14562e-05 -0.000138327 
-0.000424471 -0.00103252 0.0242313 
-0.0113885 0.0132666 0.0797644 
-0.0121052 -0.00561368 0.0819994 
-0.0177817 -0.00377355 0.109707 
-0.0149256 0.0032796 0.0643781 
0.00379044 -0.0348462 0.147996 
0.00668906 -0.00912751 0.228489 
-0.0064231 -0.0042539 0.152414 
0.0878989 -0.0261145 0.0645525 
-0.0138801 0.024237 0.0254065 
-0.00914504 0.000969561 0.00598267 
-0.00613137 0.0147723 0.0220084 
-0.0121745 -0.00576063 0.0246867 
0.000119403 -5.32796e-06 0.0362492 
-4.91429e-05 0.000451586 0.0427407 
-0.00319154 -0.000124944 0.0305554 
-0.00477836 -0.000333882 0.0557048 
-0.0253039 -0.0183779 0.153104 
-0.00795148 -0.070572 0.0288474 
0.0122248 -0.0260351 0.255319 
-0.0274455 -0.0411002 0.0358843 
0.00425636 0.00410975 0.0364976 
0.00527318 0.00582043 0.022037 
0.00417685 0.00461694 0.0525492 
0.00925067 0.00810061 0.0578657 
-0.0276313 0.0356941 0.0108573 
0.011505 0.0125303 0.15019 
-0.0247619 0.0308083 0.11071 
-0.0353353 0.0506383 0.0684342 
0.00145237 0.000548218 0.0634647 
0.000759772 0.00523702 0.058599 
7.74841e-05 2.40054e-06 0.0774871 
0.000126828 0.00459331 0.0814911 
0.00565474 0.00514966 0.0363935 
0.00611298 0.0106166 0.0750271 
0.00931289 0.014239 0.0651789 
0.00348843 0.00872683 0.0529614 
-0.00278533 0.00498726 0.000226215 
0.0120092 -0.0152138 0.0300374 
0.0122071 -0.0173152 0.0148817 
0.00493919 -0.013989 0.00654748 
0.000250769 -0.000763144 0.0473624 
-0.00153442 -0.0013891 0.0262909 
-1.93518e-05 0.00022855 0.0266011 
-0.00108272 -0.00116573 0.0261022 
9.68845e-05 0.000262423 0.00107065 
5.41561e-05 0.000125328 0.000248601 
-6.45377e-06 -3.12998e-05 -0.000297661 
0.000335228 -0.00317852 0.0237201 
-0.012721 -0.0221026 0.040508 
-0.015051 -0.00224865 0.0524266 
-0.0201042 -0.0166597 0.0771339 
-0.0120807 -0.00860002 0.0427533 
0.00149914 -0.00253687 -0.00405445 
-0.00295371 0.00182977 0.00487617 
-0.00506424 -0.000655436 0.00327039 
-0.00882933 0.000901663 0.00791063 
0.0052228 0.00557719 0.0384491 
0.001173 0.000743617 0.0256605 
0.00433091 0.00459472 0.0232728 
0.0046221 0.00519677 0.0513495 
0.00417845 0.0251759 0.0451652 
-0.0130055 0.0311987 0.132202 
0.0018362 0.0161348 0.0235801 
0.0292731 0.0234336 0.110398 
4.65726e-05 -0.000271011 0.0401154 
-0.000179355 -8.99991e-05 0.0334056 
1.38715e-05 0.000164839 0.0202148 
8.57618e-05 -0.00165468 0.0275869 
-0.0125745 0.00843501 0.0770757 
-0.0118849 0.00352999 0.0665063 
-0.00781822 0.00469514 0.041267 
-0.00527731 0.00217996 0.0716105 
0.0081668 -0.00724807 0.0195411 
0.00100432 -0.00738062 0.0201746 
-0.00194641 0.00543902 -0.00342752 
0.00465082 -0.00819266 0.0076679 
-0.0119533 -0.00965409 0.0448725 
-0.0146697 0.00520872 0.0695837 
-0.0199703 -0.0154532 0.0760628 
-0.0126719 -0.0113742 0.0635384 
-9.94868e-05 -0.00026722 -4.69551e-05 
-0.00031379 -8.32235e-05 4.18229e-05 
-0.000171624 -0.000508306 -1.82811e-05 
-0.00168965 -0.0010398 0.000619769 
-0.000138268 -0.00155755 0 
0.00135105 -0.000872748 0 
0.00195762 -0.000478217 0 
-0.00597371 0.00491153 0.00257795 
-0.00665718 0.0130498 -0.0125585 
0.00886658 -0.0639207 0.0561896 
0.000352366 -0.0316148 0.0148989 
0.00995679 -0.00852068 0.00918986 
1.17683e-05 -0.000137682 -0.000123668 
1.0554e-06 -6.17878e-05 0.000287798 
-3.27853e-06 -3.32752e-06 0.000286454 
-0.00117404 -0.00027028 0.0311701 
0.0537423 -0.0585516 0.040236 
-0.0146811 0.0200793 0.145778 
0.0190924 -0.000386489 0.132654 
0.02712 -0.0413613 0.147587 
-0.00937023 -0.0094552 0.012576 
0.00174145 -0.00754093 0.00197854 
0.00496718 0.000761911 -0.00984116 
-0.00164266 -0.0227081 0.0226275 
-0.00596692 0.00415951 0.0420862 
-0.00398922 0.00380527 0.0218752 
-0.00138591 0.00129003 0.0256464 
-0.00183052 0.0012431 0.0221674 
-0.00463113 -0.000856271 -0.00294196 
0.00882168 0.0060062 0.0109204 
-0.00366775 -0.00121219 -0.00542558 
0.0116276 0.00378218 0.00982617 
0.0136731 -0.00610066 0.0222173 
0.004814 -0.00795602 0.0207519 
0.0259384 -0.010318 0.0310142 
0.0171238 -0.0194801 0.0557824 
0.00100953 0.000214135 -0.00231203 
-0.00318803 -0.00545153 0.0184922 
0.0010091 0.000634566 0.000335208 
-0.00415273 -0.00523068 0.0168536 
-0.00483834 0.018675 0.0506213 
-0.00450126 0.00558221 0.0224189 
-0.00990028 0.00679732 0.017364 
0.000812603 0.00734211 0.0155054 
-0.000448563 0.00144821 8.82558e-05 
-0.00213437 0.000385264 -0.00287006 
-0.00127421 -2.48789e-05 -0.000350525 
0.0073479 -0.00418168 0.0057467 
0.000628507 0.000218373 0.0753677 
0.000434663 0.000425721 0.0586987 
-0.00573113 -0.00490969 0.0595299 
-0.00417958 -0.00317736 0.0751339 
-1.21732e-07 0.000322583 0.000568981 
0.000181213 0.000328736 0.000501535 
-0.00168314 -0.000234054 0.0308776 
-0.00136565 4.28462e-05 0.0228975 
0.016434 -0.0287117 0.0894834 
0.0207038 -0.00853729 0.0978308 
0.020584 -0.0141668 0.15254 
0.0254029 -0.0250964 0.0718509 
0.00455285 -0.00499587 0.0407174 
0.000355086 -0.00166008 0.0272706 
0.00196687 -0.00120253 0.0258522 
0.00314202 -0.00279427 0.0227494 
0.00516996 -0.0197995 0.157353 
-0.0134236 -0.0278088 0.0789609 
-0.0482432 -0.0266883 0.0322433 
-0.00759661 -0.020022 0.183995 
-0.00565922 -0.00326874 0 
0.000495653 -0.00575878 0 
0.00324625 0.00328569 0 
0.0222779 0.0336688 0.00781773 
-0.0181124 -0.0611397 0.0275763 
0.0356135 -0.0423975 0.0871322 
-0.033698 -0.00473105 -0.0530754 
0.0478939 -0.0633426 0.175136 
0.000536969 -0.000634943 0.0012029 
0.00739039 0.00292166 0.0121901 
-0.00138847 -0.00217681 -0.00276715 
0.00774243 0.00414971 0.00641064 
0.00636605 -0.00576835 0.0652965 
0.00575946 -0.00241245 0.0768881 
0.00545551 -0.00362001 0.0492181 
0.00284162 -0.00264839 0.0481808 
0.0126371 -0.00842064 0.0201479 
0.00572918 -0.00185822 0.00422801 
-0.0011166 0.000434581 -0.00269176 
0.0119136 -0.0159617 0.0279907 
-0.000214041 0.000721435 0.000519315 
0.00402764 -0.00243932 0.0202854 
-0.000140341 0.000674077 -0.000675723 
0.00138887 -0.00126104 0.0244801 
0.114929 0.02916 0 
-0.10149 -0.0461786 0 
0.0770904 0.0152858 0 
0.0215927 -0.0294355 0.246323 
-0.0634734 -0.00315516 0.0267204 
-0.0150154 0.0162443 0.10098 
-0.00708266 -0.00546685 -0.0502646 
-0.0596221 0.0112045 0.165723 
-8.67818e-05 -0.000230233 0.0359607 
0.00348594 0.00371436 0.0512742 
6.64969e-05 -0.00017043 0.0449547 
0.00160287 0.00157172 0.0265462 
0.0134364 -0.00998523 0.0247872 
0.0135133 -0.0127297 0.0153395 
0.0216881 -0.00738306 0.0233809 
0.00461952 -0.00173321 3.76038e-05 
-7.88799e-05 9.92438e-05 0.0164551 
4.55435e-05 0.000178299 0.0215874 
0.000175109 -0.000236524 0.0356457 
0.00145321 -0.000955049 0.0266821 
0.000397173 0.000668859 -0.000358376 
0.000417853 0.000285351 0.000762442 
-0.00268927 -0.00216505 0.0308775 
-0.00154144 -0.00104397 0.0257858 
0.000293102 0.00039939 -0.00031802 
0.000181236 0.000250874 0.000255954 
0.000278713 0.000368851 -0.00156603 
-0.00197644 0.00125212 0.0155579 
0.000106096 -6.81183e-05 0.0222471 
5.50109e-05 0.00016953 0.0219525 
0.000316165 -0.000101291 0.000200982 
-0.00155937 0.000572867 0.0225942 
0.0038926 0.0286116 0.121843 
0.00173995 0.0126514 0.119636 
-0.0166091 0.0236227 0.110659 
-8.30993e-05 0.0140625 0.0903527 
-0.0179251 -0.0147818 0.0322982 
0.0166 0.018822 -0.0220734 
-0.0720425 -0.0296562 0.1081 
0.00393554 0.00089097 -0.0332208 
0.00193341 0.00122181 -0.00560759 
-0.00654401 -0.00635338 0.0105457 
-0.00314904 -0.00220831 0.00598649 
-7.1761e-05 -0.00599666 0.00323518 
0.00841634 -0.00767047 -0.0215873 
-0.0132979 0.033558 0.0335375 
-0.0103685 0.00138432 0.00398587 
-0.0221508 0.0419442 0.0488152 
0.00833598 -0.0123427 0.0146684 
0.00472731 -9.62568e-05 0.0033589 
7.32322e-05 0.000298972 0.000684657 
0.00174282 -0.00963879 0.00629898 
-0.000987354 0.0154764 0.053372 
-0.0141835 0.0195045 0.0762261 
-0.00499928 0.00994647 0.048554 
0.00953476 0.0115675 0.0550414 
-0.000492377 -0.000107111 0 
0.00086006 0.00011154 0 
0.00238392 -0.000949183 0 
-0.00975531 -0.000339041 0.0035456 
0.00790334 0.0237137 0.110352 
-0.0175277 0.0182825 0.0796565 
0.0147303 0.0189037 0.0699447 
0.00143339 0.0177495 0.0904615 
-0.00858987 -0.0136907 0.0808837 
-0.0179849 -0.0044241 0.113101 
-0.0126972 -0.0052232 0.0814783 
-0.0130288 -0.0142497 0.0602956 
-0.000683642 0.000200032 -0.00484394 
-0.0112513 -0.0209864 0.0136781 
0.00503102 -4.17068e-05 -0.00276538 
0.00240152 -0.0071687 0.0128541 
0.00945477 0.0194928 0.0620179 
-0.0318827 0.0126126 0.0367473 
-0.0156716 0.0208946 0.0683706 
-0.020484 0.0202336 0.0925873 
0.000200462 1.89642e-05 0.0734881 
0.000527065 -0.000101273 0.0628912 
-1.83687e-05 0.000342712 0.0577336 
0.00401461 0.00277157 0.0774193 
-0.0129626 0.0086793 0.0772872 
-0.0148601 0.0122488 0.0525413 
-0.00454596 0.00315652 0.0397195 
-0.0142848 0.00344611 0.0670915 
-0.000763063 -0.000898679 0.00154661 
-0.00139038 -0.0044342 0.0042158 
0.000963194 0.000730105 -0.00109879 
0.000633327 -0.00249137 0.00389057 
0.0289477 0.00740931 0.0365962 
0.0120355 0.0100067 0.0111477 
0.0024237 0.00272202 0.00565997 
0.037279 0.0206151 0.0541831 
-0.0528472 -0.0397869 0 
0.044952 0.0353543 0 
-0.0453096 -0.0159377 0 
-0.0469503 0.00352407 0.148054 
-0.0371529 0.0429493 0 
0.0392411 -0.0384073 0 
-0.0186607 0.0404529 0 
-4.75502e-05 0.0557414 0.126725 
-0.000452933 0.00030799 0.000330527 
0.000252753 -0.000171334 0.000885801 
3.8311e-05 -2.67166e-05 -0.0013564 
-0.00194016 -0.000917573 0.0302955 
-9.13867e-05 0.000417705 -0.000162053 
-0.000592413 -0.000568907 -0.000371771 
0.0003126 -0.000921352 -0.000423535 
-0.000518274 0.00143011 0.00145892 
0.0404278 0.0975795 0.266038 
-0.0775039 -0.0415279 0.250823 
-0.00482295 0.0179156 0.268852 
-0.0719143 -0.0320893 0.158217 
0.0200457 0.00735629 0.144771 
0.0141218 0.0141666 0.105484 
0.0490486 0.0591103 0.0488062 
0.0033232 -0.0246816 0.200864 
0.000290947 -0.000479524 0.000632928 
-0.000932628 -0.000341584 -0.000121705 
0.000323514 -0.00354215 0.00299053 
0.000178321 -0.00171639 0.00102595 
0.00843602 -0.00798514 0.224931 
0.0155939 -0.0230907 0.144082 
0.00848895 -0.00130041 0.163943 
-0.11258 0.00939563 0.137183 
-0.000109956 0.00131797 -0.00086059 
-0.00309287 0.00361155 0.000220176 
0.000959333 -0.00304523 0.00378307 
0.00504041 -0.00575776 0.00108782 
-0.000183409 0.000136689 0.0484793 
-9.33341e-05 -0.000338688 0.0479662 
8.81462e-05 -6.79106e-05 0.0264756 
-0.000804814 -0.0011029 0.0254582 
0.00448624 0.00598067 0 
-0.00106673 0.0057281 0 
0.00216349 -0.00358903 0 
-0.00536006 -0.0109401 0.00212122 
0.02745 -0.0110323 0.0482309 
0.00353804 -0.0050101 0.0104291 
3.21867e-05 -0.0131716 0.000571433 
0.0113095 -0.012368 0.0378306 
-0.000248127 -0.000914298 0.000629443 
0.00324294 0.00221286 0.0222859 
-0.000634571 -0.00109043 -0.00100088 
0.00294937 0.00291815 0.017514 
0.000215318 -0.00302742 -0.00153705 
-0.0056035 0.00256702 0.013528 
-0.00697692 0.00653504 0.0104581 
-0.0046428 -0.00115669 0.00179272 
-7.55496e-05 -3.86254e-05 0.0572881 
0.00034148 0.000266947 0.0549719 
0.000236161 -0.000277276 0.0371082 
-0.00425737 0.00419664 0.0581236 
-0.000566422 0.00030285 0.00118122 
0.00452102 0.00581326 0.00862915 
-0.000994972 -0.000704953 -0.00302376 
0.00157337 0.00639813 0.00609545 
-0.00551498 0.00794253 0.0717854 
-0.00379551 0.0119894 0.0494515 
-0.00106952 0.0160116 0.0902392 
0.00488768 0.0123964 0.0549358 
-0.0258829 -0.0169632 0.0965593 
-0.00891586 -0.019944 0.0312028 
-0.0172807 -0.0358604 0.0515305 
-0.00807089 -0.0439698 0.0372209 
0.00642266 0.00582125 0.036682 
-2.16539e-05 0.00514671 0.0599196 
0.00519725 0.0101294 0.0746014 
0.00439201 0.00982984 0.0532196 
-0.0155131 -0.0249147 0.137231 
-0.0209461 -0.00268922 0.107977 
0.00581169 -0.0150842 0.157603 
-0.00484083 -0.00377671 0.101341 
0.00058217 -0.000999988 -0.00151656 
-0.00389187 0.00288925 0.0227269 
-0.00300268 0.00264813 0.0304947 
-0.00106041 0.000791819 0.023091 
-0.00404931 -0.00229357 -0.00854577 
-0.0059334 -0.00935884 0.00925524 
-0.00743162 -0.0174106 0.0182475 
0.00455463 -0.00712539 0.014456 
0.00549703 -0.00031076 0.0379752 
0.00422183 0.000692047 0.0522109 
0.000983873 0.00136355 0.027376 
0.00100498 4.25428e-05 0.0248868 
0.00609153 0.00988414 0.0767832 
0.0145555 0.0130432 0.0914931 
0.0115042 0.00177673 0.0768001 
0.011044 0.0089509 0.0595182 
8.33433e-05 4.61747e-05 0.0382596 
-0.00287095 0.00257426 0.0312367 
-0.000168446 -0.000215815 0.0436757 
-0.00416915 0.004061 0.0572044 
-0.00285775 -0.0918185 0.163023 
0.00394422 0.012719 0.155175 
0.0430752 -0.0378297 0.0315424 
0.00538678 -0.0322865 0.136524 
-0.00811719 0.0321402 0 
-0.00522494 -0.00334944 0 
0.0173699 -0.0181405 0 
-0.00246799 0.0622454 0.0670635 
-0.00442325 -0.0111933 0.0273994 
0.0187448 -0.094774 0.0729022 
-0.00305044 0.026226 -0.0153995 
0.00699752 -0.00499251 -0.0171789 
-0.0136132 -0.0220275 0.037795 
-0.0199626 -0.0100991 0.0428964 
-0.0140074 -0.00122091 0.0544268 
-0.00432007 -0.00356389 0.0110812 
0.00366378 -0.0115735 0.0911479 
0.00375164 0.00057396 0.093735 
0.00241256 -0.00193027 0.0762126 
0.00020331 -0.00943455 0.107165 
0.00386464 -0.00562762 0.016994 
0.00258564 -0.00105686 -0.000465102 
0.00927852 -0.00812976 0.0185331 
0.00430887 0.000575523 0.00387895 
0.0372171 -0.107225 0.195759 
0.0102882 -0.0802975 0.158854 
0.0228932 -0.00462384 0.318194 
-0.0764091 -0.013269 -0.123882 
0.000498556 4.96727e-05 0.0457137 
0.00173231 0.000780469 0.0275176 
0.00344478 0.00137224 0.0520413 
0.00127606 -0.000377678 0.0250011 
0.000195551 1.81955e-05 0.000456422 
0.000654128 5.75952e-05 0.000721312 
1.26559e-05 -1.50782e-06 -0.000632022 
-0.00275402 0.00189712 0.023261 
0.0168144 0.0150992 0.0545978 
0.0170684 0.0155623 0.0943988 
0.00439199 0.00977429 0.0766896 
0.0112697 0.00767493 0.0580152 
0.00233901 -0.0105921 0.0889081 
0.00460961 -0.00361604 0.0798498 
-0.00483338 -0.00481047 0.0859943 
-0.00152495 -0.00791703 0.104558 
0.0556127 -0.0100818 0.058823 
0.0147612 0.0291002 0.120017 
0.0234981 -0.010947 0.235062 
0.0235137 0.0589874 0.0565191 
0.000175758 -0.00010517 0.0382622 
-0.000129093 -1.42983e-05 0.0322061 
0.000435177 0.000372124 0.0181117 
-0.00218256 -0.00202815 0.0399081 
-0.000240405 -0.000526737 0.0435497 
0.000435649 0.00542138 0.059447 
-0.000235056 0.00388281 0.0342618 
-0.00153145 0.00358401 0.0486205 
0.00699691 0.0106525 0.0142957 
0.0120452 0.017588 0.0240296 
0.00156773 -0.000316099 -0.00321689 
0.00208014 0.00695177 0.000805329 
0.00065477 0.000450832 -0.000554583 
0.000563037 -0.000284335 -3.7512e-05 
-0.00235676 -0.00241041 0.00420655 
-0.000886005 -0.00216407 0.000197854 
0.0182746 0.0110945 0.0530231 
0.0159395 0.0201296 0.0387468 
0.00810704 0.00654592 0.00628077 
0.00644326 0.00532436 0.0230912 
0.00362464 -0.000550582 0.0949189 
0.0103127 0.00257138 0.0753571 
0.0141278 -0.0049643 0.0942152 
0.00495714 -0.00184131 0.0736819 
0.00720542 0.00766435 0.0755036 
0.0020772 0.0179883 0.0906806 
0.0084414 0.0157289 0.0686474 
0.00260437 0.0111452 0.052446 
-2.71916e-05 -0.00058127 -0.000159164 
-0.000336084 -0.000539225 4.98949e-05 
0.00315598 0.00241392 0.0203 
0.00118998 0.00111145 0.021822 
-0.0109864 -0.00394178 0.080857 
-0.0217219 -0.0129764 0.0796288 
-0.0142394 0.0060222 0.0672986 
-0.0120937 -0.0137239 0.0638795 
0.000579143 -1.83153e-05 0.0525099 
-7.67303e-05 -8.29078e-05 0.0610203 
-4.50066e-05 0.000647439 0.0399876 
0.0012357 -0.00558573 0.0588709 
-0.000144562 0.000712482 0.0438555 
-0.000543586 0.00275522 0.0352405 
-7.86306e-06 -0.000196707 0.0218503 
-0.000767899 0.00083179 0.024944 
0.00112879 -8.83505e-05 0.0637877 
-0.000799931 -8.34685e-05 0.061845 
0.000207531 0.000185155 0.0774322 
0.000737354 0.00505811 0.0587598 
0.0077072 0.0194088 -0.0275805 
0.037927 0.00127031 0.0858587 
0.0406349 0.0182361 0.011551 
0.0123412 0.0102252 0.0875402 
0.000505269 0.000198121 0.000776867 
-0.000895668 0.00259805 0.0346569 
-5.99185e-05 -0.000465368 -3.39978e-05 
-0.00129735 0.000251543 0.0253178 
4.22092e-05 7.83604e-05 0.0212236 
-0.000240136 4.9215e-05 0.0426605 
0.000222005 2.81745e-05 0.0350641 
-0.00143588 0.000612586 0.0268844 
-0.0358166 -0.035486 0.121394 
-0.0281192 -0.0206892 0.0519458 
-0.0313137 -0.0310922 0.0601064 
-0.0220214 -0.0202169 0.0625865 
-0.000331422 0.000606688 0.0596174 
0.00120573 -0.0064455 0.060627 
0.0020392 -0.00505114 0.0813472 
-0.00133553 -0.00512123 0.0703559 
0.00238217 0.0198774 0.23113 
0.00241815 -0.000802129 0.189263 
0.0184751 -0.0238138 0.210649 
0.0108974 0.0181411 0.202888 
-0.00973391 -0.0120679 0.0378237 
-0.003093 -0.00404564 0.0155316 
-0.0125307 -0.0173264 0.0284031 
-0.0121985 -0.0118248 0.044409 
-0.00440698 -0.00569037 0.0875118 
0.00621689 -0.00471492 0.0814958 
0.00362788 -0.000807551 0.0940877 
-0.00349223 -0.0061895 0.10184 
6.34703e-06 0.0052365 -0.00742168 
0.00487166 0.00266099 0.00400361 
0.00762587 -0.0152097 0.014258 
0.00212946 -0.0125416 0.00537021 
-0.00825362 -0.0143133 0.083728 
-0.00268214 -0.00376705 0.0853879 
0.000282725 -0.0118539 0.0894435 
-0.00205591 -0.00468779 0.0671485 
0.0150868 -0.00248916 -0.00983557 
-0.0455138 0.0202091 0.0514709 
-0.0135382 0.0101508 0.0067937 
-0.0141899 -0.00616054 0.0141155 
3.17937e-05 0.000167108 0.0323002 
0.00109177 -0.0010908 0.0230903 
0.00105864 -0.00149207 0.0269076 
0.00289068 -0.00205132 0.0483277 
0.00337414 -0.00154093 0 
-0.00333755 -0.00442979 0 
-0.00539132 -0.013379 0 
0.021919 0.051821 0.00715754 
-0.000361981 -0.000514272 0.0795556 
-4.11727e-05 0.000115365 0.0828081 
-0.000408317 0.000292612 0.0728038 
-0.0033137 0.00194282 0.0836388 
-0.0118444 0.01109 0.0377175 
-0.00492396 0.00256564 0.00273099 
-0.00628237 0.00244539 0.0137777 
-0.0046273 0.00408185 0.0218939 
0.000627432 0.000868662 0.000299474 
0.000183249 0.000265019 0.00137202 
3.8139e-05 4.51157e-05 -0.000854398 
-0.00173242 0.000519945 0.0185341 
0.00023692 1.76169e-06 0.0711302 
0.000386003 0.000293956 0.0544636 
-0.000208672 -0.000167172 0.0572711 
-0.00409153 0.00438465 0.059041 
-0.0246873 0.0208721 0 
0.00370624 -0.018311 0 
0.00919867 -0.0118036 0 
-0.0480237 0.0500269 0.056093 
-0.00598352 0.00430766 0.0317726 
-0.00395757 0.00579314 0.0239896 
-0.00543839 0.00422182 0.0140968 
-0.00916788 0.0107063 0.049361 
0.00095945 -0.00612599 -0.00460347 
-0.00614084 0.0111592 0.0113845 
0.000925319 -0.00444872 -0.00576856 
-0.00207129 0.00989082 0.00730019 
0.0251017 -0.0202204 0.0872751 
0.00101171 -0.0164316 0.0711915 
0.0127172 -0.0122533 0.054663 
0.0168079 -0.0158949 0.0603653 
-0.0187853 0.0101065 0.0307027 
-0.00601265 0.00334918 0.0137041 
-0.0078003 0.00474747 0.0114466 
-0.0040561 0.00709925 0.0253458 
0.00145167 -0.002614 0 
0.000478399 -0.00171289 0 
-0.00115534 0.00178276 0 
-0.00128075 -0.0078083 0.0053758 
-0.0279238 0.0186668 0.105306 
-0.0151238 -0.00169002 0.117015 
-0.0119668 0.00572589 0.0695044 
-0.0202538 0.0252039 0.115156 
-2.41158e-05 0.000350886 0.000195688 
-0.000491956 0.000437803 0.000202518 
-0.000102736 -5.58519e-05 -0.00013547 
-0.00186839 0.00137512 0.000265331 
-0.00327086 -0.00246922 0.0305809 
-0.00498645 -0.00489563 0.0370631 
-0.0025396 -0.00233235 0.039846 
-0.001959 -0.00156828 0.0191473 
0.000875427 -0.000399716 -0.0002299 
-0.00494566 0.00312154 0.0313843 
0.000389129 -0.000371627 0.000427907 
-0.000902855 0.000690507 0.025158 
0.000452823 -0.0157165 0.0546396 
-0.0284536 -0.0246896 0.0710696 
-0.00727262 -0.0210018 0.0875277 
-0.0130151 -0.0137697 0.0474977 
-0.0373213 0.00193927 0.0746434 
-0.0655607 0.0315753 0.12184 
-0.0163258 0.0148758 0.020034 
-0.0252436 0.0034504 -0.00295326 
0.00569729 -0.00818495 0.0126053 
0.012699 -0.0141523 0.0271334 
-0.00173814 0.00189044 -0.000535499 
0.00479769 -0.0147679 0.0075779 
-0.00238767 -0.00654697 0.00750881 
-0.0133407 -0.0389406 0.0568608 
-0.01396 -0.017877 0.0275495 
-0.0054821 -0.0412518 0.0327104 
1.60591e-05 0.00112814 0 
0.00155923 -0.00268338 0 
-0.00244609 0.00144375 0 
0.00109972 0.000700025 -0.000734615 
-0.00121976 0.00090795 -0.000482804 
-0.00085136 -8.17747e-06 -8.07398e-05 
0.00114789 -0.00324533 -6.10688e-05 
0.000515664 -0.00198058 0.00177107 
-0.00130961 0.00201665 -0.00254457 
0.000222064 -0.000647061 0.000181332 
0.00157193 -0.00172093 0.00349156 
7.00728e-05 -0.00706076 0.00436256 
0.00121709 -0.000300437 -9.39387e-05 
-0.00302449 0.000294013 0.0303652 
-0.00191339 0.00107879 0.0227318 
-0.00265484 -0.000398592 0.0200637 
-0.0068445 -0.00516015 0.0596344 
-0.00278099 -0.0048614 0.0852886 
-0.00974051 -0.0127654 0.0786454 
-0.00110567 -0.00562967 0.0703872 
4.38843e-06 -0.000115053 -0.00217109 
-0.00215242 0.00170707 0.0314093 
0.000266601 -8.90577e-05 0.000568344 
-0.0015426 0.000650991 0.0226631 
0.0541292 0.016417 0.0274907 
0.0157347 -0.02143 0.12976 
0.0133541 -0.0436728 0.0655529 
0.00946575 -0.0527271 0.125146 
0.0165991 -0.00868953 0.0209694 
0.0130769 -0.0100751 0.0212382 
0.00639276 -0.00128066 0.00469012 
0.00227242 0.00258356 0.000326032 
-0.000861496 -0.00184535 -0.00391866 
0.00819232 0.00572395 0.0162916 
0.0067358 0.00385215 0.0184022 
0.0038987 0.0025857 0.0181455 
-0.000330787 -0.00038681 0.000515074 
0.000146861 0.0012428 0.0258857 
5.10582e-05 -3.80352e-05 0.0225432 
-0.000414253 0.000832604 0.0241444 
0.000138804 -0.000815148 0.000581164 
-0.000375969 0.002627 0.0344479 
-0.00166196 0.00110087 0.0257648 
0.00081098 0.00079097 0.0242365 
0.000597102 -0.000536892 0.0613988 
0.000716067 -0.00494724 0.0803546 
-0.000491753 0.000151883 0.0764281 
-0.000449681 -0.0041211 0.0699367 
-0.000917065 -0.0146614 0.0548806 
-0.0210951 -0.014683 0.0492129 
-0.00296616 -0.0219883 0.0866741 
0.00916012 -0.0130195 0.0717722 
0.00212799 -0.015713 0.090346 
0.00972002 -0.0107879 0.130809 
0.0197537 -0.00882504 0.0977183 
-0.00413758 -0.00591668 0.110093 
-0.000209883 3.91638e-05 0.000421033 
-6.14501e-05 0.000406989 -0.000954204 
0.00135674 -0.00107638 0.0259422 
0.00151738 -0.00107648 0.0272825 
0.0050431 -0.00480569 0.0248766 
0.0059608 -0.0104351 0.0134458 
0.00465683 -0.00408814 0.0162888 
0.0115394 -0.0113636 0.0344698 
0.000236568 -0.00129951 0.0787667 
-0.00501832 0.00253405 0.0867708 
0.000414326 0.000149347 0.0712159 
-0.00494727 0.00237073 0.0717047 
-0.00798813 -0.00499911 0.0123545 
-0.00170504 -0.00160029 0.0137243 
-0.0132871 -0.0106858 0.0377444 
-0.0172174 -0.0150421 0.0493448 
-0.000328885 0.000167404 0.0195782 
0.00125856 -0.0013381 0.0262388 
0.000195138 -0.000144065 0.0350682 
0.00166502 -0.00139364 0.02753 
-0.0126092 0.0123066 0.0382275 
-0.00404565 0.00128128 0.000941018 
-0.00526122 0.00502475 0.0230161 
-0.0062265 0.00728116 0.0179321 
0.0168451 -5.42662e-05 0.040904 
0.0141498 -0.002429 0.0539191 
0.00519569 0.00140485 0.0206055 
0.00481186 -0.00818098 0.0148288 
0.00473894 -0.00568223 0.0180055 
0.0011625 -0.00118589 -0.00363375 
0.00370265 -0.00863065 0.0131156 
0.0110183 -0.0130377 0.0285062 
-0.000369535 -0.000523495 0.000561474 
0.00158105 0.00122121 0.0263314 
-0.000175952 -7.8929e-05 0.0217616 
0.00116246 0.00122444 0.0269483 
0.00122857 -0.00128657 0.0268466 
0.00084128 -0.00112765 0.0231271 
0.0048452 -0.00352702 0.0478148 
0.00306077 -0.00240682 0.0483788 
-0.000191688 0.000182813 0.0667459 
0.00601736 -0.00540567 0.0662598 
0.00497326 -0.00251786 0.0759439 
0.00328671 -0.00388146 0.0817794 
-0.00625246 0.0354154 0.141247 
-0.0138677 0.0148225 0.0619614 
-0.0330407 0.0155217 0.0718978 
-0.0212969 0.025802 0.101923 
-0.0108319 -0.00283402 0.0818009 
-0.00403858 -0.00637704 0.0852503 
-0.003477 0.00532583 0.0913884 
-0.0048895 -0.00647007 0.105961 
0.000786092 -0.00162027 0.00122828 
0.00235485 -0.00150541 0.00308559 
-0.0014778 0.00269855 -0.00330573 
0.00212931 -0.00588953 0.00565013 
-0.00799588 -0.000990027 0.0131149 
-0.0122253 -0.012418 0.0541362 
-0.0276884 -0.0188156 0.0486173 
-0.024187 -0.0156765 0.0267743 
0.00388675 0.00241024 0 
-0.00232765 0.000879319 0 
-0.000583679 0.00302163 0 
0.023726 0.00241457 0.013136 
0.00928794 -0.067056 0.0626277 
-0.0252753 -0.0836575 0.151772 
-0.0207746 -0.0216588 -0.0347972 
-0.0533887 -0.050984 0.334187 
0.004572 0.00544726 -0.00570508 
-0.00225168 -0.0272061 0.0124463 
0.00748893 0.00113879 -0.00073433 
-0.00399807 -0.00311466 0.00110889 
-0.000529772 0.000484187 -0.003778 
0.00320559 -0.00289342 0.015938 
-0.000488228 0.000710571 0.00110836 
0.00402249 -0.00247632 0.0180936 
-0.000142843 7.15795e-05 0.000528218 
0.000126659 2.96595e-05 0.017748 
-0.000280748 -8.94114e-06 0.000242781 
0.000702099 0.000868178 0.0270545 
0.000250055 5.7622e-06 0.0773607 
0.000639194 0.00480707 0.0826513 
0.000419989 -0.0016374 0.0839309 
0.00231427 0.00344399 0.0804252 
-0.000143447 -1.01932e-05 -5.35387e-05 
-0.000166251 -1.7582e-05 0.000528088 
6.61128e-05 8.41296e-06 -0.000355398 
0.000534339 -0.000666636 0.0275798 
0.0134791 -0.00683719 0.0883065 
0.00606081 -0.00712294 0.0648725 
0.00483944 -0.000677375 0.0769001 
0.0102861 -0.00405434 0.0699626 
-0.00505549 -0.00688971 -0.0116464 
0.021764 0.039307 0.0515985 
0.0278994 0.0165076 0.0249488 
0.00553096 0.00771554 0.00862879 
5.85011e-05 -8.24568e-05 -0.000110215 
0.000204071 0.000599232 -0.000248866 
-5.73735e-05 0.000494877 -0.000195854 
0.0024318 0.000573417 0.00118439 
0.000854054 0.00108713 0.0689658 
-3.84235e-05 -0.000267276 0.0686716 
0.00516355 -0.00557188 0.0656541 
0.00281676 -0.00461471 0.0800923 
0.000431145 -0.000475363 -0.000496057 
0.000901093 0.000375164 -0.000301018 
-0.000299294 -0.000307174 -0.000168808 
-0.00198582 -0.00023598 0.00263446 
0.000308226 -0.00016784 -0.00149679 
-0.000415247 0.000164659 0.000295595 
-0.000387833 0.000753945 0.00461636 
-0.000235298 0.00158049 0.0025085 
2.63277e-05 -0.00165413 0.000676662 
-0.000514215 -0.0011196 -0.000124553 
0.00754707 0.00416381 0.0133505 
0.00315253 0.00178153 0.0144638 
0.000826937 0.000275363 0.00027104 
-0.000239522 -0.000332514 -0.000499251 
-0.000800353 -0.000990627 -0.00108343 
0.00403788 -0.00106779 0.00452123 
-0.000450349 -0.00616037 0 
0.00160263 -6.58682e-06 0 
-0.00211592 -0.00193157 0 
-0.00303761 0.0288318 0.0044857 
-0.00510069 -0.0057012 0.231593 
-0.0511252 -0.00842038 0.231526 
0.021256 -0.00147124 0.131936 
0.0152291 -0.0381467 0.119724 
0.000858259 0.000274626 0.000304076 
-0.000598523 0.000792359 -0.000547701 
-0.000427997 -0.000323872 -0.000849889 
0.00419381 -0.00108422 0.00514609 
-0.0213266 0.0068978 0.0561968 
-0.00556998 0.00457412 0.0205508 
-0.00305125 0.00940487 0.0186301 
-0.0100848 0.0112857 0.0495793 
0.0276881 0.00306518 0.195622 
0.0279589 -0.00324088 0.0942346 
0.0469768 -0.0138704 0.0613972 
0.0123809 0.0668116 0.0231665 
0.00378686 -0.0156914 0.089993 
0.011761 -0.00797936 0.0991888 
0.00314706 0.00266869 0.0938918 
0.0012399 -0.00608764 0.109007 
-0.00141925 0.00837554 0.07342 
0.000958717 0.0067984 0.0580482 
0.00374972 0.00950391 0.0769988 
0.000413101 0.00474724 0.0829074 
0.000175479 -0.00040364 0.000768116 
-0.00157537 0.00176248 0.0309261 
3.61279e-05 -6.67257e-05 -0.000642699 
-0.00111073 0.00125193 0.0258474 
0.00435294 -0.00131033 0.0374925 
0.0040672 0.000971248 0.0211202 
0.00143518 0.000670475 0.0273543 
0.00850012 0.00355424 0.0470893 
-0.000176069 0.000341052 0.000922575 
0.00088329 -0.000742942 -0.00107245 
-0.00327078 -0.000343612 0.00414497 
-0.00357467 0.000164251 0.00225888 
0.0124354 -0.0108069 0.0554205 
0.00634414 -0.00575723 0.0220347 
0.00595846 -0.00371711 0.0488994 
0.0125711 -0.00730608 0.0574025 
-0.00292874 -0.00380476 -0.00722148 
0.00827928 -0.00104136 0.00725997 
0.0208977 -0.00482164 0.0169521 
0.00696291 0.000366555 0.00422295 
0.000960105 0.000362238 0.000304533 
-0.00334792 -0.00393652 0.0182463 
0.000800641 0.000448589 -0.0004753 
-0.0017259 -0.00144201 0.0186414 
0.00108873 -0.00134623 -0.0016355 
-0.00256545 0.000521012 0.00388275 
2.35561e-05 -0.000723983 -0.000974757 
-0.00346129 0.000133549 0.00225183 
0.000607799 -0.000626721 -3.78867e-06 
0.000146642 -0.000150702 0.000918465 
0.000101983 -0.000105793 -0.00115812 
6.75505e-06 0.00227 0.0196392 
6.51136e-06 -0.00210721 -0.0021329 
-0.000173947 -0.00107901 0.000507928 
-0.00428463 0.00269473 0.0137072 
-0.00327118 0.00317893 0.0194429 
0.0213356 0.0101159 0.0267079 
0.0182044 0.0336069 0.052696 
0.0210594 0.0165405 0.0599861 
0.00628288 0.0166548 0.00790022 
-0.0131063 -0.00191346 0.0806362 
-0.00867496 -0.0130327 0.084932 
-0.00367839 -0.00556162 0.0836688 
-0.00460252 -0.00763509 0.108035 
0.000689821 -0.000380603 -0.000348047 
-0.00216295 0.000325243 0.030781 
0.000423288 -0.000222984 -3.06105e-05 
-0.00188586 0.00119099 0.0227444 
-0.00790965 -0.0092994 -0.0385035 
-0.0331884 -0.00745866 0.0913428 
-0.0418396 -0.0195481 -0.00991399 
-0.0299271 0.0214914 0.0697407 
-0.0107308 0.0179345 0.0742479 
-0.00129754 0.0174596 0.0898385 
-0.00407987 0.00871683 0.0693071 
-0.00350253 0.0089897 0.0505427 
-0.0195872 0.0234128 0.0665417 
0.0108771 0.0468704 0.0670408 
0.00526576 0.0250201 0.0591057 
-0.002158 0.0152089 -0.0139188 
0.0225423 -0.00276852 0.0503262 
0.0134262 0.034794 0.0374906 
0.0221038 0.0099655 0.0669431 
0.0197052 0.0159595 0.100331 
-0.00342943 0.000474384 0 
-0.00446092 0.0014207 0 
-0.00085449 0.000267501 0 
0.0125321 -0.00426689 -0.000757347 
-8.13515e-05 7.91076e-05 -0.00135403 
0.000470078 -0.000453 0.000985425 
0.000906961 -0.000872837 -4.94892e-05 
-0.00285761 0.000424817 0.00533791 
-0.00346978 -0.00510649 -0.00321155 
0.00613679 0.00586908 0.01879 
0.0103036 0.00470828 0.0154213 
0.0103803 0.00704355 0.00931767 
-0.00755171 0.0104775 0.0251846 
-0.00521004 0.00255407 0.021865 
-0.016275 0.00521069 0.0492987 
-0.00756791 -0.000616655 0.0172112 
-0.000944613 -0.000234678 -0.00110094 
-0.00153922 -0.00131351 -0.00199953 
0.000613642 0.00232236 0.00346381 
4.81297e-05 0.00379018 0.00241061 
0.0214156 -0.0053706 0.130453 
0.0473454 -0.0375455 0.144017 
0.016413 -0.011741 0.151605 
0.0260554 -0.0267642 0.0731543 
0.00795967 -0.0083532 0.154816 
0.0519954 -0.0396077 0.133427 
0.0238392 -0.0272842 0.0895639 
0.0234226 -0.0257633 0.071746 
-0.00457442 -0.00460065 0.018081 
-0.00763988 -0.00634344 0.0167581 
0.00288589 -0.000315304 -0.00193508 
0.000535563 -0.0042263 0.00450234 
-0.0117277 -0.00391743 0.0797743 
-0.0162459 -0.00435791 0.110911 
-0.0105737 -0.0160628 0.0842564 
-0.00446617 -0.00448684 0.109026 
-0.000886103 -0.000514748 0.00158527 
-0.000341925 -0.000270229 -0.0026066 
0.00265027 0.00321464 0.0207236 
0.00172114 0.00268001 0.012367 
0.00526301 -0.0055232 0.0415695 
0.00333452 -0.00302159 0.033053 
0.00149221 -0.00058764 0.0251975 
0.0029657 -0.00336568 0.047341 
0.00329371 -0.00462592 0.0171951 
0.010975 -0.00760418 0.0200665 
0.00468933 -0.00337464 0.0194836 
0.00369856 -0.00201278 0.00186738 
0.000774417 -0.00137498 -0.000382847 
-0.000591108 0.00145735 0.00577677 
-0.00119582 0.000180506 -0.000550812 
2.89476e-05 0.00213012 0.00216066 
4.43742e-05 0.000139566 0.0212418 
-6.08143e-05 4.41993e-05 0.0175048 
5.59497e-06 -0.000174279 0.0312375 
-0.00149315 -0.0012154 0.0268172 
0.0110999 -0.00801598 0.0212452 
0.00113181 -0.00137279 -0.00495157 
0.00467064 -0.00562086 0.0177446 
0.0112529 -0.0131639 0.029876 
0.00283429 0.000369955 -0.000628502 
-0.00235149 0.000329408 -0.000448573 
0.0014081 0.000904509 -0.00115369 
-0.0020451 -0.00859815 0.00536506 
0.0209015 -0.038354 -0.000656495 
0.00731905 -0.0290463 0.0668183 
0.0266106 -0.0297909 0.0776746 
0.0200253 -0.0374763 0.114292 
-0.000692616 0.00390667 -0.00130194 
0.00802698 -0.00461015 0.00612482 
0.00650315 -0.00601617 0.0167125 
0.00483798 -0.00812312 0.00798826 
0.000732575 -0.000500328 0.000503822 
0.000156005 -0.000129347 0.0229388 
-0.00236314 0.00187085 0.0312959 
-0.00134316 0.00146769 0.0259815 
-0.000262114 -0.000338284 0.000590792 
-5.04062e-05 -8.35553e-05 -5.79483e-05 
0.000102279 0.000124878 0.0222977 
-9.78296e-05 0.00101981 0.0257352 
-0.0126639 0.00758253 0.0813752 
-0.0038375 0.00212434 0.0905346 
-0.0109452 -0.000444084 0.081779 
-0.00511691 0.00176669 0.070207 
0.000194768 -0.000872599 0.0870349 
0.000178976 0.000341444 0.0830166 
-0.00021496 -0.000381615 0.0791282 
-0.00350031 0.00177167 0.0840957 
0.00831219 -0.0312783 0.0385148 
-0.0300821 -0.0283629 0.00994422 
0.0231551 -0.0430682 0.108734 
0.0165749 -0.0424308 0.14454 
-0.00135324 -0.00191652 -0.00102152 
0.00498053 0.00273312 0.0187176 
0.00563298 0.00480484 0.0177931 
0.0016987 0.00190953 0.0218719 
0.00382718 0.0184483 0.0528157 
0.000350623 -0.00145184 0.016711 
0.00608441 0.00645179 0.0197509 
0.00493849 0.0119097 0.052862 
-3.62374e-05 -2.94504e-06 -0.000177 
-0.000389867 -3.16848e-05 -0.000123261 
0.000200144 1.62659e-05 0.000526849 
-0.000321636 0.00182742 0.0348076 
-0.00124289 -0.00039871 -0.00108767 
0.00135593 -0.00110916 0.00360666 
-0.000308587 0.000317454 8.50161e-05 
0.000390097 -0.00251183 0.000535067 
-0.0073108 0.00358429 0.0426912 
-0.00501232 0.00380598 0.0242248 
-0.0025969 0.0054823 0.020252 
-0.00209444 0.000930986 0.0224698 
-0.00619133 -0.00319901 -0.00700245 
0.0392481 -0.007857 0.0173046 
-0.00691706 7.2122e-05 -0.00373333 
0.00514624 0.00107129 0.00289225 
-0.000117359 -0.000201192 0.000638936 
1.35918e-05 -7.71804e-05 -0.00145081 
0.000117254 0.000259195 0.000158875 
-0.000645169 0.00336059 0.0175771 
-0.0174318 -0.00297085 0.0490192 
-0.0111866 -0.00774091 0.0450118 
-0.00448058 -0.00649986 0.0161702 
-0.00193398 -0.000169596 0.0173448 
-0.0137633 0.00356324 0.0526426 
-0.00678654 0.00420356 0.0208797 
-0.0168438 0.0125478 0.0522957 
-0.0109602 0.00202369 0.0654654 
-0.000327997 0.000141657 -0.0020054 
0.000214666 -9.1444e-05 0.00156673 
0.000133812 -6.59565e-05 -0.00082043 
-0.00401821 -0.00234279 0.0247858 
-0.000212078 0.000426016 -0.000113185 
-0.000575503 -0.000134146 -0.000277382 
-0.000126701 -0.000306584 -0.00031295 
-0.00160065 0.00290775 0.00126306 
-0.00562083 0.00352572 0.0430743 
-0.0146538 0.0117716 0.052654 
-0.00499276 0.00284376 0.021829 
-0.0137855 0.00406543 0.0640607 
-2.7009e-05 0.000166599 -0.000480668 
-0.000275385 0.00267715 0.0345372 
0.000171021 -0.000518786 0.000688779 
0.000360502 0.000375765 0.023783 
0.00978594 -0.00348206 -0.01175 
-0.0421237 0.0115376 0.0230217 
0.000734937 -0.00311419 0.00281085 
-0.0179126 -0.000963365 0.0168272 
-0.00260012 -0.00358886 -0.00135591 
0.00687353 0.0101779 0.00712773 
0.00129123 0.000730632 0.000418127 
0.00149483 0.0086718 0.00387318 
0.000431545 -0.00111865 0.000109159 
0.000824977 -0.000527377 -0.000622607 
-0.00572425 0.00167572 0.0108954 
-0.00443682 0.000655683 0.00341968 
-0.000640184 -0.000357713 0.00016552 
5.49274e-05 -0.00125701 -0.000177642 
0.00400311 0.00452773 0.0188992 
0.00163169 0.00206262 0.0207089 
0.00702514 -0.00703102 -0.0046213 
-0.0163096 0.0205064 0.0151322 
-0.000808392 0.00315345 0.000334388 
-0.00917921 0.00677865 0.0125832 
-0.00949704 -0.00381097 0.0799492 
-0.00494287 -0.00316155 0.086238 
-0.00546632 -0.00728458 0.0586232 
-0.00434723 -0.00158757 0.0754341 
-0.000174819 0.000615061 -0.000115603 
-0.000409761 -0.000442448 -0.000916804 
-0.000997029 -0.000601109 -0.00082412 
0.0044038 0.00479169 0.00398269 
-0.00223196 -0.0242029 0.10124 
0.00560673 -0.0122526 0.0595031 
0.0191838 -0.0242421 0.102089 
0.017089 -0.0167546 0.0598466 
0.000217847 0.0017025 0.0854806 
-0.000933396 -0.00442379 0.0851509 
-0.000580653 -0.000194686 0.0766767 
0.000581839 -0.00427669 0.0808909 
-0.000139017 -0.000344012 0.000198271 
0.00015758 0.000407988 -0.000492377 
-6.10645e-05 -0.000165399 0.000299088 
-0.000315554 -0.00151017 0.000475064 
0.0242989 -0.0437064 0.241071 
-0.00505693 0.00403483 0.263859 
-0.0522435 0.00345117 0.277046 
0.00854877 -0.0185708 0.239954 
0.00620714 -0.0185165 0.0358133 
-0.00127949 -0.00781649 0.0208299 
0.0102087 -0.00632898 0.0213413 
0.00386891 -0.0086043 0.00670957 
0.017739 -0.00447504 0.0178946 
0.00581168 -0.000995614 0.0045592 
0.00982802 -0.00132139 0.00679732 
0.00120022 -0.00182406 0.00352764 
-0.000636841 0.000347896 -0.00312089 
0.000748232 -0.000368756 0.00105375 
-0.00032585 0.000153583 -1.01792e-06 
0.00639439 -0.00017031 0.0126872 
0.00107161 -0.00283648 -0.00622317 
0.00795835 -0.00992722 -0.0101958 
0.00882617 0.0502478 0.0582891 
0.00488378 0.00920846 0.00267537 
-0.0220546 -0.0116852 0.0741452 
-0.0163069 -0.0412536 0.130251 
-0.0197154 -0.0247962 0.0146127 
-0.00832035 -0.0468755 0.0590532 
-1.28352e-05 -0.000114433 0.000358462 
-1.90816e-06 -3.60473e-05 -6.57113e-05 
-2.1695e-05 -0.000226282 0.000400467 
-0.000917137 0.000780732 0.0228727 
-0.000312927 0.00124583 -1.23358e-05 
0.0012634 -0.00101398 0.0268169 
0.00130947 -0.00424435 0.0326778 
0.0021477 -0.00313044 0.0237296 
-0.000421801 -0.000302205 -0.000799144 
0.000868516 0.00265702 0.0233641 
3.6404e-06 0.00337886 0.0346013 
0.000484255 0.000614035 0.0238431 
0.000770563 -0.000161778 -0.000580553 
-0.00164389 -0.00160727 0.00495932 
9.31965e-05 0.00044989 0.0003779 
-0.00084544 -0.00122679 0.00355342 
-5.26459e-05 0.00016242 -0.000706473 
-8.62922e-05 0.000179466 0.000655073 
2.11264e-06 -1.05494e-05 0.000112604 
0.000855833 0.000480964 0.0281529 
-0.022137 -0.0142532 0.0474677 
-0.00470063 -0.00360565 0.0113968 
-0.00762681 -0.018755 0.0309809 
-0.0122491 -0.0229363 0.0301754 
-2.25395e-06 -2.76057e-05 0.000441007 
6.23087e-06 7.63138e-05 -5.46713e-05 
8.9718e-06 0.000109884 -0.000386175 
-0.00119619 -0.000279463 0.0308914 
-7.79165e-05 -0.000465358 -0.000873322 
0.00159469 0.000904091 -0.00157681 
-0.00305123 -0.000479124 0.00617641 
-0.00451511 0.00242251 0.00628133 
8.95252e-05 -0.000159447 0.0213235 
-1.28491e-05 0.000263725 0.000193572 
0.000319571 0.000122197 0.000414587 
0.000618094 -0.000922513 0.0269668 
-0.0045957 0.00917705 0.0733171 
0.000767134 0.00467529 0.0828997 
0.00754271 0.00883466 0.0768046 
-0.000656824 0.0145257 0.0870329 
-0.00687474 0.0051756 0.0104647 
-0.00732591 0.00275208 0.0149967 
0.00218374 -0.00381806 -0.00317527 
-0.00656437 0.00660433 0.0215484 
-0.000397265 -0.000142038 0.000920944 
-0.0049523 0.00213961 0.00676246 
0.000616805 -0.000672885 -0.00170589 
-0.00412222 0.000598692 0.00332799 
0.000267039 -0.000305328 0.0377591 
-9.6351e-05 -0.000150306 0.0436266 
-0.000181203 0.000233709 0.0572085 
-0.00421901 0.00402312 0.0572437 
0.0434246 0.00253799 0.119908 
0.0280417 -0.00385862 0.207997 
0.00349049 -0.0206322 0.149542 
0.0397011 -0.0258892 0.175669 
0.00815543 0.00327858 0.215352 
-0.00807443 0.00271749 0.186088 
-0.00761681 4.15376e-05 0.156535 
0.0451512 0.113844 0.117735 
0.00384487 -0.00480568 0.0245309 
0.00466055 -0.00280985 0.0141676 
0.0145521 -0.00716613 0.0544075 
0.0138763 -0.0127691 0.0374774 
0.0147338 0.00290372 0.0477084 
0.0163731 0.0081238 0.0678727 
0.00900984 0.00991581 0.0241943 
0.00928029 0.00340326 0.044794 
-0.000180793 -0.00050517 -0.000153939 
-7.98139e-05 -0.000121913 -1.12779e-05 
-0.000363814 -0.000312403 -0.000286969 
-0.00223303 -0.000952996 0.0010023 
-0.000321225 -2.90251e-05 0.000536914 
1.46181e-05 -1.14723e-06 0.000583589 
-3.74283e-06 4.4831e-06 -0.00118149 
0.00244297 -0.00156511 0.0227243 
-0.00123187 -0.00216753 -0.000151212 
0.0238909 0.0135366 0.0164183 
-0.0006884 -0.00454292 -0.0057549 
0.00782748 0.00762921 0.0103351 
-0.000606521 0.000439576 -0.00144999 
0.00653344 -0.0081928 0.00962734 
-0.00141392 0.00134065 -0.00570665 
0.00556328 -0.00424193 0.0107984 
0.00844358 0.00785403 0.0764655 
0.0088147 0.00485775 0.0770168 
0.00345798 0.00249502 0.0824576 
0.0109134 0.00820791 0.0597009 
-0.00147454 0.0011105 0.000104125 
0.00186964 -0.000954879 -0.00124957 
-0.00948559 0.00398378 0.00502903 
-0.0047923 -0.000455091 0.00307485 
0.0020395 -0.000829935 0.0255841 
0.000804364 -0.00158814 0.0273921 
0.00420437 -0.00516957 0.0407172 
0.00287541 -0.00319595 0.0473949 
0.000212904 -2.19331e-05 -5.74438e-05 
-0.00168666 0.000107863 0.0308121 
0.000394353 -0.000531335 0.00061115 
-0.00154453 0.000837013 0.0227914 
-0.0143312 -0.00452927 0.20669 
0.0216998 0.0107327 0.115633 
0.0210286 0.00371188 0.0695342 
0.072686 -0.0553309 0.182951 
-0.0134608 -0.0112294 0.287226 
0.0316684 0.0287913 0.329138 
-0.00640053 -0.00560034 0.400311 
0.0399846 0.0702791 0.263629 
-0.0221037 -0.0578768 0 
0.0193169 0.0278757 0 
0.0100565 0.00597467 0 
-0.0318774 -0.121839 0.10006 
-0.000539354 0.00121301 0 
0.00138395 -0.000230966 0 
-0.00234917 0.00274907 0 
-0.000749319 -0.0033968 -0.000548103 
-0.023606 0.00681011 0.115599 
-0.0478127 0.0536162 0.0397939 
-0.010735 0.000894683 0.247163 
0.0140275 0.0454791 0.104004 
-0.038308 -0.0763077 0.147593 
-0.00885104 -0.00946713 0.00866006 
-0.0092624 -0.00652484 0.00750919 
-0.0019738 -0.0430807 0.049612 
0.0375446 -0.0161844 0.0883218 
0.0339388 -0.0348551 0.115765 
0.020968 -0.03675 0.00579656 
0.0249177 -0.0293786 0.0764172 
0.022301 -0.0067764 0.0409699 
0.0166273 -0.000980548 0.0440394 
0.00390693 -0.00410036 0.0092434 
0.0127325 -0.0148897 0.0417269 
-0.000933988 0.000813777 0 
-0.000245451 -0.000807597 0 
0.000250456 -0.000893307 0 
-0.00410473 1.08611e-05 0.00198645 
0.00260017 0.00828646 0 
0.00466989 0.00265208 0 
-0.0055807 0.00831818 0 
0.00930823 -0.0667041 0.0130236 
-0.00193064 1.65803e-05 -0.000304258 
0.000901272 0.00509306 0.00372743 
0.000877376 0.00460273 0.00445034 
0.00283781 0.00465659 0.0093182 
0.000127594 -3.51669e-05 0.0475975 
8.69819e-05 8.6893e-06 0.0501462 
1.71841e-05 -1.6781e-05 0.0333275 
-0.00297459 -0.00153586 0.0409889 
-0.0396055 0.0148385 0.0536068 
-0.0163579 0.0150569 0.0361057 
-0.0113933 0.00556876 0.00869405 
-0.0245619 -0.000399252 0.0119331 
-0.0036295 -0.00809601 0.0543248 
-0.00696883 -0.005278 0.060071 
-0.0102401 -0.0121296 0.0768886 
-0.000860671 -0.00561474 0.0702147 
-0.000218444 0.000299549 0.000290737 
-4.29387e-05 5.82544e-05 0.00104633 
-0.000103955 0.000143074 -0.000684843 
-0.000370125 -0.00288726 0.0160555 
0.00397013 0.0051273 0.0373748 
0.003552 0.00303034 0.0189927 
0.00186962 0.0012523 0.0262513 
0.000782943 0.00109452 0.0231776 
0.00237303 5.90093e-05 -0.00160129 
-0.00725225 -0.00686164 0.0164272 
-0.00300529 -0.00492662 0.00583623 
0.000425094 -0.00348779 0.00479389 
0.0270932 -0.00717728 0.129432 
0.0234908 -0.0157005 0.150738 
0.0171649 -0.00879227 0.0926373 
0.0247621 -0.0245539 0.0729601 
-0.00497132 0.00978604 0.0176239 
-0.00541695 0.00245397 0.0254024 
-0.00430126 0.00350647 0.0175522 
-0.0112472 0.0129666 0.0456591 
0.000189988 0.000525348 0.0692422 
-0.000327104 -0.000197171 0.0696747 
-0.000365051 0.000269023 0.0541939 
0.00582805 -0.00550772 0.0639787 
-0.0109233 -0.00151273 0.0814492 
-0.0134859 0.00229725 0.065038 
-0.0125047 0.00819881 0.0805498 
-0.00514472 0.00238783 0.0704877 
-0.034254 0.0147638 0.0750504 
-0.0114494 0.0188922 0.0672767 
-0.0322802 0.0185726 0.0254801 
-0.0295678 0.0174401 0.108931 
-0.00652831 0.00450025 0.0434319 
-0.00356497 0.00387248 0.0201158 
-0.00269804 0.002848 0.0312027 
-0.00131601 0.00122451 0.0255316 
0.00504257 0.000115742 -0.00459554 
-0.00654932 -0.000296287 0.0175114 
-0.00943469 0.00131109 0.00714195 
-0.0104505 -0.0036466 0.00735507 
0.000184303 -7.42896e-05 0.022294 
-0.000844925 0.00111445 0.0257188 
-0.000664957 0.0024072 0.0341829 
0.000333992 0.000978439 0.024519 
0.000650822 0.000454441 -0.000461364 
-0.00222815 -0.00280511 0.00384088 
0.00106223 0.00223468 -0.00138082 
-0.000809188 -0.00255852 0.00150891 
-0.0124318 -0.0112733 0.0340423 
-0.0259338 -0.0184993 0.0532689 
-0.0118921 -0.0142147 0.0521473 
-0.0231479 -0.0214787 0.0628626 
-0.000409596 -0.000324469 0.00222062 
-0.000252054 -0.000687673 -0.00334184 
0.00203914 0.00463819 0.00437828 
0.00079109 0.00406246 0.00907571 
-0.0209856 0.0167009 0.14211 
0.0138577 0.0421863 0.0776592 
-0.00964608 0.00500262 0.25816 
0.0655765 0.0300291 0.0947769 
0.000146659 -0.000544075 0.00102185 
0.000229932 -0.000892155 -0.000691134 
-0.000110167 0.000394716 -0.00158643 
0.00282888 0.00609602 0.022443 
-0.000306531 -0.000167063 0.000562758 
-0.000721739 8.58401e-05 -0.00105863 
0.0013247 0.00124574 0.0261716 
0.00151319 0.000824859 0.0269174 
-0.000337883 0.00161253 -0.00461389 
0.00588438 -0.0059894 0.0200367 
-0.000356231 0.00101976 -0.00036062 
0.00250661 -0.00622633 0.0204131 
0.0531979 0.0316498 0.0634052 
0.0322581 0.0343684 0.0888853 
-0.00806625 -0.00138939 -0.0353664 
0.0316456 0.000482031 0.079648 
0.00363343 -0.00190854 0.0935837 
8.00293e-05 0.000326234 0.0788754 
0.00519186 -0.00179115 0.0762932 
0.00267736 -0.00377265 0.0804857 
0.0243946 0.0415177 0.233459 
-0.0444865 0.00313402 0.206099 
0.00401939 0.011572 0.428749 
-0.0735984 0.0568555 0.171582 
0.000895471 0.000521703 0 
-0.00132211 7.89015e-05 0 
-0.000583281 -5.7983e-05 0 
0.00255809 -0.000779704 0.000773737 
-0.0533111 0.0586493 0.328114 
-0.0157937 -0.00594846 0.451668 
-0.0199347 -0.0204664 0.167435 
-0.062925 0.0987332 0.166582 
0.0012706 -0.000212506 -0.0018565 
-0.00130599 -0.00126593 0.00498782 
0.00040037 -0.000245481 -0.000553353 
-0.00159564 -0.00145926 0.0035959 
-3.0687e-05 0.00505702 -0.00190118 
-0.000519628 -0.00678954 0.0172261 
-0.00387954 -0.00995245 0.0105971 
0.00226991 -0.00798651 0.00719516 
-0.000245834 0.000253405 0.0422206 
0.000384472 -0.000109177 0.0217979 
-2.26813e-05 -0.000220116 0.0360206 
-0.00293274 8.97485e-05 0.0313343 
-0.0675542 0.0429508 0.251511 
-0.0195943 0.0422377 0.0482755 
-0.0148646 0.0886136 0.0915964 
-0.0230648 0.0245394 0.139338 
0.0116246 0.00147462 0.0738762 
0.0103137 0.00706766 0.0478457 
0.011599 -0.00414931 0.0550703 
0.0111734 -0.00704712 0.0706631 
0.00741025 0.0152218 0.0227349 
0.00144917 0.00355884 0.00274309 
-0.000768212 0.00582294 0.00109268 
0.0034674 0.00536384 0.0135414 
-0.000271004 -0.000266281 -0.000182599 
1.49663e-05 1.48342e-05 0.000489977 
3.46394e-05 3.36725e-05 -0.00133189 
0.00110262 -0.000753433 0.0256782 
0.000748969 -0.000190565 0.00113263 
0.000263709 -6.67603e-05 0.000474389 
2.34577e-06 -2.85862e-06 -0.000503653 
-0.00398855 -0.0013758 0.0263591 
-0.0106228 -0.0129944 0.00634075 
-0.0234615 -0.018376 0.0382202 
0.0160915 -0.00596103 -0.0123657 
-0.00305776 -0.00798615 0.00476672 
-0.00129729 0.00157906 -0.00129478 
0.000550105 0.000988019 0.000313205 
0.00103084 -0.00520525 0.0149568 
0.00294074 -0.00594063 0.00699044 
-8.9992e-06 0.000110312 -0.00033827 
1.24536e-05 -0.000152657 -0.000132246 
2.26083e-06 -2.77133e-05 0.000271374 
-0.00110376 -0.000281667 0.0311461 
-0.000425993 6.80263e-06 0.000311108 
-0.000103012 3.24662e-05 0.0185275 
0.00143885 -0.000650309 0.0270531 
0.000983617 -0.000494468 0.0245985 
-0.00346468 -0.000868925 -0.0030344 
0.00491211 -0.00474264 0.0153239 
0.00732293 -0.0067715 0.0102858 
0.00785879 -0.00375976 0.0119524 
0.000238166 -0.000288405 0.059054 
-0.000180477 0.000311244 0.0652897 
0.000302665 0.000282884 0.0476654 
-0.00561158 -0.00426651 0.0584989 
-0.00015943 -0.0014033 -0.00440357 
-0.00546354 0.00283774 0.0155897 
0.000465046 -0.000546524 0.00150816 
-0.00530015 0.00482716 0.0223018 
6.12396e-07 -7.46508e-06 0.000280101 
3.80116e-06 -4.6336e-05 -2.0129e-05 
-4.12553e-06 5.02901e-05 -0.000576844 
0.000558986 -0.000303217 0.024803 
-0.00536025 0.00390804 0.0238887 
-0.00615705 0.00222877 0.0184374 
0.00184193 -0.00103366 -0.000671575 
-0.00186856 -0.00186927 0.0204213 
0.000367363 0.000360949 -0.000200846 
0.000169774 0.000166547 0.000888577 
-2.70429e-05 -2.62847e-05 -0.00105203 
-0.00176494 0.000685784 0.0304082 
0.000129232 0.000472839 0.0688832 
0.00580644 -0.00543074 0.0639509 
-0.000279683 4.50835e-05 0.0543876 
0.00309175 -0.00272628 0.0484003 
0.00541925 -0.000342285 0.0382821 
0.00615192 -0.00458412 0.0496388 
0.00485928 -0.00702877 0.0256484 
0.0129056 -0.00340088 0.0523477 
-0.00663335 0.00528412 0.0430229 
-0.0126953 0.00175971 0.0636534 
-0.00561761 -0.000511093 0.05849 
-0.00590821 0.0029903 0.0720334 
0.00126084 -0.00118597 0.000483904 
-0.00275493 0.0028677 0.0293779 
0.000339992 -0.0011914 -0.000463298 
-0.00381976 0.00302282 0.0222866 
-0.0239478 -0.03638 0.0735241 
-0.00232349 -0.0689828 0.101394 
-0.0157641 -0.0107311 -0.0454665 
-0.0468805 0.0134559 0.145495 
0.00280512 -0.0167261 0.238288 
-0.0890931 -0.020784 -0.0477199 
-0.0440041 0.0221428 0.122003 
-0.00504146 -0.0491925 0.214744 
-0.000357363 0.000464985 -0.00132057 
0.00167305 -0.000438296 0.00196158 
0.000488218 -0.000570607 0.00114325 
0.00205001 5.91476e-05 0.00358116 
-0.000708369 0.000263921 0.0594981 
6.99691e-05 0.000212167 0.0467614 
5.14088e-05 -0.000200279 0.0638618 
-0.00229214 -0.00433827 0.0679667 
0.00115259 0.00291786 -0.00259169 
0.00154616 0.000400935 -0.000205519 
-0.00604333 -0.00244389 0.0144559 
-0.00765105 -0.00498132 0.00698168 
1.96446e-05 -0.00137707 -0.000180362 
0.00316615 0.00327158 0.0199675 
0.00202632 0.00223879 0.0217658 
0.00106291 0.000932636 0.0226233 
-0.000114011 4.72307e-06 0.0210845 
0.000189571 6.25827e-05 0.0199495 
5.09539e-05 -0.000194591 0.034857 
0.000967675 -0.00117182 0.0271402 
0.000409501 -0.000481674 0.0176075 
-0.00239857 0.00238393 0.0324595 
-4.18905e-05 0.000108876 0.0372374 
-0.00148906 0.00121223 0.0230652 
-0.00806243 -0.0119684 0.0221715 
-0.00490592 -0.00601012 0.0179227 
-0.00281941 -0.0039881 0.00467431 
-0.00102222 -0.0033502 0.00314748 
-0.00056162 -0.000395022 0.000310684 
7.33976e-05 5.22375e-05 -0.00135952 
7.19605e-05 5.01447e-05 0.000971578 
-0.00282144 0.000218391 0.00473195 
-0.0510609 0.00791783 0.0565312 
-0.0287878 0.0163901 0.0474933 
-0.0272694 0.0463158 0.130522 
-0.0329119 -0.0235877 -0.00932224 
0.00642031 -0.00548325 0.0649922 
0.00492113 -0.00427905 0.0498112 
0.00382327 -0.0039929 0.0316817 
0.00305076 -0.00249258 0.048063 
0.000240349 0.00115551 0.000867671 
-0.000811303 -0.00203436 -0.00129542 
-0.000154606 0.00397001 0.00383869 
-0.000445069 0.0036274 0.00254693 
-7.59851e-05 -0.00024202 0.0381764 
-0.00180098 0.00328432 0.04798 
1.20593e-05 1.05137e-05 0.0358955 
-0.00174886 0.00114134 0.0230152 
-0.000877819 -0.000476034 -0.000207451 
0.000389911 -0.000325747 -0.000846942 
0.000744143 -0.000655578 -0.000831732 
-0.00599748 0.00356997 0.00438685 
-0.00431294 0.00983075 0.0710127 
-0.00200108 0.00434518 0.0467968 
-0.00695031 0.00425941 0.0308475 
-0.00497168 0.00857124 0.0496161 
-6.5417e-06 0.0016732 0.00103799 
-0.00058693 0.00102773 -0.000865783 
0.00492587 -0.00330083 0.014044 
0.00434318 -0.00187058 0.00491516 
0.00965749 0.00321455 0.0754678 
0.0146394 -0.00595228 0.0526314 
0.0173988 0.00633452 0.0744888 
0.0116022 -0.00823662 0.0702969 
0.00103462 0.0027509 -0.00239928 
0.00395865 -0.00364143 0.0179164 
0.0066059 -0.00590873 0.0175993 
0.0046324 -0.000660161 0.00489707 
-0.00325095 0.00382926 0.0913237 
-0.00499021 -0.00601982 0.0871335 
0.00446016 -0.000431466 0.0950934 
-0.00344922 -0.00638167 0.10294 
-0.00218509 0.000358518 -0.00214079 
0.00647938 -0.00222062 0.0183982 
-0.0017976 3.32018e-05 -0.00072124 
0.00508536 -0.00150476 0.0206635 
0.000312465 -2.68898e-05 0.0010179 
-0.000276604 2.38037e-05 0.000509469 
-0.00025549 2.19867e-05 -2.07291e-05 
-0.000704393 -0.00135098 0.0166002 
-0.000745956 -0.00643971 -0.00302088 
0.00474803 0.00582536 0.0186582 
0.00916115 0.010159 0.0114655 
0.00352372 0.00874092 0.00797876 
-0.000209514 0.000297717 -0.000312301 
-5.3632e-05 7.56663e-05 -0.000857852 
8.66979e-06 -1.19949e-05 0.000477217 
0.000570885 0.00111477 0.0262569 
0.00849921 0.00889827 0.0754664 
0.00409521 0.0023261 0.0823261 
0.00399667 0.00501303 0.0511877 
0.00988325 0.0082683 0.0601118 
-0.000666119 -0.00464443 0.00420689 
-0.000609176 -0.00415208 0.0028167 
0.00119534 0.00207201 -0.00390849 
-0.000724021 -0.0030627 0.00387654 
1.53667e-06 -0.000292229 0.000247917 
-0.00101689 0.00112614 0.0230644 
0.000102079 -9.37686e-05 0.0202438 
-0.00138781 0.000912076 0.0260105 
-0.000232694 -2.2206e-05 0.0356013 
-3.88431e-06 0.000232775 0.0221823 
0.000108249 -4.68086e-05 0.0203322 
-0.00228606 -0.000491402 0.0312611 
0.000190281 5.80766e-05 3.38519e-05 
6.40245e-05 -0.000170676 0.000371831 
-0.000296356 -4.75031e-05 0.0214775 
-0.000830001 0.000886051 0.0227664 
-0.00060755 -0.000274485 0.00063432 
-0.000420892 -0.000201283 -0.00206397 
0.000113567 5.41847e-05 0.000528515 
-0.00321208 0.00189802 0.0305345 
2.63358e-05 -6.0018e-05 -0.00028369 
0.000127959 -0.000255985 0.00192735 
-0.000201725 0.000422617 -0.00126991 
0.00175414 0.00454072 0.0219742 
0.000130056 0.000157768 0.076204 
-0.00489461 0.000930888 0.0895845 
-0.00543287 0.00219532 0.0724371 
-0.00422143 -0.00129185 0.0760884 
0.00106018 0.000461884 9.99737e-05 
0.00129455 -0.000129693 0.000186157 
-0.00375761 -0.00429668 0.0188886 
-0.00155224 -0.00135935 0.0186549 
-0.000507136 -6.00389e-05 0.0692368 
-0.000187233 0.00021933 0.0541808 
0.0058324 -0.00556193 0.0642538 
0.00284566 -0.00347606 0.0482323 
-0.00015172 -0.000284531 0.000369117 
7.67425e-05 6.35744e-05 0.0191656 
-1.51415e-05 -3.37125e-05 0.000204453 
0.00109008 0.000966556 0.0270457 
0.0177101 -0.0249729 0.0557042 
0.0083855 -0.0055877 0.0134306 
0.0237385 -0.0131839 0.0354927 
0.00870792 -0.00135915 -0.00963578 
0.00433911 0.00104863 -0.00289289 
-0.00542915 -0.00576803 0.0177462 
-0.00704335 -0.00121547 0.0178036 
-0.00970219 -0.00627864 0.00761311 
-0.00167925 -0.000378202 0.00144076 
0.00179378 0.00483537 0.00372432 
0.00049171 -0.00118227 -0.00155669 
0.000623213 0.00506027 0.00697798 
0.000233403 5.52461e-05 0.00128777 
4.00777e-05 1.06824e-05 -4.87411e-05 
-2.31135e-05 -7.03459e-06 0.000225274 
-0.00279822 0.00100449 0.0211894 
0.0542227 0.0437854 0.237302 
0.0451418 0.0702836 0.251981 
-0.00888144 -0.0422866 0.361713 
0.097202 0.0876974 0.0620001 
2.25341e-05 0.000139893 0.0175874 
1.79765e-05 -0.000129275 0.0233315 
-0.00024133 -0.000193352 0.000366459 
0.00116974 0.000832696 0.0275286 
0.0158518 0.0146192 0.100043 
0.0104294 0.0178099 0.0674376 
0.00441141 0.00902586 0.0707383 
0.00225164 0.0154049 0.0947469 
0.0444686 -0.0204658 0.0987103 
-0.0178297 -0.0257768 0.0924639 
0.0155636 -0.0234705 0.124662 
-0.00388396 -0.0348904 0.182439 
0.000157413 0.000104784 0.000501861 
0.000191226 -3.30608e-05 0.000123975 
-0.000107232 2.07804e-05 0.017837 
-0.000775191 0.000854041 0.0259836 
0.000282819 -1.50918e-05 0.00015929 
-0.000165729 -3.5278e-05 0.0180755 
-6.24874e-05 -0.000131208 0.0226065 
-0.000961115 0.00119902 0.0263738 
0.000378394 0.000592683 0.0461413 
0.000756056 0.00106992 0.0236283 
-9.5053e-05 -0.000102676 0.0240727 
0.000413743 0.000986206 0.0239669 
-8.88149e-05 0.000386809 -0.000412763 
-0.00180132 0.000882911 -0.00114845 
0.000834038 -0.00139269 0.000501607 
0.00164466 -0.00579071 0.00579555 
1.14058e-05 0.000135513 6.73445e-05 
-1.80448e-05 -0.000188839 3.98334e-05 
1.1773e-05 2.1239e-05 -0.000610084 
-0.000664926 0.000932968 0.0224412 
-0.00456097 0.0055526 0.0179209 
-0.00435876 0.00339671 0.0251831 
-0.0058244 0.00365123 0.0443986 
-0.0122488 0.011395 0.0457728 
-0.00331176 0.00199594 0 
0.000592522 -0.00735139 0 
0.0133778 0.0102418 0 
0.0365025 0.0110727 0.0161268 
0.000733449 0.000749092 -0.000845914 
-0.0037033 -0.00558579 0.0154158 
0.00183469 0.000475299 -7.97322e-07 
-0.00182784 -0.0034906 0.00549719 
0.0093152 0.0140975 -0.00966081 
0.00367961 0.00253995 -0.00790788 
-0.0097894 -0.00178517 0.00239308 
-0.051944 0.0178263 0.0640064 
0.00027878 -6.97483e-05 0 
0.000749108 0.00061792 0 
0.000683672 0.00023714 0 
-0.00235832 -0.00131861 0.00103279 
0.00027983 -0.00103205 -0.00102921 
6.7859e-05 -0.000170065 0.000468262 
-2.50689e-05 0.000147394 0.000583878 
-0.00190658 -0.00303815 0.0160198 
-0.0082295 0.0204439 0.321021 
0.0351644 0.0314149 0.23249 
-0.000829164 0.0189356 0.436303 
-0.0744128 0.0526959 0.159208 
3.00099e-05 -0.000146303 -0.000589489 
1.03482e-05 -1.32855e-05 0.000464399 
-1.64932e-05 9.84563e-05 0.00064825 
-0.000852877 -0.00107234 0.0187594 
0.00337266 0.00474926 0.0233556 
0.00217761 0.000997662 0.0270019 
0.00521063 0.00536876 0.0377279 
0.00290785 0.00357531 0.0173966 
-0.00165592 -0.000389943 0 
0.00189772 0.000992883 0 
-0.00114338 0.000799758 0 
0.000268742 0.00463693 0.0021981 
0.000640529 9.68965e-05 0.0444187 
-0.0017202 0.00359961 0.0475849 
-0.00102864 0.00300507 0.0352776 
-0.00126747 0.00121549 0.0246093 
-0.0162683 -0.00988784 0.0132978 
-0.00630566 -0.0292874 0.0457188 
-0.0186062 -0.0294893 0.0306458 
0.0270277 -0.000598573 0.00191471 
6.84654e-05 -0.000112976 0.0486638 
-6.43803e-05 -0.000294112 0.0635651 
-0.00017248 -5.54836e-05 0.0475245 
-0.00185662 -0.00388207 0.0670743 
0.000649737 -0.000376899 0.000303869 
-0.00215359 0.000100939 0.0304195 
0.000498341 -7.08465e-05 1.05408e-05 
-0.00237219 -0.000789631 0.0193834 
5.91074e-05 -0.000143538 0.0197261 
-0.000306547 8.65661e-06 0.00027102 
-9.28797e-05 8.42094e-05 0.0186156 
0.00135646 -0.000759971 0.0268884 
0.00167497 0.00168337 0.0261446 
0.0035605 0.00362925 0.0503557 
-1.83989e-05 -0.000112176 0.036782 
0.00121827 0.00148089 0.0267892 
0.00206457 0.00233109 0.0215781 
0.000755624 0.00111157 0.0228574 
0.00434349 0.00438777 0.0376379 
-0.000906987 0.00131636 0.0248115 
0.00477644 0.0269323 0.0382868 
0.0201881 0.00382465 0.0563718 
0.012063 0.00231804 0.00741726 
0.0245817 0.0298013 0.0406805 
0.0134649 -0.0101427 0.0578765 
0.00577504 -0.00410944 0.0479546 
0.00492134 -0.00564977 0.0651529 
0.011148 -0.00525723 0.0695144 
0.0300109 -0.0141884 0.056615 
-0.00328196 0.0468912 0.023805 
0.0321199 0.0229921 0.110043 
0.0181286 0.0339131 0.0618059 
-0.000182471 0.000128522 0.00157205 
0.000738927 -0.000372831 -0.000572104 
0.00033074 -0.000228858 -0.00268868 
-0.00756724 0.000312647 0.0115274 
-0.000218875 -0.000288828 -0.00132614 
-0.000606814 -0.000837118 0.000526851 
4.99905e-06 4.3546e-06 0.000289455 
0.000486503 -0.00106536 0.0125032 
-0.0214459 -0.0341218 0.235257 
-0.00559386 -0.055591 -0.0419262 
-0.0132716 -0.0712861 0.142996 
-0.0461395 0.0530668 0.107264 
0.00476533 0.00502516 0.0388269 
0.00209875 0.00313747 0.0212563 
-0.00207324 0.00443683 0.036292 
0.00468031 0.00897939 0.0501708 
0.000226749 -0.000222588 -0.00018098 
3.13192e-05 -3.04724e-05 -0.000495468 
0.000223155 -0.000219616 0.000781948 
-0.00162016 -0.000408885 0.029877 
-0.0118259 -0.00139267 -0.0027423 
0.00029864 -0.00834662 -0.012866 
0.0101626 0.0598597 0.0706536 
0.00482072 0.00774105 -0.00842637 
-0.00319692 0.00217842 0.00141446 
0.00790325 -0.00386222 0.00271547 
-0.00515198 0.00480185 -0.00216791 
0.00745045 -0.00722657 0.00399837 
0.000249565 0.000311603 -8.33511e-05 
0.000241393 0.000560239 -0.000378864 
-0.000181584 -4.42441e-05 -0.000327375 
0.00274916 0.000590394 0.0018058 
0.00612887 -0.00453334 0 
0.00852557 -0.000503912 0 
-0.000113043 0.00234337 0 
-0.020635 0.0215068 0.0055693 
0.00335108 -0.018219 0.0559364 
-0.0100668 -0.0221279 0.0921257 
0.00600121 -0.0236914 0.107776 
0.0230738 -0.0190081 0.0682827 
0.000215253 -1.9323e-05 0.0771747 
-0.000766507 -0.000507993 0.0835082 
0.000686441 -0.000749893 0.0861847 
0.000138006 0.00458917 0.0801435 
-0.00123953 0.00183158 0.00301939 
-0.0144842 0.0120804 0.036733 
-0.0135629 0.0091812 0.0153908 
-0.0053863 0.00773361 0.0183391 
0.000807237 0.000372947 -0.00134445 
-0.000944528 -0.0031539 0.00266017 
0.00151866 0.000746591 -0.00130726 
-0.000889461 -0.00224635 0.00281972 
-0.000829464 3.49229e-05 0.0721014 
0.000132585 0.000213564 0.0772563 
3.83409e-05 0.000207044 0.0633612 
-0.000212076 0.00426188 0.0789679 
-0.00152401 0.0011487 5.23313e-05 
0.00473869 -0.00288188 0.0136914 
-0.000453247 0.000736198 -0.00064665 
0.00432346 -0.00182702 0.00488049 
3.27638e-05 4.68557e-06 0.0178779 
0.000192314 9.01382e-05 0.0207897 
-7.39555e-05 -6.4102e-05 0.0326464 
-0.000199202 -0.00102375 0.0256405 
0.000908196 0.00433407 -0.00226877 
-0.00591131 -0.00934343 0.00931408 
-0.000998644 -0.00054805 -0.00172562 
-0.000266523 -0.00879173 0.00740144 
-0.0105882 0.00486009 0.01398 
-0.00576143 0.00254609 0.0134471 
-0.0164459 0.00778898 0.0284963 
-0.00323893 0.000476119 -0.00398422 
-0.0268465 0.0214461 0.0841377 
-0.0136617 0.0180382 0.0677815 
-0.0100993 0.0284889 0.127822 
-0.0162177 0.0230182 0.106125 
0.00513649 -0.00445884 0.0269399 
0.00639397 -0.00412644 0.0496866 
0.0048814 -0.00158645 0.0380386 
0.00108814 -0.000526873 0.0253922 
-0.0174142 0.0426518 0.0199949 
-0.0325986 0.0235745 0.0661089 
0.0135106 0.0149818 -0.0327181 
-0.0166442 0.0294452 0.113246 
-0.000132731 0.000576603 -7.02502e-05 
-0.000109006 0.000936323 0.000962648 
0.00137289 -0.0015494 0.0258081 
0.0025511 -0.00230674 0.0218211 
-0.0102338 -0.00485583 0.0154531 
-0.00385624 -0.00562421 0.0283366 
-0.00512648 -0.00301139 0.0152777 
-0.0121314 -0.0132844 0.0463748 
-2.38114e-05 -0.000308219 0.0609204 
-0.000663812 -8.19566e-05 0.0483589 
3.97406e-05 0.000367238 0.0402091 
0.00112176 -0.00516501 0.0587814 
-0.000152927 -1.83996e-06 0.0646474 
-0.00559159 -0.00412762 0.0591069 
0.000294213 -0.00042285 0.0592216 
-0.00402439 -0.00226203 0.0745914 
1.62578e-05 -0.000109409 0.0747595 
-0.00332302 -0.003886 0.0832861 
0.00102935 0.00121171 0.0860223 
-0.0036255 -0.00239159 0.0753697 
0.0217965 -0.0246931 0.0925132 
0.0508033 -0.042613 0.138327 
0.0108859 -0.00947399 0.148767 
0.0180646 -0.0333192 0.189261 
0.00316807 -0.0106228 0.0843751 
0.00301672 -0.00373949 0.0816181 
0.000992853 -0.00674961 0.0605625 
-0.00351416 -0.00572831 0.0704429 
0.00140062 0.00306398 -0.0108398 
0.00137096 -0.00211147 -0.000934761 
-0.0134242 -0.00631497 0.0177306 
-0.0227438 -0.01351 0.0193028 
-0.000149299 -0.000154136 0.000473531 
-0.000179875 -0.000185381 0.000543878 
-3.36932e-05 -2.63565e-05 -0.000588213 
-0.000787139 0.00121244 0.0311482 
0.00628453 -0.00517272 0.0177297 
0.00530589 -0.00335848 0.0187227 
0.000149989 0.00193498 -0.00318189 
0.00286156 -0.00228655 0.0220686 
0.0104709 0.00290242 0.0751784 
0.013116 -0.00622132 0.0930746 
0.00537456 -0.00111884 0.0736107 
0.0113382 -0.00414518 0.069726 
-5.13293e-05 9.95325e-06 0.000240387 
-0.000202567 5.62362e-05 -0.000416968 
-0.00020087 5.07339e-05 -8.27927e-06 
-0.000509571 -0.000705838 0.0247906 
-0.000216172 0.000293558 0.000449609 
0.000208959 -0.000286007 -0.000537471 
7.18857e-05 -0.000123547 -0.0013378 
-0.000652144 -0.00123629 0.0048005 
0.000199652 0.000331303 0 
-0.00272977 -0.000639258 0 
-0.00230993 -0.00260126 0 
0.00920575 0.00289938 0.00079111 
4.81091e-05 -0.0170855 0 
0.00488521 0.020057 0 
0.00360785 0.00758012 0 
-0.0240544 -0.0137475 0.00964829 
-0.000121351 0.000611329 0.0547133 
-0.0054278 0.000609568 0.0581027 
0.000116123 -0.000664247 0.0635047 
-0.00558177 0.00239806 0.0708423 
0.00206164 0.0176538 0.248014 
-0.00179566 -0.00706949 0.265898 
0.0143342 0.0269395 0.117052 
0.0595322 0.0607882 0.0240738 
-0.0126969 0.000631576 0.0507893 
-0.0231938 -0.0160659 0.0776623 
-0.0137154 -0.0120786 0.0444379 
-0.0115343 0.00608045 0.0682007 
0.00560099 0.0675889 0.130341 
0.0104906 -0.0337892 0.385438 
-0.0355523 0.001621 0.317231 
-0.0657505 0.0921793 0.0440784 
-0.000338834 -0.000193227 0.00113696 
9.70134e-05 7.71642e-05 -0.00118355 
0.000308729 0.000146774 0.000114517 
-0.00338593 -0.000472282 0.00213804 
-0.000134153 -0.000200866 0.0620351 
-0.000304739 0.00545577 0.0590721 
0.000286738 -0.000722304 0.0434448 
-0.00112531 0.00369597 0.0491104 
0.0134079 -0.0121655 0.055229 
0.0207545 -0.022745 0.0727464 
0.0141776 -0.0126191 0.0565282 
0.0153682 -0.0166865 0.0310723 
0.0170522 -0.00437554 0.0445361 
0.0126524 -0.00488601 0.0573851 
0.00847954 -0.00605185 0.00976979 
0.0115871 -0.0100823 0.0409934 
-0.00140671 -0.00175026 -0.00101887 
-0.00191194 -0.00114767 -8.89572e-05 
0.0058107 0.00366818 0.0153503 
0.00978694 0.00679623 0.0100165 
-0.00306894 0.00178648 -0.00263683 
-0.00208015 0.00106949 -0.00277535 
0.00986877 -0.00956277 0.0144809 
0.00450677 0.0010723 0.00213763 
-0.00968703 -0.0145447 0.0258148 
-0.00499841 -0.00614029 0.0218248 
-0.00482891 -0.00568087 0.016903 
-0.00179245 -0.00352815 0.00060745 
4.15317e-06 5.08668e-05 -0.000458216 
-3.82662e-06 -4.68673e-05 0.000162385 
-1.27812e-06 -1.5654e-05 7.65124e-05 
0.000597339 -0.000300545 0.0244746 
4.94924e-05 -0.000285739 9.76299e-05 
0.00121326 0.0024348 0.0224008 
-0.000297412 -0.000747909 0.000301764 
0.000207489 0.00115463 0.0231812 
-0.0337433 0.0308067 0.0670895 
-0.019468 0.0248685 0.102235 
0.00166168 0.0190877 0.146277 
-0.0341384 0.0387839 0.148411 
0.00235101 -0.0110597 0.087232 
-0.0034029 -0.00515143 0.0863777 
0.00423043 -0.00300612 0.0816256 
-0.00379467 -0.00592403 0.06912 
-0.000316386 -0.000363644 0.0553754 
0.000281998 0.000163725 0.0574367 
0.00036719 -0.000264416 0.042921 
-0.00509668 0.00421965 0.0581658 
0.000347609 0.000246197 0.0580225 
-0.00503254 0.00430309 0.0588297 
-0.000141749 -0.0002227 0.0543845 
-0.00522375 0.0030631 0.0708266 
0.00505474 -0.00629181 0.0506366 
0.0135417 -0.00331243 0.0532091 
0.00462949 -6.65924e-05 0.0365968 
0.012012 -0.00496548 0.0693012 
-0.0138537 0.0177296 0.0248467 
-0.0122264 0.00944901 0.0143861 
-0.0139314 0.0117033 0.0429625 
-0.00443993 0.00802042 0.016304 
-0.01072 -0.00574032 0.0813889 
-0.00480131 -0.00388222 0.0560223 
-0.0115025 -0.0139883 0.0805126 
-0.0125588 -0.0104799 0.0621214 
-6.88687e-05 2.27032e-05 -0.000207224 
0.000257161 -9.84071e-05 0.000483339 
-5.3686e-05 6.06114e-05 0.00075281 
0.00254008 0.000507238 0.0184445 
-4.79922e-05 -2.36177e-05 0.000308288 
3.10075e-05 1.11114e-05 0.000211375 
0.000351312 0.000151264 -0.000116638 
0.000641642 -0.000658342 0.0269688 
0.000497995 -0.000442803 -0.00052315 
0.000358211 -0.00105696 -0.00100828 
0.000787654 -0.000567447 -3.40167e-05 
0.00450417 0.00116544 0.003109 
0.0174046 0.000462276 0.0395036 
0.00307237 0.000528135 0.0204241 
0.0134936 -0.00270593 0.0538934 
0.00759597 0.00435504 0.0488594 
0.00680965 0.031413 0 
-0.0317624 -0.034448 0 
0.0194204 0.0182182 0 
0.0252243 0.0829637 0.0821294 
0.0149707 0.0170803 0.0487911 
0.0178232 0.0115212 0.0708905 
0.0201713 0.016386 0.0980252 
0.00981214 0.00727734 0.0563275 
0.00012468 0.000182876 0.000226258 
-0.0013332 -0.00137758 0.0264462 
-5.50106e-05 0.000383826 -0.00142041 
-0.000961925 -0.00126798 0.0254661 
-0.00249522 -0.00137894 0.0317057 
-0.00544745 0.00384049 0.0246896 
-0.00685645 0.00367413 0.0428422 
-0.00159105 0.000873309 0.0218423 
-6.55803e-05 -3.16875e-05 0.0160871 
-7.69062e-05 1.19298e-05 0.0332986 
9.89802e-05 0.000229625 0.0206876 
-0.00112345 -0.000541215 0.0245254 
-0.0186041 -0.0154238 0.0761959 
-0.01302 -0.0148972 0.0359424 
-0.0112505 -0.00962392 0.0449206 
-0.0131003 -0.0104911 0.0622865 
-0.0272379 0.00538472 0 
0.0286692 -0.0252922 0 
-0.0187533 0.0154169 0 
-0.0673848 0.020246 0.0790759 
-0.0194865 0.0215251 0.0888883 
-0.000727241 -0.00754909 0.171384 
-0.00783932 -0.0173721 0.116736 
-0.0821141 -0.00596399 0.0639965 
-0.00426162 0.0116015 0 
-0.00512352 -0.0020161 0 
0.0046428 -0.00543977 0 
0.00321282 -0.0129674 -0.00183845 
0.000216623 1.87243e-05 0.000166529 
0.00128291 0.000106667 -0.000999328 
0.000638787 5.51575e-05 0.000464151 
-0.00127547 -0.00257605 0.016716 
6.03345e-05 0.000138601 0.000682466 
-5.08271e-06 8.99428e-07 -0.000208878 
-0.000203573 -0.000687373 0.000342353 
0.000130045 -0.00297473 0.0239623 
0.000370557 -0.00196276 0 
0.000549593 8.80269e-05 0 
-0.000570152 -0.000361526 0 
-0.00398486 0.00350888 0.0012023 
-0.0418512 -0.093257 -0.0101313 
-0.0344489 -0.0449796 -0.0666644 
0.109434 -0.0112658 0.177788 
0.0076266 -0.0771889 0.160113 
0.00113342 -0.000467546 0.00318768 
-0.00144469 0.00123564 -0.000299661 
0.00397114 -0.00834736 0.0103818 
0.00302831 -0.0105835 0.00525864 
-0.0012174 -0.00184141 -0.000517243 
0.00397424 0.00759922 0.0223393 
-0.00147902 -0.000948677 -0.00131402 
0.00218687 0.00509585 0.0132041 
0.000355427 0.000244681 -0.00214009 
1.45142e-07 -1.93186e-08 0.000559476 
-0.000818647 -0.000562506 -5.85548e-05 
-0.00278413 0.000160501 0.0201842 
0.0098129 -0.00826337 -0.0271538 
-0.0113534 0.00690359 0.00293704 
-0.0494793 0.0304216 0.0555157 
-0.0211155 0.034023 0.0519847 
0.000376513 -0.000796931 -0.00174458 
-0.00602939 0.00456312 0.00607624 
-0.000720096 -0.00154155 -0.0016039 
-0.00385556 -0.000369912 0.00356132 
-3.7748e-05 -3.81666e-05 0.0357126 
-0.00149184 0.00125219 0.0235898 
-0.00170225 0.00307066 0.0475264 
-0.00115895 0.00110767 0.0249403 
-0.000163312 9.29889e-06 0.0363829 
0.0018057 0.00187048 0.0262584 
-0.000349808 0.000232242 0.0413126 
0.00359078 0.00328452 0.0507041 
0.00462168 -0.0143778 0.0114432 
0.00431025 -0.00508427 0.01236 
0.0210346 -0.00566116 0.0359421 
0.0099986 0.000988947 0.0140754 
-5.7958e-05 5.68324e-05 -0.000615552 
-2.95118e-05 3.66557e-05 0.00118234 
-0.000558742 0.000579885 0.00026707 
0.00167948 0.000472361 0.0212169 
-0.00348738 0.00287266 0.00297435 
-0.00670921 -0.0108855 0.0131667 
-0.00808087 -0.0228165 0.0245448 
-0.000420462 -0.00377299 0.00188868 
-0.000970989 -0.000635567 -0.000249045 
0.00100809 0.0011553 -0.000667529 
0.000403266 -0.000521678 -0.000440086 
-0.00135659 0.00113883 0.00184406 
-0.00509234 0.00226603 0.0251329 
-0.00191949 0.00147365 0.022867 
-0.002779 0.000197043 0.0308188 
-0.00282755 -0.00108955 0.0194612 
0.00022636 -0.000137392 0 
0.000723568 -0.000749219 0 
0.000164991 0.000806201 0 
-0.00322475 0.00456285 0.00108292 
-0.0520889 0.0494368 0.304521 
0.0284823 -0.079134 0.258056 
-0.00347639 -0.0219319 0.440843 
-0.0886725 0.130266 0.183665 
-0.000254303 -0.000224884 0 
0.000326269 0.000526871 0 
-5.84786e-05 0.000382899 0 
-0.00131566 -0.00101542 0.00102725 
-0.00566003 -0.0294022 0.0539443 
-0.0132178 -0.00732298 0.0010165 
-0.0184124 -0.0297159 0.0362778 
-0.0221075 -0.0146855 0.038501 
9.99259e-05 9.00063e-05 0.000627006 
-0.000191775 -0.000138905 -0.000315005 
0.000157593 0.000102423 -4.89484e-05 
-0.00266583 -0.000849842 0.00103641 
-0.000401716 -0.000386092 0.000155949 
0.000192111 0.000183943 0.00116442 
-0.000125059 -0.00011972 -0.000795736 
0.00162967 -0.000334543 0.00145829 
5.87198e-05 0.000116085 0.000248814 
-4.13635e-05 -5.75689e-05 -0.000905509 
-0.000214169 -0.00045122 -6.80712e-05 
0.000463734 -0.000940303 0.023689 
-0.0422455 -0.0150968 0.195103 
-0.027444 -0.000178188 0.144695 
0.0161264 -0.0134668 0.255494 
-0.0686807 0.0556172 0.0850659 
-0.0159749 0.0130878 -0.0407141 
0.0345351 0.00519783 0.0253119 
0.034831 0.0180671 0.0146416 
0.0706671 -0.00320505 0.115528 
0.00855217 0.0218644 0.0216839 
-0.00187512 0.00380748 0.00177123 
0.00109708 -0.00114146 0.00327107 
0.00615077 0.0134101 0.0116321 
0.00462311 -0.0134383 0.147396 
-0.0181924 -0.0051058 0.120418 
-0.000571929 0.0105561 0.12003 
-0.0032937 -0.00443161 0.10269 
0.000702468 0.000612715 0 
-0.00330189 0.00271104 0 
-0.00550744 -0.000915669 0 
0.0345706 0.00626793 0.00491185 
5.0717e-05 0.00059575 0.0636062 
-0.00550137 -0.000221561 0.057828 
-6.23897e-05 -0.000924885 0.0653525 
-0.0043343 -0.0018074 0.0748869 
0.00788011 0.0255086 0.0559097 
-0.0467077 0.0183451 0.0548031 
-0.0211978 0.0192567 0.109606 
0.0171016 0.0480335 0.102132 
-0.00994758 -0.0131471 0.0837218 
-0.0115089 -0.0142608 0.0481969 
-0.014008 -0.0224154 0.0906361 
-0.0219702 -0.0224822 0.0662071 
-0.0203367 -0.016163 0.0804003 
-0.0106483 -0.010345 0.0583191 
-0.0125481 -0.0129558 0.0822363 
-0.02144 -0.0221151 0.0657601 
-0.000740833 0.000740385 -0.000259246 
-7.96371e-05 6.98845e-05 -0.000739975 
-4.55814e-05 5.64376e-05 0.000782695 
0.00117599 0.00035224 0.00178888 
0.000283581 -0.000191064 0.000783064 
0.0074752 0.00536313 0.00810538 
0.00021061 -0.00311064 -0.00391108 
0.00328511 0.0066845 0.00677618 
-9.67511e-06 4.71909e-05 -8.86976e-05 
-8.90805e-05 -8.15905e-05 0.0218652 
-0.00016988 0.00013407 0.00017694 
2.77775e-05 -1.41437e-05 0.0173728 
-0.000480299 0.000581119 0 
-0.00097718 -0.00069713 0 
0.000893629 0.0020242 0 
-0.00950582 -0.00449065 0.00449274 
-0.00647109 0.00388894 0.0328386 
-0.00166167 0.00412245 0.0478007 
0.000710099 0.00387481 0.0363609 
-0.00500167 0.00878785 0.0475096 
-0.0159283 -0.0140856 0.036506 
-0.0107769 -0.0117161 0.0504184 
-0.0104734 -0.012608 0.0826903 
-0.0229924 -0.0231283 0.063798 
-0.00314531 0.00459183 0 
0.00535732 -0.000773651 0 
-0.00274689 0.00807694 0 
0.00799382 -0.0395921 0.0036942 
0.000262173 0.012028 0.219138 
-0.00145034 -0.0326251 0.26395 
0.0161003 -0.00253453 0.249115 
0.0357804 0.0438949 0.174017 
-0.0137915 -0.0172273 0.0405461 
-0.00895109 -0.00252526 0.0134801 
-0.0140977 -0.0069801 0.0512455 
-0.0115731 -0.0100295 0.0453336 
-0.00121312 -0.00123926 -0.00448707 
0.00632882 0.00361318 0.0184339 
-0.000625265 -0.00029536 -0.00102044 
0.00462435 0.00225547 0.0186435 
9.96214e-05 -0.000240965 0.0175475 
-0.000176006 -0.000110145 0.0228014 
-1.31841e-05 0.000127078 0.037305 
-0.00199906 0.00214126 0.0326405 
0.00823448 0.0264087 0.0438427 
0.0110452 0.0326511 0.0825759 
-0.0157345 0.0331329 0.133573 
0.0369852 0.0155486 0.106106 
0.000763819 -0.00120892 -0.000272314 
-0.0070042 0.00529832 0.00981058 
0.000261801 -0.00194522 -0.000523871 
-0.00474072 0.00482506 0.0185001 
0.00585938 0.00294575 0.000507657 
-0.00765089 -0.0203917 0.00562981 
0.00122522 0.0147622 -0.00710262 
0.00184826 -0.0337834 0.0225805 
0.00373368 -0.0109904 0.00621235 
0.00656239 -0.00270125 0.0168369 
0.00415765 -0.0111854 0.0131749 
0.0115804 -0.0136027 0.0334816 
-0.000137298 0.000531186 -0.00141095 
-0.000701682 0.00129925 -0.00139354 
0.00103005 0.000140543 0.00209509 
0.00314931 -0.000631408 0.00330233 
0.00729556 -0.00544812 0.0184952 
0.0129957 -0.00330849 0.00254137 
0.0125015 -0.0225768 0.0402659 
0.00273224 -0.0094118 0.00469333 
0.0039892 0.00494267 0.05297 
0.0051219 0.000774895 0.0541396 
0.00482829 0.00393321 0.0362501 
0.00906402 0.00804909 0.0578081 
-0.00013586 -0.00019615 0.000102389 
-0.000166512 0.000174604 0.0195231 
-0.000135459 1.79815e-05 0.021408 
0.00148111 0.00104173 0.026797 
-0.0111864 -0.014015 0.0783452 
-0.00968242 -0.022943 0.0951174 
-0.0205187 -0.0261358 0.118419 
-0.0249855 -0.0219169 0.0638767 
-0.000357068 3.52606e-05 3.24004e-06 
-0.000555363 5.48423e-05 0.00101567 
0.000261215 -2.57951e-05 -0.000928065 
0.00223019 0.00148575 0.0213077 
0.00694942 0.00199552 -0.0112663 
0.00291414 -0.00931921 -0.0064793 
-0.00956897 -0.00170903 -0.0052116 
-0.0581067 0.0187449 0.0773629 
0.00828993 -0.00243423 0 
-0.00804291 0.00408169 0 
-0.00621636 0.00253088 0 
0.0155731 0.00302596 0.00281283 
-0.00958797 -0.0174021 0.0248358 
-0.00295485 -0.0054838 0.00436399 
-0.00709536 -0.00703754 0.0224931 
-0.000163204 -5.68436e-05 0.000994554 
0.0026512 0.000266615 0 
-0.000284361 0.000143503 0 
-0.000987353 -0.00226109 0 
0.00301036 -0.00122132 0.00111402 
1.93847e-05 -0.000238305 0.0591924 
-0.00513316 -0.00430158 0.0573525 
-3.92633e-06 0.0003069 0.0483826 
-0.0030596 -0.00244365 0.0398629 
-0.000197841 0.00011111 0.000478803 
-5.55306e-05 2.74883e-05 0.000216384 
-8.73722e-06 2.4906e-05 -0.000422223 
0.00107206 0.000192254 0.0268147 
0.00216214 -0.0358497 0.0679139 
0.0320996 -0.0126977 0.113678 
-0.0318627 -0.0644477 -0.00629636 
0.00610377 -0.0315896 0.162317 
-0.00441101 0.00178911 0.0908129 
-0.00310831 -0.00388214 0.0858285 
-0.0110584 -0.00332424 0.0816596 
-0.00363836 -0.00182304 0.0748136 
-0.000327871 0.00117734 0.000830886 
-0.00418075 0.000350278 0.0168611 
0.00141945 -0.00100919 -0.000371723 
-0.00182932 -0.000971503 0.0189545 
0.0258136 0.0261494 0 
-0.0222571 -0.000172531 0 
-0.0194654 -0.00932231 0 
0.0438196 0.0365437 0.0600211 
0.0011764 -0.000605455 -0.00180603 
-0.00202833 0.00109771 0.00378467 
0.00128774 -0.00031823 0.00023549 
-0.000488369 0.00284309 0.00172414 
0.00123652 0.0106463 -0.0143807 
-0.0229139 -0.0336801 0.0402053 
-0.0106516 -0.0114807 0.000602622 
-0.0254203 -0.0119906 0.0397953 
-0.00344607 0.0600785 0.209428 
-0.0761978 0.0305872 0.214238 
0.0181768 0.0179306 0.295882 
0.11892 0.0428157 0.162192 
-0.000616145 0.000135149 0.0784902 
-0.000516681 -0.000521759 0.0847998 
0.000128003 0.000224802 0.0738606 
0.00411013 0.00276608 0.0782315 
0.000548459 0.000264182 0.0613576 
-0.000195886 0.000273706 0.0470727 
0.000246754 -0.00588898 0.0603251 
-0.0013371 -0.0052805 0.0689612 
0.0252031 0.0786273 0.153543 
-0.00668121 0.0986044 0.221551 
0.00134723 -0.0104123 0.393766 
-0.100177 0.00630232 -0.0413076 
-0.011884 -0.00178318 0.0801212 
-0.00514321 -6.19407e-05 0.0569646 
-0.0131972 0.00131946 0.064564 
-0.00447263 0.00408871 0.0726631 
-5.75262e-05 0.000148325 0.0750956 
0.00111602 -0.00451018 0.0813712 
-0.00165104 -0.00469309 0.0865977 
-0.00180193 -0.00504922 0.0693002 
0.00394109 0.00513691 0.0374954 
0.00231881 0.00213173 0.0218057 
0.00353778 0.00303005 0.019041 
0.000830759 0.00105361 0.0229251 
0.000667068 -0.000361882 0 
0.000420049 0.000351526 0 
-0.000244114 0.000480588 0 
0.000514933 -0.000224308 0.000693701 
-0.0161785 -0.0206299 0.0878921 
-0.0283603 -0.0373184 0.0350113 
-0.00784175 -0.0385016 0.150932 
-0.0167864 -0.0420032 0.0387975 
0.000167321 8.31217e-05 -0.00114603 
0.000731578 0.000338492 -5.16821e-05 
0.000576281 0.000256569 0.00196111 
-0.0058929 -9.3508e-05 0.0134689 
-0.00986376 -0.00182998 0.0807962 
-0.00568531 0.00436137 0.0720712 
-0.00544275 0.00104155 0.0897258 
-0.00412902 -0.00279167 0.0763663 
-0.000111039 0.000218846 0.000309201 
0.000215297 1.1548e-05 0.017174 
1.20302e-07 7.47672e-05 0.0195746 
0.00108898 -0.00104351 0.0260081 
0.0101007 -2.53725e-05 0.0762575 
0.0182225 0.0134384 0.0947481 
0.0184942 0.00999379 0.0692379 
0.0102197 0.00933215 0.0585862 
0.000801308 -0.000559874 -0.000503101 
0.00381656 0.003667 0.0174514 
6.88101e-05 -0.00123146 0.000690313 
0.00155913 0.00172298 0.0202424 
-0.0106557 -0.0618898 0.222856 
0.0457128 0.0207371 0.309822 
0.0307207 0.0263709 0.149977 
-0.0351762 -0.079098 0.0994511 
1.44745e-05 -0.000795601 0.0753297 
0.000582457 5.77742e-05 0.0866125 
-0.000115335 0.000855199 0.0781151 
-0.00314412 -0.00138861 0.0749339 
8.09126e-05 -0.00036905 -0.000464097 
0.000583612 -0.000480733 -0.000813713 
2.38572e-05 -0.000165214 -0.000495027 
-0.00530272 0.00268963 0.00447022 
0.000316009 -0.00071761 -0.000168251 
-0.000116621 0.000322542 0.00181876 
0.000257866 -0.000612944 -0.000970319 
-0.000461467 0.0063586 0.00358164 
0.000131528 -2.2398e-05 0.0710801 
-4.58216e-05 0.000381959 0.0585046 
-6.62973e-05 5.58265e-05 0.0545733 
-0.00462614 0.0024542 0.0697226 
-3.03865e-05 -4.40883e-05 0.0635085 
0.000118946 0.000720347 0.0554908 
0.000582772 -0.000173221 0.0417269 
-0.00571469 0.000342624 0.0570792 
-2.06876e-05 9.77022e-05 -0.000282861 
0.000382487 0.000110486 -0.000150041 
0.000207699 7.71891e-05 9.15191e-05 
0.00106274 -0.00212119 0.000527813 
-0.000257605 0.00198721 -0.00315926 
0.00637541 -0.00341611 0.00460092 
0.000278738 0.000252716 0.00157708 
0.00360531 -0.00536072 0.00559391 
0.000443908 0.000169832 -0.00064517 
-0.000430547 -0.000156871 0.00103795 
0.000473296 0.000194932 3.98762e-05 
-0.00397756 -0.000431127 0.00136168 
0.000265047 -0.000537513 -0.000271018 
-0.000305391 0.000716437 -0.00101269 
-0.000198316 0.00031786 0.00135329 
-0.000466509 -0.0046408 0.0159514 
0.0124205 -0.012042 0.0554403 
0.00278966 -0.00414087 0.0216142 
0.0155205 -0.00760246 0.0577333 
0.0133096 -0.0122334 0.0365786 
0.0114364 0.0417729 0.250471 
0.00724532 -0.0210728 0.21442 
0.00132712 0.0178059 0.205125 
-0.01401 -0.0701142 0.136379 
-0.00911988 0.0108488 0.00723357 
-0.037587 0.0353293 0.0513295 
-0.0050079 0.0254253 0.0532087 
0.0237155 0.00688822 0.00411161 
0.0111234 -0.0085925 0.0214469 
0.00858573 -0.00455472 0.022129 
0.00479543 -0.00329005 0.0185962 
0.00405334 -0.00184383 -0.000830032 
-0.000142519 6.93511e-05 0.000128514 
-0.000143105 2.24848e-05 0.000705561 
0.000146073 -7.65115e-05 0.0149477 
0.000574067 -0.00072526 0.0241636 
-0.0157754 0.0196232 0 
-0.0202085 -0.0232894 0 
0.00439496 0.00084307 0 
-0.0229757 0.0509553 0.0384445 
-0.000215702 -0.000204276 -0.000856442 
-0.000191907 -0.000197236 0.00131924 
-0.000800068 -0.000783153 0.000243963 
-0.000578147 0.00171359 0.0202965 
-0.00163568 -0.0187052 0.050494 
0.0141238 -0.00497202 0.0208878 
0.00291306 -0.0207145 0.037724 
-0.00101628 -0.00734737 0.0202524 
0.00361597 -0.0124976 0.0888235 
-0.0030333 -0.00473688 0.0834649 
-0.00912187 -0.0136116 0.0849128 
-0.00477749 -0.00781948 0.108927 
0.00056405 0.000542195 0.000366686 
6.3779e-05 6.18197e-05 0.000952175 
6.50658e-05 6.18876e-05 -0.00112661 
-0.00255518 -0.000154736 0.00459226 
-0.000423445 0.000264791 0.0429677 
-0.00257415 0.00197151 0.0319137 
0.000323576 -0.000203448 0.0224602 
-0.00154728 0.00141366 0.0262699 
-0.000681827 -0.000687152 -0.000298554 
0.000143438 0.000126282 -0.000523126 
0.000115989 0.000141437 0.000837601 
-0.000452472 0.000390403 0.00309246 
-0.0274018 -0.000476793 0.0534056 
-0.00782679 0.00367298 -0.00406561 
-0.023031 0.0159475 0.0439502 
-0.00514887 0.000716186 0.00989981 
-0.000171863 0.000104589 0.00039477 
0.00108555 -0.000918989 0.0269211 
-0.000170194 -0.000105626 -0.000368975 
0.000887197 -0.000488754 0.0245718 
0.000317123 -8.01668e-05 0.00183113 
-0.000681939 0.000269406 -0.000775743 
6.60905e-05 -3.46222e-05 -0.000202258 
0.00593628 0.000131589 0.00343956 
-0.0092135 -0.0167079 0.0220514 
-0.00266162 -0.00203378 0.00478268 
0.000120403 -0.00564019 0.00310132 
-0.000943891 -0.000809675 0.00331191 
-0.000125392 0.00018484 0.00045912 
-0.000480757 0.000707283 -0.000138567 
7.92584e-05 -0.000118506 -0.00255759 
0.000206703 0.00304473 0.00928721 
3.08025e-05 0.000161252 0.000517714 
0.00297817 -0.00385621 0.0239814 
-0.00223948 -0.00114351 -0.00199593 
0.00360661 -0.00444167 0.0158085 
0.0172752 0.00113178 0.0411994 
0.00658932 0.00830831 0.0274661 
0.00428059 0.000646806 0.0214155 
0.00814046 0.00360649 0.0471878 
-0.000106202 -0.000606425 0.0682365 
0.00462919 -0.0025812 0.0756098 
-0.00057418 0.000732195 0.0808948 
0.00373375 -0.00285616 0.0805645 
-0.000409577 -7.01688e-05 0.000578822 
-0.00076882 0.000368152 0.000400874 
0.00158429 0.000773487 0.0263004 
0.00118418 0.000682059 0.0269175 
1.42356e-05 -1.51908e-05 0.00118148 
0.000299686 -0.000304389 -0.00128125 
0.000653469 -0.000665421 8.75213e-05 
-0.000289961 0.00297465 0.00372261 
5.9525e-05 -5.82778e-05 -0.00103294 
-0.000203238 0.000197725 0.00116925 
0.000479811 -0.000465123 0.000382781 
-0.00192671 -0.000126962 0.0149498 
-6.31114e-06 5.2943e-07 -0.000182832 
6.39294e-05 -5.36292e-06 -0.000191372 
-0.000108124 9.07032e-06 0.00039488 
0.000277368 0.000532968 0.0237665 
1.36245e-05 -0.000126858 0.0192745 
0.001194 0.00140437 0.0269123 
-0.000198971 -0.000508005 0.000420818 
0.00104109 0.000849426 0.0227737 
-0.000395422 0.000266115 0 
-0.000390416 -9.33294e-05 0 
-0.000485717 0.000141431 0 
0.000665527 0.000393506 0.000496181 
-0.000211609 -6.22042e-06 -0.000233575 
0.000270717 0.000163367 0.01761 
8.09429e-05 -0.000189055 0.000331896 
0.000507444 0.000693624 0.0272817 
-0.00193356 -0.00259606 -8.61166e-05 
0.000478233 0.00332233 0.00217785 
-0.00105551 -0.00272884 -0.00076609 
-0.000593405 0.00597295 0.000298544 
-1.04467e-05 3.49476e-05 0.000477516 
0.000195646 -0.000295521 -0.00080353 
-0.000240282 0.000330817 0.000258434 
-0.000299266 -0.00127759 0.00380756 
-0.000288825 -0.000126575 0.000517479 
0.00127471 0.000633075 0.0266993 
-0.000167493 -0.000295491 -0.00032358 
0.00104426 0.00108573 0.0228438 
-0.000425932 0.000111962 -9.65175e-05 
-0.00039109 0.000767911 -0.000647415 
0.000408672 -0.000392691 0.0015487 
-0.000209215 -0.00133064 0.00073743 
-0.00186735 0.00494716 -0.00411603 
0.00517835 -0.00395449 0.00439251 
0.000545482 0.00221699 -0.00303129 
0.00499586 -0.00726373 0.00560801 
0.0214383 -0.00396773 0.160049 
-0.0485699 -0.00740574 0.318557 
0.0337595 -0.00297587 0.212937 
0.105366 -0.0306425 0.0996142 
6.38286e-05 0.00118985 -9.99572e-05 
-0.000541368 -7.38111e-05 -0.000325989 
0.000274699 -0.00117732 0.000967965 
-0.00215459 -0.00353393 0.000376601 
0.000294089 -0.000190906 0.00187523 
0.000586575 -0.000400723 -6.84867e-05 
-0.000134259 8.93966e-05 -0.000427907 
-0.0032403 0.000115435 0.0165702 
0.018575 0.00737596 0.0703098 
0.0123289 -0.00429409 0.0546894 
0.0108202 0.00227082 0.0746137 
0.00958785 0.00380689 0.0465257 
-0.00164133 0.00331004 0.0356114 
-0.00218815 0.00381917 0.0478397 
-0.00328585 0.00472798 0.0337673 
-0.000607904 0.000371939 0.0242492 
-1.24782e-05 4.25272e-05 -0.000355778 
-0.00017652 0.000273856 -0.000159101 
-9.27703e-05 0.00012542 0.000191568 
0.00054619 -0.00166662 0.00149953 
6.45602e-05 0.000101877 0.00049032 
-1.20855e-06 -7.6326e-06 -0.000368894 
0.000266497 0.000392439 0.000258815 
-0.000861585 0.000315256 0.0258139 
-0.000351985 -0.000281617 0.0355502 
0.000106085 3.67007e-05 0.0560953 
0.000100653 -0.000319024 0.0449614 
0.00382334 0.00383626 0.0518133 
-0.000127 0.00027687 0.00140089 
-1.3875e-05 5.0967e-05 -0.000670679 
-0.000115675 0.000283243 4.09514e-05 
-0.000246742 -0.00466116 0.00260339 
0.00550552 -0.00669178 0.00780323 
0.0155678 -0.0333433 0.0488082 
0.014088 -0.0151469 0.0300327 
0.00303793 -0.0143687 0.00669919 
0.0156034 0.00131381 0.0439278 
0.0121753 -0.00582979 0.0541729 
0.0185372 0.00840143 0.0704889 
0.00890545 0.00384366 0.045728 
0.000571833 0.00070939 -5.16833e-05 
-0.00337361 0.00251733 0.0222284 
0.000879631 -8.56382e-05 0.000527043 
-0.00180551 0.00102075 0.0207376 
-0.0015854 -0.000302268 0.000338391 
7.66127e-05 -0.000836463 -0.00173623 
0.000376951 -0.000193727 0.000294054 
0.000845243 0.00274902 0.000969134 
-0.000102475 0.000374942 0.000474297 
-0.000110146 0.000443547 -0.0016152 
7.96229e-05 -0.000321361 0.00120578 
0.00165931 0.00457781 0.0233094 
-0.0363717 -0.0201858 0.0556851 
-0.0269213 -0.0317404 0.119261 
0.000553346 -0.0256197 0.0976417 
-0.0254593 -0.0212693 0.0635857 
-0.00254088 0.00127806 0 
-0.000165271 -0.00095134 0 
0.000233801 0.000939119 0 
0.00579348 0.000715861 0.00156765 
0.000125318 0.000489603 -0.000123436 
-0.000159634 2.43465e-05 -4.76876e-06 
-1.8677e-05 -8.84482e-05 0.000101505 
-8.68776e-05 0.000547435 0.000259498 
-0.00913484 -0.0134666 0.00563692 
-0.0276191 -0.0327539 0.0501535 
-0.0317301 -0.0143244 0.0528054 
-0.0247245 -0.0187043 0.0693129 
-0.000259787 -0.000252704 0.0589527 
-0.000106114 0.000250875 0.0481653 
8.80236e-05 1.90888e-05 0.0379629 
-0.00245215 -0.00238366 0.0404576 
0.00643253 -0.0106679 0.00965058 
0.0136378 -0.0153617 0.0303069 
0.0136108 -0.0260718 0.045521 
0.0104708 -0.0115129 0.0371896 
0.0153207 0.0100484 0.336443 
0.0160591 0.0593723 0.119817 
0.0181303 0.084581 0.157204 
-0.0488963 0.0314877 -0.104133 
6.21084e-05 1.02558e-05 0.000574537 
-0.000123626 -1.27931e-05 -0.000363936 
0.000131235 8.7986e-06 -0.000102874 
-0.000566142 0.000435597 0.0257306 
0.00258712 0.000129998 0.000485307 
-0.00300895 -0.00671637 0.00372868 
-0.00854938 -0.00506258 0.014586 
-0.00528827 -0.00536347 0.0045858 
-0.00548831 0.00946255 0.0165818 
-0.0132116 0.0138164 0.0442619 
-0.00255327 0.00289004 0.0189677 
-0.00668863 0.0094859 0.0182158 
0.0105404 0.00541791 0.0123411 
0.0116529 0.0346444 0.0469773 
0.0068805 -0.0015662 -0.00462393 
0.00228897 0.00919328 0.00557481 
-0.00101179 0.00104914 -0.000991782 
-0.00211729 -0.0059815 0.00948142 
-0.00294849 0.00221491 -0.00207656 
0.00279707 -0.00787675 0.00703433 
-0.000602862 -0.00025013 0 
0.000521625 0.000223497 0 
0.0011133 -0.000179271 0 
0.0021705 0.000728025 0.00329696 
-0.000104331 -0.000183198 0.000149385 
-0.000211575 -3.95736e-05 0.0228135 
3.89147e-05 4.94921e-05 0.0158544 
-0.000135922 0.000874195 0.0238317 
0.0175635 -0.00513565 0.0326978 
0.0315071 0.0188634 0.118598 
0.0258625 -0.000721536 0.0642388 
0.0255332 0.0341404 0.0640923 
-0.00228512 -0.00170138 -0.0178329 
-0.0182243 0.0423005 0.053464 
-0.0417595 0.032651 0.0664965 
-0.0706361 0.0645749 0.149984 
0.0111007 0.0258764 0.0950806 
-0.0174513 0.0433726 0.203675 
0.0147551 0.0460412 0.219513 
0.0481413 0.0296682 0.173245 
0.00420539 -0.0059694 0.0419219 
0.00111123 -0.00421207 0.034 
0.000639625 -0.000900859 0.0262013 
0.0030832 -0.00329422 0.022222 
-0.000109214 0.000513494 -0.000210415 
-0.000185149 -0.000140635 -0.000100626 
0.000224128 0.000282595 -0.000324898 
0.00050641 0.00053218 0.000571265 
0.00898997 0.00215106 0.0757172 
0.00570626 -0.00410239 0.0758893 
0.00664927 -0.000140684 0.0946275 
0.003943 0.00489943 0.0811894 
0.0731997 0.00393758 0.264439 
0.0223959 -0.0867644 0.0784607 
0.00185968 0.0380502 0.307624 
-0.000345886 -0.0217158 0.181991 
0.000693907 -7.30733e-05 0.000633022 
0.000140758 -0.000200079 0.0217355 
-0.00123932 0.0010015 0.0258963 
-0.00165212 0.00117358 0.0222851 
0.00128889 -0.000373126 0.0776845 
-0.00314839 -0.00386255 0.0836688 
-0.000593999 2.51241e-05 0.075432 
-0.00187587 -0.00428408 0.0690116 
3.54576e-05 5.97575e-06 0.00124219 
0.00057781 -0.000128366 -8.87985e-05 
1.30174e-05 -7.60542e-06 -0.000426508 
0.00165062 0.00227663 0.00195476 
-0.000332643 0.00210359 -0.00166055 
0.00796034 -0.0071546 0.0173642 
0.00611525 -0.00283868 0.00579389 
0.0038455 0.000325686 0.00496466 
0.00025659 4.45375e-05 0.0360979 
-7.72494e-05 -0.000326516 0.0499612 
4.22842e-05 0.000345599 0.0425604 
-0.00494833 -0.000331113 0.0559291 
-0.0102978 -0.00894089 0.0124696 
0.000831217 -0.00703946 0.0158504 
0.00199557 -0.0224337 0.046468 
0.00535666 -0.00858365 0.00335979 
-0.0141851 -0.00785426 0 
0.0106344 -0.00254069 0 
0.0157635 0.00396852 0 
-0.0615652 0.0172677 0.0363079 
0.0055485 -0.00860823 0.222861 
0.00134118 -0.000559416 0.16391 
-0.00133658 -0.00585131 0.180026 
-0.104604 0.0102677 0.141007 
-0.0338603 0.0310733 0.0649674 
-0.0253582 0.0271694 0.105118 
-0.0161014 0.0187695 0.113874 
-0.0372864 0.0445244 0.136348 
0.00286421 0.00088037 -0.00220469 
0.00063653 0.00179459 -0.000610891 
-0.00565193 -0.0073271 0.0108502 
-0.00274228 -0.00540677 0.0156613 
-0.000730142 0.00059906 0 
-1.34122e-05 -0.000705927 0 
0.0022914 0.000139697 0 
-0.0045021 -0.00346296 0.00193613 
-0.0333067 0.0272372 0.0648405 
-0.0273579 0.0501072 0.0561272 
-0.0239199 0.0309843 0.103657 
-0.0445347 0.0421645 0.142329 
-0.000461137 -0.000329394 0.0003203 
0.00351299 0.00221346 0.0195023 
0.000254191 -0.000786367 -0.00194993 
0.00220735 0.00195724 0.0216162 
-0.0203694 -0.014429 0.0443403 
-0.00374969 -0.00750576 0.0004929 
-0.0052297 -0.00476907 0.0124865 
-0.0134688 -0.0217441 0.0321981 
-0.000350412 -0.000238546 0.00020137 
-0.000457519 -0.00030509 0.0015059 
1.94484e-05 1.12864e-05 -0.000392323 
0.00348994 4.32163e-05 0.017903 
0.00432002 -0.0173785 0 
-0.00290138 0.0144156 0 
0.00165189 0.00162178 0 
0.019338 0.0530528 0.0399324 
-0.000214498 5.04203e-05 0.000207578 
-0.000588537 0.000206638 -0.00228494 
7.98855e-05 -4.51923e-05 0.00102671 
0.00775301 0.001677 0.0069216 
1.47724e-05 -0.000130444 -0.00161836 
-3.86941e-05 -9.37714e-05 0.000300427 
0.000136784 0.00042245 -0.00023922 
0.000374875 -0.00447377 0.024053 
0.00122221 0.00595407 0 
0.000122903 -0.00398321 0 
0.00419036 0.00324535 0 
-0.0124761 -0.0283806 0.00745455 
-2.98991e-05 -7.95491e-05 0.000756114 
0.000101412 0.000323721 -0.00132047 
4.74599e-05 0.000132333 -0.00106031 
-0.00233778 0.00293004 0.0215384 
-1.79506e-05 0.000331378 -4.30358e-05 
-9.37766e-05 0.000116621 0 
-2.47793e-05 -0.000185094 0 
-0.000187847 0.000239951 0 
0.00757899 0.00688991 -0.0217368 
-0.00734006 -0.0588949 0.0614951 
-0.0149178 -0.00233097 0.00389289 
0.00346191 -0.0421403 0.0349482 
-0.00013814 0.000135299 -0.000135126 
4.31861e-05 -4.2923e-05 2.65908e-05 
-2.16288e-05 0.000361953 -4.86667e-05 
-2.19934e-05 1.81381e-05 -0.00010675 
-0.00411928 0.00447515 -0.0028118 
0.0109503 -0.0143873 0.0128022 
-0.000166962 -0.00214817 -0.000273297 
0.00706047 -0.0114503 0.00182019 
0.00360351 -0.00335361 0.0326977 
0.00210581 -0.00325143 0.0479044 
0.00626265 -0.00597891 0.0638094 
0.00327378 -0.00235892 0.0485994 
-0.0123524 -0.0186667 0.0266115 
0.000251907 -0.00478132 0.00117491 
-0.00650901 -0.0106949 0.0134911 
-0.00244497 -0.0300034 0.0235538 
0.00237732 0.00726593 -0.00720086 
0.00953571 -0.00544537 -0.0314337 
-0.052406 0.0185065 0.0630381 
-0.016175 0.0442951 0.051736 
-0.000773132 0.000443518 -0.00121928 
0.000882587 -7.75774e-05 0.00072265 
0.00131029 -0.000401904 0.00187758 
-0.00107821 -0.00594812 -0.000388964 
-0.0380274 0.0279142 0.100336 
-0.0147547 0.0340822 0.207174 
-0.0477679 0.0276476 0.0244466 
0.046495 0.0441267 0.072939 
2.08275e-05 1.59996e-05 0.000516039 
-6.58664e-05 -8.50879e-05 -0.000310262 
-5.41884e-05 -4.81489e-05 -0.00109269 
-0.000864383 0.000987606 0.025533 
0.0208725 0.0107891 0.214159 
-0.0249275 -0.0431357 0.193198 
0.00310081 -0.0510185 0.128171 
-0.0287266 -0.0889446 -0.0292894 
0.00174717 0.000768084 0 
-0.000417891 7.04353e-05 0 
0.00237067 -0.000366633 0 
-0.0131583 -0.00344731 0.00182581 
0.00169638 -0.000852647 -0.00114871 
0.000963781 -0.000906806 0.000146487 
-0.00300606 0.000523931 0.00292972 
-0.00446798 -0.000690475 0.00145587 
-0.0004439 0.0018589 -0.000501529 
0.00705949 -0.00521587 0.0154497 
-0.00137294 0.0017523 -0.000708288 
0.0075271 -0.00534124 0.00724971 
0.0329285 -0.0102881 0.127011 
0.0169722 -0.0260459 0.076178 
0.0141981 -0.0298763 0.0652762 
0.02711 -0.0425732 0.118712 
0.00561781 -0.00462227 0.0484488 
0.000539522 -0.000722574 0.0228979 
0.00311932 -0.00312453 0.0330663 
0.00294582 -0.00222783 0.0482715 
0.0130075 -0.00305075 0.0538319 
0.00458606 0.00127902 0.0204671 
0.00498525 -0.000833625 0.0365996 
0.00776033 0.00294853 0.0481797 
-0.000520779 0.000109114 0.000152557 
-0.000627134 -0.000557767 -0.000212477 
-0.000112302 -0.000646367 -0.000197619 
-0.00239359 -0.000753072 0.000650357 
-0.00675676 0.00829041 0.0120257 
-0.00436538 0.00558162 0.0228445 
0.000473192 -0.00393742 -0.00307854 
-0.00243949 0.00620022 0.0169689 
-0.000146626 0.00150434 -0.00140222 
0.00405849 -0.00126932 0.00303399 
-0.000123811 0.00147449 -0.00189036 
0.00328631 -0.000681348 0.00414549 
-5.64899e-05 -2.25795e-05 0.000703352 
0.000151589 6.05783e-05 -0.00189 
-0.000193703 -9.17687e-05 -0.000440143 
0.00249421 -0.00106108 0.0205406 
0.00665278 -0.00487151 0.0485767 
0.00439974 -0.00111402 0.0775814 
0.00599065 -0.00579894 0.0653766 
0.0106835 -0.00467109 0.0690599 
0.0148936 0.00567063 -0.016564 
-0.0148945 -0.00776112 0.00882359 
0.0122648 -0.00341155 -0.00424878 
-0.0147855 -0.057562 0.0472478 
-3.36194e-05 6.6444e-05 0.000658128 
0.000200103 -0.000392423 0.00065786 
-8.27662e-05 0.000161478 -0.00152515 
-0.000646564 -0.00307733 0.0172393 
-0.0196674 0.0240691 0.124617 
-0.00759837 -0.010282 0.236329 
0.0871341 -0.0126747 0.394041 
-0.132346 -0.0597041 0.203464 
-0.000124689 -0.000198262 0.0641286 
9.68118e-05 0.000280529 0.0755731 
-0.000588818 0.000314415 0.0590481 
-0.00222225 -0.00445705 0.0684725 
0.000192456 0.000199348 -0.000277908 
-9.22385e-05 -0.00030801 0 
2.79039e-05 0.000358351 0 
0.000214378 0.000347627 0 
-6.56288e-05 -0.000191222 0 
0.000112691 0.000320643 0 
-0.000210511 -0.000520206 0 
-0.000200085 -0.000117323 -7.76175e-05 
0.029679 -0.0046013 -0.0172643 
0.00854512 0.0372076 0.0774107 
0.00642868 0.0296999 0.0630369 
0.0337438 0.0214563 0.0780245 
-0.000262592 -0.000130136 0.000366436 
0.000728721 0.000348148 3.52744e-05 
0.000277956 0.000153804 -0.00168783 
0.00284041 -0.000985364 0.0161349 
0.000179525 -0.000326931 0 
0.000205513 -0.000143997 0 
0.00062609 0.000236878 0 
-0.00101537 -0.000200271 0.00110547 
-0.000219989 -0.000173248 0.0758433 
0.000287838 -0.000350441 0.0787308 
0.000582707 0.000721548 0.0857385 
-0.00264451 -0.00348963 0.0815185 
-6.64083e-06 6.99581e-06 -0.000681968 
-9.89589e-05 -4.46007e-05 4.66991e-05 
0.000107773 4.37921e-05 0.000277064 
-0.000812336 0.000542388 0.0253411 
0.000247967 -0.00133261 -0.00096011 
-6.52534e-05 0.00056825 0.000320392 
0.00065818 -0.000179004 0.000235216 
0.0055674 0.000800916 0.00174177 
-0.0176343 -0.0322374 0 
-0.0206342 -0.0202386 0 
0.0238499 0.0215958 0 
0.105101 0.0911038 0.0740171 
-0.00619236 0.000471214 0.0577266 
-0.00549999 0.00380758 0.0728578 
-0.00993953 -0.00277285 0.0787079 
-0.00422509 -0.00224901 0.0763447 
-0.017763 -0.00588878 0.0372191 
-0.00786079 0.00376216 0.0189818 
-0.00532784 -0.00642348 0.0175479 
-0.00904706 -0.00902364 0.0083576 
-0.000311376 -0.000229753 0 
0.000126316 -0.000294914 0 
-0.000354632 -0.0004404 0 
-0.000444298 -2.32704e-05 0.000676654 
-0.0417942 0.0204058 0.0565729 
-0.0100387 0.00930433 0.00401602 
-0.00301751 0.0263167 0.0294838 
-0.0259806 0.0349563 0.050135 
-0.000132149 -0.000147987 0.0317489 
0.000132132 0.00045927 0.0389649 
0.000341638 -0.000170055 0.0500456 
0.00157376 -0.00119883 0.0267193 
-0.00071564 -0.000695017 -0.000108321 
-0.000210697 -0.000204863 0.00096208 
-0.000291528 -0.000282889 -0.00103778 
0.0022783 0.000149733 0.0140598 
-0.080708 -0.000495563 0.164933 
-0.00371738 -0.0273726 0.250436 
-0.061313 -0.0277246 0.128852 
0.00228204 0.0327611 -0.152675 
-0.000149554 0.000216416 0.000371594 
0.000230964 2.9197e-05 0.0215244 
-0.000219926 1.66293e-05 0.0207118 
0.000378094 -0.00134792 0.0268978 
0.00035677 0.0266967 0.12092 
-0.0176104 0.0229872 0.107006 
-0.015875 0.0193331 0.06937 
0.00263528 0.0156773 0.0962512 
-0.0183442 0.00672793 0.104598 
0.00135255 0.0223577 0.0627058 
0.0015215 0.00413193 0.201403 
0.0102239 0.0852708 0.0666578 
-0.00343334 -0.000127444 -0.00363402 
-0.00198555 -0.000427278 -0.00307925 
0.00802076 0.00728733 0.00812787 
0.00179381 0.00613581 0.00616475 
-0.000373975 0.000112349 -0.00246448 
-0.000519718 0.000139678 -0.000192698 
0.000174421 -4.92334e-05 0.00052757 
-0.00370006 -0.00195096 0.0261872 
0.00176957 -0.0272014 -0.0520019 
-0.043747 0.0436344 0.0806902 
-0.0406647 -0.0233722 -0.00461113 
-0.0732189 0.0975103 0.199881 
-0.000126635 -0.000123998 -6.06057e-05 
7.02268e-05 -2.37454e-05 0.0196525 
0.000106466 5.73097e-05 0.0215708 
-9.37936e-05 7.83217e-05 0.000199155 
-0.00306587 0.0104383 0.0702921 
0.00141493 0.00463248 0.0590027 
-0.0041688 0.0103862 0.0502896 
0.00241854 0.0108361 0.0559641 
0.0025543 0.00513074 0.0598156 
-0.00211167 0.00330952 0.0478525 
-0.00403143 0.0100052 0.0696086 
-0.00512503 0.00982136 0.0496798 
0.00149635 -0.00138755 -0.00607699 
-0.00628381 0.00738277 0.0119967 
0.000476501 -0.0010583 -0.0021663 
-0.00351373 0.00497957 0.0159968 
0.00161028 -0.000445062 -0.000101308 
-0.00487797 0.00360705 0.0236332 
0.00141061 -0.000592119 -0.00468145 
-0.00689706 0.00269367 0.0188324 
0.00474612 -0.00213901 0 
0.00519808 -0.000229227 0 
0.00135526 0.00342036 0 
-0.00592385 -0.0101437 0.00502479 
1.35193e-05 0.000136717 0.00026044 
1.03114e-05 0.000104276 0.000616695 
1.85789e-05 0.000187882 -0.00113079 
-0.00141584 -0.00108297 0.0193012 
-0.00042582 -0.000682114 -0.00299768 
8.6458e-05 0.000625724 0.000415986 
-0.00454203 -0.00429953 0.0175398 
-0.00143087 -0.00125217 0.0180382 
-0.00061756 0.00322199 0.0325246 
-0.00287489 0.00994263 0.0514379 
0.00118885 0.00459696 0.0592186 
0.00225251 0.0114116 0.0539053 
0.000311235 1.28946e-06 0.000367194 
7.79887e-05 -9.89543e-05 0.0215107 
-0.000104432 0.000106429 0.017923 
-0.00113452 0.000766851 0.0264058 
0.000213728 -0.000109011 -0.000610695 
-8.83228e-05 -7.61009e-05 9.99418e-05 
-0.000992655 -0.00036363 0.000109057 
-0.00304822 -0.000503268 0.00129287 
-0.00106786 3.6927e-07 -0.000267326 
-0.00156926 0.00151307 -0.000651162 
0.00362606 -0.000475175 0.0184375 
0.00643596 -0.0011052 0.010822 
0.000778635 0.000708019 0.0814282 
-0.000576094 0.00058749 0.0871524 
-0.0006855 -0.000674046 0.0770329 
0.0013802 -0.00353434 0.0793643 
-0.0188755 -0.0178483 0.0783864 
-0.0129151 -0.0138826 0.0346228 
-0.0129827 -0.00986118 0.0639105 
-0.0197237 -0.0220941 0.0612443 
0.00142659 0.000625354 0.00136392 
-0.00447378 -0.00618506 0.012594 
0.000656783 0.000573276 -0.00299373 
-0.00362432 -0.00581646 0.00515097 
0.00258107 -0.00119758 3.64951e-05 
-0.00592149 -8.97945e-05 0.0176611 
-0.00680946 -0.00265775 0.0178433 
-0.00168902 -0.000834229 0.0186911 
0.000220165 5.05289e-06 0.0411704 
-0.000175569 -0.00014214 0.0241987 
0.000121518 0.000314102 0.0463593 
0.00107842 0.00129448 0.0232041 
-2.90472e-05 -0.000533386 0.0657507 
0.000138132 0.000322873 0.0636492 
0.000178065 5.28572e-05 0.0491715 
-0.00561434 -0.000768795 0.0570792 
-0.000695489 -0.0052141 0 
0.000239921 -0.0012408 0 
-0.00268269 0.00177344 0 
0.000351137 -0.00266383 0.000295099 
0.000409978 -3.37936e-05 0.0753994 
-0.000230624 -4.54949e-05 0.0647947 
0.000258626 -0.000459748 0.0592971 
-0.00395188 -0.00204271 0.0743689 
0.000735957 0.000505723 0.000108351 
0.000230275 0.000157967 -0.00123605 
0.000442449 0.000304182 0.000754287 
0.00117173 -0.00123714 0.0163637 
-0.0515711 0.0245005 0.149971 
-0.0263715 0.0300466 0.264658 
-0.0119914 -0.00779924 0.0885261 
-0.0352723 0.032335 0.021569 
0.000794915 0.00351362 0.0342204 
-0.00256786 0.00336326 0.048885 
0.00111793 0.00562742 0.0592501 
-0.00456482 0.00966909 0.0494175 
-0.010424 -0.0243854 0.0919802 
-0.0112336 -0.0125194 0.0474087 
-0.0271003 -0.0209576 0.0608045 
-0.0242557 -0.0206903 0.0650977 
0.0208076 -0.00536816 0.279801 
-0.0238961 0.0387044 0.316476 
-0.00114604 0.0114115 0.412333 
-0.0769032 -0.0317987 0.251372 
0.0206111 0.00239531 -0.00132994 
0.010329 0.00643773 0.0164884 
-0.0106884 -0.00676056 -0.0175932 
0.0429472 0.0267616 0.0736622 
-0.000228681 -1.91092e-05 0.000426105 
0.000350457 2.9285e-05 -0.0017725 
0.000511572 4.27482e-05 -0.000550053 
-0.000349081 -0.00289154 0.0162619 
-0.000682852 -0.00340135 -0.00394161 
0.00805235 0.00703306 0.00794229 
-0.00209298 -0.00480176 -0.00306168 
0.00604787 0.00828904 0.00678357 
0.000161296 0.00147271 -7.03216e-05 
-0.000150744 -0.00150085 0.00103143 
0.000967837 0.00181949 6.02547e-05 
0.000379971 -0.000573507 0.000736941 
0.00136233 0.000261924 -0.0037126 
-0.0093357 0.000295145 0.00701041 
0.00511394 0.000306311 -0.00404319 
-0.00825711 -0.00258917 0.00695074 
0.00024049 -0.000293799 0.000547005 
0.000694727 6.04971e-06 4.4413e-05 
-0.000612354 0.000735208 -0.000596822 
0.00268289 0.00149586 0.000158419 
0.0158745 -0.000460991 0.0404129 
0.020558 -0.0052566 0.0352048 
0.0066464 -0.00679892 0.0157302 
0.0071295 0.000161471 0.0125973 
0.000206743 0.000128677 -0.00114155 
-0.000138606 -0.000109561 -0.000973235 
-0.000298821 -0.000196951 0.000831561 
0.00284402 -0.000778113 0.0153935 
-0.00010223 0.00016505 0.000802066 
6.62889e-05 -0.000102486 -0.000234001 
0.000449902 -0.000678409 -0.000505678 
-0.0017744 0.00363668 0.00137022 
0.00062078 -0.00610735 -0.00174582 
0.000496554 0.00433385 -0.00399698 
0.00205416 9.86476e-05 0.0088555 
-0.000202029 -0.0355002 0.0130665 
0.00184434 -0.00158186 0 
-0.00191999 0.0150458 0 
-0.00422805 0.00441944 0 
-0.00118999 -0.0493667 0.00963338 
-9.75142e-05 0.000235924 0.000535417 
-0.000177677 -6.43793e-05 0.0178515 
4.79855e-05 0.000185004 1.31487e-05 
-0.00108775 -0.00102687 0.0259898 
-9.00573e-05 -0.000774796 0.000337142 
0.00131646 0.00096511 0.0232279 
0.00135633 0.00252505 0.0218989 
3.37289e-05 0.00105198 0.0237951 
-0.000122476 -4.70648e-05 0.000112422 
7.20027e-06 0.000194496 0.0182621 
-6.23361e-05 -0.000150394 0.000361627 
0.000920673 0.000639169 0.0278919 
-0.000281033 0.000481244 -0.00115963 
-0.000284932 0.000592013 -0.000131359 
0.0004783 -0.000879573 0.00136635 
0.000205712 -0.00258886 0.0038571 
-0.00202005 0.00389646 0.0170326 
-0.0139598 0.0133616 0.0460852 
-0.0128204 0.0109607 0.0396026 
-0.00554026 0.00822448 0.0172432 
8.81564e-05 0.000175463 0.0739281 
0.000135355 -0.000882988 0.0762085 
0.000166894 -7.78159e-05 0.0626251 
0.00437691 0.00269277 0.0774935 
-0.0145846 0.00900909 0.0389483 
-0.0121645 0.0103292 0.0489773 
-0.0142866 0.0222369 0.0304754 
-0.0063236 0.00898406 0.0162313 
0.00048996 -0.000142524 0.062093 
-0.00588966 0.00181732 0.0729689 
-0.00607961 0.000134992 0.0577877 
-0.00444046 -0.00134185 0.0762009 
-0.000262575 -0.000348757 0 
0.000218464 -0.0001885 0 
0.000233239 -0.000511503 0 
-0.00106945 8.34094e-05 0.0013644 
-6.49962e-05 2.32598e-05 -0.00156286 
-0.00428044 -0.00465297 0.0169776 
0.00125561 0.000895952 0.000372744 
-0.00146869 -0.00150772 0.0175513 
-0.000578977 -0.000207474 -0.00258429 
-0.000333007 -6.66644e-05 0.000918434 
0.000465865 0.000151974 0.00139603 
0.00668401 -0.00146996 0.00406679 
0.0436316 -0.0212704 0 
-0.0599782 0.0220406 0 
0.0307752 0.025566 0 
-0.109712 0.0791356 0.169449 
-0.000165116 -0.000547973 -0.000872827 
-0.000491472 0.000972458 -0.000583075 
-0.000266478 -2.64509e-06 -0.000557006 
0.00299192 0.00488188 0.00469351 
-0.0118394 -0.013225 0.0812521 
-0.0116326 -0.00961557 0.0619963 
-0.0145833 -0.0134373 0.0377425 
-0.0216941 -0.0223169 0.0641744 
0.000766111 -6.75992e-05 0.0617938 
-0.000208158 -0.000120869 0.0641781 
0.00018069 0.000179044 0.0474388 
-0.00181579 -0.0045711 0.0680182 
-0.000824152 5.97557e-05 0 
-0.000275628 -0.000411887 0 
-0.000162465 -0.000186417 0 
-0.000639784 -9.54138e-05 0.0008143 
-0.000323319 3.76177e-05 0.0352983 
0.00030902 -4.12e-05 0.0201254 
-0.00118628 0.00124936 0.0238649 
-0.00112209 0.000883909 0.0254536 
-0.000295514 1.66354e-05 2.47182e-05 
-0.000223927 -4.37782e-05 0.000260775 
0.000212749 8.21833e-05 0.0233879 
0.00102443 0.000636571 0.0275191 
-0.0136491 -0.0188234 0.0321341 
-0.00392481 -0.00543241 0.0160181 
-0.00568154 -0.00204581 0.0192159 
-0.0113301 -0.010441 0.0433649 
0.000178683 0.000787491 0.000372872 
-2.09319e-06 -3.12502e-05 -0.000408412 
-1.00527e-05 -4.39184e-06 0.000711201 
-0.00196085 0.00122155 0.00172728 
0.0227751 -0.00352522 0.222257 
0.00634232 -0.0134412 0.178332 
-0.00239543 0.000881751 0.12569 
-0.104022 0.0305827 0.126625 
0.00789822 0.00211102 0.206343 
-0.0100666 -0.0206568 0.0625616 
-0.0282458 -0.0146972 0.153058 
-0.0357216 -0.0574841 -0.0542326 
0.00537181 0.000256198 -0.00220721 
-0.0469298 0.0247508 0.0419958 
0.00671538 -0.00185787 -0.0124927 
-0.00958843 0.00710524 0.00862427 
0.0631457 -0.00399154 0.25889 
0.00395628 0.00909856 0.447466 
-0.00143551 -0.0448414 0.291864 
-0.126155 -0.0316436 0.249017 
0.00112006 0.000764487 0.0270447 
0.00495362 0.00149283 0.0525028 
0.00471627 -0.000662018 0.0379231 
0.00793676 0.00314008 0.0464791 
0.0298533 -0.028481 0.0994718 
0.016877 -0.0297846 0.108375 
-0.0148241 -0.0189357 0.10428 
0.0171727 -0.0160529 0.0596888 
-0.0404523 -0.00902259 0.121532 
-0.0751525 -0.00726714 -0.0742597 
0.00568976 -0.0206477 0.244156 
0.0139707 -0.0439691 0.200885 
-0.000252375 -0.000425787 -0.000485689 
5.20631e-05 8.36309e-05 0.000231651 
-8.55574e-05 -0.000139676 -0.000310598 
0.000769767 0.00228844 0.00253711 
-0.00724218 -0.074976 0.151377 
0.012219 -0.0573401 0.0639498 
0.0629097 -0.0157966 0.344365 
0.0302031 -0.0672177 0.139608 
-0.0148689 0.0109773 0 
-0.00344052 0.00386383 0 
0.0159312 0.00883307 0 
0.0417746 0.0256995 0.0374526 
-0.000499251 -0.000314278 0.0839886 
0.000379401 0.000140485 0.0771998 
-0.000816413 3.52759e-05 0.072136 
-0.000269685 0.00431291 0.0792834 
-0.0195529 0.0155437 0.0284638 
-0.0226442 0.0183099 0.0300673 
-0.010044 0.00894418 0.0162537 
-0.0193254 -0.00122888 0.0107903 
-0.0292787 -0.0291179 0.119006 
-0.0273082 -0.0420727 0.0772978 
-0.0181787 -0.00907584 0.0819059 
-0.0241294 -0.0206145 0.0612813 
-6.52111e-05 0.000241665 0.00022898 
0.000169753 0.000105399 0.0170853 
-6.74133e-05 -2.3751e-05 0.000398095 
0.000957101 -0.000887443 0.0257542 
0.00947855 -0.0179591 0.220963 
0.00776036 0.00777847 0.271201 
-0.029903 -0.00108349 0.189388 
-0.0699877 0.0484696 0.155384 
0.00949453 -0.0130516 0 
0.00594341 0.00232784 0 
0.000787246 -0.00315705 0 
-0.0462569 0.0391694 0.012983 
0.000267416 -2.64539e-05 -0.000133745 
0.0014769 -0.000576728 -4.77615e-05 
-0.00027292 -0.000299114 -0.0004073 
0.00169526 0.00227671 0.00195891 
0.000636295 0.000393547 0.0776545 
-0.00525519 0.000762541 0.0723958 
-0.000284775 -0.000394134 0.0635075 
-0.0044835 -0.000242764 0.0757628 
0.00010025 0.000113274 -0.00194422 
0.000388837 -0.000450307 -0.00040215 
-0.000182453 -0.00281924 0.00328172 
-7.96604e-05 -0.00182279 0.00344921 
9.22099e-05 -0.000110595 0.000586216 
-0.000123774 0.000114457 0.000330652 
3.64411e-05 -1.06403e-05 -0.000855317 
0.0005823 0.000956854 0.0263262 
0.0254268 0.00116712 0.0659487 
0.0147021 0.0106015 -0.00432258 
0.0153064 0.00322562 0.0490908 
0.0276029 0.0254495 0.0544875 
0.000183788 0.000295966 0.0381581 
0.000343681 -0.00014214 0.0221614 
-0.000241199 8.83048e-05 0.0429813 
-0.00276219 0.00200307 0.0324593 
0.0217313 0.00234599 -0.041715 
0.0159826 0.0349664 -0.0242853 
-0.0145875 0.0427527 0.050555 
-0.100623 0.0561641 0.194584 
0.000265278 -0.00024914 -0.000481417 
-0.000777301 0.000790711 -0.00059657 
-0.000165475 0.000131653 0.00108588 
-0.00051348 -0.000646799 0.00324509 
-0.000662912 0.00113198 0 
0.000118418 -0.000917037 0 
0.000609741 -7.67471e-05 0 
0.000954404 0.00259274 0.00139325 
0.0122799 0.0515186 0.21278 
-0.00634234 0.00787834 0.235587 
0.0301547 0.00562148 0.239052 
-0.027106 -0.01376 0.182761 
-0.00012483 7.69056e-05 -0.000645386 
5.23803e-05 -3.3067e-05 0.000195977 
6.01882e-05 -3.36652e-05 0.000632128 
-0.000927337 -0.000470363 0.0260293 
-4.63614e-05 -0.000770867 -0.000750266 
0.00133442 6.11545e-06 0.000259791 
0.000188975 -0.00109654 -0.000696778 
0.00188631 0.0031198 0.00206805 
0.00511425 0.00531064 0.0196357 
0.00396092 0.010236 0.00812158 
-0.00082156 -0.00570228 -0.00352913 
0.000461703 0.00860119 0.0172999 
-0.000117097 7.7018e-05 -0.000129403 
0.00138313 0.000604797 0.0278699 
-0.000296976 -0.000147742 0.000435784 
0.00084944 -8.54291e-05 0.0248412 
0.00016337 -2.65994e-05 0.0458698 
0.00204995 0.000856549 0.0273521 
-0.000147608 2.71273e-05 0.0336992 
0.0033431 0.00148163 0.0514773 
0.00188967 0.00311616 0 
7.18838e-05 0.000890225 0 
-0.00139023 -0.00291129 0 
-0.00231076 -0.0139602 0.00801728 
0.000125943 5.63871e-05 3.36751e-05 
-0.000138538 -5.67772e-05 0.000322934 
6.5887e-05 1.97661e-05 -0.000649915 
0.000913997 -0.000577157 0.0268018 
-0.0125871 -0.00481033 0.0270441 
-0.00356292 -0.00545691 0.00436735 
-0.00682483 -0.0173568 0.0252022 
-0.00695015 -0.021897 0.0189077 
0.00711294 0.00185127 0 
-0.0173945 -0.00700994 0 
0.0149203 0.00419035 0 
-0.0536098 0.0153326 0.0382257 
6.22166e-05 -0.000149138 0.0178898 
-3.34046e-05 7.71729e-05 6.15027e-05 
-4.01608e-05 0.000243718 0.000345178 
-0.000204776 -0.000773582 0.0251359 
-3.7931e-05 -7.90524e-05 0.054763 
0.00555751 -0.00521583 0.0631788 
0.00284824 -0.0031857 0.0482469 
0.0028352 -0.00270986 0.0485124 
0.000576075 0.000153664 0.0697174 
-0.000215821 0.000743205 0.0810705 
0.000231407 -0.000438939 0.0691747 
0.0024262 -0.00372776 0.0786339 
-0.01453 -0.0346769 0.238788 
-0.0179702 -0.00635369 0.212777 
-0.0521552 -0.0348005 0.196503 
0.0470731 0.0210445 0.19668 
0.000729539 -0.0373097 0.0900272 
-0.011659 -0.0263045 0.0681278 
0.00381207 0.00645235 0.190438 
-0.024428 -0.0445232 -0.050281 
0.0177127 -0.0342266 0.221802 
0.0294289 0.00742942 0.227555 
0.0181411 0.00296331 0.248725 
-0.046473 -0.00988553 0.172458 
-0.0396916 -0.058158 0.204291 
-0.00749386 -0.0549996 0.0991132 
0.0129499 -0.0348633 0.0124518 
0.0250972 0.0045801 -0.0264488 
0.0276127 0.00254964 0.2776 
0.0139452 0.0406271 0.204232 
0.00850074 0.0110696 0.204121 
0.01695 0.0387945 0.152189 
-3.62259e-07 -1.59112e-07 0.000805626 
0.000314206 0.000304931 -0.000969213 
0.000584408 0.000567516 -0.000299743 
-0.00238499 -0.000460938 0.018844 
0.000517073 -0.000397861 -0.00059122 
-0.000250304 0.000496446 0.000364625 
0.00115438 3.12846e-06 -0.000673147 
-0.00163164 0.00143863 0.00167038 
0.0174054 -0.0152208 0 
-0.00245981 0.00190046 0 
-0.000182769 0.00847254 0 
-0.0867115 0.00316162 0.0349072 
0.00995 0.0235793 0.0481152 
0.0112671 0.00865322 0.0080244 
0.00685926 0.00444378 0.0183131 
0.00166505 0.00987444 0.00627302 
-0.000900157 0.00214725 0 
0.00149176 -0.00232132 0 
-0.00127089 0.0009392 0 
-0.000223473 -0.00613257 0.00236201 
3.88289e-05 -0.000349205 0.0621768 
0.000568656 2.52453e-06 0.0693249 
-0.000790934 3.92454e-06 0.0769473 
0.00175791 -0.00402106 0.0783776 
0.000108331 -1.09698e-05 0.000535252 
-0.000150321 5.45405e-05 0.0177932 
0.000166299 -1.72419e-05 0.000170112 
-0.00070762 0.00079983 0.0260767 
-2.30213e-05 0.000100688 0.000446846 
0.000178318 -8.99969e-06 0.0193775 
-0.000246349 -2.38295e-05 3.87075e-05 
0.00076704 -0.00101156 0.0267885 
-0.0140935 -0.000639685 0.0447381 
-0.00658737 0.000790019 0.0188345 
-0.004635 0.00591641 0.0251261 
-0.0019974 -0.0018811 0.0186218 
8.82934e-06 7.12498e-07 -0.000376722 
-1.97169e-05 6.98125e-05 7.06451e-05 
8.85714e-05 -0.000357629 0.000157724 
-0.000351093 -0.000569723 0.0236945 
-0.000162233 -5.47781e-05 0.0184116 
0.000470024 -8.46147e-05 0.0381499 
0.00152976 -0.000591877 0.0272727 
0.000987499 -0.000505174 0.0246152 
0.0028049 -0.00292797 -0.00328201 
-0.00548904 -0.00349499 0.0177055 
0.00106794 -0.0002874 0.000199617 
-0.00708754 0.000767886 0.0177704 
-0.0010543 -0.000681737 0 
0.000365995 -0.000732508 0 
-0.000392259 0.000444782 0 
-0.00240434 0.00220799 1.97285e-05 
0.00104069 -0.000604477 0.000996556 
0.00469559 -0.000766907 0.0035036 
-0.000407306 0.00104079 -0.00171776 
0.00320143 0.000252063 0.00456138 
-0.00102261 -0.000112462 0.00146252 
0.00189379 0.000642032 -0.00131096 
0.000314608 -0.000611727 -0.000969435 
-0.00125369 -0.00212052 0.000594788 
-0.00106887 0.000737376 0.00166649 
-0.00230969 0.000862242 -0.00251157 
0.00547638 -0.00825582 0.00590136 
0.00379595 -0.00580977 0.0121484 
-0.000300594 0.000823514 5.72359e-05 
-0.000681006 -0.000196843 -0.000300026 
7.53161e-05 0.000546328 0.000218169 
-0.0014576 0.00315958 0.000402516 
-0.000162649 0.00010883 0.0239562 
0.00145049 0.000564242 0.0280048 
0.000629544 -0.000120561 0.0456581 
0.00104322 -2.3197e-06 0.025054 
-0.000158524 0.00013045 0.0538538 
0.000187729 -0.000295076 0.0352769 
-0.000336047 -0.00018481 0.0385168 
-0.00176727 0.00330121 0.0479713 
-0.000244673 -0.000155762 0.000111582 
0.00029322 0.000185032 -0.000182829 
0.000195045 0.000128767 4.90397e-05 
0.00021344 0.000279988 -0.000133438 
-0.000371063 -0.000234942 -0.00020769 
-0.000243449 -0.000464973 -6.77958e-05 
0.000287443 0.000185676 5.0523e-05 
-0.000249836 -0.00016542 7.72223e-05 
0.00315109 -0.00421971 0 
-0.0074317 0.00737218 0 
0.00416179 -0.00946399 0 
-0.0264661 0.00877673 0.00293433 
3.41392e-06 -0.000118782 0.0208094 
-3.82478e-05 3.87131e-05 5.92754e-05 
-2.70003e-05 1.14074e-05 -7.42711e-05 
2.21363e-05 4.7079e-05 0.0181234 
-9.10602e-05 -2.91116e-05 0.0272304 
-0.000214456 -7.01662e-06 0.0179271 
-3.8012e-06 0.000156382 0.000315974 
-0.00119304 -0.00128085 0.0263739 
-0.000113945 0.000202498 -0.000440645 
-8.50254e-05 0.000222253 0.000768437 
-0.000123698 0.000209981 -0.00063027 
-0.000320593 -0.00198129 0.0194457 
0.0238501 -0.0038029 0.225735 
0.0106214 -0.0164931 0.226974 
0.00401454 -0.0136317 0.183348 
-0.117095 0.0312037 0.128004 
-0.00235807 0.00358235 0.0475643 
-0.00200527 0.000934261 0.0235662 
-0.00367968 0.00410362 0.0331105 
-0.00020707 0.00109716 0.0249396 
6.57767e-05 5.06692e-05 0.0237044 
9.88647e-05 -7.72088e-05 -4.67969e-05 
-0.000120108 3.36846e-05 2.04547e-05 
-3.45019e-05 5.49844e-05 0.0184386 
0.00036446 -0.000192373 -0.000395678 
-0.000111149 6.4518e-05 0.000303632 
-0.000148755 4.24216e-05 -0.000967359 
0.00326649 0.000117754 0.0157341 
-0.0041491 0.00337231 0 
-0.00506375 0.00308444 0 
-0.000115981 0.00211275 0 
0.0122948 -0.0181331 -0.00098696 
-0.00322855 0.0116388 0.179287 
-0.0176194 -0.0116697 0.268337 
0.0220784 0.0203745 0.167369 
0.0627043 -0.0757225 0.173658 
-0.00030177 0.00013497 0.0640116 
0.0002283 -0.000359868 0.0567271 
-0.000169925 -0.000139344 0.0397469 
0.00339012 0.00443998 0.0527432 
5.17555e-05 -1.17236e-05 0.0246447 
-0.000352881 -8.49307e-05 0.000344573 
1.3598e-05 0.000293863 0.0185033 
0.00129505 0.000477455 0.0277291 
0.0248188 -0.0257904 0.16268 
0.0173183 0.0624727 0.387898 
-0.00394122 -0.0462202 0.242542 
-0.0690302 -0.104063 0.205491 
5.51212e-05 0.000144166 -0.000412333 
5.20917e-05 0.000144102 -0.000295056 
4.38444e-05 0.000162213 0.000244318 
-0.00103325 0.00118007 0.0214243 
1.75518e-06 3.06964e-06 -0.000116443 
-2.03381e-05 -8.81572e-05 0.0217617 
8.25189e-05 -5.19254e-05 -6.64986e-05 
-0.000217243 0.000134085 0.00024716 
0.013302 -0.0104501 0.0571677 
0.0132222 -0.00598024 0.0568515 
0.00529215 -0.00389156 0.04738 
0.0109945 -0.00493383 0.0696753 
0.000342864 0.0015308 -0.00107741 
0.000229319 0.0010281 -0.000798682 
5.38199e-05 0.000142729 0.00162063 
0.000568842 -0.00890902 0.00368222 
1.4401e-05 1.75642e-05 0.000582481 
0.000453621 0.00043565 -0.000336333 
-0.000271476 -0.000272309 -0.00163969 
0.000910222 -0.0013577 0.0126937 
0.00112045 0.000100187 -0.00119303 
-0.000476579 -1.36137e-05 -0.00168361 
-0.000783168 -6.04904e-05 0.00011327 
-0.00177551 0.00392399 0.0114509 
-0.000219624 0.000419945 0.000190244 
0.00079825 -0.00145205 0.0261126 
0.000385202 0.000341866 0.00076205 
4.41618e-05 -0.00120042 0.0240797 
-0.00490902 0.0013116 0.00323093 
-0.0143596 0.00619212 0.0253095 
-0.0061173 0.00271907 0.014404 
-0.00386853 9.44334e-05 0.0005681 
-0.0424278 0.0444338 0.18969 
-0.0317097 0.00304899 0.339249 
-0.0025407 -0.0418418 0.318133 
-0.0506098 0.113752 0.0942455 
4.78083e-05 0.000320361 0.000168377 
0.000225706 -0.000654652 -0.000454593 
8.05379e-05 0.000353253 -7.82437e-05 
0.000824077 -0.00183401 -0.000116372 
-0.000199899 2.76855e-05 0.0620585 
0.00024845 5.88274e-05 0.0466197 
-0.000218002 -0.000102031 0.0444581 
0.00049521 0.00445408 0.05748 
-2.21492e-05 3.94246e-06 -0.000745168 
0.000370519 6.22784e-05 0.00175743 
7.21984e-05 1.72241e-05 -8.24929e-05 
0.00197071 -0.00169248 0.00202094 
0.0194206 0.00782141 0.0660201 
0.00827811 0.00350711 0.047021 
0.0104975 0.00213277 0.0757475 
0.00922283 0.00938767 0.061407 
0.00132777 0.00104541 -0.0023037 
-0.00541941 -0.00693627 0.0114313 
0.0011723 0.000839481 0.0015944 
-0.00406552 -0.0060951 0.00476773 
0.000203368 -0.000130081 7.48948e-05 
-0.000205455 0.000134297 1.07726e-05 
-0.000292086 0.000187724 -8.0722e-05 
-0.00021441 0.000222766 -0.000204192 
-0.000877325 0.000335185 -3.35862e-05 
-0.000375404 0.000243354 -0.000106911 
0.000632232 -0.000677028 -0.0010377 
0.000811852 0.00298578 0.00203899 
-0.0133557 0.0208573 0.029645 
-0.0117125 0.0120464 0.0461165 
-0.00460229 0.0115391 0.0161878 
-0.00700571 0.0083302 0.0185537 
-5.27118e-05 0.000401154 0.00015107 
0.000113993 -0.000303652 0 
-0.000336323 0.000340891 0 
-0.0001345 4.57029e-05 0 
0.00453923 0.00434459 0.0372388 
0.00474759 0.0014299 0.0522768 
0.000845026 0.000743635 0.0272133 
0.00817676 0.00319542 0.0466086 
-9.70077e-05 -0.000139657 0.0189694 
0.000350209 0.000581972 0.0405259 
0.00127504 0.00145983 0.0272666 
0.0011248 0.000836756 0.0229411 
-0.000285337 0.000166108 0.042998 
-0.000127258 9.95999e-05 0.0223434 
0.000137674 -0.000246801 0.0352599 
-0.00118424 0.0012937 0.0264803 
-0.0059099 0.0146036 0 
0.00208728 0.00326671 0 
0.00195599 -0.00813207 0 
0.0108949 0.0499384 0.0327533 
-1.89648e-05 -1.68849e-05 0.0207404 
8.85949e-05 -9.67224e-06 1.23656e-06 
-3.90942e-05 -4.12024e-06 -0.000116114 
-6.1151e-05 1.10173e-05 0.0222455 
0.00231821 0.00981742 0.258259 
0.0151277 -0.0139702 0.109887 
0.0608517 -0.0116411 0.239622 
0.00960665 -0.0519184 0.0996526 
0.000196487 0.000613848 -0.000464202 
3.62105e-05 -0.000587625 -0.000198568 
0.000512948 0.000660077 -0.000611888 
0.000449526 -0.00365552 0.00115321 
-0.00126029 0.00025773 0.00042575 
-0.000923236 0.00126845 -0.00138763 
0.00347509 -0.00128093 0.0200886 
0.00551201 -0.00435312 0.0166726 
-0.0161372 -0.0125601 0.224583 
-0.0138421 -0.0190356 0.233331 
0.0330146 -0.0292207 0.243383 
0.0369735 0.013892 0.154383 
-0.000491824 -0.000748801 -0.000363041 
-0.00123495 0.00028678 -0.00124479 
8.63956e-06 -0.00123482 -0.000126121 
0.00059277 -0.00481705 0.00248862 
0.000854241 0.000484174 0 
0.00032479 -0.000116091 0 
-3.88927e-05 -0.000604675 0 
-0.00297574 -0.00205984 0.000593943 
-0.00049716 -0.000685704 -0.000369739 
-6.45797e-05 -9.15988e-05 -0.000647154 
-2.7188e-05 -3.36413e-05 0.000894108 
0.000270177 0.00202188 0.0169998 
-0.000757523 -0.000311219 0.000195143 
0.000701423 0.001544 -0.000319459 
0.000893277 -0.00033458 -0.00123375 
-0.00342014 -0.00339292 0.00186544 
-0.000467998 0.00069523 0.00116429 
0.00562553 -0.00425194 0.0175463 
0.000851149 0.000958848 -0.00188607 
0.00251036 -0.0018012 0.0203075 
0.0141107 -0.021711 0.0203752 
0.0269841 -0.030321 0.0768516 
0.0181029 -0.0336309 0.0523405 
0.0105572 -0.0122053 0.0272818 
-0.0112389 0.010737 0.0376019 
-0.00467641 0.00297162 0.0213092 
-0.00275221 0.00410139 0.0188949 
-0.00676429 0.00838629 0.0186867 
-0.00319128 0.00222328 0.0311321 
-0.00366122 0.00339183 0.022372 
-0.00453259 0.004207 0.0319105 
-0.00112008 0.000657449 0.0232911 
-4.53652e-05 -4.90211e-05 0.0159479 
-3.67841e-05 -3.55737e-06 -5.77029e-05 
7.19152e-05 -2.42411e-05 -4.62836e-06 
-7.40165e-05 4.67767e-05 0.0227586 
0.00181303 -0.00106044 -0.000856814 
-0.0191978 -0.0371564 0.0311692 
-0.0259781 -0.0250201 0.0445729 
-0.00524741 0.0128822 -0.00151911 
-0.000520555 0.000384466 0.000236807 
0.00015177 -0.000177779 -0.000402978 
0.00113035 -0.00132853 0.0260447 
0.000116585 -0.00130918 0.0240914 
-0.0321085 0.00358047 0.151729 
0.0049157 -0.00784609 0.193853 
0.013575 -0.0222377 0.231347 
-0.081571 0.0862777 0.0338859 
6.00785e-05 0.00031365 0.0459394 
0.000188245 7.99282e-06 0.0243481 
-0.000148753 -4.63449e-05 0.0314491 
0.000376614 0.000997037 0.0239132 
0.000885517 -0.000491757 0 
-0.000250014 0.00182583 0 
-0.000406001 -0.000101544 0 
-0.00270631 0.00527894 0.00164826 
0.00323633 -0.00665343 0 
-0.00367912 0.0230833 0 
-0.00031898 -0.0167797 0 
0.0127781 0.0575532 0.0394413 
-0.00194958 -0.00279738 -0.00229632 
0.0264378 0.0440118 0.0533819 
-0.00569448 -0.00604008 -0.0181028 
0.00077787 0.00246695 0.00874597 
-4.70239e-05 0.000110679 -9.09679e-05 
2.018e-05 -2.66788e-05 0.000390471 
2.60356e-05 -7.57233e-05 -0.000193467 
-6.47333e-05 0.000102728 0.018306 
0.00125145 -0.000309774 0 
-0.00099058 0.00137665 0 
-0.00275266 0.000898392 0 
0.00942036 -0.01099 0.00313871 
0.000115622 -6.75054e-05 -5.25771e-05 
9.33501e-05 -4.66862e-05 0.000364138 
-0.000132655 7.92402e-05 0.000153461 
0.000410725 0.000302438 0.0222283 
-0.000325096 -0.000459618 -0.000564762 
0.000171888 0.00024546 0.000248299 
-2.47467e-05 -2.28289e-05 -0.000292981 
0.000675205 0.00148488 0.00124425 
0.000584828 0.000767898 0 
-6.78977e-05 0.000762175 0 
-0.00105656 -0.000983867 0 
-0.000222133 -0.00162516 0.000789525 
-0.00724745 -0.00800515 0.0171394 
-0.00326058 -0.00818202 -0.00320963 
-0.0200545 -0.0121005 0.0468282 
-0.00669465 -0.00298678 -0.000712958 
-0.000399538 -0.00191113 0 
-0.0035871 0.0017323 0 
-2.89925e-06 -0.000137961 0 
0.0104721 -0.0115154 0.00963949 
2.18009e-05 -2.5912e-05 0.000147246 
7.03411e-05 -9.89168e-05 0.000175672 
-0.000109155 0.000186069 0.000364329 
0.000156054 0.000460392 0.0271176 
5.41534e-05 -0.000219004 -0.000117175 
0.000116735 -0.000455294 8.3692e-05 
-6.97691e-05 9.42458e-05 -0.00361073 
-0.00236623 -0.00478898 0.0143497 
9.85597e-05 -5.69921e-05 0.000202445 
-0.000103247 7.46819e-06 0.0202005 
0.000125704 0.000121895 -7.27548e-05 
-7.45184e-05 -7.1069e-05 0.0174909 
-0.00022495 0.01485 0.0499818 
0.00369721 0.0197596 0.04098 
0.00932539 0.00708437 0.0215908 
-0.00222144 0.00748039 0.0169896 
0.00224706 0.0272269 0.0508804 
-0.0129406 0.00638915 0.00955801 
0.00457217 0.0110409 0.00746922 
-0.00212711 0.00724908 0.0143481 
-4.02132e-06 8.24986e-06 0.00020598 
0.000267529 -0.000103015 -0.000627094 
0.000535828 -0.000163955 -1.32618e-05 
0.00162944 0.000964012 0.0206455 
0.0268136 -0.00128316 0.137245 
0.0401267 -0.0469761 0.134315 
0.0190868 -0.0228993 0.0658151 
0.0275777 -0.0389747 0.113257 
-0.02242 -0.00238126 0.0454538 
-0.00991519 0.00392718 0.0053407 
-0.00702039 0.00128433 0.0145311 
-0.00972593 -0.0101821 0.00687475 
7.11267e-05 9.85774e-05 -9.09196e-05 
5.14928e-05 0.000121467 0.0179881 
-3.02024e-05 -5.04679e-05 -0.000158275 
-8.44222e-05 -0.000108577 0.00030063 
0.0109241 0.00649995 -0.0060981 
0.001937 0.0033823 -0.00783359 
-0.00951216 -0.0307575 0.0228696 
-0.00800577 -0.0483296 0.0323866 
0.0127033 0.012207 -0.00931675 
-0.0180362 0.00626161 -0.00258013 
-0.0111482 0.0172375 0.03813 
-0.0442632 0.0147931 0.0632828 
-0.0743997 0.0328088 0.253428 
-0.0284768 0.0314172 0.103134 
-0.00815857 0.053492 0.0463138 
-0.0228076 0.044345 0.135029 
-0.000447289 0.000382283 -0.00023504 
-0.000199704 -0.000466496 -0.000506712 
-8.6607e-05 0.000115107 -0.000139283 
-0.000593817 0.00521118 0.00160261 
0.0123334 -0.0171988 0.0144933 
0.013131 -0.0159658 0.0337159 
0.014957 -0.0389453 0.0519223 
0.00415079 -0.0130598 0.00236234 
-7.57756e-05 0.000114594 0 
-0.000142417 0.000105778 -6.53163e-05 
0.000275144 -9.54096e-05 0 
-0.000489772 0.000129673 0 
-6.89607e-05 -3.79461e-05 0.000307672 
0.00014861 4.60337e-05 0.0215414 
-0.000101809 -3.91258e-05 -0.000182937 
0.000158419 6.98548e-05 -5.37407e-05 
0.000498959 0.000338466 -0.000259703 
0.000392653 -0.000778943 0.0006095 
-0.000577039 0.00209436 -0.00158686 
0.00198704 -0.00337251 0.00240078 
-0.00033884 -0.000180599 0.0359636 
0.00169996 -0.00140615 0.0255506 
-2.91882e-05 -6.20411e-05 0.0362295 
0.0023251 -0.00246738 0.0470977 
-0.000548288 0.000558287 0.000874751 
-5.55201e-05 0.000487506 -0.00029211 
0.00125644 -0.00140834 0.0260955 
0.00248675 -0.0022613 0.0222093 
0.000293566 -0.000208823 0.000200846 
-3.95275e-05 3.13852e-05 -0.000141534 
-7.91572e-05 5.80367e-05 -0.00011475 
5.41247e-05 -0.000217729 -0.000108957 
-3.40831e-05 -6.48774e-05 0.0193672 
-1.64047e-05 0.000182343 0.0187746 
0.000303163 -0.000123138 0.0381192 
0.00135189 -0.000822815 0.0269264 
-0.00455299 0.00021889 0 
-0.0111407 -0.0103344 0 
0.00220947 -0.00202849 0 
0.0394844 0.0393145 0.0132017 
-5.29748e-05 -0.000376595 0.0213584 
0.00160821 0.00140796 0.0268755 
-9.11933e-07 0.000277575 0.0358911 
0.00110085 0.00139355 0.0272004 
0.0148277 -0.000787925 0 
-0.0207855 -0.0198506 0 
0.00339324 -0.0153548 0 
0.0660922 0.0552788 0.0363516 
0.000262748 -0.00330267 0 
-0.00171661 -0.00361742 0 
-9.17003e-05 0.00282245 0 
0.000852876 0.00772903 0.00304501 
-8.46989e-06 0.000132673 0.000189943 
-8.67483e-06 0.000136017 0.000195705 
-1.8739e-06 1.75115e-05 -6.10898e-05 
0.00044896 -0.00044569 0.0249036 
-0.033073 -0.019977 0.0164726 
-0.0290265 -0.0132137 0.0669551 
0.015519 -0.00656478 -0.0275914 
-0.0329227 -0.00844577 0.0378844 
0.000102576 -0.000176989 0.0185931 
-8.14791e-05 8.76537e-05 0.0162314 
0.000177256 0.000178947 0.000271288 
-0.000881354 -0.000765354 0.0239123 
4.8074e-05 5.0734e-05 0.0212029 
0.000105273 -4.2831e-07 -0.000125102 
1.08056e-05 -0.00016429 0.000218089 
-2.03378e-05 1.53744e-05 0.0179941 
0.000470743 -0.00112164 -0.000850179 
7.82413e-05 -0.00148232 -0.00453339 
-0.00393216 0.00432327 0.0234219 
-0.00272754 0.00551513 0.0176653 
-0.000501095 -0.000295025 0.0542594 
0.000263236 0.000260339 0.0628567 
0.000237255 -3.06863e-06 0.043656 
-0.00140689 0.00315716 0.0484427 
-9.30234e-05 -9.28942e-05 4.59532e-05 
-8.57001e-05 0.000293658 2.95833e-05 
8.91045e-05 8.50308e-05 -0.000143043 
0.00018191 0.000175484 -0.000244648 
-0.000108405 -0.000106602 -9.49738e-05 
0.000116391 -0.000167655 3.25059e-05 
5.95349e-06 8.78455e-06 -6.82417e-05 
6.24941e-05 6.53701e-05 -4.34067e-05 
-0.0287731 0.0403773 -0.0289803 
-0.0162836 0.00836211 -0.0480251 
0.0384425 0.0366408 0.0958056 
0.0957382 0.0472645 0.146078 
5.7732e-05 -0.00189482 0 
0.00486802 0.00175756 0 
0.00256211 0.0017748 0 
-0.0117492 -0.00131489 0.000330189 
-0.0206297 0.0113627 0.0264196 
-0.0106135 0.00673283 0.0134739 
0.000223204 -0.00391897 -0.00188239 
-0.0174131 0.0061966 0.0137997 
-4.71657e-05 -0.000460371 0.000131404 
-5.06647e-05 -0.000184875 0.00021578 
0.000899168 0.00121349 0.0232254 
0.000482708 0.00075908 0.0238132 
6.18145e-05 1.24183e-05 -0.000149671 
3.78169e-06 -2.3843e-05 0.0194959 
0.000153372 0.000248953 0.000231144 
1.20899e-05 -3.81797e-05 0.0172132 
0.00144483 0.00451293 -0.00721786 
-0.00882613 -0.0128458 0.00872664 
-0.00327265 0.00492758 -0.000147433 
-0.0124983 -0.0232463 0.0178011 
1.34984e-05 4.23612e-05 0.000415745 
-2.59051e-05 -8.80744e-05 -0.00100236 
0.000241258 0.000513008 6.56167e-05 
-0.000695022 0.000893538 0.0253778 
-5.02858e-05 0.000184501 -0.000110931 
-4.8364e-06 4.7898e-06 -0.000158075 
1.43299e-05 -3.6692e-05 0.000212354 
0.000685088 0.000543287 0.0276245 
-0.00139666 0.000342176 0 
-0.000507483 -0.00425386 0 
0.00250635 -0.00226911 0 
0.000277943 0.0111402 -0.000681875 
0.000217356 0.000306014 -0.0008716 
0.000267066 0.000355879 -0.000206929 
-0.000166045 -0.000227408 0.00039253 
3.56917e-05 0.000968389 0.00224309 
-2.84019e-05 0.000164117 0.000226814 
-9.05464e-05 4.65295e-05 -0.00011791 
8.49785e-05 -9.63304e-05 0.0179479 
-0.000173379 -0.000640215 0.0251963 
0.00588579 0.0201696 0.0425793 
0.0035573 0.0100054 0.009785 
0.00720046 0.00518784 0.0184842 
-0.00369353 0.00914096 0.0179218 
0.000128589 -0.000218465 0.000420353 
2.21164e-05 3.74064e-06 -0.0006462 
0.000189788 -0.000297396 0.000184893 
-0.000273033 0.0013382 0.0269966 
0.00765509 -0.00237735 0.00173856 
-0.0106748 0.00896151 0.00137938 
0.00491157 -0.00148112 -0.00439999 
-0.00988837 -0.00200004 0.0109362 
-0.0148118 0.000156696 0.0475261 
-0.0061849 -0.00838867 0.0194255 
-0.0172516 -0.00485847 0.0361495 
-0.00668533 0.00236835 0.0178639 
-0.000220665 0.000708364 0 
-0.000119841 0.00050557 0 
-0.000392426 0.000727946 0 
0.000367898 -0.000184638 0.000141996 
0.000153345 -0.00010111 3.64616e-05 
-3.17299e-05 1.73376e-05 -0.000116231 
-0.000138568 9.80462e-05 0.000169609 
0.00010001 -5.06167e-05 0.0192457 
0.000285122 0.000646725 0 
-0.00144349 -0.000350131 0 
-0.000617224 9.18833e-05 0 
0.000726832 0.00254663 0.000501739 
3.91601e-05 -0.000335369 0.0401046 
-0.000300307 -1.62396e-05 0.0207709 
0.000144467 8.19716e-05 0.0212155 
0.000490452 -0.00132422 0.0269091 
-0.000195053 0.00030642 -0.000185286 
0.000154612 -0.000237723 5.31383e-05 
-0.000138832 0.00020881 3.66814e-05 
-0.000479024 8.71095e-05 -6.26634e-05 
-3.90524e-05 0.000128305 -0.00209835 
3.4213e-06 -1.63903e-05 0.000147966 
6.5093e-06 -8.73877e-05 -0.000109923 
-0.00156702 -0.00160284 0.0176809 
0.000138848 0.00062949 -0.00157218 
5.60684e-05 0.000119791 0.000580815 
6.29259e-05 0.000214385 -7.12302e-05 
-0.00209023 0.00212464 0.0221385 
0.0147932 0.000157421 0.043268 
0.0104288 0.0124431 0.0214117 
0.0276872 -0.00345947 0.0424394 
0.0095504 -0.000941651 0.00745344 
0.000856447 0.000280349 -0.000466022 
-0.00119748 0.000920038 -0.00124392 
0.000312131 0.000226338 -0.000113535 
0.00442777 0.000563488 0.00107153 
-0.000160088 -0.00036167 0.000118922 
2.59863e-05 4.29653e-05 -0.000275826 
4.41018e-05 9.99086e-05 -2.82958e-05 
-0.000350735 0.000139059 -0.000138553 
3.4049e-05 8.99974e-05 -0.000187741 
5.01547e-05 9.22365e-05 -0.000111527 
-9.46895e-05 -0.000215348 -4.71137e-05 
0.000119585 0.000263817 0.00019227 
-2.9169e-06 -2.62317e-05 0.0204893 
1.92639e-06 -2.80122e-05 2.41304e-05 
-3.00373e-06 4.36781e-05 0.000135762 
-4.60403e-06 6.69486e-05 -5.1479e-05 
0.00572076 0.0122396 0 
-0.00341998 0.00603275 0 
0.00053329 -0.00340981 0 
-0.0182221 -0.0364677 0.00730782 
0.0110146 0.00274869 0.075487 
0.00858558 0.00324138 0.0469923 
0.00442759 0.00130738 0.0501571 
0.00976724 0.00803277 0.0615327 
0.0138408 -1.30283e-05 -0.0392852 
-0.00542369 -0.0299184 0.00387198 
-0.0123654 -0.0485376 0.0907657 
0.0134081 -0.0445063 0.0341821 
-0.0303505 0.0275855 0.00577843 
0.00673251 6.87721e-05 -0.0285726 
-0.00448244 0.0113882 0.0530043 
-0.040247 0.0318521 0.0792715 
-9.90655e-05 0.000135529 0.0349655 
4.26459e-05 -2.02952e-06 0.0172419 
-0.000105998 -4.40087e-05 0.0204461 
-0.00089378 0.000835769 0.0253594 
0.00159881 0.000502038 0.000648556 
-0.00725302 0.00206841 0.00595831 
0.00213288 -0.00109905 -0.0018627 
-0.00614592 0.000384765 0.0142428 
-0.000157317 0.000579083 0.000914432 
-3.85567e-05 0.000112597 0.000819524 
-5.70708e-05 0.000302406 -0.00154258 
0.00208517 0.00360245 0.00705057 
0.010811 0.0188999 0.0306358 
0.0195815 0.0205245 0.0295793 
0.008265 0.0100734 0.0151881 
-0.00471109 0.00945879 -0.003997 
-2.20453e-05 0.000471392 0 
0.000258 -0.000607487 4.25091e-05 
-1.09293e-05 -0.000298913 0 
0.000575018 -0.000403017 0 
0.00201265 0.00190383 -0.00177561 
-0.00298496 -0.0069632 0.00386609 
4.9861e-05 0.000908394 0.0018809 
-0.00357493 -0.00458834 0.00282533 
2.23284e-05 1.46138e-05 0.000896377 
6.39408e-05 -4.89835e-05 -0.00142544 
-0.000402244 0.000115728 0.000509765 
-0.00450011 -0.000711462 0.00679948 
-3.4031e-05 0.000182865 -6.65727e-05 
6.99748e-05 0.000213808 0 
6.06224e-05 -0.000182651 0 
-8.66191e-05 0.00010004 0 
-1.54714e-05 -9.51527e-05 0 
0.00019836 9.13832e-05 0 
-0.000157711 2.7827e-05 0 
0.000150348 -4.86564e-05 7.88414e-05 
-5.22136e-05 9.77382e-05 0.0179042 
5.14019e-05 -5.78302e-05 -0.000187796 
0.000116964 -0.00010057 0.000364033 
-0.000106223 0.000101884 -6.1502e-05 
-0.00649115 -0.00543146 0.0192889 
-0.00628127 0.00122316 0.017979 
-0.0148945 -0.00207438 0.0475606 
-0.00120431 -0.000622508 0.016141 
-4.35683e-05 6.6618e-05 2.66754e-05 
4.76658e-05 -7.34405e-05 -4.04602e-05 
0.000131343 4.56459e-05 -0.000118086 
1.13913e-05 -1.96371e-05 -5.18789e-05 
-0.000299171 -6.31619e-05 0 
0.000395263 0.000154644 -0.000140858 
9.39781e-05 0.000147062 0 
0.000181786 0.000129718 0 
6.24888e-05 -0.000158014 0.000127744 
-4.03939e-06 4.2933e-05 0.0181126 
-8.96119e-05 -1.96972e-05 -9.49167e-05 
-6.38766e-05 2.78168e-05 0.0225231 
0.000193675 9.87108e-05 0.0561428 
-0.000265502 -0.000269872 0.0358636 
-0.000293906 8.10554e-05 0.0411271 
0.0035903 0.00372695 0.0513872 
-0.011438 -0.0259752 0.0384296 
-0.0350192 0.000548632 0.084524 
-0.0275177 -0.00760894 0.0533712 
-0.0131327 -0.0171801 -0.0186511 
0.000274139 0.000540123 -5.12568e-05 
-2.51252e-05 -5.11429e-05 0.000379393 
-6.25466e-05 -0.000117008 -0.0014105 
-7.71209e-05 0.00225582 0.0185381 
-5.15847e-05 -0.000137119 -0.000120777 
-0.000215873 7.06673e-05 0.000301699 
0.000151869 0.000103044 0.0190509 
0.000780469 0.000431351 0.0231583 
-0.000463782 0.00033534 0 
-0.000532088 0.000385863 0 
0.000526777 -0.000202123 0 
-0.000659252 0.000238674 5.45032e-05 
0.00129124 -0.00173893 0.00159987 
0.00159928 0.00669211 0.00495006 
-0.000287198 -0.00163796 -0.0017757 
0.000498558 0.00693742 0.0123807 
0.000140151 -9.85502e-05 0.000494672 
-9.30199e-05 6.61819e-05 -0.000281835 
0.000234093 -0.000179169 -4.97248e-05 
0.000446577 0.00068444 0.0258743 
-0.000338084 -0.000279732 0 
-0.000327269 -0.000425883 -7.34166e-05 
0.000319164 8.77564e-05 0 
-0.000345704 0.000195268 0 
0.000261327 0.000214593 0.000282779 
8.13419e-05 4.39533e-05 0 
-0.0001375 -0.000230917 0 
4.34537e-05 0.000313108 0 
0.0215901 0.119972 0.225288 
-0.00313252 0.0911737 0.132006 
0.016967 0.00630236 0.391716 
0.06757 -0.0188703 -0.0948534 
-0.0195362 -0.00755834 0.260185 
0.0223727 0.0133153 0.254488 
0.0282931 0.0423732 0.260927 
0.0156939 -0.0898702 0.232987 
7.81272e-05 -5.61578e-05 0.0198387 
-7.93593e-05 1.72639e-05 0.037823 
-4.73472e-05 9.29452e-05 0.0357297 
-0.0011678 0.00111949 0.0235777 
4.94589e-06 -6.16956e-05 0.0355323 
-0.001685 0.00302387 0.0474733 
0.000627706 -0.000132255 0.0443297 
-0.00116871 0.00140303 0.0248286 
0.000117442 0.000272612 -0.00101319 
0.000183702 -0.000291885 0.000152684 
0.000556514 -0.000350947 0.00180797 
-0.000503347 -0.000449358 0.00134153 
0.000106149 0.000166682 0.000632626 
3.26956e-05 3.61695e-05 -0.000386526 
-2.05057e-05 -5.05069e-05 -0.000823778 
0.000491492 -0.00102999 0.0232298 
-0.0291867 -0.0211309 0.201283 
0.00461915 0.0140904 0.108067 
-0.00672236 -0.00715504 0.186608 
0.0635196 0.087367 0.0225716 
-0.00191587 -0.000742752 -0.00102598 
0.00177942 0.00011535 -0.000827948 
-0.00397421 0.000891203 0.00609447 
-0.0104314 -0.00237977 0.0026418 
0.0004953 0.000189007 0.0781703 
-9.34362e-05 0.000543457 0.0763449 
-0.000164929 9.91969e-05 0.0638782 
-0.00195782 -0.00508923 0.0678559 
-0.00167219 0.00257066 0 
0.000930375 -0.00286077 0 
0.00612253 0.00270253 0 
-0.0111171 -0.00955792 0.00316662 
-0.000120853 -2.93561e-05 0.0181025 
5.08739e-05 -4.55256e-05 0.020123 
-5.84142e-05 -0.000139496 0.00019434 
-0.000952724 0.000924123 0.0230865 
0.000341444 6.58361e-05 0.0775081 
-0.000343478 -9.4423e-05 0.0642277 
0.0007031 -3.68651e-05 0.0617192 
-0.00154049 -0.00469282 0.0682777 
0.0156331 -0.0392763 0.0561169 
-0.0608889 -1.79029e-05 0.0305848 
-0.0139109 -0.0306859 0.0380713 
0.00328252 -0.0424137 0.122747 
6.4284e-05 -0.000284826 0.0691566 
-0.000405006 -0.000297598 0.0515447 
0.000359693 0.000357396 0.0546012 
0.00237217 -0.00329263 0.0482947 
-1.84695e-06 7.49604e-05 0.000292793 
-1.18739e-05 -2.28425e-05 -0.00104822 
1.11929e-05 4.95559e-05 0.00115081 
-0.00253366 -0.00307381 0.00192768 
0.00192179 -0.021455 0 
0.00103166 -0.00161773 0 
-0.0170845 0.00385209 0 
0.0041291 -0.0397747 0.0336995 
0.00438448 0.00101375 0.0535054 
0.00795656 0.0036877 0.047768 
0.00487432 0.00437164 0.0359064 
0.0102705 0.00789906 0.0586422 
-0.000223962 -8.09679e-05 -6.19074e-05 
7.65133e-06 8.20901e-05 -0.000146017 
0.000390664 9.68426e-06 -0.00019175 
0.000454266 0.00112879 0.000551922 
-0.00690512 0.0142139 0 
-0.00190121 0.00574021 0 
0.0196409 -0.0276678 0 
-0.0115208 0.10554 0.0613043 
0.000196753 2.92813e-05 0 
0.000219192 0.000332793 0 
-0.000196186 -0.000150405 0 
-1.43706e-05 0.000141569 -0.000249295 
-9.55667e-05 -4.3728e-05 0.0180869 
3.79273e-05 3.22918e-05 -0.000139212 
0.000136185 0.000145608 0.0001769 
-0.000130454 -0.000130654 3.1974e-05 
0.00507548 -0.00187838 0 
0.00393843 0.000834773 0 
-0.00177858 0.00616168 0 
0.0086373 -0.0283412 0.00297746 
7.06941e-05 0.000123324 0.0736647 
-0.000532139 -0.00036452 0.0855646 
0.000178117 -0.000893477 0.0765463 
0.0043499 0.00288296 0.0776885 
-0.000504337 0.000519358 -0.000899322 
0.000505746 -0.000326264 0.00181777 
-0.000768616 0.000579234 -0.00073068 
0.000384558 -0.0010131 0.00115577 
0.0403696 0.0100032 0 
0.0591132 -0.0156573 0 
-0.0213924 -0.0026041 0 
0.0461107 -0.0907877 0.141618 
-8.69299e-05 -2.56917e-05 -0.000956798 
-0.000870207 -0.00023766 -0.00152649 
0.000367533 0.00010059 0.000732933 
-0.00374538 0.00235374 0.0200506 
-0.000132372 2.00464e-05 0.0191614 
0.000318836 0.000329494 0.0403975 
2.24223e-05 -0.000158588 0.0213019 
0.00125221 0.0014086 0.0272736 
-0.000143944 -0.000234276 0.0209677 
3.69695e-05 0.000231809 0.040898 
4.70956e-05 3.1089e-05 0.036115 
0.00164861 0.00155907 0.0270269 
-0.000317302 -0.000113251 0.000422239 
0.00148118 0.000402227 0.0279424 
-8.11995e-05 4.61663e-05 0.0244814 
0.000963529 0.000208037 0.0248205 
-0.000366051 -9.66877e-05 0.000192669 
-0.001071 -0.000294415 -0.00167487 
-0.00013252 -3.38668e-05 0.000290534 
-0.00227797 0.00169853 0.0209406 
3.21972e-05 3.93772e-05 -0.00126558 
0.000626176 0.000440312 -0.000317722 
-0.000198651 -0.000153129 0.00110412 
-0.00384367 -0.000278787 0.0118844 
-0.000169777 -0.00066087 0.000178208 
-9.37373e-05 -0.000353358 0.000337278 
0.000270806 0.000916111 -0.00314604 
0.00105411 -0.00539577 0.013244 
0.000368083 -4.31373e-05 0.0274354 
-0.000229454 -0.00049259 0.0463002 
-0.000173547 1.13444e-05 0.0313863 
-0.00147561 -0.001396 0.0264321 
0.0366926 0.0316666 0 
-0.0105917 -0.00991031 0 
-0.0174339 -0.0204852 0 
-0.0152336 -0.102137 0.0766808 
-0.000213809 1.69159e-05 0.000377378 
2.21008e-05 0.000193128 0.000163013 
0.000110995 -0.000199332 0.0213325 
0.000558418 -0.000814541 0.0269189 
-0.000425137 -0.000212484 0 
-0.0002584 -0.000542317 0 
0.000278505 0.00031964 0 
-0.000447537 -0.000234945 -0.00023636 
0.000128279 0.000184137 0 
0.000272428 -2.76475e-05 -0.0001947 
-0.00018917 -0.000267949 0 
0.000235899 0.000685544 0 
0.000504876 0.000844664 -0.00363984 
0.000639145 -0.00495828 0.00624033 
4.02961e-06 0.000587741 -0.000364993 
-0.00227951 -0.0120139 0.00994941 
0.000357679 -2.93421e-05 -0.00143398 
-0.000233394 1.91464e-05 0.000387963 
-0.000496201 4.07058e-05 -0.00127224 
-0.000396794 -0.00250421 0.0164825 
-0.00130701 -0.00605177 0 
0.0057506 0.00550073 0 
0.00174962 0.00840144 0 
-0.00320596 -0.0216736 0.00421463 
-6.78626e-05 -1.81527e-05 0.0395036 
0.000153495 -5.94648e-05 0.0541353 
-0.000308397 0.000101046 0.0363424 
0.00277732 -0.00253256 0.0486577 
0.00063603 2.63519e-05 -0.000195193 
0.00215999 0.00524301 0.0189841 
0.00352391 -0.00392227 -0.00325592 
-0.00162913 0.007996 0.017066 
0.000238196 -0.000637315 0.0794253 
0.000518873 0.000351813 0.0718029 
-0.000399249 -0.00024365 0.0633215 
-0.00513924 0.00191904 0.070548 
-2.6184e-05 -9.01576e-06 0.0213596 
-0.000115601 -1.50236e-05 -3.52994e-05 
-1.29351e-06 6.19825e-05 -7.2037e-05 
4.45501e-05 5.82669e-05 0.019474 
-6.59034e-05 0.000418602 0.0341052 
-0.00114856 -0.000979771 0.0232798 
-1.38617e-06 -0.000131354 0.0326695 
-0.00234824 -0.00206688 0.0396335 
-3.7552e-05 0.000242348 0.033782 
0.000375597 -1.34599e-05 0.0454153 
-0.00014252 -7.34601e-05 0.0244668 
0.00168134 0.000614888 0.0278071 
-0.000166362 -0.00277751 0 
-0.000718025 0.00106309 0 
0.00268259 0.000246871 0 
0.00277727 -0.00126531 0.00221252 
0.000356855 0.00024274 -5.04455e-05 
4.14817e-05 2.84411e-05 -0.000968077 
1.84811e-05 1.24411e-05 0.000555151 
0.000870002 -0.000603957 0.0250479 
-0.00746561 -0.0614011 0.135296 
0.0147969 -0.0627428 0.236209 
-0.00887594 0.0291946 0.393193 
0.0989288 -0.0739743 -0.040596 
-0.03575 0.0104255 0 
0.0542533 -0.0112469 0 
-0.0171812 -0.0319054 0 
0.0733286 -0.114894 0.147102 
-0.0113002 -0.0184118 0.0245832 
0.000905795 -0.00495041 0.00236384 
-0.00124407 -0.00522089 0.00502218 
0.000115978 -0.000136929 0.00116887 
2.97981e-05 -7.51951e-05 0.039522 
0.00135854 -0.0010551 0.0233488 
0.000110197 0.000165983 0.0323517 
0.00227171 -0.00211127 0.0477764 
-0.00130854 0.00042548 0 
-0.00169053 0.00162287 0 
0.000574201 -0.00196222 0 
-0.00041948 -0.00427093 -0.000630839 
0.000438119 -0.000181476 -0.000165637 
-0.000509756 0.000297005 -7.81469e-05 
-0.000630186 0.000257829 0.000104712 
-0.000455902 0.000183953 -3.13644e-05 
3.80702e-05 -0.000176411 0.0458201 
-0.00028582 -7.82624e-05 0.0335555 
-3.49587e-05 0.000309002 0.0447211 
0.00362069 0.00166534 0.0518074 
0.00381289 -8.70827e-05 0.0208163 
0.00677457 -0.00412275 0.01633 
-0.00327115 6.38752e-05 -0.00131224 
0.00792371 -0.00118522 0.0113114 
3.61826e-05 0.000186464 0.000467797 
2.03258e-05 9.8188e-05 0.000127084 
-2.56499e-06 -2.02e-05 -0.000177609 
0.000429311 -0.00117937 0.0266763 
-0.00175179 -0.00107236 -0.00630921 
0.0069767 0.00616512 0.0116555 
-0.000858724 -0.000873887 -0.00201007 
0.00733987 0.00233834 0.0122498 
0.0111434 0.00152018 0 
-0.00759501 0.00164705 0 
0.010507 -0.00732011 0 
-0.0414817 -0.00239975 0.00370502 
0.000436102 0.000139965 -0.000687555 
3.42513e-05 -0.00028011 0.000729074 
-0.000645361 0.00122729 0.0258403 
-0.00130394 0.00132736 0.0222689 
0.00039043 -0.000439611 -0.000279776 
0.000668834 -0.000413788 -0.000584737 
-6.52646e-06 -0.000602689 -9.26011e-05 
-0.000562567 -0.00117561 0.000668614 
4.0152e-05 5.17659e-05 -0.000391494 
5.65901e-05 -0.000258077 0 
-0.000203439 0.000171137 0 
0.000653799 -0.000314193 0 
0.000162112 -0.000118656 0.00110443 
-0.000488702 0.000356177 -2.82098e-05 
-0.00016038 0.000117147 -0.000568946 
0.00218996 -0.00011474 0.0155572 
0.000174091 5.90319e-06 0.0351751 
-9.14757e-05 -0.000185305 0.0403187 
-3.28457e-05 0.000286589 0.0211152 
0.000744466 -0.00161642 0.0266607 
0.0006872 0.000147372 -0.000131396 
0.000368689 0.000247805 0.000282608 
-0.000993421 -0.000897256 0.0231687 
-0.00196022 -0.00136598 0.0209695 
-0.000336109 0.000193682 0.000157989 
0.000710829 -0.000503571 -0.000539172 
0.00109638 3.44261e-05 -0.000687427 
-0.00205672 0.00167903 0.00152462 
0.000229682 -0.000167845 -0.000587933 
-0.000315829 0.000206063 -0.00103946 
0.00053226 -0.000363627 0.00053018 
-0.00316827 0.000269861 0.0144517 
0.000163319 -0.000217121 0.0010975 
0.000453561 -0.00187571 0.000145717 
-6.73034e-05 0.00189169 -0.000999287 
0.00171035 -0.00376351 0.00317607 
-7.28578e-05 5.43787e-05 0.0195775 
0.000146696 -6.77407e-06 0.0316907 
8.19125e-05 -6.83569e-05 0.0148196 
0.000845358 -0.000742472 0.0243963 
-4.97746e-05 0.000157865 0.000211267 
-7.2332e-05 0.000243713 0.0272808 
-0.00113604 -0.00155568 0.026496 
-0.00099499 -0.00119553 0.025451 
-7.5869e-05 -4.85389e-05 -4.02125e-05 
3.4559e-05 2.98022e-05 -0.000191155 
0.000204054 0.000123497 0.000300153 
-3.37417e-05 -2.21034e-05 0.0171423 
-0.000170565 -7.51185e-05 -5.43961e-05 
6.69057e-05 3.66752e-05 0.000293219 
0.000105999 4.05944e-05 -0.000195813 
-0.00012868 -5.06688e-05 0.0174663 
-5.96576e-05 -0.000372568 0.0499593 
-0.000234739 -5.88937e-07 0.0633836 
0.00018172 0.000110777 0.0424373 
-0.00513356 -5.39814e-05 0.0561216 
-7.87183e-05 -0.000358626 0.0461884 
-0.000565746 -0.000330472 0.0624836 
0.000455497 6.16593e-05 0.0639087 
0.00119439 0.00525449 0.0576357 
-0.00378007 0.00417956 0.168889 
0.0230679 0.00271444 0.077534 
0.00390344 -0.0072716 0.0645447 
0.0599346 -0.0531283 0.174345 
0.00168858 0.00719222 0 
0.00688111 0.00896671 0 
-9.39604e-05 -0.0110363 0 
-0.00996456 0.0394468 0.0160023 
-0.00863261 0.00392303 0.00232349 
-0.0413522 0.00339408 0.0545824 
-0.0044805 -0.0034993 0.00227849 
-0.00517926 -0.00967056 0.00701081 
-0.000110247 2.61215e-05 -6.17084e-05 
2.55336e-05 -8.05171e-06 0.000111022 
4.68559e-05 -1.69119e-05 0.000306969 
-0.000191407 -0.000324272 0.0251918 
-0.0585183 0.0286026 0.125437 
-0.0277063 0.0145748 0.048266 
-0.0189544 0.0159854 0.0142917 
-0.0174451 0.00015854 -0.0104862 
0.000574581 -0.0166779 0.0565292 
0.00446459 -0.0124526 0.0648664 
-0.000559244 -0.0233297 0.089902 
0.0146273 -0.0169869 0.0702129 
5.58709e-05 2.14804e-05 -0.000596001 
-0.000118611 -3.13677e-05 0.000118641 
0.000219837 5.40028e-05 0.000113215 
0.000832385 -0.000447616 0.0268519 
0.00106345 -0.000265352 -0.00236705 
0.000113295 -6.84488e-05 0.00123919 
8.05047e-05 -1.68053e-05 -0.000301018 
0.00346634 0.00205072 0.0166675 
-6.786e-05 1.70418e-06 0.0214078 
0.00012144 0.000152679 0.0356368 
3.10233e-05 -8.04973e-06 0.0176528 
0.000942852 0.00110841 0.0275061 
3.21722e-06 3.68352e-06 -0.000161662 
-7.04328e-05 8.38199e-05 -0.000337744 
-1.93253e-05 1.90421e-05 5.94916e-07 
-0.000254461 -0.000263917 0.000108229 
0.000116755 3.30207e-05 0.000289487 
-0.000279372 -7.13212e-05 -7.31063e-05 
5.69672e-06 -6.77053e-06 -0.000661075 
-0.000850915 0.000543609 0.0251203 
6.1547e-05 -2.13968e-05 -0.000195641 
-0.000294108 0.00011682 0.000385441 
5.24948e-05 -2.17917e-05 -3.33315e-05 
-2.58314e-05 -2.95442e-05 0.0179089 
0.00298548 0.0012448 -0.0028081 
-0.00214655 -0.00426384 0.00301993 
0.000640317 -0.000440501 -0.00106804 
-0.00369934 -0.0042453 0.00270802 
8.55573e-05 0.000864091 0.000529749 
8.03111e-05 0.00104063 -0.00109094 
-2.44818e-06 -0.000106972 0.000553957 
-0.00285616 -0.00101665 0.0156681 
0.00104211 0.00798977 0 
0.000528609 -0.000305272 0 
0.000735535 -0.00341129 0 
0.000539386 -0.00513724 -0.00244559 
-2.59853e-05 -1.84106e-07 -0.000550231 
-0.00028073 -0.000111707 -0.000181954 
-0.000158111 -9.34368e-05 0.00150056 
0.00548199 0.000313146 0.00112577 
0.000484737 -0.00084545 -0.000306625 
0.000169513 -1.24107e-05 0.00017779 
-0.00012427 9.09829e-06 0.000134446 
-0.000640536 4.68959e-05 0.000254176 
-1.19944e-05 1.09205e-05 0.0225406 
1.63151e-05 8.46067e-05 -6.66924e-05 
0.000147583 1.04409e-05 -2.58334e-05 
-7.55745e-05 5.06228e-05 0.0182381 
-0.000170289 -0.000106015 0.000133299 
-7.42925e-05 -0.000166701 0.00020206 
0.000129604 -6.50893e-05 0.0183456 
0.000582287 -0.000246327 0.024596 
4.0628e-06 -5.54924e-05 -8.77005e-05 
-3.02751e-06 4.13518e-05 0.000161495 
-5.44126e-06 7.43203e-05 0.000170511 
0.000357311 -0.00025583 0.0249838 
0.000215241 0.000258496 0.000502848 
0.000161073 -1.3573e-05 0.0179539 
-0.000367432 -1.44859e-06 0.0272352 
-0.000472834 -0.000968998 0.0251772 
-0.0013564 0.000945445 0 
-0.0013262 0.00028392 0 
0.000502549 -0.000162129 0 
0.0004362 -0.00116295 -0.00113877 
-0.000446576 -3.9264e-05 0.000655131 
-0.000351146 -2.96952e-05 -3.88306e-05 
-0.00115201 -9.63549e-05 -0.000628966 
0.000417934 0.00178281 0.0131031 
-0.000189698 0.000482665 -0.000461825 
0.000131128 -0.000345741 0.000499131 
0.000247496 -0.000574875 -0.000212858 
0.000619448 -0.00267237 0.00135585 
-0.000201751 -0.00021193 0.000194931 
-4.80561e-05 -4.82039e-05 -4.71387e-05 
3.09976e-05 3.60047e-05 0.0200535 
-3.156e-05 4.77746e-05 0.0180778 
-0.000482398 -0.000133369 0.00151546 
-0.000508176 -0.000134425 -0.000906904 
-0.000138547 -3.51706e-05 -0.000857005 
0.00640712 -0.00182685 0.0160564 
0.00048865 0.000130319 1.46869e-05 
0.000150407 4.91881e-05 -0.00175849 
-3.87222e-05 -1.19876e-05 0.000321431 
0.00231849 -0.000831726 0.0210003 
3.46406e-05 -1.69073e-05 -0.00162536 
0.00106793 -8.63743e-05 -0.000545112 
0.000552041 -3.97196e-05 0.000280051 
-0.00564096 -0.00323487 0.00898315 
-0.0010479 0.00038435 -0.000413938 
0.00187007 -0.000230494 -0.000526127 
0.000380755 -0.000105306 0.000190531 
-0.00253557 0.000955981 0.00116697 
0.000116357 1.89958e-06 0.0361625 
-1.42249e-05 -0.000207386 0.0354633 
-8.95515e-05 0.000155534 0.0192806 
0.00129031 -0.00135261 0.0262229 
4.28961e-05 -0.000477705 -0.000724566 
-4.29044e-05 0.000566976 -0.0010996 
-2.14545e-05 0.000245918 0.000219328 
0.00224658 0.000310813 0.0188858 
0.000364667 -4.69525e-05 -0.000141439 
-0.000110782 0.000116636 -0.000160252 
0.000181 -0.000195757 -7.84839e-05 
-0.000989464 0.000813031 0.000898874 
-5.04968e-05 0.000601954 -0.00224967 
1.36369e-05 -0.000162561 -0.00118069 
2.59079e-05 -0.000308839 0.000438693 
-0.00305823 -0.00076315 0.0160107 
0.000370585 -0.00248417 0.00107843 
-0.0123353 -0.020246 0.0175464 
0.00839364 0.00595967 -0.00730632 
-0.00532514 -0.00764095 0.00965729 
-7.88891e-05 5.7229e-05 0.0180162 
-5.80877e-05 6.47686e-05 0.000186475 
1.40803e-05 -0.000406175 0.000309781 
-0.000875454 0.000686501 0.0229417 
-5.03768e-06 -7.25951e-05 0.000104764 
7.19669e-07 1.03707e-05 2.63058e-05 
-2.98423e-06 -4.30041e-05 1.50394e-05 
9.9773e-05 6.95884e-05 0.0221755 
-1.21559e-05 -0.000173265 -0.000153703 
3.95886e-06 5.64276e-05 0.00016884 
0.00018299 0.000175074 -0.000601127 
-3.43361e-05 -0.000489409 7.00345e-05 
-0.000402186 -0.000118737 0.000636086 
-3.03075e-05 2.13446e-05 -0.00133523 
-0.000263016 -7.70406e-05 0.000388163 
-0.00389062 0.000716272 0.00677453 
-7.79118e-05 -0.000135459 0.0271314 
1.02159e-05 6.54352e-05 4.5303e-05 
-0.0002638 0.000130023 0.000303611 
-4.7304e-05 2.21724e-05 0.0179464 
0.000405778 0.00101373 6.49468e-05 
0.000477811 -5.14384e-05 0.000300725 
0.000558484 -0.00154637 0.000350125 
0.00103269 -0.00207458 0.00160729 
-0.00417483 0.00373567 0.163531 
-0.00204245 0.00601712 0.190592 
-0.00748501 0.00615761 0.0542603 
0.0286799 0.102249 0.0991198 
0.000195332 -9.96948e-05 -0.0001689 
1.22276e-05 -0.000174276 0.000352061 
-2.47949e-05 0.000353391 -0.00054629 
1.74381e-05 -0.000248539 -7.88013e-05 
0.00596231 0.0295617 0.0463383 
0.00943558 0.0374713 0.0470549 
0.0219715 -0.00688411 0.0126168 
-0.00240492 0.0135989 0.00526957 
-0.000128813 -4.86913e-05 0.0157592 
0.000383855 -4.7221e-06 0.0250211 
-7.55214e-05 -0.000182466 0.000336041 
0.000195132 0.000898846 0.0234986 
-2.60857e-05 -0.000263796 -0.000110954 
-2.30246e-05 -0.000232841 -0.00117625 
1.74533e-06 1.765e-05 0.000241339 
0.00163514 0.000186112 0.0205179 
1.78206e-05 -0.000286743 0.024632 
-9.22817e-05 -3.18602e-05 0.0182322 
8.4259e-05 0.000121122 0.0335356 
0.00139296 0.000955376 0.0279029 
0.000232165 0.000334891 0.0498624 
0.000419345 0.000159186 0.0684882 
-0.000352494 -0.000387302 0.054674 
0.00271622 -0.00244374 0.0489568 
-0.000149923 -0.000167255 0.035781 
-3.54566e-05 0.000255954 0.0439137 
9.86149e-05 7.89211e-05 0.0220953 
-0.000689862 0.00111393 0.0251445 
-0.000478338 -2.73185e-05 0.0825933 
7.09582e-05 -0.000537631 0.0679596 
-0.000150988 0.000852167 0.07588 
0.00479523 -0.00195116 0.0740383 
-0.000252612 3.95168e-05 0.017528 
0.000120507 -1.94117e-06 0.0223566 
0.000138134 -0.000210402 0.000312392 
-0.000389418 0.000986907 0.0252087 
-3.14364e-06 -2.22571e-07 -0.000154433 
8.56462e-05 6.0638e-06 0.00014668 
-3.6338e-05 -2.57275e-06 0.00019039 
-0.000115387 -4.45309e-05 0.0225341 
-0.000422068 0.000332031 0.00153367 
0.0066897 -0.00199775 0.00437259 
0.0123724 -0.00838074 0.0165309 
0.00335484 -2.36071e-05 0.00446543 
0.0189753 0.0146789 0 
-0.0127438 -0.00412246 0 
-0.00404887 -0.0173831 0 
-0.0195775 -0.0557626 0.047411 
5.52778e-05 -0.00014875 0.0543507 
0.00277387 -0.00334361 0.0480285 
-0.000128342 0.000652331 0.0357443 
0.00259561 -0.0027261 0.0490712 
0.0155845 0.000505253 0.040001 
0.00614142 -0.00765644 0.0164616 
0.00417958 0.000796116 0.0192308 
0.00786771 -0.000498525 0.0126194 
2.40668e-06 6.65567e-06 0.000851071 
-1.97058e-05 0.000245362 0.000264762 
-1.1209e-05 0.00012207 -0.000271439 
0.00102778 -0.000417431 0.0200649 
0.000288348 0.000297297 -0.000340969 
6.35383e-05 6.87965e-05 -0.000180495 
-0.000187163 -0.000198038 0.000383753 
0.000494368 -5.81373e-06 0.000636178 
-0.00338878 0.0133152 0 
-0.0111566 -0.0145659 0 
0.0134223 0.0223701 0 
-0.00273506 -0.089365 0.0453921 
0.000159459 1.10647e-05 -0.000213827 
-7.63226e-05 -5.29595e-06 0.000551666 
-0.000356215 -2.47174e-05 -0.000309689 
2.65985e-05 -9.38533e-05 -0.000504584 
6.80654e-05 -0.000145142 -0.00061003 
-6.6183e-05 0.000145268 0.000415292 
-0.000194959 0.000461995 -0.000240522 
-0.00108093 0.0041893 0.00192171 
-0.000319932 0.000465266 0.000828562 
-0.000265454 0.000386682 -0.000245109 
-0.000107663 0.000157035 -0.000395832 
0.000701685 0.000898272 0.0117455 
-9.97749e-06 -1.3744e-05 0.0152549 
6.98278e-05 -1.61561e-05 -0.000227998 
-1.61715e-05 -5.68516e-05 0.0191909 
-0.000191284 -0.000174012 0.000303061 
-0.000231711 -0.000144353 0.000228725 
1.0588e-05 1.64365e-06 -0.000145316 
-3.69314e-05 1.20528e-05 0.0180923 
9.20736e-05 5.90857e-05 -4.39109e-05 
0.00037311 -0.000159307 9.97271e-05 
0.000628113 -0.000252442 -0.000274551 
-0.000459321 0.0001868 0.000139062 
0.000513159 -0.000392305 -0.000312624 
0.000248517 4.57822e-05 0.0248276 
-5.24092e-05 -0.000226994 0.000231418 
-0.000144342 9.72785e-05 0.000214091 
0.000444653 0.000710024 0.0238642 
-4.44348e-05 0.000159962 0.000345538 
0.000105778 4.98846e-05 -0.000205944 
-5.05989e-05 -0.00015479 0.0185756 
-0.000573223 -0.000714915 0.0237622 
2.55479e-05 0.000179839 -0.000739721 
-4.01223e-06 5.66688e-05 0.000207948 
1.23198e-05 -0.000174005 -0.000328719 
-2.15301e-05 0.000304092 0.000346406 
-0.000142894 -0.000155416 -0.000499155 
-0.000374552 -0.000332143 0 
-3.88607e-06 -0.000104707 0 
0.000109161 4.27842e-05 0 
0.00204227 0.00387425 -0.00140299 
-0.00133718 -0.0057766 0.00260344 
0.00147465 0.00153998 0.000333583 
-0.000748454 -0.00536188 0.00122588 
-0.000179001 3.29223e-05 0.0475063 
5.68988e-05 0.000242311 0.0340006 
0.000130586 -3.16958e-05 0.0322594 
-0.00262013 -0.00198418 0.0401819 
0.000372823 0.000443129 0 
-0.00164144 -0.00270045 0 
0.00161142 -0.00274267 0 
0.00677763 0.00757488 0.00067877 
0.000152446 5.9803e-06 -1.88756e-05 
0.000119505 -3.45181e-05 9.48544e-05 
-0.000128171 -2.85309e-05 0.0161594 
-0.000762307 -0.00052549 0.0240249 
0.00154678 0.00322831 0 
-0.000486373 -5.93054e-05 0 
0.00424344 -0.00231661 0 
-0.00648404 0.00655779 0.00142226 
-0.00028773 6.03649e-05 -0.00211919 
-0.000322261 2.22947e-05 0.000459973 
-0.000135424 8.80723e-06 0.000228414 
0.00462363 0.00239114 0.0183514 
8.51976e-05 -4.76338e-05 -0.000752596 
0.000485154 0.000351874 0 
-0.000526676 -0.000839976 0 
-0.00048074 -0.000215025 0 
0.000175786 -0.000112391 0 
0.0005092 -3.40247e-05 0.000200319 
0.000248142 -0.000252568 0 
0.000199409 0.000623517 0 
0.0169217 -0.0551453 0.223159 
0.0126092 0.00142828 0.281392 
-0.0654501 0.00305242 0.233142 
0.0678095 -0.0730658 0.197076 
-0.000246358 0.000168936 0.000550562 
7.31786e-05 -4.99277e-05 -0.000699476 
-0.000474142 0.000325719 -0.000174996 
-0.0015534 0.000149531 0.0154101 
0.000320265 -0.000707865 0.000611979 
-0.000534798 0.00116778 0.000397312 
-2.89707e-05 8.55468e-05 -0.0021977 
-0.000352954 0.00317813 0.0113064 
-0.00138885 0.000102369 -3.09344e-05 
0.000138338 -0.000697906 0.000849645 
-0.00159846 0.00249704 -0.00180499 
-0.00480684 -0.00592804 0.00470471 
-0.000180632 -5.54095e-06 0.0195638 
0.00125235 -0.00127475 0.0264357 
0.000139013 8.67432e-05 0.0318544 
0.000843193 -0.000906256 0.0241224 
0.00181305 -0.00305727 0 
0.0146832 0.00443861 0 
0.00243705 0.00771182 0 
-0.00745153 -0.0503988 -0.000205716 
-0.000166493 5.37738e-07 0.0244882 
0.00015028 -1.39203e-05 0.0190095 
-0.000118226 -0.000237471 0.000438284 
0.00076899 0.0009805 0.0233068 
6.87845e-05 0.000195791 0.000356063 
-3.98539e-05 -8.06813e-06 0.0179579 
1.87561e-05 2.4701e-05 -0.000230887 
-3.41428e-05 -8.2773e-05 -1.19606e-05 
-0.000108294 -0.00106185 -0.000109742 
6.39363e-05 0.00114005 -0.000635116 
0.000147705 -0.000377392 0.000787873 
0.000852756 0.00192143 0.00088696 
-0.000109376 6.70802e-05 0.000356868 
0.000138075 -0.000127773 0.0184924 
1.48133e-05 -5.47435e-05 -5.57585e-05 
0.00048361 -0.000247032 0.0245935 
-4.21392e-05 2.14399e-05 0.000118136 
0.000169528 -6.56214e-05 0.000298604 
-8.03102e-05 3.8446e-05 0.000134574 
0.000498672 9.67292e-05 0.0228799 
-0.000154111 5.67111e-06 0.0454278 
-0.000228369 0.000105225 0.0625275 
-9.86556e-06 -0.000478308 0.0604397 
0.00422593 0.00147564 0.0526143 
-0.000384428 3.4309e-05 0.000570539 
1.33771e-05 -4.51866e-06 -0.000973798 
-0.000598195 5.09005e-05 0.000174361 
-0.000411053 -0.00105568 0.0163626 
-2.0195e-06 -0.000298905 0 
-0.000154629 -0.000168592 -3.4461e-05 
5.48697e-05 0.000208793 0 
-7.27867e-05 4.50994e-06 0 
-3.36127e-05 -2.45087e-05 0.0157375 
-0.000250769 -9.11617e-05 0.0227236 
4.76571e-06 2.91295e-05 0.0312436 
0.000122197 0.00102565 0.0239888 
-0.0476882 0.00168282 0 
0.0442679 -0.00489165 0 
-0.0308279 0.0188406 0 
-0.0577595 0.0231264 0.107876 
-4.95148e-05 -0.000230027 -0.000292359 
2.59617e-05 0.00013535 0 
0.00032742 -0.000101639 0 
0.00011247 4.72792e-05 0 
-7.83605e-05 -0.000220192 0 
0.000198729 -0.000240755 0 
1.47991e-05 0.000195475 0 
-0.000454697 -0.000169492 6.03233e-05 
-0.000177612 0.00020149 0.0600757 
-4.47923e-05 0.000422011 0.0757245 
0.00010111 -0.00062121 0.0684517 
0.00464366 -0.00141481 0.0731809 
0.000488354 -0.000531626 0 
-0.000303433 0.000796875 0 
8.08467e-05 0.000683802 0 
0.00137157 -0.00253111 0.000617324 
5.22021e-05 -1.10813e-05 0.0207366 
-3.32337e-05 -2.35296e-06 0.000138406 
-5.76332e-05 -4.08046e-06 9.61935e-05 
2.71702e-06 1.92367e-07 -0.000151194 
-0.000300506 9.75014e-05 2.73397e-06 
-0.000289283 0.00116516 -0.000965867 
-0.000669311 0.000120275 -0.000327409 
-0.00510508 -0.00300851 0.00521291 
0.0155989 -0.00988206 -0.00529923 
0.017885 0.00267136 -0.0273235 
0.00997935 -0.0332729 0.00868198 
-0.0325535 -0.0403598 0.076734 
-5.50345e-05 -3.36459e-05 -0.000186157 
0.000377272 -0.000167266 0 
-0.000205665 2.64293e-05 0 
0.000314039 8.79061e-05 0 
0.000281722 4.01691e-05 0.0329633 
1.89715e-05 -0.000116196 0.0478204 
-0.000360113 -1.82414e-05 0.0272341 
-0.000704693 -0.00106787 0.0253521 
-0.00015949 -7.09001e-05 0.000116586 
1.40728e-05 -3.56525e-05 0.0184882 
6.46263e-06 -2.9543e-05 -9.35915e-05 
6.72689e-06 -1.88712e-05 0.0198045 
0.000823429 0.000438938 0.00155935 
-0.000519431 -0.0002965 -0.0017541 
-0.000389036 -0.000197859 -0.000362668 
0.00364443 0.000684129 0.00385977 
-0.000209378 -8.86628e-05 0.000155595 
-0.000408505 -0.000203529 -4.28256e-05 
0.000368183 0.000145632 0.000160766 
-0.000465335 -0.000181742 -0.00030116 
0.0002503 0.000101517 -3.09728e-06 
0.000414746 0.000154718 -0.000575505 
-0.000271793 -0.000106774 0.000149628 
0.000244307 0.000636389 -7.29383e-05 
-3.60757e-06 -6.42797e-05 0.000100031 
-1.16056e-05 -0.000154646 -4.18263e-06 
-3.08915e-06 -6.55277e-05 0.000151208 
0.000438271 -0.000172205 0.0245764 
0.000248402 5.67966e-05 0.000118152 
-0.000358626 -7.55937e-05 0.000140919 
0.000289785 5.38388e-05 -0.000466141 
0.000414879 0.000377582 -0.000288286 
-0.00017883 -0.000109026 0 
-9.63983e-05 0.000103678 0 
0.000410617 5.63134e-05 0 
0.000327087 0.000109584 -0.000153838 
0.000109583 -0.000250187 0.000544031 
4.59954e-05 -7.92243e-05 -0.000565741 
-0.000130122 0.000260591 0.000477654 
-0.000364995 -0.00104932 0.0199559 
-9.85932e-05 2.04731e-05 -3.39025e-05 
0.000135513 -0.000102187 0.014807 
-0.00013307 2.98698e-05 0.000173929 
0.000444478 -0.000712912 0.0240094 
-9.5163e-05 -6.50013e-05 -0.00116925 
3.34865e-05 2.2889e-05 0.000479779 
-0.000464416 -0.00031585 0.000169195 
-0.000967421 0.000373435 0.0222594 
-6.58298e-05 0.000240404 0.0242071 
0.000264543 3.45534e-06 0.0458262 
-5.94142e-05 -0.000360453 0.0391558 
0.0011589 -0.000208683 0.0247006 
0.0001622 2.82205e-05 0.0713465 
5.77308e-05 3.51295e-05 0.054641 
-0.000474875 -0.00039529 0.0644181 
-0.00473305 0.00240583 0.0693678 
1.45433e-05 -4.55166e-05 -0.000207132 
-0.000223744 0.00078918 0.00113632 
5.07111e-05 -0.000187589 -5.64088e-05 
-0.000903786 -0.00430844 0.0145143 
5.15613e-05 -8.45201e-05 0.00052675 
7.82341e-05 -0.000118703 0.000259385 
4.15972e-05 -5.91785e-05 -8.48276e-05 
-0.000808196 -0.000338508 0.0207744 
0.00123022 0.000689284 0 
0.000424168 1.24781e-05 0 
0.000549655 -0.000531334 0 
8.54764e-05 -0.0024988 0.00109922 
0.000246306 -2.30437e-05 0 
-0.000250591 0.000270097 0 
0.000385442 -0.000353544 0 
-0.00352655 -0.00153083 0.000916114 
0.00308344 -0.00129682 0 
0.000214263 0.00100332 0 
0.00139266 -0.0013902 0 
-0.00409848 0.0078118 0.00074612 
0.000639684 -0.000543034 0 
0.000250198 -0.000540032 0 
-6.00206e-05 -0.000820466 0 
0.000479327 0.00353561 -0.000244176 
-9.01821e-05 -0.00018303 0.000293305 
-4.39904e-05 0.000154644 0.0155665 
2.72766e-05 -1.86608e-05 6.96389e-06 
3.65594e-05 0.00055397 0.0238996 
0.000305396 7.33091e-05 0.000362256 
-0.000355552 -7.46574e-05 0.0272319 
1.03629e-05 0.000122059 6.81392e-05 
-0.000584137 -0.00083008 0.0253788 
0.00917179 0.00372704 0 
-0.0172176 0.00207977 0 
0.00319808 -0.00291621 0 
-0.0244588 -0.0135573 0.0170768 
-0.000157712 -6.16536e-05 0.0197341 
2.86716e-05 9.46718e-05 0.0167017 
0.000134557 -0.000165734 0.0357119 
0.0013313 -0.001015 0.0262525 
-2.45093e-05 -3.90506e-05 -0.000224277 
3.30538e-05 3.31193e-05 0.0151881 
3.8691e-05 0.000101209 -9.82653e-05 
-7.55913e-05 -0.000218371 0.00042793 
7.00707e-05 0.000127509 -0.000503351 
3.75174e-05 0.000132681 0.000640959 
-9.35612e-05 -0.000203136 0.000207306 
0.00077754 -0.000945246 0.0261253 
-6.17035e-05 -0.000185821 0.000360426 
-0.000197676 -0.000164561 0.000166725 
6.34395e-05 0.000210444 0.0245753 
0.000753289 0.00014253 0.0249925 
0.000122305 -0.000173551 0.00049979 
0.0002861 -0.000391597 -0.000333454 
2.74442e-05 -2.90182e-05 -0.000924838 
-0.00100309 -0.000594575 0.019354 
-6.29098e-05 -0.000103268 0.0247329 
0.000565622 0.00111669 0.0232694 
7.83452e-07 -0.000175855 0.000208377 
0.000679343 0.000912816 0.0237974 
-1.00363e-05 -5.4143e-05 -5.29819e-05 
1.34982e-05 3.77231e-07 0.0165271 
-7.97851e-06 7.79959e-06 0.0202353 
0.000160148 -0.000107539 0.000188149 
-9.38453e-05 1.2585e-05 0.0188389 
-0.000443522 5.42688e-05 0.0246934 
0.00027198 0.000248537 0.0406404 
0.00127171 0.000900878 0.0232359 
-6.61556e-05 -0.000170013 0.000226292 
-2.16544e-05 -1.95219e-05 -0.000436609 
-9.55628e-05 -0.00026468 0.000596783 
-0.000118625 0.00130014 0.0259228 
0.0019385 0.000832764 -0.0146347 
-0.0455269 0.00470588 0.0474574 
-0.0269576 0.006269 0.00162467 
-0.0125967 0.00180813 0.0240872 
-0.000330317 0.000185444 0.0362808 
0.000543011 0.000102235 0.043896 
8.23036e-05 -0.000133177 0.0232677 
0.00124685 0.00107561 0.0274536 
0.000501112 0.000204541 0 
-0.000538611 -0.000383985 0 
-1.20524e-05 0.000295155 -0.000742554 
-0.000924701 -0.000186939 0 
6.47434e-06 2.09116e-05 0.000173949 
-7.03173e-06 -2.48533e-05 -0.000144619 
-2.37293e-05 -0.000128887 0.000443347 
-0.000447532 0.000910602 0.0224708 
-0.0426234 -0.01167 0.274276 
-0.0335179 -0.00882596 0.188982 
0.0450107 -0.00435797 0.189674 
0.119955 0.0548191 0.0610937 
-0.000255465 9.84691e-05 0.000535774 
-7.82679e-05 3.53898e-05 -0.000346023 
0.000169573 -6.34665e-05 -0.000540808 
0.000965015 0.000303644 0.0224747 
0.00033297 -0.000264861 0 
-0.00038641 4.61447e-05 0 
0.000388501 -0.000241701 6.29408e-05 
0.00037207 -2.39752e-05 0 
2.54586e-05 -1.55899e-05 -0.000294364 
0.000115297 -5.68037e-05 -0.000386627 
0.00021026 -8.27326e-05 0.000725453 
-0.00155605 -0.000261586 0.0253411 
-0.000106782 0.000103375 0.0337538 
0.000126653 -2.38761e-05 0.0183597 
-8.58062e-05 -0.000180905 0.0324622 
-0.000945077 -0.000774591 0.0238536 
8.78189e-05 -0.000226931 -0.000400554 
0.000345258 -0.000108335 -9.91002e-05 
-4.69783e-05 0.000113737 8.95864e-05 
4.61722e-05 -0.000105978 6.49001e-06 
3.25215e-05 -0.000191126 0.0185025 
9.61077e-06 0.000138495 0.000224782 
-4.60777e-06 -6.63999e-05 8.58525e-05 
3.31483e-06 4.7768e-05 -0.000120964 
0.000100802 -8.22334e-06 0.000118149 
0.000818598 -6.67806e-05 0.000167314 
0.0004639 -3.78446e-05 -0.00251597 
-0.000726134 0.00325628 0.0143475 
-0.000224785 8.0296e-05 0.0191009 
0.000200258 0.000119052 0.0386987 
-0.000250802 -0.000151178 0.0320736 
0.00160281 -0.00115591 0.0266497 
0.000576169 -0.000344986 0 
-0.000369941 0.0011867 0 
0.000119671 -0.000412915 0 
0.00146281 0.00106661 0.000897195 
4.37772e-05 -3.09949e-06 -5.83875e-05 
-2.12842e-05 1.50695e-06 5.09212e-05 
-1.65743e-05 1.17348e-06 6.43582e-05 
1.90117e-05 5.24909e-05 0.0181434 
3.4766e-05 -0.00012867 -0.000377319 
-9.09108e-05 0.000411984 -0.000399025 
-1.80891e-05 -4.18592e-07 0.0014324 
-0.00100784 -0.00277046 0.00114387 
5.87856e-06 -1.09092e-05 0.0348438 
6.03993e-05 0.000153396 0.0229489 
5.22722e-05 -4.6864e-05 0.0176493 
-0.00121075 0.000973673 0.0263844 
0.0199655 0.00839953 0.219555 
0.0342675 -0.0719116 0.136317 
0.022077 -0.0343551 0.113317 
-0.0739725 -0.0316836 -0.0917224 
-2.23049e-05 2.26557e-05 0.0180077 
-5.13174e-05 5.99996e-05 -0.000162987 
2.12576e-05 -2.03071e-05 0.0214488 
0.00015348 0.000116451 0.000212076 
-0.000938995 0.00377004 -0.00675216 
-0.000483818 -0.0286379 0.0197842 
0.000211304 -0.00278231 0.00084725 
0.00126178 -0.00838348 0.00938106 
-0.0174668 0.00540554 0 
0.0298095 -0.0186228 0 
-0.0107138 0.0223362 0 
-0.0308827 0.0456494 0.0441441 
0.00755174 -0.048558 0.257317 
0.00829223 -0.000537439 0.286653 
-0.0362184 -0.0241746 0.270346 
-0.0110676 0.0364989 0.234506 
0.000170652 -1.27215e-05 -2.87132e-06 
1.19038e-05 2.62869e-06 -0.000359593 
-5.51939e-05 1.42859e-07 0.00040689 
-0.000516369 -0.000321749 0.0251626 
7.19985e-05 -0.00012872 2.8293e-05 
-4.97705e-06 0.000207601 0.0245827 
-1.6877e-05 -0.000243214 0.000231525 
0.000576752 0.000760541 0.0232462 
-0.000264736 -0.000115943 0.000865902 
-0.000714507 -0.000345885 -0.000332104 
9.43668e-05 3.38216e-05 -0.000916553 
-0.00391562 -0.000216915 0.0117159 
7.90566e-05 9.06884e-05 -0.000568196 
-0.000288301 -0.000377448 6.55429e-05 
3.67484e-06 1.37076e-05 0.000381182 
-0.000241073 -0.000655154 0.000624669 
-0.000144801 0.000280698 0.0443289 
7.37443e-05 5.14377e-05 0.0621261 
7.7635e-05 -0.000104752 0.0460134 
0.00373832 0.00164581 0.0521852 
0.00183634 -0.00251295 0 
0.000168298 0.00682506 0 
0.00194222 0.00513155 0 
0.000620349 -0.0111282 -0.000723989 
0.00399364 0.00341744 -0.000517474 
0.002601 0.00766415 -0.00356755 
-0.00285974 -0.0187054 0.00990728 
-0.00346866 -0.00699007 0.000669577 
-0.00171811 -0.00143941 0 
0.00167914 -0.000903165 0 
0.000951286 0.00208196 0 
-0.00997853 -0.0046301 0.00297278 
1.81827e-05 0.000805298 0 
-0.000521736 -0.000658502 0 
0.00050833 -0.000379621 0 
-0.00216301 0.00403639 0.000691129 
1.82171e-05 -8.58624e-05 0.000163217 
3.43692e-05 -0.000165004 0.000395771 
-1.65557e-05 8.05669e-05 -0.000222268 
0.000585042 0.00066721 0.0277748 
-5.40592e-05 -9.92122e-05 -0.000291358 
5.73355e-06 2.35603e-05 0.00023521 
8.5806e-05 0.000136782 0.000138183 
0.000741971 0.00136897 0.00127116 
-0.006416 -0.078355 0 
0.00851767 -0.0540002 0 
-0.0150056 0.0726793 0 
0.00428049 -0.100509 0.194813 
0.0225624 -0.00287641 0.122481 
0.00808877 0.00183059 0.212165 
-0.00609504 -0.0128369 0.158863 
0.043821 0.120735 0.109006 
4.60052e-05 5.30492e-05 0.0251914 
3.1818e-05 -3.4642e-05 -7.53732e-05 
-6.28063e-05 -4.92511e-05 0.0157159 
0.000106172 -4.67998e-05 8.80316e-05 
1.01438e-05 -9.11479e-06 -0.00043704 
6.42964e-05 2.57976e-06 0.00133041 
0.000305811 -0.000104145 -0.00158172 
0.00413178 0.0018927 0.0159668 
-0.00016145 0.000108052 0.0173517 
0.000208973 5.35522e-06 0.00031797 
2.76213e-06 -0.000180972 0.000224535 
-0.000500949 0.000651064 0.0252033 
-5.00793e-05 0.000491071 0 
9.78079e-05 0.0002784 0 
-0.00027969 -0.000126427 0 
-0.000771354 -0.000810385 -5.19619e-05 
-0.000233045 0.000413539 -7.15789e-05 
-0.000145079 0.000464327 0 
0.000278935 -0.000208171 0 
-0.000523181 0.000189072 0 
-1.984e-05 6.28301e-05 0.0499263 
3.67252e-05 -6.15093e-05 0.0395063 
-0.000214487 0.000268466 0.0318688 
0.00272795 -0.00227096 0.0484806 
0.000115637 0.000432823 0 
-0.000374691 0.00218271 0 
-0.000227179 -0.000488262 0 
0.00138566 0.000501116 0.00185914 
0.00218046 0.00662195 -0.0104632 
-0.00468747 -0.0200997 0.0241845 
-0.00266421 -0.00447932 0.000627724 
-0.00439182 -0.00904124 0.00640777 
-2.63953e-05 -0.000314649 0.000666429 
1.91774e-05 0.000228607 -0.000655206 
5.14468e-05 0.000613278 -0.00233233 
-0.00328332 -0.000788155 0.0156006 
0.010831 0.0168998 0 
0.0023413 0.00438618 0 
-0.00933877 -0.0140564 0 
9.46407e-05 -0.0742523 0.0316582 
-0.00963694 -0.0151898 0 
0.00531014 0.00301764 0 
0.00961941 0.0122942 0 
0.00233193 -0.0657961 0.0251294 
5.5901e-06 -1.23132e-07 0.000236075 
1.324e-05 0.000107928 -0.000617799 
-0.000107022 -0.000439557 0.000286363 
0.000551821 -0.00080951 0.0262678 
-6.70742e-05 -0.000106247 0.000218094 
1.88706e-05 2.47214e-05 5.68723e-05 
9.72844e-06 8.75395e-06 0.000120584 
6.33946e-05 -0.000502643 0.0238691 
-8.37826e-06 -5.04371e-06 -0.00047626 
-5.50316e-05 -0.000217745 0.000174528 
1.87867e-05 6.32658e-05 0.000138424 
-0.000365688 0.00106073 0.0219601 
-9.9218e-05 0.000287886 0.0245888 
7.00599e-05 -0.000170432 0.0184956 
-0.000192442 -5.9401e-05 0.000487023 
0.000892087 -7.21741e-05 0.0247129 
-0.000519246 0.000229085 0.00051161 
-0.00051443 0.000250731 -0.000175188 
-0.000220288 0.000129576 -0.000712264 
0.00395934 -0.000691719 0.018156 
-5.59197e-05 -1.57326e-05 -0.000870402 
0.000178514 2.1313e-05 0.000594344 
0.000281962 2.93026e-05 0.000609266 
0.00213804 -0.00125195 0.00388618 
4.09781e-05 0.000590313 0.000967263 
3.48537e-05 0.000117634 -0.00183759 
2.08571e-05 0.000209763 -0.000135259 
0.00199261 -0.0051087 0.0151129 
-0.00143338 0.0023906 0 
-0.00244169 0.00491621 0 
-9.29005e-05 -3.08127e-05 0 
0.00469656 -0.00286909 -0.00283631 
-0.000855732 -0.00410809 0 
0.00142165 -0.00233851 0 
-0.000839264 1.38946e-05 0 
-0.0129217 0.00373653 0.000536376 
-2.42454e-05 1.35537e-05 0.0215618 
-7.27697e-05 1.62395e-05 0.0206823 
0.000116486 -1.0748e-05 -2.75135e-05 
7.37355e-05 6.9325e-05 0.00020299 
-9.66332e-05 -6.70528e-06 -0.000853215 
0.000260222 1.80566e-05 0.000619892 
-0.000871684 -6.04853e-05 -0.00101268 
0.00274576 -0.00125066 0.00361737 
-8.71902e-05 -0.000129799 0.00017292 
1.24154e-05 2.4403e-05 -0.000396578 
-0.00021344 -0.000315739 0.0002972 
0.000511814 -0.000211704 0.0237206 
0.000281754 -8.5173e-06 0.0272213 
-5.78761e-05 -5.77411e-05 0.0315321 
-4.50865e-05 9.59939e-05 0.0174858 
-0.00147666 -0.00135756 0.0266658 
-2.75321e-05 -8.22705e-06 0.0219127 
0.000182558 6.72952e-05 7.89397e-05 
-4.13856e-05 5.90334e-05 -3.66265e-05 
5.66391e-05 -4.11676e-06 0.0222017 
4.72159e-05 2.40349e-05 0.00112039 
0.00077784 0.000166036 -0.000742181 
0.00061449 0.000130182 -0.000668612 
-0.00578808 0.00127722 0.00507225 
0.00318613 0.0038847 -0.000944025 
0.00251017 0.0026142 0.00059683 
-0.00215388 -0.00608344 0.00203317 
-0.00433274 -0.00721165 -0.000315057 
6.35629e-05 -0.00064798 0 
-0.000157426 -0.000295032 0 
-0.000183112 5.00764e-05 0 
0.00114927 0.00265187 0.000371659 
1.75798e-06 -1.12434e-05 8.24971e-05 
4.70511e-05 -0.00013455 0.000256232 
-5.58071e-05 0.000123213 0.00012282 
-0.000269794 -0.000390585 0.0236647 
-0.0783981 -0.0109905 0.102937 
0.0217509 -0.0477359 0.0263171 
-0.0347573 -0.000281625 0.0234492 
-0.0224384 -0.049255 0.128912 
0.000137426 -2.69628e-05 0.000180596 
-1.53966e-05 -2.3172e-06 0.0250024 
3.94933e-05 -9.69691e-06 -4.38775e-05 
-0.000100789 2.32331e-05 3.75561e-05 
-0.000580608 -0.000640587 0 
0.000109969 0.000488411 0 
2.48644e-05 0.000817429 0 
-0.00326158 0.00201154 0.000398583 
0.0011436 -0.000197945 0 
-0.00107759 0.000937346 0 
-0.0011836 -0.000959134 0 
0.00215514 -6.86941e-06 0.000637919 
-0.000716782 0.000491611 0.000235424 
0.0049682 -0.00401854 0.0148688 
-0.00294706 -0.00232539 -0.00235177 
0.00712387 -0.00109667 0.0106261 
-1.98542e-05 0.000249224 0 
0.000361324 -0.0003871 0 
0.000884738 -0.000168011 0 
0.000341448 -0.000754418 -0.000366479 
4.90736e-05 0.00069947 0.000240601 
-2.38245e-05 -0.000339583 -0.000562058 
-5.4968e-05 -0.000783487 -0.00112579 
-0.000305304 0.00159665 0.00208863 
4.71238e-08 0.000160393 -0.00122967 
-9.04845e-05 0.00134037 -0.000986998 
-4.53527e-05 0.00042346 0.00140192 
0.00348993 -0.00237928 0.00598415 
0.0109749 -0.00192953 0.20884 
-0.0546535 0.00527062 0.171644 
-0.0285542 0.0163747 0.0976453 
-0.0416212 0.0642773 -0.0620794 
-3.38322e-05 -0.0027027 0 
-0.000164409 -0.00237803 0 
0.00039034 0.00168872 0 
0.00039605 -0.00268818 -7.97436e-06 
1.89418e-05 3.05336e-05 0.0164442 
1.22637e-05 -4.77951e-05 -9.41836e-05 
-4.89011e-06 4.30867e-05 -0.000217673 
1.66574e-05 -0.000110569 0.00035697 
-0.00020144 -3.95184e-05 -0.000162146 
4.30137e-05 -4.02627e-05 -6.41155e-06 
2.57393e-05 0.000305615 0.000180319 
-0.000264149 -0.000590014 -0.000321169 
0.000289583 0.000654304 0.0779299 
-0.000380425 0.000222566 0.0644811 
-0.000101145 -0.000419099 0.0651945 
-0.00386769 -0.00149175 0.0739788 
-3.39569e-05 -2.69896e-05 -0.00039194 
-0.000214295 -0.000139884 0.000356092 
-0.000181795 -0.000117281 0.000431109 
0.00121718 -9.5351e-05 0.0254915 
-0.000154726 0.000370609 -0.00020219 
0.00010401 -0.000250052 0.000150912 
-0.000248571 0.000389866 3.85051e-05 
-0.000128614 0.000306406 -0.000141086 
0.000294283 0.000206458 -0.000979164 
-0.000342135 -0.000240128 0.000925098 
0.000435174 0.000305945 -6.19141e-05 
0.00185346 0.000135608 0.00316574 
0.0127872 -0.00767664 0 
0.0162317 -0.000810019 0 
-0.0118577 -0.0105035 0 
-0.0389967 -0.0220509 0.025945 
-0.000387701 0.000106191 0.0355376 
4.49937e-05 0.000162225 0.0359956 
7.58969e-06 -0.00015825 0.0516745 
0.0023678 -0.00302996 0.0478864 
-0.00376859 0.000257903 -0.000123257 
0.00501371 -0.00063143 -0.00503718 
-0.00961815 -0.000183927 0.00549077 
-0.00711888 -0.00377162 0.0112309 
-0.0362472 0.0188442 0 
0.0509661 -0.00346931 0 
-0.0405339 -0.00445487 0 
0.104912 0.0875367 0.0993459 
-0.000247423 0.000229684 0 
-0.00013463 5.50066e-05 0 
-9.71593e-05 0.000283969 0 
9.80504e-05 0.000668531 3.38419e-05 
-0.000173488 6.89084e-05 0.0478218 
0.000133594 -6.00384e-05 0.0319359 
0.000270355 -0.000239585 0.0384388 
-0.00258285 -0.00193846 0.0402735 
2.87341e-05 6.19423e-06 -4.99788e-05 
-9.61247e-07 1.97555e-06 0.000220072 
-0.00020452 -4.37218e-05 0.000392421 
0.000698334 -0.000359568 0.0267674 
-0.00267798 0.0387318 0 
-0.00667307 -0.0472773 0 
0.0221058 0.0373569 0 
0.0179808 0.0674816 0.0971898 
-0.000418716 -0.000462724 0 
-0.00382484 0.00202577 0 
-9.89509e-06 -5.47025e-05 0 
-0.00108879 -0.00312937 -0.00200702 
-3.31415e-05 -0.000153506 0.021783 
-1.62517e-05 3.17517e-06 0.034849 
3.30641e-06 -1.3681e-05 0.0175699 
-0.00111572 0.000911697 0.0264296 
0.000343406 -0.000330392 0 
-0.000990044 0.000677378 0 
-4.05673e-05 -0.000585398 0 
-0.00287689 -0.00186933 0.00126463 
1.44476e-05 2.65615e-05 0.000959311 
-1.39828e-05 -7.06774e-05 -0.000667523 
5.62889e-05 0.000706786 0.000237083 
-0.000846861 0.00077282 0.00245951 
-8.71277e-06 -3.02666e-05 -0.000105128 
-1.92972e-05 -0.0001232 0.000375295 
-5.26069e-05 3.54445e-05 0.019612 
1.11993e-06 2.21511e-05 -0.000184209 
-0.000215887 2.06388e-05 7.76331e-05 
0.00013234 -2.30712e-05 -0.000845865 
-0.000107337 1.94453e-05 0.000742218 
0.00162303 0.000906493 0.021976 
7.22613e-05 1.13961e-05 0.000236189 
8.70019e-05 2.23e-05 -0.00013018 
-1.59372e-05 2.80611e-06 0.0215916 
-7.02686e-05 -1.58602e-05 1.21506e-06 
3.62206e-05 -0.000159639 3.10632e-05 
0.000342338 -0.000203345 -0.000268869 
-4.75534e-05 0.000227785 0.000158635 
3.74353e-05 -0.000204253 -0.000398133 
0.00757414 -0.0370186 0.273343 
0.0577822 -0.00914214 0.263234 
0.00903384 0.0185781 0.268544 
-0.0118714 0.00855943 0.243212 
-0.00896179 0.00821713 0.0631757 
-0.00417479 -0.0100227 0.184333 
-0.00291075 -0.00721797 0.170131 
-0.090532 0.0140912 0.110077 
1.36343e-05 5.53063e-05 -7.85054e-05 
1.64571e-05 9.93306e-05 0.000257941 
2.16746e-05 -6.28023e-05 0.0217456 
-1.66181e-05 -8.53243e-05 -9.82869e-05 
0.0536625 0.00971236 0.116351 
0.0227921 0.035264 0.233501 
0.0108734 0.0699501 0.082477 
0.0461893 -0.00900388 0.0472957 
-0.000234236 0.000689504 0 
-0.001908 0.00199213 0 
-0.000879713 -0.000454633 0 
-0.00122271 -0.00307829 -0.00119493 
0.000163427 0.000308065 0.0819151 
-0.000595041 -0.00029282 0.0776869 
0.000126661 0.000125533 0.0693141 
0.00203802 -0.00376332 0.077366 
-0.000358703 -8.90531e-05 0.001043 
-4.83535e-05 -1.39801e-05 -0.000305149 
-0.000415752 -0.00010814 9.8039e-05 
0.00278518 -0.000388956 0.0213499 
-0.0674226 0.0287964 0 
0.0548405 -0.0314425 0 
-0.0312942 -0.021328 0 
-0.102223 0.0825926 0.199667 
5.82964e-05 -4.09023e-06 5.00876e-05 
-4.11391e-05 2.88643e-06 4.79383e-05 
-4.99628e-05 -4.22183e-05 0.01584 
-6.87726e-05 4.82527e-06 -5.44504e-05 
-5.38084e-05 -0.000551227 0.000948501 
-4.45931e-05 -0.000820981 -0.00132685 
-2.26271e-05 -0.000407691 -0.000621705 
0.00263771 -0.000366818 0.00540332 
-1.03417e-05 0.000228494 -0.000364778 
4.75551e-05 -0.000240248 0.000318211 
7.43402e-05 -0.000291217 -0.00042104 
-0.00010301 0.000465231 -8.84619e-05 
0.000472636 3.94946e-05 -0.000785957 
-0.000343186 -2.86775e-05 -0.000157703 
0.0001027 8.58188e-06 0.000225701 
-0.000912057 0.0016103 0.0123083 
6.32545e-05 -8.02479e-05 0.0174282 
-0.000169347 0.000188109 0.03731 
0.000208052 0.000100721 0.0204423 
-0.00123196 0.000840005 0.0233483 
0.000237294 0.000398232 -0.000522646 
-0.000189525 -0.000322918 0.000265744 
1.31464e-05 1.12688e-05 -0.000366323 
-0.000456722 -0.00142132 0.000760465 
-8.96677e-05 1.42503e-05 -1.97188e-05 
-0.000114396 -5.94656e-05 0.000190286 
-1.18704e-05 -8.3098e-06 0.0175614 
5.51873e-05 -1.61391e-05 0.0223711 
-0.0001751 8.20801e-05 0.0540058 
0.000375262 -4.03063e-05 0.0444084 
0.00016265 -0.000197102 0.035303 
-0.00166428 0.00308985 0.0476367 
8.02295e-05 -0.000210518 -0.000294174 
0.000409756 -0.000201927 -2.94264e-05 
-0.000440819 -5.52639e-05 -0.000357346 
0.00128209 0.00138179 0.00134234 
-0.000156307 4.59035e-06 0.0352856 
0.000285585 7.48445e-05 0.0226596 
6.15576e-05 -6.1526e-05 0.0172031 
-0.000847045 0.000969271 0.0250808 
-3.85014e-05 1.08932e-05 0.000558585 
4.60498e-05 -2.02194e-05 5.51458e-05 
-0.000114167 5.26444e-05 -0.000389819 
-0.000877342 -0.000377463 0.0257804 
0.000754573 -0.000397713 0 
-0.00065737 -0.000160834 0 
-0.00104782 0.000996475 0 
0.00326375 8.70638e-05 0.000667837 
-0.000249533 0.000403325 -0.000914556 
-0.000131608 0.000230957 6.32654e-05 
0.000205357 -0.000358645 -4.68414e-05 
0.000735215 -0.00215396 0.00210316 
0.000122795 -0.000569189 -0.000979948 
0.000128569 -0.000586045 -0.000795277 
0.000139058 -0.000537658 0.00138069 
0.00182027 0.00580202 0.00526676 
-0.0206862 0.00158787 0.0468801 
-0.0340114 0.015386 0.0532391 
-0.0127749 -0.0011861 0.00323997 
-0.00634027 -0.0219642 0.00622926 
-0.0338106 -0.0168321 0.15699 
0.0143262 0.000596153 0.206606 
-0.0409745 -0.0742647 -0.0327016 
0.0123595 -0.0345361 0.161653 
-3.61515e-05 -0.000228178 -0.000723677 
-0.000161419 -0.000726786 -2.66097e-05 
0.000106918 0.000488652 9.72513e-05 
-0.000516275 -0.000603279 -2.57539e-07 
-5.47626e-05 -0.00026257 0.00018463 
3.77947e-05 0.000245366 -0.00083138 
-4.67421e-05 -0.000238362 0.000313933 
2.56036e-05 5.25864e-05 -0.000234171 
0.00845635 -0.0100522 0 
0.00225873 0.00166208 0 
-0.000819056 -0.0164306 0 
-0.00816675 0.06832 0.0106634 
8.23624e-05 -2.59549e-05 0.00161059 
-1.50345e-06 6.94115e-06 -0.00055479 
0.000692816 -4.5822e-05 -0.000465937 
0.00121456 0.00132594 0.00233881 
-3.6091e-05 5.1881e-05 0.0185219 
3.204e-05 -1.91402e-05 0.0246602 
-2.13573e-05 4.50444e-05 -1.65418e-05 
-7.69026e-05 9.86874e-05 0.000135148 
-0.0255316 0.0218793 0.0561408 
-0.0133136 0.0234409 -0.0393996 
-0.0177905 0.0478251 0.0805241 
-0.0366432 0.0131184 0.117929 
-0.000644387 0.000515663 0 
0.000498871 0.00119083 0 
-0.00101434 0.000138302 0 
0.00132731 0.000797835 0.00100203 
-0.000437887 3.01133e-05 -0.000405713 
3.45111e-05 -2.37332e-06 -0.00016412 
-4.0258e-05 2.76853e-06 -0.000537829 
0.00137109 0.000204167 0.00213388 
0.000979575 -0.00217393 0 
0.00164781 0.00123509 0 
-0.00108202 0.000739859 0 
-0.0165024 -0.00335045 -0.000880597 
0.000747943 0.000235659 0 
0.000287333 0.00163006 0 
-0.000546625 0.00119701 0 
0.00165802 -0.00373905 -0.00055133 
-0.00119685 -0.000797242 0.0234546 
-0.00272028 -0.00224316 0.0395492 
-0.00501292 -0.00368146 0.0364046 
-0.00152054 -0.00191548 0.0199344 
-0.000327403 6.92741e-05 0 
0.000251292 1.38115e-05 0 
-3.85743e-05 7.0969e-05 0 
-0.000462606 -0.000303423 -0.000196363 
-3.40792e-05 -0.000123434 -0.000105662 
0.000166329 0.000585999 0.000895116 
-9.35301e-05 -0.000366182 0.000342819 
0.000611347 -0.00465403 0.0130777 
0.0215471 0.00541824 0.141112 
-0.00822236 -0.00582548 0.17349 
0.00679837 0.0227116 0.0735738 
0.0425016 0.0915811 0.0391994 
-0.000792239 -0.00647258 0.0059499 
-0.00312797 -0.0118907 0.0118954 
0.00260582 0.00178307 -0.00587814 
-0.0027082 -0.00470316 0.00356877 
-0.000406675 -0.00149197 0 
-0.000740829 0.000519969 0 
0.000420271 0.000486137 0 
0.00639389 0.00108155 0.000374301 
0.00311206 0.009879 0 
-0.0208236 0.00594238 0 
0.0101122 0.00552433 0 
-0.0565561 0.000933797 0.0360938 
3.21267e-05 -6.23116e-05 0.0174473 
-5.44054e-05 0.000142513 0.036002 
0.000172452 -0.000248977 0.0236287 
0.00103921 0.00115437 0.0274571 
-8.90075e-05 7.47731e-05 5.01498e-05 
0.000169812 -0.000130003 0.000271834 
-0.000171129 2.66445e-05 0.0214148 
6.1199e-06 -1.31363e-05 -0.000235688 
-0.000160136 6.95203e-05 0.0335431 
-8.03483e-05 3.57804e-05 0.0163183 
0.000102834 -0.000175344 0.0185895 
-0.000908012 -0.000696815 0.0238711 
-0.0117514 0.0255006 0.0423244 
-0.0138574 0.00375921 -0.00492863 
-0.0251002 -0.000581366 0.0537589 
-0.0339969 0.0120752 0.0591866 
0.00931411 0.0278483 0.0804789 
-0.00142723 -0.000259917 0.170895 
-0.0106204 0.0272885 0.0800775 
0.0272377 0.075111 0.0348825 
-8.25357e-05 5.76295e-06 -3.48093e-05 
4.7096e-05 -6.36092e-06 -0.00021706 
-2.56467e-05 6.31686e-06 0.000338195 
0.000141525 0.000400035 0.0239265 
4.94737e-05 -8.55337e-06 -0.000234092 
-0.000116261 2.46651e-05 0.000190561 
0.000171955 -4.28106e-05 0.000216715 
0.00016745 0.000482683 0.0238824 
0.000155495 -0.000127611 0 
0.000223286 -0.000183246 0 
-0.000294773 0.000243208 -4.32631e-05 
-0.000310759 0.000200758 0 
9.97565e-05 0.000580418 0.078438 
8.40538e-05 -0.000259002 0.0650868 
0.000161838 -0.000233349 0.0760045 
-0.00381619 -0.00159927 0.0732788 
-0.000910325 -0.00123183 0 
0.000354975 -0.00323432 0 
-0.000776658 -0.00152151 0 
0.00650244 0.00912348 0.000731232 
-4.52949e-05 1.39182e-05 0.018392 
-7.7085e-06 3.09728e-05 -4.63694e-05 
1.72358e-05 -7.94976e-05 -3.11425e-05 
-1.96253e-05 0.00010405 0.00021354 
6.97372e-06 -6.1053e-05 -8.48086e-05 
-1.01876e-05 4.66936e-05 0.000368381 
4.60066e-06 -0.00010242 0.000301571 
-0.000526069 -0.00090598 0.0184585 
-0.0241775 0.00504767 0.0818554 
-0.0100987 0.0218098 0.0721675 
-0.000857961 -0.00810711 0.191463 
-0.0743506 0.0141793 0.0601882 
4.26606e-05 6.11712e-05 -0.000192901 
-0.000214204 0.000108298 -2.24589e-05 
0.000197624 1.37772e-06 -8.44705e-05 
-0.000490832 -0.000198539 0.000121922 
-6.07429e-05 0.00012489 -0.00020734 
-3.89834e-05 6.72725e-05 0.000104337 
9.32792e-05 -0.000186618 0.000223131 
1.23829e-05 6.75521e-05 0.0236655 
-0.000104978 2.78001e-05 -0.000153169 
0.000262041 -7.28339e-05 0.000252045 
-6.58856e-05 2.30645e-05 0.000116577 
-0.000182934 2.7799e-06 0.0275476 
2.14391e-05 5.45701e-05 0.0249173 
0.000115396 -3.72594e-05 8.97318e-05 
-0.000147549 3.75407e-05 0.000287295 
5.10193e-05 -9.6258e-06 -0.000232878 
0.000743909 -0.000398853 -4.49527e-05 
-0.000466163 0.00024917 0 
-0.000528836 0.000282669 0 
0.00069215 -0.000344408 0 
-5.06727e-05 6.81325e-05 0.000641874 
0.000155852 -0.000273107 -3.18634e-05 
4.27171e-05 -7.54603e-05 9.75855e-06 
0.000216142 -0.00143765 0.00223372 
4.09737e-05 0.000257931 0 
-8.93443e-05 -7.3323e-05 0 
-0.000119556 -9.81172e-05 0 
0.000202995 0.000174374 -0.000260156 
3.49638e-05 2.8694e-05 0 
0.00013952 0.000114501 0 
-7.65238e-05 -0.000107511 0 
-0.000153235 -0.000131357 -0.000187275 
-0.000202078 0.000290125 0.000155999 
-0.000169522 0.000252877 0.000507597 
4.67441e-05 -8.07179e-05 -0.000576111 
6.50707e-05 -0.000894091 0.0200534 
0.000317129 -8.08732e-05 -2.69906e-05 
-0.000420331 -5.56129e-07 0 
0.000262925 -0.000340632 0 
0.000416122 1.83361e-05 0 
0.0130607 0.0290239 0.0880018 
-0.00748361 -0.0123926 0.181198 
0.0104656 0.0544981 0.149731 
0.0491496 0.02731 -0.0562618 
-0.000185843 0.000395265 0 
-0.000282713 7.76017e-05 0.00023265 
0.000227583 -0.000457397 0 
7.5658e-05 -0.000191301 0 
0.000143119 -0.000100686 -0.000147834 
-0.000165996 -0.000145494 0 
0.000435089 -4.77975e-06 0 
-4.16038e-05 -4.72923e-05 0 
-0.000124711 0.000538479 0.0248912 
0.000231062 -0.000280953 0.0385178 
-2.10063e-05 2.57839e-05 0.018272 
0.000999848 -0.000501348 0.02461 
-0.000727928 0.0002518 0 
0.00057352 -0.000370009 0 
0.000797804 0.000686219 0 
0.00150458 -0.000310416 0.000371363 
0.00687103 -0.0473443 0.15609 
0.000934121 0.0468595 0.362154 
0.000514533 -0.0268661 0.136577 
0.00311688 -0.121367 0.0898289 
-9.67221e-05 -1.80029e-05 0.000183303 
9.58694e-05 2.20283e-05 2.04915e-05 
-7.32218e-05 -1.85758e-05 -0.000100274 
-9.9837e-06 1.49736e-06 0.0175662 
0.0118336 0.00489021 0 
-0.00727295 0.00461127 0 
-0.00103011 0.00915348 0 
-0.042594 -0.0236707 0.00866167 
-0.00366 -0.0183721 0.0236862 
-0.00180479 -0.00919827 -0.00863783 
-0.0103182 -0.0168287 0.0247524 
-0.00746322 -0.0334094 0.0332957 
-8.50828e-05 2.25416e-05 0.000272087 
3.03504e-05 -9.15054e-06 -0.000208006 
0.0001705 -3.9638e-05 8.07561e-06 
-0.000518399 -0.000235744 0.0251077 
0.0005457 -0.000124158 -0.000130491 
-0.000653558 -1.55461e-05 -0.000201485 
-0.000561071 0.000126539 6.84644e-05 
-0.000638679 0.000145236 0.00014822 
0.000431834 -0.000108871 0.00139545 
0.000164987 -2.69978e-05 -0.00134238 
-0.000141612 3.23594e-05 -2.8118e-05 
-0.00537945 -0.000595865 0.00592544 
0.00151566 0.026393 0 
-0.011679 -0.0110438 0 
0.00426284 -0.018618 0 
-0.0219023 -0.0668693 0.0448592 
0.000567305 -1.81562e-05 0 
-0.000645411 0.000276769 0 
-0.000587792 -0.000194747 0 
-0.000568267 0.000283503 0.000141026 
0.018595 -0.00956804 0.110869 
0.0358753 -0.0189895 0.143413 
-0.0264856 0.0061015 0.229919 
0.0953668 0.0513086 -0.0112784 
-0.000548418 0.000234766 0 
0.000366314 -0.000195799 0 
0.000348535 -0.000186296 0 
-0.000478478 0.00025471 3.59463e-05 
4.5293e-06 -3.75616e-06 0.000220128 
7.21258e-05 -1.44154e-05 -0.000417481 
-0.000291237 7.02749e-05 0.000643047 
0.00171737 0.000520172 0.0210229 
-0.000106378 0.000152178 -0.000479079 
0.000313583 -0.000458961 6.13369e-05 
0.000465762 -0.000678194 0.000546652 
-0.00108027 0.0029518 0.0100393 
-2.00097e-05 0.000202629 -0.000283002 
-1.89324e-05 0.00019172 2.18629e-05 
-1.45605e-05 0.000147448 0.000406228 
-0.000462809 -0.00144717 0.0182291 
-0.000884359 -0.000297552 0 
0.000887473 -0.000112235 0 
0.000430871 0.000859201 0 
0.000832114 0.00250383 0.000875567 
-0.000161103 -4.14518e-05 0.000280966 
2.23655e-05 1.01081e-05 0.000125882 
0.000101672 7.83848e-06 0.0213864 
9.03599e-05 2.03597e-05 -0.000267047 
-2.2906e-05 0.000245279 0.0357023 
5.90309e-05 1.50207e-05 0.0544712 
-0.000376528 -0.000108929 0.0519553 
0.00267571 -0.00313266 0.0479527 
0.000109656 0.000361488 0 
0.000167637 0.000552624 0 
-0.000202367 -0.000652138 -0.000181012 
-0.0001459 -0.000530828 0 
0.000188485 0.00060331 -0.000218034 
-8.91934e-05 -0.000294031 0 
-0.000128136 -0.000422407 0 
0.000131065 0.00019864 0 
-5.28752e-05 0.000144839 0.000306361 
7.28991e-06 -5.67883e-05 -0.000558196 
-8.40221e-06 2.6945e-05 0.000103744 
-0.000201899 -0.000591872 0.0236291 
3.87739e-05 0.000161128 0.000124169 
5.12651e-05 0.000208303 0.000112696 
-4.69632e-06 -4.65331e-06 0.000146598 
-0.000330686 0.000550585 0.0220361 
-0.00629822 -0.00595927 0 
0.000191937 -0.0116905 0 
0.00316598 0.0174684 0 
-0.00726223 0.0347235 0.0135234 
-0.0399203 0.0194531 0 
0.0291817 0.00580856 0 
0.0134203 0.000343165 0 
0.100169 0.00384129 0.0916027 
0.000218853 -0.000214968 0.0391099 
-0.000218363 -0.00010865 0.0212004 
0.000181119 0.000188082 0.0323191 
0.000854542 -0.000972376 0.0239728 
-4.30144e-05 -6.70911e-05 -5.43583e-05 
9.28355e-06 9.47615e-06 -9.11554e-05 
0.000124871 0.000183709 -6.95527e-05 
-0.000379428 -0.000407848 5.00727e-05 
2.05033e-05 -0.000132881 0.0186301 
-6.30809e-05 0.000132788 0.000289605 
3.20282e-05 -5.61656e-05 7.36154e-05 
-2.14443e-05 2.61783e-05 -0.00027332 
0.000419707 -8.79885e-05 -0.000139922 
-0.000405136 8.93156e-05 -7.99814e-05 
0.000305774 -6.60502e-05 -6.39321e-06 
0.000396291 -4.7816e-05 7.995e-05 
0.000107373 -0.000138343 0.00020597 
-5.96473e-05 6.68148e-05 0.000160905 
3.64004e-05 0.000113879 0.0177023 
-1.98546e-05 3.55835e-05 -0.000312466 
0.000113512 3.08371e-05 0.0329993 
-0.000375686 -5.27024e-06 0.027295 
7.45054e-05 5.45521e-05 0.0179276 
-0.000373167 -0.00105548 0.0252562 
-0.0030788 0.020848 0 
0.00412978 -0.0104813 0 
0.00838732 -0.00560359 0 
0.0149035 0.0495242 0.0260869 
-1.55074e-05 0.000190787 0.000425737 
7.29291e-06 -8.97246e-05 -0.00139212 
-1.17189e-05 0.000144178 0.00120977 
0.00177252 -0.00127616 0.00741026 
0.000189323 4.08964e-05 0.000320917 
-0.00010861 -2.30887e-05 -0.000221384 
0.000121589 2.54373e-05 0.000288896 
-0.000676437 0.000279301 0.0250952 
1.605e-05 0.000191326 0.000629861 
-2.35183e-05 -0.000280353 0.00076595 
-7.5481e-06 -8.99782e-05 -0.000827655 
0.0015162 -0.00128054 0.00642621 
-0.0100622 -0.0185107 0.0247288 
-0.0089305 -0.0183385 0.0138601 
-1.3281e-05 -0.00491696 0.00569563 
0.00311048 -0.00598718 0.00149218 
-0.000243448 -0.000421263 0 
0.000286978 0.000153393 0 
0.00025592 0.000136792 0 
-0.000433199 -0.000239522 -0.000274982 
-0.000167106 -8.93202e-05 0 
-0.000204157 -0.000109124 0 
0.000318205 0.000174162 -0.000140666 
0.000135504 0.000242628 0 
4.45263e-05 3.59194e-05 -0.000169457 
-0.000292538 -0.000179561 -0.000368313 
-7.00463e-05 -6.50669e-05 0.000491353 
0.00273279 0.00106551 0.00200176 
0.000187731 -9.54515e-05 0.0004966 
-0.000181853 9.2302e-05 -0.000954152 
0.000504319 -0.000256876 -1.1218e-05 
0.00205625 -0.000249483 0.0164675 
-5.76433e-05 5.28651e-05 0.0392494 
7.27927e-05 0.000315066 0.0502154 
-5.06073e-05 -0.000136226 0.0545979 
0.00277816 -0.00251565 0.0485987 
6.23395e-05 4.49264e-05 -0.000289918 
6.36231e-05 3.77499e-05 0.000457144 
0.000200039 0.000131854 0.000213731 
-0.00116245 -0.000135241 0.022665 
-0.00193208 0.0117268 0 
-0.00646747 -0.00186974 0 
0.00533479 -0.0112797 0 
0.00647154 -0.0283796 0.0149126 
0.0487112 0.00991568 0 
-0.0446279 -0.00896611 0 
0.0551192 0.00110707 0 
0.0842128 0.0753305 0.128581 
-0.0322731 -0.0118504 0.141716 
0.0546365 -0.00398412 0.410478 
-0.0690225 0.00983268 0.231603 
-0.101093 0.0681819 0.0361395 
-1.52847e-05 -0.000208391 0.000180474 
1.27724e-05 9.22352e-05 0.000127022 
9.61846e-06 0.000125065 -9.29687e-05 
7.94203e-05 -3.15918e-06 0.0222427 
-3.07118e-05 0.000102042 0.0177537 
4.58449e-05 7.61485e-05 0.000182045 
-9.05049e-05 -0.000176165 0.000129461 
2.26689e-05 5.63655e-05 -0.000264043 
0.00141235 -0.00981769 0.191598 
-0.00904632 0.0203238 0.0741675 
-0.00685446 0.0218736 0.146063 
-0.0823689 0.0167716 0.0693496 
2.08113e-05 -0.000241832 -0.000581854 
2.00673e-05 -0.000233186 -6.90929e-05 
-1.57756e-06 1.83315e-05 0.000393428 
0.000775025 0.000362532 0.0195567 
-0.00080387 0.000177846 0 
0.000476919 -0.000144672 0 
0.000566383 -0.00017181 0 
-0.000647594 0.000192026 0.000147762 
3.97283e-05 7.43264e-05 0 
4.37057e-05 8.17677e-05 0 
-2.78332e-05 -4.31478e-05 -0.000134536 
-0.000145941 3.24034e-05 0 
-9.87433e-05 -0.000184736 0 
-6.799e-05 -0.0001272 0 
0.000113759 0.000158388 0 
8.7378e-05 0.000158576 -7.38142e-05 
-5.24058e-05 -1.59244e-06 0.0248483 
7.90292e-06 -0.000156008 0.00029813 
-9.83668e-06 8.30322e-05 6.6266e-05 
-8.48605e-07 4.39183e-05 -0.000138905 
9.68907e-05 -4.85639e-05 0.000278308 
2.06737e-05 -1.24487e-05 0.000133226 
1.8552e-05 3.96396e-06 -0.000416069 
0.000407865 1.31416e-05 0.022841 
0.00272888 -0.00993824 0 
-0.00353611 0.00981616 0 
-0.00290648 0.00176488 0 
0.00755232 0.0667989 0.0163706 
0.00164562 -0.00231973 0 
0.00222076 0.00220168 0 
0.00264327 0.00101718 0 
-0.02286 -0.00255708 -0.00386801 
-9.80756e-06 -5.43906e-06 9.33242e-05 
0.0001723 4.41611e-05 0.000306999 
-9.41139e-05 -2.06659e-05 -0.000298581 
-0.000122157 -1.1923e-05 0.0173699 
-0.000353623 -0.000225394 0 
0.000307741 9.33522e-05 0 
0.000275705 8.36341e-05 0 
-0.000377731 -0.00011817 -0.000119457 
-0.000465134 -0.000141097 0 
-0.000209612 -6.35852e-05 0 
0.000344204 0.000117106 -0.000422696 
0.000535889 0.000318253 0 
-6.11495e-05 -5.86869e-05 0.015877 
-7.30399e-06 2.33633e-05 0.0313127 
0.000293079 -6.31191e-05 0.0246402 
0.00015831 0.00100603 0.0237503 
1.604e-05 4.53096e-06 -0.000244355 
7.76714e-05 6.4292e-05 1.55341e-05 
-0.000179172 -0.000136843 0.000288722 
0.000159578 6.05225e-05 0.0167163 
6.29928e-05 -0.000207659 0 
0.000137218 -0.000452348 0 
-0.000168121 0.00049919 0 
-0.000123177 0.000383073 -0.000264088 
5.37282e-05 -6.79454e-05 0.0204802 
-1.04472e-05 0.000192313 0.000286413 
1.00182e-05 -8.78638e-05 4.60056e-05 
-5.50619e-07 -4.40671e-05 -0.000164916 
0.069791 0.0129883 0.125373 
0.095977 0.0132074 0.243003 
-0.0241943 -0.00484627 0.397808 
0.0570224 0.0555492 -0.0331343 
-3.78835e-05 3.61156e-05 -0.000239477 
9.72968e-05 -0.000118556 0 
-1.83465e-05 2.23553e-05 0 
-0.000168261 0.000102557 0 
0.000138404 0.0001085 0.000143956 
-0.00010078 -8.93444e-05 0.000187855 
-0.000105682 2.13755e-05 0.0179526 
-1.92602e-05 -5.59231e-06 -0.000289119 
0.000166263 -0.00024741 0 
-2.62638e-05 8.658e-05 0 
-0.000100882 0.000332563 0 
7.94584e-05 -0.000229705 -0.000389202 
3.24492e-05 -5.13253e-07 0.0148972 
0.000230773 6.52985e-05 0.0320114 
-0.000294928 -0.000233075 0.0215252 
0.000842734 -0.000871515 0.0240801 
-5.88825e-06 4.36683e-05 -0.000246023 
-2.37497e-05 7.05983e-05 7.8033e-05 
4.1038e-05 -0.00016338 0.000284954 
-3.57556e-05 9.09896e-05 0.0182424 
1.71516e-06 2.08993e-06 0 
3.06989e-06 3.74067e-06 0 
7.00996e-06 1.27564e-05 -8.89362e-05 
-7.40445e-05 6.06039e-05 0 
0.000173196 0.000170302 0 
-7.0183e-05 -8.55182e-05 0 
-0.000107191 -0.000130612 0 
0.000120181 0.000147576 2.39427e-05 
-9.85213e-06 3.46253e-06 -0.00016326 
-0.00011895 -1.43746e-05 9.79312e-05 
0.000157791 9.53944e-06 0.000221035 
-3.80762e-05 -2.48756e-05 0.0226062 
-0.000767203 0.000912293 0 
0.000638718 -0.000157193 0 
-0.00198949 0.00391275 0 
0.0036671 -0.000999506 -0.00230581 
0.00122014 -0.000152823 0 
-0.000693571 8.89876e-05 0 
-0.000365854 -0.000952581 0 
-0.00222052 0.0036903 0.000604159 
-0.000127837 9.78258e-05 0.000180787 
0.000161672 -0.000137765 0.000129686 
-4.64573e-05 4.40537e-05 -0.000151197 
1.23934e-05 -1.35638e-05 0.0212844 
-0.0232733 0.00970878 0 
0.023742 -0.0218385 0 
-0.0103283 0.019803 0 
-0.0759313 0.0415344 0.0825347 
-1.62451e-05 2.19311e-05 0.0208245 
-0.000137585 -8.71177e-06 0.000178222 
0.000157545 1.89126e-05 0.000125064 
-1.1643e-05 -4.90725e-06 -0.000138497 
6.53159e-05 -6.99552e-05 0.0149659 
-7.51549e-05 -0.000130961 0.000182465 
7.98486e-05 0.000155857 0.000122428 
6.25981e-06 -3.92734e-06 -0.000295901 
-7.85733e-05 0.000294038 0 
5.19505e-05 -6.33018e-05 0 
9.25891e-05 -0.00011282 0 
-3.49671e-05 4.58977e-05 -6.8879e-05 
-0.000987088 -0.00142291 0 
0.00266187 0.000889723 0 
-0.00173153 0.000200985 0 
-0.000442795 -0.00205849 0.00207176 
-0.00103606 -0.000608866 0 
0.000648725 -0.00149631 0 
-8.11355e-05 0.00246028 0 
0.0012986 -0.00345388 0.00157852 
1.34411e-05 2.29936e-06 -0.000264048 
-0.000167425 8.1728e-05 0.000216124 
0.000104218 -6.06989e-05 0.000139016 
9.83908e-05 -3.4068e-06 0.0191669 
3.44254e-05 5.12993e-05 -0.000161803 
-0.000149119 -0.000191303 0.000166118 
0.000128669 0.000149388 0.000127954 
-7.88816e-06 3.22241e-06 0.022542 
5.91462e-05 -0.000104671 -8.90513e-05 
-5.87078e-07 1.09835e-06 0 
-3.14347e-05 5.88102e-05 0 
9.90234e-05 0.000114465 0 
0.000123589 0.000160514 0.000171646 
-8.63717e-05 -9.59459e-05 0.000160878 
-2.18292e-05 -4.04764e-05 -0.000240104 
-5.00914e-05 -9.54689e-05 0.0215828 
9.47496e-05 -0.000249613 0 
0.00163413 -0.000259567 0 
-0.000199384 0.000391128 0 
0.000945212 -0.000954486 3.55837e-05 
-2.22574e-05 -0.000729121 0 
0.000706878 0.000812611 0 
-0.000450975 -0.00018246 0 
0.000887928 0.000488779 0.000149147 
0.000286605 0.000146069 0.000179038 
-0.000159718 -8.92597e-05 9.77171e-05 
-6.68044e-05 -5.64329e-05 0.0202615 
-0.000102287 -5.01391e-05 -0.000113952 
0.000795861 0.00103421 0 
-0.00243205 -0.000537098 0 
-9.67904e-05 -0.000542229 0 
0.00424393 0.00356916 -0.000530177 
-0.0149641 -0.019008 0.163133 
0.00300755 -0.012726 0.232249 
0.00694154 -0.00299239 0.187416 
0.0200525 -0.0283108 0.191043 
7.19083e-05 0.000111126 -6.09208e-05 
-0.000211117 -0.000326701 0.00018584 
0.000285993 0.00043336 -0.000107409 
-0.000608176 -0.00089819 5.13972e-05 
3.09563e-05 5.4086e-05 0.0215497 
5.06314e-05 0.000157861 8.32238e-05 
-3.67692e-05 -0.000148293 0.000249099 
-1.66555e-05 -3.48477e-05 -0.000184497 
-0.00035763 0.000170922 0 
0.000166053 -1.63548e-05 0 
0.00054495 -5.36729e-05 0 
-0.000703394 6.56125e-05 0.000146446 
6.98645e-05 6.44542e-05 0.0196697 
-0.000294922 -0.000149287 0.000209883 
0.000171098 9.34228e-05 4.94835e-05 
8.69523e-05 4.23693e-05 -0.000103224 
-1.52408e-05 -8.43652e-05 0.0186441 
-1.01194e-05 -8.61249e-05 5.63749e-05 
1.04937e-05 0.000187865 0.000275854 
1.68879e-06 -4.7616e-05 -0.000219686 
6.36557e-05 -5.04033e-05 4.06076e-05 
-0.000167872 0.000137769 0 
-1.30862e-05 1.07395e-05 0 
0.000117309 -0.000260856 0 
0.000376608 3.20299e-05 0 
1.8276e-05 0.000185559 0 
-2.31833e-05 -0.000235384 0 
-2.58475e-06 -4.42029e-05 -6.47424e-05 
-2.89552e-05 -0.000249203 -0.000161445 
2.58092e-05 0.000262045 0 
-1.62379e-05 -0.000164866 0 
-0.000459268 0.000145397 0 
0.000406221 3.95063e-05 1.72779e-05 
0.00030842 3.03767e-05 0 
-0.00032218 -3.17319e-05 0 
-5.46342e-05 0.000350065 0 
1.07385e-05 -0.000261503 0 
0.000139557 1.37451e-05 0 
0.000174194 1.71566e-05 0 
-0.000291208 -3.86206e-05 -0.000341423 
-5.2284e-05 -0.000128805 0.019323 
-4.51944e-05 -0.000141312 7.05867e-05 
4.90775e-05 0.000188379 0.000244604 
1.26115e-05 2.04752e-05 -0.000194077 
-1.38075e-05 1.64533e-05 -0.000274558 
5.07986e-05 -0.000153443 0.000132417 
-3.17259e-05 0.000124798 0.000190935 
-3.19816e-05 -2.59401e-05 0.0162973 
-0.0138442 -0.0200636 0 
0.015839 0.0116281 0 
0.00783596 0.0279473 0 
0.0351569 0.0559624 0.0675556 
0.000528615 -0.000159541 2.52899e-05 
-0.000319909 9.70433e-05 0 
-0.000363295 0.000110204 0 
0.000349141 -4.15244e-05 0 
0.000391199 -0.000136837 0 
-0.00015191 1.49618e-05 0 
-0.000395465 3.89499e-05 0 
0.000301874 -2.74424e-05 7.72039e-05 
-0.000185605 0.000332749 -0.000194597 
9.94178e-05 -0.000185998 0 
0.00012136 -0.000227049 0 
-0.000379368 0.000171308 0 
0.000134155 -7.25459e-06 0.000219453 
-0.000103854 1.28018e-05 9.4769e-05 
-9.27647e-05 3.72293e-06 -0.000199382 
7.51567e-05 3.85422e-06 0.0181732 
-0.000535916 -0.000450271 0 
9.35784e-06 -9.50118e-05 0 
-3.30384e-05 0.000335444 0 
-2.35845e-06 -8.95839e-05 -0.000411821 
1.93645e-06 -1.96611e-05 0 
-1.06882e-05 0.000108519 0 
1.7204e-05 -0.000127891 -0.000168621 
0.000197616 0.000109612 0 
-0.000228881 -0.000368358 0.150434 
-0.00723715 0.00345603 0.199741 
-0.000224684 -0.0134011 0.202542 
0.0511387 -0.0419284 0.201384 
0.0210003 0.00117496 0.0755498 
-0.00243487 0.00213794 0.162267 
0.00231267 -0.009009 0.192615 
0.0515539 -0.0477793 0.196434 
-5.4737e-05 -1.41194e-05 0.0182829 
-8.61302e-05 0.000113542 0.000155816 
0.000132855 -0.000153913 0.000144551 
-3.37943e-05 2.66973e-05 -0.000262615 
-1.95064e-05 -4.93208e-05 0.0158121 
0.000111169 -1.22818e-05 4.87648e-05 
-0.000147961 7.29915e-06 0.000266175 
3.96819e-05 7.22488e-07 -0.000169461 
-0.00722822 -0.000264344 0 
-0.00692595 -0.00992889 0 
0.00248042 0.00820816 0 
0.0212497 -0.056327 0.010013 
4.33836e-05 -3.22642e-05 -0.000227942 
0.000233128 -0.000114885 0.000244238 
-0.000133351 7.28933e-05 4.05831e-05 
-0.000194753 6.22327e-05 0.0176504 
-0.000158917 -0.00240537 0.219415 
0.00683652 -0.00731373 0.205455 
0.00893711 0.0184286 0.190294 
0.0246442 -0.0662685 0.213944 
0.0244216 -0.0122391 0.142672 
0.0380868 -0.0334816 0.111101 
0.0387619 -0.0256115 -0.0186515 
0.0323952 -0.0232061 0.0986124 
0.00714252 -0.0421755 -0.0181458 
0.0308632 -0.0418944 0.111468 
0.0361838 0.016678 0.141247 
0.0852386 -0.00757087 0.0822295 
0.0036704 0.00215813 0.0169416 
0.00440597 0.00524218 0.0182827 
0.00960985 0.0119 0.0519308 
0.00962907 0.00652688 0.0198757 
0.0058714 0.0108794 0.0516569 
0.0060392 0.00506156 0.0189431 
0.00584873 0.00314482 0.016763 
0.00358334 0.00548365 0.0375786 
0.00437281 0.00941365 0.0549597 
0.0119652 0.0157684 0.0644057 
0.00336636 0.00136511 0.0141316 
0.013278 0.00855054 0.019106 
0.00541167 0.00375278 0.0143877 
0.00947691 0.0128483 0.0640866 
0.00585602 0.00987715 0.0545139 
0.0041109 0.00604531 0.0367241 
0.00832375 0.0164188 0.0682712 
0.0384612 0.019111 0.0607569 
0.0177036 0.00671167 0.0133476 
-0.00439829 0.0176088 0.0615638 
0.00957056 0.00196656 0.00969392 
0.0341919 0.0195528 0.0521236 
0.014671 0.0175277 0.0770632 
0.0248375 0.0122821 0.0352897 
0.0832923 0.0846059 -0.0262342 
0.0444522 -0.0084029 0.165396 
-0.00943544 0.000549008 0.344268 
0.0727086 -0.0411842 0.154146 
0.0592884 0.0216596 -0.00167263 
0.0235083 0.0122548 0.352547 
0.065288 0.0118756 0.163394 
0.039446 0.00578398 0.144058 
0.016643 0.00893078 0 
0.109698 0.0561892 0.130813 
-0.0420347 -0.0509297 0 
0.0467909 0.0391701 0 
-0.00441578 -0.0225606 -0.0377859 
0.0720057 0.0580203 0.148699 
0.0362383 -0.00700223 0.000591686 
0.0274556 0.0215298 0.0230977 
-0.00106227 -0.00041629 0 
0.0159244 0.00251185 0.00742144 
0.00187466 0.00239367 0 
-0.00475314 -0.00183512 0 
0.000829886 0.0102127 -0.00251911 
0.0143354 -0.00154397 0.00105642 
-0.00400243 -0.0032171 -0.01103 
0.0481707 -0.00207007 0.0680354 
0.0213598 -0.0270393 0.0867566 
0.0221531 0.0143025 0.0798161 
0.0172035 -0.00880884 0.0925292 
0.0279569 -0.00173473 0.120708 
0.0274656 -0.0167843 0.0872798 
0.0168903 -0.00574341 0.095585 
0.0141876 0.00137767 0.079523 
0.015782 -0.00562068 0.0513343 
-0.00131453 -0.000829773 0.0244408 
1.55668e-05 0.000428925 0.036255 
-0.000518919 -0.000204057 0.0491169 
9.57637e-05 -0.000155297 0.0332689 
-0.00108493 -0.00122416 0.0242371 
-0.000894772 1.46357e-05 0.0491573 
-0.000162448 0.000329845 0.0361351 
-0.00261961 -0.000712509 0.0322007 
0.000910914 0.000899984 0.0228406 
0.00215864 0.00562266 0.0579981 
0.000200891 -0.000626818 0.0414239 
0.00376025 0.00528902 0.0382033 
0.00149318 0.00178993 0.0225372 
0.000571474 -0.000316701 0.0415027 
0.00138098 0.00460632 0.0582205 
-2.01284e-05 0.000142339 0.0465902 
0.0138176 -0.0144698 0.0515877 
0.00199601 -0.00285605 0.0230152 
0.00608506 -0.00277947 0.0174251 
0.00684512 -0.00525596 0.0201526 
0.00618673 -0.00401021 0.0183644 
0.00243529 -0.00300452 0.0230997 
0.0128564 -0.0135616 0.0509544 
0.00458256 -0.00630773 0.0414868 
-0.00557021 0.00256964 0.0731019 
-0.0115081 0.0086557 0.0762673 
-0.00643913 0.00883247 0.0724115 
-0.00530253 0.00596086 0.0577842 
-0.00424714 0.0113895 0.0717718 
-0.0122469 0.00767123 0.0805285 
-0.00643509 0.00158466 0.0725639 
-0.00381348 0.00225718 0.0900704 
-0.00472415 0.00784616 0.071837 
0.000836278 0.00388769 0.0848149 
-0.00621569 0.00330532 0.0732521 
-0.00755173 0.00638565 0.0586951 
-0.00968095 0.00202738 0.073494 
0.00294618 0.00587161 0.0837986 
-0.0032902 0.00709854 0.0726567 
-0.0048492 0.00524572 0.0895739 
0.000746397 -0.00547403 0.0604964 
-0.00102979 -0.00137931 0.0245521 
-0.000503116 -1.74929e-05 0.0328008 
0.000244442 -0.00349969 0.0323594 
6.15146e-05 0.000736618 0.0329924 
-0.00072996 -0.00126854 0.0252064 
0.000157415 -0.00596127 0.0597254 
-0.000105573 -4.36161e-06 0.047687 
0.0905635 0.0384436 0.0875995 
0.0019251 0.0194402 0.301868 
-0.000494231 0.00542152 0.270501 
-0.0603036 0.00921307 0.121065 
0.0928673 0.0966366 0.0985084 
-0.0364437 -0.0497231 0.220587 
-0.000997777 -0.0239256 0.292325 
0.0640666 0.01369 0.23852 
-0.000249062 -0.000139533 0.00117919 
0.000854058 -0.0021268 0.00183662 
0.00214577 -0.00297977 0.01103 
-0.000465851 0.00017745 -0.00156948 
0.00428876 -0.00404707 0.0163819 
-0.000752636 -0.00144485 -0.00157001 
-0.00139545 0.000311821 -0.00107098 
0.00353948 -0.0065497 0.0119291 
-0.000457735 0.00323227 0 
-0.00309051 0.0115763 0.00633186 
-0.000608767 -0.0013139 0 
0.000749365 -0.00237931 0 
0.00121949 0.00272573 -0.00523048 
0.00326016 -0.00179526 -0.00453279 
-0.00801692 0.0127134 0.0178497 
-0.0104756 0.016145 0.014311 
-0.0492426 -0.0860853 0.258469 
-0.0192163 0.0350004 -0.0354504 
-0.0179679 -0.0278626 0.0679428 
-0.0728821 0.0292309 0.0365655 
-0.0800917 -0.0420375 0.184045 
-0.034759 -0.0285713 0.0541862 
-0.00663585 0.00371031 0.00934415 
-0.0102624 -0.039336 0.0429107 
0.0111319 -0.0263725 0 
-0.0636933 0.00226151 0.0569249 
0.0111294 -0.00706141 0 
-0.0279854 0.0368177 0 
0.00772376 -0.00106961 -0.0311104 
0.00952425 -0.0125743 -0.0118928 
-0.0611259 0.00563144 0.0768099 
-0.00596844 -0.0510883 0.0489677 
-0.0337488 0.00941419 0.447589 
0.150736 -0.107446 0.106653 
-0.0666528 0.0433883 0.264395 
0.0622259 -0.0634961 0.325255 
0.0203968 0.00128482 0.321202 
0.0806454 -0.109507 0.109434 
0.0203492 0.00953102 0.447431 
0.000789498 0.0598573 0.25693 
-0.00960445 0.0104532 0.0528923 
-0.0113477 0.0102965 0.0415093 
-0.00617464 0.00481602 0.0113898 
-0.00581021 0.00439576 0.0304755 
-0.00492149 0.0121896 0.0552701 
-0.00844885 0.00525745 0.0100406 
-0.0153554 0.00859175 0.0395075 
-0.0131519 0.0161474 0.0680863 
-0.00161662 0.00126316 0.0262996 
-0.000455434 0.000316943 0.0543776 
-6.94579e-05 -0.00045549 0.0432111 
0.000144428 -8.6396e-05 0.0348189 
-0.00164933 0.00168456 0.0259959 
0.000121401 -0.00101341 0.0436879 
-0.000531122 7.57074e-05 0.0545036 
-0.00579672 0.00329132 0.0423332 
-0.00172963 -0.00282964 0.0168517 
-0.000970016 0.000259328 7.49873e-05 
-0.000341049 8.92702e-05 0.000500405 
3.03281e-05 -2.82398e-06 -0.00131568 
-0.00260915 -0.00652254 0.0202095 
-0.000399164 0.000587701 -3.42212e-05 
-0.0023065 0.00318143 -0.00351781 
-0.00311439 -0.00496863 0.0262036 
0.00870133 0.00402593 0.0101981 
0.0128621 0.00313272 0.0156647 
-0.000222918 -0.000466422 -0.00529087 
-0.00145632 0.00299389 0.00326507 
0.00792842 0.00669633 0.00955329 
0.000101227 -0.00118091 -0.0114936 
0.0118203 0.00649161 0.0186372 
0.0205199 0.00699382 0.0250289 
0.0508821 -0.0861015 0.0478189 
0.000217806 0.0146521 0 
-0.0177884 0.00145734 0 
-0.00515449 -0.00426495 0 
0.0409156 -0.0542066 0.0745701 
-0.00924288 -0.00742866 -0.0123101 
-0.003446 -0.00144846 -0.00618313 
0.0185708 -0.010867 0.0282227 
0.00153523 -0.000799204 0.0237498 
-4.17603e-05 -0.00020114 0.0391745 
-0.000283404 -0.000266329 0.0372272 
0.00330525 -0.0028632 0.0334299 
0.00027816 -0.000182838 0.036701 
8.24917e-05 -8.87331e-05 0.0391229 
0.000762287 -0.00116193 0.0243031 
-0.000146937 0.000127728 0.0208399 
-0.000247186 -0.000182391 0.0368668 
0.00140491 -0.00137481 0.0261336 
0.00150332 -0.000943177 0.0244254 
0.00317133 -0.0028604 0.033161 
0.000797885 -0.00139451 0.0247197 
0.0016072 -0.000952503 0.0266497 
0.00041188 7.99897e-05 0.0362653 
-0.000324789 -6.86251e-05 0.0211496 
-7.8559e-05 -7.6413e-05 0.0216134 
0.000179872 0.000175385 0.000152737 
1.84439e-05 2.09774e-05 -5.26491e-05 
-0.000181663 -0.000186884 6.82784e-05 
2.55012e-05 -4.47393e-05 0.0218227 
-4.68226e-06 3.67388e-05 -8.36748e-05 
0.000141758 0.000108311 3.83718e-05 
3.23841e-05 -1.52296e-05 0.0164925 
-0.00286201 -0.00756322 0.021552 
-0.0120436 -0.00623333 0.0172391 
0.00464047 0.00583294 -0.00447811 
-0.0081707 -0.00723685 0.0108647 
-0.00448719 -0.00641458 0.0209961 
0.00085515 0.00356978 -0.00434968 
-0.00830174 -0.00810052 0.018295 
-0.00489771 -0.0048136 0.0269958 
0.00287262 0.00947755 -0.00493173 
0.00300397 0.000564149 -0.00496637 
0.0233504 0.0635925 0.106506 
0.009461 0.0259159 0.0311336 
0.00757014 -0.00624346 -0.00695876 
0.0183394 0.0914544 0.101018 
0.00285659 -2.51175e-05 -0.00415621 
-0.00675189 -0.0094302 -0.00459831 
0.0300023 0.0598392 0.0507531 
0.0175424 0.0526159 0.264798 
0.0134191 -0.0752198 0.211415 
-0.0173835 -0.0286861 0.293629 
0.0153988 -0.0257537 0.0964433 
0.0259313 -0.0418285 0.198973 
-0.0162202 0.132246 0.184894 
0.0412361 0.0661582 0.0497173 
0.00960195 -0.0117551 0.0366114 
0.0260641 -0.0247621 0.0745711 
0.0113126 -0.016038 0.0287786 
0.017294 -0.0277126 0.0498061 
0.0118 -0.0114775 0.0367444 
0.0147992 -0.0173434 0.0289595 
0.0213771 -0.0225052 0.0743366 
0.0137239 -0.0126229 0.0551636 
0.0120036 -0.015042 0.132736 
-0.0499651 -0.0026966 0.205024 
0.0119969 -0.0490316 0.198079 
0.0104659 2.14959e-05 0.234758 
-0.0170544 -0.0380892 0.174509 
-0.0269779 -0.0271729 0.209123 
0.0245148 -0.00482498 0.156621 
-0.0312846 -0.0293704 0.128009 
0.00380505 -0.000572291 0.00407995 
0.000301992 0.00100062 -1.35523e-06 
0.00497082 -0.00126186 0.0016968 
-0.000826224 0.00136743 -0.00153241 
0.00483177 -0.000622588 0.00532992 
0.00759107 -0.0017235 0.00555532 
-0.0016003 0.00205807 -0.00425145 
0.00461935 -0.00193406 0.00417965 
-0.000160867 -0.00156184 0.0252188 
-0.000602722 0.000298082 0.0483973 
-0.00399846 -0.00677558 0.0520004 
0.000486301 7.83182e-05 0.0486002 
-0.000501989 -0.00139261 0.0262187 
-0.00409557 -0.00580465 0.0513673 
-0.000143965 -0.000392961 0.0475136 
-0.00168857 -0.00181494 0.0257416 
0.00780507 0.0929562 0.0529368 
-0.0842916 -0.0336987 0.228292 
-0.0508752 0.0131894 0.113793 
-0.0207287 -0.0333259 0.330383 
-0.0071392 -0.026776 0.0981263 
-0.0401842 0.060129 0.149239 
-0.0888806 -0.000375938 0.119474 
-0.0396116 0.0532857 0.051572 
0.00293446 -0.00194511 0 
-0.00789476 -0.00508388 0.00362251 
0.00113551 0.000134258 0 
-0.002741 0.00101252 0 
0.00156971 -0.00725656 -0.00153161 
-0.00709247 0.00194114 0.00612972 
0.00250664 -0.00472767 -0.0010883 
-0.00790862 0.0113499 0.00528537 
0.0484301 0.036421 0.119764 
0.0256646 0.0160364 0.143148 
0.018047 0.0146175 0.101565 
0.0352613 0.0330196 0.069832 
0.0606967 0.0462522 0.189087 
0.0104064 0.00855048 0.0585001 
0.030033 -0.00528255 0.117832 
0.0204997 0.0187691 0.210589 
0.000650692 0.000437426 0.00145462 
-0.00418841 -0.000548778 0.0211364 
2.44416e-05 2.00286e-05 -0.000647428 
0.000752617 0.00051439 3.45024e-05 
-6.67551e-05 -0.000718915 -0.00262584 
-0.0041123 0.00222086 0.0222006 
0.000629614 -0.000578853 0.00122784 
-0.00457637 0.00374127 0.0308099 
-0.0039556 -0.00122643 0.0040859 
-0.000415906 0.000184733 -0.00073976 
-0.000261949 7.17039e-05 0.00181347 
-0.000276553 0.00011518 -0.000101007 
-0.0063095 -0.00472031 0.0091543 
-0.00093675 0.000588697 0.000248499 
-5.48044e-05 0.00216424 -0.00438605 
-0.00731845 -0.00295129 0.0134362 
-0.000238752 0.0013576 0.0577864 
0.00399191 0.0016083 0.0535744 
0.0058271 0.00251106 0.0792211 
-0.00023475 -0.000119291 0.0620987 
0.00539643 0.00423171 0.0810326 
0.00482682 0.00174778 0.0537388 
-0.000113176 3.78646e-05 0.0563928 
0.00454657 0.00403229 0.052847 
-0.041252 0.00180304 0.0147726 
-0.00636677 -0.0112329 0 
-0.00772797 0.00709509 0 
0.0131132 -0.00109211 0 
0.0211494 -0.0127749 -0.0463562 
-0.052717 0.0153401 0.0440715 
-0.0744877 0.015811 0.0667316 
-0.0409063 0.0117711 0.195649 
2.1935e-05 0.000198957 0.0569245 
0.00397795 0.00294745 0.0783544 
-0.000243628 0.000626256 0.064516 
0.000200429 2.89745e-05 0.0735325 
-0.00149483 0.000467395 0.0640603 
0.00536535 0.00436146 0.0799474 
-0.000242011 -0.000180091 0.0565248 
0.00456502 0.00400631 0.0531785 
5.20557e-05 -6.65589e-06 -4.88653e-05 
-9.77525e-05 -0.000102805 0.0188143 
4.15078e-06 -6.60251e-06 -6.00936e-05 
3.55938e-05 -3.5969e-07 0.0184939 
8.92595e-05 -0.000142354 0.000323051 
6.96083e-06 -7.73411e-06 -5.64162e-05 
-0.000113524 5.11824e-05 0.0183984 
-5.54432e-05 8.67827e-05 -0.000160923 
-0.000799673 -0.00106729 0.00284151 
0.0259106 -0.00725514 0.0207725 
0.00654123 -0.00696944 0.0219015 
0.00548449 -0.00314862 0.00447993 
0.0031823 0.000819955 -0.000111491 
0.00681217 -0.00779932 0.0226345 
0.0202558 -0.00838027 0.0234506 
0.0113304 -0.0078178 0.0214316 
-0.000170389 0.000159971 0.000295924 
4.62427e-05 -7.50143e-05 0.0184697 
-1.02046e-06 7.11489e-06 -0.000141428 
8.70833e-05 -8.74305e-05 -1.9327e-05 
-8.45043e-05 0.00013152 0.000111437 
-1.07728e-05 1.90051e-05 -0.000115317 
-2.49659e-05 -2.88267e-06 0.0186516 
-0.000106541 -4.84309e-05 0.0212218 
0.000162398 -0.00113108 0.000512184 
-0.000149363 -0.000615948 0.000170562 
-0.000663631 0.000201137 -0.000446964 
-0.000155127 0.000261733 -0.000484123 
0.000711817 -0.000983829 0.00103259 
-0.00112452 0.000419842 -0.00171512 
-0.00138826 -0.0013118 -0.000118884 
0.000833756 -0.00275769 0.00299482 
-0.000110045 -0.000213372 0.000221987 
1.63021e-05 6.91852e-05 0.0174304 
-0.00101255 0.000920656 0.0257007 
-1.5306e-05 -6.07779e-05 0.020289 
-0.000575074 0.000722138 0.0254707 
-0.000143892 9.60317e-05 0.0172621 
-0.000276566 -0.000120051 0.000407337 
1.56155e-05 -0.000188937 0.000154416 
-0.0204793 0.00451714 0.011405 
0.00721763 -0.000181 0.000418594 
-0.0210584 0.00939631 0.0283402 
-0.0127167 0.00397508 0.0140668 
-0.0159708 0.00435119 0.0108577 
-0.0190346 0.00932182 0.0235143 
-0.0012173 0.000129469 0.00417142 
-0.00127232 -0.00200551 0.00169898 
0.000989103 -0.000634387 0.0246246 
-0.000214128 -0.000113224 0.0193751 
-0.000360009 -3.26671e-05 0.000496075 
0.000198754 -7.27523e-05 0.0150381 
0.000838218 -0.000974076 0.0241921 
-0.000474505 2.6324e-05 0.000662671 
-0.00013521 6.879e-05 0.0196081 
0.00120727 -0.00111563 0.0261009 
0.0104568 -0.0325862 0.148839 
0.000250689 -0.0277586 0.083138 
0.00815723 -0.00535057 0.189692 
-0.0333426 -0.0689734 -0.00762884 
0.0276739 -0.0398094 0.188564 
0.00557111 -0.0039972 0.183973 
-0.0120546 -0.0110255 0.0654249 
0.00843433 0.00143038 0.164499 
-0.0043185 0.00298847 0.0713806 
-0.000301894 6.51682e-05 0.057247 
0.000545959 0.000524008 0.0721136 
0.000215362 -0.000200778 0.0712215 
-0.00522616 0.00419654 0.0722855 
0.00137928 -0.000275337 0.0715715 
0.00034508 -0.000322905 0.0570429 
-0.00503991 0.00462059 0.0587963 
-0.00329022 -0.000666083 0.0199361 
0.00105263 0.00113608 -0.00021164 
-0.00123221 0.000304127 0.0222349 
0.000153455 0.000116711 0.000208854 
-0.0029201 -0.000623136 0.020307 
-0.00180298 0.00121637 0.0221406 
0.0012457 -0.000316382 -0.000738106 
-0.00462667 0.00294732 0.0239831 
0.00112002 0.00607934 0.0113702 
-0.00340802 -0.0017651 -0.0019057 
0.00140645 0.00880538 0.00451943 
-0.000691377 -0.00155229 -0.000928146 
-0.0025544 0.00714359 0.0155491 
-0.0011263 0.00964453 0.00717456 
0.00028555 -0.00277134 -0.006242 
-0.00530126 0.00825954 0.012264 
0.00757319 -0.027243 0.322599 
0.109775 -0.0135187 0.140914 
0.0834966 0.00551336 0.119956 
0.0138003 -0.060326 0.0517479 
0.0626632 -0.0496302 0.223307 
0.0470527 0.0210676 0.185641 
0.0395069 -0.0280465 0.267564 
-0.0470495 -0.0126818 0.355399 
0.000539542 0.000250259 -0.000898877 
0.00100967 -0.00116289 0.0212385 
2.94128e-05 9.78628e-06 0.000818597 
0.000625773 0.000284373 0.000280927 
-0.000803167 0.000328922 0.00162817 
0.0033481 -0.00216307 0.0214668 
-0.000239501 0.000602643 -0.00143693 
0.00452729 -0.00201834 0.0190864 
0.0201094 0.031194 -0.0512921 
0.00908035 -0.0100676 0.125862 
0.0218991 0.096952 0.00764773 
-0.00329204 0.0314255 0.168263 
0.0365317 -0.0356727 0 
-0.0326733 0.0497906 0 
0.0293283 0.0640789 0.0944624 
-0.0131388 0.0253618 0 
-0.00527886 0.0190432 0.272268 
0.0120164 0.0451815 0.162598 
0.0499583 0.0473611 -0.0237921 
0.0174742 0.0374741 0.164733 
-0.000113587 -0.00837186 0.256776 
0.0138597 0.0574437 -0.0393463 
0.0125825 0.0583151 0.171909 
0.0172484 0.0298645 0.0908047 
-0.000571518 0.000590625 0.0254814 
1.60278e-05 1.01039e-05 0.000322341 
-0.000306489 -0.000131865 -9.18175e-05 
-6.76463e-05 -2.72728e-05 0.000161017 
-0.00154124 0.00100486 0.0260534 
8.70006e-05 -0.000345987 -0.00090435 
0.000253064 -8.26816e-05 0.000289294 
-0.00130909 0.000681214 0.022954 
0.00025325 0.00134672 2.44786e-05 
-0.000178564 -0.000112038 0 
0.000518096 4.33446e-05 0 
5.80066e-05 3.26316e-05 0 
0.000154489 0.00194132 0.000372989 
1.85169e-05 0.000693393 -0.000305654 
0.000220059 -0.000805236 9.0775e-05 
-0.000187113 0.000172015 0.000400763 
-0.0184299 0.00315431 0.0128325 
-0.00974345 0.0115845 0.0175467 
-0.00391061 -0.011926 -0.0148558 
-0.0215466 0.020518 0.0309262 
-0.018248 0.0045473 0.0129999 
0.000693557 -0.00291358 -0.00481638 
-0.0119807 0.00591931 0.0129525 
-0.000891758 -0.000693597 -0.000683004 
-0.00176567 6.32967e-05 -0.00520737 
-0.00386709 -0.00440136 -0.00545023 
-0.00752631 0.0082876 0.0157255 
-0.0211829 0.0142452 0.0234967 
-0.000848825 0.00124502 0.000407951 
-0.0118866 0.00368705 0.00747133 
-0.000629579 -0.00101261 0.000186466 
-0.00346615 -0.000343433 0.000866926 
-0.00221212 0.00506215 0.0170842 
0.000295773 -0.00115108 -0.000668418 
0.0018271 -0.000638102 0.00128649 
-0.00364896 0.00388741 0.0230867 
-0.000673375 0.00225127 0.0139812 
0.00040359 3.47143e-05 0.00151887 
-0.000309892 -2.6655e-05 0.000577634 
5.61059e-05 4.82588e-06 -0.000271121 
0.000869387 0.000467448 0.0230826 
0.000238396 -5.49429e-05 0.000443168 
0.00019378 -5.81827e-05 -0.000705249 
-0.000193486 5.07891e-05 0.00012857 
0.000995209 0.000759793 0.0227394 
0.000525563 -0.000765864 -0.000351135 
-0.000157775 0.000103567 0.000604959 
0.00145594 0.00177829 0.0217244 
-0.000271171 -4.81835e-05 -0.000256179 
-0.000230227 -0.000278867 0 
0.000297318 0.000126765 0 
-0.000299435 -0.000117255 0 
-0.000274696 -5.51029e-05 -0.000244076 
0.000213521 4.25188e-05 0.000204925 
-0.00012236 -0.000216613 -0.000216153 
-0.000136582 -3.00088e-05 5.61427e-06 
0.000540163 0.000149145 -8.23148e-05 
0.000228362 0.000429398 -0.00031917 
0.00134606 -0.00102054 0.00109407 
-9.878e-05 9.36407e-05 -9.78063e-06 
0.000734057 -0.00207478 0.00177868 
0.000874341 0.00110693 -0.000951912 
0.000416236 0.000221379 -2.68186e-06 
0.000771161 0.000330492 -0.000579439 
0.00062238 -0.00105028 0.0240999 
-0.000143924 0.000181905 0.000258904 
-0.000187861 -0.00012606 0.0214651 
0.000129571 6.82541e-05 0.0149136 
0.0003302 -0.000986934 0.0240767 
-5.2104e-05 -0.000161818 0.0214858 
6.0319e-05 0.000188025 0.000196418 
-0.000142034 8.43941e-05 -8.73745e-05 
0.00604609 0.00744872 0.00841114 
-0.0021362 -0.00426529 -0.00405252 
0.00275807 0.00254317 -0.000276451 
0.00725429 0.00677919 0.00930114 
0.00782515 0.00117186 0.00201804 
0.000721213 0.000851095 0 
-0.00185513 0.0011249 0 
-0.00218953 -0.000487831 0 
0.00131401 0.000464206 0.000177307 
-0.00175287 0.000900307 0.0261352 
-0.00650669 0.00511379 0.029471 
-0.00214273 0.00382441 0.0154313 
-0.045629 -0.00674119 0.140608 
-0.0264893 -0.0239149 0.11869 
-0.000292828 -0.0731158 0.157604 
-0.00323793 -0.0272306 0.0315194 
-0.00980316 0.00305964 0.311898 
-0.0157366 -0.0576355 0.220962 
0.0240617 -0.00669207 0.126816 
-0.0532549 -0.0329815 0.0887674 
-0.0436416 0.0986924 0.20247 
-0.00395156 0.0578533 0.221378 
-0.0623806 -0.050905 0.175923 
-0.067629 0.0601604 0.0589484 
0.00128427 0.00530787 -0.0031925 
-0.00546371 -0.00696222 0.00839495 
-0.00767362 -0.00893394 0.0282599 
-0.000650391 -0.00820163 0.0127527 
-0.00812584 -0.00773002 0.0306673 
-0.00806028 -0.00675769 0.00673309 
-0.00646602 -0.0176303 0.038591 
0.00246598 -0.00972398 0.0117998 
-0.00715905 0.00630127 0.0312084 
-0.00173212 0.00414558 0.0128369 
-0.0018019 0.00047519 0.0269882 
-0.0070346 0.00517916 0.0409279 
0.012471 -0.0130682 0.0304652 
0.026601 -0.0243596 0.0821989 
0.0250687 -0.0257516 0.103167 
0.0153033 -0.0151969 0.112513 
-0.00183045 -0.000115586 -0.000608501 
0.00426992 -0.00460658 0.0241164 
0.00366702 -0.00426794 0.019139 
0.00111935 -0.00131176 0.0267422 
-0.00499073 0.0018402 0.0375485 
-0.00757648 0.00560237 0.031596 
0.00138108 8.66368e-06 -0.00187453 
-0.0012617 0.000863416 0.0260058 
-0.0260747 0.0162393 0.0730262 
-0.00547134 0.0107733 0.0154598 
-0.0238933 0.00697145 0.0344203 
-0.0120168 0.01769 0.0548467 
-0.00411043 -0.0172152 0.0356557 
0.000320015 -0.00606717 0.0375631 
-0.00929707 -0.00809801 0.0321951 
0.00203712 -0.00822498 0.0116686 
-0.0646523 0.0784713 0.295611 
-0.0611605 -0.0300453 0.180411 
0.00321271 -0.0326549 0.252249 
0.0100702 0.0557951 0.186392 
0.0306576 -0.025583 0.103673 
0.0235613 -0.0320173 0.086663 
0.0104699 -0.011418 0.0292127 
0.0151517 -0.0166933 0.0174734 
0.000182183 0.00479973 -0.00147229 
-0.00554697 -0.0100901 0.0303149 
-0.000271916 -0.00703086 0.0355335 
0.00106625 -0.0074695 0.0125917 
-0.00352302 0.0147866 0.0598551 
-0.0249254 0.0117669 0.0368166 
-0.0264994 0.0225514 0.0780051 
-0.00583799 0.00605265 0.0103991 
0.000157578 0.000111541 0.0305124 
0.00010671 0.000719909 0.0150952 
-0.000963858 -0.00329448 0.0363145 
-1.05666e-05 -0.00191405 0.0280937 
-0.017986 -0.0199736 0.00546687 
-0.07315 -0.0305423 0.135683 
-0.00687494 -0.000899794 -0.00709301 
-0.0331526 -0.0791928 0.172377 
-0.000157022 0.000178269 -0.000690814 
-8.25737e-06 2.99604e-05 0.000430427 
0.000162535 -0.00022213 -0.000137514 
0.00157738 0.00227152 0.0332219 
-0.000277595 -0.00041956 0.0506377 
-0.00378287 0.00318304 0.0314381 
0.000249338 -0.000535834 0.0392332 
-0.00538706 0.00488562 0.0609573 
-0.000672134 -8.18156e-05 -0.000527118 
0.00288921 0.00256463 0.0337046 
-0.000633357 0.000220608 0.000117048 
0.000994595 0.000653062 0.023523 
-0.000290008 -5.5156e-05 0 
-0.00196608 -0.000179543 0 
-0.00193547 0.00178297 0 
0.0135673 -0.00903375 0.00201637 
0.00634861 -0.016429 0.0976453 
0.0230176 0.00863033 0.171644 
-0.0133145 -0.00675694 0.20884 
0.003705 -0.0930593 0.0691331 
0.000830886 -0.000151487 0.0365542 
1.78168e-06 -0.000112996 0.0435777 
5.4754e-05 -0.00500825 0.0583013 
0.000511998 -0.00204648 0.0270097 
0.025443 0.00889405 0.00778864 
0.0263217 0.011048 0.0335443 
-0.0104186 -0.00729117 -0.0159869 
0.020255 0.0190217 0.0532054 
-0.0056301 0.010653 0.0840332 
-0.0189503 0.0193024 0.0695097 
-0.00501119 0.00392072 0.0631068 
-0.0112969 0.0108635 0.042695 
0.00346945 0.00441131 0.0344865 
0.0128581 0.00922127 0.0562635 
0.00440622 0.000893246 0.0369198 
0.00454698 0.00188253 0.0523435 
0.00372762 0.0037255 0.0345171 
0.00431179 0.00465789 0.0231977 
0.00542431 -0.00168918 0.0370837 
0.0118574 0.0118214 0.0561241 
-0.000612611 0.000723503 5.91966e-05 
-0.000617622 0.000291711 0.000110901 
0.00353478 -0.00434872 0.018926 
0.00054283 -0.00188094 0.0250109 
0.00819976 -0.00826661 0.0817287 
-0.00219426 -0.0159432 0.0654865 
0.000999709 -0.00390909 0.0552251 
-0.00141857 -0.0190099 0.102232 
-0.00309232 0.0106999 0.0823852 
-0.0138782 0.010668 0.0927974 
-0.00469502 0.00381434 0.0569786 
-0.019536 0.0194448 0.0779781 
0.00272504 0.00476122 -0.0027361 
-0.00824003 -0.00365861 0.0104167 
-0.00815986 -0.00749829 0.0263114 
-0.00764437 -0.00789527 0.00977572 
-0.0308753 0.0269841 0.115711 
-0.0374109 0.0141695 0.170166 
-0.0230878 0.0378111 0.221154 
-0.0500747 0.0500103 0.0635886 
-0.00627567 -0.00704475 0.0788914 
0.00167133 -0.00638388 0.0583125 
-0.00240534 -0.0151635 0.0645157 
-0.00197539 -0.0164815 0.0995485 
0.00591295 0.00942245 0.0165949 
0.00292091 0.00411238 0.0147899 
-0.00193983 -0.000854748 -0.000385706 
0.000927802 0.00404488 0.00284424 
0.0113442 -0.0159131 0.0316352 
-0.000243328 -0.0378578 0.0527925 
0.000212639 0.00102991 -0.0194569 
0.000855178 -0.00613011 0.00297953 
0.0102574 -0.0209513 0.0388062 
0.0164097 -0.00859485 0.0785273 
0.0239469 -0.0206916 0.0819632 
0.0227339 -0.0125671 0.103108 
-0.00855865 0.0168927 0.0623232 
-0.0260588 0.022154 0.0783587 
0.00568603 0.0179009 0.0692522 
-0.0425538 0.00717814 0.0190696 
0.00166855 0.000278538 -0.000275483 
-0.00319273 -0.00225286 0.0310111 
-0.00449031 -0.00170904 0.0237902 
-0.000889141 0.00135259 0.0247286 
0.00646472 0.00190417 -0.00875655 
-0.0137728 -0.0357826 0.0401436 
0.000835861 -0.00403566 -0.00161184 
-0.00472237 -0.00783357 0.00623791 
0.0124725 0.0148467 0.267385 
-0.032733 -0.0174967 0.15116 
-0.0474097 0.0280046 0.131256 
-0.0091253 -0.0313693 0.101269 
-0.00829399 0.00677634 0.0336637 
-0.000611272 -0.000126248 0.0240227 
-0.00487387 0.000864072 0.0383567 
-0.00668681 0.00527854 0.041102 
0.00935587 -0.00139755 0.118063 
0.00718229 -0.002057 0.0868755 
-0.00583949 0.00215922 0.0954055 
0.000571811 -0.01146 0.108657 
0.000199125 0.00061605 0.0357951 
0.00115974 -0.00614293 0.0596784 
0.00281165 -0.00511248 0.0397741 
0.00017055 -0.00207193 0.0264947 
-0.00510722 0.00107344 0.037964 
-0.00531115 0.000396543 0.0247495 
-0.00279234 -0.00326422 0.032197 
-0.000451237 0.000218489 0.023079 
-0.00310193 0.0110668 0.0878186 
-0.00911794 0.0129074 0.0576066 
-0.0217603 0.020548 0.0685063 
-0.0119896 0.0101585 0.0405464 
0.000355778 0.000389833 0.0155334 
0.000181434 0.000640849 0.000608355 
-0.00113946 -0.00281618 0.0356076 
-0.000280823 -0.00178783 0.027994 
0.0499767 0.0169785 0.142382 
0.0207615 -0.0311276 0.118511 
0.00511194 0.0847916 0.0133463 
0.0125895 0.033198 0.131527 
0.000418076 7.7825e-05 -0.00301421 
0.000993057 -0.000195185 0.000164457 
-0.000479204 -0.00675488 0.00991911 
-7.90965e-05 -0.00252273 0.00348139 
-0.00223189 -0.00368057 0.0353276 
-0.00646099 -0.00668585 0.0284003 
0.00173677 0.00323772 -0.000379203 
-0.00452068 -0.00315421 0.0273086 
0.000108578 -0.000449683 0.0395 
-0.00548575 0.00492638 0.0609419 
-0.00359434 0.0031149 0.0315681 
-0.00250808 0.00278655 0.0476555 
0.00972325 -0.0670608 0.194923 
-0.0348142 -0.0242474 0.261995 
0.0125745 -0.0558204 0.0961955 
-0.0440558 -0.0321846 -0.0431495 
-0.00261565 0.00121095 0.0958085 
-0.00090872 -0.0143589 0.105229 
0.00665884 0.000852481 0.0894897 
0.000853915 -0.00297925 0.0845765 
-0.0061992 0.00330031 0.243198 
-0.0316262 -0.0108024 0.18344 
-0.0307033 0.0298146 0.11842 
-0.0221735 0.0470471 0.18073 
0.00790416 0.0142851 0.0219777 
0.00379358 0.00431362 0.0194733 
0.0196896 0.0133946 0.0485921 
0.00524252 0.00779706 0.00238102 
0.0144871 -0.00111137 0.0513948 
0.0250614 0.0186094 0.100409 
0.0241805 -0.0113833 0.104919 
0.0218844 0.00418613 0.0954336 
0.00298401 0.00935127 0.0533783 
0.000346435 0.000275727 0.0236539 
-0.000137189 0.00296625 0.0358522 
0.00105031 0.00572068 0.0653897 
0.000120825 -0.000182179 0.0499026 
-0.00389876 0.00360375 0.0306824 
-0.00626916 0.00437231 0.0625606 
-0.00564612 0.00282209 0.0609837 
-0.00393042 0.00391353 0.0938714 
-0.000260191 -0.0157873 0.105984 
0.000536096 -0.00202126 0.0847507 
-0.00592503 -0.00738668 0.0969182 
0.0286992 -0.00970196 -0.056996 
-0.0275544 -0.00117029 -0.0342211 
-0.0223471 0.0017297 0.0517093 
-0.0925464 0.0297864 0.216419 
0.0156347 0.0157947 0.0369846 
0.00958089 0.0110899 0.0883913 
0.0251082 0.026761 0.0917729 
0.0153417 0.0134603 0.0610133 
-0.00288569 0.00445474 0 
-0.00163682 0.0246302 0 
0.000678539 -0.00158556 0 
9.36603e-05 -0.0718701 0.0286314 
0.0167065 0.00401141 0.0545222 
0.0197395 0.00944254 0.0451715 
0.00936263 0.0173501 0.0276747 
0.00200601 0.00296497 0.0146368 
-0.012081 -0.0944215 0.0954826 
-0.0180429 -0.0266872 -0.00383795 
-0.0430929 -0.039724 0.187512 
-0.0123305 0.00533006 0.0849675 
-0.00353659 0.000252075 3.00785e-05 
0.00372489 0.000776483 0.0345797 
0.00510906 0.00363557 0.0256023 
0.0072301 -0.000210517 0.0213715 
0.000100634 -0.000186037 0.000277685 
-8.45402e-05 0.000108805 -0.000709647 
-0.000128788 0.000286136 0.000126725 
0.00181884 0.00248491 0.0334001 
0.000390755 -0.000521456 0.00089341 
-0.0031488 -0.000603472 0.0232186 
0.00038343 3.75215e-05 4.6138e-06 
-0.00110001 0.000383236 0.0228553 
-0.0125139 0.0108028 0.0542239 
-0.00610506 0.00430225 0.0675141 
-0.0182546 0.0195827 0.0648812 
-0.0100992 0.00950607 0.0411501 
-0.0273351 0.010861 0.0928588 
-0.0250612 -0.00211781 0.112591 
-0.0169875 0.0337882 0.074506 
-0.0123022 0.0150465 0.0543044 
-0.0012356 -0.0386141 0 
-0.00568696 -0.0417818 0 
0.00241309 0.0254319 0 
-0.00879149 -0.0622476 0.162848 
0.000121694 0.00166479 -0.00111422 
-0.00539473 -0.00761139 0.0301812 
-0.00201637 -0.00277375 0.0346667 
-0.00190028 -0.00628116 0.0353482 
0.012459 0.0127664 0.041339 
0.00192204 0.00297736 0.031951 
0.00527219 0.00526273 0.0615204 
0.0151764 0.0115949 0.0583798 
-0.0144438 0.0100515 0.0535285 
-0.00496969 0.00392175 0.0581643 
-0.0137611 0.0103009 0.0929858 
-0.0194769 0.0201024 0.076254 
3.76798e-05 0.000973567 0.000557442 
-0.00267767 0.00202837 -0.00281518 
-0.00411165 -0.00735748 0.0272444 
0.000416878 -0.00664557 0.0129826 
-0.000586929 -0.00183932 1.15717e-05 
0.000337118 0.00408942 0.0219484 
0.00248594 0.0055199 0.0271219 
0.000184548 0.000575737 0.0240022 
-0.00627991 -0.00466823 0.0465481 
-0.00357386 -0.00189005 0.0298074 
0.000468823 0.00013192 0.0432203 
-0.00423959 -0.00218132 0.0577288 
-0.0121323 0.00916876 0.0497458 
-0.0169827 0.0238272 0.0742329 
-0.0255935 0.0101061 0.112843 
-0.0177749 0.014252 0.0534106 
-0.00229113 0.00214143 -0.00205779 
0.00665692 -0.00993754 0.0182973 
0.00337336 -0.00580907 0.0183077 
0.00356922 -0.00562447 0.0242304 
0.00334293 -0.00486886 0.0183385 
0.00441912 -0.00462733 0.025769 
0.00640035 -0.00493858 0.0452343 
0.00108124 -0.00128816 0.0262411 
-0.00178385 -0.000542565 0.00121805 
0.00479594 -0.00789251 0.0154897 
-0.00185379 0.000357976 -0.00124448 
0.00280066 -0.0035836 0.0155594 
0.000537975 -0.000287026 0.00014769 
-0.00152675 0.0016804 0.0244051 
0.000739772 0.000217224 -0.000121811 
-0.00260943 0.00281229 0.0173839 
-0.0141433 0.00946558 0.0173251 
-0.027376 0.0185655 0.0674429 
-0.0252233 0.0101446 0.0224619 
-0.0105291 0.0144415 0.0658589 
0.012415 0.00898401 -0.0186784 
0.00802959 0.00372359 -0.0128384 
-0.0117851 -0.0190276 0.00676528 
-0.103671 -0.039633 0.146026 
-0.00625813 -0.00487941 0.0464254 
0.000777392 0.000462825 0.0423113 
-0.00523209 -0.00359662 0.0657387 
-0.00423401 -0.00189931 0.0577812 
-0.000788806 0.00180523 -0.00102177 
0.00365549 -0.00499157 0.0371162 
0.00511103 -0.00450431 0.0206728 
-0.000435227 -0.00175801 0.0289821 
0.0164525 0.00923259 0.064784 
0.00298439 0.00206949 0.049381 
0.00979025 0.00290778 0.0722444 
0.0117139 -0.000796612 0.0604999 
0.0155087 -0.00139941 0.305582 
0.0392262 0.133689 0.181087 
0.0323219 -0.124892 0.168538 
-0.00843292 -0.0136246 0.131396 
0.00617031 0.00332985 0.119486 
-0.00347889 -0.00083669 0.0945624 
0.00339441 0.00594597 0.0803279 
-0.00138371 0.00954174 0.109073 
-0.0140031 0.00766296 0.0233759 
-0.0249705 0.00887425 0.0266999 
-0.00477211 0.0085114 0.0200893 
-0.0116248 0.0169372 0.0576338 
0.0125843 -0.0129818 0.0434765 
0.0120149 -0.016244 0.0607219 
0.00361947 -0.00452121 0.0385756 
0.00895763 -0.0077066 0.0544451 
0.0114941 0.00701857 -0.00767545 
0.068435 0.00263497 0.0877403 
0.01377 0.0339955 0.0950273 
0.00654754 0.030443 0.0484979 
0.00948556 0.00082429 0.114452 
0.00573296 -0.00224581 0.0903721 
0.00931443 0.0106044 0.0879045 
0.000245104 0.00807711 0.0834118 
0.00291458 -0.00314502 -0.00695424 
-0.0112816 0.00457076 0.0111421 
-0.00508431 0.00243251 0.00673379 
-0.00686097 0.00490358 0.00515484 
0.00142835 0.000946899 0 
-0.00105191 4.4164e-05 0 
0.000312158 0.00183416 0 
-0.00955584 -0.0104116 0.00280855 
-0.0192611 0.00995529 0.0371707 
-0.0150501 0.0545956 0.0621148 
-0.0271582 -0.0170658 -0.0269903 
-0.0158028 0.0531973 0.165424 
-8.94051e-05 0.000183611 -0.000805122 
7.12787e-05 -0.000131825 0.000196921 
5.09393e-06 -1.84865e-05 0.000291131 
0.00138009 0.00223754 0.033512 
-0.0661639 0.016088 0.079416 
-0.0140832 0.0262509 0.027255 
0.00904066 -0.000667158 -0.0288773 
-0.0197543 0.0378446 0.0675429 
0.00709689 -0.00880943 0.0815913 
0.00268077 -0.00866498 0.0595871 
-0.00642915 -0.00854987 0.0804706 
-0.00278171 -0.0137121 0.0976235 
-0.00365805 0.00250436 0.0926239 
0.00467631 0.00113559 0.125986 
0.000347982 -0.0142998 0.107267 
-0.00730014 -0.00810539 0.0963395 
0.000327093 0.000474427 0.0356608 
-0.000131224 -6.83137e-05 0.0435529 
0.000142413 2.88204e-05 0.0541337 
0.000639783 -0.00571793 0.0593086 
-0.00012714 -0.000103908 0.00166644 
0.000193147 0.000237754 -0.00172997 
0.00039218 0.000773198 -0.000598647 
0.000228149 -0.00781633 0.0139815 
0.00778602 -0.0024351 0.424507 
-0.0438606 0.0452587 0.350083 
-0.00373853 -0.0185381 0.233885 
-0.00201363 0.0600695 0.155491 
0.00685687 0.0125285 0.0197957 
0.00232345 0.00527933 0.02266 
-0.00132077 -0.00190227 -0.00340271 
0.00362466 0.00519573 0.0162907 
0.0285399 -0.0408988 0.162928 
0.0406745 0.0366667 0.187834 
0.0355505 0.00180789 0.145198 
0.0149849 -0.00539985 0.128675 
-0.0236471 0.014089 0.0969605 
-0.0273156 0.0353959 0.123601 
-0.0213557 0.0328998 0.0695486 
-0.0220387 -0.00984823 0.116304 
0.0026044 0.00448834 -0.00256885 
-0.0491115 0.00847127 0.0569541 
0.0144548 0.0158267 -0.0135834 
-0.0145131 -0.00232846 0.00565825 
0.00918222 -0.000718416 0.11063 
-0.0026792 0.00112606 0.0960383 
0.00548585 -0.00180163 0.0900928 
0.000884896 0.00829996 0.0864227 
0.012199 0.0131475 0.0444192 
0.00367067 0.00864179 0.0535078 
0.0117584 0.0128278 0.082257 
0.00671263 0.00444722 0.0595553 
0.00356015 0.000963334 0.0338539 
0.00349811 0.00244942 0.0520295 
0.0160116 0.00816453 0.0619123 
0.0114156 0.000967878 0.0605644 
-0.000115346 -0.000519868 -0.000116243 
-0.000784 0.00272807 0.0213085 
0.000560922 -0.000479798 0.000716437 
0.000296043 0.0012404 0.0232979 
0.00468908 -0.0274462 0.0298265 
0.00248357 0.0205654 -0.0227179 
-0.021396 -0.0152366 -0.00237365 
-0.0121778 -0.0738267 0.12182 
-0.0137432 0.0116543 0.0578464 
-0.0154568 0.00355496 0.0709522 
-0.0159199 0.00724135 0.0925204 
-0.00480511 0.000959435 0.0562492 
0.0120226 0.0140266 0.0426494 
0.00350996 0.00368622 0.0264906 
0.00542354 0.0069378 0.0537065 
0.00540737 0.00499702 0.0611854 
-0.00140799 0.00120426 0.000241536 
0.00552031 0.00901998 0.0164311 
-0.000842095 0.000226426 0.000120647 
0.000232005 0.00283903 0.00309781 
0.000489397 0.000673791 -0.00200592 
0.000456762 -0.000147544 -0.000191687 
-0.00452631 0.00134714 0.0374755 
-0.00143136 0.00106782 0.0260559 
-0.00461585 -0.00163935 -0.000343849 
0.00419844 0.00352568 0.0160819 
0.00416148 0.00390948 0.0267112 
0.00719133 0.00484379 0.0174637 
-0.00103555 0.00207181 -0.00186662 
0.00306287 -0.00262411 0.00575231 
0.000502465 0.00124494 -0.000321819 
0.00779503 -0.00174073 0.00460171 
-0.013561 0.0201702 0.0486446 
-0.0259743 0.0104683 0.03463 
-0.00392856 0.015822 0.0605882 
-0.00556634 0.0043499 0.00887187 
0.000462972 0.000552571 0.00144086 
-0.00527011 -0.00426735 0.0267223 
-0.000156337 0.000621442 -0.00165273 
-0.00351439 -0.00239683 0.0262219 
0.00300449 -0.0120624 0.0175948 
0.00240614 -0.00183286 0.00151073 
0.0123418 -0.0117012 0.040225 
0.0144781 -0.0152626 0.0222321 
-0.00118761 -0.00121255 0.000500044 
-0.00101311 -0.000909842 -0.00120711 
0.00386901 0.00408453 0.0258484 
0.00512328 0.00419752 0.0188651 
-0.000527876 0.0013558 0.0346023 
-2.02115e-05 -9.16895e-05 0.0538372 
0.00332645 -0.00542977 0.0394394 
0.00176415 -0.0067695 0.0607361 
0.00486325 -0.00863398 0.0802827 
0.00016837 -0.00758099 0.0614205 
0.000102675 1.53946e-05 0.0687315 
0.000752162 -0.003978 0.0853487 
-0.00044392 0.000365364 0.0762677 
-0.000238372 0.00123302 0.0608594 
-0.00219439 -0.00912546 0.0773993 
-0.000138509 -0.00676049 0.0614249 
-0.00657244 -0.000432157 -0.010281 
0.0131871 0.00754582 0.0191231 
0.004204 0.00394407 0.00510139 
0.0134369 0.00343621 0.0133557 
-9.12615e-05 -0.000270427 0.0710795 
0.00088107 -0.00655205 0.0624659 
0.0050869 -0.008303 0.076965 
0.00423339 -0.00514152 0.0549579 
-0.00102042 -0.0071375 -0.00391403 
0.000185698 -0.00423819 -0.000569997 
0.00876415 0.0139488 0.0129729 
0.0110604 0.00974893 0.00713318 
-0.00203168 -0.000985544 -0.000478134 
0.00588093 0.00944271 0.0166388 
-0.000965307 0.0019036 0.00058166 
0.00187971 0.00286527 0.0140145 
0.00521797 -0.00140049 -0.00722432 
-0.0203417 0.0231231 0.028564 
-0.0533595 0.0216645 0.0621613 
-0.00566503 0.00666239 0.00121751 
-0.00571408 0.0045065 0.0373989 
-0.00446624 0.0124686 0.0813719 
-0.0105681 0.0143659 0.0567746 
-0.000561756 0.00522752 0.0568596 
-0.00587082 0.00551995 0.0382267 
-0.00659297 0.0050466 0.0630349 
-0.00457937 0.0112331 0.0800976 
-0.00148079 0.00638532 0.0571604 
0.0063333 -0.0162999 0.0164098 
0.0149757 -0.0302185 0.0467716 
0.0162859 -0.0137852 0.052205 
0.0129715 0.00359888 0.0295061 
0.0259026 0.0269121 0.101643 
0.0202504 0.012122 0.0600422 
0.00890629 0.0111441 0.0849864 
0.0176909 0.00911008 0.099267 
-0.0269589 0.0182068 0.124119 
-0.0291875 -0.0182785 0.111066 
-0.0189604 -0.013775 0.154647 
-0.019061 -0.0479344 0.0545297 
-0.00203684 -0.00148712 -0.000233162 
0.00531649 0.00454818 0.0249952 
0.00392503 0.00332809 0.0282372 
0.00128542 0.00151802 0.0265713 
0.0174121 0.00496621 0.0354471 
0.00555463 0.0104162 0.00828172 
0.00454478 0.00714118 0.0239423 
0.00767693 -0.00352634 0.0239267 
0.00810073 -0.00794367 0.0816518 
-0.00432075 -0.0172568 0.0637847 
0.0018337 -0.019028 0.104822 
0.011496 -0.0145402 0.0678225 
0.00923561 -0.0299559 0.0281747 
-0.00827196 -0.00583384 -0.00395058 
0.0148207 0.0230228 -0.0365953 
-0.0706682 -0.111477 0.233436 
-0.000589247 -0.000457226 0.000143331 
0.00314466 0.00310432 0.0337596 
-0.000188381 -7.82712e-05 -0.000236379 
0.000657597 0.00102428 0.0238574 
0.0409327 0.0370818 0.144755 
0.0386718 0.0310785 0.100333 
0.0690043 0.0102271 0.0377342 
0.0208017 0.00993934 0.0136968 
0.00375401 -0.00462533 0.038198 
0.00354544 -0.00590315 0.0225265 
0.00044853 -0.00124369 0.0267497 
0.00120971 -0.00685028 0.0368261 
0.00749216 0.00569847 0.124549 
0.00175366 0.00331773 0.0744951 
0.0109557 0.0121737 0.086243 
-0.000860126 0.01102 0.11186 
0.00909871 -0.00487829 0.011832 
0.013605 -0.0362986 0.0467037 
0.00603351 -0.0165015 0.0162122 
0.0149594 0.00890534 0.0301734 
-0.00394078 8.36799e-05 -0.000881854 
0.00543409 -0.0035039 0.0265507 
0.00472046 0.000987034 0.0359791 
0.00640061 -0.000335037 0.0204166 
-0.00500882 0.00803009 0.0125117 
-0.00369068 0.00370773 0.0169445 
0.00204566 -0.00148408 -0.00417012 
-0.00226694 0.00334164 0.014618 
0.0227784 0.0306236 0.0774535 
0.0909978 0.0123462 0.134195 
0.0443947 0.037387 0.201876 
0.0247702 0.0194612 0.0071892 
0.0218266 0.00866027 0.049014 
0.0215347 0.00584565 0.0290313 
0.0113514 0.0468616 0.0462047 
0.0358506 -0.0131081 0.18568 
-0.00242396 -0.00206877 0 
0.000228497 -0.00119487 0 
0.000602045 -0.000467881 0 
0.00699893 0.0100143 0.00560716 
-0.0164128 0.0116747 0.0524795 
-0.0194735 0.0208811 0.0754953 
-0.0133992 0.00870343 0.0944428 
-0.0218423 0.00999159 0.110602 
-0.00551523 0.00486842 0.0379569 
-0.00401223 0.00407895 0.0188518 
-0.00123938 0.00101495 0.0260131 
-0.00432034 0.0036166 0.0187426 
0.00597415 -0.00338591 0.0473864 
0.0131475 -0.0120397 0.0476293 
0.00346135 -0.00713311 0.0152428 
0.00979121 -0.00762283 0.0541308 
0.0187352 0.00509208 0.0379483 
0.00372047 0.00942436 0.024648 
0.0156033 -3.92141e-05 0.0483338 
0.00655359 -0.00330867 0.0221143 
0.00179998 -0.0563167 0.229286 
0.0080019 0.0319131 0.30291 
0.00453214 -0.0212112 0.206889 
-0.0084127 -0.0608665 0.144873 
-0.0030948 0.0106476 0.0580549 
-0.00544462 0.0125748 0.0137525 
-0.0269773 0.01774 0.0754405 
-0.0119525 0.0158525 0.0562085 
-0.000306339 -0.000620222 -0.00282063 
0.00350769 0.00310758 0.0280217 
-0.000517953 -0.000456153 0.000536691 
0.00431078 0.00350047 0.0245085 
0.00124365 -0.00193946 5.61301e-05 
-0.00129887 0.000914307 0.0256324 
-0.0038642 0.00417757 0.0185489 
-0.00446265 0.00342889 0.0182689 
0.0038208 0.0049273 0.00232851 
0.00733065 -0.0143141 0.0204664 
0.00569044 -0.014147 0.0181418 
0.0030132 -0.0164625 0.0107263 
-0.00581674 -0.00729401 0.0113716 
-0.00096523 -0.00418219 0.00463964 
0.00210476 -0.000157364 -0.000103227 
0.000315884 -0.00353781 0.00341586 
0.0027494 0.00702072 0.053486 
-0.000174116 3.72236e-05 0.0472546 
0.00052477 0.00138637 0.0235258 
0.000902195 0.00523264 0.0655266 
-0.000189696 -0.000272102 0.0505087 
0.000246739 -0.000318296 0.0392261 
-8.78611e-06 0.000209772 0.0537142 
-0.0050829 0.00448814 0.0605558 
7.92265e-05 0.00328949 0.0360008 
0.000563767 0.00177191 0.0236937 
-0.000106787 0.000769135 0.0474078 
0.000851723 0.00472926 0.0653183 
-0.00194226 0.000742059 -0.0022497 
0.003182 -0.00801922 0.0151583 
-0.000459061 -0.000579313 0.00107305 
0.00515789 -0.00604248 0.00946901 
0.00765987 -0.0219998 0.149731 
-0.00476066 -0.000765638 0.181198 
-0.0173149 -0.00366974 0.0880018 
-0.0826971 -0.00783661 0.0839341 
0.0117304 0.0129022 0.0406829 
0.0038149 0.00239223 0.0345058 
0.0034474 0.00372045 0.0283178 
0.00574149 0.00581415 0.0596027 
-7.52348e-05 0.000290023 0.05007 
-0.00349908 0.00258762 0.0325524 
-0.00560349 0.00275264 0.0595747 
-0.00214038 0.00110245 0.0254228 
-0.00610326 -0.00579111 0.0448437 
-0.00294951 -0.00284209 0.0247594 
-0.011737 -0.009393 0.0272267 
-0.0136716 -0.0146215 0.060511 
0.000178897 -0.000313568 0.0503537 
0.00374387 0.00372151 0.0341931 
0.00515886 0.00476224 0.0588654 
0.00143727 0.00164963 0.0232817 
-0.00285844 0.00660666 -0.0143128 
-0.0158839 -0.0190527 0.00974622 
-0.038867 -0.0183365 0.070694 
-0.0741508 -0.0349346 0.137894 
-0.0735596 -0.00151989 0.241035 
0.00980469 0.012297 0.303024 
0.0495694 -0.041234 0.240628 
0.0941181 -0.0394687 0.214256 
0.00530461 -0.0087437 0.0785868 
-0.000408966 0.000337471 0.0693003 
0.00618831 -0.00398789 0.0703722 
0.00087776 -0.00412099 0.0856673 
0.00039807 0.00285571 -0.00125931 
-0.00386216 -0.00355806 0.02606 
-0.00649935 -0.0065856 0.0267817 
-0.0042091 -0.00166978 0.0131194 
0.00307113 -0.00517011 0.037912 
-0.00240829 -0.00553746 0.0631081 
0.00675811 -0.0108736 0.0776638 
0.0110849 -0.0160623 0.0615288 
-0.0264203 -0.00187002 0.000153782 
-0.00448245 0.0460359 0.0665637 
-0.0344616 -0.00727817 0.010289 
-0.0299591 0.0437875 0.123995 
0.0168552 0.00275232 0.056065 
0.0242963 -0.017837 0.0966929 
0.01982 -0.0178209 0.0556236 
0.0151388 0.0061689 0.0986618 
-0.00608873 -0.0236045 0.0354966 
-0.00655729 -0.00658892 0.0094831 
0.0030565 -0.0043412 -0.00712933 
0.00214668 -0.00773795 0.0106588 
-0.00667192 -0.0210561 0.0393781 
-0.0225617 0.0118088 0.0495888 
-0.0264622 0.0134622 0.106169 
-0.0353943 -0.0252328 0.109357 
-0.0392949 -0.0155958 0.196894 
-0.00483916 -0.0297965 0.0700767 
0.0478522 -0.0312032 0.143416 
-0.0805168 -0.00830889 0.0256793 
-0.000521308 0.000163081 0.0756739 
0.000398292 -0.00809708 0.0601546 
-0.00242631 -0.00765913 0.0796964 
0.000100114 -0.00451177 0.085814 
0.00117691 0.00164265 -0.00067232 
0.00276263 0.00241524 -0.00147786 
-0.00688747 -0.00969507 0.029922 
-0.00265714 -0.00600438 0.0349861 
0.0100487 -0.0117732 0.0143181 
0.0107692 9.45928e-06 0.00564724 
0.00437981 -0.00743131 0.0242771 
-0.00204571 -0.00661998 0.011983 
-0.0111999 0.0153835 0.0556696 
-0.0248402 -0.00179498 0.103541 
-0.0176976 0.00118332 0.0718438 
-0.0159184 0.0190006 0.0588572 
-0.000149306 -0.000102948 0.0328663 
0.0032843 0.00288604 0.0353343 
0.000704978 0.000541572 0.0489883 
0.00120712 0.00147814 0.0239974 
-0.000443809 -0.0139477 0.0661494 
0.00624192 -0.0101114 0.0797756 
0.00021306 -0.00549217 0.0570758 
0.00861698 -0.0160878 0.0672287 
0.00404658 -0.000165206 0.0351266 
0.00459454 -0.00202045 0.0279065 
-0.000754846 0.000432178 -0.00107503 
0.00146989 -0.00107771 0.0279009 
0.000729712 -0.00385312 -0.00462502 
-0.00029746 0.00275989 -0.00313758 
0.0044641 -0.0150949 0.0210775 
0.00152641 -0.0133133 0.00370603 
0.0125403 0.014476 0.0388548 
0.00604313 0.00415382 0.0590678 
0.0136965 0.0132443 0.0858027 
0.0143552 0.0120673 0.0618554 
0.0109232 -0.00164405 0.120249 
0.0105233 0.0175603 0.0859136 
0.00433933 -0.0028476 0.087029 
0.0176533 0.00229445 0.0984154 
0.0295858 0.0269601 0.0807049 
0.0124507 0.00952341 0.0585338 
0.0316011 0.0317002 0.10095 
0.0183772 0.00288263 0.10341 
7.05242e-05 0.000438458 0.0441925 
-0.00250462 -0.00247354 0.0310078 
-0.00588842 -0.00511156 0.0433321 
-0.00142499 -0.00150833 0.024933 
-8.90791e-06 0.000185287 0.0535941 
-0.00520571 0.00449688 0.0604284 
0.000238438 -0.000270876 0.0394469 
-0.00261539 0.00253004 0.0476462 
-0.0402542 -0.0068395 0.0115529 
-0.0556991 0.00385376 0.110261 
0.0103299 0.00817569 -0.0323449 
-0.0152795 0.0522112 0.0669708 
-0.013112 -0.00241804 -0.0144699 
0.000717158 0.00395474 0.00052117 
0.0280007 0.00713573 0.0254524 
0.0225197 0.00598546 0.0196322 
-0.000525436 -0.00452673 0 
-0.00131126 -0.00818295 0 
0.00561564 0.00260315 0 
0.0217572 0.0132769 0.0196841 
-0.000192536 -0.000385248 0.000214097 
0.00269543 0.00298953 0.0336989 
-0.000553156 -0.000428057 0.000119937 
0.00069278 0.000859209 0.0241088 
-0.0153106 -0.0169039 -0.00821153 
-0.0123814 0.0545926 0.0695799 
-0.0200175 0.0102675 0.0095558 
0.00184592 0.00445323 -0.00354905 
0.000782913 -0.0136451 0.0645051 
-0.000772221 -0.00580894 0.0610386 
0.00380793 -0.00526013 0.0369247 
0.00938641 -0.01583 0.0637623 
0.0751942 -0.00351917 0.338293 
-0.0315628 -0.0628057 0.0524879 
0.00657761 -0.0790806 0.190281 
0.0305482 -0.0318641 0.175594 
0.0122155 -0.0129643 0.0413466 
0.00270798 -0.00463849 0.0141736 
0.0138205 -0.01458 0.0488327 
0.00836917 -0.00796392 0.0561337 
-0.00102377 0.000756941 -0.000735123 
-0.00177869 -0.0024301 0.0347187 
0.000254655 0.000586476 0.000522213 
-0.000645163 -0.0055301 0.0347278 
0.00284273 0.000570634 0.0334215 
0.0164263 0.00811087 0.0622443 
0.00285013 0.00640985 0.0205335 
0.0140047 0.000399504 0.0627062 
-0.00154034 -0.0605378 0.0266178 
-0.0127082 -0.035359 0.145132 
0.00642502 -0.0236706 -0.032524 
-0.0171504 -0.0249572 0.108214 
0.0125619 -0.0145854 0.039348 
0.0117613 -0.0151074 0.0638219 
0.00869797 -0.00885333 0.0516504 
0.0215792 -0.0169894 0.104029 
-0.0013643 -0.000432019 -0.000182902 
0.00422886 0.00344187 0.0256285 
0.00427733 0.00102829 0.0348936 
0.000400999 0.00138624 0.0251372 
0.000835394 -0.00171413 -0.000471853 
-0.00466643 0.0047266 0.0372892 
-0.00177872 0.0014542 0.0255298 
-0.00403796 0.00295532 0.0201168 
0.00144533 0.00684789 -0.0136365 
0.0150052 -0.0129433 0.0362429 
-0.00115994 -0.00521902 -0.000264884 
0.000270742 -0.0532485 0.0394334 
0.00017518 -0.000853698 0.000623801 
-0.000852083 0.00340141 0.0346133 
0.000223901 -0.000406468 0.0206976 
-0.000971052 0.00167777 0.0284981 
-0.00114004 0.00382345 3.82742e-05 
0.00530782 -0.0050183 0.0195763 
0.00310308 -0.00446528 0.0298511 
0.00360888 -0.00421059 0.0176017 
-0.00034541 -0.000474591 -0.00462865 
0.00264134 0.00190364 -0.00884309 
-0.0115286 -0.00441266 0.0152055 
-0.0212026 -0.0110059 0.0230471 
-0.000480723 0.000809148 -0.00335152 
0.00421268 -0.0024387 0.0181389 
-0.000131834 0.000324609 0.00179392 
0.00284964 -0.00331235 0.0169476 
-0.0292402 -0.0277128 0.118522 
-0.0105004 -0.00582009 0.210803 
0.140864 0.0552569 0.135865 
0.069382 0.052995 -0.00428338 
-0.0124895 0.0110108 0.0581097 
-0.0140506 0.00848872 0.0889098 
-0.00535787 0.0057855 0.0614333 
-0.00650751 -0.000536027 0.0601895 
0.00169575 5.95807e-05 -0.00207183 
-0.00904294 0.00533646 0.0325692 
-0.00503683 0.00173036 0.0377698 
-0.00471437 0.000668797 0.0252944 
-0.0021659 0.00286309 -0.00276901 
0.00411948 -0.00353029 0.00725531 
0.005903 -0.00407506 0.0176532 
0.00365575 -0.00458161 0.0166023 
0.0101547 -0.0162085 0.0586084 
0.00407273 -0.0038833 0.0553891 
0.0032625 -0.00435085 0.038053 
0.00938367 -0.0084984 0.0554897 
-0.0780389 -0.0159552 0.231129 
-0.00679904 -0.0178461 0.292898 
-0.055108 -0.0111554 0.0353272 
0.0531644 -0.0257459 0.126036 
-8.67322e-05 0.000356937 0.0218116 
0.0031563 0.00013384 0.0350733 
-0.000536316 7.93787e-05 0.000434154 
0.00144704 -0.000516933 0.0277652 
7.44323e-05 -0.000179632 0.035268 
-5.1233e-05 0.000277951 0.0170358 
0.00148003 -0.00157597 0.0286824 
0.000513794 -0.00168931 0.0254244 
-0.0107057 -0.0105934 0.0241306 
-0.00632208 -0.00522203 0.046059 
-0.0127693 -0.0144423 0.0326141 
-0.000784283 -0.00164673 0.0194609 
0.00787125 0.0102439 0.0197267 
0.0173695 0.0104306 0.0613587 
0.0147827 0.00240542 0.0534539 
0.00947581 -0.00383076 0.0637882 
0.00617928 -0.00909572 0.0808681 
0.0125296 -0.00943043 0.0541574 
0.011118 -0.0159445 0.0632858 
0.0137298 -0.0154609 0.0989359 
0.00669701 -0.01019 0.0794675 
0.00256965 -0.00407769 0.0518467 
0.0124205 -0.0158074 0.0635187 
0.0103073 -0.00795514 0.0559816 
0.00495775 -0.0013894 0.0806615 
0.000603478 -0.0128518 0.110606 
0.0104025 -0.00217042 0.121604 
0.0145449 -0.0135516 0.106614 
-0.00366256 -0.047682 0.026567 
-0.0235539 -0.00601295 0.0262534 
-0.0263831 0.0182909 0.0654301 
-0.0235035 -0.0404033 0.0910847 
-0.0727069 0.0222073 0.0960924 
-0.0262709 0.0219833 -0.011142 
-0.0289343 0.0156982 0.0840208 
-0.0216996 -0.00231193 0.150616 
7.28528e-05 -2.64715e-05 0.0204812 
-0.000622621 0.00273952 0.034617 
6.42118e-05 -0.000525178 0.000654354 
-9.81072e-05 0.00117144 0.0245077 
0.006009 -0.00410389 0.0461492 
0.00424334 -0.00417191 0.0262235 
0.00375058 -0.00728687 0.0165461 
0.0126522 -0.0111223 0.0467014 
0.00016129 -1.68712e-05 0.000127001 
5.24066e-06 -1.74747e-06 7.91173e-05 
-0.000199292 3.02257e-05 -0.000743411 
-0.0014994 -0.00178659 0.0352065 
0.0151095 0.0100692 0.021927 
0.00709983 0.00526688 0.0139645 
0.00450202 0.00669935 0.0306421 
0.00626321 -0.00017505 -0.00512876 
0.00215412 -0.00221571 0.00477461 
0.0144338 -0.0113903 0.0178279 
-0.00372449 0.00509615 -0.00799039 
0.0131951 -0.0037771 0.00978699 
0.0166447 0.0140172 0.0389446 
0.00967175 0.00723489 0.00258602 
0.00587066 -0.0154974 -0.0118865 
0.0177404 0.0251767 0.032474 
0.00604724 -0.0131646 0.0151813 
0.00770068 -0.0149698 0.0230512 
0.0204368 -0.0221954 0.0535198 
0.0027246 -0.0173207 0.0133357 
0.00347424 0.00604973 0.0514981 
-0.000681382 0.000488814 0.0488181 
0.00151737 0.00207858 0.0266332 
0.000260138 0.00170923 0.0242755 
0.0131223 0.0119504 0.039267 
0.0120364 0.0158459 0.0605479 
0.00352996 0.0086212 0.0578433 
0.00919686 0.00582942 0.0142824 
0.0094122 0.00268233 0.0726525 
0.00162072 -0.00378371 0.0927691 
0.011625 0.0131515 0.0861124 
0.0194459 0.00366695 0.0942322 
0.000304195 0.00119747 -4.51269e-05 
0.000513574 0.00154847 4.14345e-05 
-0.00222992 -0.00325975 0.0337644 
-0.00557742 -0.0055974 0.0285889 
-0.000444603 0.000191917 0.000439701 
0.00275886 -0.00350399 0.0245303 
-0.0005907 -0.000492452 -0.00167772 
0.00151329 -0.00124739 0.0261479 
0.013978 -0.0118524 0.0386869 
0.00106534 -0.00401332 0.00111684 
0.00476953 -0.0104661 0.0171986 
0.00370191 -0.00488834 0.0177245 
-0.0157944 0.00750947 0.0932254 
-0.0168523 0.00266583 0.0699511 
-0.00941392 -0.00331723 0.0785284 
-0.00342694 0.0011948 0.0551371 
0.00689675 0.0386693 0.0717957 
0.0106501 0.0436749 0.0493806 
0.025133 -0.00718784 0.0536225 
0.0407911 0.00283757 0.172358 
-3.19555e-06 0.000128132 0.0308871 
-0.000557036 -0.0035016 0.0368476 
-1.72317e-05 -0.000127577 0.0433356 
0.000374726 -0.00195657 0.0272205 
-0.00142764 -0.044833 0.205833 
-0.0156255 -0.0396472 0.157932 
0.0337948 -0.0180023 0.111681 
-0.0102216 -0.0191521 0.090905 
0.0800699 0.0128791 0.112917 
0.0339909 0.0310072 0.08707 
0.0396057 0.0358431 0.21589 
0.0394794 0.0299312 0.102623 
0.00706084 -0.00553342 0.218 
-0.0338906 -0.0951766 0.051787 
0.0412295 0.00693106 0.188694 
0.0421952 -0.00527544 0.0987476 
-0.0200686 -0.0406286 0.055484 
-0.0237522 0.0199611 0.100718 
-0.0145391 0.0115274 0.050307 
-0.0148537 0.0238368 0.0609604 
-4.58266e-05 0.00282294 -0.000407581 
-0.00651056 -0.00716918 0.0238772 
0.000441097 0.0015761 -0.000686128 
-0.00537466 -0.00597357 0.00829291 
0.00522305 -0.0109696 0.0787145 
0.0039081 -0.0133603 0.107414 
0.00397841 0.00243944 0.0896668 
0.0146911 -0.0150828 0.103167 
0.00469292 0.00534025 0.0247794 
0.00600492 0.00526192 0.0105135 
-0.00295551 -0.000615861 -0.00417208 
0.00728637 0.00267391 0.0203002 
0.00713472 -0.00198433 -0.00948492 
-0.00550812 -0.00518272 -0.0131291 
0.0309772 0.0118702 0.0365955 
0.0275613 0.0096011 0.0317488 
-0.00559437 0.000345338 0.0384838 
-0.00102073 -8.75802e-05 0.0236558 
-0.00227604 -0.00231415 0.031636 
-0.00463443 -0.000129365 0.0570958 
-0.0333606 -0.0110366 0.105689 
-0.0193539 -0.0444718 0.144114 
0.000468689 -0.0429449 0.213678 
-0.0110908 -0.0187167 0.0854319 
0.0199184 -0.01618 0.423059 
0.00580386 -0.0442431 0.297459 
-0.0400428 0.0252449 0.335535 
-0.0361775 0.122444 0.180831 
-0.00105449 -0.000683721 -0.000424022 
0.00363933 0.00365243 0.032497 
-0.00105234 -0.000643939 0.000362753 
0.00321916 0.00409933 0.0185119 
-0.0302364 0.0288427 0.119921 
-0.0237573 0.025583 0.0320397 
-0.0144621 0.033666 0.107956 
-0.0240926 0.0198634 0.0622347 
0.0123758 -0.0133129 0.0437046 
0.00343691 -0.00462493 0.039465 
0.00259749 -0.00243998 0.0296235 
0.00850104 -0.00862342 0.054234 
-0.00063843 0.000196339 -0.000240415 
-0.000670059 0.000541647 7.0694e-05 
0.00384613 -0.00255211 0.0271954 
0.00179818 -0.000917949 0.0266237 
0.0156988 0.011998 0.0407433 
0.010097 0.01555 0.0847688 
0.00333498 0.00731658 0.0533547 
0.0116124 0.0163564 0.0620488 
0.0023034 0.00575574 0.0284284 
-0.000184502 0.00410556 0.020826 
-2.34265e-05 0.00382508 0.03527 
-2.23928e-05 0.000639454 0.02398 
-0.000102205 0.000794317 0.072483 
0.00411126 -0.00332746 0.069446 
-0.000351121 -0.000914629 0.07148 
0.00330539 -0.00419573 0.0855327 
0.0330316 -0.0433025 0 
0.00724162 -0.0333421 0 
-0.0283776 0.0274429 0 
-0.00744602 -0.0520157 0.125238 
7.60827e-06 -0.000120511 0.0433735 
-0.00098709 -0.00360043 0.0362371 
0.00015462 -0.00560128 0.0591924 
0.00056472 -0.00228592 0.0267835 
-3.69911e-06 -9.93965e-05 0.0497526 
0.00419705 0.00414908 0.0582999 
-0.000128897 -1.19179e-05 0.0391684 
0.00187126 0.00173955 0.0238158 
-0.000415676 0.000592822 0.000515203 
-0.000241239 0.00022748 0.0185007 
0.00218159 -0.00268141 0.0313235 
0.00122595 -0.00128662 0.0239419 
0.00293571 -0.00136309 0 
0.00111118 -0.00536369 0 
0.00168593 0.00588044 0 
-0.020106 0.0116599 0.00524242 
-0.00964241 -0.0122817 0.0198301 
-0.00661302 -0.00476585 0.04728 
-0.0172808 -0.0139653 0.064724 
-0.0125542 -0.0150151 0.0335099 
0.00393708 0.00417903 0.0332861 
-0.00142878 -0.00134593 -0.000283823 
0.00336497 0.0043786 0.0186909 
0.00093779 0.000684243 0.0236168 
0.0140422 0.0019632 0.0551174 
0.0151411 -0.0149339 0.0575095 
0.0234387 -0.027418 0.0614047 
0.0104171 0.00335049 0.0194424 
-0.0815659 -0.0197177 0.22423 
-0.0337949 0.00483193 0.0270961 
-0.0371911 -0.0379748 0.324379 
0.0031557 0.0102885 0.0468956 
0.00495488 0.00508067 -0.0109309 
-0.00887811 -0.022137 0.0244283 
-0.00275256 -0.00713601 0.00021357 
-0.0160185 -0.0199092 0.0252074 
0.000253157 0.000474877 0.0360818 
-0.00534952 -0.00518701 0.0441227 
-0.00379433 -0.00379045 0.0511764 
-0.00121466 -0.00132955 0.0214376 
-0.0150318 0.017695 0.0579207 
-0.0145957 0.00776304 0.092948 
-0.0155409 0.00168912 0.0707878 
-0.0231312 0.000999137 0.102984 
0.000694445 0.0142322 0.0600506 
0.0190404 0.0107222 0.0327705 
0.0036515 0.0224197 0.0531349 
0.0114187 0.0122915 0.00379056 
0.0057009 -0.0092213 0.0797827 
0.00574631 -0.000145588 0.0904093 
-0.000230009 -0.0135027 0.10348 
0.000423603 -0.00342419 0.0847697 
0.00541799 -0.00858499 0.0768964 
0.00538633 -0.00428983 0.0690437 
-0.000636835 5.03806e-05 0.0721816 
0.00431735 -0.00510174 0.0541756 
-0.00252859 0.000345291 0.000514599 
0.00647842 0.00716174 0.00763161 
0.00799059 0.0104618 0.0161357 
-0.00200764 0.00389091 0.0017648 
-0.0876063 -0.0139933 0.106103 
-0.0510526 0.0548052 0.213053 
-0.0136187 0.0479051 0.0816214 
-0.0332735 0.00992562 0.0447631 
-0.00274232 -0.00136117 0.0319247 
-0.00161052 0.000523645 0.0237701 
-0.000549365 -9.89476e-06 0.0447647 
-0.00358658 -0.00124425 0.0568806 
5.03179e-06 3.14774e-05 0.0176029 
-3.93018e-05 0.000455829 0.00037052 
0.00135124 -0.00150137 0.0284376 
0.000659035 -0.00130052 0.0246831 
0.000443242 0.00317065 0.220584 
0.0397127 -0.0209026 0.221577 
-0.0718985 -0.0136512 0.14488 
-0.0805036 -0.0228867 -0.059905 
0.015457 0.00334704 0.23887 
-0.0645849 -0.0279714 0.0716626 
0.022733 -0.0239555 0.147275 
-0.0390416 -0.0101021 0.12345 
0.0107595 -0.0122658 0.0411051 
0.00562373 -0.0112564 0.0168953 
0.01879 -0.0144834 0.0243026 
0.00968867 -0.0223983 0.0525523 
0.00266947 -0.00287406 -0.0065772 
-0.0107971 0.00425842 0.0110434 
-0.00816905 0.000816296 0.00582901 
-0.00432653 0.00153667 0.00539976 
0.0171804 -0.0248586 0.117573 
-0.000769703 -0.0156861 0.101091 
0.00194284 -0.0214764 0.195194 
-0.00928358 -0.027104 0.0941576 
0.0021287 0.000311609 -0.0114198 
0.0150019 -0.00552741 0.00406578 
0.0233458 -0.0631182 0.0970956 
0.0346853 -0.0403304 0.101991 
-0.000435463 0.000197302 -0.000689277 
0.00272951 0.00354998 0.0236501 
-0.000480511 -0.000392826 0.00138041 
0.0011147 0.00083594 0.0241539 
-0.00156925 -4.95999e-05 -0.000318829 
-0.000856414 0.000368976 0.000290536 
0.0039406 0.00278102 0.0328296 
0.00320937 0.00357543 0.0225682 
-0.0123303 -0.0120748 -0.0156672 
0.00704934 -0.00470367 -0.00232844 
0.0645125 0.0800865 0.078294 
0.0220357 -0.00379305 0.0206516 
0.0040827 -0.00556746 0.0372792 
0.000804054 -0.0135505 0.0643997 
0.010979 -0.0165386 0.0646138 
-0.00271806 -0.00506173 0.0339107 
0.0021102 0.00240325 0 
-0.000876897 -0.00215253 0 
0.00186029 0.00465994 0 
-0.00159245 -0.0155422 0.00253157 
-0.00105547 -0.00329181 -0.00160482 
0.00386363 0.00342375 0.0279495 
0.00486532 0.00528248 0.0237122 
0.00563467 0.00540335 0.0191286 
0.00218446 0.00318118 -0.0047897 
-0.00326904 -0.000392277 0.00200268 
-0.0117248 -0.00364543 0.0112373 
-0.00843982 -0.00188482 0.006114 
-0.0131105 -0.00809433 0.0431643 
-0.00591107 -0.00624204 0.0452689 
-0.00890908 -0.00282906 0.0531957 
-0.00365997 -0.00471646 0.0202658 
-0.0168722 0.0313307 0.104413 
-0.0240968 0.0158862 0.063875 
-0.0186385 0.0304786 0.0395909 
-0.0159652 0.0170106 0.0566166 
0.000325683 0.014671 0 
0.00118827 -0.00327664 0 
-0.00111744 0.00520041 0 
-0.0129557 -0.0382132 0.00893237 
-0.0307888 -0.0198941 0.10866 
0.00292832 -0.0194103 0.203279 
-0.00137974 -0.0186838 0.101281 
-0.00991963 -0.0285136 0.0891691 
0.0029841 -0.00343015 0.0305547 
0.00570904 -0.00377773 0.0210002 
-0.000864508 0.00124698 -0.0017352 
0.000658227 -0.00124617 0.0245725 
-0.00893728 0.00333351 0.000110576 
0.0141322 0.00829537 0.0194195 
0.0225519 0.00780168 0.0260429 
0.0291124 0.00551532 0.0191892 
-0.000318084 0.00469292 -0.0157951 
-0.00886525 -0.0274388 0.00718812 
0.00694363 0.00407459 -0.0156404 
-0.0240842 -0.0771831 0.118966 
0.0127733 -0.0112746 0.0410502 
0.00227779 -0.0037098 0.0312243 
0.00368359 -0.00490625 0.0400524 
0.00600624 -0.0051753 0.0188165 
0.00336268 -0.0058784 0.037944 
0.00218554 -0.00664044 0.0619691 
-7.92355e-05 0.000168011 0.0546321 
0.00317756 -0.00470907 0.0549244 
-0.00133046 0.00436368 -4.88431e-05 
0.00506481 -0.00494196 0.0202265 
0.00391998 -0.00607177 0.0367775 
0.00632858 -0.00540449 0.0210205 
0.0237112 -0.0152625 0.0382412 
0.0190924 -0.0244377 0.099195 
0.0141215 -0.011491 0.064007 
0.0122151 -0.0198375 0.104577 
0.0235297 -0.0324695 0.107672 
0.0246615 0.0393569 0.0970197 
0.01329 0.00476819 0.0497247 
0.022857 -0.0168289 0.127151 
-0.000734927 -7.88527e-05 0.000704234 
0.00311564 0.000792669 0.035137 
-8.06955e-05 -0.000110992 0.0213403 
0.000972549 0.000808382 0.0251251 
0.00788769 0.00202499 0.0734676 
0.00694123 5.33979e-05 0.0882535 
0.0073089 -0.00743036 0.070277 
0.00308452 0.00541326 0.0796191 
-0.00961867 -0.00993271 0.0226889 
-0.0118039 -0.0131752 0.0310137 
-0.0039064 -0.00593327 0.0141268 
-0.00244184 -0.00264235 0.0216537 
-0.00349909 0.00290759 0.0307958 
-0.00407807 0.00387746 0.0208507 
0.0018426 -0.00104005 -0.000839968 
-0.00130087 0.00123364 0.0255384 
-0.0135381 -0.0127769 0.0638856 
-0.00311863 -0.0034505 0.0646442 
-0.0038259 -0.00802957 0.0780714 
-0.0165467 -0.0115694 0.0725033 
0.00704697 0.0182554 0.0544288 
0.00440652 0.00502971 0.0217968 
0.0151346 0.0126112 0.0339289 
0.00609469 0.00696299 0.00953285 
-0.00019517 -0.000247524 0.0460285 
0.000390369 -4.42455e-05 0.0440594 
0.000120474 0.000364321 0.0306321 
-0.00113197 -0.00365632 0.0359104 
-0.0162264 0.0109799 0.120794 
-0.00548499 0.00804154 0.156714 
0.0253312 0.0015777 0.117605 
-0.0409155 0.0419433 0.133117 
0.0119279 0.0124407 0.0405882 
0.00614462 0.00811316 0.0549306 
0.00310923 0.00338473 0.0262773 
0.00654894 0.00598334 0.017245 
-0.00602756 -0.00422304 0.0403071 
-0.0131131 -0.0103483 0.0476325 
-0.0158961 -0.0136604 0.0698679 
-0.0131122 -0.0157082 0.0383932 
-0.00105057 -0.000273433 -0.000393252 
-0.000245053 -0.000347204 0.00108881 
0.00111884 -0.00563092 0.0108996 
0.000839269 -0.0028553 0.00354366 
-0.00192444 -0.000150648 -0.00251712 
0.00364329 0.00203679 0.0058784 
3.04329e-05 -0.000512428 -0.000591163 
0.00626589 0.00710538 0.00940466 
0.000380916 -0.000279194 0.048035 
-0.00133323 0.00505224 0.0568393 
-0.000678635 0.00457613 0.03476 
0.000903834 0.00520875 0.0658449 
0.0137145 0.000833298 0.0489946 
0.00523962 0.00701382 0.0232693 
0.00360846 0.00196013 0.0344671 
0.00691296 -0.00105231 0.0231897 
0.0146872 0.0126562 -0.023089 
-0.00519492 0.00161125 -0.00402325 
-0.0309807 0.00784869 0.0347236 
-0.088825 0.0242088 0.155397 
0.0231556 0.039465 0.102628 
0.016757 0.0267197 0.0735596 
0.0210361 0.00627591 0.0130193 
0.0307512 0.00980957 0.0235975 
-0.0130358 0.0279626 0.0660597 
0.0450613 0.00588487 0.0119623 
0.0204444 0.0333163 0.0990827 
0.00322187 0.0281487 0.047352 
0.0303437 -0.0253417 0.100763 
0.0156827 -0.0173226 0.0287675 
0.0110353 -0.0118667 0.0348583 
0.0166571 -0.0143067 0.0661361 
0.000365478 -0.000353652 0.00148936 
-1.02199e-05 8.79357e-06 -0.00210018 
-0.00040512 0.000392971 0.000151327 
0.00251868 0.00248831 0.0169359 
0.00284182 -0.00461784 0.0371178 
0.0108313 -0.0157842 0.0601138 
0.00694758 -0.0108639 0.0790722 
0.00342079 -0.00395646 0.0538562 
-0.00932686 0.00667448 0.00652114 
-0.0197202 -0.00342161 0.0261448 
-0.0351328 0.0324403 0.0500543 
0.00155924 -0.00487851 -0.00619643 
0.0137754 -0.00233262 0.0543878 
0.0165772 0.0128178 0.0619036 
0.0262909 0.0237285 0.0888276 
0.0196173 0.00431888 0.0963975 
-0.0206554 0.0688926 0.0331932 
0.0456165 0.0100411 0.13815 
0.0361416 0.015045 0.0518247 
0.045942 -0.0147706 0.188803 
-0.00744735 -0.00862758 0 
-0.00816817 0.00132952 0 
0.00982029 0.00425667 0 
-0.00885746 0.0070392 -0.000538331 
-0.0037466 -0.0109013 -0.0273204 
0.0450057 0.0502535 0.0992848 
0.00499692 0.013927 0.00359195 
0.0225057 0.00782323 0.0223488 
-0.00974474 -0.0240052 0.0119456 
0.00594424 -0.0135445 0.00121656 
-0.0124334 -0.048008 0.101737 
-0.0168565 -0.031855 0.0851021 
0.00865521 0.0188509 0.0199115 
0.0153124 -0.0134356 0.0682653 
0.0203604 0.032254 0.0786497 
0.0201696 0.042708 0.0478112 
0.0536411 -0.0424832 0.230707 
-0.0414583 0.00738035 0.344522 
0.0347145 -0.0398766 0.28602 
0.0938723 -0.0797932 0.0579282 
0.00612669 0.00473837 0.0601381 
0.0134402 0.0100584 0.0566333 
0.00324521 0.00434179 0.0336207 
0.00449853 0.00151912 0.0531527 
-0.000991254 -0.000961494 -0.000308848 
-0.000426495 -0.000414291 -0.00126266 
-0.000108597 -0.00010458 0.00138778 
0.00266993 0.00029033 0.0162094 
-0.002407 -0.0121692 0.0626127 
0.00664622 -0.00655763 0.0386918 
0.000785174 -0.00675084 0.0607951 
-0.000194885 -0.00619301 0.0353206 
-0.016639 0.0118447 0.0845051 
-0.0636769 -0.0125311 0.018514 
-0.011896 0.0328728 0.0563382 
-0.00403744 0.0465308 0.114701 
0.000518101 -1.39033e-05 0.0442326 
-0.00173197 -0.00381113 0.0350586 
-0.000304552 -4.55873e-05 0.0465887 
-5.76765e-05 -0.00572948 0.0589492 
0.0156938 -0.0090556 0.300687 
0.0549905 0.001952 0.213086 
0.032352 -0.116109 0.170141 
0.0383918 0.105616 0.188188 
0.0271511 0.0266615 0.110779 
0.0204528 0.00393768 0.0984181 
0.00825401 0.0104431 0.0764201 
0.0142953 0.0232414 0.152287 
-0.00139131 0.00135672 -0.00166382 
-0.0085142 -0.00746924 0.00811703 
-0.00826346 -0.00461613 0.013321 
-0.0202841 -0.00828842 0.0232793 
-0.00461967 -0.00305654 -0.00259334 
0.00172505 0.0050983 0.022725 
0.00976797 0.0135774 0.0189942 
0.00691566 0.00726645 0.00769473 
-0.00191869 -0.00337107 0.0349479 
0.000934317 -0.00153598 0.027725 
0.000155905 0.00197303 0.000493699 
-0.000247063 -0.00529401 0.0343023 
0.000128426 1.34453e-06 0.000217812 
-4.09502e-05 0.000180939 0.0213906 
2.21225e-05 -0.000108623 0.0151901 
-0.00201276 0.00186824 0.0318361 
0.00257783 0.00125854 0.0320838 
0.00516165 0.00741418 0.0222978 
0.0144049 0.00104105 0.0510484 
0.0121651 -0.000800344 0.0618686 
-0.000227093 -5.62258e-05 0.000249973 
0.000388446 8.46642e-06 0.0209632 
-0.000311953 2.69393e-05 0.000198878 
0.00207375 0.000520297 0.0353619 
0.013079 0.00143959 0.0511723 
0.00488486 0.00214156 0.0358952 
0.00560224 -0.00755956 0.0243295 
0.00602387 -0.00140631 0.021251 
0.00242219 -0.00329706 0.0147937 
0.0136949 -0.0143018 0.0626787 
0.0214517 -0.012232 0.0359533 
0.015848 -0.0156817 0.0544588 
-0.000118278 -0.000310092 0.000828043 
0.000100669 0.000396717 0.000820658 
8.08555e-06 -3.98534e-06 -0.000345896 
-0.000351886 0.00297907 0.0151646 
0.0162489 0.0161625 0.0375947 
0.0244478 0.0264148 0.0904552 
0.00953623 0.0110782 0.0881452 
0.0118034 0.0147303 0.0632188 
-7.34322e-05 0.000248698 0.0216927 
-0.000124622 -1.80451e-05 9.61512e-05 
9.68562e-05 3.86742e-05 0.0227248 
0.00152666 -0.000159919 0.0280861 
0.00436446 0.00234359 -0.00391876 
-0.015022 -0.00152149 0.00535244 
0.0043675 0.00268806 0.00114159 
-0.00753748 -0.00099197 0.00633376 
0.000116606 0.0012786 0.000216815 
-0.00063969 0.00129608 -0.00122252 
0.00367365 -0.00345385 0.00659885 
0.00154521 -0.00438351 0.0134432 
-0.00109449 0.000819818 -0.00264317 
0.00216974 -0.00467582 0.0188625 
-0.000532328 0.000367988 -0.000372825 
0.00391557 -0.00585764 0.0240868 
-0.00305967 -0.031376 0.303703 
0.057897 0.00104547 0.249444 
0.057511 0.0699949 0.0277838 
-0.0111467 0.00521815 0.219516 
-5.072e-05 9.53981e-06 0.0328445 
0.00039734 0.000168196 0.0490888 
-0.00019161 6.15009e-05 0.0392424 
0.00148321 0.00142301 0.0244731 
0.00168363 -0.000370667 2.82773e-05 
-0.0528611 -0.0164384 0.0490384 
0.0047638 0.00393309 -0.00647335 
-0.00270066 0.00359725 0.000385447 
0.0581011 -0.00748184 0.0618652 
0.0520574 0.0306858 0.172119 
0.0832471 -0.00876892 0.0761878 
0.00320567 0.0234711 -0.0306514 
0.00185664 -0.00267145 0.000112469 
0.00667164 -0.0148284 0.0118024 
-0.00330584 0.00434997 -0.00382951 
0.0056474 -0.00907183 0.0111495 
-0.00107337 0.000486125 0.062211 
-0.00351017 -0.0076452 0.0745922 
0.000783391 7.9005e-05 0.0628609 
-0.000148508 -0.00673454 0.0619816 
-0.0264281 -0.0162543 0.298055 
0.0565575 -0.00361526 0.242981 
0.0408688 -0.00134848 0.169555 
0.0768675 0.043612 0.0170723 
-0.0047681 0.0026024 -0.00271801 
0.00700671 -0.0070619 0.0108009 
0.00801019 -0.010397 0.0183941 
0.00431049 -0.00524635 0.0250839 
0.00431865 0.00680196 0.0505885 
0.00170008 0.00195292 0.0260661 
-0.00161124 0.000284052 0.0506204 
0.00285649 0.0030797 0.0445135 
3.42152e-05 9.35422e-05 0.00021647 
0.00041064 0.000583588 -0.000144489 
-0.00170046 -0.00298429 0.0352575 
0.000475631 -0.000811289 0.0279091 
0.0089749 0.00211303 0.0718916 
0.00632951 -0.00387017 0.0707529 
0.00535458 -0.000621499 0.0551259 
0.00350653 0.00253358 0.079763 
-0.00788821 0.0278611 -0.0532915 
-0.0497319 -0.0253368 0.0538981 
-0.0391192 0.00604807 0.0293438 
-0.0475318 -0.0479482 0.217469 
0.00854267 -0.00376335 -0.00488185 
0.00872758 -0.002796 -0.00740163 
-0.0621975 0.0256956 0.0635079 
-0.00216971 0.00503597 0.000628892 
-1.88795e-05 -9.78763e-05 0.000793744 
-1.28988e-05 9.99439e-05 -0.00173377 
4.27793e-05 9.65461e-06 0.00109574 
0.000476342 -0.00418675 0.016117 
0.00943381 0.0198144 0.0205445 
0.00801886 0.0177861 0.0173394 
0.00208082 -0.00657462 0.00267613 
0.00238715 0.00761809 0.0024298 
-0.00233215 0.0109244 0.0830219 
0.00824843 0.0141074 0.0895792 
-0.000507802 0.0117847 0.0593111 
0.000651105 0.00418371 0.0622699 
-0.0154335 -0.0109155 0.0531504 
-0.00841901 0.0107485 0.0360974 
-0.0190322 0.00154849 0.0401254 
-0.00411002 -0.000798273 0.0214611 
0.000812663 0.00154935 -0.00456018 
0.00961424 -0.0152612 0.00804318 
-0.000320371 -0.00221661 -0.00142253 
0.00217292 -0.00607987 0.016936 
2.83684e-05 0.0196237 0.0472237 
-0.0238116 0.0163562 0.0945525 
0.0109981 0.0235783 0.112585 
-0.00359452 0.0213934 0.0982266 
0.00268347 -0.00599501 0.0203467 
0.0120688 -0.0143813 0.0620359 
0.0116929 -0.0037189 0.0180725 
0.00888549 -0.0152325 0.0520547 
0.00940308 0.0108014 -0.01391 
-0.0120266 -0.0198161 0.0252084 
-0.00637215 -0.0229056 0.017646 
-0.00036669 -0.00100417 -0.00161561 
0.0100349 0.00315358 0.0721367 
0.0156588 0.0091193 0.0615155 
0.00477836 0.0059758 0.0605395 
0.00321006 0.00208286 0.0504099 
-0.00276938 -0.00156929 -0.000385935 
0.00439522 0.00492224 0.0225318 
0.00457563 0.00390478 0.0330771 
0.00339532 0.00450173 0.0176984 
0.00407499 0.0033609 0.0348159 
0.0144026 0.013173 0.0575893 
0.0106926 0.0119685 0.0389212 
0.00347924 0.0051438 0.0127597 
-0.0431364 -0.0125029 0.0511427 
-0.021421 -0.0175569 0.0238356 
0.00223022 0.00170011 -0.00430848 
-0.0048865 0.00285545 -0.000408278 
0.0133327 -0.00983766 0.0402393 
0.00777976 -0.00368841 0.0163003 
0.00274693 -0.00730926 0.0414101 
0.0124343 -0.016647 0.0612257 
0.000274178 9.11108e-05 0.0358409 
-0.000138397 7.03861e-05 0.0437771 
-0.0050897 -0.00450549 0.0432491 
-0.00149465 -0.0016193 0.024819 
0.0176842 0.00732294 0.021505 
0.0122014 0.0290141 0.0713793 
0.0167111 0.00888905 0.0222549 
0.0354812 0.00744994 0.0255064 
-4.07709e-05 -0.000764138 -0.00144656 
0.00258955 0.00411489 0.0260888 
-0.00037699 -0.000568081 0.00104017 
0.000442806 0.0034041 0.0214615 
0.0110342 -0.00180213 0.447466 
-0.0721136 -0.0377289 0.25889 
0.0802325 0.0766263 0.291864 
0.109741 0.116104 0.108348 
-0.0271244 -0.0306915 0.109593 
-0.030547 -0.0266678 0.132835 
-0.0492063 -0.0383907 0.00831973 
-0.019432 -0.0400953 0.169599 
0.0197823 0.0529845 -0.00412985 
0.0349171 0.00780791 -0.0362651 
-0.0170091 0.0329728 0.0658676 
-0.0604091 0.0464039 0.11174 
0.000719416 -0.000863843 -0.000642355 
-0.00210393 0.00152954 0.0257598 
-0.00433309 0.00376457 0.0373248 
-0.000995011 0.00149181 0.0284824 
0.00663591 0.00721809 0.022964 
0.00635604 0.00615183 0.00994838 
-0.00100419 -0.00281899 -0.00189149 
0.00435182 -0.000917915 0.00349582 
-1.98742e-05 2.23444e-06 0.000161688 
0.000704062 -5.98321e-05 -0.000183274 
0.000266127 -1.98422e-05 0.000726547 
-0.00136582 0.00178597 0.0205533 
-0.00214271 -0.000201065 -0.00248084 
0.00414405 0.00268572 0.0160595 
-0.00119172 -0.000159849 0.000287055 
0.0041569 0.00321529 0.0168998 
-0.000775551 0.0142302 0.048619 
0.00780526 0.00505853 0.0254896 
-0.00154349 0.00399244 0.0337958 
-0.00119526 0.0119571 0.0597059 
-0.000597831 -0.000210372 -0.000123142 
-0.00142296 -0.000503403 -0.000289454 
0.00337328 0.00102216 0.0344992 
0.0047961 0.0027373 0.0267748 
0.00213937 -0.000294385 -0.000537011 
0.00349 -0.000226908 -0.000278103 
-0.00095415 -0.0102108 0.00487163 
-0.00219174 -0.00104775 0.00222362 
0.00409407 0.0151152 0.0212889 
0.0102784 0.026949 0.0168277 
0.0233079 0.0295625 0.0707262 
0.0190924 0.0102942 0.071136 
-0.00105478 0.000530354 0.070013 
0.00576993 -0.00262705 0.0893823 
0.00569703 -0.00336472 0.0690517 
0.00184188 -0.00406373 0.0868194 
-0.00125195 -1.39306e-05 -0.000126581 
0.00370538 0.0031509 0.0333577 
0.00361923 0.00369113 0.0226353 
0.000751377 0.000813169 0.0247256 
-0.0783563 -0.026184 0 
0.0518764 0.0380911 0 
-0.0497044 -0.0167147 0 
-0.0627846 -0.0182819 0.234534 
0.00317078 1.75556e-05 0.449613 
-0.00709486 -0.0377307 0.27065 
0.0193706 0.0125056 0.31818 
0.0951363 0.107187 0.0978231 
0.00165897 -0.00438751 -0.00687984 
-0.0178126 0.0139127 0.0184685 
-0.000717589 -0.00564414 -0.00520133 
-0.00855813 0.000682514 0.00983633 
0.0142832 0.00856836 0.021415 
0.00455196 0.00555525 0.0290835 
0.00532562 0.0051179 0.0175406 
0.00523266 0.00159251 -0.00108225 
-0.00153321 -0.000189263 0 
-0.00382817 0.000206406 0 
0.00408749 0.00051976 0 
-0.000998711 0.0054828 -0.000341119 
0.0241051 -0.0211533 0.0765839 
0.0163639 -0.00828595 0.07848 
0.0101174 -0.0202232 0.0406431 
0.0114643 -0.0135601 0.0542989 
0.00243338 -0.00512648 0.0342801 
0.00991923 -0.013653 0.0603572 
0.00550413 -0.00609947 0.0226629 
0.00822323 -0.013689 0.051713 
0.0197683 -0.0223971 0.316476 
0.00615118 0.0186824 0.279801 
-0.00713791 0.0060176 0.412333 
0.0278447 -0.0416703 0.295129 
-0.00421865 0.00106869 0.0373159 
-0.00155115 0.000975826 0.0259878 
0.000933783 7.95059e-05 -1.11268e-05 
-0.00132868 -0.000122536 0.0229169 
-0.00404886 0.0145522 -0.0107786 
-0.00543225 -0.0112552 -0.00754874 
-0.0250984 -0.0482163 0.0640105 
-0.0233265 0.000786985 0.037706 
0.00534203 0.00478029 0.0246055 
0.00989006 0.00729876 0.0168596 
0.00397479 0.0179817 0.0485038 
-0.00334521 0.00816518 0.0126729 
-0.00677309 0.00236212 0.0599019 
-0.000951206 0.000242121 0.0254764 
-0.00263209 0.0040082 0.0319624 
-0.00668481 0.00503093 0.0403661 
-0.000611206 0.0010224 0.0761317 
-0.000189225 0.00102059 0.061001 
-2.17716e-05 -0.00722407 0.0615463 
0.000373372 -0.00570827 0.0847592 
-0.0284001 -0.0191097 0.0631059 
-0.0107779 -0.0165434 0.0646069 
-0.02894 -0.0295442 0.102408 
-0.0305521 -0.0191054 0.0300582 
0.003349 0.00309141 0.0270377 
0.00346352 0.00430873 0.0182186 
-0.00161709 -0.00118935 0.000677461 
0.000939006 0.000656544 0.0235427 
0.000491697 -0.000133224 0.000250477 
-0.00234607 0.00203287 0.0315976 
0.000235014 -0.000223835 0.0153934 
-0.00146576 0.00133666 0.0261421 
0.00185469 0.00255113 -0.00227092 
-0.00824507 -0.00702751 0.0255119 
-0.00806593 -0.00397544 0.011257 
-0.00501472 -0.00202293 0.013097 
0.00036675 1.81793e-05 0.0755198 
0.00314608 0.00479134 0.0852111 
0.00532911 0.00534944 0.0602027 
0.0037546 0.00267567 0.0783052 
2.64542e-05 -0.000169497 0.0772162 
0.000891642 -6.37866e-05 0.0631291 
-0.000188185 6.7264e-05 0.0626285 
-0.00393894 -0.00720677 0.0738315 
0.000474151 -0.000464251 -0.000453716 
0.00090717 -0.000303171 0.000524073 
-0.00311503 0.00326043 0.0199057 
-0.00169292 0.000943855 0.0241681 
0.0251961 -0.000837586 0.0264284 
0.0169296 0.00494248 0.005404 
0.0644681 0.0564863 0.127536 
0.0244326 -0.0099515 0.0150767 
0.0034964 -0.0042257 0.037633 
0.000749057 -0.00201146 0.0284521 
-0.00112676 0.00161326 7.67494e-05 
0.00188399 -0.00149758 0.0248437 
-0.000668893 -0.00150075 0.00154051 
0.00360183 0.00404312 0.0244156 
-0.00101468 0.000316549 -0.00100499 
0.00528638 0.00137167 0.0206491 
1.753e-05 0.000729142 0.000468719 
0.000459348 -0.00165843 0.0264476 
0.000553388 0.00061836 0.000313849 
2.80867e-05 -0.00360951 0.0345786 
0.0210094 -0.00680987 0.0299113 
0.00891806 -0.0210288 0.0818009 
0.0207855 -0.0124238 0.0172812 
0.0442954 -0.012179 0.0518425 
-0.000893675 -0.000340719 0.0628764 
0.00562065 -0.00183156 0.0710805 
0.00647908 -0.000309171 0.0880344 
0.00485477 0.000857285 0.0790811 
-0.00404793 0.00603476 0.01552 
-0.0020758 0.00186439 0.00316818 
0.00101338 -0.0023952 -0.00120496 
-0.00274873 0.000895178 0.00445748 
0.00469958 8.1974e-05 -0.00731286 
-0.0251115 -0.0464072 0.0603313 
-0.00804335 0.00789866 -0.00575223 
-0.00139386 -0.00757866 -0.00647349 
0.00132047 -0.000561179 -0.00129634 
-0.00314091 0.00297043 0.03078 
-0.00173654 0.000944617 0.0264933 
-0.00230886 0.00365084 0.0158311 
-0.0122378 -0.0103749 0.0277414 
-0.0138081 -0.0150238 0.0609612 
-0.00243072 -0.00164298 0.0238075 
-0.00725488 -0.00829335 0.0481118 
0.00217446 0.00450881 -0.0206958 
-0.0383591 -0.0376075 0.0702977 
-0.0285541 -0.0318183 0.00245254 
-0.0162733 0.0136928 0.0598762 
0.0107617 0.00955071 0.0884192 
0.0040479 -0.0004417 0.0904837 
0.00952217 0.00276828 0.0725895 
0.00428961 0.0024159 0.0760525 
-0.00936181 0.00416895 0 
0.00802959 -0.00126116 0 
0.00119725 -0.0285766 0 
-0.0102917 -0.0534206 0.0602678 
0.00507328 -0.00271019 0.120546 
0.0140965 0.0156142 0.0847482 
0.021013 0.00349558 0.0984677 
0.0107884 0.0201535 0.147301 
-0.00437375 0.00361007 -0.00130573 
0.00099987 -0.000861922 -0.00211773 
0.0131128 -0.00898818 0.00695762 
0.00567089 -0.00188825 0.00613204 
-0.0135897 0.0077176 0.0940056 
-0.0211794 0.0281449 0.0690694 
-0.0259132 0.0249995 0.121906 
-0.0203288 0.00378285 0.116266 
0.000550638 0.000510957 0.0377032 
-0.00116186 0.000290204 0.0229683 
-0.0050603 0.000494391 0.0376415 
-0.00429473 -0.000600089 0.0577939 
-0.0168613 -0.0168649 0.052844 
-0.0171327 0.00284844 0.0673606 
-0.0209425 0.00340361 0.0976476 
-0.0160916 0.0187545 0.0620622 
-0.0352746 -0.0753133 0.0307098 
-0.0304933 -0.00624816 -0.0307941 
0.0506689 -0.0176605 0.0726056 
0.0603705 -0.0654909 0.214153 
-7.21314e-05 0.000820846 0.0451548 
0.00567617 -0.00355096 0.0440684 
0.0019284 -0.00036811 0.027599 
0.00325311 -0.00312924 0.0476686 
0.00477488 0.00807236 0.0525482 
0.00453672 0.00523782 0.0267213 
-0.00210649 0.00412978 0.0365146 
0.00167208 0.00179802 0.0264079 
0.000689855 -6.4551e-05 -0.000140884 
0.000487133 -4.09644e-05 0.000254282 
-0.000404831 2.64821e-06 -0.00261662 
-0.00559201 -0.00385639 0.0283319 
-0.000457615 -0.000156425 -0.0022169 
-0.000159001 -0.000402739 0.00118391 
0.00293617 0.0030093 0.027043 
0.00198307 0.0030692 0.0172384 
0.0122366 -0.0127917 0.042533 
0.00856398 -0.00821578 0.0527469 
0.0145737 -0.0102931 0.0774601 
0.020568 -0.0176921 0.100579 
0.00447001 0.0179982 0.00299189 
0.0396383 0.0346145 0.0987881 
0.0467211 0.025371 0.114686 
0.0195401 0.0131964 0.0206964 
0.00106341 0.00182752 0.187715 
0.00413172 0.00418187 0.255996 
-0.0145623 0.0173179 0.215326 
-0.0330748 -0.120979 0.0956027 
-0.00462463 0.0101599 0.0836468 
0.0133964 0.0126661 0.0885342 
-0.00389693 0.022146 0.0974669 
-0.000945766 0.0119811 0.0593917 
-0.0302881 -0.0345712 -0.085272 
-0.0841819 0.0271525 0.184627 
-0.0590827 -0.0618995 0.0905898 
0.00689262 -0.0877332 0.228974 
-0.000471587 0.00153207 0.095701 
0.00332751 4.87378e-05 0.0897551 
4.95979e-05 0.000337397 0.0845316 
0.000558634 -0.00448293 0.0850628 
6.54692e-06 -0.000213979 0.0495078 
0.0053769 0.00457287 0.0603948 
0.00457685 0.00388835 0.0335849 
0.00399729 0.00284351 0.0525176 
-0.0138232 -0.0228315 0.0627058 
0.00582067 -0.0224866 0.104598 
-0.00642403 -0.00891799 0.201403 
0.0010102 -0.0713856 0.0506777 
0.000111367 -0.000372515 0.0553885 
-0.00594104 -0.00497937 0.0457074 
6.91065e-05 0.000328962 0.0431143 
-0.0045314 -0.00347742 0.0649147 
0.0216934 0.066009 0.0865635 
0.0100289 0.0191756 -0.000552839 
-0.00312965 -0.00992628 -0.0235495 
0.0368499 0.0417846 0.106491 
-0.000345138 2.40031e-05 0.0207464 
0.00340239 0.000548914 0.0357686 
0.00026988 3.08975e-05 0.0371815 
0.00107114 0.000870866 0.025361 
-0.00496556 0.00490063 0.0380961 
-0.00393335 0.00435213 0.0199092 
-0.00337449 0.00305614 0.0322013 
-0.00154956 0.000697207 0.0247773 
-0.013191 0.00815002 0 
-0.00581976 0.00239342 0 
0.000155506 -0.00556093 0 
0.0386918 -0.0131427 0.00638854 
-0.000248203 -0.000474258 -0.000918628 
-0.00133992 -0.000788792 -0.00382879 
0.00406692 0.00588814 0.0213568 
0.00206996 0.00439195 0.0175554 
0.0116508 0.00597084 0 
-0.00187325 0.00414055 0 
-0.000393142 -0.000365331 0 
-0.00873976 -0.0138238 0.00222258 
-0.00338887 -0.00280771 -0.00859687 
0.0069971 0.0359421 0.0222358 
0.000746953 0.00441348 -0.0027895 
0.00328722 0.000902293 0.00472518 
-0.00274104 0.0161742 0.0541218 
0.0206203 0.0240077 0.0874412 
0.015437 0.0159238 0.0658103 
-0.00467504 0.0214634 0.101062 
0.0143482 -0.00726269 0.0734899 
0.0147962 -0.0145356 0.0542575 
0.0261822 -0.0229356 0.0901543 
0.0180488 0.00582674 0.1023 
0.000668389 0.0024221 -0.00160179 
-0.000544786 -0.00109866 0.00122103 
0.000710298 -0.00364133 0.00383311 
0.000359962 -0.00311979 0.00316527 
0.000704563 0.000263385 0 
-0.00263371 0.000249607 0 
-4.79359e-06 0.0017078 0 
0.0103853 -0.000346854 0.00198173 
0.00419131 0.00363249 0.0343308 
0.00385371 0.00501483 0.0237489 
0.0127589 0.0112716 0.0552509 
0.00415001 0.00577962 0.0143791 
-0.00862603 -0.0212865 0.021567 
-0.0132496 -0.022076 0.0225058 
0.0217207 -0.00579669 0.00305456 
-0.0374282 -0.0450498 0.0691767 
-0.000470243 0.000695144 0.000667631 
-0.000317374 0.000857786 -0.000484982 
0.00466307 -0.00329592 0.0214387 
0.0012355 -0.00135661 0.0226533 
0.000708091 -0.000389563 0.0145368 
-0.00311377 0.00227389 0.0329602 
-2.40758e-05 -5.36641e-05 0.0314237 
-0.00155617 0.00122103 0.0261616 
0.0013562 0.00074182 0.0712187 
1.10963e-05 -0.00695187 0.0612517 
-0.000272704 0.00051974 0.0618082 
0.000410379 -0.00541046 0.0844248 
0.00150727 0.0218752 0.115446 
-0.0331423 0.0343852 0.0273131 
-0.0318029 0.0283305 0.119476 
-0.0381282 0.0524871 0.0879161 
0.000287446 -0.000583322 0.000767097 
-0.00132836 0.00154955 0.0243279 
0.000102513 -0.000788875 -0.000676832 
-0.00383282 0.0023141 0.019692 
0.0140623 0.0136127 0.0640892 
-0.000982821 0.0251455 0.102597 
0.0118919 0.0110868 0.0858604 
-0.00202294 0.0136123 0.0597558 
0.0336056 0.010488 0.148523 
0.0174488 0.00522621 0.0966071 
0.0241011 0.0369962 0.1028 
0.0216762 0.0166018 0.1591 
1.97106e-06 -0.000107706 0.015332 
-5.77106e-06 4.47511e-05 -6.89425e-05 
-7.40538e-05 0.000254549 0.000393824 
7.04737e-05 -0.00128102 0.0282267 
0.00563195 0.00619172 0.156535 
0.0074306 -0.00257067 0.186088 
-0.00594037 0.00963814 0.215352 
-0.0490006 -0.113809 0.104619 
-0.0291933 -0.0177328 0.0665065 
-0.000375074 -0.0174016 0.0720911 
-0.00974228 -0.0150876 0.0599123 
-0.0190915 -0.0120081 0.040691 
0.0202914 0.0194299 0 
0.0222128 0.0179228 0 
-0.0137561 -0.0515814 0 
-0.0505069 -0.0874463 0.110317 
0.00303427 -0.000258887 -0.00155145 
-0.0046135 0.00668056 0.0107434 
-0.00477416 0.00665991 0.0067191 
0.00265793 0.00162133 0.000238209 
0.00432692 -0.018013 0.185041 
-0.00449987 -0.0152096 0.108437 
0.0188286 -0.0257731 0.115346 
0.0182099 -0.0121541 0.0994527 
0.0207871 -0.00470828 -0.0294667 
-0.0157324 0.00893447 0.0389854 
-0.0193151 0.0034653 -0.0238721 
-0.0921473 0.0199318 0.176938 
0.00592383 -0.0132708 0.0179878 
0.0162022 -0.011335 0.0533973 
0.00313843 -0.00534473 0.0219961 
0.00951086 -0.00397221 0.0270865 
0.00372752 -0.00455179 0.0379152 
0.00319892 -0.00447954 0.0540703 
-0.000960293 -7.43926e-05 0.0368032 
0.00167987 -0.00127315 0.0235731 
-0.00169786 -0.0176123 0.105772 
0.0154963 -0.0147787 0.0668869 
-0.00255737 -0.0169674 0.0634127 
-0.00523453 -0.02247 0.0969985 
0.00678993 -0.0494058 0.104028 
0.0305814 -0.0265443 0.0515972 
0.0108423 -0.0270766 -0.00595391 
0.0104616 -0.0634342 0.173302 
-0.000293138 0.00426247 0.0365456 
0.00236929 0.00185076 0.0266268 
0.00197414 0.00505319 0.027025 
0.000386212 0.000810085 0.0240426 
0.0076666 -0.014607 0.0151078 
0.00820484 -0.00733003 0.0132562 
4.72462e-05 -0.00274469 -0.00769278 
0.0131431 -0.0346743 0.0457645 
0.0107222 -0.0232013 -0.0234646 
-0.00652192 -0.0565105 0.0155008 
-0.021534 0.000342576 0.0438621 
-0.0451593 -0.037534 0.125001 
0.00262455 0.000811644 -0.00137698 
-0.00235122 -0.00115425 0.00293347 
-0.00219336 -0.00332638 0.00377551 
-0.00331402 -0.00215887 0.00835696 
-0.00161669 0.000805787 -0.000159154 
0.00151263 -0.000489762 0.0274717 
0.00417136 -0.00401408 0.0248802 
0.00144919 -0.00175011 0.0269832 
8.75095e-05 -0.00932721 -0.00102703 
-0.0259034 -0.0123237 0.0274539 
-0.0049157 -0.025227 0.0210358 
-0.0250794 -0.0552753 0.0944329 
0.00194241 -0.00277517 0 
-0.00228106 -0.000473611 0 
-0.00286132 0.00210824 0 
0.00566916 -0.0115715 0.00782305 
0.0283 0.032389 0.0734111 
0.0248126 0.0347714 0.103353 
0.0355728 0.010497 0.152195 
0.0222763 1.29729e-05 0.103798 
0.0059915 -0.00347139 0 
0.0048948 -0.00861433 0 
0.00638942 -0.0190725 0 
-0.0347801 0.0949971 0.0239098 
-0.00190377 0.00443713 0.035087 
0.00628498 0.00526315 0.0272152 
0.000170253 0.0129825 0.0450506 
-0.000756738 0.004135 0.0210828 
0.000101384 0.00383838 -0.00170707 
-0.000353922 -0.0088742 0.0345294 
0.00453524 -0.00599225 0.0227676 
0.00135833 -0.00543556 0.0121683 
-0.00103667 0.000406837 -0.00118119 
0.00360256 -0.00410789 0.019587 
0.00299899 -0.00338879 0.0308305 
0.000961597 -0.00139904 0.0266474 
0.00139637 -0.00286475 -0.000800374 
-0.00490125 0.00525389 0.0377387 
-0.00442472 0.00372292 0.0201677 
-0.00328947 0.00386666 0.0254908 
0.00744409 0.0144598 0.0212209 
0.012203 0.0116892 0.0371634 
0.0158315 0.0186731 0.027824 
0.0150086 0.0174547 0.0613891 
-0.000347398 -0.00111924 0.000271876 
0.00312095 0.00343068 0.0246065 
-5.44686e-05 -0.000488983 0.000215387 
0.00147832 0.00175706 0.0253397 
0.0101464 0.00925428 0.0872451 
0.000588462 0.00553937 0.0842098 
0.00455009 0.000819624 0.0906906 
0.00461004 0.00186348 0.0771848 
0.0123797 -0.0126171 0.0556925 
0.0248678 0.000885029 0.0979959 
0.0124603 -0.00893682 0.0763254 
0.0115297 -0.00319483 0.057596 
0.000834612 0.00065036 0.0349657 
-0.00574169 -0.00536012 0.0450317 
-0.000119594 -0.000170618 0.0553698 
-0.0038336 -0.00394951 0.0516719 
-0.000613629 0.000160264 0.00110039 
-0.000263064 0.000101972 -0.000763024 
-0.000213842 3.8418e-05 0.0010305 
-0.00339005 -0.00184978 0.0257083 
0.0406182 0.0378513 0.0816026 
0.0238985 0.0223151 0.204649 
0.0187001 -0.000635574 0.108335 
0.0417548 0.0351793 0.00129356 
0.00850423 -0.0020975 0.418253 
-0.00582373 -0.0139514 0.219069 
-0.040476 0.0391267 0.366356 
-0.0698505 -0.0235104 0.167803 
0.00693322 0.0323701 0.0512362 
0.0134337 0.00627984 0.00555832 
0.0107037 0.000232563 0.034015 
0.0195228 0.032446 0.0340012 
-0.00839941 -0.00591526 0.0178807 
-0.0137454 -0.0145571 0.0739568 
-0.028971 -0.0186699 0.0543364 
-0.0252578 -0.0227483 0.031536 
0.0260961 0.0313834 0.0940879 
0.0126966 0.0108209 0.0335391 
0.0156678 0.0202176 0.0279939 
0.0177681 0.0162494 0.0647902 
0.00533984 -0.00370332 0.0439646 
0.00111412 -0.00135265 0.0261152 
0.00213192 -0.00071734 0.0284169 
0.00305102 -0.00283346 0.0469437 
-0.00157444 0.0160823 0.0533013 
0.0141761 0.00964522 0.0128445 
-0.00335836 0.0222858 0.0448057 
0.000931705 0.00724945 0.00981325 
0.0298772 -0.000634135 0.0573845 
0.028215 -0.0211115 0.0673018 
0.00511795 -0.0142543 -9.89502e-06 
0.00632291 -0.00177338 0.0159741 
0.00127219 -0.000212403 0.0492878 
0.000220036 -0.000290398 0.0398983 
-0.00102711 0.0042518 0.0345512 
-0.00187984 0.00504322 0.0560409 
-0.00010358 7.06197e-05 0.000619045 
0.000557899 0.00134642 -0.00132228 
0.000199072 -5.76747e-06 -0.000558867 
0.00775647 -0.00622134 0.00701148 
-0.0196212 0.0209623 0.0160958 
-0.0124135 0.0369824 0.0510842 
0.0079196 0.00203512 -0.0123359 
-0.019727 0.0526907 0.0842159 
-0.0164407 0.0477862 0.05981 
0.0138998 0.0209689 0.0399764 
0.0232292 0.012354 0.106524 
-0.000804344 0.0396415 0.119733 
-0.00302287 -0.0153103 0.0655222 
-0.0138547 -0.0136981 0.0646398 
-0.00471215 -0.00830899 0.0759502 
-0.00498819 -0.015851 0.104782 
-0.000647436 -0.00031116 0.0633316 
0.00492006 -0.000100209 0.055202 
0.00561867 -0.00187595 0.071048 
0.00505572 0.00102016 0.0795432 
-0.000145919 0.000451302 0.043496 
-0.000256188 -0.000276253 0.0553326 
0.000502137 0.000424515 0.0346327 
-0.00546448 -0.0051751 0.0453347 
0.000967626 0.00127916 -0.00155188 
0.000253642 -0.00120904 0.00370394 
0.000772097 -0.000133034 -0.00145729 
-0.00216741 -0.000692877 0.00286632 
0.000251781 0.000143469 0.000446546 
-0.00224484 -0.00111503 0.0315947 
0.000300002 4.25118e-05 -0.000574585 
-0.000998635 -9.23201e-05 0.0241537 
0.00277046 0.00693594 0.0519443 
0.0019446 0.00168055 0.0264172 
0.000452422 0.00469796 0.0370492 
0.000332589 0.000602725 0.0238315 
-0.0160141 -0.00967944 0.0334062 
-0.00737544 -0.0352106 0.0275171 
-0.0252854 0.00542169 0.0661231 
-0.0202793 -0.0270044 0.0876902 
-5.59635e-06 9.3453e-06 0.000586459 
0.000129899 0.000235204 0.000204989 
-3.17689e-05 -6.47809e-05 -0.000271938 
0.000330741 0.00146174 0.000963281 
-9.12018e-05 1.61577e-05 0.0313753 
0.000345342 -0.000166247 0.0146247 
6.59381e-05 0.000195633 0.0212655 
-0.00266946 0.00196142 0.032941 
-0.00543966 0.000870536 0.0378209 
-0.00596713 0.0016604 0.0601318 
0.0010391 -4.40046e-05 0.0368199 
-0.00398897 -0.000849714 0.0581438 
-0.00790611 -0.00582578 -0.00333876 
0.00947412 -0.00963206 0.00340929 
-0.00491153 0.00123068 -0.0112285 
0.0263273 -0.0182357 0.035965 
-0.016417 -0.00457333 0.0535621 
-0.0074917 0.00651416 0.0357632 
-0.00701902 -0.0012432 0.0220849 
-0.0162906 0.00146015 0.0683435 
0.00292612 -0.000865143 0.0890557 
0.016621 -6.24978e-05 0.100377 
0.0179541 -0.00958389 0.0752253 
0.0163605 -0.0125068 0.101716 
-0.000304278 -0.00142344 -0.000601985 
-0.000369792 0.00395856 0.0341532 
-0.00119088 0.00328923 0.0203833 
0.00103377 0.00124682 0.0250249 
0.000588037 -0.000491621 0.0605006 
0.00219195 0.00482004 0.066773 
-0.000112256 -5.03483e-05 0.064908 
0.00260989 0.00384829 0.0442208 
0.0102018 0.0111427 0.0805368 
0.00123591 0.00481571 0.0840763 
0.00748937 0.00554329 0.0611758 
-0.00065719 0.00534339 0.0672444 
-0.0126955 -0.0080305 0.0452962 
-0.00594941 -0.00741788 0.0436611 
-0.0152503 -0.0118726 0.068132 
-0.00914122 -0.00159471 0.0535346 
-0.00591078 -0.0349691 0.207976 
0.0028989 -0.019103 0.261632 
-0.0264073 -0.0711298 0.0744368 
0.0565026 0.0201184 0.0929181 
-0.00587783 -0.0054515 0.0426194 
-0.00400404 -0.00210897 0.0673237 
-0.0128121 -0.0138966 0.0625913 
-0.0159639 -0.0124051 0.0685774 
-0.0193909 -0.00956596 0.0568993 
-0.0139396 -0.0199042 0.0328559 
-0.0130012 -0.0131985 0.0434543 
-0.0164731 -0.0119875 0.0281692 
-0.0054257 0.00148598 0.0367883 
-0.00635283 -0.000765078 0.0220645 
-0.00811238 0.00550543 0.0358492 
-0.015955 0.00199638 0.0682981 
0.00341461 -0.00416865 0.0160186 
0.00537449 -0.0026819 0.0265097 
0.00581313 -0.0124837 0.0189743 
0.0129374 -0.0148602 0.0472848 
0.00425963 0.00538113 0.0609038 
0.00282829 0.00467803 0.0671854 
-0.000109272 -0.000456858 0.0601976 
0.00279769 0.00414016 0.0439313 
0.028273 -0.0513466 0.0947316 
0.0149465 -0.02421 0.00237681 
0.00114352 -0.0248486 0.0613278 
-5.16248e-05 -0.0111459 -0.0094582 
0.000533077 -0.000516219 -0.000271855 
-9.69188e-06 1.91815e-06 -0.0014936 
0.000305755 -0.000292132 0.000637662 
0.00111669 0.00248287 0.0269252 
-0.000119878 2.1846e-05 -0.000214136 
0.00293944 0.000748798 0.0350419 
-0.000293796 -0.000144528 0.000865087 
0.000364689 0.00113858 0.0250092 
-0.00342765 -0.00613392 0.0141298 
-0.00250967 -0.00142285 0.0101927 
-0.00904442 -0.00962631 0.0210715 
-0.00309931 -0.00279549 0.0229198 
0.000815886 0.00230975 -0.00175951 
0.00154021 4.23932e-05 0.000884649 
-0.00220128 -0.00701452 0.00887489 
-0.00319745 -0.00476819 0.00516536 
-0.00930272 0.0207491 0.0659011 
0.0411934 0.01315 0.0120907 
-0.004106 0.0148753 0.0613943 
0.0160917 0.0291573 0.0971047 
0.000245247 -0.000127681 0.000840302 
0.000654638 -0.000296452 -0.0013492 
0.000155345 -7.97103e-05 0.000437895 
0.00171074 0.00220842 0.0236693 
0.00347731 -0.00587795 0.0377117 
0.00905512 -0.00561387 0.0175759 
0.00487629 -0.00482496 0.0207052 
0.0103972 -0.0150609 0.0617912 
0.00174286 0.00444175 0 
-0.0251873 -0.000904147 0 
0.00649812 0.0100318 0 
-0.0502179 -0.0257299 0.0599108 
-0.00774413 0.0562072 0 
-0.00591872 -0.0310186 0 
-0.00537895 -0.0302414 0 
-0.0113739 0.0609154 0.0575387 
-0.000302488 0.000500194 0.000492233 
0.00296399 -0.00387717 0.0375537 
8.76515e-05 0.000185666 -0.00157112 
0.0006799 -0.00154311 0.0282258 
0.0113322 0.0125979 0.0390973 
0.0014973 0.000470774 0.0024067 
0.00651732 0.0145266 0.019813 
0.0151448 0.0167891 0.0193381 
0.00306858 -0.000943033 0.000106776 
-0.00462398 0.00436256 0.0190742 
-0.00371501 0.00292036 0.0299475 
-0.00247931 0.00329945 0.0148713 
0.00576415 -0.0100112 0.0780702 
-0.000236181 -0.00641951 0.0621431 
0.00378325 -0.00631971 0.0376616 
0.00459084 -0.00479997 0.0548467 
0.0053374 0.00206509 0 
0.000421508 -0.00372114 0 
0.00166274 -0.00241864 0 
-0.0082919 -0.014281 0.00483615 
-0.000181359 0.000254266 0.0444434 
0.00166855 -0.000606124 0.0275303 
0.000161113 7.85588e-05 0.0362616 
0.00354174 -0.00255134 0.0482036 
0.0159115 -0.00028517 0.0556917 
0.0214076 0.00211084 0.0963184 
0.0145731 -0.0124924 0.0579695 
0.0106263 -0.0030074 0.0569795 
0.0248224 -0.0114352 0.0140915 
0.00788138 -0.0207925 0.0810795 
0.024362 -0.0257635 0.106858 
0.0465947 -0.0147027 0.0597254 
6.49905e-05 0.000283197 -0.000672235 
-2.55263e-05 -8.59176e-05 -0.000190742 
-0.00011866 -0.000468348 0.000352181 
-0.000700584 0.00153178 0.0250227 
0.000181767 7.2509e-05 0.031391 
0.000210771 0.000150647 0.0391654 
-0.000534854 9.34913e-05 0.0494946 
-0.00340171 0.00228354 0.033108 
0.00463438 -0.00849243 0.0189795 
0.00570438 -0.00193041 0.0073277 
0.000719055 0.00337607 -0.00143679 
0.00259329 -0.00438817 0.0124911 
0.010395 -0.0362022 0.0912657 
0.033527 0.017667 0.0556403 
0.014798 -0.0395546 0.0694908 
0.0159593 -0.0265928 0.139675 
-0.0134146 0.0138338 0.0514914 
-0.00114674 0.00144882 0.0131184 
-0.00363822 0.00373864 0.0175926 
-0.0123023 0.014122 0.0320841 
0.00452924 0.00819837 0.0520235 
0.000826298 0.0102814 0.0616188 
0.00837696 0.0136625 0.0839978 
0.000281545 0.00479771 0.0654526 
-0.00256911 0.000522277 -0.00103923 
0.00390478 -0.00434457 0.0158077 
0.00520075 -0.00726289 0.0145687 
-0.000492567 -0.00272197 0.00208564 
0.0123091 0.0129107 0.0847582 
0.00575359 0.00345943 0.0574379 
0.00960124 0.00150047 0.0733944 
0.0152876 0.0123979 0.0627979 
0.00496225 -0.00182701 -0.0027827 
-0.0101848 0.00754171 0.032853 
-0.00632091 -0.000207157 0.0256028 
-0.00479039 0.00399368 0.014642 
0.00287424 0.000467438 0.00245747 
-0.0348262 -0.00540065 0.0324382 
-0.0419107 -0.0111943 0.0614209 
-0.00456568 0.000676798 -0.00991699 
0.000764303 -0.00120681 -0.000761392 
-0.0010769 0.001517 0.0284356 
-0.00435157 0.00442475 0.037602 
-0.00328245 0.00285293 0.0256575 
0.000199904 5.65981e-05 0.0364062 
0.00137208 -0.0011102 0.0284776 
0.00147146 -0.00150133 0.0260871 
0.00341604 -0.00221133 0.0469139 
-0.00124724 -0.00540517 0.019334 
0.0042381 -0.00411314 0.0163617 
0.0223166 -0.0127809 0.0371465 
0.0145346 -0.0151097 0.0533756 
0.00234007 -0.00118993 -0.00403746 
-0.00486999 0.00173931 0.0053505 
1.00113e-05 0.00163138 0.00203311 
-0.00622347 0.00230276 0.00544223 
-0.000541738 0.00121448 0.0352885 
0.00340511 -0.00550482 0.0384444 
-4.45582e-05 -6.71535e-05 0.0541409 
0.00303754 -0.00498931 0.0548597 
0.0101602 0.000525692 0.121626 
-0.000274628 -0.0163064 0.110811 
0.00194501 -0.010058 0.171496 
0.0183329 -0.0160172 0.105896 
-0.031042 0.0292082 0.122571 
-0.0242791 0.0273271 0.0287257 
-0.0300597 0.0129329 0.0744776 
-0.0405365 0.0474462 0.0735851 
0.0187334 -0.0363084 0.0691473 
0.0185632 -0.00706143 -0.0581682 
0.0484636 -0.0341565 0.111979 
-0.0141434 -0.0405304 0.123874 
-0.0821908 0.0019625 0.219047 
-0.03633 0.0265937 0.0605871 
-0.014848 0.00795922 0.260066 
0.0685501 0.0275383 0.12696 
-0.000261132 -1.58364e-05 0.00116484 
0.000108701 0.000120716 -0.00158916 
0.00285764 -0.00312042 0.0368635 
0.00130552 -0.000733362 0.0242286 
0.000232679 -0.000375574 0.0376538 
0.00244762 -0.00320478 0.0326072 
-0.000428185 0.000519786 0.0177132 
0.00109618 -0.0014272 0.0239168 
0.00293594 0.00293251 0.0339117 
0.00125646 0.000594953 0.0246872 
-0.000990492 -0.000586984 -0.000253199 
0.000928894 0.00159841 0.0241169 
-0.00302937 0.00308059 -0.00470789 
-0.00132203 -0.000399542 -0.000746205 
0.00552517 -0.0165007 0.0155139 
0.00336648 -0.0124783 0.00982753 
0.00113031 0.00140371 -0.00162254 
0.00100309 4.41369e-05 -0.00143497 
0.000174672 -0.00126971 0.0036586 
-0.000148399 -0.00412631 0.00320966 
-0.00302165 0.0145878 0.0516529 
-0.0101348 0.0142546 0.0568819 
-0.00173646 0.0110387 0.0608146 
-0.00402422 0.00374653 0.0225126 
0.000494496 -0.00284914 -0.00919161 
0.00651137 -0.0138046 0.0175234 
0.0162473 -0.038648 0.0442415 
-0.00110432 -0.0146835 0.00703055 
-0.00224345 0.00632812 0.0350637 
0.0056738 0.00420759 0.0267165 
0.00402256 0.00673677 0.053963 
0.000146228 0.0120541 0.0587887 
-0.00051212 0.00119215 0 
0.000854739 0.002986 0 
-0.000889194 -0.00167153 0 
-0.00761521 -0.00395543 0.00546142 
-0.00197401 -0.00455819 0 
-0.00807813 0.0086406 0 
-0.00101519 0.00212666 0 
0.0154551 -0.0103638 0.00493579 
-0.00531627 -0.00643168 -0.00136029 
0.000983334 -0.00106668 0.00100594 
0.0105306 0.025822 0.0188711 
0.00120993 0.0121508 0.00226774 
0.00340111 -0.00395415 0.0353903 
-0.00234208 -0.00786997 0.0366 
0.0112495 -0.0145398 0.0630971 
0.00685829 -0.0146289 0.0498005 
-0.00171214 -0.000996591 -0.00146708 
-0.0111133 -0.0123065 0.00606538 
0.00404075 0.00450019 -0.000968554 
-0.00113504 -0.00560686 0.00582479 
-0.0104781 -0.00233221 0.0765378 
-0.00309461 -0.00244206 0.0839205 
-0.00351288 0.00281928 0.0799052 
-0.00546875 -0.0013353 0.0583871 
-0.00023399 -0.00184426 0 
-0.00651312 0.00124487 0 
-0.000436867 -0.000135037 0 
0.0195612 0.00139765 0.0106064 
0.0254743 0.0178652 0 
-0.0499257 -0.00440421 0 
0.0168732 0.00316706 0 
-0.0946591 -0.0411311 0.159135 
-0.00395871 0.0829579 0.0873931 
-0.0357097 0.0255778 0.0435672 
-0.0324482 0.0365509 0.132119 
0.0173513 0.0368681 0.0818216 
-0.000228627 -0.000109427 0.00110853 
7.87781e-05 4.07376e-05 -0.00104358 
0.000246767 0.000107468 0.00112504 
0.00388474 -0.000763495 0.0194516 
0.000350185 0.000134379 0.0485778 
0.00406181 0.00364888 0.0352923 
-0.000769629 -0.000718305 0.0328508 
0.00405628 0.00293413 0.0523921 
-0.0017548 -0.00363007 -0.00572827 
0.0141192 0.00860866 0.0163889 
0.00337696 0.00365646 0.00532809 
0.00329682 -0.000483715 0.00194031 
2.01798e-05 -1.90702e-06 0.00022891 
-0.000177117 3.9791e-05 6.71016e-05 
0.000266995 -4.87107e-05 0.000914057 
-0.00126387 -0.0012861 0.0346791 
0.0237964 -0.0534017 0.0755586 
0.0147969 -0.0102482 0.012903 
0.00167233 -0.0102234 0.00816535 
0.00745988 -0.0127063 0.00708816 
0.036153 -0.0331929 0.0852129 
0.0506507 -0.0549698 0.140144 
0.0169497 0.00754261 0.159322 
0.0106046 -0.00720561 0.129392 
0.0102661 -0.00201115 0.121324 
0.0178198 0.00189117 0.100243 
0.00484006 -0.00121545 0.0804887 
0.0144878 -0.0142862 0.10499 
-0.00527057 -0.0221832 0.0435625 
0.00301598 -0.0444608 0.134573 
-0.00629015 -0.0288464 0.0703024 
-0.0428666 -0.00305014 0.0309245 
-0.000716748 -0.000573203 0.0837634 
-0.00177555 0.000367884 0.0920872 
0.00101618 0.000655118 0.0868779 
-7.39232e-05 -0.00187152 0.0852466 
0.000143809 -0.000240872 0.022931 
0.000138001 9.87535e-05 0.0174529 
-0.000207172 -9.86716e-05 0.0323873 
-0.00210267 -0.00159335 0.0312189 
0.0114752 -0.00838682 0.0348566 
0.0157849 -0.0178621 0.0207162 
0.0224457 -0.0306429 0.0808806 
0.0114379 -0.0224147 0.0592211 
-0.0168196 -0.00658473 0.0208925 
-0.0111303 -0.0172056 0.0649581 
-0.00601452 -0.0100714 0.0500979 
-0.0153888 -0.0110376 0.0351926 
2.58545e-05 -0.000406323 0.0234112 
0.000290419 -2.48118e-05 0.000322381 
8.41468e-05 4.23017e-05 0.0176432 
-0.00186518 -0.00138018 0.0304342 
-0.00396226 0.00292668 0.0317305 
-0.00467469 0.00470626 0.0180058 
-0.00423986 0.0046324 0.0397609 
-0.00813758 0.00844994 0.0410912 
8.54735e-05 -0.000145284 0.000432559 
5.85511e-05 -0.000186083 -0.00103859 
8.01591e-06 -3.77609e-05 -0.000331648 
0.000358028 0.00396331 0.0148962 
0.00166032 0.0140687 0.0534781 
0.0126019 0.0188745 0.0629494 
0.00805223 0.00682937 0.0217046 
-0.00288042 0.00942227 0.062679 
0.0124711 -0.025134 0.0851353 
0.0120615 -0.0140888 0.0581267 
0.0162583 -0.0100184 0.0641222 
-0.0106025 -0.0250382 0.0967538 
-0.00736365 -0.0229093 0.0132507 
0.00151638 -0.0713442 0.0613124 
0.00250001 0.0175092 -0.00984294 
0.00888608 -0.00424068 -0.000372496 
0.00835199 0.0139551 0.0236844 
0.0158834 0.0129781 0.0554968 
0.00384825 0.00274848 0.023947 
0.00255975 0.00522882 0.0142261 
-0.000348435 0.000340225 0.0432963 
0.0046345 -0.000803968 0.0561391 
0.00597827 -0.0030298 0.0457333 
0.00319238 -0.00322207 0.048346 
0.000105382 -0.000105155 0.036486 
-0.00106339 -0.00149456 0.0248734 
-0.00493419 -0.00423745 0.0422605 
-0.00131281 -0.00118405 0.0222722 
4.9251e-05 1.60641e-06 0.000614415 
0.000371616 2.97947e-05 0.000311171 
0.000519652 4.6858e-05 -0.000835952 
-0.000178154 -0.00266352 0.0342933 
-0.0450781 0.0353297 0 
0.0618796 -0.0331701 0 
-0.0745441 0.0346265 0 
-0.0360752 0.0154891 0.217919 
-0.000150282 -0.00027101 0.00020348 
0.000154694 0.00028032 -0.000250833 
-0.000149427 -0.000297558 0.00106079 
-0.00046993 -0.00263178 0.00225571 
0.000421054 -0.000969991 0.0002182 
-0.0030207 0.00371312 0.0124103 
0.00089749 -0.000758289 -0.000723981 
-0.00258055 0.00309412 0.00431574 
-0.000179836 -7.24898e-05 0.0391164 
0.00160551 0.00145574 0.0236447 
0.0044513 0.00446512 0.0586022 
0.00262345 0.00283221 0.044319 
0.000597018 -0.000575581 0.000469939 
0.000152849 -0.000179933 0.0215272 
-0.00258886 0.0024899 0.0315181 
-0.00147447 0.00119724 0.0254509 
0.0254363 0.00897468 0.0648054 
0.0145439 -0.0470529 0.0613964 
0.0226625 0.00609998 0.0286918 
0.0253468 -0.0147665 0.164851 
0.00673906 0.00641912 0.0223723 
-0.000364965 -0.0015197 -0.00234539 
0.00544493 0.00458322 0.0188736 
0.00450064 0.000368055 0.0038956 
-0.000150794 -0.000156608 0.0203544 
8.22921e-05 0.000149955 0.0327329 
-0.000425098 0.00305699 0.0351682 
0.000206828 0.00117933 0.0243129 
0.000219346 -5.1179e-05 0.00046348 
-0.000170064 3.6368e-05 -0.000584404 
-0.000381049 9.52172e-05 -0.000376552 
-0.00158682 -0.00154045 0.0346135 
0.026081 -0.0107408 0.11436 
0.0107418 -0.0195714 0.0557223 
0.0248054 -0.0137105 0.019132 
0.0430368 -0.0144634 0.0754386 
-0.000669234 6.60872e-05 -0.00047689 
-8.20222e-05 8.09973e-06 0.00048173 
-1.29285e-05 1.2767e-06 -0.00120676 
6.27418e-05 -0.00366738 0.0347056 
0.00026222 0.000481102 0.0822285 
-0.000767314 0.0021151 0.0868907 
0.00331315 -0.00246572 0.0877615 
0.00152464 -0.00288717 0.0852292 
-0.0153099 0.00452146 0.0699131 
-0.00517697 0.000824907 0.0604748 
-0.0137073 0.0102347 0.0564486 
-0.00686493 0.00472143 0.0394096 
-0.000232166 -0.000150456 0.00152879 
-0.000385875 -0.000260081 0.000629172 
5.9146e-05 3.69421e-05 -0.000654354 
0.0036943 -0.000234082 0.0183138 
0.000238747 -0.000211545 0.0787563 
0.00129675 4.43248e-06 0.0649904 
0.00473263 -0.000760977 0.0863679 
0.00344833 0.000697471 0.0777172 
0.000296384 -0.00397273 -0.00717946 
0.00429068 -0.0107982 -0.00392668 
0.00978422 0.00817672 0.00410878 
0.0177831 0.0232111 0.0292492 
-0.0738262 -0.0125106 0.141586 
-0.00432293 -0.00911182 0.167206 
-0.0294609 -0.0210428 0.062718 
-0.026359 -0.033805 0.00170741 
0.00026395 0.00023069 -0.000343934 
0.000356994 -0.000146085 6.97742e-05 
0.0002097 -0.000128775 -0.000167002 
0.00105344 -0.0024038 0.00144621 
0.0107223 0.00021121 0.0523769 
0.0318682 -0.0211829 0.0709818 
0.0240294 0.0014171 0.0501852 
0.00390973 -0.000848263 0.0129501 
0.003867 0.00828527 0.0552554 
0.0111983 0.0146402 0.0583359 
0.00441248 0.00497843 0.0258934 
0.0091316 0.00631322 0.0165575 
0.0138143 0.00941648 0.0258111 
0.0113823 0.0199647 0.0238495 
0.013306 0.0118058 0.038436 
0.0227443 0.0153019 0.0639684 
0.00690056 -0.005689 0.0228262 
0.000666584 -0.00697796 0.0376315 
-0.00353301 -0.0174533 0.0390657 
0.00136198 -0.00781511 0.00802027 
-0.000597218 -0.00391272 -0.00260838 
0.00629725 0.00946362 0.0111177 
0.00496952 0.00481825 0.0252113 
0.00122412 0.0061169 0.0154349 
-0.0455799 -0.0113551 0 
0.0181418 0.010132 0 
0.0247611 0.0209442 0 
-0.0653609 -0.00175752 0.0943412 
5.39719e-05 0.00165917 -0.000694703 
-0.00283854 -0.00313396 0.0351134 
-0.00310274 -0.00398904 0.0277695 
-0.0012652 -0.00128703 0.0293453 
0.010427 0.0109548 0.0803139 
0.0074344 0.00514854 0.0604849 
0.00360466 0.00806375 0.0532201 
-0.00115476 0.00574043 0.0677064 
0.00843544 0.0122145 0.0210342 
0.0101921 0.0130107 0.0387267 
0.0183979 0.0181734 0.0576749 
0.000665946 0.00141226 0.0127226 
-6.93889e-05 -0.000528491 0.000124516 
-0.00066104 -0.000213633 0.00063134 
-0.000151448 0.00253749 0.0346322 
0.000458863 0.00107644 0.0246211 
-0.000265896 -9.78137e-05 0.0325805 
7.60264e-05 0.000805036 0.0476338 
0.000178444 0.00341585 0.0360172 
0.000466519 0.00142817 0.0238963 
0.000180343 -0.000202581 0.000190344 
-0.000239906 0.000181995 0.0213123 
0.000435036 3.28755e-05 0.00042682 
-0.00186286 0.00175018 0.031582 
0.0135707 0.000569223 0.051212 
0.00555692 -0.0066975 0.0251988 
0.00463369 0.00233607 0.0355956 
0.0111601 -0.00128745 0.058333 
0.00225651 0.00202589 -0.00408126 
-0.00361021 -0.00513214 0.00509017 
-0.00332432 -0.00600331 0.0119983 
-0.0022526 -0.0024834 0.010407 
-0.0156503 -0.008216 0.0197709 
-0.0248549 -0.0157662 0.0566014 
-0.0114798 -0.0184315 0.06377 
-0.0176721 -0.00759466 0.0376116 
0.000191421 -0.000269845 0.0611511 
-0.00433031 -0.00757347 0.0760503 
-0.00119688 -0.00589668 0.0624711 
-0.00367804 -0.00490145 0.0506552 
-0.000107938 9.99056e-05 0.0716931 
-0.000167574 0.000322936 0.0537646 
0.00250401 -0.00658644 0.0620532 
0.00280576 -0.00493132 0.0556173 
0.00324283 0.00165979 -0.00554816 
-0.00792255 0.0300536 -0.0388667 
0.0658118 -0.0839062 0.0885441 
0.042563 -0.00208685 0.0666177 
8.50942e-05 -0.000578936 0.0203547 
-0.000831002 0.00367429 0.0352143 
-0.00012748 0.000171426 0.0397944 
-0.00104959 0.0016912 0.0285511 
-5.22817e-05 0.000212648 0.0733111 
-0.00480496 0.00110556 0.0799598 
-0.00422287 -0.00159121 0.0839099 
-0.00453379 -0.00126526 0.0583767 
0.0149642 0.00625812 -0.0119442 
0.00745411 0.0024898 -0.021173 
-0.00851977 -0.0225341 0.010067 
-0.0245515 -0.0802783 0.118994 
-0.00713015 0.00789452 0.0323906 
0.000736939 0.00233799 0.0112326 
-0.0148086 0.0127684 0.0533587 
-0.0133168 0.0135473 0.0332107 
0.00410872 -0.00431157 0.0255663 
0.00172347 6.44857e-06 0.02797 
0.00566357 -0.00381753 0.0442003 
0.00145982 -0.00161628 0.0264035 
-0.0145195 -0.00704282 0.0244952 
-0.00729728 -0.00963138 0.0491856 
-0.00515103 -0.0072518 0.0300415 
-0.0135109 -0.0120678 0.0342333 
0.0202867 -0.0138451 0.0888883 
0.0185233 0.00934149 0.116736 
0.00800638 -0.0047297 0.171384 
0.036935 0.0224435 0.157006 
-0.000237464 -0.000169503 0.032593 
0.000428288 0.00032093 0.0482381 
-0.000415932 -0.000125468 0.0401875 
-0.00014767 0.00376204 0.0353441 
0.0522652 0.0188399 0.0928187 
-0.00384569 0.0228958 0.102781 
0.0201274 0.0166335 0.10579 
-0.011229 0.0305555 0.18064 
0.0322005 -0.0250677 0.0890761 
0.0275277 -0.00194451 0.157279 
0.0387742 -0.0420909 0.143946 
0.0126119 -0.00969462 0.0936582 
-0.0889773 0.00112247 0.195307 
-0.0179576 0.0325928 0.0697189 
0.0475545 0.0196697 0.131518 
-0.00681534 0.0200981 0.121389 
-0.00234514 -0.00248274 -0.00198172 
0.00383298 0.00353881 0.00677078 
0.00350094 0.00500881 0.0155471 
0.00578331 0.004558 0.0166135 
-0.00483101 0.00491691 0.0386268 
-0.0027925 0.0109702 0.0602135 
-0.0116375 0.0139811 0.0559389 
-0.00194672 0.0036656 0.0235878 
-0.0390088 -0.00122643 0.118227 
0.00141216 -0.0117265 0.0322768 
-0.0404961 -0.0290253 0.103439 
-0.00322995 -0.0196735 0.061506 
-0.000812821 -0.000312692 0.0480959 
0.000861491 0.00539353 0.0658436 
0.00337258 0.00731966 0.0526041 
0.00357882 0.00313036 0.0452718 
0.000141655 0.00016083 0.023011 
0.000729935 0.00030096 0.000495815 
-0.00220484 -0.00225478 0.0308356 
-0.00120449 -0.00114382 0.0251202 
-0.000611324 -1.61305e-05 0.00104164 
-0.00236008 0.00651761 0.0101732 
0.000639244 -0.000117865 -0.000904271 
0.00111278 0.00166817 0.000712265 
-0.000625061 0.000634727 -0.000851022 
0.000211565 -0.000483026 0.000118936 
-0.00107871 -0.000904637 -0.000205017 
0.00112503 -0.00398651 0.00317309 
0.000448533 6.54482e-05 0.0328446 
2.70432e-05 -0.000338082 0.0432818 
-0.00312031 -0.00180527 0.0302948 
-0.00410432 -0.0016506 0.0571745 
-0.00338405 -0.00862967 0.0782106 
-0.0131515 -0.0134298 0.0639157 
-0.0172244 -0.010438 0.0724413 
-0.00795906 -0.0100424 0.100684 
0.00274662 7.57101e-05 -0.000196115 
-0.00571418 -0.00199495 0.0244415 
-0.00273204 -0.00195399 0.0304913 
-0.0034984 -0.00329537 0.0216678 
-2.42934e-05 -8.66703e-06 0.0241031 
-4.13487e-06 -0.000213593 0.0178077 
0.000420293 5.53056e-05 0.000401164 
-0.00223936 -0.000943497 0.0312547 
9.00593e-05 -5.40233e-05 0.024012 
-0.00270667 -0.000648344 0.0318734 
0.000430028 3.17987e-05 0.000349314 
-0.000955371 -0.000439946 0.0240817 
-0.00313795 0.00495107 0.0390678 
-0.00619689 0.00641622 0.0618654 
-0.00420688 0.00240126 0.0311643 
-0.00935498 0.00887746 0.0430917 
-0.0103174 -0.0178386 0.0433143 
-0.00521772 -0.00743643 0.00204497 
-0.00705099 -0.00742577 0.0297045 
-0.0137453 -0.0149517 0.0388514 
-0.00477886 -0.00957953 0.0771711 
-0.00384621 -0.0137001 0.0635939 
0.00272212 -0.00597049 0.0628926 
-0.00796674 -0.00894033 0.0475157 
-0.0124831 0.00976114 0.052711 
-0.00901596 0.00864841 0.042151 
-0.00378677 0.00704747 0.0163777 
-0.00750709 0.00506993 0.0422782 
0.0316799 0.0268473 0.104441 
0.00818406 0.0148582 0.0567164 
0.0286177 0.0298808 0.0880678 
-0.00638097 0.0151672 0.11102 
-0.000118412 -0.000367961 -0.000552496 
-0.000956147 0.00313189 0.0345494 
0.000194745 -0.000494287 0.000767333 
-0.00112606 0.00133406 0.0284276 
0.00289 -0.0430978 0.0922287 
0.0334572 -0.0220142 0.00881104 
0.0349967 -0.0184251 0.103696 
0.0321846 -0.0350184 0.10204 
0.0390714 -0.0458308 0 
-0.0317988 0.0289064 0 
-0.0332339 0.0651468 0 
-0.0337232 0.0269877 0.112772 
-0.000168234 2.53637e-05 0.0398725 
0.000124487 -0.000500001 0.0201969 
0.000256307 7.15971e-05 0.0330017 
-0.000844795 0.00341071 0.0349574 
-0.00680974 -0.00486445 0.0299816 
-0.0116277 -0.0101903 0.0257344 
-0.00426115 -0.00280613 0.0102148 
-0.0091852 -0.00868279 0.0471394 
0.00398928 -0.00477769 0.0378783 
0.00520441 -0.00601305 0.0220837 
-0.00153203 -0.00731812 0.0363378 
0.00718163 -0.0141519 0.0491341 
0.000427587 -6.69484e-05 0.0793761 
0.00467632 -0.000958123 0.0856949 
0.0010986 0.00012897 0.0652155 
0.00447174 -0.00174804 0.0700843 
-0.00650422 0.00621106 0.062816 
-0.00645028 0.000954914 0.0608955 
-0.0114551 0.00710495 0.0855638 
-0.0042592 0.00226712 0.0782358 
0.00156077 0.00129601 -0.00261431 
-0.00785588 -0.00177868 0.00427524 
-0.000975331 0.00173898 0.000709721 
-0.00379883 -0.00102829 0.00381732 
-0.00691513 -0.0112298 0.331949 
-0.050411 0.0517096 -0.0168047 
-0.0741497 -0.00385929 0.215421 
0.00589572 0.0234079 0.133386 
-0.00192743 -0.0143487 0.0655946 
-0.0197853 -0.0144929 0.0646089 
-0.00189152 -0.0172869 0.104647 
-0.00596562 -0.0220721 0.0930844 
-0.000835758 0.00040494 0.0492391 
0.000130368 0.000100245 0.0314068 
-0.00329993 0.00208091 0.0334216 
-0.0017203 0.00106306 0.0258489 
0.00509602 -0.00924768 0.0164007 
0.00370899 -0.00451164 0.0172127 
0.0021282 -0.0043145 0.00454444 
-9.26132e-05 -0.00248635 -0.000724147 
0.0268522 -0.0250366 0.0799562 
0.0409431 -0.0392525 0.113945 
0.0207447 -0.0269879 0.107699 
0.0119665 -0.012493 0.125679 
-0.0118633 -0.00692259 0.0525382 
-0.0164198 0.000304864 0.0679251 
-0.00890784 0.000736781 0.0228778 
-0.00819185 -0.00302849 0.0514227 
0.00599794 0.00435138 -0.0050339 
0.000439674 0.00115377 -0.00149748 
-0.0136058 -0.00891952 0.0141909 
-0.00939891 -0.00180504 0.00529757 
-0.00185777 0.00578269 0 
0.00363336 -0.00529412 0 
0.00481836 -0.00745285 0 
-0.0211951 0.0124256 0.0020374 
-0.00705852 6.26305e-05 0.0243355 
-0.0154815 0.00140457 0.0666872 
-0.00486382 0.00176163 0.037215 
-0.00771052 -0.00364449 0.0524063 
0.000932439 -0.000336672 -0.000920552 
-0.000203855 0.00162489 -0.000590423 
0.000782789 0.000247534 -0.000449366 
-0.0068941 -0.00719184 0.00655235 
0.00999999 0.0123304 0.0376642 
0.0036969 0.00313057 0.0282313 
0.00412517 0.00307917 0.0355006 
0.00427511 0.00421418 0.0153978 
-0.00507984 -0.00803702 0.0777991 
-0.0120933 -0.0133338 0.0629191 
-0.00792973 -0.00555562 0.0440894 
-0.00396829 -0.00243068 0.06678 
-0.000615912 -0.00143364 0.000193163 
0.00280657 0.00465167 0.0261623 
0.00173754 0.00205873 0.0264828 
-5.76768e-06 0.00101124 0.0245486 
0.00640226 -0.0034145 -0.00326778 
-0.06054 0.0254833 0.0668584 
-0.0195226 0.00954363 0.0197539 
-0.00186339 0.00494249 -0.00306381 
0.00240478 -0.000845549 -0.000145764 
-0.00108387 0.0050766 0.015318 
-0.00756448 0.00639347 0.029785 
-0.00504598 0.00409489 0.0149135 
-0.0013855 0.00246893 -0.00101803 
0.00666884 -0.00471308 0.0148966 
0.00404404 -0.00125212 0.00583618 
0.00453325 -0.00175061 0.00442916 
-0.00489471 0.0066677 0.0173738 
-0.00301664 0.00404743 0.0128854 
-0.0116063 0.0104379 0.0517631 
-0.00656402 0.00386643 0.0420779 
0.0570359 -0.0364696 0.113349 
-0.00551059 -0.0193117 0.0893972 
0.0174982 -0.0401108 -0.00757718 
0.0165143 -0.0151588 0.130779 
0.0119264 0.00441023 0.138226 
-0.000743747 0.0275621 0.0906471 
-0.0379269 0.0299722 0.0734676 
-0.0108687 0.0240531 0.157123 
0.0101363 0.0171868 0.252256 
0.0465705 0.0166614 0.128016 
-0.0733777 0.0185687 0.0840909 
-0.00695798 0.0311502 0.156857 
0.000168606 0.000385624 0.000674013 
-6.08951e-06 -5.00407e-05 -0.000581268 
-3.04795e-05 -0.000102305 -0.000624508 
0.000473054 -0.00176991 0.0250935 
-0.00504955 -0.00829399 0.0768026 
-0.00777955 -0.00519248 0.0453316 
-0.0115053 -0.0133917 0.0621951 
-0.00305333 -0.00384509 0.0500443 
6.1105e-05 0.000734175 0.0804004 
-0.000234174 -0.000507815 0.0721842 
0.00489038 -0.00125431 0.0854676 
0.00501441 -0.00277424 0.0689133 
0.0105927 -0.0128339 -0.0190749 
-0.00927899 0.0197168 0.0223658 
-0.00667732 0.0529842 0.0702618 
-0.00665369 -0.000640036 -0.0213452 
0.000677237 -0.000180162 -0.000279245 
-0.00146975 0.0016394 0.0244678 
0.000477721 -0.000384235 0.000402738 
-0.00219667 0.00294346 0.016859 
-0.00699232 0.00435736 0.0625151 
-0.00564317 0.00110685 0.0613392 
-0.00381309 0.00514597 0.0303687 
-0.00625276 0.00491286 0.0411056 
0.0103931 0.0189451 0.0206317 
0.0187975 0.0269694 0.0806074 
0.0157834 -0.000491351 0.061988 
0.0185622 0.00979064 0.0597615 
-0.00263313 -0.00190746 0.029582 
-0.00982519 -0.00406316 0.0526424 
-0.0054179 -0.00562826 0.0455665 
-0.00406778 -0.0045126 0.0200236 
0.000139351 0.000232274 0.0456395 
-0.00138595 -0.0066692 0.0613974 
-0.00165013 -0.00397484 0.0341053 
-0.00258724 -0.00396424 0.0516405 
-0.0248744 -0.0235739 0.118839 
-0.00193281 -0.018744 0.101022 
0.000735548 -0.0140382 0.192639 
-0.013052 0.00181695 0.132273 
-0.000512694 -8.39e-05 0.0361606 
0.000582962 -0.001914 0.0282923 
0.00329588 -0.00441936 0.0377647 
0.00182799 -0.00151315 0.0248403 
-0.013381 -0.0205556 0.028691 
-0.0032113 -0.00598644 0.0132675 
-0.0122725 -0.013043 0.0458907 
-0.00470223 -0.00281042 0.0124885 
0.0190562 0.0116021 0.147133 
0.0668423 0.0527606 0.135635 
0.0571405 0.0439987 0.0686734 
-0.0235325 -0.00208264 0.163564 
-0.00330784 0.00149505 0 
0.00265852 0.00581202 0 
0.000518913 0.000406142 0 
-0.000981945 -0.0251561 0.000672167 
-0.00787049 -0.0166023 0.0689764 
-0.00625569 -0.00825795 0.0452754 
-0.0124387 -0.0119063 0.0615896 
-0.0147899 -0.0142615 0.0407434 
-0.000458532 0.00159714 0 
-0.00326016 0.00446009 0 
0.00053104 0.00304356 0 
0.00809988 -0.0163889 0.00503131 
-0.00357344 -0.000335621 0 
-0.00225663 -0.000644328 0 
0.00133203 -0.0017869 0 
0.0179012 -0.00613752 0.00728142 
0.0071062 0.0116187 0.0205045 
0.000998238 0.00475029 0.000992835 
0.0139633 0.0114299 0.0367935 
0.00275503 0.00475908 0.0160872 
-0.0400381 0.021272 0.0666179 
-0.0174978 0.020301 0.0306289 
-0.0120566 0.00910652 0.0193456 
-0.0104193 0.00673159 -0.00034421 
0.00963258 0.0149012 0.0280193 
0.0207126 0.0133725 0.0412704 
0.0152176 -0.00384781 0.0612353 
0.0195661 0.039094 0.0469104 
-0.0269998 -0.024674 0.0995439 
-0.0267823 -0.0231458 0.0452833 
-0.0121091 -0.0155252 0.0598596 
-0.0158543 -0.0153988 0.0737178 
0.000626271 0.00158337 -0.000606707 
-0.00277792 -0.0229195 0.0209202 
0.00443901 0.0140993 -0.00969993 
-0.00588333 -0.023786 0.020295 
0.0101264 -0.0135359 0.0413524 
0.00310304 -0.000821618 0.0131832 
0.00578224 -0.0103819 0.0169081 
0.0139525 -0.0194327 0.0501364 
-0.000947591 0.011351 0.0837432 
0.00188141 0.0032018 0.082932 
0.0066607 0.0123544 0.0869437 
0.00114037 0.00535242 0.0639814 
-0.00112724 0.00697629 0 
0.00896423 -0.0042414 0 
-0.00183561 0.00204699 0 
-0.00836618 -0.011397 0.00742546 
-0.0031312 0.000657009 -0.000585671 
-0.0016105 0.000470045 -0.00149127 
0.0113456 -0.0074091 0.00888264 
0.00386808 -0.00246476 0.00982041 
0.0389271 0.0169196 0.0674195 
0.0526793 0.0114086 0.138551 
-0.00652177 -0.0735332 0.0590359 
0.0262695 -0.0204731 0.165794 
0.00957187 0.00544382 0 
0.0195124 -0.000398957 0 
-0.0172952 -0.0237246 0 
-0.0478695 -0.0412339 0.0560297 
-0.000787194 -0.000813676 -0.00159798 
0.0043839 0.00479156 0.0248012 
-0.00128897 -0.000571073 -0.00532658 
0.00561466 0.00354798 0.0217852 
-1.55186e-06 -0.000116597 -0.00114505 
-0.00396072 0.00741412 0.0107196 
0.00109084 -0.00100207 0.000418724 
-0.000900069 0.0035468 0.0114381 
0.000179536 0.00088517 0.0380336 
-0.000208616 -0.000313221 0.0451716 
-0.0015536 0.000673443 0.0232966 
-0.00354926 -0.00135279 0.0571286 
0.00611757 -0.00273441 0.0465257 
-0.000355154 0.000107328 0.0429625 
0.00195079 -0.00066191 0.0266353 
0.00429363 -0.000835635 0.0551344 
0.0141121 -0.0236117 0.0898239 
0.0144899 -0.0134103 0.0558753 
0.0256807 -0.0260436 0.112728 
-0.0146432 -0.0199393 0.101346 
0.0182562 -0.00996644 0.032448 
0.0118064 -0.0120854 0.0372438 
0.0135667 -0.0173549 0.02616 
0.0209429 -0.0134642 0.0665784 
0.000932408 -0.000575639 0.000298723 
-0.00292494 0.00292312 0.0296082 
0.00129873 -0.000306614 -0.00041829 
-0.00354594 0.00349519 0.0203535 
-0.027233 0.0219141 0.0725939 
-0.0244353 0.0247325 0.0294439 
-0.0320311 0.0314458 0.121655 
-0.0218739 0.0206616 0.0672109 
0.0269167 -0.0146398 -0.0537669 
-0.00495268 -0.0421329 0.157666 
0.0235799 -0.0630844 0.00315463 
0.0381842 -0.0344344 0.121007 
-5.477e-05 -0.000127421 0.062435 
-0.00122981 -0.00645144 0.0609292 
0.000442356 0.000498666 0.0450577 
-0.00212241 -0.00438681 0.0524876 
0.00290639 -0.00332706 0.0316106 
0.00324634 -0.00450905 0.0185751 
0.00653832 -0.00525684 0.0451619 
0.0012072 -0.00123438 0.0266418 
0.00437533 -0.0071647 0.174582 
-0.0035263 -0.0201351 0.106597 
0.0117207 0.00134717 0.125675 
-0.0111608 -0.000592181 0.131504 
0.00368977 0.00271674 0.0345954 
0.000990657 0.000731489 0.0238874 
-0.000346353 0.000402193 0.0342202 
0.00394815 0.00262027 0.0517769 
-0.00714155 0.0100823 0 
-0.00648267 0.00293986 0 
0.00343605 -0.0227452 0 
-0.00915532 -0.0415645 0.0278865 
0.00112078 -0.00278063 0.119961 
0.0190023 0.00461348 0.0967917 
0.0358172 0.00898537 0.146771 
0.0161818 0.0168154 0.152202 
-0.000591805 -0.000183048 -0.000128965 
-0.000636442 0.000275895 0.000425472 
0.0030087 -0.0027303 0.0255771 
0.00176022 -0.000916193 0.0266326 
0.00299315 -0.004268 0.0392963 
0.00392883 -0.00442062 0.05485 
0.00337984 -0.00424646 0.0301745 
0.00936275 -0.00901825 0.0544973 
-0.0316674 0.0130444 0.331544 
0.00360709 0.0703384 0.145126 
-0.0155324 0.0415422 0.148656 
0.0129678 0.0641018 -0.0191485 
-0.016117 -0.004926 -0.00943063 
0.0292852 0.00827545 0.0233775 
-0.00365425 -0.00299473 0.00199976 
0.0253618 0.00734068 0.0136754 
0.000864123 0.000472304 0 
0.000243895 0.000334091 0 
-0.000525478 -0.000367793 0 
0.00119591 -0.000569722 0.00267659 
2.75244e-05 -0.000245669 0.000397745 
-1.69184e-05 4.57721e-05 -0.000977395 
7.12346e-05 -0.000652109 0.000915836 
0.00221661 0.00345043 0.0249727 
-4.82401e-05 -9.89364e-06 0.0477488 
-0.000467329 0.000101218 0.0496824 
0.00160009 0.00261458 0.0257999 
0.0020257 0.00330946 0.0451424 
-0.000648631 -0.000518018 0.00142763 
-0.0105545 -0.00553398 0.00759869 
0.00366511 0.00338938 -0.00377379 
-0.0073312 -0.00364476 0.0089551 
-0.000197175 -1.63319e-05 -0.000163608 
1.50525e-06 3.33816e-06 0.000329712 
-3.02466e-05 2.19278e-06 0.000455113 
-0.000409777 0.00157216 0.0343156 
-0.00447599 0.00914986 0.0130261 
-0.00133788 0.00229991 0.0120981 
-0.00859751 0.00905388 0.0330209 
-0.0103916 0.0132364 0.0319849 
-0.00151291 0.000365556 -0.000668724 
-0.00109553 0.0016132 0.00104288 
0.00406313 -0.00302767 0.0274968 
0.00346816 -0.0036453 0.0175672 
-0.0037345 -0.0175104 0.0453818 
0.0138846 -0.0185332 0.0650289 
0.0182489 -0.0248719 0.107977 
-0.0397197 -0.0197322 0.042375 
0.000824858 -0.00242241 0.00235447 
0.0328187 -0.00876826 0.0187346 
-0.0149708 0.00120674 -0.00828124 
0.0166673 -0.000147387 0.0165668 
-6.77214e-05 -0.0003574 0.0818442 
0.00375821 -3.81494e-06 0.090108 
-0.000832084 0.00185532 0.0964261 
0.00200009 0.00486312 0.0860659 
-0.0169228 -0.00436911 -0.0171415 
0.0259437 -0.0279221 0.0670521 
0.00677461 -0.0128872 -0.00142744 
0.0316982 -0.0199389 0.0440274 
-0.00014348 0.00758522 -0.00178101 
-0.0282399 0.0170467 0.0438714 
-0.00648529 0.0106149 0.00991103 
-0.0122974 -0.00386558 0.0071623 
-0.00475392 0.00444272 0.038748 
-0.00187581 0.00552121 0.0574456 
-0.00293084 0.0113284 0.0601442 
-0.00432486 0.00459772 0.0239665 
-0.0127025 -0.0132477 0.0648231 
-0.0162549 -0.0156287 0.0703884 
-0.025767 -0.0246791 0.0457234 
-0.0146081 -0.0161847 0.0340769 
-0.00094544 -0.00188457 -0.00145475 
0.000141441 0.00382398 -0.0108113 
-0.00958848 -0.00219576 0.0131044 
-0.0194014 -0.00912273 0.0191192 
0.0149566 -0.00968084 0.077296 
0.0114372 -0.00905157 0.0540099 
0.00619532 -0.00941197 0.0813756 
0.0142179 -0.0145053 0.0971723 
-0.0070798 0.00594581 0.0169504 
-0.010587 0.0137956 0.0570291 
-0.00716802 0.0175748 0.0552431 
-0.00195387 0.00203087 0.0206501 
0.00377183 0.00429745 0.0344948 
0.00358532 0.00401694 0.0169646 
0.00365811 0.00315888 0.0282655 
0.000895395 0.000753108 0.0239485 
0.0340372 0.0278287 0 
-0.0378351 -0.0321452 0 
-0.0407235 -0.0153918 0 
-0.0500417 0.00731103 0.135493 
-0.0143364 -0.0179916 0.062345 
-0.00384046 -0.0130642 0.106232 
-0.0234734 -0.0257425 0.104718 
-0.0058385 -0.00387354 0.102867 
-0.000515073 0.00139215 -0.000240867 
0.0026184 -0.00316409 0.0301245 
-0.000994556 0.000163973 -0.000251641 
0.0027966 -0.00399193 0.0194973 
0.000260225 -0.000115908 0.0233102 
-0.000649439 7.40054e-05 0.0446731 
-0.00276577 -0.000831088 0.0324224 
-0.00107136 -8.96842e-05 0.0240996 
-0.00126278 -0.000131503 0.0845305 
-1.80174e-05 0.000869406 0.0878464 
0.000736968 0.000157384 0.0831164 
0.000903673 -0.00223107 0.0842089 
6.58477e-05 -0.000542966 0.000413911 
5.41882e-05 -0.000160545 0.0195495 
-0.000916332 0.00144275 0.0261506 
-0.00154835 0.00148485 0.0284617 
0.0129267 -0.0122931 0.0418864 
0.00176098 -0.00124313 -0.000718698 
0.0172983 -0.00940887 0.0275358 
0.0143878 -0.014966 0.0232632 
-0.00117223 0.00202364 -0.000771782 
0.00285891 -0.0038188 0.00546797 
0.00294488 -0.0054699 0.0132757 
0.000112697 -0.00193715 0.00230416 
-0.0498768 -0.0203397 -0.0184491 
-0.0315095 -0.00733272 0.105015 
-0.00715605 -0.00629523 -0.038298 
-0.0236565 0.00725355 0.0756593 
0.00587292 -0.00361973 0.0457992 
0.0049288 -0.00398924 0.0268057 
0.00410347 0.000714911 0.0371361 
0.00106878 -0.00030842 0.0263416 
-1.15804e-05 0.000143935 -0.000181193 
0.000289773 0.000770329 -0.000525917 
0.000500113 -0.00068481 -0.00030219 
-0.000964911 6.56144e-05 0.00135459 
-0.00155824 -0.000529809 -0.000891592 
-0.000605004 -0.000941193 0.000268054 
0.0033116 0.00538856 0.0184604 
0.00435816 0.00551653 0.00809549 
0.00595391 0.00383497 0.0370613 
0.00461546 -0.00535083 0.0262427 
0.00472925 -0.00549582 0.0458815 
0.0114871 -0.00193625 0.0578139 
0.00439652 0.00634296 -0.00894188 
-0.00617815 -0.0142614 0.0171116 
-0.00167237 -0.0027908 0.00380879 
-0.0104559 -0.000740668 0.00542005 
0.0231283 -0.0227923 0.107488 
0.009668 -0.0174581 0.0464124 
0.0169254 -0.0144 0.0950506 
0.0453029 -0.0203158 0.0989438 
0.00370923 0.00752201 0.0531732 
0.00466703 0.00678229 0.0241349 
0.0114998 0.0160485 0.0627655 
0.000516002 0.0102115 0.060498 
0.00013819 0.00225288 -0.00285089 
0.00709227 -0.00630031 0.0107414 
-4.03295e-05 0.00215605 -0.00354166 
0.00401198 -0.00150403 0.00647474 
0.0112092 0.00283817 -0.00768409 
-0.00707305 0.00973309 -0.00108111 
0.00298429 -0.00363614 -0.0108764 
-0.0323583 0.0322955 0.057858 
0.00816772 -0.0100329 0.0207671 
0.00302605 -0.00655561 0.024516 
0.0086614 -0.00533307 0.0120098 
0.00882874 -0.00413554 0.0241601 
-0.0269451 -0.0028674 0.0976681 
-0.010314 0.0334127 0.0533387 
0.0159354 0.0320893 0.121396 
-0.00255325 0.0383949 0.106964 
-0.000283289 -0.000617014 0.0403867 
-0.00274141 0.00334003 0.0321453 
-0.00152224 0.00168666 0.0247437 
-0.00298887 0.00267246 0.047099 
0.00374086 -0.000539573 0 
-0.0118015 -0.00688404 0 
0.00526773 0.0105652 0 
-0.0238161 -0.00525114 0.000176831 
5.61349e-06 0.000142831 -0.000160648 
0.00012932 0.000362372 -0.000186926 
0.000408616 0.000619726 -0.000297516 
-0.00155341 -0.000290887 0.000889649 
-0.00123669 0.00182214 -0.00420296 
0.00552587 0.000168429 0.00403881 
0.00244282 -0.00263401 0.00520767 
0.00828781 -0.00141779 0.0077955 
0.000212818 0.000592995 0 
0.00325397 -0.00152344 0 
0.000626566 -0.000903676 0 
-0.0104764 0.00385935 0.00265654 
-0.0286122 -0.026247 0.101427 
-0.00734846 -0.0147286 0.0563578 
-0.0304148 -0.0199436 0.0679378 
-0.0105046 -0.0206862 0.0953897 
0.0315801 0.018127 0.0892396 
0.0146349 0.0178256 0.0749971 
0.0247038 0.0358463 0.0913949 
0.0328855 0.0154852 0.0188575 
-0.00426008 0.00272364 0.0310671 
-0.00531347 0.00640384 0.0618958 
-0.00497356 0.00482735 0.0390488 
-0.00245336 0.00287936 0.047733 
0.000121492 0.00034267 0.0824726 
0.00366301 -0.00212557 0.087006 
0.00119265 -0.000630468 0.0732731 
0.0016042 -0.00280704 0.0851605 
-0.00171006 0.000886844 0.0959585 
-0.00362253 0.0115663 0.0833589 
-0.0130069 0.00703346 0.0937879 
-0.00408075 0.00212599 0.0763991 
-0.00136947 0.000766533 -0.00191464 
-0.00159233 0.000226668 -0.00148936 
0.00340599 -0.00062685 0.00455233 
0.00405315 4.81643e-05 0.00360904 
0.000607606 0.000929456 -0.00103954 
0.00338757 -0.00303298 0.00787057 
-0.00240848 0.00077483 -0.0019733 
0.0086681 -0.00606561 0.00790868 
0.0443994 0.0127381 0.1027 
0.0233884 0.0348221 0.00294868 
0.00519278 0.0482962 0.0820138 
0.0326847 0.0345349 0.10573 
0.0149314 -0.00366813 0.0540134 
0.00574852 -0.00438184 0.0221341 
0.0189995 -0.0139775 0.0569785 
0.00409166 0.00109469 0.0201976 
0.00628158 -0.00971881 0.0767955 
0.0111334 -0.0174125 0.0634398 
0.00275832 -0.0155239 0.110819 
0.0136302 -0.0150798 0.10303 
-0.0938135 -0.0784994 0.244366 
-0.0164773 -0.0495261 0.139793 
0.00546226 -0.00426978 0.249816 
-0.030103 -0.0107701 0.171491 
-0.000191281 -6.55309e-05 0.0175504 
0.000228007 -6.20604e-05 2.07564e-05 
0.000121058 0.000132653 0.000549507 
-0.0014201 -0.00118852 0.0309654 
0.00207045 0.00157403 -0.00176484 
-0.00096042 -0.0119503 0.00743954 
0.00166057 0.00364982 -0.00124942 
-0.00198253 -0.00413816 0.00232888 
0.0151914 -0.00812661 0.0789713 
0.00310162 -0.00278957 0.0902189 
0.00994576 0.00290755 0.0734199 
0.0185251 0.003147 0.0945724 
-0.0012516 -0.00211237 -0.00746236 
0.00814164 0.0253897 0.0217616 
0.00743807 0.018434 0.0209156 
-0.000400573 0.00947107 0.0050054 
-0.00531294 0.00842072 0.0149679 
-0.00750882 0.00935496 0.0307767 
-0.00229551 0.00268483 0.0137894 
-0.00440423 0.00593256 0.0159076 
-0.00333861 -0.00447651 0.0251907 
-0.012218 -0.0112379 0.0591324 
-0.00615586 -0.0063038 0.0449269 
-0.00734818 -0.00769424 0.0478047 
-0.00154427 -0.000415478 0.000876448 
0.000503217 0.00283482 -0.00401918 
0.00128398 -0.0151487 0.0072875 
-0.000660641 -0.00502607 0.00764096 
0.0103245 -0.0161056 0.0645677 
-0.00122149 -0.00590034 0.0339683 
-0.00262382 -0.0138436 0.064965 
0.00612683 -0.0160533 0.0531423 
-0.00200957 0.00171946 -0.00134276 
-0.000906943 0.00153426 -0.000629812 
0.00453508 -0.00710226 0.0221821 
0.00228258 -0.00618812 0.0340952 
0.00613797 -0.00769136 0.0801064 
0.00924436 -0.00471493 0.069013 
0.00524907 -0.00306092 0.0895327 
-0.00254798 -0.00337189 0.0870913 
-0.00388233 -0.0132434 0.0618167 
-0.0232856 -0.0230568 0.0824871 
0.00525806 -0.0149277 0.0666198 
-0.0212295 -0.0180754 0.0412156 
0.0161591 -0.000499878 0.249242 
-0.0370757 -0.026433 0.178265 
0.0195238 -0.00597472 0.098024 
0.0997287 -0.0118925 0.0903741 
-0.0058051 -0.00709912 -0.000205184 
0.026381 0.0587916 0.0790489 
0.0110736 0.036765 0.0415941 
-0.00402515 -0.00256021 -0.0174346 
-0.0141563 -0.0175349 0.0625248 
-0.0242007 -0.0265304 0.0985091 
-0.0172516 -0.0110497 0.0722949 
-0.00536588 -0.00271896 0.103563 
0.0264495 -0.0180605 -0.0663362 
0.0168521 -0.0383626 0.0528618 
-0.00130379 -0.0646159 0.102407 
-0.00393909 -0.0663061 0.246048 
0.00530277 -0.0097378 0.0815155 
0.00393741 0.000752983 0.0925375 
0.0166161 -0.00888627 0.0767247 
0.0146559 -0.014518 0.097388 
-0.010276 0.00490127 0.0175722 
-0.0239581 0.0242359 0.0327068 
-0.0292351 0.0223341 0.0660834 
-0.0207436 0.020664 0.0698528 
-0.0064399 0.00670523 0.0602994 
-0.0122811 0.00777301 0.0895399 
-0.00512394 0.00974129 0.082464 
-0.00425953 0.00200083 0.0793145 
-0.0598076 -0.0522221 0.355346 
0.0162946 -0.0136359 0.21819 
0.00149463 -0.00602894 0.442347 
-0.067957 -0.0177462 0.132067 
-0.00101396 0.0709047 0.249891 
-0.0198212 0.000461708 0.287522 
-0.00980119 0.0376313 0.0834483 
-0.0276453 -0.0394889 0.113261 
-0.0056793 -0.00392181 0.0416159 
-0.0165923 -0.0148747 0.0704241 
-0.0139374 -0.0140862 0.0635256 
-0.0131944 -0.0152881 0.0355371 
-0.000694924 0.01414 0.0480616 
-0.00100217 0.0113816 0.0587607 
-0.00141252 0.0036465 0.0331065 
-0.00599214 0.00402583 0.0257392 
-0.000929241 0.000545502 0.000612879 
0.00293856 -0.00279038 0.0318737 
-0.000278725 0.00018795 0.0234099 
0.00130317 -0.00147895 0.0265429 
0.000550108 0.00180893 -0.00171615 
0.00125249 0.000992061 -0.00202372 
-0.00621651 -0.00200084 0.00527505 
-0.00348908 -0.00115624 0.00365989 
-0.00344275 -0.00324854 0.026391 
-0.00438674 -0.00262963 0.00999322 
-0.0105638 -0.0092732 0.0268431 
-0.00897692 -0.00867928 0.0474126 
-0.000107428 0.000326946 0.0175 
0.000104919 -0.000240636 0.0376108 
0.000196207 0.000236471 0.0232319 
0.00208632 -0.00313271 0.0331669 
-0.0088257 0.0217916 0.0541484 
-0.00275052 0.0151932 0.0436154 
-0.0236702 0.0166697 0.0948514 
0.0125584 0.0319157 0.122265 
-0.0332569 0.0247388 0.12099 
-0.0252394 0.0290715 0.0748613 
-0.0414489 0.00636692 0.195126 
-0.0471294 0.0519549 0.0603935 
0.0125658 -0.0117907 0.0379236 
0.00644144 -0.00367179 0.0190132 
0.00368629 -0.00384091 0.00297411 
0.00299868 -0.00508263 0.0169989 
0.00181243 -0.000496504 0 
0.000673646 0.000200749 0 
0.00166956 0.000801017 0 
-0.00108184 -0.000851804 0.00101798 
-0.000238704 -0.000175724 0.0229668 
0.000330295 9.90804e-05 0.000173968 
0.000231522 -8.1944e-05 0.000407089 
-0.00148094 -0.00152758 0.0307622 
0.00938082 0.000553942 0.12003 
0.00958597 -0.00611671 0.191195 
0.0290133 0.00369296 0.15106 
0.017372 -0.0236723 0.0965466 
0.0100834 0.00230793 0.0728648 
0.00563994 -0.00136014 0.0890834 
0.0139668 -0.00867518 0.0796219 
0.00560568 -0.00429162 0.0694704 
0.043928 0.0136205 0.264395 
-0.0254411 -0.0025683 0.447589 
-0.0155136 0.0623838 0.325255 
-0.0925974 -0.0484247 0.208429 
0.0243176 -0.0228379 0.0952925 
0.0207233 0.00877963 0.100918 
0.0330817 0.00664037 0.145361 
0.0130775 -0.021734 0.102129 
0.00435438 0.00143114 0.0367278 
0.00426585 0.00372641 0.0240992 
0.00377082 0.00345851 0.0346527 
0.000294807 0.000789893 0.0236981 
-0.00623743 -0.0192409 0.0232084 
-0.00187439 -0.00431852 0.000589559 
-0.00430199 -0.00478588 0.0129789 
-0.00647736 -0.00550535 0.0157534 
-0.0119694 0.00679484 0.0896432 
-0.00642426 0.00115599 0.0579717 
-0.00949975 -0.000793435 0.0784935 
-0.00452537 0.00220099 0.0789639 
-0.000126286 0.000164605 0.0553679 
0.00452465 -0.00131099 0.0560615 
-0.000411213 -0.000586902 0.0433974 
0.00359514 -0.00182694 0.0487363 
0.000592779 0.000143515 0.0359267 
-0.00198179 0.00143615 0.0252711 
-0.00166169 0.00153667 0.0287716 
-0.00237046 0.00284365 0.046996 
0.000618527 -7.15167e-05 -0.00025918 
-0.00118538 0.000420343 0.00162097 
0.00201101 -0.0007747 -0.000295587 
-0.0030009 0.00108253 0.00190197 
-0.0150181 -0.0197882 0.0305354 
-0.0124537 -0.0112047 0.0504494 
-0.0164056 -0.0138925 0.0229363 
-0.00207868 -0.00404712 0.00951555 
-0.00700956 -0.00718257 0.0292093 
-0.00657217 -0.00784778 0.0118112 
-0.0106142 -0.00369188 0.00610349 
-0.0136499 -0.0121348 0.0357885 
0.0114048 0.0114982 0.233932 
0.0584518 0.0365122 0.172766 
-0.00511782 0.0361268 0.182904 
0.0105973 0.0222785 0.143778 
0.0261835 0.0266554 0.0993425 
0.0288109 0.00875641 0.142471 
0.0232017 -0.0158733 0.10655 
0.0228041 0.00235715 0.0922249 
-0.000520314 -0.000119479 0.000504519 
0.00350244 0.00026777 0.0351255 
-0.000356027 -4.21913e-05 -0.000988418 
0.00127301 -0.000689172 0.0277737 
0.0119265 -0.0146218 0.0393525 
0.0144076 -0.0096461 0.0275963 
0.00523675 -0.000662135 -0.000455136 
0.00602772 -0.00413317 0.0199245 
0.00694103 0.00898657 0.0524153 
0.00429801 0.00541634 0.0256832 
0.00401894 0.00343527 0.0268767 
0.00597344 0.00515907 0.0197707 
2.68972e-05 0.000232903 0.000341918 
7.15108e-05 0.000662192 0.000661764 
-9.65021e-06 -1.36315e-05 -0.000524995 
0.00188582 -0.00274157 0.025539 
-0.000719777 -0.00263755 0.00387933 
-0.00302166 7.05418e-05 0.00330697 
0.00100333 0.00252725 -0.00349058 
-0.00408527 -9.08118e-05 0.00430315 
0.0010232 0.00144836 0.000282672 
-0.00406194 -0.00380032 0.0263605 
-0.0021107 -0.00186996 0.0118831 
-0.00269483 -0.00322079 0.0210898 
-0.0246221 -0.00835883 0.0480274 
-0.0176137 -0.0151695 0.0257923 
-0.00987057 -0.0100824 0.0492567 
-0.00240526 -0.00348022 0.00750079 
0.0024054 0.0125793 0.0517922 
-0.0133436 0.0145283 0.056131 
-0.0271991 0.0240538 0.0884003 
-0.00205965 0.0210356 0.100535 
-0.000270878 -0.000412523 0.0763826 
0.00499971 0.00520776 0.0606909 
-0.000776818 -0.000502121 0.0595263 
0.00451208 0.00340677 0.0773959 
0.0220926 -0.0298372 0.0981825 
0.017194 -0.0382308 0.0709389 
0.0204871 0.0153582 0.0554353 
0.0162851 -0.0137634 0.052081 
-0.00603227 0.00482368 0.0382538 
-0.000430133 0.0052423 0.0572169 
-0.0101873 0.0141346 0.0564737 
-0.0020861 0.0110672 0.0605199 
-0.000474495 -8.33792e-05 0.0718787 
0.000859725 -6.76739e-05 0.0774237 
-0.00427762 -0.00686105 0.0764691 
-0.00331364 -0.00298833 0.0821905 
0.0276794 -0.0213775 0 
-0.0302809 0.0219436 0 
-0.0191354 0.0349918 0 
0.0118369 0.0500876 0.0901002 
-0.000249979 0.000392613 0.0330445 
-0.00230335 -0.00220139 0.0315024 
-0.000553605 -5.95256e-05 0.0427424 
-0.00114064 -0.0019288 0.0254368 
-0.000234143 0.000300552 0.0575315 
-0.000830643 0.00019889 0.0724466 
0.00511531 -0.0048946 0.0692232 
0.00390179 -0.004681 0.054768 
0.0297499 -0.00961144 0.0330051 
0.011451 -0.0179252 0.0599982 
0.0164667 -0.0182854 0.0883039 
0.0111466 -0.0159055 0.0576336 
-0.00480616 0.00427006 0.0171903 
0.00286324 -0.00158843 -0.00327463 
-0.00575901 0.00296311 0.0171247 
-0.00303174 0.00142864 0.0043976 
7.41825e-05 -0.00066771 0.000173669 
-0.000357342 0.00302433 0.0346353 
0.000108772 -8.83981e-06 -0.000856835 
0.000387081 0.000839082 0.0245179 
-6.66615e-05 0.000877975 -0.00090742 
0.00198915 -0.00378315 0.0306429 
0.000166183 0.00109735 -0.000274604 
0.000605566 -0.00187006 0.026245 
-0.00115221 0.00040354 -7.87739e-05 
0.00404464 -0.00324201 0.00689467 
-0.00109028 0.00132313 -0.000936237 
0.00612155 -0.00215691 0.0145149 
-6.88588e-05 -0.000104852 -0.00102743 
-4.66605e-05 -5.30367e-05 0.00118583 
0.00031709 0.000444264 0.000701386 
-0.000820131 0.00229122 0.0181384 
-0.000157379 -0.000569589 0.045442 
-0.00149137 -0.00297866 0.0354221 
0.000555112 -0.000228993 0.0317979 
-0.00146219 -0.00125007 0.0297642 
0.00318047 -0.00379199 0.0330532 
0.00611174 -0.00453714 0.0189961 
0.0111216 -0.0109062 0.0376922 
0.00332761 -0.00452873 0.0170263 
0.0153408 0.00721894 0.0264086 
0.00213971 0.0013201 -0.0011103 
0.0121309 0.0137305 0.0385549 
0.013812 0.0149131 0.0209412 
0.000128195 -0.000346215 0.0553873 
-0.00351848 -0.00426991 0.0513421 
-0.00604347 -0.00503855 0.0454011 
-0.00470324 -0.0039828 0.0656637 
-4.11319e-05 0.000286075 -0.00671648 
-0.00103747 -0.00482626 0.0145145 
-1.50012e-05 3.91683e-06 -0.00154868 
-0.00181445 -0.00171506 0.0109934 
-0.0115348 0.0267748 0.342429 
0.0648881 -0.0489364 0.223747 
0.0119659 -0.0268307 0.295449 
0.100456 -0.0835657 0.0572663 
0.009832 -0.0137197 0.00538514 
0.0595991 -0.043618 0.103908 
-0.00951416 0.0122244 -0.0394172 
0.0463164 -0.0138656 0.0593373 
0.00410807 0.00712509 0.0542025 
-0.00120551 0.00532012 0.0349052 
-0.000381416 0.0115515 0.0583254 
0.00140806 0.00488074 0.0657424 
-0.000257992 0.000381581 -0.000156929 
-0.00411215 -0.00062551 0.00606111 
-0.000132955 0.000258352 -0.00246702 
-0.00271233 -0.000694047 0.00393039 
-0.0200356 -0.0157087 0.165396 
0.0155322 0.0196602 0.344268 
-0.0507056 0.0123708 0.154146 
-0.0902285 -0.0379254 0.0815415 
0.000214821 2.33483e-05 0.000231451 
-0.000191512 0.000210107 -0.000307115 
0.000317587 0.000728108 -0.000176353 
0.000623182 -0.000520436 0.0017225 
-0.0128129 -0.013378 -0.0104692 
0.0203776 0.0351008 0.0293252 
-0.00471272 -0.00748672 0.00523956 
0.0159399 0.0257482 0.0146349 
-0.00526275 -0.00162514 0.0236577 
-0.00873085 0.00107613 0.00625089 
-0.0187135 0.001737 0.0408018 
-0.00610262 -0.00968234 0.0135277 
0.0148403 0.0113935 0.0321341 
0.00416466 0.00369643 0.0197942 
0.00745706 0.0196732 0.0564873 
0.0126925 0.0156346 0.0624232 
-0.000206103 3.4355e-05 0.0349041 
-0.00103268 0.00155768 0.026515 
0.000282944 -0.000209627 0.0192048 
-0.00170353 0.00153017 0.0287208 
0.000442754 0.000996591 -0.00121421 
2.23205e-05 0.000472375 1.28179e-05 
-0.00199647 -0.00121734 0.00277251 
-0.00184139 -0.0027499 0.00634788 
-0.0145351 0.0241254 0 
0.0105458 -0.0594525 0 
-0.0165828 0.025434 0 
0.00975365 -0.0954743 0.112719 
0.00555295 0.00700781 0.053677 
0.00476172 0.00626923 0.0606536 
0.00452405 0.00365647 0.0265013 
0.00285781 0.00329437 0.0435972 
9.22576e-07 -0.000119148 0.0372886 
-0.00541928 0.0016576 0.0595846 
-0.00462323 0.00101638 0.0380651 
-0.00167709 0.00145535 0.0250904 
0.00840415 -0.0188931 0.0139988 
0.0229319 -0.0410261 0.0790854 
0.0194034 -0.016059 0.0675933 
0.00608219 -0.0186494 0.00630658 
0.00785345 -0.00350333 -0.0035042 
0.00529516 -0.00182578 -0.000253675 
-0.0127094 -0.00203799 0.00588375 
-0.00924059 0.00136683 0.00816481 
0.00170792 -0.000221235 0 
-0.000377823 0.00010158 0 
0.00193964 7.47303e-05 0 
-0.00367807 0.00287659 0.00161615 
-0.00460522 0.00753647 0.0105233 
-0.0131409 0.0292132 0.0358655 
-0.00294252 0.00570678 0.00777563 
-0.0173085 0.0217361 0.0546408 
0.0127837 0.0165478 0 
0.00559716 -0.00824358 0 
-0.0325328 -0.00500313 0 
-0.0555779 0.00488551 0.0764737 
-0.00167695 -0.00311732 0.0330748 
0.0008243 -0.00644689 0.0620808 
-0.00374428 -0.013549 0.060834 
-0.00607002 -0.00847918 0.0486611 
0.0367539 -0.0133043 0 
-0.0524019 -0.00276492 0 
-0.0442889 0.00427651 0 
-0.0628816 0.0251617 0.166295 
-0.0572522 -0.0179782 0.313891 
0.0116219 0.037792 0.36511 
-0.000695599 -0.0452178 0.258813 
-0.0572182 -0.0960762 0.0482552 
-0.000285297 0.000233011 0.03906 
-0.00283981 0.00278914 0.0325223 
0.000332496 -0.000333561 0.0208958 
-0.00146114 0.00132338 0.0256025 
-0.0066191 -0.0043297 0.0451873 
-0.0037727 -0.00556759 0.0507617 
-0.00662595 -0.0091643 0.0768391 
-0.00418724 -0.00282637 0.066396 
0.0180414 -0.0271196 0.113916 
0.0164673 -0.0216941 0.0617816 
-0.00409917 -0.0119417 0.108847 
-0.00463869 -0.0191142 0.100215 
-3.61497e-05 -2.93829e-06 -5.5401e-05 
0.000112058 9.10819e-06 -0.000382222 
0.00019938 1.62058e-05 0.0004618 
-0.000627964 0.001546 0.0341671 
-0.000377656 0.00011959 -0.00162555 
0.000476883 -0.000143102 0.00136921 
-0.000635452 0.00018063 -0.00095557 
-0.0051615 -0.00318805 0.0253294 
0.00325014 -0.00159401 -0.00291359 
0.00160062 0.000213903 -0.000980459 
-0.00395157 0.00984481 0.00843098 
-0.00265569 0.00886512 0.00668132 
-0.00466585 0.00503702 0.0173571 
-0.0093764 0.0081767 0.0423743 
-0.00272363 0.00320318 0.0304412 
-0.00647409 0.00590355 0.0419003 
-0.00485557 -0.00365015 0.0542603 
-0.00245899 -0.00630212 0.190592 
-0.00860389 0.000667526 0.163531 
-0.0170294 -0.0990102 0.080892 
0.003202 0.000652342 0.0361535 
0.00185207 -0.00124832 0.0267224 
0.000382825 3.77841e-05 0.0373095 
0.00388049 3.54914e-05 0.0551927 
0.0186274 0.00749123 0.0556268 
0.00450767 0.004903 0.017475 
0.00709131 0.0127831 0.0266126 
0.0160694 0.0111207 0.061572 
-0.0246492 0.0163854 0.103826 
-0.0467229 -0.00728201 0.196298 
0.00271149 0.0161292 0.245094 
-0.00232649 0.0875231 0.0883321 
0.000982885 -0.00135861 -0.00100727 
-0.000180086 -0.000988342 0.000437361 
-0.00363036 0.000785427 0.000597455 
-0.0032975 0.00112906 0.00341299 
5.81127e-06 -1.3576e-05 0.00036929 
5.47409e-07 5.22138e-05 0.000345359 
-7.38722e-06 6.20542e-05 -0.000209354 
0.00148821 0.00022947 0.0349837 
-0.0304533 -0.0166943 0.0747519 
-0.0107948 -0.0144588 0.0601108 
0.000702926 -0.0182137 0.067177 
-0.00951638 -0.0209194 0.0939886 
-0.000761776 0.00142096 -0.00224993 
0.00215923 -0.0110648 0.00811351 
-0.000706156 -0.000585566 0.000493433 
0.000265198 -0.00319648 0.00248891 
0.00126337 0.00413462 -0.0103689 
-0.0118092 -0.0028731 0.0123228 
-0.0165968 -0.00787528 0.0195166 
-0.00846066 -0.0013417 0.00720333 
0.0101576 -0.00576647 0.296703 
0.000421815 -0.0654544 0.218048 
-0.0619841 -0.0451053 0.160685 
0.111004 -0.0339044 0.154122 
-0.004949 0.00122565 0.0378049 
-0.00599826 0.00176932 0.0598477 
-0.0139026 0.001997 0.0661371 
-0.00705707 0.00536853 0.0415437 
0.0147014 -0.00846282 0.0741851 
0.0185604 0.00438502 0.100249 
0.0256105 -0.021533 0.0945985 
0.0181487 -0.0131315 0.102289 
0.000532982 0.000468587 0.00182288 
-0.00335663 -0.0026131 0.0245863 
0.000165605 7.92553e-05 -0.001934 
-0.00234582 -0.00221379 0.0123714 
-0.00307312 -0.0123839 0.0601003 
0.000696943 -0.00621086 0.0608997 
-0.002524 -0.00460713 0.0340568 
-4.78535e-05 -0.00610344 0.0359076 
0.00317331 0.00694605 0.0510424 
0.0117799 0.0164606 0.0642577 
0.0101696 0.0144508 0.0849633 
-0.00087212 0.0105091 0.0610765 
-0.0376857 -0.0161724 0.0862616 
0.0141553 -0.017841 0.0621788 
0.0147556 -0.030194 0.111145 
-0.0170104 -0.0137681 0.0891118 
-0.00514211 -0.0131591 0.112809 
0.0140283 -0.0186431 0.0626704 
0.0224168 -0.0289257 0.107112 
0.0114654 -0.0119095 0.103851 
0.000298117 0.000147124 -0.00188315 
-0.00195864 0.00219088 0.0314339 
0.00029133 -0.000396223 0.000354247 
-0.00153905 0.00154142 0.0261484 
-0.0104518 -0.00288278 0.0772404 
-0.0155747 -0.0102035 0.0711707 
-0.00353196 -0.00371898 0.0657074 
-0.0100851 -0.00228163 0.0522248 
0.0060096 -0.00457482 0.0464822 
0.00408308 -0.00509218 0.0166635 
0.00330067 -0.00360176 0.0307099 
0.00874755 -0.00859333 0.0535994 
0.00778461 -0.00381665 -0.00450285 
0.000948045 -0.00783549 -0.00839046 
-0.00565042 0.0591591 0.0367047 
-0.00280506 0.00581272 0.000523101 
-0.000114758 0.000822942 -0.00127815 
0.000305402 0.000877559 -0.00102543 
0.000652085 0.000129341 -0.000200358 
0.0060979 -0.00367844 0.00867285 
0.0034713 0.000192964 0 
-0.00213942 -0.000669858 0 
-0.000965993 0.000403516 0 
-0.00532555 -0.00266487 0.00383109 
-0.000342877 4.53462e-05 -0.000571541 
0.000979614 0.0009681 0.0246558 
-1.77136e-05 -0.000100108 0.000520019 
0.000563934 0.000841188 0.0244006 
0.000136135 0.000867682 -0.00339722 
0.00542696 -0.00456476 0.0201831 
-0.000616176 0.00105098 0.00211407 
0.00572064 -0.00264173 0.0192111 
-0.00180432 0.0042279 0.0345053 
-0.000675739 0.00400915 0.0205598 
0.000129573 0.0129985 0.0453655 
-0.00571142 0.00420945 0.0265492 
-0.00481986 -0.00307932 0.0664382 
-0.0147665 -0.0102223 0.066943 
-0.00682578 -0.00732801 0.0444874 
-0.00825523 -0.00341997 0.0534469 
0.0100976 0.012071 0.0778819 
-0.00479753 0.0209295 0.101605 
0.0271531 0.0259761 0.117035 
0.0119329 0.0213499 0.148644 
0.0129233 -0.00961128 0.040257 
0.0181036 -0.0104784 0.0317948 
0.00308255 -0.00334479 0.0165735 
0.0176255 -0.0184089 0.0609673 
-0.0134065 0.0105024 0.05577 
-0.00559385 0.000167065 0.0619423 
-0.00534494 0.00524484 0.0630777 
-0.00758668 0.00433794 0.0405628 
-0.0165021 0.00314737 0.0362772 
-0.0088931 0.000505398 0.00883714 
-0.00521696 -0.0019582 0.0253117 
-0.00580889 0.00548004 0.0130583 
0.00409295 -0.00137686 0.00507915 
0.00339532 -0.0131896 0.0153533 
-0.000452712 1.15944e-05 0.000446358 
0.00257484 -0.0127435 0.00881138 
-0.0203746 0.0062835 0 
0.034673 0.00410391 0 
-0.0218176 0.00583872 0 
0.0415431 0.0038351 0.0315884 
0.0565562 -0.00657021 0.0529009 
0.0290334 -0.0578572 0.119395 
0.00894063 -0.0256885 0.0320105 
0.0291096 0.0260722 0.00177933 
0.00427823 -0.00529198 0.0383986 
0.00531215 -0.00450627 0.0213354 
0.0032975 -0.0031854 0.0315777 
0.000783187 -0.000761135 0.023471 
-0.0701473 -0.00429201 0.186795 
-0.0538592 -0.00855619 0.10074 
-0.0444322 0.0442623 -0.0279096 
-0.0231553 0.0388034 0.265137 
0.00383418 -0.0416579 0 
0.00961974 0.0209104 0 
0.00570834 0.0262832 0 
0.00596924 -0.0478806 0.033555 
0.0258457 -0.0225185 0.114769 
0.0360774 -0.0346115 0.0983987 
0.0249091 -0.013584 0.00933481 
0.0411536 -0.0143986 0.0579504 
0.000994358 0.000426872 0 
-0.00114434 0.00455673 0 
0.00213212 0.00180328 0 
-0.00606362 -0.0119216 -0.00351348 
-0.000411746 0.000103946 0.0484369 
9.10489e-05 -5.15705e-05 0.0478177 
0.00177001 0.00462614 0.0645335 
0.00186195 0.00334056 0.0462384 
0.00708412 -0.00906297 0.0799817 
0.0145894 -0.00903867 0.0787432 
0.00530272 -0.0012804 0.0902286 
0.0054184 -0.0038353 0.067752 
-0.0064081 -0.0130186 0.066114 
-0.00410685 -0.00695308 0.0783655 
-0.0116686 -0.0156404 0.0635976 
-0.00739092 -0.00961346 0.0466054 
0.000434653 0.000315313 0.00189679 
-0.00228545 -0.00212334 0.0123568 
8.25292e-05 -9.19215e-05 -0.00151909 
-0.00210847 -0.00231631 0.0194965 
-5.60752e-05 -0.000305545 -0.000989166 
0.000176089 -0.000136347 0.000499929 
-0.00119953 0.00106593 0.0260944 
-0.00151957 0.00137686 0.0284313 
-0.000213535 0.000296319 0.0626667 
-0.00154196 -0.00643258 0.0611872 
0.00108753 6.11781e-05 0.0635108 
-0.00298637 -0.00457107 0.0513476 
0.00111479 -0.00121506 -8.12154e-05 
0.0132718 0.00556619 0.0118669 
-0.00127757 -0.00180253 -0.00293048 
0.00352388 0.00060016 0.00374312 
5.79186e-05 0.000810042 0.0803428 
0.000660609 0.000354419 0.0653489 
-0.000442442 -0.000292825 0.0726963 
0.00494146 -0.00268334 0.0690786 
-0.00023625 0.000540059 0.0722 
0.000165495 -0.000284083 0.058163 
-0.000340833 -0.000289677 0.0729209 
0.00448897 -0.00365172 0.0678039 
-0.00247401 -0.0142084 0.0581628 
0.00608811 -0.0157682 0.0569409 
-0.0228867 -0.0228685 0.0942402 
-0.00848291 -0.0171873 0.0939567 
0.000600707 -2.05532e-05 0.0492118 
-0.00644624 0.00426961 0.0627714 
0.000356453 -0.000182794 0.0674029 
-0.00548109 0.00268891 0.0605531 
0.000137598 0.000459274 0 
0.00396779 0.00186489 0 
0.00366501 -0.00384688 0 
-0.00884901 0.0090968 0.00158773 
-0.000652274 0.000254926 0 
0.000914781 -0.000238713 0 
0.00179579 -0.00106129 0 
-0.00315455 0.000130781 0.00110057 
0.00198182 -0.000139588 -0.00395517 
0.00244288 -3.1317e-05 -0.00256221 
-0.00782277 -0.00648179 0.0107011 
-0.00121482 -0.00407199 0.00506529 
-0.00938172 0.00800701 0.0196126 
-0.00258008 0.00136943 0.000135061 
-0.00414276 0.00570808 0.0186532 
-0.00345946 4.12425e-06 0.00324989 
0.0105872 -0.0298063 0.11482 
0.0151392 -0.0216437 0.0717286 
-0.0340995 -0.0140301 0.0761505 
-0.0358553 -0.0164566 0.0373539 
0.00467224 0.0142242 0.0230971 
0.00674194 0.0265978 0.031 
0.00266456 0.00184549 -0.0154309 
0.00572835 0.00845142 0.00959383 
-0.00201079 -0.00826036 0.079765 
0.0010689 -0.00970165 0.0601318 
0.00261908 -0.00893356 0.082254 
0.000116643 -0.00324241 0.0860891 
-0.00419036 0.0110702 0.0807119 
-0.00773689 0.0204414 0.104923 
-0.0118144 0.0109559 0.0953654 
-0.0216784 0.0191765 0.0752943 
0.00100041 0.00307524 0.00252795 
-0.00504772 0.0360027 0.0356245 
-0.015954 0.027956 0.029709 
-0.00132646 0.00847084 -0.000925163 
-0.000279504 8.07911e-05 -0.000360239 
-0.000174458 4.35005e-05 6.46665e-05 
-0.000144052 2.75046e-05 0.000405083 
-0.00123826 -0.001115 0.0346692 
0.00177087 0.00193824 2.03291e-05 
-0.00311838 -0.00487979 0.0207202 
-0.00255122 -0.00272016 0.030369 
-0.00228703 -0.00368733 0.0211249 
0.0826833 0.0120186 0.273886 
-0.014842 -0.0448379 0.310371 
0.0214017 0.000931691 0.426853 
-0.156645 -0.0474504 0.202657 
0.0111013 0.0664524 0.00396112 
0.00894328 0.0363553 0.127517 
0.00254698 0.00235598 -0.0403558 
0.051255 0.0403127 0.114461 
-0.00231254 0.00384102 0.0951205 
-0.00329683 0.0101755 0.0837278 
-0.00598003 0.00092365 0.0780464 
-0.00224693 0.0032781 0.0775794 
0.00420678 0.00288267 0.00652209 
0.00664302 0.00789509 0.0129068 
-0.00252853 -0.00117908 -0.00487765 
0.000310469 0.00557481 0.00238171 
-0.00754199 0.0634208 0.155459 
-0.023122 0.0934378 -0.0425168 
-0.00121733 -0.030559 0.214498 
-0.027561 -0.0433467 0.225454 
-0.000618368 0.000144832 0.0766364 
0.00102716 -0.000266834 0.0717823 
-0.000459805 -0.000207137 0.0622556 
0.000597815 -0.0037099 0.0831718 
-0.000129354 -1.74301e-05 0.0346909 
8.68969e-05 0.000108305 0.020806 
0.000320251 -7.96521e-05 0.0372804 
0.000996574 0.000488217 0.025632 
0.000220202 0.00011752 0.0173541 
-5.47595e-05 0.000410358 0.0242899 
-0.000123558 -8.52997e-05 0.032448 
-0.00236621 -0.00164769 0.0313717 
-1.91068e-05 0.000896163 0 
-0.00031071 0.00149928 0 
-0.00313747 0.00165682 0 
0.00951187 -0.00724142 0.00521067 
-0.00331347 -0.0145993 0.0616234 
-0.000294494 -0.00678545 0.036553 
-0.00198551 -0.00143061 0.0316747 
-0.00627709 -0.00893974 0.049144 
-0.00191197 -0.000754625 -0.00253365 
0.0107384 0.0192692 0.017816 
0.0233969 0.0561918 0.0604454 
-0.00199281 -0.0013329 0.000128997 
0.00922182 0.0226563 0.226446 
-0.00766127 0.0293301 0.174064 
-0.0492724 0.0211984 0.134871 
0.0136941 0.0223911 0.154493 
-1.30521e-05 -1.12323e-06 -0.00108527 
-8.28065e-05 -7.12607e-06 0.000693578 
0.000289728 2.49331e-05 -0.000697353 
7.68796e-05 -0.00339292 0.0342259 
-0.0123499 0.00760812 0.0202296 
-0.00139645 -0.00360258 0.0039755 
-0.0148602 0.00916622 0.0133879 
-0.00957261 0.00760092 0.00658844 
-0.000110513 9.01558e-06 0.000222696 
1.67173e-05 -1.36379e-06 -1.24182e-05 
-6.68664e-05 5.45491e-06 -0.000397809 
0.000580913 -0.00063433 0.0280103 
-0.00722694 -0.00517014 0.0433184 
-0.00285448 -0.00116747 0.0319244 
-0.00302186 -0.0047981 0.0212444 
-0.00189244 -0.00557599 0.0193341 
-0.0594863 0.00422166 0.212937 
0.0249697 -0.0281761 0.318557 
-0.0296733 -0.00366207 0.160049 
-0.0493993 0.0241019 0.200781 
0.00529752 -0.00256098 0.00119642 
-0.0145445 0.00622841 0.0062893 
0.00736086 -0.00362118 -0.00218315 
-0.0106569 0.0042221 0.00220561 
0.000885233 0.00140745 -0.0062489 
-0.00212015 -0.000993386 0.00291166 
0.000147489 -0.0111298 0.0135943 
0.00121524 -0.0064134 0.00476348 
0.000722297 0.00134607 -0.00269147 
0.000696923 0.0013181 -0.000394214 
-0.00688706 -0.00535936 0.0260478 
-0.00442486 -0.00201207 0.0132287 
-7.40498e-05 1.78768e-05 0.0359357 
3.83343e-05 -6.14857e-05 0.0548534 
-0.000133595 0.000372504 0.0445089 
0.00353033 -0.00224807 0.0481858 
0.0321423 -0.0192216 0.113319 
-0.0254604 -0.0401963 0.154338 
0.0160592 -0.0108279 0.0975658 
-0.0120503 -0.0229284 0.0975455 
-4.32003e-05 0.000172861 0.0498391 
-0.00471233 0.00182142 0.0584809 
3.7303e-05 -0.000367053 0.03776 
-0.00218662 0.00133252 0.0258957 
-0.00864268 0.00549437 0.0354676 
-0.00566365 0.0121975 0.0101267 
-0.00306116 0.0136857 0.00841549 
-0.0179058 0.0152824 0.0535833 
0.0134923 -0.00806073 0.156132 
0.00873248 -0.0132335 0.192424 
0.0164262 -0.00922001 0.218206 
-0.123746 0.0477483 0.100683 
1.61223e-05 0.00023596 0.000180249 
-0.00217526 -0.00256556 0.0350539 
-0.000226694 0.000594153 -0.00119758 
-0.00116203 -0.000660208 0.0296809 
-0.00529649 -0.00237257 -0.00366696 
0.00673685 0.00159923 0.0208787 
0.00659662 0.00678754 0.00963474 
0.00768026 0.00265163 0.0090251 
-0.035662 -0.00422342 0.0669313 
-0.046747 -0.0339675 0.0140964 
-0.0210701 -0.0317809 0.105344 
-0.0335821 -0.0260914 0.135012 
-9.00318e-06 0.000770174 0.0833133 
0.000858179 -0.000167722 0.0740712 
-0.000149708 -0.00050401 0.0713062 
0.00178993 -0.00352553 0.0837283 
-0.00103687 0.00483441 0.0340368 
-0.00137848 0.01101 0.0583076 
-0.00143916 0.00571915 0.0565011 
-0.00498446 0.00375056 0.0262091 
0.00194049 -0.0172445 0 
-0.00554223 0.00133685 0 
-1.22166e-05 0.000930443 0 
0.00375917 0.0286853 0.00612923 
-0.0126557 0.00996718 0.0531833 
-0.00307024 0.00517157 0.0111478 
-0.0068594 0.00713902 0.0322934 
-0.00627456 0.00408389 0.041548 
0.0179906 -0.0100145 0.027558 
0.020899 -0.00935901 0.0209335 
-0.00716921 -0.00188543 0.000893515 
0.0147717 -0.00368849 0.0104698 
-0.001945 0.00071362 0.0266566 
-0.00259715 0.00388117 0.0144997 
-0.00281011 0.00294589 0.0316286 
-0.00617056 0.00513838 0.0399225 
-3.85775e-05 -0.000603336 0.00173689 
0.00174614 0.000935873 -0.00224109 
-0.00159082 0.00368621 0.0145515 
-0.00350552 0.00397485 0.0137528 
-0.0170567 0.00146042 0.0708519 
-0.0252594 -0.00341415 0.106154 
-0.0218011 0.00630269 0.0930723 
-0.0149537 0.018296 0.0588963 
6.98671e-05 -0.00316524 0 
-0.000714084 -0.000820851 0 
0.000399474 0.00581075 0 
0.00839845 -0.0159488 0.00695447 
0.034657 0.000761892 0.140322 
0.0292585 -0.0387292 0.166611 
0.0306374 -0.00149697 0.224495 
0.0410235 0.0229875 0.192265 
0.0069932 -0.00709627 0.0195275 
0.00597854 -0.00342496 0.0190039 
-0.000397615 0.00295474 -0.00284212 
0.00526137 -0.00198031 0.00552271 
-0.00293271 -0.00216652 0.0297546 
-0.00616756 -0.00586661 0.0458932 
-0.00874172 -0.00331912 0.0520676 
-0.00431528 -0.000981091 0.0583905 
-0.000133274 1.13659e-06 0.0386983 
-0.000219226 -0.000218568 0.0318518 
0.000154781 -0.000197967 0.0206966 
-0.00264314 0.00272793 0.0331505 
-0.0161259 0.0835522 0.169656 
-0.0135821 0.0240698 0.109427 
-0.0537174 0.0425169 0.0196342 
0.00656112 -0.0188337 0.159178 
-0.000478639 -0.00128726 -0.000236377 
-4.70905e-05 -0.00216019 -0.000290609 
0.00429529 0.00491462 0.0206006 
0.00636235 0.00627784 0.00968629 
0.000651209 -0.000845211 0.0851555 
0.0010835 0.00423654 0.0845891 
-0.000918016 0.00243173 0.0948912 
-0.00258932 0.00495449 0.0781337 
-0.00778057 0.0205847 0.202883 
-0.00481905 0.0670032 0.0515037 
-0.0395846 0.00941188 0.0685152 
-0.0421838 -0.0424411 0.139616 
-0.000873048 -0.000580342 0.0369303 
0.00405917 0.00112203 0.0349578 
0.00444279 0.0003007 0.0557138 
0.00448903 0.00216422 0.053398 
-0.000572761 0.00199334 -0.000847762 
0.00263823 -0.00182158 0.00349668 
-0.000324203 0.00148868 -0.000301329 
0.00379745 -0.000998059 0.00182914 
-0.000550265 0.00203584 -0.00139271 
1.3937e-05 -0.00212856 0.00234357 
0.000220046 0.00228401 -0.00282955 
0.00405971 -0.00695977 0.00802939 
-0.000198165 0.000383113 0.0375736 
-0.0015161 0.00111918 0.0259868 
-0.0044491 0.000552639 0.0374224 
-0.00121309 0.000272363 0.0228953 
0.000343281 -0.000518113 0.0349124 
-0.00152248 0.00188517 0.0277937 
-0.0025059 0.00482162 0.0560055 
-0.00234524 0.00292201 0.0479576 
0.000302087 7.79846e-05 -0.000148254 
0.000241223 5.29122e-05 0.000635465 
4.9109e-05 1.61913e-05 -0.000307083 
0.000362705 -0.00107192 0.0268106 
-2.8702e-05 -0.00011436 0.0379584 
-0.000582214 -0.000343468 0.0364859 
0.00304588 -0.0034571 0.0537397 
0.00142109 -0.00168284 0.0240886 
-0.00752485 0.00670687 0.0098569 
-0.00698195 -0.000216 0.00197856 
-0.0277284 0.0272344 0.0371705 
0.0053505 0.0106462 0.00384274 
0.0995044 0.0442802 0 
-0.110937 -0.025028 0 
-0.0786028 -0.0172762 0 
-0.0218328 0.0276337 0.246393 
-1.09882e-06 -0.000221057 0.0677086 
-6.18528e-05 -0.000284394 0.0501766 
-6.4698e-05 0.000177625 0.0537638 
-0.00523069 0.00462817 0.0612606 
9.89574e-05 8.0321e-05 0.043745 
-0.000590199 0.000303275 0.022703 
-0.000196071 -0.000238729 0.0387018 
0.00308175 -0.0028047 0.0472053 
-0.0012917 -0.000858841 0.0854345 
0.00312367 0.00152709 0.0903867 
0.00292477 0.00384242 0.0845903 
0.00518136 0.00286479 0.0775859 
-0.00574411 -0.00344029 0.00662171 
-0.00330762 -0.000650139 0.00397235 
3.23836e-05 0.00237961 -0.000483962 
-0.00406925 -0.00219006 0.0100479 
-0.000528288 -0.00158027 0.000616861 
0.00349064 0.00409206 0.00612117 
-0.000389538 -0.00113029 -0.00123504 
0.00160325 0.00441543 0.0127556 
0.00132305 -0.000222641 0.0871333 
-0.0024276 0.00219213 0.0914422 
-0.000617747 -6.13335e-06 0.0804152 
-0.00194547 0.00313391 0.0779545 
-0.0287631 -0.0273012 0.103534 
-0.0135412 -0.0301746 0.171254 
-0.049312 -0.0427918 0.0121347 
-0.0101846 -0.0220313 0.0780318 
-0.00120787 0.000677786 -0.000538375 
0.00626075 -0.00637834 0.0105065 
-0.00235058 -5.47148e-05 0.000171124 
0.00449553 -0.00441457 0.0207708 
-0.000175188 0.000476442 0.00108548 
-0.000163731 0.000362989 -0.000651071 
0.00172154 -0.00246028 0.0310949 
0.00120818 -0.00163591 0.0264955 
-0.000254204 0.000313879 -0.000348435 
-0.000819034 0.00044581 -0.000490588 
-0.000306716 -0.00019045 -0.000402306 
0.00162443 0.00490682 0.00287655 
0.000132895 -0.000882053 0.00123611 
0.000962613 -0.000913708 -0.00114823 
-0.0013105 0.00408626 0.0177037 
-0.00222975 0.00334987 0.0148009 
-0.00849402 0.0286543 0.0584732 
0.0121852 0.0181991 0.0465806 
-0.0222183 0.0488032 0.0440784 
0.000520315 -0.00242038 -0.0183693 
0.000214616 -0.000215377 0.000730732 
-0.00209802 0.00198971 0.0311625 
0.000480557 -0.000152155 -0.00119773 
-0.00147792 0.00118085 0.0254424 
-0.0111552 0.0499235 0.00773289 
0.00364999 -0.00876008 -0.0242342 
-0.0198102 0.0436623 0.0776035 
-0.00618076 0.0082138 0.0630153 
-0.00939356 -0.0100279 0.0209074 
-0.0161801 -0.0131428 0.0659051 
-0.0231384 -0.0235112 0.0379145 
-0.0124468 -0.0162007 0.0331291 
-0.000256367 -0.00194041 -0.00102022 
0.0101203 0.00499555 0.013526 
0.0201417 0.00741819 0.0220249 
-0.000508668 0.000101735 -0.00402074 
-0.0068134 0.000879832 0.440843 
0.000684251 -0.0103013 0.258056 
0.0310889 -0.0316994 0.304521 
0.0114186 -0.0257585 0.298176 
-0.0122174 -0.0126043 0.0422149 
-0.0236224 0.00148522 0.106665 
-0.0197735 0.0005368 0.0739984 
-0.0153323 -0.0224724 0.0707338 
-0.000175796 -0.00174914 -0.00023867 
-0.00115804 -0.00103615 0.000161606 
0.00320055 0.00356537 0.0255867 
0.00528525 0.00421621 0.0191729 
-0.0141818 0.00175529 0.0653368 
-0.00558306 0.0020255 0.0606704 
-0.00498537 0.00117016 0.0376152 
-0.00842224 -0.00275663 0.0526162 
0.00383949 0.000633214 -0.00116685 
-0.00799911 9.08365e-05 0.00969228 
-0.00560877 -0.00132563 0.0219951 
-0.00606506 -0.00485816 0.0147349 
0.0651062 0.0173119 0.0517319 
0.0382816 0.0415623 0.114323 
-0.00958887 0.0933432 0.143233 
-0.024879 0.0398262 0.195138 
2.39636e-05 0.000986817 0.0748701 
-0.00476319 -0.00182938 0.0833451 
-0.00482816 -0.00362654 0.0658043 
-0.00415776 -0.00151883 0.0579321 
-0.0375367 -0.0259398 0.329138 
0.000454371 0.00448874 0.287226 
-0.00649397 -0.00758337 0.400311 
0.0113857 -0.0314262 0.302348 
7.10082e-05 7.49349e-05 0.000311039 
0.000198655 0.000206893 0.000667689 
0.000200528 0.000196134 -0.000262469 
0.000471473 -0.00171009 0.0312364 
-0.00474914 -0.00834399 0.0752454 
-0.00534861 -0.0160913 0.105077 
-0.0127465 -0.0129477 0.0645617 
-0.00754182 -0.00849196 0.100915 
-0.00124577 -0.00349518 -0.00393237 
-0.00126236 0.00999083 0.0125728 
-0.000735575 0.000334708 -0.00113224 
0.00053066 0.0117202 0.00203009 
0.00046706 -0.000390143 -0.00040504 
0.000215832 -2.65036e-05 -0.000102045 
0.00036093 -0.00015782 -1.16355e-05 
0.00104492 -0.00242809 0.00154339 
-0.000715726 -0.000312022 -0.000929072 
0.00277609 0.00429716 0.0216398 
-0.00119023 -0.000788492 0.000497069 
0.00294459 0.0047131 0.0174794 
-0.000882541 -0.000410245 -0.000441676 
-0.000110414 -5.51976e-05 -0.000832383 
-0.00078242 -0.000352983 0.00176011 
0.00620713 0.000582681 0.0178905 
0.00717221 -0.0151968 -0.0204512 
-0.0479738 0.03174 0.113964 
-0.0422282 0.00288111 0.018433 
-0.019448 0.00787783 0.0172243 
0.0184388 -0.0118019 0.0292844 
0.00320431 -0.00799234 0.0290641 
0.0154903 -0.0131272 0.0225361 
0.00733378 0.00136956 -0.00342612 
7.84128e-07 9.61186e-06 -0.00037156 
1.79392e-05 0.000219899 0.000581849 
1.56774e-05 0.000192175 2.25733e-05 
0.000818361 -0.000975835 0.0270383 
-0.00302827 0.00859838 0.0083057 
0.00128658 -0.000536363 -0.000910212 
-0.00367913 0.00910045 0.0113796 
-0.00389376 0.00986329 0.00686515 
0.000855348 0.000403489 0.00134332 
0.000590463 -4.95153e-05 -0.0010621 
-0.00441372 -0.00202185 0.0233262 
-0.00270477 -0.00336987 0.0210038 
-0.0183134 0.00718107 0 
0.0074744 0.00334089 0 
0.0208996 -0.00806086 0 
0.0571788 -0.00386701 0.0353031 
0.0310921 0.0389631 0.0802758 
0.00699777 0.0179354 0.0198093 
0.0153311 0.0339514 0.0399978 
-0.0114343 0.0123664 -0.0164528 
0.000774963 -0.000110638 0 
0.00040942 -0.000188733 0 
-0.000205738 -0.000195683 0 
-0.00286293 -0.000393816 0.000353304 
-0.00188352 0.00454894 0.0570475 
-0.000657669 0.0115732 0.0572157 
-0.00127455 0.00520983 0.0344832 
0.00160505 0.0045465 0.0661351 
-0.00951431 -0.0105862 0.188982 
0.0258177 0.000358883 0.274276 
-0.0439028 -0.0202801 0.189674 
0.0179372 -0.0175345 0.184997 
0.000346232 -2.7746e-05 0.072362 
0.000380835 -6.55641e-05 0.0544794 
-0.000622721 0.000177883 0.0618412 
0.001091 -0.00613651 0.059993 
0.00351585 -2.21343e-05 -0.00524597 
0.00890387 0.016334 0.0155562 
0.00636661 0.00708659 0.010344 
-0.00451877 0.0104196 0.0115455 
0.00593345 0.00606298 0 
0.000300532 -0.00059146 0 
0.00204175 0.00299455 0 
-0.000327611 -0.0225462 -1.14686e-05 
-0.000742208 0.000611641 0.00160202 
-0.000263141 0.000128191 -0.00223267 
0.00270769 -0.00273505 0.0291523 
0.0028395 -0.00335392 0.0181548 
0.000186212 2.89181e-05 0.0169488 
-0.000327919 1.39087e-05 0.000348572 
-0.00019504 6.42474e-05 0.0212068 
0.00116322 0.000319056 0.0255762 
-0.000943925 -0.00134797 0 
9.45708e-05 0.00403465 0 
0.000713185 4.68584e-05 0 
-0.0118845 -0.0178621 0.0031463 
-6.57538e-05 -0.000151761 -0.000390837 
-9.21577e-05 -0.000236344 0.000392192 
-1.41971e-05 -8.56854e-05 0.00201955 
0.00147065 -0.00395761 0.00426136 
-0.0112288 0.0476129 0.122568 
-0.00774044 0.0218283 0.0440287 
-0.0216038 0.0303207 0.0204004 
-0.0254934 0.0435393 0.0804542 
-0.00782999 0.00569604 0.0614584 
-0.004548 0.00231968 0.0792535 
-0.00391597 0.0096919 0.0819856 
-0.00188623 0.00363738 0.0778056 
0.0161614 0.0046419 0.362154 
0.0132646 0.0827886 0.15609 
0.00325161 0.0564796 0.136577 
-0.054276 0.0516989 -0.0766605 
-0.00424592 -0.00466361 0.0656428 
-0.00356623 -0.00219597 0.0832945 
-0.0108053 -0.00237987 0.0767723 
-0.00495679 -0.00124452 0.0579706 
-0.00470314 0.021284 0.101907 
0.00574233 0.017892 0.141147 
0.0172212 0.0147814 0.0857212 
-0.0023573 0.0110915 0.111812 
-0.000675751 0.0015274 -0.00119601 
0.000306196 0.000823005 0.000529307 
0.00497457 -0.00286877 0.0147246 
0.00520787 -0.0019471 0.00529392 
-0.000114712 0.0014344 -0.00186982 
-0.0011694 0.00514449 -0.00352918 
0.00908 -0.0124574 0.0122709 
0.00393985 -0.00763827 0.0101516 
0.000650228 0.000661564 0.000385782 
-0.00346611 -0.00147634 0.00352851 
0.00155027 9.76045e-06 -0.000465661 
-0.00538619 -0.000205724 0.00790177 
-0.000599602 -0.00091492 -0.000634957 
0.000198449 -0.000931221 -0.00388874 
0.00360186 0.0039221 0.0248464 
0.00216651 0.00538845 0.0165029 
0.00616341 0.00461684 0 
-0.00675481 0.00286584 0 
0.00371249 0.000532192 0 
0.00225969 -0.00913143 -0.00235862 
-0.0153322 0.00920038 0.0966065 
-0.00844457 0.0177851 0.107214 
-0.0252895 0.0253884 0.119504 
-0.0199378 0.025374 0.0699579 
0.000258492 -4.03232e-06 -0.000671129 
0.000616667 1.71636e-05 -0.00149026 
0.00095137 -0.000423244 -0.00101252 
-0.00480943 -0.00529595 0.0083702 
0.00275026 0.00399771 0.00444144 
0.00304268 0.00528188 0.0170547 
0.006207 0.0109526 0.0180811 
0.000838711 0.00274315 -0.000185797 
-0.0253412 0.00487861 0 
-0.00858449 -0.0182407 0 
-0.01497 0.00294982 0 
0.12059 -0.0789679 0.0514076 
0.00119504 -0.000882018 -0.000981975 
-0.000872908 0.000573505 0.00171375 
0.000697251 -0.000593403 -3.63339e-05 
-0.0040019 0.000614481 0.00178568 
-0.0284603 -0.0490341 0.0966465 
-0.0303093 -0.0191848 0.0615862 
-0.00742985 -0.0171746 -0.053474 
-0.0418976 0.0103162 0.128242 
-0.000141865 -0.000685692 -0.000103988 
-0.000512409 0.0033034 0.0337534 
-8.75804e-05 -0.000818913 0.000135453 
-0.00130698 0.00266309 0.0205323 
-0.000121977 0.000280749 0.0341178 
0.00108979 0.000816667 0.0246387 
0.00325226 0.00285209 0.0342128 
0.00121986 0.00117043 0.0241763 
-8.47197e-06 -9.75421e-05 0.0510675 
0.000262019 -0.000704192 0.0347486 
-0.00247745 0.00493635 0.056115 
-0.00201849 0.00301771 0.0479301 
-0.00810833 -0.0278709 0.0530559 
-0.00999704 -0.00577677 -0.00797024 
-0.00548326 -0.0220691 0.0469458 
-0.0251403 -0.0125607 0.0423112 
0.000435462 0.000111617 0.0777759 
-4.89514e-05 0.000244186 0.0624571 
-0.000302219 0.000249417 0.0739619 
-0.00433108 -0.0074479 0.0731684 
-0.0435876 0.0254336 0.0726357 
-0.0106946 0.00743199 0.0168788 
-0.0196582 0.00832467 0.020061 
-0.00805592 0.00373079 -0.00481781 
0.00497269 0.000636721 -0.00214632 
-0.0056339 -0.00150785 0.0233298 
-0.00878403 0.000234141 0.00932023 
-0.00531278 0.00341171 0.0150632 
-4.3448e-05 0.00065785 0.0725291 
-0.00474474 -0.0077437 0.0750884 
-1.67766e-05 -0.000100684 0.0626894 
-0.00409411 -0.00391375 0.066036 
-0.000309042 0.00019538 0.0361149 
-0.00251117 -0.00362234 0.0505022 
-3.63659e-05 -1.46045e-05 0.039839 
-0.00188391 -0.0013526 0.0218715 
0.000333127 -0.000961755 0.000142673 
0.000864276 0.000573148 -0.00044976 
-0.00288997 0.000580116 0.00262983 
-0.00315418 0.00256601 0.00106936 
0.00332451 0.00232348 0.00578631 
0.007202 0.00441437 0.0151826 
-0.00223308 -0.00116034 -0.000518329 
0.00334598 0.0013158 0.00334412 
-0.00632081 -0.0863248 0.141326 
0.035473 -0.0307504 0.0900544 
0.0358929 -0.0237605 0.0693383 
-0.00591221 -0.048465 0.187481 
0.0157907 -0.0183227 0.0321204 
0.00167621 -0.00323653 0.0165031 
0.0219481 -0.00916709 0.0354921 
0.0107728 -0.0170502 0.0565785 
-0.000191632 -0.00847491 -0.0124335 
0.0192428 0.0721283 0.0773944 
-0.000277124 -0.00757331 -0.00897454 
0.0125473 0.0159577 0.00891315 
0.020596 0.0163706 0.0144789 
0.0117308 0.0192998 0.0593837 
0.0316303 0.0178015 0.0983106 
0.0357555 0.0140427 0.0338651 
-0.00102736 0.0156627 0.0543996 
-0.00247173 0.0227105 0.101286 
0.0146863 0.0158609 0.0657088 
-0.00141197 0.0110862 0.0572208 
-0.0144701 0.0120433 0.0566655 
-0.00252593 0.0214925 0.100702 
-0.00101969 0.0150493 0.0530478 
-0.00135585 0.0124511 0.0580146 
0.00549023 -0.00885627 0.0818478 
-0.00107958 -0.0138007 0.0976533 
-0.00582787 -0.00844763 0.0801896 
0.000824015 -0.00352644 0.0855751 
-0.0195417 -0.0119862 0.0794342 
-0.00197653 -0.00125959 0.177953 
-0.0240578 0.02383 0.0981225 
-0.0662746 -0.0107978 0.0647338 
0.000816008 -0.0027995 -0.000601557 
-0.00176509 0.00371998 0.0208235 
-0.00108145 0.00424657 0.034693 
-0.00340608 0.00453708 0.0265864 
-0.000202713 0.00388807 -0.00268794 
0.000363694 -0.00355012 0.000193212 
-0.00360742 -0.00717962 0.00853322 
0.00122406 -0.00757612 0.0103682 
0.000222726 4.34055e-05 0.0698153 
-0.00504316 -0.00692844 0.0787405 
-0.00518215 -0.00386707 0.0652378 
-0.00356011 -0.00275653 0.0829428 
0.000113145 4.03022e-05 0.00015032 
-0.00026131 6.50249e-05 0.0213176 
-8.85445e-05 2.25042e-05 -8.45896e-05 
1.33446e-05 5.47298e-06 0.0150295 
-0.00191974 0.00463956 0.0571358 
-0.00242776 0.00397376 0.077732 
-0.00060206 0.000265699 0.0679093 
-0.0027253 0.00347043 0.0472972 
-0.000101099 0.00027505 0 
-0.000109826 0.000475352 0 
-0.000421415 0.000179817 0 
0.00148064 -0.000256335 0.000880643 
0.000663764 -0.000391551 -0.000510822 
-5.9871e-05 4.18452e-05 0.000385656 
0.000276185 -0.000182522 -0.00123229 
-0.00309535 0.00087921 0.00328298 
-0.000156805 0.000570577 -0.000487954 
0.000449185 0.000430858 -0.000243726 
-0.00012833 -3.06535e-06 -0.000168355 
0.00235003 0.000318686 0.00188059 
-0.000107824 -9.91703e-05 -0.000748268 
-0.000561609 -0.000551839 0.000469691 
-5.66714e-05 -6.69646e-05 0.00144269 
-0.00045698 0.0020937 0.0172761 
-0.00288047 0.0045375 -0.0100323 
0.0089645 -0.0107271 0.0189217 
0.00345255 -0.00181271 0.00447878 
0.00299078 -0.011066 0.009093 
-0.00437997 -0.00405793 0.024519 
-0.0040503 -0.00219455 0.0127727 
0.000846182 0.00162218 0.000644018 
-0.00295251 -0.00153277 0.011567 
-0.000114014 3.71475e-05 0.0195304 
-0.000399799 -7.99027e-05 0.00044789 
0.000755329 0.00112619 0.024616 
0.0011541 0.000743019 0.0245109 
-0.00449092 0.00496634 0.0628331 
-0.000262153 3.35239e-05 0.0673459 
-0.00257683 0.00411188 0.077709 
-0.0028028 0.00351355 0.0474987 
-0.00929353 0.00659134 0.0351071 
-0.00376684 0.0136589 0.00890589 
-0.00959752 0.0149548 0.030693 
-0.0175606 0.0134527 0.0546789 
-0.00360677 -0.00152265 -0.00144481 
0.00948742 0.0182542 0.0139578 
0.000289759 0.00194897 0.000494156 
0.000940301 0.00865526 0.004059 
-0.00653219 0.0229997 0 
-0.00380169 -0.00482742 0 
-0.019878 -0.00972947 0 
0.0291175 0.0594753 0.0336427 
-0.00011976 -0.000301783 -0.000296954 
-0.000130238 -0.000271194 0.00194292 
7.03338e-05 0.00015214 -0.000823274 
-0.000866398 0.00583229 0.00457452 
0.0171097 -0.00917703 0.0304943 
0.00512039 -0.00431158 0.0171134 
0.00592067 -0.00632354 0.024809 
0.00529011 -0.00317523 0.000608858 
0.00425429 -0.00323537 -0.00510036 
-0.0153358 0.00703964 0.0109701 
-0.000174224 -0.00221034 0.000626019 
-0.0078157 0.000882178 0.00606966 
0.000334665 0.000204047 0.0357716 
9.77412e-06 5.9679e-05 0.0354747 
-0.00176026 0.00149774 0.0254745 
-0.00220386 0.00229775 0.0467827 
-0.000658847 0.000157058 0.0228369 
0.00305086 -0.00288008 0.0320751 
-0.000389005 -0.000445037 0.0388774 
0.00325156 -0.00263338 0.0470608 
-1.50036e-05 -3.6845e-05 0.000357434 
7.84541e-05 0.000354303 0.00103496 
1.26116e-05 3.34958e-05 -0.000255084 
0.000954449 -0.00298491 0.0238277 
7.23845e-05 -0.000320834 0.0325936 
0.0001122 0.000201651 0.0240193 
-0.000424914 -4.73154e-05 0.0444347 
-0.0027453 -0.0011814 0.0316125 
0.00020244 -0.000410989 0.0748623 
-0.00587385 0.0015862 0.0598869 
-0.0055991 0.000919728 0.0790571 
-0.00387642 -0.00063339 0.0582411 
-0.0319014 -0.0240981 0.104528 
-0.0262892 -0.0318516 0.0279947 
-0.0143243 -0.0116714 0.0797464 
-0.0216432 -0.0242802 0.072287 
-0.00159279 0.0172151 0.063773 
0.0230617 0.0202143 0.0802588 
0.0247852 0.015314 0.0230539 
0.0114395 0.0184641 0.0606397 
0.000875592 -0.0198889 0.0483752 
0.00123137 -0.003502 0.0136215 
0.0147236 -0.0162465 0.0310353 
0.0110019 -0.0174178 0.0569789 
0.0131326 -0.0272436 0.0303623 
-0.0150918 -0.00694998 -0.0243477 
0.0163632 -0.0203543 0.0138094 
0.0164896 -0.0432556 0.0935516 
-0.0115065 0.00963568 0.0247835 
-0.0148187 0.0161338 0.0552122 
-0.00694588 0.00513234 0.0194634 
-0.00433611 0.00283129 0.0167567 
0.0174369 -0.00962702 0.0989547 
0.000793608 -0.047528 0.171332 
0.0225818 -0.0275156 0.103693 
0.054929 -0.00255507 0.100355 
-0.000154155 3.28408e-05 0.0331291 
0.000219734 0.000410891 0.0223692 
-0.00223774 -0.00248357 0.0312747 
-0.00130824 -0.00125209 0.0256668 
0.00222957 -8.27743e-05 -0.0017952 
-0.002855 -0.00629615 0.0147007 
-0.000434548 -0.00526982 0.00380555 
-0.00616882 -0.00694455 0.0130765 
-0.000544365 -0.0122191 0 
-0.00104821 -5.06391e-05 0 
0.00543151 -0.00390158 0 
0.00154094 0.0537929 0.00606494 
0.000275546 1.61406e-05 0.0401567 
-0.00125294 0.00377174 0.0351729 
-0.0018791 0.00471048 0.0553098 
-0.00158 0.0019235 0.0279295 
-0.0165904 0.0105751 0.0176132 
-0.0254015 0.0176295 0.0668256 
-0.0115543 0.0145625 0.0627287 
-0.0174318 0.0214298 0.0675533 
0.00777926 0.00216911 0.123396 
0.0151993 0.0143089 0.0869798 
0.00608252 0.0178004 0.140352 
-0.00392831 0.0103819 0.111623 
0.000718585 0.000844005 0.000511959 
-0.00378957 -0.00281615 0.0259956 
-0.00226844 -0.00325329 0.0210852 
-0.000871903 -0.000638077 0.0216692 
0.0173685 0.0170568 0 
0.0381107 0.0139059 0 
-0.0311172 -0.0243471 0 
0.0287319 0.0369075 0.0620733 
0.000403255 2.06539e-05 -0.000903593 
-0.00174925 -0.0021895 0.0306927 
0.000194268 0.000314348 0.000627641 
-0.000919312 -0.00130687 0.0251126 
-0.0187572 0.00650398 0.0262112 
-0.00950455 0.00720287 0.0142607 
-0.0197134 0.0204789 0.0522824 
-0.00663106 0.00228791 -0.00738545 
-0.000517515 0.000355384 -0.000378692 
-0.000337995 0.000244845 0.000704439 
5.36716e-05 -5.18357e-05 -0.00107975 
0.00291509 0.00122076 0.026759 
0.00011624 -0.00213689 -0.00331701 
-0.00528324 0.00382672 0.0183209 
-0.0065617 0.00621072 0.0173207 
-0.00326292 0.00259875 0.0250193 
0.00178259 0.00299258 -0.000329399 
0.0147639 -0.00905196 0.00739153 
-0.00229938 -0.000629186 -0.00244773 
0.00591581 -0.00224236 0.00443827 
0.0174956 -0.018498 0 
0.0151754 -0.0456354 0 
-0.0258412 0.0373481 0 
0.0393759 -0.0319786 0.0680463 
-7.0495e-05 0.000126205 0.000300734 
-5.13748e-05 0.000186654 -0.00107267 
-0.000131166 0.000234683 0.000561468 
0.00118309 0.00251342 0.021622 
1.9067e-05 0.00167289 0 
0.000405592 -0.00156924 0 
-2.56337e-05 -0.00111982 0 
0.000502226 0.00760461 0.00149549 
-0.000176847 -0.000162879 0.000101361 
4.56706e-05 0.000160718 0.0202223 
-1.34437e-05 -0.000287187 0.00039367 
-0.000281028 0.00110734 0.024902 
-0.00373097 0.00747356 0.0103236 
-0.0131531 0.0149404 0.0299534 
-0.0111575 0.0235101 0.0309812 
-0.00170124 0.0112607 0.00542329 
0.00021451 0.00207249 0 
0.000624322 -0.000708858 0 
0.000904824 0.00229291 0 
4.12972e-05 -0.0106493 0.00285214 
-0.000125872 8.24305e-05 0.0168427 
4.95807e-05 -0.000298943 0.000380239 
-1.4784e-05 -0.000151532 0.0194099 
-0.0009284 0.00129218 0.0261267 
-0.000368316 0.00075975 0.000670349 
-0.000170096 0.000337289 0.000727723 
0.000345727 -0.000679792 -0.00165654 
-0.000143987 0.00385011 0.00364727 
0.000687197 -0.00784797 0.0593445 
0.000714376 -0.00119366 0.0268077 
-0.00296075 -0.00328109 0.0357593 
0.000745524 -0.00590717 0.0353051 
0.0140925 -0.060851 0.153806 
-0.00579432 -0.0235213 0.19752 
-0.0887321 0.0466562 0.0695483 
-0.0148073 -0.0451826 0.0978753 
-0.00819764 -0.0221585 0.193853 
0.0345042 -0.015164 0.151729 
0.00025443 -0.0333483 0.231347 
0.0605203 0.0132961 0.125261 
-0.00542737 -0.00959908 0.0767998 
0.0016822 -0.00628447 0.0622152 
-0.00416048 -0.00406485 0.0504666 
-0.00617902 -0.00831048 0.0487065 
-0.0055719 0.00651577 0.0632334 
-0.00213578 0.00374976 0.0777093 
-0.00231043 0.00519722 0.0571058 
-0.00258972 0.00309375 0.0473504 
-0.00428126 0.0112742 0.0862596 
-0.0105392 0.0147643 0.055532 
-0.00814965 0.0203792 0.103323 
-0.0198581 0.0190379 0.0711642 
0.00104876 0.00416724 0.149972 
-0.0261809 -0.0265174 0.121813 
-0.0456931 -0.0323055 0.0664967 
-0.00936823 -0.0224765 0.0797147 
0.00467672 0.00754713 0.0531299 
0.000917317 0.00486585 0.0674246 
0.0052428 0.00590261 0.0609314 
0.00297573 0.00346647 0.043749 
0.000626534 0.00060352 -0.000322822 
-2.2732e-06 6.72203e-07 0.000575506 
-0.000108415 -0.000114289 -0.00192225 
0.000857273 -0.00185814 0.0144852 
-0.0232645 0.043095 0.104761 
0.0319194 0.0289067 0.0160121 
-0.00813754 0.0308978 0.0343672 
-0.0145072 0.0427907 0.144394 
0.0181953 -0.0588629 0.0060402 
0.0181517 -0.0208646 0.0815177 
-0.00643295 0.00271224 -0.0211895 
0.0210595 -0.0147243 0.0596649 
0.00215022 -0.00325078 -0.00265607 
-0.00628124 0.00396521 0.00703208 
-0.00100063 0.00156301 -0.00134567 
-0.00665734 0.00718539 0.00737352 
-0.00176358 -0.00125942 -0.00101547 
0.00523729 0.000457168 0.004077 
-0.00265026 -0.00123524 -0.000246895 
0.0112276 0.00184772 0.00217499 
-0.0147877 0.0123145 0.0538215 
-0.00804515 0.00549364 0.0342957 
-0.010293 0.0170307 0.031344 
-0.0162511 0.0126367 0.0538734 
0.000573443 -0.000133934 0.000777774 
0.00217846 -0.000226366 0.00454581 
-0.000833223 0.000743205 -0.00135779 
0.00346268 -0.000466782 0.00348781 
-9.51356e-05 0.000145724 0.0210965 
3.93452e-05 -0.000311042 0.00025569 
0.00014958 -0.000106039 0.0204951 
-0.000664381 0.00140065 0.0290189 
0.000214255 7.14143e-05 0.0329254 
-6.18736e-05 0.000257703 0.0448864 
4.09502e-05 -0.00040754 0.0433305 
-0.00350905 -0.00135634 0.0567297 
3.97899e-05 -0.000179864 0.0269325 
0.000637743 0.00182138 0.0274334 
0.000516032 0.000731187 0.0478257 
0.000332551 0.00151439 0.0244038 
-0.00149254 -0.00120424 -0.000537903 
0.00575232 0.0407571 0.0258782 
-0.00201969 -0.00906588 -0.00607324 
0.00233662 0.00587768 -0.0013061 
0.00371638 -0.00531152 0.0393245 
0.000484103 -0.000855784 0.0261273 
0.000813134 -0.00753102 0.0600917 
0.000843332 -0.00625295 0.0354429 
-0.00823364 0.0311486 0.0357061 
-0.0130951 0.0140216 0.0317274 
-0.0143048 0.0233684 0.032036 
-0.00350083 0.00967641 -0.0023772 
0.000116559 2.88484e-05 0.0198756 
-0.000144424 0.000134008 0.0171723 
0.000116053 -0.000132094 0.0352101 
0.000564228 -0.00166131 0.0253599 
-0.00417889 0.00863147 0.0128546 
-0.00208923 0.00235325 -0.00261971 
-0.00443323 0.00500331 0.0197927 
-0.0103109 0.012231 0.0286335 
0.0151966 0.0416449 0.0670977 
0.0104999 0.0166288 0.0184116 
0.0114568 0.0183456 0.0224723 
0.00371673 0.0109332 -0.00489049 
-0.000150613 0.000190317 0.0624933 
0.000348991 -0.000100242 0.0627995 
1.84177e-05 -4.69103e-05 0.0451192 
-0.00187288 -0.00423651 0.0525981 
0.000508607 9.77655e-05 -0.00232787 
-0.00191808 -0.00405806 0.0197825 
0.000281156 0.00043933 0.00147031 
-0.00193795 -0.0030086 0.0205896 
-6.30239e-05 0.0322535 0.210649 
0.0178787 -0.00434577 0.189263 
0.00773993 -0.0266143 0.23113 
-0.0536779 -0.0402446 0.19879 
-0.0104805 0.00740468 0.0208546 
-0.00376556 0.004658 0.0190192 
-0.00490623 0.00331308 0.0185221 
-0.00313967 0.00220987 0.00160832 
-0.00509816 0.000693368 0.0378518 
-0.0161487 0.00229689 0.0679736 
-0.0082722 0.00682239 0.0336467 
-0.00624118 0.00611393 0.0409926 
-0.00123972 0.013667 0.0134018 
-0.00607427 0.0105373 0.0114919 
-0.00905515 0.0078332 0.0308468 
-0.00817397 0.00144845 0.0169426 
-0.00299155 0.00314141 0.0163762 
-0.00920873 0.00868594 0.042096 
-0.0135657 0.0134635 0.0526146 
-0.0122392 0.0138796 0.0322684 
-0.014278 -0.00193984 -0.0196393 
0.00620273 0.0101652 0.00678029 
0.0197594 0.0292477 0.0347046 
0.0178608 0.0167856 0.0214322 
0.00126696 0.00104344 -0.00412902 
-0.00775915 -0.00319264 0.00989223 
-5.13567e-06 0.000526863 0.00102737 
-0.00547916 -0.00385122 0.00645182 
-0.0106809 -0.00169524 0.258139 
-0.0839715 0.0391646 0.0446686 
-0.00720426 -0.0217609 0.202304 
-0.00892075 -0.0461489 0.11389 
0.010201 0.00306264 0.073588 
0.00553818 -0.00483818 0.0693756 
0.0138801 -0.00883858 0.0779765 
0.0115372 -0.00165155 0.0586607 
-0.00397553 0.0149537 0.0820214 
-0.00198578 -0.002258 0.0966147 
-0.0115157 0.00859229 0.0947769 
-0.00347753 0.00910967 0.108143 
-0.00466855 -0.00810526 0.0757996 
-0.00360448 -0.00477277 0.0506018 
0.0004574 0.000101968 0.0617328 
-0.00469957 -0.00394226 0.0667522 
0.000272084 -3.82909e-05 0.0327058 
-0.00333314 -0.0019574 0.0306359 
-0.000191347 0.000238896 0.0450792 
-0.00340705 -0.00118901 0.0567501 
-0.00124384 0.00397807 0.0345391 
-0.00137931 0.00129153 0.0285775 
0.000260492 -0.00125225 -0.000585402 
-0.00261252 0.00367132 0.0268591 
-0.0152583 -0.00993102 0.079747 
-0.0209518 -0.0263219 0.0690829 
-0.0258185 -0.0315067 0.0331904 
-0.0124245 -0.0155683 0.0326942 
-0.0102696 -0.0022062 0.0789604 
-0.00241612 0.00130001 0.0953532 
-0.0122476 0.00665358 0.0938826 
-0.00436972 0.0022642 0.076418 
1.35913e-05 -1.35643e-06 -0.00180851 
0.000500355 0.000487325 -0.000116764 
5.78627e-05 6.06286e-05 0.000515074 
0.00136121 -0.00192116 0.0294946 
-0.000741211 0.00097218 -0.000428712 
0.00685919 -0.00483645 0.0174404 
-0.000720444 0.00155863 -0.0010216 
0.00542885 -0.00359018 0.00691522 
0.000349305 -0.000396283 0.000907331 
-0.00325627 0.00287472 0.0178759 
0.000610206 -0.000707586 -0.00401162 
-0.00390124 0.00237211 0.0177018 
-0.00111993 -0.00314434 -0.00151744 
0.0047283 0.00532052 0.0262378 
-0.000922024 0.0038134 0.0213635 
0.00117886 0.00619805 0.0155911 
-0.000151555 0.000191907 0.0153803 
1.87454e-05 -5.92258e-05 0.0306903 
0.00020623 -6.3207e-05 0.0219528 
0.000135672 -0.00145761 0.0279665 
0.000517959 -0.0033534 -0.00121986 
-0.00654704 0.0065795 0.0164332 
-0.00749949 0.00363633 0.00532707 
-0.00486862 0.00769646 0.00733008 
0.00158831 0.000348397 -0.000449133 
-0.00272938 -0.00284766 0.0303992 
-0.00113979 -0.00138277 0.0250312 
-0.00270629 -0.00256483 0.0216836 
0.014922 -0.0101104 0 
-0.00340091 -0.0179172 0 
-0.026119 0.0205052 0 
-0.0342525 0.0444469 0.0602893 
-0.00303834 0.000909371 -0.00356004 
0.00837824 -0.00649055 0.012102 
0.00316249 -0.00486744 0.0261556 
0.00974313 -0.00343417 0.0193394 
-0.0236072 -0.0266456 0.049159 
-0.0234703 -0.0381152 0.113803 
-0.0497322 -0.00848994 0.0638445 
-0.0218145 0.00304386 -0.0217557 
-0.00240479 0.00252016 -0.00316304 
0.00841222 0.0136571 0.0146393 
0.00453062 0.00913663 0.0079932 
0.000148027 0.00207286 0.00122072 
-0.00219879 -0.0179389 0.0464014 
-0.0003832 -0.00657702 0.0342687 
0.00837982 -0.00632631 0.0183275 
0.00527137 -0.0160693 0.0531441 
-0.0539219 0.00537336 0.238252 
0.0419753 0.0186931 0.12468 
0.00524046 -0.00530275 0.248799 
-0.0259519 0.0389301 0.0981541 
0.00426087 0.00199314 -0.00404707 
-0.00139569 -0.00600382 0.00530809 
-0.0102479 -0.00836625 0.0107475 
-0.00470646 -0.00574031 0.0115633 
0.0555261 -0.0149925 0 
-0.0663371 0.00330605 0 
-0.0825565 -0.00810762 0 
-0.0730996 -0.030238 0.263781 
-6.01495e-05 0.000220713 0.0351738 
-6.60823e-05 2.02614e-05 0.0354516 
1.36755e-05 -0.000177949 0.0190529 
-0.0010591 0.00150762 0.0264512 
0.0154934 0.000333615 0.0543428 
0.013611 0.0149322 0.0629588 
0.0212711 0.00238192 0.0956989 
0.011969 -0.00476953 0.0607283 
0.00118314 -0.000210426 -0.00149834 
-0.00687046 -0.000368712 0.00870484 
0.00127202 0.00136989 0.00140777 
-0.00457747 -0.00451056 0.0124194 
-0.0063218 -0.00705823 0.0308109 
-0.00316394 -0.00125424 0.0100223 
-0.0132989 -0.00776762 0.0245091 
-0.0138229 -0.0105046 0.0320799 
-0.0121438 0.0258917 0.0322595 
-0.0111309 0.013985 0.0300793 
-0.00292505 0.00646832 0.00993699 
-0.0174437 0.0217647 0.0539851 
0.00507217 0.002397 0.027821 
0.00433675 0.00541714 0.0256865 
0.00502878 0.00913945 0.0520979 
0.00143316 0.00131202 0.0261257 
0.00194907 0.000745018 -4.59427e-05 
-0.0029021 0.000532211 0.0029221 
-0.00141448 0.000321158 3.27775e-05 
-0.00489636 0.00076056 0.000985587 
-0.00690699 0.00760484 -0.0139767 
0.0251516 -0.0147335 0.0242332 
0.0050092 -0.000188231 -0.00192424 
0.0153517 -0.00480449 0.0149472 
0.0374626 -0.0188664 0.00476718 
-0.00918105 -0.0356317 0.0838343 
-0.00504778 -0.0216603 0.0468625 
0.00782407 -0.0331756 0.123079 
0.00180906 0.000503395 -0.00117651 
0.000565277 -0.000647249 0.000425183 
-0.0022078 -0.00548318 0.0121831 
-0.00132418 -0.00528719 0.00419984 
-0.0115898 -0.0120172 0.0592207 
-0.00292267 -0.00481999 0.0521052 
-0.00713531 -0.0051753 0.04485 
-0.00655089 -0.00842182 0.047733 
-0.0104539 -0.00809903 0.0224193 
-0.0044509 -0.00212903 0.0122591 
-0.00348993 -0.0033081 0.0281714 
-0.00263071 -0.00230054 0.00997391 
-0.00822452 0.00645752 0.0219483 
-0.00381711 0.0157879 0.0487428 
0.000570024 0.00513134 0.0200292 
-0.00343831 0.00278256 0.0246521 
-0.00293155 0.00134979 -0.00440004 
0.00344647 -0.00229479 0.00537853 
-0.00115186 -0.00304411 0.00143364 
0.00325121 -0.00665738 0.00684959 
0.00388827 0.0231731 -0.0223128 
0.00467901 -0.0874863 0.0697792 
-0.00298411 -0.0158497 0.0194255 
0.0027821 -0.00403945 -0.0108733 
0.000456796 0.000143874 -0.0010923 
0.00087628 0.000585783 -0.000375795 
-0.000860159 -0.000706872 0.00176015 
-0.00291928 0.000799576 0.0019368 
9.19218e-06 -0.000161122 0.000290848 
1.21093e-05 -0.000183302 0.000162054 
3.20534e-06 -3.84909e-05 -3.36929e-05 
-0.000623551 0.000264605 0.02362 
-0.000197274 0.000110834 0.0194154 
9.36102e-05 0.000116075 0.0189345 
-0.000250368 -7.92349e-07 0.000294211 
0.00125895 0.000607173 0.0247291 
0.0121461 -0.0216617 0.0309289 
0.0516205 -0.0249875 0.112025 
0.0172117 -0.0109759 0.0214406 
0.0179013 -0.00370452 0.00468411 
1.93008e-05 -0.000230078 0.00051178 
1.79562e-06 -2.1405e-05 -0.00015357 
9.82979e-06 -0.000117177 -0.000396098 
0.00153801 0.000670399 0.0347101 
-6.52449e-06 0.00108296 0.00130843 
-0.00642139 -0.00311609 0.00819767 
-7.67974e-05 0.000883035 -0.00201428 
-0.00369729 -0.00113786 0.0105998 
0.00182571 0.000534434 -0.000765405 
-0.0048603 -0.00301113 0.0235124 
0.00101015 0.00153477 0.000866899 
-0.00291943 -0.00238913 0.0119871 
-0.00298057 0.00300205 0.0319341 
-0.00553526 0.00483724 0.0383795 
-0.00117296 0.000867935 0.0246838 
-0.0027398 0.00292979 0.0472924 
-0.000317904 -0.000736472 -0.000338024 
-0.00080038 -0.000327351 0.0010465 
0.00310244 0.00311823 0.0251267 
0.00163255 0.00184146 0.0257976 
-0.000347446 0.000764996 -0.000800111 
-0.000417941 0.000484013 -0.00128871 
0.00113182 -0.00115551 0.00347507 
0.000156076 -0.00182243 0.0023424 
0.000482248 0.000402368 0.0791446 
-0.00447136 0.00199681 0.078523 
-0.00350753 0.00169306 0.0934397 
-0.00362428 -0.00230242 0.0842598 
-4.43227e-05 -0.000278651 0.0616844 
8.7717e-05 0.000342232 0.0437613 
-0.000428349 -0.00010923 0.0467423 
1.35824e-05 -0.00556026 0.0586299 
0.00574982 -0.0147611 0 
0.0132349 -0.0212438 0 
0.00211685 0.0386046 0 
0.00222396 0.0782165 0.0851656 
-0.000306533 0.000859027 0.000163911 
0.0029118 0.00903503 0.00366255 
-0.00158154 -0.00268192 -0.000929414 
-0.000385786 0.00430608 0.00268329 
-0.000165495 0.000168092 0.000815811 
0.000686576 -0.000675809 -0.000719811 
6.68009e-05 -8.04808e-05 -0.00189191 
0.000658092 0.00224233 0.0141159 
0.00258682 0.00457301 0.0262919 
0.0140742 0.0164364 0.0580265 
0.016186 0.0110732 0.0269448 
0.00609434 0.00456336 0.0169247 
-0.00136616 -0.000169917 -0.00205384 
-0.00219501 -0.000729384 -0.00223016 
0.00361054 0.00668791 0.00533293 
7.42378e-05 0.00314834 0.00318893 
-0.00071654 -0.000184362 -0.00074086 
-0.00076095 -0.00107926 -0.000148518 
-0.000612472 -0.000380352 -0.000333453 
0.00280542 -0.00477662 0.00358836 
-0.00102794 0.000441881 -0.000478647 
0.00366503 -0.00421091 0.0251832 
-0.000706865 0.00184282 0.00103684 
0.00468224 -0.00185871 0.0201303 
0.00208668 -0.00518291 -0.003878 
-0.00851896 0.00763675 0.0196657 
-0.00458717 0.00795717 0.00690475 
-0.00118409 0.00554782 0.0150052 
-0.0109408 -0.00207564 0.07727 
-0.00473467 0.00353848 0.0602064 
-0.0152603 0.000686907 0.0679773 
-0.00891902 -0.00379959 0.0525113 
-6.11918e-05 -7.5838e-06 -0.000770093 
9.41789e-05 6.72475e-06 0.00104013 
-0.000611574 0.000124885 -0.00181061 
-0.00423545 -0.00184308 0.0258075 
-0.000516065 -0.000106376 -0.00138137 
0.00053107 0.000119675 0.000110214 
0.00038109 0.000101391 -0.00191416 
0.00244824 -0.0021895 0.0101326 
-0.0253012 -0.0197042 0.250599 
-0.0259509 -0.0636481 0.0327197 
0.00616615 -0.0136342 0.27923 
0.0517425 0.00439334 0.118291 
-0.014382 0.0254949 0.0343648 
-0.0131565 0.00892053 0.0262628 
-0.00977705 0.0315839 0.0369373 
-0.016 0.0223192 0.0596752 
-0.0107141 -0.00221487 0.077077 
-0.00364246 0.00221738 0.0790998 
-0.00538869 0.00289388 0.0596418 
-0.00541031 -0.00142721 0.0581497 
0.0005899 0.00337108 0 
0.00143206 0.0043253 0 
0.00127898 0.00238654 0 
-0.00691373 -0.0120241 0.00061204 
-0.00943415 0.0146413 0.0616257 
-0.00132925 0.00478153 0.0531565 
-0.00426638 0.0123574 0.0819688 
-0.000755567 0.0112494 0.059282 
-0.0294471 0.0233764 0.12839 
-0.000306847 0.0244637 0.102917 
-0.0165365 0.00774571 0.0950141 
0.000765708 0.0105482 0.112162 
1.75529e-05 4.87194e-05 0.0803836 
-0.00244048 6.09788e-05 0.0947222 
0.000299365 -0.00331234 0.0864456 
-0.00324659 -0.00224493 0.0827408 
-0.000489664 0.000133052 -0.000165468 
0.000224404 -0.000299843 -0.000275332 
-0.000536575 -0.000101922 -0.000226222 
0.000653128 0.00126489 0.0021627 
0.00784837 0.0836813 0.192848 
0.022785 -0.00579763 0.272362 
-0.0441719 -0.0347694 0.196593 
-0.0309421 0.106839 0.0479286 
0.000136661 -0.000463791 0.000952701 
-0.000251578 0.000839868 -0.00200398 
-5.40687e-05 0.000191777 -0.000228144 
0.00231028 0.00405007 0.019327 
-0.00550705 0.0118637 -0.00607068 
-0.0355693 0.0346044 0.0650531 
0.0151225 -0.000843332 -0.0160582 
-0.00888094 0.0239708 0.0482948 
-0.00482384 0.00560369 0.019925 
-0.00157262 0.0018275 -0.00428731 
-0.0107199 0.0078698 0.0215433 
-0.0106168 0.012572 0.0294556 
-0.0103163 -0.00231561 0.07552 
-0.0130962 0.00897109 0.094428 
-0.00941941 -0.0067246 0.0999785 
-0.022695 -0.00287443 0.102531 
-0.00109303 0.00134493 0.0877658 
-0.00257481 0.00914585 0.111603 
0.00469038 0.000698605 0.125291 
-0.00771917 -0.00614717 0.0998774 
-0.000521802 -0.00162023 0 
1.30612e-05 -0.00131338 0 
0.00053158 -0.00181017 0 
-0.0106142 0.00660925 0.00116705 
0.00237008 -0.000192601 -0.00432075 
-0.00418069 6.57875e-05 -0.0024724 
0.0103405 0.0214584 0.0119714 
-0.00328191 0.00696731 0.0123422 
0.000147515 -3.5659e-05 0.0581185 
0.000524787 -0.000397257 0.0374002 
-0.00536807 0.0013713 0.0595279 
-0.00410143 0.000170423 0.0581578 
-0.000480646 0.00110149 0.0820324 
-0.00279716 0.000609613 0.0907411 
0.000339021 -0.000234557 0.0831311 
-0.00270807 -0.00159862 0.0828822 
0.000186193 0.000391263 -0.000117483 
8.72445e-05 0.000164879 -0.00062333 
1.99185e-05 5.79428e-05 0.000482795 
-0.000923049 0.00071938 0.0251341 
-3.58346e-06 5.21663e-06 0.00017274 
-0.00010824 0.00015137 -0.003647 
0.000646337 -0.000919021 0.000128886 
-0.000674256 -0.00422585 0.0112549 
0.00255289 0.00315338 -0.0073424 
-0.0131831 -0.0100117 0.0151502 
-0.00663153 -0.00122596 0.0100411 
-0.00511025 -0.00534362 0.0128746 
-4.53709e-06 -0.000184406 0.0497245 
-6.75862e-05 0.000217043 0.0598605 
-0.000146419 -0.000444917 0.0390012 
0.00427064 0.0046697 0.0585953 
0.00814508 0.0158057 0.0150061 
0.00161654 0.000820326 0.0063562 
7.63089e-05 0.00132629 0.000855227 
0.00265105 0.00975322 0.00440778 
0.00700155 0.00287313 0.123993 
-0.000300966 0.013802 0.110064 
-0.0119691 -0.0034546 0.129355 
-0.00942449 -0.0111151 0.101185 
-0.00286831 0.00304573 0.0315865 
-0.00319713 0.00328583 0.0132197 
-0.0048569 0.00430538 0.0186875 
-0.00628069 0.00679104 0.0406045 
-0.00545472 0.00640842 0.0631353 
-0.0025482 0.00502406 0.057092 
-0.00494197 0.00522558 0.0387399 
-0.00238344 0.00280782 0.0471249 
0.00832184 0.004063 0.0271211 
6.76224e-05 0.0163163 0.0464528 
-0.00146695 0.00407244 0.0209103 
-0.00143368 0.00720257 0.0145272 
1.04327e-05 0.000268575 9.51623e-05 
0.000276732 0.00439706 0.00394707 
0.000793194 -0.000220045 -0.00088182 
-0.000339669 0.00209178 0.00186971 
-0.00425016 0.00834827 0.0128609 
-0.0124267 0.0279416 0.0304747 
0.00273362 0.00126147 -0.00788701 
-0.000286514 0.0117085 0.00497426 
0.000354862 0.00014811 0.0404771 
-0.00177239 0.00410969 0.0548282 
-8.12396e-05 -6.82961e-05 0.0355337 
-0.00153386 0.00183033 0.0279166 
0.000677308 0.00400922 0 
0.00448532 0.000411883 0 
0.000979202 0.00101911 0 
-0.00644457 -0.00759381 0.00273354 
-0.00559988 -0.00352228 0.0656322 
-0.00843832 -0.00326407 0.0532859 
-0.0060646 -0.00700515 0.0452621 
-0.00438987 -0.000506703 0.0585314 
-0.000644031 -0.000996661 -0.00155441 
0.00564685 0.00394928 0.0142757 
-0.000472385 -0.00127434 0.0010757 
0.00421647 0.00183168 0.00430246 
-0.0177077 -0.0158406 0.115633 
0.0118312 0.00699263 0.20669 
-0.0225411 -0.00133048 0.0695342 
-0.0738595 0.0530368 0.181864 
-0.0149762 -0.00368781 0.0775042 
-0.0124658 0.00384326 0.0962884 
0.00191492 0.00297046 0.0964162 
-0.00812914 -0.00245319 0.0978701 
-0.0549937 -0.0146725 0.106444 
-0.00132613 -0.0446069 0.086189 
-0.0391421 -0.025053 0.208848 
-0.0286697 0.0108046 -0.0400365 
4.73332e-05 7.54329e-05 0.000361525 
9.8359e-05 0.000153327 0.000557505 
0.000136378 0.000190541 -0.00047494 
-0.00129622 0.000922494 0.0310379 
0.00891391 0.0125619 0.0831909 
0.011158 0.0193206 0.0586727 
0.026315 0.0258008 0.106064 
0.0037543 0.0190186 0.109334 
-0.0127439 -0.00261901 0.127864 
-0.00890736 -0.00876064 0.100227 
-0.0141423 0.0124559 0.093697 
-0.0213436 -0.00339425 0.104788 
-0.00722394 0.00601215 0.0191594 
-0.00671841 0.00328614 0.0177098 
-0.0104389 0.0140341 0.0540945 
-0.00234223 0.00293634 0.025028 
-0.00179933 -0.00177185 0 
-0.00128179 0.00117746 0 
0.00239695 0.00109661 0 
-0.00784746 -0.000250529 0.00370256 
-0.00496204 0.00977046 0.079164 
-0.0144137 0.00811481 0.0947232 
-0.00444861 0.0233745 0.103769 
-0.00191645 0.0130403 0.110249 
0.0346567 0.0964216 0 
-0.0333411 -0.090514 0 
-0.0143877 -0.0973486 0 
0.0390751 -0.0538683 0.282389 
-0.0235999 -0.0235624 0.108772 
-0.0189004 -0.0126774 0.0677458 
-0.00719657 -0.00396568 0.100543 
-0.0203386 -0.00648143 0.10836 
-0.000496294 0.000170572 0.00073483 
0.002251 -0.00219464 0.0310717 
-0.000346719 0.000250959 -0.00208962 
0.00146189 -0.00120002 0.023884 
-0.10017 0.022141 0.100033 
-0.0447096 0.0299911 0.304975 
-0.0900826 -0.00701424 0.0793295 
0.033099 0.0512497 -0.00603627 
-0.00335494 -0.00255744 0.030992 
-0.00825932 -0.00293484 0.0513166 
-0.00472623 0.00112323 0.0388502 
-0.00460289 -0.00107131 0.0573622 
4.11439e-06 -4.16645e-05 0.00161644 
7.66584e-06 -7.76284e-05 0.000378661 
-2.02981e-05 0.000205549 -0.00037684 
0.00193339 0.000148712 0.0173333 
-0.00336292 -0.0037867 0.0311469 
-0.0054067 -0.000752005 0.0250629 
-0.00450124 0.00278798 0.0385445 
-0.00904577 -0.00311694 0.0516912 
-0.00042394 0.000653006 -0.000216443 
0.000208497 -0.000289796 -0.000438899 
-0.000117081 0.000135227 0.000724816 
0.00144925 -0.00311215 0.00163377 
-0.00506993 0.0093461 -0.00364599 
-0.00233221 0.00608907 -5.32852e-05 
0.0110986 -0.0166391 0.011519 
0.00492384 -0.0125213 0.00613737 
0.00809343 -0.00197697 0 
0.000791107 -0.00114614 0 
-0.000958844 0.00219619 0 
0.0163902 -0.00890567 0.00995342 
0.0107893 0.01082 0.0357272 
0.00382096 0.00403009 0.0293211 
0.00311231 0.00433686 0.0156731 
0.00672569 0.00515604 0.0180157 
-0.000812688 0.00280963 0 
0.00262224 -0.000200515 0 
-0.000636259 -0.00294604 0 
-0.00338086 -0.00665606 0.00277378 
-0.00149774 -0.00188187 -0.00103969 
0.00320223 0.00521207 0.0128372 
0.00262794 0.00408051 0.00554886 
0.000468011 0.0029951 0.00309607 
0.00099202 -0.00270638 -0.000257125 
0.000889399 -0.000494515 -0.00337992 
0.00550124 0.0125177 0.00364056 
0.00146162 0.00430829 0.00693589 
0.010528 0.0137049 0.0850887 
0.01647 0.0126114 0.0615004 
0.00991748 0.00192409 0.0725139 
0.020232 0.00524363 0.0973575 
-0.00145934 -0.00209559 0.00351701 
0.00582738 0.000747691 0.00406367 
0.015771 -0.00993278 0.0243302 
0.0141859 -0.00366693 0.0105954 
0.00919038 0.0370274 0.26395 
0.0158741 -0.0124763 0.219138 
0.0102137 0.0208289 0.249115 
-0.0714826 -0.0608372 0.163752 
-5.9879e-05 0.000114304 0.000304736 
6.37647e-05 -0.000109846 3.07954e-05 
-7.59e-05 0.000124385 -0.000227133 
0.000437282 0.000610025 0.0242879 
-0.00758049 -0.00474886 0.170895 
-0.0242251 -0.0107543 0.0804789 
-0.000955037 -0.0234994 0.0800775 
-0.0204495 -0.0711734 0.0287053 
-0.00605711 0.0104919 0.082517 
-0.00368157 0.021977 0.101894 
0.0165847 0.0120233 0.0876112 
-0.00192635 0.0136996 0.109934 
-0.000353632 -0.00176861 0 
-0.00067817 -0.00202237 0 
0.00120627 0.000506589 0 
-0.000679872 0.00381491 0.00175397 
-0.000329869 0.000358885 0.0822452 
0.00060218 6.37946e-05 0.0875153 
-9.81091e-05 -0.000420597 0.0854126 
-0.002254 0.00118671 0.0874775 
-0.00984192 -0.0107408 -0.00576721 
0.00473669 0.060616 0.0390308 
-0.00215544 -0.00302995 -0.00481807 
0.00338431 -0.00895208 -0.00995332 
-3.16875e-05 0.000116385 0.0328649 
-0.000337015 -0.000290535 0.0426088 
0.000226183 0.00018547 0.0222696 
-0.00145669 -0.00118978 0.026048 
3.72525e-05 -0.00052697 0.00178239 
-0.00153132 -0.000774664 -0.0020337 
0.0030776 0.00550613 0.00535843 
0.000117479 0.0046024 0.00311716 
0.00501578 -0.00293821 0.0432169 
0.0157304 -0.00977627 0.0757261 
0.0138878 -0.0124034 0.0509162 
0.00854957 -0.00878526 0.0551663 
0.00379745 -0.00182972 0.00286268 
0.00659151 -0.00422617 0.0200196 
0.0138486 -0.00860089 0.025087 
0.00530524 -0.00107418 0.00347859 
0.00268668 0.0775626 0 
-0.0210951 -0.100565 0 
0.0158435 -0.0666766 0 
-0.0527305 -0.0686597 0.324343 
-0.00954619 -0.0205509 0.0257542 
-0.0172542 -0.0211568 0.0217231 
0.00664648 0.00357437 -0.0107245 
0.00211193 -0.00342743 -0.00241418 
0.0125507 0.0106881 0.0232192 
0.011268 0.0147525 0.0376237 
0.00493955 -0.000214493 -1.70055e-05 
0.00642589 0.00472808 0.0175027 
0.0123826 -0.0332824 0.0541615 
0.0200087 -0.0176601 0.0653365 
0.026502 -0.0317441 0.102954 
0.00178587 -0.0266428 -0.0161103 
-0.00040201 0.000366965 0.0744415 
0.000118985 -0.00453577 0.0861541 
-0.00283467 -0.00786985 0.0792806 
-0.00346113 -0.00215134 0.0827621 
-1.60153e-07 -0.000171404 0.0380469 
-0.000617955 0.000274043 0.0357425 
3.58975e-05 0.000110444 0.0539453 
0.00305687 -0.00413088 0.0545288 
7.79656e-05 -0.000123197 0.0431159 
8.63327e-05 0.000420516 0.0376411 
0.00196884 -0.00074424 0.0274501 
0.00356575 -0.000408123 0.0544307 
-1.12607e-05 -7.08895e-05 0.0234554 
-0.000252637 -0.000280845 0.0454611 
6.44473e-05 -0.000188375 0.0314221 
-0.000329678 -0.00137993 0.0306195 
-1.91357e-05 5.30132e-05 0.0476575 
1.73545e-05 0.000523272 0.048962 
-1.9467e-05 -0.000374898 0.0265168 
0.00115495 0.00213665 0.026577 
-0.000452837 6.44373e-05 0.0232907 
0.00142229 -0.00117989 0.0261488 
0.00315146 -0.00281599 0.032411 
0.00307741 -0.00263688 0.0465917 
0.00330219 -0.00347378 0.031068 
0.00352162 -0.00461275 0.0545373 
-0.000164206 0.000169356 0.0383848 
0.00318327 -0.00296972 0.0471571 
0.00211423 2.64082e-05 -0.000411713 
0.00099323 -0.000770342 0.00218618 
-0.00440963 -0.000607623 0.0118854 
-0.00303179 -0.00020017 0.0107066 
0.000248254 -0.000483192 -0.000461721 
-0.000274483 9.55911e-05 6.42552e-05 
0.000238647 -0.000298698 -0.000255803 
-0.00235481 -6.46294e-05 0.00109488 
-0.0133138 0.00701791 0.0215435 
-0.00726784 0.0077327 0.022855 
-0.0196545 0.0085349 0.018327 
0.00033716 -0.000766749 0.000382832 
-0.00361066 0.0103942 0.0791102 
-0.00188951 0.00601 0.0570952 
-0.00662144 0.00516785 0.0631277 
-0.00193064 0.0036421 0.0778022 
7.41622e-06 -9.12416e-05 0.000223353 
-1.17896e-05 0.000145047 -0.000529129 
7.5077e-06 -9.2367e-05 -6.98574e-05 
-0.000619646 0.000157068 0.0235487 
-0.0293619 -0.0287653 0.103421 
0.00116332 -0.0119712 0.108856 
-0.0135339 -0.0146115 0.0594623 
-0.00865956 -0.0220255 0.0952966 
-0.0187813 -0.0164785 0.0278215 
-0.0228653 -0.00686892 0.0440136 
-0.00805508 0.00851108 0.00166742 
-0.00420753 -0.00503047 0.0115747 
0.0151183 0.0477944 0.131791 
0.00661245 0.0641796 -0.00150584 
0.00646818 0.0604664 0.134246 
0.0282238 0.0157225 0.265223 
-0.0124389 0.0218474 0 
-0.0205087 -0.021795 0 
-0.00434259 -0.00883326 0 
-0.0283551 0.0907589 0.0640348 
0.100739 -0.00983548 0.120857 
0.0281275 -0.0284665 0.0983835 
0.0116055 -0.0276523 0.223661 
0.0376463 -0.0285972 0.0554541 
-0.0550587 -0.00373335 0.23852 
0.00365572 0.00528975 0.220587 
-0.00225699 -0.0137192 0.292325 
0.0561863 -0.0485827 0.156075 
-3.52803e-05 0.000141093 0.054849 
0.00539856 -0.0033538 0.0675061 
0.00432935 -0.00114331 0.0572521 
0.00371133 -0.00282743 0.047437 
-0.00165118 0.000974252 0.0874641 
9.18054e-05 -0.000467726 0.0784923 
0.00514405 1.98031e-05 0.0868818 
0.00356691 0.000991274 0.0776212 
-0.0327386 -0.0311568 0.342382 
-0.063794 -0.0581018 0.237345 
0.0996634 0.0163875 0.17416 
0.10566 -0.0182985 0.042191 
0.000330885 0.00108339 -9.57325e-05 
-0.00318851 -0.00289151 0.0278245 
0.000437614 0.000523818 0.000275179 
-0.00158177 -0.00140473 0.0284575 
-0.000195955 -4.42061e-05 0.0673941 
-0.00541343 0.0045306 0.0621597 
0.000963788 0.000879343 0.0688518 
-0.0048887 0.00252121 0.0779209 
3.17717e-05 7.81615e-05 -3.55775e-06 
-0.000450957 -0.000193673 -0.000175825 
0.000178044 0.00027868 -0.000180549 
-0.000329635 -0.000963893 0.00132564 
0.000130282 -0.000298571 -0.000275728 
1.16217e-05 -3.75945e-05 0.00044634 
6.32031e-06 -2.19202e-05 0.000306111 
-0.000938088 -0.000996321 0.0304098 
-0.00689437 -0.017198 0.0652089 
-0.00485268 -0.00655416 0.0268385 
-0.00727502 -0.00796317 0.0480383 
-0.0141733 -0.0137792 0.041436 
0.000909753 0.000357549 -0.000601076 
-0.000625362 0.000143001 -0.000119161 
-0.000145098 0.000906368 -0.000721863 
-0.00539477 -0.000789969 0.00339123 
0.0147006 0.0341957 0 
-0.00312136 -0.0171385 0 
-0.0167261 -0.0115945 0 
-0.0425848 -0.0228202 0.0416127 
0.000100764 0.000125563 0.000248799 
-0.000117296 -0.000153675 -0.000204038 
-0.00051047 -0.000101182 -0.000271934 
0.000989816 0.00094909 0.00133978 
0.000395395 0.00133615 -0.000444677 
0.000553413 -0.00314526 0.00339051 
-0.000186062 -0.000846862 0.000299173 
-0.00190506 -0.00540139 0.00164412 
0.000966119 -0.000777503 -0.00136476 
-0.00817882 -0.0065511 0.00826531 
-2.41782e-05 0.000173725 -0.000715011 
-0.00203324 -0.00348808 0.0093419 
0.000271221 -0.000411523 -0.000370183 
0.00226494 0.00269759 0.0270715 
-0.000485327 -0.00081103 0.000693778 
0.000689322 0.000994313 0.0228777 
-0.000272443 4.64031e-05 0.0158675 
7.14438e-05 -0.000122612 0.0220252 
-8.54826e-05 -2.16566e-05 3.63175e-05 
0.000503653 -0.00123899 0.0275105 
0.0324728 -0.00833933 0.0287766 
0.0220927 -0.0239297 0.0996281 
0.0147028 -0.0182216 0.0330329 
0.0102711 -0.0159841 0.058192 
0.00141979 0.00113967 -0.00103998 
0.000656097 -0.00291771 0.00205452 
-0.000505393 0.000555035 -0.000342804 
0.00138795 -0.004078 0.0063975 
-0.0559821 0.00234042 0.243383 
-0.0161196 -0.0145921 0.233331 
-0.0150713 -0.0111586 0.224583 
0.0739004 0.0350812 0.140394 
-0.00334095 -0.00336146 0.0264067 
-0.00421978 -0.00440358 0.0514185 
-0.00637174 -0.00623173 0.0444616 
-0.000245435 -0.000346524 0.0211204 
0.00088546 0.000608145 -3.96669e-05 
0.000206009 0.00014098 0.00106867 
0.000428358 0.000294733 -0.00114328 
0.00164894 -0.0010121 0.016855 
-0.00148044 -0.000857922 -0.0012748 
-0.00111451 -0.000598674 -0.0015724 
0.00183902 0.00239348 0.00403109 
0.000274445 0.0021977 0.00236174 
-0.0244559 0.0537415 0.198522 
-0.008917 -0.0523089 0.378231 
-0.0403394 0.0134192 0.290575 
-0.0414637 0.144343 -0.0156618 
0.0149527 -0.022405 0.0234007 
0.0222665 -0.0207257 0.110516 
-0.00588766 -0.0227015 0.0476121 
0.0105706 -0.0172944 0.0573011 
-0.0214472 0.0263014 0.0470382 
-0.0204167 0.0180528 0.0649482 
-0.0124843 0.0110114 0.0546113 
-0.0147822 0.0175709 0.0574079 
-0.000555169 0.000586987 -0.000115223 
0.000197627 0.000493253 -0.000262425 
-0.000238356 -0.000312841 0.000282765 
-0.00160791 0.000479841 0.000745055 
0.000141511 0.000342165 7.8504e-05 
0.000133157 0.000325275 0.000123053 
-0.000130934 -0.000342698 -0.00046075 
0.00057619 0.0015282 0.000669548 
-0.00376249 0.00464169 0.040081 
-0.00498464 0.00435504 0.017504 
-0.00504024 0.00387449 0.0176845 
-0.00891879 0.00875432 0.0408395 
-0.00527456 -0.00292704 -0.00115082 
0.0102477 0.010983 0.00694438 
-0.000719292 -0.0014652 0.00109474 
0.00229759 0.00572447 0.00118917 
0.000945387 -0.00098349 -0.00149719 
-0.000761833 0.00663918 0.00395427 
0.00108081 0.000429743 0.000116029 
-0.000182132 0.00129578 0.00145366 
-0.00699727 -0.00567737 0.0292335 
-0.00478262 -0.00279942 0.0101502 
-0.00373371 -0.00370271 0.0256662 
-0.00872241 -0.0085758 0.0472972 
1.73352e-05 -7.32467e-05 -2.13812e-05 
2.38946e-05 -0.000104078 2.77033e-05 
7.02672e-05 -0.000334233 0.000598328 
0.000301882 0.00115673 0.0251544 
-0.0127026 0.0107491 0.0571998 
-0.0201623 0.01803 0.0660933 
-0.0210876 0.0267164 0.0429897 
-0.0131571 0.0141977 0.0293513 
0.000697009 0.000187565 0 
0.000142862 0.000137988 0 
-0.000777288 0.000605306 0 
-0.00222826 0.000918177 0.0010981 
-0.0289903 0.0299065 0.119407 
-0.0406353 0.0150995 0.187518 
-0.0182692 0.0158284 0.101365 
-0.0247193 0.0532414 0.107142 
-0.0132969 0.0107291 0.0589572 
-0.0124464 0.014384 0.0269961 
-0.0207079 0.0264496 0.042304 
-0.0141904 0.0180542 0.0562399 
0.000834705 -0.00213987 0 
-0.00080442 0.000774052 0 
0.000344635 0.000615477 0 
0.000343907 0.00754188 0.00261728 
0.00525193 -0.000688162 0.0561762 
0.00481963 0.00339623 0.0526163 
0.00884543 0.00238653 0.0703835 
0.0043919 0.00216061 0.0782141 
0.00627708 -0.0116082 0 
-0.0197467 0.00548207 0 
0.0239581 -0.00461794 0 
0.0460089 -0.0365572 0.0627183 
-0.00978591 0.0116205 0.0532296 
-0.00573456 0.00393219 0.0185016 
-0.0043583 0.00539187 0.0381802 
-0.0032282 0.0041816 0.0252087 
0.000790099 -0.000542852 0.000462322 
-8.38695e-06 6.43055e-06 -0.00141786 
0.00044182 -0.000304056 0.00130656 
0.00155741 0.001878 0.0164969 
-0.00457898 0.00509406 -0.0026387 
0.00231486 -0.00247383 -0.00256003 
0.0127929 -0.0157728 0.0202746 
0.00583786 -0.0121367 0.0060036 
-0.00083526 -0.000266102 -0.00163812 
0.00185566 0.0012843 0.00446131 
0.000678679 0.0001713 0.0019267 
0.00227619 0.000518058 0.00236891 
0.000714772 0.000266398 3.76673e-06 
-0.0071257 0.0019916 -0.00417729 
0.0187611 -0.0086084 0.0102477 
0.0130789 -0.00289452 0.0122275 
-0.0340712 0.0071305 0.0458122 
0.000356458 0.0436983 0.0531939 
-0.0156036 0.0150353 0.107219 
-0.0397888 0.000907239 0.132613 
0.00377549 -0.0062116 -0.00532608 
-0.000259272 0.0033061 0.00083221 
-0.0100855 0.022617 0.0234317 
-0.00223008 0.0109018 0.00539138 
0.00891661 0.0114261 0.0880289 
0.00212366 0.00400258 0.0800451 
-0.00392122 0.0122775 0.0833039 
-7.27867e-06 0.0110676 0.108277 
-0.000294862 0.000398605 0.000646632 
4.0398e-05 -6.28898e-05 0.00115329 
-0.000239079 0.000332351 -0.000849057 
0.00125319 0.00171843 0.0160637 
0.000385288 -0.000136366 0.0673207 
-0.00440968 0.00318306 0.0791071 
-0.00542149 0.00512813 0.0624169 
-0.00281077 0.00411171 0.07738 
-0.000437616 -0.000210451 0.000454475 
0.000132086 0.000451592 -7.32425e-05 
-5.59201e-05 0.000449442 -0.000425779 
-0.00583312 -0.000602778 0.00210404 
0.0128012 0.0110966 0.0393048 
0.0139561 0.0104411 0.0246744 
0.0193006 0.0194367 0.060191 
0.00352318 0.00372293 0.0145389 
-0.000129219 0.0301471 0 
-0.0199815 -0.0351959 0 
0.0070098 0.0424904 0 
0.0282596 0.0843689 0.149269 
-0.00487112 -0.00812753 0.0770264 
-0.00292809 -0.00297695 0.0484279 
-0.0116091 -0.0141506 0.063628 
-0.00641441 -0.00913843 0.0483705 
-2.82781e-05 -0.000986381 -0.00408864 
0.000401967 -0.000630033 0.00071628 
-0.00432712 0.00312398 0.0195601 
-0.00393351 0.00308707 0.0241527 
-0.025628 0.0415544 0.126267 
-0.0339193 -0.0130354 0.181615 
-0.00893885 -0.00886977 0.235694 
-0.0173971 0.00372031 0.118104 
-0.0122422 -0.0129322 0.02314 
-0.0189403 -0.0152235 0.0253413 
-0.0361616 -0.0138896 0.0532312 
-0.00678937 0.000183821 -0.00180114 
0.000163543 0.000445199 0.000812275 
-0.000315625 -0.000861948 -0.00154303 
-0.000150488 -0.000451544 -0.000372595 
0.000336784 0.00408494 0.0151573 
0.0017411 0.00477603 -0.00349753 
-0.00869402 -0.00630331 0.00930991 
0.0011327 0.00229048 -0.00385364 
-0.00610474 -0.00527316 0.00620197 
-0.0117892 0.0105767 0.0549484 
-0.00904131 0.0065861 0.0324042 
-0.0180941 0.0069181 0.0724719 
-0.00547961 0.00355965 0.0381405 
0.00164761 -0.000731978 -0.00122475 
-0.00257247 -0.000341331 -0.000355886 
-0.00088389 -0.000842688 -0.000907856 
0.00263781 0.00828647 0.00542066 
-0.000598964 -0.00118529 -0.000974789 
-0.00161083 -0.000892776 -0.000285702 
0.00556859 0.00408839 0.0136513 
0.00395084 0.00136397 0.00408863 
-0.000254826 0.000303015 -0.000375841 
-0.000139728 0.000332526 -0.000325741 
-0.000414173 -3.79119e-05 -0.000268863 
0.00113195 0.00365143 0.00352394 
0.0101701 0.0278391 0 
-0.00283426 -0.0334622 0 
-0.0170287 -0.0245302 0 
-0.0292059 -0.058155 0.0987196 
-0.00628511 -0.00858136 0.0771923 
0.00191149 -0.00288119 0.0854389 
-0.00262424 -0.0148684 0.101206 
-0.00577691 -0.00729225 0.0981949 
0.0240201 -0.00976809 0.00864507 
0.0340382 -0.00712457 0.0438565 
-0.00543872 -0.010718 -0.00991603 
0.0192885 0.0033203 0.0185916 
0.000829818 -0.000613229 -0.00352121 
-0.00415898 0.00775168 0.00806374 
0.000958424 -0.000970178 0.000411627 
-0.00328067 0.00498162 0.0123038 
0.00341541 -0.000728009 0 
0.000974605 -0.000551993 0 
0.00425587 -0.00107891 0 
-0.0122463 0.00361545 -0.000854957 
-0.00862041 -0.0145275 0 
-0.000542898 0.0128383 0 
-0.0306127 -0.028415 0 
0.104344 0.110245 0.0586058 
0.000745454 0.000304993 0.00029005 
0.00118587 0.000339639 -5.48851e-05 
-0.00242645 -0.00237848 0.029263 
-0.00232785 -0.00366113 0.020816 
-0.000819656 -0.00067868 -0.00108637 
-0.000764623 -0.000398828 0.000644558 
0.002471 0.0037702 0.0121162 
0.00101271 0.00417 0.00417199 
-0.0114079 0.0138066 0.0552808 
-0.0174117 0.0040036 0.0723712 
-0.00905371 0.00403305 0.0321975 
-0.0170562 0.0142125 0.0566883 
2.41613e-05 0.000125434 0.0606367 
-0.00483876 -0.00322338 0.0652076 
0.000299869 0.000182007 0.0428463 
-0.00393576 -0.00201458 0.0576323 
-0.0326885 0.0238428 0.0773558 
-0.0316256 0.0294812 0.121553 
0.00489606 0.0211556 0.110267 
-0.020835 0.0196749 0.0663897 
0.000393946 0.000223741 0.0690374 
-4.07822e-05 -0.000285851 0.068219 
5.6714e-05 -0.000293612 0.0535415 
-0.00531917 0.00513396 0.0610977 
-0.0119852 -0.0107772 0.0477565 
-0.00226827 -0.00320597 0.0119607 
-0.0137748 -0.0234131 0.0265298 
-0.0125331 -0.0172733 0.0345994 
8.50029e-05 -5.51847e-05 0.0386405 
0.00343253 -0.00435288 0.0539145 
0.00272502 -0.00329139 0.0314748 
0.00120966 -0.00148489 0.0234223 
4.57183e-05 -1.84925e-05 0.0175703 
9.49292e-05 0.000326801 0.000353192 
8.61424e-05 3.93629e-05 0.00013612 
0.0007643 -0.0013036 0.027591 
0.000123935 -0.000189844 7.55695e-05 
5.33206e-05 -4.81878e-05 -0.000465498 
8.7505e-05 -0.000172232 0.000621283 
2.15939e-05 0.000962938 0.0242652 
-2.57331e-06 1.26213e-05 4.98995e-05 
-5.97888e-06 -2.28822e-05 -0.00092917 
-8.71914e-05 0.000363994 0.000416469 
0.000439978 0.000783334 0.0248402 
-0.000819519 -0.00256555 0 
-0.000980008 -0.000625462 0 
0.00193613 0.000119167 0 
0.00334023 0.00543269 0.000178304 
-0.000218394 0.000228088 -0.00186234 
9.90855e-07 -1.09848e-06 0.000110299 
-0.000238428 0.000247896 -0.00024742 
-0.000840701 -0.00150889 0.00732429 
0.0023514 0.000136448 -0.00185189 
-0.00301975 -0.00478187 0.018937 
-0.003311 -0.00731957 0.0149718 
-0.00448305 -0.00589711 0.0128686 
0.00020481 9.6463e-05 0.0404094 
-0.000132573 2.67913e-05 0.0512548 
-4.16002e-05 -0.000326611 0.0351713 
-0.00182553 0.00431445 0.0551161 
-0.000365432 -0.000733528 -0.000858351 
0.00155954 0.00174567 0.0264865 
0.00282646 0.00321242 0.0287129 
0.000798282 0.000651153 0.0219423 
0.000648547 0.000421421 -0.000785073 
-0.00235141 -0.00283352 0.0209429 
-0.00123246 -0.00144859 0.0246042 
-0.000827501 -0.00137142 0.0219655 
-0.0106065 -0.0190527 0.0426889 
-0.0250078 -0.0121454 0.0423898 
-0.00219451 -0.0137174 -0.0012731 
-0.0164765 -0.0106437 0.0411393 
-0.000590041 -0.00108557 -0.00219237 
-0.00583086 0.00499953 0.0173927 
0.000376404 -0.00066708 0.00148923 
-0.00320996 0.00269337 0.0231967 
-0.00527502 0.0197545 0.036464 
-0.0137555 0.00417238 0.0226567 
-0.00165981 0.0176777 0.0514072 
0.0014244 0.00696116 0.0127946 
-0.0040537 0.0586759 0.00169316 
-0.0198473 0.00342359 -0.0258048 
0.0379451 0.0400505 0.128125 
0.00912461 0.0300537 0.0607462 
-0.000158743 -1.55154e-05 0.0193198 
0.000736172 0.00125024 0.0247712 
0.000345039 7.26338e-05 0.0333146 
0.00120977 0.000823896 0.0247988 
-0.0141547 -0.0104514 0.0450604 
-0.00269239 -0.00822094 0.0135287 
-0.00331084 -0.00431231 0.0205282 
-0.00403586 -0.0064981 0.0128412 
-0.0106044 -0.00225086 0.0756516 
-0.0107802 -0.00624704 0.0994695 
-0.0149852 -0.0129565 0.0720253 
-0.0222154 -0.00302315 0.102582 
-0.0226377 -0.0210307 0.115398 
-0.007462 -0.00633464 0.0959397 
-0.0119468 -0.00510918 0.133411 
-0.0236846 -0.00378587 0.104421 
0.00559159 -0.00387489 0.0240475 
0.0141583 -0.0118877 0.0534202 
0.00538982 -0.00384348 0.0438394 
0.0105742 -0.00302068 0.0596149 
0.0114899 -0.0124109 0.0420199 
0.00297203 -0.00284119 0.0303 
0.00397013 -0.00433453 0.0159408 
0.00861681 -0.00890569 0.0541572 
-0.00448989 0.00438978 0.0380499 
-0.000904859 0.00183104 0.0287846 
-0.0021493 0.00108895 0.02533 
-0.00261797 0.00307153 0.0469209 
0.0123604 0.0115255 0.0359308 
0.00326169 0.00517584 0.0156685 
0.00317605 0.00424597 0.00274429 
0.00616026 0.00420694 0.017964 
-9.34621e-05 0.000114797 0.0167448 
9.21389e-05 -0.000143095 4.40329e-05 
4.0941e-05 -8.93599e-05 0.000550111 
-0.000910921 0.000779497 0.0257246 
-0.00169997 -0.00214404 -0.00309616 
0.010305 0.00167926 0.0069719 
-0.000664812 -0.00152821 -0.000431464 
0.00276541 0.002364 0.00244248 
-0.00545696 -0.01146 0.0129262 
-0.00101609 -0.00401906 0.0028928 
-0.00577384 -0.00765864 0.0159127 
0.00256317 -0.00514957 0.00498184 
0.00457275 0.00137282 -0.00739988 
-0.0171615 -0.00934492 0.0150137 
0.00822068 0.00321457 -0.00548418 
-0.00983061 -0.0021618 0.00980191 
0.0106646 0.0113117 0.0809172 
0.00702847 0.00535739 0.0602605 
0.00142877 0.00491447 0.0850978 
0.00340477 0.0017804 0.0786677 
-0.000107226 -0.000268133 0.0381101 
2.50089e-05 2.75902e-05 0.0507535 
-8.08631e-05 -0.00016806 0.0344476 
0.00370451 0.00171208 0.0520697 
-0.021004 -0.000176666 0.0449084 
-0.0125403 -0.00920534 0.0473971 
-0.00510813 -0.00141779 0.0234914 
-0.0048154 -0.00951568 0.0099305 
-0.00802538 0.00634528 0.0211116 
-0.00441249 0.00241991 0.00379204 
-0.020839 0.00662436 0.0158783 
0.000665173 0.00147422 0.00289425 
-0.00032626 -0.000311599 0 
-0.000202309 -0.000391614 0 
0.000339501 -0.000501484 0 
0.00126036 0.00190872 0.00121211 
-0.00320981 0.00163382 -0.00259454 
-0.00809633 0.00862931 0.0119072 
0.00542169 -0.000883754 -0.0042401 
-0.00773941 0.00513369 0.00869594 
0.000835905 -0.0141046 -0.000251563 
0.0229119 -0.0274723 0.0667683 
0.033153 0.00174371 0.0576585 
0.0316362 -0.0161665 0.040916 
-0.000754766 0.000303462 0.0370711 
0.00426377 0.000338923 0.0555025 
-9.8921e-05 4.02594e-05 0.0508937 
0.00438703 0.00107786 0.0532762 
0.00243075 0.00522016 0 
-0.000238276 -0.00247094 0 
0.000734316 0.00505629 0 
0.00819823 -0.0199805 0.00148627 
9.16711e-05 0.000105698 0.0660322 
-0.00595002 0.0019694 0.0606966 
-0.00587765 0.0047782 0.0633576 
-0.00475571 0.00216039 0.0781699 
-0.000374745 -0.000801893 0.0385058 
0.00456495 0.00507226 0.0590289 
-9.88061e-05 0.000211892 0.0599481 
0.00273007 0.00317083 0.0446295 
1.53749e-05 0.000166937 -0.000296468 
-0.000337401 0.000466998 -0.000180083 
0.000194302 0.000437948 -0.00031435 
-0.00149562 -0.000283504 0.00132369 
0.000586608 -6.39692e-05 0.0466174 
-0.00263322 -0.00430179 0.0505238 
-0.00195007 -0.00309293 0.0353362 
-0.00166036 -0.00157735 0.0288281 
-0.0221651 -0.0233995 0.108148 
-0.0367067 -0.0143026 0.0661284 
-0.0263781 -0.0296829 0.126485 
-0.00706927 -0.0268069 0.0946626 
-0.000892203 -0.000288031 -0.00250819 
0.000450903 0.00013521 0.000812411 
-0.000147938 -2.81309e-05 0.000446822 
0.00537025 -0.0011667 0.00510008 
0.00391226 0.00269609 0.0367063 
0.000331436 0.000541045 0.0236507 
0.00395083 0.00285324 0.0346307 
0.00460194 0.00281898 0.0520022 
0.000339075 0.000964614 -0.00043281 
0.000798647 0.00111268 -0.000367109 
-0.00379814 -0.00310474 0.02445 
-0.00425047 -0.00193926 0.0141704 
-0.000294481 -0.00187513 -0.00420088 
-0.00175004 0.00360509 0.0204847 
-0.00613843 0.00774837 0.0192869 
-0.00185796 0.00543108 0.0151299 
-0.0144249 0.0156506 0.0550717 
-0.00387266 0.0022638 0.0165931 
-0.0121979 0.0104182 0.0249318 
-0.00954601 0.00875459 0.0419969 
0.0128244 -0.0155235 0.0305835 
0.00525836 -0.0053912 0.021639 
0.00168918 -0.0198874 0.0424021 
-0.00504836 -0.0063318 0.00348083 
-0.000152963 -0.000149887 -0.000587929 
-0.000286407 -0.000281668 0.000661501 
-0.000318464 -0.000312908 0.000240804 
0.00147446 -0.000534182 0.0301406 
-0.000177348 -0.000258336 0.00142234 
-0.000364143 -0.000507854 0.000561501 
-3.59887e-05 -4.2344e-05 -0.000764437 
0.00150116 -0.00150315 0.0167722 
-0.0225372 0.0123005 0.0992595 
-0.0391764 -0.00574214 0.174205 
-0.0189539 0.0397563 0.125347 
-0.022829 -0.0057177 0.112172 
0.00146781 -0.00153546 -0.0056961 
-0.00719628 0.00386753 0.00684237 
-0.00866534 0.00781409 0.00986282 
-0.00394619 0.0043513 0.0139655 
3.51236e-05 4.73478e-06 0.0681171 
8.17683e-05 -0.000101442 0.0508504 
-0.0027837 0.00495306 0.0569017 
-0.00222055 0.00298303 0.0477934 
-0.0288016 0.0118956 0.114118 
0.000377753 0.0367192 0.068029 
0.0290671 0.0662288 -0.00628582 
-0.00645038 0.0323481 0.159139 
-0.00242957 -0.000187559 0.0969572 
-0.00357098 0.0113335 0.0828065 
0.00401136 0.00544855 0.0843917 
-0.00239614 0.0099728 0.103568 
0.010961 0.00131663 0.0734049 
0.00414631 -0.000125996 0.0542002 
0.00470532 -0.00421267 0.0699722 
0.0115226 -0.00218416 0.0588382 
-8.74506e-06 4.17791e-05 0.0397157 
-3.46562e-05 0.000449357 0.0354161 
6.71269e-05 -0.000207467 0.0552012 
-0.00313624 -0.00375955 0.0513363 
-0.004519 -0.016488 0.0631669 
0.0192682 -0.0120999 0.0647653 
0.00604199 -0.0137821 0.0553991 
-0.00764458 -0.0242881 0.0984308 
9.26084e-06 -0.000155826 0.000921513 
3.38178e-05 -0.000376584 -0.000571666 
1.55464e-05 -0.000205609 0.000401828 
-0.00184659 -0.000450213 0.022252 
0.000143035 5.23473e-05 0.0181335 
-1.74844e-06 -0.000100908 0.000456265 
2.87646e-05 -0.000249536 0.000164207 
0.000809437 0.00107881 0.026439 
2.94329e-05 -9.77251e-06 -0.00166621 
-0.000217875 0.000152342 0.000800288 
-0.000850488 0.000616486 -2.07302e-05 
-0.00131981 -0.00160745 0.0252455 
-0.0023016 -0.00113957 -0.000506043 
0.00677802 0.00397235 0.0227831 
-0.00169863 -0.00119896 -0.00172155 
0.00669446 0.00396854 0.0183444 
0.0112191 0.0105341 0.0826957 
0.00854679 0.00335817 0.073332 
0.00630606 0.00557652 0.0589076 
0.00374593 0.00223899 0.0786238 
-0.0044156 0.00543468 0.038249 
-0.00544899 0.00404187 0.0165494 
-0.0112829 0.012737 0.0550353 
-0.00852206 0.00790604 0.0419652 
-0.000248338 0.000341143 0.00122392 
-0.00152455 0.000722093 0.00214527 
0.000187938 -0.000305127 -0.00122342 
-0.00191699 0.000120454 0.0035965 
-0.00421678 0.0092103 0.0134439 
-0.00483375 0.00327211 0.0178428 
-0.00309382 0.00256714 0.0144547 
-0.00864356 0.0130267 0.0300706 
-0.000549019 -0.00071297 -0.00226333 
0.000535701 0.000270542 0.00132208 
0.00431939 0.00207375 0.0057056 
0.003583 0.000460558 0.00458407 
0.000181042 0.000232691 0.058057 
-0.00541501 0.00113787 0.0605212 
8.42098e-05 -0.000340188 0.0747152 
-0.00413601 -0.000171434 0.0578065 
-0.00428495 -0.00410597 0.0254333 
-0.00593728 -0.00592177 0.0448986 
-0.00354271 -0.00444943 0.0519202 
-0.00689348 -0.0082134 0.0476679 
-0.000503394 -0.00044625 0.000661012 
0.00283419 0.00225507 0.0269579 
-0.000210955 0.000160882 -0.000534895 
0.000822838 0.00038434 0.0212892 
-0.00107373 -0.00422368 0.033949 
-0.00378626 -0.0036394 0.0519095 
-0.000441942 -0.00669105 0.0612537 
-0.00586321 -0.00828197 0.0487345 
-0.000168729 -0.00023447 -0.000178378 
-0.000205466 -0.000312884 0.000868775 
3.97009e-05 8.05382e-05 -0.000964861 
-0.00079371 0.00196235 0.0304233 
-0.00459294 0.0010849 0.0381296 
-0.00109692 0.000638579 0.0246803 
-0.00600981 0.00205617 0.0596676 
-0.00734476 0.00485822 0.0416563 
0.00614021 0.085095 0.145381 
0.0342744 0.0291471 0.0294103 
0.000680168 0.0231114 0.0678171 
0.0383247 0.0383357 0.190633 
-0.000159674 -0.000353682 0.000460726 
-0.000140239 -0.000345471 0.000941921 
4.39024e-06 3.95184e-05 -0.000472139 
5.06397e-05 0.00301128 0.0148891 
-0.00545981 -0.00151145 0.0259789 
-0.00944815 -0.00380005 0.0523992 
-0.00295847 -0.00214659 0.0292636 
-0.00366011 -0.00421513 0.0203279 
-0.0104062 0.00634337 0.0225069 
-0.00819426 0.0168513 0.0357159 
-0.00478709 0.0080219 0.00621586 
0.00209943 0.00727011 0.0126527 
9.94211e-05 0.000416644 0.0431768 
-0.000148846 7.43577e-05 0.06198 
0.000573122 -7.10534e-05 0.0548901 
0.000106999 -0.00599838 0.0589591 
-0.000169944 -0.000120248 -0.0015036 
0.00060731 0.000427325 0.000512435 
7.26866e-05 5.1551e-05 0.000886945 
0.0021065 -0.000871834 0.00487653 
2.10124e-05 -1.28059e-05 0.000701919 
-0.000308048 -0.00019615 -0.000202987 
0.000150044 0.000110766 -0.000301203 
0.00281144 0.000768278 0.00196356 
-0.00759099 -0.00637994 0.0290407 
-0.00483398 -0.00309658 0.0267934 
-0.000337768 -0.00411155 0.0363382 
-0.00666581 -0.00827017 0.0463094 
0.000348671 0.00443231 0 
0.000372007 -0.00153726 0 
-0.00153955 0.00317505 0 
-0.00533835 -0.00970781 0.00172017 
0.000155008 0.000139479 0.0214094 
-2.21546e-05 -5.36394e-05 0.0194855 
-0.000107633 -0.000267664 0.000213485 
-0.00120248 0.00125108 0.0283251 
0.000706898 0.00194162 -8.22611e-05 
-0.00123179 -0.00257264 0.00322978 
0.00106164 0.00270031 -0.000956636 
-0.00265726 -0.000644284 0.00103746 
-0.000421285 0.000184386 0.000925084 
3.73806e-06 1.39526e-05 -0.00102678 
3.82129e-05 -3.08446e-05 0.000838681 
-0.00215872 -0.000888899 0.0262128 
-0.000456084 0.000169611 -0.000327996 
-0.000354633 0.000515503 -0.000322948 
-0.000143126 -0.000199173 9.73676e-06 
0.000241862 -0.00175533 0.00105597 
0.0214602 -0.0533557 0.108468 
0.0337504 0.0162953 0.140722 
0.0264356 0.067744 0.0977316 
0.0220827 -0.0212889 0.127896 
-0.0188652 0.00715022 0.0464688 
-0.0246806 0.0221788 0.102764 
-0.00971358 0.0330658 0.0587894 
-0.0172363 0.0184856 0.0561733 
-0.0307965 0.0213228 0.0806495 
0.00115096 0.0276989 0.103105 
-0.0343038 0.0189066 0.122736 
-0.0129671 0.0295819 0.167933 
-4.06472e-05 0.000171182 -7.69372e-05 
-4.64006e-05 0.000226607 0.000638806 
-1.28852e-05 6.16475e-05 0.000147575 
-0.000717239 -0.00154258 0.0305963 
0.000540619 -0.000291388 -0.000775581 
0.000516357 -0.000211312 0.00135453 
0.000193921 -0.000120134 -0.00076646 
-0.0039593 -0.000519273 0.0254144 
-0.000537047 -0.0055832 -0.00491219 
0.000637338 -0.000668786 -0.0022133 
0.00517691 0.00713285 0.0105161 
0.00129929 0.0105464 0.00948605 
0.00039758 0.000139051 0.0686243 
-0.00535396 0.00521157 0.0614307 
-6.57757e-06 -0.000277449 0.0535296 
-0.00257783 0.00285745 0.0474472 
0.00487663 -0.00285149 0.0423192 
0.0145047 -0.0127511 0.0542314 
0.0140705 -0.00928717 0.0748614 
0.0104142 -0.00213647 0.05978 
0.00235007 -0.00215069 -0.000697926 
-0.0113352 -0.0155071 0.00745145 
-0.0015699 0.00306576 -0.00399257 
-0.00119381 -0.00585673 0.0057052 
-0.000188655 -6.8383e-05 2.30335e-05 
-0.000196161 2.17067e-05 0.000581146 
0.000181976 7.49674e-05 0.0187387 
0.000886259 0.000646606 0.0244123 
0.000506473 6.09862e-05 0 
0.00135206 3.90953e-06 0 
-0.000919086 -0.000681701 0 
-0.00244391 0.00011301 0.000576767 
0.000202613 6.00677e-05 0.0763216 
0.00061827 0.00515363 0.0835935 
0.000191484 -0.00174925 0.0866252 
-0.000870452 0.00412605 0.0783426 
0.00289082 0.000707149 -0.00154842 
-0.00440065 -0.00593565 0.0159126 
-0.00338227 -0.00473779 0.0193603 
-0.00285465 -0.00305075 0.0202538 
0.00688062 0.00585537 -0.00975542 
0.00269721 -0.00625327 -0.00430331 
-0.0596195 0.00577455 0.070349 
-0.00736941 -1.23979e-05 -0.0065556 
-0.00518314 -0.00553179 0 
-0.000897623 0.00213551 0 
-0.00152037 0.000238396 0 
0.00140566 0.00234362 -0.000684595 
0.00482185 -0.000667351 0.0555542 
0.00411117 0.00396584 0.0535094 
0.00397478 0.00209053 0.0349504 
0.0108429 -0.00146311 0.0582274 
0.00378931 -0.00490062 0 
-0.00125007 0.00485261 0 
2.52139e-05 0.00277554 0 
-0.00920797 0.0195789 0.017515 
0.000583951 -0.000229156 -0.000826859 
0.000774473 -0.000311259 -0.000379618 
-0.000213453 6.66483e-05 0.00197454 
-0.00664352 3.82715e-05 0.0054574 
0.00055317 -0.00110909 -0.000938058 
7.07879e-05 -0.00171333 0.000976281 
-0.0049941 0.00334903 0.0132451 
-0.00399614 0.00196864 0.00458725 
0.00577846 0.0121746 0.00733731 
0.00730202 -0.00310827 0.0232742 
0.020021 0.00295224 0.0393931 
0.00847344 0.00197581 0.00752523 
-0.00265291 -0.00779479 0 
-0.00631359 -0.00563469 0 
0.005535 0.00414125 0 
0.0288202 0.0209473 0.00634435 
-0.000656643 -0.000517681 0.0467919 
0.00042212 0.000318195 0.0640074 
0.00244286 0.0051175 0.0657886 
0.00198559 0.00329337 0.0458342 
-0.00640631 -0.0116758 0.0179959 
-0.0141766 -0.00174223 -0.000113262 
-0.0329528 -0.012661 0.058131 
-0.0194072 -0.00847172 0.0384655 
0.00022886 3.43513e-05 0.0178215 
0.000106315 0.000223603 0.000153486 
-7.34652e-05 -4.76196e-05 0.0219907 
0.000566359 -0.0014502 0.0273247 
-0.00679365 0.00683284 0.0172352 
-0.00392672 0.00415642 0.0174593 
-0.000894165 -0.00266468 -0.00257841 
-0.00448631 -9.40418e-06 0.00450385 
0.000563115 0.000703061 0.0749711 
-0.00526245 -0.00284567 0.0661608 
0.000191426 -2.4639e-05 0.0602986 
-0.00420765 -0.00175885 0.0577116 
-0.00801961 -0.00295415 0.00934807 
-0.0113946 -0.00382154 0.0082671 
-0.00943465 -0.0103727 0.0206097 
-0.0197432 -0.00797417 0.034442 
-0.000294125 -0.00049748 0.0841486 
-0.000718601 0.000770518 0.0876162 
-4.14941e-05 0.000120934 0.0802439 
0.00439375 -0.000658456 0.0840904 
0.000182739 0.000359159 0.000580819 
-0.000195776 -0.000383889 0.000718873 
4.56753e-06 7.75033e-06 -0.00182462 
0.00052605 -0.00318236 0.0170983 
0.00351763 -0.00096144 -0.00532216 
0.00582465 -0.000866454 -0.00311252 
-0.00930685 0.00767965 0.00974704 
-0.00924458 0.003611 0.00647745 
-0.000401951 -0.000842612 -0.000454761 
0.000396594 -0.000367803 0.000826833 
-0.0011624 0.00172393 0.0275346 
-0.00280651 0.00253395 0.0252616 
0.00994534 0.00197076 0.0713995 
0.00398819 0.00446693 0.0518427 
0.00483317 -0.000542812 0.0557894 
0.0109345 -0.0015962 0.0595836 
-0.000282932 -0.000110103 0.00106019 
-0.000240146 -0.00011373 -0.00049095 
-9.85339e-05 -4.97956e-05 -0.000416197 
0.00155814 -0.000268179 0.0235675 
0.00360655 0.000911356 0 
0.00276104 0.000726858 0 
0.00186348 -0.000857918 0 
-0.01856 0.00148406 -0.0030525 
-0.000164636 0.000318781 0.000984739 
-5.98327e-05 0.000164995 -0.00154526 
0.000411314 -0.000868907 0.00034715 
3.56072e-06 -0.00508578 0.0126187 
-0.00714456 0.00747657 0.00686742 
-0.0132617 0.0170307 0.0273693 
0.00100103 -0.00249656 0.000685649 
-0.00278244 0.00861394 0.00559638 
0.0015336 0.000601073 0.0811349 
-0.000510837 -0.000134014 0.0746445 
-0.00406752 0.000764611 0.0785313 
-0.00452468 -0.000470099 0.0837125 
0.0120705 -0.0134409 0.0406093 
0.0137553 -0.0137856 0.0522873 
0.0151718 -0.0122592 0.0785408 
0.00870686 -0.00783904 0.0541546 
0.00187726 0.00252156 1.76564e-06 
0.00721307 -0.00458159 -0.00465741 
-0.0161356 0.0203704 0.0184455 
-0.00780979 0.00713696 0.00681081 
0.000317585 0.00015163 -0.000962137 
0.000578979 0.00026161 0.00122056 
0.000689892 0.000320306 -0.0002677 
-0.00505832 -0.000401622 0.0169185 
-0.00899497 0.0110683 0 
-0.012659 0.0308893 0 
0.0340344 -0.0321104 0 
-0.0347156 0.106167 0.0871557 
0.00992858 0.00542832 0.157073 
0.00267271 0.0055896 0.0688558 
0.00456462 0.00155946 0.194253 
-0.109302 0.010022 0.0843269 
-0.0219673 -0.0366744 0.099074 
-0.016447 -0.0104324 0.22124 
-0.0351434 -0.0146834 0.169348 
-0.0122728 0.00592774 0.136084 
-0.000151472 -0.000660328 -0.000164681 
0.00292311 0.00201686 0.00297173 
-0.0015756 -0.000592975 -0.00113998 
0.00278521 0.000233592 0.0017935 
-0.00822661 -0.00329722 0.00911488 
-0.0111801 -0.00564752 0.0231863 
-0.00312437 -0.00177673 0.0101755 
-0.0158648 -0.011338 0.0329718 
0.00166727 0.000153769 -0.00111476 
-0.00330728 -0.0050373 0.0141416 
0.00104122 -0.000327518 0.000154335 
-0.00246102 -0.00226744 0.0183899 
-0.000708863 0.000188394 0.000729309 
0.00020602 -5.73739e-05 -0.000799552 
0.00056339 -0.000153374 -0.00139645 
0.00369816 0.00246123 0.0220076 
0.0179727 -0.0246332 0.100416 
-0.0157349 -0.0156113 0.15841 
0.0191673 -0.0430919 0.220337 
0.0592018 -0.0587158 0.159206 
3.13441e-05 0.000281136 0.0471799 
0.00144576 0.00222025 0.0267082 
-0.000222715 -0.000361179 0.0316762 
0.00239304 0.00301816 0.0443912 
-0.000124839 -0.000286926 -0.00019481 
6.50628e-05 3.45046e-05 -0.000206673 
5.91649e-05 -0.000410955 -0.000504419 
-0.00242881 -0.000145732 0.00163214 
-0.0457986 -0.00704822 0.110869 
-0.00912154 0.00260335 0.229919 
-0.0803467 0.00516828 0.143413 
0.00106729 -0.013074 -0.142015 
0.000178172 -0.00129882 0.000580508 
-0.0036654 0.00339624 0.0200094 
-0.000486714 -0.00136147 7.36303e-06 
-0.00283767 0.00309132 0.0247682 
-0.0107191 -0.00282041 0.0768444 
-0.0170269 0.00155241 0.0709818 
-0.0129873 0.00909583 0.0940212 
-0.021944 -0.00210484 0.0993485 
0.00148032 -0.00210243 7.16652e-07 
-0.0027284 -0.00836934 -0.00998185 
-0.0077526 0.0457609 0.0271761 
-0.00175219 0.0116514 0.00306874 
-4.73229e-06 0.00014438 0.0169531 
8.49429e-05 -3.55204e-06 0.0212272 
7.18259e-05 -0.000248989 0.000134978 
-0.00129593 0.000946271 0.0258325 
-0.00808732 0.0259489 0.158854 
0.0329253 0.0108121 0.195759 
0.0299109 -0.0729237 0.318194 
0.0321304 0.0438512 0.230376 
-0.0263252 0.0237308 0.0781229 
-0.00534293 0.0240232 0.105169 
-0.00988826 0.0112408 0.0540001 
-0.0216078 0.0170235 0.0701285 
0.000329544 0.000789249 0.000919985 
-0.0021918 -0.00225052 0.0295304 
0.000826675 0.00014679 -0.000419884 
-0.00226836 -0.00358958 0.0214576 
-8.00889e-05 0.000883827 0.0827438 
0.000709486 -7.90193e-05 0.0839845 
-0.000566071 -2.86713e-05 0.0747811 
-0.00324627 -0.00127278 0.0819447 
0.000308649 0.000299953 -0.0011673 
0.000173953 0.000168137 0.00106102 
0.000752197 0.000729523 -6.40919e-05 
-0.00236788 -6.0529e-06 0.0156138 
-0.000218628 -0.000244824 0.000972848 
0.00222851 0.00205831 0.0276404 
0.000125148 0.000148101 -0.00100037 
0.000816071 0.000495201 0.0234371 
0.000686339 -0.000296473 0.000858883 
-0.000884562 -0.00223253 0.000872977 
-0.000335223 0.00133952 -0.00145071 
-0.00326329 -0.00419879 0.00419317 
-0.00937267 0.0510033 0.124593 
-0.0655457 -0.00266697 0.0796863 
-0.0277712 0.0249699 0.234382 
0.022772 0.0381128 -0.0301764 
0.000361122 -0.000605335 0.00103085 
2.17814e-05 -0.000865865 -0.00185181 
-0.00207841 0.00321706 0.0207818 
-0.00312384 0.00292048 0.0254258 
2.7888e-05 -1.48015e-05 0.048112 
-0.000314418 -0.00014766 0.0610442 
-0.000734887 0.00488226 0.0570107 
0.000443765 0.00492257 0.0652607 
3.70856e-05 -8.80877e-05 0.000680227 
0.000185025 -0.000394791 -0.00105645 
0.000205907 -0.000457872 0.000669013 
-0.000873808 -0.00212895 0.0194887 
-0.0196859 -0.0283829 0.2399 
-0.0175075 -0.0502386 0.139432 
-0.0189065 -0.0237066 0.0857388 
-0.0370428 -0.0148731 0.169169 
0.000609259 -7.81401e-06 0.0492428 
-8.18695e-05 0.000160002 0.060863 
0.000105311 -0.000340657 0.0397754 
-0.00134579 0.00480185 0.0559743 
-0.00241773 0.00391073 0.095692 
0.00360463 0.00460455 0.0843555 
-0.00317579 0.00924547 0.0837455 
-0.00232093 0.00376802 0.0776311 
0.00041411 -0.000572952 0.0751577 
-0.00608332 0.00150868 0.0599491 
0.000920856 2.57326e-05 0.0580349 
-0.00570297 0.00139543 0.0783216 
0.000115687 0.000276551 0.0801797 
0.000299588 -0.00062378 0.0738389 
-0.00017846 -0.000378263 0.0844077 
0.0042082 -0.000851224 0.0835758 
-1.94632e-05 -0.000214175 0.0660689 
0.00550654 0.0045116 0.0605251 
-0.000373734 -0.000219289 0.0487067 
0.00420614 0.00257552 0.0523445 
-6.01628e-06 -6.33532e-06 0.0270226 
2.99208e-05 -0.000274537 0.000478132 
0.000186355 -2.86429e-05 0.0181983 
0.000841712 0.00137675 0.0265674 
-0.00674054 -0.00471628 0.00621663 
-0.00276781 -0.00872586 0.0119937 
-0.025588 -0.0121572 0.0273876 
-0.0169512 -0.00923586 0.0368225 
4.64292e-05 -0.000197178 -0.00152265 
-0.000912998 -0.00137872 0.0248691 
0.000147646 0.00020276 0.000485572 
-0.000732936 -0.000696677 0.0223638 
0.0200936 0.0019987 0.213058 
0.0402795 -0.00133938 0.146706 
0.0408402 0.0260178 0.188504 
0.0068699 0.0285215 0.154669 
0.051941 0.0091367 0.134583 
0.00834164 -0.0323946 -0.00138999 
0.078654 -0.00417687 0.0678812 
0.0388561 0.0048028 0.0639674 
-0.00296751 0.000211284 0 
0.000908536 -0.00195018 0 
0.00299496 -0.00121843 0 
0.011377 -0.00644932 0.0114076 
-0.0146796 0.0196404 0.0403577 
-0.011285 0.0032592 0.000538561 
-0.00666964 0.00601244 0.0189034 
-0.0036359 0.00874608 0.0045041 
-0.00230221 0.00211666 0 
-0.00192474 -0.000266607 0 
-0.00282925 -0.000648246 0 
0.00736783 -0.011342 0.00113069 
0.0759733 -0.0173331 0.191543 
-0.0450259 -0.0013309 0.234519 
-0.0292068 0.0316081 0.286258 
0.11604 -0.0534712 0.000315628 
0.00595133 -0.00391323 0.0455764 
0.00437373 0.00119133 0.0571748 
0.0066328 -0.00394551 0.0677489 
0.00346211 -0.00454198 0.047455 
-0.00116465 0.000225605 0.0922405 
-0.0133493 0.00798904 0.0957561 
-0.00357294 0.00708789 0.111733 
-0.00669765 -0.00397337 0.0994338 
4.62989e-05 4.40202e-05 -0.000895101 
-7.99936e-05 -7.6376e-05 0.0010153 
0.000411119 0.000395833 0.000279895 
-0.00144908 0.000534505 0.00208093 
0.0166425 -0.0117282 0.0290525 
0.00472704 0.00301451 -0.00298738 
0.0186873 -0.0130173 0.0230704 
0.015649 -0.00668105 0.0155825 
0.000127608 8.07665e-05 0.022827 
-0.000239595 -3.36659e-05 0.000338749 
-0.00014703 -2.96274e-06 7.34032e-05 
0.00137495 -0.000386489 0.0274984 
0.000871974 0.00156579 -0.000260817 
-0.00332443 -0.00733594 0.0149544 
0.00104756 0.000997298 -0.00146152 
-0.00209797 -0.00565964 0.0184328 
0.00715253 0.00637007 0 
0.00736678 -0.0115723 0 
-0.00850723 -0.00372345 0 
0.0181926 -0.0274201 0.0244663 
-0.0119568 -0.00317186 0.126743 
-0.00215097 0.0098085 0.110867 
-0.0148564 0.0135313 0.0941159 
-0.00884861 -0.00990742 0.101296 
-0.000581692 0.000850558 -0.0013092 
0.00024496 -0.000174839 0.000144591 
0.000288763 0.00255515 -0.00158691 
-0.00384476 -0.00645228 0.00404744 
0.000108173 -0.000400059 -0.000122408 
1.78615e-05 -5.51885e-05 -0.00027084 
9.75768e-05 -0.000442589 0.00177383 
0.000683975 0.00402793 0.0221501 
0.00520843 -0.004579 -0.00199283 
-0.0073285 0.00294766 0.00251147 
0.00303533 -0.00237836 0.00126134 
-0.00744735 0.00635706 0.0034903 
-0.0100837 0.00673554 0.0327544 
-0.00460006 0.0113437 0.0113255 
-0.018624 0.00882905 0.0387538 
-0.00630385 0.00363602 0.012832 
0.000196883 6.81048e-06 0.0168046 
-0.000100933 5.74802e-05 -5.5516e-05 
-0.000121625 -0.00010362 0.000537058 
0.000751977 0.000565186 0.0253142 
0.00202663 -0.000177764 0.000103484 
0.000278416 -0.000809839 -0.00106364 
-0.000576402 0.00140832 0.000406331 
-0.00130602 0.00499641 0.00480447 
-0.00867845 -0.0015024 0.00986619 
-0.00196164 0.000764867 0.00131604 
-0.00980914 -0.00928739 0.0203714 
-0.0106384 -0.00565971 0.00802508 
-3.85121e-06 4.69461e-05 0.000312648 
1.48702e-05 -0.000181267 -0.00084316 
1.52887e-05 -0.000186369 0.00246874 
-0.00266093 0.00149234 0.00358136 
-0.0128435 0.00734712 0.017388 
0.000604518 0.00192826 0.00218387 
-0.00208821 -0.00142713 0.00421422 
-0.00934841 0.00739438 0.00733909 
0.00026625 -8.67382e-05 -0.000888358 
-0.000264826 0.000100576 0.000377472 
-0.000467681 0.000198092 -5.79934e-05 
-0.00415722 0.000377038 0.00399735 
-9.70842e-05 -0.000123655 -0.00118732 
0.000284093 0.000253048 0.00137647 
-0.00261815 -0.00172484 0.0260722 
-0.00111662 -0.000365251 0.0218161 
0.00735031 -0.00311747 0.0466129 
0.00129608 -0.000528256 0.0265339 
0.00285017 0.000324082 0.0364378 
0.00458164 -0.000692951 0.0553379 
-0.000390462 0.000103551 0.00023808 
-0.00049772 0.000127955 0.00130786 
-0.000214996 5.89111e-05 -0.00033957 
0.0031297 0.00125769 0.0238706 
-0.0043255 -0.0176513 0.271201 
0.00145376 0.0239615 0.220963 
0.0446773 -0.00153533 0.189388 
0.0563473 -0.0535333 0.152461 
0.00251334 0.00154435 -0.00126381 
-0.00203438 -0.00278061 0.0110853 
-0.00365635 -0.00556993 0.0141128 
-0.00269917 -0.00293547 0.0190394 
-0.0105399 -0.0183346 0.0252274 
-0.015189 -0.0130991 0.0209425 
0.00193551 -0.00602797 -0.00206432 
-0.00642172 -0.00593619 0.0153271 
-0.00812997 -0.00146444 0.0796336 
-0.00539872 0.000510063 0.0946474 
-0.00524068 0.00438548 0.0784538 
-0.00239549 -0.00435879 0.0840268 
0.00439193 0.00252976 0.00718941 
-0.00225056 -0.000783412 -0.00316515 
-0.0010454 0.00346096 0.00203331 
0.000320493 0.00473371 0.00178664 
0.0427429 -0.00367773 0.195103 
-0.0226585 -0.00262182 0.255494 
0.0232321 -0.00441362 0.144695 
0.0842459 -0.0226756 0.082255 
0.000159171 0.000101176 0.00142517 
0.000408042 0.000276772 0.000331213 
5.6937e-05 4.11386e-05 -0.000434577 
-0.0031264 -0.000139347 0.0173252 
0.00794223 0.00285939 0.124379 
-0.0118208 -0.00492175 0.132374 
0.000141925 -0.0172248 0.106811 
-0.00904218 -0.00906429 0.0971889 
7.3813e-05 0.000236719 0.0777618 
-0.00326616 0.00188097 0.0946652 
-0.00450023 0.00189051 0.0779962 
-0.0020394 0.00432045 0.0779031 
-0.000114978 5.84554e-05 0.000371413 
-4.66214e-05 3.20809e-05 -0.000299811 
2.91329e-06 2.09485e-05 -0.0012152 
-0.00366603 -0.000205429 0.008742 
0.0149823 -0.0530374 0.308162 
0.0315471 -0.0183791 0.12545 
0.0705468 -0.00984053 0.161195 
0.0690794 0.0411416 -0.00408234 
0.00107004 0.00133939 0.000189575 
-0.00139402 -0.00156671 0.0289479 
-0.0035701 -0.00310635 0.0275223 
-0.00144289 -0.000638671 0.022275 
-0.000410572 -0.000184601 0.000607547 
0.000165929 8.20455e-05 0.00137784 
5.37818e-05 2.14963e-05 -0.000665387 
-0.00333666 0.000363614 0.0179817 
-0.00429633 -0.00740209 0.0782524 
-0.00661958 -0.0052152 0.0648354 
-0.00345642 -0.00233493 0.0831644 
-0.0074657 -0.00485193 0.094265 
0.000576692 0.000437548 0.0770982 
0.000501815 -0.000473223 0.087689 
-0.000888102 -0.000627777 0.0812333 
-0.00130661 0.00347804 0.0773464 
0.000812963 0.000692651 0.000716764 
-0.00221518 -0.00251928 0.0207769 
0.000916442 -6.09321e-05 -0.000144484 
-0.00142483 -0.000887316 0.021057 
0.0318809 0.012251 0.0333232 
0.0412708 -0.00476161 0.0936288 
0.0346589 0.00249519 0.0459985 
0.00898159 0.0183282 -0.0240639 
0.0133713 -0.00841466 0.0741644 
0.00671807 -0.00399204 0.0692422 
0.00676854 -0.00410375 0.043799 
0.00964807 -0.00318499 0.0597508 
-0.00306672 0.00555859 0.0561049 
-0.00106705 0.00169854 0.0276827 
-0.00410552 0.005158 0.0388031 
-0.0028088 0.00230312 0.0481301 
0.000789265 0.000159594 0 
0.000804696 0.000134644 0 
-0.000551374 -0.0010445 0 
-0.00700676 0.000278876 0.00298778 
-0.00550625 0.00759462 0.0207272 
-0.00185072 0.00410016 0.0204538 
0.000113873 -0.00282208 -0.0013936 
-0.00332044 0.00285789 0.0255302 
0.0310126 -0.0402392 0.219573 
0.0372195 -0.0246023 0.0973685 
0.0273226 -0.0271934 0.109177 
0.0417267 -0.0148726 0.0561043 
-0.0101211 0.0087607 0.0192283 
-0.0220596 0.025081 0.0363835 
-0.0225537 0.0190992 0.0660757 
-0.00952711 0.0130468 0.0308832 
0.000495143 0.000120673 0 
-0.00129617 0.000359048 0 
0.00116307 0.000449518 0 
-0.00240775 0.00238251 0.0021508 
-0.00095045 -0.00154744 -0.000248514 
-0.000716844 0.00124845 0.0033095 
0.000531224 -0.000626386 -1.1507e-05 
-1.15126e-05 0.00157086 0.000323211 
6.59955e-05 6.28592e-05 0.00108996 
-0.000523438 -0.000503813 8.56622e-05 
-0.000150639 -0.000144271 -0.00117265 
0.00198892 -0.000710297 0.00448245 
-0.0138077 -0.00817986 0.0455177 
-0.00830654 -0.00246755 0.0530561 
-0.00587572 0.000151018 0.0256165 
-0.00443273 -0.00526408 0.0198917 
0.00121389 -0.0020144 0 
-0.000862716 -0.00551421 0 
-0.00260688 -0.00150389 0 
0.0120773 0.00540401 0.00121599 
-0.000508563 0.000373267 0.0602376 
-0.000287811 -0.000180271 0.0487823 
0.000427011 -0.000333718 0.0669335 
0.00497405 0.00455426 0.0596403 
0.000556412 -0.000378136 3.24906e-05 
5.11774e-05 -3.51539e-05 -0.000743437 
7.13646e-06 -4.3091e-06 0.00108003 
0.00128562 0.000262041 0.00190595 
0.000194819 1.53803e-05 0.0186257 
-0.000374004 3.29836e-05 0.000116965 
-5.16632e-05 0.000110839 0.0231069 
0.000970633 -0.00143615 0.0270397 
0.0174687 -0.0109056 0.0309791 
0.0202759 -0.0104229 0.0162761 
0.0154774 -0.00248365 0.0131371 
0.0406277 -0.00859015 0.0494454 
0.000211506 -0.000107422 0.0354895 
4.08051e-05 0.000189939 0.0171522 
-0.000329978 -6.12986e-05 0.0220964 
0.000996224 -0.00160606 0.0279537 
0.000105147 -0.000644423 -0.00131187 
-0.000901553 0.00030156 0.00229482 
0.000863605 -0.001153 -0.00160519 
-0.00319891 0.00125535 0.00333556 
0.000112871 -8.34384e-05 0.0182843 
-0.000143642 1.42455e-05 8.95616e-05 
-0.00021343 -0.000107445 0.000537211 
0.000768083 -0.00099568 0.0267056 
0.00403767 -0.00133386 0 
0.00287258 -0.00335036 0 
0.00236925 0.00118221 0 
-0.0205587 0.00186985 -0.00341422 
-0.000585871 0.0195803 0 
0.0163705 -0.00953215 0 
0.00488736 -0.0162237 0 
-0.0263705 0.0723689 0.025779 
0.00100576 0.000478624 0.000197032 
5.12028e-05 1.93461e-05 0.000416525 
1.93848e-05 3.25478e-05 -0.00188458 
0.00396131 -0.000276406 0.0158568 
-0.00928501 -0.00237148 0.0777745 
-0.00399121 -0.00268649 0.0834283 
-0.00623582 -0.00496236 0.064575 
-0.00736014 -0.00478112 0.0940328 
-0.006186 -0.0045492 0.011037 
-0.0223401 -0.00817285 0.021797 
-0.0121089 0.00160128 0.00714447 
-0.0183774 -0.0106806 0.0358469 
-0.00396249 -0.00320842 0.0271485 
-0.00542123 -0.00615724 0.0432576 
-0.00241887 -0.00245042 0.0194051 
-0.000952612 -0.000775615 0.0221005 
-6.45093e-05 7.59895e-05 0.0167563 
-2.03176e-05 -0.000130781 0.000439461 
0.000111736 -0.000154795 0.000196483 
-0.000927587 0.000772577 0.0254274 
-0.00380756 0.011812 0.0825838 
-0.00486745 0.01861 0.0972218 
-0.0115094 0.0145096 0.0600765 
-0.000488426 0.012841 0.0587346 
-2.78029e-05 0.00035649 -0.000312477 
-4.75308e-05 0.000414805 0.000585594 
-0.000117383 0.00149869 -0.00128246 
0.00254755 -0.000630033 0.0170584 
-0.000356297 -0.000107968 -0.00253069 
-0.00048893 -0.000128338 0.000420735 
5.43606e-05 1.50107e-05 9.89145e-05 
-0.00317736 0.00148301 0.0239012 
-0.000620778 0.000165635 0.000623944 
-0.000464423 9.71607e-05 -0.0016414 
-0.000503964 0.000141737 0.0010794 
-0.00240218 -0.00175101 0.00450368 
0.0480984 -0.00568191 0.204121 
0.0155892 -0.034881 0.204232 
0.0261679 0.0172176 0.2776 
-0.106296 -0.0590232 0.132833 
0.000139741 -8.69428e-05 6.34554e-05 
-0.000550227 -0.000167662 -0.000188637 
-0.000160272 -0.000370733 -0.000241301 
-0.0015227 0.000355173 0.000693931 
0.00626959 -0.00457913 0.0467882 
0.0045597 -0.000813326 0.055294 
0.00426233 0.00227261 0.036229 
0.010505 -0.00167133 0.056986 
0.000718704 0.000632749 0 
0.0064024 0.00149401 0 
0.00243734 0.0050027 0 
-0.0102924 -0.0098862 0.00456458 
-0.000179489 4.2219e-06 3.94821e-06 
3.57249e-05 3.85268e-05 0.0181462 
-0.000205615 -4.76772e-05 0.0206878 
7.60501e-05 0.0011358 0.0244024 
1.90278e-05 0.000173679 0.058343 
-5.82082e-05 -0.000199201 0.0448949 
0.000238188 0.000312067 0.0382306 
-0.00378965 -0.000679223 0.0571483 
0.000140349 1.27016e-05 0.000243318 
5.73642e-05 0.00024798 0.0152703 
-4.02727e-05 6.92032e-05 0.018788 
-0.00120231 0.000716121 0.0258649 
0.0151496 -0.00286931 0.0540122 
0.0160955 -0.0110615 0.0554316 
0.00612712 -0.00525473 0.0223926 
0.00994485 -0.00192105 0.0608423 
-0.0117106 0.00841988 0.020625 
0.000137593 2.80626e-06 -0.00212602 
-0.0108275 0.00876989 0.00868229 
-0.0103041 0.0141926 0.0285643 
0.000101849 -0.000680184 0.00023339 
-0.00149712 0.00341859 0.0017271 
0.000699945 -0.00124265 -0.000524417 
-0.00287014 0.00367177 0.000287665 
-0.00475996 0.00778944 0.0131393 
0.000212999 -0.000115904 0.000241403 
-0.0129096 0.0144404 0.0258009 
-0.00327816 0.0113853 0.00679098 
-0.000217701 -1.94959e-07 0.0470241 
0.000180268 -0.000156984 0.0602622 
1.96632e-05 0.000196744 0.0645833 
0.00221748 0.00318552 0.045105 
0.000223207 -0.000116772 0.0204178 
-0.00022146 0.000167649 0.0396672 
-3.97569e-05 0.000108651 0.0209584 
-0.000719733 0.00140908 0.0290779 
-0.00122047 -0.00141067 0.0861713 
0.00332952 0.00438927 0.0836714 
9.51496e-05 0.000242875 0.0759686 
0.00346922 0.00282073 0.078327 
-0.000150985 0.000144989 0.000532102 
8.47004e-05 -8.11542e-05 -0.000602353 
-0.000222662 0.000214378 -0.000143078 
0.000791373 0.000346349 0.0233694 
-0.000250279 3.87173e-05 -0.00221569 
-0.00134833 -0.00282541 -0.00325634 
0.0094633 0.0127378 0.00927927 
0.000213546 0.00429867 0.00696144 
-0.002399 -0.02253 0.0469614 
-0.00025283 -0.0385633 0.0533901 
0.0145417 -0.0113403 0.0276707 
-0.00116135 -0.000110918 -0.00205793 
0.00313488 0.00773817 -0.00910878 
0.00332815 0.000767782 -0.0176558 
-0.0134532 0.0201505 0.0350211 
-0.0248932 0.0509336 0.0597613 
-0.00899843 -0.0217718 0.0174943 
0.00179017 0.0010062 -0.00135593 
-0.013759 -0.0224961 0.0249509 
-0.013537 -0.0165645 0.0357461 
-2.78943e-05 -0.000777856 0.00056655 
-0.000507405 -0.000676504 -0.000148151 
-0.00104478 0.00157028 0.0270146 
-0.00280045 0.0025909 0.0248697 
0.000643178 -0.00201881 -0.000900031 
0.00116108 -0.00152296 -0.00057022 
-0.00710708 0.00545075 0.0153821 
-0.00691599 0.00474 0.0064976 
-0.000489733 -0.00047073 -0.000455705 
7.47896e-05 6.95317e-05 0.000542386 
-0.000374779 -0.000353799 -0.00164086 
-0.000997489 0.00235974 0.0139277 
-0.00274312 0.0146218 -0.0225439 
-0.0203872 -0.0163149 0.0107666 
-0.0214896 -0.0128632 0.0270312 
-0.0447199 -0.0206202 0.100903 
0.000359922 -0.000727752 -0.000747734 
-0.00476501 0.00287619 0.0128818 
0.00138527 -0.00121799 0.000142699 
-0.00389292 0.0017896 0.00464911 
-0.0104735 -0.00216998 0.0788754 
-0.00251253 0.00170882 0.0952627 
-0.00311891 -0.00275889 0.0820377 
-0.0078301 -0.00487788 0.0958295 
0.0010473 -0.000817538 0.00119861 
-0.000928409 0.00345069 0.0192208 
-0.000142478 -0.00129868 -0.000659352 
-0.000388963 0.00447124 0.013365 
-0.00166803 -0.000778265 -0.00102774 
0.00248086 0.00214751 0.00312408 
-0.00117055 -0.000323183 -0.00023379 
0.000266923 0.0025057 0.00166395 
-0.000376649 -1.03678e-05 0.00147303 
-0.00582111 0.00285168 0.00407222 
0.000255927 -0.0020627 -0.00304379 
-0.00364503 0.00507496 0.00499698 
-0.00598957 -0.0331492 0.018612 
-0.0203397 -0.0276991 0.0873087 
-0.016642 -0.00955377 0.0387897 
-0.0189772 -0.0232263 0.0800506 
-0.0381035 -0.00669579 0.170676 
-0.0130092 -0.000797982 0.129459 
-0.0235526 0.0367317 0.131784 
-0.0202775 -0.00437137 0.108195 
0.000298281 -0.000297829 0.000945979 
8.47396e-05 -9.8959e-05 -0.0014633 
0.000861332 -0.00088127 0.000167132 
-0.0018154 -0.000369735 0.0200441 
0.000171551 -3.18056e-05 0.000178622 
3.94062e-06 0.000367476 0.0194978 
6.27861e-05 6.44413e-06 0.0179505 
-0.000997032 0.000313108 0.0231756 
0.00042298 -0.000777618 -0.000422747 
-0.00580159 0.00645039 0.0201209 
0.000306434 -0.00134442 -0.00389192 
-0.00248135 0.00349235 0.0198879 
-0.0306508 -0.0159925 0.0612272 
-0.0225821 0.00770316 -0.0100094 
-0.0218517 -0.008586 0.0336635 
-0.0154829 -0.012393 0.0428325 
0.000296822 -0.000445558 0 
0.00152347 0.00150911 0 
0.00213271 4.0731e-05 0 
-0.00256789 0.000739852 0.000785887 
-5.0073e-05 -0.00010167 0.0180067 
0.00122945 0.00147964 0.0265536 
-3.17338e-05 -0.000370327 0.000302072 
0.000707298 0.000793348 0.0218198 
0.0333536 0.000663504 0.0680926 
0.0587156 -0.0279807 0.00984376 
0.0187927 0.0268898 0.108519 
0.04333 -0.00422025 0.162074 
-0.028687 -0.00207359 0.141112 
-0.0237187 -0.00829509 0.0735738 
-0.00385707 -0.00188299 0.17349 
-0.0251961 -0.0816636 0.0493755 
0.0314451 0.0327698 0.0724921 
0.0341214 0.0121284 0.152515 
0.0245572 0.0204149 0.10426 
0.045426 0.0490416 0.131722 
-0.00288476 0.008326 0.00936452 
-0.0118065 0.0218984 0.0316565 
-0.00409874 0.0105313 0.0124073 
-0.00169216 0.0103303 0.00535387 
4.33409e-06 4.88366e-05 0.0185505 
-1.99904e-05 -0.00012497 0.01949 
9.08304e-05 0.00025311 0.0330338 
0.00123134 0.00074949 0.0249142 
0.00512127 0.0045007 0.0609885 
0.00462062 0.00268599 0.0516766 
0.000307629 -0.000105892 0.0655057 
0.00458693 0.00243341 0.0779139 
-0.00016681 0.000121883 -0.000676782 
0.000371497 -0.00027079 9.61499e-05 
2.03225e-05 -1.55141e-05 0.00152279 
-0.00242683 -0.000415852 0.0114581 
-0.00816073 -0.00315042 0.0089544 
-0.0100968 -0.00696148 0.0217202 
-0.00291334 -0.000138319 0.000643306 
-0.00448607 -0.00258409 0.0127918 
0.00387117 -0.0122062 0.0147206 
0.0202921 -0.0209187 0.0559151 
0.0153242 -0.0289328 0.0432147 
0.000867397 -0.0184057 0.00913666 
-0.000496144 0.00149203 0.0757535 
0.000240048 -0.00045511 0.0718352 
-0.00431043 -0.00340003 0.0657374 
-0.00399216 -0.00276799 0.0818243 
-0.00586378 -0.005329 0.0434206 
-0.00117605 -0.00116629 0.0246546 
-0.00288477 -0.00251909 0.0312126 
-0.00236677 -0.00340602 0.0204058 
0.00015945 0.000572566 0.0675164 
-6.65397e-05 -0.000467121 0.0593911 
-0.00560295 0.00164082 0.0596615 
-0.00478916 0.00183317 0.07713 
-0.000340964 0.000413322 0.0679494 
0.000348134 -0.000477202 0.0750566 
-0.000162107 -0.000624867 0.0593051 
-0.00433603 0.00208929 0.0768862 
0.00220081 0.00115886 -0.0063444 
-0.00725758 -0.00233291 0.010256 
0.000703188 9.13707e-05 -0.00174892 
-0.00507001 -0.00428755 0.0122311 
-7.65395e-05 -0.00020062 0.0214464 
5.88777e-05 3.66978e-05 0.0343841 
8.02756e-05 -2.13114e-06 0.0167292 
0.0010451 0.000652097 0.0253388 
-0.00174957 -0.00337425 0.00240304 
-0.00246577 -0.000329872 0.00228912 
-0.0102353 -0.00797829 0.020439 
-0.00384124 -0.00317163 0.0113029 
-0.0125186 -0.0111886 0.0257074 
0.00456502 -0.00312292 0.00302845 
-0.0173069 -0.0124958 0.0188601 
-0.00838087 -0.00205012 0.00479642 
-0.013924 0.0236495 0.0253351 
-0.00856024 0.00563176 0.00460693 
0.00550052 -0.0061798 -0.0103133 
-0.00028555 0.0103426 0.00472862 
1.08412e-05 -3.60572e-05 0.000374317 
1.55802e-05 -3.0377e-05 -0.000314558 
3.98861e-05 -8.51129e-05 -0.000513197 
0.000292952 0.000878253 0.0242024 
0.000889191 0.000353552 -0.000563567 
-0.000144353 1.80986e-05 0.000358827 
0.000864572 0.000685623 -0.000629745 
-0.00101692 0.00463932 0.0028832 
0.101084 -0.0186325 0.149767 
-0.0178589 0.0514177 0.254814 
-0.0192865 0.0310203 0.340155 
0.0829942 0.0394949 0.0308864 
-0.00204297 -0.000355571 0 
-0.00156314 -0.000184541 0 
0.00113953 8.69939e-05 0 
0.00975225 4.43379e-05 0.00149299 
0.0138121 -0.00918116 0.0772872 
0.00588215 -0.00364448 0.0680948 
0.00803074 -0.00861139 0.0803733 
0.00929548 -0.00926656 0.0547231 
-0.000282913 0.000288132 -0.000113677 
0.000187966 -0.00019098 -0.000694484 
-0.00017794 0.000180812 0.000625239 
-0.000334869 -0.000668667 0.0218803 
0.00920516 0.00365881 -0.00407912 
-0.0184815 -0.00969644 0.0133725 
-0.00469601 -0.00344327 -0.00159025 
-0.00923426 -0.000768435 0.0117705 
-0.00136851 -0.0015777 0 
-6.26911e-05 0.0016725 0 
-0.000665525 -0.000285222 0 
0.00332945 0.00764412 0.00142134 
-0.0128986 0.0118562 0.0212672 
-0.0188745 0.0180532 0.0660471 
-0.0145176 0.0137423 0.0598014 
-0.00930474 0.00978075 0.0394785 
-0.0217556 0.0010009 0.281392 
-0.00834317 0.0331437 0.223159 
-0.00030555 0.00454243 0.233142 
0.00177723 -0.0310249 0.250307 
-0.00038782 0.000834228 -0.000792924 
0.000688097 -0.00109714 0.00354729 
0.000371355 -0.000182551 0.000757863 
0.000232952 -0.00195266 0.00232873 
-0.0166315 -0.0293769 0.238788 
0.0262562 -0.00423621 0.196503 
-0.0202451 -0.0314306 0.212777 
0.0700657 0.0700795 0.105708 
0.00322034 -0.00318373 -0.0054735 
0.00298645 -0.00387544 -0.000531018 
-0.0170598 0.00350298 0.00962967 
-0.00500888 0.00861643 0.00469822 
-0.00228892 -0.0264689 0 
-0.0104694 -0.00611557 0 
0.00575892 0.0184732 0 
-0.0295301 -0.0447917 0.0529094 
0.000103078 3.41217e-05 -7.23472e-05 
0.000137837 -0.000299315 -3.1476e-05 
-0.000239769 -0.000398962 3.36051e-05 
0.000590169 3.92274e-05 6.9764e-06 
0.000134366 -5.05242e-05 -0.00235651 
-0.000379942 0.000169845 0.000776939 
0.000795782 -0.00036278 -9.07125e-05 
0.00373633 0.00120085 0.0163394 
-0.00355648 -0.0193885 0.0396098 
-0.00869744 -0.00396872 0.0069366 
-0.00551945 -0.0242692 0.0361506 
0.00220292 -0.00924191 0.0117651 
0.000244191 -0.000117152 0.0319007 
3.68212e-05 0.00051123 0.0468739 
-0.000158406 -0.000111468 0.0270583 
0.00115023 0.00175884 0.026983 
0.00415321 -0.000146874 0 
0.00260378 -0.00184127 0 
0.000519271 -0.00173816 0 
-0.0182141 -0.00570006 0.00325584 
0.0181189 -0.0154699 0.0143241 
-0.00513459 0.00117846 -0.0128994 
0.0134385 -0.00240467 0.0125902 
0.0533114 -0.00831956 0.0530516 
-0.000279165 -0.000309286 0.000896453 
0.000131641 0.000152898 -0.00125979 
0.00211199 0.00193747 0.0279027 
0.000847542 0.000569892 0.0215616 
0.000447425 -0.00189583 -0.00178571 
-0.00547443 0.00199887 0.00490821 
-0.00792703 0.00712863 0.0168109 
-0.00368528 0.000202252 0.00491293 
-0.000593815 -0.00185786 -0.00295285 
-0.0045747 0.00319191 0.0038973 
0.00180353 -0.00481019 -0.00385534 
-0.00491513 0.00643926 0.00506433 
0.0175293 -0.0110753 0.0165033 
0.0156631 -0.00300402 -0.00391329 
0.0623878 -0.0283574 0.129505 
0.0358242 0.00486833 0.06524 
-5.34789e-05 -0.000221361 0.000557846 
-0.000150224 -0.000514763 0.000337351 
-0.000118833 -0.000365616 -0.000210811 
0.000880066 -0.00206326 0.0228098 
-0.00175224 0.000212086 -0.00272398 
0.00599381 0.00622157 0.00724273 
-0.00264764 0.00404396 -0.00146759 
0.00819195 0.0088716 0.00692973 
0.000319388 6.11449e-05 -0.000251744 
0.000242822 -0.000372205 -0.000298123 
-0.000307303 -0.000250467 -0.000238968 
-0.000396051 -7.2971e-05 0.000802409 
0.00481601 0.00584394 -0.00901752 
0.0103876 -0.0572671 0.0396269 
0.000542448 0.00491224 -0.00262331 
0.000755057 -0.0158874 0.00393673 
-0.0337238 -0.0527916 0.103478 
-0.0167465 0.00226765 0.0903291 
-0.0381263 -0.00994251 -0.00772654 
-0.0159653 -0.0307495 0.120928 
-0.0136456 -0.00195196 0.122481 
0.00629253 -0.00116459 0.158863 
-0.00414749 -0.005808 0.212165 
-0.0515505 -0.0873622 0.099735 
3.64737e-05 5.6502e-05 0.000306175 
0.000369115 0.00012087 0.000361355 
-4.64074e-05 0.000110332 0.0150935 
-0.00115468 0.000658471 0.0257865 
0.0231728 0.0196554 0.0484594 
0.0161748 0.0365258 0.0410132 
0.00585849 0.0138741 0.0226625 
0.00523976 0.000306387 0.00098999 
-3.88157e-05 -0.000393068 0.000300526 
-4.22773e-06 -4.28123e-05 0.00118021 
2.08573e-05 0.000211212 -7.93292e-05 
0.00182181 0.00013336 0.017743 
0.000866155 -0.000156939 -4.44214e-05 
-0.00271272 -0.000655803 0.0114665 
0.000624902 0.000683041 -0.000743356 
-0.0031457 -5.03369e-05 0.0106951 
0.00105822 0.000108591 -0.00102198 
9.19032e-05 0.000670357 0.000357239 
-0.000737107 -0.000710867 0.000606147 
-0.00234602 0.00596384 0.00206376 
0.000143871 -0.000100961 0.000430497 
0.000156661 -0.00011024 -0.000149257 
-7.59201e-05 5.30945e-05 -0.000597735 
0.000631647 0.000461476 0.0214222 
-0.000520735 -0.000191951 0 
-0.000154238 -0.000196331 0 
-0.000248956 2.43925e-06 0 
0.0010309 0.00113728 0.000728995 
0.000522252 -0.000413551 0.066354 
-0.000537738 0.000423291 0.0603548 
0.00486237 0.00468475 0.0602328 
0.00430156 0.00272826 0.0769493 
0.000306566 -0.00197552 0 
0.00197096 -0.00188351 0 
-0.000364123 1.50148e-05 0 
-0.00249689 0.00901191 -7.37083e-05 
-0.00268393 -0.00362238 0.050015 
-0.00149142 -0.0014349 0.0290806 
-3.60845e-05 -2.40452e-05 0.0398928 
-0.00157027 -0.00124741 0.0221665 
-0.0027717 -0.0166237 0.0622062 
-0.00971953 -0.00651794 0.0309133 
0.00245461 -0.00828203 0.0358412 
-0.00794087 -0.00714178 0.0492018 
-0.0216595 -0.0194951 0.12206 
0.00124575 -0.0165409 0.104065 
-0.0119448 -0.00504572 0.132739 
-0.0079039 -0.00701163 0.0927392 
-0.000624678 -0.00101976 0 
0.000305651 0.000113522 0 
0.000224905 0.00013087 0 
0.00111514 -0.00291709 0.00168869 
-2.80709e-05 0.000143687 0.0211486 
-0.000291584 -9.8505e-05 0.00035805 
6.89485e-05 -0.000274915 0.000249573 
-0.000864447 0.00102163 0.0282602 
-0.00362868 -0.00733942 0.0145627 
-0.00327792 -0.00409715 0.00283518 
-0.00981338 -0.00806475 0.0208064 
-0.00238353 -0.00219117 0.0103956 
-0.000228959 0.000533752 0.0757802 
0.000582 -0.000176102 0.0725866 
-1.25564e-05 5.18044e-05 0.0606622 
-0.00469453 -0.00298871 0.0652387 
-0.00926776 0.00644831 0.0214445 
-0.000771677 0.00398715 0.0188413 
-0.00159136 0.0184588 0.0510821 
-0.000993226 0.0057627 0.0134363 
-0.00440103 0.0348738 0.0260471 
-0.00957421 0.0306351 0.0417657 
-0.0312102 0.0302923 0.11816 
-0.0187504 0.0203204 0.0593986 
-0.00155457 -0.00115117 0 
-0.000765489 -6.68654e-05 0 
0.00227707 -0.000953843 0 
0.00831741 0.0109368 0.00259065 
0.000173184 4.52642e-05 0.000129785 
-0.00019129 -5.79889e-05 -0.000787062 
-0.000271466 -6.62426e-05 0.000175818 
-0.00115687 0.000608807 0.0282199 
-0.00149713 -0.00532279 0 
-0.00478609 -0.00287154 0 
0.000446853 0.0041192 0 
0.014745 0.0277198 0.00669821 
-0.000818603 -0.000290057 0.0686073 
-0.00166084 0.00523957 0.0563248 
0.000524777 3.59488e-05 0.0613611 
-0.00210531 0.00430773 0.076873 
-0.0250457 0.0273455 0.145224 
-0.0166664 -0.00402555 0.127513 
-0.00433626 0.00164914 0.210401 
0.0114998 0.0216255 0.153434 
-0.00011236 4.96596e-05 0.0661664 
-0.000105889 2.99663e-06 0.0505018 
4.5964e-05 -0.000515001 0.0659291 
0.00437978 0.00160504 0.0526537 
-7.73293e-05 -0.000203225 0.0398394 
-0.00181584 0.00151145 0.0250869 
3.60877e-05 4.92681e-05 0.035608 
-0.00236081 0.00243913 0.0470058 
-0.0225659 0.00740383 0.0395751 
-0.0347526 0.00867835 0.0703441 
0.002087 0.0449354 0.0522711 
-0.0517791 -0.0063974 0.139023 
0.00356177 -0.000930486 0 
-0.0047325 0.00170033 0 
-0.00278506 0.00363517 0 
0.0239347 -0.0103623 0.00700117 
-0.00045363 0.000449908 0 
-0.000282783 0.000737551 0 
-0.000736954 0.000175821 0 
0.00140585 -0.00156644 0.00105373 
-1.25722e-05 -0.00021418 0 
0.000164636 0.000996198 0 
0.000248767 -0.00100588 0 
0.00240747 0.0020767 0.00139413 
-6.82988e-05 5.60288e-06 1.98191e-05 
-0.000230054 1.88724e-05 0.000318172 
0.000108811 -8.92624e-06 -0.000385855 
0.000478854 0.000631973 0.0238542 
-0.000494198 0.000354928 -0.000610945 
-0.000720177 0.000499176 4.18063e-05 
0.0011863 -0.00183932 0.0018899 
-0.000171208 -0.00246783 0.00098178 
-0.00469402 0.0199298 0.0118811 
-0.0279954 0.00663832 0.0410321 
-0.0214775 0.00443709 0.0423084 
-0.0105799 -0.00293697 0.00692155 
0.000869904 -0.00299089 -0.000717716 
0.000166578 0.00176862 0.00199768 
0.000388614 0.00083215 0.000311058 
0.000955371 0.00554433 0.00157042 
-0.000262477 7.80145e-06 0.0310721 
4.46883e-05 -0.00030913 0.043008 
-3.47448e-05 7.87104e-05 0.0219071 
0.000540728 -0.00157568 0.0275116 
-0.000524724 -0.000207085 0 
0.000762741 -0.000268044 0 
-0.000309503 -0.00057626 0 
0.00137199 -0.00117824 0.00074613 
0.00338503 -0.00342085 0.0319703 
0.000469634 -0.00122122 0.0261131 
0.00628641 -0.00490837 0.044914 
0.00338716 -0.0025749 0.0466388 
0.000327589 6.68463e-05 0.000789272 
0.000555752 0.000199776 -0.0024573 
-0.000524861 -0.00016552 0.00130315 
-0.00612202 0.00130794 0.0035742 
-0.00102337 -0.00105817 -0.0015707 
0.00242084 0.00213415 0.00419357 
-0.000890635 -0.000784376 -0.00147427 
0.00211272 0.000816208 0.00227427 
-0.000199605 -0.000136717 0.000782149 
-0.000349608 -0.000240777 -0.00141473 
-0.000857903 -0.000589084 0.000246022 
-0.00118942 0.00107869 0.0159098 
-0.000548887 -0.000388372 -0.00045338 
-1.91963e-06 -2.22844e-05 -0.00156493 
2.62412e-05 2.57653e-05 0.000559411 
0.00384777 6.19605e-05 0.0154932 
-0.000649694 -0.00129362 -0.00219972 
0.00544728 0.00364368 0.00545794 
-6.51208e-05 -0.0029283 -0.00204272 
0.00373645 0.00158197 0.00446484 
-4.00156e-05 -1.41738e-05 0.000402069 
-5.42073e-05 -4.69602e-05 -0.00170295 
-0.000711719 -0.000340557 -1.12935e-05 
-0.00331465 0.000671279 0.0152337 
0.00925165 -0.0012991 0.121419 
0.0326013 0.00842723 0.142092 
0.0178829 0.00438394 0.10036 
0.0127516 -0.0242645 0.104607 
0.00621654 -0.00278423 0.0686508 
0.00439646 0.000101789 0.0564899 
0.00623671 -0.00502808 0.0447608 
0.0109385 -0.00273409 0.0587083 
0.000115821 -9.88913e-05 -9.9908e-05 
0.000146868 -7.31638e-05 0 
-0.000303248 8.28904e-05 0 
0.00045494 -0.000177559 0 
-7.77059e-05 -0.000260712 0 
6.7696e-05 0.000237565 0 
-1.11231e-05 -0.000230562 0 
-9.09382e-05 -0.000127586 -0.00028948 
-5.47742e-05 -0.00031826 0 
0.000149078 0.000409672 0 
7.43654e-05 0.000199907 -4.4771e-05 
1.98544e-05 5.77843e-05 0 
-0.0011605 0.000112719 -0.00436716 
0.00401259 -0.00426649 0.0252555 
-0.00168043 0.000690631 -0.000732732 
0.00651549 -0.00314965 0.0213298 
0.00316931 0.00287416 0.0284188 
0.001365 0.000829809 0.0239166 
-0.00126935 -0.00134516 0.000137311 
0.00073055 0.000835569 0.0221464 
0.00208949 -0.000530561 -0.000229364 
0.00187287 -0.000841154 -0.00064397 
-0.0013285 0.00109382 0.00203731 
-0.000612551 0.00264279 0.00159641 
0.000161447 3.62046e-05 0.000140504 
7.60378e-05 1.89182e-05 -0.000120472 
0.000379143 8.31756e-05 0.000514711 
-0.00142998 0.000505318 0.028457 
8.63198e-05 -0.000149213 0.0184256 
-9.58968e-05 -1.56049e-06 0.0223401 
-0.000219437 6.03707e-05 0.00040897 
0.00121845 -0.000997261 0.0272942 
-0.000834924 0.000768507 0 
-0.000351627 0.000296353 0 
8.40392e-05 -0.000432189 0 
0.00377894 0.000662057 0.00154 
0.000248563 0.000184061 0.0443802 
7.7462e-05 0.000373943 0.0383088 
0.00328028 -0.00430831 0.053996 
0.00286681 -0.00320546 0.0472176 
0.000215216 -0.00128132 -0.00136854 
0.000410699 -0.00136015 -0.00185247 
-0.00309686 0.000614532 0.00253308 
-0.00293433 0.00117573 0.00364515 
-0.000122017 0.000536259 -0.000606502 
0.000365275 -0.00222663 0.00199196 
0.000406626 0.0013956 -0.00023493 
-0.000487216 -0.00256933 0.00143988 
-0.000337556 0.000696308 -0.000219344 
-0.00251673 -0.00224256 0.0255216 
0.00042132 0.000801667 0.000782307 
-0.00095009 -0.00104248 0.0210551 
0.000128065 -0.000182808 0.0552369 
0.000932253 9.72312e-06 0.0626588 
-0.00355467 -0.00404984 0.0512466 
-0.00476693 -0.00441854 0.066255 
0.0075847 -0.00100742 0.107336 
0.0367009 0.00626013 0.151303 
0.01181 -0.00403146 0.20891 
0.00729394 0.0230551 0.151265 
-2.44332e-05 0.00139149 0 
1.8146e-05 -0.00424706 0 
0.00152993 -0.00175001 0 
0.00303791 0.0175449 0.00351929 
-0.00570084 -0.00739542 0.0157226 
0.00150085 -0.00347778 -0.00267604 
-0.00832387 -0.0161202 0.0197374 
-0.0152353 -0.0166578 0.0325556 
0.00661778 -0.00422112 0.0445704 
0.00589958 -0.00386406 0.0693457 
0.0137169 -0.00847335 0.0741456 
0.00895526 -0.00829421 0.0551906 
0.00015879 0.000541235 0 
0.000714922 0.000483495 0 
0.00111872 0.000244394 0 
-0.000552565 -0.000719801 0.000902535 
-0.000821618 0.00189982 0 
0.000412528 0.00150964 0 
0.000605373 0.000789351 0 
0.00385425 -0.003042 0.00232343 
-7.84388e-05 4.20204e-05 0.00115476 
0.000386308 -0.000187012 -0.00168617 
-0.000180579 8.05402e-05 -0.000592161 
0.00254331 0.00173516 0.0228277 
-0.000893814 0.00096507 -0.000213366 
0.00461988 -0.00389212 0.0209856 
0.000156 0.000928949 -0.00289202 
0.00253429 -0.00434197 0.0124713 
0.000234441 0.000194322 0.065328 
0.000209223 -4.78455e-05 0.0768956 
-0.000541354 0.00023553 0.0781281 
0.00195126 0.00436889 0.0800983 
-0.000185006 0.000729193 0.00122104 
-6.71355e-05 0.00026021 0.000185309 
-5.19562e-05 0.000196237 -0.000157627 
-0.000710798 -0.00403645 0.0203088 
7.91031e-06 -0.000139834 8.19719e-05 
0.000103041 -0.000117129 0.000426406 
-6.58311e-05 0.000181463 0.0209643 
-0.000797074 0.000996933 0.0286642 
-0.000437994 0.000125519 0 
0.00100832 0.000127701 0 
-0.00118112 0.000397815 0 
-0.00193182 -0.0027521 0.00343322 
3.54914e-05 2.64641e-05 -0.000248597 
0.000212258 0.000135847 0.000620202 
0.000245866 0.000163622 0.000129672 
-0.00134717 3.26499e-05 0.0255084 
-0.0143109 -0.0208639 0.0284115 
-0.00274294 -0.00277086 -0.00271793 
-0.0121588 -0.00683742 0.0221679 
-0.0116857 -0.0170579 0.0327732 
0.000392259 0.00064601 -0.00107881 
0.000180513 0.000305775 -0.000242472 
-0.0001593 -0.000270299 0.000200331 
-0.00069296 -0.00295 0.00218583 
-0.0197651 -0.0286422 0.167369 
0.0146624 0.0167236 0.268337 
0.00193275 -0.0069088 0.179287 
-0.066646 0.0687798 0.169317 
0.00484756 -0.00388191 0.191569 
-0.0171358 -0.000850528 0.1311 
0.012144 5.6662e-05 0.118902 
0.00874906 0.0175829 0.153903 
5.37333e-05 -0.00220884 0 
-0.00144757 -0.00230434 0 
-0.00221993 -0.00152674 0 
0.0118993 0.0128819 0.00224259 
1.71256e-05 8.81356e-05 0.0192148 
6.19325e-06 2.54797e-05 0.000220429 
0.000232593 -1.47683e-05 0.000147078 
-0.00092119 0.000538047 0.0234121 
0.00139755 -0.00144827 -0.00381353 
0.0103999 0.0138252 0.0105148 
-0.00195835 -0.00262137 -0.00395993 
0.0147521 0.00733472 0.01129 
-6.67604e-05 1.93974e-05 0.00056275 
-0.000350405 0.000247589 -0.000278105 
0.000604643 -0.000387858 -0.000392919 
-0.00184047 0.000767578 0.00169419 
0.000115342 0.000106484 -7.72315e-05 
7.49072e-05 -9.04527e-05 0.000118682 
-9.72697e-05 2.97402e-06 0.0214505 
-6.17155e-05 -7.99845e-07 0.0194304 
0.000434765 -4.16116e-05 0 
0.000678085 -1.54923e-05 0 
-0.000414065 -0.000103887 0 
-0.000723768 0.00046117 0.000126101 
0.000281612 0.000280219 0.000204044 
0.000696659 0.00229423 0.004521 
-0.000390146 -0.00064207 -0.00188636 
-0.000266895 0.00212051 0.00259296 
0.00303204 -0.00284749 0.0311959 
0.00364221 -0.00558598 0.0541022 
0.00453251 -0.00515985 0.0384096 
0.000994609 -0.000380193 0.0232692 
-0.0111458 0.0102228 0.0186435 
-0.0198577 0.0199084 0.0659883 
-0.0102208 0.010071 0.041768 
-0.0118329 0.0120497 0.0310645 
-1.4462e-05 -2.12152e-05 0.0177193 
-7.51544e-05 -2.04423e-05 0.000210329 
0.000206611 0.000229908 0.00030621 
-0.000837341 -0.000760319 0.0225096 
0.000614307 -0.000140945 0.00307463 
-0.00476534 0.00133276 0.00521553 
0.000638556 -0.000133972 -0.00169547 
-0.00392987 0.00272297 0.0116675 
-0.0389665 0.00473326 0.243003 
-0.0438477 0.0148759 0.125373 
0.0346548 0.00132118 0.397808 
-0.106727 -0.0701454 0.0763144 
0.000887837 -0.00187837 -0.00318894 
-0.00113175 0.001208 0.00245381 
0.000224968 0.00207904 0.00122894 
0.000402283 0.00454603 0.00458481 
-0.000298286 -8.38896e-05 0 
0.000120983 0.000180499 0 
-7.79134e-05 3.35727e-05 0 
0.000998479 -7.0827e-05 0.000799958 
0.00155704 0.00153795 0.0266143 
0.000962853 0.000955983 0.0218198 
-8.36753e-05 -8.46135e-06 0.0323247 
0.00219808 0.00277142 0.0436394 
0.00242738 -0.00460108 0.0865365 
-0.00305399 -0.00257145 0.0828346 
-0.00297364 0.000907431 0.0944859 
-0.00769454 -0.00472569 0.0952894 
-0.000466281 0.000240736 0.0493787 
3.38431e-05 -0.000620261 0.0380521 
2.99603e-05 0.000177566 0.0314233 
-0.00183727 0.00134809 0.0261924 
0.000501659 0.000149459 0 
0.00023099 0.000207041 0 
0.000377261 0.000415626 0 
0.000410079 -5.17732e-05 4.73823e-06 
0.000723342 0.00071866 0.00037616 
-0.00428432 0.000396769 0.0222233 
0.00176503 -0.00161793 -0.00114149 
-0.00465751 0.00297528 0.0154994 
0.00021597 0.000498016 0.0379108 
-0.000428236 -0.00015592 0.0449541 
-2.41388e-05 -0.000282999 0.0235638 
-0.00106736 0.000194844 0.023721 
0.000186096 -0.000177648 -0.000314348 
0.000209751 -0.000207837 -0.000104217 
-0.000202058 0.00019578 0.000246164 
-0.00096426 0.000294093 0.00147295 
0.000111106 5.99285e-05 0.0227575 
-0.000100978 -0.000114939 0.0176225 
0.000219765 9.93589e-05 0.000224349 
-0.00103582 -0.00097333 0.0254872 
0.000290084 0.00233722 0.269006 
-0.0188264 -0.0125243 0.17314 
-0.00383985 -0.00868365 0.222671 
-0.0226557 -0.0655484 0.119038 
-0.0107426 -0.00240214 0.0767355 
-0.00894024 -0.00285774 0.0531214 
-0.00470344 -0.00429621 0.0657573 
-0.00417559 -0.00108529 0.0571831 
-0.000379096 -0.000428597 0 
-0.000184751 -0.000912791 0 
-0.000248978 -0.000183786 0 
-0.0015701 0.00269279 0.000353931 
0.000554565 -0.000356398 0.0372372 
0.00010103 0.00048656 0.0501106 
-0.00021746 -0.000158602 0.0589115 
-0.00513909 0.00158241 0.0586031 
-9.9399e-05 4.16421e-05 0.0225902 
7.49981e-05 -2.72467e-05 0.0431778 
0.0001878 0.00016797 0.0373487 
0.00176892 -0.000398902 0.0279345 
-0.0128739 0.0319894 0.268852 
0.0557567 0.012064 0.250823 
0.00363822 -0.0206751 0.266038 
-0.071099 -0.0397179 0.214579 
-0.000119742 -0.00040982 -0.000897058 
-0.000138806 -0.000468701 -0.00118664 
0.0001247 0.000440022 0.000629017 
0.00199186 -0.00377722 0.0222487 
-0.00288904 0.00162233 0 
0.00482402 -0.00433406 0 
0.00197979 -0.0159379 0 
0.00220309 0.0510892 0.00898991 
-0.00062993 -0.00055029 0 
0.000448002 0.00126377 0 
0.000236573 -0.00135625 0 
0.00190147 0.00565177 0.001593 
-1.34618e-05 9.07926e-05 0.00054906 
-0.000154179 0.000273142 -4.9894e-07 
-2.9866e-05 -0.000303159 0.0185306 
-0.000842674 -0.000754339 0.0291933 
-0.00398136 -0.00483638 0 
-0.0164257 -0.00342804 0 
0.00332635 0.00578636 0 
0.0455273 0.000951434 0.00769174 
-0.000127641 -0.000119458 0.0506889 
0.00428786 0.000593068 0.0556946 
-0.000230831 -9.62732e-05 0.064612 
0.00444479 0.0011423 0.0536447 
0.000347046 -0.000153568 0.0645448 
0.00191554 0.00550463 0.0820926 
-0.000654758 -0.000296271 0.0774149 
0.00113954 0.00487124 0.0656042 
8.93898e-05 -0.000464613 0.0555488 
0.000118287 0.00026733 0.0431918 
-8.78669e-05 0.000262863 0.06096 
-0.00431551 -0.00326825 0.0644733 
-0.000165722 0.000378462 0 
-1.71304e-05 -0.000252509 0 
3.62613e-05 0.000305828 0 
-0.000872048 -0.00227712 0.0010882 
-0.0130382 0.00630469 0.0884365 
-0.028514 0.0268622 0.136486 
-0.0108013 -0.00060235 0.130183 
-0.0212911 -0.00190307 0.106145 
0.000148882 -0.000267755 0.0557661 
0.00575566 -0.00322486 0.0678749 
-0.000354558 0.000764982 0.065103 
0.00394798 -0.000638588 0.0558758 
-1.07335e-05 5.05959e-05 0.020815 
5.8521e-05 5.72837e-05 8.82854e-05 
-0.000136412 0.000149259 0.0179414 
-0.000953884 -0.00101537 0.02253 
0.000148107 0.000238868 0.000422923 
0.00038788 -0.000727062 -0.00037704 
-0.000552992 0.000142481 5.07459e-05 
-0.00182016 -0.00203704 -0.000284879 
-0.00032901 -0.000223633 5.83547e-05 
2.67728e-05 1.80389e-05 0.000312668 
-3.8572e-05 -2.56502e-05 -0.00112662 
-0.000946297 0.000561435 0.0250903 
0.000376974 9.70883e-06 0.0276027 
-0.000108235 -4.49347e-05 0.0180242 
-3.31363e-05 -0.000103943 0.00027241 
0.000243385 0.00127679 0.0242146 
-0.0158546 -0.0331142 0.113004 
-0.014813 -0.000429403 0.134266 
-0.0365175 -0.00765189 0.159841 
-0.0237148 -0.00494785 0.103984 
1.54516e-05 -1.26462e-05 -0.00147066 
-1.09574e-07 5.98409e-05 0.00120656 
-0.000120794 -0.000440383 0.000701977 
0.00110187 -0.00408804 0.00658132 
-0.0189182 0.00806969 0 
-0.018185 0.0119285 0 
0.00370588 -0.0206663 0 
0.0477598 -0.0588567 0.0458409 
0.00709622 -0.00200448 0 
-0.00701183 0.00202923 0 
0.00130297 0.00973868 0 
0.0269843 -0.010207 0.00533507 
0.0275933 0.00477751 0.153058 
0.00916857 0.0227435 0.0625616 
-0.000655148 -0.0103551 0.206343 
0.030674 0.059809 -0.0602602 
-0.000833397 -0.00252322 -0.00805584 
0.0153456 -0.00680778 0.0175189 
0.00686885 -0.00482871 0.0140934 
0.0091604 -0.00213055 0.0111955 
0.00364971 -0.0043186 0.0309269 
0.00578923 -0.00435442 0.0463743 
0.00825256 -0.00765451 0.0533014 
0.00325404 -0.0030215 0.0467672 
3.10747e-05 -9.19942e-05 -0.00066877 
-5.56139e-05 0.000143809 0.000562821 
7.15337e-06 -1.89217e-05 -8.53041e-05 
-0.000663214 -0.00139312 0.0300838 
-0.00605504 0.0484524 0.114846 
0.0195947 -0.00762715 0.235011 
0.0104017 0.090818 -0.0362117 
0.041283 0.00813702 0.221063 
-2.96182e-05 1.36293e-05 -0.000114059 
-0.000197382 8.35008e-05 0.000205038 
7.02946e-05 8.35451e-05 0.0192073 
1.07208e-05 3.69893e-05 0.0190458 
-0.000579922 0.000193728 0.0231548 
0.000407719 -0.000259756 0.0439589 
0.00166401 -0.00159105 0.0266178 
0.00277622 -0.00229957 0.0462303 
-0.00878549 0.000360343 0.191598 
0.013323 -0.0327577 0.146063 
0.0296035 -0.00655409 0.0741675 
0.0568498 -0.0356739 -0.0489882 
-0.000151384 -0.000183405 0.0482001 
0.000401991 -4.1042e-05 0.0479311 
0.000218378 0.000156324 0.0639416 
0.00119181 0.00460814 0.0643244 
4.65117e-05 3.43397e-05 0.0191982 
0.000360328 -3.26881e-05 0.000295576 
-0.00148365 0.000772178 0.0258439 
-0.00102913 0.000500329 0.0232326 
-0.000291943 -0.00059609 -2.04238e-05 
-0.000458007 0.00354599 0.0177678 
-0.00203032 -0.0014269 -0.00142192 
-0.000419824 0.00476145 0.0135321 
0.000985145 -0.000711239 0 
-0.000384748 0.000628515 0 
-0.00020401 -0.00216862 0 
-0.000152327 0.000455226 0.00153921 
0.000201376 9.66077e-05 0.000197224 
-4.25649e-05 6.10852e-05 0.000333907 
-0.000108587 -5.41312e-05 0.0174927 
-0.000636374 -0.00087935 0.0252437 
-5.7292e-05 -0.000105381 -0.000962038 
5.75644e-05 7.64835e-05 -0.000200129 
-1.86526e-06 9.49855e-06 0.000481817 
0.000654523 -0.000780739 0.0262397 
0.0116187 -0.0205883 0.128852 
-0.0418594 -0.0058067 0.250436 
0.0273169 -0.00699058 0.164933 
0.0905641 0.0448078 0.0507185 
0.000496494 -9.37092e-05 0.0615653 
-0.000347831 5.66566e-05 0.0688555 
8.92882e-06 -2.44326e-05 0.0509587 
-0.00224934 0.00487625 0.0558735 
0.0107122 0.0399508 0.149223 
-0.00253214 -0.0290403 0.218083 
0.000942883 0.0607281 0.143818 
-0.0280487 0.0433527 -0.11926 
-0.000190837 0.000264593 -0.00048905 
-0.00020179 0.000309505 0.00102967 
-0.000258505 0.000370823 -1.67211e-05 
0.000871073 -0.00480659 0.0119944 
-0.0163035 0.00133072 0.0706241 
-0.0108594 -0.00267184 0.0762851 
-0.0152127 -0.0130239 0.0736195 
-0.021489 -0.00227106 0.0992831 
-6.23819e-05 -0.000100137 0.000517308 
-0.000256573 -0.000378166 0.000220952 
-1.93273e-05 -2.33932e-05 -0.0002716 
0.000837764 -0.000334565 0.0264983 
-0.000376533 0.000922252 0.000128317 
-0.00101826 0.00369038 0.0028748 
-0.000456962 -0.000996004 -0.000650307 
-0.00177055 0.00428778 0.000180456 
-0.00146811 -0.00277531 0.0327723 
-0.000619233 -0.00631603 0.0363187 
-0.00677497 -0.00758587 0.0312188 
-0.00609133 -0.00865446 0.0486059 
-0.0156415 0.00424027 0.0339425 
-0.00625142 -0.00175575 0.0265585 
-0.00943255 0.00728378 0.033673 
-0.00548585 0.00424055 0.013879 
5.15909e-05 -0.000406142 0.000274443 
0.000829811 0.0017343 0.0268904 
-8.04923e-05 -0.000124664 0.0273003 
0.00062739 0.00140287 0.0244911 
0.00400294 0.00306431 0.0283507 
0.00186428 0.00173153 0.0262077 
0.00526036 0.00752695 0.0513529 
0.00243933 0.00305048 0.0441678 
3.39191e-05 -6.73296e-05 -0.00110373 
-0.00027405 0.000538098 8.33096e-05 
0.000149095 -0.000291832 0.00133017 
0.00032119 0.0032431 0.0153132 
0.000193413 -5.90459e-05 0.0579986 
-0.000500533 2.83134e-06 0.0436078 
0.00427035 -0.00411193 0.0551914 
0.003076 -0.00308579 0.0471542 
0.000157527 -0.000108643 0.0183586 
-0.000152851 1.33722e-05 0.000661649 
-0.000153453 1.83174e-05 5.38008e-05 
0.000793781 -0.00100458 0.0268227 
0.000542051 -0.000963695 -0.00164782 
-0.004075 0.000519863 0.00295413 
-0.00111113 0.000622245 0.000944257 
-0.00282383 1.09303e-05 0.00416724 
0.0096804 0.0269153 0.0681278 
-0.000828853 0.0350433 0.0900272 
0.0028158 -0.0155367 0.190438 
0.0205874 0.0493497 -0.0549414 
-0.000815177 0.000473811 0.0878563 
-4.70836e-05 0.000539887 0.076468 
0.000196737 -0.0011882 0.0794801 
0.00361215 0.00158422 0.0767575 
0.000931594 0.00193887 0 
0.000204624 0.00236236 0 
-0.00118156 -0.000831604 0 
-0.00169251 -0.00378988 0.00214234 
-6.27051e-05 0.000297695 0.0217467 
1.23701e-05 -0.000217273 0.0433987 
0.000374577 -0.000128295 0.0364109 
0.000600539 -0.00189308 0.0273151 
-0.000505514 -0.000689817 -0.000141761 
-9.08243e-05 -0.00011364 -0.0015703 
-7.30333e-06 -1.20525e-05 0.000310953 
0.000662374 -0.0015906 0.014177 
-0.000347194 -0.000232532 0.0542833 
-0.000132942 -0.000172761 0.0718449 
0.000396795 0.000350617 0.0582144 
0.00301662 -0.0043633 0.0550427 
0.00136263 -0.000994842 0 
-0.00111988 0.00021288 0 
-0.000649619 -0.000106206 0 
0.0112082 -0.00506813 0.00400622 
-0.00265151 -0.00419226 0.191463 
0.0327905 -0.00980072 0.0721675 
0.0338097 0.0063238 0.0818554 
0.0439035 -0.0245976 -0.0454889 
-0.000323584 -0.000662067 -0.000234772 
0.00106816 0.00180029 0.0268808 
9.23294e-05 -2.34464e-05 0.000413725 
0.000492144 0.000965033 0.0243446 
0.0298015 0.0335089 0.0882671 
0.0161734 0.0222354 0.183802 
0.0629482 0.0503504 0.144303 
0.00072191 0.0113076 0.173111 
-0.00110724 -0.00449433 -0.00601997 
0.0028495 -0.00224303 -0.00423977 
0.00831936 0.00910812 0.0104453 
0.0130166 0.018798 0.0188235 
1.57635e-05 -2.33231e-05 0.000538314 
0.000123664 -0.00017878 -0.00186008 
0.000348757 -0.000507663 -0.00020787 
-0.000956602 -0.00212008 0.0189573 
-0.00356607 0.00363489 0.0179012 
-0.0119303 0.00922393 0.0237462 
-0.00415581 0.00335721 0.0179441 
-0.00942688 0.0098577 0.0405495 
-0.0126464 0.0261842 0.250625 
0.0472813 -0.00378755 0.053349 
0.0467963 0.00281946 0.165852 
-0.0188863 0.0373907 0.156145 
-0.0263933 0.0230299 0.136579 
-0.0148342 0.00809748 0.0906863 
-0.0109577 0.00044666 0.128948 
-0.000243117 0.0105564 0.11119 
-0.0210761 0.0157142 0.0874085 
-0.0246304 -0.000445964 0.0965555 
0.0051876 0.00446563 0.162492 
-0.0719299 0.0153219 0.0252977 
-0.00413515 -0.00370185 0.0272928 
-0.00201684 -0.00339704 0.0356337 
-0.00554562 -0.00747123 0.0459252 
-0.00124112 -0.00120898 0.0290102 
-0.000545509 -0.000152366 -0.000545938 
-0.00085738 -0.00124362 -0.00103229 
-0.000359232 -0.000174058 -4.42735e-05 
-0.00104093 0.00158595 0.00142548 
-0.00123328 0.00089722 -0.00060059 
-0.00145365 0.000383294 -0.000538147 
0.0048095 -0.00430523 0.0213596 
0.0026662 -0.00359051 0.0123682 
0.00327649 0.0501995 0.125979 
-0.0371593 0.00425841 0.285046 
-0.00514814 -0.0335344 0.327899 
-0.0377616 0.111489 0.0106869 
-0.00975326 -0.00422641 0.0095305 
-0.00388074 -0.00199733 0.0109886 
-0.00628774 -0.00662412 0.0300797 
-0.0137977 -0.0103265 0.0317847 
-0.00349125 -0.00459893 0.0501692 
-0.00370686 -0.0030578 0.0274758 
-0.00101534 -0.00172006 0.0291733 
-0.00148294 -0.000579174 0.0220298 
-6.58486e-05 3.20029e-05 -0.000814554 
0.000274698 -0.000194414 -2.54973e-05 
0.000232867 -0.000153147 0.000633864 
-0.0011398 -0.00012906 0.0218454 
-0.0463991 0.0114205 0.163738 
-0.0112653 0.0203531 0.264514 
-0.000978486 -0.0246539 0.281415 
-0.0610268 -0.0353206 0.181368 
-0.038604 6.64852e-06 0 
-0.0328309 0.0182846 0 
0.0379656 -0.00423159 0 
-0.0575311 0.0204154 0.109088 
-0.00138793 -0.00124101 0.0249414 
-0.00205595 -0.0032295 0.0203494 
-0.0051617 -0.00504052 0.0426932 
-0.00111232 -0.000975416 0.0220869 
-0.000293405 -0.000165366 0.058395 
0.00398874 -0.00428892 0.0549534 
0.00515956 -0.00446475 0.0681703 
0.00378862 -0.00291417 0.0466387 
0.0285303 0.093947 0.172307 
-0.0184111 -0.0156299 0.148133 
0.0646574 0.0795866 0.0143355 
0.00348194 -0.0134339 0.199762 
-0.00359606 -0.00465327 0 
-0.00118464 -0.000743211 0 
8.53317e-06 -0.00142429 0 
0.0129585 0.00716731 0.00416336 
-0.000255503 0.000332207 0 
-0.000215086 0.000543898 -0.000154321 
0.0002459 -0.000324316 0 
-0.000293901 0.000371361 0 
0.000259571 -0.000264319 -0.000429189 
-0.000152293 0.000158177 0.000480087 
0.000391887 -0.000394791 -0.000333769 
-0.000375528 0.00171427 0.00253286 
-0.0152228 -0.0326415 0.110667 
-0.0302885 -0.0144949 0.152572 
-0.0201727 -0.0218922 0.0768993 
-0.0255647 -0.00319954 0.106533 
-0.000912631 5.5338e-05 -0.00026742 
-0.00140792 -0.000378963 -0.00183004 
3.26263e-05 0.00160648 -0.000113101 
0.0078398 -0.00266689 0.00522639 
0.000614002 0.000310165 -0.00267206 
3.94213e-05 4.62199e-06 0.00117047 
-0.00156565 -0.00211387 0.0118895 
-0.00181807 -0.00298871 0.0189037 
0.000125203 0.000160776 0.000146692 
3.72677e-05 0.000250446 0.000333711 
2.39186e-06 -0.000284229 0.0219015 
0.000498808 -0.00120273 0.0272592 
-0.00133436 -0.00106832 -0.00294204 
0.00514443 0.00490862 0.00682833 
-0.000774459 0.00166985 -0.00126409 
0.00717163 0.00723835 0.00745938 
-0.0307826 0.0986233 0.236209 
-0.0107894 0.0711309 0.135296 
0.00433901 -0.0154033 0.393193 
-0.0161128 0.0255589 -0.122876 
0.0104778 0.00262199 0.0714465 
0.0177284 0.00389686 0.0941508 
0.0152334 0.0107728 0.0651998 
0.0131594 -0.00275182 0.0601315 
-0.0136724 -0.0161229 0.031132 
-0.0492232 0.00169169 0.058546 
-0.00337413 -0.00498569 0.000595179 
-0.00794417 -0.000519181 -0.00721116 
0.000248271 -0.00039087 -0.000196226 
0.000147705 -0.000220882 0.000111276 
-0.000177863 0.000273469 1.24426e-05 
0.000422915 -0.000192942 -4.38097e-05 
0.000167852 0.000104854 0.000137108 
-5.61467e-05 -0.000175711 -0.000192417 
-9.53684e-05 -6.20625e-05 -3.27881e-06 
-0.000202068 -0.000126533 -0.000155917 
0.000117552 0.000379818 -9.68129e-05 
0.000263953 0.000167587 -0.000134612 
-0.000242909 -0.0001554 8.86541e-05 
0.000194462 0.000125306 -4.39889e-05 
6.7842e-05 0.000531836 8.38292e-05 
5.27583e-05 -0.000138534 0.0188927 
-0.00115471 -0.00114016 0.0289672 
-0.000836182 -0.000982594 0.0223603 
0.000230791 4.6149e-05 0.0437847 
-0.00027015 5.21536e-05 0.0219657 
-1.79724e-05 -0.000193057 0.0365452 
0.00158268 -0.000862329 0.0276653 
-0.00166255 0.00527776 0.056319 
0.000344203 0.00486781 0.066557 
0.000100821 -0.000228696 0.0600003 
-0.00162698 0.00474866 0.0784072 
-6.10731e-05 -1.07551e-06 0.0199545 
0.000143156 6.94178e-05 0.0182254 
-1.44554e-05 7.01033e-05 0.000110712 
0.000819376 -0.00119424 0.0242249 
0.000668581 -0.000419974 0 
-0.000271904 -0.00181345 0 
-0.00128783 -5.97805e-05 0 
-0.00265687 0.00576679 -0.000106249 
3.37096e-05 -9.84715e-05 -0.000715901 
5.48871e-05 -0.000230849 0.000265815 
-2.3515e-05 8.70696e-05 0.00012631 
-0.000594594 -0.00131532 0.0303869 
-0.000191825 0.000125797 0.0365472 
0.00207682 -0.00154226 0.0261751 
-0.000222397 -0.000290068 0.0444474 
0.00307877 -0.00233256 0.0461974 
-0.000196326 1.41347e-05 0.0224051 
0.00143449 -0.000955841 0.027452 
-0.000409264 5.31459e-06 0.000360646 
0.00144613 -0.000935916 0.0273427 
-0.000474055 -0.000428739 0.0589098 
0.00519402 -0.00340978 0.0668614 
0.000175804 0.000223405 0.0555672 
0.00348324 -0.00282282 0.0468623 
-0.000462905 -4.04799e-05 -0.000436051 
-0.00018861 -1.41889e-05 0.000386263 
-6.67932e-05 -2.79277e-06 0.000682964 
-0.00080449 0.00121877 0.0192275 
0.000273801 -2.74429e-05 0.00111431 
0.000182948 -1.62209e-05 0.000226792 
0.00111122 -9.00666e-05 -0.000692309 
-0.000795318 0.00229164 0.0119539 
1.70319e-05 1.65743e-05 0.0178003 
0.000429182 0.00031521 0.000451775 
-0.000938998 -0.00115378 0.024852 
-0.00107303 -0.000829799 0.0224044 
-0.0123802 -0.0530526 0 
-0.000894351 0.0426296 0 
0.00596947 -0.0644685 0 
-0.0171333 -0.0734018 0.179915 
0.000227271 0.00123966 -0.00103633 
-0.00231906 -0.0026521 0.0121297 
0.00137162 0.000667453 0.000507093 
-0.00217051 -0.00294792 0.0192577 
0.0130633 0.00949239 0.0145912 
-0.0127008 0.00637714 0.00556233 
0.00788031 0.0205063 0.0181746 
0.00213759 0.00777694 0.0174783 
0.0248287 0.0382429 0.0428896 
-0.00555367 0.000556649 -0.00183887 
0.0302274 0.0177545 0.0506633 
0.0169393 0.0138706 0.0187656 
-1.69484e-05 5.4212e-06 -0.0012869 
2.08632e-05 3.03972e-06 0.000858512 
0.000332359 0.000243962 -0.000931672 
-0.00327396 0.000421762 0.0146862 
-0.00317165 -0.00453916 0.0508713 
-0.00579164 -0.00796486 0.0465968 
-0.00181233 -0.00315312 0.0352478 
-0.000953795 -0.000771373 0.0283698 
-0.00186963 -0.00153618 0 
0.000874872 -0.000871997 0 
0.00169202 -0.00228311 0 
0.00178001 0.00310296 -0.000169072 
0.000111256 -0.000114563 4.19006e-05 
-0.000223414 -1.64569e-05 -2.37572e-05 
-9.48971e-05 9.69799e-05 -1.85816e-05 
-0.000106805 0.000112994 -0.000110359 
2.7816e-06 2.8168e-05 0.000301265 
2.4743e-06 2.50561e-05 -0.000909285 
3.7988e-05 0.000384687 -8.05093e-05 
-0.00190093 -0.000686878 0.0225492 
-0.000748172 0.000776575 -0.00335377 
0.000161659 0.00488956 -0.00247859 
0.017237 -0.010006 0.0126378 
0.00754048 -0.00254205 0.0108731 
0.0432611 0.00788301 0.355399 
-0.0467293 -0.0209564 0.185641 
-0.0318521 0.00650393 0.267564 
-0.099095 0.0678152 0.17161 
-3.30607e-05 0.000147932 0.0216774 
-0.00026371 -0.000274785 0.000220559 
8.49227e-05 -0.000134346 0.0185906 
0.00107904 0.00113446 0.024796 
-0.00108007 -0.00284596 -0.00325074 
0.0105514 -0.00700424 0.01182 
-0.00573433 0.00132227 -0.00686358 
0.0189124 -0.0110331 0.0194036 
-0.0104401 -0.00700248 0 
-0.00306432 0.00862969 0 
0.00660137 -0.00704645 0 
-0.0216495 -0.0189973 0.0213775 
-0.0112851 -0.00740172 0.0228399 
-0.00123956 -0.00519983 -0.00237381 
-0.00419133 -0.00716797 0.0142753 
-0.0133448 -0.0159309 0.0315281 
0.000232652 3.15431e-05 0.0362954 
0.00156039 -0.00104537 0.0280341 
-0.000290788 -2.51499e-05 0.0221113 
0.00124865 -0.00119542 0.0269668 
0.00226774 0.00246686 0 
8.63949e-05 -0.0013794 0 
-0.000232498 -0.000348551 0 
0.00107162 0.00163754 0.000602901 
-0.00022601 -3.92535e-05 0.0015472 
-4.7434e-05 -1.55761e-05 -0.000618056 
-3.29108e-05 -8.2231e-06 -9.68268e-05 
-0.00215925 0.00157556 0.00156676 
-0.000388127 3.46036e-05 -0.000828162 
-4.44588e-05 0.000119891 0.000431261 
0.00141813 -0.000972026 0.0274501 
0.00102686 -0.00109981 0.0272652 
-0.000215917 0.000620823 0.000113082 
0.00152664 0.000346771 -0.00143802 
0.000459085 -0.00034464 -0.000983957 
-0.0023673 0.00536544 0.00492521 
-0.00413524 0.000243122 0 
0.0144354 -0.0148547 0 
0.0131186 0.00523196 0 
-0.0847228 -0.000704394 0.019423 
-0.000467087 -0.000198185 -0.000412806 
0.000977098 0.000156139 0.000978631 
0.000583138 -0.000192809 0.000170662 
0.0018482 -0.00137078 0.00021838 
0.000119439 -0.000202485 -7.59928e-05 
-0.000256735 -0.000126854 -0.000183461 
-0.000157047 6.49135e-05 -0.000229364 
0.000832331 -0.000319289 0.000784876 
-0.000353444 -4.34494e-05 0.0327449 
0.000468894 -3.92942e-05 0.0272661 
0.000167319 0.000521023 0.0476485 
0.000256136 0.00146557 0.0243676 
-0.000100767 -3.32045e-05 0.0273028 
-6.19011e-05 -0.000123516 0.0174688 
6.9837e-05 0.000112383 0.0316973 
0.000565665 0.000993823 0.0225874 
0.0109853 -0.00770184 0.0120626 
0.00686724 -0.00248877 0.0189245 
-0.00434105 0.00253114 -0.00234792 
0.00697709 -0.000284845 0.00879439 
0.000387661 0.000100833 0.000514988 
0.000646245 0.000179718 -0.00142521 
0.000390835 0.00010387 8.48977e-05 
0.00260557 -0.00150795 0.0194336 
-0.000329277 0.000231542 0.00129724 
0.000159376 -0.000116172 -0.00141089 
-0.000737655 0.000498877 -0.000879457 
0.00347115 0.000667853 0.0151218 
-0.00427825 -0.00824361 0.0787304 
-0.00336982 -0.00241774 0.0825982 
0.00235187 -0.00457848 0.08658 
-0.00764174 -0.00477281 0.0954804 
0.000329201 0.000627715 -0.000278858 
0.000601776 1.63361e-05 0.000237852 
-0.000171512 0.000509406 -0.000324074 
0.00261295 0.000341167 0.0011783 
0.000188996 0.000249735 0.000276978 
-1.7222e-05 -9.61765e-05 0.000180908 
-5.12715e-05 4.80142e-05 0.0187153 
-0.000787757 -0.000826093 0.0224937 
9.21153e-05 -8.71297e-05 0.0578492 
0.0002615 0.000125029 0.0444412 
-0.00022375 0.000411687 0.0378721 
0.00345697 -0.00427095 0.0542085 
0.000352145 -0.000493796 0.000195773 
0.000367029 -0.000540299 -0.00081323 
-0.000257889 0.00039601 0.0012213 
-0.000725938 0.00349515 0.00225714 
-0.00543679 0.00151471 0.0376219 
-0.008369 -0.00225214 0.0529284 
-0.00580031 0.00150811 0.0602814 
-0.00426476 -0.00120916 0.0580869 
0.000222366 9.0967e-05 0.000529129 
-5.66815e-05 -2.27306e-05 -0.000166229 
-0.000190447 -7.27497e-05 -0.000807086 
-0.00123387 0.000711406 0.0278957 
-1.84803e-05 4.04992e-05 0.0208146 
9.23808e-05 -5.58614e-05 0.0189191 
6.7124e-05 6.87924e-05 8.16355e-05 
-0.000953985 -0.00101672 0.022559 
-0.0364224 0.020395 0.134727 
-0.005992 0.0351907 0.16606 
-0.00288476 0.0213114 0.0929456 
0.00540213 0.0208593 0.157331 
0.116202 0.0163917 0.236329 
0.0838796 -0.00351075 0.124617 
0.0110585 -0.0069387 0.394041 
-0.00466783 0.0907782 -0.0755158 
1.77268e-05 1.44085e-06 0.000391963 
7.90551e-05 6.42569e-06 -0.000252306 
-7.0904e-05 -5.76315e-06 4.13204e-05 
0.000631561 -0.000493609 0.0271418 
-3.80133e-05 3.81167e-05 0.0206029 
-8.83091e-05 7.98362e-05 -7.94124e-05 
5.43224e-05 -4.0179e-05 3.19149e-05 
-6.15981e-05 -1.93493e-05 0.0182058 
0.000191993 -0.000108977 0.000495607 
-0.000125087 0.000159872 0.0178965 
0.000161181 -0.000203452 0.0240751 
-0.000903437 -7.21498e-07 0.0234753 
6.5708e-06 7.90508e-05 4.50887e-05 
-1.8847e-05 3.61275e-06 0.0157037 
-1.1736e-05 -4.65964e-05 0.0221603 
-4.52275e-05 -8.9446e-05 -6.97388e-05 
-6.18357e-06 2.44278e-05 -3.47366e-05 
-2.13878e-05 4.32348e-05 0.0228591 
-2.83679e-05 -1.47849e-05 7.49574e-05 
8.34404e-05 -4.03824e-06 0.0214959 
2.25292e-05 2.24211e-05 0.00050953 
0.000255426 0.000250792 -0.000113008 
-3.37975e-05 -3.37421e-05 -0.000949092 
-0.00092815 0.000539216 0.0246877 
-0.000649495 0.000637877 2.3332e-06 
0.000370081 -0.000364284 0.00142124 
-0.000434719 0.000427604 -0.00114198 
0.00154473 0.000744052 0.00388364 
0.000510397 0.000144172 0.00187941 
0.000312216 7.88105e-05 -0.00118198 
0.000462684 0.000121152 -0.000668085 
-0.00649824 0.00197645 0.0158321 
-7.85176e-05 0.000381322 0.000350817 
4.86026e-05 -4.14905e-05 0.000204495 
6.15386e-05 -5.33816e-05 0.0180716 
0.00071368 -0.00100524 0.0240679 
-0.00423701 -0.00351165 0.0268037 
-0.0058398 -0.00797693 0.0467389 
-0.00319153 -0.00469799 0.0508181 
-0.00102897 -0.000889731 0.0285193 
-0.000722017 0.000483376 -0.000372779 
0.00148908 9.53496e-05 0.000322364 
-0.000621631 -0.00115874 -0.000918246 
0.00435846 0.000976451 0.00477342 
-0.00344919 0.0116445 0.0803343 
-0.000827455 0.0110714 0.059331 
-0.00247294 0.00523024 0.0552277 
0.00270703 0.0041883 0.0660751 
-0.0034282 0.00953346 0.0785034 
0.00187352 0.00529283 0.0666115 
-0.00173203 0.00589016 0.0561832 
-0.00208743 0.00409633 0.0785015 
-0.00943647 0.00530774 0.0220727 
-0.0106094 0.0083117 0.0227179 
-0.00508712 0.003737 0.0183049 
-0.00322148 0.00146491 -0.00161483 
2.16122e-05 -2.95268e-05 -0.000463003 
-0.000237731 0.000954157 -0.00213676 
-5.85413e-06 -2.28273e-05 0.000479515 
0.00147923 0.0031579 0.0205078 
-0.000190825 -0.000181414 -0.000273629 
0.000180099 0.000180737 -5.65756e-05 
0.000146801 0.000131998 0.000460619 
-0.000497936 -0.00113941 0.00138409 
0.000817054 0.00412061 0.0028073 
0.0292488 -0.00338488 0.0200718 
-0.0067597 0.000796685 -0.00883823 
0.010416 -0.0013599 0.00964087 
-8.40449e-05 7.08758e-05 0.000178155 
1.01238e-05 -0.000420016 0.000247021 
0.000263526 7.07076e-05 0.0274364 
0.000429887 0.00123109 0.0244808 
-0.000667577 0.000285947 -0.000707209 
-0.000758523 0.000330185 -0.000441263 
0.000741198 -0.000306888 0.00151183 
0.00361158 -0.000398457 0.00266234 
-0.0107498 0.0047442 0.120808 
-0.0313108 -0.0377907 0.0570387 
-0.0258621 -0.00972342 0.15642 
-0.0260718 -0.00364975 0.106344 
0.000189409 2.79478e-05 0 
-0.000225874 1.03905e-05 0 
-0.000189724 -2.29483e-05 -5.49762e-05 
1.28866e-06 1.26841e-05 0 
0.000150675 7.59312e-05 0.000265063 
-0.000192589 -8.90258e-05 0.0187673 
7.55064e-05 7.12657e-05 0.0239162 
-0.00091933 -0.001287 0.0294473 
-7.94589e-06 -9.7401e-05 0.000168815 
1.24777e-05 0.000152952 -0.000482839 
3.26026e-06 3.99643e-05 5.01859e-06 
-0.000616882 0.000157968 0.0231045 
0.00116223 -0.000190456 0.000333829 
0.00118516 0.000286072 -0.00120999 
-0.00488047 0.00122635 0.0050854 
-0.00387208 0.0027943 0.0117606 
-0.000158303 1.79566e-05 0.0723904 
3.36741e-05 -3.80865e-05 0.0557618 
-0.000122858 -0.000157528 0.0590273 
0.00487615 -0.00330297 0.0661927 
0.00012935 4.48705e-07 0.0181871 
-1.02217e-05 -4.66781e-06 -0.000132394 
7.16405e-05 7.83918e-05 -0.000134482 
-0.000158041 -0.000172097 0.000277192 
-0.010966 0.00963511 0.0221056 
-0.0105323 0.00953359 0.0420992 
-0.00228465 0.00342191 0.0174278 
-0.0118044 0.0122668 0.0303504 
-0.0224506 0.00752018 0.05296 
-0.0301167 0.0133593 0.0573795 
-0.00329808 0.0155069 -0.00446555 
-0.0136428 0.0290527 0.0498123 
0.00141893 -0.000452668 -0.00445391 
0.00116096 -0.000559922 -0.000171367 
-0.00617457 0.00313858 0.00711614 
-0.00436604 0.00333118 0.0122722 
2.96836e-05 -1.02965e-06 0.0199334 
-0.000104748 4.40151e-05 -4.01094e-05 
-6.20577e-05 -6.78823e-05 -2.77928e-05 
4.70338e-05 -7.21795e-05 0.0176681 
-0.0225805 0.0237958 0.139758 
0.00143096 0.0181527 0.15511 
-0.00357582 0.0268052 0.095239 
-0.00129007 0.0106395 0.108565 
-2.74972e-05 -0.0002655 0.0241475 
0.00027092 -6.93345e-05 0.000295356 
-2.7672e-06 -9.8858e-06 -4.57314e-05 
-0.000993753 -0.000215867 0.02375 
-0.00109086 0.00335173 0 
0.00266675 -0.000100538 0 
-0.0025203 0.00269385 0 
0.0139967 -0.00973369 0.00486149 
-0.000217543 2.90489e-05 0.0274543 
0.00154045 0.00143621 0.0267978 
-0.000405503 -0.000134387 0.0174829 
0.000875904 0.000906869 0.0223595 
0.000141848 0.000227411 0.066147 
0.000259647 -0.000487355 0.0660919 
-0.000389589 -0.000428815 0.0793085 
0.00466453 0.00145231 0.0761712 
0.00228559 0.00252642 0 
0.00498906 -0.000403697 0 
0.000406664 -0.00174856 0 
-0.0102767 0.00076097 -0.000644793 
0.0426983 0.0236532 0.107345 
-0.00271195 0.0222181 0.100645 
-0.00319141 0.0260472 0.166642 
0.00276943 0.0292549 0.155743 
-0.000239551 -0.000105221 -0.000290843 
-0.000109498 -4.37269e-05 0.000306532 
-3.53139e-05 -1.22655e-05 0.000283605 
-0.000717767 0.000797617 0.0282127 
0.000188678 -0.000213344 -0.00090903 
-0.000511179 0.000992767 0.00169341 
-8.46303e-05 0.000140731 0.000600701 
-6.94849e-05 0.00104779 0.000901522 
4.08718e-05 2.53743e-05 0.0549388 
0.00017547 0.0002191 0.0727138 
0.000411076 -0.000280941 0.0633761 
-0.00442625 -0.0039906 0.0653986 
4.27106e-05 6.98164e-05 -0.000195789 
4.85475e-05 5.86109e-05 0.000280277 
-6.13401e-05 -0.000174023 0.0184652 
-6.67092e-05 -9.37453e-05 -6.50187e-05 
-0.000266647 4.02324e-05 0.0550389 
-0.000213609 4.03467e-05 0.0729428 
0.000377788 0.000595243 0.0665738 
0.00524152 -0.00340267 0.0666919 
-0.00283114 0.00640441 0.0645447 
-0.0248565 -0.00268231 0.077534 
0.00542585 -0.0043421 0.168889 
-0.059107 0.0538142 0.17161 
2.30985e-05 -6.69359e-06 0.0165058 
0.000227451 2.07722e-05 0.019521 
-0.000139673 0.000149882 0.0352268 
-0.00120235 0.00119136 0.0261964 
0.00631314 0.00509056 0.410478 
0.0773208 0.00225871 0.141716 
0.110536 -0.0154323 0.231603 
0.0161764 -0.0753263 -0.0881835 
9.96383e-05 3.85052e-05 -0.000170968 
7.70087e-05 4.04518e-05 0.000270957 
-0.000145154 -6.33699e-05 -2.52207e-05 
-0.000166406 -4.18257e-05 0.0213297 
0.00413341 0.00633309 0.00970425 
0.00987404 0.011112 0.010882 
-0.000195727 -0.00547801 -0.0102386 
0.00690071 0.00595184 0.011513 
0.000251617 0.000220216 0.0216242 
-0.00017935 -0.000206907 -0.000195567 
5.09713e-05 -9.39599e-05 0.000315598 
0.000609286 0.000794661 0.0245476 
1.94916e-05 -1.935e-05 -0.000186007 
-6.026e-05 9.41388e-05 -4.76807e-05 
9.14722e-05 -0.000153648 0.000267446 
-6.4848e-05 1.96607e-05 0.0175988 
0.000192403 -0.000110759 0.0394778 
0.000894265 0.000829113 0.0219388 
0.00126245 0.00134956 0.024098 
0.00238679 0.00290578 0.0438154 
7.80482e-06 9.06181e-05 8.62139e-05 
2.60148e-06 -3.63396e-05 0.000431026 
-3.828e-06 9.76725e-06 -0.000370023 
0.000671927 -0.000576671 0.0273265 
-0.000318716 0.00115169 -0.00134862 
-0.000962935 5.73158e-05 -0.000208189 
-0.000408435 -0.000607834 0.000674526 
0.00310755 0.000953187 0.00250532 
0.0115147 0.00854331 0.0167695 
0.00575337 0.00507449 0.0183722 
0.00357797 0.00195767 0.00602074 
0.00480157 0.000245656 0.00142733 
-0.00052038 2.44421e-05 0.0611124 
0.000164845 0.00432016 0.0660919 
0.000458439 2.95291e-05 0.0769103 
-0.000957293 0.00480498 0.0776252 
-2.53097e-05 -6.79825e-06 0.0228293 
0.000323544 -0.000186511 0.0439655 
-9.47872e-06 0.000136643 0.0363272 
0.00120564 -0.00164302 0.0271046 
7.68973e-05 -0.000127061 0.0168611 
-6.83873e-05 0.000187569 0.0193906 
-0.000184155 -0.000178171 0.00036701 
0.000854414 0.00086168 0.0248763 
0.000126323 3.37436e-05 0.035802 
-0.000228791 0.000180288 0.0390557 
0.000107196 -1.98219e-05 0.0208081 
-0.00161723 0.00113862 0.0259479 
-0.00173867 -5.08484e-05 -0.00151918 
0.00780818 -0.00572648 0.00919524 
-0.00391193 0.000607964 -0.00360794 
0.00981546 -0.00254005 0.0080244 
-0.00081133 -0.000374129 0 
2.86458e-05 -0.000379175 0 
0.00021341 -0.000436392 0 
0.00176861 -0.000887863 0.000438734 
-6.02091e-05 6.26858e-05 9.10675e-05 
1.47402e-05 -1.83155e-05 -9.8035e-05 
0.000295122 0.000134546 -0.000100113 
7.51997e-05 -8.46152e-05 -0.000275024 
-0.000106347 -9.94907e-05 -0.000220973 
6.45039e-05 6.18168e-05 9.7181e-05 
8.85208e-05 -0.000255727 -7.44059e-05 
-7.19452e-05 -6.85313e-05 -0.00011883 
-3.37391e-05 -3.64973e-05 -5.346e-05 
-1.27278e-05 -1.21781e-05 1.96621e-05 
5.96106e-06 8.08958e-06 5.05532e-05 
-1.16925e-05 8.43054e-05 -0.000110586 
8.90795e-05 -0.000554665 -1.22828e-05 
0.000458829 -4.11241e-05 3.41153e-05 
0.000681595 -0.000143383 -0.000505465 
0.000738928 -0.0029904 0.00100711 
0.000540971 0.00013674 0.00102067 
0.000163678 4.25976e-05 3.40987e-05 
0.000335795 8.80162e-05 -7.01999e-05 
-0.00371338 0.000694171 0.0243736 
-0.00122341 -7.49826e-05 -0.00119603 
-0.00228248 -0.00181598 0.00223605 
0.00618494 0.000437229 0.0147825 
0.00661355 0.00140154 0.00636257 
-0.00836811 0.0203529 -0.0255975 
0.0378222 0.00273782 0.0053381 
0.0100729 -0.000959695 0.0254048 
0.0577689 -0.032315 0.0671295 
-0.000381319 -0.000608267 -0.00202199 
-0.000115995 -0.000199542 -0.0004695 
0.000348129 0.00068122 0.000582884 
-0.000170727 0.00369418 0.0124825 
-4.97175e-06 4.27884e-07 -0.000142114 
2.60143e-05 -4.75683e-05 -0.000173571 
-0.000119938 0.000199818 0.000405813 
3.90155e-05 -2.70183e-05 0.0189241 
-0.000989847 0.000589351 0 
-0.000751234 -0.00185891 0 
-0.00316989 -0.00290635 0 
0.0156309 0.00714394 0.00166034 
0.00316433 -0.00299042 -0.0045753 
-0.00362316 0.00470114 0.00605719 
-0.00125182 0.001178 0.00165762 
-0.00200291 0.00618153 0.00498274 
-1.06673e-05 0.003445 0 
0.00096537 -0.00150602 0 
-0.00103353 -0.000817942 0 
-0.00186628 0.00656426 0.00271736 
-8.08359e-05 -0.000110027 0.00140532 
0.000170162 0.000233183 -0.000474452 
-0.000336919 -0.000462329 -5.33577e-05 
9.45959e-07 0.00216686 0.0129279 
-0.0119817 0.00810408 0.0210358 
-0.010169 0.00867717 0.00555424 
-0.0175274 0.0217496 0.0300105 
-0.0115353 0.0139963 0.0334966 
-0.000360007 0.000165987 0.07791 
0.000362556 -7.14328e-05 0.0770846 
-0.00019139 -0.000838547 0.0870429 
0.00180427 0.00445767 0.0806189 
0.000761256 -0.000921464 0 
-0.000531393 -0.000556904 0 
0.0020178 0.000892018 0 
-0.00152439 -0.00366578 0.00279664 
-0.0185039 0.00252334 0.0676637 
-0.0153196 -0.0292536 0.0706156 
-0.0238291 0.00475449 0.107725 
-0.0260653 -0.00311135 0.106198 
-3.19091e-05 -4.86704e-05 -0.00058621 
-1.01236e-05 -2.97494e-05 0.000254615 
-0.000194217 -0.00042151 0.000289658 
0.000380316 -0.000651277 0.0259237 
0.00016064 -5.10907e-05 0.000585945 
-5.3176e-07 -1.80582e-05 -0.000595999 
0.000156873 -6.52882e-05 7.04413e-05 
-0.00137722 -0.000239572 0.0290754 
0.000237383 0.00119159 0.0833309 
-0.000938034 -0.00350439 0.0849297 
-0.000280282 -0.000718336 0.076525 
-0.00221212 -0.00262292 0.0827073 
0.00410554 0.0367195 0 
0.00536861 -0.0185973 0 
-0.00541457 -0.0244372 0 
0.0160834 -0.0906547 0.0909448 
0.000560994 -0.0011136 -0.000915924 
0.00105196 -0.000411475 -0.000792479 
-0.000206497 0.00164903 0.000486928 
-0.00208473 0.00150229 0.000530997 
0.000596493 8.36532e-05 0 
-0.00680937 -0.00209542 0 
-0.00594631 0.00569889 0 
0.0242128 -0.0202072 0.00477565 
-0.010286 0.039217 0.240078 
-0.00136505 0.00518744 0.216701 
0.054097 0.0110406 0.115153 
0.0111732 -0.00530487 0.189698 
-0.0130722 -0.0102718 0.0448716 
-0.0161369 0.00369797 0.0739959 
-0.0167239 -0.00985214 0.0717453 
-0.020199 -0.0228824 0.0740366 
-0.00180551 0.00099682 -0.00425857 
0.00656933 -0.0060982 0.00957512 
-0.000842204 0.000454788 -0.00020575 
0.00674002 -0.00179276 0.00899982 
-0.000377182 -0.000237194 -0.000198373 
0.000259464 -0.000172263 0.000568081 
-0.000695633 -0.00076182 -0.000122307 
-0.000456818 -0.00124382 0.000419904 
-0.00489024 -0.0100637 0 
0.001329 0.00535176 0 
0.00176008 -0.0125233 0 
0.0204747 0.0363871 0.0050463 
0.032 0.0534486 0.336443 
0.0203963 -0.0165864 0.157204 
-0.00416971 -0.0289589 0.119817 
0.0193399 -0.10444 0.183951 
0.000241473 -2.16998e-05 0.000330351 
0.000322541 -0.000125137 -0.000196386 
-0.00165145 0.00120515 0.0258825 
-0.000649369 7.52376e-05 0.0231313 
-2.39638e-05 2.90102e-05 -0.000126502 
9.78971e-05 -9.45949e-05 -4.70395e-05 
1.74335e-05 -0.00010003 0.0176947 
-0.000164706 0.000152175 0.000243574 
-0.0105611 -0.00240674 0 
-0.0107073 0.0059765 0 
0.00404022 -0.00127292 0 
0.0352188 -0.0182359 0.00629459 
-0.000125661 -0.00028183 -0.000125073 
1.59523e-05 5.44108e-05 -0.000287475 
0.000192517 0.000437636 9.61689e-05 
0.000322508 0.000220167 4.75955e-05 
-5.83743e-05 -0.000146507 -0.000195644 
0.000110399 0.000245095 -0.000150668 
-0.000582783 -0.000430367 0.000194024 
-0.000230897 -0.000549828 -0.000290786 
0.000459107 -0.00078437 0.0802708 
-0.00351966 0.00306455 0.0778483 
-0.0004139 2.26076e-05 0.0685189 
-0.0027803 0.00394563 0.0771277 
4.78693e-06 -6.91286e-05 -0.000108924 
0.000160998 -7.18226e-05 0.000144829 
-1.19463e-05 2.72408e-05 0.0226639 
-4.53148e-05 -3.09521e-05 0.0176803 
0.000248924 0.000340861 0.00109616 
2.11427e-06 3.29226e-06 -0.000617508 
0.000573606 0.000787209 -0.000235991 
-0.000710602 -0.00287292 0.0152189 
-0.000834546 -0.000213197 -0.00046562 
-9.44109e-05 -0.000134033 -0.000110694 
0.00120409 -0.000993643 -0.00125412 
-0.00394746 -0.000839544 0.000686833 
-0.0197207 0.0239071 0.147975 
-0.0124405 -0.0041134 0.127641 
0.00223865 0.0180671 0.156074 
-0.00419414 0.0108704 0.104208 
-0.00141744 0.000463632 -0.000721429 
0.00458065 -0.000208969 0.0172914 
-0.0012788 0.00126168 -0.00141783 
0.00560896 0.000673691 0.00961151 
-0.0106579 -0.0023798 0.0770376 
-0.00562309 0.0030325 0.0598654 
-0.00836718 -0.002711 0.0532906 
-0.0044707 -0.00116069 0.0571647 
0.000171929 -2.45679e-05 -0.00151157 
0.00017359 -5.42649e-05 0.000846445 
0.000316398 -9.03466e-05 0.000853336 
0.0035948 0.0012654 0.00549492 
0.00231462 0.005129 0.0837954 
0.00234006 0.0058718 0.0653171 
-0.00279156 0.00976074 0.0815167 
-0.00264929 0.00355728 0.0787166 
-0.000811433 -0.00253593 0 
-3.67734e-05 0.00154138 0 
-0.00053647 -2.79314e-06 0 
-0.000431694 0.00326779 0.000750808 
0.00107024 -0.000298169 -0.00011405 
-0.000287468 -0.000731557 -0.00022183 
-0.000180561 -0.000251359 -0.000420149 
0.0015139 -0.000185608 0.0011537 
-0.0066697 0.00307953 -0.00713359 
0.0202087 0.0111727 0.0276694 
0.0417697 -0.00549975 0.0432601 
0.00881039 0.00558237 -0.00468721 
2.44535e-06 3.64151e-06 0.000985829 
0.00100591 8.26995e-05 -0.000536869 
-0.000408867 -3.26216e-05 0.000503119 
0.000394712 -0.00205037 0.00954256 
-0.000212655 -0.0104137 0.228489 
-0.00952183 0.0175699 0.147996 
0.0174828 -0.00784321 0.152414 
-0.102331 0.0491165 0.0843873 
-8.37454e-05 -0.000278962 0 
-7.38814e-05 -0.000830015 0 
0.000576892 -0.000560733 0 
0.000461331 0.000615103 0.000487586 
0.000155729 7.56473e-05 0.0186131 
-0.000159571 -9.68341e-06 0.000299084 
-0.000133004 -1.77353e-05 -0.000123347 
0.000798532 0.00059735 0.0244007 
-0.000162723 2.85902e-05 -0.000117302 
-0.000670332 0.000170718 -0.000561795 
-0.000162552 0.000130343 -0.000234442 
0.00197615 0.00420686 0.00273723 
0.000347417 0.00035167 2.65872e-05 
-0.00118167 0.000489649 -0.00132151 
0.000725516 0.000224869 0.000390344 
0.00304891 0.00106291 0.00353979 
-6.48909e-05 -5.63984e-05 0.0178376 
1.98993e-05 1.28754e-05 0.0208039 
-6.32662e-05 -2.72501e-06 -8.01975e-05 
-6.89263e-05 0.000173306 0.000107283 
-0.0104968 0.0200849 0 
0.00260323 -0.0151366 0 
0.0105054 0.0261457 0 
-0.0434305 0.0946967 0.0850599 
0.00588636 -0.00278678 0.0691623 
0.00310781 -0.00567963 0.0534749 
0.00797825 -0.00993258 0.0787275 
0.00881666 -0.00788628 0.0564248 
-0.00113567 -9.18549e-05 0 
-0.0038999 0.00381673 0 
0.00143125 -0.00256388 0 
0.0200307 -0.00307875 0.00188591 
6.35117e-05 5.57801e-05 -0.000199812 
-0.000114784 -6.36973e-05 0.0168697 
0.000101431 0.000114275 0.00026681 
-9.40186e-05 -9.64746e-05 -2.75382e-05 
0.000443602 0.000336212 -0.00024031 
0.000722624 0.000402587 0.000615289 
-0.00115254 -0.00153355 0.0238761 
-0.00211886 -0.00261547 0.0208543 
-0.000450241 9.56153e-05 0.0275432 
-9.99028e-05 0.000161687 0.0318353 
0.00155818 0.00143655 0.0269081 
0.00111793 0.000831824 0.0221412 
0.000507077 -0.00040895 0.0805334 
-0.000150829 0.000319159 0.0678103 
4.89187e-05 0.00053307 0.0695877 
-0.00407942 0.00218721 0.0764332 
-0.000140686 -0.000257976 0.000275046 
-5.55717e-05 3.47649e-06 -0.000133613 
1.81061e-06 2.97974e-05 0.016933 
-3.3394e-05 2.59778e-05 0.0192638 
-0.000173282 -0.000528981 0.059218 
0.000231816 0.000225692 0.0494858 
7.08961e-05 0.000311359 0.0682406 
-0.00531293 0.00201643 0.0592736 
0.0145992 -0.00991979 0.0772477 
0.0188271 0.00383 0.0953722 
0.0101774 0.00420933 0.0742999 
0.0118462 -0.00314511 0.0577105 
-0.000213607 -0.000178008 0 
2.56949e-05 0.00020573 -0.000213954 
-2.77978e-05 0.000217267 0 
0.000383579 0.000192914 0 
0.000366249 0.000443039 4.62976e-05 
0.000154707 0.000459055 0 
-0.000219843 -0.000324832 0 
0.00029991 0.00024157 0 
-0.000445031 -0.000459115 -0.000114036 
0.000237075 0.000295756 0 
-0.000342549 -0.000530391 0 
-0.000214821 -0.000575934 0 
-0.00010543 0.000191722 0 
-5.75488e-05 -0.000247816 0 
0.000122355 -0.00011113 -0.000168974 
0.000171829 -0.000205729 0 
0.000126234 -7.91191e-05 0 
-0.000189207 -2.18532e-05 -0.000123177 
-0.00013936 -3.47194e-05 0 
-0.00013726 0.000205768 0 
0.0003251 1.75473e-05 0.000248281 
8.7989e-05 -0.000236469 0.0241619 
-0.000148075 -7.52994e-05 -2.59889e-05 
-0.000932796 -0.000100706 0.0236269 
-0.0003629 -0.000275181 3.25513e-05 
-8.32153e-05 -0.000170834 0.000173949 
0.000128092 0.000412679 -0.000100319 
-0.000309185 -0.00125949 0.000277326 
0.000132005 0.000172061 0.0173031 
-0.00102056 -0.00128652 0.0252402 
-0.000389584 -0.000332719 0.0352114 
-0.00117314 -0.000966927 0.0228401 
-5.63186e-05 -0.000554382 -0.000971364 
-0.000149532 -0.000167259 0.000234644 
0.0013798 0.00158026 0.0266139 
0.000812132 0.000724196 0.0218718 
0.000114591 1.46283e-05 -0.000125476 
-0.000135744 8.47535e-05 2.49719e-05 
4.39819e-06 -6.37796e-06 0.0230145 
2.66181e-05 -5.92327e-05 0.0186698 
-0.0151698 0.022217 0.0253476 
-0.0141282 0.0159972 0.0374917 
-0.00887874 0.00622312 0.00422326 
-0.00104721 0.0100006 0.00452067 
0.00193845 -0.00426919 0 
0.00661941 -0.02022 0 
-0.00214508 0.0178713 0 
8.51644e-05 0.0909362 0.0436258 
0.00523239 0.00408594 0 
0.0140465 -0.00346753 0 
0.0170259 -0.0132446 0 
-0.0433491 0.0506412 0.0234717 
-7.93811e-05 0.000279767 0.00133326 
7.48891e-05 -0.000210187 -0.000504635 
-0.000161285 0.000352664 -0.000314605 
0.00056852 0.0029508 0.00363732 
0.00182933 -0.00156122 -0.00132277 
-0.000965095 0.00135929 0.00159588 
0.000403142 -0.000412372 -0.000860995 
-0.00062145 0.00169652 0.000767572 
0.00964701 0.0035076 0.0720614 
0.00471741 0.00282186 0.0516209 
0.00496161 0.00573738 0.0605442 
0.00415565 0.00203288 0.0780867 
0.00590647 0.00365014 -0.00601826 
-0.0250733 -0.00502159 0.0160383 
-0.00110314 0.00253056 0.0033176 
-0.00895515 -0.00222073 0.00463021 
5.67912e-05 -1.2129e-05 0.0219962 
-0.000276554 -0.000399906 -3.96195e-05 
0.000893485 0.00116078 0.0240156 
0.000809276 0.000461522 0.0221238 
-0.000103732 -0.000325226 0.0227761 
2.76035e-05 0.000139527 0.0229499 
-0.000221298 7.47753e-05 0.000248774 
0.00141581 -0.000516294 0.0271872 
0.00013268 -0.000292112 0.0399279 
2.31099e-05 6.38521e-05 0.0611685 
-0.000386611 -1.28035e-05 0.0516902 
-0.00152511 0.00477286 0.0552613 
-9.2542e-05 6.52214e-05 0.0759176 
0.00115237 0.00548061 0.06552 
0.00118672 0.00510056 0.0840282 
-0.00114745 0.0041954 0.0784767 
-0.000211574 0.000522584 -0.000185017 
0.000123481 -0.000310996 0.000178358 
-3.37689e-05 6.2688e-05 0.00021355 
-4.8586e-05 0.000416346 -0.000171145 
4.765e-05 0.000103266 -0.000131276 
-4.79374e-05 -4.49168e-06 0.0169865 
-6.58204e-05 2.11295e-05 0.0211152 
0.000141519 -1.27495e-05 8.26285e-05 
-5.0361e-05 -3.57683e-06 -0.000730229 
-4.41206e-05 1.76485e-05 0.000273691 
0.000188769 -3.72084e-05 0.000512428 
0.000937531 0.000858285 0.0264679 
-0.00177962 0.0213082 0 
0.0173455 -0.00378149 0 
-0.00156677 0.00168068 0 
-0.00448164 0.0417298 0.0323028 
-0.000281577 0.000132658 0.0372125 
3.37999e-05 -6.38144e-05 0.01799 
-5.85095e-06 9.4592e-05 0.0192607 
-0.000949977 0.000570452 0.0232556 
2.4726e-05 0.000101523 0.0002112 
5.17752e-06 1.23309e-05 0.000221477 
1.94482e-05 0.000104096 -0.000315226 
-0.000513751 0.000107104 0.0232973 
-0.0131486 0.01265 0.0714981 
0.00971733 -0.00526986 0.178204 
-0.00381237 0.0290713 0.143888 
-0.0893126 0.0325437 0.0275584 
-0.00127157 0.00233249 0 
0.00362139 0.00465193 0 
0.00230336 0.000551645 0 
-0.000381198 -0.00970018 -0.00130605 
0.000479937 0.000514859 -0.000209471 
0.000428207 0.000237989 -0.000140212 
-3.52554e-05 0.00018769 -0.000473889 
0.00334698 0.00022898 0.00211518 
-0.000173342 0.000130299 0.0211403 
-0.00102382 -0.00129231 0.0292094 
8.40015e-06 8.56745e-05 0.018461 
-0.000808052 -0.00117088 0.0227275 
-0.00343233 -0.0172778 0 
0.00345243 0.00292916 0 
0.0200258 0.00057324 0 
0.0382105 0.00902715 0.0255935 
-0.000123528 -0.000129339 0.000465962 
-0.000117842 -0.000110935 -0.000472959 
-0.000208375 -0.000211339 0.00028203 
-0.000240534 0.000975054 0.0252393 
-0.000474114 0.015606 0.264899 
0.00399409 -0.0580364 0.182179 
0.00488754 -0.0399244 0.115638 
0.0292546 -0.058028 -0.0859614 
-0.000486423 -0.00122163 0 
0.000798625 -0.000304001 0 
0.000874797 -0.000341219 0 
-0.000106289 0.000328453 0.00142273 
0.000297186 0.000800029 0 
-0.000114033 -0.000321093 0 
0.000533354 0.000108986 2.3904e-05 
0.000238325 -0.000463038 0 
-0.0418519 0.00497887 0.254488 
0.0118432 0.000350725 0.260185 
0.0138386 -0.0501103 0.260927 
-0.0041027 -0.0244831 0.209996 
-9.03073e-05 0.013785 0 
-0.00643685 -0.0289562 0 
-0.00508831 -0.00875673 0 
-0.00321873 0.0984362 0.0494965 
0.0214864 0.0366521 0.10364 
0.0471895 0.0413489 0.157594 
0.03628 0.000418581 0.148324 
0.0145774 0.0189818 0.161171 
-2.97521e-05 0.000271926 -7.88347e-05 
-9.44555e-05 5.7707e-05 -0.00016116 
0.000122323 -8.15917e-05 6.98e-07 
-0.000171115 0.000113674 -1.5005e-05 
0.000425103 4.25407e-05 0 
0.000106711 0.000306495 0 
0.000576167 8.98342e-05 0 
0.00077215 -0.000409487 0.000589485 
-0.0159743 -0.0353589 0.00380117 
-0.0353048 0.00900217 0.0853444 
-0.0234841 0.00794221 0.0574855 
-0.0385623 -0.0141469 0.112162 
0.0021674 -0.0042673 0 
0.00683818 -0.0049543 0 
0.00521011 -0.017007 0 
-0.0312185 0.0950507 0.0138584 
-0.00351106 -4.0968e-05 -0.00325353 
0.00526663 0.00496085 0.00767682 
-0.00407581 -0.000626868 -0.00343798 
0.00955755 0.00345341 0.00609467 
0.000523251 9.25276e-05 0.0665777 
-0.000112871 -0.000202363 0.0764458 
-0.000468957 0.000729044 0.0605923 
0.00403295 0.00186597 0.0761674 
4.79493e-05 -3.64594e-05 -0.000103107 
5.69307e-05 -7.78407e-05 0.0183358 
-4.62619e-05 -6.86208e-05 0.0229282 
-0.000225454 -2.80093e-05 7.47557e-05 
0.000404732 0.000275039 -5.41874e-05 
-3.54799e-05 -2.38232e-05 0.000578681 
0.000100721 6.79835e-05 -0.000935878 
0.000476759 -0.000788428 0.0233159 
-5.32178e-05 0.000664023 0.000748668 
-1.2321e-05 0.000179113 0.000785532 
-2.76081e-05 0.00026926 -0.00142606 
-0.00233356 -0.00443269 0.0128653 
-0.0150872 -0.00133416 0.0712429 
-0.0170623 -0.00953726 0.0722832 
-0.0101656 -0.00225982 0.0779891 
-0.00901537 -0.0029699 0.0511567 
-0.000332626 0.000343054 0.0373712 
3.26545e-05 -4.67661e-05 0.0191587 
-0.00160946 0.000699793 0.0261547 
-0.000996352 0.000478145 0.0231103 
-0.0160537 -0.0109159 0.0735222 
-0.0196391 -0.0226182 0.0781445 
-0.0173651 0.00536081 0.0700879 
-0.0220595 -0.00725006 0.101153 
-9.76754e-05 8.60122e-05 -0.000299178 
5.86928e-05 -0.000245208 0 
0.000102906 0.000295586 0 
-0.000163614 -0.0007058 0 
0.000123911 0.000375039 0 
-0.000188522 -0.000372095 0 
0.000345238 0.000251682 -0.000161385 
0.000405466 0.00039643 0 
-0.000382887 0.000193209 0 
0.000404227 -0.000499869 0 
0.000227591 -0.000434532 -0.00022734 
0.000568832 -0.000157494 0 
-0.0111741 -0.0113133 0.0193302 
-0.0020677 0.00101081 0.00275542 
-0.000610415 -0.00190636 0.00361226 
-0.00756335 -0.0022793 0.0059087 
-0.00258527 0.00877009 0.010493 
0.000153 -0.000466753 0.000599109 
-0.00170189 0.00145942 0.00251793 
-0.00240755 0.00935702 0.00578481 
4.36588e-05 -3.75714e-06 0.000191922 
-5.95395e-05 5.12378e-06 0.000183906 
0.000313473 -2.69765e-05 -0.00111086 
-0.00125104 0.00134969 0.0202054 
4.81927e-05 -1.11397e-06 9.76879e-05 
-0.000137622 -0.000474499 -0.000190173 
-0.000326255 0.000310946 7.10586e-05 
0.00106438 -0.000728813 0.000306015 
-0.00010675 0.000111055 5.8366e-05 
1.69746e-05 -9.4454e-06 0.000196449 
7.45096e-05 -6.13655e-05 0.000363735 
0.000330789 0.000227303 0.0241075 
0.000239299 -5.39573e-05 0.014532 
-8.41107e-05 -8.9573e-05 0.0312958 
-0.000144892 -8.41903e-06 0.0190637 
-0.00128027 0.0011434 0.0263578 
-0.000111257 -9.10184e-06 -7.23081e-05 
-0.000680506 -5.24974e-05 -0.00135298 
0.000179737 1.53593e-05 -7.11647e-05 
-0.00130855 0.00186817 0.0181875 
0.000825031 -0.000309199 0 
0.000265833 0.000443681 0 
0.000754348 -0.000317506 0 
0.000189544 0.000277323 0.000991408 
-0.00633407 0.0129565 0.0121924 
-0.00965055 -0.000578681 0.00703081 
-0.0210501 0.00856754 0.0418125 
-0.00396266 0.00304961 0.0104952 
-0.0124841 -0.00809346 0.0452648 
-0.0162032 -0.0105805 0.0718849 
-0.0173193 -0.000760941 0.0731992 
-0.00801985 -0.00283655 0.0501165 
-3.65481e-05 -6.76712e-06 0.000174677 
7.1253e-05 2.15621e-05 0.00049629 
2.28657e-06 -3.55876e-06 -0.000409102 
0.000681659 -0.000631568 0.0272951 
0.0160993 0.00913088 0 
0.0157472 -0.00874739 0 
-0.0210969 -0.000307498 0 
0.0371324 0.0224472 0.0342076 
2.2902e-06 -3.26413e-05 0.000197747 
-1.52348e-06 2.17135e-05 5.29506e-05 
5.76306e-05 1.09943e-05 0.0212903 
3.1142e-06 -4.43854e-05 -0.000135132 
6.75777e-05 3.88553e-05 -0.000155547 
-2.45891e-05 -2.27303e-05 -0.000180183 
1.73436e-05 5.32631e-05 0.0169064 
-0.000200468 -0.000119046 0.000357194 
0.000125503 -0.00171456 -0.000625922 
4.82997e-05 -0.000691273 -0.000514543 
7.65339e-05 -0.000896327 0.000917865 
-0.00266548 0.00342266 0.00232066 
4.58447e-05 -1.25593e-05 -0.000184879 
3.26501e-06 4.79608e-06 -0.000173079 
-0.000247075 8.91382e-05 0.000393572 
-5.51066e-06 -0.000111974 0.0187581 
-0.00048999 -3.15628e-05 3.8741e-05 
-0.0008728 0.00150753 -0.000945876 
0.000323147 0.000331365 -0.000802782 
-0.00306632 -0.00121178 0.00261022 
-0.000237867 9.96085e-05 -0.000136386 
-0.000127405 0.000250068 -0.00010186 
0.000155843 -6.72474e-05 1.48348e-05 
-0.000133246 5.36858e-05 -0.000155608 
0.00929524 0.0631066 0.391716 
0.0324572 -0.0254039 0.132006 
-0.00447748 -0.030127 0.225288 
-0.0853044 -0.120092 0.159842 
3.75166e-05 -2.81945e-05 0.0380229 
-3.70088e-05 0.000149314 0.0197288 
-0.000110466 -0.000309133 0.0360383 
0.00102786 -0.00161884 0.0246068 
-0.00149807 -0.00177951 -0.00572321 
0.00549824 0.0076897 0.0107571 
-0.000247009 -0.00115985 -0.00156655 
0.00233702 0.00556605 0.0145853 
-0.000117003 -0.000361227 1.46638e-05 
-0.00149464 -0.00073399 -0.00134259 
0.000208901 -0.000228831 0.000498396 
0.00421767 -0.00449409 0.00343354 
-0.000129381 3.23376e-05 0.000430223 
0.000366941 -9.83777e-05 8.88614e-05 
0.00045129 -0.00011366 -0.00133082 
0.00217241 0.00106788 0.0231178 
0.000392166 0.000157339 -0.000162719 
1.96369e-05 -2.53754e-06 -0.000539932 
0.000132366 8.22666e-05 0.00143386 
-0.00497366 -0.000365506 0.000734981 
0.00150455 0.0016113 -0.00132806 
-0.00450218 -0.00197306 0.0219061 
0.00104501 0.000241184 -0.00024668 
-0.00535007 -0.00426584 0.0155867 
-4.08502e-05 -2.53148e-05 0.0214127 
0.00102833 0.00113545 0.0245935 
0.000263539 0.000571677 0.0387297 
0.000813511 0.0005015 0.0223554 
-4.68458e-05 2.45591e-05 0.0269955 
2.71661e-05 -7.9617e-06 0.0181748 
0.000243298 -0.000151631 0.00038587 
4.76813e-05 -1.86744e-06 4.41339e-05 
-0.01333 -0.0373375 0.0561187 
0.0653248 0.0105344 0.0234869 
0.0126427 -0.0650201 0.113052 
0.0487436 -0.0283724 0.148893 
-0.000105631 -0.000159565 -2.5231e-05 
-0.000207326 -0.000315181 -8.9902e-05 
0.000205209 0.00028893 -0.000377036 
-0.000535364 -0.00105664 0.000756147 
-0.000769289 6.55304e-05 0 
0.00256433 0.000424517 0 
0.00161587 -0.00068336 0 
-0.00761205 -0.000702371 0.00242167 
3.00884e-05 0.000126332 0.000250403 
-0.000304583 -1.34595e-05 0.000226103 
5.01853e-05 -0.000178813 0.0225187 
0.00102411 -0.000646045 0.0272959 
0.000132317 -0.00026975 0 
-0.000101291 7.00801e-05 0 
-0.00021815 0.000213919 -0.000112265 
-0.000142532 0.0005215 0 
-1.30818e-06 -1.86449e-05 6.81013e-05 
-3.36713e-05 -0.000479904 5.65884e-05 
-5.31275e-06 -7.57206e-05 0.000394138 
0.00074982 0.000480183 -0.000526995 
0.000442954 -0.000292306 0 
-0.000239541 0.000247769 0 
0.000319552 -0.000309343 0.000179344 
0.00020875 -0.000128114 0 
0.000864662 -1.9398e-06 0.000183187 
0.000763654 -7.12043e-05 -0.000187406 
-0.000781677 8.58879e-05 -0.000439729 
-0.000913465 0.000483149 0.000281056 
3.30193e-05 4.81615e-05 0.018201 
-3.42948e-05 1.14149e-05 -0.000103311 
0.000194484 -7.13524e-05 0.00031006 
-1.53711e-05 4.32592e-06 -7.92324e-05 
0.00119141 5.61026e-05 0.000114847 
0.00145605 -0.0016257 -0.00107803 
0.000515251 -0.000346394 4.23675e-05 
0.00365012 0.0035201 0.00387767 
0.000113548 -5.36524e-06 0.000103924 
-8.04424e-05 -8.6029e-06 0.0179779 
8.97458e-05 0.000100967 0.0277009 
8.62686e-06 -0.000126815 2.94231e-05 
-0.000671536 -0.000396023 -0.000614225 
-0.000140502 -0.000519629 -0.000116279 
-0.000538904 -0.00035138 -0.00082515 
0.00264331 -0.00440934 0.00459708 
-1.72776e-05 7.86363e-05 0.0399116 
-0.00273202 -0.00373321 0.0500894 
0.000677836 -6.45767e-05 0.046729 
-0.00151941 -0.00162213 0.0290247 
0.0001596 0.000715412 -0.00174601 
6.8741e-05 0.000254216 0.000327336 
0.000106643 0.000417385 4.73958e-05 
-0.00144331 0.00203146 0.0105701 
0.0148162 0.0352295 -0.0375716 
0.0454577 -0.121576 0.150617 
0.0497881 0.029137 -0.0193755 
0.0419207 -0.0124208 0.066114 
-0.00289208 -0.0014641 0.0010997 
-0.0046885 -0.00172845 0.0121998 
-0.00996893 -0.00682551 0.0218784 
-0.00246874 -0.00274898 0.0100698 
-0.000299654 0.000710505 0 
-0.000717086 -0.000199456 0 
-0.000732028 -8.21162e-05 0 
-0.00082283 0.00202144 0.00116528 
-0.000734033 0.000321228 -0.000394984 
-0.000147364 -8.06969e-05 0.000162628 
-0.000706374 0.00142753 -0.000607079 
-0.00322963 -0.0022036 0.00199106 
-0.000164104 0.0001688 -0.000750479 
1.92695e-06 -1.15564e-06 0.00151471 
-0.000788463 0.00081285 -0.000285092 
0.000384168 -0.00174712 0.0101169 
0.000190805 8.22724e-05 5.58249e-06 
-4.90874e-05 -1.84588e-05 -0.000103493 
-0.00014466 -6.61739e-05 0.000138975 
9.3943e-05 2.46067e-05 0.0174996 
-0.000127769 0.000173042 0.000341212 
5.6927e-05 -6.30627e-05 -0.00161843 
-0.000389606 0.000538722 -0.000115682 
0.000470193 0.00187173 0.0137204 
4.50104e-05 -0.000982067 0.000190445 
-0.00247977 0.004872 0.00502061 
0.000659816 -0.0013108 -0.00131693 
-0.00244413 0.00497796 0.0116627 
-0.000275394 -5.92356e-05 -0.00016522 
0.000224142 3.37881e-05 0 
-0.00012069 -0.000224615 0 
-0.000163767 -0.000167614 0 
0.000311913 -0.000442432 0 
0.000114889 0.000482787 0.000215312 
-0.000257639 -0.000143838 0 
0.000306343 0.000146101 0 
-0.000493776 -0.000500255 -0.000311514 
6.82082e-05 8.71508e-05 0.000639857 
1.93991e-05 9.42547e-06 -0.000326002 
-6.3732e-05 0.00061495 0.000961129 
-0.000179829 -0.000747399 -0.0014147 
-4.83366e-05 -0.000183233 -0.000222184 
3.48862e-06 4.44498e-05 0.000295498 
0.00139396 -0.00278619 0.0229436 
0.00303033 0.000787055 -0.00126806 
-0.00602744 -0.00179849 0.0233387 
-0.00353608 -0.00464908 0.0212324 
-0.00455296 -0.00493298 0.0142098 
0.00643853 0.011794 0.158439 
0.00312681 -0.0100145 0.169788 
0.0163174 0.00467431 0.101235 
0.0483158 0.0349311 0.16178 
-0.000145239 0.000751951 0.0586379 
-0.00014926 -4.82528e-05 0.075022 
0.000146684 -0.000569404 0.0609989 
-0.00373452 -0.000826131 0.0570702 
-0.000107226 -0.00126365 -0.000585863 
-6.87938e-05 -0.000688172 0.000477673 
8.24903e-06 8.98064e-05 -6.51833e-06 
0.00222385 0.000611651 0.0175423 
-3.54796e-05 -0.000112149 0.000741855 
-7.83021e-05 -0.00184827 -0.00110649 
-0.000142832 0.00215258 0.00026812 
-0.00131309 0.0034267 0.00265849 
7.85032e-06 0.000131434 0.0173482 
-0.000222176 -0.000286254 0.03514 
0.000210737 -0.000104591 0.0208397 
-0.00126927 -0.00086884 0.0230397 
9.9049e-05 -0.000223294 0.000328272 
6.38093e-05 0.000177008 0.0193921 
-0.000166368 -6.87168e-05 -8.94067e-05 
0.000446333 0.0008541 0.0247964 
-0.000109474 0.000253451 0.000526198 
2.33666e-05 -0.000105949 -0.00109896 
0.000164668 -0.000303581 0.00068615 
0.000653635 -0.00425064 0.00225845 
-0.000103602 -0.0015531 -0.0010283 
-7.11361e-05 -0.00071505 0.00133385 
-4.96317e-05 -0.000799759 -0.00081618 
0.00296622 0.00315904 0.00550671 
0.0563054 -0.0113054 0.270346 
0.00745661 -0.0292721 0.286653 
0.00745956 0.0225595 0.257317 
-0.0397743 0.0232545 0.229747 
-0.000331168 0.000544874 -0.000209004 
7.35694e-05 -0.000654494 0.000115752 
-0.000436588 0.000269666 8.31072e-05 
-0.00107499 0.00203886 -6.34898e-05 
-0.000196438 -9.09558e-05 0.000168106 
-0.00011209 -8.26751e-05 -0.00111189 
0.000184309 0.000116305 0.00105759 
0.00393264 0.0003112 0.00326701 
-3.20174e-05 2.26688e-06 9.33046e-05 
-0.000177586 0.00100406 -0.000244603 
-2.23259e-05 1.58071e-06 -1.61458e-05 
0.000798255 -5.65176e-05 0.000639221 
0.000108938 -0.0007049 4.20244e-05 
0.000273342 -0.000151242 -0.000352273 
0.000547421 -0.000244447 -0.000555962 
0.000382545 -0.00352424 0.00128352 
-8.71754e-05 -3.75705e-05 3.33636e-05 
-1.46821e-05 9.99084e-08 -0.000640884 
0.000194411 7.57576e-05 0.000733145 
0.000713847 -0.000391513 0.0241818 
-0.000591849 -0.000448278 -0.000623087 
-0.000646542 0.000192316 -0.000672092 
0.000128252 0.000184884 -0.000170001 
0.00146963 0.00438547 0.00343292 
-1.20996e-06 2.09137e-06 0.000421986 
9.40114e-05 -0.000138864 -0.000727282 
0.000160792 -0.000236638 -6.63508e-05 
-0.000523599 -0.000850599 0.0246126 
-0.000226159 -0.000189427 0.000233501 
-0.000254306 -0.000354311 0 
0.000185957 0.000458108 0 
-0.000115393 -0.00026677 0 
-0.000171364 0.00017129 0 
1.04379e-05 0.000244283 0 
0.000107072 -0.000140498 0 
-0.000193493 0.00016127 -7.24599e-05 
-4.64242e-06 6.55697e-05 9.91605e-06 
-1.14904e-05 0.000162291 0.000175994 
2.33893e-05 -0.000208689 0.0241726 
1.01487e-05 -0.00014334 1.06227e-05 
-0.0205485 0.00377439 0.255643 
0.00580915 -0.0542136 0.179068 
0.0587284 -0.0724259 -0.0268158 
0.0164735 -0.0186759 0.206973 
-3.14582e-07 -4.57444e-06 4.31849e-06 
7.15777e-08 1.04083e-06 -6.96496e-05 
-4.56568e-05 3.44017e-05 0.0230119 
1.88176e-06 2.73633e-05 8.25353e-05 
0.000399009 -0.00012588 -0.000372393 
-0.000222093 0.000574375 -0.00055311 
0.000677136 -0.000651851 0.000469237 
-0.00104477 0.000971946 0.000340233 
-3.73357e-05 0.00054291 0.000131205 
1.28761e-06 -1.87235e-05 0.000168731 
5.22921e-06 -7.60396e-05 -0.000255326 
0.000315083 0.000493338 -0.000237192 
-0.0001096 7.68983e-06 0.0003377 
-0.000842083 5.90828e-05 6.8951e-05 
0.000137059 -9.61641e-06 0.000317 
7.23892e-05 -0.000996539 -0.000451808 
-3.41616e-07 4.87633e-06 -0.000178282 
0.000435953 -0.000186462 -6.98529e-05 
-0.000195823 8.81791e-05 -0.00013538 
0.000142672 -0.000411234 9.81306e-05 
-0.0148259 -0.0212549 0.0226016 
-0.0263938 -0.0419226 0.0740273 
-0.00861225 -0.0230565 0.0204696 
-0.0132772 -0.0157715 0.0335323 
-3.74237e-05 0.000178376 0.0180316 
-9.17629e-05 -0.000154865 0.0001803 
-6.12105e-06 -9.29709e-05 8.17919e-05 
0.000139109 0.000950973 0.0242116 
0.000194154 0.000119732 0.000223725 
2.64769e-06 6.81026e-06 -0.000139628 
-9.8263e-05 -6.33487e-05 -3.74026e-05 
6.09802e-06 -7.58686e-05 0.0180998 
0.00917304 0.0296296 0.041423 
-0.0120114 -0.000257627 -0.00839051 
-0.000617473 0.0282971 0.0515072 
-0.0019075 0.00554999 0.00504234 
-0.00058328 0.000191729 0.0856166 
0.000609947 0.000447519 0.0836644 
-0.000505897 -0.000238029 0.0767308 
0.000418654 -0.00318018 0.0818946 
-0.0134157 -0.0105864 0.045881 
-0.00406102 -0.00409132 0.0195179 
-0.00575527 0.000860277 0.025427 
-0.00480143 -0.00664409 0.0125947 
5.50431e-05 1.11421e-05 -5.90221e-05 
0.000110126 0.000110425 9.40414e-05 
-3.17351e-05 -6.39633e-06 0.0199394 
4.87754e-05 -5.20283e-05 0.018169 
-0.0117674 -0.045633 0.108067 
-0.0391176 -0.00641519 0.201283 
-0.0129823 -0.0148395 0.186608 
0.00486061 -0.06599 0.128925 
0.000152139 -8.09953e-05 -0.0002839 
6.10424e-05 -3.01806e-05 -2.29755e-05 
1.68524e-05 3.3546e-07 0.000333841 
0.000826426 0.00082379 0.0258533 
-0.000346083 0.000508156 0.00014439 
-9.48235e-05 0.000133661 -0.00068597 
-0.000257471 0.000385015 0.00101538 
0.000208376 -0.00290955 0.0197918 
0.000394186 -0.00241461 0 
-0.00172893 0.00012183 0 
0.00079865 -2.36713e-05 0 
-0.0035442 0.000454902 0.000863625 
-4.85577e-06 -3.43795e-07 7.64762e-05 
6.73167e-06 -5.83738e-06 0.022173 
-3.0216e-05 -2.13933e-06 4.39198e-05 
1.60867e-05 1.13896e-06 -4.42877e-05 
0.000472085 -0.000647646 -0.00017951 
4.80968e-05 -6.56797e-05 -0.000497565 
0.000200265 -0.000275493 0.00111084 
-0.000725767 0.00293141 0.0145593 
0.0174827 -0.0181616 0.219555 
0.00222614 0.0316723 0.113317 
0.000603092 0.0611077 0.136317 
0.00967793 0.0470421 -0.0947646 
0.000123417 -9.25728e-05 0.000462015 
-0.000691555 0.000505349 0.000152867 
-1.12161e-06 4.74716e-06 -0.000804854 
-0.00083623 0.000105355 0.00912207 
-0.000614121 0.000757635 0 
0.000113418 -3.96148e-05 -0.000449237 
0.000378615 -0.000198151 0 
-0.000749419 0.000233935 0 
0.000679042 -3.95996e-05 -0.00113791 
0.00095484 -7.31335e-05 0.000183584 
-0.0011772 0.000100648 -0.00129781 
6.2588e-05 0.00361779 0.010603 
-2.20419e-05 -5.86235e-05 -0.000288578 
6.71929e-06 2.68215e-06 0.000251893 
-7.44256e-05 -0.000297057 9.52532e-05 
0.000779689 -0.000591967 0.027041 
0.000137655 1.00782e-05 0.000187159 
0.000964409 7.06078e-05 0.000461347 
-0.000110077 -8.05911e-06 -5.58326e-06 
6.97119e-05 -0.00108501 -0.000151604 
0.0259585 0.041334 0.21442 
0.00861661 -0.0202478 0.250471 
0.0150388 0.00611561 0.205125 
-0.0239884 -0.00566695 0.212559 
-0.00018935 3.4565e-05 0.0213726 
1.87103e-05 -2.07184e-05 -0.00011958 
-9.71478e-05 -0.000136938 1.29397e-05 
2.56168e-05 2.36355e-06 0.0150376 
-0.0175857 0.036932 0 
0.021677 -0.0323089 0 
0.0229486 0.024759 0 
0.0981569 -0.106614 0.125491 
-3.90058e-05 6.5664e-05 0.0152084 
1.48442e-05 -1.07679e-07 -0.000148689 
9.28602e-05 0.000216313 0.000155615 
-2.05085e-05 1.24389e-05 0.018819 
-1.66099e-05 -2.26736e-05 -0.000200774 
5.17993e-05 -2.67332e-05 0.0185366 
-8.73674e-05 -0.000244295 0.000410724 
2.56226e-05 7.13862e-05 -0.000117414 
0.000234519 0.000184756 0.0511713 
0.000106103 0.000408978 0.0683605 
-0.000402175 -0.000445528 0.0539364 
-0.00230779 0.00269465 0.0475667 
0.0151557 0.00743469 0.0105874 
0.0138931 0.0291862 0.0318018 
0.00169263 0.0293042 0.0483234 
-0.00628501 0.00126518 0.00811486 
-0.000205804 0.000146353 0.0374761 
-0.000348172 -0.00014796 0.0547254 
0.000110577 8.08837e-05 0.0582429 
0.00341878 -0.00412044 0.0542988 
-0.000246883 -6.96494e-05 0.0358105 
-0.000245736 -8.62041e-05 0.0395901 
0.000227139 4.37272e-05 0.0205573 
-0.00125563 -0.00117983 0.0225629 
0.000124181 0.000174198 -0.000513185 
-6.34555e-05 -8.97225e-05 0.00029473 
0.000170951 0.000229852 -0.000250296 
8.66909e-05 0.000580248 0.000745927 
0.00457544 -0.00282306 0 
-0.000327061 -0.000646925 0 
0.00356488 0.000168848 0 
0.000326442 0.00342084 -0.00305916 
-1.42861e-05 7.62495e-06 4.91186e-05 
-1.40494e-05 1.50391e-05 -0.000159492 
-5.40324e-05 3.6943e-05 -3.75536e-05 
-0.00010745 -7.22024e-05 -3.70348e-05 
-5.57469e-05 -0.000664538 -0.00034128 
-4.89814e-05 -0.000583889 0.00117296 
-4.98008e-05 -0.000593657 -0.00214873 
-0.00269187 0.0035497 0.0126034 
0.0330702 0.00065376 0.0450334 
0.00224034 -0.0151329 0.0135361 
0.0291078 -0.0129362 0.030255 
0.00617289 0.0112593 0.00479682 
0.00935462 -0.00824381 0 
-0.00708796 0.0017323 0 
0.0114812 0.00271797 0 
-0.0407072 -0.00448938 0.00279843 
-3.30875e-05 -7.88899e-05 0.0194254 
0.000200293 6.35767e-05 0.0211531 
-0.000148753 0.000124653 0.0346128 
-0.00127962 0.00130182 0.0285417 
0.000619115 0.000823476 0.00138245 
-0.00257928 -0.0043079 0.0188633 
0.00135432 -0.000771101 -0.00193314 
-0.00355981 -0.00479489 0.012551 
0.00184841 0.0018418 -0.00470638 
0.000119193 -0.000236189 0.000255659 
-0.00228193 -0.00583717 0.00532104 
-0.00368868 -0.00661736 0.0107613 
0.00235153 -0.00430407 -7.90237e-05 
-0.0029802 0.00850156 0.00183587 
0.00299325 -0.00610829 -0.000702164 
-0.00231544 0.00792982 0.00234111 
0.00470818 0.0039875 -0.000511912 
0.0141918 -0.0154094 0.0125583 
-0.007539 0.00820128 -0.0210623 
0.0526708 -0.0110605 0.0453662 
-0.000581332 -0.000192107 0.0392676 
-0.00129866 -0.00124595 0.0295121 
0.000266839 3.84918e-05 0.020804 
-0.00103129 -0.00110611 0.0227441 
-0.000855369 -0.000232976 0.00100219 
0.00058593 0.000162381 -0.00138045 
0.000240177 6.68332e-05 -0.000633481 
0.00453023 -0.00182277 0.018317 
-0.000230514 -0.000125591 0.0204323 
9.75365e-06 1.25546e-05 0.0180681 
8.14151e-05 0.000219334 0.0326289 
6.63464e-05 0.00117499 0.0245398 
-0.000530761 -0.000515516 0.0726426 
0.00060897 0.000448616 0.0836913 
0.000460061 -0.000425546 0.0782199 
-0.00328901 -0.0021453 0.0807397 
-0.000189366 -5.55263e-05 0.000211597 
-0.000106917 4.96266e-05 -1.98329e-05 
0.000143899 7.55217e-06 0.0168008 
0.000707884 0.00065575 0.0249018 
0.0011241 -0.00101864 -0.000481433 
-0.000288632 -0.000484252 -0.000820523 
0.000381264 8.09728e-05 0.000157742 
0.00411782 0.00153469 0.00381453 
0.000279384 -0.00116143 -0.00202786 
-0.000174296 0.000795793 -0.00081189 
6.98889e-06 -3.17065e-05 2.66308e-05 
-0.00270842 -0.00413674 0.00867149 
4.43173e-05 7.38502e-05 0.0209754 
-0.000161727 -0.00010364 0.0391592 
8.07529e-05 0.000114372 0.0183489 
-0.0012741 -0.00127573 0.0294574 
5.93325e-05 8.96339e-07 0.044803 
-8.8061e-05 -3.03253e-05 0.060699 
5.45169e-05 -0.000385778 0.0433023 
-0.00366156 -0.00122684 0.0569069 
-0.000321899 0.000465743 -1.0646e-05 
9.28499e-05 -0.000125746 -0.000205242 
0.000280927 -0.000389669 -0.000397701 
-0.00139315 0.00164641 0.00069055 
-9.60966e-05 -0.000248315 4.13295e-05 
0.000155895 0.000360668 -0.000363048 
-7.37447e-05 -0.00018165 0.000124734 
-0.000310478 -0.00121484 0.000536081 
0.0261378 -0.0364482 0 
0.00669864 0.0533632 0 
-0.00262135 -0.0426765 0 
0.087337 0.112594 0.123047 
0.000232585 -0.000186483 0.0356602 
2.39297e-05 0.000150957 0.0224479 
-0.00050868 -0.000196457 0.0429884 
-0.00118645 -0.00130608 0.0255094 
-3.07217e-05 8.88262e-05 0.0195334 
4.58255e-05 9.29967e-06 -9.50404e-05 
7.31596e-05 0.000116169 5.32459e-05 
8.83383e-06 -2.97754e-05 0.0179101 
4.80817e-05 -1.51962e-05 0.016608 
-0.000108808 0.000133138 0.0353165 
-8.96861e-05 -0.000187035 0.0213635 
-0.00122085 0.0011745 0.0259849 
-0.00225241 -0.000271683 0.00140962 
-0.000158268 0.000231727 -0.0024644 
0.00481492 0.000165323 0.0160807 
0.00519611 0.00112461 0.00769378 
-0.000386915 -0.00010689 0.0770585 
0.000296778 0.000133888 0.0836254 
0.000374864 -0.00043316 0.0725471 
0.000652565 -0.00296322 0.0814722 
-2.95731e-05 -3.84961e-05 0.0238146 
-0.000173556 0.00011505 0.000257355 
-1.32335e-05 9.94163e-06 -0.000145092 
-4.46532e-05 -5.39664e-05 0.0188137 
0.000128183 -9.57571e-05 0.000248014 
4.00464e-05 -2.42706e-05 -0.000120291 
-8.35983e-05 6.01572e-05 -8.14036e-05 
-0.000120324 2.71169e-05 0.0186579 
0.0119052 -0.0246339 0.171909 
0.00420167 0.0230797 0.256776 
-0.000217646 -0.0320114 0.0908047 
-0.0452521 -0.100102 0.0646858 
-0.00135109 0.000921341 0 
0.0030983 -0.000126554 0 
-0.00187367 -0.000769336 0 
0.0086089 0.00216939 0.00260671 
-4.81604e-05 -3.83322e-05 0.0320369 
0.00102498 0.00108277 0.0219298 
0.000132804 -0.000129932 0.0394076 
0.00205684 0.00255015 0.0436187 
5.93591e-05 -5.82605e-05 -6.04297e-05 
0.000119867 2.38411e-05 8.27497e-05 
-4.26643e-05 1.84643e-05 0.0207885 
-5.44589e-05 -6.75727e-05 0.0188339 
0.00027743 0.000110559 -7.66577e-05 
0.000422861 0.000166891 -0.000184535 
-0.000351097 -0.000138724 0.000146683 
0.000453005 0.000341308 -1.98013e-05 
-0.000401256 -0.000147253 -0.000638048 
-0.000133654 -5.42995e-05 6.2743e-06 
0.000236291 9.23462e-05 0.000141066 
-0.000129762 -0.000675945 -0.000107555 
-0.000134922 0.000344337 0.000190974 
0.000333928 -0.000469174 -0.00017362 
0.000137247 -0.000350392 -0.000196332 
0.000219621 -0.000545682 -6.07872e-05 
-0.000173612 3.61371e-05 0 
4.63382e-05 -0.000395625 0 
-8.95624e-05 0.000206728 0 
-0.00100486 -0.00206419 0.000824347 
0.0320486 -0.000957744 0.235419 
-0.00170554 -0.0635436 -0.00986417 
0.015349 -0.0488298 0.114229 
0.0409862 -0.00686086 0.195911 
7.40745e-05 0.000108932 4.50086e-05 
-9.55095e-05 -0.000137614 1.07868e-05 
3.91934e-06 1.14879e-06 -0.000109466 
2.38403e-05 0.000105024 0.0149796 
6.2592e-05 0.000164021 0.0404135 
-0.000196125 4.92747e-05 0.035189 
0.000148195 -0.000212652 0.0207172 
-0.0011801 0.00165889 0.0284306 
6.87949e-05 -0.000104465 -0.000649167 
-0.00020114 0.000264121 4.78535e-06 
4.19343e-05 -4.90499e-05 0.00027467 
0.000235473 0.000575028 0.0237214 
-2.92085e-05 -8.40697e-05 0.015401 
4.3571e-05 4.30753e-05 0.0241008 
-3.42163e-06 0.000172331 0.000191593 
-6.56614e-05 3.76298e-05 -3.35621e-05 
0.0473589 0.0457528 0.0719057 
0.0542483 0.0100983 0.13975 
0.0240566 -0.0485355 0.0515336 
0.0160561 0.0245438 -0.00529021 
0.000106058 -0.000126731 -0.000313132 
0.000143853 4.27945e-05 0 
-0.000646094 -0.000235245 0 
0.000143719 -1.091e-05 0 
-0.000535128 0.000269005 0.000362737 
0.000714133 -0.00040464 -0.00145674 
0.000298122 -0.000151221 -0.000230988 
-0.0043718 0.000853401 0.0104299 
0.000589538 0.000331012 -0.00177344 
-0.000887849 -0.000468929 0.00150999 
0.000358616 0.000184137 -0.000403025 
-0.00322883 -0.000524567 0.00354617 
-9.60715e-05 -0.00054912 0.0563625 
-0.000130662 0.000242945 0.0649129 
-0.000364847 -5.21002e-05 0.0427214 
0.00437489 -0.00070237 0.0550888 
0.000320386 -0.0224261 0.261534 
0.0600007 0.00887491 0.125693 
-0.00223324 0.00190166 0.228538 
0.00950141 0.00104022 0.165425 
-0.0247226 -0.0258328 0.110177 
-0.0222468 -0.0246961 0.0751586 
-0.0175105 -0.00897861 0.0657857 
-0.0191144 -0.0063785 0.107415 
0.0165327 -0.0276403 0 
-0.00455884 0.0251101 0 
-0.0118569 -0.0252061 0 
0.0843264 -0.0948629 0.119331 
-1.73985e-05 4.00159e-06 6.69686e-06 
6.54799e-05 -3.17065e-05 0.0275694 
0.000142059 -2.8675e-05 0.000180775 
-6.81714e-05 1.45655e-05 -3.93503e-05 
0.000100801 0.000261503 0.000235106 
-5.1117e-05 -0.000126162 -4.35693e-05 
4.78685e-06 -1.00126e-06 -0.000146264 
-6.9155e-05 1.84034e-05 0.0151341 
0.0213341 -0.0213027 0.238337 
0.0206651 -0.082559 0.0604627 
0.023621 0.00430223 0.14579 
0.0208615 0.00189198 0.154751 
0.000591055 0.0017734 0 
0.000737632 -0.00292413 0 
-0.00121751 0.00103393 0 
0.0035313 -0.00722638 0.002489 
0.00278062 0.000208184 0 
-0.0114835 0.00335383 0 
0.00826423 0.00346839 0 
-0.0242476 -0.0145857 0.0140587 
0.000135926 9.62374e-06 2.77944e-05 
-0.000128599 -9.10502e-06 -7.87561e-05 
7.49266e-05 5.30491e-06 0.000196105 
-6.42945e-05 -1.98993e-05 0.0204511 
8.63268e-08 0.000138416 0 
-0.000198363 5.77249e-05 0 
-7.77497e-05 -9.48695e-05 0 
0.000357134 0.0003075 3.06736e-05 
0.0205133 -0.0760216 0.221551 
0.0156539 -0.058736 0.153543 
0.00660181 0.0316268 0.393766 
0.0451246 -0.0544959 -0.0655209 
-0.000153928 7.85232e-05 0.000355193 
-0.000188973 9.60009e-05 -0.000740329 
2.65919e-05 -1.32918e-05 0.000743811 
-0.00238329 -0.000362191 0.0120229 
0.000132558 0.00028364 -0.000345592 
5.81145e-05 0.000142584 0.000104016 
7.75196e-05 0.00023211 0.000726105 
6.29092e-05 -0.00148025 0.0266437 
3.24374e-06 3.86674e-05 -3.40757e-05 
2.15142e-05 0.000256463 -0.00226643 
-3.84423e-05 -0.000458257 -0.000152721 
0.00308961 -7.20588e-05 0.0172537 
0.0022926 -0.000187728 0 
-0.00231585 0.00262207 0 
-0.000421287 0.00136201 0 
-0.0014514 0.000484839 0.00311086 
-0.000201892 0.000155653 0.00011082 
-0.00041895 0.00031954 2.18872e-05 
0.0003007 -0.000242384 -0.000799943 
-0.00113494 0.000509697 0.00259701 
-8.82021e-05 0.000202345 0.0010741 
-0.000149433 0.000316636 -0.000609195 
0.000126915 -0.000292778 -0.00169601 
-0.000608546 -0.00359964 0.0188253 
-2.2913e-05 -0.00010583 -0.000184481 
-3.35524e-05 -0.000105608 0.000262599 
5.75893e-05 0.000244659 0.000233438 
-0.000399976 0.000804804 0.0253315 
0.00282615 0.0017576 -0.00204299 
-0.00536109 -0.00631295 0.00801225 
0.000593852 0.000763117 -0.000504824 
-0.00139333 -0.00465232 0.0102464 
0.000202611 0.000514881 1.5473e-05 
3.27912e-05 1.3156e-05 0 
-1.37627e-05 -0.000239749 0 
0.000210502 6.76692e-05 0 
-0.000812451 -2.23016e-05 0 
-0.000349149 0.000500948 0 
0.000422679 -0.000618707 0 
0.00353601 0.000894645 0.0010374 
-0.000360252 -2.49036e-05 -0.000432119 
0.000207836 -0.000290073 0 
-0.000454082 0.000972407 0 
-0.000335113 -2.99193e-05 0 
0.000277875 0.000255076 0 
1.26448e-05 -0.00015324 0 
0.000261742 0.000125145 0 
4.56885e-05 0.000101003 -0.000398194 
0.000876876 0.00451946 0 
0.00300497 0.00517907 0 
0.000567403 -0.000753687 0 
-0.0189336 -0.0204176 0.00380694 
-8.02906e-05 0.000316624 0.000478802 
1.14776e-05 -8.86266e-05 -0.000456556 
-0.000220621 0.000770025 0.000420772 
0.000269327 0.00231157 0.0206844 
-0.0128616 0.0126839 0.0550688 
-0.00962549 0.00907157 0.0406903 
-0.018833 0.0187427 0.0649976 
-0.0129465 0.0126257 0.0310645 
-0.0156841 -0.00458207 0.0497659 
-0.00882595 -0.0311296 0.0256539 
-0.0213144 -0.0281969 0.0701818 
-0.0130432 -0.0165919 0.0343285 
5.19443e-05 -0.000636735 0.00158275 
-2.2022e-05 0.000269946 0.000581208 
-1.70794e-05 0.00020936 -0.000529906 
0.00204276 0.00162416 0.00497966 
-4.9552e-05 -5.88681e-05 0.0376674 
9.16631e-05 4.11494e-05 0.0186953 
0.000163023 0.000121579 0.0318275 
-0.00182838 0.000876383 0.0263362 
0.0385905 0.0182055 0.0655775 
0.02944 -0.0150741 0.0438328 
0.00770006 -0.0541958 0.0598836 
0.0438845 0.00267819 0.134654 
-0.000628526 -0.000216837 -0.0010305 
0.00397907 0.00518586 0.00808173 
-0.000806255 -0.000466559 -0.00410766 
0.00479926 0.0028889 0.00769574 
0.000896734 0.00101796 0 
0.000612632 0.00337679 0 
-0.00335202 0.00158877 0 
0.00555548 -0.013094 -0.00175516 
0.000622054 -5.83583e-05 0.064919 
-0.00019443 -0.000180499 0.0781327 
-0.000584816 8.55201e-05 0.0611952 
0.000728206 0.00479781 0.0648999 
-0.000562684 -8.25994e-05 0.0685466 
8.32607e-05 0.000264048 0.0622057 
0.000608679 0.000126231 0.0771987 
-0.00180122 0.00374351 0.0757773 
-0.000181817 -0.000204726 0.000330843 
1.19315e-05 -1.64031e-05 0.0185139 
1.16061e-05 -6.56928e-05 -0.000122967 
3.57771e-05 1.57951e-05 0.0222263 
6.17236e-05 -0.000323884 0.0374756 
-6.92944e-05 0.000119852 0.0175817 
-0.000100104 -0.000104731 0.0203003 
0.00107619 -0.00111505 0.0244271 
-0.00173293 0.00260329 0 
0.00141714 0.00273636 0 
0.000222723 0.00094882 0 
0.00934516 -0.00701471 0.000656185 
-5.24562e-05 -0.000146534 0.0186109 
-4.44639e-05 -0.000147462 0.0330925 
3.95844e-05 0.000165881 0.0388422 
0.00139553 0.00130471 0.0247523 
6.4799e-05 0.000945197 -0.000491025 
9.18227e-05 0.0013448 -0.000727253 
6.02492e-05 0.000603737 0.00114062 
-0.00202192 -0.00113781 0.00278496 
0.000277416 -0.000729703 -0.000936616 
-3.64495e-05 0.000336489 0.000293808 
-0.000453535 -0.000410363 -0.000204289 
-0.0017607 0.0012305 0.00164689 
4.5063e-05 -0.000193993 0.0512085 
-8.26126e-05 0.000374679 0.0491556 
-0.000246186 -0.000253879 0.0342938 
0.0038477 0.00200011 0.051801 
0.000554983 0.0019874 0 
-0.00064872 -0.00176809 0 
-0.000514221 0.00212191 0 
-0.00139621 -0.00447692 0.00188231 
0.0229824 0.000633149 0.0458688 
0.0073032 -0.00140204 0.0182246 
0.00995535 -0.0109775 0.0127011 
0.00857116 0.00282545 0.004998 
0.000170417 -3.57949e-05 -0.000370441 
4.30685e-05 -1.25993e-05 0.00036289 
-6.79904e-05 1.41823e-05 0.000160468 
0.000123521 0.000630265 0.0243294 
2.16713e-05 -4.0863e-05 0.000147592 
-6.57988e-05 0.000168186 0.000270109 
3.9678e-05 -8.43604e-05 0.000114844 
9.89146e-05 0.000517708 0.0246258 
0.00142955 -0.00266972 -0.00740078 
8.91715e-05 0.00358355 0.00166384 
-1.32742e-05 0.0279706 0.0190231 
-0.00182854 0.0073239 0.00957827 
0.000218381 -0.000397872 0 
-0.000622335 0.000511184 0 
-0.000772349 -7.20868e-05 0 
0.00171533 -0.00115369 0.000266372 
0.00265409 0.000785098 0 
0.00593086 -0.000810516 0 
0.00104788 -0.00158838 0 
-0.00669821 0.00983721 -0.00197332 
0.000349209 7.49246e-05 -0.000183152 
-0.000267079 -5.6746e-05 0.000172884 
3.33141e-05 2.29637e-06 -0.000303195 
0.000416817 0.000238882 -0.000208386 
0.000294081 6.26474e-05 0.000180689 
-0.000204231 -4.64123e-05 4.56281e-05 
-0.000219137 -3.97132e-05 -0.000545086 
-0.000372945 -0.000430807 -0.000251741 
-0.00030626 0.000207837 0.0371973 
0.000108568 -0.000498575 0.0434033 
-8.2604e-05 0.000501195 0.0515156 
0.00377445 -0.00015158 0.0545741 
-0.000248482 -9.75487e-05 -0.000212531 
8.49554e-05 9.58131e-06 0.00128625 
-0.000488266 -0.000189269 -0.000540874 
0.00470065 0.000426934 0.00220215 
-0.000178063 -0.000129998 0.0233667 
0.000110283 -0.000117816 0.0359185 
3.4013e-06 4.4161e-05 0.0181951 
0.00120282 -0.00125061 0.0271003 
1.96735e-05 -0.000268714 -0.000650243 
-1.32687e-05 0.000181233 -0.000198025 
-1.1988e-05 0.000163741 5.65291e-05 
-0.000340731 0.00107571 0.00100605 
-5.16452e-05 -1.00697e-05 0.0320146 
-0.00013151 -3.91534e-05 0.0212535 
0.000222585 0.000170266 0.0389496 
0.000934757 0.000836019 0.0223348 
0.000157676 5.25785e-05 0.0623102 
5.4672e-05 0.000266951 0.0394905 
-0.000233175 0.000183023 0.0557445 
-0.00292553 -0.00432681 0.0510605 
0.00154947 0.000696031 0.0239793 
0.000585296 0.000860678 0.0219588 
0.00325077 0.0030294 0.0288158 
0.00270788 0.00330049 0.0438632 
-3.18707e-05 -3.66769e-06 0.000131508 
-2.87824e-05 -3.92062e-07 -0.000179724 
6.14959e-06 -3.44803e-06 0.000399399 
0.000667384 -0.000512264 0.0271159 
-3.79267e-05 1.05204e-05 0.000255487 
-0.00010868 3.46912e-05 0.00050008 
-6.17948e-05 3.83385e-05 -0.000665951 
0.000944927 0.000557573 0.0262562 
5.43337e-05 -0.000238582 0.0511348 
0.000209481 1.27679e-08 0.0660268 
-8.63133e-05 0.000391576 0.0491804 
0.00386737 0.00196735 0.0519583 
0.000227337 0.000139922 0 
8.36798e-05 -0.0011145 0 
-0.000356075 0.000123933 0 
-0.000368604 -0.00159516 0.000712164 
-0.0122814 -0.0108325 0.0477109 
-0.0192846 -0.0219829 0.0683235 
-0.0177567 -0.0097168 0.0715071 
-0.0137866 -0.0203963 0.0351063 
-1.59113e-05 -2.18694e-06 -0.00048793 
2.60241e-05 2.69517e-05 0.000470492 
-4.53748e-05 -0.000129951 0.000342186 
-0.000383536 0.000724059 0.02555 
-5.58585e-05 -0.000231559 0 
5.50649e-05 0.000145228 0 
-9.67328e-05 -9.70337e-05 -2.4868e-05 
-0.000102149 5.27381e-05 0 
-7.54474e-06 0.000204085 0.0396105 
-9.6595e-05 -0.000230217 0.0623428 
0.000591079 5.87321e-05 0.0464638 
-0.00268972 -0.00407288 0.0508827 
0.000207758 -0.000494042 0.0242706 
-3.80863e-05 -9.80554e-05 0.0178298 
-0.000187692 0.000193714 0.0375238 
-0.00103627 0.000568943 0.0233106 
-0.00879954 -0.00596338 0 
-0.0109081 -0.00147914 0 
-0.00852425 0.00691781 0 
0.0317546 0.0552213 0.0159516 
0.000328947 8.83085e-05 0.0433845 
1.93386e-05 0.000162664 0.0228857 
-0.000136449 -0.000241985 0.0225296 
0.0014322 -0.000644228 0.027387 
0.000321921 -0.00126006 0 
1.43082e-06 -0.00157002 0 
5.90577e-05 -0.000707462 0 
0.000223753 0.00957944 4.03978e-05 
0.031627 0.013822 0.00314741 
0.0380851 -0.00502364 0.05542 
-0.00178972 0.00678388 -0.0225522 
0.0140982 0.00260066 0.046353 
9.34003e-06 -3.46108e-05 0.022728 
-2.51155e-05 -3.80213e-05 2.12987e-05 
-8.05817e-05 -0.0001124 0.00012015 
-4.48692e-06 2.73027e-05 0.0229598 
-8.80657e-06 1.49145e-05 0.0212241 
-5.49845e-05 -0.000124196 7.90799e-05 
-7.88805e-05 -2.3662e-05 -6.96974e-05 
2.86555e-05 2.94055e-05 0.0203566 
-0.000241043 -6.30935e-06 0.0434542 
2.92987e-05 -0.000166955 0.0585794 
0.000191909 0.000442635 0.0558563 
0.00310534 -0.00306527 0.0470451 
-8.55225e-05 2.20888e-05 0.0182081 
-4.40789e-05 3.22718e-06 1.47563e-06 
3.24988e-05 -2.37935e-06 7.65733e-05 
-6.19891e-05 4.53845e-06 -5.1911e-05 
4.78035e-05 -7.82599e-05 0.000482684 
-0.000110845 0.000167297 -0.000317379 
-0.000391332 0.000571728 -5.06767e-05 
-0.000519927 0.00133131 0.000892305 
0.00128503 0.000494568 0 
-0.00548645 -0.00119108 0 
-0.00265164 0.00166516 0 
0.0122277 0.00776965 0.0033807 
0.00578797 0.0224714 0.273343 
0.00962772 -0.0173379 0.268544 
-0.0441305 -0.00673633 0.263234 
-0.0383622 0.0255549 0.216717 
0.00326341 0.00320612 0.0290921 
0.000539074 0.000634845 0.0216827 
0.00151055 0.00181089 0.0265554 
0.00268697 0.00322541 0.0437856 
0.000141072 -9.90824e-05 0.0188621 
0.000190386 0.000219274 0.0386085 
-2.90316e-05 8.71641e-05 0.0214725 
0.000980971 0.00118391 0.0247153 
0.000167417 -0.000158187 0.0358554 
-2.30859e-05 0.000206116 0.0224291 
3.13144e-05 2.58815e-05 0.0181888 
0.00111698 -0.0011942 0.027123 
-0.0247407 0.00411515 0.0488924 
-0.0363517 0.00581388 0.0546784 
-0.0104813 -0.0186301 0.0308529 
-0.01113 -0.00299125 -0.00597425 
0.0122899 -0.00285366 0.122178 
0.00376825 0.0177576 0.152153 
-0.010652 0.000537314 0.131586 
-0.0049682 0.0123508 0.108445 
2.29173e-05 0.000116416 0.0002474 
8.9673e-06 2.76797e-05 -0.00025805 
-1.69333e-05 -6.05091e-05 0.000323674 
0.000570622 -0.000606151 0.0271403 
-0.000131673 -0.000151662 0.0190634 
1.18548e-05 -0.000127649 0.0349466 
0.000133285 0.000242505 0.0336354 
0.00102768 0.00117507 0.0246282 
0.0364931 0.000120004 0.149604 
0.0400131 0.0863421 -0.0259643 
-0.00942364 -0.00827215 0.206722 
-0.00728242 0.0466085 0.160912 
9.53785e-05 -0.000320805 -0.00191824 
0.000115473 -0.000436879 0.000219401 
-4.68963e-05 0.00017117 0.000238941 
-0.000679692 -0.00356199 0.0199975 
-0.000459529 -0.000323047 -0.000209029 
0.000223685 0.000156809 0.000997847 
-0.000213424 -0.000149703 -0.000774042 
-0.00154483 -2.29034e-05 0.0030309 
1.67793e-05 7.2875e-05 0.000230491 
1.8885e-05 0.00012689 0.00129404 
2.65057e-05 9.40415e-05 -0.000121894 
-0.000707185 0.00275395 0.0110993 
-0.000175847 0.000284525 0.0675904 
0.000560475 -0.000325279 0.0810541 
-5.81624e-05 -0.000452867 0.0761411 
-0.00402199 0.00209451 0.0760314 
-0.000151952 0.00039741 0 
8.62928e-05 -0.00166237 0 
0.000230919 -0.000611239 0 
-0.000281878 -0.00181483 0.00172242 
5.79906e-06 2.97779e-06 0.000423549 
-1.67637e-05 -0.000333623 0.00103924 
-7.76277e-06 1.62651e-05 -0.000708016 
-0.00109525 0.00311152 0.0129617 
-0.000306904 0.000358625 0.0759816 
0.000295106 7.76083e-05 0.0840984 
-0.000259193 -0.00026248 0.0727713 
-0.00328423 -0.00202747 0.0799396 
-3.85277e-05 -3.16061e-06 0.00042475 
-0.000696675 -5.71516e-05 1.24622e-05 
-0.000326685 -2.67995e-05 -0.00158935 
-0.000517841 0.00238998 0.0122483 
-0.000461607 0.000209165 0.0475597 
0.000235568 -0.000263248 0.038565 
0.000108902 0.000276017 0.0601307 
0.00244683 0.00283247 0.0447225 
-0.000131645 -0.00013579 0.03511 
-4.93163e-05 0.000114735 0.0171626 
-1.73858e-05 0.00025603 0.0230005 
-0.000940973 -0.00138253 0.0256183 
-0.000200007 -0.000331249 -0.00049446 
-0.000105451 -0.000175115 -0.000246704 
0.000180763 0.000308062 0.000187085 
0.000754326 0.00150626 0.00073191 
-0.000126642 0.000329347 -0.000417138 
-0.000287031 0.000704908 -7.712e-05 
0.000130424 -0.000350631 0.000668815 
0.00068919 -0.00494764 0.00139529 
-0.000164974 0.000251909 0.000383654 
-0.000103635 0.000159059 0.000292207 
-2.16367e-05 2.76461e-05 -0.000289714 
-2.60982e-05 -0.00121255 0.0250391 
-0.00839678 -0.00898663 0 
-0.0134051 0.0104822 0 
0.0109481 0.0127162 0 
0.0398105 0.0242425 0.0190876 
-2.3884e-05 1.10657e-05 0.0155021 
6.2921e-05 -4.32706e-06 0.000186221 
0.000137256 -9.43907e-06 -4.04089e-05 
-0.00011083 7.62173e-06 -8.0711e-05 
-4.13205e-05 -0.000232927 -0.000199425 
0.000154841 0.000176245 0.021654 
-8.6886e-05 0.000152983 0.000235378 
0.000573246 0.000286748 0.0223009 
0.000167924 0.000883196 0 
0.000325047 0.000148737 0 
-0.000574047 -0.000927832 0 
0.00102217 -0.00332312 0.00122744 
-2.22043e-06 2.58019e-05 -0.000780382 
-2.4962e-06 2.90064e-05 0.000541971 
-3.76428e-07 4.37418e-06 -0.000341751 
-0.00145845 -0.000757168 0.0218932 
-0.00661876 0.00891536 0 
0.00941821 0.0141721 0 
0.0140454 -0.0133946 0 
0.022057 -0.0377004 0.0228589 
-0.000335066 -0.000963514 0 
-0.000139028 -4.38204e-07 0 
0.000707232 0.000412618 0 
0.00127636 0.00062037 0.000588519 
-2.08821e-05 7.17038e-06 -0.000130089 
4.63669e-05 0.000142697 0.0240548 
-0.000117776 1.46732e-05 0.000530894 
-1.93148e-05 9.34649e-06 -0.000253531 
-0.000212487 -0.000353736 0 
0.000374737 -4.01257e-05 0 
0.000504654 -0.000312508 0 
0.00067735 5.56179e-05 0.000209805 
-0.000122259 -0.000172033 -0.0005296 
0.000128722 0.000178059 0.000417008 
-0.000204108 -0.000273633 -0.000262154 
-0.000578152 -0.00115532 0.00169485 
-0.000238419 0.000101412 0.000343255 
0.000350505 -0.000158579 -0.000232275 
0.000434902 -0.000239234 0.000930414 
-0.0037976 0.000825783 0.010421 
-1.45593e-05 -7.42191e-05 -7.38269e-05 
9.3017e-06 -1.39631e-05 0.019242 
4.18165e-06 1.50969e-05 -4.4863e-05 
3.04949e-05 0.000159571 0.00019837 
1.10643e-05 8.10055e-07 0.000127937 
-0.000205061 -1.50133e-05 -0.000613 
0.000704516 5.15802e-05 -0.000312566 
-0.00243728 0.000698373 0.00253203 
5.85047e-06 4.99687e-05 -8.43645e-05 
-0.000116109 0.000112274 0.000156806 
2.68417e-05 -1.88156e-07 0.0210074 
-2.94836e-05 1.85495e-05 0.0171433 
0.000405805 0.00100646 0 
-0.00243113 0.00119378 0 
0.00231776 0.000123952 0 
-0.00132067 0.00114845 0.00116378 
-7.69109e-07 2.48763e-06 -6.41682e-05 
-2.55139e-05 -0.000138096 0.000214704 
1.82203e-05 8.56137e-05 -1.51923e-05 
-5.70278e-05 -2.16545e-05 0.0226582 
0.0215426 0.0541911 0.10053 
0.0475173 0.00537244 0.197355 
0.0304506 0.0315733 0.0622512 
0.00315384 0.0129476 -0.0645714 
0.00600697 -0.00369003 0.0453868 
0.00621317 -0.00458841 0.0684391 
0.00905388 -0.00807768 0.0553851 
0.0032343 -0.00283714 0.0463691 
5.40736e-05 -0.000376528 -4.00001e-05 
-6.06604e-06 0.00022617 3.08052e-05 
5.75451e-05 0.00032653 9.88737e-05 
0.000558795 0.000717066 -0.000103563 
0.00110846 -0.0024131 0 
-0.000636535 0.00101333 0 
-0.000245512 -0.0010481 0 
-0.00211046 0.00503928 0.000131314 
-8.61606e-05 -1.45384e-05 0.000235711 
-4.97021e-05 -1.4184e-05 -0.000144163 
4.8094e-05 9.88071e-06 -4.62628e-05 
-4.98341e-06 -1.98701e-05 0.0211912 
5.8767e-05 -0.000314615 -0.000679481 
0.000384916 -0.000185579 -0.000427178 
-3.72514e-06 6.55498e-05 0.000643296 
-9.62033e-05 0.000399363 -0.000410008 
-0.000256566 -1.98701e-05 3.05593e-05 
-0.000154041 -1.93345e-05 0.000862292 
1.24825e-05 5.63332e-06 -0.000533361 
-0.002117 0.00114913 0.00270243 
-5.66673e-05 0.000150223 0.0536638 
2.17461e-05 -0.000330881 0.0396209 
5.66029e-05 -0.000145429 0.0354299 
-0.00250059 0.00269005 0.04737 
-1.90598e-05 -0.000271652 -0.000908183 
-1.99021e-05 -0.000283657 -8.34255e-05 
1.28548e-05 0.000183214 -0.00018982 
-0.000113576 0.00109293 0.00162388 
0.00346569 -0.00450495 0.0303081 
0.00867389 -0.00783245 0.0541095 
0.00365276 -0.00414439 0.0548477 
0.00338845 -0.00300969 0.047094 
-4.65187e-05 0.000149565 0.00161229 
-4.46218e-05 0.000170628 -0.000260408 
-5.76631e-05 0.00021558 -9.46074e-06 
-0.000466322 -0.00451889 0.0100419 
0.00272605 -0.0045848 0.0547445 
0.00916917 -0.00812929 0.055577 
0.00597487 -0.0043636 0.0683088 
0.0033102 -0.00284598 0.0465522 
-0.00318027 0.00450851 0 
0.000479892 0.00234672 0 
-0.000732408 -0.00189259 0 
0.0198075 0.00261387 -0.00183908 
-6.17894e-05 -5.3174e-06 0.000461695 
1.86013e-05 1.60077e-06 -0.000146033 
0.000325319 2.79959e-05 -0.000154019 
-0.00140625 0.000629409 0.0186338 
0.000185027 -0.000120462 0.000348679 
-0.000170106 0.000112038 -0.000199305 
-0.000455288 0.000302101 -0.000323737 
0.00154635 -0.000791424 0.00097481 
2.12866e-05 -3.16426e-05 0.000346663 
0.000125533 -0.000109268 -0.000513132 
1.28834e-05 -1.58447e-05 0.000100467 
9.05038e-05 0.000394813 0.0240284 
0.000260499 -0.000290594 0 
-0.000265376 0.00032797 -0.000124231 
-0.00017691 0.000182863 0 
-1.58163e-06 0.000274801 0 
2.3946e-05 1.73888e-05 -2.18492e-05 
-2.39087e-05 5.32495e-05 0.0220795 
8.34428e-05 -7.97318e-05 0.0177181 
0.000143252 5.64329e-05 1.02606e-05 
0.00044754 -0.000200145 0.0351944 
3.42576e-05 -6.35251e-05 0.0511414 
-3.48909e-05 9.72589e-05 0.0355556 
-0.0023407 0.00267071 0.0473414 
-0.000123825 0.000199306 0.0611297 
2.78199e-07 2.78875e-05 0.0727606 
2.2393e-05 -0.000259302 0.0555875 
-0.00423726 -0.00335102 0.0642935 
0.000494891 -0.000212212 8.13297e-05 
-0.00020961 9.42431e-05 -0.000473138 
0.000189155 -8.27933e-05 0.000200355 
0.00167659 -0.000589194 0.00116831 
7.62724e-05 -0.000152829 -7.68585e-05 
-5.23998e-05 -0.00013595 0.000170437 
3.52512e-05 0.00014183 0.017717 
0.000560448 0.000580663 0.0223462 
-0.000194161 -0.000351033 0.0479451 
0.000450949 -1.17725e-05 0.0644771 
-0.000738049 0.000123841 0.0619377 
0.0011017 0.00470127 0.064139 
0.000208439 -0.000965968 -0.00182943 
1.16505e-06 8.6966e-07 6.11027e-05 
3.92107e-05 -0.000164723 -0.000150816 
-0.00113463 -0.00354431 0.00969078 
0.000334479 -5.12046e-05 0.0272584 
-3.94821e-05 -1.74385e-05 0.0327687 
-3.22041e-05 -9.49328e-05 0.0180466 
0.000169756 0.00141059 0.0245117 
7.1609e-06 -2.02495e-05 0.0170794 
-1.41295e-05 5.46083e-05 -9.61312e-05 
-1.87074e-05 0.000108244 0.000266619 
1.38735e-05 -7.41624e-05 -0.000130743 
-0.00049706 0.000108671 -0.000105156 
0.000284553 -6.37204e-05 -1.39855e-05 
-0.000333424 7.08627e-05 -0.000170492 
-0.00034974 0.000581652 -0.000255439 
3.00668e-05 0.00017059 -0.000391459 
0.000373667 0.000355733 -0.00021837 
-5.19223e-05 -0.000254795 0.00023988 
0.000132716 0.000606431 -0.000121769 
-0.000162023 -0.000717839 9.79832e-05 
-5.49344e-05 -0.000261632 -0.000166731 
9.86423e-05 0.000448617 6.72885e-05 
-7.86596e-05 -0.00054694 -0.00023366 
-0.00025432 0.000227249 0.0400911 
0.000151639 -0.000412768 0.0460857 
0.000174887 -0.000108398 0.023726 
-0.00108993 -0.00131777 0.0295808 
0.000261699 5.60523e-05 0.055299 
-0.000134417 0.000227091 0.036265 
-0.000224648 -0.000175772 0.043982 
0.00302948 -0.00257539 0.0470676 
0.0128679 -0.00448028 0 
0.003081 0.0103427 0 
0.00738191 -0.00496512 0 
-0.0424269 0.0902712 0.0309633 
0.0886797 0.00220384 0.180709 
-0.0246503 0.00051172 0.330819 
0.0733733 -0.0062314 0.168395 
0.0428626 -0.0278133 -0.112971 
-5.12886e-05 3.81783e-05 -0.000249109 
7.7522e-05 -5.47786e-05 0.000134867 
-8.27065e-05 5.1654e-05 0.000416469 
-0.000490558 -0.000242686 0.0223066 
0.000111794 0.000169329 -3.9641e-05 
2.17208e-05 2.03728e-05 0.000178579 
-1.10317e-05 -9.59756e-06 -0.000101843 
-0.000975499 -0.00183625 0.000771264 
-0.00156725 0.00196959 0.199918 
0.00567685 -0.0398321 0.138557 
0.080813 -0.0343013 -0.0204015 
0.049393 -0.00666865 0.174129 
3.83502e-05 -3.28287e-05 0.000416887 
7.49149e-05 -7.22289e-05 0.000219997 
-5.45195e-05 5.00584e-05 -0.000344011 
-0.000469817 -0.00021224 0.0222776 
-0.00568478 0.00280916 0 
-0.00488425 0.00200775 0 
-0.00117125 -0.00403299 0 
0.0274319 -0.000738339 -0.00208014 
-9.00514e-05 8.24234e-05 0.0177212 
-0.00012846 -0.000130905 0.000246455 
9.89062e-05 -7.25214e-05 0.021623 
0.000704631 0.000700306 0.0224329 
0.00065997 0.000191111 0.0776491 
-0.000274556 -0.000350763 0.0817971 
-0.000284881 -0.000193601 0.0683411 
-0.00208954 0.00377891 0.0755342 
-3.07101e-05 -2.59859e-05 0.000526606 
1.40503e-05 -3.05176e-06 -0.000444785 
-8.47554e-05 -0.000150708 0.000375588 
0.000808425 0.00320133 0.0128986 
-8.40845e-05 0.00024486 0.000871783 
3.92336e-05 -0.000153001 1.14306e-05 
-3.53623e-06 0.000121603 -0.00116459 
0.000357441 0.00354888 0.0055361 
0.00017568 0.000134141 0.066406 
-0.00010634 -0.000343587 0.0797105 
-0.0002037 7.80285e-05 0.0772884 
0.00419412 0.00150225 0.0751129 
0.000109514 0.000223503 0.0645551 
-3.53264e-05 0.000481033 0.0516168 
1.51946e-05 -0.000291853 0.0433575 
0.0038781 -0.000442919 0.0545678 
-2.77696e-05 9.33624e-05 -0.00040514 
-5.86366e-05 0.00012215 0.000259285 
-3.78938e-05 7.82007e-05 0.000178539 
0.000104883 0.000372587 0.0245929 
-6.96923e-05 -4.68988e-05 0.0240703 
2.78665e-05 -3.81775e-05 0.0178176 
-7.78331e-06 -3.78896e-05 -2.68333e-05 
0.000130642 -0.000159731 0.000189859 
-0.00148638 0.001919 0 
0.0203281 0.0010356 0 
-0.020826 -0.00355567 0 
0.0602049 0.0217822 0.0287475 
-0.000360446 -0.00161989 0 
-0.000818189 -0.00048607 0 
0.000519591 -0.000865391 0 
-0.00141816 0.0031349 -0.000550608 
-3.90043e-05 3.17031e-06 0.00035321 
-0.000330725 2.68817e-05 -0.000726545 
0.000317003 -2.57664e-05 -0.000242173 
-0.000455659 0.00156392 0.0114547 
-0.00852168 -0.0194402 0 
-0.00575712 0.0168785 0 
0.00857308 0.0105279 0 
0.0246472 0.0526643 0.0359565 
9.56243e-05 9.81756e-05 0.0217642 
6.09789e-05 -3.90783e-05 -0.000366541 
-9.87971e-05 7.41178e-05 0.00023274 
4.70856e-05 -4.4733e-05 0.000203592 
-0.000520548 0.000122256 -0.000239113 
0.00047242 -0.000105025 -6.9382e-05 
0.000574329 -0.000130182 3.6484e-05 
0.00069362 -0.000283184 5.74094e-05 
-2.864e-05 -2.36988e-05 -0.000420807 
-9.67548e-05 -6.26557e-05 0.000213956 
-0.00010438 -6.44661e-05 0.000524662 
0.00069789 -0.000219938 0.0237622 
-0.00019414 0.000156326 0 
3.96586e-05 0.000271336 0 
0.000151547 -0.000223397 0 
0.00096857 1.07949e-05 1.89437e-05 
-2.72378e-05 -4.93605e-06 0.0177767 
1.04421e-05 -4.38015e-05 -2.76069e-05 
3.026e-05 -0.000160796 0.000288754 
-5.72679e-06 4.39152e-05 -0.000201477 
0.000701835 -0.000218314 0 
0.000595086 -0.000326718 8.52059e-05 
-0.000584276 2.64223e-06 0 
0.000558184 0.000141742 0 
0.00412331 0.027612 0.103051 
0.0104261 0.0800442 -0.0486366 
0.018932 -0.00605402 0.233767 
0.0402286 0.00613925 0.213846 
0.000169784 -7.01813e-05 0 
-9.07263e-05 0.00011055 0 
-2.91558e-05 3.55264e-05 0 
5.59711e-05 -6.04585e-05 -0.00021239 
-1.76447e-05 -0.000180453 0 
8.90985e-05 7.31213e-05 0 
3.51304e-05 2.88308e-05 0 
-0.000116239 -0.000102452 -0.00023587 
6.63232e-05 5.77024e-05 -0.000109381 
-6.732e-06 -5.52481e-06 0 
-8.69127e-05 -7.13274e-05 0 
2.48271e-05 1.95765e-05 0 
2.31923e-05 -4.50671e-05 0.00119397 
0.000161372 -0.000744094 -0.000240129 
3.21775e-05 -0.000190789 -0.000890048 
0.000654759 0.00538673 0.00372998 
-0.00076328 6.40302e-05 0.000952428 
0.000438755 -3.68063e-05 -0.00173537 
-0.000649754 5.45066e-05 -0.000200093 
0.00112147 -0.00269047 0.00996818 
-0.000310569 0.000146379 0 
0.000313646 -0.000185739 0 
-0.000628509 0.000266691 -0.000376486 
-0.000265704 0.000635523 0 
-9.27405e-05 -0.00024043 0 
-5.49306e-06 0.00040329 0 
-0.000341153 -0.000259198 -8.68066e-06 
3.2727e-05 -0.000438581 0 
0.000213425 0.000212987 0 
5.80065e-07 0.000201746 0 
-8.9774e-05 -0.000173382 0 
0.000287897 7.98077e-05 -9.85831e-06 
-6.40934e-05 0.000327326 -0.000331353 
6.92525e-05 -0.000332848 0.000136805 
-6.08793e-05 0.000280058 1.29936e-05 
-0.000255912 4.06546e-05 -6.71192e-05 
0.0266491 0.0129485 0.0389101 
0.0184752 0.0162338 0.0200815 
0.00064562 0.00975149 0.00774298 
0.00755834 -0.00818296 0.00753984 
4.17239e-06 2.75844e-06 0.00023693 
1.27095e-05 7.88989e-06 0.000682186 
0.000318161 -4.54821e-05 -0.00165995 
-0.00366458 -0.00178959 0.00486603 
0.000113161 -0.000114358 0.000543936 
8.99112e-06 -1.14069e-05 -0.000406605 
0.000455032 -0.00047205 -0.000178632 
-0.000721737 0.000323779 0.008523 
5.83693e-05 -9.67126e-06 0.0175745 
-9.6217e-05 -2.20804e-05 1.92148e-05 
7.91844e-06 2.86295e-06 -5.21134e-05 
0.000163304 3.49541e-05 8.92489e-05 
-0.00119775 -0.00595289 0 
-0.00496452 -0.00380723 0 
0.00631841 0.00422796 0 
0.0288035 0.00313207 0.0109779 
-0.000232602 0.000122019 0.000137715 
0.000643327 -0.000318873 -8.88034e-05 
-8.16277e-05 3.37493e-05 -0.000285005 
0.000632256 0.000208052 -0.000333429 
0.000451939 -0.000855641 0 
0.000709153 0.000916548 0 
-0.00055773 -5.75668e-05 0 
0.000751976 0.00170704 -0.000162119 
-0.0054857 0.0168169 0 
0.0115532 0.0108871 0 
-0.00123615 -0.0263 0 
0.0219501 0.0702745 0.0410438 
0.000163273 -0.000103999 7.32057e-05 
-4.2822e-05 3.95248e-05 0.000348237 
-9.47913e-05 6.40115e-05 6.64739e-05 
0.000366633 4.9482e-05 0.0220701 
8.75456e-07 4.485e-06 -0.000158832 
-0.000184095 4.71578e-05 0.000290435 
0.000160513 -6.88489e-05 0.0274108 
8.30319e-05 -2.90499e-05 0.000129138 
0.0153195 -0.0129731 0 
-0.0269602 0.00213677 0 
0.0148657 0.00483122 0 
0.0659921 -0.0204513 0.0455025 
-6.11658e-05 5.34821e-06 7.69385e-05 
-6.95447e-05 7.19678e-06 0.000214667 
0.000148912 -1.24262e-05 -0.000119579 
0.000111626 0.000521664 0.0241323 
-5.49139e-05 -2.22652e-05 0.000212349 
-7.11819e-05 -1.50909e-05 -0.000246232 
0.000138825 3.77074e-05 0.000166805 
-6.82849e-05 5.52451e-06 0.0210692 
0.000174031 0.000433808 0 
-0.000132968 -0.000438337 0 
-0.000120418 -0.000396965 0 
0.000207183 0.000682374 -7.46436e-06 
0.000150101 0.000494817 0 
0.000131543 0.000433638 0 
-0.000207941 -0.000687539 2.47597e-05 
-0.000132893 -0.000682976 0 
-0.00030073 0.000554787 -0.000153707 
0.000199021 -0.000372342 0 
0.000168222 -0.000314721 0 
-0.00040124 0.00038462 0 
-5.47723e-05 0.000179688 0.0194157 
9.08657e-05 -7.95813e-05 0.0169796 
0.000135444 -7.77243e-06 0.034573 
0.000842909 0.000800638 0.024742 
3.33125e-06 4.79146e-05 1.90441e-05 
1.50204e-06 3.52878e-05 9.13096e-05 
4.3801e-06 5.79455e-05 -5.52018e-06 
-0.000318056 2.43666e-05 0.0232511 
-0.000419439 8.74969e-05 -0.00102123 
-1.85896e-06 1.17919e-05 0.00113577 
-0.000957531 0.000221845 -0.000121698 
0.0051936 0.000978975 0.0041766 
0.000103788 0.000468479 -0.000421416 
0.000105986 0.000512368 -0.00105355 
7.61675e-05 0.000256369 0.00129509 
0.000968519 -0.00568956 0.00538253 
-0.000212363 -3.69724e-05 0 
-6.71268e-05 -0.000142993 0 
5.99122e-05 -0.00033812 0 
-0.00202513 0.0017265 0.000216115 
-6.58266e-05 -0.000129624 0.000580049 
0.000250101 0.000491187 -0.000243786 
0.000135347 0.000266193 -0.000698662 
0.00030896 0.00187022 0.0141227 
-0.00701704 0.00238505 0 
0.0107449 0.00455242 0 
0.00596672 0.0109794 0 
-0.0436683 -0.0272774 0.000738789 
0.00285418 -0.0366429 0 
0.00858264 0.0554392 0 
-0.0112871 0.033546 0 
0.0784001 0.101266 0.128387 
-0.000136724 0.000131706 0.0471749 
-0.000105173 -0.000238416 0.0317228 
0.000116183 -0.000229926 0.0392722 
0.00225867 0.002872 0.0443242 
-0.000382259 0.000115957 0 
-0.000403386 0.000122366 0 
0.000566605 -0.000169957 7.27367e-05 
0.000633865 -0.000146188 0 
-0.00107518 0.0143384 0.227555 
0.0308518 0.0275549 0.221802 
0.0450545 -0.00215703 0.248725 
-0.0232817 -0.0417299 0.252365 
4.58957e-05 -4.31974e-05 0.000336933 
-9.6905e-05 5.99623e-05 0.000109627 
-0.000192932 0.000148163 -0.000538037 
0.000735989 -6.8217e-05 0.0220136 
-0.000981113 0.000326505 0 
-0.00041152 -0.000667895 0 
-0.00014895 -0.00072891 0 
-0.00139912 0.00206684 0.0010005 
-7.81115e-05 -4.3897e-05 0.0174607 
-8.67592e-05 0.000110455 0.000112955 
2.0379e-06 -1.4873e-05 -0.00029536 
0.000101267 -0.000114143 0.000220541 
0.000298847 0.000188674 -0.00023942 
6.28121e-05 3.01629e-05 -0.000299761 
7.11803e-05 6.11483e-05 0.000368907 
-0.00242568 -0.000865174 0.00192526 
0.000144688 0.000213847 6.08965e-05 
-0.000220202 -0.000322285 -0.000156813 
7.42553e-06 1.73775e-05 -0.000126424 
0.000581991 0.000702941 -7.50824e-05 
0.000319855 0.000176858 -0.000203179 
-0.000215676 -0.000115281 0 
-0.000152639 -8.15871e-05 0 
0.00011685 0.000317873 0 
7.26563e-05 -0.000132161 0 
7.10887e-05 3.79977e-05 0 
0.000104684 5.59545e-05 0 
-0.000180192 -0.000100524 -0.000145176 
0.000239733 -0.000436199 -0.000226908 
-0.000157089 0.000293893 0 
-8.35068e-05 0.00015623 0 
0.000427708 -0.000140063 0 
0.000281281 -8.53257e-05 0 
0.000347164 -0.000105311 0 
-0.000361909 0.000113122 -0.00013285 
-0.000431675 0.000300197 0 
0.00243596 0.00191853 0 
-0.00619095 -0.00363668 0 
-0.00404352 -0.00116777 0 
0.0229199 0.00208953 -0.00262846 
1.32499e-05 -0.000171643 0.0182625 
8.82962e-05 0.000173518 0.000163264 
-3.87586e-05 -6.33469e-05 0.000179686 
-6.53616e-06 -2.77432e-05 -0.000304172 
0.00836755 -0.0324564 0.387898 
0.00864933 0.0715259 0.16268 
0.0182522 0.112064 0.242542 
0.0493249 0.0579522 -0.0571407 
0.000139852 0.0009625 0 
0.000774337 -0.000881663 0 
0.000318106 -0.000911603 0 
0.00150244 0.00164835 0.000278673 
2.82945e-05 -0.000109328 0.000193836 
5.68157e-05 4.85605e-06 0.0169856 
-3.79747e-05 0.000111117 0.000169866 
1.72246e-06 1.98023e-05 -0.000307655 
0.00479481 0.0556868 0.0796385 
-0.000429784 0.0328751 0.0416122 
0.0483216 0.0459764 0.143254 
0.0407228 -0.00407287 0.000804823 
-5.9229e-05 0.000824228 -0.000171241 
-5.0444e-05 0.000554435 0.00074612 
-2.84619e-05 0.000620765 -0.00144064 
0.00202411 6.26626e-05 0.0040542 
0.0237694 -0.00691124 0 
0.0128859 -0.00299462 0 
-0.0380921 0.0290211 0 
0.110561 -0.0216004 0.0755 
-7.37961e-05 4.48843e-05 0.000199515 
0.00016454 -8.45599e-05 0.000124278 
-1.86454e-05 1.52755e-06 -0.000309518 
-0.000144459 -5.44063e-05 0.0184967 
-1.73577e-05 -0.000121479 0.000181851 
9.87536e-06 0.000147483 0.00015681 
-1.73639e-06 -5.60772e-05 -0.000127687 
-5.39154e-05 3.82983e-05 0.023019 
0.000116538 0.000101275 0.000163658 
2.34744e-05 8.52001e-06 -0.000312116 
-0.000131088 -0.00010175 0.000169376 
7.04147e-05 -8.65086e-05 0.0179665 
-9.59905e-05 3.04975e-05 0.016654 
-9.59304e-05 -8.52595e-05 0.000189726 
0.000116881 9.09181e-05 0.000145339 
-3.81034e-07 1.03161e-05 -0.000308744 
0.0167004 0.00198995 0 
-0.00489071 -0.0127859 0 
-0.0261159 -0.00216404 0 
0.0803637 0.0175534 0.0259243 
9.48956e-05 0.000171007 -9.71781e-05 
-0.000108098 -0.000202237 0 
-8.12225e-05 -0.000151957 0 
0.000176587 0.000201886 0 
0.000214439 0.000401187 0 
8.01745e-05 0.000149996 0 
-0.000265517 -0.000331905 0 
-0.000187331 -0.000360669 0.000151757 
-8.71604e-06 0.000512964 0.058921 
5.87916e-05 -0.000168904 0.0610726 
0.000171735 -2.39698e-05 0.0447773 
-0.00380315 -0.00108897 0.0565303 
-0.000262279 1.50051e-05 0.0395345 
0.000355278 -0.000182665 0.0243956 
0.00010254 8.79277e-05 0.0182669 
-0.00120147 -0.0011992 0.0293445 
0.00139019 0.00165132 0 
-0.00137641 0.0021915 0 
-0.00188425 -0.00166836 0 
0.00231073 -0.00582885 -0.00184182 
4.01349e-05 1.52187e-05 0.000115275 
9.06746e-05 1.97224e-05 -0.000294764 
-0.000183003 -4.85746e-05 0.000262775 
0.000118918 -9.89966e-06 0.0174636 
-3.80976e-06 -1.40732e-06 -0.0001317 
-3.44942e-05 2.83087e-05 0 
2.84744e-05 -2.33684e-05 0 
-7.28632e-05 -1.09602e-05 0 
-0.000296115 -8.98254e-05 0 
-0.000385949 -0.000117076 0 
0.000361684 0.000115657 -0.00019863 
0.000531801 0.000255133 0 
-0.00030383 -0.00010545 -0.000444146 
0.000174999 5.30855e-05 0 
0.000419023 0.000127109 0 
-0.000443257 -0.000313549 0 
-0.000104778 0.000214661 0.000250185 
-2.72106e-05 3.70085e-05 -0.000186597 
3.75651e-05 -0.00011373 0.0228497 
7.75178e-05 -0.000141609 4.58668e-05 
-6.69212e-06 -0.000137288 0.017549 
-3.72356e-05 0.000148126 0.000291528 
-3.61245e-06 -1.47969e-05 -0.00030679 
1.68912e-05 -4.957e-05 7.02215e-05 
0.000100171 -0.0002077 0.000302002 
9.71076e-06 -3.06716e-06 -0.000224723 
-4.62545e-05 0.000145357 0.019461 
-6.13198e-05 0.000112767 2.90792e-05 
0.000678456 5.95244e-05 0.000876395 
-0.000514062 -4.77008e-05 -0.000960325 
0.000132894 1.97589e-06 -0.000932018 
0.00143595 -0.00131989 0.008021 
-1.46912e-05 0.000211571 0.000226381 
1.92681e-05 -8.69222e-05 0.0242988 
9.97569e-06 -7.61211e-05 9.12799e-05 
5.11465e-06 -9.43522e-05 -0.000153884 
4.87166e-05 -2.12997e-06 0.0353329 
0.000205339 4.32907e-06 0.0514868 
-6.97399e-05 -0.000114439 0.0539178 
-0.00246384 0.00268378 0.0472756 
-0.00132621 -0.000154422 0 
0.000812874 0.00086151 0 
0.00122809 -0.000318248 0 
-0.00474008 0.00112911 0.000483055 
0.0003737 -7.47723e-05 -0.000967659 
-0.000129378 1.67703e-05 0.00105303 
5.90787e-05 -1.28339e-05 -7.31865e-05 
-0.00319381 -0.000327064 0.00297314 
-0.000201555 0.000156183 0 
0.000187532 -0.000100238 0 
0.000163716 -8.75082e-05 0 
-0.000217896 0.000117066 -1.66428e-05 
2.981e-05 2.89466e-05 0.0221653 
8.01437e-05 1.05931e-05 9.9426e-05 
-0.00020268 -1.39896e-05 0.000219975 
0.000113294 7.25439e-06 -0.000143788 
-9.20716e-05 -0.000181742 0.000186016 
-5.70678e-06 4.36078e-06 -0.000294812 
5.5634e-05 9.68926e-05 0.000140988 
-2.41115e-05 0.000146411 0.0148879 
0.000118723 -9.74334e-05 0 
9.64391e-05 -7.91455e-05 0 
-0.00011422 9.79538e-05 -0.000107538 
-9.26865e-05 0.000196577 0 
6.11097e-05 6.6755e-05 -0.000161351 
-9.07829e-06 -1.10619e-05 0 
-3.19018e-05 -3.88725e-05 0 
0.000152722 -0.000145808 0 
0.000134314 0.000163662 0 
7.27429e-05 8.86375e-05 0 
-0.000133879 -0.000158202 -0.00010321 
-0.000118262 -0.000100886 0 
0.0385181 -0.00371861 0.0411369 
0.013381 0.0138285 0.0232388 
0.0311775 0.00357137 0.0487768 
0.00796297 0.00332974 -0.00517126 
0.000277419 0.0134883 0.239052 
0.0388599 -0.000625586 0.235587 
0.0239931 -0.0188385 0.21278 
-0.0193204 -0.0406343 0.226056 
-0.003904 0.0190106 0.232249 
0.0422744 -0.0046261 0.163133 
0.00688987 -0.00645395 0.187416 
-0.033209 0.0460343 0.182844 
-0.000315747 -2.59022e-05 0.000236602 
0.000454635 3.72959e-05 -0.000722072 
-0.000790907 -6.48819e-05 0.000727248 
0.00150562 -0.000897953 0.00822287 
3.55322e-05 -1.61093e-05 -0.000166008 
0.000147473 -4.00068e-05 0.000147258 
-3.26589e-05 1.18342e-05 0.0238816 
-0.000198795 6.52436e-05 0.000153832 
0.00031016 -0.000367136 0 
-0.000140766 0.000464043 0 
-7.98986e-05 0.00026339 0 
0.000162916 -0.000494655 -0.000430117 
-5.22617e-05 -6.5157e-07 -0.000165578 
0.000184956 9.80259e-06 0.000309886 
-0.000122253 -1.22878e-05 9.09392e-06 
3.03732e-06 -2.73533e-05 0.0205256 
-0.00939634 0.00705497 0 
0.00858841 0.0100634 0 
0.0024884 -0.00323585 0 
0.0189174 0.0187456 0.0182797 
-4.30707e-05 -6.18183e-05 -0.000169316 
-5.5779e-05 -4.93726e-05 0.0229308 
-9.90163e-05 -0.000112186 0.000153528 
0.000149999 0.000191249 0.000153688 
0.000123423 4.07708e-05 0.0179685 
5.53886e-05 -2.01626e-05 -0.000325656 
-0.000157151 7.6323e-05 0.000264716 
5.92236e-05 -3.42433e-05 8.92364e-05 
2.92744e-06 3.0063e-05 -0.000215481 
-2.05191e-05 7.92789e-05 0.0212657 
8.02777e-06 -0.000179373 0.000352728 
-8.07858e-06 8.00019e-05 7.28503e-06 
0.00104021 0.0012712 0 
0.000153548 -0.00277801 0 
-0.000523473 0.00148481 0 
-0.00125257 0.00325598 0.00145548 
0.0329976 0.0173124 0.049653 
0.0434013 0.00822193 0.134978 
0.000266388 0.0494022 0.0455295 
0.032287 0.0175512 0.00781793 
0.000140097 0.000168429 4.13486e-05 
-6.51019e-06 8.91864e-05 0.0212405 
-0.000163722 -0.000211889 0.000224747 
-2.93916e-05 -2.60555e-05 -0.000176964 
-1.03184e-05 2.45795e-05 0.020838 
-0.00014707 0.000127889 0.00015892 
-2.75649e-05 1.59469e-05 -0.000147501 
0.000175529 -0.000137678 0.000140877 
-5.99847e-05 -9.81696e-05 -0.000130031 
1.60505e-05 2.75966e-05 5.45508e-05 
2.19445e-05 3.62182e-05 5.20961e-05 
0.000629702 0.000917917 -8.16099e-05 
5.35981e-05 0.000205286 0.000270141 
4.98685e-06 -6.51868e-07 -0.000161456 
-4.86244e-05 -0.000153646 6.27918e-05 
-4.70908e-05 -0.000113729 0.0224923 
0.00209218 -0.00820764 0.178332 
0.0268627 -0.00717525 0.222257 
0.010145 -0.0345613 0.12569 
0.0425421 -0.00173785 0.203778 
7.13008e-05 -4.074e-05 -6.603e-05 
-0.000107332 5.737e-05 0 
-0.000113709 6.07788e-05 0 
9.87689e-05 -0.000154189 0 
-0.000164676 -8.2736e-05 0.000132744 
-1.56235e-05 -1.56623e-05 -0.000183639 
4.02934e-06 -1.62929e-06 0.0199737 
0.000184444 0.000105597 0.000176055 
-0.00011939 -0.000226391 0 
-8.57486e-05 -8.4455e-06 0 
0.000232139 2.28637e-05 0 
-0.000251159 -2.56457e-05 -3.63014e-05 
0.000497288 4.78171e-05 4.64002e-05 
-0.00033853 -3.33422e-05 0 
0.000202829 1.99769e-05 0 
-0.000203283 0.000261324 0 
-2.12438e-06 4.55063e-05 -0.000222763 
7.13429e-06 7.82572e-05 -1.93336e-05 
-5.51949e-06 -0.000174806 0.00039443 
3.09226e-05 3.75851e-05 0.0180874 
0.000734828 -6.85826e-05 0.000139645 
-0.000198943 1.95942e-05 0 
-0.000551735 5.43412e-05 0 
0.000370511 -0.000156422 0 
-4.76477e-05 -0.000466563 -6.20361e-05 
-6.34823e-06 -6.44546e-05 0 
3.70812e-05 0.000376492 0 
-0.000390701 -5.28852e-05 0 
-5.64873e-05 -2.58834e-05 -0.000108246 
0.000268336 0.000136772 0.000167181 
-0.000172685 -9.61678e-05 9.70967e-05 
-7.23085e-05 -7.0367e-05 0.0194261 
-0.000693917 0.0115971 0.202542 
0.01391 -0.00329855 0.199741 
0.00450407 -0.00251441 0.150434 
-0.0545652 0.0495701 0.196847 
-9.59852e-05 8.27714e-05 0.0176916 
0.000159421 -0.000128405 0.0216476 
8.37003e-05 0.000102529 0.0316501 
0.000596755 0.000798212 0.0223799 
3.26111e-05 -3.97367e-05 0 
8.62638e-05 -0.000105113 0 
-0.000187215 3.48472e-05 0 
-0.000101843 0.000121736 -4.28016e-05 
-0.000101472 0.000478581 0 
0.000405422 -3.99305e-05 0 
7.68159e-07 -7.56571e-08 0 
-0.000665785 7.02979e-05 -0.000172864 
0.000216351 0.000211145 0 
-2.13203e-05 -0.000216468 0 
-1.71911e-05 -0.000174544 0 
3.4641e-05 0.000305565 -0.000166338 
1.26779e-05 0.000122739 0.0189965 
3.83716e-05 0.000123171 3.1389e-05 
-3.74579e-06 1.11162e-05 -0.000221661 
-4.84061e-05 -0.000190854 0.000295496 
0.00711815 -0.00115997 0.162267 
-0.0202756 -0.000199157 0.0755498 
-0.00290679 0.0102749 0.192615 
-0.0554981 0.0466037 0.193881 
6.45228e-05 5.76889e-05 0.0187591 
9.28228e-05 -0.000118477 0.000112459 
-5.88422e-06 2.24063e-05 -0.000318972 
-8.81911e-05 9.63458e-05 0.0002327 
2.44316e-05 1.12198e-06 -0.000140955 
-0.000153954 8.49092e-06 0.000266556 
-2.67903e-05 -3.78385e-05 0.0181827 
0.000114581 -1.23839e-05 4.38909e-05 
0.000124821 0.000294317 0 
1.07186e-05 -0.000108828 0 
3.48651e-06 -3.53991e-05 0 
5.11557e-06 -1.57491e-05 -0.000142399 
0.033419 -0.0119857 0.0516825 
0.0433749 0.00600755 0.139752 
0.0301157 0.0137131 0.0522761 
0.0263386 0.018649 -0.00533691 
1.89514e-05 4.24093e-05 0.0155694 
-1.80162e-06 -5.26757e-06 -0.000183603 
0.000143176 -6.115e-06 0.000269303 
-0.000130895 1.43276e-05 4.84064e-05 
0.00115152 -0.00184164 0 
-0.00305865 -0.00545691 0 
-0.0028866 0.000266034 0 
0.0135605 0.0224775 0.00178493 
0.0084464 -0.0125138 0.222861 
0.00325255 -0.0109481 0.180026 
-0.00333428 -0.00181374 0.16391 
0.0543293 0.0178854 0.203868 
0.0118293 0.0121429 0.144082 
0.0106998 -0.0131843 0.224931 
0.00253098 -0.00244048 0.163943 
0.0411915 0.021446 0.193468 
-4.17289e-05 0.000375893 -0.000158706 
2.92467e-05 -0.000296946 0 
-1.66509e-05 0.000169059 0 
-0.000396312 -9.41099e-05 0 
-8.05649e-05 0.000256715 -8.38056e-05 
6.80346e-05 -0.00022428 0 
5.72564e-05 -0.000188749 0 
-0.00014762 0.000168185 0 
-0.000879159 0.00607514 0.219415 
0.0058026 -0.0111044 0.190294 
-0.00386518 0.00896567 0.205455 
-0.0385484 0.0642976 0.204647 
-0.000382796 -0.00661739 0.183348 
-0.0034545 0.00117734 0.226974 
-0.00278718 -0.00455986 0.225735 
0.0762404 -0.00784386 0.189029 
-0.00399399 0.0073568 0.0109775 
0.000186722 -0.00125681 -0.000604746 
0.000914565 -0.000780737 0.00018768 
-0.000744872 0.00339128 0.0115218 
0.00768861 -0.0129274 0.0126001 
-0.00449313 0.00413137 -0.0046449 
-0.00471721 0.00266494 -0.00358509 
0.00681744 -0.00929905 0.00864416 
0.00207103 -0.0086247 0.00846379 
-0.00116246 -4.9161e-05 -0.00121336 
-0.00111982 0.00154169 -0.00199089 
-1.33617e-05 -0.00298606 0.003264 
0.00352598 -0.00599117 0.0117271 
0.00531611 -0.0014372 0.00664327 
-0.00156547 0.00453138 -0.00346095 
0.00879177 -0.00789541 0.0107706 
0.00180547 -0.00436771 0.012621 
0.00208197 0.00215821 -0.00517658 
0.00327823 -0.000993545 0.0074537 
0.00153769 -0.000174877 -0.000465681 
0.00309673 -0.00189239 -0.00309528 
-0.00478643 0.00709042 0.0121632 
-0.0018704 0.00282442 0.0028759 
-0.0047197 0.00433141 0.0160433 
-0.00108729 0.00193239 0.00247474 
-0.00292285 0.00856437 0.0104809 
-0.000152385 -0.00176226 -0.000708493 
0.00100949 0.000539807 0.000309269 
-0.00365254 0.00577942 0.014532 
-0.00602046 0.00785974 0.0154625 
0.00281156 -0.000800348 -0.00274442 
-0.00193837 0.00383926 0.0145283 
-0.00526285 0.00483149 0.0150058 
0.00486077 -0.00292904 -0.0035299 
-0.00426604 0.0101341 0.0150143 
-0.00700784 0.00940023 0.0108077 
-0.000564054 0.000109484 -0.00310715 
0.00134915 -7.89082e-05 0.00220367 
-0.00412557 0.00742232 0.0118279 
-0.000964969 0.00353769 0.012232 
0.00190954 -0.0012958 -0.00235618 
-0.00260879 0.00735069 0.0114931 
-0.0006285 0.0005157 0.00213571 
-0.00358509 0.00725692 0.00727975 
-0.00886627 0.00919123 0.0447266 
-0.00908 0.0127911 0.0815698 
-0.00358047 0.00560535 0.0372271 
-0.00610001 0.00417923 0.0630722 
-0.0102269 0.00795699 0.0427199 
-0.00382997 0.00311619 0.0350064 
-0.00719737 0.0145965 0.0844263 
-0.0102549 0.0141236 0.0564179 
0.0864874 0.0907899 0.152248 
-0.00115653 0.039731 0.180917 
0.00724133 0.00971889 0.411083 
-0.00320765 -0.0305965 0.247722 
-0.0117353 -0.00942767 0.0272773 
-0.00231671 -0.00231066 0.0194713 
-0.00319326 -0.00337611 0.0273771 
-0.00567402 -0.00645595 0.0431042 
-0.00378987 -0.0032903 0.0278949 
-0.00216802 -0.00340088 0.0215542 
-0.0101516 -0.00833079 0.0231613 
-0.00283853 -0.00229446 0.00979594 
0.000247915 0.00139229 0.00129438 
1.56539e-05 -4.31263e-06 0.000569612 
-0.00026923 -0.000363848 0.000134844 
-2.51035e-05 -1.60899e-05 -0.000391835 
0.000586123 0.00197344 0.00110004 
-0.0002281 -0.0013649 -0.000358235 
-0.000203893 -0.000255479 0.000750995 
-0.00200504 0.00628415 0.00999293 
0.00157307 -0.00261292 0.0035095 
-0.000245989 -0.000631223 0.000678126 
-0.000283653 -0.000602477 -0.00108212 
-0.000297797 -0.000710371 2.12505e-05 
0.00474335 -0.00678748 0.00982911 
-0.00185328 6.45437e-06 -0.00616481 
-0.0012319 4.16644e-05 -0.00212523 
0.00407545 -0.00721084 0.0146813 
0.0389324 -0.0281734 0.0119097 
0.000393711 0.00640709 0 
0.0145402 -0.0129326 0 
-0.00552955 0.0169744 0 
0.0214025 -0.00787096 0.0202151 
0.031888 -0.0340469 -0.00892308 
0.00492293 -0.0319576 -0.0249414 
0.0676282 0.124501 0.118417 
0.00526606 0.0247003 -0.0212348 
0.0267343 -0.00701084 0.0343889 
0.0459183 -0.00685842 0.0486868 
0.0717138 0.0250635 0.168521 
0.0396033 0.00490553 0.0207249 
0.00607607 0.00405854 0 
-0.00140748 0.000594178 0 
-0.0101188 -0.0074105 0 
-0.000218448 -0.0050509 0.0019128 
0.0012302 0.00224958 -0.000401153 
0.000671027 0.000708461 -0.000502483 
0.000395743 -0.00254572 0.00217903 
0.0015353 -0.00323819 0.000959203 
-0.000104509 0.000102253 0 
0.000109269 0.000586994 0 
0.000135697 9.87575e-05 0 
-3.97442e-05 -0.00135151 0.0277885 
2.95716e-05 0.000142908 0.000214985 
0.000273749 0.000338644 0.000763622 
-0.00123731 -0.0023388 0.0353647 
0.000460367 -0.000932358 0.0280502 
-0.000147655 5.74438e-06 0.000425986 
-0.000116879 5.98652e-06 0.000220261 
-4.76864e-05 4.16401e-06 -4.99866e-05 
-0.00345062 -0.000513246 0.023534 
-0.0014014 0.000268561 0.0224766 
0.000346546 0.000617644 0.000642978 
0.000678373 5.26479e-05 4.63102e-05 
0.000990512 4.50387e-05 2.80195e-05 
-0.000839539 -0.000121451 0.0224421 
-0.00473289 0.000695144 0.025071 
-0.00442008 0.0011122 0.0373917 
2.77909e-05 0.00041505 0.00065014 
9.32673e-05 0.000957833 -0.00032129 
-0.00250105 -0.000735319 0.0229432 
-5.85977e-06 -8.11245e-06 0.000319734 
-0.00467707 0.00115951 0.0258217 
0.000729254 0.000655045 -0.00232714 
0.000765736 -0.000202697 -0.000441275 
-0.00471308 0.0013682 0.0376914 
0.00148903 -0.0067691 0.0356109 
-0.000704877 0.00327705 -0.000739825 
0.00344124 -0.00604078 0.0235022 
0.000244574 -0.0010858 0.0265803 
0.00158982 -0.00621267 0.0348456 
0.00355692 -0.00538981 0.0226101 
-0.000794948 0.00231839 0.000462748 
7.74345e-05 0.000987377 -0.00148577 
0.000454459 0.000597016 -0.00046732 
0.00294931 -0.0030993 0.022314 
-0.000226544 0.000605133 0.000219585 
0.000441109 -0.00188644 0.026665 
4.50734e-05 1.31546e-05 0.000309979 
-0.000778368 -0.000197562 0.00128558 
0.00358941 -0.00126356 0.020025 
3.37349e-05 8.24322e-06 -0.000127304 
0.00177895 0.00501878 0.0668512 
-0.000545394 -0.000348697 0.0595884 
0.00391425 0.00541481 0.0837607 
0.00491782 0.00519536 0.0615065 
0.00148757 0.00503214 0.066622 
0.00194436 0.00574595 0.0822598 
0.00125877 -0.000689943 0.0609554 
0.000234426 -0.000163547 0.0642307 
-0.000157826 -0.000307003 0.0763636 
0.00405911 0.00541078 0.0834606 
-0.000662027 -0.00042313 0.0594084 
0.0047483 0.00502889 0.0609286 
4.38159e-05 -0.00016881 0.0764799 
0.000637638 -0.000142548 0.0613476 
0.00247434 0.00487164 0.0814801 
-0.000117415 0.000349897 0.0646751 
0.00777288 0.0336347 0.00854645 
0.0179191 0.0100909 0.0672871 
0.0385319 0.0290344 0.101877 
0.0256744 0.027907 0.0785076 
0.0296808 0.0334098 0.0940983 
0.0155541 0.0143954 0.061105 
0.0155703 0.0201618 0.0279881 
0.0120695 0.0106778 0.0351698 
-0.0186636 0.0146208 0.0610128 
-0.0120886 -0.0199104 0.0548481 
-0.00927368 0.00943592 0.032077 
-0.0193614 0.00936371 0.0468418 
-0.019259 0.0117028 0.0615414 
-0.0124207 0.00447453 0.0341767 
-0.0122124 -0.00772436 0.0541092 
-0.0146125 0.00474899 0.0693113 
-0.0064318 0.0241407 0 
0.0671773 -0.082133 0.0395198 
-0.000538534 0.00438495 0 
0.00243495 0.0026034 0 
-0.000877846 -0.00226239 -0.00339742 
0.0530607 -0.0403862 0.0739826 
-0.00038311 0.00449715 -0.0157365 
0.0109766 -0.0126698 0.0197285 
0.00167411 0.000123736 0.0286503 
-0.000174582 0.000149944 0.0212775 
0.000162363 -0.000148136 0.0367936 
4.38269e-05 -0.000119109 0.0225383 
0.0015731 -0.000536571 0.028046 
0.000383307 8.23175e-05 0.0369368 
-0.000315231 1.88439e-05 0.0212015 
0.00327449 0.000512561 0.035444 
1.8017e-05 -0.000779955 0.0382065 
0.00136456 0.00124264 0.0245282 
0.00352385 0.00206049 0.0518826 
-4.24104e-05 -0.000132005 0.034501 
0.00416341 0.002482 0.0518964 
0.00123255 0.00167125 0.0241051 
1.32004e-05 -0.00129567 0.0386241 
0.00354704 0.00140463 0.0360708 
0.0259414 0.0424644 0.241071 
0.104573 -0.0423624 0.238689 
-0.0105428 0.0155961 0.277046 
-0.0468367 -0.00463147 0.263859 
0.0679326 -0.00926164 0.334551 
0.0421614 -0.00189849 0.182957 
-0.00841159 0.0852631 0.200479 
-0.0266564 0.08825 0.0770758 
0.00117368 -0.00118689 0.0228604 
-4.3436e-05 0.00103582 0.000266831 
0.00497495 -0.00401463 0.0225269 
-0.000607973 0.0010037 4.98882e-05 
0.00134648 -0.000996955 0.0241435 
0.00489868 -0.0045524 0.0228523 
-8.26997e-05 0.001542 -0.00110381 
0.00371008 -0.0049523 0.0367863 
0.000217779 0.000288225 -0.00140413 
-0.000865838 0.00190404 0.0122937 
0.000100414 0.000139598 0.000358144 
0.000266197 0.000361181 -0.000384904 
0.000151724 9.68342e-05 -0.000999247 
-0.00121657 0.00388279 0.0147806 
0.000489185 -0.000802074 -0.00510422 
-0.00240214 0.00319009 0.0176958 
-6.10382e-05 -0.000130958 0.0235471 
4.94941e-05 -0.000124186 -1.33507e-05 
1.04268e-05 8.66982e-05 -0.000167509 
3.6494e-05 -5.75858e-05 0.0175106 
-1.29268e-05 3.19006e-05 -3.21622e-05 
0.000100812 -0.000251551 0.000295906 
-7.98722e-05 5.08591e-05 0.0231029 
-3.31098e-05 8.36485e-05 -0.000113978 
-0.00261434 -0.0177033 0.062314 
-0.0139925 -0.0154303 0.0453244 
-0.00614495 -0.00880941 0.0274847 
-0.00372944 -0.0118701 0.0640217 
-0.00350887 -0.00607126 0.0237509 
-0.0179192 -0.0168031 0.0462598 
0.00122111 -0.0180679 0.0643165 
-0.00783531 -0.0197064 0.0434787 
-0.0102489 -0.00763022 0.030861 
-0.00083924 -0.00716503 0.0343033 
0.00334563 -0.0177232 0.0584436 
-0.0013901 -0.0124537 0.0621512 
0.00496417 -0.0179589 0.0594629 
-0.000112688 -0.00574143 0.03209 
-0.0119789 -0.00801965 0.0308917 
-0.00291801 -0.0175694 0.0416039 
-0.000653269 -0.00242908 0.0024954 
-0.000248138 -0.000288774 0.000931613 
0.000443491 0.000597201 0.000173408 
0.000150534 0.000177047 -0.000522977 
0.000476235 -0.00289047 0.00370687 
-0.000547733 0.000913717 -0.000872684 
-0.000700946 0.000137689 0.000399328 
0.00227964 -0.00408546 0.0124217 
-5.23515e-05 -0.000187546 0.0183633 
-0.000467637 0.00018963 0.000313451 
0.00225562 -0.00226217 0.0323251 
-7.86825e-05 -3.0118e-05 0.0229638 
0.00163904 -0.00195122 0.0319235 
-0.000169099 3.96159e-05 0.000506907 
1.31878e-05 -9.68098e-05 0.0181706 
-0.000131958 0.000223742 0.000167152 
0.042201 -0.0394659 0.158891 
0.011397 -0.011353 0.0875932 
0.0151101 -0.0183611 0.204358 
0.0173453 -0.0335743 0.108027 
0.017447 -0.0203731 0.210411 
0.0123517 -0.0113094 0.080995 
0.0393578 -0.0384787 0.166835 
0.0292643 0.00868333 0.146192 
-0.00259306 -0.00311119 0.0188756 
-0.00365541 -0.00463746 0.0206591 
-0.0118246 -0.0106589 0.0436227 
-0.00391816 -0.00639445 0.0146793 
-0.0129697 -0.00702917 0.0420384 
-0.00353275 -0.00539193 0.0210101 
-0.000742664 -0.00612612 0.020023 
-0.00672258 -0.00476335 0.0435651 
-0.0123152 -0.0149166 0.0471865 
-0.0112885 -0.0143602 0.0346624 
-0.002288 -0.000908473 0.0173846 
-0.00400131 -0.00522889 0.0122071 
-0.00125298 -0.00145426 0.0163437 
-0.0131166 -0.0155404 0.0372209 
-0.0122058 -0.0117397 0.0459901 
-0.0060661 -0.00467836 0.0441446 
-0.0323402 -0.0449427 0.273941 
0.0992639 0.109138 0.0930757 
0.0147536 0.000686453 0.452819 
0.0801725 0.0773962 0.288253 
0.0168393 0.058301 0.454756 
0.128468 0.0399642 0.120188 
0.004744 0.0116547 0.308369 
-0.0352578 0.0389989 0.171363 
0.00419853 0.00536058 0 
0.047784 0.00387142 0.014684 
0.00541088 -0.00358071 0 
-0.0101403 -0.000963686 0 
0.0490582 -0.0105052 0.0430656 
-0.0226839 0.00434813 -0.0548449 
0.0746563 -0.00290059 0.0695189 
0.0533134 -0.0196776 0.203979 
-0.0106554 -0.00751496 0.0974898 
-0.00386996 -0.0028869 0.0620392 
-0.0163219 -0.0117923 0.0737424 
-0.00331133 -0.00820493 0.0780717 
-0.0108927 -0.00767622 0.0977335 
-0.0154816 -0.0113979 0.073847 
-0.00377757 -0.00281537 0.0618964 
-0.0102048 -0.00106374 0.0771288 
-0.00640019 0.00467957 0.041219 
-0.00940625 0.00985371 0.0429162 
-0.00681111 0.00520497 0.0649124 
-0.0129673 0.0102347 0.0532855 
-0.00616281 0.00489979 0.0411313 
-0.00739396 0.00608083 0.06323 
-0.0101661 0.00893973 0.0434767 
-0.00221044 0.00255158 0.0296507 
-0.000331056 0.000168343 0.0335562 
0.00359138 0.00206269 0.0517508 
-6.86247e-05 4.74841e-06 0.0349298 
0.000206664 -3.99835e-05 0.0485272 
3.0315e-05 -0.000175792 0.0349518 
0.00331516 0.00203059 0.0514166 
-5.07206e-05 0.000289685 0.0339406 
0.00119235 0.00118658 0.0243107 
-0.0158886 0.0142906 0.0596304 
-0.00707246 0.0131596 0.00302587 
-0.0166866 0.0119577 0.0494022 
-0.0110151 0.00661064 0.028891 
-0.0135044 0.0206505 0.0604815 
-0.0146872 0.00961089 0.0511474 
-0.0133055 0.0100102 -0.00100906 
-0.0159435 0.029922 0.0497543 
0.000278356 0.000457283 0.0230037 
0.00660072 0.00628059 0.0592324 
0.00368038 0.00332039 0.0283924 
0.00379856 0.00361043 0.034105 
0.00124046 0.000847623 0.0235142 
0.00340337 0.00326458 0.0282056 
0.00586489 0.00592111 0.0588848 
0.00232984 0.00307909 0.0443963 
-0.000113909 0.000129239 0.0308411 
-4.68933e-05 -0.00174338 0.0313093 
0.000116063 0.000245302 0.0157977 
-0.000229539 -0.000109132 0.0234495 
0.000301704 0.000547179 0.0158966 
-0.00124048 -0.00139413 0.0304511 
0.000304182 -8.8353e-05 0.031151 
-0.00124107 -0.0029578 0.0351283 
-0.000436849 -0.00142974 0.0310955 
-0.000144983 0.000380533 0.000288553 
0.000155742 0.000218473 0.0157905 
8.13213e-05 -0.000380884 0.023744 
0.000536058 0.000227685 0.016284 
0.000264961 0.000592468 0.000942824 
-0.00147823 -0.00103474 0.0299983 
-0.00132874 -0.0027812 0.0348867 
-0.000565798 -0.00151545 0.0302046 
-1.82337e-05 0.000223082 -9.22463e-05 
-7.21507e-05 0.000460924 0.000880325 
1.48398e-05 -0.00025984 0.0237424 
0.000788877 -0.000248694 0.00102337 
0.000365844 0.000301986 -5.36091e-05 
-0.00167475 -0.000856425 0.0300366 
-0.00213534 -0.0018272 0.0349328 
-0.0130834 -0.0414153 0.124714 
-0.018779 -0.00930231 0.0313354 
-0.0320939 -0.00838431 0.0395636 
-0.0019797 -0.023631 0.046089 
-0.021191 -0.00277519 0.0229454 
-0.0153257 -0.00757348 0.026891 
-0.0356056 -0.0518362 0.13904 
-0.0282645 -0.0076837 0.0719073 
-0.00309142 0.00315085 0.0253415 
-0.00304431 0.006379 0.0564829 
-0.00109249 0.00134066 0.0275068 
-0.00418031 0.00490185 0.0386374 
-0.00354944 0.00377659 0.0268947 
-0.0010766 0.00126316 0.0277957 
-0.002862 0.00618448 0.0555294 
-0.000623861 0.0039064 0.0347901 
-0.000170537 -2.68567e-05 0.0177977 
1.98252e-06 0.000110687 -3.97198e-05 
0.00080304 -0.00132145 0.0245304 
-2.63327e-05 -6.77348e-05 0.0199104 
2.84724e-05 7.1738e-05 0.0175827 
0.000819921 -0.00119411 0.0244386 
-2.62592e-07 -7.92662e-05 7.94464e-05 
-0.00013678 0.00038808 0.000516593 
-0.00010814 0.00144883 0.00188817 
0.000806685 0.000604369 -0.000913734 
0.00118741 0.000465435 -0.000869058 
-0.00106776 0.00379685 0.00400577 
0.000295156 0.0012324 0.000721228 
0.000301012 0.000272213 7.58324e-05 
0.000285605 0.000655523 4.06861e-05 
0.000200515 -0.000103986 -0.00048645 
-0.0240612 0.0447974 0.187477 
0.0116442 0.00569498 0.0654249 
-0.000300433 0.0044932 0.183973 
-0.00742255 -0.00352529 0.164499 
-0.00745026 0.0395624 0.14755 
-0.00222879 0.00124102 0.19217 
-0.000470033 0.023769 0.0813858 
0.0308251 0.0730661 -0.00964514 
0.0177719 0.0124777 0.0451625 
-0.0054886 0.00139104 -0.0155984 
-0.00883019 0.0361924 -0.00222634 
0.0266993 0.0275653 0.0417794 
-0.0103456 0.0403404 0.0173394 
-0.00610287 0.0166536 0 
0.0101973 -0.0114184 0 
0.0101436 -0.00729978 0 
0.00047165 -0.00189103 0.0658484 
0.00397752 0.00259906 0.0528398 
0.00483991 0.00245315 0.0768376 
0.000101917 -0.000132188 0.0659424 
0.00550645 0.00120791 0.0781241 
0.00488441 0.00285266 0.0526316 
-0.000365707 -0.00105767 0.0649673 
0.00400164 0.000135728 0.0562874 
-0.000729862 0.000542851 -0.00392578 
-0.00326721 -0.0011163 0.0114285 
-0.00152778 -0.00118535 0.010559 
-0.000386543 0.000320189 -0.000765136 
-0.00288983 -0.00248001 0.00913987 
-0.00435604 -0.00195186 0.0104338 
0.00100212 0.00182067 -0.00237948 
-0.00308163 -0.00132855 0.00395992 
-0.00233041 -0.000171066 0.008047 
0.000255313 -0.000214398 -0.000673327 
8.2416e-05 -9.94087e-05 -0.00112763 
-1.36956e-05 2.75784e-05 0.00052072 
-0.000351115 0.0017046 0.000159304 
0.000292432 0.000645585 -6.86451e-05 
-0.00146931 -0.00236885 0.00646713 
-0.00276508 -0.00163682 0.00312356 
0.0548577 0.00589631 0.191493 
0.0119552 -0.00333604 0.0631757 
0.00345709 -0.00516612 0.184333 
-0.00456766 0.000203849 0.170131 
0.0454778 -0.00665613 0.166327 
0.00402711 -0.00212398 0.192004 
0.0195326 0.00391762 0.0757273 
0.0756593 -0.0292578 -0.00715897 
-0.000378105 7.99819e-05 0.0232846 
-6.21521e-06 -9.03773e-05 0.000354547 
2.27104e-06 3.30239e-05 1.22167e-05 
-1.90386e-06 -2.76846e-05 6.23015e-05 
-0.000585567 0.000158053 0.0233567 
0.00016176 -3.69608e-05 -3.37331e-05 
2.13886e-05 -0.000221068 0.000459671 
-0.000200652 0.000107197 0.0178694 
-0.00242373 0.0025314 0.0101347 
0.000182094 0.000687768 -0.0017225 
0.000104136 0.000376073 -0.00130152 
-4.59031e-05 -0.000167955 0.000533676 
-0.00254301 0.00626264 0.0102257 
0.000614833 -0.00361596 -0.000989171 
0.000580422 -0.00208369 -0.00145884 
-0.00612588 0.0102143 0.00589981 
-0.00136769 0.00115776 0.00033574 
0.000220808 -8.49135e-05 -0.000110958 
-0.000433052 -8.78818e-05 -0.000144501 
0.00010189 0.00015039 -3.93961e-05 
-0.00161441 0.00127757 5.22246e-05 
-0.000111159 -0.000123415 0 
0.000476976 -0.000111027 0 
-0.000392958 0.000265946 0 
0.00326293 0.0024174 0.00514626 
0.00225604 0.00306962 0 
-0.00171064 -0.00285663 0 
-0.000704992 -0.00200576 0 
0.0127794 0.00496009 0.00961685 
-0.0106056 -0.00542732 -0.00366246 
-0.00141766 0.000555516 0.00235016 
0.0155505 0.0112135 0.00705224 
-0.00284371 0.0054404 0.0107088 
0.00304919 -0.00187605 -0.000995596 
-0.00166564 0.00666596 0.00564633 
0.000697955 -0.00110746 -0.00134507 
0.00171458 0.00751713 0.0142393 
-0.00129071 0.00480776 0.0106878 
-0.000799316 -0.00284795 -0.00580619 
0.0055377 0.01036 0.0096051 
TENSORS Stress float 
-9.58061 0.172488 0.226749 
0.172488 -9.70493 0.235118 
0.226749 0.235118 -10.0628 
-9.70001 0.23553 0.295007 
0.23553 -9.63689 0.240685 
0.295007 0.240685 -10.0114 
-9.64191 0.117048 0.228855 
0.117048 -9.55965 0.108324 
0.228855 0.108324 -10.1468 
-9.82943 0.133426 0.312282 
0.133426 -9.74416 0.231241 
0.312282 0.231241 -9.77474 
-9.69528 0.0610888 0.300133 
0.0610888 -9.75698 0.219217 
0.300133 0.219217 -9.96788 
-9.9073 0.0537653 0.0975945 
0.0537653 -9.60165 0.120472 
0.0975945 0.120472 -9.91119 
-9.97482 0.246913 0.310206 
0.246913 -9.73163 0.260602 
0.310206 0.260602 -9.7137 
-9.78834 0.0637907 0.288423 
0.0637907 -9.64185 0.283603 
0.288423 0.283603 -9.98996 
-9.83689 0.0151608 -0.192634 
0.0151608 -9.97392 -0.0752245 
-0.192634 -0.0752245 -9.91332 
-9.9015 0.00920205 -0.251902 
0.00920205 -9.89896 -0.1171 
-0.251902 -0.1171 -9.92367 
-9.97807 0.0242187 -0.231185 
0.0242187 -9.87943 -0.12442 
-0.231185 -0.12442 -9.86663 
-9.94253 0.0401297 -0.215882 
0.0401297 -9.99141 -0.173468 
-0.215882 -0.173468 -9.79018 
-9.92676 0.0463681 -0.166629 
0.0463681 -9.87393 -0.0525175 
-0.166629 -0.0525175 -9.93156 
-9.85743 -0.0219744 -0.244564 
-0.0219744 -9.97477 -0.110619 
-0.244564 -0.110619 -9.90005 
-9.86913 0.0159947 -0.253335 
0.0159947 -9.93065 -0.129333 
-0.253335 -0.129333 -9.93247 
-9.93922 0.0294822 -0.285374 
0.0294822 -9.97353 -0.107376 
-0.285374 -0.107376 -9.8195 
-9.8079 0.0362803 -0.389645 
0.0362803 -9.93373 -0.186932 
-0.389645 -0.186932 -9.8817 
-9.87463 -0.00172028 -0.187702 
-0.00172028 -9.83833 -0.154279 
-0.187702 -0.154279 -9.91037 
-9.8415 -0.0102529 -0.257731 
-0.0102529 -9.90269 -0.0762589 
-0.257731 -0.0762589 -9.87915 
-9.86651 0.0208205 -0.272028 
0.0208205 -9.89598 -0.0738768 
-0.272028 -0.0738768 -9.86084 
-9.39859 -0.52958 -0.402183 
-0.52958 -9.87833 1.35248 
-0.402183 1.35248 -9.21037 
-9.51723 -0.407587 -0.335794 
-0.407587 -9.3873 1.06902 
-0.335794 1.06902 -9.58276 
-9.30586 -0.397072 -0.00838477 
-0.397072 -8.81233 1.29014 
-0.00838477 1.29014 -10.3691 
-9.42366 0.336669 -0.486627 
0.336669 -10.0746 0.12877 
-0.486627 0.12877 -8.98899 
-10.218 -0.124311 -0.0980923 
-0.124311 -10.1914 -0.0839985 
-0.0980923 -0.0839985 -11.7366 
-10.5631 0.336374 -0.0968536 
0.336374 -10.857 -0.153114 
-0.0968536 -0.153114 -10.7259 
-11.032 0.117163 -0.0433826 
0.117163 -10.1502 -0.217497 
-0.0433826 -0.217497 -10.9638 
-10.8961 0.0235367 0.140581 
0.0235367 -10.2971 -1.15615 
0.140581 -1.15615 -10.9528 
-10.5419 0.272991 0.355797 
0.272991 -9.29157 0.469388 
0.355797 0.469388 -9.4045 
-10.2089 0.308019 0.538202 
0.308019 -9.58494 0.653607 
0.538202 0.653607 -9.44412 
-9.91456 0.0311286 0.442496 
0.0311286 -9.7652 0.151973 
0.442496 0.151973 -9.55823 
-9.53039 0.871221 1.08224 
0.871221 -9.88389 0.691317 
1.08224 0.691317 -9.82371 
-10.2478 0.15062 0.000519583 
0.15062 -10.2419 -0.093925 
0.000519583 -0.093925 -10.2641 
-10.0733 -0.0975495 -0.0329433 
-0.0975495 -10.2958 0.0497623 
-0.0329433 0.0497623 -10.3847 
-10.096 0.17918 -0.0109683 
0.17918 -10.1357 -0.0326427 
-0.0109683 -0.0326427 -10.5221 
-10.1699 -0.221191 -0.0424356 
-0.221191 -10.196 -0.13631 
-0.0424356 -0.13631 -10.3879 
-9.85215 -0.0785593 0.204869 
-0.0785593 -9.78868 -0.248766 
0.204869 -0.248766 -9.96793 
-9.82714 -0.0474414 0.187062 
-0.0474414 -9.79514 -0.20363 
0.187062 -0.20363 -9.98648 
-9.79749 -0.0616193 0.241219 
-0.0616193 -9.83044 -0.215954 
0.241219 -0.215954 -9.98083 
-9.83578 -0.0906398 0.199326 
-0.0906398 -9.78506 -0.242857 
0.199326 -0.242857 -9.98791 
-9.89541 -0.085563 -0.105023 
-0.085563 -10.0417 -0.0860115 
-0.105023 -0.0860115 -10.0768 
-9.8419 0.0574729 0.00718793 
0.0574729 -9.97315 -0.0110468 
0.00718793 -0.0110468 -10.1988 
-9.98593 0.0613192 0.139233 
0.0613192 -9.98939 0.0786339 
0.139233 0.0786339 -10.0386 
-9.89776 0.0302639 -0.0146405 
0.0302639 -9.98098 0.0114975 
-0.0146405 0.0114975 -10.1352 
-9.87785 0.0444453 -0.0356101 
0.0444453 -9.79329 -0.00531766 
-0.0356101 -0.00531766 -10.0018 
-9.81898 0.0632894 -0.06263 
0.0632894 -9.81563 -0.0581346 
-0.06263 -0.0581346 -10.0383 
-9.80245 0.140267 -0.0337821 
0.140267 -9.74163 -0.0636022 
-0.0337821 -0.0636022 -10.1288 
-9.75771 -0.0108976 -0.136405 
-0.0108976 -9.92336 -0.146147 
-0.136405 -0.146147 -9.99185 
-9.84023 -0.0261976 0.258134 
-0.0261976 -9.89089 -0.0481845 
0.258134 -0.0481845 -9.91097 
-9.8874 -0.0135485 0.27237 
-0.0135485 -9.91665 -0.00478185 
0.27237 -0.00478185 -9.83803 
-9.8483 0.015949 0.260549 
0.015949 -9.91116 -0.0126829 
0.260549 -0.0126829 -9.88263 
-9.83388 -0.00659601 0.258974 
-0.00659601 -9.90015 -0.0143639 
0.258974 -0.0143639 -9.90805 
-9.78966 0.0801261 0.246181 
0.0801261 -9.73898 0.328594 
0.246181 0.328594 -9.99475 
-9.72979 0.106412 0.270143 
0.106412 -9.76698 0.204439 
0.270143 0.204439 -10.0266 
-9.7269 -0.0517533 0.113087 
-0.0517533 -9.79249 0.0529143 
0.113087 0.0529143 -10.004 
-9.81853 0.155218 0.135056 
0.155218 -9.76728 0.204399 
0.135056 0.204399 -9.93758 
-9.64404 0.0852848 -0.319548 
0.0852848 -9.90208 -0.123874 
-0.319548 -0.123874 -9.74672 
-9.69687 0.00788689 -0.375994 
0.00788689 -9.85129 -0.160093 
-0.375994 -0.160093 -9.74467 
-9.66603 0.064386 -0.429229 
0.064386 -9.9724 -0.162478 
-0.429229 -0.162478 -9.6544 
-9.66172 -0.0191352 -0.208549 
-0.0191352 -9.89261 -0.0913525 
-0.208549 -0.0913525 -9.73851 
-9.75849 -0.123861 0.195961 
-0.123861 -9.76788 -0.227318 
0.195961 -0.227318 -10.0984 
-9.84255 -0.0797136 0.229833 
-0.0797136 -9.76212 -0.230482 
0.229833 -0.230482 -10.0201 
-9.83458 -0.0530321 0.148991 
-0.0530321 -9.77977 -0.201803 
0.148991 -0.201803 -10.0105 
-9.80634 -0.053383 0.185759 
-0.053383 -9.79981 -0.211022 
0.185759 -0.211022 -10.0187 
-9.84306 0.0596505 0.0441262 
0.0596505 -9.76168 0.0242372 
0.0441262 0.0242372 -10.0304 
-9.76244 0.0433035 0.0576654 
0.0433035 -9.77801 0.0454976 
0.0576654 0.0454976 -10.0947 
-9.75112 0.122586 0.0324415 
0.122586 -9.76159 0.0596576 
0.0324415 0.0596576 -10.1225 
-9.75792 -0.0185574 0.124004 
-0.0185574 -9.84514 0.0857938 
0.124004 0.0857938 -10.0321 
-8.69914 -0.201608 0.714787 
-0.201608 -9.19799 -0.501547 
0.714787 -0.501547 -8.0285 
-7.99542 1.0166 0.308269 
1.0166 -10.2813 -0.0279689 
0.308269 -0.0279689 -7.64891 
-8.20015 0.370335 0.489455 
0.370335 -9.86871 -0.0659389 
0.489455 -0.0659389 -7.85677 
-7.77306 -0.326935 0.367697 
-0.326935 -10.2337 -0.0392678 
0.367697 -0.0392678 -7.91889 
-9.8541 0.267604 0.258137 
0.267604 -9.60308 0.385292 
0.258137 0.385292 -9.90828 
-9.95588 0.116937 0.297465 
0.116937 -9.64073 0.364709 
0.297465 0.364709 -9.76886 
-9.82746 0.130623 0.279387 
0.130623 -9.67265 0.305907 
0.279387 0.305907 -9.86535 
-9.74733 0.111521 0.26264 
0.111521 -9.68532 0.241485 
0.26264 0.241485 -9.93282 
-9.09476 0.156489 0.98713 
0.156489 -10.5858 -0.0145795 
0.98713 -0.0145795 -8.8354 
-9.47616 -0.437304 0.252988 
-0.437304 -10.5565 0.0141627 
0.252988 0.0141627 -8.4833 
-9.12906 -0.215628 0.131062 
-0.215628 -10.3488 -1.00982 
0.131062 -1.00982 -9.03803 
-9.45227 -0.111493 1.34415 
-0.111493 -9.78261 -0.149878 
1.34415 -0.149878 -9.28104 
-9.69754 -0.0431505 0.171787 
-0.0431505 -9.79054 -0.124382 
0.171787 -0.124382 -9.92708 
-9.70417 -0.0934172 0.187428 
-0.0934172 -9.75454 -0.152973 
0.187428 -0.152973 -9.95646 
-9.7444 -0.0354444 0.175534 
-0.0354444 -9.74885 -0.142702 
0.175534 -0.142702 -9.92192 
-9.74644 -0.0390543 0.158465 
-0.0390543 -9.74032 -0.130565 
0.158465 -0.130565 -9.92841 
-9.77085 0.0992044 0.233845 
0.0992044 -9.72548 0.275884 
0.233845 0.275884 -9.82876 
-9.85851 0.0698346 0.262504 
0.0698346 -9.68037 0.365063 
0.262504 0.365063 -9.7862 
-9.79969 0.0742059 0.220935 
0.0742059 -9.77425 0.294269 
0.220935 0.294269 -9.75114 
-9.7365 0.0926731 0.214369 
0.0926731 -9.75785 0.305416 
0.214369 0.305416 -9.83073 
-9.87148 0.0576185 0.209247 
0.0576185 -9.59642 0.262917 
0.209247 0.262917 -9.83933 
-9.76913 0.010798 0.20814 
0.010798 -9.78787 0.315999 
0.20814 0.315999 -9.75022 
-9.74788 0.0249961 0.291888 
0.0249961 -9.71279 0.313595 
0.291888 0.313595 -9.84656 
-9.99762 0.202963 0.3685 
0.202963 -9.57863 0.391333 
0.3685 0.391333 -9.73098 
-9.80572 -0.0931929 0.170547 
-0.0931929 -9.81827 -0.145251 
0.170547 -0.145251 -9.89449 
-9.67252 -0.075443 0.233674 
-0.075443 -9.70689 -0.252033 
0.233674 -0.252033 -10.1391 
-9.76993 -0.0739677 0.249084 
-0.0739677 -9.79035 -0.263568 
0.249084 -0.263568 -9.95821 
-9.76582 -0.0666478 0.264705 
-0.0666478 -9.78386 -0.240387 
0.264705 -0.240387 -9.9688 
-9.71031 0.100295 -0.269714 
0.100295 -9.96196 -0.089271 
-0.269714 -0.089271 -9.80256 
-9.74188 -0.0456563 -0.309589 
-0.0456563 -9.82923 -0.0229511 
-0.309589 -0.0229511 -9.90372 
-9.70975 0.00291646 -0.346078 
0.00291646 -9.93946 -0.031125 
-0.346078 -0.031125 -9.82563 
-9.68414 0.00854734 -0.305047 
0.00854734 -9.97064 -0.0283759 
-0.305047 -0.0283759 -9.82006 
-8.89063 -0.569302 -0.252043 
-0.569302 -10.7571 -0.78218 
-0.252043 -0.78218 -12.7151 
-8.52683 -0.764166 1.92368 
-0.764166 -10.984 0.902822 
1.92368 0.902822 -12.852 
-10.2537 -0.41675 1.49529 
-0.41675 -10.4755 0.98511 
1.49529 0.98511 -11.6336 
-10.5668 -0.47088 0.81445 
-0.47088 -9.41937 -1.79738 
0.81445 -1.79738 -12.3766 
-9.86697 -0.000547344 0.263523 
-0.000547344 -9.94637 -0.0437841 
0.263523 -0.0437841 -9.83162 
-9.86705 -0.0151798 0.310822 
-0.0151798 -10.0037 -0.0275303 
0.310822 -0.0275303 -9.77424 
-9.85704 0.0372222 0.28247 
0.0372222 -9.94817 -0.0603728 
0.28247 -0.0603728 -9.83975 
-9.84926 -0.0618335 0.288307 
-0.0618335 -9.98558 -0.0951045 
0.288307 -0.0951045 -9.81012 
-9.49551 -0.100248 0.253412 
-0.100248 -9.98573 -0.173364 
0.253412 -0.173364 -9.20064 
-9.53438 -0.197059 0.356455 
-0.197059 -9.75213 -0.382021 
0.356455 -0.382021 -9.39537 
-9.23629 0.128746 0.17515 
0.128746 -10.22 -0.388252 
0.17515 -0.388252 -9.22561 
-9.54535 -0.0401645 0.541379 
-0.0401645 -9.74507 -0.233163 
0.541379 -0.233163 -9.39147 
-9.91385 -0.0185067 0.251753 
-0.0185067 -9.8398 0.182364 
0.251753 0.182364 -9.21535 
-9.83452 0.0312973 0.115955 
0.0312973 -9.86162 0.235971 
0.115955 0.235971 -9.27286 
-9.83581 0.01247 0.201451 
0.01247 -9.84131 0.172757 
0.201451 0.172757 -9.29188 
-9.82994 -0.00992813 0.177293 
-0.00992813 -9.868 0.257396 
0.177293 0.257396 -9.27106 
-9.84561 -0.0791003 -0.271789 
-0.0791003 -9.81993 0.328206 
-0.271789 0.328206 -9.77576 
-9.90414 -0.0856028 -0.329041 
-0.0856028 -9.72515 0.311828 
-0.329041 0.311828 -9.812 
-10.1087 -0.0829443 -0.284091 
-0.0829443 -9.58019 0.363106 
-0.284091 0.363106 -9.75236 
-9.90317 -0.0545353 -0.271846 
-0.0545353 -9.7084 0.232833 
-0.271846 0.232833 -9.82973 
-9.67719 0.0817667 -0.16784 
0.0817667 -9.79474 -0.10517 
-0.16784 -0.10517 -9.94219 
-9.71615 0.0579706 -0.167714 
0.0579706 -9.73891 -0.161628 
-0.167714 -0.161628 -9.95906 
-9.74928 0.048599 -0.181798 
0.048599 -9.76341 -0.126533 
-0.181798 -0.126533 -9.90143 
-9.68085 0.12471 -0.203877 
0.12471 -9.79293 -0.147354 
-0.203877 -0.147354 -9.94034 
-6.65397 0.644586 1.09483 
0.644586 -12.5704 -1.14096 
1.09483 -1.14096 -5.34037 
-7.2503 0.163054 -0.315341 
0.163054 -11.1263 0.209488 
-0.315341 0.209488 -6.18819 
-9.92893 -1.30263 0.302112 
-1.30263 -8.33267 1.22883 
0.302112 1.22883 -6.30314 
-6.52467 -0.598156 0.617992 
-0.598156 -12.4636 -0.105856 
0.617992 -0.105856 -5.5765 
-9.72903 0.132195 0.220879 
0.132195 -9.65576 0.119177 
0.220879 0.119177 -10.1241 
-9.72402 0.0696092 0.188097 
0.0696092 -9.70919 0.184139 
0.188097 0.184139 -10.0757 
-9.74475 0.0582985 0.190652 
0.0582985 -9.70334 0.201869 
0.190652 0.201869 -10.0608 
-9.82701 0.0946795 0.174486 
0.0946795 -9.74282 0.174944 
0.174486 0.174944 -9.93904 
-9.88446 -0.00251403 0.216797 
-0.00251403 -9.88379 -0.0465949 
0.216797 -0.0465949 -9.86255 
-9.87113 0.00771888 0.304522 
0.00771888 -9.94258 -0.0402145 
0.304522 -0.0402145 -9.8171 
-9.82494 -0.0185442 0.248587 
-0.0185442 -9.92774 -0.0312096 
0.248587 -0.0312096 -9.87812 
-9.8396 0.00402889 0.253905 
0.00402889 -9.91817 -0.0322527 
0.253905 -0.0322527 -9.87303 
-9.98393 0.0373272 0.189255 
0.0373272 -9.90443 0.192922 
0.189255 0.192922 -9.48057 
-9.96397 0.0363625 0.148754 
0.0363625 -9.94479 0.133861 
0.148754 0.133861 -9.46017 
-10.0016 -0.0159726 0.0170336 
-0.0159726 -9.93266 0.231266 
0.0170336 0.231266 -9.43467 
-9.84642 0.0108022 0.00335225 
0.0108022 -9.86956 0.0837967 
0.00335225 0.0837967 -9.65295 
-9.86115 0.068935 -0.0203284 
0.068935 -9.92015 -0.0351152 
-0.0203284 -0.0351152 -10.4226 
-9.87869 0.0104238 -0.0267635 
0.0104238 -10.0412 -0.00716965 
-0.0267635 -0.00716965 -10.284 
-9.85987 0.0555751 0.00862402 
0.0555751 -10.0111 -0.0343074 
0.00862402 -0.0343074 -10.3329 
-9.82726 0.136756 -0.0462633 
0.136756 -10.0746 0.0848949 
-0.0462633 0.0848949 -10.302 
-9.75641 0.0598043 -0.0666127 
0.0598043 -9.77531 -0.0640191 
-0.0666127 -0.0640191 -10.02 
-9.75595 0.0390508 -0.0628719 
0.0390508 -9.76185 -0.0791815 
-0.0628719 -0.0791815 -10.0339 
-9.7524 0.0952511 -0.110108 
0.0952511 -9.75928 -0.0391513 
-0.110108 -0.0391513 -10.0401 
-9.78995 0.0593776 -0.0817769 
0.0593776 -9.76805 -0.0775062 
-0.0817769 -0.0775062 -9.99375 
-9.83005 -0.00710658 0.0197867 
-0.00710658 -9.81711 0.0835716 
0.0197867 0.0835716 -10.0086 
-9.80873 -0.0063258 0.148915 
-0.0063258 -9.79262 0.149345 
0.148915 0.149345 -10.0544 
-9.65088 0.208817 0.0485686 
0.208817 -9.82528 0.0363328 
0.0485686 0.0363328 -10.1796 
-9.88978 0.087958 0.195323 
0.087958 -9.8287 0.208061 
0.195323 0.208061 -9.9373 
-9.75446 -0.054434 -0.235922 
-0.054434 -9.75082 0.251306 
-0.235922 0.251306 -9.85635 
-9.77794 -0.0553879 -0.187352 
-0.0553879 -9.72068 0.28553 
-0.187352 0.28553 -9.86302 
-9.74871 -0.0789166 -0.207791 
-0.0789166 -9.74859 0.230376 
-0.207791 0.230376 -9.86434 
-9.7877 -0.0600401 -0.18234 
-0.0600401 -9.72977 0.260783 
-0.18234 0.260783 -9.84416 
-9.75245 -0.0153481 0.243255 
-0.0153481 -9.84473 -0.0601254 
0.243255 -0.0601254 -9.88521 
-9.77384 -0.0297205 0.239037 
-0.0297205 -9.83251 -0.0589327 
0.239037 -0.0589327 -9.87605 
-9.72746 -0.0237409 0.242859 
-0.0237409 -9.85607 -0.0661736 
0.242859 -0.0661736 -9.89886 
-9.75377 -0.0317071 0.244452 
-0.0317071 -9.8193 -0.0754418 
0.244452 -0.0754418 -9.90932 
-10.0882 0.090988 0.250967 
0.090988 -9.83121 -0.270551 
0.250967 -0.270551 -10.5549 
-10.04 0.143286 -0.0651813 
0.143286 -9.73941 -0.0116669 
-0.0651813 -0.0116669 -10.6948 
-10.2442 -0.0560316 -0.0253124 
-0.0560316 -9.94195 0.0873289 
-0.0253124 0.0873289 -10.2881 
-9.93937 -0.141163 0.0178171 
-0.141163 -10.1143 0.10437 
0.0178171 0.10437 -10.4206 
-9.64964 0.030963 0.266458 
0.030963 -9.78043 0.236797 
0.266458 0.236797 -9.86775 
-9.64189 0.0774116 0.262431 
0.0774116 -9.76978 0.237124 
0.262431 0.237124 -9.88614 
-9.64659 0.0935784 0.237446 
0.0935784 -9.79787 0.237577 
0.237446 0.237577 -9.85336 
-9.68733 0.0576854 0.298642 
0.0576854 -9.75857 0.169083 
0.298642 0.169083 -9.85193 
-9.77277 0.0522234 -0.0515466 
0.0522234 -9.80889 -0.0411979 
-0.0515466 -0.0411979 -9.95375 
-9.80336 0.0270673 -0.0873517 
0.0270673 -9.77941 -0.103462 
-0.0873517 -0.103462 -9.95263 
-9.78353 0.029438 -0.0527687 
0.029438 -9.77842 -0.0541273 
-0.0527687 -0.0541273 -9.97345 
-9.77433 0.0532618 -0.03533 
0.0532618 -9.81652 -0.119361 
-0.03533 -0.119361 -9.94455 
-9.74756 0.0401277 -0.179355 
0.0401277 -9.79653 -0.0702266 
-0.179355 -0.0702266 -9.93993 
-9.7062 0.119096 -0.220741 
0.119096 -9.83653 -0.154107 
-0.220741 -0.154107 -9.94129 
-9.71971 0.0725013 -0.205392 
0.0725013 -9.85769 -0.105275 
-0.205392 -0.105275 -9.90662 
-9.71747 -0.0172263 -0.216821 
-0.0172263 -9.92045 -0.0849679 
-0.216821 -0.0849679 -9.84609 
-9.65758 -0.0563192 -0.135086 
-0.0563192 -9.84664 0.287413 
-0.135086 0.287413 -9.2126 
-9.25233 -0.31183 -0.527109 
-0.31183 -10.1408 0.4902 
-0.527109 0.4902 -9.32374 
-9.58391 0.102168 -0.835113 
0.102168 -10.1271 0.430802 
-0.835113 0.430802 -9.00577 
-9.43801 -0.166699 -0.451327 
-0.166699 -10.1485 0.37376 
-0.451327 0.37376 -9.13035 
-9.72756 -0.17706 -0.569195 
-0.17706 -9.43268 0.417079 
-0.569195 0.417079 -10.1077 
-9.72015 -0.207838 -0.265865 
-0.207838 -9.67492 0.125175 
-0.265865 0.125175 -9.87283 
-9.47229 -0.177472 -0.240596 
-0.177472 -9.74616 0.162538 
-0.240596 0.162538 -10.0494 
-9.63234 -0.133495 -0.29557 
-0.133495 -9.52425 0.169232 
-0.29557 0.169232 -10.1113 
-9.50672 -0.00687726 0.385594 
-0.00687726 -9.8616 -0.219189 
0.385594 -0.219189 -9.37606 
-9.51036 -0.155723 0.3832 
-0.155723 -9.87104 -0.161315 
0.3832 -0.161315 -9.36298 
-9.46297 -0.0540985 0.488396 
-0.0540985 -9.93127 -0.379071 
0.488396 -0.379071 -9.35014 
-9.55493 0.163586 0.319393 
0.163586 -9.82415 -0.264504 
0.319393 -0.264504 -9.36529 
-9.83276 0.0775174 0.260425 
0.0775174 -9.72604 0.265392 
0.260425 0.265392 -9.913 
-9.69608 0.0200621 0.13645 
0.0200621 -9.77689 0.217693 
0.13645 0.217693 -9.99884 
-9.65177 0.190826 0.241045 
0.190826 -9.74843 0.351899 
0.241045 0.351899 -10.0716 
-9.78748 0.0543005 0.275204 
0.0543005 -9.81774 0.239259 
0.275204 0.239259 -9.86659 
-9.80802 0.0494905 0.153261 
0.0494905 -9.80954 0.177969 
0.153261 0.177969 -9.9426 
-9.75739 0.0516065 0.155932 
0.0516065 -9.81062 0.158643 
0.155932 0.158643 -9.99214 
-9.82323 0.0447088 0.138862 
0.0447088 -9.80679 0.159371 
0.138862 0.159371 -9.93013 
-9.8109 0.0115505 0.213573 
0.0115505 -9.80106 0.160606 
0.213573 0.160606 -9.9482 
-9.88868 -0.000977077 -0.219878 
-0.000977077 -9.95532 0.150988 
-0.219878 0.150988 -9.93116 
-9.9269 -0.0271056 -0.197151 
-0.0271056 -9.8841 0.145343 
-0.197151 0.145343 -9.96415 
-9.8904 -0.00867132 -0.227628 
-0.00867132 -9.93027 0.160339 
-0.227628 0.160339 -9.95448 
-9.93277 -0.0556616 -0.274884 
-0.0556616 -9.9085 0.160668 
-0.274884 0.160668 -9.93388 
-10.3626 -0.266967 1.1422 
-0.266967 -9.26614 -0.457372 
1.1422 -0.457372 -9.82318 
-9.64843 0.633354 0.650104 
0.633354 -10.0162 0.641956 
0.650104 0.641956 -9.78734 
-9.40719 0.0781223 1.2705 
0.0781223 -9.37413 1.21668 
1.2705 1.21668 -10.6707 
-10.1539 -0.208591 0.865797 
-0.208591 -9.17156 0.742431 
0.865797 0.742431 -10.1265 
-9.77014 -0.118801 0.101997 
-0.118801 -9.78112 -0.0898611 
0.101997 -0.0898611 -10.0381 
-9.67674 -0.258851 0.100847 
-0.258851 -9.7133 -0.18913 
0.100847 -0.18913 -10.1994 
-9.76383 -0.123749 0.0456854 
-0.123749 -9.75584 0.0299464 
0.0456854 0.0299464 -10.0697 
-9.7691 -0.0208395 0.12925 
-0.0208395 -9.87089 -0.111821 
0.12925 -0.111821 -9.9494 
-9.86939 -0.0212428 -0.230484 
-0.0212428 -9.89895 0.156175 
-0.230484 0.156175 -9.9402 
-9.87325 -0.0600328 -0.21134 
-0.0600328 -9.8952 0.15634 
-0.21134 0.15634 -9.94009 
-9.87305 -0.035223 -0.223728 
-0.035223 -9.91804 0.141471 
-0.223728 0.141471 -9.91746 
-9.86414 -0.0311232 -0.19942 
-0.0311232 -9.94846 0.124055 
-0.19942 0.124055 -9.89594 
-9.89364 0.0402961 -0.153785 
0.0402961 -9.86336 -0.215598 
-0.153785 -0.215598 -9.95416 
-9.90476 0.0353941 -0.18688 
0.0353941 -9.8588 -0.217926 
-0.18688 -0.217926 -9.94761 
-9.93226 0.0362036 -0.191176 
0.0362036 -9.88994 -0.234506 
-0.191176 -0.234506 -9.88897 
-9.91247 0.0166526 -0.185528 
0.0166526 -9.87417 -0.23421 
-0.185528 -0.23421 -9.92453 
-10.5122 -0.424463 -0.681333 
-0.424463 -11.3842 -0.985081 
-0.681333 -0.985081 -13.2314 
-10.2528 0.00393075 -0.335012 
0.00393075 -10.5568 0.464338 
-0.335012 0.464338 -14.3182 
-10.5261 0.192454 -0.542534 
0.192454 -12.2568 -0.904875 
-0.542534 -0.904875 -12.3448 
-11.1617 0.0164441 0.34358 
0.0164441 -10.0217 -0.409971 
0.34358 -0.409971 -13.9443 
-9.87583 -0.133778 -0.0781856 
-0.133778 -10.3 0.032899 
-0.0781856 0.032899 -10.7539 
-10.6173 0.188763 0.16254 
0.188763 -9.96408 -0.121748 
0.16254 -0.121748 -10.3484 
-10.1243 -0.118568 0.261492 
-0.118568 -10.104 -0.195206 
0.261492 -0.195206 -10.7015 
-10.175 -0.00138652 0.137215 
-0.00138652 -10.1145 -0.191568 
0.137215 -0.191568 -10.6402 
-9.75341 0.0207565 -0.0518344 
0.0207565 -9.74761 -0.07594 
-0.0518344 -0.07594 -10.118 
-9.89107 0.0182127 -0.106328 
0.0182127 -9.89524 -0.0705938 
-0.106328 -0.0705938 -9.83271 
-9.84257 0.0732167 -0.138219 
0.0732167 -9.81534 -0.150058 
-0.138219 -0.150058 -9.96112 
-9.79907 0.0262841 -0.170427 
0.0262841 -9.82259 -0.103695 
-0.170427 -0.103695 -9.99737 
-10.1541 0.0485509 0.0686649 
0.0485509 -10.0107 -0.108394 
0.0686649 -0.108394 -10.3237 
-10.1202 -0.0518398 0.0534729 
-0.0518398 -10.0421 -0.00621068 
0.0534729 -0.00621068 -10.3262 
-10.132 -0.0206113 -0.0469511 
-0.0206113 -10.098 -0.0342299 
-0.0469511 -0.0342299 -10.2583 
-10.1908 0.0114938 0.0383901 
0.0114938 -10.0297 -0.0734879 
0.0383901 -0.0734879 -10.268 
-8.81715 -0.11289 0.658673 
-0.11289 -10.1991 0.297787 
0.658673 0.297787 -10.9136 
-9.47152 -0.18615 0.746704 
-0.18615 -9.97595 0.0133539 
0.746704 0.0133539 -10.4824 
-9.51245 0.0895758 0.518405 
0.0895758 -10.3682 -0.571597 
0.518405 -0.571597 -10.0492 
-9.01586 -0.643186 0.489035 
-0.643186 -9.77829 -0.172571 
0.489035 -0.172571 -11.1357 
-9.86631 -0.0537694 0.22722 
-0.0537694 -9.53577 -0.241954 
0.22722 -0.241954 -9.8933 
-9.9323 -0.0771525 0.342268 
-0.0771525 -9.56072 -0.319544 
0.342268 -0.319544 -9.80236 
-9.91373 -0.0841042 0.0225402 
-0.0841042 -9.76698 -0.338449 
0.0225402 -0.338449 -9.61467 
-9.84953 -0.17604 0.167305 
-0.17604 -9.66257 -0.31567 
0.167305 -0.31567 -9.78328 
-9.69522 0.098227 0.278562 
0.098227 -9.8233 0.221755 
0.278562 0.221755 -10.0489 
-9.71657 0.0800302 0.182538 
0.0800302 -9.76084 0.240792 
0.182538 0.240792 -10.09 
-9.76496 0.0724287 0.188229 
0.0724287 -9.81242 0.26977 
0.188229 0.26977 -9.99001 
-9.83341 0.0405016 0.179111 
0.0405016 -9.75467 0.230114 
0.179111 0.230114 -9.97932 
-9.85649 -0.643531 0.802966 
-0.643531 -9.57925 -0.266406 
0.802966 -0.266406 -10.6456 
-9.41713 -0.0893711 0.15307 
-0.0893711 -9.69274 -0.00667731 
0.15307 -0.00667731 -10.9715 
-9.62415 -0.14192 -0.0646107 
-0.14192 -9.99487 0.223155 
-0.0646107 0.223155 -10.4624 
-9.95821 0.3804 1.0145 
0.3804 -10.6109 -0.187346 
1.0145 -0.187346 -9.51223 
-9.65435 -0.138301 0.123497 
-0.138301 -9.72655 -0.167896 
0.123497 -0.167896 -10.0589 
-9.76116 -0.027366 0.170692 
-0.027366 -9.76507 -0.13424 
0.170692 -0.13424 -9.91355 
-9.71781 -0.0827063 0.0918848 
-0.0827063 -9.71496 -0.0841419 
0.0918848 -0.0841419 -10.007 
-9.73277 -0.0842976 0.132845 
-0.0842976 -9.71543 -0.112511 
0.132845 -0.112511 -9.99158 
-9.58572 0.0215632 -0.268866 
0.0215632 -9.90982 -0.15682 
-0.268866 -0.15682 -9.82383 
-9.65087 0.00375421 -0.277166 
0.00375421 -9.96584 -0.138342 
-0.277166 -0.138342 -9.70267 
-9.70638 0.000194017 -0.29462 
0.000194017 -9.82965 -0.119969 
-0.29462 -0.119969 -9.78335 
-9.62281 0.0737233 -0.352656 
0.0737233 -9.82316 -0.132427 
-0.352656 -0.132427 -9.87341 
-9.83579 -0.0247919 0.20013 
-0.0247919 -9.83454 0.0963724 
0.20013 0.0963724 -9.93499 
-9.77955 0.0313109 0.195935 
0.0313109 -9.86442 0.122047 
0.195935 0.122047 -9.96135 
-9.84329 0.0665598 0.157595 
0.0665598 -9.85618 0.154164 
0.157595 0.154164 -9.90585 
-9.84105 0.0402919 0.205894 
0.0402919 -9.8391 0.203314 
0.205894 0.203314 -9.92517 
-9.96202 -0.00793753 -0.0527001 
-0.00793753 -9.92661 0.222968 
-0.0527001 0.222968 -9.88803 
-9.96796 -0.00339543 -0.0492603 
-0.00339543 -9.92288 0.215911 
-0.0492603 0.215911 -9.88581 
-9.97728 0.0238912 -0.0540291 
0.0238912 -9.94043 0.224985 
-0.0540291 0.224985 -9.85895 
-9.97284 -0.0235771 -0.0204762 
-0.0235771 -9.92119 0.195881 
-0.0204762 0.195881 -9.88262 
-9.83291 0.3417 0.481187 
0.3417 -8.54912 1.00179 
0.481187 1.00179 -7.90495 
-9.50387 0.231931 0.499474 
0.231931 -9.13095 0.720927 
0.499474 0.720927 -7.65216 
-9.4296 -0.165147 0.835489 
-0.165147 -8.78733 0.873681 
0.835489 0.873681 -8.07006 
-9.74394 -0.522319 1.01066 
-0.522319 -9.09864 1.15782 
1.01066 1.15782 -7.44439 
-7.74406 -0.522949 1.19334 
-0.522949 -8.50879 0.917848 
1.19334 0.917848 -7.46444 
-7.81072 0.550864 1.7999 
0.550864 -8.99604 0.363711 
1.7999 0.363711 -6.91053 
-7.37253 -0.172015 0.830627 
-0.172015 -8.88582 -0.838979 
0.830627 -0.838979 -7.45894 
-7.55626 0.176719 0.830766 
0.176719 -8.92603 -0.1084 
0.830766 -0.1084 -7.23499 
-10.213 0.0348453 -0.0463883 
0.0348453 -10.3409 0.0538845 
-0.0463883 0.0538845 -10.5435 
-10.4598 -0.0141527 0.00719562 
-0.0141527 -10.5302 -0.107108 
0.00719562 -0.107108 -10.1073 
-10.2347 -0.0134122 -0.118601 
-0.0134122 -10.3591 0.0548368 
-0.118601 0.0548368 -10.5035 
-10.277 0.00183695 -0.2092 
0.00183695 -10.292 -0.058461 
-0.2092 -0.058461 -10.5284 
-9.90616 0.0120208 0.201212 
0.0120208 -9.90938 0.0825703 
0.201212 0.0825703 -9.9864 
-9.89014 0.00369126 0.22019 
0.00369126 -9.94998 0.114175 
0.22019 0.114175 -9.96182 
-9.89396 0.00701043 0.208409 
0.00701043 -9.9719 0.118476 
0.208409 0.118476 -9.93608 
-9.91721 0.0333254 0.182029 
0.0333254 -9.91099 0.120786 
0.182029 0.120786 -9.97374 
-9.60133 0.185385 0.45987 
0.185385 -9.84431 -0.166063 
0.45987 -0.166063 -9.49396 
-9.70152 -0.0698007 0.413574 
-0.0698007 -9.58341 -0.214508 
0.413574 -0.214508 -9.65468 
-9.56259 -0.0655247 0.488441 
-0.0655247 -10.1169 -0.0870823 
0.488441 -0.0870823 -9.26007 
-9.67575 -0.229059 -0.00219502 
-0.229059 -9.84755 -0.177605 
-0.00219502 -0.177605 -9.4163 
-9.44767 -0.25786 -0.59199 
-0.25786 -9.96088 0.390278 
-0.59199 0.390278 -9.95032 
-9.81008 -0.160157 -0.417074 
-0.160157 -9.68871 0.174267 
-0.417074 0.174267 -9.86008 
-9.68452 -0.0605129 -0.073607 
-0.0605129 -9.60464 0.331808 
-0.073607 0.331808 -10.0697 
-9.97323 -0.0752985 -0.375842 
-0.0752985 -9.54765 0.265989 
-0.375842 0.265989 -9.83799 
-9.72419 0.0404264 -0.27748 
0.0404264 -9.9925 -0.00563198 
-0.27748 -0.00563198 -9.90258 
-9.76488 -0.0205462 -0.251321 
-0.0205462 -9.87456 -0.0368756 
-0.251321 -0.0368756 -9.97982 
-9.74848 0.0710362 -0.289713 
0.0710362 -9.9622 -0.126554 
-0.289713 -0.126554 -9.90858 
-9.76753 0.00953508 -0.230225 
0.00953508 -9.93369 -0.0332422 
-0.230225 -0.0332422 -9.91804 
-9.76836 0.0393137 0.134691 
0.0393137 -9.68451 0.175723 
0.134691 0.175723 -9.91938 
-9.68407 0.13924 0.19717 
0.13924 -9.68588 0.131563 
0.19717 0.131563 -10.0023 
-9.66911 0.0715306 0.185379 
0.0715306 -9.75589 0.118246 
0.185379 0.118246 -9.94725 
-9.76446 0.0669502 0.132659 
0.0669502 -9.65485 0.128325 
0.132659 0.128325 -9.95294 
-10.1849 0.155779 0.036158 
0.155779 -10.1392 0.0624035 
0.036158 0.0624035 -10.2264 
-10.0553 -0.085367 0.0325974 
-0.085367 -10.152 -0.0745693 
0.0325974 -0.0745693 -10.3432 
-10.0672 0.155096 0.0472434 
0.155096 -10.0457 0.0251119 
0.0472434 0.0251119 -10.4377 
-10.1985 -0.215931 0.0819568 
-0.215931 -10.0283 0.161844 
0.0819568 0.161844 -10.3237 
-9.88334 -0.127137 -0.233677 
-0.127137 -10.7109 -0.183323 
-0.233677 -0.183323 -10.3678 
-9.78191 0.0644311 -0.112191 
0.0644311 -10.2621 -0.315794 
-0.112191 -0.315794 -10.9181 
-10.2457 0.191637 0.0320902 
0.191637 -9.92773 0.0899152 
0.0320902 0.0899152 -10.7887 
-10.2259 0.143529 -0.0603076 
0.143529 -10.1452 -0.183798 
-0.0603076 -0.183798 -10.5909 
-9.80841 -0.0402047 0.173561 
-0.0402047 -9.82026 -0.134765 
0.173561 -0.134765 -9.95367 
-9.80406 -0.0557277 0.175282 
-0.0557277 -9.7996 -0.126801 
0.175282 -0.126801 -9.97868 
-9.80797 -0.031705 0.171323 
-0.031705 -9.85083 -0.104268 
0.171323 -0.104268 -9.92354 
-9.8056 -0.00013609 0.218508 
-0.00013609 -9.82432 -0.168149 
0.218508 -0.168149 -9.95241 
-9.92567 -0.00199299 -0.231555 
-0.00199299 -9.94491 -0.103294 
-0.231555 -0.103294 -9.94033 
-9.91737 0.00232193 -0.243025 
0.00232193 -9.98355 -0.105427 
-0.243025 -0.105427 -9.91 
-9.91836 -0.000318262 -0.205072 
-0.000318262 -9.91329 -0.0228664 
-0.205072 -0.0228664 -9.97926 
-9.91524 0.0322651 -0.202082 
0.0322651 -9.94321 -0.106988 
-0.202082 -0.106988 -9.95247 
-9.97446 -1.00703 0.918104 
-1.00703 -9.18347 -1.74518 
0.918104 -1.74518 -10.2423 
-10.3105 -0.0334881 0.544952 
-0.0334881 -9.36846 -1.10116 
0.544952 -1.10116 -9.72127 
-10.2561 0.339202 0.929816 
0.339202 -10.5004 -0.58146 
0.929816 -0.58146 -8.64385 
-9.64828 -0.29148 -0.0940792 
-0.29148 -9.08256 -0.776199 
-0.0940792 -0.776199 -10.6694 
-9.91719 0.00941802 -0.0376074 
0.00941802 -9.81918 0.153852 
-0.0376074 0.153852 -9.8708 
-9.9456 -0.0398276 -0.18869 
-0.0398276 -9.92586 0.215711 
-0.18869 0.215711 -9.73572 
-9.904 -0.00747869 -0.142244 
-0.00747869 -9.86959 0.180541 
-0.142244 0.180541 -9.83358 
-9.86314 -0.00096571 -0.157795 
-0.00096571 -9.91361 0.191673 
-0.157795 0.191673 -9.83042 
-3.53137 -0.604019 0.884812 
-0.604019 -2.77945 -0.483279 
0.884812 -0.483279 -4.80398 
-3.49306 -0.405752 1.14674 
-0.405752 -4.93447 -0.541777 
1.14674 -0.541777 -2.68726 
-6.08591 -0.552239 2.26365 
-0.552239 -6.87539 -1.61581 
2.26365 -1.61581 1.8465 
-3.26855 1.08259 0.548891 
1.08259 -6.41629 3.31026 
0.548891 3.31026 -1.42996 
-9.93716 -0.00601356 -0.233535 
-0.00601356 -9.94906 0.121516 
-0.233535 0.121516 -9.97896 
-9.88064 -0.0339161 -0.254765 
-0.0339161 -9.98304 0.141986 
-0.254765 0.141986 -10.0015 
-9.94114 -0.0157675 -0.235858 
-0.0157675 -9.94727 0.121567 
-0.235858 0.121567 -9.97676 
-9.92968 0.0331207 -0.150646 
0.0331207 -9.90652 0.099515 
-0.150646 0.099515 -10.029 
-9.76362 -0.266801 1.83001 
-0.266801 -9.94825 -0.227336 
1.83001 -0.227336 -9.6257 
-8.80231 0.584 -0.29575 
0.584 -9.0872 0.90965 
-0.29575 0.90965 -11.4481 
-8.43503 0.107514 2.58638 
0.107514 -10.2886 0.459695 
2.58638 0.459695 -10.6139 
-9.11712 -0.249692 1.43872 
-0.249692 -9.92083 0.131759 
1.43872 0.131759 -10.2996 
-9.76527 -0.0396152 -0.0506849 
-0.0396152 -9.83778 0.0778298 
-0.0506849 0.0778298 -10.0465 
-9.8643 -0.00369308 -0.0982278 
-0.00369308 -9.74576 0.111614 
-0.0982278 0.111614 -10.0395 
-9.78697 -0.0450181 -0.0692962 
-0.0450181 -9.77687 0.0743207 
-0.0692962 0.0743207 -10.0857 
-9.75433 -0.0937879 -0.0767534 
-0.0937879 -9.78832 0.0555371 
-0.0767534 0.0555371 -10.1069 
-9.70344 0.0769341 -0.222534 
0.0769341 -9.74326 -0.202216 
-0.222534 -0.202216 -10.0518 
-9.70158 0.0975047 -0.228983 
0.0975047 -9.72989 -0.227135 
-0.228983 -0.227135 -10.0671 
-9.78386 0.0937761 -0.217221 
0.0937761 -9.7271 -0.196498 
-0.217221 -0.196498 -9.98759 
-9.76069 0.0916965 -0.256523 
0.0916965 -9.75444 -0.2008 
-0.256523 -0.2008 -9.98342 
-9.60726 0.216295 0.281221 
0.216295 -9.5675 0.334234 
0.281221 0.334234 -9.96311 
-9.61846 0.15137 0.252925 
0.15137 -9.7599 0.383771 
0.252925 0.383771 -9.7595 
-9.56332 0.0590934 0.0895864 
0.0590934 -9.6765 0.509975 
0.0895864 0.509975 -9.89805 
-9.49763 0.332043 0.259364 
0.332043 -9.83827 0.363034 
0.259364 0.363034 -9.80197 
-9.77898 -0.0778904 0.268492 
-0.0778904 -9.79365 -0.258575 
0.268492 -0.258575 -9.89837 
-9.8073 0.00385336 0.266439 
0.00385336 -9.80632 -0.238339 
0.266439 -0.238339 -9.85738 
-9.75984 -0.0868619 0.235701 
-0.0868619 -9.79706 -0.220057 
0.235701 -0.220057 -9.9141 
-9.76715 -0.0627757 0.270522 
-0.0627757 -9.79766 -0.253068 
0.270522 -0.253068 -9.90619 
-9.94329 0.0463676 0.814199 
0.0463676 -9.66893 -0.241873 
0.814199 -0.241873 -10.0154 
-9.79192 -0.233364 1.37593 
-0.233364 -9.46295 -0.373194 
1.37593 -0.373194 -10.3728 
-9.78978 -0.0540716 0.0309104 
-0.0540716 -9.84148 -0.474555 
0.0309104 -0.474555 -9.99639 
-9.88041 -0.296242 1.19135 
-0.296242 -9.76772 -0.196517 
1.19135 -0.196517 -9.97952 
-9.98847 0.0955464 0.279731 
0.0955464 -9.67927 -0.405724 
0.279731 -0.405724 -9.44134 
-9.82024 -0.0577148 0.265203 
-0.0577148 -9.66081 -0.486919 
0.265203 -0.486919 -9.62804 
-9.90424 -0.146958 0.194391 
-0.146958 -9.51796 -0.485839 
0.194391 -0.485839 -9.68689 
-9.90532 -0.165214 0.282555 
-0.165214 -9.41765 -0.551022 
0.282555 -0.551022 -9.78611 
-10.2206 -0.000583857 -0.0789684 
-0.000583857 -10.1839 -0.111205 
-0.0789684 -0.111205 -10.4851 
-10.2375 -0.0201875 -0.0221009 
-0.0201875 -10.1886 -0.0435713 
-0.0221009 -0.0435713 -10.4634 
-10.4404 -0.00103071 0.12484 
-0.00103071 -10.3902 0.0215441 
0.12484 0.0215441 -10.059 
-10.1521 0.0135277 0.0971209 
0.0135277 -10.2532 -0.192235 
0.0971209 -0.192235 -10.4842 
-9.76782 -0.0122907 -0.104697 
-0.0122907 -9.73691 0.318303 
-0.104697 0.318303 -9.78373 
-9.75421 -0.0649173 -0.257067 
-0.0649173 -9.6704 0.211723 
-0.257067 0.211723 -9.86386 
-9.73805 0.0235691 -0.288298 
0.0235691 -9.63081 0.30174 
-0.288298 0.30174 -9.9196 
-9.83708 -0.0634082 -0.253256 
-0.0634082 -9.61796 0.167608 
-0.253256 0.167608 -9.83343 
-9.81418 -0.000681635 -0.0695283 
-0.000681635 -9.79039 0.0537711 
-0.0695283 0.0537711 -10.0104 
-9.78742 -0.0438559 -0.184972 
-0.0438559 -9.84956 0.166539 
-0.184972 0.166539 -9.97797 
-9.80549 -0.00605755 -0.150019 
-0.00605755 -9.77593 0.151063 
-0.150019 0.151063 -10.0335 
-9.76891 -0.173467 -0.0561706 
-0.173467 -9.71625 0.0769832 
-0.0561706 0.0769832 -10.1298 
-8.98024 0.0899995 2.57453 
0.0899995 -9.60795 0.592693 
2.57453 0.592693 -9.83912 
-8.63857 1.56464 0.328239 
1.56464 -8.99298 -0.788811 
0.328239 -0.788811 -10.7958 
-10.4801 0.142931 1.71668 
0.142931 -9.43376 0.306421 
1.71668 0.306421 -8.51349 
-9.83889 0.399944 1.63968 
0.399944 -9.36463 0.559226 
1.63968 0.559226 -9.22379 
-9.87053 0.00428479 -0.26549 
0.00428479 -9.92752 -0.0643428 
-0.26549 -0.0643428 -9.8976 
-9.81951 0.0774736 -0.300819 
0.0774736 -9.95961 -0.109885 
-0.300819 -0.109885 -9.91653 
-9.83397 -0.0116398 -0.227953 
-0.0116398 -9.94776 -0.0582058 
-0.227953 -0.0582058 -9.91392 
-9.87762 0.0202561 -0.147647 
0.0202561 -9.86933 -0.0629821 
-0.147647 -0.0629821 -9.9487 
-9.77186 -0.0607811 -0.280848 
-0.0607811 -9.79761 0.232518 
-0.280848 0.232518 -9.858 
-9.77211 -0.0893648 -0.277006 
-0.0893648 -9.75407 0.212365 
-0.277006 0.212365 -9.90131 
-9.75467 -0.0208567 -0.306202 
-0.0208567 -9.82651 0.356161 
-0.306202 0.356161 -9.84629 
-9.75947 -0.029681 -0.249451 
-0.029681 -9.83698 0.173056 
-0.249451 0.173056 -9.83103 
-10.0252 -0.0013244 0.0742054 
-0.0013244 -9.9472 0.0113381 
0.0742054 0.0113381 -9.94465 
-9.81827 0.0126853 -0.0103298 
0.0126853 -9.91013 0.0172553 
-0.0103298 0.0172553 -10.1886 
-9.86994 0.0449929 0.145182 
0.0449929 -9.97249 0.0628622 
0.145182 0.0628622 -10.0746 
-9.91311 0.0105764 0.0623028 
0.0105764 -9.95691 0.0437977 
0.0623028 0.0437977 -10.047 
-9.84216 -0.065013 0.187731 
-0.065013 -9.8029 -0.22303 
0.187731 -0.22303 -9.94881 
-9.90007 -0.0285131 0.226555 
-0.0285131 -9.83326 -0.237612 
0.226555 -0.237612 -9.86053 
-9.84201 -0.048337 0.215532 
-0.048337 -9.80024 -0.207705 
0.215532 -0.207705 -9.95161 
-9.81642 -0.0398903 0.225752 
-0.0398903 -9.80885 -0.292294 
0.225752 -0.292294 -9.96858 
-9.90941 0.0554526 -0.0155859 
0.0554526 -9.7499 0.090499 
-0.0155859 0.090499 -9.56504 
-9.82416 -0.00182028 -0.176832 
-0.00182028 -9.90826 0.225918 
-0.176832 0.225918 -9.49193 
-9.81268 0.0297743 -0.186596 
0.0297743 -9.98594 0.215359 
-0.186596 0.215359 -9.42573 
-9.9139 -0.0661299 -0.246765 
-0.0661299 -9.86624 0.375044 
-0.246765 0.375044 -9.44421 
-9.90021 0.0237157 0.136837 
0.0237157 -9.8542 0.224873 
0.136837 0.224873 -9.90851 
-9.89936 0.0180384 0.150299 
0.0180384 -9.85827 0.23759 
0.150299 0.23759 -9.90528 
-9.89713 0.0268566 0.139174 
0.0268566 -9.85954 0.216 
0.139174 0.216 -9.90625 
-9.91702 0.0258492 0.137239 
0.0258492 -9.85637 0.257279 
0.137239 0.257279 -9.88952 
-9.84399 -0.00654965 -0.236093 
-0.00654965 -9.74681 -0.208395 
-0.236093 -0.208395 -9.87187 
-9.79999 0.13066 -0.266032 
0.13066 -9.73799 -0.303681 
-0.266032 -0.303681 -9.92469 
-9.74854 0.117827 -0.212572 
0.117827 -9.79165 -0.192016 
-0.212572 -0.192016 -9.92247 
-9.78834 0.0490016 -0.259127 
0.0490016 -9.73343 -0.261776 
-0.259127 -0.261776 -9.9409 
-9.96281 -0.0858525 -0.226431 
-0.0858525 -10.1314 0.179824 
-0.226431 0.179824 -8.98087 
-9.8113 -0.0322216 -0.0349139 
-0.0322216 -9.82879 0.173886 
-0.0349139 0.173886 -9.43495 
-9.87969 -0.00960842 -0.235568 
-0.00960842 -9.81107 0.324336 
-0.235568 0.324336 -9.38428 
-9.99569 -0.0403001 -0.179417 
-0.0403001 -9.73786 0.345408 
-0.179417 0.345408 -9.34148 
-9.75532 0.0426045 0.16894 
0.0426045 -9.76595 0.118045 
0.16894 0.118045 -9.9073 
-9.70858 0.0396947 0.187489 
0.0396947 -9.7616 0.123993 
0.187489 0.123993 -9.95839 
-9.79105 0.00348035 0.199573 
0.00348035 -9.74789 0.137619 
0.199573 0.137619 -9.88964 
-9.7709 0.0703722 0.0981668 
0.0703722 -9.79917 0.0808072 
0.0981668 0.0808072 -9.85851 
-9.7757 0.0775186 0.139821 
0.0775186 -9.7081 0.166721 
0.139821 0.166721 -9.91528 
-9.6674 0.132156 0.177447 
0.132156 -9.75804 0.178736 
0.177447 0.178736 -9.97365 
-9.72737 0.0410893 0.148105 
0.0410893 -9.72979 0.130197 
0.148105 0.130197 -9.94193 
-9.72092 0.0364971 0.105496 
0.0364971 -9.73611 0.10081 
0.105496 0.10081 -9.94207 
-11.4811 0.368773 -0.616128 
0.368773 -9.89202 -0.341885 
-0.616128 -0.341885 -7.40849 
-11.341 0.722624 -2.08342 
0.722624 -9.95849 -0.588211 
-2.08342 -0.588211 -7.48211 
-9.17167 -0.220368 -0.731961 
-0.220368 -10.6588 -0.644896 
-0.731961 -0.644896 -8.95109 
-12.4604 0.0315869 -0.0250272 
0.0315869 -9.71109 -2.30605 
-0.0250272 -2.30605 -6.6101 
-12.6318 -0.322273 0.454146 
-0.322273 -12.6156 0.573308 
0.454146 0.573308 -10.5188 
-12.1055 -0.31374 0.016387 
-0.31374 -12.0502 0.144932 
0.016387 0.144932 -11.6105 
-10.883 -0.353103 -0.69217 
-0.353103 -10.9593 0.358137 
-0.69217 0.358137 -13.9239 
-12.7395 -0.901935 -0.767495 
-0.901935 -12.4694 -1.08449 
-0.767495 -1.08449 -10.5573 
-9.93491 -0.234745 -0.0627268 
-0.234745 -10.0056 -0.266372 
-0.0627268 -0.266372 -10.331 
-10.1407 -0.165385 0.116534 
-0.165385 -9.61002 0.286358 
0.116534 0.286358 -10.5207 
-10.0506 -0.22839 0.112767 
-0.22839 -9.4212 0.217707 
0.112767 0.217707 -10.7997 
-10.1995 -0.442562 -0.209691 
-0.442562 -9.61354 0.713824 
-0.209691 0.713824 -10.4584 
-9.49696 0.178151 -0.282531 
0.178151 -13.1477 -0.472094 
-0.282531 -0.472094 -12.4965 
-10.7252 0.220294 -1.2322 
0.220294 -14.5675 0.0772913 
-1.2322 0.0772913 -9.84836 
-5.3355 -0.397174 0.912298 
-0.397174 -9.37414 0.687223 
0.912298 0.687223 -20.4315 
-12.286 0.380697 5.32719 
0.380697 -13.2641 -1.64385 
5.32719 -1.64385 -9.59101 
-9.83388 0.0451502 0.226372 
0.0451502 -9.78495 0.246384 
0.226372 0.246384 -9.93458 
-9.76267 0.0596657 0.172654 
0.0596657 -9.81669 0.161471 
0.172654 0.161471 -9.97406 
-9.7776 0.0514324 0.229271 
0.0514324 -9.78429 0.256737 
0.229271 0.256737 -9.99153 
-9.84119 0.0606731 0.233429 
0.0606731 -9.8149 0.260622 
0.233429 0.260622 -9.89732 
-9.77571 0.0635855 0.187649 
0.0635855 -9.76285 0.270265 
0.187649 0.270265 -9.89597 
-9.76554 0.0400533 0.230181 
0.0400533 -9.81878 0.263915 
0.230181 0.263915 -9.8502 
-9.86805 -0.00118528 0.248978 
-0.00118528 -9.69114 0.119189 
0.248978 0.119189 -9.87535 
-9.81249 0.051817 0.217956 
0.051817 -9.79841 0.2641 
0.217956 0.2641 -9.82362 
-8.3724 -0.100324 0.272366 
-0.100324 -8.41817 0.939818 
0.272366 0.939818 -10.8954 
-10.1367 -0.523087 -0.641617 
-0.523087 -10.4081 0.765549 
-0.641617 0.765549 -7.14107 
-9.55564 -0.0840434 -0.0431723 
-0.0840434 -8.91162 4.09719 
-0.0431723 4.09719 -9.21867 
-9.66952 -1.06937 -0.470519 
-1.06937 -9.18665 1.46301 
-0.470519 1.46301 -8.82977 
-9.95621 -0.0236665 -0.0964746 
-0.0236665 -9.73015 -0.31814 
-0.0964746 -0.31814 -9.84336 
-9.85993 -0.0148393 -0.00315551 
-0.0148393 -9.79756 -0.283431 
-0.00315551 -0.283431 -9.87222 
-9.91723 0.0129904 -0.00728804 
0.0129904 -9.73471 -0.218344 
-0.00728804 -0.218344 -9.87778 
-9.8971 0.0306231 -0.0786113 
0.0306231 -9.7816 -0.234871 
-0.0786113 -0.234871 -9.85101 
-7.72551 1.08561 2.26213 
1.08561 -6.81652 0.483143 
2.26213 0.483143 -2.82067 
-9.90012 0.20885 1.79539 
0.20885 -5.26859 1.1185 
1.79539 1.1185 -2.194 
-8.49986 0.732116 2.67911 
0.732116 -5.76208 0.435212 
2.67911 0.435212 -3.10076 
-8.514 0.982579 2.74648 
0.982579 -6.02466 -0.0633017 
2.74648 -0.0633017 -2.82405 
-9.95277 -0.00988042 0.0139682 
-0.00988042 -9.92014 -0.239086 
0.0139682 -0.239086 -9.9721 
-9.97284 -0.016124 0.00348429 
-0.016124 -9.89964 -0.23621 
0.00348429 -0.23621 -9.97253 
-9.96456 -0.00613811 0.00781547 
-0.00613811 -9.92106 -0.226899 
0.00781547 -0.226899 -9.95939 
-9.93405 -0.0067926 0.0208863 
-0.0067926 -9.94749 -0.277224 
0.0208863 -0.277224 -9.96347 
-3.65568 -0.388498 1.86348 
-0.388498 -5.1455 -0.331715 
1.86348 -0.331715 -3.94953 
-6.13947 0.155172 1.55464 
0.155172 -6.86659 -0.869771 
1.55464 -0.869771 0.255354 
-3.94995 -0.165111 1.95893 
-0.165111 -5.2651 -0.43225 
1.95893 -0.43225 -3.53566 
-4.29514 -0.83366 3.74781 
-0.83366 -4.46205 -0.28118 
3.74781 -0.28118 -3.99352 
-9.54602 0.0626857 0.552067 
0.0626857 -9.399 0.276817 
0.552067 0.276817 -9.74354 
-9.42423 -0.0835124 0.704266 
-0.0835124 -9.38266 0.717741 
0.704266 0.717741 -9.88168 
-9.67033 0.0134149 0.729679 
0.0134149 -9.41831 0.261466 
0.729679 0.261466 -9.59992 
-9.71169 0.0851045 0.349785 
0.0851045 -9.664 0.606663 
0.349785 0.606663 -9.31288 
-9.89742 -0.0440446 0.054201 
-0.0440446 -9.86566 0.0701571 
0.054201 0.0701571 -10.3931 
-9.81303 -0.0942676 0.0823407 
-0.0942676 -9.92007 0.0643492 
0.0823407 0.0643492 -10.4231 
-9.84592 -0.0361361 0.0762856 
-0.0361361 -9.82138 -0.00024075 
0.0762856 -0.00024075 -10.4889 
-9.97515 0.0133001 -0.222475 
0.0133001 -9.65836 0.24088 
-0.222475 0.24088 -10.5227 
-9.6165 -2.21585 -0.203244 
-2.21585 -8.84191 -0.574925 
-0.203244 -0.574925 -15.5555 
-9.59217 -7.4915 0.975169 
-7.4915 -2.12468 -2.07473 
0.975169 -2.07473 -22.2971 
-12.4308 -2.42775 -0.7475 
-2.42775 -11.5249 1.91827 
-0.7475 1.91827 -10.0583 
-11.1107 -2.71477 -1.49676 
-2.71477 -12.8819 -4.56105 
-1.49676 -4.56105 -10.0214 
-10.8097 0.0309112 -0.722871 
0.0309112 -8.31821 0.192758 
-0.722871 0.192758 -6.35913 
-10.3883 -0.150261 -0.765322 
-0.150261 -8.13333 -0.184001 
-0.765322 -0.184001 -6.96546 
-9.47333 1.22669 -0.426163 
1.22669 -7.63043 0.443681 
-0.426163 0.443681 -8.38329 
-10.7504 0.102126 -0.943842 
0.102126 -7.82388 0.479276 
-0.943842 0.479276 -6.91276 
-9.75233 -0.0506872 -0.222279 
-0.0506872 -9.82125 0.193687 
-0.222279 0.193687 -9.90815 
-9.74307 -0.0561906 -0.1903 
-0.0561906 -9.74791 0.180878 
-0.1903 0.180878 -9.99074 
-9.77465 -0.0732178 -0.274671 
-0.0732178 -9.79637 0.22876 
-0.274671 0.22876 -9.91071 
-9.80489 -0.0418236 -0.239875 
-0.0418236 -9.82831 0.178115 
-0.239875 0.178115 -9.84852 
-9.93856 0.0113239 0.0612284 
0.0113239 -10.0078 -0.00421354 
0.0612284 -0.00421354 -10.1222 
-9.89216 -0.0518929 0.0688216 
-0.0518929 -9.98308 0.0678185 
0.0688216 0.0678185 -10.1933 
-9.89766 0.0873183 0.019822 
0.0873183 -9.99304 0.0124297 
0.019822 0.0124297 -10.1779 
-9.94851 0.0857997 0.0196823 
0.0857997 -10.0171 0.0663041 
0.0196823 0.0663041 -10.103 
-9.74508 0.0880784 -0.252035 
0.0880784 -9.7624 -0.205985 
-0.252035 -0.205985 -9.94661 
-9.73856 0.0549601 -0.258526 
0.0549601 -9.77163 -0.222956 
-0.258526 -0.222956 -9.94389 
-9.74522 0.0761223 -0.267013 
0.0761223 -9.76906 -0.210325 
-0.267013 -0.210325 -9.9398 
-9.72292 0.0631583 -0.274052 
0.0631583 -9.76494 -0.247873 
-0.274052 -0.247873 -9.96623 
-9.78135 -0.0584888 0.127065 
-0.0584888 -9.70762 -0.150415 
0.127065 -0.150415 -9.95693 
-9.73455 -0.0344062 0.13456 
-0.0344062 -9.72601 -0.161741 
0.13456 -0.161741 -9.98535 
-9.75676 -0.0286181 0.136481 
-0.0286181 -9.75476 -0.158087 
0.136481 -0.158087 -9.93439 
-9.7447 -0.0863744 0.153683 
-0.0863744 -9.72453 -0.167345 
0.153683 -0.167345 -9.97668 
-9.84839 -0.0303846 0.239497 
-0.0303846 -9.67447 -0.220565 
0.239497 -0.220565 -9.76525 
-9.80838 -0.0585664 0.242989 
-0.0585664 -9.70317 -0.353466 
0.242989 -0.353466 -9.77656 
-9.78093 -0.0437701 0.232752 
-0.0437701 -9.77197 -0.294101 
0.232752 -0.294101 -9.73522 
-9.7854 -0.0507146 0.231735 
-0.0507146 -9.74033 -0.303025 
0.231735 -0.303025 -9.76238 
-9.62457 0.0628995 0.297787 
0.0628995 -9.64814 0.381688 
0.297787 0.381688 -9.99237 
-9.6497 0.0751973 0.317859 
0.0751973 -9.74638 0.334115 
0.317859 0.334115 -9.86899 
-9.63619 0.112198 0.278742 
0.112198 -9.84412 0.420589 
0.278742 0.420589 -9.78476 
-9.65836 0.0338738 0.350898 
0.0338738 -9.83325 0.118324 
0.350898 0.118324 -9.77346 
-9.63537 0.144564 0.0457854 
0.144564 -9.65971 -0.0174113 
0.0457854 -0.0174113 -10.0738 
-9.98557 0.477771 -0.124705 
0.477771 -9.56402 -0.339921 
-0.124705 -0.339921 -9.81927 
-10.2092 0.11606 -0.215167 
0.11606 -9.74177 -0.52919 
-0.215167 -0.52919 -9.41791 
-9.65661 0.32588 -1.35705 
0.32588 -9.62882 -0.493521 
-1.35705 -0.493521 -10.0834 
-9.92046 0.0123654 -0.0181842 
0.0123654 -9.85546 0.233637 
-0.0181842 0.233637 -9.76497 
-9.89252 0.00388217 0.0746572 
0.00388217 -9.82066 0.244545 
0.0746572 0.244545 -9.8277 
-9.95534 -0.00474308 0.00791648 
-0.00474308 -9.86276 0.255973 
0.00791648 0.255973 -9.72279 
-9.9269 -0.00184411 0.0116431 
-0.00184411 -9.85585 0.258149 
0.0116431 0.258149 -9.75814 
-9.83861 0.0127295 -0.246361 
0.0127295 -9.91538 -0.0369855 
-0.246361 -0.0369855 -9.90282 
-9.8363 0.0282187 -0.260078 
0.0282187 -9.92359 -0.045409 
-0.260078 -0.045409 -9.89692 
-9.84636 0.0399606 -0.257119 
0.0399606 -9.91387 -0.0424155 
-0.257119 -0.0424155 -9.89658 
-9.84975 0.0205875 -0.278003 
0.0205875 -9.95541 -0.0897823 
-0.278003 -0.0897823 -9.85165 
-9.8775 -0.0330136 -0.0452336 
-0.0330136 -9.87815 0.0542908 
-0.0452336 0.0542908 -9.99276 
-9.84139 -0.0678131 -0.0330812 
-0.0678131 -9.91202 0.0953773 
-0.0330812 0.0953773 -9.99499 
-9.86627 -0.0461518 -0.0794456 
-0.0461518 -9.87469 0.0283076 
-0.0794456 0.0283076 -10.0074 
-9.91779 -0.0488043 -0.0333757 
-0.0488043 -9.7881 -0.0313173 
-0.0333757 -0.0313173 -10.0425 
-9.96934 -0.00638139 -0.0668766 
-0.00638139 -10.044 0.0147151 
-0.0668766 0.0147151 -10.1275 
-9.90234 -0.0946751 -0.096008 
-0.0946751 -9.9917 -0.0717314 
-0.096008 -0.0717314 -10.2467 
-9.9153 0.076227 -0.0103744 
0.076227 -10.0161 -0.0234567 
-0.0103744 -0.0234567 -10.2094 
-9.97392 0.122194 0.0166662 
0.122194 -10.046 -0.116014 
0.0166662 -0.116014 -10.1208 
-8.76403 -0.00190215 0.852178 
-0.00190215 -10.0757 -2.53627 
0.852178 -2.53627 -5.0155 
-9.25006 -1.59726 -0.614151 
-1.59726 -8.23488 -3.18879 
-0.614151 -3.18879 -6.37024 
-7.91839 -1.63278 1.93234 
-1.63278 -10.0911 -4.23436 
1.93234 -4.23436 -5.84573 
-8.34871 0.129937 1.51922 
0.129937 -8.95042 -3.06934 
1.51922 -3.06934 -6.55605 
-7.29875 -0.611692 0.839878 
-0.611692 -10.9904 1.24671 
0.839878 1.24671 -5.47707 
-8.06831 -0.418189 1.37819 
-0.418189 -10.7082 1.23258 
1.37819 1.23258 -4.98977 
-6.34927 -1.35371 1.3174 
-1.35371 -10.6965 0.482479 
1.3174 0.482479 -6.72052 
-6.65612 -1.24823 0.975897 
-1.24823 -10.8377 0.00291826 
0.975897 0.00291826 -6.27246 
-9.73525 -0.0439287 0.222034 
-0.0439287 -9.82089 -0.0592042 
0.222034 -0.0592042 -9.85031 
-9.72112 -0.0387914 0.236003 
-0.0387914 -9.84106 -0.0794252 
0.236003 -0.0794252 -9.84428 
-9.72579 -0.0136866 0.219803 
-0.0136866 -9.82108 -0.0596154 
0.219803 -0.0596154 -9.85958 
-9.73743 -0.024464 0.219252 
-0.024464 -9.80752 -0.0569956 
0.219252 -0.0569956 -9.86149 
-9.99039 -0.306601 0.361282 
-0.306601 -9.76583 0.472082 
0.361282 0.472082 -9.42946 
-9.74049 0.090398 0.289479 
0.090398 -9.58896 0.473008 
0.289479 0.473008 -9.85622 
-9.86343 0.0717897 0.227806 
0.0717897 -9.61452 0.338784 
0.227806 0.338784 -9.70772 
-9.93482 0.195322 0.00117849 
0.195322 -9.50554 0.247633 
0.00117849 0.247633 -9.74531 
-9.75849 0.0850827 -0.242342 
0.0850827 -9.83187 -0.189867 
-0.242342 -0.189867 -10.0143 
-9.81062 0.0461549 -0.155681 
0.0461549 -9.73932 -0.140659 
-0.155681 -0.140659 -10.0548 
-9.81127 0.113447 -0.22258 
0.113447 -9.79898 -0.254072 
-0.22258 -0.254072 -9.99444 
-9.78162 0.0986042 -0.213331 
0.0986042 -9.80452 -0.16991 
-0.213331 -0.16991 -10.0186 
-9.56502 -0.0932635 -0.279028 
-0.0932635 -9.49779 0.531738 
-0.279028 0.531738 -10.1255 
-9.28711 -0.135779 -0.406836 
-0.135779 -9.32327 0.206717 
-0.406836 0.206717 -10.5779 
-9.59639 -0.139132 -0.41434 
-0.139132 -9.30394 0.501605 
-0.41434 0.501605 -10.288 
-9.61269 -0.208981 -0.425318 
-0.208981 -9.35787 0.519983 
-0.425318 0.519983 -10.2177 
-9.68816 0.195632 0.111624 
0.195632 -9.61774 0.343847 
0.111624 0.343847 -10.1968 
-9.68352 0.113827 0.247888 
0.113827 -9.93025 0.331908 
0.247888 0.331908 -9.88891 
-9.71806 0.105889 0.172351 
0.105889 -9.71054 0.274042 
0.172351 0.274042 -10.0741 
-9.75015 0.0911414 0.186597 
0.0911414 -9.60935 0.155607 
0.186597 0.155607 -10.1432 
-9.74076 0.0983707 0.183835 
0.0983707 -9.75529 0.162175 
0.183835 0.162175 -10.2387 
-9.71292 0.148702 0.148934 
0.148702 -9.71591 0.104423 
0.148934 0.104423 -10.3059 
-9.76953 0.134491 0.264395 
0.134491 -9.71858 0.219565 
0.264395 0.219565 -10.2466 
-9.76036 -0.0334107 0.0974035 
-0.0334107 -9.87765 0.129198 
0.0974035 0.129198 -10.0967 
-9.78214 0.0232665 0.0100957 
0.0232665 -9.65372 -0.215228 
0.0100957 -0.215228 -9.87843 
-9.81872 -0.00729628 0.0254156 
-0.00729628 -9.6588 -0.252696 
0.0254156 -0.252696 -9.83677 
-9.88319 -0.0107617 0.0136907 
-0.0107617 -9.61153 -0.292424 
0.0136907 -0.292424 -9.81957 
-9.8099 -0.0395348 0.0563595 
-0.0395348 -9.70965 -0.242157 
0.0563595 -0.242157 -9.79474 
-9.84273 -0.0238721 0.250202 
-0.0238721 -9.93148 -0.0382309 
0.250202 -0.0382309 -9.92198 
-9.86813 -0.0176409 0.253573 
-0.0176409 -9.94745 -0.0492548 
0.253573 -0.0492548 -9.8806 
-9.87573 0.00582996 0.252808 
0.00582996 -9.92198 -0.0395159 
0.252808 -0.0395159 -9.89848 
-9.86863 0.0118804 0.259863 
0.0118804 -9.92961 -0.0557647 
0.259863 -0.0557647 -9.89794 
-9.83183 -0.0315331 -0.0686893 
-0.0315331 -9.89228 0.211657 
-0.0686893 0.211657 -9.81179 
-9.90843 0.0293207 -0.162649 
0.0293207 -9.8618 0.192904 
-0.162649 0.192904 -9.76567 
-9.91416 -0.00121897 -0.179751 
-0.00121897 -9.99814 0.204424 
-0.179751 0.204424 -9.6236 
-9.87297 0.0114077 -0.157762 
0.0114077 -9.86477 0.186278 
-0.157762 0.186278 -9.79816 
-9.86592 0.0219889 -0.103573 
0.0219889 -9.86057 0.0312696 
-0.103573 0.0312696 -10.0925 
-9.92173 0.0799871 -0.0666926 
0.0799871 -9.92982 -0.088367 
-0.0666926 -0.088367 -9.96745 
-9.93731 0.0192464 -0.0284809 
0.0192464 -9.90411 -0.0243962 
-0.0284809 -0.0243962 -9.97758 
-9.82383 -0.00732947 -0.119673 
-0.00732947 -9.94367 -0.0457701 
-0.119673 -0.0457701 -10.0515 
-9.83486 -0.0330895 0.268467 
-0.0330895 -10.0137 -0.0168228 
0.268467 -0.0168228 -9.80843 
-9.82354 -0.00135924 0.312525 
-0.00135924 -10.0443 -0.0260943 
0.312525 -0.0260943 -9.78918 
-9.84274 0.00746998 0.232329 
0.00746998 -9.97736 0.00670776 
0.232329 0.00670776 -9.83694 
-9.82592 -0.0212464 0.296288 
-0.0212464 -10.0101 -0.0941063 
0.296288 -0.0941063 -9.82104 
-10.4611 1.37911 -1.14991 
1.37911 -10.6897 -0.425079 
-1.14991 -0.425079 -12.7684 
-12.1858 -1.07469 0.375526 
-1.07469 -10.0053 0.510962 
0.375526 0.510962 -11.7281 
-11.4696 -0.455043 0.597099 
-0.455043 -9.45624 0.279325 
0.597099 0.279325 -12.9934 
-10.3708 -0.372725 0.514289 
-0.372725 -10.3211 1.3732 
0.514289 1.3732 -13.2274 
-10.4225 0.0218685 -0.655131 
0.0218685 -9.24162 -0.569267 
-0.655131 -0.569267 -7.88108 
-10.579 -0.179311 -0.648152 
-0.179311 -8.90215 -0.939739 
-0.648152 -0.939739 -8.06398 
-9.31032 -0.153339 0.249519 
-0.153339 -9.60533 -0.294478 
0.249519 -0.294478 -8.62954 
-9.81211 0.256467 -0.697585 
0.256467 -8.69297 -0.785448 
-0.697585 -0.785448 -9.0401 
-9.89855 0.0325017 -0.221644 
0.0325017 -10.1373 0.0946422 
-0.221644 0.0946422 -10.8683 
-10.232 -0.269592 0.0219819 
-0.269592 -10.0684 -0.0487763 
0.0219819 -0.0487763 -10.6037 
-10.328 -0.460757 -0.259984 
-0.460757 -9.94844 0.0354774 
-0.259984 0.0354774 -10.6277 
-10.2051 -0.345749 0.0909756 
-0.345749 -10.0297 -0.141983 
0.0909756 -0.141983 -10.6693 
-9.81096 0.0993454 -0.257942 
0.0993454 -9.76917 -0.280586 
-0.257942 -0.280586 -9.88492 
-9.81152 0.0478869 -0.193235 
0.0478869 -9.77831 -0.242085 
-0.193235 -0.242085 -9.87522 
-9.73074 0.0640287 -0.18741 
0.0640287 -9.72415 -0.162479 
-0.18741 -0.162479 -10.0102 
-9.79996 0.0332712 -0.205528 
0.0332712 -9.80166 -0.232695 
-0.205528 -0.232695 -9.86342 
-9.62349 0.0419789 0.701201 
0.0419789 -9.32827 0.55388 
0.701201 0.55388 -9.87541 
-9.12661 0.0994845 0.65561 
0.0994845 -9.46855 0.4326 
0.65561 0.4326 -10.232 
-9.12937 0.110315 0.727385 
0.110315 -9.54065 0.410843 
0.727385 0.410843 -10.1572 
-9.05866 0.06689 0.606269 
0.06689 -9.4591 0.31641 
0.606269 0.31641 -10.3094 
-9.90901 0.0692248 0.232906 
0.0692248 -9.88938 0.156948 
0.232906 0.156948 -9.93478 
-9.86661 0.0266724 0.217992 
0.0266724 -9.93491 0.12679 
0.217992 0.12679 -9.93165 
-9.87289 0.016745 0.234776 
0.016745 -9.93276 0.13744 
0.234776 0.13744 -9.92753 
-9.87039 0.0136256 0.178209 
0.0136256 -9.91815 0.0794964 
0.178209 0.0794964 -9.94463 
-9.95856 0.00495921 -0.080189 
0.00495921 -9.94436 0.232377 
-0.080189 0.232377 -9.99404 
-9.98664 0.00447248 -0.0973343 
0.00447248 -9.96165 0.210162 
-0.0973343 0.210162 -9.94866 
-10.0044 -0.0442713 -0.0823206 
-0.0442713 -9.94571 0.243388 
-0.0823206 0.243388 -9.94686 
-9.99235 -0.0174834 -0.0951714 
-0.0174834 -9.93968 0.236275 
-0.0951714 0.236275 -9.96492 
-9.88217 -0.0368026 0.183749 
-0.0368026 -9.86741 -0.163178 
0.183749 -0.163178 -9.94837 
-9.85099 -0.0417746 0.176782 
-0.0417746 -9.88274 -0.168468 
0.176782 -0.168468 -9.96424 
-9.86496 -0.0254325 0.171677 
-0.0254325 -9.88275 -0.183338 
0.171677 -0.183338 -9.95025 
-9.86935 -0.0117333 0.182199 
-0.0117333 -9.89467 -0.184097 
0.182199 -0.184097 -9.93394 
-9.81488 0.0199461 -0.240262 
0.0199461 -9.91786 -0.149925 
-0.240262 -0.149925 -9.87669 
-9.80436 -0.0205316 -0.227235 
-0.0205316 -9.92166 -0.0499091 
-0.227235 -0.0499091 -9.8834 
-9.78149 0.0572156 -0.265997 
0.0572156 -9.97445 -0.1775 
-0.265997 -0.1775 -9.85348 
-9.89821 0.0319365 -0.199408 
0.0319365 -9.79757 -0.0978057 
-0.199408 -0.0978057 -9.91365 
-10.0215 0.0715538 0.0193986 
0.0715538 -9.82823 -0.0233802 
0.0193986 -0.0233802 -9.87882 
-9.74893 -0.131452 0.133973 
-0.131452 -9.87567 0.0683157 
0.133973 0.0683157 -10.1039 
-9.87379 -0.0381578 0.0862448 
-0.0381578 -9.82827 -0.0774241 
0.0862448 -0.0774241 -10.0264 
-10.0061 -0.0508128 0.245457 
-0.0508128 -9.78451 -0.139075 
0.245457 -0.139075 -9.93786 
-9.60075 0.0264797 0.204342 
0.0264797 -9.85269 0.151028 
0.204342 0.151028 -10.4446 
-9.70017 0.0887767 0.193165 
0.0887767 -9.68488 0.0719577 
0.193165 0.0719577 -10.513 
-9.59292 0.0961338 0.130301 
0.0961338 -9.65286 0.204139 
0.130301 0.204139 -10.6523 
-9.67904 0.0748642 0.18883 
0.0748642 -9.6683 0.128144 
0.18883 0.128144 -10.5507 
-9.96875 0.112832 -0.161345 
0.112832 -9.76146 -0.332376 
-0.161345 -0.332376 -9.95384 
-9.80912 0.0116197 -0.142418 
0.0116197 -9.84577 -0.311717 
-0.142418 -0.311717 -10.0291 
-9.87767 -0.0223382 -0.198281 
-0.0223382 -9.77482 -0.156608 
-0.198281 -0.156608 -10.0315 
-9.89713 0.126828 -0.244854 
0.126828 -9.68313 -0.176523 
-0.244854 -0.176523 -10.1038 
-9.65 -0.106253 0.249949 
-0.106253 -9.69118 -0.239028 
0.249949 -0.239028 -9.91799 
-9.64542 -0.0745769 0.239983 
-0.0745769 -9.63606 -0.268277 
0.239983 -0.268277 -9.97769 
-9.60651 -0.114753 0.219214 
-0.114753 -9.62056 -0.231086 
0.219214 -0.231086 -10.0321 
-9.59152 -0.265585 0.342935 
-0.265585 -9.61988 -0.464285 
0.342935 -0.464285 -10.0478 
-9.81764 -0.0941607 0.200022 
-0.0941607 -9.76895 -0.229041 
0.200022 -0.229041 -9.98252 
-9.82752 -0.0786552 0.315406 
-0.0786552 -9.70186 -0.249649 
0.315406 -0.249649 -10.0397 
-9.82204 -0.0473443 0.232535 
-0.0473443 -9.77346 -0.240784 
0.232535 -0.240784 -9.97361 
-9.83553 -0.124935 0.184322 
-0.124935 -9.76816 -0.272174 
0.184322 -0.272174 -9.96541 
-9.90578 0.00966061 0.00823947 
0.00966061 -9.97132 0.0386477 
0.00823947 0.0386477 -10.036 
-9.91997 0.0296872 0.0794236 
0.0296872 -9.99283 0.0812403 
0.0794236 0.0812403 -10.0003 
-9.9594 0.0427609 -0.065109 
0.0427609 -9.97013 -0.0313832 
-0.065109 -0.0313832 -9.98353 
-9.82754 0.0298473 -0.000998787 
0.0298473 -9.97767 0.0327906 
-0.000998787 0.0327906 -10.1079 
-9.95022 0.00678122 -0.0395601 
0.00678122 -9.81437 -0.265567 
-0.0395601 -0.265567 -9.8857 
-9.91887 0.0136058 -0.0429098 
0.0136058 -9.84293 -0.269737 
-0.0429098 -0.269737 -9.88849 
-9.92937 0.0123235 -0.0522459 
0.0123235 -9.84908 -0.264908 
-0.0522459 -0.264908 -9.87184 
-9.93521 0.0270656 -0.0497922 
0.0270656 -9.84674 -0.234361 
-0.0497922 -0.234361 -9.86833 
-8.95057 9.1416 6.04945 
9.1416 -13.2228 -3.26612 
6.04945 -3.26612 6.01696 
-7.50252 -3.04066 0.399958 
-3.04066 -5.71122 1.13967 
0.399958 1.13967 -2.94271 
-5.7499 3.06838 1.52476 
3.06838 -4.68976 -3.44311 
1.52476 -3.44311 -5.71679 
-9.20303 0.530148 2.41902 
0.530148 -3.35013 -3.06469 
2.41902 -3.06469 -3.60329 
-9.50049 -0.0940932 0.235142 
-0.0940932 -10.3055 0.235704 
0.235142 0.235704 -10.4425 
-9.76222 -0.474422 -0.168372 
-0.474422 -10.2784 -0.266354 
-0.168372 -0.266354 -10.2079 
-9.55018 -0.415659 0.192767 
-0.415659 -10.0921 0.109317 
0.192767 0.109317 -10.6062 
-9.12258 0.240116 0.217514 
0.240116 -10.6348 -0.0747975 
0.217514 -0.0747975 -10.4911 
-9.80874 0.0674571 -0.106864 
0.0674571 -9.76744 -0.0757328 
-0.106864 -0.0757328 -9.9338 
-9.75672 0.0801759 -0.124077 
0.0801759 -9.73573 -0.114005 
-0.124077 -0.114005 -10.0175 
-9.75085 0.068382 -0.111324 
0.068382 -9.7664 -0.130161 
-0.111324 -0.130161 -9.99273 
-9.76749 -0.00907796 -0.171629 
-0.00907796 -9.80225 -0.182974 
-0.171629 -0.182974 -9.94023 
-9.87586 -0.012016 -0.0933092 
-0.012016 -9.74615 0.0367207 
-0.0933092 0.0367207 -10.0503 
-9.76053 -0.0784914 -0.0996147 
-0.0784914 -9.84772 0.0473348 
-0.0996147 0.0473348 -10.0641 
-9.66864 -0.0749815 -0.118782 
-0.0749815 -9.94785 0.0667941 
-0.118782 0.0667941 -10.0559 
-9.8148 -0.117358 0.031874 
-0.117358 -9.72974 0.123686 
0.031874 0.123686 -10.1278 
-9.89981 0.0235082 0.125481 
0.0235082 -9.88919 0.207235 
0.125481 0.207235 -9.50202 
-9.93867 0.00674451 0.327719 
0.00674451 -9.92994 0.171679 
0.327719 0.171679 -9.42241 
-9.90794 0.0154578 0.103028 
0.0154578 -9.90043 0.182996 
0.103028 0.182996 -9.48266 
-9.77449 0.0812207 0.30272 
0.0812207 -9.81343 0.149324 
0.30272 0.149324 -9.7031 
-9.98394 0.049025 -0.0996916 
0.049025 -9.96874 -0.0741254 
-0.0996916 -0.0741254 -9.97684 
-9.86101 -0.0339597 0.0820757 
-0.0339597 -9.98226 0.0591012 
0.0820757 0.0591012 -10.0863 
-9.85198 0.0675362 -0.0273877 
0.0675362 -9.93291 -0.0109663 
-0.0273877 -0.0109663 -10.1446 
-9.88778 0.047836 -0.00668745 
0.047836 -9.92996 -0.0218584 
-0.00668745 -0.0218584 -10.1118 
-9.84747 0.0396795 0.21436 
0.0396795 -9.8648 0.118637 
0.21436 0.118637 -9.93134 
-9.85926 0.0110015 0.246654 
0.0110015 -9.89344 0.11761 
0.246654 0.11761 -9.8909 
-9.83758 0.0439379 0.193042 
0.0439379 -9.90698 0.183922 
0.193042 0.183922 -9.89905 
-9.8247 0.0365124 0.215102 
0.0365124 -9.85793 0.104719 
0.215102 0.104719 -9.96097 
-9.864 -0.0742751 -0.00539333 
-0.0742751 -9.78203 0.0300142 
-0.00539333 0.0300142 -10.1209 
-9.84148 -0.0664275 0.00523322 
-0.0664275 -9.79351 0.0309706 
0.00523322 0.0309706 -10.1319 
-9.85685 -0.070968 0.0781717 
-0.070968 -9.82186 -0.0900254 
0.0781717 -0.0900254 -10.0882 
-9.86108 -0.0329495 -0.0449529 
-0.0329495 -9.75932 -0.014001 
-0.0449529 -0.014001 -10.1465 
-9.77655 -0.0425626 0.197592 
-0.0425626 -9.82121 -0.131966 
0.197592 -0.131966 -9.98182 
-9.77009 -0.0625905 0.221093 
-0.0625905 -9.80004 -0.190544 
0.221093 -0.190544 -10.0095 
-9.75756 -0.0650582 0.241699 
-0.0650582 -9.82592 -0.219385 
0.241699 -0.219385 -9.9961 
-9.72964 -0.112422 0.235536 
-0.112422 -9.77219 -0.195571 
0.235536 -0.195571 -10.0778 
-9.74237 0.378651 0.217315 
0.378651 -9.37765 0.663164 
0.217315 0.663164 -9.95261 
-9.91441 -0.0851834 -0.0744987 
-0.0851834 -9.59177 0.311148 
-0.0744987 0.311148 -9.56645 
-9.75539 0.170119 0.307059 
0.170119 -9.59426 0.154048 
0.307059 0.154048 -9.72298 
-9.66675 0.147086 0.446124 
0.147086 -9.54754 0.295591 
0.446124 0.295591 -9.85834 
-9.73189 0.0167958 0.148526 
0.0167958 -9.8149 0.13434 
0.148526 0.13434 -9.88669 
-9.76803 0.0576788 0.152126 
0.0576788 -9.76318 0.147049 
0.152126 0.147049 -9.90227 
-9.76335 0.0525775 0.145351 
0.0525775 -9.77386 0.121543 
0.145351 0.121543 -9.89627 
-9.77109 0.0476301 0.153884 
0.0476301 -9.76411 0.0899759 
0.153884 0.0899759 -9.89828 
-8.87785 0.167697 -0.0330818 
0.167697 -9.45752 -1.00154 
-0.0330818 -1.00154 -7.49179 
-9.49399 -0.906863 0.737867 
-0.906863 -9.08947 -0.435151 
0.737867 -0.435151 -7.2437 
-8.95528 -0.295679 1.0637 
-0.295679 -10.348 -1.08794 
1.0637 -1.08794 -6.52386 
-8.32521 -0.878468 0.74884 
-0.878468 -10.9925 -0.446211 
0.74884 -0.446211 -6.50947 
-9.83572 0.148571 0.384308 
0.148571 -9.31457 0.231947 
0.384308 0.231947 -7.73675 
-10.0967 -0.0906598 0.144152 
-0.0906598 -8.73435 0.357222 
0.144152 0.357222 -8.05597 
-10.5536 0.244273 0.628175 
0.244273 -9.27034 1.10764 
0.628175 1.10764 -7.06309 
-9.76373 0.230968 0.35715 
0.230968 -9.27722 0.401164 
0.35715 0.401164 -7.84608 
-9.82749 -0.0401153 0.00760899 
-0.0401153 -9.81525 -0.0317907 
0.00760899 -0.0317907 -9.95285 
-9.80409 -0.0246716 0.0894672 
-0.0246716 -9.82517 -0.0773421 
0.0894672 -0.0773421 -9.96633 
-9.74646 -0.00551232 0.0166754 
-0.00551232 -9.8397 -0.0694529 
0.0166754 -0.0694529 -10.0094 
-9.83747 -0.0351393 0.000196362 
-0.0351393 -9.80981 -0.0384625 
0.000196362 -0.0384625 -9.94831 
-10.167 0.145582 -0.506514 
0.145582 -9.62864 -0.303119 
-0.506514 -0.303119 -9.03854 
-9.85653 0.0679213 -0.226229 
0.0679213 -9.45725 -0.644335 
-0.226229 -0.644335 -9.52036 
-9.72312 0.307252 -0.453922 
0.307252 -9.77051 -0.34493 
-0.453922 -0.34493 -9.3405 
-9.95432 0.157221 -0.491727 
0.157221 -9.10952 -0.654085 
-0.491727 -0.654085 -9.77029 
-9.76792 -0.0447262 -0.259229 
-0.0447262 -9.70974 0.296281 
-0.259229 0.296281 -9.75986 
-9.75301 -0.0311077 -0.332627 
-0.0311077 -9.76244 0.413831 
-0.332627 0.413831 -9.72208 
-9.75243 -0.077531 -0.230591 
-0.077531 -9.6575 0.267094 
-0.230591 0.267094 -9.82759 
-9.75347 -0.0481666 -0.213451 
-0.0481666 -9.79162 0.196834 
-0.213451 0.196834 -9.69244 
-9.97337 -0.0341826 -0.0419947 
-0.0341826 -9.57398 -0.459977 
-0.0419947 -0.459977 -8.42915 
-9.78912 0.0354852 -0.0342029 
0.0354852 -9.5073 -0.538634 
-0.0342029 -0.538634 -8.68007 
-9.77694 0.0561554 -0.060078 
0.0561554 -9.55959 -0.509542 
-0.060078 -0.509542 -8.63997 
-9.7879 0.0155697 -0.112379 
0.0155697 -9.4983 -0.511734 
-0.112379 -0.511734 -8.69029 
-10.2103 -0.059604 0.674395 
-0.059604 -8.62225 -0.00564722 
0.674395 -0.00564722 -5.29598 
-9.27198 -0.0622607 0.288706 
-0.0622607 -7.55662 -0.107752 
0.288706 -0.107752 -7.29992 
-8.93391 1.07763 0.103313 
1.07763 -8.89616 0.37083 
0.103313 0.37083 -6.29845 
-10.3028 0.188007 0.634145 
0.188007 -8.19313 0.258022 
0.634145 0.258022 -5.63255 
-9.31857 -0.497866 -0.176387 
-0.497866 -10.8235 0.232912 
-0.176387 0.232912 -11.7902 
-10.0069 -0.0833361 -0.260945 
-0.0833361 -10.5086 0.146184 
-0.260945 0.146184 -11.4167 
-11.1166 0.282789 -0.512904 
0.282789 -9.46722 -0.0446638 
-0.512904 -0.0446638 -11.3484 
-10.1743 -0.325895 -0.722428 
-0.325895 -11.0688 -0.767659 
-0.722428 -0.767659 -10.6892 
-10.4979 0.384563 -0.268078 
0.384563 -9.68254 -0.0869303 
-0.268078 -0.0869303 -10.6352 
-9.96112 -0.0447276 0.181062 
-0.0447276 -10.2301 0.215718 
0.181062 0.215718 -10.6244 
-9.88542 -0.377413 -0.0605282 
-0.377413 -10.7989 0.150707 
-0.0605282 0.150707 -10.1312 
-9.82324 0.154565 0.239399 
0.154565 -10.4336 0.281615 
0.239399 0.281615 -10.5588 
-9.81079 -0.0252249 0.0982606 
-0.0252249 -9.78611 -0.149558 
0.0982606 -0.149558 -9.95109 
-9.74895 -0.0669241 0.158353 
-0.0669241 -9.80187 -0.164876 
0.158353 -0.164876 -9.99718 
-9.79031 -0.0405406 0.145139 
-0.0405406 -9.79312 -0.16209 
0.145139 -0.16209 -9.96456 
-9.82255 -0.00180193 0.186074 
-0.00180193 -9.79146 -0.179547 
0.186074 -0.179547 -9.93398 
-9.89919 0.00378975 -0.164404 
0.00378975 -9.90241 0.150814 
-0.164404 0.150814 -9.9926 
-9.92366 -0.0289415 -0.220256 
-0.0289415 -9.9291 0.179199 
-0.220256 0.179199 -9.94144 
-9.90803 -0.0568031 -0.205872 
-0.0568031 -9.90919 0.166324 
-0.205872 0.166324 -9.97697 
-9.90387 -0.0338404 -0.201454 
-0.0338404 -9.90884 0.165599 
-0.201454 0.165599 -9.98149 
-9.86099 -0.13044 0.157962 
-0.13044 -9.44813 -0.366887 
0.157962 -0.366887 -9.65408 
-9.86632 -0.0831158 0.115998 
-0.0831158 -9.44134 -0.379848 
0.115998 -0.379848 -9.65554 
-9.88226 -0.159509 0.255053 
-0.159509 -9.45842 -0.369252 
0.255053 -0.369252 -9.62252 
-9.8446 -0.160744 0.242362 
-0.160744 -9.49026 -0.331744 
0.242362 -0.331744 -9.62834 
-10.0988 0.297427 0.294301 
0.297427 -9.56005 0.512123 
0.294301 0.512123 -9.75796 
-9.92279 0.227215 0.355371 
0.227215 -9.71365 0.322088 
0.355371 0.322088 -9.78038 
-9.97774 0.14684 0.264641 
0.14684 -9.69942 0.350814 
0.264641 0.350814 -9.73965 
-9.79651 -0.163215 0.0680427 
-0.163215 -9.53166 0.459444 
0.0680427 0.459444 -10.0886 
-9.89235 0.0295422 -0.131776 
0.0295422 -9.88173 -0.217258 
-0.131776 -0.217258 -9.9635 
-9.96021 0.0511922 -0.154834 
0.0511922 -9.86257 -0.209937 
-0.154834 -0.209937 -9.91481 
-9.88164 0.0469602 -0.157874 
0.0469602 -9.89026 -0.213644 
-0.157874 -0.213644 -9.96567 
-9.91053 0.00583176 -0.125229 
0.00583176 -9.87898 -0.189269 
-0.125229 -0.189269 -9.94807 
-10.2301 0.239296 0.0642863 
0.239296 -9.47387 0.325558 
0.0642863 0.325558 -8.66004 
-10.1505 0.0248549 0.296425 
0.0248549 -9.298 0.357849 
0.296425 0.357849 -8.91547 
-9.75581 -0.0808226 0.643843 
-0.0808226 -9.26478 0.58163 
0.643843 0.58163 -9.34338 
-10.1692 0.134351 0.75059 
0.134351 -9.38754 0.23115 
0.75059 0.23115 -8.80722 
-8.73025 -0.484123 1.20474 
-0.484123 -8.35626 -1.00351 
1.20474 -1.00351 -9.12266 
-9.24193 -0.589945 1.36621 
-0.589945 -8.19657 -0.934996 
1.36621 -0.934996 -8.77067 
-9.37194 -0.167163 1.00525 
-0.167163 -8.3721 -0.908951 
1.00525 -0.908951 -8.46512 
-8.7401 -0.461891 1.34314 
-0.461891 -8.60866 -1.05411 
1.34314 -1.05411 -8.86041 
-8.92717 -2.44333 0.267003 
-2.44333 -7.9591 -1.09859 
0.267003 -1.09859 -19.6003 
-11.8658 -1.40861 -0.981284 
-1.40861 -14.3271 0.440446 
-0.981284 0.440446 -10.2937 
-10.6948 0.335965 0.107261 
0.335965 -10.4255 -0.439213 
0.107261 -0.439213 -15.3663 
-12.3372 -1.89842 2.67651 
-1.89842 -10.5657 1.50852 
2.67651 1.50852 -13.5837 
-9.94423 0.0284653 -0.168457 
0.0284653 -9.92891 -0.184714 
-0.168457 -0.184714 -9.9852 
-9.93081 0.0091127 -0.166119 
0.0091127 -9.93924 -0.171331 
-0.166119 -0.171331 -9.98829 
-9.95335 0.0431159 -0.169555 
0.0431159 -9.89464 -0.193761 
-0.169555 -0.193761 -10.0103 
-9.92635 -0.00169072 -0.189502 
-0.00169072 -9.95996 -0.225261 
-0.189502 -0.225261 -9.97203 
-9.98352 0.00412943 0.147465 
0.00412943 -9.75 -0.261357 
0.147465 -0.261357 -9.87127 
-9.95767 -0.0419922 0.215353 
-0.0419922 -9.8639 -0.272349 
0.215353 -0.272349 -9.78324 
-9.90537 -0.0172758 0.142987 
-0.0172758 -9.7576 -0.261428 
0.142987 -0.261428 -9.94183 
-9.9825 -0.103464 0.108106 
-0.103464 -9.85331 -0.342871 
0.108106 -0.342871 -9.76899 
-10.2376 -0.844409 0.733385 
-0.844409 -8.75503 -1.49266 
0.733385 -1.49266 -12.5593 
-10.633 -0.794453 1.51371 
-0.794453 -10.6169 -0.425945 
1.51371 -0.425945 -10.302 
-10.2694 -1.3226 0.320912 
-1.3226 -10.6114 0.443447 
0.320912 0.443447 -10.6711 
-9.47553 0.274121 -0.301981 
0.274121 -9.86983 -0.633644 
-0.301981 -0.633644 -12.2066 
-9.85151 -0.075705 0.0293371 
-0.075705 -10.0562 0.0878883 
0.0293371 0.0878883 -9.76289 
-9.865 -0.0232772 0.143896 
-0.0232772 -9.78156 -0.144088 
0.143896 -0.144088 -10.0241 
-9.64828 -0.00611531 -0.0399544 
-0.00611531 -9.79349 -0.146804 
-0.0399544 -0.146804 -10.2289 
-9.88996 -0.152093 0.153373 
-0.152093 -9.86964 -0.12786 
0.153373 -0.12786 -9.91106 
-9.74956 -0.0883227 -0.215357 
-0.0883227 -9.81858 0.200143 
-0.215357 0.200143 -10.0042 
-9.76959 -0.0697771 -0.199033 
-0.0697771 -9.79597 0.176131 
-0.199033 0.176131 -10.0068 
-9.76087 -0.0567021 -0.242113 
-0.0567021 -9.80727 0.188843 
-0.242113 0.188843 -10.0042 
-9.79905 -0.0811024 -0.205498 
-0.0811024 -9.77401 0.158184 
-0.205498 0.158184 -9.9993 
-10.4467 -0.402759 -0.186875 
-0.402759 -9.60713 0.145096 
-0.186875 0.145096 -11.1064 
-9.89065 0.259564 0.0181198 
0.259564 -10.015 -0.316336 
0.0181198 -0.316336 -11.2545 
-10.563 -0.245722 0.217943 
-0.245722 -9.77741 -0.0166258 
0.217943 -0.0166258 -10.8198 
-10.3788 0.0886019 0.166533 
0.0886019 -9.89459 -0.117162 
0.166533 -0.117162 -10.8867 
-9.69981 -0.101032 0.0813318 
-0.101032 -9.79323 -0.0517431 
0.0813318 -0.0517431 -9.91104 
-9.73157 -0.0113708 0.0890258 
-0.0113708 -9.68732 -0.0975959 
0.0890258 -0.0975959 -9.98519 
-9.6694 -0.0848132 0.138719 
-0.0848132 -9.67183 -0.158705 
0.138719 -0.158705 -10.0629 
-9.80417 -0.0663155 0.249138 
-0.0663155 -9.79327 -0.0517861 
0.249138 -0.0517861 -9.80665 
-9.7825 0.41539 -0.247086 
0.41539 -9.61703 -0.262805 
-0.247086 -0.262805 -9.92958 
-10.2118 0.223394 -0.171673 
0.223394 -9.38273 -0.403552 
-0.171673 -0.403552 -9.73459 
-9.7968 0.136145 -0.384398 
0.136145 -9.68718 -0.196078 
-0.384398 -0.196078 -9.84513 
-9.74977 -0.086583 -0.248835 
-0.086583 -10.0674 -0.211629 
-0.248835 -0.211629 -9.51192 
-9.89397 -0.0596948 -0.376923 
-0.0596948 -9.69078 0.312315 
-0.376923 0.312315 -9.81264 
-9.90206 -0.0158794 -0.363403 
-0.0158794 -9.72973 0.342429 
-0.363403 0.342429 -9.7656 
-9.81642 -0.0842338 -0.326682 
-0.0842338 -9.74961 0.295476 
-0.326682 0.295476 -9.83136 
-9.90341 -0.0486118 -0.360569 
-0.0486118 -9.78311 0.362573 
-0.360569 0.362573 -9.71087 
-9.87314 0.004572 -0.327418 
0.004572 -9.9885 -0.0790429 
-0.327418 -0.0790429 -9.77321 
-9.86549 0.0305456 -0.283253 
0.0305456 -9.95954 -0.106576 
-0.283253 -0.106576 -9.80981 
-9.8306 0.0385097 -0.282088 
0.0385097 -9.9866 -0.157974 
-0.282088 -0.157974 -9.81764 
-9.86349 0.0524042 -0.183515 
0.0524042 -9.92946 -0.113561 
-0.183515 -0.113561 -9.84188 
-9.95419 -0.0113256 -0.148217 
-0.0113256 -9.851 0.241161 
-0.148217 0.241161 -9.6148 
-9.95476 -0.0131943 -0.155031 
-0.0131943 -9.87443 0.20931 
-0.155031 0.20931 -9.5908 
-9.87445 0.101979 -0.0410661 
0.101979 -9.72674 0.24591 
-0.0410661 0.24591 -9.8188 
-9.97896 -0.0535073 -0.0600581 
-0.0535073 -9.90343 0.247882 
-0.0600581 0.247882 -9.5376 
-9.85228 0.0328127 -0.0702481 
0.0328127 -9.92996 0.195421 
-0.0702481 0.195421 -9.77684 
-9.97505 -0.0968055 -0.129714 
-0.0968055 -9.85372 0.196155 
-0.129714 0.196155 -9.73031 
-9.89722 -0.0253783 -0.16063 
-0.0253783 -9.85601 0.149247 
-0.16063 0.149247 -9.80586 
-9.92021 -0.0344655 -0.146565 
-0.0344655 -9.92588 0.264144 
-0.146565 0.264144 -9.71299 
-9.75958 0.130955 0.108445 
0.130955 -9.65098 0.169516 
0.108445 0.169516 -10.1247 
-9.67151 0.085362 0.0272934 
0.085362 -9.57849 0.07518 
0.0272934 0.07518 -10.2853 
-9.63418 0.11906 0.0649161 
0.11906 -9.60158 0.0762207 
0.0649161 0.0762207 -10.2995 
-9.42505 0.222503 0.13889 
0.222503 -9.4794 0.208032 
0.13889 0.208032 -10.6308 
-10.0008 0.139568 -0.0999319 
0.139568 -10.1315 0.0170713 
-0.0999319 0.0170713 -10.6541 
-9.98968 0.133175 -0.0923911 
0.133175 -10.1081 -0.0189749 
-0.0923911 -0.0189749 -10.6886 
-9.91155 0.119282 -0.0942925 
0.119282 -10.2116 -0.00388761 
-0.0942925 -0.00388761 -10.6633 
-9.93909 0.213121 -0.0340328 
0.213121 -10.2509 -0.0288324 
-0.0340328 -0.0288324 -10.5964 
-9.72456 0.0892305 0.13352 
0.0892305 -9.81063 0.148705 
0.13352 0.148705 -9.90677 
-9.73148 0.0244641 0.196437 
0.0244641 -9.80823 0.136883 
0.196437 0.136883 -9.90225 
-9.79266 0.0342792 0.212904 
0.0342792 -9.74735 0.0614016 
0.212904 0.0614016 -9.90195 
-9.74107 0.0565036 0.213222 
0.0565036 -9.78774 0.0965735 
0.213222 0.0965735 -9.91316 
-9.81537 -0.167204 -0.088503 
-0.167204 -9.68857 0.422395 
-0.088503 0.422395 -10.1855 
-9.86513 -0.32224 -0.103903 
-0.32224 -9.72777 0.394725 
-0.103903 0.394725 -10.0966 
-9.748 -0.278202 -0.0790052 
-0.278202 -9.83545 0.21831 
-0.0790052 0.21831 -10.106 
-9.82225 -0.21263 -0.167349 
-0.21263 -9.75569 0.319999 
-0.167349 0.319999 -10.1115 
-9.09109 -0.331245 -1.5412 
-0.331245 -11.0813 -0.535426 
-1.5412 -0.535426 -15.0937 
-11.8829 1.14278 -2.73194 
1.14278 -10.2998 0.776893 
-2.73194 0.776893 -13.0833 
-9.40866 1.26813 -2.3385 
1.26813 -10.2907 0.86493 
-2.3385 0.86493 -15.5667 
-11.4547 0.0217261 -0.857132 
0.0217261 -8.8477 -2.53454 
-0.857132 -2.53454 -14.9637 
-9.88034 0.0544276 -0.0333166 
0.0544276 -9.84645 -0.0342663 
-0.0333166 -0.0342663 -10.0492 
-9.83911 -0.0154145 -0.0603803 
-0.0154145 -9.95803 -0.0244384 
-0.0603803 -0.0244384 -9.97888 
-9.89003 0.00642646 -0.0253267 
0.00642646 -9.93462 -0.0267274 
-0.0253267 -0.0267274 -9.95137 
-9.86868 -0.0273937 -0.0629534 
-0.0273937 -9.91653 -0.0776009 
-0.0629534 -0.0776009 -9.99082 
-8.97805 0.509107 0.0843809 
0.509107 -10.2655 -0.00315229 
0.0843809 -0.00315229 -11.1873 
-9.34084 0.330535 0.401686 
0.330535 -10.1501 0.0584629 
0.401686 0.0584629 -10.9398 
-9.07956 0.328574 0.422621 
0.328574 -10.9111 -0.179596 
0.422621 -0.179596 -10.4401 
-9.26065 1.00143 0.779604 
1.00143 -9.45381 0.105672 
0.779604 0.105672 -11.7163 
-9.80296 -0.113581 0.0533413 
-0.113581 -9.88709 -0.0801363 
0.0533413 -0.0801363 -10.3397 
-9.92147 -0.174158 -0.0676059 
-0.174158 -9.7135 0.0288658 
-0.0676059 0.0288658 -10.3948 
-9.97319 -0.119833 -0.0336263 
-0.119833 -9.69738 0.0133352 
-0.0336263 0.0133352 -10.3592 
-10.124 -0.12627 -0.0638756 
-0.12627 -9.85667 0.230409 
-0.0638756 0.230409 -10.0491 
-9.72426 0.0516431 3.94426 
0.0516431 -9.01322 0.957623 
3.94426 0.957623 -7.41226 
-7.66987 -0.95806 1.56827 
-0.95806 -7.26704 -1.7276 
1.56827 -1.7276 -11.2128 
-10.3112 -0.661441 1.96784 
-0.661441 -9.21072 -0.462481 
1.96784 -0.462481 -6.62779 
-12.7377 -2.66417 1.03262 
-2.66417 -7.3875 -0.470905 
1.03262 -0.470905 -6.02455 
-9.71898 0.0339765 -0.151598 
0.0339765 -9.81456 -0.095897 
-0.151598 -0.095897 -9.96405 
-9.74315 0.0440028 -0.257011 
0.0440028 -9.85595 -0.0798547 
-0.257011 -0.0798547 -9.89849 
-9.85354 0.0214886 -0.20747 
0.0214886 -9.82144 -0.039873 
-0.20747 -0.039873 -9.82261 
-9.75583 0.00161185 -0.18195 
0.00161185 -9.83623 -0.0926034 
-0.18195 -0.0926034 -9.90553 
-9.32139 -0.208311 -0.358268 
-0.208311 -9.44423 0.45838 
-0.358268 0.45838 -9.9702 
-9.44136 -0.0888362 -0.928956 
-0.0888362 -9.33491 0.754215 
-0.928956 0.754215 -9.95955 
-9.43952 -0.0884764 -0.413016 
-0.0884764 -9.4963 0.692178 
-0.413016 0.692178 -9.8 
-9.9384 -0.0192798 -0.420202 
-0.0192798 -9.54197 0.112504 
-0.420202 0.112504 -9.25545 
-9.80227 0.0946725 -0.223381 
0.0946725 -9.72384 -0.258785 
-0.223381 -0.258785 -9.87573 
-9.78177 0.055596 -0.266999 
0.055596 -9.75989 -0.26461 
-0.266999 -0.26461 -9.86017 
-9.75259 0.0542188 -0.211413 
0.0542188 -9.76588 -0.231928 
-0.211413 -0.231928 -9.88338 
-9.80478 0.0417691 -0.301844 
0.0417691 -9.80021 -0.329906 
-0.301844 -0.329906 -9.79685 
-10.0875 -0.24654 0.0375789 
-0.24654 -10.1361 0.285256 
0.0375789 0.285256 -11.4643 
-10.3016 0.0506491 0.395656 
0.0506491 -11.0115 -0.141209 
0.395656 -0.141209 -10.3748 
-10.5401 0.183129 0.223833 
0.183129 -10.1373 0.112064 
0.223833 0.112064 -11.0106 
-10.3531 -0.133984 0.174397 
-0.133984 -10.4031 0.00844305 
0.174397 0.00844305 -10.9317 
-7.4394 0.50006 2.48416 
0.50006 -9.38516 -0.988934 
2.48416 -0.988934 -10.646 
-9.06093 -0.315756 -0.889992 
-0.315756 -11.91 0.932223 
-0.889992 0.932223 -6.49965 
-10.628 -0.578553 -0.979227 
-0.578553 -9.05467 1.5382 
-0.979227 1.5382 -7.78789 
-7.56469 0.461788 0.425732 
0.461788 -10.7265 1.70504 
0.425732 1.70504 -9.17934 
-6.82953 -0.623958 0.019256 
-0.623958 -5.86027 -1.95561 
0.019256 -1.95561 1.64203 
-4.62593 1.15085 -1.2144 
1.15085 -1.85308 0.122401 
-1.2144 0.122401 -4.56876 
-7.79635 0.401237 0.561845 
0.401237 -5.60216 -0.700018 
0.561845 -0.700018 2.35075 
-8.64061 1.08333 -3.81266 
1.08333 -4.61777 -1.55962 
-3.81266 -1.55962 2.21061 
-9.76705 0.0925522 0.227334 
0.0925522 -9.81022 0.206108 
0.227334 0.206108 -10.0452 
-9.8027 -0.00694932 0.141263 
-0.00694932 -9.78243 0.11846 
0.141263 0.11846 -10.0374 
-9.81826 0.0912402 0.18414 
0.0912402 -9.73008 0.22422 
0.18414 0.22422 -10.0742 
-9.75229 0.108645 0.211572 
0.108645 -9.7839 0.195018 
0.211572 0.195018 -10.0863 
-9.97685 -0.0416588 -0.0455289 
-0.0416588 -9.86341 0.26135 
-0.0455289 0.26135 -9.85024 
-9.95367 0.0227026 -0.0269982 
0.0227026 -9.85832 0.279048 
-0.0269982 0.279048 -9.87851 
-9.9469 -0.0142359 -0.0435581 
-0.0142359 -9.86978 0.253312 
-0.0435581 0.253312 -9.87382 
-9.92443 -0.0160872 -0.042043 
-0.0160872 -9.90594 0.22603 
-0.042043 0.22603 -9.86013 
-11.3804 0.116154 -0.728627 
0.116154 -9.40047 1.79806 
-0.728627 1.79806 -7.78889 
-11.0734 -0.18583 -0.779217 
-0.18583 -9.38216 0.0920981 
-0.779217 0.0920981 -8.11425 
-10.5032 0.519751 0.0988039 
0.519751 -9.66146 -0.961236 
0.0988039 -0.961236 -8.40517 
-10.7699 -0.699904 -2.4741 
-0.699904 -9.05058 0.486875 
-2.4741 0.486875 -8.74933 
-9.94515 0.367772 0.527399 
0.367772 -9.50552 -0.00391081 
0.527399 -0.00391081 -12.4239 
-11.0607 -0.229556 0.332333 
-0.229556 -9.61273 1.07042 
0.332333 1.07042 -11.2011 
-10.3887 0.499795 -0.675186 
0.499795 -10.7738 -0.375703 
-0.675186 -0.375703 -10.712 
-11.0741 -0.344387 0.0100894 
-0.344387 -9.39209 1.63473 
0.0100894 1.63473 -11.4084 
-9.77398 -0.112534 0.192484 
-0.112534 -9.84348 -0.132654 
0.192484 -0.132654 -9.98317 
-9.82203 -0.0521227 0.258624 
-0.0521227 -9.8929 -0.116917 
0.258624 -0.116917 -9.88569 
-9.81927 0.00882999 0.142007 
0.00882999 -9.85368 -0.0867846 
0.142007 -0.0867846 -9.92766 
-9.84363 0.0161827 0.247196 
0.0161827 -9.81891 -0.133149 
0.247196 -0.133149 -9.93808 
-11.5744 0.742461 -0.438637 
0.742461 -10.7043 0.267274 
-0.438637 0.267274 -9.67283 
-10.3794 -0.0391234 -0.0067628 
-0.0391234 -10.5667 -0.212239 
-0.0067628 -0.212239 -11.0054 
-9.74106 0.3916 -0.262232 
0.3916 -11.0327 -0.0731314 
-0.262232 -0.0731314 -11.1778 
-10.2795 0.102994 -0.462934 
0.102994 -10.5576 0.143674 
-0.462934 0.143674 -11.1145 
-9.85679 0.0262165 -0.226403 
0.0262165 -9.92507 -0.0985967 
-0.226403 -0.0985967 -9.92836 
-9.8779 -0.0754449 -0.170399 
-0.0754449 -9.88804 -0.0522718 
-0.170399 -0.0522718 -9.94429 
-9.88264 0.0176101 -0.348655 
0.0176101 -9.97092 -0.111972 
-0.348655 -0.111972 -9.85666 
-9.86358 0.0397644 -0.232989 
0.0397644 -9.91912 -0.106324 
-0.232989 -0.106324 -9.92752 
-10.1329 -0.016187 0.252978 
-0.016187 -9.69191 0.662503 
0.252978 0.662503 -8.68331 
-9.88227 0.0718778 0.237858 
0.0718778 -10.1851 0.501798 
0.237858 0.501798 -8.44078 
-9.91957 0.0511632 0.318606 
0.0511632 -9.71424 0.294449 
0.318606 0.294449 -8.87434 
-10.0074 -0.0324106 0.22986 
-0.0324106 -9.81438 0.444391 
0.22986 0.444391 -8.6864 
-9.10944 -0.249804 0.380362 
-0.249804 -10.5744 -0.381036 
0.380362 -0.381036 -8.326 
-9.57278 0.222491 0.497675 
0.222491 -10.2293 -1.03252 
0.497675 -1.03252 -8.20781 
-9.1467 -0.173237 0.477351 
-0.173237 -9.82856 0.045716 
0.477351 0.045716 -9.03462 
-8.94128 0.716142 0.827807 
0.716142 -13.0556 0.682736 
0.827807 0.682736 -6.01302 
-9.4909 -0.0680477 1.32966 
-0.0680477 -9.22096 -0.0601238 
1.32966 -0.0601238 -10.2671 
-9.68215 -0.306733 0.603277 
-0.306733 -9.80721 -0.0611031 
0.603277 -0.0611031 -9.48963 
-10.1608 0.235234 1.35301 
0.235234 -9.57515 0.769614 
1.35301 0.769614 -9.24301 
-9.99598 0.297178 1.0778 
0.297178 -9.43489 0.238949 
1.0778 0.238949 -9.54811 
-9.68495 -0.0636109 0.19985 
-0.0636109 -9.76923 -0.0807556 
0.19985 -0.0807556 -9.8455 
-9.67582 -0.000289651 0.263431 
-0.000289651 -9.75774 0.00157589 
0.263431 0.00157589 -9.86612 
-9.54451 -0.0384695 0.269422 
-0.0384695 -9.81272 -0.104096 
0.269422 -0.104096 -9.94245 
-9.67698 -0.0107807 0.207859 
-0.0107807 -9.79792 -0.0745444 
0.207859 -0.0745444 -9.82478 
-9.62422 -0.0737295 0.0861775 
-0.0737295 -9.80387 -0.0866711 
0.0861775 -0.0866711 -9.92849 
-9.74519 0.0248402 0.213924 
0.0248402 -9.75295 -0.099699 
0.213924 -0.099699 -9.85844 
-9.61684 -0.0835598 0.14227 
-0.0835598 -9.75704 -0.106626 
0.14227 -0.106626 -9.98271 
-9.60584 -0.165223 0.155606 
-0.165223 -9.73251 -0.0992803 
0.155606 -0.0992803 -10.0182 
-9.74153 -0.0237513 -0.300823 
-0.0237513 -9.77609 0.245937 
-0.300823 0.245937 -9.86213 
-9.59927 -0.0771398 -0.341392 
-0.0771398 -9.91749 0.325472 
-0.341392 0.325472 -9.863 
-9.66534 -0.142338 -0.225689 
-0.142338 -9.78291 0.25639 
-0.225689 0.25639 -9.93149 
-9.69721 -0.0675113 -0.337635 
-0.0675113 -9.82127 0.298119 
-0.337635 0.298119 -9.86127 
-9.94183 0.94336 -3.63444 
0.94336 -7.82287 0.127701 
-3.63444 0.127701 -7.79115 
-9.68247 0.483793 -5.82438 
0.483793 -9.53427 -0.0387315 
-5.82438 -0.0387315 -6.3391 
-5.32242 0.800128 -2.68977 
0.800128 -9.96037 -0.527161 
-2.68977 -0.527161 -10.2731 
-13.3736 0.460041 -0.456777 
0.460041 -5.96717 -0.0888892 
-0.456777 -0.0888892 -6.21506 
-9.76699 -0.055665 0.122184 
-0.055665 -9.73011 -0.0834241 
0.122184 -0.0834241 -10.0193 
-9.79941 -0.0523177 0.157581 
-0.0523177 -9.77698 -0.150229 
0.157581 -0.150229 -9.94002 
-9.7848 -0.0204445 0.117712 
-0.0204445 -9.84996 -0.100814 
0.117712 -0.100814 -9.88165 
-9.78289 -0.0493805 0.131024 
-0.0493805 -9.80011 -0.11275 
0.131024 -0.11275 -9.93342 
-10.0092 -0.0333546 0.083636 
-0.0333546 -9.8799 -0.25227 
0.083636 -0.25227 -9.89237 
-9.95715 -0.021188 0.0899192 
-0.021188 -9.89682 -0.229246 
0.0899192 -0.229246 -9.92745 
-9.92562 0.0167419 0.0676969 
0.0167419 -9.88927 -0.226201 
0.0676969 -0.226201 -9.96653 
-9.9288 -0.0315665 0.116353 
-0.0315665 -9.90199 -0.233045 
0.116353 -0.233045 -9.95063 
-10.4428 0.0473604 -0.0160684 
0.0473604 -10.2468 -0.0857189 
-0.0160684 -0.0857189 -10.539 
-10.3377 -0.133588 -0.0638678 
-0.133588 -10.1358 -0.192714 
-0.0638678 -0.192714 -10.7551 
-10.5012 0.103028 0.137216 
0.103028 -10.6201 0.0594563 
0.137216 0.0594563 -10.1073 
-10.6799 0.171551 -0.201427 
0.171551 -9.99291 0.156902 
-0.201427 0.156902 -10.5557 
-9.76738 0.052586 -0.190977 
0.052586 -9.79963 -0.149927 
-0.190977 -0.149927 -9.97561 
-9.77478 0.0503878 -0.174838 
0.0503878 -9.80445 -0.151504 
-0.174838 -0.151504 -9.9634 
-9.77731 0.053528 -0.184437 
0.053528 -9.80603 -0.155201 
-0.184437 -0.155201 -9.95929 
-9.78551 0.0529236 -0.187499 
0.0529236 -9.81869 -0.158565 
-0.187499 -0.158565 -9.93843 
-9.80279 -0.0361473 0.186904 
-0.0361473 -9.67317 -0.260601 
0.186904 -0.260601 -9.64254 
-9.80819 -0.0789309 0.245721 
-0.0789309 -9.72003 -0.271692 
0.245721 -0.271692 -9.59027 
-9.75712 -0.104496 0.282556 
-0.104496 -9.75324 -0.293979 
0.282556 -0.293979 -9.60814 
-9.78401 -0.0741442 0.21394 
-0.0741442 -9.67205 -0.281668 
0.21394 -0.281668 -9.66244 
-9.97171 -0.049151 0.245882 
-0.049151 -9.69229 0.339617 
0.245882 0.339617 -9.4508 
-9.67411 0.0597196 -0.0215986 
0.0597196 -9.95185 0.192826 
-0.0215986 0.192826 -9.48884 
-9.94002 -0.0143417 -0.00526119 
-0.0143417 -9.85262 0.326802 
-0.00526119 0.326802 -9.32217 
-10.0496 -0.0128504 -0.00445777 
-0.0128504 -9.62287 0.331843 
-0.00445777 0.331843 -9.44231 
-9.87445 -0.0413475 -0.0866259 
-0.0413475 -9.86569 0.052572 
-0.0866259 0.052572 -9.95114 
-9.89827 0.00174745 -0.0723784 
0.00174745 -9.85043 0.0502739 
-0.0723784 0.0502739 -9.94258 
-9.82391 -0.0985234 -0.0837849 
-0.0985234 -9.86477 0.0566242 
-0.0837849 0.0566242 -10.0026 
-9.91933 0.00326529 -0.143043 
0.00326529 -9.84687 0.119548 
-0.143043 0.119548 -9.92508 
-9.94816 0.0450711 0.541108 
0.0450711 -9.63676 0.380388 
0.541108 0.380388 -9.51719 
-9.92931 0.0466677 0.379264 
0.0466677 -9.5843 0.368197 
0.379264 0.368197 -9.58849 
-10.0221 0.0425158 0.41789 
0.0425158 -9.6031 0.507523 
0.41789 0.507523 -9.47687 
-9.63489 -0.0316366 0.156334 
-0.0316366 -9.73301 0.359562 
0.156334 0.359562 -9.73421 
-9.98399 -0.0587772 0.438937 
-0.0587772 -8.96811 1.45763 
0.438937 1.45763 -10.1462 
-9.42783 0.0561452 0.405139 
0.0561452 -9.78602 -0.364455 
0.405139 -0.364455 -9.88448 
-8.73322 0.850131 -0.577306 
0.850131 -9.42849 1.30683 
-0.577306 1.30683 -10.9366 
-9.49208 0.805493 1.55229 
0.805493 -10.091 0.33391 
1.55229 0.33391 -9.51526 
-9.91247 -0.00161892 -0.237727 
-0.00161892 -9.9492 -0.121511 
-0.237727 -0.121511 -9.91115 
-9.85379 0.0301394 -0.258916 
0.0301394 -9.94646 -0.143939 
-0.258916 -0.143939 -9.97257 
-9.89334 0.0492049 -0.173814 
0.0492049 -9.89505 -0.0338842 
-0.173814 -0.0338842 -9.98444 
-9.89479 0.021501 -0.223539 
0.021501 -9.92619 -0.118914 
-0.223539 -0.118914 -9.95185 
-9.96534 -0.000327412 -0.0406801 
-0.000327412 -9.66944 -0.42506 
-0.0406801 -0.42506 -9.7304 
-9.84024 -0.0597452 -0.0654162 
-0.0597452 -9.64115 -0.322695 
-0.0654162 -0.322695 -9.88378 
-9.90672 0.1223 -0.0594201 
0.1223 -9.72806 -0.321218 
-0.0594201 -0.321218 -9.73039 
-10.0068 0.0655412 0.0246801 
0.0655412 -9.65199 -0.309918 
0.0246801 -0.309918 -9.70639 
-9.8318 0.0137772 0.193685 
0.0137772 -9.79591 0.101918 
0.193685 0.101918 -9.8326 
-9.69186 0.134637 0.129013 
0.134637 -9.83361 0.0902095 
0.129013 0.0902095 -9.93484 
-9.88165 -0.0446774 0.188601 
-0.0446774 -9.80792 0.111011 
0.188601 0.111011 -9.77075 
-9.76013 0.044961 0.28532 
0.044961 -9.76534 0.18288 
0.28532 0.18288 -9.93485 
-1.06839 -0.463345 -0.226431 
-0.463345 -0.382978 -0.803102 
-0.226431 -0.803102 -13.8307 
-9.34773 0.0638636 0.983065 
0.0638636 -8.78017 -1.6662 
0.983065 -1.6662 2.84587 
-10.4866 1.63006 1.59405 
1.63006 -9.0602 0.267085 
1.59405 0.267085 4.26472 
-3.47329 -1.0681 12.9366 
-1.0681 -8.744 -6.33754 
12.9366 -6.33754 -3.06475 
-9.78248 0.0629624 -0.289667 
0.0629624 -9.87341 -0.11832 
-0.289667 -0.11832 -9.76039 
-9.78359 0.0643745 -0.323581 
0.0643745 -9.86989 -0.164784 
-0.323581 -0.164784 -9.7628 
-9.73683 0.0454679 -0.290106 
0.0454679 -9.82373 -0.18383 
-0.290106 -0.18383 -9.85572 
-9.7873 0.00501929 -0.271972 
0.00501929 -9.97696 -0.30099 
-0.271972 -0.30099 -9.65203 
-12.1504 -1.39434 -0.642424 
-1.39434 -12.1573 0.425197 
-0.642424 0.425197 -16.1635 
-14.8153 0.494835 -1.73217 
0.494835 -15.5384 2.38822 
-1.73217 2.38822 -10.1176 
-8.74346 0.000343127 1.42251 
0.000343127 -11.3308 -2.33103 
1.42251 -2.33103 -20.3969 
-12.5301 -1.94767 0.0357198 
-1.94767 -8.81137 3.4733 
0.0357198 3.4733 -19.1297 
-9.95006 0.00848766 -0.0363394 
0.00848766 -9.87783 -0.023793 
-0.0363394 -0.023793 -9.8624 
-9.8609 -0.0539337 -0.0728862 
-0.0539337 -9.87372 0.0519108 
-0.0728862 0.0519108 -9.95567 
-9.89904 0.0157086 -0.0229909 
0.0157086 -9.8701 0.0144039 
-0.0229909 0.0144039 -9.92114 
-9.88098 -0.0237961 -0.0141711 
-0.0237961 -9.83693 0.0276934 
-0.0141711 0.0276934 -9.97238 
-9.62879 0.38015 0.720315 
0.38015 -9.97181 -0.115974 
0.720315 -0.115974 -8.75375 
-9.08708 -0.179385 0.397933 
-0.179385 -10.0721 0.109672 
0.397933 0.109672 -9.19513 
-9.77972 -0.143627 0.365423 
-0.143627 -9.98183 -0.584613 
0.365423 -0.584613 -8.59281 
-9.02623 -0.636784 0.0430629 
-0.636784 -12.1233 0.55174 
0.0430629 0.55174 -7.20486 
-9.55575 -0.0198463 -0.678898 
-0.0198463 -9.10517 0.220955 
-0.678898 0.220955 -8.3051 
-9.81846 0.0354118 -0.65195 
0.0354118 -9.77285 0.0557972 
-0.65195 0.0557972 -7.37471 
-9.35406 -0.0198537 -0.633503 
-0.0198537 -9.69363 0.37494 
-0.633503 0.37494 -7.91834 
-9.06273 0.0173483 -0.58288 
0.0173483 -10.0644 0.720866 
-0.58288 0.720866 -7.83894 
-9.7405 0.0454036 0.0346379 
0.0454036 -9.7448 0.0494644 
0.0346379 0.0494644 -9.96505 
-9.79451 0.132132 0.0657914 
0.132132 -9.6062 0.0935504 
0.0657914 0.0935504 -10.0496 
-9.73387 -0.00117449 0.0899547 
-0.00117449 -9.76947 0.122171 
0.0899547 0.122171 -9.947 
-9.76968 0.0678453 0.12201 
0.0678453 -9.72667 0.0676291 
0.12201 0.0676291 -9.95401 
-9.8576 0.027886 0.193492 
0.027886 -9.86462 0.129411 
0.193492 0.129411 -9.94568 
-9.87105 0.0358839 0.192296 
0.0358839 -9.86247 0.1077 
0.192296 0.1077 -9.93438 
-9.8669 0.0216609 0.19343 
0.0216609 -9.87266 0.113852 
0.19343 0.113852 -9.92833 
-9.87677 0.0260472 0.203393 
0.0260472 -9.8537 0.131789 
0.203393 0.131789 -9.93743 
-7.04521 -0.147219 0.285642 
-0.147219 -7.26687 -0.92302 
0.285642 -0.92302 -7.44937 
-7.92196 2.01034 0.800327 
2.01034 -8.51714 -1.17891 
0.800327 -1.17891 -5.32235 
-9.16769 0.995855 0.889564 
0.995855 -8.3247 -0.832671 
0.889564 -0.832671 -4.26906 
-9.38776 0.669605 1.08092 
0.669605 -7.62413 -0.143035 
1.08092 -0.143035 -4.74956 
-9.93175 0.0433603 0.135668 
0.0433603 -9.83159 0.14408 
0.135668 0.14408 -9.60119 
-9.9857 0.0337863 0.0492935 
0.0337863 -9.7948 0.168805 
0.0492935 0.168805 -9.58403 
-9.90989 0.00449962 0.0958945 
0.00449962 -9.87663 0.118979 
0.0958945 0.118979 -9.57801 
-9.79614 -0.06477 0.0326314 
-0.06477 -9.86805 0.187402 
0.0326314 0.187402 -9.70034 
-9.95118 -0.00278098 0.161296 
-0.00278098 -9.83929 -0.208126 
0.161296 -0.208126 -9.8603 
-9.92181 -0.0264439 0.107663 
-0.0264439 -9.83417 -0.24341 
0.107663 -0.24341 -9.89479 
-9.9275 -0.0481662 0.0761105 
-0.0481662 -9.82751 -0.232235 
0.0761105 -0.232235 -9.89575 
-9.87246 -0.0515272 0.108763 
-0.0515272 -9.842 -0.244279 
0.108763 -0.244279 -9.9363 
-9.31228 -0.499221 -0.610976 
-0.499221 -9.20375 -0.433893 
-0.610976 -0.433893 -12.3934 
-11.6774 -0.750978 1.20602 
-0.750978 -10.2294 -0.600024 
1.20602 -0.600024 -9.00267 
-8.91138 0.86051 0.0998471 
0.86051 -10.812 0.161492 
0.0998471 0.161492 -11.186 
-9.1912 1.62097 1.09211 
1.62097 -10.8859 0.395191 
1.09211 0.395191 -10.8323 
-9.95211 -0.0148199 -0.216897 
-0.0148199 -9.95417 -0.108491 
-0.216897 -0.108491 -10.0185 
-9.94038 -0.0183934 -0.213226 
-0.0183934 -9.99295 -0.103168 
-0.213226 -0.103168 -9.99142 
-9.97668 0.00657593 -0.212453 
0.00657593 -10.0013 -0.0765141 
-0.212453 -0.0765141 -9.94678 
-9.96018 0.0167814 -0.204155 
0.0167814 -9.99858 -0.103161 
-0.204155 -0.103161 -9.96598 
-9.91719 -0.0174549 -0.102176 
-0.0174549 -9.91265 0.23962 
-0.102176 0.23962 -9.91404 
-9.9153 -0.0137904 -0.201675 
-0.0137904 -9.90497 0.259599 
-0.201675 0.259599 -9.92361 
-10.0422 -0.041619 -0.107316 
-0.041619 -9.86334 0.237524 
-0.107316 0.237524 -9.83833 
-9.9491 -0.00432735 -0.107937 
-0.00432735 -9.90331 0.18794 
-0.107937 0.18794 -9.89147 
-10.0542 0.0782315 -0.191823 
0.0782315 -10.2744 -0.003803 
-0.191823 -0.003803 -10.5811 
-10.0129 0.0211216 -0.0362111 
0.0211216 -10.0986 0.0956004 
-0.0362111 0.0956004 -10.7982 
-9.11712 0.49832 -0.133624 
0.49832 -10.7739 -0.136436 
-0.133624 -0.136436 -11.0187 
-10.004 0.360409 0.0782079 
0.360409 -10.3233 0.134525 
0.0782079 0.134525 -10.5824 
-9.68415 -0.00892729 0.254432 
-0.00892729 -9.91625 -0.276615 
0.254432 -0.276615 -9.76819 
-9.6643 -0.067743 0.34687 
-0.067743 -9.95465 -0.338074 
0.34687 -0.338074 -9.74964 
-9.63417 -0.0766257 0.262611 
-0.0766257 -10.0279 -0.306417 
0.262611 -0.306417 -9.70656 
-9.72461 -0.106949 0.398502 
-0.106949 -9.93384 -0.285291 
0.398502 -0.285291 -9.71014 
-9.41413 -0.121091 -0.354604 
-0.121091 -10.2457 -0.162299 
-0.354604 -0.162299 -9.50042 
-9.81234 0.501976 -0.271769 
0.501976 -10.0576 -0.208104 
-0.271769 -0.208104 -9.29027 
-9.49138 0.154079 -0.302738 
0.154079 -10.4726 0.0450741 
-0.302738 0.0450741 -9.19628 
-9.42033 -0.242798 -0.873001 
-0.242798 -10.6046 -0.192093 
-0.873001 -0.192093 -9.1353 
-9.93877 0.0595428 -0.485639 
0.0595428 -9.72462 -0.600548 
-0.485639 -0.600548 -9.12299 
-10.0181 0.00521261 -0.128785 
0.00521261 -9.58683 -0.495235 
-0.128785 -0.495235 -9.18147 
-9.73215 0.115653 -0.256203 
0.115653 -9.62614 -0.264616 
-0.256203 -0.264616 -9.42809 
-9.9986 -0.076497 -0.152843 
-0.076497 -9.77469 -0.490689 
-0.152843 -0.490689 -9.0131 
-9.90722 0.191073 -0.105044 
0.191073 -10.1174 -0.0589678 
-0.105044 -0.0589678 -10.4108 
-9.99878 0.126123 -0.0842964 
0.126123 -10.1185 -0.036581 
-0.0842964 -0.036581 -10.3181 
-9.93676 0.0762825 -0.0696631 
0.0762825 -10.2515 0.0185914 
-0.0696631 0.0185914 -10.2471 
-9.93272 0.152816 -0.254287 
0.152816 -10.2469 -0.148096 
-0.254287 -0.148096 -10.2558 
-9.81379 -0.0840825 0.312599 
-0.0840825 -9.42025 -0.302838 
0.312599 -0.302838 -9.6799 
-9.76975 -0.157574 0.229121 
-0.157574 -9.47041 -0.359166 
0.229121 -0.359166 -9.67379 
-9.61847 -0.142248 0.256715 
-0.142248 -9.4937 -0.21166 
0.256715 -0.21166 -9.80178 
-9.73921 -0.147129 0.0924712 
-0.147129 -9.71371 -0.377413 
0.0924712 -0.377413 -9.46102 
-10.1484 -0.176016 0.040643 
-0.176016 -9.6447 -0.0467845 
0.040643 -0.0467845 -9.95025 
-9.921 0.242265 0.174907 
0.242265 -9.75112 -0.0306587 
0.174907 -0.0306587 -10.0712 
-10.0451 -0.184139 -0.0498173 
-0.184139 -9.55105 -0.0557321 
-0.0498173 -0.0557321 -10.1471 
-9.68898 0.111506 -0.308502 
0.111506 -9.91135 0.32197 
-0.308502 0.32197 -10.143 
-9.86083 -0.257662 0.117852 
-0.257662 -9.61693 0.00851421 
0.117852 0.00851421 -10.0648 
-9.75746 -0.118641 -0.342909 
-0.118641 -9.8408 0.260304 
-0.342909 0.260304 -9.94427 
-9.62412 -0.470476 -0.0100969 
-0.470476 -9.72136 0.095208 
-0.0100969 0.095208 -10.197 
-9.63063 -0.0725485 -0.310996 
-0.0725485 -9.92963 0.196445 
-0.310996 0.196445 -9.98226 
-9.90141 -0.00709551 0.238784 
-0.00709551 -9.9136 -0.0263052 
0.238784 -0.0263052 -9.92131 
-9.8759 -0.00485581 0.264376 
-0.00485581 -9.97492 -0.0351486 
0.264376 -0.0351486 -9.8855 
-9.8346 0.00201865 0.238211 
0.00201865 -9.93283 -0.0432598 
0.238211 -0.0432598 -9.96889 
-9.90519 -0.0214911 0.245431 
-0.0214911 -9.92399 -0.00653575 
0.245431 -0.00653575 -9.90714 
-9.89444 -0.00375882 0.01314 
-0.00375882 -9.88887 -0.25034 
0.01314 -0.25034 -9.94891 
-9.91529 0.00034176 0.014267 
0.00034176 -9.89157 -0.225213 
0.014267 -0.225213 -9.92537 
-9.9181 0.00904345 0.00122322 
0.00904345 -9.87991 -0.242514 
0.00122322 -0.242514 -9.93421 
-9.9111 -0.000893378 0.00736453 
-0.000893378 -9.8737 -0.23787 
0.00736453 -0.23787 -9.94742 
-9.69262 -0.138141 -0.256326 
-0.138141 -9.76418 0.331111 
-0.256326 0.331111 -10.1444 
-9.87429 -0.0766697 -0.236854 
-0.0766697 -9.74332 0.174188 
-0.236854 0.174188 -9.98361 
-9.85598 -0.0541836 -0.26304 
-0.0541836 -9.82975 0.261841 
-0.26304 0.261841 -9.91548 
-9.77452 0.0232289 -0.112629 
0.0232289 -9.80042 0.106319 
-0.112629 0.106319 -10.0263 
-9.71416 0.0334843 -0.324172 
0.0334843 -9.81602 -0.0574434 
-0.324172 -0.0574434 -9.71546 
-9.68882 0.00421735 -0.32555 
0.00421735 -9.81117 -0.0951664 
-0.32555 -0.0951664 -9.74564 
-9.68896 0.0406654 -0.268765 
0.0406654 -9.79536 -0.157932 
-0.268765 -0.157932 -9.76132 
-9.59649 0.0493785 -0.498738 
0.0493785 -9.92551 -0.147415 
-0.498738 -0.147415 -9.72364 
-9.84147 -0.0399965 0.174306 
-0.0399965 -9.68984 -0.188396 
0.174306 -0.188396 -9.0607 
-9.96066 0.0950142 -0.135212 
0.0950142 -9.61061 -0.417877 
-0.135212 -0.417877 -9.02074 
-10.0257 -0.0904312 0.0686257 
-0.0904312 -9.69625 -0.49553 
0.0686257 -0.49553 -8.87005 
-9.94071 0.0594783 -0.103893 
0.0594783 -9.71494 -0.399604 
-0.103893 -0.399604 -8.93636 
-9.72998 0.0655674 0.175032 
0.0655674 -9.76779 0.0798927 
0.175032 0.0798927 -9.84525 
-9.64387 0.124369 0.26448 
0.124369 -9.83892 0.102387 
0.26448 0.102387 -9.86023 
-9.71933 0.00572652 0.263576 
0.00572652 -9.79813 0.103182 
0.263576 0.103182 -9.82557 
-9.69587 0.000926402 0.237243 
0.000926402 -9.80368 0.0788553 
0.237243 0.0788553 -9.84346 
-10.2467 -0.104789 -0.0596249 
-0.104789 -9.85138 -0.0759455 
-0.0596249 -0.0759455 -10.6966 
-10.2533 0.146775 -0.156652 
0.146775 -9.96385 0.112201 
-0.156652 0.112201 -10.5775 
-10.2941 0.317495 -0.0673763 
0.317495 -10.1011 -0.0801603 
-0.0673763 -0.0801603 -10.3995 
-10.4078 0.0181273 0.0418325 
0.0181273 -9.83997 0.185171 
0.0418325 0.185171 -10.547 
-11.1832 -2.16984 1.01904 
-2.16984 -7.94961 -1.72538 
1.01904 -1.72538 -7.97563 
-8.27285 -0.273846 1.4476 
-0.273846 -10.8 -0.170971 
1.4476 -0.170971 -8.03556 
-7.28457 0.464516 2.02787 
0.464516 -10.5339 -2.68523 
2.02787 -2.68523 -9.29002 
-10.6889 -0.95385 2.1148 
-0.95385 -8.07486 -2.41336 
2.1148 -2.41336 -8.3447 
-9.78465 -0.00558496 -0.21564 
-0.00558496 -9.86507 -0.053745 
-0.21564 -0.053745 -9.90328 
-9.80983 0.0288703 -0.223189 
0.0288703 -9.86755 -0.0473639 
-0.223189 -0.0473639 -9.87563 
-9.78517 0.013103 -0.223585 
0.013103 -9.84906 -0.0595977 
-0.223585 -0.0595977 -9.91878 
-9.80258 0.0228845 -0.212475 
0.0228845 -9.86844 -0.0329801 
-0.212475 -0.0329801 -9.88199 
-9.62088 0.133964 0.234961 
0.133964 -9.8647 0.234098 
0.234961 0.234098 -9.93044 
-9.7893 0.0506764 0.330947 
0.0506764 -9.57072 0.360558 
0.330947 0.360558 -10.056 
-9.59756 0.0150425 0.249383 
0.0150425 -9.72969 0.133766 
0.249383 0.133766 -10.0888 
-9.90209 0.107446 0.247906 
0.107446 -9.79424 0.261581 
0.247906 0.261581 -9.71968 
-10.0491 0.349942 -0.00623416 
0.349942 -9.4631 0.293675 
-0.00623416 0.293675 -8.55578 
-10.8108 0.388579 -0.741948 
0.388579 -9.2882 -1.47344 
-0.741948 -1.47344 -7.96891 
-9.79182 0.372093 -0.883421 
0.372093 -9.60764 -1.02399 
-0.883421 -1.02399 -8.66849 
-9.98734 0.513344 -1.15565 
0.513344 -9.00745 -0.428085 
-1.15565 -0.428085 -9.07316 
-9.72425 0.132754 -0.325599 
0.132754 -9.71546 -0.25359 
-0.325599 -0.25359 -9.88288 
-9.89651 0.121401 -0.295647 
0.121401 -9.63328 -0.481022 
-0.295647 -0.481022 -9.7928 
-9.77652 0.0873009 -0.21852 
0.0873009 -9.78919 -0.250169 
-0.21852 -0.250169 -9.75688 
-9.73759 0.0913098 -0.303023 
0.0913098 -9.72877 -0.363772 
-0.303023 -0.363772 -9.85623 
-9.94453 -0.092042 0.176978 
-0.092042 -9.76538 -0.282651 
0.176978 -0.282651 -9.67966 
-9.99911 -0.0408839 0.104444 
-0.0408839 -9.73639 -0.336695 
0.104444 -0.336695 -9.65407 
-9.77985 0.0213971 0.15432 
0.0213971 -9.82199 -0.305383 
0.15432 -0.305383 -9.78773 
-9.94005 -0.0499005 0.126959 
-0.0499005 -9.79084 -0.316518 
0.126959 -0.316518 -9.65868 
-9.80589 -0.0991103 -0.117908 
-0.0991103 -9.86491 0.162761 
-0.117908 0.162761 -9.97547 
-9.83067 -0.0192155 -0.20362 
-0.0192155 -9.88127 0.197009 
-0.20362 0.197009 -9.93433 
-9.86938 -0.0486749 -0.310637 
-0.0486749 -9.86719 0.180107 
-0.310637 0.180107 -9.9097 
-9.8259 -0.00309062 -0.225321 
-0.00309062 -9.83015 0.05557 
-0.225321 0.05557 -9.99022 
-10.111 0.0525837 -0.286367 
0.0525837 -9.46036 0.45751 
-0.286367 0.45751 -9.12494 
-9.68955 -0.256641 -0.390813 
-0.256641 -9.62483 0.472587 
-0.390813 0.472587 -9.38189 
-9.98646 -0.247519 -0.287459 
-0.247519 -9.40388 0.724729 
-0.287459 0.724729 -9.30593 
-10.3027 -0.662618 -0.509514 
-0.662618 -8.96612 0.942179 
-0.509514 0.942179 -9.42746 
-9.83621 -0.00177874 0.316916 
-0.00177874 -9.91571 -0.0244993 
0.316916 -0.0244993 -9.7377 
-9.8464 0.0139613 0.267357 
0.0139613 -9.89579 0.0195766 
0.267357 0.0195766 -9.74743 
-9.70874 0.0648114 0.429317 
0.0648114 -10.0332 0.020483 
0.429317 0.020483 -9.74767 
-9.82772 -0.0312557 0.27018 
-0.0312557 -9.9195 -0.0149439 
0.27018 -0.0149439 -9.7424 
-9.93973 0.127891 -0.283733 
0.127891 -9.6994 -0.421157 
-0.283733 -0.421157 -9.69853 
-9.6871 -0.0226008 -0.346157 
-0.0226008 -9.69714 -0.335659 
-0.346157 -0.335659 -9.95342 
-9.71052 0.0301915 -0.112558 
0.0301915 -9.52309 0.0303203 
-0.112558 0.0303203 -10.104 
-9.90776 0.657128 -0.745777 
0.657128 -9.44685 -0.319431 
-0.745777 -0.319431 -9.98306 
-9.91148 -0.0146497 0.0363911 
-0.0146497 -9.8929 -0.202884 
0.0363911 -0.202884 -9.91759 
-9.97488 -0.0257305 0.0231809 
-0.0257305 -9.89041 -0.293261 
0.0231809 -0.293261 -9.85669 
-9.98822 0.0196512 0.0477341 
0.0196512 -9.80354 -0.243833 
0.0477341 -0.243833 -9.93022 
-9.91325 0.00767921 0.0884284 
0.00767921 -9.85193 -0.244799 
0.0884284 -0.244799 -9.9568 
-9.82098 -0.0296959 0.249087 
-0.0296959 -9.77954 0.0120883 
0.249087 0.0120883 -9.78819 
-9.69831 -0.0428141 0.288611 
-0.0428141 -9.84579 -0.0132374 
0.288611 -0.0132374 -9.8446 
-9.71838 -0.0319211 0.192637 
-0.0319211 -9.77119 -0.0769421 
0.192637 -0.0769421 -9.89914 
-9.70368 0.020144 0.208353 
0.020144 -9.83581 -0.0807053 
0.208353 -0.0807053 -9.84922 
-9.29865 0.0592897 -0.719651 
0.0592897 -10.3021 0.414271 
-0.719651 0.414271 -8.30367 
-9.34569 0.180439 -0.985236 
0.180439 -10.484 0.492175 
-0.985236 0.492175 -8.07469 
-9.7362 0.0672366 -0.115384 
0.0672366 -9.59657 -0.0764354 
-0.115384 -0.0764354 -8.57162 
-8.84523 -0.200405 -0.831668 
-0.200405 -10.1212 0.42237 
-0.831668 0.42237 -8.93797 
-9.44606 -0.00950511 0.0297307 
-0.00950511 -9.77273 0.132403 
0.0297307 0.132403 -10.8272 
-10.161 -0.155159 -0.628864 
-0.155159 -10.2804 -0.184564 
-0.628864 -0.184564 -9.60466 
-9.2956 -0.0566107 -0.189417 
-0.0566107 -9.95157 0.0730164 
-0.189417 0.0730164 -10.7989 
-9.39473 -0.143212 -0.198748 
-0.143212 -9.93263 0.0596042 
-0.198748 0.0596042 -10.7187 
-9.72993 -0.1316 0.245662 
-0.1316 -9.72467 -0.180158 
0.245662 -0.180158 -9.88793 
-9.59032 -0.053875 0.223373 
-0.053875 -9.65329 -0.163209 
0.223373 -0.163209 -10.0989 
-9.62153 -0.135031 0.252076 
-0.135031 -9.72544 -0.207462 
0.252076 -0.207462 -9.99555 
-9.692 -0.113289 0.346211 
-0.113289 -9.56575 -0.390428 
0.346211 -0.390428 -10.0848 
-9.58748 -0.0780577 -0.449502 
-0.0780577 -9.77601 0.438758 
-0.449502 0.438758 -9.69242 
-9.66978 -0.117972 -0.453859 
-0.117972 -9.78198 0.390516 
-0.453859 0.390516 -9.60415 
-9.66334 -0.163339 -0.381225 
-0.163339 -9.68907 0.328215 
-0.381225 0.328215 -9.70351 
-9.60532 -0.100895 -0.418504 
-0.100895 -9.75146 0.406273 
-0.418504 0.406273 -9.69913 
-8.57864 0.7067 0.906065 
0.7067 -9.82843 0.805016 
0.906065 0.805016 -9.89004 
-9.15124 0.604025 0.403005 
0.604025 -9.76085 0.655748 
0.403005 0.655748 -9.38502 
-8.83615 0.251137 0.509736 
0.251137 -9.69865 0.102591 
0.509736 0.102591 -9.76232 
-8.16686 1.1502 1.19673 
1.1502 -10.3457 0.854512 
1.19673 0.854512 -9.78453 
-10.1733 0.193779 0.646768 
0.193779 -8.01515 0.340246 
0.646768 0.340246 -5.60989 
-9.45776 -0.0353172 0.609701 
-0.0353172 -7.99769 0.494709 
0.609701 0.494709 -6.34285 
-9.23448 0.675448 0.48543 
0.675448 -7.27387 0.988627 
0.48543 0.988627 -7.28995 
-10.3578 -0.0714694 0.502747 
-0.0714694 -7.55771 0.424096 
0.502747 0.424096 -5.88281 
-9.62332 0.0576135 0.504871 
0.0576135 -9.44614 0.559283 
0.504871 0.559283 -9.80326 
-9.72413 0.0596298 0.64881 
0.0596298 -9.4464 0.713129 
0.64881 0.713129 -9.70219 
-9.61443 0.209461 0.673002 
0.209461 -9.35844 0.310295 
0.673002 0.310295 -9.89985 
-9.70338 0.10273 0.411196 
0.10273 -9.62572 0.183746 
0.411196 0.183746 -9.54362 
-10.029 0.0377009 0.0572855 
0.0377009 -10.0444 0.0172977 
0.0572855 0.0172977 -10.1925 
-9.97591 0.0144945 0.0472813 
0.0144945 -9.97606 -0.0571172 
0.0472813 -0.0571172 -10.3139 
-10.1462 -0.0345563 -0.0376435 
-0.0345563 -10.2343 0.000493596 
-0.0376435 0.000493596 -9.88539 
-10.0319 -0.00587319 0.0315661 
-0.00587319 -10.0142 0.177581 
0.0315661 0.177581 -10.2198 
-9.87031 -0.0412607 0.194438 
-0.0412607 -9.81782 -0.207193 
0.194438 -0.207193 -9.93502 
-9.83774 -0.0583652 0.179939 
-0.0583652 -9.83863 -0.218702 
0.179939 -0.218702 -9.94679 
-9.85579 -0.0371108 0.20855 
-0.0371108 -9.82192 -0.202204 
0.20855 -0.202204 -9.94544 
-9.83843 -0.0319629 0.178699 
-0.0319629 -9.84882 -0.198113 
0.178699 -0.198113 -9.9359 
-9.78275 -0.013276 -0.516964 
-0.013276 -10.0637 0.374726 
-0.516964 0.374726 -9.48242 
-9.27458 0.039815 0.0462752 
0.039815 -9.60659 -0.0788988 
0.0462752 -0.0788988 -10.4477 
-9.44803 -0.643538 -0.509019 
-0.643538 -9.92054 1.00896 
-0.509019 1.00896 -9.96031 
-9.71273 -0.183924 -0.416802 
-0.183924 -9.78143 0.467463 
-0.416802 0.467463 -9.83472 
-11.3548 -0.814521 -0.428251 
-0.814521 -12.1697 -1.80385 
-0.428251 -1.80385 -8.55206 
-10.1778 -0.3133 0.47634 
-0.3133 -9.45604 0.994478 
0.47634 0.994478 -12.4426 
-11.0084 -0.195754 -0.115616 
-0.195754 -10.1338 -0.49471 
-0.115616 -0.49471 -10.9344 
-11.1455 0.279676 -0.0476441 
0.279676 -8.93128 -0.66109 
-0.0476441 -0.66109 -11.9997 
-9.97863 -0.0626774 0.428723 
-0.0626774 -9.77539 -0.38176 
0.428723 -0.38176 -9.43917 
-9.82299 0.0296278 0.379863 
0.0296278 -9.79301 -0.386465 
0.379863 -0.386465 -9.57719 
-9.84582 -0.256073 0.591111 
-0.256073 -9.70476 -0.557191 
0.591111 -0.557191 -9.64261 
-9.75922 -0.0233423 0.123675 
-0.0233423 -9.62578 -0.230231 
0.123675 -0.230231 -9.80819 
-9.75845 0.0513348 0.189287 
0.0513348 -9.80387 0.0765309 
0.189287 0.0765309 -9.93505 
-9.73755 0.0858173 0.236052 
0.0858173 -9.8234 0.141841 
0.236052 0.141841 -9.93642 
-9.76954 0.0409296 0.223468 
0.0409296 -9.8187 0.124286 
0.223468 0.124286 -9.90912 
-9.77221 -0.0107246 0.242994 
-0.0107246 -9.84716 0.146838 
0.242994 0.146838 -9.87801 
-10.3838 -0.168619 -0.0329901 
-0.168619 -10.807 -0.351003 
-0.0329901 -0.351003 -10.5462 
-10.1972 0.0462635 0.105217 
0.0462635 -10.3433 0.112012 
0.105217 0.112012 -11.1965 
-10.5532 0.556527 -0.465974 
0.556527 -9.71631 -0.295016 
-0.465974 -0.295016 -11.4675 
-10.6139 0.355945 -0.414208 
0.355945 -10.162 -0.124342 
-0.414208 -0.124342 -10.9611 
-9.78129 0.188566 -0.129946 
0.188566 -9.58914 -0.288487 
-0.129946 -0.288487 -9.85238 
-9.81742 0.053252 -0.0772345 
0.053252 -9.62206 -0.297612 
-0.0772345 -0.297612 -9.78333 
-9.84647 0.139447 -0.235705 
0.139447 -9.49699 -0.296741 
-0.235705 -0.296741 -9.87935 
-9.76361 0.102583 -0.107205 
0.102583 -9.59433 -0.319254 
-0.107205 -0.319254 -9.86487 
-9.94599 -0.0207283 0.239068 
-0.0207283 -9.94743 0.0765149 
0.239068 0.0765149 -10.0074 
-9.94844 0.0120625 0.22851 
0.0120625 -9.97006 0.0757801 
0.22851 0.0757801 -9.9823 
-9.94596 0.0298756 0.225782 
0.0298756 -9.96307 0.0897676 
0.225782 0.0897676 -9.99177 
-9.94996 -0.002838 0.244096 
-0.002838 -9.9734 0.076546 
0.244096 0.076546 -9.97744 
-9.9293 -0.0177318 0.150556 
-0.0177318 -9.9153 -0.150502 
0.150556 -0.150502 -9.96099 
-9.9087 0.0225869 0.206411 
0.0225869 -9.92281 -0.164241 
0.206411 -0.164241 -9.97408 
-9.89134 -0.00515112 0.159261 
-0.00515112 -9.90198 -0.176822 
0.159261 -0.176822 -10.0123 
-9.92591 -0.0389033 0.165714 
-0.0389033 -9.90327 -0.168981 
0.165714 -0.168981 -9.97641 
-9.85489 0.0292154 0.240061 
0.0292154 -9.90903 0.09652 
0.240061 0.09652 -9.92757 
-9.86644 0.0228931 0.231483 
0.0228931 -9.91025 0.111107 
0.231483 0.111107 -9.91479 
-9.87134 0.0445027 0.232727 
0.0445027 -9.90478 0.101639 
0.232727 0.101639 -9.91537 
-9.83419 0.0282056 0.243244 
0.0282056 -9.93302 0.133309 
0.243244 0.133309 -9.92427 
-10.2393 0.0118884 -0.0625131 
0.0118884 -10.3996 0.015139 
-0.0625131 0.015139 -10.196 
-10.0268 -0.00984966 -0.0459492 
-0.00984966 -10.3654 0.00981645 
-0.0459492 0.00981645 -10.4428 
-9.9685 0.117525 -0.115842 
0.117525 -10.2226 -0.0150543 
-0.115842 -0.0150543 -10.6438 
-10.0888 0.0306989 0.0337531 
0.0306989 -10.3379 0.0772176 
0.0337531 0.0772176 -10.4082 
-10.1783 -0.0415419 0.0652109 
-0.0415419 -10.3508 -0.0120319 
0.0652109 -0.0120319 -9.85997 
-10.0152 0.0693552 -0.0833219 
0.0693552 -10.0962 -0.0128985 
-0.0833219 -0.0128985 -10.2777 
-10.0386 0.0195759 -0.0310566 
0.0195759 -10.0389 0.055848 
-0.0310566 0.055848 -10.3116 
-10.0015 -0.0178893 -0.00937007 
-0.0178893 -10.0806 -0.170849 
-0.00937007 -0.170849 -10.3071 
-9.8475 -0.138865 0.327025 
-0.138865 -9.87188 -0.0168849 
0.327025 -0.0168849 -8.81001 
-9.66816 -0.0502013 0.260904 
-0.0502013 -9.75813 0.00400999 
0.260904 0.00400999 -9.1031 
-9.76052 -0.0559979 0.0416052 
-0.0559979 -9.65014 0.11863 
0.0416052 0.11863 -9.11874 
-9.54788 -0.00941303 0.303787 
-0.00941303 -9.81047 0.0365939 
0.303787 0.0365939 -9.17105 
-9.3121 -0.250737 -0.3759 
-0.250737 -8.93828 -0.793338 
-0.3759 -0.793338 -4.25694 
-8.82396 -0.21853 0.0344495 
-0.21853 -8.79159 -0.505434 
0.0344495 -0.505434 -4.89177 
-8.5893 -0.188438 -0.526016 
-0.188438 -8.05584 -0.741606 
-0.526016 -0.741606 -5.86218 
-8.72016 -0.471077 -0.44753 
-0.471077 -9.05634 -0.139177 
-0.44753 -0.139177 -4.73082 
-9.66163 -0.0246143 -0.296996 
-0.0246143 -9.83861 -0.0628654 
-0.296996 -0.0628654 -9.83622 
-9.60392 -0.0753192 -0.282696 
-0.0753192 -9.93005 0.198228 
-0.282696 0.198228 -9.80249 
-9.67662 0.0075628 -0.402888 
0.0075628 -9.98092 -0.0376848 
-0.402888 -0.0376848 -9.67892 
-9.67518 -0.018895 -0.27989 
-0.018895 -9.91769 0.0985531 
-0.27989 0.0985531 -9.74359 
-9.49369 -0.0843766 0.704666 
-0.0843766 -10.1772 -0.259618 
0.704666 -0.259618 -8.34303 
-9.8747 0.0926341 0.784169 
0.0926341 -10.1563 0.482242 
0.784169 0.482242 -7.98288 
-9.7485 -0.0347169 0.342111 
-0.0347169 -9.86115 0.133455 
0.342111 0.133455 -8.40425 
-9.68187 -0.0296011 0.553921 
-0.0296011 -10.0737 0.117184 
0.553921 0.117184 -8.25831 
-9.87204 -0.030707 0.26383 
-0.030707 -9.9124 -0.00087083 
0.26383 -0.00087083 -9.93833 
-9.85144 -0.00025212 0.250611 
-0.00025212 -9.94382 0.0172319 
0.250611 0.0172319 -9.92751 
-9.84736 0.0489453 0.271875 
0.0489453 -9.97421 -0.0196871 
0.271875 -0.0196871 -9.9012 
-9.86385 0.0180817 0.18976 
0.0180817 -9.92872 -0.0603676 
0.18976 -0.0603676 -9.9302 
-9.84443 -0.00408433 -0.232266 
-0.00408433 -9.87152 -0.0538667 
-0.232266 -0.0538667 -9.95241 
-9.85323 0.0275577 -0.209927 
0.0275577 -9.90326 -0.0318178 
-0.209927 -0.0318178 -9.91187 
-9.87979 -0.00306405 -0.228281 
-0.00306405 -9.90468 -0.0394469 
-0.228281 -0.0394469 -9.88389 
-9.86511 0.0213009 -0.208176 
0.0213009 -9.8918 -0.0565872 
-0.208176 -0.0565872 -9.91146 
-7.50003 -0.488283 -0.600117 
-0.488283 -11.9017 0.504848 
-0.600117 0.504848 -6.08257 
-8.02483 -0.878164 -0.595275 
-0.878164 -9.99114 1.0195 
-0.595275 1.0195 -7.46832 
-8.03568 0.27848 0.0235085 
0.27848 -9.7558 0.984805 
0.0235085 0.984805 -7.69282 
-7.91987 -0.135081 -0.309249 
-0.135081 -11.1346 1.27085 
-0.309249 1.27085 -6.42981 
-9.79025 0.00222302 -0.0059958 
0.00222302 -9.70785 -0.217354 
-0.0059958 -0.217354 -9.84314 
-9.80561 0.00383832 -0.0145937 
0.00383832 -9.70805 -0.231318 
-0.0145937 -0.231318 -9.82758 
-9.83201 0.032562 -0.0353339 
0.032562 -9.70045 -0.227914 
-0.0353339 -0.227914 -9.80878 
-9.81751 -0.00704979 -0.000431465 
-0.00704979 -9.70325 -0.230591 
-0.000431465 -0.230591 -9.82047 
-7.91229 -0.675562 0.24545 
-0.675562 -10.9985 -0.689303 
0.24545 -0.689303 -11.7433 
-9.24871 -0.831395 0.159143 
-0.831395 -11.4216 -0.0366869 
0.159143 -0.0366869 -9.98384 
-10.0018 0.37796 -0.796121 
0.37796 -9.38143 -0.370606 
-0.796121 -0.370606 -11.2709 
-10.596 -0.821148 0.191881 
-0.821148 -9.78198 0.422862 
0.191881 0.422862 -10.2761 
-10.5369 -0.0101685 -2.74661 
-0.0101685 -8.60261 -1.1825 
-2.74661 -1.1825 -6.6161 
-13.436 -1.06686 -0.0178699 
-1.06686 -5.98325 -0.157186 
-0.0178699 -0.157186 -6.33637 
-8.03091 -1.65907 -1.92014 
-1.65907 -8.08725 0.387849 
-1.92014 0.387849 -9.6375 
-10.6256 0.738669 -0.871054 
0.738669 -10.0885 -0.504754 
-0.871054 -0.504754 -5.04155 
-9.42644 -0.0399293 0.435122 
-0.0399293 -9.8547 -0.0335427 
0.435122 -0.0335427 -9.1925 
-9.50541 -0.0290706 0.476444 
-0.0290706 -10.0032 -0.128421 
0.476444 -0.128421 -8.96501 
-9.40797 -0.0147234 0.385979 
-0.0147234 -9.89836 -0.0447556 
0.385979 -0.0447556 -9.16732 
-9.35271 -0.274295 0.242821 
-0.274295 -9.67864 -0.374843 
0.242821 -0.374843 -9.44229 
-9.95946 0.00157941 0.084229 
0.00157941 -9.90255 0.244929 
0.084229 0.244929 -9.91208 
-9.94052 0.0190111 0.0764146 
0.0190111 -9.88707 0.239716 
0.0764146 0.239716 -9.94649 
-9.91139 0.00263777 0.0487499 
0.00263777 -9.89132 0.205911 
0.0487499 0.205911 -9.97138 
-9.92934 0.00616736 0.0707963 
0.00616736 -9.89651 0.233759 
0.0707963 0.233759 -9.94823 
-7.54246 -0.578588 -0.525557 
-0.578588 -6.66505 0.0359727 
-0.525557 0.0359727 -1.30897 
-8.08877 -0.246677 -0.859983 
-0.246677 -6.17635 -0.107906 
-0.859983 -0.107906 -1.25137 
-9.35095 0.761443 0.648136 
0.761443 -5.6036 -0.149521 
0.648136 -0.149521 -0.561933 
-9.48269 0.18407 -1.20119 
0.18407 -4.46863 -1.23132 
-1.20119 -1.23132 -1.56517 
-5.68992 1.69396 -0.27564 
1.69396 -6.60692 -0.566315 
-0.27564 -0.566315 -3.36331 
-9.36477 -5.45184 -1.08054 
-5.45184 -7.54872 -1.9745 
-1.08054 -1.9745 1.25334 
-5.8006 -0.917582 -2.35451 
-0.917582 -6.86848 -2.87059 
-2.35451 -2.87059 -2.99108 
-7.51505 -0.512528 -3.07117 
-0.512528 -5.13428 -1.69233 
-3.07117 -1.69233 -3.01082 
-9.92319 -0.0358417 -0.110665 
-0.0358417 -10.0201 -0.00859557 
-0.110665 -0.00859557 -10.2636 
-10.0976 -0.144349 -0.0209017 
-0.144349 -9.77431 0.0498761 
-0.0209017 0.0498761 -10.335 
-10.0998 -0.175589 0.074374 
-0.175589 -9.74298 0.00779051 
0.074374 0.00779051 -10.3641 
-9.86175 -0.127916 -0.106804 
-0.127916 -10.0107 0.00158394 
-0.106804 0.00158394 -10.3345 
-9.43382 0.105519 0.17201 
0.105519 -9.41614 -0.000990874 
0.17201 -0.000990874 -9.33152 
-9.89141 -0.0125035 -0.348328 
-0.0125035 -9.93444 0.320575 
-0.348328 0.320575 -8.35564 
-10.1112 0.0718305 -0.0538128 
0.0718305 -10.0579 0.365608 
-0.0538128 0.365608 -8.01239 
-9.96927 0.0546064 -0.522717 
0.0546064 -9.79915 0.496941 
-0.522717 0.496941 -8.41307 
-9.76186 -0.155612 -0.10826 
-0.155612 -9.81216 0.112687 
-0.10826 0.112687 -10.0599 
-9.91557 -0.0307243 -0.0774998 
-0.0307243 -9.71632 0.129102 
-0.0774998 0.129102 -10.002 
-9.77657 -0.0534284 -0.110867 
-0.0534284 -9.85505 0.0568329 
-0.110867 0.0568329 -10.0023 
-9.92582 -0.0277007 -0.0356187 
-0.0277007 -9.66108 0.0692281 
-0.0356187 0.0692281 -10.047 
-11.0515 -0.813564 -0.595281 
-0.813564 -12.6068 0.138096 
-0.595281 0.138096 -12.6862 
-12.9288 -0.363551 -0.525265 
-0.363551 -12.304 -0.496067 
-0.525265 -0.496067 -11.1116 
-11.9054 -0.911166 -0.515544 
-0.911166 -11.643 0.357098 
-0.515544 0.357098 -12.796 
-12.5469 -1.5089 0.393397 
-1.5089 -11.8224 0.11175 
0.393397 0.11175 -11.9752 
-9.09037 0.780944 -0.252438 
0.780944 -10.0587 0.358272 
-0.252438 0.358272 -7.01853 
-8.84087 -0.644323 -0.805878 
-0.644323 -9.1072 -0.510683 
-0.805878 -0.510683 -8.21951 
-9.7763 0.691518 0.139315 
0.691518 -9.13755 -0.690257 
0.139315 -0.690257 -7.25373 
-10.0156 -0.607085 -1.09415 
-0.607085 -10.3753 0.326895 
-1.09415 0.326895 -5.77671 
-9.80148 0.00533952 -0.0805826 
0.00533952 -9.72918 -0.111435 
-0.0805826 -0.111435 -9.95214 
-9.70037 0.115191 -0.17183 
0.115191 -9.76309 -0.122231 
-0.17183 -0.122231 -10.0193 
-9.77564 0.0515502 -0.171737 
0.0515502 -9.83926 -0.125472 
-0.171737 -0.125472 -9.8679 
-9.75753 -0.00084 -0.132262 
-0.00084 -9.82339 -0.14463 
-0.132262 -0.14463 -9.90188 
-9.96182 0.00449668 0.0954537 
0.00449668 -9.92275 -0.243304 
0.0954537 -0.243304 -9.98414 
-9.94989 -0.0225111 0.0834995 
-0.0225111 -9.9478 -0.209171 
0.0834995 -0.209171 -9.97102 
-9.92034 -0.0201335 0.0960989 
-0.0201335 -9.96001 -0.192235 
0.0960989 -0.192235 -9.98836 
-9.97742 -0.017481 0.106937 
-0.017481 -9.92369 -0.234945 
0.106937 -0.234945 -9.9676 
-9.90256 0.0784368 0.0960136 
0.0784368 -9.79269 -0.11052 
0.0960136 -0.11052 -9.81379 
-9.66919 -0.121131 -0.0227759 
-0.121131 -9.83964 -0.00207134 
-0.0227759 -0.00207134 -10.0002 
-9.91917 0.0195248 0.0915353 
0.0195248 -9.79709 -0.0743868 
0.0915353 -0.0743868 -9.79278 
-9.72389 -0.126962 0.210291 
-0.126962 -9.73109 0.000573454 
0.210291 0.000573454 -10.0541 
-9.91329 -0.00227666 0.0641964 
-0.00227666 -9.97653 0.0555912 
0.0641964 0.0555912 -10.0097 
-9.89486 -0.0228164 -0.0291511 
-0.0228164 -9.99695 -0.0739663 
-0.0291511 -0.0739663 -10.0077 
-9.92997 0.0278848 0.0136464 
0.0278848 -9.93303 -0.0216639 
0.0136464 -0.0216639 -10.0365 
-9.89492 0.0585768 0.0528621 
0.0585768 -9.92508 -0.0181008 
0.0528621 -0.0181008 -10.0795 
-9.77196 0.0791213 -0.170679 
0.0791213 -9.76714 -0.168497 
-0.170679 -0.168497 -10.0916 
-9.77442 0.0710804 -0.168872 
0.0710804 -9.77275 -0.170601 
-0.168872 -0.170601 -10.0836 
-9.75218 0.0771734 -0.170859 
0.0771734 -9.78414 -0.191353 
-0.170859 -0.191353 -10.0944 
-9.78489 0.0845414 -0.17504 
0.0845414 -9.78633 -0.15577 
-0.17504 -0.15577 -10.0595 
-9.75818 -0.0136819 -0.289856 
-0.0136819 -9.90377 -0.101205 
-0.289856 -0.101205 -9.75218 
-9.74748 0.144157 -0.259067 
0.144157 -9.75306 0.0421164 
-0.259067 0.0421164 -9.91359 
-9.74535 0.00670219 -0.337707 
0.00670219 -9.88828 -0.206232 
-0.337707 -0.206232 -9.7805 
-9.80576 -0.034197 -0.329679 
-0.034197 -10.0207 -0.0653309 
-0.329679 -0.0653309 -9.58765 
-9.81916 0.0732078 0.172008 
0.0732078 -9.80383 0.177015 
0.172008 0.177015 -9.9633 
-9.83922 0.0123174 0.176575 
0.0123174 -9.82232 0.175274 
0.176575 0.175274 -9.92475 
-9.81898 0.0228071 0.146844 
0.0228071 -9.81591 0.129058 
0.146844 0.129058 -9.9514 
-9.82439 0.0301763 0.172676 
0.0301763 -9.83327 0.173267 
0.172676 0.173267 -9.92862 
-9.80335 0.0015141 -0.0551064 
0.0015141 -9.66406 -0.260601 
-0.0551064 -0.260601 -9.83036 
-9.83519 0.0335413 -0.115117 
0.0335413 -9.62184 -0.238016 
-0.115117 -0.238016 -9.84073 
-9.82833 0.0368992 -0.023943 
0.0368992 -9.62808 -0.206103 
-0.023943 -0.206103 -9.84136 
-9.85901 0.0833888 -0.0723431 
0.0833888 -9.59095 -0.280472 
-0.0723431 -0.280472 -9.84782 
-9.73035 -0.461485 -0.295801 
-0.461485 -10.7333 -1.18389 
-0.295801 -1.18389 -10.6974 
-10.3667 -0.249084 0.352603 
-0.249084 -9.99812 -0.818802 
0.352603 -0.818802 -10.7963 
-10.075 -0.328232 0.0470657 
-0.328232 -9.68228 -0.592582 
0.0470657 -0.592582 -11.4038 
-11.0704 -0.988267 -0.710143 
-0.988267 -9.31895 0.511658 
-0.710143 0.511658 -10.7717 
-8.98593 -0.114442 -0.165627 
-0.114442 -10.897 -0.179431 
-0.165627 -0.179431 -10.8452 
-9.71836 0.218827 0.327916 
0.218827 -10.4848 0.0836163 
0.327916 0.0836163 -10.5249 
-10.5146 0.202765 -0.0591034 
0.202765 -9.94563 -0.197993 
-0.0591034 -0.197993 -10.2678 
-9.92111 0.107144 0.364137 
0.107144 -10.1044 -0.0603874 
0.364137 -0.0603874 -10.7026 
-9.9325 0.0161275 -0.226787 
0.0161275 -9.95289 -0.106181 
-0.226787 -0.106181 -9.97192 
-9.95352 0.0273553 -0.218223 
0.0273553 -9.9545 -0.094567 
-0.218223 -0.094567 -9.94929 
-9.92814 -0.00509097 -0.218172 
-0.00509097 -9.96429 -0.0897849 
-0.218172 -0.0897849 -9.96487 
-9.92486 -0.00364585 -0.208023 
-0.00364585 -9.95577 -0.0954319 
-0.208023 -0.0954319 -9.97668 
-9.5047 0.0125395 -0.431476 
0.0125395 -9.98288 -0.0199916 
-0.431476 -0.0199916 -9.27334 
-9.46848 0.0512536 -0.495561 
0.0512536 -10.2515 0.0201832 
-0.495561 0.0201832 -9.04094 
-9.57252 0.221212 -0.486164 
0.221212 -9.79068 -0.276021 
-0.486164 -0.276021 -9.39771 
-9.46691 -0.0718285 -0.217452 
-0.0718285 -9.96444 0.178941 
-0.217452 0.178941 -9.32956 
-9.84685 0.036136 0.197105 
0.036136 -9.85444 0.0892715 
0.197105 0.0892715 -9.8974 
-9.80677 0.0458097 0.191818 
0.0458097 -9.89095 0.130736 
0.191818 0.130736 -9.90097 
-9.83103 0.0242981 0.20054 
0.0242981 -9.85925 0.1034 
0.20054 0.1034 -9.90842 
-9.79818 -0.0298534 0.259412 
-0.0298534 -9.87281 0.0847661 
0.259412 0.0847661 -9.92771 
-9.90985 -0.00284003 -0.255257 
-0.00284003 -9.89716 -0.0392192 
-0.255257 -0.0392192 -9.95284 
-9.86771 0.0212708 -0.239323 
0.0212708 -9.94306 -0.047046 
-0.239323 -0.047046 -9.94909 
-9.89337 0.00266158 -0.203623 
0.00266158 -9.93122 -0.0324456 
-0.203623 -0.0324456 -9.93527 
-9.88307 0.00772016 -0.235597 
0.00772016 -9.91782 -0.0596623 
-0.235597 -0.0596623 -9.95897 
-7.68696 -0.696297 -0.60372 
-0.696297 -10.5732 1.91725 
-0.60372 1.91725 -3.12524 
-6.3478 -1.01355 0.734396 
-1.01355 -10.8379 4.37745 
0.734396 4.37745 -4.19974 
-7.10208 1.58509 -0.383901 
1.58509 -9.42033 2.59691 
-0.383901 2.59691 -4.86302 
-8.57665 -0.696898 0.469632 
-0.696898 -9.0469 3.40789 
0.469632 3.40789 -3.76187 
-9.8586 -0.0254121 -0.210191 
-0.0254121 -9.91405 -0.180739 
-0.210191 -0.180739 -9.94429 
-9.89775 0.0568565 -0.127598 
0.0568565 -9.89873 -0.0786461 
-0.127598 -0.0786461 -9.92045 
-9.86586 0.0427608 -0.170862 
0.0427608 -9.88287 -0.159909 
-0.170862 -0.159909 -9.96821 
-9.88429 0.0382594 -0.172209 
0.0382594 -9.87567 -0.157723 
-0.172209 -0.157723 -9.95697 
-9.62094 0.514136 -0.642747 
0.514136 -9.83799 -1.96072 
-0.642747 -1.96072 -5.81191 
-9.19275 0.114309 -0.733172 
0.114309 -10.077 -1.24964 
-0.733172 -1.24964 -6.00112 
-8.62272 0.555677 0.218501 
0.555677 -10.2424 -0.586559 
0.218501 -0.586559 -6.40569 
-9.56566 -0.12094 -1.15827 
-0.12094 -10.1204 -1.16832 
-1.15827 -1.16832 -5.58477 
-9.86868 0.0175557 0.0863875 
0.0175557 -9.85889 0.0238966 
0.0863875 0.0238966 -9.71107 
-9.87414 -0.0167177 -0.0119709 
-0.0167177 -9.88916 0.10008 
-0.0119709 0.10008 -9.67534 
-10.0362 -0.00288977 0.0217771 
-0.00288977 -9.97348 0.106115 
0.0217771 0.106115 -9.42891 
-9.90048 -0.0182726 0.0111425 
-0.0182726 -9.88458 0.109239 
0.0111425 0.109239 -9.65357 
-9.95553 0.123584 -0.213827 
0.123584 -9.81299 0.127062 
-0.213827 0.127062 -9.99831 
-9.924 -0.0122278 -0.174253 
-0.0122278 -9.99767 0.107118 
-0.174253 0.107118 -9.84516 
-9.93005 -0.0622366 -0.152864 
-0.0622366 -9.96876 0.176693 
-0.152864 0.176693 -9.86802 
-9.99577 0.0321625 -0.146438 
0.0321625 -9.97576 0.0899539 
-0.146438 0.0899539 -9.79529 
-9.84172 0.0421352 0.122603 
0.0421352 -9.79987 0.108683 
0.122603 0.108683 -9.89294 
-9.78277 0.0431583 0.13445 
0.0431583 -9.78905 0.175048 
0.13445 0.175048 -9.96271 
-9.82009 0.0192018 0.129276 
0.0192018 -9.79403 0.121795 
0.129276 0.121795 -9.92041 
-9.81806 0.0285042 0.196902 
0.0285042 -9.82459 0.14819 
0.196902 0.14819 -9.89189 
-9.70408 -0.150978 0.137113 
-0.150978 -9.78207 -0.176818 
0.137113 -0.176818 -10.1402 
-9.72596 -0.138874 0.174226 
-0.138874 -9.79192 -0.188929 
0.174226 -0.188929 -10.1085 
-9.82442 -0.0256652 0.161257 
-0.0256652 -9.71577 -0.11617 
0.161257 -0.11617 -10.0862 
-9.80429 -0.182961 0.180206 
-0.182961 -9.6826 -0.245066 
0.180206 -0.245066 -10.1394 
-9.93242 0.0171584 -0.168536 
0.0171584 -9.92755 -0.172425 
-0.168536 -0.172425 -9.97143 
-9.92583 -0.00648446 -0.145696 
-0.00648446 -9.93788 -0.138369 
-0.145696 -0.138369 -9.96769 
-9.92766 0.000254233 -0.178 
0.000254233 -9.92892 -0.182723 
-0.178 -0.182723 -9.97481 
-9.93126 0.0261831 -0.171631 
0.0261831 -9.91918 -0.167536 
-0.171631 -0.167536 -9.98095 
-9.8642 -0.00714045 -0.216794 
-0.00714045 -9.91075 0.124517 
-0.216794 0.124517 -9.8714 
-9.8647 -0.0258004 -0.2375 
-0.0258004 -9.89807 0.141348 
-0.2375 0.141348 -9.88358 
-9.85581 -0.043416 -0.2361 
-0.043416 -9.90549 0.134916 
-0.2361 0.134916 -9.88505 
-9.88851 -0.0343006 -0.30036 
-0.0343006 -9.92791 0.168766 
-0.30036 0.168766 -9.82994 
-9.8017 0.0430061 -0.29792 
0.0430061 -9.92168 -0.088515 
-0.29792 -0.088515 -9.83038 
-9.76909 0.0143647 -0.265636 
0.0143647 -9.88698 -0.00980251 
-0.265636 -0.00980251 -9.89768 
-9.80438 -0.0189399 -0.266121 
-0.0189399 -9.87005 -0.0139827 
-0.266121 -0.0139827 -9.87932 
-9.74378 -0.0105908 -0.284164 
-0.0105908 -9.9974 -0.0312219 
-0.284164 -0.0312219 -9.81257 
-9.90344 -0.0748187 0.0315683 
-0.0748187 -9.96415 0.069969 
0.0315683 0.069969 -9.93599 
-9.93824 -0.0297246 0.0326104 
-0.0297246 -9.93789 0.0455938 
0.0326104 0.0455938 -9.92745 
-9.8276 0.156071 -0.00783254 
0.156071 -9.8924 -0.0300973 
-0.00783254 -0.0300973 -10.0836 
-9.92088 0.0733473 0.188901 
0.0733473 -9.80059 0.0493979 
0.188901 0.0493979 -10.0821 
-9.1036 0.329726 0.234522 
0.329726 -10.2075 0.101681 
0.234522 0.101681 -10.301 
-8.94642 0.0858288 0.846339 
0.0858288 -10.0467 0.172035 
0.846339 0.172035 -10.6191 
-9.19302 0.151187 0.466443 
0.151187 -10.2336 0.120809 
0.466443 0.120809 -10.1855 
-9.66706 0.158828 0.327262 
0.158828 -10.2562 -0.00347516 
0.327262 -0.00347516 -9.68889 
-9.91132 0.00323084 -0.0174209 
0.00323084 -9.94993 -0.0452592 
-0.0174209 -0.0452592 -10.022 
-9.95472 0.00945913 -0.0580367 
0.00945913 -9.95264 -0.0697699 
-0.0580367 -0.0697699 -9.97586 
-9.91909 0.0420963 0.0794907 
0.0420963 -9.96239 0.023243 
0.0794907 0.023243 -10.0017 
-9.86267 0.0308415 -0.025117 
0.0308415 -9.94291 -0.0154938 
-0.025117 -0.0154938 -10.0776 
-9.65228 0.076018 -0.319368 
0.076018 -9.85715 -0.17128 
-0.319368 -0.17128 -9.74213 
-9.65696 0.0716951 -0.304923 
0.0716951 -9.86505 -0.146839 
-0.304923 -0.146839 -9.72955 
-9.64274 0.0634127 -0.348906 
0.0634127 -9.92226 -0.207085 
-0.348906 -0.207085 -9.68655 
-9.64922 0.0756682 -0.331763 
0.0756682 -9.87037 -0.172734 
-0.331763 -0.172734 -9.73196 
-10.0149 -0.0216803 -0.00441619 
-0.0216803 -9.95102 -0.212511 
-0.00441619 -0.212511 -10.0031 
-9.99193 0.0142914 0.00762792 
0.0142914 -9.97027 -0.221414 
0.00762792 -0.221414 -10.0068 
-9.99341 0.00267791 0.0048691 
0.00267791 -10.0062 -0.244875 
0.0048691 -0.244875 -9.96939 
-10.0029 0.0102555 0.00825208 
0.0102555 -9.96231 -0.239682 
0.00825208 -0.239682 -10.0038 
-9.79845 -0.00840979 0.0247054 
-0.00840979 -9.69185 -0.173996 
0.0247054 -0.173996 -9.85778 
-9.81825 -0.054082 0.00855848 
-0.054082 -9.69932 -0.232551 
0.00855848 -0.232551 -9.83052 
-9.82971 -0.020984 0.0328428 
-0.020984 -9.68702 -0.184858 
0.0328428 -0.184858 -9.83135 
-9.81331 -0.0480798 0.0624555 
-0.0480798 -9.72469 -0.211883 
0.0624555 -0.211883 -9.81009 
-9.88316 0.0171102 0.154634 
0.0171102 -9.87722 0.302029 
0.154634 0.302029 -9.88617 
-9.82822 -0.031082 0.0828697 
-0.031082 -9.79202 0.200824 
0.0828697 0.200824 -10.0263 
-9.90503 0.0272553 0.0772663 
0.0272553 -9.84668 0.239091 
0.0772663 0.239091 -9.89484 
-9.95077 0.0415018 0.0586193 
0.0415018 -9.78627 0.230394 
0.0586193 0.230394 -9.90952 
-10.3585 0.0396189 0.0686857 
0.0396189 -10.0614 -0.0934525 
0.0686857 -0.0934525 -10.4532 
-10.2217 0.00473472 -0.0612582 
0.00473472 -10.2236 -0.0859934 
-0.0612582 -0.0859934 -10.4278 
-10.2816 -0.00523421 -0.108508 
-0.00523421 -10.2041 -0.0697757 
-0.108508 -0.0697757 -10.3874 
-10.3281 0.126797 -0.0515187 
0.126797 -10.1715 -0.23186 
-0.0515187 -0.23186 -10.3735 
-8.79329 -0.0369129 1.80837 
-0.0369129 -11.2354 -0.0273823 
1.80837 -0.0273823 -19.7538 
-13.5504 -1.22225 1.01876 
-1.22225 -16.5642 -1.10769 
1.01876 -1.10769 -9.66797 
-9.61619 0.398651 1.05004 
0.398651 -14.343 0.368073 
1.05004 0.368073 -15.8233 
-10.7739 -0.179683 -1.38577 
-0.179683 -13.8423 1.05283 
-1.38577 1.05283 -15.1663 
-9.88645 0.0511998 -0.03928 
0.0511998 -9.93178 0.246378 
-0.03928 0.246378 -9.4061 
-9.76998 0.129237 -0.0663636 
0.129237 -9.95964 0.263312 
-0.0663636 0.263312 -9.49471 
-9.98164 -0.0645433 -0.124153 
-0.0645433 -9.83808 0.20914 
-0.124153 0.20914 -9.40461 
-9.92834 -0.0164599 -0.0349631 
-0.0164599 -9.86813 0.238423 
-0.0349631 0.238423 -9.42786 
-9.9251 0.0201443 0.244194 
0.0201443 -9.90325 0.10509 
0.244194 0.10509 -9.98006 
-9.93441 0.022903 0.187888 
0.022903 -9.93359 0.112674 
0.187888 0.112674 -9.94041 
-9.93048 0.0210933 0.197889 
0.0210933 -9.9131 0.108914 
0.197889 0.108914 -9.96483 
-9.91316 0.00482691 0.2359 
0.00482691 -9.94186 0.115228 
0.2359 0.115228 -9.95339 
-9.98023 0.0055259 -0.0438443 
0.0055259 -9.70467 -0.37271 
-0.0438443 -0.37271 -9.79694 
-9.93221 0.0409383 -0.114185 
0.0409383 -9.72489 -0.316035 
-0.114185 -0.316035 -9.82473 
-9.86892 -0.00116916 -0.0322938 
-0.00116916 -9.68168 -0.221383 
-0.0322938 -0.221383 -9.93123 
-9.94317 0.0752067 -0.15217 
0.0752067 -9.68532 -0.3136 
-0.15217 -0.3136 -9.85334 
-9.93628 -0.0115722 0.0943688 
-0.0115722 -9.93647 -0.249343 
0.0943688 -0.249343 -9.95061 
-9.99365 0.00416778 0.102392 
0.00416778 -9.86602 -0.28505 
0.102392 -0.28505 -9.96369 
-9.93894 0.027092 0.0634909 
0.027092 -9.92456 -0.210659 
0.0634909 -0.210659 -9.95986 
-9.9262 -0.0236614 0.0958284 
-0.0236614 -9.94425 -0.237182 
0.0958284 -0.237182 -9.95291 
-9.94378 -0.00207381 0.00662671 
-0.00207381 -9.95322 0.00861468 
0.00662671 0.00861468 -9.80115 
-10.0341 0.0960036 -0.00582298 
0.0960036 -9.93954 0.0538208 
-0.00582298 0.0538208 -9.72455 
-9.92605 0.0203876 0.0233909 
0.0203876 -9.94143 -0.0184658 
0.0233909 -0.0184658 -9.83066 
-9.92947 -0.0211557 -0.017475 
-0.0211557 -9.95598 0.0158531 
-0.017475 0.0158531 -9.81269 
-10.3122 -0.449506 1.03944 
-0.449506 -9.31631 -0.305651 
1.03944 -0.305651 -10.0046 
-9.30307 -0.750904 0.77317 
-0.750904 -9.66533 -0.120372 
0.77317 -0.120372 -10.6647 
-9.21658 -0.00612293 0.904523 
-0.00612293 -9.66414 -0.0122221 
0.904523 -0.0122221 -10.7524 
-9.44798 0.158137 0.785543 
0.158137 -10.0863 0.303529 
0.785543 0.303529 -10.0988 
-9.76415 0.0406975 0.217107 
0.0406975 -9.82959 0.0594578 
0.217107 0.0594578 -9.84258 
-9.75236 0.0169664 0.234434 
0.0169664 -9.81586 0.0526264 
0.234434 0.0526264 -9.8681 
-9.79351 0.000975172 0.224407 
0.000975172 -9.76639 0.0169008 
0.224407 0.0169008 -9.87643 
-9.76562 0.01747 0.234753 
0.01747 -9.83843 0.0636274 
0.234753 0.0636274 -9.83227 
-9.75491 0.051461 -0.181927 
0.051461 -9.7993 -0.116737 
-0.181927 -0.116737 -9.92524 
-9.71803 0.0467348 -0.185468 
0.0467348 -9.82043 -0.121926 
-0.185468 -0.121926 -9.94099 
-9.75156 0.0525109 -0.167432 
0.0525109 -9.79904 -0.11893 
-0.167432 -0.11893 -9.92886 
-9.77231 0.0636657 -0.186907 
0.0636657 -9.78023 -0.112472 
-0.186907 -0.112472 -9.92691 
-9.71677 0.0827827 0.321332 
0.0827827 -9.94719 0.232669 
0.321332 0.232669 -9.83698 
-9.7369 0.0799942 0.238734 
0.0799942 -9.90325 0.164899 
0.238734 0.164899 -9.86079 
-9.72145 0.0953108 0.339375 
0.0953108 -9.97641 0.160586 
0.339375 0.160586 -9.80307 
-9.75212 0.0914129 0.305986 
0.0914129 -9.94195 0.228492 
0.305986 0.228492 -9.80686 
-9.77456 -0.0420584 0.213543 
-0.0420584 -9.6701 -0.318808 
0.213543 -0.318808 -9.62402 
-9.73934 -0.0644566 0.27568 
-0.0644566 -9.77459 -0.153816 
0.27568 -0.153816 -9.55474 
-9.77293 -0.088447 0.332205 
-0.088447 -9.76589 -0.387961 
0.332205 -0.387961 -9.52986 
-9.79037 -0.052336 0.294453 
-0.052336 -9.67113 -0.320732 
0.294453 -0.320732 -9.60718 
-9.90075 -0.0150481 0.166232 
-0.0150481 -9.89684 -0.142008 
0.166232 -0.142008 -9.90334 
-9.88637 -0.0352192 0.151655 
-0.0352192 -9.87564 -0.141423 
0.151655 -0.141423 -9.93892 
-9.8531 -0.0134915 0.16598 
-0.0134915 -9.85814 -0.172581 
0.16598 -0.172581 -9.98969 
-9.88375 -0.0295081 0.145112 
-0.0295081 -9.88195 -0.148883 
0.145112 -0.148883 -9.93523 
-9.89839 0.0168387 -0.14934 
0.0168387 -9.85236 -0.235881 
-0.14934 -0.235881 -9.85698 
-9.91067 0.0234229 -0.154303 
0.0234229 -9.85191 -0.250083 
-0.154303 -0.250083 -9.84514 
-9.90914 0.041475 -0.155276 
0.041475 -9.86263 -0.237645 
-0.155276 -0.237645 -9.83596 
-9.89532 0.0233866 -0.161293 
0.0233866 -9.85776 -0.246823 
-0.161293 -0.246823 -9.85465 
-9.86102 0.0773767 -0.172765 
0.0773767 -9.73401 -0.257996 
-0.172765 -0.257996 -9.974 
-9.82917 0.073516 -0.151304 
0.073516 -9.79216 -0.200793 
-0.151304 -0.200793 -9.9477 
-9.86208 -0.0217506 -0.105957 
-0.0217506 -9.81739 -0.174708 
-0.105957 -0.174708 -9.88957 
-9.81941 0.080656 -0.147474 
0.080656 -9.78097 -0.190083 
-0.147474 -0.190083 -9.96865 
-9.99068 0.0148096 -0.11853 
0.0148096 -9.98609 0.0904554 
-0.11853 0.0904554 -9.99472 
-9.9633 0.000803605 -0.142667 
0.000803605 -9.93492 0.0827297 
-0.142667 0.0827297 -10.0733 
-10.026 0.00687795 -0.133482 
0.00687795 -10.0447 0.141746 
-0.133482 0.141746 -9.90074 
-9.99036 -0.00561729 -0.133808 
-0.00561729 -10.0632 0.0757807 
-0.133808 0.0757807 -9.91796 
-10.0539 0.0147335 0.00664649 
0.0147335 -9.99261 -0.00136338 
0.00664649 -0.00136338 -10.424 
-10.1238 -0.0796923 0.116445 
-0.0796923 -9.99093 0.028643 
0.116445 0.028643 -10.3558 
-10.0951 0.00532418 -0.0190346 
0.00532418 -10.0532 -0.0116024 
-0.0190346 -0.0116024 -10.3222 
-10.0853 0.0155732 0.0223291 
0.0155732 -10.0491 -0.0118783 
0.0223291 -0.0118783 -10.3361 
-9.85833 0.00312217 0.233246 
0.00312217 -9.9207 0.0397762 
0.233246 0.0397762 -9.85623 
-9.87785 -0.00381094 0.222797 
-0.00381094 -9.96394 0.0569804 
0.222797 0.0569804 -9.79347 
-9.87937 0.0227154 0.225786 
0.0227154 -9.90212 0.0714344 
0.225786 0.0714344 -9.85376 
-9.86282 0.014021 0.254134 
0.014021 -9.96432 0.0549722 
0.254134 0.0549722 -9.80811 
-9.73959 -0.113536 0.333377 
-0.113536 -9.77195 -0.282613 
0.333377 -0.282613 -9.81662 
-9.8523 -0.0846661 0.364637 
-0.0846661 -9.83992 -0.385816 
0.364637 -0.385816 -9.63594 
-9.77553 0.0328468 0.263377 
0.0328468 -9.85643 -0.171186 
0.263377 -0.171186 -9.69621 
-9.76317 -0.0876317 0.302435 
-0.0876317 -9.74668 -0.311871 
0.302435 -0.311871 -9.81831 
-9.91988 0.0158097 -0.198062 
0.0158097 -9.91064 -0.177811 
-0.198062 -0.177811 -9.94616 
-9.91416 0.0299885 -0.12651 
0.0299885 -9.93712 -0.137673 
-0.12651 -0.137673 -9.9254 
-9.89648 -0.00836675 -0.155758 
-0.00836675 -9.91923 -0.146269 
-0.155758 -0.146269 -9.96097 
-9.87789 0.0135738 -0.169007 
0.0135738 -9.91424 -0.161692 
-0.169007 -0.161692 -9.98455 
-10.0695 0.0231045 -0.0761646 
0.0231045 -10.0743 0.00747173 
-0.0761646 0.00747173 -9.98877 
-10.0432 0.0478818 -0.0710258 
0.0478818 -9.99882 0.00077058 
-0.0710258 0.00077058 -10.0905 
-9.87467 -0.008583 0.059561 
-0.008583 -9.87493 -0.00043987 
0.059561 -0.00043987 -10.3829 
-9.84533 0.0159637 -0.258529 
0.0159637 -10.0787 -0.0604249 
-0.258529 -0.0604249 -10.2085 
-9.83158 0.0876166 -0.185881 
0.0876166 -9.72645 -0.245881 
-0.185881 -0.245881 -9.92429 
-9.79261 0.0145769 -0.108605 
0.0145769 -9.80421 -0.218102 
-0.108605 -0.218102 -9.88551 
-9.82187 0.069605 -0.159778 
0.069605 -9.74378 -0.204665 
-0.159778 -0.204665 -9.91667 
-9.79603 0.0760518 -0.151513 
0.0760518 -9.73984 -0.184072 
-0.151513 -0.184072 -9.94645 
-9.9011 -0.000764499 0.226949 
-0.000764499 -9.89846 0.120089 
0.226949 0.120089 -9.95584 
-9.88838 0.0115786 0.21172 
0.0115786 -9.89566 0.111627 
0.21172 0.111627 -9.97137 
-9.89122 0.00534054 0.198592 
0.00534054 -9.92304 0.105314 
0.198592 0.105314 -9.94115 
-9.88218 0.0157419 0.212412 
0.0157419 -9.91899 0.110432 
0.212412 0.110432 -9.95424 
-9.73492 0.0570938 -0.178847 
0.0570938 -9.80852 -0.190685 
-0.178847 -0.190685 -9.96999 
-9.78692 0.06057 -0.149471 
0.06057 -9.76831 -0.155427 
-0.149471 -0.155427 -9.9582 
-9.74011 0.0757261 -0.197295 
0.0757261 -9.82454 -0.202821 
-0.197295 -0.202821 -9.94878 
-9.74386 0.0424685 -0.147598 
0.0424685 -9.79358 -0.121192 
-0.147598 -0.121192 -9.97599 
-9.3091 -0.814603 -1.1064 
-0.814603 -6.96279 -1.47554 
-1.1064 -1.47554 -9.66993 
-10.9409 -0.818228 -2.20852 
-0.818228 -9.1341 -1.09675 
-2.20852 -1.09675 -5.86686 
-8.48815 -0.410036 -1.98935 
-0.410036 -7.71646 -3.09636 
-1.98935 -3.09636 -9.73722 
-9.30063 -1.0268 -1.82325 
-1.0268 -7.15507 -1.51134 
-1.82325 -1.51134 -9.48612 
-9.78944 0.0398891 -0.195696 
0.0398891 -9.84879 -0.0749208 
-0.195696 -0.0749208 -9.87992 
-9.77138 0.0693979 -0.217332 
0.0693979 -9.86824 -0.076195 
-0.217332 -0.076195 -9.87853 
-9.77562 0.00147276 -0.253176 
0.00147276 -9.84124 -0.104103 
-0.253176 -0.104103 -9.90129 
-9.76539 0.00836752 -0.224043 
0.00836752 -9.83328 -0.0864587 
-0.224043 -0.0864587 -9.91948 
-9.7842 0.0332018 -0.167106 
0.0332018 -9.88248 -0.0634929 
-0.167106 -0.0634929 -9.86796 
-9.81998 0.0125699 -0.232681 
0.0125699 -9.84382 -0.0846427 
-0.232681 -0.0846427 -9.87085 
-9.8212 0.000289513 -0.1821 
0.000289513 -9.80884 -0.0305061 
-0.1821 -0.0305061 -9.90462 
-9.80676 0.021917 -0.227075 
0.021917 -9.83767 -0.0567398 
-0.227075 -0.0567398 -9.89022 
-9.70985 0.00339069 0.00730197 
0.00339069 -9.72589 0.0625454 
0.00730197 0.0625454 -10.1072 
-9.92217 -0.00163096 0.100258 
-0.00163096 -9.99031 0.171043 
0.100258 0.171043 -9.63043 
-9.81074 0.0946492 0.107542 
0.0946492 -9.77053 0.160001 
0.107542 0.160001 -9.96163 
-9.77354 0.0358302 0.138129 
0.0358302 -9.77802 0.131778 
0.138129 0.131778 -9.99135 
-9.89431 -0.198043 -0.137413 
-0.198043 -10.1188 0.0315533 
-0.137413 0.0315533 -10.0123 
-9.75851 -0.158192 -0.0437859 
-0.158192 -9.91688 0.00445276 
-0.0437859 0.00445276 -10.3501 
-9.65498 -0.0502283 0.289125 
-0.0502283 -9.93314 -0.273083 
0.289125 -0.273083 -10.4373 
-9.79187 -0.248639 -0.0353729 
-0.248639 -9.89538 0.0562662 
-0.0353729 0.0562662 -10.3382 
-9.75077 0.0826503 0.223553 
0.0826503 -9.85999 0.111885 
0.223553 0.111885 -9.93277 
-9.8724 0.0022978 0.189148 
0.0022978 -9.82639 0.112255 
0.189148 0.112255 -9.84474 
-9.85257 0.00267402 0.192247 
0.00267402 -9.84032 0.099826 
0.192247 0.099826 -9.85063 
-9.81798 0.0157788 0.111177 
0.0157788 -9.80418 0.0780213 
0.111177 0.0780213 -9.92136 
-10.0123 -0.00290131 0.0202884 
-0.00290131 -10.0408 0.0686711 
0.0202884 0.0686711 -9.52058 
-10.0093 -0.0169816 -0.0163673 
-0.0169816 -10.0283 0.0888217 
-0.0163673 0.0888217 -9.53609 
-10.0236 0.0357372 -0.0205425 
0.0357372 -9.97236 0.17749 
-0.0205425 0.17749 -9.57773 
-9.97233 -0.01017 -0.00333261 
-0.01017 -9.95168 0.0858478 
-0.00333261 0.0858478 -9.64963 
-9.86663 0.00961055 -0.177208 
0.00961055 -9.906 -0.138529 
-0.177208 -0.138529 -9.95352 
-9.86966 0.0277638 -0.194761 
0.0277638 -9.88604 -0.147086 
-0.194761 -0.147086 -9.97044 
-9.89416 0.0514033 -0.232477 
0.0514033 -9.87431 -0.201842 
-0.232477 -0.201842 -9.95766 
-9.85906 0.0356916 -0.179621 
0.0356916 -9.87917 -0.125481 
-0.179621 -0.125481 -9.98791 
-9.87637 -0.00971824 0.317877 
-0.00971824 -9.69016 0.146837 
0.317877 0.146837 -8.65367 
-9.93898 0.073094 0.278364 
0.073094 -9.7599 0.0906941 
0.278364 0.0906941 -8.52132 
-9.70738 0.203536 0.315446 
0.203536 -10.1692 0.365735 
0.315446 0.365735 -8.34357 
-10.0628 0.054518 0.421552 
0.054518 -9.85812 -0.182092 
0.421552 -0.182092 -8.29926 
-10.4357 0.0132129 -0.173056 
0.0132129 -9.29249 -0.496905 
-0.173056 -0.496905 -9.51848 
-9.88909 0.271659 -0.324911 
0.271659 -9.57602 -0.347316 
-0.324911 -0.347316 -9.7816 
-9.98782 0.137193 -0.147512 
0.137193 -9.60842 -0.378001 
-0.147512 -0.378001 -9.65046 
-9.75879 0.021933 0.221767 
0.021933 -9.67952 -0.408769 
0.221767 -0.408769 -9.8084 
-9.93459 0.0165114 -0.167047 
0.0165114 -9.9248 -0.189253 
-0.167047 -0.189253 -10.0109 
-9.93954 0.0096449 -0.144583 
0.0096449 -9.9478 -0.189988 
-0.144583 -0.189988 -9.9829 
-9.9639 -0.00759923 -0.141915 
-0.00759923 -9.95232 -0.186391 
-0.141915 -0.186391 -9.95403 
-9.9321 0.0176302 -0.126518 
0.0176302 -9.96265 -0.169151 
-0.126518 -0.169151 -9.97549 
-4.43327 -2.37 -5.19676 
-2.37 -12.9724 7.08402 
-5.19676 7.08402 -3.01431 
-5.52817 0.246159 0.0292724 
0.246159 -10.3228 2.21525 
0.0292724 2.21525 -4.56904 
-3.9777 2.36925 1.33625 
2.36925 -10.8094 0.625432 
1.33625 0.625432 -5.63294 
-7.24278 -0.860394 4.59226 
-0.860394 -7.20623 2.8913 
4.59226 2.8913 -5.971 
-5.05405 0.113191 -1.26238 
0.113191 -11.873 5.64829 
-1.26238 5.64829 -8.50557 
-9.20369 -0.503154 -0.298756 
-0.503154 -7.03252 1.95451 
-0.298756 1.95451 -9.19642 
-9.15523 -0.281747 -0.396209 
-0.281747 -9.23182 0.695782 
-0.396209 0.695782 -7.04558 
-7.94208 -0.226037 0.953461 
-0.226037 -7.92235 2.08707 
0.953461 2.08707 -9.5682 
-9.94063 -0.0127375 -0.0219553 
-0.0127375 -9.83634 -0.252893 
-0.0219553 -0.252893 -9.89303 
-9.93318 -0.00692769 0.0191539 
-0.00692769 -9.84625 -0.253541 
0.0191539 -0.253541 -9.89057 
-9.92848 -0.00189222 0.0135715 
-0.00189222 -9.83899 -0.244855 
0.0135715 -0.244855 -9.90252 
-9.90985 0.0047289 0.030203 
0.0047289 -9.84953 -0.250721 
0.030203 -0.250721 -9.9106 
-1.02831 -1.10125 0.818184 
-1.10125 -2.72837 -2.25665 
0.818184 -2.25665 -11.5932 
-12.3115 -1.90665 0.35091 
-1.90665 -11.1933 3.2093 
0.35091 3.2093 8.15492 
-9.28225 -0.212955 0.96526 
-0.212955 -6.79012 2.94912 
0.96526 2.94912 0.722469 
-5.12943 3.64444 8.39703 
3.64444 -5.22623 5.12775 
8.39703 5.12775 -4.99425 
-8.72371 0.383059 -0.481902 
0.383059 -10.5493 0.928623 
-0.481902 0.928623 -5.40452 
-7.92194 -0.489062 0.2146 
-0.489062 -10.776 0.216544 
0.2146 0.216544 -5.97958 
-7.25739 0.743864 -0.532972 
0.743864 -10.0518 1.82396 
-0.532972 1.82396 -7.36832 
-8.75208 0.406396 -0.217527 
0.406396 -9.85818 1.26494 
-0.217527 1.26494 -6.06729 
-9.8221 0.141691 0.191686 
0.141691 -9.76742 0.166122 
0.191686 0.166122 -10.2607 
-9.71857 0.0555086 0.134992 
0.0555086 -9.81255 0.251009 
0.134992 0.251009 -10.3191 
-9.77816 0.123593 -0.0868582 
0.123593 -9.67429 0.184191 
-0.0868582 0.184191 -10.3977 
-9.91546 0.0430212 0.211558 
0.0430212 -9.78113 0.104131 
0.211558 0.104131 -10.1536 
-9.81478 0.1194 -0.235931 
0.1194 -9.71802 -0.462767 
-0.235931 -0.462767 -7.94289 
-8.89857 -0.0610579 -0.520828 
-0.0610579 -9.79301 -0.0063217 
-0.520828 -0.0063217 -8.7841 
-10.1454 -0.193716 -0.52617 
-0.193716 -9.55631 -0.704653 
-0.52617 -0.704653 -7.77396 
-10.0576 -0.0289091 -0.869501 
-0.0289091 -10.0477 -0.118674 
-0.869501 -0.118674 -7.37039 
-9.84145 -0.000184434 -0.260746 
-0.000184434 -9.91737 0.0708146 
-0.260746 0.0708146 -9.92811 
-9.82764 0.0021136 -0.244993 
0.0021136 -9.92831 0.0559625 
-0.244993 0.0559625 -9.93098 
-9.81617 -0.0253842 -0.248174 
-0.0253842 -9.94158 0.0549187 
-0.248174 0.0549187 -9.92918 
-9.89395 -0.0255837 -0.206421 
-0.0255837 -9.9003 0.0568247 
-0.206421 0.0568247 -9.89268 
-9.75214 -0.0912814 -0.0213769 
-0.0912814 -9.74192 -0.284442 
-0.0213769 -0.284442 -9.92907 
-9.95247 -0.00802069 0.103005 
-0.00802069 -9.71015 -0.278412 
0.103005 -0.278412 -9.76052 
-9.96438 -0.0185249 0.00547537 
-0.0185249 -9.72566 -0.387315 
0.00547537 -0.387315 -9.7331 
-10.0112 -0.0513894 0.172896 
-0.0513894 -9.63259 -0.315354 
0.172896 -0.315354 -9.77936 
-9.7252 0.111427 0.549886 
0.111427 -10.2232 0.000749728 
0.549886 0.000749728 -9.21003 
-9.65125 -0.103451 0.393347 
-0.103451 -10.1586 0.123455 
0.393347 0.123455 -9.34854 
-9.68913 0.0476001 0.481747 
0.0476001 -10.1016 0.141741 
0.481747 0.141741 -9.36761 
-9.94947 0.0612974 0.497861 
0.0612974 -10.087 0.199976 
0.497861 0.199976 -9.12193 
-9.94395 0.0488595 -0.0382985 
0.0488595 -9.95589 -0.00316456 
-0.0382985 -0.00316456 -10.0225 
-9.90955 -0.00973788 -0.0446234 
-0.00973788 -9.96347 -0.0308126 
-0.0446234 -0.0308126 -10.0493 
-9.90135 -0.0354422 0.0394791 
-0.0354422 -9.99806 0.0785976 
0.0394791 0.0785976 -10.0229 
-9.92584 0.0574083 -0.0219794 
0.0574083 -9.93103 -0.00313921 
-0.0219794 -0.00313921 -10.0655 
-9.76179 -0.0748174 -0.255958 
-0.0748174 -10.4901 0.0792511 
-0.255958 0.0792511 -9.34814 
-9.84131 -0.180199 -0.281525 
-0.180199 -9.7976 0.0212029 
-0.281525 0.0212029 -9.96109 
-9.96488 -0.00547471 -0.543404 
-0.00547471 -10.4374 -0.112438 
-0.543404 -0.112438 -9.19768 
-9.48569 -0.296756 -0.144534 
-0.296756 -10.871 0.324907 
-0.144534 0.324907 -9.2433 
-9.84101 -0.0200689 -0.0227205 
-0.0200689 -9.75078 -0.254386 
-0.0227205 -0.254386 -9.93825 
-9.95687 -0.00610838 -0.00632521 
-0.00610838 -9.7496 -0.336271 
-0.00632521 -0.336271 -9.82357 
-10.0129 0.0171459 0.00807803 
0.0171459 -9.61832 -0.293333 
0.00807803 -0.293333 -9.89878 
-10.0137 0.0196585 0.0960445 
0.0196585 -9.63578 -0.295116 
0.0960445 -0.295116 -9.88054 
-9.73396 0.251266 -0.0787535 
0.251266 -10.0315 -0.0676794 
-0.0787535 -0.0676794 -10.7414 
-9.705 0.237593 -0.21855 
0.237593 -9.99541 -0.0915067 
-0.21855 -0.0915067 -10.8065 
-9.86436 0.280969 -0.0781713 
0.280969 -10.1457 -0.0814105 
-0.0781713 -0.0814105 -10.4969 
-9.5874 0.285224 -0.29848 
0.285224 -10.1534 -0.128904 
-0.29848 -0.128904 -10.766 
-9.86282 -0.0621556 0.0283122 
-0.0621556 -9.88022 0.00686361 
0.0283122 0.00686361 -10.1122 
-9.88231 -0.128993 0.104065 
-0.128993 -9.81973 -0.0182628 
0.104065 -0.0182628 -10.1532 
-9.91166 -0.000375903 -0.0249658 
-0.000375903 -9.80556 -0.191089 
-0.0249658 -0.191089 -10.138 
-9.96239 -0.124461 -0.141877 
-0.124461 -9.82531 0.0196852 
-0.141877 0.0196852 -10.0675 
-9.81247 0.101993 -0.0156986 
0.101993 -9.61922 -0.0982166 
-0.0156986 -0.0982166 -9.87606 
-9.7698 0.0740967 -0.0409491 
0.0740967 -9.64124 -0.121392 
-0.0409491 -0.121392 -9.89672 
-9.7526 0.027879 -0.238025 
0.027879 -9.56867 -0.185832 
-0.238025 -0.185832 -9.98649 
-9.81685 0.0204971 0.00735815 
0.0204971 -9.71062 -0.192477 
0.00735815 -0.192477 -9.78028 
-9.77277 -0.028435 -0.0302173 
-0.028435 -9.77106 0.0658061 
-0.0302173 0.0658061 -9.94254 
-9.76387 -0.0394393 -0.0496148 
-0.0394393 -9.77937 0.0617834 
-0.0496148 0.0617834 -9.94313 
-9.70574 -0.035746 -0.0636459 
-0.035746 -9.76329 0.110493 
-0.0636459 0.110493 -10.0173 
-9.79464 -0.0370954 -0.105617 
-0.0370954 -9.82491 0.0832187 
-0.105617 0.0832187 -9.86682 
-9.8932 0.0339539 -0.270292 
0.0339539 -9.97319 -0.13794 
-0.270292 -0.13794 -9.80983 
-9.8952 0.0221815 -0.250323 
0.0221815 -9.95102 -0.109492 
-0.250323 -0.109492 -9.82999 
-9.8357 -0.0261099 -0.268073 
-0.0261099 -10.0446 -0.0855677 
-0.268073 -0.0855677 -9.79593 
-9.88816 0.0405718 -0.252735 
0.0405718 -9.94357 -0.0952566 
-0.252735 -0.0952566 -9.84448 
-9.8707 0.0194313 0.202843 
0.0194313 -9.92296 0.171852 
0.202843 0.171852 -9.95656 
-9.87948 0.0422557 0.217861 
0.0422557 -9.90632 0.146237 
0.217861 0.146237 -9.96442 
-9.87066 0.0263147 0.199303 
0.0263147 -9.90628 0.165564 
0.199303 0.165564 -9.97328 
-9.91225 0.0303938 0.194312 
0.0303938 -9.88923 0.118694 
0.194312 0.118694 -9.94874 
-9.76979 -0.136401 -0.380478 
-0.136401 -9.9558 0.371312 
-0.380478 0.371312 -9.82677 
-9.71965 -0.0331534 -0.340988 
-0.0331534 -9.91715 0.302956 
-0.340988 0.302956 -9.91557 
-9.6657 -0.0437924 -0.396809 
-0.0437924 -9.96619 0.328976 
-0.396809 0.328976 -9.92047 
-9.7868 0.0561808 -0.348681 
0.0561808 -9.8206 0.296639 
-0.348681 0.296639 -9.94497 
-7.48816 0.652518 -0.0968655 
0.652518 -11.1091 -0.896706 
-0.0968655 -0.896706 -6.3102 
-7.49716 0.892525 -0.0320081 
0.892525 -10.893 -0.912079 
-0.0320081 -0.912079 -6.51739 
-7.76799 -0.210351 0.0391271 
-0.210351 -9.45599 -0.715272 
0.0391271 -0.715272 -7.68353 
-7.35219 0.7959 -0.565304 
0.7959 -10.4122 -0.866768 
-0.565304 -0.866768 -7.14313 
-9.85866 -0.0123434 0.182931 
-0.0123434 -9.87425 -0.15271 
0.182931 -0.15271 -9.98578 
-9.85803 -0.0186079 0.159346 
-0.0186079 -9.90738 -0.143642 
0.159346 -0.143642 -9.95328 
-9.90762 -0.00978192 0.158615 
-0.00978192 -9.89084 -0.162701 
0.158615 -0.162701 -9.92023 
-9.86161 -0.00855034 0.174841 
-0.00855034 -9.89996 -0.156433 
0.174841 -0.156433 -9.95712 
-9.79237 0.181551 -0.316499 
0.181551 -9.67284 -0.238132 
-0.316499 -0.238132 -10.059 
-9.75165 -0.0296395 -0.0810948 
-0.0296395 -9.90746 -0.212524 
-0.0810948 -0.212524 -9.86513 
-9.69645 0.0527167 -0.218349 
0.0527167 -9.70129 -0.243917 
-0.218349 -0.243917 -10.1265 
-9.7233 0.212908 -0.350048 
0.212908 -9.99494 -0.309259 
-0.350048 -0.309259 -9.806 
-9.92918 -0.0133499 -0.00738952 
-0.0133499 -9.90966 -0.252615 
-0.00738952 -0.252615 -9.96143 
-9.92871 -0.0203443 0.0289588 
-0.0203443 -9.90897 -0.217311 
0.0289588 -0.217311 -9.96258 
-9.94133 0.00160887 -0.000474092 
0.00160887 -9.91318 -0.256689 
-0.000474092 -0.256689 -9.94576 
-9.94861 7.50447e-06 0.0154571 
7.50447e-06 -9.91159 -0.216559 
0.0154571 -0.216559 -9.94007 
-9.86976 0.0494887 -0.189181 
0.0494887 -9.66963 -0.337258 
-0.189181 -0.337258 -9.34232 
-9.99923 0.00365199 -0.0882889 
0.00365199 -9.59529 -0.365863 
-0.0882889 -0.365863 -9.28719 
-10.0033 -0.0021083 -0.143575 
-0.0021083 -9.67921 -0.34534 
-0.143575 -0.34534 -9.19924 
-10.0195 -0.036767 -0.119574 
-0.036767 -9.60226 -0.385023 
-0.119574 -0.385023 -9.25999 
-9.79436 0.0956419 -0.319999 
0.0956419 -9.66027 -0.275377 
-0.319999 -0.275377 -9.8485 
-9.68854 0.0106746 -0.248458 
0.0106746 -9.82515 -0.231005 
-0.248458 -0.231005 -9.78944 
-9.91234 0.0873387 -0.339453 
0.0873387 -9.62444 -0.388334 
-0.339453 -0.388334 -9.76635 
-9.87335 0.104702 -0.311454 
0.104702 -9.6435 -0.296499 
-0.311454 -0.296499 -9.78628 
-9.82819 0.0111277 -0.0103568 
0.0111277 -9.6218 0.273003 
-0.0103568 0.273003 -9.80792 
-9.79484 0.0497408 -0.00738739 
0.0497408 -9.71214 0.244094 
-0.00738739 0.244094 -9.75092 
-9.80025 -0.0871651 0.00302193 
-0.0871651 -9.61869 0.230033 
0.00302193 0.230033 -9.83896 
-9.81365 0.0135297 -0.0315162 
0.0135297 -9.64576 0.261354 
-0.0315162 0.261354 -9.79849 
-9.97989 0.000228255 -0.20642 
0.000228255 -9.98078 0.116304 
-0.20642 0.116304 -9.98239 
-9.97046 -0.00691523 -0.223176 
-0.00691523 -9.96182 0.126441 
-0.223176 0.126441 -10.0108 
-9.97853 -0.0105965 -0.207321 
-0.0105965 -9.97428 0.120201 
-0.207321 0.120201 -9.99026 
-9.97333 -0.0185162 -0.21141 
-0.0185162 -9.97162 0.112308 
-0.21141 0.112308 -9.99811 
-9.94089 0.0458586 0.0906006 
0.0458586 -9.8294 -0.29621 
0.0906006 -0.29621 -11.7123 
-10.6105 0.123098 -0.223818 
0.123098 -10.7088 0.214879 
-0.223818 0.214879 -10.1633 
-10.5513 -0.0217493 -0.312304 
-0.0217493 -10.6966 0.125791 
-0.312304 0.125791 -10.2347 
-10.2757 -0.521983 -0.739054 
-0.521983 -10.0084 0.647985 
-0.739054 0.647985 -11.1985 
-9.7726 -0.031259 0.147691 
-0.031259 -9.76498 -0.165074 
0.147691 -0.165074 -9.92771 
-9.75398 -0.0410674 0.161818 
-0.0410674 -9.77637 -0.159665 
0.161818 -0.159665 -9.93495 
-9.76191 -0.0452997 0.165825 
-0.0452997 -9.78818 -0.14537 
0.165825 -0.14537 -9.9152 
-9.78323 -0.0449092 0.148805 
-0.0449092 -9.79344 -0.115575 
0.148805 -0.115575 -9.88863 
-9.86411 -0.0219422 0.0723042 
-0.0219422 -9.91151 -0.140972 
0.0723042 -0.140972 -9.9103 
-9.97529 -0.0385618 0.127756 
-0.0385618 -9.94429 -0.2686 
0.127756 -0.2686 -9.76635 
-9.96321 0.00737062 0.125758 
0.00737062 -9.84886 -0.228724 
0.125758 -0.228724 -9.87385 
-9.9193 -0.00335131 0.13978 
-0.00335131 -9.86547 -0.234643 
0.13978 -0.234643 -9.90115 
-9.79134 -0.114604 0.283213 
-0.114604 -9.61973 -0.370146 
0.283213 -0.370146 -9.7783 
-9.85511 0.00980663 0.204227 
0.00980663 -9.73815 -0.149169 
0.204227 -0.149169 -9.59612 
-9.75728 -0.124514 0.288185 
-0.124514 -9.62047 -0.327734 
0.288185 -0.327734 -9.81163 
-9.81505 -0.0763714 0.39676 
-0.0763714 -9.59535 -0.380836 
0.39676 -0.380836 -9.77897 
-11.7949 -3.2014 1.098 
-3.2014 -7.39082 2.76997 
1.098 2.76997 -0.647657 
-5.95203 0.242946 2.21879 
0.242946 -8.875 0.798828 
2.21879 0.798828 -5.00636 
-5.97676 2.83517 -0.803618 
2.83517 -9.48462 0.437407 
-0.803618 0.437407 -4.37201 
-7.22664 -1.59705 2.99984 
-1.59705 -6.37586 -1.30693 
2.99984 -1.30693 -6.23089 
-9.95312 0.08864 -0.0182837 
0.08864 -9.72182 0.292088 
-0.0182837 0.292088 -9.85177 
-9.92582 0.0143483 -0.02414 
0.0143483 -9.68901 0.268648 
-0.02414 0.268648 -9.91188 
-9.95924 -0.0736541 -0.0362969 
-0.0736541 -9.62761 0.319014 
-0.0362969 0.319014 -9.93986 
-9.9221 -0.0297095 0.0143438 
-0.0297095 -9.6938 0.290259 
0.0143438 0.290259 -9.91081 
-9.80156 -0.0511749 0.167417 
-0.0511749 -9.78483 -0.205136 
0.167417 -0.205136 -9.95338 
-9.78799 -0.0663516 0.149515 
-0.0663516 -9.78703 -0.181909 
0.149515 -0.181909 -9.96475 
-9.79649 -0.053381 0.214173 
-0.053381 -9.77947 -0.24234 
0.214173 -0.24234 -9.96381 
-9.82773 -0.0287305 0.156097 
-0.0287305 -9.77731 -0.192333 
0.156097 -0.192333 -9.93473 
-11.0659 -0.272228 -0.205975 
-0.272228 -10.5889 0.488199 
-0.205975 0.488199 -11.5082 
-11.1182 -0.263108 -0.0177681 
-0.263108 -10.75 0.205635 
-0.0177681 0.205635 -11.2947 
-10.8506 0.219176 0.0859355 
0.219176 -11.417 0.294964 
0.0859355 0.294964 -10.8953 
-11.0017 -0.148114 -0.167516 
-0.148114 -10.9063 0.289346 
-0.167516 0.289346 -11.255 
-9.87312 -0.0190434 -0.245066 
-0.0190434 -9.93993 0.0927876 
-0.245066 0.0927876 -9.96849 
-9.86718 -0.0260668 -0.228018 
-0.0260668 -9.93525 0.10628 
-0.228018 0.10628 -9.97912 
-9.87616 -0.0148889 -0.214306 
-0.0148889 -9.93593 0.0831462 
-0.214306 0.0831462 -9.96946 
-9.88494 -0.0356168 -0.204573 
-0.0356168 -9.95845 0.0644452 
-0.204573 0.0644452 -9.93815 
-10.0059 0.0728605 0.0660213 
0.0728605 -9.64641 0.3386 
0.0660213 0.3386 -9.74962 
-9.96687 0.0240544 -0.0484041 
0.0240544 -9.5985 0.315686 
-0.0484041 0.315686 -9.8366 
-10.0599 0.029476 0.0592424 
0.029476 -9.63474 0.318925 
0.0592424 0.318925 -9.70736 
-9.83439 -0.0494134 0.0808308 
-0.0494134 -9.64341 0.324956 
0.0808308 0.324956 -9.92417 
-9.9809 -0.00377105 0.0929174 
-0.00377105 -9.95977 -0.236547 
0.0929174 -0.236547 -9.96899 
-9.92286 0.00150123 0.116579 
0.00150123 -9.95938 -0.208878 
0.116579 -0.208878 -10.0274 
-9.97078 0.00390167 0.09784 
0.00390167 -9.96323 -0.231505 
0.09784 -0.231505 -9.97564 
-9.9947 -0.01721 0.102988 
-0.01721 -9.95403 -0.244036 
0.102988 -0.244036 -9.96092 
-9.47948 -0.166861 -0.380314 
-0.166861 -9.66619 0.536861 
-0.380314 0.536861 -9.89313 
-9.50672 -0.235817 -0.157168 
-0.235817 -9.5811 0.637978 
-0.157168 0.637978 -9.95098 
-9.4466 0.0222465 -0.388929 
0.0222465 -9.55537 0.421353 
-0.388929 0.421353 -10.0368 
-9.6514 -0.257137 -0.337754 
-0.257137 -9.78735 0.398168 
-0.337754 0.398168 -9.60005 
-11.1734 0.134164 0.484178 
0.134164 -11.248 0.227354 
0.484178 0.227354 -10.8742 
-9.12739 0.100299 -1.02146 
0.100299 -9.61032 0.131313 
-1.02146 0.131313 -14.5579 
-11.6168 -0.167734 0.549473 
-0.167734 -11.4991 -0.112879 
0.549473 -0.112879 -10.1797 
-8.54973 -0.0907683 2.58688 
-0.0907683 -11.887 0.416459 
2.58688 0.416459 -12.8589 
-9.16259 0.368323 0.128767 
0.368323 -9.7898 0.27257 
0.128767 0.27257 -9.12913 
-10.1532 -0.0544529 0.056019 
-0.0544529 -9.96948 -0.316076 
0.056019 -0.316076 -7.95885 
-10.0907 0.0432349 0.0117537 
0.0432349 -10.1442 0.357463 
0.0117537 0.357463 -7.84655 
-9.97638 -0.153239 -0.137366 
-0.153239 -10.0101 -0.0627493 
-0.137366 -0.0627493 -8.09507 
-9.91371 0.00516164 0.11979 
0.00516164 -9.92129 0.23356 
0.11979 0.23356 -9.92871 
-9.91244 0.0314381 0.134228 
0.0314381 -9.90294 0.206554 
0.134228 0.206554 -9.94832 
-9.9281 0.0154739 0.136272 
0.0154739 -9.91106 0.220056 
0.136272 0.220056 -9.92454 
-9.94809 0.0239747 0.129776 
0.0239747 -9.88803 0.262808 
0.129776 0.262808 -9.92758 
-9.90439 0.0123074 0.218222 
0.0123074 -9.92108 -0.106717 
0.218222 -0.106717 -9.90193 
-9.87473 -0.0366251 0.229277 
-0.0366251 -9.94723 -0.11863 
0.229277 -0.11863 -9.90543 
-9.87376 -0.0175787 0.257698 
-0.0175787 -9.96105 -0.132195 
0.257698 -0.132195 -9.89259 
-9.86548 -0.0353567 0.188173 
-0.0353567 -9.92457 -0.170666 
0.188173 -0.170666 -9.93735 
-9.87812 -0.247113 -1.89158 
-0.247113 -14.8303 0.428226 
-1.89158 0.428226 -8.88251 
-7.06899 -1.04655 -0.129782 
-1.04655 -10.787 -0.365538 
-0.129782 -0.365538 -15.735 
-3.30935 -3.63591 0.6666 
-3.63591 -10.3507 0.3531 
0.6666 0.3531 -19.9309 
-9.47059 -0.437595 1.51647 
-0.437595 -11.5217 -4.4296 
1.51647 -4.4296 -12.5987 
-9.90484 0.0450957 0.0322004 
0.0450957 -9.65803 0.303436 
0.0322004 0.303436 -9.8737 
-9.96547 0.0393204 0.0822701 
0.0393204 -9.64594 0.306565 
0.0822701 0.306565 -9.82515 
-9.94112 0.075479 0.00920068 
0.075479 -9.68677 0.353641 
0.00920068 0.353641 -9.80869 
-9.93876 0.0116192 0.172967 
0.0116192 -9.75762 0.253033 
0.172967 0.253033 -9.74019 
-9.82186 -0.34955 -0.448865 
-0.34955 -9.9527 0.437983 
-0.448865 0.437983 -9.92725 
-10.3214 -0.11437 -0.599079 
-0.11437 -10.0123 0.579358 
-0.599079 0.579358 -9.36806 
-9.8425 -0.348613 0.00884792 
-0.348613 -9.81394 -0.00147935 
0.00884792 -0.00147935 -10.0454 
-10.203 -0.676359 -1.15033 
-0.676359 -8.97627 0.950089 
-1.15033 0.950089 -10.5226 
-9.9192 0.202549 -0.0368471 
0.202549 -10.1139 0.0689995 
-0.0368471 0.0689995 -10.7017 
-9.97786 0.357809 -0.0649427 
0.357809 -10.1754 0.0231757 
-0.0649427 0.0231757 -10.5817 
-10.0251 0.128336 0.0302446 
0.128336 -10.1423 -0.0493152 
0.0302446 -0.0493152 -10.5675 
-9.90369 0.305346 -0.129794 
0.305346 -10.1806 -0.142349 
-0.129794 -0.142349 -10.6506 
-9.95883 -0.00701871 0.0442167 
-0.00701871 -9.90633 -0.243039 
0.0442167 -0.243039 -9.94728 
-9.96552 0.0042921 0.0303884 
0.0042921 -9.90427 -0.251425 
0.0303884 -0.251425 -9.94266 
-9.94875 0.0151507 0.0303849 
0.0151507 -9.87963 -0.214352 
0.0303849 -0.214352 -9.98406 
-9.96303 -0.00421428 0.0371346 
-0.00421428 -9.89487 -0.227033 
0.0371346 -0.227033 -9.95454 
-9.96392 0.0367109 -0.227722 
0.0367109 -9.91428 -0.145291 
-0.227722 -0.145291 -9.96208 
-9.92782 0.0218459 -0.218883 
0.0218459 -9.98708 -0.154616 
-0.218883 -0.154616 -9.92538 
-9.92344 0.00788343 -0.228619 
0.00788343 -9.96622 -0.127171 
-0.228619 -0.127171 -9.95062 
-9.9533 0.0245765 -0.21169 
0.0245765 -9.9619 -0.148004 
-0.21169 -0.148004 -9.92508 
-9.33964 -0.281664 -0.345536 
-0.281664 -9.63118 0.839623 
-0.345536 0.839623 -9.46374 
-9.15836 -0.207338 -0.343213 
-0.207338 -10.0429 1.22992 
-0.343213 1.22992 -9.23331 
-9.29892 -0.131096 0.0696076 
-0.131096 -9.10848 1.1257 
0.0696076 1.1257 -10.0272 
-9.61751 -0.0701401 -0.503967 
-0.0701401 -9.90462 0.0949379 
-0.503967 0.0949379 -8.91243 
-9.94684 -0.0679923 -0.127824 
-0.0679923 -9.86551 0.121709 
-0.127824 0.121709 -9.89308 
-9.93483 0.0286968 -0.106766 
0.0286968 -9.94934 0.151078 
-0.106766 0.151078 -9.82125 
-9.97126 -0.0245726 -0.0719391 
-0.0245726 -9.9402 0.119889 
-0.0719391 0.119889 -9.79397 
-9.952 -0.00490864 -0.0984335 
-0.00490864 -9.92077 0.125841 
-0.0984335 0.125841 -9.83265 
-9.8289 0.0480505 -0.234355 
0.0480505 -9.88484 -0.17123 
-0.234355 -0.17123 -9.95466 
-9.83779 0.0507431 -0.246483 
0.0507431 -9.9182 -0.194648 
-0.246483 -0.194648 -9.91241 
-9.84143 0.0552925 -0.221635 
0.0552925 -9.87007 -0.180281 
-0.221635 -0.180281 -9.9569 
-9.82759 0.0647276 -0.248648 
0.0647276 -9.86256 -0.183492 
-0.248648 -0.183492 -9.97824 
-9.79481 -0.0818893 0.242234 
-0.0818893 -9.82167 -0.223731 
0.242234 -0.223731 -9.97206 
-9.76465 -0.0809659 0.250861 
-0.0809659 -9.87322 -0.175943 
0.250861 -0.175943 -9.95067 
-9.78257 -0.0530791 0.22088 
-0.0530791 -9.83436 -0.167464 
0.22088 -0.167464 -9.97162 
-9.7725 -0.0657953 0.289048 
-0.0657953 -9.8958 -0.184881 
0.289048 -0.184881 -9.92025 
-9.75155 -0.00453232 -0.0342814 
-0.00453232 -9.75209 -0.0693089 
-0.0342814 -0.0693089 -10.0073 
-9.70438 0.0128778 -0.0882601 
0.0128778 -9.72901 -0.093447 
-0.0882601 -0.093447 -10.0776 
-9.81969 0.101894 0.0277648 
0.101894 -9.78249 -0.0215005 
0.0277648 -0.0215005 -9.9088 
-9.77267 0.038522 -0.0807984 
0.038522 -9.89109 -0.177991 
-0.0807984 -0.177991 -9.84722 
-9.89656 0.0282444 0.162479 
0.0282444 -9.87547 0.201498 
0.162479 0.201498 -9.96324 
-9.90744 0.0318561 0.141342 
0.0318561 -9.87238 0.20586 
0.141342 0.20586 -9.95545 
-9.89825 0.0307761 0.15712 
0.0307761 -9.87916 0.205165 
0.15712 0.205165 -9.95786 
-9.90887 0.0358467 0.136953 
0.0358467 -9.88097 0.226728 
0.136953 0.226728 -9.94543 
-9.96086 0.00254249 0.0304515 
0.00254249 -9.95498 0.241546 
0.0304515 0.241546 -10.0068 
-9.97752 -0.00556858 0.0196324 
-0.00556858 -9.9731 0.227675 
0.0196324 0.227675 -9.97201 
-9.96064 0.000566292 0.0286342 
0.000566292 -9.97461 0.235764 
0.0286342 0.235764 -9.98738 
-9.98109 -0.00628481 0.0274485 
-0.00628481 -9.96847 0.233492 
0.0274485 0.233492 -9.97307 
-9.62745 -0.116769 -0.283949 
-0.116769 -9.67799 0.172 
-0.283949 0.172 -10.4327 
-9.60114 -0.0609408 -0.452114 
-0.0609408 -9.58341 0.214745 
-0.452114 0.214745 -10.5536 
-9.54012 0.00897821 -0.473486 
0.00897821 -9.72515 0.0784226 
-0.473486 0.0784226 -10.4729 
-9.31122 -0.339194 -0.212302 
-0.339194 -9.48534 0.189702 
-0.212302 0.189702 -10.9416 
-9.90867 0.011949 -0.238355 
0.011949 -9.92892 -0.0377112 
-0.238355 -0.0377112 -9.96149 
-9.90314 0.0212375 -0.246916 
0.0212375 -9.97353 -0.0475553 
-0.246916 -0.0475553 -9.92241 
-9.91324 -0.00328582 -0.235094 
-0.00328582 -9.91691 -0.0181563 
-0.235094 -0.0181563 -9.96893 
-9.92738 0.00980038 -0.229512 
0.00980038 -9.9296 -0.0526635 
-0.229512 -0.0526635 -9.94209 
-9.66973 -0.115644 0.33995 
-0.115644 -9.64079 -0.204854 
0.33995 -0.204854 -10.0184 
-9.79009 -0.080861 0.256459 
-0.080861 -9.59837 -0.286732 
0.256459 -0.286732 -9.94044 
-9.44488 -0.0947571 0.314623 
-0.0947571 -9.79559 0.00697238 
0.314623 0.00697238 -10.0884 
-9.7675 -0.200456 0.394409 
-0.200456 -9.5537 -0.282536 
0.394409 -0.282536 -10.0077 
-9.71697 -0.0385627 0.221201 
-0.0385627 -9.89004 -0.0121831 
0.221201 -0.0121831 -9.82671 
-9.75887 -0.00898686 0.213924 
-0.00898686 -9.74678 -0.0299519 
0.213924 -0.0299519 -9.92806 
-9.74302 0.00717012 0.252368 
0.00717012 -9.81115 -0.0210348 
0.252368 -0.0210348 -9.87955 
-9.74396 0.0139166 0.253177 
0.0139166 -9.82488 -0.0199467 
0.253177 -0.0199467 -9.86487 
-9.85501 -0.195742 0.777647 
-0.195742 -9.26821 -0.375161 
0.777647 -0.375161 -9.45921 
-9.30528 -0.306677 1.10173 
-0.306677 -9.3834 -0.284427 
1.10173 -0.284427 -9.89374 
-10.1685 0.335556 1.27257 
0.335556 -9.16603 -0.494003 
1.27257 -0.494003 -9.24794 
-9.88433 -0.393478 0.12392 
-0.393478 -9.71794 0.0592654 
0.12392 0.0592654 -8.98016 
-9.87503 -0.01846 -0.221222 
-0.01846 -9.90919 0.0866451 
-0.221222 0.0866451 -9.86776 
-9.82909 -0.0248145 -0.255299 
-0.0248145 -9.9555 0.100006 
-0.255299 0.100006 -9.86738 
-9.84633 -0.0205688 -0.257147 
-0.0205688 -9.9274 0.0807914 
-0.257147 0.0807914 -9.87824 
-9.87712 -0.0431978 -0.322991 
-0.0431978 -9.96604 0.131898 
-0.322991 0.131898 -9.80881 
-9.83858 0.0336656 -0.0586837 
0.0336656 -9.74782 -0.215729 
-0.0586837 -0.215729 -9.85934 
-9.85154 0.0189323 -0.0464275 
0.0189323 -9.73025 -0.248703 
-0.0464275 -0.248703 -9.86396 
-9.82884 0.0135973 -0.032425 
0.0135973 -9.75842 -0.250903 
-0.032425 -0.250903 -9.85849 
-9.81524 0.0277338 -0.0618724 
0.0277338 -9.76726 -0.254808 
-0.0618724 -0.254808 -9.86324 
-9.6548 0.105396 -0.351406 
0.105396 -9.70798 -0.0807227 
-0.351406 -0.0807227 -10.3237 
-9.70273 0.183648 -0.438203 
0.183648 -9.64812 -0.110184 
-0.438203 -0.110184 -10.3356 
-9.7117 0.13022 -0.244293 
0.13022 -9.759 -0.176628 
-0.244293 -0.176628 -10.2158 
-9.31726 0.149784 -0.246547 
0.149784 -9.65205 -0.165721 
-0.246547 -0.165721 -10.7172 
-9.8934 0.0523312 -0.195368 
0.0523312 -9.89997 -0.17226 
-0.195368 -0.17226 -9.98924 
-9.91465 0.0176492 -0.202844 
0.0176492 -9.93328 -0.215215 
-0.202844 -0.215215 -9.93467 
-9.91238 0.0183915 -0.178601 
0.0183915 -9.90782 -0.16223 
-0.178601 -0.16223 -9.9624 
-9.90501 0.0335526 -0.201558 
0.0335526 -9.90079 -0.160679 
-0.201558 -0.160679 -9.9768 
-9.83481 -0.00845059 0.315319 
-0.00845059 -9.83141 -0.00708803 
0.315319 -0.00708803 -9.36656 
-9.78757 -0.0292986 0.251682 
-0.0292986 -9.88607 0.0799295 
0.251682 0.0799295 -9.35914 
-9.72153 0.0767907 0.143385 
0.0767907 -9.87218 0.140909 
0.143385 0.140909 -9.43908 
-9.75162 -0.0400008 0.400757 
-0.0400008 -9.90776 0.04171 
0.400757 0.04171 -9.37341 
-9.6736 0.104981 0.175391 
0.104981 -9.73072 0.0698178 
0.175391 0.0698178 -9.9314 
-9.74072 0.137492 0.11784 
0.137492 -9.68334 0.136752 
0.11784 0.136752 -9.91166 
-9.64092 0.281004 0.161511 
0.281004 -9.75193 0.191075 
0.161511 0.191075 -9.94287 
-9.75295 0.136958 0.0808014 
0.136958 -9.64139 0.114805 
0.0808014 0.114805 -9.94138 
-9.74338 0.124969 -0.301221 
0.124969 -9.80576 -0.254786 
-0.301221 -0.254786 -9.87478 
-9.8377 -0.000558194 -0.234567 
-0.000558194 -9.73228 -0.244084 
-0.234567 -0.244084 -9.85395 
-9.72976 0.117976 -0.140217 
0.117976 -9.77569 -0.262312 
-0.140217 -0.262312 -9.91848 
-9.7852 0.0692743 -0.258092 
0.0692743 -9.75842 -0.234279 
-0.258092 -0.234279 -9.88031 
-10.0349 -0.0786424 0.0731257 
-0.0786424 -9.84202 -9.30189e-06 
0.0731257 -9.30189e-06 -10.0835 
-9.83925 -0.0970799 -0.0133794 
-0.0970799 -9.95164 0.0100671 
-0.0133794 0.0100671 -10.1695 
-9.98722 -0.0137726 -0.0974616 
-0.0137726 -9.94355 0.0422765 
-0.0974616 0.0422765 -10.0297 
-9.97793 -0.0759572 -0.0108329 
-0.0759572 -9.89146 0.0125197 
-0.0108329 0.0125197 -10.091 
-9.88982 0.0399055 -0.293744 
0.0399055 -9.76465 -0.2668 
-0.293744 -0.2668 -9.79697 
-9.86538 0.0338487 -0.242737 
0.0338487 -9.77111 -0.255046 
-0.242737 -0.255046 -9.81495 
-9.82332 0.0501181 -0.238653 
0.0501181 -9.80619 -0.286152 
-0.238653 -0.286152 -9.82193 
-9.78669 0.0801808 -0.248841 
0.0801808 -9.81905 -0.275406 
-0.248841 -0.275406 -9.8457 
-9.80496 -0.0169895 0.049998 
-0.0169895 -9.7627 -0.420074 
0.049998 -0.420074 -9.62823 
-10.0356 -0.0266767 -0.177009 
-0.0266767 -9.6191 -0.53844 
-0.177009 -0.53844 -9.54123 
-9.82224 0.0127192 -0.17412 
0.0127192 -9.72865 -0.162913 
-0.17412 -0.162913 -9.64501 
-9.92665 -0.0110191 -0.0264866 
-0.0110191 -9.64459 -0.25329 
-0.0264866 -0.25329 -9.62465 
-10.698 0.185429 -0.239578 
0.185429 -10.8415 -0.348051 
-0.239578 -0.348051 -9.89579 
-9.47279 -0.482831 0.338584 
-0.482831 -9.65603 0.775567 
0.338584 0.775567 -12.3064 
-11.0856 -0.0249536 -0.132203 
-0.0249536 -10.547 -0.12357 
-0.132203 -0.12357 -9.80264 
-9.33467 0.306451 -1.42425 
0.306451 -11.7305 0.269845 
-1.42425 0.269845 -10.3701 
-9.83967 -0.0227914 -0.263729 
-0.0227914 -9.91809 0.0285686 
-0.263729 0.0285686 -9.89553 
-9.82026 -0.0140504 -0.264783 
-0.0140504 -9.92824 0.0307355 
-0.264783 0.0307355 -9.90479 
-9.84074 0.0115931 -0.239568 
0.0115931 -9.92108 0.0288354 
-0.239568 0.0288354 -9.89148 
-9.85129 -0.0143254 -0.30219 
-0.0143254 -9.95998 0.0789332 
-0.30219 0.0789332 -9.84202 
-9.82534 -0.0805572 0.509781 
-0.0805572 -9.48229 -0.366079 
0.509781 -0.366079 -9.1344 
-9.7968 -0.00652345 0.39491 
-0.00652345 -9.59899 -0.480122 
0.39491 -0.480122 -9.04625 
-9.86198 -0.069393 0.280253 
-0.069393 -9.6584 -0.2547 
0.280253 -0.2547 -8.92165 
-9.85762 0.145193 0.399776 
0.145193 -9.69462 -0.653535 
0.399776 -0.653535 -8.88979 
-9.91709 -0.055893 -0.186056 
-0.055893 -9.75193 0.354529 
-0.186056 0.354529 -9.156 
-9.91765 0.127564 -0.440744 
0.127564 -9.99371 0.419445 
-0.440744 0.419445 -8.91366 
-9.93016 -0.094768 -0.182072 
-0.094768 -9.87148 0.260927 
-0.182072 0.260927 -9.02337 
-9.98007 -0.0541282 -0.225699 
-0.0541282 -9.7346 0.333976 
-0.225699 0.333976 -9.11034 
-9.9141 0.0414098 0.214278 
0.0414098 -9.95106 0.00981878 
0.214278 0.00981878 -9.91739 
-9.9572 0.00509707 0.185617 
0.00509707 -9.9683 0.0392411 
0.185617 0.0392411 -9.85706 
-9.95844 -0.000699401 0.196756 
-0.000699401 -9.94234 0.0350838 
0.196756 0.0350838 -9.88178 
-9.93982 0.00700855 0.212601 
0.00700855 -9.95746 0.0304141 
0.212601 0.0304141 -9.88528 
-9.93101 -0.000700989 0.173575 
-0.000700989 -9.94016 -0.161175 
0.173575 -0.161175 -9.99116 
-9.92349 -0.0155382 0.188069 
-0.0155382 -9.95082 -0.167831 
0.188069 -0.167831 -9.98801 
-9.92571 -0.0405255 0.183172 
-0.0405255 -9.93833 -0.163798 
0.183172 -0.163798 -9.99828 
-9.92358 0.0105133 0.251771 
0.0105133 -9.94988 -0.21309 
0.251771 -0.21309 -9.98887 
-9.77236 0.0100671 -0.26468 
0.0100671 -9.88346 -0.0772531 
-0.26468 -0.0772531 -9.93697 
-9.82869 0.0258354 -0.170578 
0.0258354 -9.83947 -0.0723557 
-0.170578 -0.0723557 -9.92463 
-9.76141 0.0837092 -0.312762 
0.0837092 -9.92212 -0.12327 
-0.312762 -0.12327 -9.90925 
-9.77367 0.0322805 -0.22336 
0.0322805 -9.8973 -0.0579731 
-0.22336 -0.0579731 -9.92183 
-9.68048 0.071192 0.150402 
0.071192 -9.65001 0.3795 
0.150402 0.3795 -9.28782 
-9.84073 -0.01607 0.238956 
-0.01607 -9.65852 0.458236 
0.238956 0.458236 -9.11906 
-9.73517 0.0213712 0.317872 
0.0213712 -9.59352 0.296359 
0.317872 0.296359 -9.28963 
-9.75171 0.0764739 0.145467 
0.0764739 -9.49472 0.349371 
0.145467 0.349371 -9.37188 
-9.90284 -0.0161347 -0.251489 
-0.0161347 -9.93602 0.0736683 
-0.251489 0.0736683 -9.92553 
-9.89429 -0.00983899 -0.239448 
-0.00983899 -9.94879 0.0661867 
-0.239448 0.0661867 -9.92132 
-9.87914 0.0185672 -0.231116 
0.0185672 -9.94882 0.0576431 
-0.231116 0.0576431 -9.93643 
-9.87968 -0.00112571 -0.270841 
-0.00112571 -9.96762 0.0781475 
-0.270841 0.0781475 -9.91709 
-9.90353 0.0344178 -0.143624 
0.0344178 -9.90122 -0.205002 
-0.143624 -0.205002 -9.96156 
-9.90685 0.000131291 -0.122129 
0.000131291 -9.89983 -0.191318 
-0.122129 -0.191318 -9.95963 
-9.92632 -0.00745251 -0.133358 
-0.00745251 -9.90713 -0.190736 
-0.133358 -0.190736 -9.93286 
-9.9206 0.0395688 -0.131597 
0.0395688 -9.90782 -0.180033 
-0.131597 -0.180033 -9.93789 
-9.75371 -0.104596 -0.0391365 
-0.104596 -9.83665 0.0778119 
-0.0391365 0.0778119 -9.91005 
-9.73088 -0.0529015 -0.132271 
-0.0529015 -9.74034 0.0656743 
-0.132271 0.0656743 -10.0292 
-9.759 -0.0449875 -0.116961 
-0.0449875 -9.78875 0.0912721 
-0.116961 0.0912721 -9.95266 
-9.80699 -0.0180688 -0.166291 
-0.0180688 -9.87078 0.205796 
-0.166291 0.205796 -9.82264 
-9.78087 -0.0287456 0.192403 
-0.0287456 -9.81616 -0.0863012 
0.192403 -0.0863012 -9.8944 
-9.77034 -0.0344741 0.207169 
-0.0344741 -9.81078 -0.0993265 
0.207169 -0.0993265 -9.9103 
-9.77319 -0.0408857 0.170699 
-0.0408857 -9.82907 -0.0897284 
0.170699 -0.0897284 -9.88917 
-9.80361 -0.0387138 0.214651 
-0.0387138 -9.82617 -0.111661 
0.214651 -0.111661 -9.86163 
-9.85555 0.0715367 -0.206801 
0.0715367 -9.76847 -0.270321 
-0.206801 -0.270321 -9.95274 
-9.86716 0.0401982 -0.179308 
0.0401982 -9.7506 -0.229388 
-0.179308 -0.229388 -9.959 
-9.95455 0.0801335 -0.210341 
0.0801335 -9.71094 -0.217707 
-0.210341 -0.217707 -9.91127 
-9.7286 0.102161 -0.236707 
0.102161 -9.75257 -0.27481 
-0.236707 -0.27481 -10.0956 
-9.77033 0.219541 -0.31665 
0.219541 -9.5881 -0.377363 
-0.31665 -0.377363 -9.83382 
-9.99889 0.0877893 0.061052 
0.0877893 -9.58622 -0.252493 
0.061052 -0.252493 -9.60714 
-9.7185 0.158517 -0.244685 
0.158517 -9.57197 -0.233146 
-0.244685 -0.233146 -9.90178 
-9.60568 0.0667782 -0.327438 
0.0667782 -9.65259 -0.308736 
-0.327438 -0.308736 -9.93398 
-9.7946 -0.0144306 0.200935 
-0.0144306 -9.79706 -0.0641018 
0.200935 -0.0641018 -9.91634 
-9.78938 -0.0455588 0.227448 
-0.0455588 -9.82895 -0.0795988 
0.227448 -0.0795988 -9.88967 
-9.77247 -0.0305986 0.212897 
-0.0305986 -9.84692 -0.0779885 
0.212897 -0.0779885 -9.88862 
-9.78876 -0.0282952 0.23018 
-0.0282952 -9.83327 -0.0760773 
0.23018 -0.0760773 -9.88597 
-9.57812 -0.0205003 -0.301585 
-0.0205003 -10.2037 0.202139 
-0.301585 0.202139 -9.35266 
-9.46497 0.0596781 -0.542807 
0.0596781 -10.0046 0.43952 
-0.542807 0.43952 -9.6649 
-9.67107 0.0231928 -0.436869 
0.0231928 -10.0773 0.160433 
-0.436869 0.160433 -9.38612 
-9.69331 -0.064659 -0.266057 
-0.064659 -9.84002 0.10801 
-0.266057 0.10801 -9.60117 
-9.93944 -0.0338836 -0.00280696 
-0.0338836 -9.88152 -0.256961 
-0.00280696 -0.256961 -9.95449 
-9.95441 0.00771665 0.000124971 
0.00771665 -9.87624 -0.244351 
0.000124971 -0.244351 -9.94479 
-9.96735 0.0270495 0.00041267 
0.0270495 -9.87029 -0.249492 
0.00041267 -0.249492 -9.93781 
-9.95985 -0.00429434 0.0182903 
-0.00429434 -9.88023 -0.193293 
0.0182903 -0.193293 -9.93537 
-9.63437 0.120241 0.24674 
0.120241 -9.5492 -0.216973 
0.24674 -0.216973 -8.74847 
-9.71178 -0.0523528 -0.02959 
-0.0523528 -9.3103 -0.470141 
-0.02959 -0.470141 -8.90996 
-9.92157 -0.140038 0.0950738 
-0.140038 -9.32781 -0.425097 
0.0950738 -0.425097 -8.68267 
-9.81742 -0.0441004 0.116031 
-0.0441004 -9.44043 -0.489927 
0.116031 -0.489927 -8.6742 
-9.60518 0.0327475 0.346316 
0.0327475 -9.87284 0.0914913 
0.346316 0.0914913 -9.33757 
-9.65597 0.000812125 0.360012 
0.000812125 -9.9019 0.109451 
0.360012 0.109451 -9.25773 
-9.63881 0.068506 0.422131 
0.068506 -9.77977 0.141664 
0.422131 0.141664 -9.39703 
-9.58545 0.00993021 0.331771 
0.00993021 -9.88116 0.109377 
0.331771 0.109377 -9.34899 
-9.67622 0.100663 -0.0187493 
0.100663 -9.80606 -0.0433863 
-0.0187493 -0.0433863 -10.0047 
-9.85381 -0.0922228 -0.107837 
-0.0922228 -9.81752 -0.107368 
-0.107837 -0.107368 -9.81566 
-9.88086 -0.0233618 -0.0763752 
-0.0233618 -9.81495 -0.114038 
-0.0763752 -0.114038 -9.79118 
-9.78975 0.0798056 -0.18806 
0.0798056 -9.75363 -0.0520144 
-0.18806 -0.0520144 -9.9436 
-9.73611 -0.142275 -0.287818 
-0.142275 -9.68134 0.206036 
-0.287818 0.206036 -10.6511 
-9.8595 -0.114511 -0.248324 
-0.114511 -9.65039 0.510584 
-0.248324 0.510584 -10.5586 
-9.67019 -0.00839435 -0.331193 
-0.00839435 -9.69428 0.461969 
-0.331193 0.461969 -10.7041 
-9.3952 -0.320336 -0.135499 
-0.320336 -9.49578 0.316213 
-0.135499 0.316213 -11.1775 
-9.86519 0.0663411 0.381544 
0.0663411 -10.0353 0.0680053 
0.381544 0.0680053 -9.773 
-9.88988 -0.000136926 0.233401 
-0.000136926 -9.97062 0.0411997 
0.233401 0.0411997 -9.81298 
-9.91472 -0.0137329 0.25727 
-0.0137329 -9.99259 0.0454494 
0.25727 0.0454494 -9.76618 
-9.92879 -0.00613509 0.238379 
-0.00613509 -9.99741 0.0681916 
0.238379 0.0681916 -9.74729 
-9.81197 0.397553 -0.401362 
0.397553 -10.1735 0.101201 
-0.401362 0.101201 -11.3007 
-10.0053 -0.432157 0.266951 
-0.432157 -9.87406 0.216543 
0.266951 0.216543 -11.4068 
-10.5619 -0.781155 -0.310923 
-0.781155 -10.2434 0.42522 
-0.310923 0.42522 -10.4808 
-9.72135 0.288482 0.403607 
0.288482 -10.72 -0.28572 
0.403607 -0.28572 -10.8448 
-9.71876 0.0386031 0.303563 
0.0386031 -9.8605 -0.0340289 
0.303563 -0.0340289 -9.85552 
-9.75705 -0.039159 0.373901 
-0.039159 -10.1127 0.120818 
0.373901 0.120818 -9.56498 
-9.67448 0.0224814 0.122849 
0.0224814 -9.93231 0.0781188 
0.122849 0.0781188 -9.82799 
-9.84333 -0.0321374 0.37104 
-0.0321374 -9.79899 -0.0488264 
0.37104 -0.0488264 -9.79245 
-9.96341 0.000980135 -0.201383 
0.000980135 -9.96826 -0.122208 
-0.201383 -0.122208 -9.9879 
-9.96305 8.67977e-05 -0.19578 
8.67977e-05 -9.96417 -0.120016 
-0.19578 -0.120016 -9.99235 
-9.96575 0.0093803 -0.196387 
0.0093803 -9.9665 -0.118834 
-0.196387 -0.118834 -9.98732 
-9.9689 0.000589415 -0.195386 
0.000589415 -9.97125 -0.126155 
-0.195386 -0.126155 -9.97943 
-9.90248 0.172957 -0.461682 
0.172957 -9.45419 -0.342273 
-0.461682 -0.342273 -9.6773 
-9.93943 0.27444 -0.462146 
0.27444 -9.40954 -0.21371 
-0.462146 -0.21371 -9.685 
-9.50205 0.0811367 -0.473913 
0.0811367 -9.67355 -0.302042 
-0.473913 -0.302042 -9.85837 
-9.85248 0.188165 -0.507449 
0.188165 -9.57168 -0.291952 
-0.507449 -0.291952 -9.6098 
-9.9466 0.0322658 -0.0107892 
0.0322658 -9.84737 0.00529278 
-0.0107892 0.00529278 -9.86308 
-9.91316 -0.0101804 -0.0165257 
-0.0101804 -9.85124 0.0234797 
-0.0165257 0.0234797 -9.89265 
-9.83508 -0.0626271 -0.080916 
-0.0626271 -9.86983 0.0351612 
-0.080916 0.0351612 -9.95214 
-9.84587 -0.0230032 -0.0103547 
-0.0230032 -9.83488 0.00977174 
-0.0103547 0.00977174 -9.9763 
-9.85481 0.195904 0.320482 
0.195904 -9.60947 0.430442 
0.320482 0.430442 -10.1596 
-9.97778 -0.139996 0.110513 
-0.139996 -9.69043 0.142489 
0.110513 0.142489 -9.95566 
-9.97657 0.20979 0.404079 
0.20979 -9.58247 0.547444 
0.404079 0.547444 -10.0648 
-9.62262 0.41753 0.391702 
0.41753 -9.56604 0.15311 
0.391702 0.15311 -10.4352 
-9.4486 0.0721086 0.294981 
0.0721086 -9.65893 0.266342 
0.294981 0.266342 -10.0859 
-9.70871 0.30486 0.640715 
0.30486 -9.19952 0.360297 
0.640715 0.360297 -10.2852 
-9.5007 0.0685492 0.262549 
0.0685492 -9.62607 0.057601 
0.262549 0.057601 -10.0667 
-9.73483 0.126577 0.369284 
0.126577 -9.64135 0.301153 
0.369284 0.301153 -9.81728 
-9.90852 0.0157112 -0.0598757 
0.0157112 -9.89648 -0.063862 
-0.0598757 -0.063862 -9.59996 
-9.87074 0.00537173 -0.0578708 
0.00537173 -9.87299 -0.0526103 
-0.0578708 -0.0526103 -9.66123 
-9.89237 0.00105113 -0.0318048 
0.00105113 -9.87446 -0.0615264 
-0.0318048 -0.0615264 -9.63813 
-9.90447 0.0075293 -0.0370811 
0.0075293 -9.90064 -0.0460316 
-0.0370811 -0.0460316 -9.59986 
-6.70233 -0.116914 0.55427 
-0.116914 -9.88101 -2.18903 
0.55427 -2.18903 -5.93711 
-8.88741 -1.156 -1.03689 
-1.156 -6.36466 -1.89129 
-1.03689 -1.89129 -7.26837 
-9.44864 -1.34111 1.18651 
-1.34111 -8.99167 -3.83055 
1.18651 -3.83055 -4.08014 
-7.86357 -0.352548 0.668964 
-0.352548 -9.36292 -2.20497 
0.668964 -2.20497 -5.29396 
-9.74907 0.00330877 -0.0888536 
0.00330877 -9.7709 -0.160301 
-0.0888536 -0.160301 -9.93163 
-9.78686 0.0364161 -0.163035 
0.0364161 -9.77638 -0.121544 
-0.163035 -0.121544 -9.88835 
-9.75823 0.0608266 -0.114689 
0.0608266 -9.78556 -0.115656 
-0.114689 -0.115656 -9.9078 
-9.7374 0.0500975 -0.121578 
0.0500975 -9.76928 -0.179942 
-0.121578 -0.179942 -9.94492 
-9.70927 -0.174066 0.289253 
-0.174066 -9.97212 -0.73774 
0.289253 -0.73774 -10.0039 
-9.70455 -0.238392 0.372138 
-0.238392 -9.92144 -0.449325 
0.372138 -0.449325 -10.0593 
-9.71419 0.0809836 0.349989 
0.0809836 -10.1491 -0.728579 
0.349989 -0.728579 -9.82206 
-9.9503 -0.202274 0.186422 
-0.202274 -9.6332 -0.126955 
0.186422 -0.126955 -10.1018 
-9.88818 0.00549976 0.125251 
0.00549976 -9.84891 0.227713 
0.125251 0.227713 -9.81158 
-10.0038 0.00324137 0.142346 
0.00324137 -9.9365 0.295141 
0.142346 0.295141 -9.6084 
-9.90765 0.00208831 0.0649848 
0.00208831 -9.9119 0.148871 
0.0649848 0.148871 -9.72911 
-9.89503 -0.00310354 0.0993424 
-0.00310354 -9.91959 0.121975 
0.0993424 0.121975 -9.73404 
-6.15733 0.693021 -0.33729 
0.693021 -6.05929 1.33385 
-0.33729 1.33385 2.42218 
-0.760847 0.364979 1.27787 
0.364979 -1.94116 -2.8476 
1.27787 -2.8476 -7.09243 
-6.36042 -0.181694 -1.3698 
-0.181694 -5.48931 1.66557 
-1.3698 1.66557 2.05529 
-4.35406 0.387124 -1.58632 
0.387124 -8.11642 -2.22344 
-1.58632 -2.22344 2.67603 
-9.74802 0.369041 -4.01749 
0.369041 -17.6565 -4.70066 
-4.01749 -4.70066 5.6741 
-10.1811 -1.89388 -0.203806 
-1.89388 -14.6291 -4.01387 
-0.203806 -4.01387 3.07986 
-0.183978 -1.82886 2.97949 
-1.82886 -2.75706 3.0078 
2.97949 3.0078 -18.7893 
-10.4924 5.88069 2.03833 
5.88069 4.83666 -18.3836 
2.03833 -18.3836 -16.0747 
-9.87739 -0.0126281 -0.29976 
-0.0126281 -9.88014 0.135333 
-0.29976 0.135333 -8.99623 
-9.73615 0.0437939 -0.378253 
0.0437939 -9.76159 0.341747 
-0.378253 0.341747 -9.25601 
-9.78812 -0.248041 -0.0648161 
-0.248041 -9.72699 0.0785149 
-0.0648161 0.0785149 -9.23865 
-9.7761 0.0656369 -0.246973 
0.0656369 -9.88987 0.176265 
-0.246973 0.176265 -9.08779 
-8.85235 -0.362507 0.227094 
-0.362507 -9.2218 3.69135 
0.227094 3.69135 -10.1472 
-10.2435 0.0282485 0.521119 
0.0282485 -9.99175 0.975787 
0.521119 0.975787 -7.98613 
-9.25118 -0.100198 -0.0490976 
-0.100198 -8.46795 1.30308 
-0.0490976 1.30308 -10.5022 
-9.79597 0.412492 0.0739451 
0.412492 -8.76209 1.48314 
0.0739451 1.48314 -9.6633 
-9.41986 -0.0392983 0.443546 
-0.0392983 -10.0925 -0.359009 
0.443546 -0.359009 -9.4639 
-9.52586 -0.202581 0.537346 
-0.202581 -9.9369 -0.411186 
0.537346 -0.411186 -9.51349 
-9.54221 -0.0934511 0.395811 
-0.0934511 -9.84581 -0.41422 
0.395811 -0.41422 -9.58823 
-9.70218 0.0520248 0.291495 
0.0520248 -9.63675 -0.416518 
0.291495 -0.416518 -9.63731 
-9.81023 -0.110657 -0.0688376 
-0.110657 -9.97854 0.0462699 
-0.0688376 0.0462699 -9.95786 
-9.97297 -0.0436839 -0.0699186 
-0.0436839 -10.0175 0.128782 
-0.0699186 0.128782 -9.75614 
-10.0249 0.040138 -0.0121984 
0.040138 -9.9155 0.0731012 
-0.0121984 0.0731012 -9.80618 
-9.97127 0.0427008 -0.0542948 
0.0427008 -9.93969 0.128438 
-0.0542948 0.128438 -9.83567 
-9.90982 0.252211 -0.117079 
0.252211 -10.0778 0.136012 
-0.117079 0.136012 -10.2608 
-9.74521 0.136943 0.0814174 
0.136943 -10.0177 -0.0252992 
0.0814174 -0.0252992 -10.4856 
-9.6451 0.139273 0.033678 
0.139273 -9.93166 -0.00358029 
0.033678 -0.00358029 -10.6717 
-9.67218 0.126691 0.299226 
0.126691 -10.0651 0.032015 
0.299226 0.032015 -10.5112 
-9.71454 -0.0155481 -0.262676 
-0.0155481 -9.91583 -0.000550654 
-0.262676 -0.000550654 -9.90398 
-9.6909 0.0719645 -0.261885 
0.0719645 -9.99878 0.00310125 
-0.261885 0.00310125 -9.84467 
-9.6369 -0.091513 -0.331083 
-0.091513 -9.94477 0.0692183 
-0.331083 0.0692183 -9.95268 
-9.73573 -0.00575137 -0.24885 
-0.00575137 -9.89913 0.0193128 
-0.24885 0.0193128 -9.89949 
-9.85659 -0.0679443 -0.0304918 
-0.0679443 -9.86941 -0.0118807 
-0.0304918 -0.0118807 -10.0523 
-9.89633 -0.0708959 -0.0802432 
-0.0708959 -9.84359 0.0674374 
-0.0802432 0.0674374 -10.0384 
-9.90966 -0.0213574 -0.0479362 
-0.0213574 -9.86706 0.087288 
-0.0479362 0.087288 -10.0016 
-9.91638 -0.056618 -0.0362063 
-0.056618 -9.8348 0.0180428 
-0.0362063 0.0180428 -10.0271 
-9.86783 0.0706484 0.307029 
0.0706484 -9.89554 0.0808869 
0.307029 0.0808869 -8.76605 
-9.79001 0.0480858 0.0489721 
0.0480858 -9.52871 -0.157932 
0.0489721 -0.157932 -9.2107 
-9.89255 0.0327804 0.436598 
0.0327804 -9.89681 0.17015 
0.436598 0.17015 -8.74006 
-10.0144 -0.0587536 0.868886 
-0.0587536 -10.0624 -0.260299 
0.868886 -0.260299 -8.45257 
-9.81148 0.0467666 -0.0478516 
0.0467666 -9.71893 -0.229189 
-0.0478516 -0.229189 -9.86319 
-9.83884 0.0374926 -0.0507217 
0.0374926 -9.73665 -0.228234 
-0.0507217 -0.228234 -9.81811 
-9.82073 -0.00304134 -0.0331277 
-0.00304134 -9.72126 -0.227783 
-0.0331277 -0.227783 -9.85161 
-9.87493 0.0117509 -0.0642288 
0.0117509 -9.69627 -0.227279 
-0.0642288 -0.227279 -9.8224 
-9.33941 -0.228294 0.272243 
-0.228294 -9.42149 -0.291199 
0.272243 -0.291199 -10.1924 
-9.269 -0.121064 0.367122 
-0.121064 -9.51467 -0.321932 
0.367122 -0.321932 -10.1696 
-9.38781 -0.169708 0.301918 
-0.169708 -9.38738 -0.323653 
0.301918 -0.323653 -10.1781 
-9.57836 -0.0340177 0.381054 
-0.0340177 -9.25585 -0.307459 
0.381054 -0.307459 -10.1191 
-9.80552 -0.0780237 -0.187059 
-0.0780237 -9.8002 0.164863 
-0.187059 0.164863 -10.0823 
-9.80042 -0.074181 -0.180731 
-0.074181 -9.79943 0.159533 
-0.180731 0.159533 -10.0881 
-9.81985 -0.0789176 -0.17494 
-0.0789176 -9.78576 0.160945 
-0.17494 0.160945 -10.0824 
-9.82549 -0.0615817 -0.169661 
-0.0615817 -9.81483 0.137913 
-0.169661 0.137913 -10.0477 
-12.7039 0.344644 -0.243121 
0.344644 -12.2405 -0.53441 
-0.243121 -0.53441 -9.92738 
-11.8107 1.27551 -0.10328 
1.27551 -12.3235 -0.257872 
-0.10328 -0.257872 -10.7376 
-11.7941 -0.229632 0.810586 
-0.229632 -9.21844 1.42461 
0.810586 1.42461 -13.8592 
-11.2082 -0.12325 -0.77834 
-0.12325 -12.5755 0.318482 
-0.77834 0.318482 -11.0881 
-9.80396 -0.203974 0.526822 
-0.203974 -9.67082 -0.671115 
0.526822 -0.671115 -9.74334 
-9.84775 -0.138809 0.323279 
-0.138809 -9.53947 -0.34474 
0.323279 -0.34474 -9.83091 
-9.6672 -0.00287896 0.374239 
-0.00287896 -9.91133 -0.409652 
0.374239 -0.409652 -9.63959 
-9.65041 0.0153371 0.547884 
0.0153371 -9.67945 -0.624816 
0.547884 -0.624816 -9.88826 
-9.13892 -0.196422 -0.208124 
-0.196422 -9.92211 -0.29172 
-0.208124 -0.29172 -8.70241 
-9.40987 0.442657 0.00580579 
0.442657 -9.95022 -0.837365 
0.00580579 -0.837365 -8.40335 
-9.18375 0.336828 -0.362238 
0.336828 -9.64195 -0.576869 
-0.362238 -0.576869 -8.93774 
-8.92926 -0.328862 -0.327088 
-0.328862 -10.1971 -0.698915 
-0.327088 -0.698915 -8.63709 
-9.87026 -0.0539306 -0.291651 
-0.0539306 -9.67437 0.185885 
-0.291651 0.185885 -10.0102 
-9.83841 -0.0564663 -0.166027 
-0.0564663 -9.78747 0.262717 
-0.166027 0.262717 -9.92895 
-9.72567 -0.0865787 -0.176437 
-0.0865787 -9.83962 0.211092 
-0.176437 0.211092 -9.98954 
-9.72648 -0.0602339 -0.235988 
-0.0602339 -9.85756 0.126013 
-0.235988 0.126013 -9.97079 
-9.76872 -0.101264 -0.105415 
-0.101264 -9.78281 0.0792787 
-0.105415 0.0792787 -9.98662 
-9.76682 -0.0667563 -0.150599 
-0.0667563 -9.7787 0.100252 
-0.150599 0.100252 -9.99262 
-9.65965 -0.119795 -0.131458 
-0.119795 -9.83667 0.196943 
-0.131458 0.196943 -10.0418 
-9.82142 0.00232776 -0.210013 
0.00232776 -9.8356 0.123842 
-0.210013 0.123842 -9.88112 
-9.8364 0.0180141 0.223853 
0.0180141 -9.90576 0.15016 
0.223853 0.15016 -9.92997 
-9.87177 0.0201208 0.261091 
0.0201208 -9.89276 0.151026 
0.261091 0.151026 -9.9076 
-9.8437 0.0201773 0.216892 
0.0201773 -9.91064 0.134102 
0.216892 0.134102 -9.91779 
-9.86834 0.0373537 0.246006 
0.0373537 -9.90705 0.179376 
0.246006 0.179376 -9.89674 
-9.60445 -0.219483 -0.450828 
-0.219483 -9.73202 0.362001 
-0.450828 0.362001 -10.0371 
-9.71363 0.0193013 -0.0418622 
0.0193013 -9.61561 0.0484741 
-0.0418622 0.0484741 -10.0443 
-9.93404 -0.165973 -0.242849 
-0.165973 -9.5904 0.23525 
-0.242849 0.23525 -9.84908 
-9.86438 -0.11078 -0.266649 
-0.11078 -9.6928 0.289072 
-0.266649 0.289072 -9.81633 
-9.91739 0.0018968 0.205398 
0.0018968 -9.96198 0.100063 
0.205398 0.100063 -9.97245 
-9.94257 0.00203545 0.240199 
0.00203545 -9.93805 0.109796 
0.240199 0.109796 -9.9712 
-9.92929 0.00335592 0.209712 
0.00335592 -9.93358 0.0866377 
0.209712 0.0866377 -9.98895 
-9.93824 0.00870662 0.23971 
0.00870662 -9.95402 0.101558 
0.23971 0.101558 -9.95956 
-9.53195 -0.108744 -0.157052 
-0.108744 -9.80684 0.0354253 
-0.157052 0.0354253 -9.93073 
-9.56487 -0.103733 -0.172119 
-0.103733 -9.82993 0.12442 
-0.172119 0.12442 -9.87472 
-9.49917 -0.245574 -0.282823 
-0.245574 -9.87708 0.0797431 
-0.282823 0.0797431 -9.89327 
-9.62955 0.0374341 -0.211711 
0.0374341 -9.77393 0.0652496 
-0.211711 0.0652496 -9.86604 
-8.328 1.74768 -0.726852 
1.74768 -10.3442 1.1641 
-0.726852 1.1641 -12.9474 
-10.4634 -0.120101 0.244769 
-0.120101 -9.60662 -0.221945 
0.244769 -0.221945 -11.5496 
-10.9789 -1.48504 -1.48706 
-1.48504 -9.54704 0.0852159 
-1.48706 0.0852159 -11.0937 
-10.1592 1.05947 1.90046 
1.05947 -10.5428 -1.91797 
1.90046 -1.91797 -10.9176 
-9.52106 -0.144804 0.46929 
-0.144804 -9.35967 -0.79525 
0.46929 -0.79525 -9.81069 
-9.49004 -0.0111625 -1.56016 
-0.0111625 -9.27376 -0.5542 
-1.56016 -0.5542 -9.92761 
-9.7739 -0.135769 -1.03101 
-0.135769 -9.30273 -0.51681 
-1.03101 -0.51681 -9.61478 
-10.1007 0.169434 -1.50485 
0.169434 -9.33921 -0.396328 
-1.50485 -0.396328 -9.25152 
-9.75239 -0.0600163 -0.241853 
-0.0600163 -9.82788 0.240727 
-0.241853 0.240727 -10.0097 
-9.76798 -0.0776367 -0.218972 
-0.0776367 -9.81208 0.225429 
-0.218972 0.225429 -10.0099 
-9.78012 -0.0987669 -0.197448 
-0.0987669 -9.83584 0.177729 
-0.197448 0.177729 -9.97398 
-9.73654 -0.13325 -0.225017 
-0.13325 -9.80917 0.218528 
-0.225017 0.218528 -10.0442 
-9.85452 -0.00120291 0.118813 
-0.00120291 -9.85018 0.203811 
0.118813 0.203811 -9.83616 
-9.82007 0.059784 0.0721164 
0.059784 -9.81056 0.172421 
0.0721164 0.172421 -9.91023 
-9.83164 -0.0484834 0.124171 
-0.0484834 -9.87737 0.213372 
0.124171 0.213372 -9.83186 
-9.82315 0.023032 0.140682 
0.023032 -9.80249 0.201451 
0.140682 0.201451 -9.91523 
-9.6352 -0.0905245 0.270227 
-0.0905245 -9.69076 -0.212996 
0.270227 -0.212996 -10.0619 
-9.71575 -0.118455 0.218549 
-0.118455 -9.66169 -0.182545 
0.218549 -0.182545 -10.0104 
-9.67577 -0.0883789 0.194179 
-0.0883789 -9.6412 -0.20722 
0.194179 -0.20722 -10.0709 
-9.67437 -0.102772 0.232544 
-0.102772 -9.68715 -0.208753 
0.232544 -0.208753 -10.0263 
-10.0669 0.0762441 0.0726558 
0.0762441 -9.98744 -0.00195738 
0.0726558 -0.00195738 -10.0299 
-9.90851 -0.0222467 -0.0307024 
-0.0222467 -9.91624 0.0128189 
-0.0307024 0.0128189 -10.2595 
-9.97222 0.0381165 0.0614768 
0.0381165 -10.0443 -0.00200761 
0.0614768 -0.00200761 -10.0677 
-9.87857 0.0207796 0.163436 
0.0207796 -10.0548 0.0160813 
0.163436 0.0160813 -10.1508 
-9.72176 -0.156663 0.397415 
-0.156663 -9.69866 -0.318743 
0.397415 -0.318743 -10.1493 
-9.73115 -0.0290569 0.307529 
-0.0290569 -9.65318 -0.21431 
0.307529 -0.21431 -10.1854 
-9.68805 -0.054565 0.400422 
-0.054565 -9.72552 -0.310083 
0.400422 -0.310083 -10.1561 
-9.77782 -0.0346192 0.359636 
-0.0346192 -9.64133 -0.274056 
0.359636 -0.274056 -10.1506 
-9.68568 0.105578 -0.113086 
0.105578 -9.67527 -0.0443312 
-0.113086 -0.0443312 -10.2228 
-9.75174 0.122122 -0.182653 
0.122122 -9.72032 -0.185061 
-0.182653 -0.185061 -10.1116 
-9.71498 0.0565175 -0.0284279 
0.0565175 -9.68225 -0.0265287 
-0.0284279 -0.0265287 -10.1865 
-9.49468 0.183188 -0.109974 
0.183188 -9.57438 -0.124458 
-0.109974 -0.124458 -10.5146 
-9.8388 -0.0157897 -0.0683742 
-0.0157897 -9.74844 0.208997 
-0.0683742 0.208997 -9.89429 
-9.86326 -0.0196263 -0.0202216 
-0.0196263 -9.76225 0.253297 
-0.0202216 0.253297 -9.85601 
-9.86252 -0.0159885 -0.0518704 
-0.0159885 -9.74394 0.256779 
-0.0518704 0.256779 -9.87507 
-9.80196 -0.0429671 -0.0538652 
-0.0429671 -9.79956 0.260827 
-0.0538652 0.260827 -9.88001 
-9.6936 -0.00134655 0.257905 
-0.00134655 -9.87872 -0.0663881 
0.257905 -0.0663881 -9.74081 
-9.67086 0.0209462 0.258481 
0.0209462 -9.87859 -0.0097653 
0.258481 -0.0097653 -9.76369 
-9.68882 0.0120305 0.313667 
0.0120305 -9.843 0.0315468 
0.313667 0.0315468 -9.78132 
-9.64794 0.0308055 0.325601 
0.0308055 -9.90605 -0.0450683 
0.325601 -0.0450683 -9.75915 
-9.8958 0.0148373 0.132819 
0.0148373 -9.88626 0.219211 
0.132819 0.219211 -9.88768 
-9.92582 0.0318756 0.1951 
0.0318756 -9.88754 0.197748 
0.1951 0.197748 -9.85638 
-9.93461 0.0315679 0.134511 
0.0315679 -9.96734 0.278424 
0.134511 0.278424 -9.76779 
-9.92681 -0.00210313 0.197395 
-0.00210313 -9.90968 0.182563 
0.197395 0.182563 -9.83325 
-9.67969 0.276279 -0.0140501 
0.276279 -13.2805 -0.0919575 
-0.0140501 -0.0919575 -6.90144 
-9.3777 -0.190733 -0.24906 
-0.190733 -12.0946 -1.51763 
-0.24906 -1.51763 -8.38935 
-9.91831 0.0603531 -1.12356 
0.0603531 -10.9427 -1.36701 
-1.12356 -1.36701 -9.00058 
-9.57142 -0.0723656 -0.517894 
-0.0723656 -12.6943 -0.6293 
-0.517894 -0.6293 -7.59589 
-10.0202 0.0163592 -0.0563911 
0.0163592 -10.0499 0.0289271 
-0.0563911 0.0289271 -9.91898 
-10.0537 0.00300204 -0.0221227 
0.00300204 -10.054 0.0430488 
-0.0221227 0.0430488 -9.88134 
-9.89127 -0.00301173 -0.0912232 
-0.00301173 -9.9281 0.0130296 
-0.0912232 0.0130296 -10.1697 
-10.071 -0.00662544 -0.0987516 
-0.00662544 -10.0335 0.0811304 
-0.0987516 0.0811304 -9.88458 
-9.64184 -0.0844599 0.221392 
-0.0844599 -9.76978 -0.0632029 
0.221392 -0.0632029 -9.86373 
-9.65833 -0.025982 0.225467 
-0.025982 -9.80563 -0.0517112 
0.225467 -0.0517112 -9.81138 
-9.65037 -0.0569597 0.233713 
-0.0569597 -9.77644 -0.0703615 
0.233713 -0.0703615 -9.84854 
-9.58843 -0.0530171 0.23454 
-0.0530171 -9.85009 -0.135842 
0.23454 -0.135842 -9.83683 
-9.65417 0.0706319 0.185972 
0.0706319 -9.74727 0.238488 
0.185972 0.238488 -10.1991 
-9.73528 0.0316829 0.138189 
0.0316829 -9.78844 0.14794 
0.138189 0.14794 -10.0768 
-9.73203 0.206987 0.0907145 
0.206987 -9.67446 0.136437 
0.0907145 0.136437 -10.1941 
-9.79509 0.0163808 0.205157 
0.0163808 -9.75175 0.127191 
0.205157 0.127191 -10.0537 
-9.817 -0.0215495 -0.104785 
-0.0215495 -9.76719 0.0603869 
-0.104785 0.0603869 -9.93456 
-9.80813 -0.0382083 -0.0754979 
-0.0382083 -9.79438 0.0537711 
-0.0754979 0.0537711 -9.91624 
-9.78845 -0.0214734 -0.0852234 
-0.0214734 -9.78392 0.0537618 
-0.0852234 0.0537618 -9.94638 
-9.80242 -0.0399444 -0.0668905 
-0.0399444 -9.78395 0.0499184 
-0.0668905 0.0499184 -9.93239 
-9.94202 0.00734894 0.163529 
0.00734894 -9.9297 -0.179308 
0.163529 -0.179308 -9.98807 
-9.95434 0.00539075 0.154822 
0.00539075 -9.93595 -0.165048 
0.154822 -0.165048 -9.96948 
-9.93872 -0.0108796 0.167149 
-0.0108796 -9.94738 -0.17691 
0.167149 -0.17691 -9.97368 
-9.93619 -0.0191587 0.162779 
-0.0191587 -9.94615 -0.174549 
0.162779 -0.174549 -9.97744 
-9.85515 -0.00962011 0.232755 
-0.00962011 -9.93001 -0.0753597 
0.232755 -0.0753597 -9.90866 
-9.84222 -0.0382957 0.249353 
-0.0382957 -9.93901 -0.0625146 
0.249353 -0.0625146 -9.91259 
-9.84716 -0.014286 0.241767 
-0.014286 -9.91585 -0.0811778 
0.241767 -0.0811778 -9.9308 
-9.86852 -0.0227567 0.228251 
-0.0227567 -9.91246 -0.0695945 
0.228251 -0.0695945 -9.91284 
-9.84189 -0.00602687 0.256818 
-0.00602687 -9.95517 -0.0192306 
0.256818 -0.0192306 -9.50082 
-9.85827 -0.00960526 0.276113 
-0.00960526 -9.97125 0.169403 
0.276113 0.169403 -9.46835 
-9.83086 0.0208537 0.272219 
0.0208537 -9.91645 0.0635175 
0.272219 0.0635175 -9.55057 
-9.79542 0.140318 0.247867 
0.140318 -9.76646 0.168946 
0.247867 0.168946 -9.736 
-11.2458 0.292308 0.0929408 
0.292308 -8.76229 -1.24346 
0.0929408 -1.24346 -9.69824 
-9.74751 -0.2562 -0.0495019 
-0.2562 -8.24373 -0.607804 
-0.0495019 -0.607804 -11.7151 
-9.38226 -0.0747862 -0.074486 
-0.0747862 -8.20106 -0.0919853 
-0.074486 -0.0919853 -12.123 
-9.1567 -0.0202422 0.00908561 
-0.0202422 -8.45979 -0.600319 
0.00908561 -0.600319 -12.0899 
-9.81826 0.0508206 -0.157134 
0.0508206 -9.63883 -0.27842 
-0.157134 -0.27842 -9.59817 
-9.79793 0.0707061 -0.136854 
0.0707061 -9.61696 -0.291644 
-0.136854 -0.291644 -9.64037 
-9.86135 0.0144666 -0.141968 
0.0144666 -9.64683 -0.329163 
-0.141968 -0.329163 -9.54709 
-9.80985 -0.00596683 -0.0896214 
-0.00596683 -9.59325 -0.236354 
-0.0896214 -0.236354 -9.65216 
-9.80345 -0.00391684 0.24319 
-0.00391684 -9.86985 -0.0203744 
0.24319 -0.0203744 -9.8809 
-9.80791 -0.0056624 0.241191 
-0.0056624 -9.86506 -0.0188648 
0.241191 -0.0188648 -9.88124 
-9.80972 -0.00544747 0.250452 
-0.00544747 -9.86751 -0.0178754 
0.250452 -0.0178754 -9.87699 
-9.80387 -0.00247601 0.251373 
-0.00247601 -9.8692 -0.019037 
0.251373 -0.019037 -9.88114 
-9.61608 0.0274072 0.367105 
0.0274072 -9.77615 -0.158908 
0.367105 -0.158908 -9.8662 
-9.70387 -0.014836 0.344744 
-0.014836 -9.89974 -0.347373 
0.344744 -0.347373 -9.65483 
-9.82823 -0.125487 0.448847 
-0.125487 -9.7495 -0.432888 
0.448847 -0.432888 -9.6807 
-9.68611 -0.0480544 0.35338 
-0.0480544 -9.94198 -0.376267 
0.35338 -0.376267 -9.63034 
-9.39859 0.20338 0.308753 
0.20338 -9.97384 0.0852993 
0.308753 0.0852993 -10.0394 
-9.6947 0.0892572 0.235242 
0.0892572 -9.83526 0.118073 
0.235242 0.118073 -9.88187 
-9.68936 0.0874236 0.104853 
0.0874236 -9.77873 0.0341671 
0.104853 0.0341671 -9.94375 
-9.68487 0.0352793 0.260471 
0.0352793 -9.84667 0.11673 
0.260471 0.11673 -9.88029 
-9.76816 0.0865382 -0.0625732 
0.0865382 -9.71723 -0.0498682 
-0.0625732 -0.0498682 -10.0807 
-9.77059 0.0192511 -0.0882102 
0.0192511 -9.80818 -0.00441237 
-0.0882102 -0.00441237 -9.98735 
-9.78344 0.0817368 -0.0565856 
0.0817368 -9.75363 0.00086165 
-0.0565856 0.00086165 -10.0291 
-9.81267 0.0757902 -0.0299041 
0.0757902 -9.76403 -0.00410937 
-0.0299041 -0.00410937 -9.98942 
-9.78079 0.00694839 0.22412 
0.00694839 -9.84954 0.0142727 
0.22412 0.0142727 -9.88566 
-9.78303 0.0136001 0.248574 
0.0136001 -9.86442 0.0264794 
0.248574 0.0264794 -9.86854 
-9.77975 0.0133357 0.244649 
0.0133357 -9.86697 0.0379015 
0.244649 0.0379015 -9.86927 
-9.78142 0.000685571 0.245173 
0.000685571 -9.84555 0.0322187 
0.245173 0.0322187 -9.88902 
-9.64374 -0.117353 0.175145 
-0.117353 -9.63258 -0.195076 
0.175145 -0.195076 -10.1231 
-9.62162 -0.111255 0.223205 
-0.111255 -9.66181 -0.192828 
0.223205 -0.192828 -10.116 
-9.63649 -0.106612 0.192505 
-0.106612 -9.64582 -0.216518 
0.192505 -0.216518 -10.1171 
-9.64056 -0.163581 0.273585 
-0.163581 -9.61957 -0.242057 
0.273585 -0.242057 -10.1393 
-9.92809 0.00581403 0.251097 
0.00581403 -9.92147 -0.0800532 
0.251097 -0.0800532 -9.98618 
-9.92751 -0.00159331 0.218821 
-0.00159331 -9.97536 -0.114364 
0.218821 -0.114364 -9.93286 
-9.9239 -0.0122935 0.209983 
-0.0122935 -9.98353 -0.080843 
0.209983 -0.080843 -9.9283 
-9.94166 0.0194066 0.269579 
0.0194066 -9.94195 -0.0850679 
0.269579 -0.0850679 -9.95213 
-11.4514 0.327837 4.6142 
0.327837 -18.0268 0.174101 
4.6142 0.174101 -13.9211 
-4.96246 0.556662 -3.956 
0.556662 -12.0443 2.29243 
-3.956 2.29243 -26.3926 
3.54696 -1.91931 -8.19565 
-1.91931 -12.4767 0.426869 
-8.19565 0.426869 -34.4696 
-17.3105 0.876142 -5.10035 
0.876142 -12.004 1.63602 
-5.10035 1.63602 -14.0849 
-9.64126 0.0692493 0.0372402 
0.0692493 -10.2268 -0.173788 
0.0372402 -0.173788 -11.0959 
-10.1637 0.232589 -0.5724 
0.232589 -9.88551 -0.0483769 
-0.5724 -0.0483769 -10.9147 
-9.76435 -0.0184411 0.0253639 
-0.0184411 -9.80255 0.0171698 
0.0253639 0.0171698 -11.397 
-9.74852 -0.210963 -0.00163975 
-0.210963 -10.0136 -0.094921 
-0.00163975 -0.094921 -11.2018 
-9.81797 0.00594835 -0.0284431 
0.00594835 -9.76243 -0.222361 
-0.0284431 -0.222361 -9.85459 
-9.85406 0.0282211 -0.0243319 
0.0282211 -9.74252 -0.205259 
-0.0243319 -0.205259 -9.8384 
-9.78908 -0.00709682 -0.00798018 
-0.00709682 -9.85197 -0.239258 
-0.00798018 -0.239258 -9.79394 
-9.83665 -0.0259558 -0.0305678 
-0.0259558 -9.75479 -0.225081 
-0.0305678 -0.225081 -9.84355 
-10.0258 -0.0037251 0.0882141 
-0.0037251 -9.86995 -0.0509163 
0.0882141 -0.0509163 -10.0915 
-10.0654 -0.067912 -0.0794536 
-0.067912 -9.87472 0.0743461 
-0.0794536 0.0743461 -10.0471 
-9.93467 -0.0864108 -0.033805 
-0.0864108 -9.98506 0.000269748 
-0.033805 0.000269748 -10.0675 
-9.93745 -0.0998627 -0.00252631 
-0.0998627 -9.93947 -0.0321024 
-0.00252631 -0.0321024 -10.1103 
-9.79918 0.0656262 -0.0271127 
0.0656262 -9.84778 0.062983 
-0.0271127 0.062983 -9.87638 
-9.72513 0.0342629 0.0441785 
0.0342629 -9.77656 0.225246 
0.0441785 0.225246 -10.0217 
-9.72913 -0.0702211 0.200353 
-0.0702211 -9.91481 -0.0637648 
0.200353 -0.0637648 -9.8794 
-9.72751 0.154752 0.266331 
0.154752 -9.73454 0.00188747 
0.266331 0.00188747 -10.0613 
-9.84265 0.0769302 0.077298 
0.0769302 -9.78113 -0.0224618 
0.077298 -0.0224618 -10.2333 
-9.82782 -0.0662386 0.0546181 
-0.0662386 -9.69141 0.0702437 
0.0546181 0.0702437 -10.3379 
-9.8936 -0.0717915 0.00710234 
-0.0717915 -9.79637 -0.0415686 
0.00710234 -0.0415686 -10.1671 
-9.84159 -0.0957208 -0.406371 
-0.0957208 -9.76022 0.0825348 
-0.406371 0.0825348 -10.2553 
-9.85062 0.0958969 -0.132596 
0.0958969 -9.68025 -0.184571 
-0.132596 -0.184571 -9.93481 
-9.76153 0.0286633 -0.1066 
0.0286633 -9.80813 -0.237446 
-0.1066 -0.237446 -9.89602 
-9.83434 0.0292777 -0.104226 
0.0292777 -9.73463 -0.135222 
-0.104226 -0.135222 -9.8967 
-9.76945 0.04932 -0.119467 
0.04932 -9.75466 -0.180633 
-0.119467 -0.180633 -9.94157 
-9.7866 -0.0539261 0.225149 
-0.0539261 -9.8373 -0.16865 
0.225149 -0.16865 -9.93893 
-9.83564 -0.0358401 0.237387 
-0.0358401 -9.87385 -0.20818 
0.237387 -0.20818 -9.85334 
-9.83052 -0.0780474 0.282168 
-0.0780474 -9.8032 -0.217198 
0.282168 -0.217198 -9.92912 
-9.77526 -0.0387057 0.234077 
-0.0387057 -9.88002 -0.202572 
0.234077 -0.202572 -9.90755 
-9.93633 -0.0402678 -0.151815 
-0.0402678 -9.89858 0.212193 
-0.151815 0.212193 -9.92434 
-9.922 -0.00696401 -0.144523 
-0.00696401 -9.88333 0.21322 
-0.144523 0.21322 -9.95392 
-9.9065 -0.0206546 -0.15003 
-0.0206546 -9.90023 0.194468 
-0.15003 0.194468 -9.95252 
-9.91747 -0.0208267 -0.145858 
-0.0208267 -9.8966 0.203265 
-0.145858 0.203265 -9.94518 
-9.45593 -0.327887 0.295627 
-0.327887 -10.308 -0.114671 
0.295627 -0.114671 -10.6062 
-9.67163 -0.286091 0.328947 
-0.286091 -10.3052 -0.250913 
0.328947 -0.250913 -10.3933 
-9.40636 -0.0317203 0.838229 
-0.0317203 -10.5394 -0.0528658 
0.838229 -0.0528658 -10.4243 
-10.1229 -0.132626 0.0145992 
-0.132626 -10.2555 -0.0099206 
0.0145992 -0.0099206 -9.99166 
-9.93707 0.00443161 -0.201156 
0.00443161 -9.96823 -0.138362 
-0.201156 -0.138362 -9.97417 
-9.92663 0.00162491 -0.210006 
0.00162491 -9.96163 -0.133641 
-0.210006 -0.133641 -9.99122 
-9.9456 0.0124623 -0.192622 
0.0124623 -9.94544 -0.12732 
-0.192622 -0.12732 -9.98843 
-9.97312 0.0300039 -0.204561 
0.0300039 -9.93569 -0.138629 
-0.204561 -0.138629 -9.97066 
-9.91852 -0.0120722 0.0116492 
-0.0120722 -9.86894 -0.00313286 
0.0116492 -0.00313286 -9.8971 
-9.94901 7.29368e-05 -0.0166628 
7.29368e-05 -9.86511 -0.0148466 
-0.0166628 -0.0148466 -9.87043 
-9.86784 -0.056128 0.0746385 
-0.056128 -9.87795 -0.00401264 
0.0746385 -0.00401264 -9.93877 
-9.86367 -0.0188706 0.0184204 
-0.0188706 -9.85273 -0.00864807 
0.0184204 -0.00864807 -9.96816 
-9.86224 0.0174692 0.0774927 
0.0174692 -9.81683 -0.11254 
0.0774927 -0.11254 -9.87712 
-9.78446 -0.103574 0.175358 
-0.103574 -9.84298 -0.112547 
0.175358 -0.112547 -9.92875 
-9.89682 0.0685189 0.092556 
0.0685189 -9.83065 -0.0824713 
0.092556 -0.0824713 -9.82872 
-9.76682 -0.0115091 0.0913053 
-0.0115091 -9.8143 -0.0462528 
0.0913053 -0.0462528 -9.97507 
-9.82148 0.181997 -0.00956672 
0.181997 -9.75681 0.0257186 
-0.00956672 0.0257186 -9.96928 
-9.86792 -0.138561 0.12969 
-0.138561 -9.91618 0.111157 
0.12969 0.111157 -9.76347 
-9.84363 -0.0340598 0.13574 
-0.0340598 -9.8269 0.0834717 
0.13574 0.0834717 -9.87704 
-9.72987 0.0680101 0.0983041 
0.0680101 -9.78327 0.196827 
0.0983041 0.196827 -10.0344 
-9.8565 0.0583259 0.0203054 
0.0583259 -9.63684 0.409472 
0.0203054 0.409472 -9.72068 
-9.76129 0.126496 0.0325617 
0.126496 -9.5948 0.209257 
0.0325617 0.209257 -9.85794 
-9.79619 -0.0540924 -0.0122236 
-0.0540924 -9.60494 0.239536 
-0.0122236 0.239536 -9.8129 
-9.80874 -0.0278312 0.0278225 
-0.0278312 -9.61339 0.295101 
0.0278225 0.295101 -9.7919 
-9.74907 -0.0256688 -0.340915 
-0.0256688 -9.89342 0.0683455 
-0.340915 0.0683455 -9.89174 
-9.70751 -0.0519938 -0.265601 
-0.0519938 -9.94945 0.131508 
-0.265601 0.131508 -9.87728 
-9.78469 -0.0419373 -0.235852 
-0.0419373 -9.93375 0.0472823 
-0.235852 0.0472823 -9.8158 
-9.73059 -0.00877619 -0.317966 
-0.00877619 -9.95473 0.0636042 
-0.317966 0.0636042 -9.84892 
-9.8652 0.0106479 -0.18564 
0.0106479 -9.87057 -0.0808378 
-0.18564 -0.0808378 -9.85808 
-9.78591 0.0362746 -0.224437 
0.0362746 -9.88658 -0.102338 
-0.224437 -0.102338 -9.92135 
-9.79525 0.0534107 -0.157838 
0.0534107 -9.80777 -0.129739 
-0.157838 -0.129739 -9.99083 
-9.84386 0.0625112 -0.205241 
0.0625112 -9.79016 -0.113534 
-0.205241 -0.113534 -9.95982 
-10.0073 -0.0706833 0.0399892 
-0.0706833 -9.9253 -0.0434002 
0.0399892 -0.0434002 -10.1214 
-10.0409 0.0541445 0.0647059 
0.0541445 -9.82624 -0.0746597 
0.0647059 -0.0746597 -10.1869 
-9.98999 -0.145617 0.00113982 
-0.145617 -9.92502 -0.0415914 
0.00113982 -0.0415914 -10.139 
-9.94462 -0.166762 0.130086 
-0.166762 -9.98597 0.0668951 
0.130086 0.0668951 -10.1234 
-9.68199 -0.152643 0.144292 
-0.152643 -9.71197 -0.267159 
0.144292 -0.267159 -10.2359 
-9.68598 -0.0972994 0.165145 
-0.0972994 -9.83052 -0.162142 
0.165145 -0.162142 -10.1134 
-9.74243 -0.123335 0.207869 
-0.123335 -9.75194 -0.279454 
0.207869 -0.279454 -10.1355 
-9.80667 -0.236471 0.357605 
-0.236471 -9.8808 -0.41044 
0.357605 -0.41044 -9.94238 
-9.73663 -0.0300952 -0.0410685 
-0.0300952 -9.72592 0.061626 
-0.0410685 0.061626 -10.1256 
-9.81452 -0.0761229 -0.142974 
-0.0761229 -9.79955 0.150558 
-0.142974 0.150558 -9.97407 
-9.94702 -0.0272147 -0.151677 
-0.0272147 -9.94707 0.082129 
-0.151677 0.082129 -9.69403 
-9.77462 -0.0569235 -0.163046 
-0.0569235 -9.82108 0.123175 
-0.163046 0.123175 -9.99243 
-9.79342 0.250605 0.0525748 
0.250605 -9.30453 0.132676 
0.0525748 0.132676 -10.4714 
-9.67687 0.20646 -0.0418429 
0.20646 -9.62171 0.102334 
-0.0418429 0.102334 -10.2707 
-9.78811 0.0604084 0.130606 
0.0604084 -9.54359 0.188126 
0.130606 0.188126 -10.2376 
-9.55598 0.122203 0.227919 
0.122203 -9.29562 0.0826667 
0.227919 0.0826667 -10.7177 
-9.66056 -0.0138413 0.443971 
-0.0138413 -9.85542 0.0299364 
0.443971 0.0299364 -9.72888 
-9.67443 0.0532159 0.248541 
0.0532159 -10.0777 0.0754012 
0.248541 0.0754012 -9.49277 
-9.65304 -0.0386716 0.403308 
-0.0386716 -10.0008 -0.0145961 
0.403308 -0.0145961 -9.59098 
-9.80724 0.0692416 0.245784 
0.0692416 -9.9737 -0.127208 
0.245784 -0.127208 -9.46391 
-9.99388 0.0113292 -0.174886 
0.0113292 -9.97296 -0.193804 
-0.174886 -0.193804 -9.96774 
-9.99166 -0.000505983 -0.175791 
-0.000505983 -9.98127 -0.188467 
-0.175791 -0.188467 -9.96165 
-9.92973 -0.00810077 -0.165815 
-0.00810077 -9.95806 -0.161623 
-0.165815 -0.161623 -10.0468 
-9.96596 0.0298565 -0.199984 
0.0298565 -9.98309 -0.192213 
-0.199984 -0.192213 -9.98554 
-9.97888 0.047631 -0.131791 
0.047631 -9.68228 -0.392364 
-0.131791 -0.392364 -9.61119 
-10.0623 0.0576345 -0.310339 
0.0576345 -9.57646 -0.350576 
-0.310339 -0.350576 -9.63363 
-9.82523 0.0709668 -0.102685 
0.0709668 -9.75828 -0.364938 
-0.102685 -0.364938 -9.68885 
-10.0702 -0.0892423 -0.0101696 
-0.0892423 -9.80377 -0.3133 
-0.0101696 -0.3133 -9.39843 
-9.84042 -0.00406797 0.070582 
-0.00406797 -9.78049 0.245347 
0.070582 0.245347 -9.90928 
-9.86169 0.0130033 0.0443237 
0.0130033 -9.77931 0.258341 
0.0443237 0.258341 -9.88919 
-9.90086 0.0129251 0.0863826 
0.0129251 -9.74586 0.235044 
0.0863826 0.235044 -9.88347 
-9.8618 0.00555751 0.0569095 
0.00555751 -9.7841 0.259991 
0.0569095 0.259991 -9.88429 
-10.071 -0.0724489 -0.0969194 
-0.0724489 -9.56261 0.409154 
-0.0969194 0.409154 -9.76121 
-10.0464 -0.019117 0.0504879 
-0.019117 -9.57617 0.344555 
0.0504879 0.344555 -9.7722 
-9.9526 0.0647543 0.0359979 
0.0647543 -9.65829 0.299856 
0.0359979 0.299856 -9.78391 
-10.1294 -0.0493948 -0.162866 
-0.0493948 -9.54607 0.358876 
-0.162866 0.358876 -9.71934 
-9.57672 0.0502857 0.180097 
0.0502857 -9.70894 0.686389 
0.180097 0.686389 -9.965 
-9.49272 0.213579 0.162832 
0.213579 -9.72006 0.844825 
0.162832 0.844825 -10.0379 
-9.67827 -0.0011784 0.251498 
-0.0011784 -9.42461 0.437791 
0.251498 0.437791 -10.1478 
-9.40021 0.239176 0.322486 
0.239176 -10.0563 0.4891 
0.322486 0.4891 -9.79418 
-9.81628 0.0371492 -0.210209 
0.0371492 -9.85596 -0.183608 
-0.210209 -0.183608 -9.95397 
-9.8181 0.0492449 -0.226727 
0.0492449 -9.84737 -0.17194 
-0.226727 -0.17194 -9.96073 
-9.79963 0.0638173 -0.207159 
0.0638173 -9.85361 -0.18335 
-0.207159 -0.18335 -9.97297 
-9.85066 0.0181051 -0.199895 
0.0181051 -9.83351 -0.164649 
-0.199895 -0.164649 -9.94204 
-9.89842 -0.00940783 0.0623792 
-0.00940783 -9.78019 -0.327339 
0.0623792 -0.327339 -9.84829 
-9.94555 -0.0176479 0.0996419 
-0.0176479 -9.77282 -0.313986 
0.0996419 -0.313986 -9.80853 
-9.9103 -0.0710434 0.0266087 
-0.0710434 -9.80197 -0.199172 
0.0266087 -0.199172 -9.81463 
-9.98885 -0.0453442 0.174657 
-0.0453442 -9.71245 -0.277377 
0.174657 -0.277377 -9.8256 
-9.87476 0.00796372 0.127057 
0.00796372 -9.86214 -0.266016 
0.127057 -0.266016 -9.82134 
-9.8805 0.000327227 0.125182 
0.000327227 -9.86605 -0.247103 
0.125182 -0.247103 -9.81169 
-9.91822 -0.0115972 0.18824 
-0.0115972 -9.83895 -0.347456 
0.18824 -0.347456 -9.80106 
-9.8471 -0.00222793 0.159563 
-0.00222793 -9.86643 -0.181273 
0.159563 -0.181273 -9.8447 
-12.8928 1.55083 0.243244 
1.55083 -9.25253 -1.581 
0.243244 -1.581 -17.2097 
-11.9086 -0.457269 1.47237 
-0.457269 -10.0697 -0.824047 
1.47237 -0.824047 -17.3766 
-13.0829 0.898816 -0.262995 
0.898816 -11.8001 -1.02991 
-0.262995 -1.02991 -14.472 
-14.6855 2.15216 -0.0200757 
2.15216 -10.8965 -2.23188 
-0.0200757 -2.23188 -13.773 
-9.90683 0.0145145 0.228591 
0.0145145 -9.91926 0.0809578 
0.228591 0.0809578 -9.9265 
-9.90096 0.00775034 0.224207 
0.00775034 -9.91091 0.0827372 
0.224207 0.0827372 -9.94072 
-9.91546 -0.00475929 0.21817 
-0.00475929 -9.90624 0.0786728 
0.21817 0.0786728 -9.93089 
-9.898 0.011065 0.234647 
0.011065 -9.93796 0.0909504 
0.234647 0.0909504 -9.91663 
-9.9998 -0.0696987 0.000892615 
-0.0696987 -10.2514 0.338462 
0.000892615 0.338462 -11.0247 
-10.0391 -0.182404 0.0446996 
-0.182404 -10.2189 0.0951233 
0.0446996 0.0951233 -11.0179 
-9.99807 0.186128 0.22011 
0.186128 -10.1188 -0.105133 
0.22011 -0.105133 -11.159 
-10.3533 0.336472 -0.113533 
0.336472 -10.1681 0.505684 
-0.113533 0.505684 -10.7544 
-9.92887 0.0403232 0.113531 
0.0403232 -9.90822 0.230676 
0.113531 0.230676 -9.90579 
-9.97521 0.0194375 0.145078 
0.0194375 -9.88514 0.233794 
0.145078 0.233794 -9.88254 
-9.97072 0.0191052 0.133046 
0.0191052 -9.91469 0.233045 
0.133046 0.233045 -9.85748 
-9.94677 0.0212899 0.148304 
0.0212899 -9.88555 0.252825 
0.148304 0.252825 -9.91057 
-9.89077 -0.0424822 0.135628 
-0.0424822 -9.84232 -0.150513 
0.135628 -0.150513 -9.83639 
-9.7702 -0.0350021 0.221141 
-0.0350021 -9.87227 -0.0692811 
0.221141 -0.0692811 -9.92701 
-9.86264 0.050376 0.231116 
0.050376 -9.87533 -0.038859 
0.231116 -0.038859 -9.83151 
-9.81919 -0.043403 0.205658 
-0.043403 -9.7945 -0.162523 
0.205658 -0.162523 -9.95579 
-1.37473 -1.92977 -2.4674 
-1.92977 -4.39809 0.574552 
-2.4674 0.574552 -6.47042 
-4.37558 0.486988 1.52081 
0.486988 -9.36921 0.370294 
1.52081 0.370294 1.50155 
-6.92569 -0.340096 1.03413 
-0.340096 -9.89599 -0.110787 
1.03413 -0.110787 4.57844 
-5.222 1.96521 1.02505 
1.96521 -6.95958 5.14831 
1.02505 5.14831 -0.0616544 
-9.82458 0.042005 0.0112722 
0.042005 -9.788 0.0703906 
0.0112722 0.0703906 -9.92454 
-9.61937 0.0196002 0.00653165 
0.0196002 -9.72985 0.148052 
0.00653165 0.148052 -10.1879 
-9.84304 0.094315 0.0492068 
0.094315 -9.78414 0.0232086 
0.0492068 0.0232086 -9.90994 
-9.81575 0.0706156 0.247612 
0.0706156 -9.99956 0.18717 
0.247612 0.18717 -9.72182 
-9.8795 -0.0465443 -0.207461 
-0.0465443 -9.8326 0.238426 
-0.207461 0.238426 -9.88471 
-9.88781 -0.0276255 -0.159055 
-0.0276255 -9.81661 0.215895 
-0.159055 0.215895 -9.89238 
-9.88345 -0.0303576 -0.167767 
-0.0303576 -9.81905 0.207763 
-0.167767 0.207763 -9.8943 
-9.85918 -0.0354172 -0.147842 
-0.0354172 -9.80468 0.214992 
-0.147842 0.214992 -9.93294 
-9.77749 -0.0683697 0.269449 
-0.0683697 -9.82724 -0.153543 
0.269449 -0.153543 -9.96969 
-9.80568 -0.0287857 0.188835 
-0.0287857 -9.86589 -0.136881 
0.188835 -0.136881 -9.90286 
-9.78199 -0.0284624 0.196593 
-0.0284624 -9.8631 -0.157796 
0.196593 -0.157796 -9.92933 
-9.87271 -0.039661 0.193903 
-0.039661 -9.77525 -0.12382 
0.193903 -0.12382 -9.92645 
-9.59817 -0.172444 0.357636 
-0.172444 -9.9104 -0.303607 
0.357636 -0.303607 -9.72486 
-9.69259 -0.160364 0.366722 
-0.160364 -9.80962 -0.444536 
0.366722 -0.444536 -9.73122 
-9.67271 0.0026523 0.0923439 
0.0026523 -9.69407 -0.228488 
0.0923439 -0.228488 -9.86664 
-9.5931 -0.128138 0.36013 
-0.128138 -9.84054 -0.389699 
0.36013 -0.389699 -9.79979 
-9.16744 -0.32653 -0.651529 
-0.32653 -2.55504 1.18337 
-0.651529 1.18337 2.74052 
-1.53842 -1.92526 0.695577 
-1.92526 -1.07209 -1.93622 
0.695577 -1.93622 -6.37145 
-5.50005 0.338672 -1.08786 
0.338672 -3.82866 0.372713 
-1.08786 0.372713 0.346751 
-5.61343 -0.195966 -0.269372 
-0.195966 -5.54732 -2.55968 
-0.269372 -2.55968 2.17879 
-9.92208 0.00561601 -0.0413128 
0.00561601 -9.8422 -0.249873 
-0.0413128 -0.249873 -9.81261 
-9.91619 0.010949 -0.0529515 
0.010949 -9.85321 -0.271151 
-0.0529515 -0.271151 -9.80748 
-9.90253 0.00650248 -0.0431606 
0.00650248 -9.85998 -0.249829 
-0.0431606 -0.249829 -9.81438 
-9.90942 -0.00423916 -0.0511379 
-0.00423916 -9.84907 -0.276646 
-0.0511379 -0.276646 -9.81839 
-9.9729 -0.0174138 -0.00965314 
-0.0174138 -9.87574 0.228883 
-0.00965314 0.228883 -9.89497 
-9.95334 0.00414283 0.0119553 
0.00414283 -9.87333 0.252025 
0.0119553 0.252025 -9.91694 
-9.9401 0.00354922 0.00975304 
0.00354922 -9.86549 0.246795 
0.00975304 0.246795 -9.93801 
-9.94386 0.00203863 0.0286625 
0.00203863 -9.88049 0.241158 
0.0286625 0.241158 -9.91926 
-9.82284 0.0120321 -0.199909 
0.0120321 -9.64505 -0.278382 
-0.199909 -0.278382 -9.71445 
-9.82622 0.058749 -0.169531 
0.058749 -9.61486 -0.30749 
-0.169531 -0.30749 -9.74126 
-9.70361 0.075368 -0.250918 
0.075368 -9.67263 -0.332231 
-0.250918 -0.332231 -9.8061 
-9.88134 0.086337 -0.200682 
0.086337 -9.53272 -0.326383 
-0.200682 -0.326383 -9.76829 
-9.68788 -0.0779248 -0.199489 
-0.0779248 -9.79696 0.0960034 
-0.199489 0.0960034 -9.87038 
-9.67847 -0.0544664 -0.225317 
-0.0544664 -9.79962 0.0924181 
-0.225317 0.0924181 -9.87713 
-9.59619 -0.0681958 -0.212413 
-0.0681958 -9.83479 0.0941912 
-0.212413 0.0941912 -9.92424 
-9.68169 -0.0443393 -0.223431 
-0.0443393 -9.80218 0.0923247 
-0.223431 0.0923247 -9.87135 
-9.9469 0.00163806 -0.189906 
0.00163806 -9.91134 -0.160468 
-0.189906 -0.160468 -9.94973 
-9.88541 0.0216687 -0.174253 
0.0216687 -9.93976 -0.156733 
-0.174253 -0.156733 -9.98281 
-9.93029 0.00430151 -0.199807 
0.00430151 -9.89945 -0.154863 
-0.199807 -0.154863 -9.97823 
-9.904 0.0342664 -0.188321 
0.0342664 -9.93954 -0.1954 
-0.188321 -0.1954 -9.96443 
-9.35036 -0.513787 0.283859 
-0.513787 -9.81387 -0.260707 
0.283859 -0.260707 -10.0013 
-9.20758 -0.208324 0.332136 
-0.208324 -10.1382 -0.148212 
0.332136 -0.148212 -9.81971 
-9.31384 -0.763197 0.708383 
-0.763197 -9.66466 -0.505201 
0.708383 -0.505201 -10.187 
-9.57623 -0.502419 0.373387 
-0.502419 -9.37102 -0.19746 
0.373387 -0.19746 -10.2183 
-9.71668 0.13403 -0.120692 
0.13403 -9.76907 -0.103738 
-0.120692 -0.103738 -10.1716 
-9.7881 0.0832787 -0.156922 
0.0832787 -9.76171 -0.123754 
-0.156922 -0.123754 -10.1076 
-9.77874 0.106309 -0.171614 
0.106309 -9.69087 -0.191057 
-0.171614 -0.191057 -10.1878 
-9.76284 0.0525168 -0.123434 
0.0525168 -9.82704 -0.146848 
-0.123434 -0.146848 -10.0675 
-9.7073 0.155633 0.17861 
0.155633 -10.4044 -0.231032 
0.17861 -0.231032 -10.3312 
-10.1631 -0.0519668 -0.0787224 
-0.0519668 -9.94211 0.0708966 
-0.0787224 0.0708966 -10.3377 
-10.3051 -0.0869961 0.0184085 
-0.0869961 -10.0294 -0.131641 
0.0184085 -0.131641 -10.1085 
-9.75551 -0.0700229 -0.252212 
-0.0700229 -10.5083 0.250812 
-0.252212 0.250812 -10.1791 
-9.78419 -0.0656267 0.216297 
-0.0656267 -9.84817 -0.151399 
0.216297 -0.151399 -9.92091 
-9.75069 -0.0648396 0.26168 
-0.0648396 -9.86206 -0.157679 
0.26168 -0.157679 -9.94051 
-9.77307 -0.074284 0.206435 
-0.074284 -9.85871 -0.142142 
0.206435 -0.142142 -9.92148 
-9.80026 -0.0376278 0.212132 
-0.0376278 -9.82878 -0.147312 
0.212132 -0.147312 -9.92422 
-6.2469 1.93995 -1.53269 
1.93995 -9.38858 2.1971 
-1.53269 2.1971 -6.11626 
-9.93604 -2.99589 -3.50994 
-2.99589 -10.7621 7.2891 
-3.50994 7.2891 -1.05357 
-8.50609 0.708853 -0.354935 
0.708853 -10.0185 1.55593 
-0.354935 1.55593 -3.22711 
-5.96456 -3.09901 2.45125 
-3.09901 -7.53907 1.34914 
2.45125 1.34914 -8.2481 
-9.32771 -0.0562405 -0.715886 
-0.0562405 -10.068 -0.0363964 
-0.715886 -0.0363964 -8.89058 
-9.3738 -0.0201938 -0.47079 
-0.0201938 -9.82369 -0.111471 
-0.47079 -0.111471 -9.08882 
-9.2845 0.141984 -0.302558 
0.141984 -9.80457 -0.275853 
-0.302558 -0.275853 -9.19723 
-9.37951 -0.0591003 -0.414484 
-0.0591003 -9.71257 0.149162 
-0.414484 0.149162 -9.19423 
-9.83506 0.0181736 -0.405491 
0.0181736 -9.70637 0.518132 
-0.405491 0.518132 -9.81124 
-9.82818 -0.122934 -0.18292 
-0.122934 -9.74856 0.291175 
-0.18292 0.291175 -9.77593 
-9.90153 -0.00615341 -0.413521 
-0.00615341 -9.74401 0.377947 
-0.413521 0.377947 -9.70712 
-9.88852 -0.0213834 -0.404358 
-0.0213834 -9.75107 0.423985 
-0.404358 0.423985 -9.71307 
-9.78753 0.00675007 0.0231172 
0.00675007 -9.67896 0.248812 
0.0231172 0.248812 -9.81351 
-9.77583 -0.0288294 -0.0194097 
-0.0288294 -9.65569 0.215523 
-0.0194097 0.215523 -9.84849 
-9.79973 0.00976232 0.0134185 
0.00976232 -9.63796 0.260969 
0.0134185 0.260969 -9.84232 
-9.78766 0.013801 -0.00111601 
0.013801 -9.66896 0.237759 
-0.00111601 0.237759 -9.82339 
-9.91317 -0.00839874 -0.0195849 
-0.00839874 -9.71934 -0.311621 
-0.0195849 -0.311621 -9.66191 
-9.92663 -0.00466688 -0.127557 
-0.00466688 -9.69998 -0.285289 
-0.127557 -0.285289 -9.66782 
-9.62539 0.0269443 0.0718664 
0.0269443 -9.87329 -0.280766 
0.0718664 -0.280766 -9.79574 
-10.0276 -0.012939 0.0190342 
-0.012939 -9.70665 -0.30855 
0.0190342 -0.30855 -9.56014 
-9.83324 -0.0227891 0.172527 
-0.0227891 -9.87889 -0.0954296 
0.172527 -0.0954296 -9.0191 
-9.72332 -0.00373906 0.0727298 
-0.00373906 -9.87118 0.0707533 
0.0727298 0.0707533 -9.13673 
-9.8341 -0.0609692 0.121048 
-0.0609692 -9.83014 -0.0637795 
0.121048 -0.0637795 -9.06699 
-9.8257 -0.06756 0.0743737 
-0.06756 -9.74741 -0.185932 
0.0743737 -0.185932 -9.15812 
-8.75495 0.0834708 -0.677558 
0.0834708 -9.80089 -0.0738832 
-0.677558 -0.0738832 -8.84866 
-8.90541 0.112063 -0.668004 
0.112063 -10.0683 -0.280816 
-0.668004 -0.280816 -8.43081 
-8.93609 -0.426487 -0.820053 
-0.426487 -9.15066 -0.665213 
-0.820053 -0.665213 -9.31775 
-8.94852 -0.323599 -0.981974 
-0.323599 -9.60377 -0.522089 
-0.981974 -0.522089 -8.85221 
-9.7954 -0.0273495 -0.181876 
-0.0273495 -9.80924 0.129445 
-0.181876 0.129445 -9.93439 
-9.77535 -0.0766353 -0.188348 
-0.0766353 -9.81182 0.141782 
-0.188348 0.141782 -9.95186 
-9.79657 -0.0261292 -0.153853 
-0.0261292 -9.81076 0.106943 
-0.153853 0.106943 -9.93171 
-9.79553 -0.0176646 -0.186589 
-0.0176646 -9.82566 0.148313 
-0.186589 0.148313 -9.91784 
-9.65442 0.0651877 0.185028 
0.0651877 -9.73951 0.0912748 
0.185028 0.0912748 -9.82866 
-9.62809 0.0885442 0.193183 
0.0885442 -9.75177 0.0401927 
0.193183 0.0401927 -9.84275 
-9.62335 0.0660042 0.230524 
0.0660042 -9.852 0.202164 
0.230524 0.202164 -9.74725 
-9.69901 -0.0435561 0.314773 
-0.0435561 -9.72188 0.028691 
0.314773 0.028691 -9.80171 
-13.2404 0.797415 -4.64689 
0.797415 -15.841 5.11768 
-4.64689 5.11768 9.86328 
-6.34826 -2.77399 -2.86957 
-2.77399 -14.5876 4.13766 
-2.86957 4.13766 1.71779 
-1.16892 5.55574 4.81539 
5.55574 -3.33557 -1.23291 
4.81539 -1.23291 -14.7136 
-9.9989 -6.7589 0.0591921 
-6.7589 -0.687184 10.3475 
0.0591921 10.3475 -8.53203 
-9.70035 0.116125 0.106069 
0.116125 -9.72662 0.0936815 
0.106069 0.0936815 -10.0056 
-9.76304 0.104949 0.086763 
0.104949 -9.71518 0.0784629 
0.086763 0.0784629 -9.95433 
-9.74746 0.101579 0.164749 
0.101579 -9.76693 0.101337 
0.164749 0.101337 -9.91815 
-9.67762 0.0993153 0.110685 
0.0993153 -9.7537 0.0839219 
0.110685 0.0839219 -10.0012 
-9.75606 -0.0292762 -0.213024 
-0.0292762 -9.81682 0.0953215 
-0.213024 0.0953215 -9.91173 
-9.76157 -0.0359246 -0.18019 
-0.0359246 -9.80794 0.106162 
-0.18019 0.106162 -9.9151 
-9.77495 -0.023109 -0.218357 
-0.023109 -9.8104 0.100225 
-0.218357 0.100225 -9.89926 
-9.75461 -0.0364428 -0.203184 
-0.0364428 -9.81579 0.106579 
-0.203184 0.106579 -9.91422 
-9.92576 -0.00247378 0.253589 
-0.00247378 -9.97544 -0.116325 
0.253589 -0.116325 -9.75086 
-9.86687 0.00527116 0.182722 
0.00527116 -9.92218 -0.133314 
0.182722 -0.133314 -9.86301 
-9.90382 -0.0247353 0.22898 
-0.0247353 -9.99691 -0.17228 
0.22898 -0.17228 -9.75134 
-9.94246 -0.00726676 0.226511 
-0.00726676 -9.97826 -0.162149 
0.226511 -0.162149 -9.73134 
-9.75739 0.102079 -0.0878452 
0.102079 -9.74833 -0.101026 
-0.0878452 -0.101026 -9.95444 
-9.80261 0.115224 -0.21653 
0.115224 -9.6364 -0.130605 
-0.21653 -0.130605 -10.0212 
-9.80871 0.0578522 -0.106533 
0.0578522 -9.78083 -0.192645 
-0.106533 -0.192645 -9.87062 
-9.73304 0.0766506 -0.0697572 
0.0766506 -9.72979 -0.132669 
-0.0697572 -0.132669 -9.99733 
-10.1484 0.0926408 0.139873 
0.0926408 -9.63654 0.386926 
0.139873 0.386926 -8.9967 
-10.1133 0.100758 0.0892087 
0.100758 -9.75584 0.527823 
0.0892087 0.527823 -8.91249 
-9.99865 0.247194 0.276451 
0.247194 -9.74049 0.325147 
0.276451 0.325147 -9.04252 
-9.6215 0.000684197 0.185028 
0.000684197 -9.54407 0.474692 
0.185028 0.474692 -9.61608 
-9.44183 -0.0594814 -0.443927 
-0.0594814 -9.69523 0.217212 
-0.443927 0.217212 -10.0575 
-9.62222 -0.0685855 -0.609446 
-0.0685855 -9.68854 0.13509 
-0.609446 0.13509 -9.88374 
-9.64631 -0.190391 -0.829828 
-0.190391 -9.4183 0.125815 
-0.829828 0.125815 -10.1299 
-10.1045 -0.101538 -0.513316 
-0.101538 -9.45524 0.532663 
-0.513316 0.532663 -9.6348 
-9.90349 -0.00468513 0.0367103 
-0.00468513 -9.91823 -0.227378 
0.0367103 -0.227378 -9.93219 
-9.91889 0.00496104 0.0277829 
0.00496104 -9.89814 -0.251182 
0.0277829 -0.251182 -9.93688 
-9.92733 -0.00185909 0.0328723 
-0.00185909 -9.90441 -0.232396 
0.0328723 -0.232396 -9.92217 
-9.92319 0.00130926 0.0240087 
0.00130926 -9.90126 -0.250974 
0.0240087 -0.250974 -9.92946 
-9.93491 -0.0114978 0.205757 
-0.0114978 -9.96584 -0.105101 
0.205757 -0.105101 -9.94143 
-9.93369 -0.0119529 0.211867 
-0.0119529 -9.99474 -0.13682 
0.211867 -0.13682 -9.91376 
-9.9212 -0.0191159 0.21556 
-0.0191159 -9.96905 -0.0986347 
0.21556 -0.0986347 -9.95193 
-9.95619 -0.0171415 0.221221 
-0.0171415 -9.94737 -0.125543 
0.221221 -0.125543 -9.93862 
-9.78705 -0.00984676 -0.0688433 
-0.00984676 -9.66646 0.18043 
-0.0688433 0.18043 -9.94716 
-9.60096 -0.137367 -0.173956 
-0.137367 -9.76314 0.203866 
-0.173956 0.203866 -10.0366 
-9.63778 -0.100775 -0.114659 
-0.100775 -9.90589 0.0039044 
-0.114659 0.0039044 -9.857 
-9.74768 -0.047238 -0.327829 
-0.047238 -9.85213 -0.0268045 
-0.327829 -0.0268045 -9.80087 
-9.91385 -0.13975 0.122377 
-0.13975 -9.53812 -0.344809 
0.122377 -0.344809 -9.77677 
-9.85476 -0.0832591 0.0947992 
-0.0832591 -9.53933 -0.345941 
0.0947992 -0.345941 -9.83465 
-9.89492 -0.100572 0.158611 
-0.100572 -9.55811 -0.374598 
0.158611 -0.374598 -9.77571 
-9.86306 -0.0452318 0.132066 
-0.0452318 -9.56869 -0.314202 
0.132066 -0.314202 -9.79699 
-9.94795 -0.0159805 0.0962441 
-0.0159805 -9.89377 -0.220037 
0.0962441 -0.220037 -9.93477 
-9.9304 -0.0128115 0.116173 
-0.0128115 -9.9212 -0.222236 
0.116173 -0.222236 -9.92488 
-9.93371 -0.0171836 0.121999 
-0.0171836 -9.92999 -0.227033 
0.121999 -0.227033 -9.91279 
-9.95012 -0.0164582 0.105837 
-0.0164582 -9.91149 -0.215951 
0.105837 -0.215951 -9.91487 
-9.76208 0.398745 -0.043838 
0.398745 -8.52904 1.1485 
-0.043838 1.1485 -9.89677 
-9.09821 0.114387 0.0105503 
0.114387 -9.03564 0.790898 
0.0105503 0.790898 -10.054 
-9.89276 -0.333064 0.697261 
-0.333064 -9.75477 0.765764 
0.697261 0.765764 -8.54037 
-9.6971 -0.176137 0.531179 
-0.176137 -8.64878 0.939817 
0.531179 0.939817 -9.84201 
-9.95105 0.00919604 -0.168771 
0.00919604 -9.9451 -0.16356 
-0.168771 -0.16356 -9.97188 
-9.92976 0.0049395 -0.171592 
0.0049395 -9.93734 -0.170504 
-0.171592 -0.170504 -10.0009 
-9.9446 0.00107932 -0.162149 
0.00107932 -9.94041 -0.166403 
-0.162149 -0.166403 -9.98302 
-9.95139 0.00546605 -0.169965 
0.00546605 -9.95383 -0.159659 
-0.169965 -0.159659 -9.96282 
-10.1934 -0.00513659 -0.158685 
-0.00513659 -9.89985 -0.18468 
-0.158685 -0.18468 -10.5271 
-10.182 0.0767072 0.163059 
0.0767072 -10.1456 0.262784 
0.163059 0.262784 -10.2928 
-10.0986 0.386822 -0.0833169 
0.386822 -9.84843 -0.0989081 
-0.0833169 -0.0989081 -10.6733 
-10.1778 0.106481 -0.0869961 
0.106481 -9.92689 -0.0147555 
-0.0869961 -0.0147555 -10.5157 
-9.57427 0.137061 -0.287426 
0.137061 -9.73377 -0.347822 
-0.287426 -0.347822 -10.0503 
-9.63144 0.0902545 -0.188868 
0.0902545 -9.79009 -0.261178 
-0.188868 -0.261178 -9.93683 
-9.61354 0.176887 -0.313647 
0.176887 -9.68763 -0.33255 
-0.313647 -0.33255 -10.0572 
-9.68286 0.092212 -0.265808 
0.092212 -9.76021 -0.209402 
-0.265808 -0.209402 -9.91528 
-9.97635 0.393909 0.258883 
0.393909 -9.9217 0.104446 
0.258883 0.104446 -10.2168 
-9.96744 -0.158241 0.200662 
-0.158241 -10.1517 -0.0072069 
0.200662 -0.0072069 -9.99569 
-9.8381 0.391655 -0.222357 
0.391655 -10.1295 0.178485 
-0.222357 0.178485 -10.1473 
-9.72018 -0.348598 -0.0421572 
-0.348598 -9.97628 -0.0994984 
-0.0421572 -0.0994984 -10.4184 
-10.8127 -0.0355165 -3.36319 
-0.0355165 -8.25528 -1.44185 
-3.36319 -1.44185 -6.58373 
-9.30803 -0.681798 -1.5559 
-0.681798 -8.4248 1.95954 
-1.5559 1.95954 -7.91891 
-10.5892 -0.170148 -1.47449 
-0.170148 -8.95652 -0.837096 
-1.47449 -0.837096 -6.106 
-12.9239 -0.559844 -0.59719 
-0.559844 -6.88201 0.59432 
-0.59719 0.59432 -5.84588 
-9.83534 0.026869 -0.102821 
0.026869 -9.74271 -0.365358 
-0.102821 -0.365358 -9.66653 
-9.9732 0.0370918 -0.0855103 
0.0370918 -9.7077 -0.317422 
-0.0855103 -0.317422 -9.56368 
-9.8509 0.00121901 -0.0937362 
0.00121901 -9.76388 -0.328179 
-0.0937362 -0.328179 -9.6298 
-9.93128 0.0535344 -0.0999226 
0.0535344 -9.67188 -0.233059 
-0.0999226 -0.233059 -9.64142 
-9.90196 -0.224472 0.0672952 
-0.224472 -9.29137 0.416585 
0.0672952 0.416585 -8.55151 
-10.3474 -0.145671 -0.29193 
-0.145671 -9.25538 0.850434 
-0.29193 0.850434 -8.14202 
-10.6139 -0.0360635 -0.426841 
-0.0360635 -9.03116 0.730225 
-0.426841 0.730225 -8.09975 
-9.75034 -0.172099 -0.205268 
-0.172099 -8.95411 0.71053 
-0.205268 0.71053 -9.04038 
-8.74767 -1.83091 1.71247 
-1.83091 -10.7506 0.825928 
1.71247 0.825928 -11.4278 
-11.4323 -3.37693 0.191403 
-3.37693 -10.337 -0.0694509 
0.191403 -0.0694509 -9.15665 
-7.74935 0.0582259 1.26324 
0.0582259 -10.2251 -0.139267 
1.26324 -0.139267 -12.9516 
-9.47153 -0.201593 2.85453 
-0.201593 -9.23301 0.0260003 
2.85453 0.0260003 -12.2215 
-9.9072 0.00780982 0.107548 
0.00780982 -9.84788 0.221301 
0.107548 0.221301 -9.82519 
-10.004 -0.0308222 0.132511 
-0.0308222 -9.89034 0.277542 
0.132511 0.277542 -9.68593 
-9.92463 0.0258836 0.0130993 
0.0258836 -9.82797 0.267469 
0.0130993 0.267469 -9.82767 
-9.89158 0.00524047 0.00586865 
0.00524047 -9.89862 0.244508 
0.00586865 0.244508 -9.79007 
-10.463 -0.867464 -0.114637 
-0.867464 -8.9473 -0.737419 
-0.114637 -0.737419 -11.2754 
-10.3526 -0.0527812 -1.05062 
-0.0527812 -7.54397 0.160486 
-1.05062 0.160486 -12.7891 
-9.94992 -0.889841 0.713266 
-0.889841 -8.79014 -1.32318 
0.713266 -1.32318 -11.9456 
-12.3133 0.337439 0.166065 
0.337439 -8.13869 -0.576039 
0.166065 -0.576039 -10.2337 
-9.57589 -0.102183 0.268303 
-0.102183 -9.81603 -0.352198 
0.268303 -0.352198 -9.98822 
-9.67562 -0.123367 0.1934 
-0.123367 -9.72527 -0.224199 
0.1934 -0.224199 -9.97926 
-9.6138 -0.0799508 0.291163 
-0.0799508 -9.77689 -0.231782 
0.291163 -0.231782 -9.98945 
-9.60563 -0.202569 0.368184 
-0.202569 -9.82613 -0.377928 
0.368184 -0.377928 -9.94838 
-9.95656 0.0188539 0.19238 
0.0188539 -9.9128 0.00822145 
0.19238 0.00822145 -10.0322 
-9.95084 0.0182126 0.260026 
0.0182126 -10.0037 0.0343995 
0.260026 0.0343995 -9.94707 
-9.93639 -0.00185133 0.261229 
-0.00185133 -9.99515 0.0138778 
0.261229 0.0138778 -9.97005 
-9.93558 0.0244023 0.231846 
0.0244023 -9.97989 0.0030235 
0.231846 0.0030235 -9.98612 
-9.80223 -0.0364061 -0.0435737 
-0.0364061 -9.73592 0.191503 
-0.0435737 0.191503 -9.77909 
-9.71277 -0.0790439 0.0327226 
-0.0790439 -9.69596 0.230245 
0.0327226 0.230245 -9.90852 
-9.79675 0.0586516 0.0589028 
0.0586516 -9.6788 0.224675 
0.0589028 0.224675 -9.8417 
-9.85645 0.0328944 -0.0473122 
0.0328944 -9.64676 0.215781 
-0.0473122 0.215781 -9.81403 
-9.79117 -0.0302965 0.0794999 
-0.0302965 -9.79476 -0.095489 
0.0794999 -0.095489 -10.0068 
-9.80851 -0.02984 0.0456944 
-0.02984 -9.80867 -0.00369837 
0.0456944 -0.00369837 -9.97555 
-9.77748 -0.0487334 0.0842807 
-0.0487334 -9.77268 -0.0354003 
0.0842807 -0.0354003 -10.0426 
-9.76115 -0.0783802 0.0833419 
-0.0783802 -9.7842 -0.0553703 
0.0833419 -0.0553703 -10.0474 
-10.7039 -0.428627 0.210463 
-0.428627 -9.34888 -0.20688 
0.210463 -0.20688 -10.5568 
-9.48895 0.438227 0.0757755 
0.438227 -9.95416 -0.479284 
0.0757755 -0.479284 -11.1665 
-10.6031 -0.027205 -0.261049 
-0.027205 -9.44189 0.262034 
-0.261049 0.262034 -10.5646 
-10.1481 0.300429 -0.25025 
0.300429 -10.2016 0.0943044 
-0.25025 0.0943044 -10.2599 
-7.34025 0.0348511 1.33962 
0.0348511 -12.0078 0.795475 
1.33962 0.795475 -19.072 
-10.12 -0.493247 -2.60207 
-0.493247 -15.3127 0.216989 
-2.60207 0.216989 -12.9873 
5.79212 0.471693 5.43635 
0.471693 -13.4797 0.094104 
5.43635 0.094104 -30.7324 
-13.4727 -0.647425 4.48141 
-0.647425 -11.7256 1.34612 
4.48141 1.34612 -13.2218 
-9.5694 -0.10031 -0.331837 
-0.10031 -9.42559 0.344942 
-0.331837 0.344942 -9.88681 
-9.95293 -0.0944895 -0.405207 
-0.0944895 -9.36024 0.376994 
-0.405207 0.376994 -9.56863 
-9.31184 -0.104212 -0.814984 
-0.104212 -9.7997 0.537648 
-0.814984 0.537648 -9.77026 
-9.84272 -0.0142287 -0.398308 
-0.0142287 -9.53197 0.298504 
-0.398308 0.298504 -9.50712 
-9.79332 -0.00963658 0.0399294 
-0.00963658 -9.53123 0.217529 
0.0399294 0.217529 -9.75986 
-9.74594 0.00880067 0.0220071 
0.00880067 -9.5918 0.276983 
0.0220071 0.276983 -9.74667 
-9.74333 -0.00383637 0.0464652 
-0.00383637 -9.51904 0.248489 
0.0464652 0.248489 -9.82205 
-9.82028 0.0113307 0.0420891 
0.0113307 -9.44968 0.255043 
0.0420891 0.255043 -9.81445 
-9.83899 0.126461 -0.23633 
0.126461 -9.75602 -0.0980975 
-0.23633 -0.0980975 -9.93799 
-9.69683 0.0148775 -0.318634 
0.0148775 -10.0061 -0.277152 
-0.318634 -0.277152 -9.8301 
-9.71131 0.101778 -0.254616 
0.101778 -9.79458 -0.277803 
-0.254616 -0.277803 -10.0271 
-9.73137 0.0743972 -0.280987 
0.0743972 -9.85392 -0.233824 
-0.280987 -0.233824 -9.94771 
-9.90223 0.0162422 -0.187276 
0.0162422 -9.92944 -0.118616 
-0.187276 -0.118616 -9.93586 
-9.90221 0.0322625 -0.239898 
0.0322625 -9.89852 -0.200744 
-0.239898 -0.200744 -9.9668 
-9.90345 0.0270854 -0.200296 
0.0270854 -9.90585 -0.133526 
-0.200296 -0.133526 -9.95822 
-9.86643 0.0471196 -0.179443 
0.0471196 -9.9188 -0.113482 
-0.179443 -0.113482 -9.9823 
-9.47413 0.113513 0.483242 
0.113513 -10.2101 -0.0404138 
0.483242 -0.0404138 -8.8371 
-9.537 0.131617 0.451611 
0.131617 -10.2068 0.171202 
0.451611 0.171202 -8.77756 
-10.0982 -0.0754675 0.251613 
-0.0754675 -9.4025 0.0969759 
0.251613 0.0969759 -9.02063 
-9.59348 -0.0494413 0.673163 
-0.0494413 -10.2119 -0.0469589 
0.673163 -0.0469589 -8.71596 
-9.92432 0.011301 -0.169725 
0.011301 -9.92645 -0.211905 
-0.169725 -0.211905 -9.94793 
-9.9686 0.00970332 -0.149723 
0.00970332 -9.92443 -0.202705 
-0.149723 -0.202705 -9.90567 
-9.95158 -0.000206345 -0.143234 
-0.000206345 -9.91655 -0.19789 
-0.143234 -0.19789 -9.93057 
-9.94985 0.0285192 -0.157306 
0.0285192 -9.90676 -0.22579 
-0.157306 -0.22579 -9.94209 
-9.89087 -0.0106632 0.188876 
-0.0106632 -9.92664 -0.138062 
0.188876 -0.138062 -9.96162 
-9.92545 -0.0412508 0.196174 
-0.0412508 -9.89039 -0.143911 
0.196174 -0.143911 -9.96329 
-9.90973 -0.0221182 0.196135 
-0.0221182 -9.91492 -0.159795 
0.196135 -0.159795 -9.95448 
-9.9037 -0.0248774 0.193055 
-0.0248774 -9.93787 -0.225772 
0.193055 -0.225772 -9.93756 
-10.164 0.604048 -0.177905 
0.604048 -8.89518 1.22842 
-0.177905 1.22842 -11.0176 
-10.3554 0.177684 0.0225182 
0.177684 -8.56457 0.402035 
0.0225182 0.402035 -11.1569 
-10.2643 -0.204469 -0.0965425 
-0.204469 -9.16163 0.271866 
-0.0965425 0.271866 -10.6509 
-10.4074 0.748801 0.0170675 
0.748801 -9.77028 1.12508 
0.0170675 1.12508 -9.89914 
-9.88347 -0.0326287 0.152186 
-0.0326287 -9.80645 -0.242575 
0.152186 -0.242575 -9.87737 
-9.88999 -0.00946732 0.0970761 
-0.00946732 -9.78396 -0.242925 
0.0970761 -0.242925 -9.89335 
-9.91619 -0.0559261 0.160823 
-0.0559261 -9.78615 -0.262836 
0.160823 -0.262836 -9.86496 
-9.79343 -0.0400227 0.141245 
-0.0400227 -9.88434 -0.185216 
0.141245 -0.185216 -9.88953 
-9.9284 0.0336927 0.127557 
0.0336927 -9.84788 0.220187 
0.127557 0.220187 -9.97356 
-9.90241 0.0387831 0.137002 
0.0387831 -9.87471 0.208921 
0.137002 0.208921 -9.97272 
-9.90393 0.0326897 0.134896 
0.0326897 -9.88157 0.219723 
0.134896 0.219723 -9.96434 
-9.91493 0.00965148 0.0965579 
0.00965148 -9.87692 0.139067 
0.0965579 0.139067 -9.95799 
-9.76206 0.0269206 0.29917 
0.0269206 -9.91759 -0.0110688 
0.29917 -0.0110688 -9.8238 
-9.80455 -0.0629478 0.25585 
-0.0629478 -9.8429 0.0543626 
0.25585 0.0543626 -9.856 
-9.77153 0.0201338 0.298091 
0.0201338 -9.92381 0.0521917 
0.298091 0.0521917 -9.80811 
-9.71853 0.106743 0.255611 
0.106743 -10.0326 0.104806 
0.255611 0.104806 -9.75231 
-9.78227 -0.0529667 0.162948 
-0.0529667 -9.76637 -0.151624 
0.162948 -0.151624 -9.91113 
-9.76524 -0.043289 0.168499 
-0.043289 -9.76176 -0.145545 
0.168499 -0.145545 -9.93277 
-9.74921 -0.0275926 0.174709 
-0.0275926 -9.7693 -0.122358 
0.174709 -0.122358 -9.94126 
-9.79101 -0.0470928 0.139124 
-0.0470928 -9.7741 -0.135701 
0.139124 -0.135701 -9.89467 
-9.93795 -0.0121666 -0.204103 
-0.0121666 -9.93928 -0.120709 
-0.204103 -0.120709 -9.99079 
-9.9443 -0.00180664 -0.193814 
-0.00180664 -9.95114 -0.119779 
-0.193814 -0.119779 -9.97258 
-9.94676 0.0110151 -0.202615 
0.0110151 -9.94523 -0.126932 
-0.202615 -0.126932 -9.97603 
-9.94552 0.010902 -0.202566 
0.010902 -9.95093 -0.125612 
-0.202566 -0.125612 -9.97158 
-9.0129 -0.197396 -0.57758 
-0.197396 -10.5266 0.341441 
-0.57758 0.341441 -9.0373 
-9.41016 -0.0608587 -0.515063 
-0.0608587 -9.77924 0.145695 
-0.515063 0.145695 -9.38738 
-9.33331 -0.0844332 -0.565126 
-0.0844332 -9.94039 0.0373921 
-0.565126 0.0373921 -9.30309 
-9.26668 0.0194858 -0.509449 
0.0194858 -9.98112 -0.00378544 
-0.509449 -0.00378544 -9.32898 
-9.93244 0.0401765 0.196081 
0.0401765 -9.87911 0.280415 
0.196081 0.280415 -9.85875 
-9.94699 0.058602 0.158191 
0.058602 -9.85771 0.232951 
0.158191 0.232951 -9.86559 
-9.9592 0.0416047 0.202359 
0.0416047 -9.83166 0.26371 
0.202359 0.26371 -9.87945 
-9.93959 0.0191045 0.131877 
0.0191045 -9.85043 0.240495 
0.131877 0.240495 -9.88027 
-11.0673 -0.318123 0.317403 
-0.318123 -11.8298 -2.07247 
0.317403 -2.07247 -11.3234 
-13.348 0.570929 -0.309341 
0.570929 -9.4132 -0.862444 
-0.309341 -0.862444 -11.4592 
-7.33836 -0.797561 -1.7985 
-0.797561 -2.84588 2.63078 
-1.7985 2.63078 -24.0361 
-12.3299 0.895197 0.349855 
0.895197 -10.9005 2.29378 
0.349855 2.29378 -10.99 
-9.93125 0.0255746 -0.0190524 
0.0255746 -9.96602 -0.10048 
-0.0190524 -0.10048 -9.65503 
-9.99038 0.0309178 0.0212801 
0.0309178 -9.95389 -0.0458486 
0.0212801 -0.0458486 -9.60803 
-9.9046 -0.0311617 -0.0140787 
-0.0311617 -9.89086 -0.0904075 
-0.0140787 -0.0904075 -9.75685 
-9.89373 0.0456669 0.052593 
0.0456669 -9.90181 -0.177255 
0.052593 -0.177255 -9.75676 
-9.94716 0.00447946 -0.103424 
0.00447946 -9.91312 0.216273 
-0.103424 0.216273 -9.91897 
-9.95883 -0.0458661 -0.108958 
-0.0458661 -9.8731 0.22145 
-0.108958 0.22145 -9.94732 
-9.9666 0.0144672 -0.121061 
0.0144672 -9.90607 0.22354 
-0.121061 0.22354 -9.90658 
-9.99127 -0.0381037 -0.138 
-0.0381037 -9.9169 0.210974 
-0.138 0.210974 -9.87108 
-9.81925 -0.00772759 -0.163194 
-0.00772759 -9.81588 0.183655 
-0.163194 0.183655 -9.89473 
-9.78899 -0.0762621 -0.184808 
-0.0762621 -9.78357 0.195528 
-0.184808 0.195528 -9.9573 
-9.80516 -0.0511742 -0.16001 
-0.0511742 -9.77864 0.19061 
-0.16001 0.19061 -9.94606 
-9.80729 -0.0657782 -0.179244 
-0.0657782 -9.77988 0.180005 
-0.179244 0.180005 -9.94269 
-9.90401 -0.0186764 0.209407 
-0.0186764 -9.85505 -0.189947 
0.209407 -0.189947 -9.52014 
-9.8698 -0.0508552 0.221048 
-0.0508552 -9.83437 -0.250247 
0.221048 -0.250247 -9.57504 
-9.85737 0.00393038 0.244739 
0.00393038 -9.8462 -0.242131 
0.244739 -0.242131 -9.57563 
-9.80985 -0.094315 0.157718 
-0.094315 -9.829 -0.275289 
0.157718 -0.275289 -9.64035 
-9.91351 -0.0331886 -0.104076 
-0.0331886 -9.82593 -0.172558 
-0.104076 -0.172558 -9.78717 
-9.75076 0.00696651 -0.211142 
0.00696651 -9.8529 -0.00477965 
-0.211142 -0.00477965 -9.92296 
-9.85181 0.0747554 -0.141073 
0.0747554 -9.75191 -0.182692 
-0.141073 -0.182692 -9.92288 
-9.72203 0.0251823 -0.206074 
0.0251823 -9.81419 -0.139436 
-0.206074 -0.139436 -9.99039 
-11.0777 -0.274196 0.314761 
-0.274196 -5.0174 0.638463 
0.314761 0.638463 -2.93663 
-7.42197 -0.625734 1.28391 
-0.625734 -8.86109 1.94152 
1.28391 1.94152 -2.74869 
-10.9241 -0.288638 0.741593 
-0.288638 -5.18226 1.1143 
0.741593 1.1143 -2.92536 
-7.95015 1.43161 -0.678288 
1.43161 -9.02887 1.90438 
-0.678288 1.90438 -2.05273 
-10.0066 0.251543 -0.119521 
0.251543 -9.35487 0.089653 
-0.119521 0.089653 -10.5712 
-9.9035 0.322053 -0.242131 
0.322053 -9.31246 0.268784 
-0.242131 0.268784 -10.7166 
-10.0197 0.350012 -0.0119047 
0.350012 -9.37129 0.101503 
-0.0119047 0.101503 -10.5417 
-10.2479 0.252359 0.434518 
0.252359 -9.37938 0.265044 
0.434518 0.265044 -10.3053 
-9.66333 0.21471 -0.513576 
0.21471 -10.0058 0.395189 
-0.513576 0.395189 -9.22658 
-9.56244 0.00681512 -0.409332 
0.00681512 -9.81678 0.165187 
-0.409332 0.165187 -9.51644 
-9.72611 -0.0741052 -0.258888 
-0.0741052 -9.95423 -0.0230315 
-0.258888 -0.0230315 -9.21532 
-9.60311 -0.137875 -0.415166 
-0.137875 -9.96497 0.130383 
-0.415166 0.130383 -9.32758 
-9.80757 0.0295366 0.25473 
0.0295366 -9.87268 0.124873 
0.25473 0.124873 -9.87733 
-9.86452 0.0421904 0.210295 
0.0421904 -9.9346 0.156043 
0.210295 0.156043 -9.75846 
-9.82442 0.0619562 0.242934 
0.0619562 -9.92553 0.169575 
0.242934 0.169575 -9.80762 
-9.89666 0.00401933 0.290318 
0.00401933 -9.87693 0.234887 
0.290318 0.234887 -9.78399 
-9.74669 0.042701 0.210653 
0.042701 -9.8166 0.0750075 
0.210653 0.0750075 -9.82605 
-9.79264 -0.0407357 0.210141 
-0.0407357 -9.75143 0.0353794 
0.210141 0.0353794 -9.84528 
-9.80309 -0.0174804 0.216329 
-0.0174804 -9.80178 0.0448572 
0.216329 0.0448572 -9.78447 
-9.74335 0.0156585 0.215554 
0.0156585 -9.83463 0.0423369 
0.215554 0.0423369 -9.81136 
-9.81023 -0.0477093 -0.174592 
-0.0477093 -9.80647 0.0966256 
-0.174592 0.0966256 -9.88648 
-9.78548 -0.0190618 -0.164475 
-0.0190618 -9.84058 0.101566 
-0.164475 0.101566 -9.87713 
-9.78276 -0.0221081 -0.162947 
-0.0221081 -9.83326 0.1022 
-0.162947 0.1022 -9.88716 
-9.79429 -0.0340022 -0.182827 
-0.0340022 -9.80884 0.111925 
-0.182827 0.111925 -9.90007 
-9.6254 -0.130259 0.00438734 
-0.130259 -9.96342 0.189703 
0.00438734 0.189703 -10.0962 
-9.86848 -0.052783 -0.0813402 
-0.052783 -9.85693 -0.200077 
-0.0813402 -0.200077 -9.95964 
-9.81321 -0.0134051 -0.19403 
-0.0134051 -9.88199 0.121188 
-0.19403 0.121188 -9.98985 
-9.79042 -0.167147 -0.282839 
-0.167147 -9.96525 -0.00406656 
-0.282839 -0.00406656 -9.92937 
-10.0293 -0.098059 -0.0799888 
-0.098059 -9.62027 0.509165 
-0.0799888 0.509165 -9.66567 
-10.0686 -0.193917 -0.24854 
-0.193917 -9.56415 0.478889 
-0.24854 0.478889 -9.68245 
-10.3666 -0.0141953 -0.122942 
-0.0141953 -9.37243 0.606007 
-0.122942 0.606007 -9.5762 
-9.88032 0.0907259 0.0983619 
0.0907259 -9.60439 0.374717 
0.0983619 0.374717 -9.83049 
-9.50661 -0.119515 0.49306 
-0.119515 -9.44604 -0.329416 
0.49306 -0.329416 -9.5965 
-9.79093 -0.19666 0.406262 
-0.19666 -9.27856 -0.455985 
0.406262 -0.455985 -9.47966 
-9.67976 -0.357089 0.670116 
-0.357089 -9.36929 -0.495257 
0.670116 -0.495257 -9.5001 
-9.6234 -0.16414 0.515981 
-0.16414 -9.44154 -0.385556 
0.515981 -0.385556 -9.4842 
-10.0755 0.0694343 0.00944682 
0.0694343 -10.0578 0.0241381 
0.00944682 0.0241381 -10.0192 
-10.0482 -0.0972922 0.178569 
-0.0972922 -9.92377 0.1805 
0.178569 0.1805 -10.1804 
-10.0215 -0.0716367 0.0185048 
-0.0716367 -10.0252 0.00931332 
0.0185048 0.00931332 -10.1057 
-10.005 0.101224 -0.058462 
0.101224 -9.99609 -0.0221087 
-0.058462 -0.0221087 -10.1514 
-9.86818 -0.0428504 0.0468306 
-0.0428504 -9.85605 0.00943168 
0.0468306 0.00943168 -10.0781 
-9.91513 -0.0466869 0.0346869 
-0.0466869 -9.83434 -0.0625188 
0.0346869 -0.0625188 -10.0529 
-9.90946 0.020527 0.0129693 
0.020527 -9.86317 -0.0616319 
0.0129693 -0.0616319 -10.0297 
-9.92935 -0.0910162 -0.00755 
-0.0910162 -9.81343 0.00568698 
-0.00755 0.00568698 -10.0596 
-9.71937 0.0923154 -0.277081 
0.0923154 -9.68255 -0.202685 
-0.277081 -0.202685 -10.1991 
-9.65391 0.193601 -0.416401 
0.193601 -9.6281 -0.136452 
-0.416401 -0.136452 -10.319 
-9.72201 0.125784 -0.287479 
0.125784 -9.7733 -0.161358 
-0.287479 -0.161358 -10.1057 
-9.93911 0.248109 -0.445321 
0.248109 -9.74856 -0.403436 
-0.445321 -0.403436 -9.91336 
-9.42618 0.381474 -0.638474 
0.381474 -10.3279 0.541937 
-0.638474 0.541937 -8.87459 
-9.75765 -0.0764347 -0.784524 
-0.0764347 -10.6217 -0.0267425 
-0.784524 -0.0267425 -8.24932 
-9.45071 0.178561 -0.304527 
0.178561 -9.84671 0.12121 
-0.304527 0.12121 -9.33121 
-9.80422 -0.121523 -0.804775 
-0.121523 -10.3489 0.565602 
-0.804775 0.565602 -8.47555 
-9.24152 -0.173276 0.607038 
-0.173276 -9.71305 -0.208992 
0.607038 -0.208992 -10.2185 
-9.35943 -0.0995125 0.468637 
-0.0995125 -9.58624 -0.0984186 
0.468637 -0.0984186 -10.2274 
-9.36366 -0.208863 0.342434 
-0.208863 -9.53884 -0.240707 
0.342434 -0.240707 -10.2705 
-9.45914 -0.0963803 0.432841 
-0.0963803 -9.58707 -0.127542 
0.432841 -0.127542 -10.1268 
-9.79428 0.00331487 -0.0531491 
0.00331487 -9.74666 0.229907 
-0.0531491 0.229907 -9.85376 
-9.81472 -0.0193914 -0.0361831 
-0.0193914 -9.7276 0.250661 
-0.0361831 0.250661 -9.85237 
-9.85442 -0.0117556 -0.00682621 
-0.0117556 -9.69947 0.220101 
-0.00682621 0.220101 -9.84081 
-9.82704 -0.0164511 -0.0213371 
-0.0164511 -9.73849 0.236859 
-0.0213371 0.236859 -9.82917 
-9.95142 0.000292649 0.0234795 
0.000292649 -9.95268 0.235949 
0.0234795 0.235949 -9.99577 
-9.99322 0.00700403 0.0301218 
0.00700403 -9.93826 0.249869 
0.0301218 0.249869 -9.96838 
-9.98309 0.00955937 0.0410178 
0.00955937 -9.95346 0.244418 
0.0410178 0.244418 -9.96332 
-9.98256 0.00697077 0.0305624 
0.00697077 -9.9459 0.233569 
0.0305624 0.233569 -9.9714 
-9.87277 0.0141354 0.144417 
0.0141354 -9.9022 0.189339 
0.144417 0.189339 -9.8224 
-9.86551 0.0520485 0.132786 
0.0520485 -9.83313 0.202833 
0.132786 0.202833 -9.89873 
-9.82872 0.0140208 0.0846527 
0.0140208 -9.82731 0.183186 
0.0846527 0.183186 -9.94134 
-9.83514 0.00304782 0.131848 
0.00304782 -9.82546 0.206948 
0.131848 0.206948 -9.93678 
-9.73636 -0.0582023 -0.0840854 
-0.0582023 -9.75826 0.0855556 
-0.0840854 0.0855556 -10.0014 
-9.77928 -0.069099 -0.0929943 
-0.069099 -9.73575 0.0918961 
-0.0929943 0.0918961 -9.98097 
-9.70542 -0.0997752 -0.086572 
-0.0997752 -9.76743 0.0789279 
-0.086572 0.0789279 -10.0231 
-9.74099 -0.0182847 -0.105902 
-0.0182847 -9.77777 0.0919899 
-0.105902 0.0919899 -9.97724 
-7.10373 3.89882 -1.09899 
3.89882 -5.29636 -2.41429 
-1.09899 -2.41429 5.05558 
-2.88101 0.156613 0.607956 
0.156613 2.25608 1.52018 
0.607956 1.52018 -6.71958 
-3.36553 0.367548 0.541472 
0.367548 -2.87298 -0.51047 
0.541472 -0.51047 -1.10601 
-6.32814 -0.582236 3.4379 
-0.582236 -1.27032 0.566033 
3.4379 0.566033 0.253944 
-9.80569 -0.181465 1.06333 
-0.181465 -9.19514 -0.470112 
1.06333 -0.470112 -8.98784 
-10.0073 -0.0670998 1.38236 
-0.0670998 -9.57575 -0.5854 
1.38236 -0.5854 -8.40558 
-9.37924 -0.198616 1.18131 
-0.198616 -9.00539 -0.66704 
1.18131 -0.66704 -9.60403 
-9.75475 0.198909 0.266011 
0.198909 -9.37504 0.181359 
0.266011 0.181359 -8.85888 
-9.88745 -0.00886673 -0.168959 
-0.00886673 -9.88757 -0.212624 
-0.168959 -0.212624 -9.95613 
-9.89794 0.0432472 -0.143839 
0.0432472 -9.87542 -0.188596 
-0.143839 -0.188596 -9.9578 
-9.90577 0.025425 -0.121663 
0.025425 -9.89739 -0.149809 
-0.121663 -0.149809 -9.92799 
-9.89345 0.0221862 -0.142069 
0.0221862 -9.88227 -0.187656 
-0.142069 -0.187656 -9.95543 
-9.9812 -0.0320009 0.121449 
-0.0320009 -9.99303 -0.0227426 
0.121449 -0.0227426 -9.56907 
-9.84635 0.0130327 0.185247 
0.0130327 -9.88091 -0.155693 
0.185247 -0.155693 -9.81604 
-9.93566 0.0401461 0.270229 
0.0401461 -9.98129 -0.120252 
0.270229 -0.120252 -9.62636 
-9.95677 -0.0278928 0.190316 
-0.0278928 -9.93623 -0.108257 
0.190316 -0.108257 -9.6503 
-9.87039 4.46333 -1.93362 
4.46333 -10.9615 -6.07478 
-1.93362 -6.07478 -0.809421 
-6.45059 1.43424 2.02837 
1.43424 -7.74871 -2.68318 
2.02837 -2.68318 -7.44203 
-6.74985 -2.71394 -1.72087 
-2.71394 -8.53397 -1.70819 
-1.72087 -1.70819 -6.35751 
-7.18508 0.512434 0.102087 
0.512434 -9.50097 -3.13651 
0.102087 -3.13651 -4.95528 
-9.98834 0.0673233 -0.210079 
0.0673233 -9.6989 -0.364375 
-0.210079 -0.364375 -9.60773 
-9.99862 0.0723244 -0.148527 
0.0723244 -9.59708 -0.407394 
-0.148527 -0.407394 -9.69928 
-9.92467 -0.00255318 -0.169115 
-0.00255318 -9.68014 -0.337432 
-0.169115 -0.337432 -9.69017 
-10.0137 0.0646546 -0.0704717 
0.0646546 -9.53508 -0.469625 
-0.0704717 -0.469625 -9.74616 
-9.86014 0.0393846 0.122906 
0.0393846 -9.81868 0.157005 
0.122906 0.157005 -9.88863 
-9.82608 -0.0264986 0.133637 
-0.0264986 -9.87652 0.181542 
0.133637 0.181542 -9.86485 
-9.83466 0.0146175 0.141815 
0.0146175 -9.84748 0.165989 
0.141815 0.165989 -9.88531 
-9.83894 0.0199824 0.14034 
0.0199824 -9.82365 0.198906 
0.14034 0.198906 -9.90487 
-3.28121 0.256475 -1.29429 
0.256475 -1.08262 -3.82134 
-1.29429 -3.82134 -10.1585 
-10.2635 -0.900923 -1.6398 
-0.900923 -6.40113 2.6635 
-1.6398 2.6635 2.1423 
-10.7394 0.178602 -1.35538 
0.178602 -7.71402 0.598458 
-1.35538 0.598458 3.93115 
-6.55653 -4.53158 -10.1138 
-4.53158 -7.5024 0.970226 
-10.1138 0.970226 -0.463369 
-9.7866 -0.240886 0.28914 
-0.240886 -9.6454 -0.973195 
0.28914 -0.973195 -9.68113 
-9.63243 -0.201603 0.330836 
-0.201603 -9.50775 -0.902557 
0.330836 -0.902557 -9.97295 
-9.66041 -0.237155 0.23428 
-0.237155 -9.51028 -0.872241 
0.23428 -0.872241 -9.94243 
-9.55217 -0.495015 0.249498 
-0.495015 -9.91843 -0.364461 
0.249498 -0.364461 -9.64252 
-9.22063 -0.171479 0.242408 
-0.171479 -9.66758 -0.00894825 
0.242408 -0.00894825 -9.18621 
-10.2234 0.0650317 0.018019 
0.0650317 -10.0275 0.52239 
0.018019 0.52239 -7.8235 
-10.3191 0.0899673 -0.0732854 
0.0899673 -9.43529 0.792049 
-0.0732854 0.792049 -8.32002 
-9.95536 0.559486 -0.58951 
0.559486 -9.52241 0.808948 
-0.58951 0.808948 -8.59665 
-9.97123 0.123076 -0.0611016 
0.123076 -9.89871 -0.234331 
-0.0611016 -0.234331 -9.89809 
-9.7497 0.0597074 -0.0152522 
0.0597074 -9.84814 0.00831068 
-0.0152522 0.00831068 -10.1702 
-9.75891 -0.00849863 0.0943316 
-0.00849863 -9.94085 0.139213 
0.0943316 0.139213 -10.0683 
-9.75388 0.172245 -0.0113927 
0.172245 -9.88201 -0.0147945 
-0.0113927 -0.0147945 -10.1321 
-9.92129 0.047922 0.14983 
0.047922 -9.88079 -0.158208 
0.14983 -0.158208 -9.87823 
-9.91443 -0.00155287 0.166476 
-0.00155287 -9.88919 -0.143606 
0.166476 -0.143606 -9.87669 
-9.82172 -0.0377 0.171324 
-0.0377 -9.87299 -0.171762 
0.171324 -0.171762 -9.98561 
-9.89746 -0.0335078 0.109837 
-0.0335078 -9.86469 -0.172239 
0.109837 -0.172239 -9.91817 
-9.50286 0.0408906 -0.0670919 
0.0408906 -9.46333 1.8235 
-0.0670919 1.8235 -10.325 
-10.0423 0.754897 1.18842 
0.754897 -9.39726 1.68553 
1.18842 1.68553 -9.85165 
-9.26912 0.251743 0.741574 
0.251743 -10.2228 -1.57486 
0.741574 -1.57486 -9.79923 
-9.2748 0.722742 -1.07946 
0.722742 -9.35252 1.18923 
-1.07946 1.18923 -10.6639 
-9.95848 0.0358896 -0.0603311 
0.0358896 -9.79325 -0.291084 
-0.0603311 -0.291084 -9.73708 
-9.95068 -0.0197888 -0.0423861 
-0.0197888 -9.81006 -0.314005 
-0.0423861 -0.314005 -9.72807 
-9.85828 0.00811109 -0.00206558 
0.00811109 -9.86837 -0.193166 
-0.00206558 -0.193166 -9.76216 
-9.90399 -0.0268456 -0.0210924 
-0.0268456 -9.80984 -0.269867 
-0.0210924 -0.269867 -9.77498 
-9.5821 0.00850402 0.526026 
0.00850402 -9.6129 -0.405106 
0.526026 -0.405106 -10.175 
-9.74458 -0.00385734 0.487934 
-0.00385734 -9.64343 -0.281217 
0.487934 -0.281217 -9.98204 
-9.71723 -0.143871 0.210676 
-0.143871 -9.79778 -0.15429 
0.210676 -0.15429 -9.85504 
-9.8981 0.059256 0.702276 
0.059256 -9.6749 -0.204208 
0.702276 -0.204208 -9.79705 
-9.79358 0.0126368 -0.145919 
0.0126368 -9.78495 0.0630094 
-0.145919 0.0630094 -9.92542 
-9.77724 -0.0441038 -0.199708 
-0.0441038 -9.78464 0.103078 
-0.199708 0.103078 -9.94206 
-9.766 -0.0326346 -0.152144 
-0.0326346 -9.8414 0.104087 
-0.152144 0.104087 -9.89654 
-9.80735 -0.0411898 -0.214026 
-0.0411898 -9.82594 0.109099 
-0.214026 0.109099 -9.87066 
-8.66163 -0.0672968 -0.779402 
-0.0672968 -8.72204 1.42014 
-0.779402 1.42014 -9.70866 
-8.7425 0.825664 -0.224476 
0.825664 -10.0502 -1.35575 
-0.224476 -1.35575 -8.29967 
-9.34944 0.0295607 -0.0362358 
0.0295607 -10.2241 -0.892223 
-0.0362358 -0.892223 -7.51883 
-10.082 0.438862 -1.40634 
0.438862 -10.3896 -0.993482 
-1.40634 -0.993482 -6.62079 
-9.94899 0.0116801 -0.130571 
0.0116801 -9.94338 -0.20624 
-0.130571 -0.20624 -9.97504 
-9.9491 -0.00574613 -0.118946 
-0.00574613 -9.94458 -0.189318 
-0.118946 -0.189318 -9.97372 
-9.94039 -0.00719864 -0.132827 
-0.00719864 -9.94218 -0.211063 
-0.132827 -0.211063 -9.98483 
-9.94589 0.0177186 -0.132745 
0.0177186 -9.94061 -0.205075 
-0.132745 -0.205075 -9.98091 
-9.76284 0.0988084 -0.154633 
0.0988084 -9.7824 -0.133973 
-0.154633 -0.133973 -10.2006 
-9.78059 0.160682 -0.126216 
0.160682 -9.75618 -0.0619977 
-0.126216 -0.0619977 -10.209 
-9.81926 0.110495 -0.221465 
0.110495 -9.71195 -0.149696 
-0.221465 -0.149696 -10.2146 
-9.75009 0.0342419 -0.123168 
0.0342419 -9.88116 -0.142111 
-0.123168 -0.142111 -10.1145 
-9.83403 -0.0417446 -0.203817 
-0.0417446 -9.81954 0.232863 
-0.203817 0.232863 -9.9085 
-9.84258 -0.0470183 -0.192186 
-0.0470183 -9.78803 0.19204 
-0.192186 0.19204 -9.93147 
-9.80122 -0.09659 -0.169244 
-0.09659 -9.80203 0.150456 
-0.169244 0.150456 -9.95883 
-9.81017 -0.018096 -0.143105 
-0.018096 -9.78272 0.213481 
-0.143105 0.213481 -9.96919 
-9.76549 -0.140369 -0.00911859 
-0.140369 -9.85264 0.0665112 
-0.00911859 0.0665112 -10.2618 
-9.91486 -0.0871063 0.0478665 
-0.0871063 -9.82893 -0.0640312 
0.0478665 -0.0640312 -10.1362 
-9.92063 -0.0878663 0.0717666 
-0.0878663 -9.79996 -0.0863639 
0.0717666 -0.0863639 -10.1594 
-9.84547 0.00747657 0.0787783 
0.00747657 -9.91382 -0.102137 
0.0787783 -0.102137 -10.1207 
-9.87263 0.0122767 -0.0518994 
0.0122767 -9.72146 -0.242855 
-0.0518994 -0.242855 -9.8695 
-9.9036 0.0237736 -0.0687356 
0.0237736 -9.69337 -0.219043 
-0.0687356 -0.219043 -9.86662 
-9.87363 0.0254758 -0.0753841 
0.0254758 -9.72379 -0.292834 
-0.0753841 -0.292834 -9.86616 
-9.83147 0.0426762 -0.0885598 
0.0426762 -9.78298 -0.252603 
-0.0885598 -0.252603 -9.84914 
-4.70573 0.0437404 -1.14046 
0.0437404 -3.09535 -0.427775 
-1.14046 -0.427775 -2.69777 
-1.80066 -0.138706 -1.00067 
-0.138706 3.91626 2.75783 
-1.00067 2.75783 -12.6144 
-8.40988 -2.52846 0.706929 
-2.52846 -5.07512 -2.14541 
0.706929 -2.14541 2.98616 
-7.69818 1.12731 -4.80262 
1.12731 -1.64054 1.48811 
-4.80262 1.48811 -1.16012 
-9.93296 -0.0208869 -0.244416 
-0.0208869 -9.95645 -0.0140562 
-0.244416 -0.0140562 -9.98831 
-9.92479 0.014139 -0.240756 
0.014139 -9.9701 -0.0197583 
-0.240756 -0.0197583 -9.98284 
-9.92709 0.0218095 -0.241598 
0.0218095 -9.9675 -0.029133 
-0.241598 -0.029133 -9.98314 
-9.93948 -0.0218652 -0.26275 
-0.0218652 -9.96557 -0.0207651 
-0.26275 -0.0207651 -9.97268 
-9.65726 -0.174964 0.217379 
-0.174964 -9.57945 -0.226811 
0.217379 -0.226811 -10.1292 
-9.56302 -0.233359 0.169194 
-0.233359 -9.62991 -0.161654 
0.169194 -0.161654 -10.173 
-9.74614 -0.0611002 0.273418 
-0.0611002 -9.65735 -0.257548 
0.273418 -0.257548 -9.96243 
-9.6951 -0.161103 0.339836 
-0.161103 -9.59446 -0.23493 
0.339836 -0.23493 -10.0763 
-10.1653 -0.107666 -0.0221683 
-0.107666 -10.2294 0.0486863 
-0.0221683 0.0486863 -10.9833 
-10.1015 -0.167694 0.0760013 
-0.167694 -10.4529 0.0941215 
0.0760013 0.0941215 -10.8236 
-10.0577 -0.127237 -0.0928309 
-0.127237 -10.3173 0.0573261 
-0.0928309 0.0573261 -11.0031 
-10.0902 -0.208919 0.0995864 
-0.208919 -10.4123 -0.0730015 
0.0995864 -0.0730015 -10.8755 
-9.91525 0.00179758 -0.150425 
0.00179758 -9.91626 0.152243 
-0.150425 0.152243 -9.9544 
-9.9237 -0.0173372 -0.182495 
-0.0173372 -9.91053 0.192333 
-0.182495 0.192333 -9.95168 
-9.91723 -0.00913195 -0.149242 
-0.00913195 -9.93362 0.139206 
-0.149242 0.139206 -9.93506 
-9.91569 -0.0168476 -0.17295 
-0.0168476 -9.89068 0.155187 
-0.17295 0.155187 -9.97954 
-9.96385 -0.0153052 0.180267 
-0.0153052 -9.94457 0.00517369 
0.180267 0.00517369 -9.95203 
-9.93725 0.0137109 0.268314 
0.0137109 -9.96066 0.0229316 
0.268314 0.0229316 -9.96254 
-9.92088 -0.00569684 0.259684 
-0.00569684 -10.0038 -0.00140501 
0.259684 -0.00140501 -9.93576 
-9.9393 -0.0126231 0.200035 
-0.0126231 -9.99144 0.0325026 
0.200035 0.0325026 -9.92971 
-9.93164 -0.0139913 0.22613 
-0.0139913 -9.96524 -0.0850626 
0.22613 -0.0850626 -10.0085 
-9.95416 -0.00788943 0.240373 
-0.00788943 -9.99204 -0.0702051 
0.240373 -0.0702051 -9.95919 
-9.94937 -0.018899 0.241909 
-0.018899 -9.95913 -0.0730022 
0.241909 -0.0730022 -9.99688 
-9.94855 0.00161684 0.255695 
0.00161684 -9.99206 -0.0803519 
0.255695 -0.0803519 -9.96477 
-9.89586 -0.085188 -0.289358 
-0.085188 -9.80982 0.313235 
-0.289358 0.313235 -9.59724 
-9.88877 -0.141917 -0.412859 
-0.141917 -9.67952 0.397021 
-0.412859 0.397021 -9.73463 
-9.88943 -0.037312 -0.265766 
-0.037312 -9.79263 0.348552 
-0.265766 0.348552 -9.62085 
-9.80064 -0.0171065 -0.366162 
-0.0171065 -9.90053 0.378506 
-0.366162 0.378506 -9.60175 
-9.74608 -0.0511243 0.261502 
-0.0511243 -9.84524 -0.0300063 
0.261502 -0.0300063 -9.9032 
-9.70431 0.0205326 0.328434 
0.0205326 -9.98787 -0.0729232 
0.328434 -0.0729232 -9.80234 
-9.66711 -0.0564991 0.320394 
-0.0564991 -9.9193 -0.117282 
0.320394 -0.117282 -9.90811 
-9.69001 -0.0290353 0.306642 
-0.0290353 -9.93481 -0.0756686 
0.306642 -0.0756686 -9.8697 
-10.2023 -0.586785 -0.175728 
-0.586785 -7.75378 5.00561 
-0.175728 5.00561 -9.11833 
-9.41807 -1.25228 -0.23841 
-1.25228 -7.29394 3.18496 
-0.23841 3.18496 -10.3624 
-6.67723 1.60974 -0.809676 
1.60974 -9.28896 6.4599 
-0.809676 6.4599 -11.1082 
-8.55242 2.33179 -0.898116 
2.33179 -10.7862 1.61397 
-0.898116 1.61397 -7.73574 
-9.81475 -0.0593622 -0.107987 
-0.0593622 -9.75378 0.227603 
-0.107987 0.227603 -10.2641 
-9.84372 -0.0647552 -0.0691312 
-0.0647552 -9.74697 0.191355 
-0.0691312 0.191355 -10.2419 
-9.86943 -0.109068 -0.0316778 
-0.109068 -9.70019 0.155447 
-0.0316778 0.155447 -10.263 
-9.8528 -0.0926586 -0.135347 
-0.0926586 -9.73355 0.240015 
-0.135347 0.240015 -10.2463 
-9.75928 -0.233476 -0.3172 
-0.233476 -9.47705 0.389471 
-0.3172 0.389471 -9.73577 
-9.76594 -0.133036 -0.244354 
-0.133036 -9.44182 0.261589 
-0.244354 0.261589 -9.76434 
-9.75751 -0.221975 -0.228761 
-0.221975 -9.52507 0.335312 
-0.228761 0.335312 -9.68951 
-9.94885 -0.00838555 -0.1994 
-0.00838555 -9.45666 0.259188 
-0.1994 0.259188 -9.56659 
-9.95921 -0.057891 0.330126 
-0.057891 -9.80562 -0.365625 
0.330126 -0.365625 -9.51708 
-9.85681 0.0209623 0.191226 
0.0209623 -9.68711 -0.215758 
0.191226 -0.215758 -9.73799 
-9.8619 -0.0842175 0.436794 
-0.0842175 -9.78115 -0.426348 
0.436794 -0.426348 -9.63887 
-10.1185 -0.0925757 0.318264 
-0.0925757 -9.60517 -0.256753 
0.318264 -0.256753 -9.55821 
-9.95087 -0.0159151 0.0827487 
-0.0159151 -9.93028 0.197293 
0.0827487 0.197293 -9.86002 
-10.0217 0.0767462 0.0817696 
0.0767462 -9.94715 0.155284 
0.0817696 0.155284 -9.77226 
-9.92692 0.081199 0.0277881 
0.081199 -9.84151 0.206473 
0.0277881 0.206473 -9.97273 
-9.92293 -0.0200562 0.105714 
-0.0200562 -9.94744 0.162316 
0.105714 0.162316 -9.87079 
-9.78759 0.0674999 0.182795 
0.0674999 -9.75703 0.181284 
0.182795 0.181284 -9.80457 
-9.65766 0.0426107 0.2699 
0.0426107 -9.84684 0.167704 
0.2699 0.167704 -9.84469 
-9.66065 0.0588248 0.26688 
0.0588248 -9.84599 0.196331 
0.26688 0.196331 -9.84255 
-9.65883 0.118964 0.318124 
0.118964 -9.8696 0.21789 
0.318124 0.21789 -9.82076 
-9.81993 0.00652874 -0.0442226 
0.00652874 -9.79497 -0.198242 
-0.0442226 -0.198242 -9.89003 
-9.81848 0.0324095 -0.0621082 
0.0324095 -9.78272 -0.226637 
-0.0621082 -0.226637 -9.90373 
-9.86495 0.0281069 -0.0690247 
0.0281069 -9.77283 -0.19329 
-0.0690247 -0.19329 -9.86714 
-9.84685 0.0369995 -0.0712228 
0.0369995 -9.80148 -0.243894 
-0.0712228 -0.243894 -9.8566 
-10.4444 -0.0291845 0.303786 
-0.0291845 -10.9218 -1.60017 
0.303786 -1.60017 -13.2463 
-11.0191 -1.36655 0.66913 
-1.36655 -12.9201 -1.3162 
0.66913 -1.3162 -10.6733 
-10.2764 -0.304712 0.0509038 
-0.304712 -10.0558 -1.02803 
0.0509038 -1.02803 -14.2803 
-11.1859 0.700906 -0.384871 
0.700906 -10.5504 -1.34642 
-0.384871 -1.34642 -12.8762 
-9.98299 0.069526 -0.0508266 
0.069526 -10.1668 -0.0356247 
-0.0508266 -0.0356247 -10.0954 
-10.1765 0.174602 -0.0281288 
0.174602 -9.79685 0.00894263 
-0.0281288 0.00894263 -10.2718 
-9.71038 -0.0662389 0.0120551 
-0.0662389 -10.1639 -0.177824 
0.0120551 -0.177824 -10.3709 
-9.99835 0.357394 -0.641407 
0.357394 -9.86006 0.076439 
-0.641407 0.076439 -10.3868 
-9.65368 0.122891 -0.305059 
0.122891 -9.55413 -0.507675 
-0.305059 -0.507675 -10.1 
-9.66118 0.114563 -0.158094 
0.114563 -9.57876 -0.457176 
-0.158094 -0.457176 -10.0679 
-9.60412 0.150225 -0.188547 
0.150225 -9.63751 -0.32002 
-0.188547 -0.32002 -10.0662 
-9.61325 0.2145 -0.279605 
0.2145 -9.61315 -0.529744 
-0.279605 -0.529744 -10.0814 
-9.95997 -0.0178583 0.0971258 
-0.0178583 -9.80716 -0.189657 
0.0971258 -0.189657 -9.86072 
-9.8748 -0.0309909 0.141654 
-0.0309909 -9.93499 -0.22342 
0.141654 -0.22342 -9.81806 
-9.95545 -0.0352477 0.204264 
-0.0352477 -9.91665 -0.217245 
0.204264 -0.217245 -9.75576 
-9.88229 -0.0273476 0.138297 
-0.0273476 -9.8914 -0.240787 
0.138297 -0.240787 -9.85417 
-10.0407 -0.00882792 0.157438 
-0.00882792 -9.94526 0.0641012 
0.157438 0.0641012 -8.90265 
-10.0083 -0.015094 0.0899704 
-0.015094 -9.87474 -0.0933528 
0.0899704 -0.0933528 -9.0056 
-9.80021 0.0984579 0.232708 
0.0984579 -10.2847 -0.184813 
0.232708 -0.184813 -8.8037 
-10.0395 0.0520188 0.159364 
0.0520188 -9.81867 -0.126602 
0.159364 -0.126602 -9.03041 
-10.0101 -0.00841829 -0.039823 
-0.00841829 -10.0875 0.0253443 
-0.039823 0.0253443 -10.2517 
-9.97077 0.00253719 -0.0401615 
0.00253719 -10.162 0.078539 
-0.0401615 0.078539 -10.2165 
-10.0445 0.0387417 -0.042298 
0.0387417 -10.0461 -0.0186151 
-0.042298 -0.0186151 -10.2586 
-10.0284 -0.0500591 -0.0201892 
-0.0500591 -10.0712 0.00630707 
-0.0201892 0.00630707 -10.2497 
-9.91658 -0.0370318 -0.0191306 
-0.0370318 -9.9461 0.00265353 
-0.0191306 0.00265353 -9.98214 
-9.9828 -0.0166737 -0.0235677 
-0.0166737 -9.88042 -0.000748234 
-0.0235677 -0.000748234 -9.98161 
-9.95499 -0.0115835 -0.0206953 
-0.0115835 -9.89111 0.0218049 
-0.0206953 0.0218049 -9.99872 
-9.95662 -0.00355914 -0.023955 
-0.00355914 -9.89678 0.00921509 
-0.023955 0.00921509 -9.99142 
-9.81063 0.0542744 0.103592 
0.0542744 -9.75211 0.124094 
0.103592 0.124094 -9.92122 
-9.78111 -0.010325 0.1271 
-0.010325 -9.78747 0.210083 
0.1271 0.210083 -9.91538 
-9.77339 0.0475864 0.137846 
0.0475864 -9.72309 0.158092 
0.137846 0.158092 -9.98748 
-9.77704 0.085003 0.13222 
0.085003 -9.73505 0.167085 
0.13222 0.167085 -9.97186 
-9.77388 0.28046 0.0813133 
0.28046 -10.0021 0.0485634 
0.0813133 0.0485634 -10.3373 
-9.914 0.0984851 0.0429278 
0.0984851 -9.99738 0.0376649 
0.0429278 0.0376649 -10.2018 
-9.88444 -0.00624133 0.00486855 
-0.00624133 -9.97614 -0.0310407 
0.00486855 -0.0310407 -10.2526 
-9.91883 0.0775841 0.0527076 
0.0775841 -9.98979 -0.0182245 
0.0527076 -0.0182245 -10.2046 
-9.97322 0.00148798 -0.00354128 
0.00148798 -9.96396 0.24096 
-0.00354128 0.24096 -9.99376 
-9.98616 0.00552893 -0.00778802 
0.00552893 -9.96788 0.238717 
-0.00778802 0.238717 -9.97691 
-9.98391 -0.0121687 0.000238422 
-0.0121687 -9.94921 0.246121 
0.000238422 0.246121 -9.99783 
-9.98243 0.00902172 -0.00514394 
0.00902172 -9.96719 0.234661 
-0.00514394 0.234661 -9.98132 
-9.31199 -0.571712 -0.73242 
-0.571712 -8.85633 0.785589 
-0.73242 0.785589 -6.72715 
-8.85207 0.0324407 -0.926161 
0.0324407 -8.60572 1.28246 
-0.926161 1.28246 -7.43768 
-8.11365 0.120653 -0.722663 
0.120653 -9.38423 0.97291 
-0.722663 0.97291 -7.3976 
-9.91835 0.59955 -1.58273 
0.59955 -8.84145 1.45101 
-1.58273 1.45101 -6.13568 
-9.79945 0.0364473 0.129909 
0.0364473 -9.7921 0.13858 
0.129909 0.13858 -9.8941 
-9.78881 0.0215917 0.133706 
0.0215917 -9.78718 0.146201 
0.133706 0.146201 -9.90965 
-9.78798 0.0298869 0.152858 
0.0298869 -9.76707 0.154994 
0.152858 0.154994 -9.93059 
-9.8193 0.0276635 0.130191 
0.0276635 -9.8019 0.20049 
0.130191 0.20049 -9.86444 
-11.3079 -0.363513 -0.304083 
-0.363513 -11.2516 0.156452 
-0.304083 0.156452 -12.5039 
-11.2655 -0.971835 -0.284131 
-0.971835 -11.2463 0.104727 
-0.284131 0.104727 -12.5515 
-11.2403 -0.173753 -0.333287 
-0.173753 -12.055 0.315159 
-0.333287 0.315159 -11.7682 
-12.1007 -0.327616 -1.51907 
-0.327616 -11.1532 0.731678 
-1.51907 0.731678 -11.8095 
-11.1983 -0.100519 0.23918 
-0.100519 -10.6687 -0.386882 
0.23918 -0.386882 -12.3231 
-10.9831 -0.309665 0.13737 
-0.309665 -11.5188 -0.207266 
0.13737 -0.207266 -11.6882 
-11.9152 -0.0970513 -0.178317 
-0.0970513 -11.6104 0.223523 
-0.178317 0.223523 -10.6646 
-11.2848 -0.213784 -0.883783 
-0.213784 -11.1738 -0.530743 
-0.883783 -0.530743 -11.7315 
-9.93925 -0.00212957 0.21385 
-0.00212957 -9.95433 0.130233 
0.21385 0.130233 -10.0039 
-9.95627 0.00809513 0.212561 
0.00809513 -9.96062 0.117669 
0.212561 0.117669 -9.98058 
-9.958 0.00271909 0.212504 
0.00271909 -9.96034 0.114385 
0.212504 0.114385 -9.97912 
-9.95437 0.00704127 0.209286 
0.00704127 -9.96893 0.109053 
0.209286 0.109053 -9.97416 
-9.93808 0.00585074 -0.150781 
0.00585074 -9.9397 0.151874 
-0.150781 0.151874 -9.98536 
-9.93864 -0.00159294 -0.18675 
-0.00159294 -9.94337 0.171603 
-0.18675 0.171603 -9.98113 
-9.93752 -0.0106703 -0.182208 
-0.0106703 -9.94386 0.165135 
-0.182208 0.165135 -9.98176 
-9.92763 -0.0204892 -0.177498 
-0.0204892 -9.94467 0.170831 
-0.177498 0.170831 -9.99084 
-9.90153 0.00183043 0.160653 
0.00183043 -9.74988 -0.0288701 
0.160653 -0.0288701 -9.82259 
-9.85554 -0.0338389 0.188243 
-0.0338389 -9.80669 -0.031745 
0.188243 -0.031745 -9.81177 
-9.66544 -0.0268202 0.25697 
-0.0268202 -9.88709 -0.0793555 
0.25697 -0.0793555 -9.92146 
-9.75343 -0.108347 0.147349 
-0.108347 -9.82597 -0.128596 
0.147349 -0.128596 -9.8946 
-9.70049 -0.139534 -0.367536 
-0.139534 -10.1324 0.282465 
-0.367536 0.282465 -9.64393 
-9.87176 -0.14568 -0.468136 
-0.14568 -9.78076 0.665613 
-0.468136 0.665613 -9.82431 
-9.42089 -0.14478 -0.294269 
-0.14478 -9.9041 -0.0823469 
-0.294269 -0.0823469 -10.1518 
-9.64906 -0.205039 -0.412671 
-0.205039 -10.0613 0.287672 
-0.412671 0.287672 -9.76644 
-9.89939 0.0670863 -0.168718 
0.0670863 -9.63318 -0.346041 
-0.168718 -0.346041 -9.59401 
-9.93075 0.0847179 -0.276877 
0.0847179 -9.62999 -0.431971 
-0.276877 -0.431971 -9.56584 
-9.77285 0.0728892 -0.346522 
0.0728892 -9.66904 -0.329031 
-0.346522 -0.329031 -9.68469 
-9.69775 0.141673 -0.395298 
0.141673 -9.5951 -0.3062 
-0.395298 -0.3062 -9.83373 
-9.88787 -0.0219281 0.0903078 
-0.0219281 -9.8984 0.0244831 
0.0903078 0.0244831 -9.7657 
-9.93908 0.00209944 0.0891179 
0.00209944 -9.87504 0.156137 
0.0891179 0.156137 -9.73784 
-9.99529 0.0225696 0.0760113 
0.0225696 -10.0018 0.131418 
0.0760113 0.131418 -9.55486 
-9.92967 0.0201435 0.125135 
0.0201435 -9.87368 0.15981 
0.125135 0.15981 -9.74861 
-10.4159 -0.925639 -0.154065 
-0.925639 -8.22824 0.884695 
-0.154065 0.884695 -10.5528 
-12.5787 -0.358054 0.559163 
-0.358054 -6.15006 2.88454 
0.559163 2.88454 -10.4682 
-10.2433 -0.933293 -0.597181 
-0.933293 -8.93242 0.940706 
-0.597181 0.940706 -10.0212 
-10.3178 -0.0893431 0.153536 
-0.0893431 -9.1813 0.88292 
0.153536 0.88292 -9.69785 
-9.64381 -0.00133615 0.312721 
-0.00133615 -9.88266 -0.0489674 
0.312721 -0.0489674 -9.87065 
-9.73362 -0.090072 0.285061 
-0.090072 -9.92081 -0.045625 
0.285061 -0.045625 -9.74269 
-9.60784 -0.065524 0.346202 
-0.065524 -9.92351 -0.121066 
0.346202 -0.121066 -9.86577 
-9.60511 -0.135291 0.249641 
-0.135291 -9.95834 -0.24096 
0.249641 -0.24096 -9.83367 
-9.95244 0.0969033 0.00983598 
0.0969033 -9.91864 0.188175 
0.00983598 0.188175 -9.97489 
-9.82876 0.104899 0.0106984 
0.104899 -9.85291 -0.00618437 
0.0106984 -0.00618437 -10.1643 
-9.76587 -0.0362923 -0.103213 
-0.0362923 -9.97943 -0.149841 
-0.103213 -0.149841 -10.1007 
-9.82654 0.152325 0.0494259 
0.152325 -9.8575 -0.00402536 
0.0494259 -0.00402536 -10.1619 
-10.3344 -0.240312 0.126962 
-0.240312 -9.60329 -0.127703 
0.126962 -0.127703 -10.7146 
-10.2632 -0.352314 0.0434179 
-0.352314 -10.6897 -0.0568826 
0.0434179 -0.0568826 -9.69934 
-10.1336 0.0701405 0.107435 
0.0701405 -9.90317 0.0470677 
0.107435 0.0470677 -10.6155 
-10.2051 -0.154372 -0.313066 
-0.154372 -9.90555 -0.322243 
-0.313066 -0.322243 -10.5416 
-3.66345 -0.182764 -0.438672 
-0.182764 -3.32095 0.535261 
-0.438672 0.535261 -0.105759 
-4.09911 -0.585723 0.599036 
-0.585723 -3.70498 1.76139 
0.599036 1.76139 0.71392 
-2.41651 -0.765351 -0.679314 
-0.765351 -2.40696 -0.653968 
-0.679314 -0.653968 -2.2667 
-3.38387 -1.68219 -0.37479 
-1.68219 -4.098 0.0242701 
-0.37479 0.0242701 0.391703 
-9.40528 -1.64338 1.70979 
-1.64338 -9.2968 -0.208195 
1.70979 -0.208195 -10.4875 
-9.79442 -1.08616 1.5112 
-1.08616 -9.83014 -1.03762 
1.5112 -1.03762 -9.56505 
-9.73177 -0.969653 0.365603 
-0.969653 -10.6092 0.0345964 
0.365603 0.0345964 -8.84866 
-10.1289 -0.515132 2.01054 
-0.515132 -9.36421 -2.18154 
2.01054 -2.18154 -9.69652 
-9.8238 -0.0213285 -0.0607894 
-0.0213285 -9.77507 0.203253 
-0.0607894 0.203253 -9.8843 
-9.83145 -0.0247803 -0.0599756 
-0.0247803 -9.76768 0.230882 
-0.0599756 0.230882 -9.88404 
-9.83908 -0.027485 -0.0589572 
-0.027485 -9.773 0.207412 
-0.0589572 0.207412 -9.8711 
-9.83821 -0.0274652 -0.0768553 
-0.0274652 -9.781 0.229556 
-0.0768553 0.229556 -9.86396 
-9.91158 0.026033 0.136775 
0.026033 -9.91826 -0.159048 
0.136775 -0.159048 -9.9736 
-9.9223 -0.030069 0.132143 
-0.030069 -9.97615 -0.132944 
0.132143 -0.132944 -9.90499 
-9.92194 -0.0175212 0.206348 
-0.0175212 -9.91934 -0.17041 
0.206348 -0.17041 -9.96216 
-9.90517 -0.0025434 0.159081 
-0.0025434 -9.92149 -0.167209 
0.159081 -0.167209 -9.97678 
-9.98697 -0.0244215 -0.0350696 
-0.0244215 -10.0576 -0.00113064 
-0.0350696 -0.00113064 -10.1033 
-10.1225 0.066306 0.105247 
0.066306 -9.90468 0.177578 
0.105247 0.177578 -10.1206 
-10.0053 0.0019443 -0.030307 
0.0019443 -9.94809 -0.0292798 
-0.030307 -0.0292798 -10.1944 
-9.95208 0.0338687 -0.0290154 
0.0338687 -9.96981 -0.0798699 
-0.0290154 -0.0798699 -10.2259 
-9.82646 -0.0152838 0.236099 
-0.0152838 -9.9134 -0.0501234 
0.236099 -0.0501234 -9.91718 
-9.83584 -0.0241872 0.253314 
-0.0241872 -9.90909 -0.0593454 
0.253314 -0.0593454 -9.91211 
-9.82835 -0.0160702 0.24705 
-0.0160702 -9.9176 -0.0466828 
0.24705 -0.0466828 -9.91108 
-9.83764 -0.00291262 0.251923 
-0.00291262 -9.89064 -0.0614885 
0.251923 -0.0614885 -9.92876 
-9.65146 0.00939051 0.310512 
0.00939051 -9.79033 -0.353506 
0.310512 -0.353506 -9.88002 
-9.72754 -0.0582485 0.327998 
-0.0582485 -9.93141 -0.343433 
0.327998 -0.343433 -9.66285 
-9.73038 -0.121496 0.338105 
-0.121496 -9.7891 -0.315085 
0.338105 -0.315085 -9.80232 
-9.62437 0.035113 0.539212 
0.035113 -9.82178 -0.535135 
0.539212 -0.535135 -9.87566 
-9.88452 0.0717788 -0.0246099 
0.0717788 -9.8905 -0.0169772 
-0.0246099 -0.0169772 -10.0078 
-9.86737 0.0310717 -0.0284108 
0.0310717 -9.91413 -0.0395759 
-0.0284108 -0.0395759 -10.0013 
-9.86891 0.0151342 -0.0342297 
0.0151342 -9.92296 -0.0312894 
-0.0342297 -0.0312894 -9.99096 
-9.8516 0.0188115 -0.0391368 
0.0188115 -9.93848 -0.0575768 
-0.0391368 -0.0575768 -9.99275 
-9.94847 -0.0201518 -0.00021847 
-0.0201518 -9.6467 0.394675 
-0.00021847 0.394675 -9.70816 
-9.92275 -0.0239293 -0.0270909 
-0.0239293 -9.70346 0.287354 
-0.0270909 0.287354 -9.67712 
-9.90762 0.00595404 0.00841949 
0.00595404 -9.61994 0.362337 
0.00841949 0.362337 -9.77577 
-9.90789 -0.00592414 0.0093403 
-0.00592414 -9.72082 0.267115 
0.0093403 0.267115 -9.67461 
-9.87546 0.121577 -0.252619 
0.121577 -9.89784 -0.21514 
-0.252619 -0.21514 -9.60382 
-9.6916 0.295633 -0.445603 
0.295633 -10.1987 -0.839318 
-0.445603 -0.839318 -9.48679 
-9.6058 0.128976 -0.384517 
0.128976 -10.2612 -0.401153 
-0.384517 -0.401153 -9.51012 
-9.57055 -0.252814 -0.605089 
-0.252814 -10.679 -0.448151 
-0.605089 -0.448151 -9.12753 
-9.87263 0.00281165 -0.207401 
0.00281165 -9.93252 0.0420586 
-0.207401 0.0420586 -9.55871 
-9.85603 -0.0142028 -0.298713 
-0.0142028 -9.98998 0.0143652 
-0.298713 0.0143652 -9.51785 
-9.86597 -0.0477396 -0.356523 
-0.0477396 -10.0162 0.0858728 
-0.356523 0.0858728 -9.48168 
-9.85213 0.0808193 -0.328981 
0.0808193 -10.0682 -0.00464213 
-0.328981 -0.00464213 -9.44354 
-9.74717 0.0524901 0.0473413 
0.0524901 -9.52458 0.867099 
0.0473413 0.867099 -10.5699 
-9.76646 -0.0131575 0.109245 
-0.0131575 -9.64286 0.317333 
0.109245 0.317333 -10.4323 
-9.78847 0.0468708 0.288845 
0.0468708 -9.51184 0.860111 
0.288845 0.860111 -10.5413 
-9.36001 0.229895 0.453287 
0.229895 -8.99839 0.450273 
0.453287 0.450273 -11.4832 
-10.001 0.0035088 -0.0880836 
0.0035088 -9.96821 0.231241 
-0.0880836 0.231241 -9.9785 
-10.0222 0.0161337 -0.0677329 
0.0161337 -9.97676 0.214027 
-0.0677329 0.214027 -9.94875 
-9.9425 0.0045779 -0.0779291 
0.0045779 -9.9705 0.232929 
-0.0779291 0.232929 -10.0348 
-10.0147 0.00806685 -0.0991381 
0.00806685 -9.96902 0.221973 
-0.0991381 0.221973 -9.96404 
-9.77135 0.0160075 0.223774 
0.0160075 -9.83959 -0.0026479 
0.223774 -0.0026479 -9.85511 
-9.79916 0.0157116 0.197424 
0.0157116 -9.81609 0.022796 
0.197424 0.022796 -9.85081 
-9.76685 -0.00854759 0.238196 
-0.00854759 -9.83219 0.0162568 
0.238196 0.0162568 -9.86701 
-9.78093 -0.00297609 0.246654 
-0.00297609 -9.83612 0.0102054 
0.246654 0.0102054 -9.849 
-9.85095 0.0211512 0.177801 
0.0211512 -9.87982 -0.103733 
0.177801 -0.103733 -9.8968 
-9.86349 -0.044071 0.0797469 
-0.044071 -9.84429 -0.181634 
0.0797469 -0.181634 -9.91979 
-9.80784 -0.0603409 0.202954 
-0.0603409 -9.86682 -0.131799 
0.202954 -0.131799 -9.9529 
-9.85967 -0.0103708 0.163898 
-0.0103708 -9.80231 -0.23174 
0.163898 -0.23174 -9.96559 
-9.75348 -0.0609084 -0.154973 
-0.0609084 -9.82454 0.0807846 
-0.154973 0.0807846 -9.88998 
-9.74389 -0.0642066 -0.163258 
-0.0642066 -9.79132 0.127272 
-0.163258 0.127272 -9.9328 
-9.74279 -0.108581 -0.173208 
-0.108581 -9.81553 0.102042 
-0.173208 0.102042 -9.90968 
-9.77039 -0.00345102 -0.2235 
-0.00345102 -9.79446 0.124847 
-0.2235 0.124847 -9.90316 
-9.84043 -0.0467533 -0.400735 
-0.0467533 -9.42046 0.435017 
-0.400735 0.435017 -9.48533 
-9.77775 -0.0798469 -0.234565 
-0.0798469 -9.43798 0.420813 
-0.234565 0.420813 -9.53048 
-9.71841 -0.0839724 -0.208304 
-0.0839724 -9.42269 0.346161 
-0.208304 0.346161 -9.60512 
-9.72927 -0.0697332 -0.209324 
-0.0697332 -9.49105 0.349588 
-0.209324 0.349588 -9.52589 
-8.18806 0.731909 0.290756 
0.731909 -9.66785 -0.841931 
0.290756 -0.841931 -12.4085 
-9.9194 0.403861 0.374819 
0.403861 -10.6926 0.559942 
0.374819 0.559942 -9.65244 
-10.3821 -0.175734 0.537177 
-0.175734 -8.93644 0.0367217 
0.537177 0.0367217 -10.9459 
-8.23041 -0.304645 1.40894 
-0.304645 -9.37861 0.660383 
1.40894 0.660383 -12.6554 
-9.81772 0.101048 0.141191 
0.101048 -9.70052 0.275575 
0.141191 0.275575 -9.94822 
-9.86509 0.0596027 0.143749 
0.0596027 -9.68432 0.241512 
0.143749 0.241512 -9.91706 
-9.90507 0.0297244 0.0980941 
0.0297244 -9.73438 0.25667 
0.0980941 0.25667 -9.82702 
-9.9287 0.0611435 0.108859 
0.0611435 -9.65436 0.272489 
0.108859 0.272489 -9.8834 
-9.29367 0.119317 0.27245 
0.119317 -9.91899 0.0672708 
0.27245 0.0672708 -9.97373 
-9.52915 0.0265907 0.291251 
0.0265907 -9.82026 0.0264419 
0.291251 0.0264419 -9.83698 
-9.55845 0.160593 0.117179 
0.160593 -9.84316 0.051954 
0.117179 0.051954 -9.78479 
-9.5037 0.0212842 0.218043 
0.0212842 -9.81672 0.0322103 
0.218043 0.0322103 -9.86598 
-8.88009 0.405114 0.324838 
0.405114 -9.50334 0.0628286 
0.324838 0.0628286 -6.83044 
-8.68267 0.599136 1.30896 
0.599136 -8.75034 -0.632312 
1.30896 -0.632312 -7.78086 
-9.76073 -0.0475825 1.0818 
-0.0475825 -9.03524 -1.30079 
1.0818 -1.30079 -6.4179 
-10.1077 -0.0845732 1.11024 
-0.0845732 -8.43751 -0.666201 
1.11024 -0.666201 -6.66869 
-9.87682 -0.0277002 -0.148351 
-0.0277002 -9.8229 0.0309089 
-0.148351 0.0309089 -9.80763 
-9.70429 -0.0504696 -0.208271 
-0.0504696 -9.85317 0.112487 
-0.208271 0.112487 -9.94989 
-9.91969 0.045614 -0.115481 
0.045614 -9.77102 0.0604264 
-0.115481 0.0604264 -9.81664 
-9.79978 -0.0733695 -0.0941891 
-0.0733695 -9.78317 0.125034 
-0.0941891 0.125034 -9.9244 
-10.3205 0.128489 -0.143508 
0.128489 -9.41055 0.386379 
-0.143508 0.386379 -8.98222 
-10.0972 -0.588542 -0.286309 
-0.588542 -9.33728 0.586542 
-0.286309 0.586542 -9.27874 
-10.7475 -0.201919 0.325273 
-0.201919 -9.08927 0.236933 
0.325273 0.236933 -8.87648 
-10.4856 0.409487 -0.463401 
0.409487 -9.55458 0.611633 
-0.463401 0.611633 -8.67305 
-9.90288 -0.0106818 -0.231812 
-0.0106818 -9.92344 0.0287313 
-0.231812 0.0287313 -9.92536 
-9.88859 -0.0046582 -0.2341 
-0.0046582 -9.94523 0.045774 
-0.2341 0.045774 -9.91787 
-9.867 -0.00185754 -0.244027 
-0.00185754 -9.9415 0.0381345 
-0.244027 0.0381345 -9.94319 
-9.89336 -0.012126 -0.224882 
-0.012126 -9.93172 0.0406399 
-0.224882 0.0406399 -9.92661 
-9.71245 0.0455614 -0.193365 
0.0455614 -9.78501 -0.0658482 
-0.193365 -0.0658482 -9.84307 
-9.70685 0.0273306 -0.148063 
0.0273306 -9.75777 -0.0777659 
-0.148063 -0.0777659 -9.87592 
-9.66321 0.0206996 -0.197994 
0.0206996 -9.7883 -0.0847081 
-0.197994 -0.0847081 -9.88903 
-9.76267 0.0194105 -0.229747 
0.0194105 -9.79589 -0.0558348 
-0.229747 -0.0558348 -9.78197 
-9.77228 0.00562868 0.230149 
0.00562868 -9.87734 0.108149 
0.230149 0.108149 -9.73173 
-9.84021 0.0425243 0.249994 
0.0425243 -9.84813 0.149009 
0.249994 0.149009 -9.69302 
-9.73614 0.0784662 0.410073 
0.0784662 -9.97545 0.191905 
0.410073 0.191905 -9.66976 
-9.82935 0.05742 0.262314 
0.05742 -9.81453 0.157864 
0.262314 0.157864 -9.73748 
-9.11153 -0.964376 -0.360417 
-0.964376 -5.28486 0.664769 
-0.360417 0.664769 -2.8016 
-8.10188 -0.338451 -0.399982 
-0.338451 -6.67629 1.28979 
-0.399982 1.28979 -2.41982 
-6.9253 0.562724 0.19689 
0.562724 -9.71672 2.51277 
0.19689 2.51277 -0.555972 
-6.41108 -0.168868 -2.364 
-0.168868 -7.57024 1.18859 
-2.364 1.18859 -3.21667 
-9.374 0.0873646 0.307439 
0.0873646 -9.57806 0.272187 
0.307439 0.272187 -9.84143 
-9.38582 0.11287 0.339705 
0.11287 -9.72228 0.447941 
0.339705 0.447941 -9.68541 
-9.54887 0.160811 0.571364 
0.160811 -9.54895 0.621783 
0.571364 0.621783 -9.69567 
-9.57049 0.0694382 0.431422 
0.0694382 -9.79125 0.430647 
0.431422 0.430647 -9.43176 
-9.86624 -0.0711225 -0.187813 
-0.0711225 -9.91954 0.200998 
-0.187813 0.200998 -9.99725 
-9.94398 -0.023318 -0.195286 
-0.023318 -9.90843 0.207085 
-0.195286 0.207085 -9.93061 
-9.90856 0.00206454 -0.150189 
0.00206454 -9.89988 0.164987 
-0.150189 0.164987 -9.97458 
-9.90551 -0.023989 -0.178426 
-0.023989 -9.9037 0.191032 
-0.178426 0.191032 -9.97381 
-10.1709 -0.0525642 0.0423558 
-0.0525642 -10.0414 -0.140705 
0.0423558 -0.140705 -10.2491 
-10.4551 -0.475556 0.100353 
-0.475556 -9.302 -0.173977 
0.100353 -0.173977 -10.7042 
-10.1636 -0.15031 0.00150324 
-0.15031 -9.9177 0.0817487 
0.00150324 0.0817487 -10.3801 
-10.2007 -0.0149505 -0.0765447 
-0.0149505 -9.88823 -0.00612611 
-0.0765447 -0.00612611 -10.3723 
-9.59057 0.0398738 0.086387 
0.0398738 -9.94463 0.902662 
0.086387 0.902662 -9.58776 
-9.42951 0.138732 0.335706 
0.138732 -10.0246 0.392267 
0.335706 0.392267 -9.66881 
-9.57546 0.0827912 0.330173 
0.0827912 -9.86131 1.06001 
0.330173 1.06001 -9.68619 
-9.98895 0.166491 0.0664936 
0.166491 -10.413 0.808867 
0.0664936 0.808867 -8.72098 
-10.076 -0.148143 -0.702697 
-0.148143 -9.69128 0.40191 
-0.702697 0.40191 -9.3816 
-10.2478 -0.314273 -0.772794 
-0.314273 -9.56483 0.687818 
-0.772794 0.687818 -9.33629 
-10.4502 -0.00327308 -0.494527 
-0.00327308 -9.73439 0.98125 
-0.494527 0.98125 -8.96434 
-10.3042 -0.184963 -0.73146 
-0.184963 -9.54763 0.5939 
-0.73146 0.5939 -9.29707 
-9.82912 -0.0515543 -0.0473297 
-0.0515543 -9.75736 0.19626 
-0.0473297 0.19626 -9.87785 
-9.81814 -0.0863918 -0.111628 
-0.0863918 -9.73284 0.236393 
-0.111628 0.236393 -9.91336 
-9.81766 -0.0628696 -0.14657 
-0.0628696 -9.72848 0.20364 
-0.14657 0.20364 -9.91819 
-9.82387 0.00562476 -0.128879 
0.00562476 -9.74709 0.264798 
-0.128879 0.264798 -9.89338 
-9.81743 0.0552394 -0.090051 
0.0552394 -9.77132 -0.0777157 
-0.090051 -0.0777157 -9.94004 
-9.79791 0.0414623 -0.0660824 
0.0414623 -9.78484 -0.0794202 
-0.0660824 -0.0794202 -9.94604 
-9.75482 0.0680714 -0.0349289 
0.0680714 -9.75134 -0.102485 
-0.0349289 -0.102485 -10.0226 
-9.81715 0.0588203 -0.17499 
0.0588203 -9.84277 -0.137167 
-0.17499 -0.137167 -9.86888 
-4.36766 0.744374 -0.0206875 
0.744374 -4.2695 1.15131 
-0.0206875 1.15131 -1.31854 
-5.39235 1.86953 0.834738 
1.86953 -5.47356 2.82989 
0.834738 2.82989 0.910215 
-3.67088 0.395159 -0.762156 
0.395159 -2.61587 -0.0164533 
-0.762156 -0.0164533 -3.66895 
-2.26955 -0.493611 1.45234 
-0.493611 -8.21188 -0.542348 
1.45234 -0.542348 0.525727 
-10.4465 -0.0434859 0.0519223 
-0.0434859 -10.5229 -0.00258214 
0.0519223 -0.00258214 -10.5711 
-10.435 -0.0618998 0.0601592 
-0.0618998 -10.5143 -0.0252551 
0.0601592 -0.0252551 -10.5912 
-10.5357 -0.121911 0.0137823 
-0.121911 -10.5379 -0.0144159 
0.0137823 -0.0144159 -10.4669 
-10.4492 -0.0327171 0.00972251 
-0.0327171 -10.5163 -0.00898475 
0.00972251 -0.00898475 -10.575 
-9.89944 -0.0067183 -0.466174 
-0.0067183 -9.93478 -0.822541 
-0.466174 -0.822541 -8.67739 
-9.6643 -0.13351 -0.614074 
-0.13351 -9.83911 -0.263043 
-0.614074 -0.263043 -9.0082 
-9.59434 -0.0369495 -0.543575 
-0.0369495 -10.0979 -0.456953 
-0.543575 -0.456953 -8.81934 
-9.49693 0.239184 -0.631154 
0.239184 -10.4095 -0.285955 
-0.631154 -0.285955 -8.60522 
-9.68943 -0.0324497 0.254214 
-0.0324497 -9.80231 -0.0566144 
0.254214 -0.0566144 -9.89629 
-9.7682 -0.0157149 0.191429 
-0.0157149 -9.83713 -0.0289686 
0.191429 -0.0289686 -9.78271 
-9.90236 0.0389095 0.160811 
0.0389095 -9.73614 -0.0234451 
0.160811 -0.0234451 -9.74953 
-9.71122 0.00688104 0.204664 
0.00688104 -9.81616 0.00961603 
0.204664 0.00961603 -9.86065 
-9.95018 0.00605964 0.230661 
0.00605964 -9.95301 0.0851951 
0.230661 0.0851951 -10.0015 
-9.95661 -0.00624299 0.222719 
-0.00624299 -9.94552 0.0819072 
0.222719 0.0819072 -10.0026 
-9.96438 0.00927975 0.224023 
0.00927975 -9.97171 0.0923876 
0.224023 0.0923876 -9.96859 
-9.95898 0.00845211 0.224145 
0.00845211 -9.98288 0.0858376 
0.224145 0.0858376 -9.96283 
-9.17226 -3.9821 -4.537 
-3.9821 -13.1486 2.41971 
-4.537 2.41971 -9.49379 
2.43283 -5.06219 8.13417 
-5.06219 -8.85252 -4.31524 
8.13417 -4.31524 -25.3949 
1.16438 -5.20625 9.96678 
-5.20625 -3.88636 -3.38389 
9.96678 -3.38389 -29.0926 
-13.869 1.8235 3.15911 
1.8235 -9.82602 -1.3178 
3.15911 -1.3178 -8.11956 
-9.94345 -0.0509245 0.26758 
-0.0509245 -9.83516 -0.193638 
0.26758 -0.193638 -9.25966 
-9.78227 0.0333383 0.0474775 
0.0333383 -9.86804 -0.101966 
0.0474775 -0.101966 -9.38796 
-9.83418 0.0767731 0.167478 
0.0767731 -9.82752 -0.210332 
0.167478 -0.210332 -9.37657 
-9.90564 -0.120678 0.0456809 
-0.120678 -9.62954 -0.246906 
0.0456809 -0.246906 -9.50309 
-9.91281 -0.000898349 -0.225124 
-0.000898349 -9.92946 0.0733201 
-0.225124 0.0733201 -9.94423 
-9.90085 -0.0196053 -0.236497 
-0.0196053 -9.92539 0.0775614 
-0.236497 0.0775614 -9.96026 
-9.91222 -0.00222175 -0.219992 
-0.00222175 -9.93019 0.0819069 
-0.219992 0.0819069 -9.94409 
-9.90802 -0.0215828 -0.21578 
-0.0215828 -9.93929 0.0694821 
-0.21578 0.0694821 -9.93919 
-9.28557 -0.0947028 0.433889 
-0.0947028 -9.09051 -0.260677 
0.433889 -0.260677 -10.4 
-9.73342 -0.315449 0.25619 
-0.315449 -9.32911 -0.51517 
0.25619 -0.51517 -9.71355 
-9.42655 -0.110513 0.240905 
-0.110513 -9.10088 -0.140826 
0.240905 -0.140826 -10.2486 
-9.07617 -0.187711 0.519489 
-0.187711 -9.44487 -0.45578 
0.519489 -0.45578 -10.255 
-9.97859 -0.0162649 -0.050639 
-0.0162649 -9.90935 -0.00348663 
-0.050639 -0.00348663 -9.98252 
-9.945 -0.0273422 0.0361818 
-0.0273422 -9.96496 0.00906115 
0.0361818 0.00906115 -9.9605 
-9.94804 -0.0283353 -0.015769 
-0.0283353 -9.93286 -0.0101735 
-0.015769 -0.0101735 -9.98956 
-9.92816 -0.0350264 -0.0102138 
-0.0350264 -9.93201 -0.0183599 
-0.0102138 -0.0183599 -10.0103 
-9.86682 -0.0172924 -0.282016 
-0.0172924 -9.63583 0.318702 
-0.282016 0.318702 -9.44032 
-9.98661 0.0351677 -0.360272 
0.0351677 -9.59831 0.354966 
-0.360272 0.354966 -9.35805 
-9.80314 -0.0458279 -0.218389 
-0.0458279 -9.76965 0.346769 
-0.218389 0.346769 -9.37018 
-9.85043 -0.00100102 -0.103334 
-0.00100102 -9.91197 0.258245 
-0.103334 0.258245 -9.18057 
-9.82845 -0.0390241 0.0399248 
-0.0390241 -9.83935 -0.0134169 
0.0399248 -0.0134169 -9.97336 
-9.79094 -0.0105943 0.0222224 
-0.0105943 -9.81461 -0.0453567 
0.0222224 -0.0453567 -10.0356 
-9.81804 -0.00436283 0.0586459 
-0.00436283 -9.8124 -0.084189 
0.0586459 -0.084189 -10.0107 
-9.83593 -0.0584582 0.0176686 
-0.0584582 -9.82624 -0.0296556 
0.0176686 -0.0296556 -9.979 
-9.89147 -0.0813246 0.0137654 
-0.0813246 -9.8148 -0.0230713 
0.0137654 -0.0230713 -9.96896 
-9.85827 -0.0799165 0.0347515 
-0.0799165 -9.81028 -0.00639748 
0.0347515 -0.00639748 -10.0067 
-9.65894 -0.129161 -0.0468798 
-0.129161 -9.78129 -0.246236 
-0.0468798 -0.246236 -10.235 
-9.82995 -0.0351285 0.198208 
-0.0351285 -9.94929 -0.00286863 
0.198208 -0.00286863 -9.896 
-10.1672 -0.117099 -0.146319 
-0.117099 -10.3012 0.0760856 
-0.146319 0.0760856 -10.7803 
-10.2507 -0.151741 -0.151176 
-0.151741 -10.6316 -0.0857851 
-0.151176 -0.0857851 -10.3664 
-10.3522 0.211394 -0.0179854 
0.211394 -10.4742 -0.0997164 
-0.0179854 -0.0997164 -10.4223 
-10.3783 -0.0437127 -0.393854 
-0.0437127 -10.5601 -0.026979 
-0.393854 -0.026979 -10.3103 
-9.66059 0.183011 -0.112303 
0.183011 -10.2427 -0.129928 
-0.112303 -0.129928 -10.7801 
-10.5938 0.248769 -0.0449087 
0.248769 -10.3206 -0.0374202 
-0.0449087 -0.0374202 -9.76906 
-9.96631 -0.0500923 0.0231769 
-0.0500923 -10.1437 -0.0694788 
0.0231769 -0.0694788 -10.5734 
-9.96517 0.136834 -0.248491 
0.136834 -10.1731 0.339132 
-0.248491 0.339132 -10.5451 
-7.90305 0.466073 -1.3399 
0.466073 -8.67218 0.182305 
-1.3399 0.182305 -9.8316 
-9.83222 0.554936 -0.470551 
0.554936 -9.93136 -0.788662 
-0.470551 -0.788662 -6.64325 
-10.1595 0.728635 -3.3565 
0.728635 -8.20375 -0.120532 
-3.3565 -0.120532 -8.04362 
-8.88601 0.761291 -1.40784 
0.761291 -9.32102 -0.162233 
-1.40784 -0.162233 -8.19979 
-10.1952 -0.105941 -0.0508879 
-0.105941 -9.73447 0.0286321 
-0.0508879 0.0286321 -10.4423 
-10.0662 -0.20221 -0.0182392 
-0.20221 -10.12 0.0510846 
-0.0182392 0.0510846 -10.1858 
-10.0482 -0.0230028 -0.151931 
-0.0230028 -9.9793 0.219665 
-0.151931 0.219665 -10.3445 
-10.032 -0.00201201 -0.0212872 
-0.00201201 -9.9048 0.0962444 
-0.0212872 0.0962444 -10.4352 
-9.59633 0.120195 -0.337836 
0.120195 -9.66607 -0.350171 
-0.337836 -0.350171 -10.0326 
-9.56123 0.0527929 -0.128376 
0.0527929 -9.61417 -0.538395 
-0.128376 -0.538395 -10.1196 
-9.57524 0.11759 -0.324281 
0.11759 -9.75934 -0.449667 
-0.324281 -0.449667 -9.96038 
-9.83997 0.112109 -0.117033 
0.112109 -9.91306 -0.336129 
-0.117033 -0.336129 -9.54193 
-9.7993 -0.0883925 -0.373287 
-0.0883925 -9.49487 0.272244 
-0.373287 0.272244 -9.57961 
-9.67249 -0.0512298 -0.213912 
-0.0512298 -9.50804 0.373925 
-0.213912 0.373925 -9.69325 
-9.69442 -0.0852113 -0.233557 
-0.0852113 -9.535 0.368015 
-0.233557 0.368015 -9.64435 
-9.79108 -0.0790216 -0.119781 
-0.0790216 -9.44255 0.350998 
-0.119781 0.350998 -9.64015 
-9.74241 -0.0469444 0.374382 
-0.0469444 -9.58434 -0.396232 
0.374382 -0.396232 -9.9983 
-9.68764 -0.106455 0.277605 
-0.106455 -9.71346 -0.350655 
0.277605 -0.350655 -9.92395 
-9.76764 0.0292134 0.382643 
0.0292134 -9.64632 -0.503291 
0.382643 -0.503291 -9.91109 
-9.71639 -0.0971665 0.522708 
-0.0971665 -9.38202 -0.302386 
0.522708 -0.302386 -10.2266 
-9.82045 -0.0345122 0.228999 
-0.0345122 -9.8482 -0.148397 
0.228999 -0.148397 -9.93356 
-9.79922 -0.0409614 0.219862 
-0.0409614 -9.8514 -0.137206 
0.219862 -0.137206 -9.9516 
-9.82024 -0.0350048 0.23169 
-0.0350048 -9.85761 -0.144049 
0.23169 -0.144049 -9.92437 
-9.796 -0.0259308 0.206174 
-0.0259308 -9.8519 -0.162844 
0.206174 -0.162844 -9.95432 
-10.0013 0.0351918 0.0318952 
0.0351918 -9.8608 -0.0281788 
0.0318952 -0.0281788 -10.42 
-10.0958 0.000849241 0.0861138 
0.000849241 -10.3527 -0.0288757 
0.0861138 -0.0288757 -9.83353 
-9.88115 0.17299 0.117752 
0.17299 -9.97818 0.0393069 
0.117752 0.0393069 -10.4227 
-9.97622 0.161075 -0.0463162 
0.161075 -10.1276 0.316938 
-0.0463162 0.316938 -10.1782 
-9.83527 0.0122294 -0.0574985 
0.0122294 -9.81797 -0.166367 
-0.0574985 -0.166367 -9.91754 
-9.84773 0.036051 -0.10048 
0.036051 -9.79993 -0.224984 
-0.10048 -0.224984 -9.92312 
-9.869 0.0787818 -0.111318 
0.0787818 -9.73907 -0.211352 
-0.111318 -0.211352 -9.9627 
-9.87227 0.020986 -0.112221 
0.020986 -9.80002 -0.249662 
-0.112221 -0.249662 -9.89848 
-9.72502 0.103146 0.0781745 
0.103146 -9.7642 -0.0648812 
0.0781745 -0.0648812 -9.95662 
-9.68243 0.0539318 -0.10847 
0.0539318 -9.76146 -0.244648 
-0.10847 -0.244648 -10.002 
-9.82873 0.0651226 -0.236305 
0.0651226 -9.87811 -0.0405247 
-0.236305 -0.0405247 -9.739 
-9.84204 0.124844 -0.166283 
0.124844 -9.71915 -0.150545 
-0.166283 -0.150545 -9.88464 
-9.83439 -0.031019 -0.137964 
-0.031019 -9.7786 0.156402 
-0.137964 0.156402 -9.93437 
-9.83821 -0.0650759 -0.163772 
-0.0650759 -9.76701 0.175911 
-0.163772 0.175911 -9.94215 
-9.78376 -0.0264814 -0.138546 
-0.0264814 -9.79279 0.186976 
-0.138546 0.186976 -9.97081 
-9.77844 -0.0143717 -0.149004 
-0.0143717 -9.84449 0.233904 
-0.149004 0.233904 -9.92443 
-9.93145 -0.00757069 0.248617 
-0.00757069 -9.91662 -0.123915 
0.248617 -0.123915 -9.964 
-9.91367 -0.0131285 0.191688 
-0.0131285 -9.9447 -0.100871 
0.191688 -0.100871 -9.95371 
-9.82795 -0.0596954 0.241118 
-0.0596954 -9.99285 -0.115852 
0.241118 -0.115852 -9.99128 
-9.90099 -0.0257355 0.22848 
-0.0257355 -9.92679 -0.174283 
0.22848 -0.174283 -9.9843 
-9.97741 0.477388 -0.773977 
0.477388 -9.61159 0.200501 
-0.773977 0.200501 -10.0921 
-9.24266 0.314038 -0.346765 
0.314038 -10.0401 0.141871 
-0.346765 0.141871 -10.3983 
-9.47775 0.0499137 -0.029532 
0.0499137 -9.57231 -0.40909 
-0.029532 -0.40909 -10.6311 
-9.4996 0.382884 -0.898636 
0.382884 -10.0574 -0.653304 
-0.898636 -0.653304 -10.1241 
-9.96749 -0.0182563 0.188042 
-0.0182563 -9.89985 -0.294767 
0.188042 -0.294767 -9.73379 
-9.92259 -0.00220032 0.117472 
-0.00220032 -9.89725 -0.229115 
0.117472 -0.229115 -9.78129 
-10.083 0.0116703 0.103403 
0.0116703 -9.80839 -0.301153 
0.103403 -0.301153 -9.70978 
-9.8622 -0.0608953 0.066105 
-0.0608953 -9.92267 -0.258497 
0.066105 -0.258497 -9.81625 
-8.90602 0.073719 0.530234 
0.073719 -9.70565 0.752846 
0.530234 0.752846 -9.13494 
-9.14088 0.078333 0.508719 
0.078333 -9.4277 0.456652 
0.508719 0.456652 -9.17803 
-9.11094 -0.0402521 0.43539 
-0.0402521 -9.55348 0.418388 
0.43539 0.418388 -9.08218 
-9.34423 0.113049 0.447573 
0.113049 -9.50305 0.348505 
0.447573 0.348505 -8.89933 
-9.86688 -0.0160062 0.169319 
-0.0160062 -9.86194 -0.193505 
0.169319 -0.193505 -9.93773 
-9.85738 -0.0772339 0.173849 
-0.0772339 -9.8328 -0.238257 
0.173849 -0.238257 -9.97638 
-9.85516 -0.0201635 0.176888 
-0.0201635 -9.88109 -0.164498 
0.176888 -0.164498 -9.93031 
-9.81982 -0.0217153 0.196273 
-0.0217153 -9.85515 -0.205777 
0.196273 -0.205777 -9.99159 
-9.97809 0.0129735 -0.0880697 
0.0129735 -9.91582 -0.232878 
-0.0880697 -0.232878 -9.91317 
-9.93184 -0.0156446 -0.0875215 
-0.0156446 -9.92544 -0.238993 
-0.0875215 -0.238993 -9.94981 
-9.96566 0.0115351 -0.100628 
0.0115351 -9.92025 -0.226457 
-0.100628 -0.226457 -9.92118 
-9.95326 -8.63154e-05 -0.100894 
-8.63154e-05 -9.92583 -0.252395 
-0.100894 -0.252395 -9.928 
-13.4522 -0.642965 -0.349213 
-0.642965 -12.3565 0.639981 
-0.349213 0.639981 -14.393 
-11.7526 0.102943 0.245124 
0.102943 -10.4444 0.346592 
0.245124 0.346592 -18.0047 
-13.6014 -0.951768 -0.247895 
-0.951768 -10.9853 0.956809 
-0.247895 0.956809 -15.6151 
-14.3743 -1.1624 -0.207672 
-1.1624 -11.481 4.31893 
-0.207672 4.31893 -14.3464 
-9.78737 0.0429693 0.180353 
0.0429693 -9.80156 0.167965 
0.180353 0.167965 -9.95917 
-9.78937 0.0557986 0.201574 
0.0557986 -9.82013 0.207679 
0.201574 0.207679 -9.93859 
-9.77441 0.0478024 0.210284 
0.0478024 -9.81931 0.194323 
0.210284 0.194323 -9.95437 
-9.80836 0.0340977 0.205788 
0.0340977 -9.81607 0.160951 
0.205788 0.160951 -9.92367 
-9.91277 -0.0295977 -0.019632 
-0.0295977 -9.78174 -0.285207 
-0.019632 -0.285207 -9.831 
-9.87233 0.00735934 0.0170159 
0.00735934 -9.74162 -0.266703 
0.0170159 -0.266703 -9.91156 
-9.94171 0.0404312 -0.083438 
0.0404312 -9.80765 -0.307092 
-0.083438 -0.307092 -9.77614 
-10.0608 0.018898 0.00763395 
0.018898 -9.72564 -0.298327 
0.00763395 -0.298327 -9.73905 
-9.91164 -0.0353198 -0.00607363 
-0.0353198 -9.65591 0.288974 
-0.00607363 0.288974 -9.82111 
-9.98866 0.0167215 -0.0373259 
0.0167215 -9.69626 0.387975 
-0.0373259 0.387975 -9.70374 
-9.906 -0.0929083 -0.192541 
-0.0929083 -9.6329 0.328282 
-0.192541 0.328282 -9.84976 
-9.90921 -0.0569891 -0.153625 
-0.0569891 -9.69965 0.313556 
-0.153625 0.313556 -9.77981 
-12.1613 -2.06329 -0.289713 
-2.06329 -9.02708 -1.51894 
-0.289713 -1.51894 -11.3295 
-9.6038 -0.693671 0.951783 
-0.693671 -9.76452 0.284352 
0.951783 0.284352 -13.1495 
-4.52817 5.10159 3.3911 
5.10159 -10.3642 -4.30409 
3.3911 -4.30409 -17.6255 
-10.2035 2.5715 2.39579 
2.5715 -13.4229 1.74811 
2.39579 1.74811 -8.89147 
-5.93318 -5.26751 3.0718 
-5.26751 -2.41376 0.204019 
3.0718 0.204019 -23.4909 
-11.3183 -3.03075 0.880964 
-3.03075 -4.99316 -0.117887 
0.880964 -0.117887 -15.5264 
-12.4616 -3.20326 -3.4451 
-3.20326 -12.0913 1.17995 
-3.4451 1.17995 -7.28493 
-11.473 -0.800002 1.60348 
-0.800002 -8.82575 -1.68966 
1.60348 -1.68966 -11.5391 
-10.2058 0.127141 -0.0220255 
0.127141 -9.58732 0.377621 
-0.0220255 0.377621 -9.17484 
-10.3831 0.0457217 0.505403 
0.0457217 -9.62402 0.404873 
0.505403 0.404873 -8.96089 
-10.2544 -0.0867594 -0.0647639 
-0.0867594 -9.7255 0.517007 
-0.0647639 0.517007 -8.98812 
-9.85425 -0.00738706 -0.105934 
-0.00738706 -9.44417 -0.0117945 
-0.105934 -0.0117945 -9.66957 
-9.79756 0.0513905 -0.122959 
0.0513905 -9.79866 -0.171132 
-0.122959 -0.171132 -9.93312 
-9.82316 0.0183782 -0.141879 
0.0183782 -9.79387 -0.183351 
-0.141879 -0.183351 -9.91232 
-9.80538 0.0359677 -0.12461 
0.0359677 -9.78577 -0.19312 
-0.12461 -0.19312 -9.9382 
-9.82686 0.0337104 -0.151216 
0.0337104 -9.79357 -0.174412 
-0.151216 -0.174412 -9.90892 
-9.85496 -0.00240362 0.125501 
-0.00240362 -9.46662 -0.401822 
0.125501 -0.401822 -9.14587 
-9.91513 -0.00714635 0.176439 
-0.00714635 -9.43272 -0.416417 
0.176439 -0.416417 -9.11959 
-9.87784 0.0332748 0.171276 
0.0332748 -9.46667 -0.335477 
0.171276 -0.335477 -9.12293 
-9.80681 -0.0377193 0.245957 
-0.0377193 -9.49688 -0.396683 
0.245957 -0.396683 -9.16374 
-9.42222 0.225232 0.293348 
0.225232 -10.0033 0.741554 
0.293348 0.741554 -9.29714 
-9.44737 0.01912 0.338706 
0.01912 -10.0182 0.570097 
0.338706 0.570097 -9.25702 
-9.32349 0.0956489 0.131146 
0.0956489 -9.98963 0.81666 
0.131146 0.81666 -9.40951 
-9.4256 0.294824 0.259013 
0.294824 -10.0715 0.759561 
0.259013 0.759561 -9.2255 
-9.94773 0.0123519 -0.236048 
0.0123519 -9.98503 -0.0569314 
-0.236048 -0.0569314 -9.99142 
-9.97359 0.00113341 -0.223401 
0.00113341 -9.97166 -0.0543224 
-0.223401 -0.0543224 -9.97893 
-9.96721 0.00560445 -0.233323 
0.00560445 -9.95947 -0.056843 
-0.233323 -0.056843 -9.9975 
-9.98013 0.00965938 -0.21816 
0.00965938 -9.97347 -0.0508898 
-0.21816 -0.0508898 -9.97059 
-10.2611 -1.14747 0.270806 
-1.14747 -9.47124 -0.43972 
0.270806 -0.43972 -10.6067 
-9.91688 -0.270099 -0.00208909 
-0.270099 -9.32643 -0.934159 
-0.00208909 -0.934159 -11.0957 
-10.0542 -0.398696 -0.22345 
-0.398696 -8.85758 -1.06137 
-0.22345 -1.06137 -11.4273 
-9.9789 -0.501372 0.0370897 
-0.501372 -8.97784 -0.623541 
0.0370897 -0.623541 -11.3823 
-9.78409 0.0216156 -0.121251 
0.0216156 -9.78229 -0.172711 
-0.121251 -0.172711 -9.8851 
-9.79036 0.0398061 -0.120128 
0.0398061 -9.78681 -0.155076 
-0.120128 -0.155076 -9.8743 
-9.79752 0.0249728 -0.103054 
0.0249728 -9.78779 -0.20636 
-0.103054 -0.20636 -9.86617 
-9.79462 0.021309 -0.116313 
0.021309 -9.77636 -0.185961 
-0.116313 -0.185961 -9.8805 
-9.88264 -0.0104002 -0.259143 
-0.0104002 -9.89179 0.0287661 
-0.259143 0.0287661 -9.92032 
-9.85949 -0.0198331 -0.20408 
-0.0198331 -9.93136 0.0270124 
-0.20408 0.0270124 -9.9039 
-9.86093 -0.0129393 -0.246794 
-0.0129393 -9.91773 0.0288251 
-0.246794 0.0288251 -9.91609 
-9.85904 -0.00798201 -0.247548 
-0.00798201 -9.91624 0.0217279 
-0.247548 0.0217279 -9.91948 
-9.92858 0.0085194 0.0701044 
0.0085194 -9.96125 0.213531 
0.0701044 0.213531 -10.0346 
-9.97857 0.00821717 0.0862476 
0.00821717 -9.96487 0.229929 
0.0862476 0.229929 -9.98103 
-9.99613 0.0160423 0.0954057 
0.0160423 -9.95995 0.225589 
0.0954057 0.225589 -9.9684 
-9.99877 0.00158945 0.0847065 
0.00158945 -9.96654 0.235601 
0.0847065 0.235601 -9.95916 
-9.88796 0.016291 -0.147896 
0.016291 -9.88394 -0.157504 
-0.147896 -0.157504 -9.86929 
-9.93419 -0.0103288 -0.156744 
-0.0103288 -9.90298 -0.195923 
-0.156744 -0.195923 -9.80402 
-9.89898 0.00507306 -0.162506 
0.00507306 -9.88171 -0.165481 
-0.162506 -0.165481 -9.86051 
-9.94522 -0.0115926 -0.176893 
-0.0115926 -9.88375 -0.160812 
-0.176893 -0.160812 -9.81223 
-9.75409 0.0743185 -0.196196 
0.0743185 -9.74412 -0.187533 
-0.196196 -0.187533 -10.2248 
-9.74205 0.141539 -0.0442705 
0.141539 -9.65543 -0.166418 
-0.0442705 -0.166418 -10.3255 
-9.73785 0.100438 0.00819535 
0.100438 -9.74224 -0.107817 
0.00819535 -0.107817 -10.2429 
-9.55089 0.0937627 -0.137607 
0.0937627 -9.55555 -0.103864 
-0.137607 -0.103864 -10.6166 
-9.77521 0.0236723 0.235464 
0.0236723 -9.90956 0.0197672 
0.235464 0.0197672 -9.89929 
-9.76917 0.0145781 0.23663 
0.0145781 -9.9106 0.00166904 
0.23663 0.00166904 -9.90428 
-9.76389 -0.00940627 0.301604 
-0.00940627 -9.91034 0.00904061 
0.301604 0.00904061 -9.90983 
-9.81228 -0.0291737 0.227024 
-0.0291737 -9.84259 0.00340393 
0.227024 0.00340393 -9.92918 
-9.89274 0.0427664 -0.333278 
0.0427664 -9.79331 -0.221719 
-0.333278 -0.221719 -9.4678 
-9.60884 0.17515 -0.503759 
0.17515 -10.4462 -0.451295 
-0.503759 -0.451295 -9.09885 
-9.40803 0.336379 -0.549068 
0.336379 -10.3631 -0.7918 
-0.549068 -0.7918 -9.3827 
-9.5578 0.0498165 -0.663039 
0.0498165 -10.7685 -0.354948 
-0.663039 -0.354948 -8.82753 
-9.88872 -0.113376 -0.16835 
-0.113376 -9.87675 0.280397 
-0.16835 0.280397 -10.1868 
-9.82509 -0.129136 -0.145337 
-0.129136 -9.8807 0.121547 
-0.145337 0.121547 -10.2465 
-9.84709 -0.101314 -0.117938 
-0.101314 -9.80045 0.171936 
-0.117938 0.171936 -10.3047 
-9.84044 -0.100115 -0.070666 
-0.100115 -9.80591 0.154559 
-0.070666 0.154559 -10.3059 
-10.7208 0.44795 0.0527665 
0.44795 -10.0459 0.334874 
0.0527665 0.334874 -10.5071 
-10.2991 -0.125528 -0.00128274 
-0.125528 -10.227 -0.154047 
-0.00128274 -0.154047 -10.7477 
-10.4698 0.0891196 -0.0337122 
0.0891196 -10.0666 0.16406 
-0.0337122 0.16406 -10.7374 
-10.5701 -0.00885028 -0.299123 
-0.00885028 -9.70152 0.109733 
-0.299123 0.109733 -11.0022 
-9.92139 0.00907837 -0.149167 
0.00907837 -9.91982 -0.168149 
-0.149167 -0.168149 -10.032 
-9.95545 0.00778839 -0.157443 
0.00778839 -9.94959 -0.185279 
-0.157443 -0.185279 -9.96818 
-9.9614 0.00275049 -0.155547 
0.00275049 -9.96138 -0.184723 
-0.155547 -0.184723 -9.95045 
-9.95359 0.0213595 -0.185034 
0.0213595 -9.95084 -0.215399 
-0.185034 -0.215399 -9.96881 
-9.79127 -0.0499278 0.129268 
-0.0499278 -9.74407 -0.205282 
0.129268 -0.205282 -9.89221 
-9.77408 -0.0227817 0.13418 
-0.0227817 -9.78701 -0.2199 
0.13418 -0.2199 -9.86646 
-9.82283 -0.055795 0.11889 
-0.055795 -9.71023 -0.15687 
0.11889 -0.15687 -9.8945 
-9.79142 -0.0528606 0.135521 
-0.0528606 -9.74384 -0.199753 
0.135521 -0.199753 -9.8923 
-9.88171 0.0301254 -0.134974 
0.0301254 -9.92878 -0.165242 
-0.134974 -0.165242 -9.9799 
-9.94218 -0.0041633 -0.144965 
-0.0041633 -9.90096 -0.195393 
-0.144965 -0.195393 -9.94724 
-9.91988 0.0243551 -0.159494 
0.0243551 -9.91566 -0.213131 
-0.159494 -0.213131 -9.95485 
-9.92328 0.0107009 -0.144176 
0.0107009 -9.91057 -0.19681 
-0.144176 -0.19681 -9.95653 
-9.92084 0.00394953 -0.121127 
0.00394953 -9.93727 -0.0612128 
-0.121127 -0.0612128 -9.77633 
-9.98563 0.0090869 -0.0894055 
0.0090869 -9.98032 -0.0237524 
-0.0894055 -0.0237524 -9.6685 
-9.97944 -0.0191403 -0.112389 
-0.0191403 -9.92599 -0.0647773 
-0.112389 -0.0647773 -9.72902 
-9.95973 -0.00968314 -0.145901 
-0.00968314 -9.9185 -0.0625459 
-0.145901 -0.0625459 -9.75622 
-9.70912 0.0124583 0.244672 
0.0124583 -9.8255 0.0678596 
0.244672 0.0678596 -9.78844 
-9.65784 0.0365879 0.268263 
0.0365879 -9.84124 0.062073 
0.268263 0.062073 -9.82398 
-9.65441 0.0692089 0.249162 
0.0692089 -9.84007 0.0583015 
0.249162 0.0583015 -9.82858 
-9.66267 0.0449356 0.352359 
0.0449356 -9.88898 0.138775 
0.352359 0.138775 -9.77141 
-9.99621 0.0100423 0.217992 
0.0100423 -9.97823 -0.02081 
0.217992 -0.02081 -10.0008 
-10.0092 -0.000352637 0.198469 
-0.000352637 -9.94742 -0.0243836 
0.198469 -0.0243836 -10.0186 
-10.0121 0.00978813 0.223825 
0.00978813 -10.0186 0.0103759 
0.223825 0.0103759 -9.94452 
-10.0029 -0.0125546 0.224258 
-0.0125546 -10.025 -0.0134275 
0.224258 -0.0134275 -9.94735 
-8.08925 0.405307 -4.07082 
0.405307 -9.62089 -0.307117 
-4.07082 -0.307117 -9.66613 
-8.22279 0.0422382 -3.6948 
0.0422382 -8.96408 -0.31621 
-3.6948 -0.31621 -10.1894 
-9.05736 -0.998753 -5.42749 
-0.998753 -7.34604 -0.704033 
-5.42749 -0.704033 -10.9729 
-10.0123 -1.38993 -1.93274 
-1.38993 -8.66074 -0.885194 
-1.93274 -0.885194 -8.70324 
-9.78866 -0.065893 0.064221 
-0.065893 -9.78959 -0.0433167 
0.064221 -0.0433167 -9.93737 
-9.8069 -0.0435116 0.0566174 
-0.0435116 -9.76371 -0.0423614 
0.0566174 -0.0423614 -9.94502 
-9.75916 -0.0225495 0.0515677 
-0.0225495 -9.80638 -0.084556 
0.0515677 -0.084556 -9.95009 
-9.79162 -0.0494568 0.049367 
-0.0494568 -9.78578 -0.0342006 
0.049367 -0.0342006 -9.93823 
-9.73584 -0.032374 -0.121297 
-0.032374 -9.76087 0.145908 
-0.121297 0.145908 -9.92499 
-9.74027 -0.0889329 -0.164237 
-0.0889329 -9.68975 0.148754 
-0.164237 0.148754 -9.99168 
-9.73798 -0.0989165 -0.116705 
-0.0989165 -9.7322 0.135445 
-0.116705 0.135445 -9.95151 
-9.74529 -0.0891809 -0.117791 
-0.0891809 -9.71516 0.144248 
-0.117791 0.144248 -9.96125 
-9.69935 -0.189797 -0.665325 
-0.189797 -9.82299 -0.179761 
-0.665325 -0.179761 -8.978 
-9.34052 0.214396 -0.487472 
0.214396 -10.067 0.0173992 
-0.487472 0.0173992 -9.09282 
-9.4913 -0.411659 -0.596852 
-0.411659 -10.2754 -0.0260384 
-0.596852 -0.0260384 -8.73361 
-9.5006 0.0331622 -0.576001 
0.0331622 -10.1011 -0.189234 
-0.576001 -0.189234 -8.89866 
-9.2605 -0.121297 0.403765 
-0.121297 -9.11153 -0.389101 
0.403765 -0.389101 -10.2945 
-9.42046 -0.415014 0.414124 
-0.415014 -9.01779 -0.505778 
0.414124 -0.505778 -10.2283 
-9.10136 0.0830258 -0.0843661 
0.0830258 -9.14458 -0.155806 
-0.0843661 -0.155806 -10.4206 
-9.38974 -0.0450107 0.414199 
-0.0450107 -9.55786 -0.420429 
0.414199 -0.420429 -9.71896 
2.54909 11.4712 5.72914 
11.4712 -10.2443 2.63669 
5.72914 2.63669 -28.9942 
-11.0086 2.93512 -1.23839 
2.93512 -10.3524 -0.716752 
-1.23839 -0.716752 -15.3285 
-9.06179 3.49053 0.554523 
3.49053 -11.0158 0.882707 
0.554523 0.882707 -16.6119 
-14.4921 -1.38072 2.38326 
-1.38072 -9.24855 2.01453 
2.38326 2.01453 -12.9488 
-9.7363 0.26638 -0.953049 
0.26638 -9.60448 -0.331435 
-0.953049 -0.331435 -8.92851 
-11.1596 -0.0274277 -0.625456 
-0.0274277 -8.81461 -0.403162 
-0.625456 -0.403162 -8.29505 
-9.84538 -0.0195596 -0.301272 
-0.0195596 -9.60176 -0.451757 
-0.301272 -0.451757 -8.82215 
-10.1904 0.15351 -0.092232 
0.15351 -8.80737 -0.419746 
-0.092232 -0.419746 -9.27148 
-8.29289 1.66319 1.81915 
1.66319 -10.3638 -0.262901 
1.81915 -0.262901 3.79546 
-7.48719 -0.0212252 3.0473 
-0.0212252 -7.51282 -0.661631 
3.0473 -0.661631 0.138823 
-1.37906 -0.659097 0.627391 
-0.659097 -2.5628 -1.35543 
0.627391 -1.35543 -10.9193 
-5.53612 -1.29486 7.72152 
-1.29486 -7.76377 -9.79341 
7.72152 -9.79341 -1.5613 
-11.2686 -0.0116652 -0.339754 
-0.0116652 -11.1089 0.167907 
-0.339754 0.167907 -10.1943 
-11.4197 0.0347337 -0.31871 
0.0347337 -10.685 0.0167477 
-0.31871 0.0167477 -10.467 
-9.71245 -0.0763497 0.415107 
-0.0763497 -9.6788 0.214013 
0.415107 0.214013 -13.1805 
-9.84509 0.284542 -2.10203 
0.284542 -11.281 -0.376523 
-2.10203 -0.376523 -11.4457 
-9.80613 0.05295 -0.141782 
0.05295 -9.77818 -0.164285 
-0.141782 -0.164285 -9.89545 
-9.78192 0.0424626 -0.121134 
0.0424626 -9.77901 -0.175624 
-0.121134 -0.175624 -9.91883 
-9.78611 0.0270426 -0.105943 
0.0270426 -9.78259 -0.165239 
-0.105943 -0.165239 -9.91106 
-9.7823 0.0495944 -0.138715 
0.0495944 -9.80087 -0.145726 
-0.138715 -0.145726 -9.8966 
-10.0365 0.00204151 -0.0867292 
0.00204151 -10.2007 -0.039452 
-0.0867292 -0.039452 -10.0356 
-10.0326 0.0116198 0.0781137 
0.0116198 -9.78347 0.0791305 
0.0781137 0.0791305 -10.4568 
-10.1407 -0.0638799 -0.0862013 
-0.0638799 -10.182 -0.0478581 
-0.0862013 -0.0478581 -9.9501 
-10.0182 -0.114139 -0.152715 
-0.114139 -10.1539 0.0833897 
-0.152715 0.0833897 -10.1007 
-9.7874 -0.139643 -0.167563 
-0.139643 -9.80444 0.210594 
-0.167563 0.210594 -10.2467 
-9.81865 -0.0512581 -0.2676 
-0.0512581 -9.72662 0.17152 
-0.2676 0.17152 -10.2933 
-9.78843 -0.142058 -0.219474 
-0.142058 -9.78714 -0.050422 
-0.219474 -0.050422 -10.263 
-9.77916 -0.0470869 -0.0806243 
-0.0470869 -9.90834 0.223221 
-0.0806243 0.223221 -10.1511 
-9.88481 0.014204 0.169667 
0.014204 -9.90455 -0.151934 
0.169667 -0.151934 -9.95069 
-9.89108 -0.0261629 0.161726 
-0.0261629 -9.88507 -0.176991 
0.161726 -0.176991 -9.96389 
-9.89347 -0.0729133 0.148554 
-0.0729133 -9.87973 -0.179222 
0.148554 -0.179222 -9.96684 
-9.95141 -0.0286604 0.23502 
-0.0286604 -9.87648 -0.213165 
0.23502 -0.213165 -9.91215 
-8.55559 -1.00107 0.807458 
-1.00107 -9.8955 0.506717 
0.807458 0.506717 -11.6351 
-10.1153 -1.19408 0.504578 
-1.19408 -9.15282 -1.2 
0.504578 -1.2 -10.8182 
-9.18942 -0.606702 1.10503 
-0.606702 -9.84508 -0.138689 
1.10503 -0.138689 -11.0517 
-9.41804 -0.611245 -0.190341 
-0.611245 -10.7319 -1.22436 
-0.190341 -1.22436 -9.9363 
-9.88953 0.0165919 -0.210363 
0.0165919 -9.90247 -0.118516 
-0.210363 -0.118516 -9.92951 
-9.87966 0.0218383 -0.191039 
0.0218383 -9.89975 -0.134734 
-0.191039 -0.134734 -9.9421 
-9.87994 0.00501401 -0.168169 
0.00501401 -9.9112 -0.131687 
-0.168169 -0.131687 -9.93038 
-9.88689 0.0141332 -0.200354 
0.0141332 -9.90211 -0.120503 
-0.200354 -0.120503 -9.93252 
-9.86359 -0.0192246 0.0584342 
-0.0192246 -10.0137 -0.0724141 
0.0584342 -0.0724141 -9.89859 
-9.95283 -0.0128971 0.0820525 
-0.0128971 -10.0325 -0.100678 
0.0820525 -0.100678 -9.79049 
-10.0063 -0.00676315 0.0568196 
-0.00676315 -9.94156 -0.0874071 
0.0568196 -0.0874071 -9.828 
-10.0061 0.0105291 0.0671031 
0.0105291 -9.92603 -0.134872 
0.0671031 -0.134872 -9.84368 
-9.77785 -0.022422 -0.149048 
-0.022422 -9.75435 0.143418 
-0.149048 0.143418 -9.95333 
-9.77154 -0.0281709 -0.165057 
-0.0281709 -9.82136 0.153708 
-0.165057 0.153708 -9.89263 
-9.78841 -0.0798087 -0.135003 
-0.0798087 -9.79475 0.127328 
-0.135003 0.127328 -9.90236 
-9.77947 -0.0415415 -0.14868 
-0.0415415 -9.78856 0.14063 
-0.14868 0.14063 -9.9175 
-9.69775 0.0280171 0.0896652 
0.0280171 -9.75989 0.00219887 
0.0896652 0.00219887 -10.0087 
-9.7628 0.0661251 0.0974018 
0.0661251 -9.75708 0.0401261 
0.0974018 0.0401261 -9.94643 
-9.76342 0.0167885 0.0935208 
0.0167885 -9.7358 0.0514003 
0.0935208 0.0514003 -9.96709 
-9.78448 0.0310178 0.110272 
0.0310178 -9.76923 0.0559004 
0.110272 0.0559004 -9.9126 
-10.6928 -0.131446 0.0412458 
-0.131446 -10.6167 -0.258795 
0.0412458 -0.258795 -11.0587 
-10.9983 -0.0547418 -0.0306576 
-0.0547418 -10.7358 -0.291303 
-0.0306576 -0.291303 -10.634 
-10.3893 -0.0371182 0.346463 
-0.0371182 -10.385 -0.0996758 
0.346463 -0.0996758 -11.5938 
-10.3786 0.217922 -0.164925 
0.217922 -10.689 -0.535321 
-0.164925 -0.535321 -11.3005 
-9.47203 0.28211 -0.059764 
0.28211 -10.3563 -0.00109469 
-0.059764 -0.00109469 -13.8849 
-10.2658 -0.00860668 0.299053 
-0.00860668 -10.2099 -0.583418 
0.299053 -0.583418 -13.2376 
-9.80447 0.106751 -0.0215281 
0.106751 -9.70941 -0.20786 
-0.0215281 -0.20786 -14.1994 
-8.62798 0.232279 0.84491 
0.232279 -11.254 -0.350616 
0.84491 -0.350616 -13.8313 
-9.9512 -0.00638056 -0.250038 
-0.00638056 -9.94867 -0.0554097 
-0.250038 -0.0554097 -9.97116 
-9.93728 0.019645 -0.216644 
0.019645 -9.95518 -0.0450401 
-0.216644 -0.0450401 -9.97856 
-9.94205 0.00316665 -0.212016 
0.00316665 -9.93225 -0.0577604 
-0.212016 -0.0577604 -9.99672 
-9.94649 0.00214142 -0.247676 
0.00214142 -9.96655 -0.0627057 
-0.247676 -0.0627057 -9.95798 
-9.87216 -0.0161025 0.0202216 
-0.0161025 -9.83256 -0.226561 
0.0202216 -0.226561 -9.89335 
-9.8939 -0.0290202 -0.00648381 
-0.0290202 -9.81203 -0.253079 
-0.00648381 -0.253079 -9.89215 
-9.89564 -0.0108469 0.044596 
-0.0108469 -9.81452 -0.209796 
0.044596 -0.209796 -9.88792 
-9.86344 -0.0331719 0.0473149 
-0.0331719 -9.84876 -0.267017 
0.0473149 -0.267017 -9.88588 
-10.0896 0.347621 -2.71107 
0.347621 -14.9441 0.974942 
-2.71107 0.974942 -8.49985 
-6.07112 3.01164 0.489942 
3.01164 -11.104 -0.996794 
0.489942 -0.996794 -16.3585 
-2.81777 1.30093 1.02991 
1.30093 -9.77439 -1.64613 
1.02991 -1.64613 -20.9414 
-9.6867 0.95095 1.40467 
0.95095 -10.9899 0.149911 
1.40467 0.149911 -12.857 
-8.91381 0.146642 -0.57092 
0.146642 -9.59345 -0.495299 
-0.57092 -0.495299 -8.10593 
-8.32634 0.637405 0.121 
0.637405 -9.01096 -1.58881 
0.121 -1.58881 -9.27588 
-8.6174 0.179617 -0.96251 
0.179617 -9.19029 -1.23182 
-0.96251 -1.23182 -8.80549 
-8.43741 0.290492 -0.999219 
0.290492 -9.73828 -1.09232 
-0.999219 -1.09232 -8.43749 
-9.7841 -0.102774 0.230061 
-0.102774 -9.77557 -0.26459 
0.230061 -0.26459 -9.92024 
-9.82081 -0.0368293 0.124688 
-0.0368293 -9.76282 -0.209387 
0.124688 -0.209387 -9.89628 
-9.80076 -0.0841977 0.128641 
-0.0841977 -9.74602 -0.201484 
0.128641 -0.201484 -9.93313 
-9.80846 -0.0648488 0.144146 
-0.0648488 -9.74693 -0.217445 
0.144146 -0.217445 -9.92452 
-9.99288 0.0153082 0.0773329 
0.0153082 -9.94488 -0.233558 
0.0773329 -0.233558 -10.0149 
-9.99332 -0.00642224 0.0764498 
-0.00642224 -9.99167 -0.228097 
0.0764498 -0.228097 -9.96767 
-10.0055 -0.0263637 0.0774155 
-0.0263637 -9.95975 -0.233489 
0.0774155 -0.233489 -9.98739 
-10.0075 -0.0035425 0.073972 
-0.0035425 -9.98112 -0.226051 
0.073972 -0.226051 -9.96405 
-9.47122 -0.16569 -0.129136 
-0.16569 -9.78564 0.0633139 
-0.129136 0.0633139 -10.3515 
-9.69688 -0.130074 -0.135406 
-0.130074 -9.72073 -0.0305834 
-0.135406 -0.0305834 -10.1908 
-9.59967 -0.0650467 -0.196529 
-0.0650467 -9.80261 0.171277 
-0.196529 0.171277 -10.2061 
-9.43605 -0.109854 -0.0692373 
-0.109854 -9.60945 0.19613 
-0.0692373 0.19613 -10.5629 
-12.3229 0.474793 -0.54455 
0.474793 -13.1225 -0.515849 
-0.54455 -0.515849 -11.6756 
-9.96891 -0.878221 -0.655625 
-0.878221 -13.107 0.00883675 
-0.655625 0.00883675 -14.0451 
-11.2006 0.737839 -0.405727 
0.737839 -13.3081 -0.259745 
-0.405727 -0.259745 -12.6124 
-11.8743 0.524201 -0.70279 
0.524201 -13.9683 0.919505 
-0.70279 0.919505 -11.2784 
-8.1819 -0.200523 -0.457692 
-0.200523 -9.57253 0.888479 
-0.457692 0.888479 -8.38508 
-8.23554 -0.119855 -0.558323 
-0.119855 -9.59478 0.968465 
-0.558323 0.968465 -8.30919 
-8.44843 -0.0586888 -0.414552 
-0.0586888 -9.54056 0.528689 
-0.414552 0.528689 -8.15052 
-8.17227 -0.134727 -0.471349 
-0.134727 -9.41631 0.870311 
-0.471349 0.870311 -8.55093 
-9.70178 -0.0799274 0.29165 
-0.0799274 -9.91148 -0.267569 
0.29165 -0.267569 -9.71669 
-9.74146 0.00574351 0.259016 
0.00574351 -9.84034 -0.204807 
0.259016 -0.204807 -9.74815 
-9.81164 -0.0130394 0.342251 
-0.0130394 -9.86252 -0.341743 
0.342251 -0.341743 -9.65579 
-9.7395 -0.134052 0.321017 
-0.134052 -9.90609 -0.0829917 
0.321017 -0.0829917 -9.68435 
-10.1034 -0.00397829 -0.0011228 
-0.00397829 -10.1543 -0.0506568 
-0.0011228 -0.0506568 -10.6246 
-10.5376 -0.0614698 -0.000599704 
-0.0614698 -10.5056 0.125101 
-0.000599704 0.125101 -9.83907 
-10.073 -0.0992183 0.142529 
-0.0992183 -10.2169 -0.0940759 
0.142529 -0.0940759 -10.5923 
-10.2062 -0.0547599 0.288614 
-0.0547599 -10.1273 0.194761 
0.288614 0.194761 -10.5488 
-10.2688 -0.00625289 0.215505 
-0.00625289 -10.1268 0.0820357 
0.215505 0.0820357 -10.155 
-9.99723 -0.0159083 0.0610941 
-0.0159083 -10.0813 0.237514 
0.0610941 0.237514 -10.4721 
-10.2128 0.0275657 -0.0168365 
0.0275657 -9.94112 0.0707878 
-0.0168365 0.0707878 -10.3967 
-10.2376 0.027722 -0.0459259 
0.027722 -10.0182 0.141939 
-0.0459259 0.141939 -10.2948 
-9.73927 -0.00224891 0.218289 
-0.00224891 -9.86847 0.0411081 
0.218289 0.0411081 -9.81465 
-9.72447 -0.0140365 0.231343 
-0.0140365 -9.84401 -0.0315267 
0.231343 -0.0315267 -9.85392 
-9.72031 -0.0255107 0.237856 
-0.0255107 -9.85116 -0.0106297 
0.237856 -0.0106297 -9.85093 
-9.75397 0.072257 0.276811 
0.072257 -9.82515 -0.011204 
0.276811 -0.011204 -9.84329 
-9.94429 -0.0239005 0.222898 
-0.0239005 -9.93504 0.0203331 
0.222898 0.0203331 -10.0482 
-9.98565 0.0141744 0.246431 
0.0141744 -9.98611 -0.00213626 
0.246431 -0.00213626 -9.95577 
-9.94045 0.00175658 0.239102 
0.00175658 -10.0112 -0.00204428 
0.239102 -0.00204428 -9.97589 
-9.97609 0.00257072 0.251273 
0.00257072 -9.99544 0.011539 
0.251273 0.011539 -9.95599 
-9.83688 0.0566322 0.158962 
0.0566322 -9.82575 0.169082 
0.158962 0.169082 -9.95723 
-9.80292 0.0403294 0.203264 
0.0403294 -9.82033 0.192301 
0.203264 0.192301 -9.99661 
-9.83216 0.0295862 0.176455 
0.0295862 -9.83782 0.174536 
0.176455 0.174536 -9.94988 
-9.85079 0.0349245 0.17421 
0.0349245 -9.8327 0.173176 
0.17421 0.173176 -9.93637 
-9.95715 0.0279569 0.147543 
0.0279569 -9.96718 -0.0176781 
0.147543 -0.0176781 -9.88072 
-9.96821 -0.00602567 0.160769 
-0.00602567 -9.97995 -0.0355891 
0.160769 -0.0355891 -9.8569 
-10 0.0329342 0.163299 
0.0329342 -9.97086 -0.0650612 
0.163299 -0.0650612 -9.83417 
-9.93933 -0.0267651 0.19 
-0.0267651 -9.98721 -0.0641192 
0.19 -0.0641192 -9.87851 
-9.88857 0.0582851 -0.124389 
0.0582851 -9.76497 -0.19511 
-0.124389 -0.19511 -9.92913 
-9.83943 0.00917296 -0.0929405 
0.00917296 -9.81213 -0.230934 
-0.0929405 -0.230934 -9.9311 
-9.83739 0.0429189 -0.12099 
0.0429189 -9.79721 -0.284556 
-0.12099 -0.284556 -9.94807 
-9.9106 0.0515016 -0.110845 
0.0515016 -9.78654 -0.223415 
-0.110845 -0.223415 -9.88553 
-9.82842 -0.291354 0.217259 
-0.291354 -9.0787 -0.0285442 
0.217259 -0.0285442 -8.6716 
-9.50779 0.075875 -0.818647 
0.075875 -9.3992 -0.0199199 
-0.818647 -0.0199199 -8.67173 
-9.98926 -0.41289 -0.128982 
-0.41289 -9.08556 -1.29653 
-0.128982 -1.29653 -8.5039 
-9.48916 0.0436464 0.72689 
0.0436464 -9.46672 -0.710652 
0.72689 -0.710652 -8.62285 
-9.85183 0.105645 0.206938 
0.105645 -9.77398 0.323579 
0.206938 0.323579 -9.69948 
-9.91556 0.00304576 0.050757 
0.00304576 -9.74889 0.258208 
0.050757 0.258208 -9.66084 
-9.97468 0.0488094 0.0905983 
0.0488094 -9.72727 0.344821 
0.0905983 0.344821 -9.62334 
-9.90445 0.0512146 0.156492 
0.0512146 -9.71084 0.314813 
0.156492 0.314813 -9.71001 
-9.87186 -0.00529402 0.0376902 
-0.00529402 -9.78456 0.33582 
0.0376902 0.33582 -9.71332 
-9.97581 -0.0602414 -0.0668799 
-0.0602414 -9.68658 0.35216 
-0.0668799 0.35216 -9.70735 
-9.98364 0.00510777 0.0246035 
0.00510777 -9.73964 0.326791 
0.0246035 0.326791 -9.64645 
-9.96881 -0.0157174 0.0104305 
-0.0157174 -9.75433 0.314595 
0.0104305 0.314595 -9.6466 
-10.8854 0.160992 0.254858 
0.160992 -10.2134 0.486412 
0.254858 0.486412 -11.4647 
-10.511 -0.1418 0.206432 
-0.1418 -10.2896 0.0519116 
0.206432 0.0519116 -11.7628 
-10.6808 -0.203029 -0.0026298 
-0.203029 -10.4901 0.0150244 
-0.0026298 0.0150244 -11.3925 
-10.7044 0.0699882 -0.148123 
0.0699882 -9.99514 0.135555 
-0.148123 0.135555 -11.8639 
-10.0161 1.33233 -0.114719 
1.33233 -12.736 -0.950646 
-0.114719 -0.950646 -16.3257 
-5.22572 -0.089189 -2.3537 
-0.089189 -10.5207 -1.49148 
-2.3537 -1.49148 -23.3314 
-9.79624 -0.953817 -0.218499 
-0.953817 -12.8382 0.0898937 
-0.218499 0.0898937 -16.4433 
-9.76679 0.34498 -0.827303 
0.34498 -14.2995 -0.157956 
-0.827303 -0.157956 -15.0115 
-10.087 0.0191147 0.153457 
0.0191147 -10.2319 0.0289253 
0.153457 0.0289253 -10.5443 
-10.1657 -0.0107238 0.0739232 
-0.0107238 -10.2499 0.00977076 
0.0739232 0.00977076 -10.4476 
-10.1146 -0.0468086 0.0388794 
-0.0468086 -10.1412 0.054111 
0.0388794 0.054111 -10.6074 
-10.1669 -0.00802378 0.0869305 
-0.00802378 -10.2233 0.0335478 
0.0869305 0.0335478 -10.4731 
-9.86355 0.00433209 0.148338 
0.00433209 -9.8362 -0.151664 
0.148338 -0.151664 -9.9203 
-9.84376 -0.0446587 0.145442 
-0.0446587 -9.81951 -0.163822 
0.145442 -0.163822 -9.95678 
-9.84372 -0.0367043 0.17366 
-0.0367043 -9.8645 -0.121797 
0.17366 -0.121797 -9.91182 
-9.807 -0.0221872 0.250407 
-0.0221872 -9.88187 -0.141283 
0.250407 -0.141283 -9.93117 
-9.80585 0.0610384 -0.118184 
0.0610384 -9.77785 -0.143551 
-0.118184 -0.143551 -9.88016 
-9.81533 0.0758164 -0.103761 
0.0758164 -9.79938 -0.17804 
-0.103761 -0.17804 -9.84914 
-9.80319 0.0529525 -0.121904 
0.0529525 -9.77274 -0.145597 
-0.121904 -0.145597 -9.88792 
-9.77741 0.0541704 -0.144132 
0.0541704 -9.80644 -0.161446 
-0.144132 -0.161446 -9.88001 
-10.3807 0.06593 -0.0332917 
0.06593 -9.38872 -0.481396 
-0.0332917 -0.481396 -8.56459 
-10.3868 0.0713261 0.108527 
0.0713261 -9.67259 -0.68483 
0.108527 -0.68483 -8.27464 
-10.5106 -0.0231584 0.0238936 
-0.0231584 -9.75035 -0.704953 
0.0238936 -0.704953 -8.07308 
-10.6674 -0.349865 0.672284 
-0.349865 -9.36318 -0.909809 
0.672284 -0.909809 -8.30337 
-9.90139 0.00885476 -0.194284 
0.00885476 -9.9085 -0.148627 
-0.194284 -0.148627 -9.9371 
-9.91043 0.00790038 -0.187391 
0.00790038 -9.89215 -0.139852 
-0.187391 -0.139852 -9.94442 
-9.90997 0.0186368 -0.156202 
0.0186368 -9.90234 -0.106258 
-0.156202 -0.106258 -9.93468 
-9.91567 0.0220882 -0.185668 
0.0220882 -9.88123 -0.150722 
-0.185668 -0.150722 -9.95009 
-10.0404 0.554484 0.656087 
0.554484 -12.6527 0.730433 
0.656087 0.730433 -6.71313 
-8.56883 -1.05186 -0.779297 
-1.05186 -12.2115 0.84518 
-0.779297 0.84518 -8.62591 
-9.73887 -0.339299 -0.994221 
-0.339299 -10.9271 0.955475 
-0.994221 0.955475 -8.74028 
-11.4904 0.042652 -1.83094 
0.042652 -10.9178 0.69988 
-1.83094 0.69988 -6.99806 
-9.97962 0.154336 0.332367 
0.154336 -9.64558 0.537068 
0.332367 0.537068 -9.44085 
-9.92016 -0.0260039 0.174804 
-0.0260039 -9.58485 0.320742 
0.174804 0.320742 -9.56104 
-9.91224 0.00530137 0.281138 
0.00530137 -9.78813 0.396899 
0.281138 0.396899 -9.36568 
-10.0588 0.0550701 0.275028 
0.0550701 -9.75819 0.414927 
0.275028 0.414927 -9.24909 
-9.975 0.021587 -0.0332198 
0.021587 -9.91396 0.019382 
-0.0332198 0.019382 -10.0408 
-9.91402 -0.0660977 0.286028 
-0.0660977 -9.91664 -0.00600969 
0.286028 -0.00600969 -10.0991 
-9.84179 0.0314664 0.054014 
0.0314664 -10.0387 -0.0187373 
0.054014 -0.0187373 -10.0493 
-9.89855 0.00886532 0.069497 
0.00886532 -10.0182 0.00334111 
0.069497 0.00334111 -10.013 
-9.85912 0.109567 -0.139872 
0.109567 -9.73505 -0.101938 
-0.139872 -0.101938 -10.2883 
-9.77643 0.0558832 -0.166203 
0.0558832 -9.81944 -0.212014 
-0.166203 -0.212014 -10.2866 
-9.77424 0.111087 -0.0647745 
0.111087 -9.85868 -0.149223 
-0.0647745 -0.149223 -10.2496 
-9.92641 0.111206 -0.166826 
0.111206 -9.75693 -0.174746 
-0.166826 -0.174746 -10.1992 
-9.87103 0.00883698 -0.0339982 
0.00883698 -9.46155 0.516705 
-0.0339982 0.516705 -9.42343 
-9.73482 0.0429127 0.036469 
0.0429127 -9.53885 0.373723 
0.036469 0.373723 -9.48235 
-9.67828 -0.00232601 0.00130409 
-0.00232601 -9.54296 0.347839 
0.00130409 0.347839 -9.53478 
-9.74375 0.0346896 0.0983079 
0.0346896 -9.51357 0.371307 
0.0983079 0.371307 -9.49869 
-9.97691 0.0378388 -0.130907 
0.0378388 -9.95883 -0.0550168 
-0.130907 -0.0550168 -9.84562 
-9.95101 -0.0114516 -0.176509 
-0.0114516 -10.0204 -0.0299139 
-0.176509 -0.0299139 -9.80992 
-9.87044 -0.0627631 -0.122661 
-0.0627631 -9.98614 -0.00571279 
-0.122661 -0.00571279 -9.92478 
-9.96521 0.014206 -0.149066 
0.014206 -9.96236 -0.034103 
-0.149066 -0.034103 -9.85378 
-9.80614 0.0281955 -0.101803 
0.0281955 -9.73024 -0.0572838 
-0.101803 -0.0572838 -9.93559 
-9.77487 0.0445479 -0.0745113 
0.0445479 -9.75385 -0.0280811 
-0.0745113 -0.0280811 -9.94326 
-9.76785 0.0518523 -0.0660819 
0.0518523 -9.77562 -0.0511451 
-0.0660819 -0.0511451 -9.92851 
-9.79487 0.0434188 -0.0508586 
0.0434188 -9.74231 -0.0386194 
-0.0508586 -0.0386194 -9.9348 
-9.89712 0.00348132 -0.137214 
0.00348132 -9.82255 0.155639 
-0.137214 0.155639 -9.88042 
-9.8418 -0.075431 -0.159315 
-0.075431 -9.81773 0.180816 
-0.159315 0.180816 -9.94056 
-9.83376 -0.0333679 -0.185029 
-0.0333679 -9.85446 0.0698203 
-0.185029 0.0698203 -9.91187 
-9.78644 -0.00263382 -0.250889 
-0.00263382 -9.84956 0.118437 
-0.250889 0.118437 -9.96409 
-8.19021 0.664027 0.540553 
0.664027 -10.0855 -0.632354 
0.540553 -0.632354 -8.39604 
-9.58192 0.173911 -1.1012 
0.173911 -8.76211 -1.69837 
-1.1012 -1.69837 -8.32775 
-8.96458 -0.452028 -1.89262 
-0.452028 -8.80632 -1.33995 
-1.89262 -1.33995 -8.90088 
-9.9008 -0.259823 -1.58984 
-0.259823 -8.63657 -1.35664 
-1.58984 -1.35664 -8.13441 
-9.76296 -0.0312324 -0.153557 
-0.0312324 -9.77546 0.145085 
-0.153557 0.145085 -9.99584 
-9.83666 -0.0306426 -0.137925 
-0.0306426 -9.84414 0.102302 
-0.137925 0.102302 -9.85346 
-9.81425 -0.0485378 -0.127362 
-0.0485378 -9.80244 0.0960263 
-0.127362 0.0960263 -9.91757 
-9.80034 -0.0563099 -0.122499 
-0.0563099 -9.82579 0.100883 
-0.122499 0.100883 -9.90813 
-9.82048 0.0380786 -0.0902423 
0.0380786 -9.79686 -0.165805 
-0.0902423 -0.165805 -9.87499 
-9.79883 0.0196455 -0.0925807 
0.0196455 -9.8279 -0.153665 
-0.0925807 -0.153665 -9.8656 
-9.78636 0.0167297 -0.111577 
0.0167297 -9.84818 -0.140347 
-0.111577 -0.140347 -9.8578 
-9.79534 0.0108066 -0.0815509 
0.0108066 -9.80552 -0.143205 
-0.0815509 -0.143205 -9.89147 
-10.2254 0.0396168 0.0156924 
0.0396168 -10.2418 0.0391291 
0.0156924 0.0391291 -10.275 
-10.2519 -0.000603833 -0.0309479 
-0.000603833 -10.3099 0.0645632 
-0.0309479 0.0645632 -10.1804 
-10.2289 0.00829626 0.0576652 
0.00829626 -10.1884 -0.00378211 
0.0576652 -0.00378211 -10.3248 
-10.254 -0.0432175 0.0533313 
-0.0432175 -10.1719 0.0484078 
0.0533313 0.0484078 -10.3163 
-9.95916 -0.0185427 -0.0366237 
-0.0185427 -9.98034 -0.0299013 
-0.0366237 -0.0299013 -10.0174 
-9.97856 0.00193727 -0.00579303 
0.00193727 -9.97679 0.0173563 
-0.00579303 0.0173563 -10.0016 
-9.96959 0.0119408 -0.017941 
0.0119408 -9.96821 0.00361055 
-0.017941 0.00361055 -10.0191 
-9.97631 0.000737901 -0.0218977 
0.000737901 -9.97355 0.0131518 
-0.0218977 0.0131518 -10.007 
-9.79654 0.0198826 -0.170085 
0.0198826 -9.83933 -0.170541 
-0.170085 -0.170541 -9.98774 
-9.89583 0.0187081 -0.159793 
0.0187081 -9.89348 -0.119407 
-0.159793 -0.119407 -9.8343 
-9.86357 0.0515239 -0.130693 
0.0515239 -9.84287 -0.121882 
-0.130693 -0.121882 -9.91717 
-9.87827 0.0326012 -0.152496 
0.0326012 -9.83719 -0.127953 
-0.152496 -0.127953 -9.90815 
-8.73326 0.173138 -0.562747 
0.173138 -10.1966 0.0249881 
-0.562747 0.0249881 -10.8683 
-8.64651 0.190979 -0.808853 
0.190979 -10.0221 -0.0914975 
-0.808853 -0.0914975 -11.1296 
-9.93278 -0.628529 -0.554548 
-0.628529 -10.3789 0.101337 
-0.554548 0.101337 -9.48652 
-10.311 0.17218 -1.07744 
0.17218 -9.66124 0.709215 
-1.07744 0.709215 -9.8259 
-9.58669 0.174355 -0.162795 
0.174355 -9.60984 -0.462011 
-0.162795 -0.462011 -10.3872 
-9.4442 -0.0561463 -0.176013 
-0.0561463 -9.43985 -0.143053 
-0.176013 -0.143053 -10.6997 
-9.72014 0.0112041 -0.223249 
0.0112041 -9.72278 -0.201778 
-0.223249 -0.201778 -10.1408 
-9.58967 0.220918 -0.375899 
0.220918 -9.55249 -0.544341 
-0.375899 -0.544341 -10.4416 
-9.93548 -0.188831 -0.186138 
-0.188831 -10.3387 0.12649 
-0.186138 0.12649 -10.6824 
-9.97127 -0.0189937 -0.281011 
-0.0189937 -10.4269 0.180193 
-0.281011 0.180193 -10.5584 
-9.94832 -0.0713535 -0.238484 
-0.0713535 -10.3596 0.0754043 
-0.238484 0.0754043 -10.6487 
-10.0778 -0.378234 -0.103939 
-0.378234 -10.4217 0.352045 
-0.103939 0.352045 -10.4571 
-9.94596 0.126169 0.0784601 
0.126169 -9.77293 -0.0518566 
0.0784601 -0.0518566 -9.76408 
-9.79215 -0.0526693 0.0932918 
-0.0526693 -9.81883 -0.0604393 
0.0932918 -0.0604393 -9.87199 
-9.72361 -0.0731583 0.148519 
-0.0731583 -9.80311 -0.0918917 
0.148519 -0.0918917 -9.95625 
-9.85709 -0.0727475 0.0659854 
-0.0727475 -9.72573 -0.092978 
0.0659854 -0.092978 -9.90015 
-10.0572 9.47506e-05 0.121604 
9.47506e-05 -10.0618 -0.00870245 
0.121604 -0.00870245 -9.93426 
-10.0025 0.00397122 0.100208 
0.00397122 -10.0186 -0.0241375 
0.100208 -0.0241375 -10.0321 
-10.0114 0.0131301 0.095231 
0.0131301 -10.0222 -0.00412242 
0.095231 -0.00412242 -10.0196 
-10.0609 -0.00439277 0.070815 
-0.00439277 -10.0259 -0.019119 
0.070815 -0.019119 -9.96644 
-9.88015 0.117604 -0.498071 
0.117604 -9.9616 -0.832965 
-0.498071 -0.832965 -8.88052 
-9.62573 0.038855 -0.267 
0.038855 -9.62533 -0.398596 
-0.267 -0.398596 -9.47121 
-9.65521 0.113555 -0.515715 
0.113555 -9.86437 -0.3381 
-0.515715 -0.3381 -9.20268 
-9.713 -0.00328383 -0.558086 
-0.00328383 -9.93597 -0.180891 
-0.558086 -0.180891 -9.07329 
-9.75872 -0.0606001 -0.147034 
-0.0606001 -9.77025 0.134765 
-0.147034 0.134765 -9.94599 
-9.76046 -0.0660589 -0.169895 
-0.0660589 -9.76786 0.153242 
-0.169895 0.153242 -9.94664 
-9.78629 -0.00351455 -0.163006 
-0.00351455 -9.77962 0.142798 
-0.163006 0.142798 -9.90905 
-9.74462 -0.063844 -0.1723 
-0.063844 -9.77742 0.152961 
-0.1723 0.152961 -9.95291 
-9.8251 0.0209871 -0.184361 
0.0209871 -9.85815 -0.101408 
-0.184361 -0.101408 -9.93602 
-9.85225 0.0400971 -0.248777 
0.0400971 -9.82692 -0.118462 
-0.248777 -0.118462 -9.9401 
-9.79753 0.0312115 -0.190852 
0.0312115 -9.87044 -0.103161 
-0.190852 -0.103161 -9.9513 
-9.83138 0.0394718 -0.205536 
0.0394718 -9.83979 -0.113791 
-0.205536 -0.113791 -9.94809 
-9.86765 -0.0670748 0.175811 
-0.0670748 -9.89789 -0.151613 
0.175811 -0.151613 -10.1671 
-9.94132 -0.125738 -0.0145519 
-0.125738 -9.82244 0.00739072 
-0.0145519 0.00739072 -10.1689 
-9.91817 -0.113246 0.0233312 
-0.113246 -9.80529 -0.0284132 
0.0233312 -0.0284132 -10.2092 
-9.90461 -0.158278 -0.0135275 
-0.158278 -9.75835 -0.0103871 
-0.0135275 -0.0103871 -10.2697 
-6.74333 0.649618 -0.603474 
0.649618 -7.06532 -0.11037 
-0.603474 -0.11037 -1.22051 
-6.52142 0.290946 -1.24235 
0.290946 -7.12018 -0.421491 
-1.24235 -0.421491 -1.38756 
-6.14581 -0.122297 -1.09841 
-0.122297 -7.85941 0.350967 
-1.09841 0.350967 -1.02394 
-5.54736 0.651614 -0.163218 
0.651614 -8.13508 -0.886321 
-0.163218 -0.886321 -1.34672 
-9.69602 0.126863 0.0121028 
0.126863 -9.79135 0.0289779 
0.0121028 0.0289779 -9.96426 
-9.82266 -0.10887 0.0975422 
-0.10887 -9.85218 0.159512 
0.0975422 0.159512 -9.77678 
-9.86844 -0.0383803 0.0844688 
-0.0383803 -9.8209 0.131699 
0.0844688 0.131699 -9.76229 
-9.76417 0.0734338 0.173943 
0.0734338 -9.74329 0.0713284 
0.173943 0.0713284 -9.94416 
-10.1939 -0.214211 0.312382 
-0.214211 -9.54238 -0.461703 
0.312382 -0.461703 -9.07661 
-10.1039 -0.152077 0.37387 
-0.152077 -9.54305 -0.487606 
0.37387 -0.487606 -9.16591 
-10.1037 -0.154799 0.392547 
-0.154799 -9.62833 -0.538521 
0.392547 -0.538521 -9.08087 
-10.2777 -0.227304 0.435412 
-0.227304 -9.43918 -0.409229 
0.435412 -0.409229 -9.09606 
-9.9795 -0.0665973 -0.0356774 
-0.0665973 -9.91551 0.218953 
-0.0356774 0.218953 -9.93147 
-9.9909 0.0115567 0.0230489 
0.0115567 -9.93167 0.21979 
0.0230489 0.21979 -9.90391 
-9.98622 0.0181748 -0.0159947 
0.0181748 -9.9464 0.213718 
-0.0159947 0.213718 -9.89385 
-9.99116 -0.0441993 0.0480243 
-0.0441993 -9.95711 0.221303 
0.0480243 0.221303 -9.87821 
-10.0143 -0.00207297 -0.0104494 
-0.00207297 -9.72265 -0.376121 
-0.0104494 -0.376121 -9.75406 
-9.99702 0.0625658 -0.186117 
0.0625658 -9.58649 -0.282568 
-0.186117 -0.282568 -9.90754 
-9.86416 0.00428255 -0.0160076 
0.00428255 -9.71717 -0.249888 
-0.0160076 -0.249888 -9.90972 
-9.99669 0.0454883 -0.0575314 
0.0454883 -9.6085 -0.303734 
-0.0575314 -0.303734 -9.88587 
-9.88044 -0.0112943 0.0513157 
-0.0112943 -9.72452 -0.232609 
0.0513157 -0.232609 -9.89571 
-9.8549 -0.0237649 0.0566804 
-0.0237649 -9.76697 -0.268369 
0.0566804 -0.268369 -9.8788 
-9.90428 -0.00603709 0.0963323 
-0.00603709 -9.74268 -0.338412 
0.0963323 -0.338412 -9.85371 
-9.83884 -0.0274246 0.139877 
-0.0274246 -9.7727 -0.229955 
0.139877 -0.229955 -9.88913 
-9.7306 -0.0500908 0.314678 
-0.0500908 -9.82801 -0.0401193 
0.314678 -0.0401193 -9.80547 
-9.65793 -0.00204057 0.381537 
-0.00204057 -10.0266 -0.0454747 
0.381537 -0.0454747 -9.67956 
-9.72324 0.040651 0.280644 
0.040651 -9.90511 0.0535949 
0.280644 0.0535949 -9.73572 
-9.70979 0.0027285 0.307322 
0.0027285 -9.91518 -0.0053247 
0.307322 -0.0053247 -9.7391 
-9.86026 -0.0645715 -0.191646 
-0.0645715 -9.76975 -0.0657317 
-0.191646 -0.0657317 -9.76239 
-9.76903 0.0547341 -0.179131 
0.0547341 -9.79431 -0.0488505 
-0.179131 -0.0488505 -9.82905 
-9.76266 0.0291048 -0.18379 
0.0291048 -9.79037 -0.0589278 
-0.18379 -0.0589278 -9.83937 
-9.74725 0.0172501 -0.174927 
0.0172501 -9.81382 -0.0615272 
-0.174927 -0.0615272 -9.83133 
-9.7902 -0.0213227 0.15694 
-0.0213227 -9.79656 -0.0832192 
0.15694 -0.0832192 -9.84099 
-9.72588 -0.134417 0.119263 
-0.134417 -9.75986 -0.0592908 
0.119263 -0.0592908 -9.94201 
-9.90062 0.0878166 0.163636 
0.0878166 -9.76291 -0.0642239 
0.163636 -0.0642239 -9.76422 
-9.68446 -0.00959396 0.178975 
-0.00959396 -9.8526 -0.140857 
0.178975 -0.140857 -9.89069 
-9.89721 -0.533473 -0.0176005 
-0.533473 -9.64528 -0.231998 
-0.0176005 -0.231998 -10.2307 
-9.91428 -0.392775 0.141155 
-0.392775 -9.6893 -0.318208 
0.141155 -0.318208 -10.1697 
-9.73042 -0.627253 0.2594 
-0.627253 -9.85021 -0.248697 
0.2594 -0.248697 -10.1926 
-10.2027 -0.655616 -0.205799 
-0.655616 -9.50937 -0.390648 
-0.205799 -0.390648 -10.0612 
-9.80071 -0.00244088 0.0819929 
-0.00244088 -9.74559 -0.208171 
0.0819929 -0.208171 -9.84982 
-9.80709 -0.00803896 0.0347715 
-0.00803896 -9.73614 -0.249862 
0.0347715 -0.249862 -9.8529 
-9.82698 -0.0116314 0.0212828 
-0.0116314 -9.70778 -0.212479 
0.0212828 -0.212479 -9.86137 
-9.80989 -0.0103323 0.0263162 
-0.0103323 -9.73578 -0.23507 
0.0263162 -0.23507 -9.85045 
-9.93995 0.00145428 0.0813382 
0.00145428 -9.57331 0.362108 
0.0813382 0.362108 -9.46839 
-10.0544 -0.0548257 0.0553297 
-0.0548257 -9.52871 0.426709 
0.0553297 0.426709 -9.3985 
-9.92707 0.0236424 0.0511273 
0.0236424 -9.54676 0.336393 
0.0511273 0.336393 -9.50782 
-9.9401 0.00168053 0.0736761 
0.00168053 -9.56282 0.348263 
0.0736761 0.348263 -9.47872 
-9.73627 -0.136757 -0.652041 
-0.136757 -9.74814 -0.696286 
-0.652041 -0.696286 -9.84195 
-9.07081 0.232118 -0.32924 
0.232118 -9.75958 -0.817043 
-0.32924 -0.817043 -10.496 
-9.60117 -0.0201753 -0.105183 
-0.0201753 -9.5735 -0.437967 
-0.105183 -0.437967 -10.1517 
-9.61428 -0.0465122 -0.418289 
-0.0465122 -9.5017 -0.442889 
-0.418289 -0.442889 -10.2104 
-9.90126 0.00315773 -0.177106 
0.00315773 -9.87777 0.208253 
-0.177106 0.208253 -9.96166 
-9.90286 -0.025897 -0.141325 
-0.025897 -9.91608 0.144325 
-0.141325 0.144325 -9.92174 
-9.88633 -0.026385 -0.15689 
-0.026385 -9.88132 0.172544 
-0.15689 0.172544 -9.97305 
-9.88896 -0.0286251 -0.16143 
-0.0286251 -9.90286 0.168997 
-0.16143 0.168997 -9.94886 
-10.0948 0.0601665 -0.123633 
0.0601665 -9.88176 -0.435297 
-0.123633 -0.435297 -9.44692 
-10.2343 0.0107818 -0.0326657 
0.0107818 -9.72319 -0.561304 
-0.0326657 -0.561304 -9.46594 
-10.0971 0.0885712 -0.116844 
0.0885712 -9.83562 -0.434963 
-0.116844 -0.434963 -9.49074 
-10.0366 0.101816 -0.168989 
0.101816 -9.74064 -0.316547 
-0.168989 -0.316547 -9.64621 
-9.98477 0.0203864 0.107202 
0.0203864 -10.003 0.171868 
0.107202 0.171868 -9.94446 
-10.0063 0.00169012 0.0958388 
0.00169012 -9.99614 0.162796 
0.0958388 0.162796 -9.92981 
-9.91465 -0.00110582 0.107201 
-0.00110582 -9.8952 0.118172 
0.107201 0.118172 -10.1224 
-10.0066 0.002924 0.131026 
0.002924 -10.0032 0.145386 
0.131026 0.145386 -9.92241 
-10.1974 0.14458 0.0624789 
0.14458 -9.12298 -0.706658 
0.0624789 -0.706658 -9.11742 
-10.2586 0.370911 -0.177746 
0.370911 -9.45591 -0.326797 
-0.177746 -0.326797 -8.72329 
-10.8379 -0.112942 0.205522 
-0.112942 -9.72701 -0.200078 
0.205522 -0.200078 -7.87287 
-11.3484 -0.473279 -1.14886 
-0.473279 -8.70341 -0.068384 
-1.14886 -0.068384 -8.38603 
-9.56186 0.0715626 -0.177128 
0.0715626 -9.64954 -0.459291 
-0.177128 -0.459291 -10.4629 
-9.53862 0.103696 -0.169912 
0.103696 -9.58003 -0.398293 
-0.169912 -0.398293 -10.5557 
-9.62785 0.20231 -0.132429 
0.20231 -9.59487 -0.550252 
-0.132429 -0.550252 -10.4516 
-9.50111 0.0417778 -0.171186 
0.0417778 -9.6763 -0.481792 
-0.171186 -0.481792 -10.4969 
-9.97415 -0.0464482 0.0853104 
-0.0464482 -9.80808 -0.301491 
0.0853104 -0.301491 -9.83335 
-9.95036 -0.0378859 0.0644122 
-0.0378859 -9.8163 -0.293289 
0.0644122 -0.293289 -9.84892 
-9.96052 -0.0224248 0.0726671 
-0.0224248 -9.80261 -0.265348 
0.0726671 -0.265348 -9.85246 
-9.99698 0.00843544 0.054865 
0.00843544 -9.7586 -0.29565 
0.054865 -0.29565 -9.86001 
-9.74672 0.0702704 0.250717 
0.0702704 -9.84662 0.145257 
0.250717 0.145257 -9.88217 
-9.74969 0.013424 0.230708 
0.013424 -9.85566 0.112974 
0.230708 0.112974 -9.87016 
-9.72664 0.0702166 0.221619 
0.0702166 -9.85482 0.136842 
0.221619 0.136842 -9.89405 
-9.7067 0.0318389 0.34114 
0.0318389 -9.89651 0.155203 
0.34114 0.155203 -9.8723 
-9.06957 0.427566 0.81128 
0.427566 -9.63916 -0.102213 
0.81128 -0.102213 -8.73825 
-9.11751 -0.848167 0.580124 
-0.848167 -9.81061 -0.914814 
0.580124 -0.914814 -8.51885 
-9.31546 -0.259681 0.92705 
-0.259681 -10.506 -0.340377 
0.92705 -0.340377 -7.62549 
-8.43116 -0.843783 1.21348 
-0.843783 -11.5587 -0.145206 
1.21348 -0.145206 -7.45707 
-9.94162 -0.040086 -0.180667 
-0.040086 -9.81651 0.294369 
-0.180667 0.294369 -9.8444 
-9.89466 -0.0619767 -0.196065 
-0.0619767 -9.8349 0.236832 
-0.196065 0.236832 -9.87297 
-9.90338 -0.0609597 -0.204674 
-0.0609597 -9.79723 0.238141 
-0.204674 0.238141 -9.90192 
-9.88421 -0.0230473 -0.100069 
-0.0230473 -9.84372 0.147901 
-0.100069 0.147901 -9.8746 
-9.92889 -0.0119542 -0.12808 
-0.0119542 -9.90438 -0.149342 
-0.12808 -0.149342 -9.80756 
-9.94129 -0.0146953 -0.161438 
-0.0146953 -9.96811 -0.175082 
-0.161438 -0.175082 -9.73142 
-9.92599 0.00164018 -0.162976 
0.00164018 -9.91335 -0.176247 
-0.162976 -0.176247 -9.80149 
-9.91866 0.00785235 -0.171444 
0.00785235 -9.89991 -0.184603 
-0.171444 -0.184603 -9.82226 
-10.7807 -0.321535 0.492823 
-0.321535 -7.65864 -1.72443 
0.492823 -1.72443 -9.88849 
-10.1984 0.985316 -0.502524 
0.985316 -9.16528 -1.29052 
-0.502524 -1.29052 -8.96417 
-10.341 0.184076 0.000251526 
0.184076 -8.94643 -1.42213 
0.000251526 -1.42213 -9.04044 
-9.62207 -0.563589 0.703139 
-0.563589 -8.64248 -0.506549 
0.703139 -0.506549 -10.0633 
-8.36279 -1.25694 -0.864649 
-1.25694 -13.8699 -0.303164 
-0.864649 -0.303164 -12.1823 
-13.9936 3.8314 -3.32405 
3.8314 -2.53607 1.97603 
-3.32405 1.97603 -17.8854 
-10.8912 -0.546374 1.16096 
-0.546374 -9.856 2.19351 
1.16096 2.19351 -13.6678 
-13.0612 1.47957 2.26574 
1.47957 -10.0381 2.94607 
2.26574 2.94607 -11.3157 
-9.76448 -0.0533524 -0.385868 
-0.0533524 -9.63602 0.255994 
-0.385868 0.255994 -8.81237 
-9.66105 -0.0306975 -0.299818 
-0.0306975 -9.57015 0.355585 
-0.299818 0.355585 -8.98167 
-9.7523 0.0225979 -0.353479 
0.0225979 -9.60698 0.242601 
-0.353479 0.242601 -8.85359 
-9.83248 -0.00471355 -0.743241 
-0.00471355 -9.79843 0.376655 
-0.743241 0.376655 -8.58196 
-9.86927 0.0695392 0.149654 
0.0695392 -9.70151 0.234505 
0.149654 0.234505 -9.91772 
-9.85294 0.0902375 0.154806 
0.0902375 -9.69749 0.205126 
0.154806 0.205126 -9.93807 
-9.86976 0.0492409 0.156352 
0.0492409 -9.67764 0.235464 
0.156352 0.235464 -9.9411 
-9.80382 0.0724709 0.125729 
0.0724709 -9.7163 0.203153 
0.125729 0.203153 -9.96838 
-9.73932 -0.164045 -0.036637 
-0.164045 -9.84458 0.00517641 
-0.036637 0.00517641 -9.95087 
-9.89862 0.0684072 -0.0965557 
0.0684072 -9.82014 0.099056 
-0.0965557 0.099056 -9.81601 
-9.8507 0.0746535 -0.0794897 
0.0746535 -9.84084 0.155762 
-0.0794897 0.155762 -9.84323 
-9.82251 -0.0808674 -0.203382 
-0.0808674 -9.71343 0.068003 
-0.203382 0.068003 -9.99884 
-9.93569 -0.0052446 0.130289 
-0.0052446 -9.97779 0.0223518 
0.130289 0.0223518 -9.87524 
-9.95524 -0.0411538 0.12444 
-0.0411538 -10.0354 0.0570161 
0.12444 0.0570161 -9.79804 
-9.98747 0.0131973 0.134658 
0.0131973 -9.9564 0.0316409 
0.134658 0.0316409 -9.84486 
-9.98464 0.0518689 0.144197 
0.0518689 -9.9355 0.0958513 
0.144197 0.0958513 -9.86859 
-9.90848 0.00405029 -0.233743 
0.00405029 -9.91555 -0.024556 
-0.233743 -0.024556 -9.94374 
-9.90089 0.0126364 -0.219995 
0.0126364 -9.94551 -0.0108354 
-0.219995 -0.0108354 -9.92137 
-9.89768 -0.00160929 -0.240507 
-0.00160929 -9.92766 -0.0256208 
-0.240507 -0.0256208 -9.94243 
-9.90373 0.00925049 -0.238732 
0.00925049 -9.92825 -0.0253957 
-0.238732 -0.0253957 -9.93579 
-9.9452 0.000167927 -0.225523 
0.000167927 -9.96203 0.045165 
-0.225523 0.045165 -9.98522 
-9.9617 -0.00456137 -0.226875 
-0.00456137 -9.97428 0.0438523 
-0.226875 0.0438523 -9.95648 
-9.92061 0.000946057 -0.244477 
0.000946057 -9.95156 0.0579368 
-0.244477 0.0579368 -10.0203 
-9.93831 -0.0141718 -0.204073 
-0.0141718 -9.98111 0.0539188 
-0.204073 0.0539188 -9.97303 
-10.1493 -0.119104 0.166879 
-0.119104 -10.3055 -0.142495 
0.166879 -0.142495 -10.8965 
-10.3734 0.0312561 0.0128416 
0.0312561 -10.1028 -0.0180595 
0.0128416 -0.0180595 -10.8752 
-10.5066 0.0225902 0.0647021 
0.0225902 -10.1446 -0.161113 
0.0647021 -0.161113 -10.7002 
-10.2576 -0.22376 0.06018 
-0.22376 -10.4137 0.104319 
0.06018 0.104319 -10.6801 
-9.90463 0.00683854 0.235693 
0.00683854 -9.91577 0.0170723 
0.235693 0.0170723 -9.71298 
-9.85151 0.00554417 0.239997 
0.00554417 -9.91241 0.0147571 
0.239997 0.0147571 -9.76946 
-9.90005 -0.0100079 0.198986 
-0.0100079 -9.90578 0.0215609 
0.198986 0.0215609 -9.72755 
-9.88592 0.000686971 0.228214 
0.000686971 -9.91227 0.0128369 
0.228214 0.0128369 -9.73519 
-8.01162 0.0201685 1.25923 
0.0201685 -9.5897 0.0949183 
1.25923 0.0949183 -11.341 
-10.6128 0.597805 1.86375 
0.597805 -8.55857 -3.03125 
1.86375 -3.03125 -9.77097 
-9.81068 1.61993 3.41507 
1.61993 -8.44487 -2.20977 
3.41507 -2.20977 -10.6868 
-9.26689 -0.422299 -0.183932 
-0.422299 -9.02343 1.12244 
-0.183932 1.12244 -10.652 
-10.0012 0.0170316 0.014836 
0.0170316 -9.8375 0.251404 
0.014836 0.251404 -9.67459 
-9.98957 0.0296188 0.0117354 
0.0296188 -9.80873 0.249571 
0.0117354 0.249571 -9.71498 
-10.0017 -0.002477 0.0229171 
-0.002477 -9.84746 0.245404 
0.0229171 0.245404 -9.66413 
-10.0041 0.0287045 0.0172485 
0.0287045 -9.80854 0.267394 
0.0172485 0.267394 -9.70068 
-9.92445 -0.0145373 0.155421 
-0.0145373 -9.90157 -0.191207 
0.155421 -0.191207 -9.9805 
-9.93572 -0.0313783 0.183289 
-0.0313783 -9.92371 -0.1996 
0.183289 -0.1996 -9.9471 
-9.91911 -0.027219 0.167688 
-0.027219 -9.9144 -0.185118 
0.167688 -0.185118 -9.97302 
-9.91581 -0.0218473 0.168034 
-0.0218473 -9.91161 -0.191116 
0.168034 -0.191116 -9.9791 
-9.71912 -0.0682077 0.0935084 
-0.0682077 -9.84064 -0.102696 
0.0935084 -0.102696 -9.98398 
-9.76834 -0.104065 0.0951325 
-0.104065 -9.74277 -0.0789882 
0.0951325 -0.0789882 -10.0326 
-9.78087 0.0161569 0.0833647 
0.0161569 -9.75246 -0.100391 
0.0833647 -0.100391 -10.0104 
-9.761 -0.0462836 0.0786027 
-0.0462836 -9.77043 -0.0796532 
0.0786027 -0.0796532 -10.0123 
-7.38154 -3.39546 0.951634 
-3.39546 -7.51165 0.717935 
0.951634 0.717935 -5.26676 
-15.2785 4.29537 -2.32343 
4.29537 -7.21142 5.84794 
-2.32343 5.84794 2.32995 
-7.58692 1.09555 -1.32447 
1.09555 -4.74333 3.68226 
-1.32447 3.68226 -7.8297 
-4.73966 -1.98441 -2.66949 
-1.98441 -10.1089 -0.393732 
-2.66949 -0.393732 -5.31136 
-9.89624 -0.00036862 -0.249896 
-0.00036862 -9.93021 0.0153287 
-0.249896 0.0153287 -9.93898 
-9.89268 -0.00626077 -0.229286 
-0.00626077 -9.94128 0.00786355 
-0.229286 0.00786355 -9.93147 
-9.91849 -0.00311029 -0.212522 
-0.00311029 -9.90864 0.0219264 
-0.212522 0.0219264 -9.9383 
-9.89754 0.00760222 -0.243224 
0.00760222 -9.93072 0.0189552 
-0.243224 0.0189552 -9.93717 
-9.85049 -0.0429195 0.130086 
-0.0429195 -9.80621 -0.209489 
0.130086 -0.209489 -9.91649 
-9.84771 -0.0184156 0.129678 
-0.0184156 -9.80796 -0.212681 
0.129678 -0.212681 -9.91752 
-9.85114 -0.0300291 0.111082 
-0.0300291 -9.79369 -0.1962 
0.111082 -0.1962 -9.92836 
-9.84919 -0.0461453 0.126016 
-0.0461453 -9.81162 -0.216561 
0.126016 -0.216561 -9.91237 
-9.8189 -0.0295919 -0.131411 
-0.0295919 -9.77029 0.0665244 
-0.131411 0.0665244 -9.06514 
-9.8415 0.00285198 -0.220952 
0.00285198 -9.89698 0.0605872 
-0.220952 0.0605872 -8.91585 
-9.82831 0.0346238 -0.139743 
0.0346238 -9.82825 0.0363797 
-0.139743 0.0363797 -8.99778 
-9.77234 0.116845 -0.0351837 
0.116845 -9.80778 -0.124536 
-0.0351837 -0.124536 -9.07421 
-9.63321 0.0604826 -0.255224 
0.0604826 -9.85883 0.190814 
-0.255224 0.190814 -9.7732 
-9.72071 -0.0748185 -0.233454 
-0.0748185 -9.98663 0.359662 
-0.233454 0.359662 -9.5579 
-9.653 -0.132578 -0.355268 
-0.132578 -10.0092 0.334972 
-0.355268 0.334972 -9.603 
-9.70697 -0.168899 -0.355596 
-0.168899 -10.0228 0.247292 
-0.355596 0.247292 -9.53547 
-9.86079 -0.0297113 -0.0822642 
-0.0297113 -9.75313 0.268229 
-0.0822642 0.268229 -9.84881 
-9.86108 -0.0169109 -0.0981985 
-0.0169109 -9.758 0.243989 
-0.0981985 0.243989 -9.84364 
-9.85175 -0.0204163 -0.089044 
-0.0204163 -9.75961 0.24078 
-0.089044 0.24078 -9.85136 
-9.81575 -0.0733546 -0.100118 
-0.0733546 -9.76806 0.24839 
-0.100118 0.24839 -9.87891 
-9.94942 0.267548 -0.222246 
0.267548 -9.72876 -0.370599 
-0.222246 -0.370599 -10.7874 
-10.0195 0.426288 -0.0796158 
0.426288 -9.91849 -0.124074 
-0.0796158 -0.124074 -10.5276 
-10.0453 0.525482 0.0520107 
0.525482 -9.80074 0.284935 
0.0520107 0.284935 -10.6195 
-10.0089 0.0426698 0.11265 
0.0426698 -10.181 0.0847814 
0.11265 0.0847814 -10.2756 
-9.93731 0.0200462 0.15331 
0.0200462 -9.95002 0.171624 
0.15331 0.171624 -9.97611 
-9.93766 -0.0077058 0.184111 
-0.0077058 -9.94658 0.189446 
0.184111 0.189446 -9.97921 
-9.93949 0.00341781 0.15964 
0.00341781 -9.9341 0.160539 
0.15964 0.160539 -9.98986 
-9.94529 0.00911048 0.183856 
0.00911048 -9.9546 0.181847 
0.183856 0.181847 -9.96356 
-9.93318 -0.0136859 -0.159471 
-0.0136859 -9.9418 -0.17047 
-0.159471 -0.17047 -9.89169 
-9.98179 0.033806 -0.165684 
0.033806 -9.93485 -0.198371 
-0.165684 -0.198371 -9.85005 
-9.92762 0.0426823 -0.183705 
0.0426823 -9.88547 -0.148673 
-0.183705 -0.148673 -9.95358 
-9.91804 -0.0128756 -0.144901 
-0.0128756 -9.95066 -0.191733 
-0.144901 -0.191733 -9.89798 
-9.79966 -0.0902566 0.142036 
-0.0902566 -9.81649 -0.153078 
0.142036 -0.153078 -9.92933 
-9.83601 0.0276716 0.101816 
0.0276716 -9.84114 -0.0698513 
0.101816 -0.0698513 -9.86833 
-9.88275 0.0428085 0.0984231 
0.0428085 -9.84909 -0.0695679 
0.0984231 -0.0695679 -9.81364 
-9.81813 -0.0278071 0.0573337 
-0.0278071 -9.77295 -0.0978971 
0.0573337 -0.0978971 -9.9544 
-9.81712 -0.00528638 -0.127665 
-0.00528638 -9.85163 -0.146503 
-0.127665 -0.146503 -9.89005 
-9.82373 -0.0955014 -0.12971 
-0.0955014 -9.91829 -0.125934 
-0.12971 -0.125934 -9.81678 
-9.84781 0.103327 -0.115433 
0.103327 -9.77484 -0.0848887 
-0.115433 -0.0848887 -9.93614 
-9.8165 0.00174922 -0.172688 
0.00174922 -9.80888 -0.168186 
-0.172688 -0.168186 -9.93341 
-5.60929 4.28328 -3.16805 
4.28328 -9.36572 2.30595 
-3.16805 2.30595 -19.2857 
-10.246 1.63739 -2.31451 
1.63739 -13.7768 -0.356007 
-2.31451 -0.356007 -10.2379 
-12.3144 -2.56597 0.901852 
-2.56597 -8.44105 1.65777 
0.901852 1.65777 -13.5053 
-9.54666 -1.93374 0.426268 
-1.93374 -12.4997 -1.84714 
0.426268 -1.84714 -12.2144 
-9.72495 -0.0732215 -0.114858 
-0.0732215 -9.71049 0.011434 
-0.114858 0.011434 -10.0461 
-9.82529 -0.025054 -0.134604 
-0.025054 -9.90444 0.128199 
-0.134604 0.128199 -9.75186 
-9.76361 -0.0735413 -0.187852 
-0.0735413 -9.80944 0.0854298 
-0.187852 0.0854298 -9.90854 
-9.77049 -0.0731442 -0.223616 
-0.0731442 -9.76694 0.158595 
-0.223616 0.158595 -9.94415 
-9.92824 0.0551367 -0.211574 
0.0551367 -9.93244 -0.19049 
-0.211574 -0.19049 -9.77458 
-9.93137 0.0345186 -0.160708 
0.0345186 -9.91518 -0.22109 
-0.160708 -0.22109 -9.78871 
-9.93778 0.0350773 -0.208398 
0.0350773 -9.9265 -0.225375 
-0.208398 -0.225375 -9.77098 
-9.89759 0.0350573 -0.154672 
0.0350573 -9.96257 -0.168817 
-0.154672 -0.168817 -9.7751 
-9.91562 -0.0207373 -0.00349713 
-0.0207373 -9.96977 -0.00395756 
-0.00349713 -0.00395756 -10.2825 
-9.98091 0.0627127 -0.0478019 
0.0627127 -10.1565 -0.0345759 
-0.0478019 -0.0345759 -10.0305 
-9.88901 0.0996237 -0.0284037 
0.0996237 -9.96811 -0.0428235 
-0.0284037 -0.0428235 -10.3107 
-9.99666 0.114554 0.0264324 
0.114554 -10.0544 -0.119303 
0.0264324 -0.119303 -10.1168 
-9.97716 -0.00884712 -0.024438 
-0.00884712 -9.94537 -0.000975983 
-0.024438 -0.000975983 -10.0032 
-9.9729 0.00879934 -0.00131876 
0.00879934 -9.97094 0.0151547 
-0.00131876 0.0151547 -9.98191 
-9.97089 0.00265919 -0.0195241 
0.00265919 -9.96347 -0.0173933 
-0.0195241 -0.0173933 -9.99139 
-9.96954 0.00800766 -0.00489109 
0.00800766 -9.96328 0.00772402 
-0.00489109 0.00772402 -9.99293 
-9.92629 0.0115159 -0.0192688 
0.0115159 -9.96384 -0.0356164 
-0.0192688 -0.0356164 -10.0078 
-9.97469 0.0569236 -0.0167524 
0.0569236 -9.96733 -0.0634339 
-0.0167524 -0.0634339 -9.95595 
-9.93289 0.0542034 0.0663364 
0.0542034 -9.95492 0.019294 
0.0663364 0.019294 -10.0102 
-9.91027 0.039614 -0.0189044 
0.039614 -9.94775 -0.00757112 
-0.0189044 -0.00757112 -10.0399 
-9.80908 0.126369 -0.0567927 
0.126369 -9.75657 -0.0424529 
-0.0567927 -0.0424529 -9.98125 
-9.82868 -0.0108009 -0.0964954 
-0.0108009 -9.85626 -0.0604496 
-0.0964954 -0.0604496 -9.86195 
-9.8639 -0.0600336 -0.115509 
-0.0600336 -9.82745 -0.0582048 
-0.115509 -0.0582048 -9.85555 
-9.76474 0.036194 -0.104593 
0.036194 -9.84995 -0.153359 
-0.104593 -0.153359 -9.93221 
-9.90852 -0.00695853 -0.164438 
-0.00695853 -9.88708 -0.140231 
-0.164438 -0.140231 -9.87733 
-9.88603 -0.0108176 -0.150938 
-0.0108176 -9.88838 -0.148096 
-0.150938 -0.148096 -9.89852 
-9.83924 0.045595 -0.181837 
0.045595 -9.8675 -0.175333 
-0.181837 -0.175333 -9.96619 
-9.88655 0.0331732 -0.108757 
0.0331732 -9.84648 -0.152129 
-0.108757 -0.152129 -9.93991 
-10.1368 0.235869 0.209377 
0.235869 -9.55383 -0.483919 
0.209377 -0.483919 -9.56689 
-9.96786 -0.394285 0.511511 
-0.394285 -9.64459 -0.64469 
0.511511 -0.64469 -9.64512 
-9.9287 -0.187744 0.0649171 
-0.187744 -9.51666 -0.362926 
0.0649171 -0.362926 -9.8122 
-10.1416 -0.190535 0.416947 
-0.190535 -9.53161 -0.367125 
0.416947 -0.367125 -9.58434 
-9.99602 -0.00720265 0.213037 
-0.00720265 -10.0229 -0.084016 
0.213037 -0.084016 -9.97515 
-10.0091 -0.0209606 0.212335 
-0.0209606 -9.99707 -0.0719018 
0.212335 -0.0719018 -9.98786 
-9.98243 -0.00426896 0.208273 
-0.00426896 -9.98759 -0.0645968 
0.208273 -0.0645968 -10.024 
-10.0091 -0.00125459 0.206797 
-0.00125459 -10.0131 -0.0822564 
0.206797 -0.0822564 -9.97185 
-9.7878 0.0259687 -0.0750353 
0.0259687 -9.80499 0.133621 
-0.0750353 0.133621 -9.93766 
-9.84402 -0.0349792 -0.114407 
-0.0349792 -9.79013 0.126036 
-0.114407 0.126036 -9.8963 
-9.75352 -0.0320609 -0.115181 
-0.0320609 -9.79575 0.181247 
-0.115181 0.181247 -9.98119 
-9.82196 -0.0532383 -0.138285 
-0.0532383 -9.84444 0.226857 
-0.138285 0.226857 -9.86405 
-10.1685 -0.0222392 0.0299592 
-0.0222392 -10.0725 -0.106564 
0.0299592 -0.106564 -10.2552 
-10.0784 -0.00804429 -0.0374409 
-0.00804429 -10.0416 -0.0987498 
-0.0374409 -0.0987498 -10.3762 
-10.3318 -0.00243458 -0.0553962 
-0.00243458 -10.1969 0.0293984 
-0.0553962 0.0293984 -9.96754 
-10.2372 0.00420465 0.162301 
0.00420465 -10.0227 -0.0277007 
0.162301 -0.0277007 -10.2363 
-9.97057 0.190339 0.0935441 
0.190339 -9.43624 0.0599639 
0.0935441 0.0599639 -10.9649 
-9.78292 -0.333443 -0.0293659 
-0.333443 -10.2238 -0.890686 
-0.0293659 -0.890686 -10.365 
-9.83582 0.513197 0.117603 
0.513197 -9.4108 -0.200313 
0.117603 -0.200313 -11.1251 
-10.3846 -0.117532 0.313165 
-0.117532 -9.09285 0.289353 
0.313165 0.289353 -10.8942 
-6.25531 -2.01959 0.0755425 
-2.01959 -9.85246 2.51493 
0.0755425 2.51493 -6.5283 
-6.46071 0.441537 -0.583235 
0.441537 -10.1795 3.50037 
-0.583235 3.50037 -5.99582 
-6.67674 2.01703 1.49575 
2.01703 -11.0927 3.68675 
1.49575 3.68675 -4.86659 
-8.42838 0.785892 -2.62177 
0.785892 -8.2666 3.05885 
-2.62177 3.05885 -5.94109 
-9.82536 0.0441724 -0.512316 
0.0441724 -9.72561 -0.623279 
-0.512316 -0.623279 -9.46362 
-9.63417 0.0620447 -0.539606 
0.0620447 -9.75636 -0.583242 
-0.539606 -0.583242 -9.62407 
-9.71764 0.0155859 -0.40009 
0.0155859 -9.67646 -0.428118 
-0.40009 -0.428118 -9.62049 
-9.61491 0.0416111 -0.666893 
0.0416111 -9.49453 -0.519022 
-0.666893 -0.519022 -9.90516 
-7.73206 -0.256136 2.12837 
-0.256136 -10.849 0.396306 
2.12837 0.396306 -10.2191 
-9.26458 -2.04053 3.78829 
-2.04053 -7.72903 0.228781 
3.78829 0.228781 -11.8065 
-8.02016 -0.843857 1.75316 
-0.843857 -9.80747 -0.175929 
1.75316 -0.175929 -10.9725 
-9.03352 -1.44399 0.480161 
-1.44399 -9.49051 -1.10156 
0.480161 -1.10156 -10.2761 
-9.81069 0.00415393 0.0848567 
0.00415393 -9.80304 0.143894 
0.0848567 0.143894 -9.91607 
-9.80353 0.0272559 0.124914 
0.0272559 -9.79892 0.191822 
0.124914 0.191822 -9.92735 
-9.7986 0.0919224 0.150854 
0.0919224 -9.77353 0.191235 
0.150854 0.191235 -9.95767 
-9.82809 0.0349609 0.139919 
0.0349609 -9.80323 0.200131 
0.139919 0.200131 -9.89847 
-9.79338 0.0711965 -0.499567 
0.0711965 -9.72184 0.826409 
-0.499567 0.826409 -9.88809 
-9.35363 -0.132509 -0.557556 
-0.132509 -9.34946 0.373178 
-0.557556 0.373178 -10.7002 
-9.77985 -0.443827 -0.146694 
-0.443827 -9.20044 0.362465 
-0.146694 0.362465 -10.423 
-8.64668 0.282319 -0.290076 
0.282319 -8.71856 2.07505 
-0.290076 2.07505 -12.0381 
-2.69202 -0.00541972 -1.0109 
-0.00541972 -3.66495 0.839305 
-1.0109 0.839305 -2.76052 
-5.41056 -1.48944 1.4305 
-1.48944 -7.98515 -1.51775 
1.4305 -1.51775 4.27821 
-0.241152 -0.39426 -1.16268 
-0.39426 -3.73973 0.914597 
-1.16268 0.914597 -5.13661 
-0.892777 1.42199 -0.607891 
1.42199 -8.19362 4.84649 
-0.607891 4.84649 -0.0310917 
-9.86141 0.122969 0.0585412 
0.122969 -9.86592 0.0749864 
0.0585412 0.0749864 -10.0228 
-9.90779 -0.070938 0.0377585 
-0.070938 -9.92989 0.051952 
0.0377585 0.051952 -9.91244 
-9.88042 0.103014 0.00990983 
0.103014 -9.87615 0.0358716 
0.00990983 0.0358716 -9.99356 
-9.76525 -0.00898928 0.0157736 
-0.00898928 -9.99427 0.0406759 
0.0157736 0.0406759 -9.99061 
-9.86427 0.000634091 0.20108 
0.000634091 -9.96694 0.129516 
0.20108 0.129516 -9.94653 
-9.89534 0.0102916 0.204394 
0.0102916 -9.97267 0.127074 
0.204394 0.127074 -9.90974 
-9.90048 -0.00391431 0.224536 
-0.00391431 -9.92765 0.163646 
0.224536 0.163646 -9.94962 
-9.90768 0.0177992 0.237685 
0.0177992 -9.93563 0.165277 
0.237685 0.165277 -9.93444 
-9.81352 0.0397029 -0.115083 
0.0397029 -9.8091 -0.131812 
-0.115083 -0.131812 -9.91978 
-9.81436 0.00809312 -0.168933 
0.00809312 -9.81048 -0.176086 
-0.168933 -0.176086 -9.91757 
-9.82255 0.0203305 -0.186249 
0.0203305 -9.82642 -0.114723 
-0.186249 -0.114723 -9.89344 
-9.8271 0.0262094 -0.186324 
0.0262094 -9.81131 -0.143365 
-0.186324 -0.143365 -9.904 
-9.37092 0.0948421 0.328416 
0.0948421 -9.71347 0.287666 
0.328416 0.287666 -9.53303 
-9.40155 0.172753 0.456811 
0.172753 -9.77597 0.357736 
0.456811 0.357736 -9.43989 
-9.41179 0.126996 0.306865 
0.126996 -9.59988 0.373677 
0.306865 0.373677 -9.60575 
-9.41258 0.1377 0.374145 
0.1377 -9.68401 0.302632 
0.374145 0.302632 -9.52082 
-9.99061 -0.0242754 -0.0526104 
-0.0242754 -9.96896 0.0307487 
-0.0526104 0.0307487 -10.0113 
-9.96403 -0.00907982 -0.0141879 
-0.00907982 -9.92602 -0.0120661 
-0.0141879 -0.0120661 -10.0808 
-9.96962 0.0463116 0.0416149 
0.0463116 -9.95943 -0.0433625 
0.0416149 -0.0433625 -10.0418 
-9.98318 -0.0730194 -0.00943413 
-0.0730194 -9.89194 -0.00992249 
-0.00943413 -0.00992249 -10.0957 
-9.8039 0.0217661 0.0460958 
0.0217661 -9.78867 0.0134476 
0.0460958 0.0134476 -9.94683 
-9.80442 0.0605508 0.0810087 
0.0605508 -9.80032 0.0649365 
0.0810087 0.0649365 -9.93466 
-9.81132 0.0847035 0.0684917 
0.0847035 -9.77184 0.070193 
0.0684917 0.070193 -9.95624 
-9.82751 0.0479521 0.0874475 
0.0479521 -9.79199 0.0826867 
0.0874475 0.0826867 -9.91991 
-9.97514 -0.0789118 0.00938993 
-0.0789118 -9.68957 0.376645 
0.00938993 0.376645 -9.41958 
-9.56434 0.091827 -0.266289 
0.091827 -9.65049 0.215521 
-0.266289 0.215521 -9.86946 
-9.96796 -0.00651381 -0.208579 
-0.00651381 -9.7714 0.695646 
-0.208579 0.695646 -9.34492 
-10.0884 0.0364957 0.07352 
0.0364957 -9.48798 0.300848 
0.07352 0.300848 -9.50795 
-11.4386 -0.465653 -0.320261 
-0.465653 -12.5496 0.314136 
-0.320261 0.314136 -12.2598 
-11.9391 0.206771 -0.324788 
0.206771 -13.0565 0.0475403 
-0.324788 0.0475403 -11.2525 
-11.733 -0.346763 -0.315652 
-0.346763 -10.1716 -0.144307 
-0.315652 -0.144307 -14.3435 
-12.1162 -0.552226 -2.15204 
-0.552226 -12.0289 2.52682 
-2.15204 2.52682 -12.1029 
-13.2265 -4.60422 1.41808 
-4.60422 -7.82295 -5.42848 
1.41808 -5.42848 -3.68075 
-6.81305 -0.885712 -0.819271 
-0.885712 -11.875 -2.56583 
-0.819271 -2.56583 -6.04214 
-6.0821 0.57791 1.89735 
0.57791 -12.212 -3.33939 
1.89735 -3.33939 -6.43607 
-7.96681 -2.73836 -3.64191 
-2.73836 -8.42216 -0.311961 
-3.64191 -0.311961 -8.34121 
-11.0646 0.130576 0.0916806 
0.130576 -10.5738 -0.312954 
0.0916806 -0.312954 -10.0601 
-10.5803 0.0257224 0.130393 
0.0257224 -10.6377 -0.165816 
0.130393 -0.165816 -10.4806 
-9.87405 -0.057155 -0.384204 
-0.057155 -10.0538 0.126174 
-0.384204 0.126174 -11.7707 
-10.1254 -0.51482 0.524073 
-0.51482 -10.417 -0.528304 
0.524073 -0.528304 -11.1561 
-9.9831 0.0510856 -0.0641169 
0.0510856 -10.0197 -0.0875303 
-0.0641169 -0.0875303 -9.97264 
-9.94999 -0.0409946 0.0384125 
-0.0409946 -9.98579 0.0484884 
0.0384125 0.0484884 -10.0397 
-9.9267 -0.0222387 -0.0241942 
-0.0222387 -9.93044 0.0323775 
-0.0241942 0.0323775 -10.1183 
-9.98654 0.0396352 -0.0108316 
0.0396352 -9.91443 0.0250623 
-0.0108316 0.0250623 -10.0745 
-9.93308 0.0103427 -0.0147431 
0.0103427 -9.94054 -0.227122 
-0.0147431 -0.227122 -9.98744 
-9.95172 0.0125471 -0.000899279 
0.0125471 -9.93648 -0.238609 
-0.000899279 -0.238609 -9.97285 
-9.95214 -0.00354949 -0.00826866 
-0.00354949 -9.94084 -0.254912 
-0.00826866 -0.254912 -9.96808 
-9.95808 0.00583233 -0.0120301 
0.00583233 -9.94697 -0.256792 
-0.0120301 -0.256792 -9.956 
-9.24064 0.391298 -0.473811 
0.391298 -9.76983 -0.926631 
-0.473811 -0.926631 -9.53997 
-9.0659 0.258035 -0.567027 
0.258035 -10.0954 -0.980471 
-0.567027 -0.980471 -9.38909 
-10.3483 0.0404896 -0.296836 
0.0404896 -9.54819 -0.484052 
-0.296836 -0.484052 -8.654 
-9.57383 0.81576 0.319184 
0.81576 -10.3004 -2.11457 
0.319184 -2.11457 -8.67622 
-9.92672 -0.0167496 0.101254 
-0.0167496 -9.89502 -0.191681 
0.101254 -0.191681 -9.92859 
-9.91745 -0.0216666 0.114845 
-0.0216666 -9.88495 -0.217546 
0.114845 -0.217546 -9.94792 
-9.89306 0.000657485 0.128237 
0.000657485 -9.90928 -0.233819 
0.128237 -0.233819 -9.94798 
-9.89779 -0.0218032 0.113234 
-0.0218032 -9.89071 -0.218589 
0.113234 -0.218589 -9.96183 
-9.94514 0.00251841 0.00854161 
0.00251841 -9.96543 0.0114685 
0.00854161 0.0114685 -10.1611 
-10.0043 -0.0297202 -0.0295192 
-0.0297202 -9.98599 -0.0146578 
-0.0295192 -0.0146578 -10.0814 
-10.0299 -0.0126332 -0.0202814 
-0.0126332 -10.0816 -0.0344545 
-0.0202814 -0.0344545 -9.96019 
-9.97231 0.0286357 -0.124575 
0.0286357 -10.0685 0.0407024 
-0.124575 0.0407024 -10.0308 
-9.82439 -0.0863936 -0.0445558 
-0.0863936 -9.91302 0.0313729 
-0.0445558 0.0313729 -10.0426 
-9.85771 -0.0802819 -0.082352 
-0.0802819 -9.90534 0.0626109 
-0.082352 0.0626109 -10.0169 
-10.0003 0.0440709 -0.0719667 
0.0440709 -9.85343 0.0410783 
-0.0719667 0.0410783 -9.92625 
-9.98606 -0.110328 -0.0647825 
-0.110328 -9.77384 0.0315737 
-0.0647825 0.0315737 -10.0201 
-9.92908 0.00221244 0.0923439 
0.00221244 -9.94946 -0.254231 
0.0923439 -0.254231 -9.96141 
-9.97392 -0.0063451 0.0301867 
-0.0063451 -9.97377 -0.221678 
0.0301867 -0.221678 -9.89227 
-9.98047 0.00117056 0.0523215 
0.00117056 -9.94477 -0.206632 
0.0523215 -0.206632 -9.91472 
-9.94601 -0.0147253 0.0899737 
-0.0147253 -9.96157 -0.245914 
0.0899737 -0.245914 -9.93238 
-9.76039 -0.0454263 -0.10486 
-0.0454263 -9.65999 0.209402 
-0.10486 0.209402 -9.87493 
-9.72408 -0.0601246 -0.114252 
-0.0601246 -9.70343 0.156602 
-0.114252 0.156602 -9.8678 
-9.73514 -0.0587502 -0.132543 
-0.0587502 -9.67446 0.19495 
-0.132543 0.19495 -9.88571 
-9.76471 -0.102155 -0.155818 
-0.102155 -9.63526 0.215521 
-0.155818 0.215521 -9.89535 
-9.9351 -0.0349743 0.239005 
-0.0349743 -9.97731 -0.102907 
0.239005 -0.102907 -9.98036 
-9.94061 -0.0314709 0.224769 
-0.0314709 -9.96719 -0.108486 
0.224769 -0.108486 -9.98496 
-9.94517 -0.00270638 0.223934 
-0.00270638 -9.93434 -0.088886 
0.223934 -0.088886 -10.0133 
-9.95479 -0.013955 0.208856 
-0.013955 -9.94915 -0.0838158 
0.208856 -0.0838158 -9.98882 
-10.1696 -0.627105 -0.455958 
-0.627105 -9.27022 0.170479 
-0.455958 0.170479 -10.4801 
-9.85161 -1.13472 -0.61896 
-1.13472 -9.22696 0.894249 
-0.61896 0.894249 -10.8413 
-9.44677 -0.0547063 -0.183253 
-0.0547063 -10.1426 0.290112 
-0.183253 0.290112 -10.3305 
-10.3754 -0.342126 -0.0246653 
-0.342126 -9.25665 0.374231 
-0.0246653 0.374231 -10.2878 
-9.61084 0.0856492 0.166129 
0.0856492 -9.7688 0.0969366 
0.166129 0.0969366 -9.87287 
-9.59937 0.0888281 0.202387 
0.0888281 -9.67522 0.132562 
0.202387 0.132562 -9.97792 
-9.60872 0.139963 0.100069 
0.139963 -9.76105 0.0687649 
0.100069 0.0687649 -9.88274 
-9.6721 0.040217 0.183816 
0.040217 -9.83322 0.109914 
0.183816 0.109914 -9.74719 
-9.90071 -0.0330906 -0.0956329 
-0.0330906 -10.0446 0.0516076 
-0.0956329 0.0516076 -9.23479 
-9.87135 -0.0351753 0.0185117 
-0.0351753 -9.90974 0.0785559 
0.0185117 0.0785559 -9.39904 
-9.95916 0.0517808 -0.00520705 
0.0517808 -9.91034 0.0355195 
-0.00520705 0.0355195 -9.31063 
-10.0276 0.0311551 -0.0843207 
0.0311551 -9.8255 -0.104534 
-0.0843207 -0.104534 -9.32704 
-10.6667 -0.0486045 -0.125302 
-0.0486045 -10.7869 -0.0612387 
-0.125302 -0.0612387 -9.7879 
-10.3666 0.00402304 -0.0225768 
0.00402304 -10.356 0.0408671 
-0.0225768 0.0408671 -10.519 
-10.2205 -0.157248 0.159136 
-0.157248 -10.2153 0.0327253 
0.159136 0.0327253 -10.8057 
-10.1449 -0.0158627 -0.184991 
-0.0158627 -10.4116 -0.115145 
-0.184991 -0.115145 -10.6851 
-8.92182 -0.438656 -0.565308 
-0.438656 -10.9036 -0.664934 
-0.565308 -0.664934 -12.2311 
-9.85546 0.288097 0.696707 
0.288097 -10.7291 0.0787894 
0.696707 0.0787894 -11.472 
-11.0153 0.407661 -0.0749281 
0.407661 -9.69897 -0.0184017 
-0.0749281 -0.0184017 -11.3422 
-10.2184 0.105541 0.154587 
0.105541 -10.0378 -0.143131 
0.154587 -0.143131 -11.8004 
-9.84854 0.00758737 0.263624 
0.00758737 -9.95583 -0.0385506 
0.263624 -0.0385506 -9.93778 
-9.86705 -0.0207365 0.253817 
-0.0207365 -9.93425 -0.0527635 
0.253817 -0.0527635 -9.94085 
-9.873 -0.0159545 0.256377 
-0.0159545 -9.93069 -0.0438007 
0.256377 -0.0438007 -9.93846 
-9.88403 0.00113466 0.184976 
0.00113466 -9.91909 -0.0451818 
0.184976 -0.0451818 -9.93902 
-9.94745 0.00151932 0.106989 
0.00151932 -9.95218 -0.239359 
0.106989 -0.239359 -9.97331 
-9.9385 -0.00198115 0.0967935 
-0.00198115 -9.93156 -0.204465 
0.0967935 -0.204465 -10.0029 
-9.9718 -0.00354554 0.102592 
-0.00354554 -9.92176 -0.203598 
0.102592 -0.203598 -9.97938 
-9.96876 -0.00417887 0.098829 
-0.00417887 -9.94806 -0.243756 
0.098829 -0.243756 -9.95613 
-9.72562 -0.0103771 0.0774913 
-0.0103771 -9.57175 -0.422305 
0.0774913 -0.422305 -10.2994 
-9.70918 -0.343385 0.114469 
-0.343385 -9.34272 -0.204667 
0.114469 -0.204667 -10.5449 
-9.70175 -0.36229 0.0755095 
-0.36229 -9.33222 -0.406001 
0.0755095 -0.406001 -10.5628 
-9.94527 -0.483095 -0.00789578 
-0.483095 -9.16034 -0.041402 
-0.00789578 -0.041402 -10.4911 
-9.89934 0.0178348 -0.0281334 
0.0178348 -9.82482 -0.226112 
-0.0281334 -0.226112 -9.8956 
-9.88404 0.0177796 -0.0051333 
0.0177796 -9.82911 -0.252138 
-0.0051333 -0.252138 -9.9066 
-9.86663 0.0154404 0.00493703 
0.0154404 -9.85019 -0.230298 
0.00493703 -0.230298 -9.90293 
-9.86934 0.0223864 -0.0518622 
0.0223864 -9.8539 -0.283012 
-0.0518622 -0.283012 -9.89651 
-9.99684 -0.00677188 0.0685147 
-0.00677188 -10.0224 -0.00301116 
0.0685147 -0.00301116 -10.0492 
-10.006 0.0163642 0.0764418 
0.0163642 -10.0359 -0.0315745 
0.0764418 -0.0315745 -10.0266 
-10.0782 -0.00595214 0.0481413 
-0.00595214 -10.0802 -0.0329084 
0.0481413 -0.0329084 -9.91 
-10.0716 -0.0232453 0.120122 
-0.0232453 -10.0344 -0.0209771 
0.120122 -0.0209771 -9.9624 
-9.87952 0.00329548 -0.00361213 
0.00329548 -9.86892 0.0155209 
-0.00361213 0.0155209 -10.3272 
-10.0979 -0.0614115 0.0517085 
-0.0614115 -9.99304 -0.0486251 
0.0517085 -0.0486251 -9.98474 
-10.0014 -0.0719746 0.0677035 
-0.0719746 -9.95306 -0.0231287 
0.0677035 -0.0231287 -10.1212 
-9.97454 -0.131806 0.19731 
-0.131806 -10.0001 -0.0458601 
0.19731 -0.0458601 -10.1011 
-9.85344 0.00214705 -0.220656 
0.00214705 -9.89648 0.0201914 
-0.220656 0.0201914 -9.48283 
-9.90202 0.0323443 -0.27385 
0.0323443 -9.91346 -0.0768369 
-0.27385 -0.0768369 -9.41727 
-9.95589 0.186461 -0.395363 
0.186461 -9.93984 -0.0408467 
-0.395363 -0.0408467 -9.33701 
-9.95321 -0.0399131 -0.198492 
-0.0399131 -9.93867 -0.158744 
-0.198492 -0.158744 -9.34087 
-10.801 0.36422 0.327147 
0.36422 -9.74275 0.00502572 
0.327147 0.00502572 -11.6419 
-10.6419 -0.474362 0.406725 
-0.474362 -10.5022 0.0276525 
0.406725 0.0276525 -11.0416 
-10.5108 -0.0950054 0.525635 
-0.0950054 -11.1778 -0.209825 
0.525635 -0.209825 -10.497 
-10.211 -0.32046 0.629809 
-0.32046 -10.411 -0.325168 
0.629809 -0.325168 -11.5636 
-9.94518 0.000893538 -0.217294 
0.000893538 -9.94202 -0.00550519 
-0.217294 -0.00550519 -9.96321 
-9.92613 0.00298721 -0.247077 
0.00298721 -9.95263 -0.00140861 
-0.247077 -0.00140861 -9.97164 
-9.9276 -0.000582714 -0.244672 
-0.000582714 -9.94795 -0.00554896 
-0.244672 -0.00554896 -9.97485 
-9.91916 -0.000362463 -0.241192 
-0.000362463 -9.96004 -0.00254668 
-0.241192 -0.00254668 -9.9712 
-7.76289 1.16262 -2.19356 
1.16262 -10.4439 -1.94432 
-2.19356 -1.94432 -10.1113 
-10.0798 0.716433 -0.870847 
0.716433 -9.60934 0.0750646 
-0.870847 0.0750646 -8.62895 
-10.1792 1.08642 -0.953073 
1.08642 -8.81743 -0.912572 
-0.953073 -0.912572 -9.32143 
-8.21789 0.522187 -0.27806 
0.522187 -9.25051 -0.935187 
-0.27806 -0.935187 -10.8497 
-9.86185 0.00618344 -0.0119532 
0.00618344 -9.82483 -0.230082 
-0.0119532 -0.230082 -9.87554 
-9.86245 0.00104478 -0.00428865 
0.00104478 -9.85138 -0.234612 
-0.00428865 -0.234612 -9.84839 
-9.86728 0.00431086 -0.00644181 
0.00431086 -9.79553 -0.245373 
-0.00644181 -0.245373 -9.89942 
-9.85747 0.00185972 -0.0152701 
0.00185972 -9.82829 -0.206746 
-0.0152701 -0.206746 -9.87647 
-10.6026 -0.0201233 -0.083037 
-0.0201233 -10.5826 0.0418324 
-0.083037 0.0418324 -10.646 
-10.5792 -0.0616536 -0.139853 
-0.0616536 -10.6668 -0.0217306 
-0.139853 -0.0217306 -10.5853 
-10.497 0.0183584 0.00481803 
0.0183584 -10.3408 0.168685 
0.00481803 0.168685 -10.9934 
-10.6909 -0.161686 -0.0890208 
-0.161686 -10.6218 0.107385 
-0.0890208 0.107385 -10.5184 
-9.94129 -0.0449203 -0.000823564 
-0.0449203 -10.0405 0.00284087 
-0.000823564 0.00284087 -10.1247 
-10.0233 0.0311101 -0.0167127 
0.0311101 -10.0225 -0.0224746 
-0.0167127 -0.0224746 -10.0606 
-9.98724 -0.0494001 0.00187225 
-0.0494001 -10.0733 0.0539631 
0.00187225 0.0539631 -10.046 
-9.99775 0.0568333 -0.0530768 
0.0568333 -10.0036 0.0218744 
-0.0530768 0.0218744 -10.1051 
-10.1329 0.0318287 -0.0508088 
0.0318287 -10.0041 -0.0379175 
-0.0508088 -0.0379175 -10.4378 
-10.167 0.0189077 0.00498787 
0.0189077 -10.0329 -0.0322417 
0.00498787 -0.0322417 -10.3749 
-10.1282 -0.00995563 -0.00396288 
-0.00995563 -9.99601 -0.0249963 
-0.00396288 -0.0249963 -10.4505 
-10.1722 -0.0278718 -0.0451491 
-0.0278718 -10.0573 -0.0820651 
-0.0451491 -0.0820651 -10.3453 
-8.95079 1.51509 -1.49492 
1.51509 -9.74587 -2.77285 
-1.49492 -2.77285 -8.3435 
-8.20059 0.491075 0.289115 
0.491075 -9.44104 -0.321051 
0.289115 -0.321051 -9.39853 
-9.55812 0.803731 -0.295304 
0.803731 -8.95876 -1.36354 
-0.295304 -1.36354 -8.52328 
-10.1294 1.00446 0.0665767 
1.00446 -8.81991 -1.02295 
0.0665767 -1.02295 -8.0908 
-5.136 -0.084128 -1.23352 
-0.084128 0.802271 0.67569 
-1.23352 0.67569 -7.66577 
-3.92778 -1.30534 0.599898 
-1.30534 -5.9309 -0.367506 
0.599898 -0.367506 -2.14081 
-12.819 3.60272 3.75121 
3.60272 -8.94146 -5.45568 
3.75121 -5.45568 9.76099 
-4.61801 0.653414 3.62397 
0.653414 -2.54751 1.5311 
3.62397 1.5311 -4.83398 
-9.96234 0.0405554 0.0868865 
0.0405554 -9.79593 0.281299 
0.0868865 0.281299 -9.87186 
-9.95535 0.0321088 0.095697 
0.0321088 -9.78702 0.25911 
0.095697 0.25911 -9.88777 
-9.95601 0.0482818 0.0899082 
0.0482818 -9.82456 0.289042 
0.0899082 0.289042 -9.84956 
-9.97245 0.00436947 0.0746181 
0.00436947 -9.76864 0.314241 
0.0746181 0.314241 -9.88905 
-9.80403 -0.082978 -0.187747 
-0.082978 -9.75042 0.214494 
-0.187747 0.214494 -10.0681 
-9.7618 -0.109668 -0.20638 
-0.109668 -9.78797 0.1813 
-0.20638 0.1813 -10.0728 
-9.79196 -0.0898271 -0.163137 
-0.0898271 -9.76872 0.184447 
-0.163137 0.184447 -10.0619 
-9.74967 -0.00736458 -0.13292 
-0.00736458 -9.84273 0.13113 
-0.13292 0.13113 -10.0301 
-5.04483 0.865242 1.39621 
0.865242 -3.64506 0.227618 
1.39621 0.227618 -1.27384 
-6.45817 -3.85718 0.331753 
-3.85718 -6.93689 -0.718834 
0.331753 -0.718834 3.43134 
-2.51586 0.302361 1.86964 
0.302361 -5.36001 0.342875 
1.86964 0.342875 -2.08784 
-2.79524 -1.16372 1.77093 
-1.16372 -4.85023 3.40114 
1.77093 3.40114 -2.31825 
-9.58512 0.0316404 0.159939 
0.0316404 -9.73684 0.0224808 
0.159939 0.0224808 -9.89802 
-9.59938 0.0602441 0.240469 
0.0602441 -9.79448 0.05167 
0.240469 0.05167 -9.82612 
-9.73177 0.0449549 0.182994 
0.0449549 -9.86627 0.0927549 
0.182994 0.0927549 -9.62193 
-9.62101 0.0427657 0.2225 
0.0427657 -9.74939 0.0645852 
0.2225 0.0645852 -9.84958 
-10.6656 0.0517616 -0.0177023 
0.0517616 -10.4525 -0.109553 
-0.0177023 -0.109553 -10.043 
-10.3835 -0.0432259 -0.0524911 
-0.0432259 -10.335 0.0259782 
-0.0524911 0.0259782 -10.4426 
-10.268 -0.0331167 0.114904 
-0.0331167 -10.1783 0.0794018 
0.114904 0.0794018 -10.7149 
-10.319 -0.00680206 -0.18786 
-0.00680206 -10.3384 0.0280732 
-0.18786 0.0280732 -10.5038 
-10.0027 -0.187971 -0.0188569 
-0.187971 -10.2289 0.0689673 
-0.0188569 0.0689673 -10.6657 
-10.1432 -0.134436 0.018686 
-0.134436 -10.1551 0.159241 
0.018686 0.159241 -10.5991 
-10.184 -0.120045 -0.145527 
-0.120045 -10.0359 0.0563258 
-0.145527 0.0563258 -10.6774 
-10.0437 -0.19832 -0.00248792 
-0.19832 -10.2763 0.0522495 
-0.00248792 0.0522495 -10.5772 
-12.2512 0.0967443 0.467979 
0.0967443 -13.2146 -0.029938 
0.467979 -0.029938 -12.1554 
-10.1209 0.279076 1.06781 
0.279076 -11.0875 0.186625 
1.06781 0.186625 -16.4129 
-11.5342 -0.0604308 0.30527 
-0.0604308 -12.0074 0.0585384 
0.30527 0.0585384 -14.0797 
-11.2416 0.421377 -0.745107 
0.421377 -12.8475 1.35765 
-0.745107 1.35765 -13.5321 
-9.98346 -0.0214534 0.0132981 
-0.0214534 -10.0086 0.0105726 
0.0132981 0.0105726 -10.0258 
-10.0155 -0.00258257 -0.0114039 
-0.00258257 -10.0018 -0.00692572 
-0.0114039 -0.00692572 -10.0005 
-9.97913 -0.0364526 -0.00323153 
-0.0364526 -10.0022 0.00499067 
-0.00323153 0.00499067 -10.0365 
-9.99392 -0.02118 0.0155627 
-0.02118 -9.99369 -0.00324119 
0.0155627 -0.00324119 -10.0302 
-9.99814 0.29798 -0.279263 
0.29798 -10.7618 -0.0477445 
-0.279263 -0.0477445 -10.2882 
-10.3805 -0.491417 -0.0819818 
-0.491417 -9.81824 0.377613 
-0.0819818 0.377613 -10.8494 
-10.2861 -0.236966 -0.0374721 
-0.236966 -10.1233 0.0276287 
-0.0374721 0.0276287 -10.6388 
-10.3386 -0.0438986 0.16431 
-0.0438986 -9.85592 -0.066957 
0.16431 -0.066957 -10.8536 
-9.76231 -0.0451717 -0.0300161 
-0.0451717 -9.9459 0.0188177 
-0.0300161 0.0188177 -10.0648 
-9.74835 -0.101039 0.185587 
-0.101039 -10.0785 -0.100897 
0.185587 -0.100897 -9.94619 
-9.73858 -0.0808415 0.0277414 
-0.0808415 -9.92916 0.0750728 
0.0277414 0.0750728 -10.1053 
-9.6998 -0.129441 0.0056844 
-0.129441 -9.97817 0.0320101 
0.0056844 0.0320101 -10.095 
-9.81842 -0.00168143 -0.265727 
-0.00168143 -9.93403 0.0375633 
-0.265727 0.0375633 -9.87301 
-9.80862 -0.0178979 -0.279587 
-0.0178979 -9.91992 0.0302816 
-0.279587 0.0302816 -9.89693 
-9.84983 -0.0605897 -0.316144 
-0.0605897 -9.95973 0.0848809 
-0.316144 0.0848809 -9.8159 
-9.77507 0.0224418 -0.286099 
0.0224418 -10.0054 0.00754728 
-0.286099 0.00754728 -9.84504 
-9.77937 -0.0460786 -0.0640498 
-0.0460786 -9.84349 0.0572384 
-0.0640498 0.0572384 -10.0058 
-9.77804 -0.0678012 -0.0513565 
-0.0678012 -9.8306 0.0366383 
-0.0513565 0.0366383 -10.02 
-9.77094 -0.0458701 -0.0237127 
-0.0458701 -9.83855 0.052016 
-0.0237127 0.052016 -10.0192 
-9.77756 -0.045319 -0.0350222 
-0.045319 -9.83871 0.0344341 
-0.0350222 0.0344341 -10.0124 
-9.90582 0.195691 -0.505014 
0.195691 -9.91714 -0.553112 
-0.505014 -0.553112 -9.02933 
-9.69664 0.0742456 -0.129156 
0.0742456 -9.68975 -0.279796 
-0.129156 -0.279796 -9.4659 
-9.84181 -0.0919799 -0.446393 
-0.0919799 -9.96057 -0.155568 
-0.446393 -0.155568 -9.04991 
-9.8837 -0.0843329 -0.354347 
-0.0843329 -9.9358 -0.286926 
-0.354347 -0.286926 -9.03279 
-9.80495 -0.0319161 0.0798469 
-0.0319161 -9.57761 -0.200747 
0.0798469 -0.200747 -9.78089 
-9.73787 -0.0477801 0.0603492 
-0.0477801 -9.60755 -0.259832 
0.0603492 -0.259832 -9.81803 
-9.79768 -0.0504637 0.0834185 
-0.0504637 -9.58519 -0.250022 
0.0834185 -0.250022 -9.78059 
-9.71008 -0.0469603 0.0893284 
-0.0469603 -9.6765 -0.276609 
0.0893284 -0.276609 -9.77687 
-9.66067 -0.339071 -0.0959283 
-0.339071 -9.72573 -0.0879155 
-0.0959283 -0.0879155 -11.1733 
-9.95545 -0.243242 0.16575 
-0.243242 -10.2956 0.199894 
0.16575 0.199894 -10.3087 
-10.4356 -0.42617 -0.176463 
-0.42617 -9.53104 0.228748 
-0.176463 0.228748 -10.5931 
-10.4542 -0.638856 -0.142008 
-0.638856 -9.43379 0.837107 
-0.142008 0.837107 -10.6718 
-9.76267 0.0117518 -0.0929657 
0.0117518 -9.90185 -0.12962 
-0.0929657 -0.12962 -9.86637 
-9.78916 -0.0280534 -0.0496149 
-0.0280534 -9.96285 -0.11582 
-0.0496149 -0.11582 -9.77889 
-9.87479 0.116664 -0.0604842 
0.116664 -9.70123 -0.0381944 
-0.0604842 -0.0381944 -9.95487 
-9.80526 -0.0280687 -0.157796 
-0.0280687 -9.78249 -0.190683 
-0.157796 -0.190683 -9.94315 
-9.91282 -0.0204137 0.117221 
-0.0204137 -9.89365 -0.208025 
0.117221 -0.208025 -9.97144 
-9.94114 -0.0178322 0.132398 
-0.0178322 -9.89091 -0.204574 
0.132398 -0.204574 -9.94586 
-9.92132 -0.0172119 0.124204 
-0.0172119 -9.89233 -0.209915 
0.124204 -0.209915 -9.96425 
-9.9301 -0.022574 0.121262 
-0.022574 -9.89784 -0.227274 
0.121262 -0.227274 -9.94996 
-9.94888 -0.0038381 -0.0205062 
-0.0038381 -9.99711 -0.0171425 
-0.0205062 -0.0171425 -10.0017 
-9.99001 0.0228926 0.014541 
0.0228926 -9.96522 -0.00430583 
0.014541 -0.00430583 -9.99248 
-9.94814 -0.0385403 0.0320373 
-0.0385403 -9.97838 0.0142622 
0.0320373 0.0142622 -10.0212 
-9.97095 0.0135739 0.000433665 
0.0135739 -9.9547 -0.00450729 
0.000433665 -0.00450729 -10.0221 
-6.49162 -2.25355 4.78759 
-2.25355 -8.06228 6.14707 
4.78759 6.14707 -10.4178 
-6.9528 -1.1438 0.594667 
-1.1438 -9.54012 2.77412 
0.594667 2.77412 -8.4788 
-9.50326 -0.4677 3.3523 
-0.4677 -9.80184 1.41307 
3.3523 1.41307 -5.66663 
-6.83443 1.13422 -0.914158 
1.13422 -9.19452 1.0801 
-0.914158 1.0801 -8.94278 
-5.82408 -2.02299 -1.87128 
-2.02299 -13.7915 -4.88708 
-1.87128 -4.88708 -3.4259 
-8.80892 3.45914 0.24479 
3.45914 -7.36812 -1.31048 
0.24479 -1.31048 -6.86447 
-8.10368 0.0564466 0.462066 
0.0564466 -5.7868 -4.57112 
0.462066 -4.57112 -9.15103 
-3.07653 -2.73469 1.3132 
-2.73469 -9.0246 -4.72654 
1.3132 -4.72654 -10.9404 
-9.83399 -0.0761009 -0.24773 
-0.0761009 -9.60209 0.42078 
-0.24773 0.42078 -9.35732 
-9.90197 -0.0315328 -0.173855 
-0.0315328 -9.54752 0.437463 
-0.173855 0.437463 -9.3439 
-9.93796 -0.0440729 -0.191774 
-0.0440729 -9.52416 0.430864 
-0.191774 0.430864 -9.33127 
-9.9052 0.0138344 -0.0882675 
0.0138344 -9.49284 0.433537 
-0.0882675 0.433537 -9.39535 
-9.82175 0.0751996 -0.348526 
0.0751996 -9.92951 -0.271364 
-0.348526 -0.271364 -9.65188 
-9.83289 0.0436957 -0.192527 
0.0436957 -9.83319 -0.228287 
-0.192527 -0.228287 -9.73705 
-9.83406 -4.58189e-05 -0.246403 
-4.58189e-05 -9.89843 -0.196922 
-0.246403 -0.196922 -9.67064 
-9.88583 -0.0054535 -0.251963 
-0.0054535 -9.88637 -0.186008 
-0.251963 -0.186008 -9.63093 
-10.0231 -0.0497419 -0.80122 
-0.0497419 -10.1563 0.596008 
-0.80122 0.596008 -13.9959 
-11.3938 0.376923 -0.125612 
0.376923 -11.3839 -0.636548 
-0.125612 -0.636548 -11.3976 
-11.7038 0.0483216 0.100527 
0.0483216 -11.7334 -0.615061 
0.100527 -0.615061 -10.7381 
-11.2875 -0.854067 -0.432593 
-0.854067 -9.88315 -1.92814 
-0.432593 -1.92814 -13.0046 
-9.9574 0.0120505 -0.133613 
0.0120505 -9.91587 0.232867 
-0.133613 0.232867 -9.94539 
-9.91471 -0.0151641 -0.138798 
-0.0151641 -9.94897 0.181428 
-0.138798 0.181428 -9.95497 
-9.94594 -0.0346 -0.170106 
-0.0346 -9.91198 0.232787 
-0.170106 0.232787 -9.96073 
-9.94932 -0.0138772 -0.137153 
-0.0138772 -9.93324 0.198564 
-0.137153 0.198564 -9.9361 
-9.94176 0.0295806 0.0380412 
0.0295806 -9.94799 0.0188142 
0.0380412 0.0188142 -10.0325 
-9.94538 -0.00521307 0.00923628 
-0.00521307 -9.94475 -0.0480382 
0.00923628 -0.0480382 -10.0321 
-9.94073 0.0534152 0.0417962 
0.0534152 -9.95775 0.0139716 
0.0417962 0.0139716 -10.0238 
-9.95193 0.0675156 0.0279687 
0.0675156 -9.91347 -0.00951544 
0.0279687 -0.00951544 -10.0568 
-9.92145 0.000950119 -0.224178 
0.000950119 -9.92266 -0.0654188 
-0.224178 -0.0654188 -9.96034 
-9.91766 0.00120566 -0.228723 
0.00120566 -9.94196 -0.068744 
-0.228723 -0.068744 -9.94483 
-9.93679 9.16515e-05 -0.22062 
9.16515e-05 -9.92107 -0.0628874 
-0.22062 -0.0628874 -9.94658 
-9.92488 0.0105516 -0.240179 
0.0105516 -9.94638 -0.0618529 
-0.240179 -0.0618529 -9.93318 
-9.81944 0.0176366 0.0768935 
0.0176366 -9.77522 0.187396 
0.0768935 0.187396 -9.89512 
-9.78518 0.0282771 0.0974703 
0.0282771 -9.79373 0.214617 
0.0974703 0.214617 -9.91087 
-9.81965 0.0339807 0.0983653 
0.0339807 -9.78112 0.176982 
0.0983653 0.176982 -9.889 
-9.81392 0.0370595 0.120289 
0.0370595 -9.80565 0.190357 
0.120289 0.190357 -9.87021 
-9.84363 0.233411 0.000973022 
0.233411 -9.73027 0.287713 
0.000973022 0.287713 -10.1947 
-9.76055 0.194255 0.151379 
0.194255 -9.81362 0.148492 
0.151379 0.148492 -10.1945 
-9.68115 0.231217 0.207286 
0.231217 -9.9405 0.199315 
0.207286 0.199315 -10.147 
-9.85037 0.044857 0.119905 
0.044857 -9.70707 0.145478 
0.119905 0.145478 -10.2112 
-11.6034 -0.0204431 0.101269 
-0.0204431 -10.9451 -1.00127 
0.101269 -1.00127 -13.6317 
-12.4703 -0.137592 0.151311 
-0.137592 -11.5373 -0.322403 
0.151311 -0.322403 -12.1726 
-12.6409 0.00306843 -0.139493 
0.00306843 -11.8583 -0.240198 
-0.139493 -0.240198 -11.6811 
-12.5002 -0.0760349 0.374232 
-0.0760349 -10.9066 0.241906 
0.374232 0.241906 -12.7734 
-9.76967 0.0703999 -0.220593 
0.0703999 -9.82475 -0.148983 
-0.220593 -0.148983 -9.97656 
-9.72807 0.0768834 -0.244142 
0.0768834 -9.88227 -0.214781 
-0.244142 -0.214781 -9.96064 
-9.71974 0.0952188 -0.24507 
0.0952188 -9.85749 -0.230977 
-0.24507 -0.230977 -9.99375 
-9.76319 0.0729424 -0.29263 
0.0729424 -9.91729 -0.224603 
-0.29263 -0.224603 -9.89049 
-9.76288 -0.0828626 -0.00241681 
-0.0828626 -9.79878 0.0426204 
-0.00241681 0.0426204 -9.9637 
-9.77039 -0.0370047 -0.0458728 
-0.0370047 -9.77328 0.0568627 
-0.0458728 0.0568627 -9.98168 
-9.78659 -0.0256291 -0.0804759 
-0.0256291 -9.78735 0.0745344 
-0.0804759 0.0745344 -9.95142 
-9.74495 -0.0272649 -0.0525465 
-0.0272649 -9.82916 0.111538 
-0.0525465 0.111538 -9.95125 
-9.87293 -0.0280677 -0.258447 
-0.0280677 -9.93516 0.195523 
-0.258447 0.195523 -9.88127 
-9.8843 -0.0315696 -0.260498 
-0.0315696 -9.94332 0.173681 
-0.260498 0.173681 -9.86175 
-9.88482 -0.023604 -0.252209 
-0.023604 -9.92891 0.160812 
-0.252209 0.160812 -9.87564 
-9.88509 -0.0264873 -0.262338 
-0.0264873 -9.95459 0.174945 
-0.262338 0.174945 -9.84968 
-9.73173 -0.0661164 0.11264 
-0.0661164 -9.80043 -0.0725861 
0.11264 -0.0725861 -9.90219 
-9.92115 0.0919815 0.150772 
0.0919815 -9.73259 -0.0687698 
0.150772 -0.0687698 -9.7806 
-9.7653 -0.0887818 0.114901 
-0.0887818 -9.76556 -0.0773027 
0.114901 -0.0773027 -9.90349 
-9.74174 -0.0653181 0.230862 
-0.0653181 -9.79386 -0.132669 
0.230862 -0.132669 -9.89874 
-9.98356 0.0249884 0.00320451 
0.0249884 -9.96602 -0.0056048 
0.00320451 -0.0056048 -10.0215 
-9.98879 0.0132833 -0.00641764 
0.0132833 -9.96901 0.00957481 
-0.00641764 0.00957481 -10.0133 
-9.98252 0.00468584 0.00747562 
0.00468584 -9.98322 -0.00485119 
0.00747562 -0.00485119 -10.0053 
-9.97836 0.0106117 0.00385945 
0.0106117 -9.9765 0.00556729 
0.00385945 0.00556729 -10.0162 
-15.0223 -0.345941 0.338874 
-0.345941 -13.1531 0.780198 
0.338874 0.780198 -16.9253 
-17.084 -0.0723683 -1.20591 
-0.0723683 -15.4814 1.24291 
-1.20591 1.24291 -12.5353 
-13.2833 -0.786084 0.348696 
-0.786084 -9.988 2.56794 
0.348696 2.56794 -21.8295 
-15.2938 -0.202712 0.911162 
-0.202712 -13.1289 -1.14287 
0.911162 -1.14287 -16.678 
-9.94054 0.00569509 -0.0114169 
0.00569509 -9.924 0.239833 
-0.0114169 0.239833 -9.95472 
-9.97862 -0.0099654 -0.0177533 
-0.0099654 -9.90737 0.228968 
-0.0177533 0.228968 -9.93327 
-9.95348 -0.00546223 -0.012482 
-0.00546223 -9.89506 0.245046 
-0.012482 0.245046 -9.97073 
-9.95705 0.0205112 0.0236492 
0.0205112 -9.92552 0.246173 
0.0236492 0.246173 -9.93669 
-10.1736 -0.0570428 -0.173996 
-0.0570428 -9.97793 0.0202567 
-0.173996 0.0202567 -10.6404 
-10.8135 0.167652 0.28636 
0.167652 -10.2748 -0.11788 
0.28636 -0.11788 -9.70372 
-10.2119 -0.0601809 -0.0165249 
-0.0601809 -10.1162 -0.0836161 
-0.0165249 -0.0836161 -10.4638 
-10.0454 -0.119852 0.142755 
-0.119852 -10.1671 -0.0321519 
0.142755 -0.0321519 -10.5795 
-9.97183 0.0127459 -0.0363341 
0.0127459 -9.98781 -0.0218034 
-0.0363341 -0.0218034 -9.99632 
-9.98743 0.0132948 0.0315612 
0.0132948 -9.98202 0.0306656 
0.0315612 0.0306656 -9.98652 
-9.95082 -0.0182218 -0.0101449 
-0.0182218 -9.9836 -0.0267039 
-0.0101449 -0.0267039 -10.0216 
-9.94896 0.00332019 -0.00230102 
0.00332019 -9.95305 -0.00731089 
-0.00230102 -0.00731089 -10.054 
-12.6685 0.374266 -0.311448 
0.374266 -11.1628 1.0311 
-0.311448 1.0311 -13.9237 
-12.9675 -0.856207 -0.100661 
-0.856207 -12.7439 -0.139635 
-0.100661 -0.139635 -12.0437 
-12.6518 -0.345236 -0.0693207 
-0.345236 -11.9339 0.562999 
-0.0693207 0.562999 -13.1693 
-12.3337 -0.0287193 0.295859 
-0.0287193 -13.2626 0.332847 
0.295859 0.332847 -12.1587 
-9.9178 -0.0672839 -0.128609 
-0.0672839 -9.75988 0.257284 
-0.128609 0.257284 -9.87612 
-9.95791 -0.0782261 -0.140041 
-0.0782261 -9.69874 0.267624 
-0.140041 0.267624 -9.89716 
-9.9394 -0.0688281 -0.10663 
-0.0688281 -9.74108 0.299264 
-0.10663 0.299264 -9.87331 
-9.97242 -0.0118585 -0.0647714 
-0.0118585 -9.74625 0.37709 
-0.0647714 0.37709 -9.83513 
-9.85488 0.0857113 -0.273154 
0.0857113 -9.20547 0.117384 
-0.273154 0.117384 -11.6405 
-10.2642 0.176881 0.334007 
0.176881 -10.2481 -0.525298 
0.334007 -0.525298 -10.1886 
-9.30287 0.364785 0.350992 
0.364785 -11.11 0.312969 
0.350992 0.312969 -10.288 
-9.36963 0.623698 1.13473 
0.623698 -10.7588 0.068035 
1.13473 0.068035 -10.5725 
-9.60882 -0.139804 -0.722004 
-0.139804 -10.0243 -0.649658 
-0.722004 -0.649658 -9.1711 
-9.62389 0.222751 -0.274237 
0.222751 -9.89709 -0.29696 
-0.274237 -0.29696 -9.28326 
-9.71127 0.10786 -0.35016 
0.10786 -9.58782 -0.347228 
-0.35016 -0.347228 -9.50514 
-9.36158 -0.132663 -0.526587 
-0.132663 -9.64268 -0.291162 
-0.526587 -0.291162 -9.79999 
-9.92726 -0.189993 -0.134698 
-0.189993 -9.89449 0.117702 
-0.134698 0.117702 -10.1944 
-9.34921 -0.141706 -0.102662 
-0.141706 -10.1291 0.131724 
-0.102662 0.131724 -10.5379 
-9.48235 0.133531 -0.0831093 
0.133531 -9.26957 0.152966 
-0.0831093 0.152966 -11.2642 
-10.1847 -0.0329959 0.339506 
-0.0329959 -9.56307 -0.394775 
0.339506 -0.394775 -10.2684 
-9.33875 0.0694131 0.338959 
0.0694131 -9.72087 -1.42909 
0.338959 -1.42909 -10.7706 
-9.84514 -0.218576 0.287567 
-0.218576 -9.71407 -0.265405 
0.287567 -0.265405 -10.271 
-9.51359 0.165614 0.198332 
0.165614 -9.90822 -1.02778 
0.198332 -1.02778 -10.4084 
-10.0313 -0.05534 0.315486 
-0.05534 -10.0388 -1.15959 
0.315486 -1.15959 -9.76011 
-9.93851 0.0129254 -0.187818 
0.0129254 -9.95612 -0.170612 
-0.187818 -0.170612 -9.98095 
-9.94656 0.0256517 -0.18614 
0.0256517 -9.95044 -0.159208 
-0.18614 -0.159208 -9.97858 
-9.96073 0.0238678 -0.181947 
0.0238678 -9.95308 -0.164037 
-0.181947 -0.164037 -9.96177 
-9.93895 0.0106393 -0.191462 
0.0106393 -9.96004 -0.16987 
-0.191462 -0.16987 -9.9766 
-9.96503 -0.0189658 0.233916 
-0.0189658 -9.95276 0.114297 
0.233916 0.114297 -9.99945 
-9.94576 0.00250831 0.21889 
0.00250831 -9.9632 0.101817 
0.21889 0.101817 -10.0083 
-9.96163 0.00437911 0.220497 
0.00437911 -10.0003 0.133827 
0.220497 0.133827 -9.95529 
-9.97578 0.0166195 0.230068 
0.0166195 -9.99219 0.127545 
0.230068 0.127545 -9.94927 
-9.87531 -0.0563118 -0.110501 
-0.0563118 -9.8664 0.0627374 
-0.110501 0.0627374 -10.0035 
-10.0898 0.0270137 -0.0434212 
0.0270137 -9.79751 0.0250719 
-0.0434212 0.0250719 -9.85785 
-9.64813 -0.127918 -0.0536704 
-0.127918 -9.94902 0.00848374 
-0.0536704 0.00848374 -10.148 
-9.88915 -0.0477911 -0.252509 
-0.0477911 -9.84772 0.113852 
-0.252509 0.113852 -10.0083 
-10.899 0.429358 0.313354 
0.429358 -9.5105 -0.315881 
0.313354 -0.315881 -10.6142 
-10.0951 -0.181905 0.435888 
-0.181905 -10.9254 -0.0438073 
0.435888 -0.0438073 -10.0031 
-9.96049 -0.0110577 -0.116665 
-0.0110577 -10.4024 0.362114 
-0.116665 0.362114 -10.6607 
-10.7616 -0.0373575 -0.262157 
-0.0373575 -9.94285 0.346404 
-0.262157 0.346404 -10.3192 
-9.78165 0.0705039 0.407872 
0.0705039 -9.61831 0.386702 
0.407872 0.386702 -9.76436 
-9.68087 0.0262146 0.297922 
0.0262146 -9.79934 0.195894 
0.297922 0.195894 -9.68412 
-9.98546 -0.0155076 0.389531 
-0.0155076 -9.72559 0.497354 
0.389531 0.497354 -9.45328 
-9.93464 0.0353003 0.400027 
0.0353003 -9.68931 0.358713 
0.400027 0.358713 -9.54037 
-9.36139 -0.104253 0.665868 
-0.104253 -9.79181 -0.528085 
0.665868 -0.528085 -9.67019 
-10.0055 -0.301584 0.315619 
-0.301584 -9.78684 -0.175287 
0.315619 -0.175287 -9.03106 
-9.36987 -0.18285 0.196612 
-0.18285 -10.1492 -0.452337 
0.196612 -0.452337 -9.30433 
-9.60488 -0.195936 0.39074 
-0.195936 -9.86627 -0.31303 
0.39074 -0.31303 -9.35224 
-9.84516 -0.0150587 0.119004 
-0.0150587 -9.77022 0.0384867 
0.119004 0.0384867 -9.84337 
-9.7339 0.0972332 0.176622 
0.0972332 -9.8311 0.15183 
0.176622 0.15183 -9.89376 
-9.90127 -0.0433114 0.0876068 
-0.0433114 -9.76848 0.0619436 
0.0876068 0.0619436 -9.789 
-9.76405 0.0655069 0.0767718 
0.0655069 -9.72974 0.124629 
0.0767718 0.124629 -9.96497 
-10.9643 -0.0755366 0.0223097 
-0.0755366 -10.164 -0.0783375 
0.0223097 -0.0783375 -11.8893 
-10.4883 -0.486863 0.233884 
-0.486863 -10.2884 -0.376615 
0.233884 -0.376615 -12.241 
-10.8873 0.218349 0.38967 
0.218349 -10.0508 0.0359759 
0.38967 0.0359759 -12.0795 
-11.2875 0.220634 0.604901 
0.220634 -10.1676 -0.428815 
0.604901 -0.428815 -11.5625 
-9.20989 -0.362953 3.32065 
-0.362953 -8.32149 -1.5825 
3.32065 -1.5825 -8.20954 
-10.492 0.411074 0.94039 
0.411074 -9.48726 -1.1181 
0.94039 -1.1181 -5.76167 
-8.61594 -0.0862651 1.73303 
-0.0862651 -8.15302 0.450666 
1.73303 0.450666 -8.97196 
-10.1496 -0.0679952 1.83503 
-0.0679952 -7.91459 -0.0861919 
1.83503 -0.0861919 -7.67671 
-9.87582 -0.0648374 -0.144953 
-0.0648374 -9.82327 0.190744 
-0.144953 0.190744 -9.93923 
-9.84386 -0.0162687 -0.116681 
-0.0162687 -9.85031 0.221011 
-0.116681 0.221011 -9.94415 
-9.8653 -0.0321153 -0.113428 
-0.0321153 -9.8417 0.193038 
-0.113428 0.193038 -9.93132 
-9.89503 -0.0334709 -0.120298 
-0.0334709 -9.83701 0.2359 
-0.120298 0.2359 -9.90628 
-7.69493 -0.569819 2.26315 
-0.569819 -6.39042 0.498096 
2.26315 0.498096 -0.81709 
-6.03835 0.899911 1.17972 
0.899911 -6.62491 0.512732 
1.17972 0.512732 -2.23918 
-6.861 -0.164561 1.84735 
-0.164561 -5.75511 0.0138675 
1.84735 0.0138675 -2.28633 
-5.85102 -0.206061 1.64802 
-0.206061 -5.39546 1.2719 
1.64802 1.2719 -3.65596 
-9.86099 0.0682199 0.321706 
0.0682199 -9.94133 0.262677 
0.321706 0.262677 -9.72023 
-9.85666 0.07143 0.253267 
0.07143 -9.93491 0.202842 
0.253267 0.202842 -9.73098 
-9.84309 0.0640212 0.275763 
0.0640212 -9.96352 0.190097 
0.275763 0.190097 -9.71593 
-9.91642 0.084408 0.289115 
0.084408 -9.86533 0.191361 
0.289115 0.191361 -9.74079 
-9.77766 0.243979 0.189365 
0.243979 -10.0263 0.468533 
0.189365 0.468533 -9.94968 
-9.73326 0.25673 0.232752 
0.25673 -9.8346 0.298129 
0.232752 0.298129 -10.1857 
-9.74244 0.333484 0.117411 
0.333484 -9.71691 0.261106 
0.117411 0.261106 -10.2942 
-9.84035 0.0855215 0.220306 
0.0855215 -9.74345 0.359653 
0.220306 0.359653 -10.1698 
-9.81187 -0.00693726 0.0134142 
-0.00693726 -9.69696 -0.20799 
0.0134142 -0.20799 -9.8293 
-9.73506 0.0217872 -0.00121364 
0.0217872 -9.89185 -0.150197 
-0.00121364 -0.150197 -9.71123 
-9.80258 -0.0179144 0.0261627 
-0.0179144 -9.71494 -0.177518 
0.0261627 -0.177518 -9.82061 
-9.8018 0.00574594 0.00809623 
0.00574594 -9.71089 -0.14892 
0.00809623 -0.14892 -9.82545 
-9.8259 0.0355426 0.11084 
0.0355426 -9.82236 0.134798 
0.11084 0.134798 -9.89511 
-9.81885 0.00757177 0.114317 
0.00757177 -9.84239 0.135537 
0.114317 0.135537 -9.88214 
-9.81752 0.0163418 0.115714 
0.0163418 -9.82718 0.141772 
0.115714 0.141772 -9.89867 
-9.8261 0.00764339 0.108086 
0.00764339 -9.82781 0.139051 
0.108086 0.139051 -9.88947 
-9.9918 -0.0636741 -0.679769 
-0.0636741 -9.48092 -0.550242 
-0.679769 -0.550242 -8.97436 
-9.98832 0.11198 -1.14681 
0.11198 -9.33245 -0.552766 
-1.14681 -0.552766 -9.1263 
-9.81766 0.116177 -0.326129 
0.116177 -9.58554 -0.247925 
-0.326129 -0.247925 -9.04387 
-10.1702 -0.105442 -0.599394 
-0.105442 -9.52037 -0.707064 
-0.599394 -0.707064 -8.75646 
-9.62771 -0.449907 0.25529 
-0.449907 -9.43385 0.680879 
0.25529 0.680879 -7.35688 
-10.3334 -0.428023 0.469243 
-0.428023 -8.17342 1.28082 
0.469243 1.28082 -7.91165 
-9.28243 0.682532 -0.70017 
0.682532 -8.5387 0.666858 
-0.70017 0.666858 -8.59731 
-10.5574 0.671549 -1.20037 
0.671549 -9.73788 1.41732 
-1.20037 1.41732 -6.12312 
-9.92546 -0.0123582 0.205089 
-0.0123582 -9.95156 -0.132562 
0.205089 -0.132562 -9.96747 
-9.92171 -0.0143991 0.213672 
-0.0143991 -9.95986 -0.116896 
0.213672 -0.116896 -9.96291 
-9.9228 -0.0136277 0.231076 
-0.0136277 -9.94897 -0.113806 
0.231076 -0.113806 -9.97271 
-9.92596 -0.0174119 0.228519 
-0.0174119 -9.95638 -0.115217 
0.228519 -0.115217 -9.96214 
-9.61698 -0.113067 0.846996 
-0.113067 -9.73004 0.900608 
0.846996 0.900608 -9.98365 
-9.80101 0.00618442 0.646076 
0.00618442 -8.78486 0.0770076 
0.646076 0.0770076 -10.7448 
-9.46731 -0.175938 0.909228 
-0.175938 -9.368 0.402239 
0.909228 0.402239 -10.4954 
-8.94006 0.0126152 1.70595 
0.0126152 -9.3257 -0.0396454 
1.70595 -0.0396454 -11.0649 
-10.2148 -0.12136 0.078866 
-0.12136 -10.0041 -0.146584 
0.078866 -0.146584 -10.6385 
-9.94513 -0.24255 -0.148394 
-0.24255 -10.2758 0.273523 
-0.148394 0.273523 -10.6365 
-9.81495 -0.100972 -0.19813 
-0.100972 -10.7919 0.0649779 
-0.19813 0.0649779 -10.2506 
-10.0679 -0.149181 -0.102728 
-0.149181 -10.3268 0.0676605 
-0.102728 0.0676605 -10.4627 
-9.61614 -1.15865 -1.43374 
-1.15865 -9.17346 0.220492 
-1.43374 0.220492 -14.0335 
-10.872 -0.284087 0.853143 
-0.284087 -11.9172 -0.303864 
0.853143 -0.303864 -10.034 
-10.8587 0.741484 0.985958 
0.741484 -11.6854 -0.299663 
0.985958 -0.299663 -10.2791 
-8.67937 -1.5107 0.984763 
-1.5107 -11.7779 -1.34463 
0.984763 -1.34463 -12.3659 
-9.88105 0.0322999 0.0830239 
0.0322999 -9.77014 0.252816 
0.0830239 0.252816 -9.87078 
-9.87348 -0.00396005 0.0676958 
-0.00396005 -9.7422 0.224792 
0.0676958 0.224792 -9.9063 
-9.86305 0.0194689 0.0598061 
0.0194689 -9.77508 0.244488 
0.0598061 0.244488 -9.88384 
-9.88247 0.0109743 0.0547762 
0.0109743 -9.76994 0.224022 
0.0547762 0.224022 -9.86957 
-9.51119 0.0066718 0.249832 
0.0066718 -9.73494 -0.129381 
0.249832 -0.129381 -10.8203 
-9.94282 -0.331946 -0.213204 
-0.331946 -9.5848 0.0815735 
-0.213204 0.0815735 -10.5388 
-9.68218 0.0386352 -0.00219654 
0.0386352 -9.93715 -0.126847 
-0.00219654 -0.126847 -10.4471 
-9.67619 -0.33763 0.197593 
-0.33763 -9.79106 -0.0747273 
0.197593 -0.0747273 -10.5992 
-10.4851 -0.208833 -0.270335 
-0.208833 -10.5059 -0.154464 
-0.270335 -0.154464 -10.5151 
-9.83753 0.0535623 0.111995 
0.0535623 -10.0533 0.330268 
0.111995 0.330268 -11.6153 
-10.5483 -0.0772659 -0.397315 
-0.0772659 -10.9407 -0.14686 
-0.397315 -0.14686 -10.0171 
-10.2683 0.452298 -0.452174 
0.452298 -10.1255 -0.520357 
-0.452174 -0.520357 -11.1123 
-9.71626 -0.0203164 -0.059016 
-0.0203164 -9.73386 0.160029 
-0.059016 0.160029 -9.95013 
-9.74351 -0.054699 -0.0942524 
-0.054699 -9.74786 0.176083 
-0.0942524 0.176083 -9.90887 
-9.77232 -0.0693695 -0.0984833 
-0.0693695 -9.72653 0.173692 
-0.0984833 0.173692 -9.90139 
-9.71946 -0.0810975 -0.107009 
-0.0810975 -9.76084 0.180184 
-0.107009 0.180184 -9.91994 
-9.42979 0.00447321 0.565709 
0.00447321 -10.0078 0.194024 
0.565709 0.194024 -9.89022 
-9.53006 0.153056 0.342403 
0.153056 -9.92943 0.186156 
0.342403 0.186156 -9.86829 
-9.48937 0.143073 0.294223 
0.143073 -9.92533 0.174857 
0.294223 0.174857 -9.91308 
-9.64061 0.0109838 0.204849 
0.0109838 -9.87796 0.0791316 
0.204849 0.0791316 -9.80921 
-8.9827 0.0632049 -0.927214 
0.0632049 -8.74019 1.35229 
-0.927214 1.35229 -8.31022 
-9.25006 0.118881 -0.946764 
0.118881 -8.98681 1.16958 
-0.946764 1.16958 -7.79624 
-9.01503 0.271101 -0.83404 
0.271101 -8.88839 1.32753 
-0.83404 1.32753 -8.12969 
-8.77521 0.138271 -0.932291 
0.138271 -9.02734 1.47328 
-0.932291 1.47328 -8.23055 
-9.7612 -0.0315069 -0.184912 
-0.0315069 -9.79957 -0.0616261 
-0.184912 -0.0616261 -9.95127 
-9.63998 0.134751 -0.249979 
0.134751 -9.94067 -0.157371 
-0.249979 -0.157371 -9.9314 
-9.79899 0.0627758 -0.352616 
0.0627758 -9.84946 -0.255633 
-0.352616 -0.255633 -9.86359 
-9.70068 0.0984419 -0.265156 
0.0984419 -9.90628 -0.11205 
-0.265156 -0.11205 -9.90509 
-9.82725 -0.243085 0.219841 
-0.243085 -9.72089 -0.346167 
0.219841 -0.346167 -10.224 
-9.6995 -0.297555 0.277478 
-0.297555 -9.96556 -0.23682 
0.277478 -0.23682 -10.1071 
-9.79246 0.0112405 0.0551358 
0.0112405 -9.85911 -0.364275 
0.0551358 -0.364275 -10.1206 
-9.75794 -0.210343 0.372921 
-0.210343 -9.82226 -0.309754 
0.372921 -0.309754 -10.192 
-9.91567 0.0134725 -0.158954 
0.0134725 -9.92313 -0.205661 
-0.158954 -0.205661 -9.95145 
-9.94 0.0264324 -0.115556 
0.0264324 -9.93091 -0.162971 
-0.115556 -0.162971 -9.91934 
-9.9108 -0.00845292 -0.11077 
-0.00845292 -9.92905 -0.183408 
-0.11077 -0.183408 -9.9504 
-9.90944 0.0158156 -0.128356 
0.0158156 -9.92345 -0.200944 
-0.128356 -0.200944 -9.95736 
-9.69707 0.0627656 -0.20117 
0.0627656 -9.73635 -0.231415 
-0.20117 -0.231415 -10.0788 
-9.28134 -0.0280028 -0.244724 
-0.0280028 -9.46437 0.0363751 
-0.244724 0.0363751 -10.7665 
-9.69011 0.19911 -0.58546 
0.19911 -9.47108 -0.184226 
-0.58546 -0.184226 -10.351 
-9.61784 0.378826 -0.555462 
0.378826 -9.50738 -0.465245 
-0.555462 -0.465245 -10.387 
-10.2332 2.03406 0.906503 
2.03406 -11.825 -0.774321 
0.906503 -0.774321 -12.648 
-3.47225 6.35577 -0.493506 
6.35577 -10.8794 0.725574 
-0.493506 0.725574 -20.3546 
-11.991 1.48005 1.95216 
1.48005 -9.95022 1.18351 
1.95216 1.18351 -12.7651 
-11.4011 1.05398 -1.18133 
1.05398 -10.1116 -0.434683 
-1.18133 -0.434683 -13.1935 
-11.2239 -0.110482 -0.0742737 
-0.110482 -9.8869 0.100629 
-0.0742737 0.100629 -13.9401 
-12.4577 0.774118 -0.153381 
0.774118 -9.91061 0.669217 
-0.153381 0.669217 -12.6826 
-11.1562 -1.28151 0.922067 
-1.28151 -10.7759 -0.313085 
0.922067 -0.313085 -13.1187 
-10.3156 -1.09426 -0.733969 
-1.09426 -10.2546 1.37383 
-0.733969 1.37383 -14.4807 
-9.76114 -0.205312 0.0405101 
-0.205312 -9.88199 0.0143538 
0.0405101 0.0143538 -9.94619 
-9.95332 0.146073 0.102125 
0.146073 -9.8099 -0.0114301 
0.102125 -0.0114301 -9.82609 
-9.85636 -0.0355071 -0.0102663 
-0.0355071 -9.7977 -0.145653 
-0.0102663 -0.145653 -9.93525 
-9.83501 -0.063445 0.14589 
-0.063445 -9.80588 -0.0561517 
0.14589 -0.0561517 -9.94842 
-9.6569 0.0166816 -0.37541 
0.0166816 -9.88601 -0.280974 
-0.37541 -0.280974 -9.47873 
-9.86668 -0.00487894 -0.272202 
-0.00487894 -9.68899 -0.260383 
-0.272202 -0.260383 -9.46597 
-9.70688 -0.0153992 -0.526003 
-0.0153992 -9.92198 -0.196671 
-0.526003 -0.196671 -9.39277 
-9.65711 0.0306514 -0.398817 
0.0306514 -9.90783 -0.268612 
-0.398817 -0.268612 -9.4567 
-9.60048 0.126381 -0.348335 
0.126381 -9.98105 -0.129674 
-0.348335 -0.129674 -9.2679 
-9.65259 -0.0138122 -0.442803 
-0.0138122 -9.92808 -0.147799 
-0.442803 -0.147799 -9.26875 
-9.59423 -0.229717 -0.307769 
-0.229717 -9.77777 -0.165083 
-0.307769 -0.165083 -9.47742 
-9.64217 0.0771682 -0.415868 
0.0771682 -9.89445 0.0228272 
-0.415868 0.0228272 -9.31281 
-9.29981 1.33649 -0.987459 
1.33649 -8.24265 0.727674 
-0.987459 0.727674 -13.1886 
-9.50702 0.844519 1.09409 
0.844519 -10.3176 -0.613387 
1.09409 -0.613387 -10.9064 
-9.06093 1.4273 1.65415 
1.4273 -10.5079 0.404755 
1.65415 0.404755 -11.1622 
-9.20783 0.669605 0.800857 
0.669605 -9.59256 0.857447 
0.800857 0.857447 -11.9306 
-9.86651 -0.0116516 0.0244568 
-0.0116516 -9.80768 -0.231728 
0.0244568 -0.231728 -9.88808 
-9.85386 -0.00075802 0.0147564 
-0.00075802 -9.80998 -0.240633 
0.0147564 -0.240633 -9.89842 
-9.85973 0.000364404 0.0133153 
0.000364404 -9.85664 -0.23676 
0.0133153 -0.23676 -9.84589 
-9.86164 0.00822956 0.0254136 
0.00822956 -9.82406 -0.212137 
0.0254136 -0.212137 -9.87657 
-9.89963 -0.0170389 0.220208 
-0.0170389 -9.91932 -0.137617 
0.220208 -0.137617 -9.8592 
-9.85962 -0.035257 0.219334 
-0.035257 -9.93354 -0.103185 
0.219334 -0.103185 -9.88499 
-9.92518 -0.0208103 0.195744 
-0.0208103 -9.94462 -0.175209 
0.195744 -0.175209 -9.80834 
-9.91589 -0.0179448 0.215323 
-0.0179448 -9.89885 -0.143988 
0.215323 -0.143988 -9.8634 
-10.5371 -0.242829 -0.103194 
-0.242829 -10.2602 0.0281412 
-0.103194 0.0281412 -10.66 
-10.3842 -0.0803184 -0.173136 
-0.0803184 -10.3796 -0.00486197 
-0.173136 -0.00486197 -10.6936 
-10.3336 0.0129985 0.0159777 
0.0129985 -10.3548 0.0259177 
0.0159777 0.0259177 -10.769 
-10.4587 -0.138787 -0.123211 
-0.138787 -10.2667 0.0133359 
-0.123211 0.0133359 -10.732 
-9.44326 0.0434113 0.58062 
0.0434113 -10.0861 0.081398 
0.58062 0.081398 -9.6207 
-9.53391 0.00492863 0.342903 
0.00492863 -9.90195 -0.0110918 
0.342903 -0.0110918 -9.71421 
-9.42752 0.130463 0.383446 
0.130463 -9.94794 -0.0591254 
0.383446 -0.0591254 -9.7746 
-9.48661 -0.0150701 0.3925 
-0.0150701 -9.68359 -0.160473 
0.3925 -0.160473 -9.97987 
-9.86305 -0.0384125 0.161797 
-0.0384125 -9.85685 0.157202 
0.161797 0.157202 -9.86456 
-9.84731 0.0646937 0.145948 
0.0646937 -9.83963 0.124508 
0.145948 0.124508 -9.8975 
-9.84833 -0.0117338 0.149638 
-0.0117338 -9.84732 0.169754 
0.149638 0.169754 -9.8888 
-9.8535 0.00296638 0.182498 
0.00296638 -9.81076 0.156101 
0.182498 0.156101 -9.92019 
-9.94788 0.00576844 -0.224335 
0.00576844 -9.85866 -0.0539334 
-0.224335 -0.0539334 -9.89411 
-9.81896 -0.0045714 -0.240133 
-0.0045714 -9.901 -0.0679822 
-0.240133 -0.0679822 -9.98069 
-9.92877 0.0170538 -0.230898 
0.0170538 -9.89071 -0.0413754 
-0.230898 -0.0413754 -9.88118 
-9.8687 0.0381716 -0.195709 
0.0381716 -9.92397 -0.0925431 
-0.195709 -0.0925431 -9.90799 
-9.78026 -0.0166812 -0.361134 
-0.0166812 -10.0905 0.149622 
-0.361134 0.149622 -9.42581 
-9.71878 0.00862388 -0.0888014 
0.00862388 -9.81901 0.0745035 
-0.0888014 0.0745035 -9.7588 
-9.83391 0.00934154 -0.379534 
0.00934154 -10.1494 -0.0792194 
-0.379534 -0.0792194 -9.31329 
-9.78629 0.00465464 -0.373996 
0.00465464 -10.0587 0.0786155 
-0.373996 0.0786155 -9.45157 
-6.80536 1.21022 2.81692 
1.21022 -8.69003 0.640591 
2.81692 0.640591 2.24166 
-4.16192 -0.70585 0.943804 
-0.70585 -4.49267 -0.690738 
0.943804 -0.690738 -4.59914 
-3.55653 0.314652 0.861217 
0.314652 -4.13766 -0.677267 
0.861217 -0.677267 -5.55954 
-2.47584 -1.35483 1.26464 
-1.35483 -8.26221 -4.87119 
1.26464 -4.87119 -2.51569 
-10.088 -0.576313 -0.49697 
-0.576313 -9.69508 0.620187 
-0.49697 0.620187 -10.4084 
-9.70692 -0.417155 -0.337316 
-0.417155 -10.14 0.243572 
-0.337316 0.243572 -10.3445 
-9.92177 -0.200494 -0.15568 
-0.200494 -9.9735 -0.0723294 
-0.15568 -0.0723294 -10.2962 
-9.68008 -0.392085 -0.470645 
-0.392085 -10.2175 0.325946 
-0.470645 0.325946 -10.2938 
-9.94251 0.00392346 -0.236316 
0.00392346 -9.953 0.00455647 
-0.236316 0.00455647 -10.0009 
-9.92118 -0.009458 -0.239523 
-0.009458 -9.99254 0.00625554 
-0.239523 0.00625554 -9.98273 
-9.91517 -0.00739524 -0.237238 
-0.00739524 -9.98717 -0.00192837 
-0.237238 -0.00192837 -9.9941 
-9.96451 0.00763317 -0.26334 
0.00763317 -9.95782 0.00181496 
-0.26334 0.00181496 -9.97412 
-9.09901 0.206864 0.415026 
0.206864 -8.96465 -1.41512 
0.415026 -1.41512 -8.29154 
-8.10947 0.134049 0.0104581 
0.134049 -9.52791 -0.414264 
0.0104581 -0.414264 -8.71781 
-9.54628 -0.648632 0.532093 
-0.648632 -9.75929 -2.07908 
0.532093 -2.07908 -7.04963 
-9.50704 0.29603 -0.252329 
0.29603 -9.48502 -1.93671 
-0.252329 -1.93671 -7.36314 
-9.82028 0.0338467 0.21511 
0.0338467 -9.8284 0.200333 
0.21511 0.200333 -9.95401 
-9.80825 0.0750248 0.241118 
0.0750248 -9.81783 0.227317 
0.241118 0.227317 -9.97661 
-9.81862 0.0625206 0.227778 
0.0625206 -9.83178 0.175476 
0.227778 0.175476 -9.95229 
-9.78111 0.0502477 0.250529 
0.0502477 -9.86474 0.229273 
0.250529 0.229273 -9.95684 
-9.4255 0.568385 0.353647 
0.568385 -8.60985 1.23312 
0.353647 1.23312 -9.75468 
-8.53388 0.481341 0.120506 
0.481341 -10.2708 1.23461 
0.120506 1.23461 -8.98538 
-9.17568 -1.14496 -1.34779 
-1.14496 -10.1513 0.068653 
-1.34779 0.068653 -8.46305 
-7.64174 -1.10947 -1.06172 
-1.10947 -9.41848 1.91973 
-1.06172 1.91973 -10.7298 
-10.0001 -0.0354046 0.0561143 
-0.0354046 -9.92808 0.216219 
0.0561143 0.216219 -9.91037 
-10.0116 -0.0205824 0.0310677 
-0.0205824 -9.91481 0.245373 
0.0310677 0.245373 -9.91209 
-9.83867 0.0259601 0.0693414 
0.0259601 -9.97827 0.143541 
0.0693414 0.143541 -10.0216 
-9.96131 0.0456345 -0.0279446 
0.0456345 -10.0702 0.233619 
-0.0279446 0.233619 -9.80698 
-9.78861 0.0321793 0.179309 
0.0321793 -9.74964 0.248973 
0.179309 0.248973 -9.83923 
-9.93782 0.0394664 0.153842 
0.0394664 -9.72648 0.287195 
0.153842 0.287195 -9.71318 
-9.86115 0.130483 0.259005 
0.130483 -9.70259 0.35097 
0.259005 0.35097 -9.81375 
-10.0855 -0.0936116 0.058233 
-0.0936116 -9.64818 0.31045 
0.058233 0.31045 -9.64379 
-9.92307 -0.129814 -0.0508959 
-0.129814 -9.73311 0.114083 
-0.0508959 0.114083 -10.3309 
-9.55542 0.0492964 0.207102 
0.0492964 -10.0781 -0.318383 
0.207102 -0.318383 -10.3535 
-9.66304 -0.0783369 -0.310376 
-0.0783369 -9.51939 -0.131114 
-0.310376 -0.131114 -10.8046 
-10.0811 -0.249402 -0.0174847 
-0.249402 -9.34064 -0.0585059 
-0.0174847 -0.0585059 -10.5653 
-9.94304 -0.0102865 -0.111621 
-0.0102865 -9.89543 -0.232718 
-0.111621 -0.232718 -9.95181 
-9.96692 0.0205721 -0.0789408 
0.0205721 -9.87498 -0.192106 
-0.0789408 -0.192106 -9.94838 
-9.92857 -0.00196924 -0.0815863 
-0.00196924 -9.92797 -0.216243 
-0.0815863 -0.216243 -9.93373 
-9.93031 0.0024812 -0.0975112 
0.0024812 -9.92413 -0.22447 
-0.0975112 -0.22447 -9.93584 
-9.73669 -0.0836607 0.204438 
-0.0836607 -9.84138 -0.107853 
0.204438 -0.107853 -9.89462 
-9.81945 -0.0219291 0.161263 
-0.0219291 -9.8033 -0.0876314 
0.161263 -0.0876314 -9.84994 
-9.8859 0.0297525 0.165285 
0.0297525 -9.7957 -0.074262 
0.165285 -0.074262 -9.79109 
-9.7875 -0.044358 0.0861789 
-0.044358 -9.794 -0.0653148 
0.0861789 -0.0653148 -9.89119 
-9.38996 0.180619 -0.29194 
0.180619 -9.87213 -0.322249 
-0.29194 -0.322249 -9.5101 
-9.42205 0.110221 -0.332676 
0.110221 -9.80153 -0.219951 
-0.332676 -0.219951 -9.5486 
-9.45309 0.131957 -0.371616 
0.131957 -9.76119 -0.319958 
-0.371616 -0.319958 -9.55791 
-9.57913 -0.0334264 -0.286945 
-0.0334264 -9.48889 -0.398813 
-0.286945 -0.398813 -9.70417 
-9.98007 -0.03846 0.0392989 
-0.03846 -10.1641 -0.0372039 
0.0392989 -0.0372039 -10.377 
-10.037 0.00834502 0.00328594 
0.00834502 -10.0881 -0.0103687 
0.00328594 -0.0103687 -10.396 
-10.0109 -0.0789926 0.0252662 
-0.0789926 -10.1447 0.0254259 
0.0252662 0.0254259 -10.3655 
-10.0074 0.000702591 0.0410027 
0.000702591 -10.1784 -0.0195214 
0.0410027 -0.0195214 -10.3353 
-9.79831 0.0595805 0.197373 
0.0595805 -9.78046 0.199399 
0.197373 0.199399 -9.94522 
-9.82014 0.0448981 0.144864 
0.0448981 -9.79813 0.219341 
0.144864 0.219341 -9.90571 
-9.78532 0.0506529 0.167528 
0.0506529 -9.78021 0.184283 
0.167528 0.184283 -9.95845 
-9.79464 0.0514711 0.178658 
0.0514711 -9.77796 0.20508 
0.178658 0.20508 -9.95138 
-9.75913 0.174632 0.109362 
0.174632 -8.65728 1.00909 
0.109362 1.00909 -7.87509 
-10.6727 0.277912 0.593965 
0.277912 -8.79117 1.04428 
0.593965 1.04428 -6.82761 
-9.85125 -0.0938306 -0.301589 
-0.0938306 -8.75531 0.746804 
-0.301589 0.746804 -7.68494 
-9.19245 0.435159 0.157549 
0.435159 -8.74627 0.874298 
0.157549 0.874298 -8.35277 
-9.94166 0.00366352 0.0392719 
0.00366352 -9.94735 -0.246373 
0.0392719 -0.246373 -10.0164 
-9.97785 -0.0135508 0.023869 
-0.0135508 -9.95282 -0.24104 
0.023869 -0.24104 -9.97474 
-9.96942 -0.00404149 0.0253969 
-0.00404149 -9.95892 -0.236245 
0.0253969 -0.236245 -9.97707 
-9.97964 7.07976e-05 0.024706 
7.07976e-05 -9.95834 -0.227452 
0.024706 -0.227452 -9.96743 
-9.74123 -0.0637241 -0.307826 
-0.0637241 -9.93311 0.156732 
-0.307826 0.156732 -9.70235 
-9.76153 0.00945736 -0.296428 
0.00945736 -9.89974 0.152463 
-0.296428 0.152463 -9.71542 
-9.77021 -0.0261374 -0.276018 
-0.0261374 -9.89874 0.156956 
-0.276018 0.156956 -9.70774 
-9.75295 -0.0311106 -0.289396 
-0.0311106 -9.89948 0.158543 
-0.289396 0.158543 -9.72425 
-9.82969 -0.109563 0.0854563 
-0.109563 -9.58383 -0.204309 
0.0854563 -0.204309 -9.86254 
-9.83329 -0.0153306 0.0562315 
-0.0153306 -9.63065 -0.216061 
0.0562315 -0.216061 -9.81212 
-9.7871 -0.108976 0.0295037 
-0.108976 -9.52353 -0.126451 
0.0295037 -0.126451 -9.96543 
-9.90419 -0.176368 0.146787 
-0.176368 -9.40795 -0.304729 
0.146787 -0.304729 -9.96392 
-9.75226 0.102335 -0.321919 
0.102335 -9.88448 -0.155847 
-0.321919 -0.155847 -9.71828 
-9.68273 0.0675573 -0.42122 
0.0675573 -10.0559 -0.182446 
-0.42122 -0.182446 -9.61637 
-9.58734 0.14758 -0.285511 
0.14758 -10.0574 -0.440285 
-0.285511 -0.440285 -9.71031 
-9.71724 0.0336304 -0.34409 
0.0336304 -9.8351 -0.139552 
-0.34409 -0.139552 -9.80267 
-9.97527 -0.00666648 0.0105316 
-0.00666648 -10.0053 0.0105293 
0.0105316 0.0105293 -10.0067 
-9.97386 -0.00276514 0.0095219 
-0.00276514 -10.007 0.00537187 
0.0095219 0.00537187 -10.0065 
-9.9785 0.00834965 0.00873344 
0.00834965 -9.99268 0.0104493 
0.00873344 0.0104493 -10.0162 
-9.99466 0.012658 0.0137619 
0.012658 -10.0014 -0.00136788 
0.0137619 -0.00136788 -9.9913 
-10.107 0.0935594 0.0428633 
0.0935594 -10.1586 0.0685681 
0.0428633 0.0685681 -10.5653 
-10.6214 0.0308467 0.0965568 
0.0308467 -10.5458 -0.124736 
0.0965568 -0.124736 -9.66374 
-10.101 0.0145567 -0.0702037 
0.0145567 -10.1388 -0.00611614 
-0.0702037 -0.00611614 -10.5912 
-10.1272 0.00751366 0.258844 
0.00751366 -10.152 -0.156465 
0.258844 -0.156465 -10.5518 
-11.3782 0.983476 -0.401323 
0.983476 -9.83585 -0.257284 
-0.401323 -0.257284 -12.3455 
-11.5099 1.20258 0.0998399 
1.20258 -10.5423 -0.938296 
0.0998399 -0.938296 -11.5073 
-11.2394 -0.21417 0.232331 
-0.21417 -9.37013 -0.208795 
0.232331 -0.208795 -12.95 
-11.4468 -0.112583 -0.253984 
-0.112583 -10.1286 0.615924 
-0.253984 0.615924 -11.9841 
-9.89854 -0.00767759 -0.230902 
-0.00767759 -9.89026 -0.0276703 
-0.230902 -0.0276703 -9.86361 
-9.80859 0.0209966 -0.254946 
0.0209966 -9.89516 -0.034272 
-0.254946 -0.034272 -9.94865 
-9.89873 0.000630943 -0.226966 
0.000630943 -9.86992 -0.0231808 
-0.226966 -0.0231808 -9.88375 
-9.83273 -0.0100848 -0.193985 
-0.0100848 -9.89306 0.0138817 
-0.193985 0.0138817 -9.92662 
-9.34921 0.961907 0.0446265 
0.961907 -9.81788 -1.17581 
0.0446265 -1.17581 -8.12201 
-8.40115 0.897807 0.406396 
0.897807 -11.5865 -0.72278 
0.406396 -0.72278 -7.30147 
-9.28497 -0.0935087 0.699407 
-0.0935087 -10.6764 -0.934815 
0.699407 -0.934815 -7.32769 
-8.72459 -1.05386 1.55626 
-1.05386 -10.4059 -2.32086 
1.55626 -2.32086 -8.15861 
-10.232 0.00811533 0.0447715 
0.00811533 -10.098 -0.0590088 
0.0447715 -0.0590088 -10.8824 
-10.319 0.0374425 -0.0458804 
0.0374425 -10.0862 -0.0339235 
-0.0458804 -0.0339235 -10.8072 
-10.4599 -0.00501977 0.187187 
-0.00501977 -9.93151 -0.0113001 
0.187187 -0.0113001 -10.821 
-10.2733 0.043049 0.024483 
0.043049 -10.1016 -0.0241393 
0.024483 -0.0241393 -10.8376 
-9.73842 -0.0308117 -0.25238 
-0.0308117 -9.84362 0.194026 
-0.25238 0.194026 -9.96883 
-9.76411 -0.0638362 -0.207222 
-0.0638362 -9.82014 0.0953649 
-0.207222 0.0953649 -9.96663 
-9.79194 -0.0264868 -0.212489 
-0.0264868 -9.84822 0.0953532 
-0.212489 0.0953532 -9.91071 
-9.77697 -0.0429533 -0.220076 
-0.0429533 -9.83228 0.120835 
-0.220076 0.120835 -9.94162 
-9.75889 0.0471877 -0.0564499 
0.0471877 -9.87581 -0.0301183 
-0.0564499 -0.0301183 -10.0071 
-9.72204 0.0733121 0.0406721 
0.0733121 -9.81118 -0.0761153 
0.0406721 -0.0761153 -10.1086 
-9.72162 0.102081 0.279848 
0.102081 -10.1244 0.137598 
0.279848 0.137598 -9.79581 
-9.65412 0.153083 0.0175136 
0.153083 -9.9246 -0.0224127 
0.0175136 -0.0224127 -10.0631 
-9.60923 -0.280378 0.17871 
-0.280378 -9.62921 -0.193337 
0.17871 -0.193337 -10.2179 
-9.73673 -0.207463 0.430514 
-0.207463 -9.70143 -0.204222 
0.430514 -0.204222 -10.0182 
-9.4433 -0.0505529 0.695822 
-0.0505529 -9.78731 -0.240852 
0.695822 -0.240852 -10.2257 
-9.98027 -0.189908 0.425682 
-0.189908 -9.60485 -0.13066 
0.425682 -0.13066 -9.87122 
-9.72903 0.0748447 -0.134744 
0.0748447 -9.72022 -0.0710133 
-0.134744 -0.0710133 -10.0628 
-9.77092 0.0627498 -0.177456 
0.0627498 -9.8277 -0.0820128 
-0.177456 -0.0820128 -9.91347 
-9.79436 0.0673436 -0.118124 
0.0673436 -9.84419 -0.0784783 
-0.118124 -0.0784783 -9.87355 
-9.78023 0.0413391 -0.163923 
0.0413391 -9.80786 -0.104753 
-0.163923 -0.104753 -9.92401 
-9.94538 -0.119759 -0.0989519 
-0.119759 -9.52007 0.334582 
-0.0989519 0.334582 -9.79635 
-9.8849 -0.127448 -0.170053 
-0.127448 -9.46867 0.297801 
-0.170053 0.297801 -9.90823 
-10.0052 -0.164843 -0.133971 
-0.164843 -9.55834 0.324082 
-0.133971 0.324082 -9.69825 
-9.84133 -0.0303776 0.0834792 
-0.0303776 -9.68847 0.409607 
0.0834792 0.409607 -9.73199 
-9.92035 -0.0546062 -0.0622382 
-0.0546062 -10.0938 0.0282208 
-0.0622382 0.0282208 -9.98245 
-9.96975 0.0529754 0.255941 
0.0529754 -9.90454 -0.0705389 
0.255941 -0.0705389 -10.1223 
-9.96478 -0.0318559 -0.0390702 
-0.0318559 -9.96487 0.0176215 
-0.0390702 0.0176215 -10.0669 
-9.84831 -0.0776196 0.0186062 
-0.0776196 -10.055 0.0503314 
0.0186062 0.0503314 -10.0933 
-9.97622 -0.0196972 -0.160307 
-0.0196972 -9.91341 -0.152071 
-0.160307 -0.152071 -9.91289 
-9.85414 0.0327216 -0.158275 
0.0327216 -9.94671 -0.195141 
-0.158275 -0.195141 -10.0017 
-9.94567 0.0402782 -0.218108 
0.0402782 -10.0041 -0.179426 
-0.218108 -0.179426 -9.85274 
-9.98379 0.01345 -0.193873 
0.01345 -9.91879 -0.133166 
-0.193873 -0.133166 -9.89994 
-9.84247 -0.0129183 -0.242707 
-0.0129183 -9.88497 -0.0125156 
-0.242707 -0.0125156 -9.91141 
-9.88947 0.0250042 -0.235645 
0.0250042 -9.87654 0.0586178 
-0.235645 0.0586178 -9.87284 
-9.80474 0.0291562 -0.214473 
0.0291562 -9.91094 0.0631863 
-0.214473 0.0631863 -9.92317 
-9.8449 -0.012689 -0.212691 
-0.012689 -9.86919 0.00258002 
-0.212691 0.00258002 -9.92477 
-9.79067 -0.238879 0.627874 
-0.238879 -9.66018 -0.584629 
0.627874 -0.584629 -9.19627 
-9.71566 0.275242 -0.129916 
0.275242 -9.80443 -0.325725 
-0.129916 -0.325725 -9.12704 
-9.76549 -0.14516 0.851592 
-0.14516 -10.1307 -0.721207 
0.851592 -0.721207 -8.75089 
-9.514 0.0937248 0.604296 
0.0937248 -9.45491 -0.647697 
0.604296 -0.647697 -9.67821 
-9.8285 -0.0480586 0.147306 
-0.0480586 -9.85381 -0.265182 
0.147306 -0.265182 -9.95535 
-9.87164 -0.0433185 0.134769 
-0.0433185 -9.8175 -0.214836 
0.134769 -0.214836 -9.94853 
-9.89481 -0.0293259 0.13117 
-0.0293259 -9.81489 -0.197887 
0.13117 -0.197887 -9.92797 
-9.91754 -0.0544195 0.111623 
-0.0544195 -9.77631 -0.204125 
0.111623 -0.204125 -9.94382 
-11.221 -0.16204 -1.15893 
-0.16204 -8.96858 -0.263891 
-1.15893 -0.263891 -7.36347 
-9.02198 0.607869 0.431923 
0.607869 -10.0743 0.108426 
0.431923 0.108426 -8.45677 
-9.77868 -0.274355 -1.6487 
-0.274355 -9.02569 -0.537059 
-1.6487 -0.537059 -8.74871 
-10.2451 -0.120555 -1.06808 
-0.120555 -9.09188 -0.353811 
-1.06808 -0.353811 -8.21615 
-9.70675 -0.127397 -0.130733 
-0.127397 -10.3805 -0.215224 
-0.130733 -0.215224 -11.2168 
-10.2246 0.248471 -0.00521239 
0.248471 -9.97686 -0.221999 
-0.00521239 -0.221999 -11.1025 
-10.8752 0.242049 -0.337116 
0.242049 -10.3807 -0.507201 
-0.337116 -0.507201 -10.0481 
-10.107 0.450242 -0.476652 
0.450242 -10.0826 -0.479517 
-0.476652 -0.479517 -11.1144 
-10.91 2.07155 0.605258 
2.07155 -7.6589 -1.97015 
0.605258 -1.97015 -14.588 
-11.874 1.1629 -0.457744 
1.1629 -9.51538 -2.02623 
-0.457744 -2.02623 -11.7674 
-11.1891 -2.44347 0.647015 
-2.44347 -10.2654 -0.997228 
0.647015 -0.997228 -11.7023 
-10.0201 -0.632684 -0.253245 
-0.632684 -10.1527 -2.82496 
-0.253245 -2.82496 -12.9841 
-9.82689 0.0756824 0.036362 
0.0756824 -9.85193 0.0687742 
0.036362 0.0687742 -10.0417 
-9.82175 0.0381139 0.0962024 
0.0381139 -9.884 0.0667611 
0.0962024 0.0667611 -10.0148 
-9.84888 0.0989284 0.0438933 
0.0989284 -9.82861 0.0194536 
0.0438933 0.0194536 -10.043 
-9.77909 0.122875 -0.0282939 
0.122875 -9.87605 0.125074 
-0.0282939 0.125074 -10.0654 
-9.82207 -0.0331323 0.269162 
-0.0331323 -9.93735 -0.190268 
0.269162 -0.190268 -9.83589 
-9.83601 -0.014749 0.226192 
-0.014749 -9.89966 -0.133711 
0.226192 -0.133711 -9.85965 
-9.83257 -0.0186881 0.236214 
-0.0186881 -9.90595 -0.164327 
0.236214 -0.164327 -9.85681 
-9.84766 -0.0341059 0.199338 
-0.0341059 -9.87729 -0.155071 
0.199338 -0.155071 -9.87037 
-9.81893 -0.0577385 0.0871325 
-0.0577385 -9.81601 -0.100902 
0.0871325 -0.100902 -10.1572 
-9.6846 -0.075035 0.0486905 
-0.075035 -9.72709 -0.00223373 
0.0486905 -0.00223373 -10.3805 
-9.68797 -0.0254317 0.0168027 
-0.0254317 -9.84525 -0.106667 
0.0168027 -0.106667 -10.259 
-9.74221 -0.0773031 -0.0022633 
-0.0773031 -9.71253 -0.0369395 
-0.0022633 -0.0369395 -10.3374 
-9.78868 -0.021373 0.112086 
-0.021373 -9.7965 -0.168865 
0.112086 -0.168865 -9.91498 
-9.7854 -0.0324198 0.122709 
-0.0324198 -9.79611 -0.185948 
0.122709 -0.185948 -9.91865 
-9.81433 -0.034076 0.0958708 
-0.034076 -9.78934 -0.153736 
0.0958708 -0.153736 -9.8965 
-9.81257 -0.0277025 0.148978 
-0.0277025 -9.80256 -0.178561 
0.148978 -0.178561 -9.88503 
0.653723 -1.59325 7.90532 
-1.59325 -14.2732 1.58699 
7.90532 1.58699 -24.9421 
-7.98252 6.76405 -2.62377 
6.76405 -16.9426 2.49316 
-2.62377 2.49316 -13.6364 
1.85178 1.85302 11.0229 
1.85302 -8.93566 2.04821 
11.0229 2.04821 -31.4777 
-13.8206 -1.44773 2.97265 
-1.44773 -12.622 1.83977 
2.97265 1.83977 -12.119 
-3.29551 -3.45745 -1.75231 
-3.45745 -13.4578 -3.54163 
-1.75231 -3.54163 -16.9138 
-9.84163 0.601523 -1.83123 
0.601523 -10.2337 0.838681 
-1.83123 0.838681 -13.5918 
-12.9534 1.30831 -0.0227002 
1.30831 -8.5911 -1.05017 
-0.0227002 -1.05017 -12.1226 
-9.2892 -1.52672 -2.72669 
-1.52672 -13.2963 2.32482 
-2.72669 2.32482 -11.0816 
-9.95413 0.00452466 0.183694 
0.00452466 -9.92914 0.158156 
0.183694 0.158156 -10.0017 
-9.94685 0.0202655 0.189797 
0.0202655 -9.95595 0.170833 
0.189797 0.170833 -9.98212 
-9.93571 0.0150506 0.200249 
0.0150506 -9.96377 0.160855 
0.200249 0.160855 -9.98544 
-9.95738 0.0100363 0.183878 
0.0100363 -9.94457 0.156659 
0.183878 0.156659 -9.98297 
-9.9072 -0.17831 0.130262 
-0.17831 -9.78675 -0.0768542 
0.130262 -0.0768542 -10.8464 
-9.71799 -0.074443 0.105962 
-0.074443 -10.0007 0.0979312 
0.105962 0.0979312 -10.8217 
-9.73007 -0.146442 0.108756 
-0.146442 -10.0661 0.0192268 
0.108756 0.0192268 -10.7442 
-9.83178 -0.127553 0.150917 
-0.127553 -10.0385 0.00319083 
0.150917 0.00319083 -10.6701 
-9.95466 0.0065721 0.158769 
0.0065721 -9.94907 -0.175623 
0.158769 -0.175623 -9.99606 
-9.96087 -0.00746094 0.164689 
-0.00746094 -9.96374 -0.174172 
0.164689 -0.174172 -9.97519 
-9.94138 -0.00123609 0.165191 
-0.00123609 -9.95065 -0.184467 
0.165191 -0.184467 -10.0078 
-9.96844 -0.0122834 0.161589 
-0.0122834 -9.96467 -0.17202 
0.161589 -0.17202 -9.96668 
-9.84546 0.0417361 -0.0933743 
0.0417361 -9.85258 -0.165827 
-0.0933743 -0.165827 -9.92832 
-9.86046 0.0197756 -0.136173 
0.0197756 -9.846 -0.169893 
-0.136173 -0.169893 -9.91989 
-9.86529 0.0306435 -0.143865 
0.0306435 -9.83648 -0.171717 
-0.143865 -0.171717 -9.92458 
-9.85411 -0.004726 -0.136195 
-0.004726 -9.83917 -0.229869 
-0.136195 -0.229869 -9.93307 
-9.88782 0.0714109 -0.146793 
0.0714109 -9.84684 0.0648183 
-0.146793 0.0648183 -9.84246 
-9.84762 0.0380777 -0.109758 
0.0380777 -9.8917 0.0703378 
-0.109758 0.0703378 -9.8378 
-9.8231 -0.126244 -0.0404282 
-0.126244 -9.78559 0.0348784 
-0.0404282 0.0348784 -9.96844 
-9.7723 -0.0461532 -0.101696 
-0.0461532 -9.84897 0.159182 
-0.101696 0.159182 -9.95586 
-9.93643 -0.00150726 -0.247711 
-0.00150726 -9.95031 0.046404 
-0.247711 0.046404 -9.96344 
-9.9291 -0.00534401 -0.237103 
-0.00534401 -9.93991 0.0419191 
-0.237103 0.0419191 -9.98117 
-9.94083 -0.0140435 -0.202258 
-0.0140435 -9.92769 0.0436312 
-0.202258 0.0436312 -9.98166 
-9.92443 -0.00442238 -0.246476 
-0.00442238 -9.95853 0.0529749 
-0.246476 0.0529749 -9.96722 
-10.0771 0.0145609 -0.0758592 
0.0145609 -9.43325 0.438724 
-0.0758592 0.438724 -8.64344 
-9.77967 -0.0121711 -0.0286926 
-0.0121711 -9.4941 0.385944 
-0.0286926 0.385944 -8.88005 
-9.75409 0.204591 -0.374936 
0.204591 -9.6288 0.322261 
-0.374936 0.322261 -8.77094 
-9.85564 0.0127115 0.0823083 
0.0127115 -9.16424 0.433777 
0.0823083 0.433777 -9.13394 
-8.49554 1.62755 -1.34035 
1.62755 -10.7542 -0.96575 
-1.34035 -0.96575 -10.8923 
-6.75288 0.27716 -0.280574 
0.27716 -10.6257 1.49297 
-0.280574 1.49297 -12.7633 
-8.48541 0.380274 -1.25128 
0.380274 -10.1084 0.656643 
-1.25128 0.656643 -11.5481 
-8.89363 0.495938 -0.419355 
0.495938 -11.0754 -1.24955 
-0.419355 -1.24955 -10.1729 
-10.0789 0.0532192 0.0525788 
0.0532192 -10.045 0.00610052 
0.0525788 0.00610052 -10.3927 
-10.0891 -0.0022978 0.030176 
-0.0022978 -10.0469 0.00521745 
0.030176 0.00521745 -10.3806 
-10.0652 0.0539259 0.000125839 
0.0539259 -10.0627 0.00371914 
0.000125839 0.00371914 -10.3887 
-10.1269 0.0117506 -0.0153055 
0.0117506 -10.0085 -0.00622383 
-0.0153055 -0.00622383 -10.3812 
-9.93736 -0.362336 0.249431 
-0.362336 -9.66529 -0.424594 
0.249431 -0.424594 -11.4905 
-10.3593 0.139847 0.0324625 
0.139847 -9.60405 0.104958 
0.0324625 0.104958 -11.1298 
-10.5988 -0.22657 0.126473 
-0.22657 -9.98194 0.340144 
0.126473 0.340144 -10.5125 
-9.64978 -0.0742135 -0.0119005 
-0.0742135 -9.56962 0.277645 
-0.0119005 0.277645 -11.8738 
-10.061 -0.0546935 0.0748862 
-0.0546935 -9.9354 0.086753 
0.0748862 0.086753 -10.5275 
-10.1123 -0.013873 -0.140635 
-0.013873 -9.91275 0.126041 
-0.140635 0.126041 -10.4988 
-10.0445 -0.0197198 0.0402432 
-0.0197198 -9.97741 0.00532493 
0.0402432 0.00532493 -10.5019 
-10.0028 0.00696008 -0.233215 
0.00696008 -10.0685 0.144447 
-0.233215 0.144447 -10.4525 
-10.0354 -0.0313728 -0.0910084 
-0.0313728 -9.59809 0.367958 
-0.0910084 0.367958 -9.59093 
-10.1229 -0.0917299 -0.160248 
-0.0917299 -9.55084 0.46352 
-0.160248 0.46352 -9.55068 
-9.72817 -0.181611 -0.0552335 
-0.181611 -9.91534 0.144485 
-0.0552335 0.144485 -9.58094 
-10.0836 0.0407707 -0.0519877 
0.0407707 -9.57058 0.397061 
-0.0519877 0.397061 -9.57026 
-10.0559 -0.0117385 0.0867457 
-0.0117385 -10.0571 0.0357317 
0.0867457 0.0357317 -10.204 
-10.3069 0.0609114 0.187236 
0.0609114 -10.1455 0.0116037 
0.187236 0.0116037 -9.86458 
-9.90071 0.0719593 -0.118616 
0.0719593 -9.94835 0.0400858 
-0.118616 0.0400858 -10.4679 
-9.82017 -0.0322264 0.182387 
-0.0322264 -10.1519 -0.00699429 
0.182387 -0.00699429 -10.3449 
-10.2224 0.308485 0.18018 
0.308485 -9.60264 0.448794 
0.18018 0.448794 -9.15503 
-10.1893 -0.0539279 -0.0566004 
-0.0539279 -9.61847 0.494062 
-0.0566004 0.494062 -9.17222 
-9.95159 -0.0268924 0.0138149 
-0.0268924 -9.65094 0.300457 
0.0138149 0.300457 -9.3775 
-10.0518 -0.00835458 0.0894406 
-0.00835458 -9.56391 0.366908 
0.0894406 0.366908 -9.3643 
-9.9328 0.0282927 -0.359475 
0.0282927 -9.83341 -0.358534 
-0.359475 -0.358534 -9.44657 
-9.85006 0.049587 -0.399331 
0.049587 -10.0171 -0.210951 
-0.399331 -0.210951 -9.34565 
-9.62903 0.0585134 -0.0280328 
0.0585134 -9.7921 0.0567784 
-0.0280328 0.0567784 -9.79164 
-9.63097 -0.0726092 -0.324636 
-0.0726092 -9.97062 -0.396542 
-0.324636 -0.396542 -9.61119 
-9.87203 0.131395 -0.24227 
0.131395 -10.2867 -0.302134 
-0.24227 -0.302134 -10.3229 
-10.091 0.720304 -0.0906497 
0.720304 -9.51303 0.239652 
-0.0906497 0.239652 -10.8776 
-10.9813 -0.258586 0.339086 
-0.258586 -9.45165 -0.146051 
0.339086 -0.146051 -10.0486 
-10.4537 -0.107364 0.0992394 
-0.107364 -9.20618 -0.176289 
0.0992394 -0.176289 -10.8217 
-10.1575 -0.313891 -0.425122 
-0.313891 -9.9119 0.406248 
-0.425122 0.406248 -9.51893 
-10.2047 -0.310787 -0.740892 
-0.310787 -9.81661 0.562292 
-0.740892 0.562292 -9.567 
-10.3109 -0.0063728 -0.429762 
-0.0063728 -9.5425 0.40273 
-0.429762 0.40273 -9.73496 
-10.5228 0.0297691 -0.514011 
0.0297691 -9.70678 0.351919 
-0.514011 0.351919 -9.35875 
-9.93201 0.00463331 0.17056 
0.00463331 -9.93821 0.0969298 
0.17056 0.0969298 -10.0883 
-10.0064 0.00536553 0.186434 
0.00536553 -9.98803 0.117568 
0.186434 0.117568 -9.96405 
-10.0015 -0.000682833 0.18529 
-0.000682833 -9.99993 0.133075 
0.18529 0.133075 -9.95706 
-10.0005 -0.000325768 0.159196 
-0.000325768 -10.0084 0.119646 
0.159196 0.119646 -9.94954 
-9.62041 -0.0593892 -0.333088 
-0.0593892 -9.78748 0.221739 
-0.333088 0.221739 -9.65101 
-9.63184 -0.0804772 -0.372498 
-0.0804772 -9.87053 0.278004 
-0.372498 0.278004 -9.55653 
-9.58899 -0.0834437 -0.312582 
-0.0834437 -9.75036 0.242516 
-0.312582 0.242516 -9.71955 
-9.63571 -0.0344326 -0.254872 
-0.0344326 -9.80796 0.112727 
-0.254872 0.112727 -9.61523 
-9.8953 0.0613852 -0.0572749 
0.0613852 -9.84197 -0.0568346 
-0.0572749 -0.0568346 -9.98699 
-9.89124 0.0945014 -0.0487036 
0.0945014 -9.82439 -0.00534984 
-0.0487036 -0.00534984 -10.0086 
-9.88552 0.0442012 -0.0322092 
0.0442012 -9.85866 0.012144 
-0.0322092 0.012144 -9.98008 
-9.9446 0.0435936 -0.0515671 
0.0435936 -9.80884 -0.066271 
-0.0515671 -0.066271 -9.97082 
-8.98455 0.319346 0.416405 
0.319346 -9.9371 -0.0396386 
0.416405 -0.0396386 -10.6796 
-9.39233 0.382847 0.527296 
0.382847 -9.83648 0.146108 
0.527296 0.146108 -10.3725 
-9.72989 0.201922 0.579986 
0.201922 -9.78626 0.399575 
0.579986 0.399575 -10.0851 
-9.70967 0.461629 0.699307 
0.461629 -9.88447 0.102597 
0.699307 0.102597 -10.0071 
0.144665 3.8501 -3.01375 
3.8501 -12.2105 -3.23099 
-3.01375 -3.23099 -22.8315 
-10.9882 4.43542 2.12161 
4.43542 -12.8205 1.74988 
2.12161 1.74988 -11.0886 
-0.648645 5.5981 -4.16953 
5.5981 -7.20378 -3.53154 
-4.16953 -3.53154 -27.0449 
-9.35677 -0.00421085 -2.37416 
-0.00421085 -12.4677 -1.76781 
-2.37416 -1.76781 -13.0729 
-11.6772 -3.84084 -2.6639 
-3.84084 -0.731378 2.05706 
-2.6639 2.05706 -20.5735 
-11.5037 -4.02449 1.35352 
-4.02449 -10.0272 -1.62184 
1.35352 -1.62184 -11.4512 
-6.37466 -5.01039 -3.44628 
-5.01039 -1.36727 2.93796 
-3.44628 2.93796 -25.2401 
-11.2927 -0.941605 -1.5164 
-0.941605 -8.39551 1.46187 
-1.5164 1.46187 -13.2938 
-9.83625 0.00096151 -0.132951 
0.00096151 -9.86952 -0.168535 
-0.132951 -0.168535 -9.90345 
-9.84626 0.0116114 -0.125288 
0.0116114 -9.85607 -0.171777 
-0.125288 -0.171777 -9.90688 
-9.85006 0.0335674 -0.128469 
0.0335674 -9.84042 -0.162548 
-0.128469 -0.162548 -9.91874 
-9.84835 -0.00444673 -0.133227 
-0.00444673 -9.84526 -0.174949 
-0.133227 -0.174949 -9.91561 
-9.98808 -0.0205748 0.00694912 
-0.0205748 -9.96112 -0.0107398 
0.00694912 -0.0107398 -10.0215 
-9.98745 0.00496862 -0.00715807 
0.00496862 -9.99227 -0.0256758 
-0.00715807 -0.0256758 -9.99093 
-9.99246 -0.0186555 0.0101928 
-0.0186555 -9.97004 0.0129452 
0.0101928 0.0129452 -10.0082 
-9.99693 -0.0111472 0.00364817 
-0.0111472 -9.96783 -0.00862092 
0.00364817 -0.00862092 -10.0059 
-5.83906 -0.817877 1.89553 
-0.817877 1.62907 1.38271 
1.89553 1.38271 -6.77514 
-13.842 -5.59018 -1.6234 
-5.59018 -8.27184 -5.50004 
-1.6234 -5.50004 11.1287 
-4.97122 0.85407 0.655041 
0.85407 -4.51297 0.188963 
0.655041 0.188963 -1.50093 
-6.0789 0.00291019 -4.1031 
0.00291019 -1.30491 2.12518 
-4.1031 2.12518 -3.60132 
-9.55711 -1.27054 0.686411 
-1.27054 -7.65677 -1.95321 
0.686411 -1.95321 -10.0568 
-8.89118 -0.457293 0.105773 
-0.457293 -10.2606 0.749652 
0.105773 0.749652 -8.11891 
-9.02537 -0.101487 0.293599 
-0.101487 -9.86767 2.40304 
0.293599 2.40304 -8.37765 
-9.09275 0.225887 -0.164851 
0.225887 -11.835 1.21537 
-0.164851 1.21537 -6.34294 
-10.0029 -0.0477622 -2.70844e-05 
-0.0477622 -9.97456 0.00848623 
-2.70844e-05 0.00848623 -10.1174 
-9.98485 -0.0606813 -0.0212889 
-0.0606813 -9.98693 0.0161895 
-0.0212889 0.0161895 -10.123 
-10.004 -0.0267841 -0.00917939 
-0.0267841 -9.99432 0.00446543 
-0.00917939 0.00446543 -10.0965 
-10.0222 -0.0441832 -0.0216162 
-0.0441832 -9.94397 0.0217187 
-0.0216162 0.0217187 -10.1286 
-3.49318 -0.157679 -0.511167 
-0.157679 -5.87732 -0.278345 
-0.511167 -0.278345 -0.354541 
-5.06918 -1.21376 -0.783168 
-1.21376 -5.56086 0.687618 
-0.783168 0.687618 0.905 
-1.63736 0.326665 1.02727 
0.326665 -2.68479 -2.30816 
1.02727 -2.30816 -5.40289 
-3.70438 1.1647 0.535249 
1.1647 -6.3976 -1.452 
0.535249 -1.452 0.376945 
-10.3389 0.0184706 -0.0106175 
0.0184706 -10.3225 0.114216 
-0.0106175 0.114216 -10.3601 
-10.2748 -0.128982 -0.140409 
-0.128982 -10.2803 0.000853043 
-0.140409 0.000853043 -10.4665 
-10.3252 -0.0208563 -0.0407587 
-0.0208563 -10.269 0.128195 
-0.0407587 0.128195 -10.4273 
-10.3665 -0.0700178 -0.113195 
-0.0700178 -10.2304 0.15006 
-0.113195 0.15006 -10.4246 
-9.93688 -0.0301932 -0.0638549 
-0.0301932 -9.97098 -0.239891 
-0.0638549 -0.239891 -10.0223 
-9.99432 -0.00029078 -0.0764899 
-0.00029078 -9.95115 -0.231812 
-0.0764899 -0.231812 -9.98467 
-9.97707 0.00115378 -0.0784322 
0.00115378 -9.98162 -0.216517 
-0.0784322 -0.216517 -9.97145 
-9.97499 0.0026543 -0.0726063 
0.0026543 -9.97729 -0.219632 
-0.0726063 -0.219632 -9.97786 
-11.4599 -0.950483 -0.0917189 
-0.950483 -12.1425 -0.179934 
-0.0917189 -0.179934 -10.2959 
-10.6185 0.0768905 -0.403735 
0.0768905 -10.4359 0.0839805 
-0.403735 0.0839805 -12.8439 
-11.8327 -0.237717 0.152442 
-0.237717 -10.7764 0.241664 
0.152442 0.241664 -11.2893 
-11.28 -0.0791425 0.86813 
-0.0791425 -11.3143 1.2172 
0.86813 1.2172 -11.3041 
-9.50358 -0.319437 0.582197 
-0.319437 -10.2735 -0.518725 
0.582197 -0.518725 -9.85855 
-9.53865 -0.102737 0.277855 
-0.102737 -10.1471 0.00673894 
0.277855 0.00673894 -9.94981 
-9.83089 -0.551154 0.228419 
-0.551154 -9.45767 -0.648512 
0.228419 -0.648512 -10.347 
-9.82157 -0.374668 0.292064 
-0.374668 -9.86708 -0.502823 
0.292064 -0.502823 -9.94694 
-9.78025 0.0440509 0.101517 
0.0440509 -9.75762 0.134431 
0.101517 0.134431 -9.90271 
-9.76325 0.013064 0.146846 
0.013064 -9.78462 0.145079 
0.146846 0.145079 -9.89272 
-9.78063 0.0603402 0.10313 
0.0603402 -9.75071 0.100116 
0.10313 0.100116 -9.90924 
-9.77015 0.0619699 0.0904153 
0.0619699 -9.793 0.183563 
0.0904153 0.183563 -9.87743 
-9.88311 -0.0592202 -0.0358766 
-0.0592202 -9.76837 0.110555 
-0.0358766 0.110555 -9.98301 
-9.75961 -0.119829 -0.121123 
-0.119829 -9.82877 0.0911551 
-0.121123 0.0911551 -10.0461 
-9.84338 -0.200562 -0.129276 
-0.200562 -9.72045 0.141755 
-0.129276 0.141755 -10.0707 
-9.6897 -0.116676 -0.0711717 
-0.116676 -9.91668 -0.0110867 
-0.0711717 -0.0110867 -10.0281 
-9.95654 0.00737678 -0.159403 
0.00737678 -9.9667 0.197453 
-0.159403 0.197453 -10.0092 
-9.98976 -0.00891728 -0.151425 
-0.00891728 -9.98438 0.206055 
-0.151425 0.206055 -9.95832 
-9.95368 -0.00761001 -0.154172 
-0.00761001 -9.97421 0.184179 
-0.154172 0.184179 -10.0046 
-9.9881 -0.0188513 -0.169696 
-0.0188513 -9.9737 0.197191 
-0.169696 0.197191 -9.97066 
-9.81057 0.0824653 0.083469 
0.0824653 -9.85792 0.0275429 
0.083469 0.0275429 -9.96467 
-9.81754 0.162247 0.0606064 
0.162247 -9.90079 0.0716646 
0.0606064 0.0716646 -9.91483 
-9.78037 0.0768925 0.0749998 
0.0768925 -9.83166 0.0270446 
0.0749998 0.0270446 -10.0211 
-9.85778 0.0877427 0.0698783 
0.0877427 -9.78824 0.0254956 
0.0698783 0.0254956 -9.98715 
-9.84511 0.0142689 0.0560465 
0.0142689 -9.72373 0.278236 
0.0560465 0.278236 -9.73029 
-9.94591 -0.0161115 -0.0227762 
-0.0161115 -9.74011 0.369719 
-0.0227762 0.369719 -9.61311 
-9.96391 -0.0513762 -0.0692663 
-0.0513762 -9.77689 0.384731 
-0.0692663 0.384731 -9.55833 
-9.9251 -0.0115909 0.0108737 
-0.0115909 -9.72652 0.431951 
0.0108737 0.431951 -9.64752 
-9.72237 -0.396524 -0.191704 
-0.396524 -9.56107 -0.718857 
-0.191704 -0.718857 -10.4341 
-9.74396 0.228147 0.130092 
0.228147 -9.39447 -0.234236 
0.130092 -0.234236 -10.5791 
-9.60192 0.192787 -0.00939735 
0.192787 -9.38239 -1.08855 
-0.00939735 -1.08855 -10.7332 
-9.9137 0.367542 -0.123325 
0.367542 -9.24352 -1.01077 
-0.123325 -1.01077 -10.5603 
-9.9215 0.0176243 0.143573 
0.0176243 -9.7578 0.277881 
0.143573 0.277881 -9.79995 
-9.86898 0.0583622 0.139071 
0.0583622 -9.77624 0.270977 
0.139071 0.270977 -9.83402 
-9.91858 -0.00513043 0.155913 
-0.00513043 -9.77437 0.267786 
0.155913 0.267786 -9.78631 
-9.92053 0.0389016 0.127544 
0.0389016 -9.81719 0.285547 
0.127544 0.285547 -9.74154 
-9.55068 0.116554 -0.310647 
0.116554 -9.65389 -0.22157 
-0.310647 -0.22157 -8.40209 
-9.54054 0.150288 -0.469486 
0.150288 -9.51995 0.0368069 
-0.469486 0.0368069 -8.54617 
-9.82234 -0.0361616 -0.455848 
-0.0361616 -9.82146 -0.455161 
-0.455848 -0.455161 -7.96286 
-9.67399 -0.493036 0.232645 
-0.493036 -9.30275 -0.243064 
0.232645 -0.243064 -8.62992 
-9.81856 -0.0243503 -0.121671 
-0.0243503 -9.81257 0.148749 
-0.121671 0.148749 -9.94257 
-9.80581 -0.0755288 -0.154466 
-0.0755288 -9.80457 0.163984 
-0.154466 0.163984 -9.96333 
-9.81943 -0.0196949 -0.142951 
-0.0196949 -9.80931 0.167594 
-0.142951 0.167594 -9.94497 
-9.84428 -0.0193781 -0.163987 
-0.0193781 -9.80219 0.170516 
-0.163987 0.170516 -9.92723 
-10.2385 0.0331652 -0.0410378 
0.0331652 -9.98679 -0.31465 
-0.0410378 -0.31465 -10.375 
-10.2753 0.092743 -0.142613 
0.092743 -9.79258 -0.252884 
-0.142613 -0.252884 -10.5324 
-10.5131 0.358222 -0.113816 
0.358222 -9.78271 0.0302376 
-0.113816 0.0302376 -10.3044 
-10.3773 0.0816483 -0.187848 
0.0816483 -9.73265 -0.26317 
-0.187848 -0.26317 -10.4903 
-9.84576 0.0180033 0.312208 
0.0180033 -9.91971 0.00268889 
0.312208 0.00268889 -9.86208 
-9.82846 0.00677456 0.243869 
0.00677456 -9.90489 0.0463099 
0.243869 0.0463099 -9.8942 
-9.75996 0.0284725 0.209949 
0.0284725 -9.94317 0.0584331 
0.209949 0.0584331 -9.92441 
-9.80828 0.00931134 0.206832 
0.00931134 -9.8448 -0.0179657 
0.206832 -0.0179657 -9.97447 
-9.8417 0.0316524 0.277038 
0.0316524 -9.90828 0.207035 
0.277038 0.207035 -9.71042 
-9.87288 0.0270382 0.235508 
0.0270382 -9.94207 0.291281 
0.235508 0.291281 -9.64544 
-9.87477 0.0714321 0.281051 
0.0714321 -9.92546 0.227087 
0.281051 0.227087 -9.66017 
-9.84049 0.0380529 0.269532 
0.0380529 -9.96092 0.270671 
0.269532 0.270671 -9.65899 
-9.93557 -0.0128865 -0.174673 
-0.0128865 -9.94633 0.168449 
-0.174673 0.168449 -9.98894 
-9.91821 -0.0461103 -0.187401 
-0.0461103 -9.94882 0.177503 
-0.187401 0.177503 -10.0038 
-9.94171 -0.0154631 -0.172074 
-0.0154631 -9.93942 0.172351 
-0.172074 0.172351 -9.98971 
-9.96196 0.00760265 -0.202392 
0.00760265 -9.94125 0.192476 
-0.202392 0.192476 -9.96763 
-9.18267 -0.0712274 0.305349 
-0.0712274 -10.3021 -2.81529 
0.305349 -2.81529 -6.70654 
-9.13329 0.446199 0.0121236 
0.446199 -10.4862 -1.13221 
0.0121236 -1.13221 -6.57183 
-8.67348 0.668222 0.374767 
0.668222 -8.11365 -1.65102 
0.374767 -1.65102 -9.40416 
-9.09315 0.355826 0.0546263 
0.355826 -9.97368 -1.66372 
0.0546263 -1.66372 -7.12446 
-10.0673 -0.914548 -1.64797 
-0.914548 -6.00086 1.36914 
-1.64797 1.36914 -21.6098 
-11.7129 1.22287 -0.0996785 
1.22287 -9.80735 -0.0961939 
-0.0996785 -0.0961939 -16.1577 
-12.7379 -0.945016 -0.603315 
-0.945016 -9.83677 -0.485238 
-0.603315 -0.485238 -15.1032 
-13.3024 -0.633795 0.0664986 
-0.633795 -9.5151 0.231475 
0.0664986 0.231475 -14.8603 
-12.1427 0.693792 0.786566 
0.693792 -9.03712 0.461318 
0.786566 0.461318 -10.7122 
-10.7743 -0.130929 -0.736675 
-0.130929 -9.36527 -0.200065 
-0.736675 -0.200065 -11.7524 
-8.46312 -2.85982 1.00418 
-2.85982 -11.2502 0.40087 
1.00418 0.40087 -12.1787 
-9.09329 -0.969849 -2.51253 
-0.969849 -10.6726 -2.23763 
-2.51253 -2.23763 -12.1261 
-9.64679 0.085274 -0.313319 
0.085274 -9.85173 -0.458958 
-0.313319 -0.458958 -9.67081 
-9.61284 0.41258 -0.527892 
0.41258 -10.002 -0.422611 
-0.527892 -0.422611 -9.55446 
-9.66453 0.064381 -0.4054 
0.064381 -9.89223 -0.29832 
-0.4054 -0.29832 -9.61257 
-9.46063 0.200195 -0.370866 
0.200195 -9.91835 -0.162763 
-0.370866 -0.162763 -9.79035 
-10.0647 0.0441306 0.0697639 
0.0441306 -9.85094 -0.222851 
0.0697639 -0.222851 -9.13502 
-9.72866 -0.0878368 0.199535 
-0.0878368 -9.83385 -0.0887225 
0.199535 -0.0887225 -9.48815 
-9.81487 0.117768 0.163852 
0.117768 -9.66902 -0.315869 
0.163852 -0.315869 -9.56678 
-9.91728 -0.160221 0.0885407 
-0.160221 -9.78178 -0.158529 
0.0885407 -0.158529 -9.35161 
-9.7982 -0.0921888 0.0988847 
-0.0921888 -9.82376 -0.0720583 
0.0988847 -0.0720583 -10.1836 
-9.77913 -0.104439 0.086495 
-0.104439 -9.82581 -0.031934 
0.086495 -0.031934 -10.2006 
-9.85872 -0.0825616 0.0205606 
-0.0825616 -9.69714 -0.0399024 
0.0205606 -0.0399024 -10.2496 
-9.81614 0.00345055 0.11069 
0.00345055 -9.83543 -0.0660128 
0.11069 -0.0660128 -10.1539 
-10.8704 2.33877 0.6471 
2.33877 -18.6425 -8.99623 
0.6471 -8.99623 9.61845 
-7.77284 -1.24654 2.00526 
-1.24654 -14.5141 -6.48074 
2.00526 -6.48074 2.39255 
-1.49153 1.18781 -1.67352 
1.18781 -4.27312 3.9342 
-1.67352 3.9342 -14.1298 
-9.87182 -2.15965 0.0769693 
-2.15965 2.6299 -8.83779 
0.0769693 -8.83779 -12.6525 
-9.90338 -0.000816327 0.206606 
-0.000816327 -9.92117 0.0436223 
0.206606 0.0436223 -9.97304 
-9.88408 0.0225306 0.244754 
0.0225306 -9.96788 0.0396396 
0.244754 0.0396396 -9.94563 
-9.92651 0.00938602 0.254866 
0.00938602 -9.97502 0.0437524 
0.254866 0.0437524 -9.89605 
-9.8898 0.0124424 0.244515 
0.0124424 -9.95876 0.0378692 
0.244515 0.0378692 -9.94903 
-9.77759 -0.0231039 -0.0448432 
-0.0231039 -9.7641 0.214741 
-0.0448432 0.214741 -9.84208 
-9.83432 -0.0123982 -0.00474846 
-0.0123982 -9.70505 0.224973 
-0.00474846 0.224973 -9.8444 
-9.77386 -0.0169568 -0.036736 
-0.0169568 -9.85913 0.19251 
-0.036736 0.19251 -9.75079 
-9.8201 -0.0471296 -0.0350935 
-0.0471296 -9.74264 0.194746 
-0.0350935 0.194746 -9.82103 
-9.79364 0.140032 0.35562 
0.140032 -9.64413 0.31971 
0.35562 0.31971 -9.70425 
-9.71407 0.024663 0.34869 
0.024663 -9.79207 0.436412 
0.34869 0.436412 -9.63588 
-9.77815 0.114411 0.2926 
0.114411 -9.74032 0.279258 
0.2926 0.279258 -9.62355 
-9.69755 -0.0165799 0.244813 
-0.0165799 -9.75872 0.331402 
0.244813 0.331402 -9.68575 
-9.96888 -0.0117267 -0.00084403 
-0.0117267 -9.83619 -0.226976 
-0.00084403 -0.226976 -9.53203 
-9.91204 -0.000780949 -0.0156321 
-0.000780949 -9.88377 -0.209911 
-0.0156321 -0.209911 -9.54129 
-9.96302 -0.0170861 -0.0245973 
-0.0170861 -9.85073 -0.220898 
-0.0245973 -0.220898 -9.52336 
-9.91955 0.00309812 0.00454916 
0.00309812 -9.91845 -0.238785 
0.00454916 -0.238785 -9.4991 
-9.03767 0.156882 -0.637433 
0.156882 -8.18345 -0.385079 
-0.637433 -0.385079 -8.18122 
-7.96114 0.4063 1.03869 
0.4063 -9.9687 -0.292964 
1.03869 -0.292964 -7.47249 
-8.92672 -0.365864 1.13739 
-0.365864 -11.498 -0.115582 
1.13739 -0.115582 -4.97761 
-8.6711 1.06239 0.767699 
1.06239 -11.4131 1.45539 
0.767699 1.45539 -5.31811 
-9.99458 0.00679158 -0.184714 
0.00679158 -9.98486 -0.161995 
-0.184714 -0.161995 -9.97118 
-9.97437 -0.00206042 -0.189178 
-0.00206042 -9.98802 -0.156568 
-0.189178 -0.156568 -9.98822 
-9.95107 0.0103279 -0.173884 
0.0103279 -9.97424 -0.132554 
-0.173884 -0.132554 -10.0253 
-9.98168 0.0242314 -0.193424 
0.0242314 -9.9626 -0.15679 
-0.193424 -0.15679 -10.0063 
-9.9332 0.00566866 -0.0141883 
0.00566866 -9.85943 0.246293 
-0.0141883 0.246293 -9.90518 
-9.95095 -0.0092664 -0.0365757 
-0.0092664 -9.86493 0.279697 
-0.0365757 0.279697 -9.88192 
-9.93851 -0.0106402 -0.0288048 
-0.0106402 -9.8562 0.256656 
-0.0288048 0.256656 -9.9031 
-9.9331 -0.0091613 -0.030445 
-0.0091613 -9.85329 0.255752 
-0.030445 0.255752 -9.91142 
-9.87064 0.350919 0.178021 
0.350919 -10.078 0.120285 
0.178021 0.120285 -10.4826 
-10.109 0.179753 0.08503 
0.179753 -9.79612 0.114963 
0.08503 0.114963 -10.5261 
-9.90068 0.346295 0.120772 
0.346295 -10.0925 -0.0301076 
0.120772 -0.0301076 -10.438 
-9.98465 0.0888875 0.111046 
0.0888875 -10.0369 0.0771523 
0.111046 0.0771523 -10.4097 
-9.95146 -0.0404173 -0.0502906 
-0.0404173 -10.2799 -0.0882574 
-0.0502906 -0.0882574 -10.2974 
-10.2093 0.0845696 -0.073397 
0.0845696 -10.1323 -0.0412303 
-0.073397 -0.0412303 -10.187 
-10.3345 0.0860253 0.0583081 
0.0860253 -9.88654 0.0568438 
0.0583081 0.0568438 -10.3076 
-9.99211 -0.0465618 0.200052 
-0.0465618 -10.3907 0.334534 
0.200052 0.334534 -10.1459 
-9.45696 0.178844 0.432248 
0.178844 -9.59573 0.361131 
0.432248 0.361131 -9.81751 
-9.36461 0.210992 0.361591 
0.210992 -9.68507 0.330356 
0.361591 0.330356 -9.82052 
-9.53473 0.295152 0.352621 
0.295152 -9.54282 0.274152 
0.352621 0.274152 -9.79265 
-9.36888 0.147082 0.314768 
0.147082 -9.81031 0.268054 
0.314768 0.268054 -9.69101 
-9.89162 0.0395446 0.191744 
0.0395446 -9.9079 0.0702648 
0.191744 0.0702648 -9.52108 
-9.83554 0.0265327 0.265266 
0.0265327 -9.91533 0.0432738 
0.265266 0.0432738 -9.56974 
-9.86498 -0.0068299 0.321633 
-0.0068299 -9.98053 -0.073559 
0.321633 -0.073559 -9.47509 
-9.768 -0.0126732 0.231435 
-0.0126732 -9.8567 -0.120074 
0.231435 -0.120074 -9.6959 
-9.85188 0.0551892 0.181124 
0.0551892 -9.64529 0.372759 
0.181124 0.372759 -9.65468 
-9.88973 0.0906237 0.0557015 
0.0906237 -9.66279 0.332394 
0.0557015 0.332394 -9.59933 
-10.0477 -0.0824537 0.200173 
-0.0824537 -9.66052 0.318884 
0.200173 0.318884 -9.44361 
-9.90269 0.0893359 0.14837 
0.0893359 -9.65314 0.340088 
0.14837 0.340088 -9.59602 
-9.79053 0.038619 0.125315 
0.038619 -9.79026 0.170812 
0.125315 0.170812 -9.86344 
-9.79455 0.0519727 0.0945244 
0.0519727 -9.77513 0.173932 
0.0945244 0.173932 -9.87455 
-9.80486 0.0322859 0.128727 
0.0322859 -9.76794 0.199167 
0.128727 0.199167 -9.87144 
-9.81732 0.0191798 0.104641 
0.0191798 -9.77555 0.21098 
0.104641 0.21098 -9.85137 
-9.70173 0.0284257 -0.416079 
0.0284257 -10.0568 -0.192411 
-0.416079 -0.192411 -9.61535 
-9.78409 0.176143 -0.438392 
0.176143 -9.98146 -0.2705 
-0.438392 -0.2705 -9.60835 
-9.68655 0.0733032 -0.405971 
0.0733032 -10.072 -0.182124 
-0.405971 -0.182124 -9.61531 
-9.6503 0.0578625 -0.319595 
0.0578625 -9.96235 -0.0696208 
-0.319595 -0.0696208 -9.76125 
-10.0086 -0.00341261 0.0736449 
-0.00341261 -9.98255 -0.244198 
0.0736449 -0.244198 -9.95251 
-9.95967 -2.25301e-05 0.0567408 
-2.25301e-05 -9.98586 -0.24259 
0.0567408 -0.24259 -9.99817 
-9.9677 0.0100141 0.0502541 
0.0100141 -9.94704 -0.220792 
0.0502541 -0.220792 -10.029 
-10.0177 -0.00293937 0.0422257 
-0.00293937 -9.95089 -0.255766 
0.0422257 -0.255766 -9.97511 
-9.94728 -0.0123916 -0.0265674 
-0.0123916 -9.88887 0.244417 
-0.0265674 0.244417 -9.95343 
-9.96532 -0.00923971 -0.0371832 
-0.00923971 -9.90324 0.231498 
-0.0371832 0.231498 -9.92101 
-9.93532 -0.00783531 -0.025266 
-0.00783531 -9.91338 0.235677 
-0.025266 0.235677 -9.94088 
-9.92427 -0.020653 -0.063958 
-0.020653 -9.9281 0.229442 
-0.063958 0.229442 -9.93721 
-10.0384 0.0126296 0.0444974 
0.0126296 -9.98751 0.213275 
0.0444974 0.213275 -9.94416 
-9.97971 0.00643638 0.0544051 
0.00643638 -9.95506 0.228049 
0.0544051 0.228049 -10.0353 
-10.016 0.00957049 0.0374726 
0.00957049 -9.97561 0.232827 
0.0374726 0.232827 -9.97845 
-10.0348 0.00952327 0.0171668 
0.00952327 -9.97961 0.219626 
0.0171668 0.219626 -9.95561 
-10.0125 -2.96894 -0.11065 
-2.96894 -10.3024 -0.577152 
-0.11065 -0.577152 -10.151 
-9.57663 1.42099 2.89404 
1.42099 -11.8915 0.978026 
2.89404 0.978026 -8.9978 
-5.65544 4.29244 1.88671 
4.29244 -10.7191 1.40565 
1.88671 1.40565 -14.0914 
-10.9508 0.666486 3.19581 
0.666486 -9.39131 0.616527 
3.19581 0.616527 -10.1238 
-9.88846 -0.0194844 -0.020234 
-0.0194844 -9.85907 0.234208 
-0.020234 0.234208 -9.89436 
-9.90167 -0.0227162 -0.010815 
-0.0227162 -9.84331 0.249266 
-0.010815 0.249266 -9.89692 
-9.9059 -0.0170037 -0.0436433 
-0.0170037 -9.84584 0.222083 
-0.0436433 0.222083 -9.89016 
-9.87931 -0.0320928 -0.0427099 
-0.0320928 -9.86195 0.272088 
-0.0427099 0.272088 -9.90064 
-9.96739 -0.00610377 -0.214058 
-0.00610377 -9.96494 0.0864542 
-0.214058 0.0864542 -9.99146 
-9.96288 -0.00998201 -0.222712 
-0.00998201 -9.97581 0.0868742 
-0.222712 0.0868742 -9.9851 
-9.97201 -0.00532261 -0.221683 
-0.00532261 -9.9642 0.082389 
-0.221683 0.082389 -9.98759 
-9.97419 -0.00241423 -0.221673 
-0.00241423 -9.97596 0.0791717 
-0.221673 0.0791717 -9.97365 
-9.19026 0.192708 -0.531704 
0.192708 -9.48352 -0.574945 
-0.531704 -0.574945 -9.98031 
-9.28369 0.225359 -0.661088 
0.225359 -9.32791 -0.353871 
-0.661088 -0.353871 -10.0425 
-9.44659 -0.120634 -0.783966 
-0.120634 -8.96551 -0.368532 
-0.783966 -0.368532 -10.242 
-9.4217 0.159803 -0.496099 
0.159803 -9.37017 -0.684693 
-0.496099 -0.684693 -9.86221 
-9.91187 -0.012786 0.0469779 
-0.012786 -9.87375 -0.252551 
0.0469779 -0.252551 -9.84847 
-9.98997 0.0131341 0.0383236 
0.0131341 -9.90175 -0.251362 
0.0383236 -0.251362 -9.74237 
-9.95366 -0.00440888 0.0227672 
-0.00440888 -9.86686 -0.252846 
0.0227672 -0.252846 -9.81356 
-9.92512 -0.00989626 0.000151906 
-0.00989626 -9.86047 -0.220297 
0.000151906 -0.220297 -9.8485 
-3.31274 0.66247 0.63432 
0.66247 -5.06914 -0.660918 
0.63432 -0.660918 -1.69606 
-4.20544 -0.817761 0.423212 
-0.817761 -5.04957 -0.594073 
0.423212 -0.594073 -0.82292 
-3.29363 0.128159 0.930139 
0.128159 -5.39056 -0.241079 
0.930139 -0.241079 -1.39374 
-3.34651 0.598542 1.35962 
0.598542 -4.94982 -1.14874 
1.35962 -1.14874 -1.7816 
-9.72305 0.115289 -0.245563 
0.115289 -9.64455 -0.22249 
-0.245563 -0.22249 -10.0553 
-9.6583 0.141057 -0.199038 
0.141057 -9.66392 -0.213199 
-0.199038 -0.213199 -10.1007 
-9.61373 0.11567 -0.228941 
0.11567 -9.66262 -0.375568 
-0.228941 -0.375568 -10.1466 
-9.79392 0.144806 -0.213567 
0.144806 -9.80934 -0.252128 
-0.213567 -0.252128 -9.81968 
-9.94465 -0.0691785 0.0309435 
-0.0691785 -9.89191 -0.101204 
0.0309435 -0.101204 -9.75605 
-10.06 0.00703752 -0.00510679 
0.00703752 -9.9478 -0.0978107 
-0.00510679 -0.0978107 -9.58478 
-10.0545 0.0226703 0.00874253 
0.0226703 -10.0014 -0.0668269 
0.00874253 -0.0668269 -9.53674 
-10.0077 -0.0450876 -0.0908983 
-0.0450876 -10.0151 -0.16489 
-0.0908983 -0.16489 -9.56975 
-10.2634 -0.0156436 -0.0733402 
-0.0156436 -10.228 0.228367 
-0.0733402 0.228367 -10.7712 
-10.2684 0.150697 0.0457435 
0.150697 -10.2652 0.0288937 
0.0457435 0.0288937 -10.729 
-10.6322 -0.117241 -0.0200971 
-0.117241 -9.69331 0.194315 
-0.0200971 0.194315 -10.9371 
-10.1528 -0.0622562 -0.0111934 
-0.0622562 -10.3716 0.173205 
-0.0111934 0.173205 -10.7382 
-9.95774 -0.00533284 -0.0899433 
-0.00533284 -9.75486 -0.301624 
-0.0899433 -0.301624 -9.5027 
-9.82844 -0.00376659 -0.0996849 
-0.00376659 -9.84706 -0.227621 
-0.0996849 -0.227621 -9.53979 
-9.83816 0.013103 -0.0673906 
0.013103 -9.81066 -0.261828 
-0.0673906 -0.261828 -9.56647 
-9.87201 0.00999598 -0.140178 
0.00999598 -9.71942 -0.246297 
-0.140178 -0.246297 -9.62387 
-9.81726 -0.112931 0.0813811 
-0.112931 -10.3278 -0.366538 
0.0813811 -0.366538 -11.3123 
-10.2371 0.133052 0.0116054 
0.133052 -9.98108 -0.0933066 
0.0116054 -0.0933066 -11.2392 
-10.208 0.0350334 -0.204306 
0.0350334 -10.3119 0.0977659 
-0.204306 0.0977659 -10.9374 
-10.3242 -0.0199151 0.0413967 
-0.0199151 -10.1634 0.489053 
0.0413967 0.489053 -10.9697 
-9.91367 -0.00903952 0.194763 
-0.00903952 -9.92197 -0.122578 
0.194763 -0.122578 -9.97244 
-9.8923 -0.0147385 0.206676 
-0.0147385 -9.93353 -0.127985 
0.206676 -0.127985 -9.98225 
-9.91209 -0.0109974 0.203158 
-0.0109974 -9.92982 -0.128215 
0.203158 -0.128215 -9.96617 
-9.90868 -0.0120299 0.220604 
-0.0120299 -9.93856 -0.121981 
0.220604 -0.121981 -9.96083 
-11.5647 0.222883 -0.411612 
0.222883 -10.9818 -0.964319 
-0.411612 -0.964319 -9.80141 
-11.2736 -0.752007 -0.397998 
-0.752007 -10.99 -1.09349 
-0.397998 -1.09349 -10.0844 
-8.90304 1.08237 0.121369 
1.08237 -9.95745 1.21604 
0.121369 1.21604 -13.4875 
-11.3651 1.24734 -1.33277 
1.24734 -9.22086 -0.902486 
-1.33277 -0.902486 -11.762 
-10.0269 -0.015415 -0.124521 
-0.015415 -10.0194 0.0571445 
-0.124521 0.0571445 -9.9698 
-9.96832 -0.000193173 -0.129771 
-0.000193173 -9.97655 0.0496992 
-0.129771 0.0496992 -10.0713 
-10.0281 -0.00103626 -0.130468 
-0.00103626 -10.0332 0.0703357 
-0.130468 0.0703357 -9.95481 
-10.0187 0.00756215 -0.0895653 
0.00756215 -10.0321 0.0688557 
-0.0895653 0.0688557 -9.96535 
-9.74707 -0.0825784 -0.196057 
-0.0825784 -9.75824 0.160607 
-0.196057 0.160607 -10.1772 
-9.74764 -0.149042 -0.126302 
-0.149042 -9.73966 0.102417 
-0.126302 0.102417 -10.1952 
-9.73047 -0.0648169 -0.175267 
-0.0648169 -9.80685 0.151623 
-0.175267 0.151623 -10.1452 
-9.78566 -0.0271504 -0.115361 
-0.0271504 -9.82834 0.129308 
-0.115361 0.129308 -10.0685 
-9.87639 0.0994763 -0.0769043 
0.0994763 -9.83 0.0953369 
-0.0769043 0.0953369 -9.81925 
-9.79786 -0.0903373 -0.183772 
-0.0903373 -9.78874 0.126908 
-0.183772 0.126908 -9.93904 
-9.81038 -0.0230316 -0.126304 
-0.0230316 -9.82434 0.0954024 
-0.126304 0.0954024 -9.89091 
-9.72693 -0.0198426 -0.142502 
-0.0198426 -9.85508 0.0463987 
-0.142502 0.0463987 -9.94362 
-9.98869 -0.00581862 -0.140075 
-0.00581862 -9.98411 0.191921 
-0.140075 0.191921 -9.95832 
-9.99508 -0.0194566 -0.13738 
-0.0194566 -9.97465 0.194416 
-0.13738 0.194416 -9.9614 
-9.94882 0.00468524 -0.141514 
0.00468524 -9.93371 0.188783 
-0.141514 0.188783 -10.0486 
-9.99481 -0.00646116 -0.153045 
-0.00646116 -9.9914 0.189158 
-0.153045 0.189158 -9.94492 
-9.39635 -3.37585 -0.616011 
-3.37585 -7.5896 1.47678 
-0.616011 1.47678 -18.4432 
-10.16 -1.44304 0.946187 
-1.44304 -13.2362 -0.916509 
0.946187 -0.916509 -12.0329 
-9.55114 1.30846 -0.132654 
1.30846 -9.29472 1.0275 
-0.132654 1.0275 -16.5833 
-10.7848 -1.92645 -0.385561 
-1.92645 -10.3951 -0.843304 
-0.385561 -0.843304 -14.2493 
-9.79142 -0.0299567 -0.0852089 
-0.0299567 -9.71088 0.225472 
-0.0852089 0.225472 -9.83809 
-9.73642 -0.0542309 -0.110297 
-0.0542309 -9.7027 0.256147 
-0.110297 0.256147 -9.90127 
-9.77409 -0.156332 -0.162824 
-0.156332 -9.6704 0.217275 
-0.162824 0.217275 -9.89589 
-9.7619 -0.12339 -0.199997 
-0.12339 -9.65084 0.244194 
-0.199997 0.244194 -9.92765 
-9.8327 -0.0532215 0.0142343 
-0.0532215 -9.80608 -0.195161 
0.0142343 -0.195161 -10.0748 
-9.90447 -0.0823823 0.0204616 
-0.0823823 -9.59821 0.01097 
0.0204616 0.01097 -10.2109 
-10.0925 -0.122604 0.0551293 
-0.122604 -9.7995 0.31495 
0.0551293 0.31495 -9.82157 
-9.92403 -0.126309 -0.0440911 
-0.126309 -9.64622 0.00601402 
-0.0440911 0.00601402 -10.1433 
-9.90105 -0.164815 0.497219 
-0.164815 -9.69605 -0.304151 
0.497219 -0.304151 -9.76017 
-10.1244 -0.176463 0.404247 
-0.176463 -9.60688 -0.348716 
0.404247 -0.348716 -9.62599 
-9.69389 -0.0413739 0.218168 
-0.0413739 -9.87844 -0.272023 
0.218168 -0.272023 -9.78495 
-9.88485 -0.0930006 0.519502 
-0.0930006 -9.71085 -0.305323 
0.519502 -0.305323 -9.76158 
-9.74816 -0.241606 -0.264722 
-0.241606 -9.74005 0.177785 
-0.264722 0.177785 -10.1041 
-9.71426 -0.0755512 -0.0756641 
-0.0755512 -9.85261 0.149623 
-0.0756641 0.149623 -10.0254 
-9.80019 -0.168386 -0.193019 
-0.168386 -9.73826 0.185009 
-0.193019 0.185009 -10.0538 
-9.94817 -0.172522 -0.210253 
-0.172522 -9.64786 0.214076 
-0.210253 0.214076 -9.99623 
-10.5676 -0.0665336 0.126047 
-0.0665336 -10.5564 0.22048 
0.126047 0.22048 -11.3825 
-10.9111 0.0162322 -0.0738245 
0.0162322 -10.7864 0.0808348 
-0.0738245 0.0808348 -10.809 
-10.7571 0.0518287 0.00466037 
0.0518287 -10.9536 0.148135 
0.00466037 0.148135 -10.7958 
-11.0876 -0.00742198 0.142001 
-0.00742198 -10.6076 -0.070685 
0.142001 -0.070685 -10.8113 
-9.59663 0.0671963 -0.648879 
0.0671963 -9.90498 0.506701 
-0.648879 0.506701 -8.80485 
-9.51317 -0.00376943 -0.368374 
-0.00376943 -9.82571 0.21197 
-0.368374 0.21197 -8.96758 
-9.55745 -0.197601 -0.518883 
-0.197601 -9.56902 0.338747 
-0.518883 0.338747 -9.17999 
-9.52693 0.000823109 -0.42306 
0.000823109 -9.77164 0.307204 
-0.42306 0.307204 -9.00788 
-10.0394 -0.00582332 -0.00306641 
-0.00582332 -9.99558 -0.0132958 
-0.00306641 -0.0132958 -10.0267 
-10.026 -0.0197466 0.0108338 
-0.0197466 -10.0045 -0.00252962 
0.0108338 -0.00252962 -10.0312 
-10.0349 -0.0022234 0.0128126 
-0.0022234 -10.0062 -0.00437572 
0.0128126 -0.00437572 -10.0205 
-10.0306 -0.0257607 -0.00110568 
-0.0257607 -10.0197 -0.0125029 
-0.00110568 -0.0125029 -10.0114 
-9.85305 0.0426975 -0.205641 
0.0426975 -9.82657 -0.153278 
-0.205641 -0.153278 -9.97158 
-9.82853 0.0726245 -0.206286 
0.0726245 -9.8281 -0.164907 
-0.206286 -0.164907 -9.99456 
-9.83791 0.0425906 -0.20384 
0.0425906 -9.83522 -0.167022 
-0.20384 -0.167022 -9.97806 
-9.79344 0.00576375 -0.204549 
0.00576375 -9.8703 -0.122579 
-0.204549 -0.122579 -9.98745 
-9.85743 -0.0549637 -0.067255 
-0.0549637 -9.81753 0.189763 
-0.067255 0.189763 -9.87055 
-9.83171 -0.0669705 -0.151827 
-0.0669705 -9.78536 0.178822 
-0.151827 0.178822 -9.92844 
-9.82376 -0.0169394 -0.106481 
-0.0169394 -9.83519 0.167824 
-0.106481 0.167824 -9.88657 
-9.8802 -0.0114298 -0.0845868 
-0.0114298 -9.78186 0.284013 
-0.0845868 0.284013 -9.88346 
-9.91231 0.0830717 -0.259457 
0.0830717 -9.38578 -0.464893 
-0.259457 -0.464893 -9.3305 
-9.92265 0.12734 -0.603871 
0.12734 -9.56121 -0.556773 
-0.603871 -0.556773 -9.14474 
-9.85642 0.0836307 -0.255091 
0.0836307 -9.51686 -0.390718 
-0.255091 -0.390718 -9.25532 
-9.47136 -0.0355684 -0.430301 
-0.0355684 -9.152 -0.258225 
-0.430301 -0.258225 -10.0052 
-8.38372 -0.328813 -1.18257 
-0.328813 -9.65582 -0.00515312 
-1.18257 -0.00515312 -9.97357 
-8.43419 -0.620645 -1.80469 
-0.620645 -9.70053 0.452177 
-1.80469 0.452177 -9.8784 
-10.105 -0.105033 -0.732785 
-0.105033 -8.98168 0.187406 
-0.732785 0.187406 -8.92645 
-8.23393 -0.364485 -1.14478 
-0.364485 -9.38653 0.0322366 
-1.14478 0.0322366 -10.3926 
-9.87419 -0.191953 0.14455 
-0.191953 -9.73733 -0.171752 
0.14455 -0.171752 -10.2112 
-9.7965 -0.104617 0.0370688 
-0.104617 -9.76289 -0.161359 
0.0370688 -0.161359 -10.2633 
-9.78776 -0.0980621 -0.00366325 
-0.0980621 -9.74679 0.0225109 
-0.00366325 0.0225109 -10.2882 
-9.93079 -0.146269 0.00810651 
-0.146269 -9.4752 -0.0685473 
0.00810651 -0.0685473 -10.4167 
-9.86762 0.540474 0.24632 
0.540474 -9.23889 -0.405719 
0.24632 -0.405719 -10.9398 
-9.77344 0.0539422 0.0651419 
0.0539422 -9.73184 -0.719483 
0.0651419 -0.719483 -10.541 
-9.94336 0.0997245 -0.0252621 
0.0997245 -9.33261 -0.507114 
-0.0252621 -0.507114 -10.7703 
-10.1925 0.0516108 -0.320631 
0.0516108 -9.22856 -0.604481 
-0.320631 -0.604481 -10.6252 
-10.6128 -0.0548545 -0.0834549 
-0.0548545 -10.6139 0.0177544 
-0.0834549 0.0177544 -10.8878 
-10.75 0.0279077 0.0819539 
0.0279077 -10.7741 0.0318925 
0.0819539 0.0318925 -10.5905 
-10.5769 0.0328559 -0.0958901 
0.0328559 -10.7594 0.0601322 
-0.0958901 0.0601322 -10.7782 
-10.7614 -0.0527481 -0.0889349 
-0.0527481 -10.8172 0.0499907 
-0.0889349 0.0499907 -10.536 
-10.0041 -0.0300045 -0.012314 
-0.0300045 -10.1461 -0.00408198 
-0.012314 -0.00408198 -10.1832 
-10.1258 -0.0186962 -0.00305234 
-0.0186962 -10.078 0.0343724 
-0.00305234 0.0343724 -10.1296 
-10.0905 -0.043392 -0.033931 
-0.043392 -10.1478 0.0989923 
-0.033931 0.0989923 -10.0951 
-10.1381 -0.000913775 -0.0159734 
-0.000913775 -10.0211 0.0754945 
-0.0159734 0.0754945 -10.1742 
-10.2346 -0.0677805 -0.0963989 
-0.0677805 -10.0547 0.194298 
-0.0963989 0.194298 -10.2422 
-10.1747 -0.0334557 0.0383902 
-0.0334557 -10.0766 0.0665695 
0.0383902 0.0665695 -10.2802 
-10.0836 0.0321341 0.0423668 
0.0321341 -10.1366 0.0543034 
0.0423668 0.0543034 -10.3113 
-10.1333 -0.00283412 0.0518191 
-0.00283412 -9.99539 0.037055 
0.0518191 0.037055 -10.4029 
-9.75392 0.0093847 -0.206645 
0.0093847 -9.81468 0.010054 
-0.206645 0.010054 -9.88485 
-9.76126 -0.00496633 -0.221338 
-0.00496633 -9.78783 -0.00603569 
-0.221338 -0.00603569 -9.90437 
-9.76233 -0.0223035 -0.226927 
-0.0223035 -9.83867 0.0340573 
-0.226927 0.0340573 -9.85245 
-9.72906 -0.0168425 -0.229061 
-0.0168425 -9.87893 0.0137206 
-0.229061 0.0137206 -9.84546 
-9.92731 0.0276538 -0.168787 
0.0276538 -9.89567 -0.212341 
-0.168787 -0.212341 -9.79365 
-9.95994 0.0323832 -0.188975 
0.0323832 -9.9696 -0.167056 
-0.188975 -0.167056 -9.6871 
-9.89851 0.00107319 -0.224705 
0.00107319 -9.94758 -0.272603 
-0.224705 -0.272603 -9.77055 
-9.96435 0.0291838 -0.195876 
0.0291838 -9.8396 -0.205367 
-0.195876 -0.205367 -9.81269 
-9.85075 -0.0129565 -0.132453 
-0.0129565 -9.84604 0.164479 
-0.132453 0.164479 -9.95215 
-9.86086 -0.0248937 -0.149841 
-0.0248937 -9.86124 0.169902 
-0.149841 0.169902 -9.92684 
-9.87043 -0.013197 -0.145662 
-0.013197 -9.87089 0.162182 
-0.145662 0.162182 -9.90762 
-9.85348 -0.00793494 -0.153081 
-0.00793494 -9.85186 0.174738 
-0.153081 0.174738 -9.9436 
-10.8327 -0.78558 1.56199 
-0.78558 -10.2439 -0.435407 
1.56199 -0.435407 -8.10841 
-10.6864 -0.613011 0.856359 
-0.613011 -10.0836 -0.664042 
0.856359 -0.664042 -8.41516 
-8.54493 0.22767 0.242138 
0.22767 -10.4737 -0.353311 
0.242138 -0.353311 -10.1665 
-11.2981 -0.321488 0.79833 
-0.321488 -10.4503 -2.29584 
0.79833 -2.29584 -7.43673 
-9.79247 -0.211116 0.125278 
-0.211116 -9.81842 -0.00715484 
0.125278 -0.00715484 -10.4341 
-9.70334 -0.080822 0.135259 
-0.080822 -9.92177 0.00661453 
0.135259 0.00661453 -10.4199 
-9.60808 -0.00802118 0.0523066 
-0.00802118 -10.02 0.042364 
0.0523066 0.042364 -10.4169 
-9.8379 -0.113113 0.0948113 
-0.113113 -9.83376 -0.0622559 
0.0948113 -0.0622559 -10.3733 
-9.7317 0.0912664 0.111199 
0.0912664 -9.79384 0.0739975 
0.111199 0.0739975 -9.96765 
-9.81851 0.145938 0.109791 
0.145938 -9.59989 0.095978 
0.109791 0.095978 -10.0748 
-9.76565 0.0283034 0.113866 
0.0283034 -9.75037 0.169232 
0.113866 0.169232 -9.97717 
-9.75341 0.0591466 0.12202 
0.0591466 -9.78512 0.21424 
0.12202 0.21424 -9.95466 
-9.91249 0.000870629 -0.018921 
0.000870629 -9.89381 0.233634 
-0.018921 0.233634 -9.93613 
-9.91599 0.000773897 -0.00644602 
0.000773897 -9.89756 0.246892 
-0.00644602 0.246892 -9.92887 
-9.90144 -0.00264024 -0.019446 
-0.00264024 -9.89094 0.246676 
-0.019446 0.246676 -9.95005 
-9.91409 -0.0029741 -0.0198829 
-0.0029741 -9.88231 0.240836 
-0.0198829 0.240836 -9.94603 
-9.93832 -0.00944033 -0.0111747 
-0.00944033 -9.86674 0.24606 
-0.0111747 0.24606 -9.90789 
-9.9377 -0.00305447 -0.00756761 
-0.00305447 -9.87302 0.253197 
-0.00756761 0.253197 -9.90223 
-9.94255 0.000118519 -0.0280126 
0.000118519 -9.8647 0.250448 
-0.0280126 0.250448 -9.90569 
-9.91477 0.00767815 -0.0359433 
0.00767815 -9.88544 0.256927 
-0.0359433 0.256927 -9.91274 
-9.95307 0.0135844 0.0242057 
0.0135844 -9.94396 -0.203479 
0.0242057 -0.203479 -9.89087 
-9.99393 -0.00560351 -0.0132616 
-0.00560351 -9.92497 -0.218914 
-0.0132616 -0.218914 -9.86901 
-9.97395 -0.00681095 0.0138793 
-0.00681095 -9.89809 -0.213051 
0.0138793 -0.213051 -9.91587 
-9.95936 0.0202526 0.00839161 
0.0202526 -9.93729 -0.208128 
0.00839161 -0.208128 -9.89125 
-10.2991 0.00646655 -0.140451 
0.00646655 -9.68844 -0.387415 
-0.140451 -0.387415 -9.49936 
-10.2377 -0.0139264 -0.221609 
-0.0139264 -9.68161 -0.414892 
-0.221609 -0.414892 -9.56762 
-10.247 -0.00815413 -0.163924 
-0.00815413 -9.71953 -0.435344 
-0.163924 -0.435344 -9.52042 
-10.0578 0.0276029 -0.226828 
0.0276029 -9.7495 -0.427878 
-0.226828 -0.427878 -9.67967 
-10.0641 -0.00673865 0.183538 
-0.00673865 -9.93976 -0.139591 
0.183538 -0.139591 -9.19843 
-10.1247 -0.0208237 0.14805 
-0.0208237 -9.88515 -0.207337 
0.14805 -0.207337 -9.19248 
-10.0771 -0.024345 0.22614 
-0.024345 -10.0041 -0.13703 
0.22614 -0.13703 -9.12112 
-9.98771 0.0247487 0.202507 
0.0247487 -10.0208 -0.154569 
0.202507 -0.154569 -9.19372 
-9.87064 -0.0182555 0.11126 
-0.0182555 -9.87733 -0.201222 
0.11126 -0.201222 -9.93328 
-9.89086 -0.0146856 0.109859 
-0.0146856 -9.86752 -0.200002 
0.109859 -0.200002 -9.92287 
-9.89073 -0.021662 0.108133 
-0.021662 -9.86868 -0.205083 
0.108133 -0.205083 -9.92184 
-9.87949 -0.0140415 0.0972517 
-0.0140415 -9.8734 -0.194869 
0.0972517 -0.194869 -9.92837 
-9.7569 -0.135348 0.243207 
-0.135348 -9.8409 -0.147392 
0.243207 -0.147392 -10.0578 
-9.70407 -0.158001 0.20611 
-0.158001 -9.78686 -0.200384 
0.20611 -0.200384 -10.1647 
-9.75379 -0.130903 0.207617 
-0.130903 -9.86243 -0.258683 
0.207617 -0.258683 -10.0394 
-9.64017 -0.115813 0.240991 
-0.115813 -9.95409 -0.302259 
0.240991 -0.302259 -10.0614 
-9.93142 -0.00976374 -0.181273 
-0.00976374 -9.99287 0.0550716 
-0.181273 0.0550716 -9.85768 
-9.98462 -0.00301867 -0.188375 
-0.00301867 -9.94223 0.0700833 
-0.188375 0.0700833 -9.85511 
-9.98748 -0.00854419 -0.194563 
-0.00854419 -9.88695 0.0535383 
-0.194563 0.0535383 -9.90754 
-9.96925 -0.000866647 -0.167037 
-0.000866647 -9.95506 0.0867673 
-0.167037 0.0867673 -9.85765 
-9.62616 0.149476 -0.193943 
0.149476 -9.64708 -0.164387 
-0.193943 -0.164387 -10.1102 
-9.68932 0.148204 -0.280471 
0.148204 -9.73175 -0.149744 
-0.280471 -0.149744 -9.96242 
-9.66963 0.180445 -0.242487 
0.180445 -9.63412 -0.19265 
-0.242487 -0.19265 -10.0797 
-9.60453 0.107131 -0.207357 
0.107131 -9.65088 -0.203899 
-0.207357 -0.203899 -10.1281 
-9.92142 -0.0153095 0.111263 
-0.0153095 -9.91856 -0.209099 
0.111263 -0.209099 -9.95456 
-9.9283 -0.0153687 0.113398 
-0.0153687 -9.92233 -0.215699 
0.113398 -0.215699 -9.94392 
-9.91786 -0.025095 0.11276 
-0.025095 -9.91695 -0.219714 
0.11276 -0.219714 -9.95972 
-9.9301 -0.0175939 0.120414 
-0.0175939 -9.92284 -0.201974 
0.120414 -0.201974 -9.9416 
-9.75074 -0.19581 -0.241996 
-0.19581 -9.75548 0.242783 
-0.241996 0.242783 -10.2254 
-9.70887 -0.121932 -0.0948623 
-0.121932 -9.74427 0.0997237 
-0.0948623 0.0997237 -10.2785 
-9.8477 -0.0156492 -0.198563 
-0.0156492 -9.83198 0.0302715 
-0.198563 0.0302715 -10.0519 
-9.74379 -0.142755 -0.151308 
-0.142755 -9.79716 0.21635 
-0.151308 0.21635 -10.1907 
-9.56923 0.0516794 0.600608 
0.0516794 -10.0823 0.0526301 
0.600608 0.0526301 -9.72201 
-9.64407 -0.0305196 0.354146 
-0.0305196 -9.98144 -0.138927 
0.354146 -0.138927 -9.74806 
-9.67474 -0.055714 0.273453 
-0.055714 -9.79168 0.0290253 
0.273453 0.0290253 -9.90715 
-9.52702 -0.132491 0.319655 
-0.132491 -10.0244 -0.231771 
0.319655 -0.231771 -9.82211 
-9.85586 -0.0484571 0.100426 
-0.0484571 -9.82358 -0.0646239 
0.100426 -0.0646239 -10.1921 
-9.7895 -0.106135 0.0813072 
-0.106135 -9.78567 -0.107945 
0.0813072 -0.107945 -10.2964 
-9.82146 -0.0743289 0.110326 
-0.0743289 -9.77947 -0.096576 
0.110326 -0.096576 -10.2706 
-9.81651 -0.0965547 0.108694 
-0.0965547 -9.789 -0.12381 
0.108694 -0.12381 -10.2661 
-9.91571 0.0216087 0.147719 
0.0216087 -9.91882 0.151357 
0.147719 0.151357 -9.94257 
-9.91187 0.0439338 0.170023 
0.0439338 -9.90997 0.174407 
0.170023 0.174407 -9.95526 
-9.90664 -0.0180231 0.181843 
-0.0180231 -9.90503 0.199806 
0.181843 0.199806 -9.96543 
-9.90298 0.015791 0.174855 
0.015791 -9.90356 0.169789 
0.174855 0.169789 -9.97057 
-9.86904 -0.0172817 0.213155 
-0.0172817 -9.8965 -0.129955 
0.213155 -0.129955 -9.96115 
-9.85798 -0.0322983 0.204453 
-0.0322983 -9.92781 -0.13896 
0.204453 -0.13896 -9.9409 
-9.86473 -0.0130002 0.234458 
-0.0130002 -9.9051 -0.130033 
0.234458 -0.130033 -9.95686 
-9.86899 -0.0193036 0.222897 
-0.0193036 -9.91131 -0.135568 
0.222897 -0.135568 -9.94639 
-9.86846 -0.00730998 0.196534 
-0.00730998 -9.89985 -0.119648 
0.196534 -0.119648 -9.81221 
-9.89413 -0.00542184 0.200479 
-0.00542184 -9.88935 -0.133651 
0.200479 -0.133651 -9.79704 
-9.91134 -0.0155134 0.217302 
-0.0155134 -9.92485 -0.174567 
0.217302 -0.174567 -9.74433 
-9.88023 -0.00506168 0.190111 
-0.00506168 -9.89028 -0.13523 
0.190111 -0.13523 -9.81001 
-9.75248 -0.208798 -0.743185 
-0.208798 -9.18507 0.158644 
-0.743185 0.158644 -9.02868 
-9.93962 0.192318 -0.339 
0.192318 -9.23812 0.606898 
-0.339 0.606898 -8.78849 
-9.74673 -0.0455206 -0.829612 
-0.0455206 -9.09129 0.111177 
-0.829612 0.111177 -9.12822 
-9.78418 -0.428009 -0.839565 
-0.428009 -9.39524 0.169131 
-0.839565 0.169131 -8.78682 
-9.85776 0.00304627 -0.246268 
0.00304627 -10.0146 -0.095637 
-0.246268 -0.095637 -9.50959 
-9.86954 -0.0288597 -0.0780841 
-0.0288597 -9.87766 -0.0382279 
-0.0780841 -0.0382279 -9.63474 
-9.85342 0.0336661 -0.166526 
0.0336661 -10.0333 -0.0598988 
-0.166526 -0.0598988 -9.49528 
-10.0334 0.0139504 -0.224531 
0.0139504 -9.95123 -0.165564 
-0.224531 -0.165564 -9.39733 
-10.1194 -0.0278528 -0.00527021 
-0.0278528 -10.1531 0.0221941 
-0.00527021 0.0221941 -10.4468 
-10.24 -0.00289934 -0.0652795 
-0.00289934 -10.1526 0.0195022 
-0.0652795 0.0195022 -10.3267 
-10.2169 -0.00729163 -0.0237816 
-0.00729163 -10.1002 0.0707239 
-0.0237816 0.0707239 -10.4023 
-10.2016 -0.0187125 -0.00735058 
-0.0187125 -10.1519 0.0395764 
-0.00735058 0.0395764 -10.3658 
-9.81027 0.449956 0.13388 
0.449956 -9.88019 -0.225458 
0.13388 -0.225458 -9.89663 
-10.0583 -0.0444256 -0.548704 
-0.0444256 -9.51462 -0.501052 
-0.548704 -0.501052 -10.0141 
-9.51173 0.109892 -0.744976 
0.109892 -9.49472 0.0894644 
-0.744976 0.0894644 -10.5806 
-9.11489 0.539811 -0.555735 
0.539811 -10.2316 -0.188077 
-0.555735 -0.188077 -10.2406 
-10.373 0.0150121 -0.242416 
0.0150121 -10.5007 -0.0958458 
-0.242416 -0.0958458 -11.2534 
-10.697 0.0768002 -0.369514 
0.0768002 -11.1116 0.0433263 
-0.369514 0.0433263 -10.3185 
-10.3676 0.153273 -0.100717 
0.153273 -10.2018 -0.349104 
-0.100717 -0.349104 -11.5577 
-10.5386 -0.19062 -0.301065 
-0.19062 -10.353 0.246335 
-0.301065 0.246335 -11.2355 
-12.7607 1.38965 -0.618267 
1.38965 -8.33311 -7.346 
-0.618267 -7.346 -10.2132 
-7.17804 -0.0398726 0.129993 
-0.0398726 -11.1567 -6.10118 
0.129993 -6.10118 -12.9723 
-10.2773 1.96269 -0.783567 
1.96269 -7.65354 -1.88104 
-0.783567 -1.88104 -13.3762 
-7.59477 -3.03579 -1.17458 
-3.03579 -14.0979 -1.56126 
-1.17458 -1.56126 -9.61437 
-10.3506 0.0781102 -0.0341346 
0.0781102 -10.3956 0.62684 
-0.0341346 0.62684 -11.0857 
-11.1227 -0.109531 0.045576 
-0.109531 -9.31477 0.123147 
0.045576 0.123147 -11.3944 
-10.8463 -0.0938343 -0.140931 
-0.0938343 -10.0737 0.408037 
-0.140931 0.408037 -10.9118 
-10.4174 0.134596 0.0833407 
0.134596 -10.7006 -0.247907 
0.0833407 -0.247907 -10.7138 
-9.76574 -0.036419 0.0893511 
-0.036419 -9.78742 -0.103084 
0.0893511 -0.103084 -10.0435 
-9.82591 -0.0502147 0.112933 
-0.0502147 -9.81778 -0.116941 
0.112933 -0.116941 -9.95296 
-9.83671 -0.0344272 0.100748 
-0.0344272 -9.82458 -0.104346 
0.100748 -0.104346 -9.93536 
-9.80995 -0.038018 0.12749 
-0.038018 -9.8252 -0.120297 
0.12749 -0.120297 -9.96151 
-9.9158 0.0178292 0.167592 
0.0178292 -9.91323 0.171492 
0.167592 0.171492 -9.94945 
-9.91561 0.00151378 0.171919 
0.00151378 -9.90741 0.162182 
0.171919 0.162182 -9.95546 
-9.92216 0.0107392 0.161758 
0.0107392 -9.92414 0.162853 
0.161758 0.162853 -9.93217 
-9.91558 0.0177146 0.173035 
0.0177146 -9.93426 0.174367 
0.173035 0.174367 -9.92863 
-9.99328 0.00512247 -0.00767365 
0.00512247 -9.80992 0.0988536 
-0.00767365 0.0988536 -9.94306 
-10.0431 0.0196297 0.0945385 
0.0196297 -9.92358 0.17117 
0.0945385 0.17117 -9.77958 
-9.9276 0.00153013 0.0563561 
0.00153013 -9.98019 0.1126 
0.0563561 0.1126 -9.83847 
-9.93099 -0.0015607 0.0702649 
-0.0015607 -9.9591 0.124226 
0.0702649 0.124226 -9.85617 
-9.85895 -0.0082057 0.043103 
-0.0082057 -9.88784 -0.245718 
0.043103 -0.245718 -9.91522 
-9.89954 0.00477949 0.0292952 
0.00477949 -9.85693 -0.243202 
0.0292952 -0.243202 -9.90554 
-9.88968 -0.00554222 0.0321834 
-0.00554222 -9.88337 -0.245919 
0.0321834 -0.245919 -9.88896 
-9.89966 -0.012103 0.0296233 
-0.012103 -9.86896 -0.238802 
0.0296233 -0.238802 -9.89339 
-9.90451 -0.023494 0.254025 
-0.023494 -9.93184 -0.156651 
0.254025 -0.156651 -9.71508 
-9.81934 0.00623908 0.249024 
0.00623908 -9.96962 -0.186754 
0.249024 -0.186754 -9.76247 
-9.85722 -0.0213833 0.241349 
-0.0213833 -9.90192 -0.15762 
0.241349 -0.15762 -9.7923 
-9.75703 -0.0364714 0.332805 
-0.0364714 -10.017 -0.162419 
0.332805 -0.162419 -9.77739 
-9.9739 0.138467 -0.152284 
0.138467 -9.79376 -0.229012 
-0.152284 -0.229012 -11.1042 
-9.7116 0.22575 0.0320765 
0.22575 -9.78945 -0.00997035 
0.0320765 -0.00997035 -11.3708 
-9.82861 0.138836 0.0263753 
0.138836 -10.0518 0.0838352 
0.0263753 0.0838352 -10.9915 
-10.1437 0.151469 0.494769 
0.151469 -10.3106 0.215428 
0.494769 0.215428 -10.4176 
-9.95415 0.0184901 0.0152039 
0.0184901 -9.9813 -0.0175027 
0.0152039 -0.0175027 -9.98567 
-9.95094 0.0147234 -0.0157918 
0.0147234 -9.96906 -0.00664026 
-0.0157918 -0.00664026 -10.0011 
-9.94732 -0.0208702 -0.0110772 
-0.0208702 -9.98673 -0.0132331 
-0.0110772 -0.0132331 -9.98707 
-9.94387 -0.011774 -0.00833155 
-0.011774 -9.98199 -0.00416984 
-0.00833155 -0.00416984 -9.99527 
-9.94585 -0.0266741 0.160068 
-0.0266741 -9.95905 -0.165499 
0.160068 -0.165499 -9.88196 
-9.95417 0.0502587 0.143981 
0.0502587 -9.91124 -0.142612 
0.143981 -0.142612 -9.92146 
-9.95325 -0.0114686 0.155509 
-0.0114686 -9.94447 -0.170064 
0.155509 -0.170064 -9.88915 
-9.98326 0.006261 0.182698 
0.006261 -9.92914 -0.210771 
0.182698 -0.210771 -9.87446 
-9.97734 -0.016967 0.0350744 
-0.016967 -9.96755 -0.0173244 
0.0350744 -0.0173244 -9.97843 
-9.95043 0.0117512 -0.0202494 
0.0117512 -9.9722 0.0165187 
-0.0202494 0.0165187 -10.0007 
-9.94259 0.0181975 -0.00130615 
0.0181975 -9.97355 0.0248137 
-0.00130615 0.0248137 -10.0072 
-9.93196 0.00078701 0.00621671 
0.00078701 -9.95464 0.0213302 
0.00621671 0.0213302 -10.0367 
-9.91226 0.00371671 -0.0218688 
0.00371671 -9.92482 0.00456199 
-0.0218688 0.00456199 -10.0657 
-9.95719 -0.00217768 -0.0265054 
-0.00217768 -9.93907 0.0108878 
-0.0265054 0.0108878 -10.0065 
-9.96307 -0.00153631 -0.0433209 
-0.00153631 -9.93656 0.0192039 
-0.0433209 0.0192039 -10.0031 
-9.96969 -0.00891182 -0.0252164 
-0.00891182 -9.93379 0.0162273 
-0.0252164 0.0162273 -9.99929 
-9.78801 0.064123 0.089764 
0.064123 -9.74987 0.0627642 
0.089764 0.0627642 -9.89135 
-9.75799 0.0473518 0.0707813 
0.0473518 -9.75692 0.0569573 
0.0707813 0.0569573 -9.91432 
-9.71244 0.066655 0.11735 
0.066655 -9.68898 0.0646353 
0.11735 0.0646353 -10.0278 
-9.91604 0.0437891 0.131911 
0.0437891 -9.75464 0.231397 
0.131911 0.231397 -9.75855 
-9.85413 0.0140953 0.0186252 
0.0140953 -10.0035 0.0272007 
0.0186252 0.0272007 -9.98063 
-9.96227 -0.0194394 0.0968552 
-0.0194394 -9.86043 0.0338568 
0.0968552 0.0338568 -10.0155 
-9.86204 -0.0704071 0.071362 
-0.0704071 -10.0252 -0.0632631 
0.071362 -0.0632631 -9.95102 
-9.84132 0.0107302 0.0198253 
0.0107302 -9.97993 0.0025215 
0.0198253 0.0025215 -10.017 
-10.2962 -0.0734422 0.109612 
-0.0734422 -10.0171 0.0866986 
0.109612 0.0866986 -12.3712 
-10.9541 0.0386939 -0.00989082 
0.0386939 -10.8887 -0.2547 
-0.00989082 -0.2547 -10.8418 
-10.9836 -0.0655834 0.0495699 
-0.0655834 -10.8493 -0.260012 
0.0495699 -0.260012 -10.8517 
-11.2367 0.0620263 0.0333837 
0.0620263 -10.4899 -1.0102 
0.0333837 -1.0102 -10.958 
-8.527 0.115552 -0.764017 
0.115552 -6.20051 -0.625382 
-0.764017 -0.625382 -1.87414 
-8.67163 0.43838 0.0770576 
0.43838 -6.05245 -0.656553 
0.0770576 -0.656553 -1.87757 
-7.48856 -0.528103 -0.714729 
-0.528103 -6.63976 -0.447597 
-0.714729 -0.447597 -2.47333 
-8.12264 0.986101 0.395142 
0.986101 -4.91867 1.1139 
0.395142 1.1139 -3.56034 
-9.83511 -0.0251451 0.0187699 
-0.0251451 -9.98488 -0.0186697 
0.0187699 -0.0186697 -9.96859 
-9.83685 0.0468503 0.0704792 
0.0468503 -10.0039 0.0539313 
0.0704792 0.0539313 -9.94783 
-9.91772 0.00187733 0.0971011 
0.00187733 -9.87129 -0.0184075 
0.0971011 -0.0184075 -9.99958 
-9.84329 -0.0150294 0.0376348 
-0.0150294 -9.96907 0.00530144 
0.0376348 0.00530144 -9.97622 
-9.59255 -0.279432 -0.413275 
-0.279432 -9.83187 0.279942 
-0.413275 0.279942 -9.7604 
-9.57943 -0.0489127 -0.240349 
-0.0489127 -9.97648 0.00403125 
-0.240349 0.00403125 -9.62892 
-9.60583 -0.178201 -0.277929 
-0.178201 -9.78319 0.213999 
-0.277929 0.213999 -9.79581 
-9.70257 -0.142478 -0.250812 
-0.142478 -9.64797 0.258471 
-0.250812 0.258471 -9.83429 
-8.32049 0.529644 3.05969 
0.529644 -9.82033 1.77416 
3.05969 1.77416 -5.39343 
-7.05741 0.168387 2.85084 
0.168387 -10.6118 1.35468 
2.85084 1.35468 -5.86509 
-9.09532 0.415305 3.2741 
0.415305 -7.07197 1.27862 
3.2741 1.27862 -7.36696 
-8.59455 0.211424 2.43634 
0.211424 -8.83254 0.00735012 
2.43634 0.00735012 -6.10716 
-9.803 -0.070426 0.181225 
-0.070426 -9.88573 -0.22665 
0.181225 -0.22665 -9.31721 
-9.83037 -0.0332646 0.138681 
-0.0332646 -9.94492 -0.141004 
0.138681 -0.141004 -9.23064 
-9.85764 0.00299847 0.110346 
0.00299847 -9.77738 -0.194561 
0.110346 -0.194561 -9.37091 
-9.79245 0.0599108 0.223502 
0.0599108 -10.0483 -0.08444 
0.223502 -0.08444 -9.16516 
-9.89896 0.0073076 0.0507958 
0.0073076 -9.83201 0.261983 
0.0507958 0.261983 -9.71704 
-9.88441 0.0013999 0.0428169 
0.0013999 -9.83614 0.243481 
0.0428169 0.243481 -9.72746 
-9.90891 -0.00860664 0.0138905 
-0.00860664 -9.82125 0.273793 
0.0138905 0.273793 -9.71784 
-9.88886 -0.00085135 0.0268471 
-0.00085135 -9.826 0.264205 
0.0268471 0.264205 -9.73315 
-9.86621 -0.0133917 -0.18538 
-0.0133917 -9.85625 0.14713 
-0.18538 0.14713 -9.9828 
-9.88094 -0.0305505 -0.163887 
-0.0305505 -9.89296 0.133407 
-0.163887 0.133407 -9.93137 
-9.90247 -0.0158349 -0.174554 
-0.0158349 -9.89877 0.144054 
-0.174554 0.144054 -9.90403 
-9.8796 -0.0178692 -0.17118 
-0.0178692 -9.88872 0.127662 
-0.17118 0.127662 -9.93695 
-9.71944 -0.0193314 0.263071 
-0.0193314 -9.91905 0.00692404 
0.263071 0.00692404 -9.86123 
-9.71637 0.00363245 0.266977 
0.00363245 -9.90951 0.0396053 
0.266977 0.0396053 -9.87384 
-9.76386 0.026561 0.23214 
0.026561 -9.8631 0.052116 
0.23214 0.052116 -9.87275 
-9.74018 0.0549603 0.333286 
0.0549603 -9.92544 0.0828976 
0.333286 0.0828976 -9.8341 
-9.87423 -0.0330059 -0.0718836 
-0.0330059 -9.91896 0.0165255 
-0.0718836 0.0165255 -9.99821 
-9.88765 -0.0312013 -0.00471593 
-0.0312013 -9.92237 0.0180525 
-0.00471593 0.0180525 -9.98138 
-9.86907 -0.0140513 -0.0335977 
-0.0140513 -9.93536 0.0188511 
-0.0335977 0.0188511 -9.98697 
-9.83935 -0.0273022 -0.000503296 
-0.0273022 -9.93415 0.000773833 
-0.000503296 0.000773833 -10.0179 
-9.6654 -0.0822989 0.290329 
-0.0822989 -9.82115 -0.234701 
0.290329 -0.234701 -9.83414 
-9.69818 -0.0741015 0.311444 
-0.0741015 -9.77053 -0.242544 
0.311444 -0.242544 -9.85198 
-9.65341 -0.0879218 0.270974 
-0.0879218 -9.84913 -0.174508 
0.270974 -0.174508 -9.81814 
-9.72142 -0.0462361 0.289549 
-0.0462361 -9.82848 -0.260402 
0.289549 -0.260402 -9.77079 
-9.76947 -0.131176 -0.0751836 
-0.131176 -10.1708 0.106433 
-0.0751836 0.106433 -10.6253 
-9.94281 -0.166131 -0.00190005 
-0.166131 -10.2064 -0.112977 
-0.00190005 -0.112977 -10.4163 
-9.76587 -0.0942585 -0.0290308 
-0.0942585 -10.2109 -0.0722595 
-0.0290308 -0.0722595 -10.5888 
-10.1353 -0.0930551 0.127613 
-0.0930551 -10.1088 0.00920304 
0.127613 0.00920304 -10.3214 
-9.75618 0.0436468 -0.118078 
0.0436468 -9.80072 -0.0944301 
-0.118078 -0.0944301 -9.9109 
-9.75732 0.0409072 -0.166876 
0.0409072 -9.75597 -0.0903195 
-0.166876 -0.0903195 -9.95451 
-9.76455 0.028497 -0.142116 
0.028497 -9.79382 -0.0792466 
-0.142116 -0.0792466 -9.90943 
-9.83749 0.0433432 -0.169197 
0.0433432 -9.79778 -0.167246 
-0.169197 -0.167246 -9.83253 
-9.93823 0.0229653 0.0411502 
0.0229653 -9.974 -0.0419012 
0.0411502 -0.0419012 -10.0419 
-9.91029 0.00679049 -0.00843557 
0.00679049 -9.95144 0.0130473 
-0.00843557 0.0130473 -10.0924 
-9.96908 -0.0131143 -0.011543 
-0.0131143 -9.98317 0.0430292 
-0.011543 0.0430292 -10.0019 
-9.902 -0.0315281 0.00359736 
-0.0315281 -10.0015 0.0298047 
0.00359736 0.0298047 -10.0506 
-9.85073 -0.0602574 0.0904176 
-0.0602574 -9.82574 0.133824 
0.0904176 0.133824 -9.83898 
-9.79113 0.052779 0.117836 
0.052779 -9.80341 0.106474 
0.117836 0.106474 -9.92091 
-9.79019 0.0642115 0.0872737 
0.0642115 -9.8142 0.0772327 
0.0872737 0.0772327 -9.91106 
-9.87297 0.0198521 0.120185 
0.0198521 -9.7408 0.0948144 
0.120185 0.0948144 -9.90169 
-9.81442 -0.088279 -0.115914 
-0.088279 -9.77211 0.0122544 
-0.115914 0.0122544 -9.94362 
-9.76415 -0.0259933 -0.0387006 
-0.0259933 -9.82782 0.139013 
-0.0387006 0.139013 -9.93819 
-9.76839 -0.0694922 -0.0606536 
-0.0694922 -9.79397 0.143304 
-0.0606536 0.143304 -9.9678 
-9.80223 -0.011454 -0.154512 
-0.011454 -9.7757 0.127395 
-0.154512 0.127395 -9.95223 
-9.78051 -0.00735101 0.390196 
-0.00735101 -9.96286 0.195654 
0.390196 0.195654 -10.5108 
-9.82338 -0.13563 0.262814 
-0.13563 -9.54874 0.276302 
0.262814 0.276302 -10.8821 
-9.79103 0.130508 0.00378213 
0.130508 -9.70118 0.356438 
0.00378213 0.356438 -10.762 
-9.58162 0.175196 0.218706 
0.175196 -9.42369 0.243021 
0.218706 0.243021 -11.2489 
-9.80196 0.0733183 -0.269319 
0.0733183 -9.83513 -0.15387 
-0.269319 -0.15387 -9.44692 
-9.82037 0.0504335 -0.222421 
0.0504335 -9.82273 -0.183495 
-0.222421 -0.183495 -9.44091 
-9.75381 -0.0703367 -0.103182 
-0.0703367 -9.83971 -0.128941 
-0.103182 -0.128941 -9.49049 
-9.91043 0.0449421 -0.2431 
0.0449421 -9.88993 -0.267069 
-0.2431 -0.267069 -9.28365 
-9.78012 -0.0153161 -0.180491 
-0.0153161 -9.85479 -0.0149606 
-0.180491 -0.0149606 -9.87507 
-9.79641 -0.00551965 -0.263677 
-0.00551965 -9.8217 0.00600452 
-0.263677 0.00600452 -9.89188 
-9.82704 -0.0260629 -0.200886 
-0.0260629 -9.86207 0.0827095 
-0.200886 0.0827095 -9.82087 
-9.76258 -0.000942341 -0.262 
-0.000942341 -9.8853 0.0596541 
-0.262 0.0596541 -9.8621 
-12.231 -1.39574 -0.0927377 
-1.39574 -9.74557 -0.11685 
-0.0927377 -0.11685 -12.6729 
-9.17709 0.6177 -1.69562 
0.6177 -12.7446 -0.240942 
-1.69562 -0.240942 -12.7278 
-8.89321 0.58866 0.306879 
0.58866 -11.1572 -0.329538 
0.306879 -0.329538 -14.599 
-10.8088 -0.24465 -1.41159 
-0.24465 -9.87401 0.959406 
-1.41159 0.959406 -13.9666 
-10.0068 0.0178954 -0.151739 
0.0178954 -9.53216 0.332809 
-0.151739 0.332809 -9.43841 
-9.86991 -0.0622542 -0.0821181 
-0.0622542 -9.62007 0.323807 
-0.0821181 0.323807 -9.48743 
-9.86822 -0.0615828 -0.181898 
-0.0615828 -9.57106 0.327123 
-0.181898 0.327123 -9.53812 
-9.89607 -0.0678971 -0.115816 
-0.0678971 -9.58342 0.340451 
-0.115816 0.340451 -9.49791 
-9.92985 -0.364605 -0.759424 
-0.364605 -9.4934 1.3777 
-0.759424 1.3777 -9.05134 
-13.5717 -0.174932 0.350929 
-0.174932 -5.65412 1.89162 
0.350929 1.89162 -9.24878 
-9.47671 -0.0399008 0.119883 
-0.0399008 -9.85462 1.5579 
0.119883 1.5579 -9.14326 
-9.89857 0.309514 -0.0137099 
0.309514 -9.19203 0.575873 
-0.0137099 0.575873 -9.38399 
-9.82271 0.143835 0.466424 
0.143835 -10.2178 0.508305 
0.466424 0.508305 -9.30452 
-9.81276 0.278197 0.66772 
0.278197 -10.0804 0.857951 
0.66772 0.857951 -9.45194 
-9.55424 0.128069 0.26435 
0.128069 -10.2054 0.301163 
0.26435 0.301163 -9.58543 
-9.71267 -0.0713807 0.300145 
-0.0713807 -10.6906 0.559497 
0.300145 0.559497 -8.9418 
-10.3104 -0.197022 0.324996 
-0.197022 -9.35704 0.674217 
0.324996 0.674217 -12.1443 
-11.0365 -0.107215 -0.219987 
-0.107215 -11.0668 -0.233113 
-0.219987 -0.233113 -9.7085 
-10.5437 0.473339 -0.144152 
0.473339 -10.9613 -0.0752618 
-0.144152 -0.0752618 -10.3068 
-10.2444 -0.183342 -0.953787 
-0.183342 -11.2354 0.46467 
-0.953787 0.46467 -10.332 
-9.88256 0.0858064 -0.0308828 
0.0858064 -9.83434 -0.0205491 
-0.0308828 -0.0205491 -10.0102 
-9.86333 0.047003 -0.0601386 
0.047003 -9.8614 -0.0548455 
-0.0601386 -0.0548455 -10.0024 
-9.90678 -0.115844 -0.0178757 
-0.115844 -9.94291 0.00187215 
-0.0178757 0.00187215 -9.87743 
-9.77663 0.034787 -0.066467 
0.034787 -9.96605 -0.0269785 
-0.066467 -0.0269785 -9.98444 
-9.72879 0.158539 0.0920452 
0.158539 -9.69816 0.103005 
0.0920452 0.103005 -10.0297 
-9.78028 0.0491781 0.144866 
0.0491781 -9.74285 0.155557 
0.144866 0.155557 -9.93349 
-9.73769 0.135005 0.137002 
0.135005 -9.73308 0.131593 
0.137002 0.131593 -9.98586 
-9.74417 0.196698 0.16459 
0.196698 -9.66513 0.152956 
0.16459 0.152956 -10.0473 
-9.60116 -0.177639 -0.316346 
-0.177639 -9.8682 0.0918176 
-0.316346 0.0918176 -9.7589 
-9.62664 -0.0321622 -0.270772 
-0.0321622 -9.84542 0.119048 
-0.270772 0.119048 -9.7562 
-9.52708 -0.124946 -0.32194 
-0.124946 -9.89049 0.182722 
-0.32194 0.182722 -9.81069 
-9.58953 -0.0740885 -0.352181 
-0.0740885 -9.79055 0.0154366 
-0.352181 0.0154366 -9.84818 
-10.0054 0.00907518 0.0450711 
0.00907518 -9.99952 0.0107754 
0.0450711 0.0107754 -10.0375 
-10.0173 -0.0577007 -0.0759546 
-0.0577007 -9.95044 -0.0624144 
-0.0759546 -0.0624144 -10.0747 
-9.97097 -0.0183779 0.00377192 
-0.0183779 -9.92872 0.0055152 
0.00377192 0.0055152 -10.1428 
-10.0198 0.0402574 0.0263062 
0.0402574 -9.93944 -0.0161898 
0.0263062 -0.0161898 -10.0832 
-8.6445 0.562786 0.32424 
0.562786 -10.3724 -0.542485 
0.32424 -0.542485 -8.49081 
-9.11922 -0.286937 1.73031 
-0.286937 -9.46034 -1.11196 
1.73031 -1.11196 -8.92813 
-9.46209 -0.0328523 0.719658 
-0.0328523 -9.91732 -0.471384 
0.719658 -0.471384 -8.12828 
-9.17391 0.0470984 0.318089 
0.0470984 -9.11786 -0.645012 
0.318089 -0.645012 -9.21592 
-9.95496 0.154875 0.673826 
0.154875 -10.0802 -0.798611 
0.673826 -0.798611 -8.53865 
-9.24075 0.431 1.86151 
0.431 -9.54816 -1.41456 
1.86151 -1.41456 -9.78488 
-9.7876 -0.311411 0.679114 
-0.311411 -9.38632 -0.315858 
0.679114 -0.315858 -9.39987 
-9.38908 -0.0608253 0.509159 
-0.0608253 -9.5776 -0.528068 
0.509159 -0.528068 -9.60711 
-9.75265 0.0812126 -0.113764 
0.0812126 -9.68398 -0.15803 
-0.113764 -0.15803 -10.0648 
-9.63335 0.211821 -0.180279 
0.211821 -9.79972 -0.115921 
-0.180279 -0.115921 -10.0683 
-9.7032 -0.00339286 -0.125599 
-0.00339286 -9.86577 -0.0560437 
-0.125599 -0.0560437 -9.93242 
-9.81423 0.101555 -0.0102337 
0.101555 -9.74492 -0.111498 
-0.0102337 -0.111498 -9.94224 
-9.76763 -0.0431524 -0.246777 
-0.0431524 -9.77796 -0.0957449 
-0.246777 -0.0957449 -9.46054 
-9.79637 -0.00147006 -0.474773 
-0.00147006 -10.0428 -0.19319 
-0.474773 -0.19319 -9.16693 
-9.84317 -0.0159703 -0.287237 
-0.0159703 -9.87132 -0.280025 
-0.287237 -0.280025 -9.29164 
-9.86391 0.0567244 -0.239938 
0.0567244 -9.8059 -0.169462 
-0.239938 -0.169462 -9.33632 
-9.82455 0.0335534 0.122293 
0.0335534 -9.79121 0.101886 
0.122293 0.101886 -9.95128 
-9.78369 0.0275502 0.111491 
0.0275502 -9.81658 0.0915655 
0.111491 0.0915655 -9.96678 
-9.79353 0.0494137 0.163759 
0.0494137 -9.84317 0.0814676 
0.163759 0.0814676 -9.93034 
-9.78573 -0.000886562 0.102983 
-0.000886562 -9.81389 0.0894009 
0.102983 0.0894009 -9.96742 
-9.85732 -0.0690536 0.188583 
-0.0690536 -9.82701 -0.209024 
0.188583 -0.209024 -9.94672 
-9.83668 -0.0347106 0.178433 
-0.0347106 -9.83941 -0.188603 
0.178433 -0.188603 -9.95497 
-9.85723 -0.0126132 0.118707 
-0.0126132 -9.79685 -0.209603 
0.118707 -0.209603 -9.97698 
-9.84666 -0.0239759 0.176351 
-0.0239759 -9.84775 -0.188388 
0.176351 -0.188388 -9.93665 
-9.80596 -0.0611566 0.0988319 
-0.0611566 -9.81811 -0.12332 
0.0988319 -0.12332 -10.1711 
-9.79015 -0.129557 0.114504 
-0.129557 -9.80301 -0.0575238 
0.114504 -0.0575238 -10.202 
-9.79726 -0.100931 0.161745 
-0.100931 -9.79823 -0.174103 
0.161745 -0.174103 -10.1997 
-9.81003 -0.0766011 0.0942289 
-0.0766011 -9.86539 -0.139167 
0.0942289 -0.139167 -10.1198 
-10.2187 -0.0137716 0.0398538 
-0.0137716 -10.2435 0.00291096 
0.0398538 0.00291096 -10.3065 
-10.1301 0.271652 -0.0359042 
0.271652 -10.0681 -0.0292001 
-0.0359042 -0.0292001 -10.5705 
-10.196 -0.0811945 0.00803859 
-0.0811945 -10.1885 -0.049249 
0.00803859 -0.049249 -10.3842 
-10.2462 -0.225243 -0.146843 
-0.225243 -10.2587 -0.195901 
-0.146843 -0.195901 -10.2637 
-9.95836 0.00490694 -0.129909 
0.00490694 -9.95777 -0.198531 
-0.129909 -0.198531 -9.98409 
-9.94922 -0.00438621 -0.130926 
-0.00438621 -9.95531 -0.195207 
-0.130926 -0.195207 -9.99569 
-9.95997 0.00321308 -0.135077 
0.00321308 -9.95273 -0.20047 
-0.135077 -0.20047 -9.98752 
-9.96491 0.00285315 -0.137636 
0.00285315 -9.96177 -0.196706 
-0.137636 -0.196706 -9.97354 
-9.79895 -0.0825464 0.0920803 
-0.0825464 -9.80486 -0.124219 
0.0920803 -0.124219 -10.3012 
-9.79768 -0.0922717 0.108213 
-0.0922717 -9.75856 -0.106828 
0.108213 -0.106828 -10.3487 
-9.8136 -0.0621873 0.0839092 
-0.0621873 -9.89195 -0.0841055 
0.0839092 -0.0841055 -10.1994 
-9.81324 -0.123749 0.157898 
-0.123749 -9.80495 -0.17602 
0.157898 -0.17602 -10.2868 
-10.0661 0.0502573 0.12427 
0.0502573 -9.87079 0.230587 
0.12427 0.230587 -9.93281 
-9.92009 -0.120012 -0.0949998 
-0.120012 -9.94489 -0.0763233 
-0.0949998 -0.0763233 -10.0047 
-9.85865 -0.0574002 0.0108918 
-0.0574002 -9.92383 0.154264 
0.0108918 0.154264 -10.0872 
-10.0421 0.0826405 0.0489897 
0.0826405 -9.73314 0.0517365 
0.0489897 0.0517365 -10.0944 
-9.34092 -0.0347513 0.340245 
-0.0347513 -9.73829 -1.29079 
0.340245 -1.29079 -10.5607 
-9.44535 -0.0387145 0.11286 
-0.0387145 -9.94864 -0.961221 
0.11286 -0.961221 -10.246 
-9.83528 -0.011936 0.179643 
-0.011936 -9.62188 -0.229812 
0.179643 -0.229812 -10.1828 
-9.42418 -0.0726765 0.165021 
-0.0726765 -10.0226 -1.02381 
0.165021 -1.02381 -10.1932 
-9.84208 -0.0242894 0.00755825 
-0.0242894 -9.61438 -0.132773 
0.00755825 -0.132773 -9.94394 
-9.67067 -0.126909 0.109248 
-0.126909 -9.79651 -0.0722084 
0.109248 -0.0722084 -9.93322 
-9.78876 -0.120757 0.12287 
-0.120757 -9.68247 -0.152463 
0.12287 -0.152463 -9.92918 
-9.92513 -0.247834 0.1625 
-0.247834 -9.47046 -0.258318 
0.1625 -0.258318 -10.0048 
-9.9043 -0.0254703 -0.158219 
-0.0254703 -9.9177 0.12691 
-0.158219 0.12691 -9.95224 
-9.9035 0.0128815 -0.215204 
0.0128815 -9.91141 0.167684 
-0.215204 0.167684 -9.95932 
-9.89141 -0.0274152 -0.191852 
-0.0274152 -9.90579 0.149229 
-0.191852 0.149229 -9.97704 
-9.90044 -0.0206687 -0.189001 
-0.0206687 -9.90458 0.14918 
-0.189001 0.14918 -9.96922 
-9.92185 -0.000984969 -0.0367259 
-0.000984969 -9.91036 0.240591 
-0.0367259 0.240591 -9.93115 
-9.91088 -0.00389738 -0.0352453 
-0.00389738 -9.91901 0.231485 
-0.0352453 0.231485 -9.93346 
-9.91749 0.00648126 -0.0349596 
0.00648126 -9.90693 0.250627 
-0.0349596 0.250627 -9.93893 
-9.92416 0.00122489 -0.0193015 
0.00122489 -9.91598 0.250535 
-0.0193015 0.250535 -9.92322 
-9.81989 -0.0185013 -0.311143 
-0.0185013 -9.94393 0.0708382 
-0.311143 0.0708382 -9.49216 
-9.84805 0.0233314 -0.207091 
0.0233314 -9.82459 0.0698751 
-0.207091 0.0698751 -9.58335 
-9.82408 -0.0104388 -0.256073 
-0.0104388 -9.84037 0.0523085 
-0.256073 0.0523085 -9.59154 
-9.69549 -0.0390374 -0.244119 
-0.0390374 -9.85055 0.140823 
-0.244119 0.140823 -9.70995 
-10.0248 0.000758083 -0.0963999 
0.000758083 -10.0635 0.0167842 
-0.0963999 0.0167842 -9.93593 
-9.97872 -0.0198039 -0.116697 
-0.0198039 -9.97011 0.0222264 
-0.116697 0.0222264 -10.0754 
-10.0111 -0.00497576 -0.105624 
-0.00497576 -10.0332 0.0358148 
-0.105624 0.0358148 -9.97989 
-10.0259 0.0150417 -0.110189 
0.0150417 -10.0398 0.0682234 
-0.110189 0.0682234 -9.95852 
-8.66084 1.08198 1.45384 
1.08198 -8.76646 -1.07651 
1.45384 -1.07651 -7.87493 
-10.1864 -0.453475 -2.43845 
-0.453475 -7.32109 -2.05076 
-2.43845 -2.05076 -7.7948 
-10.7689 -0.567918 0.135396 
-0.567918 -8.12996 -2.24986 
0.135396 -2.24986 -6.40334 
-10.2079 -0.778751 -0.0196516 
-0.778751 -8.14795 -2.63751 
-0.0196516 -2.63751 -6.94641 
-9.78379 0.0770321 0.0687183 
0.0770321 -9.7237 0.165181 
0.0687183 0.165181 -9.89893 
-9.79027 0.0874862 0.118726 
0.0874862 -9.70744 0.176825 
0.118726 0.176825 -9.90872 
-9.77574 0.109578 0.113825 
0.109578 -9.69506 0.186002 
0.113825 0.186002 -9.93563 
-9.80343 0.0292856 0.131213 
0.0292856 -9.74964 0.213327 
0.131213 0.213327 -9.85336 
-9.87083 0.0768956 0.220619 
0.0768956 -9.48064 0.343147 
0.220619 0.343147 -9.6597 
-9.86143 0.141055 0.0824519 
0.141055 -9.58118 0.349269 
0.0824519 0.349269 -9.56856 
-9.78339 0.14722 0.209561 
0.14722 -9.51002 0.292322 
0.209561 0.292322 -9.71776 
-9.8595 0.133428 0.152435 
0.133428 -9.4971 0.344897 
0.152435 0.344897 -9.65457 
-9.86624 -0.00390984 -0.0166435 
-0.00390984 -9.83672 0.244696 
-0.0166435 0.244696 -9.83776 
-9.87019 -0.0164188 -0.0282255 
-0.0164188 -9.79505 0.236537 
-0.0282255 0.236537 -9.87548 
-9.84515 -0.00399784 -0.0126388 
-0.00399784 -9.80904 0.243745 
-0.0126388 0.243745 -9.88654 
-9.8668 0.01077 -0.0298072 
0.01077 -9.81878 0.221013 
-0.0298072 0.221013 -9.85514 
-10.0914 0.184642 0.0644263 
0.184642 -10.193 0.065586 
0.0644263 0.065586 -10.3762 
-10.2173 -0.00404982 -0.115941 
-0.00404982 -10.1078 0.0393986 
-0.115941 0.0393986 -10.3355 
-10.2897 -0.144723 0.139553 
-0.144723 -10.2055 -0.0594595 
0.139553 -0.0594595 -10.1654 
-10.1253 0.108083 -0.120391 
0.108083 -10.3009 0.139362 
-0.120391 0.139362 -10.2344 
-9.69602 -0.0623043 -0.241772 
-0.0623043 -9.86098 0.155868 
-0.241772 0.155868 -9.92434 
-9.71116 -0.0750167 -0.249424 
-0.0750167 -9.88471 0.162577 
-0.249424 0.162577 -9.88546 
-9.73461 -0.0794988 -0.191623 
-0.0794988 -9.80529 0.154689 
-0.191623 0.154689 -9.94144 
-9.75898 -0.03775 -0.224965 
-0.03775 -9.77952 0.0895968 
-0.224965 0.0895968 -9.94283 
-10.3502 -0.0710471 -0.65835 
-0.0710471 -10.544 0.0165375 
-0.65835 0.0165375 -10.7233 
-9.18765 -0.207405 -0.541428 
-0.207405 -10.8444 -0.221349 
-0.541428 -0.221349 -11.5854 
-9.95781 -0.149085 -0.362783 
-0.149085 -10.5776 -0.0427237 
-0.362783 -0.0427237 -11.0821 
-10.9312 -0.14615 0.836074 
-0.14615 -9.75063 0.0795972 
0.836074 0.0795972 -10.9357 
-9.89673 -0.00229922 -0.124224 
-0.00229922 -9.75709 0.0512259 
-0.124224 0.0512259 -9.85856 
-9.82007 -0.0353831 -0.109601 
-0.0353831 -9.79613 0.0964917 
-0.109601 0.0964917 -9.89617 
-9.78415 -0.0383619 -0.11074 
-0.0383619 -9.84477 0.0837755 
-0.11074 0.0837755 -9.88346 
-9.81035 -0.0367355 -0.171237 
-0.0367355 -9.81846 0.078667 
-0.171237 0.078667 -9.88356 
-9.5556 0.16395 -0.494066 
0.16395 -10.0663 -0.0858169 
-0.494066 -0.0858169 -9.7678 
-9.71121 0.0946113 -0.338555 
0.0946113 -9.76468 -0.235913 
-0.338555 -0.235913 -9.91381 
-9.51182 0.1038 -0.171814 
0.1038 -9.84964 -0.280925 
-0.171814 -0.280925 -10.0282 
-9.68756 0.0162213 -0.24942 
0.0162213 -9.91885 -0.0200485 
-0.24942 -0.0200485 -9.78329 
-9.57342 -0.0801653 -0.312837 
-0.0801653 -9.95484 0.231195 
-0.312837 0.231195 -9.55194 
-9.58472 -0.0371421 -0.332776 
-0.0371421 -9.85673 0.188995 
-0.332776 0.188995 -9.63874 
-9.49759 0.00498906 -0.434684 
0.00498906 -9.86778 0.275833 
-0.434684 0.275833 -9.71482 
-9.59653 -0.0467565 -0.422177 
-0.0467565 -9.80076 0.0680284 
-0.422177 0.0680284 -9.6829 
-9.82421 0.0954301 -0.061639 
0.0954301 -9.73657 -0.133732 
-0.061639 -0.133732 -9.91044 
-9.75998 -0.0317995 -0.0709545 
-0.0317995 -9.84673 -0.145431 
-0.0709545 -0.145431 -9.86451 
-9.80067 0.0262139 -0.118099 
0.0262139 -9.80001 -0.1315 
-0.118099 -0.1315 -9.87054 
-9.78802 0.0329125 -0.0992821 
0.0329125 -9.78905 -0.190055 
-0.0992821 -0.190055 -9.89415 
-10.0161 0.00844404 0.00840533 
0.00844404 -9.96571 -0.0209053 
0.00840533 -0.0209053 -10.0262 
-10.0293 0.0121367 -0.00871107 
0.0121367 -9.98206 -0.0493749 
-0.00871107 -0.0493749 -9.99661 
-10.0186 -0.00660299 0.0165191 
-0.00660299 -9.97268 -0.00190377 
0.0165191 -0.00190377 -10.0167 
-10.0161 -0.00338918 0.0120325 
-0.00338918 -9.94162 -0.00851344 
0.0120325 -0.00851344 -10.0503 
-9.55809 -0.0673696 -0.267964 
-0.0673696 -9.80947 0.178843 
-0.267964 0.178843 -9.79467 
-9.53669 -0.0286514 -0.342078 
-0.0286514 -9.9387 0.206 
-0.342078 0.206 -9.68684 
-9.58211 -0.0926022 -0.329286 
-0.0926022 -9.83231 0.113619 
-0.329286 0.113619 -9.74782 
-9.62751 -0.0550794 -0.334532 
-0.0550794 -9.81646 0.0803214 
-0.334532 0.0803214 -9.71826 
-9.87874 -0.00249902 0.00221748 
-0.00249902 -9.84291 0.246987 
0.00221748 0.246987 -9.88018 
-9.8904 0.00804865 -0.00620944 
0.00804865 -9.82479 0.244857 
-0.00620944 0.244857 -9.88665 
-9.85362 -0.0140054 0.0134862 
-0.0140054 -9.8284 0.246174 
0.0134862 0.246174 -9.91982 
-9.8567 0.0495805 0.0244841 
0.0495805 -9.83243 0.253772 
0.0244841 0.253772 -9.91269 
-9.93566 -0.662369 -0.365128 
-0.662369 -10.3503 0.238347 
-0.365128 0.238347 -11.2199 
-9.45286 -0.123695 0.172341 
-0.123695 -10.716 -0.246272 
0.172341 -0.246272 -11.337 
-9.97261 0.203684 0.135861 
0.203684 -10.8293 0.0297079 
0.135861 0.0297079 -10.7039 
-9.74442 0.265123 0.349275 
0.265123 -10.58 0.177227 
0.349275 0.177227 -11.1814 
-9.93707 0.0514693 -0.0711614 
0.0514693 -9.93107 -0.076496 
-0.0711614 -0.076496 -10.0494 
-9.90351 -0.0191058 0.00644206 
-0.0191058 -9.83121 -0.0668453 
0.00644206 -0.0668453 -10.1828 
-9.80877 0.309494 -0.078127 
0.309494 -9.87752 -0.0369578 
-0.078127 -0.0369578 -10.2313 
-9.92994 0.207697 -0.048932 
0.207697 -9.92219 0.003336 
-0.048932 0.003336 -10.0654 
-9.77855 -0.0532295 -0.0383702 
-0.0532295 -9.81031 0.0963879 
-0.0383702 0.0963879 -9.92811 
-9.75971 -0.0236116 -0.0452246 
-0.0236116 -9.80904 0.0969103 
-0.0452246 0.0969103 -9.94822 
-9.77798 -0.0522789 -0.0369637 
-0.0522789 -9.79165 0.0759259 
-0.0369637 0.0759259 -9.94734 
-9.79499 -0.0683126 -0.0430362 
-0.0683126 -9.81867 0.0342468 
-0.0430362 0.0342468 -9.90331 
-9.81136 0.0110173 0.0379172 
0.0110173 -9.62819 0.212509 
0.0379172 0.212509 -9.79708 
-9.68282 0.0318141 0.0714001 
0.0318141 -9.70604 0.155425 
0.0714001 0.155425 -9.84777 
-9.79008 0.0973262 0.0733783 
0.0973262 -9.62601 0.216341 
0.0733783 0.216341 -9.82054 
-9.7876 0.0207751 0.0543116 
0.0207751 -9.68284 0.235868 
0.0543116 0.235868 -9.76619 
-10.0045 -0.322023 0.0095252 
-0.322023 -10.0827 -0.0436608 
0.0095252 -0.0436608 -10.6132 
-9.93132 -0.074708 0.0419483 
-0.074708 -10.1873 -0.0649561 
0.0419483 -0.0649561 -10.5817 
-9.98264 -0.649387 -0.0719115 
-0.649387 -9.83247 -0.0830638 
-0.0719115 -0.0830638 -10.8852 
-9.85574 -0.0858541 0.134017 
-0.0858541 -10.2928 0.0185175 
0.134017 0.0185175 -10.5519 
-9.92507 0.0340456 -0.231672 
0.0340456 -9.93801 -0.14495 
-0.231672 -0.14495 -9.66242 
-9.86455 -0.00373031 -0.174043 
-0.00373031 -9.92906 -0.183601 
-0.174043 -0.183601 -9.73188 
-9.83238 0.0109804 -0.21451 
0.0109804 -9.94073 -0.212011 
-0.21451 -0.212011 -9.75239 
-9.78922 0.0339282 -0.240789 
0.0339282 -9.82835 -0.0751959 
-0.240789 -0.0751959 -9.90792 
-9.90152 0.0298562 0.0133297 
0.0298562 -9.98127 -0.0242058 
0.0133297 -0.0242058 -10.0294 
-10.0186 0.0444133 0.141259 
0.0444133 -9.90157 0.0077927 
0.141259 0.0077927 -9.99199 
-9.96714 0.00280978 -0.0995948 
0.00280978 -9.92695 -0.0571409 
-0.0995948 -0.0571409 -10.0181 
-9.83454 0.0560458 -0.00186316 
0.0560458 -10.0007 -0.0777111 
-0.00186316 -0.0777111 -10.0769 
-9.93285 -0.136645 0.340199 
-0.136645 -9.43052 -0.5265 
0.340199 -0.5265 -9.08488 
-9.95953 -0.105246 0.178639 
-0.105246 -9.37403 -0.387177 
0.178639 -0.387177 -9.11469 
-9.84007 -0.0595672 0.256763 
-0.0595672 -9.42052 -0.531457 
0.256763 -0.531457 -9.18766 
-9.90175 -7.60859e-05 0.251775 
-7.60859e-05 -9.16542 -0.530311 
0.251775 -0.530311 -9.38108 
-9.94067 -0.0163485 -0.00865994 
-0.0163485 -9.98312 -0.132437 
-0.00865994 -0.132437 -9.84807 
-10.0299 -0.00760286 0.0171612 
-0.00760286 -9.92586 -0.139282 
0.0171612 -0.139282 -9.81607 
-10.0036 -0.0111729 -0.00886076 
-0.0111729 -9.87246 -0.120349 
-0.00886076 -0.120349 -9.8958 
-9.94332 -0.00165581 0.0110337 
-0.00165581 -9.97519 -0.148861 
0.0110337 -0.148861 -9.85335 
-9.9675 -0.0134167 0.0180833 
-0.0134167 -9.93525 -0.0200909 
0.0180833 -0.0200909 -9.99755 
-9.97373 -0.0133399 0.00890724 
-0.0133399 -9.92709 -0.00117097 
0.00890724 -0.00117097 -9.99947 
-9.97008 -0.0150961 0.0136934 
-0.0150961 -9.94357 0.00375627 
0.0136934 0.00375627 -9.98665 
-9.97214 -0.0217761 0.0102494 
-0.0217761 -9.94607 0.000358481 
0.0102494 0.000358481 -9.98208 
-5.90932 2.28955 2.09363 
2.28955 -9.0013 1.58052 
2.09363 1.58052 5.20417 
-2.99432 0.295826 -0.400646 
0.295826 -4.13046 -0.403438 
-0.400646 -0.403438 -2.58167 
1.19626 0.597178 -1.35458 
0.597178 -2.81959 -0.166293 
-1.35458 -0.166293 -8.08312 
-1.56847 -0.974659 -1.67102 
-0.974659 -7.25273 -4.85603 
-1.67102 -4.85603 -0.885252 
-10.0518 -0.0269296 0.103691 
-0.0269296 -9.79427 -0.534411 
0.103691 -0.534411 -10.0089 
-10.0954 -0.127091 0.0818262 
-0.127091 -9.72334 -0.321584 
0.0818262 -0.321584 -10.0362 
-10.1264 -0.0866116 0.0933994 
-0.0866116 -9.68031 -0.358335 
0.0933994 -0.358335 -10.0483 
-10.1719 -0.175375 0.155143 
-0.175375 -9.50769 -0.34782 
0.155143 -0.34782 -10.1754 
-9.74181 -0.0666588 0.113261 
-0.0666588 -10.0329 -0.0335098 
0.113261 -0.0335098 -10.3484 
-9.67301 -0.0496441 -0.0832119 
-0.0496441 -10.0112 0.0983354 
-0.0832119 0.0983354 -10.4389 
-9.76209 -0.111961 0.0481368 
-0.111961 -9.98344 0.0688932 
0.0481368 0.0688932 -10.3776 
-9.82384 -0.0798256 0.0149507 
-0.0798256 -9.99586 -0.167647 
0.0149507 -0.167647 -10.3034 
-9.85395 0.132211 0.0120391 
0.132211 -9.78487 0.0417102 
0.0120391 0.0417102 -10.0872 
-9.85267 0.0332364 0.0586013 
0.0332364 -9.89249 0.0761524 
0.0586013 0.0761524 -9.98087 
-9.86254 -0.0358218 0.0369576 
-0.0358218 -9.9761 0.0505951 
0.0369576 0.0505951 -9.8874 
-9.83593 0.0200358 0.125495 
0.0200358 -9.90167 0.14417 
0.125495 0.14417 -9.98843 
-10.6463 0.510219 0.250507 
0.510219 -8.99457 0.251577 
0.250507 0.251577 -11.3816 
-10.6316 0.756653 0.068785 
0.756653 -9.03583 0.133216 
0.068785 0.133216 -11.355 
-10.5174 0.577968 0.222503 
0.577968 -8.98079 0.583325 
0.222503 0.583325 -11.5242 
-10.0756 -0.0520525 -0.113027 
-0.0520525 -9.77185 0.484553 
-0.113027 0.484553 -11.175 
-8.94266 0.667807 -0.236795 
0.667807 -9.38202 -0.853959 
-0.236795 -0.853959 -8.70098 
-8.98256 -0.109176 0.788837 
-0.109176 -9.30687 -1.96333 
0.788837 -1.96333 -8.73623 
-9.54936 0.0672757 -0.687646 
0.0672757 -8.77357 -1.27099 
-0.687646 -1.27099 -8.70274 
-9.84008 -0.263082 0.0308013 
-0.263082 -7.98799 -0.925299 
0.0308013 -0.925299 -9.1976 
-9.83367 -0.00433591 -0.256054 
-0.00433591 -9.86411 0.0416532 
-0.256054 0.0416532 -9.93553 
-9.95493 -0.0133241 -0.229194 
-0.0133241 -9.85174 0.0280444 
-0.229194 0.0280444 -9.82665 
-9.84626 -0.00408062 -0.229821 
-0.00408062 -9.8887 0.00958658 
-0.229821 0.00958658 -9.89836 
-9.83847 -0.00597819 -0.199148 
-0.00597819 -9.87939 0.0200465 
-0.199148 0.0200465 -9.91546 
-9.8283 -0.0223679 0.0364835 
-0.0223679 -9.75025 -0.2591 
0.0364835 -0.2591 -9.85336 
-9.78633 -0.0382007 0.072261 
-0.0382007 -9.74685 -0.246827 
0.072261 -0.246827 -9.89873 
-9.82804 -0.0330746 0.027203 
-0.0330746 -9.74111 -0.250193 
0.027203 -0.250193 -9.86276 
-9.84617 -0.0313689 0.0532265 
-0.0313689 -9.76982 -0.23752 
0.0532265 -0.23752 -9.81592 
-9.84148 -2.44716e-05 0.00337569 
-2.44716e-05 -9.75886 0.259528 
0.00337569 0.259528 -9.87504 
-9.85453 0.0449478 0.00889301 
0.0449478 -9.79788 0.262324 
0.00889301 0.262324 -9.82296 
-9.85963 0.00225958 0.0176096 
0.00225958 -9.74516 0.246129 
0.0176096 0.246129 -9.87058 
-9.84954 -0.000389135 0.0322862 
-0.000389135 -9.74635 0.234532 
0.0322862 0.234532 -9.87948 
-9.89673 0.018906 -0.0140025 
0.018906 -9.89722 -0.0285592 
-0.0140025 -0.0285592 -9.98004 
-9.88399 0.0339998 0.00615517 
0.0339998 -9.91014 -0.061054 
0.00615517 -0.061054 -9.97985 
-9.88381 0.0254408 -0.0834224 
0.0254408 -9.89019 -0.0155413 
-0.0834224 -0.0155413 -9.99999 
-9.87085 -0.0212395 -0.106928 
-0.0212395 -9.92117 -0.0207024 
-0.106928 -0.0207024 -9.98197 
-9.87195 0.00599576 0.221753 
0.00599576 -9.88194 0.0927134 
0.221753 0.0927134 -9.89681 
-9.85828 0.0305481 0.236465 
0.0305481 -9.87126 0.0809402 
0.236465 0.0809402 -9.92116 
-9.89262 -0.0190766 0.220797 
-0.0190766 -9.86779 0.0866256 
0.220797 0.0866256 -9.89029 
-9.85409 0.0105615 0.231151 
0.0105615 -9.90309 0.083386 
0.231151 0.083386 -9.89352 
-9.40207 0.490048 -0.615343 
0.490048 -9.77318 -0.754007 
-0.615343 -0.754007 -9.74824 
-9.33814 0.163393 -0.30479 
0.163393 -9.85626 -0.458442 
-0.30479 -0.458442 -9.72909 
-9.9783 0.163431 0.0830294 
0.163431 -9.44265 -0.412274 
0.0830294 -0.412274 -9.50254 
-9.71785 0.339279 -0.509884 
0.339279 -9.4057 -0.330374 
-0.509884 -0.330374 -9.79993 
-9.8418 0.00257175 -0.230901 
0.00257175 -9.84001 0.0123764 
-0.230901 0.0123764 -9.88687 
-9.82129 -0.00867528 -0.227202 
-0.00867528 -9.86556 0.0250931 
-0.227202 0.0250931 -9.88184 
-9.83207 0.000542476 -0.229051 
0.000542476 -9.86868 0.0161791 
-0.229051 0.0161791 -9.86793 
-9.8358 0.00734494 -0.227737 
0.00734494 -9.86297 0.0222303 
-0.227737 0.0222303 -9.86992 
-10.1531 -0.0319097 -0.00620083 
-0.0319097 -10.1746 0.0078863 
-0.00620083 0.0078863 -10.3218 
-10.1198 0.0641178 0.0243735 
0.0641178 -10.1173 -0.0317564 
0.0243735 -0.0317564 -10.4123 
-10.0684 -0.205962 0.0595797 
-0.205962 -10.0875 0.0337489 
0.0595797 0.0337489 -10.4935 
-10.1801 0.140976 0.134818 
0.140976 -10.1863 -0.0843558 
0.134818 -0.0843558 -10.2831 
-9.91557 -0.00500242 0.0905239 
-0.00500242 -9.90624 -0.213587 
0.0905239 -0.213587 -9.95826 
-9.92056 0.00204422 0.0928671 
0.00204422 -9.91933 -0.214643 
0.0928671 -0.214643 -9.94018 
-9.9343 -0.0227478 0.0874871 
-0.0227478 -9.91233 -0.228097 
0.0874871 -0.228097 -9.93344 
-9.95021 -0.00751078 0.0944039 
-0.00751078 -9.91119 -0.230234 
0.0944039 -0.230234 -9.91867 
-10.0043 0.00790493 0.0381674 
0.00790493 -9.83861 0.244785 
0.0381674 0.244785 -9.72824 
-10.0082 0.0147861 0.0123673 
0.0147861 -9.84696 0.303812 
0.0123673 0.303812 -9.71597 
-10.0298 0.0197768 0.0413471 
0.0197768 -9.85666 0.330079 
0.0413471 0.330079 -9.68469 
-10.0611 -0.0633054 -0.0205204 
-0.0633054 -9.81304 0.315328 
-0.0205204 0.315328 -9.69701 
-9.75447 -0.186662 -0.139784 
-0.186662 -9.62677 0.173136 
-0.139784 0.173136 -10.0306 
-9.75802 -0.129412 -0.116736 
-0.129412 -9.71755 0.130422 
-0.116736 0.130422 -9.93624 
-9.75093 -0.125347 -0.0576913 
-0.125347 -9.68859 0.103941 
-0.0576913 0.103941 -9.97228 
-9.77211 -0.0349318 -0.107529 
-0.0349318 -9.7879 0.166985 
-0.107529 0.166985 -9.85179 
-9.90335 -0.0505517 -0.0154457 
-0.0505517 -9.88531 0.0648133 
-0.0154457 0.0648133 -10.0034 
-9.94807 -0.102039 -0.0493027 
-0.102039 -9.87507 0.0347011 
-0.0493027 0.0347011 -9.96888 
-9.88518 -0.0611045 -0.0155478 
-0.0611045 -9.87768 0.0453589 
-0.0155478 0.0453589 -10.0292 
-9.83092 -0.0677918 -0.00664824 
-0.0677918 -9.93209 0.0368798 
-0.00664824 0.0368798 -10.029 
-9.96518 0.000810157 -0.172539 
0.000810157 -9.96007 0.169626 
-0.172539 0.169626 -10.0072 
-9.97299 -0.0118329 -0.174289 
-0.0118329 -9.97347 0.179994 
-0.174289 0.179994 -9.98594 
-9.9753 -0.00847043 -0.175963 
-0.00847043 -9.96922 0.180117 
-0.175963 0.180117 -9.98787 
-9.98077 -0.00934216 -0.173667 
-0.00934216 -9.96352 0.184718 
-0.173667 0.184718 -9.98811 
-9.1803 -0.311667 0.790775 
-0.311667 -9.31364 -0.252105 
0.790775 -0.252105 -7.65555 
-9.24513 -0.24243 0.802229 
-0.24243 -9.30015 -0.194047 
0.802229 -0.194047 -7.6042 
-9.09782 -0.159856 0.867534 
-0.159856 -9.24635 -0.315619 
0.867534 -0.315619 -7.80531 
-9.23218 0.130007 0.708632 
0.130007 -9.67771 -0.101487 
0.708632 -0.101487 -7.2396 
-5.27174 1.10406 -0.592194 
1.10406 -3.17283 0.642116 
-0.592194 0.642116 -1.24671 
-4.83403 1.75932 0.40483 
1.75932 -5.71367 1.17853 
0.40483 1.17853 0.856414 
-2.34558 0.516162 -0.633724 
0.516162 -1.91327 -1.23821 
-0.633724 -1.23821 -5.43244 
-4.53978 -0.355415 -2.21422 
-0.355415 -4.15134 -1.18099 
-2.21422 -1.18099 -1.00017 
-9.56771 -0.116301 0.212027 
-0.116301 -9.76214 -0.20753 
0.212027 -0.20753 -9.95522 
-9.54315 -0.129813 0.330388 
-0.129813 -9.87753 -0.16862 
0.330388 -0.16862 -9.86439 
-9.60149 -0.0819425 0.321486 
-0.0819425 -9.8984 -0.0901775 
0.321486 -0.0901775 -9.78519 
-9.49834 -0.0966923 0.410527 
-0.0966923 -9.94612 -0.456502 
0.410527 -0.456502 -9.84061 
-9.6313 0.0150665 0.320937 
0.0150665 -10.0264 0.171965 
0.320937 0.171965 -9.58872 
-9.6814 0.0971856 0.36544 
0.0971856 -9.95082 0.151628 
0.36544 0.151628 -9.61418 
-9.63196 0.0203418 0.353247 
0.0203418 -9.90737 0.266035 
0.353247 0.266035 -9.70707 
-9.70463 0.159844 0.265559 
0.159844 -9.8624 0.0555715 
0.265559 0.0555715 -9.67936 
-9.94489 -0.0108338 0.0180597 
-0.0108338 -9.9782 0.0156769 
0.0180597 0.0156769 -9.98744 
-9.94771 -0.00254254 0.00292691 
-0.00254254 -9.98039 0.0174529 
0.00292691 0.0174529 -9.98244 
-9.94522 -0.0213655 0.0162327 
-0.0213655 -9.9741 0.0122044 
0.0162327 0.0122044 -9.99123 
-9.91691 -0.00344781 0.00805599 
-0.00344781 -9.99102 0.0157781 
0.00805599 0.0157781 -10.0026 
-9.77565 -0.0289753 0.0367045 
-0.0289753 -9.81036 -0.202301 
0.0367045 -0.202301 -9.84078 
-9.80644 -0.0176352 0.0372959 
-0.0176352 -9.77033 -0.210914 
0.0372959 -0.210914 -9.85001 
-9.79776 -0.0251688 0.031768 
-0.0251688 -9.78835 -0.211161 
0.031768 -0.211161 -9.84068 
-9.81194 -0.0310433 0.0316251 
-0.0310433 -9.77381 -0.211107 
0.0316251 -0.211107 -9.84103 
-10.3197 0.09478 -0.162396 
0.09478 -10.2677 -0.149332 
-0.162396 -0.149332 -10.9804 
-10.095 -0.0390105 -0.0476571 
-0.0390105 -10.5083 -0.0750742 
-0.0476571 -0.0750742 -10.9644 
-10.2221 0.0261284 -0.0242529 
0.0261284 -10.4636 -0.0880806 
-0.0242529 -0.0880806 -10.882 
-10.4255 0.212398 0.0850238 
0.212398 -10.3569 -0.0323976 
0.0850238 -0.0323976 -10.7855 
-9.82698 -0.0515951 0.0475504 
-0.0515951 -9.99368 -0.0846644 
0.0475504 -0.0846644 -9.78408 
-9.71781 -0.111601 0.169496 
-0.111601 -9.94219 -0.0483464 
0.169496 -0.0483464 -9.94474 
-9.62767 -0.0864841 0.0661351 
-0.0864841 -9.79789 0.0800718 
0.0661351 0.0800718 -10.1792 
-9.74928 -0.0919957 0.178051 
-0.0919957 -9.84229 -0.0774653 
0.178051 -0.0774653 -10.0132 
-9.8209 -0.00438133 0.264177 
-0.00438133 -9.84288 0.197308 
0.264177 0.197308 -9.72755 
-9.85481 0.00406137 0.229849 
0.00406137 -9.85562 0.23732 
0.229849 0.23732 -9.6809 
-9.77378 0.000988705 0.289132 
0.000988705 -9.86073 0.160391 
0.289132 0.160391 -9.75682 
-9.81507 0.00280361 0.255302 
0.00280361 -9.84243 0.201714 
0.255302 0.201714 -9.73383 
-9.89435 -0.133862 0.0524868 
-0.133862 -9.92067 -0.0195168 
0.0524868 -0.0195168 -10.1005 
-9.88613 -0.044767 0.0399291 
-0.044767 -9.96142 -0.0374413 
0.0399291 -0.0374413 -10.068 
-9.82927 -0.0103471 0.0728378 
-0.0103471 -9.97191 -0.0280185 
0.0728378 -0.0280185 -10.1143 
-9.92102 -0.133423 0.0116389 
-0.133423 -9.95057 -0.0208445 
0.0116389 -0.0208445 -10.0439 
-9.9168 -0.0496555 0.123134 
-0.0496555 -9.84475 -0.203711 
0.123134 -0.203711 -9.94813 
-9.89964 -0.0337575 0.129981 
-0.0337575 -9.86307 -0.223022 
0.129981 -0.223022 -9.94698 
-9.89422 -0.040711 0.135095 
-0.040711 -9.85852 -0.229824 
0.135095 -0.229824 -9.95694 
-9.92554 -0.00403241 0.141482 
-0.00403241 -9.86271 -0.225702 
0.141482 -0.225702 -9.92143 
-9.83876 -0.0123195 -0.237844 
-0.0123195 -9.88846 0.0067637 
-0.237844 0.0067637 -9.86915 
-9.83202 -0.00735896 -0.240321 
-0.00735896 -9.89654 0.00859414 
-0.240321 0.00859414 -9.86781 
-9.8247 -0.00615091 -0.244769 
-0.00615091 -9.87001 0.0463441 
-0.244769 0.0463441 -9.90166 
-9.83876 -0.00869048 -0.235871 
-0.00869048 -9.87422 0.0246964 
-0.235871 0.0246964 -9.88338 
-1.13979 -1.83695 3.14808 
-1.83695 -0.922974 1.29062 
3.14808 1.29062 -7.64408 
-5.26596 0.467323 1.8384 
0.467323 -4.11901 -0.0394127 
1.8384 -0.0394127 -0.321877 
-6.7146 -0.635628 0.000312818 
-0.635628 -5.78134 0.208116 
0.000312818 0.208116 2.7891 
-8.40886 0.224875 4.69468 
0.224875 -3.16392 -0.977446 
4.69468 -0.977446 1.86593 
-6.08683 -0.0506876 0.0557316 
-0.0506876 -2.78154 0.538684 
0.0557316 0.538684 -1.02403 
-7.45959 -4.21647 -1.4264 
-4.21647 -6.33392 -0.376074 
-1.4264 -0.376074 3.90111 
-2.83521 0.309631 -0.430838 
0.309631 -2.99808 0.244831 
-0.430838 0.244831 -4.05911 
-5.86233 -0.860504 3.65501 
-0.860504 -2.35252 1.59705 
3.65501 1.59705 -1.67754 
-10.2177 1.46195 -2.26188 
1.46195 -6.79457 -0.846289 
-2.26188 -0.846289 -23.5635 
-14.1075 0.569046 -0.226486 
0.569046 -11.7226 1.54262 
-0.226486 1.54262 -14.7457 
-11.3798 -0.494334 -0.580022 
-0.494334 -11.9055 0.552396 
-0.580022 0.552396 -17.2906 
-13.4921 1.19187 1.02543 
1.19187 -11.1313 -0.106812 
1.02543 -0.106812 -15.9524 
-9.99046 0.0672748 -0.0710839 
0.0672748 -10.3382 -0.076473 
-0.0710839 -0.076473 -10.6338 
-10.2358 0.0234673 -0.0719652 
0.0234673 -10.3567 0.0445618 
-0.0719652 0.0445618 -10.3699 
-10.3787 0.0211192 0.0400134 
0.0211192 -10.5057 0.087111 
0.0400134 0.087111 -10.0781 
-10.2272 0.0374759 -0.0732664 
0.0374759 -10.3287 0.184641 
-0.0732664 0.184641 -10.4066 
-7.96686 -0.394642 -0.691276 
-0.394642 -6.94973 0.445607 
-0.691276 0.445607 -7.84397 
-8.53989 0.626851 -0.832413 
0.626851 -9.09988 1.17437 
-0.832413 1.17437 -5.12079 
-10.3528 -0.362143 -0.60978 
-0.362143 -9.19273 -0.312454 
-0.60978 -0.312454 -3.21499 
-9.60963 0.133156 -0.684432 
0.133156 -8.51871 0.787356 
-0.684432 0.787356 -4.63222 
-9.57721 0.805596 -0.418482 
0.805596 -8.08396 -1.47427 
-0.418482 -1.47427 -9.75798 
-9.11689 0.758467 -0.367748 
0.758467 -8.33147 -1.09677 
-0.367748 -1.09677 -9.97078 
-8.67679 -0.0988768 0.474215 
-0.0988768 -9.65542 -1.89712 
0.474215 -1.89712 -9.08693 
-9.75657 0.871295 -0.141585 
0.871295 -7.65294 -0.60762 
-0.141585 -0.60762 -10.0096 
-9.17995 0.464288 0.733561 
0.464288 -9.67148 -0.4469 
0.733561 -0.4469 -10.4869 
-9.52061 0.142592 0.418546 
0.142592 -9.50986 -0.859874 
0.418546 -0.859874 -10.3079 
-9.27858 -0.0529651 0.50392 
-0.0529651 -9.60059 -1.12963 
0.50392 -1.12963 -10.4592 
-9.80077 -0.187989 0.381627 
-0.187989 -9.50983 -0.367334 
0.381627 -0.367334 -10.0277 
-9.50836 -0.23256 0.596395 
-0.23256 -10.0838 -0.299461 
0.596395 -0.299461 -9.86673 
-9.85396 0.00204459 0.392744 
0.00204459 -10.1533 -0.0842327 
0.392744 -0.0842327 -9.45157 
-9.54841 -0.168476 0.400667 
-0.168476 -9.98577 -0.12316 
0.400667 -0.12316 -9.9247 
-9.85059 -0.137999 0.408662 
-0.137999 -10.0034 -0.209454 
0.408662 -0.209454 -9.60487 
-9.98737 -0.0610752 0.155871 
-0.0610752 -10.0318 -0.0235383 
0.155871 -0.0235383 -10.2683 
-10.1089 -0.0434752 0.0124774 
-0.0434752 -10.1432 -0.00238441 
0.0124774 -0.00238441 -10.0353 
-10.1134 -0.00894734 0.031997 
-0.00894734 -10.0615 -0.00895124 
0.031997 -0.00895124 -10.1126 
-9.90771 -0.0241781 0.019849 
-0.0241781 -10.1188 -0.0641565 
0.019849 -0.0641565 -10.2609 
-11.27 0.224106 -0.165542 
0.224106 -11.2543 0.517965 
-0.165542 0.517965 -12.5169 
-12.0741 0.0960579 -0.472891 
0.0960579 -12.7192 1.0417 
-0.472891 1.0417 -10.2479 
-10.715 0.0482303 0.621556 
0.0482303 -10.2364 -0.656239 
0.621556 -0.656239 -14.0898 
-11.6769 -0.914768 0.575753 
-0.914768 -10.093 1.92049 
0.575753 1.92049 -13.2713 
-9.82801 0.0543357 0.0244554 
0.0543357 -9.8031 0.0460292 
0.0244554 0.0460292 -10.0117 
-9.8075 0.116361 0.028076 
0.116361 -9.78137 0.0614633 
0.028076 0.0614633 -10.0539 
-9.8359 0.0533628 0.0126044 
0.0533628 -9.7821 0.0598173 
0.0126044 0.0598173 -10.0248 
-9.8776 0.00774599 0.058528 
0.00774599 -9.7807 0.0681793 
0.058528 0.0681793 -9.98448 
-9.97458 0.00012368 -0.222457 
0.00012368 -9.97241 -0.103791 
-0.222457 -0.103791 -9.98355 
-9.97459 0.00327599 -0.221368 
0.00327599 -9.97637 -0.105954 
-0.221368 -0.105954 -9.97958 
-9.97006 0.0133718 -0.212555 
0.0133718 -9.95534 -0.116393 
-0.212555 -0.116393 -10.0051 
-9.97714 -0.00118471 -0.22175 
-0.00118471 -9.98526 -0.103056 
-0.22175 -0.103056 -9.96814 
-9.27675 -0.204271 -0.50746 
-0.204271 -9.96365 -0.00493505 
-0.50746 -0.00493505 -10.7195 
-9.47644 -0.107831 -0.596476 
-0.107831 -10.1143 -0.143354 
-0.596476 -0.143354 -10.3691 
-9.57711 0.0912436 -0.420249 
0.0912436 -9.92394 0.132496 
-0.420249 0.132496 -10.4589 
-9.1298 -0.136043 -0.533403 
-0.136043 -9.73556 -0.221689 
-0.533403 -0.221689 -11.0945 
-9.98398 0.0736448 -0.179085 
0.0736448 -9.87022 -0.267402 
-0.179085 -0.267402 -9.84157 
-9.95492 0.024265 -0.156225 
0.024265 -9.85893 -0.21982 
-0.156225 -0.21982 -9.88192 
-9.93221 0.0474792 -0.22377 
0.0474792 -9.9093 -0.244275 
-0.22377 -0.244275 -9.85427 
-9.9584 0.0406207 -0.19511 
0.0406207 -9.8956 -0.268823 
-0.19511 -0.268823 -9.84178 
-9.84798 -0.00646054 -0.100095 
-0.00646054 -9.83538 -0.0731011 
-0.100095 -0.0731011 -9.87634 
-9.79931 0.0811289 -0.141133 
0.0811289 -9.81926 -0.0976311 
-0.141133 -0.0976311 -9.94113 
-9.84619 0.0296089 -0.108525 
0.0296089 -9.82848 -0.0696274 
-0.108525 -0.0696274 -9.88504 
-9.86123 0.0179728 -0.0740239 
0.0179728 -9.78479 -0.0666336 
-0.0740239 -0.0666336 -9.91368 
-9.85081 0.014464 0.192007 
0.014464 -9.76164 0.294124 
0.192007 0.294124 -9.97149 
-9.83593 0.0813582 0.123879 
0.0813582 -9.7849 0.183718 
0.123879 0.183718 -9.96312 
-9.84739 0.0504903 0.14232 
0.0504903 -9.79513 0.201615 
0.14232 0.201615 -9.94143 
-9.82546 0.0129868 0.135671 
0.0129868 -9.80912 0.18905 
0.135671 0.18905 -9.94937 
-9.70992 0.0137985 -0.138812 
0.0137985 -9.78111 -0.0860439 
-0.138812 -0.0860439 -10.0056 
-9.70774 0.129294 -0.113983 
0.129294 -9.77464 -0.0770139 
-0.113983 -0.0770139 -10.0142 
-9.72621 0.143735 -0.118243 
0.143735 -9.79881 -0.0327709 
-0.118243 -0.0327709 -9.9716 
-9.82568 0.115341 -0.069405 
0.115341 -9.72384 -0.093224 
-0.069405 -0.093224 -9.9471 
-9.13355 0.0842969 0.579638 
0.0842969 -9.94893 -0.57993 
0.579638 -0.57993 -8.65845 
-9.27396 -0.0531705 0.675966 
-0.0531705 -9.74304 -0.508262 
0.675966 -0.508262 -8.72393 
-9.59748 -0.27019 0.181394 
-0.27019 -9.42028 -0.215897 
0.181394 -0.215897 -8.72318 
-9.18607 -0.0332486 0.598802 
-0.0332486 -9.486 -0.674681 
0.598802 -0.674681 -9.06886 
-9.7519 -0.136443 -0.160776 
-0.136443 -9.80134 0.288406 
-0.160776 0.288406 -10.0413 
-9.74407 -0.128247 -0.219364 
-0.128247 -9.89774 0.170954 
-0.219364 0.170954 -9.95273 
-9.7558 -0.0459136 -0.225102 
-0.0459136 -9.77489 0.173056 
-0.225102 0.173056 -10.0639 
-9.74471 -0.101558 -0.21645 
-0.101558 -9.82509 0.20561 
-0.21645 0.20561 -10.0247 
-9.9797 0.0015295 0.18309 
0.0015295 -10.0038 -0.17041 
0.18309 -0.17041 -9.9564 
-9.99022 -0.00744162 0.180439 
-0.00744162 -9.98992 -0.175561 
0.180439 -0.175561 -9.95979 
-9.94517 -0.0120546 0.166887 
-0.0120546 -9.93475 -0.15695 
0.166887 -0.15695 -10.06 
-9.98432 -0.0250249 0.208907 
-0.0250249 -9.98959 -0.201966 
0.208907 -0.201966 -9.96602 
-9.80099 0.0114496 -0.310181 
0.0114496 -9.86105 0.064769 
-0.310181 0.064769 -9.6161 
-9.73042 -0.0453607 -0.291542 
-0.0453607 -9.87065 0.0508006 
-0.291542 0.0508006 -9.67706 
-9.8085 -0.0103309 -0.339257 
-0.0103309 -9.97944 0.0712701 
-0.339257 0.0712701 -9.4902 
-9.74638 -0.0554473 -0.237948 
-0.0554473 -9.84429 0.132018 
-0.237948 0.132018 -9.68747 
-9.60456 0.0174135 -1.12801 
0.0174135 -9.45159 0.0998251 
-1.12801 0.0998251 -9.71013 
-9.87641 -0.29285 -0.37357 
-0.29285 -9.42588 0.265847 
-0.37357 0.265847 -9.46398 
-9.47378 0.0237867 -1.25428 
0.0237867 -9.66966 0.434933 
-1.25428 0.434933 -9.62285 
-10.2978 0.10685 -0.970347 
0.10685 -9.87228 0.0435657 
-0.970347 0.0435657 -8.59622 
-9.75253 -0.0612558 -0.2607 
-0.0612558 -9.84304 0.199483 
-0.2607 0.199483 -9.9783 
-9.78745 -0.0756307 -0.173147 
-0.0756307 -9.8057 0.139335 
-0.173147 0.139335 -9.98073 
-9.78129 -0.0545749 -0.219903 
-0.0545749 -9.82293 0.151652 
-0.219903 0.151652 -9.96966 
-9.8018 -0.00335816 -0.178385 
-0.00335816 -9.86805 0.117455 
-0.178385 0.117455 -9.90402 
-9.52833 -0.0210491 -0.102752 
-0.0210491 -9.96022 0.0177313 
-0.102752 0.0177313 -9.9188 
-9.60543 -0.00161831 -0.23744 
-0.00161831 -9.87653 0.00407039 
-0.23744 0.00407039 -9.9254 
-9.31463 0.0689349 -0.243349 
0.0689349 -9.97388 0.00959562 
-0.243349 0.00959562 -10.1188 
-9.49878 0.0119934 -0.194579 
0.0119934 -9.90156 -0.00633876 
-0.194579 -0.00633876 -10.007 
-9.93674 -0.0030135 -0.0233489 
-0.0030135 -9.8841 0.239105 
-0.0233489 0.239105 -9.95107 
-9.94121 -0.00515977 -0.0173097 
-0.00515977 -9.89295 0.235243 
-0.0173097 0.235243 -9.93775 
-9.9444 0.00647518 -0.0261734 
0.00647518 -9.88888 0.240944 
-0.0261734 0.240944 -9.93863 
-9.93673 -0.00863262 -0.027009 
-0.00863262 -9.90155 0.228018 
-0.027009 0.228018 -9.93362 
-10.0976 -0.0572463 0.0280967 
-0.0572463 -10.06 0.0120081 
0.0280967 0.0120081 -10.1253 
-10.0527 -0.067296 0.0456969 
-0.067296 -10.0176 0.0365965 
0.0456969 0.0365965 -10.2125 
-10.0454 0.0632559 -0.0146479 
0.0632559 -10.0603 0.0163061 
-0.0146479 0.0163061 -10.1772 
-10.0641 0.0866207 -0.0881142 
0.0866207 -10.0778 0.0879571 
-0.0881142 0.0879571 -10.1409 
-9.62114 0.0972566 -0.356658 
0.0972566 -9.60395 -0.313617 
-0.356658 -0.313617 -10.0655 
-9.61927 0.177964 -0.521674 
0.177964 -9.46132 -0.190197 
-0.521674 -0.190197 -10.21 
-9.9353 0.120142 -0.455078 
0.120142 -9.6083 -0.230875 
-0.455078 -0.230875 -9.74699 
-9.62544 0.158534 -0.39579 
0.158534 -9.58372 -0.372025 
-0.39579 -0.372025 -10.0814 
-9.84711 0.0286932 0.0372746 
0.0286932 -9.83836 0.0403464 
0.0372746 0.0403464 -10.0138 
-9.9454 0.0206862 0.0351157 
0.0206862 -9.7754 0.0455463 
0.0351157 0.0455463 -9.97845 
-9.77904 0.0816256 -0.0910207 
0.0816256 -9.93807 0.098527 
-0.0910207 0.098527 -9.98214 
-9.79726 -0.00548408 0.0843653 
-0.00548408 -9.87776 0.00532502 
0.0843653 0.00532502 -10.0242 
-7.65247 0.0972541 0.369735 
0.0972541 -7.56377 0.633899 
0.369735 0.633899 -7.6451 
-9.51634 -0.384667 0.52675 
-0.384667 -8.29724 0.332106 
0.52675 0.332106 -5.04775 
-10.3994 0.145175 -0.127353 
0.145175 -8.39363 0.858505 
-0.127353 0.858505 -4.06832 
-10.2069 -0.338722 0.87915 
-0.338722 -7.80157 0.984829 
0.87915 0.984829 -4.85286 
-9.78314 0.0532514 0.160342 
0.0532514 -9.75964 0.0556491 
0.160342 0.0556491 -9.80896 
-9.62609 0.0576709 0.120678 
0.0576709 -9.85926 0.0442416 
0.120678 0.0442416 -9.86639 
-9.83508 0.010514 0.170448 
0.010514 -9.74501 0.1006 
0.170448 0.1006 -9.77166 
-9.7232 0.0893319 0.214077 
0.0893319 -9.77479 0.0318851 
0.214077 0.0318851 -9.85375 
-9.88421 0.0204709 0.165078 
0.0204709 -9.93425 0.128879 
0.165078 0.128879 -9.86098 
-9.84857 0.00296251 0.0749988 
0.00296251 -9.8745 0.167696 
0.0749988 0.167696 -9.95637 
-9.87251 0.000981163 0.175507 
0.000981163 -9.82661 0.20835 
0.175507 0.20835 -9.98033 
-9.88091 0.052506 0.186522 
0.052506 -9.88389 0.171776 
0.186522 0.171776 -9.91465 
-9.72383 -0.0796018 0.0419876 
-0.0796018 -9.5881 -0.160746 
0.0419876 -0.160746 -9.97686 
-9.8307 -0.0673144 0.0522214 
-0.0673144 -9.62676 -0.208738 
0.0522214 -0.208738 -9.83133 
-9.86121 -0.0514182 0.0380441 
-0.0514182 -9.68333 -0.146597 
0.0380441 -0.146597 -9.74425 
-9.7841 -0.0438047 0.0828459 
-0.0438047 -9.65054 -0.218299 
0.0828459 -0.218299 -9.85414 
-8.41967 1.68194 2.77648 
1.68194 -9.651 1.81332 
2.77648 1.81332 -9.73609 
-9.55177 -0.0656527 0.833811 
-0.0656527 -9.65259 0.921234 
0.833811 0.921234 -8.6024 
-7.96781 0.854955 1.4144 
0.854955 -9.1363 0.0346898 
1.4144 0.0346898 -10.7026 
-9.33465 -0.532001 1.20837 
-0.532001 -10.3465 0.397653 
1.20837 0.397653 -8.12558 
-9.92103 0.00477631 0.153171 
0.00477631 -9.94603 -0.12132 
0.153171 -0.12132 -9.7006 
-9.89786 0.0182128 0.127635 
0.0182128 -9.91486 -0.0774912 
0.127635 -0.0774912 -9.75495 
-9.90554 -0.00289865 0.156911 
-0.00289865 -9.91473 -0.123357 
0.156911 -0.123357 -9.74739 
-9.90202 -0.00620429 0.159692 
-0.00620429 -9.89604 -0.146507 
0.159692 -0.146507 -9.76961 
-7.98954 -0.623437 -0.580788 
-0.623437 -7.08253 -0.437915 
-0.580788 -0.437915 -6.65302 
-7.95589 0.6684 -0.0991892 
0.6684 -8.80933 1.05905 
-0.0991892 1.05905 -4.95987 
-9.09781 0.634485 -0.778056 
0.634485 -8.7728 0.810414 
-0.778056 0.810414 -3.85448 
-9.49948 1.59588 -1.56831 
1.59588 -7.37687 0.515177 
-1.56831 0.515177 -4.84874 
-10.1052 -0.0302286 -0.0379902 
-0.0302286 -10.1644 0.00661979 
-0.0379902 0.00661979 -10.1208 
-10.043 -0.0324345 0.066695 
-0.0324345 -10.1069 0.0116452 
0.066695 0.0116452 -10.2405 
-10.1956 -0.0259758 -0.0618922 
-0.0259758 -10.1628 0.0350291 
-0.0618922 0.0350291 -10.0321 
-9.95881 -0.0849515 -0.0424475 
-0.0849515 -10.1888 0.0678386 
-0.0424475 0.0678386 -10.2429 
-9.9531 3.99179 -0.322966 
3.99179 -7.87635 3.1987 
-0.322966 3.1987 0.825118 
-5.76497 -0.933921 -0.262008 
-0.933921 -8.21118 1.09168 
-0.262008 1.09168 -3.02818 
-5.55128 -0.0871787 -2.13161 
-0.0871787 -9.04227 0.750827 
-2.13161 0.750827 -2.41079 
-6.21673 2.89679 -3.37509 
2.89679 -5.53904 -0.380158 
-3.37509 -0.380158 -5.24857 
-9.84095 -0.00869517 0.0913329 
-0.00869517 -9.92746 -0.0275695 
0.0913329 -0.0275695 -10.1074 
-9.93671 0.000301902 -0.055664 
0.000301902 -9.89069 -0.0627481 
-0.055664 -0.0627481 -10.0484 
-9.94939 0.013245 -0.0268853 
0.013245 -10.0746 0.0409088 
-0.0268853 0.0409088 -9.85177 
-10.0011 0.0994687 -0.0878781 
0.0994687 -9.91587 -0.0396067 
-0.0878781 -0.0396067 -9.9588 
-9.88 -0.0264401 0.00710416 
-0.0264401 -9.5054 -0.0920608 
0.00710416 -0.0920608 -9.8852 
-9.77808 -0.017204 0.0256096 
-0.017204 -9.63359 -0.225112 
0.0256096 -0.225112 -9.85893 
-9.83601 0.00265105 -0.0422664 
0.00265105 -9.48558 -0.146731 
-0.0422664 -0.146731 -9.94901 
-9.96036 0.0777492 -0.0187695 
0.0777492 -9.29854 -0.187647 
-0.0187695 -0.187647 -10.0117 
-9.94758 -0.00238072 -0.243278 
-0.00238072 -9.96808 0.00761826 
-0.243278 0.00761826 -9.98555 
-9.9346 0.0019629 -0.231616 
0.0019629 -9.9639 0.00646971 
-0.231616 0.00646971 -10.0027 
-9.95004 -0.00188934 -0.239693 
-0.00188934 -9.97276 0.0133339 
-0.239693 0.0133339 -9.97841 
-9.9518 -0.00354636 -0.244042 
-0.00354636 -9.978 0.0190497 
-0.244042 0.0190497 -9.9714 
-9.86632 -0.761672 0.0602873 
-0.761672 -9.90043 1.80228 
0.0602873 1.80228 -7.7753 
-7.69905 0.0349285 -0.484434 
0.0349285 -8.34245 1.20577 
-0.484434 1.20577 -11.5005 
-8.57294 0.0594532 -1.35425 
0.0594532 -9.42845 3.98567 
-1.35425 3.98567 -9.54066 
-10.1793 0.326867 -0.871573 
0.326867 -6.83069 1.04173 
-0.871573 1.04173 -10.5321 
-9.75928 -0.0500797 0.314888 
-0.0500797 -10.0216 -0.0397535 
0.314888 -0.0397535 -9.70774 
-9.75372 -0.0567591 0.312538 
-0.0567591 -10.0284 -0.0349882 
0.312538 -0.0349882 -9.70655 
-9.77558 -0.0328204 0.317425 
-0.0328204 -10.0296 -0.0121114 
0.317425 -0.0121114 -9.6834 
-9.73884 -0.0274662 0.33081 
-0.0274662 -10.027 -0.00483163 
0.33081 -0.00483163 -9.72278 
-9.90008 0.0779687 0.0661216 
0.0779687 -9.81843 0.104868 
0.0661216 0.104868 -10.3159 
-9.89225 0.104937 0.0306268 
0.104937 -9.78292 0.11372 
0.0306268 0.11372 -10.3592 
-9.8855 0.181341 0.0389729 
0.181341 -9.8331 0.0897432 
0.0389729 0.0897432 -10.3158 
-9.8919 0.0631635 0.0824629 
0.0631635 -9.85198 0.0942312 
0.0824629 0.0942312 -10.2905 
-9.86961 0.00568876 0.165243 
0.00568876 -9.85675 -0.14739 
0.165243 -0.14739 -9.90205 
-9.88774 0.0574613 0.143466 
0.0574613 -9.86206 -0.160492 
0.143466 -0.160492 -9.87859 
-9.8373 -0.0801365 0.117937 
-0.0801365 -9.87041 -0.147398 
0.117937 -0.147398 -9.92069 
-9.84031 -0.00172776 0.166959 
-0.00172776 -9.8616 -0.182623 
0.166959 -0.182623 -9.92649 
-9.86851 0.0431197 -0.0712426 
0.0431197 -9.67723 -0.245151 
-0.0712426 -0.245151 -9.90287 
-9.77962 -0.00226486 -0.0352901 
-0.00226486 -9.85478 -0.181036 
-0.0352901 -0.181036 -9.8142 
-9.81359 0.0305615 -0.0398903 
0.0305615 -9.82679 -0.191695 
-0.0398903 -0.191695 -9.80823 
-9.78402 0.0691765 -0.0839311 
0.0691765 -9.77543 -0.142385 
-0.0839311 -0.142385 -9.88916 
-9.8942 1.1427 -0.71149 
1.1427 -11.0496 -0.368554 
-0.71149 -0.368554 -12.6424 
-11.0186 0.89447 -0.0717376 
0.89447 -10.1123 -0.923195 
-0.0717376 -0.923195 -12.4553 
-11.1213 1.00278 1.03221 
1.00278 -10.3372 -0.405293 
1.03221 -0.405293 -12.1278 
-11.1475 0.237041 -0.306875 
0.237041 -10.6923 0.518116 
-0.306875 0.518116 -11.7465 
-9.89098 -0.0405601 -0.00148597 
-0.0405601 -9.63584 -0.0876884 
-0.00148597 -0.0876884 -9.88587 
-9.8398 -0.0317406 0.0252068 
-0.0317406 -9.65855 -0.103739 
0.0252068 -0.103739 -9.91433 
-9.86742 -0.0090273 -0.0181637 
-0.0090273 -9.69909 -0.163188 
-0.0181637 -0.163188 -9.84617 
-9.83072 0.00317901 0.122163 
0.00317901 -9.58573 -0.17722 
0.122163 -0.17722 -9.99623 
-9.80998 0.00460871 -0.226895 
0.00460871 -9.88396 -0.00932085 
-0.226895 -0.00932085 -9.86341 
-9.82374 0.0103537 -0.230272 
0.0103537 -9.86279 -0.0277225 
-0.230272 -0.0277225 -9.87081 
-9.84963 0.00192021 -0.232686 
0.00192021 -9.8303 -0.00762554 
-0.232686 -0.00762554 -9.87743 
-9.83359 0.000234973 -0.240091 
0.000234973 -9.85887 -0.017796 
-0.240091 -0.017796 -9.86489 
-9.90558 -0.0195426 0.222565 
-0.0195426 -9.93359 -0.0456142 
0.222565 -0.0456142 -9.92529 
-9.90688 0.00819254 0.264396 
0.00819254 -9.90852 -0.036013 
0.264396 -0.036013 -9.94905 
-9.88448 -0.00193293 0.243275 
-0.00193293 -9.91393 -0.0503129 
0.243275 -0.0503129 -9.96604 
-9.89475 -0.0164467 0.243071 
-0.0164467 -9.94002 -0.0534918 
0.243071 -0.0534918 -9.92968 
-9.55479 -0.0548742 0.107659 
-0.0548742 -9.84003 -0.0424391 
0.107659 -0.0424391 -9.89991 
-9.83279 -0.0072087 0.265955 
-0.0072087 -9.66064 -0.0754749 
0.265955 -0.0754749 -9.8013 
-9.54875 -0.0922841 0.181726 
-0.0922841 -9.7828 -0.065335 
0.181726 -0.065335 -9.96318 
-9.50582 -0.204378 0.163813 
-0.204378 -9.7966 -0.0821482 
0.163813 -0.0821482 -9.9923 
-9.9829 0.0100185 -0.206398 
0.0100185 -9.97233 -0.145331 
-0.206398 -0.145331 -9.99247 
-9.9866 0.00731628 -0.2057 
0.00731628 -9.9983 -0.14148 
-0.2057 -0.14148 -9.96279 
-9.95968 0.0207387 -0.186361 
0.0207387 -9.96165 -0.148779 
-0.186361 -0.148779 -10.0264 
-9.96454 0.0104145 -0.221348 
0.0104145 -10.0058 -0.160605 
-0.221348 -0.160605 -9.97731 
-9.73599 -0.073103 -0.0883588 
-0.073103 -9.69923 0.139137 
-0.0883588 0.139137 -9.98793 
-9.75171 -0.0672146 -0.101211 
-0.0672146 -9.75244 0.151297 
-0.101211 0.151297 -9.91901 
-9.83719 -0.034461 -0.0792109 
-0.034461 -9.73864 0.12867 
-0.0792109 0.12867 -9.84732 
-9.80365 -0.109378 -0.146244 
-0.109378 -9.74764 0.184065 
-0.146244 0.184065 -9.87186 
-9.8303 0.00630303 0.246145 
0.00630303 -9.85086 0.0195232 
0.246145 0.0195232 -9.86364 
-9.86633 -0.00589879 0.254384 
-0.00589879 -9.8273 0.0103643 
0.254384 0.0103643 -9.85116 
-9.81165 0.00204072 0.239581 
0.00204072 -9.8767 0.00413215 
0.239581 0.00413215 -9.85645 
-9.83084 -0.000731901 0.256613 
-0.000731901 -9.84738 0.0124244 
0.256613 0.0124244 -9.86658 
-9.63552 -0.0503268 -0.239888 
-0.0503268 -9.86244 0.0601474 
-0.239888 0.0601474 -9.84047 
-9.65764 -0.0491335 -0.248701 
-0.0491335 -9.84593 0.0461042 
-0.248701 0.0461042 -9.83485 
-9.67495 -0.0482825 -0.229597 
-0.0482825 -9.82186 0.0315045 
-0.229597 0.0315045 -9.84162 
-9.6911 0.0144437 -0.243359 
0.0144437 -9.84435 0.048567 
-0.243359 0.048567 -9.80299 
-9.86972 0.0341282 -0.158918 
0.0341282 -9.8723 0.153297 
-0.158918 0.153297 -9.88117 
-9.85019 -0.0144428 -0.154761 
-0.0144428 -9.86083 0.152881 
-0.154761 0.152881 -9.91217 
-9.85795 -0.0481045 -0.137164 
-0.0481045 -9.83782 0.140874 
-0.137164 0.140874 -9.92742 
-9.81519 -0.0158319 -0.152168 
-0.0158319 -9.8866 0.167113 
-0.152168 0.167113 -9.92139 
-9.94077 -0.0123077 0.217374 
-0.0123077 -9.9762 -0.155812 
0.217374 -0.155812 -9.94907 
-9.94564 -0.0172471 0.20264 
-0.0172471 -9.97158 -0.181611 
0.20264 -0.181611 -9.94881 
-9.96876 -0.0144659 0.195233 
-0.0144659 -9.90957 -0.1528 
0.195233 -0.1528 -9.98771 
-9.95353 -0.014826 0.197504 
-0.014826 -9.95807 -0.159061 
0.197504 -0.159061 -9.95444 
-9.76942 -0.044445 0.210958 
-0.044445 -9.87687 -0.0743618 
0.210958 -0.0743618 -9.92793 
-9.75087 -0.0363526 0.31904 
-0.0363526 -9.94469 -0.134648 
0.31904 -0.134648 -9.87866 
-9.71104 -0.0824466 0.298481 
-0.0824466 -9.96385 -0.155739 
0.298481 -0.155739 -9.89933 
-9.7223 0.00356559 0.35816 
0.00356559 -9.98825 -0.0857311 
0.35816 -0.0857311 -9.86367 
-9.78491 -0.0172608 -0.281075 
-0.0172608 -10.0019 0.103944 
-0.281075 0.103944 -9.82057 
-9.84135 -0.0312045 -0.336615 
-0.0312045 -9.97071 0.0537246 
-0.336615 0.0537246 -9.79532 
-9.7824 -0.0305218 -0.247172 
-0.0305218 -9.90105 0.0719316 
-0.247172 0.0719316 -9.92393 
-9.83984 -0.0149069 -0.290686 
-0.0149069 -9.97802 0.0992489 
-0.290686 0.0992489 -9.78952 
-9.77069 -0.0836162 -0.131643 
-0.0836162 -9.82464 0.126195 
-0.131643 0.126195 -9.89488 
-9.84998 -0.0417179 -0.171821 
-0.0417179 -9.78852 0.149297 
-0.171821 0.149297 -9.85171 
-9.73745 0.00324278 -0.162074 
0.00324278 -9.79065 0.105076 
-0.162074 0.105076 -9.96211 
-9.78518 -0.0323158 -0.178084 
-0.0323158 -9.74034 0.151413 
-0.178084 0.151413 -9.96469 
-6.57509 -0.043 -2.55899 
-0.043 -11.1571 -5.78152 
-2.55899 -5.78152 -7.42205 
-11.8163 2.21704 -3.31358 
2.21704 -9.38877 -7.61247 
-3.31358 -7.61247 -3.94913 
-11.3726 1.39971 -1.23419 
1.39971 -4.67855 -1.96495 
-1.23419 -1.96495 -9.10309 
-6.81254 -0.285358 -2.5754 
-0.285358 -12.2548 -0.339323 
-2.5754 -0.339323 -6.0869 
-7.09615 2.02265 -1.29711 
2.02265 -10.0716 -0.312191 
-1.29711 -0.312191 -3.72702 
-7.15981 1.79713 -0.898159 
1.79713 -7.97548 0.240869 
-0.898159 0.240869 -5.7595 
-7.99543 1.64338 -1.9526 
1.64338 -8.21112 -0.0283723 
-1.9526 -0.0283723 -4.68824 
-6.55264 1.77801 -2.48834 
1.77801 -6.99849 -0.0595226 
-2.48834 -0.0595226 -7.34366 
-9.90505 -0.00854585 0.0279933 
-0.00854585 -9.94627 -0.00338661 
0.0279933 -0.00338661 -9.9797 
-9.9137 -0.015448 0.021841 
-0.015448 -9.91647 0.00489433 
0.021841 0.00489433 -10.0008 
-9.89513 -0.00852146 0.0340967 
-0.00852146 -9.90482 -0.0255815 
0.0340967 -0.0255815 -10.0311 
-9.90982 -0.0154652 0.0176083 
-0.0154652 -9.92635 -0.000227432 
0.0176083 -0.000227432 -9.99485 
-10.0084 0.0120818 -0.140869 
0.0120818 -9.99174 -0.203536 
-0.140869 -0.203536 -9.94776 
-9.999 -0.007445 -0.119514 
-0.007445 -9.96111 -0.204087 
-0.119514 -0.204087 -9.98776 
-9.93765 -0.00691688 -0.114294 
-0.00691688 -9.94251 -0.196132 
-0.114294 -0.196132 -10.0677 
-10.0094 0.0192444 -0.107166 
0.0192444 -9.98192 -0.212707 
-0.107166 -0.212707 -9.95651 
-9.60319 0.0555691 -0.10368 
0.0555691 -9.95768 0.0574519 
-0.10368 0.0574519 -9.92398 
-9.70347 0.0359835 -0.0844044 
0.0359835 -9.8257 -0.0721072 
-0.0844044 -0.0721072 -9.95568 
-9.71094 0.0530219 -0.187902 
0.0530219 -9.8781 0.034545 
-0.187902 0.034545 -9.8958 
-9.62508 0.0618202 -0.185615 
0.0618202 -9.88895 -0.0970352 
-0.185615 -0.0970352 -9.97081 
-9.80662 0.0342221 0.100466 
0.0342221 -9.74285 0.167314 
0.100466 0.167314 -9.85657 
-9.79841 0.0328593 0.0946767 
0.0328593 -9.73428 0.202195 
0.0946767 0.202195 -9.87335 
-9.79865 0.0449783 0.101835 
0.0449783 -9.72795 0.197159 
0.101835 0.197159 -9.87944 
-9.78451 0.0247071 0.0995124 
0.0247071 -9.7518 0.218456 
0.0995124 0.218456 -9.86972 
-9.95499 -0.00221207 0.090382 
-0.00221207 -9.96737 -0.214699 
0.090382 -0.214699 -9.99634 
-9.98154 -0.0117025 0.0961507 
-0.0117025 -9.96363 -0.214806 
0.0961507 -0.214806 -9.97354 
-9.96429 -0.00242934 0.0868937 
-0.00242934 -9.95049 -0.227883 
0.0868937 -0.227883 -10.0039 
-9.98868 -0.00125586 0.0904358 
-0.00125586 -9.96109 -0.207583 
0.0904358 -0.207583 -9.96893 
-9.90952 -0.0293703 -0.152629 
-0.0293703 -9.91307 0.175757 
-0.152629 0.175757 -9.96452 
-9.92686 -0.00720504 -0.163609 
-0.00720504 -9.90954 0.187596 
-0.163609 0.187596 -9.9507 
-9.92123 -0.010909 -0.159054 
-0.010909 -9.91359 0.18551 
-0.159054 0.18551 -9.95229 
-9.92221 -0.0204655 -0.164474 
-0.0204655 -9.92325 0.177407 
-0.164474 0.177407 -9.94165 
-9.86815 0.0702278 -0.0747363 
0.0702278 -9.82979 -0.0866333 
-0.0747363 -0.0866333 -10.2533 
-9.9163 0.0971434 -0.137948 
0.0971434 -9.82832 -0.164904 
-0.137948 -0.164904 -10.2066 
-9.90196 0.0818374 -0.0873343 
0.0818374 -9.85001 -0.125567 
-0.0873343 -0.125567 -10.1993 
-9.92825 0.103615 -0.05779 
0.103615 -9.88728 -0.123693 
-0.05779 -0.123693 -10.1357 
-9.85771 0.0216442 -0.0420821 
0.0216442 -9.93945 0.0147533 
-0.0420821 0.0147533 -9.95004 
-9.87715 -0.0247549 -0.0264464 
-0.0247549 -9.89629 0.0334184 
-0.0264464 0.0334184 -9.97378 
-9.89546 -0.0462038 -0.0205782 
-0.0462038 -9.89954 0.0479248 
-0.0205782 0.0479248 -9.95222 
-9.89429 0.0173344 -0.0136784 
0.0173344 -9.87535 0.040391 
-0.0136784 0.040391 -9.97758 
-8.79015 -0.0550166 -2.50919 
-0.0550166 -10.2411 0.36917 
-2.50919 0.36917 -10.5233 
-9.43875 0.310103 -1.94584 
0.310103 -10.8909 1.09202 
-1.94584 1.09202 -9.22493 
-10.8212 -0.662681 -1.79681 
-0.662681 -9.14379 0.230803 
-1.79681 0.230803 -9.5896 
-9.35514 -1.45345 -0.428341 
-1.45345 -9.15822 0.0783133 
-0.428341 0.0783133 -11.0412 
-9.83998 -0.0353157 0.232672 
-0.0353157 -9.87498 -0.184496 
0.232672 -0.184496 -9.92033 
-9.8258 -0.0245116 0.221347 
-0.0245116 -9.8819 -0.189626 
0.221347 -0.189626 -9.9276 
-9.82546 -0.028958 0.224965 
-0.028958 -9.85966 -0.194551 
0.224965 -0.194551 -9.95018 
-9.88121 -0.0420179 0.181694 
-0.0420179 -9.84493 -0.132595 
0.181694 -0.132595 -9.90915 
-9.94003 0.0382207 0.015004 
0.0382207 -9.88225 0.032428 
0.015004 0.032428 -10.0165 
-9.93039 0.0343503 -0.00776681 
0.0343503 -9.88764 -0.0126955 
-0.00776681 -0.0126955 -10.0207 
-9.94501 0.00950929 0.0201848 
0.00950929 -9.88247 0.00828565 
0.0201848 0.00828565 -10.0113 
-9.93814 0.0135468 -0.0388076 
0.0135468 -9.86124 -0.0290691 
-0.0388076 -0.0290691 -10.0394 
-9.9499 -0.00440997 -0.137123 
-0.00440997 -9.94727 0.239046 
-0.137123 0.239046 -9.989 
-9.98592 -0.00542214 -0.118261 
-0.00542214 -9.93217 0.243831 
-0.118261 0.243831 -9.96808 
-9.94629 0.0160187 -0.0994378 
0.0160187 -9.9359 0.173875 
-0.0994378 0.173875 -10.004 
-9.9777 -0.00998028 -0.128745 
-0.00998028 -9.92695 0.189582 
-0.128745 0.189582 -9.98152 
-9.96964 -0.0649401 0.0403834 
-0.0649401 -9.93462 -0.0209791 
0.0403834 -0.0209791 -10.0172 
-9.92753 0.0107386 -0.028549 
0.0107386 -10.0002 0.109984 
-0.028549 0.109984 -9.99378 
-10.0003 -0.0521216 0.0346262 
-0.0521216 -9.91473 -0.0276564 
0.0346262 -0.0276564 -10.0065 
-9.98718 -0.0979102 0.0217153 
-0.0979102 -9.87415 0.019648 
0.0217153 0.019648 -10.0602 
-9.90553 -0.0325029 -0.152998 
-0.0325029 -9.75777 0.290334 
-0.152998 0.290334 -9.80136 
-9.77866 -0.0646179 -0.0728802 
-0.0646179 -9.87444 0.238218 
-0.0728802 0.238218 -9.81156 
-9.8772 -0.0402111 -0.209643 
-0.0402111 -9.73189 0.265592 
-0.209643 0.265592 -9.85558 
-9.98782 -0.0218695 -0.147664 
-0.0218695 -9.72006 0.27818 
-0.147664 0.27818 -9.75677 
-9.72719 -0.0466359 0.0529677 
-0.0466359 -9.75154 -0.0703101 
0.0529677 -0.0703101 -9.94374 
-9.74759 -0.0511866 0.0596664 
-0.0511866 -9.73805 -0.0777585 
0.0596664 -0.0777585 -9.93683 
-9.76278 -0.0620971 0.0506338 
-0.0620971 -9.76328 -0.0793405 
0.0506338 -0.0793405 -9.89641 
-9.73914 -0.0662315 0.06245 
-0.0662315 -9.73665 -0.0734616 
0.06245 -0.0734616 -9.94667 
-9.71854 0.161626 0.334014 
0.161626 -9.85865 0.113879 
0.334014 0.113879 -9.9642 
-9.80848 0.00396268 0.435135 
0.00396268 -10.1172 -0.0302061 
0.435135 -0.0302061 -9.61574 
-9.89937 0.0269268 0.401674 
0.0269268 -10.1313 0.0571397 
0.401674 0.0571397 -9.51074 
-9.63146 0.0233844 0.382894 
0.0233844 -10.2207 -0.0980543 
0.382894 -0.0980543 -9.6892 
-9.80815 -0.0170303 0.0938933 
-0.0170303 -9.72051 -0.141473 
0.0938933 -0.141473 -9.95884 
-9.73184 -0.0793262 0.135437 
-0.0793262 -9.76883 -0.119291 
0.135437 -0.119291 -9.98683 
-9.79218 -0.155518 0.0983849 
-0.155518 -9.6439 -0.134293 
0.0983849 -0.134293 -10.0514 
-9.71514 -0.0883381 0.114954 
-0.0883381 -9.83879 -0.0660746 
0.114954 -0.0660746 -9.93357 
-10.0192 -0.02169 -0.0690992 
-0.02169 -10.0545 -0.024439 
-0.0690992 -0.024439 -9.48944 
-9.97572 -0.0524094 -0.0273577 
-0.0524094 -9.90615 -0.0323699 
-0.0273577 -0.0323699 -9.68125 
-10.0054 -0.0280942 -0.0388675 
-0.0280942 -10.0301 -0.0617398 
-0.0388675 -0.0617398 -9.52764 
-10.0524 0.0300019 -0.0903973 
0.0300019 -10.028 -0.181685 
-0.0903973 -0.181685 -9.48267 
-9.76728 -0.0828956 -0.0229526 
-0.0828956 -9.76899 -0.120598 
-0.0229526 -0.120598 -9.86099 
-9.79244 -0.176272 0.22818 
-0.176272 -9.69649 -0.106227 
0.22818 -0.106227 -9.90833 
-9.73867 -0.0260598 0.18928 
-0.0260598 -9.86881 -0.0592718 
0.18928 -0.0592718 -9.78977 
-9.71379 -0.0112989 0.0500575 
-0.0112989 -9.72127 -0.2604 
0.0500575 -0.2604 -9.96219 
-9.81826 0.00300541 -0.0229031 
0.00300541 -9.69819 -0.213817 
-0.0229031 -0.213817 -9.83477 
-9.80354 0.021125 -0.0262296 
0.021125 -9.72701 -0.178055 
-0.0262296 -0.178055 -9.82067 
-9.75089 0.00781858 -0.000928662 
0.00781858 -9.89286 -0.14481 
-0.000928662 -0.14481 -9.70747 
-9.79744 -0.00468047 -0.0251197 
-0.00468047 -9.72129 -0.143261 
-0.0251197 -0.143261 -9.8325 
-9.8636 0.088772 0.0475549 
0.088772 -9.4762 0.152117 
0.0475549 0.152117 -9.91676 
-9.75833 0.03882 0.089642 
0.03882 -9.64911 0.246713 
0.089642 0.246713 -9.84912 
-9.75182 0.0825225 0.100588 
0.0825225 -9.57337 0.176015 
0.100588 0.176015 -9.93137 
-9.87171 0.237991 0.14149 
0.237991 -9.41892 0.239479 
0.14149 0.239479 -9.96593 
-9.86248 -0.0144693 0.201255 
-0.0144693 -9.83352 0.127686 
0.201255 0.127686 -9.87487 
-9.82905 0.0625264 0.148197 
0.0625264 -9.84044 0.115152 
0.148197 0.115152 -9.90137 
-9.86848 -0.0348492 0.190601 
-0.0348492 -9.8513 0.132147 
0.190601 0.132147 -9.85108 
-9.80264 0.00790847 0.182129 
0.00790847 -9.8499 0.16495 
0.182129 0.16495 -9.91832 
-9.78305 0.0559591 0.277677 
0.0559591 -9.86873 0.250092 
0.277677 0.250092 -9.768 
-9.79067 -0.00475297 0.238394 
-0.00475297 -9.8776 0.191627 
0.238394 0.191627 -9.75152 
-9.82778 0.0435963 0.217087 
0.0435963 -9.80646 0.186672 
0.217087 0.186672 -9.78555 
-9.80263 0.0214384 0.249443 
0.0214384 -9.85486 0.237266 
0.249443 0.237266 -9.7623 
-10.0386 0.0350449 -0.0049021 
0.0350449 -9.966 -0.00230204 
-0.0049021 -0.00230204 -10.1666 
-10.0388 0.0678792 0.0593185 
0.0678792 -9.98297 0.0536042 
0.0593185 0.0536042 -10.1494 
-10.0552 0.0274226 -0.0146364 
0.0274226 -9.95841 -0.0070163 
-0.0146364 -0.0070163 -10.1576 
-10.0251 0.036963 -0.0246822 
0.036963 -9.94905 -0.0215737 
-0.0246822 -0.0215737 -10.197 
-9.921 -0.0125834 -0.106053 
-0.0125834 -9.9037 0.196232 
-0.106053 0.196232 -9.93436 
-9.92919 -0.0211401 -0.113692 
-0.0211401 -9.88315 0.219508 
-0.113692 0.219508 -9.94672 
-9.90491 0.000247218 -0.12042 
0.000247218 -9.90739 0.228556 
-0.12042 0.228556 -9.94675 
-9.90627 -0.00941992 -0.114584 
-0.00941992 -9.89743 0.218588 
-0.114584 0.218588 -9.95536 
-9.94197 -0.00261524 -0.240237 
-0.00261524 -9.95442 -0.00726095 
-0.240237 -0.00726095 -10.0079 
-9.96212 0.00434263 -0.236578 
0.00434263 -9.97362 -0.0110969 
-0.236578 -0.0110969 -9.96855 
-9.94926 0.00226964 -0.230868 
0.00226964 -9.96718 -0.00739735 
-0.230868 -0.00739735 -9.98786 
-9.95764 0.00518337 -0.22712 
0.00518337 -9.97761 -0.0221478 
-0.22712 -0.0221478 -9.96903 
-9.91345 -0.00318237 -0.215587 
-0.00318237 -9.92472 0.0533781 
-0.215587 0.0533781 -9.93903 
-9.90881 -0.00730099 -0.231086 
-0.00730099 -9.93214 0.0635348 
-0.231086 0.0635348 -9.93625 
-9.90676 -0.00548042 -0.232232 
-0.00548042 -9.92412 0.0605588 
-0.232232 0.0605588 -9.94631 
-9.91591 -0.0172879 -0.230908 
-0.0172879 -9.93035 0.0686049 
-0.230908 0.0686049 -9.93094 
-9.77809 0.0102963 -0.103614 
0.0102963 -9.87823 0.182766 
-0.103614 0.182766 -9.85268 
-9.82085 -0.0966918 -0.0896493 
-0.0966918 -9.74008 0.143218 
-0.0896493 0.143218 -9.94807 
-9.82692 -0.0205006 -0.0893192 
-0.0205006 -9.82585 0.181172 
-0.0893192 0.181172 -9.85622 
-9.83791 0.0194363 -0.142435 
0.0194363 -9.75556 0.202161 
-0.142435 0.202161 -9.91552 
-9.79568 0.0483901 0.154596 
0.0483901 -9.79373 0.0728429 
0.154596 0.0728429 -9.89014 
-9.77899 0.0527081 0.157405 
0.0527081 -9.80609 0.0894956 
0.157405 0.0894956 -9.89447 
-9.80917 0.0298203 0.151131 
0.0298203 -9.79852 0.0778363 
0.151131 0.0778363 -9.87187 
-9.79611 0.0334452 0.138963 
0.0334452 -9.79636 0.0781187 
0.138963 0.0781187 -9.88708 
-9.90699 -0.0107127 -0.1681 
-0.0107127 -9.90471 0.0152298 
-0.1681 0.0152298 -9.78099 
-9.93732 0.0166962 -0.210489 
0.0166962 -9.93401 -0.00428704 
-0.210489 -0.00428704 -9.72136 
-9.86848 -0.000204372 -0.228771 
-0.000204372 -9.92643 0.00964724 
-0.228771 0.00964724 -9.79778 
-9.89875 0.00603892 -0.207803 
0.00603892 -9.92557 0.005937 
-0.207803 0.005937 -9.76836 
-9.75274 0.0696757 -0.0861987 
0.0696757 -9.7854 -0.0763342 
-0.0861987 -0.0763342 -9.8905 
-9.756 0.0308284 -0.139464 
0.0308284 -9.77231 -0.117888 
-0.139464 -0.117888 -9.90033 
-9.73838 0.0585625 -0.154952 
0.0585625 -9.74063 -0.137715 
-0.154952 -0.137715 -9.94962 
-9.77975 0.0153237 -0.212956 
0.0153237 -9.85752 -0.132685 
-0.212956 -0.132685 -9.79137 
-9.97709 -0.0137813 0.161187 
-0.0137813 -9.93232 -0.206624 
0.161187 -0.206624 -9.92741 
-9.89334 -0.0273048 0.158921 
-0.0273048 -9.9665 -0.185368 
0.158921 -0.185368 -9.97698 
-9.95947 -0.0201065 0.191566 
-0.0201065 -9.94869 -0.198175 
0.191566 -0.198175 -9.92866 
-9.95796 -0.0177032 0.168032 
-0.0177032 -9.94121 -0.198421 
0.168032 -0.198421 -9.93764 
-9.9405 0.0173691 0.123762 
0.0173691 -9.92022 0.172825 
0.123762 0.172825 -9.92259 
-9.92162 0.0112506 0.140062 
0.0112506 -9.91465 0.21786 
0.140062 0.21786 -9.94705 
-9.91934 -0.00725392 0.126317 
-0.00725392 -9.91587 0.185969 
0.126317 0.185969 -9.94811 
-9.9238 0.00605635 0.13822 
0.00605635 -9.9027 0.199129 
0.13822 0.199129 -9.95682 
-9.81055 -0.364283 0.722348 
-0.364283 -9.77592 -0.436367 
0.722348 -0.436367 -9.69221 
-10.119 -0.376172 -0.0139979 
-0.376172 -9.51673 -0.177711 
-0.0139979 -0.177711 -9.64296 
-9.53981 -0.238211 0.481988 
-0.238211 -9.62899 -0.258068 
0.481988 -0.258068 -10.1099 
-9.35955 -0.347085 0.541996 
-0.347085 -9.43723 -0.337574 
0.541996 -0.337574 -10.4819 
-9.57698 0.0955025 -0.0955345 
0.0955025 -9.78431 -0.0395288 
-0.0955345 -0.0395288 -10.0117 
-9.73526 0.0834241 -0.221347 
0.0834241 -9.806 -0.0730803 
-0.221347 -0.0730803 -9.83176 
-9.68622 0.029609 -0.224661 
0.029609 -9.86776 -0.0320951 
-0.224661 -0.0320951 -9.81905 
-9.4229 0.153901 -0.334435 
0.153901 -9.97072 -0.13929 
-0.334435 -0.13929 -9.9794 
-9.81451 0.0287402 -0.0212316 
0.0287402 -9.93724 0.0361513 
-0.0212316 0.0361513 -9.90002 
-9.80987 0.0899738 0.0141843 
0.0899738 -9.61335 -0.0685587 
0.0141843 -0.0685587 -10.2286 
-9.83721 -0.0848105 -0.0179239 
-0.0848105 -9.84264 -0.0308557 
-0.0179239 -0.0308557 -9.97193 
-9.91581 0.135763 0.171981 
0.135763 -9.89522 0.0603392 
0.171981 0.0603392 -9.84074 
-9.852 -0.046674 -0.0744279 
-0.046674 -9.7017 0.239834 
-0.0744279 0.239834 -9.8655 
-9.7726 -0.00627449 -0.0343557 
-0.00627449 -9.89139 0.168306 
-0.0343557 0.168306 -9.7552 
-9.79627 -0.0280888 -0.0487341 
-0.0280888 -9.79111 0.182205 
-0.0487341 0.182205 -9.83181 
-9.79138 -0.0382612 -0.0667187 
-0.0382612 -9.75212 0.147409 
-0.0667187 0.147409 -9.8757 
-8.99044 -2.63872 4.42006 
-2.63872 -5.97174 1.87862 
4.42006 1.87862 -6.3057 
-9.52526 -0.228891 2.34798 
-0.228891 -5.88073 1.03508 
2.34798 1.03508 -5.86189 
-9.77781 -1.64473 3.20713 
-1.64473 -6.33012 0.763655 
3.20713 0.763655 -5.15994 
-9.95937 -1.42157 3.06033 
-1.42157 -6.25958 0.862167 
3.06033 0.862167 -5.04893 
-9.96874 0.00338084 0.205982 
0.00338084 -9.97065 0.136982 
0.205982 0.136982 -9.9932 
-9.97123 0.00497185 0.207375 
0.00497185 -9.98155 0.14228 
0.207375 0.14228 -9.9798 
-9.97074 0.00972637 0.195038 
0.00972637 -9.96576 0.134913 
0.195038 0.134913 -9.99609 
-9.96659 0.00707586 0.209459 
0.00707586 -9.9824 0.141427 
0.209459 0.141427 -9.9836 
-9.82223 0.034199 0.23967 
0.034199 -9.69093 0.42291 
0.23967 0.42291 -9.32515 
-9.82158 0.00284484 0.238685 
0.00284484 -9.60856 0.387358 
0.238685 0.387358 -9.40816 
-9.80801 0.0887934 0.271195 
0.0887934 -9.66441 0.196535 
0.271195 0.196535 -9.36588 
-9.80136 0.0220597 0.21116 
0.0220597 -9.6278 0.367563 
0.21116 0.367563 -9.40914 
-10.4181 -0.277546 0.548723 
-0.277546 -9.15264 -0.827957 
0.548723 -0.827957 -8.18167 
-10.2248 0.0949917 0.319718 
0.0949917 -9.24146 -0.266191 
0.319718 -0.266191 -8.28619 
-10.2396 0.381987 0.808989 
0.381987 -9.29917 -0.346571 
0.808989 -0.346571 -8.21372 
-10.9109 0.0261514 0.0891343 
0.0261514 -8.75905 -0.544087 
0.0891343 -0.544087 -8.08253 
-9.92711 -0.0184271 -0.198845 
-0.0184271 -9.92948 0.125327 
-0.198845 0.125327 -9.94763 
-9.93057 0.00058008 -0.185664 
0.00058008 -9.92721 0.128331 
-0.185664 0.128331 -9.94644 
-9.9213 -0.0087026 -0.19364 
-0.0087026 -9.92547 0.131672 
-0.19364 0.131672 -9.95745 
-9.91753 -0.0136864 -0.198916 
-0.0136864 -9.94467 0.131918 
-0.198916 0.131918 -9.94203 
-9.93694 -0.0128821 -0.182628 
-0.0128821 -9.96538 0.136739 
-0.182628 0.136739 -9.98145 
-9.94706 -0.0074675 -0.186657 
-0.0074675 -9.94082 0.132956 
-0.186657 0.132956 -9.99589 
-9.95059 0.00468243 -0.207618 
0.00468243 -9.95252 0.14852 
-0.207618 0.14852 -9.98064 
-9.95146 -0.0060968 -0.209632 
-0.0060968 -9.96243 0.141625 
-0.209632 0.141625 -9.96987 
-9.94024 0.0182744 0.070442 
0.0182744 -9.91623 0.232194 
0.070442 0.232194 -9.95571 
-9.94058 0.0115518 0.0652385 
0.0115518 -9.92338 0.220111 
0.0652385 0.220111 -9.94822 
-9.93327 0.00140961 0.0716047 
0.00140961 -9.93501 0.21925 
0.0716047 0.21925 -9.9439 
-9.94831 0.0118212 0.0657427 
0.0118212 -9.90952 0.211884 
0.0657427 0.211884 -9.95434 
-9.73855 -0.0874442 -0.0324316 
-0.0874442 -9.92865 -0.105828 
-0.0324316 -0.105828 -9.98705 
-9.9906 0.0438769 -0.0572474 
0.0438769 -9.76185 -0.0446938 
-0.0572474 -0.0446938 -9.9018 
-10.1208 0.0303506 0.0982784 
0.0303506 -9.67152 0.122948 
0.0982784 0.122948 -9.86191 
-9.87598 -0.051502 0.00582618 
-0.051502 -9.5637 -0.126621 
0.00582618 -0.126621 -10.2146 
-9.79498 -0.00202834 -0.216508 
-0.00202834 -9.82351 0.0222668 
-0.216508 0.0222668 -9.84917 
-9.87414 -0.015164 -0.224177 
-0.015164 -9.76815 0.041283 
-0.224177 0.041283 -9.82537 
-9.76293 -0.0136328 -0.200153 
-0.0136328 -9.86228 0.0303141 
-0.200153 0.0303141 -9.84245 
-9.79932 -0.0115033 -0.233817 
-0.0115033 -9.81775 0.0291339 
-0.233817 0.0291339 -9.8506 
-9.75268 -0.0296627 -0.221912 
-0.0296627 -9.8451 0.169263 
-0.221912 0.169263 -9.98074 
-9.70984 -0.0841135 -0.236303 
-0.0841135 -9.91952 0.203773 
-0.236303 0.203773 -9.94917 
-9.76112 -0.0941573 -0.285837 
-0.0941573 -9.84884 0.188496 
-0.285837 0.188496 -9.96856 
-9.75194 -0.122688 -0.25058 
-0.122688 -9.77796 0.210415 
-0.25058 0.210415 -10.0486 
-12.1304 0.150511 -0.259706 
0.150511 -12.5358 -0.396419 
-0.259706 -0.396419 -11.2712 
-11.0238 0.0221404 -0.447558 
0.0221404 -12.4472 -0.116142 
-0.447558 -0.116142 -12.4664 
-10.7143 0.760778 -1.11571 
0.760778 -11.5353 -0.264841 
-1.11571 -0.264841 -13.6878 
-10.7308 0.232572 0.229303 
0.232572 -12.4551 0.11694 
0.229303 0.11694 -12.7514 
-9.76105 0.0032137 -0.121753 
0.0032137 -9.73591 -0.0762684 
-0.121753 -0.0762684 -9.95445 
-9.73528 0.0553453 -0.102075 
0.0553453 -9.75916 -0.0634796 
-0.102075 -0.0634796 -9.95697 
-9.7498 0.0472291 -0.120941 
0.0472291 -9.77174 -0.0558726 
-0.120941 -0.0558726 -9.92987 
-9.77052 0.0886343 -0.0381006 
0.0886343 -9.80369 -0.0447078 
-0.0381006 -0.0447078 -9.8772 
-9.03379 -0.97242 -0.388355 
-0.97242 -10.9878 0.0118881 
-0.388355 0.0118881 -11.2702 
-9.21619 -0.465061 0.0646008 
-0.465061 -10.1425 0.141754 
0.0646008 0.141754 -11.9332 
-10.3483 -0.128665 -0.535092 
-0.128665 -10.2295 0.169207 
-0.535092 0.169207 -10.714 
-8.85319 -0.826926 -0.90939 
-0.826926 -10.8701 0.331778 
-0.90939 0.331778 -11.5686 
-10.1139 -0.020525 -0.00381272 
-0.020525 -10.0995 0.00743327 
-0.00381272 0.00743327 -9.99698 
-9.93536 0.0048734 -0.0348163 
0.0048734 -9.95794 -0.0116152 
-0.0348163 -0.0116152 -10.3171 
-10.061 0.00558446 0.0237207 
0.00558446 -10.0685 0.010971 
0.0237207 0.010971 -10.0808 
-10.0627 0.0406075 0.115092 
0.0406075 -10.0714 0.0810041 
0.115092 0.0810041 -10.0762 
-9.78517 0.0522615 -0.0958307 
0.0522615 -9.86412 -0.129591 
-0.0958307 -0.129591 -9.83677 
-9.75728 0.0657684 -0.180273 
0.0657684 -9.80889 -0.0657428 
-0.180273 -0.0657428 -9.91988 
-9.85571 0.0214044 -0.113199 
0.0214044 -9.80613 -0.0324247 
-0.113199 -0.0324247 -9.82422 
-9.76092 0.01988 -0.143417 
0.01988 -9.84445 -0.0347845 
-0.143417 -0.0347845 -9.88069 
-7.6596 -0.0258241 -1.45168 
-0.0258241 -7.37961 0.646156 
-1.45168 0.646156 -2.06925 
-6.07877 -0.960458 -1.0152 
-0.960458 -6.73449 0.153553 
-1.0152 0.153553 -4.29521 
-8.96937 0.877623 -1.11287 
0.877623 -5.02624 0.895699 
-1.11287 0.895699 -3.11285 
-7.70731 -0.249266 0.086783 
-0.249266 -6.43288 0.882669 
0.086783 0.882669 -2.96827 
-9.8464 -0.00908734 -0.194431 
-0.00908734 -9.82474 -0.0520449 
-0.194431 -0.0520449 -9.83825 
-9.81869 0.0141043 -0.193394 
0.0141043 -9.82947 -0.0493513 
-0.193394 -0.0493513 -9.86124 
-9.80079 0.0172915 -0.207075 
0.0172915 -9.82965 -0.0576684 
-0.207075 -0.0576684 -9.87895 
-9.81509 0.0178815 -0.178561 
0.0178815 -9.83248 -0.0489123 
-0.178561 -0.0489123 -9.86183 
-9.79627 0.0686093 0.145561 
0.0686093 -9.79041 0.226519 
0.145561 0.226519 -9.96164 
-9.82947 0.0353946 0.132559 
0.0353946 -9.75119 0.193903 
0.132559 0.193903 -9.96765 
-9.7826 0.0727622 0.188661 
0.0727622 -9.7933 0.229907 
0.188661 0.229907 -9.97241 
-9.79725 0.0541181 0.131164 
0.0541181 -9.74969 0.20036 
0.131164 0.20036 -10.0014 
-10.0136 0.0136099 -0.0352546 
0.0136099 -10.1899 -0.00267748 
-0.0352546 -0.00267748 -10.0219 
-9.98458 0.228229 -0.0506866 
0.228229 -9.9209 -0.166852 
-0.0506866 -0.166852 -10.3198 
-10.2345 0.0333024 0.00837538 
0.0333024 -10.1026 0.00665111 
0.00837538 0.00665111 -9.88813 
-10.0972 0.0424553 -0.047933 
0.0424553 -9.85667 0.024062 
-0.047933 0.024062 -10.2714 
-9.94236 -0.00333459 -0.054831 
-0.00333459 -9.87547 0.243211 
-0.054831 0.243211 -9.94126 
-9.9551 -0.0186018 -0.0534726 
-0.0186018 -9.86571 0.245574 
-0.0534726 0.245574 -9.93828 
-9.96287 0.00628516 -0.0504774 
0.00628516 -9.88538 0.228803 
-0.0504774 0.228803 -9.91083 
-9.93334 -0.0093494 -0.0616721 
-0.0093494 -9.89714 0.232208 
-0.0616721 0.232208 -9.9286 
-10.1606 0.237721 0.0688706 
0.237721 -8.89357 -0.422124 
0.0688706 -0.422124 -10.2815 
-10.6496 0.202584 0.172164 
0.202584 -9.16073 -0.63813 
0.172164 -0.63813 -9.5253 
-10.1807 0.709144 -1.1971 
0.709144 -9.02016 -1.50195 
-1.1971 -1.50195 -10.1347 
-10.4476 0.342662 -0.139447 
0.342662 -8.93629 -0.765351 
-0.139447 -0.765351 -9.9517 
-9.98105 0.00202056 -0.0817048 
0.00202056 -9.98337 -0.227525 
-0.0817048 -0.227525 -9.97005 
-9.93647 0.00720517 -0.0760556 
0.00720517 -9.93327 -0.207397 
-0.0760556 -0.207397 -10.0647 
-9.98677 -0.00140572 -0.0922708 
-0.00140572 -9.98096 -0.226229 
-0.0922708 -0.226229 -9.96674 
-9.99015 -0.00054201 -0.0811982 
-0.00054201 -9.98188 -0.209735 
-0.0811982 -0.209735 -9.96244 
-9.75645 0.0158879 -0.2205 
0.0158879 -9.83925 -0.0196586 
-0.2205 -0.0196586 -9.85359 
-9.76576 -0.00342578 -0.231184 
-0.00342578 -9.83475 -0.0322624 
-0.231184 -0.0322624 -9.84878 
-9.76296 0.00237964 -0.224353 
0.00237964 -9.83764 -0.0313405 
-0.224353 -0.0313405 -9.84869 
-9.76525 0.00540114 -0.242409 
0.00540114 -9.82929 -0.0477357 
-0.242409 -0.0477357 -9.85474 
-9.93094 -0.00366507 0.228175 
-0.00366507 -9.93796 -0.0479778 
0.228175 -0.0479778 -9.99493 
-9.94436 -0.023366 0.219105 
-0.023366 -9.94389 -0.0435565 
0.219105 -0.0435565 -9.97558 
-9.94753 0.00302799 0.264414 
0.00302799 -9.94518 -0.0606545 
0.264414 -0.0606545 -9.97111 
-9.9361 -0.01003 0.253491 
-0.01003 -9.96351 -0.0714028 
0.253491 -0.0714028 -9.96421 
-9.91725 0.0274477 0.174219 
0.0274477 -9.90739 0.181578 
0.174219 0.181578 -9.99854 
-9.92015 0.0195969 0.18035 
0.0195969 -9.94265 0.186632 
0.18035 0.186632 -9.96038 
-9.91992 0.0168799 0.172895 
0.0168799 -9.90898 0.169671 
0.172895 0.169671 -9.99428 
-9.91354 0.0310211 0.173794 
0.0310211 -9.91969 0.181544 
0.173794 0.181544 -9.98996 
-9.90514 0.0345735 0.0982624 
0.0345735 -9.78825 0.212651 
0.0982624 0.212651 -9.95431 
-9.8288 0.0257023 0.0517082 
0.0257023 -9.8894 0.191442 
0.0517082 0.191442 -9.92951 
-9.87221 0.0751079 0.0994444 
0.0751079 -9.83548 0.258896 
0.0994444 0.258896 -9.94002 
-9.9161 0.0331968 0.093077 
0.0331968 -9.801 0.220915 
0.093077 0.220915 -9.9306 
-10.08 0.407633 0.523058 
0.407633 -9.69048 0.504119 
0.523058 0.504119 -9.84909 
-10.0933 0.175654 0.694369 
0.175654 -10.1443 0.624905 
0.694369 0.624905 -9.38198 
-9.93103 0.401626 0.0338731 
0.401626 -9.62948 0.042303 
0.0338731 0.042303 -10.0591 
-9.23177 0.839963 0.891455 
0.839963 -10.0044 1.12031 
0.891455 1.12031 -10.3834 
-9.73146 -0.0292248 0.299372 
-0.0292248 -9.85386 -0.205466 
0.299372 -0.205466 -9.71825 
-9.66879 0.00256124 0.239212 
0.00256124 -9.82781 -0.228362 
0.239212 -0.228362 -9.80696 
-9.77383 -0.0385725 0.280425 
-0.0385725 -9.79736 -0.200398 
0.280425 -0.200398 -9.73238 
-9.75326 -0.0610428 0.29042 
-0.0610428 -9.83083 -0.15792 
0.29042 -0.15792 -9.71948 
-9.71677 0.290023 0.363717 
0.290023 -9.95372 0.886186 
0.363717 0.886186 -9.10044 
-9.46374 0.604537 0.594754 
0.604537 -10.2805 0.924919 
0.594754 0.924919 -9.02668 
-9.3792 0.318732 0.810699 
0.318732 -10.5962 0.746288 
0.810699 0.746288 -8.79549 
-9.56282 0.41124 0.559371 
0.41124 -10.3586 0.872805 
0.559371 0.872805 -8.84952 
-9.84715 0.0515936 -0.0651028 
0.0515936 -9.87139 -0.0768468 
-0.0651028 -0.0768468 -10.0039 
-9.87317 -0.0679579 -0.0676917 
-0.0679579 -10.0117 -0.0266735 
-0.0676917 -0.0266735 -9.83756 
-9.86534 0.15733 0.00841102 
0.15733 -9.77503 -0.0481891 
0.00841102 -0.0481891 -10.0821 
-9.73049 0.0762088 -0.139724 
0.0762088 -9.98654 -0.159881 
-0.139724 -0.159881 -10.0054 
-9.76906 -0.0972499 0.0346558 
-0.0972499 -9.81896 -0.0567079 
0.0346558 -0.0567079 -9.90093 
-9.88367 0.0377997 0.0920317 
0.0377997 -9.77333 -0.0653667 
0.0920317 -0.0653667 -9.83195 
-9.79381 -0.0509584 0.0873111 
-0.0509584 -9.81945 -0.0699019 
0.0873111 -0.0699019 -9.87569 
-9.77972 0.028621 0.0869766 
0.028621 -9.82121 -0.0987942 
0.0869766 -0.0987942 -9.88803 
-6.21412 4.45704 0.0837065 
4.45704 -8.88154 -0.831936 
0.0837065 -0.831936 -4.84791 
-5.92277 -0.661631 -3.49629 
-0.661631 -6.13297 -2.46088 
-3.49629 -2.46088 -7.88783 
-12.9043 -3.82499 -0.0612588 
-3.82499 -10.0751 -6.68011 
-0.0612588 -6.68011 3.03583 
-6.86913 1.25741 -2.1212 
1.25741 -9.49045 -1.50625 
-2.1212 -1.50625 -3.58398 
-9.90406 0.0287383 0.062744 
0.0287383 -9.79424 0.264021 
0.062744 0.264021 -9.87794 
-9.92102 0.031915 0.123616 
0.031915 -9.77662 0.255898 
0.123616 0.255898 -9.8786 
-9.93493 0.0399987 0.106384 
0.0399987 -9.78003 0.27417 
0.106384 0.27417 -9.86129 
-9.91781 0.0424709 0.121326 
0.0424709 -9.77713 0.250955 
0.121326 0.250955 -9.88131 
-9.87008 -0.0244296 -0.158618 
-0.0244296 -9.85955 -0.14111 
-0.158618 -0.14111 -9.87024 
-9.86042 0.0518407 -0.136598 
0.0518407 -9.85468 -0.150786 
-0.136598 -0.150786 -9.88478 
-9.83604 0.0316849 -0.155214 
0.0316849 -9.8402 -0.164 
-0.155214 -0.164 -9.92363 
-9.81416 0.00412987 -0.151355 
0.00412987 -9.88445 -0.146621 
-0.151355 -0.146621 -9.90127 
-11.5816 0.0752049 0.525694 
0.0752049 -8.09451 0.520974 
0.525694 0.520974 -11.1413 
-9.39746 0.152462 0.0320692 
0.152462 -8.91485 -0.557516 
0.0320692 -0.557516 -12.5051 
-11.1428 0.265884 0.111316 
0.265884 -7.97957 1.16436 
0.111316 1.16436 -11.695 
-10.3348 0.0814912 -0.0231079 
0.0814912 -9.85242 0.726643 
-0.0231079 0.726643 -10.6302 
-10.0344 0.0136933 -0.124391 
0.0136933 -10.1103 -0.00620177 
-0.124391 -0.00620177 -10.1185 
-10.0398 -0.0715454 -0.10887 
-0.0715454 -10.0672 0.0716098 
-0.10887 0.0716098 -10.1561 
-10.0099 -0.290477 -0.0380792 
-0.290477 -9.95674 -0.0668924 
-0.0380792 -0.0668924 -10.2965 
-9.92862 -0.0280074 -0.0232417 
-0.0280074 -10.1155 0.16674 
-0.0232417 0.16674 -10.219 
-9.9159 -0.00727391 -0.00208751 
-0.00727391 -9.9589 -0.0217206 
-0.00208751 -0.0217206 -9.97667 
-9.9276 -0.0105226 -0.0141027 
-0.0105226 -9.95649 -0.000998536 
-0.0141027 -0.000998536 -9.96738 
-9.92709 0.000176742 0.0198824 
0.000176742 -9.95823 -0.0244258 
0.0198824 -0.0244258 -9.96614 
-9.90397 -0.0109263 -0.00941966 
-0.0109263 -9.95251 -0.00942367 
-0.00941966 -0.00942367 -9.99499 
-9.58105 0.0360184 -0.611001 
0.0360184 -9.84826 0.282806 
-0.611001 0.282806 -11.8216 
-11.2597 -0.0402317 0.374876 
-0.0402317 -10.4912 -0.614284 
0.374876 -0.614284 -9.50008 
-10.6376 -0.0663955 0.349444 
-0.0663955 -10.3094 -0.263375 
0.349444 -0.263375 -10.3039 
-10.0364 -0.696822 0.478918 
-0.696822 -10.124 -0.361999 
0.478918 -0.361999 -11.0905 
-10.404 -0.0109577 0.170259 
-0.0109577 -9.63244 -0.322888 
0.170259 -0.322888 -9.17252 
-10.2657 0.0368994 0.184735 
0.0368994 -9.61327 -0.360261 
0.184735 -0.360261 -9.32998 
-10.3711 0.0700912 0.141189 
0.0700912 -9.62063 -0.380183 
0.141189 -0.380183 -9.21718 
-10.3891 -0.0367129 0.263017 
-0.0367129 -9.77043 -0.342362 
0.263017 -0.342362 -9.04938 
-9.94794 -0.00880391 -0.0263337 
-0.00880391 -9.92093 0.131548 
-0.0263337 0.131548 -10.1228 
-10.014 -0.0150023 -0.00336157 
-0.0150023 -10.0178 0.136416 
-0.00336157 0.136416 -9.95976 
-10.0389 0.00142698 0.0133637 
0.00142698 -10.0431 0.108472 
0.0133637 0.108472 -9.90967 
-10.0397 0.0178435 0.00246515 
0.0178435 -10.031 0.171457 
0.00246515 0.171457 -9.92094 
-9.68376 -0.0333319 -0.0317096 
-0.0333319 -9.77081 0.0275622 
-0.0317096 0.0275622 -10.2183 
-9.68808 -0.112794 -0.179529 
-0.112794 -9.83696 0.149892 
-0.179529 0.149892 -10.1478 
-9.59889 -0.193089 -0.163332 
-0.193089 -9.57103 0.0966244 
-0.163332 0.0966244 -10.5029 
-9.69494 -0.083361 -0.000730111 
-0.083361 -9.71459 0.0804836 
-0.000730111 0.0804836 -10.2633 
-9.97471 0.0198287 -0.0963818 
0.0198287 -10.0222 0.00322623 
-0.0963818 0.00322623 -10.0272 
-9.97621 0.0624902 -0.0142593 
0.0624902 -9.97337 0.0208794 
-0.0142593 0.0208794 -10.0746 
-10.0561 -0.0115205 0.0335693 
-0.0115205 -9.92197 0.0201173 
0.0335693 0.0201173 -10.0461 
-10.0282 -0.00751971 0.00234434 
-0.00751971 -9.90777 -0.0178404 
0.00234434 -0.0178404 -10.0882 
-10.0296 0.00867942 -0.0312606 
0.00867942 -9.99484 0.184949 
-0.0312606 0.184949 -9.95132 
-9.93753 -0.00395488 -0.0363345 
-0.00395488 -9.95997 0.177371 
-0.0363345 0.177371 -10.0782 
-10.0186 -0.00406127 -0.0170097 
-0.00406127 -9.9979 0.187392 
-0.0170097 0.187392 -9.95927 
-10.021 -0.00538551 0.00417195 
-0.00538551 -10.0012 0.168384 
0.00417195 0.168384 -9.95351 
-9.74503 -0.037852 0.0768057 
-0.037852 -9.76769 -0.0529263 
0.0768057 -0.0529263 -9.94831 
-9.77249 -0.0544196 0.0672589 
-0.0544196 -9.79084 -0.0719362 
0.0672589 -0.0719362 -9.8977 
-9.74936 -0.0614302 0.0700435 
-0.0614302 -9.77615 -0.0635039 
0.0700435 -0.0635039 -9.93552 
-9.7366 -0.0554784 0.08692 
-0.0554784 -9.75708 -0.0650927 
0.08692 -0.0650927 -9.96735 
-9.94501 -0.00284161 -0.0230022 
-0.00284161 -9.96644 -0.229754 
-0.0230022 -0.229754 -10.0158 
-9.98607 -0.00550763 -0.00914671 
-0.00550763 -9.96694 -0.236367 
-0.00914671 -0.236367 -9.97422 
-9.97584 0.00288793 -0.0148225 
0.00288793 -9.96679 -0.240867 
-0.0148225 -0.240867 -9.9846 
-9.98771 0.00328852 -0.0143891 
0.00328852 -9.97158 -0.241389 
-0.0143891 -0.241389 -9.96795 
-9.9126 0.114383 0.0138903 
0.114383 -9.66106 -0.142932 
0.0138903 -0.142932 -9.92131 
-9.90977 0.0845875 0.00429947 
0.0845875 -9.58002 -0.0337085 
0.00429947 -0.0337085 -10.0052 
-9.89763 0.0750091 -0.00637495 
0.0750091 -9.61138 -0.00584723 
-0.00637495 -0.00584723 -9.98596 
-9.88612 0.0718355 -0.0230462 
0.0718355 -9.59509 -0.027946 
-0.0230462 -0.027946 -10.0138 
-9.8216 -0.131056 -0.231164 
-0.131056 -9.78161 0.137565 
-0.231164 0.137565 -10.1862 
-9.78823 -0.106677 -0.108564 
-0.106677 -9.92148 0.0983513 
-0.108564 0.0983513 -10.0797 
-9.75582 -0.186367 -0.206965 
-0.186367 -9.90798 0.174118 
-0.206965 0.174118 -10.1256 
-9.636 -0.109037 -0.129362 
-0.109037 -9.75586 0.144757 
-0.129362 0.144757 -10.3975 
-9.63062 -0.0886099 -0.479214 
-0.0886099 -9.0181 0.390557 
-0.479214 0.390557 -8.94768 
-9.52619 -0.0288117 -0.356445 
-0.0288117 -9.12878 0.417964 
-0.356445 0.417964 -8.94145 
-9.47365 -0.103949 -0.564487 
-0.103949 -9.06826 0.427238 
-0.564487 0.427238 -9.0545 
-9.48564 -0.100734 -0.462851 
-0.100734 -9.03678 0.43252 
-0.462851 0.43252 -9.07399 
-9.71789 -0.0392986 0.222777 
-0.0392986 -9.86276 -0.0971667 
0.222777 -0.0971667 -9.88441 
-9.72477 -0.0325323 0.287338 
-0.0325323 -9.83552 -0.112156 
0.287338 -0.112156 -9.90476 
-9.74418 -0.046927 0.257544 
-0.046927 -9.84329 -0.105613 
0.257544 -0.105613 -9.87759 
-9.77998 -0.0418309 0.248455 
-0.0418309 -9.82666 -0.096893 
0.248455 -0.096893 -9.85842 
-13.0619 -0.868332 -1.67322 
-0.868332 -4.30357 2.39214 
-1.67322 2.39214 -13.394 
-11.9517 -1.20333 -1.18766 
-1.20333 -8.99178 2.68901 
-1.18766 2.68901 -9.81598 
-9.09719 -1.22543 -1.36459 
-1.22543 -11.4665 0.409195 
-1.36459 0.409195 -10.1957 
-10.3066 0.339827 -0.887655 
0.339827 -9.92814 3.00729 
-0.887655 3.00729 -10.5248 
-9.76125 0.0101454 0.114721 
0.0101454 -9.80933 -0.158591 
0.114721 -0.158591 -9.89251 
-9.80509 -0.0654115 0.0619156 
-0.0654115 -9.79904 -0.201595 
0.0619156 -0.201595 -9.85895 
-9.86037 -0.0385408 0.100124 
-0.0385408 -9.76339 -0.208803 
0.100124 -0.208803 -9.83933 
-9.80916 -0.0388571 0.12085 
-0.0388571 -9.72948 -0.187788 
0.12085 -0.187788 -9.92445 
-9.79825 0.128747 -0.238334 
0.128747 -9.67302 -0.16598 
-0.238334 -0.16598 -10.0252 
-9.80137 0.104891 -0.183333 
0.104891 -9.74536 -0.195622 
-0.183333 -0.195622 -9.94978 
-9.78166 0.0840328 -0.175793 
0.0840328 -9.66953 -0.217061 
-0.175793 -0.217061 -10.0453 
-9.82 0.0899658 -0.196725 
0.0899658 -9.64348 -0.233992 
-0.196725 -0.233992 -10.033 
-9.96921 0.0101998 0.020597 
0.0101998 -9.95899 -0.246155 
0.020597 -0.246155 -10.0216 
-10.0184 0.00329611 0.0102919 
0.00329611 -9.98425 -0.252362 
0.0102919 -0.252362 -9.94708 
-9.96416 -0.00544684 0.0162422 
-0.00544684 -9.96982 -0.228366 
0.0162422 -0.228366 -10.0158 
-10.0111 -0.0163341 0.0431809 
-0.0163341 -9.96552 -0.238786 
0.0431809 -0.238786 -9.97316 
-9.97264 -0.0511381 -0.162607 
-0.0511381 -9.93825 -0.136461 
-0.162607 -0.136461 -9.94953 
-9.95748 0.00118778 -0.190713 
0.00118778 -9.96574 -0.137521 
-0.190713 -0.137521 -9.9372 
-9.96031 0.0197137 -0.19715 
0.0197137 -9.96699 -0.136037 
-0.19715 -0.136037 -9.93313 
-9.93808 -0.0257763 -0.254185 
-0.0257763 -9.98261 -0.148328 
-0.254185 -0.148328 -9.93973 
-9.9814 0.0348216 -0.104277 
0.0348216 -9.94447 -0.103827 
-0.104277 -0.103827 -9.93952 
-10.0452 0.0715876 -0.122767 
0.0715876 -9.98136 -0.108933 
-0.122767 -0.108933 -9.83886 
-9.97032 -0.0224971 -0.122665 
-0.0224971 -10.0105 -0.0957713 
-0.122665 -0.0957713 -9.8846 
-9.96331 -0.0325455 -0.174205 
-0.0325455 -10.0021 -0.0699324 
-0.174205 -0.0699324 -9.89994 
-9.75124 -0.184818 0.887302 
-0.184818 -8.80714 -0.344294 
0.887302 -0.344294 -8.35534 
-9.39347 0.235414 1.31184 
0.235414 -8.91849 -0.893079 
1.31184 -0.893079 -8.60175 
-9.56726 0.0103761 0.581169 
0.0103761 -9.29022 -0.785953 
0.581169 -0.785953 -8.05623 
-9.95497 -0.216484 1.1558 
-0.216484 -8.94913 -0.407418 
1.1558 -0.407418 -8.00962 
-10.0185 -0.0182977 0.0451667 
-0.0182977 -9.90616 -0.256127 
0.0451667 -0.256127 -9.7755 
-9.97724 -0.0102406 0.0233182 
-0.0102406 -9.90777 -0.258706 
0.0233182 -0.258706 -9.81516 
-9.99321 -0.0209095 0.029869 
-0.0209095 -9.9124 -0.240296 
0.029869 -0.240296 -9.79456 
-10.0223 -0.00888314 0.0249288 
-0.00888314 -9.91655 -0.269707 
0.0249288 -0.269707 -9.76134 
-10.028 0.269552 -0.294784 
0.269552 -9.98116 -0.291978 
-0.294784 -0.291978 -10.6807 
-9.79752 0.26392 0.0284255 
0.26392 -10.0525 0.176471 
0.0284255 0.176471 -10.8398 
-9.97613 0.402927 -0.382955 
0.402927 -10.1618 -0.0572794 
-0.382955 -0.0572794 -10.5519 
-9.89725 0.363404 0.0213937 
0.363404 -10.1221 0.0800789 
0.0213937 0.0800789 -10.6704 
-9.8603 -0.0527179 -0.178683 
-0.0527179 -9.87662 0.174858 
-0.178683 0.174858 -9.97117 
-9.89205 0.0128025 -0.152456 
0.0128025 -9.90679 0.153369 
-0.152456 0.153369 -9.90925 
-9.90837 -0.00546074 -0.169506 
-0.00546074 -9.90135 0.146871 
-0.169506 0.146871 -9.89837 
-9.91131 -0.0157 -0.11568 
-0.0157 -9.8525 0.145501 
-0.11568 0.145501 -9.94428 
-9.82794 -0.210811 0.105802 
-0.210811 -9.61185 -0.137715 
0.105802 -0.137715 -10.0787 
-9.80266 -0.0823336 0.135682 
-0.0823336 -9.75195 -0.161465 
0.135682 -0.161465 -9.96386 
-9.82362 -0.0550682 0.0668102 
-0.0550682 -9.7836 -0.125601 
0.0668102 -0.125601 -9.91124 
-9.78359 0.00747555 0.152968 
0.00747555 -9.79741 -0.246496 
0.152968 -0.246496 -9.93746 
-9.7915 -0.00828028 0.325298 
-0.00828028 -9.9406 -0.0340021 
0.325298 -0.0340021 -9.63572 
-9.84569 -0.0331056 0.290086 
-0.0331056 -9.99425 -0.0754017 
0.290086 -0.0754017 -9.52788 
-9.82892 -0.0140218 0.204717 
-0.0140218 -9.86824 -0.096975 
0.204717 -0.096975 -9.67066 
-9.74205 -0.0126594 0.402362 
-0.0126594 -9.92111 -0.0512163 
0.402362 -0.0512163 -9.70467 
-9.85069 0.0069423 -0.0645899 
0.0069423 -9.83824 -0.229412 
-0.0645899 -0.229412 -9.87854 
-9.8635 0.0236213 -0.0625307 
0.0236213 -9.8342 -0.220815 
-0.0625307 -0.220815 -9.86977 
-9.83607 -0.00906323 -0.0539301 
-0.00906323 -9.87324 -0.248687 
-0.0539301 -0.248687 -9.85816 
-9.85828 0.00240687 -0.0705727 
0.00240687 -9.82915 -0.229297 
-0.0705727 -0.229297 -9.88004 
-9.9718 -0.0475568 -0.0200128 
-0.0475568 -9.94084 -0.0125643 
-0.0200128 -0.0125643 -9.96057 
-9.99333 -0.0297263 -0.0409449 
-0.0297263 -9.92476 -0.000101892 
-0.0409449 -0.000101892 -9.95512 
-9.85448 0.127483 0.00555154 
0.127483 -9.94023 -0.00561421 
0.00555154 -0.00561421 -10.0785 
-9.89788 -0.0402945 -0.109599 
-0.0402945 -9.95246 -0.0861433 
-0.109599 -0.0861433 -10.0229 
-10.2811 0.0407528 -0.134635 
0.0407528 -10.163 -0.0663928 
-0.134635 -0.0663928 -10.2826 
-10.5525 -0.163307 -0.124034 
-0.163307 -10.3963 0.0770669 
-0.124034 0.0770669 -9.77794 
-10.1344 0.0111518 0.121145 
0.0111518 -9.87007 -0.0572732 
0.121145 -0.0572732 -10.7222 
-10.2164 0.0675136 -0.269223 
0.0675136 -10.1635 -0.124653 
-0.269223 -0.124653 -10.3469 
-12.9678 0.311513 0.0317076 
0.311513 -12.5709 0.872568 
0.0317076 0.872568 -12.1289 
-10.6559 0.496108 0.837729 
0.496108 -11.9779 -0.822346 
0.837729 -0.822346 -15.0339 
-12.0576 -1.20876 0.391227 
-1.20876 -14.2215 0.507175 
0.391227 0.507175 -11.3885 
-13.0715 1.27209 1.08991 
1.27209 -11.5298 1.16599 
1.08991 1.16599 -13.0664 
-9.94599 -0.00255168 -0.216406 
-0.00255168 -9.95888 0.0642176 
-0.216406 0.0642176 -9.92685 
-9.92152 -0.000836769 -0.234691 
-0.000836769 -9.98767 0.051615 
-0.234691 0.051615 -9.92253 
-9.93219 -0.0131814 -0.257408 
-0.0131814 -9.96486 0.0592098 
-0.257408 0.0592098 -9.93467 
-9.95521 -0.0558052 -0.280309 
-0.0558052 -9.96109 0.0705832 
-0.280309 0.0705832 -9.91542 
-6.35913 -0.197254 1.24739 
-0.197254 -7.56557 1.62725 
1.24739 1.62725 -3.15876 
-6.53126 -0.0646838 1.01078 
-0.0646838 -7.67951 1.66821 
1.01078 1.66821 -2.87268 
-5.3443 0.98065 0.876103 
0.98065 -8.13175 0.629562 
0.876103 0.629562 -3.6074 
-6.23126 -0.162663 0.40302 
-0.162663 -7.88949 1.09226 
0.40302 1.09226 -2.9627 
-9.61857 0.0821677 -0.233852 
0.0821677 -10.2608 -0.0298759 
-0.233852 -0.0298759 -9.49647 
-9.54301 0.142102 -0.425469 
0.142102 -10.0738 -0.335561 
-0.425469 -0.335561 -9.75909 
-9.87322 -0.0668819 -0.118778 
-0.0668819 -9.8739 -0.219281 
-0.118778 -0.219281 -9.62874 
-9.6241 0.0122091 -0.544042 
0.0122091 -10.0548 -0.133546 
-0.544042 -0.133546 -9.69699 
-7.78321 1.82834 -0.793883 
1.82834 -10.5267 2.71355 
-0.793883 2.71355 -4.84192 
-6.72767 0.0383768 -1.43706 
0.0383768 -10.7779 3.16653 
-1.43706 3.16653 -5.64633 
-7.22871 3.80694 -1.29332 
3.80694 -8.42222 2.65449 
-1.29332 2.65449 -7.50093 
-8.84219 1.74338 -2.30498 
1.74338 -9.38118 3.01779 
-2.30498 3.01779 -4.92848 
-9.85409 -0.0175458 -0.0359371 
-0.0175458 -9.90111 0.0370774 
-0.0359371 0.0370774 -9.96549 
-9.85249 -0.012746 0.00159879 
-0.012746 -9.92604 0.0428222 
0.00159879 0.0428222 -9.94215 
-9.87529 -0.039673 -0.0325552 
-0.039673 -9.90918 0.0256856 
-0.0325552 0.0256856 -9.93622 
-9.86015 -0.038649 -0.0266383 
-0.038649 -9.90926 0.0153951 
-0.0266383 0.0153951 -9.95127 
-9.9322 -0.0217861 -0.0210377 
-0.0217861 -9.91819 0.245977 
-0.0210377 0.245977 -9.90593 
-9.97703 -0.0166442 -0.0405299 
-0.0166442 -9.89277 0.245859 
-0.0405299 0.245859 -9.88652 
-9.95809 -0.0133848 -0.0160348 
-0.0133848 -9.87378 0.233562 
-0.0160348 0.233562 -9.92445 
-9.94057 -0.0130263 -0.027149 
-0.0130263 -9.91192 0.254326 
-0.027149 0.254326 -9.90383 
-9.783 -0.0965116 0.2949 
-0.0965116 -9.7286 -0.308586 
0.2949 -0.308586 -9.95699 
-9.74321 -0.0424177 0.401825 
-0.0424177 -9.79426 -0.398476 
0.401825 -0.398476 -9.93112 
-9.73114 -0.0577023 0.362417 
-0.0577023 -9.74355 -0.37159 
0.362417 -0.37159 -9.9939 
-9.68894 -0.139755 0.343239 
-0.139755 -9.72224 -0.468342 
0.343239 -0.468342 -10.0574 
-9.59578 -0.154198 0.435096 
-0.154198 -9.84857 -0.211639 
0.435096 -0.211639 -9.70687 
-9.60635 -0.109281 0.413189 
-0.109281 -9.83372 -0.166475 
0.413189 -0.166475 -9.71116 
-9.57614 -0.0208282 0.383793 
-0.0208282 -9.90746 -0.1134 
0.383793 -0.1134 -9.66762 
-9.62196 -0.0997892 0.411343 
-0.0997892 -9.85445 -0.158446 
0.411343 -0.158446 -9.67481 
-9.65906 0.0140002 0.0883382 
0.0140002 -9.71014 0.0588169 
0.0883382 0.0588169 -9.9922 
-9.92382 0.129492 0.023003 
0.129492 -9.59092 0.0998646 
0.023003 0.0998646 -9.84665 
-9.84397 0.0999606 0.0185431 
0.0999606 -9.78285 0.245132 
0.0185431 0.245132 -9.73458 
-9.71365 0.139771 0.138671 
0.139771 -9.66037 0.164355 
0.138671 0.164355 -9.98737 
-10.7708 -0.00568544 -0.085041 
-0.00568544 -10.4261 0.29896 
-0.085041 0.29896 -10.8864 
-10.5575 -0.00757489 -0.194525 
-0.00757489 -10.5534 -0.0268469 
-0.194525 -0.0268469 -10.9725 
-10.6766 0.0462345 -0.0212075 
0.0462345 -10.3154 -0.0802671 
-0.0212075 -0.0802671 -11.0913 
-10.4676 -0.0691783 -0.107084 
-0.0691783 -10.7822 -0.208945 
-0.107084 -0.208945 -10.8336 
-9.86672 0.254844 -0.052213 
0.254844 -9.77591 -0.210104 
-0.052213 -0.210104 -10.0754 
-9.68425 0.104922 -0.215446 
0.104922 -9.91149 -0.217543 
-0.215446 -0.217543 -10.1223 
-9.7941 0.12217 -0.120372 
0.12217 -9.82921 -0.168189 
-0.120372 -0.168189 -10.0948 
-9.81823 0.0575331 -0.157529 
0.0575331 -9.7639 -0.149008 
-0.157529 -0.149008 -10.136 
-9.82371 -0.00318828 0.241194 
-0.00318828 -9.86853 -0.00978874 
0.241194 -0.00978874 -9.86126 
-9.858 -0.00277168 0.24973 
-0.00277168 -9.83292 -0.011945 
0.24973 -0.011945 -9.86258 
-9.83071 -0.0114246 0.243229 
-0.0114246 -9.85482 -0.0218843 
0.243229 -0.0218843 -9.86797 
-9.8305 -0.00135795 0.254046 
-0.00135795 -9.85257 -0.0154133 
0.254046 -0.0154133 -9.87043 
-9.79268 0.00698056 0.0543632 
0.00698056 -9.80381 0.204665 
0.0543632 0.204665 -9.86271 
-9.84888 0.0244279 0.0398838 
0.0244279 -9.75951 0.246368 
0.0398838 0.246368 -9.85081 
-9.8475 -0.00213553 0.0322044 
-0.00213553 -9.76572 0.230776 
0.0322044 0.230776 -9.84598 
-9.83968 0.00110808 0.0285545 
0.00110808 -9.77683 0.248156 
0.0285545 0.248156 -9.84268 
-9.78403 0.0295709 -0.820835 
0.0295709 -9.30791 0.791563 
-0.820835 0.791563 -9.28658 
-10.1622 -0.292179 -0.636375 
-0.292179 -9.15306 0.544092 
-0.636375 0.544092 -9.0633 
-10.1034 0.16015 -1.02847 
0.16015 -9.19862 0.669537 
-1.02847 0.669537 -9.07648 
-10.0121 -0.167926 -0.888039 
-0.167926 -9.19611 0.698619 
-0.888039 0.698619 -9.17036 
-10.0125 0.0215808 0.0216604 
0.0215808 -9.92925 -0.242719 
0.0216604 -0.242719 -9.63544 
-10.0077 -0.0180289 -0.0448814 
-0.0180289 -9.91463 -0.216857 
-0.0448814 -0.216857 -9.65495 
-9.93192 -0.0139006 -0.0260157 
-0.0139006 -9.85483 -0.265973 
-0.0260157 -0.265973 -9.79048 
-9.98399 -0.00489452 -0.00106293 
-0.00489452 -9.90121 -0.225983 
-0.00106293 -0.225983 -9.69203 
-9.98937 -0.0181557 -0.20751 
-0.0181557 -9.98676 0.158127 
-0.20751 0.158127 -9.96408 
-9.99457 0.00535163 -0.202499 
0.00535163 -9.97098 0.163163 
-0.202499 0.163163 -9.97465 
-9.95183 -0.0140927 -0.170274 
-0.0140927 -9.94695 0.155544 
-0.170274 0.155544 -10.0414 
-9.96233 -0.0357413 -0.222364 
-0.0357413 -9.9916 0.190925 
-0.222364 0.190925 -9.98628 
-9.92072 -0.00900303 -0.2212 
-0.00900303 -9.93864 0.158838 
-0.2212 0.158838 -9.94919 
-9.94159 -0.0137801 -0.189822 
-0.0137801 -9.94978 0.147707 
-0.189822 0.147707 -9.91717 
-9.93306 0.0177967 -0.185685 
0.0177967 -9.95474 0.133486 
-0.185685 0.133486 -9.92075 
-9.8923 -0.00122723 -0.239176 
-0.00122723 -9.98524 0.17057 
-0.239176 0.17057 -9.93101 
-9.72712 -0.0858856 0.313267 
-0.0858856 -9.95728 -0.073189 
0.313267 -0.073189 -9.83125 
-9.80439 0.012475 0.394539 
0.012475 -9.91181 -0.0644552 
0.394539 -0.0644552 -9.79944 
-9.73944 -0.0302277 0.304057 
-0.0302277 -9.90684 -0.0897345 
0.304057 -0.0897345 -9.86937 
-9.74946 -0.0291163 0.254118 
-0.0291163 -10.0224 -0.0455513 
0.254118 -0.0455513 -9.74382 
-9.67119 -0.278536 -0.196038 
-0.278536 -9.72071 0.225692 
-0.196038 0.225692 -10.5187 
-9.69621 -0.107031 -0.20616 
-0.107031 -9.591 0.196543 
-0.20616 0.196543 -10.6234 
-9.87655 -0.0786032 -0.275612 
-0.0786032 -9.65338 0.177296 
-0.275612 0.177296 -10.3807 
-9.6237 -0.115639 0.146281 
-0.115639 -9.97714 0.107421 
0.146281 0.107421 -10.3098 
-9.75256 0.0452621 -0.291008 
0.0452621 -9.79948 -0.239593 
-0.291008 -0.239593 -9.67325 
-9.79213 0.0550222 -0.255934 
0.0550222 -9.76354 -0.254611 
-0.255934 -0.254611 -9.66963 
-9.77199 0.0589032 -0.311598 
0.0589032 -9.80947 -0.259682 
-0.311598 -0.259682 -9.64383 
-9.70304 0.0341211 -0.298691 
0.0341211 -9.81439 -0.236554 
-0.298691 -0.236554 -9.70786 
-9.79517 -0.0155962 0.0704875 
-0.0155962 -9.84604 0.149465 
0.0704875 0.149465 -9.81028 
-9.78845 -0.001171 0.100328 
-0.001171 -9.87045 0.12833 
0.100328 0.12833 -9.79258 
-9.81845 0.0921806 0.0964175 
0.0921806 -9.71606 0.245747 
0.0964175 0.245747 -9.91698 
-9.75708 0.039359 0.0696863 
0.039359 -9.71537 0.116889 
0.0696863 0.116889 -9.97903 
-9.84247 -0.0318938 0.123261 
-0.0318938 -9.82926 -0.223335 
0.123261 -0.223335 -9.9868 
-9.87455 0.0170299 0.091054 
0.0170299 -9.90726 -0.217075 
0.091054 -0.217075 -9.87672 
-9.91189 0.0022039 0.115285 
0.0022039 -9.90182 -0.207558 
0.115285 -0.207558 -9.84482 
-9.90124 -0.0144039 0.0582615 
-0.0144039 -9.85001 -0.206344 
0.0582615 -0.206344 -9.90727 
-9.99455 0.0395316 0.00140531 
0.0395316 -9.99578 0.0304087 
0.00140531 0.0304087 -10.0106 
-9.97475 0.0537955 -0.107718 
0.0537955 -9.99141 -0.0509248 
-0.107718 -0.0509248 -10.0348 
-9.94118 0.00529731 0.0100766 
0.00529731 -10.0048 0.0130459 
0.0100766 0.0130459 -10.0549 
-9.9556 0.0316576 0.020394 
0.0316576 -9.94235 -0.00634856 
0.020394 -0.00634856 -10.103 
-9.57535 -0.024996 0.470388 
-0.024996 -10.0429 0.0419935 
0.470388 0.0419935 -9.80587 
-9.62263 0.00988847 0.29537 
0.00988847 -9.91599 0.0383969 
0.29537 0.0383969 -9.88552 
-9.74504 0.0209207 0.324268 
0.0209207 -9.94545 -0.0325472 
0.324268 -0.0325472 -9.73364 
-9.71705 0.0508119 0.355858 
0.0508119 -9.94697 0.016267 
0.355858 0.016267 -9.76012 
-12.6841 1.12207 -0.699155 
1.12207 -10.381 -1.47045 
-0.699155 -1.47045 -16.3415 
-14.0675 0.937566 -1.04503 
0.937566 -11.8713 -0.991708 
-1.04503 -0.991708 -13.4678 
-13.2805 0.900131 0.144259 
0.900131 -9.75997 -1.61305 
0.144259 -1.61305 -16.3661 
-13.2923 0.747656 -0.221541 
0.747656 -11.321 -0.265527 
-0.221541 -0.265527 -14.7932 
-9.5024 0.07466 0.303051 
0.07466 -9.58294 0.4312 
0.303051 0.4312 -9.88983 
-9.54036 0.121604 0.349375 
0.121604 -9.78964 0.446961 
0.349375 0.446961 -9.64517 
-9.56939 0.108296 0.430171 
0.108296 -9.73745 0.415286 
0.430171 0.415286 -9.66833 
-9.76858 0.0311357 0.382065 
0.0311357 -9.69766 0.115302 
0.382065 0.115302 -9.50893 
-9.8738 0.016986 -0.0804642 
0.016986 -9.85158 -0.219224 
-0.0804642 -0.219224 -9.89782 
-9.87767 0.0183206 -0.0804643 
0.0183206 -9.8424 -0.224831 
-0.0804643 -0.224831 -9.90313 
-9.87049 0.0167926 -0.0793863 
0.0167926 -9.8487 -0.219986 
-0.0793863 -0.219986 -9.90401 
-9.8645 0.00804752 -0.082321 
0.00804752 -9.84724 -0.222069 
-0.082321 -0.222069 -9.91146 
-9.74707 0.00070751 -0.237135 
0.00070751 -9.91249 0.0600153 
-0.237135 0.0600153 -9.86336 
-9.73747 -0.0203295 -0.247247 
-0.0203295 -9.90724 0.100716 
-0.247247 0.100716 -9.87821 
-9.73983 -0.0243389 -0.256013 
-0.0243389 -9.87846 0.0658726 
-0.256013 0.0658726 -9.90463 
-9.78856 -0.0526604 -0.23204 
-0.0526604 -9.7711 0.0407698 
-0.23204 0.0407698 -9.96326 
-9.96779 -0.00558873 -0.212557 
-0.00558873 -9.94108 -0.0732884 
-0.212557 -0.0732884 -10.0104 
-9.96014 -0.00853686 -0.228797 
-0.00853686 -9.96033 -0.0722325 
-0.228797 -0.0722325 -9.99878 
-9.97076 -0.00399709 -0.223829 
-0.00399709 -9.98322 -0.0607751 
-0.223829 -0.0607751 -9.96526 
-9.96868 0.00412038 -0.221641 
0.00412038 -9.99283 -0.0683664 
-0.221641 -0.0683664 -9.95774 
-9.67142 0.0658591 -0.306476 
0.0658591 -9.85869 -0.359645 
-0.306476 -0.359645 -9.83275 
-9.67427 0.0758504 -0.322101 
0.0758504 -9.78506 -0.382908 
-0.322101 -0.382908 -9.90354 
-9.67717 0.0716428 -0.290535 
0.0716428 -9.81994 -0.339301 
-0.290535 -0.339301 -9.86575 
-9.81625 0.0797141 -0.305999 
0.0797141 -9.69027 -0.153633 
-0.305999 -0.153633 -9.85635 
-10.7256 -0.990026 1.1317 
-0.990026 -12.9287 -0.634101 
1.1317 -0.634101 -16.041 
-12.3644 -0.77045 0.814617 
-0.77045 -14.1936 -0.8715 
0.814617 -0.8715 -13.1373 
-10.0085 -0.690337 1.39427 
-0.690337 -13.0099 0.344431 
1.39427 0.344431 -16.6769 
-11.5177 -0.341425 -0.132285 
-0.341425 -13.183 -0.339885 
-0.132285 -0.339885 -14.9946 
-9.10067 0.640709 1.85688 
0.640709 -11.3222 2.49247 
1.85688 2.49247 10.6336 
-0.114069 2.33632 0.514838 
2.33632 0.698944 -3.24654 
0.514838 -3.24654 -10.3741 
-7.29068 -2.693 0.123662 
-2.693 -5.54363 2.39754 
0.123662 2.39754 3.04505 
-3.20565 -0.921092 -6.78965 
-0.921092 -8.08305 -0.118687 
-6.78965 -0.118687 1.49944 
-12.3504 0.726526 -0.129144 
0.726526 -12.9413 0.146242 
-0.129144 0.146242 -11.2809 
-11.2443 0.54296 0.515126 
0.54296 -12.9588 0.298097 
0.515126 0.298097 -12.3695 
-11.7788 0.799034 0.62373 
0.799034 -11.6622 0.46021 
0.62373 0.46021 -13.1317 
-11.8884 0.603993 -0.169685 
0.603993 -12.2568 0.642179 
-0.169685 0.642179 -12.4275 
-9.67494 0.0442328 -0.000695861 
0.0442328 -9.94343 -0.136787 
-0.000695861 -0.136787 -9.68109 
-9.82487 -0.0580173 0.0263576 
-0.0580173 -9.63737 -0.137289 
0.0263576 -0.137289 -9.83722 
-9.79573 -0.0226486 0.0337288 
-0.0226486 -9.67005 -0.181727 
0.0337288 -0.181727 -9.83369 
-9.81798 0.0455396 0.0318786 
0.0455396 -9.66626 -0.175306 
0.0318786 -0.175306 -9.81522 
-9.71012 -0.0564502 0.21029 
-0.0564502 -9.79772 -0.0736177 
0.21029 -0.0736177 -9.86514 
-9.77617 -0.0373238 0.178261 
-0.0373238 -9.79297 -0.054416 
0.178261 -0.054416 -9.80384 
-9.8211 -0.015389 0.176401 
-0.015389 -9.74673 -0.064413 
0.176401 -0.064413 -9.80514 
-9.77564 -0.0183475 0.143419 
-0.0183475 -9.75195 -0.0555751 
0.143419 -0.0555751 -9.84539 
-10.0964 0.0248866 -0.102138 
0.0248866 -9.9766 0.00193391 
-0.102138 0.00193391 -10.5976 
-10.1983 0.031627 0.0341969 
0.031627 -10.2571 -0.0227226 
0.0341969 -0.0227226 -10.2153 
-10.3374 -0.00963361 0.149179 
-0.00963361 -10.2201 -0.0193177 
0.149179 -0.0193177 -10.1131 
-10.4083 -0.149856 0.0422746 
-0.149856 -10.1435 -0.232679 
0.0422746 -0.232679 -10.1187 
-16.7893 -0.0030952 -3.58583 
-0.0030952 0.492085 -0.891907 
-3.58583 -0.891907 -20.6138 
-6.60612 -1.15348 -2.897 
-1.15348 -15.905 1.26367 
-2.897 1.26367 -14.3999 
-9.09672 0.9014 0.606379 
0.9014 -12.0692 -4.09385 
0.606379 -4.09385 -15.7451 
-17.1227 -0.871691 4.13617 
-0.871691 -7.76212 -4.17777 
4.13617 -4.17777 -12.0262 
-9.92075 -0.0656157 0.000163985 
-0.0656157 -9.84817 0.0470826 
0.000163985 0.0470826 -10.2314 
-9.95886 -0.097303 -0.0227708 
-0.097303 -9.84567 0.0523487 
-0.0227708 0.0523487 -10.1958 
-9.99536 -0.131495 0.196208 
-0.131495 -9.88026 -0.144257 
0.196208 -0.144257 -10.1247 
-9.89703 -0.0808741 -0.0454061 
-0.0808741 -9.77306 0.00948281 
-0.0454061 0.00948281 -10.3302 
-9.73177 0.0376561 0.109419 
0.0376561 -9.76946 0.172295 
0.109419 0.172295 -9.87677 
-9.77722 0.0528413 0.233726 
0.0528413 -9.66548 0.0999742 
0.233726 0.0999742 -9.9353 
-9.69033 0.128995 0.0756156 
0.128995 -9.71083 -0.0167242 
0.0756156 -0.0167242 -9.97684 
-9.71348 0.0736365 0.118632 
0.0736365 -9.74254 0.122127 
0.118632 0.122127 -9.92198 
-9.81636 -0.127689 -0.0707984 
-0.127689 -9.74816 0.0746362 
-0.0707984 0.0746362 -9.95593 
-9.79954 0.0506745 -0.0777229 
0.0506745 -9.88298 0.118097 
-0.0777229 0.118097 -9.83793 
-9.77933 0.012132 -0.0808813 
0.012132 -9.86303 0.138741 
-0.0808813 0.138741 -9.87809 
-9.80154 0.0148703 -0.143814 
0.0148703 -9.79522 0.176038 
-0.143814 0.176038 -9.92369 
-9.73198 0.197063 0.408437 
0.197063 -9.78596 -0.216047 
0.408437 -0.216047 -11.6978 
-10.4186 -0.000439837 -0.522339 
-0.000439837 -10.155 0.346722 
-0.522339 0.346722 -10.6421 
-9.45808 -0.527611 0.0905621 
-0.527611 -10.1088 0.0968 
0.0905621 0.0968 -11.6488 
-9.65153 -0.11557 0.141106 
-0.11557 -9.89869 0.128491 
0.141106 0.128491 -11.6655 
-9.99781 -0.0289939 -0.0613738 
-0.0289939 -9.95943 0.113836 
-0.0613738 0.113836 -9.95001 
-9.95456 -0.149695 -0.00764082 
-0.149695 -9.85905 0.0241265 
-0.00764082 0.0241265 -10.0936 
-9.8736 -0.074142 0.0257808 
-0.074142 -9.9838 -0.055109 
0.0257808 -0.055109 -10.0498 
-9.86545 -0.0963665 0.0210867 
-0.0963665 -9.96687 0.0235647 
0.0210867 0.0235647 -10.0749 
-9.90835 -0.00427228 -0.0829307 
-0.00427228 -9.91006 0.212316 
-0.0829307 0.212316 -9.96757 
-9.92474 -0.0116083 -0.113511 
-0.0116083 -9.89045 0.224498 
-0.113511 0.224498 -9.97078 
-9.95892 -0.00578808 -0.112683 
-0.00578808 -9.89942 0.232069 
-0.112683 0.232069 -9.92764 
-9.95465 -0.0185206 -0.110135 
-0.0185206 -9.88857 0.218905 
-0.110135 0.218905 -9.94275 
-9.93857 -0.000419338 0.152719 
-0.000419338 -9.95325 0.175801 
0.152719 0.175801 -10.013 
-9.958 0.0270758 0.166154 
0.0270758 -9.94439 0.18685 
0.166154 0.18685 -10.0024 
-9.96674 0.02557 0.169835 
0.02557 -9.94372 0.192491 
0.169835 0.192491 -9.99436 
-9.94731 0.011237 0.184399 
0.011237 -9.97165 0.187197 
0.184399 0.187197 -9.98585 
-9.58989 -0.376835 0.340192 
-0.376835 -10.111 -0.177743 
0.340192 -0.177743 -10.1865 
-9.67463 -0.132667 0.302763 
-0.132667 -10.1789 -0.177719 
0.302763 -0.177719 -10.0339 
-9.60289 -0.0565223 0.363974 
-0.0565223 -10.2767 -0.286813 
0.363974 -0.286813 -10.0078 
-9.66986 -0.220756 0.392741 
-0.220756 -10.0977 -0.0619367 
0.392741 -0.0619367 -10.1199 
-9.82016 0.00280337 0.118507 
0.00280337 -9.83741 0.115019 
0.118507 0.115019 -9.88536 
-9.80517 0.114672 0.159992 
0.114672 -9.79469 0.140975 
0.159992 0.140975 -9.94307 
-9.85305 -0.0504196 0.0926123 
-0.0504196 -9.82922 0.130641 
0.0926123 0.130641 -9.86067 
-9.74194 -0.00315275 0.099886 
-0.00315275 -9.87266 0.0525449 
0.099886 0.0525449 -9.92833 
-9.84746 0.122101 -0.00658638 
0.122101 -9.66949 -0.0702444 
-0.00658638 -0.0702444 -10.4235 
-9.8878 0.108495 0.0626309 
0.108495 -9.62828 -0.0341367 
0.0626309 -0.0341367 -10.4243 
-9.78187 0.0232293 -0.0899854 
0.0232293 -9.62881 -0.00768411 
-0.0899854 -0.00768411 -10.5297 
-9.94147 0.101577 0.0421441 
0.101577 -9.67183 0.198833 
0.0421441 0.198833 -10.3271 
-9.98949 0.0182003 0.0433028 
0.0182003 -9.9936 0.0327266 
0.0433028 0.0327266 -10.1018 
-10.0561 -0.0615828 0.0348057 
-0.0615828 -10.0152 -0.00808022 
0.0348057 -0.00808022 -10.0136 
-9.95151 -0.0440946 -0.0405446 
-0.0440946 -10.0986 -0.0935938 
-0.0405446 -0.0935938 -10.0348 
-10.0012 -0.0148463 0.00903409 
-0.0148463 -10.013 0.0148498 
0.00903409 0.0148498 -10.0706 
-9.72992 -0.0803268 -0.323085 
-0.0803268 -9.88276 0.0462114 
-0.323085 0.0462114 -9.85035 
-9.71788 -0.0386088 -0.155895 
-0.0386088 -9.81101 0.0255496 
-0.155895 0.0255496 -9.93413 
-9.73048 -0.0343158 -0.274163 
-0.0343158 -9.85588 0.0170627 
-0.274163 0.0170627 -9.87666 
-9.70457 -0.0148145 -0.214301 
-0.0148145 -9.88281 0.0142711 
-0.214301 0.0142711 -9.87564 
-10.2442 0.0170109 -0.0320517 
0.0170109 -10.2596 -0.029507 
-0.0320517 -0.029507 -10.4653 
-10.4675 0.0866693 0.0529237 
0.0866693 -10.2447 -0.0575679 
0.0529237 -0.0575679 -10.2568 
-10.3099 -0.0423491 0.0251281 
-0.0423491 -10.2385 -0.0640078 
0.0251281 -0.0640078 -10.4207 
-10.2981 -0.013052 0.104754 
-0.013052 -10.2742 -0.0438379 
0.104754 -0.0438379 -10.3968 
-10.2501 8.0903 -1.44367 
8.0903 -7.56891 3.29647 
-1.44367 3.29647 6.50724 
-7.22121 0.298241 0.0959401 
0.298241 0.0792985 0.334713 
0.0959401 0.334713 -4.16985 
-4.67814 -0.474797 0.0577312 
-0.474797 -5.1379 1.21266 
0.0577312 1.21266 -1.49572 
-5.52398 0.976532 -2.42311 
0.976532 -1.69452 0.383211 
-2.42311 0.383211 -4.09327 
-10.0192 0.0130128 0.0063482 
0.0130128 -10.0582 0.00920069 
0.0063482 0.00920069 -10.0231 
-10.0014 0.0244811 0.0183146 
0.0244811 -9.96806 -0.0285067 
0.0183146 -0.0285067 -10.131 
-10.0289 0.00156545 0.00658912 
0.00156545 -10.0037 0.00703575 
0.00658912 0.00703575 -10.0679 
-10.0419 -0.00396879 0.0182785 
-0.00396879 -9.99075 0.0496464 
0.0182785 0.0496464 -10.0679 
-9.69635 0.264553 -0.465632 
0.264553 -9.33688 -0.554154 
-0.465632 -0.554154 -9.19586 
-9.70429 0.100844 -0.379623 
0.100844 -8.92598 -0.592928 
-0.379623 -0.592928 -9.59882 
-9.64814 0.60085 -0.984721 
0.60085 -9.22403 -1.04481 
-0.984721 -1.04481 -9.35691 
-9.56531 0.169987 -0.643777 
0.169987 -9.40202 -0.420315 
-0.643777 -0.420315 -9.26176 
-9.8817 -0.0211121 -0.00264074 
-0.0211121 -9.93423 0.0293899 
-0.00264074 0.0293899 -9.96477 
-9.9087 -0.0254271 -0.0146967 
-0.0254271 -9.94515 0.00763111 
-0.0146967 0.00763111 -9.92684 
-9.89121 -0.00897713 -0.0177667 
-0.00897713 -9.9309 0.00421207 
-0.0177667 0.00421207 -9.95858 
-9.88802 -0.0167719 -0.00235129 
-0.0167719 -9.93081 0.00296272 
-0.00235129 0.00296272 -9.96186 
-9.88825 0.0093597 0.00981933 
0.0093597 -9.9079 -0.0102542 
0.00981933 -0.0102542 -9.94578 
-9.88011 -0.0348265 0.0342959 
-0.0348265 -9.87849 -0.04032 
0.0342959 -0.04032 -9.98333 
-9.89011 0.0125941 0.000171966 
0.0125941 -9.93176 -0.0208988 
0.000171966 -0.0208988 -9.92006 
-9.85563 -0.0182907 0.0208162 
-0.0182907 -9.90733 0.0095706 
0.0208162 0.0095706 -9.97897 
-9.91144 0.0265311 0.211258 
0.0265311 -9.83352 -0.104165 
0.211258 -0.104165 -9.85994 
-9.82576 -0.0470223 0.176152 
-0.0470223 -9.88149 -0.0968004 
0.176152 -0.0968004 -9.89765 
-9.86371 -0.00243655 0.211021 
-0.00243655 -9.84515 -0.0965926 
0.211021 -0.0965926 -9.89604 
-9.84626 -0.00393276 0.212149 
-0.00393276 -9.84949 -0.118285 
0.212149 -0.118285 -9.90915 
-10.8095 -0.0368675 -0.268789 
-0.0368675 -8.45842 0.962892 
-0.268789 0.962892 5.7232 
-8.79576 -0.2736 -0.967438 
-0.2736 -6.92269 -1.78614 
-0.967438 -1.78614 2.17368 
-2.39445 1.51595 -0.619485 
1.51595 -0.0667058 1.53923 
-0.619485 1.53923 -11.0836 
-7.2779 1.34319 -10.736 
1.34319 -6.74343 -1.27934 
-10.736 -1.27934 0.476552 
-9.01758 -0.520324 0.107327 
-0.520324 -10.8033 0.305926 
0.107327 0.305926 -12.6766 
-9.88672 1.13883 0.618058 
1.13883 -10.7781 -0.779141 
0.618058 -0.779141 -11.8327 
-8.6953 0.492205 0.97951 
0.492205 -10.5907 -0.988944 
0.97951 -0.988944 -13.2115 
-9.23836 -0.84949 1.81001 
-0.84949 -9.86141 -0.337136 
1.81001 -0.337136 -13.3977 
-9.81824 0.0603391 0.213179 
0.0603391 -9.57322 0.0283531 
0.213179 0.0283531 -10.4007 
-9.82547 0.181723 -0.0623758 
0.181723 -9.62667 -0.149654 
-0.0623758 -0.149654 -10.34 
-9.80282 0.12328 -0.0142404 
0.12328 -9.6121 0.082216 
-0.0142404 0.082216 -10.3772 
-9.79213 0.130476 -0.108429 
0.130476 -9.58915 0.0692601 
-0.108429 0.0692601 -10.4109 
-9.89271 0.0071905 -0.160255 
0.0071905 -9.90133 -0.124585 
-0.160255 -0.124585 -8.40083 
-9.74462 -0.070912 -0.176153 
-0.070912 -9.83595 -0.0331996 
-0.176153 -0.0331996 -8.6143 
-9.70859 0.00234237 -0.0763342 
0.00234237 -9.8507 -0.0208365 
-0.0763342 -0.0208365 -8.63558 
-9.74226 0.0786737 0.15109 
0.0786737 -9.53544 -0.241959 
0.15109 -0.241959 -8.91717 
-10.7379 0.0467014 -0.341054 
0.0467014 -10.7834 -0.0586847 
-0.341054 -0.0586847 -10.9099 
-10.8369 0.135022 -0.314283 
0.135022 -10.913 -0.107879 
-0.314283 -0.107879 -10.6813 
-9.98131 -0.0407746 0.083049 
-0.0407746 -10.1468 -0.113548 
0.083049 -0.113548 -12.3032 
-10.3946 0.0769069 -1.00734 
0.0769069 -11.1021 0.018665 
-1.00734 0.018665 -10.9345 
-9.96179 0.00663951 -0.269834 
0.00663951 -9.95543 -0.0522691 
-0.269834 -0.0522691 -9.96541 
-9.95994 0.0214182 -0.2106 
0.0214182 -9.99831 -0.00331743 
-0.2106 -0.00331743 -9.92439 
-9.96311 -0.00535143 -0.189209 
-0.00535143 -9.98062 -0.0294682 
-0.189209 -0.0294682 -9.93891 
-9.97308 0.032666 -0.26324 
0.032666 -9.97332 -0.0625406 
-0.26324 -0.0625406 -9.93623 
-9.64488 -0.197493 0.774579 
-0.197493 -7.12005 0.763702 
0.774579 0.763702 -10.702 
-10.9303 -0.687824 -1.35168 
-0.687824 -8.6976 0.810005 
-1.35168 0.810005 -7.83911 
-10.8672 0.0655626 -1.17529 
0.0655626 -9.93028 -0.0474116 
-1.17529 -0.0474116 -6.66952 
-11.867 -0.342855 0.0296702 
-0.342855 -10.8509 2.17478 
0.0296702 2.17478 -4.74903 
-9.74619 0.081358 -0.25487 
0.081358 -9.60617 -0.443004 
-0.25487 -0.443004 -9.56548 
-9.72769 0.084979 -0.39957 
0.084979 -9.54445 -0.313465 
-0.39957 -0.313465 -9.6457 
-9.74412 0.121307 -0.493419 
0.121307 -9.54302 -0.343969 
-0.493419 -0.343969 -9.6307 
-9.68059 0.072132 -0.42018 
0.072132 -9.48216 -0.45156 
-0.42018 -0.45156 -9.75509 
-9.52499 0.131347 -0.421062 
0.131347 -9.79908 -0.593691 
-0.421062 -0.593691 -9.58282 
-9.45984 0.0373971 -0.362346 
0.0373971 -9.83483 -0.294984 
-0.362346 -0.294984 -9.61222 
-9.60644 0.0696702 -0.379184 
0.0696702 -9.71107 -0.390906 
-0.379184 -0.390906 -9.58937 
-9.71058 -0.0143673 -0.453086 
-0.0143673 -9.46533 -0.436223 
-0.453086 -0.436223 -9.73098 
-9.94997 -0.0808608 0.028426 
-0.0808608 -9.95027 0.00981012 
0.028426 0.00981012 -9.93858 
-9.95352 0.0807836 -0.012604 
0.0807836 -9.87912 -0.00601926 
-0.012604 -0.00601926 -10.0062 
-9.91564 0.00340366 0.00514838 
0.00340366 -9.9319 0.0131779 
0.00514838 0.0131779 -9.99128 
-9.86611 0.0241806 0.00543605 
0.0241806 -9.97209 0.0614577 
0.00543605 0.0614577 -10.0006 
-9.89238 0.112912 -0.0204304 
0.112912 -9.7655 0.0642625 
-0.0204304 0.0642625 -9.95026 
-9.86623 0.0916545 0.0447006 
0.0916545 -9.77709 0.0826021 
0.0447006 0.0826021 -9.96483 
-9.87604 0.117733 0.0754295 
0.117733 -9.68567 0.0377423 
0.0754295 0.0377423 -10.0464 
-9.89236 0.14772 0.00125749 
0.14772 -9.77013 0.0923199 
0.00125749 0.0923199 -9.94565 
-9.97968 0.0014208 -0.12972 
0.0014208 -9.97687 -0.206217 
-0.12972 -0.206217 -9.98998 
-9.98359 0.0010568 -0.133026 
0.0010568 -9.97916 -0.205891 
-0.133026 -0.205891 -9.98377 
-9.98306 0.00381536 -0.135038 
0.00381536 -9.98678 -0.204851 
-0.135038 -0.204851 -9.97668 
-9.97717 -0.00718753 -0.134711 
-0.00718753 -9.96694 -0.217979 
-0.134711 -0.217979 -10.0024 
-10.3255 0.104613 0.148445 
0.104613 -10.227 -0.0418127 
0.148445 -0.0418127 -10.1072 
-10.0297 -0.0534483 0.0850299 
-0.0534483 -10.0767 0.0944569 
0.0850299 0.0944569 -10.5533 
-10.0678 0.0339998 0.0270357 
0.0339998 -10.0242 0.0291203 
0.0270357 0.0291203 -10.5678 
-10.1897 0.193132 0.0372277 
0.193132 -10.2805 0.20645 
0.0372277 0.20645 -10.1895 
-9.95256 -0.0618449 -0.127677 
-0.0618449 -9.78534 0.269103 
-0.127677 0.269103 -9.90991 
-9.95296 -0.0197633 -0.124526 
-0.0197633 -9.76612 0.265156 
-0.124526 0.265156 -9.92872 
-9.93028 -0.0544084 -0.111482 
-0.0544084 -9.79859 0.276041 
-0.111482 0.276041 -9.91894 
-9.9788 -0.013375 -0.119335 
-0.013375 -9.78051 0.263332 
-0.119335 0.263332 -9.88849 
-9.74407 -0.0554107 -0.223419 
-0.0554107 -9.62103 -0.196089 
-0.223419 -0.196089 -9.94134 
-9.96787 0.124002 -0.328302 
0.124002 -9.5547 -0.247139 
-0.328302 -0.247139 -9.78386 
-9.87188 0.0614479 -0.349123 
0.0614479 -9.7621 -0.422197 
-0.349123 -0.422197 -9.67246 
-9.56847 0.148431 -0.65439 
0.148431 -9.63023 -0.533553 
-0.65439 -0.533553 -10.1077 
-10.9451 0.472902 -0.247175 
0.472902 -10.6187 0.629285 
-0.247175 0.629285 -10.4226 
-11.3885 -0.114179 -0.264764 
-0.114179 -10.8254 0.734586 
-0.264764 0.734586 -9.77252 
-9.72974 -0.539056 0.278232 
-0.539056 -10.1924 -0.527241 
0.278232 -0.527241 -12.0643 
-11.0129 -0.517492 -0.285362 
-0.517492 -9.43308 0.609182 
-0.285362 0.609182 -11.5404 
-2.46452 -0.071566 0.0388167 
-0.071566 -3.43906 0.179501 
0.0388167 0.179501 -2.61305 
-4.97312 0.0201399 0.768506 
0.0201399 -6.65602 2.9369 
0.768506 2.9369 3.1125 
-2.55634 -0.34248 0.10111 
-0.34248 -4.13497 0.278585 
0.10111 0.278585 -1.82532 
-1.31826 -0.6048 0.488859 
-0.6048 -6.75959 -1.96324 
0.488859 -1.96324 -0.438786 
-9.50322 0.123582 -0.37966 
0.123582 -9.86371 -0.243513 
-0.37966 -0.243513 -9.67736 
-9.61973 0.176271 -0.314188 
0.176271 -9.68041 -0.222893 
-0.314188 -0.222893 -9.74416 
-9.59651 0.131653 -0.344041 
0.131653 -9.74245 -0.208869 
-0.344041 -0.208869 -9.70534 
-9.47013 0.138768 -0.290899 
0.138768 -9.71439 -0.243716 
-0.290899 -0.243716 -9.85977 
-9.54658 0.0922535 0.0210919 
0.0922535 -9.7828 0.0374359 
0.0210919 0.0374359 -10.1681 
-9.81332 0.0405887 0.185694 
0.0405887 -9.71709 0.217071 
0.185694 0.217071 -9.96708 
-9.9309 0.109594 0.0234517 
0.109594 -9.94648 0.157195 
0.0234517 0.157195 -9.6201 
-9.864 0.0850389 0.063205 
0.0850389 -9.70906 0.186411 
0.063205 0.186411 -9.92442 
-9.94861 -0.00715263 -0.162484 
-0.00715263 -9.94108 0.157224 
-0.162484 0.157224 -10.0029 
-9.95952 -0.00648506 -0.160862 
-0.00648506 -9.95554 0.174424 
-0.160862 0.174424 -9.97752 
-9.95486 -0.00680376 -0.172193 
-0.00680376 -9.94462 0.17063 
-0.172193 0.17063 -9.99311 
-9.97085 -0.00796425 -0.163458 
-0.00796425 -9.94285 0.18813 
-0.163458 0.18813 -9.97888 
-9.37792 0.575015 -0.0652365 
0.575015 -8.06056 1.09077 
-0.0652365 1.09077 -9.11525 
-10.9233 -0.244943 0.761134 
-0.244943 -9.8149 1.48666 
0.761134 1.48666 -5.81556 
-10.7504 0.0375121 0.209767 
0.0375121 -8.9498 -0.0184425 
0.209767 -0.0184425 -6.85351 
-9.25021 0.864259 0.315058 
0.864259 -9.31638 0.435768 
0.315058 0.435768 -7.98714 
-9.79968 -0.0843201 -0.0726766 
-0.0843201 -9.65174 0.140558 
-0.0726766 0.140558 -9.89714 
-9.67818 -0.0964742 -0.155401 
-0.0964742 -9.60726 0.178344 
-0.155401 0.178344 -10.0631 
-9.75554 -0.0853469 -0.046071 
-0.0853469 -9.67825 0.0834621 
-0.046071 0.0834621 -9.91477 
-9.8789 -0.044573 -0.0730341 
-0.044573 -9.71249 0.178958 
-0.0730341 0.178958 -9.75717 
-10.361 -1.47196 -0.793358 
-1.47196 -10.7942 0.400616 
-0.793358 0.400616 -10.4013 
-10.6573 0.470047 0.547195 
0.470047 -10.2952 0.237998 
0.547195 0.237998 -10.6041 
-10.6273 0.960949 -1.05362 
0.960949 -9.40989 0.30362 
-1.05362 0.30362 -11.5194 
-10.3505 -1.10356 1.10562 
-1.10356 -9.96379 -0.0914705 
1.10562 -0.0914705 -11.2423 
-9.75208 -0.192208 0.123149 
-0.192208 -9.70904 -0.258263 
0.123149 -0.258263 -10.1414 
-9.83887 -0.144311 0.184404 
-0.144311 -9.71806 -0.235125 
0.184404 -0.235125 -10.0456 
-9.7068 -0.186564 0.212594 
-0.186564 -9.78944 -0.207326 
0.212594 -0.207326 -10.1063 
-9.60908 -0.193272 0.249159 
-0.193272 -9.87787 -0.233016 
0.249159 -0.233016 -10.1156 
-9.98771 -0.0125292 0.0562505 
-0.0125292 -9.99296 -0.023316 
0.0562505 -0.023316 -9.98675 
-9.9425 0.0219145 -0.022275 
0.0219145 -9.98973 0.0177015 
-0.022275 0.0177015 -10.0352 
-9.92808 -0.00619058 0.00664311 
-0.00619058 -9.98301 -0.0140439 
0.00664311 -0.0140439 -10.0563 
-9.90529 -0.0328897 0.0107852 
-0.0328897 -9.99333 -0.00522301 
0.0107852 -0.00522301 -10.0688 
-10.0741 -0.085778 0.014501 
-0.085778 -9.74696 -0.310366 
0.014501 -0.310366 -9.94889 
-9.91742 -0.386897 0.293165 
-0.386897 -9.5165 -0.346454 
0.293165 -0.346454 -10.3361 
-10.118 -0.336926 0.355713 
-0.336926 -9.65899 -0.479628 
0.355713 -0.479628 -9.99302 
-9.93259 -0.229849 0.173435 
-0.229849 -9.57217 -0.408657 
0.173435 -0.408657 -10.2652 
-9.84679 0.0416619 0.246164 
0.0416619 -9.89149 0.149919 
0.246164 0.149919 -9.94182 
-9.84526 0.0413823 0.271849 
0.0413823 -9.93726 0.185903 
0.271849 0.185903 -9.89759 
-9.87339 0.0595249 0.233419 
0.0595249 -9.8898 0.14658 
0.233419 0.14658 -9.91692 
-9.82727 0.0743145 0.227279 
0.0743145 -9.92244 0.224148 
0.227279 0.224148 -9.93039 
-9.93585 -0.00664854 0.129059 
-0.00664854 -9.94901 0.180342 
0.129059 0.180342 -9.97383 
-9.94543 0.0151765 0.152599 
0.0151765 -9.94224 0.204528 
0.152599 0.204528 -9.97102 
-9.93141 -0.00398572 0.149805 
-0.00398572 -9.9389 0.200394 
0.149805 0.200394 -9.98839 
-9.9381 0.021249 0.152367 
0.021249 -9.94119 0.196893 
0.152367 0.196893 -9.97941 
-9.77794 0.159456 -0.276632 
0.159456 -9.69396 -0.393718 
-0.276632 -0.393718 -9.38317 
-9.86118 0.0539635 -0.547281 
0.0539635 -9.5611 -0.493344 
-0.547281 -0.493344 -9.43278 
-9.93131 -0.0315274 -0.578222 
-0.0315274 -9.68304 -0.538301 
-0.578222 -0.538301 -9.24072 
-9.6816 0.180222 -0.581311 
0.180222 -9.42031 -0.600314 
-0.581311 -0.600314 -9.75316 
-9.81292 0.0107406 0.0230565 
0.0107406 -9.72644 0.219092 
0.0230565 0.219092 -9.75194 
-9.76937 0.0109196 0.0171528 
0.0109196 -9.68349 0.201928 
0.0171528 0.201928 -9.83844 
-9.7364 0.0144539 0.0525379 
0.0144539 -9.80556 0.246707 
0.0525379 0.246707 -9.74934 
-9.7761 0.0405667 0.0324294 
0.0405667 -9.72577 0.208255 
0.0324294 0.208255 -9.78943 
-8.59213 -0.362185 -0.259838 
-0.362185 -10.4606 -0.0363442 
-0.259838 -0.0363442 -11.663 
-8.31415 -0.145187 -0.43109 
-0.145187 -11.1456 0.198051 
-0.43109 0.198051 -11.2561 
-10.2684 -0.312719 -0.723667 
-0.312719 -9.8344 0.326042 
-0.723667 0.326042 -10.613 
-8.18503 -0.316474 -1.23793 
-0.316474 -10.9702 0.140837 
-1.23793 0.140837 -11.5606 
-10.5811 0.223683 -0.352292 
0.223683 -11.8182 0.0784007 
-0.352292 0.0784007 -11.2728 
-11.9285 1.10844 -0.00643035 
1.10844 -11.1474 -0.207195 
-0.00643035 -0.207195 -10.5962 
-10.4944 -0.00642678 -0.197661 
-0.00642678 -10.8527 -0.280591 
-0.197661 -0.280591 -12.325 
-11.0831 0.0921246 -1.09498 
0.0921246 -11.3481 0.635328 
-1.09498 0.635328 -11.2409 
-9.87292 0.289647 -0.0506068 
0.289647 -9.64624 -0.241576 
-0.0506068 -0.241576 -10.2573 
-9.81073 0.17814 -0.114924 
0.17814 -9.76617 -0.165187 
-0.114924 -0.165187 -10.1996 
-9.62919 0.167225 -0.188248 
0.167225 -9.94447 -0.168229 
-0.188248 -0.168229 -10.2028 
-9.91163 0.0853245 -0.11453 
0.0853245 -9.72577 -0.140806 
-0.11453 -0.140806 -10.1391 
-10.2299 0.0794916 -0.0793185 
0.0794916 -10.4405 0.0527525 
-0.0793185 0.0527525 -10.7068 
-10.3851 -0.018859 -0.0153152 
-0.018859 -10.4192 0.0602396 
-0.0153152 0.0602396 -10.5728 
-10.4382 -0.0674318 -0.0706062 
-0.0674318 -10.7672 -0.0360782 
-0.0706062 -0.0360782 -10.1717 
-10.3089 0.00152279 0.0658509 
0.00152279 -10.4818 -0.136314 
0.0658509 -0.136314 -10.5865 
-9.95725 0.00664982 -0.196548 
0.00664982 -9.95785 -0.147812 
-0.196548 -0.147812 -10.0073 
-9.97202 0.00367709 -0.192033 
0.00367709 -9.9667 -0.176098 
-0.192033 -0.176098 -9.98367 
-9.96317 0.0197503 -0.197447 
0.0197503 -9.96433 -0.169514 
-0.197447 -0.169514 -9.99488 
-9.967 0.0235033 -0.197086 
0.0235033 -9.96206 -0.159305 
-0.197086 -0.159305 -9.99332 
-9.90923 0.0288248 0.14013 
0.0288248 -9.86341 0.202259 
0.14013 0.202259 -9.92598 
-9.88348 -0.00512803 0.125995 
-0.00512803 -9.90273 0.196736 
0.125995 0.196736 -9.91242 
-9.88624 -0.00710766 0.137815 
-0.00710766 -9.91714 0.194446 
0.137815 0.194446 -9.89524 
-9.88961 0.0251999 0.130697 
0.0251999 -9.89925 0.162615 
0.130697 0.162615 -9.90976 
-13.3002 0.376957 0.226339 
0.376957 -9.95677 -6.28473 
0.226339 -6.28473 -1.46286 
-9.27511 -0.150606 0.651979 
-0.150606 -9.80734 -3.28049 
0.651979 -3.28049 -5.63739 
-11.263 -0.896388 -0.475909 
-0.896388 -4.71217 -2.41708 
-0.475909 -2.41708 -8.74462 
-9.26197 0.0769229 1.52359 
0.0769229 -11.1121 -1.54588 
1.52359 -1.54588 -4.34581 
-9.86849 0.004998 -0.130071 
0.004998 -9.90523 -0.0248963 
-0.130071 -0.0248963 -9.62762 
-9.88832 0.00982048 -0.160242 
0.00982048 -9.86207 -0.0771938 
-0.160242 -0.0771938 -9.65095 
-9.91839 -0.0372768 -0.233586 
-0.0372768 -9.96642 -0.10249 
-0.233586 -0.10249 -9.51653 
-9.77425 -0.00276643 -0.271543 
-0.00276643 -9.79387 -0.0596406 
-0.271543 -0.0596406 -9.83322 
-9.69568 -0.00235624 -0.175194 
-0.00235624 -9.82644 0.00556513 
-0.175194 0.00556513 -9.85373 
-9.63972 0.0161771 -0.192222 
0.0161771 -9.8281 0.0802119 
-0.192222 0.0802119 -9.90803 
-9.7062 -0.00686153 -0.157968 
-0.00686153 -9.83624 0.0125387 
-0.157968 0.0125387 -9.83341 
-9.71757 0.0260061 -0.222829 
0.0260061 -9.8462 -0.0101536 
-0.222829 -0.0101536 -9.81209 
-7.21492 3.69164 2.17267 
3.69164 -9.3882 0.582025 
2.17267 0.582025 -21.6546 
-14.8775 1.78505 -0.939246 
1.78505 -11.6283 -1.5381 
-0.939246 -1.5381 -11.7519 
-9.64263 -1.60169 1.38408 
-1.60169 -10.6339 0.0998007 
1.38408 0.0998007 -17.9811 
-10.9005 2.28688 -0.79028 
2.28688 -11.9771 0.897584 
-0.79028 0.897584 -15.3801 
-9.95782 -0.0716243 -0.00111831 
-0.0716243 -9.99532 0.0575912 
-0.00111831 0.0575912 -10.1721 
-10.0332 0.0284479 0.00199386 
0.0284479 -9.97901 -0.0236513 
0.00199386 -0.0236513 -10.113 
-10.0594 0.0484595 -0.00468805 
0.0484595 -9.9718 0.0114631 
-0.00468805 0.0114631 -10.094 
-10.0443 -0.029578 -0.00286378 
-0.029578 -10.0023 -0.0595113 
-0.00286378 -0.0595113 -10.0787 
-9.2621 0.816101 -0.291531 
0.816101 -9.69632 -0.304166 
-0.291531 -0.304166 -10.6128 
-9.36361 1.28018 -1.0051 
1.28018 -9.46001 -0.766677 
-1.0051 -0.766677 -10.7476 
-9.90729 0.51195 -0.118221 
0.51195 -9.64097 -0.260724 
-0.118221 -0.260724 -10.0229 
-9.04833 0.568066 -0.42083 
0.568066 -10.0431 -0.0153036 
-0.42083 -0.0153036 -10.4798 
-10.5754 -2.03361 0.242466 
-2.03361 -6.61174 1.17381 
0.242466 1.17381 -6.65766 
-10.8395 0.0436836 0.577241 
0.0436836 -8.12729 1.61207 
0.577241 1.61207 -4.87809 
-11.2853 -0.645351 1.03702 
-0.645351 -7.18557 1.0813 
1.03702 1.0813 -5.37399 
-11.1131 -1.08514 -0.00252162 
-1.08514 -6.47511 0.578845 
-0.00252162 0.578845 -6.25667 
-10.0258 -0.00413383 0.0971493 
-0.00413383 -10.0065 0.119694 
0.0971493 0.119694 -9.94106 
-10.0207 -0.0215542 0.104321 
-0.0215542 -9.99968 0.104426 
0.104321 0.104426 -9.95297 
-9.93014 -0.0123434 0.108484 
-0.0123434 -9.9386 0.0839408 
0.108484 0.0839408 -10.1047 
-10.0211 0.00498786 0.139824 
0.00498786 -10.018 0.123936 
0.139824 0.123936 -9.93425 
-9.95633 0.0013805 -0.00742309 
0.0013805 -9.91622 -0.263821 
-0.00742309 -0.263821 -9.93543 
-9.96374 0.0152355 -0.0182597 
0.0152355 -9.92631 -0.239926 
-0.0182597 -0.239926 -9.91794 
-9.98869 0.0285393 -0.00762374 
0.0285393 -9.93405 -0.242983 
-0.00762374 -0.242983 -9.88525 
-9.97506 -0.000419312 -0.0314838 
-0.000419312 -9.91258 -0.253807 
-0.0314838 -0.253807 -9.92035 
-5.01446 3.67511 3.234 
3.67511 -19.5163 9.12693 
3.234 9.12693 6.48547 
-10.011 -1.85884 0.761976 
-1.85884 -18.2434 9.55042 
0.761976 9.55042 10.2092 
2.6511 -6.07901 -3.14363 
-6.07901 -2.07525 -3.46645 
-3.14363 -3.46645 -18.6211 
-9.56086 4.40708 -1.85471 
4.40708 4.76574 12.8292 
-1.85471 12.8292 -13.2501 
-9.76295 -0.0239776 -0.299381 
-0.0239776 -9.93659 0.00712504 
-0.299381 0.00712504 -9.70882 
-9.75826 0.0549816 -0.271729 
0.0549816 -9.88769 0.0418216 
-0.271729 0.0418216 -9.76241 
-9.79185 0.0304792 -0.295351 
0.0304792 -9.9312 0.0366899 
-0.295351 0.0366899 -9.68532 
-9.80289 -0.0532548 -0.289451 
-0.0532548 -9.8961 0.0421948 
-0.289451 0.0421948 -9.70937 
-9.91148 0.0206758 -0.00420261 
0.0206758 -9.87435 -0.194396 
-0.00420261 -0.194396 -9.77976 
-9.91802 0.004698 -0.0280225 
0.004698 -9.90185 -0.219166 
-0.0280225 -0.219166 -9.74572 
-9.91458 0.00662076 -0.00206264 
0.00662076 -9.8966 -0.223631 
-0.00206264 -0.223631 -9.75441 
-9.9026 0.000919508 -0.00924439 
0.000919508 -9.87241 -0.227264 
-0.00924439 -0.227264 -9.79058 
-9.84995 0.0392161 0.187668 
0.0392161 -9.72754 0.297339 
0.187668 0.297339 -9.91911 
-9.8247 0.0415158 0.13022 
0.0415158 -9.75002 0.224311 
0.13022 0.224311 -9.92188 
-9.82171 0.0657348 0.0988937 
0.0657348 -9.72718 0.190582 
0.0988937 0.190582 -9.94771 
-9.80967 0.020649 0.104764 
0.020649 -9.77972 0.201482 
0.104764 0.201482 -9.90721 
-10.1203 -0.0143244 -0.0157743 
-0.0143244 -10.1304 -0.00406749 
-0.0157743 -0.00406749 -10.1848 
-10.2171 -0.0244546 -0.0166609 
-0.0244546 -10.2355 0.0773475 
-0.0166609 0.0773475 -9.98282 
-10.1373 0.00752852 -0.00743895 
0.00752852 -10.1179 -0.0247556 
-0.00743895 -0.0247556 -10.1803 
-10.1316 -0.0166867 0.0197543 
-0.0166867 -10.1156 0.00393693 
0.0197543 0.00393693 -10.1883 
-8.45449 -0.0794166 -1.01931 
-0.0794166 -10.4693 -0.548557 
-1.01931 -0.548557 -9.44113 
-8.14018 0.159121 0.668703 
0.159121 -8.91122 -1.43871 
0.668703 -1.43871 -11.3135 
-9.99174 -0.767882 -0.27627 
-0.767882 -10.319 -2.92747 
-0.27627 -2.92747 -8.05417 
-10.7201 0.294525 0.00161787 
0.294525 -7.56712 -1.44833 
0.00161787 -1.44833 -10.0777 
-9.80671 -0.0559807 -0.040615 
-0.0559807 -9.81788 0.113311 
-0.040615 0.113311 -9.86185 
-9.7445 0.0383946 -0.0340918 
0.0383946 -9.92762 0.0827189 
-0.0340918 0.0827189 -9.81432 
-9.80076 -0.0633807 -0.0800493 
-0.0633807 -9.75013 0.164102 
-0.0800493 0.164102 -9.93555 
-9.74238 -0.0967204 -0.0952626 
-0.0967204 -9.83709 0.105908 
-0.0952626 0.105908 -9.90697 
-9.9419 -0.0105318 -0.219903 
-0.0105318 -9.97457 -0.034918 
-0.219903 -0.034918 -9.6121 
-9.8496 0.0167354 -0.222888 
0.0167354 -9.97672 0.0345426 
-0.222888 0.0345426 -9.70224 
-9.87385 0.021022 -0.200486 
0.021022 -9.95951 0.0286505 
-0.200486 0.0286505 -9.69521 
-9.83431 -0.00355852 -0.248302 
-0.00355852 -9.87617 0.0133482 
-0.248302 0.0133482 -9.81809 
-9.94647 -0.00870675 0.130061 
-0.00870675 -9.95466 -0.189647 
0.130061 -0.189647 -9.97179 
-9.95157 -0.00683152 0.131033 
-0.00683152 -9.93664 -0.20052 
0.131033 -0.20052 -9.9847 
-9.9437 0.00131817 0.145508 
0.00131817 -9.95257 -0.217813 
0.145508 -0.217813 -9.97664 
-9.95116 -0.0115063 0.150007 
-0.0115063 -9.94563 -0.205655 
0.150007 -0.205655 -9.97612 
-9.70527 0.0424541 0.305134 
0.0424541 -9.95961 0.247257 
0.305134 0.247257 -9.57453 
-9.74109 0.0772387 0.404829 
0.0772387 -9.8814 0.226894 
0.404829 0.226894 -9.61692 
-9.69783 0.0443111 0.362534 
0.0443111 -9.90072 0.249176 
0.362534 0.249176 -9.64087 
-9.74685 0.0358392 0.326528 
0.0358392 -9.86894 0.219738 
0.326528 0.219738 -9.62362 
-9.79144 0.0557348 0.0633685 
0.0557348 -9.70447 0.167503 
0.0633685 0.167503 -9.84379 
-9.73858 0.0336779 0.0823211 
0.0336779 -9.66531 0.202319 
0.0823211 0.202319 -9.93581 
-9.76552 0.0258185 0.0732447 
0.0258185 -9.71022 0.15721 
0.0732447 0.15721 -9.86396 
-9.81793 0.0335961 0.095394 
0.0335961 -9.73859 0.217651 
0.095394 0.217651 -9.78318 
-6.06978 -0.321857 0.0138167 
-0.321857 -10.2469 -0.847396 
0.0138167 -0.847396 -1.346 
-6.18333 -2.24645 -0.056674 
-2.24645 -8.89119 -1.40181 
-0.056674 -1.40181 -2.58817 
-5.21526 -0.716844 0.924801 
-0.716844 -9.88267 -2.11546 
0.924801 -2.11546 -2.56477 
-5.74774 -0.163517 1.33929 
-0.163517 -9.22705 -1.22771 
1.33929 -1.22771 -2.6879 
-9.97073 0.0242092 -0.160738 
0.0242092 -10.0126 -0.0692765 
-0.160738 -0.0692765 -9.98966 
-10.0122 0.00091694 -0.123215 
0.00091694 -10.0327 -0.0733392 
-0.123215 -0.0733392 -9.92805 
-9.96482 0.00336423 -0.156797 
0.00336423 -9.98952 -0.10533 
-0.156797 -0.10533 -10.0186 
-10.0307 -0.00283314 -0.144243 
-0.00283314 -10.0181 -0.0731261 
-0.144243 -0.0731261 -9.92415 
-9.96674 -0.0408299 0.0230899 
-0.0408299 -9.92327 0.0494788 
0.0230899 0.0494788 -9.99391 
-9.98863 -0.0353529 0.0343384 
-0.0353529 -9.91521 -0.0582884 
0.0343384 -0.0582884 -9.98008 
-9.92242 0.00337353 -0.0265493 
0.00337353 -9.97408 0.0891726 
-0.0265493 0.0891726 -9.98743 
-9.91199 -0.0424829 0.0322584 
-0.0424829 -9.89698 0.0134854 
0.0322584 0.0134854 -10.075 
-9.92686 0.0051846 0.0207162 
0.0051846 -9.78559 -0.00580258 
0.0207162 -0.00580258 -9.88223 
-9.81636 0.0722082 0.0814677 
0.0722082 -9.8324 0.0372504 
0.0814677 0.0372504 -9.94593 
-9.86465 0.0580953 0.040837 
0.0580953 -9.82255 0.0069197 
0.040837 0.0069197 -9.90748 
-9.86975 0.0857217 0.0278693 
0.0857217 -9.77008 0.0386983 
0.0278693 0.0386983 -9.95486 
-9.98448 0.0014785 -0.204485 
0.0014785 -9.95862 0.112047 
-0.204485 0.112047 -10.0325 
-10.004 -0.00108101 -0.197432 
-0.00108101 -10.0069 0.131741 
-0.197432 0.131741 -9.96474 
-9.99321 0.0149237 -0.195121 
0.0149237 -9.98361 0.114957 
-0.195121 0.114957 -9.99879 
-9.9918 -0.00161202 -0.196199 
-0.00161202 -10.0167 0.111823 
-0.196199 0.111823 -9.96707 
-9.97872 -0.00183834 -0.249606 
-0.00183834 -9.95239 0.0361097 
-0.249606 0.0361097 -9.99832 
-9.9819 -0.008037 -0.244414 
-0.008037 -10.0056 0.0610557 
-0.244414 0.0610557 -9.94194 
-9.93771 0.0166918 -0.226998 
0.0166918 -9.95374 0.022812 
-0.226998 0.022812 -10.038 
-9.95312 -0.0136436 -0.262224 
-0.0136436 -10.0223 0.0284924 
-0.262224 0.0284924 -9.95402 
-10.0646 0.00157279 -0.00193681 
0.00157279 -10.0097 0.00410086 
-0.00193681 0.00410086 -10.0445 
-10.0461 -0.0115995 0.0132857 
-0.0115995 -10.0373 0.0380576 
0.0132857 0.0380576 -10.0355 
-10.0407 0.0161429 -0.0278665 
0.0161429 -10.0267 0.00391921 
-0.0278665 0.00391921 -10.0514 
-10.0566 -0.0115819 -0.0133629 
-0.0115819 -10.0282 0.0217283 
-0.0133629 0.0217283 -10.0341 
-9.86152 -0.0958221 0.028192 
-0.0958221 -9.73643 -0.0499455 
0.028192 -0.0499455 -9.95499 
-9.80457 -0.0704248 0.0637342 
-0.0704248 -9.80465 -0.0738239 
0.0637342 -0.0738239 -9.94371 
-9.8537 -0.0941353 0.0469296 
-0.0941353 -9.74616 -0.0743228 
0.0469296 -0.0743228 -9.95307 
-9.85559 -0.133885 -0.00833095 
-0.133885 -9.75808 -0.0631351 
-0.00833095 -0.0631351 -9.93926 
-9.84223 0.0151392 -0.0142206 
0.0151392 -9.98855 0.0188628 
-0.0142206 0.0188628 -9.89898 
-9.88539 -0.0470289 -0.0181772 
-0.0470289 -9.89985 0.0327327 
-0.0181772 0.0327327 -9.94452 
-9.88801 -0.0438528 -0.00628908 
-0.0438528 -9.89957 0.0180726 
-0.00628908 0.0180726 -9.94218 
-9.85188 -0.0722898 -0.00500912 
-0.0722898 -9.91398 0.00052506 
-0.00500912 0.00052506 -9.9639 
-9.80588 0.0398881 -0.101786 
0.0398881 -9.82292 -0.0721767 
-0.101786 -0.0721767 -9.92026 
-9.86332 0.00572999 -0.110142 
0.00572999 -9.78456 -0.074886 
-0.110142 -0.074886 -9.90119 
-9.81599 0.0385644 -0.114031 
0.0385644 -9.80302 -0.0704377 
-0.114031 -0.0704377 -9.93005 
-9.84749 0.0413679 -0.100259 
0.0413679 -9.78084 -0.064195 
-0.100259 -0.064195 -9.92073 
-9.61548 -0.133512 0.302251 
-0.133512 -9.76824 -0.271727 
0.302251 -0.271727 -9.83582 
-9.58678 -0.144093 0.283736 
-0.144093 -9.71621 -0.240772 
0.283736 -0.240772 -9.91656 
-9.64683 -0.0131249 0.248833 
-0.0131249 -9.78903 -0.193016 
0.248833 -0.193016 -9.78369 
-9.58557 -0.180623 0.428026 
-0.180623 -9.83231 -0.41584 
0.428026 -0.41584 -9.80167 
-3.95025 -0.631372 -0.449924 
-0.631372 -5.35685 -0.0979743 
-0.449924 -0.0979743 -1.15679 
-3.38134 0.000138914 -0.574331 
0.000138914 -6.24271 0.0239458 
-0.574331 0.0239458 -0.839832 
-5.39566 0.749809 0.534685 
0.749809 -6.02932 -0.293788 
0.534685 -0.293788 0.96109 
-5.00907 -0.698043 -1.68813 
-0.698043 -5.15511 -0.889025 
-1.68813 -0.889025 -0.299703 
-9.20894 0.145121 -0.761625 
0.145121 -9.11685 -0.732187 
-0.761625 -0.732187 -10.2912 
-10.6227 -1.16605 -2.17445 
-1.16605 -8.65299 2.34151 
-2.17445 2.34151 -9.34132 
-9.84114 -0.312953 0.477581 
-0.312953 -9.54829 1.5077 
0.477581 1.5077 -9.22755 
-10.2815 -0.213934 0.153239 
-0.213934 -8.65984 1.02108 
0.153239 1.02108 -9.67566 
-9.77173 -0.118039 0.169538 
-0.118039 -9.74569 -0.113102 
0.169538 -0.113102 -10.1472 
-9.7808 -0.081927 0.272225 
-0.081927 -9.78357 -0.13367 
0.272225 -0.13367 -10.1002 
-9.89776 -0.178883 0.0780858 
-0.178883 -9.72699 -0.148939 
0.0780858 -0.148939 -10.0398 
-9.7116 -0.0688811 0.174726 
-0.0688811 -9.79465 -0.151511 
0.174726 -0.151511 -10.1583 
-9.92603 -0.00714381 0.210925 
-0.00714381 -9.92921 -0.0967479 
0.210925 -0.0967479 -9.93159 
-9.90696 -0.0106126 0.223499 
-0.0106126 -9.92701 -0.0978916 
0.223499 -0.0978916 -9.95285 
-9.9174 0.0042738 0.212438 
0.0042738 -9.91376 -0.111142 
0.212438 -0.111142 -9.95567 
-9.92465 -0.0242145 0.226289 
-0.0242145 -9.93239 -0.101204 
0.226289 -0.101204 -9.92978 
-9.82472 -1.68977 1.3394 
-1.68977 -8.27429 0.396932 
1.3394 0.396932 -21.6425 
-15.5112 -2.27035 0.834647 
-2.27035 -15.222 -1.32013 
0.834647 -1.32013 -9.00826 
-12.1515 -1.36961 0.423236 
-1.36961 -11.5483 0.283733 
0.423236 0.283733 -16.0417 
-13.6301 -1.28831 -5.18973 
-1.28831 -12.5528 1.75662 
-5.18973 1.75662 -13.5586 
-9.81915 -0.0437121 -0.118924 
-0.0437121 -9.82764 0.106766 
-0.118924 0.106766 -9.89938 
-9.77876 -0.0789528 -0.15088 
-0.0789528 -9.82398 0.152877 
-0.15088 0.152877 -9.94344 
-9.85491 0.102414 -0.113884 
0.102414 -9.86942 0.0832527 
-0.113884 0.0832527 -9.82185 
-9.8751 -0.0196274 -0.0879267 
-0.0196274 -9.74367 0.128119 
-0.0879267 0.128119 -9.92741 
-10.1934 -0.0537826 0.0838509 
-0.0537826 -9.7216 -0.363265 
0.0838509 -0.363265 -9.69286 
-10.1867 -0.105257 0.106796 
-0.105257 -9.5889 -0.380489 
0.106796 -0.380489 -9.83226 
-10.1095 0.0425998 0.0778276 
0.0425998 -9.56258 -0.582455 
0.0778276 -0.582455 -9.93583 
-10.0527 -0.0301701 0.117768 
-0.0301701 -9.60503 -0.338685 
0.117768 -0.338685 -9.95018 
-9.88063 0.0316696 -0.0597395 
0.0316696 -9.71228 -0.335357 
-0.0597395 -0.335357 -9.4154 
-9.7776 -0.0252385 -0.0799757 
-0.0252385 -9.81245 -0.148222 
-0.0799757 -0.148222 -9.41826 
-9.88846 0.0750544 -0.11779 
0.0750544 -9.73516 -0.303933 
-0.11779 -0.303933 -9.38469 
-9.93598 0.0562832 -0.199587 
0.0562832 -9.88255 -0.369383 
-0.199587 -0.369383 -9.18977 
-9.92751 0.0497382 -0.00405268 
0.0497382 -9.92535 0.0308066 
-0.00405268 0.0308066 -9.9461 
-9.89128 -0.0566691 -0.0500665 
-0.0566691 -9.90566 0.0506712 
-0.0500665 0.0506712 -10.002 
-9.89583 -0.0330723 -0.0206753 
-0.0330723 -9.91881 0.0337121 
-0.0206753 0.0337121 -9.98431 
-9.83658 0.00153296 -0.0338238 
0.00153296 -9.9616 0.00737422 
-0.0338238 0.00737422 -10.0008 
-9.91167 -0.0241339 -0.194569 
-0.0241339 -9.91792 0.15211 
-0.194569 0.15211 -9.96938 
-9.91742 -0.0080852 -0.191249 
-0.0080852 -9.92738 0.143349 
-0.191249 0.143349 -9.95417 
-9.91431 -0.0137613 -0.188285 
-0.0137613 -9.92356 0.143192 
-0.188285 0.143192 -9.96109 
-9.91767 -0.0154043 -0.183862 
-0.0154043 -9.92924 0.147785 
-0.183862 0.147785 -9.95206 
-9.93901 0.0313382 -0.016519 
0.0313382 -9.93684 0.0207916 
-0.016519 0.0207916 -9.96855 
-9.90119 -0.027567 -0.0095053 
-0.027567 -9.9351 0.00803712 
-0.0095053 0.00803712 -10.0081 
-9.92167 -0.0108798 -0.0226689 
-0.0108798 -9.92799 0.0201018 
-0.0226689 0.0201018 -9.99474 
-9.95115 -9.2068e-05 -0.0310504 
-9.2068e-05 -9.90781 0.0145365 
-0.0310504 0.0145365 -9.98544 
-9.19018 -0.4291 -1.08175 
-0.4291 -10.5234 0.494063 
-1.08175 0.494063 -8.99929 
-8.8724 -0.0952037 -0.733059 
-0.0952037 -9.71549 0.114178 
-0.733059 0.114178 -10.125 
-9.21918 -0.226563 -0.654993 
-0.226563 -9.60174 0.160268 
-0.654993 0.160268 -9.89195 
-9.18795 0.0137193 -0.4514 
0.0137193 -10.0686 -0.023548 
-0.4514 -0.023548 -9.45634 
-9.85702 -0.00813801 0.240608 
-0.00813801 -9.88035 -0.0437182 
0.240608 -0.0437182 -9.94301 
-9.87305 -0.0060082 0.221997 
-0.0060082 -9.89572 -0.0461555 
0.221997 -0.0461555 -9.91162 
-9.88293 -0.0114615 0.241469 
-0.0114615 -9.90612 -0.043354 
0.241469 -0.043354 -9.89134 
-9.87274 -0.0067289 0.230918 
-0.0067289 -9.89687 -0.0402472 
0.230918 -0.0402472 -9.91077 
-9.91019 0.0896262 0.0226667 
0.0896262 -9.88684 0.0581226 
0.0226667 0.0581226 -10.0543 
-9.89584 0.0289503 0.0230933 
0.0289503 -9.94451 0.0177103 
0.0230933 0.0177103 -10.011 
-9.93418 0.0527992 0.0201466 
0.0527992 -9.95293 0.0225114 
0.0201466 0.0225114 -9.96423 
-9.8803 0.0396301 -0.000618543 
0.0396301 -9.94082 -0.00587832 
-0.000618543 -0.00587832 -10.0302 
-9.82076 0.120302 -0.0465029 
0.120302 -9.72167 -0.0741924 
-0.0465029 -0.0741924 -10.3501 
-9.79242 0.0999549 -0.0435511 
0.0999549 -9.79259 -0.0660302 
-0.0435511 -0.0660302 -10.3075 
-9.916 0.17476 0.101162 
0.17476 -9.74085 0.0823196 
0.101162 0.0823196 -10.2357 
-9.88066 0.106657 -0.0610619 
0.106657 -9.78384 -0.093246 
-0.0610619 -0.093246 -10.228 
-9.93832 -0.0759161 0.132344 
-0.0759161 -9.92755 0.0355614 
0.132344 0.0355614 -9.74301 
-9.90418 -0.0315367 0.109911 
-0.0315367 -9.82164 0.0413166 
0.109911 0.0413166 -9.88307 
-9.83592 0.0823606 0.00314842 
0.0823606 -9.80045 0.00259154 
0.00314842 0.00259154 -9.97251 
-9.83281 0.0300795 0.06603 
0.0300795 -9.81486 0.0760003 
0.06603 0.0760003 -9.96122 
-9.77579 -0.0696106 0.172779 
-0.0696106 -9.76699 -0.0397544 
0.172779 -0.0397544 -9.87849 
-9.74677 -0.043161 0.187563 
-0.043161 -9.79309 -0.091818 
0.187563 -0.091818 -9.88141 
-9.70889 -0.088213 0.118513 
-0.088213 -9.82297 -0.118485 
0.118513 -0.118485 -9.88941 
-9.74761 -0.0892213 0.188673 
-0.0892213 -9.77875 -0.0529449 
0.188673 -0.0529449 -9.89492 
-9.57958 0.0197349 0.435704 
0.0197349 -10.069 0.0651944 
0.435704 0.0651944 -9.78073 
-9.69702 0.162882 0.309033 
0.162882 -9.96123 0.177327 
0.309033 0.177327 -9.77108 
-9.6956 -0.0188296 0.237857 
-0.0188296 -9.82131 0.00268168 
0.237857 0.00268168 -9.91242 
-9.66775 0.0521283 0.339315 
0.0521283 -9.95627 0.0971746 
0.339315 0.0971746 -9.80531 
-9.91849 -0.0117218 0.155712 
-0.0117218 -9.97567 -0.0832027 
0.155712 -0.0832027 -9.90622 
-9.95162 -0.0293114 0.173978 
-0.0293114 -9.98431 -0.137638 
0.173978 -0.137638 -9.86445 
-9.93453 0.000696283 0.162011 
0.000696283 -9.97505 -0.115253 
0.162011 -0.115253 -9.8908 
-9.95262 0.00456066 0.156957 
0.00456066 -9.96658 -0.090884 
0.156957 -0.090884 -9.88118 
-9.87477 0.0192707 0.195471 
0.0192707 -9.8835 0.163479 
0.195471 0.163479 -9.93536 
-9.87068 0.0103954 0.151455 
0.0103954 -9.88922 0.178237 
0.151455 0.178237 -9.93374 
-9.87139 0.0095864 0.165265 
0.0095864 -9.88876 0.171266 
0.165265 0.171266 -9.93349 
-9.86923 0.00947044 0.163796 
0.00947044 -9.8901 0.176092 
0.163796 0.176092 -9.9343 
-9.9088 0.0465896 0.0482116 
0.0465896 -9.87962 0.039606 
0.0482116 0.039606 -10.0113 
-9.91011 0.0787216 0.0285665 
0.0787216 -9.8918 0.00201838 
0.0285665 0.00201838 -9.99778 
-9.92188 -0.051561 0.0172037 
-0.051561 -9.93711 0.00900712 
0.0172037 0.00900712 -9.94069 
-9.96374 -0.00510848 0.0121233 
-0.00510848 -9.83626 0.0270179 
0.0121233 0.0270179 -9.99967 
-9.82757 0.0202309 -0.0805923 
0.0202309 -9.84998 -0.102892 
-0.0805923 -0.102892 -9.89889 
-9.80358 0.0701064 -0.109913 
0.0701064 -9.83855 -0.115372 
-0.109913 -0.115372 -9.93432 
-9.8523 -0.0180796 -0.0826817 
-0.0180796 -9.83546 -0.100863 
-0.0826817 -0.100863 -9.88869 
-9.80627 -0.0139489 -0.0769722 
-0.0139489 -9.85733 -0.0842687 
-0.0769722 -0.0842687 -9.91285 
-9.85323 0.00372279 0.0208671 
0.00372279 -9.83521 0.249188 
0.0208671 0.249188 -9.8644 
-9.85924 0.00284492 0.0214119 
0.00284492 -9.83967 0.253409 
0.0214119 0.253409 -9.85392 
-9.84188 0.00462282 0.0165974 
0.00462282 -9.83065 0.244237 
0.0165974 0.244237 -9.88031 
-9.85087 0.00185948 0.0254918 
0.00185948 -9.838 0.252748 
0.0254918 0.252748 -9.86397 
-9.90566 -0.007938 0.131828 
-0.007938 -9.89966 0.230283 
0.131828 0.230283 -9.94965 
-9.9081 0.0149573 0.129563 
0.0149573 -9.88929 0.20595 
0.129563 0.20595 -9.95758 
-9.92099 0.0212632 0.114798 
0.0212632 -9.90636 0.178098 
0.114798 0.178098 -9.92762 
-9.91422 0.0312553 0.133624 
0.0312553 -9.8998 0.201595 
0.133624 0.201595 -9.94094 
-10.1386 -0.000317811 0.00575856 
-0.000317811 -10.1359 -0.0219476 
0.00575856 -0.0219476 -10.0367 
-10.0984 0.016538 -0.00725287 
0.016538 -10.0988 -0.00031792 
-0.00725287 -0.00031792 -10.1139 
-10.062 -0.00378901 0.0322732 
-0.00378901 -9.99355 0.0236025 
0.0322732 0.0236025 -10.2555 
-10.0997 0.00453088 -0.0596001 
0.00453088 -10.089 0.00328189 
-0.0596001 0.00328189 -10.1224 
-9.93932 -0.00156096 0.195595 
-0.00156096 -9.95562 0.137818 
0.195595 0.137818 -9.95793 
-9.92907 -0.00121543 0.19789 
-0.00121543 -9.95069 0.146555 
0.19789 0.146555 -9.97312 
-9.93457 0.0106017 0.190705 
0.0106017 -9.94702 0.160035 
0.190705 0.160035 -9.97128 
-9.94939 0.00462199 0.193 
0.00462199 -9.94656 0.155419 
0.193 0.155419 -9.95693 
-10.039 -0.188281 0.0357725 
-0.188281 -10.1236 -0.0403849 
0.0357725 -0.0403849 -10.0092 
-10.0378 -0.0669107 -0.0312749 
-0.0669107 -10.0213 -0.0987032 
-0.0312749 -0.0987032 -10.1126 
-10.0558 0.113109 0.0374932 
0.113109 -9.91813 6.45729e-05 
0.0374932 6.45729e-05 -10.1979 
-10.1023 -0.0382044 -0.0265435 
-0.0382044 -9.9714 -0.103367 
-0.0265435 -0.103367 -10.0981 
-9.87831 -0.00335591 -0.0453217 
-0.00335591 -9.87248 -0.0348135 
-0.0453217 -0.0348135 -9.94923 
-9.88962 0.0251673 -0.0541628 
0.0251673 -9.88463 -0.0212264 
-0.0541628 -0.0212264 -9.92577 
-9.8821 -0.00478629 -0.0429763 
-0.00478629 -9.88537 -0.0290623 
-0.0429763 -0.0290623 -9.93255 
-9.89137 -0.00361825 -0.0438634 
-0.00361825 -9.87017 -0.0402639 
-0.0438634 -0.0402639 -9.93848 
-9.87511 0.0136961 0.1316 
0.0136961 -9.84911 0.190227 
0.1316 0.190227 -9.93674 
-9.86024 0.00921385 0.129915 
0.00921385 -9.87984 0.183152 
0.129915 0.183152 -9.92088 
-9.88637 0.0204682 0.118474 
0.0204682 -9.8757 0.197212 
0.118474 0.197212 -9.89889 
-9.87505 0.0362624 0.120128 
0.0362624 -9.88713 0.205171 
0.120128 0.205171 -9.89877 
-10.0374 0.0108329 0.0109278 
0.0108329 -10.0358 0.0137014 
0.0109278 0.0137014 -10.0841 
-10.0482 -0.011241 -0.00435692 
-0.011241 -10.0014 0.00841981 
-0.00435692 0.00841981 -10.1076 
-10.0659 -0.00692997 -0.000962212 
-0.00692997 -10.0171 0.00556512 
-0.000962212 0.00556512 -10.0742 
-10.0284 0.0157855 0.00234541 
0.0157855 -10.0311 0.00742756 
0.00234541 0.00742756 -10.0977 
-9.80873 -0.0623617 -0.0539135 
-0.0623617 -9.92862 0.154906 
-0.0539135 0.154906 -10.0759 
-9.84124 -0.0909146 0.00145512 
-0.0909146 -9.82177 -0.00198509 
0.00145512 -0.00198509 -10.1503 
-10.0518 -0.067928 -0.0177927 
-0.067928 -9.88473 -0.093698 
-0.0177927 -0.093698 -9.87672 
-9.89151 -0.136159 0.00685893 
-0.136159 -9.83326 0.006135 
0.00685893 0.006135 -10.0885 
-9.25472 0.443368 0.243981 
0.443368 -4.69018 -0.0139362 
0.243981 -0.0139362 2.67661 
-4.48186 -0.178289 0.66319 
-0.178289 -1.57591 0.705384 
0.66319 0.705384 -5.21051 
-7.87117 -0.151123 0.625835 
-0.151123 -5.14636 -1.82472 
0.625835 -1.82472 1.74924 
-6.6328 -1.20448 4.50714 
-1.20448 -4.77405 -0.807145 
4.50714 -0.807145 0.138568 
-10.1025 0.016919 0.0240019 
0.016919 -10.034 0.0151121 
0.0240019 0.0151121 -10.1188 
-10.1228 0.00354093 -0.0305759 
0.00354093 -10.0488 0.0519325 
-0.0305759 0.0519325 -10.0837 
-10.1012 -0.0351082 -0.0177254 
-0.0351082 -10.0425 0.0220727 
-0.0177254 0.0220727 -10.1115 
-10.1775 0.0463308 -0.00473188 
0.0463308 -9.99633 0.0668626 
-0.00473188 0.0668626 -10.0814 
-9.82281 0.0679638 -0.138164 
0.0679638 -9.75775 -0.176828 
-0.138164 -0.176828 -9.92823 
-9.79508 -0.0270093 -0.0695662 
-0.0270093 -9.86028 -0.11921 
-0.0695662 -0.11921 -9.85343 
-9.80206 -0.0119516 -0.0723258 
-0.0119516 -9.90195 -0.124571 
-0.0723258 -0.124571 -9.80477 
-9.76515 0.0424576 -0.118327 
0.0424576 -9.81852 -0.0822583 
-0.118327 -0.0822583 -9.92512 
-9.6039 0.110326 0.437269 
0.110326 -10.112 0.125429 
0.437269 0.125429 -9.56674 
-9.68347 -0.0737039 0.388864 
-0.0737039 -9.99279 -0.0528279 
0.388864 -0.0528279 -9.60635 
-9.71581 -0.0244998 0.357372 
-0.0244998 -9.96005 0.0576142 
0.357372 0.0576142 -9.60675 
-9.69731 0.042964 0.240306 
0.042964 -9.8232 0.106904 
0.240306 0.106904 -9.76209 
-9.84972 -0.0323906 -0.103093 
-0.0323906 -9.77645 0.25146 
-0.103093 0.25146 -9.89391 
-9.84533 -0.0199536 -0.0861534 
-0.0199536 -9.77722 0.248285 
-0.0861534 0.248285 -9.89753 
-9.85106 -0.0233835 -0.0789451 
-0.0233835 -9.77905 0.245507 
-0.0789451 0.245507 -9.88997 
-9.84842 -0.0231162 -0.0846071 
-0.0231162 -9.7697 0.240344 
-0.0846071 0.240344 -9.90197 
-9.94644 0.0542707 0.0133605 
0.0542707 -9.94405 -0.00426806 
0.0133605 -0.00426806 -9.97754 
-9.96309 -0.00753366 -0.0142093 
-0.00753366 -9.93145 -0.0147533 
-0.0142093 -0.0147533 -9.97349 
-9.97574 -0.018087 -0.0190919 
-0.018087 -9.93661 -0.00489403 
-0.0190919 -0.00489403 -9.95568 
-9.96698 0.0191374 -0.028949 
0.0191374 -9.91854 -0.0104879 
-0.028949 -0.0104879 -9.9825 
-9.86045 -0.0430155 -0.192483 
-0.0430155 -9.848 0.145736 
-0.192483 0.145736 -9.98283 
-9.89492 0.00157486 -0.180936 
0.00157486 -9.91277 0.138807 
-0.180936 0.138807 -9.88358 
-9.90675 0.0395447 -0.186425 
0.0395447 -9.89207 0.126781 
-0.186425 0.126781 -9.89246 
-9.8539 -0.0120654 -0.182297 
-0.0120654 -9.90988 0.088431 
-0.182297 0.088431 -9.92749 
-9.95477 -0.00716508 0.17105 
-0.00716508 -9.92963 0.164897 
0.17105 0.164897 -10.0399 
-9.97239 0.00619245 0.193121 
0.00619245 -9.97774 0.172081 
0.193121 0.172081 -9.97419 
-9.96383 0.00817144 0.198578 
0.00817144 -9.99856 0.167243 
0.198578 0.167243 -9.96194 
-9.9765 0.0262843 0.197655 
0.0262843 -9.973 0.195032 
0.197655 0.195032 -9.97483 
-9.87508 0.0735745 -0.0525664 
0.0735745 -9.91746 -0.0493847 
-0.0525664 -0.0493847 -9.98175 
-9.92061 0.0417497 -0.0277687 
0.0417497 -9.88939 -0.0160027 
-0.0277687 -0.0160027 -9.96428 
-9.96822 0.00585818 -0.0335005 
0.00585818 -9.88255 0.0364619 
-0.0335005 0.0364619 -9.92351 
-9.92921 0.0630686 -0.00428822 
0.0630686 -9.84147 -0.0299576 
-0.00428822 -0.0299576 -10.0036 
-9.91156 -0.196545 0.319161 
-0.196545 -9.54897 -0.273202 
0.319161 -0.273202 -10.2211 
-9.63997 -0.160743 0.021639 
-0.160743 -9.4787 -0.598739 
0.021639 -0.598739 -10.563 
-9.58678 -0.199853 0.0505655 
-0.199853 -9.7083 -0.285168 
0.0505655 -0.285168 -10.3866 
-10.139 -0.1783 -0.116542 
-0.1783 -8.99378 -0.0163868 
-0.116542 -0.0163868 -10.5488 
-9.66368 0.0400009 0.357688 
0.0400009 -10.0158 0.0369742 
0.357688 0.0369742 -9.61649 
-9.60525 -0.0868203 0.39529 
-0.0868203 -10.0524 -0.0336861 
0.39529 -0.0336861 -9.63832 
-9.60498 0.0729884 0.437308 
0.0729884 -10.1185 0.133213 
0.437308 0.133213 -9.57255 
-9.73139 0.0695746 0.299067 
0.0695746 -9.8694 0.077002 
0.299067 0.077002 -9.69522 
-9.76009 -0.0436012 -0.167868 
-0.0436012 -9.84124 0.0510209 
-0.167868 0.0510209 -9.85311 
-9.6992 -0.0283225 -0.169183 
-0.0283225 -9.77725 0.0662541 
-0.169183 0.0662541 -9.97799 
-9.776 -0.0158464 -0.167037 
-0.0158464 -9.79325 0.0690395 
-0.167037 0.0690395 -9.88519 
-9.76106 -0.0315427 -0.238262 
-0.0315427 -9.87725 0.104586 
-0.238262 0.104586 -9.81613 
-10.1737 -0.058537 0.0555464 
-0.058537 -9.80653 0.051118 
0.0555464 0.051118 -10.0182 
-10.0527 -0.0434428 -0.0298604 
-0.0434428 -9.96539 -0.0100967 
-0.0298604 -0.0100967 -9.98041 
-9.88931 0.0817053 -0.00927182 
0.0817053 -10.0033 0.0570466 
-0.00927182 0.0570466 -10.1059 
-10.0825 0.0125272 -0.0172801 
0.0125272 -9.99672 -0.0489982 
-0.0172801 -0.0489982 -9.91923 
-9.80262 0.0317844 0.168907 
0.0317844 -9.77334 0.0648132 
0.168907 0.0648132 -9.84499 
-9.73407 0.065581 0.160196 
0.065581 -9.81837 0.070586 
0.160196 0.070586 -9.86851 
-9.75169 0.0507671 0.188672 
0.0507671 -9.79541 0.0682495 
0.188672 0.0682495 -9.87386 
-9.77404 0.012282 0.178032 
0.012282 -9.78576 0.0633299 
0.178032 0.0633299 -9.86115 
-9.75483 0.110787 -1.3957 
0.110787 -9.3216 -0.321439 
-1.3957 -0.321439 -9.96937 
-9.85744 0.0857717 -0.772033 
0.0857717 -9.49427 -0.654095 
-0.772033 -0.654095 -9.69409 
-10.1405 0.245457 -0.570816 
0.245457 -9.73162 -0.140125 
-0.570816 -0.140125 -9.17366 
-9.69259 0.0509712 -0.424232 
0.0509712 -9.56095 -0.736604 
-0.424232 -0.736604 -9.79226 
-9.96934 0.0427019 -0.0587617 
0.0427019 -10.0861 -0.0919901 
-0.0587617 -0.0919901 -10.601 
-10.1392 -0.0408302 -0.092657 
-0.0408302 -10.2491 0.00608198 
-0.092657 0.00608198 -10.2681 
-10.3274 -0.0308589 0.0487542 
-0.0308589 -10.4862 0.0592093 
0.0487542 0.0592093 -9.84275 
-10.1399 -0.0169336 -0.282614 
-0.0169336 -10.2073 0.141983 
-0.282614 0.141983 -10.3092 
-10.006 0.0131652 -0.00214559 
0.0131652 -9.99705 -0.00378413 
-0.00214559 -0.00378413 -10.0116 
-10.0027 0.00761942 0.00160592 
0.00761942 -10.001 -0.0050803 
0.00160592 -0.0050803 -10.0109 
-9.99995 0.0100505 -0.00100815 
0.0100505 -10.003 -0.000220518 
-0.00100815 -0.000220518 -10.0117 
-10.0057 0.0123829 -0.000325622 
0.0123829 -10.0006 -0.00472755 
-0.000325622 -0.00472755 -10.0084 
-9.50322 0.0124102 -0.386773 
0.0124102 -9.87133 -0.220362 
-0.386773 -0.220362 -10.782 
-9.40106 0.266135 -0.413843 
0.266135 -9.50029 -0.184732 
-0.413843 -0.184732 -11.2552 
-9.62475 0.10251 -0.545639 
0.10251 -9.76067 -0.216661 
-0.545639 -0.216661 -10.7712 
-9.9658 0.472313 -0.304584 
0.472313 -9.59861 -0.965481 
-0.304584 -0.965481 -10.5922 
-9.97112 0.0197672 -0.198965 
0.0197672 -9.96622 -0.167179 
-0.198965 -0.167179 -10.0012 
-9.96663 0.00698954 -0.186302 
0.00698954 -9.98662 -0.162717 
-0.186302 -0.162717 -9.98525 
-9.97186 0.00585813 -0.187021 
0.00585813 -9.97713 -0.157835 
-0.187021 -0.157835 -9.98952 
-9.97081 0.0081519 -0.183009 
0.0081519 -9.98358 -0.163474 
-0.183009 -0.163474 -9.98412 
-9.92358 -0.161922 0.296339 
-0.161922 -9.73545 -0.286133 
0.296339 -0.286133 -10.1596 
-9.73545 -0.116144 0.14621 
-0.116144 -9.86 -0.286407 
0.14621 -0.286407 -10.2231 
-9.80294 -0.128999 0.0227916 
-0.128999 -9.73485 -0.445327 
0.0227916 -0.445327 -10.2808 
-9.77319 -0.131477 0.397904 
-0.131477 -9.98866 -0.530587 
0.397904 -0.530587 -10.0567 
-1.32282 -1.9135 -1.94684 
-1.9135 -3.85385 -2.09461 
-1.94684 -2.09461 -13.6467 
-6.62936 1.27917 1.792 
1.27917 -12.8892 7.19544 
1.792 7.19544 0.695163 
-8.48119 -2.58647 0.771667 
-2.58647 -16.1885 9.08674 
0.771667 9.08674 5.84634 
-8.73826 2.21668 -0.648783 
2.21668 1.75912 8.68986 
-0.648783 8.68986 -11.8442 
-9.89471 -0.00258118 -0.0304152 
-0.00258118 -9.87725 0.244153 
-0.0304152 0.244153 -9.90249 
-9.90003 -0.00527734 -0.0352429 
-0.00527734 -9.87954 0.245555 
-0.0352429 0.245555 -9.89488 
-9.87053 -0.00716476 -0.0436317 
-0.00716476 -9.88207 0.249189 
-0.0436317 0.249189 -9.92185 
-9.89059 -0.00558311 -0.0316724 
-0.00558311 -9.88474 0.239634 
-0.0316724 0.239634 -9.89911 
-9.7323 0.0214881 -0.137129 
0.0214881 -9.81076 -0.0497371 
-0.137129 -0.0497371 -10.0332 
-9.83525 0.138735 0.00965246 
0.138735 -9.80015 -0.0421947 
0.00965246 -0.0421947 -9.94088 
-9.60782 0.138723 -0.0626529 
0.138723 -9.91228 -0.139843 
-0.0626529 -0.139843 -10.0562 
-9.62597 0.150771 -0.118763 
0.150771 -9.88907 -0.109557 
-0.118763 -0.109557 -10.0612 
-9.73307 -0.130357 -0.171433 
-0.130357 -9.7497 0.234477 
-0.171433 0.234477 -10.0838 
-9.69347 -0.134459 -0.160757 
-0.134459 -9.76178 0.23985 
-0.160757 0.23985 -10.1114 
-9.71415 -0.0572521 -0.197072 
-0.0572521 -9.80277 0.201799 
-0.197072 0.201799 -10.0497 
-9.70671 -0.100218 -0.0736774 
-0.100218 -9.67846 0.163734 
-0.0736774 0.163734 -10.1815 
-10.3856 0.418058 0.313399 
0.418058 -9.63131 0.364849 
0.313399 0.364849 -10.838 
-10.4603 0.286933 0.583056 
0.286933 -9.06803 0.675644 
0.583056 0.675644 -11.3266 
-10.1739 0.823706 0.0673469 
0.823706 -9.61441 0.078715 
0.0673469 0.078715 -11.0666 
-10.2135 0.213339 0.164295 
0.213339 -10.0409 0.416572 
0.164295 0.416572 -10.6005 
-9.86026 -0.047691 0.301546 
-0.047691 -9.76768 0.0581449 
0.301546 0.0581449 -9.87764 
-9.80699 0.0174696 -0.162637 
0.0174696 -9.75306 -0.227888 
-0.162637 -0.227888 -9.94553 
-9.97695 0.0171194 -0.218511 
0.0171194 -9.54855 0.0846695 
-0.218511 0.0846695 -9.98008 
-10.0056 0.0663651 0.140835 
0.0663651 -9.59266 -0.279892 
0.140835 -0.279892 -9.90731 
-10.5599 0.108027 0.0101747 
0.108027 -10.373 -0.010142 
0.0101747 -0.010142 -10.4495 
-10.5335 -0.248426 0.00733817 
-0.248426 -10.3383 0.0680078 
0.00733817 0.0680078 -10.5106 
-10.1501 0.077616 -0.122679 
0.077616 -10.5611 -0.00591298 
-0.122679 -0.00591298 -10.6711 
-10.3857 -0.0324528 0.00678543 
-0.0324528 -10.4308 -0.00997799 
0.00678543 -0.00997799 -10.5658 
-9.95415 0.00396145 0.00144592 
0.00396145 -9.94015 0.242569 
0.00144592 0.242569 -9.96239 
-9.9595 -0.0104498 -0.00100387 
-0.0104498 -9.93477 0.251489 
-0.00100387 0.251489 -9.96242 
-9.92881 0.0120698 0.00420713 
0.0120698 -9.94247 0.240654 
0.00420713 0.240654 -9.98541 
-9.95968 0.000514229 0.00705454 
0.000514229 -9.94146 0.257445 
0.00705454 0.257445 -9.95554 
-9.09997 0.136776 0.671813 
0.136776 -9.82864 0.00735416 
0.671813 0.00735416 -8.35698 
-8.91447 0.138248 0.882228 
0.138248 -10.0665 0.390055 
0.882228 0.390055 -8.30458 
-8.89669 0.0512863 0.901982 
0.0512863 -10.6666 0.745295 
0.901982 0.745295 -7.72229 
-8.63232 0.151293 0.631684 
0.151293 -9.53337 0.469175 
0.631684 0.469175 -9.1199 
-8.88786 -0.505893 -0.39222 
-0.505893 -9.06449 0.325946 
-0.39222 0.325946 -12.2014 
-9.81189 -0.0462146 -1.04478 
-0.0462146 -9.38807 -0.0756203 
-1.04478 -0.0756203 -10.9538 
-9.56053 0.0503175 -0.443382 
0.0503175 -10.0679 0.448402 
-0.443382 0.448402 -10.5252 
-8.70372 -0.322604 -0.795215 
-0.322604 -8.71335 0.815398 
-0.795215 0.815398 -12.7366 
-8.90509 0.0910759 0.336723 
0.0910759 -7.7572 1.00793 
0.336723 1.00793 -6.84497 
-8.99849 -0.031464 0.524705 
-0.031464 -7.45613 0.700915 
0.524705 0.700915 -7.05264 
-9.40649 0.387401 0.0842658 
0.387401 -7.08436 1.32631 
0.0842658 1.32631 -7.01642 
-9.31818 0.0291166 0.257796 
0.0291166 -7.40788 1.24838 
0.257796 1.24838 -6.7812 
-9.87216 -0.0337884 0.0818584 
-0.0337884 -9.74922 -0.267181 
0.0818584 -0.267181 -9.88177 
-9.86037 -0.0282811 0.0965849 
-0.0282811 -9.75038 -0.241163 
0.0965849 -0.241163 -9.8924 
-9.84847 -0.0420092 0.0838519 
-0.0420092 -9.78054 -0.218315 
0.0838519 -0.218315 -9.87414 
-9.84994 -0.0289349 0.0788949 
-0.0289349 -9.72218 -0.220355 
0.0788949 -0.220355 -9.93103 
-9.98232 0.00355605 -0.0072548 
0.00355605 -9.98638 0.00220153 
-0.0072548 0.00220153 -9.98938 
-9.9767 0.00322629 -0.000166972 
0.00322629 -9.98878 -0.00604462 
-0.000166972 -0.00604462 -9.9926 
-9.97341 0.00949158 -0.00588748 
0.00949158 -9.98627 -0.00856992 
-0.00588748 -0.00856992 -9.99839 
-9.9807 0.00566809 -0.00198261 
0.00566809 -9.99104 -0.00324747 
-0.00198261 -0.00324747 -9.98634 
-9.85799 0.0101109 0.211202 
0.0101109 -9.96066 0.0310067 
0.211202 0.0310067 -9.63874 
-9.87588 0.0213898 0.183809 
0.0213898 -9.92278 0.0392117 
0.183809 0.0392117 -9.65873 
-9.81813 -0.00302833 0.250913 
-0.00302833 -9.9785 0.00363076 
0.250913 0.00363076 -9.66076 
-9.8315 0.0206058 0.271303 
0.0206058 -9.92521 0.00228338 
0.271303 0.00228338 -9.70068 
-9.61741 -0.302714 0.853405 
-0.302714 -5.57922 -0.406244 
0.853405 -0.406244 -0.764703 
-8.31391 0.218776 2.04847 
0.218776 -5.76319 0.499478 
2.04847 0.499478 -1.88422 
-7.80161 1.13864 1.5527 
1.13864 -6.29234 -0.0334959 
1.5527 -0.0334959 -1.86738 
-8.70586 0.449171 2.10611 
0.449171 -5.18314 -0.105165 
2.10611 -0.105165 -2.07233 
-9.88362 -0.0184053 -0.185817 
-0.0184053 -9.92892 0.0543588 
-0.185817 0.0543588 -9.92559 
-9.90431 0.00947595 -0.246687 
0.00947595 -9.8976 0.0888084 
-0.246687 0.0888084 -9.93622 
-9.88078 -0.0133036 -0.223601 
-0.0133036 -9.90858 0.10103 
-0.223601 0.10103 -9.94876 
-9.87404 -0.0345646 -0.230463 
-0.0345646 -9.93043 0.088127 
-0.230463 0.088127 -9.93365 
-10.0021 0.0200617 -0.0810265 
0.0200617 -9.96696 -0.168512 
-0.0810265 -0.168512 -9.89313 
-9.9441 -0.00696512 -0.112053 
-0.00696512 -10.0844 -0.182214 
-0.112053 -0.182214 -9.83367 
-9.94395 -0.00715702 -0.0659238 
-0.00715702 -9.98128 -0.145696 
-0.0659238 -0.145696 -9.93698 
-10.0259 0.0186269 -0.0968025 
0.0186269 -9.91898 -0.221835 
-0.0968025 -0.221835 -9.91735 
-9.97319 0.0676866 0.0217609 
0.0676866 -9.84215 0.0498263 
0.0217609 0.0498263 -10.0078 
-9.95683 0.0632057 -0.00957645 
0.0632057 -9.88234 0.0288781 
-0.00957645 0.0288781 -9.98392 
-9.83981 -0.0714232 0.00472853 
-0.0714232 -10.0261 0.0329435 
0.00472853 0.0329435 -9.95718 
-9.96328 0.0271278 -0.00990407 
0.0271278 -9.85484 -0.00899332 
-0.00990407 -0.00899332 -10.005 
-9.7288 -0.0767625 0.110861 
-0.0767625 -9.73463 -0.12752 
0.110861 -0.12752 -9.9664 
-9.71908 -0.102844 0.0866558 
-0.102844 -9.73525 -0.0927063 
0.0866558 -0.0927063 -9.9755 
-9.69261 -0.0822358 0.0871507 
-0.0822358 -9.75804 -0.0592234 
0.0871507 -0.0592234 -9.97918 
-9.73837 -0.122669 0.0569537 
-0.122669 -9.68504 -0.113995 
0.0569537 -0.113995 -10.0064 
-9.96136 -0.00220825 -0.217263 
-0.00220825 -9.99343 -0.000576669 
-0.217263 -0.000576669 -10.0227 
-9.99337 0.0041141 -0.242479 
0.0041141 -9.99859 -0.00250827 
-0.242479 -0.00250827 -9.98555 
-9.98354 0.00392271 -0.240066 
0.00392271 -10.0045 -0.00201852 
-0.240066 -0.00201852 -9.98952 
-9.95403 0.0149422 -0.252076 
0.0149422 -10.0066 -0.00712894 
-0.252076 -0.00712894 -10.0169 
-10.1133 0.117318 -0.0923819 
0.117318 -9.35803 -0.574226 
-0.0923819 -0.574226 -10.0566 
-9.97766 -0.0293509 0.0944776 
-0.0293509 -9.65202 -0.432001 
0.0944776 -0.432001 -9.89822 
-10.2115 0.0606669 -0.0531428 
0.0606669 -9.4998 -0.757761 
-0.0531428 -0.757761 -9.81663 
-10.1753 0.0144207 -0.038078 
0.0144207 -9.28655 -0.550196 
-0.038078 -0.550196 -10.066 
-11.4967 -0.203928 0.640977 
-0.203928 -12.5315 -0.182215 
0.640977 -0.182215 -13.0662 
-10.772 1.64419 0.155933 
1.64419 -13.4343 -0.00050283 
0.155933 -0.00050283 -12.888 
-11.0811 0.0728262 -0.0155516 
0.0728262 -10.7293 -0.176811 
-0.0155516 -0.176811 -15.2839 
-11.6649 -0.0451176 1.09054 
-0.0451176 -12.6778 -0.831583 
1.09054 -0.831583 -12.7516 
-4.57112 0.52834 -0.858128 
0.52834 -4.54041 0.282545 
-0.858128 0.282545 -2.45458 
-5.28902 0.625892 -0.253125 
0.625892 -3.36382 -0.147953 
-0.253125 -0.147953 -2.91327 
-5.52164 0.0727279 -0.84204 
0.0727279 -5.35812 -0.558574 
-0.84204 -0.558574 -0.686339 
-4.63159 0.45 0.691627 
0.45 -3.30363 0.374069 
0.691627 0.374069 -3.63088 
-9.78173 0.158787 -0.849826 
0.158787 -9.51559 0.810724 
-0.849826 0.810724 -9.96787 
-9.61818 0.0923189 -0.522136 
0.0923189 -9.84711 1.03016 
-0.522136 1.03016 -9.7999 
-10.2056 -0.557978 -0.795406 
-0.557978 -9.50273 0.529413 
-0.795406 0.529413 -9.55688 
-9.82446 -0.0778052 -0.762758 
-0.0778052 -9.55946 0.836119 
-0.762758 0.836119 -9.88126 
-9.90393 0.039412 0.0541049 
0.039412 -9.55031 -0.102213 
0.0541049 -0.102213 -9.85343 
-9.71088 0.0291441 -0.18349 
0.0291441 -9.72622 -0.0842952 
-0.18349 -0.0842952 -9.87058 
-9.85624 0.0869801 -0.116315 
0.0869801 -9.53609 -0.213856 
-0.116315 -0.213856 -9.91534 
-9.81353 0.0611579 0.046814 
0.0611579 -9.64846 -0.218747 
0.046814 -0.218747 -9.84568 
-10.3274 -0.0846783 0.0325953 
-0.0846783 -10.398 0.0566925 
0.0325953 0.0566925 -10.2228 
-10.1903 -0.0558181 0.0108846 
-0.0558181 -10.2705 -0.0120253 
0.0108846 -0.0120253 -10.4874 
-10.1566 -0.0680746 0.0117511 
-0.0680746 -10.2608 0.0578158 
0.0117511 0.0578158 -10.5307 
-10.2661 -0.0343047 0.151149 
-0.0343047 -10.3078 0.0115164 
0.151149 0.0115164 -10.3742 
-9.15253 -0.276213 -1.1748 
-0.276213 -9.12722 0.836548 
-1.1748 0.836548 -10.3138 
-8.55467 0.213719 -0.718679 
0.213719 -8.51932 2.09727 
-0.718679 2.09727 -11.5196 
-9.55449 -0.00719508 -0.532056 
-0.00719508 -9.32699 0.764674 
-0.532056 0.764674 -9.71211 
-9.1812 0.369664 -1.29971 
0.369664 -9.70802 0.478582 
-1.29971 0.478582 -9.70437 
-9.79949 0.0441587 0.0930658 
0.0441587 -9.7707 0.168583 
0.0930658 0.168583 -9.83858 
-9.82643 0.0452548 0.0926576 
0.0452548 -9.74256 0.175531 
0.0926576 0.175531 -9.83978 
-9.76629 0.0427683 0.0889705 
0.0427683 -9.75872 0.171629 
0.0889705 0.171629 -9.88377 
-9.78138 0.0308145 0.10469 
0.0308145 -9.75441 0.181123 
0.10469 0.181123 -9.87299 
-10.0337 0.442338 -0.282243 
0.442338 -9.83495 -0.641767 
-0.282243 -0.641767 -9.23089 
-9.27542 0.299775 -0.59013 
0.299775 -9.44516 -0.341591 
-0.59013 -0.341591 -10.3789 
-9.44638 0.465071 -0.386445 
0.465071 -9.91804 -0.0749504 
-0.386445 -0.0749504 -9.73509 
-9.71933 0.0596072 -0.435313 
0.0596072 -9.44082 -0.313577 
-0.435313 -0.313577 -9.93936 
-9.81004 0.0273418 0.053652 
0.0273418 -9.8524 -0.138278 
0.053652 -0.138278 -9.84102 
-9.8324 -0.10233 0.141222 
-0.10233 -9.77943 -0.163336 
0.141222 -0.163336 -9.89164 
-9.80137 0.00282667 0.0915201 
0.00282667 -9.86405 -0.128035 
0.0915201 -0.128035 -9.83804 
-9.75808 -0.0349859 0.100359 
-0.0349859 -9.83295 -0.0868151 
0.100359 -0.0868151 -9.91244 
-13.476 -0.049807 -0.255142 
-0.049807 -8.87165 0.33205 
-0.255142 0.33205 -14.0869 
-10.6173 0.0433374 -1.03658 
0.0433374 -9.63225 -0.762069 
-1.03658 -0.762069 -16.1851 
-11.5846 0.864176 -0.412803 
0.864176 -11.2409 -0.827196 
-0.412803 -0.827196 -13.6091 
-13.564 0.724615 -1.06334 
0.724615 -10.2692 -1.35581 
-1.06334 -1.35581 -12.6014 
-9.86934 0.0245477 0.0197132 
0.0245477 -9.95272 0.0219538 
0.0197132 0.0219538 -9.90764 
-9.88752 0.10371 -0.0243903 
0.10371 -9.78685 0.0770535 
-0.0243903 0.0770535 -10.0553 
-9.86905 0.0589118 0.0508105 
0.0589118 -9.85733 0.0760496 
0.0508105 0.0760496 -10.0033 
-9.84848 0.0808762 0.0691684 
0.0808762 -9.92758 0.110561 
0.0691684 0.110561 -9.95363 
-9.61879 -0.109077 0.114671 
-0.109077 -9.82926 -0.0427422 
0.114671 -0.0427422 -9.92963 
-9.79623 -0.0325083 0.177064 
-0.0325083 -9.75961 -0.065782 
0.177064 -0.065782 -9.82185 
-9.90243 0.030404 0.167892 
0.030404 -9.75388 -0.0793687 
0.167892 -0.0793687 -9.72137 
-9.75009 -0.0584176 0.30247 
-0.0584176 -9.71762 -0.117266 
0.30247 -0.117266 -9.90997 
-9.40458 -0.394154 0.223831 
-0.394154 -10.3417 -0.00776238 
0.223831 -0.00776238 -11.5606 
-10.8407 0.31439 0.166719 
0.31439 -10.4374 0.550185 
0.166719 0.550185 -10.0289 
-10.8655 -0.00691165 0.216402 
-0.00691165 -9.95754 0.403212 
0.216402 0.403212 -10.4839 
-10.4619 0.347047 0.336668 
0.347047 -9.98056 0.397891 
0.336668 0.397891 -10.8645 
-9.94015 0.0316047 -0.165387 
0.0316047 -9.68882 0.022411 
-0.165387 0.022411 -9.79093 
-9.74449 -0.0624172 -0.140329 
-0.0624172 -9.80112 0.0795538 
-0.140329 0.0795538 -9.87429 
-9.70459 -0.0520173 -0.134071 
-0.0520173 -9.85932 0.0422118 
-0.134071 0.0422118 -9.85599 
-9.72818 -0.0235756 -0.206308 
-0.0235756 -9.82511 0.0645256 
-0.206308 0.0645256 -9.86661 
-9.97785 0.00194813 -0.0122954 
0.00194813 -10.0123 -0.000561593 
-0.0122954 -0.000561593 -9.97665 
-10.0025 0.00925413 0.00444532 
0.00925413 -9.99633 -0.0182944 
0.00444532 -0.0182944 -9.96791 
-9.9876 -0.00349783 0.000502086 
-0.00349783 -9.99555 -0.00549247 
0.000502086 -0.00549247 -9.98361 
-9.97458 -0.0177564 0.00623998 
-0.0177564 -9.96943 0.0119667 
0.00623998 0.0119667 -10.0228 
-10.1172 0.110103 0.0857036 
0.110103 -9.13852 -0.154359 
0.0857036 -0.154359 -11.5927 
-10.1397 -0.037269 -0.0441091 
-0.037269 -9.35649 0.0252435 
-0.0441091 0.0252435 -11.3522 
-10.4918 -0.510157 -0.12214 
-0.510157 -9.5355 -0.272834 
-0.12214 -0.272834 -10.8211 
-9.91833 0.0731058 0.00997259 
0.0731058 -9.20634 -0.0855654 
0.00997259 -0.0855654 -11.7237 
-9.98686 -0.0114107 0.00468959 
-0.0114107 -10.0063 0.00370463 
0.00468959 0.00370463 -9.99308 
-9.99435 0.0162467 -0.00352587 
0.0162467 -9.98534 0.00144772 
-0.00352587 0.00144772 -10.0065 
-9.9912 -0.00723499 -7.15616e-05 
-0.00723499 -10.0056 -0.00436247 
-7.15616e-05 -0.00436247 -9.98942 
-9.99961 0.0079878 -0.00656107 
0.0079878 -9.99886 0.00497184 
-0.00656107 0.00497184 -9.98774 
-10.6344 -0.00971546 -0.14553 
-0.00971546 -10.528 0.16184 
-0.14553 0.16184 -10.8299 
-10.6977 -0.0700078 -0.0273132 
-0.0700078 -10.3743 0.11435 
-0.0273132 0.11435 -10.9203 
-10.6766 -0.138249 -0.032234 
-0.138249 -10.3117 0.31397 
-0.032234 0.31397 -11.004 
-10.6215 -0.146142 -0.048157 
-0.146142 -10.4061 0.0826795 
-0.048157 0.0826795 -10.9647 
-9.8741 -0.0596376 0.198649 
-0.0596376 -9.8746 -0.207221 
0.198649 -0.207221 -9.9548 
-9.87895 -0.0549635 0.178278 
-0.0549635 -9.8863 -0.19847 
0.178278 -0.19847 -9.93825 
-9.88079 -0.0425557 0.216628 
-0.0425557 -9.88679 -0.205215 
0.216628 -0.205215 -9.93593 
-9.89424 -0.0268601 0.152711 
-0.0268601 -9.86376 -0.174952 
0.152711 -0.174952 -9.9455 
-10.1992 0.219713 -0.312786 
0.219713 -9.69398 -0.639434 
-0.312786 -0.639434 -10.6461 
-10.3325 0.187893 0.0795763 
0.187893 -9.75182 -0.0560459 
0.0795763 -0.0560459 -10.455 
-10.0557 0.108699 0.0872232 
0.108699 -9.85477 -0.0657954 
0.0872232 -0.0657954 -10.6288 
-10.0913 0.0583324 0.319248 
0.0583324 -9.50064 -0.0887435 
0.319248 -0.0887435 -10.9474 
-10.1686 -0.397733 0.373085 
-0.397733 -9.89697 0.00276947 
0.373085 0.00276947 -12.8799 
-10.2716 0.323468 0.109561 
0.323468 -10.2055 -0.00246919 
0.109561 -0.00246919 -12.4684 
-10.2948 0.260075 0.129276 
0.260075 -10.2458 0.103815 
0.129276 0.103815 -12.4049 
-10.2845 -0.184372 -0.386691 
-0.184372 -10.4546 -0.133186 
-0.386691 -0.133186 -12.2064 
-10.0971 -0.0513209 0.0942437 
-0.0513209 -9.95638 -0.00886678 
0.0942437 -0.00886678 -10.1911 
-10.0925 -0.0649518 -0.0226813 
-0.0649518 -10.0628 0.0144611 
-0.0226813 0.0144611 -10.0893 
-10.0475 -0.0827315 -0.0530918 
-0.0827315 -10.0751 -0.00425995 
-0.0530918 -0.00425995 -10.122 
-10.1243 -0.078587 -0.0253104 
-0.078587 -10.0367 0.0508176 
-0.0253104 0.0508176 -10.0835 
-9.85507 0.92069 -2.84723 
0.92069 -9.08058 1.60468 
-2.84723 1.60468 -1.77736 
-10.3308 -2.22372 -1.46728 
-2.22372 -5.44458 2.16544 
-1.46728 2.16544 -4.93765 
-6.16931 1.02097 -1.41384 
1.02097 -7.76618 4.79434 
-1.41384 4.79434 -6.77752 
-9.8804 -0.460769 -1.06792 
-0.460769 -6.749 3.25913 
-1.06792 3.25913 -4.08361 
-9.89524 0.0475282 -0.181658 
0.0475282 -9.85782 0.122879 
-0.181658 0.122879 -9.86898 
-9.86356 -0.00106839 -0.175608 
-0.00106839 -9.86596 0.140844 
-0.175608 0.140844 -9.89253 
-9.83988 -0.067672 -0.166749 
-0.067672 -9.86745 0.0988175 
-0.166749 0.0988175 -9.91471 
-9.85561 -0.014682 -0.209116 
-0.014682 -9.84374 0.138543 
-0.209116 0.138543 -9.92269 
-6.949 -0.433592 -0.984813 
-0.433592 -10.4552 -3.38405 
-0.984813 -3.38405 -7.97956 
-8.84927 0.718434 -0.651438 
0.718434 -9.01436 -2.82264 
-0.651438 -2.82264 -7.52015 
-9.21369 1.23588 -0.867142 
1.23588 -9.55159 -4.50802 
-0.867142 -4.50802 -6.61849 
-9.33517 1.37766 0.864459 
1.37766 -8.00027 -1.23561 
0.864459 -1.23561 -8.04834 
-10.4489 -0.0987623 0.242744 
-0.0987623 -10.3726 0.00759716 
0.242744 0.00759716 -10.2489 
-10.4824 -0.0182289 0.283206 
-0.0182289 -10.4579 0.0698147 
0.283206 0.0698147 -10.13 
-10.1526 0.132706 -0.0749786 
0.132706 -10.1584 0.071191 
-0.0749786 0.071191 -10.7593 
-10.032 -0.0952301 0.252524 
-0.0952301 -10.4485 0.0637791 
0.252524 0.0637791 -10.5899 
-9.92178 -0.0621025 -0.00376258 
-0.0621025 -10.0268 0.00991561 
-0.00376258 0.00991561 -10.1343 
-10.0333 0.0570788 0.014159 
0.0570788 -10.0027 0.00429556 
0.014159 0.00429556 -10.0469 
-9.99861 0.0380284 0.0511107 
0.0380284 -9.98546 -0.00548303 
0.0511107 -0.00548303 -10.0988 
-9.96408 0.0128715 0.064582 
0.0128715 -10.0441 0.00964897 
0.064582 0.00964897 -10.0747 
-9.6789 -0.0157141 0.103674 
-0.0157141 -9.68174 -0.109635 
0.103674 -0.109635 -9.94254 
-9.75641 -0.103191 0.0516339 
-0.103191 -9.66729 -0.135833 
0.0516339 -0.135833 -9.87947 
-9.79587 -0.0864379 0.0431454 
-0.0864379 -9.62307 -0.125843 
0.0431454 -0.125843 -9.88423 
-9.7675 -0.112462 0.0553357 
-0.112462 -9.67435 -0.111855 
0.0553357 -0.111855 -9.86133 
-9.62103 -0.36598 0.550585 
-0.36598 -10.4788 -0.429904 
0.550585 -0.429904 -8.27515 
-9.00408 -0.112402 0.181942 
-0.112402 -9.72107 -0.691432 
0.181942 -0.691432 -9.64984 
-9.39183 -0.557112 0.62269 
-0.557112 -10.0743 -0.675228 
0.62269 -0.675228 -8.90883 
-8.82516 -0.0502613 0.335091 
-0.0502613 -9.95067 -1.67309 
0.335091 -1.67309 -9.59917 
-9.8408 -0.045705 0.225129 
-0.045705 -9.86329 -0.162726 
0.225129 -0.162726 -9.94302 
-9.84355 -0.0193405 0.223609 
-0.0193405 -9.87055 -0.136153 
0.223609 -0.136153 -9.93301 
-9.87502 -0.0398998 0.177823 
-0.0398998 -9.83808 -0.154604 
0.177823 -0.154604 -9.93401 
-9.8505 -0.0256661 0.209125 
-0.0256661 -9.8499 -0.177227 
0.209125 -0.177227 -9.94671 
-9.67601 0.0120437 0.344715 
0.0120437 -9.98276 -0.0240017 
0.344715 -0.0240017 -9.72994 
-9.67138 0.00656119 0.309678 
0.00656119 -9.90854 0.0186422 
0.309678 0.0186422 -9.8088 
-9.67886 -0.00997285 0.219974 
-0.00997285 -9.8928 -0.0501788 
0.219974 -0.0501788 -9.81707 
-9.71959 0.0513946 0.327038 
0.0513946 -9.87344 0.0598543 
0.327038 0.0598543 -9.79569 
-9.9277 -0.00894782 0.00408218 
-0.00894782 -10.0077 -0.00249502 
0.00408218 -0.00249502 -10.0007 
-9.93563 0.00897494 0.030681 
0.00897494 -9.99761 0.00503847 
0.030681 0.00503847 -10.0029 
-9.96876 -0.0388654 0.0152934 
-0.0388654 -9.98487 0.0158324 
0.0152934 0.0158324 -9.98247 
-9.94315 0.00088426 0.0198559 
0.00088426 -10.0065 0.00391735 
0.0198559 0.00391735 -9.98644 
-9.92673 -0.113878 -0.105372 
-0.113878 -9.35882 0.258173 
-0.105372 0.258173 -9.96252 
-9.73021 -0.0384754 -0.115199 
-0.0384754 -9.68236 0.254324 
-0.115199 0.254324 -9.83551 
-9.79037 -0.0962187 -0.0960892 
-0.0962187 -9.56975 0.13827 
-0.0960892 0.13827 -9.88796 
-9.79139 -0.0626192 -0.0045984 
-0.0626192 -9.54373 0.235728 
-0.0045984 0.235728 -9.91296 
-9.97005 -0.0316361 -0.00917901 
-0.0316361 -9.95365 -0.07971 
-0.00917901 -0.07971 -10.0056 
-9.93203 -0.0742549 -0.0186925 
-0.0742549 -9.93496 -0.0331772 
-0.0186925 -0.0331772 -10.0623 
-9.89601 -0.019107 -0.0190789 
-0.019107 -9.99143 0.0256347 
-0.0190789 0.0256347 -10.0419 
-9.88336 -0.0257385 0.00551965 
-0.0257385 -9.96025 -0.017451 
0.00551965 -0.017451 -10.0857 
-9.75942 0.0600016 0.0771757 
0.0600016 -9.87217 -0.157931 
0.0771757 -0.157931 -9.77842 
-9.80346 -0.0824237 0.0461626 
-0.0824237 -9.73862 -0.133702 
0.0461626 -0.133702 -9.86794 
-9.77996 -0.0184517 0.099292 
-0.0184517 -9.79272 -0.15538 
0.099292 -0.15538 -9.83733 
-9.76704 -0.0272569 0.0853627 
-0.0272569 -9.77582 -0.189738 
0.0853627 -0.189738 -9.86716 
-9.83227 0.00625245 0.233544 
0.00625245 -9.91116 -0.120353 
0.233544 -0.120353 -9.818 
-9.85303 0.00757749 0.283055 
0.00757749 -9.88787 -0.146044 
0.283055 -0.146044 -9.82053 
-9.85264 -0.00863927 0.269216 
-0.00863927 -9.92733 -0.195349 
0.269216 -0.195349 -9.78147 
-9.80992 -0.0547659 0.317723 
-0.0547659 -9.96231 -0.167886 
0.317723 -0.167886 -9.78921 
-10.6824 0.0768185 0.596245 
0.0768185 -9.58969 0.546123 
0.596245 0.546123 -11.4168 
-10.4375 -0.648604 0.147625 
-0.648604 -10.3805 -0.490733 
0.147625 -0.490733 -10.8709 
-10.4739 0.0106431 0.260652 
0.0106431 -9.64256 0.0766649 
0.260652 0.0766649 -11.5725 
-10.5592 0.630479 0.442728 
0.630479 -9.16269 -0.452768 
0.442728 -0.452768 -11.967 
-9.83726 0.0243523 -0.129604 
0.0243523 -9.82159 -0.0796799 
-0.129604 -0.0796799 -9.91852 
-9.85284 0.0152576 -0.122483 
0.0152576 -9.8214 -0.074168 
-0.122483 -0.074168 -9.90312 
-9.81187 0.0536398 -0.119778 
0.0536398 -9.82928 -0.0694072 
-0.119778 -0.0694072 -9.93621 
-9.83903 0.00564748 -0.131123 
0.00564748 -9.83011 -0.075161 
-0.131123 -0.075161 -9.90822 
-8.96926 0.432646 -0.61466 
0.432646 -4.57535 -0.238287 
-0.61466 -0.238287 3.61917 
-8.28711 -0.326603 -0.899134 
-0.326603 -4.82673 -2.37305 
-0.899134 -2.37305 3.1884 
-4.73797 -0.340326 -1.98724 
-0.340326 0.0842767 0.245354 
-1.98724 0.245354 -5.27174 
-8.60082 1.30948 -6.08767 
1.30948 -3.95184 -1.20417 
-6.08767 -1.20417 2.62722 
-9.92078 -5.36391e-05 -0.110677 
-5.36391e-05 -9.93891 -0.177863 
-0.110677 -0.177863 -10.0865 
-9.98457 0.0147842 -0.122551 
0.0147842 -9.99707 -0.185327 
-0.122551 -0.185327 -9.96453 
-10.0059 0.0090564 -0.136768 
0.0090564 -9.9922 -0.188201 
-0.136768 -0.188201 -9.94806 
-10.0135 -0.000703832 -0.108242 
-0.000703832 -9.99473 -0.206773 
-0.108242 -0.206773 -9.93793 
-9.96229 0.00468514 0.0027762 
0.00468514 -10.0127 0.00830855 
0.0027762 0.00830855 -9.99697 
-9.96718 0.0032754 -0.0124249 
0.0032754 -9.99035 -0.0103959 
-0.0124249 -0.0103959 -10.0144 
-10.0129 -0.00774781 0.0112903 
-0.00774781 -10.0099 -0.0138045 
0.0112903 -0.0138045 -9.94921 
-9.97538 0.0202582 -0.0172962 
0.0202582 -9.99141 -0.00810603 
-0.0172962 -0.00810603 -10.0052 
-10.0115 -0.00425954 -0.0114555 
-0.00425954 -10.0046 0.0157066 
-0.0114555 0.0157066 -9.95063 
-9.96487 0.00570868 0.0124214 
0.00570868 -9.98666 0.0108814 
0.0124214 0.0108814 -10.0152 
-9.97414 0.0177339 0.0169537 
0.0177339 -9.98696 0.00764462 
0.0169537 0.00764462 -10.0056 
-9.96155 0.00771097 -0.00253036 
0.00771097 -10.0061 -0.00538786 
-0.00253036 -0.00538786 -9.99907 
-10.3149 0.669316 0.129814 
0.669316 -9.47897 0.537947 
0.129814 0.537947 -9.44501 
-9.14902 1.76795 1.05553 
1.76795 -10.794 1.09349 
1.05553 1.09349 -9.29586 
-10.6253 0.117398 0.748415 
0.117398 -8.99798 0.872036 
0.748415 0.872036 -9.61558 
-10.5046 0.379193 1.20073 
0.379193 -9.65635 -0.00420704 
1.20073 -0.00420704 -9.07789 
-9.79507 0.0389959 0.0542248 
0.0389959 -9.9019 -0.123495 
0.0542248 -0.123495 -9.79663 
-9.77612 -0.00973033 0.078141 
-0.00973033 -9.84828 -0.125597 
0.078141 -0.125597 -9.8692 
-9.81835 -0.118238 0.0462889 
-0.118238 -9.72053 -0.0424867 
0.0462889 -0.0424867 -9.95472 
-9.81655 -0.007246 0.14855 
-0.007246 -9.74164 -0.160003 
0.14855 -0.160003 -9.93541 
-10.0315 -0.00785931 0.00630201 
-0.00785931 -10.0209 0.00769741 
0.00630201 0.00769741 -10.0841 
-10.0753 0.00705732 0.0107379 
0.00705732 -10.0551 0.013819 
0.0107379 0.013819 -10.0061 
-9.98317 0.00612614 -0.0422086 
0.00612614 -9.98892 -0.0172756 
-0.0422086 -0.0172756 -10.1644 
-9.99061 0.0304273 0.0628588 
0.0304273 -10.0505 -0.0171453 
0.0628588 -0.0171453 -10.0954 
-10.0007 -0.000928331 -0.0613387 
-0.000928331 -10.0047 -0.110465 
-0.0613387 -0.110465 -10.0541 
-10.0533 -0.00612199 -0.0704337 
-0.00612199 -10.0382 -0.12262 
-0.0704337 -0.12262 -9.96806 
-10.0431 -0.0118273 -0.074285 
-0.0118273 -10.0464 -0.114242 
-0.074285 -0.114242 -9.96999 
-10.0303 -0.00190034 -0.101613 
-0.00190034 -10.0523 -0.12738 
-0.101613 -0.12738 -9.97692 
-9.86305 -0.0391474 -0.078434 
-0.0391474 -9.82774 0.213969 
-0.078434 0.213969 -9.86427 
-9.84513 -0.0170258 -0.0962935 
-0.0170258 -9.84373 0.21658 
-0.0962935 0.21658 -9.8662 
-9.83108 0.0163879 -0.0896117 
0.0163879 -9.86509 0.221762 
-0.0896117 0.221762 -9.85889 
-9.84287 -0.0131122 -0.0966426 
-0.0131122 -9.84129 0.226788 
-0.0966426 0.226788 -9.87089 
-9.96064 0.0431395 -0.00291756 
0.0431395 -10.0126 0.00288708 
-0.00291756 0.00288708 -10.0498 
-10.0271 0.0813182 -0.0411188 
0.0813182 -10.0084 -0.0375365 
-0.0411188 -0.0375365 -9.98747 
-9.97275 0.0402553 -0.0207235 
0.0402553 -10.0288 0.0283457 
-0.0207235 0.0283457 -10.0215 
-9.97618 0.0820957 -0.0390158 
0.0820957 -9.98269 0.022444 
-0.0390158 0.022444 -10.0641 
-10.807 0.791716 0.334825 
0.791716 -12.0666 2.19385 
0.334825 2.19385 -20.1296 
-12.6625 0.48955 -1.53733 
0.48955 -15.2309 -1.39383 
-1.53733 -1.39383 -15.1098 
-12.1098 -0.453717 -1.85146 
-0.453717 -13.9523 -0.718082 
-1.85146 -0.718082 -16.9412 
-12.7623 1.84977 -1.59513 
1.84977 -12.4878 -1.36536 
-1.59513 -1.36536 -17.7531 
-9.88401 0.0275852 -0.243211 
0.0275852 -9.97566 -0.0116311 
-0.243211 -0.0116311 -9.80119 
-9.9132 -0.010635 -0.259878 
-0.010635 -10.0003 0.0276259 
-0.259878 0.0276259 -9.74733 
-9.89125 -0.0145497 -0.240669 
-0.0145497 -10.0466 -0.0667663 
-0.240669 -0.0667663 -9.72302 
-9.86649 0.0113894 -0.246216 
0.0113894 -9.89418 -0.0125548 
-0.246216 -0.0125548 -9.9002 
-9.81316 -0.000656312 -0.547488 
-0.000656312 -10.022 -0.259544 
-0.547488 -0.259544 -9.94803 
-9.66174 0.151849 -0.383958 
0.151849 -10.2052 -0.0817044 
-0.383958 -0.0817044 -9.91623 
-9.72351 -0.0280937 -0.378343 
-0.0280937 -10.0142 -0.108478 
-0.378343 -0.108478 -10.0454 
-9.52393 0.199403 -0.373101 
0.199403 -10.1679 -0.132656 
-0.373101 -0.132656 -10.0914 
-10.0446 -0.0116621 0.0150409 
-0.0116621 -10.0336 0.00742976 
0.0150409 0.00742976 -10.1478 
-10.0709 0.00523879 0.020552 
0.00523879 -10.1516 -0.0056102 
0.020552 -0.0056102 -10.0035 
-10.0402 0.0270465 -0.00595889 
0.0270465 -10.0103 0.0460072 
-0.00595889 0.0460072 -10.1754 
-10.0776 -0.0173003 -0.0259126 
-0.0173003 -10.035 -0.0515449 
-0.0259126 -0.0515449 -10.1134 
-9.20403 0.042489 -0.182466 
0.042489 -9.42099 0.681575 
-0.182466 0.681575 -10.7823 
-9.13873 -0.0694901 -0.0720367 
-0.0694901 -9.41167 0.292133 
-0.0720367 0.292133 -10.8569 
-9.20371 -0.187071 -0.440733 
-0.187071 -9.47204 0.650274 
-0.440733 0.650274 -10.7316 
-9.28771 -0.119828 0.13715 
-0.119828 -9.08518 0.101969 
0.13715 0.101969 -11.0344 
-9.9892 0.00780714 0.218363 
0.00780714 -9.97324 -0.0868448 
0.218363 -0.0868448 -9.98553 
-9.96149 0.000410684 0.222654 
0.000410684 -10.0036 -0.0918165 
0.222654 -0.0918165 -9.98285 
-9.95629 -0.0218612 0.245287 
-0.0218612 -9.97849 -0.102567 
0.245287 -0.102567 -10.0132 
-9.95242 -0.00788434 0.212351 
-0.00788434 -9.99882 -0.0956473 
0.212351 -0.0956473 -9.99673 
-9.84972 0.0965496 0.0706944 
0.0965496 -9.86167 -0.0746223 
0.0706944 -0.0746223 -9.81624 
-9.81104 -0.0572623 0.107502 
-0.0572623 -9.79711 -0.109067 
0.107502 -0.109067 -9.91948 
-9.81878 -0.0765186 0.0709297 
-0.0765186 -9.78333 -0.0752573 
0.0709297 -0.0752573 -9.92552 
-9.733 -0.0235314 0.0983018 
-0.0235314 -9.88737 -0.0841708 
0.0983018 -0.0841708 -9.90725 
-13.999 2.54066 -6.19985 
2.54066 -7.5385 -2.05821 
-6.19985 -2.05821 1.57455 
-3.75064 -0.322006 4.46078 
-0.322006 -0.858294 2.88308 
4.46078 2.88308 -15.354 
-17.5381 -0.928819 -8.91177 
-0.928819 -11.8929 -1.2556 
-8.91177 -1.2556 9.468 
5.60414 5.09098 -9.9521 
5.09098 -10.0679 0.708041 
-9.9521 0.708041 -15.4992 
-9.95395 -0.017391 0.0390956 
-0.017391 -9.94542 -0.227966 
0.0390956 -0.227966 -9.96881 
-9.94461 -0.00333397 0.0403714 
-0.00333397 -9.93329 -0.232911 
0.0403714 -0.232911 -9.99028 
-9.95777 0.000112838 0.0512271 
0.000112838 -9.94476 -0.256964 
0.0512271 -0.256964 -9.96564 
-9.96399 -0.00832552 0.061672 
-0.00832552 -9.94872 -0.250198 
0.061672 -0.250198 -9.95547 
-10.138 -0.0645813 -0.204315 
-0.0645813 -9.59295 0.428177 
-0.204315 0.428177 -8.88259 
-9.98535 -0.00211644 -0.413975 
-0.00211644 -9.45187 0.398066 
-0.413975 0.398066 -9.17633 
-9.99752 0.0156355 -0.313951 
0.0156355 -9.46747 0.46884 
-0.313951 0.46884 -9.14856 
-9.84323 -0.0405134 0.0101991 
-0.0405134 -9.2682 0.509794 
0.0101991 0.509794 -9.50212 
-5.45257 3.48016 2.19735 
3.48016 -9.11966 0.716238 
2.19735 0.716238 2.39221 
-9.75921 -0.0709079 1.82086 
-0.0709079 -9.48071 -0.0909772 
1.82086 -0.0909772 7.05989 
-1.4084 -1.92609 -2.99181 
-1.92609 -1.89208 0.266701 
-2.99181 0.266701 -8.87955 
-9.26141 1.19011 -1.00877 
1.19011 -2.6162 5.94614 
-1.00877 5.94614 -0.302424 
-9.8875 0.0656219 -0.107472 
0.0656219 -9.81719 -0.0429008 
-0.107472 -0.0429008 -10.0752 
-9.89654 0.0482126 0.140482 
0.0482126 -10.0315 0.0980907 
0.140482 0.0980907 -9.85186 
-9.75535 0.2655 0.0380325 
0.2655 -9.91964 0.0148172 
0.0380325 0.0148172 -10.1049 
-9.88577 0.113043 0.0390058 
0.113043 -9.77549 -0.0511806 
0.0390058 -0.0511806 -10.1186 
-9.8078 0.100769 -0.0423238 
0.100769 -9.66373 -0.133919 
-0.0423238 -0.133919 -9.92754 
-9.75429 0.0207638 -0.0520718 
0.0207638 -9.81438 -0.192002 
-0.0520718 -0.192002 -9.8304 
-9.76721 -0.0188504 -0.0408802 
-0.0188504 -9.85415 -0.170639 
-0.0408802 -0.170639 -9.77771 
-9.77606 0.0159498 -0.103159 
0.0159498 -9.75157 -0.231277 
-0.103159 -0.231277 -9.87143 
-11.3482 -2.20183 -0.455355 
-2.20183 -9.97556 0.419208 
-0.455355 0.419208 -13.7104 
-9.87129 1.05082 -1.43169 
1.05082 -11.9819 0.259365 
-1.43169 0.259365 -13.1809 
-8.3147 0.95132 -0.857371 
0.95132 -10.712 0.937856 
-0.857371 0.937856 -16.0074 
-10.6482 -0.636841 -1.92686 
-0.636841 -9.54118 0.213006 
-1.92686 0.213006 -14.8448 
-9.97232 -0.00443157 0.108447 
-0.00443157 -9.98375 -0.222271 
0.108447 -0.222271 -9.99613 
-9.96806 0.000625397 0.109111 
0.000625397 -9.98655 -0.228455 
0.109111 -0.228455 -9.9976 
-9.97969 0.000710759 0.10473 
0.000710759 -9.98593 -0.22289 
0.10473 -0.22289 -9.98658 
-9.98897 0.00168535 0.10068 
0.00168535 -9.98596 -0.224892 
0.10068 -0.224892 -9.97727 
-9.88477 0.0586524 -0.00274624 
0.0586524 -9.75137 0.340062 
-0.00274624 0.340062 -9.67081 
-9.87282 0.005284 0.00921797 
0.005284 -9.67202 0.284555 
0.00921797 0.284555 -9.76211 
-9.91403 0.0234071 -0.0203432 
0.0234071 -9.65847 0.289579 
-0.0203432 0.289579 -9.73444 
-9.92098 0.0138484 -0.0299082 
0.0138484 -9.74239 0.308663 
-0.0299082 0.308663 -9.64358 
-9.97341 0.0188841 -0.0377522 
0.0188841 -9.76825 0.274318 
-0.0377522 0.274318 -9.8016 
-9.83095 -0.0248242 -0.0604704 
-0.0248242 -9.84038 0.276984 
-0.0604704 0.276984 -9.87194 
-9.95249 -0.038992 -0.0985013 
-0.038992 -9.78315 0.31925 
-0.0985013 0.31925 -9.80763 
-9.9474 -0.0085921 -0.0879513 
-0.0085921 -9.78571 0.286406 
-0.0879513 0.286406 -9.81016 
-9.78618 -0.0360584 0.0939233 
-0.0360584 -9.53441 0.0703512 
0.0939233 0.0703512 -10.1176 
-10.0063 -0.0954056 -0.130304 
-0.0954056 -9.56555 0.205254 
-0.130304 0.205254 -9.86633 
-9.97107 -0.0533162 -0.208207 
-0.0533162 -9.82878 0.0704388 
-0.208207 0.0704388 -9.63832 
-9.78096 -0.0222237 -0.0217754 
-0.0222237 -9.67491 0.210765 
-0.0217754 0.210765 -9.9823 
-9.80827 -0.127105 -0.189742 
-0.127105 -9.861 -0.0638786 
-0.189742 -0.0638786 -9.65794 
-9.63209 -0.0758131 -0.228138 
-0.0758131 -9.83143 0.037465 
-0.228138 0.037465 -9.8637 
-9.65578 -0.123285 -0.0941893 
-0.123285 -9.62457 0.0958326 
-0.0941893 0.0958326 -10.0469 
-9.64352 -0.0198613 -0.226349 
-0.0198613 -9.80173 0.118764 
-0.226349 0.118764 -9.88197 
-10.2675 -0.186702 -0.0503603 
-0.186702 -10.3981 0.452971 
-0.0503603 0.452971 -11.4164 
-11.4584 0.125821 -0.220964 
0.125821 -11.2216 -0.357063 
-0.220964 -0.357063 -9.402 
-10.2984 -0.00941372 -0.106865 
-0.00941372 -10.2198 0.20163 
-0.106865 0.20163 -11.5638 
-11.009 -0.405833 0.960498 
-0.405833 -10.015 0.0634185 
0.960498 0.0634185 -11.058 
-9.80539 0.0357784 -0.196283 
0.0357784 -9.73858 0.00180737 
-0.196283 0.00180737 -9.80262 
-9.73945 -0.00742892 -0.199272 
-0.00742892 -9.78882 0.0121402 
-0.199272 0.0121402 -9.81831 
-9.72749 -0.000771973 -0.19309 
-0.000771973 -9.8069 0.00321592 
-0.19309 0.00321592 -9.81218 
-9.73783 0.0139409 -0.210403 
0.0139409 -9.80089 0.0134076 
-0.210403 0.0134076 -9.80787 
-9.86716 0.0183201 -0.137722 
0.0183201 -9.69433 -0.0682663 
-0.137722 -0.0682663 -9.90262 
-9.75571 -0.00967593 -0.175709 
-0.00967593 -9.91474 -0.10909 
-0.175709 -0.10909 -9.79366 
-9.6092 0.139759 -0.142317 
0.139759 -9.73586 -0.0309326 
-0.142317 -0.0309326 -10.119 
-9.7032 0.0616336 -0.278947 
0.0616336 -9.90816 -0.0205162 
-0.278947 -0.0205162 -9.85275 
-9.91844 -0.0281893 0.0127028 
-0.0281893 -9.66701 0.256192 
0.0127028 0.256192 -9.75795 
-9.86293 9.11532e-05 -0.00854292 
9.11532e-05 -9.71875 0.33108 
-0.00854292 0.33108 -9.76172 
-9.85964 -0.00289317 0.0124574 
-0.00289317 -9.74243 0.323426 
0.0124574 0.323426 -9.74134 
-9.9206 -0.0203382 -0.00437744 
-0.0203382 -9.68955 0.329327 
-0.00437744 0.329327 -9.73325 
-9.94465 -0.0134884 -0.212869 
-0.0134884 -9.95366 0.0865206 
-0.212869 0.0865206 -9.96916 
-9.9477 0.00107982 -0.238843 
0.00107982 -9.95109 0.0965859 
-0.238843 0.0965859 -9.96868 
-9.93805 -0.00143429 -0.210518 
-0.00143429 -9.93888 0.0867312 
-0.210518 0.0867312 -9.99054 
-9.9476 -0.00861588 -0.231236 
-0.00861588 -9.95828 0.107456 
-0.231236 0.107456 -9.96159 
-9.89385 -0.00840038 0.0014316 
-0.00840038 -9.97085 0.0278225 
0.0014316 0.0278225 -9.97343 
-9.91885 -0.0299392 -0.0015361 
-0.0299392 -9.9539 0.018092 
-0.0015361 0.018092 -9.96538 
-9.91378 -0.032746 -0.00676358 
-0.032746 -9.95297 -0.00722076 
-0.00676358 -0.00722076 -9.97138 
-9.91337 -0.0309998 -0.00253267 
-0.0309998 -9.95818 0.0124358 
-0.00253267 0.0124358 -9.96658 
-9.66487 -0.0125941 0.119449 
-0.0125941 -9.76362 -0.0383793 
0.119449 -0.0383793 -9.8944 
-9.6245 0.0328586 0.160656 
0.0328586 -9.85192 0.00246836 
0.160656 0.00246836 -9.84647 
-9.69242 0.0183168 0.224125 
0.0183168 -9.84649 0.0412607 
0.224125 0.0412607 -9.78397 
-9.58088 0.0189539 0.26227 
0.0189539 -9.78076 -0.0703013 
0.26227 -0.0703013 -9.96125 
-9.97945 -0.0302025 0.0463172 
-0.0302025 -9.99991 -0.164513 
0.0463172 -0.164513 -10.0103 
-10.0437 -0.0105865 0.0294111 
-0.0105865 -10.0353 -0.119137 
0.0294111 -0.119137 -9.91067 
-9.99466 -0.0266498 0.0823135 
-0.0266498 -9.97392 -0.131251 
0.0823135 -0.131251 -10.0211 
-10.0393 0.011631 0.0526159 
0.011631 -10.037 -0.144211 
0.0526159 -0.144211 -9.91332 
-9.8114 0.105138 -0.196736 
0.105138 -9.84568 -0.448092 
-0.196736 -0.448092 -9.80394 
-9.7239 0.0796094 -0.266726 
0.0796094 -9.79425 -0.402419 
-0.266726 -0.402419 -9.94287 
-9.62732 0.204749 -0.358814 
0.204749 -9.82814 -0.235561 
-0.358814 -0.235561 -10.0056 
-9.66696 0.0450337 -0.269963 
0.0450337 -9.76723 -0.414698 
-0.269963 -0.414698 -10.0268 
-9.78443 0.0853478 -0.0799197 
0.0853478 -9.84074 -0.0615421 
-0.0799197 -0.0615421 -9.96535 
-9.81009 0.068451 -0.10506 
0.068451 -9.81501 -0.0200314 
-0.10506 -0.0200314 -9.96542 
-9.83216 0.117556 -0.0633312 
0.117556 -9.80218 -0.0631437 
-0.0633312 -0.0631437 -9.95618 
-9.67331 0.0457638 -0.0199689 
0.0457638 -9.92643 -0.140598 
-0.0199689 -0.140598 -9.99078 
-9.61484 -0.0214459 -0.186633 
-0.0214459 -9.81025 -0.0463243 
-0.186633 -0.0463243 -9.82179 
-9.47225 0.0297413 -0.205324 
0.0297413 -9.90965 -0.0662717 
-0.205324 -0.0662717 -9.86499 
-9.62778 0.00924689 -0.211918 
0.00924689 -9.76729 -0.0544594 
-0.211918 -0.0544594 -9.85182 
-9.69902 -0.0108806 -0.274033 
-0.0108806 -9.7375 0.00442403 
-0.274033 0.00442403 -9.81037 
-9.95649 0.0113385 0.0907479 
0.0113385 -9.9739 0.220274 
0.0907479 0.220274 -9.99539 
-9.97416 0.00127093 0.0888738 
0.00127093 -9.96657 0.213863 
0.0888738 0.213863 -9.98505 
-9.97357 0.011758 0.0991787 
0.011758 -9.95339 0.228804 
0.0991787 0.228804 -9.99881 
-9.97312 0.0100541 0.0855312 
0.0100541 -9.96856 0.215201 
0.0855312 0.215201 -9.98411 
-9.97481 0.00264797 -0.239091 
0.00264797 -10.0147 -0.0424874 
-0.239091 -0.0424874 -9.97079 
-9.9792 -0.0212306 -0.245367 
-0.0212306 -9.97192 -0.0353114 
-0.245367 -0.0353114 -10.0092 
-9.96266 -0.00234969 -0.234657 
-0.00234969 -9.98831 -0.0263545 
-0.234657 -0.0263545 -10.0094 
-9.98544 0.0119582 -0.24767 
0.0119582 -10.0078 -0.0339739 
-0.24767 -0.0339739 -9.96714 
-11.1949 -0.15701 -0.0266122 
-0.15701 -11.1345 0.195016 
-0.0266122 0.195016 -10.4218 
-10.7511 0.0688434 0.059661 
0.0688434 -10.5598 0.0520581 
0.059661 0.0520581 -11.4403 
-10.6141 0.141756 0.150713 
0.141756 -10.8407 -0.030873 
0.150713 -0.030873 -11.2963 
-10.6694 -0.224559 -0.177342 
-0.224559 -11.2169 -0.332117 
-0.177342 -0.332117 -10.8648 
-10.0122 0.00614094 -0.17838 
0.00614094 -10.006 -0.130952 
-0.17838 -0.130952 -9.96171 
-9.98611 0.0014924 -0.156346 
0.0014924 -9.92019 -0.0947725 
-0.156346 -0.0947725 -10.0736 
-10.0034 0.0153785 -0.182337 
0.0153785 -10.0164 -0.1419 
-0.182337 -0.1419 -9.96008 
-10.003 -0.00140089 -0.204444 
-0.00140089 -10.0243 -0.118341 
-0.204444 -0.118341 -9.95258 
-9.79938 0.092225 0.0596149 
0.092225 -9.8878 -0.126608 
0.0596149 -0.126608 -9.79341 
-9.77774 -0.0903036 0.0677508 
-0.0903036 -9.79484 -0.090184 
0.0677508 -0.090184 -9.90801 
-9.78565 -0.0481066 0.0971244 
-0.0481066 -9.78661 -0.125836 
0.0971244 -0.125836 -9.90833 
-9.85348 -0.0101676 0.094241 
-0.0101676 -9.73981 -0.120595 
0.094241 -0.120595 -9.8873 
-11.9572 0.992439 -0.78325 
0.992439 -5.38929 2.33809 
-0.78325 2.33809 -2.08845 
-7.36351 -1.4915 -1.99384 
-1.4915 -8.4393 1.1311 
-1.99384 1.1311 -3.63215 
-8.94711 -0.635332 -2.29337 
-0.635332 -6.58495 0.828072 
-2.29337 0.828072 -3.90289 
-10.5749 0.413507 -4.88719 
0.413507 -4.35188 -1.62261 
-4.88719 -1.62261 -4.50817 
-9.94012 -0.0346406 -0.062142 
-0.0346406 -9.79559 0.259334 
-0.062142 0.259334 -9.87816 
-9.89175 -0.0452787 -0.04405 
-0.0452787 -9.77252 0.262987 
-0.04405 0.262987 -9.9496 
-9.96113 -0.0188069 -0.0222169 
-0.0188069 -9.82342 0.281739 
-0.0222169 0.281739 -9.82932 
-9.97027 -0.00210609 -0.082918 
-0.00210609 -9.80194 0.299871 
-0.082918 0.299871 -9.84166 
-9.82697 0.116623 -0.408222 
0.116623 -9.49217 -0.268321 
-0.408222 -0.268321 -9.54768 
-9.66649 0.209932 -0.472285 
0.209932 -9.49489 -0.321305 
-0.472285 -0.321305 -9.70543 
-9.87054 -0.111429 -0.686 
-0.111429 -9.32273 -0.330556 
-0.686 -0.330556 -9.67354 
-9.67713 0.13179 -0.401425 
0.13179 -9.48351 -0.430957 
-0.401425 -0.430957 -9.70617 
-2.95655 0.367864 -0.476015 
0.367864 -5.23795 0.673245 
-0.476015 0.673245 -1.99531 
-5.42213 1.96914 -1.11289 
1.96914 -7.0939 -0.985746 
-1.11289 -0.985746 2.32622 
-3.11793 0.0894803 -0.433229 
0.0894803 -4.21081 0.735554 
-0.433229 0.735554 -2.86108 
-1.97561 -0.263456 -0.658948 
-0.263456 -6.97489 3.35221 
-0.658948 3.35221 -1.23931 
-8.91064 0.300892 -0.728655 
0.300892 -11.3997 1.0952 
-0.728655 1.0952 -12.7613 
-10.1315 0.241282 -0.156695 
0.241282 -10.6029 0.38069 
-0.156695 0.38069 -12.3373 
-10.4678 0.313892 -0.224306 
0.313892 -10.3352 0.0136664 
-0.224306 0.0136664 -12.2687 
-10.2436 -0.213079 0.465233 
-0.213079 -10.7309 -0.175105 
0.465233 -0.175105 -12.0972 
-9.68348 0.0295569 0.0178721 
0.0295569 -9.91366 -0.132183 
0.0178721 -0.132183 -9.70604 
-9.83017 -0.0160069 0.00869553 
-0.0160069 -9.62411 -0.104028 
0.00869553 -0.104028 -9.84891 
-9.79459 -0.0344181 0.0269491 
-0.0344181 -9.67683 -0.142395 
0.0269491 -0.142395 -9.83176 
-9.79727 0.00803902 0.0164949 
0.00803902 -9.67595 -0.198843 
0.0164949 -0.198843 -9.82996 
-10.0427 0.114355 -0.00237838 
0.114355 -9.84891 0.0891614 
-0.00237838 0.0891614 -9.9659 
-9.84655 0.0928346 -0.0279373 
0.0928346 -9.8303 -0.0123558 
-0.0279373 -0.0123558 -10.1806 
-9.86973 0.0595723 -0.0800205 
0.0595723 -9.89034 -0.146537 
-0.0800205 -0.146537 -10.0974 
-9.89001 0.145572 -0.0125537 
0.145572 -9.82414 -0.0203496 
-0.0125537 -0.0203496 -10.1433 
-10.1356 -0.0399043 0.0216589 
-0.0399043 -10.223 -0.00773805 
0.0216589 -0.00773805 -10.1505 
-10.0515 -0.02327 -0.00508304 
-0.02327 -10.2009 0.0957506 
-0.00508304 0.0957506 -10.2566 
-10.1895 0.117729 -0.000784716 
0.117729 -10.0503 -0.0193003 
-0.000784716 -0.0193003 -10.2693 
-10.3326 0.119712 -0.100699 
0.119712 -10.0666 0.132516 
-0.100699 0.132516 -10.1098 
-9.75721 -0.0329146 -0.0284571 
-0.0329146 -10.0595 0.00836529 
-0.0284571 0.00836529 -10.1023 
-9.49467 0.0876038 -0.0503226 
0.0876038 -10.1576 -0.000487933 
-0.0503226 -0.000487933 -10.2667 
-9.71335 0.0265221 0.0548841 
0.0265221 -10.0244 0.0356222 
0.0548841 0.0356222 -10.1813 
-9.77852 0.053433 0.0453216 
0.053433 -9.97896 0.00649997 
0.0453216 0.00649997 -10.1615 
-10.0167 -0.0333945 -0.0134087 
-0.0333945 -9.9862 -0.0598736 
-0.0134087 -0.0598736 -10.0096 
-9.97646 -0.0200662 -0.0255436 
-0.0200662 -10.0205 0.00713851 
-0.0255436 0.00713851 -10.0155 
-10.0005 0.0170159 -0.0531026 
0.0170159 -9.99713 -0.00446083 
-0.0531026 -0.00446083 -10.0149 
-10.0088 0.0367719 -0.0513209 
0.0367719 -10.0204 -0.0119731 
-0.0513209 -0.0119731 -9.98334 
-9.74748 0.00180399 0.439941 
0.00180399 -10.2116 0.0544282 
0.439941 0.0544282 -9.69748 
-9.59834 -0.0506171 0.471433 
-0.0506171 -10.0068 -0.292866 
0.471433 -0.292866 -10.0514 
-9.61103 -0.0776761 0.32715 
-0.0776761 -10.039 -0.0621375 
0.32715 -0.0621375 -10.0065 
-9.53569 -0.0140757 0.455681 
-0.0140757 -10.2636 0.0337386 
0.455681 0.0337386 -9.85733 
-9.81823 -0.118585 0.0465566 
-0.118585 -9.76574 -0.0448861 
0.0465566 -0.0448861 -9.95214 
-9.81812 0.00135663 0.101826 
0.00135663 -9.8413 -0.0925169 
0.101826 -0.0925169 -9.87669 
-9.81053 0.0469718 0.0892899 
0.0469718 -9.90644 -0.090811 
0.0892899 -0.090811 -9.81914 
-9.75152 -0.0430626 0.104324 
-0.0430626 -9.83185 -0.171176 
0.104324 -0.171176 -9.95274 
-9.96034 0.0265991 0.0268132 
0.0265991 -9.90179 0.00814748 
0.0268132 0.00814748 -10.008 
-9.95773 0.0771177 0.00786364 
0.0771177 -9.94219 -0.000543561 
0.00786364 -0.000543561 -9.97021 
-9.97241 -0.0157256 0.000568344 
-0.0157256 -9.92205 0.0171912 
0.000568344 0.0171912 -9.97567 
-9.99778 0.00196867 0.0147166 
0.00196867 -9.88241 0.00848292 
0.0147166 0.00848292 -9.98993 
-10.447 0.306025 0.00462262 
0.306025 -10.2344 0.208675 
0.00462262 0.208675 -10.9236 
-10.597 0.142563 -0.119137 
0.142563 -9.99375 0.160003 
-0.119137 0.160003 -11.0142 
-10.4444 0.323857 0.0388466 
0.323857 -10.2349 0.191379 
0.0388466 0.191379 -10.9257 
-10.6613 0.203565 -0.0368192 
0.203565 -10.0759 0.310125 
-0.0368192 0.310125 -10.8679 
-11.1568 0.0540139 -0.0709543 
0.0540139 -10.5093 0.858373 
-0.0709543 0.858373 -11.1773 
-9.89339 1.12046 0.465343 
1.12046 -9.19411 -1.02923 
0.465343 -1.02923 -13.756 
-12.0342 0.219404 -0.107861 
0.219404 -11.6837 1.48664 
-0.107861 1.48664 -9.12559 
-11.4606 -0.258827 -0.0601078 
-0.258827 -9.07823 1.18563 
-0.0601078 1.18563 -12.3046 
-9.90692 0.00761705 -0.107468 
0.00761705 -9.9203 -0.213893 
-0.107468 -0.213893 -9.95107 
-9.92384 0.00403902 -0.116626 
0.00403902 -9.90606 -0.230227 
-0.116626 -0.230227 -9.94839 
-9.93479 0.0219963 -0.0855105 
0.0219963 -9.92057 -0.195117 
-0.0855105 -0.195117 -9.92293 
-9.91334 0.0214845 -0.109431 
0.0214845 -9.91614 -0.219383 
-0.109431 -0.219383 -9.9488 
-9.8597 0.0254337 0.0578359 
0.0254337 -9.8132 0.203993 
0.0578359 0.203993 -9.89372 
-9.87244 0.0216075 0.0737921 
0.0216075 -9.80243 0.236532 
0.0737921 0.236532 -9.89175 
-9.88303 0.0270165 0.0696953 
0.0270165 -9.78039 0.243794 
0.0696953 0.243794 -9.90321 
-9.82853 -0.00260293 0.0773733 
-0.00260293 -9.84503 0.253001 
0.0773733 0.253001 -9.89306 
-9.91906 0.00621418 0.227203 
0.00621418 -9.93481 0.0539923 
0.227203 0.0539923 -9.92264 
-9.91078 0.00722137 0.244915 
0.00722137 -9.92363 0.0588556 
0.244915 0.0588556 -9.9421 
-9.91569 0.00652483 0.23461 
0.00652483 -9.92781 0.0636021 
0.23461 0.0636021 -9.93302 
-9.91922 0.0160095 0.244126 
0.0160095 -9.92539 0.0632255 
0.244126 0.0632255 -9.9319 
-9.92515 0.00558312 -0.0674237 
0.00558312 -9.80336 0.0137656 
-0.0674237 0.0137656 -9.93058 
-9.87852 0.0367245 -0.0572416 
0.0367245 -9.84743 -0.0480197 
-0.0572416 -0.0480197 -9.93313 
-9.87654 0.0153704 -0.0617557 
0.0153704 -9.82677 -0.0482906 
-0.0617557 -0.0482906 -9.95578 
-9.89509 0.0227639 -0.0555167 
0.0227639 -9.82386 -0.0375411 
-0.0555167 -0.0375411 -9.94014 
-9.68733 -0.0982303 -0.209935 
-0.0982303 -9.7706 0.197329 
-0.209935 0.197329 -10.0174 
-9.63558 -0.0868927 -0.182399 
-0.0868927 -9.71094 0.221773 
-0.182399 0.221773 -10.1288 
-9.62522 -0.121543 -0.231366 
-0.121543 -9.71815 0.209596 
-0.231366 0.209596 -10.132 
-9.63355 -0.0883886 -0.0887966 
-0.0883886 -9.67251 0.178393 
-0.0887966 0.178393 -10.1693 
-9.94873 -5.31679e-05 0.175693 
-5.31679e-05 -9.96034 0.0648532 
0.175693 0.0648532 -10.0824 
-10.0095 0.00602133 0.185671 
0.00602133 -10.0376 0.0712141 
0.185671 0.0712141 -9.94437 
-10.006 0.0124392 0.182675 
0.0124392 -10.0128 0.0851938 
0.182675 0.0851938 -9.97262 
-10.0047 -0.00230276 0.167636 
-0.00230276 -10.0287 0.114315 
0.167636 0.114315 -9.95804 
-9.64145 -0.0625581 -0.214723 
-0.0625581 -9.66154 0.282819 
-0.214723 0.282819 -10.2651 
-9.66354 -0.117791 -0.375579 
-0.117791 -9.89671 0.353796 
-0.375579 0.353796 -10.0078 
-9.52429 -0.280628 -0.146436 
-0.280628 -9.68179 0.481531 
-0.146436 0.481531 -10.362 
-9.69502 0.0445964 -0.0123965 
0.0445964 -9.62242 0.0686689 
-0.0123965 0.0686689 -10.2506 
-9.87234 -0.0135882 -0.252846 
-0.0135882 -9.92629 0.0116865 
-0.252846 0.0116865 -9.84908 
-9.86581 0.0166049 -0.239311 
0.0166049 -9.94745 0.00215303 
-0.239311 0.00215303 -9.83445 
-9.89793 -0.00229369 -0.238319 
-0.00229369 -9.95227 0.00628895 
-0.238319 0.00628895 -9.79751 
-9.87672 0.00137174 -0.245511 
0.00137174 -9.93543 0.00388531 
-0.245511 0.00388531 -9.83557 
-10.0391 0.00320521 0.0226032 
0.00320521 -10.0462 -0.000753227 
0.0226032 -0.000753227 -10.1429 
-10.0813 0.00353515 0.00986078 
0.00353515 -10.0922 0.00962975 
0.00986078 0.00962975 -10.0546 
-10.001 0.00269552 -0.0114481 
0.00269552 -9.98744 0.0324045 
-0.0114481 0.0324045 -10.2398 
-10.0515 -0.0162437 0.0270337 
-0.0162437 -10.0785 -0.0570928 
0.0270337 -0.0570928 -10.0982 
-9.74022 0.0695142 -0.168757 
0.0695142 -9.81028 -0.0490164 
-0.168757 -0.0490164 -9.82823 
-9.64424 0.0162348 -0.120292 
0.0162348 -9.90763 -0.175758 
-0.120292 -0.175758 -9.82685 
-9.72962 0.0928564 -0.172706 
0.0928564 -9.76703 -0.0367779 
-0.172706 -0.0367779 -9.88208 
-9.72046 -0.0551142 -0.21575 
-0.0551142 -9.81221 0.0148156 
-0.21575 0.0148156 -9.84606 
-9.8024 -0.0568125 0.0122144 
-0.0568125 -9.86336 -0.060757 
0.0122144 -0.060757 -9.95249 
-9.81923 -0.0588797 0.0266089 
-0.0588797 -9.85782 -0.0479986 
0.0266089 -0.0479986 -9.94121 
-9.82436 -0.0597292 0.0387988 
-0.0597292 -9.8322 -0.0634366 
0.0387988 -0.0634366 -9.96169 
-9.82304 -0.0770791 0.0339642 
-0.0770791 -9.84349 -0.0483359 
0.0339642 -0.0483359 -9.95173 
-14.4495 -2.7011 1.1693 
-2.7011 -16.5576 -0.504911 
1.1693 -0.504911 -19.0073 
-10.1155 -0.0345545 0.648273 
-0.0345545 -11.7958 -2.80057 
0.648273 -2.80057 -28.103 
-15.0141 0.536457 -1.37852 
0.536457 -10.1512 -2.52248 
-1.37852 -2.52248 -24.849 
-15.1126 -0.40117 -1.47142 
-0.40117 -15.7464 2.12777 
-1.47142 2.12777 -19.1555 
-9.88081 0.0457012 0.0374514 
0.0457012 -9.96626 -0.0376407 
0.0374514 -0.0376407 -9.98457 
-9.91327 0.0814407 -0.0230539 
0.0814407 -9.94612 -0.0314305 
-0.0230539 -0.0314305 -9.97224 
-9.94766 -0.00211742 0.0712219 
-0.00211742 -9.91238 0.0249377 
0.0712219 0.0249377 -9.97159 
-9.8869 0.0841615 0.0292141 
0.0841615 -9.90065 0.00510886 
0.0292141 0.00510886 -10.0441 
-9.79919 0.0695534 -0.321768 
0.0695534 -9.7556 -0.390175 
-0.321768 -0.390175 -9.77161 
-9.62307 -0.00424032 -0.287948 
-0.00424032 -9.82569 -0.390603 
-0.287948 -0.390603 -9.87765 
-9.73259 -0.00410504 -0.273469 
-0.00410504 -9.69944 -0.214904 
-0.273469 -0.214904 -9.89438 
-9.82329 0.2123 -0.509778 
0.2123 -9.54124 -0.374546 
-0.509778 -0.374546 -9.96188 
-10.017 -0.00718167 -0.0252025 
-0.00718167 -10.0004 -0.246342 
-0.0252025 -0.246342 -9.93665 
-9.95146 0.00193324 -0.0340173 
0.00193324 -9.93436 -0.224973 
-0.0340173 -0.224973 -10.0682 
-9.97708 0.0290693 -0.0395405 
0.0290693 -9.98346 -0.23006 
-0.0395405 -0.23006 -9.99348 
-10.0214 0.00430923 -0.0627621 
0.00430923 -9.97388 -0.233992 
-0.0627621 -0.233992 -9.95871 
-10.0984 -0.0166266 0.00331586 
-0.0166266 -10.0934 -0.00311721 
0.00331586 -0.00311721 -10.128 
-10.1261 -0.0183841 0.0154122 
-0.0183841 -10.1155 -0.000654872 
0.0154122 -0.000654872 -10.0783 
-9.99138 -0.016596 0.0515299 
-0.016596 -10.0196 0.0280546 
0.0515299 0.0280546 -10.3088 
-10.1086 0.0109578 -0.0556667 
0.0109578 -10.0945 -0.0431475 
-0.0556667 -0.0431475 -10.1166 
-9.91545 -0.0314421 -0.099373 
-0.0314421 -9.93259 0.241845 
-0.099373 0.241845 -9.96321 
-9.91893 -0.0204364 -0.117169 
-0.0204364 -9.92629 0.186346 
-0.117169 0.186346 -9.96603 
-9.94507 -0.0166495 -0.107466 
-0.0166495 -9.92712 0.23492 
-0.107466 0.23492 -9.93905 
-9.94671 -0.0185175 -0.101802 
-0.0185175 -9.91619 0.183932 
-0.101802 0.183932 -9.94835 
-9.95302 0.009469 0.19891 
0.009469 -9.94413 0.143053 
0.19891 0.143053 -9.95813 
-9.93623 0.0113323 0.209538 
0.0113323 -9.9438 0.12567 
0.209538 0.12567 -9.97525 
-9.93686 0.00436237 0.216078 
0.00436237 -9.94773 0.132107 
0.216078 0.132107 -9.97069 
-9.93804 0.00311703 0.210722 
0.00311703 -9.95267 0.129793 
0.210722 0.129793 -9.96457 
-9.69202 0.242234 -0.282184 
0.242234 -9.67723 -0.394666 
-0.282184 -0.394666 -9.95639 
-9.58533 0.0751709 -0.147678 
0.0751709 -9.67347 -0.215895 
-0.147678 -0.215895 -10.0668 
-9.56847 0.184377 -0.271502 
0.184377 -9.87878 -0.219538 
-0.271502 -0.219538 -9.87838 
-9.66598 0.12578 -0.280566 
0.12578 -9.88454 -0.232592 
-0.280566 -0.232592 -9.77512 
-9.94884 -0.0688236 -0.0426006 
-0.0688236 -10.0157 -0.0374397 
-0.0426006 -0.0374397 -10.0141 
-10.0741 0.0865033 -0.0194564 
0.0865033 -9.86081 0.0141212 
-0.0194564 0.0141212 -10.0438 
-9.90481 -0.0696791 -0.0335659 
-0.0696791 -10.0485 0.0333132 
-0.0335659 0.0333132 -10.0253 
-9.91535 -0.0268296 0.00847561 
-0.0268296 -10.0274 -0.011249 
0.00847561 -0.011249 -10.0359 
-3.5653 0.427423 0.85326 
0.427423 -4.33354 0.70107 
0.85326 0.70107 -1.16226 
-2.47714 0.0380222 1.81149 
0.0380222 -2.9542 0.76918 
1.81149 0.76918 -3.62976 
-7.47012 2.02232 -1.06722 
2.02232 -4.71525 -0.397712 
-1.06722 -0.397712 3.12427 
-3.42632 -0.841691 1.23696 
-0.841691 -5.1782 2.23405 
1.23696 2.23405 -0.456578 
-1.48133 -1.78966 -1.45835 
-1.78966 -2.70307 1.62013 
-1.45835 1.62013 -10.3208 
-11.8088 -2.05057 -0.0428515 
-2.05057 -9.82268 -4.68376 
-0.0428515 -4.68376 7.12628 
-10.2625 -0.875017 -0.832503 
-0.875017 -4.80077 -3.84354 
-0.832503 -3.84354 0.55812 
-7.17608 3.59209 -6.71101 
3.59209 -3.48869 -5.7475 
-6.71101 -5.7475 -3.84042 
-10.0379 -0.482377 0.0206595 
-0.482377 -10.7255 -0.273038 
0.0206595 -0.273038 -11.1603 
-9.91416 -0.402586 0.0540768 
-0.402586 -10.6015 -0.0744366 
0.0540768 -0.0744366 -11.408 
-10.0786 0.143827 0.0924408 
0.143827 -10.2661 -0.336069 
0.0924408 -0.336069 -11.579 
-10.6399 0.334329 -0.404306 
0.334329 -10.3474 0.26808 
-0.404306 0.26808 -10.9364 
0.40044 -0.30158 -0.750162 
-0.30158 -4.19038 -0.671235 
-0.750162 -0.671235 -6.66894 
-3.42695 -0.105677 -1.11808 
-0.105677 -5.00902 -0.851115 
-1.11808 -0.851115 -2.02292 
-5.01003 -1.81662 -1.32268 
-1.81662 -8.00611 0.703723 
-1.32268 0.703723 2.55726 
-1.61179 -0.331632 0.62717 
-0.331632 -7.13898 -4.55864 
0.62717 -4.55864 -1.70812 
-9.78903 0.022779 0.253058 
0.022779 -9.87555 0.0569091 
0.253058 0.0569091 -9.89575 
-9.76788 0.0143976 0.2645 
0.0143976 -9.90007 0.0548656 
0.2645 0.0548656 -9.89239 
-9.79067 -0.0153782 0.271977 
-0.0153782 -9.9135 0.0113118 
0.271977 0.0113118 -9.85616 
-9.74691 0.0575604 0.253635 
0.0575604 -9.97609 0.0847684 
0.253635 0.0847684 -9.83733 
-10.3136 -0.0395535 0.529055 
-0.0395535 -9.55964 -0.449979 
0.529055 -0.449979 -9.14596 
-10.3509 -0.222575 0.701384 
-0.222575 -9.43584 -0.707221 
0.701384 -0.707221 -9.23249 
-10.4403 0.0463506 0.47984 
0.0463506 -9.5232 -0.495187 
0.47984 -0.495187 -9.05573 
-10.1974 -0.178008 0.309524 
-0.178008 -9.4628 -0.443552 
0.309524 -0.443552 -9.35901 
-7.41853 -3.33954 -6.93562 
-3.33954 -13.1075 2.82268 
-6.93562 2.82268 -1.1241 
-7.00074 0.590616 -2.25872 
0.590616 -7.29895 -2.3585 
-2.25872 -2.3585 -7.35039 
-10.0825 3.03257 -1.95542 
3.03257 -4.75857 1.56741 
-1.95542 1.56741 -6.80897 
-10.6777 1.33536 -1.32773 
1.33536 -6.38566 -0.705331 
-1.32773 -0.705331 -4.58678 
-9.87223 -0.0576227 -0.0107795 
-0.0576227 -9.93583 0.0190295 
-0.0107795 0.0190295 -9.99803 
-9.93873 -0.0256756 -0.0303416 
-0.0256756 -9.92616 0.0132794 
-0.0303416 0.0132794 -9.94119 
-9.99432 0.0330312 -0.0127934 
0.0330312 -9.89208 0.00205846 
-0.0127934 0.00205846 -9.91969 
-9.9722 -0.0351816 -0.0599605 
-0.0351816 -9.87768 0.0330737 
-0.0599605 0.0330737 -9.9562 
-5.74166 0.816426 -2.07321 
0.816426 -9.3979 -5.21721 
-2.07321 -5.21721 -4.79314 
-4.52886 1.45878 1.87412 
1.45878 -7.2458 -4.24822 
1.87412 -4.24822 -8.15804 
-6.43013 -1.83406 -0.290411 
-1.83406 -7.10641 -2.77534 
-0.290411 -2.77534 -6.39615 
-6.54566 -0.759866 0.410844 
-0.759866 -8.25445 -2.94536 
0.410844 -2.94536 -5.13258 
-13.6956 1.39785 -0.991374 
1.39785 -14.1556 -0.793068 
-0.991374 -0.793068 -10.4043 
-11.49 0.468287 0.286338 
0.468287 -11.4461 -0.636496 
0.286338 -0.636496 -15.3193 
-8.42815 0.96257 0.388533 
0.96257 -10.077 -1.36657 
0.388533 -1.36657 -19.7502 
-11.8298 0.721768 0.787891 
0.721768 -12.9827 2.69974 
0.787891 2.69974 -13.4429 
-10.0375 -0.00707704 -0.0292042 
-0.00707704 -10.0152 0.15328 
-0.0292042 0.15328 -9.95976 
-9.97083 5.92486e-05 -0.0432845 
5.92486e-05 -9.95143 0.153508 
-0.0432845 0.153508 -10.0902 
-10.0557 -0.00222526 -0.0401601 
-0.00222526 -10.0103 0.164206 
-0.0401601 0.164206 -9.94654 
-10.0335 0.0019612 0.00544059 
0.0019612 -10.0254 0.164695 
0.00544059 0.164695 -9.95358 
-9.77301 -0.528773 -0.584145 
-0.528773 -9.62006 -0.0763814 
-0.584145 -0.0763814 -10.9095 
-9.76352 -0.594965 -0.39623 
-0.594965 -9.81025 0.03628 
-0.39623 0.03628 -10.7288 
-9.73467 -0.304109 -0.254615 
-0.304109 -10.0467 0.201751 
-0.254615 0.201751 -10.5212 
-9.87956 -0.394486 -0.239859 
-0.394486 -10.392 -0.338266 
-0.239859 -0.338266 -10.031 
-9.19704 -0.118137 -0.615463 
-0.118137 -9.50402 -0.680168 
-0.615463 -0.680168 -9.60065 
-9.32639 0.179329 -0.342385 
0.179329 -9.22876 -1.17633 
-0.342385 -1.17633 -9.74656 
-9.39966 0.126229 -0.535123 
0.126229 -9.67148 -0.73662 
-0.535123 -0.73662 -9.23056 
-9.1168 -0.0766249 -0.716412 
-0.0766249 -9.1143 -0.264208 
-0.716412 -0.264208 -10.0706 
-9.93909 -0.0173215 0.125641 
-0.0173215 -9.93199 -0.183308 
0.125641 -0.183308 -9.92655 
-9.92528 -0.00877827 0.150968 
-0.00877827 -9.91748 -0.207577 
0.150968 -0.207577 -9.95488 
-9.92029 -0.00676329 0.134435 
-0.00676329 -9.92976 -0.188755 
0.134435 -0.188755 -9.94758 
-9.91783 -0.0163118 0.135579 
-0.0163118 -9.92735 -0.200837 
0.135579 -0.200837 -9.95245 
-4.98982 0.357938 -0.586106 
0.357938 -3.11705 0.00621286 
-0.586106 0.00621286 -3.44687 
-5.73747 -0.0998521 -0.735162 
-0.0998521 -3.49589 0.057481 
-0.735162 0.057481 -2.32039 
-8.99227 0.232571 0.549038 
0.232571 -6.497 0.806394 
0.549038 0.806394 3.93552 
-6.58666 -0.76096 -4.91427 
-0.76096 -2.36343 -1.09874 
-4.91427 -1.09874 -2.60366 
-8.06392 -0.135222 -0.908277 
-0.135222 -9.73842 1.57996 
-0.908277 1.57996 -15.7399 
-11.9235 -0.0116918 0.608508 
-0.0116918 -11.0414 -0.872893 
0.608508 -0.872893 -10.5774 
-12.1424 -0.427078 1.01796 
-0.427078 -11.9943 -0.761322 
1.01796 -0.761322 -9.40557 
-10.3271 -2.55715 1.8252 
-2.55715 -9.11846 -1.84543 
1.8252 -1.84543 -14.0966 
-10.0239 0.0360945 -0.00164274 
0.0360945 -9.96128 0.0146731 
-0.00164274 0.0146731 -10.0223 
-10.0074 0.0568716 -0.0524301 
0.0568716 -9.98014 -0.0360859 
-0.0524301 -0.0360859 -10.0199 
-10.015 0.0170196 -0.0127426 
0.0170196 -9.97247 0.032733 
-0.0127426 0.032733 -10.02 
-9.99662 0.030831 0.00595337 
0.030831 -9.95626 -0.00680888 
0.00595337 -0.00680888 -10.0546 
-9.93477 -0.0190496 -0.21035 
-0.0190496 -9.95379 -0.00538548 
-0.21035 -0.00538548 -9.89285 
-9.9429 -0.00443001 -0.225808 
-0.00443001 -9.95611 -0.00274616 
-0.225808 -0.00274616 -9.8824 
-9.91796 -0.0221661 -0.187712 
-0.0221661 -9.96299 0.0167754 
-0.187712 0.0167754 -9.90046 
-9.93214 -0.00844603 -0.190026 
-0.00844603 -9.98244 0.0285187 
-0.190026 0.0285187 -9.86684 
-9.93981 0.0295848 -0.00137233 
0.0295848 -9.90295 -0.0432295 
-0.00137233 -0.0432295 -10.0588 
-9.98102 0.0182418 -0.0502173 
0.0182418 -9.9269 -0.00514053 
-0.0502173 -0.00514053 -9.99366 
-9.94845 0.0459731 -0.0609521 
0.0459731 -9.94647 0.0129864 
-0.0609521 0.0129864 -10.0067 
-9.97705 -0.00299415 -0.0486799 
-0.00299415 -9.88743 -0.056234 
-0.0486799 -0.056234 -10.0371 
-9.88183 -0.00130836 0.161178 
-0.00130836 -9.87368 0.163378 
0.161178 0.163378 -9.93547 
-9.88691 0.0084624 0.161924 
0.0084624 -9.88329 0.158936 
0.161924 0.158936 -9.92078 
-9.88885 0.0113731 0.156016 
0.0113731 -9.88309 0.166131 
0.156016 0.166131 -9.91905 
-9.88939 0.00770217 0.157149 
0.00770217 -9.88123 0.159828 
0.157149 0.159828 -9.92036 
-9.52996 0.283952 0.293234 
0.283952 -10.3619 0.595704 
0.293234 0.595704 -8.41022 
-9.48644 0.266969 0.789038 
0.266969 -9.67926 0.56822 
0.789038 0.56822 -9.13635 
-8.95578 0.629328 0.948825 
0.629328 -9.99452 0.0230053 
0.948825 0.0230053 -9.35175 
-9.02396 0.371754 0.927522 
0.371754 -9.95836 0.457316 
0.927522 0.457316 -9.31974 
-9.96018 -0.00997712 -0.18202 
-0.00997712 -9.96445 0.161695 
-0.18202 0.161695 -9.96201 
-9.93554 -0.00577928 -0.171976 
-0.00577928 -9.94748 0.158366 
-0.171976 0.158366 -10.0036 
-9.93839 -0.00546364 -0.186704 
-0.00546364 -9.94089 0.173165 
-0.186704 0.173165 -10.0073 
-9.96113 -0.0164462 -0.191171 
-0.0164462 -9.96011 0.14798 
-0.191171 0.14798 -9.9654 
-9.02063 -2.22678 0.292745 
-2.22678 -14.4182 -0.413902 
0.292745 -0.413902 -14.3769 
-11.5236 0.928693 -0.0951822 
0.928693 -8.57051 -0.984062 
-0.0951822 -0.984062 -17.7216 
-15.9428 1.05382 -1.902 
1.05382 -8.44286 2.63618 
-1.902 2.63618 -13.4301 
-10.2938 -0.1046 -0.947412 
-0.1046 -11.443 1.53419 
-0.947412 1.53419 -16.0789 
-9.91197 0.0575868 0.00357723 
0.0575868 -9.93535 -0.00992404 
0.00357723 -0.00992404 -10.0138 
-9.92691 -0.0431163 -0.0115169 
-0.0431163 -9.96195 -0.0298361 
-0.0115169 -0.0298361 -9.97227 
-9.92506 0.026038 -0.0125071 
0.026038 -9.92529 -0.0334865 
-0.0125071 -0.0334865 -10.0108 
-9.95947 -0.0157751 -0.0219866 
-0.0157751 -9.89808 -0.0198075 
-0.0219866 -0.0198075 -10.0036 
-10.057 -0.0378822 -0.00218225 
-0.0378822 -9.98344 -0.046248 
-0.00218225 -0.046248 -10.104 
-10.0282 -0.0120437 -0.00692403 
-0.0120437 -10.0348 -0.0325814 
-0.00692403 -0.0325814 -10.0814 
-10.0844 -0.00564917 -0.0258021 
-0.00564917 -9.99816 -0.0256087 
-0.0258021 -0.0256087 -10.0618 
-10.079 -0.0241251 -0.0125717 
-0.0241251 -9.99138 -0.00382131 
-0.0125717 -0.00382131 -10.074 
-5.98151 -0.197939 0.292044 
-0.197939 -8.93022 -1.80017 
0.292044 -1.80017 3.08909 
-2.14972 -0.160924 1.10454 
-0.160924 -5.10801 0.741282 
1.10454 0.741282 -4.56491 
-3.2857 0.282613 0.579704 
0.282613 -5.61067 0.651466 
0.579704 0.651466 -2.92626 
-1.80034 -0.767349 0.717727 
-0.767349 -10.0402 5.07367 
0.717727 5.07367 0.0179272 
-9.90091 0.0120715 -0.119551 
0.0120715 -9.90034 -0.203712 
-0.119551 -0.203712 -9.90663 
-9.88076 0.00362192 -0.127147 
0.00362192 -9.88411 -0.201549 
-0.127147 -0.201549 -9.94301 
-9.89409 0.011589 -0.131652 
0.011589 -9.89638 -0.189398 
-0.131652 -0.189398 -9.91742 
-9.89142 0.00906313 -0.120123 
0.00906313 -9.89668 -0.186017 
-0.120123 -0.186017 -9.91979 
-10.0098 -0.0533102 -0.0268333 
-0.0533102 -9.96366 0.0294673 
-0.0268333 0.0294673 -10.1048 
-10.0154 0.0384692 -0.0468235 
0.0384692 -9.99326 -0.0581682 
-0.0468235 -0.0581682 -10.0695 
-10.0393 0.0164747 -0.0382542 
0.0164747 -9.96164 -0.0443061 
-0.0382542 -0.0443061 -10.0773 
-10.0663 0.0613513 -0.0233317 
0.0613513 -9.88074 -0.010059 
-0.0233317 -0.010059 -10.1311 
-9.79769 0.102984 0.0696075 
0.102984 -9.60731 0.254429 
0.0696075 0.254429 -9.80646 
-9.94465 0.240857 0.179384 
0.240857 -9.27767 0.381069 
0.179384 0.381069 -9.98914 
-9.70912 0.118397 0.00626788 
0.118397 -9.51578 0.0939142 
0.00626788 0.0939142 -9.98657 
-9.84465 0.0135434 -0.00738504 
0.0135434 -9.65823 0.261996 
-0.00738504 0.261996 -9.70857 
-9.87809 0.00569259 0.251554 
0.00569259 -9.91357 0.0390366 
0.251554 0.0390366 -9.86086 
-9.85511 0.00293054 0.235777 
0.00293054 -9.89953 0.0332518 
0.235777 0.0332518 -9.89788 
-9.84371 0.0176966 0.252264 
0.0176966 -9.85729 0.033401 
0.252264 0.033401 -9.95152 
-9.85842 -0.00282107 0.230322 
-0.00282107 -9.89645 0.0235555 
0.230322 0.0235555 -9.89765 
-9.93856 0.00510858 0.239062 
0.00510858 -9.9656 0.0641938 
0.239062 0.0641938 -9.98296 
-9.9334 0.00401113 0.23408 
0.00401113 -9.97427 0.0618496 
0.23408 0.0618496 -9.97946 
-9.93807 0.00652211 0.234816 
0.00652211 -9.96526 0.0621047 
0.234816 0.0621047 -9.98379 
-9.95917 0.00999727 0.245223 
0.00999727 -9.95949 0.0592777 
0.245223 0.0592777 -9.96846 
-10.3949 -0.0792421 -0.0265791 
-0.0792421 -10.595 0.226404 
-0.0265791 0.226404 -10.9236 
-10.5326 0.174311 -0.0630605 
0.174311 -10.4375 0.123699 
-0.0630605 0.123699 -10.9434 
-10.725 0.0377285 0.0206736 
0.0377285 -10.2602 0.18192 
0.0206736 0.18192 -10.9283 
-10.4201 0.120557 0.123009 
0.120557 -10.4812 0.184558 
0.123009 0.184558 -11.0122 
-9.84532 -0.0164503 0.102993 
-0.0164503 -9.8457 -0.211092 
0.102993 -0.211092 -9.86634 
-9.83161 0.0121473 0.0898146 
0.0121473 -9.86496 -0.217657 
0.0898146 -0.217657 -9.8608 
-9.86685 -0.0385046 0.0789056 
-0.0385046 -9.82774 -0.215584 
0.0789056 -0.215584 -9.86278 
-9.84797 -0.0145179 0.0991058 
-0.0145179 -9.83802 -0.229017 
0.0991058 -0.229017 -9.87138 
-10.0046 0.240263 -0.16876 
0.240263 -9.85016 -0.552262 
-0.16876 -0.552262 -10.3598 
-10.2019 0.0808749 -0.142658 
0.0808749 -9.85129 0.0695283 
-0.142658 0.0695283 -10.1613 
-10.0195 0.197925 -0.154236 
0.197925 -9.81234 -0.157352 
-0.154236 -0.157352 -10.3827 
-10.0401 0.422173 0.0229179 
0.422173 -9.60293 -0.369621 
0.0229179 -0.369621 -10.5715 
-11.1491 -0.495567 0.357214 
-0.495567 -12.0847 -0.0718933 
0.357214 -0.0718933 -12.7784 
-10.7027 0.183104 0.680102 
0.183104 -11.9397 -0.237719 
0.680102 -0.237719 -13.3697 
-10.6794 0.118293 0.0852609 
0.118293 -11.3338 -0.12919 
0.0852609 -0.12919 -13.9989 
-10.95 0.118939 0.79229 
0.118939 -12.5429 0.732386 
0.79229 0.732386 -12.5192 
-9.92929 -0.000104929 -0.0247466 
-0.000104929 -9.91185 -0.247477 
-0.0247466 -0.247477 -9.94283 
-9.92121 0.000701111 -0.0266071 
0.000701111 -9.92503 -0.23685 
-0.0266071 -0.23685 -9.93773 
-9.93569 0.000456755 -0.0268883 
0.000456755 -9.91608 -0.240879 
-0.0268883 -0.240879 -9.93219 
-9.93811 0.00491044 -0.0197555 
0.00491044 -9.91688 -0.251178 
-0.0197555 -0.251178 -9.92897 
-9.91498 -0.0206005 0.191169 
-0.0206005 -9.91757 -0.184862 
0.191169 -0.184862 -9.9598 
-9.91043 -0.0208917 0.190306 
-0.0208917 -9.93652 -0.184828 
0.190306 -0.184828 -9.9454 
-9.91544 -0.0219733 0.190071 
-0.0219733 -9.91925 -0.185942 
0.190071 -0.185942 -9.95766 
-9.91605 -0.023366 0.180128 
-0.023366 -9.92884 -0.185276 
0.180128 -0.185276 -9.94745 
-10.0219 -0.00256374 0.141973 
-0.00256374 -10.0389 -0.13567 
0.141973 -0.13567 -9.93633 
-9.98132 0.00534644 0.113833 
0.00534644 -10.0201 -0.154717 
0.113833 -0.154717 -9.99569 
-9.95913 0.0290064 0.0937698 
0.0290064 -9.99453 -0.127181 
0.0937698 -0.127181 -10.0434 
-10.0404 -0.00344313 0.114621 
-0.00344313 -10.0153 -0.156246 
0.114621 -0.156246 -9.94141 
-4.00302 -0.1522 -1.46297 
-0.1522 -1.93115 -0.0317574 
-1.46297 -0.0317574 -5.25407 
-5.4589 -0.409721 -1.05734 
-0.409721 -3.22277 -0.419125 
-1.05734 -0.419125 -2.50658 
-8.49333 -0.806486 1.87022 
-0.806486 -5.94052 -0.0832164 
1.87022 -0.0832164 3.24561 
-10.2989 -0.194303 -5.29335 
-0.194303 -1.61567 -0.408016 
-5.29335 -0.408016 0.726356 
-8.10397 -0.426716 -3.15352 
-0.426716 -11.6784 -3.47716 
-3.15352 -3.47716 4.00838 
-8.59945 -2.83742 -0.94001 
-2.83742 -12.8631 -4.89424 
-0.94001 -4.89424 5.68855 
-1.5278 0.0150713 -0.655634 
0.0150713 -3.00165 2.4378 
-0.655634 2.4378 -11.2446 
-7.77385 2.17535 -4.92259 
2.17535 -0.991817 -7.16573 
-4.92259 -7.16573 -7.00836 
-6.68574 -0.0976244 0.166151 
-0.0976244 -8.32013 1.48715 
0.166151 1.48715 2.92474 
-3.75032 -0.1825 0.308862 
-0.1825 -5.19642 -0.204105 
0.308862 -0.204105 -3.13439 
-4.21759 0.217369 0.262513 
0.217369 -5.15233 -0.220332 
0.262513 -0.220332 -2.71122 
-2.93156 -0.178142 0.196355 
-0.178142 -6.40992 -2.70884 
0.196355 -2.70884 -2.73965 
-10.4726 1.49604 1.83132 
1.49604 -5.65663 -2.14926 
1.83132 -2.14926 -10.8532 
-8.92101 0.194935 -1.64897 
0.194935 -12.1471 -4.09782 
-1.64897 -4.09782 -5.91437 
-4.21137 -1.16661 0.710095 
-1.16661 -7.97243 -5.01593 
0.710095 -5.01593 -14.7986 
-10.1939 0.625503 1.18615 
0.625503 -7.13919 -3.95749 
1.18615 -3.95749 -9.64939 
-2.74053 0.288112 0.51118 
0.288112 -4.15973 0.566191 
0.51118 0.566191 -2.56991 
-6.95348 0.957211 2.2102 
0.957211 -8.75961 -1.07687 
2.2102 -1.07687 6.24292 
-1.17055 -0.119484 1.21943 
-0.119484 -2.884 0.377311 
1.21943 0.377311 -5.41562 
-1.64651 1.15109 -0.835546 
1.15109 -6.22725 6.56135 
-0.835546 6.56135 -1.59641 
-9.79875 -0.0494392 -0.10959 
-0.0494392 -9.81439 0.117399 
-0.10959 0.117399 -9.91864 
-9.80894 -0.0813636 -0.0711678 
-0.0813636 -9.80924 0.0872386 
-0.0711678 0.0872386 -9.9136 
-9.85494 0.0595412 -0.120575 
0.0595412 -9.84201 0.0938539 
-0.120575 0.0938539 -9.83482 
-9.74394 0.00574481 -0.103965 
0.00574481 -9.88401 0.119044 
-0.103965 0.119044 -9.90383 
-10.0031 0.0410665 -0.00474543 
0.0410665 -10.0506 -0.0412705 
-0.00474543 -0.0412705 -10.1478 
-10.0441 -0.0167095 0.0356087 
-0.0167095 -10.0499 -0.0353079 
0.0356087 -0.0353079 -10.1075 
-10.0129 -0.00198952 0.00729933 
-0.00198952 -10.0637 -0.0215123 
0.00729933 -0.0215123 -10.1249 
-10.0016 -0.0107093 0.00214865 
-0.0107093 -10.0647 -0.026 
0.00214865 -0.026 -10.1352 
-10.9558 0.369952 0.883395 
0.369952 -11.5709 1.15925 
0.883395 1.15925 -18.0573 
-13.4818 -0.476072 0.84047 
-0.476072 -13.6031 -0.698117 
0.84047 -0.698117 -13.4991 
-11.6997 -0.836543 1.71877 
-0.836543 -13.4646 -0.375767 
1.71877 -0.375767 -15.4197 
-12.9503 -1.46748 2.16047 
-1.46748 -14.4776 0.298569 
2.16047 0.298569 -13.1561 
-9.95778 0.251363 0.367032 
0.251363 -9.38996 0.542571 
0.367032 0.542571 -9.91068 
-9.6741 0.341221 0.31484 
0.341221 -9.32416 0.379484 
0.31484 0.379484 -10.2602 
-9.86071 0.143484 0.10349 
0.143484 -9.49302 0.51209 
0.10349 0.51209 -9.90469 
-9.91007 0.250805 0.340799 
0.250805 -9.48991 0.495995 
0.340799 0.495995 -9.85844 
-10.5527 0.0395667 -0.00622626 
0.0395667 -10.4437 0.0715373 
-0.00622626 0.0715373 -10.5825 
-10.518 0.0196814 0.00462024 
0.0196814 -10.454 0.0839221 
0.00462024 0.0839221 -10.607 
-10.471 0.034937 0.0321469 
0.034937 -10.3002 0.0385381 
0.0321469 0.0385381 -10.8078 
-10.5705 -0.0177088 -0.0554422 
-0.0177088 -10.4486 0.154359 
-0.0554422 0.154359 -10.5599 
-10.0449 -0.00886964 0.0554985 
-0.00886964 -10.0118 -0.199976 
0.0554985 -0.199976 -9.96117 
-10.0197 0.0249947 0.0569397 
0.0249947 -9.97792 -0.174542 
0.0569397 -0.174542 -10.0202 
-10.0257 0.00425748 0.073931 
0.00425748 -9.98839 -0.185255 
0.073931 -0.185255 -10.0037 
-10.0275 -0.0021131 0.0694123 
-0.0021131 -10.0311 -0.187033 
0.0694123 -0.187033 -9.95918 
-9.91227 -0.0101296 -0.218914 
-0.0101296 -9.92703 0.101174 
-0.218914 0.101174 -9.9457 
-9.91041 0.00124743 -0.215778 
0.00124743 -9.9202 0.105773 
-0.215778 0.105773 -9.95439 
-9.92173 -0.0082191 -0.210663 
-0.0082191 -9.92961 0.0937869 
-0.210663 0.0937869 -9.93366 
-9.92739 -0.0180875 -0.220951 
-0.0180875 -9.92558 0.102736 
-0.220951 0.102736 -9.93203 
-9.91448 -0.0106979 0.239212 
-0.0106979 -9.93454 -0.0664706 
0.239212 -0.0664706 -9.94374 
-9.91439 -0.00497557 0.232742 
-0.00497557 -9.92105 -0.0652671 
0.232742 -0.0652671 -9.95732 
-9.92727 -0.00690496 0.221224 
-0.00690496 -9.92873 -0.0594912 
0.221224 -0.0594912 -9.93676 
-9.92501 -0.0244628 0.240581 
-0.0244628 -9.9399 -0.069345 
0.240581 -0.069345 -9.92785 
-9.66694 0.039468 -0.339048 
0.039468 -9.99588 -0.0310577 
-0.339048 -0.0310577 -9.84076 
-9.59769 -0.0294564 -0.282429 
-0.0294564 -9.99886 0.0351061 
-0.282429 0.0351061 -9.90703 
-9.63397 -0.0481267 -0.301015 
-0.0481267 -10.006 0.045694 
-0.301015 0.045694 -9.86362 
-9.74545 0.00349203 -0.261581 
0.00349203 -9.90373 0.0107883 
-0.261581 0.0107883 -9.8544 
-9.82818 0.022225 -0.206379 
0.022225 -9.90881 -0.0574673 
-0.206379 -0.0574673 -9.89987 
-9.87975 0.00416883 -0.221785 
0.00416883 -9.85976 -0.0732064 
-0.221785 -0.0732064 -9.89733 
-9.88485 0.00728109 -0.225948 
0.00728109 -9.85639 -0.0609257 
-0.225948 -0.0609257 -9.89561 
-9.87148 -0.00311124 -0.228747 
-0.00311124 -9.86434 -0.0719687 
-0.228747 -0.0719687 -9.90104 
-9.91439 0.00106381 0.23592 
0.00106381 -9.93579 -0.0373075 
0.23592 -0.0373075 -9.95173 
-9.89971 0.000881402 0.245708 
0.000881402 -9.94498 -0.0504266 
0.245708 -0.0504266 -9.95723 
-9.91995 -0.00361547 0.23006 
-0.00361547 -9.93381 -0.0382863 
0.23006 -0.0382863 -9.94815 
-9.90997 -0.00586338 0.245461 
-0.00586338 -9.95402 -0.0543195 
0.245461 -0.0543195 -9.93793 
-9.58553 0.00365523 0.0164587 
0.00365523 -9.87691 -0.227322 
0.0164587 -0.227322 -9.97167 
-9.75438 0.0437932 -0.321331 
0.0437932 -9.71996 -0.191884 
-0.321331 -0.191884 -9.95977 
-9.80059 -0.0381568 0.00275586 
-0.0381568 -9.89938 0.244705 
0.00275586 0.244705 -9.73414 
-9.57247 0.0876632 -0.375405 
0.0876632 -10.04 0.128579 
-0.375405 0.128579 -9.82166 
-10.1117 -0.0472222 0.0595894 
-0.0472222 -10.1744 -0.056368 
0.0595894 -0.056368 -9.94044 
-10.0636 0.0265233 0.013365 
0.0265233 -10.0032 0.0393062 
0.013365 0.0393062 -10.1597 
-10.0436 -0.023971 0.0318635 
-0.023971 -10.0336 -0.00321417 
0.0318635 -0.00321417 -10.1493 
-10.1192 -0.046801 -0.0352323 
-0.046801 -10.0001 -0.0546916 
-0.0352323 -0.0546916 -10.1073 
-9.85354 -0.0587735 0.0389598 
-0.0587735 -9.9091 -0.0508496 
0.0389598 -0.0508496 -9.98379 
-9.83542 -0.0672935 -0.00608707 
-0.0672935 -9.90995 -0.0146425 
-0.00608707 -0.0146425 -10.0011 
-9.86938 -0.0397092 0.0209517 
-0.0397092 -9.8887 -0.0169793 
0.0209517 -0.0169793 -9.98835 
-9.83985 -0.0326787 0.0258466 
-0.0326787 -9.92498 -0.0586533 
0.0258466 -0.0586533 -9.9816 
-10.0424 0.0415463 0.0495483 
0.0415463 -10.1014 -0.0541122 
0.0495483 -0.0541122 -10.0905 
-10.1409 0.0800236 0.0410728 
0.0800236 -9.89809 -0.00959274 
0.0410728 -0.00959274 -10.1953 
-10.0613 0.0651351 0.0240609 
0.0651351 -10.0556 -0.0159189 
0.0240609 -0.0159189 -10.1174 
-10.0821 0.0741367 0.0400683 
0.0741367 -10.0572 0.000136629 
0.0400683 0.000136629 -10.095 
-9.71267 -0.0799198 0.0214032 
-0.0799198 -10.007 -0.0881052 
0.0214032 -0.0881052 -9.93614 
-9.8125 0.0729438 -0.0314783 
0.0729438 -9.75336 0.0629745 
-0.0314783 0.0629745 -10.0899 
-9.71914 -0.25825 0.17082 
-0.25825 -9.56274 0.00754993 
0.17082 0.00754993 -10.3739 
-9.90507 -0.237061 0.262401 
-0.237061 -10.0069 -0.114515 
0.262401 -0.114515 -9.74382 
-10.0255 -0.0135183 -0.00255433 
-0.0135183 -9.96103 -0.0377283 
-0.00255433 -0.0377283 -10.0188 
-10.0139 0.0248131 0.0265299 
0.0248131 -9.97191 -0.0103946 
0.0265299 -0.0103946 -10.0195 
-10.0389 0.00829642 -0.0152252 
0.00829642 -9.94091 -0.0176604 
-0.0152252 -0.0176604 -10.0255 
-10.0354 -0.00256095 0.00133043 
-0.00256095 -9.96114 -0.026573 
0.00133043 -0.026573 -10.0088 
-9.92744 -0.00273302 0.234027 
-0.00273302 -9.94391 0.0255181 
0.234027 0.0255181 -9.93365 
-9.91038 0.00400551 0.220262 
0.00400551 -9.9518 0.026903 
0.220262 0.026903 -9.94281 
-9.89998 -0.0037042 0.245939 
-0.0037042 -9.95491 0.0410531 
0.245939 0.0410531 -9.95011 
-9.91644 0.00131651 0.235425 
0.00131651 -9.95494 0.0375833 
0.235425 0.0375833 -9.93362 
-9.96187 -0.00708 -0.107293 
-0.00708 -9.97717 0.222206 
-0.107293 0.222206 -9.9916 
-9.9375 0.0117555 -0.0980643 
0.0117555 -9.95777 0.20979 
-0.0980643 0.20979 -10.0354 
-9.98539 -0.00853847 -0.115638 
-0.00853847 -9.97234 0.221449 
-0.115638 0.221449 -9.97292 
-9.9983 -0.00945016 -0.103611 
-0.00945016 -9.96008 0.233955 
-0.103611 0.233955 -9.97228 
-9.96017 -0.0104948 -0.00726837 
-0.0104948 -9.97589 -0.00156606 
-0.00726837 -0.00156606 -9.97081 
-9.9648 -0.0101938 -0.00273039 
-0.0101938 -9.98111 0.00167319 
-0.00273039 0.00167319 -9.96096 
-9.95812 0.0153844 -0.00311376 
0.0153844 -9.98091 0.0128626 
-0.00311376 0.0128626 -9.96784 
-9.96366 -0.00259055 -0.00601423 
-0.00259055 -9.97769 0.00064851 
-0.00601423 0.00064851 -9.96552 
-9.95035 0.0209349 0.00845424 
0.0209349 -9.98285 -0.00940927 
0.00845424 -0.00940927 -9.96375 
-9.95628 0.00178193 0.00784394 
0.00178193 -9.97744 0.0050665 
0.00784394 0.0050665 -9.96323 
-9.95202 -0.0138267 0.00362346 
-0.0138267 -9.9732 -0.000468479 
0.00362346 -0.000468479 -9.97174 
-9.95862 -0.0107958 0.00430683 
-0.0107958 -9.98131 0.00480595 
0.00430683 0.00480595 -9.95703 
-11.9043 -0.348699 0.548182 
-0.348699 -10.5529 0.170331 
0.548182 0.170331 -13.0701 
-11.1026 -0.505589 0.554664 
-0.505589 -12.5032 -0.366106 
0.554664 -0.366106 -11.9214 
-11.252 0.222062 0.494209 
0.222062 -12.6104 -0.10145 
0.494209 -0.10145 -11.6649 
-11.9011 -0.107121 1.11332 
-0.107121 -12.0527 -1.52695 
1.11332 -1.52695 -11.5735 
-9.96665 -0.000334609 -0.00631955 
-0.000334609 -9.97564 -0.255267 
-0.00631955 -0.255267 -9.99094 
-9.96719 -0.00365033 -0.00425231 
-0.00365033 -9.96675 -0.250703 
-0.00425231 -0.250703 -9.99929 
-9.97802 0.000929883 -0.00444066 
0.000929883 -9.97668 -0.252536 
-0.00444066 -0.252536 -9.97853 
-9.96743 0.00426784 -0.00157898 
0.00426784 -9.9739 -0.255334 
-0.00157898 -0.255334 -9.9919 
-9.92994 0.00670165 -0.106285 
0.00670165 -9.9374 -0.235994 
-0.106285 -0.235994 -9.96509 
-9.94264 0.00345973 -0.0995609 
0.00345973 -9.91683 -0.215228 
-0.0995609 -0.215228 -9.97297 
-9.94247 0.0175009 -0.0933859 
0.0175009 -9.93206 -0.219282 
-0.0933859 -0.219282 -9.9579 
-9.94051 0.0105518 -0.107458 
0.0105518 -9.94031 -0.230503 
-0.107458 -0.230503 -9.95162 
-9.91533 -0.0460286 -0.202883 
-0.0460286 -9.77733 -0.107739 
-0.202883 -0.107739 -9.78913 
-9.80657 0.0226123 -0.176664 
0.0226123 -9.82602 -0.0936048 
-0.176664 -0.0936048 -9.84921 
-9.75448 0.0328622 -0.156335 
0.0328622 -9.86632 -0.0637616 
-0.156335 -0.0637616 -9.86099 
-9.79778 0.0558933 -0.200183 
0.0558933 -9.79904 -0.0721178 
-0.200183 -0.0721178 -9.88497 
-4.66906 -0.836306 -0.519938 
-0.836306 -5.54676 -0.324674 
-0.519938 -0.324674 0.185016 
-5.81166 -0.972494 -1.03846 
-0.972494 -5.66977 0.768874 
-1.03846 0.768874 1.45063 
-2.27859 -0.330928 2.4587 
-0.330928 -2.1281 -0.193249 
2.4587 -0.193249 -5.62412 
-4.57107 0.293923 1.43491 
0.293923 -4.59706 -1.25844 
1.43491 -1.25844 -0.862683 
-9.89018 -0.0290171 -0.116845 
-0.0290171 -9.83194 0.231426 
-0.116845 0.231426 -9.91925 
-9.87905 -0.0174544 -0.0976137 
-0.0174544 -9.82504 0.224763 
-0.0976137 0.224763 -9.93728 
-9.8853 -0.0326088 -0.136328 
-0.0326088 -9.85721 0.227779 
-0.136328 0.227779 -9.89885 
-9.90341 -0.0359022 -0.106449 
-0.0359022 -9.82958 0.226721 
-0.106449 0.226721 -9.90839 
-9.98001 -0.00589811 0.230536 
-0.00589811 -9.96286 0.109689 
0.230536 0.109689 -9.99731 
-9.97864 0.00146004 0.224441 
0.00146004 -9.97099 0.106857 
0.224441 0.106857 -9.99056 
-9.98148 -0.000322264 0.225765 
-0.000322264 -9.97737 0.103258 
0.225765 0.103258 -9.98134 
-9.9764 0.000784925 0.227684 
0.000784925 -9.97361 0.111313 
0.227684 0.111313 -9.99017 
-9.83749 0.0554782 0.0639818 
0.0554782 -9.75956 0.0928659 
0.0639818 0.0928659 -9.85806 
-9.68494 -0.0487084 0.0489086 
-0.0487084 -9.94766 0.151747 
0.0489086 0.151747 -9.82251 
-9.77646 0.0573277 0.0916026 
0.0573277 -9.80783 0.102354 
0.0916026 0.102354 -9.87082 
-9.80109 0.0335918 0.08105 
0.0335918 -9.74622 0.183533 
0.08105 0.183533 -9.9078 
-9.72707 0.00224587 -0.160933 
0.00224587 -10.111 -0.39843 
-0.160933 -0.39843 -12.3973 
-11.3081 0.157677 0.101671 
0.157677 -10.6387 0.238716 
0.101671 0.238716 -10.2884 
-11.2259 0.0943138 0.0995486 
0.0943138 -11.1276 0.0893156 
0.0995486 0.0893156 -9.88179 
-11.0797 -0.407068 -0.707682 
-0.407068 -10.6487 0.599745 
-0.707682 0.599745 -10.5069 
-3.78403 1.0196 1.6618 
1.0196 -0.471197 1.31531 
1.6618 1.31531 -5.41367 
-5.69557 -0.936417 1.4712 
-0.936417 -4.12147 -0.886984 
1.4712 -0.886984 0.148132 
-3.96922 -0.689302 0.630161 
-0.689302 -3.74042 -0.375992 
0.630161 -0.375992 -1.95926 
-4.53717 -0.269483 -0.490948 
-0.269483 -3.90417 1.49494 
-0.490948 1.49494 -1.22756 
-9.99222 0.0102777 0.15159 
0.0102777 -9.98168 0.212814 
0.15159 0.212814 -9.96395 
-9.96427 0.00640655 0.155513 
0.00640655 -9.978 0.215545 
0.155513 0.215545 -9.99557 
-9.96305 0.0187413 0.159139 
0.0187413 -9.96995 0.195542 
0.159139 0.195542 -10.0049 
-9.99849 0.0070461 0.16129 
0.0070461 -9.976 0.216209 
0.16129 0.216209 -9.96336 
-9.94079 0.00341541 0.250336 
0.00341541 -9.94527 0.0540183 
0.250336 0.0540183 -9.97375 
-9.9423 0.00866119 0.229698 
0.00866119 -9.95167 0.0485446 
0.229698 0.0485446 -9.96585 
-9.93016 0.00204331 0.243563 
0.00204331 -9.95756 0.0486969 
0.243563 0.0486969 -9.97209 
-9.94075 0.00452778 0.247399 
0.00452778 -9.95743 0.0507248 
0.247399 0.0507248 -9.96163 
-5.47688 0.28041 1.36913 
0.28041 -9.69142 -1.08801 
1.36913 -1.08801 3.24779 
-0.294869 -0.356291 -0.776539 
-0.356291 -4.92423 -1.94361 
-0.776539 -1.94361 -6.70141 
-6.19003 -0.40031 -0.987664 
-0.40031 -9.60048 -0.978448 
-0.987664 -0.978448 3.87 
-4.99946 -0.515618 0.216503 
-0.515618 -8.9369 -7.90062 
0.216503 -7.90062 2.01586 
-9.75631 -0.0655678 -0.178185 
-0.0655678 -9.81287 0.049889 
-0.178185 0.049889 -9.84325 
-9.78406 -0.00408977 -0.206713 
-0.00408977 -9.79069 0.0576301 
-0.206713 0.0576301 -9.83769 
-9.82541 0.030516 -0.220894 
0.030516 -9.79328 0.0560334 
-0.220894 0.0560334 -9.79374 
-9.74687 -0.025602 -0.208807 
-0.025602 -9.81302 0.0948156 
-0.208807 0.0948156 -9.85255 
-9.95296 0.00267067 -0.141876 
0.00267067 -9.94797 -0.201938 
-0.141876 -0.201938 -9.97195 
-9.95192 -0.00824035 -0.14675 
-0.00824035 -9.95209 -0.201788 
-0.14675 -0.201788 -9.96887 
-9.96227 0.0168128 -0.130306 
0.0168128 -9.94415 -0.194906 
-0.130306 -0.194906 -9.96646 
-9.94852 -0.00197898 -0.14526 
-0.00197898 -9.96265 -0.20521 
-0.14526 -0.20521 -9.96171 
-9.65349 -0.0167498 0.327674 
-0.0167498 -9.81557 -0.220568 
0.327674 -0.220568 -9.67412 
-9.65023 -0.0589863 0.276742 
-0.0589863 -9.81959 -0.215532 
0.276742 -0.215532 -9.67336 
-9.64304 -0.0567939 0.302371 
-0.0567939 -9.79242 -0.1845 
0.302371 -0.1845 -9.70773 
-9.69922 -0.0200997 0.278123 
-0.0200997 -9.76246 -0.135077 
0.278123 -0.135077 -9.6815 
-10.165 0.0353268 0.0245106 
0.0353268 -9.77866 -0.0317652 
0.0245106 -0.0317652 -9.8871 
-9.71518 -0.0707212 0.0110647 
-0.0707212 -10.0571 0.0033552 
0.0110647 0.0033552 -10.0585 
-9.88581 -0.083649 0.0582268 
-0.083649 -9.90738 -0.00658995 
0.0582268 -0.00658995 -10.0376 
-9.94268 -0.197503 0.0818275 
-0.197503 -9.85979 0.0126891 
0.0818275 0.0126891 -10.0283 
-9.87195 0.0603954 0.0602491 
0.0603954 -9.8446 -0.0702736 
0.0602491 -0.0702736 -9.84826 
-9.83283 0.0116911 0.0618304 
0.0116911 -9.83365 -0.0894856 
0.0618304 -0.0894856 -9.89833 
-9.78945 -0.103734 0.0358721 
-0.103734 -9.80477 -0.0359249 
0.0358721 -0.0359249 -9.97058 
-9.84523 -0.00840315 0.140965 
-0.00840315 -9.7839 -0.102623 
0.140965 -0.102623 -9.93568 
-9.76792 -0.0127876 0.0348899 
-0.0127876 -9.80754 0.170958 
0.0348899 0.170958 -9.77452 
-9.88639 -0.1232 0.0232193 
-0.1232 -9.505 -0.0350443 
0.0232193 -0.0350443 -9.95859 
-9.77149 0.112229 0.0175248 
0.112229 -9.96258 0.17223 
0.0175248 0.17223 -9.61591 
-9.83896 -0.0394691 -0.131588 
-0.0394691 -9.53458 0.176251 
-0.131588 0.176251 -9.97644 
-9.90525 -0.0204982 0.21963 
-0.0204982 -9.89258 -0.0887035 
0.21963 -0.0887035 -9.92209 
-9.90588 -0.0190088 0.22281 
-0.0190088 -9.89491 -0.104357 
0.22281 -0.104357 -9.91913 
-9.89842 -0.0209941 0.219732 
-0.0209941 -9.90024 -0.119765 
0.219732 -0.119765 -9.92126 
-9.90593 -0.0191568 0.228935 
-0.0191568 -9.89218 -0.0961463 
0.228935 -0.0961463 -9.92182 
-9.85536 -0.086399 -0.152824 
-0.086399 -9.92374 0.0788465 
-0.152824 0.0788465 -10.2079 
-9.81325 -0.0671411 -0.125986 
-0.0671411 -9.94289 0.0712401 
-0.125986 0.0712401 -10.2309 
-9.85918 -0.0448883 -0.112368 
-0.0448883 -9.92759 0.0915218 
-0.112368 0.0915218 -10.2003 
-9.83947 -0.184024 -0.133569 
-0.184024 -9.93999 0.0812146 
-0.133569 0.0812146 -10.2076 
-6.49725 -0.88504 -1.00324 
-0.88504 -10.9856 3.18111 
-1.00324 3.18111 -8.61636 
-10.1313 -2.81396 -3.94807 
-2.81396 -5.86737 3.95571 
-3.94807 3.95571 -10.1005 
-8.73221 -2.1986 1.60854 
-2.1986 -9.75435 1.34608 
1.60854 1.34608 -7.61267 
-6.47861 -0.765712 -0.456377 
-0.765712 -11.0747 2.65199 
-0.456377 2.65199 -8.5459 
-10.0806 0.00152862 -0.0185945 
0.00152862 -10.0618 0.0165924 
-0.0185945 0.0165924 -10.0727 
-10.0616 0.02667 0.00209136 
0.02667 -10.082 0.0189623 
0.00209136 0.0189623 -10.0715 
-10.0834 0.0121508 0.0244673 
0.0121508 -10.0807 0.0346155 
0.0244673 0.0346155 -10.051 
-10.1345 -0.00157432 0.00314205 
-0.00157432 -10.0222 0.0464743 
0.00314205 0.0464743 -10.0584 
-9.98421 -0.00536233 0.0233048 
-0.00536233 -9.9685 0.23865 
0.0233048 0.23865 -9.99405 
-9.97395 -0.0072127 0.0132523 
-0.0072127 -9.96756 0.226262 
0.0132523 0.226262 -10.0053 
-9.99835 -0.00312746 0.0193448 
-0.00312746 -9.97257 0.233455 
0.0193448 0.233455 -9.97584 
-9.99376 0.00146061 0.0253526 
0.00146061 -9.98226 0.235639 
0.0253526 0.235639 -9.97074 
-9.91921 -0.0443715 0.00210735 
-0.0443715 -9.88129 -0.0216095 
0.00210735 -0.0216095 -9.97386 
-9.93634 -0.0566604 0.0243673 
-0.0566604 -9.8337 -0.0527359 
0.0243673 -0.0527359 -10.0043 
-9.86313 0.0294873 0.01433 
0.0294873 -10.0038 -0.0244065 
0.01433 -0.0244065 -9.90746 
-9.92134 -0.0200301 0.00127309 
-0.0200301 -9.85088 0.0184437 
0.00127309 0.0184437 -10.0021 
-9.68735 0.0398527 0.43082 
0.0398527 -9.98687 0.168622 
0.43082 0.168622 -9.79633 
-9.69862 0.045283 0.264995 
0.045283 -9.9047 0.127183 
0.264995 0.127183 -9.86723 
-9.77843 0.0408781 0.34705 
0.0408781 -9.97381 0.154688 
0.34705 0.154688 -9.71831 
-9.76973 0.0669756 0.346582 
0.0669756 -9.9502 0.173218 
0.346582 0.173218 -9.75062 
-9.78405 -0.0462122 0.019865 
-0.0462122 -9.69198 0.0380475 
0.019865 0.0380475 -10.0462 
-9.80285 0.167816 -0.148349 
0.167816 -9.92702 -0.0311792 
-0.148349 -0.0311792 -9.79236 
-9.7029 0.0329331 -0.012476 
0.0329331 -9.92787 -0.0498579 
-0.012476 -0.0498579 -9.89146 
-9.66241 0.218319 -0.145695 
0.218319 -9.61943 0.0165818 
-0.145695 0.0165818 -10.2404 
-9.97419 0.00531004 0.000584217 
0.00531004 -9.97862 0.00133478 
0.000584217 0.00133478 -9.97635 
-9.9614 -0.00494502 0.00482975 
-0.00494502 -9.99372 0.00660054 
0.00482975 0.00660054 -9.97405 
-9.98401 0.0193662 -0.00317646 
0.0193662 -9.97436 -0.005915 
-0.00317646 -0.005915 -9.9708 
-9.97257 -0.00160008 0.00864844 
-0.00160008 -9.9826 -0.00210648 
0.00864844 -0.00210648 -9.974 
-10.0339 0.0428061 0.0320966 
0.0428061 -9.92361 -0.00789554 
0.0320966 -0.00789554 -10.1291 
-10.09 0.014371 0.0121108 
0.014371 -9.92311 -0.00908166 
0.0121108 -0.00908166 -10.0734 
-10.0828 0.0123291 0.0179679 
0.0123291 -9.94488 -0.0630108 
0.0179679 -0.0630108 -10.0588 
-10.0378 0.0219187 0.0150142 
0.0219187 -9.95127 -0.0105692 
0.0150142 -0.0105692 -10.0975 
-9.56915 -0.114477 -0.171837 
-0.114477 -9.60208 0.407996 
-0.171837 0.407996 -10.3777 
-9.74873 -0.0920983 -0.291837 
-0.0920983 -9.76653 0.28916 
-0.291837 0.28916 -10.0337 
-9.73258 -0.122613 -0.0661775 
-0.122613 -9.69185 0.218039 
-0.0661775 0.218039 -10.1245 
-9.73732 -0.0737774 -0.0882193 
-0.0737774 -9.64655 0.118611 
-0.0882193 0.118611 -10.1651 
-9.96961 0.0047019 -0.0178228 
0.0047019 -9.99892 -0.00926948 
-0.0178228 -0.00926948 -9.97949 
-9.98342 -0.00357065 0.00803885 
-0.00357065 -9.99993 -0.0111616 
0.00803885 -0.0111616 -9.96468 
-9.95758 -0.0208742 0.00358923 
-0.0208742 -9.96605 0.0172222 
0.00358923 0.0172222 -10.0244 
-9.99365 0.00671578 0.00924875 
0.00671578 -9.98641 -0.018931 
0.00924875 -0.018931 -9.96797 
-9.81657 0.0380734 0.247023 
0.0380734 -9.88283 0.148503 
0.247023 0.148503 -9.88647 
-9.82226 0.0321331 0.251438 
0.0321331 -9.87172 0.0992772 
0.251438 0.0992772 -9.8919 
-9.77767 0.0141198 0.237373 
0.0141198 -9.89232 0.0943109 
0.237373 0.0943109 -9.91589 
-9.74956 0.0363536 0.272909 
0.0363536 -9.96644 0.102829 
0.272909 0.102829 -9.86988 
-9.92534 0.00601067 0.122803 
0.00601067 -9.91113 0.201812 
0.122803 0.201812 -9.95241 
-9.92925 0.0160612 0.133464 
0.0160612 -9.89963 0.207272 
0.133464 0.207272 -9.95999 
-9.92554 0.00987738 0.118397 
0.00987738 -9.91474 0.197565 
0.118397 0.197565 -9.9486 
-9.934 0.016731 0.134744 
0.016731 -9.91518 0.203233 
0.134744 0.203233 -9.9397 
-9.95628 -0.0128018 -0.214223 
-0.0128018 -9.96664 0.139455 
-0.214223 0.139455 -10.0114 
-9.96428 -0.00412123 -0.195438 
-0.00412123 -9.98612 0.139161 
-0.195438 0.139161 -9.98388 
-9.97317 -0.00558335 -0.194409 
-0.00558335 -9.97512 0.142006 
-0.194409 0.142006 -9.98598 
-9.95041 0.000220446 -0.185936 
0.000220446 -9.99018 0.138813 
-0.185936 0.138813 -9.99369 
-11.2407 0.00364098 -0.264126 
0.00364098 -10.8824 -1.11304 
-0.264126 -1.11304 -15.0191 
-12.3698 -0.0320475 -0.050248 
-0.0320475 -12.0179 -0.444632 
-0.050248 -0.444632 -12.7545 
-12.0288 -0.0199913 -0.0779897 
-0.0199913 -11.7327 -0.323013 
-0.0779897 -0.323013 -13.3808 
-12.5531 -0.0573255 -0.482595 
-0.0573255 -11.7089 0.0528 
-0.482595 0.0528 -12.8803 
-9.9789 0.00538761 -0.247985 
0.00538761 -9.96752 -0.000851514 
-0.247985 -0.000851514 -9.98876 
-9.96248 -0.00235468 -0.24633 
-0.00235468 -9.96519 -0.00181553 
-0.24633 -0.00181553 -10.0075 
-9.97803 0.00070944 -0.250903 
0.00070944 -9.98185 -0.00112487 
-0.250903 -0.00112487 -9.97531 
-9.97274 5.37082e-05 -0.25072 
5.37082e-05 -9.97469 -0.00341361 
-0.25072 -0.00341361 -9.98776 
-5.54589 1.53035 0.892061 
1.53035 -7.08101 -0.846021 
0.892061 -0.846021 -2.06252 
-7.30707 0.860226 2.5483 
0.860226 -5.55023 -0.796434 
2.5483 -0.796434 -1.83212 
-8.95754 0.0480183 -0.230958 
0.0480183 -5.82713 0.0354477 
-0.230958 0.0354477 0.0952551 
-7.04781 0.919943 0.897862 
0.919943 -6.1159 -0.356563 
0.897862 -0.356563 -1.5257 
-10.0321 0.01061 -0.0221882 
0.01061 -9.97111 -0.00476767 
-0.0221882 -0.00476767 -10.0071 
-10.005 0.0281274 -0.00665422 
0.0281274 -9.97117 0.0291802 
-0.00665422 0.0291802 -10.0341 
-9.99474 0.0306921 0.023156 
0.0306921 -10.0159 0.0506652 
0.023156 0.0506652 -9.99963 
-10.0151 0.033343 -0.0174946 
0.033343 -9.93839 0.0328137 
-0.0174946 0.0328137 -10.0568 
-9.66905 -0.0207653 0.158228 
-0.0207653 -9.74909 -0.0809937 
0.158228 -0.0809937 -9.83532 
-9.5952 -0.057181 0.150584 
-0.057181 -9.8281 0.0298481 
0.150584 0.0298481 -9.83017 
-9.68816 -0.0194447 0.265228 
-0.0194447 -9.75025 0.0139783 
0.265228 0.0139783 -9.81505 
-9.61068 -0.0386781 0.251277 
-0.0386781 -9.81193 -0.104454 
0.251277 -0.104454 -9.83085 
-5.10846 0.561127 -0.441653 
0.561127 -4.3144 -0.08146 
-0.441653 -0.08146 -1.06365 
-2.98846 -0.143703 -1.10188 
-0.143703 -2.09146 0.451724 
-1.10188 0.451724 -5.40659 
-9.84062 0.0234999 -2.86439 
0.0234999 -8.00948 0.0624149 
-2.86439 0.0624149 7.36359 
-6.34505 0.280508 3.51416 
0.280508 -2.11483 -1.91642 
3.51416 -1.91642 -2.02664 
-10.0403 -0.0267417 0.026637 
-0.0267417 -9.98442 0.0190915 
0.026637 0.0190915 -10.0605 
-10.0217 -0.0572669 -0.0539758 
-0.0572669 -10.0138 0.045593 
-0.0539758 0.045593 -10.0497 
-10.0252 -0.0412087 0.00790937 
-0.0412087 -9.96819 0.0234034 
0.00790937 0.0234034 -10.0919 
-10.0201 -0.056099 0.00406788 
-0.056099 -9.97846 0.0259728 
0.00406788 0.0259728 -10.0867 
-9.9547 -0.0320845 -0.0276883 
-0.0320845 -10.0107 -0.0114929 
-0.0276883 -0.0114929 -10.171 
-10.057 -0.0126237 0.0380081 
-0.0126237 -10.0421 0.0216816 
0.0380081 0.0216816 -10.0373 
-10.0864 0.0194978 0.0419858 
0.0194978 -10.0609 0.0471561 
0.0419858 0.0471561 -9.98913 
-9.96276 0.0416868 0.0803391 
0.0416868 -10.0903 -0.00486657 
0.0803391 -0.00486657 -10.0834 
-9.85302 0.0375688 -0.105106 
0.0375688 -9.83978 0.0916322 
-0.105106 0.0916322 -9.85961 
-9.80118 -0.0681731 -0.0951513 
-0.0681731 -9.83226 0.0693465 
-0.0951513 0.0693465 -9.91896 
-9.81115 -0.050624 -0.128625 
-0.050624 -9.82237 0.0990253 
-0.128625 0.0990253 -9.91888 
-9.87655 -0.00176805 -0.113809 
-0.00176805 -9.77779 0.0879308 
-0.113809 0.0879308 -9.89806 
-9.92186 0.04589 0.0191677 
0.04589 -10.0331 0.0400586 
0.0191677 0.0400586 -10.0688 
-9.93764 -0.0192524 0.0631611 
-0.0192524 -10.0774 0.0155521 
0.0631611 0.0155521 -10.0087 
-10.0072 0.0623157 -0.051342 
0.0623157 -10.0276 -0.0364162 
-0.051342 -0.0364162 -9.98899 
-9.8806 0.0688879 0.0205137 
0.0688879 -10.0416 0.0598767 
0.0205137 0.0598767 -10.1017 
-9.78844 -0.0536012 0.0721023 
-0.0536012 -9.74513 -0.162988 
0.0721023 -0.162988 -9.91046 
-9.7269 -0.10022 0.0251772 
-0.10022 -9.713 -0.191943 
0.0251772 -0.191943 -10.0041 
-9.81629 -0.0526127 0.0649153 
-0.0526127 -9.74715 -0.149667 
0.0649153 -0.149667 -9.88059 
-9.8228 -0.0752796 0.124886 
-0.0752796 -9.78764 -0.218862 
0.124886 -0.218862 -9.83359 
-9.38706 0.100926 -0.0699258 
0.100926 -9.09755 -0.408047 
-0.0699258 -0.408047 -10.4925 
-9.40336 -0.230875 0.2 
-0.230875 -9.27124 -0.565828 
0.2 -0.565828 -10.3025 
-9.52436 -0.319263 0.137041 
-0.319263 -9.253 -0.729435 
0.137041 -0.729435 -10.1997 
-9.42935 -0.153074 0.50064 
-0.153074 -9.57216 -0.390339 
0.50064 -0.390339 -9.97558 
-9.70666 -0.0700508 -0.223006 
-0.0700508 -9.70247 0.179892 
-0.223006 0.179892 -10.1309 
-9.71882 -0.0989146 -0.167869 
-0.0989146 -9.74621 0.178112 
-0.167869 0.178112 -10.075 
-9.73921 -0.0793406 -0.18736 
-0.0793406 -9.75747 0.159395 
-0.18736 0.159395 -10.0434 
-9.68831 -0.118811 -0.116562 
-0.118811 -9.74558 0.162841 
-0.116562 0.162841 -10.1062 
-9.81464 -0.0545935 -0.158305 
-0.0545935 -9.81866 0.190844 
-0.158305 0.190844 -9.98194 
-9.81525 -0.0563036 -0.150365 
-0.0563036 -9.82693 0.178461 
-0.150365 0.178461 -9.97306 
-9.83016 -0.0707866 -0.184342 
-0.0707866 -9.8097 0.204207 
-0.184342 0.204207 -9.97538 
-9.84882 -0.0374415 -0.130827 
-0.0374415 -9.79816 0.168172 
-0.130827 0.168172 -9.96826 
-9.96336 0.00612331 -0.00449288 
0.00612331 -9.97379 0.260058 
-0.00449288 0.260058 -9.99388 
-9.97724 -0.00392968 0.00137922 
-0.00392968 -9.97815 0.257668 
0.00137922 0.257668 -9.97564 
-9.96325 -0.00182545 -0.00123467 
-0.00182545 -9.96344 0.255237 
-0.00123467 0.255237 -10.0043 
-9.96944 -0.00119319 -0.000368212 
-0.00119319 -9.97839 0.25715 
-0.000368212 0.25715 -9.9832 
-9.82029 -0.130473 0.90833 
-0.130473 -9.1581 -0.794102 
0.90833 -0.794102 -10.0961 
-8.851 1.34479 -0.930984 
1.34479 -9.70077 -2.27366 
-0.930984 -2.27366 -10.5228 
-9.55611 0.333952 -1.35256 
0.333952 -9.40693 0.132258 
-1.35256 0.132258 -10.1115 
-9.05323 0.994214 -0.0953657 
0.994214 -10.0508 1.07527 
-0.0953657 1.07527 -9.97054 
-9.86546 -0.0252107 0.227189 
-0.0252107 -9.88364 -0.105704 
0.227189 -0.105704 -9.91601 
-9.87874 -0.0260685 0.208789 
-0.0260685 -9.87372 -0.0914241 
0.208789 -0.0914241 -9.91264 
-9.86921 -0.00867234 0.235155 
-0.00867234 -9.86755 -0.105731 
0.235155 -0.105731 -9.92834 
-9.87743 -0.0302458 0.222884 
-0.0302458 -9.88442 -0.110817 
0.222884 -0.110817 -9.90324 
-9.73783 1.02005 -1.13284 
1.02005 -8.90719 1.5158 
-1.13284 1.5158 6.51887 
-4.55449 1.15063 -0.806181 
1.15063 -8.00151 0.467981 
-0.806181 0.467981 0.429843 
-5.44325 0.353547 -0.195332 
0.353547 -4.14107 -1.14684 
-0.195332 -1.14684 -2.54184 
-5.68711 -0.306321 -2.16868 
-0.306321 -3.52261 -0.291189 
-2.16868 -0.291189 -2.91643 
-9.98175 0.00861229 0.051835 
0.00861229 -9.96686 0.239263 
0.051835 0.239263 -9.99983 
-9.99304 -0.000317903 0.0530227 
-0.000317903 -9.97509 0.225216 
0.0530227 0.225216 -9.9803 
-9.98417 5.05052e-05 0.0539061 
5.05052e-05 -9.96872 0.228753 
0.0539061 0.228753 -9.99554 
-9.99202 -0.00116461 0.0530095 
-0.00116461 -9.97123 0.224356 
0.0530095 0.224356 -9.98518 
-10.5687 -0.0612628 0.0372374 
-0.0612628 -10.5125 -0.066776 
0.0372374 -0.066776 -10.4364 
-10.5199 -0.065292 0.0659974 
-0.065292 -10.3607 -0.107748 
0.0659974 -0.107748 -10.637 
-10.3715 -0.100952 -0.00373813 
-0.100952 -10.4516 -0.0886674 
-0.00373813 -0.0886674 -10.6945 
-10.4897 -0.030279 0.0611997 
-0.030279 -10.4539 0.00347257 
0.0611997 0.00347257 -10.574 
-12.1418 0.547061 -0.0891467 
0.547061 -10.9441 -0.405919 
-0.0891467 -0.405919 -12.7272 
-11.8066 -0.0737275 -0.221873 
-0.0737275 -10.31 -0.891833 
-0.221873 -0.891833 -13.6964 
-11.4567 -0.0958008 -0.0547505 
-0.0958008 -10.6948 -0.266059 
-0.0547505 -0.266059 -13.6615 
-12.706 0.130722 0.60716 
0.130722 -10.7529 -0.437872 
0.60716 -0.437872 -12.3541 
-10.8079 0.585546 -0.300792 
0.585546 -10.0628 0.215519 
-0.300792 0.215519 -11.6032 
-10.6177 0.694511 -0.239366 
0.694511 -9.86097 0.350193 
-0.239366 0.350193 -11.9953 
-10.5184 -0.0377302 -0.527355 
-0.0377302 -10.0376 -0.197458 
-0.527355 -0.197458 -11.9179 
-10.5235 -0.558864 0.426153 
-0.558864 -10.8192 0.733423 
0.426153 0.733423 -11.1312 
-9.9416 0.00883154 0.233811 
0.00883154 -9.94702 0.0944257 
0.233811 0.0944257 -9.94884 
-9.94761 0.00426103 0.244483 
0.00426103 -9.94782 0.0919825 
0.244483 0.0919825 -9.94203 
-9.93947 0.0117905 0.231936 
0.0117905 -9.94064 0.101097 
0.231936 0.101097 -9.95735 
-9.94682 0.00415943 0.245713 
0.00415943 -9.93863 0.0944563 
0.245713 0.0944563 -9.95201 
-10.6464 -0.0584197 -0.0276816 
-0.0584197 -10.7478 0.0913434 
-0.0276816 0.0913434 -10.38 
-10.4415 -0.0592889 -0.0354084 
-0.0592889 -10.4525 0.115686 
-0.0354084 0.115686 -10.8803 
-10.3782 -0.144045 -0.0792433 
-0.144045 -10.4099 -0.020602 
-0.0792433 -0.020602 -10.9862 
-10.5999 -0.03208 -0.196208 
-0.03208 -10.4733 0.287668 
-0.196208 0.287668 -10.7011 
-9.87919 -0.00670504 0.118839 
-0.00670504 -9.88835 0.206686 
0.118839 0.206686 -9.86781 
-9.86234 0.0435234 0.11529 
0.0435234 -9.84732 0.213595 
0.11529 0.213595 -9.92568 
-9.87206 -0.007453 0.112835 
-0.007453 -9.86877 0.199371 
0.112835 0.199371 -9.89452 
-9.86849 -0.00658312 0.0919066 
-0.00658312 -9.86554 0.177268 
0.0919066 0.177268 -9.90131 
-9.94695 -0.0293002 0.00642319 
-0.0293002 -9.95158 -0.0219357 
0.00642319 -0.0219357 -10.0003 
-9.96552 -0.00750627 -0.00945089 
-0.00750627 -9.94877 0.00427603 
-0.00945089 0.00427603 -9.98455 
-10.004 0.0336088 -0.0139819 
0.0336088 -9.97465 0.0229322 
-0.0139819 0.0229322 -9.92021 
-9.97019 -0.0123983 -0.0203261 
-0.0123983 -9.92621 0.0112922 
-0.0203261 0.0112922 -10.0024 
-10.2435 0.036262 0.0013054 
0.036262 -10.2268 0.0354361 
0.0013054 0.0354361 -10.2588 
-10.2138 0.0104246 -0.00724545 
0.0104246 -10.3121 0.0261131 
-0.00724545 0.0261131 -10.2032 
-10.1587 0.0701046 0.0600086 
0.0701046 -10.2528 0.04626 
0.0600086 0.04626 -10.3176 
-10.1412 0.00562153 0.00475447 
0.00562153 -10.2745 0.0912212 
0.00475447 0.0912212 -10.3134 
-9.88033 -0.175221 -0.309142 
-0.175221 -9.91298 0.0999334 
-0.309142 0.0999334 -10.0039 
-9.4949 0.29619 -0.317502 
0.29619 -9.80508 -0.394351 
-0.317502 -0.394351 -10.4972 
-9.63601 0.310356 -0.580555 
0.310356 -10.1015 -0.339512 
-0.580555 -0.339512 -10.0598 
-9.41624 0.429009 -0.394761 
0.429009 -9.99802 -0.22983 
-0.394761 -0.22983 -10.383 
-10.8996 -0.23841 -0.153966 
-0.23841 -10.8658 0.177999 
-0.153966 0.177999 -11.3313 
-10.6253 -0.0198145 0.0236152 
-0.0198145 -10.7494 0.123954 
0.0236152 0.123954 -11.722 
-11.2858 0.135408 0.00422841 
0.135408 -10.8878 0.100059 
0.00422841 0.100059 -10.9231 
-10.9334 -0.0946285 -0.451146 
-0.0946285 -10.9604 0.17575 
-0.451146 0.17575 -11.2029 
-9.92952 -0.00404976 0.201839 
-0.00404976 -9.92406 0.132252 
0.201839 0.132252 -9.91734 
-9.89779 0.0244768 0.219246 
0.0244768 -9.92094 0.135506 
0.219246 0.135506 -9.95219 
-9.94565 -0.00432833 0.192002 
-0.00432833 -9.9217 0.148014 
0.192002 0.148014 -9.90357 
-9.91283 -0.00238714 0.192134 
-0.00238714 -9.91561 0.132161 
0.192134 0.132161 -9.94247 
-9.9854 -0.0781217 -0.117131 
-0.0781217 -9.83294 -0.0184817 
-0.117131 -0.0184817 -9.71528 
-9.90342 0.0118212 -0.151642 
0.0118212 -9.78331 0.0178761 
-0.151642 0.0178761 -9.84689 
-9.62918 0.158057 0.00431849 
0.158057 -9.86638 -0.0032119 
0.00431849 -0.0032119 -10.0381 
-9.71874 0.0291055 -0.178825 
0.0291055 -9.80834 -0.132087 
-0.178825 -0.132087 -10.0065 
-9.98397 6.52487e-05 -0.101372 
6.52487e-05 -9.98702 0.22574 
-0.101372 0.22574 -9.98083 
-9.97088 0.00233473 -0.108517 
0.00233473 -9.98618 0.227577 
-0.108517 0.227577 -9.99475 
-9.97116 -0.00360989 -0.109396 
-0.00360989 -9.98382 0.222977 
-0.109396 0.222977 -9.99684 
-9.97817 0.00228909 -0.108904 
0.00228909 -9.98361 0.223975 
-0.108904 0.223975 -9.99003 
-10.189 -0.0480981 0.00659357 
-0.0480981 -9.66539 0.397131 
0.00659357 0.397131 -9.61781 
-9.97956 0.0112624 0.151849 
0.0112624 -9.62679 0.568123 
0.151849 0.568123 -9.86579 
-10.1038 0.0772904 -0.017576 
0.0772904 -9.56827 0.343789 
-0.017576 0.343789 -9.80007 
-10.1208 0.00703951 0.0222435 
0.00703951 -9.61221 0.416297 
0.0222435 0.416297 -9.7391 
-10.2541 -0.0372004 -0.172238 
-0.0372004 -9.25896 0.685532 
-0.172238 0.685532 -9.81362 
-10.0671 -0.188432 -0.15893 
-0.188432 -9.26137 0.577845 
-0.15893 0.577845 -9.99826 
-10.0488 -0.0830971 -0.114603 
-0.0830971 -9.22212 0.55547 
-0.114603 0.55547 -10.0558 
-9.70074 0.109187 0.139208 
0.109187 -9.79473 0.399623 
0.139208 0.399623 -9.83126 
-9.7602 -0.0164832 0.0455777 
-0.0164832 -9.78154 0.208903 
0.0455777 0.208903 -9.76346 
-9.75447 0.0812484 0.0570663 
0.0812484 -9.71778 0.156213 
0.0570663 0.156213 -9.83296 
-9.73513 -0.00338362 0.0659291 
-0.00338362 -9.78079 0.20623 
0.0659291 0.20623 -9.78929 
-9.77115 0.0308865 0.109451 
0.0308865 -9.71351 0.201325 
0.109451 0.201325 -9.82055 
-8.88493 0.480345 0.500657 
0.480345 -10.9076 -0.536535 
0.500657 -0.536535 -8.91078 
-8.98757 -0.0893389 0.603085 
-0.0893389 -10.3401 -1.23084 
0.603085 -1.23084 -9.37556 
-9.607 -0.303004 0.361961 
-0.303004 -9.43856 -0.820716 
0.361961 -0.820716 -9.65772 
-9.15577 0.0507645 0.785733 
0.0507645 -10.1414 -1.28529 
0.785733 -1.28529 -9.40608 
-9.49754 -0.0546441 -0.938368 
-0.0546441 -10.4594 -0.0257531 
-0.938368 -0.0257531 -9.58115 
-9.32747 -0.0301165 -0.598814 
-0.0301165 -10.3257 -0.0495038 
-0.598814 -0.0495038 -9.88495 
-9.67185 0.0802563 -0.365105 
0.0802563 -10.0261 0.00688688 
-0.365105 0.00688688 -9.84012 
-9.28957 0.101295 -0.523094 
0.101295 -10.0967 -0.0962131 
-0.523094 -0.0962131 -10.1518 
-9.95189 -0.0177091 -0.193972 
-0.0177091 -9.95061 0.130174 
-0.193972 0.130174 -9.95875 
-9.95499 0.00193091 -0.214039 
0.00193091 -9.94071 0.136095 
-0.214039 0.136095 -9.96556 
-9.95171 -0.0024507 -0.203486 
-0.0024507 -9.94717 0.135662 
-0.203486 0.135662 -9.96237 
-9.95179 0.00177115 -0.209209 
0.00177115 -9.95306 0.134392 
-0.209209 0.134392 -9.95641 
-10.2783 0.282642 -0.234903 
0.282642 -9.17749 0.130757 
-0.234903 0.130757 -11.2668 
-10.3479 0.7278 -0.0407632 
0.7278 -9.92113 -0.171482 
-0.0407632 -0.171482 -10.4536 
-10.5314 0.290158 0.136309 
0.290158 -8.87608 0.15407 
0.136309 0.15407 -11.3152 
-10.2339 0.127325 0.214506 
0.127325 -9.80467 0.245534 
0.214506 0.245534 -10.6841 
-9.85808 -0.997507 -0.502902 
-0.997507 -10.1793 0.56538 
-0.502902 0.56538 -10.9325 
-10.3552 -0.40645 -0.651253 
-0.40645 -10.4135 0.0723318 
-0.651253 0.0723318 -10.2011 
-10.1301 -1.00077 -0.630202 
-1.00077 -10.0771 0.758945 
-0.630202 0.758945 -10.7626 
-8.91402 -0.890255 -1.16599 
-0.890255 -10.9741 0.518779 
-1.16599 0.518779 -11.0817 
-9.08134 -1.45658 -1.48886 
-1.45658 -9.88876 2.4226 
-1.48886 2.4226 -7.76858 
-8.40526 0.199638 0.587648 
0.199638 -11.043 -0.325596 
0.587648 -0.325596 -7.29041 
-6.43527 0.235729 -0.326245 
0.235729 -9.1063 2.12093 
-0.326245 2.12093 -11.1971 
-10.2122 -0.0634922 -1.61143 
-0.0634922 -7.15239 2.16371 
-1.61143 2.16371 -9.37413 
-9.94807 0.0371677 -0.0403639 
0.0371677 -9.94789 -0.0163223 
-0.0403639 -0.0163223 -9.96836 
-10.0126 -0.00147187 0.0577404 
-0.00147187 -9.89334 -0.00352677 
0.0577404 -0.00352677 -9.95835 
-9.95914 0.0439586 0.0148363 
0.0439586 -9.93158 -0.0176235 
0.0148363 -0.0176235 -9.97359 
-9.96226 0.0613566 0.0133946 
0.0613566 -9.90564 -0.0341116 
0.0133946 -0.0341116 -9.99642 
-9.54052 -0.0758835 -0.514298 
-0.0758835 -9.34654 -0.100246 
-0.514298 -0.100246 -11.1414 
-9.53543 -0.196166 0.299024 
-0.196166 -9.86592 -0.267212 
0.299024 -0.267212 -10.6271 
-9.94252 -0.188574 0.109907 
-0.188574 -9.36914 -0.616336 
0.109907 -0.616336 -10.7168 
-10.2149 -0.2798 0.0383075 
-0.2798 -9.15398 -0.230333 
0.0383075 -0.230333 -10.6596 
-10.0103 0.00489983 0.0140242 
0.00489983 -10.0241 0.0122801 
0.0140242 0.0122801 -9.97106 
-10.0117 -0.00663141 0.00426417 
-0.00663141 -9.98283 0.000658799 
0.00426417 0.000658799 -10.011 
-10.0024 -0.00415844 0.0101124 
-0.00415844 -9.98274 -0.0103217 
0.0101124 -0.0103217 -10.0203 
-9.99934 -0.0162824 0.00962367 
-0.0162824 -9.99294 -0.0126041 
0.00962367 -0.0126041 -10.0132 
-9.94877 -0.00213838 0.0942501 
-0.00213838 -9.95088 -0.236398 
0.0942501 -0.236398 -9.9534 
-9.94052 -0.00199129 0.0961958 
-0.00199129 -9.95296 -0.239765 
0.0961958 -0.239765 -9.95958 
-9.94559 -0.00416806 0.0961325 
-0.00416806 -9.9481 -0.234124 
0.0961325 -0.234124 -9.95936 
-9.95343 -0.0122772 0.0953664 
-0.0122772 -9.94401 -0.22565 
0.0953664 -0.22565 -9.95561 
-9.93259 -0.044779 0.0204715 
-0.044779 -10.0407 -0.0199624 
0.0204715 -0.0199624 -10.0473 
-10.0231 -0.0334801 0.0471452 
-0.0334801 -9.96565 0.0882552 
0.0471452 0.0882552 -10.0318 
-9.87027 -0.0551883 0.0276888 
-0.0551883 -10.0525 0.115518 
0.0276888 0.115518 -10.0978 
-10.0325 -0.0657228 0.00902793 
-0.0657228 -9.86536 0.0173654 
0.00902793 0.0173654 -10.1227 
-9.9664 -0.0213679 0.135849 
-0.0213679 -9.94571 -0.200903 
0.135849 -0.200903 -9.99236 
-9.96542 -0.0222009 0.140873 
-0.0222009 -9.94311 -0.197431 
0.140873 -0.197431 -9.99595 
-9.94331 0.0074185 0.131993 
0.0074185 -9.94785 -0.203443 
0.131993 -0.203443 -10.0133 
-9.9598 -0.00635101 0.148609 
-0.00635101 -9.96044 -0.207152 
0.148609 -0.207152 -9.98423 
-9.85185 -0.0271024 0.0821729 
-0.0271024 -9.75507 -0.213768 
0.0821729 -0.213768 -9.85855 
-9.79439 -4.04008e-05 0.0455596 
-4.04008e-05 -9.78882 -0.206613 
0.0455596 -0.206613 -9.88226 
-9.81709 -0.0257654 0.074152 
-0.0257654 -9.78069 -0.227618 
0.074152 -0.227618 -9.86769 
-9.78672 -0.0567999 0.0672884 
-0.0567999 -9.77583 -0.229842 
0.0672884 -0.229842 -9.90291 
-9.96652 -0.0178218 0.00176719 
-0.0178218 -10.0027 -0.0011535 
0.00176719 -0.0011535 -10.0147 
-10.0174 0.0276214 0.0337004 
0.0276214 -9.97871 -0.0131191 
0.0337004 -0.0131191 -9.98788 
-9.98765 -0.00558248 -0.0122195 
-0.00558248 -10.0036 0.00522582 
-0.0122195 0.00522582 -9.99267 
-9.99015 -0.00735089 -0.00408043 
-0.00735089 -9.99655 0.0029705 
-0.00408043 0.0029705 -9.99727 
-9.95388 0.00620443 0.230842 
0.00620443 -9.95437 -0.0588432 
0.230842 -0.0588432 -9.99579 
-9.95661 -0.00496723 0.235091 
-0.00496723 -9.97667 -0.0568998 
0.235091 -0.0568998 -9.97076 
-9.93818 0.000969912 0.241729 
0.000969912 -9.95903 -0.0719485 
0.241729 -0.0719485 -10.0068 
-9.96184 -0.0112884 0.227859 
-0.0112884 -9.97573 -0.0602017 
0.227859 -0.0602017 -9.96647 
-12.166 -0.0922459 -0.992336 
-0.0922459 -11.5646 -0.962485 
-0.992336 -0.962485 -9.11883 
-9.46701 0.291918 1.40187 
0.291918 -8.57776 0.849968 
1.40187 0.849968 -14.8047 
-10.9574 0.385946 -0.75127 
0.385946 -10.8763 -0.442146 
-0.75127 -0.442146 -11.0158 
-9.31889 2.02888 -1.64386 
2.02888 -10.0468 -1.23215 
-1.64386 -1.23215 -13.4837 
-9.94151 0.0125796 0.148569 
0.0125796 -9.90543 0.167834 
0.148569 0.167834 -9.97881 
-9.94767 0.0158823 0.179757 
0.0158823 -9.92591 0.182959 
0.179757 0.182959 -9.95217 
-9.94681 0.0122438 0.180353 
0.0122438 -9.90904 0.176923 
0.180353 0.176923 -9.96991 
-9.93666 0.0128724 0.153687 
0.0128724 -9.92947 0.16545 
0.153687 0.16545 -9.95962 
-9.58618 1.39336 -0.349633 
1.39336 -10.8425 0.0907497 
-0.349633 0.0907497 -15.3146 
-10.7774 0.0895321 1.08128 
0.0895321 -8.49287 1.67714 
1.08128 1.67714 -16.473 
-11.5512 -0.536015 -1.78436 
-0.536015 -14.5861 -1.07193 
-1.78436 -1.07193 -9.60601 
-10.7911 1.74458 -0.159653 
1.74458 -11.1265 -1.80487 
-0.159653 -1.80487 -13.8257 
-10.4384 -0.0923624 0.0590641 
-0.0923624 -10.8817 -0.36881 
0.0590641 -0.36881 -9.59279 
-10.0749 -0.113287 0.0149071 
-0.113287 -10.0298 0.234103 
0.0149071 0.234103 -10.8082 
-10.2438 -0.0335405 0.068249 
-0.0335405 -10.2037 -0.06884 
0.068249 -0.06884 -10.4654 
-10.389 -0.103925 -0.00029527 
-0.103925 -9.82314 -0.241163 
-0.00029527 -0.241163 -10.7008 
-9.89302 -0.00805633 0.258218 
-0.00805633 -9.9022 0.0279754 
0.258218 0.0279754 -9.85581 
-9.81879 0.0181423 0.250797 
0.0181423 -9.87736 0.0334863 
0.250797 0.0334863 -9.95488 
-9.90443 -0.00764629 0.256592 
-0.00764629 -9.87313 0.0138937 
0.256592 0.0138937 -9.87346 
-9.86615 -0.019421 0.232334 
-0.019421 -9.90001 -0.0041667 
0.232334 -0.0041667 -9.88486 
-9.91465 2.23393 -0.797852 
2.23393 -9.48604 0.0652712 
-0.797852 0.0652712 -13.185 
-10.2388 0.533011 -1.30009 
0.533011 -10.1237 -1.05321 
-1.30009 -1.05321 -12.2232 
-9.13512 -0.0190571 -0.091426 
-0.0190571 -11.8058 -0.0788146 
-0.091426 -0.0788146 -11.6448 
-9.88209 1.06446 -1.03112 
1.06446 -10.6842 -0.627406 
-1.03112 -0.627406 -12.0195 
-9.97173 0.00808629 -0.224149 
0.00808629 -9.98043 -0.0975004 
-0.224149 -0.0975004 -9.98814 
-9.97707 -0.00151614 -0.223235 
-0.00151614 -9.98013 -0.104022 
-0.223235 -0.104022 -9.98309 
-9.96756 0.00735018 -0.209868 
0.00735018 -9.97291 -0.0938418 
-0.209868 -0.0938418 -9.99983 
-9.9714 0.0122114 -0.226878 
0.0122114 -9.98346 -0.105272 
-0.226878 -0.105272 -9.98544 
-9.973 -0.00863109 0.171273 
-0.00863109 -9.9691 0.188377 
0.171273 0.188377 -10.0004 
-9.9816 -0.00147851 0.166148 
-0.00147851 -9.97111 0.18077 
0.166148 0.18077 -9.9898 
-9.98079 -0.000480274 0.168327 
-0.000480274 -9.98302 0.176147 
0.168327 0.176147 -9.97869 
-9.97691 -0.00200989 0.166115 
-0.00200989 -9.97844 0.182268 
0.166115 0.182268 -9.98716 
-9.82129 -0.107526 0.0480373 
-0.107526 -9.76566 0.193611 
0.0480373 0.193611 -9.69403 
-9.66159 -0.11112 -0.112583 
-0.11112 -9.62414 0.13219 
-0.112583 0.13219 -9.99526 
-9.80035 -0.0591747 -0.0376896 
-0.0591747 -9.64011 0.240472 
-0.0376896 0.240472 -9.84053 
-9.7932 -0.02806 -0.0857271 
-0.02806 -9.65554 0.229691 
-0.0857271 0.229691 -9.83225 
-9.97361 -0.0209624 -0.0535424 
-0.0209624 -9.96893 0.239913 
-0.0535424 0.239913 -10.0045 
-10.0107 -0.00761319 -0.0546478 
-0.00761319 -9.95932 0.23761 
-0.0546478 0.23761 -9.97697 
-9.98533 0.0029664 -0.0623263 
0.0029664 -9.97779 0.225048 
-0.0623263 0.225048 -9.98389 
-10.001 -0.00566356 -0.0550924 
-0.00566356 -9.98016 0.233095 
-0.0550924 0.233095 -9.96581 
-9.9645 -0.026049 -0.00250121 
-0.026049 -9.99722 -0.00403902 
-0.00250121 -0.00403902 -10.0025 
-9.99111 0.00417718 -0.00197976 
0.00417718 -9.99236 -0.00645906 
-0.00197976 -0.00645906 -9.98076 
-9.98832 -0.0086414 0.00368087 
-0.0086414 -10.0016 0.0099289 
0.00368087 0.0099289 -9.97433 
-9.99028 0.025453 -0.0114298 
0.025453 -9.99069 0.00907585 
-0.0114298 0.00907585 -9.98326 
-9.98306 0.0122189 0.00308265 
0.0122189 -9.98045 -0.00264038 
0.00308265 -0.00264038 -9.98122 
-9.9866 0.00831785 -0.00339143 
0.00831785 -9.98021 0.00587983 
-0.00339143 0.00587983 -9.97791 
-9.96487 -0.0178209 0.00176538 
-0.0178209 -9.9844 0.00717058 
0.00176538 0.00717058 -9.99546 
-9.9855 -0.00258745 -0.00363404 
-0.00258745 -9.98555 -0.00923014 
-0.00363404 -0.00923014 -9.97367 
-10.7031 -0.273232 -0.109664 
-0.273232 -9.43907 -0.340691 
-0.109664 -0.340691 -16.789 
-9.02092 1.95398 -0.17735 
1.95398 -13.4803 0.105463 
-0.17735 0.105463 -14.4299 
-13.4341 -0.532296 0.00035405 
-0.532296 -9.26579 2.08922 
0.00035405 2.08922 -14.2313 
-8.99617 0.625036 1.55789 
0.625036 -11.6639 1.74987 
1.55789 1.74987 -16.2711 
-10.5026 0.0323845 0.118082 
0.0323845 -10.6239 0.17086 
0.118082 0.17086 -10.2208 
-9.62988 -0.163636 0.0652576 
-0.163636 -9.8982 -0.299945 
0.0652576 -0.299945 -11.8192 
-10.7663 -0.0601843 -0.0303466 
-0.0601843 -10.8726 0.0665025 
-0.0303466 0.0665025 -9.70842 
-10.3284 0.141356 0.999949 
0.141356 -10.704 0.350545 
0.999949 0.350545 -10.315 
-9.69728 -0.130212 -0.140206 
-0.130212 -9.75768 0.0647282 
-0.140206 0.0647282 -10.1218 
-9.71083 -0.223228 -0.103088 
-0.223228 -9.70448 0.0951928 
-0.103088 0.0951928 -10.1614 
-9.58935 -0.166942 -0.020046 
-0.166942 -9.75487 -0.0438317 
-0.020046 -0.0438317 -10.2325 
-9.48146 -0.396649 -0.142862 
-0.396649 -9.77432 0.0600019 
-0.142862 0.0600019 -10.3209 
-9.87905 0.0232329 0.0556837 
0.0232329 -9.85626 0.211817 
0.0556837 0.211817 -9.88812 
-9.87305 0.0109625 0.0676008 
0.0109625 -9.85105 0.224604 
0.0676008 0.224604 -9.89933 
-9.88741 0.00975712 0.079569 
0.00975712 -9.83823 0.229103 
0.079569 0.229103 -9.8978 
-9.85388 -0.0104218 0.0518792 
-0.0104218 -9.84481 0.258641 
0.0518792 0.258641 -9.92475 
-9.9796 0.00133242 0.13092 
0.00133242 -9.97437 -0.207966 
0.13092 -0.207966 -9.99313 
-9.97255 0.0118828 0.133428 
0.0118828 -9.97247 -0.217431 
0.133428 -0.217431 -10.0021 
-9.98335 -0.00149528 0.136629 
-0.00149528 -9.98537 -0.204814 
0.136629 -0.204814 -9.97837 
-9.98042 0.000997691 0.133298 
0.000997691 -9.98017 -0.208115 
0.133298 -0.208115 -9.98651 
-10.0645 -0.00763216 0.205427 
-0.00763216 -9.44412 -0.137859 
0.205427 -0.137859 -10.9532 
-9.96006 0.394347 -0.241699 
0.394347 -10.0032 0.281654 
-0.241699 0.281654 -10.4985 
-9.65673 0.768121 0.0417539 
0.768121 -10.6924 -0.0462331 
0.0417539 -0.0462331 -10.1127 
-10.1103 0.483969 -0.261441 
0.483969 -9.88166 0.172359 
-0.261441 0.172359 -10.4698 
-9.86969 0.0137346 -0.207275 
0.0137346 -9.84869 0.0904928 
-0.207275 0.0904928 -9.86551 
-9.8264 -0.0411901 -0.178483 
-0.0411901 -9.85538 0.0935272 
-0.178483 0.0935272 -9.90211 
-9.86113 0.00253814 -0.208433 
0.00253814 -9.83603 0.100918 
-0.208433 0.100918 -9.88673 
-9.83034 -0.00097651 -0.206279 
-0.00097651 -9.84878 0.118002 
-0.206279 0.118002 -9.90477 
-9.84479 0.00580586 0.235971 
0.00580586 -9.85248 0.0659637 
0.235971 0.0659637 -9.87343 
-9.83641 0.0155605 0.231336 
0.0155605 -9.85738 0.0601592 
0.231336 0.0601592 -9.87691 
-9.83917 0.00606937 0.23448 
0.00606937 -9.84909 0.0685399 
0.23448 0.0685399 -9.88244 
-9.84036 0.00254902 0.238507 
0.00254902 -9.85321 0.0661467 
0.238507 0.0661467 -9.87713 
-10.6759 0.0624822 0.170164 
0.0624822 -10.429 -0.100343 
0.170164 -0.100343 -10.115 
-9.93454 0.107478 -0.322557 
0.107478 -9.65244 -0.0935086 
-0.322557 -0.0935086 -11.633 
-10.6612 0.119038 0.0150395 
0.119038 -10.5378 -0.0589677 
0.0150395 -0.0589677 -10.021 
-10.7134 -0.0874586 0.164403 
-0.0874586 -10.3457 -0.743393 
0.164403 -0.743393 -10.1609 
-9.9096 -0.0764166 -0.0055941 
-0.0764166 -9.89005 0.0140585 
-0.0055941 0.0140585 -10.0101 
-9.96661 0.0397458 -0.0174714 
0.0397458 -9.92084 -0.00746609 
-0.0174714 -0.00746609 -9.92227 
-9.9212 0.00774624 -0.0212913 
0.00774624 -9.9159 0.0210461 
-0.0212913 0.0210461 -9.97262 
-9.88511 0.00809705 -0.0478862 
0.00809705 -9.95602 0.0374939 
-0.0478862 0.0374939 -9.96858 
-9.94832 0.0186762 -0.0199256 
0.0186762 -9.94655 -0.255531 
-0.0199256 -0.255531 -9.98114 
-9.94919 0.0109676 -0.0605223 
0.0109676 -9.96957 -0.237961 
-0.0605223 -0.237961 -9.95725 
-9.96375 -0.00240791 -0.0390814 
-0.00240791 -9.9467 -0.250498 
-0.0390814 -0.250498 -9.96555 
-9.96348 -0.00287255 -0.0373875 
-0.00287255 -9.94763 -0.24929 
-0.0373875 -0.24929 -9.9649 
-9.94698 0.100597 0.24636 
0.100597 -9.69568 0.594206 
0.24636 0.594206 -9.81938 
-10.1698 0.174816 0.104662 
0.174816 -9.31059 0.425841 
0.104662 0.425841 -9.9816 
-9.99232 0.0393941 0.0926383 
0.0393941 -9.60334 0.369423 
0.0926383 0.369423 -9.86637 
-10.1986 0.158183 0.0178917 
0.158183 -9.49438 0.423043 
0.0178917 0.423043 -9.76901 
-9.83884 0.0267456 0.194571 
0.0267456 -9.87327 0.139738 
0.194571 0.139738 -9.9374 
-9.8784 0.0164293 0.199932 
0.0164293 -9.8787 0.117756 
0.199932 0.117756 -9.89241 
-9.90419 -0.0172275 0.196173 
-0.0172275 -9.87032 0.139321 
0.196173 0.139321 -9.875 
-9.9 0.0177618 0.18877 
0.0177618 -9.85559 0.137038 
0.18877 0.137038 -9.89391 
-11.0556 0.25879 -0.060776 
0.25879 -10.5044 -0.175091 
-0.060776 -0.175091 -10.759 
-10.9102 0.172995 0.201541 
0.172995 -10.5415 -0.284615 
0.201541 -0.284615 -10.8672 
-10.1188 -0.287516 0.0564013 
-0.287516 -10.599 0.192803 
0.0564013 0.192803 -11.6011 
-10.8092 0.139931 0.0910196 
0.139931 -10.6111 -0.198 
0.0910196 -0.198 -10.8987 
-9.78214 0.00189244 -0.350366 
0.00189244 -10.2313 -0.0819959 
-0.350366 -0.0819959 -9.80368 
-9.70011 0.0995179 -0.330828 
0.0995179 -10.1807 -0.0618049 
-0.330828 -0.0618049 -9.93632 
-9.75342 0.0291638 -0.464516 
0.0291638 -10.0907 -0.13056 
-0.464516 -0.13056 -9.973 
-9.76894 0.0343321 -0.393244 
0.0343321 -10.1504 -0.0863654 
-0.393244 -0.0863654 -9.89772 
-9.96076 -0.00342384 -0.0206188 
-0.00342384 -10.0145 -0.0603462 
-0.0206188 -0.0603462 -10.3117 
-10.1171 0.0390516 0.00197628 
0.0390516 -10.0822 -0.00113569 
0.00197628 -0.00113569 -10.0877 
-10.1498 0.00439403 0.0209984 
0.00439403 -10.1618 -0.025972 
0.0209984 -0.025972 -9.97544 
-10.1031 -0.0130919 -0.0365627 
-0.0130919 -10.0972 0.0688223 
-0.0365627 0.0688223 -10.0866 
-9.95393 0.017075 0.142579 
0.017075 -9.95261 0.199995 
0.142579 0.199995 -9.95891 
-9.94737 0.0032696 0.136661 
0.0032696 -9.95079 0.213882 
0.136661 0.213882 -9.96729 
-9.95015 -0.00267629 0.139153 
-0.00267629 -9.9527 0.210824 
0.139153 0.210824 -9.96259 
-9.94632 -0.00305063 0.138937 
-0.00305063 -9.95464 0.214243 
0.138937 0.214243 -9.96448 
-10.6127 -0.0724292 -0.0179674 
-0.0724292 -10.5505 -0.000409932 
-0.0179674 -0.000409932 -10.6801 
-10.7338 0.00732328 0.0841795 
0.00732328 -10.6094 -0.0790452 
0.0841795 -0.0790452 -10.5001 
-10.3426 -0.127534 -0.0705919 
-0.127534 -10.5932 0.0407152 
-0.0705919 0.0407152 -10.9075 
-10.6959 0.0838147 -0.0754818 
0.0838147 -10.5918 -0.0491123 
-0.0754818 -0.0491123 -10.5556 
-9.96983 0.000395394 0.0584005 
0.000395394 -9.94649 -0.240818 
0.0584005 -0.240818 -10.0046 
-9.98957 -0.00496196 0.0461897 
-0.00496196 -9.9651 -0.231791 
0.0461897 -0.231791 -9.96624 
-9.95952 0.00596769 0.0463338 
0.00596769 -9.95777 -0.226903 
0.0463338 -0.226903 -10.0036 
-9.98785 -0.0120588 0.0560647 
-0.0120588 -9.96554 -0.222236 
0.0560647 -0.222236 -9.96751 
-10.0066 -0.0228572 -0.00929697 
-0.0228572 -9.97417 -0.0110633 
-0.00929697 -0.0110633 -9.97646 
-9.99064 0.0167366 0.000558252 
0.0167366 -9.97227 -0.0041213 
0.000558252 -0.0041213 -9.99428 
-9.99897 0.00377824 0.00614027 
0.00377824 -9.97895 -0.00564981 
0.00614027 -0.00564981 -9.97927 
-9.99533 -0.0101913 0.0101644 
-0.0101913 -9.98366 -0.00321154 
0.0101644 -0.00321154 -9.97819 
-9.64734 0.0612177 -0.101523 
0.0612177 -9.80283 -0.0253056 
-0.101523 -0.0253056 -9.84423 
-9.92034 -0.0792146 -0.2309 
-0.0792146 -9.72467 -0.00735857 
-0.2309 -0.00735857 -9.64939 
-9.74078 -0.00128703 -0.190669 
-0.00128703 -9.75268 0.00991094 
-0.190669 0.00991094 -9.80094 
-9.67422 0.0491789 -0.207571 
0.0491789 -9.75557 -0.0596479 
-0.207571 -0.0596479 -9.86461 
-9.7126 -0.117142 -0.123181 
-0.117142 -9.85267 0.0809287 
-0.123181 0.0809287 -9.92196 
-9.90422 0.0133671 -0.168035 
0.0133671 -9.78414 0.0484657 
-0.168035 0.0484657 -9.79887 
-9.79848 -0.0126524 -0.170581 
-0.0126524 -9.81912 0.0667505 
-0.170581 0.0667505 -9.86963 
-9.76277 -0.00771894 -0.233217 
-0.00771894 -9.81513 0.119906 
-0.233217 0.119906 -9.90932 
-9.59639 0.0365763 0.595434 
0.0365763 -10.2592 0.0507991 
0.595434 0.0507991 -9.74283 
-9.62108 0.350181 0.532263 
0.350181 -10.2778 0.102479 
0.532263 0.102479 -9.69955 
-9.31182 -0.0466424 0.737467 
-0.0466424 -10.4623 -0.0806174 
0.737467 -0.0806174 -9.82429 
-9.93524 -0.139449 0.488196 
-0.139449 -9.53835 -0.27274 
0.488196 -0.27274 -10.1249 
-9.9077 -0.0174586 -0.044245 
-0.0174586 -9.98477 -0.00412457 
-0.044245 -0.00412457 -10.0271 
-9.97127 -0.0309652 -0.0767611 
-0.0309652 -9.96767 0.0280309 
-0.0767611 0.0280309 -9.98063 
-9.94502 -0.0101199 -0.0178923 
-0.0101199 -9.99753 -0.0229466 
-0.0178923 -0.0229466 -9.97703 
-9.90724 -0.0302285 -0.0435161 
-0.0302285 -9.97789 -0.0118412 
-0.0435161 -0.0118412 -10.0344 
-10.0367 0.00645155 -0.00543898 
0.00645155 -10.0048 0.000678469 
-0.00543898 0.000678469 -10.0191 
-10.0123 -0.00937622 0.00187705 
-0.00937622 -10.0305 -0.015484 
0.00187705 -0.015484 -10.0178 
-10.0052 -0.00530139 0.00129491 
-0.00530139 -10.025 0.00623725 
0.00129491 0.00623725 -10.0303 
-10.0331 0.00868087 0.00501891 
0.00868087 -10.0116 0.00296433 
0.00501891 0.00296433 -10.0159 
-9.97726 -0.013091 -0.00460479 
-0.013091 -9.99358 0.00958529 
-0.00460479 0.00958529 -9.98884 
-9.98502 -0.000300253 0.0016317 
-0.000300253 -9.98502 -0.00400402 
0.0016317 -0.00400402 -9.98965 
-9.99345 -0.000771989 -0.00171849 
-0.000771989 -9.98119 -0.00626386 
-0.00171849 -0.00626386 -9.98505 
-9.99222 -0.000449183 0.000331004 
-0.000449183 -9.9776 -0.000590118 
0.000331004 -0.000590118 -9.98986 
-9.95181 -0.0028873 -0.254249 
-0.0028873 -9.95368 -0.0183516 
-0.254249 -0.0183516 -9.95937 
-9.95421 -0.00213449 -0.254391 
-0.00213449 -9.9662 -0.0139268 
-0.254391 -0.0139268 -9.94446 
-9.93848 -0.00303827 -0.246016 
-0.00303827 -9.95414 -0.0121141 
-0.246016 -0.0121141 -9.97225 
-9.95351 0.00102395 -0.249812 
0.00102395 -9.95396 -0.0181011 
-0.249812 -0.0181011 -9.9574 
-10.3191 -0.334527 -0.0956545 
-0.334527 -9.36319 -0.527276 
-0.0956545 -0.527276 -12.2555 
-10.6874 0.356467 0.474926 
0.356467 -10.8866 0.638569 
0.474926 0.638569 -10.3638 
-11.0316 0.297081 0.287371 
0.297081 -10.7685 0.74144 
0.287371 0.74144 -10.1377 
-10.6148 0.474631 0.477044 
0.474631 -10.1622 0.497887 
0.477044 0.497887 -11.1607 
-9.69977 0.0453383 0.328868 
0.0453383 -9.95003 0.159118 
0.328868 0.159118 -9.70813 
-9.70877 0.03622 0.295733 
0.03622 -9.88055 0.125253 
0.295733 0.125253 -9.76861 
-9.74177 -0.000308681 0.267053 
-0.000308681 -9.89215 0.113356 
0.267053 0.113356 -9.72401 
-9.72561 0.055486 0.28343 
0.055486 -9.85206 0.130558 
0.28343 0.130558 -9.78026 
-10.3661 0.54414 0.404601 
0.54414 -12.2208 -0.0669388 
0.404601 -0.0669388 -13.456 
-11.8922 0.168904 -0.333951 
0.168904 -9.6427 0.119319 
-0.333951 0.119319 -14.508 
-11.0836 0.0824672 -0.711583 
0.0824672 -11.0183 -0.840834 
-0.711583 -0.840834 -13.941 
-13.6121 0.495845 -1.51561 
0.495845 -9.69325 -0.801769 
-1.51561 -0.801769 -12.7376 
-5.18119 -5.39028 1.16208 
-5.39028 -11.6736 2.7643 
1.16208 2.7643 -14.6099 
-10.8062 0.85197 1.58489 
0.85197 -8.99233 1.01126 
1.58489 1.01126 -11.6661 
-9.89746 -1.40169 -1.37987 
-1.40169 -9.74928 1.0873 
-1.37987 1.0873 -11.8179 
-9.59008 -1.50602 -2.33271 
-1.50602 -10.767 0.0529905 
-2.33271 0.0529905 -11.1076 
-9.95268 -0.00523318 -0.0862323 
-0.00523318 -9.96063 0.226468 
-0.0862323 0.226468 -10.0093 
-9.95462 0.00602355 -0.0857122 
0.00602355 -9.97165 0.214265 
-0.0857122 0.214265 -9.99632 
-9.97513 -0.00829004 -0.0909925 
-0.00829004 -9.97146 0.214021 
-0.0909925 0.214021 -9.97601 
-9.98375 -0.00503678 -0.0869 
-0.00503678 -9.96808 0.210941 
-0.0869 0.210941 -9.97077 
-9.674 -0.0289053 -0.089833 
-0.0289053 -9.88943 0.0223167 
-0.089833 0.0223167 -10.0062 
-9.5396 0.0649366 -0.198338 
0.0649366 -9.84223 0.141539 
-0.198338 0.141539 -10.1878 
-9.67813 -0.0382894 -0.0807961 
-0.0382894 -9.92152 0.0378223 
-0.0807961 0.0378223 -9.96999 
-9.74314 0.0174629 -0.181116 
0.0174629 -9.97663 -0.0294282 
-0.181116 -0.0294282 -9.84986 
-9.80412 0.0675422 0.0957489 
0.0675422 -9.86844 0.037774 
0.0957489 0.037774 -9.9521 
-9.87344 0.0296599 0.0556869 
0.0296599 -9.8464 0.0348315 
0.0556869 0.0348315 -9.90483 
-9.77555 0.0835239 0.0620202 
0.0835239 -9.87957 0.0156475 
0.0620202 0.0156475 -9.96955 
-9.81478 0.0281184 0.0645409 
0.0281184 -9.87527 0.00836206 
0.0645409 0.00836206 -9.93461 
-9.88757 0.0869798 0.30142 
0.0869798 -9.94058 0.75784 
0.30142 0.75784 -10.0557 
-9.86885 0.437115 0.419022 
0.437115 -9.52912 0.0873521 
0.419022 0.0873521 -10.4859 
-9.8089 0.265923 0.171618 
0.265923 -9.79375 0.254548 
0.171618 0.254548 -10.2812 
-9.69431 0.417977 -0.0554612 
0.417977 -9.98325 0.17717 
-0.0554612 0.17717 -10.2063 
-9.98663 -0.00992344 -0.00333093 
-0.00992344 -9.99311 0.008242 
-0.00333093 0.008242 -9.98587 
-9.96219 0.00412987 0.0202406 
0.00412987 -10.0252 0.00799898 
0.0202406 0.00799898 -9.97822 
-9.99049 -0.00558651 -0.00314154 
-0.00558651 -10.0146 0.0352806 
-0.00314154 0.0352806 -9.9605 
-9.95342 -0.0161483 -0.0154058 
-0.0161483 -9.97916 -0.0115948 
-0.0154058 -0.0115948 -10.033 
-9.89816 0.111471 -0.0692924 
0.111471 -9.8915 0.0728878 
-0.0692924 0.0728878 -9.96151 
-9.83044 0.114726 -0.0428105 
0.114726 -9.90256 0.0155255 
-0.0428105 0.0155255 -10.0182 
-9.82289 0.113379 -0.0694075 
0.113379 -9.91479 -0.0593491 
-0.0694075 -0.0593491 -10.0135 
-9.80777 0.101297 0.0343978 
0.101297 -9.85173 -0.0202196 
0.0343978 -0.0202196 -10.0917 
-9.85315 0.0518323 -0.0250389 
0.0518323 -9.86254 -0.0850552 
-0.0250389 -0.0850552 -9.95469 
-9.87557 0.0730518 -0.0309922 
0.0730518 -9.84187 -0.060427 
-0.0309922 -0.060427 -9.95295 
-9.87589 0.0468662 -0.027374 
0.0468662 -9.8396 -0.0855483 
-0.027374 -0.0855483 -9.95489 
-9.85719 0.0501756 -0.0148041 
0.0501756 -9.8759 -0.0607434 
-0.0148041 -0.0607434 -9.9373 
-9.99982 0.00655148 0.000324897 
0.00655148 -10.0105 -0.00576373 
0.000324897 -0.00576373 -10.0087 
-10.0063 0.0144218 -0.00396333 
0.0144218 -10.0018 -0.0100656 
-0.00396333 -0.0100656 -10.0109 
-10.0015 0.00561475 -0.0022674 
0.00561475 -10.0055 -0.00831464 
-0.0022674 -0.00831464 -10.012 
-10.0157 -0.0042109 0.00853267 
-0.0042109 -10.012 -0.00514366 
0.00853267 -0.00514366 -9.99125 
-9.99691 0.00813037 -0.00474432 
0.00813037 -9.99105 0.00367392 
-0.00474432 0.00367392 -9.99506 
-9.99461 0.00266694 -0.000570943 
0.00266694 -9.9893 -0.00143136 
-0.000570943 -0.00143136 -9.9991 
-9.99585 0.00534319 -0.00309336 
0.00534319 -9.99392 0.0010539 
-0.00309336 0.0010539 -9.99324 
-9.99403 0.00382042 -0.00386192 
0.00382042 -9.98866 0.0123856 
-0.00386192 0.0123856 -10.0003 
-9.94774 -0.000999436 0.19087 
-0.000999436 -9.93218 0.178104 
0.19087 0.178104 -9.96002 
-9.94716 0.00813779 0.173867 
0.00813779 -9.93336 0.1773 
0.173867 0.1773 -9.95943 
-9.94436 -0.000716838 0.185204 
-0.000716838 -9.94673 0.176096 
0.185204 0.176096 -9.94885 
-9.94982 0.0148436 0.169771 
0.0148436 -9.93947 0.169661 
0.169771 0.169661 -9.95065 
-9.53314 0.0903496 -0.300711 
0.0903496 -9.90073 -0.0648095 
-0.300711 -0.0648095 -9.90292 
-9.53263 0.0421276 -0.308832 
0.0421276 -9.91878 -0.0513076 
-0.308832 -0.0513076 -9.88538 
-9.58912 0.0375917 -0.366492 
0.0375917 -9.9274 -0.0716265 
-0.366492 -0.0716265 -9.82027 
-9.68061 0.0053959 -0.304755 
0.0053959 -9.86832 -0.0389377 
-0.304755 -0.0389377 -9.78786 
-10.0012 0.0093119 0.00352488 
0.0093119 -9.99681 -0.00017925 
0.00352488 -0.00017925 -10.0065 
-10.0086 0.00291827 0.000461592 
0.00291827 -10.0018 0.00707942 
0.000461592 0.00707942 -9.99405 
-10.0038 -0.00413818 -0.00213275 
-0.00413818 -10.0027 0.000816537 
-0.00213275 0.000816537 -9.99791 
-10.0032 -0.00460085 -0.000854216 
-0.00460085 -9.99881 0.00358621 
-0.000854216 0.00358621 -10.0024 
-9.96111 -0.00662005 0.00257621 
-0.00662005 -9.96966 -0.00110048 
0.00257621 -0.00110048 -10.0206 
-9.98268 -0.00559416 -0.0140911 
-0.00559416 -9.99305 0.00170255 
-0.0140911 0.00170255 -9.97566 
-9.97649 0.00218217 -0.00602444 
0.00218217 -9.99565 -0.00583607 
-0.00602444 -0.00583607 -9.97926 
-9.98618 -0.00509374 -0.0134497 
-0.00509374 -9.99011 -0.00636407 
-0.0134497 -0.00636407 -9.97509 
-9.98428 0.000360239 -0.193899 
0.000360239 -9.9894 0.136863 
-0.193899 0.136863 -9.98164 
-9.98431 -6.20258e-05 -0.193797 
-6.20258e-05 -9.98231 0.141104 
-0.193797 0.141104 -9.98871 
-9.98638 0.000143984 -0.193486 
0.000143984 -9.98001 0.139588 
-0.193486 0.139588 -9.98894 
-9.98239 0.00974989 -0.196685 
0.00974989 -9.97003 0.149878 
-0.196685 0.149878 -10.0029 
-9.98352 0.00130278 0.173716 
0.00130278 -9.97268 0.187641 
0.173716 0.187641 -9.98049 
-9.95624 0.00254447 0.15976 
0.00254447 -9.96144 0.181451 
0.15976 0.181451 -10.019 
-9.97613 0.00959414 0.174186 
0.00959414 -9.97566 0.18754 
0.174186 0.18754 -9.98489 
-9.96581 0.0134375 0.186042 
0.0134375 -9.9815 0.190214 
0.186042 0.190214 -9.98937 
-9.95949 0.327999 -0.793322 
0.327999 -9.86669 -1.07943 
-0.793322 -1.07943 -9.1738 
-9.03754 1.1341 -0.891127 
1.1341 -10.8282 -0.620932 
-0.891127 -0.620932 -9.13425 
-9.07298 0.181284 -0.679694 
0.181284 -10.0062 0.0665874 
-0.679694 0.0665874 -9.92084 
-9.2946 -0.0712336 -0.825887 
-0.0712336 -10.3083 -0.448515 
-0.825887 -0.448515 -9.39706 
-9.87701 -0.000558767 -0.142654 
-0.000558767 -9.80384 0.0515366 
-0.142654 0.0515366 -9.86682 
-9.86456 0.0154635 -0.128975 
0.0154635 -9.8023 0.0743565 
-0.128975 0.0743565 -9.8808 
-9.75152 -0.101319 -0.100937 
-0.101319 -9.855 0.0698968 
-0.100937 0.0698968 -9.94115 
-9.83029 0.0185994 -0.171877 
0.0185994 -9.82102 0.0973593 
-0.171877 0.0973593 -9.89636 
-9.96002 -0.00869764 0.0885866 
-0.00869764 -9.94408 0.223726 
0.0885866 0.223726 -9.96106 
-9.95336 0.00815736 0.120787 
0.00815736 -9.93915 0.221812 
0.120787 0.221812 -9.97265 
-9.94813 0.00530378 0.1065 
0.00530378 -9.94504 0.227157 
0.1065 0.227157 -9.97199 
-9.94215 0.0120617 0.112483 
0.0120617 -9.95525 0.222402 
0.112483 0.222402 -9.96776 
-9.98221 0.0109641 0.0299153 
0.0109641 -9.99113 -0.0457519 
0.0299153 -0.0457519 -9.92063 
-9.91854 -0.0182771 0.0146224 
-0.0182771 -9.95089 0.029922 
0.0146224 0.029922 -10.0245 
-9.94805 -0.000797561 0.00335733 
-0.000797561 -9.948 0.00563518 
0.00335733 0.00563518 -9.99791 
-9.94855 0.0311876 -0.0129621 
0.0311876 -10.0005 -0.0106249 
-0.0129621 -0.0106249 -9.94491 
-9.84659 0.0569052 -0.0245721 
0.0569052 -9.59433 0.0937597 
-0.0245721 0.0937597 -9.94382 
-9.80501 -0.0384952 0.124861 
-0.0384952 -9.49694 0.164969 
0.124861 0.164969 -10.0828 
-9.81359 0.0411685 0.0368324 
0.0411685 -9.63486 0.0717223 
0.0368324 0.0717223 -9.9363 
-9.86776 -0.00817607 -0.0512885 
-0.00817607 -9.66372 0.143262 
-0.0512885 0.143262 -9.85326 
-9.85897 0.0292151 0.147738 
0.0292151 -9.84442 0.181694 
0.147738 0.181694 -9.92658 
-9.86781 0.0279499 0.131592 
0.0279499 -9.86201 0.173424 
0.131592 0.173424 -9.90015 
-9.85796 -0.0290152 0.130645 
-0.0290152 -9.88886 0.188839 
0.130645 0.188839 -9.88314 
-9.8935 -0.0114827 0.129503 
-0.0114827 -9.8265 0.165866 
0.129503 0.165866 -9.90997 
-10.0431 0.0122592 0.000519241 
0.0122592 -10.0146 0.00265646 
0.000519241 0.00265646 -10.0455 
-10.059 -0.0046202 0.00556793 
-0.0046202 -10.0198 -0.00769227 
0.00556793 -0.00769227 -10.0243 
-10.0213 0.00944079 -0.000498752 
0.00944079 -10.0094 -0.00767071 
-0.000498752 -0.00767071 -10.0724 
-10.0553 0.00242234 0.0236861 
0.00242234 -10.0379 0.00909414 
0.0236861 0.00909414 -10.0099 
-10.0141 -0.00519093 -0.0121814 
-0.00519093 -9.99703 0.0127164 
-0.0121814 0.0127164 -10.0237 
-10.0271 0.00303509 -0.0121612 
0.00303509 -9.99628 -0.00223778 
-0.0121612 -0.00223778 -10.0114 
-10.017 0.00221898 -0.00345173 
0.00221898 -10.0149 -0.00852441 
-0.00345173 -0.00852441 -10.0029 
-10.0065 -0.0112875 0.00634203 
-0.0112875 -9.9951 -0.0121943 
0.00634203 -0.0121943 -10.0332 
-7.35902 3.73362 -0.264031 
3.73362 -19.7611 12.9305 
-0.264031 12.9305 8.84183 
-5.95254 -2.31708 -1.8139 
-2.31708 -17.2202 11.1529 
-1.8139 11.1529 4.89444 
1.12807 3.5012 2.61643 
3.5012 -3.49235 -4.14688 
2.61643 -4.14688 -15.9141 
-8.69623 -2.35231 1.71723 
-2.35231 4.84842 9.646 
1.71723 9.646 -14.4305 
-1.79891 0.235625 -0.518959 
0.235625 -5.57929 0.127875 
-0.518959 0.127875 -1.16952 
-1.66236 0.609821 -1.54 
0.609821 -2.07764 1.64527 
-1.54 1.64527 -4.80773 
-4.73147 -2.43434 0.159646 
-2.43434 -7.44022 -3.41703 
0.159646 -3.41703 3.62396 
-0.0360618 1.1018 0.716709 
1.1018 -9.75299 2.53551 
0.716709 2.53551 1.24133 
-9.96302 -0.00378184 -0.120517 
-0.00378184 -9.96537 0.199837 
-0.120517 0.199837 -9.99044 
-9.94898 0.00351451 -0.121986 
0.00351451 -9.97143 0.208808 
-0.121986 0.208808 -9.99842 
-9.96496 -0.00704187 -0.127404 
-0.00704187 -9.96612 0.204296 
-0.127404 0.204296 -9.98776 
-9.9745 -0.00258835 -0.119594 
-0.00258835 -9.96897 0.198387 
-0.119594 0.198387 -9.97537 
-9.93911 -0.00473284 -0.0602866 
-0.00473284 -9.96256 0.231528 
-0.0602866 0.231528 -10.0012 
-9.98266 -0.00502089 -0.0787024 
-0.00502089 -9.94777 0.233644 
-0.0787024 0.233644 -9.97247 
-9.99448 0.00236312 -0.0615943 
0.00236312 -9.93482 0.236408 
-0.0615943 0.236408 -9.97359 
-9.97905 -0.00130241 -0.0676695 
-0.00130241 -9.94823 0.227504 
-0.0676695 0.227504 -9.97561 
-9.96728 0.00920555 0.0163918 
0.00920555 -9.94884 -0.00744839 
0.0163918 -0.00744839 -10.0146 
-9.94281 0.00887831 0.0289391 
0.00887831 -9.95925 -0.0179356 
0.0289391 -0.0179356 -10.0287 
-9.9618 -0.00394861 0.00726898 
-0.00394861 -9.96505 -0.0086323 
0.00726898 -0.0086323 -10.0039 
-9.93864 0.0249298 0.019465 
0.0249298 -9.96998 -0.0101459 
0.019465 -0.0101459 -10.0221 
-9.89727 0.01801 0.188314 
0.01801 -9.84636 -0.137126 
0.188314 -0.137126 -9.8766 
-9.87219 -0.00701016 0.181591 
-0.00701016 -9.85842 -0.148541 
0.181591 -0.148541 -9.88964 
-9.84859 -0.0404541 0.174782 
-0.0404541 -9.87267 -0.117178 
0.174782 -0.117178 -9.89898 
-9.85588 -0.0193141 0.200794 
-0.0193141 -9.85179 -0.138436 
0.200794 -0.138436 -9.91257 
-4.30208 -0.584809 -0.759882 
-0.584809 -4.57606 1.13113 
-0.759882 1.13113 -1.63633 
-8.92394 -0.313535 1.77382 
-0.313535 -9.86133 1.56422 
1.77382 1.56422 8.27079 
-6.14561 -1.23323 -0.173913 
-1.23323 -2.14721 0.305294 
-0.173913 0.305294 -2.22166 
-4.0692 -0.0828197 -1.46836 
-0.0828197 -3.4512 4.01722 
-1.46836 4.01722 -2.99408 
-9.99889 0.0165222 0.117256 
0.0165222 -10.2019 -0.0365956 
0.117256 -0.0365956 -10.339 
-10.0793 0.00958909 0.0245727 
0.00958909 -10.1783 0.0970223 
0.0245727 0.0970223 -10.2821 
-9.98164 -0.100099 0.049027 
-0.100099 -10.1983 -0.0676328 
0.049027 -0.0676328 -10.3598 
-9.95727 0.0941829 0.186476 
0.0941829 -10.2884 -0.062852 
0.186476 -0.062852 -10.2941 
-10.0009 -0.00832743 -0.0703014 
-0.00832743 -10.0046 -0.193078 
-0.0703014 -0.193078 -9.94913 
-9.99292 3.11028e-05 -0.082198 
3.11028e-05 -10.0101 -0.190587 
-0.082198 -0.190587 -9.95154 
-9.93722 -0.00634936 -0.068111 
-0.00634936 -9.92386 -0.186034 
-0.068111 -0.186034 -10.0935 
-10.0119 0.00395736 -0.0872605 
0.00395736 -9.99984 -0.22839 
-0.0872605 -0.22839 -9.94284 
-10.9933 -0.500981 0.362354 
-0.500981 -11.1634 0.420971 
0.362354 0.420971 -10.0826 
-10.5305 0.193515 0.0620678 
0.193515 -10.938 0.244185 
0.0620678 0.244185 -10.7709 
-10.2023 0.114192 -0.28641 
0.114192 -10.6167 -0.162839 
-0.28641 -0.162839 -11.4204 
-10.3124 0.388621 0.125999 
0.388621 -10.6972 0.307423 
0.125999 0.307423 -11.2297 
-9.95033 -0.00555589 -0.129884 
-0.00555589 -9.94126 0.20692 
-0.129884 0.20692 -9.98301 
-9.94828 -0.00047233 -0.140824 
-0.00047233 -9.95065 0.214263 
-0.140824 0.214263 -9.97566 
-9.94812 -0.00595708 -0.129364 
-0.00595708 -9.95481 0.194073 
-0.129364 0.194073 -9.97167 
-9.9533 -0.00756654 -0.14465 
-0.00756654 -9.94852 0.208013 
-0.14465 0.208013 -9.97277 
-10.0125 -0.0167099 -0.0323092 
-0.0167099 -9.97426 -0.219518 
-0.0323092 -0.219518 -9.97197 
-9.94472 -0.0118919 -0.024165 
-0.0118919 -9.93954 -0.208034 
-0.024165 -0.208034 -10.0745 
-10.0233 -5.51364e-05 -0.0202759 
-5.51364e-05 -9.98876 -0.225367 
-0.0202759 -0.225367 -9.94672 
-10.0184 0.00870114 -0.0560877 
0.00870114 -9.99829 -0.223409 
-0.0560877 -0.223409 -9.94208 
-8.43484 -0.541296 -0.978616 
-0.541296 -10.2946 0.358898 
-0.978616 0.358898 -9.48907 
-10.6505 1.25675 -2.44771 
1.25675 -9.44967 -1.06381 
-2.44771 -1.06381 -8.11829 
-10.3503 0.0329078 -1.793 
0.0329078 -8.95178 -1.21427 
-1.793 -1.21427 -8.9164 
-12.5331 0.61165 0.387523 
0.61165 -9.11024 -2.1774 
0.387523 -2.1774 -6.57514 
-9.99165 -0.0142468 0.150124 
-0.0142468 -9.98128 -0.213364 
0.150124 -0.213364 -9.98271 
-9.98611 -0.00431039 0.14792 
-0.00431039 -9.99243 -0.200466 
0.14792 -0.200466 -9.9771 
-9.98508 -0.013589 0.139382 
-0.013589 -9.97785 -0.215192 
0.139382 -0.215192 -9.9927 
-9.99488 -0.015526 0.145664 
-0.015526 -9.98815 -0.201736 
0.145664 -0.201736 -9.97262 
-9.88643 0.0217023 -0.0333029 
0.0217023 -9.95325 -0.0454863 
-0.0333029 -0.0454863 -9.99489 
-9.94377 0.0217277 -0.0338171 
0.0217277 -9.86615 0.018418 
-0.0338171 0.018418 -10.0246 
-9.86935 0.0400672 -0.0443392 
0.0400672 -9.96384 -0.00832945 
-0.0443392 -0.00832945 -10.0014 
-9.88465 0.0402974 -0.0224935 
0.0402974 -9.94488 -0.010857 
-0.0224935 -0.010857 -10.005 
-10.1069 0.377625 1.78154 
0.377625 -7.31225 0.884282 
1.78154 0.884282 -20.7868 
-12.7271 0.257747 0.0701157 
0.257747 -11.1898 0.395761 
0.0701157 0.395761 -14.2891 
-15.856 -0.213432 -0.293358 
-0.213432 -12.9335 1.65843 
-0.293358 1.65843 -9.41648 
-13.4111 -0.0198332 -1.26854 
-0.0198332 -11.5332 -2.77714 
-1.26854 -2.77714 -13.2616 
-9.75289 0.0457314 0.286781 
0.0457314 -9.88295 0.129173 
0.286781 0.129173 -9.91418 
-9.79127 0.0429212 0.2392 
0.0429212 -9.93432 0.138042 
0.2392 0.138042 -9.82443 
-9.82476 0.0333275 0.237726 
0.0333275 -9.85918 0.164887 
0.237726 0.164887 -9.86608 
-9.75026 0.0706873 0.268159 
0.0706873 -9.89901 0.16173 
0.268159 0.16173 -9.90076 
-9.96755 -0.00643336 -0.0126413 
-0.00643336 -9.9769 -0.0256674 
-0.0126413 -0.0256674 -9.99693 
-9.96957 0.0215529 0.0114507 
0.0215529 -9.99092 0.0322719 
0.0114507 0.0322719 -9.9809 
-10.008 0.00140363 -0.00249847 
0.00140363 -9.95343 -0.0113828 
-0.00249847 -0.0113828 -9.97994 
-10.0027 -0.00376306 0.00286162 
-0.00376306 -9.93892 0.00449057 
0.00286162 0.00449057 -9.9998 
-14.6192 -1.26711 0.592913 
-1.26711 -11.4664 -1.89902 
0.592913 -1.89902 -16.3975 
-14.1545 -0.562716 0.447717 
-0.562716 -12.9374 -1.34458 
0.447717 -1.34458 -15.3912 
-12.7428 -0.940043 -0.558559 
-0.940043 -11.4767 -0.913618 
-0.558559 -0.913618 -18.2637 
-14.6938 -1.18944 -0.0993519 
-1.18944 -12.7782 -1.96363 
-0.0993519 -1.96363 -15.0111 
-10.02 -0.0166826 -0.00790009 
-0.0166826 -10.0126 -0.0132479 
-0.00790009 -0.0132479 -9.99337 
-10.0175 -0.00665726 -0.00381501 
-0.00665726 -10.0104 -0.00375958 
-0.00381501 -0.00375958 -9.99813 
-10 -0.00479209 -0.0113441 
-0.00479209 -9.97698 0.0167758 
-0.0113441 0.0167758 -10.049 
-10.0142 -0.00817771 -0.0027128 
-0.00817771 -10.016 -0.000483662 
-0.0027128 -0.000483662 -9.99573 
-9.94575 0.00587063 -0.175672 
0.00587063 -9.95388 0.183878 
-0.175672 0.183878 -9.96846 
-9.94674 -0.00215242 -0.173951 
-0.00215242 -9.95252 0.176743 
-0.173951 0.176743 -9.96881 
-9.95595 -0.000487438 -0.173098 
-0.000487438 -9.95348 0.184268 
-0.173098 0.184268 -9.95865 
-9.94751 -0.0152628 -0.16896 
-0.0152628 -9.95708 0.165469 
-0.16896 0.165469 -9.96349 
-12.1581 0.105108 -0.0814814 
0.105108 -11.3288 0.649613 
-0.0814814 0.649613 -12.5656 
-13.1207 -0.62711 -0.640256 
-0.62711 -11.6037 0.447226 
-0.640256 0.447226 -11.3281 
-10.6101 0.0254746 0.275288 
0.0254746 -10.6927 -0.0189436 
0.275288 -0.0189436 -14.7497 
-13.4523 0.111339 1.05622 
0.111339 -11.48 1.4826 
1.05622 1.4826 -11.1202 
-9.94095 -0.00309454 0.149723 
-0.00309454 -9.93936 0.0590378 
0.149723 0.0590378 -10.1086 
-10.0157 -0.00865683 0.14377 
-0.00865683 -10.0322 0.0808397 
0.14377 0.0808397 -9.94108 
-10.0084 0.00185478 0.159139 
0.00185478 -10.0399 0.0761467 
0.159139 0.0761467 -9.94068 
-10.0291 0.00675941 0.162987 
0.00675941 -10.0177 0.127277 
0.162987 0.127277 -9.94222 
-10.0062 -0.00908065 0.0196962 
-0.00908065 -10.0014 -0.0228546 
0.0196962 -0.0228546 -10.0295 
-9.99798 0.00135781 0.0062064 
0.00135781 -9.97211 -0.000347459 
0.0062064 -0.000347459 -10.067 
-10.0009 0.0255327 -0.0233143 
0.0255327 -9.99896 0.0141811 
-0.0233143 0.0141811 -10.0373 
-10.0232 -0.0416916 0.00304484 
-0.0416916 -9.93667 0.00195193 
0.00304484 0.00195193 -10.0772 
-7.74346 1.19921 -2.39815 
1.19921 -14.7489 -1.68704 
-2.39815 -1.68704 -24.5317 
-9.84076 0.355447 -2.42283 
0.355447 -10.417 2.03656 
-2.42283 2.03656 -26.7663 
-18.0872 -2.64885 -1.39999 
-2.64885 -18.5084 2.59632 
-1.39999 2.59632 -10.4284 
-13.907 0.91827 4.93117 
0.91827 -13.4072 -0.558867 
4.93117 -0.558867 -19.7099 
-9.82326 -0.0603932 -0.0504472 
-0.0603932 -9.66641 0.123211 
-0.0504472 0.123211 -9.85745 
-9.7849 -0.0744325 -0.0715282 
-0.0744325 -9.71956 0.144795 
-0.0715282 0.144795 -9.84267 
-9.67652 0.00445537 -0.0403836 
0.00445537 -9.92156 0.14694 
-0.0403836 0.14694 -9.74904 
-9.79703 -0.0465759 -0.0572871 
-0.0465759 -9.71229 0.216189 
-0.0572871 0.216189 -9.8378 
-9.95773 0.00755375 0.139586 
0.00755375 -9.95847 0.193147 
0.139586 0.193147 -9.97819 
-9.95003 0.00878145 0.152236 
0.00878145 -9.93644 0.2013 
0.152236 0.2013 -10.0079 
-9.95891 0.00182624 0.136619 
0.00182624 -9.95311 0.195614 
0.136619 0.195614 -9.98237 
-9.96047 0.0126882 0.132112 
0.0126882 -9.96285 0.191037 
0.132112 0.191037 -9.97107 
-9.95023 0.00714978 0.154529 
0.00714978 -9.95351 0.177831 
0.154529 0.177831 -9.99721 
-9.95975 -0.00269453 0.162682 
-0.00269453 -9.95389 0.181139 
0.162682 0.181139 -9.98732 
-9.95855 0.0073078 0.156409 
0.0073078 -9.9501 0.188961 
0.156409 0.188961 -9.99229 
-9.9653 0.00554793 0.159784 
0.00554793 -9.96058 0.179549 
0.159784 0.179549 -9.97507 
-9.90127 0.0139389 0.23566 
0.0139389 -9.91759 0.0337984 
0.23566 0.0337984 -9.92867 
-9.89241 0.00602217 0.251947 
0.00602217 -9.92442 0.0303024 
0.251947 0.0303024 -9.93071 
-9.89238 0.00457873 0.251508 
0.00457873 -9.91739 0.0302857 
0.251508 0.0302857 -9.93777 
-9.9019 0.000173829 0.249157 
0.000173829 -9.91991 0.0370623 
0.249157 0.0370623 -9.92573 
-9.73718 0.00752162 -0.0429013 
0.00752162 -9.88877 0.165583 
-0.0429013 0.165583 -9.77093 
-9.80761 -0.0984902 -0.0501121 
-0.0984902 -9.69361 0.143481 
-0.0501121 0.143481 -9.89567 
-9.80529 -0.0313985 -0.057675 
-0.0313985 -9.76498 0.180268 
-0.057675 0.180268 -9.8266 
-9.81646 0.0109339 -0.0829433 
0.0109339 -9.73038 0.193156 
-0.0829433 0.193156 -9.85004 
-9.83943 -0.100408 -0.0362062 
-0.100408 -9.83345 0.0879554 
-0.0362062 0.0879554 -9.94813 
-9.83873 0.0179608 -0.0693427 
0.0179608 -9.86968 0.0831131 
-0.0693427 0.0831131 -9.9126 
-9.82367 -0.0156847 -0.0607912 
-0.0156847 -9.87416 0.0878172 
-0.0607912 0.0878172 -9.92318 
-9.78058 -0.00638195 -0.0811229 
-0.00638195 -9.89997 0.127338 
-0.0811229 0.127338 -9.94046 
-9.82821 -0.0313542 0.131539 
-0.0313542 -9.77592 -0.0168162 
0.131539 -0.0168162 -9.87874 
-9.94609 0.0571114 0.136968 
0.0571114 -9.83393 -0.00183055 
0.136968 -0.00183055 -9.70285 
-9.70292 -0.108679 0.0507094 
-0.108679 -9.78509 0.0222673 
0.0507094 0.0222673 -9.99487 
-9.76315 -0.0471112 0.144025 
-0.0471112 -9.77817 -0.0806631 
0.144025 -0.0806631 -9.94155 
-9.98661 0.00935736 -0.109636 
0.00935736 -9.97079 -0.202748 
-0.109636 -0.202748 -9.97067 
-9.96459 0.00576586 -0.120147 
0.00576586 -9.94223 -0.226449 
-0.120147 -0.226449 -10.0213 
-9.98015 -0.00474051 -0.108888 
-0.00474051 -9.9651 -0.2037 
-0.108888 -0.2037 -9.98282 
-9.9841 0.0202252 -0.101026 
0.0202252 -9.95382 -0.191839 
-0.101026 -0.191839 -9.99015 
-12.4878 0.762802 -0.887631 
0.762802 -10.9239 0.904728 
-0.887631 0.904728 -17.9557 
-13.5591 0.928221 0.298268 
0.928221 -12.3878 1.17762 
0.298268 1.17762 -15.4205 
-11.7686 0.65124 0.523794 
0.65124 -10.9506 2.21108 
0.523794 2.21108 -18.6481 
-14.5481 2.24517 -1.6476 
2.24517 -13.334 0.967882 
-1.6476 0.967882 -13.4853 
-9.9375 -0.00682976 0.0677087 
-0.00682976 -9.90523 -0.235563 
0.0677087 -0.235563 -9.92651 
-9.92687 -0.0053962 0.0563035 
-0.0053962 -9.91462 -0.234691 
0.0563035 -0.234691 -9.92774 
-9.91878 -0.00530057 0.0563881 
-0.00530057 -9.90453 -0.234944 
0.0563881 -0.234944 -9.94592 
-9.93373 -0.0134112 0.066309 
-0.0134112 -9.92221 -0.242615 
0.066309 -0.242615 -9.91328 
-9.95697 0.00811977 0.0340973 
0.00811977 -9.99409 0.000788734 
0.0340973 0.000788734 -10.0208 
-10.0139 -0.0123082 -0.00366256 
-0.0123082 -10.0185 0.0249534 
-0.00366256 0.0249534 -9.93948 
-9.97149 0.00193844 0.0155445 
0.00193844 -9.99135 0.0113411 
0.0155445 0.0113411 -10.009 
-9.94695 -0.0150501 -0.00335555 
-0.0150501 -10.0185 -0.00120016 
-0.00335555 -0.00120016 -10.0064 
-10.0212 -0.00433608 0.0111151 
-0.00433608 -9.99251 -0.0242311 
0.0111151 -0.0242311 -9.92148 
-9.96136 0.00458503 -0.000905349 
0.00458503 -9.99689 0.00326604 
-0.000905349 0.00326604 -9.97698 
-9.92554 -0.00259656 -0.0294771 
-0.00259656 -9.96411 -0.0117954 
-0.0294771 -0.0117954 -10.0456 
-9.95703 0.0444616 -0.0110762 
0.0444616 -9.99054 -0.0174907 
-0.0110762 -0.0174907 -9.98766 
-10.2739 0.0577914 0.00703703 
0.0577914 -10.1407 -0.00947529 
0.00703703 -0.00947529 -10.6019 
-10.2152 0.250837 -0.0352615 
0.250837 -10.144 0.0130432 
-0.0352615 0.0130432 -10.6572 
-10.3051 0.180922 -0.0112905 
0.180922 -10.2076 -0.0342414 
-0.0112905 -0.0342414 -10.5037 
-10.3805 -0.068973 0.102659 
-0.068973 -10.1618 0.145997 
0.102659 0.145997 -10.4742 
-9.85214 0.000870025 -0.00731206 
0.000870025 -9.62413 -0.100519 
-0.00731206 -0.100519 -9.85919 
-9.69173 0.010554 -0.019157 
0.010554 -9.93917 -0.139125 
-0.019157 -0.139125 -9.70456 
-9.80599 0.0307286 -0.0445764 
0.0307286 -9.69848 -0.147404 
-0.0445764 -0.147404 -9.83099 
-9.80091 -0.00969282 0.000996584 
-0.00969282 -9.68942 -0.221186 
0.000996584 -0.221186 -9.84513 
-11.2289 0.0368917 0.0850245 
0.0368917 -10.0958 0.261869 
0.0850245 0.261869 -10.972 
-11.6543 -0.974802 0.0209173 
-0.974802 -11.1124 0.484548 
0.0209173 0.484548 -9.53004 
-10.0978 0.169437 -0.261709 
0.169437 -9.82104 -0.529695 
-0.261709 -0.529695 -12.3778 
-11.1783 0.327178 1.14307 
0.327178 -9.82276 0.4785 
1.14307 0.4785 -11.2956 
-9.96394 0.0112389 0.181063 
0.0112389 -9.93665 -0.162996 
0.181063 -0.162996 -10.0281 
-9.97341 -0.00453628 0.184554 
-0.00453628 -9.97946 -0.178647 
0.184554 -0.178647 -9.97581 
-9.97438 -0.0122914 0.184932 
-0.0122914 -9.96968 -0.175654 
0.184932 -0.175654 -9.98462 
-9.9706 -0.00750205 0.194702 
-0.00750205 -9.98142 -0.175499 
0.194702 -0.175499 -9.97666 
-9.78267 0.0130425 -0.257804 
0.0130425 -9.75838 0.0276081 
-0.257804 0.0276081 -9.73923 
-9.72313 0.0152973 0.160592 
0.0152973 -9.69602 0.293057 
0.160592 0.293057 -9.86113 
-9.88171 0.0429335 0.207973 
0.0429335 -9.48677 0.0201591 
0.207973 0.0201591 -9.9118 
-9.97832 0.0839556 -0.119455 
0.0839556 -9.50672 0.361877 
-0.119455 0.361877 -9.79524 
-10.0157 -0.00370246 -0.205609 
-0.00370246 -10.033 0.0406585 
-0.205609 0.0406585 -9.93842 
-9.9768 -0.0147179 -0.225881 
-0.0147179 -9.96782 0.0462161 
-0.225881 0.0462161 -10.0426 
-9.9881 -0.0151957 -0.204262 
-0.0151957 -10.0052 0.0652311 
-0.204262 0.0652311 -9.99392 
-10.0169 0.00886738 -0.217568 
0.00886738 -10.0242 0.0711395 
-0.217568 0.0711395 -9.94606 
-9.96365 -0.00859071 0.156215 
-0.00859071 -9.98138 0.204207 
0.156215 0.204207 -9.99984 
-9.98375 -0.000229044 0.146538 
-0.000229044 -9.9833 0.202623 
0.146538 0.202623 -9.97782 
-9.97708 -0.000893851 0.149112 
-0.000893851 -9.97565 0.196613 
0.149112 0.196613 -9.99214 
-9.97786 0.00123991 0.150326 
0.00123991 -9.98163 0.201404 
0.150326 0.201404 -9.98538 
-9.94998 0.00953851 -0.222351 
0.00953851 -9.97054 -0.127611 
-0.222351 -0.127611 -10.0018 
-9.95937 0.0209742 -0.200424 
0.0209742 -9.97064 -0.106405 
-0.200424 -0.106405 -9.99228 
-9.95934 0.00886029 -0.192726 
0.00886029 -9.95133 -0.10559 
-0.192726 -0.10559 -10.0116 
-9.9599 0.0211207 -0.215906 
0.0211207 -9.97432 -0.132623 
-0.215906 -0.132623 -9.98807 
-9.96423 0.00377912 0.229542 
0.00377912 -9.98368 0.0473068 
0.229542 0.0473068 -9.97516 
-9.94273 7.92114e-05 0.2468 
7.92114e-05 -9.97001 0.053711 
0.2468 0.053711 -10.0103 
-9.95816 0.00211908 0.227403 
0.00211908 -9.97451 0.0510576 
0.227403 0.0510576 -9.9904 
-9.95552 0.0102643 0.224526 
0.0102643 -9.98405 0.0335301 
0.224526 0.0335301 -9.98351 
-10.6785 0.0932671 -0.0512854 
0.0932671 -10.7196 -0.0109246 
-0.0512854 -0.0109246 -10.4909 
-10.5208 0.0330165 -0.0475527 
0.0330165 -10.6861 -0.0142519 
-0.0475527 -0.0142519 -10.6822 
-10.4616 0.0116299 -0.112449 
0.0116299 -10.4828 0.0805997 
-0.112449 0.0805997 -10.9447 
-10.5852 -0.0492813 0.0804613 
-0.0492813 -10.5635 -0.095274 
0.0804613 -0.095274 -10.7403 
-9.84501 0.00981062 0.132874 
0.00981062 -9.87032 -0.192786 
0.132874 -0.192786 -9.88004 
-9.84587 -0.03592 0.12112 
-0.03592 -9.84693 -0.166335 
0.12112 -0.166335 -9.90257 
-9.85818 0.000995148 0.126341 
0.000995148 -9.85689 -0.187992 
0.126341 -0.187992 -9.88029 
-9.85591 -0.00612844 0.144357 
-0.00612844 -9.8358 -0.186223 
0.144357 -0.186223 -9.90367 
-8.5357 2.23231 -2.25435 
2.23231 -17.4692 -6.19985 
-2.25435 -6.19985 5.67477 
-7.27704 -2.15263 1.36664 
-2.15263 -17.2467 -6.01414 
1.36664 -6.01414 4.19362 
1.66933 0.0315777 1.08957 
0.0315777 -2.51937 4.36976 
1.08957 4.36976 -19.4801 
-10.2177 1.1104 0.97768 
1.1104 2.29087 -13.8266 
0.97768 -13.8266 -12.4033 
-14.7074 -1.82587 -0.629259 
-1.82587 -16.1582 1.256 
-0.629259 1.256 -18.6339 
-12.0884 -0.250487 -1.98785 
-0.250487 -12.901 1.92526 
-1.98785 1.92526 -24.5102 
-15.3371 0.667319 0.438294 
0.667319 -10.6969 2.05166 
0.438294 2.05166 -23.4656 
-14.2565 -0.924634 1.23444 
-0.924634 -15.9974 -0.649674 
1.23444 -0.649674 -19.2457 
-9.83374 0.183079 0.00131274 
0.183079 -9.70233 -0.137927 
0.00131274 -0.137927 -10.3758 
-9.88304 0.196571 0.202863 
0.196571 -9.75034 0.205776 
0.202863 0.205776 -10.2785 
-9.922 0.161649 -0.0237936 
0.161649 -9.65534 -0.154433 
-0.0237936 -0.154433 -10.3345 
-9.89878 0.0873064 -0.0905528 
0.0873064 -9.78479 -0.156016 
-0.0905528 -0.156016 -10.2283 
-9.9581 0.00148059 0.196753 
0.00148059 -9.95067 -0.128928 
0.196753 -0.128928 -10.0097 
-9.96102 -0.0201273 0.199442 
-0.0201273 -9.95857 -0.141148 
0.199442 -0.141148 -9.99886 
-9.95872 -0.0194344 0.203982 
-0.0194344 -9.96077 -0.146419 
0.203982 -0.146419 -9.99897 
-9.97082 -0.0137595 0.201811 
-0.0137595 -9.95626 -0.15064 
0.201811 -0.15064 -9.99137 
-10.1875 -0.102468 0.0221945 
-0.102468 -10.213 0.0277372 
0.0221945 0.0277372 -10.3109 
-10.4178 0.00784549 -0.0163425 
0.00784549 -10.285 0.0071944 
-0.0163425 0.0071944 -10.0086 
-10.1884 0.0279523 0.0710372 
0.0279523 -10.1085 0.152361 
0.0710372 0.152361 -10.4146 
-10.2418 0.11527 -0.200108 
0.11527 -10.1579 0.145021 
-0.200108 0.145021 -10.3117 
-9.96426 0.0151058 0.0038073 
0.0151058 -9.9528 -0.0048891 
0.0038073 -0.0048891 -9.98309 
-9.9514 -0.0102516 0.0249827 
-0.0102516 -9.97839 -0.0107616 
0.0249827 -0.0107616 -9.97037 
-9.91335 -0.00383037 0.0033871 
-0.00383037 -10.0157 0.0145299 
0.0033871 0.0145299 -9.97106 
-10.001 0.0385071 -0.0101591 
0.0385071 -9.93859 -0.0202403 
-0.0101591 -0.0202403 -9.96054 
-9.97473 0.00320365 0.230834 
0.00320365 -9.99083 0.0799291 
0.230834 0.0799291 -9.99746 
-9.95246 -0.00719909 0.213296 
-0.00719909 -9.98594 0.0723295 
0.213296 0.0723295 -10.0246 
-9.99217 0.00726403 0.23578 
0.00726403 -9.99635 0.0826376 
0.23578 0.0826376 -9.9745 
-9.95527 0.0191794 0.250816 
0.0191794 -10.0009 0.0751082 
0.250816 0.0751082 -10.0068 
-9.64857 0.0102518 0.263445 
0.0102518 -9.73859 -0.018734 
0.263445 -0.018734 -9.81101 
-9.57919 -0.0255377 0.235481 
-0.0255377 -9.79134 -0.0868643 
0.235481 -0.0868643 -9.82764 
-9.53019 -0.0238734 0.14884 
-0.0238734 -9.79962 0.0115866 
0.14884 0.0115866 -9.86836 
-9.41742 -0.0489076 0.303143 
-0.0489076 -9.9204 0.00476356 
0.303143 0.00476356 -9.86036 
-9.82747 -0.0050242 0.255126 
-0.0050242 -9.90222 -0.064356 
0.255126 -0.064356 -9.96213 
-9.90829 -0.00523189 0.2335 
-0.00523189 -9.88149 -0.0532163 
0.2335 -0.0532163 -9.90205 
-9.92548 -0.0128127 0.241626 
-0.0128127 -9.88745 -0.0415385 
0.241626 -0.0415385 -9.87889 
-9.87486 -0.04 0.205925 
-0.04 -9.90582 -0.0796728 
0.205925 -0.0796728 -9.91114 
-9.4933 0.0762639 0.0488844 
0.0762639 -9.72429 -0.0612333 
0.0488844 -0.0612333 -10.1785 
-9.59654 0.117245 0.182424 
0.117245 -9.92798 0.0652939 
0.182424 0.0652939 -9.8716 
-9.77588 0.0699583 0.0564698 
0.0699583 -9.99071 0.0951916 
0.0564698 0.0951916 -9.62953 
-9.64425 0.0878654 0.197483 
0.0878654 -9.80465 0.085335 
0.197483 0.085335 -9.94721 
-9.57845 -0.27712 -0.503349 
-0.27712 -9.96792 0.235745 
-0.503349 0.235745 -11.9017 
-9.87663 0.381107 0.450745 
0.381107 -11.0549 -0.136212 
0.450745 -0.136212 -10.5166 
-11.2933 0.801887 0.786595 
0.801887 -10.7424 0.0711402 
0.786595 0.0711402 -9.4124 
-9.41879 0.181015 0.831284 
0.181015 -10.9703 -0.255533 
0.831284 -0.255533 -11.059 
-9.86223 -0.0164072 -0.204954 
-0.0164072 -9.8841 0.0898552 
-0.204954 0.0898552 -9.91478 
-9.85368 -0.0121672 -0.209676 
-0.0121672 -9.87844 0.0913741 
-0.209676 0.0913741 -9.929 
-9.86951 -0.0254426 -0.210349 
-0.0254426 -9.87779 0.0869711 
-0.210349 0.0869711 -9.91381 
-9.86778 -0.0331794 -0.222008 
-0.0331794 -9.88808 0.0830822 
-0.222008 0.0830822 -9.90525 
-10.0608 -0.0029764 0.00247475 
-0.0029764 -10.0234 -0.022364 
0.00247475 -0.022364 -10.0743 
-10.0279 0.023456 0.0385263 
0.023456 -10.0393 0.0518776 
0.0385263 0.0518776 -10.0913 
-10.0364 0.0332299 -0.0159791 
0.0332299 -10.074 0.0232921 
-0.0159791 0.0232921 -10.0482 
-10.0008 -0.000336531 0.0119219 
-0.000336531 -10.0603 -0.00703952 
0.0119219 -0.00703952 -10.0975 
-10.082 0.0155835 0.0175904 
0.0155835 -10.0773 -0.0109717 
0.0175904 -0.0109717 -10.0675 
-10.0903 0.0196581 0.00698848 
0.0196581 -10.0695 0.00543874 
0.00698848 0.00543874 -10.0671 
-10.0391 0.0264004 0.0135813 
0.0264004 -10.0566 0.0424805 
0.0135813 0.0424805 -10.1311 
-10.0952 0.0162334 -0.00882742 
0.0162334 -10.0948 -0.00474819 
-0.00882742 -0.00474819 -10.0369 
-9.78747 0.0685804 0.0918765 
0.0685804 -9.79309 0.143225 
0.0918765 0.143225 -9.93639 
-9.82672 -0.0186112 0.0940815 
-0.0186112 -9.82967 0.101769 
0.0940815 0.101769 -9.86056 
-9.81897 0.0395896 0.070206 
0.0395896 -9.83538 0.12007 
0.070206 0.12007 -9.8626 
-9.79107 -0.000779638 0.0727748 
-0.000779638 -9.84603 0.101241 
0.0727748 0.101241 -9.87985 
-9.98138 -0.00384992 0.0729645 
-0.00384992 -9.96234 -0.222804 
0.0729645 -0.222804 -9.97919 
-9.96638 0.0013393 0.0770705 
0.0013393 -9.96382 -0.225533 
0.0770705 -0.225533 -9.99272 
-9.96591 -0.00309555 0.069725 
-0.00309555 -9.94962 -0.217046 
0.069725 -0.217046 -10.0074 
-9.98256 -0.00723518 0.0708121 
-0.00723518 -9.9667 -0.227504 
0.0708121 -0.227504 -9.97366 
-9.82962 0.0234173 -0.189456 
0.0234173 -9.85548 -0.108557 
-0.189456 -0.108557 -9.90311 
-9.82676 0.0125259 -0.193097 
0.0125259 -9.85141 -0.112911 
-0.193097 -0.112911 -9.91005 
-9.83176 0.0108024 -0.222375 
0.0108024 -9.84676 -0.0987635 
-0.222375 -0.0987635 -9.9097 
-9.82462 0.0146798 -0.203177 
0.0146798 -9.85534 -0.108651 
-0.203177 -0.108651 -9.90826 
-10.0415 -0.0624194 0.0373284 
-0.0624194 -10.1594 0.0255229 
0.0373284 0.0255229 -10.0794 
-10.0815 -0.0144097 -0.0384698 
-0.0144097 -10.0889 -0.00717039 
-0.0384698 -0.00717039 -10.1099 
-10.1725 -0.0105668 0.0906507 
-0.0105668 -9.97118 0.0100068 
0.0906507 0.0100068 -10.1366 
-9.97773 -0.0803992 0.00243927 
-0.0803992 -10.1288 -0.00672379 
0.00243927 -0.00672379 -10.1737 
-9.83151 -0.0242282 -0.110982 
-0.0242282 -9.89727 -0.0968231 
-0.110982 -0.0968231 -9.87708 
-9.85223 0.0959556 -0.0526919 
0.0959556 -9.78429 -0.0460682 
-0.0526919 -0.0460682 -9.96934 
-9.82034 -0.0155669 -0.0938213 
-0.0155669 -9.9422 -0.0912498 
-0.0938213 -0.0912498 -9.84332 
-9.77702 0.0556477 -0.0814791 
0.0556477 -9.86714 -0.17269 
-0.0814791 -0.17269 -9.9617 
-9.91313 0.0317461 0.0422977 
0.0317461 -9.80203 -0.0404114 
0.0422977 -0.0404114 -10.0092 
-9.98087 -0.0720608 -0.0281994 
-0.0720608 -9.77221 0.0283419 
-0.0281994 0.0283419 -9.97132 
-9.96218 0.0181024 -0.0662849 
0.0181024 -9.83885 0.00816275 
-0.0662849 0.00816275 -9.92337 
-9.95494 -0.0452104 0.00959231 
-0.0452104 -9.81281 0.00596457 
0.00959231 0.00596457 -9.95664 
-9.97093 0.000836796 0.212728 
0.000836796 -9.97375 -0.108933 
0.212728 -0.108933 -9.97873 
-9.9495 0.0101099 0.214935 
0.0101099 -9.95995 -0.120717 
0.214935 -0.120717 -10.014 
-9.96989 0.00702184 0.210792 
0.00702184 -9.9667 -0.10913 
0.210792 -0.10913 -9.98682 
-9.97183 -0.00309355 0.206933 
-0.00309355 -9.98045 -0.104099 
0.206933 -0.104099 -9.97113 
-9.90353 0.0142902 -0.0859166 
0.0142902 -9.88874 -0.223205 
-0.0859166 -0.223205 -9.92107 
-9.89844 0.010339 -0.0834665 
0.010339 -9.88111 -0.239659 
-0.0834665 -0.239659 -9.93378 
-9.89667 0.00954715 -0.0859621 
0.00954715 -9.89346 -0.236488 
-0.0859621 -0.236488 -9.92321 
-9.90984 0.0228983 -0.0986719 
0.0228983 -9.88324 -0.231511 
-0.0986719 -0.231511 -9.92026 
-9.96641 -0.017084 0.130564 
-0.017084 -9.94133 -0.197257 
0.130564 -0.197257 -9.96033 
-9.95602 -0.00366544 0.139694 
-0.00366544 -9.94306 -0.206737 
0.139694 -0.206737 -9.96899 
-9.94894 0.00124316 0.149463 
0.00124316 -9.96211 -0.20964 
0.149463 -0.20964 -9.95701 
-9.95241 0.00738163 0.152673 
0.00738163 -9.94811 -0.209152 
0.152673 -0.209152 -9.96754 
-9.951 -0.0140188 -0.0960432 
-0.0140188 -9.94283 0.226106 
-0.0960432 0.226106 -9.95222 
-9.94647 -0.00383867 -0.0945215 
-0.00383867 -9.94885 0.239127 
-0.0945215 0.239127 -9.95072 
-9.94278 -0.00174724 -0.097154 
-0.00174724 -9.94783 0.236457 
-0.097154 0.236457 -9.95544 
-9.9359 -0.00541761 -0.0981743 
-0.00541761 -9.94933 0.246693 
-0.0981743 0.246693 -9.96082 
-9.98237 -0.00290378 -0.247028 
-0.00290378 -9.99826 -0.00396185 
-0.247028 -0.00396185 -9.97388 
-9.96491 0.00426715 -0.252541 
0.00426715 -9.976 -0.00365134 
-0.252541 -0.00365134 -10.0136 
-9.97532 -0.00167669 -0.239982 
-0.00167669 -9.9834 -0.00489033 
-0.239982 -0.00489033 -9.99578 
-9.97484 -0.00365944 -0.23876 
-0.00365944 -9.99914 0.00790984 
-0.23876 0.00790984 -9.98053 
-9.97118 -0.00302378 0.0355145 
-0.00302378 -9.94216 0.215909 
0.0355145 0.215909 -10.0378 
-9.99902 -0.012209 0.04808 
-0.012209 -9.98686 0.23587 
0.04808 0.23587 -9.96523 
-10.0029 -0.000772798 0.0505407 
-0.000772798 -9.9809 0.237087 
0.0505407 0.237087 -9.96734 
-10.0104 0.00565965 0.0571683 
0.00565965 -9.97087 0.257349 
0.0571683 0.257349 -9.96982 
-1.59957 0.574143 2.54798 
0.574143 -1.66122 -1.70891 
2.54798 -1.70891 -6.62068 
-6.02462 -0.125702 -0.128308 
-0.125702 -6.30852 -0.169286 
-0.128308 -0.169286 2.45166 
-5.72562 -0.5001 0.985066 
-0.5001 -5.5268 0.779197 
0.985066 0.779197 1.37095 
-6.50117 0.808512 4.34846 
0.808512 -5.51435 -0.775774 
4.34846 -0.775774 2.13405 
-12.713 0.150655 -0.234633 
0.150655 -11.7037 -0.637567 
-0.234633 -0.637567 -11.9059 
-10.8599 -0.891199 0.967286 
-0.891199 -9.98529 -1.19393 
0.967286 -1.19393 -15.4773 
-10.8194 0.0962616 0.359071 
0.0962616 -11.7697 -0.176609 
0.359071 -0.176609 -13.7335 
-12.546 -0.373209 0.211575 
-0.373209 -11.7071 0.0800658 
0.211575 0.0800658 -12.0695 
-9.77582 0.111127 -0.584475 
0.111127 -10.1591 0.0841513 
-0.584475 0.0841513 -10.3717 
-8.79127 -0.221802 -0.850369 
-0.221802 -10.3562 -0.0164885 
-0.850369 -0.0164885 -11.1591 
-8.85933 0.330372 -0.163705 
0.330372 -10.6616 0.0987169 
-0.163705 0.0987169 -10.7857 
-9.23333 0.0568088 -0.571479 
0.0568088 -10.5622 -0.0643425 
-0.571479 -0.0643425 -10.5111 
-9.92887 -0.00439016 -0.0653127 
-0.00439016 -9.94895 -0.235821 
-0.0653127 -0.235821 -9.89908 
-9.93023 0.00936009 -0.055186 
0.00936009 -9.8974 -0.261368 
-0.055186 -0.261368 -9.94927 
-9.91893 -0.00604821 -0.0520533 
-0.00604821 -9.92476 -0.245448 
-0.0520533 -0.245448 -9.93322 
-9.92739 -0.0100932 -0.0484317 
-0.0100932 -9.90042 -0.238994 
-0.0484317 -0.238994 -9.9491 
-9.20432 -0.61188 -1.86434 
-0.61188 -8.69298 0.236779 
-1.86434 0.236779 -10.3355 
-8.7211 -0.368102 -1.24036 
-0.368102 -9.53387 0.158471 
-1.24036 0.158471 -9.97787 
-9.92168 0.523448 -0.361466 
0.523448 -10.0968 0.436255 
-0.361466 0.436255 -8.21437 
-8.05244 -0.709304 -0.841972 
-0.709304 -8.82116 -0.12363 
-0.841972 -0.12363 -11.3592 
-9.77725 -0.0303416 0.0522128 
-0.0303416 -9.43887 -0.406415 
0.0522128 -0.406415 -9.33064 
-9.86225 0.010692 0.124233 
0.010692 -9.36577 -0.274857 
0.124233 -0.274857 -9.31874 
-9.91034 -0.0667948 0.190564 
-0.0667948 -9.41861 -0.408543 
0.190564 -0.408543 -9.2178 
-9.87527 -0.164808 0.104877 
-0.164808 -9.46568 -0.355851 
0.104877 -0.355851 -9.20581 
-9.8535 -0.0243052 0.0659073 
-0.0243052 -9.82381 -0.222794 
0.0659073 -0.222794 -9.87041 
-9.83449 0.00287377 0.0649125 
0.00287377 -9.85759 -0.234757 
0.0649125 -0.234757 -9.85565 
-9.84284 -0.00708589 0.0646784 
-0.00708589 -9.83512 -0.234932 
0.0646784 -0.234932 -9.86977 
-9.84103 -0.00802241 0.0755999 
-0.00802241 -9.83392 -0.243891 
0.0755999 -0.243891 -9.87277 
-9.83643 0.132409 0.0728793 
0.132409 -9.71913 0.119574 
0.0728793 0.119574 -9.95727 
-9.77794 -0.00824699 0.0541852 
-0.00824699 -9.90307 0.104344 
0.0541852 0.104344 -9.83182 
-9.83263 0.0329282 0.0779672 
0.0329282 -9.80303 0.137999 
0.0779672 0.137999 -9.87717 
-9.81113 0.0124566 0.102425 
0.0124566 -9.80385 0.177055 
0.102425 0.177055 -9.89785 
-9.97245 0.00528023 0.171139 
0.00528023 -9.96392 0.163427 
0.171139 0.163427 -9.97816 
-9.95576 0.00184243 0.183656 
0.00184243 -9.94705 0.166327 
0.183656 0.166327 -10.0117 
-9.96502 -0.00849194 0.171529 
-0.00849194 -9.96048 0.162339 
0.171529 0.162339 -9.98903 
-9.97134 0.00686371 0.165902 
0.00686371 -9.97211 0.160231 
0.165902 0.160231 -9.97109 
-10.0087 0.00161548 -0.0154908 
0.00161548 -10.0159 0.00390347 
-0.0154908 0.00390347 -9.98242 
-10.0064 -0.0267847 -0.0109138 
-0.0267847 -10.0095 -0.0104703 
-0.0109138 -0.0104703 -9.9911 
-10.0112 0.0463881 0.00811966 
0.0463881 -9.96627 -0.001192 
0.00811966 -0.001192 -10.0295 
-10.0039 -0.0123692 0.0077287 
-0.0123692 -10.0126 0.00691365 
0.0077287 0.00691365 -9.99052 
-9.83188 0.0104933 -0.0573916 
0.0104933 -9.86693 0.239093 
-0.0573916 0.239093 -9.84808 
-9.84251 -0.0108973 -0.070835 
-0.0108973 -9.83008 0.233019 
-0.070835 0.233019 -9.87432 
-9.84229 -0.0206297 -0.0599209 
-0.0206297 -9.82389 0.222496 
-0.0599209 0.222496 -9.88072 
-9.83757 -0.0119389 -0.0729643 
-0.0119389 -9.82956 0.244491 
-0.0729643 0.244491 -9.87976 
-9.97109 0.0133513 -0.0880735 
0.0133513 -9.93052 -0.222184 
-0.0880735 -0.222184 -9.96333 
-9.93923 -0.000293784 -0.109018 
-0.000293784 -9.96258 -0.232465 
-0.109018 -0.232465 -9.96313 
-9.9523 0.00271883 -0.0981398 
0.00271883 -9.94101 -0.227577 
-0.0981398 -0.227577 -9.97163 
-9.94881 -0.00270205 -0.110721 
-0.00270205 -9.95085 -0.231707 
-0.110721 -0.231707 -9.96527 
-10.0174 0.0514565 0.112176 
0.0514565 -9.92148 0.0337573 
0.112176 0.0337573 -10.1099 
-9.95459 0.0601731 -0.0087833 
0.0601731 -9.91381 -0.00620898 
-0.0087833 -0.00620898 -10.1803 
-9.99849 0.0612092 -0.0244248 
0.0612092 -10.0098 0.0281347 
-0.0244248 0.0281347 -10.0404 
-9.9775 0.116241 -0.0100476 
0.116241 -9.97837 0.042362 
-0.0100476 0.042362 -10.0928 
-9.71432 -0.0124767 -0.173944 
-0.0124767 -9.82773 0.0385599 
-0.173944 0.0385599 -9.87608 
-9.68762 -0.0496302 -0.128898 
-0.0496302 -9.89339 0.0520476 
-0.128898 0.0520476 -9.83712 
-9.88364 0.0012222 -0.134353 
0.0012222 -9.76202 -0.00311438 
-0.134353 -0.00311438 -9.77246 
-9.72092 0.0458445 -0.170658 
0.0458445 -9.84587 0.0299614 
-0.170658 0.0299614 -9.85134 
-11.0697 -0.129949 0.0107746 
-0.129949 -11.0762 0.145089 
0.0107746 0.145089 -10.9198 
-10.6701 -0.243358 -0.293599 
-0.243358 -10.6986 0.0489887 
-0.293599 0.0489887 -11.6969 
-10.922 -0.0786749 0.0101723 
-0.0786749 -11.2271 0.0991998 
0.0101723 0.0991998 -10.9166 
-11.0838 -0.0896408 -0.0465584 
-0.0896408 -11.0887 0.136744 
-0.0465584 0.136744 -10.8931 
-9.89614 -0.0585244 0.00760654 
-0.0585244 -9.90825 -0.0112814 
0.00760654 -0.0112814 -9.93085 
-9.86912 -0.0174381 0.00132841 
-0.0174381 -9.93379 -0.014363 
0.00132841 -0.014363 -9.93233 
-9.87725 -0.0681289 0.0154616 
-0.0681289 -9.88613 -0.0352027 
0.0154616 -0.0352027 -9.97186 
-9.82766 -0.0552908 -0.00989273 
-0.0552908 -9.92088 0.011606 
-0.00989273 0.011606 -9.9867 
-9.9715 -0.0203426 0.0042888 
-0.0203426 -9.80063 0.0509066 
0.0042888 0.0509066 -9.94175 
-9.93457 -0.00487259 -0.00288506 
-0.00487259 -9.86877 -0.00630316 
-0.00288506 -0.00630316 -9.91054 
-9.85457 -0.0168944 -0.00381115 
-0.0168944 -10.0206 0.00596632 
-0.00381115 0.00596632 -9.8387 
-9.92 0.0180589 0.0204076 
0.0180589 -9.86858 -0.0192341 
0.0204076 -0.0192341 -9.92531 
-9.97341 0.0135837 -0.188247 
0.0135837 -9.98126 0.161188 
-0.188247 0.161188 -10.0025 
-9.98695 -0.000246383 -0.175202 
-0.000246383 -9.9825 0.160754 
-0.175202 0.160754 -9.98768 
-9.98781 -0.000755352 -0.176475 
-0.000755352 -9.98672 0.16364 
-0.176475 0.16364 -9.9826 
-9.98105 -0.00122717 -0.179813 
-0.00122717 -9.98799 0.163415 
-0.179813 0.163415 -9.98809 
-9.91829 -0.0200894 0.244193 
-0.0200894 -9.95994 -0.00803671 
0.244193 -0.00803671 -9.90956 
-9.93011 -0.00348735 0.248338 
-0.00348735 -9.90836 -0.0236147 
0.248338 -0.0236147 -9.94933 
-9.91344 0.00188155 0.250452 
0.00188155 -9.92676 -0.0261125 
0.250452 -0.0261125 -9.9476 
-9.92713 -0.00679228 0.256761 
-0.00679228 -9.9402 -0.0224035 
0.256761 -0.0224035 -9.92046 
-9.9386 -0.00263821 0.258052 
-0.00263821 -9.93622 0.0084706 
0.258052 0.0084706 -9.90278 
-9.9199 -0.00148196 0.255395 
-0.00148196 -9.9289 0.011425 
0.255395 0.011425 -9.9288 
-9.91606 -0.00171574 0.257848 
-0.00171574 -9.92653 0.0123989 
0.257848 0.0123989 -9.935 
-9.91473 -0.00739702 0.254813 
-0.00739702 -9.935 0.0139088 
0.254813 0.0139088 -9.92786 
-9.9829 0.00602326 -0.0460253 
0.00602326 -9.96913 -0.235676 
-0.0460253 -0.235676 -9.99127 
-9.98032 -0.00507035 -0.0541722 
-0.00507035 -9.97218 -0.241423 
-0.0541722 -0.241423 -9.9908 
-9.99031 0.0088914 -0.0474997 
0.0088914 -9.96808 -0.245793 
-0.0474997 -0.245793 -9.9849 
-9.98942 0.00705044 -0.0528095 
0.00705044 -9.97477 -0.245268 
-0.0528095 -0.245268 -9.97911 
-10.3197 0.0625214 0.0831815 
0.0625214 -9.95602 -0.0212539 
0.0831815 -0.0212539 -9.99046 
-10.1742 -0.00361391 0.0526035 
-0.00361391 -10.1409 0.0365577 
0.0526035 0.0365577 -9.95113 
-9.89775 0.10635 -0.0741634 
0.10635 -10.0039 -0.177619 
-0.0741634 -0.177619 -10.3646 
-10.1685 -0.0315696 -0.0331735 
-0.0315696 -10.0957 0.0307607 
-0.0331735 0.0307607 -10.002 
-9.81232 -0.0239616 -0.0222867 
-0.0239616 -9.69378 0.177332 
-0.0222867 0.177332 -9.83185 
-9.72083 0.0104429 -0.0290406 
0.0104429 -9.88131 0.100478 
-0.0290406 0.100478 -9.73581 
-9.83801 -0.059739 -0.0193465 
-0.059739 -9.64198 0.131886 
-0.0193465 0.131886 -9.85796 
-9.8052 0.0471755 -0.0114099 
0.0471755 -9.71178 0.157405 
-0.0114099 0.157405 -9.82097 
-9.92811 0.065504 -0.00786928 
0.065504 -9.904 0.00661947 
-0.00786928 0.00661947 -10.0495 
-9.96828 0.0149237 -0.0217271 
0.0149237 -9.92955 0.010785 
-0.0217271 0.010785 -9.98375 
-9.96341 0.013166 -0.0150914 
0.013166 -9.93007 -0.00274655 
-0.0150914 -0.00274655 -9.98811 
-9.96683 0.00999074 -0.0330938 
0.00999074 -9.93458 -0.019348 
-0.0330938 -0.019348 -9.98017 
-9.9844 -0.00178925 -0.136019 
-0.00178925 -9.98436 0.206383 
-0.136019 0.206383 -9.9779 
-9.97778 0.000127638 -0.1269 
0.000127638 -9.97152 0.209888 
-0.1269 0.209888 -9.99736 
-9.97566 0.0111066 -0.131433 
0.0111066 -9.97224 0.215957 
-0.131433 0.215957 -9.99877 
-9.98052 0.000702014 -0.13121 
0.000702014 -9.97955 0.209049 
-0.13121 0.209049 -9.9866 
-9.79909 -0.0632778 0.0390168 
-0.0632778 -9.76906 -0.144715 
0.0390168 -0.144715 -9.8915 
-9.88412 -0.0717276 0.0285629 
-0.0717276 -9.69706 -0.118869 
0.0285629 -0.118869 -9.87848 
-9.77421 -0.0145736 0.0589795 
-0.0145736 -9.84648 -0.131415 
0.0589795 -0.131415 -9.83897 
-9.77103 -0.099516 0.0379082 
-0.099516 -9.80287 -0.150313 
0.0379082 -0.150313 -9.88575 
-9.74855 -0.0152685 0.0456194 
-0.0152685 -9.7895 -0.198753 
0.0456194 -0.198753 -9.80356 
-9.78142 -0.0567812 0.0537878 
-0.0567812 -9.72297 -0.149437 
0.0537878 -0.149437 -9.83721 
-9.75729 0.0153273 0.0450932 
0.0153273 -9.82628 -0.191034 
0.0450932 -0.191034 -9.75803 
-9.75787 -0.0207796 0.0740662 
-0.0207796 -9.7507 -0.199999 
0.0740662 -0.199999 -9.83304 
-9.84316 0.0577667 0.0204912 
0.0577667 -9.70353 -0.0629281 
0.0204912 -0.0629281 -10.0363 
-9.92366 0.0182669 -0.0273087 
0.0182669 -9.71167 -0.0942882 
-0.0273087 -0.0942882 -9.94762 
-9.73669 0.0424724 -0.0282887 
0.0424724 -10.0243 -0.0201223 
-0.0282887 -0.0201223 -9.82194 
-9.9099 0.0860174 -0.0361767 
0.0860174 -9.79285 -0.178563 
-0.0361767 -0.178563 -9.8802 
-9.9953 -0.0378004 0.0223919 
-0.0378004 -10.0942 -0.0314796 
0.0223919 -0.0314796 -10.029 
-9.92336 -0.128549 0.0226723 
-0.128549 -10.0685 0.0861964 
0.0226723 0.0861964 -10.1266 
-10.0582 0.0993296 0.00277788 
0.0993296 -10.0071 0.0890704 
0.00277788 0.0890704 -10.0533 
-9.99363 0.036206 0.0196746 
0.036206 -10.0882 -0.0851385 
0.0196746 -0.0851385 -10.0368 
-9.95038 -0.00292593 0.129787 
-0.00292593 -9.95909 -0.211845 
0.129787 -0.211845 -9.99973 
-9.96406 -0.0128738 0.135994 
-0.0128738 -9.95849 -0.205886 
0.135994 -0.205886 -9.98664 
-9.96708 -0.00204065 0.130404 
-0.00204065 -9.9532 -0.197699 
0.130404 -0.197699 -9.98892 
-9.96989 -0.00572565 0.12849 
-0.00572565 -9.96574 -0.201127 
0.12849 -0.201127 -9.97357 
-9.77291 -0.00156138 0.217196 
-0.00156138 -9.75618 -0.023713 
0.217196 -0.023713 -9.76179 
-9.6475 0.0562021 0.13598 
0.0562021 -9.82774 0.0201264 
0.13598 0.0201264 -9.81565 
-9.81987 -0.0458428 0.201621 
-0.0458428 -9.75107 0.0101424 
0.201621 0.0101424 -9.71994 
-9.67487 0.00857853 0.211757 
0.00857853 -9.78462 0.0531945 
0.211757 0.0531945 -9.83139 
-10.051 0.0152802 -0.0108729 
0.0152802 -10.1161 -0.0179633 
-0.0108729 -0.0179633 -10.1058 
-10.0786 -0.00488561 0.00122157 
-0.00488561 -10.0812 0.00192893 
0.00122157 0.00192893 -10.1131 
-10.1128 -0.0332092 0.0306186 
-0.0332092 -10.0834 -0.0190602 
0.0306186 -0.0190602 -10.0767 
-10.0941 -0.0233572 0.0207679 
-0.0233572 -10.0532 -0.00479306 
0.0207679 -0.00479306 -10.1256 
-9.57106 0.0388361 -0.0633976 
0.0388361 -9.93744 0.0211936 
-0.0633976 0.0211936 -9.92147 
-9.75482 0.0153207 -0.14486 
0.0153207 -9.8161 -0.0443294 
-0.14486 -0.0443294 -9.85904 
-9.98961 -0.0250718 -0.120659 
-0.0250718 -9.70655 -0.0107844 
-0.120659 -0.0107844 -9.7338 
-9.71602 0.0102694 -0.22403 
0.0102694 -9.81361 0.000261536 
-0.22403 0.000261536 -9.90034 
-10.3665 0.675462 -0.0192478 
0.675462 -10.3604 0.169151 
-0.0192478 0.169151 -11.2738 
-10.451 0.498117 0.075168 
0.498117 -10.5034 0.0980718 
0.075168 0.0980718 -11.0463 
-10.4985 0.291612 -0.126126 
0.291612 -10.3682 0.326682 
-0.126126 0.326682 -11.134 
-10.2894 0.205928 0.0656904 
0.205928 -10.6027 -0.204522 
0.0656904 -0.204522 -11.1086 
-9.92699 -0.00943199 -0.150026 
-0.00943199 -9.92185 0.207155 
-0.150026 0.207155 -9.95421 
-9.92108 -0.00688137 -0.133709 
-0.00688137 -9.93258 0.190236 
-0.133709 0.190236 -9.94939 
-9.93762 -0.0195121 -0.127205 
-0.0195121 -9.93454 0.186052 
-0.127205 0.186052 -9.93089 
-9.92317 -0.0140788 -0.136101 
-0.0140788 -9.92761 0.202488 
-0.136101 0.202488 -9.95228 
-9.9606 -0.00298384 -0.250538 
-0.00298384 -9.94905 0.0224149 
-0.250538 0.0224149 -9.95557 
-9.95325 0.00223576 -0.255363 
0.00223576 -9.97463 0.00847099 
-0.255363 0.00847099 -9.93734 
-9.93107 0.002953 -0.247284 
0.002953 -9.95744 0.0074378 
-0.247284 0.0074378 -9.97671 
-9.95642 -0.00200324 -0.251118 
-0.00200324 -9.95296 0.0157611 
-0.251118 0.0157611 -9.95584 
-10.0259 0.0034795 -0.0120401 
0.0034795 -9.98888 0.0147513 
-0.0120401 0.0147513 -10.0202 
-10.03 0.00272075 -0.00985252 
0.00272075 -10.0081 0.00163569 
-0.00985252 0.00163569 -9.99684 
-9.97796 0.0135959 -0.0221503 
0.0135959 -10.0471 0.0150488 
-0.0221503 0.0150488 -10.0099 
-9.97001 -0.0193911 0.00643843 
-0.0193911 -10.0498 -0.0179872 
0.00643843 -0.0179872 -10.0151 
-9.88339 -0.0323284 -0.0240411 
-0.0323284 -9.91014 0.0622284 
-0.0240411 0.0622284 -9.94426 
-9.91288 -0.0911571 -0.00406049 
-0.0911571 -9.81339 0.0515951 
-0.00406049 0.0515951 -10.0115 
-9.89185 -0.0609198 -0.0295698 
-0.0609198 -9.87197 0.085093 
-0.0295698 0.085093 -9.97398 
-9.89437 -0.0266532 -0.0200857 
-0.0266532 -9.89063 0.0694 
-0.0200857 0.0694 -9.95279 
-9.95519 -0.00497124 -0.0942399 
-0.00497124 -9.97305 -0.234217 
-0.0942399 -0.234217 -9.99215 
-9.96398 -0.00404661 -0.0882975 
-0.00404661 -9.95436 -0.231236 
-0.0882975 -0.231236 -10.0021 
-9.97642 0.00303814 -0.0992569 
0.00303814 -9.97611 -0.230509 
-0.0992569 -0.230509 -9.96787 
-9.96641 0.00314177 -0.092982 
0.00314177 -9.97279 -0.227925 
-0.092982 -0.227925 -9.98119 
-9.99762 -0.103015 -0.0168953 
-0.103015 -9.89315 0.0335723 
-0.0168953 0.0335723 -9.93201 
-9.85871 -0.0587371 0.042123 
-0.0587371 -9.92227 0.038302 
0.042123 0.038302 -10.0418 
-9.92928 -0.0145475 0.0208417 
-0.0145475 -9.88924 0.00669755 
0.0208417 0.00669755 -10.0043 
-9.93634 -0.027774 0.0227176 
-0.027774 -9.9022 0.00865017 
0.0227176 0.00865017 -9.98424 
-3.71975 0.248023 -0.470928 
0.248023 -4.03326 1.46465 
-0.470928 1.46465 -2.52589 
-4.77211 0.292224 0.035212 
0.292224 -2.9657 1.39328 
0.035212 1.39328 -2.54108 
-5.82149 -1.11206 0.557399 
-1.11206 -6.03876 0.346617 
0.557399 0.346617 1.58136 
-3.01126 0.488476 -0.987067 
0.488476 -3.58625 2.34751 
-0.987067 2.34751 -3.68138 
-9.99052 -0.016283 0.0329087 
-0.016283 -10.0759 0.00405476 
0.0329087 0.00405476 -10.0331 
-10.031 -0.00113041 0.00651429 
-0.00113041 -10.0267 -0.0256886 
0.00651429 -0.0256886 -10.0418 
-10.0528 -0.00163048 0.0117973 
-0.00163048 -10.0234 0.00480309 
0.0117973 0.00480309 -10.0233 
-10.038 0.00286422 0.00297165 
0.00286422 -10.0426 0.0057399 
0.00297165 0.0057399 -10.0189 
-11.401 0.522729 0.360187 
0.522729 -10.5229 0.999159 
0.360187 0.999159 -8.79582 
-10.3326 0.483688 0.540983 
0.483688 -8.88288 0.992146 
0.540983 0.992146 -11.5042 
-10.54 0.826646 -0.162371 
0.826646 -10.007 0.513693 
-0.162371 0.513693 -10.1726 
-10.1116 0.274379 0.220548 
0.274379 -10.0889 -0.0169391 
0.220548 -0.0169391 -10.5192 
-9.94455 -0.0115741 0.0518583 
-0.0115741 -9.95153 0.252431 
0.0518583 0.252431 -9.9802 
-9.96845 0.00988075 0.0454335 
0.00988075 -9.94084 0.249332 
0.0454335 0.249332 -9.967 
-9.96263 0.00346528 0.0386398 
0.00346528 -9.95199 0.237295 
0.0386398 0.237295 -9.96167 
-9.96678 0.00722534 0.044738 
0.00722534 -9.94354 0.249409 
0.044738 0.249409 -9.96597 
-9.7316 -0.0166384 0.202974 
-0.0166384 -9.7902 -0.0357776 
0.202974 -0.0357776 -9.81303 
-9.66844 -0.0198912 0.181722 
-0.0198912 -9.83738 -0.00751748 
0.181722 -0.00751748 -9.82901 
-9.84275 0.0277788 0.183079 
0.0277788 -9.70443 -0.0052243 
0.183079 -0.0052243 -9.78765 
-9.7305 0.0100588 0.241503 
0.0100588 -9.80292 -0.0196952 
0.241503 -0.0196952 -9.80141 
-9.96591 0.00274404 0.23097 
0.00274404 -9.9793 0.0634399 
0.23097 0.0634399 -9.97584 
-9.96061 0.00349158 0.225825 
0.00349158 -9.95842 0.0535397 
0.225825 0.0535397 -10.002 
-9.95691 0.00292442 0.237297 
0.00292442 -9.96686 0.0574942 
0.237297 0.0574942 -9.99727 
-9.96624 0.00800985 0.235147 
0.00800985 -9.98133 0.0714062 
0.235147 0.0714062 -9.97347 
-9.99832 0.00284352 0.202816 
0.00284352 -9.9961 -0.136147 
0.202816 -0.136147 -9.9549 
-9.96598 -0.0136113 0.213257 
-0.0136113 -10.0068 -0.141398 
0.213257 -0.141398 -9.97651 
-9.96161 -0.0184193 0.226453 
-0.0184193 -9.96514 -0.136407 
0.226453 -0.136407 -10.0226 
-9.98638 -0.0114848 0.196771 
-0.0114848 -9.99752 -0.148887 
0.196771 -0.148887 -9.96542 
-9.97097 -0.00515162 -0.0464211 
-0.00515162 -9.96402 0.238316 
-0.0464211 0.238316 -9.99568 
-9.97692 -0.00586036 -0.0573042 
-0.00586036 -9.96091 0.240672 
-0.0573042 0.240672 -9.99284 
-9.97538 -0.00493316 -0.0529453 
-0.00493316 -9.97158 0.2281 
-0.0529453 0.2281 -9.98371 
-9.97868 -0.00917173 -0.0481835 
-0.00917173 -9.97345 0.228196 
-0.0481835 0.228196 -9.97854 
-10.025 0.00214933 0.183314 
0.00214933 -10.0424 -0.0700505 
0.183314 -0.0700505 -9.9519 
-9.97178 0.00205556 0.184984 
0.00205556 -10.0061 -0.0431384 
0.184984 -0.0431384 -10.0415 
-10.0039 0.013433 0.192705 
0.013433 -10.0343 -0.07048 
0.192705 -0.07048 -9.9811 
-10.029 -0.00546753 0.208124 
-0.00546753 -10.0305 -0.076786 
0.208124 -0.076786 -9.95981 
-9.94924 -0.00182896 -0.0443898 
-0.00182896 -9.93855 0.235232 
-0.0443898 0.235232 -9.98235 
-9.95854 -0.00205905 -0.0514351 
-0.00205905 -9.9446 0.251485 
-0.0514351 0.251485 -9.967 
-9.96183 -0.0100953 -0.0449754 
-0.0100953 -9.94382 0.238035 
-0.0449754 0.238035 -9.96449 
-9.95939 -0.00794824 -0.0579819 
-0.00794824 -9.95714 0.250515 
-0.0579819 0.250515 -9.95361 
-9.95518 -0.00228992 -0.0233536 
-0.00228992 -9.95365 0.260488 
-0.0233536 0.260488 -9.95368 
-9.95772 0.00395518 -0.0122329 
0.00395518 -9.92552 0.255658 
-0.0122329 0.255658 -9.97926 
-9.96859 -2.04008e-05 -0.0187452 
-2.04008e-05 -9.95786 0.269886 
-0.0187452 0.269886 -9.93606 
-9.9542 0.000412145 -0.026626 
0.000412145 -9.95649 0.261928 
-0.026626 0.261928 -9.95181 
-9.77991 -0.075321 -0.0415708 
-0.075321 -9.80205 0.0104229 
-0.0415708 0.0104229 -10.2205 
-9.66949 -0.0639346 0.00799751 
-0.0639346 -9.87121 0.0145311 
0.00799751 0.0145311 -10.2618 
-9.82539 -0.0875061 0.0397384 
-0.0875061 -9.84159 0.010637 
0.0397384 0.010637 -10.1355 
-9.7272 -0.0426426 0.0027214 
-0.0426426 -9.84202 -0.0440578 
0.0027214 -0.0440578 -10.2333 
-12.1842 1.33115 0.819717 
1.33115 -10.9827 0.81123 
0.819717 0.81123 -12.2017 
-10.8734 1.4026 0.331093 
1.4026 -10.3381 1.33282 
0.331093 1.33282 -14.1571 
-11.7607 2.51912 0.946532 
2.51912 -10.5308 0.93111 
0.946532 0.93111 -13.077 
-11.6551 1.10125 2.25947 
1.10125 -10.8013 1.69721 
2.25947 1.69721 -12.9122 
-9.93859 -0.00318521 0.183926 
-0.00318521 -9.9358 -0.189543 
0.183926 -0.189543 -9.94699 
-9.9483 -0.046025 0.205321 
-0.046025 -9.92922 -0.211834 
0.205321 -0.211834 -9.94387 
-9.94761 -0.0170959 0.153311 
-0.0170959 -9.907 -0.190373 
0.153311 -0.190373 -9.96678 
-9.93257 -0.0077775 0.174107 
-0.0077775 -9.93657 -0.187885 
0.174107 -0.187885 -9.95225 
-9.59001 0.0234146 0.447495 
0.0234146 -10.0268 0.0122187 
0.447495 0.0122187 -9.76421 
-9.52998 -0.0533051 0.347666 
-0.0533051 -9.99536 -0.0875984 
0.347666 -0.0875984 -9.85564 
-9.67805 -0.0104648 0.284024 
-0.0104648 -9.85903 -6.9163e-05 
0.284024 -6.9163e-05 -9.84389 
-9.49061 -0.0295369 0.339779 
-0.0295369 -10.0287 -0.0216911 
0.339779 -0.0216911 -9.8617 
-9.72271 0.0184527 0.246831 
0.0184527 -9.80446 0.0264055 
0.246831 0.0264055 -9.8512 
-9.79476 -0.0104921 0.200392 
-0.0104921 -9.7783 0.0365227 
0.200392 0.0365227 -9.80531 
-9.79734 -0.0142212 0.202839 
-0.0142212 -9.79684 0.0281855 
0.202839 0.0281855 -9.7842 
-9.75104 -0.0138368 0.201606 
-0.0138368 -9.79066 0.00173821 
0.201606 0.00173821 -9.83667 
-9.93681 -0.00152919 0.00346287 
-0.00152919 -9.93669 -0.0062226 
0.00346287 -0.0062226 -9.96602 
-9.9135 -0.0254922 0.00203993 
-0.0254922 -9.94039 0.000565443 
0.00203993 0.000565443 -9.98563 
-9.93971 0.00164926 0.00243597 
0.00164926 -9.94292 -0.00594568 
0.00243597 -0.00594568 -9.95689 
-9.94381 0.00133861 0.015956 
0.00133861 -9.93727 -0.00681276 
0.015956 -0.00681276 -9.95843 
-15.4049 0.737071 1.19347 
0.737071 -14.4413 0.792476 
1.19347 0.792476 -14.3345 
-15.0021 1.55128 0.447553 
1.55128 -12.5022 1.69294 
0.447553 1.69294 -16.6764 
-11.671 0.579739 -1.3458 
0.579739 -10.8354 0.541882 
-1.3458 0.541882 -21.6743 
-15.9584 2.20726 -0.15021 
2.20726 -13.7854 3.83756 
-0.15021 3.83756 -14.4369 
-9.99303 0.00151883 -0.00251572 
0.00151883 -10.0003 -0.0149874 
-0.00251572 -0.0149874 -9.98093 
-9.99143 0.00139564 -0.0199231 
0.00139564 -9.99238 -0.0133415 
-0.0199231 -0.0133415 -9.99044 
-10.012 -0.0102384 -0.00825046 
-0.0102384 -9.97807 -0.00286073 
-0.00825046 -0.00286073 -9.98417 
-10.0226 0.0119579 -0.00198928 
0.0119579 -9.96618 -0.0283496 
-0.00198928 -0.0283496 -9.9855 
-9.88297 0.0805981 0.00924754 
0.0805981 -9.89875 -0.00260277 
0.00924754 -0.00260277 -10.0074 
-9.95014 0.0203273 0.0167708 
0.0203273 -9.88908 0.00373208 
0.0167708 0.00373208 -9.94988 
-9.96901 0.0209433 0.018515 
0.0209433 -9.8781 0.0078222 
0.018515 0.0078222 -9.94198 
-9.94132 0.00770106 0.0528024 
0.00770106 -9.90193 0.0331876 
0.0528024 0.0331876 -9.94585 
-9.79182 0.0363967 0.127811 
0.0363967 -9.7933 0.0847271 
0.127811 0.0847271 -9.87674 
-9.86909 -0.0480148 0.0720863 
-0.0480148 -9.79277 0.0719467 
0.0720863 0.0719467 -9.8 
-9.79675 0.0690889 0.0987644 
0.0690889 -9.79326 0.0614516 
0.0987644 0.0614516 -9.87185 
-9.77515 0.00512617 0.113723 
0.00512617 -9.82675 0.0522794 
0.113723 0.0522794 -9.85995 
-9.98451 0.000142899 0.232158 
0.000142899 -9.97595 -0.0925658 
0.232158 -0.0925658 -9.98471 
-9.97344 0.00576011 0.234865 
0.00576011 -9.97803 -0.0905245 
0.234865 -0.0905245 -9.99371 
-9.97822 0.00813666 0.242363 
0.00813666 -9.96534 -0.0933057 
0.242363 -0.0933057 -10.0016 
-9.98596 -0.00249264 0.229232 
-0.00249264 -9.98152 -0.094565 
0.229232 -0.094565 -9.97769 
-9.949 0.000243962 -0.148604 
0.000243962 -9.96036 0.20847 
-0.148604 0.20847 -9.96086 
-9.95137 -0.00186028 -0.140619 
-0.00186028 -9.94916 0.207278 
-0.140619 0.207278 -9.9697 
-9.95044 0.00579457 -0.150849 
0.00579457 -9.95014 0.208889 
-0.150849 0.208889 -9.96964 
-9.96047 -0.0161113 -0.131758 
-0.0161113 -9.94526 0.198223 
-0.131758 0.198223 -9.96449 
-9.95798 0.00519928 -0.0116086 
0.00519928 -10.0188 -0.0132421 
-0.0116086 -0.0132421 -9.97101 
-9.99656 0.0274046 0.0019222 
0.0274046 -9.9767 0.0103456 
0.0019222 0.0103456 -9.97457 
-9.98328 0.0139573 -0.00376533 
0.0139573 -9.97803 -0.00115815 
-0.00376533 -0.00115815 -9.98651 
-9.97394 0.000326964 -0.0153802 
0.000326964 -9.99789 0.00412785 
-0.0153802 0.00412785 -9.97599 
-9.92243 0.0110754 0.0539908 
0.0110754 -9.91322 0.247186 
0.0539908 0.247186 -9.93803 
-9.9367 0.0201869 0.062554 
0.0201869 -9.91592 0.234024 
0.062554 0.234024 -9.92108 
-9.91716 0.00452336 0.0543167 
0.00452336 -9.9256 0.235502 
0.0543167 0.235502 -9.93093 
-9.93219 0.00738989 0.0710225 
0.00738989 -9.92217 0.245111 
0.0710225 0.245111 -9.91933 
-9.94163 0.00706879 -0.213729 
0.00706879 -9.94996 -0.114273 
-0.213729 -0.114273 -9.97362 
-9.94959 0.00234104 -0.218568 
0.00234104 -9.95408 -0.100121 
-0.218568 -0.100121 -9.96155 
-9.94372 0.00451307 -0.220799 
0.00451307 -9.94868 -0.107591 
-0.220799 -0.107591 -9.97282 
-9.95185 0.00622975 -0.218488 
0.00622975 -9.95046 -0.111022 
-0.218488 -0.111022 -9.96291 
-9.97879 -0.00548427 -0.0289609 
-0.00548427 -10.0356 -0.00720287 
-0.0289609 -0.00720287 -10.0105 
-10.0061 0.00155135 -0.0121672 
0.00155135 -10.0028 0.0120968 
-0.0121672 0.0120968 -10.016 
-9.99991 0.00217678 -0.00782369 
0.00217678 -10.0275 -0.00412115 
-0.00782369 -0.00412115 -9.99746 
-9.9973 0.0135739 -0.000716715 
0.0135739 -10.0209 -0.0124697 
-0.000716715 -0.0124697 -10.0067 
-10.0263 -0.0104716 -0.0159297 
-0.0104716 -10.025 -0.0156198 
-0.0159297 -0.0156198 -9.98879 
-10.0308 0.00478416 0.022372 
0.00478416 -10.0545 -0.00164868 
0.022372 -0.00164868 -9.95473 
-9.99042 0.000407007 -0.00101986 
0.000407007 -9.99379 0.0149297 
-0.00101986 0.0149297 -10.0558 
-10.0235 -0.00581113 -0.00455842 
-0.00581113 -10.0086 0.00441127 
-0.00455842 0.00441127 -10.008 
-10.1077 0.0961446 0.0107779 
0.0961446 -9.96549 0.00156231 
0.0107779 0.00156231 -10.1849 
-10.0136 -0.0083381 0.0373971 
-0.0083381 -10.0632 0.0649904 
0.0373971 0.0649904 -10.1813 
-10.0556 -0.027587 0.037867 
-0.027587 -10.125 0.0505898 
0.037867 0.0505898 -10.0775 
-10.1065 0.0667887 0.0601621 
0.0667887 -10.0391 0.0474609 
0.0601621 0.0474609 -10.1125 
-9.96312 -0.000288442 -0.213699 
-0.000288442 -9.97934 -0.125134 
-0.213699 -0.125134 -9.98527 
-9.96601 0.00414325 -0.213387 
0.00414325 -9.98547 -0.122793 
-0.213387 -0.122793 -9.97626 
-9.95024 -0.00716393 -0.203226 
-0.00716393 -9.95383 -0.117905 
-0.203226 -0.117905 -10.0237 
-9.97229 0.00956752 -0.215705 
0.00956752 -9.98236 -0.134746 
-0.215705 -0.134746 -9.97309 
-10.4004 0.169175 -0.119664 
0.169175 -10.281 -0.115077 
-0.119664 -0.115077 -10.376 
-10.0293 -0.115318 0.113151 
-0.115318 -9.79216 -0.0863506 
0.113151 -0.0863506 -11.2359 
-10.4625 0.111924 -0.249145 
0.111924 -10.5873 0.0968164 
-0.249145 0.0968164 -10.0077 
-10.4609 0.281413 -0.11338 
0.281413 -10.3959 -0.316398 
-0.11338 -0.316398 -10.2006 
-9.95373 0.0109352 -0.220549 
0.0109352 -9.94888 -0.0961143 
-0.220549 -0.0961143 -9.95578 
-9.94044 0.0120898 -0.228797 
0.0120898 -9.94895 -0.0812046 
-0.228797 -0.0812046 -9.96901 
-9.94033 0.00405182 -0.237579 
0.00405182 -9.95491 -0.0853462 
-0.237579 -0.0853462 -9.96315 
-9.93943 0.00492745 -0.231176 
0.00492745 -9.95844 -0.0906916 
-0.231176 -0.0906916 -9.96052 
-10.6321 -0.129858 -0.117407 
-0.129858 -10.6337 -0.282684 
-0.117407 -0.282684 -10.005 
-10.2502 -0.147721 0.131872 
-0.147721 -10.4584 -0.116137 
0.131872 -0.116137 -10.5621 
-9.79955 0.0689589 0.039953 
0.0689589 -10.1604 0.0961874 
0.039953 0.0961874 -11.3108 
-10.3823 -0.358848 0.367525 
-0.358848 -10.632 -0.0598652 
0.367525 -0.0598652 -10.2565 
-9.79989 0.0526311 -0.004475 
0.0526311 -9.64355 0.145399 
-0.004475 0.145399 -9.92149 
-9.79542 0.0345666 0.0462627 
0.0345666 -9.71605 0.182274 
0.0462627 0.182274 -9.85345 
-9.73343 0.0217464 0.0239382 
0.0217464 -9.85814 0.134402 
0.0239382 0.134402 -9.77336 
-9.78832 0.0628716 0.0463318 
0.0628716 -9.74502 0.221723 
0.0463318 0.221723 -9.83158 
-10.0549 -0.020544 -0.010154 
-0.020544 -10.0647 -0.0186013 
-0.010154 -0.0186013 -10.0251 
-10.0147 -0.0377623 0.0754889 
-0.0377623 -9.99614 -0.0143882 
0.0754889 -0.0143882 -10.1339 
-10.0638 -0.0424214 0.0088823 
-0.0424214 -10.0922 0.0203846 
0.0088823 0.0203846 -9.98872 
-10.047 -0.0275942 0.00666022 
-0.0275942 -10.0693 -0.0069147 
0.00666022 -0.0069147 -10.0285 
-9.97864 -0.014081 -0.03039 
-0.014081 -9.97911 0.0101742 
-0.03039 0.0101742 -10.0357 
-9.97749 -0.0324075 0.0178299 
-0.0324075 -9.98133 0.0361137 
0.0178299 0.0361137 -10.0346 
-9.92672 -0.0321702 -0.053251 
-0.0321702 -10.0377 0.0177621 
-0.053251 0.0177621 -10.029 
-10.0563 -4.22302e-05 0.0173248 
-4.22302e-05 -10.0323 -0.0448499 
0.0173248 -0.0448499 -9.90481 
-7.4227 1.67619 2.64586 
1.67619 -11.4591 1.19223 
2.64586 1.19223 7.47653 
-3.07378 -0.103395 -0.443628 
-0.103395 -4.96342 0.0191448 
-0.443628 0.0191448 -3.36803 
-1.25187 1.20544 -0.247052 
1.20544 -4.42338 0.63888 
-0.247052 0.63888 -5.72998 
-0.962219 -0.0304397 -1.44486 
-0.0304397 -5.98619 -3.75604 
-1.44486 -3.75604 -4.45682 
-9.81822 0.0249139 -0.0846762 
0.0249139 -9.83384 -0.127071 
-0.0846762 -0.127071 -9.89114 
-9.81051 0.0736335 -0.0643866 
0.0736335 -9.82254 -0.0977099 
-0.0643866 -0.0977099 -9.91016 
-9.8151 -0.0166924 -0.0760545 
-0.0166924 -9.87379 -0.117 
-0.0760545 -0.117 -9.85432 
-9.84095 -0.00451288 -0.0839333 
-0.00451288 -9.82193 -0.12426 
-0.0839333 -0.12426 -9.88032 
-9.88743 0.005487 0.0838817 
0.005487 -9.79006 0.0458703 
0.0838817 0.0458703 -9.84675 
-9.89771 0.013969 0.102103 
0.013969 -9.74687 0.0559689 
0.102103 0.0559689 -9.87966 
-9.74142 0.0817785 0.0531815 
0.0817785 -9.84918 0.0692513 
0.0531815 0.0692513 -9.93365 
-9.8416 -0.00304754 0.129722 
-0.00304754 -9.76899 0.0862394 
0.129722 0.0862394 -9.91366 
-9.87103 0.0630315 0.00507865 
0.0630315 -9.95368 0.0670239 
0.00507865 0.0670239 -10.0743 
-9.86998 0.0883489 -0.0377732 
0.0883489 -9.99447 -0.0907029 
-0.0377732 -0.0907029 -10.0346 
-10.0011 0.10984 0.0148068 
0.10984 -9.89395 0.0649475 
0.0148068 0.0649475 -10.004 
-9.97726 0.101329 -0.0357279 
0.101329 -9.83248 0.0346457 
-0.0357279 0.0346457 -10.0893 
-9.91559 0.00470478 0.201016 
0.00470478 -9.94935 -0.0873726 
0.201016 -0.0873726 -9.98204 
-9.92339 -0.00465964 0.237337 
-0.00465964 -9.97149 -0.113371 
0.237337 -0.113371 -9.95211 
-9.91765 0.00363072 0.227033 
0.00363072 -9.96133 -0.118817 
0.227033 -0.118817 -9.96801 
-9.93679 -0.0119128 0.201907 
-0.0119128 -9.95142 -0.0961128 
0.201907 -0.0961128 -9.95877 
-11.3063 0.164544 -0.00013564 
0.164544 -9.70964 0.426255 
-0.00013564 0.426255 -11.8794 
-12.3623 -0.748458 -0.0381908 
-0.748458 -11.7068 1.22621 
-0.0381908 1.22621 -8.82633 
-9.84402 0.173252 -0.571363 
0.173252 -10.1056 -0.508495 
-0.571363 -0.508495 -12.9458 
-11.6039 0.547547 0.803609 
0.547547 -9.78585 0.807828 
0.803609 0.807828 -11.5056 
-9.9753 0.0038144 0.105077 
0.0038144 -9.9628 0.229424 
0.105077 0.229424 -9.98364 
-9.97051 0.00309189 0.0972956 
0.00309189 -9.96567 0.23062 
0.0972956 0.23062 -9.98557 
-9.9659 0.00504157 0.0956415 
0.00504157 -9.95731 0.214769 
0.0956415 0.214769 -9.99854 
-9.9819 0.00505695 0.100585 
0.00505695 -9.96457 0.234743 
0.100585 0.234743 -9.97528 
-9.95579 -0.00297309 -0.233047 
-0.00297309 -9.95298 0.110003 
-0.233047 0.110003 -9.95304 
-9.9471 0.00446168 -0.23311 
0.00446168 -9.95045 0.10901 
-0.23311 0.10901 -9.96426 
-9.93463 -0.00344506 -0.229581 
-0.00344506 -9.95807 0.0910151 
-0.229581 0.0910151 -9.96912 
-9.94106 -0.00985036 -0.219469 
-0.00985036 -9.95927 0.0936808 
-0.219469 0.0936808 -9.96148 
-10.0404 -0.0254315 -0.0629182 
-0.0254315 -9.96021 -0.0118372 
-0.0629182 -0.0118372 -9.9954 
-10.045 0.0423475 -0.0318414 
0.0423475 -9.92347 -0.0248539 
-0.0318414 -0.0248539 -10.0275 
-10.0067 -0.0402966 0.0220715 
-0.0402966 -9.93451 0.0132241 
0.0220715 0.0132241 -10.0548 
-10.0315 0.0543846 0.0281836 
0.0543846 -9.94313 -0.0189869 
0.0281836 -0.0189869 -10.0213 
-9.94217 0.0203705 0.270033 
0.0203705 -9.91902 -0.0381617 
0.270033 -0.0381617 -9.99026 
-9.93961 -0.00567022 0.251945 
-0.00567022 -9.95399 -0.00921646 
0.251945 -0.00921646 -9.95786 
-9.96274 0.0124973 0.253955 
0.0124973 -9.95059 0.0126712 
0.253955 0.0126712 -9.93813 
-9.94615 -0.00229329 0.256984 
-0.00229329 -9.94577 -0.0175568 
0.256984 -0.0175568 -9.95953 
-9.92232 -0.00227504 0.0851193 
-0.00227504 -9.93648 0.225864 
0.0851193 0.225864 -9.9088 
-9.91567 -0.00356483 0.101689 
-0.00356483 -9.95012 0.219223 
0.101689 0.219223 -9.9018 
-9.92221 0.0151363 0.109484 
0.0151363 -9.90059 0.242313 
0.109484 0.242313 -9.94479 
-9.90846 0.00724217 0.101461 
0.00724217 -9.91833 0.221298 
0.101461 0.221298 -9.9408 
-9.95402 0.0135772 0.224048 
0.0135772 -9.95123 0.0530759 
0.224048 0.0530759 -10.0405 
-9.99181 0.00182937 0.242968 
0.00182937 -9.96344 0.0450452 
0.242968 0.0450452 -9.99047 
-9.98847 0.00108495 0.236922 
0.00108495 -10 0.0365631 
0.236922 0.0365631 -9.9572 
-9.97744 -0.00344867 0.253568 
-0.00344867 -10.0099 0.0534818 
0.253568 0.0534818 -9.95836 
-9.78535 0.020087 -0.0145495 
0.020087 -9.72893 -0.178085 
-0.0145495 -0.178085 -9.82676 
-9.8035 0.0424907 -0.0142138 
0.0424907 -9.69177 -0.144331 
-0.0142138 -0.144331 -9.84578 
-9.75143 0.00128597 -0.0109347 
0.00128597 -9.79642 -0.158168 
-0.0109347 -0.158168 -9.7932 
-9.77697 -0.0228313 -0.0211379 
-0.0228313 -9.74444 -0.175528 
-0.0211379 -0.175528 -9.81964 
-10.0176 -0.0028941 0.00338169 
-0.0028941 -10.0211 0.00610861 
0.00338169 0.00610861 -10.0113 
-10.0167 -0.00601438 0.00261484 
-0.00601438 -10.0202 0.00298616 
0.00261484 0.00298616 -10.0131 
-10.0105 -0.00650261 0.0080118 
-0.00650261 -10.0148 0.000556827 
0.0080118 0.000556827 -10.0246 
-10.014 -0.0128322 0.00718101 
-0.0128322 -10.0213 0.00721614 
0.00718101 0.00721614 -10.0146 
-9.94304 0.00202748 0.0162771 
0.00202748 -9.95987 0.229708 
0.0162771 0.229708 -10.0222 
-9.98421 -0.00149327 0.00612793 
-0.00149327 -9.97588 0.242326 
0.00612793 0.242326 -9.96502 
-9.96218 -0.0054333 0.0149284 
-0.0054333 -9.96865 0.2461 
0.0149284 0.2461 -9.99428 
-9.99232 0.00175481 0.0179799 
0.00175481 -9.96874 0.248341 
0.0179799 0.248341 -9.96405 
-0.958948 -6.30749 -2.63449 
-6.30749 -10.8006 -0.233312 
-2.63449 -0.233312 -24.0633 
-8.06392 -0.474435 1.29811 
-0.474435 -14.359 -0.803727 
1.29811 -0.803727 -13.3999 
-4.7985 -1.94522 -0.703145 
-1.94522 -10.7975 1.1033 
-0.703145 1.1033 -20.2268 
-9.84118 -0.857816 -1.6791 
-0.857816 -11.9633 1.19645 
-1.6791 1.19645 -14.0183 
-10.0502 0.00174961 0.013112 
0.00174961 -10.0403 0.0178001 
0.013112 0.0178001 -10.0201 
-9.99917 -0.00616742 0.00722295 
-0.00616742 -9.99903 -0.0182396 
0.00722295 -0.0182396 -10.1124 
-10.0511 0.00491721 -0.00815891 
0.00491721 -10.0388 0.0113711 
-0.00815891 0.0113711 -10.0208 
-10.0541 0.00550142 -0.0141202 
0.00550142 -10.0522 0.00338571 
-0.0141202 0.00338571 -10.0044 
-9.94342 -0.0166164 -0.00983451 
-0.0166164 -9.88107 0.0364699 
-0.00983451 0.0364699 -9.95867 
-9.9066 -0.0027649 0.0191552 
-0.0027649 -9.9423 -0.00535058 
0.0191552 -0.00535058 -9.93425 
-9.95843 0.0143047 -0.0188087 
0.0143047 -9.91581 0.0213177 
-0.0188087 0.0213177 -9.90891 
-9.93538 0.00148807 0.00710774 
0.00148807 -9.91444 -0.00120103 
0.00710774 -0.00120103 -9.93333 
-9.99428 0.000628255 0.195893 
0.000628255 -10.0211 -0.0513667 
0.195893 -0.0513667 -9.99394 
-10.0035 0.00136559 0.202491 
0.00136559 -10.0166 -0.0530506 
0.202491 -0.0530506 -9.98916 
-9.99733 -0.00383951 0.200446 
-0.00383951 -10.0175 -0.0452954 
0.200446 -0.0452954 -9.99454 
-9.99667 0.00234529 0.204247 
0.00234529 -10.0264 -0.05037 
0.204247 -0.05037 -9.98625 
-10.149 0.0187834 -0.0313978 
0.0187834 -10.069 0.0284962 
-0.0313978 0.0284962 -10.0587 
-10.0462 -0.0438875 0.00222748 
-0.0438875 -10.0201 -0.0346234 
0.00222748 -0.0346234 -10.2105 
-10.0611 0.0381098 -0.0189782 
0.0381098 -10.125 0.0295276 
-0.0189782 0.0295276 -10.0906 
-10.122 0.00302021 -0.000328588 
0.00302021 -10.023 0.0665177 
-0.000328588 0.0665177 -10.1317 
-9.95394 -0.000147633 0.0210181 
-0.000147633 -9.94847 -0.263185 
0.0210181 -0.263185 -9.95329 
-9.97414 0.0036567 0.0156402 
0.0036567 -9.94692 -0.265612 
0.0156402 -0.265612 -9.93464 
-9.95223 0.00264195 0.0104197 
0.00264195 -9.9305 -0.255665 
0.0104197 -0.255665 -9.97297 
-9.94938 -0.00184795 0.0265342 
-0.00184795 -9.95538 -0.26224 
0.0265342 -0.26224 -9.95093 
-9.92784 0.0578362 0.0200149 
0.0578362 -9.86844 -0.0395974 
0.0200149 -0.0395974 -9.9849 
-9.90935 0.0232988 -0.0314494 
0.0232988 -9.91655 -0.0940583 
-0.0314494 -0.0940583 -9.95529 
-9.93124 0.0664384 0.0547937 
0.0664384 -9.90101 0.0386064 
0.0547937 0.0386064 -9.94893 
-9.84912 0.0908744 -0.0148339 
0.0908744 -9.84767 -0.0213371 
-0.0148339 -0.0213371 -10.0844 
-11.0804 -0.537168 0.0333897 
-0.537168 -10.2157 0.380117 
0.0333897 0.380117 -14.3853 
-11.0183 1.31931 1.59689 
1.31931 -11.6253 0.934152 
1.59689 0.934152 -13.0378 
-14.4471 -1.4346 -1.85698 
-1.4346 -9.10975 -1.98666 
-1.85698 -1.98666 -12.1246 
-10.1845 0.753574 -0.672601 
0.753574 -11.3823 -1.35372 
-0.672601 -1.35372 -14.1147 
-10.0344 -0.00537532 -0.000682548 
-0.00537532 -10.0142 0.00272776 
-0.000682548 0.00272776 -10.0151 
-10.0369 -0.0301388 -0.0160098 
-0.0301388 -10.0085 0.00243487 
-0.0160098 0.00243487 -10.0184 
-10.0088 0.0012136 -0.0124479 
0.0012136 -9.97801 0.0329904 
-0.0124479 0.0329904 -10.077 
-10.0383 0.00127953 -0.018302 
0.00127953 -10.0449 -0.0139919 
-0.018302 -0.0139919 -9.98058 
-9.95463 0.0130345 -0.0597982 
0.0130345 -9.99098 -0.230861 
-0.0597982 -0.230861 -9.9875 
-9.98974 -0.00833616 -0.041248 
-0.00833616 -9.96521 -0.236768 
-0.041248 -0.236768 -9.97816 
-9.99561 0.0113067 -0.0402477 
0.0113067 -9.94853 -0.233977 
-0.0402477 -0.233977 -9.98897 
-9.99128 0.000854005 -0.0474678 
0.000854005 -9.97372 -0.228116 
-0.0474678 -0.228116 -9.96811 
-9.98932 -0.00736406 0.250266 
-0.00736406 -9.98627 -0.0511336 
0.250266 -0.0511336 -9.97262 
-9.98216 0.0127661 0.255106 
0.0127661 -9.96373 -0.0476566 
0.255106 -0.0476566 -10.0023 
-9.97156 0.00520965 0.249155 
0.00520965 -9.97529 -0.0452333 
0.249155 -0.0452333 -10.0014 
-9.98665 -0.000287093 0.243915 
-0.000287093 -9.97936 -0.0511018 
0.243915 -0.0511018 -9.98221 
-9.82039 -0.0185625 0.0415416 
-0.0185625 -9.9248 -0.0412112 
0.0415416 -0.0412112 -9.96909 
-9.85662 -0.0406734 0.00761368 
-0.0406734 -9.88058 -0.036903 
0.00761368 -0.036903 -9.97709 
-9.89041 -0.0322588 0.0560082 
-0.0322588 -9.93197 -0.0170477 
0.0560082 -0.0170477 -9.8919 
-9.84093 -0.0455218 0.0449041 
-0.0455218 -9.92243 -0.043114 
0.0449041 -0.043114 -9.95092 
-9.93827 0.0159305 -0.00431194 
0.0159305 -9.98434 -0.0185573 
-0.00431194 -0.0185573 -9.96685 
-9.95883 -0.0151014 0.00913952 
-0.0151014 -9.97014 -0.00446803 
0.00913952 -0.00446803 -9.96049 
-9.95738 -0.0188989 0.0131924 
-0.0188989 -9.96833 0.0038563 
0.0131924 0.0038563 -9.96375 
-9.96457 -0.0214899 0.00168406 
-0.0214899 -9.97371 -0.00409029 
0.00168406 -0.00409029 -9.95119 
-9.95365 -0.0111199 -0.00963115 
-0.0111199 -9.96878 0.00245473 
-0.00963115 0.00245473 -9.92434 
-9.91973 0.0228967 -0.016143 
0.0228967 -9.99338 0.0230018 
-0.016143 0.0230018 -9.93368 
-9.94257 -0.0550146 -0.00904132 
-0.0550146 -9.92998 -0.00294034 
-0.00904132 -0.00294034 -9.97423 
-9.94278 0.0182738 -0.00557192 
0.0182738 -9.97649 -0.018079 
-0.00557192 -0.018079 -9.92751 
-9.82849 -0.0187422 0.251129 
-0.0187422 -9.88422 -0.0386673 
0.251129 -0.0386673 -9.94884 
-9.88824 -0.00181382 0.253176 
-0.00181382 -9.90236 -0.0288187 
0.253176 -0.0288187 -9.87095 
-9.90884 -0.000763887 0.253611 
-0.000763887 -9.87326 -0.0140545 
0.253611 -0.0140545 -9.87945 
-9.87128 0.0144354 0.23224 
0.0144354 -9.89428 -0.00875141 
0.23224 -0.00875141 -9.89598 
-9.97659 -0.0190119 -0.0206845 
-0.0190119 -10.0049 0.0241545 
-0.0206845 0.0241545 -9.94062 
-9.99402 -0.000261021 0.000487908 
-0.000261021 -9.93992 -0.00102571 
0.000487908 -0.00102571 -9.98821 
-9.98709 -0.00954207 0.00381221 
-0.00954207 -9.97023 -0.00629655 
0.00381221 -0.00629655 -9.96483 
-9.95574 -0.00467363 -0.0134312 
-0.00467363 -10.0025 -0.00134236 
-0.0134312 -0.00134236 -9.96389 
-10.0838 -0.00812555 0.00870379 
-0.00812555 -10.1247 0.0140861 
0.00870379 0.0140861 -10.0905 
-10.0999 0.00192265 -0.00523619 
0.00192265 -10.0944 -0.00725704 
-0.00523619 -0.00725704 -10.1047 
-10.1173 -0.0250249 -0.000324548 
-0.0250249 -10.0757 -0.0189915 
-0.000324548 -0.0189915 -10.1059 
-10.0997 -0.0042031 -0.000288792 
-0.0042031 -10.1087 -0.0009927 
-0.000288792 -0.0009927 -10.0906 
-9.8678 0.00835902 -0.176144 
0.00835902 -9.84527 -0.105655 
-0.176144 -0.105655 -9.88104 
-9.86357 0.00655742 -0.180191 
0.00655742 -9.85113 -0.0994681 
-0.180191 -0.0994681 -9.8794 
-9.82958 0.025175 -0.191921 
0.025175 -9.86271 -0.100754 
-0.191921 -0.100754 -9.90181 
-9.85701 0.00956082 -0.173505 
0.00956082 -9.84802 -0.0945364 
-0.173505 -0.0945364 -9.88907 
-9.96748 -0.00815272 0.198578 
-0.00815272 -9.93761 -0.137241 
0.198578 -0.137241 -9.94871 
-9.93959 -0.0077236 0.220625 
-0.0077236 -9.95399 -0.128894 
0.220625 -0.128894 -9.96022 
-9.94949 -0.0150155 0.216493 
-0.0150155 -9.93348 -0.120792 
0.216493 -0.120792 -9.97084 
-9.94583 -0.00987715 0.208905 
-0.00987715 -9.95119 -0.132259 
0.208905 -0.132259 -9.95678 
-9.83814 -0.036204 -0.126162 
-0.036204 -9.85121 0.160093 
-0.126162 0.160093 -9.89461 
-9.8553 0.00484428 -0.128371 
0.00484428 -9.85599 0.18599 
-0.128371 0.18599 -9.87267 
-9.83624 0.0203526 -0.135554 
0.0203526 -9.87563 0.196627 
-0.135554 0.196627 -9.87209 
-9.84855 -0.00658584 -0.144918 
-0.00658584 -9.83381 0.178311 
-0.144918 0.178311 -9.9016 
-9.97771 -0.00159291 0.231614 
-0.00159291 -9.98472 0.00186863 
0.231614 0.00186863 -9.99391 
-9.96697 -0.00273606 0.242787 
-0.00273606 -9.99844 0.00558872 
0.242787 0.00558872 -9.99093 
-9.97684 -0.0186512 0.236973 
-0.0186512 -9.98458 0.00509022 
0.236973 0.00509022 -9.99492 
-9.98259 -0.00130646 0.233635 
-0.00130646 -9.99396 0.00529221 
0.233635 0.00529221 -9.97979 
-9.98249 0.00101254 -0.21816 
0.00101254 -9.97679 0.0808862 
-0.21816 0.0808862 -10.0313 
-10.0074 -0.00712121 -0.206524 
-0.00712121 -9.99209 0.0842953 
-0.206524 0.0842953 -9.99109 
-10.0102 -0.00691574 -0.214258 
-0.00691574 -10.0147 0.0816269 
-0.214258 0.0816269 -9.96576 
-10.0011 -0.0106374 -0.19914 
-0.0106374 -10.0129 0.0978126 
-0.19914 0.0978126 -9.97666 
-9.79816 0.0314082 -0.124597 
0.0314082 -9.78355 -0.0347947 
-0.124597 -0.0347947 -9.81423 
-9.68413 0.0685976 -0.161615 
0.0685976 -9.84147 -0.0714625 
-0.161615 -0.0714625 -9.87033 
-9.75966 0.0460827 -0.114723 
0.0460827 -9.80276 -0.0475842 
-0.114723 -0.0475842 -9.83351 
-9.79272 0.0634335 -0.103577 
0.0634335 -9.7584 -0.0530241 
-0.103577 -0.0530241 -9.84481 
-9.83713 0.0433353 -0.217817 
0.0433353 -9.84486 -0.15934 
-0.217817 -0.15934 -9.94702 
-9.88043 -0.0139334 -0.16506 
-0.0139334 -9.86658 -0.123311 
-0.16506 -0.123311 -9.882 
-9.8845 -0.0220045 -0.161994 
-0.0220045 -9.90577 -0.125861 
-0.161994 -0.125861 -9.83874 
-9.82629 0.022802 -0.186117 
0.022802 -9.86863 -0.0912753 
-0.186117 -0.0912753 -9.93409 
-9.9297 -0.0046432 -0.0911735 
-0.0046432 -10.027 0.010812 
-0.0911735 0.010812 -10.4526 
-10.1317 0.100851 0.0210089 
0.100851 -10.1219 0.0254875 
0.0210089 0.0254875 -10.1557 
-10.2216 -0.00969175 -0.038374 
-0.00969175 -10.1577 0.0331379 
-0.038374 0.0331379 -10.03 
-10.1004 0.061084 0.0914805 
0.061084 -10.158 0.094608 
0.0914805 0.094608 -10.1509 
-10.051 -0.020409 0.0414823 
-0.020409 -10.0354 0.0165073 
0.0414823 0.0165073 -10.0864 
-10.0407 -0.0219561 0.0360561 
-0.0219561 -10.0763 0.0179075 
0.0360561 0.0179075 -10.0558 
-10.013 -0.0128608 0.032143 
-0.0128608 -10.0179 0.0160417 
0.032143 0.0160417 -10.1418 
-10.0469 -0.00960055 0.0527958 
-0.00960055 -10.0545 0.00796696 
0.0527958 0.00796696 -10.0714 
-11.0676 -0.00116237 -0.122225 
-0.00116237 -10.8499 -0.0881023 
-0.122225 -0.0881023 -10.4767 
-10.8403 0.045752 0.0562358 
0.045752 -10.6925 -0.0905906 
0.0562358 -0.0905906 -10.8614 
-10.3297 0.00773979 0.0374812 
0.00773979 -10.4077 -0.0124434 
0.0374812 -0.0124434 -11.6568 
-11.1039 -0.127761 0.387919 
-0.127761 -10.6816 -0.0602875 
0.387919 -0.0602875 -10.6088 
-10.0808 0.035081 -0.0266615 
0.035081 -10.1464 -0.0686612 
-0.0266615 -0.0686612 -9.89412 
-10.0222 0.00251741 0.00315499 
0.00251741 -10.1143 -0.0606232 
0.00315499 -0.0606232 -9.9847 
-10.0076 -0.00961523 -0.0206765 
-0.00961523 -10.0054 0.00992425 
-0.0206765 0.00992425 -10.1083 
-10.0577 0.00233516 -0.0137375 
0.00233516 -10.0232 -0.0607218 
-0.0137375 -0.0607218 -10.0404 
-9.93308 -0.00295639 0.0233217 
-0.00295639 -9.90867 0.251828 
0.0233217 0.251828 -9.92445 
-9.92194 0.000147602 0.0242384 
0.000147602 -9.90924 0.247341 
0.0242384 0.247341 -9.93503 
-9.92028 -0.00236503 0.0241452 
-0.00236503 -9.91699 0.249747 
0.0241452 0.249747 -9.92893 
-9.93856 0.00623936 0.0153936 
0.00623936 -9.91872 0.260804 
0.0153936 0.260804 -9.90893 
-9.95344 0.00570907 -0.0751439 
0.00570907 -9.92648 -0.238432 
-0.0751439 -0.238432 -9.96279 
-9.94951 0.00945298 -0.0556466 
0.00945298 -9.93159 -0.247151 
-0.0556466 -0.247151 -9.96161 
-9.95006 0.00543816 -0.0549825 
0.00543816 -9.94319 -0.246383 
-0.0549825 -0.246383 -9.94946 
-9.95546 0.00215157 -0.0741252 
0.00215157 -9.94147 -0.241983 
-0.0741252 -0.241983 -9.94578 
-11.0728 0.00234056 0.436249 
0.00234056 -11.7807 0.390223 
0.436249 0.390223 -11.2365 
-9.71527 0.357316 0.646223 
0.357316 -11.8845 0.335826 
0.646223 0.335826 -12.4903 
-11.048 1.32847 0.0232993 
1.32847 -10.5218 -0.305995 
0.0232993 -0.305995 -12.5203 
-10.8003 0.155203 -0.164407 
0.155203 -11.2389 0.373248 
-0.164407 0.373248 -12.0509 
-9.96752 -0.00551773 0.146255 
-0.00551773 -9.96379 -0.187842 
0.146255 -0.187842 -9.98528 
-9.96619 -0.00183232 0.139294 
-0.00183232 -9.96376 -0.191492 
0.139294 -0.191492 -9.98664 
-9.95797 -0.00718632 0.145624 
-0.00718632 -9.95474 -0.202507 
0.145624 -0.202507 -10.0039 
-9.97595 -0.00716609 0.144294 
-0.00716609 -9.96831 -0.187026 
0.144294 -0.187026 -9.97233 
-9.93007 -0.00157203 0.23267 
-0.00157203 -9.96034 -0.0884648 
0.23267 -0.0884648 -9.9699 
-9.94515 0.00553075 0.240238 
0.00553075 -9.94938 -0.114422 
0.240238 -0.114422 -9.96579 
-9.93755 -0.00944896 0.221565 
-0.00944896 -9.96235 -0.0952074 
0.221565 -0.0952074 -9.96041 
-9.95636 -0.00316268 0.239854 
-0.00316268 -9.95124 -0.11452 
0.239854 -0.11452 -9.95271 
-9.89297 -0.00798507 0.235002 
-0.00798507 -9.8991 -0.0787383 
0.235002 -0.0787383 -9.88318 
-9.85923 -0.00836656 0.224631 
-0.00836656 -9.86552 -0.103935 
0.224631 -0.103935 -9.95051 
-9.88219 -0.0204115 0.210674 
-0.0204115 -9.89568 -0.106671 
0.210674 -0.106671 -9.89738 
-9.88098 -0.0159437 0.204918 
-0.0159437 -9.89444 -0.0892201 
0.204918 -0.0892201 -9.89983 
-9.94145 0.00443793 0.254098 
0.00443793 -9.95702 0.0203677 
0.254098 0.0203677 -9.9656 
-9.9503 0.0021812 0.257781 
0.0021812 -9.95437 0.00732577 
0.257781 0.00732577 -9.95939 
-9.93602 0.00135868 0.258225 
0.00135868 -9.95601 0.00606961 
0.258225 0.00606961 -9.97204 
-9.95306 -0.00121822 0.254795 
-0.00121822 -9.961 0.0281301 
0.254795 0.0281301 -9.95002 
-9.82275 -0.0116918 -0.169435 
-0.0116918 -9.84544 -0.106199 
-0.169435 -0.106199 -9.83671 
-9.84958 -0.0365442 -0.181704 
-0.0365442 -9.81816 -0.116289 
-0.181704 -0.116289 -9.83716 
-9.80892 0.0469079 -0.13541 
0.0469079 -9.80237 -0.0939113 
-0.13541 -0.0939113 -9.89361 
-9.78546 0.012098 -0.157373 
0.012098 -9.83339 -0.135247 
-0.157373 -0.135247 -9.88605 
-9.90253 0.00810548 0.0759102 
0.00810548 -9.89128 0.239281 
0.0759102 0.239281 -9.94292 
-9.92222 0.0108499 0.0671793 
0.0108499 -9.89002 0.241445 
0.0671793 0.241445 -9.92449 
-9.90901 0.0103239 0.0693608 
0.0103239 -9.89863 0.228691 
0.0693608 0.228691 -9.9291 
-9.90774 0.00223716 0.0766448 
0.00223716 -9.89751 0.239058 
0.0766448 0.239058 -9.93149 
-9.97184 -0.00849041 -0.239983 
-0.00849041 -9.9741 -0.0411526 
-0.239983 -0.0411526 -10.0076 
-9.98992 0.00215972 -0.234505 
0.00215972 -9.97734 -0.0473207 
-0.234505 -0.0473207 -9.98628 
-9.98786 -0.00626284 -0.241165 
-0.00626284 -9.96996 -0.0455658 
-0.241165 -0.0455658 -9.99572 
-9.99026 0.00303636 -0.241166 
0.00303636 -9.98945 -0.0509865 
-0.241166 -0.0509865 -9.97383 
-9.9527 -0.000794407 0.0985602 
-0.000794407 -9.96615 0.211003 
0.0985602 0.211003 -10.0006 
-9.98435 0.00493967 0.108709 
0.00493967 -9.9672 0.210451 
0.108709 0.210451 -9.96788 
-9.96801 0.00710835 0.108626 
0.00710835 -9.95687 0.224711 
0.108626 0.224711 -9.99455 
-9.98053 0.00768254 0.117574 
0.00768254 -9.96616 0.208044 
0.117574 0.208044 -9.97275 
-9.90645 0.000525424 -0.211681 
0.000525424 -9.88227 0.0985693 
-0.211681 0.0985693 -9.89252 
-9.91452 -0.00660366 -0.2286 
-0.00660366 -9.89266 0.0710957 
-0.2286 0.0710957 -9.87405 
-9.83127 -0.0159154 -0.223083 
-0.0159154 -9.88522 0.106355 
-0.223083 0.106355 -9.96475 
-9.8978 -0.0231069 -0.191907 
-0.0231069 -9.88467 0.103157 
-0.191907 0.103157 -9.89877 
-11.8743 1.10404 0.134662 
1.10404 -10.2913 -1.24948 
0.134662 -1.24948 -11.9524 
-9.89784 -1.84732 -0.520956 
-1.84732 -12.2282 1.43474 
-0.520956 1.43474 -11.992 
-8.21854 -1.36832 0.505861 
-1.36832 -12.1591 -2.03261 
0.505861 -2.03261 -13.7404 
-10.3165 0.636484 -0.0676812 
0.636484 -10.559 1.02198 
-0.0676812 1.02198 -13.2425 
-9.96773 0.0142184 0.212333 
0.0142184 -9.95485 0.137546 
0.212333 0.137546 -10.0106 
-9.9552 0.0251681 0.210941 
0.0251681 -9.97949 0.148541 
0.210941 0.148541 -9.99846 
-9.98198 0.000184856 0.200674 
0.000184856 -9.98706 0.132363 
0.200674 0.132363 -9.96411 
-9.9817 0.0158715 0.193165 
0.0158715 -9.97197 0.1346 
0.193165 0.1346 -9.97947 
-10.0046 -0.0543369 -0.0303691 
-0.0543369 -10.024 0.0865664 
-0.0303691 0.0865664 -10.1868 
-10.208 -0.0111699 0.0647128 
-0.0111699 -9.97746 0.0314795 
0.0647128 0.0314795 -10.0298 
-10.1116 0.00717025 -0.0187533 
0.00717025 -10.0812 -0.0152738 
-0.0187533 -0.0152738 -10.0225 
-10.101 0.000881206 0.0235502 
0.000881206 -10.1092 -0.0227599 
0.0235502 -0.0227599 -10.0052 
-9.88664 -0.00735234 -0.226514 
-0.00735234 -9.88236 0.0510269 
-0.226514 0.0510269 -9.89666 
-9.92431 -0.00865432 -0.226826 
-0.00865432 -9.87452 0.0395482 
-0.226826 0.0395482 -9.86683 
-9.84032 -0.0078651 -0.256805 
-0.0078651 -9.89399 0.0616734 
-0.256805 0.0616734 -9.93136 
-9.86437 -0.0277576 -0.215355 
-0.0277576 -9.88869 0.0724156 
-0.215355 0.0724156 -9.91261 
-5.13905 -0.480179 0.589378 
-0.480179 -3.42184 0.685936 
0.589378 0.685936 -2.09483 
-6.58709 0.31243 1.51959 
0.31243 -4.43129 0.163552 
1.51959 0.163552 0.362651 
-7.84882 0.823511 1.17581 
0.823511 -3.25614 0.944212 
1.17581 0.944212 0.44924 
-3.92524 1.26374 1.64558 
1.26374 -4.01302 -0.234763 
1.64558 -0.234763 -2.71747 
-9.85582 0.00988858 0.101045 
0.00988858 -9.87571 0.216596 
0.101045 0.216596 -9.87602 
-9.85599 -0.00213007 0.103872 
-0.00213007 -9.87927 0.222521 
0.103872 0.222521 -9.87228 
-9.86908 0.0201757 0.0934297 
0.0201757 -9.84486 0.204159 
0.0934297 0.204159 -9.89361 
-9.85135 0.0191298 0.094064 
0.0191298 -9.85832 0.230495 
0.094064 0.230495 -9.89788 
-9.99735 0.0139378 -0.0208813 
0.0139378 -9.99717 0.0279329 
-0.0208813 0.0279329 -9.96272 
-9.97971 0.00518663 -0.00763522 
0.00518663 -9.98302 0.00106503 
-0.00763522 0.00106503 -9.99451 
-9.97518 0.0222932 0.00693905 
0.0222932 -10.0046 0.0116209 
0.00693905 0.0116209 -9.9775 
-9.95424 -0.0111204 -0.00674374 
-0.0111204 -9.97728 -0.0182293 
-0.00674374 -0.0182293 -10.0257 
-9.86268 -0.000870449 -0.115201 
-0.000870449 -9.89211 -0.207206 
-0.115201 -0.207206 -9.87685 
-9.8953 0.0230058 -0.0811031 
0.0230058 -9.86185 -0.212395 
-0.0811031 -0.212395 -9.8745 
-9.8661 0.0206195 -0.0918804 
0.0206195 -9.84369 -0.212469 
-0.0918804 -0.212469 -9.92185 
-9.8591 0.0232223 -0.0959364 
0.0232223 -9.87693 -0.210219 
-0.0959364 -0.210219 -9.89562 
-9.95526 -0.00734357 -0.210766 
-0.00734357 -9.96612 -0.115485 
-0.210766 -0.115485 -10.009 
-9.97424 0.00595377 -0.202095 
0.00595377 -9.97451 -0.107015 
-0.202095 -0.107015 -9.98169 
-9.95936 0.00636712 -0.21037 
0.00636712 -9.9821 -0.107119 
-0.21037 -0.107119 -9.98897 
-9.97148 0.00311211 -0.19946 
0.00311211 -9.98101 -0.103837 
-0.19946 -0.103837 -9.97794 
-10.0243 -0.0153145 0.01855 
-0.0153145 -9.98238 0.014315 
0.01855 0.014315 -9.98702 
-10.0135 -0.00792054 -0.00889765 
-0.00792054 -9.99577 0.00477512 
-0.00889765 0.00477512 -9.98447 
-9.98327 0.0347672 0.0053276 
0.0347672 -9.99407 -0.00193299 
0.0053276 -0.00193299 -10.0164 
-10.0062 0.0120277 0.00948491 
0.0120277 -10.0059 -0.00489111 
0.00948491 -0.00489111 -9.98159 
-9.9519 -0.00451763 0.262212 
-0.00451763 -9.95215 -0.0229434 
0.262212 -0.0229434 -9.95776 
-9.92323 0.0040566 0.255245 
0.0040566 -9.9576 -0.0134387 
0.255245 -0.0134387 -9.98098 
-9.95326 -0.00113932 0.268558 
-0.00113932 -9.96724 -0.0175595 
0.268558 -0.0175595 -9.94131 
-9.95647 -0.00412207 0.263839 
-0.00412207 -9.95021 -0.024043 
0.263839 -0.024043 -9.95512 
-9.67637 -0.0403345 -0.0162786 
-0.0403345 -9.94561 0.096408 
-0.0162786 0.096408 -9.74202 
-9.83272 0.0567991 0.00926699 
0.0567991 -9.64968 0.144551 
0.00926699 0.144551 -9.8816 
-9.84225 0.0076009 -0.000515927 
0.0076009 -9.62321 0.106925 
-0.000515927 0.106925 -9.89855 
-9.85056 -0.0328659 -0.00448946 
-0.0328659 -9.68058 0.219223 
-0.00448946 0.219223 -9.83286 
-9.94355 -0.000900802 0.212791 
-0.000900802 -9.95581 -0.0867744 
0.212791 -0.0867744 -10.022 
-9.97117 -0.00137658 0.224275 
-0.00137658 -9.97169 -0.0916571 
0.224275 -0.0916571 -9.97849 
-9.97103 -0.00795275 0.225252 
-0.00795275 -9.96995 -0.0868894 
0.225252 -0.0868894 -9.98037 
-9.9692 -0.00894655 0.236699 
-0.00894655 -9.98286 -0.0885892 
0.236699 -0.0885892 -9.96929 
-10.0996 -0.0564297 -0.0265107 
-0.0564297 -10.0473 -0.020005 
-0.0265107 -0.020005 -10.0826 
-10.0317 0.0254743 -0.0128948 
0.0254743 -10.0364 -0.0189939 
-0.0128948 -0.0189939 -10.1614 
-10.1509 0.0292681 -0.0212335 
0.0292681 -9.99663 0.000911693 
-0.0212335 0.000911693 -10.0819 
-10.1088 0.0048876 -0.00912462 
0.0048876 -10.031 0.00285495 
-0.00912462 0.00285495 -10.0896 
-9.95603 0.001614 -0.0185408 
0.001614 -9.94908 -0.254878 
-0.0185408 -0.254878 -9.95728 
-9.9685 -0.00457046 -0.0145395 
-0.00457046 -9.95342 -0.264992 
-0.0145395 -0.264992 -9.94046 
-9.95045 -0.00303715 -0.0103457 
-0.00303715 -9.94167 -0.254057 
-0.0103457 -0.254057 -9.97028 
-9.95409 -0.00477791 -0.0201459 
-0.00477791 -9.95247 -0.263339 
-0.0201459 -0.263339 -9.95583 
-9.95355 0.0340254 -0.0142015 
0.0340254 -9.98991 -0.00476593 
-0.0142015 -0.00476593 -9.96699 
-9.94693 0.0225791 -0.0114086 
0.0225791 -9.94301 -0.0204553 
-0.0114086 -0.0204553 -10.0205 
-9.90885 0.0421208 -0.0445453 
0.0421208 -9.95932 -0.0138692 
-0.0445453 -0.0138692 -10.0423 
-9.93776 0.0327771 0.00506103 
0.0327771 -9.93175 -0.0111023 
0.00506103 -0.0111023 -10.0409 
-9.96411 4.52757e-05 -0.203376 
4.52757e-05 -9.96121 0.12714 
-0.203376 0.12714 -9.99606 
-9.9736 -0.00413744 -0.198484 
-0.00413744 -9.97323 0.121155 
-0.198484 0.121155 -9.97456 
-9.95696 0.00679967 -0.190575 
0.00679967 -9.95775 0.119163 
-0.190575 0.119163 -10.0067 
-9.97135 -0.00567784 -0.203709 
-0.00567784 -9.98165 0.119591 
-0.203709 0.119591 -9.9684 
-1.84508 2.59093 -4.84205 
2.59093 -2.41444 5.92813 
-4.84205 5.92813 -20.4263 
-13.7016 1.58133 -0.122593 
1.58133 -17.5876 -7.83626 
-0.122593 -7.83626 6.60332 
-8.6111 -2.42256 4.41334 
-2.42256 -21.102 -8.24398 
4.41334 -8.24398 5.02726 
-12.5383 -7.83592 -2.41758 
-7.83592 7.93721 -12.7274 
-2.41758 -12.7274 -20.0848 
-9.9808 0.000924675 -0.231168 
0.000924675 -9.98497 0.0873963 
-0.231168 0.0873963 -9.98609 
-9.97592 0.00284577 -0.229619 
0.00284577 -9.97958 0.0829523 
-0.229619 0.0829523 -9.99635 
-9.98222 0.0103132 -0.236178 
0.0103132 -9.97112 0.0856668 
-0.236178 0.0856668 -9.99852 
-9.98748 -0.000125721 -0.228023 
-0.000125721 -9.98641 0.0914138 
-0.228023 0.0914138 -9.97796 
-10.212 0.104447 -0.199753 
0.104447 -9.42554 -0.0646249 
-0.199753 -0.0646249 -10.9238 
-10.2824 -0.193385 0.0901834 
-0.193385 -9.66703 0.0362239 
0.0901834 0.0362239 -10.612 
-10.3691 -0.287525 0.210988 
-0.287525 -9.80076 -0.163231 
0.210988 -0.163231 -10.3915 
-10.1886 -0.15819 0.178206 
-0.15819 -9.74433 0.166183 
0.178206 0.166183 -10.6284 
-10.9078 -2.84686 0.681197 
-2.84686 -9.45236 -1.53177 
0.681197 -1.53177 -16.2702 
-11.9126 -1.75818 0.717268 
-1.75818 -11.7569 -0.582113 
0.717268 -0.582113 -12.9608 
-11.6779 -1.55735 0.546016 
-1.55735 -11.6695 -0.54582 
0.546016 -0.54582 -13.2829 
-12.038 -1.30928 1.58135 
-1.30928 -10.4166 1.40615 
1.58135 1.40615 -14.1757 
-2.75807 0.0987408 0.203914 
0.0987408 0.0192975 0.21061 
0.203914 0.21061 -5.38328 
-4.71732 -0.399462 0.156053 
-0.399462 -2.72295 0.399072 
0.156053 0.399072 -0.681772 
-8.69193 0.988843 3.24779 
0.988843 -5.76104 0.648886 
3.24779 0.648886 6.33092 
-7.3493 -0.575282 -4.10672 
-0.575282 -0.256055 -0.892741 
-4.10672 -0.892741 -0.516693 
-9.87891 0.00508466 -0.0334386 
0.00508466 -9.89514 -0.245707 
-0.0334386 -0.245707 -9.91671 
-9.89478 0.00681232 -0.0285082 
0.00681232 -9.88746 -0.24442 
-0.0285082 -0.24442 -9.90851 
-9.89857 0.000346433 -0.032783 
0.000346433 -9.87524 -0.245384 
-0.032783 -0.245384 -9.91694 
-9.89309 0.00854366 -0.0276067 
0.00854366 -9.8899 -0.246367 
-0.0276067 -0.246367 -9.90777 
-9.93536 0.0159534 0.111468 
0.0159534 -9.9512 0.223455 
0.111468 0.223455 -9.93556 
-9.94481 0.00583483 0.0953356 
0.00583483 -9.92597 0.234271 
0.0953356 0.234271 -9.95134 
-9.93244 0.0224637 0.0753129 
0.0224637 -9.92756 0.240142 
0.0753129 0.240142 -9.96212 
-9.94686 0.00414443 0.0894708 
0.00414443 -9.92889 0.234833 
0.0894708 0.234833 -9.94637 
-9.8178 -0.0261011 -0.036209 
-0.0261011 -9.85703 0.0998746 
-0.036209 0.0998746 -9.89218 
-9.78311 -0.00810222 -0.0465103 
-0.00810222 -9.90523 0.103661 
-0.0465103 0.103661 -9.87867 
-9.83054 -0.109766 -0.0331665 
-0.109766 -9.78439 0.0713321 
-0.0331665 0.0713321 -9.95208 
-9.83203 0.00103064 -0.0782446 
0.00103064 -9.8312 0.125912 
-0.0782446 0.125912 -9.90377 
-9.94532 -0.0176884 0.00129567 
-0.0176884 -9.92223 -0.00910837 
0.00129567 -0.00910837 -9.97713 
-9.97321 0.00440499 0.0235948 
0.00440499 -9.93085 0.0330083 
0.0235948 0.0330083 -9.94061 
-9.93228 0.00868218 0.0187959 
0.00868218 -9.91555 -0.0137335 
0.0187959 -0.0137335 -9.99684 
-9.93382 -0.00284005 0.0174629 
-0.00284005 -9.93592 0.00525353 
0.0174629 0.00525353 -9.97493 
-9.98157 0.00494481 0.23176 
0.00494481 -9.99311 0.0849276 
0.23176 0.0849276 -9.97449 
-9.97465 0.00969931 0.238983 
0.00969931 -9.97678 0.0832254 
0.238983 0.0832254 -9.99774 
-9.97191 0.00336552 0.224098 
0.00336552 -9.96674 0.0881411 
0.224098 0.0881411 -10.0105 
-9.97903 0.000327054 0.232562 
0.000327054 -9.99689 0.0754679 
0.232562 0.0754679 -9.97325 
-11.0328 0.0423807 -0.355918 
0.0423807 -10.8174 0.342606 
-0.355918 0.342606 -10.1572 
-9.82207 0.179566 0.421147 
0.179566 -9.729 -0.280629 
0.421147 -0.280629 -12.4563 
-10.8811 0.025668 -0.138493 
0.025668 -11.0573 0.0612695 
-0.138493 0.0612695 -10.069 
-11.4742 0.275784 0.453552 
0.275784 -10.4587 0.956585 
0.453552 0.956585 -10.0745 
-10.822 -0.423284 -0.120297 
-0.423284 -10.0122 0.303352 
-0.120297 0.303352 -10.2536 
-10.0348 0.515356 -0.262278 
0.515356 -10.2109 0.264676 
-0.262278 0.264676 -10.8421 
-10.4485 -0.082224 0.275984 
-0.082224 -9.94066 0.132502 
0.275984 0.132502 -10.6986 
-10.212 0.108953 0.379633 
0.108953 -10.4042 0.0218272 
0.379633 0.0218272 -10.4715 
-9.97868 0.175096 0.105148 
0.175096 -10.0204 0.053771 
0.105148 0.053771 -10.1746 
-10.1352 0.117518 0.0854089 
0.117518 -9.9702 0.047416 
0.0854089 0.047416 -10.0683 
-9.89711 0.0339344 0.0407266 
0.0339344 -9.94284 0.0309847 
0.0407266 0.0309847 -10.3338 
-10.0071 0.141351 0.227257 
0.141351 -10.047 0.0634415 
0.227257 0.0634415 -10.1196 
-10.1041 0.0502964 0.0166448 
0.0502964 -9.97632 -0.0473893 
0.0166448 -0.0473893 -10.0388 
-10.0214 -0.0346063 0.0254112 
-0.0346063 -9.99002 -0.0418918 
0.0254112 -0.0418918 -10.1078 
-10.03 0.0434073 0.0194944 
0.0434073 -10.0414 -0.0364396 
0.0194944 -0.0364396 -10.0478 
-10.055 0.0287885 0.023144 
0.0287885 -10.0113 -0.0460925 
0.023144 -0.0460925 -10.0529 
-9.88805 0.00218858 0.239657 
0.00218858 -9.88284 0.0546334 
0.239657 0.0546334 -9.90186 
-9.83495 0.010465 0.25343 
0.010465 -9.90239 0.0624393 
0.25343 0.0624393 -9.93541 
-9.90253 0.00451847 0.245605 
0.00451847 -9.88429 0.05366 
0.245605 0.05366 -9.88594 
-9.88219 0.0272611 0.21535 
0.0272611 -9.88448 0.0686701 
0.21535 0.0686701 -9.90608 
-9.95032 -0.0159282 -0.00284875 
-0.0159282 -9.91882 0.0107478 
-0.00284875 0.0107478 -9.96508 
-9.95464 -0.00880908 -0.00782847 
-0.00880908 -9.93104 0.0104605 
-0.00782847 0.0104605 -9.94854 
-9.94112 -0.0244902 -0.0195716 
-0.0244902 -9.92761 0.00449075 
-0.0195716 0.00449075 -9.96549 
-9.95435 -0.0044713 -0.00638065 
-0.0044713 -9.92833 0.00787954 
-0.00638065 0.00787954 -9.95154 
-13.7435 -2.01185 -0.708168 
-2.01185 -4.55607 -0.979501 
-0.708168 -0.979501 -23.0713 
-13.2578 0.515488 1.48573 
0.515488 -4.91376 -0.95668 
1.48573 -0.95668 -23.1992 
-15.0834 -1.05339 0.000309413 
-1.05339 -9.61357 1.05614 
0.000309413 1.05614 -16.6738 
-13.2513 -0.38055 0.033208 
-0.38055 -11.3168 -1.825 
0.033208 -1.825 -16.8027 
-6.69683 -1.97992 -0.467902 
-1.97992 -5.47814 1.06279 
-0.467902 1.06279 1.33972 
-4.42056 0.909556 0.397229 
0.909556 -4.04401 0.0302979 
0.397229 0.0302979 -2.37068 
-2.79892 -0.024786 0.41689 
-0.024786 -2.59634 -1.62117 
0.41689 -1.62117 -5.43999 
-5.88393 0.818898 1.68412 
0.818898 -3.15995 -1.39545 
1.68412 -1.39545 -1.79137 
-9.98238 -0.00260814 0.0488147 
-0.00260814 -9.98418 0.245915 
0.0488147 0.245915 -9.97596 
-9.97056 -0.00239415 0.0395361 
-0.00239415 -9.96396 0.252414 
0.0395361 0.252414 -10.008 
-9.97453 -0.0130436 0.0467352 
-0.0130436 -9.97351 0.257199 
0.0467352 0.257199 -9.99449 
-9.98595 0.00682662 0.0519008 
0.00682662 -9.99046 0.256752 
0.0519008 0.256752 -9.96612 
-9.79899 0.0480099 0.0497919 
0.0480099 -9.74354 0.129155 
0.0497919 0.129155 -9.8745 
-9.76128 0.0239389 0.0355733 
0.0239389 -9.82128 0.12567 
0.0355733 0.12567 -9.83447 
-9.79617 0.0697925 0.0525014 
0.0697925 -9.74929 0.131134 
0.0525014 0.131134 -9.87157 
-9.79659 0.0446445 0.0536302 
0.0446445 -9.77056 0.15141 
0.0536302 0.15141 -9.84987 
-9.92294 -0.00471231 -0.0587247 
-0.00471231 -9.91004 0.241198 
-0.0587247 0.241198 -9.94118 
-9.93335 -0.0078231 -0.0648353 
-0.0078231 -9.91196 0.2383 
-0.0648353 0.2383 -9.92884 
-9.93316 -0.00798617 -0.0560288 
-0.00798617 -9.91769 0.236281 
-0.0560288 0.236281 -9.92331 
-9.93212 -0.0131166 -0.0640352 
-0.0131166 -9.92259 0.245791 
-0.0640352 0.245791 -9.91945 
-10.0286 -0.0191468 0.00812296 
-0.0191468 -10.0566 0.0208118 
0.00812296 0.0208118 -10.0884 
-10.0206 -0.00970227 -0.0108853 
-0.00970227 -10.0105 0.000308318 
-0.0108853 0.000308318 -10.1425 
-10.0893 -0.00669015 0.0275392 
-0.00669015 -10.0606 -2.47421e-05 
0.0275392 -2.47421e-05 -10.0236 
-10.0694 0.0059645 0.00203031 
0.0059645 -10.0562 0.0190812 
0.00203031 0.0190812 -10.048 
-10.0252 0.0123158 0.0150428 
0.0123158 -9.96564 -0.0134701 
0.0150428 -0.0134701 -10.03 
-10.0119 -0.0101149 0.00414212 
-0.0101149 -9.97434 -0.0422898 
0.00414212 -0.0422898 -10.0347 
-10.0106 -0.00887713 0.0154238 
-0.00887713 -10.0023 -0.0105146 
0.0154238 -0.0105146 -10.008 
-10.0275 0.0156867 0.0260712 
0.0156867 -10.0375 0.012871 
0.0260712 0.012871 -9.95591 
-9.99707 0.00414164 0.220155 
0.00414164 -9.9831 -0.134506 
0.220155 -0.134506 -9.96145 
-9.94957 0.000597173 0.201278 
0.000597173 -9.97114 -0.130791 
0.201278 -0.130791 -10.0209 
-9.96683 -0.026514 0.199669 
-0.026514 -9.97389 -0.132587 
0.199669 -0.132587 -10.0009 
-9.96665 -0.00279009 0.215013 
-0.00279009 -9.98781 -0.149179 
0.215013 -0.149179 -9.98715 
-10.1877 0.000384792 -0.0223324 
0.000384792 -10.2388 -0.0423431 
-0.0223324 -0.0423431 -10.0876 
-10.0954 -0.0165674 -0.00312734 
-0.0165674 -9.96497 -0.0801838 
-0.00312734 -0.0801838 -10.4538 
-10.2056 -0.0725624 0.0065674 
-0.0725624 -10.1664 0.0134482 
0.0065674 0.0134482 -10.1421 
-10.2176 -0.0800006 -0.111344 
-0.0800006 -10.0985 0.0785086 
-0.111344 0.0785086 -10.198 
-9.98385 0.29188 -0.0240458 
0.29188 -9.89009 0.0407209 
-0.0240458 0.0407209 -10.6764 
-10.2229 0.402007 -0.185428 
0.402007 -9.73424 -0.112201 
-0.185428 -0.112201 -10.5932 
-10.5918 -0.121873 -0.10543 
-0.121873 -9.91761 -0.0636082 
-0.10543 -0.0636082 -10.0409 
-9.89945 0.256138 -0.14833 
0.256138 -9.8767 -0.122207 
-0.14833 -0.122207 -10.7742 
-9.97932 -0.000324209 -0.11897 
-0.000324209 -9.74876 0.0408822 
-0.11897 0.0408822 -9.72618 
-9.71185 -0.0248233 -0.140836 
-0.0248233 -9.84166 0.026612 
-0.140836 0.026612 -9.90075 
-9.65065 0.00576331 -0.0893757 
0.00576331 -9.87189 0.0183796 
-0.0893757 0.0183796 -9.93171 
-9.72164 0.0238578 -0.201562 
0.0238578 -9.83635 0.00921025 
-0.201562 0.00921025 -9.89627 
-11.8507 0.439249 -0.198125 
0.439249 -10.5565 -0.00113604 
-0.198125 -0.00113604 -15.1054 
-12.5405 0.651142 -0.131342 
0.651142 -11.6069 0.6467 
-0.131342 0.6467 -13.3652 
-11.9381 0.187362 0.118427 
0.187362 -11.1276 1.20456 
0.118427 1.20456 -14.4469 
-13.6678 0.449267 -1.19914 
0.449267 -11.2715 0.0981592 
-1.19914 0.0981592 -12.5734 
-12.4302 0.472222 0.156008 
0.472222 -11.5984 1.34503 
0.156008 1.34503 -15.7217 
-13.902 -0.594073 -0.0933134 
-0.594073 -12.1231 0.435834 
-0.0933134 0.435834 -13.7253 
-11.8807 0.375624 -0.168664 
0.375624 -12.2831 0.109474 
-0.168664 0.109474 -15.5866 
-13.894 0.180438 0.502761 
0.180438 -12.3409 -0.193434 
0.502761 -0.193434 -13.5154 
-9.85857 -0.00793712 0.233245 
-0.00793712 -9.86005 -0.0568879 
0.233245 -0.0568879 -9.89021 
-9.829 -0.0273064 0.21888 
-0.0273064 -9.87287 -0.064775 
0.21888 -0.064775 -9.90695 
-9.87077 -0.00692328 0.233149 
-0.00692328 -9.85149 -0.0746304 
0.233149 -0.0746304 -9.88657 
-9.85416 0.0039928 0.235238 
0.0039928 -9.85706 -0.0769982 
0.235238 -0.0769982 -9.89761 
-9.94618 0.00507234 0.198199 
0.00507234 -9.93017 -0.140239 
0.198199 -0.140239 -9.93043 
-9.92254 -0.0209391 0.207745 
-0.0209391 -9.92793 -0.150327 
0.207745 -0.150327 -9.95631 
-9.94195 -0.00206496 0.206199 
-0.00206496 -9.9347 -0.127704 
0.206199 -0.127704 -9.93013 
-9.93734 -0.00346063 0.194552 
-0.00346063 -9.91833 -0.136921 
0.194552 -0.136921 -9.95111 
-9.81142 -0.0163672 -0.215202 
-0.0163672 -9.8352 0.055291 
-0.215202 0.055291 -9.83996 
-9.80451 -0.0154283 -0.221581 
-0.0154283 -9.83221 0.0601716 
-0.221581 0.0601716 -9.84986 
-9.81905 -0.0172737 -0.221286 
-0.0172737 -9.82852 0.0595001 
-0.221286 0.0595001 -9.83901 
-9.81818 -0.0147508 -0.227626 
-0.0147508 -9.82444 0.059252 
-0.227626 0.059252 -9.84395 
-9.9725 0.00365258 0.254356 
0.00365258 -9.9914 -0.00400203 
0.254356 -0.00400203 -9.98573 
-9.97128 0.00306256 0.251062 
0.00306256 -9.98346 0.00459246 
0.251062 0.00459246 -9.99489 
-9.97219 -0.00135198 0.244244 
-0.00135198 -9.98749 -0.0007482 
0.244244 -0.0007482 -9.98995 
-9.97996 0.00363777 0.254064 
0.00363777 -9.99262 -0.000201727 
0.254064 -0.000201727 -9.97705 
-9.81811 0.0500567 0.0940137 
0.0500567 -9.77047 0.175012 
0.0940137 0.175012 -9.85947 
-9.77307 -0.0375223 0.0704937 
-0.0375223 -9.88073 0.132543 
0.0704937 0.132543 -9.79424 
-9.82773 0.0718426 0.0637156 
0.0718426 -9.74825 0.152805 
0.0637156 0.152805 -9.87206 
-9.75344 0.0548197 0.109346 
0.0548197 -9.85045 0.16791 
0.109346 0.16791 -9.84416 
-9.91963 -0.0374069 0.0162986 
-0.0374069 -9.84183 -0.0460394 
0.0162986 -0.0460394 -9.96008 
-9.91845 -0.0390871 0.011583 
-0.0390871 -9.84958 -0.0681348 
0.011583 -0.0681348 -9.95351 
-9.90362 -0.0177563 0.0315554 
-0.0177563 -9.87172 -0.0500923 
0.0315554 -0.0500923 -9.9462 
-9.89564 -0.0231161 0.00606184 
-0.0231161 -9.87216 -0.0403 
0.00606184 -0.0403 -9.95374 
-9.8424 -0.0377443 0.12268 
-0.0377443 -9.75512 -0.0256484 
0.12268 -0.0256484 -9.83645 
-9.7229 -0.0580352 0.146051 
-0.0580352 -9.79872 -0.00557367 
0.146051 -0.00557367 -9.91234 
-9.73467 -0.036911 0.164901 
-0.036911 -9.8204 -0.0373122 
0.164901 -0.0373122 -9.87889 
-9.76981 -0.0801249 0.17444 
-0.0801249 -9.81918 -0.0371265 
0.17444 -0.0371265 -9.84497 
-10.2411 0.107082 0.188082 
0.107082 -10.2056 -0.0684019 
0.188082 -0.0684019 -11.2608 
-11.092 0.0378 -0.174602 
0.0378 -10.8553 -0.190058 
-0.174602 -0.190058 -9.76018 
-10.4575 -0.0611989 -0.0276739 
-0.0611989 -10.6991 0.0776856 
-0.0276739 0.0776856 -10.5509 
-10.6238 0.071095 -0.195993 
0.071095 -10.5867 0.309982 
-0.195993 0.309982 -10.4969 
-10.6212 0.0210291 0.35074 
0.0210291 -11.2184 -0.0798123 
0.35074 -0.0798123 -9.86796 
-10.3747 0.0379854 0.0850648 
0.0379854 -10.193 0.294509 
0.0850648 0.294509 -11.1398 
-10.4312 -0.220111 0.190946 
-0.220111 -10.4954 -0.0388778 
0.190946 -0.0388778 -10.781 
-10.5457 -0.306989 0.197016 
-0.306989 -10.3906 -0.292661 
0.197016 -0.292661 -10.7713 
-9.98027 0.00187556 0.046618 
0.00187556 -9.98659 -0.24293 
0.046618 -0.24293 -9.97933 
-9.97114 0.0121999 0.0434138 
0.0121999 -9.98531 -0.248117 
0.0434138 -0.248117 -9.98974 
-9.9693 0.00619766 0.0374828 
0.00619766 -9.96352 -0.24816 
0.0374828 -0.24816 -10.0134 
-9.98955 -0.00288676 0.0514733 
-0.00288676 -9.99141 -0.252737 
0.0514733 -0.252737 -9.96523 
-9.92757 -0.0146146 0.0544177 
-0.0146146 -9.9942 -0.0418953 
0.0544177 -0.0418953 -9.92565 
-9.94558 -0.0335261 0.00816305 
-0.0335261 -9.93005 -0.0434944 
0.00816305 -0.0434944 -9.97179 
-9.98754 -0.0142163 -0.00591707 
-0.0142163 -9.85608 -0.00576606 
-0.00591707 -0.00576606 -10.0038 
-9.9402 -0.0546043 0.00345019 
-0.0546043 -9.91447 -0.0458839 
0.00345019 -0.0458839 -9.99275 
-9.8741 -0.0282598 0.198399 
-0.0282598 -9.87241 -0.143573 
0.198399 -0.143573 -9.94548 
-9.89115 -0.0103411 0.191695 
-0.0103411 -9.89671 -0.139909 
0.191695 -0.139909 -9.90413 
-9.90676 0.019633 0.198771 
0.019633 -9.88724 -0.136837 
0.198771 -0.136837 -9.898 
-9.86652 0.000332764 0.192436 
0.000332764 -9.90668 -0.128006 
0.192436 -0.128006 -9.91879 
-9.97322 0.000772935 -0.118236 
0.000772935 -9.95962 -0.206981 
-0.118236 -0.206981 -9.98002 
-9.96513 -0.00120134 -0.110032 
-0.00120134 -9.95875 -0.214406 
-0.110032 -0.214406 -9.98897 
-9.95098 0.000700564 -0.103675 
0.000700564 -9.95725 -0.203359 
-0.103675 -0.203359 -10.0046 
-9.97839 0.00624374 -0.122255 
0.00624374 -9.96571 -0.215831 
-0.122255 -0.215831 -9.96876 
-9.98964 0.00151401 -0.234717 
0.00151401 -9.98138 0.0435782 
-0.234717 0.0435782 -9.98383 
-9.99368 -0.00179923 -0.24399 
-0.00179923 -9.99076 0.0486954 
-0.24399 0.0486954 -9.97042 
-9.97292 0.00321542 -0.239046 
0.00321542 -9.97369 0.0362796 
-0.239046 0.0362796 -10.0082 
-9.98998 0.0119588 -0.239747 
0.0119588 -9.97105 0.0393931 
-0.239747 0.0393931 -9.99381 
-9.92953 -0.0667846 -0.009002 
-0.0667846 -9.85627 0.0587589 
-0.009002 0.0587589 -9.99839 
-10.0301 -0.0701832 0.00393081 
-0.0701832 -9.76542 0.0111166 
0.00393081 0.0111166 -9.9887 
-9.84443 -0.00671655 -0.0471203 
-0.00671655 -9.9812 0.0519853 
-0.0471203 0.0519853 -9.95855 
-9.86402 -0.130631 0.0278206 
-0.130631 -9.92055 0.0601629 
0.0278206 0.0601629 -9.99962 
-10.0155 0.258667 -0.0866563 
0.258667 -10.0241 0.0499351 
-0.0866563 0.0499351 -10.2633 
-10.2802 -0.223366 -0.061062 
-0.223366 -10.027 0.148225 
-0.061062 0.148225 -9.99568 
-10.1441 0.0286632 0.0806344 
0.0286632 -10.0298 0.149872 
0.0806344 0.149872 -10.129 
-10.1911 0.00280481 0.112034 
0.00280481 -9.94813 0.0977701 
0.112034 0.0977701 -10.1637 
-10.0644 -0.00352393 -0.0036779 
-0.00352393 -10.0608 -0.0208858 
-0.0036779 -0.0208858 -10.0251 
-9.98479 -0.0215419 -0.00540801 
-0.0215419 -9.98526 -0.00275169 
-0.00540801 -0.00275169 -10.1803 
-10.0281 -0.00163349 -0.0141868 
-0.00163349 -10.0714 -0.023203 
-0.0141868 -0.023203 -10.0509 
-10.0548 -0.011175 -0.0267716 
-0.011175 -10.0458 -0.0550563 
-0.0267716 -0.0550563 -10.0497 
-9.90432 0.0155061 -0.237323 
0.0155061 -9.92632 -0.0994794 
-0.237323 -0.0994794 -9.95359 
-9.94238 -0.00116274 -0.214723 
-0.00116274 -9.92937 -0.108887 
-0.214723 -0.108887 -9.91248 
-9.93208 -0.00618359 -0.223703 
-0.00618359 -9.92655 -0.0918285 
-0.223703 -0.0918285 -9.9256 
-9.91355 -0.00123002 -0.218073 
-0.00123002 -9.92221 -0.0928018 
-0.218073 -0.0928018 -9.94847 
-9.40615 0.814552 -4.67296 
0.814552 -10.6304 -0.441311 
-4.67296 -0.441311 -5.93189 
-9.94878 1.91197 -0.846161 
1.91197 -9.17958 -2.02039 
-0.846161 -2.02039 -6.84012 
-7.63327 1.27443 -1.29239 
1.27443 -7.82588 -1.01929 
-1.29239 -1.01929 -10.5093 
-10.0813 1.56817 -0.246018 
1.56817 -9.4887 -1.25401 
-0.246018 -1.25401 -6.39846 
-9.94939 0.00331351 0.070467 
0.00331351 -9.96016 0.260625 
0.070467 0.260625 -9.93862 
-9.94089 -0.0117641 0.0697311 
-0.0117641 -9.95406 0.248615 
0.0697311 0.248615 -9.95321 
-9.95739 0.000446782 0.051701 
0.000446782 -9.92126 0.24906 
0.051701 0.24906 -9.96952 
-9.95303 0.00446739 0.0556278 
0.00446739 -9.93778 0.242425 
0.0556278 0.242425 -9.95735 
-10.1263 0.00185524 0.0564741 
0.00185524 -10.1129 -0.0283054 
0.0564741 -0.0283054 -10.064 
-10.1042 -0.014919 0.0388792 
-0.014919 -10.0736 -0.0131844 
0.0388792 -0.0131844 -10.1254 
-10.0568 -0.0593039 0.0278095 
-0.0593039 -10.0233 -0.0427779 
0.0278095 -0.0427779 -10.2231 
-10.1401 -0.0034196 0.0281228 
-0.0034196 -10.062 0.0245421 
0.0281228 0.0245421 -10.1011 
-10.2838 -0.0371279 0.0136781 
-0.0371279 -10.3842 0.029563 
0.0136781 0.029563 -10.2193 
-10.1783 -0.0737266 0.0135141 
-0.0737266 -10.352 0.00524692 
0.0135141 0.00524692 -10.357 
-10.2564 -0.0224106 -0.025134 
-0.0224106 -10.3559 0.0461264 
-0.025134 0.0461264 -10.2751 
-10.2463 -0.0363542 -0.0251388 
-0.0363542 -10.316 0.0175499 
-0.0251388 0.0175499 -10.3252 
-9.66899 -0.0608334 0.109791 
-0.0608334 -9.80703 0.0497198 
0.109791 0.0497198 -9.92135 
-9.73207 -0.0415261 0.201497 
-0.0415261 -9.82039 -0.134418 
0.201497 -0.134418 -9.84491 
-9.55329 -0.0658919 0.0905007 
-0.0658919 -9.92882 -0.105934 
0.0905007 -0.105934 -9.91526 
-9.60495 -0.0903393 0.267817 
-0.0903393 -9.89581 0.0849389 
0.267817 0.0849389 -9.89662 
-10.1625 0.0303065 -0.00524145 
0.0303065 -10.1439 -0.0157688 
-0.00524145 -0.0157688 -10.177 
-10.1615 -0.00389222 -0.0293405 
-0.00389222 -10.0609 -0.0017849 
-0.0293405 -0.0017849 -10.2611 
-10.2403 -0.0407777 -0.01378 
-0.0407777 -10.2294 0.0493104 
-0.01378 0.0493104 -10.0138 
-10.1939 0.00650728 0.0859618 
0.00650728 -10.1098 0.00278839 
0.0859618 0.00278839 -10.1798 
-10.0459 -0.0198355 -0.0233572 
-0.0198355 -9.99053 -0.0128679 
-0.0233572 -0.0128679 -10.0678 
-10.0473 -0.0206739 -0.0162764 
-0.0206739 -10.035 0.0601373 
-0.0162764 0.0601373 -10.0219 
-9.96191 -0.00201549 0.0128585 
-0.00201549 -10.074 -0.0360906 
0.0128585 -0.0360906 -10.0683 
-10.0256 -0.0180423 -0.0303196 
-0.0180423 -10.0121 -0.00945468 
-0.0303196 -0.00945468 -10.0665 
-10.0615 -0.0703838 0.161679 
-0.0703838 -9.71991 -0.0822433 
0.161679 -0.0822433 -9.77854 
-9.65939 0.0922898 0.00238344 
0.0922898 -9.9761 0.0253401 
0.00238344 0.0253401 -9.92451 
-9.74092 0.006677 0.0771621 
0.006677 -9.8926 0.00512506 
0.0771621 0.00512506 -9.92648 
-9.66048 -0.0876046 0.0666605 
-0.0876046 -9.93034 0.0533474 
0.0666605 0.0533474 -9.96918 
-0.340959 0.987997 4.18395 
0.987997 1.31178 -0.0977463 
4.18395 -0.0977463 -15.2412 
-16.7411 0.834736 -2.63966 
0.834736 -8.69285 4.25787 
-2.63966 4.25787 11.1635 
-12.686 2.19569 -3.25289 
2.19569 -8.91287 1.46819 
-3.25289 1.46819 7.32848 
0.276885 -4.5508 -12.4671 
-4.5508 -7.06541 5.92955 
-12.4671 5.92955 -7.48188 
-10.6572 0.0726461 0.0684852 
0.0726461 -10.7113 0.0383464 
0.0684852 0.0383464 -11.4956 
-11.2686 0.212421 -0.0405822 
0.212421 -10.957 0.112694 
-0.0405822 0.112694 -10.6384 
-10.7863 -0.242521 -0.0414662 
-0.242521 -10.826 -0.0220825 
-0.0414662 -0.0220825 -11.2518 
-10.8548 0.175206 0.118482 
0.175206 -11.1953 -0.258658 
0.118482 -0.258658 -10.814 
-9.96016 -0.00698325 -0.248888 
-0.00698325 -9.95163 -0.0687981 
-0.248888 -0.0687981 -9.96246 
-9.94367 -0.00295054 -0.238116 
-0.00295054 -9.96033 -0.0435927 
-0.238116 -0.0435927 -9.97025 
-9.93978 0.00347593 -0.230159 
0.00347593 -9.96848 -0.0556031 
-0.230159 -0.0556031 -9.96599 
-9.96499 0.0032308 -0.253413 
0.0032308 -9.96025 -0.0689594 
-0.253413 -0.0689594 -9.94902 
-10.0111 -0.00871547 0.00142084 
-0.00871547 -9.99357 0.0138448 
0.00142084 0.0138448 -10.0027 
-10.0065 -0.0052659 -0.00407055 
-0.0052659 -10.0016 0.00389177 
-0.00407055 0.00389177 -9.99929 
-10.0121 -0.00410218 0.00286068 
-0.00410218 -9.99529 0.00831988 
0.00286068 0.00831988 -9.99995 
-10.0155 -0.00333629 -0.00313149 
-0.00333629 -9.99693 -0.0024626 
-0.00313149 -0.0024626 -9.99494 
-9.99901 -0.0177456 -0.201087 
-0.0177456 -10.0164 -0.0595205 
-0.201087 -0.0595205 -10.0015 
-10.0111 -0.00579569 -0.204833 
-0.00579569 -10.0454 -0.039427 
-0.204833 -0.039427 -9.96045 
-10.0061 -0.0298474 -0.182768 
-0.0298474 -9.98165 -0.0473648 
-0.182768 -0.0473648 -10.0293 
-10.0268 0.00935378 -0.198515 
0.00935378 -10.0281 -0.0658179 
-0.198515 -0.0658179 -9.96208 
-9.89965 -0.00931763 0.116333 
-0.00931763 -9.91284 -0.207025 
0.116333 -0.207025 -9.88466 
-9.89193 0.00895389 0.133009 
0.00895389 -9.9045 -0.188336 
0.133009 -0.188336 -9.90073 
-9.88315 -0.0347618 0.139631 
-0.0347618 -9.84112 -0.211486 
0.139631 -0.211486 -9.97288 
-9.86647 -0.0203999 0.131796 
-0.0203999 -9.91218 -0.166501 
0.131796 -0.166501 -9.91851 
-9.97342 0.0349657 -0.0098599 
0.0349657 -9.97457 0.0138453 
-0.0098599 0.0138453 -9.95005 
-9.96745 0.0229314 -0.00332276 
0.0229314 -9.96214 -0.00211764 
-0.00332276 -0.00211764 -9.96846 
-9.97457 0.0112159 0.000974506 
0.0112159 -9.96492 -0.00884035 
0.000974506 -0.00884035 -9.95856 
-9.99467 -0.0270421 -0.0206307 
-0.0270421 -9.93441 -0.010623 
-0.0206307 -0.010623 -9.96896 
-9.87742 -0.031046 0.0238789 
-0.031046 -9.90803 -0.0244006 
0.0238789 -0.0244006 -9.9698 
-9.8761 -0.011316 0.0379233 
-0.011316 -9.89754 -0.0377403 
0.0379233 -0.0377403 -9.98161 
-9.88746 0.00346991 0.00852269 
0.00346991 -9.92443 -0.0367747 
0.00852269 -0.0367747 -9.94336 
-9.89056 -0.00890225 0.0126713 
-0.00890225 -9.90223 -0.0309297 
0.0126713 -0.0309297 -9.96245 
-15.1794 0.91347 0.755324 
0.91347 -12.5886 1.16601 
0.755324 1.16601 -8.77794 
-10.0398 -0.47535 -0.863633 
-0.47535 -11.1358 0.268758 
-0.863633 0.268758 -15.3704 
-8.60266 1.94721 -0.0814544 
1.94721 -10.6033 0.923653 
-0.0814544 0.923653 -17.34 
-10.8494 1.2149 1.43055 
1.2149 -12.1731 -1.08646 
1.43055 -1.08646 -13.5234 
-9.98973 -0.0196806 0.136006 
-0.0196806 -9.95879 -0.206776 
0.136006 -0.206776 -9.98761 
-9.96676 0.00800941 0.12768 
0.00800941 -9.94694 -0.203082 
0.12768 -0.203082 -10.0224 
-9.97924 -0.00863869 0.136518 
-0.00863869 -9.99038 -0.217088 
0.136518 -0.217088 -9.96651 
-9.9801 -0.00799731 0.149325 
-0.00799731 -9.97474 -0.217538 
0.149325 -0.217538 -9.98128 
-9.40974 -0.240684 0.268326 
-0.240684 -10.6563 0.113497 
0.268326 0.113497 -10.8406 
-10.2275 0.0874763 0.128618 
0.0874763 -10.2207 0.0634756 
0.128618 0.0634756 -10.4584 
-9.85776 -0.0790476 -0.0327884 
-0.0790476 -10.4566 0.104056 
-0.0327884 0.104056 -10.5923 
-9.90874 0.0987199 -0.112556 
0.0987199 -10.3668 0.1135 
-0.112556 0.1135 -10.6311 
-14.9683 -0.490876 0.297247 
-0.490876 -13.3057 -2.80692 
0.297247 -2.80692 -21.9602 
-12.2542 -0.0108821 -1.56415 
-0.0108821 -14.6199 -2.83041 
-1.56415 -2.83041 -23.3602 
-13.7585 2.03748 -0.631205 
2.03748 -16.2244 -0.588049 
-0.631205 -0.588049 -20.2515 
-15.2644 1.66418 2.41826 
1.66418 -16.631 2.55992 
2.41826 2.55992 -18.3389 
-10.0857 0.00361243 0.00883894 
0.00361243 -10.0648 -0.0168867 
0.00883894 -0.0168867 -10.0046 
-10.0215 -0.0134846 0.0132057 
-0.0134846 -10.0412 -0.00247876 
0.0132057 -0.00247876 -10.0924 
-10.0302 -0.00264615 -0.00428397 
-0.00264615 -10.0193 -0.0240017 
-0.00428397 -0.0240017 -10.1057 
-10.0523 0.0135653 -0.0203511 
0.0135653 -10.0495 0.00904849 
-0.0203511 0.00904849 -10.0533 
-9.96202 -0.000827394 -0.204914 
-0.000827394 -9.96132 -0.156494 
-0.204914 -0.156494 -10.0057 
-9.95056 -0.00559176 -0.190619 
-0.00559176 -9.96395 -0.143231 
-0.190619 -0.143231 -10.0145 
-9.98049 0.00634552 -0.197246 
0.00634552 -9.98445 -0.152677 
-0.197246 -0.152677 -9.96409 
-9.97358 0.0129874 -0.210187 
0.0129874 -9.98737 -0.143395 
-0.210187 -0.143395 -9.96808 
-9.88455 -0.00573637 0.0414641 
-0.00573637 -9.91943 -0.250348 
0.0414641 -0.250348 -9.85341 
-9.88602 -0.00677191 0.0598757 
-0.00677191 -9.88137 -0.23751 
0.0598757 -0.23751 -9.89 
-9.88699 -0.00605361 0.0593597 
-0.00605361 -9.81753 -0.256207 
0.0593597 -0.256207 -9.95288 
-9.88738 -0.02294 0.0711628 
-0.02294 -9.87833 -0.207344 
0.0711628 -0.207344 -9.89169 
-11.3424 4.77305 -0.640499 
4.77305 -2.18876 1.31042 
-0.640499 1.31042 -22.4634 
-13.9546 1.11467 -0.386228 
1.11467 -7.83307 -1.14034 
-0.386228 -1.14034 -14.207 
-11.9021 1.66016 1.00114 
1.66016 -3.92432 0.0729682 
1.00114 0.0729682 -20.1681 
-12.2938 0.657224 0.660457 
0.657224 -9.42558 1.45347 
0.660457 1.45347 -14.2752 
-10.1595 -0.00600509 0.203313 
-0.00600509 -10.0525 0.00762891 
0.203313 0.00762891 -11.0542 
-10.5947 0.0121205 0.0220133 
0.0121205 -10.3658 0.0426525 
0.0220133 0.0426525 -10.3057 
-10.6028 0.0167673 0.00757911 
0.0167673 -10.4511 -0.0103101 
0.00757911 -0.0103101 -10.2123 
-10.4549 -0.0682448 -0.163076 
-0.0682448 -10.4733 0.220915 
-0.163076 0.220915 -10.338 
-9.96953 -0.000972617 -0.210364 
-0.000972617 -9.97959 0.102037 
-0.210364 0.102037 -9.97235 
-9.95971 0.0036057 -0.216871 
0.0036057 -9.96463 0.105619 
-0.216871 0.105619 -9.99713 
-9.96006 0.002624 -0.203221 
0.002624 -9.954 0.0970472 
-0.203221 0.0970472 -10.0074 
-9.97462 -0.00677949 -0.21039 
-0.00677949 -9.97969 0.109459 
-0.21039 0.109459 -9.96716 
-10.0885 -0.00573197 0.0350109 
-0.00573197 -10.0653 0.0167448 
0.0350109 0.0167448 -10.1074 
-10.0039 -0.0286997 0.0699634 
-0.0286997 -10.0519 -0.00552079 
0.0699634 -0.00552079 -10.2055 
-10.065 -0.0196028 0.0334644 
-0.0196028 -10.1147 0.0398182 
0.0334644 0.0398182 -10.0815 
-10.0271 -0.032449 -0.0100272 
-0.032449 -10.1157 0.018685 
-0.0100272 0.018685 -10.1184 
-9.929 -0.02532 -0.0576824 
-0.02532 -9.97986 0.00877924 
-0.0576824 0.00877924 -10.0523 
-9.92114 -0.0367531 -0.0208114 
-0.0367531 -10.0271 0.0277584 
-0.0208114 0.0277584 -10.0129 
-9.96511 -0.000953605 -0.0310121 
-0.000953605 -9.97113 0.0195674 
-0.0310121 0.0195674 -10.025 
-9.95364 0.00894249 -0.0227108 
0.00894249 -9.96429 -0.00933426 
-0.0227108 -0.00933426 -10.0433 
-9.93921 0.0023925 0.247237 
0.0023925 -9.96212 -0.0483015 
0.247237 -0.0483015 -9.9711 
-9.96986 -0.00386093 0.260868 
-0.00386093 -9.95534 -0.0696577 
0.260868 -0.0696577 -9.94723 
-9.96373 0.00855168 0.253048 
0.00855168 -9.94958 -0.072617 
0.253048 -0.072617 -9.95912 
-9.93759 -0.00444483 0.238882 
-0.00444483 -9.97105 -0.0568015 
0.238882 -0.0568015 -9.96379 
-9.79264 0.016401 0.041902 
0.016401 -9.7927 0.22278 
0.041902 0.22278 -9.83304 
-9.80906 0.0206561 0.0342627 
0.0206561 -9.77556 0.216787 
0.0342627 0.216787 -9.83377 
-9.81055 0.0120933 0.0460712 
0.0120933 -9.77497 0.224025 
0.0460712 0.224025 -9.83287 
-9.80818 0.022877 0.037534 
0.022877 -9.78574 0.231101 
0.037534 0.231101 -9.82446 
-9.95473 -0.00255919 0.06988 
-0.00255919 -9.95744 -0.260626 
0.06988 -0.260626 -9.93891 
-9.95673 0.00131593 0.0495363 
0.00131593 -9.92993 -0.249112 
0.0495363 -0.249112 -9.96442 
-9.94687 0.00985867 0.0701561 
0.00985867 -9.95129 -0.253355 
0.0701561 -0.253355 -9.95291 
-9.95818 -0.00489723 0.0557798 
-0.00489723 -9.93647 -0.240895 
0.0557798 -0.240895 -9.95643 
-10.0481 0.0121609 0.0273595 
0.0121609 -10.0352 0.0245415 
0.0273595 0.0245415 -9.99293 
-10.0496 0.000271842 0.00216611 
0.000271842 -10.011 0.0119785 
0.00216611 0.0119785 -10.0157 
-9.98588 -0.00495923 0.000893547 
-0.00495923 -10.0496 -0.00126084 
0.000893547 -0.00126084 -10.0408 
-10.0308 0.00379162 0.00303468 
0.00379162 -10.0313 -0.000100428 
0.00303468 -0.000100428 -10.0142 
-3.13096 -0.242536 0.397945 
-0.242536 -0.516331 0.148223 
0.397945 0.148223 -5.4426 
-9.26756 -0.76953 -3.11748 
-0.76953 -5.95379 0.728806 
-3.11748 0.728806 6.13147 
-4.27572 0.564831 0.357283 
0.564831 -2.38031 -0.170076 
0.357283 -0.170076 -2.43385 
-8.42244 0.887121 4.9112 
0.887121 -0.238661 -0.96718 
4.9112 -0.96718 -0.428783 
-6.91866 1.21515 0.118629 
1.21515 -6.67178 0.918115 
0.118629 0.918115 2.33492 
-4.08067 0.530298 -1.48472 
0.530298 -4.349 -0.066068 
-1.48472 -0.066068 -2.82586 
-2.82722 -0.379538 -1.01639 
-0.379538 -5.22264 0.173448 
-1.01639 0.173448 -3.20567 
-4.33007 0.446244 -2.81126 
0.446244 -3.12543 -0.167296 
-2.81126 -0.167296 -3.80002 
-9.94329 0.0014674 -0.240801 
0.0014674 -9.95975 0.0492078 
-0.240801 0.0492078 -9.96988 
-9.96425 -0.00134004 -0.248158 
-0.00134004 -9.95721 0.0628795 
-0.248158 0.0628795 -9.95145 
-9.96152 0.00757151 -0.241994 
0.00757151 -9.95083 0.0641119 
-0.241994 0.0641119 -9.96057 
-9.94324 -0.00352374 -0.234332 
-0.00352374 -9.96475 0.0533355 
-0.234332 0.0533355 -9.96493 
-10.7794 -0.527513 3.05146 
-0.527513 -7.90025 -0.0518643 
3.05146 -0.0518643 -1.90553 
-6.61341 2.92806 2.59565 
2.92806 -8.99252 0.215697 
2.59565 0.215697 -4.97922 
-9.82726 1.58307 4.32711 
1.58307 -6.54633 1.53461 
4.32711 1.53461 -4.21156 
-7.88149 -0.861554 4.79023 
-0.861554 -6.87272 2.77513 
4.79023 2.77513 -5.83094 
-10.1576 -0.0421524 0.0187934 
-0.0421524 -10.1411 -0.0770947 
0.0187934 -0.0770947 -10.4013 
-10.3446 0.0927056 0.0800272 
0.0927056 -10.4753 0.0576002 
0.0800272 0.0576002 -9.88007 
-10.1311 0.0369316 0.0685071 
0.0369316 -10.1478 0.0318098 
0.0685071 0.0318098 -10.4209 
-10.2895 0.064867 -0.126265 
0.064867 -10.1666 0.094591 
-0.126265 0.094591 -10.2437 
-10.0148 0.00513699 0.0777566 
0.00513699 -10.0199 -0.16201 
0.0777566 -0.16201 -9.9908 
-10.0307 -0.00459794 0.0772834 
-0.00459794 -10.0168 -0.1604 
0.0772834 -0.1604 -9.97806 
-10.011 -0.0079357 0.071517 
-0.0079357 -10.0012 -0.150691 
0.071517 -0.150691 -10.0133 
-10.0276 -0.0139939 0.0918191 
-0.0139939 -10.0129 -0.165415 
0.0918191 -0.165415 -9.985 
-9.80235 -0.0277386 0.0536096 
-0.0277386 -9.71266 -0.232251 
0.0536096 -0.232251 -9.89848 
-9.81745 -0.0280295 0.0333308 
-0.0280295 -9.81535 -0.203625 
0.0333308 -0.203625 -9.7807 
-9.77089 -7.07536e-05 0.0590215 
-7.07536e-05 -9.837 -0.192477 
0.0590215 -0.192477 -9.80561 
-9.7747 -0.0471425 0.0689635 
-0.0471425 -9.79683 -0.176927 
0.0689635 -0.176927 -9.84196 
-10.2163 -1.02978 0.588745 
-1.02978 -12.6565 -2.09973 
0.588745 -2.09973 -25.7985 
-13.328 -2.54082 0.486821 
-2.54082 -14.6663 -0.457762 
0.486821 -0.457762 -20.6769 
-6.17824 0.794395 0.608623 
0.794395 -14.9773 1.25024 
0.608623 1.25024 -27.5156 
-15.3897 -0.905688 -1.95728 
-0.905688 -14.2625 1.60805 
-1.95728 1.60805 -19.019 
-9.94463 -0.00519919 0.00859499 
-0.00519919 -9.93412 0.25908 
0.00859499 0.25908 -9.96488 
-9.96742 -0.00892216 0.0124722 
-0.00892216 -9.94403 0.271071 
0.0124722 0.271071 -9.93218 
-9.94923 -0.00773874 0.018159 
-0.00773874 -9.94339 0.271079 
0.018159 0.271079 -9.95101 
-9.94678 0.00137049 0.0208963 
0.00137049 -9.94645 0.262418 
0.0208963 0.262418 -9.95041 
-9.81961 -0.015786 0.0688695 
-0.015786 -9.91106 0.00128081 
0.0688695 0.00128081 -9.91337 
-9.6774 -0.108122 -0.0243735 
-0.108122 -9.96051 -0.00721637 
-0.0243735 -0.00721637 -10.0061 
-10.056 0.0293775 0.131188 
0.0293775 -9.75942 0.0563169 
0.131188 0.0563169 -9.82859 
-9.71064 0.0518103 0.0739367 
0.0518103 -9.93149 -0.0723066 
0.0739367 -0.0723066 -10.0019 
-9.95991 -0.00505842 -0.0266886 
-0.00505842 -9.99161 -0.019944 
-0.0266886 -0.019944 -9.96034 
-9.94438 -0.000954624 -0.0038119 
-0.000954624 -9.99787 0.0109429 
-0.0038119 0.0109429 -9.9696 
-9.96475 0.00568981 -0.0373481 
0.00568981 -10.028 -0.0442064 
-0.0373481 -0.0442064 -9.91914 
-9.99366 0.00866893 -0.0129815 
0.00866893 -9.94703 -0.019735 
-0.0129815 -0.019735 -9.97117 
-9.82911 -0.0116037 -0.0041786 
-0.0116037 -9.67088 0.0933287 
-0.0041786 0.0933287 -9.83954 
-9.79897 -0.02391 -0.0258436 
-0.02391 -9.7341 0.124018 
-0.0258436 0.124018 -9.80647 
-9.81191 -0.0126953 -0.0119547 
-0.0126953 -9.72867 0.134366 
-0.0119547 0.134366 -9.79896 
-9.78843 -0.0175444 0.00572147 
-0.0175444 -9.74105 0.163826 
0.00572147 0.163826 -9.81005 
-9.95723 0.00108407 -0.134289 
0.00108407 -9.95939 0.191152 
-0.134289 0.191152 -9.99907 
-9.95911 -0.00819626 -0.147367 
-0.00819626 -9.95943 0.199993 
-0.147367 0.199993 -9.99715 
-9.97247 -0.00743017 -0.144675 
-0.00743017 -9.96751 0.188726 
-0.144675 0.188726 -9.97571 
-9.97064 -0.00947968 -0.149473 
-0.00947968 -9.96943 0.183252 
-0.149473 0.183252 -9.97562 
-9.88665 -0.0452141 0.00796246 
-0.0452141 -9.94543 -0.000880821 
0.00796246 -0.000880821 -9.99516 
-9.98523 0.000452236 0.00604075 
0.000452236 -9.88747 -0.00371931 
0.00604075 -0.00371931 -9.95453 
-9.95306 -0.0165858 0.00122525 
-0.0165858 -9.93741 -0.0220885 
0.00122525 -0.0220885 -9.93676 
-9.95957 -0.00326502 0.0294864 
-0.00326502 -9.9112 -0.00378307 
0.0294864 -0.00378307 -9.95646 
-9.96636 0.00365765 -0.0383822 
0.00365765 -9.96426 0.248569 
-0.0383822 0.248569 -10.0116 
-9.98738 -0.000513688 -0.0509972 
-0.000513688 -9.98725 0.253063 
-0.0509972 0.253063 -9.9676 
-9.97728 -0.000268556 -0.0466739 
-0.000268556 -9.98443 0.245521 
-0.0466739 0.245521 -9.98053 
-9.96677 0.00876325 -0.0434689 
0.00876325 -9.98833 0.247369 
-0.0434689 0.247369 -9.98713 
-9.97323 0.00812015 -0.0712539 
0.00812015 -9.9789 0.231752 
-0.0712539 0.231752 -9.99251 
-9.99199 -0.00688715 -0.0698969 
-0.00688715 -9.9807 0.231288 
-0.0698969 0.231288 -9.97195 
-9.96563 -0.00571061 -0.0648896 
-0.00571061 -9.95792 0.214425 
-0.0648896 0.214425 -10.0211 
-9.99271 -0.013246 -0.0869985 
-0.013246 -9.97112 0.234799 
-0.0869985 0.234799 -9.9808 
-10.0149 -0.00283995 0.0230486 
-0.00283995 -10.02 0.0176214 
0.0230486 0.0176214 -10.0341 
-10.0312 0.053958 -0.0410878 
0.053958 -10.0286 -0.0235374 
-0.0410878 -0.0235374 -10.009 
-10.034 0.000448295 -0.034096 
0.000448295 -9.97931 -0.00302035 
-0.034096 -0.00302035 -10.0556 
-10.0119 0.0542746 0.0316523 
0.0542746 -9.97233 -0.00325261 
0.0316523 -0.00325261 -10.0847 
-9.96981 -0.000520328 -0.0618867 
-0.000520328 -9.96887 0.234327 
-0.0618867 0.234327 -9.99533 
-9.98295 -0.00344572 -0.0665197 
-0.00344572 -9.97377 0.224987 
-0.0665197 0.224987 -9.9773 
-9.9637 -0.00430155 -0.0575898 
-0.00430155 -9.96414 0.219375 
-0.0575898 0.219375 -10.0062 
-9.98577 -0.00746363 -0.072176 
-0.00746363 -9.97512 0.227647 
-0.072176 0.227647 -9.97311 
-9.89093 0.00701739 -0.0986817 
0.00701739 -9.89899 -0.212796 
-0.0986817 -0.212796 -9.91057 
-9.88226 0.0188965 -0.112087 
0.0188965 -9.869 -0.220478 
-0.112087 -0.220478 -9.94924 
-9.89978 0.00912205 -0.105181 
0.00912205 -9.89823 -0.212082 
-0.105181 -0.212082 -9.90249 
-9.89749 0.00335645 -0.0888336 
0.00335645 -9.88554 -0.20287 
-0.0888336 -0.20287 -9.91747 
-10.4778 0.00684208 -0.0643936 
0.00684208 -10.4248 -0.0247638 
-0.0643936 -0.0247638 -10.3976 
-10.3747 -0.0354929 -0.00423932 
-0.0354929 -10.2617 0.0541079 
-0.00423932 0.0541079 -10.6638 
-10.5034 0.0233134 -0.0424776 
0.0233134 -10.3677 0.00970549 
-0.0424776 0.00970549 -10.4291 
-10.4327 -0.0333013 -0.12358 
-0.0333013 -10.4722 0.0605797 
-0.12358 0.0605797 -10.3953 
-9.88207 0.0586572 0.00722327 
0.0586572 -9.91387 0.0292466 
0.00722327 0.0292466 -9.99578 
-9.98624 -0.0345492 -0.0135106 
-0.0345492 -9.92141 -0.0331214 
-0.0135106 -0.0331214 -9.88407 
-9.95851 0.00341687 -0.0284044 
0.00341687 -9.89316 0.000551535 
-0.0284044 0.000551535 -9.94004 
-9.93607 0.0182673 -0.0551033 
0.0182673 -9.86654 -0.00934219 
-0.0551033 -0.00934219 -9.9891 
-9.69124 0.0804169 0.00587674 
0.0804169 -10.0013 6.32441e-05 
0.00587674 6.32441e-05 -9.97703 
-9.94225 -0.00613638 0.0550916 
-0.00613638 -9.8194 0.0429704 
0.0550916 0.0429704 -9.90788 
-9.81937 0.0682569 0.0578589 
0.0682569 -9.87858 0.014607 
0.0578589 0.014607 -9.97157 
-9.88045 0.132892 0.0722216 
0.132892 -9.8107 -0.011533 
0.0722216 -0.011533 -9.97838 
-10.19 0.056299 -1.22264 
0.056299 -11.1426 -0.511218 
-1.22264 -0.511218 -9.02276 
-8.74742 -0.485755 -1.29688 
-0.485755 -10.5108 0.649237 
-1.29688 0.649237 -11.0971 
-10.2107 -0.0475148 -0.0873661 
-0.0475148 -9.74962 0.296265 
-0.0873661 0.296265 -10.395 
-9.34484 0.4296 -0.502423 
0.4296 -11.4137 -0.103733 
-0.502423 -0.103733 -9.59677 
-10.3139 -0.237432 -0.445996 
-0.237432 -6.03068 -2.01573 
-0.445996 -2.01573 -1.46377 
-7.87587 -1.34632 -1.67582 
-1.34632 -6.96249 -2.07632 
-1.67582 -2.07632 -2.96999 
-9.26781 0.138537 -2.12883 
0.138537 -7.00289 -1.37435 
-2.12883 -1.37435 -1.53765 
-10.4937 0.0296663 -2.17187 
0.0296663 -5.05336 -1.53955 
-2.17187 -1.53955 -2.26132 
-10.0972 -0.0310423 -0.0536579 
-0.0310423 -10.0423 0.0677543 
-0.0536579 0.0677543 -9.95356 
-10.0383 -0.0176985 0.0108192 
-0.0176985 -10.0283 0.0205835 
0.0108192 0.0205835 -10.0264 
-9.91942 -0.0129412 0.00933873 
-0.0129412 -10.0881 -0.0464955 
0.00933873 -0.0464955 -10.0855 
-10.0842 0.00983414 0.0211511 
0.00983414 -10.0087 0.0440012 
0.0211511 0.0440012 -10.0002 
-10.0022 -0.00529442 0.00827811 
-0.00529442 -10.0346 -0.00483541 
0.00827811 -0.00483541 -9.98381 
-10.0269 0.00634174 0.020425 
0.00634174 -10.0029 0.00268727 
0.020425 0.00268727 -9.99078 
-9.98476 -0.00423696 0.00749074 
-0.00423696 -10.0336 -0.0216279 
0.00749074 -0.0216279 -10.0022 
-9.98924 0.000867303 0.0194394 
0.000867303 -10.0278 -0.000940217 
0.0194394 -0.000940217 -10.0036 
-11.8827 0.929073 -0.266131 
0.929073 -13.5626 -1.37737 
-0.266131 -1.37737 -9.10568 
-11.7263 0.362086 0.186574 
0.362086 -10.9307 -0.815156 
0.186574 -0.815156 -11.8941 
-10.1829 -0.700527 0.0327866 
-0.700527 -9.39565 1.23494 
0.0327866 1.23494 -14.9725 
-12.394 0.409346 0.801661 
0.409346 -8.99317 -2.18182 
0.801661 -2.18182 -13.1638 
-9.90157 0.0284065 0.00322133 
0.0284065 -9.85278 0.0685717 
0.00322133 0.0685717 -10.0306 
-9.99562 0.0415085 0.0438945 
0.0415085 -9.88375 0.0184717 
0.0438945 0.0184717 -9.9056 
-9.90352 0.0144792 -0.0249638 
0.0144792 -9.90408 0.0357099 
-0.0249638 0.0357099 -9.97736 
-9.90726 -0.00293885 -0.0309118 
-0.00293885 -9.87757 0.022774 
-0.0309118 0.022774 -10.0001 
-9.98581 0.00366061 0.244998 
0.00366061 -9.9747 0.0472169 
0.244998 0.0472169 -9.98091 
-9.98735 -0.00446568 0.24812 
-0.00446568 -9.9679 0.0445072 
0.24812 0.0445072 -9.98617 
-9.96053 -0.00462808 0.250688 
-0.00462808 -9.96484 0.0387116 
0.250688 0.0387116 -10.016 
-9.98792 0.00124367 0.256845 
0.00124367 -9.98938 0.0523694 
0.256845 0.0523694 -9.96412 
-4.61209 0.325197 -2.76221 
0.325197 -11.104 4.61461 
-2.76221 4.61461 -9.92453 
-9.3928 -1.08629 -0.920268 
-1.08629 -7.7859 3.07328 
-0.920268 3.07328 -8.46191 
-11.3909 -1.95121 -3.31065 
-1.95121 -7.75946 4.16511 
-3.31065 4.16511 -6.49021 
-6.51429 -0.498608 -0.48008 
-0.498608 -12.4203 0.110262 
-0.48008 0.110262 -6.70599 
-10.2232 -0.0355768 0.0163381 
-0.0355768 -10.2831 -0.00552369 
0.0163381 -0.00552369 -10.3695 
-10.1913 0.0497331 0.0103845 
0.0497331 -10.1846 -0.0501774 
0.0103845 -0.0501774 -10.5 
-10.4725 0.0137229 -0.0198667 
0.0137229 -10.3358 -0.0787449 
-0.0198667 -0.0787449 -10.0676 
-10.2692 0.0425659 -0.0694929 
0.0425659 -10.2669 0.055746 
-0.0694929 0.055746 -10.3398 
-10.0281 0.00780696 -0.00240031 
0.00780696 -9.94502 -0.00400721 
-0.00240031 -0.00400721 -10.028 
-10.002 0.0172653 0.00372621 
0.0172653 -10.0017 0.0280625 
0.00372621 0.0280625 -9.99748 
-10.0014 0.0160103 0.0134767 
0.0160103 -10.0025 0.0275422 
0.0134767 0.0275422 -9.99736 
-10.0034 0.0167118 0.00855673 
0.0167118 -10.001 0.0173301 
0.00855673 0.0173301 -9.99687 
-10.3809 -0.0557803 0.100568 
-0.0557803 -10.7129 0.037309 
0.100568 0.037309 -11.1415 
-11.0119 0.100844 0.268123 
0.100844 -10.1721 -0.0456652 
0.268123 -0.0456652 -11.0511 
-10.7183 -0.42445 0.334767 
-0.42445 -10.7786 0.0375173 
0.334767 0.0375173 -10.7383 
-10.8268 -0.105087 0.418689 
-0.105087 -10.62 0.10412 
0.418689 0.10412 -10.7884 
-10.1976 -0.08599 -0.066757 
-0.08599 -10.4865 -0.0123356 
-0.066757 -0.0123356 -10.1356 
-10.0968 0.100502 0.0590235 
0.100502 -10.0333 -0.0327306 
0.0590235 -0.0327306 -10.6895 
-10.346 0.0025638 -0.0356953 
0.0025638 -10.1767 0.0948359 
-0.0356953 0.0948359 -10.2969 
-10.3844 -0.0188277 -0.00421707 
-0.0188277 -10.2244 0.168981 
-0.00421707 0.168981 -10.2107 
-9.83179 0.0276305 -0.192012 
0.0276305 -9.86637 -0.110435 
-0.192012 -0.110435 -9.96977 
-9.84799 0.0338979 -0.215305 
0.0338979 -9.86787 -0.148103 
-0.215305 -0.148103 -9.95207 
-9.83553 0.0535633 -0.247217 
0.0535633 -9.87813 -0.119943 
-0.247217 -0.119943 -9.95427 
-9.83945 0.0585793 -0.185652 
0.0585793 -9.87268 -0.139624 
-0.185652 -0.139624 -9.9558 
-10.0169 0.00664585 0.00397884 
0.00664585 -10.0142 0.00386859 
0.00397884 0.00386859 -10.0088 
-10.0173 0.00425709 0.0094717 
0.00425709 -10.0008 -0.00123966 
0.0094717 -0.00123966 -10.0217 
-10.0137 0.00378706 0.00328892 
0.00378706 -10.0144 0.00381969 
0.00328892 0.00381969 -10.0118 
-10.0184 0.00846515 0.00752851 
0.00846515 -10.0137 0.00225522 
0.00752851 0.00225522 -10.0078 
-9.82561 -0.0457252 0.134004 
-0.0457252 -9.79316 -0.03814 
0.134004 -0.03814 -9.79757 
-9.71786 -0.0803222 0.16281 
-0.0803222 -9.83456 -0.0577113 
0.16281 -0.0577113 -9.86392 
-9.79294 -0.0554707 0.128232 
-0.0554707 -9.796 -0.0320079 
0.128232 -0.0320079 -9.8274 
-9.79592 -0.0565347 0.105176 
-0.0565347 -9.78059 -0.0420162 
0.105176 -0.0420162 -9.83983 
-6.36867 -0.490267 -0.691479 
-0.490267 -5.72182 2.53163 
-0.691479 2.53163 2.76473 
1.21285 -0.168651 0.54266 
-0.168651 1.56842 -2.69088 
0.54266 -2.69088 -12.107 
-10.8477 -2.25177 -2.6923 
-2.25177 -9.22956 0.469989 
-2.6923 0.469989 10.7515 
-6.09452 0.554534 6.50469 
0.554534 -4.10493 5.77004 
6.50469 5.77004 0.873693 
-10.2265 0.115659 -0.0107644 
0.115659 -10.1148 -0.0115774 
-0.0107644 -0.0115774 -10.6067 
-10.2742 0.0630719 0.0531067 
0.0630719 -10.1762 0.0579614 
0.0531067 0.0579614 -10.4976 
-10.2231 0.0576528 0.0393584 
0.0576528 -10.1123 -0.00560707 
0.0393584 -0.00560707 -10.6125 
-10.2048 0.0778278 -0.0527484 
0.0778278 -10.0512 0.0215472 
-0.0527484 0.0215472 -10.692 
-10.0409 0.0367114 -0.0195167 
0.0367114 -10.0467 0.0053898 
-0.0195167 0.0053898 -10.1789 
-10.049 0.0270938 -0.071122 
0.0270938 -10.1067 -0.00181577 
-0.071122 -0.00181577 -10.1108 
-10.1058 0.0311611 -0.0733546 
0.0311611 -10.047 0.0114195 
-0.0733546 0.0114195 -10.1137 
-10.0634 0.0129874 -0.0858352 
0.0129874 -10.0955 -0.01368 
-0.0858352 -0.01368 -10.1076 
-13.6025 -1.76067 1.43068 
-1.76067 -14.7643 -0.199866 
1.43068 -0.199866 -8.85691 
-7.064 0.600725 0.571456 
0.600725 -11.1578 -0.97075 
0.571456 -0.97075 -19.0019 
-11.034 0.522572 -0.517 
0.522572 -10.3358 -0.645946 
-0.517 -0.645946 -15.8538 
-10.1226 0.608747 0.247471 
0.608747 -12.6881 3.73805 
0.247471 3.73805 -14.4129 
-9.97085 -0.00128099 0.188386 
-0.00128099 -9.95884 0.138722 
0.188386 0.138722 -10.0005 
-9.96371 -3.39411e-05 0.204545 
-3.39411e-05 -9.964 0.148753 
0.204545 0.148753 -10.0025 
-9.97871 0.00474329 0.191739 
0.00474329 -9.97918 0.148915 
0.191739 0.148915 -9.9723 
-9.98012 0.00961857 0.187233 
0.00961857 -9.98058 0.154707 
0.187233 0.154707 -9.96949 
-9.98328 -0.000966348 -0.157606 
-0.000966348 -9.98208 -0.194849 
-0.157606 -0.194849 -9.98688 
-9.97961 0.00991953 -0.166238 
0.00991953 -9.97337 -0.188278 
-0.166238 -0.188278 -9.99927 
-9.97716 0.0055388 -0.165574 
0.0055388 -9.98719 -0.196047 
-0.165574 -0.196047 -9.98789 
-9.98543 0.00359493 -0.160918 
0.00359493 -9.98812 -0.193587 
-0.160918 -0.193587 -9.97868 
-9.96211 0.00322361 -0.224344 
0.00322361 -9.96819 -0.105466 
-0.224344 -0.105466 -10.0054 
-9.97632 0.00126505 -0.213817 
0.00126505 -9.9791 -0.0979235 
-0.213817 -0.0979235 -9.9803 
-9.9694 -6.68729e-05 -0.215901 
-6.68729e-05 -9.97711 -0.0905707 
-0.215901 -0.0905707 -9.98921 
-9.97842 0.00627264 -0.209306 
0.00627264 -9.98446 -0.0948468 
-0.209306 -0.0948468 -9.97285 
-11.4215 -0.890862 -1.04224 
-0.890862 -9.7542 0.582784 
-1.04224 0.582784 -8.83781 
-9.62828 0.514043 0.253732 
0.514043 -10.1272 0.184571 
0.253732 0.184571 -10.258 
-9.83819 -0.377552 -1.02693 
-0.377552 -10.5337 0.355187 
-1.02693 0.355187 -9.64159 
-7.46352 -1.00336 -1.57037 
-1.00336 -12.1436 -0.245005 
-1.57037 -0.245005 -10.4064 
-8.44953 -3.03506 -2.26701 
-3.03506 -11.3156 1.42545 
-2.26701 1.42545 9.3468 
2.17293 1.11645 0.232612 
1.11645 0.0354196 -1.7899 
0.232612 -1.7899 -12.6266 
-7.12157 -0.346964 1.86227 
-0.346964 -8.52587 0.505641 
1.86227 0.505641 5.22915 
-7.62741 0.516903 5.09973 
0.516903 -2.06479 8.83272 
5.09973 8.83272 -0.726081 
-9.87879 0.00200122 0.0326108 
0.00200122 -9.87234 0.25396 
0.0326108 0.25396 -9.90876 
-9.88769 0.00250832 0.0274356 
0.00250832 -9.87871 0.253981 
0.0274356 0.253981 -9.89349 
-9.89088 -0.000671682 0.0302923 
-0.000671682 -9.86733 0.252517 
0.0302923 0.252517 -9.90167 
-9.88412 -0.00108423 0.0275426 
-0.00108423 -9.8781 0.253605 
0.0275426 0.253605 -9.89766 
-9.90013 0.00426605 0.0493491 
0.00426605 -9.88526 0.252033 
0.0493491 0.252033 -9.88411 
-9.8679 -0.00114476 0.0536181 
-0.00114476 -9.87838 0.247439 
0.0536181 0.247439 -9.92321 
-9.89708 0.0167344 0.0602109 
0.0167344 -9.87375 0.242072 
0.0602109 0.242072 -9.89867 
-9.89757 0.00414075 0.0560263 
0.00414075 -9.88023 0.241002 
0.0560263 0.241002 -9.8917 
-9.97843 -0.00626197 0.00186624 
-0.00626197 -9.98462 -0.00154308 
0.00186624 -0.00154308 -9.98751 
-9.98489 0.00731266 0.00147223 
0.00731266 -9.99145 -0.00131924 
0.00147223 -0.00131924 -9.97422 
-9.97633 0.00252269 0.00886757 
0.00252269 -9.99177 -0.00718311 
0.00886757 -0.00718311 -9.98247 
-9.97182 0.00299527 0.00648476 
0.00299527 -9.99378 -0.00344307 
0.00648476 -0.00344307 -9.98496 
-10.0095 -0.00626059 -0.177432 
-0.00626059 -10.0222 -0.0801794 
-0.177432 -0.0801794 -9.98408 
-9.98735 -0.00692133 -0.165668 
-0.00692133 -10.0099 -0.0744037 
-0.165668 -0.0744037 -10.0186 
-10.0237 -0.00226689 -0.174059 
-0.00226689 -10.0119 -0.0810206 
-0.174059 -0.0810206 -9.98027 
-10.0023 0.00227528 -0.192544 
0.00227528 -10.0302 -0.0862785 
-0.192544 -0.0862785 -9.98331 
-10.2596 -0.285746 -0.0382134 
-0.285746 -10.2735 -0.0724998 
-0.0382134 -0.0724998 -10.0739 
-9.79104 0.0606746 -0.0168504 
0.0606746 -9.82582 0.134668 
-0.0168504 0.134668 -10.9901 
-10.4346 0.0258619 -0.1008 
0.0258619 -10.3173 -0.0241359 
-0.1008 -0.0241359 -9.855 
-10.3213 0.0997414 -0.246275 
0.0997414 -10.0819 -0.361021 
-0.246275 -0.361021 -10.2037 
-9.95346 -0.00652296 0.255704 
-0.00652296 -9.94559 0.0681541 
0.255704 0.0681541 -9.95569 
-9.92972 -0.00194947 0.249307 
-0.00194947 -9.95747 0.0515514 
0.249307 0.0515514 -9.96755 
-9.93819 0.00302873 0.244206 
0.00302873 -9.96199 0.0548224 
0.244206 0.0548224 -9.95456 
-9.95881 0.00296267 0.261245 
0.00296267 -9.95318 0.0675665 
0.261245 0.0675665 -9.94275 
-9.82411 0.00753461 -0.20077 
0.00753461 -9.8295 -0.0273209 
-0.20077 -0.0273209 -9.79848 
-9.77072 0.0154868 -0.225562 
0.0154868 -9.81018 -0.0430614 
-0.225562 -0.0430614 -9.8712 
-9.80679 0.00842816 -0.201889 
0.00842816 -9.81416 -0.0268811 
-0.201889 -0.0268811 -9.83115 
-9.80138 0.0157593 -0.19253 
0.0157593 -9.81182 -0.0138437 
-0.19253 -0.0138437 -9.8389 
-8.72615 0.394487 -0.398559 
0.394487 -7.609 2.26938 
-0.398559 2.26938 3.25621 
-10.7885 2.60393 -0.938736 
2.60393 -8.49422 -1.12206 
-0.938736 -1.12206 6.20378 
-1.07268 -0.498959 0.922412 
-0.498959 -0.998259 1.54478 
0.922412 1.54478 -11.008 
-3.08043 0.29349 -6.96621 
0.29349 -8.6315 5.04876 
-6.96621 5.04876 -1.36702 
-10.0049 0.0126053 -0.00437103 
0.0126053 -10.007 -0.0122078 
-0.00437103 -0.0122078 -10.0009 
-10.0128 0.00615593 0.0032079 
0.00615593 -9.99536 -0.0025526 
0.0032079 -0.0025526 -10.0046 
-9.99819 0.000892025 0.0101052 
0.000892025 -10.0056 0.0128208 
0.0101052 0.0128208 -10.009 
-10.0141 0.00608553 0.00431605 
0.00608553 -9.99082 -0.00235323 
0.00431605 -0.00235323 -10.0079 
-9.98675 0.00164894 0.226026 
0.00164894 -9.98528 0.125461 
0.226026 0.125461 -9.97629 
-9.97478 0.00483002 0.228366 
0.00483002 -9.97694 0.116929 
0.228366 0.116929 -9.99661 
-9.97719 0.00370196 0.222291 
0.00370196 -9.97978 0.128058 
0.222291 0.128058 -9.99136 
-9.98337 0.00463318 0.227317 
0.00463318 -9.98215 0.125745 
0.227317 0.125745 -9.9828 
-9.98223 0.00093386 -0.0828413 
0.00093386 -9.98905 -0.249187 
-0.0828413 -0.249187 -9.9691 
-9.98688 0.00602053 -0.0829578 
0.00602053 -9.96136 -0.24397 
-0.0829578 -0.24397 -9.99214 
-9.9717 0.00181633 -0.0700187 
0.00181633 -9.97101 -0.247838 
-0.0700187 -0.247838 -9.99768 
-9.98503 0.00407644 -0.0779039 
0.00407644 -9.98085 -0.245281 
-0.0779039 -0.245281 -9.97451 
-9.98381 -8.25993e-05 0.0795229 
-8.25993e-05 -9.9751 0.253783 
0.0795229 0.253783 -9.98282 
-9.97488 0.0038068 0.0717827 
0.0038068 -9.96763 0.251711 
0.0717827 0.251711 -9.99922 
-9.98001 0.00224885 0.0833887 
0.00224885 -9.97261 0.24799 
0.0833887 0.24799 -9.98911 
-9.9844 0.00099633 0.0814445 
0.00099633 -9.98311 0.250862 
0.0814445 0.250862 -9.97422 
-9.97113 0.0103561 -0.0235314 
0.0103561 -10.0003 0.0124486 
-0.0235314 0.0124486 -9.98043 
-9.96317 -0.00944028 -0.00496979 
-0.00944028 -9.987 0.00249119 
-0.00496979 0.00249119 -10.0017 
-9.99489 0.0192074 -0.00230852 
0.0192074 -9.98986 0.00134178 
-0.00230852 0.00134178 -9.96709 
-9.96731 0.0113093 -0.0143227 
0.0113093 -10.0013 0.00715347 
-0.0143227 0.00715347 -9.9832 
-9.87397 0.0549053 -0.0598558 
0.0549053 -9.88605 -0.0116255 
-0.0598558 -0.0116255 -9.94485 
-9.9473 -0.00795698 -0.011692 
-0.00795698 -9.88192 -0.0337418 
-0.011692 -0.0337418 -9.87566 
-9.89305 0.00141763 -0.0201296 
0.00141763 -9.86847 -0.0170836 
-0.0201296 -0.0170836 -9.94336 
-9.8824 0.00286927 -0.00629946 
0.00286927 -9.88033 -0.00139531 
-0.00629946 -0.00139531 -9.94214 
-9.98522 0.000120562 -0.00200598 
0.000120562 -9.99996 -0.00501945 
-0.00200598 -0.00501945 -9.97899 
-9.97378 -0.00296611 0.00226291 
-0.00296611 -9.98479 0.002278 
0.00226291 0.002278 -10.0056 
-9.98593 -0.0042939 -0.00483492 
-0.0042939 -9.98468 -0.00377968 
-0.00483492 -0.00377968 -9.99356 
-9.98648 0.00565466 -0.00843095 
0.00565466 -9.99811 0.000739335 
-0.00843095 0.000739335 -9.97957 
-9.97328 0.000202568 -0.00269996 
0.000202568 -9.97741 -0.00252798 
-0.00269996 -0.00252798 -9.99683 
-9.98189 -0.00397794 0.00301898 
-0.00397794 -9.98249 0.00240591 
0.00301898 0.00240591 -9.98314 
-9.9755 -0.00253547 0.00453869 
-0.00253547 -9.98914 0.000659074 
0.00453869 0.000659074 -9.98289 
-9.9817 0.000688237 0.00508651 
0.000688237 -9.98852 0.000631661 
0.00508651 0.000631661 -9.9773 
-9.86484 -0.0157431 -0.170257 
-0.0157431 -9.85604 -0.119056 
-0.170257 -0.119056 -9.86557 
-9.84445 0.01653 -0.180868 
0.01653 -9.8501 -0.128312 
-0.180868 -0.128312 -9.89191 
-9.83961 0.0357932 -0.169399 
0.0357932 -9.86588 -0.105274 
-0.169399 -0.105274 -9.88096 
-9.86837 0.00467435 -0.178337 
0.00467435 -9.83887 -0.124795 
-0.178337 -0.124795 -9.87921 
-10.0161 0.0172828 -0.00194753 
0.0172828 -10.0207 0.00221644 
-0.00194753 0.00221644 -10.0043 
-9.99564 0.00311038 -0.000463562 
0.00311038 -9.99878 -0.00335853 
-0.000463562 -0.00335853 -10.0466 
-9.98917 -0.00848869 -0.00786952 
-0.00848869 -10.0121 -0.0168097 
-0.00786952 -0.0168097 -10.0398 
-10.0261 0.00381992 -0.0215857 
0.00381992 -10.022 0.0169319 
-0.0215857 0.0169319 -9.99293 
-8.19152 -2.64907 1.21632 
-2.64907 -12.3682 3.35355 
1.21632 3.35355 7.70925 
1.87309 -1.28827 -0.429458 
-1.28827 -0.141698 -4.4842 
-0.429458 -4.4842 -14.5819 
-8.76546 -1.13888 4.55958 
-1.13888 -17.0427 2.73061 
4.55958 2.73061 12.9577 
-6.37889 4.37236 4.94003 
4.37236 0.897645 12.0692 
4.94003 12.0692 -7.36926 
-10.0791 -0.00801128 0.00284849 
-0.00801128 -10.0912 0.0195055 
0.00284849 0.0195055 -10.0219 
-10.0356 -0.0114603 0.0289019 
-0.0114603 -10.0562 -0.0238647 
0.0289019 -0.0238647 -10.1005 
-10.0464 -0.010253 0.00483377 
-0.010253 -10.0864 0.0116886 
0.00483377 0.0116886 -10.0595 
-10.0412 0.000421867 -0.0267443 
0.000421867 -10.0382 0.00691619 
-0.0267443 0.00691619 -10.1129 
-10.0631 0.016917 0.00614127 
0.016917 -10.0538 -0.0119137 
0.00614127 -0.0119137 -10.0517 
-10.0431 0.00795762 0.000977394 
0.00795762 -10.0345 0.0108862 
0.000977394 0.0108862 -10.091 
-10.0582 -0.0144472 -0.0110878 
-0.0144472 -10.086 -0.00865052 
-0.0110878 -0.00865052 -10.0244 
-10.0851 0.0112296 -0.00297655 
0.0112296 -10.0204 0.00693854 
-0.00297655 0.00693854 -10.063 
-9.97432 0.00357864 0.240305 
0.00357864 -9.99558 -0.0191503 
0.240305 -0.0191503 -9.97593 
-9.9707 -0.00019187 0.248384 
-0.00019187 -9.98725 -0.0126885 
0.248384 -0.0126885 -9.98789 
-9.9762 -0.00596695 0.23543 
-0.00596695 -9.96985 -0.00732377 
0.23543 -0.00732377 -9.99978 
-9.97364 -0.000521713 0.241524 
-0.000521713 -9.99737 -0.0246539 
0.241524 -0.0246539 -9.97482 
-10.1909 -0.0369718 -0.0217299 
-0.0369718 -10.2106 0.0232751 
-0.0217299 0.0232751 -10.1567 
-10.1551 -0.00866945 -0.0487081 
-0.00866945 -10.1641 -0.012153 
-0.0487081 -0.012153 -10.239 
-10.1743 -0.0790657 -0.00968908 
-0.0790657 -10.2482 0.0147261 
-0.00968908 0.0147261 -10.1357 
-10.1471 -0.0166937 -0.0254156 
-0.0166937 -10.2111 0.0228659 
-0.0254156 0.0228659 -10.2 
-6.10887 -1.31696 2.19148 
-1.31696 -12.3018 -1.69293 
2.19148 -1.69293 5.4226 
0.602404 0.314895 1.08243 
0.314895 -2.77825 0.329261 
1.08243 0.329261 -10.8122 
-5.50897 0.372885 -1.53481 
0.372885 -10.3007 -2.15009 
-1.53481 -2.15009 2.82159 
-6.3246 0.106343 -0.37356 
0.106343 -5.18461 -8.59012 
-0.37356 -8.59012 -1.47885 
-9.95392 -0.00264628 -0.0694925 
-0.00264628 -9.95343 0.263219 
-0.0694925 0.263219 -9.9416 
-9.96065 -0.00341058 -0.054406 
-0.00341058 -9.93508 0.243883 
-0.054406 0.243883 -9.95322 
-9.95556 0.00260134 -0.0517186 
0.00260134 -9.92868 0.250874 
-0.0517186 0.250874 -9.9647 
-9.94594 0.00745847 -0.0690016 
0.00745847 -9.94735 0.259283 
-0.0690016 0.259283 -9.95566 
-10.3393 0.159064 -0.0613645 
0.159064 -10.353 -0.455441 
-0.0613645 -0.455441 -14.8661 
-11.6917 -0.354857 0.605493 
-0.354857 -12.9265 -0.0853699 
0.605493 -0.0853699 -10.9402 
-11.0996 0.840435 0.822513 
0.840435 -11.6174 0.413021 
0.822513 0.413021 -12.8414 
-11.5871 0.45886 0.593326 
0.45886 -11.9279 1.00267 
0.593326 1.00267 -12.0433 
-9.72125 0.268231 -0.00630491 
0.268231 -10.323 -0.716403 
-0.00630491 -0.716403 -10.2871 
-10.0079 0.0104393 -0.0802073 
0.0104393 -9.51403 -0.58869 
-0.0802073 -0.58869 -10.8093 
-10.308 0.301917 0.125259 
0.301917 -9.62645 -0.024769 
0.125259 -0.024769 -10.3969 
-10.1217 0.277854 -0.0388584 
0.277854 -9.77664 -0.480638 
-0.0388584 -0.480638 -10.433 
-9.89719 0.00717511 -0.0580165 
0.00717511 -9.89094 -0.241388 
-0.0580165 -0.241388 -9.89185 
-9.90669 0.0105032 -0.0462671 
0.0105032 -9.88148 -0.242469 
-0.0462671 -0.242469 -9.89181 
-9.88294 0.00799482 -0.0528376 
0.00799482 -9.86786 -0.249264 
-0.0528376 -0.249264 -9.92918 
-9.89177 0.0109565 -0.0547786 
0.0109565 -9.89272 -0.239944 
-0.0547786 -0.239944 -9.89548 
-9.93139 0.0134853 -0.000958578 
0.0134853 -9.97025 -0.00425952 
-0.000958578 -0.00425952 -9.95349 
-9.93878 -0.0157797 0.0501155 
-0.0157797 -9.96466 -0.00121291 
0.0501155 -0.00121291 -9.95169 
-9.87777 0.0188754 0.00380693 
0.0188754 -10.0147 0.0196341 
0.00380693 0.0196341 -9.9627 
-10.0078 0.0361846 -0.00679724 
0.0361846 -9.89159 -0.0340399 
-0.00679724 -0.0340399 -9.95576 
-9.89621 0.0631323 -0.0494629 
0.0631323 -9.83889 -0.0663185 
-0.0494629 -0.0663185 -9.95826 
-9.86833 0.053664 -0.0377863 
0.053664 -9.88715 -0.0518465 
-0.0377863 -0.0518465 -9.93787 
-9.90818 0.0634099 -0.0354896 
0.0634099 -9.81126 -0.0346804 
-0.0354896 -0.0346804 -9.97392 
-9.84457 0.0764091 -0.0323099 
0.0764091 -9.89774 -0.0469082 
-0.0323099 -0.0469082 -9.95105 
-12.6121 0.543726 0.355749 
0.543726 -9.33158 0.866488 
0.355749 0.866488 -14.685 
-12.772 0.900429 0.200114 
0.900429 -9.35939 1.35897 
0.200114 1.35897 -14.4973 
-12.5397 2.03313 0.838328 
2.03313 -8.30627 1.43259 
0.838328 1.43259 -15.7827 
-13.0315 1.00776 0.24225 
1.00776 -9.83651 1.58976 
0.24225 1.58976 -13.7607 
-9.96567 0.000609376 0.0186309 
0.000609376 -9.96088 -0.000450299 
0.0186309 -0.000450299 -9.9548 
-9.97153 0.0223659 0.0283615 
0.0223659 -9.97645 -0.0339931 
0.0283615 -0.0339931 -9.93336 
-9.92017 0.018594 0.0239672 
0.018594 -9.93737 0.0352883 
0.0239672 0.0352883 -10.0238 
-9.95082 0.0493143 -0.0187771 
0.0493143 -9.9637 -0.0256804 
-0.0187771 -0.0256804 -9.96683 
-20.3709 -2.04281 3.09794 
-2.04281 -8.72875 -4.09275 
3.09794 -4.09275 10.566 
-11.3312 1.20023 2.66141 
1.20023 -8.1026 1.17937 
2.66141 1.17937 0.90011 
2.61052 3.95253 -4.67419 
3.95253 1.68199 1.55937 
-4.67419 1.55937 -22.8262 
1.65681 -3.4955 19.3243 
-3.4955 -10.8036 1.79519 
19.3243 1.79519 -9.38686 
-9.95701 0.0102373 0.0111286 
0.0102373 -9.99114 -0.0058037 
0.0111286 -0.0058037 -9.97659 
-9.98503 0.0155273 0.00232878 
0.0155273 -9.97763 -0.00130685 
0.00232878 -0.00130685 -9.96208 
-9.96416 -0.0115853 0.00358403 
-0.0115853 -9.98158 -0.00203681 
0.00358403 -0.00203681 -9.97899 
-9.96343 0.00806142 0.0150993 
0.00806142 -9.98426 -0.00955493 
0.0150993 -0.00955493 -9.97705 
-9.79705 0.019538 0.0512966 
0.019538 -9.79463 0.208653 
0.0512966 0.208653 -9.82198 
-9.80634 0.0210604 0.0496767 
0.0210604 -9.79624 0.210146 
0.0496767 0.210146 -9.81109 
-9.81284 0.0292847 0.0597254 
0.0292847 -9.74846 0.223593 
0.0597254 0.223593 -9.85236 
-9.79485 0.0224081 0.0587322 
0.0224081 -9.79742 0.202592 
0.0587322 0.202592 -9.8214 
-9.82376 0.0537716 0.069251 
0.0537716 -9.82844 0.0447376 
0.069251 0.0447376 -9.85362 
-9.87068 -0.0391554 0.0635571 
-0.0391554 -9.80979 0.0904855 
0.0635571 0.0904855 -9.82536 
-9.7943 0.0580653 0.100946 
0.0580653 -9.80192 0.0687993 
0.100946 0.0687993 -9.9096 
-9.87009 0.0232994 0.077675 
0.0232994 -9.76941 0.0612254 
0.077675 0.0612254 -9.86633 
-9.7595 0.01382 -0.194164 
0.01382 -9.798 -0.0116064 
-0.194164 -0.0116064 -9.78782 
-9.77843 0.0150548 -0.19871 
0.0150548 -9.7755 -0.0247321 
-0.19871 -0.0247321 -9.79138 
-9.71184 0.0074581 -0.210934 
0.0074581 -9.79693 -0.0160823 
-0.210934 -0.0160823 -9.83654 
-9.76841 0.0245 -0.206899 
0.0245 -9.77328 -0.0144192 
-0.206899 -0.0144192 -9.80362 
-10.3762 0.0121781 -0.0107627 
0.0121781 -10.3382 -0.0547869 
-0.0107627 -0.0547869 -10.2831 
-10.288 0.0438548 -0.013445 
0.0438548 -10.3761 -0.0196079 
-0.013445 -0.0196079 -10.3334 
-10.3492 0.155745 -0.0371884 
0.155745 -10.1932 -0.0663123 
-0.0371884 -0.0663123 -10.4551 
-10.3012 0.056938 0.0355813 
0.056938 -10.3321 -0.0045228 
0.0355813 -0.0045228 -10.3643 
-9.98543 -0.0034484 0.0823684 
-0.0034484 -9.97052 -0.246645 
0.0823684 -0.246645 -9.99209 
-9.974 -0.00211194 0.0717058 
-0.00211194 -9.97335 -0.249962 
0.0717058 -0.249962 -10.0007 
-9.9821 -0.00215246 0.0801569 
-0.00215246 -9.97941 -0.251946 
0.0801569 -0.251946 -9.98652 
-9.98412 -0.00240737 0.0827502 
-0.00240737 -9.98659 -0.248645 
0.0827502 -0.248645 -9.97733 
-9.97476 -0.00554633 0.141666 
-0.00554633 -9.96434 -0.192919 
0.141666 -0.192919 -10.0109 
-9.98595 -0.00168607 0.153439 
-0.00168607 -9.97845 -0.206223 
0.153439 -0.206223 -9.98557 
-9.99715 4.96592e-05 0.153932 
4.96592e-05 -9.97938 -0.201866 
0.153932 -0.201866 -9.97344 
-9.992 -0.0106112 0.164827 
-0.0106112 -9.97928 -0.206899 
0.164827 -0.206899 -9.97869 
-10.0339 0.00208464 -0.000617234 
0.00208464 -10.0121 -0.000713799 
-0.000617234 -0.000713799 -10.0652 
-10.0447 -0.0128033 0.0019194 
-0.0128033 -10.0438 0.00571722 
0.0019194 0.00571722 -10.0227 
-10.0466 -0.0134293 0.00528019 
-0.0134293 -10.0329 0.0191535 
0.00528019 0.0191535 -10.0317 
-10.0353 -0.00566449 -0.000331025 
-0.00566449 -10.0359 0.0113037 
-0.000331025 0.0113037 -10.04 
-10.0226 -0.00890742 -0.00629048 
-0.00890742 -10.0056 -0.0314312 
-0.00629048 -0.0314312 -9.99908 
-9.99095 -0.00169668 0.00286754 
-0.00169668 -9.97931 0.00663898 
0.00286754 0.00663898 -10.057 
-10.0044 -0.00872676 0.000471356 
-0.00872676 -10.0352 0.00214961 
0.000471356 0.00214961 -9.98775 
-10.0136 -0.00616372 -0.00187724 
-0.00616372 -10.0069 -0.0103385 
-0.00187724 -0.0103385 -10.0068 
-9.89194 0.00631857 -0.220737 
0.00631857 -9.88675 -0.099401 
-0.220737 -0.099401 -9.91892 
-9.88037 0.0155048 -0.216624 
0.0155048 -9.90702 -0.0871944 
-0.216624 -0.0871944 -9.91022 
-9.89804 0.00528194 -0.219913 
0.00528194 -9.89593 -0.0991586 
-0.219913 -0.0991586 -9.90364 
-9.89615 0.00920671 -0.2259 
0.00920671 -9.89037 -0.0986116 
-0.2259 -0.0986116 -9.91109 
-9.85137 -0.0221653 -0.222856 
-0.0221653 -9.87951 0.0546413 
-0.222856 0.0546413 -9.84906 
-9.88316 -0.00189665 -0.222573 
-0.00189665 -9.84098 0.0606799 
-0.222573 0.0606799 -9.8558 
-9.82317 -0.0180118 -0.235897 
-0.0180118 -9.86213 0.0773374 
-0.235897 0.0773374 -9.89464 
-9.84488 0.00158307 -0.216834 
0.00158307 -9.85668 0.0575289 
-0.216834 0.0575289 -9.87838 
-11.5084 -1.20583 -0.0588776 
-1.20583 -11.7082 -0.28838 
-0.0588776 -0.28838 -12.0292 
-11.4453 0.178283 0.147355 
0.178283 -10.6504 0.0517861 
0.147355 0.0517861 -13.1501 
-11.9625 -0.348157 0.404756 
-0.348157 -9.72274 -0.614276 
0.404756 -0.614276 -13.5606 
-12.1888 -0.462341 -0.567749 
-0.462341 -11.004 -0.29985 
-0.567749 -0.29985 -12.0531 
-9.82826 -1.45948 0.599322 
-1.45948 -11.7432 -0.57598 
0.599322 -0.57598 -19.1833 
-8.16276 0.902096 -1.23606 
0.902096 -13.1341 -1.1977 
-1.23606 -1.1977 -19.458 
-10.8933 -0.447571 -1.09195 
-0.447571 -13.848 -0.0610682 
-1.09195 -0.0610682 -16.0134 
-11.8394 0.105647 -0.482027 
0.105647 -13.143 0.419892 
-0.482027 0.419892 -15.7724 
-9.96594 -0.029254 0.203757 
-0.029254 -9.96682 -0.151124 
0.203757 -0.151124 -10.0047 
-9.98118 -0.000891008 0.18738 
-0.000891008 -9.97966 -0.140514 
0.18738 -0.140514 -9.97665 
-9.95382 -0.00513678 0.191971 
-0.00513678 -9.98096 -0.148791 
0.191971 -0.148791 -10.0027 
-9.96356 -0.00909547 0.183514 
-0.00909547 -9.98811 -0.137296 
0.183514 -0.137296 -9.98581 
-9.99461 -0.00303106 0.00229943 
-0.00303106 -9.98901 0.0019688 
0.00229943 0.0019688 -9.9952 
-10.0069 0.0142466 0.00354505 
0.0142466 -9.99737 -0.00349906 
0.00354505 -0.00349906 -9.97459 
-9.99352 -0.00576749 -0.000927251 
-0.00576749 -9.98778 0.00960601 
-0.000927251 0.00960601 -9.99751 
-10.0063 -0.00260136 0.00231353 
-0.00260136 -9.98028 0.000806625 
0.00231353 0.000806625 -9.99219 
-9.98172 0.00625822 -0.223838 
0.00625822 -9.97286 -0.124341 
-0.223838 -0.124341 -9.98922 
-9.96544 0.00697359 -0.216161 
0.00697359 -9.98065 -0.125256 
-0.216161 -0.125256 -9.9977 
-9.97629 -0.00363768 -0.221564 
-0.00363768 -9.97575 -0.114583 
-0.221564 -0.114583 -9.99174 
-9.9834 0.00342228 -0.218895 
0.00342228 -9.98239 -0.119959 
-0.218895 -0.119959 -9.978 
-10.0152 0.0170448 -0.000892821 
0.0170448 -9.98027 0.0161755 
-0.000892821 0.0161755 -10.0011 
-10.0146 0.00968112 -0.00196161 
0.00968112 -9.96369 0.0057976 
-0.00196161 0.0057976 -10.0183 
-9.97451 0.0174091 -0.0134588 
0.0174091 -10.0403 -0.0172109 
-0.0134588 -0.0172109 -9.98175 
-9.98985 -0.00933092 -0.0289722 
-0.00933092 -10.0104 0.00507988 
-0.0289722 0.00507988 -9.99632 
-9.97435 0.00655061 0.195401 
0.00655061 -9.97755 0.166929 
0.195401 0.166929 -9.99133 
-9.97437 0.000983198 0.201435 
0.000983198 -9.9761 0.159513 
0.201435 0.159513 -9.99276 
-9.97882 0.00558251 0.204298 
0.00558251 -9.9669 0.170738 
0.204298 0.170738 -9.99751 
-9.98151 0.00694442 0.194665 
0.00694442 -9.98116 0.16162 
0.194665 0.16162 -9.98056 
-9.97715 -0.000298168 -0.0466026 
-0.000298168 -9.97522 -0.238583 
-0.0466026 -0.238583 -9.99633 
-9.98987 0.00208017 -0.0347755 
0.00208017 -9.97966 -0.234654 
-0.0347755 -0.234654 -9.97917 
-9.97861 0.00107195 -0.0424863 
0.00107195 -9.96732 -0.22611 
-0.0424863 -0.22611 -10.0028 
-9.99442 0.000662683 -0.0350822 
0.000662683 -9.9805 -0.237403 
-0.0350822 -0.237403 -9.97378 
-12.0419 -0.492038 -0.97605 
-0.492038 -8.24886 -0.523683 
-0.97605 -0.523683 -17.2271 
-11.2552 -0.47391 -0.747668 
-0.47391 -11.3418 0.223727 
-0.747668 0.223727 -14.9208 
-13.4837 1.44091 -0.113102 
1.44091 -12.0113 -0.778028 
-0.113102 -0.778028 -12.0228 
-13.0013 -0.0888127 0.814914 
-0.0888127 -10.9022 -0.527332 
0.814914 -0.527332 -13.6144 
-9.78127 -0.00929695 0.114935 
-0.00929695 -9.90239 -0.0077507 
0.114935 -0.0077507 -9.91416 
-9.78293 -0.0113584 0.0750413 
-0.0113584 -9.8622 0.00290641 
0.0750413 0.00290641 -9.95269 
-9.80332 0.00881394 0.105735 
0.00881394 -9.87792 -0.0367522 
0.105735 -0.0367522 -9.91658 
-9.81352 -0.0256773 0.0855803 
-0.0256773 -9.88872 -0.0160854 
0.0855803 -0.0160854 -9.89557 
-9.88876 -0.00706603 -0.0582159 
-0.00706603 -9.83203 0.251765 
-0.0582159 0.251765 -9.94791 
-9.88977 -0.00638074 -0.0449726 
-0.00638074 -9.90646 0.251406 
-0.0449726 0.251406 -9.87248 
-9.88575 -0.00653987 -0.0603091 
-0.00653987 -9.88714 0.239993 
-0.0603091 0.239993 -9.89581 
-9.88481 -0.0187954 -0.065262 
-0.0187954 -9.88828 0.222336 
-0.065262 0.222336 -9.89561 
-9.76553 -0.020441 0.106364 
-0.020441 -9.92059 -0.0119755 
0.106364 -0.0119755 -9.90772 
-9.80958 -0.0380036 0.0905001 
-0.0380036 -9.87611 0.0280932 
0.0905001 0.0280932 -9.90816 
-9.81354 -0.0165628 0.0672324 
-0.0165628 -9.85232 -0.016345 
0.0672324 -0.016345 -9.92799 
-9.81657 -0.00880717 0.0500052 
-0.00880717 -9.88296 -0.00488353 
0.0500052 -0.00488353 -9.89432 
-10.0377 0.18134 0.0389987 
0.18134 -9.7386 -0.427542 
0.0389987 -0.427542 -10.5011 
-9.76134 0.420246 -0.401572 
0.420246 -9.56539 0.021023 
-0.401572 0.021023 -10.9507 
-9.93929 0.0671575 -0.0427624 
0.0671575 -9.80844 0.018905 
-0.0427624 0.018905 -10.5297 
-10.3046 0.358292 0.306701 
0.358292 -9.75105 -0.0162401 
0.306701 -0.0162401 -10.2218 
-9.97351 -0.00114668 0.00555136 
-0.00114668 -9.99083 0.00972073 
0.00555136 0.00972073 -9.95949 
-9.95274 -0.00702089 -0.00313739 
-0.00702089 -9.9719 -0.00221892 
-0.00313739 -0.00221892 -9.99919 
-9.97445 -0.00750117 0.0096477 
-0.00750117 -9.96653 0.00485536 
0.0096477 0.00485536 -9.98285 
-9.96509 0.00331902 0.0121918 
0.00331902 -9.9953 -0.00289623 
0.0121918 -0.00289623 -9.96344 
-9.97857 -0.00545072 -0.00368941 
-0.00545072 -9.96914 -0.00192641 
-0.00368941 -0.00192641 -9.96985 
-9.95676 -0.00493463 0.00256849 
-0.00493463 -9.96861 0.00181232 
0.00256849 0.00181232 -9.99219 
-9.96553 0.00126484 -0.0107884 
0.00126484 -9.9848 -0.000774523 
-0.0107884 -0.000774523 -9.96723 
-9.96794 -0.00318828 -0.00511388 
-0.00318828 -9.98506 -0.00662326 
-0.00511388 -0.00662326 -9.96455 
-9.91816 -0.0380159 0.0106518 
-0.0380159 -9.93132 -0.0054066 
0.0106518 -0.0054066 -9.963 
-9.90111 -0.00311336 0.0182304 
-0.00311336 -9.95619 -0.0152296 
0.0182304 -0.0152296 -9.95519 
-9.89811 -0.0257202 0.0122674 
-0.0257202 -9.94545 -0.0211769 
0.0122674 -0.0211769 -9.96892 
-9.88024 -0.0172285 0.00420484 
-0.0172285 -9.96843 -0.016506 
0.00420484 -0.016506 -9.96382 
-9.80338 0.0133877 0.0743686 
0.0133877 -9.827 0.140701 
0.0743686 0.140701 -9.8694 
-9.80849 0.0751285 0.0604443 
0.0751285 -9.789 0.109087 
0.0604443 0.109087 -9.9023 
-9.78593 -0.0109953 0.06339 
-0.0109953 -9.86479 0.147719 
0.06339 0.147719 -9.84906 
-9.82343 -0.0100312 0.096188 
-0.0100312 -9.79836 0.14892 
0.096188 0.14892 -9.87799 
-9.97021 -0.00382246 0.19718 
-0.00382246 -9.96676 -0.140468 
0.19718 -0.140468 -10.0093 
-9.98273 -0.00491352 0.20577 
-0.00491352 -9.98837 -0.150997 
0.20577 -0.150997 -9.97518 
-9.98034 0.00747839 0.212496 
0.00747839 -9.97335 -0.147365 
0.212496 -0.147365 -9.99259 
-9.97998 -0.0100944 0.2068 
-0.0100944 -9.99178 -0.16129 
0.2068 -0.16129 -9.97452 
-9.90566 -0.0123129 -0.116403 
-0.0123129 -9.91811 0.209441 
-0.116403 0.209441 -9.88535 
-9.89699 -0.00115801 -0.133305 
-0.00115801 -9.90999 0.190588 
-0.133305 0.190588 -9.90214 
-9.88025 -0.0293278 -0.136329 
-0.0293278 -9.85702 0.212742 
-0.136329 0.212742 -9.97184 
-9.87767 -0.0159072 -0.129111 
-0.0159072 -9.91793 0.179737 
-0.129111 0.179737 -9.91352 
-11.5726 -0.685893 0.0455739 
-0.685893 -11.5305 0.260675 
0.0455739 0.260675 -13.3057 
-12.601 1.62321 0.072049 
1.62321 -11.5777 0.199532 
0.072049 0.199532 -12.2301 
-13.3186 -0.999339 -0.106377 
-0.999339 -9.50831 0.884991 
-0.106377 0.884991 -13.5819 
-12.8361 -0.218683 -0.859203 
-0.218683 -11.0629 0.760668 
-0.859203 0.760668 -12.5098 
-7.32828 -0.950318 -1.82039 
-0.950318 -16.8104 1.26297 
-1.82039 1.26297 -27.3116 
-16.0927 2.47426 -1.97491 
2.47426 -18.1556 -1.04669 
-1.97491 -1.04669 -17.202 
-10.3728 0.616098 -1.49432 
0.616098 -14.5998 -3.39431 
-1.49432 -3.39431 -26.4776 
-16.8683 0.89428 3.98064 
0.89428 -14.9946 2.56785 
3.98064 2.56785 -19.5874 
-15.5828 1.53246 -4.00493 
1.53246 -6.29521 -2.16253 
-4.00493 -2.16253 4.99201 
-2.25622 -0.40386 2.67528 
-0.40386 2.48234 1.7954 
2.67528 1.7954 -17.1121 
-16.1984 -2.13685 -4.01232 
-2.13685 -7.20595 2.12713 
-4.01232 2.12713 6.51833 
-2.50026 0.6717 -13.3201 
0.6717 -8.59748 -0.212021 
-13.3201 -0.212021 -5.78829 
-9.97869 0.0008243 -0.2533 
0.0008243 -9.99986 0.0247213 
-0.2533 0.0247213 -9.98058 
-9.9653 -0.00326609 -0.255073 
-0.00326609 -9.97315 0.0147373 
-0.255073 0.0147373 -10.0207 
-10.0025 -0.000807152 -0.258327 
-0.000807152 -9.99155 0.0428333 
-0.258327 0.0428333 -9.96503 
-9.99085 0.00150793 -0.245845 
0.00150793 -9.99677 0.0234542 
-0.245845 0.0234542 -9.97152 
-9.97836 -0.00428254 -0.229455 
-0.00428254 -9.98039 0.124638 
-0.229455 0.124638 -9.99309 
-9.97621 -0.000774428 -0.226894 
-0.000774428 -9.97778 0.114616 
-0.226894 0.114616 -9.99784 
-9.97814 -0.00550751 -0.221967 
-0.00550751 -9.98339 0.123666 
-0.221967 0.123666 -9.99032 
-9.98566 -0.0059925 -0.220943 
-0.0059925 -9.98583 0.122761 
-0.220943 0.122761 -9.98035 
-0.606692 1.5379 1.45584 
1.5379 -0.535877 2.0675 
1.45584 2.0675 -10.6122 
-8.06414 -0.353218 -1.10829 
-0.353218 -9.17829 -0.729953 
-1.10829 -0.729953 5.48766 
-4.25939 0.995576 -2.60669 
0.995576 -9.61167 -0.74486 
-2.60669 -0.74486 2.1163 
-4.32214 -0.9847 -4.77834 
-0.9847 -7.90115 6.18658 
-4.77834 6.18658 0.468519 
-9.7069 0.000114036 0.181602 
0.000114036 -9.81272 0.00554886 
0.181602 0.00554886 -9.81005 
-9.76814 0.00180778 0.197582 
0.00180778 -9.76985 0.032993 
0.197582 0.032993 -9.79167 
-9.73201 0.0034833 0.212454 
0.0034833 -9.78023 0.0113945 
0.212454 0.0113945 -9.81743 
-9.76093 0.0131232 0.219068 
0.0131232 -9.76714 0.00735255 
0.219068 0.00735255 -9.80159 
-9.94352 0.0201778 0.0163936 
0.0201778 -9.97337 -0.00499881 
0.0163936 -0.00499881 -9.9633 
-9.97778 0.0165166 0.00200414 
0.0165166 -9.95392 -0.000582209 
0.00200414 -0.000582209 -9.94848 
-9.94247 -0.0086721 0.0105936 
-0.0086721 -9.97921 -0.00354878 
0.0105936 -0.00354878 -9.95851 
-9.95028 0.0169902 0.0131714 
0.0169902 -9.96341 -0.00827335 
0.0131714 -0.00827335 -9.9665 
-10.0148 0.00409922 -0.00206518 
0.00409922 -10.0107 -0.00362261 
-0.00206518 -0.00362261 -10.0246 
-10.0071 -0.00683856 -0.000294712 
-0.00683856 -10.0254 -0.00015205 
-0.000294712 -0.00015205 -10.0175 
-10.0261 0.00430548 0.000975644 
0.00430548 -10.0149 0.00955443 
0.000975644 0.00955443 -10.009 
-10.0227 0.000670745 0.0044787 
0.000670745 -10.0193 -0.00131934 
0.0044787 -0.00131934 -10.008 
-9.98059 -0.011665 0.000260193 
-0.011665 -10.0011 3.21675e-05 
0.000260193 3.21675e-05 -9.98917 
-9.98884 0.00538138 0.00123557 
0.00538138 -9.98239 0.00205345 
0.00123557 0.00205345 -9.99966 
-9.99764 -0.00360602 -0.00359 
-0.00360602 -9.9864 -0.00399556 
-0.00359 -0.00399556 -9.98686 
-9.99976 -0.000757832 -0.00507828 
-0.000757832 -9.98605 -0.0141583 
-0.00507828 -0.0141583 -9.98508 
-9.98842 -0.00525881 0.255103 
-0.00525881 -9.99389 0.02502 
0.255103 0.02502 -9.97434 
-9.97352 -0.00280343 0.261886 
-0.00280343 -9.999 0.0266903 
0.261886 0.0266903 -9.98412 
-9.96585 0.00242079 0.263105 
0.00242079 -9.97411 0.019567 
0.263105 0.019567 -10.0167 
-9.99971 -0.000432679 0.267849 
-0.000432679 -9.98919 0.0396568 
0.267849 0.0396568 -9.96775 
-9.88998 0.00359957 0.0928779 
0.00359957 -9.89282 0.226868 
0.0928779 0.226868 -9.89645 
-9.87917 0.0104267 0.0994279 
0.0104267 -9.88079 0.23102 
0.0994279 0.23102 -9.91929 
-9.89778 0.0197422 0.110333 
0.0197422 -9.88594 0.214931 
0.110333 0.214931 -9.89554 
-9.88915 0.00219787 0.0973359 
0.00219787 -9.89104 0.224909 
0.0973359 0.224909 -9.89906 
-13.3382 0.282909 0.429181 
0.282909 -11.8672 -0.483392 
0.429181 -0.483392 -16.0141 
-13.3372 0.716627 -0.0767379 
0.716627 -12.3232 -1.2664 
-0.0767379 -1.2664 -15.559 
-13.7522 0.0214164 -0.271722 
0.0214164 -12.7806 -0.70772 
-0.271722 -0.70772 -14.6865 
-13.8308 0.260568 -0.444396 
0.260568 -13.227 -1.04065 
-0.444396 -1.04065 -14.1617 
-9.86142 -0.137519 -0.107746 
-0.137519 -9.96157 -0.0858814 
-0.107746 -0.0858814 -12.1203 
-10.6185 0.00747683 0.392666 
0.00747683 -10.8237 0.033838 
0.392666 0.033838 -10.5011 
-10.825 -0.0693162 0.320789 
-0.0693162 -10.8352 0.0893432 
0.320789 0.0893432 -10.2831 
-10.5744 0.0369984 0.824302 
0.0369984 -10.8816 -0.00754212 
0.824302 -0.00754212 -10.4874 
-9.97179 -0.000700775 -0.0734094 
-0.000700775 -9.97349 0.254279 
-0.0734094 0.254279 -9.99996 
-9.98392 -0.00347901 -0.0847578 
-0.00347901 -9.9694 0.250787 
-0.0847578 0.250787 -9.99192 
-9.98322 -0.00464924 -0.0841759 
-0.00464924 -9.98402 0.251163 
-0.0841759 0.251163 -9.97799 
-9.97752 -0.00448138 -0.0832666 
-0.00448138 -9.9778 0.257306 
-0.0832666 0.257306 -9.98992 
-9.97029 -0.0080063 0.0079418 
-0.0080063 -9.98613 0.00472702 
0.0079418 0.00472702 -9.96857 
-9.95498 -0.00158886 -0.00158916 
-0.00158886 -9.97721 -0.000757449 
-0.00158916 -0.000757449 -9.9928 
-9.98069 -0.00580473 0.00626647 
-0.00580473 -9.96975 0.00179402 
0.00626647 0.00179402 -9.97456 
-9.9658 -0.00838136 0.0160492 
-0.00838136 -9.98978 -0.000227777 
0.0160492 -0.000227777 -9.96942 
-9.97256 -0.00886671 -0.0130757 
-0.00886671 -9.94821 -0.00350368 
-0.0130757 -0.00350368 -9.97616 
-9.94593 0.002982 0.00330146 
0.002982 -9.97619 0.000993991 
0.00330146 0.000993991 -9.9748 
-9.95947 -0.00561627 -0.00124792 
-0.00561627 -9.98767 0.00929075 
-0.00124792 0.00929075 -9.94979 
-9.95814 -0.0229326 -0.0118234 
-0.0229326 -9.98166 -0.00255007 
-0.0118234 -0.00255007 -9.95712 
-9.96626 -9.44393e-05 0.0432518 
-9.44393e-05 -9.96104 0.226609 
0.0432518 0.226609 -10.0105 
-9.96161 0.00282204 0.044932 
0.00282204 -9.97618 0.242641 
0.044932 0.242641 -10 
-9.9893 0.000604096 0.0415182 
0.000604096 -9.97774 0.23716 
0.0415182 0.23716 -9.97075 
-9.99299 0.00324139 0.0331015 
0.00324139 -9.9731 0.241473 
0.0331015 0.241473 -9.9717 
-9.98428 -0.00518473 0.163772 
-0.00518473 -9.9893 -0.193361 
0.163772 -0.193361 -9.9799 
-9.98243 0.00045957 0.159989 
0.00045957 -9.98227 -0.197238 
0.159989 -0.197238 -9.98879 
-9.97871 -0.00868229 0.169549 
-0.00868229 -9.97533 -0.189838 
0.169549 -0.189838 -9.99944 
-9.97415 -0.00556147 0.169308 
-0.00556147 -9.98781 -0.198283 
0.169308 -0.198283 -9.99153 
-9.97504 -0.00286994 -0.00067459 
-0.00286994 -9.94966 0.00179304 
-0.00067459 0.00179304 -9.98439 
-9.95773 0.00947461 0.00205499 
0.00947461 -9.97958 -0.00753543 
0.00205499 -0.00753543 -9.97179 
-9.97504 0.0203321 -0.00358693 
0.0203321 -9.95823 -0.0116189 
-0.00358693 -0.0116189 -9.97582 
-9.97916 0.0116353 0.00100179 
0.0116353 -9.96667 -0.00793716 
0.00100179 -0.00793716 -9.96326 
-9.99006 0.000827427 -0.250548 
0.000827427 -9.99424 -0.0271241 
-0.250548 -0.0271241 -9.97703 
-9.97476 -0.00348465 -0.253964 
-0.00348465 -10.0012 -0.0267286 
-0.253964 -0.0267286 -9.9854 
-9.97588 -6.21042e-05 -0.255168 
-6.21042e-05 -9.97572 -0.0181417 
-0.255168 -0.0181417 -10.0097 
-9.99731 0.00176008 -0.258542 
0.00176008 -9.99126 -0.0361563 
-0.258542 -0.0361563 -9.97276 
-16.1883 -2.07426 6.14855 
-2.07426 -7.06625 -1.28647 
6.14855 -1.28647 6.48726 
-17.0571 2.66483 6.22218 
2.66483 -6.20444 2.76529 
6.22218 2.76529 6.49425 
-4.01748 -1.94438 -2.27513 
-1.94438 0.243025 1.51483 
-2.27513 1.51483 -12.9928 
-1.50871 0.0651927 10.9053 
0.0651927 -8.60767 0.54028 
10.9053 0.54028 -6.6509 
-10.0084 -0.00427181 -0.00656108 
-0.00427181 -10.0025 -0.00125761 
-0.00656108 -0.00125761 -9.99136 
-9.99273 0.006485 0.00409736 
0.006485 -9.99649 -0.00552067 
0.00409736 -0.00552067 -10.0131 
-10.0006 -0.00228456 -0.00197846 
-0.00228456 -9.99782 0.00236653 
-0.00197846 0.00236653 -10.0038 
-10.0156 0.00409373 0.00197429 
0.00409373 -9.99022 -0.00335141 
0.00197429 -0.00335141 -9.99643 
-9.97703 -0.00404206 -0.169093 
-0.00404206 -9.97944 0.195799 
-0.169093 0.195799 -9.99508 
-9.98023 -0.00365135 -0.160356 
-0.00365135 -9.98046 0.202855 
-0.160356 0.202855 -9.99086 
-9.97772 -0.00477128 -0.169378 
-0.00477128 -9.98112 0.205093 
-0.169378 0.205093 -9.9927 
-9.98494 -0.00544014 -0.163328 
-0.00544014 -9.98598 0.198908 
-0.163328 0.198908 -9.98063 
-10.0143 0.00414846 0.00231151 
0.00414846 -10.0102 0.00466221 
0.00231151 0.00466221 -10.0117 
-10.0097 -0.00152716 0.00188366 
-0.00152716 -9.99542 -0.00531128 
0.00188366 -0.00531128 -10.0311 
-10.0045 0.00529377 -0.00198152 
0.00529377 -10.0167 0.00704063 
-0.00198152 0.00704063 -10.0149 
-10.0221 0.00441298 0.0031475 
0.00441298 -10.0116 0.00208002 
0.0031475 0.00208002 -10.0025 
-9.97024 0.00653444 0.192657 
0.00653444 -9.97412 -0.137153 
0.192657 -0.137153 -9.9929 
-9.96648 -0.00562691 0.20436 
-0.00562691 -9.9696 -0.145812 
0.20436 -0.145812 -10.0012 
-9.97672 -0.00628943 0.202514 
-0.00628943 -9.98164 -0.131245 
0.202514 -0.131245 -9.97891 
-9.98026 -0.00964118 0.201244 
-0.00964118 -9.98512 -0.127781 
0.201244 -0.127781 -9.97189 
-9.98835 0.0020852 0.253943 
0.0020852 -9.98655 0.0812157 
0.253943 0.0812157 -9.97769 
-9.97798 0.00213431 0.254321 
0.00213431 -9.97906 0.0730147 
0.254321 0.0730147 -9.99555 
-9.97142 0.00288175 0.250399 
0.00288175 -9.98404 0.0863162 
0.250399 0.0863162 -9.99712 
-9.98371 0.00446984 0.255464 
0.00446984 -9.9836 0.0814416 
0.255464 0.0814416 -9.98527 
-10.001 0.000428651 -0.00198162 
0.000428651 -9.99997 -0.00228162 
-0.00198162 -0.00228162 -10.0066 
-9.99625 -0.00507616 0.000162118 
-0.00507616 -10.0048 0.000476422 
0.000162118 0.000476422 -10.0065 
-10.006 0.0037926 0.000543571 
0.0037926 -10.0031 0.00404708 
0.000543571 0.00404708 -9.99849 
-10.0089 0.000830129 0.00265576 
0.000830129 -10.0016 -0.00136753 
0.00265576 -0.00136753 -9.99703 
-9.99645 -0.000390548 -0.00437756 
-0.000390548 -9.97399 -0.00421643 
-0.00437756 -0.00421643 -9.98522 
-9.9832 -0.00867249 -0.000529671 
-0.00867249 -9.98729 -0.000854812 
-0.000529671 -0.000854812 -9.98518 
-9.98606 0.00550147 -0.000964085 
0.00550147 -9.98163 -0.00113466 
-0.000964085 -0.00113466 -9.98798 
-9.98959 -0.00143945 -0.00695667 
-0.00143945 -9.979 -0.00611628 
-0.00695667 -0.00611628 -9.98707 
-9.9909 -0.00124758 -0.0361389 
-0.00124758 -9.99431 0.267047 
-0.0361389 0.267047 -9.97137 
-9.97601 -0.00022597 -0.0186125 
-0.00022597 -9.97325 0.264539 
-0.0186125 0.264539 -10.0073 
-9.99651 0.00173776 -0.0273067 
0.00173776 -9.97448 0.263363 
-0.0273067 0.263363 -9.98558 
-9.99271 0.00392983 -0.024642 
0.00392983 -9.98577 0.260976 
-0.024642 0.260976 -9.9781 
-10.4743 -0.0521334 0.0960054 
-0.0521334 -10.2784 -0.103622 
0.0960054 -0.103622 -10.9736 
-10.6185 0.0970393 -0.0657727 
0.0970393 -10.5657 0.0120447 
-0.0657727 0.0120447 -10.5421 
-10.6779 0.0208943 -0.0767872 
0.0208943 -10.8306 -0.0968842 
-0.0767872 -0.0968842 -10.2179 
-10.4825 -0.0157624 -0.0770613 
-0.0157624 -10.7332 0.145043 
-0.0770613 0.145043 -10.5106 
-10.1549 -0.0541976 0.00352531 
-0.0541976 -10.2572 -0.00352874 
0.00352531 -0.00352874 -10.4928 
-10.2404 -0.0637082 0.0416925 
-0.0637082 -10.3049 -0.0536477 
0.0416925 -0.0536477 -10.3595 
-10.2129 0.0028756 0.0323197 
0.0028756 -10.4605 -0.0196444 
0.0323197 -0.0196444 -10.2315 
-10.2786 -0.0642262 0.0696938 
-0.0642262 -10.3128 -0.1151 
0.0696938 -0.1151 -10.3135 
-9.98101 0.00628588 0.167995 
0.00628588 -9.97456 0.190521 
0.167995 0.190521 -10.0021 
-9.98378 0.00742186 0.157191 
0.00742186 -9.98446 0.199023 
0.157191 0.199023 -9.98938 
-9.99204 -0.00106173 0.160296 
-0.00106173 -9.99087 0.201633 
0.160296 0.201633 -9.97472 
-9.98982 0.00374751 0.160951 
0.00374751 -9.98819 0.196913 
0.160951 0.196913 -9.97961 
-9.64003 -2.81536 1.14706 
-2.81536 -11.5114 -1.11312 
1.14706 -1.11312 -17.6607 
-11.0019 -1.79396 1.03836 
-1.79396 -12.8222 -0.586816 
1.03836 -0.586816 -14.9881 
-9.39737 -2.29345 1.26736 
-2.29345 -13.0421 -0.474879 
1.26736 -0.474879 -16.3727 
-10.6843 -2.51329 3.31688 
-2.51329 -12.9508 -1.33885 
3.31688 -1.33885 -15.177 
-9.99192 0.0037065 0.0236686 
0.0037065 -9.98417 -0.262288 
0.0236686 -0.262288 -9.97769 
-9.99407 0.00189201 0.0269186 
0.00189201 -9.97523 -0.263398 
0.0269186 -0.263398 -9.98449 
-9.97657 -0.00156328 0.0169217 
-0.00156328 -9.96869 -0.264808 
0.0169217 -0.264808 -10.0085 
-9.99055 -0.00036017 0.0349218 
-0.00036017 -9.9935 -0.267403 
0.0349218 -0.267403 -9.96974 
-9.97153 -0.00289959 0.237969 
-0.00289959 -9.98092 -0.126866 
0.237969 -0.126866 -9.99812 
-9.97555 -0.000806939 0.23353 
-0.000806939 -9.98074 -0.118021 
0.23353 -0.118021 -9.99428 
-9.97661 -0.00468381 0.228431 
-0.00468381 -9.98147 -0.127573 
0.228431 -0.127573 -9.99249 
-9.98146 -0.00775162 0.225891 
-0.00775162 -9.98714 -0.122262 
0.225891 -0.122262 -9.98197 
-9.9961 -0.00392555 -0.00124139 
-0.00392555 -10.0116 -0.00501972 
-0.00124139 -0.00501972 -9.99346 
-9.99479 0.00823495 0.00320104 
0.00823495 -9.9958 -0.00334088 
0.00320104 -0.00334088 -10.0105 
-10.0036 -0.00724315 0.0017718 
-0.00724315 -10.0041 -0.00257786 
0.0017718 -0.00257786 -9.99339 
-9.9993 -0.00488382 -0.000120463 
-0.00488382 -10.0044 0.00303735 
-0.000120463 0.00303735 -9.99747 
-10.132 0.292025 0.111763 
0.292025 -10.2168 0.0538931 
0.111763 0.0538931 -10.3686 
-10.2907 0.0877885 0.0549569 
0.0877885 -10.1162 0.0468318 
0.0549569 0.0468318 -10.3106 
-10.0164 -0.0512715 -0.0392704 
-0.0512715 -10.3885 0.00335616 
-0.0392704 0.00335616 -10.3125 
-10.1789 0.0926043 -0.0708771 
0.0926043 -10.2331 -0.0276579 
-0.0708771 -0.0276579 -10.3055 
-10.528 0.190824 0.0216007 
0.190824 -9.86747 -0.00754001 
0.0216007 -0.00754001 -10.2185 
-10.2399 -0.312293 -0.0434323 
-0.312293 -10.0558 0.0995113 
-0.0434323 0.0995113 -10.3184 
-9.99718 -0.0369425 0.0185543 
-0.0369425 -10.1921 0.0203104 
0.0185543 0.0203104 -10.4247 
-10.2764 -0.0657519 -0.0303882 
-0.0657519 -10.0973 -0.00429124 
-0.0303882 -0.00429124 -10.2403 
-9.99073 0.00198392 0.124604 
0.00198392 -9.99125 0.23177 
0.124604 0.23177 -9.98125 
-9.99002 0.00609477 0.12882 
0.00609477 -9.97706 0.227469 
0.12882 0.227469 -9.99616 
-9.98588 0.0019827 0.119638 
0.0019827 -9.98426 0.232177 
0.119638 0.232177 -9.99311 
-9.98624 0.00570997 0.126752 
0.00570997 -9.989 0.232588 
0.126752 0.232588 -9.98799 
-9.9985 0.00246038 -0.1912 
0.00246038 -9.99567 0.163434 
-0.1912 0.163434 -9.97625 
-9.98771 -0.00670523 -0.187262 
-0.00670523 -9.99249 0.160978 
-0.187262 0.160978 -9.9902 
-9.98672 -0.00830736 -0.194906 
-0.00830736 -9.98572 0.15203 
-0.194906 0.15203 -9.99797 
-9.99568 -0.00446813 -0.185611 
-0.00446813 -9.99834 0.154009 
-0.185611 0.154009 -9.97639 
-10.0136 -0.00415174 0.000571959 
-0.00415174 -10.0077 0.00397596 
0.000571959 0.00397596 -10.0042 
-10.0108 -0.00182578 -0.000469469 
-0.00182578 -10.0104 0.000609573 
-0.000469469 0.000609573 -10.0042 
-10.002 0.00795127 0.00159986 
0.00795127 -10.0009 -0.0020703 
0.00159986 -0.0020703 -10.0226 
-10.0105 -0.00500074 -0.00480099 
-0.00500074 -10.0149 -0.00162016 
-0.00480099 -0.00162016 -10 
-9.98644 -0.00675317 0.190909 
-0.00675317 -9.98949 -0.16569 
0.190909 -0.16569 -9.99691 
-9.99125 -0.00426375 0.19688 
-0.00426375 -9.98922 -0.158133 
0.19688 -0.158133 -9.99238 
-9.99714 0.000833498 0.197685 
0.000833498 -9.99421 -0.162227 
0.197685 -0.162227 -9.98149 
-9.99663 -0.00406682 0.192213 
-0.00406682 -9.99378 -0.159706 
0.192213 -0.159706 -9.98244 
-10.2878 0.0182123 -0.0779767 
0.0182123 -10.2497 0.00741305 
-0.0779767 0.00741305 -10.5335 
-10.4263 -0.0552659 -0.0119879 
-0.0552659 -10.277 0.0178883 
-0.0119879 0.0178883 -10.3676 
-10.4854 0.0101307 -0.0342058 
0.0101307 -10.2864 0.0279527 
-0.0342058 0.0279527 -10.2991 
-10.3656 -0.0246408 0.0223391 
-0.0246408 -10.3501 -0.0128008 
0.0223391 -0.0128008 -10.3552 
-10.2276 0.0276707 -0.00824224 
0.0276707 -10.2896 -0.0162704 
-0.00824224 -0.0162704 -10.3059 
-10.2254 0.00314337 -0.0316316 
0.00314337 -10.2535 0.0124985 
-0.0316316 0.0124985 -10.3441 
-10.1972 -0.00714355 -0.00434157 
-0.00714355 -10.3472 -0.0139242 
-0.00434157 -0.0139242 -10.2786 
-10.237 0.00806265 0.00404833 
0.00806265 -10.3094 -0.0100162 
0.00404833 -0.0100162 -10.2767 
-9.99167 -0.007873 -0.129582 
-0.007873 -9.97939 0.222052 
-0.129582 0.222052 -9.99172 
-9.98401 -0.00811515 -0.11575 
-0.00811515 -9.98207 0.229541 
-0.11575 0.229541 -9.9967 
-9.99376 -0.00588864 -0.123619 
-0.00588864 -9.9937 0.223052 
-0.123619 0.223052 -9.97532 
-9.99198 -0.000174627 -0.129586 
-0.000174627 -9.99853 0.227534 
-0.129586 0.227534 -9.97226 
-10.292 0.0439498 -0.0667823 
0.0439498 -10.1418 -0.0705902 
-0.0667823 -0.0705902 -10.2914 
-10.4724 0.00823281 -0.0158787 
0.00823281 -10.1679 -0.0575248 
-0.0158787 -0.0575248 -10.085 
-10.1704 0.0453154 0.0180575 
0.0453154 -10.0301 -0.0195194 
0.0180575 -0.0195194 -10.5248 
-10.3142 0.0870276 -0.187595 
0.0870276 -10.1887 -0.0608089 
-0.187595 -0.0608089 -10.2223 
-5.58723 -1.40849 2.11986 
-1.40849 -5.58143 0.15796 
2.11986 0.15796 2.93022 
-2.65624 -0.0970977 -1.37944 
-0.0970977 -1.4214 0.548241 
-1.37944 0.548241 -4.1608 
-3.72399 -0.517314 -0.761676 
-0.517314 -3.79805 -0.0253806 
-0.761676 -0.0253806 -0.716393 
-6.68878 -0.389158 -2.31746 
-0.389158 -1.35888 -0.518208 
-2.31746 -0.518208 -0.190772 
-9.96707 -0.0179496 0.00013298 
-0.0179496 -9.97099 0.00435771 
0.00013298 0.00435771 -9.98151 
-9.98193 -0.00705458 0.0127083 
-0.00705458 -9.95109 0.0123859 
0.0127083 0.0123859 -9.98655 
-9.98219 0.00968027 0.00314557 
0.00968027 -9.95087 0.00304145 
0.00314557 0.00304145 -9.98651 
-9.99445 -0.00471948 0.0074392 
-0.00471948 -9.94028 0.0161728 
0.0074392 0.0161728 -9.98484 
-9.9899 -0.00378765 -0.240218 
-0.00378765 -9.99241 0.0746122 
-0.240218 0.0746122 -9.9802 
-9.98243 -0.00442243 -0.242341 
-0.00442243 -9.98917 0.070345 
-0.242341 0.070345 -9.99091 
-9.97361 -0.00253845 -0.238924 
-0.00253845 -9.9875 0.0825679 
-0.238924 0.0825679 -10.0014 
-9.9941 0.00122469 -0.245913 
0.00122469 -9.99117 0.0722799 
-0.245913 0.0722799 -9.97724 
-9.93566 0.0294774 0.0193528 
0.0294774 -9.94895 -0.00756343 
0.0193528 -0.00756343 -9.92805 
-9.93738 0.00621075 0.00778842 
0.00621075 -9.94114 -0.000838963 
0.00778842 -0.000838963 -9.93415 
-9.92365 0.0168642 0.0110802 
0.0168642 -9.92059 -0.000451737 
0.0110802 -0.000451737 -9.96843 
-9.93529 0.0146132 0.0253157 
0.0146132 -9.93677 -0.00665626 
0.0253157 -0.00665626 -9.94061 
-9.99417 -0.00628181 0.124917 
-0.00628181 -9.99418 -0.223719 
0.124917 -0.223719 -9.97606 
-9.99378 -0.00775372 0.130339 
-0.00775372 -9.97833 -0.222213 
0.130339 -0.222213 -9.9923 
-9.98562 -0.00573901 0.116113 
-0.00573901 -9.98286 -0.229822 
0.116113 -0.229822 -9.99593 
-9.99342 -0.000668619 0.128086 
-0.000668619 -9.99825 -0.228484 
0.128086 -0.228484 -9.97273 
-9.98548 -0.00374402 0.268067 
-0.00374402 -9.98975 -0.0300173 
0.268067 -0.0300173 -9.98082 
-9.97605 0.00169491 0.268457 
0.00169491 -9.97286 -0.0196603 
0.268457 -0.0196603 -10.0071 
-9.97409 0.0020509 0.267267 
0.0020509 -9.99731 -0.0286727 
0.267267 -0.0286727 -9.98466 
-9.99132 -0.00354733 0.269944 
-0.00354733 -9.9911 -0.0376529 
0.269944 -0.0376529 -9.97364 
-10.0041 0.00137536 -0.0050574 
0.00137536 -10.0155 0.00815837 
-0.0050574 0.00815837 -10.0155 
-10.0144 -0.0127611 -0.00262149 
-0.0127611 -10.0157 0.0026616 
-0.00262149 0.0026616 -10.0051 
-10.014 0.00901398 0.000407619 
0.00901398 -10.0061 -0.000663293 
0.000407619 -0.000663293 -10.015 
-9.99934 -0.00216246 -0.00348307 
-0.00216246 -10.0239 0.0041108 
-0.00348307 0.0041108 -10.012 
-10.0825 -0.00343371 -0.0136685 
-0.00343371 -10.0633 0.000856364 
-0.0136685 0.000856364 -10.0423 
-10.059 0.00468663 -0.00038468 
0.00468663 -10.0566 -0.00564482 
-0.00038468 -0.00564482 -10.0725 
-10.0591 -0.00429869 0.000565345 
-0.00429869 -10.0501 0.00288564 
0.000565345 0.00288564 -10.0788 
-10.0743 -0.000943198 0.000376372 
-0.000943198 -10.0545 -0.00395994 
0.000376372 -0.00395994 -10.0593 
-10.0545 -0.00839309 -0.000268897 
-0.00839309 -10.0427 0.0391148 
-0.000268897 0.0391148 -10.0206 
-9.99938 -0.0168842 -0.00182601 
-0.0168842 -10.0266 -0.00529379 
-0.00182601 -0.00529379 -10.0918 
-10.0437 0.00668578 0.000377558 
0.00668578 -10.0383 0.00256878 
0.000377558 0.00256878 -10.0358 
-10.0638 0.00570399 0.0182984 
0.00570399 -10.0418 0.00079208 
0.0182984 0.00079208 -10.0122 
-9.94536 0.00177728 -0.011274 
0.00177728 -9.98276 0.00669667 
-0.011274 0.00669667 -9.95618 
-9.93611 -0.00796646 -0.0139411 
-0.00796646 -9.98511 -0.00166426 
-0.0139411 -0.00166426 -9.96308 
-9.96447 -0.0306036 -0.00518163 
-0.0306036 -9.91934 0.000751457 
-0.00518163 0.000751457 -10.0005 
-9.96419 0.00783322 -0.00182069 
0.00783322 -9.99126 -0.0228122 
-0.00182069 -0.0228122 -9.92886 
-9.99834 0.021839 -0.00245258 
0.021839 -10.0134 0.0096484 
-0.00245258 0.0096484 -9.97827 
-9.97095 -0.00876161 -0.0122794 
-0.00876161 -9.96541 -0.0025179 
-0.0122794 -0.0025179 -10.0537 
-10.0025 0.001852 0.00343592 
0.001852 -10.0017 0.000575924 
0.00343592 0.000575924 -9.98577 
-9.99383 -0.00316784 0.0186025 
-0.00316784 -10.0217 -0.0124714 
0.0186025 -0.0124714 -9.97444 
-9.98938 -0.00501584 0.250415 
-0.00501584 -9.99115 -0.07834 
0.250415 -0.07834 -9.98308 
-9.98665 -0.00204124 0.250151 
-0.00204124 -9.98878 -0.0735196 
0.250151 -0.0735196 -9.98818 
-9.97206 -0.00328181 0.246708 
-0.00328181 -9.98794 -0.0864768 
0.246708 -0.0864768 -10.0036 
-9.99317 -0.00100354 0.252771 
-0.00100354 -9.99211 -0.0748476 
0.252771 -0.0748476 -9.97833 
-9.98562 0.00102883 -0.245588 
0.00102883 -9.99195 -0.0725136 
-0.245588 -0.0725136 -9.98146 
-9.98082 0.00123992 -0.246189 
0.00123992 -9.98676 -0.0698878 
-0.246189 -0.0698878 -9.99144 
-9.97803 0.00185433 -0.242768 
0.00185433 -9.98334 -0.0816616 
-0.242768 -0.0816616 -9.99765 
-9.98079 0.000282501 -0.249517 
0.000282501 -9.98875 -0.0748457 
-0.249517 -0.0748457 -9.98949 
-13.8449 1.55578 -0.847298 
1.55578 -12.0515 -1.28421 
-0.847298 -1.28421 -11.9109 
-11.8139 2.00236 -0.113526 
2.00236 -8.32029 -1.39168 
-0.113526 -1.39168 -17.6732 
-10.9906 2.66708 -1.26274 
2.66708 -9.05047 -0.921244 
-1.26274 -0.921244 -17.7663 
-12.3554 1.49865 -0.497099 
1.49865 -10.8458 -0.27781 
-0.497099 -0.27781 -14.6061 
-9.98931 0.00904945 -0.0115088 
0.00904945 -9.99547 0.00468275 
-0.0115088 0.00468275 -9.99466 
-9.97831 -4.00489e-06 -0.00240564 
-4.00489e-06 -9.99238 0.000447882 
-0.00240564 0.000447882 -10.0087 
-10.0051 0.00880989 -0.000578034 
0.00880989 -10.0006 0.000535325 
-0.000578034 0.000535325 -9.97369 
-9.98772 0.00812403 -0.0120482 
0.00812403 -9.99555 0.00169411 
-0.0120482 0.00169411 -9.99617 
-10.0032 0.0264056 -0.0138612 
0.0264056 -10.0127 0.00409922 
-0.0138612 0.00409922 -9.99988 
-10.0107 0.00206831 -0.0036395 
0.00206831 -9.99797 0.000218091 
-0.0036395 0.000218091 -10.0072 
-9.98534 -0.000169137 -0.00553227 
-0.000169137 -10.0205 0.000696706 
-0.00553227 0.000696706 -10.01 
-10.0018 0.0111576 -0.0126666 
0.0111576 -10.0053 0.00412043 
-0.0126666 0.00412043 -10.0086 
-10.0063 -0.00516844 -0.00351542 
-0.00516844 -9.98611 -0.00302931 
-0.00351542 -0.00302931 -9.98121 
-9.98587 0.00480623 0.00578186 
0.00480623 -9.98933 -0.011403 
0.00578186 -0.011403 -9.99838 
-9.9899 0.00738548 -0.00114567 
0.00738548 -9.97426 0.00105828 
-0.00114567 0.00105828 -10.0094 
-10.0069 0.00086097 0.0120314 
0.00086097 -9.99067 -0.0045649 
0.0120314 -0.0045649 -9.97598 
-9.99348 -0.00131674 -0.026147 
-0.00131674 -9.98464 -0.262249 
-0.026147 -0.262249 -9.9798 
-9.97458 0.000960744 -0.0181444 
0.000960744 -9.96703 -0.263778 
-0.0181444 -0.263778 -10.0163 
-9.99309 0.00199061 -0.0393778 
0.00199061 -9.99128 -0.264377 
-0.0393778 -0.264377 -9.97355 
-9.99089 -0.00897721 -0.0258473 
-0.00897721 -9.98255 -0.263182 
-0.0258473 -0.263182 -9.98448 
-10.0539 -0.0153475 0.0273818 
-0.0153475 -10.0273 0.00880648 
0.0273818 0.00880648 -9.95789 
-9.95957 0.0216777 -0.0029293 
0.0216777 -10.0061 0.0135327 
-0.0029293 0.0135327 -10.0734 
-10.028 -0.0104843 0.000628569 
-0.0104843 -10.0023 -0.00347206 
0.000628569 -0.00347206 -10.0087 
-10.0558 -0.00959815 -0.0219723 
-0.00959815 -10.0013 -0.0166875 
-0.0219723 -0.0166875 -9.98192 
-10.0594 0.00261778 -0.000744975 
0.00261778 -10.0393 0.00542639 
-0.000744975 0.00542639 -10.0433 
-10.0241 0.0102286 0.00115777 
0.0102286 -10.0405 -0.0040964 
0.00115777 -0.0040964 -10.0774 
-10.0658 -0.00531718 0.00984235 
-0.00531718 -10.0382 7.98536e-05 
0.00984235 7.98536e-05 -10.0379 
-10.0628 -0.0262218 -0.0105072 
-0.0262218 -10.0474 -0.00638242 
-0.0105072 -0.00638242 -10.0317 
-3.07137 -0.273571 0.473057 
-0.273571 -4.80597 -0.56665 
0.473057 -0.56665 -2.55089 
-6.85475 0.345063 1.71681 
0.345063 -5.55617 -0.152139 
1.71681 -0.152139 1.9827 
-4.08731 0.233018 0.406422 
0.233018 -2.84914 -1.05075 
0.406422 -1.05075 -3.49178 
-4.54405 0.179895 -1.28596 
0.179895 -2.14924 -1.55974 
-1.28596 -1.55974 -3.73493 
-6.92919 -0.182647 -1.10311 
-0.182647 -5.04396 -0.146777 
-1.10311 -0.146777 2.0052 
-4.31004 -0.00931766 1.75538 
-0.00931766 -3.67521 -0.111373 
1.75538 -0.111373 -1.98269 
-3.59834 -0.390506 2.04472 
-0.390506 -2.27649 -0.247904 
2.04472 -0.247904 -4.09312 
-7.11783 0.230385 3.47939 
0.230385 -1.84111 -1.45985 
3.47939 -1.45985 -1.00902 
-9.99387 0.00423974 -0.19571 
0.00423974 -9.99551 -0.159694 
-0.19571 -0.159694 -9.99079 
-9.99113 0.00326375 -0.191107 
0.00326375 -9.9927 -0.161896 
-0.191107 -0.161896 -9.99635 
-9.99231 0.00503156 -0.195719 
0.00503156 -9.99475 -0.156193 
-0.195719 -0.156193 -9.99312 
-9.99461 0.00260235 -0.19645 
0.00260235 -9.99863 -0.156934 
-0.19645 -0.156934 -9.98693 
-9.98826 -0.00170757 0.0287337 
-0.00170757 -9.98374 0.26955 
0.0287337 0.26955 -9.98013 
-9.97141 0.000750931 0.018292 
0.000750931 -9.96724 0.269822 
0.018292 0.269822 -10.0135 
-9.9928 -0.0032053 0.030302 
-0.0032053 -9.97588 0.268098 
0.030302 0.268098 -9.98345 
-9.99034 0.00238364 0.0391697 
0.00238364 -9.99188 0.271887 
0.0391697 0.271887 -9.9699 
-13.9255 0.492985 -0.0232626 
0.492985 -12.5117 0.848285 
-0.0232626 0.848285 -11.5941 
-12.1305 -0.195954 -0.0554043 
-0.195954 -10.8841 1.36889 
-0.0554043 1.36889 -15.0167 
-12.0065 0.112299 0.228788 
0.112299 -10.4319 -0.0704927 
0.228788 -0.0704927 -15.593 
-13.31 -0.319961 -1.85387 
-0.319961 -11.6131 0.643678 
-1.85387 0.643678 -13.1083 
-9.99354 0.0040968 -0.120771 
0.0040968 -9.99455 -0.227746 
-0.120771 -0.227746 -9.98148 
-9.99099 0.00911883 -0.130369 
0.00911883 -9.97532 -0.221584 
-0.130369 -0.221584 -10.0033 
-9.993 -0.00317413 -0.11979 
-0.00317413 -9.99313 -0.226356 
-0.11979 -0.226356 -9.98344 
-9.9863 0.00927832 -0.125938 
0.00927832 -9.99674 -0.226575 
-0.125938 -0.226575 -9.98653 
-4.1602 0.670979 -0.0176861 
0.670979 -3.10172 0.129754 
-0.0176861 0.129754 -2.93238 
-6.0142 0.136773 -1.1838 
0.136773 -5.10712 -0.440997 
-1.1838 -0.440997 0.927019 
-3.96624 1.05967 0.0970059 
1.05967 -3.97794 0.818035 
0.0970059 0.818035 -2.25012 
-3.7677 0.276231 1.0921 
0.276231 -2.09792 0.5759 
1.0921 0.5759 -4.32868 
-10.2278 0.0322463 1.38241 
0.0322463 -9.48301 -0.0816758 
1.38241 -0.0816758 -9.47228 
-9.75833 0.0386998 1.15502 
0.0386998 -9.29472 -0.0914003 
1.15502 -0.0914003 -10.13 
-9.49423 0.320466 1.62539 
0.320466 -9.45823 -0.297714 
1.62539 -0.297714 -10.2306 
-9.27529 -1.4018 -0.56469 
-1.4018 -9.75405 -1.27162 
-0.56469 -1.27162 -10.1537 
-8.48793 0.578473 0.648002 
0.578473 -8.79354 -0.198202 
0.648002 -0.198202 -11.6033 
-9.55166 0.423892 1.72792 
0.423892 -9.26601 -0.0630334 
1.72792 -0.0630334 -10.0671 
-11.1995 0.480759 1.33459 
0.480759 -8.95197 -0.924959 
1.33459 -0.924959 -8.73331 
-7.76469 -1.25259 3.41907 
-1.25259 -9.42054 0.887213 
3.41907 0.887213 -11.6996 
-9.71441 0.0679271 0.181026 
0.0679271 -9.63896 0.19574 
0.181026 0.19574 -9.92594 
-9.75026 0.107452 0.140115 
0.107452 -9.623 0.227741 
0.140115 0.227741 -9.90605 
-9.73615 0.103835 0.144472 
0.103835 -9.65805 0.237422 
0.144472 0.237422 -9.88512 
-9.76891 0.1275 0.226392 
0.1275 -9.66706 0.283196 
0.226392 0.283196 -9.84335 
-9.83602 0.106454 0.181578 
0.106454 -9.75067 0.300644 
0.181578 0.300644 -9.85056 
-9.89552 0.113479 0.205478 
0.113479 -9.61532 0.254327 
0.205478 0.254327 -9.9264 
-9.8105 0.00818838 0.204752 
0.00818838 -9.61 0.218201 
0.204752 0.218201 -10.0167 
-9.7845 0.00317404 0.076526 
0.00317404 -9.7664 0.21855 
0.076526 0.21855 -9.88635 
-9.95389 -0.00814824 0.15016 
-0.00814824 -9.50884 0.290517 
0.15016 0.290517 -9.93683 
-9.87028 0.167227 0.251608 
0.167227 -9.67064 0.233188 
0.251608 0.233188 -9.85864 
-9.64737 0.0564313 0.1333 
0.0564313 -9.61543 0.335915 
0.1333 0.335915 -10.1368 
-9.8252 0.114972 0.366503 
0.114972 -9.76764 0.345508 
0.366503 0.345508 -9.80672 
-9.82941 0.0564668 0.196224 
0.0564668 -9.70292 0.300825 
0.196224 0.300825 -9.93597 
-9.83108 0.0150005 0.208128 
0.0150005 -9.75996 0.297572 
0.208128 0.297572 -9.87726 
-9.81754 0.0665325 0.225309 
0.0665325 -9.77175 0.242854 
0.225309 0.242854 -9.87902 
-9.93602 0.131599 0.0851729 
0.131599 -9.71067 0.136124 
0.0851729 0.136124 -9.82162 
-9.99506 -0.0279159 0.562766 
-0.0279159 -9.67019 0.391111 
0.562766 0.391111 -9.86619 
-9.75418 0.714654 0.932929 
0.714654 -9.737 0.311512 
0.932929 0.311512 -10.0403 
-9.92304 0.0919175 0.270727 
0.0919175 -9.67693 0.155533 
0.270727 0.155533 -9.93147 
-10.2512 0.27255 0.45996 
0.27255 -9.93389 0.665353 
0.45996 0.665353 -9.34633 
-9.78205 0.22238 0.39618 
0.22238 -9.68132 0.152731 
0.39618 0.152731 -10.1678 
-9.69511 0.392767 0.593748 
0.392767 -9.8299 0.223191 
0.593748 0.223191 -10.1061 
-9.64067 0.0718085 0.493807 
0.0718085 -9.8915 0.288498 
0.493807 0.288498 -10.099 
-9.37532 -0.127644 0.822155 
-0.127644 -9.78154 0.0765422 
0.822155 0.0765422 -10.4743 
-4.4471 -2.88698 6.72356 
-2.88698 -8.15659 -1.47959 
6.72356 -1.47959 -5.71246 
-11.9964 -1.1284 4.23036 
-1.1284 -5.29284 -1.82041 
4.23036 -1.82041 -1.02696 
-4.12119 5.25962 0.885515 
5.25962 -2.27902 4.00735 
0.885515 4.00735 -11.9159 
-19.4609 2.99878 6.06623 
2.99878 -12.2015 -8.30316 
6.06623 -8.30316 13.3463 
-7.95018 0.944741 5.36371 
0.944741 -6.76027 -2.61247 
5.36371 -2.61247 -7.46611 
-9.2214 -1.10213 4.18344 
-1.10213 -7.06559 -0.512938 
4.18344 -0.512938 -5.88958 
-8.7168 0.485862 3.421 
0.485862 -8.69566 -0.15532 
3.421 -0.15532 -4.76411 
-9.13549 -2.9875 3.80331 
-2.9875 -6.24221 2.6096 
3.80331 2.6096 -6.79888 
-9.76715 1.0988 -0.991787 
1.0988 -13.4318 -0.210703 
-0.991787 -0.210703 -17.5228 
-10.6322 2.42416 -1.17111 
2.42416 -14.0656 -0.311072 
-1.17111 -0.311072 -16.0239 
-11.1553 0.933309 -1.65731 
0.933309 -13.143 -0.905661 
-1.65731 -0.905661 -16.4235 
-5.19686 3.22244 -1.96033 
3.22244 -11.0516 2.02973 
-1.96033 2.02973 -24.4734 
-10.7193 2.64322 -0.254904 
2.64322 -9.84061 -1.38701 
-0.254904 -1.38701 -13.0362 
-10.0089 -0.127969 1.93959 
-0.127969 -9.66704 0.582931 
1.93959 0.582931 -13.9202 
-8.72217 -0.281521 0.108813 
-0.281521 -10.867 0.382953 
0.108813 0.382953 -14.0069 
-8.84294 -1.13349 1.53638 
-1.13349 -12.409 0.048573 
1.53638 0.048573 -12.3441 
-10.4001 -0.0216813 -0.0784702 
-0.0216813 -10.6197 0.00758105 
-0.0784702 0.00758105 -10.2236 
-10.2954 0.00835488 -1.1919 
0.00835488 -10.7475 -0.158957 
-1.1919 -0.158957 -10.2004 
-10.3496 0.0173101 -0.0895346 
0.0173101 -10.6184 -0.0743982 
-0.0895346 -0.0743982 -10.2754 
-9.8047 -0.00120441 -0.103317 
-0.00120441 -10.1183 -0.0126822 
-0.103317 -0.0126822 -11.3204 
-8.69912 0.125141 0.326093 
0.125141 -10.5379 -0.12243 
0.326093 -0.12243 -10.8558 
-10.2437 -0.384066 0.536115 
-0.384066 -9.92893 -0.559046 
0.536115 -0.559046 -9.92018 
-8.68717 -0.0276038 0.785883 
-0.0276038 -10.7108 -0.0796075 
0.785883 -0.0796075 -10.6949 
-7.34485 0.217646 2.20616 
0.217646 -11.6313 0.0520137 
2.20616 0.0520137 -11.1167 
-9.50861 -0.182232 0.555009 
-0.182232 -10.0664 -0.368268 
0.555009 -0.368268 -9.13743 
-9.57657 -0.0336992 0.491455 
-0.0336992 -10.0135 -0.235393 
0.491455 -0.235393 -9.12242 
-9.45238 -0.0223771 0.471649 
-0.0223771 -10.1225 -0.19971 
0.471649 -0.19971 -9.13758 
-9.33062 0.272561 0.598006 
0.272561 -10.3922 -0.253491 
0.598006 -0.253491 -8.98965 
-9.45686 0.0698393 0.460011 
0.0698393 -9.79243 -0.178393 
0.460011 -0.178393 -9.3236 
-9.50738 0.0446873 0.390276 
0.0446873 -9.78058 -0.121229 
0.390276 -0.121229 -9.28493 
-9.50898 0.0692903 0.392598 
0.0692903 -9.73996 -0.173318 
0.392598 -0.173318 -9.32395 
-9.50795 0.00700145 0.353388 
0.00700145 -9.68336 -0.26745 
0.353388 -0.26745 -9.38158 
-9.94091 0.025725 -0.212685 
0.025725 -10.0045 -0.0680169 
-0.212685 -0.0680169 -9.99317 
-9.98224 0.0113932 -0.21835 
0.0113932 -9.99068 -0.0481013 
-0.21835 -0.0481013 -9.96568 
-9.93457 -0.0176414 -0.23733 
-0.0176414 -9.98405 -0.0737612 
-0.23733 -0.0737612 -10.02 
-9.9691 -0.00198967 -0.223745 
-0.00198967 -9.98056 -0.0592417 
-0.223745 -0.0592417 -9.98893 
-9.87857 0.0384335 -0.204429 
0.0384335 -9.95471 -0.0837597 
-0.204429 -0.0837597 -9.97278 
-9.88707 -0.00216273 -0.2393 
-0.00216273 -9.95473 -0.050108 
-0.2393 -0.050108 -9.96427 
-9.92083 0.02643 -0.214473 
0.02643 -9.90317 -0.0237701 
-0.214473 -0.0237701 -9.98206 
-9.89038 -0.00509605 -0.215964 
-0.00509605 -9.97321 -0.0558239 
-0.215964 -0.0558239 -9.94247 
-9.91253 0.0166895 0.146607 
0.0166895 -9.84646 0.150644 
0.146607 0.150644 -9.92762 
-9.91981 0.0338925 0.0945052 
0.0338925 -9.84383 0.232715 
0.0945052 0.232715 -9.92298 
-9.86907 0.0410101 0.116918 
0.0410101 -9.8804 0.235765 
0.116918 0.235765 -9.93715 
-9.99399 0.0111289 0.140888 
0.0111289 -9.78561 0.247881 
0.140888 0.247881 -9.90701 
-9.97996 -0.0019133 0.102698 
-0.0019133 -9.91853 0.220617 
0.102698 0.220617 -9.98769 
-9.97066 0.0164775 0.0942737 
0.0164775 -9.93766 0.24877 
0.0942737 0.24877 -9.97787 
-9.98725 -0.000260816 0.0808775 
-0.000260816 -9.93926 0.258409 
0.0808775 0.258409 -9.95967 
-9.92898 -0.015209 0.0758122 
-0.015209 -9.93835 0.184135 
0.0758122 0.184135 -10.0188 
-9.85379 -0.0899875 0.197703 
-0.0899875 -9.72402 -0.240243 
0.197703 -0.240243 -9.9647 
-9.80392 -0.0738844 0.182567 
-0.0738844 -9.73329 -0.23619 
0.182567 -0.23619 -10.0053 
-9.85756 -0.125942 0.243677 
-0.125942 -9.69195 -0.212917 
0.243677 -0.212917 -9.993 
-9.87607 -0.11463 0.187395 
-0.11463 -9.7008 -0.229802 
0.187395 -0.229802 -9.96564 
-9.85889 -0.085066 0.210673 
-0.085066 -9.76798 -0.242692 
0.210673 -0.242692 -9.97286 
-9.88414 -0.0752035 0.201944 
-0.0752035 -9.75124 -0.215814 
0.201944 -0.215814 -9.96435 
-9.87273 -0.0672281 0.191299 
-0.0672281 -9.76366 -0.227018 
0.191299 -0.227018 -9.96334 
-9.86535 -0.0774591 0.194365 
-0.0774591 -9.77289 -0.232331 
0.194365 -0.232331 -9.9615 
-9.85691 0.00129831 -0.212021 
0.00129831 -9.88969 0.205045 
-0.212021 0.205045 -9.7707 
-9.9688 -0.0977115 -0.247456 
-0.0977115 -9.84277 0.176365 
-0.247456 0.176365 -9.70573 
-9.88327 0.0110081 -0.175143 
0.0110081 -9.88359 0.226239 
-0.175143 0.226239 -9.75044 
-9.77616 -0.000931682 -0.226452 
-0.000931682 -9.91862 0.191425 
-0.226452 0.191425 -9.82252 
-9.9388 -0.0284097 -0.116336 
-0.0284097 -9.87746 0.241095 
-0.116336 0.241095 -9.64977 
-9.95234 -0.0775013 -0.30879 
-0.0775013 -10.063 0.169534 
-0.30879 0.169534 -9.45073 
-9.77827 -0.0289706 -0.203948 
-0.0289706 -9.79739 0.190536 
-0.203948 0.190536 -9.89037 
-9.96831 0.010644 -0.104926 
0.010644 -9.87407 0.169311 
-0.104926 0.169311 -9.62365 
-9.96336 0.00271393 -0.169888 
0.00271393 -9.92568 0.183218 
-0.169888 0.183218 -9.72634 
-9.94991 0.0357591 -0.149725 
0.0357591 -9.89514 0.204551 
-0.149725 0.204551 -9.77033 
-9.98735 -0.00324497 -0.178624 
-0.00324497 -9.88532 0.197298 
-0.178624 0.197298 -9.74271 
-9.95263 0.0133732 -0.128454 
0.0133732 -9.91984 0.17798 
-0.128454 0.17798 -9.74291 
-9.96581 -0.0290877 -0.154009 
-0.0290877 -9.80895 0.147398 
-0.154009 0.147398 -9.66481 
-9.92385 -0.0480014 -0.198185 
-0.0480014 -9.82702 0.172051 
-0.198185 0.172051 -9.6887 
-9.95904 -0.0487559 -0.154978 
-0.0487559 -9.80153 0.181766 
-0.154978 0.181766 -9.67899 
-9.93795 -0.0558339 -0.184692 
-0.0558339 -9.82052 0.196737 
-0.184692 0.196737 -9.68109 
-9.95789 -0.00726298 0.0100745 
-0.00726298 -9.87729 -0.28679 
0.0100745 -0.28679 -9.90786 
-9.93248 -0.00848531 -0.0815397 
-0.00848531 -9.84981 -0.228311 
-0.0815397 -0.228311 -9.96075 
-9.89062 0.00688238 0.00216228 
0.00688238 -9.93051 -0.215238 
0.00216228 -0.215238 -9.92191 
-10.0098 -0.0230779 -0.00175595 
-0.0230779 -9.78879 -0.235059 
-0.00175595 -0.235059 -9.94444 
-9.96423 -0.0212568 0.0107218 
-0.0212568 -9.91521 -0.214072 
0.0107218 -0.214072 -9.97821 
-9.98022 0.000514064 -0.025035 
0.000514064 -9.91679 -0.233186 
-0.025035 -0.233186 -9.96063 
-10.0063 -0.0141693 0.00812761 
-0.0141693 -9.89324 -0.273772 
0.00812761 -0.273772 -9.95809 
-9.9648 0.0184076 -0.0585899 
0.0184076 -9.93174 -0.26354 
-0.0585899 -0.26354 -9.9611 
-8.27542 -0.106289 -0.315668 
-0.106289 -7.38711 -0.218129 
-0.315668 -0.218129 -3.39746 
-9.9993 -0.741332 1.19373 
-0.741332 -5.82323 0.241598 
1.19373 0.241598 -3.23745 
-9.91723 -0.530569 0.898267 
-0.530569 -6.38363 0.325886 
0.898267 0.325886 -2.75911 
-6.76016 0.632389 0.990812 
0.632389 -7.80228 -0.353787 
0.990812 -0.353787 -4.49754 
-6.03771 -0.3359 1.62363 
-0.3359 -3.42237 -1.19413 
1.62363 -1.19413 -2.84151 
-6.00407 -0.271754 -2.00605 
-0.271754 -1.2679 -0.811417 
-2.00605 -0.811417 -5.02963 
-5.06772 1.88767 -0.824617 
1.88767 -6.69984 0.49428 
-0.824617 0.49428 -0.534038 
-12.0906 -3.34973 1.28611 
-3.34973 -9.24268 4.64957 
1.28611 4.64957 9.03172 
-9.88911 -0.060297 0.0758873 
-0.060297 -9.80768 -0.0195862 
0.0758873 -0.0195862 -9.94343 
-9.8594 -0.0576499 0.0653688 
-0.0576499 -9.80502 -0.0292559 
0.0653688 -0.0292559 -9.9758 
-9.83081 0.0231828 0.0695789 
0.0231828 -9.83673 -0.0545053 
0.0695789 -0.0545053 -9.97268 
-9.82442 -0.00526828 0.0341388 
-0.00526828 -9.85381 -0.0334284 
0.0341388 -0.0334284 -9.96199 
-9.81125 -0.0390178 0.0961958 
-0.0390178 -9.81265 -0.0744095 
0.0961958 -0.0744095 -10.1469 
-9.91607 -0.0624445 -0.047203 
-0.0624445 -9.7154 -0.0543576 
-0.047203 -0.0543576 -10.1394 
-9.88925 -0.0457294 0.121533 
-0.0457294 -9.84519 -0.0252536 
0.121533 -0.0252536 -10.0364 
-9.81889 -0.0501115 0.101881 
-0.0501115 -9.838 -0.0915639 
0.101881 -0.0915639 -10.1139 
-10.1272 -0.124428 0.024894 
-0.124428 -9.86529 -0.0732922 
0.024894 -0.0732922 -10.248 
-10.1184 -0.101705 0.023963 
-0.101705 -9.93914 -0.17674 
0.023963 -0.17674 -10.1829 
-9.9866 -0.137696 0.00821189 
-0.137696 -10.1166 -0.056468 
0.00821189 -0.056468 -10.1372 
-10.0248 0.0472962 0.0079521 
0.0472962 -9.91426 -0.0460328 
0.0079521 -0.0460328 -10.3014 
-10.253 -0.187226 0.0826108 
-0.187226 -9.80491 0.107433 
0.0826108 0.107433 -10.3759 
-9.87296 -0.0810894 -0.00312314 
-0.0810894 -9.95761 0.0264189 
-0.00312314 0.0264189 -10.6033 
-10.0564 -0.171072 0.208425 
-0.171072 -9.82079 0.110261 
0.208425 0.110261 -10.5567 
-9.93631 -0.209409 0.159164 
-0.209409 -9.96276 -0.0625727 
0.159164 -0.0625727 -10.5348 
-11.0126 -2.17077 -1.74147 
-2.17077 -11.8249 3.18676 
-1.74147 3.18676 -10.3477 
-11.6366 3.04042 -0.405565 
3.04042 -9.77247 -1.47415 
-0.405565 -1.47415 -11.7762 
-9.49098 -0.0786261 -2.57357 
-0.0786261 -10.4004 0.25572 
-2.57357 0.25572 -13.2939 
-6.0574 -5.46118 -5.35972 
-5.46118 -8.97552 -2.5686 
-5.35972 -2.5686 -18.1523 
-8.85803 0.315772 -0.913046 
0.315772 -9.1343 -0.216779 
-0.913046 -0.216779 -11.4248 
-9.23077 -0.417415 -0.816599 
-0.417415 -9.62954 -0.319603 
-0.816599 -0.319603 -10.5568 
-9.12933 -0.0672312 -1.3679 
-0.0672312 -9.23091 -0.0869762 
-1.3679 -0.0869762 -11.0569 
-9.58195 -0.0579908 -1.06806 
-0.0579908 -9.11714 -0.0352151 
-1.06806 -0.0352151 -10.718 
-10.9459 -0.591114 0.429678 
-0.591114 -13.9799 -0.199422 
0.429678 -0.199422 -14.6576 
-12.0756 -1.44405 1.47327 
-1.44405 -13.8198 0.099857 
1.47327 0.099857 -13.688 
-12.3747 -0.678825 0.563172 
-0.678825 -13.2028 -0.0501484 
0.563172 -0.0501484 -14.0059 
-11.0594 -1.40681 0.600196 
-1.40681 -13.2541 0.285183 
0.600196 0.285183 -15.2699 
-9.9053 -0.391379 0.276386 
-0.391379 -10.608 -0.254551 
0.276386 -0.254551 -12.7512 
-10.3525 0.299823 0.535556 
0.299823 -9.83398 0.0801082 
0.535556 0.0801082 -13.078 
-9.98792 -0.274087 -0.22744 
-0.274087 -10.6285 -0.223326 
-0.22744 -0.223326 -12.6481 
-10.4051 1.26978 -1.59286 
1.26978 -10.2514 0.386064 
-1.59286 0.386064 -12.608 
-5.55391 -0.376491 1.02145 
-0.376491 -5.36673 0.383715 
1.02145 0.383715 -0.464672 
-2.25349 1.20627 0.167699 
1.20627 -4.68919 -3.29625 
0.167699 -3.29625 -4.44263 
0.190371 0.509028 0.643846 
0.509028 -7.57735 0.874013 
0.643846 0.874013 -3.99834 
-10.0437 8.48871 5.62996 
8.48871 -13.1716 -3.54716 
5.62996 -3.54716 11.83 
-6.4541 0.64674 1.14735 
0.64674 -9.07966 -0.759979 
1.14735 -0.759979 -2.50195 
-6.63865 -0.0891823 1.2504 
-0.0891823 -8.13809 0.42652 
1.2504 0.42652 -3.25897 
-6.65779 0.758432 1.48101 
0.758432 -9.09822 -0.464837 
1.48101 -0.464837 -2.2797 
-7.21375 -0.981222 0.457018 
-0.981222 -5.78581 -1.73939 
0.457018 -1.73939 -5.03615 
-9.7347 -0.116794 -0.279977 
-0.116794 -9.75718 0.254001 
-0.279977 0.254001 -9.93001 
-9.74854 -0.0696804 -0.20649 
-0.0696804 -9.70974 0.206033 
-0.20649 0.206033 -9.96361 
-9.7317 -0.0851166 -0.197482 
-0.0851166 -9.68185 0.242133 
-0.197482 0.242133 -10.0083 
-9.96075 -0.0344562 -0.108176 
-0.0344562 -9.64625 0.177172 
-0.108176 0.177172 -9.81489 
-9.86329 -0.115981 -0.257999 
-0.115981 -9.77823 0.166804 
-0.257999 0.166804 -9.92885 
-9.88664 -0.108375 -0.31863 
-0.108375 -9.7822 0.244331 
-0.31863 0.244331 -9.90152 
-9.89584 -0.114726 -0.294853 
-0.114726 -9.78856 0.24681 
-0.294853 0.24681 -9.88597 
-9.88767 -0.121126 -0.300198 
-0.121126 -9.78812 0.239199 
-0.300198 0.239199 -9.89458 
-9.95285 -0.0143113 -0.21142 
-0.0143113 -9.99635 0.100643 
-0.21142 0.100643 -9.98898 
-9.956 0.006342 -0.230635 
0.006342 -9.97122 0.10445 
-0.230635 0.10445 -10.011 
-9.9662 -0.0044126 -0.215895 
-0.0044126 -9.9982 0.0802651 
-0.215895 0.0802651 -9.97379 
-9.98613 0.00535066 -0.216562 
0.00535066 -9.95352 0.0966409 
-0.216562 0.0966409 -9.99854 
-9.90214 0.00208725 -0.198231 
0.00208725 -9.96703 0.0694402 
-0.198231 0.0694402 -9.98483 
-9.92545 -0.0299218 -0.235495 
-0.0299218 -9.96393 0.103555 
-0.235495 0.103555 -9.96461 
-9.91196 0.0117255 -0.238534 
0.0117255 -9.9582 0.105693 
-0.238534 0.105693 -9.98384 
-9.91652 -0.0418893 -0.240231 
-0.0418893 -9.95182 0.11892 
-0.240231 0.11892 -9.98566 
-9.84467 0.0373773 -0.0379386 
0.0373773 -9.71472 -0.173338 
-0.0379386 -0.173338 -9.81073 
-9.79269 0.0865952 -0.0400015 
0.0865952 -9.71991 -0.152893 
-0.0400015 -0.152893 -9.85752 
-9.75088 -0.0441977 -0.00241484 
-0.0441977 -9.81022 -0.141497 
-0.00241484 -0.141497 -9.80902 
-9.76772 0.00031515 -0.0371244 
0.00031515 -9.75891 -0.155534 
-0.0371244 -0.155534 -9.84348 
-9.81854 0.0830588 -0.0685522 
0.0830588 -9.67255 -0.240571 
-0.0685522 -0.240571 -9.84896 
-9.73571 0.0167467 0.118774 
0.0167467 -9.7823 -0.185005 
0.118774 -0.185005 -9.82204 
-9.81532 0.112214 -0.133382 
0.112214 -9.64893 -0.109553 
-0.133382 -0.109553 -9.87579 
-9.79517 0.0293657 -0.132605 
0.0293657 -9.68356 -0.216238 
-0.132605 -0.216238 -9.86131 
-9.86763 0.140826 0.074378 
0.140826 -10.1178 -0.123643 
0.074378 -0.123643 -10.387 
-9.89148 0.0600096 0.0226698 
0.0600096 -9.95125 0.0485477 
0.0226698 0.0485477 -10.5298 
-9.90648 0.0420507 -0.0238527 
0.0420507 -10.0985 0.0388385 
-0.0238527 0.0388385 -10.3675 
-9.90162 -0.0223522 0.0228151 
-0.0223522 -10.1333 -0.000978269 
0.0228151 -0.000978269 -10.3376 
-10.0981 0.0809979 0.156557 
0.0809979 -10.1073 -0.0959844 
0.156557 -0.0959844 -10.5128 
-9.85346 0.102462 0.0590203 
0.102462 -10.18 -0.0173756 
0.0590203 -0.0173756 -10.6848 
-9.85822 0.074752 0.136249 
0.074752 -10.1386 0.0392706 
0.136249 0.0392706 -10.7214 
-9.71542 -0.0932414 0.119936 
-0.0932414 -10.2357 0.0185009 
0.119936 0.0185009 -10.7671 
-11.0865 -0.729505 -1.40783 
-0.729505 -10.1955 1.36795 
-1.40783 1.36795 -16.3533 
-11.0715 0.357589 0.256638 
0.357589 -10.8838 -0.604606 
0.256638 -0.604606 -15.6799 
-12.057 0.835346 0.230119 
0.835346 -9.85712 0.00672853 
0.230119 0.00672853 -15.7212 
-13.4252 0.245378 -1.18026 
0.245378 -13.6212 1.51414 
-1.18026 1.51414 -10.5889 
-10.3002 -0.314788 -0.0537917 
-0.314788 -10.8235 -0.260811 
-0.0537917 -0.260811 -12.1988 
-10.6837 0.19247 0.320019 
0.19247 -10.3499 0.0903132 
0.320019 0.0903132 -12.2889 
-10.5933 -0.373637 -0.26219 
-0.373637 -10.4325 0.291307 
-0.26219 0.291307 -12.2967 
-10.8176 0.0794621 0.188198 
0.0794621 -10.6675 -0.00910169 
0.188198 -0.00910169 -11.8375 
-9.95377 -0.0182776 0.13964 
-0.0182776 -9.89696 -0.138723 
0.13964 -0.138723 -9.98331 
-9.94165 -0.0162167 0.197555 
-0.0162167 -9.9288 -0.162503 
0.197555 -0.162503 -9.96359 
-9.94578 -0.014772 0.190395 
-0.014772 -9.90375 -0.151014 
0.190395 -0.151014 -9.9845 
-9.90592 -0.029587 0.209704 
-0.029587 -9.94839 -0.16676 
0.209704 -0.16676 -9.97973 
-9.96225 -0.0055747 0.186458 
-0.0055747 -9.97925 -0.159704 
0.186458 -0.159704 -9.99219 
-9.95655 0.0119734 0.200345 
0.0119734 -9.95736 -0.154772 
0.200345 -0.154772 -10.0198 
-9.97109 -0.00735839 0.176748 
-0.00735839 -9.97824 -0.156245 
0.176748 -0.156245 -9.98435 
-9.98138 -0.00662894 0.174159 
-0.00662894 -9.98223 -0.168235 
0.174159 -0.168235 -9.97008 
-9.89457 -0.0210173 0.19428 
-0.0210173 -9.90378 -0.202368 
0.19428 -0.202368 -9.96144 
-9.90939 -0.0296984 0.172499 
-0.0296984 -9.90336 -0.155815 
0.172499 -0.155815 -9.94704 
-9.9142 -0.0105647 0.133907 
-0.0105647 -9.88924 -0.160585 
0.133907 -0.160585 -9.95635 
-9.87771 -0.0293662 0.20103 
-0.0293662 -9.92133 -0.182701 
0.20103 -0.182701 -9.96075 
-9.94166 -0.0167721 0.185285 
-0.0167721 -9.9329 -0.205135 
0.185285 -0.205135 -9.95491 
-9.93836 -0.0181201 0.152427 
-0.0181201 -9.92946 -0.139515 
0.152427 -0.139515 -9.96165 
-9.89516 -0.00923431 0.18459 
-0.00923431 -9.94799 -0.207883 
0.18459 -0.207883 -9.98631 
-9.90361 -0.0102458 0.174463 
-0.0102458 -9.9496 -0.136152 
0.174463 -0.136152 -9.97626 
-9.95129 0.00710243 0.171975 
0.00710243 -9.9562 -0.168435 
0.171975 -0.168435 -9.96756 
-9.9485 0.00941686 0.172009 
0.00941686 -9.95343 -0.172179 
0.172009 -0.172179 -9.97312 
-9.95377 -0.00693457 0.177789 
-0.00693457 -9.94481 -0.168226 
0.177789 -0.168226 -9.97647 
-9.96087 -0.0108957 0.161295 
-0.0108957 -9.9501 -0.178442 
0.161295 -0.178442 -9.96408 
-9.97475 0.000973683 0.166797 
0.000973683 -9.97484 -0.179185 
0.166797 -0.179185 -9.98375 
-9.97259 -0.00091687 0.164042 
-0.00091687 -9.96807 -0.179542 
0.164042 -0.179542 -9.99269 
-9.97585 -0.00115994 0.167672 
-0.00115994 -9.98059 -0.176156 
0.167672 -0.176156 -9.97691 
-9.96952 0.000689682 0.172923 
0.000689682 -9.96626 -0.183353 
0.172923 -0.183353 -9.99756 
-9.80804 0.0401221 -0.112873 
0.0401221 -9.64664 -0.173419 
-0.112873 -0.173419 -9.83919 
-9.75821 0.148522 -0.158622 
0.148522 -9.63431 -0.183134 
-0.158622 -0.183134 -9.90136 
-9.71863 0.175779 -0.0638842 
0.175779 -9.59634 -0.146702 
-0.0638842 -0.146702 -9.9789 
-9.75694 0.220787 -0.2656 
0.220787 -9.56731 -0.250901 
-0.2656 -0.250901 -9.96962 
-9.74845 0.0695037 -0.103598 
0.0695037 -9.62613 -0.191999 
-0.103598 -0.191999 -9.90268 
-9.71369 0.100743 -0.0931595 
0.100743 -9.67075 -0.114331 
-0.0931595 -0.114331 -9.89281 
-9.81374 0.170385 -0.120424 
0.170385 -9.46559 -0.22613 
-0.120424 -0.22613 -9.99793 
-9.74819 0.0234014 -0.0945996 
0.0234014 -9.68574 -0.250025 
-0.0945996 -0.250025 -9.84333 
-10.1669 0.246123 -0.435125 
0.246123 -9.47716 0.895278 
-0.435125 0.895278 -10.28 
-9.90939 0.456295 -0.119947 
0.456295 -9.01128 0.257703 
-0.119947 0.257703 -11.0033 
-9.71068 0.512238 0.440687 
0.512238 -9.06363 0.72217 
0.440687 0.72217 -11.1497 
-9.75651 -0.775135 0.103286 
-0.775135 -10.2117 0.524088 
0.103286 0.524088 -9.95583 
-9.80354 -0.282064 -0.436755 
-0.282064 -11.1654 1.08233 
-0.436755 1.08233 -10.8746 
-11.1182 0.291863 -0.326698 
0.291863 -9.04124 0.362724 
-0.326698 0.362724 -11.6841 
-10.2086 0.0752811 0.213152 
0.0752811 -9.75912 -0.0811067 
0.213152 -0.0811067 -11.8759 
-11.0451 0.00422559 0.00516089 
0.00422559 -9.25927 -0.0536296 
0.00516089 -0.0536296 -11.5393 
-6.43598 -0.198895 -0.0437119 
-0.198895 -9.46901 1.94976 
-0.0437119 1.94976 -0.545929 
-5.34912 0.017084 0.567443 
0.017084 -9.44345 0.257234 
0.567443 0.257234 -1.65834 
-4.19703 1.05125 0.704567 
1.05125 -9.5662 1.68306 
0.704567 1.68306 -2.68768 
-5.44088 -1.34986 -1.29007 
-1.34986 -8.88366 -0.248346 
-1.29007 -0.248346 -2.12638 
-8.07346 1.34495 0.458918 
1.34495 -10.2402 1.4947 
0.458918 1.4947 -6.52374 
-9.69538 -0.144486 0.278735 
-0.144486 -10.5571 0.172723 
0.278735 0.172723 -4.58494 
-8.77652 -0.621928 -1.28132 
-0.621928 -11.7603 5.83147 
-1.28132 5.83147 -4.30065 
-4.71236 0.222136 -0.349327 
0.222136 -7.82692 1.33915 
-0.349327 1.33915 -12.2982 
-9.59126 -0.164222 0.329288 
-0.164222 -9.73304 -0.497891 
0.329288 -0.497891 -10.0375 
-9.48276 -0.0492927 0.24084 
-0.0492927 -9.92951 -0.53684 
0.24084 -0.53684 -9.94957 
-9.49012 -0.357425 0.169891 
-0.357425 -9.65461 -0.379628 
0.169891 -0.379628 -10.2171 
-9.66144 -0.135445 0.390942 
-0.135445 -9.45634 -0.548858 
0.390942 -0.548858 -10.2441 
-9.70621 -0.127371 0.296733 
-0.127371 -9.9043 -0.438245 
0.296733 -0.438245 -9.95464 
-9.64989 -0.106133 0.353049 
-0.106133 -9.76866 -0.502107 
0.353049 -0.502107 -10.1466 
-9.74197 -0.0895147 0.363593 
-0.0895147 -9.88885 -0.432376 
0.363593 -0.432376 -9.93434 
-9.81164 -0.0868464 0.26987 
-0.0868464 -9.74292 -0.238146 
0.26987 -0.238146 -10.0106 
-9.2407 -0.0184678 0.0966455 
-0.0184678 -9.28271 -0.404764 
0.0966455 -0.404764 -6.78957 
-9.68338 0.0341077 -0.452916 
0.0341077 -8.8605 -0.270863 
-0.452916 -0.270863 -6.7691 
-10.4378 0.60869 0.105681 
0.60869 -9.22685 -0.526555 
0.105681 -0.526555 -5.6483 
-10.3931 0.148512 -0.0671051 
0.148512 -9.0375 -0.911341 
-0.0671051 -0.911341 -5.88236 
-9.71406 -0.229029 -0.339262 
-0.229029 -9.2877 -0.65649 
-0.339262 -0.65649 -7.53358 
-9.64797 -0.277208 -0.214513 
-0.277208 -9.30987 -0.74347 
-0.214513 -0.74347 -7.5775 
-9.85261 -0.22028 -0.473245 
-0.22028 -9.19209 -0.460559 
-0.473245 -0.460559 -7.49063 
-9.71675 -0.320992 -0.352335 
-0.320992 -9.20433 -0.708611 
-0.352335 -0.708611 -7.61425 
-9.88854 -0.000976815 -0.0194224 
-0.000976815 -10.0796 0.0156762 
-0.0194224 0.0156762 -10.1621 
-9.9733 -0.029585 -0.00988881 
-0.029585 -10.0716 -0.0171492 
-0.00988881 -0.0171492 -10.0854 
-10.0537 -0.0757744 -0.16626 
-0.0757744 -9.97506 -0.00953385 
-0.16626 -0.00953385 -10.1015 
-10.0449 -0.0493164 0.00156157 
-0.0493164 -9.94229 -0.00916783 
0.00156157 -0.00916783 -10.1431 
-9.99305 -0.069522 -0.0132561 
-0.069522 -10.0391 0.00727404 
-0.0132561 0.00727404 -10.2895 
-9.97129 -0.0476391 -0.00297948 
-0.0476391 -10.0635 0.0131537 
-0.00297948 0.0131537 -10.2869 
-9.98056 -0.0536872 -0.017237 
-0.0536872 -10.0615 0.0298935 
-0.017237 0.0298935 -10.2796 
-9.99681 -0.061342 -0.0404167 
-0.061342 -10.0847 0.0435393 
-0.0404167 0.0435393 -10.2401 
-9.95318 0.0324135 -0.072587 
0.0324135 -9.94484 -0.202087 
-0.072587 -0.202087 -9.98801 
-9.94252 0.0183344 -0.0672092 
0.0183344 -9.92154 -0.222818 
-0.0672092 -0.222818 -10.022 
-9.98393 0.0299092 -0.124505 
0.0299092 -9.90904 -0.249786 
-0.124505 -0.249786 -9.99305 
-9.99005 0.0134558 -0.0849766 
0.0134558 -9.94249 -0.279746 
-0.0849766 -0.279746 -9.95349 
-9.93075 0.0230726 -0.107435 
0.0230726 -9.88523 -0.228991 
-0.107435 -0.228991 -9.95688 
-9.93301 0.028529 -0.112924 
0.028529 -9.89784 -0.219344 
-0.112924 -0.219344 -9.94202 
-9.92651 0.0137211 -0.110881 
0.0137211 -9.88293 -0.223619 
-0.110881 -0.223619 -9.96342 
-9.9452 0.0256087 -0.10297 
0.0256087 -9.88981 -0.205246 
-0.10297 -0.205246 -9.93785 
-8.20398 0.496224 -2.88063 
0.496224 -6.73371 -0.217984 
-2.88063 -0.217984 -2.26998 
-12.1907 -1.79359 -1.55719 
-1.79359 -4.78249 -2.56729 
-1.55719 -2.56729 -0.234458 
-8.89908 0.333198 -4.77989 
0.333198 -4.72109 1.47536 
-4.77989 1.47536 -3.58751 
-6.32787 1.34172 -2.39378 
1.34172 -7.84201 -0.399429 
-2.39378 -0.399429 -3.0378 
-11.1754 -0.0895245 -1.45524 
-0.0895245 -7.87341 0.562501 
-1.45524 0.562501 -8.22748 
-9.7777 -0.414196 -2.12991 
-0.414196 -8.31569 0.114777 
-2.12991 0.114777 -9.18288 
-9.62479 -0.571351 -3.433 
-0.571351 -8.46576 -0.235841 
-3.433 -0.235841 -9.18572 
-8.05696 2.98391 -1.71812 
2.98391 -7.60011 0.57283 
-1.71812 0.57283 -11.6192 
-10.1894 0.0799137 0.0348079 
0.0799137 -10.499 0.0921116 
0.0348079 0.0921116 -10.4717 
-10.1134 -0.00924118 0.0625755 
-0.00924118 -10.4707 0.0941924 
0.0625755 0.0941924 -10.5759 
-10.2097 0.0326345 -0.0826283 
0.0326345 -10.2577 0.106135 
-0.0826283 0.106135 -10.6926 
-10.3368 0.0357406 0.116558 
0.0357406 -10.5908 0.130956 
0.116558 0.130956 -10.2324 
-10.4589 -0.213345 -0.0311512 
-0.213345 -9.93313 0.0993556 
-0.0311512 0.0993556 -10.6978 
-10.1972 -0.167769 0.241758 
-0.167769 -10.2853 -0.171635 
0.241758 -0.171635 -10.6073 
-10.3421 0.51708 -0.0228887 
0.51708 -10.7124 -0.277606 
-0.0228887 -0.277606 -10.0353 
-10.1435 0.155723 0.107769 
0.155723 -10.1736 -0.301333 
0.107769 -0.301333 -10.7727 
-9.41411 -0.0695216 0.703508 
-0.0695216 -9.70585 0.734725 
0.703508 0.734725 -9.53826 
-9.83952 -0.321669 0.274093 
-0.321669 -9.73251 1.59532 
0.274093 1.59532 -9.08618 
-9.11843 0.166217 0.456702 
0.166217 -10.1728 0.297557 
0.456702 0.297557 -9.36695 
-9.03048 0.00962199 1.14267 
0.00962199 -9.33005 0.556787 
1.14267 0.556787 -10.2977 
-9.71952 -0.679131 1.56298 
-0.679131 -9.67065 1.03351 
1.56298 1.03351 -6.74406 
-8.92801 -0.27245 1.06597 
-0.27245 -9.03876 1.25766 
1.06597 1.25766 -8.16746 
-8.41907 -0.010451 1.21212 
-0.010451 -9.77488 -0.0382371 
1.21212 -0.0382371 -7.94028 
-9.53709 0.668611 0.364656 
0.668611 -9.01589 -0.536921 
0.364656 -0.536921 -7.58125 
-9.81243 -0.0653842 -0.119128 
-0.0653842 -9.72767 0.185797 
-0.119128 0.185797 -9.97588 
-9.75017 -0.0745881 -0.128261 
-0.0745881 -9.85118 0.092687 
-0.128261 0.092687 -9.91463 
-9.83406 -0.0401146 -0.0770533 
-0.0401146 -9.83471 0.134791 
-0.0770533 0.134791 -9.8472 
-9.78053 0.0864976 -0.0822739 
0.0864976 -9.93354 0.11363 
-0.0822739 0.11363 -9.80191 
-9.7766 -0.0530281 -0.11921 
-0.0530281 -9.784 0.148424 
-0.11921 0.148424 -9.9763 
-9.79617 -0.0454618 -0.135982 
-0.0454618 -9.81331 0.151776 
-0.135982 0.151776 -9.92742 
-9.84648 -0.0192425 -0.133548 
-0.0192425 -9.80233 0.146356 
-0.133548 0.146356 -9.88809 
-9.81643 -0.0771224 -0.165592 
-0.0771224 -9.81174 0.174328 
-0.165592 0.174328 -9.90873 
-9.92765 0.048319 -0.00448965 
0.048319 -9.85068 0.00405631 
-0.00448965 0.00405631 -9.9818 
-9.88591 0.0885975 -0.0160869 
0.0885975 -9.89133 -0.0237697 
-0.0160869 -0.0237697 -9.98289 
-9.89765 0.090243 -0.0370388 
0.090243 -9.86654 -0.0518448 
-0.0370388 -0.0518448 -9.99595 
-9.85873 -0.0860288 -0.0268337 
-0.0860288 -10.0016 -0.0488457 
-0.0268337 -0.0488457 -9.89983 
-9.84746 0.11423 -0.0463244 
0.11423 -9.86915 -0.134066 
-0.0463244 -0.134066 -9.95777 
-9.85492 0.0718298 0.0344193 
0.0718298 -9.89247 -0.0983832 
0.0344193 -0.0983832 -9.92699 
-9.79595 0.118783 -0.116253 
0.118783 -9.76559 0.00422485 
-0.116253 0.00422485 -10.1128 
-9.84348 0.063651 -0.0672987 
0.063651 -9.84613 -0.122686 
-0.0672987 -0.122686 -9.98477 
-9.91483 0.00203927 0.201268 
0.00203927 -9.98692 0.117887 
0.201268 0.117887 -9.93378 
-9.93798 0.0109895 0.208095 
0.0109895 -9.97266 0.104972 
0.208095 0.104972 -9.92489 
-9.94902 0.010571 0.235921 
0.010571 -9.95091 0.119072 
0.235921 0.119072 -9.93559 
-9.95146 -0.00180135 0.217308 
-0.00180135 -9.91101 0.109728 
0.217308 0.109728 -9.97305 
-9.902 0.0336671 0.236772 
0.0336671 -9.90028 0.167626 
0.236772 0.167626 -9.86136 
-9.87487 0.0240808 0.232342 
0.0240808 -9.88867 0.138637 
0.232342 0.138637 -9.90009 
-9.87802 -0.0191449 0.189229 
-0.0191449 -9.89679 0.150342 
0.189229 0.150342 -9.88882 
-9.89626 0.0408347 0.223444 
0.0408347 -9.9175 0.148793 
0.223444 0.148793 -9.84987 
-13.0803 0.408256 0.989564 
0.408256 -14.4515 -0.10181 
0.989564 -0.10181 -14.0257 
-12.5861 -0.594377 0.837512 
-0.594377 -15.3113 0.12794 
0.837512 0.12794 -13.66 
-12.7767 -0.270934 1.59594 
-0.270934 -13.4442 0.0582555 
1.59594 0.0582555 -15.3366 
-13.1576 0.872618 0.760431 
0.872618 -14.4705 0.224574 
0.760431 0.224574 -13.9293 
-6.4904 -1.68846 0.309557 
-1.68846 -11.7535 -0.169927 
0.309557 -0.169927 -11.6576 
-6.71567 -0.0912188 -4.38663 
-0.0912188 -11.3469 0.160506 
-4.38663 0.160506 -11.8389 
-7.53556 -1.1471 -5.34955 
-1.1471 -8.5274 0.060339 
-5.34955 0.060339 -13.8386 
-13.1545 1.02395 -2.72839 
1.02395 -8.36107 1.39728 
-2.72839 1.39728 -8.38599 
-9.97394 -0.00440298 0.16098 
-0.00440298 -9.9944 0.163474 
0.16098 0.163474 -9.95808 
-9.98495 0.0108142 0.153608 
0.0108142 -10.0071 0.144778 
0.153608 0.144778 -9.93433 
-9.98406 0.00710341 0.148261 
0.00710341 -10.005 0.181483 
0.148261 0.181483 -9.93734 
-9.91319 -0.00287408 0.148828 
-0.00287408 -9.90909 0.126872 
0.148828 0.126872 -10.1041 
-9.96419 0.0345871 0.156614 
0.0345871 -9.92431 0.183937 
0.156614 0.183937 -9.91289 
-9.94496 0.0228892 0.176983 
0.0228892 -9.94133 0.188858 
0.176983 0.188858 -9.91509 
-9.89012 -0.0199907 0.162655 
-0.0199907 -9.94676 0.187676 
0.162655 0.187676 -9.96451 
-9.94866 0.00114778 0.174944 
0.00114778 -9.96183 0.171508 
0.174944 0.171508 -9.8909 
-9.97662 0.00154299 -0.204569 
0.00154299 -9.97784 -0.125172 
-0.204569 -0.125172 -9.97737 
-9.97191 -5.04943e-05 -0.20965 
-5.04943e-05 -9.97543 -0.126077 
-0.20965 -0.126077 -9.9845 
-9.97463 0.00189092 -0.204795 
0.00189092 -9.97006 -0.124234 
-0.204795 -0.124234 -9.98715 
-9.96143 -0.0103342 -0.215781 
-0.0103342 -9.96707 -0.130724 
-0.215781 -0.130724 -10.0033 
-9.95781 -0.00459921 -0.199585 
-0.00459921 -9.94787 -0.143954 
-0.199585 -0.143954 -9.96785 
-9.94567 0.00335062 -0.198695 
0.00335062 -9.95648 -0.138861 
-0.198695 -0.138861 -9.97139 
-9.9524 -0.00175685 -0.199775 
-0.00175685 -9.95455 -0.144381 
-0.199775 -0.144381 -9.96659 
-9.94179 0.0132777 -0.200998 
0.0132777 -9.96909 -0.127012 
-0.200998 -0.127012 -9.96266 
-9.67621 -0.0266479 0.0929725 
-0.0266479 -9.98822 -0.0391829 
0.0929725 -0.0391829 -10.1135 
-9.49769 -0.288691 0.240077 
-0.288691 -9.94761 -0.0142931 
0.240077 -0.0142931 -10.3326 
-9.83798 -0.282078 0.195195 
-0.282078 -9.6901 -0.23415 
0.195195 -0.23415 -10.2498 
-9.95674 -0.357046 -0.0167645 
-0.357046 -9.74462 -0.143994 
-0.0167645 -0.143994 -10.0765 
-9.76732 -0.0835768 0.103601 
-0.0835768 -9.83872 -0.0786563 
0.103601 -0.0786563 -10.1993 
-9.90004 -0.181321 0.34569 
-0.181321 -9.8483 -0.227458 
0.34569 -0.227458 -10.057 
-9.59789 -0.279223 0.276283 
-0.279223 -9.83133 0.123229 
0.276283 0.123229 -10.3761 
-9.75519 -0.0122366 0.256948 
-0.0122366 -9.86532 -0.207545 
0.256948 -0.207545 -10.1848 
-9.9499 -0.00800109 -0.175807 
-0.00800109 -9.95721 -0.171242 
-0.175807 -0.171242 -9.97001 
-9.95626 -0.003455 -0.178689 
-0.003455 -9.95327 -0.170047 
-0.178689 -0.170047 -9.96759 
-9.95586 0.00420081 -0.175923 
0.00420081 -9.94962 -0.169158 
-0.175923 -0.169158 -9.97163 
-9.96412 0.0211475 -0.158631 
0.0211475 -9.94935 -0.17393 
-0.158631 -0.17393 -9.96364 
-9.97507 0.00143599 -0.16736 
0.00143599 -9.98112 -0.173383 
-0.16736 -0.173383 -9.97735 
-9.97365 0.000347658 -0.165175 
0.000347658 -9.96937 -0.176548 
-0.165175 -0.176548 -9.99052 
-9.97314 0.000373642 -0.166834 
0.000373642 -9.97553 -0.177191 
-0.166834 -0.177191 -9.98488 
-9.96714 -0.00800938 -0.171615 
-0.00800938 -9.96445 -0.184655 
-0.171615 -0.184655 -10.002 
-10.0005 -0.00824847 0.00160877 
-0.00824847 -9.98172 0.0120279 
0.00160877 0.0120279 -10.0346 
-10.0085 -0.0120542 -0.000382825 
-0.0120542 -9.97365 0.0142286 
-0.000382825 0.0142286 -10.0347 
-10.0102 0.00519676 -0.0140576 
0.00519676 -10.0001 0.0112677 
-0.0140576 0.0112677 -10.0066 
-10.0077 -0.026045 0.0213816 
-0.026045 -10.0063 -0.0209286 
0.0213816 -0.0209286 -10.0029 
-10.0376 -0.0213122 0.00414457 
-0.0213122 -10.0075 0.00636078 
0.00414457 0.00636078 -10.1315 
-10.0656 -0.0253309 -0.0328918 
-0.0253309 -9.99449 0.0259129 
-0.0328918 0.0259129 -10.1165 
-10.0335 0.00258071 0.0188411 
0.00258071 -10.0348 0.00480133 
0.0188411 0.00480133 -10.1083 
-9.97559 -0.0309059 0.010692 
-0.0309059 -10.0554 0.00691649 
0.010692 0.00691649 -10.1456 
-9.9705 -0.0109101 -0.10542 
-0.0109101 -9.92461 0.207614 
-0.10542 0.207614 -9.97675 
-9.93516 -0.0016736 -0.0854386 
-0.0016736 -9.93491 0.202254 
-0.0854386 0.202254 -10.0018 
-9.96902 -0.00271905 -0.102427 
-0.00271905 -9.94835 0.245963 
-0.102427 0.245963 -9.95448 
-9.94817 0.000253442 -0.109221 
0.000253442 -9.95142 0.238872 
-0.109221 0.238872 -9.97226 
-9.94853 -0.00930317 -0.0965944 
-0.00930317 -9.91412 0.233372 
-0.0965944 0.233372 -9.91625 
-9.91091 -0.00187714 -0.0855497 
-0.00187714 -9.91388 0.213874 
-0.0855497 0.213874 -9.95411 
-9.9308 -0.0216013 -0.0899753 
-0.0216013 -9.91385 0.229868 
-0.0899753 0.229868 -9.93425 
-9.92235 0.000334874 -0.0920238 
0.000334874 -9.92106 0.218429 
-0.0920238 0.218429 -9.93549 
-9.32523 -0.170209 -0.27559 
-0.170209 -9.82543 0.013387 
-0.27559 0.013387 -10.7177 
-9.45645 -0.167976 0.0364569 
-0.167976 -9.92487 0.0299615 
0.0364569 0.0299615 -10.4871 
-9.88453 0.0402734 -0.235518 
0.0402734 -9.91415 -0.0379905 
-0.235518 -0.0379905 -10.0697 
-9.49566 -0.168397 -0.188525 
-0.168397 -9.91324 0.0161176 
-0.188525 0.0161176 -10.4595 
-9.50965 -0.116995 -0.162837 
-0.116995 -9.73685 -0.0206508 
-0.162837 -0.0206508 -10.5155 
-9.7803 -0.12674 -0.110538 
-0.12674 -9.98057 0.0695208 
-0.110538 0.0695208 -10.0011 
-9.63701 -0.103237 0.0213701 
-0.103237 -9.80704 -0.0272036 
0.0213701 -0.0272036 -10.3179 
-9.65383 -0.192381 -0.0237912 
-0.192381 -9.87533 -0.0585518 
-0.0237912 -0.0585518 -10.2328 
-9.9476 -0.0108708 0.241269 
-0.0108708 -9.95439 -0.113838 
0.241269 -0.113838 -9.95603 
-9.95445 0.00468815 0.250377 
0.00468815 -9.92953 -0.108113 
0.250377 -0.108113 -9.97404 
-9.93502 -0.0215793 0.210797 
-0.0215793 -9.9506 -0.0825252 
0.210797 -0.0825252 -9.97239 
-9.93738 0.000667476 0.198811 
0.000667476 -9.93221 -0.0976988 
0.198811 -0.0976988 -9.98843 
-9.90403 -0.0137916 0.224502 
-0.0137916 -9.91905 -0.112546 
0.224502 -0.112546 -9.96103 
-9.914 -0.019431 0.199643 
-0.019431 -9.93914 -0.0927094 
0.199643 -0.0927094 -9.93096 
-9.92356 0.00624997 0.248701 
0.00624997 -9.90102 -0.101441 
0.248701 -0.101441 -9.95952 
-9.88749 -0.0306897 0.228081 
-0.0306897 -9.95919 -0.0993247 
0.228081 -0.0993247 -9.93742 
-7.9873 -0.546157 -0.54211 
-0.546157 -7.27834 -1.78603 
-0.54211 -1.78603 -4.02689 
-7.55615 2.74597 -3.65787 
2.74597 -9.79448 -2.19379 
-3.65787 -2.19379 -1.94191 
-7.85943 -1.91606 -1.48649 
-1.91606 -6.79166 -2.31895 
-1.48649 -2.31895 -4.64144 
-7.76355 2.43966 2.46769 
2.43966 -6.34275 -1.71914 
2.46769 -1.71914 -5.18623 
-3.43293 -1.02939 -0.822454 
-1.02939 -4.85993 -2.55542 
-0.822454 -2.55542 -1.52007 
-4.25421 -0.760183 0.0223556 
-0.760183 -3.93434 -1.9361 
0.0223556 -1.9361 -1.62437 
-4.84713 -0.611447 -0.10615 
-0.611447 -4.91431 -0.414975 
-0.10615 -0.414975 -0.0514862 
-4.08846 -0.366522 -0.249266 
-0.366522 -3.01698 -2.16629 
-0.249266 -2.16629 -2.70748 
-10.0128 -0.0126737 -0.177363 
-0.0126737 -9.99682 0.142256 
-0.177363 0.142256 -9.935 
-9.97704 -0.00268949 -0.175506 
-0.00268949 -9.99963 0.148316 
-0.175506 0.148316 -9.96791 
-10.0013 -0.0112816 -0.156688 
-0.0112816 -10.0039 0.163941 
-0.156688 0.163941 -9.93936 
-9.93549 0.0103147 -0.191727 
0.0103147 -9.94331 0.134878 
-0.191727 0.134878 -10.0658 
-9.97383 -0.0202989 -0.178947 
-0.0202989 -9.91637 0.168336 
-0.178947 0.168336 -9.90128 
-9.98429 0.00623537 -0.14905 
0.00623537 -9.90519 0.172463 
-0.14905 0.172463 -9.902 
-9.84287 -0.028706 -0.165318 
-0.028706 -9.97286 0.177772 
-0.165318 0.177772 -9.97574 
-9.94029 -0.0194698 -0.181011 
-0.0194698 -9.98583 0.180446 
-0.181011 0.180446 -9.86535 
-9.70795 -0.0200512 -0.242983 
-0.0200512 -9.8365 -0.00963436 
-0.242983 -0.00963436 -9.85367 
-9.73416 -0.0108606 -0.128774 
-0.0108606 -9.87476 0.0638115 
-0.128774 0.0638115 -9.78921 
-9.74584 -0.0128975 -0.257819 
-0.0128975 -9.79014 0.0700494 
-0.257819 0.0700494 -9.86215 
-9.81543 0.030453 -0.160889 
0.030453 -9.76953 -0.0625705 
-0.160889 -0.0625705 -9.81317 
-9.70324 0.0092923 -0.239068 
0.0092923 -9.82005 0.00477789 
-0.239068 0.00477789 -9.85578 
-9.74444 -0.0166078 -0.240878 
-0.0166078 -9.75887 0.0630917 
-0.240878 0.0630917 -9.87577 
-9.73324 -0.0402953 -0.189257 
-0.0402953 -9.81554 0.0371108 
-0.189257 0.0371108 -9.8303 
-9.59641 -0.0885853 -0.208899 
-0.0885853 -9.97242 0.0696003 
-0.208899 0.0696003 -9.81025 
-9.95048 0.0106451 -0.156936 
0.0106451 -9.64836 0.186584 
-0.156936 0.186584 -9.84481 
-9.99826 -0.0694629 -0.0458256 
-0.0694629 -9.57001 0.0263167 
-0.0458256 0.0263167 -9.87536 
-9.84156 -0.0296344 0.183828 
-0.0296344 -9.38858 0.25185 
0.183828 0.25185 -10.2135 
-9.66015 0.0887757 0.17944 
0.0887757 -9.78854 0.0390072 
0.17944 0.0390072 -9.99495 
-9.83762 0.0012857 -0.0128573 
0.0012857 -9.68288 0.239185 
-0.0128573 0.239185 -9.97318 
-9.89047 -0.17125 -0.0121317 
-0.17125 -9.51038 0.150168 
-0.0121317 0.150168 -10.0928 
-9.90231 -0.0640676 0.0409389 
-0.0640676 -9.66899 0.117905 
0.0409389 0.117905 -9.92238 
-9.93118 -0.0999446 -0.0542193 
-0.0999446 -9.47257 0.109638 
-0.0542193 0.109638 -10.0899 
-13.9881 -2.34544 1.57846 
-2.34544 -6.76577 0.0610215 
1.57846 0.0610215 -7.58126 
-8.98378 -0.436782 6.67815 
-0.436782 -10.452 -0.115349 
6.67815 -0.115349 -8.89936 
-10.8958 0.193206 7.16607 
0.193206 -6.78677 -0.229855 
7.16607 -0.229855 -10.6525 
-3.42899 2.60655 1.9743 
2.60655 -11.5939 0.731461 
1.9743 0.731461 -13.3122 
-8.19508 -0.44155 4.20045 
-0.44155 -3.10861 -1.19197 
4.20045 -1.19197 0.895464 
-8.34121 -0.739053 -0.107639 
-0.739053 -5.09407 -0.114956 
-0.107639 -0.114956 3.02705 
-8.04008 -0.0981361 0.581792 
-0.0981361 -3.21112 -1.41474 
0.581792 -1.41474 0.842972 
-4.89999 0.574871 1.53926 
0.574871 -0.142433 0.380246 
1.53926 0.380246 -5.3658 
-9.79759 -0.0418461 0.0911088 
-0.0418461 -9.78274 -0.159994 
0.0911088 -0.159994 -9.8452 
-9.82509 -0.0109677 0.077758 
-0.0109677 -9.74103 -0.172706 
0.077758 -0.172706 -9.8594 
-9.77207 -0.0507549 0.111705 
-0.0507549 -9.75494 -0.184322 
0.111705 -0.184322 -9.89852 
-9.77365 0.0868066 0.0688407 
0.0868066 -9.87939 -0.173053 
0.0688407 -0.173053 -9.77249 
-9.75151 -0.049086 0.113227 
-0.049086 -9.76806 -0.175102 
0.113227 -0.175102 -9.93361 
-9.79438 -0.0538094 0.109533 
-0.0538094 -9.78305 -0.146234 
0.109533 -0.146234 -9.87574 
-9.78959 -0.0498653 0.111305 
-0.0498653 -9.82401 -0.14145 
0.111305 -0.14145 -9.83958 
-9.82314 -0.0781095 0.103971 
-0.0781095 -9.7573 -0.128017 
0.103971 -0.128017 -9.87274 
-6.05099 -5.08324 -2.52514 
-5.08324 -14.754 -1.35399 
-2.52514 -1.35399 -12.003 
-9.3397 1.55557 -3.3326 
1.55557 -12.9169 3.73402 
-3.3326 3.73402 -10.5514 
-12.7828 2.63361 2.8942 
2.63361 1.43411 2.86896 
2.8942 2.86896 -21.4594 
-17.0609 3.41594 2.81059 
3.41594 -8.70972 5.81966 
2.81059 5.81966 -7.03745 
-15.2899 -3.10431 1.36565 
-3.10431 -11.6177 -1.28393 
1.36565 -1.28393 -12.4622 
-14.2699 -0.411407 0.0161832 
-0.411407 -9.19608 -0.763718 
0.0161832 -0.763718 -15.9038 
-15.0056 -0.795246 -0.971245 
-0.795246 -10.5628 0.19359 
-0.971245 0.19359 -13.8014 
-9.12418 -1.42051 -2.78631 
-1.42051 -4.55984 -1.1212 
-2.78631 -1.1212 -25.6858 
-7.07627 -0.494413 0.386436 
-0.494413 -8.18279 3.64496 
0.386436 3.64496 -3.81485 
-6.90734 0.230122 0.999917 
0.230122 -8.44217 3.47612 
0.999917 3.47612 -3.7244 
-7.22466 0.160352 0.542361 
0.160352 -7.24493 4.52297 
0.542361 4.52297 -4.60431 
-5.29379 1.44508 0.214709 
1.44508 -7.82445 4.04088 
0.214709 4.04088 -5.95567 
-1.05823 -5.02551 -3.37543 
-5.02551 -3.71058 1.02773 
-3.37543 1.02773 -11.0261 
-6.44707 4.26908 1.04267 
4.26908 -3.91996 7.55011 
1.04267 7.55011 -5.42785 
-4.26954 2.65442 2.18092 
2.65442 -11.8573 3.01725 
2.18092 3.01725 0.332014 
-9.86444 -0.67933 3.47161 
-0.67933 -13.6551 3.24512 
3.47161 3.24512 7.72464 
-9.90306 -0.0122741 -0.0611883 
-0.0122741 -9.85658 0.210292 
-0.0611883 0.210292 -9.90246 
-9.84256 -0.0341014 -0.118317 
-0.0341014 -9.83451 0.218376 
-0.118317 0.218376 -9.98503 
-9.91269 0.000369162 -0.115112 
0.000369162 -9.90209 0.211424 
-0.115112 0.211424 -9.84732 
-9.87654 0.0225223 -0.0904152 
0.0225223 -9.91061 0.222408 
-0.0904152 0.222408 -9.87495 
-9.883 -0.0159177 -0.101018 
-0.0159177 -9.88226 0.199388 
-0.101018 0.199388 -9.92608 
-9.8927 -0.0178993 -0.110999 
-0.0178993 -9.87891 0.203446 
-0.110999 0.203446 -9.91974 
-9.88249 -0.0184103 -0.109207 
-0.0184103 -9.8783 0.20418 
-0.109207 0.20418 -9.93055 
-9.89023 -0.0225889 -0.109282 
-0.0225889 -9.87864 0.205926 
-0.109282 0.205926 -9.92248 
-9.99298 0.00602374 0.00780988 
0.00602374 -9.98728 -0.00351788 
0.00780988 -0.00351788 -9.99533 
-9.99345 0.00304653 -0.0126798 
0.00304653 -9.96587 -0.00229379 
-0.0126798 -0.00229379 -10.0163 
-9.9818 0.0114157 -0.00666671 
0.0114157 -9.97964 -0.0206588 
-0.00666671 -0.0206588 -10.0142 
-10.0058 0.00435724 -0.00189413 
0.00435724 -10.0048 -0.0189684 
-0.00189413 -0.0189684 -9.96497 
-9.99083 -0.0159324 0.00613239 
-0.0159324 -9.94631 -0.00828407 
0.00613239 -0.00828407 -9.97468 
-9.99564 -0.0286668 -0.00683368 
-0.0286668 -9.91802 -0.0340359 
-0.00683368 -0.0340359 -9.99816 
-9.97895 -0.0047216 -0.0143237 
-0.0047216 -9.95904 -0.0289764 
-0.0143237 -0.0289764 -9.97382 
-9.96046 -0.0217151 0.0152664 
-0.0217151 -9.96202 0.00705638 
0.0152664 0.00705638 -9.98933 
-9.65984 -0.308764 -0.346276 
-0.308764 -10.3066 -0.0857346 
-0.346276 -0.0857346 -10.7283 
-10.1183 -0.157953 0.00360007 
-0.157953 -10.1326 -0.0918487 
0.00360007 -0.0918487 -10.4438 
-9.81267 -0.459444 -0.269668 
-0.459444 -10.1859 0.0747453 
-0.269668 0.0747453 -10.6962 
-10.1752 -1.05686 -0.507552 
-1.05686 -10.0969 0.567725 
-0.507552 0.567725 -10.4226 
-9.80906 -0.239417 -0.0121281 
-0.239417 -9.98886 0.00260842 
-0.0121281 0.00260842 -10.305 
-9.84475 -0.192068 0.0689174 
-0.192068 -9.92127 -0.00553542 
0.0689174 -0.00553542 -10.3369 
-9.75724 -0.19407 -0.0116601 
-0.19407 -9.94917 0.0292933 
-0.0116601 0.0292933 -10.3965 
-9.84284 -0.168854 -0.0694348 
-0.168854 -10.0851 0.0278177 
-0.0694348 0.0278177 -10.175 
-9.95601 -0.30129 -0.0224129 
-0.30129 -10.1285 -0.00110358 
-0.0224129 -0.00110358 -10.8475 
-10.0477 -0.371929 -0.0808778 
-0.371929 -10.2048 0.0952156 
-0.0808778 0.0952156 -10.6796 
-10.0605 -0.329883 -0.116894 
-0.329883 -10.212 0.0601275 
-0.116894 0.0601275 -10.6596 
-10.0048 -0.290436 -0.0492734 
-0.290436 -10.2166 0.0537166 
-0.0492734 0.0537166 -10.7107 
-9.84786 -0.0830536 0.0490498 
-0.0830536 -9.95892 0.0260995 
0.0490498 0.0260995 -10.0957 
-9.6776 -0.182734 0.0519443 
-0.182734 -10.0583 0.0713446 
0.0519443 0.0713446 -10.1666 
-9.84272 -0.0632908 0.0524501 
-0.0632908 -9.9671 0.00431617 
0.0524501 0.00431617 -10.0927 
-10.0375 -0.0200463 -0.165232 
-0.0200463 -9.78 0.13376 
-0.165232 0.13376 -10.085 
-9.76684 -0.0660845 -0.0336619 
-0.0660845 -9.6603 0.222254 
-0.0336619 0.222254 -9.82082 
-9.73825 -0.0519256 0.0289158 
-0.0519256 -9.70846 0.222015 
0.0289158 0.222015 -9.80125 
-9.82169 -0.0290927 -0.0762115 
-0.0290927 -9.64716 0.246249 
-0.0762115 0.246249 -9.7791 
-9.77732 -0.0619118 -0.0172824 
-0.0619118 -9.65387 0.222381 
-0.0172824 0.222381 -9.81677 
-9.76761 -0.00933567 -0.0310673 
-0.00933567 -9.66329 0.1453 
-0.0310673 0.1453 -9.84253 
-9.83981 -0.00611758 -0.0404652 
-0.00611758 -9.6294 0.222683 
-0.0404652 0.222683 -9.80421 
-9.76755 -0.0219487 0.00280224 
-0.0219487 -9.71267 0.161106 
0.00280224 0.161106 -9.7932 
-9.69746 -0.0114523 -0.00240843 
-0.0114523 -9.88691 0.100301 
-0.00240843 0.100301 -9.68905 
-9.84045 0.00321561 0.0780907 
0.00321561 -9.84723 0.232105 
0.0780907 0.232105 -9.88209 
-9.83758 0.013197 0.0693234 
0.013197 -9.86093 0.229976 
0.0693234 0.229976 -9.87124 
-9.87719 0.0200446 0.0735618 
0.0200446 -9.81687 0.211568 
0.0735618 0.211568 -9.8757 
-9.84164 0.00978233 0.0744265 
0.00978233 -9.85232 0.226465 
0.0744265 0.226465 -9.8758 
-9.83315 0.0211502 0.0835235 
0.0211502 -9.81195 0.229998 
0.0835235 0.229998 -9.87 
-9.86822 0.0320388 0.0886424 
0.0320388 -9.80064 0.177746 
0.0886424 0.177746 -9.84623 
-9.8315 0.0200587 0.0644776 
0.0200587 -9.81505 0.204693 
0.0644776 0.204693 -9.86854 
-9.83845 0.0307751 0.0560779 
0.0307751 -9.79892 0.22647 
0.0560779 0.22647 -9.87773 
-9.9852 -0.00716792 0.00333671 
-0.00716792 -10.0036 -0.00143461 
0.00333671 -0.00143461 -9.98807 
-9.97971 0.000623458 0.0146628 
0.000623458 -10.0013 0.00274563 
0.0146628 0.00274563 -9.99587 
-9.96972 -0.0149772 0.0221087 
-0.0149772 -9.98673 0.00286936 
0.0221087 0.00286936 -10.0204 
-10.0119 -0.00357063 0.000367043 
-0.00357063 -10.0086 0.0175129 
0.000367043 0.0175129 -9.95639 
-9.98494 -0.0101729 0.000769366 
-0.0101729 -9.9815 -0.0102158 
0.000769366 -0.0102158 -9.958 
-9.98025 -0.0165995 0.014258 
-0.0165995 -9.97002 -0.00107811 
0.014258 -0.00107811 -9.97416 
-9.97669 -0.00534226 0.00776812 
-0.00534226 -9.98037 -0.00586652 
0.00776812 -0.00586652 -9.96736 
-9.94897 0.0146606 -0.00640842 
0.0146606 -9.99859 -0.0171928 
-0.00640842 -0.0171928 -9.97686 
-10.0169 -0.0186946 -0.00194419 
-0.0186946 -10.0022 -0.00816431 
-0.00194419 -0.00816431 -10.0194 
-10.021 -0.0177684 -0.0135896 
-0.0177684 -9.98957 -0.00402057 
-0.0135896 -0.00402057 -10.0279 
-10.0077 -0.0103868 -0.0120218 
-0.0103868 -10.0034 0.0005139 
-0.0120218 0.0005139 -10.0274 
-9.98575 -0.000444991 -0.019618 
-0.000444991 -10.0176 0.0388449 
-0.019618 0.0388449 -10.0351 
-10.0031 -0.0156627 0.0364255 
-0.0156627 -9.91326 0.0254247 
0.0364255 0.0254247 -10.0544 
-9.98443 -0.0538871 -0.0630167 
-0.0538871 -9.96043 0.0639592 
-0.0630167 0.0639592 -10.0259 
-9.95519 0.0354571 0.0429249 
0.0354571 -10.0316 -0.0437775 
0.0429249 -0.0437775 -9.98392 
-10.0454 -0.0476731 -0.0161624 
-0.0476731 -9.96512 -0.0369431 
-0.0161624 -0.0369431 -9.96019 
-9.9818 -0.0118134 0.202457 
-0.0118134 -9.9777 -0.149172 
0.202457 -0.149172 -9.98535 
-9.97036 -0.00657677 0.190959 
-0.00657677 -9.97576 -0.134819 
0.190959 -0.134819 -9.99873 
-9.97841 -0.0116804 0.202699 
-0.0116804 -9.97977 -0.142471 
0.202699 -0.142471 -9.98666 
-9.97491 -4.01045e-05 0.198433 
-4.01045e-05 -9.98075 -0.147384 
0.198433 -0.147384 -9.98919 
-9.97231 -0.00617644 0.193522 
-0.00617644 -9.94814 -0.149328 
0.193522 -0.149328 -9.97844 
-9.96706 -0.00614321 0.198453 
-0.00614321 -9.95252 -0.149758 
0.198453 -0.149758 -9.97932 
-9.95803 -0.00828573 0.191124 
-0.00828573 -9.95699 -0.152492 
0.191124 -0.152492 -9.98387 
-9.95839 -0.000397966 0.198896 
-0.000397966 -9.96957 -0.132683 
0.198896 -0.132683 -9.97093 
-10.1186 0.131332 -0.0107105 
0.131332 -9.88398 0.0722351 
-0.0107105 0.0722351 -10.3187 
-10.0651 -0.0418334 -0.0675375 
-0.0418334 -10.0555 -0.125907 
-0.0675375 -0.125907 -10.2006 
-9.96958 0.613501 -0.0393182 
0.613501 -9.74637 -0.163886 
-0.0393182 -0.163886 -10.6053 
-9.89166 -0.0484839 0.0499101 
-0.0484839 -9.97456 0.12988 
0.0499101 0.12988 -10.455 
-9.87721 0.0359694 -0.210399 
0.0359694 -10.2032 -0.0133022 
-0.210399 -0.0133022 -10.4791 
-10.1459 -0.0170344 -0.080728 
-0.0170344 -10.083 -0.103908 
-0.080728 -0.103908 -10.3308 
-10.0377 0.116509 0.14312 
0.116509 -9.93619 -0.0364876 
0.14312 -0.0364876 -10.5857 
-10.636 0.0377924 -0.328878 
0.0377924 -10.3275 -0.0640981 
-0.328878 -0.0640981 -9.59604 
9.78736 0.0191289 0.16477 
0.0191289 9.83665 -0.104795 
0.16477 -0.104795 9.91264 
9.78749 0.0592683 0.216764 
0.0592683 9.8171 -0.0770883 
0.216764 -0.0770883 9.93205 
9.7057 0.0364999 0.198825 
0.0364999 9.91761 -0.114192 
0.198825 -0.114192 9.91334 
9.78489 0.105815 0.206064 
0.105815 9.77386 -0.138836 
0.206064 -0.138836 9.97789 
7.57717 0.277137 -0.0693531 
0.277137 10.3412 1.2867 
-0.0693531 1.2867 7.08247 
9.06054 0.114801 0.430693 
0.114801 9.75069 0.830951 
0.430693 0.830951 6.18963 
8.34133 -1.08853 -0.352378 
-1.08853 9.75737 2.53093 
-0.352378 2.53093 6.90216 
7.59021 -1.70604 0.10535 
-1.70604 9.09519 2.41897 
0.10535 2.41897 8.31546 
6.97592 -0.930169 0.817192 
-0.930169 6.90732 1.13372 
0.817192 1.13372 2.38992 
5.4933 1.3811 0.970267 
1.3811 10.1848 0.505611 
0.970267 0.505611 0.59509 
6.41635 0.0953302 0.191436 
0.0953302 7.90218 2.1075 
0.191436 2.1075 1.95463 
4.79791 0.0764744 -0.861294 
0.0764744 8.83205 2.78555 
-0.861294 2.78555 2.64319 
7.81123 -1.44518 0.87969 
-1.44518 8.50703 -4.26327 
0.87969 -4.26327 8.6264 
9.67387 -0.43305 2.51167 
-0.43305 8.36073 -1.41978 
2.51167 -1.41978 6.91006 
9.16998 -1.5406 1.86826 
-1.5406 6.82003 -1.87365 
1.86826 -1.87365 8.95465 
9.02314 -1.0661 1.04333 
-1.0661 6.55461 -1.6109 
1.04333 -1.6109 9.36692 
9.77596 -0.130995 0.0766046 
-0.130995 9.51803 0.159904 
0.0766046 0.159904 9.9045 
9.88987 -0.169436 0.11165 
-0.169436 9.3991 0.283264 
0.11165 0.283264 9.90953 
9.79575 -0.113935 0.0767428 
-0.113935 9.53389 0.201804 
0.0767428 0.201804 9.86886 
9.79964 -0.0875014 0.0543983 
-0.0875014 9.52512 0.193839 
0.0543983 0.193839 9.87373 
9.95387 -0.0738406 0.174891 
-0.0738406 9.55174 0.384411 
0.174891 0.384411 9.96403 
10.1112 -0.258205 0.292434 
-0.258205 9.54632 0.327122 
0.292434 0.327122 9.81211 
10.0366 -0.105536 0.305937 
-0.105536 9.63995 0.451593 
0.305937 0.451593 9.79306 
9.9058 -0.166135 0.00279183 
-0.166135 9.64336 0.40882 
0.00279183 0.40882 9.92048 
9.71769 0.0438032 0.236222 
0.0438032 9.91638 -0.158563 
0.236222 -0.158563 9.92706 
9.7441 0.087343 0.189957 
0.087343 9.81693 -0.181366 
0.189957 -0.181366 10.0001 
9.77816 0.0709718 0.224264 
0.0709718 9.81932 -0.109404 
0.224264 -0.109404 9.96364 
9.69427 0.059428 0.330515 
0.059428 9.90168 -0.125693 
0.330515 -0.125693 9.96517 
9.80794 0.205314 -0.253383 
0.205314 9.54333 0.278597 
-0.253383 0.278597 9.83731 
9.74934 0.161647 -0.613975 
0.161647 9.53053 0.643082 
-0.613975 0.643082 9.9087 
9.48628 0.26976 -0.570645 
0.26976 9.70562 0.6976 
-0.570645 0.6976 9.99667 
9.76421 -0.475463 -0.446071 
-0.475463 10.0246 0.404707 
-0.446071 0.404707 9.39976 
9.73872 0.0361269 -0.142996 
0.0361269 9.81701 0.10879 
-0.142996 0.10879 9.8729 
9.7197 0.0910631 -0.171012 
0.0910631 9.80323 0.135628 
-0.171012 0.135628 9.9057 
9.72666 0.0461193 -0.176071 
0.0461193 9.76023 0.125835 
-0.176071 0.125835 9.94174 
9.76037 0.0323036 -0.213429 
0.0323036 9.77045 0.111647 
-0.213429 0.111647 9.89781 
9.76985 0.00949207 0.277047 
0.00949207 9.87234 -0.00608392 
0.277047 -0.00608392 9.84599 
9.67188 0.0304627 0.232868 
0.0304627 9.90162 -0.120599 
0.232868 -0.120599 9.91469 
9.75683 0.064093 0.205164 
0.064093 9.84147 -0.0851787 
0.205164 -0.0851787 9.88989 
9.76559 0.0532483 0.257371 
0.0532483 9.81982 -0.0879308 
0.257371 -0.0879308 9.90278 
9.99005 -0.0244782 1.06504 
-0.0244782 9.56978 -0.140457 
1.06504 -0.140457 9.43411 
9.62057 0.244498 0.272309 
0.244498 9.7081 -0.385688 
0.272309 -0.385688 9.66528 
9.33745 0.645529 0.554583 
0.645529 9.92439 -0.0737291 
0.554583 -0.0737291 9.73211 
9.99395 -0.140315 0.263478 
-0.140315 9.17293 -0.141116 
0.263478 -0.141116 9.82708 
10.1012 -0.0234208 0.0209074 
-0.0234208 9.54658 0.358368 
0.0209074 0.358368 9.91403 
9.95265 -0.0733594 0.0531644 
-0.0733594 9.67899 0.393447 
0.0531644 0.393447 9.93021 
10.0524 -0.0648044 0.103306 
-0.0648044 9.62242 0.399027 
0.103306 0.399027 9.88701 
10.0277 -0.0669372 0.0543003 
-0.0669372 9.66488 0.350774 
0.0543003 0.350774 9.86923 
10.4205 -0.460968 1.7163 
-0.460968 8.75303 -3.16518 
1.7163 -3.16518 5.60511 
8.21731 0.815315 0.739484 
0.815315 9.236 -1.39748 
0.739484 -1.39748 7.32534 
9.77281 0.119413 1.21408 
0.119413 10.1232 -0.914166 
1.21408 -0.914166 4.88267 
8.20241 0.929971 1.47188 
0.929971 7.97483 0.311632 
1.47188 0.311632 8.6014 
9.46877 0.147985 -0.586226 
0.147985 9.4989 0.64988 
-0.586226 0.64988 10.1868 
9.41774 0.111542 -0.424351 
0.111542 9.58984 0.843112 
-0.424351 0.843112 10.1468 
9.76199 0.054293 -0.436825 
0.054293 9.75643 0.349676 
-0.436825 0.349676 9.636 
9.26574 -0.055212 -0.0425153 
-0.055212 8.72915 0.260621 
-0.0425153 0.260621 11.1595 
9.80313 0.0304244 -0.0139104 
0.0304244 9.53397 0.160869 
-0.0139104 0.160869 9.89423 
9.81217 -0.0191805 0.0532459 
-0.0191805 9.60979 0.25417 
0.0532459 0.25417 9.80937 
9.79505 0.0179773 0.0233515 
0.0179773 9.63139 0.269537 
0.0233515 0.269537 9.80489 
10.0135 -0.0931424 0.0560946 
-0.0931424 9.36971 0.458939 
0.0560946 0.458939 9.84813 
9.76128 0.185024 0.322937 
0.185024 9.40629 -0.341802 
0.322937 -0.341802 9.60396 
9.72599 0.219248 0.416441 
0.219248 9.50459 -0.486638 
0.416441 -0.486638 9.54096 
9.75095 0.185923 0.349411 
0.185923 9.38277 -0.380958 
0.349411 -0.380958 9.63781 
9.33889 0.117018 0.35289 
0.117018 9.46803 -0.384434 
0.35289 -0.384434 9.9646 
9.92671 0.00563993 0.0262281 
0.00563993 9.90366 0.248793 
0.0262281 0.248793 9.92108 
9.93801 -0.00883916 0.0297242 
-0.00883916 9.87446 0.234838 
0.0297242 0.234838 9.93899 
9.95323 -0.0033488 0.025326 
-0.0033488 9.87686 0.26406 
0.025326 0.26406 9.92137 
9.91688 0.00686037 0.0103776 
0.00686037 9.90447 0.256062 
0.0103776 0.256062 9.9301 
9.03502 0.159696 0.986944 
0.159696 9.31813 0.937125 
0.986944 0.937125 9.83452 
8.55708 -0.155126 0.246529 
-0.155126 8.95292 0.67722 
0.246529 0.67722 10.6777 
8.402 -0.0602795 0.677778 
-0.0602795 8.61488 0.851255 
0.677778 0.851255 11.1708 
8.5982 0.0724115 0.493462 
0.0724115 8.54796 0.458889 
0.493462 0.458889 11.0415 
9.82067 -0.0492724 -0.157461 
-0.0492724 9.84442 -0.12069 
-0.157461 -0.12069 9.92822 
9.86411 0.0227489 -0.162069 
0.0227489 9.84697 -0.125972 
-0.162069 -0.125972 9.88223 
9.84249 -0.0271942 -0.165458 
-0.0271942 9.83404 -0.127579 
-0.165458 -0.127579 9.91677 
9.83562 -0.0169529 -0.197982 
-0.0169529 9.84847 -0.149285 
-0.197982 -0.149285 9.90922 
9.90752 0.027043 0.211225 
0.027043 9.96122 -0.14714 
0.211225 -0.14714 9.96956 
9.90405 0.0261663 0.211423 
0.0261663 9.95139 -0.156247 
0.211423 -0.156247 9.98285 
9.94112 0.0103606 0.19305 
0.0103606 9.91163 -0.150962 
0.19305 -0.150962 9.98555 
9.95814 0.0186382 0.235387 
0.0186382 9.92103 -0.17226 
0.235387 -0.17226 9.95913 
9.85253 -0.0592471 -0.126518 
-0.0592471 9.85612 -0.155516 
-0.126518 -0.155516 9.90643 
9.8242 -0.0277074 -0.193919 
-0.0277074 9.85576 -0.139236 
-0.193919 -0.139236 9.93513 
9.85245 0.0169802 -0.194865 
0.0169802 9.84355 -0.0831514 
-0.194865 -0.0831514 9.91908 
9.85838 -0.022888 -0.196863 
-0.022888 9.82588 -0.214664 
-0.196863 -0.214664 9.93082 
10.3676 0.0401279 0.294657 
0.0401279 10.3395 -0.174973 
0.294657 -0.174973 9.72032 
10.222 0.0556639 0.170915 
0.0556639 10.1322 -0.149553 
0.170915 -0.149553 10.0733 
9.81543 -0.108288 -0.150252 
-0.108288 9.92036 0.100011 
-0.150252 0.100011 10.6917 
9.81474 0.303895 0.227311 
0.303895 10.0003 -0.205561 
0.227311 -0.205561 10.6124 
8.69358 -0.0416377 2.1514 
-0.0416377 7.60849 1.61379 
2.1514 1.61379 -5.05064 
6.54739 0.510381 0.95716 
0.510381 7.10538 3.04967 
0.95716 3.04967 -2.40134 
3.65791 1.48382 -2.33875 
1.48382 0.737812 -0.114891 
-2.33875 -0.114891 6.8557 
11.687 0.863123 -4.8761 
0.863123 4.53352 6.40656 
-4.8761 6.40656 -4.96911 
9.99825 -0.00382501 -0.0407342 
-0.00382501 9.91505 0.243654 
-0.0407342 0.243654 9.97767 
9.93675 -0.00521213 -0.0364721 
-0.00521213 9.94851 0.223231 
-0.0364721 0.223231 10.0057 
9.97968 -0.0117148 -0.0266041 
-0.0117148 9.94367 0.24695 
-0.0266041 0.24695 9.96761 
9.98401 -0.00497355 -0.0317517 
-0.00497355 9.92316 0.236054 
-0.0317517 0.236054 9.98379 
8.70855 -2.31761 -0.349361 
-2.31761 11.0706 1.30059 
-0.349361 1.30059 11.8493 
9.8611 -0.572573 -0.142081 
-0.572573 10.3078 0.50731 
-0.142081 0.50731 11.4595 
9.74284 -0.0196406 0.018773 
-0.0196406 10.463 -0.0260764 
0.018773 -0.0260764 11.4226 
10.3448 -0.678714 -0.412849 
-0.678714 9.78928 -0.36959 
-0.412849 -0.36959 11.4944 
9.87543 0.0300725 0.225236 
0.0300725 9.76464 -0.397215 
0.225236 -0.397215 9.76558 
9.98165 0.178442 0.37082 
0.178442 9.608 -0.321467 
0.37082 -0.321467 9.816 
9.78527 0.0384452 0.27796 
0.0384452 9.77891 -0.330437 
0.27796 -0.330437 9.84148 
9.78016 0.0219644 0.252783 
0.0219644 9.82206 -0.180521 
0.252783 -0.180521 9.80343 
9.79227 -0.0375724 -0.21053 
-0.0375724 9.88852 -0.0951008 
-0.21053 -0.0951008 9.94339 
9.79212 -0.0729237 -0.275585 
-0.0729237 9.88195 -0.160746 
-0.275585 -0.160746 9.95012 
9.79137 -0.0455733 -0.276715 
-0.0455733 9.91598 -0.137699 
-0.276715 -0.137699 9.91684 
9.79197 -0.0227842 -0.280929 
-0.0227842 9.93514 -0.160148 
-0.280929 -0.160148 9.89708 
9.81986 -0.0107235 -0.198256 
-0.0107235 9.82453 -0.0874348 
-0.198256 -0.0874348 9.95234 
9.71127 -0.0967946 -0.261813 
-0.0967946 9.93255 -0.187882 
-0.261813 -0.187882 9.95291 
9.75512 -0.0929418 -0.254751 
-0.0929418 9.93604 -0.139304 
-0.254751 -0.139304 9.90557 
9.80013 -0.0852891 -0.250136 
-0.0852891 9.88762 -0.186156 
-0.250136 -0.186156 9.90899 
9.8099 0.0398129 -0.0914449 
0.0398129 9.7398 0.079712 
-0.0914449 0.079712 9.87772 
9.77654 0.0494604 -0.137797 
0.0494604 9.77975 0.104684 
-0.137797 0.104684 9.87113 
9.73159 0.0611997 -0.181024 
0.0611997 9.76492 0.156081 
-0.181024 0.156081 9.93091 
9.76952 0.0261273 -0.21824 
0.0261273 9.807 0.104509 
-0.21824 0.104509 9.85089 
9.91375 0.13413 -0.146527 
0.13413 9.6262 0.322804 
-0.146527 0.322804 9.6353 
9.97715 -0.0187278 -0.0235762 
-0.0187278 9.76246 0.377212 
-0.0235762 0.377212 9.43565 
9.81892 -0.0494919 -0.0136079 
-0.0494919 9.69546 0.418504 
-0.0136079 0.418504 9.66087 
10.01 0.0140212 -0.0379113 
0.0140212 9.63116 0.354605 
-0.0379113 0.354605 9.53407 
9.83284 0.0234777 0.184749 
0.0234777 9.65307 -0.295281 
0.184749 -0.295281 9.44934 
9.74477 0.0734523 0.32029 
0.0734523 9.72484 -0.361592 
0.32029 -0.361592 9.46563 
9.63463 0.0152099 0.294943 
0.0152099 9.75021 -0.307652 
0.294943 -0.307652 9.55041 
9.77692 0.0576691 0.318354 
0.0576691 9.7102 -0.312866 
0.318354 -0.312866 9.44812 
9.70333 -0.171438 0.119202 
-0.171438 9.67775 0.123502 
0.119202 0.123502 9.94201 
9.6603 -0.114727 0.188276 
-0.114727 9.66409 0.152619 
0.188276 0.152619 9.99872 
9.69376 -0.0864562 0.128337 
-0.0864562 9.75163 0.13964 
0.128337 0.13964 9.87772 
9.71331 -0.211195 0.161201 
-0.211195 9.68416 0.162162 
0.161201 0.162162 9.92563 
8.39974 -0.105282 0.0009847 
-0.105282 10.0983 -0.460883 
0.0009847 -0.460883 7.70312 
9.71132 -0.644633 2.08622 
-0.644633 8.54221 -1.34349 
2.08622 -1.34349 7.94767 
9.4627 -0.251988 1.43411 
-0.251988 8.80171 -1.99834 
1.43411 -1.99834 7.9368 
8.12769 -0.667374 1.98449 
-0.667374 8.74104 -1.33574 
1.98449 -1.33574 9.33248 
9.98926 -0.0898492 0.119393 
-0.0898492 9.75668 0.330141 
0.119393 0.330141 9.63505 
9.92618 0.00951212 0.0621619 
0.00951212 9.78985 0.31074 
0.0621619 0.31074 9.66496 
9.9732 -0.042901 0.0630719 
-0.042901 9.75807 0.331047 
0.0630719 0.331047 9.64971 
9.97829 -0.00115493 0.0374515 
-0.00115493 9.76999 0.347092 
0.0374515 0.347092 9.6327 
9.78675 -0.0893382 -0.0839042 
-0.0893382 9.82986 -0.11199 
-0.0839042 -0.11199 10.0692 
9.90631 -0.0678323 -0.0759205 
-0.0678323 9.73949 -0.0938332 
-0.0759205 -0.0938332 10.04 
9.82033 -0.0499267 -0.0931797 
-0.0499267 9.82969 -0.0714821 
-0.0931797 -0.0714821 10.0357 
9.91972 -0.0672117 -0.0452551 
-0.0672117 9.6968 -0.0641198 
-0.0452551 -0.0641198 10.0692 
9.87131 0.496738 -0.129918 
0.496738 9.19717 0.739108 
-0.129918 0.739108 10.3536 
10.3433 0.211759 -0.142553 
0.211759 9.0298 1.0836 
-0.142553 1.0836 10.049 
9.99246 0.199442 -0.276673 
0.199442 8.98167 0.412462 
-0.276673 0.412462 10.448 
10.4036 0.0619731 -0.0729662 
0.0619731 9.41674 0.264663 
-0.0729662 0.264663 9.60175 
9.53036 0.110531 -0.343661 
0.110531 9.88586 0.402895 
-0.343661 0.402895 9.72335 
9.70929 0.0979175 -0.328799 
0.0979175 9.77381 0.375151 
-0.328799 0.375151 9.65647 
9.65581 0.100336 -0.371797 
0.100336 9.71708 0.425887 
-0.371797 0.425887 9.76667 
9.55902 0.00227108 -0.356849 
0.00227108 9.92122 0.396322 
-0.356849 0.396322 9.65932 
11.1915 0.127252 0.944592 
0.127252 9.90542 -0.437978 
0.944592 -0.437978 7.98551 
9.96588 0.330192 0.865172 
0.330192 9.45782 -0.202667 
0.865172 -0.202667 9.65871 
9.92982 0.430345 0.356647 
0.430345 9.03791 -0.926047 
0.356647 -0.926047 10.1147 
9.974 -0.115135 1.01684 
-0.115135 9.70978 -0.33693 
1.01684 -0.33693 9.39865 
9.78163 -0.0344319 0.212898 
-0.0344319 9.84666 0.00765128 
0.212898 0.00765128 9.90436 
9.76214 -0.0206738 0.240783 
-0.0206738 9.88258 0.0482633 
0.240783 0.0482633 9.88793 
9.76475 -0.0273775 0.250455 
-0.0273775 9.87964 0.0456439 
0.250455 0.0456439 9.88827 
9.78557 0.0134264 0.25098 
0.0134264 9.86629 0.0510248 
0.25098 0.0510248 9.88079 
10.1793 -0.0624801 -0.453162 
-0.0624801 9.04785 0.0695833 
-0.453162 0.0695833 11.016 
9.88245 -0.700549 0.469177 
-0.700549 9.45854 0.239279 
0.469177 0.239279 10.9021 
10.1097 -0.896685 0.188791 
-0.896685 9.6218 -0.0618328 
0.188791 -0.0618328 10.5116 
9.7126 0.0407466 0.629987 
0.0407466 9.63694 -0.0706734 
0.629987 -0.0706734 10.8936 
7.9632 0.783587 -0.577235 
0.783587 10.5968 0.105599 
-0.577235 0.105599 5.3047 
6.99742 -0.0370562 0.91901 
-0.0370562 9.51264 -0.438295 
0.91901 -0.438295 7.3546 
7.32744 -1.24988 -0.378099 
-1.24988 9.05685 0.0452498 
-0.378099 0.0452498 7.48037 
7.94481 -0.466815 0.0230908 
-0.466815 10.4213 1.08342 
0.0230908 1.08342 5.49854 
9.73199 0.0395854 0.263622 
0.0395854 9.88671 -0.137089 
0.263622 -0.137089 9.85294 
9.75737 0.0592721 0.258296 
0.0592721 9.82515 -0.128066 
0.258296 -0.128066 9.88911 
9.75448 -0.00557711 0.214172 
-0.00557711 9.89972 -0.0792901 
0.214172 -0.0792901 9.81743 
9.72277 0.0523935 0.292149 
0.0523935 9.87924 -0.124134 
0.292149 -0.124134 9.86962 
9.84935 0.193991 -0.171758 
0.193991 10.1673 0.132728 
-0.171758 0.132728 9.04681 
9.7994 0.0417615 -0.0648701 
0.0417615 9.88502 0.0136518 
-0.0648701 0.0136518 9.37909 
9.99746 -0.0203368 -0.0516972 
-0.0203368 9.82125 0.0483108 
-0.0516972 0.0483108 9.24479 
9.9458 -0.0548785 -0.0536488 
-0.0548785 9.82813 0.167929 
-0.0536488 0.167929 9.28957 
9.92386 0.00940096 -0.0510058 
0.00940096 9.84246 0.245061 
-0.0510058 0.245061 9.90314 
9.93508 0.0135371 -0.0836227 
0.0135371 9.84431 0.260555 
-0.0836227 0.260555 9.89007 
9.92177 0.0308533 -0.0545938 
0.0308533 9.8452 0.243914 
-0.0545938 0.243914 9.90248 
9.92269 0.0144609 -0.0576015 
0.0144609 9.84231 0.24685 
-0.0576015 0.24685 9.90445 
9.72085 0.00326789 0.305212 
0.00326789 9.95218 -0.00418535 
0.305212 -0.00418535 9.86695 
9.76534 -0.0080063 0.249469 
-0.0080063 9.91127 -0.00459899 
0.249469 -0.00459899 9.86337 
9.77613 -0.0453905 0.240189 
-0.0453905 9.89286 0.0157546 
0.240189 0.0157546 9.87098 
9.79392 0.031926 0.239308 
0.031926 9.83853 0.00576185 
0.239308 0.00576185 9.90754 
9.95074 0.0362522 0.285292 
0.0362522 9.69746 -0.381509 
0.285292 -0.381509 9.71626 
9.96635 0.141358 0.248366 
0.141358 9.65209 -0.225747 
0.248366 -0.225747 9.74603 
9.80138 0.12962 0.568493 
0.12962 9.65835 -0.458626 
0.568493 -0.458626 9.90474 
9.76981 0.0554868 0.231114 
0.0554868 9.74766 -0.147143 
0.231114 -0.147143 9.847 
9.88898 0.00751998 0.0415199 
0.00751998 9.89029 0.282945 
0.0415199 0.282945 9.93649 
9.93801 -0.0232886 0.0198612 
-0.0232886 9.88697 0.190042 
0.0198612 0.190042 9.89078 
9.94178 -0.0178529 0.0268218 
-0.0178529 9.83281 0.24358 
0.0268218 0.24358 9.94118 
9.89956 0.00240114 0.0124898 
0.00240114 9.86429 0.248407 
0.0124898 0.248407 9.95191 
9.38344 -0.533163 -1.57849 
-0.533163 10.6779 -1.43483 
-1.57849 -1.43483 5.92053 
8.97891 -0.290572 -1.82672 
-0.290572 10.9535 -1.43642 
-1.82672 -1.43642 6.04947 
9.17712 -0.656133 -2.32933 
-0.656133 10.3153 -0.41738 
-2.32933 -0.41738 6.48946 
9.20245 -0.613874 -0.865313 
-0.613874 11.0205 -1.64911 
-0.865313 -1.64911 5.75893 
9.96449 0.0572017 -0.0413166 
0.0572017 9.80195 0.0366815 
-0.0413166 0.0366815 10.0844 
9.97475 0.0335784 -0.0425205 
0.0335784 9.85821 0.0567757 
-0.0425205 0.0567757 10.0179 
9.97632 0.0226407 -0.0729984 
0.0226407 9.81412 0.062963 
-0.0729984 0.062963 10.0604 
9.91987 -0.00587465 -0.0269119 
-0.00587465 9.96868 0.0673818 
-0.0269119 0.0673818 9.96233 
9.83243 -0.00964036 0.13485 
-0.00964036 9.82435 0.226066 
0.13485 0.226066 9.84681 
9.83792 -0.0738427 0.151416 
-0.0738427 9.72062 0.24359 
0.151416 0.24359 9.94505 
9.82242 -0.0645676 0.109572 
-0.0645676 9.74364 0.197279 
0.109572 0.197279 9.93753 
9.8255 -0.0564324 0.131023 
-0.0564324 9.76864 0.222489 
0.131023 0.222489 9.90945 
9.89625 0.0153114 0.186823 
0.0153114 9.90924 -0.162696 
0.186823 -0.162696 9.95337 
9.92035 0.0123051 0.234231 
0.0123051 9.91301 -0.189877 
0.234231 -0.189877 9.92549 
9.8955 0.0475342 0.193517 
0.0475342 9.89783 -0.182664 
0.193517 -0.182664 9.96552 
9.8972 0.0427557 0.180383 
0.0427557 9.89106 -0.195763 
0.180383 -0.195763 9.97059 
8.10634 -0.275614 0.835335 
-0.275614 9.4919 3.53241 
0.835335 3.53241 6.95142 
7.89294 0.143168 0.649799 
0.143168 9.69831 2.96148 
0.649799 2.96148 6.95841 
8.35671 -0.216334 0.777543 
-0.216334 9.42689 3.90982 
0.777543 3.90982 6.76606 
8.22299 -0.705989 0.875245 
-0.705989 9.1114 3.0995 
0.875245 3.0995 7.21528 
9.96903 0.015131 -0.013343 
0.015131 9.92583 0.0545139 
-0.013343 0.0545139 9.45351 
9.99462 0.0165537 -0.00979697 
0.0165537 9.98084 0.204388 
-0.00979697 0.204388 9.37291 
9.92882 0.0666799 -0.0746837 
0.0666799 9.94931 0.057507 
-0.0746837 0.057507 9.47023 
9.7105 -0.0495135 0.0427492 
-0.0495135 9.76168 0.22696 
0.0427492 0.22696 9.87618 
9.6472 0.034988 1.11393 
0.034988 8.99249 -0.0386878 
1.11393 -0.0386878 7.56836 
9.1784 0.0479426 0.739029 
0.0479426 9.42408 -0.424995 
0.739029 -0.424995 7.60556 
9.32204 -0.38142 0.150135 
-0.38142 9.5059 -1.26337 
0.150135 -1.26337 7.38011 
9.14287 -0.257575 1.24647 
-0.257575 9.96307 -0.50389 
1.24647 -0.50389 7.1021 
9.58415 -0.253059 -0.107636 
-0.253059 9.58771 -0.470347 
-0.107636 -0.470347 10.2684 
9.58198 -0.127709 -0.348596 
-0.127709 9.91726 -0.224923 
-0.348596 -0.224923 9.94099 
9.70073 -0.233152 -0.373504 
-0.233152 9.88087 -0.423344 
-0.373504 -0.423344 9.85864 
9.67604 -0.359538 -0.306178 
-0.359538 9.58145 -0.373525 
-0.306178 -0.373525 10.1828 
9.15405 -0.00685504 -0.422331 
-0.00685504 9.7031 -0.037657 
-0.422331 -0.037657 8.90412 
9.07824 0.0293915 -0.313099 
0.0293915 9.94839 0.0171253 
-0.313099 0.0171253 8.73464 
9.03916 -0.0408459 -0.460727 
-0.0408459 9.77923 -0.0504652 
-0.460727 -0.0504652 8.94288 
9.15502 0.00969191 -0.401189 
0.00969191 9.68081 -0.159672 
-0.401189 -0.159672 8.92544 
9.89411 0.037909 -0.0881077 
0.037909 9.75874 -0.334339 
-0.0881077 -0.334339 9.90057 
9.87887 -0.00822683 -0.0807858 
-0.00822683 9.79689 -0.256946 
-0.0807858 -0.256946 9.87767 
9.90589 0.0287118 -0.029496 
0.0287118 9.77464 -0.237619 
-0.029496 -0.237619 9.8729 
9.88305 -0.00527579 0.0197348 
-0.00527579 9.82249 -0.261533 
0.0197348 -0.261533 9.84789 
9.85159 0.0421851 0.216182 
0.0421851 9.90343 -0.109821 
0.216182 -0.109821 9.91454 
9.85437 0.0253822 0.245095 
0.0253822 9.88573 -0.145245 
0.245095 -0.145245 9.92945 
9.87825 0.0109299 0.267312 
0.0109299 9.90402 -0.146699 
0.267312 -0.146699 9.88728 
9.87163 0.0259934 0.25209 
0.0259934 9.91317 -0.16524 
0.25209 -0.16524 9.88476 
9.77199 -0.0825879 0.101046 
-0.0825879 10.0377 -0.0331841 
0.101046 -0.0331841 9.41425 
10.0169 0.00913505 0.00948756 
0.00913505 9.99369 0.265646 
0.00948756 0.265646 9.21338 
9.92161 -0.0580352 -0.0769947 
-0.0580352 9.59035 0.201623 
-0.0769947 0.201623 9.71197 
9.8089 0.138572 0.225063 
0.138572 10.0906 0.142329 
0.225063 0.142329 9.32446 
7.64848 0.565079 0.226541 
0.565079 8.81279 -0.405283 
0.226541 -0.405283 14.5949 
11.6172 2.90734 0.830225 
2.90734 10.3287 0.215836 
0.830225 0.215836 9.11034 
8.61272 0.781159 1.71933 
0.781159 10.6709 0.272675 
1.71933 0.272675 11.7726 
9.28153 -0.087097 2.49353 
-0.087097 8.87533 -0.224422 
2.49353 -0.224422 12.8993 
9.82648 0.0280869 -0.349114 
0.0280869 9.71532 -0.35028 
-0.349114 -0.35028 9.88362 
9.84829 -0.0744522 -0.449032 
-0.0744522 9.85123 -0.39474 
-0.449032 -0.39474 9.7259 
9.72895 -0.108236 -0.44139 
-0.108236 9.71334 -0.41125 
-0.44139 -0.41125 9.98313 
9.70724 -0.0322033 -0.33569 
-0.0322033 9.95099 -0.417204 
-0.33569 -0.417204 9.76719 
12.601 -0.358253 -0.0556085 
-0.358253 12.4486 -2.42801 
-0.0556085 -2.42801 8.84176 
9.07033 -1.21903 -0.481649 
-1.21903 8.07457 3.37412 
-0.481649 3.37412 16.7464 
11.417 0.172123 0.179445 
0.172123 11.3098 -1.36924 
0.179445 -1.36924 11.1646 
12.4388 0.645143 -0.135137 
0.645143 5.36894 -1.35772 
-0.135137 -1.35772 16.0836 
9.62136 -0.118016 -0.247266 
-0.118016 9.82982 -0.273266 
-0.247266 -0.273266 9.62318 
9.60934 -0.252339 -0.380396 
-0.252339 9.87699 -0.321622 
-0.380396 -0.321622 9.58803 
9.65524 -0.0812644 -0.125136 
-0.0812644 9.74096 -0.3324 
-0.125136 -0.3324 9.67815 
9.53761 -0.09694 -0.438904 
-0.09694 9.87066 -0.181032 
-0.438904 -0.181032 9.66609 
10.0463 0.553098 0.982149 
0.553098 7.84217 3.56418 
0.982149 3.56418 11.269 
7.58531 0.610336 1.3147 
0.610336 9.18047 0.241589 
1.3147 0.241589 12.3917 
10.5676 -0.470135 -1.97324 
-0.470135 11.1999 1.6101 
-1.97324 1.6101 7.38992 
8.44459 -2.01897 -0.0195775 
-2.01897 11.6873 2.32251 
-0.0195775 2.32251 9.02564 
9.64164 0.0332996 -0.199592 
0.0332996 9.8024 0.0122773 
-0.199592 0.0122773 9.87031 
9.68949 -0.0154333 -0.264029 
-0.0154333 9.81158 -0.0343839 
-0.264029 -0.0343839 9.81328 
9.73371 -0.0419648 -0.247943 
-0.0419648 9.76399 -0.105744 
-0.247943 -0.105744 9.81664 
9.55289 -0.0314555 -0.33272 
-0.0314555 9.94716 -0.0363781 
-0.33272 -0.0363781 9.81429 
9.8501 -0.00150118 -0.183208 
-0.00150118 9.81422 -0.106349 
-0.183208 -0.106349 9.86575 
9.79032 -0.0518799 -0.17506 
-0.0518799 9.83631 -0.0960628 
-0.17506 -0.0960628 9.90344 
9.82118 -0.0180345 -0.18563 
-0.0180345 9.82423 -0.10151 
-0.18563 -0.10151 9.88466 
9.80799 -0.00703369 -0.203276 
-0.00703369 9.83709 -0.119386 
-0.203276 -0.119386 9.88499 
9.77162 -0.0186697 0.214937 
-0.0186697 9.84862 -0.000628751 
0.214937 -0.000628751 9.85913 
9.75715 0.0142144 0.226752 
0.0142144 9.84616 0.0152036 
0.226752 0.0152036 9.87605 
9.80177 -0.0178936 0.178985 
-0.0178936 9.82284 0.0245652 
0.178985 0.0245652 9.85476 
9.77673 0.00546866 0.230686 
0.00546866 9.85197 0.0154889 
0.230686 0.0154889 9.85066 
9.71168 0.0937699 0.319648 
0.0937699 9.87058 -0.287719 
0.319648 -0.287719 9.97539 
9.76353 0.0943414 0.304461 
0.0943414 9.81716 -0.300532 
0.304461 -0.300532 9.97696 
9.80542 0.145448 0.289915 
0.145448 9.77943 -0.311187 
0.289915 -0.311187 9.9728 
9.81493 0.0654521 0.223751 
0.0654521 9.8044 -0.24015 
0.223751 -0.24015 9.93832 
9.40934 0.187158 0.904741 
0.187158 10.387 -0.646435 
0.904741 -0.646435 9.54045 
9.65787 0.0986435 0.432709 
0.0986435 10.3084 -0.330603 
0.432709 -0.330603 9.37058 
9.69726 0.136672 0.438772 
0.136672 10.2068 -0.447085 
0.438772 -0.447085 9.43283 
9.45129 -0.116393 0.40184 
-0.116393 10.1207 -0.285561 
0.40184 -0.285561 9.7648 
12.5735 -0.615718 -0.287966 
-0.615718 9.40648 -0.413278 
-0.287966 -0.413278 15.3199 
11.0039 0.10614 0.314622 
0.10614 5.56171 -1.08891 
0.314622 -1.08891 20.7342 
16.2215 0.0739504 -0.242151 
0.0739504 13.5692 -1.57974 
-0.242151 -1.57974 7.50915 
12.4001 0.625437 -2.57685 
0.625437 10.7339 5.37226 
-2.57685 5.37226 14.1659 
9.81112 -0.0540472 0.0686527 
-0.0540472 9.67894 0.235952 
0.0686527 0.235952 9.83068 
9.90341 -0.045348 0.0754931 
-0.045348 9.58473 0.258178 
0.0754931 0.258178 9.83259 
9.78681 -0.0325411 0.0862766 
-0.0325411 9.70874 0.267835 
0.0862766 0.267835 9.82518 
9.80325 -0.0205422 0.0544554 
-0.0205422 9.69119 0.258117 
0.0544554 0.258117 9.82629 
9.75884 -0.0529372 -0.284422 
-0.0529372 9.69341 -0.257367 
-0.284422 -0.257367 9.95843 
9.63921 -0.0697663 -0.212419 
-0.0697663 9.86187 -0.199644 
-0.212419 -0.199644 9.9096 
9.79687 -0.0607751 -0.280714 
-0.0607751 9.76837 -0.215456 
-0.280714 -0.215456 9.84544 
9.66089 -0.133983 -0.27479 
-0.133983 9.89883 -0.307707 
-0.27479 -0.307707 9.85096 
9.61433 0.0856828 0.43623 
0.0856828 9.77484 -0.177264 
0.43623 -0.177264 9.6776 
9.64397 0.0375838 0.333809 
0.0375838 9.81662 -0.286955 
0.333809 -0.286955 9.60619 
9.71703 0.0575275 0.404236 
0.0575275 9.77268 -0.286517 
0.404236 -0.286517 9.57706 
9.67189 0.0531774 0.391868 
0.0531774 9.83599 -0.297904 
0.391868 -0.297904 9.55889 
9.74332 -0.0300486 -0.0918875 
-0.0300486 9.70804 0.132808 
-0.0918875 0.132808 9.8824 
9.90877 -0.0438224 0.12782 
-0.0438224 9.55047 0.103331 
0.12782 0.103331 9.87452 
9.81952 0.00181185 0.0560844 
0.00181185 9.64857 0.237045 
0.0560844 0.237045 9.86567 
9.86547 -0.0677159 -0.0298905 
-0.0677159 9.61959 0.302463 
-0.0298905 0.302463 9.84871 
9.83386 -0.0471025 -0.0279314 
-0.0471025 9.69918 -0.191913 
-0.0279314 -0.191913 9.83543 
9.81126 -0.0178928 -0.0381657 
-0.0178928 9.70963 -0.2517 
-0.0381657 -0.2517 9.84759 
9.84469 -0.0240997 -0.0365441 
-0.0240997 9.67478 -0.261988 
-0.0365441 -0.261988 9.84902 
9.79557 0.00828981 -0.0438595 
0.00828981 9.75207 -0.272028 
-0.0438595 -0.272028 9.82084 
9.85313 -0.0213313 0.242061 
-0.0213313 9.9176 0.118687 
0.242061 0.118687 9.90987 
9.86636 -0.0487453 0.221207 
-0.0487453 9.90278 0.1237 
0.221207 0.1237 9.91145 
9.84987 -0.0254115 0.224087 
-0.0254115 9.90106 0.120077 
0.224087 0.120077 9.92967 
9.8701 -0.0250948 0.24576 
-0.0250948 9.89526 0.130698 
0.24576 0.130698 9.91524 
9.51929 0.128951 0.498928 
0.128951 9.73291 -0.383184 
0.498928 -0.383184 9.59044 
9.5545 0.119491 0.430415 
0.119491 9.76841 -0.41741 
0.430415 -0.41741 9.51972 
9.49183 0.146992 0.341644 
0.146992 9.81964 -0.372569 
0.341644 -0.372569 9.53116 
9.59482 -0.140817 0.490274 
-0.140817 9.93453 -0.539231 
0.490274 -0.539231 9.31328 
9.72718 0.113041 -0.122209 
0.113041 9.73055 0.0967669 
-0.122209 0.0967669 9.96684 
9.64575 0.112762 -0.15092 
0.112762 9.77087 0.217338 
-0.15092 0.217338 10.008 
9.69305 0.0841572 -0.160257 
0.0841572 9.75032 0.11001 
-0.160257 0.11001 9.9812 
9.79998 0.00394973 -0.239739 
0.00394973 9.75501 0.141091 
-0.239739 0.141091 9.86958 
9.72855 0.0657682 -0.172766 
0.0657682 9.77017 0.145215 
-0.172766 0.145215 9.9517 
9.71295 0.0876857 -0.191474 
0.0876857 9.8385 0.174392 
-0.191474 0.174392 9.89897 
9.72388 0.119479 -0.284709 
0.119479 9.80682 0.202687 
-0.284709 0.202687 9.91973 
9.77183 0.00670312 -0.221812 
0.00670312 9.80168 0.099499 
-0.221812 0.099499 9.8769 
9.72518 0.0559348 -0.123017 
0.0559348 9.7727 0.116328 
-0.123017 0.116328 9.92188 
9.72579 0.0823735 -0.104161 
0.0823735 9.70945 0.0912177 
-0.104161 0.0912177 9.98453 
9.71596 0.0764545 -0.0381956 
0.0764545 9.78469 0.0919255 
-0.0381956 0.0919255 9.91911 
9.78813 0.0249212 -0.166929 
0.0249212 9.80607 0.204179 
-0.166929 0.204179 9.82556 
9.75201 0.0361654 0.174516 
0.0361654 9.78398 -0.0877787 
0.174516 -0.0877787 9.8609 
9.75863 0.0178519 0.204169 
0.0178519 9.79185 -0.0749138 
0.204169 -0.0749138 9.84641 
9.76125 0.0397682 0.178723 
0.0397682 9.79117 -0.09802 
0.178723 -0.09802 9.84446 
9.75015 0.0290819 0.198565 
0.0290819 9.79631 -0.0879041 
0.198565 -0.0879041 9.85043 
9.78533 0.108313 0.369503 
0.108313 9.77692 -0.373995 
0.369503 -0.373995 10.1601 
9.81263 0.0898979 0.457478 
0.0898979 9.70557 -0.297026 
0.457478 -0.297026 10.2042 
9.71851 0.019799 0.52121 
0.019799 9.73653 -0.239937 
0.52121 -0.239937 10.2673 
9.87807 0.111521 0.524309 
0.111521 9.65234 -0.236135 
0.524309 -0.236135 10.192 
9.50284 -0.235207 0.285011 
-0.235207 10.5519 -0.213933 
0.285011 -0.213933 12.5545 
9.63252 -0.194873 0.667505 
-0.194873 10.3763 -0.306993 
0.667505 -0.306993 12.6004 
11.2429 0.305288 1.23946 
0.305288 9.88968 -0.548059 
1.23946 -0.548059 11.4766 
9.69317 -0.161836 0.338859 
-0.161836 10.5846 -0.265822 
0.338859 -0.265822 12.3314 
9.84683 -0.0291778 0.235791 
-0.0291778 9.90429 0.120899 
0.235791 0.120899 9.89837 
9.87357 -0.0182866 0.230672 
-0.0182866 9.87809 0.135667 
0.230672 0.135667 9.89784 
9.84994 -0.0120201 0.284071 
-0.0120201 9.9005 0.158265 
0.284071 0.158265 9.89905 
9.85105 -0.0233329 0.242837 
-0.0233329 9.89528 0.129671 
0.242837 0.129671 9.90316 
9.79247 0.0414384 -0.0402671 
0.0414384 9.77035 0.202451 
-0.0402671 0.202451 9.93 
9.83758 0.0694987 -0.106409 
0.0694987 9.73298 0.215609 
-0.106409 0.215609 9.92225 
9.82372 0.0682927 -0.123962 
0.0682927 9.73896 0.230983 
-0.123962 0.230983 9.93014 
9.86591 -0.0136384 -0.115859 
-0.0136384 9.75388 0.23586 
-0.115859 0.23586 9.87302 
9.69611 -0.0675933 -0.376704 
-0.0675933 9.93424 -0.133242 
-0.376704 -0.133242 9.61101 
9.70025 -0.0127325 -0.316639 
-0.0127325 9.83665 -0.136246 
-0.316639 -0.136246 9.70445 
9.69841 -0.0442367 -0.344336 
-0.0442367 9.87966 -0.0917295 
-0.344336 -0.0917295 9.66328 
9.69756 -0.00832137 -0.320036 
-0.00832137 9.86808 -0.0509493 
-0.320036 -0.0509493 9.67572 
6.1858 0.0533467 -0.74661 
0.0533467 12.1141 0.512449 
-0.74661 0.512449 5.20315 
7.80922 -0.426583 -0.214957 
-0.426583 10.546 0.733651 
-0.214957 0.733651 5.14782 
8.80224 0.739821 -0.345508 
0.739821 9.91358 -0.442296 
-0.345508 -0.442296 4.78722 
7.07557 -0.0421065 0.0592215 
-0.0421065 11.449 0.114157 
0.0592215 0.114157 4.97849 
9.89699 -0.00142381 -0.0205272 
-0.00142381 9.87497 -0.143522 
-0.0205272 -0.143522 9.28866 
9.91399 0.014627 -0.00319199 
0.014627 9.88905 -0.130809 
-0.00319199 -0.130809 9.25758 
9.89956 -0.0519336 0.00429235 
-0.0519336 9.84871 -0.148734 
0.00429235 -0.148734 9.31235 
9.91862 -0.0757676 -0.062856 
-0.0757676 9.90047 -0.158829 
-0.062856 -0.158829 9.24152 
9.70512 0.267356 -0.0962488 
0.267356 9.58811 -0.066611 
-0.0962488 -0.066611 10.1947 
9.53621 0.111379 0.568795 
0.111379 9.82524 -0.21895 
0.568795 -0.21895 10.1264 
9.752 0.200294 0.406958 
0.200294 9.75656 -0.258007 
0.406958 -0.258007 9.97934 
9.86739 0.138623 0.458943 
0.138623 9.67188 -0.176084 
0.458943 -0.176084 9.94862 
9.6076 0.111609 -0.267092 
0.111609 9.8047 0.290803 
-0.267092 0.290803 9.94716 
9.9151 0.12032 -0.340117 
0.12032 9.5777 0.434136 
-0.340117 0.434136 9.86666 
9.77948 -0.00895677 -0.175692 
-0.00895677 9.73201 0.236642 
-0.175692 0.236642 9.84797 
9.755 0.087733 -0.256842 
0.087733 9.75434 0.269712 
-0.256842 0.269712 9.85011 
8.53742 -0.945274 -1.29349 
-0.945274 8.60931 -0.173341 
-1.29349 -0.173341 10.0633 
8.99246 -1.57092 -3.0462 
-1.57092 10.1444 0.492964 
-3.0462 0.492964 8.07319 
11.3581 0.416193 -0.490488 
0.416193 8.15284 -0.0896154 
-0.490488 -0.0896154 7.69915 
10.639 -0.0095927 0.108387 
-0.0095927 9.41001 -1.77252 
0.108387 -1.77252 7.16108 
9.93358 0.160635 -0.303492 
0.160635 10.0042 -0.0632714 
-0.303492 -0.0632714 9.35528 
9.89225 0.0449485 -0.056189 
0.0449485 9.83744 -0.107969 
-0.056189 -0.107969 9.56336 
9.90242 -0.126886 -0.327351 
-0.126886 9.89922 -0.178538 
-0.327351 -0.178538 9.49142 
9.87938 -0.0533538 -0.161846 
-0.0533538 9.96283 -0.100649 
-0.161846 -0.100649 9.45084 
10.0191 0.0257936 -0.0139962 
0.0257936 10.0927 0.110986 
-0.0139962 0.110986 10.4528 
10.0518 0.0460909 -0.0505742 
0.0460909 10.1441 0.081673 
-0.0505742 0.081673 10.3688 
10.0066 0.0514089 0.0124061 
0.0514089 10.1118 0.0520492 
0.0124061 0.0520492 10.4462 
10.0419 0.0570395 0.00736572 
0.0570395 10.1103 0.0566599 
0.00736572 0.0566599 10.4125 
9.91148 0.0488446 0.0393533 
0.0488446 9.92107 0.0731974 
0.0393533 0.0731974 10.4835 
10.142 -0.0323325 -0.132457 
-0.0323325 10.2414 -0.202861 
-0.132457 -0.202861 9.93266 
10.0654 -0.0515051 -0.151362 
-0.0515051 10.1832 -0.134682 
-0.151362 -0.134682 10.0674 
9.96569 -0.195764 -0.143012 
-0.195764 9.9301 -0.157622 
-0.143012 -0.157622 10.4203 
7.92475 -0.227227 1.99031 
-0.227227 10.3191 -2.66572 
1.99031 -2.66572 8.79967 
8.05974 0.2205 1.22907 
0.2205 10.7329 -0.38508 
1.22907 -0.38508 8.25094 
10.7212 1.96212 1.28836 
1.96212 8.10773 -1.46845 
1.28836 -1.46845 8.21462 
10.5375 0.958278 2.12712 
0.958278 8.18729 -2.36385 
2.12712 -2.36385 8.31876 
9.82081 -0.0520044 -0.173248 
-0.0520044 9.8582 -0.112586 
-0.173248 -0.112586 9.90895 
9.85556 -0.0156155 -0.186203 
-0.0156155 9.85203 -0.108426 
-0.186203 -0.108426 9.88036 
9.85331 -0.00714123 -0.184847 
-0.00714123 9.84833 -0.10988 
-0.184847 -0.10988 9.8863 
9.83863 -0.0121526 -0.20618 
-0.0121526 9.85403 -0.124774 
-0.20618 -0.124774 9.89529 
9.1101 -0.0545591 0.238045 
-0.0545591 10.0683 -0.135788 
0.238045 -0.135788 11.3755 
10.3712 0.61601 0.679629 
0.61601 9.72472 0.15147 
0.679629 0.15147 10.458 
9.50325 0.0270687 0.15686 
0.0270687 9.51891 -0.104389 
0.15686 -0.104389 11.5318 
9.53584 -0.204027 0.14709 
-0.204027 9.62421 -0.147761 
0.14709 -0.147761 11.3939 
10.0483 0.0110643 -0.0557056 
0.0110643 10.0258 0.265215 
-0.0557056 0.265215 9.53602 
10.0429 -0.0724747 -0.0209681 
-0.0724747 9.8921 0.248581 
-0.0209681 0.248581 9.67514 
10.0305 0.0172605 -0.0196501 
0.0172605 9.76737 0.227395 
-0.0196501 0.227395 9.81226 
10.1021 0.0363556 0.136831 
0.0363556 9.8829 0.257294 
0.136831 0.257294 9.62508 
9.61608 0.0806614 -0.232069 
0.0806614 9.85274 -0.11614 
-0.232069 -0.11614 9.43249 
9.94804 -0.0777589 0.0624057 
-0.0777589 10.2337 0.0279658 
0.0624057 0.0279658 8.71954 
10.0428 -0.121063 0.176202 
-0.121063 9.70306 0.318548 
0.176202 0.318548 9.15545 
9.80002 0.199776 0.241738 
0.199776 9.6775 0.231246 
0.241738 0.231246 9.42379 
10.0112 0.00363117 -0.0502847 
0.00363117 9.93374 0.228248 
-0.0502847 0.228248 9.98957 
9.94737 0.0176642 -0.0392633 
0.0176642 9.946 0.21516 
-0.0392633 0.21516 10.0411 
9.99808 -0.0086125 -0.0662897 
-0.0086125 9.99741 0.250559 
-0.0662897 0.250559 9.93899 
9.9897 0.0101019 -0.0366777 
0.0101019 9.96324 0.259495 
-0.0366777 0.259495 9.98153 
9.81581 0.063327 -0.0992026 
0.063327 9.8262 0.0704744 
-0.0992026 0.0704744 9.94657 
9.77658 0.106075 -0.102078 
0.106075 9.82182 0.0417608 
-0.102078 0.0417608 9.99017 
9.90733 -0.035223 -0.0608894 
-0.035223 9.78687 0.0500944 
-0.0608894 0.0500944 9.89437 
9.92567 0.0301046 -0.169103 
0.0301046 9.76357 0.145056 
-0.169103 0.145056 9.89932 
7.7707 -0.290145 1.2481 
-0.290145 6.84677 -0.090668 
1.2481 -0.090668 1.22963 
7.92577 -1.79581 -0.628744 
-1.79581 5.57513 -1.89787 
-0.628744 -1.89787 2.34621 
7.31115 -0.297548 -0.33578 
-0.297548 5.96254 -0.935043 
-0.33578 -0.935043 2.57341 
8.43691 0.0298427 1.74511 
0.0298427 5.53798 -0.223016 
1.74511 -0.223016 1.87221 
9.64333 -0.146597 -0.0915778 
-0.146597 9.81984 -0.158669 
-0.0915778 -0.158669 10.118 
9.87618 0.0081458 -0.32974 
0.0081458 9.75459 -0.195693 
-0.32974 -0.195693 9.95038 
9.82896 -0.102343 -0.0811259 
-0.102343 9.76884 -0.0711579 
-0.0811259 -0.0711579 9.98335 
9.75565 -0.077967 -0.128178 
-0.077967 9.79757 -0.119689 
-0.128178 -0.119689 10.0279 
7.96596 0.152475 -0.301979 
0.152475 9.34305 0.437509 
-0.301979 0.437509 7.8727 
7.61083 0.552953 -0.361248 
0.552953 10.2939 0.375345 
-0.361248 0.375345 7.27697 
8.63026 -0.34265 -0.746648 
-0.34265 8.95826 -0.622139 
-0.746648 -0.622139 7.59319 
8.21308 -0.0315671 -0.142982 
-0.0315671 9.5919 -0.0161994 
-0.142982 -0.0161994 7.37673 
9.36622 0.0525544 0.665676 
0.0525544 10.1444 -0.86442 
0.665676 -0.86442 9.43383 
9.63277 0.528107 0.826652 
0.528107 10.0594 -1.08899 
0.826652 -1.08899 9.25233 
9.72414 -0.127467 0.164794 
-0.127467 9.98224 -0.429248 
0.164794 -0.429248 9.23808 
9.4694 0.109957 0.388122 
0.109957 10.3969 -0.513273 
0.388122 -0.513273 9.07817 
9.06956 0.619139 0.264871 
0.619139 10.9285 -0.429588 
0.264871 -0.429588 11.0059 
8.89308 0.720942 0.686327 
0.720942 10.7349 -0.322363 
0.686327 -0.322363 11.376 
9.15375 0.66189 0.316525 
0.66189 10.8201 -0.371372 
0.316525 -0.371372 11.0301 
10.418 0.206548 0.459251 
0.206548 9.94029 -0.168365 
0.459251 -0.168365 10.6457 
10.0255 0.0145139 -0.164114 
0.0145139 10.0019 -0.00462945 
-0.164114 -0.00462945 9.53122 
10.0301 -0.000579015 -0.0359664 
-0.000579015 10.0714 -0.020299 
-0.0359664 -0.020299 9.4571 
9.92378 -0.00472126 -0.0763502 
-0.00472126 9.9157 -0.0667045 
-0.0763502 -0.0667045 9.71916 
9.99052 -0.0212262 -0.0945313 
-0.0212262 10.0163 -0.0293661 
-0.0945313 -0.0293661 9.55183 
9.76365 -0.130727 -0.229028 
-0.130727 9.74455 -0.281211 
-0.229028 -0.281211 9.83987 
9.78718 -0.0732253 -0.223089 
-0.0732253 9.77674 -0.290209 
-0.223089 -0.290209 9.78414 
9.81763 -0.0142244 -0.365728 
-0.0142244 9.7456 -0.352673 
-0.365728 -0.352673 9.78483 
9.82006 -0.027511 -0.185918 
-0.027511 9.74684 -0.248803 
-0.185918 -0.248803 9.78116 
9.67956 -0.0253499 -0.302793 
-0.0253499 9.86104 -0.113402 
-0.302793 -0.113402 9.77007 
9.68174 -0.0162488 -0.311748 
-0.0162488 9.84253 -0.119147 
-0.311748 -0.119147 9.78642 
9.67238 0.00237796 -0.310135 
0.00237796 9.93758 -0.132835 
-0.310135 -0.132835 9.70072 
9.75225 0.00956897 -0.314644 
0.00956897 9.82056 -0.0415086 
-0.314644 -0.0415086 9.73787 
9.77114 -0.000467081 -0.022039 
-0.000467081 9.81243 -0.191044 
-0.022039 -0.191044 9.90942 
9.83827 0.0066926 -0.0165972 
0.0066926 9.77643 -0.23138 
-0.0165972 -0.23138 9.87829 
9.88495 -0.031574 0.0108445 
-0.031574 9.76751 -0.198541 
0.0108445 -0.198541 9.84054 
9.85927 0.019318 -0.025064 
0.019318 9.77799 -0.245698 
-0.025064 -0.245698 9.85574 
10.7763 -0.0712495 -0.386787 
-0.0712495 9.78311 0.688951 
-0.386787 0.688951 12.3629 
10.8561 -0.175025 -0.0736694 
-0.175025 9.84012 0.335394 
-0.0736694 0.335394 12.2261 
10.5444 -0.742577 -0.937424 
-0.742577 10.4197 1.35599 
-0.937424 1.35599 11.9582 
10.6828 -0.141093 -0.0207488 
-0.141093 9.88769 0.839084 
-0.0207488 0.839084 12.3518 
9.55928 0.0298929 0.298197 
0.0298929 9.74277 -0.251417 
0.298197 -0.251417 9.77416 
9.66956 0.0116517 0.389049 
0.0116517 9.98344 -0.199982 
0.389049 -0.199982 9.42321 
9.63903 0.0105228 0.409493 
0.0105228 9.88343 -0.159877 
0.409493 -0.159877 9.55375 
9.67539 0.0268886 0.319718 
0.0268886 9.8025 -0.0622781 
0.319718 -0.0622781 9.59832 
9.80815 -0.0965181 -0.240305 
-0.0965181 9.72705 -0.325123 
-0.240305 -0.325123 9.91327 
9.708 -0.0469894 -0.178954 
-0.0469894 9.73627 -0.143295 
-0.178954 -0.143295 10.0042 
9.80863 -0.0307699 -0.206552 
-0.0307699 9.74408 -0.250746 
-0.206552 -0.250746 9.89575 
9.80072 -0.0375081 -0.202758 
-0.0375081 9.78699 -0.264963 
-0.202758 -0.264963 9.86075 
9.82926 -0.0596323 -0.0931681 
-0.0596323 9.82049 -0.0177444 
-0.0931681 -0.0177444 10.0438 
9.7638 -0.054595 -0.0826688 
-0.054595 9.82865 -0.163379 
-0.0826688 -0.163379 10.1011 
9.84521 -0.0159015 -0.0689373 
-0.0159015 9.83676 -0.0734533 
-0.0689373 -0.0734533 10.0116 
9.86748 -0.184554 0.0577912 
-0.184554 9.74082 0.150959 
0.0577912 0.150959 10.0852 
9.7949 0.0444044 0.212729 
0.0444044 9.85723 -0.0656327 
0.212729 -0.0656327 9.91302 
9.83384 -0.00448613 0.220231 
-0.00448613 9.88156 -0.0296843 
0.220231 -0.0296843 9.84975 
9.78337 0.0166667 0.249363 
0.0166667 9.88351 -0.061711 
0.249363 -0.061711 9.89827 
9.80776 0.0342791 0.230418 
0.0342791 9.85588 -0.0602441 
0.230418 -0.0602441 9.90151 
9.71481 -0.0828236 -0.0820108 
-0.0828236 9.78754 -0.102174 
-0.0820108 -0.102174 9.97516 
9.72192 -0.17271 -0.132143 
-0.17271 9.69549 -0.130615 
-0.132143 -0.130615 10.0601 
9.79867 0.011085 -0.205792 
0.011085 9.79882 -0.100524 
-0.205792 -0.100524 9.88001 
9.67822 -0.0743212 -0.127118 
-0.0743212 9.73109 -0.126306 
-0.127118 -0.126306 10.0682 
10.1522 0.0323633 0.0455237 
0.0323633 10.0957 -0.0152541 
0.0455237 -0.0152541 10.425 
10.0748 -0.00790633 0.0378172 
-0.00790633 10.2346 -0.0712607 
0.0378172 -0.0712607 10.3635 
10.0602 -0.0275286 0.0508905 
-0.0275286 10.277 0.0133225 
0.0508905 0.0133225 10.3357 
10.1354 0.0513816 0.108422 
0.0513816 10.1834 -0.0502423 
0.108422 -0.0502423 10.3541 
9.7187 0.506351 0.576495 
0.506351 9.65004 -0.359364 
0.576495 -0.359364 9.40577 
9.63909 0.106428 0.506319 
0.106428 9.53774 -0.333807 
0.506319 -0.333807 9.59768 
9.70482 0.0721304 0.384472 
0.0721304 9.60632 -0.398965 
0.384472 -0.398965 9.46337 
9.75584 0.239698 0.323542 
0.239698 9.44459 -0.435841 
0.323542 -0.435841 9.57408 
9.82208 -0.0379303 0.104498 
-0.0379303 9.79147 0.175528 
0.104498 0.175528 9.94536 
9.83711 -0.0816988 0.0627068 
-0.0816988 9.79755 0.193838 
0.0627068 0.193838 9.92425 
9.83253 -0.0318854 0.101148 
-0.0318854 9.79043 0.164189 
0.101148 0.164189 9.93596 
9.7944 -0.0408861 0.119259 
-0.0408861 9.82888 0.181243 
0.119259 0.181243 9.93563 
9.72029 0.0884206 -0.0523689 
0.0884206 9.7041 0.177481 
-0.0523689 0.177481 10.2646 
9.75118 0.0568641 -0.0324208 
0.0568641 9.76084 0.0648185 
-0.0324208 0.0648185 10.177 
9.79732 0.153104 -0.261501 
0.153104 9.76102 0.253805 
-0.261501 0.253805 10.1307 
9.60328 0.211594 -0.115471 
0.211594 9.41847 0.113735 
-0.115471 0.113735 10.6673 
9.74322 -0.0174262 -0.113713 
-0.0174262 9.76084 -0.16834 
-0.113713 -0.16834 9.94024 
9.75294 -0.0642005 -0.115836 
-0.0642005 9.7618 -0.128663 
-0.115836 -0.128663 9.92956 
9.7713 -0.0536989 -0.137415 
-0.0536989 9.75433 -0.131008 
-0.137415 -0.131008 9.91867 
9.76237 -0.0524443 -0.121521 
-0.0524443 9.75405 -0.136453 
-0.121521 -0.136453 9.92788 
9.93663 0.0185951 -0.098407 
0.0185951 9.83562 0.234777 
-0.098407 0.234777 9.92171 
9.90485 0.0292946 -0.103465 
0.0292946 9.88682 0.238072 
-0.103465 0.238072 9.90229 
9.95552 0.0181046 -0.0922137 
0.0181046 9.85496 0.247288 
-0.0922137 0.247288 9.88348 
9.92901 0.0306784 -0.0879127 
0.0306784 9.86661 0.249341 
-0.0879127 0.249341 9.89835 
9.96175 0.0504159 -0.0900755 
0.0504159 9.92844 0.238742 
-0.0900755 0.238742 9.63669 
9.91329 0.0034548 -0.000233742 
0.0034548 9.84854 0.248727 
-0.000233742 0.248727 9.76504 
9.91266 -0.0115715 -0.0981732 
-0.0115715 9.84431 0.203109 
-0.0981732 0.203109 9.7699 
9.91166 0.0116152 -0.0285596 
0.0116152 9.88346 0.230204 
-0.0285596 0.230204 9.73175 
9.91524 0.0282743 -0.000464143 
0.0282743 9.88675 0.217035 
-0.000464143 0.217035 9.81793 
9.98534 -0.0363141 -0.0388927 
-0.0363141 9.7703 0.21983 
-0.0388927 0.21983 9.86429 
9.94183 0.0196261 0.0221936 
0.0196261 9.8579 0.242024 
0.0221936 0.242024 9.8202 
9.9962 -0.0177065 0.063993 
-0.0177065 9.84079 0.263021 
0.063993 0.263021 9.78293 
10.0085 0.0127518 0.376846 
0.0127518 10.3422 0.0329066 
0.376846 0.0329066 10.7917 
10.2661 -0.0857634 0.076788 
-0.0857634 10.2641 -0.11496 
0.076788 -0.11496 10.6122 
10.1946 -0.0312553 0.0949872 
-0.0312553 10.2161 -0.131766 
0.0949872 -0.131766 10.7318 
10.1298 0.110394 0.0388637 
0.110394 10.1727 -0.148994 
0.0388637 -0.148994 10.84 
9.9337 0.0238728 -0.112573 
0.0238728 9.89008 0.220906 
-0.112573 0.220906 9.87225 
9.97077 0.00582946 -0.110459 
0.00582946 9.86765 0.26713 
-0.110459 0.26713 9.85762 
9.96446 0.0646775 -0.12014 
0.0646775 9.93885 0.229134 
-0.12014 0.229134 9.79272 
9.93801 0.00869242 -0.119397 
0.00869242 9.89953 0.243313 
-0.119397 0.243313 9.8585 
10.5004 -0.0387898 0.0218806 
-0.0387898 9.97392 -0.1433 
0.0218806 -0.1433 10.8172 
9.96893 0.260688 -0.0174546 
0.260688 11.139 0.271678 
-0.0174546 0.271678 10.1835 
9.92226 0.10771 0.0798536 
0.10771 10.3516 0.19344 
0.0798536 0.19344 11.0176 
10.5541 -0.331129 0.406895 
-0.331129 10.01 0.127331 
0.406895 0.127331 10.7274 
9.78073 -0.170679 0.0198713 
-0.170679 9.84305 -0.0912787 
0.0198713 -0.0912787 9.84297 
9.68548 -0.0234407 -0.129119 
-0.0234407 9.67191 -0.0735873 
-0.129119 -0.0735873 10.1094 
9.78928 -0.0580094 -0.0389848 
-0.0580094 9.70215 -0.0956092 
-0.0389848 -0.0956092 9.97532 
9.78017 -0.0283212 -0.268998 
-0.0283212 9.9575 -0.276726 
-0.268998 -0.276726 9.72908 
9.56215 9.49555e-05 -0.00169102 
9.49555e-05 9.94739 0.13312 
-0.00169102 0.13312 10.8374 
9.99426 0.306327 0.233493 
0.306327 9.75971 0.0676044 
0.233493 0.0676044 10.5929 
9.47885 0.066104 0.0596556 
0.066104 9.82689 0.0941918 
0.0596556 0.0941918 11.0412 
9.98352 0.265815 0.44694 
0.265815 9.91386 -0.436999 
0.44694 -0.436999 10.4495 
9.84467 0.0349965 0.112773 
0.0349965 9.74041 -0.331096 
0.112773 -0.331096 9.87294 
9.89681 0.0107193 0.163009 
0.0107193 9.74065 -0.316315 
0.163009 -0.316315 9.82057 
9.78181 0.0412464 0.228379 
0.0412464 9.85321 -0.319167 
0.228379 -0.319167 9.823 
9.84229 0.0439748 0.197571 
0.0439748 9.82787 -0.287211 
0.197571 -0.287211 9.78787 
9.95297 0.0453939 0.215018 
0.0453939 9.82167 -0.247011 
0.215018 -0.247011 9.85841 
9.93113 0.0477167 0.185741 
0.0477167 9.86809 -0.255529 
0.185741 -0.255529 9.83383 
9.98366 0.0341487 0.154769 
0.0341487 9.85419 -0.309734 
0.154769 -0.309734 9.7952 
9.88983 0.0505833 0.0546916 
0.0505833 9.86495 -0.114301 
0.0546916 -0.114301 9.87826 
9.69513 0.115827 -0.201092 
0.115827 9.90805 0.297153 
-0.201092 0.297153 10.0271 
9.91537 0.513213 -0.140662 
0.513213 9.70839 0.602617 
-0.140662 0.602617 10.0065 
9.6146 -0.00118685 -0.321501 
-0.00118685 9.95618 0.46579 
-0.321501 0.46579 10.0595 
9.76232 0.25781 -0.439635 
0.25781 10.0001 0.41924 
-0.439635 0.41924 9.86786 
9.65017 -0.0546254 -0.431299 
-0.0546254 9.78772 -0.409837 
-0.431299 -0.409837 9.39489 
9.67175 -0.0590411 -0.372923 
-0.0590411 9.69887 -0.383551 
-0.372923 -0.383551 9.46215 
9.62234 -0.0413802 -0.393115 
-0.0413802 9.67014 -0.386002 
-0.393115 -0.386002 9.5403 
9.71167 0.0163611 -0.474704 
0.0163611 9.74047 -0.320161 
-0.474704 -0.320161 9.38064 
9.65589 -0.0530649 0.48836 
-0.0530649 10.9167 0.682075 
0.48836 0.682075 8.02083 
9.79758 0.360514 0.209313 
0.360514 11.1427 1.47538 
0.209313 1.47538 7.65322 
9.67276 -0.364456 0.295436 
-0.364456 10.9963 0.77578 
0.295436 0.77578 7.92443 
9.77721 -0.0983417 0.739746 
-0.0983417 10.2148 0.28934 
0.739746 0.28934 8.60147 
9.79009 -0.0548254 -0.111256 
-0.0548254 9.7704 -0.190146 
-0.111256 -0.190146 9.92309 
9.79521 -0.0603362 -0.134658 
-0.0603362 9.7727 -0.202873 
-0.134658 -0.202873 9.91568 
9.79873 -0.0639527 -0.143763 
-0.0639527 9.755 -0.193002 
-0.143763 -0.193002 9.92985 
9.81035 -0.000284615 -0.149224 
-0.000284615 9.77331 -0.218283 
-0.149224 -0.218283 9.89993 
9.7016 0.0197155 -0.360144 
0.0197155 10.1332 -0.226876 
-0.360144 -0.226876 9.95801 
9.54929 -0.199038 -0.408495 
-0.199038 10.1014 -0.127856 
-0.408495 -0.127856 10.1422 
9.6402 -0.0214602 -0.260015 
-0.0214602 10.0982 -0.123886 
-0.260015 -0.123886 10.0545 
9.62326 -0.155442 -0.375616 
-0.155442 10.1227 -0.0779157 
-0.375616 -0.0779157 10.0468 
9.90028 -0.00523959 -0.04713 
-0.00523959 9.59851 0.326161 
-0.04713 0.326161 9.50135 
9.86753 0.067941 -0.0647894 
0.067941 9.68943 0.37319 
-0.0647894 0.37319 9.44319 
9.93672 0.0904077 -0.159463 
0.0904077 9.64501 0.411472 
-0.159463 0.411472 9.41841 
9.99102 0.12489 -0.150195 
0.12489 9.62999 0.347354 
-0.150195 0.347354 9.37914 
9.75462 1.19196 2.63595 
1.19196 8.44647 2.40265 
2.63595 2.40265 15.4533 
9.50003 0.000595232 1.66998 
0.000595232 10.5013 0.664642 
1.66998 0.664642 13.6531 
10.814 -0.433526 -0.542614 
-0.433526 9.32993 0.279321 
-0.542614 0.279321 13.5105 
10.4004 1.2393 -1.94667 
1.2393 11.0035 0.771644 
-1.94667 0.771644 12.2506 
9.82767 -0.0320845 -0.191549 
-0.0320845 9.82859 -0.0994249 
-0.191549 -0.0994249 9.90069 
9.80256 -0.0339224 -0.194055 
-0.0339224 9.83837 -0.124953 
-0.194055 -0.124953 9.91601 
9.82973 -0.0317827 -0.195806 
-0.0317827 9.83379 -0.111916 
-0.195806 -0.111916 9.89343 
9.78215 0.00482672 -0.268633 
0.00482672 9.87542 -0.0864622 
-0.268633 -0.0864622 9.89938 
9.43925 0.213274 -1.73701 
0.213274 10.7899 -0.223621 
-1.73701 -0.223621 12.2915 
9.66212 -0.126893 -0.233241 
-0.126893 10.5595 -0.545228 
-0.233241 -0.545228 12.299 
9.10229 0.0565599 -1.39338 
0.0565599 10.4022 -0.144458 
-1.39338 -0.144458 13.0162 
9.38396 -0.113258 -0.984925 
-0.113258 10.6386 -0.256975 
-0.984925 -0.256975 12.4982 
9.85209 0.0237269 -0.081996 
0.0237269 9.70697 0.282332 
-0.081996 0.282332 9.84557 
9.83839 0.043596 -0.0770557 
0.043596 9.71183 0.250426 
-0.0770557 0.250426 9.85442 
9.85261 0.0209157 -0.0628771 
0.0209157 9.71626 0.244336 
-0.0628771 0.244336 9.83577 
9.87682 0.00872182 -0.124085 
0.00872182 9.70118 0.33988 
-0.124085 0.33988 9.82663 
9.75014 0.0540291 -0.131525 
0.0540291 9.75059 -0.290447 
-0.131525 -0.290447 9.16694 
9.79157 -0.0737643 0.000277211 
-0.0737643 9.74802 -0.222905 
0.000277211 -0.222905 9.12808 
9.72545 -0.00314901 -0.186774 
-0.00314901 9.63035 -0.351802 
-0.186774 -0.351802 9.31189 
9.8401 -0.0675462 -0.17544 
-0.0675462 9.85658 -0.280033 
-0.17544 -0.280033 8.971 
9.8364 0.479821 -0.384424 
0.479821 10.005 0.131252 
-0.384424 0.131252 9.88213 
10.0249 0.478493 -0.246096 
0.478493 9.65158 0.811103 
-0.246096 0.811103 10.0471 
9.88122 -0.141505 -0.002419 
-0.141505 9.99436 0.0275812 
-0.002419 0.0275812 9.84794 
9.67549 0.361404 -0.432515 
0.361404 10.0554 0.469907 
-0.432515 0.469907 9.99267 
9.62944 -0.0219397 -0.218947 
-0.0219397 9.81326 -0.00804746 
-0.218947 -0.00804746 9.88568 
9.7446 0.0271631 -0.226632 
0.0271631 9.79511 0.1008 
-0.226632 0.1008 9.78868 
9.66688 0.00975586 -0.2657 
0.00975586 9.82559 0.0122773 
-0.2657 0.0122773 9.83592 
9.56918 0.0429677 -0.312052 
0.0429677 9.95236 -0.0413329 
-0.312052 -0.0413329 9.80683 
9.81305 0.165401 0.0435293 
0.165401 9.67886 -0.0821242 
0.0435293 -0.0821242 10.1354 
9.79598 0.0292655 0.123303 
0.0292655 9.7968 -0.122618 
0.123303 -0.122618 10.0346 
9.80947 0.010079 0.0857359 
0.010079 9.79868 -0.0198762 
0.0857359 -0.0198762 10.0192 
9.78701 0.0420005 0.176771 
0.0420005 9.88676 -0.187476 
0.176771 -0.187476 9.95358 
8.61478 -0.540336 -1.86928 
-0.540336 8.72316 -0.0915655 
-1.86928 -0.0915655 8.56982 
9.96636 -1.2145 -2.78926 
-1.2145 7.33521 -0.424756 
-2.78926 -0.424756 8.60619 
8.82042 -0.305891 -1.06614 
-0.305891 9.39212 -0.798989 
-1.06614 -0.798989 7.69521 
8.23081 -0.638005 -1.67046 
-0.638005 9.20498 -0.085365 
-1.67046 -0.085365 8.47196 
9.13326 0.0123776 -0.750837 
0.0123776 10.2875 -0.853382 
-0.750837 -0.853382 7.86309 
9.32697 0.274642 -0.243982 
0.274642 9.84237 0.0240677 
-0.243982 0.0240677 8.11446 
8.48194 -1.50799 -1.22625 
-1.50799 9.41918 -1.51634 
-1.22625 -1.51634 9.38268 
9.03968 -0.0259865 -0.972555 
-0.0259865 11.255 -1.03199 
-0.972555 -1.03199 6.98914 
10.1289 -0.0548607 -0.00502093 
-0.0548607 10.2155 0.0267801 
-0.00502093 0.0267801 10.5733 
10.0081 0.0349858 0.101255 
0.0349858 10.2105 -0.0903419 
0.101255 -0.0903419 10.6991 
10.4918 -0.00906109 0.000766631 
-0.00906109 10.4944 0.195158 
0.000766631 0.195158 9.93152 
10.1908 -0.00943682 0.194301 
-0.00943682 10.0697 0.235553 
0.194301 0.235553 10.6572 
9.61443 0.0749099 0.338487 
0.0749099 9.74478 -0.335722 
0.338487 -0.335722 9.44149 
9.47152 -0.00589735 0.526228 
-0.00589735 9.81113 -0.364762 
0.526228 -0.364762 9.51805 
9.55928 0.0882229 0.476663 
0.0882229 9.77689 -0.0744021 
0.476663 -0.0744021 9.46454 
9.64175 0.0138383 0.35374 
0.0138383 9.77844 -0.375011 
0.35374 -0.375011 9.38051 
9.76457 0.0983595 0.22612 
0.0983595 9.83095 -0.228345 
0.22612 -0.228345 9.98973 
9.78279 0.0694074 0.153861 
0.0694074 9.80935 -0.174065 
0.153861 -0.174065 9.99311 
9.82934 0.0252156 0.144698 
0.0252156 9.7859 -0.177863 
0.144698 -0.177863 9.97 
9.7987 0.0730273 0.150342 
0.0730273 9.78921 -0.163264 
0.150342 -0.163264 9.99734 
9.75941 0.0869961 -0.234196 
0.0869961 9.84749 0.211391 
-0.234196 0.211391 9.98572 
9.75144 0.0917841 -0.24765 
0.0917841 9.84235 0.215753 
-0.24765 0.215753 9.99884 
9.72699 0.0788998 -0.227175 
0.0788998 9.87148 0.222496 
-0.227175 0.222496 9.99415 
9.76339 0.0580183 -0.242721 
0.0580183 9.85993 0.243018 
-0.242721 0.243018 9.96931 
9.69567 -0.0572307 -0.426316 
-0.0572307 9.98507 -0.238788 
-0.426316 -0.238788 9.8691 
9.58049 -0.0772043 -0.332588 
-0.0772043 9.99347 -0.0637764 
-0.332588 -0.0637764 9.97588 
9.62101 0.0746821 -0.295746 
0.0746821 10.3092 0.0564997 
-0.295746 0.0564997 9.61965 
9.65453 -0.0167893 -0.380277 
-0.0167893 10.1009 -0.0621961 
-0.380277 -0.0621961 9.79441 
5.39311 -0.595272 -0.317227 
-0.595272 9.03904 0.664592 
-0.317227 0.664592 -1.36684 
1.88954 -0.639157 2.57566 
-0.639157 4.9024 0.966033 
2.57566 0.966033 6.27337 
5.14066 0.0835487 -1.86222 
0.0835487 9.08198 0.690633 
-1.86222 0.690633 -1.15733 
5.70527 2.46214 -0.605691 
2.46214 7.33753 5.48328 
-0.605691 5.48328 0.0225051 
10.1249 -0.272149 0.395801 
-0.272149 9.68947 -0.60621 
0.395801 -0.60621 9.42025 
9.70483 0.12895 0.306222 
0.12895 9.77922 -0.332166 
0.306222 -0.332166 9.75058 
9.96386 0.253796 0.490623 
0.253796 9.60688 -0.276499 
0.490623 -0.276499 9.66389 
9.79164 0.129484 0.291161 
0.129484 9.50063 -0.144 
0.291161 -0.144 9.94236 
9.75877 -0.0363783 -0.109414 
-0.0363783 9.74986 -0.147566 
-0.109414 -0.147566 9.98402 
9.80929 -0.0391706 -0.106692 
-0.0391706 9.76514 -0.203973 
-0.106692 -0.203973 9.91822 
9.81342 -0.0463247 -0.0834256 
-0.0463247 9.82813 -0.169328 
-0.0834256 -0.169328 9.85109 
9.80482 -0.0442464 -0.116804 
-0.0442464 9.78386 -0.182918 
-0.116804 -0.182918 9.90396 
9.80461 0.0697502 0.085264 
0.0697502 9.78327 -0.0865111 
0.085264 -0.0865111 9.91082 
9.78079 -0.00986006 0.160044 
-0.00986006 9.79376 -0.194052 
0.160044 -0.194052 9.92415 
9.77268 0.0605133 0.141379 
0.0605133 9.74358 -0.154288 
0.141379 -0.154288 9.98244 
9.76571 0.0623767 0.135941 
0.0623767 9.76823 -0.152155 
0.135941 -0.152155 9.96476 
9.86505 0.0839022 -0.0750678 
0.0839022 9.6061 -0.0726104 
-0.0750678 -0.0726104 10.4325 
9.897 0.0549834 -0.0431035 
0.0549834 9.63509 0.124259 
-0.0431035 0.124259 10.3715 
9.84413 0.0955482 -0.0570271 
0.0955482 9.83309 0.195281 
-0.0570271 0.195281 10.2264 
9.86625 0.121176 0.196177 
0.121176 9.41398 0.183791 
0.196177 0.183791 10.6234 
9.84223 -0.00764113 0.00366345 
-0.00764113 9.80668 0.0421724 
0.00366345 0.0421724 10.0024 
9.80719 -0.0687875 -0.0112903 
-0.0687875 9.79328 0.0347549 
-0.0112903 0.0347549 10.0509 
9.81696 -0.0606185 0.00885225 
-0.0606185 9.79662 0.0384492 
0.00885225 0.0384492 10.0378 
9.82831 -0.15541 0.000485341 
-0.15541 9.75437 0.0663492 
0.000485341 0.0663492 10.0687 
9.90774 -0.0525344 -0.0412914 
-0.0525344 9.8794 -0.259817 
-0.0412914 -0.259817 9.89578 
9.95359 0.0430764 -0.0515189 
0.0430764 9.83469 -0.219047 
-0.0515189 -0.219047 9.89464 
9.93297 -0.0142081 -0.0467633 
-0.0142081 9.84682 -0.263752 
-0.0467633 -0.263752 9.90312 
9.99443 -0.0215936 -0.136415 
-0.0215936 9.86127 -0.285388 
-0.136415 -0.285388 9.82722 
9.9862 0.011999 0.206318 
0.011999 9.98957 -0.152609 
0.206318 -0.152609 9.96903 
9.96899 0.00959428 0.180453 
0.00959428 9.95333 -0.144846 
0.180453 -0.144846 10.0225 
9.97847 -0.000168434 0.198748 
-0.000168434 9.96968 -0.153751 
0.198748 -0.153751 9.99666 
9.96533 0.0323853 0.202542 
0.0323853 9.97685 -0.174664 
0.202542 -0.174664 10.0026 
9.95288 0.0583 -0.0278811 
0.0583 9.8402 -0.257079 
-0.0278811 -0.257079 9.90827 
9.90974 0.00264902 -0.0459294 
0.00264902 9.87439 -0.248166 
-0.0459294 -0.248166 9.91722 
9.90359 -0.0384114 -0.045477 
-0.0384114 9.87738 -0.190373 
-0.045477 -0.190373 9.92039 
9.98645 -0.014648 0.0127068 
-0.014648 9.87651 -0.281358 
0.0127068 -0.281358 9.83839 
9.7866 0.100144 -0.089807 
0.100144 9.79521 0.0563104 
-0.089807 0.0563104 9.9725 
9.81537 0.109645 -0.111574 
0.109645 9.78894 0.0263807 
-0.111574 0.0263807 9.95001 
9.7853 0.0920565 -0.102645 
0.0920565 9.79861 0.0656209 
-0.102645 0.0656209 9.9704 
9.81901 0.0931462 -0.106825 
0.0931462 9.78558 0.0407336 
-0.106825 0.0407336 9.94973 
7.68315 -0.636126 3.16378 
-0.636126 6.38234 -2.04722 
3.16378 -2.04722 -2.48913 
0.00756682 -1.55566 -1.36667 
-1.55566 1.75443 3.14743 
-1.36667 3.14743 9.81437 
7.64934 0.0443077 1.06797 
0.0443077 7.78611 -2.3833 
1.06797 -2.3833 -3.85909 
4.90425 -1.71889 5.80819 
-1.71889 11.8493 4.44261 
5.80819 4.44261 -5.17719 
9.79707 -0.0630328 -0.261181 
-0.0630328 9.7615 -0.266251 
-0.261181 -0.266251 9.97917 
9.75289 -0.0891179 -0.181285 
-0.0891179 9.80706 -0.203827 
-0.181285 -0.203827 9.9778 
9.74466 -0.0606762 -0.188292 
-0.0606762 9.77277 -0.134205 
-0.188292 -0.134205 10.0203 
9.82786 -0.0654088 -0.229236 
-0.0654088 9.8338 -0.215186 
-0.229236 -0.215186 9.87608 
9.86445 0.0122932 0.216767 
0.0122932 9.90448 -0.073008 
0.216767 -0.073008 9.95067 
9.87785 0.0387865 0.234182 
0.0387865 9.89329 -0.119963 
0.234182 -0.119963 9.94846 
9.88211 0.0281424 0.236658 
0.0281424 9.94213 -0.153803 
0.236658 -0.153803 9.89535 
9.88073 0.017192 0.219321 
0.017192 9.91307 -0.115067 
0.219321 -0.115067 9.92579 
9.75139 -0.0966973 0.235655 
-0.0966973 9.69226 0.225711 
0.235655 0.225711 9.94865 
9.75162 -0.072098 0.218333 
-0.072098 9.73241 0.241066 
0.218333 0.241066 9.90828 
9.66292 -0.152003 0.220231 
-0.152003 9.73338 0.170725 
0.220231 0.170725 9.996 
9.71836 -0.0571823 0.353846 
-0.0571823 9.6558 0.281448 
0.353846 0.281448 10.0181 
9.88769 -0.0279398 -0.192653 
-0.0279398 9.89986 -0.168079 
-0.192653 -0.168079 9.9646 
9.85044 -0.0259605 -0.212044 
-0.0259605 9.93624 -0.156381 
-0.212044 -0.156381 9.96548 
9.90436 -0.0311736 -0.241573 
-0.0311736 9.90782 -0.151446 
-0.241573 -0.151446 9.93997 
9.88492 -0.0232647 -0.210478 
-0.0232647 9.90777 -0.158566 
-0.210478 -0.158566 9.95946 
8.96808 -0.268153 0.995817 
-0.268153 9.6476 -0.0461419 
0.995817 -0.0461419 11.051 
9.62613 -0.168801 0.954611 
-0.168801 9.84841 -0.0400937 
0.954611 -0.0400937 10.1922 
9.39066 -0.144038 0.439822 
-0.144038 10.2128 0.259404 
0.439822 0.259404 10.0633 
9.37252 -0.421079 0.593385 
-0.421079 9.18289 0.362089 
0.593385 0.362089 11.1113 
-3.49254 -1.89773 5.18222 
-1.89773 0.288287 -0.495955 
5.18222 -0.495955 12.2536 
1.8339 -0.975605 1.45062 
-0.975605 3.72641 0.256119 
1.45062 0.256119 3.48905 
4.44882 -4.65875 -3.18157 
-4.65875 8.54817 -0.698728 
-3.18157 -0.698728 -3.94763 
0.681055 0.581964 2.18949 
0.581964 6.37126 2.92706 
2.18949 2.92706 1.99704 
9.96264 0.0142648 -0.125413 
0.0142648 9.93067 0.230882 
-0.125413 0.230882 9.69455 
9.89895 -0.00857603 -0.124814 
-0.00857603 9.88044 0.210142 
-0.124814 0.210142 9.80847 
9.90835 0.015501 -0.14315 
0.015501 9.91274 0.126017 
-0.14315 0.126017 9.76677 
9.93024 0.0136993 -0.124047 
0.0136993 9.90433 0.134442 
-0.124047 0.134442 9.75329 
9.80808 -0.0471748 0.110356 
-0.0471748 9.72411 0.177659 
0.110356 0.177659 9.93258 
9.74615 -0.0732893 0.133498 
-0.0732893 9.76426 0.156825 
0.133498 0.156825 9.95437 
9.80225 -0.0984145 0.142675 
-0.0984145 9.70289 0.170114 
0.142675 0.170114 9.95963 
9.67767 -0.0803392 0.112491 
-0.0803392 9.84977 0.0903184 
0.112491 0.0903184 9.93734 
9.80976 0.0462567 -0.0747251 
0.0462567 9.76638 0.228102 
-0.0747251 0.228102 9.93658 
9.9979 -0.0385965 -0.170142 
-0.0385965 9.75532 0.281555 
-0.170142 0.281555 9.7595 
9.94446 0.0334743 -0.17907 
0.0334743 9.78772 0.266914 
-0.17907 0.266914 9.78053 
9.91043 0.141338 -0.222077 
0.141338 9.78605 0.394872 
-0.222077 0.394872 9.81624 
9.38366 1.57854 1.54496 
1.57854 9.35242 -0.175403 
1.54496 -0.175403 10.5004 
9.66543 0.834375 0.512518 
0.834375 10.5549 0.247695 
0.512518 0.247695 9.01615 
9.74251 1.01551 1.43779 
1.01551 9.79377 -0.878412 
1.43779 -0.878412 9.70022 
9.97481 0.549064 1.89992 
0.549064 9.48947 -1.86024 
1.89992 -1.86024 9.77222 
9.52477 0.0772978 -0.302235 
0.0772978 10.3158 0.143947 
-0.302235 0.143947 9.23547 
9.68701 0.0563573 -0.530507 
0.0563573 10.071 0.407127 
-0.530507 0.407127 9.31806 
9.62131 -0.190351 -0.0766534 
-0.190351 9.85609 0.154673 
-0.0766534 0.154673 9.59863 
9.63961 -0.0524257 -0.346158 
-0.0524257 10.1757 0.228832 
-0.346158 0.228832 9.26073 
10.1739 -0.201131 -0.0372184 
-0.201131 9.75892 0.622301 
-0.0372184 0.622301 10.4436 
10.3032 -0.0469119 0.0315184 
-0.0469119 9.78946 0.328761 
0.0315184 0.328761 10.2838 
10.4079 -0.117683 0.0667054 
-0.117683 9.44927 0.246956 
0.0667054 0.246956 10.5193 
10.3718 -0.129439 0.0331307 
-0.129439 9.80149 0.281841 
0.0331307 0.281841 10.2032 
8.87105 -0.240574 0.492311 
-0.240574 9.50745 0.54861 
0.492311 0.54861 9.64027 
9.14842 -0.0471135 0.778116 
-0.0471135 10.5554 -0.129861 
0.778116 -0.129861 8.31499 
9.07445 0.0928162 0.283851 
0.0928162 10.612 -0.587353 
0.283851 -0.587353 8.33231 
10.2728 0.370923 1.15881 
0.370923 10.7958 1.72601 
1.15881 1.72601 6.95021 
10.173 0.103663 2.25155 
0.103663 9.03067 1.41595 
2.25155 1.41595 6.82978 
9.73836 0.219961 1.56408 
0.219961 9.05593 0.221896 
1.56408 0.221896 7.23919 
10.6294 -0.268459 1.41316 
-0.268459 8.83573 0.794736 
1.41316 0.794736 6.56837 
9.92631 -1.23284 -0.18422 
-1.23284 8.5166 -0.095697 
-0.18422 -0.095697 7.59056 
9.92762 0.0380046 0.0213653 
0.0380046 9.82877 0.18469 
0.0213653 0.18469 9.78812 
9.89908 -0.0149594 -0.0224805 
-0.0149594 9.84806 0.258238 
-0.0224805 0.258238 9.79737 
9.93406 -0.0814307 0.00266594 
-0.0814307 9.94571 0.239596 
0.00266594 0.239596 9.66474 
9.92729 -0.0159685 0.0342777 
-0.0159685 9.90802 0.265945 
0.0342777 0.265945 9.7092 
9.7443 -0.0494776 0.245289 
-0.0494776 9.75698 0.112664 
0.245289 0.112664 9.75354 
9.85383 -0.0409064 -0.0623531 
-0.0409064 9.56079 0.147912 
-0.0623531 0.147912 9.8402 
9.91865 -0.0528002 0.248427 
-0.0528002 9.46895 0.342912 
0.248427 0.342912 9.86722 
9.71237 0.00404493 -0.102556 
0.00404493 9.68241 0.365784 
-0.102556 0.365784 9.86005 
9.85938 0.432478 -0.0623302 
0.432478 9.81685 0.231157 
-0.0623302 0.231157 10.5074 
10.153 0.210309 -0.0757812 
0.210309 9.76255 0.158989 
-0.0757812 0.158989 10.2681 
10.1514 0.244344 -0.221899 
0.244344 9.70644 0.30802 
-0.221899 0.30802 10.3258 
10.1309 0.256554 -0.118134 
0.256554 9.71538 0.227278 
-0.118134 0.227278 10.3373 
9.58485 0.0993886 0.585783 
0.0993886 9.88529 -0.192261 
0.585783 -0.192261 9.78557 
9.56884 0.000138415 0.362194 
0.000138415 10.1343 -0.202616 
0.362194 -0.202616 9.55261 
9.8555 0.0478886 0.0858354 
0.0478886 10.0342 -0.0822719 
0.0858354 -0.0822719 9.36599 
9.72853 -0.216503 0.120668 
-0.216503 10.009 -0.642078 
0.120668 -0.642078 9.51823 
9.96546 0.0227587 -0.221492 
0.0227587 9.89153 -0.120785 
-0.221492 -0.120785 9.94629 
9.90949 -0.0359932 -0.193366 
-0.0359932 9.94976 -0.141038 
-0.193366 -0.141038 9.94403 
9.87961 -0.046687 -0.226563 
-0.046687 9.93578 -0.140418 
-0.226563 -0.140418 9.98789 
9.93078 -0.0149576 -0.177687 
-0.0149576 9.91382 -0.165855 
-0.177687 -0.165855 9.95867 
9.93155 -0.0165961 -0.136404 
-0.0165961 9.63397 0.38062 
-0.136404 0.38062 9.44573 
9.82446 -0.0178562 -0.0882242 
-0.0178562 9.64885 0.321599 
-0.0882242 0.321599 9.53794 
9.85494 -0.0195762 -0.0306764 
-0.0195762 9.58967 0.295401 
-0.0306764 0.295401 9.56663 
9.81054 -0.00172475 -0.0758706 
-0.00172475 9.65223 0.307762 
-0.0758706 0.307762 9.54847 
9.71536 0.0139351 -0.24218 
0.0139351 9.85215 0.0163185 
-0.24218 0.0163185 9.87239 
9.75016 0.0182282 -0.25154 
0.0182282 9.84426 0.0187205 
-0.25154 0.0187205 9.84548 
9.74209 0.0177984 -0.241865 
0.0177984 9.83797 0.0200364 
-0.241865 0.0200364 9.85985 
9.73161 0.0282804 -0.242708 
0.0282804 9.81118 0.0321748 
-0.242708 0.0321748 9.89711 
10.4039 -0.0441548 0.143716 
-0.0441548 9.44245 -0.329582 
0.143716 -0.329582 10.7316 
10.1375 0.323787 -0.145482 
0.323787 10.2856 -0.133759 
-0.145482 -0.133759 10.155 
10.0147 0.206999 -0.0110814 
0.206999 9.91168 0.188652 
-0.0110814 0.188652 10.6516 
10.4066 -0.0668718 0.516027 
-0.0668718 9.58095 -0.371295 
0.516027 -0.371295 10.5904 
9.66907 -0.0441585 -0.281772 
-0.0441585 9.65628 -0.32841 
-0.281772 -0.32841 9.89395 
9.79708 -0.0324509 -0.202001 
-0.0324509 9.69347 -0.232997 
-0.202001 -0.232997 9.72875 
9.70628 -0.124615 -0.447264 
-0.124615 9.82893 -0.37622 
-0.447264 -0.37622 9.6841 
9.62287 -0.0762446 -0.292295 
-0.0762446 9.85175 -0.368983 
-0.292295 -0.368983 9.74469 
9.98077 0.0425799 -0.396254 
0.0425799 10.103 0.0272273 
-0.396254 0.0272273 8.89755 
9.72156 -0.00667368 -0.277022 
-0.00667368 9.968 -0.242961 
-0.277022 -0.242961 9.29176 
9.85774 0.0110889 -0.186687 
0.0110889 9.75988 -0.0624668 
-0.186687 -0.0624668 9.3637 
9.7046 -0.0579898 -0.305882 
-0.0579898 10.0692 -0.0665972 
-0.305882 -0.0665972 9.20752 
9.46008 -0.0707019 -0.538785 
-0.0707019 9.82669 -0.561911 
-0.538785 -0.561911 9.46862 
9.44763 -0.22265 -0.423505 
-0.22265 9.70349 -0.403901 
-0.423505 -0.403901 9.60427 
9.43932 -0.088712 -0.50471 
-0.088712 9.82142 -0.454408 
-0.50471 -0.454408 9.49466 
9.48768 0.0428622 -0.404893 
0.0428622 9.89271 -0.442584 
-0.404893 -0.442584 9.375 
9.85742 -0.0153884 0.223247 
-0.0153884 9.91932 0.147978 
0.223247 0.147978 9.96303 
9.84891 -0.0212685 0.201782 
-0.0212685 9.92806 0.132924 
0.201782 0.132924 9.9628 
9.86135 -0.0689493 0.220919 
-0.0689493 9.9073 0.15033 
0.220919 0.15033 9.97113 
9.91877 -0.0115585 0.140943 
-0.0115585 9.87712 0.101418 
0.140943 0.101418 9.94388 
9.95929 0.0116962 0.187583 
0.0116962 9.93343 -0.180024 
0.187583 -0.180024 9.95217 
9.92667 0.0212507 0.199602 
0.0212507 9.95879 -0.17116 
0.199602 -0.17116 9.95944 
9.93423 0.0123319 0.181388 
0.0123319 9.94188 -0.165492 
0.181388 -0.165492 9.96878 
9.96413 0.00977937 0.185091 
0.00977937 9.91832 -0.19931 
0.185091 -0.19931 9.96244 
8.78748 0.378469 0.135463 
0.378469 11.2374 1.4151 
0.135463 1.4151 14.5514 
10.4209 0.243404 0.655599 
0.243404 11.3165 -0.255074 
0.655599 -0.255074 12.8388 
11.1656 -0.510567 0.0850131 
-0.510567 10.4108 0.39253 
0.0850131 0.39253 12.9999 
10.504 -0.561497 0.277058 
-0.561497 10.6428 -0.403668 
0.277058 -0.403668 13.4295 
9.81714 -0.158927 0.286764 
-0.158927 9.94632 -0.128691 
0.286764 -0.128691 10.5637 
9.92607 -0.131873 -0.128437 
-0.131873 10.1227 0.160868 
-0.128437 0.160868 10.2784 
9.46792 -0.0057019 -0.0133638 
-0.0057019 10.0928 -0.0681044 
-0.0133638 -0.0681044 10.7664 
9.6936 -0.112925 0.0423792 
-0.112925 10.0641 -0.00858549 
0.0423792 -0.00858549 10.5695 
11.4961 -0.00624033 0.0676343 
-0.00624033 11.9453 -0.102931 
0.0676343 -0.102931 10.3651 
10.5381 -0.180451 0.22644 
-0.180451 10.8554 -0.00429564 
0.22644 -0.00429564 12.413 
10.7399 -0.089353 0.435765 
-0.089353 10.8568 0.113058 
0.435765 0.113058 12.2098 
10.9189 -0.196954 0.180781 
-0.196954 11.2596 1.29412 
0.180781 1.29412 11.628 
9.83605 0.00608603 -0.167546 
0.00608603 9.83765 -0.124757 
-0.167546 -0.124757 9.92318 
9.82239 -0.0272135 -0.188792 
-0.0272135 9.83862 -0.134011 
-0.188792 -0.134011 9.93586 
9.83141 -0.0504591 -0.178627 
-0.0504591 9.88419 -0.0750454 
-0.178627 -0.0750454 9.88128 
9.82816 -0.0212669 -0.274952 
-0.0212669 9.87893 -0.121612 
-0.274952 -0.121612 9.88979 
10.347 1.32813 0.340708 
1.32813 10.6455 0.410909 
0.340708 0.410909 10.7161 
10.682 0.809741 1.51608 
0.809741 10.6862 -0.435313 
1.51608 -0.435313 10.3403 
10.2906 0.860999 0.749688 
0.860999 8.84783 -1.47694 
0.749688 -1.47694 12.5701 
9.56229 -0.222265 -0.259976 
-0.222265 9.93339 -0.628596 
-0.259976 -0.628596 12.2128 
9.89686 0.0222877 -0.0975719 
0.0222877 9.69202 0.297806 
-0.0975719 0.297806 9.70583 
9.8866 0.0310557 -0.0891155 
0.0310557 9.68454 0.342832 
-0.0891155 0.342832 9.72357 
9.8569 0.0789263 -0.106223 
0.0789263 9.71847 0.250436 
-0.106223 0.250436 9.71934 
9.95463 0.120576 -0.0970154 
0.120576 9.59912 0.376981 
-0.0970154 0.376981 9.74096 
6.77302 2.46923 0.652303 
2.46923 7.15693 2.4646 
0.652303 2.4646 4.76503 
3.82873 -2.10746 -2.98141 
-2.10746 7.28575 4.03856 
-2.98141 4.03856 7.58051 
6.87819 -0.0575349 3.13571 
-0.0575349 10.7569 5.36463 
3.13571 5.36463 1.05989 
5.57534 1.78191 -0.856212 
1.78191 8.89978 3.39973 
-0.856212 3.39973 4.21986 
9.59393 0.0930843 -0.243854 
0.0930843 9.69647 0.353591 
-0.243854 0.353591 10.1942 
9.72452 0.105699 -0.196231 
0.105699 9.77792 0.222614 
-0.196231 0.222614 9.98213 
9.71145 0.133353 -0.239523 
0.133353 9.78088 0.278476 
-0.239523 0.278476 9.99223 
9.76358 0.0358533 -0.299631 
0.0358533 9.7709 0.233274 
-0.299631 0.233274 9.95009 
9.89905 -0.0537934 0.0889522 
-0.0537934 9.7088 0.19348 
0.0889522 0.19348 9.82399 
9.83342 -0.0137155 0.0643531 
-0.0137155 9.75133 0.272332 
0.0643531 0.272332 9.84708 
9.77392 -0.00660317 -0.0456165 
-0.00660317 9.80535 0.214301 
-0.0456165 0.214301 9.85256 
9.84933 -0.00569053 -0.00898043 
-0.00569053 9.69833 0.272568 
-0.00898043 0.272568 9.88417 
9.51846 -0.0443417 -0.168931 
-0.0443417 10.01 0.0521438 
-0.168931 0.0521438 9.67204 
9.68103 -0.0272332 -0.406391 
-0.0272332 9.71609 -0.120935 
-0.406391 -0.120935 9.80339 
9.46452 0.00253546 -0.316319 
0.00253546 9.79519 -0.102863 
-0.316319 -0.102863 9.9408 
9.64034 -0.156999 -0.398709 
-0.156999 9.92613 -0.165932 
-0.398709 -0.165932 9.63404 
12.9819 -2.25508 -1.59477 
-2.25508 5.07349 0.737067 
-1.59477 0.737067 13.5248 
9.36491 -0.58324 -0.645814 
-0.58324 10.4311 1.95145 
-0.645814 1.95145 11.7841 
9.00471 0.926904 -0.717349 
0.926904 11.4286 0.634959 
-0.717349 0.634959 11.1469 
11.725 -1.18853 0.441389 
-1.18853 8.57906 1.77101 
0.441389 1.77101 11.2761 
9.35584 0.00848864 -0.265988 
0.00848864 9.41988 0.464519 
-0.265988 0.464519 10.2333 
9.7585 0.139118 -0.441248 
0.139118 9.47419 0.362422 
-0.441248 0.362422 9.7763 
9.71158 -0.0990165 -0.141291 
-0.0990165 9.86005 0.13095 
-0.141291 0.13095 9.43735 
9.68433 0.122548 -0.517275 
0.122548 9.68486 0.459949 
-0.517275 0.459949 9.63979 
9.75668 -0.0158475 -0.22966 
-0.0158475 9.84498 -0.0831793 
-0.22966 -0.0831793 9.8623 
9.77655 -0.0367652 -0.232161 
-0.0367652 9.84342 -0.0835544 
-0.232161 -0.0835544 9.84398 
9.74073 -0.0347797 -0.24328 
-0.0347797 9.85447 -0.0718533 
-0.24328 -0.0718533 9.86875 
9.74978 -0.0364383 -0.241148 
-0.0364383 9.82706 -0.0753471 
-0.241148 -0.0753471 9.88712 
9.82843 0.0196891 0.147572 
0.0196891 9.77568 -0.191417 
0.147572 -0.191417 9.92435 
9.78715 0.0349035 0.202308 
0.0349035 9.74584 -0.191076 
0.202308 -0.191076 9.99546 
9.8131 0.0511273 0.141454 
0.0511273 9.7862 -0.182677 
0.141454 -0.182677 9.92916 
9.76789 0.0701079 0.113889 
0.0701079 9.8392 -0.142664 
0.113889 -0.142664 9.92136 
10.5496 -0.20654 0.0790885 
-0.20654 9.18738 0.577515 
0.0790885 0.577515 11.1729 
9.73027 0.912897 0.0748721 
0.912897 9.53381 0.228503 
0.0748721 0.228503 11.6458 
10.7187 0.0628633 -0.251229 
0.0628633 9.33011 0.389632 
-0.251229 0.389632 10.8611 
10.9899 -0.00406812 0.470524 
-0.00406812 8.86725 -0.0419617 
0.470524 -0.0419617 11.0528 
9.94011 0.0187697 0.0203921 
0.0187697 9.88365 -0.200541 
0.0203921 -0.200541 9.92459 
9.94938 0.0197605 0.0400049 
0.0197605 9.85759 -0.247735 
0.0400049 -0.247735 9.94139 
9.90178 -0.0031758 0.0506735 
-0.0031758 9.90124 -0.272054 
0.0506735 -0.272054 9.94534 
9.9072 0.0183588 0.074472 
0.0183588 9.89237 -0.247113 
0.074472 -0.247113 9.94879 
9.77051 0.067521 -0.117702 
0.067521 9.70087 0.125044 
-0.117702 0.125044 9.9568 
9.72314 0.104187 -0.162505 
0.104187 9.71193 0.176529 
-0.162505 0.176529 9.99311 
9.7394 -0.00400531 -0.172859 
-0.00400531 9.77959 0.13925 
-0.172859 0.13925 9.90919 
9.75446 0.0645057 -0.135846 
0.0645057 9.72589 0.144106 
-0.135846 0.144106 9.94783 
9.93902 -0.203339 -0.0837345 
-0.203339 10.0738 -0.0111762 
-0.0837345 -0.0111762 10.9512 
10.0165 -0.395787 0.0362021 
-0.395787 10.1553 0.0588406 
0.0362021 0.0588406 10.7923 
9.85456 -0.0230228 0.17256 
-0.0230228 10.3008 -0.112051 
0.17256 -0.112051 10.8086 
9.97378 -0.509037 0.255795 
-0.509037 10.0338 0.287205 
0.255795 0.287205 10.9564 
9.76298 0.0375639 -0.0918171 
0.0375639 9.79571 0.0951388 
-0.0918171 0.0951388 10.0456 
9.82377 0.0479553 -0.112728 
0.0479553 9.82965 0.118681 
-0.112728 0.118681 9.95091 
9.82969 0.0264922 -0.0900744 
0.0264922 9.8173 0.104897 
-0.0900744 0.104897 9.95734 
9.8244 0.0341727 -0.0977872 
0.0341727 9.81674 0.119137 
-0.0977872 0.119137 9.96318 
14.524 -1.4772 -1.83412 
-1.4772 5.57933 0.980727 
-1.83412 0.980727 7.60244 
12.429 -0.249285 -2.00918 
-0.249285 11.6583 0.123378 
-2.00918 0.123378 3.61848 
7.37883 0.647579 -6.38735 
0.647579 9.32483 -3.29268 
-6.38735 -3.29268 11.0021 
8.52004 2.8895 -0.12905 
2.8895 5.79612 1.73332 
-0.12905 1.73332 13.3896 
9.69219 0.125945 0.266216 
0.125945 9.90511 -0.243283 
0.266216 -0.243283 9.79577 
9.8278 -0.0128366 0.35875 
-0.0128366 9.86108 -0.245633 
0.35875 -0.245633 9.70418 
9.78105 -0.0549905 0.30515 
-0.0549905 9.82837 -0.153617 
0.30515 -0.153617 9.78365 
9.80354 0.0547929 0.25961 
0.0547929 9.89156 -0.175254 
0.25961 -0.175254 9.69796 
9.69912 0.0600684 0.224784 
0.0600684 9.78783 -0.0802496 
0.224784 -0.0802496 9.84326 
9.55569 0.078567 0.286333 
0.078567 9.88831 -0.0727709 
0.286333 -0.0727709 9.88621 
9.67478 0.0136635 0.259989 
0.0136635 9.82689 -0.0505643 
0.259989 -0.0505643 9.82855 
9.69585 -0.0510011 0.22862 
-0.0510011 9.83311 -0.0460573 
0.22862 -0.0460573 9.80126 
9.74716 0.0648889 -0.0946317 
0.0648889 9.74263 0.103664 
-0.0946317 0.103664 9.99727 
9.73824 0.0520264 -0.0718117 
0.0520264 9.75081 0.0900324 
-0.0718117 0.0900324 9.99802 
9.73099 0.0464516 -0.0954639 
0.0464516 9.73238 0.0802642 
-0.0954639 0.0802642 10.0237 
9.7396 0.0621726 -0.0868162 
0.0621726 9.74399 0.0899711 
-0.0868162 0.0899711 10.0035 
9.97602 0.16753 -0.230112 
0.16753 9.64342 0.295525 
-0.230112 0.295525 9.91908 
9.77155 0.0275976 -0.158211 
0.0275976 9.86347 0.326392 
-0.158211 0.326392 9.90351 
9.89353 0.0131884 -0.114514 
0.0131884 9.74692 0.173416 
-0.114514 0.173416 9.89808 
9.76176 0.0883992 -0.329285 
0.0883992 9.80473 0.292452 
-0.329285 0.292452 9.97204 
9.6209 2.1506 2.43578 
2.1506 9.06373 -0.660451 
2.43578 -0.660451 1.5 
9.1783 -1.45399 0.585033 
-1.45399 6.17937 0.0162148 
0.585033 0.0162148 4.82695 
7.50033 1.33815 1.74836 
1.33815 6.58711 1.64094 
1.74836 1.64094 6.09719 
9.96919 -0.98296 0.419057 
-0.98296 6.47201 1.2062 
0.419057 1.2062 3.74343 
9.87712 -0.00160725 -0.26108 
-0.00160725 9.8998 2.50469e-05 
-0.26108 2.50469e-05 9.93733 
9.86091 0.00394837 -0.251822 
0.00394837 9.9533 -0.0164432 
-0.251822 -0.0164432 9.90004 
9.8775 0.00762897 -0.221967 
0.00762897 9.92737 -0.0141123 
-0.221967 -0.0141123 9.90938 
9.87775 0.015468 -0.25444 
0.015468 9.90823 0.0139086 
-0.25444 0.0139086 9.92826 
9.91364 0.00291698 -0.0789108 
0.00291698 9.91109 0.231015 
-0.0789108 0.231015 9.94995 
9.92279 0.00299182 -0.071469 
0.00299182 9.89202 0.224169 
-0.071469 0.224169 9.95986 
9.93205 0.0115154 -0.0992197 
0.0115154 9.90572 0.233325 
-0.0992197 0.233325 9.93691 
9.92213 0.00214307 -0.0833319 
0.00214307 9.90866 0.231579 
-0.0833319 0.231579 9.94388 
9.74217 -0.0730677 0.209014 
-0.0730677 9.73439 0.234761 
0.209014 0.234761 10.1056 
9.83116 0.00133078 0.238201 
0.00133078 9.72571 0.249781 
0.238201 0.249781 10.0253 
9.73143 -0.119023 0.227707 
-0.119023 9.7508 0.23722 
0.227707 0.23722 10.0999 
9.70205 -0.138173 0.125983 
-0.138173 9.77732 0.167707 
0.125983 0.167707 10.1028 
9.71588 -0.0208337 -0.344894 
-0.0208337 9.9657 -0.169051 
-0.344894 -0.169051 9.69478 
9.5668 -0.0444177 -0.372478 
-0.0444177 10.0343 -0.272416 
-0.372478 -0.272416 9.77528 
9.70671 -0.0741504 -0.361465 
-0.0741504 10.0171 -0.166515 
-0.361465 -0.166515 9.65256 
9.65135 0.0114581 -0.402163 
0.0114581 9.93489 -0.150736 
-0.402163 -0.150736 9.79012 
9.78926 0.0378054 -0.26133 
0.0378054 9.78883 0.195127 
-0.26133 0.195127 9.74129 
9.88833 -0.010938 -0.30188 
-0.010938 9.74872 0.291185 
-0.30188 0.291185 9.68234 
9.91499 0.0397348 -0.2499 
0.0397348 9.6769 0.372008 
-0.2499 0.372008 9.72749 
9.79639 0.0585241 -0.248949 
0.0585241 9.90491 0.41527 
-0.248949 0.41527 9.61809 
9.81309 0.0517395 -0.242263 
0.0517395 9.73439 0.259371 
-0.242263 0.259371 9.72695 
9.79098 0.0457658 -0.208632 
0.0457658 9.72956 0.301302 
-0.208632 0.301302 9.7539 
9.80777 0.0555942 -0.246028 
0.0555942 9.75205 0.287906 
-0.246028 0.287906 9.71462 
9.7856 0.0658916 -0.242572 
0.0658916 9.74651 0.247938 
-0.242572 0.247938 9.74233 
9.70983 -0.0459329 -0.158964 
-0.0459329 9.69739 0.0656782 
-0.158964 0.0656782 9.01545 
9.76011 -0.013074 -0.170762 
-0.013074 9.64391 0.209921 
-0.170762 0.209921 9.01864 
9.90682 0.0400984 -0.344237 
0.0400984 9.90434 0.210257 
-0.344237 0.210257 8.61151 
9.72733 0.0137482 -0.197369 
0.0137482 9.64965 0.202841 
-0.197369 0.202841 9.04569 
9.636 -0.0969238 0.204628 
-0.0969238 10.8528 0.532414 
0.204628 0.532414 9.29129 
10.0879 -0.849582 0.954419 
-0.849582 10.574 0.318002 
0.954419 0.318002 9.11818 
9.83179 -0.426796 1.13384 
-0.426796 10.3897 1.27367 
1.13384 1.27367 9.55864 
10.3637 -0.75035 0.468267 
-0.75035 9.72123 2.01604 
0.468267 2.01604 9.69514 
9.03314 1.20062 2.62829 
1.20062 9.09867 -0.232113 
2.62829 -0.232113 9.20806 
8.61754 -0.240786 1.63457 
-0.240786 8.94801 0.289921 
1.63457 0.289921 9.77433 
9.56023 0.268451 1.75525 
0.268451 9.20334 -0.529473 
1.75525 -0.529473 8.57631 
10.1391 -0.276539 1.49851 
-0.276539 8.43742 -0.712696 
1.49851 -0.712696 8.76332 
9.90606 -0.00928508 0.0257798 
-0.00928508 9.90055 -0.266728 
0.0257798 -0.266728 9.94655 
9.93984 0.0190562 0.0210714 
0.0190562 9.86571 -0.248032 
0.0210714 -0.248032 9.94761 
9.92501 0.0107212 0.0161851 
0.0107212 9.89571 -0.20606 
0.0161851 -0.20606 9.93244 
9.9154 -0.0223023 -0.00372264 
-0.0223023 9.88646 -0.264659 
-0.00372264 -0.264659 9.9513 
9.77012 0.0802043 -0.249657 
0.0802043 9.87573 0.189726 
-0.249657 0.189726 9.97989 
9.7358 0.0851771 -0.226495 
0.0851771 9.92139 0.196557 
-0.226495 0.196557 9.96856 
9.7504 0.055122 -0.229997 
0.055122 9.8767 0.195158 
-0.229997 0.195158 9.99865 
9.77029 0.088903 -0.230149 
0.088903 9.8295 0.1975 
-0.230149 0.1975 10.026 
9.77192 -0.00495673 0.0409334 
-0.00495673 9.8334 0.227984 
0.0409334 0.227984 9.82066 
9.81463 -0.00763351 0.025313 
-0.00763351 9.77137 0.224117 
0.025313 0.224117 9.83998 
9.84245 -0.0230535 0.0300505 
-0.0230535 9.73804 0.207202 
0.0300505 0.207202 9.84549 
9.8092 -0.0122141 0.0361506 
-0.0122141 9.77158 0.248599 
0.0361506 0.248599 9.84521 
9.62554 -0.301398 -0.176632 
-0.301398 9.75711 0.0402527 
-0.176632 0.0402527 10.4274 
10.0034 -0.18035 -0.283947 
-0.18035 9.80116 -0.136718 
-0.283947 -0.136718 10.0055 
9.88123 -0.193936 -0.2372 
-0.193936 9.7271 -0.219633 
-0.2372 -0.219633 10.2017 
9.81582 -0.0687868 -0.252563 
-0.0687868 9.86632 -0.145398 
-0.252563 -0.145398 10.1279 
10.0199 0.054453 0.00043353 
0.054453 10.2305 -0.000459266 
0.00043353 -0.000459266 10.5846 
9.92947 0.136544 -0.0106549 
0.136544 10.0951 -0.0386986 
-0.0106549 -0.0386986 10.8104 
10.0403 0.0506365 0.116172 
0.0506365 10.142 -0.20002 
0.116172 -0.20002 10.6527 
9.9736 0.0906772 0.0606849 
0.0906772 10.1836 -0.0268719 
0.0606849 -0.0268719 10.6778 
9.7588 -0.476374 -0.360224 
-0.476374 10.0144 -0.247245 
-0.360224 -0.247245 10.4191 
10.2874 -0.00588853 0.238031 
-0.00588853 9.92816 -0.344323 
0.238031 -0.344323 9.97682 
9.46786 -0.487536 -0.216763 
-0.487536 10.0326 0.075521 
-0.216763 0.075521 10.6919 
9.86846 -0.745983 -0.649934 
-0.745983 9.58837 -0.430356 
-0.649934 -0.430356 10.7355 
9.64308 -0.0818283 -0.186206 
-0.0818283 9.72173 0.534965 
-0.186206 0.534965 10.0567 
9.75588 0.134888 -0.123542 
0.134888 9.4542 0.173701 
-0.123542 0.173701 10.2114 
9.69331 0.273816 -0.0588464 
0.273816 9.59212 0.336072 
-0.0588464 0.336072 10.1361 
9.64776 -0.125182 0.0959862 
-0.125182 9.51088 0.393247 
0.0959862 0.393247 10.2629 
9.9252 -0.0293495 -0.0750381 
-0.0293495 9.88338 -0.245171 
-0.0750381 -0.245171 9.94661 
9.93699 -0.0139765 -0.0861342 
-0.0139765 9.87529 -0.240143 
-0.0861342 -0.240143 9.94292 
9.93213 -0.0157017 -0.0568099 
-0.0157017 9.89421 -0.214179 
-0.0568099 -0.214179 9.92885 
9.94634 -0.0267043 -0.0753611 
-0.0267043 9.8718 -0.237496 
-0.0753611 -0.237496 9.93705 
9.78727 -0.0708722 -0.311288 
-0.0708722 9.82638 -0.278578 
-0.311288 -0.278578 9.96406 
9.99661 -0.143905 -0.282568 
-0.143905 9.80723 -0.307926 
-0.282568 -0.307926 9.77387 
9.84141 -0.0878875 -0.212904 
-0.0878875 9.70167 -0.225367 
-0.212904 -0.225367 10.0346 
9.85441 -0.0729239 -0.302151 
-0.0729239 9.71385 -0.275862 
-0.302151 -0.275862 10.0095 
9.72805 -0.0444835 -0.192279 
-0.0444835 9.94562 -0.0206726 
-0.192279 -0.0206726 9.69798 
9.90508 0.0256766 -0.320797 
0.0256766 9.92454 -0.11465 
-0.320797 -0.11465 9.54203 
9.89153 0.00529177 -0.279644 
0.00529177 9.95729 -0.236786 
-0.279644 -0.236786 9.52284 
9.78406 -0.181511 -0.387034 
-0.181511 10.1808 -0.0757633 
-0.387034 -0.0757633 9.40684 
9.82193 -0.0433513 0.111602 
-0.0433513 9.73498 0.19513 
0.111602 0.19513 9.8585 
9.81461 -0.0695346 0.0763822 
-0.0695346 9.72957 0.191747 
0.0763822 0.191747 9.87123 
9.87535 -0.0066306 0.0582832 
-0.0066306 9.74484 0.245591 
0.0582832 0.245591 9.79522 
9.81875 -0.0301499 0.162723 
-0.0301499 9.68413 0.215117 
0.162723 0.215117 9.91252 
9.80093 0.0191407 -0.196209 
0.0191407 9.81944 0.0662755 
-0.196209 0.0662755 9.88228 
9.78522 0.0386375 -0.221946 
0.0386375 9.83127 0.0767695 
-0.221946 0.0767695 9.88616 
9.7785 0.0248255 -0.168148 
0.0248255 9.82852 0.11215 
-0.168148 0.11215 9.89563 
9.78267 0.0135151 -0.206594 
0.0135151 9.80862 0.114806 
-0.206594 0.114806 9.91136 
9.68989 0.109176 -0.137488 
0.109176 9.76859 0.234138 
-0.137488 0.234138 10.2122 
9.73921 0.14496 -0.0346036 
0.14496 9.71535 0.14116 
-0.0346036 0.14116 10.2161 
9.75782 0.100706 -0.126815 
0.100706 9.73117 0.182533 
-0.126815 0.182533 10.1817 
9.87478 0.00238522 -0.181012 
0.00238522 9.72784 0.0649096 
-0.181012 0.0649096 10.068 
9.69522 0.0168766 0.375962 
0.0168766 9.9598 -0.0799028 
0.375962 -0.0799028 9.58115 
9.72871 0.00603732 0.371565 
0.00603732 9.93804 -0.0956304 
0.371565 -0.0956304 9.56942 
9.70103 -0.083512 0.270154 
-0.083512 9.95277 0.0266923 
0.270154 0.0266923 9.58237 
9.72574 0.0465128 0.335118 
0.0465128 9.89214 -0.0843029 
0.335118 -0.0843029 9.6183 
9.35489 -0.407462 -0.512412 
-0.407462 10.1859 -1.26361 
-0.512412 -1.26361 8.17442 
9.04228 -0.789662 -0.319457 
-0.789662 9.85297 -1.778 
-0.319457 -1.778 8.81992 
9.44308 -0.375742 -0.172109 
-0.375742 10.1542 -0.648818 
-0.172109 -0.648818 8.11793 
9.45773 -0.0405877 -1.23807 
-0.0405877 10.8583 -1.08574 
-1.23807 -1.08574 7.39911 
9.93461 -0.00483923 0.014956 
-0.00483923 9.90505 0.226044 
0.014956 0.226044 9.94279 
9.94173 -0.00313578 -0.00123925 
-0.00313578 9.90841 0.242926 
-0.00123925 0.242926 9.93231 
9.93764 -0.0214583 0.00291993 
-0.0214583 9.89725 0.25082 
0.00291993 0.25082 9.94756 
9.95511 -0.0127496 0.000241645 
-0.0127496 9.894 0.22007 
0.000241645 0.22007 9.93334 
10.1558 -0.0906242 -0.050262 
-0.0906242 8.79834 0.950963 
-0.050262 0.950963 8.01615 
10.5254 -0.103081 0.224309 
-0.103081 9.07218 1.06339 
0.224309 1.06339 7.37265 
10.5353 0.320884 -0.904527 
0.320884 8.25566 0.514986 
-0.904527 0.514986 8.17934 
8.68512 -0.0717404 0.411688 
-0.0717404 9.52615 0.761828 
0.411688 0.761828 8.75899 
9.5792 0.49667 -2.40913 
0.49667 8.10764 -0.540048 
-2.40913 -0.540048 9.04357 
9.02317 0.153464 -1.81285 
0.153464 8.59615 -0.521373 
-1.81285 -0.521373 9.11108 
9.34373 0.0132001 -1.21754 
0.0132001 8.70501 0.171085 
-1.21754 0.171085 8.68167 
8.81366 0.146438 -1.79442 
0.146438 8.73716 -0.888316 
-1.79442 -0.888316 9.17958 
8.1987 0.691796 -1.21066 
0.691796 8.97865 0.580375 
-1.21066 0.580375 2.33382 
8.6514 0.588714 -1.43391 
0.588714 8.7932 1.28103 
-1.43391 1.28103 2.06657 
9.57645 0.66014 -0.60653 
0.66014 8.12281 0.122206 
-0.60653 0.122206 1.8119 
9.59812 -0.0448893 -0.873079 
-0.0448893 6.03796 1.60997 
-0.873079 1.60997 3.87508 
9.42597 0.0872735 0.590433 
0.0872735 10.8502 -0.137219 
0.590433 -0.137219 8.89189 
9.71246 0.207213 0.541143 
0.207213 10.4039 -0.580608 
0.541143 -0.580608 9.05166 
9.51593 0.117021 0.473935 
0.117021 10.4935 -0.375138 
0.473935 -0.375138 9.15862 
9.87789 -0.114951 0.264412 
-0.114951 9.97638 0.230344 
0.264412 0.230344 9.31374 
9.82239 -0.127272 0.0575523 
-0.127272 9.64955 0.110601 
0.0575523 0.110601 9.92506 
9.85762 -0.0309074 0.104578 
-0.0309074 9.65088 0.162919 
0.104578 0.162919 9.8885 
9.75398 -0.0624023 0.0972221 
-0.0624023 9.67828 0.16168 
0.0972221 0.16168 9.96474 
9.76464 -0.0728451 0.102928 
-0.0728451 9.65334 0.179024 
0.102928 0.179024 9.97901 
9.87938 0.02203 -0.227916 
0.02203 9.72177 0.169479 
-0.227916 0.169479 9.35967 
9.79449 -0.0138907 -0.151748 
-0.0138907 9.83894 0.277181 
-0.151748 0.277181 9.3274 
9.81864 -0.00952868 -0.226459 
-0.00952868 9.82608 0.259968 
-0.226459 0.259968 9.31611 
10.0304 0.0272516 -0.233352 
0.0272516 9.7136 0.261088 
-0.233352 0.261088 9.2168 
9.66107 -0.0802417 -0.222824 
-0.0802417 9.71433 -0.0752647 
-0.222824 -0.0752647 9.89193 
9.45964 -0.070503 -0.254964 
-0.070503 9.88743 -0.078671 
-0.254964 -0.078671 9.92026 
9.61614 -0.08562 -0.135307 
-0.08562 9.76645 -0.0763976 
-0.135307 -0.0763976 9.88474 
9.57894 -0.0828223 -0.220874 
-0.0828223 9.80055 0.0105412 
-0.220874 0.0105412 9.88783 
10.1266 -0.0188302 0.554882 
-0.0188302 11.1267 0.0713972 
0.554882 0.0713972 12.4302 
11.297 -0.852376 0.0849437 
-0.852376 10.6454 0.0575497 
0.0849437 0.0575497 11.7411 
9.80276 0.0793598 -0.349638 
0.0793598 11.7651 0.0713283 
-0.349638 0.0713283 12.1156 
10.4726 -0.391139 -0.32558 
-0.391139 10.8207 -0.528722 
-0.32558 -0.528722 12.3902 
9.78864 0.00906636 0.359251 
0.00906636 9.96575 0.00896807 
0.359251 0.00896807 9.83196 
9.80829 0.0105608 0.201593 
0.0105608 9.8375 -0.00736582 
0.201593 -0.00736582 9.94055 
9.79201 -0.0416132 0.215841 
-0.0416132 9.90421 0.0661561 
0.215841 0.0661561 9.89012 
9.81795 0.0130042 0.24888 
0.0130042 9.90254 0.0531163 
0.24888 0.0531163 9.86585 
9.72498 -0.373504 0.642772 
-0.373504 9.01933 0.900235 
0.642772 0.900235 8.48618 
9.69682 0.522172 0.689663 
0.522172 9.57545 1.28703 
0.689663 1.28703 7.95821 
10.0126 -0.0842875 0.4441 
-0.0842875 8.91502 0.8239 
0.4441 0.8239 8.3029 
9.53613 0.21624 0.569404 
0.21624 9.13997 0.893015 
0.569404 0.893015 8.55437 
3.77159 0.18835 -0.00357726 
0.18835 4.02948 -0.222674 
-0.00357726 -0.222674 2.11379 
4.29657 -0.210336 -0.200412 
-0.210336 -1.07291 1.65333 
-0.200412 1.65333 6.69121 
8.37738 -5.78398 -0.178998 
-5.78398 6.59488 -2.71047 
-0.178998 -2.71047 -5.0574 
6.85799 0.728406 3.338 
0.728406 2.14832 0.69071 
3.338 0.69071 0.908554 
9.76688 -0.0277488 -0.149572 
-0.0277488 9.77398 -0.154242 
-0.149572 -0.154242 9.91282 
9.75302 -0.0467089 -0.161872 
-0.0467089 9.80112 -0.139927 
-0.161872 -0.139927 9.89954 
9.76653 -0.0582564 -0.163468 
-0.0582564 9.78656 -0.132635 
-0.163468 -0.132635 9.9006 
9.75606 -0.046852 -0.163928 
-0.046852 9.7991 -0.131066 
-0.163928 -0.131066 9.89852 
9.24117 0.115108 0.494122 
0.115108 9.29517 -0.84067 
0.494122 -0.84067 9.69055 
8.98168 -0.199386 0.512767 
-0.199386 8.89658 -0.538944 
0.512767 -0.538944 10.3486 
9.16852 0.00743526 0.35711 
0.00743526 9.35999 -1.01558 
0.35711 -1.01558 9.69838 
9.54693 0.0756704 0.0651494 
0.0756704 9.63149 -0.418139 
0.0651494 -0.418139 9.04847 
9.77071 0.0787393 -0.238846 
0.0787393 9.74085 0.256654 
-0.238846 0.256654 9.90254 
9.78559 0.0585139 -0.211051 
0.0585139 9.73477 0.25492 
-0.211051 0.25492 9.89374 
9.69758 0.021424 -0.201105 
0.021424 9.73806 0.249566 
-0.201105 0.249566 9.97847 
9.79686 0.0538601 -0.20921 
0.0538601 9.75598 0.233469 
-0.20921 0.233469 9.86125 
9.76965 0.0231774 -0.207973 
0.0231774 9.7703 0.0785634 
-0.207973 0.0785634 9.87649 
9.7481 -0.00385309 -0.250326 
-0.00385309 9.83348 0.0289603 
-0.250326 0.0289603 9.83486 
9.73425 0.0536819 -0.250329 
0.0536819 9.86398 0.0592045 
-0.250329 0.0592045 9.81822 
9.73975 0.0145582 -0.235261 
0.0145582 9.81514 0.0527404 
-0.235261 0.0527404 9.86155 
9.78499 -0.0878946 -0.312914 
-0.0878946 9.6703 -0.289582 
-0.312914 -0.289582 9.8143 
9.83732 -0.0635846 -0.302415 
-0.0635846 9.65925 -0.32712 
-0.302415 -0.32712 9.77301 
9.73326 -0.0483917 -0.224479 
-0.0483917 9.73789 -0.316869 
-0.224479 -0.316869 9.79843 
9.92633 -0.0853092 -0.312196 
-0.0853092 9.68193 -0.403952 
-0.312196 -0.403952 9.66132 
9.8467 -0.0260863 -0.016767 
-0.0260863 9.72601 -0.272592 
-0.016767 -0.272592 9.85084 
9.86686 -0.0415493 -0.0184605 
-0.0415493 9.70566 -0.228429 
-0.0184605 -0.228429 9.85103 
9.83445 -0.0535382 -0.0371272 
-0.0535382 9.71878 -0.319085 
-0.0371272 -0.319085 9.87033 
9.83862 -0.00896764 -0.030822 
-0.00896764 9.72997 -0.244192 
-0.030822 -0.244192 9.85496 
9.94423 -0.0245085 -0.167441 
-0.0245085 9.91096 0.182179 
-0.167441 0.182179 9.95022 
9.98717 0.000655583 -0.124538 
0.000655583 9.96082 0.113427 
-0.124538 0.113427 9.85742 
9.94436 -0.018247 -0.119677 
-0.018247 9.95812 0.125847 
-0.119677 0.125847 9.90292 
9.95491 0.0202602 -0.144775 
0.0202602 9.94555 0.177428 
-0.144775 0.177428 9.90495 
11.3701 3.13727 -2.80611 
3.13727 -0.249092 1.40053 
-2.80611 1.40053 21.1358 
8.11868 2.82887 -1.58429 
2.82887 3.76345 1.30414 
-1.58429 1.30414 20.3746 
12.5914 4.21027 2.30737 
4.21027 12.8784 -2.38932 
2.30737 -2.38932 6.78693 
11.0957 -1.38362 -0.774757 
-1.38362 9.91092 3.67748 
-0.774757 3.67748 11.2502 
9.91107 0.00293622 -0.0155979 
0.00293622 9.87432 0.213347 
-0.0155979 0.213347 9.92739 
9.93742 -0.0356145 0.00304169 
-0.0356145 9.83501 0.260192 
0.00304169 0.260192 9.94035 
9.99245 0.0254164 0.00854665 
0.0254164 9.88219 0.279691 
0.00854665 0.279691 9.83814 
9.9368 -0.00447224 -0.00317279 
-0.00447224 9.85924 0.252276 
-0.00317279 0.252276 9.91674 
9.93736 -0.01772 -0.199354 
-0.01772 9.9629 -0.166928 
-0.199354 -0.166928 9.98675 
9.94452 -0.013457 -0.194154 
-0.013457 9.95723 -0.169063 
-0.194154 -0.169063 9.98526 
9.94511 -0.00498804 -0.196591 
-0.00498804 9.94333 -0.163238 
-0.196591 -0.163238 9.99857 
9.94376 -0.0110937 -0.1858 
-0.0110937 9.95867 -0.164578 
-0.1858 -0.164578 9.98458 
9.90303 0.0268005 -0.137258 
0.0268005 9.90729 0.135259 
-0.137258 0.135259 9.91784 
9.89946 -0.00416046 -0.173578 
-0.00416046 9.87136 0.217292 
-0.173578 0.217292 9.95734 
9.88744 0.0296757 -0.151513 
0.0296757 9.86689 0.178738 
-0.151513 0.178738 9.97383 
9.894 0.0214645 -0.156459 
0.0214645 9.88747 0.172989 
-0.156459 0.172989 9.94669 
11.6015 1.01031 -0.187732 
1.01031 11.2901 0.218214 
-0.187732 0.218214 12.2435 
11.1362 0.3577 -0.327136 
0.3577 11.2218 0.0417648 
-0.327136 0.0417648 12.7771 
11.6945 -0.0564409 -0.00390734 
-0.0564409 12.4716 0.433065 
-0.00390734 0.433065 10.969 
12.9899 0.126727 -1.46951 
0.126727 11.1552 0.745608 
-1.46951 0.745608 10.99 
9.64878 -0.159821 0.285903 
-0.159821 9.77523 0.308188 
0.285903 0.308188 10.064 
9.80973 -0.0655041 0.206812 
-0.0655041 9.67601 0.348362 
0.206812 0.348362 10.0023 
9.60322 -0.140525 0.463024 
-0.140525 9.85335 0.389451 
0.463024 0.389451 10.0315 
9.66027 -0.1044 0.263717 
-0.1044 9.69014 0.313555 
0.263717 0.313555 10.1376 
9.79604 -0.0404851 -0.153934 
-0.0404851 9.77495 -0.162552 
-0.153934 -0.162552 9.93507 
9.77512 -0.038059 -0.12094 
-0.038059 9.78368 -0.152829 
-0.12094 -0.152829 9.94725 
9.80086 -0.0493365 -0.177482 
-0.0493365 9.78346 -0.148558 
-0.177482 -0.148558 9.92174 
9.81945 -0.0313817 -0.17161 
-0.0313817 9.76805 -0.149769 
-0.17161 -0.149769 9.91856 
9.935 -0.0533556 -0.529281 
-0.0533556 9.98649 0.255809 
-0.529281 0.255809 9.15237 
9.3991 0.0948511 -0.45391 
0.0948511 9.73038 0.199442 
-0.45391 0.199442 9.94437 
9.46266 0.0663416 -0.538772 
0.0663416 10.1412 0.548025 
-0.538772 0.548025 9.47001 
9.52861 0.199147 -0.397364 
0.199147 9.95603 0.305579 
-0.397364 0.305579 9.58923 
13.7308 0.228453 2.28294 
0.228453 6.14735 1.44547 
2.28294 1.44547 1.23228 
11.1928 1.16864 5.43244 
1.16864 1.37848 -0.553923 
5.43244 -0.553923 8.53913 
6.02574 -1.86918 2.03342 
-1.86918 9.86981 -1.03785 
2.03342 -1.03785 5.21486 
5.94698 -0.643443 3.88438 
-0.643443 10.0738 -3.2284 
3.88438 -3.2284 5.08966 
10.3198 0.0670357 0.0432425 
0.0670357 9.84112 -0.145959 
0.0432425 -0.145959 10.603 
10.1817 -0.213406 0.0616425 
-0.213406 9.82128 0.154957 
0.0616425 0.154957 10.761 
10.1332 -1.1069 -0.145771 
-1.1069 9.53406 0.247245 
-0.145771 0.247245 11.0967 
9.9114 -0.197186 0.239433 
-0.197186 10.2785 0.374968 
0.239433 0.374968 10.574 
9.88901 -0.0254053 0.176846 
-0.0254053 9.89348 0.194671 
0.176846 0.194671 9.96531 
9.91966 -0.0409659 0.187504 
-0.0409659 9.87758 0.184432 
0.187504 0.184432 9.95056 
9.89789 -0.0200367 0.180885 
-0.0200367 9.89279 0.18566 
0.180885 0.18566 9.95712 
9.88719 -0.0301285 0.175636 
-0.0301285 9.90125 0.168338 
0.175636 0.168338 9.95936 
9.64955 0.0669497 0.402671 
0.0669497 10.1636 -0.251821 
0.402671 -0.251821 9.46127 
9.70067 0.0198369 0.412484 
0.0198369 10.0481 -0.166351 
0.412484 -0.166351 9.52567 
9.82338 0.0232208 0.246365 
0.0232208 9.69287 0.0149723 
0.246365 0.0149723 9.75818 
9.62098 -0.0364734 0.603956 
-0.0364734 10.1219 -0.136282 
0.603956 -0.136282 9.53151 
9.73531 0.022542 -0.0365349 
0.022542 9.49786 -0.583031 
-0.0365349 -0.583031 9.93345 
9.86581 -0.186395 -0.547641 
-0.186395 9.65276 -0.475145 
-0.547641 -0.475145 9.64805 
10.1281 -0.330858 -0.380269 
-0.330858 9.76336 -0.502143 
-0.380269 -0.502143 9.2752 
10.0182 0.0188172 -0.211173 
0.0188172 9.57492 -0.450126 
-0.211173 -0.450126 9.57351 
9.91097 0.0435485 -0.188519 
0.0435485 9.90494 0.23934 
-0.188519 0.23934 9.52786 
9.93957 0.0503313 -0.17951 
0.0503313 9.89492 0.171195 
-0.17951 0.171195 9.50929 
9.99362 0.026454 -0.0493355 
0.026454 9.93188 0.236398 
-0.0493355 0.236398 9.41828 
9.85539 -0.115514 0.0411015 
-0.115514 9.68815 0.191819 
0.0411015 0.191819 9.80024 
9.99619 0.0474656 -0.121805 
0.0474656 9.95643 0.224074 
-0.121805 0.224074 9.77907 
9.91684 0.0115561 -0.215775 
0.0115561 9.94827 0.203639 
-0.215775 0.203639 9.86657 
9.92269 0.0153361 -0.141479 
0.0153361 9.90328 0.201585 
-0.141479 0.201585 9.9057 
9.94497 0.00769922 -0.198329 
0.00769922 9.90195 0.222152 
-0.198329 0.222152 9.88476 
9.84064 -0.0822042 -0.133784 
-0.0822042 9.78971 -0.0234525 
-0.133784 -0.0234525 10.0647 
9.82332 -0.196427 -0.18724 
-0.196427 9.79575 -0.131707 
-0.18724 -0.131707 10.0759 
9.72724 -0.122791 -0.0853111 
-0.122791 9.8653 -0.197269 
-0.0853111 -0.197269 10.1025 
9.88905 -0.167912 0.120698 
-0.167912 9.71318 -0.0048745 
0.120698 -0.0048745 10.0928 
8.10315 -0.772617 3.6566 
-0.772617 8.86724 0.381939 
3.6566 0.381939 10.2096 
9.99168 0.980007 1.40058 
0.980007 9.85122 0.720723 
1.40058 0.720723 7.33708 
8.80045 0.395875 2.17284 
0.395875 9.3352 -0.180799 
2.17284 -0.180799 9.04433 
7.39721 0.878074 0.991519 
0.878074 8.52868 -1.4224 
0.991519 -1.4224 11.2541 
9.85934 -0.0487393 0.237985 
-0.0487393 9.96046 0.0347116 
0.237985 0.0347116 9.92795 
9.86412 -0.0162911 0.248795 
-0.0162911 9.93638 0.0190885 
0.248795 0.0190885 9.94725 
9.8971 0.034202 0.185388 
0.034202 9.89607 0.0461795 
0.185388 0.0461795 9.95457 
9.90582 -0.00185671 0.288802 
-0.00185671 9.96961 0.0673379 
0.288802 0.0673379 9.87231 
9.89029 -0.0174393 -0.0727228 
-0.0174393 9.8862 0.254377 
-0.0727228 0.254377 9.95867 
9.9222 0.0156743 -0.0752667 
0.0156743 9.90177 0.191752 
-0.0752667 0.191752 9.91118 
9.91178 0.0301499 -0.0898863 
0.0301499 9.87715 0.217011 
-0.0898863 0.217011 9.94623 
9.90853 0.0100762 -0.0949336 
0.0100762 9.86031 0.210871 
-0.0949336 0.210871 9.96631 
9.91141 -0.227416 4.09093 
-0.227416 7.3052 0.725862 
4.09093 0.725862 6.47564 
10.7997 -0.790368 3.03939 
-0.790368 7.51408 -1.01605 
3.03939 -1.01605 5.3785 
10.3502 -1.09452 3.25917 
-1.09452 7.66845 0.557718 
3.25917 0.557718 5.67356 
7.99727 -1.70668 0.860688 
-1.70668 9.38281 -1.80628 
0.860688 -1.80628 6.31218 
11.147 -0.420387 0.695134 
-0.420387 8.51583 -1.66126 
0.695134 -1.66126 6.52359 
9.75909 0.397512 0.323977 
0.397512 9.53346 -0.0156938 
0.323977 -0.0156938 6.89382 
9.59162 -0.207352 0.595414 
-0.207352 9.1028 -0.227585 
0.595414 -0.227585 7.49196 
8.63357 -0.807381 0.52492 
-0.807381 7.82084 1.06693 
0.52492 1.06693 9.73197 
9.63733 0.121457 -0.353689 
0.121457 9.8164 0.279713 
-0.353689 0.279713 9.91624 
9.73664 0.178502 -0.0487726 
0.178502 9.38335 0.180372 
-0.0487726 0.180372 10.25 
9.46678 0.092796 -0.205343 
0.092796 9.56613 0.1888 
-0.205343 0.1888 10.3371 
9.77415 -0.131655 -0.256352 
-0.131655 9.43153 0.429074 
-0.256352 0.429074 10.1643 
9.92823 0.0197096 -0.0501907 
0.0197096 10.0208 0.0229651 
-0.0501907 0.0229651 10.4135 
9.9631 0.033289 -0.0252847 
0.033289 10.0592 0.0174468 
-0.0252847 0.0174468 10.3403 
9.9014 0.0280333 0.0817914 
0.0280333 10.0923 0.0324843 
0.0817914 0.0324843 10.3688 
9.99182 0.0759915 -0.0269155 
0.0759915 10.0765 -0.032353 
-0.0269155 -0.032353 10.2942 
9.83104 0.281953 -0.24495 
0.281953 9.14342 0.928291 
-0.24495 0.928291 8.68957 
9.48769 -0.249678 0.065297 
-0.249678 9.4547 -0.148377 
0.065297 -0.148377 8.72164 
9.98819 0.199033 -0.132386 
0.199033 9.7461 0.686603 
-0.132386 0.686603 7.92974 
9.86784 0.169872 -0.022742 
0.169872 9.19346 0.994368 
-0.022742 0.994368 8.60273 
9.97994 -0.0176497 -0.217902 
-0.0176497 9.24003 0.637165 
-0.217902 0.637165 11.4529 
10.1537 -0.105358 -0.00451408 
-0.105358 9.7221 0.824998 
-0.00451408 0.824998 10.7971 
9.63675 0.0438566 -0.202156 
0.0438566 10.115 0.255679 
-0.202156 0.255679 10.9211 
9.8061 -0.0274091 -0.26024 
-0.0274091 9.45543 0.292597 
-0.26024 0.292597 11.4114 
9.81248 0.0127793 -0.159443 
0.0127793 9.81125 -0.0498595 
-0.159443 -0.0498595 9.87573 
9.78614 -0.0522365 -0.210489 
-0.0522365 9.81263 -0.0853682 
-0.210489 -0.0853682 9.90068 
9.77602 -0.0248584 -0.20949 
-0.0248584 9.84106 -0.0919128 
-0.20949 -0.0919128 9.88238 
9.79595 -0.0230656 -0.223793 
-0.0230656 9.82132 -0.0922573 
-0.223793 -0.0922573 9.88219 
9.75102 -0.104772 -0.103154 
-0.104772 9.83393 -0.116862 
-0.103154 -0.116862 9.86452 
9.79182 -0.00355563 -0.190503 
-0.00355563 9.72213 -0.0550151 
-0.190503 -0.0550151 9.93552 
9.73865 -0.00992884 -0.198647 
-0.00992884 9.81556 -0.131436 
-0.198647 -0.131436 9.89525 
9.75108 -0.037854 -0.200368 
-0.037854 9.78933 -0.0976657 
-0.200368 -0.0976657 9.90906 
9.19183 -0.774888 -0.41668 
-0.774888 10.9657 0.423096 
-0.41668 0.423096 13.2322 
11.5736 0.0706548 0.363846 
0.0706548 9.92227 1.26307 
0.363846 1.26307 11.8939 
10.2804 -0.259579 0.799151 
-0.259579 10.1468 0.341967 
0.799151 0.341967 12.9625 
10.3208 0.14376 0.694542 
0.14376 10.2819 0.134164 
0.694542 0.134164 12.787 
9.84552 0.01256 -0.219928 
0.01256 9.50197 0.159429 
-0.219928 0.159429 9.92262 
9.77538 0.0143658 0.0434719 
0.0143658 9.8182 0.41154 
0.0434719 0.41154 9.67653 
10.0839 -0.0340452 -0.321599 
-0.0340452 9.70266 0.423719 
-0.321599 0.423719 9.48356 
9.8854 0.139912 0.0319461 
0.139912 9.51374 0.351783 
0.0319461 0.351783 9.87097 
10.7842 0.0878361 0.00710391 
0.0878361 10.697 -0.322021 
0.00710391 -0.322021 9.46457 
10.3393 0.0508626 0.0250713 
0.0508626 10.1094 -0.126586 
0.0250713 -0.126586 10.4971 
10.0261 0.0682314 0.0435446 
0.0682314 9.80689 0.267338 
0.0435446 0.267338 11.1128 
10.4308 -0.0962731 -0.431775 
-0.0962731 9.5146 -0.634116 
-0.431775 -0.634116 11.0004 
9.74312 -0.0733629 -0.105375 
-0.0733629 9.71399 -0.111876 
-0.105375 -0.111876 9.93865 
9.72672 -0.0321869 -0.132315 
-0.0321869 9.77426 -0.196259 
-0.132315 -0.196259 9.89478 
9.7666 -0.0437371 -0.125981 
-0.0437371 9.70595 -0.164599 
-0.125981 -0.164599 9.92321 
9.7657 -0.13696 -0.118216 
-0.13696 9.60792 -0.211748 
-0.118216 -0.211748 10.0221 
9.88682 -0.0502224 -0.0489532 
-0.0502224 10.0423 -0.00265225 
-0.0489532 -0.00265225 10.3073 
10.0343 -0.17665 0.0446516 
-0.17665 10.041 -0.0399263 
0.0446516 -0.0399263 10.1611 
9.75166 -0.0755548 0.0292881 
-0.0755548 10.0645 -0.0336831 
0.0292881 -0.0336831 10.4202 
9.91966 -0.0785023 -0.0108208 
-0.0785023 10.0711 -0.0722319 
-0.0108208 -0.0722319 10.2456 
9.61006 -0.091801 0.299197 
-0.091801 9.90799 0.270195 
0.299197 0.270195 10.0348 
9.75434 -0.0490668 0.277669 
-0.0490668 9.84975 0.149919 
0.277669 0.149919 9.94874 
9.75106 -0.0906483 0.299395 
-0.0906483 9.98871 0.145381 
0.299395 0.145381 9.81306 
9.73469 -0.0267273 0.208499 
-0.0267273 9.87297 0.161307 
0.208499 0.161307 9.94517 
9.22882 0.0633483 0.418764 
0.0633483 9.57809 -0.996555 
0.418764 -0.996555 9.62821 
9.37802 0.093735 0.233839 
0.093735 9.61148 -0.634961 
0.233839 -0.634961 9.44561 
9.52525 0.150833 0.582931 
0.150833 8.96147 -0.815033 
0.582931 -0.815033 9.9484 
9.39126 -0.0862897 0.331279 
-0.0862897 9.44433 -0.659921 
0.331279 -0.659921 9.59953 
8.72763 -1.19642 -0.723775 
-1.19642 9.77965 0.455711 
-0.723775 0.455711 12.8996 
10.5326 0.343486 -0.316367 
0.343486 10.3133 -0.439654 
-0.316367 -0.439654 10.5609 
11.4049 -0.435214 0.213373 
-0.435214 10.8694 -0.859303 
0.213373 -0.859303 9.13249 
11.1965 -0.716088 -0.67466 
-0.716088 8.73978 -1.5729 
-0.67466 -1.5729 11.4706 
9.94025 -0.310461 0.773256 
-0.310461 9.65594 0.850904 
0.773256 0.850904 8.66042 
10.3029 0.0843828 0.285932 
0.0843828 9.93807 0.656886 
0.285932 0.656886 8.01561 
9.85657 0.296957 -0.0453225 
0.296957 9.43675 -0.210385 
-0.0453225 -0.210385 8.96328 
9.89559 0.0791752 0.508039 
0.0791752 9.56529 0.918177 
0.508039 0.918177 8.79573 
9.80267 0.0401374 -0.137319 
0.0401374 9.78567 0.181106 
-0.137319 0.181106 9.96101 
9.78195 0.0555813 -0.165676 
0.0555813 9.78866 0.163779 
-0.165676 0.163779 9.97874 
9.80771 0.0317677 -0.100622 
0.0317677 9.78736 0.163018 
-0.100622 0.163018 9.95429 
9.82789 0.0264086 -0.177664 
0.0264086 9.79387 0.181514 
-0.177664 0.181514 9.92759 
9.31456 -0.0852801 0.0950546 
-0.0852801 9.83061 -0.016003 
0.0950546 -0.016003 10.5451 
9.37692 -0.17114 -0.115941 
-0.17114 9.75853 0.0161216 
-0.115941 0.0161216 10.5548 
9.81875 0.0908713 -0.554165 
0.0908713 9.793 -0.206675 
-0.554165 -0.206675 10.0785 
9.21807 -0.157179 -0.310597 
-0.157179 9.64714 0.419705 
-0.310597 0.419705 10.825 
10.213 -0.288263 -0.15293 
-0.288263 8.85555 0.374464 
-0.15293 0.374464 11.8112 
9.11795 0.0285043 -0.922612 
0.0285043 12.0925 1.03186 
-0.922612 1.03186 9.66927 
11.0867 -0.125784 -0.299597 
-0.125784 8.58391 0.66461 
-0.299597 0.66461 11.2092 
11.0444 -0.391069 -0.595925 
-0.391069 8.35089 1.58906 
-0.595925 1.58906 11.4845 
9.792 0.0997734 -0.248325 
0.0997734 9.7696 0.217124 
-0.248325 0.217124 9.986 
9.73516 0.0366918 -0.161858 
0.0366918 9.78233 0.162801 
-0.161858 0.162801 10.0301 
9.81195 0.0787306 -0.199431 
0.0787306 9.73409 0.227661 
-0.199431 0.227661 10.0016 
9.79941 0.0909458 -0.180341 
0.0909458 9.7329 0.219362 
-0.180341 0.219362 10.0153 
9.91185 0.0117344 -0.114071 
0.0117344 9.84596 0.243582 
-0.114071 0.243582 9.90284 
9.91456 0.0218341 -0.129025 
0.0218341 9.86422 0.261454 
-0.129025 0.261454 9.88187 
9.91248 0.0118401 -0.0900596 
0.0118401 9.83603 0.237768 
-0.0900596 0.237768 9.91213 
9.90108 0.02059 -0.109925 
0.02059 9.86099 0.257982 
-0.109925 0.257982 9.89858 
9.78343 0.0419062 -0.108896 
0.0419062 9.64638 0.202943 
-0.108896 0.202943 9.90848 
9.80838 0.10472 -0.150223 
0.10472 9.63972 0.218947 
-0.150223 0.218947 9.89018 
9.76024 0.0474662 -0.113697 
0.0474662 9.68912 0.200123 
-0.113697 0.200123 9.88893 
9.73174 0.0433828 -0.133433 
0.0433828 9.70689 0.166669 
-0.133433 0.166669 9.89966 
9.87595 0.0148759 -0.37581 
0.0148759 9.52484 0.359187 
-0.37581 0.359187 9.69993 
9.66317 0.0256346 -0.363992 
0.0256346 9.52804 0.683214 
-0.363992 0.683214 9.90952 
9.80623 -0.0236368 -0.386281 
-0.0236368 9.53805 0.3296 
-0.386281 0.3296 9.75644 
9.87442 0.0239611 -0.447364 
0.0239611 9.66978 0.333061 
-0.447364 0.333061 9.55652 
9.58213 -0.0352417 -0.407692 
-0.0352417 10.8432 -0.0516768 
-0.407692 -0.0516768 8.96175 
9.90942 -0.0877495 0.265883 
-0.0877495 10.8463 -0.245549 
0.265883 -0.245549 8.63144 
9.45282 0.138379 -0.190636 
0.138379 10.8709 0.157337 
-0.190636 0.157337 9.0634 
9.40854 -0.638244 -0.302774 
-0.638244 11.4207 0.609469 
-0.302774 0.609469 8.55792 
9.88734 -0.010158 -0.200602 
-0.010158 9.93538 -0.0330479 
-0.200602 -0.0330479 9.92944 
9.85569 -0.018067 -0.247242 
-0.018067 9.94657 -0.049234 
-0.247242 -0.049234 9.9499 
9.907 -2.84686e-05 -0.270457 
-2.84686e-05 9.89442 -0.0499126 
-0.270457 -0.0499126 9.95074 
9.88285 -0.0169593 -0.247002 
-0.0169593 9.91676 -0.0748499 
-0.247002 -0.0748499 9.95255 
9.86272 -0.0510589 -0.205128 
-0.0510589 10.033 -0.0571871 
-0.205128 -0.0571871 9.64657 
9.84447 -0.055513 -0.245043 
-0.055513 9.98962 -0.00943537 
-0.245043 -0.00943537 9.70824 
9.81778 -0.0395625 -0.249858 
-0.0395625 10.0151 0.0874526 
-0.249858 0.0874526 9.70944 
9.81846 0.0127473 -0.317708 
0.0127473 9.88527 0.0614655 
-0.317708 0.0614655 9.8386 
9.76015 -0.108971 0.141494 
-0.108971 9.76275 0.177891 
0.141494 0.177891 10.1774 
9.76155 -0.149815 0.148207 
-0.149815 9.84404 0.208256 
0.148207 0.208256 10.0947 
9.76328 -0.110159 0.150516 
-0.110159 9.77346 0.177077 
0.150516 0.177077 10.1636 
9.75545 -0.0762396 0.178985 
-0.0762396 9.7896 0.145321 
0.178985 0.145321 10.1553 
9.79087 0.0512907 0.166619 
0.0512907 9.80453 -0.164685 
0.166619 -0.164685 9.94528 
9.79624 0.0489762 0.179603 
0.0489762 9.80813 -0.15198 
0.179603 -0.15198 9.93632 
9.77514 0.0364832 0.144338 
0.0364832 9.81757 -0.158501 
0.144338 -0.158501 9.94797 
9.8275 0.0293667 0.178925 
0.0293667 9.79129 -0.161881 
0.178925 -0.161881 9.9219 
9.92016 0.0546406 0.290125 
0.0546406 9.67706 0.334062 
0.290125 0.334062 9.7211 
9.68813 -0.0565731 0.285697 
-0.0565731 9.84043 0.173844 
0.285697 0.173844 9.78976 
9.90792 -0.0398049 0.168082 
-0.0398049 9.70458 0.211544 
0.168082 0.211544 9.70582 
9.80889 -0.0581663 0.330239 
-0.0581663 9.93758 0.316469 
0.330239 0.316469 9.57184 
9.73442 -0.143962 -0.199733 
-0.143962 9.51163 -0.340583 
-0.199733 -0.340583 9.76807 
9.81518 -0.10241 -0.184829 
-0.10241 9.48794 -0.274603 
-0.184829 -0.274603 9.71101 
9.79215 -0.121478 -0.205599 
-0.121478 9.45492 -0.291944 
-0.205599 -0.291944 9.76706 
9.75049 -0.172569 -0.186329 
-0.172569 9.5273 -0.313609 
-0.186329 -0.313609 9.73634 
9.93362 -0.00468081 0.0306822 
-0.00468081 9.9436 0.246813 
0.0306822 0.246813 10.0078 
9.98281 -0.00761533 0.0227182 
-0.00761533 9.94558 0.239737 
0.0227182 0.239737 9.95658 
9.95549 -0.00594848 0.0331094 
-0.00594848 9.93144 0.235881 
0.0331094 0.235881 9.99805 
9.98758 0.0058424 0.0399175 
0.0058424 9.94282 0.246089 
0.0399175 0.246089 9.95458 
5.80463 -0.0772382 -1.07322 
-0.0772382 3.9533 0.378643 
-1.07322 0.378643 -0.413662 
1.87848 1.73401 0.64051 
1.73401 1.16935 -1.89572 
0.64051 -1.89572 6.29643 
9.08332 0.366836 -0.616344 
0.366836 2.77884 1.14943 
-0.616344 1.14943 -2.51789 
5.78513 0.200186 -0.230268 
0.200186 5.65205 -2.55288 
-0.230268 -2.55288 -2.09291 
9.83387 -0.0874602 -0.233016 
-0.0874602 9.67691 -0.236033 
-0.233016 -0.236033 9.96388 
9.79082 -0.0582294 -0.188848 
-0.0582294 9.70514 -0.262082 
-0.188848 -0.262082 9.97871 
9.73582 -0.0801388 -0.186538 
-0.0801388 9.75232 -0.206094 
-0.186538 -0.206094 9.98653 
9.77835 -0.0817002 -0.174686 
-0.0817002 9.72394 -0.238549 
-0.174686 -0.238549 9.97237 
9.63703 -0.0693886 0.260365 
-0.0693886 9.74528 0.289476 
0.260365 0.289476 9.7725 
9.5803 -0.120464 0.266914 
-0.120464 9.74868 0.319076 
0.266914 0.319076 9.82583 
9.66623 -0.160656 0.357402 
-0.160656 9.7211 0.444949 
0.357402 0.444949 9.76748 
9.58593 -0.0981237 0.264003 
-0.0981237 9.69696 0.277226 
0.264003 0.277226 9.87192 
9.88784 0.0189965 -0.0383205 
0.0189965 9.86504 0.0712273 
-0.0383205 0.0712273 9.96815 
9.86486 0.051507 -0.0777775 
0.051507 9.84695 0.0228044 
-0.0777775 0.0228044 10.0092 
9.84024 0.0298046 -0.0388278 
0.0298046 9.88739 0.0603949 
-0.0388278 0.0603949 9.9934 
9.88813 0.0397197 -0.0321852 
0.0397197 9.81265 0.000778533 
-0.0321852 0.000778533 10.0203 
10.0939 -0.00179567 0.0304474 
-0.00179567 10.1137 0.0483435 
0.0304474 0.0483435 10.403 
10.14 -0.148219 0.0426246 
-0.148219 10.0382 0.013935 
0.0426246 0.013935 10.4325 
10.1274 -0.0368944 0.00349229 
-0.0368944 10.1245 0.0123732 
0.00349229 0.0123732 10.3587 
10.1218 0.0725645 0.0554291 
0.0725645 10.1787 0.0944267 
0.0554291 0.0944267 10.3101 
9.92996 -0.018575 -0.0106804 
-0.018575 9.86186 -0.226562 
-0.0106804 -0.226562 9.90124 
9.92322 0.0144939 0.0140416 
0.0144939 9.86106 -0.263331 
0.0140416 -0.263331 9.90878 
9.94389 0.0119793 0.00256636 
0.0119793 9.85053 -0.26358 
0.00256636 -0.26358 9.89863 
10.0122 -0.00717505 -1.50681e-05 
-0.00717505 9.85469 -0.325453 
-1.50681e-05 -0.325453 9.82616 
9.68427 -0.019753 -0.34246 
-0.019753 9.9605 -0.0563006 
-0.34246 -0.0563006 9.74987 
9.5597 -0.0384305 -0.317453 
-0.0384305 9.91871 -0.176484 
-0.317453 -0.176484 9.91622 
9.69042 -0.028642 -0.270478 
-0.028642 9.85598 0.00117843 
-0.270478 0.00117843 9.84824 
9.63697 -0.0224137 -0.307484 
-0.0224137 9.93672 -0.071725 
-0.307484 -0.071725 9.82095 
7.80841 0.230845 1.92039 
0.230845 11.1323 0.340584 
1.92039 0.340584 10.7226 
7.35026 0.239378 1.03048 
0.239378 10.1609 -0.0167225 
1.03048 -0.0167225 12.1522 
9.05275 1.92146 4.20289 
1.92146 8.05359 0.365643 
4.20289 0.365643 12.557 
9.92686 1.87671 -0.332411 
1.87671 9.62622 -1.33288 
-0.332411 -1.33288 10.1103 
10.1299 -0.15719 -0.636413 
-0.15719 9.22586 -0.868028 
-0.636413 -0.868028 10.2143 
9.56088 0.00741664 -0.546883 
0.00741664 9.99622 -0.0301968 
-0.546883 -0.0301968 10.013 
9.7763 -0.352101 -0.404628 
-0.352101 9.43318 -0.486163 
-0.404628 -0.486163 10.3606 
9.42042 -0.0879763 -0.723657 
-0.0879763 9.46928 -0.205573 
-0.723657 -0.205573 10.6804 
9.77286 -0.35996 -0.998528 
-0.35996 9.43216 -0.726572 
-0.998528 -0.726572 8.92048 
10.4777 0.0537493 -0.726797 
0.0537493 9.34124 -0.251984 
-0.726797 -0.251984 8.30653 
9.85113 -0.77084 -1.18542 
-0.77084 9.33911 -0.965776 
-1.18542 -0.965776 8.93526 
10.1779 -0.311814 -0.623773 
-0.311814 9.08768 -0.796315 
-0.623773 -0.796315 8.85994 
9.4818 0.0981892 -0.483169 
0.0981892 9.54024 0.48592 
-0.483169 0.48592 10.0685 
9.56037 0.192164 -0.438618 
0.192164 9.56405 0.349509 
-0.438618 0.349509 9.96613 
9.51964 -0.00939152 -0.384633 
-0.00939152 9.57494 0.38735 
-0.384633 0.38735 9.99598 
9.57636 0.207802 -0.345192 
0.207802 9.50374 0.428186 
-0.345192 0.428186 10.0105 
9.84932 0.00025859 -0.0796644 
0.00025859 9.83696 -0.0987046 
-0.0796644 -0.0987046 9.93237 
9.81941 -0.0447728 -0.0863895 
-0.0447728 9.82562 -0.0994916 
-0.0863895 -0.0994916 9.97362 
9.85133 -0.00566641 -0.0823052 
-0.00566641 9.8306 -0.109063 
-0.0823052 -0.109063 9.93671 
9.83556 -0.00274337 -0.10082 
-0.00274337 9.84381 -0.117589 
-0.10082 -0.117589 9.93927 
9.80642 0.0396034 -0.257179 
0.0396034 9.73488 0.232495 
-0.257179 0.232495 9.93652 
9.9312 -0.0613833 -0.222544 
-0.0613833 9.6959 0.381911 
-0.222544 0.381911 9.85072 
9.95486 0.0612579 -0.118461 
0.0612579 9.78722 0.267491 
-0.118461 0.267491 9.73574 
9.85118 0.104678 -0.19653 
0.104678 9.78388 0.281766 
-0.19653 0.281766 9.84276 
9.388 0.671964 0.518251 
0.671964 9.82429 -0.393706 
0.518251 -0.393706 10.3286 
9.21159 0.268662 0.272334 
0.268662 10.3396 -0.0893209 
0.272334 -0.0893209 9.98972 
9.3558 0.639324 0.24729 
0.639324 9.95297 -0.212288 
0.24729 -0.212288 10.2321 
9.9192 0.397192 0.434102 
0.397192 9.28929 -0.18831 
0.434102 -0.18831 10.3324 
9.40994 -0.0828132 -0.43613 
-0.0828132 10.0516 -0.201573 
-0.43613 -0.201573 9.34121 
9.31131 0.0830362 -0.220956 
0.0830362 9.66963 -0.281333 
-0.220956 -0.281333 9.82177 
9.54153 -0.0963589 -0.480938 
-0.0963589 9.9635 -0.457189 
-0.480938 -0.457189 9.29768 
9.52562 -0.0134588 -0.388908 
-0.0134588 9.99924 -0.233217 
-0.388908 -0.233217 9.27785 
8.98822 -1.8744 1.04338 
-1.8744 10.7721 -2.92892 
1.04338 -2.92892 7.8416 
10.818 -0.103703 -3.55052 
-0.103703 12.2671 -1.668 
-3.55052 -1.668 4.51681 
10.3999 1.67275 -0.996586 
1.67275 8.21344 -0.26102 
-0.996586 -0.26102 8.98854 
8.85417 -0.339984 -0.880262 
-0.339984 11.9823 -1.53688 
-0.880262 -1.53688 6.76538 
12.9153 0.361394 -0.496515 
0.361394 12.299 -0.473423 
-0.496515 -0.473423 11.1697 
11.1072 0.798111 -0.571106 
0.798111 12.5939 0.13396 
-0.571106 0.13396 12.6828 
11.967 0.906786 -0.490298 
0.906786 11.668 0.332626 
-0.490298 0.332626 12.749 
12.5504 1.47095 0.383714 
1.47095 11.8384 0.0984618 
0.383714 0.0984618 11.9951 
9.83271 -0.871998 0.415371 
-0.871998 9.68736 0.714012 
0.415371 0.714012 12.1471 
9.59306 -0.361877 -0.899535 
-0.361877 9.99291 -0.277695 
-0.899535 -0.277695 12.0812 
10.3774 0.147948 -0.506092 
0.147948 10.6207 -0.367853 
-0.506092 -0.367853 10.6691 
9.6873 -0.00585212 -0.49357 
-0.00585212 10.4448 -0.229653 
-0.49357 -0.229653 11.5351 
9.83489 0.0535561 0.576563 
0.0535561 9.94895 0.822274 
0.576563 0.822274 10.0726 
10.0001 0.410512 0.280861 
0.410512 8.88696 0.751901 
0.280861 0.751901 10.9693 
9.91332 -0.255973 -0.446229 
-0.255973 9.19251 1.43029 
-0.446229 1.43029 10.7506 
10.5324 0.221704 0.602994 
0.221704 9.68294 0.62883 
0.602994 0.62883 9.64108 
9.83012 -0.0582405 -0.522995 
-0.0582405 9.4401 0.104068 
-0.522995 0.104068 10.0589 
9.73123 -0.21974 -0.330443 
-0.21974 10.4793 -0.738578 
-0.330443 -0.738578 9.11858 
9.66777 -0.137144 -0.262022 
-0.137144 9.95761 -0.791369 
-0.262022 -0.791369 9.70375 
10.0302 -0.441906 -0.501314 
-0.441906 9.51378 -1.59091 
-0.501314 -1.59091 9.78513 
6.77925 -4.10845 -3.30144 
-4.10845 7.41729 4.84869 
-3.30144 4.84869 7.2783 
6.85306 -0.768246 -0.547007 
-0.768246 9.59678 3.40639 
-0.547007 3.40639 5.02501 
7.43064 -0.508523 -1.8398 
-0.508523 9.03515 1.48682 
-1.8398 1.48682 5.00905 
5.72958 -0.146394 -0.0665636 
-0.146394 9.51532 2.12024 
-0.0665636 2.12024 6.22994 
9.83543 -0.0364686 -0.248936 
-0.0364686 9.90044 -0.195678 
-0.248936 -0.195678 9.90404 
9.8038 -0.0793008 -0.260866 
-0.0793008 9.88528 -0.196563 
-0.260866 -0.196563 9.95083 
9.77993 -0.0275037 -0.208389 
-0.0275037 9.89581 -0.125356 
-0.208389 -0.125356 9.96417 
9.81633 -0.0344712 -0.258818 
-0.0344712 9.92292 -0.196971 
-0.258818 -0.196971 9.90065 
9.79963 -0.167911 -0.112009 
-0.167911 9.92751 0.0610574 
-0.112009 0.0610574 9.76694 
9.82027 0.07106 -0.0786229 
0.07106 9.7572 0.0894357 
-0.0786229 0.0894357 9.91661 
9.77362 0.0481543 -0.102967 
0.0481543 9.75259 0.13719 
-0.102967 0.13719 9.96787 
9.72135 0.055965 -0.109687 
0.055965 9.86599 0.101748 
-0.109687 0.101748 9.90674 
10.0261 -0.0183679 -0.0266481 
-0.0183679 9.75193 0.305809 
-0.0266481 0.305809 9.79908 
9.99611 -0.00183461 -0.0686119 
-0.00183461 9.74939 0.328502 
-0.0686119 0.328502 9.83157 
9.82547 0.0127249 0.0287229 
0.0127249 9.8078 0.25008 
0.0287229 0.25008 9.9438 
9.95117 -0.0149712 -0.0304353 
-0.0149712 9.79028 0.268116 
-0.0304353 0.268116 9.83563 
11.1239 0.222701 0.986549 
0.222701 9.77868 -0.803683 
0.986549 -0.803683 8.79238 
11.0962 0.907412 1.25349 
0.907412 9.84212 -0.17114 
1.25349 -0.17114 8.75663 
9.45381 -0.128445 0.0578261 
-0.128445 10.3693 -0.267765 
0.0578261 -0.267765 9.87176 
11.4752 0.364736 0.915704 
0.364736 9.85386 -1.72822 
0.915704 -1.72822 8.36582 
9.95856 -0.00237619 0.0150262 
-0.00237619 9.92368 0.210637 
0.0150262 0.210637 9.9682 
9.9849 -0.00181017 0.0434359 
-0.00181017 9.89541 0.23513 
0.0434359 0.23513 9.97013 
9.95522 0.00918848 0.0265399 
0.00918848 9.91023 0.269978 
0.0265399 0.269978 9.98499 
9.9644 0.0400548 0.0170332 
0.0400548 9.92888 0.285677 
0.0170332 0.285677 9.95715 
7.55383 0.0108319 -0.870817 
0.0108319 11.2357 0.836938 
-0.870817 0.836938 5.02166 
7.14674 -0.793961 -1.02857 
-0.793961 10.8003 -0.0225845 
-1.02857 -0.0225845 5.86412 
6.88574 -0.687457 -0.459298 
-0.687457 10.4865 -0.628642 
-0.459298 -0.628642 6.43899 
8.46082 0.057027 -1.1705 
0.057027 10.908 -0.0386377 
-1.1705 -0.0386377 4.4424 
9.61478 0.0118391 -0.566695 
0.0118391 9.47618 -0.461789 
-0.566695 -0.461789 8.82316 
9.42037 -0.124423 -0.622498 
-0.124423 9.55537 -0.353775 
-0.622498 -0.353775 8.93838 
9.58592 0.147001 -0.467869 
0.147001 9.3436 -0.488096 
-0.467869 -0.488096 8.9846 
9.63952 -0.129656 -0.533852 
-0.129656 9.44754 -0.476966 
-0.533852 -0.476966 8.82706 
9.84345 -0.193708 0.0404411 
-0.193708 9.93477 0.102288 
0.0404411 0.102288 10.4797 
9.96078 -0.259594 0.169598 
-0.259594 10.0051 0.0530917 
0.169598 0.0530917 10.2921 
9.62316 -0.191503 0.205413 
-0.191503 9.93735 0.121888 
0.205413 0.121888 10.6975 
9.88228 -0.18387 0.0932849 
-0.18387 9.97464 0.0239869 
0.0932849 0.0239869 10.401 
9.71166 -0.179293 -0.10168 
-0.179293 9.78283 -0.00631162 
-0.10168 -0.00631162 9.93044 
9.65978 0.0574922 -0.265245 
0.0574922 9.84043 -0.124759 
-0.265245 -0.124759 9.92473 
9.60913 -0.119796 -0.0777048 
-0.119796 9.72107 -0.24586 
-0.0777048 -0.24586 10.0947 
9.71635 -0.29913 -0.187431 
-0.29913 9.70683 -0.149115 
-0.187431 -0.149115 10.0018 
9.8904 -0.0209329 0.049125 
-0.0209329 9.78581 0.251928 
0.049125 0.251928 9.85753 
9.81594 0.0360602 0.0338666 
0.0360602 9.82231 0.271753 
0.0338666 0.271753 9.89551 
9.88563 -0.00556606 0.00943573 
-0.00556606 9.77179 0.214157 
0.00943573 0.214157 9.87633 
9.93808 -0.018012 -0.028975 
-0.018012 9.70846 0.239151 
-0.028975 0.239151 9.88721 
9.95465 -0.00626566 0.168078 
-0.00626566 9.92466 -0.105719 
0.168078 -0.105719 9.96499 
9.93146 0.0192469 0.197249 
0.0192469 9.93568 -0.137703 
0.197249 -0.137703 9.97717 
9.92823 -0.011807 0.213689 
-0.011807 9.92452 -0.161348 
0.213689 -0.161348 9.99155 
9.92272 0.0311672 0.190591 
0.0311672 9.93456 -0.141853 
0.190591 -0.141853 9.98703 
9.86816 0.0224272 -0.380898 
0.0224272 9.61042 0.0302586 
-0.380898 0.0302586 9.75247 
9.68464 -0.0875496 -0.212366 
-0.0875496 9.84426 -0.278538 
-0.212366 -0.278538 9.70214 
9.43989 -0.0348755 -0.26437 
-0.0348755 10.1559 -0.0704535 
-0.26437 -0.0704535 9.63528 
9.55648 -0.0414889 -0.467194 
-0.0414889 9.88701 -0.0253974 
-0.467194 -0.0253974 9.78756 
9.89754 -0.00592221 -0.243599 
-0.00592221 9.91065 -0.0269384 
-0.243599 -0.0269384 9.94319 
9.89071 0.00327998 -0.25604 
0.00327998 9.92454 -0.0294444 
-0.25604 -0.0294444 9.93614 
9.8933 -0.0129996 -0.219543 
-0.0129996 9.9339 -0.0124911 
-0.219543 -0.0124911 9.92418 
9.88743 -0.0148218 -0.24742 
-0.0148218 9.91876 -0.0301498 
-0.24742 -0.0301498 9.94519 
9.70814 -0.0330807 -0.383888 
-0.0330807 10.0214 -0.017467 
-0.383888 -0.017467 9.70175 
9.69261 -0.000371742 -0.285414 
-0.000371742 9.89618 0.0293183 
-0.285414 0.0293183 9.8425 
9.5767 0.0271193 -0.325126 
0.0271193 10.0032 0.160328 
-0.325126 0.160328 9.85136 
9.62264 0.0111255 -0.330062 
0.0111255 10.0142 0.0252482 
-0.330062 0.0252482 9.7945 
9.49018 0.141357 -0.346021 
0.141357 9.53493 0.20366 
-0.346021 0.20366 9.85132 
9.57159 -0.0091733 -0.344396 
-0.0091733 9.55063 0.199982 
-0.344396 0.199982 9.75421 
9.69204 0.417447 -0.644712 
0.417447 9.5215 0.389643 
-0.644712 0.389643 9.66289 
9.54834 0.118787 -0.225251 
0.118787 9.64133 0.328578 
-0.225251 0.328578 9.68676 
9.68883 0.0461042 0.205848 
0.0461042 9.83971 -0.0519323 
0.205848 -0.0519323 9.86743 
9.8247 0.0335673 0.142188 
0.0335673 9.76131 -0.0683344 
0.142188 -0.0683344 9.80996 
9.91136 0.00256072 0.127628 
0.00256072 9.74938 -0.0422337 
0.127628 -0.0422337 9.73523 
9.74047 0.0516588 0.11458 
0.0516588 9.76903 -0.0765467 
0.11458 -0.0765467 9.88648 
9.82861 0.0080777 -0.350696 
0.0080777 9.74243 -0.371504 
-0.350696 -0.371504 9.87467 
9.73256 -0.0982206 -0.402256 
-0.0982206 9.71269 -0.44717 
-0.402256 -0.44717 10.0005 
9.89596 -0.0788068 -0.384704 
-0.0788068 9.80845 -0.460171 
-0.384704 -0.460171 9.7413 
10.0753 -0.0667442 -0.39887 
-0.0667442 9.62695 -0.281687 
-0.39887 -0.281687 9.7435 
9.92587 -0.00734339 -0.25924 
-0.00734339 9.9491 0.00326912 
-0.25924 0.00326912 9.96149 
9.93133 0.0166313 -0.233985 
0.0166313 9.93672 0.00242838 
-0.233985 0.00242838 9.96841 
9.93123 0.0149317 -0.230573 
0.0149317 9.91109 0.0132613 
-0.230573 0.0132613 9.99414 
9.92724 0.00072129 -0.257178 
0.00072129 9.95848 0.00922096 
-0.257178 0.00922096 9.95074 
9.99171 -0.197545 0.191171 
-0.197545 10.2697 -0.0658649 
0.191171 -0.0658649 10.4356 
9.83826 0.0102315 -0.273324 
0.0102315 10.4478 0.00698702 
-0.273324 0.00698702 10.4109 
10.527 0.327453 -0.126977 
0.327453 10.0768 -0.0643464 
-0.126977 -0.0643464 10.0932 
10.2379 0.257892 -0.156666 
0.257892 9.89518 0.0944758 
-0.156666 0.0944758 10.5639 
9.76229 0.0193865 -0.0498789 
0.0193865 9.81537 0.106124 
-0.0498789 0.106124 9.96085 
9.83133 0.073248 -0.0410245 
0.073248 9.76535 -0.0192846 
-0.0410245 -0.0192846 9.94182 
9.75996 0.0424424 -0.0507593 
0.0424424 9.78778 0.0665818 
-0.0507593 0.0665818 9.99077 
9.81847 1.45797e-05 -0.122119 
1.45797e-05 9.76014 0.0739031 
-0.122119 0.0739031 9.9599 
9.71817 0.107458 -0.117384 
0.107458 9.69766 0.0276683 
-0.117384 0.0276683 10.0116 
9.75327 0.0641135 -0.140594 
0.0641135 9.76742 0.0951759 
-0.140594 0.0951759 9.90678 
9.76309 -0.030624 -0.152027 
-0.030624 9.87792 0.117737 
-0.152027 0.117737 9.78646 
9.75116 0.076722 -0.242233 
0.076722 9.74496 0.174635 
-0.242233 0.174635 9.93135 
8.34168 1.09113 -1.2376 
1.09113 6.128 0.454622 
-1.2376 0.454622 2.46543 
9.27541 -0.0130759 -1.47462 
-0.0130759 5.7778 -0.828448 
-1.47462 -0.828448 1.88191 
8.18506 -0.0501516 -2.96787 
-0.0501516 6.67796 0.0414444 
-2.96787 0.0414444 2.07209 
8.81561 0.133441 -2.35298 
0.133441 5.15294 -0.580692 
-2.35298 -0.580692 2.96657 
9.97103 0.0302923 -0.178445 
0.0302923 9.98997 -0.137105 
-0.178445 -0.137105 9.963 
9.95088 -0.0186259 -0.205738 
-0.0186259 9.96702 -0.169522 
-0.205738 -0.169522 10.0061 
9.98083 -0.0153586 -0.194573 
-0.0153586 9.94588 -0.159355 
-0.194573 -0.159355 9.99729 
9.96755 -0.0201507 -0.182064 
-0.0201507 9.95702 -0.149256 
-0.182064 -0.149256 9.99943 
10.099 -0.119163 -0.131953 
-0.119163 10.4383 -0.141963 
-0.131953 -0.141963 11.284 
9.69955 -0.168033 0.0108356 
-0.168033 10.7969 -0.166867 
0.0108356 -0.166867 11.3249 
9.94883 -0.068132 -0.0669846 
-0.068132 10.6819 -0.19036 
-0.0669846 -0.19036 11.1907 
10.6644 0.109945 0.936189 
0.109945 10.0961 -0.054422 
0.936189 -0.054422 11.0608 
6.99065 -0.625639 -5.94979 
-0.625639 10.1665 0.524979 
-5.94979 0.524979 13.9853 
13.738 -1.38323 -3.05214 
-1.38323 8.39365 0.16491 
-3.05214 0.16491 9.01078 
8.54246 -0.916239 -3.19122 
-0.916239 10.2744 0.521157 
-3.19122 0.521157 12.3256 
5.20557 0.641709 1.18762 
0.641709 13.001 -0.693419 
1.18762 -0.693419 12.9359 
9.95845 0.42877 0.0580004 
0.42877 9.70865 -0.0778522 
0.0580004 -0.0778522 10.4264 
9.95818 0.0920249 -0.0161118 
0.0920249 9.92073 0.0233854 
-0.0161118 0.0233854 10.2146 
9.97201 0.0436148 0.0143795 
0.0436148 9.92954 -0.0830568 
0.0143795 -0.0830568 10.1919 
9.88298 0.0575774 0.0299935 
0.0575774 9.9967 0.0513014 
0.0299935 0.0513014 10.2138 
9.98759 -0.0128791 0.0685925 
-0.0128791 9.92815 0.211059 
0.0685925 0.211059 9.91379 
9.96344 -0.0393889 0.0786808 
-0.0393889 9.94401 0.244937 
0.0786808 0.244937 9.92208 
9.90119 -0.0478782 0.0789233 
-0.0478782 9.96326 0.282312 
0.0789233 0.282312 9.96508 
9.97189 -0.0367918 0.0366934 
-0.0367918 9.96343 0.192736 
0.0366934 0.192736 9.8942 
4.24609 2.0456 -0.349435 
2.0456 1.18313 2.66794 
-0.349435 2.66794 8.4419 
10.4051 -0.860238 -0.806862 
-0.860238 5.10922 -2.3798 
-0.806862 -2.3798 -1.64322 
11.1741 0.840177 -0.580999 
0.840177 6.39428 -1.05833 
-0.580999 -1.05833 -3.69725 
6.30197 -2.96422 -6.27896 
-2.96422 6.24447 -0.846906 
-6.27896 -0.846906 1.32469 
9.6403 0.163095 -0.133115 
0.163095 9.7011 0.0869311 
-0.133115 0.0869311 9.92103 
9.61877 0.168269 -0.20194 
0.168269 9.72087 0.14313 
-0.20194 0.14313 9.92279 
9.54906 0.138379 -0.170948 
0.138379 9.72927 0.206733 
-0.170948 0.206733 9.9841 
9.68998 -0.0693447 -0.245953 
-0.0693447 9.73687 0.115558 
-0.245953 0.115558 9.83558 
9.9744 -0.0424347 -0.0875437 
-0.0424347 9.86931 -0.242574 
-0.0875437 -0.242574 9.96692 
9.94763 -0.0183617 -0.0893521 
-0.0183617 9.9016 -0.207932 
-0.0893521 -0.207932 9.9614 
9.94279 -0.0251591 -0.116986 
-0.0251591 9.88881 -0.23671 
-0.116986 -0.23671 9.97903 
9.93574 -0.0383992 -0.131946 
-0.0383992 9.91247 -0.241926 
-0.131946 -0.241926 9.96242 
9.85373 -0.0160289 0.0448366 
-0.0160289 9.84495 0.209645 
0.0448366 0.209645 9.84053 
9.87778 -0.00605938 -0.018432 
-0.00605938 9.8023 0.207087 
-0.018432 0.207087 9.85912 
9.8884 -0.0170349 0.0574978 
-0.0170349 9.78208 0.243717 
0.0574978 0.243717 9.86873 
9.84684 0.032304 -0.00335868 
0.032304 9.7995 0.27587 
-0.00335868 0.27587 9.89286 
9.84814 0.0554979 -0.242017 
0.0554979 10.06 -0.0334466 
-0.242017 -0.0334466 9.71506 
9.90825 -0.00700112 -0.241768 
-0.00700112 9.96063 0.0746121 
-0.241768 0.0746121 9.75435 
9.87048 -0.00956322 -0.232161 
-0.00956322 9.94712 -0.0153252 
-0.232161 -0.0153252 9.80563 
9.89605 -0.0140272 -0.269966 
-0.0140272 9.89163 -0.00312736 
-0.269966 -0.00312736 9.83555 
10.8613 -2.53048 1.02735 
-2.53048 10.2041 0.271138 
1.02735 0.271138 11.1197 
9.41879 2.38135 2.50881 
2.38135 13.3001 -0.106566 
2.50881 -0.106566 9.46624 
8.03591 1.37821 1.5309 
1.37821 10.6462 0.465087 
1.5309 0.465087 13.5031 
11.0078 -0.705902 3.52677 
-0.705902 9.17124 1.00898 
3.52677 1.00898 12.0061 
9.86036 0.439676 0.121779 
0.439676 10.8095 -0.0458662 
0.121779 -0.0458662 11.3726 
10.1358 -0.0379045 -0.140669 
-0.0379045 10.3077 0.251702 
-0.140669 0.251702 11.599 
10.0553 0.103714 -0.098949 
0.103714 10.438 -0.219185 
-0.098949 -0.219185 11.5491 
10.8465 0.0925914 0.514048 
0.0925914 9.64608 -0.598937 
0.514048 -0.598937 11.5499 
9.84685 0.0402108 -0.124795 
0.0402108 9.83797 0.115067 
-0.124795 0.115067 9.7888 
9.85031 0.0141454 -0.116984 
0.0141454 9.7572 0.109974 
-0.116984 0.109974 9.86609 
9.77347 0.039527 -0.12779 
0.039527 9.77478 0.00256076 
-0.12779 0.00256076 9.92536 
9.82537 0.0234345 -0.0971349 
0.0234345 9.78211 0.0961732 
-0.0971349 0.0961732 9.86613 
9.80247 -0.14062 0.00211306 
-0.14062 9.63756 -0.0285282 
0.00211306 -0.0285282 10.4626 
9.98187 -0.30655 -0.00605243 
-0.30655 9.38914 -0.143944 
-0.00605243 -0.143944 10.5316 
9.99902 -0.0159972 0.00542131 
-0.0159972 9.58677 -0.146435 
0.00542131 -0.146435 10.3169 
9.66232 -0.108706 0.0594216 
-0.108706 9.85083 0.209867 
0.0594216 0.209867 10.3895 
9.83296 0.0107321 -0.0228011 
0.0107321 9.72424 -0.336707 
-0.0228011 -0.336707 9.60149 
9.89642 -0.00015383 -0.0311954 
-0.00015383 9.70271 -0.345492 
-0.0311954 -0.345492 9.55955 
9.86989 -0.0235823 -0.0405039 
-0.0235823 9.70186 -0.318928 
-0.0405039 -0.318928 9.58693 
9.87991 -0.0465697 -0.0994105 
-0.0465697 9.68901 -0.266301 
-0.0994105 -0.266301 9.58976 
9.65234 -0.00799704 0.336894 
-0.00799704 10.0272 0.0414525 
0.336894 0.0414525 9.59348 
9.63072 0.0728567 0.375934 
0.0728567 9.99861 -0.0315681 
0.375934 -0.0315681 9.6437 
9.59559 -0.124372 0.527528 
-0.124372 10.0384 -0.0396965 
0.527528 -0.0396965 9.639 
9.55672 -0.0737807 0.361508 
-0.0737807 9.92293 -0.0632522 
0.361508 -0.0632522 9.79338 
10.1993 0.0676657 0.0545085 
0.0676657 9.79029 0.140339 
0.0545085 0.140339 10.0544 
9.9639 0.265249 -0.139731 
0.265249 9.74518 -0.296918 
-0.139731 -0.296918 10.3349 
9.98357 0.218034 -0.0325479 
0.218034 9.7 -0.0152926 
-0.0325479 -0.0152926 10.3604 
10.1631 0.0483932 -0.197101 
0.0483932 9.59372 0.115377 
-0.197101 0.115377 10.2871 
9.84469 -0.105713 -0.0253402 
-0.105713 9.1676 -0.370706 
-0.0253402 -0.370706 8.56964 
9.64309 0.0916264 0.426341 
0.0916264 9.3738 -0.208683 
0.426341 -0.208683 8.56503 
10.4467 0.264327 0.369484 
0.264327 8.96855 -0.647773 
0.369484 -0.647773 8.16664 
9.93864 0.11752 0.201905 
0.11752 9.11963 -0.407548 
0.201905 -0.407548 8.52366 
9.65044 0.00336635 0.0117149 
0.00336635 9.78692 0.236187 
0.0117149 0.236187 10.0601 
10.0873 0.0771534 -0.389641 
0.0771534 9.69172 0.340655 
-0.389641 0.340655 9.71837 
9.97881 0.250427 -0.223352 
0.250427 9.72989 0.138346 
-0.223352 0.138346 9.78872 
9.88767 0.0697765 -0.199838 
0.0697765 9.61327 0.665982 
-0.199838 0.665982 9.99648 
10.1037 -0.0147901 -0.161274 
-0.0147901 9.96046 -0.187333 
-0.161274 -0.187333 10.7804 
10.1591 0.0087498 -0.0584274 
0.0087498 9.9414 -0.0532513 
-0.0584274 -0.0532513 10.7441 
10.3465 -0.127046 -0.00087383 
-0.127046 9.68039 -0.0161399 
-0.00087383 -0.0161399 10.8177 
10.2816 -0.163199 0.102327 
-0.163199 10.1917 0.118818 
0.102327 0.118818 10.3712 
9.79657 -0.0520729 -0.244828 
-0.0520729 9.92014 -0.110607 
-0.244828 -0.110607 9.71703 
9.7721 -0.011265 -0.315618 
-0.011265 9.90049 -0.178212 
-0.315618 -0.178212 9.76114 
9.79715 -0.0453381 -0.286488 
-0.0453381 9.86011 -0.161727 
-0.286488 -0.161727 9.77647 
9.73526 -9.0333e-05 -0.298111 
-9.0333e-05 9.86225 -0.169042 
-0.298111 -0.169042 9.83621 
9.70091 -0.063977 -0.174642 
-0.063977 9.76649 -0.117882 
-0.174642 -0.117882 9.91792 
9.70972 -0.0783757 -0.177791 
-0.0783757 9.75179 -0.134717 
-0.177791 -0.134717 9.92382 
9.72843 -0.0425279 -0.169567 
-0.0425279 9.74727 -0.132391 
-0.169567 -0.132391 9.90963 
9.72064 -0.0542079 -0.16867 
-0.0542079 9.74244 -0.12388 
-0.16867 -0.12388 9.92225 
9.6881 -0.0827479 -0.180153 
-0.0827479 9.85353 -0.141255 
-0.180153 -0.141255 9.96837 
9.78567 -0.125608 -0.246231 
-0.125608 9.83412 -0.285822 
-0.246231 -0.285822 9.8902 
9.77004 -0.0681557 -0.215682 
-0.0681557 9.70827 -0.251622 
-0.215682 -0.251622 10.0317 
9.68921 -0.0872268 -0.241901 
-0.0872268 9.74041 -0.258826 
-0.241901 -0.258826 10.0804 
9.87808 0.0881494 0.0522107 
0.0881494 9.90601 -0.00178781 
0.0522107 -0.00178781 11.0561 
10.1501 -0.292974 0.361763 
-0.292974 10.0753 -0.104086 
0.361763 -0.104086 10.6148 
9.83045 -0.133935 -0.00639431 
-0.133935 9.92888 -0.00560074 
-0.00639431 -0.00560074 11.0808 
9.8212 -0.229553 0.168549 
-0.229553 10.1799 0.228024 
0.168549 0.228024 10.8391 
9.7347 0.102297 -0.319307 
0.102297 9.81318 0.24995 
-0.319307 0.24995 9.94935 
9.78601 0.0923323 -0.337462 
0.0923323 9.65029 0.217567 
-0.337462 0.217567 10.0609 
9.844 0.0877925 -0.162777 
0.0877925 9.70638 0.128433 
-0.162777 0.128433 9.94685 
9.95266 0.198248 -0.296909 
0.198248 9.78387 0.30949 
-0.296909 0.30949 9.76069 
9.93757 -0.0123992 0.206427 
-0.0123992 9.91949 0.14651 
0.206427 0.14651 10.0116 
9.91796 -0.0229207 0.205941 
-0.0229207 9.96034 0.148023 
0.205941 0.148023 9.99038 
9.90862 -0.0298862 0.192799 
-0.0298862 9.95382 0.15502 
0.192799 0.15502 10.0062 
9.95703 0.00331082 0.143846 
0.00331082 9.92182 0.135837 
0.143846 0.135837 9.98982 
9.78297 -0.233021 -0.0142042 
-0.233021 9.71126 -0.100109 
-0.0142042 -0.100109 10.3302 
9.80277 -0.174518 -0.727003 
-0.174518 9.87278 -0.177291 
-0.727003 -0.177291 10.1489 
9.609 -0.272847 -0.511274 
-0.272847 9.79821 -0.124201 
-0.511274 -0.124201 10.4172 
8.96413 0.229502 -0.856112 
0.229502 9.9764 -0.031783 
-0.856112 -0.031783 10.8839 
9.82728 -0.0221239 -0.0307285 
-0.0221239 9.72675 -0.208048 
-0.0307285 -0.208048 9.79169 
9.85116 -0.0296658 -0.0309487 
-0.0296658 9.68075 -0.205907 
-0.0309487 -0.205907 9.81381 
9.77652 -0.037208 -0.054488 
-0.037208 9.70015 -0.225114 
-0.054488 -0.225114 9.86906 
9.79665 -0.0266726 -0.0229773 
-0.0266726 9.69951 -0.196848 
-0.0229773 -0.196848 9.84956 
4.34589 -0.550689 -1.33933 
-0.550689 5.18143 -0.0334861 
-1.33933 -0.0334861 1.07225 
-1.85126 0.364024 -0.678075 
0.364024 7.56806 0.569726 
-0.678075 0.569726 4.88277 
8.77437 8.40688 -7.12964 
8.40688 13.3263 -4.68557 
-7.12964 -4.68557 -11.5011 
0.916153 1.02927 -0.623885 
1.02927 5.14084 -3.0481 
-0.623885 -3.0481 4.54258 
9.15629 -0.775564 -0.0266098 
-0.775564 9.78441 -0.255348 
-0.0266098 -0.255348 9.77026 
9.84564 0.258351 0.87915 
0.258351 9.55821 0.855385 
0.87915 0.855385 9.3071 
9.49305 0.334529 1.18431 
0.334529 9.27729 1.26666 
1.18431 1.26666 9.94061 
9.97301 0.277169 0.72698 
0.277169 9.68143 1.19291 
0.72698 1.19291 9.05652 
11.9951 -1.44154 -1.41933 
-1.44154 6.84887 0.860556 
-1.41933 0.860556 15.6979 
9.72726 2.58764 -1.28951 
2.58764 12.3889 0.578633 
-1.28951 0.578633 12.4256 
12.5548 0.664243 0.412621 
0.664243 8.85719 -2.15968 
0.412621 -2.15968 13.1298 
10.246 0.50263 -0.0169455 
0.50263 10.0093 -1.40137 
-0.0169455 -1.40137 14.2864 
9.87637 0.0376139 0.119036 
0.0376139 9.86181 -0.186746 
0.119036 -0.186746 9.94765 
9.87907 0.033826 0.126709 
0.033826 9.85153 -0.201254 
0.126709 -0.201254 9.95523 
9.87889 0.0537473 0.16012 
0.0537473 9.84836 -0.175894 
0.16012 -0.175894 9.95857 
9.90069 0.00907088 0.154044 
0.00907088 9.85512 -0.245583 
0.154044 -0.245583 9.93001 
9.73959 -0.103567 -0.120637 
-0.103567 9.76477 -0.121259 
-0.120637 -0.121259 9.93595 
9.7802 -0.185893 -0.122557 
-0.185893 9.69708 -0.151123 
-0.122557 -0.151123 9.96302 
9.74921 -0.0531417 -0.0640232 
-0.0531417 9.71427 -0.197808 
-0.0640232 -0.197808 9.97682 
9.6992 -0.115491 -0.0981214 
-0.115491 9.77975 -0.0852043 
-0.0981214 -0.0852043 9.96136 
9.75173 0.0341988 -0.00901185 
0.0341988 9.86721 -0.158136 
-0.00901185 -0.158136 9.75507 
9.83811 0.00531231 -0.0404787 
0.00531231 9.77926 -0.174989 
-0.0404787 -0.174989 9.75663 
9.79708 -0.0238498 -0.0495421 
-0.0238498 9.68906 -0.253625 
-0.0495421 -0.253625 9.88786 
9.82408 0.0150816 0.0167941 
0.0150816 9.70276 -0.203186 
0.0167941 -0.203186 9.84716 
9.67795 -0.0511007 0.139936 
-0.0511007 9.83362 -0.103724 
0.139936 -0.103724 10.0821 
9.87945 -0.109963 -0.179482 
-0.109963 9.81334 -0.10415 
-0.179482 -0.10415 9.90093 
9.83162 -0.060176 -0.114807 
-0.060176 9.90052 0.0271336 
-0.114807 0.0271336 9.86159 
9.81198 0.0318734 -0.119456 
0.0318734 9.75711 -0.241343 
-0.119456 -0.241343 10.0246 
10.1161 0.0830555 0.0484234 
0.0830555 9.61849 -0.345431 
0.0484234 -0.345431 9.70973 
9.97489 -0.0623396 -0.132108 
-0.0623396 9.68905 -0.303756 
-0.132108 -0.303756 9.78036 
9.80385 -0.0331076 0.0179512 
-0.0331076 9.74683 -0.311351 
0.0179512 -0.311351 9.89362 
9.96569 -0.00928935 -0.0482769 
-0.00928935 9.68932 -0.322102 
-0.0482769 -0.322102 9.78928 
9.75253 0.00472804 -0.213883 
0.00472804 9.77066 -0.0929614 
-0.213883 -0.0929614 9.85558 
9.70664 0.00100576 -0.226473 
0.00100576 9.83134 -0.0244741 
-0.226473 -0.0244741 9.84079 
9.70777 -0.0111046 -0.24499 
-0.0111046 9.80797 -0.0674438 
-0.24499 -0.0674438 9.86303 
9.74557 -0.0259745 -0.225614 
-0.0259745 9.82007 -0.011566 
-0.225614 -0.011566 9.81313 
10.2225 0.0424596 0.0216657 
0.0424596 10.2727 0.0215213 
0.0216657 0.0215213 10.5844 
10.4877 -0.0390673 -0.0162829 
-0.0390673 10.1731 -0.100018 
-0.0162829 -0.100018 10.4187 
10.3644 0.033012 -0.111745 
0.033012 10.4482 -0.0977618 
-0.111745 -0.0977618 10.267 
10.5462 -0.0650498 -0.0675394 
-0.0650498 10.0524 -0.13019 
-0.0675394 -0.13019 10.4809 
9.73106 -0.160091 -0.0969835 
-0.160091 9.89548 -0.572184 
-0.0969835 -0.572184 10.1652 
9.76907 -0.213593 -0.163089 
-0.213593 9.68102 -0.663558 
-0.163089 -0.663558 10.3416 
9.63845 -0.31011 -0.156612 
-0.31011 10.0681 -0.646709 
-0.156612 -0.646709 10.0852 
9.76003 -0.12724 -0.251137 
-0.12724 9.74504 -0.523776 
-0.251137 -0.523776 10.2867 
9.84418 -0.0108809 -0.193072 
-0.0108809 9.90319 0.138503 
-0.193072 0.138503 9.77054 
9.90503 0.0923999 -0.184248 
0.0923999 9.93569 0.16587 
-0.184248 0.16587 9.6772 
9.90853 0.0241939 -0.157111 
0.0241939 9.91717 0.149022 
-0.157111 0.149022 9.69222 
9.87346 0.0207957 -0.143405 
0.0207957 9.86162 0.174678 
-0.143405 0.174678 9.78283 
9.7946 -0.0345269 -0.177876 
-0.0345269 9.84064 -0.0633453 
-0.177876 -0.0633453 9.90016 
9.77893 -0.0501874 -0.177184 
-0.0501874 9.81012 -0.143132 
-0.177184 -0.143132 9.94636 
9.76857 -0.0809547 -0.199792 
-0.0809547 9.81862 -0.106539 
-0.199792 -0.106539 9.94822 
9.79337 0.0544432 -0.25876 
0.0544432 9.80787 -0.123255 
-0.25876 -0.123255 9.93417 
2.51275 -2.3576 2.01562 
-2.3576 8.94846 1.24897 
2.01562 1.24897 27.3691 
11.8195 -3.69777 -1.99543 
-3.69777 15.862 -1.56044 
-1.99543 -1.56044 11.1488 
5.17511 0.0685626 1.1617 
0.0685626 13.1445 1.2252 
1.1617 1.2252 20.5107 
11.8357 0.0445349 3.14978 
0.0445349 12.1814 0.473534 
3.14978 0.473534 14.8132 
7.41893 0.750762 -1.40518 
0.750762 9.01287 -0.596333 
-1.40518 -0.596333 1.86857 
6.78568 -0.815603 -0.146562 
-0.815603 6.18696 -1.9348 
-0.146562 -1.9348 5.32774 
7.19255 0.826857 -1.05031 
0.826857 8.53805 -1.56991 
-1.05031 -1.56991 2.56978 
6.82849 -0.066294 -1.25111 
-0.066294 8.7868 0.245266 
-1.25111 0.245266 2.68509 
10.9295 0.671065 -0.287857 
0.671065 10.2222 0.552822 
-0.287857 0.552822 10.4071 
10.1398 0.471673 0.169301 
0.471673 9.84511 0.119056 
0.169301 0.119056 11.5739 
9.91176 -0.583351 -0.572673 
-0.583351 10.4385 0.0888425 
-0.572673 0.0888425 11.2086 
9.65761 -0.321148 0.268766 
-0.321148 10.9257 -0.351586 
0.268766 -0.351586 10.9755 
9.81592 -0.282202 -0.200756 
-0.282202 9.80332 0.0817702 
-0.200756 0.0817702 10.2357 
9.88099 -0.146126 -0.209665 
-0.146126 9.78332 -0.191858 
-0.209665 -0.191858 10.1907 
9.80499 -0.0403375 -0.124819 
-0.0403375 9.8137 -0.165859 
-0.124819 -0.165859 10.2363 
9.84433 -0.0882097 -0.159195 
-0.0882097 9.84877 -0.140692 
-0.159195 -0.140692 10.1619 
10.2798 -0.00414933 -0.0261245 
-0.00414933 10.5228 0.0422929 
-0.0261245 0.0422929 10.3511 
10.7633 -0.0436263 0.0876956 
-0.0436263 10.2144 0.0615055 
0.0876956 0.0615055 10.1759 
10.2978 -0.49091 0.1815 
-0.49091 10.3241 0.076876 
0.1815 0.076876 10.5318 
10.4033 -0.168929 0.13973 
-0.168929 10.3234 0.0731565 
0.13973 0.0731565 10.4269 
9.5993 0.0966794 -0.32948 
0.0966794 9.88065 0.418439 
-0.32948 0.418439 10.0522 
9.72577 0.102266 -0.376188 
0.102266 10.034 0.397586 
-0.376188 0.397586 9.77241 
9.61683 0.0582132 -0.29087 
0.0582132 9.99172 0.408915 
-0.29087 0.408915 9.92361 
9.66359 0.103513 -0.113107 
0.103513 9.96852 0.298934 
-0.113107 0.298934 9.90004 
9.92116 0.0266239 -0.212621 
0.0266239 9.701 0.331949 
-0.212621 0.331949 9.83913 
9.86346 0.0694531 -0.23993 
0.0694531 9.72071 0.255705 
-0.23993 0.255705 9.87712 
9.89944 0.0769319 -0.226066 
0.0769319 9.70554 0.271508 
-0.226066 0.271508 9.85631 
9.91418 0.108668 -0.214292 
0.108668 9.71803 0.257153 
-0.214292 0.257153 9.82908 
5.78364 -3.16624 0.095406 
-3.16624 6.37729 -0.950081 
0.095406 -0.950081 -1.35659 
3.80229 0.34556 -0.712792 
0.34556 6.36658 0.423927 
-0.712792 0.423927 0.635482 
4.01516 0.564082 -1.10773 
0.564082 3.49998 -0.0203024 
-1.10773 -0.0203024 3.2892 
3.91977 -0.703309 -2.14211 
-0.703309 5.4728 2.46878 
-2.14211 2.46878 1.41178 
9.82232 0.0146949 0.23687 
0.0146949 9.90307 -0.0498705 
0.23687 -0.0498705 9.91368 
9.83432 0.0246557 0.246383 
0.0246557 9.89419 -0.0724526 
0.246383 -0.0724526 9.91056 
9.82495 0.00915581 0.227771 
0.00915581 9.89361 -0.0581363 
0.227771 -0.0581363 9.9205 
9.83166 0.00595002 0.230639 
0.00595002 9.87551 -0.0595471 
0.230639 -0.0595471 9.9319 
9.39806 -1.14437 0.302468 
-1.14437 9.85144 0.387532 
0.302468 0.387532 10.6269 
10.223 -0.336704 0.283818 
-0.336704 9.88887 0.374581 
0.283818 0.374581 9.76449 
9.95602 -1.67231 1.02889 
-1.67231 9.20546 1.09009 
1.02889 1.09009 10.7149 
9.22538 -0.852575 0.630985 
-0.852575 10.1862 0.0783953 
0.630985 0.0783953 10.4648 
9.93446 -0.101035 -0.112759 
-0.101035 9.55937 -0.313426 
-0.112759 -0.313426 9.7829 
10.0086 -0.204123 -0.165665 
-0.204123 9.58693 -0.317284 
-0.165665 -0.317284 9.68117 
9.95255 -0.177386 -0.157433 
-0.177386 9.5717 -0.372508 
-0.157433 -0.372508 9.75247 
9.90213 -0.0733087 0.0586387 
-0.0733087 9.68545 -0.412845 
0.0586387 -0.412845 9.68914 
9.82915 0.0437274 0.221892 
0.0437274 9.91462 -0.136565 
0.221892 -0.136565 9.89368 
9.81811 0.0173557 0.232672 
0.0173557 9.87613 -0.142162 
0.232672 -0.142162 9.94321 
9.82725 0.0634329 0.226001 
0.0634329 9.89301 -0.136064 
0.226001 -0.136064 9.91719 
9.81313 0.0162097 0.297039 
0.0162097 9.89465 -0.172568 
0.297039 -0.172568 9.92968 
9.95433 -0.0361077 0.0386764 
-0.0361077 9.895 0.225997 
0.0386764 0.225997 9.8553 
9.89941 0.0650579 0.0915897 
0.0650579 9.88944 0.259271 
0.0915897 0.259271 9.91577 
9.96831 0.0340892 -0.0312327 
0.0340892 9.92693 0.239275 
-0.0312327 0.239275 9.80938 
9.9628 -0.0166062 0.0119741 
-0.0166062 9.88968 0.225576 
0.0119741 0.225576 9.85215 
9.86044 -0.255622 0.875735 
-0.255622 9.48475 0.348113 
0.875735 0.348113 9.85614 
9.58584 -0.0387339 0.395215 
-0.0387339 9.71637 0.346285 
0.395215 0.346285 9.89912 
9.84228 -0.253969 0.953716 
-0.253969 9.46857 0.725631 
0.953716 0.725631 9.89048 
9.26773 0.0221256 0.690448 
0.0221256 9.42748 0.183273 
0.690448 0.183273 10.5061 
9.77608 -0.0505477 -0.148701 
-0.0505477 9.78612 -0.158069 
-0.148701 -0.158069 9.93427 
9.78002 -0.0592006 -0.160193 
-0.0592006 9.75686 -0.172739 
-0.160193 -0.172739 9.95959 
9.77382 -0.0512774 -0.139641 
-0.0512774 9.79911 -0.0864797 
-0.139641 -0.0864797 9.92354 
9.77808 0.0181422 -0.181275 
0.0181422 9.81691 -0.187046 
-0.181275 -0.187046 9.90149 
9.9108 0.0248975 0.160452 
0.0248975 9.91596 -0.111554 
0.160452 -0.111554 9.90071 
9.86328 0.0305319 0.195585 
0.0305319 9.90277 -0.120157 
0.195585 -0.120157 9.96141 
9.87547 -0.00279975 0.241706 
-0.00279975 9.89074 -0.139236 
0.241706 -0.139236 9.96125 
9.88416 0.0225029 0.196275 
0.0225029 9.89968 -0.123398 
0.196275 -0.123398 9.94363 
9.75541 -0.114243 0.105861 
-0.114243 9.72509 0.131951 
0.105861 0.131951 9.96954 
9.7627 -0.0989766 0.103009 
-0.0989766 9.76251 0.140127 
0.103009 0.140127 9.92483 
9.77905 -0.108841 0.136341 
-0.108841 9.67739 0.155098 
0.136341 0.155098 9.9936 
9.7438 -0.111585 0.0976788 
-0.111585 9.72876 0.133349 
0.0976788 0.133349 9.97747 
9.89479 -0.0445661 -0.0836106 
-0.0445661 9.85397 -0.169437 
-0.0836106 -0.169437 9.82699 
9.93689 0.0180737 -0.199143 
0.0180737 9.93547 -0.21335 
-0.199143 -0.21335 9.7034 
9.87628 -0.012583 -0.177236 
-0.012583 9.87851 -0.185784 
-0.177236 -0.185784 9.82097 
9.86398 0.0170134 -0.18025 
0.0170134 9.91701 -0.190391 
-0.18025 -0.190391 9.79476 
9.99917 -0.00783467 0.0777246 
-0.00783467 9.97602 0.211882 
0.0777246 0.211882 9.98383 
10.044 -0.00860506 0.0609032 
-0.00860506 9.97451 0.219915 
0.0609032 0.219915 9.94046 
9.94523 0.0243419 0.0730649 
0.0243419 9.95981 0.191842 
0.0730649 0.191842 10.054 
10.0124 -0.0287504 0.10513 
-0.0287504 9.99361 0.20844 
0.10513 0.20844 9.95299 
9.78092 0.0194738 0.127697 
0.0194738 9.83294 -0.0934731 
0.127697 -0.0934731 9.91698 
9.79473 0.0321629 0.132298 
0.0321629 9.81247 -0.137443 
0.132298 -0.137443 9.92364 
9.80919 0.029185 0.155178 
0.029185 9.77735 -0.141696 
0.155178 -0.141696 9.94431 
9.82576 0.0240708 0.148495 
0.0240708 9.81536 -0.176536 
0.148495 -0.176536 9.88972 
8.5656 -0.968973 -1.14931 
-0.968973 9.52189 0.0241793 
-1.14931 0.0241793 10.5714 
9.53573 -0.292818 -1.29831 
-0.292818 9.28405 -0.0260756 
-1.29831 -0.0260756 9.8391 
8.7241 -1.42137 -1.48622 
-1.42137 9.38856 0.0779678 
-1.48622 0.0779678 10.5462 
7.65836 -0.433334 -0.645546 
-0.433334 10.2787 1.04381 
-0.645546 1.04381 10.7218 
9.91005 0.017201 -0.184347 
0.017201 9.8337 0.213854 
-0.184347 0.213854 9.90806 
9.89717 -0.0028975 -0.0960109 
-0.0028975 9.88046 0.271605 
-0.0960109 0.271605 9.87417 
9.87649 0.0439485 -0.0856329 
0.0439485 9.8417 0.233231 
-0.0856329 0.233231 9.93362 
9.88606 0.0324704 -0.0805681 
0.0324704 9.79026 0.209344 
-0.0805681 0.209344 9.97548 
9.6553 -0.0186266 -0.212265 
-0.0186266 9.79528 -0.0520316 
-0.212265 -0.0520316 9.82888 
9.69826 -0.0427752 -0.212257 
-0.0427752 9.7799 -0.059166 
-0.212257 -0.059166 9.80132 
9.67621 -0.0378184 -0.207613 
-0.0378184 9.79346 -0.0237057 
-0.207613 -0.0237057 9.8098 
9.6824 -0.0682529 -0.247623 
-0.0682529 9.80224 0.00260699 
-0.247623 0.00260699 9.79482 
9.79644 0.00471808 -0.0364018 
0.00471808 9.80108 0.216579 
-0.0364018 0.216579 9.89237 
9.85927 -0.0145829 -0.0300594 
-0.0145829 9.78085 0.249384 
-0.0300594 0.249384 9.84977 
9.89831 0.0291165 -0.0006638 
0.0291165 9.75741 0.218702 
-0.0006638 0.218702 9.83417 
9.85344 -0.0119353 -0.0249623 
-0.0119353 9.7857 0.235466 
-0.0249623 0.235466 9.85075 
9.73996 0.208186 -0.61983 
0.208186 9.85427 -0.00319903 
-0.61983 -0.00319903 10.3799 
9.71089 0.133049 -0.890304 
0.133049 9.84926 0.23911 
-0.890304 0.23911 10.414 
9.99067 -0.0386351 -0.274114 
-0.0386351 9.75779 0.0565121 
-0.274114 0.0565121 10.2257 
9.12361 -0.010839 -0.786201 
-0.010839 9.79219 0.124605 
-0.786201 0.124605 11.0583 
9.86721 -0.00499373 -0.255757 
-0.00499373 9.85775 0.0295099 
-0.255757 0.0295099 9.8112 
9.87726 0.00352517 -0.255436 
0.00352517 9.88967 -0.00882264 
-0.255436 -0.00882264 9.76924 
9.87699 -0.0262961 -0.27323 
-0.0262961 9.85999 0.0227971 
-0.27323 0.0227971 9.79919 
9.88616 0.0361854 -0.260503 
0.0361854 9.88746 0.0103297 
-0.260503 0.0103297 9.76255 
9.7838 0.0438013 0.0740153 
0.0438013 9.76631 -0.0499426 
0.0740153 -0.0499426 10.0329 
9.81224 0.0270734 0.0369222 
0.0270734 9.79717 -0.0136418 
0.0369222 -0.0136418 9.97364 
9.78293 0.0230714 0.0786978 
0.0230714 9.79042 -0.117469 
0.0786978 -0.117469 10.0097 
9.76541 0.0778653 0.0797897 
0.0778653 9.77351 -0.0635108 
0.0797897 -0.0635108 10.0441 
10.3053 -0.698621 -0.0262003 
-0.698621 9.16297 0.243523 
-0.0262003 0.243523 11.096 
10.7263 -1.39247 0.542211 
-1.39247 8.65403 1.17795 
0.542211 1.17795 11.1839 
10.2015 -0.920764 -0.0524325 
-0.920764 9.26689 0.0671747 
-0.0524325 0.0671747 11.0959 
10.2922 -0.059415 0.0835485 
-0.059415 10.0376 0.624121 
0.0835485 0.624121 10.2345 
9.78606 0.0281604 0.168308 
0.0281604 9.79635 -0.0766939 
0.168308 -0.0766939 9.93633 
9.77624 0.0370542 0.19141 
0.0370542 9.8067 -0.112615 
0.19141 -0.112615 9.93579 
9.7853 0.032977 0.190887 
0.032977 9.83538 -0.126883 
0.190887 -0.126883 9.89806 
9.77007 0.0735177 0.191208 
0.0735177 9.80852 -0.153454 
0.191208 -0.153454 9.94015 
9.7588 -0.0954424 0.213027 
-0.0954424 9.62723 0.255326 
0.213027 0.255326 9.9458 
9.71338 -0.0698064 0.232685 
-0.0698064 9.62614 0.310514 
0.232685 0.310514 9.99232 
9.75952 -0.0895694 0.214067 
-0.0895694 9.67622 0.263966 
0.214067 0.263966 9.89609 
9.74325 -0.105109 0.207096 
-0.105109 9.66575 0.262178 
0.207096 0.262178 9.92283 
10.3353 1.79749 -0.00629876 
1.79749 10.1198 -1.55463 
-0.00629876 -1.55463 11.5507 
10.5249 -1.73158 0.52819 
-1.73158 10.582 1.61144 
0.52819 1.61144 10.8989 
8.36151 -5.7418 2.1592 
-5.7418 7.34459 -0.367259 
2.1592 -0.367259 16.2997 
8.9392 -1.21654 1.13767 
-1.21654 11.5335 1.41916 
1.13767 1.41916 11.5331 
9.82847 0.00196156 -0.257616 
0.00196156 9.94207 -0.095832 
-0.257616 -0.095832 9.52055 
9.80669 0.0256477 -0.222413 
0.0256477 9.86886 -0.0220581 
-0.222413 -0.0220581 9.61554 
9.80827 0.0124197 -0.237666 
0.0124197 9.86408 -0.0762334 
-0.237666 -0.0762334 9.61874 
9.77381 -0.136392 -0.153199 
-0.136392 9.77081 -0.230292 
-0.153199 -0.230292 9.74647 
14.7474 0.0592989 -0.316603 
0.0592989 11.6426 -1.23274 
-0.316603 -1.23274 12.0431 
13.9539 -0.339521 0.777385 
-0.339521 11.5063 -0.876046 
0.777385 -0.876046 12.9728 
8.41911 -0.106439 -1.69137 
-0.106439 5.28784 1.56127 
-1.69137 1.56127 24.7261 
14.7688 -0.954539 0.373681 
-0.954539 13.9806 4.4041 
0.373681 4.4041 9.68359 
9.97967 0.128029 -0.418813 
0.128029 10.1077 -0.00461741 
-0.418813 -0.00461741 8.68652 
9.80054 0.0589285 -0.157905 
0.0589285 9.81829 -0.244192 
-0.157905 -0.244192 9.15508 
9.80893 0.0110692 -0.368604 
0.0110692 10.0869 -0.154971 
-0.368604 -0.154971 8.87806 
9.96552 -0.00980511 -0.401361 
-0.00980511 9.97045 -0.528874 
-0.401361 -0.528874 8.83794 
10.0186 0.298465 0.0424022 
0.298465 9.89515 0.00890857 
0.0424022 0.00890857 10.3404 
9.8441 -0.0186166 0.228409 
-0.0186166 10.2669 -0.0163273 
0.228409 -0.0163273 10.1432 
9.78773 0.0414343 0.018299 
0.0414343 10.02 -0.229647 
0.018299 -0.229647 10.4464 
10.0371 0.208769 0.0155135 
0.208769 9.95463 -0.121073 
0.0155135 -0.121073 10.2624 
9.57215 0.369498 0.497536 
0.369498 9.82618 -0.208978 
0.497536 -0.208978 9.35143 
9.50499 -0.052344 0.635851 
-0.052344 9.81069 -0.56132 
0.635851 -0.56132 9.43408 
9.61979 0.118734 0.535897 
0.118734 9.937 -0.431404 
0.535897 -0.431404 9.19298 
9.52119 -0.0527945 0.499085 
-0.0527945 10.0045 -0.51347 
0.499085 -0.51347 9.2241 
9.88453 0.0335049 0.254617 
0.0335049 9.90934 -0.015557 
0.254617 -0.015557 9.9393 
9.87571 -0.00356126 0.195699 
-0.00356126 9.92869 -0.0686948 
0.195699 -0.0686948 9.92877 
9.84641 -0.040428 0.259735 
-0.040428 9.97111 -0.0324347 
0.259735 -0.0324347 9.91565 
9.86605 -0.00127513 0.245094 
-0.00127513 9.93984 -0.00927968 
0.245094 -0.00927968 9.92728 
9.65903 0.045183 0.492445 
0.045183 10.1396 -0.0139754 
0.492445 -0.0139754 9.31713 
9.50034 -0.24908 0.202877 
-0.24908 10.0151 -0.0923514 
0.202877 -0.0923514 9.60032 
9.75223 -0.11704 0.335434 
-0.11704 10.2748 -0.012497 
0.335434 -0.012497 9.08875 
9.56757 0.110246 0.664005 
0.110246 10.2543 -0.203872 
0.664005 -0.203872 9.29383 
7.00053 -7.49589 -0.126413 
-7.49589 5.91629 5.68593 
-0.126413 5.68593 18.3775 
10.0363 2.55977 -2.38261 
2.55977 9.68639 0.850464 
-2.38261 0.850464 11.5716 
11.0248 -1.37702 -0.023312 
-1.37702 8.94369 3.14425 
-0.023312 3.14425 11.3258 
10.3415 -0.207414 1.28119 
-0.207414 9.63118 2.30406 
1.28119 2.30406 11.3217 
9.92713 0.00155499 -0.26345 
0.00155499 9.89649 0.11412 
-0.26345 0.11412 9.97155 
9.84097 0.0486212 -0.246666 
0.0486212 9.98307 0.0794974 
-0.246666 0.0794974 9.97114 
9.90614 0.0553358 -0.165931 
0.0553358 9.9359 0.043391 
-0.165931 0.043391 9.95313 
9.87519 0.0324006 -0.237051 
0.0324006 9.95088 0.111826 
-0.237051 0.111826 9.9691 
9.88961 -0.0391249 -0.0885896 
-0.0391249 9.74253 -0.288024 
-0.0885896 -0.288024 9.89713 
9.98052 -0.0556809 -0.141841 
-0.0556809 9.71049 -0.24497 
-0.141841 -0.24497 9.83825 
9.92955 -0.0227634 -0.0224049 
-0.0227634 9.74929 -0.239531 
-0.0224049 -0.239531 9.85043 
9.78292 -0.0162629 -0.0698386 
-0.0162629 9.7978 -0.247033 
-0.0698386 -0.247033 9.94855 
9.68338 -0.0221403 0.0452021 
-0.0221403 9.95007 0.163866 
0.0452021 0.163866 9.72139 
9.8051 -0.0293624 0.0418517 
-0.0293624 9.70028 0.186231 
0.0418517 0.186231 9.84946 
9.85973 -0.0454206 0.0340554 
-0.0454206 9.5646 0.124078 
0.0340554 0.124078 9.9305 
9.78093 -0.0369918 0.0687448 
-0.0369918 9.6996 0.296056 
0.0687448 0.296056 9.87431 
9.79233 -0.0233949 -0.137022 
-0.0233949 9.83786 -0.112448 
-0.137022 -0.112448 9.92452 
9.82371 -0.0324731 -0.137164 
-0.0324731 9.79494 -0.121009 
-0.137164 -0.121009 9.93606 
9.8019 -0.0274315 -0.160234 
-0.0274315 9.82283 -0.113673 
-0.160234 -0.113673 9.92998 
9.82684 -0.0358759 -0.136343 
-0.0358759 9.79523 -0.102469 
-0.136343 -0.102469 9.93263 
9.54388 0.0725341 -0.351061 
0.0725341 9.6185 0.266243 
-0.351061 0.266243 9.78867 
9.72352 0.0970852 -0.281969 
0.0970852 9.72242 0.131121 
-0.281969 0.131121 9.5051 
9.52065 0.0685576 -0.359711 
0.0685576 9.70252 0.377174 
-0.359711 0.377174 9.72789 
9.55502 0.0752121 -0.395854 
0.0752121 9.69321 0.324862 
-0.395854 0.324862 9.70282 
9.34459 -0.0660995 -0.315717 
-0.0660995 9.8459 -0.30919 
-0.315717 -0.30919 10.8451 
8.84658 -0.366675 -0.923575 
-0.366675 9.35268 0.1767 
-0.923575 0.1767 11.8363 
10.6437 0.102429 -0.477809 
0.102429 9.36119 -1.53713 
-0.477809 -1.53713 10.0307 
9.36709 -0.0831208 -0.471567 
-0.0831208 9.87427 -0.283689 
-0.471567 -0.283689 10.7942 
4.42766 -0.122558 0.0699443 
-0.122558 3.95353 -0.395459 
0.0699443 -0.395459 2.52041 
6.47871 -0.0782709 1.02137 
-0.0782709 4.62292 1.53579 
1.02137 1.53579 -0.200036 
4.63577 -1.47323 -0.360223 
-1.47323 3.74444 -0.542404 
-0.360223 -0.542404 2.52139 
4.96033 0.918 0.0398227 
0.918 5.77803 -0.931416 
0.0398227 -0.931416 0.16324 
9.87826 0.0376512 -0.0238861 
0.0376512 9.79338 -0.368 
-0.0238861 -0.368 9.62983 
10.0617 -0.0140544 -0.133313 
-0.0140544 9.82611 -0.359038 
-0.133313 -0.359038 9.41367 
10.2539 -0.107192 0.158561 
-0.107192 9.60398 -0.446785 
0.158561 -0.446785 9.4436 
9.97898 0.0486675 -0.00931216 
0.0486675 9.75204 -0.31804 
-0.00931216 -0.31804 9.57046 
10.3689 3.22129 0.920942 
3.22129 9.70234 0.773997 
0.920942 0.773997 12.5749 
9.64836 -1.11745 1.21651 
-1.11745 9.96764 2.74617 
1.21651 2.74617 13.0301 
8.14227 -2.07784 0.449683 
-2.07784 8.45202 2.07117 
0.449683 2.07117 16.0519 
9.07278 -1.30252 3.84201 
-1.30252 11.2559 1.40485 
3.84201 1.40485 12.3175 
9.97219 -0.00831693 -0.0777968 
-0.00831693 10.011 -0.0134291 
-0.0777968 -0.0134291 9.52529 
9.89852 0.0268797 -0.0375746 
0.0268797 9.9514 0.030486 
-0.0375746 0.030486 9.6586 
9.91064 -0.00519608 0.0169832 
-0.00519608 9.87597 0.0107487 
0.0169832 0.0107487 9.72191 
9.88771 0.00675846 -0.0309065 
0.00675846 9.93422 0.0647722 
-0.0309065 0.0647722 9.68659 
9.88076 -0.0329289 -0.202708 
-0.0329289 9.88541 -0.156208 
-0.202708 -0.156208 9.92888 
9.89786 -0.0223678 -0.278396 
-0.0223678 9.92312 -0.179163 
-0.278396 -0.179163 9.87406 
9.8697 -0.0251776 -0.238563 
-0.0251776 9.89119 -0.15355 
-0.238563 -0.15355 9.93415 
9.8525 -0.00527099 -0.24733 
-0.00527099 9.905 -0.15748 
-0.24733 -0.15748 9.93755 
9.56709 -0.144636 1.39925 
-0.144636 8.50852 1.29037 
1.39925 1.29037 -5.15355 
5.75511 -3.04469 1.77663 
-3.04469 8.87478 1.69834 
1.77663 1.69834 -1.70784 
1.19236 1.2908 -2.21509 
1.2908 1.71999 0.788402 
-2.21509 0.788402 10.0097 
9.08275 -1.49919 -1.30006 
-1.49919 2.72058 8.39706 
-1.30006 8.39706 1.11873 
9.90403 -0.00728825 0.208068 
-0.00728825 9.93642 0.14829 
0.208068 0.14829 9.943 
9.92396 -0.0317002 0.200848 
-0.0317002 9.91715 0.152605 
0.200848 0.152605 9.94234 
9.91908 -0.00915243 0.202838 
-0.00915243 9.92865 0.149444 
0.202838 0.149444 9.93571 
9.9004 0.0150503 0.230366 
0.0150503 9.95137 0.205726 
0.230366 0.205726 9.93167 
10.1121 0.0255173 -0.21565 
0.0255173 9.15252 -0.393191 
-0.21565 -0.393191 11.3443 
10.2451 -0.38381 -0.026786 
-0.38381 10.5077 -0.882659 
-0.026786 -0.882659 9.85617 
9.34593 -0.153344 -0.0195096 
-0.153344 9.67013 0.0166475 
-0.0195096 0.0166475 11.5928 
9.69077 0.0300567 -0.453887 
0.0300567 9.33264 -0.429969 
-0.453887 -0.429969 11.5855 
9.90369 0.00103528 -0.241084 
0.00103528 9.92473 -0.0310549 
-0.241084 -0.0310549 9.96662 
9.89087 -0.0159106 -0.259711 
-0.0159106 9.98344 -0.0361959 
-0.259711 -0.0361959 9.92074 
9.90501 -0.00977236 -0.248333 
-0.00977236 9.92769 -0.0395348 
-0.248333 -0.0395348 9.96234 
9.93286 -0.00544725 -0.243644 
-0.00544725 9.93014 -0.0750209 
-0.243644 -0.0750209 9.93205 
9.81142 0.0649044 0.216961 
0.0649044 9.7925 -0.216881 
0.216961 -0.216881 9.98656 
9.79679 0.0525312 0.154211 
0.0525312 9.81718 -0.172187 
0.154211 -0.172187 9.97651 
9.81162 0.0506108 0.166748 
0.0506108 9.81119 -0.189718 
0.166748 -0.189718 9.96768 
9.85075 0.0335814 0.145039 
0.0335814 9.79049 -0.181223 
0.145039 -0.181223 9.94925 
9.84038 -1.01385 0.339544 
-1.01385 10.6516 1.34854 
0.339544 1.34854 14.2405 
12.3978 -0.0891681 0.482458 
-0.0891681 12.4887 -0.939955 
0.482458 -0.939955 9.84592 
12.3098 0.510991 0.549846 
0.510991 11.4427 -0.61466 
0.549846 -0.61466 10.98 
10.4327 1.25317 1.78527 
1.25317 12.5352 -0.377807 
1.78527 -0.377807 11.7645 
9.84156 0.00773697 -0.133729 
0.00773697 9.88832 -0.165121 
-0.133729 -0.165121 9.70309 
9.70142 -0.0716205 -0.0771413 
-0.0716205 9.70792 -0.000746875 
-0.0771413 -0.000746875 10.0236 
9.72213 -0.104295 -0.197674 
-0.104295 9.72398 -0.124865 
-0.197674 -0.124865 9.98687 
9.73794 -0.0726119 -0.151808 
-0.0726119 9.78112 -0.0782975 
-0.151808 -0.0782975 9.9139 
13.0553 -0.108319 -0.00473201 
-0.108319 13.2199 -0.0487916 
-0.00473201 -0.0487916 12.814 
12.1246 0.144016 -0.172838 
0.144016 11.7185 -0.346908 
-0.172838 -0.346908 15.246 
13.6971 0.653562 0.514959 
0.653562 13.1668 0.178255 
0.514959 0.178255 12.2253 
13.6297 0.260041 -1.13162 
0.260041 13.387 -0.412168 
-1.13162 -0.412168 12.0725 
9.83059 0.213591 0.397465 
0.213591 9.994 0.384104 
0.397465 0.384104 11.1632 
10.805 -0.407855 -0.0631299 
-0.407855 9.31214 -0.0772734 
-0.0631299 -0.0772734 10.8706 
10.5569 -0.500907 0.557831 
-0.500907 9.55355 0.420162 
0.557831 0.420162 10.8773 
9.9789 0.375141 -0.331125 
0.375141 10.6541 -0.380969 
-0.331125 -0.380969 10.3548 
10.3077 -0.0760256 -0.185534 
-0.0760256 9.66643 -0.455856 
-0.185534 -0.455856 9.22574 
10.1337 0.0515894 -0.491276 
0.0515894 9.77441 -0.429457 
-0.491276 -0.429457 9.29173 
9.97803 -0.240944 -0.192267 
-0.240944 9.50508 -0.398941 
-0.192267 -0.398941 9.71671 
10.3505 0.0244741 -0.175203 
0.0244741 9.63937 -0.317727 
-0.175203 -0.317727 9.20997 
9.93799 0.0772471 -0.433701 
0.0772471 9.31849 0.358421 
-0.433701 0.358421 9.63549 
9.63456 0.0635608 0.0258811 
0.0635608 9.75669 0.366843 
0.0258811 0.366843 9.50073 
8.95782 0.060356 -0.487541 
0.060356 10.5252 0.624822 
-0.487541 0.624822 9.40892 
9.5921 0.00522663 -0.524909 
0.00522663 10.1211 0.0441846 
-0.524909 0.0441846 9.1788 
9.94644 -0.0322812 -0.0122704 
-0.0322812 9.88061 0.0168068 
-0.0122704 0.0168068 10.0654 
9.94632 -0.0298941 0.00434058 
-0.0298941 9.90187 -0.00591677 
0.00434058 -0.00591677 10.0443 
9.96372 -0.00456086 -0.00305196 
-0.00456086 9.89418 0.00793907 
-0.00305196 0.00793907 10.0345 
9.94361 -0.0138681 -0.00790934 
-0.0138681 9.90618 -0.00309688 
-0.00790934 -0.00309688 10.0427 
10.3568 0.0192821 0.208004 
0.0192821 10.4973 0.016119 
0.208004 0.016119 10.1294 
10.2668 0.0131148 -0.0326083 
0.0131148 10.0344 -0.0194036 
-0.0326083 -0.0194036 10.6823 
10.2651 -0.0815117 0.206894 
-0.0815117 10.4951 0.0298221 
0.206894 0.0298221 10.2234 
10.0877 0.100895 0.173676 
0.100895 10.3973 -0.0428989 
0.173676 -0.0428989 10.4986 
9.78098 -0.0401114 -0.194405 
-0.0401114 9.81572 -0.12384 
-0.194405 -0.12384 9.97017 
9.75163 -0.0559814 -0.229413 
-0.0559814 9.8142 -0.184602 
-0.229413 -0.184602 10.001 
9.73586 -0.0510699 -0.24373 
-0.0510699 9.8595 -0.216284 
-0.24373 -0.216284 9.97152 
9.71418 -0.0957408 -0.241284 
-0.0957408 9.80935 -0.210884 
-0.241284 -0.210884 10.0433 
10.1166 0.0650904 0.627128 
0.0650904 10.2899 1.1596 
0.627128 1.1596 9.59273 
9.80477 -0.242129 -0.173224 
-0.242129 9.41188 0.134392 
-0.173224 0.134392 10.7826 
10.0353 -0.118675 -0.493016 
-0.118675 9.42073 0.182241 
-0.493016 0.182241 10.5433 
9.49385 -0.66539 -0.325973 
-0.66539 9.7409 0.277902 
-0.325973 0.277902 10.7645 
9.81274 0.0461373 -0.109169 
0.0461373 9.76614 0.134041 
-0.109169 0.134041 9.90796 
9.80295 0.0178354 -0.0809912 
0.0178354 9.77137 0.156818 
-0.0809912 0.156818 9.91252 
9.78136 0.0375847 -0.120782 
0.0375847 9.77459 0.193335 
-0.120782 0.193335 9.93089 
9.80568 0.0407833 -0.150525 
0.0407833 9.82472 0.188795 
-0.150525 0.188795 9.85644 
9.8872 0.0329437 0.199698 
0.0329437 9.92068 -0.120847 
0.199698 -0.120847 9.96621 
9.8871 0.0115564 0.233817 
0.0115564 9.92911 -0.136178 
0.233817 -0.136178 9.95788 
9.90992 -0.00991927 0.223242 
-0.00991927 9.92956 -0.115056 
0.223242 -0.115056 9.9346 
9.90246 0.016081 0.218734 
0.016081 9.92556 -0.128783 
0.218734 -0.128783 9.94606 
9.98867 0.00978837 -0.0282094 
0.00978837 9.92948 0.214789 
-0.0282094 0.214789 9.8903 
9.97642 -0.00205611 0.00260805 
-0.00205611 9.96634 0.226746 
0.00260805 0.226746 9.86568 
9.90287 -0.0375491 -0.0587789 
-0.0375491 9.94597 0.247514 
-0.0587789 0.247514 9.9596 
9.96595 0.00444637 -0.0389578 
0.00444637 9.94404 0.236973 
-0.0389578 0.236973 9.89845 
8.62643 -0.274883 0.634685 
-0.274883 10.2174 -1.02432 
0.634685 -1.02432 9.50281 
9.18539 -0.56341 0.45502 
-0.56341 9.0026 -0.73889 
0.45502 -0.73889 10.1586 
9.28204 0.158693 0.46344 
0.158693 9.6068 -1.16398 
0.46344 -1.16398 9.45778 
9.10293 1.04016 1.04577 
1.04016 8.76272 -1.82198 
1.04577 -1.82198 10.481 
9.8087 0.0335199 0.121472 
0.0335199 9.80596 -0.161995 
0.121472 -0.161995 9.91224 
9.81488 0.0253851 0.147125 
0.0253851 9.81294 -0.169512 
0.147125 -0.169512 9.89909 
9.83655 0.0195532 0.0803669 
0.0195532 9.78728 -0.130313 
0.0803669 -0.130313 9.90308 
9.78147 0.0410019 0.122074 
0.0410019 9.81595 -0.16466 
0.122074 -0.16466 9.92949 
10.0062 -0.12262 -0.336598 
-0.12262 9.5094 -0.274158 
-0.336598 -0.274158 9.49498 
10.0965 -0.0259394 -0.100526 
-0.0259394 9.53508 -0.616758 
-0.100526 -0.616758 9.37901 
9.92014 -0.0602984 -0.235918 
-0.0602984 9.63189 -0.451691 
-0.235918 -0.451691 9.45853 
9.84883 0.022184 -0.0523752 
0.022184 9.67636 -0.242532 
-0.0523752 -0.242532 9.48537 
9.46438 -0.0537028 -1.1377 
-0.0537028 10.3264 -0.729605 
-1.1377 -0.729605 7.84853 
9.12088 0.0259183 -0.61438 
0.0259183 9.57741 -0.411863 
-0.61438 -0.411863 8.94103 
9.49369 0.170002 -0.745881 
0.170002 9.49696 -0.838741 
-0.745881 -0.838741 8.64868 
9.33146 -0.203436 -0.466638 
-0.203436 9.53123 -0.559453 
-0.466638 -0.559453 8.77664 
9.9316 -0.00151483 0.0201654 
-0.00151483 9.89842 0.25242 
0.0201654 0.25242 9.94012 
9.89323 0.0035992 0.00868998 
0.0035992 9.93331 0.227299 
0.00868998 0.227299 9.9436 
9.95065 -0.0202419 -0.0061668 
-0.0202419 9.9158 0.230326 
-0.0061668 0.230326 9.90369 
9.91855 -0.00446635 0.0135717 
-0.00446635 9.90551 0.242391 
0.0135717 0.242391 9.94608 
3.35264 -0.736922 -0.266246 
-0.736922 3.69183 -0.0577396 
-0.266246 -0.0577396 3.78587 
5.29462 -1.26334 0.57236 
-1.26334 5.79486 1.09649 
0.57236 1.09649 -0.25915 
4.98147 -0.951386 -0.257097 
-0.951386 3.98203 0.685062 
-0.257097 0.685062 1.86683 
4.64558 -0.0412875 -1.76268 
-0.0412875 4.23198 -0.596347 
-1.76268 -0.596347 1.95277 
9.92311 -0.0996059 0.827093 
-0.0996059 9.60017 0.196346 
0.827093 0.196346 9.75484 
10.1935 -0.25748 0.386989 
-0.25748 9.60668 0.439684 
0.386989 0.439684 9.47797 
9.65487 0.0163188 0.308573 
0.0163188 9.62195 0.24525 
0.308573 0.24525 10.0013 
9.82028 -0.171794 0.342118 
-0.171794 9.73093 0.2494 
0.342118 0.2494 9.72691 
6.43805 -1.20102 2.02972 
-1.20102 11.48 1.02487 
2.02972 1.02487 19.0364 
17.3592 1.10999 -1.21552 
1.10999 11.7213 -3.52503 
-1.21552 -3.52503 7.87393 
11.1309 -0.736185 0.776904 
-0.736185 7.60131 0.573318 
0.776904 0.573318 18.2222 
10.7002 -5.36548 -5.03619 
-5.36548 6.04802 0.0411654 
-5.03619 0.0411654 20.2061 
9.83015 0.0637145 0.0285308 
0.0637145 9.92037 0.0243798 
0.0285308 0.0243798 10.0912 
9.91483 0.00182167 -0.0301664 
0.00182167 9.79733 -0.192151 
-0.0301664 -0.192151 10.1295 
9.85107 0.162418 0.117161 
0.162418 9.86014 -0.0461544 
0.117161 -0.0461544 10.1305 
9.98584 0.116608 -0.16939 
0.116608 9.78403 -0.00961083 
-0.16939 -0.00961083 10.0718 
9.87301 -0.119018 -0.219415 
-0.119018 9.7369 0.573788 
-0.219415 0.573788 8.52898 
9.74338 0.014919 -0.23522 
0.014919 9.70704 0.152339 
-0.23522 0.152339 8.68846 
10.0617 0.18792 -0.542994 
0.18792 9.24382 0.672487 
-0.542994 0.672487 8.83339 
9.76827 -0.0181634 -0.274557 
-0.0181634 9.66194 0.537551 
-0.274557 0.537551 8.70868 
8.19153 -0.496423 0.567098 
-0.496423 9.21101 0.584868 
0.567098 0.584868 12.0036 
9.38007 -1.42389 3.3746 
-1.42389 8.80063 -2.15139 
3.3746 -2.15139 11.2254 
10.0302 0.302489 2.07021 
0.302489 9.11262 -3.54949 
2.07021 -3.54949 10.2633 
9.78104 0.506197 -0.99562 
0.506197 9.05574 1.61902 
-0.99562 1.61902 10.5693 
9.44051 0.265041 -0.195961 
0.265041 9.76947 0.207487 
-0.195961 0.207487 9.99053 
9.50048 0.0534544 -0.416717 
0.0534544 9.83478 0.363181 
-0.416717 0.363181 9.86525 
9.6342 0.139211 -0.368618 
0.139211 9.83136 0.00345764 
-0.368618 0.00345764 9.73495 
9.62136 0.138639 -0.326071 
0.138639 9.77962 0.341679 
-0.326071 0.341679 9.79953 
9.92643 0.0181454 -0.126112 
0.0181454 9.87641 0.215073 
-0.126112 0.215073 9.94684 
9.91975 0.021271 -0.111112 
0.021271 9.88369 0.242387 
-0.111112 0.242387 9.94624 
9.91313 0.0264844 -0.133879 
0.0264844 9.88462 0.213129 
-0.133879 0.213129 9.95193 
9.91604 0.0238014 -0.128671 
0.0238014 9.87925 0.216557 
-0.128671 0.216557 9.95439 
9.92771 0.0478769 -0.0405063 
0.0478769 9.5716 0.400249 
-0.0405063 0.400249 9.2969 
10.0043 0.146875 -0.285361 
0.146875 9.56767 0.419135 
-0.285361 0.419135 9.22428 
9.59656 -0.0252179 0.0608855 
-0.0252179 9.703 0.305952 
0.0608855 0.305952 9.49666 
10.1972 -0.103691 0.0198599 
-0.103691 9.43351 0.643245 
0.0198599 0.643245 9.16553 
10.9886 -0.0200984 -0.944631 
-0.0200984 9.09286 0.0754349 
-0.944631 0.0754349 8.27083 
10.1955 -0.563861 -1.3843 
-0.563861 8.8556 1.0212 
-1.3843 1.0212 9.30123 
10.6388 -0.484088 -0.172863 
-0.484088 6.14734 1.10178 
-0.172863 1.10178 11.5662 
8.83466 1.10185 0.574628 
1.10185 9.11568 3.92159 
0.574628 3.92159 10.402 
9.89082 -0.0306374 -0.0690156 
-0.0306374 9.73939 -0.26912 
-0.0690156 -0.26912 9.90698 
9.86274 -0.0266151 -0.0441189 
-0.0266151 9.76631 -0.249282 
-0.0441189 -0.249282 9.90814 
9.8793 -0.0193393 -0.0467139 
-0.0193393 9.78119 -0.229259 
-0.0467139 -0.229259 9.87669 
9.87097 0.0321638 -0.0570343 
0.0321638 9.77765 -0.223261 
-0.0570343 -0.223261 9.88856 
9.94749 0.00249339 -0.0888182 
0.00249339 9.89064 0.159423 
-0.0888182 0.159423 10.1428 
9.97311 0.36426 -0.306614 
0.36426 9.76378 0.0480166 
-0.306614 0.0480166 10.2441 
9.93074 0.458834 0.0023212 
0.458834 9.56764 0.192339 
0.0023212 0.192339 10.4826 
9.88283 0.297232 -0.262488 
0.297232 9.46439 0.477906 
-0.262488 0.477906 10.6337 
9.16493 -1.26244 -0.152407 
-1.26244 11.5943 -0.0995856 
-0.152407 -0.0995856 10.8123 
12.0082 0.365201 1.81494 
0.365201 5.07829 1.77394 
1.81494 1.77394 14.485 
10.524 -0.729066 0.411327 
-0.729066 9.21825 1.51404 
0.411327 1.51404 11.8293 
10.5326 -0.0278879 -0.464561 
-0.0278879 10.3976 2.43209 
-0.464561 2.43209 10.6414 
9.8951 -0.0309532 -0.0302252 
-0.0309532 9.8872 0.00675265 
-0.0302252 0.00675265 9.98942 
9.82209 -0.0371224 -0.00636115 
-0.0371224 9.90771 0.0100265 
-0.00636115 0.0100265 10.0419 
9.78901 -0.0703007 -0.021636 
-0.0703007 9.84058 -0.00635314 
-0.021636 -0.00635314 10.1421 
9.94301 0.00506123 0.0841351 
0.00506123 9.80011 0.0830877 
0.0841351 0.0830877 10.0286 
9.77662 0.0263638 -0.180285 
0.0263638 9.82278 0.0727108 
-0.180285 0.0727108 9.92969 
9.80727 0.0137482 -0.246025 
0.0137482 9.85632 0.106136 
-0.246025 0.106136 9.86549 
9.76197 0.0541257 -0.23069 
0.0541257 9.8475 0.112158 
-0.23069 0.112158 9.91962 
9.78887 0.037418 -0.228185 
0.037418 9.83796 0.099668 
-0.228185 0.099668 9.90225 
10.2618 -0.946326 -0.115414 
-0.946326 8.99505 0.786698 
-0.115414 0.786698 10.2165 
10.2832 -0.575977 0.832273 
-0.575977 9.52906 0.23658 
0.832273 0.23658 9.66107 
9.7498 -0.0813093 0.258459 
-0.0813093 9.96686 0.550422 
0.258459 0.550422 9.75665 
9.86394 -0.621322 0.43201 
-0.621322 9.0419 0.983239 
0.43201 0.983239 10.5675 
9.99112 0.135949 0.0317684 
0.135949 9.86806 -0.116705 
0.0317684 -0.116705 10.4601 
10.3562 0.0313589 -0.0113331 
0.0313589 10.105 -0.107338 
-0.0113331 -0.107338 9.85811 
9.89435 0.0620713 -0.0369488 
0.0620713 9.92916 -0.0290627 
-0.0369488 -0.0290627 10.4957 
10.1023 0.198068 0.371687 
0.198068 9.96224 0.0162069 
0.371687 0.0162069 10.2547 
9.06554 0.069895 -0.697595 
0.069895 9.68305 -0.860695 
-0.697595 -0.860695 9.58548 
9.75738 -0.188572 -0.895752 
-0.188572 9.5287 -0.734951 
-0.895752 -0.734951 9.04798 
9.4402 -0.264806 -1.12938 
-0.264806 10.6232 -0.7535 
-1.12938 -0.7535 8.27069 
9.31749 -0.0159874 -0.254113 
-0.0159874 9.89322 -0.418161 
-0.254113 -0.418161 9.12335 
14.729 -0.631734 0.0151203 
-0.631734 15.1135 2.04935 
0.0151203 2.04935 9.10056 
12.5299 0.713775 -0.518983 
0.713775 12.3402 0.949091 
-0.518983 0.949091 14.0729 
8.49616 -0.492877 -0.620361 
-0.492877 12.0298 -1.42444 
-0.620361 -1.42444 18.4172 
12.3203 -0.109382 -0.556514 
-0.109382 10.1616 2.8199 
-0.556514 2.8199 16.4611 
9.90253 -0.0178609 -0.00949746 
-0.0178609 9.73657 -0.26144 
-0.00949746 -0.26144 9.93239 
9.97201 -0.0410819 -0.0826531 
-0.0410819 9.68078 -0.312493 
-0.0826531 -0.312493 9.9187 
10.0747 0.0461528 0.0149097 
0.0461528 9.68009 -0.26723 
0.0149097 -0.26723 9.81665 
9.94563 -0.00498883 -0.0401367 
-0.00498883 9.71882 -0.280392 
-0.0401367 -0.280392 9.90703 
9.80917 -0.0207288 -0.0373827 
-0.0207288 9.58306 0.223207 
-0.0373827 0.223207 9.85782 
9.8853 0.0148465 -0.04907 
0.0148465 9.54818 0.244067 
-0.04907 0.244067 9.81656 
9.79472 0.0889248 -0.0106479 
0.0889248 9.65363 0.188213 
-0.0106479 0.188213 9.8017 
9.93656 0.0256935 -0.0183057 
0.0256935 9.47987 0.321261 
-0.0183057 0.321261 9.83362 
9.79054 0.0379729 -0.151881 
0.0379729 9.76149 0.0894677 
-0.151881 0.0894677 9.92471 
9.75593 0.0740948 -0.198053 
0.0740948 9.7952 0.148079 
-0.198053 0.148079 9.92561 
9.77131 0.0438057 -0.182051 
0.0438057 9.79229 0.140723 
-0.182051 0.140723 9.91314 
9.77814 -0.00120871 -0.192378 
-0.00120871 9.80166 0.158599 
-0.192378 0.158599 9.89694 
9.79025 0.0502833 0.12982 
0.0502833 9.75015 -0.228772 
0.12982 -0.228772 9.87791 
9.78219 0.0755014 0.144047 
0.0755014 9.70535 -0.224424 
0.144047 -0.224424 9.93078 
9.79622 0.0431179 0.105497 
0.0431179 9.73386 -0.155054 
0.105497 -0.155054 9.88824 
9.78872 0.0563758 0.128169 
0.0563758 9.7274 -0.20153 
0.128169 -0.20153 9.9022 
9.6504 -0.125656 -0.0876303 
-0.125656 9.49775 -0.273704 
-0.0876303 -0.273704 10.0273 
9.56419 -0.101648 -0.20533 
-0.101648 9.56156 -0.270279 
-0.20533 -0.270279 10.0497 
9.35143 -0.0718532 -0.232089 
-0.0718532 9.70207 -0.324115 
-0.232089 -0.324115 10.1219 
9.5833 -0.0691225 -0.259844 
-0.0691225 9.57961 -0.285136 
-0.259844 -0.285136 10.0125 
9.77924 -0.00284603 -0.095715 
-0.00284603 9.7698 -0.176927 
-0.095715 -0.176927 9.9174 
9.82254 -0.0284025 -0.104497 
-0.0284025 9.74045 -0.204043 
-0.104497 -0.204043 9.90345 
9.81785 -0.0546711 -0.092682 
-0.0546711 9.76694 -0.188008 
-0.092682 -0.188008 9.88164 
9.84474 -0.029831 -0.121909 
-0.029831 9.76752 -0.209589 
-0.121909 -0.209589 9.85417 
9.88695 0.00787781 -0.189406 
0.00787781 9.94961 -0.128167 
-0.189406 -0.128167 9.55815 
9.92342 -0.0182778 -0.153547 
-0.0182778 9.8424 -0.123666 
-0.153547 -0.123666 9.62889 
9.91655 -0.0223283 -0.149843 
-0.0223283 9.86856 -0.102767 
-0.149843 -0.102767 9.6096 
9.84257 -0.0512548 -0.17104 
-0.0512548 9.76198 -0.224191 
-0.17104 -0.224191 9.79016 
9.55018 0.0843237 -0.328814 
0.0843237 9.91172 0.17821 
-0.328814 0.17821 9.55653 
9.50239 0.0894054 -0.445926 
0.0894054 9.96208 0.152139 
-0.445926 0.152139 9.55396 
9.62448 0.151522 -0.482225 
0.151522 9.72733 0.2571 
-0.482225 0.2571 9.66662 
9.68173 -0.0140097 -0.218541 
-0.0140097 9.96679 -0.0458438 
-0.218541 -0.0458438 9.36991 
9.90091 -0.0365711 0.182561 
-0.0365711 9.89874 0.173308 
0.182561 0.173308 9.96699 
9.91698 -0.0307871 0.195047 
-0.0307871 9.91498 0.197553 
0.195047 0.197553 9.93469 
9.91296 0.00412034 0.185013 
0.00412034 9.91711 0.181209 
0.185013 0.181209 9.93658 
9.90786 -0.0209665 0.188949 
-0.0209665 9.91547 0.187451 
0.188949 0.187451 9.94332 
9.75723 0.00199566 0.0701593 
0.00199566 9.88296 0.154403 
0.0701593 0.154403 9.81689 
9.83646 -0.0483326 0.0531191 
-0.0483326 9.80123 0.16721 
0.0531191 0.16721 9.81938 
9.83335 -0.0983212 0.0982567 
-0.0983212 9.68672 0.22752 
0.0982567 0.22752 9.937 
9.77656 -0.0225496 0.0388702 
-0.0225496 9.73239 0.105766 
0.0388702 0.105766 9.94813 
10.0237 0.712133 0.780934 
0.712133 8.21577 0.619236 
0.780934 0.619236 9.1851 
9.61847 0.258267 -2.32008 
0.258267 9.00736 -0.435203 
-2.32008 -0.435203 8.79874 
9.24569 0.518346 -0.742049 
0.518346 8.9767 -0.529342 
-0.742049 -0.529342 9.20219 
9.83814 -0.389615 -2.00913 
-0.389615 8.47235 -0.13041 
-2.00913 -0.13041 9.11409 
6.21635 -0.23127 0.531532 
-0.23127 6.89952 -0.24796 
0.531532 -0.24796 1.37724 
5.87606 -0.379092 0.619897 
-0.379092 6.72902 -0.0368067 
0.619897 -0.0368067 1.88803 
5.53911 -1.65936 0.701228 
-1.65936 7.3416 0.777935 
0.701228 0.777935 1.61241 
5.4166 -0.373094 0.119447 
-0.373094 7.63453 -0.706868 
0.119447 -0.706868 1.44198 
10.0926 -0.505948 -0.0366152 
-0.505948 9.80909 -0.592252 
-0.0366152 -0.592252 8.93938 
9.81963 0.488567 -0.38574 
0.488567 8.56034 -0.16205 
-0.38574 -0.16205 10.4611 
9.42106 -0.198137 -0.332582 
-0.198137 9.71277 -0.625671 
-0.332582 -0.625671 9.70727 
10.0132 -0.509425 -1.4979 
-0.509425 8.78481 -1.24261 
-1.4979 -1.24261 10.0431 
9.70751 -0.265626 0.267972 
-0.265626 9.6233 -0.00936348 
0.267972 -0.00936348 10.182 
9.65118 -0.0227987 0.429365 
-0.0227987 9.6278 0.426533 
0.429365 0.426533 10.2338 
9.62082 -0.291237 0.51293 
-0.291237 9.64066 0.207112 
0.51293 0.207112 10.2513 
9.44798 -0.0105564 0.535866 
-0.0105564 9.4776 0.298551 
0.535866 0.298551 10.5872 
9.53725 0.0658362 -0.498196 
0.0658362 9.27364 -0.703112 
-0.498196 -0.703112 10.1593 
9.78067 -0.248122 -0.334079 
-0.248122 9.63716 -0.324872 
-0.334079 -0.324872 9.55232 
9.53154 -0.353857 -0.169375 
-0.353857 9.2116 -0.421829 
-0.169375 -0.421829 10.227 
9.33909 -0.0193696 -0.420646 
-0.0193696 9.70894 -0.365228 
-0.420646 -0.365228 9.92213 
9.8635 0.0240335 -0.248099 
0.0240335 9.89319 0.100519 
-0.248099 0.100519 9.94203 
9.83351 0.0496464 -0.196987 
0.0496464 9.93408 0.131717 
-0.196987 0.131717 9.93114 
9.86368 0.0341682 -0.221363 
0.0341682 9.89038 0.114195 
-0.221363 0.114195 9.94467 
9.87118 0.0203054 -0.231315 
0.0203054 9.90002 0.120942 
-0.231315 0.120942 9.92752 
10.0675 -0.0791048 -0.07378 
-0.0791048 9.55018 -0.500113 
-0.07378 -0.500113 9.6178 
10.0745 -0.258697 -0.287501 
-0.258697 9.50681 -0.456006 
-0.287501 -0.456006 9.65416 
10.4786 0.050781 -0.111594 
0.050781 9.24976 -0.623223 
-0.111594 -0.623223 9.50716 
9.77302 0.116514 0.166968 
0.116514 9.66654 -0.424569 
0.166968 -0.424569 9.79593 
9.68252 0.56631 -1.08461 
0.56631 10.2731 0.389696 
-1.08461 0.389696 8.54593 
9.27594 0.105781 -0.642489 
0.105781 9.724 0.364198 
-0.642489 0.364198 9.50164 
8.75731 0.16717 -0.607763 
0.16717 9.677 0.593105 
-0.607763 0.593105 10.0673 
9.26534 0.318668 -0.258376 
0.318668 9.84906 -0.450812 
-0.258376 -0.450812 9.38717 
9.99564 -0.0177138 0.0205633 
-0.0177138 9.90194 -0.244991 
0.0205633 -0.244991 9.94552 
9.9104 0.0362471 0.0315675 
0.0362471 9.9419 -0.230818 
0.0315675 -0.230818 9.99079 
9.97562 0.00269765 0.0365248 
0.00269765 9.91172 -0.247886 
0.0365248 -0.247886 9.95575 
9.97649 0.0192097 0.0392899 
0.0192097 9.91963 -0.27463 
0.0392899 -0.27463 9.94697 
9.97897 0.0576301 0.00137908 
0.0576301 10.0477 0.0660101 
0.00137908 0.0660101 10.1014 
10.0093 0.0995067 0.0253435 
0.0995067 9.97405 -0.0319584 
0.0253435 -0.0319584 10.1447 
10.029 0.0777967 0.0647937 
0.0777967 9.94734 -0.192597 
0.0647937 -0.192597 10.1517 
10.0135 0.133488 0.0485236 
0.133488 9.89302 0.0700608 
0.0485236 0.0700608 10.2216 
10.367 -0.325765 -0.0219448 
-0.325765 9.90262 -0.673879 
-0.0219448 -0.673879 9.86835 
10.0278 0.20131 0.188245 
0.20131 9.07894 -0.642704 
0.188245 -0.642704 11.0313 
9.94143 0.655242 -0.491948 
0.655242 8.92578 -0.291417 
-0.491948 -0.291417 11.2708 
9.80905 0.218063 0.199281 
0.218063 8.61945 -1.11892 
0.199281 -1.11892 11.7095 
10.1394 0.514808 -1.27488 
0.514808 9.0075 -0.2193 
-1.27488 -0.2193 8.60433 
10.6374 -0.973696 -1.14523 
-0.973696 9.18136 -1.10845 
-1.14523 -1.10845 7.93244 
10.7432 -1.22727 -1.5427 
-1.22727 9.53546 -0.306148 
-1.5427 -0.306148 7.47256 
11.2726 -1.2361 0.442159 
-1.2361 9.39947 -2.42216 
0.442159 -2.42216 7.07915 
9.91726 -0.073457 0.219272 
-0.073457 9.63236 0.360015 
0.219272 0.360015 9.56435 
9.84691 -0.0197472 0.243577 
-0.0197472 9.64818 0.351157 
0.243577 0.351157 9.61888 
9.83422 0.0355552 0.0217453 
0.0355552 9.72636 0.188069 
0.0217453 0.188069 9.55339 
9.94166 -0.0701116 0.288904 
-0.0701116 9.81034 0.398647 
0.288904 0.398647 9.36196 
9.87479 0.0249041 -0.23023 
0.0249041 9.93884 0.0268428 
-0.23023 0.0268428 9.85865 
9.89799 -0.00334809 -0.232353 
-0.00334809 9.93974 0.00181113 
-0.232353 0.00181113 9.83455 
9.88341 -0.00261835 -0.243711 
-0.00261835 9.94215 -0.00424299 
-0.243711 -0.00424299 9.84672 
9.87727 0.00945765 -0.241766 
0.00945765 9.93605 0.00289319 
-0.241766 0.00289319 9.85896 
9.94912 -0.0156215 0.203091 
-0.0156215 9.973 0.163099 
0.203091 0.163099 9.94706 
9.9477 -0.0139407 0.200088 
-0.0139407 9.95418 0.166893 
0.200088 0.166893 9.9673 
9.91657 -0.00853644 0.18987 
-0.00853644 9.90783 0.150691 
0.18987 0.150691 10.0448 
9.95775 -0.0292711 0.205667 
-0.0292711 9.94589 0.211318 
0.205667 0.211318 9.96554 
10.0245 0.0395712 -0.0483365 
0.0395712 9.9735 -0.0343449 
-0.0483365 -0.0343449 10.0973 
10.0087 0.0414194 0.0136629 
0.0414194 9.98757 0.00561822 
0.0136629 0.00561822 10.099 
10.0122 0.0038529 0.0286589 
0.0038529 10.011 0.00446067 
0.0286589 0.00446067 10.0721 
9.94892 0.0108899 0.031882 
0.0108899 10.039 0.0045641 
0.031882 0.0045641 10.1074 
9.84163 -0.023616 0.239909 
-0.023616 9.85364 0.0387529 
0.239909 0.0387529 9.94967 
9.83333 -0.00325122 0.215134 
-0.00325122 9.90783 0.0370474 
0.215134 0.0370474 9.90378 
9.87923 -0.0177006 0.234858 
-0.0177006 9.90348 0.0379961 
0.234858 0.0379961 9.86224 
9.84434 0.0077775 0.216833 
0.0077775 9.88963 0.0173326 
0.216833 0.0173326 9.91098 
9.89474 0.0126728 -0.0965743 
0.0126728 9.81891 -0.252118 
-0.0965743 -0.252118 9.89927 
9.91125 -0.0356058 -0.0735759 
-0.0356058 9.72889 -0.213223 
-0.0735759 -0.213223 9.97279 
9.89186 -0.0348696 -0.0560153 
-0.0348696 9.85173 -0.281407 
-0.0560153 -0.281407 9.86933 
9.87222 -0.0451116 0.0196516 
-0.0451116 9.79161 -0.242898 
0.0196516 -0.242898 9.9491 
9.90303 -0.341822 0.189932 
-0.341822 10.1847 0.447281 
0.189932 0.447281 9.5062 
9.52039 -0.430608 0.760709 
-0.430608 9.9224 0.955643 
0.760709 0.955643 10.1512 
9.62758 -0.381741 0.605154 
-0.381741 10.326 0.74174 
0.605154 0.74174 9.64038 
10.0657 -0.342972 0.377396 
-0.342972 10.3796 0.806714 
0.377396 0.806714 9.14863 
9.85871 0.0351304 0.0517427 
0.0351304 9.86265 -0.0202318 
0.0517427 -0.0202318 9.91506 
9.90172 0.00265062 0.00104668 
0.00265062 9.85306 -0.0167511 
0.00104668 -0.0167511 9.88165 
9.90191 -0.00692026 0.0048586 
-0.00692026 9.85291 -0.00834251 
0.0048586 -0.00834251 9.8816 
9.85885 0.00911277 0.0137127 
0.00911277 9.84623 -0.0118795 
0.0137127 -0.0118795 9.93135 
9.95475 0.00187635 0.205048 
0.00187635 9.95911 -0.134874 
0.205048 -0.134874 9.97424 
9.92799 0.00803609 0.182028 
0.00803609 9.94229 -0.131018 
0.182028 -0.131018 10.0178 
9.9501 0.00552561 0.204947 
0.00552561 9.96635 -0.132853 
0.204947 -0.132853 9.97166 
9.91987 0.009228 0.231505 
0.009228 9.97458 -0.133784 
0.231505 -0.133784 9.99366 
9.85178 -0.00511842 0.264352 
-0.00511842 9.95315 -0.0222526 
0.264352 -0.0222526 9.89272 
9.84693 0.00777795 0.302751 
0.00777795 9.97426 -0.0240703 
0.302751 -0.0240703 9.87647 
9.85918 0.0123705 0.253087 
0.0123705 9.93189 -0.0262037 
0.253087 -0.0262037 9.90658 
9.85347 -0.0103743 0.25738 
-0.0103743 9.93492 -0.00959044 
0.25738 -0.00959044 9.90926 
9.98717 0.886872 -0.406341 
0.886872 9.85695 -0.0534102 
-0.406341 -0.0534102 11.1147 
9.90828 -0.320247 -0.295651 
-0.320247 10.5919 -0.0160303 
-0.295651 -0.0160303 10.4586 
9.41895 0.113434 -0.193521 
0.113434 9.97047 0.0984736 
-0.193521 0.0984736 11.5694 
9.72461 1.09226 -0.773844 
1.09226 10.1192 0.485912 
-0.773844 0.485912 11.1149 
9.51337 0.0504469 0.582524 
0.0504469 9.87168 -0.040767 
0.582524 -0.040767 9.66809 
9.54817 0.0765391 0.216486 
0.0765391 9.84222 -0.0863481 
0.216486 -0.0863481 9.66274 
9.60136 -0.0286388 0.229595 
-0.0286388 9.70816 0.300241 
0.229595 0.300241 9.74362 
9.54731 0.0130097 0.376641 
0.0130097 9.83919 -0.0951487 
0.376641 -0.0951487 9.66664 
9.73016 -0.0124157 -0.368916 
-0.0124157 9.86871 0.165955 
-0.368916 0.165955 9.33424 
9.75008 -0.0183028 -0.325232 
-0.0183028 9.90459 0.186524 
-0.325232 0.186524 9.27844 
9.74133 -0.00600326 -0.358877 
-0.00600326 9.84722 0.191988 
-0.358877 0.191988 9.34456 
9.75511 -0.00195796 -0.349201 
-0.00195796 9.89941 0.152959 
-0.349201 0.152959 9.2786 
9.82054 0.0193577 -0.0272099 
0.0193577 9.76134 -0.20845 
-0.0272099 -0.20845 9.91297 
9.86542 0.0067665 0.0129431 
0.0067665 9.7402 -0.237184 
0.0129431 -0.237184 9.88922 
9.86574 0.00624912 0.0191251 
0.00624912 9.74104 -0.24464 
0.0191251 -0.24464 9.88806 
9.82882 -0.0515875 0.0263073 
-0.0515875 9.79598 -0.244691 
0.0263073 -0.244691 9.87005 
9.96851 -0.0271784 -0.134912 
-0.0271784 9.93684 -0.221823 
-0.134912 -0.221823 9.95382 
9.99516 0.0225326 -0.130559 
0.0225326 9.97536 -0.265969 
-0.130559 -0.265969 9.88865 
9.93128 0.042456 -0.0794665 
0.042456 9.88189 -0.171114 
-0.0794665 -0.171114 10.046 
9.96603 -0.0344794 -0.152366 
-0.0344794 9.91805 -0.223993 
-0.152366 -0.223993 9.97508 
9.93266 -0.014497 -0.255934 
-0.014497 9.95982 -0.265897 
-0.255934 -0.265897 9.80058 
10.0138 -0.0179762 -0.157991 
-0.0179762 9.96498 -0.217618 
-0.157991 -0.217618 9.71429 
9.94886 0.00224642 -0.117283 
0.00224642 9.87446 -0.222718 
-0.117283 -0.222718 9.86973 
10.0044 -0.0190992 -0.172639 
-0.0190992 9.9092 -0.234903 
-0.172639 -0.234903 9.77949 
9.70273 -0.0819397 0.29406 
-0.0819397 9.90868 0.248283 
0.29406 0.248283 9.90291 
9.7535 -0.0675487 0.292593 
-0.0675487 9.88993 0.18863 
0.292593 0.18863 9.87089 
9.79481 -0.0946764 0.351149 
-0.0946764 9.85582 0.235777 
0.351149 0.235777 9.86369 
9.7254 -0.0922888 0.272771 
-0.0922888 9.9785 0.174021 
0.272771 0.174021 9.81043 
7.26966 -1.20483 0.832489 
-1.20483 8.32527 0.843652 
0.832489 0.843652 1.60695 
8.16238 1.03594 0.148373 
1.03594 6.71751 1.32055 
0.148373 1.32055 2.32199 
7.8045 -1.07473 -2.84143 
-1.07473 6.89913 0.352409 
-2.84143 0.352409 2.49826 
7.2037 -0.434655 -0.884087 
-0.434655 6.90808 1.48945 
-0.884087 1.48945 3.09011 
9.80372 -0.0982856 0.217551 
-0.0982856 9.86049 0.196066 
0.217551 0.196066 9.82774 
9.82829 -0.020233 0.290986 
-0.020233 9.84824 0.267219 
0.290986 0.267219 9.81542 
9.80614 -0.0518421 0.26146 
-0.0518421 9.83215 0.268386 
0.26146 0.268386 9.85365 
9.81916 -0.105187 0.267963 
-0.105187 9.85062 0.262355 
0.267963 0.262355 9.82218 
9.62985 -0.0343881 0.426265 
-0.0343881 9.55545 0.577434 
0.426265 0.577434 9.21146 
9.33605 -0.15057 0.282735 
-0.15057 9.50559 0.357747 
0.282735 0.357747 9.55511 
9.25789 -0.0305963 0.452814 
-0.0305963 9.82183 0.164978 
0.452814 0.164978 9.31703 
9.48503 -0.287642 0.27775 
-0.287642 9.37544 0.352048 
0.27775 0.352048 9.53629 
9.71231 -0.0581765 0.211825 
-0.0581765 9.83784 -0.0791895 
0.211825 -0.0791895 9.75217 
9.61671 0.026815 0.338944 
0.026815 9.84581 -0.00525117 
0.338944 -0.00525117 9.8398 
9.60719 0.101198 0.329772 
0.101198 9.91981 -0.0196431 
0.329772 -0.0196431 9.77532 
9.65438 0.0229067 0.354954 
0.0229067 9.90093 -0.0454529 
0.354954 -0.0454529 9.747 
9.70175 0.0514381 -0.22337 
0.0514381 9.77264 0.209192 
-0.22337 0.209192 10.0498 
9.69803 0.165721 -0.23043 
0.165721 9.87919 0.180798 
-0.23043 0.180798 9.947 
9.71724 0.167869 -0.128834 
0.167869 9.77396 0.303138 
-0.128834 0.303138 10.033 
9.73351 0.113209 -0.2277 
0.113209 9.75444 0.274412 
-0.2277 0.274412 10.0363 
9.99849 -0.0276498 -0.142177 
-0.0276498 9.89749 -0.228798 
-0.142177 -0.228798 9.83667 
9.91098 0.0156844 -0.120773 
0.0156844 9.9047 -0.241003 
-0.120773 -0.241003 9.91697 
9.88036 -0.00858765 -0.165695 
-0.00858765 9.91832 -0.213395 
-0.165695 -0.213395 9.93397 
9.92151 -0.0102674 -0.142206 
-0.0102674 9.91424 -0.216235 
-0.142206 -0.216235 9.89689 
10.1244 0.455958 -0.506455 
0.455958 9.85402 0.597855 
-0.506455 0.597855 9.47926 
9.10618 0.22877 -0.492963 
0.22877 9.12113 0.885625 
-0.492963 0.885625 11.2304 
8.97109 0.301419 0.34083 
0.301419 9.80692 0.627126 
0.34083 0.627126 10.6797 
9.28556 -0.114757 0.268276 
-0.114757 9.05674 0.400764 
0.268276 0.400764 11.1154 
9.85534 0.0722323 -0.134737 
0.0722323 9.83319 -0.162262 
-0.134737 -0.162262 9.83129 
9.7447 -0.0931816 -0.0913853 
-0.0931816 9.80874 -0.117666 
-0.0913853 -0.117666 9.96638 
9.85186 -0.00749798 -0.124953 
-0.00749798 9.82016 -0.157873 
-0.124953 -0.157873 9.8478 
9.84119 -0.0407861 -0.195669 
-0.0407861 9.74946 -0.144921 
-0.195669 -0.144921 9.92917 
9.88209 -0.00521546 -0.236835 
-0.00521546 9.91142 -0.0337987 
-0.236835 -0.0337987 9.86708 
9.83727 -0.0321424 -0.227124 
-0.0321424 9.92199 -0.036024 
-0.227124 -0.036024 9.90134 
9.83504 0.0182328 -0.238955 
0.0182328 9.86143 -0.0663809 
-0.238955 -0.0663809 9.96414 
9.8616 -0.045375 -0.216453 
-0.045375 9.88806 -0.0729314 
-0.216453 -0.0729314 9.91094 
9.7187 -0.0871535 0.123672 
-0.0871535 9.75737 0.129187 
0.123672 0.129187 10.1822 
9.88395 -0.0214474 0.0931434 
-0.0214474 9.74001 0.0790241 
0.0931434 0.0790241 10.0343 
9.76508 -0.115962 0.113387 
-0.115962 9.73742 0.133181 
0.113387 0.133181 10.1558 
9.72598 -0.0897925 0.131767 
-0.0897925 9.7847 0.168238 
0.131767 0.168238 10.1476 
9.75173 0.0744093 0.000435015 
0.0744093 9.82638 -0.0895087 
0.000435015 -0.0895087 10.0551 
9.77681 -0.0839953 -0.0229435 
-0.0839953 9.96128 0.00540616 
-0.0229435 0.00540616 9.89511 
9.99381 -0.15808 0.142111 
-0.15808 9.864 0.0817795 
0.142111 0.0817795 9.77539 
9.81299 -0.068537 0.104156 
-0.068537 9.56622 -0.0447217 
0.104156 -0.0447217 10.254 
10.6072 -0.156427 -0.512628 
-0.156427 9.43744 -0.635184 
-0.512628 -0.635184 9.1158 
10.3979 -0.0225738 -0.716709 
-0.0225738 9.42626 -0.64176 
-0.716709 -0.64176 9.3363 
9.71596 -0.400245 -0.305647 
-0.400245 9.76666 -0.793994 
-0.305647 -0.793994 9.67786 
10.4725 -0.150232 -0.466887 
-0.150232 9.59474 -0.744465 
-0.466887 -0.744465 9.0932 
9.80662 0.0462216 -0.0739761 
0.0462216 9.86211 -0.129491 
-0.0739761 -0.129491 9.81965 
9.82877 -0.0499124 -0.108926 
-0.0499124 9.79697 -0.139992 
-0.108926 -0.139992 9.86264 
9.79397 -0.0714263 -0.110388 
-0.0714263 9.76923 -0.194802 
-0.110388 -0.194802 9.92518 
9.86286 -0.0340418 -0.0573149 
-0.0340418 9.73022 -0.178232 
-0.0573149 -0.178232 9.8953 
9.79463 0.017129 -0.0979793 
0.017129 9.80113 0.180974 
-0.0979793 0.180974 9.92668 
9.8368 0.0816591 -0.288872 
0.0816591 9.63287 0.278682 
-0.288872 0.278682 10.0528 
9.94459 0.0885733 -0.220511 
0.0885733 9.68644 0.271129 
-0.220511 0.271129 9.89141 
9.93887 0.0535378 -0.228278 
0.0535378 9.71483 0.326562 
-0.228278 0.326562 9.86874 
10.9337 0.0340084 -0.214262 
0.0340084 11.805 -0.118503 
-0.214262 -0.118503 13.4328 
9.50684 0.119949 -0.656043 
0.119949 10.6962 -0.201568 
-0.656043 -0.201568 15.9684 
11.8961 0.0183746 -0.651454 
0.0183746 13.3522 0.27296 
-0.651454 0.27296 10.9232 
10.9081 -0.561109 0.964369 
-0.561109 12.5712 -1.27917 
0.964369 -1.27917 12.6922 
11.0796 1.25917 -1.27472 
1.25917 6.84987 -2.23006 
-1.27472 -2.23006 18.3431 
10.0154 -1.67866 -1.42538 
-1.67866 9.65604 -2.66654 
-1.42538 -2.66654 16.6012 
12.8364 3.23579 0.169848 
3.23579 13.9502 3.54212 
0.169848 3.54212 9.48603 
12.2811 -0.0696437 2.74374 
-0.0696437 8.95177 -0.294241 
2.74374 -0.294241 15.0397 
9.8582 0.0213161 -0.083708 
0.0213161 9.81478 0.221011 
-0.083708 0.221011 9.92978 
9.90348 0.0330768 -0.0852014 
0.0330768 9.80806 0.204262 
-0.0852014 0.204262 9.89122 
9.87658 0.0261947 -0.0860639 
0.0261947 9.85065 0.219617 
-0.0860639 0.219617 9.87553 
9.87841 -0.0244509 -0.0659524 
-0.0244509 9.79259 0.220531 
-0.0659524 0.220531 9.93176 
9.71055 -0.038371 -0.285093 
-0.038371 9.80747 -0.336034 
-0.285093 -0.336034 10.2164 
9.7767 -0.0786396 -0.00538467 
-0.0786396 9.73311 -0.0210624 
-0.00538467 -0.0210624 10.2246 
9.72967 -0.130676 -0.0879916 
-0.130676 9.66727 -0.152443 
-0.0879916 -0.152443 10.3375 
9.61019 -0.313149 -0.133122 
-0.313149 9.3867 -0.0887864 
-0.133122 -0.0887864 10.7376 
9.72054 0.0572069 0.148529 
0.0572069 9.77717 -0.12786 
0.148529 -0.12786 9.93587 
9.72526 0.0479594 0.156651 
0.0479594 9.77474 -0.129091 
0.156651 -0.129091 9.93358 
9.73893 0.0269071 0.164724 
0.0269071 9.77475 -0.125024 
0.164724 -0.125024 9.91991 
9.71921 0.0551089 0.163456 
0.0551089 9.7728 -0.135929 
0.163456 -0.135929 9.94157 
9.95329 0.0553902 -0.186409 
0.0553902 9.86419 0.286575 
-0.186409 0.286575 9.83266 
9.96614 0.0415192 -0.0993353 
0.0415192 9.83311 0.265663 
-0.0993353 0.265663 9.85088 
9.9605 0.0273282 -0.142877 
0.0273282 9.83267 0.276298 
-0.142877 0.276298 9.85696 
9.92049 0.00118944 -0.0899767 
0.00118944 9.85081 0.190319 
-0.0899767 0.190319 9.87883 
11.363 -0.00187789 -0.0470991 
-0.00187789 11.0095 -0.347794 
-0.0470991 -0.347794 9.50212 
10.3814 0.351326 0.0394946 
0.351326 9.99113 -0.261072 
0.0394946 -0.261072 11.5021 
10.4306 -0.0204924 0.128222 
-0.0204924 10.1464 -0.0430243 
0.128222 -0.0430243 11.2976 
10.5563 -0.191475 -0.652446 
-0.191475 10.458 0.419676 
-0.652446 0.419676 10.8604 
9.92526 -0.00409928 -0.269419 
-0.00409928 9.9424 0.0926994 
-0.269419 0.0926994 9.98089 
9.91424 0.0312785 -0.204183 
0.0312785 9.95991 0.064294 
-0.204183 0.064294 9.9744 
9.95147 0.0198001 -0.155839 
0.0198001 9.90482 0.0992326 
-0.155839 0.0992326 9.99227 
9.92162 0.0290687 -0.260249 
0.0290687 9.97246 0.11444 
-0.260249 0.11444 9.95447 
9.55407 0.0208902 -0.348691 
0.0208902 9.83976 0.122451 
-0.348691 0.122451 9.41227 
9.47664 0.0266522 -0.340609 
0.0266522 9.89073 0.132778 
-0.340609 0.132778 9.43873 
9.48618 0.0665215 -0.346799 
0.0665215 9.85846 0.124145 
-0.346799 0.124145 9.46146 
9.54517 0.0303858 -0.356749 
0.0303858 9.82627 0.055121 
-0.356749 0.055121 9.43466 
9.91213 0.0942347 -0.416868 
0.0942347 9.47846 0.453589 
-0.416868 0.453589 10.3264 
9.64242 0.0255636 -0.920925 
0.0255636 9.75095 0.174558 
-0.920925 0.174558 10.3236 
9.73494 -0.0497807 -0.906257 
-0.0497807 9.7078 0.00924067 
-0.906257 0.00924067 10.2743 
8.67555 -0.274058 -1.03224 
-0.274058 10.2493 0.507753 
-1.03224 0.507753 10.7921 
9.8149 0.0212264 0.198637 
0.0212264 9.86296 -0.0598093 
0.198637 -0.0598093 9.87203 
9.86716 0.00660602 0.227015 
0.00660602 9.83606 -0.0739854 
0.227015 -0.0739854 9.84667 
9.84707 0.0222154 0.216123 
0.0222154 9.83507 -0.0699704 
0.216123 -0.0699704 9.86775 
9.82852 0.0255016 0.221513 
0.0255016 9.84167 -0.0644568 
0.221513 -0.0644568 9.87971 
9.94902 0.00468372 0.205903 
0.00468372 9.95998 -0.127696 
0.205903 -0.127696 9.97104 
9.94825 0.0075753 0.207707 
0.0075753 9.96364 -0.126461 
0.207707 -0.126461 9.96814 
9.92584 0.0102001 0.21561 
0.0102001 9.93966 -0.146975 
0.21561 -0.146975 10.0145 
9.95321 0.020268 0.197795 
0.020268 9.94651 -0.10784 
0.197795 -0.10784 9.98032 
9.74883 0.0394646 -0.0847609 
0.0394646 9.70987 0.114142 
-0.0847609 0.114142 9.86393 
9.72696 0.0720051 -0.0774145 
0.0720051 9.66669 0.0723589 
-0.0774145 0.0723589 9.92897 
9.82231 -0.0316563 0.00873968 
-0.0316563 9.60253 0.146034 
0.00873968 0.146034 9.89778 
9.79883 0.183508 -0.0817514 
0.183508 9.52146 0.138334 
-0.0817514 0.138334 10.0023 
9.68096 0.365579 -0.163152 
0.365579 10.4449 0.941979 
-0.163152 0.941979 8.6321 
9.73822 -0.0961405 0.107139 
-0.0961405 9.96699 0.237899 
0.107139 0.237899 9.05274 
9.5244 0.71984 -0.207836 
0.71984 10.1624 1.78808 
-0.207836 1.78808 9.07115 
10.0372 -0.42394 -0.955347 
-0.42394 11.0013 0.320749 
-0.955347 0.320749 7.7194 
9.78909 0.111269 0.233446 
0.111269 9.71063 -0.159354 
0.233446 -0.159354 9.90798 
9.65297 0.148365 0.188414 
0.148365 9.71073 -0.1971 
0.188414 -0.1971 10.044 
9.58404 0.0340111 0.175302 
0.0340111 9.69403 -0.194268 
0.175302 -0.194268 10.1296 
9.63518 0.0808378 0.293373 
0.0808378 9.64996 -0.437342 
0.293373 -0.437342 10.1226 
9.83683 -0.0176502 -0.141212 
-0.0176502 9.82299 -0.26945 
-0.141212 -0.26945 9.73119 
9.92847 -0.00890583 -0.107277 
-0.00890583 9.76089 -0.280454 
-0.107277 -0.280454 9.70165 
9.90302 -0.0291528 -0.111121 
-0.0291528 9.74639 -0.307534 
-0.111121 -0.307534 9.74159 
9.88613 -0.0319796 -0.0892465 
-0.0319796 9.75032 -0.300044 
-0.0892465 -0.300044 9.75455 
9.79688 0.0498146 -0.0980118 
0.0498146 9.83842 0.060374 
-0.0980118 0.060374 10.0248 
9.86328 0.0642529 -0.0704509 
0.0642529 9.74981 0.110723 
-0.0704509 0.110723 10.047 
9.76858 0.107392 -0.100106 
0.107392 9.82397 0.0804061 
-0.100106 0.0804061 10.0676 
9.88553 0.0690521 -0.0336007 
0.0690521 9.72006 0.0695522 
-0.0336007 0.0695522 10.0545 
9.77316 -0.085724 -0.397158 
-0.085724 9.83172 -0.294753 
-0.397158 -0.294753 9.65894 
9.81926 -0.022539 -0.229139 
-0.022539 9.74553 -0.232558 
-0.229139 -0.232558 9.69903 
9.7143 -0.0423201 -0.23753 
-0.0423201 9.93167 -0.152132 
-0.23753 -0.152132 9.61786 
9.69454 -0.0259289 -0.295301 
-0.0259289 9.87302 -0.26335 
-0.295301 -0.26335 9.69627 
9.58998 0.102258 0.233545 
0.102258 9.77366 -0.0722039 
0.233545 -0.0722039 9.85833 
9.54183 0.081942 0.260474 
0.081942 9.84222 -0.0833244 
0.260474 -0.0833244 9.83792 
9.58803 -0.0417936 0.174749 
-0.0417936 9.81287 -0.0293339 
0.174749 -0.0293339 9.82106 
9.52972 0.0707474 0.266033 
0.0707474 9.87171 -0.126248 
0.266033 -0.126248 9.82054 
9.10257 0.159526 0.691954 
0.159526 10.3087 -0.169125 
0.691954 -0.169125 10.7194 
9.94863 0.146987 0.287618 
0.146987 10.1894 0.606354 
0.287618 0.606354 9.99266 
9.89654 0.166004 0.30989 
0.166004 9.6865 -0.114479 
0.30989 -0.114479 10.5476 
9.60202 0.39073 0.435168 
0.39073 10.0362 0.123378 
0.435168 0.123378 10.4925 
9.82428 0.0375693 0.132592 
0.0375693 9.82726 -0.204511 
0.132592 -0.204511 9.92482 
9.86764 0.00237405 0.130766 
0.00237405 9.78312 -0.218577 
0.130766 -0.218577 9.9256 
9.83936 0.0628755 0.123042 
0.0628755 9.79125 -0.209859 
0.123042 -0.209859 9.94575 
9.86239 0.0141848 0.123034 
0.0141848 9.79146 -0.200879 
0.123034 -0.200879 9.92251 
9.90207 0.00566548 -0.190748 
0.00566548 9.90579 0.116307 
-0.190748 0.116307 9.96603 
9.88036 0.0135003 -0.215367 
0.0135003 9.9285 0.108778 
-0.215367 0.108778 9.96503 
9.86586 0.0236426 -0.217652 
0.0236426 9.94788 0.107038 
-0.217652 0.107038 9.96014 
9.89515 0.0238959 -0.235425 
0.0238959 9.95139 0.104388 
-0.235425 0.104388 9.92735 
9.7818 0.320961 -0.191334 
0.320961 9.51021 0.372465 
-0.191334 0.372465 9.84735 
9.63095 0.0641573 -0.312478 
0.0641573 9.39757 0.219844 
-0.312478 0.219844 10.1108 
9.7263 0.103188 -0.644213 
0.103188 9.68527 0.341849 
-0.644213 0.341849 9.72778 
9.70399 0.188421 -0.203312 
0.188421 9.6874 0.318082 
-0.203312 0.318082 9.74797 
10.0033 0.0554602 -0.0701178 
0.0554602 10.0705 0.0452048 
-0.0701178 0.0452048 10.2845 
9.96652 0.0400143 -0.033868 
0.0400143 10.0544 0.00718527 
-0.033868 0.00718527 10.3374 
10.0216 -0.0279025 -0.00384165 
-0.0279025 10.1078 0.0134181 
-0.00384165 0.0134181 10.229 
9.94835 0.042286 -0.0306531 
0.042286 10.1444 0.0670762 
-0.0306531 0.0670762 10.2656 
9.91722 0.0285244 -0.0862345 
0.0285244 9.86395 0.233942 
-0.0862345 0.233942 9.9632 
9.94406 0.0316502 -0.116102 
0.0316502 9.88591 0.250199 
-0.116102 0.250199 9.91441 
9.92436 -0.0105286 -0.105066 
-0.0105286 9.89066 0.229352 
-0.105066 0.229352 9.92936 
9.93136 0.000596054 -0.115525 
0.000596054 9.88223 0.231519 
-0.115525 0.231519 9.93078 
10.0634 -0.0169124 -0.185568 
-0.0169124 10.0146 0.189741 
-0.185568 0.189741 8.83791 
9.88387 -0.0140111 -0.119696 
-0.0140111 9.98607 0.139121 
-0.119696 0.139121 9.04599 
10.1427 -0.139037 -0.0344556 
-0.139037 9.99755 0.228011 
-0.0344556 0.228011 8.77572 
10.2838 0.0888944 -0.361817 
0.0888944 9.96542 0.220485 
-0.361817 0.220485 8.6667 
9.38483 0.553593 0.447598 
0.553593 10.0661 -1.13775 
0.447598 -1.13775 9.29586 
9.40449 0.116373 0.597144 
0.116373 9.19954 -0.496483 
0.597144 -0.496483 10.1428 
9.33245 0.0514661 0.904176 
0.0514661 9.14363 0.128214 
0.904176 0.128214 10.2707 
8.86493 -0.202191 1.3215 
-0.202191 8.55196 -0.973971 
1.3215 -0.973971 11.3299 
9.97957 1.72104 -4.29617 
1.72104 9.00868 3.47171 
-4.29617 3.47171 5.42029 
6.39749 2.80754 -1.1717 
2.80754 7.48201 3.58637 
-1.1717 3.58637 10.529 
9.84472 0.409898 -1.94146 
0.409898 6.8778 1.56171 
-1.94146 1.56171 7.68602 
11.6322 -0.458377 0.0225246 
-0.458377 6.7681 1.53216 
0.0225246 1.53216 6.00823 
10.1009 -2.77932 2.02494 
-2.77932 9.21549 1.40706 
2.02494 1.40706 1.56101 
7.35116 -1.75077 1.96346 
-1.75077 6.57614 -1.94355 
1.96346 -1.94355 6.95014 
9.23375 2.17799 0.132742 
2.17799 5.68775 0.319489 
0.132742 0.319489 5.95594 
10.0991 0.785769 0.407656 
0.785769 6.40192 -0.985434 
0.407656 -0.985434 4.37647 
9.86968 0.0246261 -0.0905376 
0.0246261 9.8637 0.204874 
-0.0905376 0.204874 9.94475 
9.86735 0.0371319 -0.103669 
0.0371319 9.85686 0.199251 
-0.103669 0.199251 9.95393 
9.89942 0.0331035 -0.0737873 
0.0331035 9.84925 0.210865 
-0.0737873 0.210865 9.92947 
9.84546 0.0544523 -0.111061 
0.0544523 9.87921 0.212868 
-0.111061 0.212868 9.95346 
9.91453 0.018308 -0.151588 
0.018308 9.90178 0.195575 
-0.151588 0.195575 9.95676 
9.9211 0.0075656 -0.155852 
0.0075656 9.89411 0.198024 
-0.155852 0.198024 9.95786 
9.91048 0.0251724 -0.150849 
0.0251724 9.90034 0.184028 
-0.150849 0.184028 9.96225 
9.91753 0.0291827 -0.160374 
0.0291827 9.91068 0.180238 
-0.160374 0.180238 9.94485 
9.85493 -0.0401071 -0.179429 
-0.0401071 9.86749 -0.151863 
-0.179429 -0.151863 9.94332 
9.85487 -0.0183783 -0.21947 
-0.0183783 9.88994 -0.153692 
-0.21947 -0.153692 9.92094 
9.85535 -0.0327428 -0.18697 
-0.0327428 9.87486 -0.126982 
-0.18697 -0.126982 9.93553 
9.85973 -0.0263141 -0.206788 
-0.0263141 9.86674 -0.124996 
-0.206788 -0.124996 9.93928 
9.93698 0.102902 -0.0101092 
0.102902 9.90194 -0.116882 
-0.0101092 -0.116882 10.3068 
10.0369 0.190024 0.122158 
0.190024 9.9812 0.179333 
0.122158 0.179333 10.1277 
10.0583 0.115401 -0.0169544 
0.115401 9.67943 -0.0548953 
-0.0169544 -0.0548953 10.4081 
10.0163 0.141596 0.00500013 
0.141596 9.80805 -0.00996559 
0.00500013 -0.00996559 10.3214 
10.015 0.0410893 -0.0687193 
0.0410893 9.98577 -0.057407 
-0.0687193 -0.057407 10.0967 
10.0385 -0.00579248 0.0385509 
-0.00579248 10.0196 0.021489 
0.0385509 0.021489 10.0393 
9.99872 0.0267401 0.0287936 
0.0267401 9.95042 0.0237951 
0.0287936 0.0237951 10.1484 
10.0531 -0.0184508 0.0247931 
-0.0184508 9.94846 0.0171967 
0.0247931 0.0171967 10.096 
9.93687 0.112489 0.147694 
0.112489 9.68434 -0.299121 
0.147694 -0.299121 9.70137 
9.91848 0.0558222 0.196685 
0.0558222 9.63075 -0.305746 
0.196685 -0.305746 9.77334 
9.85202 0.0124309 0.0933868 
0.0124309 9.68525 -0.34769 
0.0933868 -0.34769 9.7853 
9.89321 0.0693347 0.134361 
0.0693347 9.66635 -0.290822 
0.134361 -0.290822 9.76302 
10.1124 0.463977 0.028903 
0.463977 9.33948 0.0703567 
0.028903 0.0703567 10.5858 
9.9261 0.070548 -0.0206531 
0.070548 9.88044 0.165457 
-0.0206531 0.165457 10.2312 
10.0576 0.632965 -0.561818 
0.632965 9.25319 0.660198 
-0.561818 0.660198 10.7269 
10.1323 0.195141 0.493645 
0.195141 9.3033 0.215919 
0.493645 0.215919 10.6021 
9.87555 -0.0535293 0.00581603 
-0.0535293 9.78749 -0.211459 
0.00581603 -0.211459 9.80063 
9.92219 -0.0807776 -0.12532 
-0.0807776 9.68777 -0.257671 
-0.12532 -0.257671 9.85371 
9.8527 -0.0175904 -0.101796 
-0.0175904 9.73998 -0.389035 
-0.101796 -0.389035 9.87099 
10.0021 0.00339993 -0.00336551 
0.00339993 9.63665 -0.424577 
-0.00336551 -0.424577 9.82494 
10.2418 -0.0342919 -0.0366889 
-0.0342919 10.4158 -0.00988784 
-0.0366889 -0.00988784 10.1121 
10.1094 -0.0744782 -0.103592 
-0.0744782 10.0527 0.0322763 
-0.103592 0.0322763 10.6076 
10.1651 -0.180868 -0.109017 
-0.180868 10.1414 -0.0763512 
-0.109017 -0.0763512 10.4633 
10.1694 -0.108661 -0.014055 
-0.108661 10.1583 -0.350619 
-0.014055 -0.350619 10.4419 
10.7201 0.286728 0.0549204 
0.286728 10.8981 -0.489273 
0.0549204 -0.489273 10.4616 
9.28862 -0.0405073 0.0749129 
-0.0405073 10.1621 0.77499 
0.0749129 0.77499 12.629 
11.3532 -0.50334 0.0909447 
-0.50334 11.3818 -0.519525 
0.0909447 -0.519525 9.34474 
10.419 0.682278 0.678516 
0.682278 10.1648 -0.7248 
0.678516 -0.7248 11.4959 
10.0004 -0.119419 0.15706 
-0.119419 10.1302 -0.0124775 
0.15706 -0.0124775 10.9039 
10.1474 -0.194441 0.120802 
-0.194441 10.1217 0.157918 
0.120802 0.157918 10.7653 
10.0206 -0.503979 0.233857 
-0.503979 10.3478 0.171826 
0.233857 0.171826 10.6661 
10.2385 -0.094213 0.108695 
-0.094213 10.0496 0.218107 
0.108695 0.218107 10.7464 
9.68812 0.0381381 -0.101929 
0.0381381 9.86825 0.333245 
-0.101929 0.333245 9.86452 
10.109 0.0409573 -0.0342364 
0.0409573 9.64705 0.273587 
-0.0342364 0.273587 9.66487 
9.86719 0.144821 -0.187165 
0.144821 9.69318 0.389261 
-0.187165 0.389261 9.86053 
9.97428 0.134713 -0.242633 
0.134713 9.5785 0.277648 
-0.242633 0.277648 9.86811 
10.1539 -0.0888271 -0.0296612 
-0.0888271 9.8535 -0.180599 
-0.0296612 -0.180599 10.1409 
9.9812 -0.131684 -0.205864 
-0.131684 9.82202 -0.0225015 
-0.205864 -0.0225015 10.3451 
9.88571 -0.252486 -0.0775695 
-0.252486 9.98673 -0.0204082 
-0.0775695 -0.0204082 10.2759 
9.95219 -0.241668 -0.0881429 
-0.241668 10.0002 -0.0334674 
-0.0881429 -0.0334674 10.196 
9.87417 -0.040603 0.385368 
-0.040603 10.0788 0.0855874 
0.385368 0.0855874 9.74021 
9.96243 0.00547767 0.217738 
0.00547767 9.97441 0.0423803 
0.217738 0.0423803 9.75632 
9.96075 0.0249089 0.216894 
0.0249089 9.98763 0.0117371 
0.216894 0.0117371 9.74478 
9.90144 -0.00686659 0.195954 
-0.00686659 9.9506 0.0278502 
0.195954 0.0278502 9.84112 
10.4844 0.0304127 0.113159 
0.0304127 10.8065 -0.075256 
0.113159 -0.075256 10.1967 
9.78438 0.0813946 -0.130154 
0.0813946 10.0034 0.0424696 
-0.130154 0.0424696 11.6998 
10.5808 -0.120975 0.132586 
-0.120975 10.439 0.0359259 
0.132586 0.0359259 10.4677 
9.96324 0.162376 1.05327 
0.162376 10.7791 0.164227 
1.05327 0.164227 10.7452 
11.6674 0.922998 1.07493 
0.922998 10.3948 0.607656 
1.07493 0.607656 20.8739 
9.21043 -0.0100996 0.444696 
-0.0100996 11.5421 0.118674 
0.444696 0.118674 22.1835 
12.3784 -0.569608 -0.578319 
-0.569608 13.6645 -0.120986 
-0.578319 -0.120986 16.8932 
11.0986 -1.79437 -0.992341 
-1.79437 12.859 -1.58379 
-0.992341 -1.58379 18.9785 
10.4293 0.0836405 0.00813668 
0.0836405 9.27886 -2.4761 
0.00813668 -2.4761 10.4088 
10.3185 0.111321 -0.217357 
0.111321 9.01794 -1.05193 
-0.217357 -1.05193 10.7806 
11.1556 0.966196 -0.18946 
0.966196 9.67251 -1.97273 
-0.18946 -1.97273 9.28891 
10.8488 0.0393522 0.569093 
0.0393522 8.6427 -0.838559 
0.569093 -0.838559 10.6255 
9.82212 0.0720338 -0.0978993 
0.0720338 9.75565 0.189074 
-0.0978993 0.189074 9.89981 
9.77677 -0.0310946 -0.0797446 
-0.0310946 9.89158 0.12472 
-0.0797446 0.12472 9.80922 
9.79177 0.0163635 -0.0988459 
0.0163635 9.82449 0.129277 
-0.0988459 0.129277 9.86132 
9.78837 0.0231171 -0.0540018 
0.0231171 9.76614 0.118929 
-0.0540018 0.118929 9.92307 
9.92622 -0.0210141 -0.201366 
-0.0210141 9.90647 -0.146734 
-0.201366 -0.146734 9.93865 
9.89673 -0.0392132 -0.218286 
-0.0392132 9.9443 -0.152093 
-0.218286 -0.152093 9.93032 
9.87174 -0.0403643 -0.195955 
-0.0403643 9.93886 -0.157494 
-0.195955 -0.157494 9.96075 
9.9137 -0.0317454 -0.211987 
-0.0317454 9.91851 -0.143272 
-0.211987 -0.143272 9.93915 
9.8702 -0.0806623 0.0993015 
-0.0806623 9.9796 0.0667989 
0.0993015 0.0667989 10.2599 
9.86661 -0.106732 0.00270223 
-0.106732 9.8659 0.047626 
0.00270223 0.047626 10.3772 
9.95052 -0.0712809 -0.0552173 
-0.0712809 9.9438 -0.00459909 
-0.0552173 -0.00459909 10.2153 
10.0216 0.00676483 -0.0994412 
0.00676483 9.94577 -0.163699 
-0.0994412 -0.163699 10.1423 
9.84744 0.0156101 0.0424283 
0.0156101 10.0019 0.22372 
0.0424283 0.22372 9.82004 
9.9 -0.0143869 0.0631458 
-0.0143869 9.86876 0.222834 
0.0631458 0.222834 9.90057 
9.91752 -0.0229417 0.073052 
-0.0229417 9.76713 0.269341 
0.073052 0.269341 9.98467 
9.8957 -0.0627218 0.0821246 
-0.0627218 9.83021 0.120445 
0.0821246 0.120445 9.94342 
10.002 -0.0629728 -0.00590845 
-0.0629728 9.2752 0.22664 
-0.00590845 0.22664 10.762 
9.3954 -0.0683297 0.12508 
-0.0683297 9.87886 0.471611 
0.12508 0.471611 10.7649 
9.99002 -0.0322377 0.145569 
-0.0322377 9.31103 0.362902 
0.145569 0.362902 10.7381 
10.0987 0.454836 -0.490217 
0.454836 9.58229 0.338681 
-0.490217 0.338681 10.3582 
9.99886 0.725984 1.37086 
0.725984 9.43771 1.10232 
1.37086 1.10232 8.57 
7.9475 -0.396764 -0.796418 
-0.396764 11.7613 2.21672 
-0.796418 2.21672 8.29781 
9.78753 -1.2372 -1.19872 
-1.2372 10.4121 -0.662582 
-1.19872 -0.662582 7.80692 
9.08802 -0.105476 -0.285538 
-0.105476 10.5848 0.703388 
-0.285538 0.703388 8.3337 
9.78822 0.016968 -0.37692 
0.016968 9.9016 0.167236 
-0.37692 0.167236 8.83384 
9.6175 0.0201485 -0.305105 
0.0201485 9.85174 0.136893 
-0.305105 0.136893 9.05441 
9.68425 -0.0189858 -0.235912 
-0.0189858 9.76695 0.0517333 
-0.235912 0.0517333 9.07245 
9.59626 0.00460728 -0.29993 
0.00460728 9.73182 0.16777 
-0.29993 0.16777 9.19558 
9.25293 0.317706 0.240938 
0.317706 9.48468 0.779949 
0.240938 0.779949 8.76858 
10.3284 -0.384906 0.73289 
-0.384906 8.83799 0.323714 
0.73289 0.323714 8.33983 
10.2444 -0.109741 0.900917 
-0.109741 9.79104 0.972838 
0.900917 0.972838 7.47076 
9.78703 -0.594379 1.03326 
-0.594379 8.97226 0.396427 
1.03326 0.396427 8.74691 
9.9486 -0.000791121 0.0378176 
-0.000791121 9.95936 0.00251764 
0.0378176 0.00251764 9.87818 
9.97116 -0.116119 0.00548838 
-0.116119 10.0591 0.0327592 
0.00548838 0.0327592 9.75586 
9.98519 0.00240844 0.034845 
0.00240844 9.94051 0.0268477 
0.034845 0.0268477 9.86044 
9.99433 0.0412422 -0.0206372 
0.0412422 9.93991 0.0967069 
-0.0206372 0.0967069 9.85189 
9.95679 -0.004949 0.222331 
-0.004949 9.97266 0.0982462 
0.222331 0.0982462 9.96118 
9.94434 -0.00268047 0.214253 
-0.00268047 9.95028 0.0924851 
0.214253 0.0924851 9.99601 
9.94654 -0.00677689 0.222726 
-0.00677689 9.94488 0.0939362 
0.222726 0.0939362 9.99922 
9.94848 -0.00791797 0.226242 
-0.00791797 9.97953 0.0816173 
0.226242 0.0816173 9.96263 
10.0372 0.252108 -0.223109 
0.252108 9.70606 0.279773 
-0.223109 0.279773 9.50342 
9.40828 0.367246 -0.440299 
0.367246 9.13711 0.314313 
-0.440299 0.314313 10.7013 
9.09438 -0.0441841 -0.463013 
-0.0441841 9.78625 0.846835 
-0.463013 0.846835 10.3661 
9.71958 -0.276381 -0.093919 
-0.276381 9.48877 0.612591 
-0.093919 0.612591 10.0384 
9.8673 -0.18197 0.349035 
-0.18197 9.59176 0.248332 
0.349035 0.248332 10.0746 
10.023 -0.0541715 0.40752 
-0.0541715 9.55451 0.460762 
0.40752 0.460762 9.95608 
9.73099 -0.0769113 0.307741 
-0.0769113 9.85286 0.205264 
0.307741 0.205264 9.94977 
9.88081 -0.104525 0.363398 
-0.104525 9.64707 0.303744 
0.363398 0.303744 10.0057 
9.92934 -0.0171468 0.223337 
-0.0171468 9.94995 0.0925302 
0.223337 0.0925302 9.97004 
9.94866 0.00494112 0.192433 
0.00494112 9.93843 0.0721101 
0.192433 0.0721101 9.96224 
9.93576 0.00774461 0.235836 
0.00774461 9.9306 0.100938 
0.235836 0.100938 9.98296 
9.92122 -0.0220892 0.220083 
-0.0220892 9.94956 0.0924251 
0.220083 0.0924251 9.97855 
9.84244 0.0783702 0.198657 
0.0783702 9.8161 -0.203284 
0.198657 -0.203284 10.032 
9.83066 0.0938554 0.18811 
0.0938554 9.81037 -0.216263 
0.18811 -0.216263 10.0495 
9.82775 0.0567166 0.212287 
0.0567166 9.82206 -0.175161 
0.212287 -0.175161 10.0407 
9.85785 0.0583561 0.201298 
0.0583561 9.80858 -0.21895 
0.201298 -0.21895 10.0241 
9.93239 -0.0125319 -0.116617 
-0.0125319 9.74506 -0.0701392 
-0.116617 -0.0701392 9.83493 
9.87007 -0.0103565 -0.121866 
-0.0103565 9.78852 -0.080929 
-0.121866 -0.080929 9.85379 
9.74792 -0.0394929 -0.0841971 
-0.0394929 9.8457 -0.0596843 
-0.0841971 -0.0596843 9.91876 
9.78844 -0.024053 -0.202032 
-0.024053 9.81509 -0.0431517 
-0.202032 -0.0431517 9.90885 
10.0769 -0.0747537 -0.132117 
-0.0747537 9.71527 -0.27169 
-0.132117 -0.27169 9.53367 
10.0128 -0.0699873 -0.290025 
-0.0699873 9.50746 -0.372955 
-0.290025 -0.372955 9.80551 
9.94159 -0.0516962 -0.194448 
-0.0516962 9.70227 -0.327032 
-0.194448 -0.327032 9.68195 
9.91198 0.0249795 -0.0839261 
0.0249795 9.62871 -0.445832 
-0.0839261 -0.445832 9.78512 
10.2662 -0.319167 -0.588432 
-0.319167 9.56846 0.597575 
-0.588432 0.597575 9.35102 
10.1761 -0.0636896 -0.233836 
-0.0636896 9.59049 0.351898 
-0.233836 0.351898 9.41906 
9.91567 0.27699 -0.149504 
0.27699 9.72855 0.371998 
-0.149504 0.371998 9.54144 
10.5201 0.0838732 0.00293968 
0.0838732 9.56854 0.356099 
0.00293968 0.356099 9.09699 
9.82904 -0.00756814 -0.168719 
-0.00756814 9.4896 0.456236 
-0.168719 0.456236 14.0656 
11.0294 -1.4175 0.19935 
-1.4175 11.5001 1.46435 
0.19935 1.46435 10.8548 
10.7449 -1.2706 0.436695 
-1.2706 10.2793 0.590714 
0.436695 0.590714 12.36 
10.4174 -0.0923633 -0.228881 
-0.0923633 9.94278 0.113858 
-0.228881 0.113858 13.0241 
9.73645 -0.104103 -0.207838 
-0.104103 9.71976 -0.322627 
-0.207838 -0.322627 10.0252 
9.66903 -0.105981 -0.209857 
-0.105981 9.80785 -0.226406 
-0.209857 -0.226406 10.0045 
9.65415 -0.152473 -0.232149 
-0.152473 9.90615 -0.214289 
-0.232149 -0.214289 9.92107 
9.64782 -0.049635 -0.228373 
-0.049635 9.75677 -0.172514 
-0.228373 -0.172514 10.0768 
9.87651 -0.012688 -0.223495 
-0.012688 9.92642 0.0780769 
-0.223495 0.0780769 9.90415 
9.85793 0.0242694 -0.302237 
0.0242694 9.96035 0.109383 
-0.302237 0.109383 9.8888 
9.87785 0.0261034 -0.240915 
0.0261034 9.93225 0.0818231 
-0.240915 0.0818231 9.89697 
9.88506 0.0306795 -0.240772 
0.0306795 9.91775 0.0863766 
-0.240772 0.0863766 9.90427 
9.89215 -0.0286521 0.188558 
-0.0286521 9.91292 0.170038 
0.188558 0.170038 9.99744 
9.90634 -0.0136111 0.140063 
-0.0136111 9.92289 0.144803 
0.140063 0.144803 9.97329 
9.87889 -0.0264919 0.18096 
-0.0264919 9.91841 0.159146 
0.18096 0.159146 10.0052 
9.89378 -0.0254234 0.174259 
-0.0254234 9.91215 0.155062 
0.174259 0.155062 9.99659 
9.77228 -0.000841311 -0.0179637 
-0.000841311 9.85298 0.209107 
-0.0179637 0.209107 9.78701 
9.83315 0.0231365 -0.0369113 
0.0231365 9.71003 0.237343 
-0.0369113 0.237343 9.86908 
9.84567 0.0203506 -0.0377575 
0.0203506 9.73637 0.209048 
-0.0377575 0.209048 9.83023 
9.82664 -0.0486741 -0.0110453 
-0.0486741 9.73388 0.201534 
-0.0110453 0.201534 9.85174 
-2.22019 5.2575 8.15055 
5.2575 9.16489 -4.33925 
8.15055 -4.33925 25.4043 
9.52544 4.18774 -4.55333 
4.18774 13.2591 2.3017 
-4.55333 2.3017 9.56446 
-0.823619 5.32473 9.89154 
5.32473 4.10916 -3.43727 
9.89154 -3.43727 29.0635 
14.066 -1.6642 3.08201 
-1.6642 10.0623 -1.50597 
3.08201 -1.50597 8.22071 
9.94426 0.00046003 -0.00463867 
0.00046003 9.81822 0.019021 
-0.00463867 0.019021 9.86609 
9.93594 -0.0147293 -0.0159159 
-0.0147293 9.8288 0.00239673 
-0.0159159 0.00239673 9.86382 
9.81706 0.0681813 -0.0912451 
0.0681813 9.8633 0.0219025 
-0.0912451 0.0219025 9.9482 
9.83183 -0.000668834 -0.00423705 
-0.000668834 9.8165 0.00189535 
-0.00423705 0.00189535 9.98023 
9.78776 0.0437928 0.0502514 
0.0437928 9.78645 -0.0708164 
0.0502514 -0.0708164 9.93534 
9.7962 0.0407213 0.0587278 
0.0407213 9.80742 -0.0612658 
0.0587278 -0.0612658 9.90593 
9.78701 0.0181213 0.0310024 
0.0181213 9.76778 -0.0679551 
0.0310024 -0.0679551 9.95476 
9.76769 0.0428896 0.049579 
0.0428896 9.78804 -0.0619777 
0.049579 -0.0619777 9.95382 
9.91265 -0.0195146 -0.180453 
-0.0195146 9.91218 -0.179582 
-0.180453 -0.179582 9.96984 
9.90958 -0.0209151 -0.178693 
-0.0209151 9.90792 -0.188612 
-0.178693 -0.188612 9.97717 
9.91572 -0.0299977 -0.180455 
-0.0299977 9.92542 -0.190177 
-0.180455 -0.190177 9.95353 
9.9371 -0.0187274 -0.179945 
-0.0187274 9.88286 -0.193738 
-0.179945 -0.193738 9.9747 
9.90744 0.0283015 0.154234 
0.0283015 9.91684 -0.117383 
0.154234 -0.117383 9.94835 
9.91893 -0.0118003 0.211635 
-0.0118003 9.89476 -0.182446 
0.211635 -0.182446 9.95893 
9.89446 0.0343065 0.184614 
0.0343065 9.89721 -0.158112 
0.184614 -0.158112 9.98096 
9.90132 0.0189808 0.180024 
0.0189808 9.89965 -0.160777 
0.180024 -0.160777 9.97166 
9.48846 0.145671 -0.695996 
0.145671 10.6247 0.76693 
-0.695996 0.76693 7.87882 
8.37007 1.18153 -1.29418 
1.18153 10.1558 1.59454 
-1.29418 1.59454 9.46611 
9.60277 0.0883043 -0.511331 
0.0883043 10.1557 0.292907 
-0.511331 0.292907 8.23352 
9.26643 -0.244512 -0.873671 
-0.244512 11.0928 0.621899 
-0.873671 0.621899 7.63275 
9.75655 -0.134784 -0.0753913 
-0.134784 9.67466 -0.116868 
-0.0753913 -0.116868 9.99555 
9.82026 -0.0514012 -0.122149 
-0.0514012 9.7371 -0.201434 
-0.122149 -0.201434 9.8694 
9.69965 -0.0864059 -0.0524766 
-0.0864059 9.68277 -0.128918 
-0.0524766 -0.128918 10.0443 
9.70449 -0.0564212 -0.0837255 
-0.0564212 9.76549 -0.0728702 
-0.0837255 -0.0728702 9.95679 
9.94383 0.0111556 0.00845667 
0.0111556 9.90764 -0.226291 
0.00845667 -0.226291 9.96199 
9.95075 -0.00479808 0.00189999 
-0.00479808 9.91529 -0.243715 
0.00189999 -0.243715 9.94742 
9.95571 0.00307015 0.00900271 
0.00307015 9.91177 -0.252306 
0.00900271 -0.252306 9.94598 
9.95029 -0.0173575 -0.0101006 
-0.0173575 9.91465 -0.24611 
-0.0101006 -0.24611 9.94853 
9.80487 -0.000406684 0.0691641 
-0.000406684 9.86925 0.218621 
0.0691641 0.218621 9.82128 
9.85111 -0.0279896 0.0672889 
-0.0279896 9.77891 0.201323 
0.0672889 0.201323 9.86537 
9.84103 -0.0330482 0.0625977 
-0.0330482 9.79002 0.218568 
0.0625977 0.218568 9.86435 
9.85236 0.00203303 0.0710894 
0.00203303 9.7867 0.241362 
0.0710894 0.241362 9.85634 
10.0737 0.13821 -1.34856 
0.13821 9.77925 -0.278063 
-1.34856 -0.278063 8.71573 
9.89055 0.328271 -0.661844 
0.328271 9.312 0.16234 
-0.661844 0.16234 9.36609 
9.15607 -0.0426763 -1.42036 
-0.0426763 9.46998 0.518087 
-1.42036 0.518087 9.94259 
9.49289 -0.0933794 -1.13415 
-0.0933794 9.29529 0.164667 
-1.13415 0.164667 9.78045 
9.81948 -0.0350202 0.0277221 
-0.0350202 9.68731 0.21321 
0.0277221 0.21321 9.8449 
9.70811 0.0147658 0.0140796 
0.0147658 9.87656 0.205703 
0.0140796 0.205703 9.76703 
9.83432 -0.010599 0.0194767 
-0.010599 9.66688 0.19373 
0.0194767 0.19373 9.85049 
9.82249 0.0259834 0.0217233 
0.0259834 9.70282 0.281556 
0.0217233 0.281556 9.82638 
9.98503 0.118939 -0.0531248 
0.118939 9.8318 0.0712701 
-0.0531248 0.0712701 9.9129 
9.94707 -0.0396102 -0.0221108 
-0.0396102 9.97496 0.0463989 
-0.0221108 0.0463989 9.8077 
10.0017 0.0137499 -0.0574698 
0.0137499 9.94186 0.100848 
-0.0574698 0.100848 9.78612 
9.96509 0.00338214 -0.0720405 
0.00338214 9.96001 0.0738748 
-0.0720405 0.0738748 9.80464 
9.70284 0.0871824 0.259561 
0.0871824 9.95916 -0.180919 
0.259561 -0.180919 9.65317 
9.66763 0.0357175 0.331176 
0.0357175 9.87027 -0.0983713 
0.331176 -0.0983713 9.77727 
9.71712 0.0151334 0.302208 
0.0151334 9.77954 -0.226458 
0.302208 -0.226458 9.81851 
9.68708 0.0625762 0.26579 
0.0625762 9.89322 -0.155087 
0.26579 -0.155087 9.73487 
9.82475 0.0993886 -0.135775 
0.0993886 9.75684 0.179759 
-0.135775 0.179759 9.90917 
9.79379 -0.00820897 -0.0598285 
-0.00820897 9.84038 0.127176 
-0.0598285 0.127176 9.85659 
9.79218 -0.0366546 -0.0675773 
-0.0366546 9.89242 0.116124 
-0.0675773 0.116124 9.80615 
9.74706 0.0491491 -0.0981448 
0.0491491 9.80421 0.0762907 
-0.0981448 0.0762907 9.93949 
9.85726 0.0545215 -0.171256 
0.0545215 9.98981 0.00450773 
-0.171256 0.00450773 9.94869 
9.98564 0.00213463 -0.204786 
0.00213463 9.93595 0.00233719 
-0.204786 0.00233719 9.87416 
9.93757 0.0343026 -0.187811 
0.0343026 10.0179 -0.0152093 
-0.187811 -0.0152093 9.84033 
9.991 -0.0473515 -0.188055 
-0.0473515 9.9245 -0.057816 
-0.188055 -0.057816 9.88025 
10.1197 -0.100572 -0.244471 
-0.100572 9.71731 -0.289391 
-0.244471 -0.289391 11.2279 
9.96451 -0.756557 0.00665692 
-0.756557 10.1877 -0.303694 
0.00665692 -0.303694 10.9126 
10.4599 0.0930898 0.00208785 
0.0930898 10.0228 -0.270633 
0.00208785 -0.270633 10.5821 
10.1593 -0.702868 -0.186965 
-0.702868 10.0027 -0.334584 
-0.186965 -0.334584 10.9028 
10.4551 -1.06587 2.93143 
-1.06587 8.4357 0.565844 
2.93143 0.565844 8.14322 
9.97185 0.567788 1.2923 
0.567788 9.67885 1.33639 
1.2923 1.33639 7.38329 
9.3342 -0.365141 1.44463 
-0.365141 8.40662 -0.000101319 
1.44463 -0.000101319 9.29317 
7.73224 -0.0314401 1.00286 
-0.0314401 10.148 -0.326751 
1.00286 -0.326751 9.15376 
10.0247 0.0132068 -0.00805113 
0.0132068 9.99057 -0.0144059 
-0.00805113 -0.0144059 10.0386 
10.0418 -0.0126391 -0.00500372 
-0.0126391 9.99186 -0.026114 
-0.00500372 -0.026114 10.0202 
10.0178 0.00885687 0.0142964 
0.00885687 10.0068 0.00709658 
0.0142964 0.00709658 10.0294 
10.0282 -0.00631061 0.00592271 
-0.00631061 9.99161 -0.00793977 
0.00592271 -0.00793977 10.034 
9.28961 -0.0427741 -0.618264 
-0.0427741 9.77364 -0.0168068 
-0.618264 -0.0168068 9.1071 
9.19124 -0.0238265 -0.574475 
-0.0238265 9.78679 0.172463 
-0.574475 0.172463 9.19233 
8.99607 0.417154 -0.582062 
0.417154 10.3061 0.240442 
-0.582062 0.240442 8.86818 
9.06954 0.0764275 -0.486118 
0.0764275 9.92342 0.0384571 
-0.486118 0.0384571 9.1774 
9.83693 -0.0803318 -0.218049 
-0.0803318 9.76279 -0.261316 
-0.218049 -0.261316 9.95155 
9.85852 -0.0649574 -0.235817 
-0.0649574 9.7175 -0.249614 
-0.235817 -0.249614 9.97525 
9.91181 -0.081322 -0.255795 
-0.081322 9.72587 -0.231063 
-0.255795 -0.231063 9.91359 
9.87024 -0.0774264 -0.247213 
-0.0774264 9.73805 -0.251164 
-0.247213 -0.251164 9.94299 
9.40281 -0.277771 -0.156644 
-0.277771 9.70807 0.0781421 
-0.156644 0.0781421 10.1353 
9.67041 0.0053435 -0.143186 
0.0053435 9.23918 -0.180762 
-0.143186 -0.180762 10.3366 
9.93209 -0.052774 -0.313731 
-0.052774 9.48891 -0.466922 
-0.313731 -0.466922 9.82519 
9.3458 -0.0338052 -0.320973 
-0.0338052 9.72351 -0.348972 
-0.320973 -0.348972 10.1769 
10.0255 0.0610124 -0.0797944 
0.0610124 9.596 0.463119 
-0.0797944 0.463119 9.86667 
9.90376 -0.0011234 0.049515 
-0.0011234 9.65316 0.355708 
0.049515 0.355708 9.93125 
10.0697 0.00752794 0.00680935 
0.00752794 9.59053 0.430498 
0.00680935 0.430498 9.8279 
9.94951 -0.0310619 -0.0394656 
-0.0310619 9.65865 0.398359 
-0.0394656 0.398359 9.88001 
9.77757 -0.109043 -0.10101 
-0.109043 9.56408 -0.13466 
-0.10101 -0.13466 9.89468 
9.93176 -0.108633 -0.121937 
-0.108633 9.3818 -0.277654 
-0.121937 -0.277654 9.92277 
9.79172 -0.0635493 -0.0913642 
-0.0635493 9.57692 -0.233336 
-0.0913642 -0.233336 9.86769 
9.79869 -0.0214122 -0.0107883 
-0.0214122 9.57711 -0.245977 
-0.0107883 -0.245977 9.86053 
9.64938 -0.306978 -0.323277 
-0.306978 12.0498 0.524285 
-0.323277 0.524285 15.2657 
12.3193 1.08355 -1.2093 
1.08355 14.1378 -0.146404 
-1.2093 -0.146404 10.5077 
10.7964 -1.20119 0.663825 
-1.20119 9.90309 1.12838 
0.663825 1.12838 16.2654 
9.15135 -1.65758 -1.55335 
-1.65758 11.7548 -2.15804 
-1.55335 -2.15804 16.0587 
9.83552 -0.0292153 0.110902 
-0.0292153 9.78593 0.217554 
0.110902 0.217554 9.93417 
9.84021 -0.0317371 0.109237 
-0.0317371 9.77704 0.218251 
0.109237 0.218251 9.93836 
9.84182 -0.0265405 0.110492 
-0.0265405 9.77496 0.219625 
0.110492 0.219625 9.93884 
9.83007 -0.0207002 0.106867 
-0.0207002 9.80211 0.235209 
0.106867 0.235209 9.92343 
9.94528 -0.045532 -0.210135 
-0.045532 9.92002 -0.256264 
-0.210135 -0.256264 9.81199 
9.95983 -0.0145731 -0.14243 
-0.0145731 9.8634 -0.214401 
-0.14243 -0.214401 9.85405 
9.98811 -0.0687096 -0.175698 
-0.0687096 9.86264 -0.286536 
-0.175698 -0.286536 9.82653 
9.95871 -0.0385899 -0.190937 
-0.0385899 9.88655 -0.262216 
-0.190937 -0.262216 9.83203 
9.62752 -0.157024 -0.230806 
-0.157024 9.65109 -0.295734 
-0.230806 -0.295734 10.0666 
9.7083 -0.140386 -0.157003 
-0.140386 9.5933 -0.193224 
-0.157003 -0.193224 10.0436 
9.66271 -0.171357 -0.160319 
-0.171357 9.67198 -0.22006 
-0.160319 -0.22006 10.0106 
9.64861 -0.148493 -0.205313 
-0.148493 9.68756 -0.271831 
-0.205313 -0.271831 10.0091 
9.90907 -0.00675979 0.0225084 
-0.00675979 9.86342 -0.234871 
0.0225084 -0.234871 9.91411 
9.91452 0.00136404 0.00136785 
0.00136404 9.85504 -0.243041 
0.00136785 -0.243041 9.91704 
9.91386 -0.00903077 0.0142414 
-0.00903077 9.85251 -0.23424 
0.0142414 -0.23424 9.92023 
9.91325 -0.00814635 0.00803088 
-0.00814635 9.86257 -0.243048 
0.00803088 -0.243048 9.91078 
9.94745 -0.00381646 -0.00274161 
-0.00381646 9.89623 -0.227505 
-0.00274161 -0.227505 9.94293 
9.94906 0.00875112 -0.0209429 
0.00875112 9.89034 -0.244268 
-0.0209429 -0.244268 9.94721 
9.94707 -0.0136795 -0.0234791 
-0.0136795 9.90627 -0.247205 
-0.0234791 -0.247205 9.93326 
9.95553 0.00482405 -0.0190582 
0.00482405 9.89733 -0.232565 
-0.0190582 -0.232565 9.93375 
9.91901 0.0259409 0.163096 
0.0259409 9.92193 -0.110451 
0.163096 -0.110451 9.94285 
9.90532 0.0111511 0.205673 
0.0111511 9.92891 -0.155425 
0.205673 -0.155425 9.94957 
9.91628 -7.72887e-05 0.175307 
-7.72887e-05 9.89984 -0.137248 
0.175307 -0.137248 9.96767 
9.90938 0.0170234 0.186748 
0.0170234 9.89883 -0.145117 
0.186748 -0.145117 9.97558 
9.68963 -0.0891524 -0.363674 
-0.0891524 10.0368 -0.0220542 
-0.363674 -0.0220542 9.66647 
9.67329 0.0691574 -0.305685 
0.0691574 9.95642 0.168564 
-0.305685 0.168564 9.76318 
9.67785 0.0277173 -0.282593 
0.0277173 9.8648 0.00578625 
-0.282593 0.00578625 9.85024 
9.69092 0.0234539 -0.307492 
0.0234539 9.9476 0.0697097 
-0.307492 0.0697097 9.75436 
9.87129 -0.0240662 0.0110821 
-0.0240662 9.78786 0.0184878 
0.0110821 0.0184878 10.0377 
9.75218 -0.151922 -0.00668057 
-0.151922 9.8131 0.0353586 
-0.00668057 0.0353586 10.1316 
9.83961 -0.0375473 0.0854943 
-0.0375473 9.8349 0.041833 
0.0854943 0.041833 10.0224 
9.86919 -0.0226081 0.0765782 
-0.0226081 9.77266 0.0545331 
0.0765782 0.0545331 10.055 
9.77008 -0.0302277 0.359906 
-0.0302277 9.61359 0.191596 
0.359906 0.191596 10.0813 
9.54076 -0.115509 0.399315 
-0.115509 9.65793 0.247523 
0.399315 0.247523 10.2663 
9.78542 -0.0941074 0.431278 
-0.0941074 9.65807 0.233134 
0.431278 0.233134 10.0215 
9.86753 -0.125877 0.435828 
-0.125877 9.56142 0.266069 
0.435828 0.266069 10.036 
9.91976 -0.00795396 0.103727 
-0.00795396 9.87767 0.214336 
0.103727 0.214336 9.86809 
9.97905 -0.0535806 0.113777 
-0.0535806 9.90723 0.251776 
0.113777 0.251776 9.77925 
9.93991 0.00891366 0.0978163 
0.00891366 9.84442 0.265269 
0.0978163 0.265269 9.88119 
9.93392 -0.00919207 0.110978 
-0.00919207 9.86427 0.255723 
0.110978 0.255723 9.86733 
9.91773 0.0107521 -0.0994796 
0.0107521 9.90521 0.227037 
-0.0994796 0.227037 9.90277 
9.93212 0.0144014 -0.0748575 
0.0144014 9.87775 0.227385 
-0.0748575 0.227385 9.91583 
9.93906 0.0172229 -0.11368 
0.0172229 9.89982 0.226919 
-0.11368 0.226919 9.88682 
9.93123 0.0158256 -0.0950873 
0.0158256 9.89866 0.222287 
-0.0950873 0.222287 9.89581 
11.1806 -0.283535 -0.104463 
-0.283535 9.74912 -0.583326 
-0.104463 -0.583326 12.732 
10.3385 1.12166 -0.649648 
1.12166 10.0539 0.226459 
-0.649648 0.226459 13.2694 
10.7588 0.521481 0.0904062 
0.521481 10.1176 -0.484783 
0.0904062 -0.484783 12.7854 
10.9438 -0.00783421 -0.048852 
-0.00783421 9.92475 -0.452652 
-0.048852 -0.452652 12.7932 
9.93988 0.000741973 0.0368954 
0.000741973 9.89528 -0.231284 
0.0368954 -0.231284 9.95821 
9.96234 0.00446096 0.0466364 
0.00446096 9.90115 -0.250269 
0.0466364 -0.250269 9.92989 
9.94655 0.0052471 0.045903 
0.0052471 9.89565 -0.244316 
0.045903 -0.244316 9.95117 
9.92695 0.0182765 0.0713935 
0.0182765 9.92649 -0.23859 
0.0713935 -0.23859 9.93993 
9.86059 -0.0262705 0.171708 
-0.0262705 9.95453 0.0163371 
0.171708 0.0163371 9.84146 
9.90226 0.00740763 0.217206 
0.00740763 9.93279 0.0333078 
0.217206 0.0333078 9.82153 
9.90169 -0.00227639 0.221092 
-0.00227639 9.93692 0.0210167 
0.221092 0.0210167 9.81797 
9.8834 -0.00419057 0.225105 
-0.00419057 9.9243 0.0323993 
0.225105 0.0323993 9.84887 
11.3341 -0.391384 0.494129 
-0.391384 8.81797 0.564459 
0.494129 0.564459 11.8482 
10.0155 -0.0834882 0.145297 
-0.0834882 9.35583 0.366511 
0.145297 0.366511 12.6289 
9.59267 0.579392 0.500646 
0.579392 11.8881 0.927807 
0.500646 0.927807 10.5195 
11.0573 -0.484392 0.617132 
-0.484392 8.67204 1.32797 
0.617132 1.32797 12.2709 
9.62158 0.139594 0.255183 
0.139594 9.68505 -0.256585 
0.255183 -0.256585 10.0455 
9.57555 0.122524 0.183893 
0.122524 9.73976 -0.189448 
0.183893 -0.189448 10.0369 
9.67182 0.0629903 0.215903 
0.0629903 9.76194 -0.128428 
0.215903 -0.128428 9.91841 
9.5601 0.125913 0.316125 
0.125913 9.71038 -0.276253 
0.316125 -0.276253 10.0817 
9.78495 0.0383589 -0.210641 
0.0383589 9.88483 0.120452 
-0.210641 0.120452 9.92938 
9.79603 0.0377151 -0.214148 
0.0377151 9.90146 0.110096 
-0.214148 0.110096 9.90168 
9.79861 0.0335175 -0.269387 
0.0335175 9.84669 0.120308 
-0.269387 0.120308 9.95387 
9.79742 0.02621 -0.22344 
0.02621 9.86864 0.107712 
-0.22344 0.107712 9.9331 
9.82134 -0.165611 0.298719 
-0.165611 9.81163 0.235364 
0.298719 0.235364 10.0921 
9.8669 -0.161617 0.285075 
-0.161617 9.78377 0.241794 
0.285075 0.241794 10.0744 
9.84863 -0.143772 0.241086 
-0.143772 9.7809 0.201481 
0.241086 0.201481 10.0955 
9.91449 -0.186539 0.292329 
-0.186539 9.73763 0.28143 
0.292329 0.28143 10.0729 
4.14657 -0.00465717 0.984319 
-0.00465717 8.9999 0.778393 
0.984319 0.778393 -4.33646 
5.05796 0.425051 -0.345272 
0.425051 5.3347 1.54247 
-0.345272 1.54247 -1.58265 
0.358498 -0.288503 -3.41629 
-0.288503 0.530743 -0.585121 
-3.41629 -0.585121 7.92077 
7.88952 0.295261 -4.65057 
0.295261 5.437 0.356278 
-4.65057 0.356278 -4.51651 
9.96327 -0.01108 0.0112039 
-0.01108 9.9511 -0.236973 
0.0112039 -0.236973 9.98806 
9.96394 -0.00448293 0.0156325 
-0.00448293 9.94183 -0.247662 
0.0156325 -0.247662 9.99666 
9.97659 -0.000605613 0.00535842 
-0.000605613 9.95335 -0.239772 
0.00535842 -0.239772 9.97249 
9.97979 -0.000488313 -0.00655432 
-0.000488313 9.95197 -0.240515 
-0.00655432 -0.240515 9.97067 
10.7098 -0.469997 -1.50018 
-0.469997 9.31374 -0.463478 
-1.50018 -0.463478 8.32624 
9.91441 0.312711 -0.073506 
0.312711 9.485 -0.350215 
-0.073506 -0.350215 8.95043 
10.7991 -0.047335 -0.505389 
-0.047335 9.33365 -0.392804 
-0.505389 -0.392804 8.21712 
11.5124 -0.149154 -0.0415573 
-0.149154 9.19761 -0.665906 
-0.0415573 -0.665906 7.63981 
9.36751 0.172075 -0.357085 
0.172075 9.59293 0.824102 
-0.357085 0.824102 8.50087 
9.34412 -0.15978 -0.797881 
-0.15978 9.65911 0.546656 
-0.797881 0.546656 8.45807 
8.73582 0.0585209 -0.79591 
0.0585209 10.2031 0.938244 
-0.79591 0.938244 8.52236 
9.23731 0.0404531 -0.71719 
0.0404531 9.64285 0.75119 
-0.71719 0.75119 8.58116 
11.0697 -0.284576 2.77644 
-0.284576 8.81886 -0.565256 
2.77644 -0.565256 5.2629 
7.92351 0.00270402 1.20999 
0.00270402 7.96319 0.75134 
1.20999 0.75134 9.26477 
11.4441 0.04922 -0.117849 
0.04922 8.07124 -1.02444 
-0.117849 -1.02444 5.63609 
9.99525 0.475631 0.817629 
0.475631 8.42681 -0.291595 
0.817629 -0.291595 6.72941 
9.75975 -0.0632052 -0.0906421 
-0.0632052 9.74903 -0.0900443 
-0.0906421 -0.0900443 10.0105 
9.74126 -0.0540017 -0.0543286 
-0.0540017 9.76781 -0.0850565 
-0.0543286 -0.0850565 10.0102 
9.756 -0.0685944 -0.0864032 
-0.0685944 9.75394 -0.0752672 
-0.0864032 -0.0752672 10.0094 
9.7314 -0.0586279 -0.0994997 
-0.0586279 9.73869 -0.0617768 
-0.0994997 -0.0617768 10.0492 
9.84088 0.0508121 0.153147 
0.0508121 9.67474 -0.23124 
0.153147 -0.23124 9.93193 
9.89027 0.0146158 0.080621 
0.0146158 9.78458 -0.346582 
0.080621 -0.346582 9.7727 
10.0199 0.0690503 0.416697 
0.0690503 9.61439 -0.287685 
0.416697 -0.287685 9.81322 
9.85297 0.112121 0.141646 
0.112121 9.72616 -0.276442 
0.141646 -0.276442 9.86842 
9.49571 -0.727806 -0.373846 
-0.727806 10.4621 0.288887 
-0.373846 0.288887 8.49128 
9.21978 -0.14343 0.697491 
-0.14343 9.94503 0.547416 
0.697491 0.547416 9.28431 
9.72872 0.0937802 0.978937 
0.0937802 10.6064 1.19904 
0.978937 1.19904 8.11397 
10.4387 -0.5257 -0.785632 
-0.5257 8.8082 0.81605 
-0.785632 0.81605 9.2022 
9.90448 0.0127058 -0.0941195 
0.0127058 9.90282 -0.245684 
-0.0941195 -0.245684 9.91291 
9.96809 0.00549652 -0.0940919 
0.00549652 9.84 -0.339002 
-0.0940919 -0.339002 9.91213 
9.97736 -0.036646 -0.0636582 
-0.036646 9.85152 -0.258346 
-0.0636582 -0.258346 9.89133 
9.94597 -0.0375243 -0.116282 
-0.0375243 9.88192 -0.227826 
-0.116282 -0.227826 9.89232 
9.92281 0.0027081 0.230621 
0.0027081 9.89375 0.131962 
0.230621 0.131962 9.95017 
9.89333 -0.020246 0.181712 
-0.020246 9.93144 0.0922505 
0.181712 0.0922505 9.94197 
9.89019 -0.0263056 0.211915 
-0.0263056 9.90288 0.119373 
0.211915 0.119373 9.97367 
9.89216 -0.0174714 0.207968 
-0.0174714 9.9085 0.12186 
0.207968 0.12186 9.96608 
9.91084 0.00310468 0.0248006 
0.00310468 9.85984 -0.0619627 
0.0248006 -0.0619627 10.0107 
9.90264 0.0613041 0.0348979 
0.0613041 9.83771 -0.0659395 
0.0348979 -0.0659395 10.0411 
9.88727 0.0443207 0.0507985 
0.0443207 9.85061 -0.0193732 
0.0507985 -0.0193732 10.0435 
9.92503 0.115559 -0.0146323 
0.115559 9.80384 0.0273291 
-0.0146323 0.0273291 10.0525 
9.99629 0.0456239 -0.0398187 
0.0456239 9.9452 0.0315742 
-0.0398187 0.0315742 9.95256 
9.95179 0.0483484 -0.00410896 
0.0483484 9.94293 -0.0147711 
-0.00410896 -0.0147711 9.99933 
9.94795 0.0427889 0.011538 
0.0427889 9.94228 -0.0478213 
0.011538 -0.0478213 10.0038 
10.0129 0.0191458 -0.03065 
0.0191458 9.90022 0.00592925 
-0.03065 0.00592925 9.98095 
9.92068 0.0285943 0.216618 
0.0285943 9.96215 0.0782014 
0.216618 0.0782014 9.98099 
9.94017 -0.0393073 0.220274 
-0.0393073 9.94532 0.104332 
0.220274 0.104332 9.97832 
9.92709 -0.0241886 0.220703 
-0.0241886 9.95432 0.0927761 
0.220703 0.0927761 9.98241 
9.90834 -0.000358983 0.261404 
-0.000358983 9.98369 0.102986 
0.261404 0.102986 9.97178 
9.76318 0.110806 0.224569 
0.110806 9.81913 0.0635194 
0.224569 0.0635194 9.51136 
9.73346 -0.00938795 0.295157 
-0.00938795 9.71958 0.268968 
0.295157 0.268968 9.64063 
9.71385 -0.147198 0.274054 
-0.147198 9.74607 0.321759 
0.274054 0.321759 9.63374 
10.0307 -0.107338 0.328843 
-0.107338 9.66797 0.428231 
0.328843 0.428231 9.39501 
9.69948 -0.00559078 0.241553 
-0.00559078 9.81636 0.0452961 
0.241553 0.0452961 9.83733 
9.67266 -0.0485086 0.261165 
-0.0485086 9.83164 0.0862799 
0.261165 0.0862799 9.84887 
9.70099 -0.0368402 0.243335 
-0.0368402 9.80382 0.0835312 
0.243335 0.0835312 9.84836 
9.74071 -0.0454631 0.210036 
-0.0454631 9.77675 0.0785375 
0.210036 0.0785375 9.83571 
9.93168 -0.000819125 0.251995 
-0.000819125 9.95044 0.0533041 
0.251995 0.0533041 9.96458 
9.9247 -0.00569854 0.229969 
-0.00569854 9.9392 0.0525041 
0.229969 0.0525041 9.9828 
9.93723 -0.0167359 0.207039 
-0.0167359 9.93709 0.0554623 
0.207039 0.0554623 9.97238 
9.91312 -0.00361518 0.243562 
-0.00361518 9.9606 0.0641009 
0.243562 0.0641009 9.97298 
9.88502 0.00470145 0.253806 
0.00470145 9.90268 0.0305959 
0.253806 0.0305959 9.93396 
9.85829 -0.000354066 0.249007 
-0.000354066 9.91119 0.0367736 
0.249007 0.0367736 9.95218 
9.8893 -0.0202208 0.211506 
-0.0202208 9.9067 0.0422769 
0.211506 0.0422769 9.92565 
9.88073 -0.00287818 0.241256 
-0.00287818 9.91093 0.0411173 
0.241256 0.0411173 9.92999 
9.82389 0.0675232 0.22881 
0.0675232 9.80278 -0.204237 
0.22881 -0.204237 9.93177 
9.87778 0.055808 0.217303 
0.055808 9.80878 -0.20759 
0.217303 -0.20759 9.87188 
9.82336 0.0862382 0.201971 
0.0862382 9.79563 -0.208378 
0.201971 -0.208378 9.93945 
9.80674 0.0519304 0.259223 
0.0519304 9.82048 -0.252879 
0.259223 -0.252879 9.93121 
9.74483 -0.0184041 0.426315 
-0.0184041 9.63787 0.532177 
0.426315 0.532177 9.81602 
9.68446 -0.270961 0.252446 
-0.270961 9.56689 0.357327 
0.252446 0.357327 9.94736 
9.83583 -0.169519 0.238565 
-0.169519 9.49279 0.35446 
0.238565 0.35446 9.8701 
9.8114 -0.220138 0.279815 
-0.220138 9.41852 0.243832 
0.279815 0.243832 9.9688 
9.97437 -0.0232325 0.159588 
-0.0232325 9.77859 0.274921 
0.159588 0.274921 9.71591 
9.99375 -0.00782262 0.0570211 
-0.00782262 9.82334 0.342653 
0.0570211 0.342653 9.65177 
9.93845 0.00223182 0.12359 
0.00223182 9.70825 0.285443 
0.12359 0.285443 9.82216 
9.9572 -0.0204934 0.14442 
-0.0204934 9.78159 0.303603 
0.14442 0.303603 9.73008 
9.75456 0.11431 0.317546 
0.11431 9.88019 -0.15842 
0.317546 -0.15842 9.90904 
9.82406 0.0117958 0.323487 
0.0117958 9.77415 -0.283592 
0.323487 -0.283592 9.94558 
9.69634 0.0834304 0.167898 
0.0834304 9.84905 -0.261412 
0.167898 -0.261412 9.9984 
9.78019 0.102861 0.184938 
0.102861 9.79461 -0.148141 
0.184938 -0.148141 9.96899 
10.1045 0.0798554 -0.648519 
0.0798554 9.46508 -0.279974 
-0.648519 -0.279974 9.20364 
9.68007 -0.307891 -0.288378 
-0.307891 9.44875 -0.683989 
-0.288378 -0.683989 9.64438 
10.0554 -0.0637261 -0.827063 
-0.0637261 9.74265 -0.606477 
-0.827063 -0.606477 8.97512 
10.1991 0.135264 -0.449584 
0.135264 9.53725 -0.303187 
-0.449584 -0.303187 9.03688 
9.90349 0.00818074 0.0392648 
0.00818074 9.85937 -0.231503 
0.0392648 -0.231503 9.88863 
9.90995 0.0288807 0.0389735 
0.0288807 9.8339 -0.227424 
0.0389735 -0.227424 9.90764 
9.87744 0.00230209 0.0569642 
0.00230209 9.83001 -0.235833 
0.0569642 -0.235833 9.94404 
9.87674 0.0331909 0.0617964 
0.0331909 9.8541 -0.224248 
0.0617964 -0.224248 9.92065 
8.99353 -0.421522 -0.594043 
-0.421522 9.7182 0.953686 
-0.594043 0.953686 10.2943 
9.41958 -0.490408 -0.654656 
-0.490408 9.07359 0.388895 
-0.654656 0.388895 10.5129 
9.33341 0.147972 -0.25657 
0.147972 9.30326 0.468825 
-0.25657 0.468825 10.3694 
9.32873 0.0286933 -0.39961 
0.0286933 8.9926 0.546597 
-0.39961 0.546597 10.6847 
12.8295 3.05221 -0.812683 
3.05221 11.7563 2.61068 
-0.812683 2.61068 10.792 
7.39703 9.85798 1.97635 
9.85798 -2.48342 -4.93873 
1.97635 -4.93873 30.4641 
11.1032 2.57314 0.802527 
2.57314 10.1992 0.0940058 
0.802527 0.0940058 14.0752 
11.3235 1.84392 -0.473548 
1.84392 16.6104 -5.24264 
-0.473548 -5.24264 7.44373 
9.96955 0.00486055 0.02376 
0.00486055 9.9568 -0.240243 
0.02376 -0.240243 9.97922 
9.94906 0.00515344 0.0223649 
0.00515344 9.92485 -0.219497 
0.0223649 -0.219497 10.0316 
9.98581 -0.00435103 0.0215382 
-0.00435103 9.97002 -0.239967 
0.0215382 -0.239967 9.94973 
9.98892 0.0138652 0.0527693 
0.0138652 9.93868 -0.265971 
0.0527693 -0.265971 9.97797 
9.81863 -0.0510448 0.207896 
-0.0510448 9.68942 0.112325 
0.207896 0.112325 9.93259 
9.72161 -0.112786 0.242775 
-0.112786 9.58668 0.249956 
0.242775 0.249956 10.1323 
9.63972 -0.060439 0.199859 
-0.060439 9.79203 0.0740719 
0.199859 0.0740719 10.0089 
9.80522 -0.0625429 0.13473 
-0.0625429 9.70095 0.268371 
0.13473 0.268371 9.93446 
9.95739 0.042852 -0.107474 
0.042852 9.72047 0.262234 
-0.107474 0.262234 9.89098 
9.98492 0.0937997 -0.0984955 
0.0937997 9.68796 0.344362 
-0.0984955 0.344362 9.89595 
10.0089 0.0677923 -0.100797 
0.0677923 9.70291 0.340507 
-0.100797 0.340507 9.857 
9.97043 0.0641577 -0.159306 
0.0641577 9.74648 0.283589 
-0.159306 0.283589 9.85193 
9.80346 -0.0635032 -0.153074 
-0.0635032 9.95746 -0.0383469 
-0.153074 -0.0383469 10.0013 
9.89074 -0.0350247 -0.103246 
-0.0350247 10.1516 0.0472059 
-0.103246 0.0472059 9.71989 
9.99057 0.020679 -0.217254 
0.020679 9.88524 0.0165337 
-0.217254 0.0165337 9.88644 
9.99131 0.077243 -0.198 
0.077243 9.92592 0.0916634 
-0.198 0.0916634 9.84502 
9.92394 0.0246365 0.238464 
0.0246365 9.97583 -0.146689 
0.238464 -0.146689 9.78939 
9.91792 0.0194188 0.237609 
0.0194188 9.97608 -0.139336 
0.237609 -0.139336 9.79516 
9.91708 0.0163647 0.231529 
0.0163647 9.97626 -0.134689 
0.231529 -0.134689 9.79582 
9.91695 0.0225853 0.230908 
0.0225853 9.95361 -0.133879 
0.230908 -0.133879 9.81859 
10.0026 -0.0532146 -0.00885071 
-0.0532146 9.98401 0.0278352 
-0.00885071 0.0278352 10.2025 
9.97689 -0.0418874 -0.0498564 
-0.0418874 10.0742 -0.00627143 
-0.0498564 -0.00627143 10.138 
9.95186 -0.0225227 -0.0383775 
-0.0225227 10.0982 0.0223864 
-0.0383775 0.0223864 10.1391 
9.98696 -0.0378868 -0.0299424 
-0.0378868 10.0642 0.0100471 
-0.0299424 0.0100471 10.138 
5.78093 0.840516 1.8337 
0.840516 8.3868 0.857434 
1.8337 0.857434 3.04843 
9.96198 -0.604129 4.80936 
-0.604129 2.65488 0.917895 
4.80936 0.917895 4.5993 
13.4914 -0.0125406 1.19562 
-0.0125406 4.4952 -2.00661 
1.19562 -2.00661 -0.770482 
7.30688 0.1107 2.86617 
0.1107 7.12877 1.60325 
2.86617 1.60325 2.78051 
9.97631 -0.00118639 0.209911 
-0.00118639 9.67151 0.351746 
0.209911 0.351746 9.48325 
10.0448 -0.0517378 0.208841 
-0.0517378 9.65935 0.367656 
0.208841 0.367656 9.4269 
9.95293 -0.0692525 0.203939 
-0.0692525 9.71835 0.369336 
0.203939 0.369336 9.45977 
9.98962 0.0191396 0.239376 
0.0191396 9.65777 0.491123 
0.239376 0.491123 9.48367 
9.8898 0.0289424 0.222448 
0.0289424 9.92325 -0.113429 
0.222448 -0.113429 9.95979 
9.90252 -0.00196639 0.201145 
-0.00196639 9.92793 -0.118964 
0.201145 -0.118964 9.94238 
9.89891 0.0048505 0.213925 
0.0048505 9.92671 -0.101473 
0.213925 -0.101473 9.94722 
9.89521 0.0227763 0.204171 
0.0227763 9.93482 -0.10528 
0.204171 -0.10528 9.94281 
9.88447 0.118882 -0.0712569 
0.118882 9.81757 0.113733 
-0.0712569 0.113733 10.1808 
9.82902 0.062137 -0.133742 
0.062137 9.86956 0.0951739 
-0.133742 0.0951739 10.1843 
9.87913 0.0921555 -0.0625188 
0.0921555 9.7946 0.122815 
-0.0625188 0.122815 10.2091 
9.87265 0.0795101 -0.088602 
0.0795101 9.86267 0.13371 
-0.088602 0.13371 10.1476 
10.116 -0.0559766 -0.0764731 
-0.0559766 9.71643 0.219516 
-0.0764731 0.219516 9.86659 
8.89337 0.489333 -0.919233 
0.489333 10.3125 0.766822 
-0.919233 0.766822 10.4931 
9.9916 0.226627 -0.659674 
0.226627 9.69515 0.481018 
-0.659674 0.481018 10.0123 
9.7535 0.273132 -0.846463 
0.273132 9.9724 1.03053 
-0.846463 1.03053 9.9731 
9.74487 -0.154346 0.295641 
-0.154346 9.92494 0.0427828 
0.295641 0.0427828 9.40563 
9.56747 -0.0470925 0.317997 
-0.0470925 9.89027 0.00793571 
0.317997 0.00793571 9.6177 
9.60961 -0.027636 0.382433 
-0.027636 9.84475 -0.0166575 
0.382433 -0.0166575 9.62108 
9.52338 -0.0178941 0.292367 
-0.0178941 9.87992 0.112048 
0.292367 0.112048 9.67213 
10.7923 0.0640495 -0.0716659 
0.0640495 10.6055 -0.203724 
-0.0716659 -0.203724 11.02 
10.3687 -0.134291 -0.333424 
-0.134291 10.8389 0.0162376 
-0.333424 0.0162376 11.21 
10.5354 0.0686424 0.0274086 
0.0686424 10.6559 -0.0413773 
0.0274086 -0.0413773 11.2264 
10.5122 -0.0722182 -0.120058 
-0.0722182 10.8224 -0.00523593 
-0.120058 -0.00523593 11.083 
11.9685 0.405894 0.113983 
0.405894 12.8151 0.439161 
0.113983 0.439161 11.2641 
11.1758 0.287661 -0.551331 
0.287661 10.2017 -0.325485 
-0.551331 -0.325485 14.6702 
11.9965 -0.142839 -0.16673 
-0.142839 12.8788 0.0346472 
-0.16673 0.0346472 11.1723 
13.1774 0.30255 -2.13191 
0.30255 11.8342 2.62512 
-2.13191 2.62512 11.036 
9.68794 -0.0325503 0.32733 
-0.0325503 9.95261 0.0235637 
0.32733 0.0235637 9.796 
9.70965 0.00545263 0.332536 
0.00545263 9.9606 -0.027078 
0.332536 -0.027078 9.7663 
9.73904 0.00286785 0.253497 
0.00286785 9.90107 -0.0152325 
0.253497 -0.0152325 9.79644 
9.71529 -0.0466823 0.328391 
-0.0466823 9.95129 0.035814 
0.328391 0.035814 9.76997 
9.98566 -0.0742756 -0.0104745 
-0.0742756 10.0232 -0.00621122 
-0.0104745 -0.00621122 10.1682 
9.86358 -0.136239 -0.169859 
-0.136239 10.2449 -0.0718789 
-0.169859 -0.0718789 10.0686 
10.0556 -0.0237937 0.0815709 
-0.0237937 10.0096 -0.0531928 
0.0815709 -0.0531928 10.1119 
9.88717 -0.15786 0.105949 
-0.15786 10.0442 -0.096542 
0.105949 -0.096542 10.2457 
9.79185 -0.0986692 -0.183156 
-0.0986692 9.78701 -0.216098 
-0.183156 -0.216098 10.0488 
9.79964 -0.0453099 -0.172872 
-0.0453099 9.7766 -0.145339 
-0.172872 -0.145339 10.0515 
9.78798 -0.0827695 -0.217266 
-0.0827695 9.79683 -0.212673 
-0.217266 -0.212673 10.0429 
9.79574 -0.105227 -0.202733 
-0.105227 9.79884 -0.175109 
-0.202733 -0.175109 10.0331 
9.91133 -0.0618151 0.202793 
-0.0618151 9.94417 0.314304 
0.202793 0.314304 9.72939 
9.92042 -0.174698 0.35253 
-0.174698 9.79722 0.276353 
0.35253 0.276353 9.86724 
9.87908 0.00492381 0.179702 
0.00492381 9.71924 0.144294 
0.179702 0.144294 9.98656 
9.84001 0.0570559 0.195624 
0.0570559 9.91947 0.272198 
0.195624 0.272198 9.8254 
9.84051 -0.0376043 -0.0513147 
-0.0376043 9.78292 -0.191537 
-0.0513147 -0.191537 9.92614 
9.8778 -0.0257677 -0.0894697 
-0.0257677 9.76915 -0.24595 
-0.0894697 -0.24595 9.90262 
9.85234 -0.0232983 -0.0633549 
-0.0232983 9.79471 -0.239525 
-0.0633549 -0.239525 9.90251 
9.85501 -0.0047481 -0.075687 
-0.0047481 9.81327 -0.256271 
-0.075687 -0.256271 9.88128 
9.40997 0.159957 0.199845 
0.159957 10.1495 0.0823441 
0.199845 0.0823441 10.9514 
9.49741 0.213535 0.0362033 
0.213535 10.044 0.0655795 
0.0362033 0.0655795 10.9695 
9.67484 0.0799855 0.256584 
0.0799855 10.2493 -0.351476 
0.256584 -0.351476 10.5868 
9.79617 0.0867986 0.745096 
0.0867986 10.2891 -0.22775 
0.745096 -0.22775 10.4257 
9.73293 0.0197241 0.237745 
0.0197241 9.74962 -0.0876134 
0.237745 -0.0876134 9.91142 
9.73003 0.163463 0.122088 
0.163463 9.7572 -0.13507 
0.122088 -0.13507 9.90674 
9.62956 0.0614649 0.237226 
0.0614649 9.89847 -0.126176 
0.237226 -0.126176 9.86595 
9.67922 0.0891674 0.219387 
0.0891674 9.82564 -0.110563 
0.219387 -0.110563 9.88911 
9.78389 0.0669466 -0.0497865 
0.0669466 9.79896 0.0529867 
-0.0497865 0.0529867 10.0259 
9.77759 0.025145 -0.0479944 
0.025145 9.84273 0.0662035 
-0.0479944 0.0662035 9.98845 
9.75632 0.0610932 -0.075861 
0.0610932 9.80431 0.0321548 
-0.075861 0.0321548 10.0481 
9.75312 0.126172 -0.0754886 
0.126172 9.80908 0.0618303 
-0.0754886 0.0618303 10.0466 
9.75912 0.0656926 0.212729 
0.0656926 9.83717 -0.222616 
0.212729 -0.222616 9.98328 
9.76978 0.094465 0.220527 
0.094465 9.85501 -0.204134 
0.220527 -0.204134 9.95478 
9.76473 0.073173 0.195193 
0.073173 9.79319 -0.233536 
0.195193 -0.233536 10.0216 
9.77149 0.0664159 0.237973 
0.0664159 9.80626 -0.229874 
0.237973 -0.229874 10.0018 
9.82012 0.33051 -1.90954 
0.33051 8.84581 2.11895 
-1.90954 2.11895 7.19479 
9.98957 -0.478634 -0.666189 
-0.478634 8.94989 1.27066 
-0.666189 1.27066 6.92127 
8.68926 0.213836 -1.58918 
0.213836 8.09244 -0.216257 
-1.58918 -0.216257 9.07902 
9.58019 -0.496037 -1.26095 
-0.496037 9.1438 1.00355 
-1.26095 1.00355 7.13674 
10.8268 -0.218411 0.752782 
-0.218411 8.98438 -0.263498 
0.752782 -0.263498 8.19093 
10.3471 0.282089 0.250407 
0.282089 9.30992 -0.506121 
0.250407 -0.506121 8.34506 
9.93777 -0.666826 1.34095 
-0.666826 8.95651 -0.631511 
1.34095 -0.631511 9.10784 
10.4748 -0.332026 0.77635 
-0.332026 9.1466 -0.337341 
0.77635 -0.337341 8.38077 
11.4854 0.579293 0.576735 
0.579293 8.02078 0.884925 
0.576735 0.884925 6.28362 
9.70957 0.088182 0.752356 
0.088182 8.79744 -0.14621 
0.752356 -0.14621 7.2828 
9.9043 -0.519832 0.112838 
-0.519832 8.38296 -0.215647 
0.112838 -0.215647 7.50255 
9.64169 0.27053 0.75444 
0.27053 7.48593 -1.41643 
0.75444 -1.41643 8.66218 
9.85935 0.00907713 -0.210067 
0.00907713 9.78558 0.118927 
-0.210067 0.118927 9.81396 
9.74957 0.0524502 -0.149678 
0.0524502 9.84409 0.0796111 
-0.149678 0.0796111 9.86523 
9.85126 -0.0040272 -0.215328 
-0.0040272 9.7964 0.138984 
-0.215328 0.138984 9.81123 
9.75603 0.0594951 -0.216428 
0.0594951 9.77973 0.080064 
-0.216428 0.080064 9.92312 
9.88107 -0.0314029 0.201593 
-0.0314029 9.86319 0.208002 
0.201593 0.208002 9.78366 
9.85865 -0.0478351 0.186581 
-0.0478351 9.8232 0.249124 
0.186581 0.249124 9.84607 
9.81807 0.0183833 0.263419 
0.0183833 9.86091 0.290578 
0.263419 0.290578 9.84893 
9.86638 -0.0531635 0.204787 
-0.0531635 9.79127 0.243316 
0.204787 0.243316 9.87026 
9.97463 0.00611313 -0.138941 
0.00611313 9.94416 0.0831589 
-0.138941 0.0831589 9.91284 
9.9685 -0.00490367 -0.189351 
-0.00490367 9.95962 0.0640908 
-0.189351 0.0640908 9.90351 
10.0239 -0.0435141 -0.226543 
-0.0435141 9.92467 0.0357442 
-0.226543 0.0357442 9.88305 
9.94728 0.000143166 -0.17628 
0.000143166 9.9836 0.0793912 
-0.17628 0.0793912 9.90074 
10.2854 0.14742 -1.02635 
0.14742 7.72641 0.102244 
-1.02635 0.102244 12.7414 
10.5371 0.829834 -0.0316334 
0.829834 8.88665 -0.7093 
-0.0316334 -0.7093 11.3295 
9.90451 0.798234 0.691301 
0.798234 8.8073 -1.36019 
0.691301 -1.36019 12.0414 
12.2737 -0.331085 0.183512 
-0.331085 8.17365 -0.590593 
0.183512 -0.590593 10.3058 
9.76796 0.00862537 0.169705 
0.00862537 9.7884 -0.0619267 
0.169705 -0.0619267 9.89871 
9.79561 0.0354599 0.203076 
0.0354599 9.80336 -0.0968674 
0.203076 -0.0968674 9.85609 
9.75924 0.0475392 0.15512 
0.0475392 9.82205 -0.0827858 
0.15512 -0.0827858 9.87377 
9.77747 0.0328576 0.204865 
0.0328576 9.78196 -0.101879 
0.204865 -0.101879 9.89563 
9.82205 0.0319215 0.234468 
0.0319215 9.92994 -0.177911 
0.234468 -0.177911 9.89097 
9.83305 0.0148022 0.234276 
0.0148022 9.9332 -0.154366 
0.234276 -0.154366 9.87672 
9.83221 0.0149464 0.235071 
0.0149464 9.91394 -0.129141 
0.235071 -0.129141 9.89682 
9.84474 0.0403731 0.254373 
0.0403731 9.90883 -0.210588 
0.254373 -0.210588 9.8894 
9.65147 -0.116578 -0.358002 
-0.116578 9.8582 -0.43919 
-0.358002 -0.43919 9.75255 
9.6845 -0.236416 -0.291589 
-0.236416 9.96205 -0.532292 
-0.291589 -0.532292 9.61567 
9.56495 -0.126802 -0.445921 
-0.126802 10.0189 -0.43448 
-0.445921 -0.43448 9.6784 
9.57811 -0.0609059 -0.13517 
-0.0609059 9.79304 -0.362367 
-0.13517 -0.362367 9.89107 
9.7599 0.0204063 0.21022 
0.0204063 9.88186 0.103833 
0.21022 0.103833 9.86682 
9.73264 -0.0891195 0.267478 
-0.0891195 9.89715 0.152217 
0.267478 0.152217 9.87879 
9.77438 -0.069986 0.228483 
-0.069986 9.82462 0.159082 
0.228483 0.159082 9.90959 
9.73708 -0.0622295 0.235251 
-0.0622295 9.84824 0.14563 
0.235251 0.14563 9.92326 
9.92046 0.00144735 0.0500046 
0.00144735 9.84756 0.239361 
0.0500046 0.239361 9.91331 
9.93744 -0.0241404 0.0923532 
-0.0241404 9.86305 0.267126 
0.0923532 0.267126 9.88084 
9.91848 -0.0245775 0.078877 
-0.0245775 9.85491 0.246894 
0.078877 0.246894 9.90794 
9.91504 -0.0217292 0.0835954 
-0.0217292 9.84504 0.24155 
0.0835954 0.24155 9.92125 
9.704 -0.223616 0.723288 
-0.223616 9.88858 0.479928 
0.723288 0.479928 8.25947 
9.61492 0.0872596 0.0224584 
0.0872596 9.6981 0.223266 
0.0224584 0.223266 8.53903 
10.069 0.251784 0.165439 
0.251784 9.76168 0.526125 
0.165439 0.526125 8.02133 
9.79213 -0.208284 0.223246 
-0.208284 9.74858 0.26033 
0.223246 0.26033 8.31134 
9.92247 0.0243386 -0.103543 
0.0243386 9.86161 0.24175 
-0.103543 0.24175 9.95641 
9.93368 0.0221132 -0.105662 
0.0221132 9.86569 0.22035 
-0.105662 0.22035 9.94112 
9.90796 0.0599752 -0.107056 
0.0599752 9.88592 0.237626 
-0.107056 0.237626 9.94661 
9.9251 0.00923441 -0.0697582 
0.00923441 9.88031 0.200519 
-0.0697582 0.200519 9.93508 
9.70819 -0.218407 0.301734 
-0.218407 9.57226 0.518656 
0.301734 0.518656 10.0533 
9.58019 -0.11213 0.155365 
-0.11213 9.63213 0.183165 
0.155365 0.183165 10.1215 
9.66382 -0.135538 0.293266 
-0.135538 9.88228 0.203337 
0.293266 0.203337 9.78767 
9.59735 -0.222232 0.235104 
-0.222232 9.77501 0.232349 
0.235104 0.232349 9.96141 
10.0521 0.843476 -2.2681 
0.843476 10.6147 1.39364 
-2.2681 1.39364 6.8456 
7.50958 0.717111 -1.06201 
0.717111 10.8641 -2.78928 
-1.06201 -2.78928 9.13876 
10.2233 1.01275 1.22196 
1.01275 8.96093 -2.60453 
1.22196 -2.60453 8.3282 
8.78102 0.582887 0.326647 
0.582887 11.0083 -0.885813 
0.326647 -0.885813 7.72311 
11.1856 -0.195896 -0.0322211 
-0.195896 11.0049 -0.234349 
-0.0322211 -0.234349 10.9177 
10.4304 -0.0956253 -0.0915404 
-0.0956253 9.98841 0.045567 
-0.0915404 0.045567 12.6894 
11.5156 -0.0706311 0.0780582 
-0.0706311 11.2905 -0.142542 
0.0780582 -0.142542 10.3022 
11.5728 0.155776 -0.199979 
0.155776 10.5768 -1.73108 
-0.199979 -1.73108 10.9587 
9.75966 -0.124412 0.262572 
-0.124412 9.62205 0.257863 
0.262572 0.257863 9.65658 
9.86101 -0.0139362 0.237338 
-0.0139362 9.50968 0.325354 
0.237338 0.325354 9.6676 
9.68785 -0.0787972 0.290166 
-0.0787972 9.64386 0.283664 
0.290166 0.283664 9.70659 
9.75446 -0.0749063 0.302196 
-0.0749063 9.58927 0.288572 
0.302196 0.288572 9.69456 
11.1704 -0.315525 0.179362 
-0.315525 11.2236 -0.32725 
0.179362 -0.32725 10.0772 
10.2507 -0.0642167 -0.40813 
-0.0642167 9.89535 0.403056 
-0.40813 0.403056 12.3252 
10.9128 0.0495725 0.27643 
0.0495725 11.2011 -0.176932 
0.27643 -0.176932 10.3573 
10.6714 0.900246 0.304246 
0.900246 10.0783 -1.0327 
0.304246 -1.0327 11.7216 
11.0756 0.540162 0.36465 
0.540162 10.7374 0.00630543 
0.36465 0.00630543 10.419 
10.6262 -0.163038 -0.137615 
-0.163038 10.1449 -0.205474 
-0.137615 -0.205474 11.461 
10.481 0.0773162 0.166729 
0.0773162 10.6936 -0.0733519 
0.166729 -0.0733519 11.0574 
10.2818 -0.0162056 0.422565 
-0.0162056 10.7498 -0.12821 
0.422565 -0.12821 11.2004 
9.75117 -0.124475 -0.153418 
-0.124475 9.76419 -0.187718 
-0.153418 -0.187718 10.1936 
9.72806 -0.148181 -0.0434562 
-0.148181 9.75225 -0.158599 
-0.0434562 -0.158599 10.2287 
9.68008 -0.0853398 -0.14529 
-0.0853398 9.79623 -0.255238 
-0.14529 -0.255238 10.2327 
9.85979 -0.0414517 -0.190533 
-0.0414517 9.755 -0.0655794 
-0.190533 -0.0655794 10.0942 
9.42481 0.105051 0.792761 
0.105051 9.6232 -0.314615 
0.792761 -0.314615 10.7593 
9.58787 0.175557 0.354213 
0.175557 9.6207 -0.190352 
0.354213 -0.190352 10.5987 
10.0492 -0.0357335 0.215315 
-0.0357335 9.57341 -0.155597 
0.215315 -0.155597 10.1847 
8.94392 0.102605 0.177514 
0.102605 9.61393 0.209901 
0.177514 0.209901 11.2494 
9.83143 -0.309249 0.11096 
-0.309249 9.52841 -0.0213498 
0.11096 -0.0213498 9.83436 
9.49232 -0.282231 -0.548349 
-0.282231 9.90455 -0.46575 
-0.548349 -0.46575 9.79733 
9.6205 -0.122374 -0.79334 
-0.122374 10.0843 -0.514966 
-0.79334 -0.514966 9.48945 
10.0279 -1.04032 -0.957573 
-1.04032 9.3397 -1.24645 
-0.957573 -1.24645 9.82657 
9.46654 0.110451 0.789002 
0.110451 9.45226 0.708833 
0.789002 0.708833 9.82874 
9.38525 -0.259155 0.412151 
-0.259155 9.50294 0.379097 
0.412151 0.379097 9.85934 
9.49836 -0.0957771 0.384189 
-0.0957771 9.58982 0.416061 
0.384189 0.416061 9.65935 
9.5707 -0.0375885 0.392616 
-0.0375885 9.42879 0.453118 
0.392616 0.453118 9.74804 
10.806 -0.198934 -0.178883 
-0.198934 10.0379 -0.164641 
-0.178883 -0.164641 11.3189 
10.5146 -0.0554255 -0.0974838 
-0.0554255 10.4195 -0.106182 
-0.0974838 -0.106182 11.2288 
10.6789 -0.112503 0.0533459 
-0.112503 10.2558 -0.124908 
0.0533459 -0.124908 11.2281 
10.5361 -0.0981763 -0.035799 
-0.0981763 10.4039 -0.224691 
-0.035799 -0.224691 11.2229 
9.73335 0.117663 -0.142105 
0.117663 9.55603 0.228882 
-0.142105 0.228882 10.0706 
9.69252 0.135041 -0.182802 
0.135041 9.68615 0.291932 
-0.182802 0.291932 9.9813 
9.67279 0.126971 -0.129513 
0.126971 9.5625 0.174126 
-0.129513 0.174126 10.1247 
9.67931 0.13708 -0.206313 
0.13708 9.59661 0.291156 
-0.206313 0.291156 10.084 
9.86869 -0.0311716 -0.0518755 
-0.0311716 9.82962 -0.298923 
-0.0518755 -0.298923 9.60985 
9.85179 0.00828032 -0.0939829 
0.00828032 9.84585 -0.264459 
-0.0939829 -0.264459 9.61051 
9.90526 -0.00610596 -0.0440522 
-0.00610596 9.81703 -0.277923 
-0.0440522 -0.277923 9.58586 
9.89091 -0.00817295 -0.0617942 
-0.00817295 9.78556 -0.246942 
-0.0617942 -0.246942 9.63168 
12.3348 0.258104 -0.0576261 
0.258104 12.2335 -0.170788 
-0.0576261 -0.170788 12.7133 
13.2225 0.336778 -0.00355182 
0.336778 11.8265 -0.0857712 
-0.00355182 -0.0857712 12.2325 
12.1829 -0.767197 -0.00171091 
-0.767197 11.4914 -0.385535 
-0.00171091 -0.385535 13.6073 
12.5218 0.254644 -0.104581 
0.254644 12.3988 -0.36223 
-0.104581 -0.36223 12.361 
10.2695 0.188089 0.247586 
0.188089 9.70158 0.0503914 
0.247586 0.0503914 9.81426 
9.79401 -0.0374422 -0.0517582 
-0.0374422 9.99177 -0.0708524 
-0.0517582 -0.0708524 9.99953 
9.60922 0.315426 -0.319236 
0.315426 9.78123 -0.0695894 
-0.319236 -0.0695894 10.3949 
10.1311 0.0128056 0.0844389 
0.0128056 9.67648 0.646404 
0.0844389 0.646404 9.97771 
9.33699 0.179323 -0.504762 
0.179323 9.53935 0.856498 
-0.504762 0.856498 9.26351 
11.7436 -0.571074 -3.55844 
-0.571074 11.5417 -0.803502 
-3.55844 -0.803502 4.85456 
9.51692 0.894252 -0.701876 
0.894252 11.802 1.19948 
-0.701876 1.19948 6.82096 
9.5124 0.687135 -0.676444 
0.687135 11.5526 0.517676 
-0.676444 0.517676 7.07483 
9.51708 0.487155 0.818077 
0.487155 9.33739 0.167864 
0.818077 0.167864 15.6203 
13.9585 -1.31241 -0.906189 
-1.31241 10.7587 -1.30802 
-0.906189 -1.30802 9.75754 
8.04103 -2.36062 0.814107 
-2.36062 8.55597 0.104853 
0.814107 0.104853 17.8778 
9.7027 -2.05193 -1.78482 
-2.05193 11.3722 1.59456 
-1.78482 1.59456 13.3998 
9.78772 -0.0943404 -0.195077 
-0.0943404 9.86804 0.00264501 
-0.195077 0.00264501 9.59609 
9.60238 -0.0516413 -0.244233 
-0.0516413 9.8092 -0.0391235 
-0.244233 -0.0391235 9.84026 
9.61757 -0.0913037 -0.128085 
-0.0913037 9.6413 -0.053192 
-0.128085 -0.053192 9.99298 
9.63246 -0.0339399 -0.256901 
-0.0339399 9.77315 -0.119853 
-0.256901 -0.119853 9.84623 
9.83866 0.0768004 0.0532408 
0.0768004 9.75362 -0.0658832 
0.0532408 -0.0658832 9.90661 
9.72315 0.066485 0.019382 
0.066485 9.76048 -0.143908 
0.019382 -0.143908 10.0153 
9.8063 0.0791277 0.0767742 
0.0791277 9.76229 -0.0504328 
0.0767742 -0.0504328 9.9303 
9.73777 0.0202554 0.22891 
0.0202554 9.91639 -0.0353703 
0.22891 -0.0353703 9.84473 
9.94326 0.00051469 0.269392 
0.00051469 9.98577 0.0143669 
0.269392 0.0143669 9.98633 
9.96618 -0.00106953 0.188063 
-0.00106953 9.93893 -0.00857652 
0.188063 -0.00857652 10.0103 
9.93588 -0.0231162 0.230612 
-0.0231162 9.99504 -0.0109327 
0.230612 -0.0109327 9.98444 
9.95176 -0.0269341 0.263543 
-0.0269341 9.99482 0.0322033 
0.263543 0.0322033 9.96877 
9.84839 0.0111194 -0.251084 
0.0111194 9.92417 0.0535501 
-0.251084 0.0535501 9.90067 
9.84683 0.00937141 -0.252096 
0.00937141 9.92338 0.0509295 
-0.252096 0.0509295 9.90301 
9.8539 0.0221997 -0.240905 
0.0221997 9.93071 0.0639769 
-0.240905 0.0639769 9.88862 
9.85348 0.0162255 -0.251284 
0.0162255 9.93707 0.0739988 
-0.251284 0.0739988 9.88268 
10.3537 0.121051 -0.579995 
0.121051 9.63015 0.592781 
-0.579995 0.592781 8.75876 
9.95376 0.240146 -0.23736 
0.240146 9.49624 0.552244 
-0.23736 0.552244 9.29258 
10.6094 0.0936071 -0.493204 
0.0936071 9.23376 0.217914 
-0.493204 0.217914 8.89939 
10.4104 -0.0108342 -0.187386 
-0.0108342 9.40712 0.367152 
-0.187386 0.367152 8.9251 
9.36499 0.138422 -0.271266 
0.138422 9.69201 -0.0208771 
-0.271266 -0.0208771 10.0059 
9.76075 0.0120602 -0.393245 
0.0120602 9.45399 0.343219 
-0.393245 0.343219 9.84814 
9.59745 -0.0157631 -0.255702 
-0.0157631 9.32921 0.184682 
-0.255702 0.184682 10.1362 
9.35527 0.0118857 -0.363852 
0.0118857 9.6335 0.264034 
-0.363852 0.264034 10.0741 
9.76234 0.0318104 0.160996 
0.0318104 9.79848 -0.138645 
0.160996 -0.138645 9.90312 
9.7718 0.035585 0.161699 
0.035585 9.78411 -0.139176 
0.161699 -0.139176 9.90802 
9.76639 0.0406396 0.142716 
0.0406396 9.79025 -0.134092 
0.142716 -0.134092 9.90729 
9.76516 0.0279925 0.153757 
0.0279925 9.79804 -0.120027 
0.153757 -0.120027 9.90073 
9.60862 0.137441 0.676292 
0.137441 9.38803 -0.452531 
0.676292 -0.452531 9.96691 
9.36581 -0.00121166 0.693891 
-0.00121166 9.39578 -0.426584 
0.693891 -0.426584 10.202 
9.51482 0.19015 0.673968 
0.19015 9.54328 -0.612507 
0.673968 -0.612507 9.90546 
9.49526 -0.145487 0.314019 
-0.145487 9.78522 -0.38054 
0.314019 -0.38054 9.68307 
10.2193 -1.58903 -0.605037 
-1.58903 11.8842 -0.0811432 
-0.605037 -0.0811432 12.9879 
11.3987 0.0505773 -0.454728 
0.0505773 9.92404 2.19563 
-0.454728 2.19563 13.7687 
12.177 1.8832 -0.44416 
1.8832 6.90555 0.415008 
-0.44416 0.415008 16.0088 
11.9032 -0.153022 0.571295 
-0.153022 9.25115 1.96028 
0.571295 1.96028 13.9371 
9.91105 -0.0302343 0.0304997 
-0.0302343 9.88933 0.271313 
0.0304997 0.271313 9.94298 
10.012 -0.0642619 0.0687882 
-0.0642619 9.88089 0.215294 
0.0687882 0.215294 9.85045 
9.93779 -0.026598 0.0459657 
-0.026598 9.88821 0.240531 
0.0459657 0.240531 9.91735 
9.92264 -0.0010025 0.078042 
-0.0010025 9.91139 0.254871 
0.078042 0.254871 9.90932 
9.77783 0.0561079 -0.224899 
0.0561079 9.79697 0.154332 
-0.224899 0.154332 9.973 
9.78084 0.062756 -0.167856 
0.062756 9.7999 0.154557 
-0.167856 0.154557 9.96705 
9.7474 0.0825739 -0.256819 
0.0825739 9.82821 0.197575 
-0.256819 0.197575 9.97218 
9.78056 -0.00330293 -0.174933 
-0.00330293 9.84953 0.117449 
-0.174933 0.117449 9.9177 
10.0985 -0.050019 -0.162183 
-0.050019 9.92239 0.227353 
-0.162183 0.227353 8.67518 
10.0162 0.136067 -0.00772228 
0.136067 9.97142 0.149982 
-0.00772228 0.149982 8.70848 
9.96247 0.0192752 0.0142757 
0.0192752 9.93032 0.18185 
0.0142757 0.18185 8.80327 
10.0633 -0.00259275 0.205676 
-0.00259275 10.3062 -0.0225581 
0.205676 -0.0225581 8.32659 
9.87785 -0.0289777 -0.215899 
-0.0289777 9.90325 -0.1173 
-0.215899 -0.1173 9.95043 
9.87518 -0.0239947 -0.207186 
-0.0239947 9.90752 -0.130878 
-0.207186 -0.130878 9.94883 
9.87594 -0.0236991 -0.220806 
-0.0236991 9.91377 -0.113422 
-0.220806 -0.113422 9.94182 
9.87638 -0.0221368 -0.21802 
-0.0221368 9.91042 -0.15041 
-0.21802 -0.15041 9.94474 
13.3877 -0.792517 0.55066 
-0.792517 12.0633 -1.13116 
0.55066 -1.13116 10.0827 
11.8098 -0.227865 -0.254574 
-0.227865 10.9192 -0.503555 
-0.254574 -0.503555 12.8047 
11.3671 0.0161593 -1.34272 
0.0161593 8.69179 -0.539526 
-1.34272 -0.539526 15.4748 
10.9338 -0.416267 1.21636 
-0.416267 10.5717 -0.149957 
1.21636 -0.149957 14.0282 
9.75402 0.214875 -0.462517 
0.214875 9.75856 -0.123037 
-0.462517 -0.123037 8.41797 
9.40006 -0.0799121 -0.380538 
-0.0799121 9.76825 0.0542905 
-0.380538 0.0542905 8.76223 
9.58474 -0.440588 -0.728764 
-0.440588 10.1131 -0.327822 
-0.728764 -0.327822 8.2327 
9.68311 0.188393 -0.385344 
0.188393 9.77024 -0.277003 
-0.385344 -0.277003 8.4772 
9.77616 0.0106976 -0.215557 
0.0106976 9.81327 0.0604565 
-0.215557 0.0604565 9.88636 
9.75828 0.025833 -0.211586 
0.025833 9.85013 0.0708801 
-0.211586 0.0708801 9.86737 
9.77827 0.0224525 -0.231103 
0.0224525 9.82239 0.0732208 
-0.231103 0.0732208 9.87512 
9.78478 0.0237644 -0.233829 
0.0237644 9.82572 0.0713346 
-0.233829 0.0713346 9.86529 
9.87106 0.0475062 -0.187584 
0.0475062 9.76281 0.24748 
-0.187584 0.24748 9.93467 
9.86748 0.0541757 -0.176543 
0.0541757 9.79613 0.296608 
-0.176543 0.296608 9.90493 
9.7716 -0.0280744 -0.193725 
-0.0280744 9.84249 0.125855 
-0.193725 0.125855 9.95446 
9.80688 0.151995 -0.240887 
0.151995 9.7692 0.263795 
-0.240887 0.263795 9.99248 
7.02356 1.03855 -0.178216 
1.03855 8.65576 -3.44485 
-0.178216 -3.44485 6.49593 
7.49608 -0.395885 0.103559 
-0.395885 9.67955 -3.15912 
0.103559 -3.15912 4.99963 
5.89372 -1.94611 1.4379 
-1.94611 8.81761 -3.67476 
1.4379 -3.67476 7.46393 
7.75776 0.421839 -0.0279884 
0.421839 8.51844 -4.22072 
-0.0279884 -4.22072 5.89906 
9.75421 -0.240617 -0.127562 
-0.240617 10.6502 0.22698 
-0.127562 0.22698 11.1802 
10.5161 -0.0874733 0.168137 
-0.0874733 9.96308 -0.0559827 
0.168137 -0.0559827 11.1054 
10.3033 -0.183868 0.142723 
-0.183868 10.4125 0.0604867 
0.142723 0.0604867 10.8688 
10.1056 -0.118458 -0.197561 
-0.118458 10.6711 0.620695 
-0.197561 0.620695 10.808 
10.0753 -0.0135945 0.0264972 
-0.0135945 10.1782 -0.003178 
0.0264972 -0.003178 10.2173 
10.0637 0.0245637 0.0503821 
0.0245637 10.0731 -0.00463401 
0.0503821 -0.00463401 10.3339 
10.1606 -0.0376694 0.00712624 
-0.0376694 10.1524 0.00623422 
0.00712624 0.00623422 10.1578 
10.1242 -0.0302032 -0.016475 
-0.0302032 10.164 -0.0700834 
-0.016475 -0.0700834 10.1827 
9.78137 -0.0302166 -0.207305 
-0.0302166 9.75561 -0.0551658 
-0.207305 -0.0551658 9.83849 
9.82559 -0.0299534 -0.210931 
-0.0299534 9.77052 -0.0360481 
-0.210931 -0.0360481 9.77936 
9.7189 -0.011642 -0.213932 
-0.011642 9.81978 -0.0232854 
-0.213932 -0.0232854 9.8368 
9.73885 -0.0451087 -0.201673 
-0.0451087 9.82117 -0.0369934 
-0.201673 -0.0369934 9.81546 
9.89441 -0.025747 -0.110491 
-0.025747 9.94019 -0.208651 
-0.110491 -0.208651 10.0286 
9.96814 -0.00553789 -0.0931849 
-0.00553789 9.91726 -0.244862 
-0.0931849 -0.244862 9.97776 
9.93843 -0.022915 -0.0968885 
-0.022915 9.9424 -0.22508 
-0.0968885 -0.22508 9.98234 
9.98168 -0.0131603 -0.106869 
-0.0131603 9.91642 -0.243412 
-0.106869 -0.243412 9.96507 
10.076 -0.233873 -0.0403801 
-0.233873 10.0038 -0.0463576 
-0.0403801 -0.0463576 10.4409 
10.1302 -0.0974041 -0.0396251 
-0.0974041 10.0455 -0.0375847 
-0.0396251 -0.0375847 10.345 
10.1008 -0.095064 -0.0840721 
-0.095064 10.0833 0.0489744 
-0.0840721 0.0489744 10.3366 
10.0858 0.00239194 0.0537279 
0.00239194 10.0252 -0.00362347 
0.0537279 -0.00362347 10.4097 
9.88491 -0.00813374 0.0315167 
-0.00813374 9.90981 -0.227803 
0.0315167 -0.227803 9.85533 
9.87112 0.00598117 0.0166553 
0.00598117 9.89141 -0.224594 
0.0166553 -0.224594 9.88752 
9.8962 0.017378 0.0378145 
0.017378 9.78472 -0.268554 
0.0378145 -0.268554 9.96914 
9.88814 -0.0263421 -0.0190889 
-0.0263421 9.8123 -0.178408 
-0.0190889 -0.178408 9.94962 
9.58857 0.0642406 0.0548366 
0.0642406 9.74996 -0.140874 
0.0548366 -0.140874 10.1447 
9.69337 0.1005 0.189551 
0.1005 9.8393 -0.204222 
0.189551 -0.204222 9.95059 
9.72967 0.177572 0.202496 
0.177572 9.68035 -0.254301 
0.202496 -0.254301 10.0732 
9.69739 0.112034 0.210647 
0.112034 9.71734 -0.19345 
0.210647 -0.19345 10.0685 
9.72 -0.0713478 -0.0675417 
-0.0713478 9.70698 0.0895282 
-0.0675417 0.0895282 10.0316 
9.86431 0.0832666 -0.0942575 
0.0832666 9.72784 0.0726369 
-0.0942575 0.0726369 9.86642 
9.76717 0.0833794 -0.125206 
0.0833794 9.85539 0.194116 
-0.125206 0.194116 9.836 
9.62584 0.0512603 -0.144821 
0.0512603 9.75093 0.177706 
-0.144821 0.177706 10.0818 
10.7056 0.00798007 0.159521 
0.00798007 9.51987 0.738204 
0.159521 0.738204 9.04531 
9.81829 0.0317258 0.183646 
0.0317258 9.63604 -0.120998 
0.183646 -0.120998 9.81641 
11.0203 0.0370238 -0.408436 
0.0370238 9.85803 0.636164 
-0.408436 0.636164 8.39238 
10.7668 -0.0139731 0.325305 
-0.0139731 9.55035 0.633572 
0.325305 0.633572 8.95358 
9.37227 0.484873 0.148532 
0.484873 10.9587 -0.0791459 
0.148532 -0.0791459 11.4081 
9.91312 0.161338 0.303057 
0.161338 10.7553 -0.00393279 
0.303057 -0.00393279 11.0706 
10.1164 0.400691 0.0406511 
0.400691 10.3971 -0.458546 
0.0406511 -0.458546 11.2256 
10.1831 -0.211006 0.024679 
-0.211006 10.6867 0.415597 
0.024679 0.415597 10.8692 
9.87262 0.0172822 -0.0269453 
0.0172822 9.85511 -0.0643344 
-0.0269453 -0.0643344 9.63639 
9.85625 0.00165627 -0.0702683 
0.00165627 9.88279 -0.0691538 
-0.0702683 -0.0691538 9.62507 
9.92348 -0.019569 -0.0848509 
-0.019569 9.88248 -0.0662702 
-0.0848509 -0.0662702 9.55815 
9.86701 -0.000376998 -0.0708913 
-0.000376998 9.86781 -0.0681196 
-0.0708913 -0.0681196 9.62929 
9.75568 0.506747 -0.0995161 
0.506747 9.20749 0.416996 
-0.0995161 0.416996 10.709 
9.79598 0.400709 -0.235567 
0.400709 9.51773 0.596491 
-0.235567 0.596491 10.3585 
9.91054 0.228119 -0.687501 
0.228119 10.0092 -0.281019 
-0.687501 -0.281019 9.75245 
9.81899 1.13249 -0.904039 
1.13249 9.47853 1.04588 
-0.904039 1.04588 10.3747 
9.6453 0.665668 0.196816 
0.665668 10.1311 -0.0877449 
0.196816 -0.0877449 10.7394 
9.46496 0.379956 0.552804 
0.379956 10.086 -0.512816 
0.552804 -0.512816 10.9648 
9.74622 0.365387 0.332671 
0.365387 10.3164 -0.259538 
0.332671 -0.259538 10.4531 
9.7867 0.48451 0.435695 
0.48451 10.21 -0.107458 
0.435695 -0.107458 10.519 
9.88049 0.0553694 0.129167 
0.0553694 9.81486 -0.29143 
0.129167 -0.29143 9.87329 
9.85239 0.000282593 0.052025 
0.000282593 9.75364 -0.253898 
0.052025 -0.253898 9.96261 
9.9328 0.0461246 0.137999 
0.0461246 9.78976 -0.293675 
0.137999 -0.293675 9.84608 
9.88446 -0.0176099 0.114188 
-0.0176099 9.76227 -0.27684 
0.114188 -0.27684 9.92191 
9.64973 -0.0566086 0.39802 
-0.0566086 9.43537 0.345828 
0.39802 0.345828 9.85008 
9.53257 -0.0582406 0.366914 
-0.0582406 9.54628 0.341394 
0.366914 0.341394 9.85633 
9.34941 -0.216815 0.531731 
-0.216815 9.64545 0.37456 
0.531731 0.37456 9.94031 
9.59423 -0.0189636 -0.0126528 
-0.0189636 9.3151 0.213329 
-0.0126528 0.213329 10.0259 
10.0842 -0.446124 -0.0212603 
-0.446124 10.1562 -0.11903 
-0.0212603 -0.11903 10.5592 
9.91689 -0.23305 0.0607079 
-0.23305 10.1892 -0.0841355 
0.0607079 -0.0841355 10.6936 
10.0339 -0.0926618 0.00163497 
-0.0926618 10.2778 0.0224415 
0.00163497 0.0224415 10.488 
9.98182 -0.539699 0.239882 
-0.539699 10.0993 0.332473 
0.239882 0.332473 10.7185 
9.77854 -0.0523524 -0.362255 
-0.0523524 9.98066 0.242741 
-0.362255 0.242741 9.49838 
9.85679 -0.011502 -0.373985 
-0.011502 9.75868 0.269029 
-0.373985 0.269029 9.6421 
9.74826 0.147236 -0.194666 
0.147236 9.73919 0.22035 
-0.194666 0.22035 9.77013 
9.87055 0.0996388 -0.216211 
0.0996388 9.93412 0.29454 
-0.216211 0.29454 9.4529 
9.65445 0.131827 0.236187 
0.131827 9.52552 -0.240331 
0.236187 -0.240331 9.99333 
9.80577 0.13324 0.23926 
0.13324 9.57177 -0.351215 
0.23926 -0.351215 9.79576 
9.77959 0.0684465 0.281456 
0.0684465 9.56908 -0.312307 
0.281456 -0.312307 9.82463 
9.85603 0.126689 0.161787 
0.126689 9.68945 -0.252999 
0.161787 -0.252999 9.62782 
9.78129 -0.0446333 -0.235163 
-0.0446333 9.76256 -0.215898 
-0.235163 -0.215898 9.9934 
9.77639 -0.0517909 -0.154264 
-0.0517909 9.77959 -0.13111 
-0.154264 -0.13111 9.98126 
9.77252 -0.0609133 -0.246045 
-0.0609133 9.79845 -0.181212 
-0.246045 -0.181212 9.96628 
9.81248 -0.049294 -0.134708 
-0.049294 9.79863 -0.161508 
-0.134708 -0.161508 9.92613 
11.3795 -3.82014 -2.04593 
-3.82014 12.2852 -2.05245 
-2.04593 -2.05245 8.64388 
1.48796 -3.31154 1.52668 
-3.31154 11.1915 2.26909 
1.52668 2.26909 19.6291 
2.09572 -3.98901 2.2265 
-3.98901 6.53527 2.47875 
2.2265 2.47875 23.6776 
9.18766 0.0741754 2.43498 
0.0741754 11.3974 1.70203 
2.43498 1.70203 11.7235 
9.73483 -0.0434377 0.302332 
-0.0434377 9.79407 0.204801 
0.302332 0.204801 9.52708 
9.915 0.0650366 0.22308 
0.0650366 9.82567 0.476462 
0.22308 0.476462 9.31531 
10.0932 -0.229701 0.463276 
-0.229701 9.50733 0.725568 
0.463276 0.725568 9.45546 
9.86747 0.0450473 0.320493 
0.0450473 9.85023 0.447712 
0.320493 0.447712 9.33829 
9.75504 0.00982368 -0.171968 
0.00982368 9.75298 0.164722 
-0.171968 0.164722 9.90597 
9.75797 0.0385974 -0.165779 
0.0385974 9.72852 0.163127 
-0.165779 0.163127 9.92751 
9.74787 0.0371443 -0.165462 
0.0371443 9.78342 0.152098 
-0.165462 0.152098 9.8827 
9.78225 0.0529006 -0.127077 
0.0529006 9.77265 0.145072 
-0.127077 0.145072 9.8591 
9.91013 0.00474459 0.233357 
0.00474459 9.92672 0.0411416 
0.233357 0.0411416 9.93084 
9.87242 0.00510605 0.247068 
0.00510605 9.94346 0.0494121 
0.247068 0.0494121 9.95181 
9.89646 -0.00277591 0.223643 
-0.00277591 9.94907 0.0218017 
0.223643 0.0218017 9.92216 
9.89995 0.00259713 0.232652 
0.00259713 9.94039 0.0357186 
0.232652 0.0357186 9.92735 
10.0358 -0.0195344 0.00317097 
-0.0195344 9.98713 0.0732573 
0.00317097 0.0732573 9.93269 
10.0326 -0.00616258 -0.00779664 
-0.00616258 10.0202 0.0420877 
-0.00779664 0.0420877 9.90281 
9.94161 0.00291834 0.0348983 
0.00291834 9.90806 0.121161 
0.0348983 0.121161 10.1059 
10.0255 0.00473746 -0.0298759 
0.00473746 10.0384 0.0789956 
-0.0298759 0.0789956 9.89165 
9.92356 0.0154359 0.112951 
0.0154359 9.90534 -0.182423 
0.112951 -0.182423 9.94298 
9.90139 -0.00776428 0.128025 
-0.00776428 9.91001 -0.232888 
0.128025 -0.232888 9.96049 
9.91095 0.0143263 0.129446 
0.0143263 9.88476 -0.201344 
0.129446 -0.201344 9.97617 
9.91275 0.0314969 0.126659 
0.0314969 9.89497 -0.203329 
0.126659 -0.203329 9.96416 
9.757 0.0977211 -0.227735 
0.0977211 9.79396 0.265659 
-0.227735 0.265659 10.2522 
9.74036 0.0835906 -0.134935 
0.0835906 9.80333 0.0320641 
-0.134935 0.0320641 10.2594 
9.69549 0.104501 -0.206989 
0.104501 9.77277 0.0878989 
-0.206989 0.0878989 10.3348 
9.51612 0.20878 -0.0833136 
0.20878 9.54281 0.146633 
-0.0833136 0.146633 10.7442 
9.81384 0.0405526 -0.0393008 
0.0405526 9.79979 0.0520905 
-0.0393008 0.0520905 10.0196 
9.79577 0.0487286 -0.0265918 
0.0487286 9.79777 0.0562419 
-0.0265918 0.0562419 10.0397 
9.80007 0.0141121 -0.0593523 
0.0141121 9.82252 0.0336962 
-0.0593523 0.0336962 10.0106 
9.81259 0.0499666 -0.0386971 
0.0499666 9.79337 0.0452187 
-0.0386971 0.0452187 10.0273 
7.35258 -0.707426 -0.694421 
-0.707426 11.879 0.857587 
-0.694421 0.857587 15.5465 
8.55613 -0.56278 2.37339 
-0.56278 13.8349 0.110663 
2.37339 0.110663 12.387 
13.2876 1.92825 -0.529703 
1.92825 8.91763 0.257945 
-0.529703 0.257945 12.5728 
11.9302 0.0894081 2.54948 
0.0894081 9.15436 -3.22686 
2.54948 -3.22686 13.6935 
9.73639 0.0239503 -0.299991 
0.0239503 9.86517 0.0671245 
-0.299991 0.0671245 9.88 
9.72277 0.0089701 -0.226453 
0.0089701 9.91038 0.0834792 
-0.226453 0.0834792 9.84842 
9.75257 0.0175723 -0.233379 
0.0175723 9.87606 0.0528767 
-0.233379 0.0528767 9.85293 
9.77972 0.0503365 -0.247556 
0.0503365 9.80927 0.0898079 
-0.247556 0.0898079 9.89257 
9.99279 -0.0199711 -0.0131314 
-0.0199711 9.98144 0.0257201 
-0.0131314 0.0257201 9.99542 
9.96557 0.00561418 -0.00613877 
0.00561418 10.0077 -0.0088206 
-0.00613877 -0.0088206 9.99638 
9.98883 0.0130544 0.0216719 
0.0130544 9.97807 -0.00268754 
0.0216719 -0.00268754 10.0027 
9.96196 0.0135603 0.0102471 
0.0135603 9.99507 0.000522666 
0.0102471 0.000522666 10.0126 
9.72525 -0.0453071 -0.0780578 
-0.0453071 9.73363 -0.0356864 
-0.0780578 -0.0356864 9.9291 
9.66692 -0.0808479 -0.128632 
-0.0808479 9.84474 -0.0537843 
-0.128632 -0.0537843 9.87632 
9.74291 -0.0776695 -0.15078 
-0.0776695 9.80508 -0.0688949 
-0.15078 -0.0688949 9.83998 
9.68248 -0.118965 -0.165724 
-0.118965 9.69755 -0.0976972 
-0.165724 -0.0976972 10.0079 
9.74112 0.0837409 -0.27594 
0.0837409 9.97593 0.0367842 
-0.27594 0.0367842 9.7971 
9.69358 0.0805409 -0.278296 
0.0805409 9.9705 0.120672 
-0.278296 0.120672 9.85007 
9.73545 -0.00504295 -0.356259 
-0.00504295 9.89631 0.0405828 
-0.356259 0.0405828 9.88238 
9.7279 0.0117056 -0.349716 
0.0117056 9.95544 0.0719617 
-0.349716 0.0719617 9.83081 
10.2091 0.000896436 -0.156349 
0.000896436 10.1354 -0.249469 
-0.156349 -0.249469 10.6349 
10.2058 0.091392 0.0162323 
0.091392 10.0365 -0.116842 
0.0162323 -0.116842 10.7372 
10.2452 -0.0406641 -0.00307069 
-0.0406641 10.1422 -0.0324255 
-0.00307069 -0.0324255 10.5921 
9.98363 0.148354 0.0234798 
0.148354 10.4257 0.160454 
0.0234798 0.160454 10.57 
9.7523 -0.0540643 -0.491832 
-0.0540643 9.1535 0.195156 
-0.491832 0.195156 8.69198 
9.81853 -0.00957724 -0.628016 
-0.00957724 9.13682 0.363408 
-0.628016 0.363408 8.64242 
10.0007 0.401934 -1.25173 
0.401934 9.07332 0.316318 
-1.25173 0.316318 8.52376 
9.48002 -0.514955 -0.768782 
-0.514955 9.07295 0.499031 
-0.768782 0.499031 9.0448 
9.81861 -0.0512964 -0.155112 
-0.0512964 9.67084 -0.237654 
-0.155112 -0.237654 9.88686 
9.8592 -0.0729212 -0.111793 
-0.0729212 9.70836 -0.33566 
-0.111793 -0.33566 9.80874 
10.0123 -0.0914965 -0.196805 
-0.0914965 9.62857 -0.312719 
-0.196805 -0.312719 9.73549 
9.90792 0.00148602 -0.068501 
0.00148602 9.71304 -0.375324 
-0.068501 -0.375324 9.75535 
9.79064 0.111302 0.0282738 
0.111302 10.1376 -0.19558 
0.0282738 -0.19558 10.2252 
10.0541 0.127853 -0.0243052 
0.127853 9.89692 0.0790307 
-0.0243052 0.0790307 10.2024 
10.0822 0.0511164 -0.0159391 
0.0511164 10.0266 0.141427 
-0.0159391 0.141427 10.0446 
9.869 0.0893694 -0.00314678 
0.0893694 9.9956 0.0683374 
-0.00314678 0.0683374 10.2888 
10.0097 0.840347 0.159608 
0.840347 9.52956 -0.0124658 
0.159608 -0.0124658 11.1909 
9.75196 -0.368159 0.797625 
-0.368159 10.7261 -0.177687 
0.797625 -0.177687 10.2521 
9.71028 0.441961 0.487811 
0.441961 9.86004 -0.172497 
0.487811 -0.172497 11.1599 
9.85988 0.867616 0.302598 
0.867616 10.0396 -0.191832 
0.302598 -0.191832 10.8307 
9.6119 0.124453 -0.297071 
0.124453 9.74521 0.12958 
-0.297071 0.12958 9.83937 
9.51626 0.0807022 -0.276132 
0.0807022 9.82006 0.106535 
-0.276132 0.106535 9.86017 
9.54152 0.0784296 -0.279875 
0.0784296 9.81704 0.156277 
-0.279875 0.156277 9.83793 
9.60088 0.138832 -0.237992 
0.138832 9.73808 0.131218 
-0.237992 0.131218 9.85753 
10.5109 0.406115 0.530217 
0.406115 10.3102 -0.161776 
0.530217 -0.161776 7.6071 
9.94328 -0.675839 0.483728 
-0.675839 9.21466 -0.0816791 
0.483728 -0.0816791 9.27023 
10.4068 0.224174 0.0928231 
0.224174 9.96155 -0.517216 
0.0928231 -0.517216 8.05987 
11.309 0.119394 0.687938 
0.119394 9.53667 -2.08772 
0.687938 -2.08772 7.58255 
9.88961 0.0216789 0.172869 
0.0216789 9.91556 -0.194093 
0.172869 -0.194093 9.96571 
9.88772 0.0237978 0.172522 
0.0237978 9.90928 -0.183786 
0.172522 -0.183786 9.97389 
9.90394 0.0193215 0.189098 
0.0193215 9.91837 -0.151743 
0.189098 -0.151743 9.94858 
9.89322 0.0291027 0.199604 
0.0291027 9.91101 -0.171339 
0.199604 -0.171339 9.96666 
11.6842 -0.0512845 -0.373692 
-0.0512845 12.4618 -0.12614 
-0.373692 -0.12614 12.2844 
11.3051 -0.152112 -0.585475 
-0.152112 12.5737 -0.101896 
-0.585475 -0.101896 12.5517 
11.5436 0.543256 -0.37424 
0.543256 13.2986 -0.273572 
-0.37424 -0.273572 11.5881 
11.5783 0.000550578 -0.353884 
0.000550578 12.7641 -0.175638 
-0.353884 -0.175638 12.088 
9.98893 0.023326 0.0199229 
0.023326 9.99689 0.031114 
0.0199229 0.031114 10.0249 
9.98998 -0.00544586 -0.0125287 
-0.00544586 10.0098 -0.00638786 
-0.0125287 -0.00638786 10.0108 
9.98703 -0.00918841 -0.00910747 
-0.00918841 10.0068 -0.000559961 
-0.00910747 -0.000559961 10.0169 
9.97971 -0.0137271 -0.0140636 
-0.0137271 9.9997 0.000964557 
-0.0140636 0.000964557 10.0312 
10.0106 0.0567817 0.0543944 
0.0567817 10.1158 0.0158787 
0.0543944 0.0158787 10.4123 
10.0331 0.0676587 -0.0160546 
0.0676587 10.0854 0.00838389 
-0.0160546 0.00838389 10.4202 
10.0437 0.0117112 -0.00267195 
0.0117112 10.1059 0.0116408 
-0.00267195 0.0116408 10.3891 
10.014 0.0200523 0.0617382 
0.0200523 10.2065 -0.0204881 
0.0617382 -0.0204881 10.3182 
10.2069 0.0372519 -0.1032 
0.0372519 10.287 0.00428891 
-0.1032 0.00428891 10.417 
9.95722 -0.0895799 0.22437 
-0.0895799 10.0476 0.000445344 
0.22437 0.000445344 10.9061 
10.6129 -0.0161286 -0.267807 
-0.0161286 10.6236 0.0148868 
-0.267807 0.0148868 9.6744 
9.76022 0.115689 -0.356297 
0.115689 10.3716 0.256893 
-0.356297 0.256893 10.7791 
9.80599 -0.0723981 0.57807 
-0.0723981 9.43937 0.480863 
0.57807 0.480863 9.43795 
9.55406 -0.112733 0.604923 
-0.112733 9.53444 0.347646 
0.604923 0.347646 9.59481 
9.92589 0.0314049 0.751621 
0.0314049 9.31834 0.45649 
0.751621 0.45649 9.43907 
10.0296 -0.142128 0.106081 
-0.142128 9.33151 0.0524305 
0.106081 0.0524305 9.3222 
10.1817 -0.167604 -1.44773 
-0.167604 9.24221 -0.331139 
-1.44773 -0.331139 9.80633 
9.71893 -0.128042 -0.720096 
-0.128042 9.41448 -0.2495 
-0.720096 -0.2495 10.0968 
9.68229 -0.159977 -0.988823 
-0.159977 9.37649 -0.249624 
-0.988823 -0.249624 10.1715 
9.16251 0.115471 -0.995787 
0.115471 9.60944 -0.291972 
-0.995787 -0.291972 10.4583 
9.857 0.0489134 0.220349 
0.0489134 9.83352 -0.198802 
0.220349 -0.198802 9.95744 
9.85327 0.0469311 0.201653 
0.0469311 9.85082 -0.228299 
0.201653 -0.228299 9.94387 
9.87319 0.0422505 0.204057 
0.0422505 9.83098 -0.204911 
0.204057 -0.204911 9.9438 
9.84351 0.0187854 0.195598 
0.0187854 9.8744 -0.169749 
0.195598 -0.169749 9.93006 
9.87437 0.0672958 -0.0946773 
0.0672958 9.96869 0.121399 
-0.0946773 0.121399 9.88119 
9.92597 0.0484101 -0.0943418 
0.0484101 9.98742 0.121834 
-0.0943418 0.121834 9.81086 
9.94732 -0.0238665 -0.11509 
-0.0238665 9.95142 0.11056 
-0.11509 0.11056 9.82551 
9.94962 -0.00392453 -0.089065 
-0.00392453 9.94569 0.100682 
-0.089065 0.100682 9.82894 
9.93225 -0.00596735 0.121953 
-0.00596735 9.87433 -0.14757 
0.121953 -0.14757 9.49194 
9.9051 0.00639903 0.128053 
0.00639903 9.88762 -0.203466 
0.128053 -0.203466 9.50581 
9.93302 0.0736703 0.269807 
0.0736703 10.0051 -0.157839 
0.269807 -0.157839 9.36042 
9.79679 0.0459203 0.237063 
0.0459203 9.8387 -0.14343 
0.237063 -0.14343 9.66304 
9.96094 -0.0317188 0.0852603 
-0.0317188 9.97619 0.00102849 
0.0852603 0.00102849 10.0559 
9.94294 0.0154014 -0.0259783 
0.0154014 10.0239 0.0371657 
-0.0259783 0.0371657 10.0262 
9.92784 0.0562045 0.00212461 
0.0562045 9.97043 0.0255059 
0.00212461 0.0255059 10.0947 
9.90238 0.0108263 -0.0149104 
0.0108263 9.93934 0.0155058 
-0.0149104 0.0155058 10.1513 
10.0752 -0.000981055 0.0643532 
-0.000981055 10.2044 -0.0163678 
0.0643532 -0.0163678 10.4467 
10.2281 0.0945405 0.0217576 
0.0945405 10.0162 -0.121562 
0.0217576 -0.121562 10.482 
10.1602 0.00318418 0.0536427 
0.00318418 10.1581 0.0274081 
0.0536427 0.0274081 10.4081 
10.0418 -0.0555598 0.0676001 
-0.0555598 10.3528 -0.131645 
0.0676001 -0.131645 10.3317 
9.4368 0.0148426 -0.333811 
0.0148426 9.46821 -1.09035 
-0.333811 -1.09035 9.85847 
9.09017 0.468587 -0.236881 
0.468587 9.26032 -0.613799 
-0.236881 -0.613799 10.413 
8.86554 0.418609 -0.43945 
0.418609 9.62242 -1.0372 
-0.43945 -1.0372 10.2755 
8.87215 -0.0312348 -0.463087 
-0.0312348 8.84742 -0.428165 
-0.463087 -0.428165 11.0439 
9.6329 -0.114355 -0.586255 
-0.114355 9.64006 -0.101783 
-0.586255 -0.101783 9.91395 
9.58853 0.158454 0.0393504 
0.158454 9.90375 0.366439 
0.0393504 0.366439 9.69464 
9.39681 0.12542 -0.522136 
0.12542 10.1448 0.314466 
-0.522136 0.314466 9.64528 
9.38829 0.131339 -0.281893 
0.131339 9.85719 -0.0296271 
-0.281893 -0.0296271 9.94144 
9.85065 0.0704794 -0.251849 
0.0704794 9.56431 0.18883 
-0.251849 0.18883 9.36005 
9.81422 0.00190545 -0.233536 
0.00190545 9.54122 0.402763 
-0.233536 0.402763 9.41957 
9.77856 0.0311068 -0.176314 
0.0311068 9.58613 0.347202 
-0.176314 0.347202 9.41033 
9.8777 0.0592411 -0.257084 
0.0592411 9.70364 0.471526 
-0.257084 0.471526 9.19368 
9.20136 0.462753 2.71401 
0.462753 8.80867 2.46488 
2.71401 2.46488 7.52554 
8.18528 -0.771924 1.33093 
-0.771924 8.23951 0.323428 
1.33093 0.323428 9.11077 
9.72784 0.187267 1.41602 
0.187267 10.3414 1.36957 
1.41602 1.36957 5.46634 
7.68807 -0.449647 0.645535 
-0.449647 8.95086 1.49604 
0.645535 1.49604 8.89664 
9.9037 -0.00966539 0.235369 
-0.00966539 9.92325 0.0643634 
0.235369 0.0643634 9.94364 
9.92036 0.000630553 0.207132 
0.000630553 9.91784 0.0532426 
0.207132 0.0532426 9.9324 
9.90435 -0.00703891 0.219169 
-0.00703891 9.92961 0.0690322 
0.219169 0.0690322 9.93664 
9.90026 -0.021323 0.232054 
-0.021323 9.92003 0.0641224 
0.232054 0.0641224 9.9503 
10.4329 0.424413 0.157589 
0.424413 10.1184 -0.198404 
0.157589 -0.198404 10.2135 
10.2796 0.275112 -0.295715 
0.275112 9.97936 -0.0390923 
-0.295715 -0.0390923 10.5058 
10.11 -0.377267 0.178675 
-0.377267 10.1543 -0.137919 
0.178675 -0.137919 10.5005 
10.1503 -0.210033 -0.301936 
-0.210033 10.3049 0.0285069 
-0.301936 0.0285069 10.3096 
9.80216 0.0644001 -0.377424 
0.0644001 9.954 0.111694 
-0.377424 0.111694 9.54073 
9.81963 0.0292438 -0.348953 
0.0292438 9.98116 0.0415207 
-0.348953 0.0415207 9.4961 
9.73815 -0.0499621 -0.207047 
-0.0499621 9.93125 0.0203115 
-0.207047 0.0203115 9.62749 
9.71883 -0.131507 -0.450979 
-0.131507 10.1804 -0.0185952 
-0.450979 -0.0185952 9.39763 
10.2252 -0.15243 -0.0349942 
-0.15243 9.91171 -0.109397 
-0.0349942 -0.109397 10.5808 
10.1472 -0.240472 0.295253 
-0.240472 9.90448 0.14223 
0.295253 0.14223 10.666 
10.3212 -0.389376 -0.0330374 
-0.389376 9.77397 -0.220064 
-0.0330374 -0.220064 10.6225 
10.3398 -0.236718 -0.289796 
-0.236718 9.83928 -0.0366258 
-0.289796 -0.0366258 10.5386 
9.69462 0.134925 0.181747 
0.134925 9.6934 -0.146469 
0.181747 -0.146469 9.94884 
9.70177 0.156182 0.202239 
0.156182 9.64664 -0.178895 
0.202239 -0.178895 9.98844 
9.67844 0.0847021 0.202176 
0.0847021 9.73225 -0.154129 
0.202176 -0.154129 9.92617 
9.65178 0.116802 0.144506 
0.116802 9.71706 -0.145002 
0.144506 -0.145002 9.96802 
9.7946 -0.0598218 0.194669 
-0.0598218 9.82435 0.252845 
0.194669 0.252845 9.94178 
9.83151 -0.0545929 0.261913 
-0.0545929 9.80559 0.198118 
0.261913 0.198118 9.92362 
9.81883 -0.060847 0.195571 
-0.060847 9.77079 0.204914 
0.195571 0.204914 9.9711 
9.85712 -0.00788652 0.225655 
-0.00788652 9.82077 0.282857 
0.225655 0.282857 9.88283 
10.2106 -0.152145 -0.0516945 
-0.152145 10.0721 -0.0508258 
-0.0516945 -0.0508258 10.2597 
10.2119 0.0359906 0.0263159 
0.0359906 9.9523 0.0746157 
0.0263159 0.0746157 10.3782 
10.3126 -0.0237518 -0.00172986 
-0.0237518 9.90724 -0.122429 
-0.00172986 -0.122429 10.3225 
10.1059 -0.208633 -0.103383 
-0.208633 10.0302 -0.0696863 
-0.103383 -0.0696863 10.4064 
9.92931 0.0312593 -0.13452 
0.0312593 9.76648 0.247195 
-0.13452 0.247195 9.68701 
9.97694 0.0194175 -0.123346 
0.0194175 9.60724 0.321293 
-0.123346 0.321293 9.79862 
10.1065 0.0617205 -0.0727244 
0.0617205 9.65414 0.345265 
-0.0727244 0.345265 9.62213 
10.1354 0.0232586 -0.0966702 
0.0232586 9.65526 0.496755 
-0.0966702 0.496755 9.59211 
9.82615 0.0272382 0.00178731 
0.0272382 9.57494 0.189817 
0.00178731 0.189817 9.81704 
9.71766 0.0225986 -0.138489 
0.0225986 9.67591 0.18001 
-0.138489 0.18001 9.82455 
9.80622 0.0134436 -0.143325 
0.0134436 9.55768 0.305974 
-0.143325 0.305974 9.85423 
9.76668 0.0446408 0.00397476 
0.0446408 9.65325 0.264796 
0.00397476 0.264796 9.79819 
9.95852 0.0135908 -0.199004 
0.0135908 9.9354 0.155334 
-0.199004 0.155334 9.641 
9.9633 0.0107224 -0.15523 
0.0107224 9.89044 0.172006 
-0.15523 0.172006 9.68118 
9.96861 0.0225079 -0.196165 
0.0225079 9.88998 0.175495 
-0.196165 0.175495 9.67632 
9.93921 0.0275179 -0.219443 
0.0275179 9.90333 0.163222 
-0.219443 0.163222 9.69239 
9.9055 -0.0726803 0.250133 
-0.0726803 9.45104 0.385951 
0.250133 0.385951 9.29992 
10.0929 -0.153558 0.263385 
-0.153558 9.36475 0.524673 
0.263385 0.524673 9.19879 
10.066 0.140132 0.348805 
0.140132 9.48534 0.415849 
0.348805 0.415849 9.10508 
9.65328 0.0421268 0.30496 
0.0421268 9.64299 0.466371 
0.30496 0.466371 9.36019 
11.1059 0.190532 -0.813797 
0.190532 7.8137 0.304449 
-0.813797 0.304449 6.02947 
10.4857 0.171175 -1.10686 
0.171175 7.5453 0.46941 
-1.10686 0.46941 6.91808 
10.2181 -0.49771 -0.72708 
-0.49771 7.57162 -0.183545 
-0.72708 -0.183545 7.15929 
10.4903 0.575595 -0.567792 
0.575595 7.94718 -0.0793724 
-0.567792 -0.0793724 6.51155 
10.173 -0.19825 -0.12044 
-0.19825 9.3384 -0.390555 
-0.12044 -0.390555 11.1861 
9.90997 0.0342657 0.135442 
0.0342657 9.86173 -0.229677 
0.135442 -0.229677 10.9258 
10.3529 -0.092442 -0.233314 
-0.092442 9.30617 -0.216519 
-0.233314 -0.216519 11.0384 
10.3022 -0.294218 -0.523419 
-0.294218 9.75671 -0.725548 
-0.523419 -0.725548 10.6386 
9.84192 -0.053591 0.29997 
-0.053591 9.88993 0.288421 
0.29997 0.288421 9.7016 
9.80504 0.00382423 0.542188 
0.00382423 9.77329 0.638718 
0.542188 0.638718 9.85512 
9.81695 -0.140483 0.263233 
-0.140483 9.99942 0.360417 
0.263233 0.360417 9.61707 
9.97092 -0.0278872 0.425437 
-0.0278872 10.0048 0.413256 
0.425437 0.413256 9.45776 
10.5523 -1.40035 0.591745 
-1.40035 9.50584 2.3331 
0.591745 2.3331 10.3676 
9.80002 0.901692 0.691605 
0.901692 8.73782 2.17622 
0.691605 2.17622 11.888 
10.507 2.0842 -1.38473 
2.0842 9.92435 0.921212 
-1.38473 0.921212 9.99445 
10.2573 -1.0583 1.73956 
-1.0583 9.96894 3.92571 
1.73956 3.92571 10.1996 
9.90735 0.042583 -0.269655 
0.042583 9.87355 0.151653 
-0.269655 0.151653 9.68761 
9.89343 0.0535715 -0.317403 
0.0535715 9.98015 0.224562 
-0.317403 0.224562 9.59492 
9.90808 0.0754603 -0.300177 
0.0754603 9.93194 0.201198 
-0.300177 0.201198 9.62848 
10.0041 0.0587641 -0.296361 
0.0587641 9.87244 0.287724 
-0.296361 0.287724 9.592 
9.70827 0.176598 0.400544 
0.176598 9.51421 -0.16558 
0.400544 -0.16558 10.292 
9.52299 0.11379 0.595874 
0.11379 9.39089 -0.368383 
0.595874 -0.368383 10.6006 
9.66645 0.237526 0.54611 
0.237526 9.54771 -0.2604 
0.54611 -0.2604 10.3003 
9.67538 0.0269248 0.260933 
0.0269248 9.77821 -0.433478 
0.260933 -0.433478 10.0609 
9.84046 0.000154052 0.232146 
0.000154052 9.92789 -0.205037 
0.232146 -0.205037 9.69774 
9.98431 0.153545 0.263539 
0.153545 9.91962 -0.151548 
0.263539 -0.151548 9.56216 
9.92633 -0.0265284 0.162255 
-0.0265284 9.88248 -0.267976 
0.162255 -0.267976 9.65727 
9.86377 0.0345419 0.230222 
0.0345419 9.85516 -0.179936 
0.230222 -0.179936 9.74716 
5.24321 3.66651 2.2672 
3.66651 9.50277 -1.245 
2.2672 -1.245 0.924807 
7.12156 0.287555 1.47009 
0.287555 6.85334 0.825875 
1.47009 0.825875 1.69588 
7.6633 -0.73827 1.18506 
-0.73827 5.32793 0.436121 
1.18506 0.436121 2.67955 
4.627 0.899215 -0.176788 
0.899215 8.5631 2.87725 
-0.176788 2.87725 2.48067 
6.47534 -0.606298 -0.166438 
-0.606298 9.80192 -0.254941 
-0.166438 -0.254941 1.46777 
5.91692 1.25797 0.514495 
1.25797 8.14615 -0.00144259 
0.514495 -0.00144259 3.68196 
5.06086 -1.03182 0.632911 
-1.03182 8.59675 -1.4417 
0.632911 -1.4417 4.08742 
5.90615 0.855424 1.22044 
0.855424 8.70511 0.198097 
1.22044 0.198097 3.13378 
9.66249 -0.0820766 0.259275 
-0.0820766 9.74136 0.282671 
0.259275 0.282671 9.79502 
9.65376 -0.134274 0.384109 
-0.134274 9.6889 0.409035 
0.384109 0.409035 9.85621 
9.65897 -0.0854636 0.350638 
-0.0854636 9.63702 0.323579 
0.350638 0.323579 9.90287 
9.60113 -0.0900464 0.262789 
-0.0900464 9.64914 0.29318 
0.262789 0.29318 9.94859 
9.94165 0.0194366 0.0244541 
0.0194366 9.71504 -0.353903 
0.0244541 -0.353903 9.80349 
9.93379 0.0189639 0.0674435 
0.0189639 9.7241 -0.284522 
0.0674435 -0.284522 9.8023 
9.79333 0.0207122 -0.0143246 
0.0207122 9.7845 -0.30784 
-0.0143246 -0.30784 9.88235 
9.96827 0.0593256 0.144537 
0.0593256 9.70384 -0.279647 
0.144537 -0.279647 9.78807 
9.89747 0.0328792 -0.137205 
0.0328792 9.90351 0.133282 
-0.137205 0.133282 9.94321 
9.86793 0.0346946 -0.19554 
0.0346946 9.89663 0.158243 
-0.19554 0.158243 9.97963 
9.89106 -0.0115644 -0.219518 
-0.0115644 9.90405 0.175583 
-0.219518 0.175583 9.94908 
9.8841 0.0221896 -0.190873 
0.0221896 9.89909 0.155184 
-0.190873 0.155184 9.961 
9.9003 0.00923221 -0.0697726 
0.00923221 10.0492 -0.0491064 
-0.0697726 -0.0491064 10.0517 
9.98166 -0.0636171 0.0401329 
-0.0636171 10.0008 0.0944836 
0.0401329 0.0944836 10.0188 
9.90545 -0.0529071 -0.00176952 
-0.0529071 9.94933 -0.00915325 
-0.00176952 -0.00915325 10.1464 
9.94048 -0.0400856 -0.00984752 
-0.0400856 9.97378 0.00151416 
-0.00984752 0.00151416 10.0869 
9.86566 -0.0402535 0.180977 
-0.0402535 9.66443 0.175906 
0.180977 0.175906 9.95276 
9.72831 -0.106977 0.171162 
-0.106977 9.75233 0.184898 
0.171162 0.184898 10.0022 
9.78161 -0.0674319 0.179663 
-0.0674319 9.67504 0.199219 
0.179663 0.199219 10.0262 
9.71177 -0.089386 0.223548 
-0.089386 9.75019 0.215927 
0.223548 0.215927 10.0209 
9.9338 0.00514145 -0.159286 
0.00514145 9.92308 0.165447 
-0.159286 0.165447 10.0106 
9.94061 0.00713887 -0.169647 
0.00713887 9.93388 0.181301 
-0.169647 0.181301 9.99295 
9.95664 0.00924839 -0.162673 
0.00924839 9.95119 0.184945 
-0.162673 0.184945 9.9596 
9.9634 0.0147272 -0.156318 
0.0147272 9.92722 0.21118 
-0.156318 0.21118 9.97681 
9.91543 0.062425 0.359164 
0.062425 9.07055 -0.586997 
0.359164 -0.586997 8.29081 
9.86891 -0.104267 0.113777 
-0.104267 8.99226 -0.530272 
0.113777 -0.530272 8.41563 
9.6864 0.13686 0.497648 
0.13686 9.11157 -0.555917 
0.497648 -0.555917 8.47883 
10.183 0.349104 0.327197 
0.349104 8.91689 -0.634802 
0.327197 -0.634802 8.1769 
10.0231 -0.114579 -0.637845 
-0.114579 9.33015 -0.844623 
-0.637845 -0.844623 8.52658 
9.17946 -0.150896 1.64184 
-0.150896 9.45288 -0.818058 
1.64184 -0.818058 9.2475 
9.67233 -0.441425 2.06837 
-0.441425 9.53188 -0.199468 
2.06837 -0.199468 8.67563 
8.80584 -0.377819 1.85089 
-0.377819 9.2951 -0.76234 
1.85089 -0.76234 9.77889 
9.66117 0.10088 -0.17995 
0.10088 9.75717 0.176665 
-0.17995 0.176665 10.1893 
9.7375 0.0749734 -0.121284 
0.0749734 9.78527 0.165946 
-0.121284 0.165946 10.0848 
9.73356 0.133549 -0.112265 
0.133549 9.70137 0.114969 
-0.112265 0.114969 10.1727 
9.80769 0.0230142 -0.153481 
0.0230142 9.7545 0.12848 
-0.153481 0.12848 10.0454 
10.2056 0.121343 0.0131772 
0.121343 10.2666 -0.0625556 
0.0131772 -0.0625556 10.4334 
10.0731 0.0341713 0.0631122 
0.0341713 10.0543 -0.113219 
0.0631122 -0.113219 10.7781 
10.5118 -0.01771 0.10266 
-0.01771 10.4873 0.132259 
0.10266 0.132259 9.90648 
10.4477 0.0988748 -0.345081 
0.0988748 10.1739 -0.0294413 
-0.345081 -0.0294413 10.284 
9.90809 -0.00787229 0.224177 
-0.00787229 9.92837 0.112735 
0.224177 0.112735 9.95215 
9.91877 -0.0351804 0.184491 
-0.0351804 9.94349 0.0826022 
0.184491 0.0826022 9.92635 
9.92517 -0.000908234 0.202631 
-0.000908234 9.89771 0.0953504 
0.202631 0.0953504 9.96572 
9.91434 -0.015234 0.213777 
-0.015234 9.91203 0.103642 
0.213777 0.103642 9.96224 
9.89802 0.239672 -0.239962 
0.239672 9.52246 0.236308 
-0.239962 0.236308 8.61384 
10.1271 0.204849 -0.463853 
0.204849 9.81466 0.125482 
-0.463853 0.125482 8.09253 
9.41638 -0.197878 -0.620352 
-0.197878 10.1583 0.00630771 
-0.620352 0.00630771 8.4596 
9.77477 -0.142869 -0.380476 
-0.142869 9.96631 0.302991 
-0.380476 0.302991 8.29323 
9.82435 0.00731072 -0.279778 
0.00731072 9.90674 -0.00365487 
-0.279778 -0.00365487 9.59589 
9.79959 -0.0449086 -0.232931 
-0.0449086 9.90848 0.0436208 
-0.232931 0.0436208 9.6189 
9.83215 0.0864992 -0.317092 
0.0864992 10.0086 0.180294 
-0.317092 0.180294 9.48624 
9.66504 0.0446436 -0.229609 
0.0446436 9.80239 0.0913886 
-0.229609 0.0913886 9.85954 
-1.95431 -0.422012 -0.0855624 
-0.422012 2.5749 -1.66989 
-0.0855624 -1.66989 9.07843 
2.72004 0.384232 1.08021 
0.384232 4.23755 -0.994756 
1.08021 -0.994756 2.74142 
4.47187 -1.77384 2.30951 
-1.77384 8.03766 1.39511 
2.30951 1.39511 -2.81051 
0.835049 1.22968 0.541613 
1.22968 9.28395 -4.31888 
0.541613 -4.31888 -0.419979 
9.27458 0.0666647 -0.490445 
0.0666647 10.1854 0.45186 
-0.490445 0.45186 9.043 
9.47782 -0.0255448 -0.193035 
-0.0255448 9.88778 0.141331 
-0.193035 0.141331 9.13733 
9.42062 -0.0838033 -0.954259 
-0.0838033 10.3685 0.100575 
-0.954259 0.100575 8.71384 
9.55939 0.097613 -0.748249 
0.097613 10.0371 0.43352 
-0.748249 0.43352 8.90649 
9.77193 -0.0299016 -0.212826 
-0.0299016 9.85956 -0.0999692 
-0.212826 -0.0999692 9.8941 
9.74387 -0.0101578 -0.211866 
-0.0101578 9.87776 -0.132215 
-0.211866 -0.132215 9.90396 
9.74301 -0.0471823 -0.306651 
-0.0471823 9.86181 -0.10927 
-0.306651 -0.10927 9.92077 
9.80492 -0.0572168 -0.207882 
-0.0572168 9.81843 -0.116235 
-0.207882 -0.116235 9.90224 
10.0135 -0.263258 0.0476624 
-0.263258 9.72686 0.33602 
0.0476624 0.33602 10.1467 
9.91818 -0.160879 0.197425 
-0.160879 9.73814 0.0455757 
0.197425 0.0455757 10.2308 
9.91447 -0.0316475 0.0215578 
-0.0316475 9.79311 0.105629 
0.0215578 0.105629 10.1795 
9.78759 -0.204304 0.178714 
-0.204304 9.8621 0.241913 
0.178714 0.241913 10.2374 
9.79953 0.0448206 0.252491 
0.0448206 10.0172 -0.092588 
0.252491 -0.092588 9.60011 
9.83508 0.0276225 0.276819 
0.0276225 9.90093 -0.0753374 
0.276819 -0.0753374 9.68084 
9.88545 -0.0442871 0.299327 
-0.0442871 9.87813 0.0348041 
0.299327 0.0348041 9.65328 
9.75973 0.0259308 0.252138 
0.0259308 9.89415 -0.12304 
0.252138 -0.12304 9.76297 
9.92622 -0.00743737 -0.250617 
-0.00743737 9.94724 0.10296 
-0.250617 0.10296 9.9471 
9.87322 -0.000438398 -0.301093 
-0.000438398 10.0099 0.117145 
-0.301093 0.117145 9.93746 
9.89708 -0.04945 -0.18813 
-0.04945 9.95088 0.0397254 
-0.18813 0.0397254 9.9726 
9.93756 0.0132789 -0.218648 
0.0132789 9.94583 0.0837059 
-0.218648 0.0837059 9.93716 
9.90765 0.0254269 0.128102 
0.0254269 9.90784 -0.211065 
0.128102 -0.211065 9.99426 
9.92832 0.0209762 0.149587 
0.0209762 9.9008 -0.205475 
0.149587 -0.205475 9.98063 
9.96036 0.0220065 0.151418 
0.0220065 9.90479 -0.204237 
0.151418 -0.204237 9.9446 
9.94917 0.0158367 0.143255 
0.0158367 9.90563 -0.22755 
0.143255 -0.22755 9.95495 
10.15 -0.0184858 0.00519244 
-0.0184858 9.99218 0.0670023 
0.00519244 0.0670023 9.98092 
9.86245 0.0351141 -0.0819224 
0.0351141 10.1695 -0.102594 
-0.0819224 -0.102594 10.0911 
9.91908 0.0995014 0.0466187 
0.0995014 10.1114 0.00735112 
0.0466187 0.00735112 10.0925 
10.0727 -0.0489023 -0.0992833 
-0.0489023 9.84057 0.0337934 
-0.0992833 0.0337934 10.2098 
9.45052 -0.153199 0.359778 
-0.153199 9.63825 0.490321 
0.359778 0.490321 9.94595 
9.6226 -0.0970171 0.363713 
-0.0970171 9.63548 0.316785 
0.363713 0.316785 9.77665 
9.46993 -0.485314 0.47384 
-0.485314 9.76458 0.524455 
0.47384 0.524455 9.80022 
9.32857 -0.267596 0.190701 
-0.267596 9.78744 0.0855256 
0.190701 0.0855256 9.91871 
9.84786 -0.171376 0.286084 
-0.171376 9.74945 0.20988 
0.286084 0.20988 10.0121 
9.94709 -0.227105 0.295589 
-0.227105 9.65935 0.245602 
0.295589 0.245602 10.003 
9.82142 -0.0689152 0.348768 
-0.0689152 9.7511 0.235193 
0.348768 0.235193 10.0369 
9.85634 -0.264543 0.274395 
-0.264543 9.77888 0.316288 
0.274395 0.316288 9.9742 
9.57337 -0.270589 -0.70285 
-0.270589 8.6934 -1.19498 
-0.70285 -1.19498 6.38331 
8.67069 0.677584 -0.898484 
0.677584 8.62669 -0.46798 
-0.898484 -0.46798 7.3527 
10.2435 -0.37873 -0.833575 
-0.37873 7.98119 -0.575205 
-0.833575 -0.575205 6.42536 
8.84356 0.272894 0.0179949 
0.272894 9.17375 -0.131588 
0.0179949 -0.131588 6.63276 
8.94064 -0.0566689 -0.581595 
-0.0566689 10.0581 -0.0778671 
-0.581595 -0.0778671 8.49773 
9.09685 0.0299389 -0.666254 
0.0299389 9.87907 -0.120197 
-0.666254 -0.120197 8.52053 
9.02062 0.0730564 -0.601471 
0.0730564 9.91455 -0.150598 
-0.601471 -0.150598 8.56128 
9.13189 0.0638261 -0.435799 
0.0638261 9.70168 -0.197462 
-0.435799 -0.197462 8.66287 
9.8162 -0.0109411 -0.237517 
-0.0109411 9.8626 0.00295487 
-0.237517 0.00295487 9.90294 
9.79986 0.00980983 -0.242124 
0.00980983 9.90249 -0.00252155 
-0.242124 -0.00252155 9.8794 
9.82172 0.0013359 -0.239803 
0.0013359 9.87737 0.00666263 
-0.239803 0.00666263 9.88266 
9.82463 0.0387296 -0.238441 
0.0387296 9.84991 0.0171856 
-0.238441 0.0171856 9.90721 
9.803 0.0855626 -0.248228 
0.0855626 9.7326 0.163051 
-0.248228 0.163051 10.2971 
9.74762 0.13639 -0.165521 
0.13639 9.8115 0.160271 
-0.165521 0.160271 10.2736 
9.79303 0.128214 -0.20858 
0.128214 9.75284 0.0780811 
-0.20858 0.0780811 10.2868 
9.75002 0.0994042 -0.117409 
0.0994042 9.92035 0.173156 
-0.117409 0.173156 10.1623 
9.7656 -0.081137 -0.165194 
-0.081137 9.7285 -0.210782 
-0.165194 -0.210782 9.91552 
9.77861 -0.063653 -0.151557 
-0.063653 9.71899 -0.21687 
-0.151557 -0.21687 9.91202 
9.78353 -0.0495345 -0.159279 
-0.0495345 9.71033 -0.203577 
-0.159279 -0.203577 9.91576 
9.78416 -0.081725 -0.189955 
-0.081725 9.7459 -0.214625 
-0.189955 -0.214625 9.87956 
9.77086 0.0185497 -0.222812 
0.0185497 9.77169 0.0626061 
-0.222812 0.0626061 9.85263 
9.72049 0.0139078 -0.222589 
0.0139078 9.82665 0.00311063 
-0.222589 0.00311063 9.84805 
9.86296 0.0160642 -0.201174 
0.0160642 9.77996 0.0330892 
-0.201174 0.0330892 9.75227 
9.74682 0.0445588 -0.197942 
0.0445588 9.82198 0.0324974 
-0.197942 0.0324974 9.82639 
10.0881 0.0143196 -0.00627354 
0.0143196 10.0978 0.00188123 
-0.00627354 0.00188123 10.3636 
10.0712 -0.0131551 0.00608375 
-0.0131551 10.0906 -0.0173644 
0.00608375 -0.0173644 10.3877 
10.1006 0.0214404 0.00200116 
0.0214404 10.1239 -0.0293815 
0.00200116 -0.0293815 10.325 
10.1232 0.0323874 -0.0893214 
0.0323874 10.2156 -0.0479175 
-0.0893214 -0.0479175 10.2107 
9.80562 -0.0360519 0.142062 
-0.0360519 9.77523 0.155541 
0.142062 0.155541 9.90289 
9.75501 -0.0814431 0.155602 
-0.0814431 9.7572 0.160305 
0.155602 0.160305 9.97154 
9.75952 -0.0244741 0.102623 
-0.0244741 9.77993 0.112431 
0.102623 0.112431 9.94429 
9.76421 -0.0496769 0.129454 
-0.0496769 9.76198 0.160074 
0.129454 0.160074 9.95755 
9.4822 -0.311341 0.473714 
-0.311341 9.66029 0.196733 
0.473714 0.196733 9.55298 
9.24074 -0.330945 0.624274 
-0.330945 9.9566 0.509565 
0.624274 0.509565 9.49813 
9.57092 -0.196007 0.388679 
-0.196007 9.57873 0.327587 
0.388679 0.327587 9.54582 
9.14352 -0.185574 0.206048 
-0.185574 9.74095 0.357883 
0.206048 0.357883 9.811 
10.1546 0.0684889 0.201864 
0.0684889 9.38541 -0.483973 
0.201864 -0.483973 9.21599 
9.73079 -0.140548 0.384609 
-0.140548 9.27355 -0.312647 
0.384609 -0.312647 9.75168 
10.0589 0.0359882 0.610064 
0.0359882 9.59552 -0.524546 
0.610064 -0.524546 9.10158 
10.1015 0.00454824 0.210559 
0.00454824 9.50426 -0.357775 
0.210559 -0.357775 9.15026 
9.95062 -0.0193937 -0.164822 
-0.0193937 9.9222 -0.169437 
-0.164822 -0.169437 9.88829 
9.92482 -0.0478877 -0.214799 
-0.0478877 10.0039 -0.184537 
-0.214799 -0.184537 9.83237 
9.85674 -0.0294886 -0.143435 
-0.0294886 9.94789 -0.215905 
-0.143435 -0.215905 9.95648 
9.95298 -0.0200612 -0.168527 
-0.0200612 9.91707 -0.164404 
-0.168527 -0.164404 9.89107 
9.42489 0.167608 -0.406858 
0.167608 10.0131 0.59004 
-0.406858 0.59004 9.03868 
9.36863 0.153288 -0.322177 
0.153288 10.1394 0.809675 
-0.322177 0.809675 8.96867 
9.3466 0.179534 -0.370383 
0.179534 10.2253 0.422258 
-0.370383 0.422258 8.90484 
9.71729 -0.277191 -0.538545 
-0.277191 9.12061 0.33069 
-0.538545 0.33069 9.6388 
9.89702 0.052764 0.139756 
0.052764 9.79413 -0.163864 
0.139756 -0.163864 9.86961 
9.94383 0.0211331 0.170846 
0.0211331 9.75171 -0.307404 
0.170846 -0.307404 9.86523 
9.99967 0.242366 0.172845 
0.242366 9.68406 -0.350724 
0.172845 -0.350724 9.87704 
9.94462 -0.0144731 0.125838 
-0.0144731 9.7298 -0.362409 
0.125838 -0.362409 9.88635 
9.90893 0.00822234 0.108372 
0.00822234 9.98681 0.150595 
0.108372 0.150595 9.88589 
9.97811 0.00339224 0.114616 
0.00339224 9.94729 0.155981 
0.114616 0.155981 9.85623 
9.93922 -0.000473335 0.11862 
-0.000473335 9.99299 0.156357 
0.11862 0.156357 9.84942 
9.95684 -0.00877741 0.130709 
-0.00877741 9.96077 0.14687 
0.130709 0.14687 9.86402 
12.3406 3.06194 -3.17299 
3.06194 11.8089 1.16207 
-3.17299 1.16207 7.80157 
11.2655 2.991 0.836926 
2.991 5.26952 -0.0848681 
0.836926 -0.0848681 15.416 
6.11422 5.20096 2.95628 
5.20096 2.72918 0.224218 
2.95628 0.224218 23.1076 
11.414 1.06853 1.52119 
1.06853 8.86555 -1.4053 
1.52119 -1.4053 11.6714 
9.93019 -0.019225 0.199305 
-0.019225 9.89864 0.0948258 
0.199305 0.0948258 9.96942 
9.90028 -0.00958882 0.205839 
-0.00958882 9.96047 0.119682 
0.205839 0.119682 9.9375 
9.88043 -0.00300435 0.22617 
-0.00300435 9.95751 0.121271 
0.22617 0.121271 9.96032 
9.90764 -0.0390476 0.18478 
-0.0390476 9.93332 0.122112 
0.18478 0.122112 9.95729 
9.88647 0.0307233 -0.164048 
0.0307233 9.95618 0.175408 
-0.164048 0.175408 9.93581 
9.94877 0.00694084 -0.156922 
0.00694084 9.92006 0.195958 
-0.156922 0.195958 9.90963 
9.94759 0.0175421 -0.167664 
0.0175421 9.93114 0.206731 
-0.167664 0.206731 9.89973 
9.93556 0.015396 -0.160032 
0.015396 9.93781 0.192362 
-0.160032 0.192362 9.90509 
9.9705 0.334759 -0.822906 
0.334759 9.76979 0.663143 
-0.822906 0.663143 9.67536 
10.1549 0.0590705 -0.41434 
0.0590705 9.58924 0.286029 
-0.41434 0.286029 9.67154 
10.4091 -0.109428 -0.593875 
-0.109428 9.59518 0.308933 
-0.593875 0.308933 9.41138 
9.87812 0.146706 -0.317302 
0.146706 9.89302 0.382018 
-0.317302 0.382018 9.64451 
9.76511 0.110231 0.0886699 
0.110231 9.73936 -0.0843503 
0.0886699 -0.0843503 10.0314 
9.70227 0.0701677 0.0864308 
0.0701677 9.86113 -0.116927 
0.0864308 -0.116927 9.97243 
9.77011 -0.0362674 0.0751619 
-0.0362674 9.72946 -0.105696 
0.0751619 -0.105696 10.0363 
9.76429 0.0352004 0.060293 
0.0352004 9.76961 -0.085211 
0.060293 -0.085211 10.0019 
9.86617 0.0110674 0.00233674 
0.0110674 9.8171 -0.244583 
0.00233674 -0.244583 9.91128 
9.89606 -0.0081706 0.0172036 
-0.0081706 9.81807 -0.239553 
0.0172036 -0.239553 9.88041 
9.88435 0.00742173 0.00684627 
0.00742173 9.83353 -0.244143 
0.00684627 -0.244143 9.87667 
9.85133 -0.0477875 -0.0139215 
-0.0477875 9.83396 -0.248263 
-0.0139215 -0.248263 9.90925 
9.82189 0.0433884 -0.17244 
0.0433884 9.83442 0.087268 
-0.17244 0.087268 9.89884 
9.8207 0.066175 -0.158661 
0.066175 9.80883 0.177739 
-0.158661 0.177739 9.92562 
9.87623 -0.0011488 -0.123256 
-0.0011488 9.80094 0.154419 
-0.123256 0.154419 9.87798 
9.78088 0.00265291 -0.253368 
0.00265291 9.83836 0.122186 
-0.253368 0.122186 9.93591 
9.78508 -0.0108899 -0.110167 
-0.0108899 9.75612 0.071669 
-0.110167 0.071669 9.96111 
9.76647 0.0383125 -0.0582252 
0.0383125 9.75742 0.0670724 
-0.0582252 0.0670724 9.97842 
9.78601 0.0852332 -0.0033162 
0.0852332 9.76782 0.0542172 
-0.0033162 0.0542172 9.94849 
9.72833 0.0397405 -0.0432808 
0.0397405 9.828 0.122613 
-0.0432808 0.122613 9.94598 
9.86852 -0.0190299 0.11231 
-0.0190299 9.83048 -0.101747 
0.11231 -0.101747 9.84855 
9.8035 0.0693553 0.159302 
0.0693553 9.82766 -0.111149 
0.159302 -0.111149 9.91639 
9.8589 -0.00891626 0.100474 
-0.00891626 9.81074 -0.113821 
0.100474 -0.113821 9.87791 
9.79372 0.00589566 0.106317 
0.00589566 9.81501 -0.0691771 
0.106317 -0.0691771 9.93882 
9.95758 -0.00710738 0.0691005 
-0.00710738 9.90006 0.233209 
0.0691005 0.233209 9.96508 
9.96494 -0.0111661 0.0708636 
-0.0111661 9.91926 0.223414 
0.0708636 0.223414 9.93851 
9.94002 -0.0140568 0.0703734 
-0.0140568 9.92496 0.222792 
0.0703734 0.222792 9.95774 
9.95682 -0.019769 0.0737348 
-0.019769 9.92188 0.222374 
0.0737348 0.222374 9.94402 
9.77406 0.0872528 -0.187187 
0.0872528 9.76484 0.183138 
-0.187187 0.183138 10.0891 
9.77386 0.0756561 -0.171091 
0.0756561 9.78153 0.168621 
-0.171091 0.168621 10.0726 
9.75539 0.0818022 -0.164881 
0.0818022 9.78043 0.171872 
-0.164881 0.171872 10.0921 
9.78357 0.0706028 -0.15801 
0.0706028 9.78185 0.174284 
-0.15801 0.174284 10.0625 
9.69343 -0.0936625 -0.244673 
-0.0936625 9.70657 -0.0333671 
-0.244673 -0.0333671 10.2522 
9.72399 -0.081813 -0.135103 
-0.081813 9.74108 0.013045 
-0.135103 0.013045 10.1871 
9.79716 -0.164746 -0.219792 
-0.164746 9.73909 -0.296953 
-0.219792 -0.296953 10.116 
9.47208 -0.183686 -0.142917 
-0.183686 9.45251 -0.102924 
-0.142917 -0.102924 10.7276 
9.87458 -0.00332323 0.187208 
-0.00332323 9.89386 0.161349 
0.187208 0.161349 9.91898 
9.90352 -0.0310633 0.190599 
-0.0310633 9.86932 0.190021 
0.190599 0.190021 9.91459 
9.89254 -0.0351533 0.184291 
-0.0351533 9.88708 0.187059 
0.184291 0.187059 9.9078 
9.90805 -0.0368085 0.216708 
-0.0368085 9.90381 0.220341 
0.216708 0.220341 9.87557 
9.84068 -0.0240475 0.0046369 
-0.0240475 9.71041 0.0281931 
0.0046369 0.0281931 10.1552 
9.8394 -0.0603305 0.117348 
-0.0603305 9.83897 0.120594 
0.117348 0.120594 10.0279 
10.0105 -0.00757707 0.128525 
-0.00757707 9.96453 0.0547346 
0.128525 0.0547346 9.73121 
9.8156 -0.0451664 0.103835 
-0.0451664 9.90888 0.0713511 
0.103835 0.0713511 9.98177 
10.388 -0.249846 -2.68217 
-0.249846 6.7065 -0.0822707 
-2.68217 -0.0822707 6.17805 
10.038 -2.15582 -5.11911 
-2.15582 5.9163 2.9046 
-5.11911 2.9046 7.31828 
9.32526 0.0948065 -1.46525 
0.0948065 8.28628 2.66157 
-1.46525 2.66157 5.66103 
9.52085 0.876316 -1.83413 
0.876316 6.53312 -0.558188 
-1.83413 -0.558188 7.21861 
9.94908 -0.155397 -0.505834 
-0.155397 10.9516 0.468388 
-0.505834 0.468388 9.83869 
9.11106 0.321539 -0.582175 
0.321539 9.67931 0.295439 
-0.582175 0.295439 11.949 
9.33096 0.0828844 0.353541 
0.0828844 9.22616 -0.188526 
0.353541 -0.188526 12.1822 
9.11632 0.217036 -0.588141 
0.217036 9.72138 0.0701844 
-0.588141 0.0701844 11.9017 
9.92888 -0.0359741 -0.0739682 
-0.0359741 9.80894 -0.32112 
-0.0739682 -0.32112 9.83831 
9.92161 -0.00202507 -0.0297833 
-0.00202507 9.81064 -0.260604 
-0.0297833 -0.260604 9.84387 
10.0691 0.0296445 -0.0108196 
0.0296445 9.66105 -0.389512 
-0.0108196 -0.389512 9.84597 
9.92725 -0.0414764 -0.018789 
-0.0414764 9.82702 -0.302219 
-0.018789 -0.302219 9.82185 
9.954 -0.00915985 0.0224584 
-0.00915985 9.96221 0.0381138 
0.0224584 0.0381138 9.99665 
9.98089 -0.0786274 0.0444181 
-0.0786274 9.92976 0.0831815 
0.0444181 0.0831815 10.0022 
9.86713 -0.0474351 0.0442785 
-0.0474351 9.9312 0.0143249 
0.0442785 0.0143249 10.1145 
9.87106 -0.0162131 0.0491192 
-0.0162131 9.98081 0.055333 
0.0491192 0.055333 10.061 
8.50369 0.325143 2.70039 
0.325143 6.51265 -2.17063 
2.70039 -2.17063 0.167417 
2.84903 0.391931 0.93213 
0.391931 1.56555 2.53642 
0.93213 2.53642 10.7692 
13.2898 -1.07947 1.60062 
-1.07947 9.20243 -1.29839 
1.60062 -1.29839 -7.30844 
5.00402 2.94978 10.1052 
2.94978 6.90985 -2.16379 
10.1052 -2.16379 3.26989 
9.9827 -0.0148706 -0.00474656 
-0.0148706 9.98083 0.0146611 
-0.00474656 0.0146611 10.0073 
9.98857 0.00125408 0.0189346 
0.00125408 9.98403 -0.0247333 
0.0189346 -0.0247333 9.99823 
9.9679 -0.0105013 -0.000635872 
-0.0105013 9.97834 0.0117363 
-0.000635872 0.0117363 10.0246 
9.97488 -0.00733212 -0.0145725 
-0.00733212 9.96488 -0.00358479 
-0.0145725 -0.00358479 10.0311 
10.2981 -0.892989 -0.44417 
-0.892989 9.71793 -0.262125 
-0.44417 -0.262125 11.227 
9.7559 0.0223106 0.251932 
0.0223106 9.88439 0.358778 
0.251932 0.358778 11.6027 
10.4386 -0.051464 0.369938 
-0.051464 10.6436 0.231033 
0.369938 0.231033 10.1609 
10.2923 -0.161065 0.130688 
-0.161065 10.163 0.214482 
0.130688 0.214482 10.7878 
9.73834 0.0385679 0.304694 
0.0385679 9.85722 -0.122506 
0.304694 -0.122506 9.97325 
9.44109 -0.0351869 0.420727 
-0.0351869 10.1387 0.0306685 
0.420727 0.0306685 9.98903 
9.66935 -0.0358318 0.624533 
-0.0358318 10.117 -0.0147695 
0.624533 -0.0147695 9.78247 
9.44726 -0.055611 0.396036 
-0.055611 10.1001 0.200276 
0.396036 0.200276 10.0215 
9.74849 -0.154739 -0.249404 
-0.154739 9.48142 -0.284959 
-0.249404 -0.284959 9.67826 
9.75124 -0.12491 -0.200282 
-0.12491 9.52713 -0.345383 
-0.200282 -0.345383 9.62981 
9.68771 -0.162064 -0.276827 
-0.162064 9.50772 -0.344065 
-0.276827 -0.344065 9.71274 
9.65371 -0.117127 -0.284808 
-0.117127 9.4913 -0.370365 
-0.284808 -0.370365 9.76316 
9.91789 0.0102611 0.118919 
0.0102611 9.92633 -0.215262 
0.118919 -0.215262 9.9681 
9.92882 0.00131116 0.128278 
0.00131116 9.92621 -0.208202 
0.128278 -0.208202 9.95729 
9.92393 0.0168273 0.115688 
0.0168273 9.92091 -0.204182 
0.115688 -0.204182 9.96748 
9.93757 0.0267065 0.131941 
0.0267065 9.93321 -0.196818 
0.131941 -0.196818 9.94154 
9.86495 -0.0355073 0.00559412 
-0.0355073 9.83868 0.00938572 
0.00559412 0.00938572 9.93281 
9.8284 -0.0130928 0.0268704 
-0.0130928 9.8491 0.050286 
0.0268704 0.050286 9.95895 
9.78906 -0.0198075 -0.0203559 
-0.0198075 9.83404 0.0813546 
-0.0203559 0.0813546 10.0133 
9.8553 -0.0167502 0.0898481 
-0.0167502 9.86705 0.00384258 
0.0898481 0.00384258 9.9141 
8.07079 0.535067 -2.05913 
0.535067 11.2972 1.09665 
-2.05913 1.09665 18.597 
11.199 0.697656 -1.62099 
0.697656 6.91166 0.88788 
-1.62099 0.88788 19.8544 
15.8696 -1.50177 0.870477 
-1.50177 10.891 -2.20963 
0.870477 -2.20963 11.2045 
11.5861 2.82499 2.10881 
2.82499 7.99714 -0.0135518 
2.10881 -0.0135518 18.3818 
9.84981 -0.0388478 -0.195857 
-0.0388478 9.81457 -0.228275 
-0.195857 -0.228275 9.90796 
9.84546 -0.0408402 -0.17573 
-0.0408402 9.80575 -0.223023 
-0.17573 -0.223023 9.92112 
9.83079 -0.0395555 -0.194069 
-0.0395555 9.79153 -0.222921 
-0.194069 -0.222921 9.95001 
9.85873 -0.0544667 -0.104103 
-0.0544667 9.82085 -0.198272 
-0.104103 -0.198272 9.89275 
9.89245 0.0287085 0.220996 
0.0287085 9.90506 -0.0563635 
0.220996 -0.0563635 9.91843 
9.87065 0.0196906 0.292338 
0.0196906 9.94838 -0.0361934 
0.292338 -0.0361934 9.8969 
9.81668 -0.0114648 0.231836 
-0.0114648 9.97171 -0.0631819 
0.231836 -0.0631819 9.92755 
9.84787 0.013868 0.242777 
0.013868 9.92466 -0.0961274 
0.242777 -0.0961274 9.94341 
9.81713 0.208754 -0.306209 
0.208754 9.68898 0.513431 
-0.306209 0.513431 10.3271 
9.87151 0.206473 -0.128346 
0.206473 9.42232 0.619929 
-0.128346 0.619929 10.5393 
9.93676 0.266716 0.0223505 
0.266716 9.60956 0.535145 
0.0223505 0.535145 10.2869 
9.66247 0.107365 0.0643702 
0.107365 9.38722 0.736528 
0.0643702 0.736528 10.7835 
9.98396 0.329533 0.2109 
0.329533 10.5887 0.114681 
0.2109 0.114681 10.9215 
10.9165 -0.253596 -0.074109 
-0.253596 10.1927 0.0525844 
-0.074109 0.0525844 10.3849 
10.1877 0.0453283 -0.416088 
0.0453283 10.6704 -0.0305332 
-0.416088 -0.0305332 10.636 
10.6462 -0.18049 -0.34089 
-0.18049 9.93869 -0.346124 
-0.34089 -0.346124 10.9092 
10.9402 -0.0205848 -0.0863307 
-0.0205848 11.0118 0.0396264 
-0.0863307 0.0396264 11.044 
11.0464 -0.0139517 0.0135944 
-0.0139517 11.0508 0.12193 
0.0135944 0.12193 10.8988 
10.6764 -0.177296 -0.153981 
-0.177296 10.768 -0.133782 
-0.153981 -0.133782 11.5516 
11.0352 0.0837018 -0.17632 
0.0837018 11.1014 0.0341263 
-0.17632 0.0341263 10.8594 
9.64787 0.392722 0.194176 
0.392722 9.75652 -0.379783 
0.194176 -0.379783 10.0759 
9.62925 0.28172 0.145479 
0.28172 9.12541 -0.790039 
0.145479 -0.790039 10.7256 
9.73257 0.105877 -0.0568185 
0.105877 9.46352 -0.188732 
-0.0568185 -0.188732 10.2842 
9.74971 0.242274 0.261193 
0.242274 9.99666 -0.459913 
0.261193 -0.459913 9.73392 
9.76169 -0.707705 -0.443596 
-0.707705 13.1232 0.420787 
-0.443596 0.420787 14.0898 
9.43156 0.539553 0.00439516 
0.539553 12.3491 0.0821338 
0.00439516 0.0821338 15.1941 
5.80396 -0.220965 1.15057 
-0.220965 10.109 1.21566 
1.15057 1.21566 21.0618 
10.1525 -0.213834 1.31933 
-0.213834 13.5423 -0.150185 
1.31933 -0.150185 13.2799 
9.91771 -0.0248412 0.0727111 
-0.0248412 9.72974 0.278152 
0.0727111 0.278152 9.81232 
9.89973 -0.0236614 0.0942434 
-0.0236614 9.77968 0.29428 
0.0942434 0.29428 9.78037 
9.96565 -0.0479234 0.064218 
-0.0479234 9.71879 0.302704 
0.064218 0.302704 9.77534 
9.88513 -0.0439445 0.145508 
-0.0439445 9.81927 0.275738 
0.145508 0.275738 9.75538 
13.7274 0.96554 -2.16273 
0.96554 15.4681 0.370122 
-2.16273 0.370122 8.49406 
10.1157 0.261495 -0.231973 
0.261495 12.817 0.0658587 
-0.231973 0.0658587 14.7569 
2.68753 0.00339334 -0.998592 
0.00339334 11.5339 -0.326319 
-0.998592 -0.326319 23.4681 
11.3125 -0.342557 5.67566 
-0.342557 12.6702 3.10332 
5.67566 3.10332 13.707 
8.90114 1.76338 2.5032 
1.76338 6.74776 1.0575 
2.5032 1.0575 2.74565 
9.89005 0.816322 2.15698 
0.816322 6.45246 0.495556 
2.15698 0.495556 2.05203 
9.55835 -0.214449 2.37734 
-0.214449 4.7363 1.41657 
2.37734 1.41657 4.0999 
9.12519 1.36983 2.49444 
1.36983 6.71159 0.884219 
2.49444 0.884219 2.55776 
9.91649 0.0185693 0.186897 
0.0185693 9.91502 -0.164461 
0.186897 -0.164461 9.96264 
9.92475 0.0134411 0.189605 
0.0134411 9.91706 -0.16847 
0.189605 -0.16847 9.95234 
9.91215 0.0173774 0.186941 
0.0173774 9.91494 -0.153181 
0.186941 -0.153181 9.96707 
9.92272 0.0161108 0.186762 
0.0161108 9.91932 -0.158804 
0.186762 -0.158804 9.95211 
9.85358 -0.0521637 0.2099 
-0.0521637 9.88317 0.219852 
0.2099 0.219852 9.87148 
9.85792 0.00884308 0.11706 
0.00884308 9.8971 0.178516 
0.11706 0.178516 9.85321 
9.90313 -0.0670382 0.217836 
-0.0670382 9.83066 0.281489 
0.217836 0.281489 9.87445 
9.85722 -0.0472032 0.205882 
-0.0472032 9.88616 0.220341 
0.205882 0.220341 9.86487 
10.042 0.223429 -0.398561 
0.223429 9.21428 0.957789 
-0.398561 0.957789 9.04398 
9.56861 0.0195225 -0.264174 
0.0195225 9.66477 0.292757 
-0.264174 0.292757 9.06686 
9.84246 0.168055 -0.0624493 
0.168055 9.43732 0.664732 
-0.0624493 0.664732 9.02045 
10.0986 -0.260276 -0.0558881 
-0.260276 9.41319 0.213377 
-0.0558881 0.213377 8.78845 
9.85426 0.00280337 0.0221591 
0.00280337 9.84274 -0.230185 
0.0221591 -0.230185 9.86714 
9.88484 0.00325604 0.0125388 
0.00325604 9.80834 -0.225437 
0.0125388 -0.225437 9.87097 
9.86658 0.00410034 0.0170962 
0.00410034 9.80692 -0.238207 
0.0170962 -0.238207 9.89064 
9.85319 0.0208775 0.0223213 
0.0208775 9.83376 -0.225142 
0.0223213 -0.225142 9.87719 
9.82843 -0.0858674 0.0778573 
-0.0858674 9.71659 0.141296 
0.0778573 0.141296 9.91528 
9.75267 -0.0167931 0.0725689 
-0.0167931 9.89059 0.145754 
0.0725689 0.145754 9.81705 
9.81863 -0.0468436 0.0736891 
-0.0468436 9.73908 0.140583 
0.0736891 0.140583 9.90259 
9.84139 -0.00582593 0.081372 
-0.00582593 9.74634 0.205704 
0.081372 0.205704 9.87257 
10.0558 0.0449851 -0.0748981 
0.0449851 9.99341 0.0960889 
-0.0748981 0.0960889 10.2951 
10.0558 0.138584 -0.00491889 
0.138584 10.0625 -0.00883383 
-0.00491889 -0.00883383 10.226 
10.087 0.111822 -0.0295803 
0.111822 9.89534 0.0165252 
-0.0295803 0.0165252 10.362 
10.0584 0.0665441 -0.0133267 
0.0665441 9.9524 0.0409775 
-0.0133267 0.0409775 10.3335 
9.70411 0.0781799 0.204089 
0.0781799 9.81027 -0.180146 
0.204089 -0.180146 10.0572 
9.7775 0.0441807 0.241549 
0.0441807 9.80408 -0.192932 
0.241549 -0.192932 9.98996 
9.76856 0.0861342 0.199489 
0.0861342 9.8659 -0.116429 
0.199489 -0.116429 9.93708 
9.79744 0.0720133 0.221462 
0.0720133 9.79877 -0.229557 
0.221462 -0.229557 9.97533 
6.93718 0.837142 0.835337 
0.837142 6.57865 1.05839 
0.835337 1.05839 -1.34658 
5.26449 -0.375958 0.00393907 
-0.375958 2.77324 1.37907 
0.00393907 1.37907 4.13153 
4.65967 -0.34122 0.0935278 
-0.34122 4.44959 1.78957 
0.0935278 1.78957 3.05999 
3.85982 -0.911575 0.419885 
-0.911575 4.17188 2.95344 
0.419885 2.95344 4.13755 
9.85816 -0.0343942 -0.240162 
-0.0343942 9.99187 0.000940834 
-0.240162 0.000940834 9.87329 
9.86515 -0.00349832 -0.24591 
-0.00349832 9.92689 0.0521658 
-0.24591 0.0521658 9.93127 
9.88456 0.0165519 -0.228827 
0.0165519 9.91356 -0.00142845 
-0.228827 -0.00142845 9.92519 
9.87887 -0.000380358 -0.284098 
-0.000380358 9.95312 -0.0133381 
-0.284098 -0.0133381 9.89132 
9.5482 -0.162275 -0.315839 
-0.162275 9.72612 -0.24974 
-0.315839 -0.24974 9.77707 
9.53832 -0.109694 -0.301675 
-0.109694 9.78607 -0.190492 
-0.301675 -0.190492 9.727 
9.53038 -0.135112 -0.301993 
-0.135112 9.77739 -0.238916 
-0.301993 -0.238916 9.74362 
9.52001 -0.118929 -0.321524 
-0.118929 9.71202 -0.262109 
-0.321524 -0.262109 9.81937 
7.44323 -0.283435 0.282907 
-0.283435 9.44891 -0.659503 
0.282907 -0.659503 7.9479 
7.88794 0.543418 0.770668 
0.543418 9.27873 -1.2257 
0.770668 -1.2257 7.67337 
7.84592 0.809972 0.0393151 
0.809972 10.6619 -1.069 
0.0393151 -1.069 6.33222 
7.91071 0.51481 -0.0206792 
0.51481 10.2113 -1.31459 
-0.0206792 -1.31459 6.718 
10.0947 0.0485622 -0.00309739 
0.0485622 9.91747 -0.00952505 
-0.00309739 -0.00952505 10.151 
10.0071 0.0229113 -0.00106219 
0.0229113 10.0967 -0.0201335 
-0.00106219 -0.0201335 10.0594 
10.123 0.0881256 -0.237116 
0.0881256 9.94932 -0.013173 
-0.237116 -0.013173 10.0908 
9.8505 -0.0305879 -0.00911258 
-0.0305879 10.1265 0.04455 
-0.00911258 0.04455 10.1862 
9.87817 -0.00304 -0.234275 
-0.00304 9.87345 -0.0241195 
-0.234275 -0.0241195 9.89221 
9.80026 -0.0144375 -0.264808 
-0.0144375 9.89828 -0.0309863 
-0.264808 -0.0309863 9.94529 
9.89512 0.00677245 -0.237487 
0.00677245 9.87689 -0.0254368 
-0.237487 -0.0254368 9.87182 
9.82632 0.0156889 -0.194416 
0.0156889 9.88414 0.00746238 
-0.194416 0.00746238 9.93337 
9.83392 0.0152532 0.697868 
0.0152532 9.61694 0.165327 
0.697868 0.165327 9.37191 
9.64766 0.0236704 0.426172 
0.0236704 9.45057 0.520581 
0.426172 0.520581 9.72455 
10.0824 -0.179359 0.287695 
-0.179359 9.55637 0.294124 
0.287695 0.294124 9.18404 
10.0733 -0.0687442 0.25609 
-0.0687442 9.3934 0.287695 
0.25609 0.287695 9.35609 
9.89781 0.0525865 -0.0475837 
0.0525865 9.98354 -0.052437 
-0.0475837 -0.052437 10.1837 
10.049 0.0364295 0.0192554 
0.0364295 9.84798 -0.0429929 
0.0192554 -0.0429929 10.168 
10.0955 0.0348951 -0.026763 
0.0348951 9.88088 -0.0449651 
-0.026763 -0.0449651 10.0886 
9.92695 0.0155987 0.00625703 
0.0155987 10.0402 0.0855488 
0.00625703 0.0855488 10.0978 
9.97766 -0.150437 0.109228 
-0.150437 10.1999 0.0182606 
0.109228 0.0182606 10.6116 
10.032 -0.101149 0.0802423 
-0.101149 10.1865 0.018466 
0.0802423 0.018466 10.5706 
10.0125 -0.22559 0.0830212 
-0.22559 10.2065 0.0622144 
0.0830212 0.0622144 10.5702 
9.9308 -0.136364 0.121826 
-0.136364 10.255 0.00348241 
0.121826 0.00348241 10.6033 
11.4193 0.260912 -0.27144 
0.260912 7.53426 0.793892 
-0.27144 0.793892 5.54651 
9.37462 1.33546 -0.526303 
1.33546 7.74439 0.756386 
-0.526303 0.756386 7.38105 
9.6921 0.323632 -0.933203 
0.323632 8.38261 0.467695 
-0.933203 0.467695 6.42536 
10.7668 0.167466 -0.495909 
0.167466 7.60601 0.694213 
-0.495909 0.694213 6.12721 
9.77691 -0.0056593 0.26283 
-0.0056593 9.90076 -0.0720006 
0.26283 -0.0720006 9.84536 
9.76 0.0157398 0.27099 
0.0157398 9.91275 -0.062045 
0.27099 -0.062045 9.85027 
9.74739 -0.0143037 0.290322 
-0.0143037 9.97737 -0.0752595 
0.290322 -0.0752595 9.79826 
9.7739 0.0621977 0.324784 
0.0621977 9.93295 -0.143949 
0.324784 -0.143949 9.81618 
9.37281 0.0514697 -0.428572 
0.0514697 9.61243 0.288972 
-0.428572 0.288972 9.5538 
9.60023 0.101665 -0.282487 
0.101665 9.92982 0.121566 
-0.282487 0.121566 9.009 
9.41714 -0.0287847 -0.413346 
-0.0287847 9.97225 0.424349 
-0.413346 0.424349 9.14965 
9.55157 -0.037692 -0.428499 
-0.037692 9.6328 0.252994 
-0.428499 0.252994 9.35467 
9.83825 -0.0323828 0.116222 
-0.0323828 9.77307 0.13004 
0.116222 0.13004 9.91578 
9.77949 -0.0381309 0.164458 
-0.0381309 9.83949 0.102119 
0.164458 0.102119 9.90812 
9.78916 -0.0278139 0.133392 
-0.0278139 9.82801 0.111215 
0.133392 0.111215 9.90993 
9.78644 -0.0168251 0.106116 
-0.0168251 9.80162 0.130908 
0.106116 0.130908 9.93904 
9.94349 0.000276203 0.0628545 
0.000276203 9.7627 0.298986 
0.0628545 0.298986 9.84454 
9.9479 0.0117791 0.0308434 
0.0117791 9.77102 0.294643 
0.0308434 0.294643 9.8318 
9.93774 0.00403915 0.0360274 
0.00403915 9.76814 0.273733 
0.0360274 0.273733 9.84484 
9.96694 0.0187594 0.0182753 
0.0187594 9.75079 0.286534 
0.0182753 0.286534 9.83299 
9.67947 -0.0430619 -0.190274 
-0.0430619 9.73395 -0.328973 
-0.190274 -0.328973 9.72895 
9.91721 -0.0535912 -0.214273 
-0.0535912 9.62862 -0.350504 
-0.214273 -0.350504 9.59653 
9.8522 -0.0376884 -0.154148 
-0.0376884 9.64772 -0.330817 
-0.154148 -0.330817 9.64244 
9.89435 -0.00688743 -0.080833 
-0.00688743 9.62991 -0.314867 
-0.080833 -0.314867 9.6181 
9.95176 0.0525846 0.934486 
0.0525846 9.99311 0.853726 
0.934486 0.853726 8.45181 
10.089 0.151324 -0.173678 
0.151324 8.79199 -0.238962 
-0.173678 -0.238962 9.51567 
12.5917 0.356352 -0.132971 
0.356352 8.65877 2.02766 
-0.132971 2.02766 7.14618 
10.1401 -0.551253 0.0942756 
-0.551253 9.8627 0.161429 
0.0942756 0.161429 8.39388 
10.1481 0.135575 -0.305728 
0.135575 9.6915 0.478207 
-0.305728 0.478207 9.00434 
9.80931 -0.00992517 -0.288503 
-0.00992517 9.58981 0.278709 
-0.288503 0.278709 9.44484 
10.2322 0.222947 -0.667454 
0.222947 9.24884 0.912275 
-0.667454 0.912275 9.36291 
9.52263 -0.0383204 -0.237394 
-0.0383204 9.9492 0.501858 
-0.237394 0.501858 9.37213 
9.83758 0.0205977 0.184835 
0.0205977 9.85694 -0.110812 
0.184835 -0.110812 9.94124 
9.85206 0.0300315 0.195082 
0.0300315 9.86785 -0.120038 
0.195082 -0.120038 9.91584 
9.855 0.0215024 0.18764 
0.0215024 9.87266 -0.115372 
0.18764 -0.115372 9.90808 
9.84893 0.0167431 0.193719 
0.0167431 9.85984 -0.119736 
0.193719 -0.119736 9.92698 
9.81265 -0.0392288 0.315156 
-0.0392288 9.92046 0.0355198 
0.315156 0.0355198 9.68897 
9.77724 -0.0177883 0.325142 
-0.0177883 9.9519 0.189626 
0.325142 0.189626 9.69294 
9.77199 -0.0438657 0.303228 
-0.0438657 9.88395 0.15677 
0.303228 0.15677 9.76614 
9.77568 -0.070116 0.274797 
-0.070116 9.90777 0.162598 
0.274797 0.162598 9.73863 
9.73956 0.0701371 -0.230947 
0.0701371 9.82062 0.181584 
-0.230947 0.181584 9.95352 
9.7318 0.0853273 -0.221605 
0.0853273 9.8126 0.190769 
-0.221605 0.190769 9.96931 
9.77551 0.0361705 -0.192149 
0.0361705 9.81044 0.170616 
-0.192149 0.170616 9.92774 
9.78001 0.108525 -0.235765 
0.108525 9.78421 0.236492 
-0.235765 0.236492 9.94947 
10.4861 -0.153246 -0.0782339 
-0.153246 9.74817 0.509961 
-0.0782339 0.509961 11.2523 
11.1915 -0.0511083 0.0320433 
-0.0511083 9.35595 0.43042 
0.0320433 0.43042 10.9392 
10.7761 -0.102463 0.108027 
-0.102463 8.88148 0.194904 
0.108027 0.194904 11.829 
9.52265 0.654089 0.132322 
0.654089 10.7321 -0.75573 
0.132322 -0.75573 11.2319 
10.0299 0.0258607 -0.020951 
0.0258607 10.0405 0.112207 
-0.020951 0.112207 10.015 
10.016 0.12642 0.137458 
0.12642 9.94569 -0.129342 
0.137458 -0.129342 10.1237 
10.0016 0.0667481 -0.00876471 
0.0667481 9.94336 0.00333578 
-0.00876471 0.00333578 10.1405 
9.93084 0.091103 -0.0638022 
0.091103 9.98249 0.0849454 
-0.0638022 0.0849454 10.1721 
10.3059 0.116776 -0.142921 
0.116776 10.4626 -0.0290527 
-0.142921 -0.0290527 10.5643 
10.3312 -0.115943 -0.0486261 
-0.115943 10.4758 -0.0727332 
-0.0486261 -0.0727332 10.5258 
10.227 0.149731 -0.183511 
0.149731 10.573 -0.0612951 
-0.183511 -0.0612951 10.5328 
10.3467 0.081938 -0.241005 
0.081938 10.5141 -0.0548466 
-0.241005 -0.0548466 10.472 
9.87637 -0.00786959 -0.172905 
-0.00786959 9.8999 -0.13229 
-0.172905 -0.13229 9.93866 
9.89825 -0.0301823 -0.195953 
-0.0301823 9.89764 -0.124611 
-0.195953 -0.124611 9.91905 
9.88371 -0.00374293 -0.182377 
-0.00374293 9.90668 -0.120914 
-0.182377 -0.120914 9.92454 
9.90061 -0.00759306 -0.183726 
-0.00759306 9.87716 -0.135647 
-0.183726 -0.135647 9.93716 
9.75319 0.0735528 -0.104901 
0.0735528 9.73367 0.139397 
-0.104901 0.139397 9.96115 
9.81056 0.100635 -0.112816 
0.100635 9.76484 0.175656 
-0.112816 0.175656 9.8726 
9.79577 0.0468837 -0.0859154 
0.0468837 9.74056 0.154557 
-0.0859154 0.154557 9.91167 
9.77625 0.0721936 -0.102728 
0.0721936 9.76237 0.149721 
-0.102728 0.149721 9.90939 
9.87138 0.0070674 -0.00252086 
0.0070674 9.7642 -0.248519 
-0.00252086 -0.248519 9.95148 
9.94513 0.00755106 0.0446932 
0.00755106 9.72871 -0.267136 
0.0446932 -0.267136 9.91321 
10.0034 -0.000993187 0.0190749 
-0.000993187 9.71502 -0.27848 
0.0190749 -0.27848 9.86864 
9.99528 0.0363972 0.120128 
0.0363972 9.67143 -0.321148 
0.120128 -0.321148 9.92035 
9.80798 -0.0365095 0.283643 
-0.0365095 9.92545 0.177489 
0.283643 0.177489 9.86236 
9.83719 -0.0803367 0.267224 
-0.0803367 9.89877 0.210106 
0.267224 0.210106 9.85984 
9.80662 -0.015534 0.265925 
-0.015534 9.91472 0.165963 
0.265925 0.165963 9.87446 
9.78564 -0.0245984 0.301617 
-0.0245984 9.96174 0.175052 
0.301617 0.175052 9.84842 
9.61586 0.0944641 -0.338651 
0.0944641 9.38859 -0.451402 
-0.338651 -0.451402 8.79898 
9.83839 -0.120488 -0.043259 
-0.120488 9.10643 -0.644706 
-0.043259 -0.644706 8.85862 
9.83114 -0.104492 -0.374818 
-0.104492 9.38708 -0.513719 
-0.374818 -0.513719 8.58521 
9.73507 -0.119077 -0.460761 
-0.119077 9.50511 -0.591253 
-0.460761 -0.591253 8.56326 
9.48376 0.147136 -0.225967 
0.147136 9.73022 0.171374 
-0.225967 0.171374 10.0084 
9.60948 0.136874 -0.465529 
0.136874 9.55545 0.279144 
-0.465529 0.279144 10.0574 
9.6224 0.140884 -0.292361 
0.140884 9.58617 0.181103 
-0.292361 0.181103 10.0138 
9.74853 0.235803 -0.293669 
0.235803 9.68723 0.0941983 
-0.293669 0.0941983 9.7866 
9.75016 0.092707 0.334516 
0.092707 9.92943 -0.197666 
0.334516 -0.197666 9.88247 
9.81555 0.0447142 0.300315 
0.0447142 9.90832 -0.199076 
0.300315 -0.199076 9.83819 
9.84741 0.0394119 0.289326 
0.0394119 9.82741 -0.177735 
0.289326 -0.177735 9.88724 
9.8393 0.038718 0.172227 
0.038718 9.80811 -0.146611 
0.172227 -0.146611 9.91464 
9.74269 0.0788675 0.516432 
0.0788675 9.98508 0.0367267 
0.516432 0.0367267 9.88933 
9.49864 0.024331 0.339676 
0.024331 10.1193 -0.0324371 
0.339676 -0.0324371 9.99913 
9.66346 0.0598189 0.319837 
0.0598189 9.99703 -0.0583023 
0.319837 -0.0583023 9.95661 
9.56619 0.0176485 0.331296 
0.0176485 10.1205 -0.211917 
0.331296 -0.211917 9.93045 
9.79911 0.0558081 -0.00948466 
0.0558081 9.70109 -0.0184106 
-0.00948466 -0.0184106 10.2292 
9.82183 0.0407819 -0.242526 
0.0407819 9.8211 0.170457 
-0.242526 0.170457 10.0864 
9.93416 0.154411 -0.0871197 
0.154411 9.65091 -0.0964184 
-0.0871197 -0.0964184 10.1443 
9.77029 0.036171 0.129533 
0.036171 9.57157 0.131142 
0.129533 0.131142 10.3875 
14.0132 -2.51296 3.77275 
-2.51296 12.8001 -0.786728 
3.77275 -0.786728 8.30776 
8.23462 -0.796634 -0.92539 
-0.796634 11.6879 0.920669 
-0.92539 0.920669 15.1985 
10.015 0.700651 -1.74898 
0.700651 10.5723 1.17548 
-1.74898 1.17548 14.5337 
9.85329 -0.0132594 -0.131194 
-0.0132594 11.0278 -1.72634 
-0.131194 -1.72634 14.24 
8.90103 0.431456 -2.42171 
0.431456 10.2578 0.313776 
-2.42171 0.313776 10.6215 
10.5291 0.918234 -1.63067 
0.918234 9.72003 0.0119024 
-1.63067 0.0119024 9.53117 
9.78227 0.563399 -1.73465 
0.563399 10.4441 0.720623 
-1.73465 0.720623 9.55385 
9.35075 1.45816 -0.0720572 
1.45816 9.31476 0.230189 
-0.0720572 0.230189 11.1147 
9.80289 0.0670329 -0.204568 
0.0670329 9.75468 0.248421 
-0.204568 0.248421 9.96712 
9.80037 0.0510136 -0.143224 
0.0510136 9.77489 0.174278 
-0.143224 0.174278 9.94942 
9.80551 0.0519587 -0.158652 
0.0519587 9.7561 0.242446 
-0.158652 0.242446 9.96307 
9.84123 0.0334908 -0.145377 
0.0334908 9.77939 0.19014 
-0.145377 0.19014 9.90406 
10.0005 -0.537923 4.37163 
-0.537923 6.65645 -0.424392 
4.37163 -0.424392 6.40499 
9.21742 0.849518 4.92294 
0.849518 8.55472 -0.465021 
4.92294 -0.465021 5.28983 
8.51556 1.198 2.89548 
1.198 7.73606 -1.29834 
2.89548 -1.29834 6.81036 
9.46539 -0.337837 2.7558 
-0.337837 7.54327 -0.686057 
2.7558 -0.686057 6.05332 
11.4396 0.942421 1.31297 
0.942421 7.85937 0.963291 
1.31297 0.963291 15.7334 
10.5082 -0.350713 1.20441 
-0.350713 9.91553 1.57014 
1.20441 1.57014 14.6086 
12.7857 2.70301 -0.692389 
2.70301 14.1308 -4.11836 
-0.692389 -4.11836 8.11581 
10.8437 0.130394 -1.78872 
0.130394 9.8734 -0.00502484 
-1.78872 -0.00502484 14.3152 
10.1354 -0.145708 -0.790055 
-0.145708 9.60353 0.456902 
-0.790055 0.456902 10.6176 
9.81162 -0.00524384 -0.846107 
-0.00524384 9.66854 0.315028 
-0.846107 0.315028 10.8763 
9.92294 0.0102379 -0.633623 
0.0102379 9.72015 0.373169 
-0.633623 0.373169 10.7134 
9.4846 0.0169163 -0.961417 
0.0169163 9.93916 0.411187 
-0.961417 0.411187 10.9327 
12.3322 -0.115558 0.21581 
-0.115558 12.3095 0.0292029 
0.21581 0.0292029 11.2388 
11.6776 -0.430944 -0.112466 
-0.430944 11.5949 -0.216858 
-0.112466 -0.216858 12.6079 
11.721 -0.196383 -0.399695 
-0.196383 11.2665 -0.0433949 
-0.399695 -0.0433949 12.8929 
12.2972 0.53398 -0.415569 
0.53398 12.1777 -0.884738 
-0.415569 -0.884738 11.4056 
9.94912 -0.00922981 -0.0760861 
-0.00922981 9.94264 -0.220906 
-0.0760861 -0.220906 9.96308 
9.94321 0.0291363 -0.09893 
0.0291363 9.90615 -0.249223 
-0.09893 -0.249223 10.0055 
9.96848 0.012731 -0.0960456 
0.012731 9.90908 -0.256376 
-0.0960456 -0.256376 9.97727 
9.9738 -0.0151453 -0.0822952 
-0.0151453 9.93969 -0.216071 
-0.0822952 -0.216071 9.94136 
9.81587 0.0124502 -0.197774 
0.0124502 9.85869 0.178959 
-0.197774 0.178959 9.63885 
9.85154 0.0266883 -0.280701 
0.0266883 9.89584 0.211205 
-0.280701 0.211205 9.56603 
9.84046 -0.0194468 -0.170543 
-0.0194468 9.86929 0.144293 
-0.170543 0.144293 9.60366 
9.72462 0.0778141 -0.253939 
0.0778141 9.77347 0.105829 
-0.253939 0.105829 9.81533 
9.87248 -0.0147288 0.226159 
-0.0147288 9.6919 0.272485 
0.226159 0.272485 9.65258 
9.82875 0.0106569 0.141783 
0.0106569 9.76264 0.323127 
0.141783 0.323127 9.62556 
9.81898 0.0380239 0.281537 
0.0380239 9.63715 0.40693 
0.281537 0.40693 9.76082 
9.86043 -0.0327878 0.189613 
-0.0327878 9.67434 0.230397 
0.189613 0.230397 9.68219 
9.79696 -0.01416 0.142216 
-0.01416 9.78073 0.13169 
0.142216 0.13169 9.94016 
9.78121 -0.0482925 0.100434 
-0.0482925 9.8153 0.126312 
0.100434 0.126312 9.92134 
9.83562 -0.00150524 0.0470131 
-0.00150524 9.8133 0.145145 
0.0470131 0.145145 9.86892 
9.80839 -0.0333789 0.081997 
-0.0333789 9.8027 0.13814 
0.081997 0.13814 9.90676 
9.88426 0.0163151 0.118159 
0.0163151 9.87837 -0.191862 
0.118159 -0.191862 9.93138 
9.88682 0.0101582 0.117058 
0.0101582 9.86706 -0.193327 
0.117058 -0.193327 9.94012 
9.88568 0.0174342 0.118247 
0.0174342 9.87891 -0.181443 
0.118247 -0.181443 9.92941 
9.88483 0.0197636 0.115643 
0.0197636 9.87954 -0.190542 
0.115643 -0.190542 9.92964 
9.98202 -0.0120506 0.0844036 
-0.0120506 9.92511 0.245466 
0.0844036 0.245466 9.95606 
10.016 0.0575048 0.0739496 
0.0575048 9.94456 0.300984 
0.0739496 0.300984 9.90267 
9.96893 0.0470818 0.0546825 
0.0470818 9.87179 0.181145 
0.0546825 0.181145 10.0225 
9.97889 -0.0291574 0.0973113 
-0.0291574 9.92465 0.244213 
0.0973113 0.244213 9.95964 
9.99439 -0.00886099 0.013421 
-0.00886099 10.1023 -0.0186785 
0.013421 -0.0186785 10.4052 
10.0646 0.00863878 -0.0177501 
0.00863878 10.1494 0.0567985 
-0.0177501 0.0567985 10.2879 
10.0377 -0.0592556 0.0513838 
-0.0592556 10.1414 0.0599478 
0.0513838 0.0599478 10.3229 
10.0435 -0.0500954 0.023766 
-0.0500954 10.1192 0.0180606 
0.023766 0.0180606 10.3392 
9.98667 0.00578291 -0.192742 
0.00578291 10.0283 0.0526677 
-0.192742 0.0526677 9.94366 
10.0039 0.0143435 -0.200278 
0.0143435 10.0194 0.0524864 
-0.200278 0.0524864 9.93531 
9.94181 0.0305743 -0.22833 
0.0305743 9.91839 0.0802056 
-0.22833 0.0802056 10.0984 
10.0113 0.000938599 -0.178491 
0.000938599 10.0251 0.0835539 
-0.178491 0.0835539 9.92223 
9.9641 -0.0162589 -0.181747 
-0.0162589 9.99242 0.154246 
-0.181747 0.154246 10.0163 
9.96945 -0.000531882 -0.173411 
-0.000531882 10.0033 0.138786 
-0.173411 0.138786 10.0002 
10.0038 0.00273913 -0.159279 
0.00273913 10.0174 0.159997 
-0.159279 0.159997 9.95167 
10.0161 0.0082761 -0.176248 
0.0082761 10.0066 0.154066 
-0.176248 0.154066 9.95023 
9.79531 0.17514 0.506174 
0.17514 9.44438 0.347393 
0.506174 0.347393 9.18311 
9.88143 0.0267814 0.123794 
0.0267814 9.54961 0.365222 
0.123794 0.365222 8.99176 
10.1153 -0.110389 0.0296958 
-0.110389 9.43223 0.386303 
0.0296958 0.386303 8.87527 
9.86155 0.105778 0.0578738 
0.105778 9.48669 0.335543 
0.0578738 0.335543 9.07455 
9.87903 0.0206308 0.212529 
0.0206308 9.94043 -0.118109 
0.212529 -0.118109 9.911 
9.89871 0.00933508 0.232284 
0.00933508 9.94393 -0.122838 
0.232284 -0.122838 9.88783 
9.91226 -0.00180491 0.225568 
-0.00180491 9.92816 -0.113655 
0.225568 -0.113655 9.89004 
9.90008 0.018792 0.225498 
0.018792 9.94559 -0.135512 
0.225498 -0.135512 9.8848 
10.5438 0.246379 0.066586 
0.246379 10.6719 0.239527 
0.066586 0.239527 9.93929 
10.854 0.147423 0.144057 
0.147423 10.3003 0.32136 
0.144057 0.32136 10.0007 
9.5447 -0.246486 -0.228666 
-0.246486 9.90541 -0.357677 
-0.228666 -0.357677 11.7049 
10.5118 0.476252 -0.643983 
0.476252 10.3918 0.469692 
-0.643983 0.469692 10.2513 
10.1486 0.0409717 -0.0563697 
0.0409717 10.0935 0.0192452 
-0.0563697 0.0192452 10.1774 
10.2495 -0.0317941 -0.0508402 
-0.0317941 10.193 -0.0484064 
-0.0508402 -0.0484064 9.97711 
10.0813 0.0169621 0.0554807 
0.0169621 9.96084 0.0351077 
0.0554807 0.0351077 10.3774 
10.1031 0.0458812 -0.13304 
0.0458812 10.1112 0.0573061 
-0.13304 0.0573061 10.2053 
9.9904 -0.0545948 0.120333 
-0.0545948 10.072 0.0225564 
0.120333 0.0225564 10.0106 
10.1264 -0.149892 -0.192335 
-0.149892 9.76334 -0.0303774 
-0.192335 -0.0303774 10.1833 
9.87368 -0.140687 0.071423 
-0.140687 10.0426 0.0301065 
0.071423 0.0301065 10.1567 
9.98704 -0.11421 0.0563024 
-0.11421 9.8466 0.0125943 
0.0563024 0.0125943 10.2394 
9.85146 0.0958705 0.0336897 
0.0958705 9.70557 -0.0660638 
0.0336897 -0.0660638 10.2418 
9.7696 0.11316 0.0864409 
0.11316 9.82376 -0.0583092 
0.0864409 -0.0583092 10.2055 
9.79488 0.103893 0.105284 
0.103893 9.84003 -0.100463 
0.105284 -0.100463 10.1639 
9.81344 0.0077415 0.128762 
0.0077415 9.85209 -0.0792334 
0.128762 -0.0792334 10.1333 
10.9663 -0.644701 -0.810641 
-0.644701 11.0872 0.760335 
-0.810641 0.760335 6.70734 
9.48154 -0.667458 -0.0153036 
-0.667458 8.95222 0.231321 
-0.0153036 0.231321 10.327 
10.2426 0.285494 0.701883 
0.285494 10.3951 0.163273 
0.701883 0.163273 8.12309 
10.809 0.05922 0.860598 
0.05922 9.21465 0.45924 
0.860598 0.45924 8.73709 
10.2335 -0.125885 -0.0988711 
-0.125885 9.92865 -0.0810462 
-0.0988711 -0.0810462 10.5402 
10.3151 -0.195134 -0.127395 
-0.195134 9.7288 -0.247445 
-0.127395 -0.247445 10.6585 
10.2453 -0.26 -0.115888 
-0.26 9.69547 -0.197335 
-0.115888 -0.197335 10.7616 
10.1553 -0.200663 -0.0848286 
-0.200663 9.75681 -0.405348 
-0.0848286 -0.405348 10.7903 
9.8824 0.00100343 -0.00543681 
0.00100343 9.8758 0.260731 
-0.00543681 0.260731 9.69589 
9.86926 0.0244727 -0.0300438 
0.0244727 9.88056 0.251514 
-0.0300438 0.251514 9.70427 
9.92379 -0.024914 0.0227032 
-0.024914 9.83073 0.303795 
0.0227032 0.303795 9.69957 
9.8838 -0.00224039 -0.0199783 
-0.00224039 9.85108 0.269311 
-0.0199783 0.269311 9.71921 
9.77065 -0.0579382 0.075926 
-0.0579382 9.48011 -0.306808 
0.075926 -0.306808 9.45662 
10.0191 -0.058837 0.430808 
-0.058837 9.67823 -0.565177 
0.430808 -0.565177 9.01005 
9.79041 -0.0360535 0.333361 
-0.0360535 9.63409 -0.422877 
0.333361 -0.422877 9.2829 
9.68163 0.0398602 0.396959 
0.0398602 9.62737 -0.34635 
0.396959 -0.34635 9.39839 
10.0538 -0.0938155 -0.0754178 
-0.0938155 9.82272 0.00697188 
-0.0754178 0.00697188 10.8292 
9.86858 -0.0503802 -0.223679 
-0.0503802 9.86279 -0.153877 
-0.223679 -0.153877 10.9744 
10.1899 0.31421 -0.0245341 
0.31421 9.91822 -0.144003 
-0.0245341 -0.144003 10.5977 
10.2219 0.0739069 0.423471 
0.0739069 9.64366 -0.310504 
0.423471 -0.310504 10.8402 
9.88487 -0.0425391 0.0621011 
-0.0425391 9.82108 0.216325 
0.0621011 0.216325 9.88908 
9.87342 -0.024613 0.0641863 
-0.024613 9.82915 0.229046 
0.0641863 0.229046 9.89246 
9.84518 0.00120564 0.0686086 
0.00120564 9.8939 0.220347 
0.0686086 0.220347 9.85596 
9.88117 0.0159813 0.0657922 
0.0159813 9.82188 0.209778 
0.0657922 0.209778 9.89198 
9.76305 -0.0482297 0.186566 
-0.0482297 9.79332 0.127945 
0.186566 0.127945 9.917 
9.77679 -0.0607508 0.190496 
-0.0607508 9.79663 0.135812 
0.190496 0.135812 9.89995 
9.78259 -0.024487 0.187091 
-0.024487 9.79301 0.133363 
0.187091 0.133363 9.89777 
9.77167 -0.0465616 0.186207 
-0.0465616 9.79264 0.141981 
0.186207 0.141981 9.90907 
-1.18025 0.503451 -1.11361 
0.503451 4.10274 -0.282915 
-1.11361 -0.282915 7.51137 
5.58142 4.36136 1.63507 
4.36136 8.40951 -0.306802 
1.63507 -0.306802 -3.55706 
3.78101 0.288648 0.844676 
0.288648 5.22506 0.32523 
0.844676 0.32523 1.42779 
2.22461 0.216735 -1.47913 
0.216735 6.41699 3.49148 
-1.47913 3.49148 1.79226 
12.1261 -0.957964 -0.148239 
-0.957964 6.34231 -0.032529 
-0.148239 -0.032529 15.6913 
10.4253 -0.165265 -0.229332 
-0.165265 10.2278 -1.27091 
-0.229332 -1.27091 13.5066 
9.74174 0.148842 -0.22406 
0.148842 11.2213 0.125416 
-0.22406 0.125416 13.1966 
10.7436 0.491484 0.315814 
0.491484 10.0584 -1.4041 
0.315814 -1.4041 13.3578 
9.93423 0.025187 0.125183 
0.025187 9.87231 -0.14306 
0.125183 -0.14306 9.67333 
9.94556 -0.00401783 0.115946 
-0.00401783 9.95092 -0.183946 
0.115946 -0.183946 9.58339 
9.91793 0.0597754 0.156971 
0.0597754 9.88057 -0.154688 
0.156971 -0.154688 9.68138 
9.7656 -0.0569062 0.126178 
-0.0569062 9.85055 -0.245475 
0.126178 -0.245475 9.86372 
10.0637 0.00975531 0.0217053 
0.00975531 10.0248 0.00824107 
0.0217053 0.00824107 10.5355 
10.1032 0.00477635 -0.0247992 
0.00477635 10.1094 0.0469717 
-0.0247992 0.0469717 10.4114 
10.0638 -0.0149885 0.0162186 
-0.0149885 10.1043 0.07084 
0.0162186 0.07084 10.456 
10.1143 0.0493963 -0.0818984 
0.0493963 10.1503 0.171851 
-0.0818984 0.171851 10.3594 
7.45465 1.34853 0.605907 
1.34853 9.87942 -2.56393 
0.605907 -2.56393 4.65654 
8.9154 1.76408 -1.16353 
1.76408 6.74543 -0.926549 
-1.16353 -0.926549 6.32978 
7.32707 0.85578 0.383844 
0.85578 9.73962 -2.85849 
0.383844 -2.85849 4.92393 
7.4447 1.08537 0.414681 
1.08537 8.98443 -2.46694 
0.414681 -2.46694 5.56149 
10.02 -0.000464106 -0.0295772 
-0.000464106 9.97983 0.173651 
-0.0295772 0.173651 10.0161 
10.0368 -0.0291129 -0.0150885 
-0.0291129 9.97302 0.167577 
-0.0150885 0.167577 10.0061 
10.0454 0.000888423 -0.014702 
0.000888423 10.0129 0.193815 
-0.014702 0.193815 9.95757 
10.0383 0.00301978 -0.0119841 
0.00301978 10.0303 0.18368 
-0.0119841 0.18368 9.94732 
9.94718 -0.0056648 -0.24976 
-0.0056648 9.94338 -0.071067 
-0.24976 -0.071067 10.0234 
9.98473 0.0147656 -0.231181 
0.0147656 9.97697 -0.0426059 
-0.231181 -0.0426059 9.95224 
9.91936 -0.019894 -0.251928 
-0.019894 9.9946 -0.0618968 
-0.251928 -0.0618968 10 
9.97493 -0.0174384 -0.21994 
-0.0174384 9.96352 -0.0591338 
-0.21994 -0.0591338 9.9755 
9.94479 -0.00536012 0.216587 
-0.00536012 9.9276 0.0669605 
0.216587 0.0669605 10.0232 
9.96326 -0.00318426 0.2359 
-0.00318426 9.98496 0.0655038 
0.2359 0.0655038 9.94741 
9.94645 -0.00380298 0.231975 
-0.00380298 9.95896 0.0709311 
0.231975 0.0709311 9.99021 
9.94294 -0.0219668 0.247923 
-0.0219668 9.98422 0.101888 
0.247923 0.101888 9.96847 
10.5063 -0.0189059 0.181999 
-0.0189059 10.5732 -0.0515791 
0.181999 -0.0515791 10.1017 
10.5841 -0.119575 0.131293 
-0.119575 10.3214 -0.110701 
0.131293 -0.110701 10.2757 
9.98459 0.0171304 -0.197359 
0.0171304 10.1431 0.126162 
-0.197359 0.126162 11.0535 
10.0829 0.296219 0.26231 
0.296219 10.3165 -0.297524 
0.26231 -0.297524 10.7817 
9.91687 -0.00911049 0.113588 
-0.00911049 9.66295 0.332325 
0.113588 0.332325 9.77973 
9.88265 -0.0236816 0.104077 
-0.0236816 9.64974 0.335037 
0.104077 0.335037 9.82716 
9.90772 0.000966355 0.100858 
0.000966355 9.67939 0.327371 
0.100858 0.327371 9.77244 
9.88616 -0.0363941 0.10714 
-0.0363941 9.65177 0.33364 
0.10714 0.33364 9.82162 
9.83228 -0.276267 0.0323638 
-0.276267 9.58183 -0.0507505 
0.0323638 -0.0507505 10.9246 
9.89162 -0.319923 0.0769647 
-0.319923 9.83799 -0.250501 
0.0769647 -0.250501 10.6091 
9.84459 -0.378835 0.124549 
-0.378835 9.67097 0.00895843 
0.124549 0.00895843 10.8231 
9.92512 -0.366561 -0.269674 
-0.366561 9.83812 -0.405771 
-0.269674 -0.405771 10.5754 
10.2335 -0.0925276 0.183459 
-0.0925276 9.10888 -0.832005 
0.183459 -0.832005 7.46659 
10.2402 -0.0447165 0.24713 
-0.0447165 9.06784 -0.549632 
0.24713 -0.549632 7.50092 
10.422 -0.199578 0.579478 
-0.199578 9.03589 -0.334381 
0.579478 -0.334381 7.35109 
9.58792 0.0919646 0.342451 
0.0919646 9.5181 -0.101835 
0.342451 -0.101835 7.70297 
9.81903 0.00485442 -0.0229794 
0.00485442 9.65539 0.189295 
-0.0229794 0.189295 9.84779 
9.73654 0.000563814 -0.0246188 
0.000563814 9.8224 0.207175 
-0.0246188 0.207175 9.76327 
9.7932 0.0148989 -0.028639 
0.0148989 9.70601 0.212746 
-0.028639 0.212746 9.823 
9.78774 -0.00511992 -0.0161426 
-0.00511992 9.71269 0.264672 
-0.0161426 0.264672 9.82179 
9.67998 0.0226783 0.168971 
0.0226783 9.94595 -0.0719586 
0.168971 -0.0719586 10.3633 
9.87711 0.106196 0.0274944 
0.106196 9.74317 -0.0398514 
0.0274944 -0.0398514 10.3689 
9.69984 0.264806 0.0753464 
0.264806 9.79368 -0.0361516 
0.0753464 -0.0361516 10.4957 
9.64859 -0.0174945 0.0740641 
-0.0174945 9.95172 -0.0233974 
0.0740641 -0.0233974 10.3889 
9.85946 -0.00956496 0.0155066 
-0.00956496 9.8258 0.234906 
0.0155066 0.234906 9.86626 
9.82402 0.0157392 0.00427252 
0.0157392 9.86224 0.24063 
0.00427252 0.24063 9.86527 
9.87917 -0.00791004 0.00588448 
-0.00791004 9.8134 0.231194 
0.00588448 0.231194 9.85895 
9.85989 0.00578772 0.016619 
0.00578772 9.8329 0.242975 
0.016619 0.242975 9.85874 
9.75875 -0.0596215 0.212135 
-0.0596215 9.89014 0.171681 
0.212135 0.171681 9.96606 
9.75932 -0.0586413 0.204952 
-0.0586413 9.85841 0.16568 
0.204952 0.16568 9.99722 
9.77708 -0.0508663 0.218782 
-0.0508663 9.92395 0.162323 
0.218782 0.162323 9.91392 
9.76934 -0.051783 0.204065 
-0.051783 9.88802 0.185908 
0.204065 0.185908 9.95759 
9.24912 0.189147 0.882873 
0.189147 5.43354 -0.0224303 
0.882873 -0.0224303 -2.09094 
5.178 -1.83928 1.28627 
-1.83928 2.32469 -1.70467 
1.28627 -1.70467 5.08903 
7.44381 0.0381446 1.67806 
0.0381446 5.14425 1.07287 
1.67806 1.07287 0.00365912 
7.21583 -1.57913 5.31711 
-1.57913 4.66592 0.692884 
5.31711 0.692884 0.709978 
10.5953 -0.558689 -0.277679 
-0.558689 10.322 0.00551984 
-0.277679 0.00551984 9.92974 
10.0593 -0.176316 -0.204984 
-0.176316 10.0913 0.244638 
-0.204984 0.244638 10.6965 
9.8141 0.439414 0.0814731 
0.439414 10.4515 -0.193781 
0.0814731 -0.193781 10.5815 
10.2409 0.216897 -0.257929 
0.216897 10.1249 0.260205 
-0.257929 0.260205 10.4812 
10.1599 0.00290924 -0.00109973 
0.00290924 9.97797 0.0281314 
-0.00109973 0.0281314 10.4014 
10.1369 0.0435705 0.0149464 
0.0435705 10.0872 0.069598 
0.0149464 0.069598 10.3151 
10.2858 0.0679149 0.0122974 
0.0679149 9.94116 0.0350984 
0.0122974 0.0350984 10.3123 
10.0808 -0.104792 -0.0221099 
-0.104792 9.97262 0.0356558 
-0.0221099 0.0356558 10.4858 
9.74075 -0.091519 0.0369546 
-0.091519 9.7082 0.135244 
0.0369546 0.135244 10.0595 
9.88242 -0.0107454 0.152321 
-0.0107454 9.80343 0.107851 
0.152321 0.107851 9.82257 
9.79074 -0.0943502 0.155188 
-0.0943502 9.78211 0.209728 
0.155188 0.209728 9.93558 
9.7247 -0.0944508 0.0635727 
-0.0944508 9.81498 0.148157 
0.0635727 0.148157 9.96875 
9.9682 -0.0132776 -0.200353 
-0.0132776 9.92174 0.123976 
-0.200353 0.123976 10.0361 
9.97075 0.00117154 -0.224596 
0.00117154 9.9806 0.105101 
-0.224596 0.105101 9.97467 
9.96496 -0.00353903 -0.222995 
-0.00353903 9.99087 0.101702 
-0.222995 0.101702 9.97018 
9.96971 0.0104611 -0.232771 
0.0104611 9.99392 0.111022 
-0.232771 0.111022 9.96239 
10.3729 0.523402 -0.86773 
0.523402 9.65988 0.917806 
-0.86773 0.917806 8.32346 
11.4047 0.112106 0.501528 
0.112106 8.91492 0.845083 
0.501528 0.845083 8.03657 
10.6395 -0.221259 -0.241982 
-0.221259 8.97518 0.424456 
-0.241982 0.424456 8.7415 
10.1019 -0.15733 0.378911 
-0.15733 8.99211 -0.209683 
0.378911 -0.209683 9.26219 
9.94105 0.0135837 0.239151 
0.0135837 9.96352 -0.0838689 
0.239151 -0.0838689 9.97958 
9.94568 0.00160639 0.242944 
0.00160639 9.96994 -0.0819865 
0.242944 -0.0819865 9.96854 
9.94116 0.0103817 0.224653 
0.0103817 9.9603 -0.0755222 
0.224653 -0.0755222 9.98269 
9.9378 0.0165151 0.232119 
0.0165151 9.96851 -0.0828582 
0.232119 -0.0828582 9.97784 
9.75262 0.141291 0.250779 
0.141291 9.78185 -0.292643 
0.250779 -0.292643 10.1034 
9.68351 0.216207 0.264197 
0.216207 9.93045 -0.329288 
0.264197 -0.329288 10.0239 
9.70858 0.129735 0.22847 
0.129735 9.89861 -0.386116 
0.22847 -0.386116 10.0307 
9.73775 0.193917 0.21125 
0.193917 9.82282 -0.345106 
0.21125 -0.345106 10.0773 
1.94192 0.311807 -1.21324 
0.311807 1.16622 0.0959251 
-1.21324 0.0959251 6.99079 
7.32493 1.27901 1.8778 
1.27901 6.32317 -1.6585 
1.8778 -1.6585 -3.54917 
3.89753 0.456308 0.664562 
0.456308 5.0129 0.0306786 
0.664562 0.0306786 1.1885 
4.92768 -1.53696 -1.82586 
-1.53696 5.78073 3.8249 
-1.82586 3.8249 -0.609472 
9.89267 -0.0210999 0.047136 
-0.0210999 9.89762 0.220054 
0.047136 0.220054 9.89431 
9.89355 -0.0305292 0.0756504 
-0.0305292 9.86817 0.236858 
0.0756504 0.236858 9.92288 
9.8729 -0.029604 0.10518 
-0.029604 9.85434 0.199036 
0.10518 0.199036 9.95736 
9.85555 -0.0233331 0.0977568 
-0.0233331 9.88783 0.235593 
0.0977568 0.235593 9.94121 
9.54732 -0.130386 -0.200003 
-0.130386 9.79902 -0.0585389 
-0.200003 -0.0585389 9.89234 
9.61706 -0.0428663 -0.223352 
-0.0428663 9.7813 -0.0606991 
-0.223352 -0.0606991 9.84032 
9.48522 -0.109352 -0.262144 
-0.109352 9.82387 -0.103968 
-0.262144 -0.103968 9.92959 
9.53855 -0.112654 -0.237536 
-0.112654 9.78287 -0.0861695 
-0.237536 -0.0861695 9.91727 
9.75636 0.265172 0.977636 
0.265172 9.11956 0.358878 
0.977636 0.358878 9.8193 
9.58046 0.103927 1.34977 
0.103927 9.06385 0.739927 
1.34977 0.739927 10.0509 
9.4717 -0.0622209 -0.0203418 
-0.0622209 9.3265 0.261553 
-0.0203418 0.261553 9.89702 
9.97068 0.180696 1.18568 
0.180696 9.02397 0.529883 
1.18568 0.529883 9.70057 
9.9354 -0.0024366 -0.0602118 
-0.0024366 9.99102 0.171732 
-0.0602118 0.171732 10.0452 
10.023 -0.0044041 -0.114096 
-0.0044041 10.0236 0.15001 
-0.114096 0.15001 9.92505 
9.97304 -0.0272779 -0.0696642 
-0.0272779 10.0046 0.145612 
-0.0696642 0.145612 9.99404 
10.0452 0.00375448 -0.0838304 
0.00375448 10.0069 0.147364 
-0.0838304 0.147364 9.91953 
9.8537 0.0157533 0.0299909 
0.0157533 9.80666 -0.227415 
0.0299909 -0.227415 9.85926 
9.93376 0.0103256 0.0835282 
0.0103256 9.74597 -0.297334 
0.0835282 -0.297334 9.83989 
9.90526 0.0366806 0.0695599 
0.0366806 9.76537 -0.272339 
0.0695599 -0.272339 9.849 
9.91804 0.049484 0.100281 
0.049484 9.75005 -0.28022 
0.100281 -0.28022 9.85153 
9.09576 -1.2007 0.750981 
-1.2007 9.93699 -0.424524 
0.750981 -0.424524 12.6089 
11.119 0.742714 -0.0206028 
0.742714 10.4208 0.48341 
-0.0206028 0.48341 10.1018 
11.2478 -0.0201605 -0.296649 
-0.0201605 10.7974 0.706742 
-0.296649 0.706742 9.59648 
11.9566 -0.7148 0.457431 
-0.7148 9.29115 0.871911 
0.457431 0.871911 10.3938 
9.71147 0.0739929 0.226518 
0.0739929 9.8226 -0.207959 
0.226518 -0.207959 9.9942 
9.7351 0.049354 0.255112 
0.049354 9.80617 -0.229746 
0.255112 -0.229746 9.98701 
9.7044 0.0237171 0.24379 
0.0237171 9.93075 -0.214763 
0.24379 -0.214763 9.89313 
9.70576 0.0808766 0.27147 
0.0808766 9.82951 -0.154848 
0.27147 -0.154848 9.993 
9.90268 0.0816038 -0.165297 
0.0816038 9.7901 0.0286094 
-0.165297 0.0286094 10.2821 
9.63597 0.150703 -0.130349 
0.150703 9.90265 0.00560037 
-0.130349 0.00560037 10.4363 
9.53706 0.179539 0.0521111 
0.179539 9.95255 0.0184083 
0.0521111 0.0184083 10.4853 
9.47871 0.226151 -0.198889 
0.226151 9.82053 0.00247229 
-0.198889 0.00247229 10.6757 
9.83039 0.0546853 0.196996 
0.0546853 9.85491 -0.119678 
0.196996 -0.119678 9.964 
9.80022 0.0829955 0.193751 
0.0829955 9.8438 -0.147286 
0.193751 -0.147286 10.0053 
9.80437 0.0471563 0.240406 
0.0471563 9.85349 -0.134879 
0.240406 -0.134879 9.99144 
9.78608 0.0245587 0.312559 
0.0245587 9.88183 -0.16269 
0.312559 -0.16269 9.98138 
9.78837 0.0534103 0.121445 
0.0534103 9.82317 -0.0533004 
0.121445 -0.0533004 9.91522 
9.72848 0.0475146 0.0944801 
0.0475146 9.86126 -0.117736 
0.0944801 -0.117736 9.93701 
9.79838 0.0542789 0.157725 
0.0542789 9.81459 -0.101965 
0.157725 -0.101965 9.91378 
9.77588 0.0743559 0.159563 
0.0743559 9.84205 -0.0724623 
0.159563 -0.0724623 9.90883 
9.67865 0.0607159 0.345288 
0.0607159 9.91127 -0.19898 
0.345288 -0.19898 9.31082 
9.42919 -0.000779153 0.443356 
-0.000779153 10.1009 -0.159803 
0.443356 -0.159803 9.37068 
9.20176 -0.0676008 0.264586 
-0.0676008 10.4148 -0.120444 
0.264586 -0.120444 9.28416 
9.5364 0.0903665 0.258596 
0.0903665 10.1461 -0.555226 
0.258596 -0.555226 9.21819 
10.2788 0.264255 0.133756 
0.264255 9.99858 -0.152909 
0.133756 -0.152909 10.7609 
10.4657 -0.00459211 0.136089 
-0.00459211 10.0121 -0.0657771 
0.136089 -0.0657771 10.5604 
9.80936 0.0307587 0.207494 
0.0307587 10.3238 -0.0501426 
0.207494 -0.0501426 10.9051 
10.4148 0.224136 0.247292 
0.224136 10.0026 -0.320371 
0.247292 -0.320371 10.6208 
8.40506 0.094343 -0.67788 
0.094343 8.42731 -0.503871 
-0.67788 -0.503871 6.94333 
7.29835 0.272094 -0.464012 
0.272094 9.12432 0.260151 
-0.464012 0.260151 7.35303 
7.9341 -0.260189 -1.0659 
-0.260189 8.89638 0.291318 
-1.0659 0.291318 6.94522 
8.12952 0.0380373 -0.976292 
0.0380373 9.0083 0.390522 
-0.976292 0.390522 6.63789 
9.72862 0.134091 -0.086134 
0.134091 9.68193 0.127132 
-0.086134 0.127132 9.95698 
9.69991 0.10024 -0.0903056 
0.10024 9.70513 0.125419 
-0.0903056 0.125419 9.96248 
9.77351 0.0819708 -0.107759 
0.0819708 9.68606 0.166893 
-0.107759 0.166893 9.90796 
9.71304 0.086974 -0.101085 
0.086974 9.7223 0.087583 
-0.101085 0.087583 9.93219 
9.80178 -0.0167401 0.23452 
-0.0167401 9.90668 0.109592 
0.23452 0.109592 9.89313 
9.8374 -0.0334517 0.242997 
-0.0334517 9.87456 0.177388 
0.242997 0.177388 9.88963 
9.76926 -0.0982157 0.272031 
-0.0982157 9.98224 0.130682 
0.272031 0.130682 9.85009 
9.82793 -0.0119204 0.2649 
-0.0119204 9.87255 0.112355 
0.2649 0.112355 9.90112 
9.93375 -0.0071468 0.203342 
-0.0071468 9.94309 -0.148458 
0.203342 -0.148458 10.0043 
9.97151 0.00836942 0.200607 
0.00836942 9.96856 -0.145528 
0.200607 -0.145528 9.94104 
9.9357 0.00762395 0.190188 
0.00762395 9.9382 -0.136342 
0.190188 -0.136342 10.0072 
9.95854 0.0172509 0.175787 
0.0172509 9.96086 -0.170537 
0.175787 -0.170537 9.9617 
8.951 0.773661 0.87997 
0.773661 10.4107 -2.35752 
0.87997 -2.35752 6.78828 
8.6285 0.874026 0.512548 
0.874026 9.70009 -1.42417 
0.512548 -1.42417 7.82138 
9.18204 -0.527707 -0.80794 
-0.527707 8.26064 -1.34539 
-0.80794 -1.34539 8.7073 
8.72432 -0.829855 0.529445 
-0.829855 10.768 -1.27506 
0.529445 -1.27506 6.65765 
9.77982 -0.0654097 -0.091215 
-0.0654097 9.64139 -0.154542 
-0.091215 -0.154542 9.8901 
9.80454 -0.138691 -0.0337367 
-0.138691 9.63416 -0.0705698 
-0.0337367 -0.0705698 9.8726 
9.8519 -0.0216373 -0.109148 
-0.0216373 9.67075 -0.178916 
-0.109148 -0.178916 9.78866 
9.71701 -0.078328 -0.129267 
-0.078328 9.62352 -0.180208 
-0.129267 -0.180208 9.97078 
9.91773 0.0108167 0.0528526 
0.0108167 9.90644 -0.0939849 
0.0528526 -0.0939849 9.76083 
9.94232 -0.0253131 0.0169031 
-0.0253131 9.91698 -0.149412 
0.0169031 -0.149412 9.7257 
9.97687 -0.00424908 -0.019607 
-0.00424908 9.98662 -0.121619 
-0.019607 -0.121619 9.62151 
9.93426 -0.0162473 0.0293866 
-0.0162473 9.92208 -0.15317 
0.0293866 -0.15317 9.72867 
8.59209 -0.100359 1.1413 
-0.100359 10.2052 -1.85282 
1.1413 -1.85282 5.86728 
8.89747 0.791167 0.635925 
0.791167 8.99757 -0.210081 
0.635925 -0.210081 6.76956 
8.75811 -0.0227846 0.21144 
-0.0227846 9.71527 -1.10079 
0.21144 -1.10079 6.19121 
8.91997 0.22462 0.735392 
0.22462 9.69524 -1.06042 
0.735392 -1.06042 6.04938 
9.85756 0.0109791 -0.241436 
0.0109791 9.93174 -0.0228276 
-0.241436 -0.0228276 9.90511 
9.85082 -0.0169119 -0.250411 
-0.0169119 9.93362 -0.0355436 
-0.250411 -0.0355436 9.90998 
9.85515 -0.0162983 -0.304878 
-0.0162983 9.96516 -0.0568311 
-0.304878 -0.0568311 9.8741 
9.85503 -0.0131803 -0.238934 
-0.0131803 9.91735 -0.0441973 
-0.238934 -0.0441973 9.92203 
10.0764 0.0801177 -0.033335 
0.0801177 9.91968 0.00850026 
-0.033335 0.00850026 10.1884 
9.98477 -0.0313197 0.0663612 
-0.0313197 10.0488 -0.0307597 
0.0663612 -0.0307597 10.1509 
9.99253 -0.0341288 0.00200717 
-0.0341288 10.1027 -0.0153792 
0.00200717 -0.0153792 10.0893 
10.0715 0.0836435 0.117932 
0.0836435 10.0297 -0.0261658 
0.117932 -0.0261658 10.0833 
9.59266 0.0412508 -0.0900794 
0.0412508 10.1096 -0.107057 
-0.0900794 -0.107057 10.0289 
10.0794 0.127689 -0.0656273 
0.127689 9.79872 -0.0757665 
-0.0656273 -0.0757665 9.85303 
9.7202 -0.0352446 -0.0155681 
-0.0352446 9.94495 0.363269 
-0.0155681 0.363269 10.066 
9.94002 0.113138 0.0278391 
0.113138 9.75222 0.0226269 
0.0278391 0.0226269 10.0389 
9.87514 0.01272 0.244201 
0.01272 9.92905 -0.0455897 
0.244201 -0.0455897 9.94009 
9.87257 0.023426 0.241621 
0.023426 9.93288 -0.0519449 
0.241621 -0.0519449 9.93883 
9.85596 0.00131553 0.246247 
0.00131553 9.95015 -0.0402034 
0.246247 -0.0402034 9.93816 
9.88808 -0.000160616 0.189632 
-0.000160616 9.92132 -0.0389866 
0.189632 -0.0389866 9.93487 
9.9373 0.00484938 0.106495 
0.00484938 9.88948 -0.231505 
0.106495 -0.231505 9.95604 
9.94069 0.0223694 0.119345 
0.0223694 9.89786 -0.221836 
0.119345 -0.221836 9.94427 
9.95305 0.0240121 0.123932 
0.0240121 9.89196 -0.231302 
0.123932 -0.231302 9.93781 
9.91751 0.0250792 0.126538 
0.0250792 9.89736 -0.220223 
0.126538 -0.220223 9.96794 
9.82649 -0.025406 -0.0617167 
-0.025406 9.89456 0.23888 
-0.0617167 0.23888 9.84426 
9.85012 0.0269869 -0.0612006 
0.0269869 9.80975 0.222898 
-0.0612006 0.222898 9.90545 
9.85898 0.0137571 -0.0537229 
0.0137571 9.83261 0.21892 
-0.0537229 0.21892 9.87372 
9.86642 -0.00611322 -0.0500073 
-0.00611322 9.8157 0.215281 
-0.0500073 0.215281 9.8832 
9.93285 -0.00611985 -0.119763 
-0.00611985 9.94982 0.200478 
-0.119763 0.200478 10.0024 
9.96509 0.0235417 -0.129308 
0.0235417 9.93864 0.211892 
-0.129308 0.211892 9.9813 
9.95577 0.0138009 -0.137783 
0.0138009 9.95655 0.2127 
-0.137783 0.2127 9.97271 
9.96054 0.0226626 -0.131463 
0.0226626 9.93976 0.206694 
-0.131463 0.206694 9.98473 
9.78982 0.642822 0.272465 
0.642822 9.91651 -0.241098 
0.272465 -0.241098 10.211 
9.96378 0.39753 0.123532 
0.39753 9.726 -0.299519 
0.123532 -0.299519 10.2276 
9.98824 0.53538 -0.0227445 
0.53538 9.66903 -0.21916 
-0.0227445 -0.21916 10.2601 
10.2691 0.640144 -0.197585 
0.640144 9.58141 -0.4258 
-0.197585 -0.4258 10.0668 
8.11626 -6.63416 -2.6605 
-6.63416 16.7881 2.36187 
-2.6605 2.36187 13.6912 
-0.293925 1.44842 7.74532 
1.44842 14.0227 1.66508 
7.74532 1.66508 24.8668 
-1.80061 -2.02297 10.9606 
-2.02297 9.06011 2.1462 
10.9606 2.1462 31.336 
13.9291 1.43215 2.95251 
1.43215 12.4544 1.73866 
2.95251 1.73866 12.212 
9.97588 0.00162682 0.197259 
0.00162682 9.98571 -0.153749 
0.197259 -0.153749 9.97657 
9.977 0.00997648 0.198368 
0.00997648 9.99347 -0.149061 
0.198368 -0.149061 9.96769 
9.9485 -0.0016727 0.1904 
-0.0016727 9.96151 -0.140881 
0.1904 -0.140881 10.0281 
9.98817 0.00307507 0.193343 
0.00307507 9.98783 -0.164441 
0.193343 -0.164441 9.96216 
9.99029 -0.0247366 -0.194444 
-0.0247366 9.97872 0.180891 
-0.194444 0.180891 9.96965 
9.93907 -0.00589142 -0.177832 
-0.00589142 9.97384 0.158057 
-0.177832 0.158057 10.0257 
9.9741 0.0111972 -0.187142 
0.0111972 9.98935 0.188167 
-0.187142 0.188167 9.97521 
9.96607 0.022095 -0.198662 
0.022095 9.98343 0.180072 
-0.198662 0.180072 9.98915 
9.9291 0.0157756 -0.128854 
0.0157756 9.91635 -0.0658546 
-0.128854 -0.0658546 9.75809 
9.95563 0.019926 -0.0835886 
0.019926 9.95289 -0.114744 
-0.0835886 -0.114744 9.69502 
9.95215 0.0158797 -0.112323 
0.0158797 9.92175 -0.0883156 
-0.112323 -0.0883156 9.72964 
9.94664 0.0113627 -0.112144 
0.0113627 9.91148 -0.107354 
-0.112144 -0.107354 9.74542 
9.82411 -0.154282 0.0145867 
-0.154282 9.71942 0.0508869 
0.0145867 0.0508869 10.1594 
9.81666 -0.0662002 0.0396546 
-0.0662002 9.87533 0.0445965 
0.0396546 0.0445965 10.011 
9.88166 -0.0281566 0.00996758 
-0.0281566 9.82642 -0.00581601 
0.00996758 -0.00581601 9.99487 
9.76153 -0.030472 0.134377 
-0.030472 9.96944 0.113486 
0.134377 0.113486 9.97199 
9.79842 -0.0441882 -0.0592088 
-0.0441882 9.79164 -0.0788683 
-0.0592088 -0.0788683 9.96666 
9.75909 -0.0563352 -0.0380109 
-0.0563352 9.78967 -0.0752213 
-0.0380109 -0.0752213 10.008 
9.8488 -0.043525 -0.0262739 
-0.043525 9.75963 -0.0182227 
-0.0262739 -0.0182227 9.9483 
9.81588 -0.0185273 -0.121288 
-0.0185273 9.79136 -0.0633203 
-0.121288 -0.0633203 9.94949 
10.004 0.0139361 0.0670045 
0.0139361 9.95363 -0.0940618 
0.0670045 -0.0940618 9.87137 
9.93002 0.00608611 0.0662492 
0.00608611 10.0919 -0.105265 
0.0662492 -0.105265 9.80716 
9.93543 -0.00179244 0.0618504 
-0.00179244 9.9862 -0.0735174 
0.0618504 -0.0735174 9.90741 
10.0257 0.000479641 0.0670964 
0.000479641 9.93111 -0.171711 
0.0670964 -0.171711 9.87227 
8.90388 0.0665932 0.026796 
0.0665932 9.45826 -0.506099 
0.026796 -0.506099 9.67656 
9.00058 0.380264 0.525814 
0.380264 9.86829 1.39893 
0.525814 1.39893 9.16983 
9.10707 -0.030498 0.543094 
-0.030498 9.48629 1.51486 
0.543094 1.51486 9.44535 
9.10212 0.31468 0.572135 
0.31468 9.55219 1.07537 
0.572135 1.07537 9.38439 
9.63622 0.074688 -0.153797 
0.074688 9.76588 0.0813186 
-0.153797 0.0813186 9.86898 
9.61161 0.0807276 -0.190028 
0.0807276 9.71222 0.121644 
-0.190028 0.121644 9.94725 
9.63792 0.0851465 -0.114749 
0.0851465 9.7483 0.0563153 
-0.114749 0.0563153 9.88485 
9.66579 0.0421357 -0.1912 
0.0421357 9.84896 0.0822035 
-0.1912 0.0822035 9.75633 
9.84542 0.0206932 -0.185757 
0.0206932 9.84292 0.14607 
-0.185757 0.14607 9.97422 
9.90222 0.0193633 -0.165283 
0.0193633 9.86826 0.147574 
-0.165283 0.147574 9.89208 
9.85379 0.0350494 -0.151988 
0.0350494 9.87502 0.132353 
-0.151988 0.132353 9.93375 
9.86892 0.0268486 -0.166363 
0.0268486 9.86692 0.138054 
-0.166363 0.138054 9.92672 
9.96983 0.00575721 -0.0208633 
0.00575721 9.97024 -0.0278106 
-0.0208633 -0.0278106 9.9921 
9.98322 -0.037201 0.0260274 
-0.037201 9.93214 0.0459831 
0.0260274 0.0459831 10.0168 
9.96293 -0.0290801 0.0335737 
-0.0290801 9.95972 0.0584778 
0.0335737 0.0584778 10.0095 
9.96637 -0.080287 0.0070889 
-0.080287 9.94018 0.00903709 
0.0070889 0.00903709 10.0256 
9.77362 0.0491885 0.111022 
0.0491885 9.78601 -0.178815 
0.111022 -0.178815 9.90564 
9.81713 0.0519687 0.136328 
0.0519687 9.77533 -0.0870447 
0.136328 -0.0870447 9.8728 
9.80776 0.0540437 0.121816 
0.0540437 9.76936 -0.102531 
0.121816 -0.102531 9.88815 
9.7743 0.0391861 0.0864367 
0.0391861 9.77016 -0.104853 
0.0864367 -0.104853 9.9208 
10.4515 -0.189031 0.0521365 
-0.189031 9.10172 -1.3665 
0.0521365 -1.3665 9.14418 
10.3167 -1.00519 -0.466596 
-1.00519 9.32106 -1.22853 
-0.466596 -1.22853 9.05957 
10.9229 0.34218 0.549767 
0.34218 7.75551 -1.70192 
0.549767 -1.70192 10.0189 
9.72371 0.595654 0.778057 
0.595654 8.76592 -0.36432 
0.778057 -0.36432 10.2077 
9.87786 0.021118 0.164909 
0.021118 9.87786 -0.145381 
0.164909 -0.145381 9.95197 
9.88056 0.029069 0.165807 
0.029069 9.88143 -0.138972 
0.165807 -0.138972 9.9457 
9.87142 0.0192907 0.160245 
0.0192907 9.88011 -0.146405 
0.160245 -0.146405 9.95616 
9.87916 0.018473 0.169699 
0.018473 9.87875 -0.145594 
0.169699 -0.145594 9.94978 
11.2946 4.39872 -1.6651 
4.39872 6.90274 -1.74904 
-1.6651 -1.74904 14.3654 
10.7441 -0.0452311 -0.953836 
-0.0452311 10.1322 -0.47463 
-0.953836 -0.47463 11.6864 
10.7006 0.707243 1.0536 
0.707243 10.1351 -0.76013 
1.0536 -0.76013 11.727 
10.6198 -0.202686 0.253658 
-0.202686 9.32245 -1.08483 
0.253658 -1.08483 12.6205 
9.4768 -0.143074 0.0597146 
-0.143074 9.5981 0.0838798 
0.0597146 0.0838798 10.0769 
9.69007 -0.130804 0.362475 
-0.130804 9.59495 0.390395 
0.362475 0.390395 9.86677 
9.49938 -0.141964 0.537735 
-0.141964 9.30071 0.370451 
0.537735 0.370451 10.3517 
9.47696 -0.113444 0.0717817 
-0.113444 9.5866 0.279706 
0.0717817 0.279706 10.0882 
9.70613 -0.190771 -0.0925842 
-0.190771 9.93111 0.013246 
-0.0925842 0.013246 10.2516 
9.80015 -0.156216 -0.0601013 
-0.156216 9.87923 -0.0709106 
-0.0601013 -0.0709106 10.2095 
9.73162 -0.178956 -0.0697119 
-0.178956 9.96639 -0.0542034 
-0.0697119 -0.0542034 10.1909 
9.71878 -0.0734034 -0.197795 
-0.0734034 10.0432 -0.191523 
-0.197795 -0.191523 10.1269 
4.37729 0.0115485 -0.589393 
0.0115485 4.51593 1.92532 
-0.589393 1.92532 1.29355 
5.5782 -0.0451911 -0.585505 
-0.0451911 3.10085 1.88245 
-0.585505 1.88245 1.50773 
6.40232 -2.32896 0.680881 
-2.32896 5.62253 0.854003 
0.680881 0.854003 -1.83807 
6.26956 -1.18164 -3.39604 
-1.18164 2.99682 2.06948 
-3.39604 2.06948 0.920395 
9.48946 -0.0934336 0.339171 
-0.0934336 10.1695 0.346725 
0.339171 0.346725 9.21209 
9.75268 -0.427751 0.0743576 
-0.427751 10.6005 0.181488 
0.0743576 0.181488 8.5178 
9.02793 -0.340607 0.379134 
-0.340607 10.0094 -0.160004 
0.379134 -0.160004 9.83368 
9.95075 0.0446516 0.134146 
0.0446516 9.72306 0.762234 
0.134146 0.762234 9.19722 
9.70687 -0.021138 -0.146316 
-0.021138 9.73207 -0.109784 
-0.146316 -0.109784 9.94117 
9.74923 -0.105029 -0.0979135 
-0.105029 9.74472 -0.110685 
-0.0979135 -0.110685 9.88617 
9.84194 -0.0314194 -0.153913 
-0.0314194 9.73057 -0.167692 
-0.153913 -0.167692 9.8076 
9.7316 -0.0276075 -0.16302 
-0.0276075 9.67413 -0.15599 
-0.16302 -0.15599 9.97438 
9.74594 0.0261583 0.287558 
0.0261583 9.99598 -0.0501513 
0.287558 -0.0501513 9.81022 
9.80071 -0.00412115 0.300769 
-0.00412115 9.92454 -0.0138443 
0.300769 -0.0138443 9.82689 
9.77089 0.0049706 0.250729 
0.0049706 9.95118 -0.0145608 
0.250729 -0.0145608 9.83008 
9.81938 -0.0491836 0.345705 
-0.0491836 9.97043 0.0703212 
0.345705 0.0703212 9.76233 
9.56229 0.0234958 0.197459 
0.0234958 9.77346 -0.0151626 
0.197459 -0.0151626 9.86977 
9.47383 -0.0297229 0.289667 
-0.0297229 9.9212 0.00389825 
0.289667 0.00389825 9.81049 
9.55928 -0.0215773 0.227789 
-0.0215773 9.83091 0.0310944 
0.227789 0.0310944 9.81532 
9.66754 -0.0779129 0.202208 
-0.0779129 9.76172 0.104121 
0.202208 0.104121 9.77625 
9.68379 1.44394 -0.292266 
1.44394 6.6864 -2.82946 
-0.292266 -2.82946 8.01774 
7.20083 -0.0304563 -1.19084 
-0.0304563 8.35937 -3.31694 
-1.19084 -3.31694 8.82773 
7.02493 -0.198815 1.18474 
-0.198815 10.3554 -3.24246 
1.18474 -3.24246 7.00755 
8.31261 1.36757 -0.0989458 
1.36757 9.18014 -1.36459 
-0.0989458 -1.36459 6.89517 
9.91018 0.0151892 0.141153 
0.0151892 9.91073 0.0750717 
0.141153 0.0750717 9.92549 
9.95022 0.0200056 0.257386 
0.0200056 10.0626 0.042959 
0.257386 0.042959 9.73361 
9.89407 -0.00389342 0.226203 
-0.00389342 9.95159 0.103815 
0.226203 0.103815 9.90074 
9.89761 -0.0225696 0.219499 
-0.0225696 10.0159 0.0706299 
0.219499 0.0706299 9.8329 
6.91358 2.4534 -1.25428 
2.4534 5.64189 -0.151441 
-1.25428 -0.151441 -2.48837 
5.66703 -0.060932 0.324107 
-0.060932 2.83649 0.918372 
0.324107 0.918372 1.56358 
3.2971 -0.143132 0.305174 
-0.143132 2.77151 0.862063 
0.305174 0.862063 3.99848 
6.6345 1.02078 3.99492 
1.02078 2.40955 1.84492 
3.99492 1.84492 1.02305 
9.88788 -0.0205175 -0.14393 
-0.0205175 9.89738 0.146856 
-0.14393 0.146856 9.88588 
9.83541 0.0701391 -0.191511 
0.0701391 9.86025 0.190089 
-0.191511 0.190089 9.97548 
9.92012 -0.00801006 -0.16712 
-0.00801006 9.89346 0.135779 
-0.16712 0.135779 9.85756 
9.89823 0.0389242 -0.0886775 
0.0389242 9.81836 0.150896 
-0.0886775 0.150896 9.95455 
9.80307 -0.139555 -0.0133451 
-0.139555 9.80247 0.186923 
-0.0133451 0.186923 9.39724 
9.90131 0.0246798 0.309478 
0.0246798 9.70392 0.363858 
0.309478 0.363858 9.39753 
9.75883 -0.0695378 0.277499 
-0.0695378 9.69709 0.301015 
0.277499 0.301015 9.54684 
9.80132 -0.0276485 0.250632 
-0.0276485 9.72083 0.329113 
0.250632 0.329113 9.48062 
10.3339 -0.0425137 0.392826 
-0.0425137 9.83552 -0.108655 
0.392826 -0.108655 10.4291 
9.78761 0.171404 -0.051705 
0.171404 10.2676 -0.0475984 
-0.051705 -0.0475984 10.5434 
10.2317 0.0981475 -0.0243478 
0.0981475 9.96424 0.111217 
-0.0243478 0.111217 10.4027 
10.5093 0.130198 -0.286812 
0.130198 9.71001 0.254675 
-0.286812 0.254675 10.3793 
10.0016 -0.0133089 0.0173454 
-0.0133089 9.96834 -0.011402 
0.0173454 -0.011402 10.0283 
10.0078 -0.00441447 0.0237911 
-0.00441447 9.97944 0.00343266 
0.0237911 0.00343266 10.011 
10.0017 -0.0187894 0.0207687 
-0.0187894 9.98191 -0.0319543 
0.0207687 -0.0319543 10.0146 
10.002 -0.00232141 0.0201524 
-0.00232141 9.9538 0.0023597 
0.0201524 0.0023597 10.0424 
9.75249 -0.0708312 -0.135498 
-0.0708312 9.75383 -0.0980088 
-0.135498 -0.0980088 9.87677 
9.74868 -0.0238322 -0.182353 
-0.0238322 9.75103 -0.0957831 
-0.182353 -0.0957831 9.88337 
9.7291 -0.0541085 -0.18654 
-0.0541085 9.7598 -0.0894958 
-0.18654 -0.0894958 9.89418 
9.7172 -0.0513865 -0.138116 
-0.0513865 9.78862 -0.12232 
-0.138116 -0.12232 9.87726 
9.70445 -0.0647891 -0.0479006 
-0.0647891 9.95658 0.108257 
-0.0479006 0.108257 9.76018 
9.79036 0.0571411 -0.0690523 
0.0571411 9.76003 0.113006 
-0.0690523 0.113006 9.87082 
9.80096 0.0654344 -0.0899693 
0.0654344 9.69683 0.17014 
-0.0899693 0.17014 9.92341 
9.71911 0.117157 -0.102881 
0.117157 9.82331 0.109689 
-0.102881 0.109689 9.87879 
12.0146 1.22785 -0.052072 
1.22785 10.4274 -0.199176 
-0.052072 -0.199176 11.5991 
9.67955 -0.700469 2.01563 
-0.700469 12.4581 0.434125 
2.01563 0.434125 11.9034 
7.5064 -1.14537 0.37844 
-1.14537 11.6973 -1.37198 
0.37844 -1.37198 14.8373 
10.0115 0.609175 0.491662 
0.609175 11.1045 0.705521 
0.491662 0.705521 12.9251 
9.72684 0.226756 -0.377697 
0.226756 9.75912 0.102614 
-0.377697 0.102614 10.2072 
9.82661 0.225139 -0.323066 
0.225139 9.61305 0.231251 
-0.323066 0.231251 10.2535 
9.63441 0.350084 -0.296071 
0.350084 9.84712 0.225157 
-0.296071 0.225157 10.2117 
9.86046 0.233152 -0.228288 
0.233152 9.76029 0.226394 
-0.228288 0.226394 10.0725 
9.89471 0.00327155 -0.255862 
0.00327155 9.83878 0.0244967 
-0.255862 0.0244967 9.84653 
9.79492 -0.00387344 -0.236609 
-0.00387344 9.86544 0.0138379 
-0.236609 0.0138379 9.91966 
9.84719 0.00599247 -0.243648 
0.00599247 9.87991 0.0175619 
-0.243648 0.0175619 9.85292 
9.84346 0.0220319 -0.232767 
0.0220319 9.86683 0.032672 
-0.232767 0.032672 9.86973 
9.94887 0.119669 -0.00795926 
0.119669 9.75718 -0.0241955 
-0.00795926 -0.0241955 10.1852 
9.9313 0.0932509 -0.0269703 
0.0932509 9.82732 0.0146048 
-0.0269703 0.0146048 10.1326 
9.83998 0.0121978 0.21535 
0.0121978 9.92215 -0.155756 
0.21535 -0.155756 10.1291 
9.86419 0.159386 -0.0132519 
0.159386 9.78141 -0.0142584 
-0.0132519 -0.0142584 10.2457 
9.69397 -0.0240334 0.224404 
-0.0240334 9.78988 0.0543404 
0.224404 0.0543404 9.87212 
9.73792 -0.0336112 0.198062 
-0.0336112 9.82909 0.0518834 
0.198062 0.0518834 9.78896 
9.69779 -0.0767071 0.206341 
-0.0767071 9.85904 0.051694 
0.206341 0.051694 9.79915 
9.72261 -0.0488766 0.188172 
-0.0488766 9.77903 0.0680939 
0.188172 0.0680939 9.85434 
14.0379 1.20875 0.58001 
1.20875 15.5059 -1.06433 
0.58001 -1.06433 13.1748 
12.2078 -0.0130595 2.1907 
-0.0130595 13.6058 -0.239776 
2.1907 -0.239776 16.9051 
12.5532 -0.317253 1.38278 
-0.317253 14.8894 -0.103764 
1.38278 -0.103764 15.276 
12.7426 0.366884 0.536312 
0.366884 14.7992 0.271974 
0.536312 0.271974 15.1768 
9.47915 -0.29461 -0.139043 
-0.29461 9.71688 -0.875211 
-0.139043 -0.875211 10.5084 
10.1144 0.157021 -0.54697 
0.157021 9.3572 -0.00351007 
-0.54697 -0.00351007 10.2329 
10.3328 -0.214368 -0.613744 
-0.214368 9.10592 -0.752461 
-0.613744 -0.752461 10.2657 
9.59719 -0.610693 0.304231 
-0.610693 9.31214 -0.581165 
0.304231 -0.581165 10.7951 
9.9939 0.0229445 -0.0283473 
0.0229445 9.98145 -0.00909877 
-0.0283473 -0.00909877 10.0791 
9.93305 0.0155833 0.0182243 
0.0155833 9.94451 0.0210274 
0.0182243 0.0210274 10.1769 
10.0604 0.0114868 -0.015853 
0.0114868 10.0644 -0.0311952 
-0.015853 -0.0311952 9.92971 
9.97057 -0.0310327 -0.140665 
-0.0310327 10.0649 0.0537419 
-0.140665 0.0537419 10.019 
9.94329 0.0197883 0.0126732 
0.0197883 9.87401 -0.305058 
0.0126732 -0.305058 9.86034 
9.99412 -0.0145882 0.0410412 
-0.0145882 9.77645 -0.337121 
0.0410412 -0.337121 9.90707 
9.94257 -0.00428393 0.0133023 
-0.00428393 9.84555 -0.263577 
0.0133023 -0.263577 9.88952 
9.97298 -0.002555 0.0140188 
-0.002555 9.84837 -0.303206 
0.0140188 -0.303206 9.8563 
5.00275 -1.81312 2.38727 
-1.81312 4.93161 1.21673 
2.38727 1.21673 1.12716 
8.25429 2.00667 1.44127 
2.00667 6.08249 0.485572 
1.44127 0.485572 -3.27526 
6.45195 0.38393 1.82591 
0.38393 3.32853 1.01663 
1.82591 1.01663 1.28105 
5.49738 0.478137 0.883976 
0.478137 3.40619 0.73264 
0.883976 0.73264 2.15796 
10.004 0.00161998 -0.043614 
0.00161998 9.97838 0.23945 
-0.043614 0.23945 9.97123 
10.0095 -0.000183193 -0.0392272 
-0.000183193 9.95873 0.235865 
-0.0392272 0.235865 9.98542 
9.9816 0.0031654 -0.0496812 
0.0031654 9.96217 0.239561 
-0.0496812 0.239561 10.0099 
10.008 0.00172116 -0.0420265 
0.00172116 9.98805 0.238112 
-0.0420265 0.238112 9.95763 
10.2335 -0.138528 -0.00793997 
-0.138528 9.93043 -0.218572 
-0.00793997 -0.218572 10.3533 
10.4577 -0.515791 -0.197729 
-0.515791 9.84637 0.0257268 
-0.197729 0.0257268 10.2132 
10.2733 -0.150265 -0.0877377 
-0.150265 9.82842 -0.124644 
-0.0877377 -0.124644 10.4155 
10.3678 -0.138819 -0.125373 
-0.138819 9.71674 -0.203748 
-0.125373 -0.203748 10.4328 
11.8309 0.0818821 0.298244 
0.0818821 11.4539 -0.17456 
0.298244 -0.17456 10.6725 
11.5342 0.176642 0.0514652 
0.176642 11.5948 -0.0982757 
0.0514652 -0.0982757 10.8283 
10.1888 -0.0267076 -0.129446 
-0.0267076 10.2964 0.157496 
-0.129446 0.157496 13.4721 
12.1337 0.0225091 -0.533979 
0.0225091 10.8329 -1.53578 
-0.533979 -1.53578 10.9907 
9.78632 0.0316228 -0.146536 
0.0316228 9.77731 0.136492 
-0.146536 0.136492 9.93386 
9.75302 0.0259974 -0.16704 
0.0259974 9.84701 0.098268 
-0.16704 0.098268 9.89746 
9.76649 0.0257424 -0.176872 
0.0257424 9.80692 0.119395 
-0.176872 0.119395 9.92408 
9.82981 0.0395994 -0.167804 
0.0395994 9.74604 0.0960875 
-0.167804 0.0960875 9.92164 
9.93731 -0.0028497 -0.217649 
-0.0028497 9.93168 -0.0605423 
-0.217649 -0.0605423 9.99258 
9.93165 -0.0222875 -0.225702 
-0.0222875 9.9522 -0.0431788 
-0.225702 -0.0431788 9.97771 
9.94918 0.00461901 -0.259473 
0.00461901 9.94184 -0.0586355 
-0.259473 -0.0586355 9.97055 
9.94584 -0.00525512 -0.256769 
-0.00525512 9.96097 -0.063851 
-0.256769 -0.063851 9.95475 
10.3735 -0.175053 -0.145139 
-0.175053 10.5135 -0.245081 
-0.145139 -0.245081 10.5745 
10.3321 -0.304892 -0.0545131 
-0.304892 10.4631 -0.200839 
-0.0545131 -0.200839 10.6663 
10.1759 -0.0149768 -0.220018 
-0.0149768 10.4059 -0.0154506 
-0.220018 -0.0154506 10.8797 
10.4764 -0.133859 -0.399855 
-0.133859 10.2481 -0.405785 
-0.399855 -0.405785 10.7371 
9.98421 -0.11196 -0.0393275 
-0.11196 9.82727 0.0310082 
-0.0393275 0.0310082 9.84806 
9.86725 0.0730345 -0.0716903 
0.0730345 9.85641 -0.0135604 
-0.0716903 -0.0135604 9.93588 
9.79767 0.143758 -0.0847051 
0.143758 9.88013 0.0665409 
-0.0847051 0.0665409 9.98173 
9.8357 0.0517483 0.00410426 
0.0517483 9.85425 0.00328349 
0.00410426 0.00328349 9.96959 
9.4945 -0.109918 1.192 
-0.109918 9.39863 -0.732283 
1.192 -0.732283 10.0417 
9.46783 0.139724 0.156902 
0.139724 9.32627 -0.584371 
0.156902 -0.584371 10.1407 
9.17756 -0.0621956 -0.118879 
-0.0621956 9.54129 -0.937113 
-0.118879 -0.937113 10.216 
9.25967 0.461142 2.28713e-05 
0.461142 9.20652 -1.63328 
2.28713e-05 -1.63328 10.4686 
9.97632 0.0221211 0.215161 
0.0221211 9.86963 -0.207413 
0.215161 -0.207413 9.76696 
9.95835 -0.0019608 0.190149 
-0.0019608 9.92582 -0.196032 
0.190149 -0.196032 9.72873 
9.98131 0.00973243 0.159056 
0.00973243 9.9417 -0.224224 
0.159056 -0.224224 9.6899 
9.86677 0.0125796 0.0961574 
0.0125796 9.79183 -0.211048 
0.0961574 -0.211048 9.95431 
1.75704 3.03633 2.58118 
3.03633 4.02492 0.682952 
2.58118 0.682952 12.9494 
9.81682 2.14857 -1.9206 
2.14857 17.0382 -8.27262 
-1.9206 -8.27262 -8.12367 
6.18496 -1.39605 -1.60826 
-1.39605 12.3332 -6.10444 
-1.60826 -6.10444 0.213178 
8.62022 -3.03887 0.47437 
-3.03887 0.667849 -8.70158 
0.47437 -8.70158 9.44331 
9.88721 -0.108556 0.171788 
-0.108556 9.98492 0.132957 
0.171788 0.132957 9.74335 
9.89834 -0.00766807 0.229084 
-0.00766807 9.97327 0.106538 
0.229084 0.106538 9.74387 
9.88929 0.0289355 0.376925 
0.0289355 9.98756 0.0730825 
0.376925 0.0730825 9.73862 
9.86274 0.0154802 0.189207 
0.0154802 9.89125 0.0598021 
0.189207 0.0598021 9.86148 
10.2395 -0.00359279 0.132751 
-0.00359279 9.59825 -0.492116 
0.132751 -0.492116 9.03556 
9.92158 -0.170802 -0.178199 
-0.170802 9.92953 -0.448406 
-0.178199 -0.448406 9.02219 
9.96436 0.0596487 -0.0895445 
0.0596487 9.78326 -0.311842 
-0.0895445 -0.311842 9.12567 
9.92151 -0.0948422 -0.0807155 
-0.0948422 9.82351 -0.439211 
-0.0807155 -0.439211 9.12828 
9.78396 0.0719686 -0.0531675 
0.0719686 9.7701 0.0604593 
-0.0531675 0.0604593 9.94135 
9.76338 0.0601219 -0.0640289 
0.0601219 9.80237 0.128504 
-0.0640289 0.128504 9.92966 
9.79242 0.0268966 -0.0819066 
0.0268966 9.77429 0.0889215 
-0.0819066 0.0889215 9.9287 
9.75444 0.069626 -0.0696494 
0.069626 9.79283 0.063711 
-0.0696494 0.063711 9.94814 
10.0216 -0.0110902 0.0492511 
-0.0110902 9.62437 -0.0142282 
0.0492511 -0.0142282 10.0352 
10.0519 0.177457 -0.155911 
0.177457 9.73146 0.128666 
-0.155911 0.128666 9.89782 
9.98007 0.156188 0.0571671 
0.156188 9.6211 0.101798 
0.0571671 0.101798 10.0801 
10.0037 0.0633985 0.0188368 
0.0633985 9.64192 0.0615923 
0.0188368 0.0615923 10.0356 
9.92152 -0.0592106 -0.0264776 
-0.0592106 9.82416 -0.0255147 
-0.0264776 -0.0255147 9.86017 
9.68785 -0.0715086 0.0790191 
-0.0715086 9.75901 0.037765 
0.0790191 0.037765 10.159 
9.68856 0.0633888 0.0489625 
0.0633888 9.867 -0.0022277 
0.0489625 -0.0022277 10.0503 
9.81338 -0.0930924 -0.032416 
-0.0930924 9.88894 0.188287 
-0.032416 0.188287 9.90353 
9.82629 -0.0600919 -0.000667521 
-0.0600919 9.71137 -0.186756 
-0.000667521 -0.186756 9.76084 
9.72057 -0.0718406 -0.105334 
-0.0718406 9.63406 -0.148991 
-0.105334 -0.148991 9.94387 
9.77081 -0.0417643 -0.0655688 
-0.0417643 9.6705 -0.225953 
-0.0655688 -0.225953 9.85718 
9.80927 -0.0450885 -0.0757144 
-0.0450885 9.67261 -0.220446 
-0.0757144 -0.220446 9.81662 
13.143 0.478473 0.172393 
0.478473 11.206 -0.944557 
0.172393 -0.944557 13.8061 
13.2139 0.128246 -0.323329 
0.128246 13.1409 0.573691 
-0.323329 0.573691 11.8003 
12.4786 -0.429085 0.448899 
-0.429085 11.7572 -0.829709 
0.448899 -0.829709 13.9193 
12.3134 -0.365803 -0.567902 
-0.365803 13.945 -0.362356 
-0.567902 -0.362356 11.8967 
9.7629 0.0579297 0.406417 
0.0579297 9.63402 -0.481355 
0.406417 -0.481355 9.35712 
9.84684 -0.0511363 0.453492 
-0.0511363 9.63137 -0.551842 
0.453492 -0.551842 9.27583 
9.8146 0.18765 0.542696 
0.18765 9.66578 -0.467282 
0.542696 -0.467282 9.27366 
9.67835 -0.00502415 0.427461 
-0.00502415 9.715 -0.56178 
0.427461 -0.56178 9.36069 
9.92642 -0.0701468 0.0139824 
-0.0701468 10.0596 -0.0242326 
0.0139824 -0.0242326 10.1277 
10.0263 -0.0042437 0.068005 
-0.0042437 10.0064 0.0333786 
0.068005 0.0333786 10.0809 
9.94169 -0.149371 -0.138249 
-0.149371 10.0538 -0.134865 
-0.138249 -0.134865 10.1182 
9.9875 -0.0929589 0.0770753 
-0.0929589 9.96188 0.0553026 
0.0770753 0.0553026 10.1643 
9.87572 -0.0992954 -0.0389909 
-0.0992954 9.84483 -0.10611 
-0.0389909 -0.10611 10.2669 
9.85678 -0.0491959 -0.100998 
-0.0491959 9.90723 -0.0559823 
-0.100998 -0.0559823 10.2234 
9.90503 -0.116101 -0.0993459 
-0.116101 9.86575 -0.118431 
-0.0993459 -0.118431 10.2167 
9.92197 -0.1541 -0.0775837 
-0.1541 9.81956 -0.0806053 
-0.0775837 -0.0806053 10.2459 
10.762 0.407634 -2.63103 
0.407634 9.71674 0.854882 
-2.63103 0.854882 20.1965 
11.7199 0.0403404 0.131109 
0.0403404 11.13 -1.3275 
0.131109 -1.3275 17.8254 
16.8642 -0.0875284 2.70003 
-0.0875284 15.1347 -2.25998 
2.70003 -2.25998 8.67643 
9.24433 1.73477 3.78998 
1.73477 13.0808 0.755601 
3.78998 0.755601 18.3502 
9.91508 0.0588264 0.00477049 
0.0588264 10.024 0.0110389 
0.00477049 0.0110389 10.1216 
9.98168 0.0459349 -0.00667044 
0.0459349 10.0515 0.0584046 
-0.00667044 0.0584046 10.0275 
10.0238 -0.0457852 -0.0165942 
-0.0457852 10.0019 -0.0274085 
-0.0165942 -0.0274085 10.035 
9.98566 -0.0559187 -0.0649712 
-0.0559187 9.99409 0.0287384 
-0.0649712 0.0287384 10.081 
7.01142 -0.455209 1.21982 
-0.455209 9.74636 1.92013 
1.21982 1.92013 7.99851 
9.21316 -1.81646 3.16251 
-1.81646 9.92104 4.1735 
3.16251 4.1735 5.62208 
7.19841 -2.41001 3.29991 
-2.41001 7.17459 1.30882 
3.29991 1.30882 10.3833 
7.05196 0.131997 1.43521 
0.131997 11.0502 0.362492 
1.43521 0.362492 6.6541 
9.79927 0.00430199 0.048655 
0.00430199 9.76994 -0.236796 
0.048655 -0.236796 9.87118 
9.81052 -0.00575132 0.0498023 
-0.00575132 9.73918 -0.236794 
0.0498023 -0.236794 9.89069 
9.86468 0.0277197 0.0252854 
0.0277197 9.73148 -0.223961 
0.0252854 -0.223961 9.84424 
9.84582 0.0146911 0.027508 
0.0146911 9.76176 -0.20051 
0.027508 -0.20051 9.83281 
9.90438 -0.0315387 -0.219701 
-0.0315387 9.90544 -0.142899 
-0.219701 -0.142899 9.9725 
9.90429 -0.0197032 -0.15373 
-0.0197032 9.92031 -0.129949 
-0.15373 -0.129949 9.95772 
9.88604 -0.0254644 -0.217406 
-0.0254644 9.91433 -0.139755 
-0.217406 -0.139755 9.98194 
9.8984 -0.0222932 -0.195144 
-0.0222932 9.91722 -0.120791 
-0.195144 -0.120791 9.96669 
9.93196 0.00362907 0.119615 
0.00362907 9.95175 -0.231613 
0.119615 -0.231613 9.93598 
9.95225 0.0104187 0.105488 
0.0104187 9.90848 -0.221307 
0.105488 -0.221307 9.95896 
9.95705 0.0252201 0.122083 
0.0252201 9.90865 -0.24632 
0.122083 -0.24632 9.95398 
9.93351 0.00502724 0.131598 
0.00502724 9.92859 -0.233148 
0.131598 -0.233148 9.95759 
10.9351 -1.41164 0.411663 
-1.41164 9.32102 0.738931 
0.411663 0.738931 9.13243 
10.2482 0.0798475 0.276931 
0.0798475 9.29914 0.567668 
0.276931 0.567668 9.84122 
9.99084 -0.237925 0.279752 
-0.237925 9.52561 0.649745 
0.279752 0.649745 9.87209 
9.79709 -0.160718 0.68428 
-0.160718 9.96028 0.43121 
0.68428 0.43121 9.63117 
10.0042 0.00757514 0.108798 
0.00757514 9.99932 0.194197 
0.108798 0.194197 9.97398 
9.9775 0.000499815 0.102494 
0.000499815 9.95835 0.177331 
0.102494 0.177331 10.0416 
10.0057 -0.00215782 0.112402 
-0.00215782 10.009 0.19181 
0.112402 0.19181 9.96273 
10.0158 -0.0102272 0.113854 
-0.0102272 9.98307 0.224549 
0.113854 0.224549 9.97858 
9.4318 0.445081 0.759281 
0.445081 9.55134 -0.123913 
0.759281 -0.123913 10.5344 
9.89584 -0.310696 0.210353 
-0.310696 9.69945 -0.604552 
0.210353 -0.604552 9.92223 
9.35239 0.322022 0.518169 
0.322022 9.73152 -0.0479637 
0.518169 -0.0479637 10.4336 
8.84405 0.298133 0.184926 
0.298133 9.48403 0.343931 
0.184926 0.343931 11.1894 
9.50193 -0.0342963 0.194502 
-0.0342963 9.78903 0.0179251 
0.194502 0.0179251 9.90944 
9.57207 0.00426772 0.253356 
0.00426772 9.82501 -0.0218014 
0.253356 -0.0218014 9.80332 
9.47552 0.00946253 0.307088 
0.00946253 9.89376 0.00407227 
0.307088 0.00407227 9.83111 
9.68182 0.0558664 0.218908 
0.0558664 9.80266 -0.128998 
0.218908 -0.128998 9.71592 
9.94076 -0.0116324 0.162439 
-0.0116324 9.96301 0.186437 
0.162439 0.186437 9.89262 
10.0161 -0.0218556 0.161585 
-0.0218556 9.90267 0.229565 
0.161585 0.229565 9.87757 
9.95328 0.00378942 0.113421 
0.00378942 9.9077 0.162766 
0.113421 0.162766 9.93541 
9.90275 -0.0144311 0.193326 
-0.0144311 9.98121 0.179924 
0.193326 0.179924 9.91243 
9.9574 -0.0184205 0.163603 
-0.0184205 9.94903 0.205409 
0.163603 0.205409 9.99316 
9.9796 -0.0141863 0.152663 
-0.0141863 9.93999 0.209381 
0.152663 0.209381 9.98 
9.95025 0.0119399 0.134101 
0.0119399 9.93227 0.158742 
0.134101 0.158742 10.0171 
9.97174 -0.0127076 0.160425 
-0.0127076 9.92992 0.18019 
0.160425 0.18019 9.99793 
10.0609 0.00739838 0.0372874 
0.00739838 10.2235 -0.00969584 
0.0372874 -0.00969584 10.0702 
10.2003 0.0492504 0.0401885 
0.0492504 10.011 -0.0599628 
0.0401885 -0.0599628 10.1433 
9.76817 -0.0795565 0.00395066 
-0.0795565 10.2657 0.122241 
0.00395066 0.122241 10.3207 
10.1431 0.207761 -0.273397 
0.207761 9.98729 -0.0174176 
-0.273397 -0.0174176 10.2242 
9.75506 -0.0141212 -0.0833451 
-0.0141212 9.78207 -0.0129588 
-0.0833451 -0.0129588 10.049 
9.7427 -0.0607148 -0.0385405 
-0.0607148 9.80439 -0.0754955 
-0.0385405 -0.0754955 10.039 
9.7669 -0.0541264 -0.0662068 
-0.0541264 9.79582 -0.0607185 
-0.0662068 -0.0607185 10.0234 
9.75964 -0.0953046 -0.0535484 
-0.0953046 9.83555 -0.0421427 
-0.0535484 -0.0421427 9.99091 
7.78986 -0.651763 -0.00208137 
-0.651763 8.64896 2.82203 
-0.00208137 2.82203 7.5178 
7.98857 -0.598775 0.589931 
-0.598775 9.14351 2.08366 
0.589931 2.08366 6.82453 
6.808 0.146656 0.152161 
0.146656 9.93952 2.362 
0.152161 2.362 7.2091 
7.71879 -0.442664 -0.109564 
-0.442664 8.39711 3.62122 
-0.109564 3.62122 7.84072 
9.9089 0.386354 -0.565711 
0.386354 9.63463 0.572692 
-0.565711 0.572692 9.41218 
9.69221 0.173086 -0.196553 
0.173086 9.33935 0.48032 
-0.196553 0.48032 9.92415 
9.6005 0.191488 -0.438018 
0.191488 9.68965 0.109997 
-0.438018 0.109997 9.66556 
9.90664 0.304074 -0.514542 
0.304074 9.47282 0.329474 
-0.514542 0.329474 9.57624 
9.49689 0.177648 0.289722 
0.177648 9.77737 0.291866 
0.289722 0.291866 11.6307 
10.313 -0.234566 -0.305134 
-0.234566 9.25168 -0.140635 
-0.305134 -0.140635 11.3403 
10.8676 -0.491827 0.0141577 
-0.491827 9.10734 -0.0712423 
0.0141577 -0.0712423 10.93 
9.21831 0.095907 -0.83514 
0.095907 11.1289 -0.990725 
-0.83514 -0.990725 10.5578 
9.40051 0.0418989 -1.06568 
0.0418989 9.59143 -0.651262 
-1.06568 -0.651262 9.86329 
9.74658 -0.26779 -0.594045 
-0.26779 9.42883 -0.171838 
-0.594045 -0.171838 9.67982 
10.0744 -0.326553 -1.45471 
-0.326553 9.78822 0.429554 
-1.45471 0.429554 8.99259 
8.92214 0.210434 -0.964151 
0.210434 9.90136 -0.126281 
-0.964151 -0.126281 10.0317 
10.0584 -0.0514248 -0.101335 
-0.0514248 9.5637 -0.372825 
-0.101335 -0.372825 9.28682 
10.0994 0.0170534 -0.107422 
0.0170534 9.5086 -0.434982 
-0.107422 -0.434982 9.30088 
9.9526 -0.0954771 -0.202977 
-0.0954771 9.48269 -0.391127 
-0.202977 -0.391127 9.47359 
9.80684 0.0422246 -0.00212659 
0.0422246 9.63755 -0.361564 
-0.00212659 -0.361564 9.46449 
10.0459 0.112114 0.264904 
0.112114 9.57531 -0.403403 
0.264904 -0.403403 9.61316 
10.1045 0.00210587 0.14404 
0.00210587 9.65322 -0.440452 
0.14404 -0.440452 9.47661 
10.0737 0.0650789 0.160409 
0.0650789 9.63365 -0.387073 
0.160409 -0.387073 9.52697 
9.8211 -0.00447523 0.059714 
-0.00447523 9.79901 -0.304137 
0.059714 -0.304137 9.61424 
9.98219 0.0192978 -0.0148046 
0.0192978 9.87126 0.310855 
-0.0148046 0.310855 9.64176 
9.99911 -0.0425133 0.0169894 
-0.0425133 9.87206 0.285606 
0.0169894 0.285606 9.62405 
9.97574 0.009926 -0.0168271 
0.009926 9.86527 0.270768 
-0.0168271 0.270768 9.65421 
9.96991 0.0456475 0.0109663 
0.0456475 9.85505 0.263915 
0.0109663 0.263915 9.67026 
9.42374 3.47187 0.478271 
3.47187 5.6849 -0.917105 
0.478271 -0.917105 -3.38666 
1.17824 -1.88156 -0.558555 
-1.88156 0.814742 3.81025 
-0.558555 3.81025 9.729 
9.84346 -0.205132 -0.260475 
-0.205132 11.4116 -1.05409 
-0.260475 -1.05409 -9.53309 
2.5392 1.27469 7.21578 
1.27469 9.89492 2.37252 
7.21578 2.37252 -0.712133 
9.82741 0.0049091 0.0642719 
0.0049091 9.69342 -0.254367 
0.0642719 -0.254367 9.84887 
9.85012 0.0338456 0.0592766 
0.0338456 9.68885 -0.242558 
0.0592766 -0.242558 9.83072 
9.82025 0.0290047 0.057714 
0.0290047 9.67701 -0.259315 
0.057714 -0.259315 9.87243 
9.81208 0.0212034 0.0737353 
0.0212034 9.71692 -0.228631 
0.0737353 -0.228631 9.8407 
9.92049 0.0199926 0.0424219 
0.0199926 9.56631 0.147841 
0.0424219 0.147841 9.91199 
9.93145 -0.0153427 8.75499e-05 
-0.0153427 9.53329 0.108119 
8.75499e-05 0.108119 9.93404 
9.90119 -0.0219853 0.0173655 
-0.0219853 9.57566 0.102159 
0.0173655 0.102159 9.92194 
9.95057 -0.0208629 0.0202576 
-0.0208629 9.52149 0.0966515 
0.0202576 0.0966515 9.92673 
9.8824 -0.0165638 0.145794 
-0.0165638 9.93027 0.14306 
0.145794 0.14306 9.77469 
9.92297 -0.0184624 0.188644 
-0.0184624 9.89861 0.143004 
0.188644 0.143004 9.76579 
9.87906 -0.0110252 0.224348 
-0.0110252 9.87986 0.122002 
0.224348 0.122002 9.82845 
9.93055 -0.0266023 0.187396 
-0.0266023 9.92935 0.195526 
0.187396 0.195526 9.72747 
9.95531 -0.00806896 0.208024 
-0.00806896 9.98749 -0.123162 
0.208024 -0.123162 9.93908 
9.95647 0.0145658 0.190923 
0.0145658 9.94666 -0.144097 
0.190923 -0.144097 9.97875 
9.96239 -0.00266022 0.197789 
-0.00266022 9.95695 -0.145239 
0.197789 -0.145239 9.96255 
9.90803 0.00512075 0.210236 
0.00512075 9.96211 -0.126175 
0.210236 -0.126175 10.0117 
10.0022 0.0170402 0.137414 
0.0170402 9.86051 -0.228917 
0.137414 -0.228917 9.88944 
9.98562 0.039402 0.14082 
0.039402 9.99124 -0.258182 
0.14082 -0.258182 9.77526 
9.86619 0.0102726 0.0732565 
0.0102726 9.93763 -0.139388 
0.0732565 -0.139388 9.94829 
9.93923 0.00777411 0.148261 
0.00777411 9.89404 -0.226181 
0.148261 -0.226181 9.91885 
10.0737 0.000409283 -0.0110884 
0.000409283 10.0977 -0.0113607 
-0.0110884 -0.0113607 9.96009 
10.0022 -0.00273647 0.0309756 
-0.00273647 10.006 0.0332124 
0.0309756 0.0332124 10.1232 
9.9881 0.0133625 -0.00211166 
0.0133625 10.0011 0.0176164 
-0.00211166 0.0176164 10.1423 
10.0417 -0.0182348 0.0881163 
-0.0182348 10.0047 -0.0617862 
0.0881163 -0.0617862 10.085 
9.8792 0.085725 0.0648656 
0.085725 10.1018 -0.00708643 
0.0648656 -0.00708643 9.82777 
9.86787 -0.0146608 0.0307385 
-0.0146608 9.9457 0.029889 
0.0307385 0.029889 9.99521 
9.95748 -0.0817612 -0.00500567 
-0.0817612 9.80065 -0.0154289 
-0.00500567 -0.0154289 10.0506 
9.83882 -0.057328 0.030429 
-0.057328 9.94791 0.117858 
0.030429 0.117858 10.022 
9.96052 0.0191764 0.037131 
0.0191764 9.98277 -0.00341977 
0.037131 -0.00341977 9.99498 
9.96235 0.0133722 0.00654665 
0.0133722 9.97931 0.0245909 
0.00654665 0.0245909 9.99661 
9.95783 -0.000563645 -0.00263361 
-0.000563645 9.97229 0.0130777 
-0.00263361 0.0130777 10.0081 
9.93457 0.00639075 -0.00322302 
0.00639075 9.96184 0.0100738 
-0.00322302 0.0100738 10.0419 
9.86945 -0.0207788 0.107261 
-0.0207788 9.83742 -0.0951312 
0.107261 -0.0951312 9.86623 
9.84926 -0.0451514 0.11559 
-0.0451514 9.85372 -0.0655547 
0.11559 -0.0655547 9.87011 
9.81654 0.098465 0.14102 
0.098465 9.8259 -0.1577 
0.14102 -0.1577 9.93064 
9.852 0.0158135 0.0600562 
0.0158135 9.76685 -0.107293 
0.0600562 -0.107293 9.95424 
10.0029 -0.0116359 0.0489104 
-0.0116359 10.0039 -0.141181 
0.0489104 -0.141181 10.6557 
10.0681 0.0056171 -0.0432324 
0.0056171 10.0162 0.0162836 
-0.0432324 0.0162836 10.5781 
10.1567 0.00533104 -0.0549168 
0.00533104 10.0667 0.00622817 
-0.0549168 0.00622817 10.4391 
10.1717 0.0175609 -0.0659203 
0.0175609 10.0065 -0.051671 
-0.0659203 -0.051671 10.4843 
9.75436 -0.0524014 0.115793 
-0.0524014 9.75752 0.126797 
0.115793 0.126797 9.93535 
9.76341 -0.0725936 0.118214 
-0.0725936 9.74892 0.132378 
0.118214 0.132378 9.9349 
9.75542 -0.0447266 0.111234 
-0.0447266 9.74966 0.139229 
0.111234 0.139229 9.94215 
9.75671 -0.0591217 0.115997 
-0.0591217 9.74705 0.132801 
0.115997 0.132801 9.94347 
9.90689 0.0175031 -0.231373 
0.0175031 9.90789 -0.12411 
-0.231373 -0.12411 9.96471 
9.92025 -0.0183257 -0.182923 
-0.0183257 9.91777 -0.127167 
-0.182923 -0.127167 9.94147 
9.91024 -0.0334795 -0.195812 
-0.0334795 9.92125 -0.14094 
-0.195812 -0.14094 9.948 
9.89474 -0.00696898 -0.19254 
-0.00696898 9.89973 -0.143631 
-0.19254 -0.143631 9.98502 
9.87843 0.0187698 0.14682 
0.0187698 9.96941 -0.200317 
0.14682 -0.200317 9.8532 
9.95268 0.0281774 0.101668 
0.0281774 9.85828 -0.187562 
0.101668 -0.187562 9.89007 
9.95739 0.0306353 0.195569 
0.0306353 9.94232 -0.18734 
0.195569 -0.18734 9.80133 
9.90324 0.0113196 0.141711 
0.0113196 9.91679 -0.225888 
0.141711 -0.225888 9.88101 
9.84655 0.031677 0.0578257 
0.031677 9.86947 -0.149261 
0.0578257 -0.149261 9.99995 
9.68326 0.172657 0.169506 
0.172657 9.84219 -0.462052 
0.169506 -0.462052 10.1905 
9.77855 0.14987 0.288113 
0.14987 9.84354 -0.390556 
0.288113 -0.390556 10.0939 
9.67792 0.215934 0.510775 
0.215934 10.0807 -0.337839 
0.510775 -0.337839 9.95737 
10.0038 -0.150679 0.0469574 
-0.150679 9.77208 0.0632005 
0.0469574 0.0632005 10.1041 
9.93884 -0.156895 0.0270429 
-0.156895 9.70275 0.0745067 
0.0270429 0.0745067 10.2384 
9.90986 -0.100724 0.086081 
-0.100724 9.82918 -0.14574 
0.086081 -0.14574 10.1409 
9.95499 -0.0386896 0.179401 
-0.0386896 9.79787 -0.0572534 
0.179401 -0.0572534 10.1271 
11.7265 -0.0214921 -0.192493 
-0.0214921 10.2215 1.02433 
-0.192493 1.02433 14.6124 
11.5964 -0.233417 -1.22302 
-0.233417 9.62585 0.110947 
-1.22302 0.110947 15.3382 
14.919 0.282193 1.0311 
0.282193 12.4413 1.24563 
1.0311 1.24563 9.20013 
11.3987 -0.6291 1.3207 
-0.6291 11.1117 0.452887 
1.3207 0.452887 14.0501 
9.92873 0.0212602 0.0471204 
0.0212602 9.87147 0.00805976 
0.0471204 0.00805976 9.94494 
9.86123 0.0756256 0.0642009 
0.0756256 9.88525 -0.046066 
0.0642009 -0.046066 9.99866 
9.92172 0.0355327 0.0381233 
0.0355327 9.87819 -0.024278 
0.0381233 -0.024278 9.94523 
9.91172 0.0562896 0.0115874 
0.0562896 9.83054 -0.0353961 
0.0115874 -0.0353961 10.0029 
9.7241 0.237007 -0.301595 
0.237007 9.8421 0.132577 
-0.301595 0.132577 10.0799 
9.77211 0.0912922 -0.174358 
0.0912922 9.80448 0.111694 
-0.174358 0.111694 10.0696 
9.78406 0.147995 -0.261615 
0.147995 9.72616 0.240347 
-0.261615 0.240347 10.1359 
9.74227 0.167813 -0.156702 
0.167813 9.7772 0.218718 
-0.156702 0.218718 10.1267 
10.175 0.0823956 -0.0088318 
0.0823956 10.2984 0.055137 
-0.0088318 0.055137 10.6736 
10.3375 -0.0147219 -0.107517 
-0.0147219 10.1156 0.00217991 
-0.107517 0.00217991 10.694 
10.1746 0.0649641 0.0204659 
0.0649641 10.3174 0.13141 
0.0204659 0.13141 10.655 
10.1935 0.120965 0.0446142 
0.120965 10.3427 0.025191 
0.0446142 0.025191 10.6108 
9.96311 0.0210773 0.140912 
0.0210773 9.95487 -0.198774 
0.140912 -0.198774 9.99256 
9.95441 -0.00682204 0.144371 
-0.00682204 9.94615 -0.197648 
0.144371 -0.197648 10.01 
9.96314 0.0327748 0.148157 
0.0327748 9.94627 -0.199235 
0.148157 -0.199235 10.0011 
9.96785 -0.00414019 0.158915 
-0.00414019 9.95712 -0.214448 
0.158915 -0.214448 9.98556 
9.89642 0.00172093 -0.175027 
0.00172093 9.95084 0.163208 
-0.175027 0.163208 9.9722 
9.94949 0.0295654 -0.174269 
0.0295654 9.88879 0.150795 
-0.174269 0.150795 9.98118 
9.9322 0.0247917 -0.182411 
0.0247917 9.92659 0.169433 
-0.182411 0.169433 9.96066 
9.88855 0.0231462 -0.200839 
0.0231462 9.95399 0.231153 
-0.200839 0.231153 9.97691 
9.8009 0.0269662 -0.194433 
0.0269662 9.8022 0.0540175 
-0.194433 0.0540175 9.83643 
9.71771 0.0372431 -0.244833 
0.0372431 9.84912 0.0731061 
-0.244833 0.0731061 9.87271 
9.88545 0.00775552 -0.183872 
0.00775552 9.77341 0.0447954 
-0.183872 0.0447954 9.78067 
9.76913 0.0554183 -0.16006 
0.0554183 9.80252 0.0849292 
-0.16006 0.0849292 9.86788 
9.95902 -0.0131349 0.228904 
-0.0131349 9.98092 0.0557761 
0.228904 0.0557761 9.96404 
9.95367 -0.00392805 0.225244 
-0.00392805 9.97032 0.0603775 
0.225244 0.0603775 9.97999 
9.91799 0.00415852 0.240454 
0.00415852 9.9665 0.0681878 
0.240454 0.0681878 10.0195 
9.95114 -0.0160206 0.214549 
-0.0160206 9.97476 0.0373758 
0.214549 0.0373758 9.97807 
9.88006 0.0014132 0.196684 
0.0014132 9.90585 -0.0275061 
0.196684 -0.0275061 9.90419 
9.89503 -0.012609 0.238341 
-0.012609 9.9094 -0.019542 
0.238341 -0.019542 9.88567 
9.93092 -0.0379573 0.250607 
-0.0379573 9.97735 0.00787121 
0.250607 0.00787121 9.78182 
9.88438 -0.0399762 0.227282 
-0.0399762 9.9968 -0.0150325 
0.227282 -0.0150325 9.80891 
9.36286 -0.134337 0.773865 
-0.134337 9.93828 1.03626 
0.773865 1.03626 9.71666 
9.38295 -0.0296166 0.410131 
-0.0296166 9.4436 0.795211 
0.410131 0.795211 10.1912 
9.69743 0.00533269 0.329589 
0.00533269 9.45209 0.480925 
0.329589 0.480925 9.86827 
9.29906 -0.168369 0.478483 
-0.168369 10.0379 1.05497 
0.478483 1.05497 9.68083 
10.1892 -0.155177 -0.514535 
-0.155177 9.85447 -0.517714 
-0.514535 -0.517714 9.68651 
10.1899 -0.0499012 -0.609557 
-0.0499012 9.84943 -0.298937 
-0.609557 -0.298937 9.6909 
10.0489 -0.151471 -0.615791 
-0.151471 9.87623 -0.602162 
-0.615791 -0.602162 9.80509 
10.1378 -0.130611 -0.403084 
-0.130611 9.69116 -0.30282 
-0.403084 -0.30282 9.90127 
9.83472 -0.00448481 -0.115346 
-0.00448481 9.36426 0.26235 
-0.115346 0.26235 9.53565 
9.60714 0.216759 -0.372311 
0.216759 9.53025 0.392199 
-0.372311 0.392199 9.59724 
10.0061 0.254319 -0.411574 
0.254319 9.3646 0.544251 
-0.411574 0.544251 9.36391 
9.97933 0.358726 -0.322771 
0.358726 9.26348 0.573912 
-0.322771 0.573912 9.49181 
11.4787 0.593159 -1.41057 
0.593159 7.95544 1.38851 
-1.41057 1.38851 11.2177 
10.0518 1.37925 -0.257515 
1.37925 10.0268 1.15124 
-0.257515 1.15124 10.5732 
11.5476 0.532946 -0.613298 
0.532946 8.71867 1.33737 
-0.613298 1.33737 10.3856 
10.4064 0.349623 -0.128441 
0.349623 9.46143 2.17811 
-0.128441 2.17811 10.7841 
9.6825 0.134692 0.21631 
0.134692 9.59802 -0.221678 
0.21631 -0.221678 9.97127 
9.65158 0.144043 0.212804 
0.144043 9.60399 -0.228968 
0.212804 -0.228968 9.99623 
9.68696 0.134038 0.189882 
0.134038 9.57462 -0.1857 
0.189882 -0.1857 9.99021 
9.70805 0.0362832 0.247046 
0.0362832 9.6135 -0.251478 
0.247046 -0.251478 9.93024 
9.67358 -0.429328 -0.506946 
-0.429328 8.64983 0.14487 
-0.506946 0.14487 7.85969 
10.0473 0.380001 -0.99335 
0.380001 7.80931 0.390265 
-0.99335 0.390265 8.32645 
9.63202 0.424252 -0.788253 
0.424252 8.51684 0.217751 
-0.788253 0.217751 8.03424 
9.53836 0.823354 -0.993666 
0.823354 8.82008 -0.0834602 
-0.993666 -0.0834602 7.82467 
9.92189 -0.0193506 0.23014 
-0.0193506 9.91498 0.1168 
0.23014 0.1168 9.96654 
9.92828 -0.0304069 0.206093 
-0.0304069 9.91573 0.113542 
0.206093 0.113542 9.9594 
9.93413 -0.0272317 0.208428 
-0.0272317 9.92717 0.117852 
0.208428 0.117852 9.9421 
9.92129 -0.0194262 0.233292 
-0.0194262 9.93045 0.115861 
0.233292 0.115861 9.95167 
9.71886 -0.0815384 0.10431 
-0.0815384 9.78225 0.101443 
0.10431 0.101443 9.94074 
9.71432 -0.112446 0.0984215 
-0.112446 9.69958 0.0938935 
0.0984215 0.0938935 10.028 
9.76067 -0.0762215 0.0108259 
-0.0762215 9.73045 0.111527 
0.0108259 0.111527 9.95073 
9.71674 -0.150823 0.0923868 
-0.150823 9.72332 0.105539 
0.0923868 0.105539 10.0018 
9.44461 0.425608 0.401729 
0.425608 9.07853 -1.13248 
0.401729 -1.13248 13.6352 
11.7153 -0.1073 -0.248012 
-0.1073 10.2863 0.723528 
-0.248012 0.723528 10.1568 
10.9494 -0.82215 -0.0892037 
-0.82215 11.6827 1.07248 
-0.0892037 1.07248 9.52616 
11.6182 0.370969 -0.0263439 
0.370969 8.03814 1.88568 
-0.0263439 1.88568 12.502 
9.92557 0.0159233 0.0671322 
0.0159233 9.88526 -0.220824 
0.0671322 -0.220824 9.93408 
9.95674 -0.000492262 0.0667979 
-0.000492262 9.85158 -0.23354 
0.0667979 -0.23354 9.93659 
9.95567 0.0239508 0.0411662 
0.0239508 9.89311 -0.27768 
0.0411662 -0.27768 9.89613 
9.93451 0.00884937 0.0834672 
0.00884937 9.86427 -0.238192 
0.0834672 -0.238192 9.94613 
9.81802 0.0601922 0.464735 
0.0601922 9.65914 -0.266883 
0.464735 -0.266883 10.1399 
9.74702 0.0631331 0.447671 
0.0631331 9.67091 -0.229948 
0.447671 -0.229948 10.1992 
9.78433 0.149764 0.495284 
0.149764 9.8388 -0.242865 
0.495284 -0.242865 9.99397 
9.83926 0.0471412 0.357971 
0.0471412 9.64207 -0.337215 
0.357971 -0.337215 10.1358 
10.0835 0.0857314 -0.180857 
0.0857314 9.99798 -0.100293 
-0.180857 -0.100293 8.81169 
9.97588 -0.0203713 -0.0926694 
-0.0203713 9.802 -0.247518 
-0.0926694 -0.247518 9.1153 
9.90379 -0.162745 -0.160393 
-0.162745 9.98328 -0.452946 
-0.160393 -0.452946 9.0061 
9.96029 0.0664057 -0.16921 
0.0664057 9.82242 -0.27237 
-0.16921 -0.27237 9.11046 
9.81567 -0.0300477 0.132992 
-0.0300477 9.81278 0.14404 
0.132992 0.14404 9.93543 
9.80495 -0.0594383 0.152917 
-0.0594383 9.81362 0.154292 
0.152917 0.154292 9.94532 
9.80224 -0.0292591 0.156965 
-0.0292591 9.78283 0.155767 
0.156965 0.155767 9.97881 
9.80105 0.0291675 0.170694 
0.0291675 9.83935 0.2054 
0.170694 0.2054 9.92348 
2.11275 -7.2112 -1.06239 
-7.2112 10.0801 1.20306 
-1.06239 1.20306 23.7174 
11.7712 -1.25218 1.19732 
-1.25218 12.7393 -1.41465 
1.19732 -1.41465 11.3998 
13.555 -1.37611 2.60593 
-1.37611 10.7725 1.15488 
2.60593 1.15488 11.5828 
13.6062 -1.72932 -2.55229 
-1.72932 11.4352 -0.316957 
-2.55229 -0.316957 10.8688 
9.87424 -0.0179271 0.192375 
-0.0179271 9.88757 0.110671 
0.192375 0.110671 9.93236 
9.88074 -0.0263321 0.191138 
-0.0263321 9.87887 0.104622 
0.191138 0.104622 9.93456 
9.86795 -0.0179364 0.196008 
-0.0179364 9.88034 0.111764 
0.196008 0.111764 9.94588 
9.8807 -0.0206649 0.195379 
-0.0206649 9.87841 0.110876 
0.195379 0.110876 9.93506 
9.50215 0.16168 0.417948 
0.16168 9.85908 -0.209731 
0.417948 -0.209731 10.246 
10.1735 0.246455 0.0107064 
0.246455 9.59916 -0.183656 
0.0107064 -0.183656 9.83456 
9.80365 0.304852 0.674978 
0.304852 9.98732 -0.332765 
0.674978 -0.332765 9.81629 
9.47313 0.271919 0.438256 
0.271919 9.61459 -0.316313 
0.438256 -0.316313 10.5195 
9.80494 0.0438053 -0.126461 
0.0438053 9.85334 -0.165389 
-0.126461 -0.165389 9.84026 
9.80722 -0.0165486 -0.130634 
-0.0165486 9.83537 -0.151029 
-0.130634 -0.151029 9.85595 
9.82388 -0.0701569 -0.101546 
-0.0701569 9.74089 -0.123236 
-0.101546 -0.123236 9.93377 
9.75694 -0.0455548 -0.114077 
-0.0455548 9.83044 -0.194876 
-0.114077 -0.194876 9.91116 
9.81988 0.0543492 0.0828291 
0.0543492 9.74807 -0.131771 
0.0828291 -0.131771 9.94651 
9.78659 0.0832078 0.144852 
0.0832078 9.75582 -0.172133 
0.144852 -0.172133 9.97204 
9.84317 0.191914 0.118797 
0.191914 9.57465 -0.158888 
0.118797 -0.158888 10.0966 
9.77855 0.0265388 0.127584 
0.0265388 9.78081 -0.224009 
0.127584 -0.224009 9.95511 
10.0046 0.28517 0.0811024 
0.28517 10.2229 0.0352964 
0.0811024 0.0352964 10.3289 
10.1453 0.197644 0.158469 
0.197644 10.1339 -0.0922692 
0.158469 -0.0922692 10.2773 
10.0879 0.0437953 0.021392 
0.0437953 9.99025 0.131827 
0.021392 0.131827 10.4783 
10.079 0.200949 0.0668937 
0.200949 10.1662 0.0116376 
0.0668937 0.0116376 10.3112 
9.71673 7.30748 1.45835 
7.30748 1.87608 1.10982 
1.45835 1.10982 24.8676 
12.9558 1.49798 -1.52426 
1.49798 11.9271 -1.36115 
-1.52426 -1.36115 11.5775 
11.2843 1.67487 1.12566 
1.67487 13.5487 -2.81957 
1.12566 -2.81957 11.6274 
11.6894 2.06292 -0.284177 
2.06292 14.0393 2.8464 
-0.284177 2.8464 10.7317 
9.80466 -0.0478811 -0.164252 
-0.0478811 9.81087 -0.0923381 
-0.164252 -0.0923381 9.86869 
9.79153 -0.0445042 -0.166778 
-0.0445042 9.81505 -0.0726041 
-0.166778 -0.0726041 9.87763 
9.84865 0.0284721 -0.145493 
0.0284721 9.78362 -0.0780773 
-0.145493 -0.0780773 9.85195 
9.79407 -0.0148764 -0.190104 
-0.0148764 9.83228 -0.0844329 
-0.190104 -0.0844329 9.85787 
10.0209 -0.0533437 0.00826429 
-0.0533437 9.93794 0.0619735 
0.00826429 0.0619735 10.0788 
10.0166 -0.0802063 -0.00114861 
-0.0802063 10.0772 0.110092 
-0.00114861 0.110092 9.94384 
9.96811 -0.019513 0.0229423 
-0.019513 9.92255 -0.00701674 
0.0229423 -0.00701674 10.1469 
10.0434 -0.0333122 -0.00106011 
-0.0333122 9.8918 0.107673 
-0.00106011 0.107673 10.1024 
9.8922 -0.00515789 0.00865749 
-0.00515789 9.93295 -0.219502 
0.00865749 -0.219502 9.9391 
9.92438 0.00736554 0.0199195 
0.00736554 9.90103 -0.249946 
0.0199195 -0.249946 9.93884 
9.94288 0.0208911 0.00436213 
0.0208911 9.91393 -0.227761 
0.00436213 -0.227761 9.90744 
9.91776 0.00383071 0.0212159 
0.00383071 9.90856 -0.241591 
0.0212159 -0.241591 9.93793 
9.8533 0.128995 0.163046 
0.128995 9.83745 -0.174919 
0.163046 -0.174919 10.3411 
9.82263 0.194495 0.0496904 
0.194495 9.72573 -0.236239 
0.0496904 -0.236239 10.4835 
9.80785 0.286681 0.0663468 
0.286681 9.75723 -0.337171 
0.0663468 -0.337171 10.4667 
10.0883 0.117594 -0.0041545 
0.117594 9.33874 -0.136956 
-0.0041545 -0.136956 10.6047 
10.1813 0.0978855 0.0133927 
0.0978855 10.4089 -0.249727 
0.0133927 -0.249727 9.65702 
10.0125 0.0133812 0.0413148 
0.0133812 10.0367 -0.100132 
0.0413148 -0.100132 10.1979 
9.89806 0.0685071 0.0459525 
0.0685071 9.87046 0.135011 
0.0459525 0.135011 10.4787 
10.1183 -0.0171135 -0.0532405 
-0.0171135 9.77912 -0.221837 
-0.0532405 -0.221837 10.3497 
9.94167 0.00197715 0.128122 
0.00197715 9.93427 -0.185923 
0.128122 -0.185923 9.99465 
9.94153 0.0192167 0.121838 
0.0192167 9.95205 -0.184046 
0.121838 -0.184046 9.977 
9.94239 -0.00640004 0.147301 
-0.00640004 9.95094 -0.220377 
0.147301 -0.220377 9.97725 
9.9547 0.0124204 0.154106 
0.0124204 9.94699 -0.206541 
0.154106 -0.206541 9.96889 
9.92424 -0.0179847 -0.0306002 
-0.0179847 9.80314 -0.0351096 
-0.0306002 -0.0351096 9.91904 
9.88124 -0.0341835 -0.0558694 
-0.0341835 9.82915 -0.0242021 
-0.0558694 -0.0242021 9.93604 
9.88288 -0.036894 -0.0445359 
-0.036894 9.84248 -0.0335375 
-0.0445359 -0.0335375 9.92107 
9.87877 -0.0203853 -0.0434605 
-0.0203853 9.82653 -0.00838622 
-0.0434605 -0.00838622 9.94113 
9.94528 0.00975965 -0.00636407 
0.00975965 9.76894 0.254319 
-0.00636407 0.254319 9.8742 
9.89554 0.00742237 -0.00393139 
0.00742237 9.77531 0.241733 
-0.00393139 0.241733 9.91757 
9.96279 -0.0277505 0.0324086 
-0.0277505 9.77338 0.238627 
0.0324086 0.238627 9.85224 
9.95171 0.0193882 -0.0387528 
0.0193882 9.78343 0.287736 
-0.0387528 0.287736 9.85328 
7.19867 -1.02396 -0.535708 
-1.02396 11.1156 0.79438 
-0.535708 0.79438 2.09157 
9.33192 -1.60962 0.281929 
-1.60962 7.56987 2.05315 
0.281929 2.05315 3.50403 
8.80688 -1.21557 1.5756 
-1.21557 8.84683 2.15372 
1.5756 2.15372 2.75211 
5.54536 0.393126 2.27619 
0.393126 10.5469 2.1423 
2.27619 2.1423 4.31356 
5.01912 0.0407518 -0.825218 
0.0407518 5.64264 0.421472 
-0.825218 0.421472 1.60417 
8.71863 0.769262 -0.207853 
0.769262 5.53536 -0.394127 
-0.207853 -0.394127 -1.98807 
5.27429 0.530052 -0.734604 
0.530052 2.62463 1.31462 
-0.734604 1.31462 4.36701 
7.74649 -0.493318 -3.99888 
-0.493318 4.3206 3.45654 
-3.99888 3.45654 0.198838 
9.94099 -0.0603121 0.135884 
-0.0603121 9.77528 0.279407 
0.135884 0.279407 9.79333 
9.97243 -0.0211466 0.0418515 
-0.0211466 9.75556 0.253955 
0.0418515 0.253955 9.78161 
9.77166 0.0128567 0.0889355 
0.0128567 9.84333 0.260312 
0.0889355 0.260312 9.89462 
9.98167 -0.0349672 0.175338 
-0.0349672 9.78377 0.260389 
0.175338 0.260389 9.74416 
9.94235 0.00836229 0.222619 
0.00836229 9.86279 -0.338086 
0.222619 -0.338086 9.81481 
9.90231 0.00154085 0.114899 
0.00154085 9.88175 -0.232295 
0.114899 -0.232295 9.8359 
9.90589 0.00983525 0.14379 
0.00983525 9.86488 -0.239837 
0.14379 -0.239837 9.84918 
9.85219 0.0192203 0.174609 
0.0192203 9.87125 -0.14797 
0.174609 -0.14797 9.89651 
9.80153 0.0314244 0.119041 
0.0314244 9.51891 -0.37093 
0.119041 -0.37093 9.649 
9.84782 0.0613774 0.332203 
0.0613774 9.61253 -0.354742 
0.332203 -0.354742 9.50909 
10.077 0.126658 0.43716 
0.126658 9.67424 -0.284983 
0.43716 -0.284983 9.21818 
9.75139 0.053931 0.390351 
0.053931 9.62504 -0.377066 
0.390351 -0.377066 9.59301 
11.2954 0.350236 1.0092 
0.350236 9.0405 -0.284341 
1.0092 -0.284341 7.84691 
10.4505 0.143687 0.986021 
0.143687 9.18543 0.111169 
0.986021 0.111169 8.54691 
9.38229 1.13957 1.73493 
1.13957 9.41396 0.206787 
1.73493 0.206787 9.38657 
10.7986 -0.601597 0.0145861 
-0.601597 9.22724 0.936917 
0.0145861 0.936917 8.15696 
9.89952 -0.0395209 -0.176367 
-0.0395209 9.86727 -0.245709 
-0.176367 -0.245709 9.8399 
9.90879 0.0027832 -0.140632 
0.0027832 9.84471 -0.232878 
-0.140632 -0.232878 9.85319 
9.92916 -0.0196289 -0.180586 
-0.0196289 9.82173 -0.236904 
-0.180586 -0.236904 9.8558 
9.87334 -0.0342184 -0.131948 
-0.0342184 9.8634 -0.223636 
-0.131948 -0.223636 9.86994 
9.81589 -0.0438797 -0.0545889 
-0.0438797 9.87351 0.12156 
-0.0545889 0.12156 9.8959 
9.84841 -0.0826015 -0.0798856 
-0.0826015 9.87799 0.0757985 
-0.0798856 0.0757985 9.8589 
9.85546 0.171856 -0.0628506 
0.171856 9.76989 0.0196093 
-0.0628506 0.0196093 9.95995 
9.85382 -0.0275479 -0.16258 
-0.0275479 9.75525 0.139944 
-0.16258 0.139944 9.97623 
10.899 0.586254 0.276915 
0.586254 8.15915 -2.19261 
0.276915 -2.19261 6.50739 
10.3717 0.449158 -2.2856 
0.449158 7.38828 -2.03997 
-2.2856 -2.03997 7.80557 
8.8326 -1.11046 1.58423 
-1.11046 8.91723 -1.00076 
1.58423 -1.00076 7.81574 
10.4587 0.760371 0.465398 
0.760371 8.20602 -2.84654 
0.465398 -2.84654 6.90083 
11.8393 4.49345 0.450205 
4.49345 5.34336 0.969103 
0.450205 0.969103 14.8903 
10.444 0.285173 -0.53654 
0.285173 9.67142 1.70116 
-0.53654 1.70116 11.9575 
10.3594 -0.071576 0.667947 
-0.071576 10.4186 0.03252 
0.667947 0.03252 11.2949 
9.93457 1.13736 -0.934062 
1.13736 10.3092 1.11833 
-0.934062 1.11833 11.8292 
10.0365 -0.281481 -0.290973 
-0.281481 10.7703 -0.0540083 
-0.290973 -0.0540083 10.3151 
10.324 0.220156 -0.0487317 
0.220156 10.1719 0.0398581 
-0.0487317 0.0398581 10.626 
10.3955 0.462922 -0.0695715 
0.462922 9.89521 0.357676 
-0.0695715 0.357676 10.8312 
10.3674 0.0436103 0.140119 
0.0436103 9.90314 -0.0735027 
0.140119 -0.0735027 10.8514 
10.223 0.249266 0.147439 
0.249266 10.1745 -0.0370721 
0.147439 -0.0370721 10.1836 
10.059 0.125597 0.128196 
0.125597 10.1599 0.0253921 
0.128196 0.0253921 10.3621 
10.0423 -0.0998825 -0.00526254 
-0.0998825 10.1891 0.0485327 
-0.00526254 0.0485327 10.3497 
9.90337 -0.00949386 0.243793 
-0.00949386 10.345 0.0128416 
0.243793 0.0128416 10.3327 
9.8363 0.15632 0.236409 
0.15632 9.83159 -0.284292 
0.236409 -0.284292 9.91591 
9.69032 0.0959042 0.189873 
0.0959042 9.90172 -0.296616 
0.189873 -0.296616 9.99176 
9.68261 0.127322 0.27549 
0.127322 9.87006 -0.375357 
0.27549 -0.375357 10.0311 
9.53626 0.184229 0.357043 
0.184229 10.035 -0.35668 
0.357043 -0.35668 10.0125 
9.8915 0.0194378 -0.0708204 
0.0194378 9.93048 0.0199377 
-0.0708204 0.0199377 10.0239 
9.88818 -0.0155838 -0.0558101 
-0.0155838 9.9455 0.0155585 
-0.0558101 0.0155585 10.0122 
9.91006 0.0297683 -0.0179532 
0.0297683 9.91397 0.00238469 
-0.0179532 0.00238469 10.0219 
9.87782 0.0286515 0.00146837 
0.0286515 9.95329 0.0240455 
0.00146837 0.0240455 10.0148 
9.93193 0.00362148 0.0479575 
0.00362148 9.93646 -0.218195 
0.0479575 -0.218195 9.99966 
9.94926 0.021745 0.0404447 
0.021745 9.94151 -0.223265 
0.0404447 -0.223265 9.97728 
9.95439 -0.00371649 0.0546486 
-0.00371649 9.94436 -0.254871 
0.0546486 -0.254871 9.9693 
9.96703 0.00806985 0.0643981 
0.00806985 9.94251 -0.249194 
0.0643981 -0.249194 9.95851 
9.96242 0.0164705 0.20725 
0.0164705 10.0087 0.0817215 
0.20725 0.0817215 10.0153 
9.97908 -0.00866209 0.216832 
-0.00866209 10 0.0780591 
0.216832 0.0780591 10.0074 
10.0009 -0.00780851 0.231889 
-0.00780851 10.0066 0.0849004 
0.231889 0.0849004 9.979 
9.96752 -0.018452 0.231064 
-0.018452 10.0124 0.0713532 
0.231064 0.0713532 10.0066 
9.92622 -0.00673936 -0.0591649 
-0.00673936 9.91565 -0.219462 
-0.0591649 -0.219462 9.94782 
9.93563 -0.00944318 -0.0546906 
-0.00944318 9.91842 -0.231937 
-0.0546906 -0.231937 9.93563 
9.92459 -0.0262327 -0.0553506 
-0.0262327 9.91303 -0.23876 
-0.0553506 -0.23876 9.95207 
9.93922 -0.0176121 -0.050184 
-0.0176121 9.89945 -0.213135 
-0.050184 -0.213135 9.95101 
10.3886 1.1788 -0.844401 
1.1788 10.379 0.385613 
-0.844401 0.385613 10.602 
10.5529 1.24374 0.852824 
1.24374 9.69777 -0.0377638 
0.852824 -0.0377638 11.1189 
10.3144 -1.04175 -0.610492 
-1.04175 9.66579 0.526912 
-0.610492 0.526912 11.3894 
10.6959 -0.888706 0.799957 
-0.888706 10.2471 -0.121755 
0.799957 -0.121755 10.4266 
9.88072 0.0198748 -0.08398 
0.0198748 9.77005 0.233825 
-0.08398 0.233825 9.86542 
9.87419 -0.00593718 -0.0304331 
-0.00593718 9.75511 0.260546 
-0.0304331 0.260546 9.8869 
9.88918 0.0192675 -0.0482796 
0.0192675 9.74999 0.267484 
-0.0482796 0.267484 9.87702 
9.94226 0.0304442 -0.0485901 
0.0304442 9.74178 0.26991 
-0.0485901 0.26991 9.83216 
9.96533 0.149038 0.0645646 
0.149038 9.60021 -0.455318 
0.0645646 -0.455318 10.645 
9.86899 0.242685 0.1103 
0.242685 9.74031 -0.255085 
0.1103 -0.255085 10.6012 
9.84891 0.0520697 -0.0610057 
0.0520697 9.50602 -0.227011 
-0.0610057 -0.227011 10.8556 
9.86882 -0.0036725 0.0599517 
-0.0036725 9.30837 -0.194116 
0.0599517 -0.194116 11.0334 
9.96413 0.00150134 -0.095662 
0.00150134 9.95382 0.220925 
-0.095662 0.220925 9.98875 
9.96822 0.00815035 -0.101196 
0.00815035 9.94886 0.216423 
-0.101196 0.216423 9.98962 
9.97106 0.00195333 -0.10149 
0.00195333 9.94695 0.222916 
-0.10149 0.222916 9.98869 
9.97134 0.000399868 -0.0930966 
0.000399868 9.95931 0.227246 
-0.0930966 0.227246 9.97606 
9.8493 0.0686956 0.138358 
0.0686956 9.77398 -0.10499 
0.138358 -0.10499 10.2514 
9.79989 0.125917 0.0900017 
0.125917 9.79404 -0.118428 
0.0900017 -0.118428 10.2807 
9.86511 0.0477863 0.116094 
0.0477863 9.82449 -0.0746058 
0.116094 -0.0746058 10.185 
9.80631 0.103125 0.143084 
0.103125 9.80913 -0.181099 
0.143084 -0.181099 10.2592 
9.86252 -0.0579412 -0.294618 
-0.0579412 9.30543 -0.677937 
-0.294618 -0.677937 10.6627 
9.62326 0.0039601 0.0587484 
0.0039601 10.1229 -0.268567 
0.0587484 -0.268567 10.0845 
9.99193 0.0237818 -0.0682185 
0.0237818 9.70057 -0.243447 
-0.0682185 -0.243447 10.1382 
9.90376 -0.277657 0.0289193 
-0.277657 9.11919 -0.456216 
0.0289193 -0.456216 10.8077 
9.9277 -0.00309938 0.0905132 
-0.00309938 9.96151 0.245477 
0.0905132 0.245477 10.0149 
9.9863 -0.0164508 0.0684439 
-0.0164508 9.96146 0.237252 
0.0684439 0.237252 9.95634 
9.95977 -0.00859365 0.0844457 
-0.00859365 9.95809 0.223746 
0.0844457 0.223746 9.98624 
9.99151 0.000231101 0.073969 
0.000231101 9.96898 0.23018 
0.073969 0.23018 9.94361 
9.79091 -0.0343246 0.143779 
-0.0343246 9.78764 0.106334 
0.143779 0.106334 9.96621 
9.81433 -0.0380651 0.161222 
-0.0380651 9.81093 0.10258 
0.161222 0.10258 9.91951 
9.81774 -0.0351929 0.15455 
-0.0351929 9.80771 0.0967815 
0.15455 0.0967815 9.91931 
9.80399 -0.0379799 0.172282 
-0.0379799 9.8252 0.0946559 
0.172282 0.0946559 9.91557 
4.35373 0.128742 0.469195 
0.128742 4.7813 -0.114927 
0.469195 -0.114927 0.790239 
2.97254 0.164121 -0.0144349 
0.164121 5.4509 -0.538301 
-0.0144349 -0.538301 1.50183 
3.19437 0.610006 0.166546 
0.610006 5.63194 -0.674455 
0.166546 -0.674455 1.09895 
2.67443 0.267554 0.16551 
0.267554 5.15553 -0.99505 
0.16551 -0.99505 2.09531 
9.79478 0.125578 0.106795 
0.125578 9.81621 -0.0820702 
0.106795 -0.0820702 10.1885 
9.80463 0.0592412 0.0955963 
0.0592412 9.8252 -0.138651 
0.0955963 -0.138651 10.1696 
9.81564 0.116707 0.150246 
0.116707 9.81046 -0.177887 
0.150246 -0.177887 10.1733 
9.80682 0.08059 0.101807 
0.08059 9.85669 -0.145753 
0.101807 -0.145753 10.1359 
9.77029 -0.0138509 0.228938 
-0.0138509 9.89277 -0.0832292 
0.228938 -0.0832292 9.78965 
9.67602 -0.00355732 0.348574 
-0.00355732 9.96521 -0.0987119 
0.348574 -0.0987119 9.81149 
9.6533 0.0717152 0.285734 
0.0717152 9.93804 -0.146757 
0.285734 -0.146757 9.86138 
9.6886 0.0611694 0.308726 
0.0611694 9.93443 -0.135436 
0.308726 -0.135436 9.82969 
9.71835 0.275198 0.156743 
0.275198 9.81634 -0.135449 
0.156743 -0.135449 10.046 
9.90981 0.230236 0.149279 
0.230236 9.64751 -0.309328 
0.149279 -0.309328 10.0233 
9.66358 0.247161 0.191904 
0.247161 9.89614 -0.230276 
0.191904 -0.230276 10.0209 
9.91918 0.18104 0.315356 
0.18104 9.74712 -0.320097 
0.315356 -0.320097 9.91433 
9.67662 0.105957 0.201896 
0.105957 9.65037 -0.219458 
0.201896 -0.219458 10.044 
9.69381 0.086949 0.227986 
0.086949 9.64313 -0.233068 
0.227986 -0.233068 10.0341 
9.71607 0.0863993 0.231563 
0.0863993 9.70151 -0.19835 
0.231563 -0.19835 9.95342 
9.57004 0.200405 0.248853 
0.200405 9.74597 -0.373633 
0.248853 -0.373633 10.055 
9.81694 -0.425705 0.125315 
-0.425705 9.39608 -0.134908 
0.125315 -0.134908 10.743 
10.0685 -0.279993 -0.288951 
-0.279993 9.80806 0.315037 
-0.288951 0.315037 10.0795 
9.72138 -0.356346 -0.0853198 
-0.356346 9.67044 -0.411212 
-0.0853198 -0.411212 10.5642 
10.1923 -0.796817 -0.47514 
-0.796817 9.45731 -0.613906 
-0.47514 -0.613906 10.3064 
9.81393 -0.0938221 0.022142 
-0.0938221 9.79323 0.0762859 
0.022142 0.0762859 10.1145 
9.89045 -0.111917 0.0280109 
-0.111917 9.84407 0.104776 
0.0280109 0.104776 9.98709 
9.86453 -0.101174 0.0247476 
-0.101174 9.85967 0.0811707 
0.0247476 0.0811707 9.99742 
9.86322 -0.0790638 0.0372496 
-0.0790638 9.84714 0.0963743 
0.0372496 0.0963743 10.0113 
6.58654 -0.791889 1.72615 
-0.791889 8.17919 0.304501 
1.72615 0.304501 1.32041 
6.92759 -0.477702 0.458253 
-0.477702 7.4384 0.178869 
0.458253 0.178869 1.72014 
6.77244 -1.4463 0.284798 
-1.4463 7.74473 1.19052 
0.284798 1.19052 1.56897 
6.19021 -0.190112 1.68284 
-0.190112 7.20121 0.81915 
1.68284 0.81915 2.69471 
9.7991 -0.00371306 -0.334962 
-0.00371306 9.94764 0.0431716 
-0.334962 0.0431716 9.65939 
9.73994 0.0353755 -0.236022 
0.0353755 9.86153 0.0907404 
-0.236022 0.0907404 9.80465 
9.85777 0.0293137 -0.328324 
0.0293137 10.0486 0.206314 
-0.328324 0.206314 9.49971 
9.74331 0.0671063 -0.317025 
0.0671063 9.94305 0.032321 
-0.317025 0.032321 9.71977 
9.89568 -0.00521412 0.163778 
-0.00521412 9.92026 -0.198831 
0.163778 -0.198831 9.33414 
9.86892 0.0177845 0.128197 
0.0177845 9.90673 -0.235165 
0.128197 -0.235165 9.37442 
9.81525 0.0122506 0.230327 
0.0122506 9.96785 -0.226567 
0.230327 -0.226567 9.36698 
10.1502 0.0321299 0.212573 
0.0321299 9.84129 -0.15963 
0.212573 -0.15963 9.1586 
9.99876 -0.0498762 0.140417 
-0.0498762 9.90314 0.24117 
0.140417 0.24117 9.80986 
9.93141 -0.0221875 0.17162 
-0.0221875 9.8955 0.223585 
0.17162 0.223585 9.88485 
9.92593 -0.00945282 0.134252 
-0.00945282 9.89064 0.20565 
0.134252 0.20565 9.89519 
9.90067 -0.0284145 0.201079 
-0.0284145 9.91475 0.21738 
0.201079 0.21738 9.89633 
9.92485 -0.0016479 0.236569 
-0.0016479 9.96011 0.0704819 
0.236569 0.0704819 9.97753 
9.91701 -0.000506409 0.225261 
-0.000506409 9.9743 0.0813454 
0.225261 0.0813454 9.97118 
9.95271 -0.0100103 0.213596 
-0.0100103 9.93891 0.0906139 
0.213596 0.0906139 9.97088 
9.95 0.00851846 0.271231 
0.00851846 9.9388 0.0574299 
0.271231 0.0574299 9.97369 
9.85916 0.0284434 0.0556352 
0.0284434 9.75943 -0.248631 
0.0556352 -0.248631 9.88196 
9.82747 0.031858 0.0726536 
0.031858 9.7724 -0.248637 
0.0726536 -0.248637 9.90068 
9.85646 0.0158774 0.0567677 
0.0158774 9.77147 -0.260638 
0.0567677 -0.260638 9.87263 
9.86372 0.0273191 0.0760174 
0.0273191 9.78947 -0.242628 
0.0760174 -0.242628 9.84736 
9.54549 -0.0124196 0.431038 
-0.0124196 9.65252 0.463335 
0.431038 0.463335 10.0784 
9.62764 -0.269022 -0.101918 
-0.269022 9.82193 0.742516 
-0.101918 0.742516 9.8268 
9.38799 -0.0237525 0.358852 
-0.0237525 9.5686 0.684383 
0.358852 0.684383 10.3198 
9.60475 -0.227019 -0.094786 
-0.227019 9.68698 0.551912 
-0.094786 0.551912 9.98465 
9.81856 -0.00990942 0.228067 
-0.00990942 9.90298 0.0375847 
0.228067 0.0375847 9.5271 
9.85635 -0.00348425 0.191853 
-0.00348425 9.89679 0.0113237 
0.191853 0.0113237 9.4955 
9.87377 0.00892696 0.266361 
0.00892696 9.95896 -0.0800472 
0.266361 -0.0800472 9.41592 
9.75102 0.0230095 0.221287 
0.0230095 9.84908 -0.124482 
0.221287 -0.124482 9.64854 
9.7653 0.107495 -0.099891 
0.107495 9.79488 0.0983445 
-0.099891 0.0983445 9.95645 
9.82096 -0.0396297 -0.147228 
-0.0396297 9.8422 0.158659 
-0.147228 0.158659 9.85347 
9.87091 -0.0329981 -0.134537 
-0.0329981 9.83916 0.155907 
-0.134537 0.155907 9.80655 
9.82899 0.0244035 -0.221467 
0.0244035 9.73888 0.161279 
-0.221467 0.161279 9.94876 
9.77737 0.0873287 -0.0293323 
0.0873287 9.64728 0.101976 
-0.0293323 0.101976 9.89919 
9.72961 0.0998514 -0.0297212 
0.0998514 9.70594 0.153172 
-0.0297212 0.153172 9.88829 
9.71062 0.0126352 -0.120251 
0.0126352 9.70887 0.146967 
-0.120251 0.146967 9.90435 
9.7408 0.0890406 -0.0613778 
0.0890406 9.67741 0.126473 
-0.0613778 0.126473 9.90562 
9.82974 0.0339433 0.0925904 
0.0339433 9.83505 -0.104868 
0.0925904 -0.104868 9.91547 
9.82334 0.050827 0.10933 
0.050827 9.81407 -0.131532 
0.10933 -0.131532 9.94284 
9.75699 0.0339456 0.0852732 
0.0339456 9.76239 -0.0977573 
0.0852732 -0.0977573 10.0609 
9.80802 0.0345811 0.120952 
0.0345811 9.81829 -0.12541 
0.120952 -0.12541 9.95395 
9.80772 -0.0503466 -0.0353505 
-0.0503466 9.62262 -0.234263 
-0.0353505 -0.234263 9.8375 
9.85111 -0.0474746 -0.0694508 
-0.0474746 9.6201 -0.239113 
-0.0694508 -0.239113 9.79663 
9.78502 0.0253383 -0.0516435 
0.0253383 9.65139 -0.238562 
-0.0516435 -0.238562 9.83143 
9.82932 -0.0565901 -0.0304352 
-0.0565901 9.63308 -0.254051 
-0.0304352 -0.254051 9.80544 
9.97515 0.00143196 -0.00405525 
0.00143196 9.94536 0.231225 
-0.00405525 0.231225 9.99635 
9.97253 0.00296955 0.00233147 
0.00296955 9.966 0.24124 
0.00233147 0.24124 9.97833 
9.96741 -0.00696697 0.00516109 
-0.00696697 9.95576 0.235981 
0.00516109 0.235981 9.99369 
9.97754 -0.00730528 0.00777955 
-0.00730528 9.96207 0.247428 
0.00777955 0.247428 9.97725 
9.8473 0.0287159 0.00905264 
0.0287159 9.66007 -0.128326 
0.00905264 -0.128326 9.96461 
9.80538 0.125223 0.122401 
0.125223 9.70441 -0.131756 
0.122401 -0.131756 9.96218 
9.70146 0.134737 0.0985245 
0.134737 9.8191 -0.0431523 
0.0985245 -0.0431523 9.95142 
9.92544 0.238138 0.157806 
0.238138 9.51427 -0.248201 
0.157806 -0.248201 10.0323 
9.78833 -0.0295252 0.195956 
-0.0295252 9.82896 0.119379 
0.195956 0.119379 9.92219 
9.78655 -0.0449561 0.200326 
-0.0449561 9.8217 0.107263 
0.200326 0.107263 9.93123 
9.8118 -0.0237366 0.196478 
-0.0237366 9.78908 0.130458 
0.196478 0.130458 9.93859 
9.80202 -0.0332468 0.193298 
-0.0332468 9.8243 0.121415 
0.193298 0.121415 9.91316 
10.1333 -0.57987 0.291031 
-0.57987 10.1095 -0.847481 
0.291031 -0.847481 16.5453 
10.9711 1.65113 -0.634822 
1.65113 13.6976 0.686104 
-0.634822 0.686104 12.1195 
9.71078 3.47169 0.526209 
3.47169 8.03843 -1.14348 
0.526209 -1.14348 19.039 
11.4408 2.21341 0.889983 
2.21341 10.7316 1.14181 
0.889983 1.14181 14.6158 
9.55352 0.105923 -0.135832 
0.105923 9.75523 0.102559 
-0.135832 0.102559 9.84342 
9.4019 0.168208 -0.29835 
0.168208 9.84386 0.0940853 
-0.29835 0.0940853 9.9064 
9.6487 0.117272 -0.264438 
0.117272 9.65713 0.0972061 
-0.264438 0.0972061 9.84634 
9.46645 0.212881 -0.301461 
0.212881 9.82277 -0.109816 
-0.301461 -0.109816 9.86295 
11.2964 -1.3117 4.88491 
-1.3117 5.08735 2.72707 
4.88491 2.72707 12.1998 
12.5258 -1.97236 0.885194 
-1.97236 7.75754 0.66765 
0.885194 0.66765 8.30018 
5.07472 -1.33188 5.5177 
-1.33188 14.9861 2.86493 
5.5177 2.86493 8.5227 
7.41027 -0.504698 1.52533 
-0.504698 10.6413 0.379482 
1.52533 0.379482 10.5319 
9.94806 -0.137218 0.116157 
-0.137218 9.77372 -0.0268651 
0.116157 -0.0268651 10.1816 
9.91233 -0.13898 0.0328849 
-0.13898 9.72838 0.0195452 
0.0328849 0.0195452 10.2627 
9.94807 -0.0984563 -0.101142 
-0.0984563 9.8736 -0.0159726 
-0.101142 -0.0159726 10.0817 
9.97493 -0.05542 -0.0742689 
-0.05542 9.8366 -0.154818 
-0.0742689 -0.154818 10.0918 
10.0555 0.0457852 -0.0927453 
0.0457852 9.65499 0.38031 
-0.0927453 0.38031 9.54437 
9.9046 0.158077 0.00599507 
0.158077 9.60357 0.34196 
0.00599507 0.34196 9.74672 
9.99736 0.0336784 -0.334006 
0.0336784 9.52666 0.41176 
-0.334006 0.41176 9.73087 
9.98182 0.0431949 -0.14813 
0.0431949 9.62008 0.364454 
-0.14813 0.364454 9.65299 
8.27366 -0.254645 -0.026986 
-0.254645 6.89718 -0.451265 
-0.026986 -0.451265 1.71114 
8.49417 -0.474752 1.31725 
-0.474752 6.22135 -0.499449 
1.31725 -0.499449 2.16646 
8.45953 -0.457359 0.648549 
-0.457359 6.52182 -0.357122 
0.648549 -0.357122 1.90063 
7.89488 -1.31056 1.08888 
-1.31056 6.47921 -1.12864 
1.08888 -1.12864 2.50789 
9.82055 -0.077608 -0.0131872 
-0.077608 9.97769 -0.0408951 
-0.0131872 -0.0408951 9.97786 
9.92256 -0.174668 0.131012 
-0.174668 9.80565 0.0691019 
0.131012 0.0691019 10.0479 
9.57162 -0.241893 -0.0311585 
-0.241893 9.89727 -0.0392293 
-0.0311585 -0.0392293 10.3072 
10.0597 -0.152097 0.36353 
-0.152097 9.75975 0.271225 
0.36353 0.271225 9.95662 
14.4296 0.129771 -3.9239 
0.129771 18.9718 0.402078 
-3.9239 0.402078 11.709 
1.83962 1.8216 1.98887 
1.8216 13.7333 -0.0561892 
1.98887 -0.0561892 29.5375 
7.36229 -0.552588 1.06153 
-0.552588 13.0274 -2.41076 
1.06153 -2.41076 24.7207 
15.7282 -0.530117 5.09335 
-0.530117 13.2643 -0.779827 
5.09335 -0.779827 16.118 
9.95885 0.0263044 0.141835 
0.0263044 9.95267 -0.205942 
0.141835 -0.205942 9.99556 
9.94638 0.00198666 0.139097 
0.00198666 9.95559 -0.205181 
0.139097 -0.205181 10.0051 
9.97379 -0.000316732 0.12854 
-0.000316732 9.95777 -0.197972 
0.12854 -0.197972 9.97553 
9.959 0.00524659 0.126229 
0.00524659 9.96942 -0.19452 
0.126229 -0.19452 9.97866 
9.61567 -0.0497611 -0.396768 
-0.0497611 10.1251 -0.0907885 
-0.396768 -0.0907885 9.37088 
9.52033 -0.105023 -0.425012 
-0.105023 10.0558 -0.166168 
-0.425012 -0.166168 9.53544 
9.56021 0.00711667 -0.431986 
0.00711667 10.1064 -0.114205 
-0.431986 -0.114205 9.44497 
9.65043 -0.0316965 -0.370696 
-0.0316965 9.88731 -0.121784 
-0.370696 -0.121784 9.57386 
9.60751 -0.0513397 0.15606 
-0.0513397 9.78749 -0.00688233 
0.15606 -0.00688233 9.82595 
9.60203 -0.0858755 0.185567 
-0.0858755 9.78328 -0.0100106 
0.185567 -0.0100106 9.83565 
9.59266 -0.0397544 0.167979 
-0.0397544 9.79661 0.0268564 
0.167979 0.0268564 9.83168 
9.65364 -0.0555533 0.169072 
-0.0555533 9.77218 0.0605853 
0.169072 0.0605853 9.79514 
9.92346 -0.039451 0.325598 
-0.039451 9.81617 0.227662 
0.325598 0.227662 9.94684 
9.78614 -0.170632 0.139179 
-0.170632 9.85576 0.169812 
0.139179 0.169812 10.0446 
9.82519 -0.1305 0.237409 
-0.1305 9.77008 0.166362 
0.237409 0.166362 10.0912 
9.7738 -0.127849 0.257284 
-0.127849 9.68615 0.140298 
0.257284 0.140298 10.2265 
9.40228 0.302337 0.164205 
0.302337 9.49487 -0.612154 
0.164205 -0.612154 10.665 
9.75992 0.171216 0.16964 
0.171216 9.56039 -0.283284 
0.16964 -0.283284 10.2418 
9.77355 0.244716 0.142244 
0.244716 9.59416 -0.295054 
0.142244 -0.295054 10.1944 
9.96105 0.257584 0.229948 
0.257584 9.89837 -0.366351 
0.229948 -0.366351 9.70272 
9.83036 -0.091339 -0.157668 
-0.091339 9.75073 -0.204612 
-0.157668 -0.204612 9.93262 
9.84401 -0.0694796 -0.147052 
-0.0694796 9.73496 -0.209784 
-0.147052 -0.209784 9.93474 
9.8708 -0.0759146 -0.163056 
-0.0759146 9.71652 -0.263781 
-0.163056 -0.263781 9.92638 
9.81945 -0.00667722 -0.128299 
-0.00667722 9.78824 -0.225656 
-0.128299 -0.225656 9.90602 
10.1105 -0.0280954 -0.0917499 
-0.0280954 10.121 0.10467 
-0.0917499 0.10467 10.0509 
10.1975 -0.108998 0.111333 
-0.108998 9.81953 -0.0694193 
0.111333 -0.0694193 10.2654 
9.85367 -0.0191382 -0.0920862 
-0.0191382 10.2701 0.0552552 
-0.0920862 0.0552552 10.1587 
9.8287 0.0904263 0.0429897 
0.0904263 10.3156 -0.28464 
0.0429897 -0.28464 10.1381 
9.57117 0.169797 0.0892553 
0.169797 9.98006 -0.045889 
0.0892553 -0.045889 10.6218 
9.45667 0.320953 -0.214183 
0.320953 10.0879 0.0412778 
-0.214183 0.0412778 10.6285 
10.3529 0.363797 -0.0939574 
0.363797 9.94782 0.0479246 
-0.0939574 0.0479246 9.87234 
9.62134 0.128468 -0.0174829 
0.128468 10.0189 -0.0206007 
-0.0174829 -0.0206007 10.5329 
10.4867 0.123399 -1.10242 
0.123399 9.12985 1.22521 
-1.10242 1.22521 8.58015 
11.3001 0.0311455 -0.338675 
0.0311455 9.74578 1.38225 
-0.338675 1.38225 7.15073 
9.70947 0.554227 0.0390448 
0.554227 9.34784 0.935007 
0.0390448 0.935007 9.13934 
10.6062 -0.129636 -0.870356 
-0.129636 9.2688 0.830338 
-0.870356 0.830338 8.3217 
9.78578 -0.106541 0.0316098 
-0.106541 9.83067 0.0673235 
0.0316098 0.0673235 9.9513 
9.85441 -0.0569611 0.108782 
-0.0569611 9.75975 0.0441257 
0.108782 0.0441257 9.95358 
9.80529 -0.022346 0.0860822 
-0.022346 9.80715 0.0674565 
0.0860822 0.0674565 9.95531 
9.819 -0.0673366 0.0310919 
-0.0673366 9.79619 0.0638834 
0.0310919 0.0638834 9.95256 
9.85617 -0.0766607 0.212604 
-0.0766607 9.84807 0.234751 
0.212604 0.234751 9.97201 
9.873 -0.0735382 0.207951 
-0.0735382 9.83078 0.241807 
0.207951 0.241807 9.97247 
9.88711 -0.067164 0.213247 
-0.067164 9.81939 0.228412 
0.213247 0.228412 9.96974 
9.89352 -0.0743489 0.204613 
-0.0743489 9.82353 0.2272 
0.204613 0.2272 9.9592 
9.72919 -0.102851 0.165814 
-0.102851 9.77321 0.132516 
0.165814 0.132516 10.1621 
9.83297 -0.0927666 0.133963 
-0.0927666 9.792 0.109891 
0.133963 0.109891 10.0396 
9.80573 -0.0920483 0.167223 
-0.0920483 9.76669 0.177852 
0.167223 0.177852 10.0921 
9.80802 -0.0285748 0.0908421 
-0.0285748 9.81202 0.105184 
0.0908421 0.105184 10.0445 
9.90648 0.14942 0.143507 
0.14942 9.61349 -0.272063 
0.143507 -0.272063 9.82411 
9.91971 0.0511526 0.160287 
0.0511526 9.5872 -0.330152 
0.160287 -0.330152 9.83717 
9.85281 0.0588606 0.061837 
0.0588606 9.69479 -0.304967 
0.061837 -0.304967 9.79648 
9.86472 0.0343536 0.142204 
0.0343536 9.60341 -0.287667 
0.142204 -0.287667 9.87595 
10.1012 0.0376601 0.0464795 
0.0376601 9.99072 -0.0509092 
0.0464795 -0.0509092 10.3404 
10.023 0.0276108 0.0138629 
0.0276108 10.0317 -0.00458941 
0.0138629 -0.00458941 10.3775 
10.0598 0.0478645 -0.00682862 
0.0478645 10.0397 -0.0126158 
-0.00682862 -0.0126158 10.3329 
10.0683 0.0269033 0.00925191 
0.0269033 10.0492 -0.0474236 
0.00925191 -0.0474236 10.3148 
10.1684 1.64641 -0.641969 
1.64641 9.75523 -0.783372 
-0.641969 -0.783372 13.1607 
11.0204 0.467015 -0.268363 
0.467015 9.90008 0.0029523 
-0.268363 0.0029523 12.1638 
11.6551 -0.556084 -0.162788 
-0.556084 9.39482 0.192711 
-0.162788 0.192711 12.0344 
11.264 0.992275 1.2577 
0.992275 10.6228 0.974335 
1.2577 0.974335 11.1976 
10.0199 -0.0455589 0.0216743 
-0.0455589 10.0366 0.00981661 
0.0216743 0.00981661 10.1616 
10.0299 0.0630608 0.00432383 
0.0630608 10.0726 0.00500959 
0.00432383 0.00500959 10.1155 
10.0413 -0.0315301 0.0320355 
-0.0315301 10.0765 -0.0196874 
0.0320355 -0.0196874 10.1002 
10.0325 0.0588017 -0.00635728 
0.0588017 10.0606 0.0105254 
-0.00635728 0.0105254 10.125 
9.8036 -0.0299842 0.241401 
-0.0299842 9.87148 0.0375745 
0.241401 0.0375745 9.96579 
9.88851 0.00645487 0.240452 
0.00645487 9.90175 0.0282032 
0.240452 0.0282032 9.85062 
9.92442 0.0192097 0.243916 
0.0192097 9.85718 0.012885 
0.243916 0.012885 9.85928 
9.8475 0.0120032 0.219025 
0.0120032 9.90488 -0.0177641 
0.219025 -0.0177641 9.88849 
9.95186 0.0146425 -0.219935 
0.0146425 9.92968 -0.154284 
-0.219935 -0.154284 9.97893 
9.93019 -0.00416303 -0.19318 
-0.00416303 9.94115 -0.130682 
-0.19318 -0.130682 9.98913 
9.95143 -0.0205753 -0.185569 
-0.0205753 9.92858 -0.11703 
-0.185569 -0.11703 9.98045 
9.94576 -0.00870109 -0.209956 
-0.00870109 9.95019 -0.150751 
-0.209956 -0.150751 9.96451 
9.0683 0.557263 -0.936667 
0.557263 9.65975 0.298561 
-0.936667 0.298561 10.123 
9.12981 0.560396 -1.51284 
0.560396 9.5449 0.448111 
-1.51284 0.448111 10.1764 
10.2095 -0.242631 -0.466348 
-0.242631 9.82639 0.314548 
-0.466348 0.314548 8.81518 
8.76377 0.618681 -0.783852 
0.618681 9.60966 0.275776 
-0.783852 0.275776 10.4777 
9.81535 -0.00501465 -0.242234 
-0.00501465 9.86158 -0.0160724 
-0.242234 -0.0160724 9.89893 
9.85827 0.00069775 -0.235119 
0.00069775 9.8508 -0.0304734 
-0.235119 -0.0304734 9.86679 
9.80603 -0.00241778 -0.229366 
-0.00241778 9.89589 -0.012569 
-0.229366 -0.012569 9.87394 
9.83741 -0.0236581 -0.235715 
-0.0236581 9.85552 -0.0225933 
-0.235715 -0.0225933 9.88293 
9.85696 -0.0535746 0.0945457 
-0.0535746 9.81113 0.0800622 
0.0945457 0.0800622 10.0067 
9.80312 -0.102085 0.00233241 
-0.102085 9.81758 0.105217 
0.00233241 0.105217 10.0541 
9.8418 -0.00828916 0.00883066 
-0.00828916 9.8485 0.0834558 
0.00883066 0.0834558 9.9845 
9.81621 -0.0767978 0.152469 
-0.0767978 9.91143 0.107087 
0.152469 0.107087 9.94717 
9.71832 -0.0131552 0.0757734 
-0.0131552 9.71636 0.118067 
0.0757734 0.118067 9.97517 
9.73872 -0.0502398 0.0834971 
-0.0502398 9.77532 0.153902 
0.0834971 0.153902 9.8958 
9.75763 -0.0590012 0.0785087 
-0.0590012 9.73269 0.134637 
0.0785087 0.134637 9.91953 
9.71357 -0.0473377 0.100285 
-0.0473377 9.75113 0.143382 
0.100285 0.143382 9.94514 
9.8308 0.0275556 0.192446 
0.0275556 9.84434 -0.183329 
0.192446 -0.183329 9.95441 
9.83167 0.0563041 0.202043 
0.0563041 9.84942 -0.19948 
0.202043 -0.19948 9.94846 
9.84535 0.0261781 0.142425 
0.0261781 9.80745 -0.198815 
0.142425 -0.198815 9.97675 
9.84693 0.0174685 0.193171 
0.0174685 9.85477 -0.175198 
0.193171 -0.175198 9.92784 
9.79345 -0.00894987 -0.0455859 
-0.00894987 9.79379 -0.199146 
-0.0455859 -0.199146 9.90417 
9.85473 -0.0326152 -0.0866792 
-0.0326152 9.76311 -0.217803 
-0.0866792 -0.217803 9.87357 
9.81537 -0.0553171 -0.0830047 
-0.0553171 9.78682 -0.209368 
-0.0830047 -0.209368 9.88923 
9.82225 -0.0313554 -0.0740148 
-0.0313554 9.78433 -0.21749 
-0.0740148 -0.21749 9.88483 
9.9788 0.00898422 -0.0245435 
0.00898422 9.97364 0.0295692 
-0.0245435 0.0295692 10.0178 
9.95312 -0.0267501 0.0264703 
-0.0267501 9.97325 -0.0368568 
0.0264703 -0.0368568 10.0439 
9.94253 -0.00607091 -0.00876428 
-0.00607091 9.94445 0.0222929 
-0.00876428 0.0222929 10.0833 
9.99088 0.0129153 -0.0187327 
0.0129153 9.93244 0.0155244 
-0.0187327 0.0155244 10.0469 
9.9514 -0.00524174 0.131114 
-0.00524174 9.9226 -0.0381844 
0.131114 -0.0381844 9.78436 
9.92885 0.00791583 0.176169 
0.00791583 9.97887 -0.0294677 
0.176169 -0.0294677 9.75064 
9.97512 0.0293635 0.150555 
0.0293635 10.0151 -0.0728185 
0.150555 -0.0728185 9.66809 
9.92433 0.00548293 0.191499 
0.00548293 9.95856 0.00642237 
0.191499 0.00642237 9.77547 
9.97239 -0.00177519 0.00379428 
-0.00177519 9.95509 0.243403 
0.00379428 0.243403 10.012 
9.95095 0.00271603 0.00592082 
0.00271603 9.97605 0.233196 
0.00592082 0.233196 10.0125 
10.0097 -0.00872498 0.0118015 
-0.00872498 9.96735 0.243383 
0.0118015 0.243383 9.9624 
10.0016 0.0131083 -0.00863188 
0.0131083 9.96422 0.240956 
-0.00863188 0.240956 9.97367 
13.4403 -0.891745 0.168437 
-0.891745 12.0673 1.22566 
0.168437 1.22566 10.222 
9.63513 0.659697 0.801646 
0.659697 10.0713 -0.606733 
0.801646 -0.606733 16.0232 
11.0916 0.0457818 0.612721 
0.0457818 9.44343 0.626523 
0.612721 0.626523 15.1946 
11.6983 1.21 -2.61909 
1.21 8.99752 1.5965 
-2.61909 1.5965 15.0338 
10.0169 -0.0692268 0.0189925 
-0.0692268 9.91539 0.0697793 
0.0189925 0.0697793 10.0986 
10.043 -0.0402771 0.0471886 
-0.0402771 9.89552 0.0772004 
0.0471886 0.0772004 10.0923 
10.0094 -0.0758926 0.0438853 
-0.0758926 9.93066 0.0307819 
0.0438853 0.0307819 10.0908 
10.0314 -0.0517221 -0.000766031 
-0.0517221 9.91856 0.0547093 
-0.000766031 0.0547093 10.0809 
9.84282 0.092025 -0.0782489 
0.092025 9.88794 -0.0737453 
-0.0782489 -0.0737453 9.86171 
9.8265 0.0301341 -0.0441689 
0.0301341 9.86392 -0.117899 
-0.0441689 -0.117899 9.90205 
9.87166 -0.175893 -0.0603794 
-0.175893 9.77822 -0.0138483 
-0.0603794 -0.0138483 9.94259 
9.84245 0.00995337 -0.132651 
0.00995337 9.78395 -0.118949 
-0.132651 -0.118949 9.96607 
9.82909 -0.146293 -0.269997 
-0.146293 9.64668 -0.249265 
-0.269997 -0.249265 9.93973 
9.78859 -0.0930597 -0.253739 
-0.0930597 9.64883 -0.219957 
-0.253739 -0.219957 9.97808 
9.63824 -0.0992369 -0.377001 
-0.0992369 9.7464 -0.249074 
-0.377001 -0.249074 10.0309 
9.71436 -0.0717817 -0.150748 
-0.0717817 9.59404 -0.263847 
-0.150748 -0.263847 10.1071 
9.93243 -0.0480346 -0.0430442 
-0.0480346 9.99908 -0.033291 
-0.0430442 -0.033291 9.97489 
9.98866 -0.0101977 0.0467751 
-0.0101977 9.86024 0.0487915 
0.0467751 0.0487915 10.0575 
9.95346 -0.100584 -0.0191046 
-0.100584 9.87273 -0.00796694 
-0.0191046 -0.00796694 10.0802 
9.97175 -0.0252579 -0.0246061 
-0.0252579 9.83618 0.0172746 
-0.0246061 0.0172746 10.0985 
9.91998 0.0466027 0.0156108 
0.0466027 9.93928 -0.0412703 
0.0156108 -0.0412703 10.0162 
9.93965 0.0555223 0.020203 
0.0555223 9.91975 -0.0428041 
0.020203 -0.0428041 10.0161 
9.92837 -0.0292873 -0.0650757 
-0.0292873 9.93678 -0.00700598 
-0.0650757 -0.00700598 10.0103 
9.86637 0.104277 -0.0196035 
0.104277 9.94092 -0.0218264 
-0.0196035 -0.0218264 10.0682 
9.70901 0.0527965 -0.227314 
0.0527965 9.77496 0.00222345 
-0.227314 0.00222345 9.80587 
9.69804 0.0488139 -0.223979 
0.0488139 9.78739 0.0252063 
-0.223979 0.0252063 9.8044 
9.66894 0.0288815 -0.238153 
0.0288815 9.82504 0.0569712 
-0.238153 0.0569712 9.79585 
9.69491 0.0574635 -0.237266 
0.0574635 9.78827 0.00689102 
-0.237266 0.00689102 9.80665 
9.78686 0.123254 0.0393745 
0.123254 9.56652 -0.147219 
0.0393745 -0.147219 9.98739 
9.84662 0.0954352 0.0809073 
0.0954352 9.60216 -0.205637 
0.0809073 -0.205637 9.89199 
9.88825 0.137405 0.142218 
0.137405 9.48223 -0.262814 
0.142218 -0.262814 9.9703 
9.85454 -0.0191837 0.0391573 
-0.0191837 9.66431 -0.201092 
0.0391573 -0.201092 9.82193 
9.77978 0.00456117 0.292447 
0.00456117 9.97947 0.0536613 
0.292447 0.0536613 9.71476 
9.74876 -0.00769258 0.307294 
-0.00769258 9.93332 0.00199125 
0.307294 0.00199125 9.79193 
9.79712 0.003737 0.341431 
0.003737 9.97016 -0.0468298 
0.341431 -0.0468298 9.70673 
9.74129 0.00063135 0.311285 
0.00063135 9.98821 0.0399553 
0.311285 0.0399553 9.74451 
9.82069 0.00901557 0.0820674 
0.00901557 9.85561 0.149092 
0.0820674 0.149092 9.8189 
9.79483 -0.017041 0.0666767 
-0.017041 9.87322 0.156983 
0.0666767 0.156983 9.82715 
9.87891 -0.15199 0.0755841 
-0.15199 9.64093 0.130599 
0.0755841 0.130599 9.97537 
9.79217 -0.00573786 0.16423 
-0.00573786 9.80697 0.302864 
0.16423 0.302864 9.89606 
9.94303 0.192379 0.00521056 
0.192379 9.63292 -0.00377577 
0.00521056 -0.00377577 9.97131 
9.72326 -0.254805 0.0276877 
-0.254805 10.093 0.111666 
0.0276877 0.111666 9.73103 
9.83616 0.0851261 -0.040258 
0.0851261 9.78114 0.0765867 
-0.040258 0.0765867 9.92997 
9.81596 0.0726273 -0.0538015 
0.0726273 9.79577 0.20703 
-0.0538015 0.20703 9.93553 
6.71653 -0.128551 0.173285 
-0.128551 6.84398 1.49769 
0.173285 1.49769 1.2078 
6.99278 -0.0643162 0.165743 
-0.0643162 6.31162 1.34635 
0.165743 1.34635 1.46392 
8.31112 0.201368 0.489212 
0.201368 6.22237 0.946568 
0.489212 0.946568 0.234833 
8.42819 0.504227 0.646297 
0.504227 4.00381 1.21222 
0.646297 1.21222 2.33632 
9.45952 -0.12546 -0.169922 
-0.12546 9.67815 -0.382537 
-0.169922 -0.382537 10.1378 
9.56332 0.216626 0.278462 
0.216626 9.49123 -0.489751 
0.278462 -0.489751 10.221 
9.79789 0.149359 0.152578 
0.149359 9.33242 -0.573912 
0.152578 -0.573912 10.1452 
9.56658 0.0655406 0.0856914 
0.0655406 9.60329 -0.451956 
0.0856914 -0.451956 10.1056 
9.90944 -0.00633986 0.362872 
-0.00633986 9.97002 0.078995 
0.362872 0.078995 9.74148 
9.90641 0.000903448 0.264004 
0.000903448 9.97024 -0.0372406 
0.264004 -0.0372406 9.7443 
9.79989 0.0159057 0.220808 
0.0159057 10.0534 -0.0834239 
0.220808 -0.0834239 9.76764 
9.87071 0.00755068 0.175651 
0.00755068 9.87571 0.0100149 
0.175651 0.0100149 9.87452 
11.5003 0.0404558 -0.0171181 
0.0404558 11.6447 -0.0563431 
-0.0171181 -0.0563431 10.3008 
10.2665 -0.126204 -0.0755832 
-0.126204 10.6815 0.317728 
-0.0755832 0.317728 12.4978 
11.2561 0.286727 -0.0497372 
0.286727 11.1712 -0.107682 
-0.0497372 -0.107682 11.0185 
11.3196 -0.218606 -0.344671 
-0.218606 10.8116 -0.854385 
-0.344671 -0.854385 11.3145 
9.8746 0.0437609 0.108321 
0.0437609 9.6414 -0.321924 
0.108321 -0.321924 9.61687 
9.82258 0.0115067 0.129388 
0.0115067 9.70108 -0.302673 
0.129388 -0.302673 9.60921 
9.87971 0.0391575 0.158413 
0.0391575 9.64345 -0.393763 
0.158413 -0.393763 9.6097 
9.85214 0.0209271 0.0542214 
0.0209271 9.61749 -0.315743 
0.0542214 -0.315743 9.66323 
9.93646 0.14524 0.64587 
0.14524 9.89388 -0.584183 
0.64587 -0.584183 8.90693 
10.0033 0.165447 0.313191 
0.165447 9.67086 -0.436571 
0.313191 -0.436571 9.06315 
9.64725 0.141207 0.259556 
0.141207 9.58439 -0.26508 
0.259556 -0.26508 9.50562 
10.084 0.0558018 0.266042 
0.0558018 9.79615 -0.554642 
0.266042 -0.554642 8.85708 
9.89289 0.0253285 0.0865158 
0.0253285 9.91883 0.0398041 
0.0865158 0.0398041 9.71411 
9.93428 -0.0132392 0.083711 
-0.0132392 9.95306 0.0885727 
0.083711 0.0885727 9.63849 
9.91237 5.22577e-05 0.0745654 
5.22577e-05 9.88598 0.121377 
0.0745654 0.121377 9.72747 
9.92122 -0.0102501 0.0863226 
-0.0102501 9.90469 0.0976431 
0.0863226 0.0976431 9.69992 
9.95857 -0.000131942 -0.0300996 
-0.000131942 9.95979 -0.0190725 
-0.0300996 -0.0190725 9.98514 
9.95146 0.00884874 -0.00676198 
0.00884874 9.95264 -0.0124992 
-0.00676198 -0.0124992 9.99939 
9.96923 -0.00430059 0.0320922 
-0.00430059 9.95823 0.013646 
0.0320922 0.013646 9.97603 
9.93146 0.00241474 -0.00283479 
0.00241474 9.95109 -0.00409771 
-0.00283479 -0.00409771 10.0209 
13.3953 5.07108 2.77666 
5.07108 10.2106 -6.43247 
2.77666 -6.43247 -0.229085 
6.41964 -3.34078 3.15217 
-3.34078 10.8446 -2.21375 
3.15217 -2.21375 6.11259 
7.03381 -0.359017 -0.16479 
-0.359017 11.3258 -1.62447 
-0.16479 -1.62447 5.01721 
7.09937 4.50223 -3.05216 
4.50223 6.12129 -0.343286 
-3.05216 -0.343286 10.1562 
9.89786 -0.0255647 -0.154436 
-0.0255647 9.69144 -0.0484635 
-0.154436 -0.0484635 9.767 
9.71033 -0.0702794 -0.119406 
-0.0702794 9.7978 -0.0637366 
-0.119406 -0.0637366 9.84817 
9.72462 -0.0419014 -0.128187 
-0.0419014 9.78458 -0.0646887 
-0.128187 -0.0646887 9.84711 
9.72115 -0.0363575 -0.171832 
-0.0363575 9.79862 -0.0723496 
-0.171832 -0.0723496 9.83653 
10.0022 0.326375 0.575927 
0.326375 10.7417 0.0738107 
0.575927 0.0738107 9.08622 
10.1195 0.776538 0.373126 
0.776538 9.28942 -0.894105 
0.373126 -0.894105 10.4211 
10.1255 0.400118 -0.0399459 
0.400118 9.12917 -0.442053 
-0.0399459 -0.442053 10.5754 
10.2365 0.28222 0.109042 
0.28222 9.27115 -0.603948 
0.109042 -0.603948 10.3224 
9.81557 0.0648457 0.0867057 
0.0648457 9.87193 -0.0856348 
0.0867057 -0.0856348 10.1965 
9.7976 0.0900702 0.114116 
0.0900702 9.75172 -0.106417 
0.114116 -0.106417 10.3347 
9.80065 0.0816872 0.110833 
0.0816872 9.79717 -0.129286 
0.110833 -0.129286 10.2862 
9.82395 0.132034 0.174692 
0.132034 9.79329 -0.196206 
0.174692 -0.196206 10.2668 
9.60231 0.0243514 0.347744 
0.0243514 9.89353 0.0286643 
0.347744 0.0286643 9.52929 
9.80754 -0.0371924 0.268855 
-0.0371924 9.96591 -0.122475 
0.268855 -0.122475 9.25168 
9.84692 -0.00427178 0.275184 
-0.00427178 9.86622 0.00864487 
0.275184 0.00864487 9.312 
9.71731 0.0281403 0.432627 
0.0281403 10.0498 0.0821778 
0.432627 0.0821778 9.25802 
9.83996 -0.10044 0.0321884 
-0.10044 9.78167 -0.0889341 
0.0321884 -0.0889341 9.06955 
9.80898 0.0356368 0.13748 
0.0356368 9.82744 -0.0338111 
0.13748 -0.0338111 9.05476 
9.84045 -0.00356531 0.140427 
-0.00356531 9.82122 -0.0452817 
0.140427 -0.0452817 9.02951 
9.82141 0.00122254 0.143196 
0.00122254 9.79121 -0.0212248 
0.143196 -0.0212248 9.07856 
10.4342 -0.060365 -0.131458 
-0.060365 10.5063 0.0788528 
-0.131458 0.0788528 10.5918 
10.2236 -0.0616062 -0.0275261 
-0.0616062 10.1877 -0.185293 
-0.0275261 -0.185293 11.121 
10.591 -0.0706511 -0.20324 
-0.0706511 10.8722 0.0820292 
-0.20324 0.0820292 10.0691 
10.5 0.169911 -0.244375 
0.169911 10.3136 0.354922 
-0.244375 0.354922 10.7186 
9.90894 -0.109858 -0.235383 
-0.109858 10.2208 -0.271109 
-0.235383 -0.271109 10.3038 
10.882 0.203004 0.275193 
0.203004 9.46107 -0.118914 
0.275193 -0.118914 10.0905 
10.1414 -0.619498 -0.0877403 
-0.619498 9.49559 0.221004 
-0.0877403 0.221004 10.7965 
10.4647 0.078118 0.0694275 
0.078118 9.26288 -0.136427 
0.0694275 -0.136427 10.7059 
9.95027 -0.00483801 0.247059 
-0.00483801 9.93299 -0.0335923 
0.247059 -0.0335923 9.91038 
9.91513 0.015596 0.235651 
0.015596 9.94708 -0.0289918 
0.235651 -0.0289918 9.93142 
9.88743 0.0196856 0.265622 
0.0196856 9.99444 -0.0217563 
0.265622 -0.0217563 9.91176 
9.93305 -0.000495372 0.254114 
-0.000495372 9.93135 -0.00631463 
0.254114 -0.00631463 9.92923 
9.98804 -0.0184225 0.0977222 
-0.0184225 9.97069 0.00364712 
0.0977222 0.00364712 9.85699 
10.0207 0.083846 0.125681 
0.083846 9.97463 0.00197618 
0.125681 0.00197618 9.82038 
9.98818 0.0538479 0.121 
0.0538479 9.94762 0.00937403 
0.121 0.00937403 9.87992 
9.95617 -0.0396287 0.155453 
-0.0396287 9.99284 0.0473468 
0.155453 0.0473468 9.86671 
9.87325 -0.0238451 0.215611 
-0.0238451 9.837 -0.102312 
0.215611 -0.102312 9.8604 
9.83325 0.033969 0.183064 
0.033969 9.84225 -0.0895492 
0.183064 -0.0895492 9.89515 
9.83949 0.00882077 0.202991 
0.00882077 9.85001 -0.0939947 
0.202991 -0.0939947 9.88114 
9.81914 0.00819873 0.193933 
0.00819873 9.85923 -0.10854 
0.193933 -0.10854 9.89227 
9.95737 0.128518 0.0899963 
0.128518 9.94167 0.0375298 
0.0899963 0.0375298 9.76852 
9.80784 -0.177671 -0.0331811 
-0.177671 9.76606 -0.0246054 
-0.0331811 -0.0246054 10.0937 
9.93712 0.06431 0.100047 
0.06431 9.83647 0.038034 
0.100047 0.038034 9.89397 
9.80788 -0.0442506 0.103645 
-0.0442506 9.78752 0.184028 
0.103645 0.184028 10.0722 
9.84569 -0.264902 0.0415239 
-0.264902 9.7032 0.00896665 
0.0415239 0.00896665 9.98399 
9.375 -0.407507 -0.000852436 
-0.407507 10.1591 0.114116 
-0.000852436 0.114116 9.99876 
9.62679 0.220122 0.391626 
0.220122 9.95668 0.110059 
0.391626 0.110059 9.9494 
9.64088 -0.0870395 0.278033 
-0.0870395 9.90792 0.106574 
0.278033 0.106574 9.98406 
9.97256 -0.00612912 -0.186894 
-0.00612912 9.98034 -0.176381 
-0.186894 -0.176381 9.98148 
9.98256 -0.00239581 -0.186696 
-0.00239581 9.97939 -0.17688 
-0.186696 -0.17688 9.97242 
9.96379 -0.00356784 -0.177094 
-0.00356784 9.9508 -0.157872 
-0.177094 -0.157872 10.0198 
9.9814 -0.0145336 -0.191912 
-0.0145336 9.9595 -0.186922 
-0.191912 -0.186922 9.99347 
9.82089 -0.0810411 -0.021407 
-0.0810411 9.64406 -0.0261047 
-0.021407 -0.0261047 10.1611 
9.78802 -0.103228 0.0317497 
-0.103228 9.65955 -0.0202455 
0.0317497 -0.0202455 10.1785 
9.83652 -0.156147 -0.0222326 
-0.156147 9.63119 0.0394429 
-0.0222326 0.0394429 10.1584 
9.79447 -0.120165 0.0386051 
-0.120165 9.61931 -0.0682587 
0.0386051 -0.0682587 10.2123 
9.85459 0.0385349 -0.0276518 
0.0385349 10.0289 -0.0398718 
-0.0276518 -0.0398718 8.85871 
9.91848 0.0545951 0.0917342 
0.0545951 9.97354 -0.0628131 
0.0917342 -0.0628131 8.85015 
10.2723 -0.0303608 0.245408 
-0.0303608 10.0005 0.258547 
0.245408 0.258547 8.46936 
9.78882 0.0297871 0.154758 
0.0297871 9.88506 -0.0986223 
0.154758 -0.0986223 9.06829 
9.72765 0.00682331 0.203521 
0.00682331 9.86184 -0.0976305 
0.203521 -0.0976305 9.96256 
9.76019 0.0842588 0.200253 
0.0842588 9.77563 -0.153136 
0.200253 -0.153136 10.0162 
9.76465 0.0717303 0.196918 
0.0717303 9.76717 -0.157198 
0.196918 -0.157198 10.0202 
9.80497 0.0807354 0.224757 
0.0807354 9.76293 -0.219025 
0.224757 -0.219025 9.98416 
9.89983 0.0411759 0.160657 
0.0411759 9.8204 -0.242748 
0.160657 -0.242748 9.87989 
9.89414 0.0193154 0.124379 
0.0193154 9.8105 -0.227911 
0.124379 -0.227911 9.89546 
9.88323 0.0271973 0.153222 
0.0271973 9.82088 -0.227412 
0.153222 -0.227412 9.89601 
9.80343 0.0214761 0.160754 
0.0214761 9.8791 -0.202816 
0.160754 -0.202816 9.91758 
9.9917 -0.0568333 -0.0292951 
-0.0568333 9.62722 -0.323734 
-0.0292951 -0.323734 9.89308 
10.0008 0.00254794 0.00859451 
0.00254794 9.61983 -0.379912 
0.00859451 -0.379912 9.89134 
9.90291 -0.0267767 -0.00789523 
-0.0267767 9.76119 -0.26398 
-0.00789523 -0.26398 9.84791 
9.96593 -0.0411494 -0.063114 
-0.0411494 9.59386 -0.305454 
-0.063114 -0.305454 9.95221 
9.97836 0.0338856 0.0194282 
0.0338856 9.94694 -0.00224102 
0.0194282 -0.00224102 10.0513 
10.0108 0.0131572 0.0593089 
0.0131572 9.91792 0.0201264 
0.0593089 0.0201264 10.0478 
9.92706 0.101525 -0.0137373 
0.101525 9.9316 0.0554674 
-0.0137373 0.0554674 10.1179 
9.97369 0.0304417 0.00506943 
0.0304417 9.93448 0.00412584 
0.00506943 0.00412584 10.0684 
10.2102 0.0428317 0.0835636 
0.0428317 9.80258 -0.156019 
0.0835636 -0.156019 10.4198 
9.69453 0.502562 0.197046 
0.502562 10.0528 -0.194843 
0.197046 -0.194843 10.6852 
10.0423 0.285439 -0.178679 
0.285439 9.635 -0.065762 
-0.178679 -0.065762 10.7553 
10.0901 0.262904 -0.0527359 
0.262904 9.80197 -0.213633 
-0.0527359 -0.213633 10.5405 
9.98347 0.0105998 0.0770625 
0.0105998 9.93748 -0.21846 
0.0770625 -0.21846 9.98886 
9.97466 -0.00241759 0.0802683 
-0.00241759 9.95095 -0.236986 
0.0802683 -0.236986 9.9842 
9.96126 0.00171911 0.0759665 
0.00171911 9.94358 -0.234913 
0.0759665 -0.234913 10.005 
9.98486 0.00608204 0.0878533 
0.00608204 9.93196 -0.22384 
0.0878533 -0.22384 9.993 
11.1733 0.0522661 -0.0150225 
0.0522661 11.3027 -0.0245911 
-0.0150225 -0.0245911 10.0398 
10.3722 0.000975684 0.188061 
0.000975684 10.5733 0.0166126 
0.188061 0.0166126 11.5703 
10.7311 -0.0938651 -0.0540115 
-0.0938651 10.6121 0.0556504 
-0.0540115 0.0556504 11.1727 
10.4798 0.0709678 -0.492961 
0.0709678 10.8968 -0.469937 
-0.492961 -0.469937 11.1394 
9.80563 -0.0264032 0.259549 
-0.0264032 9.92545 0.139845 
0.259549 0.139845 9.85976 
9.81997 0.00296115 0.289342 
0.00296115 10.007 0.129863 
0.289342 0.129863 9.76392 
9.81872 -0.0573266 0.23487 
-0.0573266 9.89468 0.19087 
0.23487 0.19087 9.87743 
9.75048 -0.0493356 0.236266 
-0.0493356 9.851 0.0964579 
0.236266 0.0964579 9.98936 
9.76639 -0.0350971 -0.0260185 
-0.0350971 9.78955 -0.0988819 
-0.0260185 -0.0988819 9.96712 
9.79709 -0.0668721 -0.0437656 
-0.0668721 9.78753 -0.0746617 
-0.0437656 -0.0746617 9.93843 
9.79954 -0.0558428 -0.0416448 
-0.0558428 9.77636 -0.088443 
-0.0416448 -0.088443 9.94716 
9.78855 -0.0726654 -0.056377 
-0.0726654 9.77988 -0.0694042 
-0.056377 -0.0694042 9.95462 
5.05943 -0.860549 1.97561 
-0.860549 4.645 0.00817846 
1.97561 0.00817846 0.417506 
0.915883 2.38892 3.13744 
2.38892 1.66371 1.01227 
3.13744 1.01227 7.54234 
6.92429 0.434223 0.0488649 
0.434223 5.69483 0.220171 
0.0488649 0.220171 -2.49718 
8.43497 -0.204565 4.7836 
-0.204565 3.51399 -1.10069 
4.7836 -1.10069 -1.82702 
9.8748 0.0716793 0.23062 
0.0716793 9.90332 -0.0816802 
0.23062 -0.0816802 9.41876 
9.92766 0.0706858 0.288689 
0.0706858 9.82561 -0.0116511 
0.288689 -0.0116511 9.4436 
9.88391 0.041826 0.285587 
0.041826 9.87677 0.0226872 
0.285587 0.0226872 9.43619 
9.91858 0.0174533 0.25432 
0.0174533 9.90669 -0.104013 
0.25432 -0.104013 9.3716 
9.91 5.25083 6.69207 
5.25083 11.6293 -1.51081 
6.69207 -1.51081 1.15591 
9.21282 -2.14506 2.40199 
-2.14506 7.49844 2.55309 
2.40199 2.55309 5.98399 
6.53883 -4.76724 1.39944 
-4.76724 7.94109 -1.36789 
1.39944 -1.36789 8.21532 
4.99869 1.83513 2.40703 
1.83513 7.03787 3.89064 
2.40703 3.89064 10.6587 
9.84786 0.0538101 0.198828 
0.0538101 9.86861 -0.155849 
0.198828 -0.155849 9.97974 
9.9128 -0.0147066 0.169166 
-0.0147066 9.88194 -0.122274 
0.169166 -0.122274 9.90147 
9.89815 0.00765421 0.168356 
0.00765421 9.90847 -0.136248 
0.168356 -0.136248 9.88958 
9.83083 0.0137965 0.157874 
0.0137965 9.90622 -0.0805606 
0.157874 -0.0805606 9.95915 
9.73179 -0.0516242 -0.408641 
-0.0516242 9.43114 -0.422262 
-0.408641 -0.422262 9.33184 
9.68758 -0.101723 -0.424205 
-0.101723 9.53858 -0.29708 
-0.424205 -0.29708 9.26861 
10.0684 -0.119436 -0.548374 
-0.119436 9.30114 -0.503922 
-0.548374 -0.503922 9.12526 
9.74567 0.0548851 -0.181722 
0.0548851 9.57722 -0.587034 
-0.181722 -0.587034 9.17188 
9.9894 0.038919 0.54052 
0.038919 9.91394 0.117265 
0.54052 0.117265 8.99138 
9.79958 0.0289934 0.379864 
0.0289934 9.9349 -0.0122959 
0.379864 -0.0122959 9.16023 
9.75351 -0.063068 0.380135 
-0.063068 10.0426 -0.0814858 
0.380135 -0.0814858 9.09865 
9.70205 -0.0146854 0.418613 
-0.0146854 10.0596 0.0751518 
0.418613 0.0751518 9.13303 
9.88605 0.0975945 0.165647 
0.0975945 9.67881 -0.251426 
0.165647 -0.251426 9.9426 
9.85671 0.126172 0.222891 
0.126172 9.66563 -0.228621 
0.222891 -0.228621 9.98512 
9.88455 0.0644877 0.180183 
0.0644877 9.6778 -0.287927 
0.180183 -0.287927 9.94511 
9.76033 0.0336899 0.137347 
0.0336899 9.79015 -0.239336 
0.137347 -0.239336 9.95698 
9.94269 -0.122176 -0.0897314 
-0.122176 10.0365 -0.015125 
-0.0897314 -0.015125 10.2631 
10.0048 -0.0508632 -0.0703692 
-0.0508632 10.1653 0.0327811 
-0.0703692 0.0327811 10.0723 
10.051 -0.0563975 -0.0628244 
-0.0563975 10.0043 0.00117113 
-0.0628244 0.00117113 10.187 
10.0001 -0.118969 -0.0225714 
-0.118969 10.1345 -0.0534403 
-0.0225714 -0.0534403 10.1078 
9.68546 -0.0105359 0.125096 
-0.0105359 9.58268 -0.449796 
0.125096 -0.449796 9.45554 
9.82864 0.038069 0.237028 
0.038069 9.67433 -0.295285 
0.237028 -0.295285 9.2207 
9.93163 0.0669257 0.22702 
0.0669257 9.7188 -0.429873 
0.22702 -0.429873 9.07324 
9.8308 0.0158196 0.183591 
0.0158196 9.68384 -0.197534 
0.183591 -0.197534 9.20903 
14.6888 -3.68473 0.859624 
-3.68473 8.14257 -1.43853 
0.859624 -1.43853 15.1758 
7.30483 -2.03753 1.61083 
-2.03753 -1.9638 7.46713 
1.61083 7.46713 32.6662 
13.4617 0.934006 1.188 
0.934006 1.87571 3.91309 
1.188 3.91309 22.6698 
12.4726 0.427662 2.71329 
0.427662 10.7481 2.84661 
2.71329 2.84661 14.7866 
9.49972 -0.0591948 0.550042 
-0.0591948 9.93456 0.384627 
0.550042 0.384627 9.19444 
9.6307 -0.0835922 0.309674 
-0.0835922 9.83698 0.363082 
0.309674 0.363082 9.16104 
9.63983 -0.00770595 0.468414 
-0.00770595 9.88314 0.2829 
0.468414 0.2829 9.10574 
9.60075 0.024392 0.383127 
0.024392 9.91917 0.314946 
0.383127 0.314946 9.1088 
9.86953 0.0202358 -0.14266 
0.0202358 9.86284 0.159846 
-0.14266 0.159846 9.91298 
9.8616 0.0337313 -0.149228 
0.0337313 9.85687 0.168813 
-0.149228 0.168813 9.92688 
9.84924 0.0203537 -0.12806 
0.0203537 9.8402 0.1691 
-0.12806 0.1691 9.95592 
9.85814 0.00812614 -0.145016 
0.00812614 9.83949 0.178177 
-0.145016 0.178177 9.94773 
7.84054 0.702486 5.59332 
0.702486 10.425 0.230237 
5.59332 0.230237 13.2745 
15.4885 2.05342 1.6834 
2.05342 7.10266 0.315431 
1.6834 0.315431 8.94893 
7.80578 -1.01891 8.29445 
-1.01891 8.62743 0.109968 
8.29445 0.109968 15.1069 
5.22972 -0.624974 0.846161 
-0.624974 11.9266 -1.21649 
0.846161 -1.21649 14.3837 
9.81307 -0.00607811 0.253438 
-0.00607811 9.91036 0.0420964 
0.253438 0.0420964 9.89089 
9.78241 -0.100981 0.281463 
-0.100981 9.97279 0.0759134 
0.281463 0.0759134 9.85911 
9.78854 0.0106856 0.282544 
0.0106856 9.94976 0.0314569 
0.282544 0.0314569 9.87601 
9.79916 -0.00318514 0.272216 
-0.00318514 9.93269 0.0533588 
0.272216 0.0533588 9.88246 
9.66665 -0.0152701 -0.218018 
-0.0152701 9.82329 -0.0340143 
-0.218018 -0.0340143 9.83735 
9.73397 -0.00556793 -0.169577 
-0.00556793 9.77445 -0.0204255 
-0.169577 -0.0204255 9.81887 
9.88623 0.0224326 -0.149016 
0.0224326 9.72815 -0.00609907 
-0.149016 -0.00609907 9.71292 
9.69724 0.00373424 -0.143823 
0.00373424 9.78395 -0.0171963 
-0.143823 -0.0171963 9.8461 
9.76758 -0.00264656 0.245386 
-0.00264656 9.92374 0.0372859 
0.245386 0.0372859 9.8416 
9.71156 -0.00543795 0.260963 
-0.00543795 9.9574 0.0364191 
0.260963 0.0364191 9.86396 
9.72798 -0.00174074 0.281913 
-0.00174074 9.94418 0.0468565 
0.281913 0.0468565 9.86076 
9.72572 -0.0708114 0.332887 
-0.0708114 9.94397 0.0847489 
0.332887 0.0847489 9.86323 
9.93973 0.0177242 0.00267996 
0.0177242 9.91113 0.0268545 
0.00267996 0.0268545 9.9817 
9.94358 -0.0780091 0.0086344 
-0.0780091 9.91886 0.020327 
0.0086344 0.020327 9.97012 
9.9548 -0.000971711 0.0341937 
-0.000971711 9.89267 0.000400627 
0.0341937 0.000400627 9.98509 
9.96326 -0.000325494 0.0178064 
-0.000325494 9.89435 0.0130789 
0.0178064 0.0130789 9.97494 
10.3507 0.245645 -0.113457 
0.245645 9.96644 0.00321295 
-0.113457 0.00321295 10.7779 
10.1712 -0.23466 0.116292 
-0.23466 10.593 -0.17846 
0.116292 -0.17846 10.3309 
10.0651 -0.0464612 0.109535 
-0.0464612 10.253 -0.291772 
0.109535 -0.291772 10.777 
10.3009 0.0167985 0.0731338 
0.0167985 10.2221 -0.213894 
0.0731338 -0.213894 10.5722 
11.0974 0.31344 0.990573 
0.31344 11.1214 0.151315 
0.990573 0.151315 13.273 
11.4929 0.0961875 0.269555 
0.0961875 11.927 -0.207756 
0.269555 -0.207756 12.072 
11.9904 0.365368 -0.0369586 
0.365368 12.8974 -0.643282 
-0.0369586 -0.643282 10.604 
11.0475 0.299925 -0.0191246 
0.299925 12.191 0.0196596 
-0.0191246 0.0196596 12.2533 
9.72153 -0.0873874 -0.173401 
-0.0873874 9.80049 -0.173885 
-0.173401 -0.173885 10.1057 
9.78832 -0.0945846 -0.198552 
-0.0945846 9.7561 -0.168286 
-0.198552 -0.168286 10.0833 
9.78867 -0.0557503 -0.161202 
-0.0557503 9.77489 -0.173904 
-0.161202 -0.173904 10.0641 
9.78206 -0.0948771 -0.176196 
-0.0948771 9.74928 -0.169041 
-0.176196 -0.169041 10.0963 
10.1797 0.0100041 -0.0519827 
0.0100041 10.1709 -0.0666512 
-0.0519827 -0.0666512 10.5817 
10.7099 0.0207732 0.100234 
0.0207732 9.98291 -0.0791376 
0.100234 -0.0791376 10.2394 
10.3614 -0.297609 -0.058634 
-0.297609 10.1289 -0.156627 
-0.058634 -0.156627 10.442 
10.574 -0.149512 -0.204591 
-0.149512 10.1572 -0.120658 
-0.204591 -0.120658 10.2011 
9.82932 -0.0524725 -0.0231073 
-0.0524725 9.79272 -0.0358816 
-0.0231073 -0.0358816 10.0015 
9.80618 -0.0083474 -0.0554332 
-0.0083474 9.82543 -0.0502492 
-0.0554332 -0.0502492 9.99192 
9.78721 -0.0620398 -0.0139104 
-0.0620398 9.79511 -0.0684009 
-0.0139104 -0.0684009 10.0412 
9.80931 -0.0576164 -0.031946 
-0.0576164 9.79199 -0.0469744 
-0.031946 -0.0469744 10.0222 
10.1895 -0.4341 -0.0203511 
-0.4341 10.6033 -0.0363574 
-0.0203511 -0.0363574 10.4404 
10.3417 0.222402 -0.00368475 
0.222402 10.1078 -0.313639 
-0.00368475 -0.313639 10.7837 
10.4333 -0.0124159 0.0924412 
-0.0124159 10.2971 0.228535 
0.0924412 0.228535 10.5028 
10.2315 -0.221206 0.201452 
-0.221206 10.4325 0.263374 
0.201452 0.263374 10.5691 
9.74952 -0.0733089 -0.359019 
-0.0733089 9.82437 -0.360911 
-0.359019 -0.360911 9.51796 
9.60023 -0.0612551 -0.378798 
-0.0612551 9.87801 -0.336542 
-0.378798 -0.336542 9.6136 
9.64955 0.0112507 -0.255228 
0.0112507 9.85899 -0.122822 
-0.255228 -0.122822 9.58331 
9.72682 -0.114885 -0.539203 
-0.114885 10.0906 -0.232448 
-0.539203 -0.232448 9.27441 
9.62789 0.0499339 0.0748987 
0.0499339 9.78916 -0.0346864 
0.0748987 -0.0346864 10.3748 
9.74454 0.215047 -0.0777356 
0.215047 9.81712 -0.0256096 
-0.0777356 -0.0256096 10.2302 
9.84958 0.103547 -0.146132 
0.103547 9.91123 0.0581732 
-0.146132 0.0581732 10.0311 
9.41707 0.0290168 -0.212659 
0.0290168 9.81693 -0.0128506 
-0.212659 -0.0128506 10.5579 
5.25622 -0.65587 0.527718 
-0.65587 6.37214 2.52302 
0.527718 2.52302 -1.87787 
2.45253 0.178967 -0.744953 
0.178967 3.39727 -0.166791 
-0.744953 -0.166791 3.90069 
3.36356 0.202165 -0.327847 
0.202165 4.75352 0.23407 
-0.327847 0.23407 1.63342 
2.0612 0.862077 -0.141551 
0.862077 6.50148 -1.18295 
-0.141551 -1.18295 1.18781 
9.86591 -0.00389195 -0.213024 
-0.00389195 9.8682 -0.106307 
-0.213024 -0.106307 9.90778 
9.86799 -0.00995326 -0.201322 
-0.00995326 9.86668 -0.112564 
-0.201322 -0.112564 9.90722 
9.8795 -0.00273621 -0.210055 
-0.00273621 9.87748 -0.118986 
-0.210055 -0.118986 9.88491 
9.86254 -0.00193139 -0.194632 
-0.00193139 9.88014 -0.109819 
-0.194632 -0.109819 9.8992 
0.171607 -0.75088 0.834471 
-0.75088 0.341166 -0.603227 
0.834471 -0.603227 15.1121 
9.84716 1.99925 -0.694199 
1.99925 11.0539 1.88675 
-0.694199 1.88675 -5.27616 
9.3679 -0.0892408 2.03254 
-0.0892408 9.65301 1.06734 
2.03254 1.06734 -3.39601 
9.68632 -1.20247 6.65773 
-1.20247 2.81692 12.2108 
6.65773 12.2108 3.12167 
9.71487 -0.00194503 -0.0522549 
-0.00194503 9.73187 -0.383726 
-0.0522549 -0.383726 9.45712 
10.1015 -0.00424264 0.12187 
-0.00424264 9.68035 -0.429876 
0.12187 -0.429876 9.12204 
10.0106 -0.0549602 -0.125159 
-0.0549602 9.67715 -0.31819 
-0.125159 -0.31819 9.21611 
9.93834 -0.0316627 -0.0332048 
-0.0316627 9.69345 -0.381268 
-0.0332048 -0.381268 9.27206 
10.4813 0.0220004 -0.125398 
0.0220004 10.6736 0.0613792 
-0.125398 0.0613792 10.0536 
10.2096 -0.0418957 0.0746078 
-0.0418957 10.302 -0.0536103 
0.0746078 -0.0536103 10.6969 
10.3027 -0.0880449 0.0672471 
-0.0880449 10.3803 0.0879085 
0.0672471 0.0879085 10.5254 
10.281 -0.00251132 0.0211133 
-0.00251132 10.3592 0.196489 
0.0211133 0.196489 10.5682 
10.0422 -0.000812491 0.064604 
-0.000812491 10.0362 -0.0256729 
0.064604 -0.0256729 10.0074 
10.0512 0.00161531 0.0652675 
0.00161531 10.0501 -0.030408 
0.0652675 -0.030408 9.98451 
10.0406 -0.00655144 0.0664036 
-0.00655144 10.0435 -0.03176 
0.0664036 -0.03176 10.0017 
10.0505 0.00135254 0.0752083 
0.00135254 10.0425 -0.0292159 
0.0752083 -0.0292159 9.99276 
10.3114 0.606645 0.391175 
0.606645 10.1402 0.80991 
0.391175 0.80991 11.3956 
11.3686 -0.0522533 -0.0692527 
-0.0522533 8.50224 0.114803 
-0.0692527 0.114803 11.9763 
11.7601 0.191205 -0.0940536 
0.191205 9.72152 1.30885 
-0.0940536 1.30885 10.3656 
9.95105 -0.0841621 0.0592862 
-0.0841621 10.7539 -1.11066 
0.0592862 -1.11066 11.1422 
9.95852 -0.012003 0.212614 
-0.012003 9.95971 0.112231 
0.212614 0.112231 9.97437 
9.93843 0.00169924 0.212305 
0.00169924 9.95287 0.124734 
0.212305 0.124734 10.0013 
9.94732 -0.00710392 0.206851 
-0.00710392 9.95298 0.115875 
0.206851 0.115875 9.99231 
9.95159 -0.0129738 0.206752 
-0.0129738 9.9712 0.111889 
0.206752 0.111889 9.96981 
9.87793 -0.0638644 -0.058288 
-0.0638644 9.8391 -0.104726 
-0.058288 -0.104726 10.0197 
9.85565 -0.0689201 -0.0216629 
-0.0689201 9.9003 -0.0095295 
-0.0216629 -0.0095295 9.98082 
9.88621 -0.0964329 -0.0212704 
-0.0964329 9.84188 0.00310643 
-0.0212704 0.00310643 10.0087 
9.92572 -0.040929 -0.0526606 
-0.040929 9.81002 -0.0831783 
-0.0526606 -0.0831783 10.001 
9.66762 0.0402129 -0.308125 
0.0402129 9.82592 0.227303 
-0.308125 0.227303 9.80648 
9.61742 0.0756513 -0.306107 
0.0756513 9.90663 0.212327 
-0.306107 0.212327 9.77597 
9.66722 0.0544782 -0.340677 
0.0544782 9.84038 0.245617 
-0.340677 0.245617 9.79242 
9.69427 0.156369 -0.264613 
0.156369 9.80028 0.280423 
-0.264613 0.280423 9.80548 
9.84173 0.100225 -0.141502 
0.100225 9.88255 0.100356 
-0.141502 0.100356 10.232 
9.82256 0.100669 -0.126533 
0.100669 9.88732 0.122191 
-0.126533 0.122191 10.2464 
9.78771 0.078082 -0.0861748 
0.078082 9.86068 0.0516533 
-0.0861748 0.0516533 10.3079 
9.84452 0.128149 -0.148679 
0.128149 9.88682 0.0884932 
-0.148679 0.0884932 10.225 
16.131 -1.48826 -0.186524 
-1.48826 12.2269 -2.61831 
-0.186524 -2.61831 15.7396 
11.8799 -0.775131 -2.14682 
-0.775131 6.60527 2.08944 
-2.14682 2.08944 25.6123 
13.3833 1.57904 0.0948571 
1.57904 1.2375 3.53268 
0.0948571 3.53268 29.4766 
12.6639 -0.478802 -1.14038 
-0.478802 14.063 3.46373 
-1.14038 3.46373 17.3705 
9.90954 -0.331872 0.0802212 
-0.331872 9.6303 0.0937871 
0.0802212 0.0937871 10.4041 
9.89281 -0.33175 0.0329014 
-0.33175 9.54716 0.206864 
0.0329014 0.206864 10.504 
9.91498 -0.226213 -0.0751239 
-0.226213 9.58627 -0.0170074 
-0.0751239 -0.0170074 10.4427 
10.1594 -0.285345 0.350905 
-0.285345 10.0246 0.121904 
0.350905 0.121904 9.76001 
9.76158 -0.160431 -0.183972 
-0.160431 9.77037 -0.183961 
-0.183972 -0.183961 10.2123 
9.78974 -0.0992093 -0.252683 
-0.0992093 9.6993 -0.168644 
-0.252683 -0.168644 10.2552 
9.7629 -0.163886 -0.196305 
-0.163886 9.72002 -0.0724847 
-0.196305 -0.0724847 10.2613 
9.74434 -0.0853454 -0.00574459 
-0.0853454 9.90325 -0.202774 
-0.00574459 -0.202774 10.0967 
9.79859 0.155965 -0.296726 
0.155965 9.65653 1.16972 
-0.296726 1.16972 9.99796 
10.1602 -0.0985774 0.000749242 
-0.0985774 9.208 0.589169 
0.000749242 0.589169 10.0849 
9.55745 0.125332 -0.272058 
0.125332 9.62998 1.09389 
-0.272058 1.09389 10.2657 
9.4975 0.335232 -0.204246 
0.335232 9.61785 1.02556 
-0.204246 1.02556 10.3377 
9.91966 0.0067969 0.06134 
0.0067969 9.89606 0.168525 
0.06134 0.168525 9.74276 
9.9386 -0.0187152 0.0887312 
-0.0187152 9.92165 0.179419 
0.0887312 0.179419 9.69824 
9.92771 -0.0192702 0.066329 
-0.0192702 9.93476 0.16937 
0.066329 0.16937 9.69602 
9.9119 -0.0206949 0.0779862 
-0.0206949 9.90512 0.124676 
0.0779862 0.124676 9.74146 
9.95576 -0.0186116 -0.115372 
-0.0186116 9.93102 0.191679 
-0.115372 0.191679 10.0451 
9.99264 0.0226154 -0.11867 
0.0226154 9.94902 0.20693 
-0.11867 0.20693 9.99021 
9.98295 0.00532649 -0.113967 
0.00532649 10.0076 0.234891 
-0.113967 0.234891 9.94135 
9.98022 0.0047782 -0.140957 
0.0047782 9.9669 0.227947 
-0.140957 0.227947 9.98475 
9.946 -0.015305 -0.250576 
-0.015305 9.94713 0.0260455 
-0.250576 0.0260455 9.99171 
9.94 0.012949 -0.230495 
0.012949 9.97334 0.0178315 
-0.230495 0.0178315 9.9715 
9.92404 0.0109961 -0.23963 
0.0109961 9.98831 0.0356766 
-0.23963 0.0356766 9.97249 
9.95582 -0.0141222 -0.257233 
-0.0141222 9.96747 0.0266277 
-0.257233 0.0266277 9.96155 
9.97841 -0.00357146 0.0538265 
-0.00357146 9.97849 0.233068 
0.0538265 0.233068 9.9535 
9.94743 0.0197965 0.0997353 
0.0197965 9.93502 0.227361 
0.0997353 0.227361 10.0279 
9.95594 -0.01624 0.0674657 
-0.01624 9.98452 0.233644 
0.0674657 0.233644 9.96994 
9.98288 -0.011333 0.0561242 
-0.011333 9.9646 0.219189 
0.0561242 0.219189 9.96292 
9.93851 -0.00480882 -0.0862936 
-0.00480882 9.96095 -0.235488 
-0.0862936 -0.235488 10.0083 
9.96786 -0.0114911 -0.0882043 
-0.0114911 9.95254 -0.230286 
-0.0882043 -0.230286 9.98734 
9.97114 0.000930043 -0.0833586 
0.000930043 9.95256 -0.223737 
-0.0833586 -0.223737 9.98404 
9.97077 -0.00458989 -0.0857821 
-0.00458989 9.95761 -0.223666 
-0.0857821 -0.223666 9.97935 
9.88446 0.000304951 -0.190383 
0.000304951 9.91218 0.143372 
-0.190383 0.143372 9.93012 
9.87206 0.0266444 -0.200496 
0.0266444 9.90032 0.148786 
-0.200496 0.148786 9.95438 
9.88082 0.0344692 -0.1925 
0.0344692 9.88643 0.13488 
-0.1925 0.13488 9.95951 
9.87709 0.0362158 -0.21653 
0.0362158 9.91394 0.215626 
-0.21653 0.215626 9.93573 
9.86589 0.0428845 -0.186108 
0.0428845 9.87981 0.173023 
-0.186108 0.173023 9.98798 
9.94611 0.0435941 -0.225686 
0.0435941 9.89578 0.270827 
-0.225686 0.270827 9.89179 
9.90584 0.0276722 -0.151218 
0.0276722 9.89577 0.174652 
-0.151218 0.174652 9.93208 
9.89573 0.0273769 -0.186123 
0.0273769 9.89255 0.213232 
-0.186123 0.213232 9.9454 
9.74414 -0.0252833 0.0284083 
-0.0252833 9.9406 0.145605 
0.0284083 0.145605 9.83508 
9.79915 -0.013806 0.21437 
-0.013806 9.8253 0.0914413 
0.21437 0.0914413 9.89536 
9.75335 -0.0201669 0.103391 
-0.0201669 9.75407 0.031559 
0.103391 0.031559 10.0124 
9.7472 -0.118355 0.00551661 
-0.118355 9.82326 0.113247 
0.00551661 0.113247 9.94936 
9.95141 0.00767967 -0.0181099 
0.00767967 9.96637 -0.000956869 
-0.0181099 -0.000956869 9.98396 
9.96518 -0.0188876 0.013759 
-0.0188876 9.95715 -0.0278515 
0.013759 -0.0278515 9.97941 
9.9468 0.00287529 -0.0150497 
0.00287529 9.9649 -0.00229303 
-0.0150497 -0.00229303 9.99004 
9.94101 0.019304 -0.0168276 
0.019304 9.966 -0.00698472 
-0.0168276 -0.00698472 9.99473 
9.6729 0.0849606 0.217123 
0.0849606 9.83654 -0.176879 
0.217123 -0.176879 10.1647 
9.84996 0.191674 0.308535 
0.191674 9.77491 -0.224819 
0.308535 -0.224819 10.0493 
9.52962 0.373055 0.264044 
0.373055 9.78262 0.0504766 
0.264044 0.0504766 10.3619 
9.62099 0.0927589 -0.0148944 
0.0927589 9.84278 -0.0980054 
-0.0148944 -0.0980054 10.2104 
10.0588 0.0318581 0.121806 
0.0318581 9.83112 -0.268196 
0.121806 -0.268196 9.75377 
9.91766 -0.00517993 0.124744 
-0.00517993 9.8986 -0.227247 
0.124744 -0.227247 9.8274 
9.942 0.0314156 0.189183 
0.0314156 9.91926 -0.249181 
0.189183 -0.249181 9.78239 
9.90165 0.0246307 0.117464 
0.0246307 9.91162 -0.248276 
0.117464 -0.248276 9.83039 
9.83595 -0.00680034 0.234629 
-0.00680034 9.85089 0.027828 
0.234629 0.027828 9.8606 
9.80135 -0.0147527 0.231503 
-0.0147527 9.89506 -0.00497924 
0.231503 -0.00497924 9.85103 
9.87742 0.0176803 0.24674 
0.0176803 9.81599 -0.00062134 
0.24674 -0.00062134 9.85403 
9.83111 -0.00102302 0.249921 
-0.00102302 9.84993 0.00969321 
0.249921 0.00969321 9.86641 
10.0471 -0.135674 0.684105 
-0.135674 9.42336 0.693925 
0.684105 0.693925 9.37587 
9.89884 0.0486607 0.268057 
0.0486607 9.6446 0.604574 
0.268057 0.604574 9.30287 
9.76343 -0.127192 0.411254 
-0.127192 9.6919 0.223561 
0.411254 0.223561 9.39098 
10.0384 -0.0475597 0.309335 
-0.0475597 9.51883 0.359231 
0.309335 0.359231 9.28907 
9.39556 -0.367837 0.977413 
-0.367837 10.2259 0.608428 
0.977413 0.608428 9.42202 
9.35135 -0.227561 0.530649 
-0.227561 9.96139 -0.0289251 
0.530649 -0.0289251 9.73075 
9.14808 -0.252729 0.516594 
-0.252729 10.0293 -0.017306 
0.516594 -0.017306 9.86611 
9.26079 -0.238766 0.384254 
-0.238766 9.84002 0.184962 
0.384254 0.184962 9.94267 
7.43023 -0.226224 0.0174425 
-0.226224 10.7584 -5.17878 
0.0174425 -5.17878 5.63266 
8.79441 -0.0782693 -0.340509 
-0.0782693 7.44036 -3.65168 
-0.340509 -3.65168 7.58648 
8.77024 -0.573299 -0.366917 
-0.573299 9.1839 -3.69028 
-0.366917 -3.69028 5.86711 
6.28863 -1.16898 -0.270526 
-1.16898 10.9675 0.143652 
-0.270526 0.143652 6.56516 
14.9775 -0.58011 -1.50927 
-0.58011 13.208 1.19133 
-1.50927 1.19133 19.5678 
13.2537 -0.388005 -2.68527 
-0.388005 13.9738 -0.562827 
-2.68527 -0.562827 20.5259 
18.8282 1.8048 0.887893 
1.8048 17.2551 2.31304 
0.887893 2.31304 11.67 
14.0384 -0.402693 1.10625 
-0.402693 14.1117 0.480516 
1.10625 0.480516 19.6033 
10.8755 -0.364656 -4.67521 
-0.364656 7.66948 0.360547 
-4.67521 0.360547 8.94227 
7.83087 -0.413556 -1.4004 
-0.413556 9.4535 0.732939 
-1.4004 0.732939 10.2028 
10.3374 0.00604376 -1.31351 
0.00604376 9.96534 0.263368 
-1.31351 0.263368 7.18443 
8.26123 0.0541692 -1.45926 
0.0541692 8.9871 -0.234087 
-1.45926 -0.234087 10.2389 
8.18248 -0.0177649 -1.8459 
-0.0177649 5.75954 1.45461 
-1.8459 1.45461 -2.56407 
4.40952 0.0355358 0.918389 
0.0355358 1.9847 0.643023 
0.918389 0.643023 4.98373 
6.15184 -0.0117375 0.567028 
-0.0117375 3.83674 0.899535 
0.567028 0.899535 1.38937 
8.59739 -0.479557 3.24577 
-0.479557 2.30457 0.555872 
3.24577 0.555872 0.475991 
9.90162 0.00831583 -0.219258 
0.00831583 9.91861 0.117351 
-0.219258 0.117351 9.91127 
9.9235 0.042142 -0.259045 
0.042142 9.9538 0.114085 
-0.259045 0.114085 9.8542 
9.88268 0.0148254 -0.248391 
0.0148254 9.93176 0.112529 
-0.248391 0.112529 9.91706 
9.88103 0.0278289 -0.248613 
0.0278289 9.93653 0.114649 
-0.248613 0.114649 9.91394 
9.98727 -0.0393369 -0.130479 
-0.0393369 9.95701 -0.0579882 
-0.130479 -0.0579882 9.84041 
9.87182 0.0301328 -0.125902 
0.0301328 9.98577 -0.00419602 
-0.125902 -0.00419602 9.9271 
9.94943 0.00395309 -0.170746 
0.00395309 10.0252 -0.0351546 
-0.170746 -0.0351546 9.81003 
9.96268 -0.0307275 -0.150864 
-0.0307275 9.95367 -0.0654138 
-0.150864 -0.0654138 9.86834 
11.2713 1.6137 -1.79057 
1.6137 5.19485 1.10209 
-1.79057 1.10209 5.73053 
10.4016 -1.17444 -2.52906 
-1.17444 6.40859 0.557882 
-2.52906 0.557882 5.38644 
11.8664 -3.32026 -3.62233 
-3.32026 6.5693 -1.70409 
-3.62233 -1.70409 3.76098 
7.98768 -2.07429 -1.76831 
-2.07429 8.93343 4.695 
-1.76831 4.695 5.27555 
9.86462 -0.0245552 0.112327 
-0.0245552 9.81564 0.195427 
0.112327 0.195427 9.90996 
9.85875 -0.0262192 0.116183 
-0.0262192 9.82574 0.20694 
0.116183 0.20694 9.90573 
9.84661 -0.00715046 0.133238 
-0.00715046 9.82492 0.182715 
0.133238 0.182715 9.9187 
9.85877 -0.0199201 0.101465 
-0.0199201 9.83065 0.223528 
0.101465 0.223528 9.9008 
9.92132 -0.041063 0.150971 
-0.041063 9.95584 -0.128734 
0.150971 -0.128734 9.93979 
9.94465 0.021663 0.181475 
0.021663 9.95745 -0.146746 
0.181475 -0.146746 9.91485 
9.9567 0.0283953 0.177112 
0.0283953 9.95917 -0.150178 
0.177112 -0.150178 9.90109 
9.93362 -0.0126688 0.225255 
-0.0126688 9.99639 -0.170168 
0.225255 -0.170168 9.88694 
9.9705 0.00101192 -0.0193062 
0.00101192 9.97474 0.0134713 
-0.0193062 0.0134713 9.98355 
9.96771 0.00889876 -0.00581737 
0.00889876 9.95876 -0.00636722 
-0.00581737 -0.00636722 10.0023 
9.95949 -0.00125132 -0.00914849 
-0.00125132 9.96214 -0.012739 
-0.00914849 -0.012739 10.0072 
9.97033 -0.00636936 -0.00940087 
-0.00636936 9.95639 0.00843586 
-0.00940087 0.00843586 10.0021 
9.90428 0.00592177 0.194385 
0.00592177 9.90956 0.105208 
0.194385 0.105208 9.86573 
9.91312 0.0120849 0.196094 
0.0120849 9.87726 0.0903095 
0.196094 0.0903095 9.88918 
9.83593 -0.0451479 0.229973 
-0.0451479 9.86559 0.119196 
0.229973 0.119196 9.97805 
9.83276 -0.0198823 0.189741 
-0.0198823 9.90647 0.0445241 
0.189741 0.0445241 9.94034 
9.91223 -0.168796 0.0678133 
-0.168796 9.57265 0.383323 
0.0678133 0.383323 9.61298 
9.8464 -0.13907 0.225114 
-0.13907 9.54226 0.317397 
0.225114 0.317397 9.70919 
9.70849 -0.176554 0.261994 
-0.176554 9.58879 0.346921 
0.261994 0.346921 9.80057 
9.97687 -0.0679196 0.306748 
-0.0679196 9.48036 0.400635 
0.306748 0.400635 9.64062 
9.95385 -0.0333994 0.0322518 
-0.0333994 10.0145 0.0694886 
0.0322518 0.0694886 10.0042 
9.9411 -0.0293916 -0.0215831 
-0.0293916 9.98953 0.0184944 
-0.0215831 0.0184944 10.0419 
9.97865 -0.0310607 -0.055612 
-0.0310607 9.98936 -0.0323779 
-0.055612 -0.0323779 10.0045 
9.90428 -0.0484182 -0.0245688 
-0.0484182 9.98009 0.0142452 
-0.0245688 0.0142452 10.0881 
10.8677 -1.81298 -0.711027 
-1.81298 11.5856 -0.65363 
-0.711027 -0.65363 13.7774 
10.3503 -2.19662 -1.49698 
-2.19662 10.7229 -0.273273 
-1.49698 -0.273273 15.1575 
11.2333 -0.930506 -0.751046 
-0.930506 11.003 -0.362969 
-0.751046 -0.362969 13.9943 
9.88813 -0.70397 -0.143002 
-0.70397 10.5147 -2.17772 
-0.143002 -2.17772 15.8278 
9.96109 0.0104838 -0.00687106 
0.0104838 9.97832 -0.0126255 
-0.00687106 -0.0126255 9.99553 
9.97 -0.00340807 0.0102729 
-0.00340807 9.97345 0.0132972 
0.0102729 0.0132972 9.99149 
9.95935 0.00216744 -0.00234295 
0.00216744 9.96812 0.00304297 
-0.00234295 0.00304297 10.0075 
9.96008 -0.0115133 0.0115036 
-0.0115133 9.96576 -0.00116159 
0.0115036 -0.00116159 10.0091 
10.1821 -0.0208399 -0.0338231 
-0.0208399 10.1344 -0.00888114 
-0.0338231 -0.00888114 10.2388 
10.2277 0.0421176 0.0510238 
0.0421176 10.0743 -0.0288169 
0.0510238 -0.0288169 10.2532 
10.2078 -0.0305896 0.0225046 
-0.0305896 10.1076 -0.062955 
0.0225046 -0.062955 10.2398 
10.2478 -0.122809 0.0564284 
-0.122809 10.1176 -0.109357 
0.0564284 -0.109357 10.1899 
9.84009 -0.0918229 0.0463091 
-0.0918229 9.97432 0.000639414 
0.0463091 0.000639414 9.94745 
9.55622 -0.028622 -0.0805794 
-0.028622 9.72219 -0.059459 
-0.0805794 -0.059459 10.4835 
9.85471 -0.0754804 0.0375261 
-0.0754804 9.94721 0.0467799 
0.0375261 0.0467799 9.95994 
9.78334 -0.155586 0.492962 
-0.155586 10.2166 0.249852 
0.492962 0.249852 9.76189 
9.80006 0.0557413 -0.0933497 
0.0557413 9.83968 -0.129189 
-0.0933497 -0.129189 9.94149 
9.82518 -0.0235465 -0.135291 
-0.0235465 9.74899 -0.159418 
-0.135291 -0.159418 10.007 
9.83461 -0.0812776 -0.111392 
-0.0812776 9.94797 -0.127409 
-0.111392 -0.127409 9.79863 
9.88145 -0.0823637 -0.268678 
-0.0823637 9.83724 -0.188079 
-0.268678 -0.188079 9.86253 
9.94753 -0.00202048 -0.0112995 
-0.00202048 9.93535 0.259233 
-0.0112995 0.259233 9.95963 
9.92191 0.00399866 0.00146728 
0.00399866 9.93393 0.223289 
0.00146728 0.223289 9.98667 
9.93975 0.0155379 0.00554139 
0.0155379 9.94137 0.232724 
0.00554139 0.232724 9.96139 
9.9542 0.0079682 -0.0189157 
0.0079682 9.94196 0.253318 
-0.0189157 0.253318 9.94635 
10.1962 0.310948 -1.01562 
0.310948 9.4484 0.406384 
-1.01562 0.406384 9.51211 
10.1265 0.219278 -0.657668 
0.219278 10.1993 0.918008 
-0.657668 0.918008 8.83093 
10.1735 0.423966 -0.703899 
0.423966 9.47571 0.6376 
-0.703899 0.6376 9.50747 
9.64729 0.0246743 -0.245294 
0.0246743 9.7724 0.0547922 
-0.245294 0.0547922 9.73702 
9.97003 0.054333 -0.0356332 
0.054333 9.78488 0.0950212 
-0.0356332 0.0950212 9.93754 
9.97286 0.00549797 0.0141984 
0.00549797 9.78003 0.058983 
0.0141984 0.058983 9.93956 
9.91089 0.0361361 0.0112359 
0.0361361 9.81783 0.0868176 
0.0112359 0.0868176 9.96374 
9.94226 0.0210504 0.00338256 
0.0210504 9.77219 0.0530361 
0.00338256 0.0530361 9.97801 
8.0374 -1.60191 -3.06967 
-1.60191 6.98524 -0.245632 
-3.06967 -0.245632 -4.03719 
3.04869 0.379573 1.11484 
0.379573 3.1835 1.29257 
1.11484 1.29257 4.75327 
5.79882 -0.253519 0.257483 
-0.253519 4.19275 0.558264 
0.257483 0.558264 0.993887 
9.62843 0.150643 3.36565 
0.150643 1.76547 -1.36409 
3.36565 -1.36409 -0.408439 
9.83411 -0.0460922 0.136197 
-0.0460922 9.78469 0.1928 
0.136197 0.1928 9.96174 
9.82754 -0.0264906 0.163747 
-0.0264906 9.79787 0.218744 
0.163747 0.218744 9.95512 
9.84623 -0.0627007 0.191894 
-0.0627007 9.79373 0.220809 
0.191894 0.220809 9.94057 
9.81677 -0.0463299 0.189913 
-0.0463299 9.83874 0.172765 
0.189913 0.172765 9.92502 
9.792 -0.0907013 -0.0703986 
-0.0907013 9.89678 0.0915056 
-0.0703986 0.0915056 9.80078 
9.78739 0.062719 -0.0989731 
0.062719 9.79139 0.136854 
-0.0989731 0.136854 9.91078 
9.77756 0.0998276 -0.0733047 
0.0998276 9.7891 0.0955744 
-0.0733047 0.0955744 9.9229 
9.86885 -0.00137819 -0.0805561 
-0.00137819 9.72217 0.125355 
-0.0805561 0.125355 9.89854 
9.97907 0.0607903 0.0624032 
0.0607903 9.96198 0.0469851 
0.0624032 0.0469851 10.0316 
9.97805 -0.0228464 -0.0656629 
-0.0228464 9.98372 -0.0220299 
-0.0656629 -0.0220299 10.0109 
9.94378 -0.0102522 -0.00484877 
-0.0102522 9.94427 0.00722563 
-0.00484877 0.00722563 10.0846 
9.96172 -0.0376951 -0.00449146 
-0.0376951 9.93523 0.00233431 
-0.00449146 0.00233431 10.0757 
7.72661 0.0407363 -0.67787 
0.0407363 11.6771 -2.65516 
-0.67787 -2.65516 5.58521 
10.2395 1.92615 -1.33862 
1.92615 12.0101 -1.08383 
-1.33862 -1.08383 2.73926 
7.76742 4.11916 0.345171 
4.11916 7.55445 -1.63855 
0.345171 -1.63855 9.66701 
8.49165 0.122402 -0.821771 
0.122402 11.5332 -2.93153 
-0.821771 -2.93153 4.96403 
10.1501 0.345527 -0.455907 
0.345527 9.37848 0.941963 
-0.455907 0.941963 9.31965 
10.2464 0.231623 -0.897255 
0.231623 10.0371 0.994497 
-0.897255 0.994497 8.56473 
10.2534 0.335548 -0.177335 
0.335548 9.43491 1.00685 
-0.177335 1.00685 9.15989 
9.56476 -0.106906 -0.145434 
-0.106906 9.67414 -0.12324 
-0.145434 -0.12324 9.60929 
9.59812 -0.0195434 0.298541 
-0.0195434 9.50687 -0.394042 
0.298541 -0.394042 9.87014 
9.45115 0.0612311 0.462384 
0.0612311 9.67372 -0.61407 
0.462384 -0.61407 9.85027 
9.35161 0.120861 0.328281 
0.120861 9.82402 -0.374901 
0.328281 -0.374901 9.79951 
9.46386 0.108959 0.428937 
0.108959 9.69394 -0.841579 
0.428937 -0.841579 9.81733 
9.95283 0.0236226 -0.0236305 
0.0236226 10.0336 0.000332769 
-0.0236305 0.000332769 10.031 
9.99893 -0.0131338 -0.00330636 
-0.0131338 9.99165 0.013209 
-0.00330636 0.013209 10.0268 
9.96063 -0.0131894 0.00717009 
-0.0131894 10.0299 0.0071929 
0.00717009 0.0071929 10.0268 
9.97027 0.00615306 -0.00818054 
0.00615306 10.0336 0.0033104 
-0.00818054 0.0033104 10.0135 
9.96922 0.00987336 0.0115272 
0.00987336 9.90725 -0.00653136 
0.0115272 -0.00653136 9.95729 
9.97016 0.0150051 0.01379 
0.0150051 9.9106 -0.00290628 
0.01379 -0.00290628 9.953 
9.91096 0.0298245 0.00550718 
0.0298245 9.933 0.00149636 
0.00550718 0.00149636 9.98981 
9.95962 0.0160082 0.0232336 
0.0160082 9.92183 -0.00127872 
0.0232336 -0.00127872 9.95233 
9.78167 0.0795264 0.213859 
0.0795264 9.77964 -0.216839 
0.213859 -0.216839 10.0543 
9.81211 0.0614645 0.200639 
0.0614645 9.78325 -0.212822 
0.200639 -0.212822 10.0202 
9.81717 0.0893295 0.209835 
0.0893295 9.77893 -0.210458 
0.209835 -0.210458 10.0195 
9.73943 0.0895614 0.221918 
0.0895614 9.78554 -0.195449 
0.221918 -0.195449 10.0906 
10.0577 -0.611618 -0.176695 
-0.611618 10.3195 -0.100599 
-0.176695 -0.100599 10.4356 
9.98137 0.233438 0.333287 
0.233438 10.1221 0.211224 
0.333287 0.211224 10.7093 
10.2462 0.280379 0.220877 
0.280379 10.6629 0.023392 
0.220877 0.023392 9.90368 
10.3221 -0.304167 -0.271898 
-0.304167 9.80377 0.437127 
-0.271898 0.437127 10.6869 
10.0272 0.0282813 0.0112145 
0.0282813 10.0272 0.0466318 
0.0112145 0.0466318 10.2 
10.0913 0.0205972 -0.00421303 
0.0205972 10.005 0.0303511 
-0.00421303 0.0303511 10.1581 
10.1012 0.00860519 0.0102596 
0.00860519 9.99386 0.0333975 
0.0102596 0.0333975 10.1594 
10.0629 0.0265239 0.00449296 
0.0265239 10.0472 0.00386905 
0.00449296 0.00386905 10.1442 
9.79551 -0.0933074 0.210901 
-0.0933074 9.67145 0.202049 
0.210901 0.202049 9.98345 
9.73262 -0.060349 0.162555 
-0.060349 9.6688 0.189312 
0.162555 0.189312 10.049 
9.77072 0.00609774 0.0890379 
0.00609774 9.87832 0.206572 
0.0890379 0.206572 9.80137 
9.77365 -0.166213 0.228394 
-0.166213 9.74837 0.273279 
0.228394 0.273279 9.92839 
9.92875 -0.0035485 -0.238253 
-0.0035485 9.85857 -0.0644098 
-0.238253 -0.0644098 9.86439 
9.9225 -0.0149573 -0.245798 
-0.0149573 9.89336 -0.0273314 
-0.245798 -0.0273314 9.83586 
9.78622 0.00338513 -0.237374 
0.00338513 9.87541 -0.0554668 
-0.237374 -0.0554668 9.99008 
9.87644 -0.0314551 -0.199616 
-0.0314551 9.89809 -0.0909411 
-0.199616 -0.0909411 9.87718 
9.59699 0.0596047 0.331595 
0.0596047 9.70554 -0.445138 
0.331595 -0.445138 9.97266 
9.57464 0.0384311 0.380218 
0.0384311 9.60038 -0.296428 
0.380218 -0.296428 10.1002 
9.62882 0.161764 0.333418 
0.161764 9.5632 -0.507235 
0.333418 -0.507235 10.0832 
9.54782 -0.0312091 0.30594 
-0.0312091 9.55364 -0.0246353 
0.30594 -0.0246353 10.1737 
10.036 0.0193301 -0.0198026 
0.0193301 10.0659 0.00478854 
-0.0198026 0.00478854 10.108 
10.0242 -0.040666 -0.0482965 
-0.040666 9.98325 0.0326201 
-0.0482965 0.0326201 10.2025 
10.0299 -0.0210384 -0.00373616 
-0.0210384 10.1659 0.0168439 
-0.00373616 0.0168439 10.0141 
10.0507 0.0395083 -0.0316321 
0.0395083 10.0725 -0.0662828 
-0.0316321 -0.0662828 10.0868 
8.22399 0.195455 0.55571 
0.195455 9.27896 -1.02547 
0.55571 -1.02547 8.10475 
7.61083 0.324107 1.01122 
0.324107 9.63099 -1.18953 
1.01122 -1.18953 8.36589 
8.38494 -0.348046 0.394926 
-0.348046 9.26926 -0.868204 
0.394926 -0.868204 7.95351 
8.30725 0.221337 0.410961 
0.221337 9.25689 -1.13348 
0.410961 -1.13348 8.04356 
9.59322 0.160401 0.400207 
0.160401 9.69442 -0.394065 
0.400207 -0.394065 10.0401 
9.71608 0.0577375 -0.0036085 
0.0577375 9.63059 -0.284735 
-0.0036085 -0.284735 9.98106 
9.50369 0.174361 0.379043 
0.174361 9.6426 -0.506331 
0.379043 -0.506331 10.1815 
9.62738 0.0927527 0.110039 
0.0927527 9.71173 -0.470698 
0.110039 -0.470698 9.98862 
9.99652 0.0203599 -0.0143543 
0.0203599 10.1036 0.0439338 
-0.0143543 0.0439338 10.2973 
10.1175 0.0782657 0.00670633 
0.0782657 10.071 0.086261 
0.00670633 0.086261 10.2089 
10.1539 0.0346123 0.0208728 
0.0346123 10.0748 0.0809613 
0.0208728 0.0809613 10.1687 
10.1352 0.0677534 -0.0107977 
0.0677534 10.071 0.105907 
-0.0107977 0.105907 10.1912 
9.89503 -0.00441825 -0.246434 
-0.00441825 9.97847 -0.061312 
-0.246434 -0.061312 9.83809 
9.89061 -0.00616867 -0.243642 
-0.00616867 9.98362 -0.0553906 
-0.243642 -0.0553906 9.83735 
9.90082 -0.0301727 -0.294911 
-0.0301727 9.95118 -0.0623368 
-0.294911 -0.0623368 9.85959 
9.90719 0.00352982 -0.250041 
0.00352982 9.98021 -0.0596295 
-0.250041 -0.0596295 9.82418 
9.39925 1.39352 1.07234 
1.39352 11.5479 -0.542224 
1.07234 -0.542224 14.1948 
11.4183 0.957834 1.19976 
0.957834 13.781 0.318139 
1.19976 0.318139 9.94256 
9.18428 2.10271 1.02241 
2.10271 10.9721 -1.2806 
1.02241 -1.2806 14.9855 
10.4607 1.27162 1.20483 
1.27162 10.8747 0.295024 
1.20483 0.295024 13.8064 
9.87309 0.0511053 0.183984 
0.0511053 9.77966 -0.246528 
0.183984 -0.246528 9.95425 
9.8543 0.133434 0.201964 
0.133434 9.76268 -0.245723 
0.201964 -0.245723 9.99002 
9.85539 0.0317063 0.144078 
0.0317063 9.76603 -0.20763 
0.144078 -0.20763 9.98557 
9.84434 0.0642253 0.150683 
0.0642253 9.79576 -0.2357 
0.150683 -0.2357 9.96689 
9.81141 0.0620708 -0.0671034 
0.0620708 9.89313 -0.0876161 
-0.0671034 -0.0876161 9.85005 
9.82059 -0.0661279 -0.0779756 
-0.0661279 9.81244 -0.097688 
-0.0779756 -0.097688 9.92156 
9.80237 -0.0728005 -0.104126 
-0.0728005 9.79511 -0.141572 
-0.104126 -0.141572 9.95711 
9.87386 -0.00134054 -0.05426 
-0.00134054 9.74615 -0.118251 
-0.05426 -0.118251 9.93458 
10.483 -0.359899 0.133218 
-0.359899 11.0645 -0.229411 
0.133218 -0.229411 10.7132 
10.7641 0.294248 0.135949 
0.294248 10.1834 -0.480395 
0.135949 -0.480395 11.3131 
10.5348 -0.00163563 -0.00135281 
-0.00163563 10.422 -0.113192 
-0.00135281 -0.113192 11.3038 
10.7347 0.349989 -0.118723 
0.349989 10.4012 -0.201419 
-0.118723 -0.201419 11.1247 
9.94166 -0.0142274 -0.00787031 
-0.0142274 9.93673 -0.0359762 
-0.00787031 -0.0359762 9.98007 
9.90251 -0.0150871 0.00290839 
-0.0150871 9.93171 -0.0120432 
0.00290839 -0.0120432 10.0242 
9.89016 -0.012742 -0.0331236 
-0.012742 9.89588 -0.0426342 
-0.0331236 -0.0426342 10.0724 
9.89695 -0.0212913 0.00500174 
-0.0212913 9.94272 -0.0276629 
0.00500174 -0.0276629 10.0188 
10.2417 0.0656135 0.165192 
0.0656135 10.502 -0.166409 
0.165192 -0.166409 10.8423 
10.0215 0.148044 0.149563 
0.148044 10.4845 0.100008 
0.149563 0.100008 11.08 
10.3566 0.0862333 0.294021 
0.0862333 10.453 -0.204398 
0.294021 -0.204398 10.7764 
10.3737 -0.0218767 0.095267 
-0.0218767 10.369 -0.2589 
0.095267 -0.2589 10.8433 
9.74477 -0.427392 0.354014 
-0.427392 9.64737 0.526184 
0.354014 0.526184 8.47803 
9.70604 0.761287 -0.187537 
0.761287 9.81381 -1.33947 
-0.187537 -1.33947 8.35031 
9.33053 0.659347 0.660105 
0.659347 10.0997 -0.356782 
0.660105 -0.356782 8.43989 
9.11247 0.49948 1.08591 
0.49948 10.8953 -1.4138 
1.08591 -1.4138 7.86239 
10.2221 -0.064155 -0.111969 
-0.064155 10.8657 0.185925 
-0.111969 0.185925 10.7944 
10.7377 0.108407 0.307007 
0.108407 9.77761 0.531963 
0.307007 0.531963 11.3669 
10.7163 -0.0116745 -0.102575 
-0.0116745 10.115 -0.244134 
-0.102575 -0.244134 11.0508 
10.4532 0.0521189 -0.16704 
0.0521189 10.3481 0.0615588 
-0.16704 0.0615588 11.0808 
9.86849 -0.0540799 -0.0772849 
-0.0540799 9.78841 -0.326543 
-0.0772849 -0.326543 9.43371 
9.85543 0.0447939 -0.0650505 
0.0447939 9.79567 -0.238218 
-0.0650505 -0.238218 9.43952 
9.87822 -0.0303763 -0.0434846 
-0.0303763 9.76763 -0.357543 
-0.0434846 -0.357543 9.44476 
9.91879 0.0130107 -0.10561 
0.0130107 9.85434 -0.302889 
-0.10561 -0.302889 9.31749 
9.85634 0.0227384 -0.095326 
0.0227384 9.82047 -0.0939373 
-0.095326 -0.0939373 9.86583 
9.80289 -0.0705104 -0.161923 
-0.0705104 9.79512 -0.137154 
-0.161923 -0.137154 9.94463 
9.85074 0.00778182 -0.0912574 
0.00778182 9.86509 -0.108509 
-0.0912574 -0.108509 9.82681 
9.78126 -0.0301601 -0.119643 
-0.0301601 9.82607 -0.0586042 
-0.119643 -0.0586042 9.93531 
9.91033 0.0179045 0.13128 
0.0179045 9.89245 -0.17929 
0.13128 -0.17929 9.85349 
9.89337 0.00771135 0.160964 
0.00771135 9.90296 -0.174208 
0.160964 -0.174208 9.85994 
9.88802 0.017146 0.158791 
0.017146 9.91503 -0.187223 
0.158791 -0.187223 9.85323 
9.93334 0.0329128 0.205353 
0.0329128 9.94258 -0.212691 
0.205353 -0.212691 9.78035 
9.97993 -0.0374529 -0.00691586 
-0.0374529 10.0454 0.0205014 
-0.00691586 0.0205014 10.0459 
9.97886 -0.0169658 -0.0399887 
-0.0169658 10.0358 -0.020032 
-0.0399887 -0.020032 10.0565 
9.97872 -0.0226168 -0.00577093 
-0.0226168 10.0096 0.0279705 
-0.00577093 0.0279705 10.0829 
9.99024 -0.0386507 -0.0512377 
-0.0386507 10.0262 0.00369714 
-0.0512377 0.00369714 10.0548 
9.49771 -0.14875 -0.193795 
-0.14875 9.71921 -0.177281 
-0.193795 -0.177281 10.0327 
9.61229 -0.137163 -0.340164 
-0.137163 9.56995 -0.262003 
-0.340164 -0.262003 10.0674 
9.68106 -0.232745 -0.270527 
-0.232745 9.61944 -0.177395 
-0.270527 -0.177395 9.94911 
9.6714 -0.126438 -0.299798 
-0.126438 9.5705 -0.246978 
-0.299798 -0.246978 10.0077 
12.1478 -0.223784 -0.456441 
-0.223784 5.9028 1.2597 
-0.456441 1.2597 21.1058 
14.1077 -0.886549 0.570119 
-0.886549 12.847 1.40323 
0.570119 1.40323 12.2017 
13.063 -0.653919 0.211516 
-0.653919 10.7626 0.547688 
0.211516 0.547688 15.3309 
12.6152 0.253529 1.83465 
0.253529 11.3489 -2.38369 
1.83465 -2.38369 15.1923 
9.86917 -0.00974894 0.123796 
-0.00974894 9.77206 0.272525 
0.123796 0.272525 9.74972 
9.83551 -0.118047 0.196461 
-0.118047 9.74244 0.277052 
0.196461 0.277052 9.813 
9.90886 0.023934 0.241219 
0.023934 9.72244 0.297414 
0.241219 0.297414 9.75965 
9.87455 -0.0742178 0.226963 
-0.0742178 9.77108 0.243845 
0.226963 0.243845 9.74532 
9.76054 0.0444266 0.065252 
0.0444266 9.72789 -0.14163 
0.065252 -0.14163 9.94188 
9.84147 0.0176947 0.12567 
0.0176947 9.78598 -0.147152 
0.12567 -0.147152 9.80285 
9.80659 0.0429744 0.106552 
0.0429744 9.74258 -0.161262 
0.106552 -0.161262 9.88113 
9.77539 0.0623493 0.10462 
0.0623493 9.74399 -0.189066 
0.10462 -0.189066 9.91092 
8.88701 -0.247174 0.56276 
-0.247174 9.66051 -0.888928 
0.56276 -0.888928 7.40156 
8.50602 0.164396 0.784467 
0.164396 10.3415 -0.0781904 
0.784467 -0.0781904 7.10157 
9.69181 0.149472 1.25433 
0.149472 9.76981 -0.052799 
1.25433 -0.052799 6.48746 
9.90819 0.0836679 0.0326004 
0.0836679 8.48214 0.441425 
0.0326004 0.441425 7.55875 
9.92824 -0.0876163 0.203921 
-0.0876163 9.74832 -0.0302381 
0.203921 -0.0302381 10.4419 
9.65613 -0.156145 0.252877 
-0.156145 9.77051 -0.0406261 
0.252877 -0.0406261 10.6918 
9.57695 -0.0727811 0.447092 
-0.0727811 9.81856 0.0968408 
0.447092 0.0968408 10.7229 
9.31811 -0.132617 0.0579084 
-0.132617 9.76164 -0.0415319 
0.0579084 -0.0415319 11.0387 
9.7985 0.0328311 0.155679 
0.0328311 9.77086 -0.0673179 
0.155679 -0.0673179 9.86987 
9.70519 0.0465103 0.124601 
0.0465103 9.81139 -0.00604248 
0.124601 -0.00604248 9.92265 
9.96846 0.00104607 0.115097 
0.00104607 9.7243 -0.0505856 
0.115097 -0.0505856 9.74647 
9.81245 0.0699698 0.242663 
0.0699698 9.76154 -0.0566852 
0.242663 -0.0566852 9.86524 
9.8982 -0.0554896 -0.0656084 
-0.0554896 9.90784 -0.0576085 
-0.0656084 -0.0576085 10.1069 
9.88018 -0.0774423 -0.0237892 
-0.0774423 9.89014 0.0117361 
-0.0237892 0.0117361 10.1426 
10.0282 -0.116854 0.0216118 
-0.116854 9.95802 0.160975 
0.0216118 0.160975 9.92676 
9.89113 -0.186541 -0.00691571 
-0.186541 9.83529 0.0133452 
-0.00691571 0.0133452 10.1865 
9.60072 0.0945713 0.277935 
0.0945713 9.78088 -0.241412 
0.277935 -0.241412 9.75436 
9.61385 0.0810612 0.297952 
0.0810612 9.80089 -0.244028 
0.297952 -0.244028 9.72122 
9.60055 0.110119 0.306804 
0.110119 9.81665 -0.258881 
0.306804 -0.258881 9.71876 
9.58403 0.0392549 0.320762 
0.0392549 9.84857 -0.205358 
0.320762 -0.205358 9.70336 
9.91601 0.0896411 -0.117225 
0.0896411 9.99353 -0.0803275 
-0.117225 -0.0803275 9.98661 
10.0495 -0.0321154 0.125471 
-0.0321154 9.90978 0.231553 
0.125471 0.231553 9.93686 
9.90512 0.0185913 0.0199985 
0.0185913 9.90195 0.11432 
0.0199985 0.11432 10.0891 
10.0573 -0.0895226 0.0527779 
-0.0895226 9.75338 0.0436075 
0.0527779 0.0436075 10.0855 
9.81401 -0.0698401 -0.0867159 
-0.0698401 9.76411 -0.108447 
-0.0867159 -0.108447 9.93491 
9.77608 -0.0301064 -0.093811 
-0.0301064 9.76927 -0.0575972 
-0.093811 -0.0575972 9.96768 
9.76222 -0.0539144 -0.0730662 
-0.0539144 9.76221 -0.041803 
-0.0730662 -0.041803 9.98859 
9.77144 -0.0660852 -0.0452418 
-0.0660852 9.82022 -0.0125743 
-0.0452418 -0.0125743 9.92136 
9.94073 -0.0275459 -0.0274375 
-0.0275459 9.94713 -0.013545 
-0.0274375 -0.013545 9.99445 
9.939 -0.0571744 0.0248641 
-0.0571744 9.9731 0.0590854 
0.0248641 0.0590854 9.9702 
9.95261 -0.0171 -0.0427481 
-0.0171 9.93116 -0.00555763 
-0.0427481 -0.00555763 9.99854 
9.90118 -0.0383035 -0.0168277 
-0.0383035 9.91028 -0.0139702 
-0.0168277 -0.0139702 10.0709 
14.081 -0.841965 -0.61838 
-0.841965 10.1094 -1.87581 
-0.61838 -1.87581 10.7377 
10.661 -4.24297 -0.51606 
-4.24297 4.3227 0.671346 
-0.51606 0.671346 19.9445 
10.3223 -1.54621 0.628766 
-1.54621 6.14566 -0.131326 
0.628766 -0.131326 18.4602 
11.4759 -0.902835 1.85952 
-0.902835 10.0983 1.19478 
1.85952 1.19478 13.3539 
9.96816 0.0796145 0.172857 
0.0796145 9.7809 0.301076 
0.172857 0.301076 9.49842 
9.86578 -0.0142231 0.075111 
-0.0142231 9.83254 0.256888 
0.075111 0.256888 9.54917 
9.93323 -0.0698945 0.019524 
-0.0698945 9.92177 0.260982 
0.019524 0.260982 9.39248 
9.87983 0.0517898 0.143766 
0.0517898 9.89583 0.202885 
0.143766 0.202885 9.47183 
9.47212 1.14225 -0.444481 
1.14225 11.3411 -0.570701 
-0.444481 -0.570701 13.5112 
10.4112 1.27867 -0.928144 
1.27867 11.0994 0.977887 
-0.928144 0.977887 12.8139 
10.4399 -0.237301 0.238902 
-0.237301 12.0399 0.536239 
0.238902 0.536239 11.8447 
10.0837 0.586951 -0.140151 
0.586951 11.6462 0.267167 
-0.140151 0.267167 12.5946 
9.77426 0.100611 0.0978091 
0.100611 9.79397 -0.0130458 
0.0978091 -0.0130458 9.9975 
9.70273 0.128286 0.0103068 
0.128286 9.90724 -0.140408 
0.0103068 -0.140408 9.95576 
9.77515 0.0823547 0.0632562 
0.0823547 9.8558 -0.0918636 
0.0632562 -0.0918636 9.93478 
9.77562 0.0370112 0.139028 
0.0370112 9.81619 -0.0530567 
0.139028 -0.0530567 9.97392 
10.3312 0.207286 0.332609 
0.207286 9.36818 0.666607 
0.332609 0.666607 12.1738 
10.5728 -0.465946 -0.146827 
-0.465946 11.0057 -0.112191 
-0.146827 -0.112191 10.2947 
11.0423 0.108657 -0.211224 
0.108657 11.0814 -0.238731 
-0.211224 -0.238731 9.74948 
10.2507 0.1997 -0.949877 
0.1997 11.2983 0.461781 
-0.949877 0.461781 10.3242 
16.2555 1.32173 2.37796 
1.32173 13.7881 3.04453 
2.37796 3.04453 9.62219 
12.214 -0.808097 0.736353 
-0.808097 11.5487 1.2718 
0.736353 1.2718 15.9031 
10.4618 -0.206198 -1.87608 
-0.206198 9.6144 -1.87496 
-1.87608 -1.87496 19.5896 
10.2667 -1.29078 4.51518 
-1.29078 11.9893 -1.12852 
4.51518 -1.12852 17.4097 
9.76062 -0.0625464 0.185565 
-0.0625464 9.80902 0.0971833 
0.185565 0.0971833 9.86945 
9.76174 -0.020958 0.172737 
-0.020958 9.78793 0.125124 
0.172737 0.125124 9.88942 
9.74393 -0.032823 0.184319 
-0.032823 9.82719 0.113793 
0.184319 0.113793 9.86797 
9.75074 -0.0346683 0.184209 
-0.0346683 9.81323 0.112915 
0.184209 0.112915 9.87511 
9.80046 -0.029907 -0.0685622 
-0.029907 9.79953 -0.0346271 
-0.0685622 -0.0346271 9.96349 
9.83744 -0.0412247 -0.0982328 
-0.0412247 9.78454 -0.0615202 
-0.0982328 -0.0615202 9.9415 
9.80316 -0.038366 -0.0648296 
-0.038366 9.80823 -0.053023 
-0.0648296 -0.053023 9.9521 
9.82732 -0.0430645 -0.0519983 
-0.0430645 9.77983 -0.0537228 
-0.0519983 -0.0537228 9.95633 
9.82338 0.158788 0.342482 
0.158788 9.76365 -0.202419 
0.342482 -0.202419 9.81447 
9.70545 0.15967 0.328341 
0.15967 10.0909 -0.162852 
0.328341 -0.162852 9.60517 
9.68969 0.133594 0.296005 
0.133594 9.97027 -0.276265 
0.296005 -0.276265 9.74154 
9.50913 0.00123611 0.428177 
0.00123611 10.1713 -0.591542 
0.428177 -0.591542 9.72106 
9.92583 -0.00719075 0.235698 
-0.00719075 9.94805 0.103566 
0.235698 0.103566 9.93562 
9.92072 -0.029515 0.240039 
-0.029515 9.95482 0.116365 
0.240039 0.116365 9.93396 
9.93237 -0.00787382 0.221528 
-0.00787382 9.94189 0.115625 
0.221528 0.115625 9.93524 
9.92595 -0.00240773 0.22654 
-0.00240773 9.95096 0.108797 
0.22654 0.108797 9.9326 
9.92536 -0.0154971 1.1108 
-0.0154971 9.3589 -0.582206 
1.1108 -0.582206 9.49431 
9.90507 0.186179 0.851282 
0.186179 9.4945 -0.62565 
0.851282 -0.62565 9.379 
10.2672 0.119315 0.59739 
0.119315 9.41167 -0.285998 
0.59739 -0.285998 9.09973 
9.54305 0.0160034 0.398451 
0.0160034 9.70121 -0.487395 
0.398451 -0.487395 9.53431 
9.99554 0.00138715 0.177034 
0.00138715 9.98179 -0.168273 
0.177034 -0.168273 9.96112 
9.98174 0.00112777 0.179986 
0.00112777 9.98468 -0.16919 
0.179986 -0.16919 9.97202 
9.94897 0.00832315 0.171745 
0.00832315 9.94599 -0.155054 
0.171745 -0.155054 10.0435 
9.99462 0.0147223 0.200159 
0.0147223 9.98186 -0.184824 
0.200159 -0.184824 9.96196 
9.65911 -0.137351 0.195514 
-0.137351 9.8029 0.322738 
0.195514 0.322738 9.84233 
9.63739 -0.17655 0.204243 
-0.17655 9.53681 0.223936 
0.204243 0.223936 10.1301 
9.47672 -0.276191 0.220725 
-0.276191 9.66513 0.607066 
0.220725 0.607066 10.1625 
9.6016 -0.152993 0.266337 
-0.152993 9.63748 0.299728 
0.266337 0.299728 10.0653 
9.901 0.0119079 -0.13687 
0.0119079 9.88224 0.190891 
-0.13687 0.190891 9.9675 
9.9488 0.0329057 -0.208447 
0.0329057 9.88178 0.207936 
-0.208447 0.207936 9.92015 
9.86296 0.0547701 -0.156973 
0.0547701 9.90468 0.199315 
-0.156973 0.199315 9.9831 
9.89997 0.0206434 -0.161472 
0.0206434 9.88867 0.198079 
-0.161472 0.198079 9.9621 
9.92389 0.0142447 -0.0684839 
0.0142447 9.90821 0.256856 
-0.0684839 0.256856 9.94407 
9.94306 0.00768208 -0.0476083 
0.00768208 9.91515 0.215218 
-0.0476083 0.215218 9.91795 
9.90748 -0.00325228 -0.0464707 
-0.00325228 9.92838 0.219212 
-0.0464707 0.219212 9.94031 
9.91761 0.0131891 -0.0490938 
0.0131891 9.90444 0.244045 
-0.0490938 0.244045 9.95412 
9.92631 0.0146142 -0.185897 
0.0146142 9.88918 -0.132424 
-0.185897 -0.132424 9.90388 
9.92871 0.00763951 -0.203769 
0.00763951 9.88729 -0.108071 
-0.203769 -0.108071 9.90337 
9.85621 -0.0200796 -0.193643 
-0.0200796 9.91056 -0.151125 
-0.193643 -0.151125 9.95259 
9.91008 -0.0269235 -0.163401 
-0.0269235 9.8961 -0.141644 
-0.163401 -0.141644 9.91319 
9.87312 -0.00169801 -0.234545 
-0.00169801 9.82897 -0.0648456 
-0.234545 -0.0648456 9.85152 
9.79625 -0.0238622 -0.204115 
-0.0238622 9.8832 -0.0716974 
-0.204115 -0.0716974 9.87416 
9.85907 -0.00539862 -0.238004 
-0.00539862 9.82613 -0.0560833 
-0.238004 -0.0560833 9.86841 
9.83966 0.00430007 -0.23688 
0.00430007 9.8306 -0.0816651 
-0.23688 -0.0816651 9.88335 
10.6541 0.29837 -0.129465 
0.29837 10.4266 0.242639 
-0.129465 0.242639 11.383 
10.8964 -0.0303585 0.0883562 
-0.0303585 10.7088 0.141496 
0.0883562 0.141496 10.8585 
10.8404 -0.075954 0.159175 
-0.075954 10.9139 -0.0104956 
0.159175 -0.0104956 10.7095 
10.9552 -0.0828815 0.0957268 
-0.0828815 10.8011 0.18565 
0.0957268 0.18565 10.7075 
9.78554 -0.0780695 0.00202159 
-0.0780695 9.86328 -0.0120694 
0.00202159 -0.0120694 9.94469 
9.94748 0.0566099 0.0673118 
0.0566099 9.83436 0.0748308 
0.0673118 0.0748308 9.81167 
9.89955 0.0550682 0.0448838 
0.0550682 9.85605 0.120019 
0.0448838 0.120019 9.83792 
9.81643 -0.0350616 0.0911743 
-0.0350616 9.8203 0.030983 
0.0911743 0.030983 9.95678 
9.70447 -0.0598789 0.0918493 
-0.0598789 9.79479 0.0644373 
0.0918493 0.0644373 9.91562 
9.76229 0.00083862 0.188789 
0.00083862 9.74301 0.103002 
0.188789 0.103002 9.90957 
9.73081 -0.0880289 0.117024 
-0.0880289 9.74343 0.14449 
0.117024 0.14449 9.94064 
9.68316 -0.196232 0.146764 
-0.196232 9.74992 0.128321 
0.146764 0.128321 9.9818 
9.98078 0.011756 0.0814143 
0.011756 9.98031 -0.222788 
0.0814143 -0.222788 10.0031 
9.99562 -0.00181111 0.0872797 
-0.00181111 9.99161 -0.232086 
0.0872797 -0.232086 9.97695 
9.99957 0.0110204 0.0769168 
0.0110204 9.95709 -0.213016 
0.0769168 -0.213016 10.0075 
9.98697 0.0163489 0.0862281 
0.0163489 9.97563 -0.235063 
0.0862281 -0.235063 10.0016 
9.84015 -0.0308235 -0.122464 
-0.0308235 9.83029 -0.184571 
-0.122464 -0.184571 9.92039 
9.84905 -0.0294368 -0.117117 
-0.0294368 9.81146 -0.204535 
-0.117117 -0.204535 9.93031 
9.85784 -0.0455581 -0.126348 
-0.0455581 9.801 -0.193925 
-0.126348 -0.193925 9.93198 
9.81422 -0.0127375 -0.143805 
-0.0127375 9.83663 -0.21389 
-0.143805 -0.21389 9.93997 
9.83185 -0.0244022 0.1391 
-0.0244022 9.83005 0.133135 
0.1391 0.133135 9.92427 
9.80628 -0.0792343 0.156508 
-0.0792343 9.82277 0.145767 
0.156508 0.145767 9.95711 
9.82577 -0.005377 0.161655 
-0.005377 9.82261 0.157468 
0.161655 0.157468 9.93779 
9.83967 -0.0376781 0.159634 
-0.0376781 9.82426 0.156802 
0.159634 0.156802 9.92224 
9.79795 -0.297664 0.312121 
-0.297664 9.71945 0.479534 
0.312121 0.479534 9.72092 
9.89465 -0.296736 0.456297 
-0.296736 9.81466 0.463844 
0.456297 0.463844 9.529 
9.76513 -0.363851 0.281237 
-0.363851 9.69341 0.57589 
0.281237 0.57589 9.77977 
9.56529 -0.317111 0.35138 
-0.317111 9.40693 0.220147 
0.35138 0.220147 10.2661 
9.79852 0.0322546 0.0493253 
0.0322546 9.7476 -0.138533 
0.0493253 -0.138533 9.8966 
9.69084 0.135172 0.00337403 
0.135172 9.68628 -0.200206 
0.00337403 -0.200206 10.0656 
9.8114 0.0531646 0.0882691 
0.0531646 9.72047 -0.150166 
0.0882691 -0.150166 9.91085 
9.81923 0.0802054 0.122226 
0.0802054 9.78812 -0.20932 
0.122226 -0.20932 9.83536 
10.0691 0.0166168 0.200673 
0.0166168 9.59623 -0.652422 
0.200673 -0.652422 10.1239 
10.1613 0.149328 0.0350869 
0.149328 9.65128 -0.381721 
0.0350869 -0.381721 9.97674 
10.3059 0.0508486 0.0779602 
0.0508486 9.73062 -0.420886 
0.0779602 -0.420886 9.75282 
10.1127 0.0919266 0.122664 
0.0919266 9.68899 -0.368474 
0.122664 -0.368474 9.98759 
13.2002 0.557633 -0.0197362 
0.557633 5.78706 -0.0106093 
-0.0197362 -0.0106093 15.7851 
9.73562 -0.434026 0.174665 
-0.434026 13.0733 0.405396 
0.174665 0.405396 11.9635 
11.8708 -0.065168 0.144735 
-0.065168 9.77381 -1.80777 
0.144735 -1.80777 13.1278 
11.7507 -0.942991 -0.275238 
-0.942991 9.53191 -1.37592 
-0.275238 -1.37592 13.4899 
9.91387 -0.00525917 -0.198009 
-0.00525917 9.93912 -0.118188 
-0.198009 -0.118188 9.97828 
9.92395 -0.0159068 -0.203518 
-0.0159068 9.94867 -0.149699 
-0.203518 -0.149699 9.95864 
9.91646 -0.0081134 -0.20326 
-0.0081134 9.93957 -0.138918 
-0.20326 -0.138918 9.97523 
9.93297 -0.00803088 -0.193857 
-0.00803088 9.93253 -0.12669 
-0.193857 -0.12669 9.96576 
9.67395 -0.126124 0.274657 
-0.126124 9.80884 0.236402 
0.274657 0.236402 10.0017 
9.66741 -0.138136 0.196969 
-0.138136 9.78952 0.248908 
0.196969 0.248908 10.0276 
9.76289 0.024962 0.22887 
0.024962 9.74392 0.130507 
0.22887 0.130507 9.97772 
9.66295 -0.137501 0.218364 
-0.137501 9.83228 0.225326 
0.218364 0.225326 9.98931 
9.6598 -0.0421078 0.326203 
-0.0421078 9.89415 0.0456247 
0.326203 0.0456247 9.50466 
9.70609 -0.0537852 0.346688 
-0.0537852 9.95924 0.1861 
0.346688 0.1861 9.39328 
9.74301 -0.10158 0.380842 
-0.10158 9.89808 0.330832 
0.380842 0.330832 9.41751 
9.69199 -0.00605975 0.399161 
-0.00605975 10.0551 0.119135 
0.399161 0.119135 9.31146 
9.43559 0.0866234 0.512954 
0.0866234 9.5951 0.205298 
0.512954 0.205298 9.01056 
9.60247 -0.00509864 0.471638 
-0.00509864 9.68942 0.0688184 
0.471638 0.0688184 8.74936 
9.75791 -0.0884909 0.6227 
-0.0884909 9.76635 0.408308 
0.6227 0.408308 8.51699 
9.43824 -0.213244 0.423988 
-0.213244 9.97597 0.386966 
0.423988 0.386966 8.62704 
9.66595 0.0922312 -0.317345 
0.0922312 9.86607 0.136599 
-0.317345 0.136599 9.78652 
9.62555 0.0697572 -0.302953 
0.0697572 9.94981 0.248037 
-0.302953 0.248037 9.74319 
9.67025 0.0807563 -0.253191 
0.0807563 9.80261 0.201859 
-0.253191 0.201859 9.84568 
9.68615 0.0285803 -0.354213 
0.0285803 9.91121 0.034799 
-0.354213 0.034799 9.72118 
9.6606 0.076039 -0.206849 
0.076039 9.8273 0.247216 
-0.206849 0.247216 9.99871 
9.72872 0.0787769 -0.20842 
0.0787769 9.77235 0.220806 
-0.20842 0.220806 9.98554 
9.75714 0.0891405 -0.196489 
0.0891405 9.76473 0.216467 
-0.196489 0.216467 9.96473 
9.73522 0.0651998 -0.245094 
0.0651998 9.79247 0.191589 
-0.245094 0.191589 9.95891 
9.86822 0.0525489 0.17469 
0.0525489 9.87666 -0.216086 
0.17469 -0.216086 9.95484 
9.90219 0.0347458 0.150055 
0.0347458 9.86247 -0.218888 
0.150055 -0.218888 9.93506 
9.89674 0.042306 0.133162 
0.042306 9.85052 -0.200683 
0.133162 -0.200683 9.95246 
9.91862 0.0123281 0.154162 
0.0123281 9.84873 -0.214432 
0.154162 -0.214432 9.93237 
9.6603 -0.107536 -0.192262 
-0.107536 9.76648 -0.173482 
-0.192262 -0.173482 10.1816 
9.81609 -0.0418206 -0.159983 
-0.0418206 9.75747 -0.127952 
-0.159983 -0.127952 10.0348 
9.74368 -0.143921 -0.0838907 
-0.143921 9.68803 -0.140839 
-0.0838907 -0.140839 10.1767 
9.71364 -0.0697302 -0.140003 
-0.0697302 9.79148 -0.161415 
-0.140003 -0.161415 10.1033 
9.92246 0.00307285 0.140807 
0.00307285 9.91721 -0.191624 
0.140807 -0.191624 9.96167 
9.92709 0.000807745 0.127863 
0.000807745 9.92968 -0.182948 
0.127863 -0.182948 9.94457 
9.92902 0.0129665 0.139075 
0.0129665 9.91906 -0.190379 
0.139075 -0.190379 9.95326 
9.92129 0.0209631 0.138592 
0.0209631 9.93267 -0.19455 
0.138592 -0.19455 9.94738 
10.0661 -0.0609418 0.146009 
-0.0609418 9.98629 -0.0193842 
0.146009 -0.0193842 10.2721 
9.80728 0.036678 0.0109664 
0.036678 10.1696 0.00703719 
0.0109664 0.00703719 10.3476 
9.98442 0.00176094 0.0686516 
0.00176094 10.0903 -0.00186205 
0.0686516 -0.00186205 10.2498 
10.1726 -0.0331193 -0.0712388 
-0.0331193 9.98707 0.0713476 
-0.0712388 0.0713476 10.1648 
9.83427 -0.0884545 -0.113495 
-0.0884545 9.91331 -0.0419287 
-0.113495 -0.0419287 10.4649 
9.98909 -0.091624 -0.0255342 
-0.091624 9.90854 0.0452739 
-0.0255342 0.0452739 10.3148 
9.98312 -0.14405 0.0443324 
-0.14405 9.84755 0.0957145 
0.0443324 0.0957145 10.3818 
10.0159 -0.021126 -0.0499143 
-0.021126 9.96492 0.0819714 
-0.0499143 0.0819714 10.2317 
9.90274 -0.11853 0.27754 
-0.11853 10.308 0.0786399 
0.27754 0.0786399 9.71978 
9.626 -0.114483 0.0481001 
-0.114483 10.034 -0.0237461 
0.0481001 -0.0237461 10.2706 
9.69802 0.108808 -0.380147 
0.108808 9.93108 -0.206705 
-0.380147 -0.206705 10.3014 
9.6304 -0.101905 -0.000327615 
-0.101905 10.0014 0.0355133 
-0.000327615 0.0355133 10.2988 
9.96611 -0.0895651 -0.287013 
-0.0895651 9.89318 -0.268716 
-0.287013 -0.268716 9.79388 
9.93242 0.000823027 -0.147723 
0.000823027 9.8502 -0.163162 
-0.147723 -0.163162 9.87055 
9.98068 -0.0188641 -0.175313 
-0.0188641 9.96127 -0.239445 
-0.175313 -0.239445 9.71122 
9.91627 0.0500533 -0.190714 
0.0500533 9.98705 -0.230019 
-0.190714 -0.230019 9.74984 
9.96765 -0.0018957 -0.242378 
-0.0018957 9.9849 -0.0727115 
-0.242378 -0.0727115 9.97158 
9.97324 0.00115147 -0.240839 
0.00115147 9.98243 -0.072783 
-0.240839 -0.072783 9.96846 
9.95753 0.010064 -0.217433 
0.010064 9.9401 -0.0745166 
-0.217433 -0.0745166 10.0265 
9.97041 -0.0133557 -0.247877 
-0.0133557 9.97718 -0.0867069 
-0.247877 -0.0867069 9.97655 
9.62686 -0.118412 0.550729 
-0.118412 10.1064 0.0950717 
0.550729 0.0950717 9.58381 
9.6703 -0.0919877 0.352311 
-0.0919877 9.93477 0.266085 
0.352311 0.266085 9.71201 
9.51418 -0.0356303 0.224017 
-0.0356303 9.8701 -0.134927 
0.224017 -0.134927 9.93279 
9.50474 -0.131576 0.373334 
-0.131576 9.98063 0.29998 
0.373334 0.29998 9.8317 
9.82749 0.209917 0.150544 
0.209917 9.71553 -0.214704 
0.150544 -0.214704 10.2459 
9.90377 0.251713 -0.004154 
0.251713 9.80103 -0.0924038 
-0.004154 -0.0924038 10.0841 
9.59525 0.261345 0.201885 
0.261345 9.8645 -0.0147581 
0.201885 -0.0147581 10.3292 
9.67744 0.0400264 0.0534297 
0.0400264 9.97271 -0.00926322 
0.0534297 -0.00926322 10.1388 
10.0919 -0.00410379 0.00495522 
-0.00410379 10.0893 0.00492057 
0.00495522 0.00492057 10.0147 
9.95117 0.00243923 0.0134288 
0.00243923 9.99959 -0.0224192 
0.0134288 -0.0224192 10.2451 
10.0365 0.0127216 0.0262894 
0.0127216 10.0468 0.0151857 
0.0262894 0.0151857 10.1126 
10.0431 -0.00327551 0.0219791 
-0.00327551 10.0637 0.110815 
0.0219791 0.110815 10.0891 
9.24988 0.208479 -0.209879 
0.208479 10.5192 0.275658 
-0.209879 0.275658 10.7931 
9.89272 0.227243 0.138201 
0.227243 10.277 -0.0713313 
0.138201 -0.0713313 10.3925 
10.3404 0.0681548 -0.189697 
0.0681548 9.91888 0.111887 
-0.189697 0.111887 10.3029 
9.88109 0.042072 0.0385134 
0.042072 10.1566 -0.0442012 
0.0385134 -0.0442012 10.5245 
8.73275 0.322176 -0.561628 
0.322176 9.8496 0.199518 
-0.561628 0.199518 9.67654 
9.41987 0.208322 -0.155915 
0.208322 9.95547 0.765056 
-0.155915 0.765056 8.88354 
9.16182 0.0575187 -0.630151 
0.0575187 10.0454 0.328181 
-0.630151 0.328181 9.05164 
9.39299 1.3975 -1.69206 
1.3975 9.80436 1.55392 
-1.69206 1.55392 9.06153 
9.88654 0.0172662 -0.237523 
0.0172662 9.94196 -0.0331992 
-0.237523 -0.0331992 9.93241 
9.86341 0.000723232 -0.271554 
0.000723232 9.96025 -0.0451491 
-0.271554 -0.0451491 9.93724 
9.91673 -0.00187318 -0.257716 
-0.00187318 9.92134 -0.0500729 
-0.257716 -0.0500729 9.92283 
9.8974 0.00770605 -0.253415 
0.00770605 9.93594 -0.0368385 
-0.253415 -0.0368385 9.92756 
10.5032 0.355182 0.181307 
0.355182 11.0407 -0.388011 
0.181307 -0.388011 9.73132 
10.4815 0.166849 0.116552 
0.166849 10.0809 -0.179217 
0.116552 -0.179217 10.7128 
10.0354 -0.149334 0.10019 
-0.149334 9.85091 0.399169 
0.10019 0.399169 11.3889 
10.7194 0.12017 -0.152931 
0.12017 9.79279 -0.519724 
-0.152931 -0.519724 10.763 
9.8808 -0.00182451 0.196526 
-0.00182451 9.90901 -0.0983248 
0.196526 -0.0983248 9.82675 
9.86359 0.0197119 0.224458 
0.0197119 9.92192 -0.117479 
0.224458 -0.117479 9.83104 
9.87775 0.0362382 0.221551 
0.0362382 9.90943 -0.117037 
0.221551 -0.117037 9.82938 
9.90199 0.0188118 0.263542 
0.0188118 9.96625 -0.162938 
0.263542 -0.162938 9.7483 
9.92441 -0.0381682 -0.165388 
-0.0381682 9.92771 -0.185749 
-0.165388 -0.185749 9.96622 
9.9408 -0.0286775 -0.189873 
-0.0286775 9.93353 -0.199649 
-0.189873 -0.199649 9.94401 
9.97289 0.00437709 -0.166592 
0.00437709 9.91349 -0.204199 
-0.166592 -0.204199 9.93197 
9.94832 -0.0135565 -0.178948 
-0.0135565 9.9206 -0.197878 
-0.178948 -0.197878 9.94943 
9.98673 -0.00658757 0.018417 
-0.00658757 9.99055 0.0296972 
0.018417 0.0296972 10.0007 
9.9665 0.00278036 -0.00270957 
0.00278036 9.99276 0.0144476 
-0.00270957 0.0144476 10.0188 
9.98839 -0.00189441 -0.0187755 
-0.00189441 9.99415 -0.00992877 
-0.0187755 -0.00992877 9.99548 
9.96886 -0.00528176 -0.00691184 
-0.00528176 9.98095 -0.00137961 
-0.00691184 -0.00137961 10.0282 
9.93877 -0.00576 0.100653 
-0.00576 9.87255 0.230586 
0.100653 0.230586 9.94611 
9.94238 -0.025933 0.0892077 
-0.025933 9.87592 0.23994 
0.0892077 0.23994 9.93913 
9.95526 -0.00464214 0.0886973 
-0.00464214 9.87528 0.217854 
0.0886973 0.217854 9.92689 
9.92218 -0.00725098 0.0969454 
-0.00725098 9.90392 0.213586 
0.0969454 0.213586 9.93133 
10.181 -0.0357717 0.656659 
-0.0357717 9.74259 0.511628 
0.656659 0.511628 9.42132 
10.2556 -0.114371 0.497249 
-0.114371 9.63525 0.425046 
0.497249 0.425046 9.45406 
10.356 -0.309383 0.438991 
-0.309383 9.42863 0.495707 
0.438991 0.495707 9.56029 
10.2537 0.00894004 0.616537 
0.00894004 9.59426 0.493077 
0.616537 0.493077 9.49698 
9.86361 0.0602896 0.0194567 
0.0602896 9.831 0.0631603 
0.0194567 0.0631603 10.0185 
9.83887 0.05282 -0.0479358 
0.05282 9.89629 0.0700943 
-0.0479358 0.0700943 9.978 
9.83293 0.0361098 -0.0116187 
0.0361098 9.95196 0.0251472 
-0.0116187 0.0251472 9.92827 
9.85752 0.0622106 -0.0294126 
0.0622106 9.89108 0.0785229 
-0.0294126 0.0785229 9.96457 
9.78524 -0.0230766 -0.230666 
-0.0230766 9.83652 -0.106285 
-0.230666 -0.106285 9.91618 
9.78707 -0.0267431 -0.236809 
-0.0267431 9.83763 -0.107067 
-0.236809 -0.107067 9.91325 
9.78072 -0.0344391 -0.258634 
-0.0344391 9.85833 -0.10478 
-0.258634 -0.10478 9.89889 
9.79467 -0.0377059 -0.242471 
-0.0377059 9.83338 -0.0933269 
-0.242471 -0.0933269 9.9099 
9.76851 -0.034131 0.119143 
-0.034131 9.76121 0.17865 
0.119143 0.17865 9.89426 
9.77229 -0.0625588 0.105555 
-0.0625588 9.75134 0.135009 
0.105555 0.135009 9.90035 
9.78231 -0.0300506 0.122038 
-0.0300506 9.73639 0.15141 
0.122038 0.15141 9.90528 
9.79029 -0.0775111 0.102526 
-0.0775111 9.7812 0.11447 
0.102526 0.11447 9.85249 
9.83287 0.0648891 0.0441774 
0.0648891 9.66372 -0.178256 
0.0441774 -0.178256 9.85429 
9.79446 -0.0169715 0.0238138 
-0.0169715 9.64136 -0.244284 
0.0238138 -0.244284 9.91507 
9.83355 0.0660397 0.106147 
0.0660397 9.57377 -0.170612 
0.106147 -0.170612 9.94356 
9.84744 0.112035 0.0670293 
0.112035 9.59738 -0.19923 
0.0670293 -0.19923 9.90606 
9.66512 0.137899 0.254575 
0.137899 9.62681 -0.231591 
0.254575 -0.231591 10.0094 
9.70665 0.110388 0.236185 
0.110388 9.63959 -0.246077 
0.236185 -0.246077 9.95512 
9.68095 0.128566 0.242884 
0.128566 9.63815 -0.231753 
0.242884 -0.231753 9.98226 
9.66049 0.128533 0.232933 
0.128533 9.66373 -0.224447 
0.232933 -0.224447 9.97715 
10.0108 0.11059 -0.236428 
0.11059 9.3881 0.542704 
-0.236428 0.542704 9.56211 
9.85174 0.21121 -0.148032 
0.21121 9.34502 0.471074 
-0.148032 0.471074 9.76423 
9.92388 0.185177 0.0680359 
0.185177 9.42321 0.481467 
0.0680359 0.481467 9.6139 
9.92885 0.168002 -0.138377 
0.168002 9.3985 0.481129 
-0.138377 0.481129 9.63363 
9.86036 0.0531546 -0.129385 
0.0531546 9.84111 0.154574 
-0.129385 0.154574 9.87411 
9.83252 0.0539257 -0.15709 
0.0539257 9.81301 0.175392 
-0.15709 0.175392 9.93005 
9.87038 -0.0452129 -0.152692 
-0.0452129 9.85717 0.142823 
-0.152692 0.142823 9.84803 
9.7881 0.0125357 -0.145151 
0.0125357 9.88774 0.141912 
-0.145151 0.141912 9.89973 
9.78743 0.0959262 -0.185798 
0.0959262 9.7959 0.126548 
-0.185798 0.126548 9.92217 
9.85884 -0.0433282 -0.0781404 
-0.0433282 9.80939 0.106816 
-0.0781404 0.106816 9.83727 
9.83423 -0.00236026 -0.108226 
-0.00236026 9.84096 0.0968314 
-0.108226 0.0968314 9.83031 
9.74553 0.0218719 -0.127004 
0.0218719 9.8164 0.0482894 
-0.127004 0.0482894 9.94357 
9.13077 -0.285149 0.539551 
-0.285149 10.2599 -0.516092 
0.539551 -0.516092 8.69958 
8.92069 0.599672 0.886484 
0.599672 11.2497 0.130186 
0.886484 0.130186 7.91979 
9.5165 0.300325 0.639433 
0.300325 10.1631 -0.922011 
0.639433 -0.922011 8.41061 
9.15462 -0.238201 0.327664 
-0.238201 9.87052 -0.0627266 
0.327664 -0.0627266 9.06507 
9.72052 0.0836768 0.0927629 
0.0836768 9.90111 -0.0414136 
0.0927629 -0.0414136 9.92015 
9.56991 0.228281 0.113942 
0.228281 9.86302 -0.0268704 
0.113942 -0.0268704 10.1089 
9.53758 0.124937 0.0815294 
0.124937 9.86942 -0.0801917 
0.0815294 -0.0801917 10.1348 
9.75231 0.0344988 0.268882 
0.0344988 9.80224 -0.0510304 
0.268882 -0.0510304 9.98723 
9.9473 0.00955612 0.124886 
0.00955612 9.93998 -0.212657 
0.124886 -0.212657 9.93934 
9.9602 0.0148441 0.100674 
0.0148441 9.90771 -0.213181 
0.100674 -0.213181 9.95871 
9.96056 0.0130687 0.131128 
0.0130687 9.94304 -0.216898 
0.131128 -0.216898 9.92302 
9.94683 0.00997878 0.128341 
0.00997878 9.94025 -0.206085 
0.128341 -0.206085 9.93953 
8.85332 -0.0572674 0.887138 
-0.0572674 10.3632 -3.35022 
0.887138 -3.35022 5.69192 
14.0734 -0.437995 -0.0268877 
-0.437995 9.73357 -6.46127 
-0.0268877 -6.46127 1.1014 
11.5152 0.914218 -0.723373 
0.914218 4.13151 -2.30943 
-0.723373 -2.30943 9.26172 
8.91666 0.1565 1.29968 
0.1565 11.4484 -1.21751 
1.29968 -1.21751 4.54336 
10.0096 0.0301732 0.0924761 
0.0301732 9.9693 -0.215159 
0.0924761 -0.215159 9.53599 
10.0276 0.0261918 0.113711 
0.0261918 9.94751 -0.232038 
0.113711 -0.232038 9.53978 
9.95381 0.0340753 0.0679312 
0.0340753 9.95536 -0.196328 
0.0679312 -0.196328 9.6057 
9.97665 -0.0344551 0.00719931 
-0.0344551 10.0062 -0.208948 
0.00719931 -0.208948 9.53203 
9.75864 0.0543294 -0.282179 
0.0543294 9.93917 0.0290874 
-0.282179 0.0290874 9.72646 
9.74907 -0.0817269 -0.277637 
-0.0817269 9.86653 0.0449779 
-0.277637 0.0449779 9.80868 
9.79955 0.0495251 -0.273111 
0.0495251 9.87544 0.0681448 
-0.273111 0.0681448 9.74929 
9.78837 -0.0124856 -0.293805 
-0.0124856 9.91569 0.0613235 
-0.293805 0.0613235 9.72021 
9.93628 0.000792932 0.147178 
0.000792932 9.96212 0.184309 
0.147178 0.184309 10.0279 
9.97448 -0.0328164 0.156622 
-0.0328164 9.95717 0.181938 
0.156622 0.181938 9.99461 
9.99049 0.00272313 0.171123 
0.00272313 9.96801 0.190884 
0.171123 0.190884 9.96775 
9.97371 -0.00666137 0.165113 
-0.00666137 9.97342 0.20374 
0.165113 0.20374 9.97912 
9.71106 -0.136377 0.0198839 
-0.136377 9.86721 -0.101756 
0.0198839 -0.101756 9.53703 
10.1571 0.263373 -0.208654 
0.263373 9.56867 0.512814 
-0.208654 0.512814 9.38956 
10.1513 -0.0112431 -0.125708 
-0.0112431 9.58171 0.323577 
-0.125708 0.323577 9.38227 
10.4237 0.0230129 0.105859 
0.0230129 9.45972 0.543228 
0.105859 0.543228 9.23184 
9.70918 -0.0354686 0.253381 
-0.0354686 9.83894 0.0248918 
0.253381 0.0248918 9.8731 
9.79477 -0.00103659 0.189737 
-0.00103659 9.82539 0.0351304 
0.189737 0.0351304 9.80107 
9.82886 0.00173408 0.178782 
0.00173408 9.78039 0.0361594 
0.178782 0.0361594 9.81198 
9.7308 0.0166178 0.195128 
0.0166178 9.81194 -0.0106163 
0.195128 -0.0106163 9.87848 
9.91883 -0.0107893 -0.106553 
-0.0107893 9.90626 -0.233423 
-0.106553 -0.233423 9.93936 
9.9109 -0.00505514 -0.0946713 
-0.00505514 9.91626 -0.209091 
-0.0946713 -0.209091 9.93729 
9.93884 -0.0152913 -0.087012 
-0.0152913 9.91363 -0.196386 
-0.087012 -0.196386 9.91199 
9.91131 -0.0166435 -0.0969521 
-0.0166435 9.91067 -0.221068 
-0.0969521 -0.221068 9.94247 
9.77939 -0.0891428 0.0834484 
-0.0891428 9.79704 0.120525 
0.0834484 0.120525 9.97448 
9.84532 -0.00857271 0.0999263 
-0.00857271 9.83343 0.164397 
0.0999263 0.164397 9.87217 
9.82314 0.0705629 0.114412 
0.0705629 9.87621 0.164345 
0.114412 0.164345 9.85156 
9.86652 -0.0108434 0.16113 
-0.0108434 9.75343 0.156918 
0.16113 0.156918 9.93097 
9.72769 -0.0435862 -0.169631 
-0.0435862 9.73948 -0.0791257 
-0.169631 -0.0791257 9.88049 
9.66855 -0.0227018 -0.0494575 
-0.0227018 9.73649 -0.273105 
-0.0494575 -0.273105 9.94261 
9.73073 -0.119136 0.0460859 
-0.119136 9.68168 -0.0987866 
0.0460859 -0.0987866 9.93525 
9.74954 -0.105494 -0.173944 
-0.105494 9.6749 -0.133937 
-0.173944 -0.133937 9.92321 
9.83832 -0.078669 -0.282127 
-0.078669 9.90372 -0.194164 
-0.282127 -0.194164 9.73087 
9.81368 -0.00223719 -0.277227 
-0.00223719 9.9042 -0.161483 
-0.277227 -0.161483 9.75502 
9.85459 -0.0144164 -0.201283 
-0.0144164 9.8493 -0.174581 
-0.201283 -0.174581 9.76902 
9.82592 -0.00249266 -0.241628 
-0.00249266 9.90291 -0.188784 
-0.241628 -0.188784 9.74408 
9.8806 0.0838741 0.123489 
0.0838741 9.73819 -0.141178 
0.123489 -0.141178 9.94454 
9.76652 0.0863653 0.254605 
0.0863653 9.73306 -0.250305 
0.254605 -0.250305 10.0638 
9.86114 0.102083 0.242434 
0.102083 9.79528 -0.260671 
0.242434 -0.260671 9.90691 
9.71437 0.0685912 0.254314 
0.0685912 9.85176 -0.245381 
0.254314 -0.245381 9.9972 
9.8946 0.00712085 0.037305 
0.00712085 9.90093 -0.0319302 
0.037305 -0.0319302 10.0307 
9.91475 0.0161284 0.0259299 
0.0161284 9.91463 -0.000820516 
0.0259299 -0.000820516 9.99681 
9.90568 0.00694586 0.0309712 
0.00694586 9.94272 -0.00850631 
0.0309712 -0.00850631 9.97779 
9.90998 0.0129688 0.0189866 
0.0129688 9.92178 -0.00560082 
0.0189866 -0.00560082 9.99442 
9.69575 0.187073 0.0381465 
0.187073 9.76208 -0.184469 
0.0381465 -0.184469 10.1746 
9.79754 -0.00563292 0.174951 
-0.00563292 9.74757 -0.135703 
0.174951 -0.135703 10.0873 
9.78528 0.126965 0.14306 
0.126965 9.80513 -0.16748 
0.14306 -0.16748 10.042 
9.81746 0.0944556 0.215679 
0.0944556 9.65452 -0.206646 
0.215679 -0.206646 10.1604 
9.88797 -0.0432874 -0.01239 
-0.0432874 9.8823 -0.0528061 
-0.01239 -0.0528061 10.049 
9.89915 -0.0502729 -0.0117675 
-0.0502729 9.89793 -0.0677224 
-0.0117675 -0.0677224 10.0222 
9.9308 -0.089948 -0.0190489 
-0.089948 9.89759 -0.0441996 
-0.0190489 -0.0441996 9.99089 
9.86055 -0.0577222 -0.0135652 
-0.0577222 9.92937 -0.0473064 
-0.0135652 -0.0473064 10.0294 
9.89143 0.0052549 0.219003 
0.0052549 9.96027 -0.0280769 
0.219003 -0.0280769 9.9325 
9.92348 -0.00196546 0.233059 
-0.00196546 9.97069 -0.00108234 
0.233059 -0.00108234 9.89003 
9.92126 -0.00114286 0.2299 
-0.00114286 9.95525 -0.00156591 
0.2299 -0.00156591 9.9077 
9.92397 -0.00530405 0.224927 
-0.00530405 9.95235 0.00116486 
0.224927 0.00116486 9.90788 
9.87592 -0.0171265 0.181123 
-0.0171265 9.79468 0.23179 
0.181123 0.23179 9.96644 
9.83156 -0.0399077 0.226099 
-0.0399077 9.85448 0.218005 
0.226099 0.218005 9.951 
9.85071 -0.0258822 0.173715 
-0.0258822 9.81442 0.243296 
0.173715 0.243296 9.97192 
9.86922 -0.106018 0.206566 
-0.106018 9.84514 0.234339 
0.206566 0.234339 9.92269 
9.90097 -0.05068 -0.141341 
-0.05068 9.82013 -0.138368 
-0.141341 -0.138368 9.85555 
9.77787 -0.0334406 -0.109877 
-0.0334406 9.81417 -0.159839 
-0.109877 -0.159839 9.98461 
9.82989 0.030221 -0.111691 
0.030221 9.8274 -0.155827 
-0.111691 -0.155827 9.91936 
9.85208 -0.0619328 -0.16043 
-0.0619328 9.85096 -0.243983 
-0.16043 -0.243983 9.8736 
9.91649 -0.0425791 0.104246 
-0.0425791 9.82037 0.252032 
0.104246 0.252032 9.86404 
9.8656 -0.0468024 0.091621 
-0.0468024 9.80752 0.271077 
0.091621 0.271077 9.92779 
9.94043 -0.0280416 0.0375976 
-0.0280416 9.84707 0.268074 
0.0375976 0.268074 9.81341 
10.0001 0.0109908 0.16118 
0.0109908 9.81355 0.27158 
0.16118 0.27158 9.78728 
9.87674 -0.0172546 0.166288 
-0.0172546 9.86446 -0.134905 
0.166288 -0.134905 9.88375 
9.85382 0.0199951 0.176081 
0.0199951 9.85443 -0.128657 
0.176081 -0.128657 9.91671 
9.83264 0.0560275 0.168318 
0.0560275 9.87856 -0.107347 
0.168318 -0.107347 9.91375 
9.88568 0.0210123 0.187626 
0.0210123 9.82462 -0.133073 
0.187626 -0.133073 9.91464 
9.75168 0.0037869 0.249842 
0.0037869 9.8839 -0.0749678 
0.249842 -0.0749678 9.8591 
9.7518 0.0383927 0.227213 
0.0383927 9.85893 -0.111783 
0.227213 -0.111783 9.88395 
9.77177 0.0223708 0.259345 
0.0223708 9.87803 -0.083997 
0.259345 -0.083997 9.84489 
9.75475 0.0330074 0.341173 
0.0330074 9.90833 -0.135168 
0.341173 -0.135168 9.83161 
8.14001 -0.86031 -0.62855 
-0.86031 9.3759 -3.0898 
-0.62855 -3.0898 6.80345 
8.88145 -0.610112 0.0536842 
-0.610112 8.09976 -2.03555 
0.0536842 -2.03555 7.33815 
8.68286 -0.541213 -0.303603 
-0.541213 7.91612 -2.1271 
-0.303603 -2.1271 7.72038 
9.61878 -0.652286 -1.03107 
-0.652286 8.53838 -0.759583 
-1.03107 -0.759583 6.16221 
9.84404 -0.00453097 0.13134 
-0.00453097 9.78469 -0.0600668 
0.13134 -0.0600668 9.83224 
9.7539 0.0415517 0.190016 
0.0415517 9.82688 -0.0969598 
0.190016 -0.0969598 9.8802 
9.89999 0.00432273 0.131985 
0.00432273 9.78153 -0.0338765 
0.131985 -0.0338765 9.77946 
9.77375 0.037447 0.113556 
0.037447 9.79019 -0.0893413 
0.113556 -0.0893413 9.89703 
9.66687 -0.0428095 0.242066 
-0.0428095 9.8421 0.106246 
0.242066 0.106246 9.86683 
9.67777 -0.0745962 0.299725 
-0.0745962 9.868 0.127972 
0.299725 0.127972 9.83003 
9.76239 -0.0122998 0.216528 
-0.0122998 9.81873 0.074937 
0.216528 0.074937 9.79469 
9.66167 -0.0669308 0.243069 
-0.0669308 9.85611 0.113051 
0.243069 0.113051 9.85803 
10.2108 0.109696 0.110941 
0.109696 9.75273 -0.334342 
0.110941 -0.334342 10.0191 
10.1017 0.0589773 0.168123 
0.0589773 9.82567 -0.516825 
0.168123 -0.516825 10.0553 
10.2318 0.254536 0.0978813 
0.254536 9.53777 -0.364094 
0.0978813 -0.364094 10.2131 
10.086 0.12146 0.126977 
0.12146 9.83217 -0.349954 
0.126977 -0.349954 10.0645 
9.95858 -0.019187 -0.0256904 
-0.019187 9.95371 0.227599 
-0.0256904 0.227599 10.0288 
9.97265 -0.00350773 -0.030312 
-0.00350773 9.96298 0.250513 
-0.030312 0.250513 10.0054 
10.0048 0.00945122 -0.0415536 
0.00945122 9.99595 0.247942 
-0.0415536 0.247942 9.94026 
10.0148 -0.002343 -0.00875741 
-0.002343 9.95516 0.264104 
-0.00875741 0.264104 9.97109 
9.89374 0.0231955 -0.0249543 
0.0231955 9.89966 0.0365239 
-0.0249543 0.0365239 9.99429 
9.87098 -0.034113 -0.0547028 
-0.034113 9.95476 0.00680885 
-0.0547028 0.00680885 9.96195 
9.92267 0.0521262 -0.0173705 
0.0521262 9.90824 0.0497662 
-0.0173705 0.0497662 9.95677 
9.91671 -0.0224404 -0.013874 
-0.0224404 9.87668 0.0423007 
-0.013874 0.0423007 9.9943 
9.89732 0.0263825 -0.0118358 
0.0263825 9.94063 0.0298444 
-0.0118358 0.0298444 9.98028 
9.90448 0.00804733 -0.0175693 
0.00804733 9.94094 0.0112982 
-0.0175693 0.0112982 9.97281 
9.91176 0.0306728 -0.0136246 
0.0306728 9.94344 0.0144125 
-0.0136246 0.0144125 9.96303 
9.90245 0.0119189 -0.00815193 
0.0119189 9.9456 0.0145138 
-0.00815193 0.0145138 9.97018 
9.88155 -0.0658651 0.180964 
-0.0658651 9.74683 0.225677 
0.180964 0.225677 9.96137 
9.87496 -0.0501814 0.152885 
-0.0501814 9.7676 0.247866 
0.152885 0.247866 9.94719 
9.904 -0.0646954 0.173271 
-0.0646954 9.76596 0.231236 
0.173271 0.231236 9.91979 
9.8445 -0.0755724 0.166719 
-0.0755724 9.77504 0.291524 
0.166719 0.291524 9.9702 
10.0046 -0.066831 -0.119116 
-0.066831 9.79256 -0.0169842 
-0.119116 -0.0169842 11.3651 
10.4946 -0.165207 -0.0343687 
-0.165207 10.2934 -0.135662 
-0.0343687 -0.135662 10.3743 
10.552 -0.121272 -0.0765964 
-0.121272 10.6834 0.0562043 
-0.0765964 0.0562043 9.92685 
10.5793 -0.206817 0.0164114 
-0.206817 10.3597 -0.741853 
0.0164114 -0.741853 10.2233 
9.95102 0.0110449 0.106218 
0.0110449 9.94303 -0.212325 
0.106218 -0.212325 9.99187 
9.94893 -0.0014154 0.108758 
-0.0014154 9.95486 -0.236832 
0.108758 -0.236832 9.98212 
9.97031 0.0035374 0.10219 
0.0035374 9.93767 -0.203774 
0.10219 -0.203774 9.97794 
9.96623 0.00658743 0.0995682 
0.00658743 9.94674 -0.235844 
0.0995682 -0.235844 9.97295 
10.1535 0.0502613 0.0249181 
0.0502613 10.4121 0.0451423 
0.0249181 0.0451423 10.2254 
10.0444 0.109106 -0.0858964 
0.109106 10.3515 -0.121091 
-0.0858964 -0.121091 10.3952 
10.3663 -0.0836752 -0.00404508 
-0.0836752 9.95177 -0.021641 
-0.00404508 -0.021641 10.473 
10.416 -0.095573 -0.226546 
-0.095573 10.1644 -0.0471354 
-0.226546 -0.0471354 10.2107 
9.8298 -0.00419152 0.122788 
-0.00419152 9.88309 0.165143 
0.122788 0.165143 9.87459 
9.84269 -0.0125229 0.100773 
-0.0125229 9.85244 0.176134 
0.100773 0.176134 9.89235 
9.87093 -0.0599639 0.0950167 
-0.0599639 9.79664 0.208615 
0.0950167 0.208615 9.91991 
9.83743 0.00588126 0.0839457 
0.00588126 9.82835 0.154595 
0.0839457 0.154595 9.9217 
9.99049 0.000285831 0.0131984 
0.000285831 9.97008 -0.0258801 
0.0131984 -0.0258801 9.98828 
9.98308 0.00854902 0.000154422 
0.00854902 9.96221 -0.0182988 
0.000154422 -0.0182988 10.0036 
9.96984 -0.0310556 -0.0299711 
-0.0310556 9.97241 0.0176799 
-0.0299711 0.0176799 10.0066 
9.96683 0.0297913 0.00148748 
0.0297913 9.94745 -0.019764 
0.00148748 -0.019764 10.0346 
9.03683 -0.293943 -0.943183 
-0.293943 11.0052 -0.476395 
-0.943183 -0.476395 8.92887 
9.11183 -0.306041 -0.900562 
-0.306041 11.5868 0.0460397 
-0.900562 0.0460397 8.27228 
10.7472 0.265531 -0.511576 
0.265531 11.4402 -0.265311 
-0.511576 -0.265311 6.78344 
9.59701 0.579435 -0.613232 
0.579435 11.7372 1.57215 
-0.613232 1.57215 7.63665 
9.35787 0.170189 0.498475 
0.170189 9.6554 -0.307465 
0.498475 -0.307465 9.07194 
9.13858 0.140921 0.409919 
0.140921 9.81619 -0.538812 
0.409919 -0.538812 9.13045 
9.39594 0.679346 0.224445 
0.679346 9.92462 -0.659707 
0.224445 -0.659707 8.76466 
9.13583 0.0701646 0.337433 
0.0701646 9.67423 -0.609311 
0.337433 -0.609311 9.27516 
10.2512 0.186378 0.759952 
0.186378 9.39926 -0.568588 
0.759952 -0.568588 8.58499 
9.92305 -0.392705 0.408881 
-0.392705 9.22578 -0.54952 
0.408881 -0.54952 9.08666 
10.1898 0.251506 1.1931 
0.251506 9.51252 -0.340133 
1.1931 -0.340133 8.53321 
10.6679 0.451392 0.253341 
0.451392 9.48399 -0.814062 
0.253341 -0.814062 8.08365 
9.93831 -0.0123251 0.224235 
-0.0123251 9.87774 0.0332998 
0.224235 0.0332998 9.85159 
9.78765 -0.0108277 0.261728 
-0.0108277 9.91278 0.0623422 
0.261728 0.0623422 9.96721 
9.90927 -0.000300071 0.215083 
-0.000300071 9.87275 0.0519023 
0.215083 0.0519023 9.88563 
9.84604 -0.049842 0.168705 
-0.049842 9.8925 0.0901832 
0.168705 0.0901832 9.92911 
9.77445 0.0629903 0.106124 
0.0629903 9.93376 0.180183 
0.106124 0.180183 9.7999 
9.82972 -0.0422835 0.104734 
-0.0422835 9.78115 0.173029 
0.104734 0.173029 9.89724 
9.86183 -0.0664426 0.0785408 
-0.0664426 9.73576 0.149037 
0.0785408 0.149037 9.91052 
9.76025 -0.0910903 0.0969686 
-0.0910903 9.83484 0.217884 
0.0969686 0.217884 9.91302 
10.0082 -0.08857 -0.0108284 
-0.08857 9.68194 -0.186565 
-0.0108284 -0.186565 9.95545 
9.83836 -0.0785261 0.00805175 
-0.0785261 9.76827 0.050167 
0.00805175 0.050167 10.0389 
9.91663 -0.102562 -0.00961897 
-0.102562 9.64941 -0.0657833 
-0.00961897 -0.0657833 10.0795 
9.9153 -0.123151 -0.0557652 
-0.123151 9.62644 -0.064209 
-0.0557652 -0.064209 10.1038 
9.96707 0.0115491 0.161332 
0.0115491 9.93898 -0.201129 
0.161332 -0.201129 9.93454 
9.96831 0.0163398 0.185935 
0.0163398 9.94026 -0.193744 
0.185935 -0.193744 9.93202 
9.90472 0.0247437 0.162256 
0.0247437 9.96154 -0.180572 
0.162256 -0.180572 9.97433 
9.95088 0.0169908 0.167042 
0.0169908 9.95096 -0.181408 
0.167042 -0.181408 9.93875 
9.68453 0.0581103 -0.314847 
0.0581103 9.80868 0.210656 
-0.314847 0.210656 9.78354 
9.67543 0.0666666 -0.323007 
0.0666666 9.90645 0.246418 
-0.323007 0.246418 9.69487 
9.67646 0.0431685 -0.302472 
0.0431685 9.8716 0.179502 
-0.302472 0.179502 9.7287 
9.63875 0.00476315 -0.268332 
0.00476315 9.95396 0.0708922 
-0.268332 0.0708922 9.68404 
10.0996 -0.315584 0.0179331 
-0.315584 9.95753 -0.132012 
0.0179331 -0.132012 10.3522 
10.097 -0.338894 0.00458476 
-0.338894 9.95494 -0.109704 
0.00458476 -0.109704 10.3574 
9.96748 -0.182854 0.0715023 
-0.182854 10.0064 -0.106388 
0.0715023 -0.106388 10.4355 
10.0222 -0.179886 0.0596298 
-0.179886 10.1325 -0.0659861 
0.0596298 -0.0659861 10.2547 
9.92286 -0.00520379 -0.182089 
-0.00520379 9.92574 -0.130209 
-0.182089 -0.130209 9.93998 
9.9138 -0.0102272 -0.193985 
-0.0102272 9.92434 -0.141164 
-0.193985 -0.141164 9.95045 
9.90982 -0.00176912 -0.191281 
-0.00176912 9.91897 -0.142742 
-0.191281 -0.142742 9.9598 
9.9277 -0.0195945 -0.199145 
-0.0195945 9.92606 -0.141409 
-0.199145 -0.141409 9.93482 
10.2167 0.0225114 -0.0585572 
0.0225114 10.1827 0.0235602 
-0.0585572 0.0235602 10.0613 
10.064 0.0289802 0.0687984 
0.0289802 10.1389 0.00511058 
0.0687984 0.00511058 10.2578 
10.1237 0.0381868 -0.038134 
0.0381868 10.2039 -0.00727245 
-0.038134 -0.00727245 10.1332 
9.98285 0.0830466 -0.0379236 
0.0830466 10.2203 0.0672198 
-0.0379236 0.0672198 10.2576 
10.0085 0.0108851 -0.0101968 
0.0108851 9.84625 -0.147386 
-0.0101968 -0.147386 9.90476 
10.0202 0.0130263 0.0296247 
0.0130263 9.93268 -0.167802 
0.0296247 -0.167802 9.80661 
9.93947 0.0118777 0.0208869 
0.0118777 9.98433 -0.140137 
0.0208869 -0.140137 9.83571 
9.9462 0.00623767 0.0297289 
0.00623767 9.96748 -0.155333 
0.0297289 -0.155333 9.84583 
9.68985 -0.0619209 0.128468 
-0.0619209 9.72542 0.115849 
0.128468 0.115849 9.92905 
9.67037 -0.0790432 0.148258 
-0.0790432 9.73926 0.126586 
0.148258 0.126586 9.93469 
9.69079 -0.0531997 0.149508 
-0.0531997 9.73366 0.118348 
0.149508 0.118348 9.91987 
9.727 -0.038465 0.162889 
-0.038465 9.70461 0.126029 
0.162889 0.126029 9.91271 
8.75557 0.163224 0.232254 
0.163224 10.1388 -0.133175 
0.232254 -0.133175 11.4943 
8.27224 -0.081614 0.456306 
-0.081614 11.1789 -0.314557 
0.456306 -0.314557 10.9376 
8.37888 0.0691949 0.695004 
0.0691949 10.7177 -0.0495465 
0.695004 -0.0495465 11.2922 
10.1303 0.308756 0.813095 
0.308756 9.92186 -0.149447 
0.813095 -0.149447 10.3365 
11.6002 -0.238025 -0.113835 
-0.238025 11.1581 -0.453808 
-0.113835 -0.453808 10.0686 
10.4572 0.403649 -0.0759949 
0.403649 11.2138 -0.0192749 
-0.0759949 -0.0192749 11.156 
10.4822 0.0644773 -0.0622539 
0.0644773 10.4597 0.389278 
-0.0622539 0.389278 11.8851 
11.393 0.373706 0.461992 
0.373706 10.5077 0.0908197 
0.461992 0.0908197 10.9262 
9.79003 0.0239099 -0.236169 
0.0239099 9.87361 -0.0133504 
-0.236169 -0.0133504 9.97326 
9.82634 -0.0143278 -0.29225 
-0.0143278 9.97967 -0.0485349 
-0.29225 -0.0485349 9.83088 
9.807 0.0361722 -0.249996 
0.0361722 9.94424 -0.0249074 
-0.249996 -0.0249074 9.88565 
9.7967 -0.00965844 -0.287948 
-0.00965844 10.0003 0.00111205 
-0.287948 0.00111205 9.83994 
10.5 0.0901957 -0.0498703 
0.0901957 10.6816 0.146081 
-0.0498703 0.146081 11.3095 
10.4911 0.258276 -0.113819 
0.258276 10.3556 0.294049 
-0.113819 0.294049 11.6445 
11.073 0.0161313 0.0215304 
0.0161313 10.6618 0.180644 
0.0215304 0.180644 10.7564 
10.8328 0.230836 -0.360776 
0.230836 10.5525 -0.0181189 
-0.360776 -0.0181189 11.1059 
9.88446 -0.0677719 0.0129004 
-0.0677719 9.87519 0.0386766 
0.0129004 0.0386766 9.98424 
9.83379 0.0448905 0.00306773 
0.0448905 10.0094 0.03389 
0.00306773 0.03389 9.90072 
9.89899 -0.0977718 0.0479354 
-0.0977718 9.81965 0.0882335 
0.0479354 0.0882335 10.0252 
9.76419 -0.116986 0.0307026 
-0.116986 9.95999 0.00982307 
0.0307026 0.00982307 10.0197 
9.73967 0.0410322 0.0553719 
0.0410322 9.73831 -0.0804323 
0.0553719 -0.0804323 9.94183 
9.7359 0.0471427 0.0471048 
0.0471427 9.7465 -0.0693385 
0.0471048 -0.0693385 9.93742 
9.76767 0.0673149 0.0445469 
0.0673149 9.76501 -0.0770943 
0.0445469 -0.0770943 9.88713 
9.73789 0.0691059 0.0596424 
0.0691059 9.73072 -0.0757216 
0.0596424 -0.0757216 9.95121 
9.62434 -0.100204 -0.463437 
-0.100204 10.1483 -0.176756 
-0.463437 -0.176756 10.023 
9.73922 -0.103438 -0.316137 
-0.103438 10.0305 -0.131067 
-0.316137 -0.131067 10.0259 
9.71389 -0.0823098 -0.573255 
-0.0823098 10.2524 -0.105766 
-0.573255 -0.105766 9.82933 
9.49165 -0.113652 -0.498696 
-0.113652 10.1734 -0.171561 
-0.498696 -0.171561 10.1306 
12.551 0.337802 0.270921 
0.337802 13.7584 0.729748 
0.270921 0.729748 11.2652 
10.4442 -0.0543779 0.94123 
-0.0543779 12.5695 -0.479694 
0.94123 -0.479694 14.5608 
12.34 0.0334422 0.566391 
0.0334422 12.6121 0.49242 
0.566391 0.49242 12.6223 
12.4906 -0.559842 0.964679 
-0.559842 12.0495 1.01719 
0.964679 1.01719 13.0345 
9.94435 -0.0487798 -0.112131 
-0.0487798 9.89924 -0.214024 
-0.112131 -0.214024 9.91932 
9.93697 -0.0493067 -0.0903599 
-0.0493067 9.9063 -0.245007 
-0.0903599 -0.245007 9.91964 
9.96125 -0.0393131 -0.131509 
-0.0393131 9.90423 -0.198434 
-0.131509 -0.198434 9.89744 
9.94184 -0.0294759 -0.0934069 
-0.0294759 9.91915 -0.251591 
-0.0934069 -0.251591 9.90192 
9.74883 -0.116865 0.394825 
-0.116865 9.87346 0.0754484 
0.394825 0.0754484 10.0934 
9.43369 -0.325257 0.289702 
-0.325257 9.62793 0.163726 
0.289702 0.163726 10.6541 
9.61444 -0.108089 0.501895 
-0.108089 9.60508 0.231719 
0.501895 0.231719 10.4962 
9.50071 -0.0664361 0.413945 
-0.0664361 9.86019 0.129499 
0.413945 0.129499 10.3548 
9.95694 0.0047007 -0.0425773 
0.0047007 9.93463 0.249165 
-0.0425773 0.249165 9.96969 
9.94495 -0.0053055 -0.0457774 
-0.0053055 9.94505 0.22632 
-0.0457774 0.22632 9.97126 
9.94009 0.000383357 -0.0457267 
0.000383357 9.93904 0.243647 
-0.0457267 0.243647 9.98212 
9.96148 0.00340091 -0.043449 
0.00340091 9.93253 0.248083 
-0.043449 0.248083 9.96725 
9.81471 0.175319 0.0881835 
0.175319 9.61958 -0.132161 
0.0881835 -0.132161 10.0841 
9.71983 0.0906949 0.141399 
0.0906949 9.79495 -0.109974 
0.141399 -0.109974 10.0036 
9.81094 0.0205275 0.0914066 
0.0205275 9.73397 -0.125329 
0.0914066 -0.125329 9.97346 
9.7204 0.103234 0.115461 
0.103234 9.85586 -0.047687 
0.115461 -0.047687 9.9421 
9.94003 0.0157447 0.211696 
0.0157447 9.95767 0.063016 
0.211696 0.063016 9.90811 
9.92767 0.0226938 0.221274 
0.0226938 9.96725 0.0854595 
0.221274 0.0854595 9.91088 
9.91099 -0.0672857 0.213741 
-0.0672857 9.9316 0.0730404 
0.213741 0.0730404 9.96321 
9.94516 -0.0218506 0.202718 
-0.0218506 9.96573 0.0888819 
0.202718 0.0888819 9.89491 
9.60935 -0.0528911 0.224123 
-0.0528911 9.73639 0.111173 
0.224123 0.111173 10.1667 
9.54146 -0.0748876 0.248253 
-0.0748876 9.85906 0.0348418 
0.248253 0.0348418 10.1119 
9.62404 -0.0890038 0.219871 
-0.0890038 9.7352 0.0501425 
0.219871 0.0501425 10.1532 
9.56796 -0.152199 0.189635 
-0.152199 9.71974 0.0187459 
0.189635 0.0187459 10.2248 
10.0175 0.0137739 -0.115287 
0.0137739 10.0063 0.0175021 
-0.115287 0.0175021 10.0005 
10.0568 -0.00632564 -0.0880628 
-0.00632564 10.0489 0.00423547 
-0.0880628 0.00423547 9.91855 
9.95771 0.0138512 -0.0952108 
0.0138512 9.99287 0.0383478 
-0.0952108 0.0383478 10.0737 
10.0284 -0.0290076 -0.147125 
-0.0290076 10.0437 0.0316677 
-0.147125 0.0316677 9.95216 
9.86962 0.0025566 -0.123162 
0.0025566 9.79581 0.0905816 
-0.123162 0.0905816 9.91467 
9.86103 0.0186855 -0.129453 
0.0186855 9.81281 0.0806266 
-0.129453 0.0806266 9.90626 
9.80232 0.0512417 -0.118492 
0.0512417 9.8418 0.0854941 
-0.118492 0.0854941 9.93597 
9.85525 0.0167821 -0.147182 
0.0167821 9.81562 0.094937 
-0.147182 0.094937 9.90922 
9.83431 0.121389 0.15655 
0.121389 10.0817 -0.00904216 
0.15655 -0.00904216 9.92974 
9.84474 0.0576289 -0.136921 
0.0576289 9.90125 0.0475397 
-0.136921 0.0475397 10.0997 
9.75881 0.10843 -0.00913323 
0.10843 9.91371 0.0381668 
-0.00913323 0.0381668 10.1732 
9.7022 0.209788 -0.00923974 
0.209788 9.98411 0.0174163 
-0.00923974 0.0174163 10.1594 
9.82493 0.011865 0.0552741 
0.011865 9.81386 -0.201351 
0.0552741 -0.201351 9.89925 
9.86631 0.0313699 0.0841851 
0.0313699 9.7831 -0.212201 
0.0841851 -0.212201 9.88864 
9.84047 0.027079 0.0771147 
0.027079 9.80205 -0.21741 
0.0771147 -0.21741 9.89552 
9.82757 0.0551407 0.0674196 
0.0551407 9.79696 -0.212609 
0.0674196 -0.212609 9.91351 
9.80226 -0.0503664 -0.322076 
-0.0503664 9.93189 -0.0342171 
-0.322076 -0.0342171 9.84364 
9.79742 -0.00120869 -0.276977 
-0.00120869 9.98217 -0.068978 
-0.276977 -0.068978 9.79819 
9.80979 -0.0696034 -0.324516 
-0.0696034 9.84408 -0.026693 
-0.324516 -0.026693 9.92392 
9.7995 -0.000810338 -0.273043 
-0.000810338 9.98834 -0.0110895 
-0.273043 -0.0110895 9.78995 
9.8806 0.018607 -0.101692 
0.018607 9.81083 0.207572 
-0.101692 0.207572 9.90855 
9.83113 -0.0303477 -0.0991928 
-0.0303477 9.92576 0.233004 
-0.0991928 0.233004 9.84309 
9.87255 0.017841 -0.0895051 
0.017841 9.84872 0.200242 
-0.0895051 0.200242 9.8787 
9.84556 0.0333756 -0.0988342 
0.0333756 9.8641 0.197528 
-0.0988342 0.197528 9.89032 
11.424 0.00609106 -0.107742 
0.00609106 10.9477 -0.0634476 
-0.107742 -0.0634476 10.18 
11.0665 0.0403779 -0.19673 
0.0403779 10.9622 0.0643889 
-0.19673 0.0643889 10.523 
9.96635 0.136922 0.164117 
0.136922 10.0022 0.114396 
0.164117 0.114396 12.5831 
10.6647 -0.175251 -1.45981 
-0.175251 11.1889 0.0487559 
-1.45981 0.0487559 10.698 
9.86243 -0.0405153 0.0912793 
-0.0405153 9.83104 0.0432791 
0.0912793 0.0432791 9.91811 
9.81898 -0.0613046 0.0720818 
-0.0613046 9.81938 0.0563722 
0.0720818 0.0563722 9.97321 
9.89237 -0.02412 0.0824903 
-0.02412 9.80614 0.0750816 
0.0824903 0.0750816 9.91307 
9.85535 0.00322355 0.109412 
0.00322355 9.82271 0.0816099 
0.109412 0.0816099 9.93352 
9.703 0.154644 -0.0599464 
0.154644 9.67451 -0.071048 
-0.0599464 -0.071048 10.5148 
9.78271 0.00694288 0.0393904 
0.00694288 9.80915 -0.0578624 
0.0393904 -0.0578624 10.3005 
9.83092 0.103717 -0.0490294 
0.103717 9.73845 0.0364297 
-0.0490294 0.0364297 10.323 
9.77993 0.134773 -0.00706557 
0.134773 9.65173 -0.0219234 
-0.00706557 -0.0219234 10.4607 
9.98367 0.01456 0.173319 
0.01456 9.93946 -0.031486 
0.173319 -0.031486 9.89081 
9.94499 -0.0294682 0.137084 
-0.0294682 9.96485 -0.0198081 
0.137084 -0.0198081 9.9041 
9.95719 -0.039045 0.118947 
-0.039045 10.0123 -0.00438499 
0.118947 -0.00438499 9.8445 
9.9679 0.0266502 0.170653 
0.0266502 9.96637 -0.00315354 
0.170653 -0.00315354 9.87968 
9.52309 -0.000621823 -0.175937 
-0.000621823 9.64466 0.344085 
-0.175937 0.344085 9.99076 
9.60892 0.168973 -0.247296 
0.168973 9.76267 0.348826 
-0.247296 0.348826 9.78692 
9.68925 0.142099 -0.390898 
0.142099 9.68091 0.394828 
-0.390898 0.394828 9.78835 
9.68898 -0.107896 -0.320169 
-0.107896 9.77461 0.145416 
-0.320169 0.145416 9.69492 
10.1801 0.117455 -0.175639 
0.117455 10.4263 0.0911285 
-0.175639 0.0911285 10.9549 
10.3712 0.111784 -0.120165 
0.111784 10.3191 0.0625594 
-0.120165 0.0625594 10.871 
10.3855 0.113942 -0.084243 
0.113942 10.3072 0.0969039 
-0.084243 0.0969039 10.8686 
10.288 0.138859 -0.113013 
0.138859 10.4476 -0.0214467 
-0.113013 -0.0214467 10.8256 
9.79727 0.0535739 0.0643042 
0.0535739 9.75641 -0.109833 
0.0643042 -0.109833 9.87872 
9.80157 0.054363 0.0762098 
0.054363 9.73623 -0.155127 
0.0762098 -0.155127 9.89459 
9.72533 -0.0607722 0.0616105 
-0.0607722 9.94536 -0.124731 
0.0616105 -0.124731 9.7617 
9.73849 0.0943066 0.0764339 
0.0943066 9.82565 -0.12962 
0.0764339 -0.12962 9.86825 
13.6565 1.02946 -0.202239 
1.02946 11.7018 1.29523 
-0.202239 1.29523 16.3722 
13.1024 1.69027 -0.548618 
1.69027 9.59958 2.08634 
-0.548618 2.08634 19.0286 
13.6266 1.27963 -0.331779 
1.27963 11.76 1.01383 
-0.331779 1.01383 16.344 
14.5707 1.64701 -0.228929 
1.64701 11.8818 1.53008 
-0.228929 1.53008 15.278 
4.00272 0.69313 0.886534 
0.69313 2.44166 -0.517156 
0.886534 -0.517156 2.95116 
5.58156 -0.989508 0.279619 
-0.989508 5.55206 -1.3479 
0.279619 -1.3479 -1.73808 
2.77851 0.294073 1.15919 
0.294073 5.42332 -1.25273 
1.15919 -1.25273 1.1937 
3.42229 0.0456234 1.4866 
0.0456234 3.49487 0.137158 
1.4866 0.137158 2.47837 
9.17272 0.157879 0.704086 
0.157879 9.86823 0.892321 
0.704086 0.892321 7.72545 
9.58031 -0.00238527 1.12048 
-0.00238527 9.76452 0.197195 
1.12048 0.197195 7.42158 
9.10737 0.0143405 0.782647 
0.0143405 9.89197 0.441955 
0.782647 0.441955 7.76706 
9.60891 -0.316493 0.246883 
-0.316493 9.12116 0.574343 
0.246883 0.574343 8.03634 
9.99163 0.00784733 0.0226961 
0.00784733 9.99926 0.0103759 
0.0226961 0.0103759 10.0758 
9.99229 0.0220544 0.0301025 
0.0220544 9.97867 0.00444385 
0.0301025 0.00444385 10.0958 
9.95253 -0.0411928 0.0186216 
-0.0411928 10.0019 -0.00425695 
0.0186216 -0.00425695 10.1123 
9.98142 -0.0279575 0.0441875 
-0.0279575 10.0224 -0.0180732 
0.0441875 -0.0180732 10.0629 
9.69002 -0.183148 0.136201 
-0.183148 9.80539 0.0874411 
0.136201 0.0874411 10.1996 
9.66424 -0.13825 0.190684 
-0.13825 9.86165 0.0636598 
0.190684 0.0636598 10.1691 
9.824 -0.0934286 0.193649 
-0.0934286 9.72181 0.180288 
0.193649 0.180288 10.1492 
9.74289 -0.159124 0.253923 
-0.159124 9.80013 0.175813 
0.253923 0.175813 10.152 
9.76691 -0.046173 0.0856346 
-0.046173 9.79056 0.0606708 
0.0856346 0.0606708 9.90911 
9.73786 -0.0703918 0.155965 
-0.0703918 9.6888 0.0182585 
0.155965 0.0182585 10.0399 
9.77409 -0.0282282 0.10804 
-0.0282282 9.74893 0.0602442 
0.10804 0.0602442 9.94356 
9.82624 -0.0439469 0.13567 
-0.0439469 9.78128 0.17844 
0.13567 0.17844 9.85906 
9.71268 -0.0299506 -0.0654174 
-0.0299506 9.87853 -0.166189 
-0.0654174 -0.166189 9.76541 
9.82854 -0.0439799 -0.0582824 
-0.0439799 9.67567 -0.12559 
-0.0582824 -0.12559 9.85241 
9.78443 -0.0472928 -0.0880345 
-0.0472928 9.74961 -0.157581 
-0.0880345 -0.157581 9.82258 
9.79344 -0.0365347 -0.0527813 
-0.0365347 9.71024 -0.212037 
-0.0527813 -0.212037 9.85294 
8.85783 -0.216893 -1.98655 
-0.216893 8.3275 0.347739 
-1.98655 0.347739 8.02728 
10.2371 -0.136353 -0.0372158 
-0.136353 6.39935 -0.0698019 
-0.0372158 -0.0698019 8.57612 
8.62457 1.33289 0.954524 
1.33289 9.21139 1.6492 
0.954524 1.6492 7.37664 
10.1394 -1.00036 -1.13945 
-1.00036 8.41831 2.55608 
-1.13945 2.55608 6.65488 
9.94889 -0.0120086 -0.118568 
-0.0120086 9.91383 -0.227516 
-0.118568 -0.227516 9.95194 
9.95396 -0.0156272 -0.11567 
-0.0156272 9.90716 -0.217326 
-0.11567 -0.217326 9.95354 
9.93866 -0.0174257 -0.128908 
-0.0174257 9.9144 -0.208592 
-0.128908 -0.208592 9.96161 
9.94791 -0.0294674 -0.129786 
-0.0294674 9.92159 -0.232637 
-0.129786 -0.232637 9.94516 
9.92366 0.00681559 -0.00242228 
0.00681559 9.95586 -0.0260032 
-0.00242228 -0.0260032 9.97299 
9.935 0.00327576 0.0178007 
0.00327576 9.95356 -0.0224741 
0.0178007 -0.0224741 9.96394 
9.93607 0.0119329 -0.0173282 
0.0119329 9.95132 0.00228671 
-0.0173282 0.00228671 9.96511 
9.91256 0.0116688 -0.0116612 
0.0116688 9.94169 -0.00652505 
-0.0116612 -0.00652505 9.99826 
19.5122 1.6185 10.5238 
1.6185 11.2353 0.710722 
10.5238 0.710722 -8.14361 
3.07631 0.658503 -6.04081 
0.658503 -0.366056 -1.31989 
-6.04081 -1.31989 19.8936 
12.4201 -1.67714 6.00957 
-1.67714 8.42984 1.2909 
6.00957 1.2909 1.75388 
-10.9309 -2.66666 11.0807 
-2.66666 10.7714 0.111979 
11.0807 0.111979 22.7634 
9.79757 0.0388081 0.0988796 
0.0388081 9.73561 -0.211405 
0.0988796 -0.211405 9.87135 
9.77079 0.0256007 0.0714362 
0.0256007 9.73385 -0.167843 
0.0714362 -0.167843 9.89989 
9.78174 0.0188644 0.148479 
0.0188644 9.74798 -0.161558 
0.148479 -0.161558 9.87482 
9.79113 0.0401677 0.14972 
0.0401677 9.71993 -0.169529 
0.14972 -0.169529 9.89347 
9.74951 -0.0489665 0.360046 
-0.0489665 9.90125 0.0122967 
0.360046 0.0122967 9.5822 
9.73128 -0.0205655 0.348265 
-0.0205655 9.99834 -0.0428969 
0.348265 -0.0428969 9.50333 
9.75603 0.0617312 0.371823 
0.0617312 10.02 -0.186003 
0.371823 -0.186003 9.45697 
9.68078 0.105417 0.414801 
0.105417 10.1418 0.106423 
0.414801 0.106423 9.41034 
11.2527 -0.111653 0.0839764 
-0.111653 9.32009 0.178994 
0.0839764 0.178994 10.3754 
9.97441 0.356787 0.310906 
0.356787 9.97624 0.272436 
0.310906 0.272436 10.9975 
10.4939 0.0708464 -0.218424 
0.0708464 9.30492 0.225049 
-0.218424 0.225049 11.1494 
9.81173 0.131034 -0.290523 
0.131034 10.4285 -0.24695 
-0.290523 -0.24695 10.708 
9.93984 0.00646759 0.16709 
0.00646759 9.95087 -0.158909 
0.16709 -0.158909 9.99533 
9.95399 -0.00300932 0.188479 
-0.00300932 9.95166 -0.177846 
0.188479 -0.177846 9.98039 
9.96203 0.0137118 0.164346 
0.0137118 9.94418 -0.154638 
0.164346 -0.154638 9.97983 
9.95429 0.0116293 0.176308 
0.0116293 9.95515 -0.181307 
0.176308 -0.181307 9.9766 
4.92017 -0.911242 -0.63365 
-0.911242 7.52707 1.25042 
-0.63365 1.25042 -4.2022 
4.04188 0.524918 -2.36104 
0.524918 6.84084 0.342007 
-2.36104 0.342007 -2.63768 
-1.38563 -0.0616719 2.16829 
-0.0616719 3.10988 -1.64295 
2.16829 -1.64295 6.5208 
2.76853 -1.23864 -1.27338 
-1.23864 7.96342 -3.29494 
-1.27338 -3.29494 -2.48691 
9.84097 -0.15337 0.71578 
-0.15337 9.42592 -0.533573 
0.71578 -0.533573 9.47567 
9.95708 0.0941125 0.394911 
0.0941125 9.49556 -0.21597 
0.394911 -0.21597 9.28993 
9.75153 0.152524 0.462745 
0.152524 9.41041 -0.38487 
0.462745 -0.38487 9.58063 
9.68719 0.138665 0.382413 
0.138665 9.48417 -0.455998 
0.382413 -0.455998 9.57121 
9.75926 -0.039964 0.217176 
-0.039964 9.85094 0.0824029 
0.217176 0.0824029 9.85954 
9.7596 -0.0266282 0.212153 
-0.0266282 9.7888 0.0626038 
0.212153 0.0626038 9.92134 
9.78884 -0.0135269 0.20359 
-0.0135269 9.77564 0.050646 
0.20359 0.050646 9.90526 
9.79543 -0.0497487 0.193454 
-0.0497487 9.82491 0.0823904 
0.193454 0.0823904 9.8494 
10.0243 -0.0118449 0.141835 
-0.0118449 10.0324 -0.00256746 
0.141835 -0.00256746 9.92442 
9.99797 -0.00301825 0.165853 
-0.00301825 9.92488 0.0536442 
0.165853 0.0536442 10.0583 
10.0079 -0.0191687 0.133204 
-0.0191687 9.98659 0.039371 
0.133204 0.039371 9.98666 
10.0115 0.0041774 0.134111 
0.0041774 10.0486 0.0334996 
0.134111 0.0334996 9.92101 
9.81654 0.0798546 0.0711262 
0.0798546 9.77768 -0.0781905 
0.0711262 -0.0781905 9.93139 
9.80384 0.0584282 0.10619 
0.0584282 9.78778 -0.118386 
0.10619 -0.118386 9.93399 
9.85085 -0.102792 0.0865298 
-0.102792 9.86117 -0.0797925 
0.0865298 -0.0797925 9.81359 
9.72629 0.0255268 0.0972259 
0.0255268 9.88881 -0.0961169 
0.0972259 -0.0961169 9.91051 
9.84639 -0.0117521 -0.156229 
-0.0117521 9.84286 -0.16162 
-0.156229 -0.16162 9.96117 
9.84986 -0.0373823 -0.120331 
-0.0373823 9.88108 -0.167639 
-0.120331 -0.167639 9.91948 
9.86323 -0.0157743 -0.134743 
-0.0157743 9.87077 -0.167718 
-0.134743 -0.167718 9.91642 
9.8345 -0.0164534 -0.147601 
-0.0164534 9.88161 -0.166033 
-0.147601 -0.166033 9.93431 
9.98406 -0.0517375 0.038459 
-0.0517375 9.80568 0.0623566 
0.038459 0.0623566 9.95061 
9.95398 -0.0329473 0.0349896 
-0.0329473 9.8171 -0.00471753 
0.0349896 -0.00471753 9.96927 
9.90107 -0.0559169 0.00710467 
-0.0559169 9.86165 0.0774885 
0.00710467 0.0774885 9.97763 
9.94422 -0.0558058 -0.00971894 
-0.0558058 9.78299 0.0156018 
-0.00971894 0.0156018 10.0131 
8.9039 -1.97965 -0.174802 
-1.97965 10.7465 -3.8532 
-0.174802 -3.8532 2.22431 
7.21823 1.55538 2.12838 
1.55538 9.45145 -3.758 
2.12838 -3.758 5.20503 
8.8233 3.58523 -0.110754 
3.58523 6.5846 -2.08171 
-0.110754 -2.08171 6.46681 
7.89588 -0.314595 3.07772 
-0.314595 6.76269 -4.20875 
3.07772 -4.20875 7.21614 
9.81505 0.0251061 0.0512374 
0.0251061 9.73402 -0.208023 
0.0512374 -0.208023 9.87651 
9.81106 0.0473389 0.0555968 
0.0473389 9.74615 -0.205164 
0.0555968 -0.205164 9.86836 
9.8192 0.032289 0.0604977 
0.032289 9.74876 -0.214172 
0.0604977 -0.214172 9.85762 
9.82938 0.0443779 0.0494311 
0.0443779 9.73597 -0.201717 
0.0494311 -0.201717 9.86022 
9.94172 -0.0126217 0.00198067 
-0.0126217 9.92993 -0.23466 
0.00198067 -0.23466 9.92816 
9.95355 -0.00805122 0.0150239 
-0.00805122 9.91544 -0.260704 
0.0150239 -0.260704 9.93081 
9.95262 0.015529 0.0142461 
0.015529 9.92546 -0.244299 
0.0142461 -0.244299 9.92173 
9.98675 -0.0387388 0.0215251 
-0.0387388 9.89527 -0.287379 
0.0215251 -0.287379 9.91779 
9.7771 -0.056759 0.184752 
-0.056759 9.78958 0.109522 
0.184752 0.109522 9.89979 
9.80382 -0.04669 0.145514 
-0.04669 9.81147 0.0914349 
0.145514 0.0914349 9.85117 
9.87475 0.0404732 0.126544 
0.0404732 9.78257 0.0771355 
0.126544 0.0771355 9.80916 
9.75762 -0.0170574 0.164234 
-0.0170574 9.82787 0.0675627 
0.164234 0.0675627 9.88098 
9.30742 -0.239536 0.763373 
-0.239536 8.97689 0.60332 
0.763373 0.60332 8.23123 
9.10091 0.133353 1.1914 
0.133353 9.62756 1.15684 
1.1914 1.15684 7.78707 
9.29662 -0.00463334 1.06021 
-0.00463334 9.34983 0.774984 
1.06021 0.774984 7.86909 
9.29432 -0.27206 0.975485 
-0.27206 9.38685 1.18488 
0.975485 1.18488 7.83437 
9.99952 0.000174301 0.021269 
0.000174301 9.97282 -0.251325 
0.021269 -0.251325 9.94767 
9.96146 -0.00919903 0.0441394 
-0.00919903 9.95764 -0.246463 
0.0441394 -0.246463 10.0009 
9.93337 0.00755672 0.0441943 
0.00755672 9.95802 -0.223487 
0.0441943 -0.223487 10.0286 
10.0077 0.0163437 0.0494884 
0.0163437 9.95748 -0.250111 
0.0494884 -0.250111 9.95488 
9.94103 0.00222522 0.0361104 
0.00222522 9.83559 -0.140516 
0.0361104 -0.140516 9.61763 
9.96802 -0.0183519 -0.00225451 
-0.0183519 9.81017 -0.16554 
-0.00225451 -0.16554 9.61607 
9.94511 0.00657793 0.0984574 
0.00657793 9.95049 -0.179931 
0.0984574 -0.179931 9.49865 
9.79595 0.0128205 0.0478411 
0.0128205 9.80137 -0.244881 
0.0478411 -0.244881 9.79694 
9.91775 -0.0349566 0.223573 
-0.0349566 9.96182 -0.0117138 
0.223573 -0.0117138 9.90701 
9.9444 0.048798 0.267002 
0.048798 10.0035 -0.0563876 
0.267002 -0.0563876 9.83866 
9.90374 0.0617935 0.26882 
0.0617935 9.90405 0.00477816 
0.26882 0.00477816 9.97879 
9.91145 -0.00921475 0.234678 
-0.00921475 9.9779 -0.0320869 
0.234678 -0.0320869 9.89722 
9.99109 0.0170033 -0.124968 
0.0170033 9.97974 0.0589221 
-0.124968 0.0589221 10.0523 
10.0195 -0.000614046 -0.146299 
-0.000614046 10.0601 0.0637754 
-0.146299 0.0637754 9.94346 
10.0067 0.00324593 -0.139581 
0.00324593 10.0204 0.0436101 
-0.139581 0.0436101 9.99604 
10.0245 -0.0153339 -0.129595 
-0.0153339 10.0309 0.0218307 
-0.129595 0.0218307 9.9676 
9.9183 -0.0114567 -0.224556 
-0.0114567 9.9431 -0.125486 
-0.224556 -0.125486 9.92375 
9.9165 -0.012598 -0.227427 
-0.012598 9.95007 -0.132168 
-0.227427 -0.132168 9.91858 
9.91564 -0.0286231 -0.208341 
-0.0286231 9.93462 -0.13045 
-0.208341 -0.13045 9.93489 
9.92083 -0.0248229 -0.211066 
-0.0248229 9.94956 -0.128311 
-0.211066 -0.128311 9.91475 
9.94258 -0.00393183 -0.0963437 
-0.00393183 9.93325 -0.230895 
-0.0963437 -0.230895 9.97061 
9.943 -0.00253022 -0.0956882 
-0.00253022 9.93847 -0.214284 
-0.0956882 -0.214284 9.96497 
9.94407 -0.00575688 -0.0908123 
-0.00575688 9.93193 -0.230129 
-0.0908123 -0.230129 9.97044 
9.94801 -0.00472477 -0.0972361 
-0.00472477 9.93809 -0.228663 
-0.0972361 -0.228663 9.96035 
9.48106 0.124091 0.258604 
0.124091 9.7775 -0.0251252 
0.258604 -0.0251252 10.3779 
9.93749 -0.33708 0.329543 
-0.33708 9.67518 0.282592 
0.329543 0.282592 10.0237 
9.52431 -0.468871 0.555414 
-0.468871 9.79754 0.323289 
0.555414 0.323289 10.3146 
9.87946 -0.252846 0.399741 
-0.252846 9.9148 0.371711 
0.399741 0.371711 9.84216 
9.86866 -0.01312 0.156629 
-0.01312 9.85519 0.144161 
0.156629 0.144161 9.93976 
9.87226 -0.0234178 0.17269 
-0.0234178 9.8614 0.161017 
0.17269 0.161017 9.92995 
9.87313 -0.00612182 0.163653 
-0.00612182 9.88141 0.148248 
0.163653 0.148248 9.90907 
9.87554 -0.01066 0.166661 
-0.01066 9.85928 0.150598 
0.166661 0.150598 9.9288 
9.13748 -0.227178 -0.600453 
-0.227178 9.33657 -0.427149 
-0.600453 -0.427149 7.20733 
9.0445 -0.281484 -0.532537 
-0.281484 9.34981 -0.404414 
-0.532537 -0.404414 7.28707 
9.24176 0.0401488 -0.569506 
0.0401488 9.52891 -0.195535 
-0.569506 -0.195535 6.91071 
9.1864 -0.393786 -0.799117 
-0.393786 9.04738 -0.673667 
-0.799117 -0.673667 7.4476 
9.8605 -0.432558 -1.88492 
-0.432558 10.7834 0.567929 
-1.88492 0.567929 9.27989 
8.3913 -0.373427 -0.757656 
-0.373427 10.3987 -0.117881 
-0.757656 -0.117881 11.1338 
8.4776 0.585415 -2.78648 
0.585415 10.0717 -0.0228545 
-2.78648 -0.0228545 11.3745 
8.91117 0.239659 -1.69564 
0.239659 10.274 0.120047 
-1.69564 0.120047 10.7386 
10.7142 0.0271699 0.158697 
0.0271699 10.8558 -0.0379199 
0.158697 -0.0379199 10.8016 
10.4851 0.133759 0.121619 
0.133759 10.5807 -0.223262 
0.121619 -0.223262 11.3059 
10.7189 -0.0600129 0.0792727 
-0.0600129 10.6267 -0.0703978 
0.0792727 -0.0703978 11.026 
10.6553 0.021272 0.0576536 
0.021272 10.6543 0.0127806 
0.0576536 0.0127806 11.062 
10.063 0.336546 0.393124 
0.336546 9.80571 -0.466487 
0.393124 -0.466487 10.0262 
9.91261 0.366132 0.311625 
0.366132 9.62818 -0.353164 
0.311625 -0.353164 10.3542 
10.0797 0.0623602 0.0344325 
0.0623602 9.83017 -0.272651 
0.0344325 -0.272651 9.98517 
9.9439 0.268232 0.188455 
0.268232 9.58367 -0.392687 
0.188455 -0.392687 10.3674 
9.6334 -0.0861889 0.0359042 
-0.0861889 9.86885 0.106828 
0.0359042 0.106828 11.289 
10.3015 0.00946069 0.0777096 
0.00946069 10.2384 -0.108843 
0.0777096 -0.108843 10.2513 
10.5738 0.00591393 -0.128448 
0.00591393 10.4035 -0.220128 
-0.128448 -0.220128 9.81397 
10.4409 0.289304 0.510241 
0.289304 10.2457 -0.271241 
0.510241 -0.271241 10.1047 
11.5929 2.38535 -4.11052 
2.38535 7.30522 2.77214 
-4.11052 2.77214 2.80821 
10.3436 -0.201269 -1.91176 
-0.201269 6.79087 0.471697 
-1.91176 0.471697 4.57186 
10.7091 -1.72945 -1.768 
-1.72945 5.50446 0.443534 
-1.768 0.443534 5.49276 
8.04577 1.86586 -0.964839 
1.86586 7.46035 -3.14846 
-0.964839 -3.14846 6.20025 
9.82822 0.0327118 -0.249564 
0.0327118 9.95755 0.140295 
-0.249564 0.140295 9.86892 
9.82585 0.0272815 -0.25059 
0.0272815 9.96694 0.109081 
-0.25059 0.109081 9.8619 
9.8295 0.0554708 -0.270993 
0.0554708 9.94718 0.15245 
-0.270993 0.15245 9.87801 
9.86147 -0.0098629 -0.240733 
-0.0098629 9.9207 0.0887308 
-0.240733 0.0887308 9.87252 
9.77476 0.0357563 0.0473817 
0.0357563 9.67596 -0.158604 
0.0473817 -0.158604 9.3149 
9.67631 -0.0380154 0.279358 
-0.0380154 9.82426 -0.0535623 
0.279358 -0.0535623 9.26506 
10.0338 -0.0727744 0.194672 
-0.0727744 9.78724 -0.0226441 
0.194672 -0.0226441 8.94458 
9.79457 -0.0285842 0.199487 
-0.0285842 9.77105 -0.05223 
0.199487 -0.05223 9.2 
9.89576 0.00059643 0.00671638 
0.00059643 9.91829 -0.0238929 
0.00671638 -0.0238929 9.93519 
9.88341 0.0298135 0.0343267 
0.0298135 9.87996 -0.0437332 
0.0343267 -0.0437332 9.98587 
9.89774 -0.0123184 0.0118657 
-0.0123184 9.90704 -0.0120382 
0.0118657 -0.0120382 9.94446 
9.86303 0.0165166 0.0238664 
0.0165166 9.90882 0.00160069 
0.0238664 0.00160069 9.97739 
9.56732 0.198087 -0.250362 
0.198087 9.71853 0.0960156 
-0.250362 0.0960156 10.1548 
9.50387 0.209393 -0.236346 
0.209393 9.7246 0.0478877 
-0.236346 0.0478877 10.2121 
9.60887 0.180505 -0.225986 
0.180505 9.66475 0.100079 
-0.225986 0.100079 10.167 
9.60123 0.359432 -0.27401 
0.359432 9.68842 0.0797767 
-0.27401 0.0797767 10.151 
9.90203 -0.00283577 -0.25593 
-0.00283577 9.92544 0.0278884 
-0.25593 0.0278884 9.94028 
9.90572 0.00376196 -0.242146 
0.00376196 9.93039 0.0300514 
-0.242146 0.0300514 9.93163 
9.91543 0.0066241 -0.231349 
0.0066241 9.9156 0.0278569 
-0.231349 0.0278569 9.93671 
9.90421 0.00476059 -0.256031 
0.00476059 9.93124 0.0231222 
-0.256031 0.0231222 9.93228 
9.76145 -0.0481451 0.0730237 
-0.0481451 9.7389 0.138674 
0.0730237 0.138674 9.88014 
9.69811 -0.0952414 0.105884 
-0.0952414 9.76651 0.157105 
0.105884 0.157105 9.91588 
9.72815 -0.100706 0.0916175 
-0.100706 9.74643 0.0278774 
0.0916175 0.0278774 9.90591 
9.73963 -0.00525739 0.239204 
-0.00525739 9.71136 0.045874 
0.239204 0.045874 9.92951 
12.9625 0.885788 0.358899 
0.885788 12.4276 -0.196437 
0.358899 -0.196437 12.3008 
11.0809 0.877034 0.7814 
0.877034 9.91084 -1.0912 
0.7814 -1.0912 16.6991 
13.1161 0.94758 0.00452268 
0.94758 12.5202 -0.525038 
0.00452268 -0.525038 12.0546 
12.234 2.06441 -2.39322 
2.06441 11.306 1.82584 
-2.39322 1.82584 14.1508 
10.1173 0.0851507 0.348902 
0.0851507 10.0967 0.193204 
0.348902 0.193204 8.8027 
10.0439 -0.0634107 0.211363 
-0.0634107 10.0069 -0.139437 
0.211363 -0.139437 8.96595 
9.88094 -0.060011 0.255107 
-0.060011 10.0979 -0.164401 
0.255107 -0.164401 9.03785 
9.86656 0.024762 0.202736 
0.024762 9.92156 -0.110762 
0.202736 -0.110762 9.22857 
9.83424 -0.0949087 0.0302568 
-0.0949087 10.0754 0.132922 
0.0302568 0.132922 10.108 
10.0062 -0.0366339 0.00580735 
-0.0366339 9.94173 -0.0914756 
0.00580735 -0.0914756 10.0697 
9.99898 -0.0619857 -0.00397495 
-0.0619857 9.95784 -0.108705 
-0.00397495 -0.108705 10.0609 
10.0485 -0.0711704 0.0160846 
-0.0711704 9.7724 -0.0655358 
0.0160846 -0.0655358 10.1968 
9.84716 -0.0106978 -0.175701 
-0.0106978 9.75285 -0.0274572 
-0.175701 -0.0274572 9.81474 
9.85347 -0.0293178 -0.183044 
-0.0293178 9.7733 -0.0441403 
-0.183044 -0.0441403 9.78798 
9.69241 -0.0374016 -0.237021 
-0.0374016 9.83847 -0.0798112 
-0.237021 -0.0798112 9.88386 
9.77361 -0.0643043 -0.149991 
-0.0643043 9.77555 -0.0946108 
-0.149991 -0.0946108 9.86559 
10.0282 0.276843 -0.0375697 
0.276843 9.99723 -0.0630435 
-0.0375697 -0.0630435 10.3035 
10.0514 0.0619015 -0.111695 
0.0619015 10.0996 0.0660039 
-0.111695 0.0660039 10.178 
10.0506 -0.0101116 -0.117237 
-0.0101116 10.1443 -0.00219215 
-0.117237 -0.00219215 10.1341 
9.95002 0.0356891 -0.0356042 
0.0356891 10.1461 0.151771 
-0.0356042 0.151771 10.2328 
9.62298 0.193507 0.280532 
0.193507 9.86526 -0.213835 
0.280532 -0.213835 9.89825 
9.69387 0.339454 0.187848 
0.339454 9.68011 -0.255863 
0.187848 -0.255863 10.0125 
9.40991 0.199506 0.334633 
0.199506 10.0955 -0.43758 
0.334633 -0.43758 9.8811 
9.75135 -0.0195285 0.36114 
-0.0195285 9.87072 0.082231 
0.36114 0.082231 9.76443 
9.91564 -0.000562135 -0.223209 
-0.000562135 9.90694 -0.066803 
-0.223209 -0.066803 9.95242 
9.92304 -0.002476 -0.234528 
-0.002476 9.91451 -0.0628547 
-0.234528 -0.0628547 9.93745 
9.90263 -0.000883929 -0.237853 
-0.000883929 9.94223 -0.0733955 
-0.237853 -0.0733955 9.93014 
9.91986 -0.0112381 -0.252088 
-0.0112381 9.94073 -0.064913 
-0.252088 -0.064913 9.91442 
10.0235 -0.0192736 -0.01295 
-0.0192736 9.79081 -0.0530174 
-0.01295 -0.0530174 9.96637 
9.8433 0.0719874 -0.000921335 
0.0719874 9.94345 -0.110688 
-0.000921335 -0.110688 9.99392 
10.1151 -0.0202171 0.0830901 
-0.0202171 9.74946 0.0953499 
0.0830901 0.0953499 9.91609 
9.9135 0.0629907 0.0390755 
0.0629907 9.61741 -0.137005 
0.0390755 -0.137005 10.2498 
9.70716 -0.0934731 0.105592 
-0.0934731 9.71748 0.0396122 
0.105592 0.0396122 10.1764 
9.64451 -0.0411257 0.0952635 
-0.0411257 9.74035 0.0217711 
0.0952635 0.0217711 10.2162 
9.72943 -0.0832217 0.129476 
-0.0832217 9.74665 0.05316 
0.129476 0.05316 10.1249 
9.6784 -0.149102 0.125845 
-0.149102 9.74028 0.016984 
0.125845 0.016984 10.1823 
9.74593 -0.00959876 0.0777701 
-0.00959876 9.83659 0.00270564 
0.0777701 0.00270564 9.91034 
9.98833 0.0422073 0.0260927 
0.0422073 9.74234 -0.00585915 
0.0260927 -0.00585915 9.7622 
9.69682 0.00724307 0.111662 
0.00724307 9.89105 0.0324196 
0.111662 0.0324196 9.905 
9.70825 0.0257144 0.0362266 
0.0257144 9.84978 0.00971536 
0.0362266 0.00971536 9.93484 
9.80726 0.134847 0.0640747 
0.134847 9.86591 -0.141219 
0.0640747 -0.141219 10.0239 
9.75694 0.0583326 -0.081931 
0.0583326 9.70946 -0.0153291 
-0.081931 -0.0153291 10.2307 
9.74169 0.0987399 -0.0380004 
0.0987399 9.73276 -0.0124511 
-0.0380004 -0.0124511 10.2227 
9.59072 0.0961963 -0.00750058 
0.0961963 9.72091 -0.0403758 
-0.00750058 -0.0403758 10.3855 
9.90692 -0.0964026 -0.00210617 
-0.0964026 9.89691 -0.00343219 
-0.00210617 -0.00343219 10.0565 
9.9261 -0.011033 -0.0121581 
-0.011033 9.97989 0.0377409 
-0.0121581 0.0377409 9.95433 
9.91978 -0.025516 0.0156747 
-0.025516 9.9528 0.0266267 
0.0156747 0.0266267 9.98774 
9.93316 -0.0245802 0.0622341 
-0.0245802 9.92859 0.0708476 
0.0622341 0.0708476 9.99858 
9.87854 -0.000482281 0.0945665 
-0.000482281 9.88315 0.186829 
0.0945665 0.186829 9.91478 
9.84773 -0.0018065 0.154719 
-0.0018065 9.83585 0.177561 
0.154719 0.177561 9.99289 
9.86555 -0.0532936 0.0781792 
-0.0532936 9.8718 0.17473 
0.0781792 0.17473 9.93912 
9.83508 -0.0333794 0.132291 
-0.0333794 9.89581 0.177023 
0.132291 0.177023 9.94559 
9.73868 -0.00242761 -0.314356 
-0.00242761 9.91156 0.0668015 
-0.314356 0.0668015 9.88189 
9.7888 0.0208526 -0.219743 
0.0208526 9.84994 0.0985015 
-0.219743 0.0985015 9.89339 
9.76053 -0.0138271 -0.230404 
-0.0138271 9.89874 0.0424226 
-0.230404 0.0424226 9.87286 
9.79025 0.0161788 -0.287652 
0.0161788 9.87235 -0.00836184 
-0.287652 -0.00836184 9.86953 
9.7713 0.00543715 -0.0327595 
0.00543715 9.85387 -0.171068 
-0.0327595 -0.171068 9.81988 
9.87429 -0.0366042 -0.078056 
-0.0366042 9.66337 -0.256814 
-0.078056 -0.256814 9.90739 
9.80128 -0.0257914 -0.0366261 
-0.0257914 9.85013 -0.185888 
-0.0366261 -0.185888 9.79364 
9.78623 -0.0757541 -0.102848 
-0.0757541 9.75858 -0.138062 
-0.102848 -0.138062 9.90024 
5.91545 0.00134147 -0.923444 
0.00134147 2.89535 -0.185661 
-0.923444 -0.185661 2.65285 
5.38059 -0.312163 -0.841561 
-0.312163 2.58415 -0.140127 
-0.841561 -0.140127 3.49891 
9.11152 -0.299486 0.236559 
-0.299486 5.88264 1.0608 
0.236559 1.0608 -3.5305 
6.99693 1.08784 -5.28583 
1.08784 2.09707 -1.2331 
-5.28583 -1.2331 2.36965 
9.79145 -0.0565129 0.0547863 
-0.0565129 9.78548 0.0489372 
0.0547863 0.0489372 9.92538 
9.70108 -0.0942968 0.0725286 
-0.0942968 9.78077 0.0923543 
0.0725286 0.0923543 10.0205 
9.70317 -0.107022 0.0757972 
-0.107022 9.70697 0.0782628 
0.0757972 0.0782628 10.0922 
9.85289 0.0153283 0.149514 
0.0153283 9.74626 0.188758 
0.149514 0.188758 9.90316 
9.79032 -0.203922 0.116621 
-0.203922 9.75839 0.287944 
0.116621 0.287944 10.1549 
10.0313 -0.400307 0.400302 
-0.400307 9.80214 0.216028 
0.400302 0.216028 9.87008 
9.63537 -0.309165 0.100828 
-0.309165 9.80747 0.290631 
0.100828 0.290631 10.2607 
9.64563 -0.232077 0.162075 
-0.232077 9.8003 0.0944583 
0.162075 0.0944583 10.2576 
9.85399 -0.022415 0.184696 
-0.022415 9.97138 0.0123365 
0.184696 0.0123365 9.64969 
9.85909 -0.00715533 0.236195 
-0.00715533 9.95803 0.00347757 
0.236195 0.00347757 9.65794 
9.8623 -0.0235981 0.183597 
-0.0235981 9.946 0.0185434 
0.183597 0.0185434 9.66676 
9.85833 -0.00730404 0.224991 
-0.00730404 9.92317 -0.0260192 
0.224991 -0.0260192 9.69355 
10.0404 -0.0172253 0.0232658 
-0.0172253 9.95226 0.0385574 
0.0232658 0.0385574 10.3376 
10.0284 0.0124253 0.0361133 
0.0124253 10.0552 -0.0167092 
0.0361133 -0.0167092 10.2467 
10.0223 -0.0369272 0.0231799 
-0.0369272 10.0151 0.0595681 
0.0231799 0.0595681 10.2928 
10.1075 0.00927814 -0.0113379 
0.00927814 10.0425 0.214108 
-0.0113379 0.214108 10.1802 
9.97047 0.168423 -0.333732 
0.168423 7.10738 1.62616 
-0.333732 1.62616 -4.47642 
2.45074 -0.869955 -0.618102 
-0.869955 -0.463727 1.27835 
-0.618102 1.27835 10.6144 
9.13083 0.486907 -0.593117 
0.486907 6.74524 -1.30654 
-0.593117 -1.30654 -3.27463 
7.36757 -0.607358 -10.2911 
-0.607358 6.23453 -0.0984614 
-10.2911 -0.0984614 -1.00067 
9.83307 0.0893577 0.130895 
0.0893577 9.78294 -0.169359 
0.130895 -0.169359 9.90627 
9.80947 -0.0180599 0.0586429 
-0.0180599 9.85585 -0.131532 
0.0586429 -0.131532 9.85698 
9.80854 -0.0184163 0.0773036 
-0.0184163 9.88789 -0.12753 
0.0773036 -0.12753 9.82587 
9.76813 0.0345204 0.0942909 
0.0345204 9.83387 -0.0854434 
0.0942909 -0.0854434 9.9203 
9.79553 0.0384558 -0.098027 
0.0384558 9.78886 0.157547 
-0.098027 0.157547 8.81659 
10.278 0.207996 0.385588 
0.207996 9.87928 0.317925 
0.385588 0.317925 8.24368 
9.80602 -0.00696158 -0.0185958 
-0.00696158 9.77244 0.237199 
-0.0185958 0.237199 8.82253 
9.57254 -0.0349975 0.170499 
-0.0349975 9.6758 -0.0306805 
0.170499 -0.0306805 9.15264 
9.9352 -0.0213075 0.110303 
-0.0213075 9.91545 -0.0654268 
0.110303 -0.0654268 9.76584 
9.95689 0.000392181 0.14585 
0.000392181 9.96125 -0.122356 
0.14585 -0.122356 9.69835 
9.90714 0.0352245 0.171768 
0.0352245 9.93643 -0.139259 
0.171768 -0.139259 9.77292 
9.91072 0.0113756 0.150228 
0.0113756 9.92439 -0.157019 
0.150228 -0.157019 9.78138 
9.83115 0.0853887 0.0420025 
0.0853887 9.94383 0.0824115 
0.0420025 0.0824115 9.8183 
9.82903 -0.0322438 0.0343744 
-0.0322438 9.84518 0.0616051 
0.0343744 0.0616051 9.91907 
9.8209 -0.0952965 0.0237811 
-0.0952965 9.83467 0.0274645 
0.0237811 0.0274645 9.93771 
9.838 -0.0585052 0.0922255 
-0.0585052 9.81796 0.0875229 
0.0922255 0.0875229 9.93732 
7.93957 2.47947 -2.59911 
2.47947 7.0469 -0.84394 
-2.59911 -0.84394 6.41138 
8.7887 -0.234901 -3.3175 
-0.234901 6.65167 0.325093 
-3.3175 0.325093 5.95747 
9.86333 -1.23567 -4.30713 
-1.23567 7.29049 -1.10864 
-4.30713 -1.10864 4.24403 
8.28946 -1.11026 -2.44008 
-1.11026 6.73327 2.27853 
-2.44008 2.27853 6.37512 
9.86167 -0.0430661 0.137766 
-0.0430661 9.85375 0.202621 
0.137766 0.202621 9.93706 
9.86426 -0.0190059 0.144007 
-0.0190059 9.86956 0.211092 
0.144007 0.211092 9.91866 
9.86327 -0.0317843 0.1496 
-0.0317843 9.85766 0.200777 
0.1496 0.200777 9.93154 
9.86311 -0.0369744 0.133603 
-0.0369744 9.84303 0.206488 
0.133603 0.206488 9.94633 
9.78876 0.0123041 0.0880276 
0.0123041 9.84489 -0.130752 
0.0880276 -0.130752 9.86319 
9.82657 0.0745131 0.0867167 
0.0745131 9.76105 -0.194662 
0.0867167 -0.194662 9.90922 
9.79418 -0.0274548 0.0796507 
-0.0274548 9.90363 -0.133459 
0.0796507 -0.133459 9.79903 
9.79083 0.017959 0.0407682 
0.017959 9.78552 -0.116958 
0.0407682 -0.116958 9.92049 
10.0278 0.0082901 0.1626 
0.0082901 9.90504 0.25257 
0.1626 0.25257 9.67199 
9.94389 0.0160567 0.194968 
0.0160567 9.95223 0.167599 
0.194968 0.167599 9.70867 
9.82341 -0.0374235 0.182771 
-0.0374235 9.92834 0.10154 
0.182771 0.10154 9.85305 
9.93357 -0.0397001 0.18579 
-0.0397001 10.0354 0.132745 
0.18579 0.132745 9.63584 
9.97114 0.0154878 0.102348 
0.0154878 9.95383 -0.141018 
0.102348 -0.141018 10.0464 
10.0321 0.00962352 0.0407886 
0.00962352 10.0212 -0.124019 
0.0407886 -0.124019 9.91816 
9.99106 0.0326519 0.0610403 
0.0326519 10.0071 -0.154674 
0.0610403 -0.154674 9.97323 
10.0317 -0.00871262 0.0468198 
-0.00871262 10.0268 -0.152722 
0.0468198 -0.152722 9.91285 
9.9148 -0.0777087 0.0913892 
-0.0777087 9.7985 0.0853388 
0.0913892 0.0853388 9.81379 
9.7467 -0.0216762 0.151985 
-0.0216762 9.79056 0.149229 
0.151985 0.149229 9.98982 
9.81639 0.0360606 0.0979437 
0.0360606 9.76402 0.100894 
0.0979437 0.100894 9.94667 
9.80319 -0.0625015 0.16343 
-0.0625015 9.87441 0.249442 
0.16343 0.249442 9.84948 
8.03988 -1.10444 -2.93592 
-1.10444 9.80719 -1.33783 
-2.93592 -1.33783 10.0666 
7.90991 0.0608862 -1.82301 
0.0608862 10.404 -1.29833 
-1.82301 -1.29833 9.59972 
7.18235 0.47366 -3.14001 
0.47366 9.96592 -1.86973 
-3.14001 -1.86973 10.7654 
7.93789 -0.533859 -2.41729 
-0.533859 9.75347 -1.31802 
-2.41729 -1.31802 10.2223 
9.73462 0.0645855 -0.287236 
0.0645855 9.908 0.166192 
-0.287236 0.166192 9.7571 
9.74332 0.0208016 -0.291268 
0.0208016 9.88152 0.150627 
-0.291268 0.150627 9.77488 
9.74636 0.0259169 -0.279263 
0.0259169 9.88338 0.147835 
-0.279263 0.147835 9.76998 
9.73815 -0.013229 -0.314369 
-0.013229 9.89911 0.127334 
-0.314369 0.127334 9.76246 
9.8944 0.0410569 0.112387 
0.0410569 9.84189 -0.240203 
0.112387 -0.240203 9.91696 
9.88794 0.0368939 0.128107 
0.0368939 9.84094 -0.231557 
0.128107 -0.231557 9.92437 
9.91933 0.0206677 0.133903 
0.0206677 9.83362 -0.244095 
0.133903 -0.244095 9.9003 
9.87388 0.0398774 0.127764 
0.0398774 9.84832 -0.242385 
0.127764 -0.242385 9.93105 
10.016 -0.0020139 -0.0175671 
-0.0020139 10.0054 0.0221592 
-0.0175671 0.0221592 10.3271 
10.1726 -0.0362355 -0.0383495 
-0.0362355 10.1205 -0.027009 
-0.0383495 -0.027009 10.0555 
10.0665 -0.0249452 -0.068537 
-0.0249452 10.0494 -0.003132 
-0.068537 -0.003132 10.2326 
10.0667 -0.0577081 -0.166534 
-0.0577081 10.135 0.0516097 
-0.166534 0.0516097 10.1469 
9.8188 0.0539041 0.0910976 
0.0539041 9.59515 -0.248536 
0.0910976 -0.248536 9.84623 
9.77567 0.0158054 0.0620582 
0.0158054 9.66326 -0.244711 
0.0620582 -0.244711 9.82125 
9.77152 0.0591637 0.0872667 
0.0591637 9.62977 -0.202274 
0.0872667 -0.202274 9.85889 
9.75508 0.0377332 0.0780645 
0.0377332 9.68811 -0.255451 
0.0780645 -0.255451 9.81699 
9.35964 0.252941 -1.89981 
0.252941 9.18371 0.475305 
-1.89981 0.475305 8.82625 
9.16067 0.139249 -1.41972 
0.139249 8.81155 0.274752 
-1.41972 0.274752 9.39737 
10.9998 -0.197442 0.166732 
-0.197442 7.67935 0.374227 
0.166732 0.374227 8.69045 
9.46217 -0.00366181 -1.38497 
-0.00366181 8.55495 0.483439 
-1.38497 0.483439 9.35247 
9.4548 0.144171 0.279187 
0.144171 9.53709 -0.207992 
0.279187 -0.207992 10.2223 
9.56934 0.0665618 0.496704 
0.0665618 9.25329 -0.374536 
0.496704 -0.374536 10.3916 
9.57266 0.100961 0.230478 
0.100961 9.63635 -0.399478 
0.230478 -0.399478 10.0052 
9.43378 0.180251 0.233009 
0.180251 9.56631 -0.312054 
0.233009 -0.312054 10.2141 
10.1423 0.0195804 0.0102515 
0.0195804 10.1732 0.0546695 
0.0102515 0.0546695 10.3066 
10.2005 0.0644894 -0.0355758 
0.0644894 10.2443 -0.00236695 
-0.0355758 -0.00236695 10.1772 
10.1729 0.0599568 -0.06931 
0.0599568 10.3103 0.00764097 
-0.06931 0.00764097 10.1388 
10.1452 -0.00861222 -0.0111793 
-0.00861222 10.2002 0.000825116 
-0.0111793 0.000825116 10.2766 
10.1663 -0.0972888 -0.00779764 
-0.0972888 10.1514 -0.0245675 
-0.00779764 -0.0245675 10.2802 
10.0483 0.131637 -0.0688529 
0.131637 10.1695 0.0781683 
-0.0688529 0.0781683 10.38 
10.1901 0.045568 -0.011738 
0.045568 10.2196 0.00751243 
-0.011738 0.00751243 10.1881 
10.3294 -0.192161 -0.123325 
-0.192161 10.1084 0.155849 
-0.123325 0.155849 10.16 
9.90666 0.0506792 -0.0460885 
0.0506792 9.90931 0.0316014 
-0.0460885 0.0316014 9.96932 
9.92158 -0.0468607 0.00282474 
-0.0468607 9.91312 0.0424061 
0.00282474 0.0424061 9.95058 
9.89539 0.033061 -0.0228287 
0.033061 9.90451 0.0317625 
-0.0228287 0.0317625 9.98539 
9.84677 -0.00130862 -0.0357449 
-0.00130862 9.94433 0.015078 
-0.0357449 0.015078 9.99418 
9.65304 -0.17163 0.372973 
-0.17163 9.87649 0.212091 
0.372973 0.212091 9.91969 
9.69364 -0.0465595 0.320474 
-0.0465595 9.93288 0.139078 
0.320474 0.139078 9.8227 
9.60564 -0.0240514 0.303891 
-0.0240514 10.0516 0.0994714 
0.303891 0.0994714 9.79199 
9.74815 0.0193807 0.243376 
0.0193807 9.79116 0.140226 
0.243376 0.140226 9.90991 
10.2853 -0.0216 0.0879112 
-0.0216 10.5359 0.00300336 
0.0879112 0.00300336 10.0726 
10.3575 -0.00189809 0.219183 
-0.00189809 10.7568 -0.183082 
0.219183 -0.183082 9.77942 
9.68624 0.104576 -0.152881 
0.104576 9.5753 -0.0254146 
-0.152881 -0.0254146 11.6323 
10.1919 -0.318473 0.432964 
-0.318473 10.5677 0.618838 
0.432964 0.618838 10.1342 
9.98391 -0.0145506 -0.206455 
-0.0145506 9.97024 -0.153946 
-0.206455 -0.153946 9.98271 
9.95383 -0.0154884 -0.184296 
-0.0154884 9.96664 -0.158642 
-0.184296 -0.158642 10.0164 
9.97743 -0.0144536 -0.205119 
-0.0144536 9.99102 -0.156391 
-0.205119 -0.156391 9.96841 
9.96728 -0.015465 -0.220385 
-0.015465 10.0007 -0.16249 
-0.220385 -0.16249 9.96891 
9.89651 0.023279 0.00243291 
0.023279 9.93064 -0.0151106 
0.00243291 -0.0151106 9.93155 
9.90036 -0.0157541 -0.0162191 
-0.0157541 9.91222 -0.0157728 
-0.0162191 -0.0157728 9.94612 
9.87779 -0.0234514 -0.035306 
-0.0234514 9.89493 -0.0414625 
-0.035306 -0.0414625 9.98598 
9.89684 -0.0140085 0.00594954 
-0.0140085 9.89447 -0.0282584 
0.00594954 -0.0282584 9.9674 
9.94823 0.00885653 -0.190383 
0.00885653 9.93886 0.140129 
-0.190383 0.140129 9.99458 
9.93804 0.0115825 -0.184148 
0.0115825 9.96364 0.138094 
-0.184148 0.138094 9.98 
9.95325 -0.00145078 -0.210478 
-0.00145078 9.94906 0.155139 
-0.210478 0.155139 9.97937 
9.9532 0.0105077 -0.21279 
0.0105077 9.95626 0.146325 
-0.21279 0.146325 9.97222 
9.69091 0.100963 -0.359172 
0.100963 10.0704 0.0457492 
-0.359172 0.0457492 10.6531 
9.73178 0.158935 -0.375284 
0.158935 10.0548 0.0476204 
-0.375284 0.0476204 10.6279 
9.65244 0.249026 -0.392594 
0.249026 9.97594 0.0189274 
-0.392594 0.0189274 10.7861 
9.83307 0.186113 -0.367757 
0.186113 10.008 0.0856937 
-0.367757 0.0856937 10.5734 
9.9749 0.00878222 -0.0541089 
0.00878222 9.95525 0.236326 
-0.0541089 0.236326 9.9845 
9.97357 0.00611679 -0.0500336 
0.00611679 9.95054 0.22817 
-0.0500336 0.22817 9.99054 
9.96636 0.00663382 -0.0602237 
0.00663382 9.95286 0.228276 
-0.0602237 0.228276 9.99543 
9.97691 0.00966965 -0.0623747 
0.00966965 9.96603 0.237507 
-0.0623747 0.237507 9.97171 
9.98378 0.0181462 0.0627691 
0.0181462 9.98398 -0.0276615 
0.0627691 -0.0276615 9.96743 
9.90281 0.0148825 -0.00449377 
0.0148825 9.95521 -0.026898 
-0.00449377 -0.026898 10.0772 
9.93455 -0.023242 -0.0274413 
-0.023242 9.97196 0.0269366 
-0.0274413 0.0269366 10.0287 
9.89143 0.0417027 0.00741517 
0.0417027 9.98114 -0.00487598 
0.00741517 -0.00487598 10.0626 
9.91764 0.0112707 -0.197755 
0.0112707 9.92166 0.135158 
-0.197755 0.135158 9.95176 
9.92868 -0.00091388 -0.19172 
-0.00091388 9.91982 0.132623 
-0.19172 0.132623 9.94256 
9.92713 0.020451 -0.205626 
0.020451 9.9238 0.124255 
-0.205626 0.124255 9.94014 
9.91544 0.0144371 -0.204369 
0.0144371 9.9364 0.135151 
-0.204369 0.135151 9.93922 
9.8947 0.108699 0.139483 
0.108699 9.84123 0.135773 
0.139483 0.135773 12.6379 
10.7231 0.0907404 -0.26171 
0.0907404 10.9457 0.00287366 
-0.26171 0.00287366 10.705 
11.5632 -0.0865051 -0.0104619 
-0.0865051 11.2293 -0.144491 
-0.0104619 -0.144491 9.58131 
10.6725 0.039976 -1.60614 
0.039976 10.9156 -0.0837829 
-1.60614 -0.0837829 10.7858 
12.9849 0.301559 -0.220491 
0.301559 10.9169 0.930761 
-0.220491 0.930761 14.012 
15.7293 -1.07004 -1.7551 
-1.07004 12.6287 1.61484 
-1.7551 1.61484 9.55583 
11.8615 -0.0047527 1.68649 
-0.0047527 9.17947 -0.273434 
1.68649 -0.273434 16.8728 
10.9503 2.01196 -1.58304 
2.01196 10.9098 1.76112 
-1.58304 1.76112 16.0538 
9.74077 -0.00539661 -0.0609626 
-0.00539661 9.89367 0.123724 
-0.0609626 0.123724 9.86585 
9.78057 -0.0239133 -0.0510915 
-0.0239133 9.88914 0.0988574 
-0.0510915 0.0988574 9.83058 
9.8392 0.151054 -0.0447526 
0.151054 9.69197 0.0467835 
-0.0447526 0.0467835 9.96912 
9.82291 -0.0372763 -0.154831 
-0.0372763 9.75251 0.184101 
-0.154831 0.184101 9.92487 
9.85669 0.0471799 0.272313 
0.0471799 9.99611 0.061798 
0.272313 0.061798 9.69265 
9.87428 -0.0953854 0.158206 
-0.0953854 9.85211 0.135653 
0.158206 0.135653 9.81906 
9.92027 0.0288497 0.239664 
0.0288497 9.93049 0.139247 
0.239664 0.139247 9.69468 
9.99088 -0.100683 0.193821 
-0.100683 9.97688 0.0831412 
0.193821 0.0831412 9.57769 
9.70551 -0.241983 0.138864 
-0.241983 9.99505 -0.0690072 
0.138864 -0.0690072 10.3171 
9.52299 -0.284037 0.418168 
-0.284037 9.82778 0.2154 
0.418168 0.2154 10.6669 
9.64208 -0.206362 0.282692 
-0.206362 10.0779 0.0708345 
0.282692 0.0708345 10.2977 
9.73224 -0.0681381 0.414063 
-0.0681381 10.1833 0.138645 
0.414063 0.138645 10.1022 
9.81179 -0.0520573 0.187932 
-0.0520573 9.81897 0.174234 
0.187932 0.174234 9.98633 
9.82968 -0.0405754 0.201097 
-0.0405754 9.79665 0.19049 
0.201097 0.19049 9.99076 
9.80085 -0.0732382 0.166549 
-0.0732382 9.79867 0.151173 
0.166549 0.151173 10.0176 
9.80821 -0.0404602 0.147922 
-0.0404602 9.82551 0.179893 
0.147922 0.179893 9.98337 
9.92288 0.00969415 0.168729 
0.00969415 9.92708 -0.175093 
0.168729 -0.175093 9.95829 
9.92655 0.0139323 0.160146 
0.0139323 9.92905 -0.169204 
0.160146 -0.169204 9.95266 
9.92964 0.00385982 0.158595 
0.00385982 9.93415 -0.156915 
0.158595 -0.156915 9.94446 
9.93572 0.0161404 0.165913 
0.0161404 9.91822 -0.167788 
0.165913 -0.167788 9.95432 
9.92751 0.0376062 0.102762 
0.0376062 9.70531 -0.335453 
0.102762 -0.335453 9.61125 
10.0112 -0.0424252 0.144687 
-0.0424252 9.70593 -0.387562 
0.144687 -0.387562 9.52697 
9.95625 0.128369 0.256121 
0.128369 9.72404 -0.400632 
0.256121 -0.400632 9.56378 
9.89686 0.0151862 0.121465 
0.0151862 9.75857 -0.335439 
0.121465 -0.335439 9.58864 
9.96988 0.0479989 -0.132624 
0.0479989 9.66939 -0.0109707 
-0.132624 -0.0109707 9.68186 
9.69723 -0.019208 -0.177247 
-0.019208 9.79632 -0.0289889 
-0.177247 -0.0289889 9.82759 
9.60619 -0.0878476 -0.134096 
-0.0878476 9.83369 -0.0204068 
-0.134096 -0.0204068 9.88125 
9.67678 0.0441183 -0.20003 
0.0441183 9.81793 -0.0512453 
-0.20003 -0.0512453 9.82643 
9.82043 0.0877036 0.0691377 
0.0877036 9.68411 -0.11697 
0.0691377 -0.11697 9.85626 
9.74695 0.0130482 0.0257622 
0.0130482 9.81094 -0.202982 
0.0257622 -0.202982 9.80291 
9.7435 -0.0292783 0.0560597 
-0.0292783 9.86977 -0.187004 
0.0560597 -0.187004 9.74753 
9.76146 0.0210167 0.0969554 
0.0210167 9.73289 -0.203545 
0.0969554 -0.203545 9.86646 
9.84709 0.0173384 0.0126317 
0.0173384 9.98597 0.00399406 
0.0126317 0.00399406 9.90773 
9.91691 -0.0834957 0.0321709 
-0.0834957 9.83454 0.0434036 
0.0321709 0.0434036 9.98933 
9.88987 -0.0533619 0.0369641 
-0.0533619 9.84679 0.0872217 
0.0369641 0.0872217 10.0041 
9.92301 -0.0147845 0.0027981 
-0.0147845 9.83298 0.0710663 
0.0027981 0.0710663 9.9848 
1.56904 0.64448 -0.913499 
0.64448 4.13268 0.0151635 
-0.913499 0.0151635 5.31051 
7.28155 2.03584 2.17172 
2.03584 10.1407 -0.772065 
2.17172 -0.772065 -6.40999 
3.33518 0.537666 -0.643843 
0.537666 5.50578 0.48873 
-0.643843 0.48873 2.17128 
2.37356 -1.53681 -2.24103 
-1.53681 6.27491 5.47547 
-2.24103 5.47547 2.36377 
10.0021 -0.00174754 -0.0204261 
-0.00174754 10.0448 0.0286088 
-0.0204261 0.0286088 10.0477 
10.0367 0.0234739 -0.00421913 
0.0234739 10.0289 -0.00597395 
-0.00421913 -0.00597395 10.0291 
10.0386 0.016171 -0.0147342 
0.016171 10.0188 -0.00955256 
-0.0147342 -0.00955256 10.0373 
10.0246 0.00513204 -0.0145514 
0.00513204 10.0421 0.00196069 
-0.0145514 0.00196069 10.028 
9.7901 0.0328914 -0.305091 
0.0328914 9.94956 0.0668907 
-0.305091 0.0668907 9.86309 
9.80668 0.0469859 -0.28835 
0.0469859 9.92093 0.0304409 
-0.28835 0.0304409 9.87514 
9.79155 0.0246914 -0.279719 
0.0246914 9.94791 0.0495946 
-0.279719 0.0495946 9.86328 
9.76365 -0.0101779 -0.286856 
-0.0101779 9.99637 0.0271923 
-0.286856 0.0271923 9.84273 
10.861 0.237236 -0.0920193 
0.237236 11.4472 -0.0939189 
-0.0920193 -0.0939189 11.0033 
10.5567 0.052253 0.358671 
0.052253 10.1365 0.0675901 
0.358671 0.0675901 12.6183 
11.5512 0.0480186 -0.0593764 
0.0480186 11.5277 -0.0472314 
-0.0593764 -0.0472314 10.2326 
10.9586 -0.38767 -0.778995 
-0.38767 10.9664 -0.775101 
-0.778995 -0.775101 11.3865 
9.95048 -0.0107127 0.00354437 
-0.0107127 9.93484 -0.240461 
0.00354437 -0.240461 9.96228 
9.92912 -0.00651056 -0.00459366 
-0.00651056 9.93394 -0.230446 
-0.00459366 -0.230446 9.98455 
9.95268 0.00353789 -0.00253249 
0.00353789 9.93344 -0.256545 
-0.00253249 -0.256545 9.96148 
9.95655 -0.00430504 -0.0101082 
-0.00430504 9.93903 -0.256264 
-0.0101082 -0.256264 9.95203 
9.99324 -0.00619276 0.246334 
-0.00619276 9.99629 0.00552893 
0.246334 0.00552893 9.96423 
9.96265 0.026713 0.217073 
0.026713 9.95398 0.0189339 
0.217073 0.0189339 10.0371 
9.96648 0.00278631 0.239626 
0.00278631 10.01 0.00716923 
0.239626 0.00716923 9.97732 
9.98466 -0.00520256 0.251734 
-0.00520256 10.0007 0.0224981 
0.251734 0.0224981 9.96844 
9.94999 0.000494651 0.212668 
0.000494651 9.94581 -0.0905284 
0.212668 -0.0905284 9.9703 
9.93831 0.00792513 0.228555 
0.00792513 9.95348 -0.0879385 
0.228555 -0.0879385 9.97431 
9.94258 0.00509252 0.231522 
0.00509252 9.94779 -0.0913435 
0.231522 -0.0913435 9.97574 
9.93806 0.00876356 0.22746 
0.00876356 9.95394 -0.0945168 
0.22746 -0.0945168 9.9741 
9.6142 0.0820751 -0.306893 
0.0820751 9.90549 0.188109 
-0.306893 0.188109 9.59688 
9.52143 0.0836585 -0.40214 
0.0836585 9.88453 0.18147 
-0.40214 0.18147 9.71061 
9.61618 0.0654729 -0.352289 
0.0654729 9.82766 0.176282 
-0.352289 0.176282 9.67273 
9.61472 0.0431007 -0.382064 
0.0431007 9.8333 0.122791 
-0.382064 0.122791 9.66855 
9.72416 0.139818 0.0914982 
0.139818 9.73666 -0.167408 
0.0914982 -0.167408 10.194 
9.70675 0.0354444 0.0106055 
0.0354444 9.68022 -0.0165835 
0.0106055 -0.0165835 10.2678 
9.51117 0.246337 0.0722204 
0.246337 9.72072 -0.0475571 
0.0722204 -0.0475571 10.4229 
9.67981 0.0410048 0.10428 
0.0410048 9.69208 -0.0935448 
0.10428 -0.0935448 10.2829 
10.1939 -0.0702736 -0.0355728 
-0.0702736 10.1597 0.0308097 
-0.0355728 0.0308097 10.1154 
10.102 -0.098674 0.014026 
-0.098674 10.0869 0.0697724 
0.014026 0.0697724 10.2801 
10.1297 0.0686287 -0.0051068 
0.0686287 10.1312 -0.00575115 
-0.0051068 -0.00575115 10.2081 
10.2796 0.268859 0.0819432 
0.268859 10.086 0.188408 
0.0819432 0.188408 10.1033 
9.82612 0.148756 0.123535 
0.148756 9.69103 -0.092605 
0.123535 -0.092605 10.1863 
9.74699 0.0915616 -0.0141149 
0.0915616 9.72993 -0.00842433 
-0.0141149 -0.00842433 10.2265 
9.70675 0.08264 0.00676755 
0.08264 9.77202 -0.120044 
0.00676755 -0.120044 10.2246 
9.86959 0.154467 -0.010483 
0.154467 9.49732 -0.0831598 
-0.010483 -0.0831598 10.3365 
9.97567 0.00881952 -0.126476 
0.00881952 9.95583 -0.197408 
-0.126476 -0.197408 9.99182 
9.93067 -0.00684025 -0.133383 
-0.00684025 9.99328 -0.207276 
-0.133383 -0.207276 9.99937 
9.98171 -0.023247 -0.127226 
-0.023247 9.9669 -0.211052 
-0.127226 -0.211052 9.97471 
9.98008 -0.00516168 -0.124523 
-0.00516168 9.97485 -0.203939 
-0.124523 -0.203939 9.96839 
9.97829 0.00248951 0.0514363 
0.00248951 9.95481 -0.225605 
0.0514363 -0.225605 9.97815 
9.9641 -0.00418996 0.0621318 
-0.00418996 9.94705 -0.233246 
0.0621318 -0.233246 10.0001 
9.95652 -0.00754013 0.0532413 
-0.00754013 9.96097 -0.22401 
0.0532413 -0.22401 9.99378 
9.97673 0.00563449 0.0490642 
0.00563449 9.9653 -0.225638 
0.0490642 -0.225638 9.96923 
9.94673 0.0189391 -0.105994 
0.0189391 9.98598 -0.103579 
-0.105994 -0.103579 9.85359 
9.99172 -0.0417076 -0.126516 
-0.0417076 9.97424 -0.105664 
-0.126516 -0.105664 9.82034 
9.95457 -0.0463201 -0.0796342 
-0.0463201 9.92609 -0.121494 
-0.0796342 -0.121494 9.90564 
9.94717 0.0184188 -0.123756 
0.0184188 9.97489 -0.100868 
-0.123756 -0.100868 9.86424 
9.83886 -0.00469308 -0.158863 
-0.00469308 9.85385 -0.158315 
-0.158863 -0.158315 9.87703 
9.85506 -0.0291068 -0.141266 
-0.0291068 9.834 -0.150643 
-0.141266 -0.150643 9.88068 
9.84083 0.0184379 -0.171253 
0.0184379 9.86143 -0.162021 
-0.171253 -0.162021 9.86747 
9.82245 -0.0158248 -0.147487 
-0.0158248 9.85466 -0.169499 
-0.147487 -0.169499 9.89264 
10.5966 -0.0820984 0.0286621 
-0.0820984 10.2699 0.29403 
0.0286621 0.29403 11.061 
10.2479 2.40014e-05 0.0611595 
2.40014e-05 10.9789 0.101677 
0.0611595 0.101677 10.7007 
10.3913 -0.0186712 0.109297 
-0.0186712 10.5331 0.00891486 
0.109297 0.00891486 11.0031 
10.5889 -0.117036 0.026394 
-0.117036 10.4185 0.0423398 
0.026394 0.0423398 10.92 
9.98856 0.361711 -0.21713 
0.361711 9.33984 0.727852 
-0.21713 0.727852 9.32715 
10.9001 0.391287 -0.0450846 
0.391287 8.59746 0.899775 
-0.0450846 0.899775 9.15802 
9.47842 0.807752 -0.760229 
0.807752 10.1268 0.387614 
-0.760229 0.387614 9.05035 
9.8344 -0.166846 0.195711 
-0.166846 9.12611 0.81168 
0.195711 0.81168 9.69504 
10.4183 0.250226 0.0124231 
0.250226 10.087 -0.0124408 
0.0124231 -0.0124408 12.0733 
10.4747 0.285073 -0.30853 
0.285073 9.87776 0.0125229 
-0.30853 0.0125229 12.2262 
10.77 -0.221211 0.165897 
-0.221211 10.3757 0.0169587 
0.165897 0.0169587 11.4329 
10.3406 1.03427 0.564354 
1.03427 10.1654 -0.590375 
0.564354 -0.590375 12.0727 
9.94809 -0.207264 0.00731621 
-0.207264 9.38136 0.130565 
0.00731621 0.130565 10.5622 
9.85463 -0.212361 -0.0103144 
-0.212361 9.68748 0.0461126 
-0.0103144 0.0461126 10.3496 
9.74838 -0.193506 -0.128186 
-0.193506 9.42521 0.136528 
-0.128186 0.136528 10.7181 
9.60094 -0.117478 0.303981 
-0.117478 9.77912 0.343654 
0.303981 0.343654 10.5116 
9.83097 0.0508599 0.0783992 
0.0508599 9.80816 -0.191873 
0.0783992 -0.191873 9.87878 
9.79111 0.00301415 0.107968 
0.00301415 9.82612 -0.161915 
0.107968 -0.161915 9.90068 
9.87473 0.0260343 0.111668 
0.0260343 9.79463 -0.222003 
0.111668 -0.222003 9.84854 
9.81904 0.0225168 0.127743 
0.0225168 9.73967 -0.182671 
0.127743 -0.182671 9.95919 
9.68349 0.0100446 0.105739 
0.0100446 9.71729 -0.116694 
0.105739 -0.116694 9.95986 
9.81212 0.0822567 0.0423932 
0.0822567 9.64907 -0.127117 
0.0423932 -0.127117 9.89944 
9.75573 0.107377 0.0677936 
0.107377 9.67314 -0.124036 
0.0677936 -0.124036 9.93176 
9.7933 0.12053 0.0483308 
0.12053 9.70809 -0.0841611 
0.0483308 -0.0841611 9.85924 
9.83467 -0.0614877 0.0506411 
-0.0614877 9.8681 -0.125744 
0.0506411 -0.125744 9.86762 
9.86939 -0.0469256 0.0803084 
-0.0469256 9.83487 -0.0673481 
0.0803084 -0.0673481 9.86614 
9.80024 0.178013 0.052398 
0.178013 9.8201 -0.00397184 
0.052398 -0.00397184 9.95006 
9.87152 0.0164303 0.176856 
0.0164303 9.72632 -0.099918 
0.176856 -0.099918 9.97255 
9.72778 -1.3143 1.01941 
-1.3143 9.90759 0.494981 
1.01941 0.494981 10.653 
8.50777 -0.40805 1.01492 
-0.40805 11.6613 0.832549 
1.01492 0.832549 10.1194 
8.15586 -0.717289 1.2225 
-0.717289 11.0834 1.51039 
1.2225 1.51039 11.0492 
9.39861 -0.537771 1.80727 
-0.537771 10.0713 0.486722 
1.80727 0.486722 10.8184 
9.75156 0.0564245 0.0669274 
0.0564245 9.77202 -0.0710922 
0.0669274 -0.0710922 9.93287 
9.77669 0.0523932 0.0592423 
0.0523932 9.78693 -0.0677356 
0.0592423 -0.0677356 9.89283 
9.74658 0.035247 0.0704697 
0.035247 9.76728 -0.0548137 
0.0704697 -0.0548137 9.94259 
9.73657 0.05208 0.0770737 
0.05208 9.7571 -0.0653552 
0.0770737 -0.0653552 9.96278 
9.85662 0.019193 0.244634 
0.019193 9.94594 0.0068349 
0.244634 0.0068349 9.57029 
9.867 0.0283826 0.187147 
0.0283826 9.95721 -0.0571694 
0.187147 -0.0571694 9.54863 
9.85795 -0.0359869 0.171841 
-0.0359869 9.84538 0.0959696 
0.171841 0.0959696 9.66951 
9.96726 -0.0118715 0.23221 
-0.0118715 10.0116 0.142644 
0.23221 0.142644 9.39395 
9.81638 -0.0137671 0.000500316 
-0.0137671 9.64553 -0.198084 
0.000500316 -0.198084 9.84378 
9.80778 0.0174867 0.000130083 
0.0174867 9.67469 -0.198269 
0.000130083 -0.198269 9.82322 
9.75142 0.00918454 -0.0520127 
0.00918454 9.68785 -0.166584 
-0.0520127 -0.166584 9.86643 
9.80038 0.0354218 -0.0281127 
0.0354218 9.62068 -0.206367 
-0.0281127 -0.206367 9.88462 
9.95152 -0.07242 -0.000720221 
-0.07242 10.0347 -0.00799264 
-0.000720221 -0.00799264 10.1566 
10.0264 0.0408258 0.0348348 
0.0408258 9.99031 0.0370871 
0.0348348 0.0370871 10.1262 
10.0495 0.0277411 0.0164666 
0.0277411 10.0063 0.00239469 
0.0164666 0.00239469 10.0871 
10.0287 -0.0528381 -0.0020939 
-0.0528381 10.0314 0.0899193 
-0.0020939 0.0899193 10.0827 
9.86476 0.0897085 0.0420074 
0.0897085 9.77434 -0.0666027 
0.0420074 -0.0666027 9.96701 
9.80889 0.0631305 0.0680012 
0.0631305 9.83686 -0.0670515 
0.0680012 -0.0670515 9.96036 
9.87742 0.0888536 0.0273903 
0.0888536 9.75388 -0.0385856 
0.0273903 -0.0385856 9.97481 
9.86997 0.136706 -0.012905 
0.136706 9.78583 -0.0601071 
-0.012905 -0.0601071 9.95031 
9.79542 -0.266632 0.130961 
-0.266632 9.35485 1.3727 
0.130961 1.3727 10.273 
9.57437 -0.0989546 0.59147 
-0.0989546 10.6339 0.947026 
0.59147 0.947026 9.21491 
9.91976 -0.231149 0.329189 
-0.231149 9.92535 0.347398 
0.329189 0.347398 9.57812 
9.69778 -0.111839 0.435749 
-0.111839 10.041 0.966956 
0.435749 0.966956 9.68446 
9.02851 0.141512 0.863968 
0.141512 10.9459 -0.0254135 
0.863968 -0.0254135 8.00711 
9.86008 0.183977 0.580828 
0.183977 9.63064 0.13353 
0.580828 0.13353 8.49079 
9.67887 -0.0975846 0.76912 
-0.0975846 10.1133 -0.894661 
0.76912 -0.894661 8.18932 
8.84829 -0.0504471 0.0212029 
-0.0504471 10.0133 0.213972 
0.0212029 0.213972 9.11992 
9.81782 -0.0384158 0.141195 
-0.0384158 9.8022 0.13359 
0.141195 0.13359 9.90177 
9.80928 -0.0649846 0.119131 
-0.0649846 9.75985 0.102913 
0.119131 0.102913 9.95266 
9.84277 0.136741 0.115687 
0.136741 9.88091 0.124673 
0.115687 0.124673 9.79811 
9.7497 -0.0296805 0.131402 
-0.0296805 9.86409 0.144474 
0.131402 0.144474 9.908 
9.94842 -0.00671944 0.229332 
-0.00671944 9.9531 -0.0444928 
0.229332 -0.0444928 9.97028 
9.93957 0.00817809 0.246643 
0.00817809 9.96552 -0.0498138 
0.246643 -0.0498138 9.96671 
9.94809 -0.00873421 0.240785 
-0.00873421 9.93373 -0.0441538 
0.240785 -0.0441538 9.98998 
9.93805 0.00639906 0.24582 
0.00639906 9.96625 -0.0444887 
0.24582 -0.0444887 9.9675 
9.88347 0.0235396 0.114326 
0.0235396 9.73993 -0.134178 
0.114326 -0.134178 9.71077 
9.85983 0.0512983 0.0772161 
0.0512983 9.64459 -0.202991 
0.0772161 -0.202991 9.82977 
9.77173 0.0233881 -0.00616614 
0.0233881 9.61787 -0.148333 
-0.00616614 -0.148333 9.94458 
9.77078 0.0166284 0.0464015 
0.0166284 9.67543 -0.209935 
0.0464015 -0.209935 9.88797 
10.3613 -0.377545 0.839723 
-0.377545 9.71374 0.223317 
0.839723 0.223317 9.99319 
9.66646 -0.539442 0.789494 
-0.539442 9.99043 -0.101974 
0.789494 -0.101974 10.4114 
9.90428 -0.29448 0.741526 
-0.29448 10.1305 0.21028 
0.741526 0.21028 10.0335 
9.29839 0.0655379 0.326383 
0.0655379 10.3538 0.117026 
0.326383 0.117026 10.416 
10.4153 -0.026663 -0.0205906 
-0.026663 10.3307 -0.0644856 
-0.0205906 -0.0644856 10.5428 
10.316 -0.0243489 0.121013 
-0.0243489 10.158 -0.0383248 
0.121013 -0.0383248 10.8148 
10.659 0.0214934 -0.0241514 
0.0214934 10.5491 0.1146 
-0.0241514 0.1146 10.0807 
10.4208 -0.0228813 -0.210752 
-0.0228813 10.3458 -0.0625431 
-0.210752 -0.0625431 10.5222 
9.9004 -0.00685366 -0.126625 
-0.00685366 9.9045 -0.224921 
-0.126625 -0.224921 9.94799 
9.91105 -0.0196917 -0.118391 
-0.0196917 9.89283 -0.209053 
-0.118391 -0.209053 9.949 
9.92992 -0.0085145 -0.10079 
-0.0085145 9.89763 -0.196339 
-0.10079 -0.196339 9.92534 
9.90187 -0.0121516 -0.121482 
-0.0121516 9.90201 -0.209148 
-0.121482 -0.209148 9.94901 
6.75365 0.0737156 -4.02369 
0.0737156 11.362 0.183869 
-4.02369 0.183869 2.82696 
6.47124 -0.470361 -2.30598 
-0.470361 8.77975 -0.0939816 
-2.30598 -0.0939816 5.69161 
8.46 0.39706 -3.10233 
0.39706 7.63544 -0.898164 
-3.10233 -0.898164 4.84718 
8.44874 -0.811997 -1.36754 
-0.811997 7.26904 -0.225934 
-1.36754 -0.225934 5.22483 
8.22151 0.257099 0.272381 
0.257099 6.65179 2.90157 
0.272381 2.90157 -0.647874 
10.0715 0.437009 -0.0873123 
0.437009 8.85957 1.51579 
-0.0873123 1.51579 -4.70566 
1.98176 -0.131408 1.44061 
-0.131408 0.602954 -0.419451 
1.44061 -0.419451 11.6407 
7.88472 -1.25013 9.41393 
-1.25013 4.95956 7.04904 
9.41393 7.04904 1.38114 
9.24897 -0.433571 -0.335238 
-0.433571 9.24386 -0.763475 
-0.335238 -0.763475 9.37962 
9.83914 0.241583 -1.12393 
0.241583 9.75169 -0.624134 
-1.12393 -0.624134 8.28162 
9.2118 -0.047511 -0.791906 
-0.047511 9.03544 -0.673974 
-0.791906 -0.673974 9.62521 
8.27388 0.024853 -0.989182 
0.024853 9.93919 -2.37609 
-0.989182 -2.37609 9.65938 
10.0653 0.177371 0.26396 
0.177371 9.85075 -0.119742 
0.26396 -0.119742 10.2868 
9.83543 0.247526 -0.0189795 
0.247526 9.90758 -0.372341 
-0.0189795 -0.372341 10.4598 
10.0012 0.16021 0.030321 
0.16021 9.80203 -0.282502 
0.030321 -0.282502 10.3996 
9.9864 0.234563 -0.0942472 
0.234563 9.43271 -0.016132 
-0.0942472 -0.016132 10.7837 
9.96267 0.00402873 -0.19506 
0.00402873 9.96807 -0.139582 
-0.19506 -0.139582 9.98059 
9.95627 -0.00934742 -0.190266 
-0.00934742 9.96847 -0.140981 
-0.190266 -0.140981 9.98659 
9.95243 -0.0059108 -0.195567 
-0.0059108 9.95313 -0.152144 
-0.195567 -0.152144 10.0058 
9.96888 -0.00792885 -0.191267 
-0.00792885 9.96601 -0.130349 
-0.191267 -0.130349 9.97645 
9.89201 -0.0407828 -0.236059 
-0.0407828 9.90335 -0.124489 
-0.236059 -0.124489 9.88889 
9.87725 -0.0306029 -0.239448 
-0.0306029 9.92863 -0.123049 
-0.239448 -0.123049 9.87836 
9.87676 0.0231015 -0.164083 
0.0231015 9.92436 -0.0955277 
-0.164083 -0.0955277 9.88312 
9.91015 -0.0207158 -0.276887 
-0.0207158 9.99693 -0.164764 
-0.276887 -0.164764 9.77718 
9.83225 0.0262042 0.0686686 
0.0262042 9.87197 0.10201 
0.0686686 0.10201 9.83962 
9.82389 -0.002595 0.074015 
-0.002595 9.83139 0.0860318 
0.074015 0.0860318 9.88856 
9.80145 -0.044119 0.0911578 
-0.044119 9.80926 0.125628 
0.0911578 0.125628 9.93313 
9.80179 -0.0224572 0.0635011 
-0.0224572 9.82609 0.0669851 
0.0635011 0.0669851 9.91596 
9.76701 -0.0971867 0.114368 
-0.0971867 9.87439 0.110733 
0.114368 0.110733 10.1882 
9.80745 -0.0784155 0.143034 
-0.0784155 9.84533 0.10158 
0.143034 0.10158 10.1768 
9.85036 -0.138462 0.100226 
-0.138462 9.79936 0.0790944 
0.100226 0.0790944 10.1799 
9.79882 -0.0943615 0.109287 
-0.0943615 9.86112 0.101054 
0.109287 0.101054 10.1696 
9.63336 0.000688576 -0.41283 
0.000688576 9.73104 0.32771 
-0.41283 0.32771 10.3217 
9.8427 0.179404 -0.0452885 
0.179404 9.57978 0.454169 
-0.0452885 0.454169 10.2636 
9.75534 0.569308 0.0588083 
0.569308 9.79124 0.628848 
0.0588083 0.628848 10.1395 
10.0704 -0.004625 0.136644 
-0.004625 9.2249 0.444681 
0.136644 0.444681 10.3908 
9.95497 -0.0269448 0.182853 
-0.0269448 9.99979 0.0991158 
0.182853 0.0991158 9.9004 
9.97811 0.0326624 0.18001 
0.0326624 9.92975 0.0946962 
0.18001 0.0946962 9.9473 
9.94049 -0.0265626 0.188411 
-0.0265626 9.99795 0.118597 
0.188411 0.118597 9.91671 
10.0077 0.0170832 0.205291 
0.0170832 9.97065 0.131247 
0.205291 0.131247 9.87682 
9.80762 -0.0558229 0.233644 
-0.0558229 9.84811 0.170047 
0.233644 0.170047 9.94909 
9.83931 -0.011888 0.177597 
-0.011888 9.81153 0.148054 
0.177597 0.148054 9.95398 
9.79548 -0.0494028 0.201102 
-0.0494028 9.84637 0.128917 
0.201102 0.128917 9.96297 
9.75553 -0.080866 0.179184 
-0.080866 9.85679 0.136122 
0.179184 0.136122 9.9925 
9.95049 -0.00238211 0.212062 
-0.00238211 9.96446 -0.0594417 
0.212062 -0.0594417 9.93197 
9.9458 -0.0013948 0.225414 
-0.0013948 9.9578 -0.0838602 
0.225414 -0.0838602 9.94333 
9.94661 0.011379 0.22018 
0.011379 9.97092 -0.054953 
0.22018 -0.054953 9.92939 
9.97856 -0.0035632 0.244058 
-0.0035632 9.95007 -0.0919203 
0.244058 -0.0919203 9.91828 
9.93571 -0.0323555 0.166053 
-0.0323555 9.98723 -0.0430849 
0.166053 -0.0430849 10.0746 
10.0252 -0.00198592 0.208382 
-0.00198592 10.0225 -0.0460832 
0.208382 -0.0460832 9.94995 
9.99706 0.0219133 0.209175 
0.0219133 10.0361 -0.0430416 
0.209175 -0.0430416 9.96446 
10.0205 0.00397264 0.204718 
0.00397264 10.0205 -0.0760737 
0.204718 -0.0760737 9.95654 
9.65399 -0.172365 0.00955428 
-0.172365 9.62169 0.0962426 
0.00955428 0.0962426 10.185 
9.62351 -0.0856076 0.240659 
-0.0856076 9.96218 0.113415 
0.240659 0.113415 9.87498 
9.84786 -0.0921325 0.122147 
-0.0921325 10.0399 -0.1392 
0.122147 -0.1392 9.57291 
9.62477 -0.0636037 0.164225 
-0.0636037 9.87256 0.0281448 
0.164225 0.0281448 9.96334 
9.97145 0.00295523 -0.228613 
0.00295523 9.98138 -0.0645724 
-0.228613 -0.0645724 9.96726 
9.96065 0.00762406 -0.234518 
0.00762406 9.95829 -0.0760552 
-0.234518 -0.0760552 10.0012 
9.97121 0.00446611 -0.219135 
0.00446611 9.94312 -0.0757094 
-0.219135 -0.0757094 10.0058 
9.97002 -0.00509481 -0.224164 
-0.00509481 9.99065 -0.0695601 
-0.224164 -0.0695601 9.95942 
9.76954 -0.0616298 0.0582524 
-0.0616298 9.84501 0.0273461 
0.0582524 0.0273461 10.2252 
9.78781 -0.0745008 0.085133 
-0.0745008 9.84495 0.0339423 
0.085133 0.0339423 10.207 
9.77852 -0.0961312 0.134316 
-0.0961312 9.85088 0.0351389 
0.134316 0.0351389 10.2103 
9.86285 -0.0187027 0.0588556 
-0.0187027 9.81966 0.0731578 
0.0588556 0.0731578 10.1572 
9.96779 -0.195886 0.151842 
-0.195886 9.67637 0.0352881 
0.151842 0.0352881 10.6231 
9.81057 -0.0224814 -0.101359 
-0.0224814 10.0144 0.0244046 
-0.101359 0.0244046 10.4423 
9.68268 -0.0912239 -0.0187342 
-0.0912239 9.93889 -0.15212 
-0.0187342 -0.15212 10.6457 
9.66907 -0.0593579 0.000783681 
-0.0593579 9.9718 -0.0328197 
0.000783681 -0.0328197 10.6264 
10.0162 0.0102754 -0.0513184 
0.0102754 9.92313 0.0804527 
-0.0513184 0.0804527 10.8113 
10.0361 -0.106085 0.0278866 
-0.106085 10.2469 -0.251873 
0.0278866 -0.251873 10.4676 
10.0544 0.0505526 -0.168425 
0.0505526 9.97451 0.181278 
-0.168425 0.181278 10.7217 
10.1043 0.00941468 0.143463 
0.00941468 10.1125 -0.0354771 
0.143463 -0.0354771 10.5339 
9.8771 -0.00357059 -0.223953 
-0.00357059 9.84692 -0.0933076 
-0.223953 -0.0933076 9.87253 
9.88208 0.00220302 -0.22474 
0.00220302 9.85506 -0.116796 
-0.22474 -0.116796 9.8594 
9.83433 -0.0219484 -0.207681 
-0.0219484 9.87785 -0.07841 
-0.207681 -0.07841 9.88437 
9.85507 -0.0204496 -0.232997 
-0.0204496 9.84731 -0.0871423 
-0.232997 -0.0871423 9.89417 
10.0516 0.041429 -0.0170107 
0.041429 9.99705 0.0303957 
-0.0170107 0.0303957 10.0959 
10.0658 0.0190019 0.0235283 
0.0190019 9.996 0.00419136 
0.0235283 0.00419136 10.0827 
10.0525 0.0204197 -0.0565251 
0.0204197 10.0051 0.0453503 
-0.0565251 0.0453503 10.087 
10.0025 0.0632268 0.0209128 
0.0632268 10.0087 0.021164 
0.0209128 0.021164 10.1333 
11.2523 4.17184 -4.09033 
4.17184 6.16004 1.90141 
-4.09033 1.90141 5.04361 
10.5672 0.524894 -3.04432 
0.524894 6.14112 -0.523721 
-3.04432 -0.523721 5.74767 
10.4597 -1.91723 -2.64367 
-1.91723 4.65956 -0.256498 
-2.64367 -0.256498 7.3367 
7.91169 1.82851 -2.54878 
1.82851 8.26453 -3.85114 
-2.54878 -3.85114 6.27974 
10.4441 0.112511 0.190107 
0.112511 10.3014 -0.0432171 
0.190107 -0.0432171 10.1835 
10.1721 -0.0842303 -0.0336073 
-0.0842303 10.1807 0.00170958 
-0.0336073 0.00170958 10.5762 
10.305 0.0602062 0.166326 
0.0602062 10.4154 0.0153567 
0.166326 0.0153567 10.2086 
10.0921 0.0799946 0.168488 
0.0799946 10.3646 -0.00657382 
0.168488 -0.00657382 10.4723 
9.84269 0.0564424 -0.283052 
0.0564424 9.87275 0.213591 
-0.283052 0.213591 9.61757 
9.7603 0.039954 -0.243753 
0.039954 9.81522 0.167185 
-0.243753 0.167185 9.75749 
9.80137 -0.00201997 -0.267944 
-0.00201997 9.8384 0.238693 
-0.267944 0.238693 9.69324 
9.73095 0.0331142 -0.257368 
0.0331142 9.83491 0.336779 
-0.257368 0.336779 9.76716 
9.86676 0.0162472 0.166027 
0.0162472 9.85592 0.159901 
0.166027 0.159901 9.87782 
9.85145 -0.0150109 0.148941 
-0.0150109 9.85638 0.148875 
0.148941 0.148875 9.89268 
9.86116 -0.00584242 0.153778 
-0.00584242 9.84964 0.160474 
0.153778 0.160474 9.88971 
9.86358 -0.00816117 0.159408 
-0.00816117 9.83963 0.153488 
0.159408 0.153488 9.89729 
9.93326 -0.0418836 -0.153616 
-0.0418836 10.1673 -0.177957 
-0.153616 -0.177957 10.4556 
9.92289 -0.0316204 0.0303473 
-0.0316204 10.1519 0.0699329 
0.0303473 0.0699329 10.4814 
9.22926 -0.871081 -0.0779876 
-0.871081 10.271 -0.182572 
-0.0779876 -0.182572 11.0559 
9.74664 -0.000999871 0.0413493 
-0.000999871 10.3412 0.119537 
0.0413493 0.119537 10.4684 
9.8799 -0.0341965 -0.00459838 
-0.0341965 9.94482 0.0108184 
-0.00459838 0.0108184 10.3766 
10.1008 -0.0461559 -0.015952 
-0.0461559 10.1432 0.119164 
-0.015952 0.119164 9.9574 
10.0064 -0.0262982 0.0452226 
-0.0262982 10.0489 0.0860087 
0.0452226 0.0860087 10.1461 
10.0519 -0.110727 0.157584 
-0.110727 10.0582 0.164091 
0.157584 0.164091 10.0912 
9.66204 0.11235 0.306126 
0.11235 9.61011 -0.302638 
0.306126 -0.302638 10.0191 
9.65161 0.125823 0.367462 
0.125823 9.68376 -0.308461 
0.367462 -0.308461 9.95592 
9.67781 0.0972877 0.306481 
0.0972877 9.64588 -0.293771 
0.306481 -0.293771 9.9676 
9.71255 0.0833593 0.304308 
0.0833593 9.69604 -0.195159 
0.304308 -0.195159 9.8827 
1.83869 0.00314694 0.652222 
0.00314694 3.52614 -1.07835 
0.652222 -1.07835 3.996 
5.90435 0.260221 -0.519708 
0.260221 7.62315 2.30097 
-0.519708 2.30097 -4.16667 
2.86437 -0.0882782 0.592743 
-0.0882782 4.35156 -0.857538 
0.592743 -0.857538 2.14489 
1.3642 -1.21943 0.867799 
-1.21943 8.39988 -4.62096 
0.867799 -4.62096 -0.403244 
9.92735 0.0199262 -0.000648627 
0.0199262 9.9208 0.0070409 
-0.000648627 0.0070409 9.99782 
9.92985 -0.00929583 0.00323125 
-0.00929583 9.9166 0.0366669 
0.00323125 0.0366669 9.99952 
9.92125 0.0118447 0.0116133 
0.0118447 9.90982 0.0769217 
0.0116133 0.0769217 10.0149 
9.93386 0.000830971 0.00502081 
0.000830971 9.89272 -0.00832144 
0.00502081 -0.00832144 10.0194 
4.8155 0.233383 0.136048 
0.233383 3.14899 0.919853 
0.136048 0.919853 2.18845 
10.4404 0.584192 1.12588 
0.584192 8.13091 -1.05341 
1.12588 -1.05341 -8.41834 
4.41534 0.733161 0.243194 
0.733161 2.5558 0.350508 
0.243194 0.350508 3.1818 
5.72993 -0.682577 -5.8878 
-0.682577 2.06597 1.98145 
-5.8878 1.98145 2.35705 
10.4307 0.0947346 -0.298896 
0.0947346 10.5065 -0.0837881 
-0.298896 -0.0837881 10.9568 
10.4305 -0.0850538 -0.1442 
-0.0850538 10.5269 0.0651041 
-0.1442 0.0651041 10.9367 
10.2724 -0.296927 -0.0132392 
-0.296927 10.5409 0.0369614 
-0.0132392 0.0369614 11.0807 
10.5895 0.0841275 0.024132 
0.0841275 10.552 0.212792 
0.024132 0.212792 10.7526 
11.8287 -2.26916 -0.864769 
-2.26916 9.97813 -1.06102 
-0.864769 -1.06102 14.4498 
10.981 -1.31121 -0.814208 
-1.31121 9.44457 -1.30378 
-0.814208 -1.30378 15.8311 
14.442 -1.01122 0.518054 
-1.01122 12.1167 -1.33979 
0.518054 -1.33979 9.69793 
12.0798 -1.43159 -0.298102 
-1.43159 10.7224 -0.0424189 
-0.298102 -0.0424189 13.4545 
9.99186 -0.00894594 0.00127875 
-0.00894594 10.0059 0.0154666 
0.00127875 0.0154666 10.0035 
9.99702 0.0206897 0.00979433 
0.0206897 10.0133 -0.00882181 
0.00979433 -0.00882181 9.99092 
10.0019 -0.0281268 0.00290011 
-0.0281268 9.97803 -0.0104429 
0.00290011 -0.0104429 10.0213 
10.0202 -0.0231347 0.00950243 
-0.0231347 9.99299 0.0176208 
0.00950243 0.0176208 9.98809 
9.8676 -0.116603 -0.0530724 
-0.116603 9.69803 -0.0563817 
-0.0530724 -0.0563817 9.98117 
9.80197 0.0172208 -0.0434529 
0.0172208 9.90307 -0.0945058 
-0.0434529 -0.0945058 9.84177 
9.77413 -0.010946 -0.0565569 
-0.010946 9.88374 -0.11544 
-0.0565569 -0.11544 9.88894 
9.80027 0.0206055 -0.108613 
0.0206055 9.80251 -0.176672 
-0.108613 -0.176672 9.94403 
10.524 -0.249485 0.34642 
-0.249485 10.0224 0.515641 
0.34642 0.515641 9.36497 
10.4191 -0.266817 0.146625 
-0.266817 9.53697 0.313419 
0.146625 0.313419 9.95532 
9.95514 -0.170875 0.0312943 
-0.170875 9.41002 0.686246 
0.0312943 0.686246 10.5462 
10.2702 -0.0741907 0.179508 
-0.0741907 9.5232 0.314019 
0.179508 0.314019 10.118 
9.98 -0.0086272 -0.102163 
-0.0086272 9.95756 -0.211483 
-0.102163 -0.211483 9.97783 
9.96605 -0.0059376 -0.103055 
-0.0059376 9.94317 -0.228903 
-0.103055 -0.228903 10.0062 
9.96887 -0.0024155 -0.104176 
-0.0024155 9.96085 -0.209986 
-0.104176 -0.209986 9.98566 
9.98752 -0.0125789 -0.0880702 
-0.0125789 9.94887 -0.205428 
-0.0880702 -0.205428 9.97899 
9.87751 0.123404 0.311792 
0.123404 9.94872 -0.0473557 
0.311792 -0.0473557 11.1714 
10.9593 -0.229657 -0.41378 
-0.229657 10.4765 -0.213837 
-0.41378 -0.213837 9.56179 
10.1001 -0.0595534 -0.184838 
-0.0595534 10.1915 -0.106699 
-0.184838 -0.106699 10.706 
9.83686 -0.0448661 -0.447147 
-0.0448661 10.5169 0.250913 
-0.447147 0.250913 10.6438 
9.9926 -0.276126 -0.15057 
-0.276126 9.6661 -0.0393932 
-0.15057 -0.0393932 11.2254 
8.89282 0.138262 -0.110782 
0.138262 10.6851 -0.637037 
-0.110782 -0.637037 11.3062 
9.79152 0.435072 0.184224 
0.435072 10.2596 0.549125 
0.184224 0.549125 10.833 
8.80218 -0.00177177 -0.350136 
-0.00177177 10.2826 0.00286789 
-0.350136 0.00286789 11.7994 
9.86118 -0.0156751 -0.137649 
-0.0156751 9.851 -0.172552 
-0.137649 -0.172552 9.93592 
9.86197 -0.014799 -0.137325 
-0.014799 9.85763 -0.169533 
-0.137325 -0.169533 9.92849 
9.87392 -0.0203562 -0.146447 
-0.0203562 9.84779 -0.159256 
-0.146447 -0.159256 9.92638 
9.86704 -0.0108442 -0.137721 
-0.0108442 9.84326 -0.182655 
-0.137721 -0.182655 9.9378 
9.75095 0.0886024 0.0945791 
0.0886024 9.75272 -0.109092 
0.0945791 -0.109092 9.9866 
9.71293 0.0749373 0.0727748 
0.0749373 9.77311 -0.0428677 
0.0727748 -0.0428677 10.0042 
9.74375 0.0980262 0.0742252 
0.0980262 9.74626 -0.0802121 
0.0742252 -0.0802121 10.0003 
9.76191 0.114895 0.0433377 
0.114895 9.69941 -0.102527 
0.0433377 -0.102527 10.0289 
10.0629 0.0565573 -0.0179914 
0.0565573 9.91216 -0.0763644 
-0.0179914 -0.0763644 9.90911 
9.8504 0.0728597 0.000652586 
0.0728597 9.87879 -0.000299696 
0.000652586 -0.000299696 10.155 
9.83845 0.0561432 -0.0486491 
0.0561432 9.95761 0.139938 
-0.0486491 0.139938 10.0881 
9.91286 0.128762 0.00368441 
0.128762 9.87278 0.00256827 
0.00368441 0.00256827 10.0985 
10.7384 0.356673 -0.717272 
0.356673 9.46112 -0.0425286 
-0.717272 -0.0425286 8.80565 
8.44697 0.307508 -1.03736 
0.307508 9.65808 0.0431594 
-1.03736 0.0431594 10.9001 
8.53662 0.349989 -1.82891 
0.349989 10.2901 0.241594 
-1.82891 0.241594 10.1785 
8.60934 0.135212 -1.12223 
0.135212 10.0082 -0.0664323 
-1.12223 -0.0664323 10.3877 
9.73532 0.0548994 -0.211048 
0.0548994 9.80112 0.0787963 
-0.211048 0.0787963 9.86231 
9.85725 -0.00603405 -0.174416 
-0.00603405 9.74995 0.0594524 
-0.174416 0.0594524 9.79155 
9.75931 0.0727693 -0.187144 
0.0727693 9.81737 0.0522747 
-0.187144 0.0522747 9.82207 
9.75845 0.00616915 -0.166255 
0.00616915 9.79205 0.0559809 
-0.166255 0.0559809 9.84825 
10.0164 0.0947396 -0.025597 
0.0947396 10.199 -0.0228697 
-0.025597 -0.0228697 10.6874 
10.1874 -0.288117 0.0603504 
-0.288117 10.1949 -0.0146857 
0.0603504 -0.0146857 10.5206 
10.2363 -0.307813 -0.0839335 
-0.307813 10.2376 0.054388 
-0.0839335 0.054388 10.429 
10.1255 -0.130088 0.259883 
-0.130088 10.3085 0.203957 
0.259883 0.203957 10.4689 
9.97104 -0.00135011 0.00513527 
-0.00135011 9.98188 -0.0032395 
0.00513527 -0.0032395 9.9919 
9.98475 5.41155e-05 -0.0101004 
5.41155e-05 9.97607 0.0121055 
-0.0101004 0.0121055 9.98399 
9.96298 -0.0152839 -0.0067374 
-0.0152839 9.97885 -0.00931155 
-0.0067374 -0.00931155 10.003 
9.96864 -0.00311295 -0.00331357 
-0.00311295 9.97488 -0.00756732 
-0.00331357 -0.00756732 10.0013 
10.0582 0.187466 -0.191908 
0.187466 9.68312 -0.0496515 
-0.191908 -0.0496515 11.0429 
10.357 0.129733 0.303966 
0.129733 9.28249 -0.17113 
0.303966 -0.17113 11.1448 
10.9054 -0.08678 -0.0293571 
-0.08678 9.29981 -0.188393 
-0.0293571 -0.188393 10.5791 
9.84118 0.360256 0.147712 
0.360256 10.45 0.560458 
0.147712 0.560458 10.4931 
8.69637 -0.43337 2.04182 
-0.43337 9.53107 1.79265 
2.04182 1.79265 7.38572 
8.39725 0.674686 0.775852 
0.674686 9.97107 0.862487 
0.775852 0.862487 7.24483 
8.62385 -0.29162 0.345613 
-0.29162 8.04575 1.62417 
0.345613 1.62417 8.94357 
8.93084 -0.286027 1.18853 
-0.286027 9.46061 1.07274 
1.18853 1.07274 7.22171 
6.6728 1.06365 -0.529252 
1.06365 6.05889 2.1835 
-0.529252 2.1835 -1.8258 
3.78341 -0.193509 0.698015 
-0.193509 3.31476 0.294718 
0.698015 0.294718 3.80772 
3.78888 -0.657609 0.701381 
-0.657609 3.57435 0.304794 
0.701381 0.304794 3.54267 
6.0493 -1.27679 2.98724 
-1.27679 2.34283 0.61576 
2.98724 0.61576 2.51376 
9.93608 -0.00315277 0.202846 
-0.00315277 9.91216 -0.0866313 
0.202846 -0.0866313 9.94231 
9.92539 0.0173156 0.199943 
0.0173156 9.9494 -0.0859959 
0.199943 -0.0859959 9.91576 
9.90894 0.013942 0.237537 
0.013942 9.92674 -0.118686 
0.237537 -0.118686 9.95488 
9.9055 0.011847 0.224204 
0.011847 9.9263 -0.0891699 
0.224204 -0.0891699 9.95875 
9.59449 0.0138892 -0.719453 
0.0138892 9.63472 -0.464164 
-0.719453 -0.464164 9.64389 
9.38329 -0.784955 0.0473914 
-0.784955 10.0445 -1.49734 
0.0473914 -1.49734 9.4453 
9.17579 -0.410794 0.078465 
-0.410794 9.51932 -0.422103 
0.078465 -0.422103 10.178 
9.69898 -0.65647 -0.36608 
-0.65647 9.06641 -0.213832 
-0.36608 -0.213832 10.1077 
9.71514 0.00978868 -0.181268 
0.00978868 9.80136 0.0412663 
-0.181268 0.0412663 9.812 
9.68959 0.00165592 -0.228843 
0.00165592 9.78558 0.0126625 
-0.228843 0.0126625 9.85332 
9.86706 0.00539178 -0.150273 
0.00539178 9.76805 -0.0118533 
-0.150273 -0.0118533 9.69339 
9.7053 -0.00543753 -0.151923 
-0.00543753 9.79564 0.0229662 
-0.151923 0.0229662 9.82756 
9.81402 -0.046025 0.081353 
-0.046025 9.85119 0.0594907 
0.081353 0.0594907 9.90284 
9.80406 0.0316734 0.077423 
0.0316734 9.84605 0.169681 
0.077423 0.169681 9.91794 
9.76701 -0.0661443 -0.0156865 
-0.0661443 9.83094 0.0655845 
-0.0156865 0.0655845 9.9701 
9.85507 -0.0533607 0.12776 
-0.0533607 9.84689 0.0911887 
0.12776 0.0911887 9.8661 
10.0177 0.0612677 0.0443505 
0.0612677 9.92662 -0.0109337 
0.0443505 -0.0109337 10.1486 
9.98527 0.0680163 0.00161886 
0.0680163 10.0343 0.017156 
0.00161886 0.017156 10.0733 
9.95814 0.0667781 -0.0313753 
0.0667781 10.0916 0.00161203 
-0.0313753 0.00161203 10.0432 
9.98084 0.0898907 -0.0203533 
0.0898907 10.0544 0.0666132 
-0.0203533 0.0666132 10.0576 
9.85382 0.0127735 -0.130357 
0.0127735 9.84263 -0.192164 
-0.130357 -0.192164 9.859 
9.8453 0.00945883 -0.124216 
0.00945883 9.84051 -0.199873 
-0.124216 -0.199873 9.86964 
9.84127 -0.0409242 -0.125463 
-0.0409242 9.84655 -0.165788 
-0.125463 -0.165788 9.86763 
9.84443 -0.0129088 -0.143102 
-0.0129088 9.82105 -0.178602 
-0.143102 -0.178602 9.88997 
9.96997 0.00496237 -0.0291997 
0.00496237 9.96931 0.0174349 
-0.0291997 0.0174349 10.1375 
10.0119 -0.0211835 0.00832404 
-0.0211835 9.98506 -0.00444529 
0.00832404 -0.00444529 10.0798 
10.0416 0.000206132 0.00372733 
0.000206132 10.0547 -0.00292622 
0.00372733 -0.00292622 9.98048 
9.99827 0.0183071 0.0600684 
0.0183071 10.0297 0.0443069 
0.0600684 0.0443069 10.0488 
9.95688 0.00321541 -0.172975 
0.00321541 9.94072 -0.144079 
-0.172975 -0.144079 9.91901 
9.93767 -0.00184238 -0.210817 
-0.00184238 9.94425 -0.146627 
-0.210817 -0.146627 9.93468 
9.94553 -0.00631663 -0.179736 
-0.00631663 9.96152 -0.159263 
-0.179736 -0.159263 9.90956 
9.93755 0.0193892 -0.235136 
0.0193892 9.96345 -0.159002 
-0.235136 -0.159002 9.91561 
10.9769 0.0801624 -0.19664 
0.0801624 10.4468 -0.00374848 
-0.19664 -0.00374848 10.0822 
10.2526 -0.179688 0.123008 
-0.179688 10.2749 0.215317 
0.123008 0.215317 10.9785 
10.3373 0.153572 -0.0436688 
0.153572 10.6324 0.093119 
-0.0436688 0.093119 10.5362 
10.4998 -0.0239647 -0.110333 
-0.0239647 10.509 0.224861 
-0.110333 0.224861 10.4971 
9.95109 -0.0135152 0.150369 
-0.0135152 9.91448 0.207124 
0.150369 0.207124 9.95362 
9.93828 -0.0185913 0.144439 
-0.0185913 9.90941 0.201101 
0.144439 0.201101 9.97149 
9.92027 -0.0115225 0.127737 
-0.0115225 9.91603 0.192181 
0.127737 0.192181 9.98289 
9.93046 -0.0197042 0.144509 
-0.0197042 9.9092 0.204975 
0.144509 0.204975 9.97952 
10.0045 0.0132574 0.0243008 
0.0132574 9.5419 0.417837 
0.0243008 0.417837 9.7807 
10.0589 -0.0817772 0.234731 
-0.0817772 9.59177 0.259676 
0.234731 0.259676 9.67639 
9.87763 -0.0774069 0.0370978 
-0.0774069 9.74538 0.2496 
0.0370978 0.2496 9.70408 
9.88613 -0.0168809 0.140389 
-0.0168809 9.62225 0.466664 
0.140389 0.466664 9.8187 
9.7534 0.0136635 0.226776 
0.0136635 9.66509 0.278729 
0.226776 0.278729 8.62318 
9.80081 -0.0205985 0.175468 
-0.0205985 9.52178 0.345543 
0.175468 0.345543 8.71909 
9.75912 -0.0684436 0.280236 
-0.0684436 9.68172 0.325848 
0.280236 0.325848 8.60084 
9.50195 0.258212 0.385086 
0.258212 9.65748 0.229887 
0.385086 0.229887 8.88225 
10.0056 -0.015781 -0.0268018 
-0.015781 9.96822 -0.0466322 
-0.0268018 -0.0466322 10.2513 
10.0648 -0.00124227 0.00916582 
-0.00124227 10.0785 -0.0399942 
0.00916582 -0.0399942 10.0819 
10.0815 -0.0172757 0.0298723 
-0.0172757 10.0563 -0.0321711 
0.0298723 -0.0321711 10.0874 
10.0919 -0.0244696 0.0229896 
-0.0244696 10.04 0.0202409 
0.0229896 0.0202409 10.0933 
9.9269 0.00948694 0.0967499 
0.00948694 9.91224 -0.219191 
0.0967499 -0.219191 9.95351 
9.93736 0.0151137 0.08903 
0.0151137 9.91388 -0.222981 
0.08903 -0.222981 9.94142 
9.93498 0.00841062 0.0940472 
0.00841062 9.92002 -0.213888 
0.0940472 -0.213888 9.93766 
9.94605 0.00666593 0.0941451 
0.00666593 9.91308 -0.226629 
0.0941451 -0.226629 9.93353 
9.79928 -0.0839947 0.0980945 
-0.0839947 9.7515 0.0815128 
0.0980945 0.0815128 10.1966 
9.72046 -0.0921224 0.0366783 
-0.0921224 9.81069 0.0660699 
0.0366783 0.0660699 10.2162 
9.76455 -0.105155 0.138669 
-0.105155 9.72107 0.0999666 
0.138669 0.0999666 10.2618 
9.81747 -0.05781 0.0849279 
-0.05781 9.78868 0.0977341 
0.0849279 0.0977341 10.1412 
9.99325 -0.0136656 0.197065 
-0.0136656 10.0062 0.087718 
0.197065 0.087718 9.94237 
9.99217 -0.00810362 0.208379 
-0.00810362 9.94904 0.107982 
0.208379 0.107982 10.0006 
9.95747 -0.00852322 0.178963 
-0.00852322 9.96283 0.117444 
0.178963 0.117444 10.0215 
9.98371 -0.000993715 0.207859 
-0.000993715 10.0142 0.107179 
0.207859 0.107179 9.94394 
9.85669 0.13242 0.155639 
0.13242 9.45812 -0.290277 
0.155639 -0.290277 9.91438 
9.72666 -0.0736561 0.00895981 
-0.0736561 9.74026 -0.297607 
0.00895981 -0.297607 9.76226 
9.95547 0.0411986 0.127723 
0.0411986 9.45905 -0.418195 
0.127723 -0.418195 9.81466 
9.9507 0.0719609 0.114066 
0.0719609 9.48771 -0.3388 
0.114066 -0.3388 9.79077 
9.58017 0.407774 0.0751713 
0.407774 9.28922 -1.07711 
0.0751713 -1.07711 10.0177 
9.47272 0.251633 0.296027 
0.251633 9.66021 -0.951605 
0.296027 -0.951605 9.75416 
9.46287 0.523138 0.511001 
0.523138 9.90446 -1.18271 
0.511001 -1.18271 9.51977 
9.42513 -0.646253 0.151117 
-0.646253 9.79628 -0.336086 
0.151117 -0.336086 9.66568 
10.4188 -0.0752776 0.0681183 
-0.0752776 10.5255 0.107001 
0.0681183 0.107001 10.6178 
10.3076 -0.0801588 0.120508 
-0.0801588 10.3366 0.0312851 
0.120508 0.0312851 10.9178 
10.5029 -0.0518987 0.0544862 
-0.0518987 10.6235 0.0710287 
0.0544862 0.0710287 10.4357 
10.453 0.0210057 0.0756089 
0.0210057 10.5523 0.289924 
0.0756089 0.289924 10.5568 
9.83579 0.000954936 0.0683534 
0.000954936 9.8719 -0.224397 
0.0683534 -0.224397 9.86629 
9.88069 0.0334566 0.0687667 
0.0334566 9.81166 -0.203953 
0.0687667 -0.203953 9.88163 
9.83984 0.00747878 0.0549362 
0.00747878 9.85775 -0.22938 
0.0549362 -0.22938 9.87639 
9.84618 0.00169304 0.0787273 
0.00169304 9.83947 -0.233747 
0.0787273 -0.233747 9.88833 
9.40799 0.380426 0.274624 
0.380426 10.3598 0.0418276 
0.274624 0.0418276 11.4361 
11.0209 0.036691 0.218944 
0.036691 9.93301 0.492604 
0.218944 0.492604 10.25 
10.6911 -0.348969 0.187117 
-0.348969 10.2964 0.467703 
0.187117 0.467703 10.2164 
10.4462 -0.404035 0.380315 
-0.404035 9.99496 0.37454 
0.380315 0.37454 10.7627 
9.9836 0.00129755 0.0662981 
0.00129755 9.95255 -0.205736 
0.0662981 -0.205736 9.94584 
9.98142 0.0195608 0.067887 
0.0195608 9.96272 -0.226072 
0.067887 -0.226072 9.93784 
9.97308 0.00605185 0.096949 
0.00605185 9.95725 -0.229667 
0.096949 -0.229667 9.95166 
9.96226 0.00194718 0.113146 
0.00194718 9.98711 -0.244234 
0.113146 -0.244234 9.93262 
9.71258 0.146278 0.295923 
0.146278 9.55988 -0.620753 
0.295923 -0.620753 7.60559 
9.47585 0.0862865 -0.185838 
0.0862865 9.3231 0.220462 
-0.185838 0.220462 8.07911 
9.93274 -0.064681 0.569371 
-0.064681 9.95987 -0.249095 
0.569371 -0.249095 6.98543 
9.82958 0.0930934 0.198109 
0.0930934 9.53388 -0.549839 
0.198109 -0.549839 7.51459 
9.9702 -0.000876809 -0.241226 
-0.000876809 9.94542 -0.0675777 
-0.241226 -0.0675777 9.99638 
9.93916 -0.00680451 -0.221774 
-0.00680451 9.94543 -0.078826 
-0.221774 -0.078826 10.0274 
9.9778 -0.00152791 -0.222807 
-0.00152791 9.99248 -0.0469844 
-0.222807 -0.0469844 9.94173 
9.96706 0.00892031 -0.233226 
0.00892031 10.0018 -0.0677128 
-0.233226 -0.0677128 9.94314 
9.95138 0.0214614 0.173783 
0.0214614 9.96127 -0.178885 
0.173783 -0.178885 9.99339 
9.95024 0.0237332 0.173899 
0.0237332 9.9555 -0.177682 
0.173899 -0.177682 10.0003 
9.95397 -0.00527008 0.160729 
-0.00527008 9.944 -0.17024 
0.160729 -0.17024 10.0081 
9.96629 0.0109835 0.179076 
0.0109835 9.95636 -0.192945 
0.179076 -0.192945 9.98339 
8.85796 -0.823049 0.947692 
-0.823049 9.089 -0.262151 
0.947692 -0.262151 8.36042 
9.26115 -0.0561668 1.06156 
-0.0561668 9.90008 -0.838047 
1.06156 -0.838047 7.14615 
8.82626 0.782155 0.528504 
0.782155 9.47086 -1.01105 
0.528504 -1.01105 8.01026 
8.49578 0.733607 0.833579 
0.733607 10.1802 -0.695951 
0.833579 -0.695951 7.63136 
10.4214 0.0847815 0.424643 
0.0847815 10.8053 -0.130625 
0.424643 -0.130625 10.2793 
10.3843 -0.23386 0.0527399 
-0.23386 9.78759 -0.157132 
0.0527399 -0.157132 11.3341 
10.1494 0.0344959 0.395857 
0.0344959 10.8354 -0.122954 
0.395857 -0.122954 10.5212 
10.1052 0.304882 0.334118 
0.304882 10.5027 -0.245281 
0.334118 -0.245281 10.8981 
10.1513 -0.00651908 0.0171378 
-0.00651908 10.0903 0.0290063 
0.0171378 0.0290063 9.87292 
9.97859 0.00417082 -0.00318675 
0.00417082 9.96671 0.0121412 
-0.00318675 0.0121412 10.1692 
9.9646 0.0122297 -0.0394684 
0.0122297 9.99193 -0.0313073 
-0.0394684 -0.0313073 10.158 
9.98397 -0.0380067 0.0897798 
-0.0380067 10.0396 -0.0871178 
0.0897798 -0.0871178 10.0909 
10.2019 -0.0139905 0.0415382 
-0.0139905 10.1318 0.00182847 
0.0415382 0.00182847 10.2504 
10.2267 -0.0820575 0.000719946 
-0.0820575 10.2069 0.0486446 
0.000719946 0.0486446 10.1506 
10.218 -0.0156793 0.0308942 
-0.0156793 10.1693 0.0434445 
0.0308942 0.0434445 10.1969 
10.1933 -0.00331853 0.0232329 
-0.00331853 10.1474 0.0201251 
0.0232329 0.0201251 10.2435 
9.85372 -0.00612445 -0.0256445 
-0.00612445 9.85553 -0.242404 
-0.0256445 -0.242404 9.86945 
9.85234 -0.00739719 -0.0156763 
-0.00739719 9.8389 -0.236503 
-0.0156763 -0.236503 9.88747 
9.87374 -0.00365258 -0.0153959 
-0.00365258 9.83881 -0.236473 
-0.0153959 -0.236473 9.86616 
9.858 -0.00840936 -0.0189006 
-0.00840936 9.84297 -0.242235 
-0.0189006 -0.242235 9.87773 
9.97985 0.0461792 0.00196925 
0.0461792 10.0001 0.0158553 
0.00196925 0.0158553 10.1063 
10.0169 -0.0146331 0.00339233 
-0.0146331 10.0032 -0.0283269 
0.00339233 -0.0283269 10.066 
10.0202 -0.0398711 -0.00140708 
-0.0398711 10.0009 -0.0306275 
-0.00140708 -0.0306275 10.0651 
10.0286 0.0312497 -0.00659532 
0.0312497 10.0274 -0.0532612 
-0.00659532 -0.0532612 10.0302 
9.74854 0.264488 0.444165 
0.264488 10.4648 0.0126599 
0.444165 0.0126599 10.1272 
9.33032 0.216906 0.680035 
0.216906 10.219 -0.328954 
0.680035 -0.328954 10.7912 
9.95965 0.265131 0.720595 
0.265131 10.6227 -0.252702 
0.720595 -0.252702 9.75809 
9.73145 0.271997 0.315141 
0.271997 10.5426 -0.209666 
0.315141 -0.209666 10.0665 
10.156 0.0176432 0.0337967 
0.0176432 10.0358 0.0478206 
0.0337967 0.0478206 10.1496 
10.0701 0.0630135 -0.0537684 
0.0630135 10.0853 -0.00194278 
-0.0537684 -0.00194278 10.1859 
10.1449 0.033536 -0.0159579 
0.033536 10.0389 0.0314186 
-0.0159579 0.0314186 10.1575 
10.2065 0.0199517 -0.0534087 
0.0199517 10.0006 0.027455 
-0.0534087 0.027455 10.1341 
9.9871 -0.00444506 -0.0047565 
-0.00444506 9.96827 0.226532 
-0.0047565 0.226532 9.95863 
9.95442 -0.00480104 -0.0161268 
-0.00480104 9.9454 0.246002 
-0.0161268 0.246002 10.0142 
9.95635 0.00337829 -0.012337 
0.00337829 9.95858 0.225188 
-0.012337 0.225188 9.99907 
9.99509 -0.00100692 -0.0284097 
-0.00100692 9.95355 0.220781 
-0.0284097 0.220781 9.96537 
10.1193 -0.0154998 0.01727 
-0.0154998 10.1464 -0.0072072 
0.01727 -0.0072072 10.1318 
10.1323 -0.0240146 0.0554444 
-0.0240146 10.007 -0.037692 
0.0554444 -0.037692 10.2582 
10.0921 -0.0185197 -0.00825755 
-0.0185197 10.2512 -0.00748711 
-0.00825755 -0.00748711 10.0542 
10.1068 0.0851276 0.0286651 
0.0851276 10.1261 0.0570231 
0.0286651 0.0570231 10.1646 
9.82262 0.0442389 -0.21225 
0.0442389 9.82665 0.168776 
-0.21225 0.168776 9.94566 
9.78648 0.00545768 -0.216795 
0.00545768 9.84817 0.0971598 
-0.216795 0.0971598 9.96029 
9.77895 0.075749 -0.253816 
0.075749 9.86999 0.187456 
-0.253816 0.187456 9.946 
9.83735 0.0298073 -0.212476 
0.0298073 9.83065 0.180614 
-0.212476 0.180614 9.92693 
9.83622 0.0527562 0.0240487 
0.0527562 9.87594 -0.0423533 
0.0240487 -0.0423533 9.94928 
9.82264 0.0540097 0.00956791 
0.0540097 9.87256 -0.0559717 
0.00956791 -0.0559717 9.96625 
9.83395 0.0531882 0.0399615 
0.0531882 9.8583 -0.055913 
0.0399615 -0.055913 9.9692 
9.83862 0.0679129 0.0304963 
0.0679129 9.86145 -0.0459651 
0.0304963 -0.0459651 9.96137 
9.96377 0.0304163 0.0437162 
0.0304163 9.95569 0.0461997 
0.0437162 0.0461997 10.0335 
9.93117 -0.0102775 0.00243021 
-0.0102775 9.93434 -0.0102246 
0.00243021 -0.0102246 10.0875 
9.97993 -0.0278565 -0.0271823 
-0.0278565 9.96964 -0.0553508 
-0.0271823 -0.0553508 10.0034 
9.91747 -0.0523997 0.00371642 
-0.0523997 9.96983 -0.0182393 
0.00371642 -0.0182393 10.0657 
9.78637 0.0436651 0.0980886 
0.0436651 9.78686 -0.121927 
0.0980886 -0.121927 9.89718 
9.77025 0.0891437 0.0705235 
0.0891437 9.78574 -0.08507 
0.0705235 -0.08507 9.91442 
9.78914 -0.0916207 0.0691135 
-0.0916207 9.8858 -0.110321 
0.0691135 -0.110321 9.79547 
9.85058 0.00285472 0.0986426 
0.00285472 9.73277 -0.115322 
0.0986426 -0.115322 9.88706 
9.82131 -0.0383367 -0.0946847 
-0.0383367 9.86111 0.089499 
-0.0946847 0.089499 9.87364 
9.82547 0.152436 -0.0288556 
0.152436 9.73959 0.0563915 
-0.0288556 0.0563915 9.99099 
9.80282 -0.0349236 -0.0640675 
-0.0349236 9.90678 0.0872524 
-0.0640675 0.0872524 9.84646 
9.71732 0.0347601 -0.104395 
0.0347601 9.88276 0.22163 
-0.104395 0.22163 9.95598 
10.0074 -0.061917 -0.0417676 
-0.061917 9.98416 -0.0981829 
-0.0417676 -0.0981829 9.97744 
9.92556 -0.126489 -0.0004262 
-0.126489 9.85062 -0.0128888 
-0.0004262 -0.0128888 10.1928 
9.906 -0.0274731 0.055448 
-0.0274731 9.99044 0.0693402 
0.055448 0.0693402 10.0726 
9.91677 -0.0666904 0.0237879 
-0.0666904 9.94289 -0.0117413 
0.0237879 -0.0117413 10.1093 
9.77162 -0.0378483 0.0475212 
-0.0378483 9.88954 -0.113197 
0.0475212 -0.113197 9.79092 
9.8106 0.122725 0.0374299 
0.122725 9.70113 -0.0410739 
0.0374299 -0.0410739 9.94036 
9.74965 0.00487476 0.0630819 
0.00487476 9.84731 -0.125955 
0.0630819 -0.125955 9.85513 
9.8001 -0.00107512 0.140085 
-0.00107512 9.73164 -0.16406 
0.140085 -0.16406 9.92034 
9.8492 0.0683916 -0.413351 
0.0683916 10.0537 0.0453349 
-0.413351 0.0453349 8.86891 
9.67428 -0.0431389 -0.692827 
-0.0431389 10.2927 -0.060239 
-0.692827 -0.060239 8.80483 
9.60386 -0.0444833 -0.23772 
-0.0444833 9.70982 0.0537525 
-0.23772 0.0537525 9.45816 
9.81951 0.102893 -0.418827 
0.102893 10.1714 0.150044 
-0.418827 0.150044 8.78093 
9.8197 0.00508748 -0.279597 
0.00508748 9.92847 0.129604 
-0.279597 0.129604 9.81668 
9.75824 0.00665386 -0.249822 
0.00665386 9.88432 0.0753891 
-0.249822 0.0753891 9.92228 
9.78526 0.0189733 -0.282796 
0.0189733 9.93906 0.143105 
-0.282796 0.143105 9.84052 
9.83829 0.00578701 -0.31943 
0.00578701 9.96879 0.0671227 
-0.31943 0.0671227 9.75776 
10.0287 0.0069986 -0.00442837 
0.0069986 9.98877 0.00363393 
-0.00442837 0.00363393 10.0226 
10.0259 -0.00496289 0.01342 
-0.00496289 10.0356 0.0115181 
0.01342 0.0115181 9.9786 
10.0136 0.00515754 0.00908224 
0.00515754 9.99476 -0.00879213 
0.00908224 -0.00879213 10.0318 
10.0104 0.0176847 0.00757478 
0.0176847 10.0003 -0.0151285 
0.00757478 -0.0151285 10.0294 
9.97537 -0.0140124 -0.00588294 
-0.0140124 9.9847 -0.00664327 
-0.00588294 -0.00664327 9.98237 
9.95902 -0.00131698 -0.0109391 
-0.00131698 9.97959 -0.00817024 
-0.0109391 -0.00817024 10.0038 
9.9928 0.00307444 0.00563963 
0.00307444 9.99221 -0.00773255 
0.00563963 -0.00773255 9.95742 
9.97095 -0.00381689 0.000174307 
-0.00381689 9.99358 0.00359266 
0.000174307 0.00359266 9.97791 
9.98072 -0.00616824 0.00513938 
-0.00616824 9.99699 0.00798467 
0.00513938 0.00798467 10.0008 
9.9827 -0.00959202 0.0107209 
-0.00959202 9.99281 0.00647846 
0.0107209 0.00647846 10.003 
9.97604 -0.00754629 -0.00172278 
-0.00754629 10.0029 0.00271524 
-0.00172278 0.00271524 9.99958 
10.0016 -0.00190527 -0.00490066 
-0.00190527 10.0014 0.0110366 
-0.00490066 0.0110366 9.97556 
9.60367 0.110752 -0.139221 
0.110752 9.64052 0.0913446 
-0.139221 0.0913446 9.97219 
9.62033 0.072573 -0.246666 
0.072573 9.77876 0.0567462 
-0.246666 0.0567462 9.81729 
9.73847 0.109907 -0.193852 
0.109907 9.83033 -0.0118823 
-0.193852 -0.0118823 9.64758 
9.63389 0.0455742 -0.249581 
0.0455742 9.76577 0.102841 
-0.249581 0.102841 9.81672 
9.84972 -0.0388706 -0.166749 
-0.0388706 9.8508 -0.179872 
-0.166749 -0.179872 9.94551 
9.85273 -0.0335105 -0.168714 
-0.0335105 9.86072 -0.183959 
-0.168714 -0.183959 9.93257 
9.84473 -0.0374975 -0.146768 
-0.0374975 9.8497 -0.17173 
-0.146768 -0.17173 9.9516 
9.86928 -0.00967614 -0.177411 
-0.00967614 9.85266 -0.193371 
-0.177411 -0.193371 9.92409 
10.0503 -0.0102796 0.00517594 
-0.0102796 10.1459 0.0260475 
0.00517594 0.0260475 10.2505 
10.2832 -0.0197872 -0.0130053 
-0.0197872 10.023 0.0269919 
-0.0130053 0.0269919 10.1404 
10.2169 -0.00912528 -0.0418394 
-0.00912528 9.95626 0.0283606 
-0.0418394 0.0283606 10.2734 
10.0844 0.0032309 -0.060005 
0.0032309 10.1756 0.0793755 
-0.060005 0.0793755 10.1867 
9.86485 -0.00596463 0.0574301 
-0.00596463 9.93935 -0.226025 
0.0574301 -0.226025 9.87432 
9.89593 0.0146077 0.0348406 
0.0146077 9.92186 -0.238 
0.0348406 -0.238 9.86073 
9.90114 0.0052911 0.0588635 
0.0052911 9.79015 -0.246889 
0.0588635 -0.246889 9.98723 
9.89977 0.0498002 0.0858831 
0.0498002 9.87645 -0.183601 
0.0858831 -0.183601 9.9023 
9.92301 0.0010649 -0.206422 
0.0010649 9.93474 0.0929449 
-0.206422 0.0929449 9.98917 
9.94608 2.58224e-05 -0.249166 
2.58224e-05 9.93565 0.104979 
-0.249166 0.104979 9.96519 
9.9354 0.0227842 -0.219924 
0.0227842 9.94623 0.0854052 
-0.219924 0.0854052 9.96529 
9.94682 0.0118633 -0.240402 
0.0118633 9.94754 0.114741 
-0.240402 0.114741 9.95256 
9.99789 0.0209142 -0.00197389 
0.0209142 10.0116 0.0105375 
-0.00197389 0.0105375 10.2508 
10.0727 0.0281975 0.0436484 
0.0281975 10.0682 0.0043738 
0.0436484 0.0043738 10.1194 
10.1163 -0.0259775 0.0140853 
-0.0259775 10.1179 0.0306004 
0.0140853 0.0306004 10.0262 
10.0643 0.0240136 0.103581 
0.0240136 10.0753 -0.0243596 
0.103581 -0.0243596 10.1207 
9.90708 0.0171327 -0.177068 
0.0171327 9.96547 0.196359 
-0.177068 0.196359 9.95777 
9.98189 -0.0155616 -0.148067 
-0.0155616 9.9005 0.150422 
-0.148067 0.150422 9.94793 
9.9729 0.0422228 -0.203478 
0.0422228 9.87257 0.21319 
-0.203478 0.21319 9.98485 
9.9194 0.0143624 -0.170458 
0.0143624 9.94659 0.184193 
-0.170458 0.184193 9.96434 
9.97996 0.0234324 -0.0124026 
0.0234324 9.96293 -0.0751967 
-0.0124026 -0.0751967 10.0122 
9.92006 0.0065934 -0.0194013 
0.0065934 9.99195 0.0305057 
-0.0194013 0.0305057 10.0431 
9.95503 0.0574565 -0.021996 
0.0574565 9.9391 -0.0293182 
-0.021996 -0.0293182 10.061 
9.91209 0.0159316 0.00438746 
0.0159316 9.95101 -0.0105494 
0.00438746 -0.0105494 10.092 
9.90773 0.01668 -0.0587718 
0.01668 10.1001 -0.00250149 
-0.0587718 -0.00250149 9.98115 
10.079 -0.00232754 0.0492928 
-0.00232754 9.87329 -0.0762854 
0.0492928 -0.0762854 10.0367 
10.0708 -0.061716 -0.0481306 
-0.061716 9.88546 0.0575437 
-0.0481306 0.0575437 10.0326 
9.8471 0.0277143 0.0369239 
0.0277143 10.0361 -0.0986384 
0.0369239 -0.0986384 10.1058 
9.76755 0.0282807 0.0969965 
0.0282807 9.87128 0.116865 
0.0969965 0.116865 9.94074 
9.82817 -0.00637165 0.129367 
-0.00637165 9.74435 0.157241 
0.129367 0.157241 10.0071 
9.85128 -0.102398 0.076554 
-0.102398 9.9182 0.142516 
0.076554 0.142516 9.81009 
9.92993 -0.0605729 0.219417 
-0.0605729 9.80463 0.225028 
0.219417 0.225028 9.845 
9.8796 0.00463913 0.139588 
0.00463913 9.98222 0.140816 
0.139588 0.140816 9.97939 
9.96808 -0.0064066 0.166515 
-0.0064066 9.93056 0.20431 
0.166515 0.20431 9.94256 
9.95884 -0.0168437 0.151596 
-0.0168437 9.93717 0.191268 
0.151596 0.191268 9.94519 
9.94901 -0.0284387 0.195918 
-0.0284387 9.96946 0.228378 
0.195918 0.228378 9.92274 
9.54203 0.125136 -0.203825 
0.125136 9.66698 0.0459721 
-0.203825 0.0459721 7.7583 
9.39932 -0.125554 -0.635394 
-0.125554 9.64235 -0.462982 
-0.635394 -0.462982 7.92564 
9.72057 0.0286886 -0.55432 
0.0286886 9.98677 -0.164613 
-0.55432 -0.164613 7.25997 
9.53555 -0.189813 -0.471829 
-0.189813 9.5803 -0.647314 
-0.471829 -0.647314 7.85146 
10.7746 0.0179415 0.0164744 
0.0179415 10.198 0.228181 
0.0164744 0.228181 10.6681 
10.5534 -0.553214 -0.0465548 
-0.553214 10.9023 0.536258 
-0.0465548 0.536258 10.1851 
10.1369 0.179483 0.191388 
0.179483 10.5824 0.107064 
0.191388 0.107064 10.9214 
10.5406 -0.067246 0.103083 
-0.067246 10.3691 0.331675 
0.103083 0.331675 10.7311 
9.87877 -0.0960607 0.0940733 
-0.0960607 9.71716 0.126433 
0.0940733 0.126433 10.3086 
9.78569 -0.204032 -0.0581317 
-0.204032 9.7308 0.14643 
-0.0581317 0.14643 10.388 
9.8385 -0.161378 0.116163 
-0.161378 9.64334 0.124801 
0.116163 0.124801 10.4227 
9.70979 -0.13495 0.0406775 
-0.13495 9.77577 0.281118 
0.0406775 0.281118 10.419 
9.78287 0.0296715 -0.260783 
0.0296715 9.8894 0.183193 
-0.260783 0.183193 9.81945 
9.78683 0.0374037 -0.28023 
0.0374037 9.86463 0.158759 
-0.28023 0.158759 9.84026 
9.75931 0.0327461 -0.293804 
0.0327461 9.9308 0.183663 
-0.293804 0.183663 9.80161 
9.81986 0.0617576 -0.30372 
0.0617576 9.85029 0.252396 
-0.30372 0.252396 9.82157 
10.0778 -0.015292 -0.0140449 
-0.015292 10.0511 0.0310242 
-0.0140449 0.0310242 10.1662 
10.171 0.0104699 0.0365541 
0.0104699 10.2492 -0.042016 
0.0365541 -0.042016 9.87492 
10.0181 0.0202962 0.0327156 
0.0202962 10.0218 0.0297977 
0.0327156 0.0297977 10.2553 
10.074 0.0175122 -0.0840676 
0.0175122 10.0622 -0.0493745 
-0.0840676 -0.0493745 10.159 
9.88659 0.0363251 0.119842 
0.0363251 9.91746 0.103655 
0.119842 0.103655 10.6257 
10.2658 0.0190114 -0.0158974 
0.0190114 10.3276 0.0405965 
-0.0158974 0.0405965 9.8363 
10.0961 0.000730564 0.0607478 
0.000730564 10.1145 -0.0392884 
0.0607478 -0.0392884 10.219 
10.1434 0.0572932 0.087283 
0.0572932 10.1002 -0.255957 
0.087283 -0.255957 10.1861 
9.77456 0.0270237 -0.0643492 
0.0270237 9.83074 -0.146121 
-0.0643492 -0.146121 9.84251 
9.82094 -0.0778117 -0.064763 
-0.0778117 9.73044 -0.143954 
-0.064763 -0.143954 9.89642 
9.78695 -0.0311962 -0.100676 
-0.0311962 9.78135 -0.146087 
-0.100676 -0.146087 9.8795 
9.79693 -0.019746 -0.08989 
-0.019746 9.78896 -0.194005 
-0.08989 -0.194005 9.86191 
9.81129 0.0911408 -0.0204664 
0.0911408 9.72324 0.176129 
-0.0204664 0.176129 9.79548 
9.81144 0.0531926 -0.0391929 
0.0531926 9.68765 0.223701 
-0.0391929 0.223701 9.83091 
9.73765 0.0835839 -0.0936222 
0.0835839 9.64527 0.153071 
-0.0936222 0.153071 9.94708 
9.81097 0.0464476 -0.0566544 
0.0464476 9.69125 0.192817 
-0.0566544 0.192817 9.82778 
10.0273 0.00466916 -0.0736005 
0.00466916 10.0085 -0.18359 
-0.0736005 -0.18359 9.96536 
9.99397 9.45844e-05 -0.054462 
9.45844e-05 9.98817 -0.176493 
-0.054462 -0.176493 10.019 
10.0152 -0.013165 -0.0720803 
-0.013165 9.98663 -0.172351 
-0.0720803 -0.172351 9.99931 
10.0142 0.00524742 -0.0739699 
0.00524742 10.0139 -0.164982 
-0.0739699 -0.164982 9.97305 
9.68167 -0.0320393 0.246584 
-0.0320393 9.82225 0.0621701 
0.246584 0.0621701 9.90062 
9.88336 0.00693591 0.151912 
0.00693591 9.74632 0.0319735 
0.151912 0.0319735 9.77486 
9.84032 -0.0397761 0.172476 
-0.0397761 9.80813 0.0235671 
0.172476 0.0235671 9.75609 
9.75739 -0.0696447 0.153302 
-0.0696447 9.78096 0.0908498 
0.153302 0.0908498 9.86619 
9.91476 0.000877029 0.0573377 
0.000877029 9.92484 -0.229005 
0.0573377 -0.229005 9.94698 
9.94361 0.00541904 0.0690457 
0.00541904 9.90626 -0.230949 
0.0690457 -0.230949 9.93672 
9.91723 0.00476516 0.0599061 
0.00476516 9.91085 -0.226819 
0.0599061 -0.226819 9.9585 
9.93645 0.0151804 0.063352 
0.0151804 9.92259 -0.242015 
0.063352 -0.242015 9.92754 
10.5838 0.227815 0.0324217 
0.227815 10.438 0.0412569 
0.0324217 0.0412569 10.4609 
10.5286 -0.0914827 0.00921582 
-0.0914827 10.3881 -0.010563 
0.00921582 -0.010563 10.566 
10.2011 -0.0581633 -0.121967 
-0.0581633 10.5724 -0.0227132 
-0.121967 -0.0227132 10.7092 
10.3986 0.0449489 -0.0119737 
0.0449489 10.4703 -0.0673261 
-0.0119737 -0.0673261 10.6138 
9.89688 0.0049941 0.10885 
0.0049941 9.92886 -0.201733 
0.10885 -0.201733 9.86453 
9.87449 0.0280389 0.135637 
0.0280389 9.81878 -0.203579 
0.135637 -0.203579 9.99699 
9.87963 -0.021324 0.131285 
-0.021324 9.92104 -0.183134 
0.131285 -0.183134 9.88959 
9.87218 0.0318672 0.14144 
0.0318672 9.90503 -0.14661 
0.14144 -0.14661 9.91305 
9.67558 -0.278539 -0.130116 
-0.278539 9.60669 0.112181 
-0.130116 0.112181 10.5319 
9.88455 -0.0405718 0.0778205 
-0.0405718 9.61422 0.0637113 
0.0778205 0.0637113 10.3154 
9.7718 -0.0751839 0.106486 
-0.0751839 9.62422 0.135832 
0.106486 0.135832 10.4182 
9.6641 -0.108888 0.404011 
-0.108888 9.7564 0.305037 
0.404011 0.305037 10.3937 
9.79054 0.0814784 -0.00664476 
0.0814784 9.93357 -0.00191525 
-0.00664476 -0.00191525 10.0213 
10.0211 -0.0560412 0.00665709 
-0.0560412 9.8547 0.00358592 
0.00665709 0.00358592 9.86965 
9.94659 0.0191738 -0.0281933 
0.0191738 9.86471 0.00482925 
-0.0281933 0.00482925 9.93411 
9.95329 0.0398561 -0.0982034 
0.0398561 9.83353 0.0186338 
-0.0982034 0.0186338 9.95859 
3.83785 0.794611 0.700415 
0.794611 3.88326 -0.48309 
0.700415 -0.48309 1.94815 
5.72245 1.08711 1.49046 
1.08711 4.58043 -1.30932 
1.49046 -1.30932 -0.633615 
3.74135 -0.813478 1.57751 
-0.813478 0.971685 0.9614 
1.57751 0.9614 4.95623 
4.37946 0.248342 -0.520971 
0.248342 4.06478 1.18585 
-0.520971 1.18585 1.22503 
9.71294 0.0651253 -0.127168 
0.0651253 10.2245 0.00365208 
-0.127168 0.00365208 7.8526 
10.0555 -0.109341 0.0670703 
-0.109341 9.65398 -0.0662186 
0.0670703 -0.0662186 8.08056 
9.67521 0.0500441 -0.0212955 
0.0500441 9.85189 -0.00876663 
-0.0212955 -0.00876663 8.26294 
10.1521 0.0353943 -0.0138516 
0.0353943 9.57552 -0.549211 
-0.0138516 -0.549211 8.06241 
10.7707 0.085391 0.0844971 
0.085391 10.8582 0.112888 
0.0844971 0.112888 10.7871 
10.853 0.0804623 0.166825 
0.0804623 11.1374 -0.0846426 
0.166825 -0.0846426 10.4257 
10.2967 0.046753 -0.150836 
0.046753 10.0997 0.188185 
-0.150836 0.188185 12.0196 
10.7464 -0.225445 0.277272 
-0.225445 11.1808 0.645165 
0.277272 0.645165 10.4888 
9.91978 0.00963117 0.248877 
0.00963117 9.92914 -0.0657143 
0.248877 -0.0657143 9.94962 
9.93821 -0.00376772 0.222196 
-0.00376772 9.91297 -0.0411744 
0.222196 -0.0411744 9.94735 
9.925 0.0141928 0.203495 
0.0141928 9.95779 -0.0528038 
0.203495 -0.0528038 9.91575 
9.92201 0.0113584 0.238277 
0.0113584 9.92311 -0.0509332 
0.238277 -0.0509332 9.95342 
10.3692 -0.0625286 0.16295 
-0.0625286 10.3784 0.212767 
0.16295 0.212767 11.0194 
10.3889 -0.0584258 0.0354192 
-0.0584258 10.5167 0.0841964 
0.0354192 0.0841964 10.8615 
10.3115 -0.00363661 0.0757565 
-0.00363661 10.5723 0.151642 
0.0757565 0.151642 10.8832 
10.3261 -0.00675107 0.0501513 
-0.00675107 10.5513 0.150337 
0.0501513 0.150337 10.8896 
9.93147 0.00277177 0.00817213 
0.00277177 9.98218 0.00954609 
0.00817213 0.00954609 10.0022 
9.94792 -0.0147831 0.00390362 
-0.0147831 9.95801 0.00194739 
0.00390362 0.00194739 10.0099 
9.93315 -0.00221439 0.00322671 
-0.00221439 9.97845 0.0118334 
0.00322671 0.0118334 10.0043 
9.92825 -0.00827061 0.00224294 
-0.00827061 9.98099 0.0219425 
0.00224294 0.0219425 10.0066 
9.97788 0.00235358 0.106094 
0.00235358 9.98379 -0.219815 
0.106094 -0.219815 9.99198 
9.9888 -0.000514848 0.101598 
-0.000514848 9.98614 -0.22241 
0.101598 -0.22241 9.97871 
9.98092 0.00130246 0.105268 
0.00130246 9.98592 -0.221991 
0.105268 -0.221991 9.98681 
9.96586 -0.000207458 0.111144 
-0.000207458 9.98766 -0.227456 
0.111144 -0.227456 10.0001 
9.9884 0.0340937 -0.0151755 
0.0340937 10.1275 0.00130946 
-0.0151755 0.00130946 10.0422 
10.0758 0.0713349 -0.00721881 
0.0713349 9.97333 0.0125173 
-0.00721881 0.0125173 10.109 
10.0823 -0.0127488 -0.0187593 
-0.0127488 10.0533 -0.000834931 
-0.0187593 -0.000834931 10.0226 
10.0455 0.0125375 -0.021113 
0.0125375 10.0426 -0.00652012 
-0.021113 -0.00652012 10.0701 
9.93148 -0.00634869 -0.0258706 
-0.00634869 9.90818 -0.0198047 
-0.0258706 -0.0198047 10.0388 
9.94295 -0.0225572 -0.0332466 
-0.0225572 9.93592 -0.00794107 
-0.0332466 -0.00794107 9.99956 
9.93177 -0.00608855 -0.0175582 
-0.00608855 9.91532 -0.00922978 
-0.0175582 -0.00922978 10.0313 
9.9445 -0.00171156 -0.0170956 
-0.00171156 9.91805 -0.00105906 
-0.0170956 -0.00105906 10.0159 
9.82453 0.0520979 -0.159885 
0.0520979 9.81467 0.185169 
-0.159885 0.185169 9.95159 
9.84502 0.0332997 -0.182832 
0.0332997 9.8023 0.196096 
-0.182832 0.196096 9.94347 
9.83532 0.0543268 -0.187956 
0.0543268 9.81696 0.236443 
-0.187956 0.236443 9.93852 
9.8414 0.011577 -0.107619 
0.011577 9.79281 0.238641 
-0.107619 0.238641 9.95659 
9.68571 0.152659 0.249945 
0.152659 9.64905 -0.303864 
0.249945 -0.303864 10.2548 
9.75116 0.142024 0.312938 
0.142024 9.73979 -0.374399 
0.312938 -0.374399 10.0986 
9.8319 -0.0481932 0.228537 
-0.0481932 9.73642 -0.118364 
0.228537 -0.118364 10.0212 
9.67013 0.179035 0.263223 
0.179035 9.74024 -0.305458 
0.263223 -0.305458 10.1792 
9.91396 -0.00900173 0.188231 
-0.00900173 9.92474 0.173788 
0.188231 0.173788 9.95047 
9.91993 0.00387501 0.157171 
0.00387501 9.9252 0.154059 
0.157171 0.154059 9.94404 
9.93268 -0.0166764 0.150264 
-0.0166764 9.9357 0.149352 
0.150264 0.149352 9.92079 
9.91283 -0.0109236 0.16561 
-0.0109236 9.92216 0.173798 
0.16561 0.173798 9.95417 
9.74327 -0.107266 0.190927 
-0.107266 9.67477 -0.0635756 
0.190927 -0.0635756 10.0845 
9.48405 0.171824 0.0348514 
0.171824 10.0945 0.162068 
0.0348514 0.162068 9.92403 
9.88247 -0.0823811 0.0484066 
-0.0823811 9.85296 0.168089 
0.0484066 0.168089 9.76713 
9.68992 0.150886 0.108593 
0.150886 9.85023 -0.148174 
0.108593 -0.148174 9.9624 
11.7707 -0.843732 2.58962 
-0.843732 6.70983 3.17219 
2.58962 3.17219 -2.88368 
12.3627 0.484318 2.39793 
0.484318 7.66308 -0.0211361 
2.39793 -0.0211361 -4.42893 
3.0545 1.24202 1.28138 
1.24202 -0.207475 -1.41055 
1.28138 -1.41055 12.7499 
5.93588 -2.46339 12.0581 
-2.46339 7.58291 1.06803 
12.0581 1.06803 2.07809 
10.0763 0.00961904 -0.0106476 
0.00961904 9.99475 0.00816154 
-0.0106476 0.00816154 10.209 
10.0846 0.00835438 0.017435 
0.00835438 9.9748 -0.00170804 
0.017435 -0.00170804 10.2207 
10.0351 0.0331498 -0.000670459 
0.0331498 9.97056 -0.0217988 
-0.000670459 -0.0217988 10.2743 
10.089 0.00347688 -0.0176097 
0.00347688 10.0371 0.0546881 
-0.0176097 0.0546881 10.1539 
10.0482 -0.00680047 0.00969644 
-0.00680047 10.0526 -0.0143788 
0.00969644 -0.0143788 10.1402 
10.0729 -0.0124375 0.00999131 
-0.0124375 10.0716 0.000229083 
0.00999131 0.000229083 10.0965 
10.0313 -0.0068675 -0.00254561 
-0.0068675 10.038 0.0185607 
-0.00254561 0.0185607 10.1717 
10.08 0.00240001 0.0405773 
0.00240001 10.0705 -0.00651392 
0.0405773 -0.00651392 10.0905 
9.93304 -0.0123456 -0.126181 
-0.0123456 9.88612 -0.20486 
-0.126181 -0.20486 9.97413 
9.92896 -0.0121227 -0.118172 
-0.0121227 9.90962 -0.201183 
-0.118172 -0.201183 9.95471 
9.92758 -0.00993488 -0.136026 
-0.00993488 9.89512 -0.203828 
-0.136026 -0.203828 9.97059 
9.9334 -0.0403298 -0.117102 
-0.0403298 9.91717 -0.220649 
-0.117102 -0.220649 9.94272 
9.99392 -0.0116727 0.0766587 
-0.0116727 9.93435 0.0924074 
0.0766587 0.0924074 9.59588 
9.81587 0.056208 0.110429 
0.056208 9.92089 0.109398 
0.110429 0.109398 9.78738 
9.97576 -0.0164117 0.0768499 
-0.0164117 9.96074 0.0351197 
0.0768499 0.0351197 9.58764 
9.95357 0.0234075 0.166196 
0.0234075 10.0231 0.12581 
0.166196 0.12581 9.5475 
9.9472 0.00468736 0.248364 
0.00468736 9.97414 -0.0948187 
0.248364 -0.0948187 10.0126 
9.9627 0.00254625 0.221528 
0.00254625 10.0006 -0.0870661 
0.221528 -0.0870661 9.97064 
9.97346 -0.00738064 0.223798 
-0.00738064 9.96712 -0.0817417 
0.223798 -0.0817417 9.9934 
9.94173 0.00846963 0.212339 
0.00846963 9.99862 -0.0951362 
0.212339 -0.0951362 9.99363 
10.0745 -0.0514289 0.0215157 
-0.0514289 10.1315 -0.0390246 
0.0215157 -0.0390246 10.4018 
10.1265 0.013613 -0.03232 
0.013613 10.15 0.0136794 
-0.03232 0.0136794 10.3313 
10.3008 0.00992964 0.0476248 
0.00992964 10.2269 0.0378524 
0.0476248 0.0378524 10.0801 
10.2161 0.0784175 -0.0761137 
0.0784175 10.2513 -0.0732935 
-0.0761137 -0.0732935 10.1404 
9.65385 -0.00316018 0.173469 
-0.00316018 9.78515 -0.057879 
0.173469 -0.057879 9.82146 
9.68368 0.0267776 0.226984 
0.0267776 9.78102 -0.0110718 
0.226984 -0.0110718 9.79577 
9.60252 0.0284156 0.174714 
0.0284156 9.83468 0.0124926 
0.174714 0.0124926 9.82327 
9.63729 0.013577 0.219833 
0.013577 9.81667 -0.0587254 
0.219833 -0.0587254 9.80651 
9.96851 0.025654 0.242125 
0.025654 9.97949 0.00118352 
0.242125 0.00118352 10.0075 
9.94937 0.0016798 0.247663 
0.0016798 10.0113 0.00272524 
0.247663 0.00272524 9.99487 
9.99233 -0.00317577 0.223059 
-0.00317577 9.98808 0.00336053 
0.223059 0.00336053 9.97509 
9.97651 0.00790079 0.224534 
0.00790079 9.99877 -0.000663362 
0.224534 -0.000663362 9.98024 
9.93583 -0.0206101 -0.00433022 
-0.0206101 9.95237 0.00625393 
-0.00433022 0.00625393 9.99781 
9.95377 0.00214137 0.0059841 
0.00214137 9.95974 0.0156821 
0.0059841 0.0156821 9.97251 
9.94053 -0.017475 0.00991162 
-0.017475 9.96402 0.0151277 
0.00991162 0.0151277 9.98147 
9.94356 0.000991826 0.00579287 
0.000991826 9.96557 0.0183866 
0.00579287 0.0183866 9.97688 
9.95159 -0.00151039 0.210537 
-0.00151039 9.95624 0.137523 
0.210537 0.137523 9.97535 
9.94216 -0.00230273 0.198332 
-0.00230273 9.9511 0.12711 
0.198332 0.12711 9.98992 
9.95459 -0.00664932 0.190909 
-0.00664932 9.95333 0.130049 
0.190909 0.130049 9.97526 
9.95073 -0.00665843 0.203923 
-0.00665843 9.95779 0.145272 
0.203923 0.145272 9.97466 
4.9806 -0.443473 0.0131138 
-0.443473 5.42203 3.22278 
0.0131138 3.22278 -2.27705 
3.99451 0.599582 0.0945331 
0.599582 4.74704 1.95771 
0.0945331 1.95771 -0.61598 
1.68127 0.316224 0.696474 
0.316224 2.17414 1.26461 
0.696474 1.26461 4.27016 
3.6111 -0.252336 2.68316 
-0.252336 5.9397 -0.90483 
2.68316 -0.90483 -1.42523 
9.80341 -0.0263905 0.282396 
-0.0263905 9.97119 0.0927115 
0.282396 0.0927115 9.79973 
9.82725 -0.0284065 0.264596 
-0.0284065 9.93458 0.108248 
0.264596 0.108248 9.8125 
9.82356 -0.0593285 0.255647 
-0.0593285 9.92863 0.145153 
0.255647 0.145153 9.82214 
9.84553 0.0598048 0.249328 
0.0598048 9.85994 0.0926403 
0.249328 0.0926403 9.86886 
10.1237 0.0153832 -0.0528438 
0.0153832 10.1378 0.00901776 
-0.0528438 0.00901776 9.95213 
9.94496 -0.000910356 0.00724458 
-0.000910356 9.99935 -0.0276099 
0.00724458 -0.0276099 10.2693 
10.08 0.00644789 -0.0204654 
0.00644789 10.0633 0.0371938 
-0.0204654 0.0371938 10.0704 
10.0608 0.00264855 -0.000176956 
0.00264855 10.0569 0.112427 
-0.000176956 0.112427 10.0959 
9.95928 1.05126e-05 0.223492 
1.05126e-05 9.98452 -0.0621537 
0.223492 -0.0621537 10.0131 
9.96911 0.00735723 0.241667 
0.00735723 9.99706 -0.0580718 
0.241667 -0.0580718 9.99078 
9.98537 0.00545968 0.244017 
0.00545968 9.99904 -0.0598623 
0.244017 -0.0598623 9.97254 
9.96257 0.00510392 0.248785 
0.00510392 10.0047 -0.0598885 
0.248785 -0.0598885 9.98965 
9.95458 0.00458957 -0.233962 
0.00458957 9.96198 0.0255183 
-0.233962 0.0255183 9.9867 
9.95586 -0.000924627 -0.25222 
-0.000924627 9.93402 0.0309279 
-0.25222 0.0309279 10.0134 
9.95915 0.0135495 -0.240475 
0.0135495 9.97855 0.0187889 
-0.240475 0.0187889 9.96556 
9.95995 -0.00106211 -0.232462 
-0.00106211 9.98325 0.0262138 
-0.232462 0.0262138 9.96006 
6.36794 0.449463 -0.206493 
0.449463 2.44085 -0.954236 
-0.206493 -0.954236 0.0799558 
8.02284 -0.732124 2.46823 
-0.732124 4.27002 -1.17164 
2.46823 -1.17164 -3.40411 
3.87695 0.444456 -1.28589 
0.444456 0.380582 -0.939578 
-1.28589 -0.939578 4.63122 
10.1052 0.00265207 -3.47189 
0.00265207 0.631872 0.0291549 
-3.47189 0.0291549 -1.84834 
9.70638 0.0462834 -0.145686 
0.0462834 9.80678 0.0593445 
-0.145686 0.0593445 9.84253 
9.72183 0.0680478 -0.154645 
0.0680478 9.78738 0.0720681 
-0.154645 0.0720681 9.84648 
9.90992 -0.000851001 -0.16066 
-0.000851001 9.6871 0.0464088 
-0.16066 0.0464088 9.75867 
9.719 0.0231937 -0.215825 
0.0231937 9.80359 0.0684447 
-0.215825 0.0684447 9.83311 
11.1457 0.0052252 -0.0741537 
0.0052252 10.5991 0.930369 
-0.0741537 0.930369 11.0116 
12.1388 -0.183399 -0.089038 
-0.183399 11.5828 1.50847 
-0.089038 1.50847 9.03487 
9.8836 -1.19259 0.478387 
-1.19259 9.08903 -1.05163 
0.478387 -1.05163 13.7838 
11.5225 0.27812 -0.0323964 
0.27812 8.95226 1.22489 
-0.0323964 1.22489 12.2817 
9.97424 -0.00208834 0.0013712 
-0.00208834 9.94914 0.022696 
0.0013712 0.022696 10.2023 
10.0563 -0.146286 0.0220721 
-0.146286 9.98218 0.0569514 
0.0220721 0.0569514 10.0872 
9.9907 -0.0550099 0.0180268 
-0.0550099 10.0756 0.0446393 
0.0180268 0.0446393 10.0593 
10.025 -0.0734705 0.0610353 
-0.0734705 10.0167 0.0979167 
0.0610353 0.0979167 10.084 
9.93593 -0.0110234 0.101963 
-0.0110234 9.9247 0.218344 
0.101963 0.218344 9.95717 
9.94628 -0.0152995 0.101301 
-0.0152995 9.93056 0.209866 
0.101301 0.209866 9.94096 
9.9346 -0.0022583 0.108833 
-0.0022583 9.92071 0.217292 
0.108833 0.217292 9.9625 
9.93599 -0.0149578 0.106224 
-0.0149578 9.93518 0.217961 
0.106224 0.217961 9.94664 
11.5884 0.260951 1.33733 
0.260951 11.9246 0.158186 
1.33733 0.158186 9.35505 
9.22369 0.970687 -0.932645 
0.970687 10.203 -0.389444 
-0.932645 -0.389444 13.4413 
10.6599 -0.0411604 0.860216 
-0.0411604 11.3659 0.214095 
0.860216 0.214095 10.8422 
9.05167 -0.277417 1.07823 
-0.277417 11.6486 0.0522765 
1.07823 0.0522765 12.1677 
9.89296 -0.0365335 -0.213276 
-0.0365335 9.95023 -0.0426461 
-0.213276 -0.0426461 9.93313 
9.9076 -0.0266847 -0.211026 
-0.0266847 9.96728 -0.0466293 
-0.211026 -0.0466293 9.90144 
9.93092 -0.0108848 -0.239926 
-0.0108848 9.92901 -0.0270421 
-0.239926 -0.0270421 9.91639 
9.92993 -0.000904746 -0.245355 
-0.000904746 9.94404 -0.0326823 
-0.245355 -0.0326823 9.90236 
9.95366 -0.0176948 -0.0373303 
-0.0176948 9.9457 -0.208004 
-0.0373303 -0.208004 9.90537 
9.95955 -0.02184 -0.028857 
-0.02184 9.96709 -0.224889 
-0.028857 -0.224889 9.8781 
9.97274 -0.006067 -0.0451848 
-0.006067 9.93477 -0.210376 
-0.0451848 -0.210376 9.89723 
9.97248 -0.00187034 -0.0383068 
-0.00187034 9.93561 -0.217551 
-0.0383068 -0.217551 9.89664 
9.97234 -0.00820499 0.201919 
-0.00820499 9.9996 0.12664 
0.201919 0.12664 9.99677 
9.98449 -0.0133327 0.196085 
-0.0133327 9.9931 0.127654 
0.196085 0.127654 9.99111 
9.98903 -0.000453289 0.203817 
-0.000453289 9.99401 0.137153 
0.203817 0.137153 9.98566 
9.98551 -0.00914161 0.206119 
-0.00914161 10.0024 0.133314 
0.206119 0.133314 9.98082 
10.0504 -0.00107549 -0.0036051 
-0.00107549 10.0469 -0.0194079 
-0.0036051 -0.0194079 10.1505 
10.0906 0.0143156 -0.0112222 
0.0143156 10.0723 -0.0210885 
-0.0112222 -0.0210885 10.0847 
10.0832 -0.0129491 -0.004785 
-0.0129491 10.0502 -0.022164 
-0.004785 -0.022164 10.1143 
10.0716 -0.00255749 -0.00944175 
-0.00255749 10.0717 -0.0316718 
-0.00944175 -0.0316718 10.1043 
9.39576 -0.0160088 0.403748 
-0.0160088 9.70412 -0.409701 
0.403748 -0.409701 8.9506 
9.5314 -0.121442 0.683417 
-0.121442 9.94925 -0.330782 
0.683417 -0.330782 8.56983 
9.7074 -0.01455 0.546308 
-0.01455 9.70315 0.0406209 
0.546308 0.0406209 8.63993 
9.34111 0.0427616 0.460626 
0.0427616 9.9274 -0.200875 
0.460626 -0.200875 8.78197 
9.95513 0.0281473 -0.180585 
0.0281473 9.92807 0.0695874 
-0.180585 0.0695874 9.96778 
9.94235 0.0399004 -0.275725 
0.0399004 9.98879 0.103884 
-0.275725 0.103884 9.91985 
9.93536 -0.0140928 -0.261433 
-0.0140928 9.98908 0.0587045 
-0.261433 0.0587045 9.92654 
9.93007 0.0115511 -0.22049 
0.0115511 9.98857 0.0610379 
-0.22049 0.0610379 9.93235 
9.93864 0.00451542 0.168916 
0.00451542 9.94454 0.181184 
0.168916 0.181184 9.98581 
9.948 0.00431389 0.158406 
0.00431389 9.94633 0.162628 
0.158406 0.162628 9.97465 
9.94944 -0.0120449 0.169325 
-0.0120449 9.94664 0.182335 
0.169325 0.182335 9.9729 
9.95016 -0.0186003 0.169134 
-0.0186003 9.94074 0.182898 
0.169134 0.182898 9.97809 
10.0292 0.014758 -0.00153253 
0.014758 10.011 -0.05844 
-0.00153253 -0.05844 10.0205 
10.0115 -0.0227553 -0.0382795 
-0.0227553 10.0271 -0.00846693 
-0.0382795 -0.00846693 10.0222 
9.98875 0.0162062 -0.0276763 
0.0162062 10.0413 0.0128746 
-0.0276763 0.0128746 10.0306 
10.0277 -0.0710256 -0.0504534 
-0.0710256 10.0544 6.88211e-05 
-0.0504534 6.88211e-05 9.97855 
9.85083 -0.00644512 0.116215 
-0.00644512 9.87673 -0.193912 
0.116215 -0.193912 9.89355 
9.85782 -0.0278297 0.129605 
-0.0278297 9.88729 -0.178175 
0.129605 -0.178175 9.87601 
9.87755 0.062925 0.127375 
0.062925 9.83975 -0.149291 
0.127375 -0.149291 9.90381 
9.85855 0.00280355 0.150653 
0.00280355 9.84452 -0.191426 
0.150653 -0.191426 9.91804 
9.96172 -0.00983681 -0.0453523 
-0.00983681 9.93571 -0.249142 
-0.0453523 -0.249142 9.96384 
9.94013 0.00984238 -0.0465748 
0.00984238 9.94086 -0.246392 
-0.0465748 -0.246392 9.98028 
9.95596 0.00111241 -0.0391734 
0.00111241 9.94432 -0.233142 
-0.0391734 -0.233142 9.96099 
9.96264 -0.00911011 -0.0432188 
-0.00911011 9.93542 -0.248849 
-0.0432188 -0.248849 9.96321 
9.91367 -0.0802521 0.728319 
-0.0802521 10.3519 0.621715 
0.728319 0.621715 8.38077 
9.70562 -0.104375 0.639796 
-0.104375 10.2146 0.22809 
0.639796 0.22809 8.72613 
9.57414 -0.0463102 0.875612 
-0.0463102 10.4286 0.143135 
0.875612 0.143135 8.64361 
9.26765 -0.0961468 0.200041 
-0.0961468 9.99557 0.0815204 
0.200041 0.0815204 9.3831 
9.84069 0.0519728 -0.0633882 
0.0519728 9.85629 0.0350587 
-0.0633882 0.0350587 9.92752 
9.82746 0.0537923 -0.0942986 
0.0537923 9.83454 0.0391571 
-0.0942986 0.0391571 9.96252 
9.8263 0.0440208 -0.0810318 
0.0440208 9.85831 0.0232764 
-0.0810318 0.0232764 9.9399 
9.84329 0.0425199 -0.0623515 
0.0425199 9.84476 0.0139966 
-0.0623515 0.0139966 9.93647 
14.3659 -0.522649 0.321311 
-0.522649 11.4573 -1.2627 
0.321311 -1.2627 9.22126 
8.79173 0.0393343 -1.21852 
0.0393343 9.73772 0.681493 
-1.21852 0.681493 16.515 
11.0991 0.886752 0.223897 
0.886752 9.68365 -0.615539 
0.223897 -0.615539 14.2617 
10.9574 1.86088 2.59846 
1.86088 10.2825 -0.829155 
2.59846 -0.829155 13.8046 
11.1889 0.449505 0.659672 
0.449505 12.571 -0.268118 
0.659672 -0.268118 12.3358 
11.74 0.420712 0.627775 
0.420712 10.5769 0.323351 
0.627775 0.323351 13.7788 
11.9171 0.0480536 0.252538 
0.0480536 13.1808 0.0420391 
0.252538 0.0420391 10.9978 
11.8405 0.103019 1.13933 
0.103019 12.3501 -1.71177 
1.13933 -1.71177 11.9051 
9.37724 0.723794 -0.977812 
0.723794 5.7732 -3.89171 
-0.977812 -3.89171 -0.440114 
12.22 2.67826 0.054421 
2.67826 11.0751 -4.94828 
0.054421 -4.94828 -8.58473 
1.18258 1.30421 -1.27557 
1.30421 2.86372 1.96644 
-1.27557 1.96644 10.664 
6.70523 -3.65834 -6.8818 
-3.65834 4.0754 -5.98369 
-6.8818 -5.98369 3.9297 
10.0381 0.0697216 -0.22129 
0.0697216 10.2204 0.10922 
-0.22129 0.10922 10.4134 
9.82198 0.260298 0.120202 
0.260298 10.4061 -0.0902968 
0.120202 -0.0902968 10.4439 
9.85702 0.158903 -0.320563 
0.158903 10.1269 0.0541954 
-0.320563 0.0541954 10.688 
9.83978 0.117113 -0.226832 
0.117113 10.252 0.0785628 
-0.226832 0.0785628 10.5801 
9.81065 0.0417961 -0.221574 
0.0417961 9.85622 0.180152 
-0.221574 0.180152 9.94263 
9.80336 0.0471054 -0.218479 
0.0471054 9.87544 0.189393 
-0.218479 0.189393 9.93069 
9.82165 0.0889173 -0.22672 
0.0889173 9.83687 0.176355 
-0.22672 0.176355 9.95098 
9.80871 0.0672392 -0.2434 
0.0672392 9.85958 0.17213 
-0.2434 0.17213 9.94121 
9.83281 -0.0380663 0.202837 
-0.0380663 9.87906 0.0779058 
0.202837 0.0779058 9.88401 
9.85898 -0.00596552 0.205912 
-0.00596552 9.84826 0.089169 
0.205912 0.089169 9.88864 
9.85652 -0.0129773 0.199045 
-0.0129773 9.8568 0.100605 
0.199045 0.100605 9.88257 
9.85787 -0.0125325 0.214971 
-0.0125325 9.85416 0.0950319 
0.214971 0.0950319 9.88385 
6.5568 -1.12865 0.574133 
-1.12865 8.89003 -3.07575 
0.574133 -3.07575 4.93172 
8.7915 -1.29193 0.0525631 
-1.29193 7.43947 -2.78892 
0.0525631 -2.78892 4.14757 
9.12848 -0.976724 0.649133 
-0.976724 5.94671 -1.74721 
0.649133 -1.74721 5.30336 
5.93584 -0.852387 -0.625633 
-0.852387 7.65376 -3.71505 
-0.625633 -3.71505 6.78894 
9.96982 0.00123483 -0.208719 
0.00123483 9.98079 -0.134349 
-0.208719 -0.134349 9.99105 
9.98581 -0.00433015 -0.204907 
-0.00433015 9.97834 -0.135714 
-0.204907 -0.135714 9.97751 
9.96725 0.00933134 -0.218461 
0.00933134 9.9682 -0.13794 
-0.218461 -0.13794 10.0062 
9.98036 0.000381274 -0.206872 
0.000381274 9.97525 -0.134119 
-0.206872 -0.134119 9.98604 
9.942 0.0182882 -0.19687 
0.0182882 9.95339 0.141322 
-0.19687 0.141322 9.98425 
9.93716 0.0149799 -0.197834 
0.0149799 9.9527 0.15013 
-0.197834 0.15013 9.98978 
9.93063 0.00888074 -0.205761 
0.00888074 9.96826 0.147706 
-0.205761 0.147706 9.98074 
9.96441 0.0288773 -0.201817 
0.0288773 9.95533 0.140359 
-0.201817 0.140359 9.9599 
2.78141 -1.97292 2.95357 
-1.97292 0.0589394 0.961231 
2.95357 0.961231 11.3915 
4.84291 -0.964295 -3.28204 
-0.964295 10.7506 0.364977 
-3.28204 0.364977 -1.36164 
12.0075 -2.1373 -4.94729 
-2.1373 13.0048 -0.942359 
-4.94729 -0.942359 -10.7804 
3.92916 3.91967 -5.58031 
3.91967 6.79605 6.63701 
-5.58031 6.63701 3.50663 
9.93998 -0.00163795 -0.0580048 
-0.00163795 9.9866 -0.223322 
-0.0580048 -0.223322 10.0229 
10.0115 -0.0183691 -0.0835757 
-0.0183691 9.97741 -0.238391 
-0.0835757 -0.238391 9.9606 
9.98199 -0.00230734 -0.0639448 
-0.00230734 9.96461 -0.237959 
-0.0639448 -0.237959 10.0029 
10.0097 0.00705555 -0.0630811 
0.00705555 9.97153 -0.238485 
-0.0630811 -0.238485 9.96825 
9.91246 -0.000183685 0.249761 
-0.000183685 9.90316 -0.0740233 
0.249761 -0.0740233 9.95308 
9.90191 0.00883525 0.21127 
0.00883525 9.93952 -0.0561933 
0.21127 -0.0561933 9.92728 
9.88298 0.0210907 0.236571 
0.0210907 9.95428 -0.0624577 
0.236571 -0.0624577 9.93145 
9.89479 0.00488186 0.238034 
0.00488186 9.92065 -0.0572275 
0.238034 -0.0572275 9.95326 
9.67469 0.0170612 -0.0822987 
0.0170612 9.75838 -0.166107 
-0.0822987 -0.166107 9.88409 
9.83004 0.00897246 0.0691094 
0.00897246 9.69288 -0.198492 
0.0691094 -0.198492 9.79423 
9.86624 0.0665011 0.0578319 
0.0665011 9.63833 -0.135821 
0.0578319 -0.135821 9.81258 
9.80562 0.0141097 -0.0350476 
0.0141097 9.60788 -0.227606 
-0.0350476 -0.227606 9.90365 
10.4667 -0.0396223 0.00193136 
-0.0396223 10.5227 0.0139492 
0.00193136 0.0139492 10.0612 
10.3164 0.0136747 -0.0313707 
0.0136747 10.3067 -0.00549361 
-0.0313707 -0.00549361 10.4275 
10.2912 0.0266711 0.00670004 
0.0266711 10.2404 -0.0738106 
0.00670004 -0.0738106 10.519 
10.3026 0.0560438 -0.0275267 
0.0560438 10.2917 0.0979494 
-0.0275267 0.0979494 10.4563 
9.93539 -0.00765966 0.183834 
-0.00765966 9.93776 0.125575 
0.183834 0.125575 9.94062 
9.93014 -0.011314 0.190453 
-0.011314 9.93027 0.136089 
0.190453 0.136089 9.95337 
9.92451 -0.00606884 0.197646 
-0.00606884 9.92906 0.141768 
0.197646 0.141768 9.96021 
9.93779 -0.0149782 0.193696 
-0.0149782 9.92375 0.135563 
0.193696 0.135563 9.95223 
9.83682 0.0473918 -0.173279 
0.0473918 9.85706 0.112231 
-0.173279 0.112231 9.89951 
9.85464 0.011385 -0.185904 
0.011385 9.85114 0.134217 
-0.185904 0.134217 9.88759 
9.88106 -0.0404612 -0.187679 
-0.0404612 9.84582 0.128244 
-0.187679 0.128244 9.8665 
9.84711 0.0117933 -0.204534 
0.0117933 9.84569 0.14032 
-0.204534 0.14032 9.90058 
11.8152 -0.288591 -1.02512 
-0.288591 8.05674 2.91206 
-1.02512 2.91206 -4.13164 
1.96394 0.0716223 0.28202 
0.0716223 -1.59389 -1.74081 
0.28202 -1.74081 15.3702 
11.9248 -0.427399 -0.986935 
-0.427399 8.31469 -1.08585 
-0.986935 -1.08585 -4.49922 
6.36993 1.81064 -14.3669 
1.81064 7.92954 0.393973 
-14.3669 0.393973 1.44081 
10.0016 -0.00981324 0.097564 
-0.00981324 9.96824 -0.226974 
0.097564 -0.226974 9.98859 
9.99828 0.0117927 0.09709 
0.0117927 9.97362 -0.232035 
0.09709 -0.232035 9.9865 
9.98127 0.00451806 0.0859069 
0.00451806 9.97263 -0.224557 
0.0859069 -0.224557 10.0045 
9.99849 0.00618471 0.102577 
0.00618471 9.98579 -0.228399 
0.102577 -0.228399 9.97412 
10.8288 -1.57903 -2.89643 
-1.57903 22.3891 -7.0491 
-2.89643 -7.0491 -11.7958 
-1.82707 1.97783 0.455568 
1.97783 1.26534 6.98832 
0.455568 6.98832 21.9838 
8.87082 2.11045 1.02655 
2.11045 15.2074 -4.38538 
1.02655 -4.38538 -2.65613 
11.0354 -1.68193 1.85395 
-1.68193 -10.1019 -18.316 
1.85395 -18.316 20.4885 
9.8666 -0.0792751 0.0895946 
-0.0792751 9.86905 0.027748 
0.0895946 0.027748 9.8767 
9.80279 -0.0903412 0.109681 
-0.0903412 9.83133 0.0708336 
0.109681 0.0708336 9.97822 
9.8987 0.0333483 0.0649919 
0.0333483 9.84213 0.0695448 
0.0649919 0.0695448 9.87152 
9.92447 -0.0360833 0.0630027 
-0.0360833 9.75997 0.0581276 
0.0630027 0.0581276 9.92791 
9.68803 -0.0144576 0.390917 
-0.0144576 10.0466 0.101741 
0.390917 0.101741 9.51472 
9.71279 -0.0389976 0.361215 
-0.0389976 9.97616 0.0330064 
0.361215 0.0330064 9.56042 
9.63066 -0.0419159 0.514454 
-0.0419159 10.0067 0.215822 
0.514454 0.215822 9.61205 
9.70422 0.0179553 0.385524 
0.0179553 10.0964 0.0783055 
0.385524 0.0783055 9.4488 
9.85256 0.0473916 -0.197777 
0.0473916 9.83936 0.151479 
-0.197777 0.151479 9.98566 
9.90657 -0.0417796 -0.192931 
-0.0417796 9.8863 0.1291 
-0.192931 0.1291 9.8847 
9.89312 -0.00287732 -0.187025 
-0.00287732 9.91169 0.143466 
-0.187025 0.143466 9.87277 
9.84633 0.0121782 -0.186087 
0.0121782 9.908 0.087664 
-0.186087 0.087664 9.92325 
10.2161 0.0246617 -0.00834406 
0.0246617 10.0715 0.086402 
-0.00834406 0.086402 10.2504 
10.1245 -0.0823896 0.0422813 
-0.0823896 10.0989 0.0698364 
0.0422813 0.0698364 10.3145 
10.1974 -0.0369334 -0.0293873 
-0.0369334 10.1395 0.037885 
-0.0293873 0.037885 10.2011 
10.2949 0.115099 0.0977156 
0.115099 10.0868 0.128227 
0.0977156 0.128227 10.1563 
9.80505 -0.0441086 0.120689 
-0.0441086 9.73773 0.261344 
0.120689 0.261344 9.76389 
9.86691 -0.0183551 0.102858 
-0.0183551 9.66701 0.285847 
0.102858 0.285847 9.77275 
9.89843 -0.0124394 0.092001 
-0.0124394 9.6201 0.255143 
0.092001 0.255143 9.78814 
9.86626 -0.00676098 0.0984757 
-0.00676098 9.66601 0.348078 
0.0984757 0.348078 9.7744 
9.68955 0.076866 0.362274 
0.076866 10.0354 -0.0254415 
0.362274 -0.0254415 9.96352 
9.70648 0.0943048 0.304161 
0.0943048 10.0233 -0.0767126 
0.304161 -0.0767126 9.95867 
9.74045 0.0744659 0.346613 
0.0744659 10.0097 -0.125852 
0.346613 -0.125852 9.93832 
9.63066 0.038166 0.272298 
0.038166 10.0833 -0.176569 
0.272298 -0.176569 9.97457 
9.91087 -0.0147096 -0.0665748 
-0.0147096 9.89161 -0.220137 
-0.0665748 -0.220137 9.92587 
9.93293 -0.020377 -0.0690742 
-0.020377 9.87349 -0.244968 
-0.0690742 -0.244968 9.92193 
9.90162 -0.0065073 -0.0737129 
-0.0065073 9.88937 -0.244956 
-0.0737129 -0.244956 9.93736 
9.90801 0.00133835 -0.06921 
0.00133835 9.89191 -0.241666 
-0.06921 -0.241666 9.92842 
9.83501 -0.0734175 -0.164418 
-0.0734175 9.82963 -0.213359 
-0.164418 -0.213359 9.94789 
9.84285 -0.0114985 -0.113718 
-0.0114985 9.83008 -0.218468 
-0.113718 -0.218468 9.93961 
9.8898 -0.0460162 -0.172093 
-0.0460162 9.7732 -0.241176 
-0.172093 -0.241176 9.94954 
9.85362 -0.0482412 -0.136116 
-0.0482412 9.81877 -0.221143 
-0.136116 -0.221143 9.94015 
9.84389 -0.0345 -0.116513 
-0.0345 9.83598 -0.0825706 
-0.116513 -0.0825706 9.88086 
9.87599 -0.0131353 -0.12026 
-0.0131353 9.78896 -0.0609397 
-0.12026 -0.0609397 9.89578 
9.8171 -0.0356253 -0.130834 
-0.0356253 9.81172 -0.083007 
-0.130834 -0.083007 9.93191 
9.8397 0.00479219 -0.11133 
0.00479219 9.80521 -0.0646964 
-0.11133 -0.0646964 9.91583 
9.90528 0.0118201 -0.189158 
0.0118201 9.94826 0.187591 
-0.189158 0.187591 9.93173 
9.8942 0.033338 -0.184723 
0.033338 9.94893 0.165098 
-0.184723 0.165098 9.94213 
9.91196 0.0107132 -0.191381 
0.0107132 9.94845 0.173445 
-0.191381 0.173445 9.92486 
9.91572 0.031362 -0.192418 
0.031362 9.95342 0.201675 
-0.192418 0.201675 9.91614 
9.90414 0.00175835 -0.222489 
0.00175835 9.91324 0.110504 
-0.222489 0.110504 9.95066 
9.90401 0.0114741 -0.223014 
0.0114741 9.92256 0.107475 
-0.223014 0.107475 9.94147 
9.91794 0.00481592 -0.213554 
0.00481592 9.92093 0.0968639 
-0.213554 0.0968639 9.92916 
9.91971 0.0225935 -0.226331 
0.0225935 9.917 0.107173 
-0.226331 0.107173 9.93133 
9.87643 0.0347825 0.0149041 
0.0347825 9.89639 -0.0150526 
0.0149041 -0.0150526 9.9926 
9.84311 0.058594 -0.00937491 
0.058594 9.9139 -0.00593729 
-0.00937491 -0.00593729 10.0084 
9.86409 0.0539599 0.0358435 
0.0539599 9.915 -0.0460882 
0.0358435 -0.0460882 9.98633 
9.85574 0.0243488 0.0160064 
0.0243488 9.92465 -0.0553897 
0.0160064 -0.0553897 9.98503 
8.27918 3.31517 -0.991102 
3.31517 13.874 -4.98028 
-0.991102 -4.98028 -6.34275 
7.96855 0.365418 -3.05829 
0.365418 11.3354 -3.32395 
-3.05829 -3.32395 -3.49352 
1.13807 -0.397799 -0.58703 
-0.397799 3.54104 2.49356 
-0.58703 2.49356 11.1313 
7.49377 -2.19442 -5.02407 
-2.19442 1.47998 -7.07288 
-5.02407 -7.07288 6.83669 
10.0284 -0.0181492 -0.12061 
-0.0181492 10.0306 -0.0797019 
-0.12061 -0.0797019 9.92003 
9.98434 -0.0116923 -0.162863 
-0.0116923 9.99012 -0.063254 
-0.162863 -0.063254 10.0046 
9.94509 -0.0132156 -0.158905 
-0.0132156 10.0164 -0.10928 
-0.158905 -0.10928 10.0176 
10.0398 -0.00373772 -0.149082 
-0.00373772 10.0158 -0.0879832 
-0.149082 -0.0879832 9.92348 
10.3543 0.181232 -0.0674606 
0.181232 10.8699 -0.139592 
-0.0674606 -0.139592 9.6618 
10.0526 -0.0326128 0.0341288 
-0.0326128 10.1276 0.142633 
0.0341288 0.142633 10.7059 
10.1464 -0.0674936 -0.0824391 
-0.0674936 10.228 -0.0147309 
-0.0824391 -0.0147309 10.5117 
10.2037 -0.0955862 -0.00421355 
-0.0955862 10.1296 -0.279372 
-0.00421355 -0.279372 10.5527 
9.95872 -0.00513741 -0.0351432 
-0.00513741 9.94782 0.230179 
-0.0351432 0.230179 10.0035 
9.95673 0.00148446 -0.0386924 
0.00148446 9.94341 0.251383 
-0.0386924 0.251383 10.0099 
9.97993 0.00468732 -0.0381884 
0.00468732 9.96496 0.23199 
-0.0381884 0.23199 9.96513 
9.98712 0.00881288 -0.0213059 
0.00881288 9.95434 0.233464 
-0.0213059 0.233464 9.96855 
9.87955 -0.0329151 -0.112464 
-0.0329151 9.81749 0.0734298 
-0.112464 0.0734298 9.87105 
9.80348 0.103165 -0.0445921 
0.103165 9.78379 0.0351894 
-0.0445921 0.0351894 9.98082 
9.87436 -0.0268902 -0.107921 
-0.0268902 9.8706 0.0577473 
-0.107921 0.0577473 9.82312 
9.79715 0.0151136 -0.115875 
0.0151136 9.8355 0.142836 
-0.115875 0.142836 9.93544 
9.98965 0.0143073 -0.134086 
0.0143073 9.97543 0.20309 
-0.134086 0.20309 9.98199 
9.99541 0.01012 -0.13285 
0.01012 9.9762 0.210467 
-0.13285 0.210467 9.97546 
9.97469 0.00835561 -0.124409 
0.00835561 9.96362 0.215699 
-0.124409 0.215699 10.0088 
9.99713 0.00904574 -0.132992 
0.00904574 9.98849 0.203545 
-0.132992 0.203545 9.96146 
10.4122 0.0487961 0.142997 
0.0487961 10.3681 -0.0751545 
0.142997 -0.0751545 10.7525 
10.425 0.012198 0.106252 
0.012198 10.452 -0.0253503 
0.106252 -0.0253503 10.6559 
10.358 0.0219029 0.0433934 
0.0219029 10.3513 -0.0703012 
0.0433934 -0.0703012 10.8236 
10.4491 0.0259463 0.136405 
0.0259463 10.4962 -0.0190001 
0.136405 -0.0190001 10.5875 
2.92721 0.769033 2.16931 
0.769033 1.14528 0.119517 
2.16931 0.119517 11.106 
13.7135 -3.54376 -5.41048 
-3.54376 8.60481 0.472036 
-5.41048 0.472036 -7.13979 
10.1961 -0.315342 -3.48359 
-0.315342 7.71797 2.47038 
-3.48359 2.47038 -2.73563 
0.648706 2.25481 -7.21 
2.25481 7.48441 4.93606 
-7.21 4.93606 7.04537 
9.88691 -0.0199262 -0.0465215 
-0.0199262 9.85092 -0.212983 
-0.0465215 -0.212983 9.9052 
9.89954 -0.00927585 -0.0684717 
-0.00927585 9.83775 -0.228806 
-0.0684717 -0.228806 9.90574 
9.88521 -0.0077456 -0.0639352 
-0.0077456 9.85531 -0.216404 
-0.0639352 -0.216404 9.90251 
9.86526 0.0102861 -0.0457615 
0.0102861 9.85427 -0.256309 
-0.0457615 -0.256309 9.9235 
9.64276 -0.288066 -1.18382 
-0.288066 8.98618 -0.13882 
-1.18382 -0.13882 8.61974 
10.3748 0.0398744 -1.20354 
0.0398744 8.85081 -0.113451 
-1.20354 -0.113451 8.02311 
9.92735 0.432436 -1.57221 
0.432436 8.82115 -1.41547 
-1.57221 -1.41547 8.50017 
9.64615 -0.0542536 -0.390509 
-0.0542536 9.37473 -1.54285 
-0.390509 -1.54285 8.22779 
10.0422 -0.157034 0.0674973 
-0.157034 9.71382 -0.0214174 
0.0674973 -0.0214174 10.8866 
9.85291 -0.470159 -0.0694725 
-0.470159 10.3274 0.0387909 
-0.0694725 0.0387909 10.4622 
10.0567 -0.259372 -0.224995 
-0.259372 9.99953 0.239227 
-0.224995 0.239227 10.5864 
10.0108 -0.405994 -0.329547 
-0.405994 10.0379 0.0686952 
-0.329547 0.0686952 10.5939 
9.84647 0.0434431 0.138824 
0.0434431 9.8164 0.0892003 
0.138824 0.0892003 9.80364 
9.7721 -0.108973 0.0742815 
-0.108973 9.79687 0.0783235 
0.0742815 0.0783235 9.89755 
9.84475 0.0191951 0.161433 
0.0191951 9.7789 0.0812625 
0.161433 0.0812625 9.84286 
9.76003 -0.0105512 0.144423 
-0.0105512 9.79857 0.138939 
0.144423 0.138939 9.90792 
9.70323 0.0900941 0.141704 
0.0900941 9.68012 -0.178558 
0.141704 -0.178558 10.0938 
9.6578 0.0956739 0.220542 
0.0956739 9.73453 -0.182547 
0.220542 -0.182547 10.0848 
9.73912 0.114325 0.200957 
0.114325 9.7118 -0.195494 
0.200957 -0.195494 10.0262 
9.78868 0.08256 0.219466 
0.08256 9.69933 -0.178491 
0.219466 -0.178491 9.98914 
8.47523 -2.00044 -1.57372 
-2.00044 6.32443 -0.289051 
-1.57372 -0.289051 3.33202 
9.02261 -0.0214095 -2.44366 
-0.0214095 6.62932 -1.33597 
-2.44366 -1.33597 2.47974 
9.61571 0.624364 -1.16523 
0.624364 6.96183 0.356893 
-1.16523 0.356893 1.55413 
8.88215 -1.02536 -1.0114 
-1.02536 6.49285 -0.700435 
-1.0114 -0.700435 2.75668 
9.66126 -0.0491579 0.541636 
-0.0491579 9.98155 -0.311829 
0.541636 -0.311829 8.53845 
9.35429 -0.0600902 0.256457 
-0.0600902 9.72875 -0.406554 
0.256457 -0.406554 9.09822 
9.80889 0.0297367 0.332178 
0.0297367 9.75675 -0.075217 
0.332178 -0.075217 8.61562 
9.92845 -0.0726764 0.285198 
-0.0726764 9.58209 -0.301588 
0.285198 -0.301588 8.67073 
11.4889 -2.73208 1.04437 
-2.73208 8.66846 1.37425 
1.04437 1.37425 -9.55961 
8.79914 -0.332053 0.209347 
-0.332053 7.31287 -2.0999 
0.209347 -2.0999 -5.51425 
-0.556766 0.732674 -1.78723 
0.732674 -2.49251 -0.749659 
-1.78723 -0.749659 13.647 
1.90026 0.683339 10.819 
0.683339 7.79283 -6.84344 
10.819 -6.84344 0.904669 
9.87075 -0.0788212 0.124097 
-0.0788212 9.73158 0.248365 
0.124097 0.248365 10.0285 
9.8853 -0.0397666 0.132926 
-0.0397666 9.78807 0.230636 
0.132926 0.230636 9.95746 
9.90458 -0.00538369 0.153195 
-0.00538369 9.80185 0.242958 
0.153195 0.242958 9.9244 
9.88497 -0.043508 0.107111 
-0.043508 9.80999 0.216563 
0.107111 0.216563 9.93587 
10.0541 0.0470984 -0.015976 
0.0470984 9.99242 -0.0267704 
-0.015976 -0.0267704 9.97998 
10.0023 0.0535861 -0.0561392 
0.0535861 9.98647 0.0599967 
-0.0561392 0.0599967 10.0377 
9.97964 -0.0278624 0.0316996 
-0.0278624 10.045 -0.0311564 
0.0316996 -0.0311564 10.0018 
10.0125 0.0150327 0.0243129 
0.0150327 9.95311 0.0217925 
0.0243129 0.0217925 10.0609 
9.70926 0.0298891 -0.0262448 
0.0298891 9.75849 0.249284 
-0.0262448 0.249284 9.83603 
9.87259 0.000488949 -0.0247375 
0.000488949 9.6852 0.207904 
-0.0247375 0.207904 9.746 
9.76024 0.0956469 -0.0529921 
0.0956469 9.64679 0.211367 
-0.0529921 0.211367 9.89676 
9.83519 0.0603427 -0.0795358 
0.0603427 9.64554 0.144872 
-0.0795358 0.144872 9.82306 
11.7907 -4.74413 -3.03888 
-4.74413 7.91565 -5.36525 
-3.03888 -5.36525 5.59582 
8.16938 -0.964055 -0.723745 
-0.964055 9.48898 -2.68166 
-0.723745 -2.68166 7.64384 
5.74951 0.390831 0.186614 
0.390831 11.5879 -2.74901 
0.186614 -2.74901 7.96479 
10.7923 -2.71123 5.1203 
-2.71123 5.85527 0.81058 
5.1203 0.81058 8.65459 
9.8641 -0.136821 0.194349 
-0.136821 9.73133 0.190407 
0.194349 0.190407 10.1212 
9.78143 -0.0453947 0.162417 
-0.0453947 9.81182 0.196035 
0.162417 0.196035 10.1234 
10.0253 -0.181161 0.175679 
-0.181161 9.61398 0.271382 
0.175679 0.271382 10.0774 
9.76811 -0.153369 0.268709 
-0.153369 9.81899 0.0860998 
0.268709 0.0860998 10.1295 
9.88021 -0.0353735 0.154788 
-0.0353735 9.83132 0.211205 
0.154788 0.211205 9.95049 
9.87617 -0.0477753 0.155707 
-0.0477753 9.84432 0.180365 
0.155707 0.180365 9.94154 
9.86249 -0.0239536 0.149725 
-0.0239536 9.87551 0.196123 
0.149725 0.196123 9.92402 
9.86875 -0.0323104 0.135708 
-0.0323104 9.83964 0.200965 
0.135708 0.200965 9.95363 
9.86508 -0.0234567 0.114792 
-0.0234567 9.8446 0.170475 
0.114792 0.170475 9.89126 
9.84513 0.0219023 0.148098 
0.0219023 9.89041 0.187132 
0.148098 0.187132 9.8654 
9.85059 -0.0143218 0.130147 
-0.0143218 9.85675 0.179741 
0.130147 0.179741 9.8936 
9.83575 -0.0194857 0.123537 
-0.0194857 9.86568 0.185585 
0.123537 0.185585 9.89951 
9.86571 -0.582672 0.726185 
-0.582672 7.17622 -0.795373 
0.726185 -0.795373 -5.00379 
5.05783 0.473472 1.84612 
0.473472 3.95456 -0.281517 
1.84612 -0.281517 3.02574 
4.71232 0.0425948 1.39291 
0.0425948 1.67235 -0.5191 
1.39291 -0.5191 5.65347 
5.74705 -0.0307221 6.45349 
-0.0307221 1.67618 0.890096 
6.45349 0.890096 4.61491 
2.42376 4.28229 1.18321 
4.28229 10.2217 0.69944 
1.18321 0.69944 21.8878 
4.80748 1.50472 0.0775491 
1.50472 10.9614 -0.689809 
0.0775491 -0.689809 18.7644 
9.26994 0.870971 -2.0968 
0.870971 14.5183 0.605962 
-2.0968 0.605962 10.745 
9.62592 0.585705 1.75922 
0.585705 11.5381 -2.24965 
1.75922 -2.24965 13.3693 
9.85319 -0.0442138 0.159255 
-0.0442138 9.86856 0.158725 
0.159255 0.158725 9.95163 
9.80194 -0.0905424 0.148975 
-0.0905424 9.85522 0.159545 
0.148975 0.159545 10.0162 
9.85022 -0.0184388 0.20177 
-0.0184388 9.83309 0.20266 
0.20177 0.20266 9.99007 
9.83347 -0.0274202 0.162385 
-0.0274202 9.86589 0.164913 
0.162385 0.164913 9.97401 
9.90516 0.0183698 -0.2036 
0.0183698 9.90867 0.171837 
-0.2036 0.171837 9.91239 
9.91792 0.0234168 -0.201789 
0.0234168 9.89215 0.186309 
-0.201789 0.186309 9.91615 
9.90999 0.0326075 -0.197575 
0.0326075 9.92328 0.202591 
-0.197575 0.202591 9.89295 
9.91 0.0084234 -0.19148 
0.0084234 9.9179 0.181635 
-0.19148 0.181635 9.89832 
7.42004 0.655057 -1.79825 
0.655057 10.8367 -4.46008 
-1.79825 -4.46008 6.31801 
6.0481 0.00968925 0.680662 
0.00968925 12.2735 -1.0404 
0.680662 -1.0404 6.25322 
6.96109 0.648881 1.9076 
0.648881 9.09897 -2.02107 
1.9076 -2.02107 8.51472 
9.29227 0.426659 -0.878063 
0.426659 10.7018 -0.855538 
-0.878063 -0.855538 4.58071 
10.5278 -0.0476802 -0.142224 
-0.0476802 10.2591 -0.326067 
-0.142224 -0.326067 11.4221 
10.8775 0.000859554 0.17415 
0.000859554 10.7901 0.199369 
0.17415 0.199369 10.5413 
10.7225 0.179875 0.391217 
0.179875 11.2821 0.214088 
0.391217 0.214088 10.2044 
10.6385 -0.356974 0.151797 
-0.356974 10.4522 0.25048 
0.151797 0.25048 11.1183 
9.96922 0.00864974 -0.00381058 
0.00864974 9.94297 0.0379377 
-0.00381058 0.0379377 10.005 
9.9942 -0.0123597 0.00258996 
-0.0123597 9.92575 -0.00115463 
0.00258996 -0.00115463 9.99726 
9.98219 -0.00526045 -0.00587139 
-0.00526045 9.9593 0.0121082 
-0.00587139 0.0121082 9.97572 
9.99217 -0.0123245 -0.0197801 
-0.0123245 10.0022 -0.00978796 
-0.0197801 -0.00978796 9.92285 
9.89148 -0.0533249 0.00114868 
-0.0533249 9.91761 0.00801845 
0.00114868 0.00801845 10.0045 
9.93712 -0.0162874 -0.0146798 
-0.0162874 9.9216 -0.0186002 
-0.0146798 -0.0186002 9.95492 
9.9422 0.0296485 -0.0195304 
0.0296485 9.9298 -0.0206278 
-0.0195304 -0.0206278 9.94163 
9.95863 -0.0191644 -0.0553296 
-0.0191644 9.8791 -0.00897446 
-0.0553296 -0.00897446 9.97591 
9.57621 -0.344284 0.428037 
-0.344284 10.4898 0.617293 
0.428037 0.617293 8.81223 
9.49312 -0.352382 0.627845 
-0.352382 10.4081 0.145662 
0.627845 0.145662 8.97703 
9.77581 -0.310366 0.423856 
-0.310366 10.1659 0.164761 
0.423856 0.164761 8.93655 
9.74036 0.444488 0.5952 
0.444488 9.85092 0.489017 
0.5952 0.489017 9.28693 
9.83197 0.0361713 0.0384996 
0.0361713 9.93181 -0.0288622 
0.0384996 -0.0288622 10.022 
9.92857 -0.082276 -0.174794 
-0.082276 9.86009 0.10594 
-0.174794 0.10594 9.99714 
9.87764 0.00329306 0.109493 
0.00329306 9.96786 -0.0491563 
0.109493 -0.0491563 9.9403 
9.72629 0.0988438 0.013641 
0.0988438 10.007 -0.0378546 
0.013641 -0.0378546 10.0525 
9.79438 -0.0298931 0.0998051 
-0.0298931 9.77091 0.0920293 
0.0998051 0.0920293 9.93288 
9.78569 -0.00507186 0.08352 
-0.00507186 9.83674 0.130611 
0.08352 0.130611 9.87574 
9.78271 -0.0220786 0.0845862 
-0.0220786 9.80888 0.127572 
0.0845862 0.127572 9.90657 
9.80889 -0.0368306 0.109014 
-0.0368306 9.77228 0.132378 
0.109014 0.132378 9.917 
9.93113 0.00671817 -0.0175598 
0.00671817 9.90036 0.231904 
-0.0175598 0.231904 9.92453 
9.91898 0.00623506 -0.0305151 
0.00623506 9.90734 0.236858 
-0.0305151 0.236858 9.92971 
9.92159 -3.44387e-05 -0.0277588 
-3.44387e-05 9.89612 0.245045 
-0.0277588 0.245045 9.93831 
9.93093 0.00426127 -0.0233048 
0.00426127 9.90507 0.247441 
-0.0233048 0.247441 9.92002 
10.1425 -0.069878 -0.0266165 
-0.069878 10.1081 -0.0429531 
-0.0266165 -0.0429531 10.4139 
10.133 -0.219914 -0.0147438 
-0.219914 10.0636 -0.0497314 
-0.0147438 -0.0497314 10.4679 
10.1954 -0.220881 0.0128509 
-0.220881 10.1169 -0.0120408 
0.0128509 -0.0120408 10.3522 
10.0124 -0.0219339 0.128828 
-0.0219339 10.2156 0.109521 
0.128828 0.109521 10.4366 
4.76944 2.78642 2.78255 
2.78642 16.4332 -7.48608 
2.78255 -7.48608 -3.82134 
10.5932 -2.13014 0.973741 
-2.13014 19.7426 -9.55463 
0.973741 -9.55463 -12.9545 
-1.91444 -4.44413 -1.3301 
-4.44413 2.5085 3.65805 
-1.3301 3.65805 16.7873 
8.63579 3.34175 0.4624 
3.34175 -3.1905 -11.5875 
0.4624 -11.5875 11.936 
9.6753 0.082551 -0.270534 
0.082551 9.8801 -0.120443 
-0.270534 -0.120443 9.63234 
9.70648 0.099933 -0.424034 
0.099933 9.9998 -0.166935 
-0.424034 -0.166935 9.48147 
9.62443 -0.141715 -0.384492 
-0.141715 9.98614 -0.151547 
-0.384492 -0.151547 9.57718 
9.72252 -0.0509626 -0.387096 
-0.0509626 9.88574 -0.055736 
-0.387096 -0.055736 9.57949 
9.07872 -0.787839 0.625481 
-0.787839 10.2616 0.21783 
0.625481 0.21783 10.1115 
8.04796 -0.205999 1.08978 
-0.205999 10.7154 0.134783 
1.08978 0.134783 10.6884 
8.82764 -0.573767 0.50424 
-0.573767 10.2407 0.108034 
0.50424 0.108034 10.3834 
9.6653 0.0907449 0.707906 
0.0907449 10.2047 -0.168605 
0.707906 -0.168605 9.58175 
10.0131 0.0200955 -0.00825498 
0.0200955 9.982 -0.0092221 
-0.00825498 -0.0092221 9.99458 
10.0101 -0.00874234 0.00676642 
-0.00874234 9.98839 -0.00382142 
0.00676642 -0.00382142 9.99119 
10.0037 -0.0092274 -0.00194185 
-0.0092274 9.9847 -0.00160991 
-0.00194185 -0.00160991 10.0013 
10.0066 0.00263003 0.0059168 
0.00263003 9.98766 -0.00746024 
0.0059168 -0.00746024 9.99536 
9.96361 0.00786833 -0.00608641 
0.00786833 9.97286 0.000486156 
-0.00608641 0.000486156 9.96833 
9.96607 0.00198237 -0.00550575 
0.00198237 9.9743 0.00237729 
-0.00550575 0.00237729 9.96443 
9.96434 -0.00389036 -0.00541599 
-0.00389036 9.97703 0.00682372 
-0.00541599 0.00682372 9.96342 
9.96532 0.00225374 -0.0041571 
0.00225374 9.97506 0.00181531 
-0.0041571 0.00181531 9.96441 
9.97102 -0.00317675 0.00553019 
-0.00317675 9.98614 0.00307315 
0.00553019 0.00307315 9.97174 
9.96601 -0.0146859 0.00661902 
-0.0146859 9.98987 -0.00780656 
0.00661902 -0.00780656 9.97302 
9.96498 0.0138462 0.00666245 
0.0138462 9.98171 0.00279823 
0.00666245 0.00279823 9.98222 
9.9726 0.00589947 0.00441474 
0.00589947 9.98876 0.000589978 
0.00441474 0.000589978 9.96754 
9.92408 -0.0215917 0.126719 
-0.0215917 9.92361 0.183773 
0.126719 0.183773 9.94985 
9.91408 -0.000398916 0.122406 
-0.000398916 9.90799 0.209689 
0.122406 0.209689 9.97546 
9.93665 -0.0232651 0.141724 
-0.0232651 9.91647 0.196893 
0.141724 0.196893 9.94441 
9.91054 -0.0121622 0.132239 
-0.0121622 9.90935 0.190715 
0.132239 0.190715 9.97765 
9.96229 -0.00466007 -0.234164 
-0.00466007 9.95421 0.0793614 
-0.234164 0.0793614 10.0024 
9.94935 -0.00600837 -0.226215 
-0.00600837 9.96885 0.0730141 
-0.226215 0.0730141 10.0007 
9.95799 0.00283671 -0.229287 
0.00283671 9.97848 0.0767235 
-0.229287 0.0767235 9.98248 
9.96609 0.00897272 -0.226205 
0.00897272 9.98014 0.075904 
-0.226205 0.075904 9.97271 
9.95006 -0.000174604 0.0452511 
-0.000174604 9.86882 -0.241366 
0.0452511 -0.241366 9.84143 
9.9258 0.0105721 0.0454489 
0.0105721 9.87553 -0.241552 
0.0454489 -0.241552 9.85897 
9.92292 0.0114988 0.0524169 
0.0114988 9.88548 -0.234035 
0.0524169 -0.234035 9.85191 
9.93828 0.0022603 0.045934 
0.0022603 9.88252 -0.264614 
0.045934 -0.264614 9.8395 
9.95003 0.00192294 -0.134597 
0.00192294 9.94925 0.215223 
-0.134597 0.215223 9.97764 
9.95255 0.00688298 -0.126587 
0.00688298 9.94426 0.211966 
-0.126587 0.211966 9.98011 
9.95037 0.0024669 -0.125111 
0.0024669 9.95356 0.194984 
-0.125111 0.194984 9.97299 
9.9563 0.0103812 -0.137654 
0.0103812 9.94438 0.210913 
-0.137654 0.210913 9.97624 
10.2706 -0.0247268 -0.0225955 
-0.0247268 10.2277 0.0863855 
-0.0225955 0.0863855 10.2443 
10.0908 0.105463 -0.145743 
0.105463 10.0211 0.0629861 
-0.145743 0.0629861 10.6306 
10.5051 -0.0165725 0.0269982 
-0.0165725 10.3288 -0.0220464 
0.0269982 -0.0220464 9.90872 
10.2727 -0.00298466 0.0702135 
-0.00298466 10.2003 0.240285 
0.0702135 0.240285 10.2696 
9.81063 -0.0337119 0.20515 
-0.0337119 9.86781 0.0628476 
0.20515 0.0628476 9.89539 
9.85369 -0.00908988 0.220601 
-0.00908988 9.84604 0.0669089 
0.220601 0.0669089 9.8741 
9.8498 -0.00913218 0.220355 
-0.00913218 9.84894 0.06399 
0.220355 0.06399 9.87508 
9.84285 0.00289911 0.228505 
0.00289911 9.85019 0.0735452 
0.228505 0.0735452 9.88078 
9.95732 0.016422 -0.211644 
0.016422 9.9584 0.147578 
-0.211644 0.147578 10.01 
9.96395 0.0200311 -0.209907 
0.0200311 9.96204 0.13736 
-0.209907 0.13736 9.99968 
9.95342 0.0154699 -0.210379 
0.0154699 9.95881 0.133405 
-0.210379 0.133405 10.0134 
9.96531 0.014269 -0.215952 
0.014269 9.96116 0.152478 
-0.215952 0.152478 9.9992 
9.89007 0.00324649 -0.246016 
0.00324649 9.9008 0.0852087 
-0.246016 0.0852087 9.93787 
9.87899 0.0270835 -0.235246 
0.0270835 9.92673 0.0952544 
-0.235246 0.0952544 9.92303 
9.89038 0.0130725 -0.216487 
0.0130725 9.9178 0.0825033 
-0.216487 0.0825033 9.92057 
9.89131 0.00935964 -0.237114 
0.00935964 9.8998 0.0899553 
-0.237114 0.0899553 9.93763 
9.9594 0.0211171 -0.207404 
0.0211171 9.97347 0.150794 
-0.207404 0.150794 9.96179 
9.96568 -0.00585657 -0.221816 
-0.00585657 9.9878 0.150143 
-0.221816 0.150143 9.94119 
9.95556 0.000806826 -0.192938 
0.000806826 9.96281 0.141487 
-0.192938 0.141487 9.97629 
9.95262 0.0303751 -0.210489 
0.0303751 9.96985 0.161409 
-0.210489 0.161409 9.97219 
9.8239 0.00398106 0.0339821 
0.00398106 9.80023 -0.187508 
0.0339821 -0.187508 9.80444 
9.78 0.0037895 0.0382881 
0.0037895 9.844 -0.171556 
0.0382881 -0.171556 9.80457 
9.82908 0.0292503 0.0284232 
0.0292503 9.73687 -0.235634 
0.0284232 -0.235634 9.86262 
9.81228 -0.0092575 0.00218688 
-0.0092575 9.75708 -0.192134 
0.00218688 -0.192134 9.85921 
9.81062 -0.017231 -0.0367392 
-0.017231 9.6915 -0.182034 
-0.0367392 -0.182034 9.87905 
9.74675 0.0136697 -0.0176851 
0.0136697 9.8655 -0.0931781 
-0.0176851 -0.0931781 9.76892 
9.85864 -0.0215909 -0.0471109 
-0.0215909 9.72462 -0.117004 
-0.0471109 -0.117004 9.7979 
9.8233 0.0418115 -0.00291526 
0.0418115 9.70682 -0.148608 
-0.00291526 -0.148608 9.85105 
9.90417 0.00509845 0.194734 
0.00509845 9.90305 0.163975 
0.194734 0.163975 9.96562 
9.91931 -0.0172864 0.152471 
-0.0172864 9.91922 0.139311 
0.152471 0.139311 9.93431 
9.90957 -0.0303775 0.167677 
-0.0303775 9.91437 0.156076 
0.167677 0.156076 9.9489 
9.90127 -0.0137453 0.167917 
-0.0137453 9.90452 0.153266 
0.167917 0.153266 9.96705 
12.4146 1.10435 1.15659 
1.10435 4.71648 1.49289 
1.15659 1.49289 23.1077 
17.608 0.524427 -0.24697 
0.524427 12.6861 -3.82032 
-0.24697 -3.82032 9.94476 
12.1455 -1.83531 -1.89377 
-1.83531 3.58994 1.78511 
-1.89377 1.78511 24.5034 
12.0196 -0.351703 0.118411 
-0.351703 15.0663 4.81954 
0.118411 4.81954 13.1529 
9.73413 -0.0289005 0.128416 
-0.0289005 9.74222 0.10896 
0.128416 0.10896 9.93905 
9.76016 -0.0276084 0.130003 
-0.0276084 9.73837 0.119746 
0.130003 0.119746 9.91687 
9.75069 -0.0379087 0.137117 
-0.0379087 9.74756 0.12001 
0.137117 0.12001 9.91716 
9.75607 -0.0300737 0.133974 
-0.0300737 9.75431 0.115522 
0.133974 0.115522 9.90503 
10.4347 -0.145443 0.0362563 
-0.145443 9.55339 -0.197617 
0.0362563 -0.197617 10.4215 
10.5388 -0.216023 0.0718652 
-0.216023 9.53421 -0.200024 
0.0718652 -0.200024 10.3366 
10.4233 -0.268985 0.0624497 
-0.268985 9.46539 -0.258858 
0.0624497 -0.258858 10.5209 
10.4561 -0.269589 0.0773611 
-0.269589 9.48332 -0.306942 
0.0773611 -0.306942 10.4702 
9.08517 -0.54491 -0.325663 
-0.54491 9.45909 -0.410987 
-0.325663 -0.410987 9.81559 
9.14131 -0.657839 -0.410611 
-0.657839 9.40665 -0.433077 
-0.410611 -0.433077 9.81189 
8.94779 -0.357282 -0.432999 
-0.357282 9.5114 -0.343309 
-0.432999 -0.343309 9.90066 
9.23532 -0.800843 -0.542198 
-0.800843 9.39961 -0.550392 
-0.542198 -0.550392 9.72492 
9.8103 0.129513 0.0317411 
0.129513 9.74315 -0.0464969 
0.0317411 -0.0464969 9.94404 
9.78589 -0.0474471 0.0759041 
-0.0474471 9.89349 -0.089262 
0.0759041 -0.089262 9.81811 
9.80198 -0.0179984 0.10302 
-0.0179984 9.83416 -0.0874057 
0.10302 -0.0874057 9.86134 
9.72468 0.0425696 0.0950878 
0.0425696 9.82571 -0.182064 
0.0950878 -0.182064 9.9471 
9.91016 -0.00586967 0.118551 
-0.00586967 9.82378 0.245047 
0.118551 0.245047 9.86965 
9.895 -0.0484851 0.153916 
-0.0484851 9.80225 0.24671 
0.153916 0.24671 9.90635 
9.92993 0.00611969 0.0984306 
0.00611969 9.8049 0.25735 
0.0984306 0.25735 9.86877 
9.87137 -0.0233631 0.130891 
-0.0233631 9.80305 0.237782 
0.130891 0.237782 9.92918 
10.3374 0.249332 -0.159429 
0.249332 10.2752 -0.137651 
-0.159429 -0.137651 11.3124 
10.62 0.0592024 0.0181029 
0.0592024 10.8978 0.0481256 
0.0181029 0.0481256 10.4072 
10.6052 -0.140024 0.121789 
-0.140024 10.9559 0.0289203 
0.121789 0.0289203 10.364 
10.7665 -0.263829 0.0097081 
-0.263829 10.4393 0.341355 
0.0097081 0.341355 10.7193 
9.9818 -0.00934198 -0.00482073 
-0.00934198 9.96483 0.00435399 
-0.00482073 0.00435399 9.98203 
9.97829 0.00370201 -0.00474879 
0.00370201 9.97866 0.000581303 
-0.00474879 0.000581303 9.97171 
9.9837 0.0117688 0.00434979 
0.0117688 9.97598 0.00716681 
0.00434979 0.00716681 9.96897 
9.98216 0.000896488 -0.00130106 
0.000896488 9.97392 0.00238868 
-0.00130106 0.00238868 9.97258 
9.81328 -0.0187261 0.183433 
-0.0187261 9.73864 -0.00436146 
0.183433 -0.00436146 9.812 
9.69135 0.0105971 0.186834 
0.0105971 9.84079 -0.00924547 
0.186834 -0.00924547 9.83178 
9.73702 0.0122537 0.19682 
0.0122537 9.80645 -0.0345192 
0.19682 -0.0345192 9.82044 
9.75011 -0.0141553 0.221116 
-0.0141553 9.81298 -0.0149888 
0.221116 -0.0149888 9.80082 
10.1226 0.125597 -0.130748 
0.125597 9.92201 0.127255 
-0.130748 0.127255 10.5729 
9.53118 -0.0451162 -0.0451805 
-0.0451162 10.877 -0.114021 
-0.0451805 -0.114021 10.2093 
9.85215 0.484113 0.27686 
0.484113 10.0888 -0.127306 
0.27686 -0.127306 10.6765 
9.54205 0.0580189 -0.156164 
0.0580189 10.3909 -0.175505 
-0.156164 -0.175505 10.6845 
5.26228 -0.0608268 0.981425 
-0.0608268 1.31658 0.895572 
0.981425 0.895572 7.17525 
10.0278 -0.187611 0.163128 
-0.187611 5.35942 0.213544 
0.163128 0.213544 -1.63311 
8.99635 0.169715 0.674769 
0.169715 4.91301 -1.3639 
0.674769 -1.3639 -0.155253 
8.37653 0.922846 5.02673 
0.922846 4.93854 -0.965865 
5.02673 -0.965865 0.439039 
9.96702 -0.00847088 -0.181126 
-0.00847088 9.96858 -0.177062 
-0.181126 -0.177062 9.98068 
9.94869 -0.00884529 -0.168054 
-0.00884529 9.96578 -0.163736 
-0.168054 -0.163736 10.0018 
9.96442 -0.0034614 -0.178318 
-0.0034614 9.97319 -0.180382 
-0.178318 -0.180382 9.97867 
9.96867 -0.0137654 -0.180273 
-0.0137654 9.96571 -0.184992 
-0.180273 -0.184992 9.98191 
10.3614 0.482474 -0.00471003 
0.482474 9.89388 0.0759743 
-0.00471003 0.0759743 10.4397 
9.98159 0.276709 0.199887 
0.276709 10.0519 0.248111 
0.199887 0.248111 10.6615 
9.64049 0.0643899 -0.0565756 
0.0643899 10.1116 -0.0618349 
-0.0565756 -0.0618349 10.943 
9.91283 0.325347 0.116475 
0.325347 10.1439 0.238527 
0.116475 0.238527 10.6383 
10.1608 -0.839332 -0.965401 
-0.839332 11.4383 -0.714681 
-0.965401 -0.714681 15.9965 
12.3615 -0.870227 -0.410756 
-0.870227 12.8199 -0.118804 
-0.410756 -0.118804 12.4142 
12.3447 -0.912428 -0.192658 
-0.912428 12.7431 -0.353537 
-0.192658 -0.353537 12.5077 
11.4635 -1.79581 1.3499 
-1.79581 12.2671 1.70269 
1.3499 1.70269 13.8649 
9.70239 -0.117161 0.131466 
-0.117161 9.73725 0.154545 
0.131466 0.154545 10.3426 
9.75451 -0.107291 -0.0434717 
-0.107291 9.58129 0.135479 
-0.0434717 0.135479 10.4465 
9.90229 -0.0450856 0.152834 
-0.0450856 9.83023 0.0835563 
0.152834 0.0835563 10.0498 
9.67799 -0.166904 0.185452 
-0.166904 9.70444 0.210156 
0.185452 0.210156 10.3998 
9.88455 -0.0058514 -0.24378 
-0.0058514 9.95184 0.117933 
-0.24378 0.117933 9.96492 
9.90926 0.0115706 -0.241979 
0.0115706 9.95786 0.110926 
-0.241979 0.110926 9.93419 
9.9033 -0.00314238 -0.213632 
-0.00314238 9.94621 0.0692993 
-0.213632 0.0692993 9.95179 
9.90652 0.0129934 -0.196961 
0.0129934 9.95439 0.0824671 
-0.196961 0.0824671 9.9404 
10.9125 0.0761329 0.031821 
0.0761329 10.4781 0.0237775 
0.031821 0.0237775 10.5599 
10.788 0.0580824 0.0212743 
0.0580824 10.6373 0.040137 
0.0212743 0.040137 10.5252 
10.3806 0.162283 0.0503853 
0.162283 10.5753 0.133679 
0.0503853 0.133679 10.9946 
10.7039 -0.05946 -0.0812094 
-0.05946 10.552 -0.0142821 
-0.0812094 -0.0142821 10.6946 
9.9488 0.0561569 0.0209874 
0.0561569 9.8544 -0.047054 
0.0209874 -0.047054 10.0089 
9.93437 0.0429415 -0.00115126 
0.0429415 9.90097 -0.0181979 
-0.00115126 -0.0181979 9.97675 
9.87975 -0.0289375 0.011209 
-0.0289375 10.0145 -0.0160621 
0.011209 -0.0160621 9.91781 
9.93047 0.025249 -0.000588696 
0.025249 9.87313 0.0154548 
-0.000588696 0.0154548 10.0085 
9.86502 0.0153088 -0.226639 
0.0153088 9.88418 0.0812109 
-0.226639 0.0812109 9.89203 
9.84763 0.0101117 -0.220838 
0.0101117 9.8716 0.086279 
-0.220838 0.086279 9.92201 
9.85821 0.0213897 -0.222547 
0.0213897 9.88001 0.0822149 
-0.222547 0.0822149 9.90301 
9.86433 0.016518 -0.214967 
0.016518 9.86937 0.0851765 
-0.214967 0.0851765 9.90754 
9.99042 0.0591751 0.0113472 
0.0591751 9.96092 0.000358644 
0.0113472 0.000358644 10.1133 
9.99681 0.0814235 -0.100426 
0.0814235 10.0254 0.0439365 
-0.100426 0.0439365 10.0423 
10.0389 0.0244067 0.0530759 
0.0244067 9.95819 -0.0179476 
0.0530759 -0.0179476 10.0675 
9.96539 0.0869544 0.0195082 
0.0869544 9.9363 -0.0138062 
0.0195082 -0.0138062 10.1629 
13.6434 0.13073 -0.996206 
0.13073 13.8362 0.720272 
-0.996206 0.720272 13.2181 
10.7715 -0.00424132 -0.719015 
-0.00424132 11.047 -1.6647 
-0.719015 -1.6647 18.8791 
12.4126 0.424967 -1.74905 
0.424967 13.4643 0.295194 
-1.74905 0.295194 14.8207 
13.3059 1.31715 -1.81509 
1.31715 14.5976 -0.561841 
-1.81509 -0.561841 12.794 
9.99547 -0.0135513 0.00196098 
-0.0135513 9.98842 -0.0414936 
0.00196098 -0.0414936 10.0434 
9.98176 -0.0331274 -0.0147725 
-0.0331274 9.99567 0.0177788 
-0.0147725 0.0177788 10.0499 
9.92875 0.0153734 0.041816 
0.0153734 10.0726 0.00839687 
0.041816 0.00839687 10.0259 
9.95325 -0.00289206 0.023121 
-0.00289206 10.0674 -0.00228586 
0.023121 -0.00228586 10.0067 
9.98397 -0.00661483 0.0081558 
-0.00661483 9.98585 -0.00476202 
0.0081558 -0.00476202 10.0018 
9.97877 0.0019752 0.0159144 
0.0019752 9.99386 -0.000604274 
0.0159144 -0.000604274 9.99893 
9.98272 0.004062 -0.00555017 
0.004062 9.98967 -0.00839074 
-0.00555017 -0.00839074 9.99918 
9.974 0.000136848 -0.00154606 
0.000136848 9.98843 -0.00156126 
-0.00154606 -0.00156126 10.0091 
9.96936 -0.0130348 -0.0468713 
-0.0130348 9.97829 -0.236262 
-0.0468713 -0.236262 9.99628 
10.012 -0.00684129 -0.0485503 
-0.00684129 9.96969 -0.232513 
-0.0485503 -0.232513 9.9622 
9.98103 -0.0106074 -0.0402647 
-0.0106074 9.95456 -0.257127 
-0.0402647 -0.257127 10.0083 
10.0046 -0.0026175 -0.0384788 
-0.0026175 9.94797 -0.227327 
-0.0384788 -0.227327 9.99136 
9.97205 -0.0036538 -0.107501 
-0.0036538 9.96498 -0.211244 
-0.107501 -0.211244 9.97704 
9.95572 -0.00267336 -0.11349 
-0.00267336 9.95204 -0.202034 
-0.11349 -0.202034 10.0063 
9.95865 0.00385373 -0.113082 
0.00385373 9.96219 -0.211733 
-0.113082 -0.211733 9.99323 
9.98159 -0.00558865 -0.111194 
-0.00558865 9.9618 -0.213656 
-0.111194 -0.213656 9.97067 
9.2266 0.129406 -0.328473 
0.129406 9.90541 0.0703753 
-0.328473 0.0703753 9.93587 
9.53967 -0.00259391 -0.24528 
-0.00259391 9.75338 0.00117968 
-0.24528 0.00117968 9.77483 
9.48005 0.146122 -0.149513 
0.146122 9.75579 0.0581265 
-0.149513 0.0581265 9.83203 
9.46781 0.0355116 -0.175253 
0.0355116 9.80402 0.0280414 
-0.175253 0.0280414 9.79605 
9.80274 0.0410594 -0.0483876 
0.0410594 9.75749 0.181353 
-0.0483876 0.181353 9.83203 
9.80415 0.10605 -0.0399263 
0.10605 9.6815 0.155616 
-0.0399263 0.155616 9.90661 
9.74256 -0.000417032 -0.0566849 
-0.000417032 9.8649 0.141767 
-0.0566849 0.141767 9.7848 
9.80949 -0.012105 -0.0589525 
-0.012105 9.74082 0.188646 
-0.0589525 0.188646 9.84195 
9.82919 -0.0132264 -0.0822023 
-0.0132264 9.8706 -0.0816551 
-0.0822023 -0.0816551 9.90759 
9.85382 -0.0994194 -0.0499336 
-0.0994194 9.76962 -0.0525423 
-0.0499336 -0.0525423 9.98394 
9.83984 0.0372646 -0.0899774 
0.0372646 9.87384 -0.086298 
-0.0899774 -0.086298 9.8937 
9.77306 -0.030952 -0.080122 
-0.030952 9.88508 -0.13329 
-0.080122 -0.13329 9.94924 
9.98261 -0.0325338 0.122756 
-0.0325338 9.93838 0.221814 
0.122756 0.221814 9.64168 
9.80896 0.0166979 0.0893562 
0.0166979 9.92864 0.0731553 
0.0893562 0.0731553 9.82506 
9.99339 -0.0220041 0.107895 
-0.0220041 9.94965 0.175516 
0.107895 0.175516 9.61962 
9.9917 -0.00842112 0.196268 
-0.00842112 10.0282 0.130189 
0.196268 0.130189 9.54277 
9.95501 -0.00863371 0.0251698 
-0.00863371 9.99174 0.00274937 
0.0251698 0.00274937 10.0229 
9.95214 -0.00373343 0.00182871 
-0.00373343 10.0075 0.00454715 
0.00182871 0.00454715 10.01 
9.9724 0.0257641 0.0176297 
0.0257641 9.99104 0.0109081 
0.0176297 0.0109081 10.0062 
9.96128 0.00443882 0.0146898 
0.00443882 9.9945 0.00104484 
0.0146898 0.00104484 10.0138 
9.94062 -0.0162957 0.114789 
-0.0162957 9.93106 0.174403 
0.114789 0.174403 9.91917 
9.92112 0.0042692 0.122788 
0.0042692 9.92718 0.178823 
0.122788 0.178823 9.94255 
9.93071 -0.0051587 0.135399 
-0.0051587 9.9121 0.21343 
0.135399 0.21343 9.94804 
9.92701 -0.0078944 0.140129 
-0.0078944 9.9112 0.191733 
0.140129 0.191733 9.95264 
9.96901 0.00516288 -0.169466 
0.00516288 9.96532 0.194942 
-0.169466 0.194942 9.98378 
9.97275 0.0161497 -0.175447 
0.0161497 9.98318 0.189442 
-0.175447 0.189442 9.96218 
9.95229 -0.0120765 -0.157016 
-0.0120765 9.94249 0.180923 
-0.157016 0.180923 10.0233 
9.9926 0.0122579 -0.164424 
0.0122579 9.95654 0.20581 
-0.164424 0.20581 9.96897 
9.92525 0.0127156 -0.0194938 
0.0127156 9.86101 0.00415331 
-0.0194938 0.00415331 9.92192 
9.93401 -0.0184731 -0.0316478 
-0.0184731 9.85843 0.000287212 
-0.0316478 0.000287212 9.91575 
9.89017 -0.0475417 -0.0599252 
-0.0475417 9.85148 -0.0260573 
-0.0599252 -0.0260573 9.96653 
9.90951 -0.0323032 -0.00990989 
-0.0323032 9.82535 -0.0133621 
-0.00990989 -0.0133621 9.97332 
9.77999 -0.0293037 0.270071 
-0.0293037 9.92566 0.00307571 
0.270071 0.00307571 9.86549 
9.83252 -0.000113067 0.286398 
-0.000113067 9.95708 0.0311504 
0.286398 0.0311504 9.78154 
9.80895 -0.00425358 0.275851 
-0.00425358 9.9229 -0.0171155 
0.275851 -0.0171155 9.83928 
9.75223 -0.0295456 0.258279 
-0.0295456 9.87401 0.0358202 
0.258279 0.0358202 9.9449 
9.83822 -0.00511332 0.0935962 
-0.00511332 9.88477 -0.21049 
0.0935962 -0.21049 9.87529 
9.85409 0.0170065 0.109593 
0.0170065 9.85905 -0.203721 
0.109593 -0.203721 9.88514 
9.8845 0.0367161 0.0782572 
0.0367161 9.83163 -0.206462 
0.0782572 -0.206462 9.88215 
9.85412 0.0169785 0.0983346 
0.0169785 9.84921 -0.225495 
0.0983346 -0.225495 9.89494 
9.93911 0.00981662 0.147637 
0.00981662 9.94532 0.201146 
0.147637 0.201146 9.98741 
9.95064 -0.0127685 0.145484 
-0.0127685 9.94682 0.200721 
0.145484 0.200721 9.97439 
9.943 0.00346114 0.129489 
0.00346114 9.95271 0.182424 
0.129489 0.182424 9.97613 
9.94799 -0.0222752 0.147376 
-0.0222752 9.94186 0.200699 
0.147376 0.200699 9.98199 
10.2319 -0.000455839 0.628869 
-0.000455839 9.60139 -0.222482 
0.628869 -0.222482 8.03125 
10.4931 0.170593 0.150568 
0.170593 9.41273 -0.915249 
0.150568 -0.915249 7.95876 
9.97118 -0.0250494 0.162728 
-0.0250494 9.20913 -0.64447 
0.162728 -0.64447 8.68426 
10.0974 0.0544525 0.264927 
0.0544525 9.49654 -0.55754 
0.264927 -0.55754 8.27068 
17.6591 -3.02487 -10.0772 
-3.02487 6.45405 -0.134201 
-10.0772 -0.134201 -4.59894 
15.4941 1.69025 -9.24886 
1.69025 7.20861 1.73602 
-9.24886 1.73602 -3.18853 
4.44577 -0.910826 2.53163 
-0.910826 0.356158 -2.40345 
2.53163 -2.40345 14.7123 
-2.10735 1.73739 -9.97517 
1.73739 8.93708 -1.48708 
-9.97517 -1.48708 12.6845 
9.8488 0.00224474 -0.0104831 
0.00224474 9.81332 0.241486 
-0.0104831 0.241486 9.89457 
9.86115 0.0116788 -0.0278959 
0.0116788 9.82783 0.23677 
-0.0278959 0.23677 9.86771 
9.86661 0.00476834 -0.0159745 
0.00476834 9.84978 0.247371 
-0.0159745 0.247371 9.8403 
9.85466 0.00211409 -0.0279246 
0.00211409 9.84648 0.237749 
-0.0279246 0.237749 9.85556 
9.96973 0.00165213 -0.000153733 
0.00165213 9.97542 -0.252821 
-0.000153733 -0.252821 9.98291 
9.9763 0.00312804 -0.00154775 
0.00312804 9.97637 -0.253894 
-0.00154775 -0.253894 9.9754 
9.96124 0.00306405 0.000638773 
0.00306405 9.96129 -0.251071 
0.000638773 -0.251071 10.0055 
9.96351 -0.00299564 0.00366006 
-0.00299564 9.97296 -0.256304 
0.00366006 -0.256304 9.99159 
9.9646 0.0106271 0.23531 
0.0106271 9.98119 -0.00291804 
0.23531 -0.00291804 9.99305 
9.96223 0.000643426 0.240852 
0.000643426 9.96853 0.00258554 
0.240852 0.00258554 10.0081 
9.97234 -0.00243059 0.245644 
-0.00243059 9.99293 0.000483971 
0.245644 0.000483971 9.97357 
9.97351 -0.00451898 0.248377 
-0.00451898 9.99137 -0.00574675 
0.248377 -0.00574675 9.97396 
9.96143 -0.00214369 -0.00189558 
-0.00214369 9.95785 0.250484 
-0.00189558 0.250484 10.0093 
9.96578 -0.00888953 -0.00238627 
-0.00888953 9.97594 0.25121 
-0.00238627 0.25121 9.9869 
9.96701 0.000191521 -0.000489404 
0.000191521 9.97559 0.253587 
-0.000489404 0.253587 9.98601 
9.9787 0.000388932 -0.00245986 
0.000388932 9.97598 0.254983 
-0.00245986 0.254983 9.97394 
9.97859 -0.000518391 -0.256228 
-0.000518391 9.97911 0.00150128 
-0.256228 0.00150128 9.97451 
9.97368 0.00176269 -0.258452 
0.00176269 9.96751 -0.00242724 
-0.258452 -0.00242724 9.99102 
9.9639 -0.0020222 -0.252029 
-0.0020222 9.96496 -8.96117e-05 
-0.252029 -8.96117e-05 10.0033 
9.97891 -0.00359844 -0.25409 
-0.00359844 9.96571 0.00111053 
-0.25409 0.00111053 9.98759 
9.86547 -0.0179417 0.151978 
-0.0179417 9.88035 -0.157102 
0.151978 -0.157102 9.8903 
9.86748 -0.00681356 0.165453 
-0.00681356 9.86839 -0.150427 
0.165453 -0.150427 9.90025 
9.86829 0.0473959 0.131523 
0.0473959 9.85999 -0.150541 
0.131523 -0.150541 9.90784 
9.84847 0.00772547 0.156252 
0.00772547 9.86886 -0.1742 
0.156252 -0.1742 9.91879 
9.91733 0.0365539 -0.0101518 
0.0365539 9.90271 -0.0283839 
-0.0101518 -0.0283839 9.94359 
9.89088 -0.0536325 -0.0415075 
-0.0536325 9.88144 -0.0457908 
-0.0415075 -0.0457908 9.99131 
9.89448 -0.0332604 -0.00845817 
-0.0332604 9.89654 -0.030617 
-0.00845817 -0.030617 9.97262 
9.85219 -0.00136996 -0.0182476 
-0.00136996 9.92614 -0.00812471 
-0.0182476 -0.00812471 9.9853 
9.82131 0.0619705 0.0459041 
0.0619705 9.7596 -0.14325 
0.0459041 -0.14325 9.91797 
9.78025 0.0106481 0.0574749 
0.0106481 9.8698 -0.124251 
0.0574749 -0.124251 9.84883 
9.89352 0.0648934 0.0346142 
0.0648934 9.71535 -0.113025 
0.0346142 -0.113025 9.89002 
9.78404 0.100441 0.0443286 
0.100441 9.8105 -0.135337 
0.0443286 -0.135337 9.90434 
9.94033 0.0168567 -0.121676 
0.0168567 9.9301 0.184563 
-0.121676 0.184563 9.93014 
9.92092 0.00185683 -0.127719 
0.00185683 9.93023 0.186676 
-0.127719 0.186676 9.94943 
9.92596 0.0121487 -0.150828 
0.0121487 9.92289 0.210882 
-0.150828 0.210882 9.95173 
9.92228 0.0139573 -0.131125 
0.0139573 9.92031 0.205728 
-0.131125 0.205728 9.95798 
9.81119 -0.0711496 0.208722 
-0.0711496 9.84453 0.187334 
0.208722 0.187334 9.93541 
9.91166 -0.0373117 0.160622 
-0.0373117 9.7863 0.242437 
0.160622 0.242437 9.89317 
9.86893 -0.0416547 0.159546 
-0.0416547 9.79841 0.234557 
0.159546 0.234557 9.92379 
9.84852 -0.032273 0.122674 
-0.032273 9.82727 0.236171 
0.122674 0.236171 9.91534 
9.92694 -0.0285187 -0.10485 
-0.0285187 9.71679 -0.0185736 
-0.10485 -0.0185736 9.98161 
9.73525 -0.0370264 0.0180323 
-0.0370264 10.0021 -0.0318238 
0.0180323 -0.0318238 9.888 
9.76966 0.0533912 -0.0599366 
0.0533912 9.97942 0.0793282 
-0.0599366 0.0793282 9.87627 
9.63637 -0.0383278 -0.0492874 
-0.0383278 9.88159 -0.0251643 
-0.0492874 -0.0251643 10.1074 
9.96409 0.0207471 0.0471435 
0.0207471 9.83283 -0.32395 
0.0471435 -0.32395 9.7727 
9.9778 -0.00481545 0.0389398 
-0.00481545 9.80146 -0.301343 
0.0389398 -0.301343 9.79036 
9.92868 0.0179899 0.0397249 
0.0179899 9.8589 -0.277203 
0.0397249 -0.277203 9.78204 
9.96146 0.0118439 0.0527183 
0.0118439 9.8247 -0.301591 
0.0527183 -0.301591 9.78346 
9.99797 0.0299844 0.0791243 
0.0299844 9.90267 -0.259261 
0.0791243 -0.259261 9.82533 
10.0105 -0.00536944 0.0551651 
-0.00536944 9.9204 -0.267074 
0.0551651 -0.267074 9.7951 
9.96392 0.0174095 0.0570612 
0.0174095 9.92323 -0.243708 
0.0570612 -0.243708 9.83882 
9.95927 0.00293862 0.058763 
0.00293862 9.90837 -0.256752 
0.058763 -0.256752 9.85833 
9.76417 0.088715 0.26123 
0.088715 9.8066 -0.146812 
0.26123 -0.146812 10.1268 
9.76151 0.119541 0.164832 
0.119541 9.75924 -0.117795 
0.164832 -0.117795 10.1768 
9.87914 0.167819 0.0923707 
0.167819 9.74974 -0.153909 
0.0923707 -0.153909 10.0687 
9.73208 0.0878798 0.179136 
0.0878798 9.7926 -0.159653 
0.179136 -0.159653 10.1729 
9.835 0.00601235 -0.162528 
0.00601235 9.79094 -0.0837953 
-0.162528 -0.0837953 9.78512 
9.65437 -0.125531 -0.0709039 
-0.125531 9.83464 -0.0646271 
-0.0709039 -0.0646271 9.92206 
9.90137 -0.0138702 -0.172799 
-0.0138702 9.7542 -0.0492623 
-0.172799 -0.0492623 9.75549 
9.7357 -0.0460739 -0.232227 
-0.0460739 9.7378 -0.10968 
-0.232227 -0.10968 9.93757 
9.95069 0.00965623 -0.00742966 
0.00965623 9.92766 0.0132423 
-0.00742966 0.0132423 9.95993 
9.94215 -0.00344657 -0.00338995 
-0.00344657 9.93227 0.0163025 
-0.00338995 0.0163025 9.96387 
9.94332 0.00981026 -0.0239124 
0.00981026 9.91428 0.0156267 
-0.0239124 0.0156267 9.98069 
9.94194 0.00427928 0.00116516 
0.00427928 9.92768 0.00358372 
0.00116516 0.00358372 9.96867 
9.90869 -0.689675 -0.226248 
-0.689675 10.4649 0.055918 
-0.226248 0.055918 10.3155 
9.55538 -0.325486 -0.116934 
-0.325486 10.5963 -0.277912 
-0.116934 -0.277912 10.5375 
9.3161 0.387217 0.000794074 
0.387217 10.0692 0.269675 
0.000794074 0.269675 11.3038 
9.73786 -0.229071 0.132612 
-0.229071 10.4967 -0.316792 
0.132612 -0.316792 10.4545 
9.90373 -0.000505923 -0.0400654 
-0.000505923 9.93124 -0.222232 
-0.0400654 -0.222232 9.94116 
9.94834 -0.0235559 -0.0573365 
-0.0235559 9.91017 -0.218458 
-0.0573365 -0.218458 9.91761 
9.92543 -0.0143025 -0.0559897 
-0.0143025 9.91161 -0.24689 
-0.0559897 -0.24689 9.93909 
9.92934 -0.0123614 -0.0593447 
-0.0123614 9.91366 -0.243435 
-0.0593447 -0.243435 9.93314 
9.86253 -0.0385139 -0.00108952 
-0.0385139 9.89023 -0.0357637 
-0.00108952 -0.0357637 9.92316 
9.83261 -0.00339135 -0.0306952 
-0.00339135 9.92756 -0.0141104 
-0.0306952 -0.0141104 9.91575 
9.8365 -0.0418366 -0.0135848 
-0.0418366 9.87467 -0.0677506 
-0.0135848 -0.0677506 9.96475 
9.82492 -0.0507849 -0.0260674 
-0.0507849 9.89571 -0.0310662 
-0.0260674 -0.0310662 9.95528 
9.07688 0.54037 0.334601 
0.54037 11.3196 0.560946 
0.334601 0.560946 8.3962 
9.55241 0.532317 0.68216 
0.532317 10.169 0.991796 
0.68216 0.991796 9.07128 
9.37547 0.173283 0.452135 
0.173283 10.4737 0.6598 
0.452135 0.6598 8.94356 
9.55696 -0.774634 0.490938 
-0.774634 10.0014 -0.0882572 
0.490938 -0.0882572 9.23435 
9.98859 0.00436871 -0.00493128 
0.00436871 9.97961 0.00124759 
-0.00493128 0.00124759 9.98549 
9.98027 0.0103685 -0.0081368 
0.0103685 9.98572 0.00185894 
-0.0081368 0.00185894 9.9877 
9.98539 0.00501786 -0.00830279 
0.00501786 9.98066 -0.00178121 
-0.00830279 -0.00178121 9.98764 
9.98484 -0.00251666 -0.00315693 
-0.00251666 9.99043 -0.00323101 
-0.00315693 -0.00323101 9.97844 
9.97025 -0.0172008 0.0871331 
-0.0172008 9.94327 0.229856 
0.0871331 0.229856 9.97665 
9.96009 0.0019988 0.088779 
0.0019988 9.93547 0.20838 
0.088779 0.20838 9.9946 
9.95596 0.000165903 0.101383 
0.000165903 9.95986 0.249472 
0.101383 0.249472 9.97435 
9.95476 -0.012241 0.116831 
-0.012241 9.96834 0.237853 
0.116831 0.237853 9.96708 
9.86802 0.008068 0.245114 
0.008068 9.84087 -0.0195742 
0.245114 -0.0195742 9.85894 
9.83066 7.51211e-05 0.238273 
7.51211e-05 9.87071 -0.0147904 
0.238273 -0.0147904 9.86646 
9.82702 0.0142692 0.236616 
0.0142692 9.86347 -0.0274786 
0.236616 -0.0274786 9.87734 
9.83337 -0.00417869 0.253676 
-0.00417869 9.85869 -0.0178621 
0.253676 -0.0178621 9.87577 
9.61851 0.144902 0.0115549 
0.144902 9.93068 0.0167611 
0.0115549 0.0167611 9.84186 
9.70029 0.0767675 0.0185489 
0.0767675 9.68303 -0.0395634 
0.0185489 -0.0395634 10.0077 
9.59777 -0.12986 0.278116 
-0.12986 9.63571 0.0141999 
0.278116 0.0141999 10.1576 
9.74622 -0.0773753 0.239907 
-0.0773753 9.93668 -0.0629471 
0.239907 -0.0629471 9.70815 
9.99984 -0.000206088 -0.195884 
-0.000206088 9.97862 0.134175 
-0.195884 0.134175 9.99468 
9.98056 -0.00365331 -0.182751 
-0.00365331 9.97597 0.130544 
-0.182751 0.130544 10.0166 
9.99888 0.00036047 -0.193883 
0.00036047 9.99802 0.137337 
-0.193883 0.137337 9.97624 
9.99026 0.00153234 -0.202802 
0.00153234 10.0025 0.127831 
-0.202802 0.127831 9.98039 
9.94447 -0.00427208 -0.175968 
-0.00427208 9.95379 0.190014 
-0.175968 0.190014 9.97113 
9.9524 -0.00190005 -0.175407 
-0.00190005 9.95089 0.17631 
-0.175407 0.17631 9.9661 
9.9466 0.020835 -0.164637 
0.020835 9.95572 0.165996 
-0.164637 0.165996 9.96707 
9.95776 -0.00149995 -0.17453 
-0.00149995 9.95024 0.186361 
-0.17453 0.186361 9.96138 
9.71746 0.0972812 0.178208 
0.0972812 9.68873 -0.193292 
0.178208 -0.193292 10.134 
9.71238 0.0961204 0.184717 
0.0961204 9.70032 -0.212903 
0.184717 -0.212903 10.1275 
9.68811 0.100619 0.195298 
0.100619 9.71874 -0.183503 
0.195298 -0.183503 10.1333 
9.69779 0.123894 0.196309 
0.123894 9.70229 -0.20674 
0.196309 -0.20674 10.1401 
9.3462 0.180951 0.661312 
0.180951 9.87673 -0.474817 
0.661312 -0.474817 10.0891 
10.1321 0.920879 0.731509 
0.920879 9.90193 -0.529609 
0.731509 -0.529609 9.27797 
9.45116 0.400122 0.517124 
0.400122 10.1208 -0.474999 
0.517124 -0.474999 9.74008 
9.83347 0.228261 0.281377 
0.228261 9.94301 -0.889384 
0.281377 -0.889384 9.53557 
9.70942 0.154061 -0.0456715 
0.154061 9.54524 -0.129251 
-0.0456715 -0.129251 10.1275 
9.89017 0.185637 0.180312 
0.185637 9.88159 0.19743 
0.180312 0.19743 9.61038 
9.6123 0.0230721 0.153821 
0.0230721 9.87056 -0.104082 
0.153821 -0.104082 9.89928 
9.5968 0.06468 0.16092 
0.06468 9.87407 -0.00585268 
0.16092 -0.00585268 9.91128 
9.96359 -0.0039199 -0.117025 
-0.0039199 9.98626 0.228339 
-0.117025 0.228339 10.0032 
9.98554 0.00108518 -0.105416 
0.00108518 9.98509 0.222618 
-0.105416 0.222618 9.98237 
9.98537 -0.0011325 -0.105034 
-0.0011325 9.98157 0.22017 
-0.105034 0.22017 9.98607 
9.98101 0.0029278 -0.109672 
0.0029278 9.98404 0.224359 
-0.109672 0.224359 9.98797 
9.55712 -0.00243345 0.233164 
-0.00243345 9.43327 -0.618376 
0.233164 -0.618376 8.55867 
10.0931 -0.0456284 0.389761 
-0.0456284 9.35822 -0.555473 
0.389761 -0.555473 8.0977 
9.7275 0.00257012 0.22352 
0.00257012 9.42848 -0.544787 
0.22352 -0.544787 8.3931 
9.73366 -0.0824386 0.0639045 
-0.0824386 9.29233 -0.451044 
0.0639045 -0.451044 8.52308 
9.9063 -0.0025366 0.252669 
-0.0025366 9.92909 0.0167974 
0.252669 0.0167974 9.9477 
9.92592 -0.0323687 0.229481 
-0.0323687 9.96527 0.00384741 
0.229481 0.00384741 9.8919 
9.94349 0.00195501 0.227921 
0.00195501 9.8888 0.00270094 
0.227921 0.00270094 9.95079 
9.91713 -0.00741826 0.249783 
-0.00741826 9.93151 0.0174817 
0.249783 0.0174817 9.93445 
10.7714 -0.223739 0.00991163 
-0.223739 11.0122 0.0297199 
0.00991163 0.0297199 10.1317 
10.1501 0.140055 0.336915 
0.140055 10.6743 -0.0932513 
0.336915 -0.0932513 11.0908 
10.3867 0.0845447 0.117683 
0.0845447 10.2802 0.0508723 
0.117683 0.0508723 11.2484 
10.2872 -0.0717293 0.164636 
-0.0717293 10.7528 -0.595802 
0.164636 -0.595802 10.8752 
9.93104 -0.0107903 -0.117129 
-0.0107903 9.93021 -0.225131 
-0.117129 -0.225131 9.96451 
9.93658 -0.0186212 -0.112794 
-0.0186212 9.94156 -0.210956 
-0.112794 -0.210956 9.94762 
9.91925 -0.0413716 -0.105808 
-0.0413716 9.94805 -0.201493 
-0.105808 -0.201493 9.95845 
9.93918 -0.0244411 -0.111779 
-0.0244411 9.92734 -0.240362 
-0.111779 -0.240362 9.95925 
9.97326 0.023029 -0.168432 
0.023029 9.95079 -0.0558201 
-0.168432 -0.0558201 10.0525 
10.0037 0.00219231 -0.214706 
0.00219231 10.0259 -0.0420849 
-0.214706 -0.0420849 9.94693 
9.99725 0.00934422 -0.204322 
0.00934422 10.0073 -0.0586161 
-0.204322 -0.0586161 9.97197 
10.0135 -0.0125474 -0.213797 
-0.0125474 10.0165 -0.0712891 
-0.213797 -0.0712891 9.94652 
10.696 0.102367 0.0272648 
0.102367 10.8386 0.0886587 
0.0272648 0.0886587 9.97132 
9.5603 0.00121917 -0.0868228 
0.00121917 9.88009 0.126048 
-0.0868228 0.126048 12.0656 
10.5317 0.0591035 -0.0363138 
0.0591035 10.8711 -0.121087 
-0.0363138 -0.121087 10.1032 
10.5172 0.0260075 -0.926168 
0.0260075 10.912 -0.137792 
-0.926168 -0.137792 10.0768 
10.2306 0.0243233 -1.02188 
0.0243233 9.40412 -0.434625 
-1.02188 -0.434625 8.25934 
9.84051 0.0817667 -0.0922151 
0.0817667 9.33959 -0.492893 
-0.0922151 -0.492893 8.71399 
10.9768 0.238975 -0.0659711 
0.238975 8.93872 -0.643081 
-0.0659711 -0.643081 7.97859 
10.1245 -0.162236 -0.173951 
-0.162236 9.07814 -0.706667 
-0.173951 -0.706667 8.69146 
9.90508 0.00694904 0.110458 
0.00694904 9.89457 -0.212059 
0.110458 -0.212059 9.87166 
9.87446 -0.00873966 0.0913866 
-0.00873966 9.90892 -0.216461 
0.0913866 -0.216461 9.88793 
9.85967 0.0334276 0.114884 
0.0334276 9.83682 -0.221272 
0.114884 -0.221272 9.97482 
9.90619 0.00120592 0.0678214 
0.00120592 9.85156 -0.200113 
0.0678214 -0.200113 9.91357 
9.94441 0.00474417 0.0119951 
0.00474417 9.93897 -0.00630044 
0.0119951 -0.00630044 10.0097 
9.95404 0.00883798 0.00922927 
0.00883798 9.94026 -0.00628469 
0.00922927 -0.00628469 9.99873 
9.9353 0.00577287 0.0236931 
0.00577287 9.94057 -0.0114367 
0.0236931 -0.0114367 10.0172 
9.95487 0.00605671 0.0114023 
0.00605671 9.93899 -0.00685685 
0.0114023 -0.00685685 9.99917 
9.93521 0.017314 0.170713 
0.017314 9.96028 0.144145 
0.170713 0.144145 10.0467 
9.98904 0.014798 0.176551 
0.014798 9.97002 0.169902 
0.176551 0.169902 9.98311 
9.9932 -0.00344659 0.165811 
-0.00344659 9.99606 0.182474 
0.165811 0.182474 9.95291 
9.99446 -0.0187292 0.187504 
-0.0187292 9.99808 0.177905 
0.187504 0.177905 9.94964 
9.95103 -0.000634856 -0.210103 
-0.000634856 9.94636 0.139355 
-0.210103 0.139355 9.95633 
9.95227 0.00349611 -0.215071 
0.00349611 9.94878 0.13695 
-0.215071 0.13695 9.95267 
9.95345 0.00215792 -0.219891 
0.00215792 9.93759 0.141711 
-0.219891 0.141711 9.96267 
9.95041 0.0168812 -0.199685 
0.0168812 9.9474 0.134396 
-0.199685 0.134396 9.95591 
9.97398 0.00820467 -0.199871 
0.00820467 9.95527 0.105099 
-0.199871 0.105099 10.0345 
9.98631 -0.010582 -0.224162 
-0.010582 9.97443 0.11188 
-0.224162 0.11188 10.003 
10.0023 0.00813257 -0.225214 
0.00813257 10.0127 0.097478 
-0.225214 0.097478 9.94885 
9.9843 0.019535 -0.224214 
0.019535 10.0151 0.12999 
-0.224214 0.12999 9.96441 
5.8973 0.541561 0.969915 
0.541561 5.48283 0.786897 
0.969915 0.786897 -1.44623 
6.22526 0.180326 -0.168203 
0.180326 6.27237 -0.167218 
-0.168203 -0.167218 -2.56373 
1.71239 -0.519263 2.55086 
-0.519263 1.57054 -1.72947 
2.55086 -1.72947 6.65097 
6.66764 -0.759927 4.33835 
-0.759927 5.48508 -0.776974 
4.33835 -0.776974 -2.21882 
9.94947 -0.0115559 0.139776 
-0.0115559 9.95623 -0.18363 
0.139776 -0.18363 10.0047 
9.97807 0.00668055 0.140284 
0.00668055 9.96188 -0.190584 
0.140284 -0.190584 9.9704 
9.95797 0.00137144 0.150251 
0.00137144 9.9478 -0.195636 
0.150251 -0.195636 10.0046 
9.97414 0.0117215 0.145116 
0.0117215 9.97104 -0.18499 
0.145116 -0.18499 9.96517 
1.98492 1.33422 3.88314 
1.33422 -1.97002 2.56054 
3.88314 2.56054 17.1775 
16.4759 -2.29985 -9.12481 
-2.29985 6.67973 -2.0395 
-9.12481 -2.0395 -5.96319 
17.5139 2.63935 -9.69671 
2.63935 7.5849 0.919253 
-9.69671 0.919253 -7.90638 
-5.97696 -2.20399 -12.6528 
-2.20399 9.12807 1.69637 
-12.6528 1.69637 14.0413 
9.9456 0.00436692 0.0937219 
0.00436692 9.94809 -0.232849 
0.0937219 -0.232849 9.96065 
9.94934 0.00126585 0.0939205 
0.00126585 9.95142 -0.233966 
0.0939205 -0.233966 9.95357 
9.95484 0.0140933 0.094902 
0.0140933 9.94422 -0.222532 
0.094902 -0.222532 9.95527 
9.94033 0.00184241 0.0950975 
0.00184241 9.95391 -0.2369 
0.0950975 -0.2369 9.96009 
9.89961 -0.208043 -0.0326084 
-0.208043 10.0829 -0.0149884 
-0.0326084 -0.0149884 10.358 
9.80116 -0.431145 0.219791 
-0.431145 10.1853 -0.0963861 
0.219791 -0.0963861 10.354 
10.0516 -0.20033 -0.177132 
-0.20033 9.96654 0.0568671 
-0.177132 0.0568671 10.3224 
9.76144 -0.1429 -0.326744 
-0.1429 9.97049 -0.12823 
-0.326744 -0.12823 10.6086 
9.92893 -0.00917866 -0.171648 
-0.00917866 9.93967 -0.179389 
-0.171648 -0.179389 9.97034 
9.93301 -0.00841183 -0.171405 
-0.00841183 9.95642 -0.16675 
-0.171405 -0.16675 9.94952 
9.93779 -0.0104681 -0.161201 
-0.0104681 9.9329 -0.182128 
-0.161201 -0.182128 9.96825 
9.94587 -0.00459384 -0.161959 
-0.00459384 9.93241 -0.178036 
-0.161959 -0.178036 9.96067 
9.95122 -0.000802072 0.20294 
-0.000802072 9.95498 0.137635 
0.20294 0.137635 9.96776 
9.94572 -0.0132007 0.194313 
-0.0132007 9.96331 0.129965 
0.194313 0.129965 9.96493 
9.95858 -0.00104611 0.203465 
-0.00104611 9.95508 0.145853 
0.203465 0.145853 9.9603 
9.94904 0.00504341 0.206187 
0.00504341 9.955 0.147971 
0.206187 0.147971 9.96993 
9.91604 -0.0211928 -0.15469 
-0.0211928 9.91248 -0.194773 
-0.15469 -0.194773 9.97737 
9.92641 -0.0101326 -0.156567 
-0.0101326 9.91651 -0.17529 
-0.156567 -0.17529 9.96298 
9.91329 -0.0299371 -0.161263 
-0.0299371 9.91916 -0.190104 
-0.161263 -0.190104 9.97345 
9.93545 -0.0261494 -0.17138 
-0.0261494 9.90385 -0.192367 
-0.17138 -0.192367 9.9666 
9.87316 0.00556952 -0.249003 
0.00556952 9.8894 0.0333393 
-0.249003 0.0333393 9.92735 
9.88053 0.00423035 -0.244809 
0.00423035 9.89512 0.0300237 
-0.244809 0.0300237 9.91425 
9.88998 0.00554492 -0.246291 
0.00554492 9.89373 0.0278946 
-0.246291 0.0278946 9.90619 
9.88493 0.00459694 -0.234301 
0.00459694 9.89217 0.0248563 
-0.234301 0.0248563 9.9128 
9.99495 0.011652 -0.0426635 
0.011652 9.99908 -0.00793251 
-0.0426635 -0.00793251 10.042 
9.92448 -0.0129883 -0.00419638 
-0.0129883 10.0815 0.0199192 
-0.00419638 0.0199192 10.0301 
10.0008 0.0269486 -0.0245616 
0.0269486 9.93279 0.0253324 
-0.0245616 0.0253324 10.1024 
10.0347 0.0243612 0.0146899 
0.0243612 10.0017 -0.040891 
0.0146899 -0.040891 9.99967 
9.84326 -0.0878424 0.00404434 
-0.0878424 9.81045 0.0109171 
0.00404434 0.0109171 10.326 
9.81495 -0.16702 -0.168018 
-0.16702 9.90546 -0.0827604 
-0.168018 -0.0827604 10.2593 
9.86208 -0.103747 -0.0640147 
-0.103747 9.92315 -0.0948407 
-0.0640147 -0.0948407 10.1944 
9.88012 -0.0170467 -0.0845359 
-0.0170467 9.86732 -0.0656829 
-0.0845359 -0.0656829 10.2323 
9.96739 -0.00591033 0.0336213 
-0.00591033 9.92971 -0.207156 
0.0336213 -0.207156 9.90147 
9.97002 -0.0124445 0.0229564 
-0.0124445 9.92878 -0.215301 
0.0229564 -0.215301 9.89978 
9.97526 0.00154413 0.0245548 
0.00154413 9.91145 -0.220526 
0.0245548 -0.220526 9.91187 
9.99124 0.0140249 -0.00239694 
0.0140249 9.92615 -0.220064 
-0.00239694 -0.220064 9.88118 
9.96493 0.00329171 -0.195295 
0.00329171 9.97602 0.145664 
-0.195295 0.145664 9.98293 
9.95224 0.021436 -0.215877 
0.021436 9.95571 0.149394 
-0.215877 0.149394 10.0159 
9.9627 0.00475022 -0.196402 
0.00475022 9.97293 0.148471 
-0.196402 0.148471 9.98826 
9.9452 0.00240753 -0.185263 
0.00240753 9.98375 0.145703 
-0.185263 0.145703 9.99494 
9.97517 0.000306752 -0.2316 
0.000306752 9.98092 -0.107505 
-0.2316 -0.107505 9.98025 
9.9651 -0.00856053 -0.231474 
-0.00856053 9.97914 -0.0994685 
-0.231474 -0.0994685 9.99209 
9.96664 -0.00802749 -0.217799 
-0.00802749 9.97229 -0.0974333 
-0.217799 -0.0974333 9.99741 
9.97054 -0.0110657 -0.233172 
-0.0110657 9.98333 -0.110606 
-0.233172 -0.110606 9.98247 
9.96404 0.00576539 0.183222 
0.00576539 9.95817 -0.167285 
0.183222 -0.167285 9.99281 
9.95495 0.0207385 0.182757 
0.0207385 9.95635 -0.180303 
0.182757 -0.180303 10.0037 
9.96379 0.0011981 0.173484 
0.0011981 9.96732 -0.165934 
0.173484 -0.165934 9.9839 
9.97568 0.00607328 0.175109 
0.00607328 9.95357 -0.157885 
0.175109 -0.157885 9.98576 
9.67028 0.0949348 -0.0083988 
0.0949348 9.87788 -0.0086726 
-0.0083988 -0.0086726 9.99363 
9.73053 0.086907 -0.0307732 
0.086907 9.81227 -0.0148677 
-0.0307732 -0.0148677 9.99898 
9.66302 0.0833934 -0.151582 
0.0833934 9.99709 0.0223968 
-0.151582 0.0223968 9.88168 
9.63136 0.133082 -0.0238234 
0.133082 9.88775 -0.00895042 
-0.0238234 -0.00895042 10.0227 
10.0707 -0.00925823 0.0370629 
-0.00925823 10.0691 -0.0252818 
0.0370629 -0.0252818 10.3637 
10.1724 -0.0633639 0.0130064 
-0.0633639 10.1934 -0.00157142 
0.0130064 -0.00157142 10.1377 
10.1211 0.0276455 0.0226126 
0.0276455 10.2194 -0.0334535 
0.0226126 -0.0334535 10.163 
10.1828 -0.0111 0.045919 
-0.0111 10.1736 0.0203343 
0.045919 0.0203343 10.1471 
10.0075 -0.0257065 0.00188937 
-0.0257065 9.97649 -0.00290989 
0.00188937 -0.00290989 10.0126 
10.0047 0.0021868 -0.00665021 
0.0021868 10.0044 -0.00286056 
-0.00665021 -0.00286056 9.98746 
10.0044 0.00767176 0.00103723 
0.00767176 10.0011 -0.000405388 
0.00103723 -0.000405388 9.9911 
10.0071 0.00961829 -0.00495334 
0.00961829 10.0009 -0.00895049 
-0.00495334 -0.00895049 9.98857 
9.98297 -0.0181223 -0.010097 
-0.0181223 9.98467 0.00830841 
-0.010097 0.00830841 9.9742 
9.96287 0.0203525 -0.00216615 
0.0203525 9.98845 9.87503e-05 
-0.00216615 9.87503e-05 9.99052 
9.9844 -0.00404573 -0.00187939 
-0.00404573 9.98482 -0.00400948 
-0.00187939 -0.00400948 9.97262 
9.9821 0.00658034 0.00169194 
0.00658034 9.99182 0.00988681 
0.00169194 0.00988681 9.96792 
9.97867 0.000268849 4.23524e-05 
0.000268849 9.97824 -0.0064179 
4.23524e-05 -0.0064179 9.97328 
9.97478 0.00122874 0.00325638 
0.00122874 9.97838 0.00323327 
0.00325638 0.00323327 9.97703 
9.97594 -0.000302836 -0.00227575 
-0.000302836 9.97468 0.000156739 
-0.00227575 0.000156739 9.97957 
9.97444 -0.00145932 0.000760619 
-0.00145932 9.97826 -0.00457041 
0.000760619 -0.00457041 9.97749 
10.0238 -0.000742761 0.00581392 
-0.000742761 9.95219 -0.00183591 
0.00581392 -0.00183591 10.0103 
9.9921 -0.0453174 0.0367749 
-0.0453174 9.98707 -0.0191292 
0.0367749 -0.0191292 10.0071 
9.99875 0.013592 0.00355942 
0.013592 9.96637 -0.0404665 
0.00355942 -0.0404665 10.0212 
10.0062 -0.0092272 0.0173021 
-0.0092272 9.96741 -0.0303149 
0.0173021 -0.0303149 10.0127 
9.82717 0.033865 0.0454 
0.033865 9.67861 -0.229842 
0.0454 -0.229842 9.93955 
9.77889 -0.00410837 0.0637787 
-0.00410837 9.87046 -0.18927 
0.0637787 -0.18927 9.79598 
9.84022 0.0339765 0.0291174 
0.0339765 9.82889 -0.201891 
0.0291174 -0.201891 9.77622 
9.79343 0.0636876 0.0752188 
0.0636876 9.80439 -0.152007 
0.0752188 -0.152007 9.84751 
9.81395 0.000488143 0.0194648 
0.000488143 9.44309 0.0481253 
0.0194648 0.0481253 10.0922 
9.63664 0.168533 -0.0517401 
0.168533 9.92377 -0.118199 
-0.0517401 -0.118199 9.78885 
9.58552 -0.100954 -0.225681 
-0.100954 10.0605 0.0539992 
-0.225681 0.0539992 9.70323 
9.29804 -0.188081 -0.250842 
-0.188081 9.74363 0.0846692 
-0.250842 0.0846692 10.3076 
11.3101 0.753984 0.213775 
0.753984 11.5316 -0.890672 
0.213775 -0.890672 13.1182 
9.47994 0.478889 0.213797 
0.478889 11.907 0.573324 
0.213797 0.573324 14.5729 
10.3442 0.136796 -0.0290925 
0.136796 12.0474 0.0878853 
-0.0290925 0.0878853 13.5682 
10.0837 -0.26921 -0.928238 
-0.26921 12.2844 -0.865511 
-0.928238 -0.865511 13.5916 
9.62621 0.137032 -0.0240031 
0.137032 9.81045 -0.012013 
-0.0240031 -0.012013 9.97117 
9.93591 -0.0909341 0.152162 
-0.0909341 9.78352 -0.115967 
0.152162 -0.115967 9.68839 
9.87927 -0.00370468 0.160918 
-0.00370468 9.75469 -0.0266907 
0.160918 -0.0266907 9.77386 
9.65327 0.064164 0.192363 
0.064164 9.6887 -0.0760992 
0.192363 -0.0760992 10.0659 
9.94533 -0.00412007 -0.206311 
-0.00412007 9.95698 -0.135679 
-0.206311 -0.135679 9.97006 
9.94151 -0.018364 -0.196431 
-0.018364 9.96614 -0.132755 
-0.196431 -0.132755 9.96471 
9.96509 0.00337421 -0.208832 
0.00337421 9.94746 -0.149627 
-0.208832 -0.149627 9.95981 
9.95193 0.00653114 -0.205988 
0.00653114 9.95392 -0.153062 
-0.205988 -0.153062 9.96651 
10.5387 -0.0570323 0.25928 
-0.0570323 10.5254 0.0776142 
0.25928 0.0776142 10.6316 
11.0102 0.298614 0.548369 
0.298614 11.043 0.306566 
0.548369 0.306566 9.64245 
10.0427 0.0462921 -0.181763 
0.0462921 10.3893 -0.209516 
-0.181763 -0.209516 11.2637 
10.2248 -0.315871 0.272352 
-0.315871 10.4305 0.278129 
0.272352 0.278129 11.0405 
10.1724 -0.0105238 -0.0895864 
-0.0105238 10.1123 0.110066 
-0.0895864 0.110066 10.475 
10.2188 0.0108677 -0.0455261 
0.0108677 10.139 0.0391926 
-0.0455261 0.0391926 10.4019 
10.1709 0.039188 -0.0199977 
0.039188 10.1418 0.0261379 
-0.0199977 0.0261379 10.4469 
10.224 0.0538583 -0.0101036 
0.0538583 10.1143 0.0255641 
-0.0101036 0.0255641 10.4213 
10.238 0.245735 -0.0753025 
0.245735 9.98065 0.101809 
-0.0753025 0.101809 10.375 
10.3038 0.0580538 -0.07563 
0.0580538 10.1642 0.0713429 
-0.07563 0.0713429 10.1257 
10.0426 0.118154 0.0125013 
0.118154 10.2476 0.0506812 
0.0125013 0.0506812 10.3035 
10.2068 0.0916946 -0.03324 
0.0916946 10.1171 0.03121 
-0.03324 0.03121 10.2698 
9.79826 0.0727992 0.130567 
0.0727992 9.79283 -0.106154 
0.130567 -0.106154 9.92686 
9.84644 -0.00247265 0.108676 
-0.00247265 9.81655 -0.0843167 
0.108676 -0.0843167 9.85497 
9.82724 -0.00785981 0.0971456 
-0.00785981 9.82027 -0.0812507 
0.0971456 -0.0812507 9.87044 
9.83242 0.00954021 0.0719485 
0.00954021 9.79764 -0.0695616 
0.0719485 -0.0695616 9.88789 
9.65093 0.116129 0.182839 
0.116129 9.7595 -0.128812 
0.182839 -0.128812 10.6774 
9.7694 0.225225 0.073144 
0.225225 9.72302 -0.12821 
0.073144 -0.12821 10.5954 
9.74496 0.160336 0.112713 
0.160336 9.74358 -0.158391 
0.112713 -0.158391 10.5993 
9.74915 0.191423 0.114831 
0.191423 9.74791 -0.130419 
0.114831 -0.130419 10.5908 
10.018 0.000581702 -0.0670056 
0.000581702 9.98482 -0.14017 
-0.0670056 -0.14017 10.0249 
10.0125 -0.0213229 -0.0401974 
-0.0213229 9.99334 -0.147388 
-0.0401974 -0.147388 10.0219 
10.0415 0.00261794 -0.0504596 
0.00261794 10.0452 -0.13224 
-0.0504596 -0.13224 9.94096 
10.0147 0.00835628 -0.0599467 
0.00835628 10.0484 -0.171758 
-0.0599467 -0.171758 9.96458 
10.1918 -0.0317269 0.0346769 
-0.0317269 10.1259 -0.0128412 
0.0346769 -0.0128412 9.94722 
10.0297 -0.138128 -0.0567362 
-0.138128 10.0129 -0.0814783 
-0.0567362 -0.0814783 10.2223 
9.90331 -0.0171283 0.0423913 
-0.0171283 10.0411 -0.0610535 
0.0423913 -0.0610535 10.3205 
10.0654 -0.072673 -0.129875 
-0.072673 10.0278 -0.0215246 
-0.129875 -0.0215246 10.1717 
9.56524 -0.0935796 0.350776 
-0.0935796 9.80759 -0.0590391 
0.350776 -0.0590391 9.13075 
9.35639 -0.119236 0.323181 
-0.119236 9.97849 0.699758 
0.323181 0.699758 9.1687 
9.04043 0.162687 0.565283 
0.162687 10.9454 0.274767 
0.565283 0.274767 8.51773 
9.1151 -0.0110087 0.751397 
-0.0110087 10.3469 0.182562 
0.751397 0.182562 9.04155 
9.82178 0.0280991 -0.191738 
0.0280991 9.84253 0.101482 
-0.191738 0.101482 9.86449 
9.81735 0.0214369 -0.208706 
0.0214369 9.83636 0.103616 
-0.208706 0.103616 9.87508 
9.85298 -0.00418488 -0.213743 
-0.00418488 9.82074 0.105227 
-0.213743 0.105227 9.85507 
9.82325 -0.00483538 -0.205247 
-0.00483538 9.83502 0.11409 
-0.205247 0.11409 9.87052 
9.88551 -0.0147337 0.101678 
-0.0147337 9.87277 0.215318 
0.101678 0.215318 9.95649 
9.90806 -0.0133468 0.0803109 
-0.0133468 9.89938 0.221494 
0.0803109 0.221494 9.90734 
9.89395 0.00385401 0.101564 
0.00385401 9.91648 0.21431 
0.101564 0.21431 9.90433 
9.88859 -0.019476 0.0993262 
-0.019476 9.90936 0.207357 
0.0993262 0.207357 9.91682 
9.98192 0.0120673 0.0756677 
0.0120673 9.95657 0.129572 
0.0756677 0.129572 9.86991 
10.0095 -0.0046534 0.091674 
-0.0046534 9.9578 0.1476 
0.091674 0.1476 9.8411 
9.98961 0.0219259 0.0357012 
0.0219259 9.93752 0.0998471 
0.0357012 0.0998471 9.88127 
9.97307 0.00309035 0.0612777 
0.00309035 9.97944 0.104622 
0.0612777 0.104622 9.85588 
13.1177 -0.460167 0.37715 
-0.460167 10.8114 -0.454137 
0.37715 -0.454137 16.8992 
13.433 -0.16703 -0.138549 
-0.16703 10.6786 -1.09886 
-0.138549 -1.09886 16.7168 
14.1874 0.462379 0.329849 
0.462379 10.4663 -1.06845 
0.329849 -1.06845 16.1747 
14.3085 -0.302093 0.365683 
-0.302093 11.1268 -1.97418 
0.365683 -1.97418 15.393 
10.022 0.0366202 0.0113029 
0.0366202 10.0511 -0.0222729 
0.0113029 -0.0222729 10.0352 
10.0171 -0.0347566 -0.0325427 
-0.0347566 10.0207 0.0471263 
-0.0325427 0.0471263 10.0705 
9.92342 0.0604751 0.00251215 
0.0604751 10.1479 0.0528465 
0.00251215 0.0528465 10.0369 
9.93808 0.0422451 -0.0115854 
0.0422451 10.1178 0.0167522 
-0.0115854 0.0167522 10.0524 
11.3442 0.500409 0.386334 
0.500409 10.9429 -0.162942 
0.386334 -0.162942 10.9406 
11.8148 0.0108877 0.150746 
0.0108877 11.1334 -0.334901 
0.150746 -0.334901 10.2795 
9.39295 0.163776 -0.535454 
0.163776 9.9474 0.204617 
-0.535454 0.204617 13.8874 
10.7278 1.11319 1.65759 
1.11319 10.8971 -1.52167 
1.65759 -1.52167 11.6028 
6.4812 -1.99069 -0.643994 
-1.99069 6.70928 1.71432 
-0.643994 1.71432 2.25264 
6.51032 2.10641 0.358357 
2.10641 6.61603 -0.946928 
0.358357 -0.946928 2.31678 
5.68315 0.195602 0.0456379 
0.195602 7.18336 -0.41361 
0.0456379 -0.41361 2.57662 
5.28013 0.060655 -0.407803 
0.060655 9.30288 -2.00578 
-0.407803 -2.00578 0.860116 
9.61273 -0.0827816 0.239574 
-0.0827816 9.81748 0.276477 
0.239574 0.276477 9.64706 
9.62385 -0.0300068 0.421203 
-0.0300068 10.0297 0.21956 
0.421203 0.21956 9.42375 
9.62469 -0.00539557 0.364836 
-0.00539557 9.69686 0.272833 
0.364836 0.272833 9.75573 
9.42839 -0.0866251 0.425236 
-0.0866251 10.1067 0.437167 
0.425236 0.437167 9.54216 
9.56686 0.107552 -0.0655351 
0.107552 9.73599 -0.00250801 
-0.0655351 -0.00250801 10.0822 
9.57582 0.112998 -0.136446 
0.112998 9.98463 0.0410064 
-0.136446 0.0410064 9.82455 
9.70659 0.100894 -0.0573329 
0.100894 9.88746 0.0360361 
-0.0573329 0.0360361 9.79096 
9.65167 0.0310935 -0.137195 
0.0310935 9.81179 0.0598752 
-0.137195 0.0598752 9.92154 
9.96365 0.0216467 -0.00679267 
0.0216467 10.0057 -0.00900118 
-0.00679267 -0.00900118 9.9843 
10.0099 0.0133235 -0.00484396 
0.0133235 9.94272 0.00999763 
-0.00484396 0.00999763 10.001 
10.0188 -0.0327593 -0.00214864 
-0.0327593 9.92288 -0.0304389 
-0.00214864 -0.0304389 10.012 
9.99226 9.63997e-05 0.00498921 
9.63997e-05 9.95783 0.00198591 
0.00498921 0.00198591 10.0035 
10.1788 0.46104 -0.0782615 
0.46104 9.36509 -0.607554 
-0.0782615 -0.607554 12.3131 
10.9689 -0.633767 0.245417 
-0.633767 10.7225 0.679037 
0.245417 0.679037 10.1656 
10.3493 -0.435697 0.556924 
-0.435697 11.6086 0.78502 
0.556924 0.78502 9.89907 
10.5452 -0.659356 0.40089 
-0.659356 10.2179 0.576062 
0.40089 0.576062 11.0939 
-1.40062 0.366253 2.48478 
0.366253 2.36534 1.60636 
2.48478 1.60636 8.12795 
3.63738 0.35157 -2.29994 
0.35157 7.40869 1.37956 
-2.29994 1.37956 -1.95341 
5.20719 0.220475 -0.133275 
0.220475 9.26978 0.020205 
-0.133275 0.020205 -5.3843 
3.43934 1.67185 -1.9914 
1.67185 6.93491 6.72146 
-1.9914 6.72146 -1.28159 
9.87306 0.0171804 0.218116 
0.0171804 9.88778 -0.0560042 
0.218116 -0.0560042 9.91663 
9.86712 0.018882 0.220958 
0.018882 9.90275 -0.0492534 
0.220958 -0.0492534 9.9076 
9.83779 0.0188298 0.243248 
0.0188298 9.94084 -0.0886296 
0.243248 -0.0886296 9.89884 
9.86326 -0.0241654 0.259409 
-0.0241654 9.88208 -0.0452581 
0.259409 -0.0452581 9.93213 
9.95243 -0.00423768 0.176012 
-0.00423768 9.9455 0.172338 
0.176012 0.172338 9.97 
9.95773 -0.0182742 0.165054 
-0.0182742 9.94815 0.166978 
0.165054 0.166978 9.96206 
9.95379 0.00482216 0.184686 
0.00482216 9.94527 0.173103 
0.184686 0.173103 9.96887 
9.95041 0.00223079 0.182236 
0.00223079 9.95723 0.173177 
0.182236 0.173177 9.96029 
11.6032 0.405893 0.766483 
0.405893 10.4448 -0.479563 
0.766483 -0.479563 10.0991 
9.39612 -0.487122 -0.642774 
-0.487122 10.2696 0.139567 
-0.642774 0.139567 12.4813 
10.8153 0.637416 0.709277 
0.637416 11.1755 -0.187511 
0.709277 -0.187511 10.1562 
10.2808 0.615986 0.551133 
0.615986 10.6292 -0.383264 
0.551133 -0.383264 11.2371 
9.99118 0.0131076 0.00523268 
0.0131076 10.0143 0.00522855 
0.00523268 0.00522855 10.0255 
10.0056 0.0128956 0.00388641 
0.0128956 10.0173 -0.0127892 
0.00388641 -0.0127892 10.008 
10.0314 -0.00226951 -0.00280918 
-0.00226951 9.987 0.00274293 
-0.00280918 0.00274293 10.0125 
10.0199 -0.00164334 0.00564744 
-0.00164334 10.001 0.00489698 
0.00564744 0.00489698 10.0101 
9.96184 0.0254446 -0.00227723 
0.0254446 10.0059 0.0259599 
-0.00227723 0.0259599 9.96373 
9.92223 0.0290597 -0.00612395 
0.0290597 9.99596 0.00518659 
-0.00612395 0.00518659 10.0133 
9.9967 -0.00352295 -0.0126535 
-0.00352295 9.96438 -0.0115914 
-0.0126535 -0.0115914 9.97039 
10.0226 -0.00899175 0.0107094 
-0.00899175 9.92797 -0.00931512 
0.0107094 -0.00931512 9.98088 
9.9753 0.00667891 0.142858 
0.00667891 9.95615 -0.143363 
0.142858 -0.143363 9.90158 
9.96005 -0.00484941 0.124835 
-0.00484941 9.97335 -0.133401 
0.124835 -0.133401 9.89963 
9.97998 0.00990141 0.104529 
0.00990141 9.93796 -0.138413 
0.104529 -0.138413 9.91509 
9.99371 0.0463775 0.168324 
0.0463775 9.96362 -0.15525 
0.168324 -0.15525 9.8757 
9.97984 0.000733078 0.204534 
0.000733078 9.98311 0.123378 
0.204534 0.123378 9.99604 
9.98887 -0.000257825 0.203084 
-0.000257825 9.98935 0.131571 
0.203084 0.131571 9.98077 
9.9817 0.0111156 0.210749 
0.0111156 9.97809 0.124668 
0.210749 0.124668 9.99919 
9.98403 0.000765444 0.204856 
0.000765444 9.98625 0.12672 
0.204856 0.12672 9.98871 
9.77617 0.0641626 -0.130798 
0.0641626 9.8128 0.110174 
-0.130798 0.110174 9.90865 
9.79047 0.0558496 -0.0950954 
0.0558496 9.81355 0.0755147 
-0.0950954 0.0755147 9.8936 
9.86004 -0.0546622 -0.101751 
-0.0546622 9.80864 0.078722 
-0.101751 0.078722 9.82895 
9.86645 0.0244783 -0.0914629 
0.0244783 9.74237 0.0924881 
-0.0914629 0.0924881 9.8888 
9.93028 0.0173211 -0.0437495 
0.0173211 10.0004 0.000188189 
-0.0437495 0.000188189 10.037 
9.95601 0.00258626 -0.0205996 
0.00258626 10.0173 -0.018775 
-0.0205996 -0.018775 9.99433 
9.98006 0.0250488 -0.0706908 
0.0250488 9.99015 0.0235791 
-0.0706908 0.0235791 9.99745 
9.92868 0.026063 -0.0434926 
0.026063 10.0074 -0.00603186 
-0.0434926 -0.00603186 10.0316 
9.42529 -0.00263895 0.167815 
-0.00263895 9.61253 -0.240938 
0.167815 -0.240938 8.03886 
9.41174 0.0262209 0.204027 
0.0262209 9.60194 -0.0750987 
0.204027 -0.0750987 8.063 
9.72887 -0.0312102 0.277952 
-0.0312102 9.60684 -0.405627 
0.277952 -0.405627 7.74097 
9.64727 -0.240863 0.0670457 
-0.240863 9.11048 -0.346658 
0.0670457 -0.346658 8.31893 
9.71599 -0.00605723 -0.233695 
-0.00605723 9.62801 0.0211493 
-0.233695 0.0211493 9.87094 
9.61614 0.00103123 -0.210044 
0.00103123 9.7708 2.42668e-05 
-0.210044 2.42668e-05 9.82801 
9.63168 -0.103895 -0.186402 
-0.103895 9.83541 -0.0799117 
-0.186402 -0.0799117 9.74785 
9.60934 0.00942429 -0.17784 
0.00942429 9.81565 0.0263504 
-0.17784 0.0263504 9.78996 
9.80881 -0.0232127 0.305351 
-0.0232127 9.95526 0.0311113 
0.305351 0.0311113 9.78755 
9.7616 -0.0011747 0.284041 
-0.0011747 9.97935 -0.0352318 
0.284041 -0.0352318 9.81067 
9.7791 -0.00544218 0.278631 
-0.00544218 9.97864 0.0278995 
0.278631 0.0278995 9.79389 
9.87581 0.0064093 0.268934 
0.0064093 9.79188 0.0366157 
0.268934 0.0366157 9.88393 
9.89122 -0.0679181 -0.0209505 
-0.0679181 9.83515 -0.0541183 
-0.0209505 -0.0541183 9.97882 
9.87234 -0.0484844 -0.0385389 
-0.0484844 9.85479 -0.0768296 
-0.0385389 -0.0768296 9.97806 
9.88341 -0.0366798 -0.0206963 
-0.0366798 9.87525 -0.0574561 
-0.0206963 -0.0574561 9.94654 
9.88279 -0.041751 -0.00835685 
-0.041751 9.86423 -0.0443803 
-0.00835685 -0.0443803 9.95818 
9.98662 0.0184515 -0.0229267 
0.0184515 9.94317 -0.211961 
-0.0229267 -0.211961 9.69665 
9.99348 0.0269405 0.019742 
0.0269405 9.87823 -0.234623 
0.019742 -0.234623 9.75472 
10.0156 -0.0329201 0.0352235 
-0.0329201 9.91666 -0.254772 
0.0352235 -0.254772 9.6942 
9.92155 0.0162135 0.0170478 
0.0162135 9.86197 -0.265125 
0.0170478 -0.265125 9.84291 
10.0916 0.108902 -0.0190458 
0.108902 10.0866 0.104017 
-0.0190458 0.104017 9.85188 
9.99919 0.0603887 -0.0253008 
0.0603887 9.93211 0.040585 
-0.0253008 0.040585 10.0989 
9.99395 0.0472912 -0.0243091 
0.0472912 9.95117 0.00122044 
-0.0243091 0.00122044 10.085 
10.0314 0.0529358 0.0467193 
0.0529358 9.9656 0.0341255 
0.0467193 0.0341255 10.0332 
9.93894 -0.00313757 0.0203093 
-0.00313757 10.0103 -0.0076742 
0.0203093 -0.0076742 10.0252 
9.98425 0.00245635 0.0173789 
0.00245635 10.0012 0.0149877 
0.0173789 0.0149877 9.98901 
9.99662 -0.0342266 -0.0188726 
-0.0342266 9.99677 -0.0272395 
-0.0188726 -0.0272395 9.98107 
9.96196 -0.000861739 0.0163355 
-0.000861739 9.98528 -0.00604397 
0.0163355 -0.00604397 10.0272 
8.30275 -0.239878 -1.12241 
-0.239878 10.3588 0.0964884 
-1.12241 0.0964884 10.5377 
9.16505 -0.594023 0.0803085 
-0.594023 9.8472 -0.279594 
0.0803085 -0.279594 10.187 
8.13844 -0.424648 -0.754742 
-0.424648 10.4731 -0.097409 
-0.754742 -0.097409 10.5877 
8.65258 0.542959 -0.403049 
0.542959 10.1907 0.128363 
-0.403049 0.128363 10.356 
9.83434 0.022867 -0.0365959 
0.022867 9.72499 0.169133 
-0.0365959 0.169133 9.877 
9.85735 -0.0076534 -0.0504787 
-0.0076534 9.8012 0.0972028 
-0.0504787 0.0972028 9.77777 
9.8244 0.000765427 -0.0311265 
0.000765427 9.77846 0.11594 
-0.0311265 0.11594 9.83347 
9.83381 0.00950728 -0.00660678 
0.00950728 9.73628 0.122915 
-0.00660678 0.122915 9.86624 
3.78535 0.303818 0.872356 
0.303818 3.58452 -0.0416148 
0.872356 -0.0416148 2.78366 
5.88193 -2.7566 2.61785 
-2.7566 7.44194 1.34664 
2.61785 1.34664 -3.17034 
1.58133 -0.862876 -0.367988 
-0.862876 2.84779 -0.0779275 
-0.367988 -0.0779275 5.72441 
2.40008 0.323527 -0.138861 
0.323527 6.53397 -2.52561 
-0.138861 -2.52561 1.21948 
10.0719 -0.00406863 -0.00703411 
-0.00406863 10.0747 0.0114355 
-0.00703411 0.0114355 10.11 
9.989 -0.00080309 -0.00641361 
-0.00080309 10.002 -0.0453804 
-0.00641361 -0.0453804 10.2656 
10.118 -0.0187665 0.0224215 
-0.0187665 10.1383 -0.0177461 
0.0224215 -0.0177461 10.0003 
10.0764 0.00424645 -0.0121668 
0.00424645 10.0859 0.0596253 
-0.0121668 0.0596253 10.0942 
9.93985 -0.00610292 -0.186596 
-0.00610292 9.9504 -0.168039 
-0.186596 -0.168039 9.96852 
9.94892 -0.0138745 -0.192473 
-0.0138745 9.93453 -0.155492 
-0.192473 -0.155492 9.97531 
9.96333 0.00431003 -0.158719 
0.00431003 9.93115 -0.174064 
-0.158719 -0.174064 9.96429 
9.93287 -0.00780108 -0.182119 
-0.00780108 9.95699 -0.167234 
-0.182119 -0.167234 9.9689 
10.0019 -0.0030901 -0.0604335 
-0.0030901 9.91932 -0.00932114 
-0.0604335 -0.00932114 9.99633 
9.95931 -0.039565 0.0199322 
-0.039565 9.94018 0.0237449 
0.0199322 0.0237449 10.018 
9.94553 -0.0311501 0.0257401 
-0.0311501 9.96361 0.0229139 
0.0257401 0.0229139 10.0084 
9.9019 -0.0735742 -0.0055548 
-0.0735742 9.96548 0.0177051 
-0.0055548 0.0177051 10.0501 
9.87127 -0.0335042 -0.0379635 
-0.0335042 9.88354 0.00846273 
-0.0379635 0.00846273 9.95569 
9.84144 -0.0503899 -0.0407947 
-0.0503899 9.93917 -0.0460936 
-0.0407947 -0.0460936 9.92988 
9.83619 -0.00487623 -0.00243577 
-0.00487623 9.93782 0.00355007 
-0.00243577 0.00355007 9.93649 
9.80342 -0.0273072 -0.0209229 
-0.0273072 9.88468 0.0249953 
-0.0209229 0.0249953 10.0224 
9.98483 -0.00120116 0.166121 
-0.00120116 9.97884 0.179134 
0.166121 0.179134 9.98526 
9.97914 0.0129467 0.165225 
0.0129467 9.96926 0.187591 
0.165225 0.187591 10.0005 
9.97827 -5.02805e-05 0.161357 
-5.02805e-05 9.97925 0.17717 
0.161357 0.17717 9.99141 
9.98498 -0.000736518 0.16786 
-0.000736518 9.98613 0.175282 
0.16786 0.175282 9.97783 
15.5439 -0.376748 -1.12348 
-0.376748 15.0553 1.20951 
-1.12348 1.20951 19.4496 
16.7575 0.678846 -0.289746 
0.678846 16.4242 1.59567 
-0.289746 1.59567 16.867 
15.7966 -1.20436 0.0588316 
-1.20436 10.1248 2.80686 
0.0588316 2.80686 24.1273 
15.3135 0.350964 -0.479501 
0.350964 15.5135 -0.679663 
-0.479501 -0.679663 19.2218 
9.82284 0.0526781 -0.225772 
0.0526781 9.86272 0.233992 
-0.225772 0.233992 9.78525 
9.86824 0.00522126 -0.181759 
0.00522126 9.81925 0.196117 
-0.181759 0.196117 9.78332 
9.85114 0.0758877 -0.239515 
0.0758877 9.8418 0.266939 
-0.239515 0.266939 9.77787 
9.82914 0.0532029 -0.220619 
0.0532029 9.86133 0.233653 
-0.220619 0.233653 9.78033 
10.5093 0.18626 0.083568 
0.18626 11.0418 0.150944 
0.083568 0.150944 11.2498 
10.8126 0.0958479 0.200418 
0.0958479 10.7989 0.0201578 
0.200418 0.0201578 11.1893 
10.8662 -0.141021 0.324281 
-0.141021 11.126 -0.105545 
0.324281 -0.105545 10.8086 
10.7722 0.170701 0.353122 
0.170701 10.8694 -0.0687335 
0.353122 -0.0687335 11.1592 
9.94758 0.00155166 0.173503 
0.00155166 9.95462 -0.172543 
0.173503 -0.172543 9.96439 
9.94167 -0.00314624 0.174941 
-0.00314624 9.95698 -0.186459 
0.174941 -0.186459 9.96794 
9.9553 0.000139651 0.172371 
0.000139651 9.95427 -0.182323 
0.172371 -0.182323 9.95702 
9.94686 0.0161562 0.16531 
0.0161562 9.95763 -0.163875 
0.16531 -0.163875 9.9621 
9.79658 0.00596749 0.164964 
0.00596749 9.80469 0.091695 
0.164964 0.091695 9.91675 
9.7884 -0.0409826 0.152824 
-0.0409826 9.83988 0.121965 
0.152824 0.121965 9.88975 
9.82713 -0.0385704 0.189389 
-0.0385704 9.81806 0.128632 
0.189389 0.128632 9.87284 
9.80168 -0.0427874 0.182959 
-0.0427874 9.77029 0.11187 
0.182959 0.11187 9.94605 
9.94131 -0.00585076 -0.111273 
-0.00585076 9.9265 -0.197267 
-0.111273 -0.197267 9.97518 
9.97044 0.024994 -0.121293 
0.024994 9.90671 -0.234908 
-0.121293 -0.234908 9.96583 
9.96852 0.00422287 -0.118774 
0.00422287 9.92711 -0.224782 
-0.118774 -0.224782 9.94736 
9.96374 -0.00970749 -0.105443 
-0.00970749 9.91733 -0.190461 
-0.105443 -0.190461 9.96191 
10.0083 -0.0088176 0.165009 
-0.0088176 9.99082 -0.108835 
0.165009 -0.108835 9.99458 
9.9862 -0.0271976 0.141285 
-0.0271976 9.97046 -0.0951657 
0.141285 -0.0951657 10.037 
10.0244 0.000203111 0.15094 
0.000203111 10.0188 -0.124769 
0.15094 -0.124769 9.95048 
10.004 -0.00215215 0.169801 
-0.00215215 10.0335 -0.104025 
0.169801 -0.104025 9.95617 
9.9827 0.00149992 0.134716 
0.00149992 9.98648 -0.200578 
0.134716 -0.200578 9.97945 
9.98249 -0.00293195 0.130889 
-0.00293195 9.97339 -0.205013 
0.130889 -0.205013 9.99275 
9.97925 -0.00131294 0.131405 
-0.00131294 9.98138 -0.204422 
0.131405 -0.204422 9.988 
9.9718 -0.0110346 0.132793 
-0.0110346 9.97325 -0.213889 
0.132793 -0.213889 10.0036 
9.95785 0.00041374 0.23207 
0.00041374 9.98577 -0.0880444 
0.23207 -0.0880444 10.0024 
9.97194 0.00737355 0.229489 
0.00737355 9.98265 -0.0687626 
0.229489 -0.0687626 9.99147 
9.9707 0.0174887 0.237683 
0.0174887 9.999 -0.0799218 
0.237683 -0.0799218 9.97636 
9.98426 0.00924394 0.238864 
0.00924394 9.99771 -0.0777181 
0.238864 -0.0777181 9.9641 
9.82173 0.0795086 -0.395148 
0.0795086 9.93629 0.192486 
-0.395148 0.192486 9.4886 
9.74133 0.0627099 -0.366938 
0.0627099 10.2944 -0.0827611 
-0.366938 -0.0827611 9.2109 
9.57914 -0.00906927 -0.205441 
-0.00906927 9.91047 -0.0288001 
-0.205441 -0.0288001 9.757 
9.70005 -0.0381169 -0.394774 
-0.0381169 9.99025 0.10541 
-0.394774 0.10541 9.55631 
10.0075 0.00882267 0.0157035 
0.00882267 9.97962 -0.016189 
0.0157035 -0.016189 10.0526 
10.0128 0.00924502 0.000676075 
0.00924502 10.0272 0.00347022 
0.000676075 0.00347022 9.99974 
10.0141 0.00369584 0.00592661 
0.00369584 10.0262 0.0100617 
0.00592661 0.0100617 9.99946 
10.0101 0.0215253 0.0116549 
0.0215253 10.029 0.0174251 
0.0116549 0.0174251 10.0006 
10.0481 0.0231616 0.00490762 
0.0231616 9.99975 -0.0128129 
0.00490762 -0.0128129 10.0006 
10.0096 -0.00451429 -0.0134225 
-0.00451429 9.98316 0.0129 
-0.0134225 0.0129 10.0557 
10.0147 -0.000150214 0.00273499 
-0.000150214 10.0075 0.00525882 
0.00273499 0.00525882 10.0262 
10.041 0.0060166 0.031825 
0.0060166 10.0218 0.0141684 
0.031825 0.0141684 9.98571 
10.0193 0.0422351 -0.00446071 
0.0422351 9.9486 0.0299269 
-0.00446071 0.0299269 9.93333 
9.96709 0.00227933 -0.00366669 
0.00227933 9.96045 -0.00596559 
-0.00366669 -0.00596559 9.97369 
9.98883 0.0187539 -0.0469273 
0.0187539 10.0041 -0.0250694 
-0.0469273 -0.0250694 9.90829 
9.93989 -0.0252333 0.0377257 
-0.0252333 9.90576 -0.0173215 
0.0377257 -0.0173215 10.0556 
9.98601 -0.00680602 -0.00689044 
-0.00680602 9.99553 -0.0120237 
-0.00689044 -0.0120237 10.0188 
10.0021 -0.0188524 -0.00157008 
-0.0188524 9.99626 -0.0103453 
-0.00157008 -0.0103453 10.002 
9.99422 -0.00798004 0.00125645 
-0.00798004 10.0069 -0.00337151 
0.00125645 -0.00337151 9.99923 
10.0128 0.00365197 0.0131462 
0.00365197 10.0105 -0.00638496 
0.0131462 -0.00638496 9.97701 
9.96727 -0.00467906 0.00840057 
-0.00467906 9.98621 0.00655923 
0.00840057 0.00655923 10.0085 
9.99635 -0.00490024 -0.00343221 
-0.00490024 9.98579 0.000346516 
-0.00343221 0.000346516 9.97986 
9.99456 -0.00306347 -0.00625263 
-0.00306347 9.98674 0.00264629 
-0.00625263 0.00264629 9.98069 
9.99814 -0.0131311 -0.0123039 
-0.0131311 9.9843 0.00618123 
-0.0123039 0.00618123 9.97955 
9.91711 0.0327433 0.258634 
0.0327433 9.92706 0.0265239 
0.258634 0.0265239 9.98824 
9.93195 -0.00990045 0.248347 
-0.00990045 9.95223 0.00495554 
0.248347 0.00495554 9.94824 
9.95162 0.0192101 0.257108 
0.0192101 9.96405 -0.013104 
0.257108 -0.013104 9.91675 
9.93328 -0.00573006 0.252532 
-0.00573006 9.95142 0.00626456 
0.252532 0.00626456 9.94772 
9.99424 0.00715576 -0.0121491 
0.00715576 9.97236 -0.0245715 
-0.0121491 -0.0245715 9.99726 
9.98645 -0.000781018 -0.00371317 
-0.000781018 9.98488 -0.00983605 
-0.00371317 -0.00983605 9.99253 
9.98618 0.019507 -0.0117461 
0.019507 9.98654 1.39129e-05 
-0.0117461 1.39129e-05 9.99114 
9.98869 -5.71637e-06 -0.00397548 
-5.71637e-06 9.9879 -0.00708943 
-0.00397548 -0.00708943 9.98727 
9.92142 -0.00595174 0.176566 
-0.00595174 9.92435 0.153797 
0.176566 0.153797 9.96236 
9.92368 -0.0205373 0.173882 
-0.0205373 9.935 0.162869 
0.173882 0.162869 9.94946 
9.91262 -0.0193853 0.179333 
-0.0193853 9.92582 0.162356 
0.179333 0.162356 9.96969 
9.92644 -0.00783301 0.171287 
-0.00783301 9.92194 0.154278 
0.171287 0.154278 9.95976 
9.86673 -0.025263 -0.121202 
-0.025263 9.86488 -0.185763 
-0.121202 -0.185763 9.92968 
9.88998 -0.0134171 -0.0920617 
-0.0134171 9.8824 -0.20378 
-0.0920617 -0.20378 9.8889 
9.87555 -0.0212743 -0.124132 
-0.0212743 9.86591 -0.205363 
-0.124132 -0.205363 9.91984 
9.86502 -0.0172907 -0.123936 
-0.0172907 9.86618 -0.208083 
-0.123936 -0.208083 9.93009 
9.98877 -0.000697339 -0.196192 
-0.000697339 9.98555 0.14454 
-0.196192 0.14454 9.98835 
9.98864 -0.000351077 -0.19695 
-0.000351077 9.99023 0.144034 
-0.19695 0.144034 9.98379 
9.98727 -0.0104544 -0.199055 
-0.0104544 9.97161 0.155871 
-0.199055 0.155871 10.0038 
9.98927 0.00160994 -0.197976 
0.00160994 9.98359 0.148333 
-0.197976 0.148333 9.98981 
9.74686 0.0150985 -0.224858 
0.0150985 9.63939 0.0926704 
-0.224858 0.0926704 10.8596 
9.79665 0.180872 0.0637195 
0.180872 9.68148 -0.118326 
0.0637195 -0.118326 10.7678 
9.76532 0.0476572 -0.0238002 
0.0476572 9.81813 -0.104965 
-0.0238002 -0.104965 10.6624 
9.92753 0.144457 -0.0116532 
0.144457 9.8164 -0.145295 
-0.0116532 -0.145295 10.502 
14.9569 0.19458 -0.373487 
0.19458 12.9903 1.73331 
-0.373487 1.73331 17.8066 
13.5844 0.985212 0.861956 
0.985212 12.3093 0.489833 
0.861956 0.489833 19.8601 
15.8973 -0.494703 -0.274263 
-0.494703 13.7651 1.33842 
-0.274263 1.33842 16.0914 
16.3356 0.851893 0.346147 
0.851893 13.8285 3.16678 
0.346147 3.16678 15.5897 
11.9529 0.279239 -0.579684 
0.279239 11.5509 0.511218 
-0.579684 0.511218 12.3824 
14.3829 -0.605415 -0.369363 
-0.605415 12.1897 1.00582 
-0.369363 1.00582 9.31355 
9.61805 0.313295 1.63901 
0.313295 9.04725 -0.698454 
1.63901 -0.698454 17.2209 
10.7289 1.75752 -2.43361 
1.75752 11.448 1.66311 
-2.43361 1.66311 13.7093 
9.89514 -0.0534401 -0.0562739 
-0.0534401 9.907 -0.0157986 
-0.0562739 -0.0157986 10.0169 
9.91963 -0.0380737 -0.0239068 
-0.0380737 9.9017 -0.0229674 
-0.0239068 -0.0229674 9.99767 
9.96247 -0.00299734 -0.0380564 
-0.00299734 9.91143 -0.023725 
-0.0380564 -0.023725 9.9451 
9.90335 -0.0233225 -0.00519832 
-0.0233225 9.92359 -0.00809568 
-0.00519832 -0.00809568 9.99206 
9.98979 -0.0305914 -0.0397183 
-0.0305914 9.98524 0.0478822 
-0.0397183 0.0478822 10.0286 
9.98158 0.00410425 -0.00838082 
0.00410425 9.95206 0.0244418 
-0.00838082 0.0244418 10.07 
10.0125 0.0160462 0.0276767 
0.0160462 9.99277 -0.0156519 
0.0276767 -0.0156519 9.99837 
10.0117 0.0515956 -0.0136 
0.0515956 9.90991 0.0247391 
-0.0136 0.0247391 10.082 
9.82587 -0.0398422 -0.345093 
-0.0398422 9.96563 -0.159118 
-0.345093 -0.159118 9.80122 
9.83315 0.0243723 -0.21472 
0.0243723 9.89547 -0.0730377 
-0.21472 -0.0730377 9.86409 
9.88273 -0.0314403 -0.241527 
-0.0314403 9.91549 -0.166043 
-0.241527 -0.166043 9.7945 
9.87397 -0.0225986 -0.252512 
-0.0225986 9.91219 -0.130331 
-0.252512 -0.130331 9.80656 
9.68717 -0.402774 -0.0778279 
-0.402774 10.3875 0.389155 
-0.0778279 0.389155 10.9913 
9.96448 0.369023 0.0369966 
0.369023 10.3357 -0.248519 
0.0369966 -0.248519 10.7658 
10.1428 0.337628 -0.00382942 
0.337628 10.4455 -0.0589676 
-0.00382942 -0.0589676 10.4776 
10.1285 -0.0366772 -0.121777 
-0.0366772 10.4003 -0.244557 
-0.121777 -0.244557 10.5371 
9.90983 -0.0035394 -0.156275 
-0.0035394 9.89836 -0.192244 
-0.156275 -0.192244 9.96242 
9.90535 -0.0143786 -0.151588 
-0.0143786 9.92214 -0.166035 
-0.151588 -0.166035 9.94311 
9.90313 -0.011664 -0.156549 
-0.011664 9.89791 -0.17671 
-0.156549 -0.17671 9.96956 
9.90747 -0.018725 -0.161375 
-0.018725 9.90734 -0.174006 
-0.161375 -0.174006 9.9558 
9.9394 0.00568659 -0.249641 
0.00568659 9.95872 0.0407455 
-0.249641 0.0407455 9.98129 
9.94725 0.00325674 -0.256633 
0.00325674 9.95762 0.0494124 
-0.256633 0.0494124 9.97455 
9.94958 0.0091802 -0.234737 
0.0091802 9.95871 0.043031 
-0.234737 0.043031 9.97112 
9.94667 0.00721004 -0.252779 
0.00721004 9.96527 0.0526459 
-0.252779 0.0526459 9.96748 
9.98076 0.000563235 0.0724997 
0.000563235 9.96517 -0.226075 
0.0724997 -0.226075 10.0063 
9.97709 0.00225237 0.0758117 
0.00225237 9.97652 -0.241783 
0.0758117 -0.241783 9.99859 
9.99874 0.00202425 0.0740085 
0.00202425 9.98085 -0.239596 
0.0740085 -0.239596 9.97262 
9.99892 0.002828 0.0621087 
0.002828 9.97157 -0.243485 
0.0621087 -0.243485 9.98172 
9.93645 -0.0115285 0.00452433 
-0.0115285 9.87736 -0.197852 
0.00452433 -0.197852 9.81834 
9.91893 0.000394175 0.00739144 
0.000394175 9.89535 -0.234336 
0.00739144 -0.234336 9.81788 
9.94116 0.000957432 0.0130453 
0.000957432 9.9181 -0.229047 
0.0130453 -0.229047 9.77288 
9.93312 0.00816684 -0.00507941 
0.00816684 9.91452 -0.226295 
-0.00507941 -0.226295 9.78451 
9.9548 -0.0189439 0.00350385 
-0.0189439 9.9469 0.003132 
0.00350385 0.003132 9.94245 
9.96678 0.00492857 0.00036985 
0.00492857 9.94343 0.0119031 
0.00036985 0.0119031 9.93394 
9.95687 0.00639165 0.0120047 
0.00639165 9.93282 -0.00667374 
0.0120047 -0.00667374 9.95446 
9.95038 -0.0225093 0.0117556 
-0.0225093 9.94203 0.0104032 
0.0117556 0.0104032 9.95174 
9.98192 -0.000537305 0.17489 
-0.000537305 9.98709 -0.163054 
0.17489 -0.163054 9.98943 
9.98217 -0.000183435 0.178194 
-0.000183435 9.9854 -0.162895 
0.178194 -0.162895 9.99088 
9.97385 -0.0103067 0.185338 
-0.0103067 9.98066 -0.164863 
0.185338 -0.164863 10.0039 
9.98739 0.000584536 0.173602 
0.000584536 9.98655 -0.163739 
0.173602 -0.163739 9.9845 
9.86929 -0.0168087 -0.0688926 
-0.0168087 9.83802 -0.220351 
-0.0688926 -0.220351 9.88955 
9.86182 -0.0118617 -0.0653501 
-0.0118617 9.84383 -0.226313 
-0.0653501 -0.226313 9.89121 
9.85533 -0.0109341 -0.0772819 
-0.0109341 9.85827 -0.225345 
-0.0772819 -0.225345 9.88325 
9.85462 -0.00438818 -0.0719637 
-0.00438818 9.85092 -0.224725 
-0.0719637 -0.224725 9.89132 
10.0733 -0.502612 1.75951 
-0.502612 7.21389 0.941336 
1.75951 0.941336 20.6114 
15.767 0.224091 -0.29938 
0.224091 12.8812 1.70361 
-0.29938 1.70361 9.2504 
12.7108 -0.246106 0.0012684 
-0.246106 11.1301 0.449447 
0.0012684 0.449447 14.0576 
13.356 -0.00517824 -1.27983 
-0.00517824 11.4512 -2.7697 
-1.27983 -2.7697 13.0913 
9.95692 0.0140531 0.243187 
0.0140531 9.94729 -0.0427034 
0.243187 -0.0427034 10.0126 
9.96445 0.00160249 0.22913 
0.00160249 9.96134 -0.0474623 
0.22913 -0.0474623 9.99101 
9.96672 0.00201628 0.230712 
0.00201628 9.97614 -0.0514182 
0.230712 -0.0514182 9.97394 
9.95944 0.00181348 0.224566 
0.00181348 9.98334 -0.0456125 
0.224566 -0.0456125 9.97402 
9.88208 0.0185809 0.237827 
0.0185809 9.90541 -0.0496366 
0.237827 -0.0496366 9.92383 
9.90705 -0.0122654 0.233274 
-0.0122654 9.87979 -0.0524299 
0.233274 -0.0524299 9.92447 
9.89634 0.000836369 0.235742 
0.000836369 9.90487 -0.0512618 
0.235742 -0.0512618 9.9101 
9.88654 0.00119291 0.233866 
0.00119291 9.91492 -0.0497708 
0.233866 -0.0497708 9.90986 
8.62481 -2.18253 1.021 
-2.18253 10.9258 1.24115 
1.021 1.24115 -9.55903 
-1.72832 -0.253622 -1.48475 
-0.253622 -0.74177 -1.1743 
-1.48475 -1.1743 12.4616 
5.91828 -0.467983 3.00664 
-0.467983 7.26117 0.200761 
3.00664 0.200761 -3.1879 
4.02033 1.00051 7.05702 
1.00051 6.84027 -8.95354 
7.05702 -8.95354 -0.869048 
10.5209 0.353305 0.408152 
0.353305 10.4272 -0.067842 
0.408152 -0.067842 12.1143 
11.3268 0.115661 0.016714 
0.115661 11.2856 0.0423949 
0.016714 0.0423949 10.4499 
10.9145 0.0300789 -0.0168704 
0.0300789 11.2028 -0.124 
-0.0168704 -0.124 10.945 
11.1053 0.0732622 -0.135544 
0.0732622 11.0279 -0.436116 
-0.135544 -0.436116 10.9292 
9.93703 0.028346 0.00845014 
0.028346 9.95932 -0.0193833 
0.00845014 -0.0193833 9.97871 
9.92705 0.0231503 0.00708687 
0.0231503 9.96837 0.0280861 
0.00708687 0.0280861 9.97963 
9.91907 0.00662413 -0.00045644 
0.00662413 9.97099 0.0273482 
-0.00045644 0.0273482 9.98499 
9.92084 0.0237657 0.00820332 
0.0237657 9.95606 0.0176479 
0.00820332 0.0176479 9.99815 
9.93955 -0.012892 0.133462 
-0.012892 9.93544 0.205904 
0.133462 0.205904 9.98367 
9.96891 -0.0156189 0.153307 
-0.0156189 9.90891 0.222032 
0.153307 0.222032 9.98084 
9.96867 0.0171507 0.121831 
0.0171507 9.92219 0.17255 
0.121831 0.17255 9.9678 
9.94241 -0.0136891 0.124612 
-0.0136891 9.94802 0.193438 
0.124612 0.193438 9.96823 
12.325 0.0511438 1.6794 
0.0511438 15.5505 0.477404 
1.6794 0.477404 8.24677 
10.5672 0.168809 0.380542 
0.168809 12.2872 0.0792863 
0.380542 0.0792863 13.2679 
6.90614 -0.00744834 0.792407 
-0.00744834 9.38121 -1.67287 
0.792407 -1.67287 19.8349 
11.1526 0.370567 -3.54617 
0.370567 13.0401 1.47269 
-3.54617 1.47269 11.9295 
9.84818 0.0330398 0.174261 
0.0330398 9.87427 -0.16865 
0.174261 -0.16865 9.98628 
9.91407 0.00949191 0.175497 
0.00949191 9.90571 -0.144627 
0.175497 -0.144627 9.88895 
9.90764 -0.0293307 0.155335 
-0.0293307 9.90612 -0.161613 
0.155335 -0.161613 9.89496 
9.91671 0.0178969 0.134717 
0.0178969 9.86784 -0.161603 
0.134717 -0.161603 9.92418 
-1.16492 -1.79195 0.355458 
-1.79195 2.21686 -2.81492 
0.355458 -2.81492 17.0687 
7.94296 1.8907 -2.75294 
1.8907 14.6093 4.37366 
-2.75294 4.37366 -4.43161 
9.96498 -0.356996 1.12395 
-0.356996 14.1572 4.47674 
1.12395 4.47674 -6.00154 
9.49465 1.93851 -0.34316 
1.93851 -2.43634 15.2802 
-0.34316 15.2802 11.0624 
10.2615 -0.0642206 0.00109696 
-0.0642206 10.2722 -0.064641 
0.00109696 -0.064641 10.5258 
10.2929 0.0155049 0.0265332 
0.0155049 10.3379 -6.46114e-05 
0.0265332 -6.46114e-05 10.4286 
10.52 -0.0233041 0.00570683 
-0.0233041 10.482 0.00818558 
0.00570683 0.00818558 10.0575 
10.3309 -0.0270065 -0.070577 
-0.0270065 10.2709 0.0719622 
-0.070577 0.0719622 10.4578 
10.0686 0.0199411 -0.00562138 
0.0199411 10.0508 0.0134247 
-0.00562138 0.0134247 9.98304 
10.0338 0.0185981 0.00572764 
0.0185981 10.0398 -0.00829917 
0.00572764 -0.00829917 10.0289 
10.0163 0.0559369 0.000780105 
0.0559369 10.0101 -0.0188587 
0.000780105 -0.0188587 10.076 
10.0032 0.0312161 0.04123 
0.0312161 10.028 -0.038084 
0.04123 -0.038084 10.0712 
-0.68557 -0.412918 -0.270149 
-0.412918 3.08306 -0.700457 
-0.270149 -0.700457 6.29581 
3.07839 0.394457 -0.4968 
0.394457 4.39801 -0.178985 
-0.4968 -0.178985 1.2169 
6.92449 -1.73546 -1.93456 
-1.73546 10.2984 -2.44684 
-1.93456 -2.44684 -8.52961 
0.497833 0.359278 1.38034 
0.359278 6.7199 5.57765 
1.38034 5.57765 1.47556 
14.9072 0.463672 0.175447 
0.463672 12.8639 1.2132 
0.175447 1.2132 14.963 
11.4958 -0.446386 -0.637841 
-0.446386 10.2988 0.0842638 
-0.637841 0.0842638 20.9395 
15.0131 0.0180321 -0.163497 
0.0180321 13.282 1.05944 
-0.163497 1.05944 14.439 
15.4385 -0.256122 0.0284806 
-0.256122 12.7447 4.15152 
0.0284806 4.15152 14.5508 
8.41047 -0.441837 -0.519318 
-0.441837 9.40371 -0.124107 
-0.519318 -0.124107 9.61648 
10.0142 -0.666103 -1.03035 
-0.666103 9.32737 -2.02436 
-1.03035 -2.02436 8.08913 
9.1967 -0.158466 -0.799037 
-0.158466 10.0273 -0.706685 
-0.799037 -0.706685 8.20669 
9.45516 0.326414 -0.693786 
0.326414 10.0639 -0.732521 
-0.693786 -0.732521 7.91161 
10.0062 0.00778846 -0.00349613 
0.00778846 10.0198 0.00711843 
-0.00349613 0.00711843 10.0053 
10.0149 -0.00743273 0.00285689 
-0.00743273 10.012 0.00061005 
0.00285689 0.00061005 10.0044 
10.0144 -0.0144299 -0.000288444 
-0.0144299 9.99502 0.000916884 
-0.000288444 0.000916884 10.0218 
9.9988 0.00700998 -0.00548144 
0.00700998 10.029 -0.00530199 
-0.00548144 -0.00530199 10.0035 
10.0647 0.00769692 0.0416403 
0.00769692 10.0745 0.0230437 
0.0416403 0.0230437 10.2364 
10.1498 0.0110203 0.0202609 
0.0110203 10.1555 -0.0126629 
0.0202609 -0.0126629 10.0704 
10.0947 0.0502026 0.0101417 
0.0502026 10.149 -0.00740245 
0.0101417 -0.00740245 10.132 
10.1137 -0.0140124 -0.0315347 
-0.0140124 10.1145 -0.02043 
-0.0315347 -0.02043 10.1475 
9.21068 -0.167322 1.27175 
-0.167322 10.0992 1.3473 
1.27175 1.3473 8.48759 
9.85844 -0.143501 1.35323 
-0.143501 11.4362 0.282607 
1.35323 0.282607 6.50293 
8.52802 -0.466529 1.05211 
-0.466529 9.53541 -0.0766823 
1.05211 -0.0766823 9.73409 
8.82327 -0.118721 0.624744 
-0.118721 10.3968 1.10949 
0.624744 1.10949 8.57747 
11.5685 -0.0654176 -0.162313 
-0.0654176 10.793 0.929104 
-0.162313 0.929104 12.7234 
12.4464 -0.436854 -0.229514 
-0.436854 13.4252 1.82637 
-0.229514 1.82637 9.21338 
10.0115 0.286206 0.106561 
0.286206 9.35803 -1.48997 
0.106561 -1.48997 15.7155 
12.3911 0.318491 -1.03666 
0.318491 8.4939 2.49661 
-1.03666 2.49661 14.2 
9.77573 -0.0514335 -0.218711 
-0.0514335 10.1022 -0.0535402 
-0.218711 -0.0535402 9.83461 
9.75352 -0.105036 -0.00386511 
-0.105036 9.84809 0.0474133 
-0.00386511 0.0474133 10.1109 
9.8128 -0.0737111 0.109577 
-0.0737111 9.85575 0.0430282 
0.109577 0.0430282 10.044 
9.67057 -0.183111 0.00330505 
-0.183111 9.95057 0.0257676 
0.00330505 0.0257676 10.0914 
10.0086 -0.00325404 -0.15311 
-0.00325404 9.93107 -0.111269 
-0.15311 -0.111269 10.0458 
9.9945 -0.0121046 -0.179151 
-0.0121046 9.9943 -0.119828 
-0.179151 -0.119828 9.99671 
10.0071 -0.0145981 -0.1745 
-0.0145981 10.0275 -0.146428 
-0.1745 -0.146428 9.95082 
9.99665 0.00522196 -0.177617 
0.00522196 10.0369 -0.117693 
-0.177617 -0.117693 9.95198 
9.98351 -0.000683731 -0.175793 
-0.000683731 9.98404 0.167357 
-0.175793 0.167357 9.98688 
9.98182 0.000900706 -0.17814 
0.000900706 9.98551 0.168451 
-0.17814 0.168451 9.9871 
9.97166 -0.0144951 -0.190117 
-0.0144951 9.97656 0.168465 
-0.190117 0.168465 10.0062 
9.98969 0.00103236 -0.175232 
0.00103236 9.98377 0.168221 
-0.175232 0.168221 9.98097 
9.84956 -0.0251561 -0.133406 
-0.0251561 9.87498 0.197116 
-0.133406 0.197116 9.87306 
9.86134 -0.00103731 -0.127484 
-0.00103731 9.8503 0.185318 
-0.127484 0.185318 9.88597 
9.84644 0.032438 -0.12139 
0.032438 9.84877 0.165368 
-0.12139 0.165368 9.90239 
9.86043 0.00703552 -0.143469 
0.00703552 9.83236 0.181343 
-0.143469 0.181343 9.90482 
9.66906 -0.0228669 0.16071 
-0.0228669 9.79804 0.0201974 
0.16071 0.0201974 9.83618 
9.7495 -0.0511185 0.137431 
-0.0511185 9.73664 0.0333085 
0.137431 0.0333085 9.81714 
9.79923 -0.0527029 0.153225 
-0.0527029 9.7156 0.0162893 
0.153225 0.0162893 9.78844 
9.69876 -0.0736564 0.14578 
-0.0736564 9.80172 0.0342685 
0.14578 0.0342685 9.80279 
9.61528 -0.0544305 0.330614 
-0.0544305 9.92186 0.151283 
0.330614 0.151283 9.55684 
9.62321 0.0101341 0.357836 
0.0101341 9.85621 0.128493 
0.357836 0.128493 9.61456 
9.69241 0.00158595 0.336573 
0.00158595 9.81765 0.0477352 
0.336573 0.0477352 9.58393 
9.6162 -0.0151402 0.303354 
-0.0151402 9.86373 0.0987475 
0.303354 0.0987475 9.61405 
9.91659 0.0232096 0.245049 
0.0232096 9.93467 -0.0529772 
0.245049 -0.0529772 9.96134 
9.92092 0.00585554 0.219871 
0.00585554 9.92885 -0.0622976 
0.219871 -0.0622976 9.96283 
9.92143 0.0124362 0.243092 
0.0124362 9.94798 -0.057089 
0.243092 -0.057089 9.94319 
9.91359 0.00923428 0.217042 
0.00923428 9.94903 -0.0556186 
0.217042 -0.0556186 9.94999 
9.46473 0.0542237 0.532276 
0.0542237 9.75259 0.243762 
0.532276 0.243762 9.62483 
9.574 -0.0637929 0.328544 
-0.0637929 9.99142 0.395252 
0.328544 0.395252 9.27673 
9.56428 -0.0958777 0.394738 
-0.0958777 9.97097 0.166365 
0.394738 0.166365 9.30691 
9.47803 0.019621 0.484266 
0.019621 9.94679 0.259641 
0.484266 0.259641 9.41733 
9.99086 -0.0122785 -0.0044753 
-0.0122785 10.0093 0.00480637 
-0.0044753 0.00480637 9.97563 
10.0226 -0.00222324 0.00953978 
-0.00222324 10.0102 -0.0216547 
0.00953978 -0.0216547 9.94303 
9.9268 0.00114229 -0.0343483 
0.00114229 9.96945 -0.013858 
-0.0343483 -0.013858 10.0795 
9.98001 -0.043489 0.00337706 
-0.043489 10.0137 -0.0198881 
0.00337706 -0.0198881 9.98205 
10.0258 0.00752669 -0.00650353 
0.00752669 10.0191 0.024921 
-0.00650353 0.024921 9.94788 
9.97126 -0.00278897 0.0157899 
-0.00278897 10.0012 0.0117618 
0.0157899 0.0117618 10.0203 
9.95821 0.00629732 -0.0030908 
0.00629732 10.0232 0.00155213 
-0.0030908 0.00155213 10.0113 
9.96467 -0.0238492 0.0275414 
-0.0238492 10.0038 0.00846958 
0.0275414 0.00846958 10.0243 
10.0024 0.00500376 0.0140002 
0.00500376 9.97317 -0.0197893 
0.0140002 -0.0197893 10.0354 
10.0103 0.0356109 0.00977677 
0.0356109 9.95987 -0.0359867 
0.00977677 -0.0359867 10.0408 
10.0374 -0.0119772 -0.00355352 
-0.0119772 9.9507 0.00664963 
-0.00355352 0.00664963 10.0228 
10.0316 -0.0138778 0.032477 
-0.0138778 10.0492 0.0119046 
0.032477 0.0119046 9.93013 
9.7589 -0.0223774 0.104355 
-0.0223774 9.90928 0.00159804 
0.104355 0.00159804 10.1279 
9.74396 -0.100007 0.0303371 
-0.100007 9.82019 -0.036486 
0.0303371 -0.036486 10.232 
9.83982 -0.0712296 -0.0441633 
-0.0712296 9.70813 -0.0165173 
-0.0441633 -0.0165173 10.2482 
9.61843 -0.0112435 0.0162223 
-0.0112435 9.76464 -0.0109939 
0.0162223 -0.0109939 10.413 
9.97367 0.0767173 0.24547 
0.0767173 9.84824 -0.13266 
0.24547 -0.13266 10.084 
10.0036 0.175056 0.0152482 
0.175056 9.84482 0.0846696 
0.0152482 0.0846696 10.0575 
9.81463 -0.00663758 -0.065041 
-0.00663758 9.90215 0.0535116 
-0.065041 0.0535116 10.1891 
9.91083 0.0574044 -0.0718595 
0.0574044 9.66939 -0.0583769 
-0.0718595 -0.0583769 10.3257 
9.78448 -3.4757e-06 -0.0288005 
-3.4757e-06 9.73735 -0.198043 
-0.0288005 -0.198043 9.8111 
9.73376 0.0279587 -0.00212625 
0.0279587 9.8061 -0.186186 
-0.00212625 -0.186186 9.79308 
9.83299 -0.00675575 -0.000171736 
-0.00675575 9.67935 -0.185353 
-0.000171736 -0.185353 9.8206 
9.79172 0.0193662 -0.012162 
0.0193662 9.74484 -0.226644 
-0.012162 -0.226644 9.79638 
9.99323 0.00212407 0.0101431 
0.00212407 10.0125 -0.00411689 
0.0101431 -0.00411689 10.0132 
9.99217 0.0175129 0.0183372 
0.0175129 10.0144 -7.31717e-05 
0.0183372 -7.31717e-05 10.0124 
9.99533 0.00781296 0.00871804 
0.00781296 10.0013 -0.00791734 
0.00871804 -0.00791734 10.0223 
9.99328 0.0102281 0.0168592 
0.0102281 10.0106 -0.00730143 
0.0168592 -0.00730143 10.015 
9.9325 0.0124793 -0.156472 
0.0124793 9.93333 -0.174996 
-0.156472 -0.174996 9.90528 
9.90917 -0.0232235 -0.179977 
-0.0232235 9.90802 -0.187429 
-0.179977 -0.187429 9.95393 
9.92035 0.00819389 -0.173187 
0.00819389 9.93697 -0.163314 
-0.173187 -0.163314 9.91379 
9.9025 -0.00451235 -0.170175 
-0.00451235 9.92167 -0.160363 
-0.170175 -0.160363 9.94694 
9.95372 0.00608068 0.212256 
0.00608068 9.95973 -0.0923107 
0.212256 -0.0923107 10.0027 
9.96241 0.00562177 0.219546 
0.00562177 9.96441 -0.103467 
0.219546 -0.103467 9.98927 
9.96611 0.00475241 0.21439 
0.00475241 9.96455 -0.106406 
0.21439 -0.106406 9.98544 
9.97074 0.00844584 0.219354 
0.00844584 9.96297 -0.113836 
0.219354 -0.113836 9.98239 
9.75572 -0.0236142 0.0214913 
-0.0236142 9.81146 -0.180656 
0.0214913 -0.180656 9.73467 
9.82102 0.0634533 0.0296861 
0.0634533 9.65399 -0.122945 
0.0296861 -0.122945 9.82683 
9.74415 0.0123676 -0.00849831 
0.0123676 9.80008 -0.202571 
-0.00849831 -0.202571 9.75762 
9.77806 0.0151017 0.0644125 
0.0151017 9.69257 -0.203777 
0.0644125 -0.203777 9.83121 
10.3202 0.00264255 0.081277 
0.00264255 10.3233 -0.0123836 
0.081277 -0.0123836 10.5978 
10.4037 0.0258209 -0.00279915 
0.0258209 10.3724 0.0160137 
-0.00279915 0.0160137 10.4652 
10.6048 -0.0613385 0.00817245 
-0.0613385 10.4362 0.0060683 
0.00817245 0.0060683 10.2002 
10.3692 0.0267819 -0.103362 
0.0267819 10.3731 -0.000449881 
-0.103362 -0.000449881 10.499 
9.44134 0.303417 0.377253 
0.303417 9.87631 -0.172883 
0.377253 -0.172883 9.96462 
9.36737 0.234341 0.368954 
0.234341 9.91887 -0.150454 
0.368954 -0.150454 9.99603 
9.40953 0.28657 0.526768 
0.28657 9.97792 -0.281247 
0.526768 -0.281247 9.89481 
9.6349 0.0172582 0.362436 
0.0172582 9.90091 -0.126431 
0.362436 -0.126431 9.74645 
9.50671 -0.0124062 0.337503 
-0.0124062 9.89935 0.167049 
0.337503 0.167049 9.67686 
9.6052 -0.0464761 0.381244 
-0.0464761 9.82246 0.162113 
0.381244 0.162113 9.65526 
9.57388 -0.0892665 0.377191 
-0.0892665 9.90102 0.171341 
0.377191 0.171341 9.60803 
9.59009 -0.064042 0.295163 
-0.064042 9.9095 0.111699 
0.295163 0.111699 9.58334 
9.88721 0.00986566 -0.0496393 
0.00986566 9.86636 0.244213 
-0.0496393 0.244213 9.9301 
9.89411 0.0110683 -0.0482113 
0.0110683 9.88143 0.236254 
-0.0482113 0.236254 9.90813 
9.89015 0.00257227 -0.0486419 
0.00257227 9.89629 0.238716 
-0.0486419 0.238716 9.89723 
9.89308 0.0110588 -0.0473681 
0.0110588 9.88464 0.220291 
-0.0473681 0.220291 9.90595 
8.14819 -0.654245 1.59763 
-0.654245 11.4199 0.692874 
1.59763 0.692874 15.0448 
9.61529 -0.687673 0.872347 
-0.687673 12.5407 -0.0181656 
0.872347 -0.0181656 12.4569 
11.1291 -0.948806 1.58971 
-0.948806 13.3145 -0.563085 
1.58971 -0.563085 10.1692 
9.37835 -0.582978 0.440796 
-0.582978 12.9205 0.446039 
0.440796 0.446039 12.314 
9.93344 0.00363373 -0.256365 
0.00363373 9.95185 -0.0147648 
-0.256365 -0.0147648 9.96919 
9.95131 0.00155028 -0.266401 
0.00155028 9.96126 -0.0178678 
-0.266401 -0.0178678 9.94191 
9.94765 0.00478113 -0.265248 
0.00478113 9.95113 -0.0222918 
-0.265248 -0.0222918 9.9557 
9.94543 0.000822294 -0.259336 
0.000822294 9.95477 -0.0168273 
-0.259336 -0.0168273 9.95427 
9.96282 0.0171438 0.130261 
0.0171438 9.94198 -0.191145 
0.130261 -0.191145 9.9647 
9.9544 0.00136381 0.134224 
0.00136381 9.94861 -0.204752 
0.134224 -0.204752 9.96648 
9.95333 -0.00572102 0.153322 
-0.00572102 9.94626 -0.2072 
0.153322 -0.2072 9.96992 
9.94838 -0.00138735 0.147762 
-0.00138735 9.96145 -0.206356 
0.147762 -0.206356 9.95967 
9.64928 -0.101166 0.0226491 
-0.101166 9.99251 0.00259631 
0.0226491 0.00259631 10.0478 
10.2634 0.096996 -0.0269736 
0.096996 9.71013 0.00638393 
-0.0269736 0.00638393 9.71601 
9.80041 0.00064785 0.0671493 
0.00064785 9.96641 -0.00361207 
0.0671493 -0.00361207 9.92273 
9.73049 0.129689 0.0877204 
0.129689 9.9963 0.0291649 
0.0877204 0.0291649 9.96277 
9.96607 -0.0137987 0.0924787 
-0.0137987 9.9366 0.211031 
0.0924787 0.211031 9.9683 
9.9546 -0.00127177 0.0911365 
-0.00127177 9.94712 0.22564 
0.0911365 0.22564 9.96924 
9.95131 -0.00316807 0.110079 
-0.00316807 9.96074 0.230734 
0.110079 0.230734 9.95892 
9.95188 0.00481944 0.111346 
0.00481944 9.94888 0.230721 
0.111346 0.230721 9.9702 
10.0058 -0.0277991 -0.0196731 
-0.0277991 9.98416 0.0296207 
-0.0196731 0.0296207 10.0299 
9.97669 -0.0395711 -0.0225415 
-0.0395711 10.0124 -0.0280845 
-0.0225415 -0.0280845 10.0309 
10.0016 -0.0228929 0.0232542 
-0.0228929 10.0097 0.0429726 
0.0232542 0.0429726 10.0086 
9.94085 -0.0509769 0.0278162 
-0.0509769 9.98846 -0.0050096 
0.0278162 -0.0050096 10.0906 
9.99234 0.00329848 -0.00524715 
0.00329848 10.0307 -0.00708429 
-0.00524715 -0.00708429 10.0094 
10.0061 0.00155049 -0.00581244 
0.00155049 10.0223 0.00498469 
-0.00581244 0.00498469 10.0041 
10.0222 -0.0135016 -0.00298587 
-0.0135016 9.98675 0.000835995 
-0.00298587 0.000835995 10.0236 
10.0274 -0.0127424 0.0117889 
-0.0127424 10.003 -0.00142137 
0.0117889 -0.00142137 10.0022 
-2.39657 0.423729 -0.933087 
0.423729 2.11581 1.3337 
-0.933087 1.3337 13.4748 
6.2507 0.134808 -1.19263 
0.134808 11.4442 1.29449 
-1.19263 1.29449 -4.50087 
6.75294 -0.169099 2.70079 
-0.169099 11.3277 1.25241 
2.70079 1.25241 -4.88658 
6.36934 -1.38657 0.245358 
-1.38657 7.88962 11.9758 
0.245358 11.9758 -1.06491 
9.94258 -0.00123029 -0.121014 
-0.00123029 9.95825 0.223375 
-0.121014 0.223375 10.0056 
9.9647 0.00426931 -0.120534 
0.00426931 9.9542 0.206948 
-0.120534 0.206948 9.98753 
9.96837 0.00813248 -0.122726 
0.00813248 9.96263 0.211799 
-0.122726 0.211799 9.97543 
9.97564 0.00400787 -0.122425 
0.00400787 9.9611 0.20517 
-0.122425 0.20517 9.9697 
9.78605 -0.0368071 0.100805 
-0.0368071 9.50143 -0.0734819 
0.100805 -0.0734819 10.1252 
10.0052 -0.0914031 -0.121586 
-0.0914031 9.55471 -0.181852 
-0.121586 -0.181852 9.85273 
9.98464 -0.0396614 -0.175253 
-0.0396614 9.77155 -0.0458242 
-0.175253 -0.0458242 9.6565 
9.78949 -0.0152515 -0.0184818 
-0.0152515 9.65093 -0.201128 
-0.0184818 -0.201128 9.97226 
9.95908 0.0378841 0.0667321 
0.0378841 9.8987 -0.0201663 
0.0667321 -0.0201663 10.0228 
9.89701 0.0664944 0.0214741 
0.0664944 9.9654 -0.00593448 
0.0214741 -0.00593448 10.0182 
9.97505 0.06925 -0.0773543 
0.06925 9.89521 0.0187344 
-0.0773543 0.0187344 10.0104 
9.8433 0.0752179 0.023418 
0.0752179 9.9789 -0.0123628 
0.023418 -0.0123628 10.0584 
9.79332 -0.019213 -0.0603062 
-0.019213 9.78132 -0.180839 
-0.0603062 -0.180839 9.8324 
9.77169 -0.0134122 -0.0466861 
-0.0134122 9.81781 -0.1812 
-0.0466861 -0.1812 9.81755 
9.82649 -0.0762762 -0.0537388 
-0.0762762 9.69575 -0.146166 
-0.0537388 -0.146166 9.8848 
9.79609 0.00840516 -0.0822068 
0.00840516 9.77066 -0.204102 
-0.0822068 -0.204102 9.8403 
9.88375 0.0064983 -0.00175383 
0.0064983 9.95085 -0.0114433 
-0.00175383 -0.0114433 9.93841 
9.9142 0.0558277 0.00609463 
0.0558277 9.91573 -0.0078776 
0.00609463 -0.0078776 9.94308 
9.88981 0.060562 0.0122637 
0.060562 9.90214 -0.0309863 
0.0122637 -0.0309863 9.98106 
9.83958 0.051496 -0.0114255 
0.051496 9.93622 0.0122779 
-0.0114255 0.0122779 9.99721 
9.574 -0.0135648 0.190183 
-0.0135648 9.82565 -0.0263553 
0.190183 -0.0263553 9.81376 
9.6269 -0.0488898 0.23107 
-0.0488898 9.77319 0.0507323 
0.23107 0.0507323 9.81332 
9.67427 0.013004 0.162776 
0.013004 9.7182 0.129069 
0.162776 0.129069 9.82095 
9.64327 -0.0539087 0.20699 
-0.0539087 9.79074 0.0175561 
0.20699 0.0175561 9.7794 
9.93576 0.00109491 -0.156177 
0.00109491 9.93055 -0.174019 
-0.156177 -0.174019 9.95713 
9.93498 -0.0143042 -0.142392 
-0.0143042 9.92816 -0.168196 
-0.142392 -0.168196 9.96029 
9.94208 -0.0198789 -0.169585 
-0.0198789 9.90766 -0.182256 
-0.169585 -0.182256 9.97369 
9.94042 -0.0100957 -0.158107 
-0.0100957 9.92763 -0.173577 
-0.158107 -0.173577 9.95538 
9.96546 0.00690444 -0.0867993 
0.00690444 9.98128 -0.23126 
-0.0867993 -0.23126 9.98615 
9.96763 -0.00144179 -0.0860213 
-0.00144179 9.98163 -0.22896 
-0.0860213 -0.22896 9.98362 
9.98288 0.00171613 -0.0979089 
0.00171613 9.98132 -0.233096 
-0.0979089 -0.233096 9.96868 
9.96578 0.00375182 -0.0790489 
0.00375182 9.95913 -0.233619 
-0.0790489 -0.233619 10.008 
9.36626 1.3464 -1.63673 
1.3464 8.0351 2.25777 
-1.63673 2.25777 8.28518 
9.88373 1.00357 -1.51321 
1.00357 8.99011 1.92677 
-1.51321 1.92677 6.81271 
10.3621 1.26948 -0.773715 
1.26948 8.99274 2.67826 
-0.773715 2.67826 6.33175 
9.58556 1.66458 -1.69894 
1.66458 9.21662 1.29903 
-1.69894 1.29903 6.88437 
9.97964 0.00131621 -0.0106977 
0.00131621 9.96122 0.00364349 
-0.0106977 0.00364349 9.95927 
10.0065 -0.013051 -0.0248173 
-0.013051 9.95407 -0.00545145 
-0.0248173 -0.00545145 9.9396 
9.95272 0.0250134 0.0172702 
0.0250134 9.95597 -0.00399193 
0.0172702 -0.00399193 9.99144 
9.95296 -0.00122318 -0.017752 
-0.00122318 9.95643 -3.71787e-05 
-0.017752 -3.71787e-05 9.99074 
10.1581 -0.0847783 -0.0878003 
-0.0847783 10.2638 0.0234629 
-0.0878003 0.0234629 10.1791 
9.86029 -0.0030705 0.0982767 
-0.0030705 9.99623 -0.0195293 
0.0982767 -0.0195293 10.7445 
10.4706 -0.0741268 -0.0567621 
-0.0741268 10.2079 -0.0334921 
-0.0567621 -0.0334921 9.92253 
9.94737 -0.09174 -0.424628 
-0.09174 10.331 -0.0740084 
-0.424628 -0.0740084 10.3227 
9.92319 0.0093488 -0.23532 
0.0093488 9.92876 0.0584747 
-0.23532 0.0584747 9.94229 
9.91899 0.0132238 -0.229574 
0.0132238 9.94521 0.0529964 
-0.229574 0.0529964 9.93004 
9.91517 0.0100328 -0.247783 
0.0100328 9.93032 0.0559851 
-0.247783 0.0559851 9.94875 
9.92596 0.0156958 -0.245083 
0.0156958 9.93463 0.0619924 
-0.245083 0.0619924 9.93365 
10.0109 0.00711958 0.00449294 
0.00711958 10.016 -0.00159372 
0.00449294 -0.00159372 10.0513 
10.0363 0.00451921 -0.00933255 
0.00451921 10.0419 0.0211944 
-0.00933255 0.0211944 9.99989 
10.0187 -0.00530818 0.012135 
-0.00530818 10.0427 0.0038263 
0.012135 0.0038263 10.0167 
10.0083 0.0107206 -0.00845057 
0.0107206 10.0196 -0.0117291 
-0.00845057 -0.0117291 10.0502 
9.98298 -0.0128174 0.00761779 
-0.0128174 9.86345 -0.00275562 
0.00761779 -0.00275562 9.84671 
9.84219 0.017767 -0.0118769 
0.017767 9.93382 0.018392 
-0.0118769 0.018392 9.91713 
9.88269 -0.00683577 -0.00530461 
-0.00683577 9.88203 -0.00710989 
-0.00530461 -0.00710989 9.92842 
9.82262 -0.0200963 0.0363206 
-0.0200963 9.94626 -0.00601188 
0.0363206 -0.00601188 9.92426 
9.96868 0.0192729 0.00962554 
0.0192729 9.9944 0.0204699 
0.00962554 0.0204699 10.061 
10.0001 -0.000126561 0.00643454 
-0.000126561 10.0188 -0.00562544 
0.00643454 -0.00562544 10.0053 
9.98979 -0.0164393 -0.0214884 
-0.0164393 10.0295 -0.01038 
-0.0214884 -0.01038 10.0048 
10.0293 -0.0105227 0.0164716 
-0.0105227 10.014 -0.025074 
0.0164716 -0.025074 9.98081 
9.9467 -0.0411534 0.0196768 
-0.0411534 10.1043 0.0283473 
0.0196768 0.0283473 10.0371 
10.0946 0.04008 -0.033206 
0.04008 10.0172 0.021041 
-0.033206 0.021041 9.97632 
10.0263 -0.0188716 -0.0260134 
-0.0188716 10.011 -0.0230759 
-0.0260134 -0.0230759 10.0508 
10.0267 0.00351291 -0.032516 
0.00351291 10.0006 -0.0137681 
-0.032516 -0.0137681 10.0608 
9.94339 0.00436771 -0.107689 
0.00436771 9.94351 -0.236359 
-0.107689 -0.236359 9.96003 
9.97035 -0.0108062 -0.0910348 
-0.0108062 9.92696 -0.224675 
-0.0910348 -0.224675 9.94963 
9.93841 -0.00113379 -0.10239 
-0.00113379 9.95509 -0.236152 
-0.10239 -0.236152 9.95344 
9.95026 -0.00300477 -0.0991959 
-0.00300477 9.93378 -0.231558 
-0.0991959 -0.231558 9.9629 
9.87737 -0.0323938 0.0107372 
-0.0323938 9.99091 0.0275721 
0.0107372 0.0275721 10.0822 
10.0466 -0.084006 0.0300985 
-0.084006 9.93691 0.0628969 
0.0300985 0.0628969 9.96698 
9.9141 -0.0579617 -0.0211884 
-0.0579617 9.99699 -0.0924575 
-0.0211884 -0.0924575 10.0394 
10.0035 -0.0623621 -0.0579839 
-0.0623621 9.87059 0.00413338 
-0.0579839 0.00413338 10.0764 
9.98742 -0.00825376 -0.053939 
-0.00825376 9.98881 -0.254018 
-0.053939 -0.254018 9.96276 
9.97421 0.0119086 -0.0458536 
0.0119086 9.97155 -0.252088 
-0.0458536 -0.252088 9.99324 
9.98159 0.00183783 -0.0482919 
0.00183783 9.98157 -0.239938 
-0.0482919 -0.239938 9.97583 
9.9681 6.65874e-05 -0.0390612 
6.65874e-05 9.95958 -0.247649 
-0.0390612 -0.247649 10.0113 
9.91538 0.0169328 -0.0679092 
0.0169328 9.91976 0.0192171 
-0.0679092 0.0192171 9.94865 
9.88516 0.0422389 -0.0321245 
0.0422389 9.90621 -0.0158078 
-0.0321245 -0.0158078 9.99242 
9.90403 0.0533709 0.0348408 
0.0533709 9.91427 -0.04884 
0.0348408 -0.04884 9.9655 
9.86027 0.0699177 -0.0130575 
0.0699177 9.85614 0.0215368 
-0.0130575 0.0215368 10.0674 
9.93736 6.94417e-05 0.104181 
6.94417e-05 9.96483 0.219644 
0.104181 0.219644 10.0148 
9.98805 -0.0188631 0.126195 
-0.0188631 9.93915 0.212977 
0.126195 0.212977 9.98977 
9.99343 -0.0111752 0.109557 
-0.0111752 9.93878 0.225876 
0.109557 0.225876 9.98475 
9.9706 -0.00574862 0.10948 
-0.00574862 9.96369 0.202969 
0.10948 0.202969 9.98268 
9.73139 0.0918023 0.056684 
0.0918023 9.82594 -0.0190726 
0.056684 -0.0190726 9.9202 
9.79789 0.0152435 0.102839 
0.0152435 9.81724 -0.0390021 
0.102839 -0.0390021 9.86239 
9.95207 -0.0399416 0.147627 
-0.0399416 9.76602 0.0414893 
0.147627 0.0414893 9.75943 
9.74771 0.00966084 0.112561 
0.00966084 9.83754 -0.0621164 
0.112561 -0.0621164 9.89228 
14.9509 2.2276 1.01307 
2.2276 9.13075 -1.8523 
1.01307 -1.8523 13.7078 
11.6758 0.36713 -1.88233 
0.36713 9.64561 -0.146791 
-1.88233 -0.146791 16.4681 
6.91492 -1.44586 1.29749 
-1.44586 12.8369 -1.18013 
1.29749 -1.18013 18.0377 
8.94467 0.347175 -2.5019 
0.347175 14.7008 1.83819 
-2.5019 1.83819 14.144 
9.80679 -0.11199 0.0905664 
-0.11199 9.78776 0.100671 
0.0905664 0.100671 10.1754 
9.80226 -0.0736204 0.111287 
-0.0736204 9.81976 0.117559 
0.111287 0.117559 10.148 
9.7981 -0.0787012 0.112192 
-0.0787012 9.82777 0.11313 
0.112192 0.11313 10.1441 
9.82675 -0.0514485 0.107485 
-0.0514485 9.83496 0.0995299 
0.107485 0.0995299 10.1083 
10.078 0.00884308 -0.00556778 
0.00884308 10.0531 0.057072 
-0.00556778 0.057072 10.1735 
10.0312 -0.00688813 -0.0483216 
-0.00688813 10.0032 0.0437155 
-0.0483216 0.0437155 10.2701 
10.1803 -0.0108734 -0.0491404 
-0.0108734 10.1605 -0.00295514 
-0.0491404 -0.00295514 9.96373 
10.1134 -0.00788842 0.0631876 
-0.00788842 10.0447 0.0123098 
0.0631876 0.0123098 10.1464 
10.0198 -0.0401598 -0.00326975 
-0.0401598 10.0227 0.0343169 
-0.00326975 0.0343169 10.0646 
10.0086 -0.0363018 -0.0124901 
-0.0363018 10.022 -0.0111003 
-0.0124901 -0.0111003 10.0765 
10.043 -0.0548615 -0.0143952 
-0.0548615 10.0092 -0.0120951 
-0.0143952 -0.0120951 10.0548 
10.026 -0.0422254 -0.01141 
-0.0422254 10.0269 0.0051987 
-0.01141 0.0051987 10.0541 
9.82925 -0.032285 0.0796807 
-0.032285 9.82359 0.0719101 
0.0796807 0.0719101 9.89604 
9.80942 -0.0327964 0.111826 
-0.0327964 9.80492 0.107367 
0.111826 0.107367 9.93453 
9.86806 0.0803975 0.0709938 
0.0803975 9.83783 0.0551296 
0.0709938 0.0551296 9.84298 
9.87067 -0.0131188 0.0672503 
-0.0131188 9.76374 0.098108 
0.0672503 0.098108 9.91446 
9.9572 0.015545 -0.0979525 
0.015545 9.94649 0.224344 
-0.0979525 0.224344 9.95603 
9.94587 -0.00224435 -0.0936525 
-0.00224435 9.94992 0.237958 
-0.0936525 0.237958 9.96393 
9.95019 0.00285158 -0.094405 
0.00285158 9.95113 0.235932 
-0.094405 0.235932 9.9584 
9.94168 2.76193e-06 -0.0982216 
2.76193e-06 9.95243 0.239489 
-0.0982216 0.239489 9.96562 
9.88281 0.0160622 -0.110496 
0.0160622 9.87977 -0.0585705 
-0.110496 -0.0585705 9.83067 
9.81439 -0.0875561 -0.0533013 
-0.0875561 9.79909 -0.025387 
-0.0533013 -0.025387 9.97977 
9.88763 0.0291029 -0.115577 
0.0291029 9.83049 -0.0676332 
-0.115577 -0.0676332 9.87513 
9.80782 -0.0154261 -0.110277 
-0.0154261 9.84102 -0.122429 
-0.110277 -0.122429 9.9444 
9.80165 0.0250182 0.0418222 
0.0250182 9.68374 -0.0856479 
0.0418222 -0.0856479 9.94716 
9.80668 0.0365608 0.114404 
0.0365608 9.62936 -0.141244 
0.114404 -0.141244 9.99651 
9.8892 0.0414338 -0.0405578 
0.0414338 9.6209 -0.0649398 
-0.0405578 -0.0649398 9.92245 
9.82342 0.0222449 -0.0392868 
0.0222449 9.73314 -0.14694 
-0.0392868 -0.14694 9.87599 
10.0014 0.0035429 -0.0120594 
0.0035429 10.0134 0.00565622 
-0.0120594 0.00565622 9.99213 
9.97043 0.00649508 0.00791944 
0.00649508 9.98084 0.000976184 
0.00791944 0.000976184 10.0556 
9.99334 -0.00572815 -0.00213051 
-0.00572815 10.0165 -0.00449773 
-0.00213051 -0.00449773 9.99711 
10.01 0.00293028 -0.0131883 
0.00293028 10.0094 -0.00794793 
-0.0131883 -0.00794793 9.9875 
9.97284 0.0269225 0.0160934 
0.0269225 9.9627 -0.0182756 
0.0160934 -0.0182756 10.0419 
9.98356 0.0196746 -0.0127982 
0.0196746 9.98116 0.0302187 
-0.0127982 0.0302187 10.0127 
10.0273 -0.0130176 0.0229012 
-0.0130176 10.0229 0.0068353 
0.0229012 0.0068353 9.92728 
9.97749 0.0174088 0.00377602 
0.0174088 9.99971 0.0121119 
0.00377602 0.0121119 10.0003 
9.94067 -0.0219373 0.00738502 
-0.0219373 9.94376 -0.00651813 
0.00738502 -0.00651813 9.95989 
9.93688 0.00892905 0.00736261 
0.00892905 9.93216 -0.0146052 
0.00736261 -0.0146052 9.97528 
9.91433 0.0330753 0.00171547 
0.0330753 9.9351 -0.00172315 
0.00171547 -0.00172315 9.99489 
9.95438 -0.00382972 0.0126564 
-0.00382972 9.91452 -0.00682341 
0.0126564 -0.00682341 9.97542 
9.65981 0.132267 -0.136859 
0.132267 9.83391 0.0686559 
-0.136859 0.0686559 9.91192 
9.80344 0.00775635 -0.171553 
0.00775635 9.80444 0.0763621 
-0.171553 0.0763621 9.79777 
9.882 0.00132809 -0.170842 
0.00132809 9.75364 0.0562894 
-0.170842 0.0562894 9.77 
9.75789 0.00561626 -0.265062 
0.00561626 9.77912 0.132824 
-0.265062 0.132824 9.86864 
9.61702 -0.0697172 0.224115 
-0.0697172 9.79062 0.0785062 
0.224115 0.0785062 9.81237 
9.6348 -0.0589961 0.213546 
-0.0589961 9.78749 0.0665123 
0.213546 0.0665123 9.79772 
9.62036 -0.0695792 0.226685 
-0.0695792 9.74764 0.074154 
0.226685 0.074154 9.85202 
9.62391 -0.051544 0.196832 
-0.051544 9.79976 0.114663 
0.196832 0.114663 9.79633 
6.41798 0.250679 -0.59973 
0.250679 5.00012 1.83521 
-0.59973 1.83521 -3.28887 
-0.466516 -0.112145 -2.97486 
-0.112145 0.348809 -1.25436 
-2.97486 -1.25436 8.24694 
4.51254 1.31153 0.658881 
1.31153 5.87632 1.39358 
0.658881 1.39358 -2.25963 
5.46718 1.57848 -1.69236 
1.57848 6.02825 -2.73706 
-1.69236 -2.73706 -3.3662 
9.98977 -0.00814045 0.223428 
-0.00814045 10.0209 0.0340783 
0.223428 0.0340783 9.97736 
9.98585 -0.00163955 0.230348 
-0.00163955 10.0199 0.0330433 
0.230348 0.0330433 9.98226 
9.97912 -0.00433792 0.231728 
-0.00433792 10.0015 0.0219362 
0.231728 0.0219362 10.0074 
9.99635 -0.00808187 0.221353 
-0.00808187 10.0214 0.0409678 
0.221353 0.0409678 9.97027 
9.63607 0.0603246 -0.141627 
0.0603246 9.8577 0.0474515 
-0.141627 0.0474515 9.79032 
9.6779 0.0185345 -0.192204 
0.0185345 9.78809 0.0339362 
-0.192204 0.0339362 9.8181 
9.85505 0.00210936 -0.151708 
0.00210936 9.71679 0.00504407 
-0.151708 0.00504407 9.71225 
9.69079 -0.0491447 -0.192538 
-0.0491447 9.80039 0.0314936 
-0.192538 0.0314936 9.79292 
9.9913 0.0113356 0.0195422 
0.0113356 9.82743 -0.0220483 
0.0195422 -0.0220483 10.0013 
10.0007 0.00724747 -0.011659 
0.00724747 9.84045 -0.000114507 
-0.011659 -0.000114507 9.97893 
9.98995 0.0328587 0.0192862 
0.0328587 9.83484 0.00573269 
0.0192862 0.00573269 9.99524 
9.99875 0.0100833 -0.0212352 
0.0100833 9.84187 -0.00754811 
-0.0212352 -0.00754811 9.97941 
9.96229 -0.00654422 0.164837 
-0.00654422 9.9588 0.167168 
0.164837 0.167168 9.98664 
9.94635 -0.0140816 0.171634 
-0.0140816 9.95855 0.176844 
0.171634 0.176844 10.0028 
9.96293 -0.00671443 0.172237 
-0.00671443 9.96781 0.163178 
0.172237 0.163178 9.97699 
9.96926 -0.0112214 0.171501 
-0.0112214 9.96173 0.15745 
0.171501 0.15745 9.97675 
9.94499 -0.00991999 -0.222468 
-0.00991999 9.9522 -0.121055 
-0.222468 -0.121055 9.97524 
9.94961 -0.00655699 -0.228668 
-0.00655699 9.94908 -0.110043 
-0.228668 -0.110043 9.97373 
9.95097 0.00376632 -0.227436 
0.00376632 9.95874 -0.0953497 
-0.227436 -0.0953497 9.96271 
9.95926 -0.0102091 -0.223693 
-0.0102091 9.9459 -0.114136 
-0.223693 -0.114136 9.96726 
9.91037 -0.0408567 0.0441209 
-0.0408567 9.85525 0.019074 
0.0441209 0.019074 9.96351 
9.93507 -0.000299879 0.0377078 
-0.000299879 9.86109 0.00840715 
0.0377078 0.00840715 9.93297 
9.90452 -0.0237837 0.0376778 
-0.0237837 9.86005 0.0257548 
0.0376778 0.0257548 9.96455 
9.91256 -0.0534765 -0.000326364 
-0.0534765 9.85516 0.00890104 
-0.000326364 0.00890104 9.96141 
9.60473 0.108035 -0.0328847 
0.108035 9.93801 0.0192811 
-0.0328847 0.0192811 9.95219 
9.71326 0.00225747 -0.103578 
0.00225747 9.86544 0.0138839 
-0.103578 0.0138839 9.91624 
10.1801 -0.117928 -0.0718271 
-0.117928 9.63304 -0.0479459 
-0.0718271 -0.0479459 9.68183 
9.64911 -0.103508 -0.114064 
-0.103508 9.92485 0.0411473 
-0.114064 0.0411473 9.92098 
8.89853 -0.298977 3.02127 
-0.298977 5.68131 1.26906 
3.02127 1.26906 -5.29759 
4.98242 0.200713 -0.374604 
0.200713 2.60023 0.941322 
-0.374604 0.941322 1.6996 
2.92973 -0.27936 -0.714096 
-0.27936 -0.0417196 1.39328 
-0.714096 1.39328 6.39424 
9.28627 0.224587 -4.91096 
0.224587 0.44621 -0.143544 
-4.91096 -0.143544 -0.45023 
9.98359 -0.012224 -0.00737538 
-0.012224 9.95501 0.014431 
-0.00737538 0.014431 9.95854 
9.99259 -0.0170792 -0.00923351 
-0.0170792 9.93444 0.00792826 
-0.00923351 0.00792826 9.9701 
9.98217 -0.00904527 0.00745728 
-0.00904527 9.95239 0.0100399 
0.00745728 0.0100399 9.96258 
9.9813 -0.0118811 -0.00514815 
-0.0118811 9.95602 0.0162784 
-0.00514815 0.0162784 9.95982 
9.87196 0.023181 -0.0198116 
0.023181 9.92362 0.0382095 
-0.0198116 0.0382095 9.96452 
9.87629 0.0194356 -0.0112923 
0.0194356 9.92998 0.0436534 
-0.0112923 0.0436534 9.95383 
9.88393 0.0345875 -0.0322903 
0.0345875 9.90435 0.0457218 
-0.0322903 0.0457218 9.97182 
9.86599 0.0479481 -0.0279753 
0.0479481 9.93227 0.00802455 
-0.0279753 0.00802455 9.96183 
9.9708 -0.000445278 0.00983229 
-0.000445278 9.9142 -0.00976937 
0.00983229 -0.00976937 9.96146 
10.0177 0.0162172 0.0143515 
0.0162172 9.84305 0.0462848 
0.0143515 0.0462848 9.98572 
9.88084 0.0130471 3.42415e-05 
0.0130471 10.0907 0.00296811 
3.42415e-05 0.00296811 9.87495 
9.9693 -0.0280081 0.0308235 
-0.0280081 9.90396 -0.0261303 
0.0308235 -0.0261303 9.9732 
9.97177 -0.0207038 0.0063308 
-0.0207038 9.89006 -0.0184598 
0.0063308 -0.0184598 10.0055 
9.97602 -0.0180672 0.0197292 
-0.0180672 9.927 0.00200779 
0.0197292 0.00200779 9.96433 
9.95618 -0.0231656 -0.00822702 
-0.0231656 9.93909 -0.0269408 
-0.00822702 -0.0269408 9.97208 
9.96287 -0.0364495 0.0077698 
-0.0364495 9.90112 -0.0195995 
0.0077698 -0.0195995 10.0034 
9.88846 0.0107438 -0.1084 
0.0107438 9.88021 0.215817 
-0.1084 0.215817 9.9411 
9.90399 0.0152762 -0.105857 
0.0152762 9.88815 0.207754 
-0.105857 0.207754 9.91763 
9.88937 0.00614084 -0.100171 
0.00614084 9.90126 0.210996 
-0.100171 0.210996 9.91914 
9.89201 0.00184283 -0.0975488 
0.00184283 9.89501 0.202829 
-0.0975488 0.202829 9.92275 
9.92888 -0.0190595 0.0477923 
-0.0190595 9.97937 0.026877 
0.0477923 0.026877 9.97812 
9.94511 -0.0255159 -0.0555578 
-0.0255159 9.95974 0.0322303 
-0.0555578 0.0322303 9.98151 
9.97699 -0.000925947 -0.0735907 
-0.000925947 9.92971 0.000274988 
-0.0735907 0.000274988 9.97966 
9.91633 -0.0143395 -0.0271984 
-0.0143395 9.93072 0.0374344 
-0.0271984 0.0374344 10.0393 
9.85528 -0.000714787 0.179874 
-0.000714787 9.85411 0.131707 
0.179874 0.131707 9.89296 
9.85783 -0.0459336 0.163113 
-0.0459336 9.86041 0.128698 
0.163113 0.128698 9.88411 
9.87209 0.00820215 0.195831 
0.00820215 9.85104 0.120427 
0.195831 0.120427 9.87922 
9.84123 -0.00594142 0.184172 
-0.00594142 9.86088 0.141734 
0.184172 0.141734 9.90024 
9.99792 0.00677404 -0.00721849 
0.00677404 9.97335 0.00335324 
-0.00721849 0.00335324 9.99586 
9.9837 -0.00690335 0.00687396 
-0.00690335 9.97052 -0.0101045 
0.00687396 -0.0101045 10.0129 
9.99565 0.0030567 -0.00520585 
0.0030567 9.97843 -0.0082909 
-0.00520585 -0.0082909 9.99305 
9.9984 0.00400514 -0.0171071 
0.00400514 9.985 -0.0101169 
-0.0171071 -0.0101169 9.98373 
10.004 0.00258351 -0.00527144 
0.00258351 10.0167 -0.000224803 
-0.00527144 -0.000224803 10.0178 
10.0098 0.00468323 -0.0025668 
0.00468323 10.0295 0.0201012 
-0.0025668 0.0201012 9.99918 
10.0034 0.00337553 0.00498317 
0.00337553 9.99585 -0.00622601 
0.00498317 -0.00622601 10.0392 
10.0041 -0.00271552 0.00286157 
-0.00271552 10.0273 0.00537221 
0.00286157 0.00537221 10.007 
9.95362 -0.00221026 0.252372 
-0.00221026 9.9545 0.0155073 
0.252372 0.0155073 9.95624 
9.93171 0.000708144 0.248577 
0.000708144 9.95664 0.0148119 
0.248577 0.0148119 9.97602 
9.95628 -0.00183137 0.252396 
-0.00183137 9.95097 0.0232077 
0.252396 0.0232077 9.95711 
9.95858 -0.00313211 0.258201 
-0.00313211 9.96148 0.0171497 
0.258201 0.0171497 9.94431 
5.90105 -1.43397 -0.655875 
-1.43397 8.22482 2.50683 
-0.655875 2.50683 4.76268 
6.67454 1.47119 -1.32453 
1.47119 9.27197 3.08278 
-1.32453 3.08278 2.94205 
6.39342 0.366497 0.667677 
0.366497 7.80627 3.4699 
0.667677 3.4699 4.68887 
6.08056 -0.0250334 -0.420459 
-0.0250334 8.62547 2.90521 
-0.420459 2.90521 4.18252 
9.94405 -0.00151196 -0.257763 
-0.00151196 9.95027 0.00950298 
-0.257763 0.00950298 9.96749 
9.95293 0.00179854 -0.258951 
0.00179854 9.95405 0.0228123 
-0.258951 0.0228123 9.95482 
9.95171 -0.00297544 -0.264284 
-0.00297544 9.95584 0.0187561 
-0.264284 0.0187561 9.95426 
9.94972 -0.00394453 -0.263553 
-0.00394453 9.97283 0.0125838 
-0.263553 0.0125838 9.93926 
9.99011 0.0413502 0.0240532 
0.0413502 10.0169 -0.00973197 
0.0240532 -0.00973197 10.0425 
10.0256 0.00319951 -0.0162492 
0.00319951 10.0152 0.0354155 
-0.0162492 0.0354155 10.0087 
10.0361 -0.0577874 -0.00733887 
-0.0577874 10.0362 -0.0175824 
-0.00733887 -0.0175824 9.9772 
9.99516 -0.0141278 -0.0142353 
-0.0141278 10.0353 0.0349109 
-0.0142353 0.0349109 10.019 
9.87828 -0.0214918 -0.00693645 
-0.0214918 9.95859 -0.0187464 
-0.00693645 -0.0187464 9.91924 
9.92043 -0.00680595 0.0051353 
-0.00680595 9.92066 -0.00628103 
0.0051353 -0.00628103 9.91503 
9.9342 -0.00604975 0.0103452 
-0.00604975 9.89508 0.0168648 
0.0103452 0.0168648 9.92684 
9.89564 0.00278325 0.01191 
0.00278325 9.94941 0.0102275 
0.01191 0.0102275 9.91105 
9.91021 0.00980924 0.00566036 
0.00980924 10.0501 -0.010517 
0.00566036 -0.010517 9.88357 
10.0152 -0.0313941 0.0392632 
-0.0313941 9.86537 0.0149673 
0.0392632 0.0149673 9.96328 
9.90617 0.00467597 -0.0161348 
0.00467597 9.94405 0.00564511 
-0.0161348 0.00564511 9.99367 
10.0206 0.020518 -0.00727831 
0.020518 9.8532 -0.0448197 
-0.00727831 -0.0448197 9.97006 
10.0119 -0.0102619 -0.011827 
-0.0102619 10.0009 -0.00336525 
-0.011827 -0.00336525 10.002 
9.9815 0.00377942 0.00653536 
0.00377942 10.0318 0.00565997 
0.00653536 0.00565997 10.0016 
10.0152 -0.0171294 -0.0030764 
-0.0171294 9.96899 -0.00444899 
-0.0030764 -0.00444899 10.0306 
9.99189 0.00480208 0.00588657 
0.00480208 10.0225 -0.0120696 
0.00588657 -0.0120696 10.0004 
9.30398 -0.165193 -0.0503898 
-0.165193 8.98628 0.485301 
-0.0503898 0.485301 10.4467 
9.47572 -0.304221 0.162134 
-0.304221 8.89986 0.732942 
0.162134 0.732942 10.3614 
9.34242 -0.274269 0.0702446 
-0.274269 8.98593 0.436155 
0.0702446 0.436155 10.4086 
9.16993 0.00466378 0.364641 
0.00466378 9.51571 0.459265 
0.364641 0.459265 10.0513 
9.922 0.000679451 -0.0245272 
0.000679451 9.8994 -0.249945 
-0.0245272 -0.249945 9.93753 
9.92609 -0.0021161 -0.024727 
-0.0021161 9.90404 -0.245111 
-0.024727 -0.245111 9.92879 
9.92628 -0.0038341 -0.0151966 
-0.0038341 9.90825 -0.237386 
-0.0151966 -0.237386 9.92439 
9.92918 -0.00698477 -0.020789 
-0.00698477 9.90503 -0.252693 
-0.020789 -0.252693 9.92471 
9.95228 0.0011851 -0.148853 
0.0011851 9.95714 0.20786 
-0.148853 0.20786 9.96078 
9.95291 0.00218124 -0.139768 
0.00218124 9.94768 0.207639 
-0.139768 0.207639 9.96961 
9.96061 0.014273 -0.132523 
0.014273 9.94504 0.199274 
-0.132523 0.199274 9.96455 
9.95143 -0.00491978 -0.148655 
-0.00491978 9.94978 0.208671 
-0.148655 0.208671 9.96898 
10.3111 -0.204426 0.240175 
-0.204426 8.95636 -0.761061 
0.240175 -0.761061 9.51378 
10.0079 0.256449 0.510011 
0.256449 8.82612 -0.676625 
0.510011 -0.676625 9.94717 
10.2269 0.160804 -0.0227663 
0.160804 8.8061 -0.794406 
-0.0227663 -0.794406 9.7482 
10.0188 0.202414 -0.268226 
0.202414 9.12865 -0.54291 
-0.268226 -0.54291 9.63373 
10.0527 0.00695913 0.0135026 
0.00695913 10.0316 0.118379 
0.0135026 0.118379 9.9495 
10.004 0.0225478 0.0111562 
0.0225478 10.0064 0.140676 
0.0111562 0.140676 10.0234 
10.0246 0.0186158 -0.00794444 
0.0186158 9.99564 0.121283 
-0.00794444 0.121283 10.0136 
10.0424 -0.00660629 -0.0102088 
-0.00660629 10.0278 0.138196 
-0.0102088 0.138196 9.96363 
9.64162 -0.143211 0.317673 
-0.143211 9.88391 0.207619 
0.317673 0.207619 9.85483 
9.77789 -0.00706084 0.202518 
-0.00706084 9.78244 0.138024 
0.202518 0.138024 9.82002 
9.59747 -0.0822423 0.297117 
-0.0822423 9.90682 0.164116 
0.297117 0.164116 9.87606 
9.58148 -0.102448 0.283683 
-0.102448 9.88996 0.129403 
0.283683 0.129403 9.90891 
9.97989 9.2851e-05 -0.124766 
9.2851e-05 9.97749 0.210643 
-0.124766 0.210643 9.99405 
9.98597 0.00160415 -0.131245 
0.00160415 9.98632 0.208503 
-0.131245 0.208503 9.97913 
9.97734 -0.0118091 -0.128157 
-0.0118091 9.97426 0.218994 
-0.128157 0.218994 9.99983 
9.9859 0.000743672 -0.129529 
0.000743672 9.97936 0.212099 
-0.129529 0.212099 9.98616 
5.41672 -0.918348 -1.16894 
-0.918348 9.5896 1.00038 
-1.16894 1.00038 -2.43212 
1.83192 0.207545 0.651515 
0.207545 5.13763 1.47186 
0.651515 1.47186 5.60465 
6.00582 0.770468 0.0689928 
0.770468 2.76916 1.38123 
0.0689928 1.38123 3.79922 
2.42606 1.26352 1.90733 
1.26352 6.98903 5.7021 
1.90733 5.7021 3.15911 
9.84782 -0.00471533 -0.0988148 
-0.00471533 9.84745 -0.207168 
-0.0988148 -0.207168 9.87696 
9.85332 -0.0314 -0.0914005 
-0.0314 9.84047 -0.205482 
-0.0914005 -0.205482 9.87843 
9.84981 -0.0103029 -0.10125 
-0.0103029 9.84147 -0.203318 
-0.10125 -0.203318 9.88094 
9.85667 -0.0101775 -0.104725 
-0.0101775 9.83705 -0.2078 
-0.104725 -0.2078 9.87851 
9.87479 0.0527579 0.138252 
0.0527579 9.80458 0.106399 
0.138252 0.106399 9.81685 
9.82373 -0.0374368 0.148147 
-0.0374368 9.82611 0.0838495 
0.148147 0.0838495 9.84637 
9.75623 -0.0538784 0.175122 
-0.0538784 9.80592 0.109783 
0.175122 0.109783 9.93406 
9.85397 -0.0412839 0.129061 
-0.0412839 9.76254 0.108326 
0.129061 0.108326 9.87971 
10.6167 0.016371 -0.109858 
0.016371 10.9048 -0.132731 
-0.109858 -0.132731 10.5496 
10.5637 -0.0695768 -0.00755252 
-0.0695768 10.7352 0.00704462 
-0.00755252 0.00704462 10.7723 
10.5987 -0.143651 0.0581116 
-0.143651 10.3849 0.0793385 
0.0581116 0.0793385 11.0875 
10.6082 0.102828 -0.0731192 
0.102828 10.8216 0.0643472 
-0.0731192 0.0643472 10.6414 
9.97343 -0.00351223 -0.0133574 
-0.00351223 9.95212 0.262937 
-0.0133574 0.262937 9.93586 
9.95577 -0.00343077 -0.0207386 
-0.00343077 9.95204 0.259491 
-0.0207386 0.259491 9.9536 
9.95332 -0.00250965 -0.00988184 
-0.00250965 9.93742 0.252205 
-0.00988184 0.252205 9.97068 
9.95541 0.00318378 -0.0225285 
0.00318378 9.94917 0.252811 
-0.0225285 0.252811 9.95683 
9.86595 0.0412416 -0.102044 
0.0412416 9.82291 -0.07826 
-0.102044 -0.07826 9.84624 
9.82354 -0.0501304 -0.0999836 
-0.0501304 9.82696 -0.0709529 
-0.0999836 -0.0709529 9.8846 
9.79255 -0.0674815 -0.131085 
-0.0674815 9.82274 -0.106991 
-0.131085 -0.106991 9.91981 
9.8755 -0.0206661 -0.0877728 
-0.0206661 9.76275 -0.0862546 
-0.0877728 -0.0862546 9.89685 
-0.909405 -1.55442 0.675973 
-1.55442 1.66011 6.84596 
0.675973 6.84596 22.6327 
11.0755 1.64396 1.24725 
1.64396 22.3425 -7.49682 
1.24725 -7.49682 -10.0346 
8.96281 -2.13306 -1.57756 
-2.13306 13.7602 -4.43965 
-1.57756 -4.43965 0.660415 
11.3293 -1.06722 -1.762 
-1.06722 -7.72489 -15.9144 
-1.762 -15.9144 19.779 
9.8311 -0.0266693 0.0707126 
-0.0266693 9.8293 0.0826188 
0.0707126 0.0826188 9.91133 
9.81662 0.0150575 0.0539075 
0.0150575 9.87931 0.0799411 
0.0539075 0.0799411 9.8758 
9.84654 -0.0646359 0.0524854 
-0.0646359 9.82083 0.0463378 
0.0524854 0.0463378 9.90435 
9.83302 0.00547024 0.0712667 
0.00547024 9.84898 0.0821238 
0.0712667 0.0821238 9.88973 
10.1357 -0.0479744 -0.0300399 
-0.0479744 9.88762 0.0590792 
-0.0300399 0.0590792 9.98667 
10.0271 -0.0202486 0.00961632 
-0.0202486 9.9871 0.000345872 
0.00961632 0.000345872 9.9958 
9.90746 -0.0680889 0.0447166 
-0.0680889 9.96819 0.0909563 
0.0447166 0.0909563 10.1343 
10.0491 0.0228037 -0.0472043 
0.0228037 10.0646 -0.0319737 
-0.0472043 -0.0319737 9.89625 
9.905 -0.112375 0.0117148 
-0.112375 9.55047 -0.00217376 
0.0117148 -0.00217376 9.91285 
9.8077 0.0898337 0.0225555 
0.0898337 9.88946 -0.149689 
0.0225555 -0.149689 9.67116 
9.76028 0.00879123 0.0468231 
0.00879123 9.85252 -0.187622 
0.0468231 -0.187622 9.75552 
9.86624 -0.00394688 -0.106284 
-0.00394688 9.5776 -0.158619 
-0.106284 -0.158619 9.92448 
9.83783 0.0200718 -0.228742 
0.0200718 9.86369 0.0628494 
-0.228742 0.0628494 9.88628 
9.83998 0.0122576 -0.238065 
0.0122576 9.85995 0.0613023 
-0.238065 0.0613023 9.88787 
9.86601 0.0017273 -0.238184 
0.0017273 9.84932 0.0711329 
-0.238184 0.0711329 9.87247 
9.84025 -0.00161124 -0.230337 
-0.00161124 9.86066 0.0688908 
-0.230337 0.0688908 9.88689 
9.91103 0.00181074 0.026908 
0.00181074 9.95585 0.0082256 
0.026908 0.0082256 10.004 
10.0248 0.0373817 -0.0273623 
0.0373817 9.86776 0.0282116 
-0.0273623 0.0282116 9.97835 
9.91049 -0.000408869 0.0015564 
-0.000408869 10.0589 -0.00168601 
0.0015564 -0.00168601 9.90151 
10.0261 -0.0195252 0.0191059 
-0.0195252 9.86355 -0.0358041 
0.0191059 -0.0358041 9.98127 
2.74991 0.194643 -1.21412 
0.194643 4.7581 -1.58801 
-1.21412 -1.58801 2.69739 
4.14392 0.37752 -0.433783 
0.37752 6.12259 -0.853464 
-0.433783 -0.853464 -0.0611071 
5.54384 -1.53998 0.630076 
-1.53998 5.8257 -0.955228 
0.630076 -0.955228 -1.16414 
5.5 1.73712 -2.09851 
1.73712 5.40645 -1.23953 
-2.09851 -1.23953 -0.701048 
9.97245 -0.00682171 0.204911 
-0.00682171 9.96993 -0.148689 
0.204911 -0.148689 10.0031 
9.98266 0.000952482 0.20104 
0.000952482 9.97336 -0.141696 
0.20104 -0.141696 9.9895 
9.97515 0.000450095 0.196735 
0.000450095 9.98605 -0.137868 
0.196735 -0.137868 9.98432 
9.97749 0.00185083 0.200235 
0.00185083 9.9791 -0.141794 
0.200235 -0.141794 9.98893 
15.8693 2.56774 0.865014 
2.56774 14.8043 -1.19623 
0.865014 -1.19623 17.899 
13.5686 0.348079 1.89956 
0.348079 13.1292 -1.6066 
1.89956 -1.6066 21.8749 
10.6818 -0.343214 2.81692 
-0.343214 14.1208 1.08045 
2.81692 1.08045 23.77 
15.1074 0.322776 -1.20972 
0.322776 14.2519 -0.144454 
-1.20972 -0.144454 19.2134 
9.97877 0.000735146 0.23235 
0.000735146 9.97849 -0.0898896 
0.23235 -0.0898896 9.98518 
9.97266 -0.000757816 0.232152 
-0.000757816 9.97722 -0.08768 
0.232152 -0.08768 9.99256 
9.9807 0.00278 0.229125 
0.00278 9.98249 -0.0914288 
0.229125 -0.0914288 9.97925 
9.97445 -0.00809318 0.241189 
-0.00809318 9.96642 -0.0894713 
0.241189 -0.0894713 10.0016 
9.93462 0.00304801 -0.236569 
0.00304801 9.9526 0.0932679 
-0.236569 0.0932679 9.96633 
9.94255 -0.0040828 -0.240858 
-0.0040828 9.94711 0.114816 
-0.240858 0.114816 9.9639 
9.95473 0.00257769 -0.240695 
0.00257769 9.94582 0.113036 
-0.240695 0.113036 9.95301 
9.9353 0.0128297 -0.223552 
0.0128297 9.95816 0.0967062 
-0.223552 0.0967062 9.9601 
9.99085 -0.00213693 0.146637 
-0.00213693 9.996 -0.192956 
0.146637 -0.192956 9.97508 
10.0046 0.0122652 0.146335 
0.0122652 9.97495 -0.207764 
0.146335 -0.207764 9.98234 
9.98486 0.01892 0.142422 
0.01892 9.97778 -0.210915 
0.142422 -0.210915 9.99928 
10.0007 0.0125707 0.144232 
0.0125707 9.98701 -0.19873 
0.144232 -0.19873 9.97423 
10.0482 -0.238452 -0.0741313 
-0.238452 8.99532 -0.720851 
-0.0741313 -0.720851 9.88343 
9.70731 -0.0765515 -0.46113 
-0.0765515 9.42247 -0.790491 
-0.46113 -0.790491 9.79713 
10.2626 -0.150643 -0.118658 
-0.150643 8.94635 -0.694679 
-0.118658 -0.694679 9.71794 
9.94644 -0.127332 -0.240613 
-0.127332 9.32224 -0.721561 
-0.240613 -0.721561 9.65824 
9.96066 0.00617903 -0.136953 
0.00617903 9.974 0.197926 
-0.136953 0.197926 10.0057 
9.99408 0.00127626 -0.14305 
0.00127626 9.98352 0.211443 
-0.14305 0.211443 9.96279 
9.96759 -0.000668038 -0.144228 
-0.000668038 9.97085 0.215777 
-0.144228 0.215777 10.0019 
9.98852 0.0133283 -0.157771 
0.0133283 9.97761 0.209344 
-0.157771 0.209344 9.97427 
9.9549 -0.00256365 0.147506 
-0.00256365 9.9702 0.183324 
0.147506 0.183324 9.99169 
9.95766 -0.000449068 0.158963 
-0.000449068 9.9595 0.182098 
0.158963 0.182098 9.99963 
9.96715 -0.00619074 0.147976 
-0.00619074 9.97094 0.179267 
0.147976 0.179267 9.9787 
9.96571 -0.00574402 0.146994 
-0.00574402 9.96858 0.176565 
0.146994 0.176565 9.9825 
9.92536 0.0511782 0.0171302 
0.0511782 9.89759 -0.000482018 
0.0171302 -0.000482018 9.99121 
9.93096 -0.0026031 0.0137313 
-0.0026031 9.92829 -0.00875729 
0.0137313 -0.00875729 9.95492 
9.95403 -0.0290093 0.00291962 
-0.0290093 9.92863 0.00563977 
0.00291962 0.00563977 9.9315 
9.91144 0.0031525 0.0276742 
0.0031525 9.94499 -0.00811445 
0.0276742 -0.00811445 9.95774 
11.4404 -0.0574085 0.331184 
-0.0574085 11.2339 -0.00852575 
0.331184 -0.00852575 10.4676 
10.3349 -0.0917652 -0.0705577 
-0.0917652 10.3087 0.0431889 
-0.0705577 0.0431889 12.4984 
11.2133 -0.155314 0.0470983 
-0.155314 10.999 -0.0168142 
0.0470983 -0.0168142 10.9296 
11.5517 0.00803831 -0.318382 
0.00803831 10.9172 -0.00599322 
-0.318382 -0.00599322 10.673 
9.99469 -0.0102627 0.00219931 
-0.0102627 9.97389 -0.000198128 
0.00219931 -0.000198128 9.99386 
9.98588 0.0105393 0.00413245 
0.0105393 9.99374 0.00614088 
0.00413245 0.00614088 9.98282 
9.99579 -0.00466918 0.00716789 
-0.00466918 9.98773 -0.00140687 
0.00716789 -0.00140687 9.97892 
9.98875 0.00103081 -0.00239348 
0.00103081 9.991 0.000202384 
-0.00239348 0.000202384 9.9827 
9.91399 0.010451 0.157603 
0.010451 9.66259 -0.0522862 
0.157603 -0.0522862 9.72722 
9.74243 0.0409894 0.142471 
0.0409894 9.81409 -0.0501891 
0.142471 -0.0501891 9.74727 
9.61664 0.0173627 0.0852544 
0.0173627 9.77375 -0.030434 
0.0852544 -0.030434 9.91341 
9.6764 0.0870316 0.145814 
0.0870316 9.76436 0.010855 
0.145814 0.010855 9.86304 
9.54887 0.393377 -0.578221 
0.393377 10.2225 -0.0224723 
-0.578221 -0.0224723 9.39399 
8.99099 0.236256 -0.526541 
0.236256 10.1209 0.0672869 
-0.526541 0.0672869 10.0534 
8.9041 -0.0634931 -1.24387 
-0.0634931 9.90933 0.806905 
-1.24387 0.806905 10.3519 
8.76786 0.362651 -0.312786 
0.362651 10.3803 0.2005 
-0.312786 0.2005 10.0172 
11.1418 -0.86526 -0.788488 
-0.86526 10.4976 -0.0630486 
-0.788488 -0.0630486 9.314 
9.65868 -0.386294 -0.460393 
-0.386294 10.9173 0.10811 
-0.460393 0.10811 10.3774 
9.51214 0.333962 0.363809 
0.333962 9.92901 -0.241772 
0.363809 -0.241772 11.5122 
9.39252 -0.216772 -0.751779 
-0.216772 10.8024 0.253795 
-0.751779 0.253795 10.7584 
9.97071 0.00760101 0.0971702 
0.00760101 9.9646 -0.21453 
0.0971702 -0.21453 9.98573 
9.96501 0.00610643 0.103949 
0.00610643 9.97056 -0.213244 
0.103949 -0.213244 9.98548 
9.9613 0.00594806 0.100576 
0.00594806 9.95493 -0.22388 
0.100576 -0.22388 10.0048 
9.97813 0.00670388 0.103264 
0.00670388 9.96995 -0.20996 
0.103264 -0.20996 9.97297 
9.71837 -0.0680712 0.166114 
-0.0680712 9.78574 0.0702692 
0.166114 0.0702692 9.87661 
9.74321 -0.0532182 0.174104 
-0.0532182 9.78914 0.0997432 
0.174104 0.0997432 9.84837 
9.70771 -0.0720916 0.138445 
-0.0720916 9.80693 0.0665015 
0.138445 0.0665015 9.86608 
9.72185 -0.109339 0.188674 
-0.109339 9.739 0.0475683 
0.188674 0.0475683 9.91987 
9.72478 -0.0885184 0.0700318 
-0.0885184 9.79644 -0.0244501 
0.0700318 -0.0244501 10.016 
9.7863 -0.019328 0.0109524 
-0.019328 9.90412 0.104217 
0.0109524 0.104217 9.84678 
9.76842 -0.0942854 0.0784794 
-0.0942854 9.81067 0.0494912 
0.0784794 0.0494912 9.95811 
9.78167 -0.0936636 0.096441 
-0.0936636 9.78234 0.0466891 
0.096441 0.0466891 9.97319 
10.2655 -0.179658 0.00242038 
-0.179658 10.477 0.104355 
0.00242038 0.104355 10.229 
10.3146 0.0794377 -0.135874 
0.0794377 10.2951 0.210175 
-0.135874 0.210175 10.3618 
10.3804 0.229659 0.0809873 
0.229659 10.0446 0.0625273 
0.0809873 0.0625273 10.5465 
10.2116 -0.128083 -0.178024 
-0.128083 10.2696 0.15242 
-0.178024 0.15242 10.4903 
9.1562 0.380691 -0.218653 
0.380691 11.1253 -0.492389 
-0.218653 -0.492389 10.9527 
10.4736 -0.169663 -0.173867 
-0.169663 10.1953 0.209008 
-0.173867 0.209008 10.5652 
9.64638 -0.441388 0.528988 
-0.441388 9.68968 -0.838694 
0.528988 -0.838694 11.8981 
8.73369 0.373874 -0.565019 
0.373874 10.9607 -0.160589 
-0.565019 -0.160589 11.5397 
9.91502 -0.0410737 0.140611 
-0.0410737 9.94978 0.215467 
0.140611 0.215467 9.95714 
9.94011 -0.0172546 0.13383 
-0.0172546 9.92714 0.170416 
0.13383 0.170416 9.95469 
9.91991 -0.00984391 0.139365 
-0.00984391 9.93706 0.177088 
0.139365 0.177088 9.96497 
9.93767 -0.0239396 0.139279 
-0.0239396 9.94737 0.204206 
0.139279 0.204206 9.9369 
9.75169 0.0340656 -0.0537882 
0.0340656 9.829 0.136168 
-0.0537882 0.136168 9.81684 
9.78769 0.0541914 -0.0826706 
0.0541914 9.76384 0.141169 
-0.0826706 0.141169 9.84599 
9.83762 0.0622556 -0.0577184 
0.0622556 9.69244 0.124225 
-0.0577184 0.124225 9.86747 
9.79094 0.0560115 -0.0594176 
0.0560115 9.7673 0.188296 
-0.0594176 0.188296 9.83928 
9.98183 0.00401758 -0.00224567 
0.00401758 9.95976 -0.237394 
-0.00224567 -0.237394 9.97396 
9.94778 0.00437736 -0.00549298 
0.00437736 9.96508 -0.234251 
-0.00549298 -0.234251 10.0027 
9.96227 0.00216394 -0.00946086 
0.00216394 9.94915 -0.245498 
-0.00946086 -0.245498 10.0041 
9.98575 -0.00384194 -0.00700003 
-0.00384194 9.96076 -0.232255 
-0.00700003 -0.232255 9.96904 
9.99932 0.0213767 0.107401 
0.0213767 10.011 0.0870887 
0.107401 0.0870887 10.0172 
10.0133 0.0242674 0.132204 
0.0242674 9.99178 0.111094 
0.132204 0.111094 10.0224 
10.0417 0.00844998 0.104425 
0.00844998 10.0468 0.119484 
0.104425 0.119484 9.93897 
10.0384 -0.00722554 0.125877 
-0.00722554 10.0366 0.0926805 
0.125877 0.0926805 9.95253 
9.93467 -0.021141 -0.242129 
-0.021141 9.93132 -0.0774479 
-0.242129 -0.0774479 9.96775 
9.95618 -0.0169048 -0.229024 
-0.0169048 9.93683 -0.103974 
-0.229024 -0.103974 9.94073 
9.92776 -0.000972349 -0.247354 
-0.000972349 9.95374 -0.0857945 
-0.247354 -0.0857945 9.95224 
9.9327 -0.00792742 -0.238113 
-0.00792742 9.94985 -0.09396 
-0.238113 -0.09396 9.95118 
9.95498 -0.0527586 0.0246374 
-0.0527586 9.97481 0.0311613 
0.0246374 0.0311613 9.99503 
9.94576 -0.0183384 -0.0300131 
-0.0183384 9.98164 -0.0522153 
-0.0300131 -0.0522153 9.99743 
9.96418 -0.0432884 0.00765982 
-0.0432884 9.94272 -0.0181255 
0.00765982 -0.0181255 10.0179 
9.90979 -0.0670043 -0.0161311 
-0.0670043 9.94912 -0.0116918 
-0.0161311 -0.0116918 10.0659 
9.73605 -0.0825096 0.0502862 
-0.0825096 9.76798 0.0826358 
0.0502862 0.0826358 9.8703 
9.56781 -0.0612724 0.00285451 
-0.0612724 9.95996 0.00966158 
0.00285451 0.00966158 9.84655 
10.1374 -0.0151062 0.124034 
-0.0151062 9.58092 -0.00524916 
0.124034 -0.00524916 9.65604 
9.64835 -0.0979212 0.153521 
-0.0979212 9.83235 -0.0252532 
0.153521 -0.0252532 9.89362 
9.96643 -0.0130806 0.131678 
-0.0130806 9.97223 0.19401 
0.131678 0.19401 9.98033 
9.96333 -0.00327199 0.131186 
-0.00327199 9.96528 0.202194 
0.131186 0.202194 9.99038 
9.94963 0.00668515 0.120245 
0.00668515 9.95874 0.193544 
0.120245 0.193544 10.0106 
9.97613 -0.00546888 0.131113 
-0.00546888 9.96771 0.198549 
0.131113 0.198549 9.97515 
9.98097 -0.000222871 0.219729 
-0.000222871 9.93799 0.0711707 
0.219729 0.0711707 10.0236 
9.96764 -0.00697408 0.238401 
-0.00697408 9.97159 0.0720372 
0.238401 0.0720372 10.0034 
9.97818 -0.00853171 0.234465 
-0.00853171 10.0013 0.0901659 
0.234465 0.0901659 9.96308 
9.97275 0.00804492 0.235543 
0.00804492 10.0058 0.0713357 
0.235543 0.0713357 9.96404 
9.97771 0.00990291 -0.00840422 
0.00990291 9.92322 0.00141355 
-0.00840422 0.00141355 9.97251 
9.99673 0.0154545 0.00489716 
0.0154545 9.95276 -0.024947 
0.00489716 -0.024947 9.92396 
9.94632 -0.0338515 0.00139859 
-0.0338515 9.94228 0.0343985 
0.00139859 0.0343985 9.98485 
9.98355 -0.0046468 -0.0181961 
-0.0046468 9.91074 -0.00230403 
-0.0181961 -0.00230403 9.97916 
9.97557 -0.00603374 -0.00327144 
-0.00603374 9.97973 0.00668723 
-0.00327144 0.00668723 9.98795 
9.9848 0.00581692 -0.00843362 
0.00581692 9.96974 -0.0121554 
-0.00843362 -0.0121554 9.98871 
9.96873 5.2477e-05 -0.00263732 
5.2477e-05 9.97449 0.00220052 
-0.00263732 0.00220052 10 
9.987 0.0032073 -0.0107976 
0.0032073 9.96938 -0.0100674 
-0.0107976 -0.0100674 9.98687 
11.1093 0.790222 3.26342 
0.790222 14.846 -0.920055 
3.26342 -0.920055 24.1786 
14.3412 0.191457 2.42642 
0.191457 11.995 1.77159 
2.42642 1.77159 23.7977 
18.3106 -3.57244 0.566676 
-3.57244 14.3703 1.57074 
0.566676 1.57074 17.4529 
16.3344 -0.84894 -2.78352 
-0.84894 14.2354 -1.94395 
-2.78352 -1.94395 19.564 
9.97043 -0.0136615 0.204818 
-0.0136615 9.95892 0.134351 
0.204818 0.134351 9.99857 
9.97504 0.00342543 0.196964 
0.00342543 9.98239 0.132471 
0.196964 0.132471 9.97049 
9.95049 -0.0215141 0.210205 
-0.0215141 9.96931 0.149513 
0.210205 0.149513 10.0081 
9.97568 -0.0180556 0.193324 
-0.0180556 9.96487 0.127733 
0.193324 0.127733 9.98736 
9.98627 0.000632192 0.240518 
0.000632192 9.97873 -0.0474884 
0.240518 -0.0474884 9.98004 
9.96598 -0.00121483 0.245756 
-0.00121483 9.97129 -0.0386228 
0.245756 -0.0386228 10.0078 
9.98677 0.00556722 0.248982 
0.00556722 9.98825 -0.0500706 
0.248982 -0.0500706 9.97002 
9.98039 -0.0100548 0.249765 
-0.0100548 9.97006 -0.0443122 
0.249765 -0.0443122 9.99458 
9.96085 -0.00474083 0.16095 
-0.00474083 9.95845 -0.164397 
0.16095 -0.164397 9.99743 
9.95278 0.00202999 0.172036 
0.00202999 9.95974 -0.175596 
0.172036 -0.175596 10.0042 
9.96736 0.00604945 0.160844 
0.00604945 9.97293 -0.171663 
0.160844 -0.171663 9.97643 
9.97316 0.00950616 0.156976 
0.00950616 9.97344 -0.173175 
0.156976 -0.173175 9.97012 
9.61768 -0.0767893 -0.176421 
-0.0767893 9.79864 0.0196876 
-0.176421 0.0196876 9.90264 
9.64526 -0.0527586 -0.153358 
-0.0527586 9.82524 -0.0569526 
-0.153358 -0.0569526 9.84844 
9.67058 0.0108122 -0.155025 
0.0108122 9.78524 0.020667 
-0.155025 0.020667 9.86314 
9.63248 0.072135 -0.142589 
0.072135 9.82713 -0.097819 
-0.142589 -0.097819 9.85933 
10.0063 0.00377203 -0.0317168 
0.00377203 10.0053 0.136797 
-0.0317168 0.136797 10.0058 
10.0087 0.0124281 -0.0157901 
0.0124281 9.98759 0.153279 
-0.0157901 0.153279 10.0211 
10.0277 -0.000535266 -0.0323983 
-0.000535266 10.0309 0.152699 
-0.0323983 0.152699 9.95874 
10.0263 -0.0104106 -0.017976 
-0.0104106 10.0192 0.132964 
-0.017976 0.132964 9.9718 
9.96536 0.0102134 0.0882686 
0.0102134 9.97893 0.234818 
0.0882686 0.234818 10.0007 
9.98343 -0.00287472 0.0937644 
-0.00287472 9.98384 0.225437 
0.0937644 0.225437 9.97771 
9.97848 0.00283637 0.0878031 
0.00283637 9.97199 0.227802 
0.0878031 0.227802 9.9945 
9.98446 -0.000338033 0.0914285 
-0.000338033 9.97457 0.229527 
0.0914285 0.229527 9.98594 
9.95362 0.00319553 0.135408 
0.00319553 9.95232 0.207227 
0.135408 0.207227 9.95917 
9.94773 -0.00398703 0.134528 
-0.00398703 9.95133 0.204422 
0.134528 0.204422 9.96605 
9.95415 -0.0168401 0.131106 
-0.0168401 9.95212 0.195024 
0.131106 0.195024 9.95884 
9.94287 0.00166185 0.13434 
0.00166185 9.95581 0.211927 
0.13434 0.211927 9.96643 
6.10778 -0.325197 1.926 
-0.325197 9.2003 1.42563 
1.926 1.42563 -3.04048 
-0.968999 0.998178 0.36396 
0.998178 1.44857 0.614611 
0.36396 0.614611 11.788 
7.02857 -0.154381 -1.25576 
-0.154381 9.0824 1.34627 
-1.25576 1.34627 -3.84337 
6.74215 -0.0735236 0.494969 
-0.0735236 5.90836 10.8412 
0.494969 10.8412 -0.382911 
10.1668 -0.113948 0.0722972 
-0.113948 9.98455 0.00813528 
0.0722972 0.00813528 10.1673 
9.94765 -0.199438 0.0917938 
-0.199438 10.153 0.0351869 
0.0917938 0.0351869 10.218 
9.96808 -0.0402805 0.0626628 
-0.0402805 10.122 0.0211123 
0.0626628 0.0211123 10.2286 
10.0171 -0.110488 0.142437 
-0.110488 10.1461 0.0570627 
0.142437 0.0570627 10.1555 
9.95701 -0.00653691 -0.151096 
-0.00653691 9.95279 -0.198832 
-0.151096 -0.198832 10.0035 
9.96193 -0.0084175 -0.137056 
-0.0084175 9.96202 -0.19044 
-0.137056 -0.19044 9.98931 
9.95688 -0.0174026 -0.145322 
-0.0174026 9.96035 -0.197737 
-0.145322 -0.197737 9.99604 
9.95888 -0.0163921 -0.144118 
-0.0163921 9.95965 -0.19507 
-0.144118 -0.19507 9.99473 
9.97958 -0.00106773 0.14331 
-0.00106773 9.98093 0.192193 
0.14331 0.192193 9.99167 
9.9863 -0.00126168 0.140437 
-0.00126168 9.98588 0.197706 
0.140437 0.197706 9.98001 
9.96589 0.00754082 0.152239 
0.00754082 9.98494 0.197856 
0.152239 0.197856 10.0013 
9.97992 -0.00336419 0.145478 
-0.00336419 9.98446 0.196665 
0.145478 0.196665 9.9878 
9.93761 -0.0179963 0.00107356 
-0.0179963 9.9946 -0.0191522 
0.00107356 -0.0191522 9.96556 
9.96659 0.0196124 0.00444889 
0.0196124 9.97966 -0.00201272 
0.00444889 -0.00201272 9.95152 
9.95885 0.0274999 0.012507 
0.0274999 9.96701 0.00472383 
0.012507 0.00472383 9.97192 
9.95888 0.00978781 0.00884305 
0.00978781 9.97894 0.000401291 
0.00884305 0.000401291 9.95995 
9.94532 -0.0154525 -0.0209983 
-0.0154525 10.0102 0.0196803 
-0.0209983 0.0196803 9.94647 
9.96907 0.00123721 -0.011428 
0.00123721 9.98762 0.00375325 
-0.011428 0.00375325 9.94531 
9.96189 0.060765 -0.00652802 
0.060765 9.94218 -0.0010856 
-0.00652802 -0.0010856 9.99794 
9.96158 -0.0253382 -0.00329171 
-0.0253382 9.99717 -0.0200535 
-0.00329171 -0.0200535 9.94325 
9.96646 -0.0205408 -0.00295879 
-0.0205408 9.95341 -0.00877538 
-0.00295879 -0.00877538 9.95889 
9.97139 -0.0121495 -0.000192439 
-0.0121495 9.9534 -0.0143703 
-0.000192439 -0.0143703 9.95397 
9.99469 0.0296345 -0.027501 
0.0296345 9.9226 -0.00195123 
-0.027501 -0.00195123 9.96147 
9.97264 -0.0332304 -6.40426e-05 
-0.0332304 9.96688 -0.0041223 
-6.40426e-05 -0.0041223 9.93925 
9.99474 0.0271037 -0.0168087 
0.0271037 10.0405 -0.0321446 
-0.0168087 -0.0321446 10.1121 
10.0821 0.0148128 -0.0104088 
0.0148128 10.0108 -0.0251436 
-0.0104088 -0.0251436 10.0544 
10.046 -0.00573547 -0.00874256 
-0.00573547 10.044 -0.0218615 
-0.00874256 -0.0218615 10.0573 
10.0384 -0.00256007 0.00455699 
-0.00256007 10.0376 -0.00927494 
0.00455699 -0.00927494 10.0713 
5.2727 1.92842 -0.262097 
1.92842 8.10569 1.67432 
-0.262097 1.67432 5.77067 
6.75584 0.351593 -2.35649 
0.351593 7.29643 3.19027 
-2.35649 3.19027 5.0968 
8.49368 -1.70612 0.901453 
-1.70612 8.05073 3.3828 
0.901453 3.3828 2.60465 
6.82542 0.290598 -0.211835 
0.290598 7.88965 2.34603 
-0.211835 2.34603 4.43399 
9.95417 0.0217346 0.190684 
0.0217346 9.95122 -0.133093 
0.190684 -0.133093 9.95546 
9.95193 0.00297099 0.205166 
0.00297099 9.9495 -0.134679 
0.205166 -0.134679 9.95942 
9.94782 -0.0162823 0.213612 
-0.0162823 9.95463 -0.131857 
0.213612 -0.131857 9.95841 
9.95202 0.00228756 0.216488 
0.00228756 9.93689 -0.14082 
0.216488 -0.14082 9.97194 
9.97087 0.00455372 0.0847513 
0.00455372 9.95861 -0.230881 
0.0847513 -0.230881 9.98541 
9.96612 0.00554404 0.0765238 
0.00554404 9.95459 -0.233293 
0.0765238 -0.233293 9.99418 
9.9643 0.00946743 0.0793226 
0.00946743 9.95459 -0.222193 
0.0793226 -0.222193 9.996 
9.97932 0.00442413 0.0803337 
0.00442413 9.96308 -0.229298 
0.0803337 -0.229298 9.97248 
9.85825 -0.033715 -0.162899 
-0.033715 9.86433 -0.133188 
-0.162899 -0.133188 9.92401 
9.87626 0.000965215 -0.178271 
0.000965215 9.86483 -0.146373 
-0.178271 -0.146373 9.90551 
9.89136 0.0193133 -0.177337 
0.0193133 9.86458 -0.137498 
-0.177337 -0.137498 9.89065 
9.8637 0.00493295 -0.184908 
0.00493295 9.87145 -0.157203 
-0.184908 -0.157203 9.91143 
9.97317 0.0135734 0.0464725 
0.0135734 9.97755 0.245057 
0.0464725 0.245057 10.0032 
9.98072 0.00198031 0.050435 
0.00198031 9.99275 0.228641 
0.050435 0.228641 9.98042 
9.98606 -0.0130091 0.0514349 
-0.0130091 9.9987 0.24301 
0.0514349 0.24301 9.96912 
9.98029 0.00980932 0.0424418 
0.00980932 9.96414 0.24266 
0.0424418 0.24266 10.0094 
9.33428 -1.44897 -4.14964 
-1.44897 11.1018 -3.72365 
-4.14964 -3.72365 6.54428 
8.60623 -0.896724 -1.50759 
-0.896724 11.5209 -0.643751 
-1.50759 -0.643751 6.85321 
7.42275 -0.291254 -2.06845 
-0.291254 11.979 -0.436085 
-2.06845 -0.436085 7.57863 
6.66297 0.245334 -0.91142 
0.245334 7.30453 -0.104102 
-0.91142 -0.104102 13.0128 
9.95425 0.0177543 0.00283412 
0.0177543 9.96178 -0.00719023 
0.00283412 -0.00719023 9.95101 
9.92118 0.0355655 0.0299618 
0.0355655 9.95625 -0.0225226 
0.0299618 -0.0225226 9.98962 
9.94335 0.00356083 0.0170679 
0.00356083 9.98125 0.0147684 
0.0170679 0.0147684 9.94244 
10.0131 0.0128024 -0.0155246 
0.0128024 9.90692 -0.0249881 
-0.0155246 -0.0249881 9.94698 
9.78403 -0.0279286 0.0374604 
-0.0279286 9.85157 0.100699 
0.0374604 0.100699 9.87662 
9.83273 -0.100654 -0.00301147 
-0.100654 9.71745 0.0391261 
-0.00301147 0.0391261 9.96204 
9.80668 0.0449052 0.070099 
0.0449052 9.94221 0.0895307 
0.070099 0.0895307 9.76332 
9.74066 -0.0446056 0.0683143 
-0.0446056 9.80512 0.182093 
0.0683143 0.182093 9.96644 
9.8669 0.0405981 0.00331482 
0.0405981 9.8756 -0.0330929 
0.00331482 -0.0330929 9.98454 
9.82645 0.0148613 0.0380655 
0.0148613 9.92935 -0.0381471 
0.0380655 -0.0381471 9.97124 
9.9014 0.028445 0.0545534 
0.028445 9.93564 -0.012132 
0.0545534 -0.012132 9.89001 
9.84641 0.041391 0.0424468 
0.041391 9.92483 -0.0454271 
0.0424468 -0.0454271 9.9558 
9.98756 -0.00552007 -0.243359 
-0.00552007 10.0168 0.0645662 
-0.243359 0.0645662 9.95911 
10.005 -0.00389995 -0.244239 
-0.00389995 9.96498 0.046309 
-0.244239 0.046309 9.99353 
9.95585 -0.0155559 -0.226192 
-0.0155559 9.96815 0.0353688 
-0.226192 0.0353688 10.0395 
9.97548 0.00687504 -0.259245 
0.00687504 10.024 0.0428334 
-0.259245 0.0428334 9.96403 
3.86009 0.306006 0.401407 
0.306006 7.78699 -0.856688 
0.401407 -0.856688 -0.716033 
6.11423 -0.696689 -0.547527 
-0.696689 4.76559 0.512264 
-0.547527 0.512264 0.0512241 
5.52299 -1.06855 0.425081 
-1.06855 4.76509 -0.786329 
0.425081 -0.786329 0.64297 
4.86213 -0.55204 -0.242241 
-0.55204 5.54665 -0.315616 
-0.242241 -0.315616 0.522271 
9.43133 0.00541921 0.504329 
0.00541921 9.81555 0.439165 
0.504329 0.439165 9.17389 
9.41837 0.0772108 0.493739 
0.0772108 9.96148 0.543898 
0.493739 0.543898 9.04092 
9.46584 -0.0605534 0.447871 
-0.0605534 9.72124 0.48842 
0.447871 0.48842 9.23368 
9.35622 -0.0342022 0.336996 
-0.0342022 9.88145 0.300863 
0.336996 0.300863 9.18311 
13.2463 -0.382428 2.39222 
-0.382428 12.79 -1.78657 
2.39222 -1.78657 24.9319 
15.521 1.90945 0.543953 
1.90945 15.8245 -0.776568 
0.543953 -0.776568 19.6228 
16.7228 -1.05813 -0.282421 
-1.05813 10.7545 -1.85147 
-0.282421 -1.85147 23.4909 
15.7777 0.793967 -1.66696 
0.793967 16.0922 0.77263 
-1.66696 0.77263 19.0983 
9.95779 -0.00175652 -0.0545248 
-0.00175652 9.93085 -0.244347 
-0.0545248 -0.244347 9.97085 
9.94274 0.00907629 -0.0671225 
0.00907629 9.96169 -0.238925 
-0.0671225 -0.238925 9.95505 
9.94987 -0.00290312 -0.0656437 
-0.00290312 9.96471 -0.252814 
-0.0656437 -0.252814 9.9449 
9.95896 -0.0053207 -0.0552978 
-0.0053207 9.94002 -0.239086 
-0.0552978 -0.239086 9.9605 
9.95274 0.00423828 0.235164 
0.00423828 9.9534 -0.111791 
0.235164 -0.111791 9.95675 
9.93563 0.0109618 0.219957 
0.0109618 9.96621 -0.0909424 
0.219957 -0.0909424 9.96106 
9.94418 0.00114161 0.230866 
0.00114161 9.95008 -0.097321 
0.230866 -0.097321 9.96863 
9.94477 -0.00394186 0.237571 
-0.00394186 9.94789 -0.110793 
0.237571 -0.110793 9.97023 
7.6272 0.0134233 -0.367779 
0.0134233 10.1506 1.03003 
-0.367779 1.03003 4.71022 
7.06611 0.509353 -0.424055 
0.509353 10.0499 0.658657 
-0.424055 0.658657 5.37203 
8.16122 -0.175742 -0.410509 
-0.175742 8.94686 1.54286 
-0.410509 1.54286 5.37994 
7.17591 -0.0827653 -0.818733 
-0.0827653 9.67914 1.17947 
-0.818733 1.17947 5.63298 
9.95854 0.119342 0.0139462 
0.119342 10.1723 -0.0678008 
0.0139462 -0.0678008 10.2024 
10.0956 0.195536 0.0513932 
0.195536 9.98924 -0.0785202 
0.0513932 -0.0785202 10.2483 
10.0952 0.0414213 0.0353616 
0.0414213 10.0203 -0.0511259 
0.0353616 -0.0511259 10.2177 
10.1064 0.117287 0.0617796 
0.117287 10.0658 -0.118953 
0.0617796 -0.118953 10.161 
11.1778 -1.16175 -0.113849 
-1.16175 10.4752 0.444919 
-0.113849 0.444919 12.7693 
10.2254 -0.229079 -0.583932 
-0.229079 12.0388 -0.377332 
-0.583932 -0.377332 12.1581 
10.9823 -0.122682 -0.296224 
-0.122682 11.5691 -0.241484 
-0.296224 -0.241484 11.871 
11.0338 -0.0306343 0.0697845 
-0.0306343 11.2699 -0.350385 
0.0697845 -0.350385 12.1185 
9.95213 0.00182818 0.0146437 
0.00182818 9.95041 -0.253163 
0.0146437 -0.253163 9.95945 
9.96146 0.000113866 0.014808 
0.000113866 9.95363 -0.259238 
0.014808 -0.259238 9.94691 
9.9534 -0.00214207 0.0139202 
-0.00214207 9.93338 -0.251624 
0.0139202 -0.251624 9.97522 
9.94815 0.00165977 0.019959 
0.00165977 9.95426 -0.255059 
0.019959 -0.255059 9.95959 
9.9989 0.000353168 -0.000449976 
0.000353168 10.0003 0.0111771 
-0.000449976 0.0111771 10.0134 
10.003 0.00074457 0.00598491 
0.00074457 10.0029 0.00564979 
0.00598491 0.00564979 10.0066 
10.0247 -0.00373047 0.00957763 
-0.00373047 10.0239 -0.0046245 
0.00957763 -0.0046245 9.96399 
10.001 0.00153441 0.0101026 
0.00153441 10.0026 0.00771935 
0.0101026 0.00771935 10.009 
8.01174 2.4909 -1.86072 
2.4909 18.12 6.41501 
-1.86072 6.41501 -5.27797 
9.27166 -2.30586 2.29399 
-2.30586 18.8293 6.70745 
2.29399 6.70745 -7.24711 
-1.6331 -0.342912 -1.58293 
-0.342912 2.44374 -5.01165 
-1.58293 -5.01165 20.0432 
11.0744 -0.899209 -1.19085 
-0.899209 -2.4987 14.3074 
-1.19085 14.3074 12.2781 
9.80389 -0.00668605 0.0613624 
-0.00668605 9.8595 0.099332 
0.0613624 0.099332 9.85882 
9.81827 -0.0163647 0.0624222 
-0.0163647 9.83501 0.111777 
0.0624222 0.111777 9.86893 
9.80605 -0.033207 0.0814348 
-0.033207 9.80944 0.131211 
0.0814348 0.131211 9.90672 
9.82273 -0.0173419 0.0441948 
-0.0173419 9.81153 0.107719 
0.0441948 0.107719 9.88795 
9.9123 0.00762571 -0.236678 
0.00762571 9.88727 0.0667767 
-0.236678 0.0667767 9.85965 
9.91489 -0.0127249 -0.216935 
-0.0127249 9.87028 0.0979223 
-0.216935 0.0979223 9.87405 
9.80897 0.0182454 -0.231508 
0.0182454 9.88093 0.108533 
-0.231508 0.108533 9.96932 
9.89309 0.0315313 -0.192443 
0.0315313 9.87499 0.107369 
-0.192443 0.107369 9.89114 
9.91548 0.0112512 -0.141516 
0.0112512 9.69565 0.0137897 
-0.141516 0.0137897 9.67479 
9.58424 -0.00164995 -0.101743 
-0.00164995 9.85045 -0.01334 
-0.101743 -0.01334 9.85122 
9.69728 0.020695 -0.153 
0.020695 9.78274 0.0549956 
-0.153 0.0549956 9.80589 
9.66488 -0.0147536 -0.228995 
-0.0147536 9.78603 -0.0175107 
-0.228995 -0.0175107 9.83501 
10.7149 0.0785929 0.00389634 
0.0785929 10.6846 0.119129 
0.00389634 0.119129 10.2527 
10.276 0.0161831 -0.0221669 
0.0161831 10.439 0.0692921 
-0.0221669 0.0692921 10.9373 
10.5477 0.187916 -0.0534092 
0.187916 10.4155 0.0227583 
-0.0534092 0.0227583 10.6891 
10.5178 0.0346814 -0.00688606 
0.0346814 10.4953 -0.167421 
-0.00688606 -0.167421 10.6393 
9.92222 0.00576835 0.0174199 
0.00576835 9.94622 0.0259535 
0.0174199 0.0259535 10.0028 
9.93918 0.0322385 -0.0242875 
0.0322385 10.0002 0.0433184 
-0.0242875 0.0433184 9.93189 
9.91703 -0.0751352 -0.000935926 
-0.0751352 9.92912 -0.00786589 
-0.000935926 -0.00786589 10.0251 
9.96359 0.0130319 0.0299521 
0.0130319 9.91073 0.0440645 
0.0299521 0.0440645 9.99692 
9.85326 0.00536795 0.132569 
0.00536795 9.77017 0.0736108 
0.132569 0.0736108 9.83529 
9.81546 -0.0147343 0.135894 
-0.0147343 9.79078 0.100169 
0.135894 0.100169 9.85248 
9.74886 -0.0840031 0.1241 
-0.0840031 9.81496 0.0557967 
0.1241 0.0557967 9.89489 
9.81139 -0.0287246 0.178716 
-0.0287246 9.77248 0.0869736 
0.178716 0.0869736 9.87485 
9.87246 0.0113082 0.222184 
0.0113082 9.88468 -0.0602697 
0.222184 -0.0602697 9.88969 
9.83781 0.0176197 0.226045 
0.0176197 9.88241 -0.0758932 
0.226045 -0.0758932 9.92661 
9.87725 0.00712106 0.220602 
0.00712106 9.86981 -0.0627741 
0.220602 -0.0627741 9.89976 
9.87875 0.00591763 0.208827 
0.00591763 9.86671 -0.0581122 
0.208827 -0.0581122 9.90137 
9.9203 -0.0824389 -0.122264 
-0.0824389 9.55798 0.0218755 
-0.122264 0.0218755 9.94341 
9.95922 -0.0789336 0.17479 
-0.0789336 9.57196 0.213817 
0.17479 0.213817 9.89053 
9.82157 -0.0504408 0.110946 
-0.0504408 9.70171 0.0270364 
0.110946 0.0270364 9.89843 
9.76577 -0.00157174 -0.0780409 
-0.00157174 9.7341 0.256882 
-0.0780409 0.256882 9.92183 
9.95126 -0.00999092 -0.0103366 
-0.00999092 9.94389 0.0223225 
-0.0103366 0.0223225 9.9705 
9.89122 0.00222484 0.0407993 
0.00222484 10.0045 -0.0115875 
0.0407993 -0.0115875 9.96993 
9.95983 -0.0194396 0.0151374 
-0.0194396 9.92066 0.0262491 
0.0151374 0.0262491 9.98515 
10.0145 0.0241023 -0.0339296 
0.0241023 9.93468 -0.00330824 
-0.0339296 -0.00330824 9.9165 
10.0784 0.0380825 0.031697 
0.0380825 10.04 0.00299322 
0.031697 0.00299322 10.0563 
9.99534 -0.00443002 0.000108151 
-0.00443002 9.98179 0.0102082 
0.000108151 0.0102082 10.1976 
10.0399 0.0373956 0.0377787 
0.0373956 10.0644 0.0126794 
0.0377787 0.0126794 10.0705 
10.0366 0.0317797 0.0765752 
0.0317797 10.06 0.0141713 
0.0765752 0.0141713 10.0782 
10.0299 -0.0409517 0.00932649 
-0.0409517 10.0416 -0.0315565 
0.00932649 -0.0315565 10.0528 
10.015 -0.0323296 -0.0545972 
-0.0323296 10.0083 -0.0169645 
-0.0545972 -0.0169645 10.101 
10.0981 -0.0153986 0.0172393 
-0.0153986 10.076 0.0395058 
0.0172393 0.0395058 9.95012 
9.9687 -0.0224636 -0.051257 
-0.0224636 10.1068 0.00570879 
-0.051257 0.00570879 10.0488 
10.0592 0.0139863 0.0138683 
0.0139863 10.0291 0.0111324 
0.0138683 0.0111324 10.0139 
9.99052 0.0152487 -0.00611933 
0.0152487 10.0037 0.0589281 
-0.00611933 0.0589281 10.1081 
10.0576 0.00363348 0.0150911 
0.00363348 10.0349 -0.00398528 
0.0150911 -0.00398528 10.0098 
10.048 -0.00934339 -0.00642654 
-0.00934339 10.0492 -0.00504736 
-0.00642654 -0.00504736 10.005 
10.9598 -0.0326038 -0.300691 
-0.0326038 11.2728 -0.184291 
-0.300691 -0.184291 10.5528 
9.77124 -0.143121 0.17167 
-0.143121 9.69003 0.463445 
0.17167 0.463445 13.3242 
11.0545 -0.176409 -0.150752 
-0.176409 11.14 -0.348542 
-0.150752 -0.348542 10.591 
10.8797 -0.846979 -1.42067 
-0.846979 10.5471 -1.2147 
-1.42067 -1.2147 11.3586 
9.71652 -0.0680096 -0.198367 
-0.0680096 9.80447 -0.0394134 
-0.198367 -0.0394134 9.86136 
9.74176 -0.0592806 -0.158219 
-0.0592806 9.78528 -0.0509312 
-0.158219 -0.0509312 9.85532 
9.83573 -0.00593856 -0.167667 
-0.00593856 9.74616 -0.0609459 
-0.167667 -0.0609459 9.80046 
9.77002 0.00463818 -0.136077 
0.00463818 9.76719 -0.0454269 
-0.136077 -0.0454269 9.84515 
9.65552 0.112169 0.329856 
0.112169 9.76563 -0.264021 
0.329856 -0.264021 10.0153 
9.72661 0.0610726 0.226255 
0.0610726 9.74284 -0.276192 
0.226255 -0.276192 9.96694 
9.73778 0.107104 0.334073 
0.107104 9.6914 -0.335073 
0.334073 -0.335073 10.0072 
9.6412 0.13263 0.325109 
0.13263 9.72807 -0.255133 
0.325109 -0.255133 10.0671 
9.76812 -0.17667 0.118771 
-0.17667 9.75615 0.491085 
0.118771 0.491085 9.75529 
9.48128 -0.210811 0.118431 
-0.210811 9.66456 0.802737 
0.118431 0.802737 10.1337 
9.44959 -0.10239 0.539924 
-0.10239 9.86625 0.553669 
0.539924 0.553669 9.96372 
9.53737 -0.112535 0.546302 
-0.112535 9.57754 0.426044 
0.546302 0.426044 10.1647 
9.69899 -0.014284 -0.104205 
-0.014284 9.8794 -0.0366271 
-0.104205 -0.0366271 9.84695 
9.7627 -0.0323157 -0.0753628 
-0.0323157 9.81514 0.0207108 
-0.0753628 0.0207108 9.8475 
9.83291 -0.0229824 -0.0656203 
-0.0229824 9.78398 -0.00939636 
-0.0656203 -0.00939636 9.80844 
9.73541 -0.0197649 -0.0510832 
-0.0197649 9.8149 -0.0233539 
-0.0510832 -0.0233539 9.87502 
9.96586 -0.00160602 0.226866 
-0.00160602 9.96315 -0.0866746 
0.226866 -0.0866746 9.98467 
9.94856 0.00395682 0.21271 
0.00395682 9.95047 -0.0778923 
0.21271 -0.0778923 10.0147 
9.97235 0.00336172 0.224448 
0.00336172 9.96963 -0.0777703 
0.224448 -0.0777703 9.9717 
9.9699 0.00411388 0.234609 
0.00411388 9.97774 -0.0771631 
0.234609 -0.0771631 9.96605 
9.67918 -0.430056 -0.567621 
-0.430056 10.0535 1.29942 
-0.567621 1.29942 8.87314 
9.17754 0.390913 -1.28199 
0.390913 11.154 1.42112 
-1.28199 1.42112 8.2743 
9.61175 0.900978 -0.981722 
0.900978 11.2381 1.85083 
-0.981722 1.85083 7.75595 
9.1766 0.758528 -1.85487 
0.758528 11.9327 0.210591 
-1.85487 0.210591 7.49654 
9.78588 -0.0710024 -0.0698709 
-0.0710024 9.91406 -0.031267 
-0.0698709 -0.031267 9.82692 
9.71529 -0.0783383 -0.14936 
-0.0783383 9.91446 -0.030107 
-0.14936 -0.030107 9.8971 
9.63182 -0.0754144 -0.0572001 
-0.0754144 9.75467 0.00677457 
-0.0572001 0.00677457 10.1404 
9.75095 -0.0509613 -0.143221 
-0.0509613 9.83985 -0.0563428 
-0.143221 -0.0563428 9.93606 
10.3982 0.18717 0.110217 
0.18717 10.7508 -0.136812 
0.110217 -0.136812 10.4373 
10.9352 0.0825919 0.174391 
0.0825919 10.6322 -0.0608231 
0.174391 -0.0608231 10.0189 
10.0992 -0.253127 -0.173634 
-0.253127 10.2139 -0.13742 
-0.173634 -0.13742 11.2733 
10.585 0.0563352 0.13259 
0.0563352 10.5504 -0.32144 
0.13259 -0.32144 10.4509 
9.99286 -0.00199651 -0.000143108 
-0.00199651 9.97253 -0.237017 
-0.000143108 -0.237017 10.0156 
10.021 0.00228772 -0.0137635 
0.00228772 9.99656 -0.232948 
-0.0137635 -0.232948 9.96353 
10.0142 -0.00158631 -0.0231708 
-0.00158631 9.98203 -0.230864 
-0.0231708 -0.230864 9.98481 
10.0167 3.97086e-05 -0.0237574 
3.97086e-05 10.0064 -0.237258 
-0.0237574 -0.237258 9.95799 
10.0204 -0.0124677 0.0658697 
-0.0124677 9.98651 -0.181152 
0.0658697 -0.181152 10.0134 
10.0402 0.0084314 0.0685405 
0.0084314 10.0118 -0.197007 
0.0685405 -0.197007 9.96828 
10.0233 0.000398172 0.083326 
0.000398172 9.99344 -0.187872 
0.083326 -0.187872 10.0036 
10.0265 0.004584 0.078712 
0.004584 10.0229 -0.183853 
0.078712 -0.183853 9.971 
9.98324 0.00055151 -0.234161 
0.00055151 9.98295 0.0974688 
-0.234161 0.0974688 9.97592 
9.97829 -0.000412227 -0.237314 
-0.000412227 9.97799 0.0914496 
-0.237314 0.0914496 9.98582 
9.96852 -0.00423917 -0.237135 
-0.00423917 9.9769 0.0881482 
-0.237135 0.0881482 9.99669 
9.97711 -0.00904621 -0.243016 
-0.00904621 9.96721 0.0920295 
-0.243016 0.0920295 9.99779 
9.95373 0.00772998 -0.140616 
0.00772998 9.95286 0.207325 
-0.140616 0.207325 10.0082 
9.95897 0.00240136 -0.129753 
0.00240136 9.95675 0.195112 
-0.129753 0.195112 9.99906 
9.97458 0.00561156 -0.138917 
0.00561156 9.9722 0.19588 
-0.138917 0.19588 9.96801 
9.96845 0.00878439 -0.145179 
0.00878439 9.96539 0.184722 
-0.145179 0.184722 9.98095 
10.2867 0.0504299 0.00119339 
0.0504299 10.2222 0.245442 
0.00119339 0.245442 11.1428 
10.7147 -0.0110711 0.310802 
-0.0110711 11.0949 -0.111419 
0.310802 -0.111419 9.84213 
10.5015 0.0327206 0.146158 
0.0327206 10.5286 -0.113134 
0.146158 -0.113134 10.6216 
10.5679 0.282135 0.197735 
0.282135 10.3206 -0.324474 
0.197735 -0.324474 10.7633 
9.95357 -0.00385336 -0.172765 
-0.00385336 9.94551 -0.150297 
-0.172765 -0.150297 10.0129 
9.96571 -0.00284733 -0.181584 
-0.00284733 9.97135 -0.153944 
-0.181584 -0.153944 9.97488 
9.96298 0.00236661 -0.187123 
0.00236661 9.96472 -0.153696 
-0.187123 -0.153696 9.98425 
9.96807 -0.00537066 -0.183954 
-0.00537066 9.97794 -0.158559 
-0.183954 -0.158559 9.96593 
10.1708 -0.0248322 -0.00399259 
-0.0248322 9.75934 -0.00444321 
-0.00399259 -0.00444321 9.79703 
9.69078 0.109325 0.0136709 
0.109325 10.0323 -0.0306512 
0.0136709 -0.0306512 10.0041 
9.81685 0.012865 0.0747013 
0.012865 9.94109 -0.00743766 
0.0747013 -0.00743766 9.96925 
9.76802 -0.124861 0.0831834 
-0.124861 9.96326 0.000568023 
0.0831834 0.000568023 9.99591 
9.99539 0.0587975 -0.0243062 
0.0587975 10.0008 0.0416209 
-0.0243062 0.0416209 10.027 
9.98284 0.030517 0.00173052 
0.030517 9.98578 0.0114117 
0.00173052 0.0114117 10.0546 
9.9796 0.00554106 0.01647 
0.00554106 10.0117 -0.0154491 
0.01647 -0.0154491 10.0319 
9.97707 0.0476495 0.0240837 
0.0476495 9.97263 0.000994534 
0.0240837 0.000994534 10.0735 
9.98173 0.00156743 -0.22992 
0.00156743 9.98616 -0.103418 
-0.22992 -0.103418 9.98297 
9.97575 -0.00766265 -0.231224 
-0.00766265 9.98886 -0.0978385 
-0.231224 -0.0978385 9.98624 
9.96222 -0.0036783 -0.214294 
-0.0036783 9.98019 -0.0963653 
-0.214294 -0.0963653 10.0084 
9.9704 -0.0115244 -0.238405 
-0.0115244 9.99547 -0.102669 
-0.238405 -0.102669 9.98498 
10.2498 -0.055897 0.000720257 
-0.055897 10.2061 0.0489746 
0.000720257 0.0489746 10.484 
10.2823 0.0161806 -0.000764307 
0.0161806 10.4444 -0.102888 
-0.000764307 -0.102888 10.2131 
10.3424 -0.0892267 -0.0562548 
-0.0892267 10.4104 -0.0949622 
-0.0562548 -0.0949622 10.1872 
10.3448 -0.0846329 -0.0289191 
-0.0846329 10.1547 -0.0983446 
-0.0289191 -0.0983446 10.4405 
9.44398 0.022609 -0.636585 
0.022609 10.2399 0.120768 
-0.636585 0.120768 9.69943 
9.63015 -0.0675598 -0.290299 
-0.0675598 9.95151 -0.0311592 
-0.290299 -0.0311592 9.80166 
9.40082 0.188138 -0.56042 
0.188138 10.1032 0.0505365 
-0.56042 0.0505365 9.87933 
9.33389 0.0439442 -0.582461 
0.0439442 9.90968 0.00675411 
-0.582461 0.00675411 10.1398 
9.89995 -0.00150861 -0.0498483 
-0.00150861 9.89032 -0.241574 
-0.0498483 -0.241574 9.90194 
9.9012 -0.0157839 -0.0534177 
-0.0157839 9.87559 -0.23899 
-0.0534177 -0.23899 9.91543 
9.87572 0.00508686 -0.0529751 
0.00508686 9.88918 -0.239229 
-0.0529751 -0.239229 9.9273 
9.90386 -0.00217847 -0.0515891 
-0.00217847 9.88299 -0.233814 
-0.0515891 -0.233814 9.90536 
9.93462 0.000261985 -0.233214 
0.000261985 9.92603 -0.0879793 
-0.233214 -0.0879793 9.91358 
9.94521 0.00151248 -0.22762 
0.00151248 9.91929 -0.104316 
-0.22762 -0.104316 9.90972 
9.90148 -0.0175369 -0.242616 
-0.0175369 9.92469 -0.109686 
-0.242616 -0.109686 9.94805 
9.92286 -0.00653039 -0.223141 
-0.00653039 9.91026 -0.10038 
-0.223141 -0.10038 9.94111 
10.2256 -0.0617418 -0.216845 
-0.0617418 9.47405 -0.0932654 
-0.216845 -0.0932654 10.8851 
10.4008 0.20837 0.211289 
0.20837 9.75557 -0.202111 
0.211289 -0.202111 10.4283 
10.2741 0.196386 0.0264712 
0.196386 9.70663 -0.0167444 
0.0264712 -0.0167444 10.604 
10.1912 0.187724 0.118162 
0.187724 9.75561 0.10954 
0.118162 0.10954 10.6379 
10.0766 0.00254804 0.017703 
0.00254804 10.0665 -0.0280165 
0.017703 -0.0280165 10.021 
9.9893 -0.0162669 -0.0214537 
-0.0162669 10.0102 0.0117173 
-0.0214537 0.0117173 10.1646 
10.0931 -0.0276414 0.0191619 
-0.0276414 10.0477 -0.00759951 
0.0191619 -0.00759951 10.0232 
10.0212 0.0118461 0.0578914 
0.0118461 10.0739 -0.0160044 
0.0578914 -0.0160044 10.069 
10.6115 -0.014515 -0.0911873 
-0.014515 10.3765 0.0747535 
-0.0911873 0.0747535 10.2397 
10.9973 -0.0694173 0.096198 
-0.0694173 10.4995 0.135438 
0.096198 0.135438 9.73088 
9.86032 -0.0243153 0.277935 
-0.0243153 9.76986 0.044446 
0.277935 0.044446 11.5975 
10.4679 0.197593 -0.568056 
0.197593 10.4237 0.27713 
-0.568056 0.27713 10.3361 
9.97025 0.0100385 0.00923462 
0.0100385 9.97433 -0.000514974 
0.00923462 -0.000514974 9.96259 
9.99284 -0.0013168 -0.0294134 
-0.0013168 9.9289 0.0100693 
-0.0294134 0.0100693 9.98543 
9.9863 0.0175022 0.029707 
0.0175022 9.99793 -0.0363281 
0.029707 -0.0363281 9.92295 
9.96449 -0.000419521 0.0223905 
-0.000419521 9.98696 -0.00931179 
0.0223905 -0.00931179 9.95573 
10.0218 -0.00448774 0.00623628 
-0.00448774 9.94243 -0.00239612 
0.00623628 -0.00239612 10.0113 
10.0006 0.01658 -0.0190797 
0.01658 10.0247 0.0288394 
-0.0190797 0.0288394 9.95027 
9.99793 0.00775487 0.00410209 
0.00775487 9.99612 -0.00314076 
0.00410209 -0.00314076 9.98143 
9.97329 0.00342255 -0.0120973 
0.00342255 10.0247 -0.00307736 
-0.0120973 -0.00307736 9.97745 
9.96259 0.00434898 -0.219417 
0.00434898 10.0064 0.00746227 
-0.219417 0.00746227 10.0104 
9.96872 -0.00427288 -0.226523 
-0.00427288 9.9974 -0.00327348 
-0.226523 -0.00327348 10.0133 
9.99795 -0.00400326 -0.241764 
-0.00400326 10.0138 -0.00124798 
-0.241764 -0.00124798 9.96767 
9.9665 -0.0141868 -0.250357 
-0.0141868 10.0136 0.00879567 
-0.250357 0.00879567 9.99926 
9.92037 0.0528027 -0.0112687 
0.0528027 9.9038 0.0177692 
-0.0112687 0.0177692 9.96025 
9.89747 0.0543932 -0.0174205 
0.0543932 9.90892 0.0392595 
-0.0174205 0.0392595 9.97803 
9.87553 -0.0123654 -0.0114434 
-0.0123654 9.98423 0.0263104 
-0.0114434 0.0263104 9.92467 
9.84759 0.071588 0.00100325 
0.071588 9.94684 0.00229448 
0.00100325 0.00229448 9.99001 
9.97177 0.0072793 -0.200978 
0.0072793 9.96755 0.130244 
-0.200978 0.130244 9.97117 
9.95547 0.00337298 -0.208378 
0.00337298 9.94913 0.137863 
-0.208378 0.137863 10.0059 
9.95752 -0.00906624 -0.194822 
-0.00906624 9.95233 0.129259 
-0.194822 0.129259 10.0006 
9.96914 0.0100357 -0.203106 
0.0100357 9.97509 0.124336 
-0.203106 0.124336 9.96626 
9.95134 0.00654703 0.0148379 
0.00654703 10.0235 -0.0300877 
0.0148379 -0.0300877 9.97344 
9.96463 0.0119654 0.0193976 
0.0119654 9.96445 -0.00730059 
0.0193976 -0.00730059 10.0192 
9.9755 0.00991573 0.0137508 
0.00991573 9.98389 0.00611033 
0.0137508 0.00611033 9.98885 
9.98535 0.0206096 -0.0189481 
0.0206096 10.0054 0.00824549 
-0.0189481 0.00824549 9.95746 
9.97246 -5.04517e-05 -0.151602 
-5.04517e-05 9.95582 -0.190479 
-0.151602 -0.190479 10 
9.96787 -0.00257102 -0.146765 
-0.00257102 9.9764 -0.184941 
-0.146765 -0.184941 9.98401 
9.96976 -0.00978476 -0.149496 
-0.00978476 9.96451 -0.195262 
-0.149496 -0.195262 9.99401 
9.97488 -0.00452241 -0.146683 
-0.00452241 9.96978 -0.185099 
-0.146683 -0.185099 9.98362 
9.96533 0.0115385 0.146189 
0.0115385 9.97527 0.207209 
0.146189 0.207209 9.98873 
9.96121 0.00381073 0.130914 
0.00381073 9.94235 0.191415 
0.130914 0.191415 10.0258 
9.98902 -0.00387534 0.148607 
-0.00387534 9.97665 0.201364 
0.148607 0.201364 9.96366 
9.98941 -0.013406 0.145487 
-0.013406 9.97578 0.219959 
0.145487 0.219959 9.96414 
9.86718 -0.0389685 -0.160278 
-0.0389685 9.85966 -0.184224 
-0.160278 -0.184224 9.93449 
9.85868 -0.015159 -0.164926 
-0.015159 9.8555 -0.180506 
-0.164926 -0.180506 9.94715 
9.87125 -0.0439778 -0.15353 
-0.0439778 9.85942 -0.179734 
-0.15353 -0.179734 9.93066 
9.86371 -0.0386559 -0.172351 
-0.0386559 9.84522 -0.194072 
-0.172351 -0.194072 9.9524 
9.88343 0.0104928 -0.0336835 
0.0104928 9.84691 0.251558 
-0.0336835 0.251558 9.93239 
9.88516 0.00150399 -0.0281177 
0.00150399 9.89858 0.245173 
-0.0281177 0.245173 9.87899 
9.88883 0.00446366 -0.0269637 
0.00446366 9.87087 0.241395 
-0.0269637 0.241395 9.90303 
9.88549 0.000116642 -0.0136501 
0.000116642 9.8744 0.221806 
-0.0136501 0.221806 9.90284 
9.88226 -0.00260674 -0.0883434 
-0.00260674 9.88648 -0.2172 
-0.0883434 -0.2172 9.90349 
9.88526 -0.0152461 -0.0970041 
-0.0152461 9.85855 -0.225324 
-0.0970041 -0.225324 9.92841 
9.88983 -0.0145482 -0.083167 
-0.0145482 9.87653 -0.218547 
-0.083167 -0.218547 9.90587 
9.87502 -0.016635 -0.0963535 
-0.016635 9.88972 -0.218131 
-0.0963535 -0.218131 9.90748 
9.97215 -0.00294055 -0.220128 
-0.00294055 9.9889 -0.102109 
-0.220128 -0.102109 9.99565 
9.97117 -0.00909562 -0.23597 
-0.00909562 9.98178 -0.100325 
-0.23597 -0.100325 10.0037 
9.98123 -0.000833385 -0.222833 
-0.000833385 9.99697 -0.0960336 
-0.222833 -0.0960336 9.9785 
9.97612 -0.00332148 -0.219219 
-0.00332148 10.0023 -0.0905693 
-0.219219 -0.0905693 9.97827 
10.2063 -0.0346657 -0.0129133 
-0.0346657 10.0693 -0.0234871 
-0.0129133 -0.0234871 10.0555 
10.0434 -0.0332891 0.00108272 
-0.0332891 10.0661 -0.0338275 
0.00108272 -0.0338275 10.2216 
10.1162 0.0403938 0.00116628 
0.0403938 10.0763 -0.0225802 
0.00116628 -0.0225802 10.1385 
10.1267 -0.0133923 -0.0067557 
-0.0133923 10.0783 0.00924809 
-0.0067557 0.00924809 10.1261 
9.73643 -0.0604071 0.37035 
-0.0604071 9.83038 0.433287 
0.37035 0.433287 9.89233 
9.65332 -0.0630548 0.331438 
-0.0630548 9.90703 0.445335 
0.331438 0.445335 9.89878 
9.70025 -0.0954004 0.294809 
-0.0954004 9.86281 0.415506 
0.294809 0.415506 9.89607 
9.68719 -0.0905554 0.292359 
-0.0905554 9.90209 0.460035 
0.292359 0.460035 9.86984 
9.90214 0.00434556 0.22383 
0.00434556 9.89897 -0.0836328 
0.22383 -0.0836328 9.89614 
9.89196 0.0150445 0.214482 
0.0150445 9.89596 -0.0930997 
0.214482 -0.0930997 9.90933 
9.86045 0.0174378 0.223966 
0.0174378 9.89366 -0.0970849 
0.223966 -0.0970849 9.94314 
9.89548 0.010868 0.201751 
0.010868 9.89832 -0.0867068 
0.201751 -0.0867068 9.90345 
10.0085 -0.00085886 -0.00168027 
-0.00085886 10.0092 -0.0065263 
-0.00168027 -0.0065263 9.99591 
10.0008 0.00503421 -0.00543589 
0.00503421 10.0049 -0.001039 
-0.00543589 -0.001039 10.008 
10.0038 0.00539026 -0.008269 
0.00539026 10.0019 -0.00268729 
-0.008269 -0.00268729 10.0079 
9.99936 0.0108912 -0.00620556 
0.0108912 10.0083 -0.00147217 
-0.00620556 -0.00147217 10.006 
9.94834 0.0039554 0.101224 
0.0039554 9.95085 0.210896 
0.101224 0.210896 10.0272 
9.98314 -0.000151216 0.1167 
-0.000151216 9.95941 0.226226 
0.1167 0.226226 9.98382 
9.99432 -0.00649187 0.111301 
-0.00649187 9.96617 0.225206 
0.111301 0.225206 9.96589 
9.98647 -0.0160083 0.129253 
-0.0160083 9.97262 0.223037 
0.129253 0.223037 9.96728 
9.97847 -0.00481321 0.232477 
-0.00481321 9.9944 -0.0121185 
0.232477 -0.0121185 9.96228 
9.9689 0.00707017 0.225928 
0.00707017 9.94597 -0.0105615 
0.225928 -0.0105615 10.0203 
9.97202 -0.00414494 0.242947 
-0.00414494 9.97101 -0.012972 
0.242947 -0.012972 9.99212 
9.96972 -0.00134639 0.236137 
-0.00134639 9.99889 -0.0298982 
0.236137 -0.0298982 9.96654 
8.14313 -0.317194 -0.65056 
-0.317194 10.3033 -0.682224 
-0.65056 -0.682224 19.1944 
15.9469 0.773672 -0.570415 
0.773672 13.9715 1.55389 
-0.570415 1.55389 7.72231 
11.9833 -0.260546 0.245636 
-0.260546 11.0069 1.06496 
0.245636 1.06496 14.6506 
13.1567 -2.19946 6.02619 
-2.19946 10.5164 3.34 
6.02619 3.34 13.9677 
9.9521 0.00045395 -0.248361 
0.00045395 9.97105 0.0512736 
-0.248361 0.0512736 9.99868 
9.96978 0.0024289 -0.235102 
0.0024289 9.97407 0.0497213 
-0.235102 0.0497213 9.97799 
9.95688 0.00193854 -0.234101 
0.00193854 9.97292 0.0407457 
-0.234101 0.0407457 9.99203 
9.96422 0.00493326 -0.230082 
0.00493326 9.98506 0.049803 
-0.230082 0.049803 9.97256 
9.96163 0.0239674 0.0142389 
0.0239674 9.95842 -0.0723984 
0.0142389 -0.0723984 10.4269 
10.1158 0.0492178 -0.0201503 
0.0492178 10.2386 0.119935 
-0.0201503 0.119935 9.99249 
10.1382 -0.0131957 0.0318581 
-0.0131957 10.2371 0.119603 
0.0318581 0.119603 9.97161 
10.1769 0.0190885 0.00163754 
0.0190885 9.97717 0.228422 
0.00163754 0.228422 10.1928 
5.07128 -4.24053 1.00994 
-4.24053 13.083 -1.76142 
1.00994 -1.76142 15.4399 
8.90422 -0.679223 -2.82228 
-0.679223 12.6547 0.260311 
-2.82228 0.260311 12.0353 
11.9794 2.40708 0.813971 
2.40708 9.91428 -0.453167 
0.813971 -0.453167 11.7006 
9.88759 -0.709764 -2.30311 
-0.709764 10.4667 0.159098 
-2.30311 0.159098 13.2399 
9.98629 -1.72086e-05 -0.243296 
-1.72086e-05 9.97912 0.0460566 
-0.243296 0.0460566 9.9797 
9.96303 -0.00316162 -0.250295 
-0.00316162 9.96792 0.0352762 
-0.250295 0.0352762 10.0142 
9.99063 0.00370075 -0.255696 
0.00370075 9.9901 0.0522244 
-0.255696 0.0522244 9.96439 
9.98591 -0.01027 -0.248569 
-0.01027 9.97022 0.0407695 
-0.248569 0.0407695 9.98899 
9.98346 -0.0006335 0.0460404 
-0.0006335 9.98688 -0.240031 
0.0460404 -0.240031 9.98489 
9.99052 0.00395217 0.0490942 
0.00395217 9.99108 -0.246826 
0.0490942 -0.246826 9.97362 
9.97847 -0.00493393 0.0408958 
-0.00493393 9.97183 -0.243741 
0.0408958 -0.243741 10.0049 
9.97171 -0.011185 0.0439233 
-0.011185 9.98534 -0.246837 
0.0439233 -0.246837 9.99818 
9.96324 0.00773339 -0.197391 
0.00773339 9.9534 0.150014 
-0.197391 0.150014 10.0224 
9.97257 0.00320289 -0.204086 
0.00320289 9.98295 0.158972 
-0.204086 0.158972 9.98349 
9.9736 0.00443884 -0.19803 
0.00443884 9.99591 0.157925 
-0.19803 0.157925 9.96948 
9.97431 0.00906334 -0.201986 
0.00906334 9.99577 0.171462 
-0.201986 0.171462 9.96892 
9.95044 0.00693387 -0.0173415 
0.00693387 9.94076 -0.265687 
-0.0173415 -0.265687 9.95364 
9.97201 0.0090244 -0.012174 
0.0090244 9.94063 -0.264514 
-0.012174 -0.264514 9.93219 
9.94416 0.00336831 -0.00965059 
0.00336831 9.93617 -0.254905 
-0.00965059 -0.254905 9.9645 
9.94634 -0.00130183 -0.0223259 
-0.00130183 9.94639 -0.257845 
-0.0223259 -0.257845 9.95211 
9.92037 -0.0175651 -0.0138476 
-0.0175651 9.89571 -0.0167282 
-0.0138476 -0.0167282 9.96532 
9.93026 -0.0494688 0.00557738 
-0.0494688 9.90357 -0.0111509 
0.00557738 -0.0111509 9.94758 
9.96539 0.0287491 -0.00567095 
0.0287491 9.89344 -0.00435686 
-0.00567095 -0.00435686 9.92258 
9.903 0.00610026 -0.011785 
0.00610026 9.92433 -0.0137843 
-0.011785 -0.0137843 9.95408 
10.0567 -0.171266 0.150448 
-0.171266 10.6432 0.0531485 
0.150448 0.0531485 10.5776 
10.1146 0.227399 -0.127614 
0.227399 10.2801 0.169647 
-0.127614 0.169647 10.8828 
11.1512 -0.415562 0.442083 
-0.415562 10.2826 0.15859 
0.442083 0.15859 9.84378 
10.255 -0.0884002 0.191094 
-0.0884002 10.5024 -0.0782682 
0.191094 -0.0782682 10.5201 
4.68395 0.0431414 -0.333935 
0.0431414 1.34948 0.565983 
-0.333935 0.565983 4.29443 
3.89167 -0.618533 -0.341723 
-0.618533 3.0546 -0.0957608 
-0.341723 -0.0957608 3.38159 
10.1452 2.07209 -2.88237 
2.07209 7.03445 0.755252 
-2.88237 0.755252 -6.85177 
7.71856 -0.437927 4.74402 
-0.437927 0.918527 -0.188639 
4.74402 -0.188639 1.69077 
9.85682 -0.0446121 -0.121168 
-0.0446121 9.82598 -0.184415 
-0.121168 -0.184415 9.91712 
9.84748 -0.0269676 -0.139438 
-0.0269676 9.82541 -0.200996 
-0.139438 -0.200996 9.92704 
9.84832 -0.0299236 -0.138753 
-0.0299236 9.83008 -0.205838 
-0.138753 -0.205838 9.92153 
9.84634 -0.0304092 -0.163627 
-0.0304092 9.80155 -0.212702 
-0.163627 -0.212702 9.95203 
9.96885 -0.00295402 -0.163557 
-0.00295402 9.96488 -0.170934 
-0.163557 -0.170934 9.97849 
9.95779 -0.00679401 -0.183283 
-0.00679401 9.94147 -0.177797 
-0.183283 -0.177797 10.013 
9.96568 -0.00113003 -0.167798 
-0.00113003 9.97029 -0.168714 
-0.167798 -0.168714 9.97624 
9.96943 -0.0114206 -0.161054 
-0.0114206 9.97231 -0.163194 
-0.161054 -0.163194 9.97048 
9.94571 -0.00019466 -0.223129 
-0.00019466 9.95464 0.111504 
-0.223129 0.111504 10.0109 
9.96038 0.00266258 -0.213517 
0.00266258 9.97592 0.105651 
-0.213517 0.105651 9.97491 
9.96631 -0.00727053 -0.211937 
-0.00727053 9.95122 0.103901 
-0.211937 0.103901 9.99367 
9.96566 0.00781368 -0.207819 
0.00781368 9.97745 0.10647 
-0.207819 0.10647 9.96809 
9.4604 -0.209535 0.903155 
-0.209535 10.3308 -0.0106568 
0.903155 -0.0106568 9.71039 
8.25235 0.0682033 1.03237 
0.0682033 11.6195 -0.133567 
1.03237 -0.133567 9.62979 
9.85111 -0.847457 0.968018 
-0.847457 10.3107 0.316125 
0.968018 0.316125 9.33981 
9.69247 0.427106 0.68928 
0.427106 9.80802 0.00397188 
0.68928 0.00397188 10.0011 
9.76442 -0.16083 -0.0481805 
-0.16083 9.9452 -0.139303 
-0.0481805 -0.139303 8.55208 
10.0207 0.134312 0.0129055 
0.134312 9.95956 -0.283318 
0.0129055 -0.283318 8.28146 
9.97471 -0.132234 0.0994979 
-0.132234 9.83561 -0.0792119 
0.0994979 -0.0792119 8.45137 
9.70347 0.0795455 -0.129009 
0.0795455 9.64752 -0.209129 
-0.129009 -0.209129 8.91071 
9.85535 0.00842487 -0.25445 
0.00842487 9.8937 0.0559912 
-0.25445 0.0559912 9.95028 
9.90912 0.00429507 -0.248871 
0.00429507 9.90061 0.0413416 
-0.248871 0.0413416 9.8896 
9.88925 0.00843165 -0.240864 
0.00843165 9.90366 0.0544508 
-0.240864 0.0544508 9.90643 
9.89228 0.0201739 -0.221742 
0.0201739 9.89828 0.0570525 
-0.221742 0.0570525 9.90877 
9.96673 -0.00930928 -0.209483 
-0.00930928 9.96069 -0.110467 
-0.209483 -0.110467 9.99321 
9.95638 0.00580504 -0.216453 
0.00580504 9.96789 -0.121699 
-0.216453 -0.121699 9.99635 
9.95617 -0.0077297 -0.218563 
-0.0077297 9.97737 -0.116547 
-0.218563 -0.116547 9.98709 
9.96689 -0.00575293 -0.211043 
-0.00575293 9.97741 -0.117369 
-0.211043 -0.117369 9.97633 
9.71573 0.0845964 -1.02109 
0.0845964 7.62714 -0.843682 
-1.02109 -0.843682 2.24771 
9.31789 0.512761 -1.42962 
0.512761 7.25413 -0.962695 
-1.42962 -0.962695 3.01856 
9.98243 0.251396 -1.89146 
0.251396 6.55937 -2.62522 
-1.89146 -2.62522 3.04878 
11.1094 -0.478761 -2.43817 
-0.478761 5.56691 -1.08313 
-2.43817 -1.08313 2.91423 
9.70066 -0.0819279 0.132991 
-0.0819279 9.8061 0.0563483 
0.132991 0.0563483 9.86953 
9.80772 -0.0307419 0.178984 
-0.0307419 9.75265 0.0466361 
0.178984 0.0466361 9.81592 
9.82709 -0.00709601 0.160499 
-0.00709601 9.75714 0.0512725 
0.160499 0.0512725 9.79207 
9.7743 -0.0271533 0.201624 
-0.0271533 9.76533 0.0820778 
0.201624 0.0820778 9.83666 
9.88585 -0.011159 0.0040986 
-0.011159 9.92222 -0.0362815 
0.0040986 -0.0362815 9.93234 
9.86917 0.0184974 0.03675 
0.0184974 9.88968 -0.0451229 
0.03675 -0.0451229 9.98156 
9.87955 0.0263183 0.020158 
0.0263183 9.90359 -0.0264203 
0.020158 -0.0264203 9.95727 
9.89257 0.00878865 0.0040351 
0.00878865 9.89072 -0.034811 
0.0040351 -0.034811 9.95712 
9.79542 0.0473201 0.129748 
0.0473201 9.79741 -0.00625865 
0.129748 -0.00625865 9.84025 
9.73459 0.0630454 0.146289 
0.0630454 9.83862 -0.0615689 
0.146289 -0.0615689 9.85988 
9.86582 0.00221979 0.12286 
0.00221979 9.75441 -0.0385554 
0.12286 -0.0385554 9.81285 
9.78505 0.0302138 0.0973538 
0.0302138 9.79455 -0.0329088 
0.0973538 -0.0329088 9.85348 
9.9962 -0.00382954 0.153653 
-0.00382954 9.99352 -0.0674751 
0.153653 -0.0674751 10.034 
10.0321 -0.0200655 0.17119 
-0.0200655 10.011 -0.0785228 
0.17119 -0.0785228 9.98068 
10.0284 -0.00737435 0.173501 
-0.00737435 10.0295 -0.0737341 
0.173501 -0.0737341 9.9658 
10.0221 0.00526119 0.184042 
0.00526119 10.0256 -0.096156 
0.184042 -0.096156 9.97602 
10.1926 0.0928793 0.00230729 
0.0928793 10.1959 0.00177501 
0.00230729 0.00177501 10.2239 
10.1502 -0.00688865 0.00580492 
-0.00688865 10.0277 -0.0834244 
0.00580492 -0.0834244 10.4345 
10.1971 -0.0194543 -0.00943532 
-0.0194543 10.2906 -0.0579367 
-0.00943532 -0.0579367 10.1247 
10.2183 0.0553815 -0.0623901 
0.0553815 10.1599 0.0408739 
-0.0623901 0.0408739 10.2342 
9.73181 0.0436304 0.155491 
0.0436304 9.79623 -0.0251383 
0.155491 -0.0251383 9.79784 
9.72206 0.0215654 0.150189 
0.0215654 9.79346 -0.0350976 
0.150189 -0.0350976 9.81036 
9.78936 0.0275145 0.147848 
0.0275145 9.75903 -0.0289106 
0.147848 -0.0289106 9.77749 
9.7499 0.0690156 0.141918 
0.0690156 9.7979 -0.0423417 
0.141918 -0.0423417 9.77808 
10.0341 -5.19864e-05 0.144926 
-5.19864e-05 10.025 0.0788605 
0.144926 0.0788605 9.97423 
10.006 0.00765333 0.147155 
0.00765333 10.0136 0.0874438 
0.147155 0.0874438 10.0138 
10.0206 0.007779 0.13621 
0.007779 10.0105 0.0777258 
0.13621 0.0777258 10.0022 
10.0257 -0.00688639 0.129641 
-0.00688639 10.0264 0.0865533 
0.129641 0.0865533 9.98128 
9.75839 -0.00776748 -0.00412429 
-0.00776748 9.88067 -0.101549 
-0.00412429 -0.101549 9.81494 
9.85361 0.0551925 0.00194697 
0.0551925 9.71077 -0.138493 
0.00194697 -0.138493 9.88962 
9.83981 0.0118059 0.0151242 
0.0118059 9.71477 -0.10962 
0.0151242 -0.10962 9.89941 
9.86242 -0.014003 0.00251744 
-0.014003 9.74403 -0.173415 
0.00251744 -0.173415 9.84755 
9.97518 -0.010327 -0.161953 
-0.010327 9.98248 -0.199417 
-0.161953 -0.199417 9.97868 
9.97912 -0.00668994 -0.14757 
-0.00668994 9.96643 -0.20259 
-0.14757 -0.20259 9.99079 
9.98143 -0.011128 -0.159693 
-0.011128 9.96653 -0.21122 
-0.159693 -0.21122 9.98838 
9.99182 -0.0115322 -0.160159 
-0.0115322 9.97086 -0.195912 
-0.160159 -0.195912 9.97366 
9.95594 -0.000486464 0.196966 
-0.000486464 9.96065 0.142601 
0.196966 0.142601 10.0023 
9.95829 0.000425854 0.183074 
0.000425854 9.95429 0.132397 
0.183074 0.132397 10.0063 
9.97176 -0.00383542 0.186188 
-0.00383542 9.97685 0.143021 
0.186188 0.143021 9.9703 
9.97056 -0.00822687 0.181491 
-0.00822687 9.97272 0.153993 
0.181491 0.153993 9.97563 
9.88539 0.0427769 0.00592642 
0.0427769 9.93202 -0.0081971 
0.00592642 -0.0081971 9.9923 
9.96579 -0.00313274 0.000811524 
-0.00313274 9.91108 -0.00846929 
0.000811524 -0.00846929 9.93284 
9.97151 0.00564284 0.0089472 
0.00564284 9.8968 -0.00094531 
0.0089472 -0.00094531 9.9414 
9.96365 0.00721886 0.029751 
0.00721886 9.89546 -0.00730013 
0.029751 -0.00730013 9.95059 
9.97345 0.00293029 0.0113546 
0.00293029 9.87171 0.0169505 
0.0113546 0.0169505 9.94044 
9.89661 -0.0660306 0.012344 
-0.0660306 9.93696 0.00216149 
0.012344 0.00216149 9.95203 
9.93319 -0.0572242 0.0281386 
-0.0572242 9.8966 -7.53538e-05 
0.0281386 -7.53538e-05 9.9558 
9.95981 -0.0817853 0.00327054 
-0.0817853 9.85247 -0.00951783 
0.00327054 -0.00951783 9.97332 
9.84703 -0.0305865 0.206926 
-0.0305865 9.8854 0.136289 
0.206926 0.136289 9.98194 
9.91504 0.0131295 0.185379 
0.0131295 9.89903 0.131239 
0.185379 0.131239 9.9003 
9.92113 -0.0103225 0.203279 
-0.0103225 9.90891 0.114208 
0.203279 0.114208 9.88433 
9.91889 -0.0225634 0.163399 
-0.0225634 9.87534 0.132233 
0.163399 0.132233 9.92014 
10.9584 -0.120087 -0.482399 
-0.120087 11.2961 0.200098 
-0.482399 0.200098 14.7955 
14.2393 -1.11557 0.744517 
-1.11557 12.4076 0.759569 
0.744517 0.759569 10.4031 
9.56382 -2.07048 0.0790017 
-2.07048 10.8722 0.752386 
0.0790017 0.752386 16.6139 
11.6923 -1.30821 1.18561 
-1.30821 12.0804 -0.762879 
1.18561 -0.762879 13.2773 
9.94861 -0.000396458 0.0190569 
-0.000396458 9.95133 0.259383 
0.0190569 0.259383 9.96082 
9.94979 0.00133458 0.0151001 
0.00133458 9.94095 0.25386 
0.0151001 0.25386 9.97002 
9.95182 -0.00139035 0.0148578 
-0.00139035 9.94972 0.255481 
0.0148578 0.255481 9.95922 
9.96145 0.00184312 0.0148191 
0.00184312 9.95085 0.259839 
0.0148191 0.259839 9.94846 
9.95343 -0.00238357 -0.14081 
-0.00238357 9.9488 -0.199205 
-0.14081 -0.199205 9.95748 
9.95235 -0.00478104 -0.141638 
-0.00478104 9.93311 -0.203671 
-0.141638 -0.203671 9.97425 
9.9428 -0.00834317 -0.151752 
-0.00834317 9.94927 -0.193949 
-0.151752 -0.193949 9.96763 
9.9508 -0.00142924 -0.154463 
-0.00142924 9.94974 -0.191518 
-0.154463 -0.191518 9.95917 
10.0188 -0.0370896 0.0170533 
-0.0370896 10.0478 -0.0366745 
0.0170533 -0.0366745 10.0947 
10.011 0.00678577 0.00600732 
0.00678577 10.0278 -0.0198504 
0.00600732 -0.0198504 10.1226 
10.0452 -0.0408965 0.00824574 
-0.0408965 10.0211 -0.0395743 
0.00824574 -0.0395743 10.0951 
10.0365 -0.0335601 0.0171001 
-0.0335601 10.045 -0.0377603 
0.0171001 -0.0377603 10.0798 
9.69282 -0.00408331 0.179743 
-0.00408331 9.82798 0.0203223 
0.179743 0.0203223 9.86215 
9.78229 -0.00878394 0.191278 
-0.00878394 9.78654 0.0188189 
0.191278 0.0188189 9.81412 
9.75398 -0.0153877 0.197283 
-0.0153877 9.80024 0.0253556 
0.197283 0.0253556 9.82873 
9.77327 -0.00854796 0.217334 
-0.00854796 9.79366 0.0122448 
0.217334 0.0122448 9.81602 
11.4774 0.0356733 0.206017 
0.0356733 11.108 0.354772 
0.206017 0.354772 14.7046 
12.5096 1.14758 0.822837 
1.14758 14.5719 -0.696547 
0.822837 -0.696547 10.2086 
10.674 2.23427 0.824172 
2.23427 9.18926 0.0768341 
0.824172 0.0768341 17.4268 
12.0193 1.30632 -1.11564 
1.30632 11.8841 -1.05514 
-1.11564 -1.05514 13.3866 
10.0417 -0.0252306 0.00262259 
-0.0252306 9.99881 -0.000497356 
0.00262259 -0.000497356 10.129 
10.0106 0.0328536 0.0108763 
0.0328536 10.0512 0.0167586 
0.0108763 0.0167586 10.1076 
10.1229 0.00339765 0.0397852 
0.00339765 10.012 0.00490287 
0.0397852 0.00490287 10.0346 
10.08 -0.0124862 0.0148831 
-0.0124862 10.0267 0.0206169 
0.0148831 0.0206169 10.0628 
9.9699 6.06005e-05 0.039184 
6.06005e-05 9.93074 0.239969 
0.039184 0.239969 9.97771 
9.9509 0.0133864 0.076077 
0.0133864 9.97249 0.235928 
0.076077 0.235928 9.95495 
9.96266 -0.00452501 0.0762554 
-0.00452501 9.97868 0.25526 
0.0762554 0.25526 9.937 
9.96208 -0.0055466 0.0625504 
-0.0055466 9.94796 0.232278 
0.0625504 0.232278 9.9683 
10.0199 0.00887348 0.00421357 
0.00887348 9.9982 -0.023413 
0.00421357 -0.023413 10.1212 
10.0189 -0.0172695 0.0274222 
-0.0172695 10.0098 0.0117318 
0.0274222 0.0117318 10.1105 
10.0684 -0.0126958 0.0187918 
-0.0126958 10.0848 -0.0159311 
0.0187918 -0.0159311 9.98612 
10.0416 -0.0243516 -0.0193275 
-0.0243516 10.0454 0.0175943 
-0.0193275 0.0175943 10.0523 
9.91788 0.0478455 -0.010257 
0.0478455 9.89534 0.00552979 
-0.010257 0.00552979 9.98192 
9.93116 0.00175892 -0.0223839 
0.00175892 9.90617 0.0154104 
-0.0223839 0.0154104 9.95782 
9.95736 -0.0192884 -0.0193324 
-0.0192884 9.90931 -0.00407373 
-0.0193324 -0.00407373 9.92847 
9.90586 -0.00658711 -0.0336536 
-0.00658711 9.93336 0.013884 
-0.0336536 0.013884 9.95592 
9.83629 -0.0333184 0.0835079 
-0.0333184 9.88244 0.0840195 
0.0835079 0.0840195 9.77751 
9.77327 0.0179372 0.0745147 
0.0179372 9.87685 0.0849179 
0.0745147 0.0849179 9.84612 
9.81082 -0.0768886 0.0193656 
-0.0768886 9.72513 0.151586 
0.0193656 0.151586 9.96029 
9.76721 -0.023528 0.0580743 
-0.023528 9.83305 0.0260138 
0.0580743 0.0260138 9.89597 
9.93684 0.00379868 0.233921 
0.00379868 9.97394 -0.0501586 
0.233921 -0.0501586 9.96387 
9.96255 -0.00681577 0.246138 
-0.00681577 9.9482 -0.0656855 
0.246138 -0.0656855 9.96389 
9.94489 -0.00116358 0.242932 
-0.00116358 9.9588 -0.0541223 
0.242932 -0.0541223 9.97095 
9.96747 0.00335724 0.250675 
0.00335724 9.95061 -0.0613923 
0.250675 -0.0613923 9.95656 
9.98202 0.0244021 0.00425516 
0.0244021 9.93603 -0.0355614 
0.00425516 -0.0355614 9.98289 
9.97013 0.0205749 0.0244277 
0.0205749 9.97927 -0.0296899 
0.0244277 -0.0296899 9.95155 
10.0006 0.0165065 -0.0013013 
0.0165065 9.90658 -0.00547156 
-0.0013013 -0.00547156 9.99378 
9.97112 0.0429878 0.00489729 
0.0429878 9.94831 -0.0305969 
0.00489729 -0.0305969 9.98152 
9.96987 0.00862632 -0.249943 
0.00862632 9.97271 -0.0436677 
-0.249943 -0.0436677 10.0075 
9.9887 -0.00370434 -0.251128 
-0.00370434 9.98836 -0.0524358 
-0.251128 -0.0524358 9.97305 
9.98598 0.00547968 -0.251844 
0.00547968 9.96876 -0.0484538 
-0.251844 -0.0484538 9.99538 
9.98852 -0.00270765 -0.244602 
-0.00270765 9.97686 -0.0497334 
-0.244602 -0.0497334 9.98473 
10.315 -0.0898626 0.00641911 
-0.0898626 10.3503 0.0302794 
0.00641911 0.0302794 10.4274 
10.1854 0.105413 -0.017889 
0.105413 10.2725 0.0738811 
-0.017889 0.0738811 10.6347 
10.5372 0.0836927 -0.00400021 
0.0836927 10.3535 0.0529251 
-0.00400021 0.0529251 10.202 
10.3674 0.0790128 -0.0260474 
0.0790128 10.3338 -0.0870028 
-0.0260474 -0.0870028 10.3915 
9.93311 -0.00012412 -0.250092 
-0.00012412 9.95909 0.0518891 
-0.250092 0.0518891 9.97069 
9.96199 0.00331503 -0.258399 
0.00331503 9.95459 0.0663632 
-0.258399 0.0663632 9.94632 
9.9425 0.00413865 -0.244878 
0.00413865 9.95967 0.0546491 
-0.244878 0.0546491 9.96073 
9.96087 -0.00572792 -0.249669 
-0.00572792 9.94452 0.0650358 
-0.249669 0.0650358 9.95751 
6.4623 -0.186576 -2.5276 
-0.186576 9.85055 -4.53867 
-2.5276 -4.53867 7.14514 
7.35761 2.24012 0.412987 
2.24012 11.8767 -1.46894 
0.412987 -1.46894 4.22369 
9.44008 -2.48672 -5.02387 
-2.48672 9.88708 -7.60995 
-5.02387 -7.60995 4.13083 
7.19024 -3.44021 -1.71638 
-3.44021 7.67377 -1.65591 
-1.71638 -1.65591 8.59398 
9.75778 0.048687 -0.245842 
0.048687 9.8645 0.149638 
-0.245842 0.149638 9.85812 
9.79972 0.0363415 -0.259416 
0.0363415 9.84853 0.137658 
-0.259416 0.137658 9.83215 
9.77397 0.0329953 -0.28535 
0.0329953 9.87671 0.212328 
-0.28535 0.212328 9.82972 
9.76534 0.0411398 -0.212363 
0.0411398 9.82046 0.189982 
-0.212363 0.189982 9.8946 
10.0057 0.00297927 0.00405763 
0.00297927 9.99002 0.00846466 
0.00405763 0.00846466 9.99098 
9.99755 0.00348902 -0.00481787 
0.00348902 9.99099 0.00412637 
-0.00481787 0.00412637 9.99816 
10.011 0.0171952 0.011362 
0.0171952 9.97101 0.0183635 
0.011362 0.0183635 10.0046 
10.019 0.00453664 -0.000128 
0.00453664 9.97877 -0.0150434 
-0.000128 -0.0150434 9.9889 
10.1764 -0.0626818 -0.0432109 
-0.0626818 10.6633 0.0560496 
-0.0432109 0.0560496 9.97906 
10.2049 0.0193622 -0.0475807 
0.0193622 10.3082 0.0751959 
-0.0475807 0.0751959 10.3056 
10.0346 0.0460056 -0.0140415 
0.0460056 10.1556 -0.0686568 
-0.0140415 -0.0686568 10.6284 
10.2665 0.100488 -0.084319 
0.100488 10.2032 0.281078 
-0.084319 0.281078 10.349 
9.9616 0.00260094 0.0706766 
0.00260094 9.95778 -0.254558 
0.0706766 -0.254558 9.943 
9.95494 -0.000684939 0.0476176 
-0.000684939 9.94306 -0.24446 
0.0476176 -0.24446 9.96439 
9.95806 0.00612886 0.05665 
0.00612886 9.94142 -0.234833 
0.05665 -0.234833 9.9629 
9.95143 -0.00801652 0.0690272 
-0.00801652 9.95353 -0.250099 
0.0690272 -0.250099 9.95743 
10.0122 -0.00287925 -0.0250025 
-0.00287925 9.93524 -0.0148518 
-0.0250025 -0.0148518 9.94841 
9.97276 0.00534601 -0.0202569 
0.00534601 9.9857 -0.00508308 
-0.0202569 -0.00508308 9.93736 
9.899 0.0152898 -0.00180367 
0.0152898 10.0232 0.0303701 
-0.00180367 0.0303701 9.97358 
9.96661 9.67444e-05 -0.0485611 
9.67444e-05 10.0509 -0.0393642 
-0.0485611 -0.0393642 9.87834 
9.91806 0.019329 0.00975809 
0.019329 9.88541 -0.0378182 
0.00975809 -0.0378182 9.95793 
9.92486 0.0361938 0.00306373 
0.0361938 9.86714 -0.0553842 
0.00306373 -0.0553842 9.9694 
9.94987 0.0400786 0.0143391 
0.0400786 9.86705 -0.0319064 
0.0143391 -0.0319064 9.94448 
9.90993 0.0246244 -0.00374799 
0.0246244 9.88836 -0.0287544 
-0.00374799 -0.0287544 9.96311 
9.98235 0.0071338 0.177178 
0.0071338 9.97402 -0.183957 
0.177178 -0.183957 9.97201 
9.96568 0.0169283 0.172435 
0.0169283 9.98137 -0.18213 
0.172435 -0.18213 9.98132 
9.9444 -0.0108493 0.155931 
-0.0108493 9.95385 -0.177605 
0.155931 -0.177605 10.0301 
9.98084 0.00938323 0.176346 
0.00938323 9.97143 -0.19724 
0.176346 -0.19724 9.97611 
9.93921 0.0117134 0.0043204 
0.0117134 10.0218 0.038452 
0.0043204 0.038452 9.98965 
9.99747 0.00830396 0.0192458 
0.00830396 9.97498 -0.016898 
0.0192458 -0.016898 9.97821 
9.98206 0.0120331 0.0243464 
0.0120331 9.95127 0.0151582 
0.0243464 0.0151582 10.0173 
9.99047 0.00690022 0.00184774 
0.00690022 9.98356 -0.000930358 
0.00184774 -0.000930358 9.97663 
9.84037 0.0470514 -0.201147 
0.0470514 9.87756 0.220585 
-0.201147 0.220585 9.94209 
9.87468 0.0725626 -0.252224 
0.0725626 9.85043 0.194993 
-0.252224 0.194993 9.93492 
9.87749 0.0287254 -0.220752 
0.0287254 9.85948 0.233126 
-0.220752 0.233126 9.92305 
9.85117 0.0377615 -0.19784 
0.0377615 9.83909 0.189028 
-0.19784 0.189028 9.96976 
9.71952 -0.060894 0.149884 
-0.060894 9.79636 0.0454243 
0.149884 0.0454243 9.86212 
9.79698 -0.0380299 0.105141 
-0.0380299 9.76425 0.0302444 
0.105141 0.0302444 9.81677 
9.80517 -0.0521766 0.10862 
-0.0521766 9.79244 0.0261305 
0.10862 0.0261305 9.78039 
9.7769 -0.0601749 0.0879118 
-0.0601749 9.75153 0.0424576 
0.0879118 0.0424576 9.84957 
9.88881 0.0445821 -0.213473 
0.0445821 9.83168 0.205288 
-0.213473 0.205288 9.84206 
9.84581 0.0356811 -0.266234 
0.0356811 9.88042 0.228374 
-0.266234 0.228374 9.83632 
9.87373 0.0352386 -0.214604 
0.0352386 9.8604 0.192096 
-0.214604 0.192096 9.82842 
9.80529 0.0127905 -0.20552 
0.0127905 9.83014 0.201719 
-0.20552 0.201719 9.92713 
11.0174 -0.156514 0.264253 
-0.156514 11.2207 0.286328 
0.264253 0.286328 10.5596 
10.5739 -0.0624248 0.396677 
-0.0624248 11.0471 -0.00711495 
0.396677 -0.00711495 11.1767 
10.6084 -0.0438406 0.0310559 
-0.0438406 10.2094 -0.0854905 
0.0310559 -0.0854905 11.9799 
10.8226 -0.135339 0.43905 
-0.135339 11.1277 0.0198258 
0.43905 0.0198258 10.8474 
9.80197 0.0126188 0.0125353 
0.0126188 9.73543 -0.205223 
0.0125353 -0.205223 9.82858 
9.79015 0.0176441 0.0238685 
0.0176441 9.77284 -0.185499 
0.0238685 -0.185499 9.80298 
9.81091 0.0128245 0.0107076 
0.0128245 9.74761 -0.178789 
0.0107076 -0.178789 9.80745 
9.78622 0.02003 0.0141476 
0.02003 9.77716 -0.191283 
0.0141476 -0.191283 9.8026 
9.9371 -0.0114042 -0.00456241 
-0.0114042 9.96812 -0.0153405 
-0.00456241 -0.0153405 9.98498 
9.9585 -0.053743 0.0059459 
-0.053743 9.94093 -9.58733e-05 
0.0059459 -9.58733e-05 9.99078 
9.94631 0.0111758 -0.00778826 
0.0111758 9.97264 -0.00787347 
-0.00778826 -0.00787347 9.97125 
9.92336 -0.00195656 -0.00232157 
-0.00195656 9.98452 -0.0125875 
-0.00232157 -0.0125875 9.98232 
9.88785 -0.00159716 -0.164834 
-0.00159716 9.88511 -0.169896 
-0.164834 -0.169896 9.88592 
9.88275 -0.0258 -0.178035 
-0.0258 9.88469 -0.148552 
-0.178035 -0.148552 9.89144 
9.8684 -0.00632293 -0.175264 
-0.00632293 9.86665 -0.167694 
-0.175264 -0.167694 9.92383 
9.8864 -0.00269017 -0.175419 
-0.00269017 9.87673 -0.166781 
-0.175419 -0.166781 9.89575 
10.0082 0.00796573 -0.0112938 
0.00796573 9.99575 0.00180833 
-0.0112938 0.00180833 9.97416 
10.0012 -0.0141921 -0.0151436 
-0.0141921 9.97562 0.0102116 
-0.0151436 0.0102116 10.0013 
10.0081 -0.00886534 -0.00927242 
-0.00886534 9.98413 0.00991862 
-0.00927242 0.00991862 9.98591 
9.98606 -0.020663 0.00754386 
-0.020663 9.9858 0.0224043 
0.00754386 0.0224043 10.0063 
9.96978 0.00353035 -0.0362571 
0.00353035 9.96852 0.247341 
-0.0362571 0.247341 10.0073 
9.96456 -0.0107704 -0.0386546 
-0.0107704 9.98939 0.24899 
-0.0386546 0.24899 9.9917 
9.98267 -0.00059239 -0.0439354 
-0.00059239 9.98208 0.246696 
-0.0439354 0.246696 9.98089 
9.98927 0.00018408 -0.0473916 
0.00018408 9.98601 0.254069 
-0.0473916 0.254069 9.97038 
9.99602 0.0160651 0.136663 
0.0160651 9.96322 -0.203289 
0.136663 -0.203289 9.98914 
9.98961 0.00407883 0.131362 
0.00407883 10.0043 -0.217516 
0.131362 -0.217516 9.95451 
9.96581 -0.0139895 0.128101 
-0.0139895 9.94518 -0.191385 
0.128101 -0.191385 10.0374 
9.98586 0.00365518 0.157407 
0.00365518 9.98046 -0.216387 
0.157407 -0.216387 9.98205 
9.98949 -0.00186128 0.190388 
-0.00186128 9.98678 0.137187 
0.190388 0.137187 9.98952 
9.97692 0.00145241 0.2031 
0.00145241 9.98818 0.13481 
0.2031 0.13481 10.0007 
9.98471 -0.00333877 0.192165 
-0.00333877 9.99413 0.12929 
0.192165 0.12929 9.98695 
9.98906 -0.00241622 0.190263 
-0.00241622 9.99976 0.132257 
0.190263 0.132257 9.97696 
9.92008 -0.00716889 -0.00895223 
-0.00716889 9.98975 -0.0133432 
-0.00895223 -0.0133432 9.96371 
9.94271 -0.0424175 0.00406157 
-0.0424175 9.91947 0.00015445 
0.00406157 0.00015445 10.0114 
9.94051 -0.0221375 -0.00405462 
-0.0221375 9.95519 -0.0209263 
-0.00405462 -0.0209263 9.97784 
9.93293 0.0028126 -0.009778 
0.0028126 9.96283 -0.021753 
-0.009778 -0.021753 9.97778 
9.94339 -0.0083073 -0.139938 
-0.0083073 9.95883 -0.20397 
-0.139938 -0.20397 9.95614 
9.94134 -0.0125027 -0.123637 
-0.0125027 9.94454 -0.214733 
-0.123637 -0.214733 9.97248 
9.94961 -0.00554747 -0.131384 
-0.00554747 9.94212 -0.218247 
-0.131384 -0.218247 9.96663 
9.95397 -0.00573545 -0.132533 
-0.00573545 9.94117 -0.212502 
-0.132533 -0.212502 9.96323 
10.0027 -0.0128062 -0.0310282 
-0.0128062 9.97839 -0.222756 
-0.0310282 -0.222756 10.0049 
9.98616 -0.00666601 -0.0224113 
-0.00666601 9.98476 -0.240219 
-0.0224113 -0.240219 10.0151 
10.0274 0.00130233 -0.0243357 
0.00130233 10.0041 -0.239582 
-0.0243357 -0.239582 9.95453 
10.0263 -0.0066691 -0.049135 
-0.0066691 9.97721 -0.240312 
-0.049135 -0.240312 9.98254 
9.70157 -0.11015 0.0317723 
-0.11015 9.8308 0.038586 
0.0317723 0.038586 9.89319 
9.92226 -0.0250803 0.121073 
-0.0250803 9.76223 -0.0144575 
0.121073 -0.0144575 9.74108 
9.79156 -0.0322663 0.097822 
-0.0322663 9.79499 0.0446576 
0.097822 0.0446576 9.83901 
9.75966 -0.0346524 0.124486 
-0.0346524 9.79056 0.070843 
0.124486 0.070843 9.87535 
9.98394 -0.0015772 -0.0354529 
-0.0015772 9.97356 -0.232206 
-0.0354529 -0.232206 9.96603 
9.95692 0.00176599 -0.0402509 
0.00176599 9.9703 -0.238197 
-0.0402509 -0.238197 9.99631 
9.95598 0.00192733 -0.0355036 
0.00192733 9.95023 -0.222408 
-0.0355036 -0.222408 10.0173 
9.989 -0.0040363 -0.0276175 
-0.0040363 9.96891 -0.242604 
-0.0276175 -0.242604 9.96562 
9.94509 0.00847691 -0.262495 
0.00847691 9.94723 -0.0728811 
-0.262495 -0.0728811 9.95787 
9.93639 0.00253286 -0.247616 
0.00253286 9.95136 -0.0470929 
-0.247616 -0.0470929 9.96244 
9.95172 -0.00222348 -0.264043 
-0.00222348 9.95733 -0.0748242 
-0.264043 -0.0748242 9.94114 
9.93521 -0.00438169 -0.238303 
-0.00438169 9.95665 -0.0577615 
-0.238303 -0.0577615 9.95834 
9.96633 -0.0151131 -0.0106776 
-0.0151131 10.0894 -0.0304317 
-0.0106776 -0.0304317 9.99753 
10.0418 -0.00684419 0.0120353 
-0.00684419 9.9579 0.00280565 
0.0120353 0.00280565 10.0536 
10.0486 -0.0163704 0.000845916 
-0.0163704 10.0018 0.01225 
0.000845916 0.01225 10.0029 
9.98657 0.0156441 -0.0320643 
0.0156441 10.065 0.0160537 
-0.0320643 0.0160537 10.0017 
10.0711 0.0177314 -0.0387454 
0.0177314 9.99044 0.0265843 
-0.0387454 0.0265843 9.96873 
10.0462 -0.0149937 0.00807523 
-0.0149937 9.99824 0.037516 
0.00807523 0.037516 9.98577 
9.94649 0.00715438 0.000474488 
0.00715438 10.0471 -0.0228716 
0.000474488 -0.0228716 10.0366 
9.9971 0.0163672 0.0102418 
0.0163672 10.0366 0.0070988 
0.0102418 0.0070988 9.99655 
9.9297 0.0260817 -0.0224298 
0.0260817 9.97495 -0.00746816 
-0.0224298 -0.00746816 9.95755 
10.0035 0.0193808 0.026367 
0.0193808 9.92292 -0.0170079 
0.026367 -0.0170079 9.93576 
9.94431 0.0113493 -0.00174209 
0.0113493 9.95666 0.0135385 
-0.00174209 0.0135385 9.96122 
9.96788 -0.00970989 0.00100851 
-0.00970989 9.94781 -0.0417321 
0.00100851 -0.0417321 9.94651 
9.9569 -0.0126792 0.0944469 
-0.0126792 9.97397 0.232887 
0.0944469 0.232887 10.0149 
9.99578 -0.0156167 0.0980098 
-0.0156167 9.96934 0.222771 
0.0980098 0.222771 9.98065 
9.99131 0.000773766 0.094993 
0.000773766 9.98369 0.214594 
0.094993 0.214594 9.97076 
9.99126 -0.00436667 0.102628 
-0.00436667 9.98315 0.207597 
0.102628 0.207597 9.97136 
9.97509 0.00922342 -0.206816 
0.00922342 9.98281 0.140317 
-0.206816 0.140317 9.97968 
9.96687 0.0203198 -0.198194 
0.0203198 9.97744 0.138401 
-0.198194 0.138401 9.99328 
9.96181 0.0101812 -0.206043 
0.0101812 9.97117 0.133037 
-0.206043 0.133037 10.0046 
9.97394 0.00814959 -0.208436 
0.00814959 9.98827 0.142553 
-0.208436 0.142553 9.97537 
12.1574 0.0541098 1.11845 
0.0541098 11.893 0.171669 
1.11845 0.171669 18.8333 
12.9633 -0.493162 -0.324699 
-0.493162 12.2971 1.74619 
-0.324699 1.74619 17.6232 
14.859 -0.0985971 -0.491582 
-0.0985971 13.6268 1.10502 
-0.491582 1.10502 14.3979 
13.7358 0.596454 -1.56026 
0.596454 13.8274 0.929129 
-1.56026 0.929129 15.3204 
17.4774 2.59766 -7.51411 
2.59766 7.58542 1.58509 
-7.51411 1.58509 -8.24707 
3.77453 -0.602069 4.27252 
-0.602069 -0.425254 0.399559 
4.27252 0.399559 13.4665 
15.9647 -1.86388 -6.89678 
-1.86388 7.17355 -1.73409 
-6.89678 -1.73409 -6.32249 
-2.23773 -0.0689367 -9.95805 
-0.0689367 8.96478 -0.446728 
-9.95805 -0.446728 10.0887 
9.89618 -0.010663 0.142366 
-0.010663 9.89491 0.185089 
0.142366 0.185089 9.89271 
9.8705 -0.0161128 0.151289 
-0.0161128 9.86388 0.190065 
0.151289 0.190065 9.94942 
9.8881 -0.00499801 0.129629 
-0.00499801 9.8894 0.189058 
0.129629 0.189058 9.9063 
9.88908 -0.000669187 0.126428 
-0.000669187 9.88732 0.177642 
0.126428 0.177642 9.9074 
9.95559 0.00131306 -0.0105261 
0.00131306 9.91165 0.00254926 
-0.0105261 0.00254926 9.93796 
9.9391 0.0204593 -0.00558745 
0.0204593 9.91254 0.0143973 
-0.00558745 0.0143973 9.95355 
9.93296 0.0179414 -0.00377434 
0.0179414 9.91726 -0.00113626 
-0.00377434 -0.00113626 9.95497 
9.9636 0.0176383 -0.01127 
0.0176383 9.89654 -0.00597495 
-0.01127 -0.00597495 9.94505 
6.78241 -0.104754 -1.35624 
-0.104754 8.75339 1.67372 
-1.35624 1.67372 2.738 
6.80754 0.210015 -1.17665 
0.210015 9.07024 1.14363 
-1.17665 1.14363 2.39602 
7.67614 0.0609519 -1.57627 
0.0609519 8.47173 2.35447 
-1.57627 2.35447 2.12593 
3.70976 1.37313 -1.60264 
1.37313 10.6353 2.53511 
-1.60264 2.53511 3.92878 
9.89292 -0.00762707 0.165653 
-0.00762707 9.90078 0.159378 
0.165653 0.159378 9.90979 
9.87701 -0.0150197 0.168322 
-0.0150197 9.87715 0.173512 
0.168322 0.173512 9.94933 
9.90162 -0.00734402 0.158263 
-0.00734402 9.90474 0.17361 
0.158263 0.17361 9.89712 
9.89146 -0.00410753 0.156948 
-0.00410753 9.90224 0.154726 
0.156948 0.154726 9.90979 
10.3152 -0.0329237 -0.360257 
-0.0329237 10.5714 0.0564472 
-0.360257 0.0564472 12.5297 
11.2376 -0.0704348 0.38615 
-0.0704348 11.2362 0.0293432 
0.38615 0.0293432 10.9426 
11.1876 0.0643413 0.388336 
0.0643413 11.2775 -0.040237 
0.388336 -0.040237 10.9512 
10.865 0.0683772 0.63196 
0.0683772 11.3979 0.0759702 
0.63196 0.0759702 11.1534 
9.9777 0.000304726 -0.144238 
0.000304726 9.97223 -0.203231 
-0.144238 -0.203231 9.98547 
9.97254 -0.00554486 -0.1353 
-0.00554486 9.97296 -0.19876 
-0.1353 -0.19876 9.9899 
9.97418 -0.00862111 -0.136654 
-0.00862111 9.96759 -0.208824 
-0.136654 -0.208824 9.99363 
9.9803 -0.00490749 -0.144477 
-0.00490749 9.97791 -0.204018 
-0.144477 -0.204018 9.97718 
10.0302 -0.000165116 0.0945951 
-0.000165116 10.0056 -0.168503 
0.0945951 -0.168503 9.99428 
10.0332 0.00125644 0.0907271 
0.00125644 10.025 -0.162739 
0.0907271 -0.162739 9.97186 
10.0204 0.00756884 0.0791226 
0.00756884 9.99305 -0.161628 
0.0791226 -0.161628 10.0166 
10.0288 0.0137474 0.0963164 
0.0137474 10.0216 -0.181068 
0.0963164 -0.181068 9.97966 
9.82776 0.033291 0.121917 
0.033291 9.78717 -0.0828754 
0.121917 -0.0828754 9.77114 
9.81196 0.0259245 0.109297 
0.0259245 9.75506 -0.0799431 
0.109297 -0.0799431 9.81904 
9.71816 0.0633856 0.144931 
0.0633856 9.7876 -0.0318037 
0.144931 -0.0318037 9.88031 
9.81622 0.0161297 0.0868123 
0.0161297 9.76214 -0.0715127 
0.0868123 -0.0715127 9.8077 
9.90526 -0.0272306 -0.0590655 
-0.0272306 9.89044 -0.0449607 
-0.0590655 -0.0449607 9.96779 
9.8999 -0.0493392 -0.0627981 
-0.0493392 9.9119 -0.0337827 
-0.0627981 -0.0337827 9.95169 
9.8401 -0.0686577 -0.0548096 
-0.0686577 9.91215 0.0013747 
-0.0548096 0.0013747 10.0112 
9.91675 -0.0444726 -0.0480338 
-0.0444726 9.8947 -0.0332497 
-0.0480338 -0.0332497 9.95205 
10.0063 -0.00171847 -0.171694 
-0.00171847 10.004 -0.075588 
-0.171694 -0.075588 10.0048 
10.0153 0.00362167 -0.179145 
0.00362167 10.0153 -0.0768234 
-0.179145 -0.0768234 9.98444 
10.0156 0.00195179 -0.181567 
0.00195179 10.005 -0.0750103 
-0.181567 -0.0750103 9.99453 
10.0094 0.00242728 -0.184223 
0.00242728 10.0189 -0.08327 
-0.184223 -0.08327 9.98679 
9.9722 -0.00689582 -0.252089 
-0.00689582 9.98426 0.0111069 
-0.252089 0.0111069 10.0103 
9.996 -0.000630333 -0.242416 
-0.000630333 10.0086 0.00312073 
-0.242416 0.00312073 9.96215 
9.97953 -0.00355895 -0.230686 
-0.00355895 9.98264 0.00444457 
-0.230686 0.00444457 10.0046 
9.98141 -0.000596182 -0.23529 
-0.000596182 10.0094 0.0217638 
-0.23529 0.0217638 9.97594 
9.88671 -0.0171912 -0.218505 
-0.0171912 9.89633 -0.111897 
-0.218505 -0.111897 9.89159 
9.90031 0.00113564 -0.229533 
0.00113564 9.88364 -0.0973771 
-0.229533 -0.0973771 9.89068 
9.8682 -0.022651 -0.232419 
-0.022651 9.87835 -0.0997618 
-0.232419 -0.0997618 9.92808 
9.88326 0.00175418 -0.225839 
0.00175418 9.89353 -0.0948201 
-0.225839 -0.0948201 9.89784 
9.98637 0.00395412 0.244213 
0.00395412 9.96434 0.0485256 
0.244213 0.0485256 9.99482 
9.9839 -0.00235445 0.237423 
-0.00235445 9.97881 0.0504466 
0.237423 0.0504466 9.98282 
9.96815 0.00856233 0.242519 
0.00856233 9.97242 0.0446585 
0.242519 0.0446585 10.0049 
9.98823 -0.00390605 0.244763 
-0.00390605 9.98762 0.0534106 
0.244763 0.0534106 9.96967 
10.6712 -0.618318 0.149143 
-0.618318 12.6128 0.00385997 
0.149143 0.00385997 13.5684 
10.6522 0.0400815 1.08892 
0.0400815 11.667 -0.253445 
1.08892 -0.253445 14.5332 
11.4609 0.140992 0.601733 
0.140992 12.0694 0.19625 
0.601733 0.19625 13.322 
11.4764 -0.137488 -0.213318 
-0.137488 12.3479 0.679263 
-0.213318 0.679263 13.0282 
10.1262 -0.0960608 0.0591723 
-0.0960608 10.0605 -0.0381613 
0.0591723 -0.0381613 10.6937 
10.2286 0.0947706 -0.0715447 
0.0947706 10.5124 -0.0283535 
-0.0715447 -0.0283535 10.1395 
10.3584 0.00611001 -0.0325817 
0.00611001 10.1905 0.0881026 
-0.0325817 0.0881026 10.3315 
10.4107 0.0335421 0.00902753 
0.0335421 10.2434 0.153745 
0.00902753 0.153745 10.2265 
9.80842 0.00173779 -0.0116912 
0.00173779 9.75079 -0.128355 
-0.0116912 -0.128355 9.80685 
9.83903 0.00143804 -0.00558657 
0.00143804 9.68096 -0.0942633 
-0.00558657 -0.0942633 9.84607 
9.80993 -0.012314 -0.011106 
-0.012314 9.7356 -0.127034 
-0.011106 -0.127034 9.82053 
9.80537 0.00687936 -7.57447e-05 
0.00687936 9.74957 -0.156725 
-7.57447e-05 -0.156725 9.81112 
12.4301 -1.31195 0.298216 
-1.31195 11.2862 1.48846 
0.298216 1.48846 13.0262 
13.5195 -1.48265 -0.770269 
-1.48265 11.2392 1.21092 
-0.770269 1.21092 11.9838 
11.2085 -1.1434 1.33283 
-1.1434 8.24834 2.26309 
1.33283 2.26309 17.2857 
14.7438 -0.800928 1.14945 
-0.800928 10.0684 1.37365 
1.14945 1.37365 11.9303 
9.97337 -0.00345665 -0.168024 
-0.00345665 9.97135 -0.203055 
-0.168024 -0.203055 9.99441 
9.97973 -0.00469225 -0.162497 
-0.00469225 9.97944 -0.193632 
-0.162497 -0.193632 9.97995 
9.97525 -0.00304238 -0.164748 
-0.00304238 9.97578 -0.193562 
-0.164748 -0.193562 9.98809 
9.97222 -0.00390997 -0.158013 
-0.00390997 9.97195 -0.199257 
-0.158013 -0.199257 9.99496 
9.99051 -0.0139251 -0.0109183 
-0.0139251 9.94614 -0.0103309 
-0.0109183 -0.0103309 10.0171 
10.0115 -0.0269967 -0.00242843 
-0.0269967 9.9589 -0.0247298 
-0.00242843 -0.0247298 9.98331 
9.91679 -0.0207792 0.00361968 
-0.0207792 10.0546 0.0193251 
0.00361968 0.0193251 9.98236 
9.95734 0.010083 0.0378133 
0.010083 10.0155 -0.0163172 
0.0378133 -0.0163172 9.98085 
9.90579 0.00842046 -0.119141 
0.00842046 9.90848 0.204904 
-0.119141 0.204904 9.90012 
9.89038 0.024407 -0.133433 
0.024407 9.86585 0.210595 
-0.133433 0.210595 9.95816 
9.90017 0.000813629 -0.129015 
0.000813629 9.90281 0.193268 
-0.129015 0.193268 9.91141 
9.88875 0.00961876 -0.124816 
0.00961876 9.90794 0.181347 
-0.124816 0.181347 9.9177 
10.0283 -0.0047486 0.00706478 
-0.0047486 10.0053 0.00129244 
0.00706478 0.00129244 10.011 
10.0121 -0.00962946 0.0131447 
-0.00962946 9.99863 0.00805426 
0.0131447 0.00805426 10.034 
10.0088 0.00806584 0.0100453 
0.00806584 10.0197 0.00265506 
0.0100453 0.00265506 10.0162 
10.0318 -0.0169068 0.0167063 
-0.0169068 10.002 -0.0167312 
0.0167063 -0.0167312 10.0109 
9.95354 0.00857896 0.249679 
0.00857896 9.9482 0.0740498 
0.249679 0.0740498 9.961 
9.93939 0.00125877 0.239839 
0.00125877 9.95369 0.0450006 
0.239839 0.0450006 9.96965 
9.9637 -0.00445521 0.255856 
-0.00445521 9.95115 0.0708108 
0.255856 0.0708108 9.94789 
9.93523 -0.00716121 0.228752 
-0.00716121 9.96359 0.0565682 
0.228752 0.0565682 9.96391 
9.99512 -0.0211608 0.0308901 
-0.0211608 9.99813 -0.0353339 
0.0308901 -0.0353339 9.95368 
9.98051 -0.0507229 -0.0122509 
-0.0507229 9.99037 -0.0206453 
-0.0122509 -0.0206453 9.97604 
9.98367 -0.00511377 0.0177519 
-0.00511377 9.97968 -0.00135629 
0.0177519 -0.00135629 9.98357 
9.94019 -0.014266 0.0227598 
-0.014266 9.95919 0.0373475 
0.0227598 0.0373475 10.0475 
9.15953 3.22814 1.29341 
3.22814 8.33345 -3.56613 
1.29341 -3.56613 3.17564 
7.53259 0.851953 -2.1921 
0.851953 6.76921 -3.06463 
-2.1921 -3.06463 6.36681 
5.57381 -3.03299 0.606519 
-3.03299 8.74329 -3.16912 
0.606519 -3.16912 6.35152 
6.93364 0.109328 -0.83877 
0.109328 8.72215 -3.33696 
-0.83877 -3.33696 5.01282 
10.0196 -0.00203612 0.0019011 
-0.00203612 10.0014 -0.00244708 
0.0019011 -0.00244708 10.0048 
10.0021 -0.00661712 0.00243972 
-0.00661712 10.0074 -0.00330841 
0.00243972 -0.00330841 10.0162 
10.007 0.00277164 -0.00194406 
0.00277164 10.0031 0.00223259 
-0.00194406 0.00223259 10.0156 
10.0152 0.00278379 -0.00313038 
0.00278379 10.0084 -0.00232488 
-0.00313038 -0.00232488 10.0021 
9.97557 0.000527072 -0.00150777 
0.000527072 9.98783 -0.00310844 
-0.00150777 -0.00310844 9.9716 
9.97733 0.0039961 -0.00346794 
0.0039961 9.97442 -0.00267276 
-0.00346794 -0.00267276 9.98326 
9.96943 0.00243401 0.00180192 
0.00243401 9.97648 0.00174582 
0.00180192 0.00174582 9.9891 
9.97831 -0.00424285 -0.00544858 
-0.00424285 9.98573 0.00172104 
-0.00544858 0.00172104 9.97096 
9.98227 0.00028 0.00300434 
0.00028 9.98503 0.000813327 
0.00300434 0.000813327 9.9794 
9.97736 -0.000721556 -0.00227976 
-0.000721556 9.97778 -0.00206893 
-0.00227976 -0.00206893 9.99156 
9.98275 0.00231639 0.00126373 
0.00231639 9.98247 0.00101953 
0.00126373 0.00101953 9.98148 
9.9809 0.00115083 0.00249188 
0.00115083 9.98175 -0.00102369 
0.00249188 -0.00102369 9.98404 
9.851 -0.0579571 -0.0520697 
-0.0579571 9.89685 -0.00200762 
-0.0520697 -0.00200762 9.98775 
9.97143 -0.015953 -0.0448988 
-0.015953 9.82577 -0.0206837 
-0.0448988 -0.0206837 9.9384 
9.81585 -0.0516682 -0.0198911 
-0.0516682 9.94408 0.00325436 
-0.0198911 0.00325436 9.97568 
9.90006 -0.114238 -0.0277493 
-0.114238 9.84959 0.0181293 
-0.0277493 0.0181293 9.98595 
9.7509 0.0411226 -0.033932 
0.0411226 9.87637 0.101089 
-0.033932 0.101089 9.89893 
9.8848 -0.00175836 -0.0076255 
-0.00175836 9.72784 0.11605 
-0.0076255 0.11605 9.91356 
9.86908 -0.0238293 0.0188493 
-0.0238293 9.74518 0.128566 
0.0188493 0.128566 9.91193 
9.90698 0.0291105 -0.00750334 
0.0291105 9.74486 0.138807 
-0.00750334 0.138807 9.87436 
10.0073 -0.00930078 -0.0133344 
-0.00930078 10.036 -0.00414767 
-0.0133344 -0.00414767 10.0355 
9.98102 0.0126521 0.0140334 
0.0126521 9.98445 -0.004843 
0.0140334 -0.004843 10.1134 
10.0236 -0.0295406 0.000576018 
-0.0295406 10.0484 0.0134107 
0.000576018 0.0134107 10.0068 
10.0399 -0.0132129 -0.0274147 
-0.0132129 10.055 0.0375578 
-0.0274147 0.0375578 9.98393 
9.96232 -0.000275377 0.0179946 
-0.000275377 9.94978 -0.0106149 
0.0179946 -0.0106149 10.007 
9.9733 0.00186868 -0.00207575 
0.00186868 9.97802 -0.0116606 
-0.00207575 -0.0116606 9.96775 
9.96877 0.0177386 -0.0166671 
0.0177386 9.97138 0.00792023 
-0.0166671 0.00792023 9.97893 
9.97705 0.00784848 -0.015272 
0.00784848 9.98242 -0.0161481 
-0.015272 -0.0161481 9.9596 
10.0331 -0.0250151 -0.0173532 
-0.0250151 9.98386 -0.00456268 
-0.0173532 -0.00456268 10.0749 
10.0172 0.00406337 0.0129716 
0.00406337 10.0673 0.0160035 
0.0129716 0.0160035 10.0073 
10.0353 0.00316321 0.0046805 
0.00316321 10.026 0.00288755 
0.0046805 0.00288755 10.0306 
10.0268 0.0107717 0.0211133 
0.0107717 10.0234 -0.0191539 
0.0211133 -0.0191539 10.0416 
9.98767 -0.00945019 0.0070883 
-0.00945019 9.98652 0.0014999 
0.0070883 0.0014999 9.96395 
9.95811 -0.0299518 -0.00241554 
-0.0299518 9.98915 0.0152845 
-0.00241554 0.0152845 9.99089 
10.0132 0.0145294 0.0221271 
0.0145294 9.95039 0.0001142 
0.0221271 0.0001142 9.97455 
9.99078 0.00191935 -0.00449795 
0.00191935 9.98 0.00817964 
-0.00449795 0.00817964 9.96737 
9.5574 -0.516692 -0.427226 
-0.516692 9.93006 -0.124124 
-0.427226 -0.124124 9.73116 
9.44094 -0.408923 -0.816448 
-0.408923 9.73191 -0.784153 
-0.816448 -0.784153 10.0458 
9.2083 -0.118083 -0.3642 
-0.118083 9.77451 -0.142966 
-0.3642 -0.142966 10.2358 
8.99544 -0.494787 -0.362908 
-0.494787 10.2952 -0.0503503 
-0.362908 -0.0503503 9.92802 
9.8975 -0.040416 0.0157508 
-0.040416 9.88667 0.0505645 
0.0157508 0.0505645 9.92848 
9.90601 -0.0342122 0.0348064 
-0.0342122 9.84335 0.0638285 
0.0348064 0.0638285 9.96328 
9.88196 -0.0453117 -0.00752726 
-0.0453117 9.78636 0.0356795 
-0.00752726 0.0356795 10.0443 
9.90327 -0.0542761 0.0353637 
-0.0542761 9.86452 0.0947548 
0.0353637 0.0947548 9.94485 
9.83101 -0.0445749 0.0799085 
-0.0445749 9.83229 0.0736526 
0.0799085 0.0736526 9.91573 
9.83366 -0.0527411 0.0441796 
-0.0527411 9.83618 0.0421471 
0.0441796 0.0421471 9.90919 
9.86532 0.0318793 0.0759976 
0.0318793 9.85016 0.0558809 
0.0759976 0.0558809 9.86354 
9.82172 0.00818499 0.0711785 
0.00818499 9.86832 0.0727653 
0.0711785 0.0727653 9.88899 
9.94588 -0.00358513 -0.0658194 
-0.00358513 9.9537 0.255256 
-0.0658194 0.255256 9.96167 
9.96458 0.00509611 -0.053336 
0.00509611 9.93789 0.242338 
-0.053336 0.242338 9.95879 
9.95317 -0.000109741 -0.0554718 
-0.000109741 9.94032 0.250592 
-0.0554718 0.250592 9.96777 
9.95567 0.00341356 -0.0681044 
0.00341356 9.95531 0.259516 
-0.0681044 0.259516 9.95027 
11.8159 0.233374 0.524751 
0.233374 13.3406 0.23995 
0.524751 0.23995 14.2013 
11.8138 -0.386796 0.5464 
-0.386796 12.7387 -0.346031 
0.5464 -0.346031 14.8054 
12.6959 -0.585903 0.511795 
-0.585903 13.132 0.227199 
0.511795 0.227199 13.53 
12.886 -0.14296 0.513753 
-0.14296 13.1298 -0.201814 
0.513753 -0.201814 13.3421 
9.99443 -0.00789775 0.0091827 
-0.00789775 10.0068 0.0106525 
0.0091827 0.0106525 10.0023 
10.0218 -0.00828414 -0.000943068 
-0.00828414 9.98883 -0.00234215 
-0.000943068 -0.00234215 9.99281 
10.0145 -0.013139 -0.00408104 
-0.013139 9.99767 -0.00275322 
-0.00408104 -0.00275322 9.99129 
10.0137 -0.0124443 0.000943761 
-0.0124443 10.0004 0.00386697 
0.000943761 0.00386697 9.98932 
10.5196 -0.050178 0.0222444 
-0.050178 10.4289 0.0206997 
0.0222444 0.0206997 10.4466 
10.5529 0.0428066 0.00260096 
0.0428066 10.2965 0.0227459 
0.00260096 0.0227459 10.5457 
10.4362 -0.0464905 0.0139327 
-0.0464905 10.4665 0.0418306 
0.0139327 0.0418306 10.4925 
10.4678 -0.00708537 0.00104333 
-0.00708537 10.4597 0.0103769 
0.00104333 0.0103769 10.4677 
12.6176 -1.66416 0.72603 
-1.66416 8.65931 1.43393 
0.72603 1.43393 15.1025 
12.8669 -0.826151 0.211991 
-0.826151 9.26233 1.42341 
0.211991 1.42341 14.2502 
12.3092 -0.580459 0.354264 
-0.580459 9.08779 0.793134 
0.354264 0.793134 14.9824 
13.2104 -0.910267 0.580434 
-0.910267 9.65731 1.94734 
0.580434 1.94734 13.5117 
9.92295 0.00198133 -0.141497 
0.00198133 9.93744 -0.200933 
-0.141497 -0.200933 9.91671 
9.92973 0.000300716 -0.129441 
0.000300716 9.93177 -0.209015 
-0.129441 -0.209015 9.91561 
9.91908 -0.0112683 -0.14465 
-0.0112683 9.91255 -0.209335 
-0.14465 -0.209335 9.94548 
9.91995 -0.00133612 -0.134375 
-0.00133612 9.92422 -0.206502 
-0.134375 -0.206502 9.93293 
9.9826 0.00283795 -0.0765104 
0.00283795 9.99671 -0.251714 
-0.0765104 -0.251714 9.97031 
9.98718 -0.00527212 -0.0845314 
-0.00527212 9.95826 -0.242221 
-0.0845314 -0.242221 10.0042 
9.98854 -0.00543267 -0.0753355 
-0.00543267 9.98923 -0.23874 
-0.0753355 -0.23874 9.97184 
9.98129 -0.00467888 -0.0713076 
-0.00467888 9.97724 -0.245779 
-0.0713076 -0.245779 9.99109 
8.87433 0.744409 1.27839 
0.744409 12.9158 -0.227576 
1.27839 -0.227576 13.9088 
9.07143 0.554845 0.900531 
0.554845 12.386 -0.31198 
0.900531 -0.31198 14.2415 
8.1114 1.66491 1.36692 
1.66491 12.3137 -0.758438 
1.36692 -0.758438 15.2737 
9.41409 0.853567 1.6246 
0.853567 12.8103 -0.200066 
1.6246 -0.200066 13.4745 
9.88177 -0.00374936 -0.0342434 
-0.00374936 9.85622 -0.248896 
-0.0342434 -0.248896 9.92927 
9.89239 -0.00122254 -0.0228955 
-0.00122254 9.87625 -0.24433 
-0.0228955 -0.24433 9.89862 
9.89649 -0.00172461 -0.0279391 
-0.00172461 9.88295 -0.246682 
-0.0279391 -0.246682 9.88782 
9.8899 0.00418739 -0.0204164 
0.00418739 9.87919 -0.236185 
-0.0204164 -0.236185 9.89817 
9.97594 0.0034683 0.0688294 
0.0034683 9.97251 -0.247002 
0.0688294 -0.247002 9.9996 
9.98483 0.00185411 0.0784581 
0.00185411 9.98583 -0.245896 
0.0784581 -0.245896 9.9774 
9.98297 0.0027316 0.0797391 
0.0027316 9.97288 -0.243578 
0.0797391 -0.243578 9.99221 
9.98367 0.000145294 0.0762161 
0.000145294 9.97777 -0.249367 
0.0762161 -0.249367 9.98661 
10.0282 0.00603939 0.00564836 
0.00603939 10.0191 0.00947306 
0.00564836 0.00947306 10.0176 
10.0201 -0.000435124 0.000395272 
-0.000435124 9.99867 0.00244428 
0.000395272 0.00244428 10.0461 
10.0324 0.00967523 0.000671302 
0.00967523 10.0315 0.00113411 
0.000671302 0.00113411 10.0009 
10.0303 0.0108294 0.0063655 
0.0108294 10.0143 0.0197803 
0.0063655 0.0197803 10.0202 
9.96776 0.0144529 -0.000959055 
0.0144529 9.97452 -0.00264738 
-0.000959055 -0.00264738 9.94788 
9.97119 -0.00238686 -0.00182157 
-0.00238686 9.94521 -0.00614675 
-0.00182157 -0.00614675 9.97375 
9.96888 0.0156457 -0.00718811 
0.0156457 9.95666 -0.0154565 
-0.00718811 -0.0154565 9.96461 
9.9723 0.0174131 -0.00208352 
0.0174131 9.95104 -0.0142728 
-0.00208352 -0.0142728 9.96682 
9.98623 -0.00185542 -0.00379105 
-0.00185542 9.95582 0.0193744 
-0.00379105 0.0193744 9.95968 
9.96269 0.00611182 0.0016423 
0.00611182 9.93805 -0.00208548 
0.0016423 -0.00208548 10.001 
9.96513 -0.0100447 -0.00323048 
-0.0100447 9.97194 0.0062063 
-0.00323048 0.0062063 9.96466 
9.99401 -0.0121238 -0.0098953 
-0.0121238 9.95135 0.010076 
-0.0098953 0.010076 9.95638 
9.96995 -0.00110208 -0.220167 
-0.00110208 9.97671 -0.0925771 
-0.220167 -0.0925771 9.98634 
9.9766 -0.00191018 -0.218436 
-0.00191018 9.97862 -0.0994668 
-0.218436 -0.0994668 9.97777 
9.95784 -0.00345746 -0.230197 
-0.00345746 9.96674 -0.108566 
-0.230197 -0.108566 10.0084 
9.97838 -0.00747233 -0.212544 
-0.00747233 9.98323 -0.0965081 
-0.212544 -0.0965081 9.97139 
9.84881 0.00503206 0.253015 
0.00503206 9.87927 -0.0307837 
0.253015 -0.0307837 9.91805 
9.87825 0.000687461 0.24815 
0.000687461 9.88088 -0.0202715 
0.24815 -0.0202715 9.88701 
9.87149 0.00441984 0.246304 
0.00441984 9.89443 -0.0234609 
0.246304 -0.0234609 9.88021 
9.87289 -0.00889985 0.24179 
-0.00889985 9.88178 -0.0170598 
0.24179 -0.0170598 9.89147 
9.87319 -0.00434598 -0.0503923 
-0.00434598 9.96893 -0.0355367 
-0.0503923 -0.0355367 9.94477 
9.93144 -0.0684448 -0.00533322 
-0.0684448 9.84681 -0.0649576 
-0.00533322 -0.0649576 10.0086 
10.0498 -0.0763524 0.00109866 
-0.0763524 9.78887 -0.0178987 
0.00109866 -0.0178987 9.94818 
9.85123 -0.121314 0.00422699 
-0.121314 9.93931 -0.036868 
0.00422699 -0.036868 9.99634 
9.74267 0.0793548 -0.024385 
0.0793548 9.97243 0.0113531 
-0.024385 0.0113531 9.95445 
9.91719 0.0172548 -0.0468137 
0.0172548 9.83555 0.0461871 
-0.0468137 0.0461871 9.9168 
9.82709 0.0701912 -0.0682809 
0.0701912 9.8794 0.0243251 
-0.0682809 0.0243251 9.96304 
9.89774 0.110347 -0.0601333 
0.110347 9.8123 0.0103983 
-0.0601333 0.0103983 9.9595 
10.0548 0.00282991 -0.0306855 
0.00282991 10.0472 0.0151467 
-0.0306855 0.0151467 10.0124 
10.024 -0.00661461 -0.0275034 
-0.00661461 10.0317 0.02147 
-0.0275034 0.02147 10.0587 
10.0095 -0.00698829 -0.0178556 
-0.00698829 9.99342 -0.00624543 
-0.0178556 -0.00624543 10.1114 
10.0482 0.0087236 -0.0125956 
0.0087236 10.0222 0.040198 
-0.0125956 0.040198 10.044 
9.81025 0.0237383 0.146964 
0.0237383 9.79447 -0.0784366 
0.146964 -0.0784366 9.87606 
9.86786 -0.0127705 0.125264 
-0.0127705 9.77883 -0.072423 
0.125264 -0.072423 9.83409 
9.78707 0.0706248 0.11461 
0.0706248 9.80285 -0.061805 
0.11461 -0.061805 9.89086 
9.80472 -0.00805657 0.141672 
-0.00805657 9.81219 -0.066397 
0.141672 -0.066397 9.86387 
11.563 0.37493 -0.607907 
0.37493 12.4185 -0.158815 
-0.607907 -0.158815 11.1076 
9.86516 -0.229647 0.10132 
-0.229647 10.3527 0.58293 
0.10132 0.58293 14.8713 
11.5083 -0.577005 -0.711408 
-0.577005 11.598 -0.475032 
-0.711408 -0.475032 11.9828 
11.7329 -0.363607 -0.725142 
-0.363607 11.6361 -0.934408 
-0.725142 -0.934408 11.7202 
17.2627 -1.3268 1.00988 
-1.3268 15.689 1.64974 
1.00988 1.64974 18.1932 
13.8227 -0.395372 3.03718 
-0.395372 11.071 2.08836 
3.03718 2.08836 26.2513 
16.2446 1.07652 -0.936429 
1.07652 9.33992 2.2098 
-0.936429 2.2098 25.5604 
14.7746 -0.890417 -2.23074 
-0.890417 16.6939 -3.31726 
-2.23074 -3.31726 19.6764 
9.98224 0.00242561 -0.143938 
0.00242561 9.98195 -0.203889 
-0.143938 -0.203889 9.97584 
9.96062 -0.00681495 -0.136495 
-0.00681495 9.9516 -0.182698 
-0.136495 -0.182698 10.0278 
9.98144 -0.00650927 -0.142021 
-0.00650927 9.97458 -0.204245 
-0.142021 -0.204245 9.98401 
9.99071 -0.0120022 -0.150436 
-0.0120022 9.95933 -0.222975 
-0.150436 -0.222975 9.98997 
10.0043 -0.012269 0.00497417 
-0.012269 10.0015 -0.001522 
0.00497417 -0.001522 9.99395 
9.98413 0.00507 0.00644597 
0.00507 10.0109 -0.00204422 
0.00644597 -0.00204422 10.0047 
9.99231 -0.0133872 0.0149678 
-0.0133872 10.0059 -0.00616481 
0.0149678 -0.00616481 10.0016 
9.98989 -0.0135834 0.0115556 
-0.0135834 10.0082 -0.00313358 
0.0115556 -0.00313358 10.0017 
2.39039 0.37614 -0.0132412 
0.37614 4.30129 -0.902049 
-0.0132412 -0.902049 0.803225 
3.82999 0.00211165 -0.83959 
0.00211165 5.71929 2.06295 
-0.83959 2.06295 -2.05437 
1.47945 0.295988 -0.902619 
0.295988 3.10056 -0.89438 
-0.902619 -0.89438 2.91489 
0.864578 0.474466 -1.39479 
0.474466 4.55627 -1.96942 
-1.39479 -1.96942 2.07406 
9.88379 -0.00326172 -0.138467 
-0.00326172 9.89435 -0.201804 
-0.138467 -0.201804 9.87671 
9.86334 -0.0145216 -0.134736 
-0.0145216 9.85795 -0.199158 
-0.134736 -0.199158 9.93356 
9.89475 -0.0160439 -0.108238 
-0.0160439 9.87763 -0.214842 
-0.108238 -0.214842 9.88247 
9.87635 -0.00901818 -0.130176 
-0.00901818 9.88651 -0.207895 
-0.130176 -0.207895 9.89199 
10.2476 0.0759474 -0.0422405 
0.0759474 10.2165 0.00600179 
-0.0422405 0.00600179 10.493 
10.3425 -0.066725 -0.0257345 
-0.066725 10.2244 -0.00559858 
-0.0257345 -0.00559858 10.3903 
10.2953 0.00332316 -0.070018 
0.00332316 10.5444 0.0385194 
-0.070018 0.0385194 10.1174 
10.3045 0.0343552 0.00312127 
0.0343552 10.2826 0.065018 
0.00312127 0.065018 10.3701 
9.97702 -0.00391205 0.202942 
-0.00391205 9.98202 0.164636 
0.202942 0.164636 9.99487 
9.98124 -0.0026933 0.19353 
-0.0026933 9.9803 0.163949 
0.19353 0.163949 9.99237 
9.98438 -0.00541426 0.195408 
-0.00541426 9.98728 0.158886 
0.195408 0.158886 9.98227 
9.97902 -0.00460069 0.199905 
-0.00460069 9.98099 0.156274 
0.199905 0.156274 9.99391 
9.90534 -0.00120506 0.0169618 
-0.00120506 9.95191 -0.0165584 
0.0169618 -0.0165584 9.95165 
9.9258 0.0444009 0.00464191 
0.0444009 9.91608 -0.00324116 
0.00464191 -0.00324116 9.96702 
9.90247 0.0195526 0.0111163 
0.0195526 9.9476 -0.0187644 
0.0111163 -0.0187644 9.95883 
9.88566 0.0182936 0.00377445 
0.0182936 9.96368 -0.0248804 
0.00377445 -0.0248804 9.95955 
9.99009 0.000139861 0.00141403 
0.000139861 9.97222 0.00409705 
0.00141403 0.00409705 9.98781 
9.98579 0.00600409 -0.00398828 
0.00600409 9.97262 0.0100509 
-0.00398828 0.0100509 9.99171 
10.001 -0.0153769 0.00153117 
-0.0153769 9.9851 -0.00195043 
0.00153117 -0.00195043 9.96406 
9.99653 0.00143574 0.00131591 
0.00143574 9.96735 0.00369557 
0.00131591 0.00369557 9.98625 
9.97823 -0.00408305 0.00933832 
-0.00408305 10.001 -0.00263929 
0.00933832 -0.00263929 9.97672 
9.96789 0.00635503 -0.00324941 
0.00635503 9.98126 -0.00222627 
-0.00324941 -0.00222627 10.0068 
9.98466 0.00372594 0.0067419 
0.00372594 9.98119 0.00344109 
0.0067419 0.00344109 9.99007 
9.98633 -0.000671303 0.00322577 
-0.000671303 9.99805 0.00860746 
0.00322577 0.00860746 9.97153 
9.98251 -0.00288342 -0.00107151 
-0.00288342 9.98323 -0.00498959 
-0.00107151 -0.00498959 9.96893 
9.98577 0.00124802 -0.000542833 
0.00124802 9.97767 -0.000394267 
-0.000542833 -0.000394267 9.97125 
9.96649 0.00659268 0.00425119 
0.00659268 9.97022 0.00276624 
0.00425119 0.00276624 9.99797 
9.9749 -0.00391027 -0.00851151 
-0.00391027 9.98708 0.000771016 
-0.00851151 0.000771016 9.9727 
10.0185 0.00559725 -0.00208676 
0.00559725 9.98822 -0.0135359 
-0.00208676 -0.0135359 9.9888 
9.99344 -0.0119161 -0.00207096 
-0.0119161 9.97606 0.00261573 
-0.00207096 0.00261573 10.0261 
9.99521 -0.00353485 0.00432909 
-0.00353485 9.99676 -0.00839695 
0.00432909 -0.00839695 10.0036 
10.0146 0.00306019 0.0123064 
0.00306019 10.002 -0.00327958 
0.0123064 -0.00327958 9.97903 
10.0291 -0.00892619 -0.0063691 
-0.00892619 10.0111 0.00166987 
-0.0063691 0.00166987 10.0285 
10.0054 0.00388554 -0.00117742 
0.00388554 10.03 0.000316175 
-0.00117742 0.000316175 10.0333 
10.0145 -0.00531215 -0.0129459 
-0.00531215 10.0375 -0.00075431 
-0.0129459 -0.00075431 10.0167 
10.0212 -0.00625502 -0.00441676 
-0.00625502 10.0358 0.00702957 
-0.00441676 0.00702957 10.0117 
10.4984 0.173308 0.382725 
0.173308 11.2292 0.0844958 
0.382725 0.0844958 10.5548 
11.0166 0.353216 0.276212 
0.353216 11.0644 -0.07923 
0.276212 -0.07923 10.2015 
9.79807 -0.00404642 -0.128347 
-0.00404642 10.0991 -0.103417 
-0.128347 -0.103417 12.3854 
10.4057 0.124312 0.887455 
0.124312 11.2377 0.230589 
0.887455 0.230589 10.6391 
9.97793 0.00572416 -0.236278 
0.00572416 9.97527 0.1291 
-0.236278 0.1291 9.99483 
9.97298 0.00700676 -0.227576 
0.00700676 9.98035 0.128421 
-0.227576 0.128421 9.99471 
9.97802 -0.000704133 -0.232222 
-0.000704133 9.97823 0.119404 
-0.232222 0.119404 9.99178 
9.98395 0.00686848 -0.227223 
0.00686848 9.98349 0.124496 
-0.227223 0.124496 9.9806 
-0.932044 0.793258 -1.39481 
0.793258 4.26848 3.02354 
-1.39481 3.02354 12.7697 
6.26762 1.69818 1.31353 
1.69818 16.4673 -6.28741 
1.31353 -6.28741 -6.62872 
5.72316 -3.05408 -1.81476 
-3.05408 17.33 -6.42526 
-1.81476 -6.42526 -6.94696 
8.18034 -0.0652043 -0.343558 
-0.0652043 0.719359 -10.7259 
-0.343558 -10.7259 7.20646 
10.2267 0.00918951 0.057983 
0.00918951 10.2735 0.018005 
0.057983 0.018005 10.3886 
10.3554 -0.033663 0.0537976 
-0.033663 10.3449 0.0177765 
0.0537976 0.0177765 10.1885 
10.2882 -0.0215874 0.0116025 
-0.0215874 10.2453 -0.0117631 
0.0116025 -0.0117631 10.3553 
10.3262 -0.0386503 -0.0088323 
-0.0386503 10.2441 0.0502726 
-0.0088323 0.0502726 10.3185 
9.97149 -0.00140159 -0.253218 
-0.00140159 9.97874 -0.0829858 
-0.253218 -0.0829858 9.99098 
9.97029 0.000890093 -0.261634 
0.000890093 9.97874 -0.0792009 
-0.261634 -0.0792009 9.99218 
9.96973 -3.47537e-05 -0.256812 
-3.47537e-05 9.97455 -0.0714364 
-0.256812 -0.0714364 9.99694 
9.97753 -0.00236294 -0.252801 
-0.00236294 9.9853 -0.0775697 
-0.252801 -0.0775697 9.97839 
9.06653 -0.955737 -0.682275 
-0.955737 9.13041 -3.3237 
-0.682275 -3.3237 7.88648 
8.29875 -1.14789 -0.74624 
-1.14789 8.21891 -1.81531 
-0.74624 -1.81531 9.56577 
10.1213 -1.36644 -0.934475 
-1.36644 8.8129 -0.872376 
-0.934475 -0.872376 7.14924 
9.58879 -1.27317 -0.891658 
-1.27317 8.39291 -1.89819 
-0.891658 -1.89819 8.10173 
9.99982 -0.00621451 -0.049477 
-0.00621451 9.73348 0.0156018 
-0.049477 0.0156018 9.80321 
9.78014 -0.010911 -0.064208 
-0.010911 9.86453 -0.00363271 
-0.064208 -0.00363271 9.89184 
9.6242 -0.0955359 -0.00606033 
-0.0955359 9.91722 -0.00645126 
-0.00606033 -0.00645126 9.99509 
9.73709 0.0819002 -0.0922018 
0.0819002 9.86256 -0.0324065 
-0.0922018 -0.0324065 9.93685 
12.1831 0.738947 1.65485 
0.738947 13.9284 -0.70292 
1.65485 -0.70292 17.0433 
11.2352 0.54223 1.82519 
0.54223 14.8759 -0.280531 
1.82519 -0.280531 17.0438 
11.1819 0.709732 0.577997 
0.709732 12.7354 0.615482 
0.577997 0.615482 19.2375 
14.4905 1.57717 -0.205406 
1.57717 13.1609 3.24818 
-0.205406 3.24818 15.5034 
9.98042 0.00420919 0.114221 
0.00420919 9.97931 0.224608 
0.114221 0.224608 9.99177 
9.98433 -0.00634272 0.122022 
-0.00634272 9.97427 0.220615 
0.122022 0.220615 9.9929 
9.98595 -0.00676419 0.118275 
-0.00676419 9.98267 0.219457 
0.118275 0.219457 9.98287 
9.97728 -0.00551467 0.123433 
-0.00551467 9.97761 0.229568 
0.123433 0.229568 9.9966 
9.96526 0.00461435 -0.263827 
0.00461435 9.97809 0.0155065 
-0.263827 0.0155065 10.0155 
9.97868 -0.00133865 -0.26216 
-0.00133865 9.99669 0.0254067 
-0.26216 0.0254067 9.98346 
10.0014 -0.000706607 -0.267543 
-0.000706607 9.99014 0.0391286 
-0.267543 0.0391286 9.96727 
9.98875 -0.00471854 -0.25541 
-0.00471854 9.99644 0.0215608 
-0.25541 0.0215608 9.97363 
9.98041 0.00486535 -0.160531 
0.00486535 9.97901 0.20298 
-0.160531 0.20298 9.99363 
9.98592 0.00676486 -0.16364 
0.00676486 9.98466 0.197136 
-0.16364 0.197136 9.98247 
9.97944 0.00235604 -0.168002 
0.00235604 9.98303 0.196719 
-0.168002 0.196719 9.99058 
9.98013 0.00480902 -0.170118 
0.00480902 9.97686 0.206173 
-0.170118 0.206173 9.99606 
9.97829 0.00448782 0.165212 
0.00448782 9.98081 -0.201246 
0.165212 -0.201246 9.9956 
9.98291 0.00225886 0.157063 
0.00225886 9.98133 -0.198241 
0.157063 -0.198241 9.99046 
9.97868 0.00409245 0.164815 
0.00409245 9.97959 -0.19206 
0.164815 -0.19206 9.99643 
9.98601 0.00579236 0.158331 
0.00579236 9.98559 -0.19441 
0.158331 -0.19441 9.98309 
10.3963 -0.245625 1.26011 
-0.245625 12.4108 -0.208084 
1.26011 -0.208084 14.5967 
12.0942 1.13148 1.16158 
1.13148 13.9357 -0.0134529 
1.16158 -0.0134529 11.3739 
9.94439 -0.452433 -1.01077 
-0.452433 10.6653 -0.364385 
-1.01077 -0.364385 16.794 
10.2601 -0.156801 0.356765 
-0.156801 13.7841 2.9672 
0.356765 2.9672 13.3595 
10.0211 -0.000545882 0.00172979 
-0.000545882 10.0067 0.0100214 
0.00172979 0.0100214 10.005 
10.002 0.0113112 0.000862027 
0.0113112 10.0186 0.00214741 
0.000862027 0.00214741 10.0122 
10.0128 -0.00603115 -0.000189129 
-0.00603115 10.0041 -0.000354645 
-0.000189129 -0.000354645 10.0159 
10.0197 0.00354846 0.00457861 
0.00354846 10.0073 0.0037757 
0.00457861 0.0037757 10.0058 
10.0011 -0.0135283 -0.00336058 
-0.0135283 9.98422 -0.00586304 
-0.00336058 -0.00586304 9.99594 
9.99495 0.00772988 -0.000750013 
0.00772988 9.99703 -0.00141148 
-0.000750013 -0.00141148 9.98923 
10.0017 0.00160915 -0.00522504 
0.00160915 9.98253 -0.00854026 
-0.00522504 -0.00854026 9.99702 
9.99518 0.00904585 -0.0119823 
0.00904585 9.98293 -0.00821466 
-0.0119823 -0.00821466 10.0031 
9.99529 0.00491556 0.229182 
0.00491556 10.0069 0.0350656 
0.229182 0.0350656 9.96728 
9.98684 -0.00084238 0.235555 
-0.00084238 9.98178 0.0333392 
0.235555 0.0333392 10.0009 
9.97678 -0.00925102 0.216875 
-0.00925102 9.9837 0.0370922 
0.216875 0.0370922 10.009 
9.97926 0.000792044 0.23681 
0.000792044 10.0125 0.051312 
0.23681 0.051312 9.9777 
9.97645 -0.00370856 0.110263 
-0.00370856 9.97382 0.218148 
0.110263 0.218148 9.99478 
9.99116 -0.00566942 0.113342 
-0.00566942 9.97511 0.206837 
0.113342 0.206837 9.97879 
9.96842 -0.00399399 0.103338 
-0.00399399 9.97844 0.204767 
0.103338 0.204767 9.99819 
9.98784 -0.0118856 0.119523 
-0.0118856 9.98014 0.204695 
0.119523 0.204695 9.97708 
10.4794 -0.0876255 0.0293897 
-0.0876255 10.5779 -0.0634965 
0.0293897 -0.0634965 10.3715 
10.5441 -0.0624104 0.0310856 
-0.0624104 10.4654 -0.0777183 
0.0310856 -0.0777183 10.4193 
10.4626 0.0527634 -0.0606269 
0.0527634 10.2201 0.0077789 
-0.0606269 0.0077789 10.7461 
10.4399 0.0205917 0.0631612 
0.0205917 10.5618 -0.159288 
0.0631612 -0.159288 10.4271 
9.97315 0.000797437 -0.073329 
0.000797437 9.97334 0.255973 
-0.073329 0.255973 9.99868 
9.98439 0.00509471 -0.0830629 
0.00509471 9.98257 0.252304 
-0.0830629 0.252304 9.97822 
9.98328 0.00375651 -0.0846336 
0.00375651 9.97071 0.252487 
-0.0846336 0.252487 9.99118 
9.97782 0.00438732 -0.0831657 
0.00438732 9.97618 0.259901 
-0.0831657 0.259901 9.99118 
9.98549 0.00333233 0.00456141 
0.00333233 9.98667 0.000456956 
0.00456141 0.000456956 9.97794 
9.9851 -0.00291698 0.000791225 
-0.00291698 9.98 -0.000549484 
0.000791225 -0.000549484 9.985 
9.97937 -0.00177711 -0.00285831 
-0.00177711 9.97973 0.00257232 
-0.00285831 0.00257232 9.991 
9.98737 -1.41934e-05 -0.000779253 
-1.41934e-05 9.98315 -0.000264997 
-0.000779253 -0.000264997 9.97959 
9.96335 -0.00454133 -0.00024334 
-0.00454133 9.99612 2.32225e-05 
-0.00024334 2.32225e-05 9.98939 
9.9876 0.00899146 0.0101009 
0.00899146 9.97127 0.00273015 
0.0101009 0.00273015 9.98998 
9.97474 0.00989633 0.0093958 
0.00989633 9.99872 -0.0021256 
0.0093958 -0.0021256 9.97538 
9.976 0.0137492 0.00932849 
0.0137492 9.99434 0.00272575 
0.00932849 0.00272575 9.97852 
9.98042 0.00330087 7.53236e-05 
0.00330087 10.0083 0.0106096 
7.53236e-05 0.0106096 9.96891 
9.96766 -0.00213816 0.00435075 
-0.00213816 9.99371 0.00137266 
0.00435075 0.00137266 9.99624 
9.99217 0.00723579 -0.0120676 
0.00723579 9.97025 -0.00325496 
-0.0120676 -0.00325496 9.9952 
9.98092 0.019419 -0.0101111 
0.019419 10.0018 -0.00336992 
-0.0101111 -0.00336992 9.97492 
9.97669 -0.00898074 0.21516 
-0.00898074 9.99675 0.123799 
0.21516 0.123799 10.0005 
9.99868 0.000507114 0.222054 
0.000507114 9.9955 0.117865 
0.222054 0.117865 9.97972 
9.99899 -0.00691174 0.213588 
-0.00691174 9.99464 0.118014 
0.213588 0.118014 9.98027 
9.99209 0.000951268 0.219503 
0.000951268 9.99309 0.114514 
0.219503 0.114514 9.98872 
9.9807 -0.00591021 0.247651 
-0.00591021 9.97962 0.0795199 
0.247651 0.0795199 9.99129 
9.97066 -0.00351842 0.241022 
-0.00351842 9.9842 0.0820265 
0.241022 0.0820265 9.99675 
9.98432 -0.00412861 0.24181 
-0.00412861 9.98619 0.0775303 
0.24181 0.0775303 9.98112 
9.98046 0.00239875 0.244033 
0.00239875 9.97772 0.0714476 
0.244033 0.0714476 9.99344 
9.97193 -0.00843774 -0.225648 
-0.00843774 9.98858 -0.132129 
-0.225648 -0.132129 9.9985 
9.99192 -0.00235082 -0.230979 
-0.00235082 9.98921 -0.126862 
-0.230979 -0.126862 9.97787 
9.99132 -0.00746407 -0.230602 
-0.00746407 9.9835 -0.128842 
-0.230602 -0.128842 9.98419 
9.98435 -9.6045e-05 -0.231346 
-9.6045e-05 9.98451 -0.120659 
-0.231346 -0.120659 9.99014 
9.89229 -0.0032999 0.0456004 
-0.0032999 9.89074 0.121242 
0.0456004 0.121242 9.81412 
9.81554 0.0206234 0.062313 
0.0206234 9.74362 0.0351341 
0.062313 0.0351341 10.038 
9.87347 0.0183612 -0.00949003 
0.0183612 9.80949 0.0953617 
-0.00949003 0.0953617 9.91419 
9.86351 0.0124434 -0.0207111 
0.0124434 9.79677 0.126994 
-0.0207111 0.126994 9.93688 
9.97536 0.00100678 0.256278 
0.00100678 9.99975 0.0262661 
0.256278 0.0262661 9.98407 
9.98799 0.00292689 0.251246 
0.00292689 9.99454 0.0254045 
0.251246 0.0254045 9.97666 
9.97344 -0.000815153 0.257377 
-0.000815153 9.97521 0.0190969 
0.257377 0.0190969 10.0105 
9.99692 -0.00186168 0.260418 
-0.00186168 9.99133 0.038335 
0.260418 0.038335 9.97094 
9.9778 0.00243315 0.146111 
0.00243315 9.97637 -0.190773 
0.146111 -0.190773 10.0011 
9.98881 0.00132804 0.156367 
0.00132804 9.98591 -0.198727 
0.156367 -0.198727 9.98054 
9.98273 -0.0028637 0.153062 
-0.0028637 9.98687 -0.202743 
0.153062 -0.202743 9.98566 
9.99042 0.00636842 0.161288 
0.00636842 9.98684 -0.202842 
0.161288 -0.202842 9.97799 
10.2016 0.202619 -0.111136 
0.202619 10.4568 0.0193973 
-0.111136 0.0193973 10.4153 
10.4639 0.0525248 -0.0293257 
0.0525248 10.3334 0.029932 
-0.0293257 0.029932 10.2763 
10.2629 -0.00715768 -0.0425958 
-0.00715768 10.3768 0.0202228 
-0.0425958 0.0202228 10.434 
10.3114 0.0812347 -0.110623 
0.0812347 10.3882 -0.0141835 
-0.110623 -0.0141835 10.3741 
9.91956 -0.0360379 0.0305867 
-0.0360379 9.93808 0.0221475 
0.0305867 0.0221475 9.98945 
9.9337 -0.0464919 0.0148526 
-0.0464919 9.90336 0.0476345 
0.0148526 0.0476345 10.01 
9.98661 -0.0546115 0.0113574 
-0.0546115 9.87597 0.0135199 
0.0113574 0.0135199 9.9845 
9.90106 -0.0435342 0.0149777 
-0.0435342 9.95167 0.0125169 
0.0149777 0.0125169 9.99436 
10.0114 -0.00213494 -0.00446145 
-0.00213494 10.0204 0.00389333 
-0.00446145 0.00389333 10.013 
10.0097 0.00455817 -0.00299901 
0.00455817 10.0188 0.00167897 
-0.00299901 0.00167897 10.0164 
10.0223 -0.00858569 -0.000124467 
-0.00858569 10.0122 1.10504e-05 
-0.000124467 1.10504e-05 10.0104 
10.01 -0.00182988 -0.00798697 
-0.00182988 10.0212 0.00374829 
-0.00798697 0.00374829 10.0137 
9.99384 -0.00259088 -0.0259504 
-0.00259088 9.98742 0.254436 
-0.0259504 0.254436 9.97683 
9.97398 0.0020217 -0.0181096 
0.0020217 9.96817 0.259552 
-0.0181096 0.259552 10.0159 
9.99882 -0.00126043 -0.0259516 
-0.00126043 9.97741 0.258181 
-0.0259516 0.258181 9.98184 
9.99147 0.00170388 -0.040078 
0.00170388 9.99704 0.262615 
-0.040078 0.262615 9.96956 
9.96873 0.00709531 0.226146 
0.00709531 9.97948 -0.128727 
0.226146 -0.128727 9.99452 
9.98018 0.00887894 0.223617 
0.00887894 9.98273 -0.122027 
0.223617 -0.122027 9.97982 
9.97478 -0.000760241 0.231368 
-0.000760241 9.97703 -0.118593 
0.231368 -0.118593 9.99092 
9.97512 0.00755339 0.235827 
0.00755339 9.96996 -0.129498 
0.235827 -0.129498 9.99766 
10.011 -0.00826894 -0.0018128 
-0.00826894 10.0066 0.00131305 
-0.0018128 0.00131305 10.0092 
10.0063 0.00412488 -0.000621535 
0.00412488 10.0109 0.000579409 
-0.000621535 0.000579409 10.0096 
10.0074 0.00410264 -0.00450077 
0.00410264 10.0161 -0.000805269 
-0.00450077 -0.000805269 10.0033 
10.0063 -0.000121282 -0.00104183 
-0.000121282 10.0181 0.00525514 
-0.00104183 0.00525514 10.0024 
10.0016 -0.00674977 -0.000935044 
-0.00674977 9.99859 0.00406569 
-0.000935044 0.00406569 9.98973 
9.99148 0.00183928 0.00239394 
0.00183928 9.99679 0.00315174 
0.00239394 0.00315174 10.0016 
9.99403 0.00436712 -0.00294885 
0.00436712 9.98703 -0.00306949 
-0.00294885 -0.00306949 10.0089 
10.002 -0.0027405 0.0053166 
-0.0027405 10.0023 -0.00308634 
0.0053166 -0.00308634 9.98557 
9.98662 0.00898175 -0.000726608 
0.00898175 9.99086 -0.000927918 
-0.000726608 -0.000927918 9.9813 
9.98438 -0.00221306 0.00102606 
-0.00221306 9.98026 0.00102947 
0.00102606 0.00102947 9.99414 
9.9928 -0.00252184 0.00012173 
-0.00252184 9.98513 -0.00512054 
0.00012173 -0.00512054 9.98085 
9.9954 0.00160962 -0.00471923 
0.00160962 9.98119 -0.00353121 
-0.00471923 -0.00353121 9.98218 
8.52616 -0.44437 -0.953865 
-0.44437 10.1986 -0.326895 
-0.953865 -0.326895 9.58901 
9.14805 -0.522107 -0.3498 
-0.522107 9.74209 -0.266305 
-0.3498 -0.266305 9.42359 
8.4176 -0.240842 -0.800608 
-0.240842 10.1181 -0.45402 
-0.800608 -0.45402 9.77799 
9.02004 0.0172065 -0.836478 
0.0172065 9.77444 0.155506 
-0.836478 0.155506 9.51926 
2.35126 -0.362189 0.360696 
-0.362189 3.76655 -0.0487376 
0.360696 -0.0487376 0.448469 
0.861851 0.32129 0.0132751 
0.32129 2.4449 -0.125635 
0.0132751 -0.125635 3.25952 
5.35037 0.0999927 -0.122883 
0.0999927 7.48595 -3.18181 
-0.122883 -3.18181 -6.27005 
-0.125678 0.193893 -0.0418642 
0.193893 5.63761 3.60617 
-0.0418642 3.60617 1.05434 
4.99958 0.609089 -1.48121 
0.609089 0.881996 1.07976 
-1.48121 1.07976 4.18475 
7.2903 0.855697 1.87275 
0.855697 5.27238 0.345213 
1.87275 0.345213 -2.49635 
3.13844 0.79177 -1.41762 
0.79177 5.28342 0.437677 
-1.41762 0.437677 1.64446 
8.43698 0.169555 -2.80952 
0.169555 1.48257 0.210621 
-2.80952 0.210621 0.146774 
9.81693 0.0149048 -0.00625729 
0.0149048 9.8152 0.107504 
-0.00625729 0.107504 9.85229 
9.84847 0.0162905 -0.0153635 
0.0162905 9.7596 0.0881704 
-0.0153635 0.0881704 9.87636 
9.88135 0.0134036 -0.0380853 
0.0134036 9.74806 0.129071 
-0.0380853 0.129071 9.85501 
9.80804 0.037377 -0.0285552 
0.037377 9.80614 0.0883222 
-0.0285552 0.0883222 9.87023 
9.99203 0.00104468 0.0704576 
0.00104468 9.99333 0.244703 
0.0704576 0.244703 9.97658 
9.98271 -0.0020942 0.0816046 
-0.0020942 9.97845 0.237824 
0.0816046 0.237824 10.0008 
9.9965 -7.05694e-06 0.0707337 
-7.05694e-06 9.98727 0.238886 
0.0707337 0.238886 9.97818 
9.99162 -0.00609968 0.0692681 
-0.00609968 9.98154 0.241351 
0.0692681 0.241351 9.98878 
9.98567 -0.00124769 0.00252029 
-0.00124769 9.97694 -0.00793713 
0.00252029 -0.00793713 9.96665 
9.96855 -0.00720023 0.00322501 
-0.00720023 9.98488 -0.0111198 
0.00322501 -0.0111198 9.97583 
9.97027 -0.00803067 -0.00236928 
-0.00803067 9.95318 0.00576799 
-0.00236928 0.00576799 10.0058 
10.0007 -0.00654662 -0.00674988 
-0.00654662 9.96875 -0.0154348 
-0.00674988 -0.0154348 9.9598 
9.99318 0.00152169 0.0399836 
0.00152169 9.99575 -0.262749 
0.0399836 -0.262749 9.97072 
9.99849 -0.00153005 0.0278632 
-0.00153005 9.97809 -0.259175 
0.0278632 -0.259175 9.98308 
9.97528 0.000583447 0.0191008 
0.000583447 9.97072 -0.260561 
0.0191008 -0.260561 10.0137 
9.99398 -0.00119198 0.0275496 
-0.00119198 9.98737 -0.257395 
0.0275496 -0.257395 9.97831 
13.2199 -0.932756 -0.154327 
-0.932756 13.3022 0.759055 
-0.154327 0.759055 11.3822 
10.5499 -0.853342 1.36407 
-0.853342 10.7338 1.14564 
1.36407 1.14564 16.6206 
12.0133 -0.788705 0.290269 
-0.788705 12.0995 0.490489 
0.290269 0.490489 13.7916 
11.5508 -1.971 -1.05487 
-1.971 12.1084 -1.29172 
-1.05487 -1.29172 14.2452 
9.99883 -0.00233663 -0.195374 
-0.00233663 9.99456 0.164601 
-0.195374 0.164601 9.97748 
9.99681 0.00407676 -0.189428 
0.00407676 9.99618 0.157669 
-0.189428 0.157669 9.97788 
9.9888 0.00623667 -0.197146 
0.00623667 9.98635 0.155711 
-0.197146 0.155711 9.99572 
9.98581 0.00759129 -0.189694 
0.00759129 9.99035 0.164804 
-0.189694 0.164804 9.99472 
9.97422 -0.00658898 -0.129485 
-0.00658898 9.97983 -0.235002 
-0.129485 -0.235002 9.99518 
9.98524 -0.0055158 -0.124119 
-0.0055158 9.98197 -0.226619 
-0.124119 -0.226619 9.98201 
9.97813 -0.00453747 -0.129729 
-0.00453747 9.9764 -0.226139 
-0.129729 -0.226139 9.99469 
9.97985 -0.000939463 -0.120896 
-0.000939463 9.97866 -0.230728 
-0.120896 -0.230728 9.99072 
9.99362 -0.00192357 -0.267227 
-0.00192357 9.99083 -0.0365825 
-0.267227 -0.0365825 9.97485 
9.98711 -0.000516667 -0.262682 
-0.000516667 9.9917 -0.0293766 
-0.262682 -0.0293766 9.9805 
9.97339 0.00312418 -0.263542 
0.00312418 9.99908 -0.0293998 
-0.263542 -0.0293998 9.98684 
9.97719 0.000737303 -0.264531 
0.000737303 9.97541 -0.0216863 
-0.264531 -0.0216863 10.0067 
10.5477 -0.154196 0.0369286 
-0.154196 9.93794 0.00233002 
0.0369286 0.00233002 10.1821 
10.0246 0.0554882 0.0172769 
0.0554882 10.2082 0.017981 
0.0172769 0.017981 10.4349 
10.2282 0.30955 -0.0456516 
0.30955 10.0579 0.112087 
-0.0456516 0.112087 10.3816 
10.3067 0.0885764 -0.0508237 
0.0885764 10.1114 -0.029993 
-0.0508237 -0.029993 10.2496 
9.80515 0.247505 0.762917 
0.247505 9.74212 0.754051 
0.762917 0.754051 9.37975 
10.113 -1.07431 -2.25876 
-1.07431 11.7536 -0.608498 
-2.25876 -0.608498 7.06035 
10.3137 -0.909798 -1.05367 
-0.909798 10.1886 -1.63914 
-1.05367 -1.63914 8.42474 
9.41015 -0.525141 -1.34643 
-0.525141 10.4126 -1.65171 
-1.34643 -1.65171 9.10432 
9.98815 0.00167321 0.1949 
0.00167321 9.99128 -0.154625 
0.1949 -0.154625 9.98947 
9.99896 0.006821 0.189656 
0.006821 9.98925 -0.159936 
0.189656 -0.159936 9.9807 
9.98208 0.0109537 0.188065 
0.0109537 9.99137 -0.163469 
0.188065 -0.163469 9.99546 
9.99573 0.00139472 0.194641 
0.00139472 9.99504 -0.159982 
0.194641 -0.159982 9.97814 
9.99487 -0.00410263 0.155971 
-0.00410263 9.99337 0.189392 
0.155971 0.189392 9.97682 
9.98404 -0.0080633 0.152623 
-0.0080633 9.98581 0.196179 
0.152623 0.196179 9.9952 
9.99407 0.00235309 0.160999 
0.00235309 9.99603 0.195317 
0.160999 0.195317 9.97495 
9.98835 -0.00708354 0.163138 
-0.00708354 9.98222 0.187522 
0.163138 0.187522 9.99449 
9.96723 0.0038613 -0.00534023 
0.0038613 9.93706 -0.00382062 
-0.00534023 -0.00382062 9.96958 
9.97028 0.00671546 0.00503888 
0.00671546 9.94033 0.00654531 
0.00503888 0.00654531 9.96326 
9.9624 0.00844095 -0.00230234 
0.00844095 9.94581 0.00113612 
-0.00230234 0.00113612 9.96567 
9.96958 0.00335994 -0.00203448 
0.00335994 9.94263 0.000393821 
-0.00203448 0.000393821 9.96167 
9.96817 0.0038965 -0.248963 
0.0038965 9.98568 0.0879885 
-0.248963 0.0879885 10.0016 
9.993 -7.56255e-05 -0.25639 
-7.56255e-05 9.98896 0.0775672 
-0.25639 0.0775672 9.97353 
9.98024 0.00473168 -0.252896 
0.00473168 9.98582 0.0738137 
-0.252896 0.0738137 9.98942 
9.98766 0.00484633 -0.251176 
0.00484633 9.99015 0.079286 
-0.251176 0.079286 9.97768 
3.09123 -0.377844 0.0315698 
-0.377844 3.49725 1.62571 
0.0315698 1.62571 2.16908 
1.32982 -0.272269 0.283294 
-0.272269 4.18271 1.66814 
0.283294 1.66814 3.24503 
4.28374 -0.816493 0.182507 
-0.816493 5.75387 -0.809521 
0.182507 -0.809521 -1.28005 
1.42614 -0.116886 0.34159 
-0.116886 6.54461 2.74173 
0.34159 2.74173 0.78682 
10.0042 0.00158896 0.00552264 
0.00158896 10.0145 -0.000678955 
0.00552264 -0.000678955 10.0033 
10.0115 -0.00681339 0.001956 
-0.00681339 10.0001 -0.000778904 
0.001956 -0.000778904 10.0104 
10.004 0.00702775 -0.000567924 
0.00702775 10.0103 0.000164169 
-0.000567924 0.000164169 10.0077 
10.0056 -0.00121298 0.00134892 
-0.00121298 10.0138 -0.00390063 
0.00134892 -0.00390063 10.0026 
9.98926 0.00440202 -0.12515 
0.00440202 9.98095 0.220111 
-0.12515 0.220111 9.99639 
9.9944 -0.00100035 -0.119513 
-0.00100035 9.99481 0.227354 
-0.119513 0.227354 9.97739 
9.99566 0.00335471 -0.117871 
0.00335471 9.99068 0.222781 
-0.117871 0.222781 9.98027 
9.98913 0.00754435 -0.11395 
0.00754435 9.98457 0.226025 
-0.11395 0.226025 9.99291 
9.98808 0.00586631 -0.00316358 
0.00586631 10.003 -0.0132019 
-0.00316358 -0.0132019 9.96094 
9.97418 0.00439926 -0.00769001 
0.00439926 9.99292 -0.000844117 
-0.00769001 -0.000844117 9.98495 
9.98131 0.0147727 -0.00413098 
0.0147727 9.971 -1.24654e-05 
-0.00413098 -1.24654e-05 9.99973 
9.97632 0.00389466 -0.0125791 
0.00389466 9.99939 0.00609954 
-0.0125791 0.00609954 9.97634 
9.98539 -1.9005e-05 0.0224963 
-1.9005e-05 10.0141 -0.00799849 
0.0224963 -0.00799849 9.9858 
9.98511 0.0230414 0.0016278 
0.0230414 9.94855 -0.0011811 
0.0016278 -0.0011811 10.0516 
9.97693 0.00692851 0.00740931 
0.00692851 10.0219 0.00115224 
0.00740931 0.00115224 9.98639 
9.99373 -0.0267037 -0.00155366 
-0.0267037 10.0198 0.0194379 
-0.00155366 0.0194379 9.97173 
9.99487 0.00221781 0.262935 
0.00221781 9.99084 -0.0395506 
0.262935 -0.0395506 9.9731 
9.97256 0.000806338 0.260133 
0.000806338 9.97522 -0.0204472 
0.260133 -0.0204472 10.011 
9.97463 -0.00324469 0.258816 
-0.00324469 9.99869 -0.0295093 
0.258816 -0.0295093 9.98549 
9.98761 0.00322281 0.258493 
0.00322281 9.99109 -0.0308898 
0.258493 -0.0308898 9.98012 
9.96542 -0.0153045 0.0271635 
-0.0153045 9.96547 -0.006976 
0.0271635 -0.006976 9.97042 
9.96975 -0.00632062 0.00593888 
-0.00632062 9.97142 -0.000721143 
0.00593888 -0.000721143 9.96014 
9.94992 -0.0149207 0.0103237 
-0.0149207 9.95229 -0.000341466 
0.0103237 -0.000341466 9.9991 
9.96547 -0.0326919 0.0216707 
-0.0326919 9.97764 -0.00728322 
0.0216707 -0.00728322 9.95819 
9.95343 0.00856147 -0.00174881 
0.00856147 9.94025 -0.0289553 
-0.00174881 -0.0289553 9.9335 
9.94834 -0.0013981 -0.000703217 
-0.0013981 9.94011 -0.00577901 
-0.000703217 -0.00577901 9.93873 
9.90547 0.0210425 0.001018 
0.0210425 9.93267 -0.00179081 
0.001018 -0.00179081 9.98904 
9.96493 0.0179427 -0.0165208 
0.0179427 9.94566 -0.0110678 
-0.0165208 -0.0110678 9.9166 
9.99352 8.28771e-05 0.123689 
8.28771e-05 9.99784 -0.227089 
0.123689 -0.227089 9.97322 
9.99233 0.00739515 0.128426 
0.00739515 9.97725 -0.219587 
0.128426 -0.219587 9.995 
9.98665 0.00564722 0.114347 
0.00564722 9.98406 -0.226981 
0.114347 -0.226981 9.99387 
9.99443 0.00564209 0.121669 
0.00564209 9.99382 -0.221519 
0.121669 -0.221519 9.97633 
4.50406 -0.0319053 0.24952 
-0.0319053 3.04258 -0.959069 
0.24952 -0.959069 3.12329 
7.26454 -0.126865 1.64281 
-0.126865 5.62497 0.0202572 
1.64281 0.0202572 -2.21958 
3.1469 0.479475 0.43999 
0.479475 4.38908 -0.584316 
0.43999 -0.584316 3.13395 
4.86949 0.199971 -1.65263 
0.199971 2.06809 -1.08001 
-1.65263 -1.08001 3.73235 
9.97304 -0.00424116 -0.133781 
-0.00424116 9.97384 -0.195047 
-0.133781 -0.195047 9.99091 
9.98074 -0.00382988 -0.128528 
-0.00382988 9.97469 -0.201545 
-0.128528 -0.201545 9.98237 
9.96307 -0.00592437 -0.140609 
-0.00592437 9.96648 -0.207202 
-0.140609 -0.207202 10.0082 
9.98103 -0.0104612 -0.123693 
-0.0104612 9.97936 -0.194433 
-0.123693 -0.194433 9.97739 
9.97569 -0.00294899 -0.00160042 
-0.00294899 9.97783 0.00205323 
-0.00160042 0.00205323 9.9774 
9.97789 0.000609584 -0.000237961 
0.000609584 9.9705 0.00048339 
-0.000237961 0.00048339 9.98253 
9.98524 0.00109129 -0.00550551 
0.00109129 9.97338 0.00159414 
-0.00550551 0.00159414 9.97231 
9.98195 0.00140774 -0.00519873 
0.00140774 9.97318 0.00621496 
-0.00519873 0.00621496 9.97581 
10.0001 0.00107289 -0.00834957 
0.00107289 10.0238 0.0199247 
-0.00834957 0.0199247 9.96949 
9.99628 -0.0316788 -0.00545035 
-0.0316788 9.94688 -0.000952194 
-0.00545035 -0.000952194 10.0502 
9.98581 -0.00551147 -0.0138136 
-0.00551147 10.0159 0.00167509 
-0.0138136 0.00167509 9.99156 
9.99067 -0.00616874 -0.0256888 
-0.00616874 10.0172 -0.00223495 
-0.0256888 -0.00223495 9.9854 
10.0215 0.000665373 0.00698479 
0.000665373 10.0124 0.00469214 
0.00698479 0.00469214 9.99931 
10.0027 0.00327101 -0.000889215 
0.00327101 9.98881 -0.00352595 
-0.000889215 -0.00352595 10.0416 
10.0091 0.000564272 0.000415269 
0.000564272 10.0171 0.00392526 
0.000415269 0.00392526 10.0069 
10.0248 0.00666163 -0.00425474 
0.00666163 10.0092 0.0167736 
-0.00425474 0.0167736 9.99906 
9.98614 0.00468332 0.247532 
0.00468332 9.98903 -0.0787331 
0.247532 -0.0787331 9.9862 
9.98426 0.00230489 0.245609 
0.00230489 9.98719 -0.0732767 
0.245609 -0.0732767 9.98991 
9.99063 0.00187284 0.24699 
0.00187284 9.99122 -0.0761718 
0.24699 -0.0761718 9.97951 
9.97311 0.00339798 0.242458 
0.00339798 9.98797 -0.0847812 
0.242458 -0.0847812 10.0003 
5.04314 0.23519 1.5464 
0.23519 3.70051 -0.100829 
1.5464 -0.100829 1.50334 
7.00316 0.157834 -1.10397 
0.157834 5.06738 -0.169452 
-1.10397 -0.169452 -1.82356 
3.65365 0.603385 1.96383 
0.603385 2.37006 -0.286261 
1.96383 -0.286261 4.22327 
7.17408 -0.0672189 3.26084 
-0.0672189 1.96306 -1.60629 
3.26084 -1.60629 1.10983 
9.98155 -0.00351598 -0.203732 
-0.00351598 9.98813 -0.164863 
-0.203732 -0.164863 9.99177 
9.985 -0.00260108 -0.195912 
-0.00260108 9.98317 -0.165833 
-0.195912 -0.165833 9.99328 
9.9883 -0.00414103 -0.198232 
-0.00414103 9.98914 -0.162671 
-0.198232 -0.162671 9.98401 
9.98346 -0.00338218 -0.201726 
-0.00338218 9.98527 -0.158755 
-0.201726 -0.158755 9.99272 
9.99037 -0.00165108 -0.0389028 
-0.00165108 9.99161 -0.266265 
-0.0389028 -0.266265 9.96805 
9.99516 0.00367289 -0.027465 
0.00367289 9.97313 -0.262423 
-0.027465 -0.262423 9.98175 
9.98825 0.00175023 -0.0276922 
0.00175023 9.98303 -0.26317 
-0.0276922 -0.26317 9.97876 
9.96934 -0.000200067 -0.0180122 
-0.000200067 9.96519 -0.263888 
-0.0180122 -0.263888 10.0155 
10.0244 0.0257056 0.0080038 
0.0257056 10.0155 0.00773999 
0.0080038 0.00773999 10.0017 
10.023 0.00465923 -8.96394e-05 
0.00465923 10.0136 0.00329984 
-8.96394e-05 0.00329984 10.005 
9.99246 0.000363872 -0.00152922 
0.000363872 10.0019 0.00858722 
-0.00152922 0.00858722 10.0472 
10.0253 0.00604254 -0.00687694 
0.00604254 10.0129 -0.0059958 
-0.00687694 -0.0059958 10.0034 
8.44635 -0.0181076 -2.05955 
-0.0181076 10.4698 -0.397868 
-2.05955 -0.397868 9.2899 
9.29663 -0.293255 -2.23474 
-0.293255 10.4714 -0.561377 
-2.23474 -0.561377 8.43801 
10.2978 -0.587935 -0.029034 
-0.587935 8.93492 0.60723 
-0.029034 0.60723 8.97334 
8.632 -0.366804 -2.03202 
-0.366804 10.2585 -0.672797 
-2.03202 -0.672797 9.31555 
9.9908 -0.00169031 0.0285368 
-0.00169031 9.98719 0.265064 
0.0285368 0.265064 9.98071 
9.99213 -0.00168543 0.0366005 
-0.00168543 9.99378 0.267757 
0.0366005 0.267757 9.97279 
9.99586 0.00358952 0.0288981 
0.00358952 9.97748 0.264057 
0.0288981 0.264057 9.98537 
9.97634 -0.000201797 0.0177077 
-0.000201797 9.97215 0.26562 
0.0177077 0.26562 10.0102 
10.9173 -0.144497 0.254921 
-0.144497 10.8239 0.394041 
0.254921 0.394041 10.882 
9.94721 -0.21618 -0.215371 
-0.21618 9.98532 -0.357564 
-0.215371 -0.357564 12.6906 
11.0636 -0.209604 0.155508 
-0.209604 10.9274 0.480255 
0.155508 0.480255 10.6321 
11.0606 -0.388398 0.811214 
-0.388398 10.5366 0.410327 
0.811214 0.410327 11.026 
2.56888 0.213594 -1.03554 
0.213594 3.6912 0.464706 
-1.03554 0.464706 2.22638 
4.21844 0.206247 -0.225401 
0.206247 5.44851 -0.630302 
-0.225401 -0.630302 -1.18049 
3.25999 -0.0635903 -0.574096 
-0.0635903 3.07779 0.355452 
-0.574096 0.355452 2.14868 
1.68908 0.131288 -1.23272 
0.131288 3.7184 1.51513 
-1.23272 1.51513 3.07897 
4.47057 0.920384 -0.980463 
0.920384 5.81448 1.57495 
-0.980463 1.57495 -1.2878 
3.49621 -0.235459 -1.53893 
-0.235459 3.0331 -0.733401 
-1.53893 -0.733401 2.46794 
2.64042 0.538117 -1.23229 
0.538117 4.12982 -0.611516 
-1.23229 -0.611516 2.22701 
1.95659 0.80078 -1.43413 
0.80078 5.9647 -1.93393 
-1.43413 -1.93393 1.07596 
9.99925 -0.00523492 0.0096362 
-0.00523492 9.96525 0.0304018 
0.0096362 0.0304018 9.95379 
9.92641 -0.026185 0.0019241 
-0.026185 9.96305 -0.00339977 
0.0019241 -0.00339977 10.0288 
9.98867 0.000101377 -0.00103827 
0.000101377 9.96276 0.00729298 
-0.00103827 0.00729298 9.96686 
10.0033 0.00108104 -0.0218228 
0.00108104 9.97942 0.00417876 
-0.0218228 0.00417876 9.93556 
9.98035 -0.00261934 0.00253843 
-0.00261934 9.96314 0.00623582 
0.00253843 0.00623582 9.96438 
9.96608 -0.00346475 0.00133295 
-0.00346475 9.95465 -0.00312611 
0.00133295 -0.00312611 9.98715 
9.96784 -0.00339379 -0.0016675 
-0.00339379 9.97041 0.00567981 
-0.0016675 0.00567981 9.96963 
9.97237 0.00855667 -0.00289751 
0.00855667 9.97182 0.00166198 
-0.00289751 0.00166198 9.96369 
4.06327 -0.0476801 -0.4304 
-0.0476801 3.41992 -0.0648035 
-0.4304 -0.0648035 2.3852 
4.46327 -0.37594 -0.205827 
-0.37594 3.81234 0.791421 
-0.205827 0.791421 1.59279 
5.69186 -0.504881 -1.28625 
-0.504881 4.57605 -0.267057 
-1.28625 -0.267057 -0.399518 
3.78405 0.0752739 0.251782 
0.0752739 2.26419 0.419891 
0.251782 0.419891 3.82015 
1.03297 -0.319013 0.111525 
-0.319013 1.9656 1.15697 
0.111525 1.15697 4.99381 
5.04416 -0.0450972 -0.437128 
-0.0450972 5.40151 1.36219 
-0.437128 1.36219 -2.4533 
4.85038 -0.577405 -0.978068 
-0.577405 3.98317 0.0796128 
-0.978068 0.0796128 -0.841173 
2.87325 0.394209 1.83773 
0.394209 3.31333 -0.752465 
1.83773 -0.752465 1.80579 
9.73462 0.0329128 0.114345 
0.0329128 9.65249 -0.0613368 
0.114345 -0.0613368 10.0729 
9.7635 0.0417014 0.0869568 
0.0417014 9.77426 -0.0065359 
0.0869568 -0.0065359 9.92226 
9.76442 0.0932209 0.0500999 
0.0932209 9.79717 -0.0278236 
0.0500999 -0.0278236 9.89844 
9.93736 0.0700747 0.219782 
0.0700747 9.78819 -0.172742 
0.219782 -0.172742 9.73448 
9.83233 0.098271 0.0181668 
0.098271 9.78889 -0.00772538 
0.0181668 -0.00772538 10.1586 
9.90023 0.16565 -0.24057 
0.16565 9.94129 0.0920313 
-0.24057 0.0920313 9.93831 
9.92364 -0.0203902 0.145034 
-0.0203902 9.79993 -0.125911 
0.145034 -0.125911 10.0563 
9.8622 0.135586 0.0283953 
0.135586 9.79088 0.00895555 
0.0283953 0.00895555 10.1268 
9.91819 0.0635607 -0.0174109 
0.0635607 9.88594 -0.00565288 
-0.0174109 -0.00565288 10.1024 
10.0282 0.0273461 0.0426589 
0.0273461 9.85222 -0.0687644 
0.0426589 -0.0687644 10.0261 
9.96838 0.0592594 -0.0898583 
0.0592594 9.92456 0.0709631 
-0.0898583 0.0709631 10.0136 
9.95115 0.046145 -0.0193349 
0.046145 9.90097 0.0070282 
-0.0193349 0.0070282 10.0544 
9.95714 0.0314151 -0.183386 
0.0314151 9.85966 0.40644 
-0.183386 0.40644 9.923 
9.81085 0.129687 -0.0799233 
0.129687 9.87754 0.170093 
-0.0799233 0.170093 10.0514 
9.92619 0.0150782 0.114281 
0.0150782 9.81589 -0.141303 
0.114281 -0.141303 9.99773 
9.78317 0.227864 -0.17664 
0.227864 9.5931 -0.243145 
-0.17664 -0.243145 10.3635 
9.99054 0.18032 -0.0795951 
0.18032 9.85812 0.19154 
-0.0795951 0.19154 9.85945 
9.84962 -0.0846218 -0.183001 
-0.0846218 9.63911 -0.106764 
-0.183001 -0.106764 10.2194 
9.74389 0.0491071 -0.116263 
0.0491071 9.9315 0.177083 
-0.116263 0.177083 10.0327 
10.1559 -0.0719863 0.162121 
-0.0719863 9.88079 -0.0314075 
0.162121 -0.0314075 9.67141 
9.7596 0.0627704 0.0638159 
0.0627704 9.82101 -0.0704643 
0.0638159 -0.0704643 10.0353 
9.77956 0.105589 0.0686124 
0.105589 9.75481 -0.0605333 
0.0686124 -0.0605333 10.0815 
9.8419 0.00859971 0.029334 
0.00859971 9.74287 -0.0616184 
0.029334 -0.0616184 10.0311 
9.83879 0.00107805 0.0537099 
0.00107805 9.7437 -0.109719 
0.0537099 -0.109719 10.0334 
9.89207 0.0456642 0.00421173 
0.0456642 9.82867 0.00133075 
0.00421173 0.00133075 10.1129 
9.89195 0.0337453 0.0266633 
0.0337453 9.81731 -0.00619393 
0.0266633 -0.00619393 10.1244 
9.8988 0.0303168 0.0109727 
0.0303168 9.84836 -0.0369362 
0.0109727 -0.0369362 10.0865 
9.87608 0.0420806 -0.0604638 
0.0420806 9.844 0.143571 
-0.0604638 0.143571 10.1136 
9.68871 0.0953335 0.145808 
0.0953335 9.74021 -0.113443 
0.145808 -0.113443 9.96238 
9.66839 0.0796458 0.149136 
0.0796458 9.73368 -0.10763 
0.149136 -0.10763 9.98922 
9.67901 0.0621668 0.117075 
0.0621668 9.78148 -0.111835 
0.117075 -0.111835 9.9308 
9.75529 0.0483207 0.226001 
0.0483207 9.75882 -0.0941992 
0.226001 -0.0941992 9.87718 
9.70699 0.0608143 0.161042 
0.0608143 9.78085 -0.132789 
0.161042 -0.132789 9.8842 
9.64159 0.146762 0.133413 
0.146762 9.71806 -0.110154 
0.133413 -0.110154 10.0124 
9.7424 0.0920263 0.134878 
0.0920263 9.74589 -0.155908 
0.134878 -0.155908 9.88375 
9.65614 0.192658 0.219335 
0.192658 9.75005 -0.162328 
0.219335 -0.162328 9.96586 
9.84473 -0.0445399 0.0693041 
-0.0445399 9.77107 -0.0523518 
0.0693041 -0.0523518 9.97228 
9.77974 0.0288547 0.0838092 
0.0288547 9.84575 -0.146752 
0.0838092 -0.146752 9.96259 
9.74536 0.0826331 0.0682807 
0.0826331 9.74718 -0.00681993 
0.0682807 -0.00681993 10.0955 
9.84658 0.141938 0.193416 
0.141938 9.85241 -0.191371 
0.193416 -0.191371 9.88909 
9.83218 0.0795185 0.0522384 
0.0795185 9.82741 -0.0152769 
0.0522384 -0.0152769 10.0256 
9.87773 0.0590491 0.0441587 
0.0590491 9.7883 -0.0849821 
0.0441587 -0.0849821 10.0191 
9.82537 0.0897789 0.0646376 
0.0897789 9.81852 -0.0803565 
0.0646376 -0.0803565 10.0413 
9.86578 0.135413 0.0897093 
0.135413 9.7799 -0.0101373 
0.0897093 -0.0101373 10.0395 
9.83434 0.0520663 0.192977 
0.0520663 9.75151 -0.315587 
0.192977 -0.315587 9.81311 
9.78564 0.0719636 0.217392 
0.0719636 9.78893 -0.259612 
0.217392 -0.259612 9.82439 
9.82418 0.043306 0.212579 
0.043306 9.74985 -0.217612 
0.212579 -0.217612 9.82493 
9.79633 0.0819363 0.196138 
0.0819363 9.80471 -0.255717 
0.196138 -0.255717 9.79791 
9.75709 0.0928426 0.261917 
0.0928426 9.73508 -0.228156 
0.261917 -0.228156 9.84231 
9.80583 0.0153832 0.195963 
0.0153832 9.69317 -0.345833 
0.195963 -0.345833 9.83548 
9.83566 0.0887934 0.252202 
0.0887934 9.69261 -0.264802 
0.252202 -0.264802 9.80621 
9.7989 0.0751534 0.280931 
0.0751534 9.732 -0.369373 
0.280931 -0.369373 9.80359 
8.53946 1.96831 -0.688981 
1.96831 8.29598 -1.16453 
-0.688981 -1.16453 5.34784 
10.145 0.513318 -1.1106 
0.513318 7.55052 -0.378836 
-1.1106 -0.378836 4.48779 
9.52994 0.810774 -0.925956 
0.810774 8.54073 -0.708743 
-0.925956 -0.708743 4.11262 
7.51048 0.0838561 -0.321191 
0.0838561 7.69441 -0.954933 
-0.321191 -0.954933 6.9784 
9.7148 -0.0800169 0.223757 
-0.0800169 9.7731 0.192274 
0.223757 0.192274 10.0125 
9.74296 -0.0752351 0.131181 
-0.0752351 9.71034 0.169039 
0.131181 0.169039 10.0471 
9.76129 -0.0773635 0.204298 
-0.0773635 9.75907 0.186193 
0.204298 0.186193 9.98001 
9.78058 -0.0566515 0.219914 
-0.0566515 9.75821 0.183701 
0.219914 0.183701 9.96159 
9.80946 -0.0983843 0.162538 
-0.0983843 9.78694 0.174224 
0.162538 0.174224 10.078 
9.76619 -0.0482757 0.126032 
-0.0482757 9.79834 0.177531 
0.126032 0.177531 10.1099 
9.76854 -0.108271 0.162373 
-0.108271 9.77714 0.123452 
0.162373 0.123452 10.1287 
9.83077 0.00649986 0.117399 
0.00649986 9.78279 0.0812427 
0.117399 0.0812427 10.0608 
9.87718 0.00868026 0.0199763 
0.00868026 9.84687 -0.0209444 
0.0199763 -0.0209444 9.9138 
9.86639 0.0224293 0.0421011 
0.0224293 9.85767 -0.0323842 
0.0421011 -0.0323842 9.91379 
9.88172 -0.00931515 0.0162814 
-0.00931515 9.85914 -0.00537243 
0.0162814 -0.00537243 9.89699 
9.90753 0.0042563 0.0236287 
0.0042563 9.8641 0.014357 
0.0236287 0.014357 9.86622 
9.8595 0.107748 -0.0425044 
0.107748 9.86797 0.0252739 
-0.0425044 0.0252739 10.0194 
9.87325 0.0126372 0.0615868 
0.0126372 9.84935 -0.0371158 
0.0615868 -0.0371158 10.0243 
9.90338 0.0424987 0.0566088 
0.0424987 9.85803 -0.0373237 
0.0566088 -0.0373237 9.98548 
9.8684 0.0349466 0.0720148 
0.0349466 9.83037 -0.0388484 
0.0720148 -0.0388484 10.0481 
9.81364 0.0485699 -0.030948 
0.0485699 9.93792 0.0761113 
-0.030948 0.0761113 9.95623 
9.87888 0.0537832 -0.0515638 
0.0537832 9.89242 -0.00367648 
-0.0515638 -0.00367648 9.9365 
9.83211 0.135388 -0.00109474 
0.135388 9.82214 0.00941302 
-0.00109474 0.00941302 10.0535 
10.0159 -0.147972 -0.0389186 
-0.147972 9.86098 0.0231861 
-0.0389186 0.0231861 9.8309 
9.85852 0.130028 -0.141364 
0.130028 9.8368 0.113341 
-0.141364 0.113341 9.97056 
9.72666 0.106957 0.038265 
0.106957 9.73737 0.112318 
0.038265 0.112318 10.2019 
9.97743 0.0510812 -0.152854 
0.0510812 9.90203 -0.0443259 
-0.152854 -0.0443259 9.78643 
9.77988 0.0743732 -0.169615 
0.0743732 9.84391 0.126384 
-0.169615 0.126384 10.0421 
12.4303 0.451525 0.743623 
0.451525 12.799 -0.798761 
0.743623 -0.798761 13.7885 
12.1129 0.325349 0.718955 
0.325349 12.9154 0.0283482 
0.718955 0.0283482 13.9895 
11.6157 1.08799 0.904384 
1.08799 12.848 0.0304309 
0.904384 0.0304309 14.5541 
12.8925 -0.0370504 0.513989 
-0.0370504 14.864 -1.62002 
0.513989 -1.62002 11.2614 
10.3244 -0.614028 -0.416234 
-0.614028 11.1542 0.469561 
-0.416234 0.469561 14.7502 
9.17906 0.608449 0.996816 
0.608449 11.3432 0.999077 
0.996816 0.999077 15.7065 
13.1191 -1.45984 0.910916 
-1.45984 10.4855 2.78605 
0.910916 2.78605 12.6241 
10.4193 0.27077 -0.8292 
0.27077 10.8414 1.22618 
-0.8292 1.22618 14.968 
8.24614 0.285002 -0.986537 
0.285002 10.9979 0.251645 
-0.986537 0.251645 12.7407 
8.77133 0.166141 -2.54926 
0.166141 10.3727 -0.0599261 
-2.54926 -0.0599261 12.8407 
7.55774 -0.179585 -3.86068 
-0.179585 11.2731 0.22535 
-3.86068 0.22535 13.1538 
12.9855 -1.16444 -2.31637 
-1.16444 8.56043 0.634661 
-2.31637 0.634661 10.4388 
13.0492 -0.716567 0.656442 
-0.716567 13.745 0.0414892 
0.656442 0.0414892 13.4274 
12.2292 -0.623791 1.09003 
-0.623791 13.6237 0.445962 
1.09003 0.445962 14.3686 
13.1619 -0.352769 0.448987 
-0.352769 13.3251 0.344894 
0.448987 0.344894 13.7346 
12.5412 -0.329221 0.659931 
-0.329221 12.9249 -0.160086 
0.659931 -0.160086 14.7555 
10.0742 0.014348 -0.0402323 
0.014348 9.96219 -0.0619379 
-0.0402323 -0.0619379 10.1278 
10.0691 -0.0674626 -0.0128379 
-0.0674626 9.95829 0.000795509 
-0.0128379 0.000795509 10.1369 
10.0427 0.0551766 -0.00430409 
0.0551766 10.0585 -0.0345067 
-0.00430409 -0.0345067 10.063 
10.0518 -0.0111747 -0.0201188 
-0.0111747 9.99826 -0.0648026 
-0.0201188 -0.0648026 10.1142 
10.0806 0.0214471 -0.0111251 
0.0214471 9.96974 -0.054778 
-0.0111251 -0.054778 10.1217 
10.0475 0.00817494 0.030047 
0.00817494 10.096 -0.0551251 
0.030047 -0.0551251 10.0284 
10.0224 -0.0435026 -0.00198113 
-0.0435026 9.99012 0.0284647 
-0.00198113 0.0284647 10.1595 
10.0589 -0.00292625 0.0166373 
-0.00292625 10.0538 -0.0389401 
0.0166373 -0.0389401 10.0593 
9.88669 -0.000414399 -0.0107779 
-0.000414399 9.82559 0.203446 
-0.0107779 0.203446 9.90349 
9.92934 -0.0107942 0.0256144 
-0.0107942 9.88619 0.233471 
0.0256144 0.233471 9.80024 
9.81859 -0.0230688 0.0402119 
-0.0230688 9.81953 0.260878 
0.0402119 0.260878 9.97765 
9.92133 -0.0165952 0.0203334 
-0.0165952 9.81239 0.211408 
0.0203334 0.211408 9.88204 
9.90571 0.00739629 -0.0467504 
0.00739629 9.8238 0.198834 
-0.0467504 0.198834 9.91171 
9.87941 -0.0341908 0.0381781 
-0.0341908 9.79065 0.253575 
0.0381781 0.253575 9.97116 
9.8992 0.020761 0.0251316 
0.020761 9.90562 0.233621 
0.0251316 0.233621 9.8364 
9.85555 0.0224071 0.0122137 
0.0224071 9.92265 0.233232 
0.0122137 0.233232 9.86302 
9.75023 -0.0221076 0.235467 
-0.0221076 9.84315 -0.0184901 
0.235467 -0.0184901 9.88318 
9.767 -0.0152772 0.244682 
-0.0152772 9.8557 -0.0245472 
0.244682 -0.0245472 9.85386 
9.74907 0.026114 0.219434 
0.026114 9.8799 0.00371717 
0.219434 0.00371717 9.84758 
9.81174 0.00462701 0.166512 
0.00462701 9.75567 -0.0399623 
0.166512 -0.0399623 9.90915 
9.78435 0.0304589 0.233751 
0.0304589 9.836 -0.0158241 
0.233751 -0.0158241 9.85512 
9.75157 -0.0111549 0.261688 
-0.0111549 9.86232 -0.0243512 
0.261688 -0.0243512 9.86158 
9.76201 -0.00879501 0.240397 
-0.00879501 9.85835 -0.03525 
0.240397 -0.03525 9.85511 
9.75344 0.0381151 0.25569 
0.0381151 9.85643 -0.00780693 
0.25569 -0.00780693 9.86559 
9.68611 0.0424628 0.26032 
0.0424628 9.8398 -0.0456143 
0.26032 -0.0456143 9.89089 
9.76311 0.0180559 0.184914 
0.0180559 9.8553 -0.0313376 
0.184914 -0.0313376 9.79839 
9.686 -0.0126434 0.200067 
-0.0126434 9.84152 0.0192184 
0.200067 0.0192184 9.88927 
9.91807 -0.0381545 0.133987 
-0.0381545 9.74983 -0.0287337 
0.133987 -0.0287337 9.7489 
9.71619 -0.00825217 0.215558 
-0.00825217 9.84418 -0.0840021 
0.215558 -0.0840021 9.83165 
9.71602 0.037872 0.198594 
0.037872 9.79922 -0.0890191 
0.198594 -0.0890191 9.87678 
9.78723 0.0363283 0.241738 
0.0363283 9.80745 -0.000905429 
0.241738 -0.000905429 9.79735 
9.69454 0.0368644 0.28082 
0.0368644 9.86184 -0.0134502 
0.28082 -0.0134502 9.83563 
9.83759 0.0417644 -0.0707286 
0.0417644 9.69498 0.253991 
-0.0707286 0.253991 9.81241 
9.85555 0.0400981 -0.0805389 
0.0400981 9.67088 0.219736 
-0.0805389 0.219736 9.81856 
9.82492 0.0370938 -0.0484701 
0.0370938 9.68815 0.267777 
-0.0484701 0.267777 9.83191 
9.79565 0.0513347 -0.0628308 
0.0513347 9.74451 0.273822 
-0.0628308 0.273822 9.80483 
9.82702 0.0351895 -0.0718371 
0.0351895 9.66543 0.226227 
-0.0718371 0.226227 9.79479 
9.82765 0.0235046 -0.0618699 
0.0235046 9.65574 0.221711 
-0.0618699 0.221711 9.80385 
9.78979 0.0512507 -0.0412314 
0.0512507 9.65737 0.251577 
-0.0412314 0.251577 9.84008 
9.82658 0.0599406 -0.0918056 
0.0599406 9.69651 0.213651 
-0.0918056 0.213651 9.76415 
9.82672 0.0264809 -0.0578398 
0.0264809 9.77286 0.213562 
-0.0578398 0.213562 9.86918 
9.82972 0.0141734 -0.0547281 
0.0141734 9.77128 0.221711 
-0.0547281 0.221711 9.86775 
9.79606 0.0114734 -0.0603269 
0.0114734 9.78592 0.2252 
-0.0603269 0.2252 9.88678 
9.82694 0.0157091 -0.0663681 
0.0157091 9.76599 0.219455 
-0.0663681 0.219455 9.87581 
9.77693 0.0137309 -0.0213312 
0.0137309 9.82319 0.156575 
-0.0213312 0.156575 9.80655 
9.88364 0.0544817 -0.0920948 
0.0544817 9.67714 0.244715 
-0.0920948 0.244715 9.84589 
9.77888 0.0576796 -0.0904138 
0.0576796 9.72491 0.148715 
-0.0904138 0.148715 9.90288 
9.77345 0.0158243 -0.0336536 
0.0158243 9.87591 0.143324 
-0.0336536 0.143324 9.75732 
9.91075 -0.0301044 -0.127905 
-0.0301044 9.85089 -0.228956 
-0.127905 -0.228956 9.89171 
9.88466 -0.00503344 -0.175018 
-0.00503344 9.86628 -0.210545 
-0.175018 -0.210545 9.90241 
9.87977 -0.0356815 -0.138006 
-0.0356815 9.92481 -0.221648 
-0.138006 -0.221648 9.84876 
9.96539 -0.00845728 -0.14273 
-0.00845728 9.95122 -0.224519 
-0.14273 -0.224519 9.73673 
9.97296 0.000514139 -0.0856636 
0.000514139 10.002 -0.199345 
-0.0856636 -0.199345 9.84345 
9.99924 0.0110337 -0.0868481 
0.0110337 9.93323 -0.218477 
-0.0868481 -0.218477 9.88591 
9.98935 -0.022041 -0.131475 
-0.022041 9.91616 -0.216722 
-0.131475 -0.216722 9.91287 
9.78012 0.0079771 -0.0565488 
0.0079771 10.0198 -0.246286 
-0.0565488 -0.246286 10.0185 
9.92307 -0.0279378 -0.153607 
-0.0279378 9.91942 -0.189083 
-0.153607 -0.189083 9.88188 
9.91877 -0.0176516 -0.165328 
-0.0176516 9.92725 -0.170392 
-0.165328 -0.170392 9.87834 
9.9325 -0.042804 -0.183692 
-0.042804 9.89068 -0.151607 
-0.183692 -0.151607 9.90119 
9.9789 -0.0373722 -0.135996 
-0.0373722 9.88804 -0.224314 
-0.135996 -0.224314 9.85743 
9.97545 2.44226e-05 -0.0875215 
2.44226e-05 9.96363 -0.193456 
-0.0875215 -0.193456 10.0122 
10.016 -0.0111045 -0.12498 
-0.0111045 10.0003 -0.197648 
-0.12498 -0.197648 9.93491 
10.0273 0.0103934 -0.0986057 
0.0103934 9.98832 -0.1922 
-0.0986057 -0.1922 9.93561 
9.93671 -0.00221942 -0.0842176 
-0.00221942 10.0007 -0.173237 
-0.0842176 -0.173237 10.0139 
9.31458 -0.238869 -0.348183 
-0.238869 9.69021 -0.865302 
-0.348183 -0.865302 10.3556 
9.60781 -0.208484 -0.389401 
-0.208484 9.6567 -0.520241 
-0.389401 -0.520241 10.0959 
9.40139 -0.135061 -0.542403 
-0.135061 9.8804 -0.805953 
-0.542403 -0.805953 10.0786 
9.52757 -0.222586 -0.653336 
-0.222586 10.0907 -0.906612 
-0.653336 -0.906612 9.74212 
9.5166 -0.188907 -0.55947 
-0.188907 9.40415 -0.450038 
-0.55947 -0.450038 9.99707 
9.48257 -0.179075 -0.385896 
-0.179075 9.49715 -0.333195 
-0.385896 -0.333195 9.9381 
9.19006 -0.294134 -0.296066 
-0.294134 9.605 -0.290791 
-0.296066 -0.290791 10.1228 
9.6907 -0.0151918 -0.320955 
-0.0151918 9.44439 -0.357475 
-0.320955 -0.357475 9.78274 
9.43202 0.0513838 0.542831 
0.0513838 10.301 -0.319665 
0.542831 -0.319665 9.3661 
9.59025 -0.22739 0.322291 
-0.22739 10.1565 0.0398289 
0.322291 0.0398289 9.35237 
9.77434 0.185485 0.331733 
0.185485 9.64182 0.0195344 
0.331733 0.0195344 9.68296 
9.52062 -0.0705388 0.551568 
-0.0705388 10.2218 -0.502177 
0.551568 -0.502177 9.35671 
9.25386 0.26946 0.837875 
0.26946 10.219 -0.146874 
0.837875 -0.146874 9.4955 
9.69656 0.0317532 0.263666 
0.0317532 9.57986 -0.195964 
0.263666 -0.195964 9.69193 
9.59359 -0.12948 0.385923 
-0.12948 9.88831 0.195055 
0.385923 0.195055 9.48646 
9.53781 0.180086 0.466683 
0.180086 9.94574 0.0331153 
0.466683 0.0331153 9.4848 
9.55523 -1.99751 -0.808155 
-1.99751 9.20925 1.3987 
-0.808155 1.3987 17.38 
13.0081 1.65825 0.0647667 
1.65825 7.31913 -2.51041 
0.0647667 -2.51041 15.8173 
11.8471 0.632804 0.951036 
0.632804 12.4769 -1.19834 
0.951036 -1.19834 11.8204 
13.4125 0.258983 1.11519 
0.258983 12.3535 -1.43358 
1.11519 -1.43358 10.3784 
10.339 0.331021 -0.105729 
0.331021 10.3801 0.313099 
-0.105729 0.313099 11.626 
9.7076 0.602268 0.024039 
0.602268 10.6045 0.689463 
0.024039 0.689463 12.0329 
9.87266 0.115288 1.0051 
0.115288 9.83891 -0.559473 
1.0051 -0.559473 12.6335 
10.3735 -0.224146 -0.497736 
-0.224146 10.8544 -0.000481796 
-0.497736 -0.000481796 11.1172 
9.96014 -0.00283378 -0.240716 
-0.00283378 9.96847 -0.00594077 
-0.240716 -0.00594077 9.97722 
9.93933 -0.00287518 -0.234621 
-0.00287518 9.97807 0.00529015 
-0.234621 0.00529015 9.98842 
9.95343 0.000613737 -0.242983 
0.000613737 9.96775 0.0051512 
-0.242983 0.0051512 9.98465 
9.95968 -0.00482673 -0.237775 
-0.00482673 9.96285 0.00166709 
-0.237775 0.00166709 9.98329 
9.91645 0.0121195 -0.254731 
0.0121195 9.93142 0.020472 
-0.254731 0.020472 9.93916 
9.89507 0.000200949 -0.245614 
0.000200949 9.93755 -0.0128055 
-0.245614 -0.0128055 9.95442 
9.89992 -0.00430305 -0.238808 
-0.00430305 9.93151 -0.0119737 
-0.238808 -0.0119737 9.9556 
9.88597 -0.0220489 -0.252006 
-0.0220489 9.98573 -0.0141321 
-0.252006 -0.0141321 9.91534 
9.92901 -0.014539 -0.234886 
-0.014539 9.97873 -0.072172 
-0.234886 -0.072172 9.97772 
9.93932 -0.00670426 -0.227052 
-0.00670426 9.97746 -0.0780318 
-0.227052 -0.0780318 9.96868 
9.94454 -0.0178133 -0.236698 
-0.0178133 9.97657 -0.088801 
-0.236698 -0.088801 9.96435 
9.96031 0.0203302 -0.230338 
0.0203302 9.91229 -0.0849818 
-0.230338 -0.0849818 10.0129 
9.87801 -0.0241241 -0.256182 
-0.0241241 9.94482 -0.0679009 
-0.256182 -0.0679009 9.9273 
9.89093 -0.0112533 -0.235457 
-0.0112533 9.93336 -0.0851503 
-0.235457 -0.0851503 9.92583 
9.87164 -0.0232169 -0.238484 
-0.0232169 9.92541 -0.0730728 
-0.238484 -0.0730728 9.95307 
9.88523 -0.00669925 -0.237048 
-0.00669925 9.97251 -0.0647189 
-0.237048 -0.0647189 9.89238 
4.53931 3.34383 -1.17256 
3.34383 6.71258 0.688309 
-1.17256 0.688309 -3.14501 
0.792001 -1.26089 1.87378 
-1.26089 6.51736 -2.73076 
1.87378 -2.73076 0.797519 
2.23381 0.409239 2.05604 
0.409239 3.50544 -0.92378 
2.05604 -0.92378 2.36764 
-1.32989 0.732877 4.49232 
0.732877 1.23613 -1.41971 
4.49232 -1.41971 8.20065 
5.32977 -2.26069 -0.0522309 
-2.26069 8.22551 -1.64231 
-0.0522309 -1.64231 4.04663 
6.52671 -1.80009 -1.96562 
-1.80009 8.82404 -1.05694 
-1.96562 -1.05694 2.25116 
6.69465 -0.800619 4.52615 
-0.800619 11.4207 -5.84836 
4.52615 -5.84836 -0.513439 
3.2498 2.74909 -3.67092 
2.74909 7.48016 -2.51624 
-3.67092 -2.51624 6.87195 
9.82913 0.0161395 -0.120129 
0.0161395 9.77641 0.216986 
-0.120129 0.216986 9.8349 
9.78631 0.031977 -0.131109 
0.031977 9.76787 0.177354 
-0.131109 0.177354 9.88626 
9.77734 0.0808341 -0.17162 
0.0808341 9.75678 0.195469 
-0.17162 0.195469 9.90633 
9.77989 0.0704881 -0.0963531 
0.0704881 9.75465 0.111177 
-0.0963531 0.111177 9.9059 
9.82067 0.0437241 -0.11579 
0.0437241 9.7514 0.209373 
-0.11579 0.209373 9.89579 
9.79095 0.0546533 -0.102628 
0.0546533 9.77258 0.199701 
-0.102628 0.199701 9.90432 
9.81288 0.0346605 -0.133221 
0.0346605 9.75431 0.1959 
-0.133221 0.1959 9.90066 
9.8047 0.0552597 -0.185184 
0.0552597 9.73374 0.1987 
-0.185184 0.1987 9.92941 
9.80669 0.0914418 0.0595084 
0.0914418 9.71957 -0.0337192 
0.0595084 -0.0337192 9.94636 
9.7784 0.0510991 0.0841043 
0.0510991 9.79684 -0.13884 
0.0841043 -0.13884 9.89738 
9.82135 -0.0162374 0.119437 
-0.0162374 9.85563 -0.0641198 
0.119437 -0.0641198 9.79564 
9.85049 -0.0846183 0.131576 
-0.0846183 9.82278 -0.0848807 
0.131576 -0.0848807 9.79935 
9.95707 0.0127041 0.106346 
0.0127041 9.91658 -0.069049 
0.106346 -0.069049 9.71255 
9.82437 0.0321769 0.121589 
0.0321769 9.79253 -0.133396 
0.121589 -0.133396 9.9693 
9.73163 0.0235784 0.0561947 
0.0235784 9.7253 -0.0355295 
0.0561947 -0.0355295 10.1293 
9.81623 0.0655626 0.157905 
0.0655626 9.81143 -0.122345 
0.157905 -0.122345 9.95854 
9.97547 -0.00187814 0.228697 
-0.00187814 9.97751 0.0926614 
0.228697 0.0926614 9.98202 
9.98281 -0.00565517 0.228599 
-0.00565517 9.9769 0.0913462 
0.228599 0.0913462 9.97529 
9.97108 -0.00116716 0.228565 
-0.00116716 9.97131 0.0892388 
0.228565 0.0892388 9.99262 
9.96446 0.00995672 0.239118 
0.00995672 9.96488 0.0937633 
0.239118 0.0937633 10.0057 
9.94622 -0.0023889 0.221126 
-0.0023889 9.95856 0.0996575 
0.221126 0.0996575 9.97472 
9.9674 0.00263179 0.225849 
0.00263179 9.94509 0.103389 
0.225849 0.103389 9.96701 
9.95914 0.00502705 0.220428 
0.00502705 9.95304 0.105654 
0.220428 0.105654 9.96731 
9.93959 -0.0108273 0.218385 
-0.0108273 9.97123 0.0872572 
0.218385 0.0872572 9.96868 
9.77758 -0.0256772 0.184327 
-0.0256772 9.59127 0.339509 
0.184327 0.339509 9.51225 
9.99842 -0.1255 0.182506 
-0.1255 9.47584 0.527243 
0.182506 0.527243 9.40684 
9.74616 -0.113969 0.221012 
-0.113969 9.52476 0.267193 
0.221012 0.267193 9.61018 
9.77203 -0.0575777 0.183791 
-0.0575777 9.61044 0.36907 
0.183791 0.36907 9.49863 
9.64566 -0.280742 0.285347 
-0.280742 9.48216 0.353441 
0.285347 0.353441 9.48203 
10.0867 -0.114213 0.331604 
-0.114213 9.47335 0.836173 
0.331604 0.836173 9.04977 
9.73388 -0.00182326 0.135522 
-0.00182326 9.49162 0.397207 
0.135522 0.397207 9.38435 
9.79092 0.0628209 0.367225 
0.0628209 9.48857 0.589335 
0.367225 0.589335 9.33037 
10.0234 -0.0713714 0.193556 
-0.0713714 9.61875 0.324105 
0.193556 0.324105 9.6841 
9.68943 -0.0490546 -0.258394 
-0.0490546 9.69639 0.238614 
-0.258394 0.238614 9.94044 
10.0904 0.00101185 0.025223 
0.00101185 9.69786 0.514137 
0.025223 0.514137 9.538 
9.99338 0.0679092 0.202563 
0.0679092 9.76716 0.314439 
0.202563 0.314439 9.56573 
10.0183 0.0461546 0.0162536 
0.0461546 9.57299 0.624241 
0.0162536 0.624241 9.57924 
9.66215 0.218241 0.0146887 
0.218241 9.8297 0.353941 
0.0146887 0.353941 9.67869 
10.0624 -0.114058 0.178203 
-0.114058 9.55152 0.320376 
0.178203 0.320376 9.55665 
10.0385 -0.079379 -0.00717893 
-0.079379 9.50102 0.414709 
-0.00717893 0.414709 9.63101 
9.88463 0.0207639 -0.0179849 
0.0207639 9.82522 0.0270098 
-0.0179849 0.0270098 9.95599 
9.86478 0.040728 -0.0653937 
0.040728 9.85709 0.0428298 
-0.0653937 0.0428298 9.94397 
9.89809 -0.00699818 -0.0245418 
-0.00699818 9.8484 0.0173801 
-0.0245418 0.0173801 9.91934 
9.94489 -0.00518049 -0.0371585 
-0.00518049 9.85639 -0.0247297 
-0.0371585 -0.0247297 9.86455 
9.82079 0.0396015 -0.0430179 
0.0396015 9.78646 0.0455605 
-0.0430179 0.0455605 9.92665 
9.80991 0.029933 -0.0786905 
0.029933 9.7794 0.0597626 
-0.0786905 0.0597626 9.94459 
9.83837 0.0229402 -0.106393 
0.0229402 9.76281 0.053824 
-0.106393 0.053824 9.93272 
9.78718 0.0330636 -0.0650067 
0.0330636 9.78951 0.0424359 
-0.0650067 0.0424359 9.9572 
9.9298 0.0122313 -0.180617 
0.0122313 9.93378 0.169812 
-0.180617 0.169812 9.97866 
9.93419 -0.0051555 -0.137351 
-0.0051555 9.92263 0.150062 
-0.137351 0.150062 9.98542 
9.91376 0.0280224 -0.177122 
0.0280224 9.93647 0.181252 
-0.177122 0.181252 9.99201 
9.93289 0.00347015 -0.190934 
0.00347015 9.93801 0.179919 
-0.190934 0.179919 9.97134 
9.91288 0.0203441 -0.169367 
0.0203441 9.8739 0.165538 
-0.169367 0.165538 9.98234 
9.90893 0.00501008 -0.14698 
0.00501008 9.90828 0.161048 
-0.14698 0.161048 9.95192 
9.91898 0.01745 -0.178977 
0.01745 9.90319 0.190233 
-0.178977 0.190233 9.94696 
9.90886 0.00329452 -0.142681 
0.00329452 9.92365 0.137157 
-0.142681 0.137157 9.93662 
9.45539 -0.00389096 -0.647727 
-0.00389096 9.30043 0.679962 
-0.647727 0.679962 7.99742 
9.41902 0.0255202 -0.595494 
0.0255202 9.29361 0.760613 
-0.595494 0.760613 8.0406 
9.53903 -0.0768061 -1.13887 
-0.0768061 9.472 0.684292 
-1.13887 0.684292 7.74221 
9.25476 0.344701 -0.380335 
0.344701 9.16829 1.0497 
-0.380335 1.0497 8.33019 
9.24831 0.260262 -0.865373 
0.260262 9.5015 0.707984 
-0.865373 0.707984 7.39027 
9.16038 -0.103802 -0.645247 
-0.103802 9.14344 0.689205 
-0.645247 0.689205 7.83625 
9.33396 0.0664241 -0.767578 
0.0664241 9.67664 0.77724 
-0.767578 0.77724 7.12947 
8.34666 0.107638 -0.883041 
0.107638 9.77093 -0.246303 
-0.883041 -0.246303 8.02248 
9.7148 -0.0708087 0.194408 
-0.0708087 9.8252 0.187429 
0.194408 0.187429 9.94312 
9.74982 -0.0304475 0.196937 
-0.0304475 9.76934 0.185425 
0.196937 0.185425 9.96396 
9.65964 -0.0746192 0.233152 
-0.0746192 9.8187 0.249914 
0.233152 0.249914 10.0048 
9.66272 -0.201403 0.238773 
-0.201403 9.68665 0.14205 
0.238773 0.14205 10.1338 
9.70522 -0.0526434 0.26594 
-0.0526434 9.87136 0.159012 
0.26594 0.159012 10.0058 
9.77203 -0.0179536 0.164971 
-0.0179536 9.79082 0.116401 
0.164971 0.116401 10.0195 
9.76749 -0.137069 0.156624 
-0.137069 9.91754 0.137338 
0.156624 0.137338 9.89734 
9.73515 -0.0422519 0.267556 
-0.0422519 9.94682 0.249965 
0.267556 0.249965 9.90039 
9.68887 -0.0616779 0.212414 
-0.0616779 9.71572 0.261151 
0.212414 0.261151 10.0799 
9.70145 -0.116139 0.192697 
-0.116139 9.69767 0.235049 
0.192697 0.235049 10.0853 
9.69989 -0.120829 0.165794 
-0.120829 9.77571 0.242624 
0.165794 0.242624 10.0088 
9.63248 -0.137348 0.233403 
-0.137348 9.6426 0.189103 
0.233403 0.189103 10.2094 
9.65359 -0.122689 0.176318 
-0.122689 9.74428 0.242132 
0.176318 0.242132 9.95268 
9.65196 -0.154053 0.246391 
-0.154053 9.76559 0.283225 
0.246391 0.283225 9.93299 
9.669 -0.0810634 0.244836 
-0.0810634 9.74528 0.241574 
0.244836 0.241574 9.93626 
9.69511 -0.0740549 0.246277 
-0.0740549 9.74815 0.266123 
0.246277 0.266123 9.90728 
7.68204 -0.13356 0.126371 
-0.13356 -1.04042 -1.64827 
0.126371 -1.64827 4.97248 
3.9379 1.01213 -3.1725 
1.01213 1.81463 -1.68268 
-3.1725 -1.68268 5.86157 
5.05891 -0.9686 -0.50077 
-0.9686 5.37026 -0.808285 
-0.50077 -0.808285 1.18493 
13.9195 9.65455 -7.68809 
9.65455 10.9311 -6.73018 
-7.68809 -6.73018 -13.2365 
8.64217 -0.554624 -2.15632 
-0.554624 5.59603 -1.4574 
-2.15632 -1.4574 4.05887 
8.5786 1.64109 -0.544567 
1.64109 6.69906 -0.834897 
-0.544567 -0.834897 3.01941 
9.4005 -0.494955 -1.87409 
-0.494955 4.58014 -1.0974 
-1.87409 -1.0974 4.31643 
5.49653 1.16237 -1.48497 
1.16237 7.07071 -0.983231 
-1.48497 -0.983231 5.72983 
12.6401 0.507036 0.866165 
0.507036 14.7533 0.206909 
0.866165 0.206909 13.5115 
13.1183 -0.477069 1.0076 
-0.477069 14.0338 -0.0263856 
1.0076 -0.0263856 13.7528 
12.7745 -0.0948086 1.24717 
-0.0948086 13.7326 0.23551 
1.24717 0.23551 14.3978 
13.0431 -0.524153 0.886447 
-0.524153 13.9085 0.21205 
0.886447 0.21205 13.9533 
6.69301 0.104787 -4.26161 
0.104787 11.2873 0.0947897 
-4.26161 0.0947897 11.8612 
6.49377 1.40731 -0.0201876 
1.40731 11.7136 0.0166415 
-0.0201876 0.0166415 11.6342 
7.5592 1.10288 -4.53738 
1.10288 9.22184 -0.0697607 
-4.53738 -0.0697607 13.0605 
12.4784 -0.546829 -2.93949 
-0.546829 8.47912 1.07121 
-2.93949 1.07121 8.88405 
9.77029 -0.0805387 0.25318 
-0.0805387 9.87021 0.231893 
0.25318 0.231893 9.58306 
9.75033 -8.12014e-06 0.303855 
-8.12014e-06 9.78577 0.23719 
0.303855 0.23719 9.68746 
9.82731 -0.0520006 0.291553 
-0.0520006 9.85307 0.239535 
0.291553 0.239535 9.54318 
9.83698 -0.0972915 0.186371 
-0.0972915 9.76205 0.280692 
0.186371 0.280692 9.62453 
9.76052 -0.0604845 0.334831 
-0.0604845 9.88723 0.196296 
0.334831 0.196296 9.56566 
9.73789 -0.0536864 0.295265 
-0.0536864 9.92717 0.209688 
0.295265 0.209688 9.54835 
9.76812 -0.0380476 0.289999 
-0.0380476 9.86152 0.173232 
0.289999 0.173232 9.58377 
9.70565 -0.0513007 0.287169 
-0.0513007 9.94019 0.0435846 
0.287169 0.0435846 9.56758 
9.74331 0.0571588 0.21507 
0.0571588 9.83299 -0.216551 
0.21507 -0.216551 9.94399 
9.75989 0.0800695 0.265947 
0.0800695 9.82794 -0.22538 
0.265947 -0.22538 9.93246 
9.85284 0.0754983 0.286954 
0.0754983 9.79001 -0.252228 
0.286954 -0.252228 9.87744 
9.64776 0.0855522 0.381633 
0.0855522 9.90237 -0.243043 
0.381633 -0.243043 9.97017 
9.72691 0.056316 0.222838 
0.056316 9.81987 -0.192419 
0.222838 -0.192419 9.91343 
9.77435 0.0526457 0.252125 
0.0526457 9.81121 -0.150171 
0.252125 -0.150171 9.87466 
9.72733 0.0512954 0.273776 
0.0512954 9.8081 -0.213398 
0.273776 -0.213398 9.92478 
9.75763 0.0545575 0.21868 
0.0545575 9.76547 -0.223227 
0.21868 -0.223227 9.93712 
9.95645 -0.0271104 -0.206689 
-0.0271104 9.98963 -0.119448 
-0.206689 -0.119448 9.9775 
9.96142 -0.00216864 -0.222664 
-0.00216864 9.98408 -0.116349 
-0.222664 -0.116349 9.97807 
9.97242 -0.00158757 -0.20609 
-0.00158757 9.93299 -0.103413 
-0.20609 -0.103413 10.0182 
9.95772 0.0160796 -0.223665 
0.0160796 9.99197 -0.124103 
-0.223665 -0.124103 9.97388 
9.94291 0.000953803 -0.207443 
0.000953803 9.95096 -0.114608 
-0.207443 -0.114608 9.99532 
9.94148 -0.0106466 -0.213948 
-0.0106466 9.96633 -0.115587 
-0.213948 -0.115587 9.98137 
9.93678 -0.0143767 -0.211869 
-0.0143767 9.96891 -0.114212 
-0.211869 -0.114212 9.9835 
9.94146 -0.0113381 -0.210467 
-0.0113381 9.96699 -0.110849 
-0.210467 -0.110849 9.98073 
9.61686 0.217245 0.3348 
0.217245 9.7645 -0.386792 
0.3348 -0.386792 9.77381 
9.6075 0.167025 0.334678 
0.167025 9.59511 -0.419078 
0.334678 -0.419078 9.95256 
9.54019 0.0871677 0.424644 
0.0871677 9.90784 -0.624506 
0.424644 -0.624506 9.70714 
9.69729 0.210257 0.277866 
0.210257 9.81211 -0.221847 
0.277866 -0.221847 9.64577 
9.64195 0.246768 0.400634 
0.246768 9.75261 -0.568337 
0.400634 -0.568337 9.9152 
9.63245 -0.0289711 0.59239 
-0.0289711 10.0989 -0.528886 
0.59239 -0.528886 9.57846 
9.90182 0.221854 0.415895 
0.221854 9.54967 -0.506294 
0.415895 -0.506294 9.85827 
9.52792 0.701034 0.448051 
0.701034 10.1119 -0.716762 
0.448051 -0.716762 9.66989 
9.83689 -0.00988706 -0.222293 
-0.00988706 9.82261 -0.185017 
-0.222293 -0.185017 9.92974 
9.80435 -0.0587168 -0.218695 
-0.0587168 9.81855 -0.1936 
-0.218695 -0.1936 9.96633 
9.80634 -0.0511776 -0.191721 
-0.0511776 9.81316 -0.169287 
-0.191721 -0.169287 9.96973 
9.79488 -0.0583467 -0.185695 
-0.0583467 9.82854 -0.174671 
-0.185695 -0.174671 9.96581 
9.87407 -0.0317665 -0.194158 
-0.0317665 9.85945 -0.176565 
-0.194158 -0.176565 9.92402 
9.89094 -0.0545505 -0.147385 
-0.0545505 9.81015 -0.196426 
-0.147385 -0.196426 9.95645 
9.85719 -0.0518537 -0.189945 
-0.0518537 9.84445 -0.203167 
-0.189945 -0.203167 9.95591 
9.86415 -0.0430753 -0.188544 
-0.0430753 9.82623 -0.201238 
-0.188544 -0.201238 9.96715 
9.97142 -0.00109082 0.0492231 
-0.00109082 9.99051 0.241285 
0.0492231 0.241285 9.97426 
9.98812 0.0172735 0.0524649 
0.0172735 9.9547 0.24059 
0.0524649 0.24059 9.99336 
9.98768 -0.0209731 0.0591465 
-0.0209731 9.93534 0.216376 
0.0591465 0.216376 10.0132 
9.99459 0.00826387 0.0411989 
0.00826387 9.97802 0.238535 
0.0411989 0.238535 9.96357 
9.95581 -0.00845585 0.0597055 
-0.00845585 9.90334 0.226759 
0.0597055 0.226759 9.97296 
9.95345 0.00176958 0.0874385 
0.00176958 9.92943 0.243339 
0.0874385 0.243339 9.94924 
9.93097 0.000658501 0.0587628 
0.000658501 9.93826 0.240837 
0.0587628 0.240837 9.96288 
9.98552 -0.00814142 0.0477951 
-0.00814142 9.89852 0.2517 
0.0477951 0.2517 9.94808 
9.97608 -0.00518 0.0710199 
-0.00518 9.94886 0.25713 
0.0710199 0.25713 9.948 
9.94423 -0.0200719 0.0439978 
-0.0200719 9.93573 0.223165 
0.0439978 0.223165 9.993 
9.95176 0.0112165 0.0691946 
0.0112165 9.94811 0.249497 
0.0691946 0.249497 9.97308 
9.91179 -0.000866617 0.0574828 
-0.000866617 9.95173 0.204734 
0.0574828 0.204734 10.0094 
9.90144 0.0137341 0.0818886 
0.0137341 9.91914 0.279581 
0.0818886 0.279581 9.96279 
9.95183 -0.0283294 0.0332313 
-0.0283294 9.9091 0.184944 
0.0332313 0.184944 9.92244 
9.93643 -0.023675 0.09871 
-0.023675 9.89201 0.236603 
0.09871 0.236603 9.95493 
9.97886 -0.0274302 0.0486984 
-0.0274302 9.85568 0.239144 
0.0486984 0.239144 9.94883 
9.94831 -0.00539794 0.0585009 
-0.00539794 9.92884 0.243851 
0.0585009 0.243851 9.93744 
9.91485 4.30593e-07 0.0696496 
4.30593e-07 9.93209 0.219813 
0.0696496 0.219813 9.96765 
9.94633 -0.000971057 0.0704734 
-0.000971057 9.91255 0.225386 
0.0704734 0.225386 9.95571 
9.93005 -0.00320341 0.0680971 
-0.00320341 9.91484 0.230551 
0.0680971 0.230551 9.96971 
9.91915 -0.0207345 0.084371 
-0.0207345 9.8838 0.234177 
0.084371 0.234177 9.91239 
9.89697 -0.0232455 0.0577107 
-0.0232455 9.89374 0.228649 
0.0577107 0.228649 9.92462 
9.90173 -0.033998 0.0334441 
-0.033998 9.85783 0.21593 
0.0334441 0.21593 9.95578 
9.91024 -0.0244558 0.0911341 
-0.0244558 9.88689 0.210294 
0.0911341 0.210294 9.91821 
9.83891 -0.28269 0.958567 
-0.28269 9.03982 0.771166 
0.958567 0.771166 9.15578 
9.87108 0.0643034 0.558823 
0.0643034 9.23782 0.444316 
0.558823 0.444316 8.9256 
9.80168 -0.621687 0.718044 
-0.621687 9.2614 0.465474 
0.718044 0.465474 8.97143 
9.55992 0.0215834 0.37822 
0.0215834 9.8081 0.502307 
0.37822 0.502307 8.66648 
9.13266 -0.536608 0.965831 
-0.536608 9.07079 0.189947 
0.965831 0.189947 9.45494 
10.6849 -0.366892 0.103229 
-0.366892 9.23838 0.21265 
0.103229 0.21265 7.73515 
9.27439 -0.743492 1.38598 
-0.743492 9.30082 0.72142 
1.38598 0.72142 9.08319 
8.76725 -0.447471 0.989984 
-0.447471 9.47114 0.412798 
0.989984 0.412798 9.42001 
9.86211 0.0341583 0.109511 
0.0341583 9.77512 -0.216052 
0.109511 -0.216052 9.9272 
9.86654 0.0371335 0.1188 
0.0371335 9.7773 -0.233251 
0.1188 -0.233251 9.92058 
9.88045 0.0196368 0.128319 
0.0196368 9.79686 -0.215897 
0.128319 -0.215897 9.88711 
9.86607 0.0381528 0.108883 
0.0381528 9.7822 -0.229964 
0.108883 -0.229964 9.91614 
9.91674 0.0428309 0.102082 
0.0428309 9.77065 -0.243245 
0.102082 -0.243245 9.84259 
9.84352 0.0236508 0.0974517 
0.0236508 9.79088 -0.229085 
0.0974517 -0.229085 9.89558 
9.88791 0.0483139 0.0881157 
0.0483139 9.76676 -0.250116 
0.0881157 -0.250116 9.87531 
9.88589 0.0285577 0.0618197 
0.0285577 9.77166 -0.23416 
0.0618197 -0.23416 9.87243 
9.95693 0.00653215 -0.111172 
0.00653215 9.93915 0.226809 
-0.111172 0.226809 9.97675 
9.93239 -0.00330137 -0.0969516 
-0.00330137 9.95703 0.203726 
-0.0969516 0.203726 9.98341 
9.95873 0.0182706 -0.110826 
0.0182706 9.92863 0.226253 
-0.110826 0.226253 9.98546 
9.9413 -0.00237561 -0.112071 
-0.00237561 9.94433 0.223989 
-0.112071 0.223989 9.9872 
9.93337 -0.000150548 -0.0932076 
-0.000150548 9.90265 0.251138 
-0.0932076 0.251138 9.95566 
9.92851 -0.000554978 -0.111236 
-0.000554978 9.89869 0.209684 
-0.111236 0.209684 9.96447 
9.91236 -0.00698299 -0.0962924 
-0.00698299 9.93421 0.192521 
-0.0962924 0.192521 9.94511 
9.94904 0.0179977 -0.0781586 
0.0179977 9.93307 0.180637 
-0.0781586 0.180637 9.90957 
10.0195 0.0362476 0.0209643 
0.0362476 9.97818 0.00552031 
0.0209643 0.00552031 10.1159 
10.0256 0.0218448 0.0397567 
0.0218448 10.0085 0.00172521 
0.0397567 0.00172521 10.0794 
10.0614 0.0379452 -0.0211534 
0.0379452 9.96486 0.00665375 
-0.0211534 0.00665375 10.0872 
9.97861 0.0419678 0.0238233 
0.0419678 10.0135 -0.00221385 
0.0238233 -0.00221385 10.1214 
9.99722 0.00462642 0.0146731 
0.00462642 9.96392 -0.0035293 
0.0146731 -0.0035293 9.98925 
9.98989 0.00322346 0.00150823 
0.00322346 9.9722 0.0036471 
0.00150823 0.0036471 9.9883 
9.99329 0.0114439 0.00681381 
0.0114439 9.94643 0.0110363 
0.00681381 0.0110363 10.0107 
9.97526 0.0255783 0.0125149 
0.0255783 9.98999 -0.0182226 
0.0125149 -0.0182226 9.98513 
3.83964 0.979096 -0.761521 
0.979096 4.64302 -2.42882 
-0.761521 -2.42882 1.67801 
5.17989 0.308341 -0.145056 
0.308341 4.76679 -0.410359 
-0.145056 -0.410359 0.213979 
4.84556 0.760715 0.0555327 
0.760715 3.56218 -1.91009 
0.0555327 -1.91009 1.75293 
4.06179 0.736235 -0.177283 
0.736235 3.67999 -1.9381 
-0.177283 -1.9381 2.41889 
8.17907 0.454699 -0.608268 
0.454699 7.19622 -1.60914 
-0.608268 -1.60914 3.95251 
8.00967 1.69386 -1.48738 
1.69386 6.75842 -2.24576 
-1.48738 -2.24576 4.5597 
7.64918 -2.55322 -3.51782 
-2.55322 9.63486 -2.18958 
-3.51782 -2.18958 2.04376 
7.85927 -3.00017 2.75812 
-3.00017 6.18994 -1.55673 
2.75812 -1.55673 5.27859 
11.6369 -0.892896 0.0772232 
-0.892896 10.4292 -0.797334 
0.0772232 -0.797334 12.826 
10.7289 0.156004 0.696325 
0.156004 12.2397 0.387491 
0.696325 0.387491 11.9235 
13.7439 -0.736116 0.885986 
-0.736116 6.50427 0.491383 
0.885986 0.491383 14.6439 
11.5374 -0.120588 0.38653 
-0.120588 10.3592 -1.08976 
0.38653 -1.08976 12.9954 
11.5016 0.815092 -0.822975 
0.815092 10.3157 0.775457 
-0.822975 0.775457 14.5116 
12.514 0.559725 0.632678 
0.559725 9.21523 0.384454 
0.632678 0.384454 14.5998 
11.8521 -0.146738 1.00808 
-0.146738 9.85127 -0.295666 
1.00808 -0.295666 14.6256 
14.4644 -1.47523 -1.79659 
-1.47523 13.1253 1.90111 
-1.79659 1.90111 8.73927 
9.92267 -0.0251063 -0.221842 
-0.0251063 10.0173 -0.05137 
-0.221842 -0.05137 9.93039 
9.92589 -0.0100982 -0.22435 
-0.0100982 10.0041 -0.0843446 
-0.22435 -0.0843446 9.94043 
9.97798 -0.00695257 -0.253572 
-0.00695257 9.97787 -0.0919406 
-0.253572 -0.0919406 9.91451 
9.989 0.0290432 -0.20024 
0.0290432 9.87011 -0.0668346 
-0.20024 -0.0668346 10.0113 
9.90665 0.0336884 -0.248261 
0.0336884 9.96774 -0.0421261 
-0.248261 -0.0421261 9.86176 
9.89491 0.0141345 -0.243317 
0.0141345 9.94258 -0.0655918 
-0.243317 -0.0655918 9.89867 
9.89321 -0.012214 -0.225995 
-0.012214 9.93277 -0.0402385 
-0.225995 -0.0402385 9.91018 
9.91808 0.0284594 -0.218925 
0.0284594 10.0311 -0.0458821 
-0.218925 -0.0458821 9.78695 
9.74268 -0.00866322 0.091826 
-0.00866322 9.77913 -0.0279759 
0.091826 -0.0279759 10.0911 
9.84323 -0.0979239 0.0930953 
-0.0979239 9.82388 0.128348 
0.0930953 0.128348 9.94578 
9.81583 -0.0284533 0.0787791 
-0.0284533 9.79993 0.141825 
0.0787791 0.141825 9.99713 
9.96247 0.0206815 0.0287914 
0.0206815 9.94574 0.128377 
0.0287914 0.128377 9.70469 
9.77669 -0.0263543 0.050786 
-0.0263543 9.82787 0.0511592 
0.050786 0.0511592 9.99201 
9.79237 -0.0228828 0.056661 
-0.0228828 9.81492 0.0464001 
0.056661 0.0464001 9.98927 
9.79516 -0.0414341 0.0498942 
-0.0414341 9.80617 0.0402545 
0.0498942 0.0402545 9.99523 
9.80667 -0.0851332 0.0557952 
-0.0851332 9.76157 0.040441 
0.0557952 0.040441 10.0283 
9.76567 -0.0933743 -0.000822507 
-0.0933743 9.75429 0.160098 
-0.000822507 0.160098 9.9997 
9.7963 0.0729582 0.101639 
0.0729582 9.91224 0.0914678 
0.101639 0.0914678 9.81113 
9.84462 -0.0966844 0.00906607 
-0.0966844 9.6954 -0.0241828 
0.00906607 -0.0241828 9.97964 
9.8033 0.009889 0.073311 
0.009889 9.93115 0.0834463 
0.073311 0.0834463 9.78522 
9.7877 -0.00385783 0.0556512 
-0.00385783 9.79181 0.00987838 
0.0556512 0.00987838 9.96961 
9.8166 -0.056891 0.0128543 
-0.056891 9.82864 -0.0254245 
0.0128543 -0.0254245 9.90387 
9.88371 -0.0181823 0.11962 
-0.0181823 9.80415 0.0527713 
0.11962 0.0527713 9.86126 
9.7477 -0.0024765 0.0660057 
-0.0024765 9.71504 0.0359941 
0.0660057 0.0359941 10.0864 
4.78258 -0.684609 -2.4843 
-0.684609 2.90322 0.793742 
-2.4843 0.793742 0.89014 
4.70915 0.127676 -0.1728 
0.127676 4.44069 0.276427 
-0.1728 0.276427 -0.573892 
2.93337 -0.45606 -1.91483 
-0.45606 4.05424 0.113344 
-1.91483 0.113344 1.58834 
3.63957 -0.408868 -1.77874 
-0.408868 3.33976 0.334423 
-1.77874 0.334423 1.59661 
6.0739 0.982496 -1.94815 
0.982496 7.36603 1.63133 
-1.94815 1.63133 4.94087 
6.90771 -0.204018 -2.16731 
-0.204018 7.55716 0.442058 
-2.16731 0.442058 3.91593 
8.33361 1.58659 -2.18465 
1.58659 7.25114 2.32735 
-2.18465 2.32735 2.79604 
6.29421 1.43289 -1.8246 
1.43289 7.41128 -1.35922 
-1.8246 -1.35922 4.6753 
9.91249 -0.000473314 0.246703 
-0.000473314 9.92423 -0.0206511 
0.246703 -0.0206511 9.92939 
9.89862 -0.00131712 0.260908 
-0.00131712 9.92846 -0.0169387 
0.260908 -0.0169387 9.93903 
9.92748 -0.00135847 0.246304 
-0.00135847 9.92055 -0.0118125 
0.246304 -0.0118125 9.91808 
9.94486 0.00406771 0.245979 
0.00406771 9.93185 -0.00893569 
0.245979 -0.00893569 9.8894 
9.95079 0.00143998 0.249087 
0.00143998 9.96153 -0.0261907 
0.249087 -0.0261907 9.94819 
9.94582 0.00177766 0.249518 
0.00177766 9.95265 -0.0145656 
0.249518 -0.0145656 9.96205 
9.93843 0.00313769 0.250782 
0.00313769 9.96073 -0.0258302 
0.250782 -0.0258302 9.96135 
9.93572 -0.0102508 0.244686 
-0.0102508 9.94678 -0.0108612 
0.244686 -0.0108612 9.97801 
9.71243 0.0482471 0.127896 
0.0482471 9.84134 -0.044845 
0.127896 -0.044845 9.91928 
9.70379 0.115661 0.0408839 
0.115661 9.85191 -0.0101306 
0.0408839 -0.0101306 9.91736 
9.68897 0.0527581 0.0152461 
0.0527581 9.8544 -0.0253899 
0.0152461 -0.0253899 9.92968 
10.1561 -0.0934698 0.151698 
-0.0934698 9.6224 -0.028806 
0.151698 -0.028806 9.69455 
9.76086 0.0660561 0.369276 
0.0660561 9.97244 0.104307 
0.369276 0.104307 9.89909 
9.72982 0.118326 0.0124996 
0.118326 10.0459 0.056508 
0.0124996 0.056508 9.85669 
9.97896 -0.00532546 -0.0527689 
-0.00532546 9.65092 -0.148786 
-0.0527689 -0.148786 10.0025 
9.56566 0.284411 -0.0368779 
0.284411 9.71093 -0.264991 
-0.0368779 -0.264991 10.3558 
10.0032 0.0110818 -0.0123043 
0.0110818 9.95811 0.00720921 
-0.0123043 0.00720921 9.99391 
9.98947 0.00231528 -0.00822131 
0.00231528 9.97112 0.0272404 
-0.00822131 0.0272404 9.99463 
9.99747 0.00900543 -0.00528667 
0.00900543 9.96598 -0.000158355 
-0.00528667 -0.000158355 9.99178 
9.98752 0.0225255 0.00109519 
0.0225255 9.98052 -0.00999333 
0.00109519 -0.00999333 9.98719 
9.999 0.0116098 -0.0133622 
0.0116098 9.97655 0.0110902 
-0.0133622 0.0110902 9.98605 
9.98483 -0.000156565 -0.0159285 
-0.000156565 9.98211 0.0124403 
-0.0159285 0.0124403 9.99466 
10.0044 0.0055345 -0.0133344 
0.0055345 9.96661 0.00947479 
-0.0133344 0.00947479 9.99062 
9.99361 0.0221783 -0.0149648 
0.0221783 9.97547 0.0166519 
-0.0149648 0.0166519 9.99252 
10.1162 -0.167955 0.0810614 
-0.167955 10.1809 0.247085 
0.0810614 0.247085 10.4043 
10.042 -0.300968 0.0447684 
-0.300968 10.2276 0.0464344 
0.0447684 0.0464344 10.4318 
10.1666 -0.0685387 -0.0016566 
-0.0685387 9.93889 -0.0788979 
-0.0016566 -0.0788979 10.5958 
9.90601 0.215118 0.0280553 
0.215118 10.7012 0.0127179 
0.0280553 0.0127179 10.0942 
9.8119 0.164116 0.106401 
0.164116 10.2632 0.0205501 
0.106401 0.0205501 10.5415 
9.71977 -0.294843 0.120523 
-0.294843 10.3403 -0.200808 
0.120523 -0.200808 10.5565 
9.85009 -0.124752 0.142136 
-0.124752 10.3617 0.0919881 
0.142136 0.0919881 10.4048 
10.0389 -0.0879789 0.141409 
-0.0879789 10.308 -0.248109 
0.141409 -0.248109 10.2697 
9.97686 0.0211053 -0.195175 
0.0211053 9.69675 -0.186523 
-0.195175 -0.186523 9.85834 
9.98987 -0.0524539 -0.0370646 
-0.0524539 9.65732 -0.0270869 
-0.0370646 -0.0270869 9.88475 
9.89399 -0.00832051 0.117324 
-0.00832051 9.51284 -0.193601 
0.117324 -0.193601 10.1251 
9.64656 0.0882315 0.193784 
0.0882315 9.86281 -0.106843 
0.193784 -0.106843 10.0226 
9.83357 0.165291 0.0217493 
0.165291 9.77136 -0.278823 
0.0217493 -0.278823 9.96466 
9.92925 -0.066165 -0.019405 
-0.066165 9.5685 -0.0918307 
-0.019405 -0.0918307 10.0718 
9.90326 -0.140976 0.0384645 
-0.140976 9.85469 -0.0601743 
0.0384645 -0.0601743 9.81164 
10.1091 -0.0671533 -0.0939769 
-0.0671533 9.27491 0.0263126 
-0.0939769 0.0263126 10.1856 
METADATA
COMPONENT_NAMES
XX
XY
XZ
YX
YY
YZ
ZX
ZY
ZZ

