# vtk DataFile Version 3.0
vtk output
ASCII
DATASET UNSTRUCTURED_GRID
POINTS 10614 float
2.81864	1.10627	0	
2.75	1.20096	0	
2.70324	1.11275	0	
2.81323	0.414097	0	
2.91001	0.357804	0	
2.91458	0.454203	0	
2.905	1.96391	0	
2.84979	2.06272	0	
2.79949	1.97915	0	
0.0950001	1.96391	0	
0.2	1.98038	0	
0.150144	2.06273	0	
0.3	1.28756	0	
0.186477	1.29433	0	
0.25	1.20096	0	
2.70447	1.28964	0	
2.75	1.20096	0	
2.81896	1.29509	0	
0.0897949	1.05552	0	
0.186458	1.10941	0	
0.0866808	1.15065	0	
0.185884	1.80464	0	
0.0866025	1.85	0	
0.0893224	1.7521	0	
2.9134	1.85	0	
2.81421	1.80465	0	
2.91405	1.75321	0	
0.181703	0.597281	0	
0.251861	0.509753	0	
0.297436	0.595537	0	
2.91001	0.357804	0	
2.81323	0.414097	0	
2.8339	0.321029	0	
2.8506	2.24376	0	
2.90943	2.34082	0	
2.8009	2.33019	0	
2.51667	0.252595	0	
2.4	0.248334	0	
2.48539	0.167931	0	
2.48539	0.167931	0	
2.4	0.248334	0	
2.39708	0.152086	0	
2.01667	0.25268	0	
1.9235	0.247919	0	
1.9974	0.161722	0	
1.9974	0.161722	0	
1.9235	0.247919	0	
1.89002	0.165554	0	
1.45275	0.163189	0	
1.36513	0.16103	0	
1.4421	0.077765	0	
1.4421	0.077765	0	
1.36513	0.16103	0	
1.34134	0.0779261	0	
0.731982	0.081988	0	
0.65	0.161731	0	
0.646396	0.0660644	0	
0.752579	0.163165	0	
0.65	0.161731	0	
0.731982	0.081988	0	
2.84979	2.06272	0	
2.905	1.96391	0	
2.93249	2.05147	0	
0.0950001	1.96391	0	
0.150144	2.06273	0	
0.0673985	2.05145	0	
0.25	0.681347	0	
0.181703	0.597281	0	
0.297436	0.595537	0	
2.75214	1.37712	0	
2.70447	1.28964	0	
2.81896	1.29509	0	
2.7508	1.02621	0	
2.81864	1.10627	0	
2.70324	1.11275	0	
0.186458	1.10941	0	
0.0897949	1.05552	0	
0.166735	1.01677	0	
0.186477	1.29433	0	
0.3	1.28756	0	
0.25713	1.37519	0	
0.1	0	0	
0.2	0	0	
0.161796	0.0922337	0	
2.75	1.20096	0	
2.81864	1.10627	0	
2.84384	1.20056	0	
0.0875882	2.33733	0	
0.14219	2.24142	0	
0.190045	2.3295	0	
0.185884	1.80464	0	
0.0893224	1.7521	0	
0.165303	1.71227	0	
2.91405	1.75321	0	
2.81421	1.80465	0	
2.8412	1.69251	0	
2.90943	2.34082	0	
2.8506	2.24376	0	
2.93387	2.24722	0	
0.25	1.20096	0	
0.186477	1.29433	0	
0.159348	1.20076	0	
2.81896	1.29509	0	
2.75	1.20096	0	
2.84384	1.20056	0	
2.59639	0.176746	0	
2.68879	0.239262	0	
2.60037	0.268668	0	
2.4	0.248334	0	
2.3	0.173205	0	
2.39708	0.152086	0	
2.3	0.173205	0	
2.4	0.248334	0	
2.3	0.269041	0	
2.2	0.248334	0	
2.1	0.173205	0	
2.2	0.152543	0	
2.1	0.173205	0	
2.2	0.248334	0	
2.10333	0.269791	0	
1.7	0.34641	0	
1.78919	0.412709	0	
1.68919	0.42866	0	
1.14436	0.263222	0	
1.23919	0.325647	0	
1.14671	0.353826	0	
0.65	0.161731	0	
0.55	0.0866025	0	
0.646396	0.0660644	0	
0.55	0.0866025	0	
0.65	0.161731	0	
0.55	0.182394	0	
0.45	0.161731	0	
0.35	0.0866025	0	
0.45	0.0669873	0	
0.35	0.0866025	0	
0.45	0.161731	0	
0.352555	0.182608	0	
2.83952	0.0905932	0	
2.75524	0.162368	0	
2.74275	0.0777623	0	
2.51667	0.252595	0	
2.59639	0.176746	0	
2.60037	0.268668	0	
2.59639	0.176746	0	
2.51667	0.252595	0	
2.48539	0.167931	0	
2.2	0.248334	0	
2.3	0.173205	0	
2.3	0.269041	0	
2.3	0.173205	0	
2.2	0.248334	0	
2.2	0.152543	0	
2.01667	0.25268	0	
2.1	0.173205	0	
2.10333	0.269791	0	
2.1	0.173205	0	
2.01667	0.25268	0	
1.9974	0.161722	0	
1.53919	0.0958918	0	
1.45275	0.163189	0	
1.4421	0.077765	0	
1.14436	0.263222	0	
1.05	0.334936	0	
1.05164	0.242114	0	
1.05	0.334936	0	
1.14436	0.263222	0	
1.14671	0.353826	0	
0.989149	0.179188	0	
0.899369	0.241805	0	
0.899921	0.156712	0	
0.839315	0.093894	0	
0.752579	0.163165	0	
0.731982	0.081988	0	
0.45	0.161731	0	
0.55	0.0866025	0	
0.55	0.182394	0	
0.55	0.0866025	0	
0.45	0.161731	0	
0.45	0.0669873	0	
0.899369	0.241805	0	
0.989149	0.179188	0	
0.978327	0.263802	0	
0.752579	0.163165	0	
0.839315	0.093894	0	
0.833891	0.179624	0	
2.68879	0.239262	0	
2.59639	0.176746	0	
2.67729	0.155567	0	
1.78919	0.412709	0	
1.7	0.34641	0	
1.77945	0.325517	0	
1.23919	0.325647	0	
1.14436	0.263222	0	
1.2243	0.244972	0	
1.45275	0.163189	0	
1.53919	0.0958918	0	
1.52974	0.182838	0	
2.75524	0.162368	0	
2.83952	0.0905932	0	
2.83961	0.178517	0	
2.80156	2.15325	0	
2.90934	2.15154	0	
2.8506	2.24376	0	
0.247913	2.41439	0	
0.190045	2.3295	0	
0.297343	2.328	0	
2.79495	1.46024	0	
2.89923	1.45455	0	
2.83189	1.53692	0	
0.14219	2.24142	0	
0.0875882	2.33733	0	
0.06187	2.25	0	
0.1	0	0	
0.161796	0.0922337	0	
0.0732051	0.0732051	0	
0.206742	0.942296	0	
0.100424	0.946359	0	
0.167949	0.864915	0	
2.9001	0.945957	0	
2.79662	0.942542	0	
2.83205	0.864915	0	
0.08858	2.15128	0	
0.198719	2.15346	0	
0.14219	2.24142	0	
0.0866025	1.85	0	
0.185884	1.80464	0	
0.16148	1.89962	0	
2.81421	1.80465	0	
2.9134	1.85	0	
2.8385	1.89956	0	
0.08858	2.15128	0	
0.150144	2.06273	0	
0.198719	2.15346	0	
2.90934	2.15154	0	
2.80156	2.15325	0	
2.84979	2.06272	0	
0.348531	2.24111	0	
0.241187	2.24569	0	
0.298074	2.15464	0	
0.190045	2.3295	0	
0.241187	2.24569	0	
0.297343	2.328	0	
0.251861	0.509753	0	
0.181703	0.597281	0	
0.163512	0.495241	0	
2.89902	0.251072	0	
2.8	0.248334	0	
2.83961	0.178517	0	
2.8009	2.33019	0	
2.90943	2.34082	0	
2.84645	2.4175	0	
2.89923	1.45455	0	
2.91908	1.5574	0	
2.83189	1.53692	0	
2.8	0.248334	0	
2.89902	0.251072	0	
2.8339	0.321029	0	
0.0866808	1.15065	0	
0.186458	1.10941	0	
0.159348	1.20076	0	
2.78954	0.777547	0	
2.84603	0.693858	0	
2.86295	0.785858	0	
2.84603	0.693858	0	
2.92657	0.748203	0	
2.86295	0.785858	0	
0.241187	2.24569	0	
0.198719	2.15346	0	
0.298074	2.15464	0	
0.100424	0.946359	0	
0.0796603	0.844152	0	
0.167949	0.864915	0	
2.92056	0.844766	0	
2.9001	0.945957	0	
2.83205	0.864915	0	
0.241187	2.24569	0	
0.348531	2.24111	0	
0.297343	2.328	0	
0.100424	0.946359	0	
0.206742	0.942296	0	
0.166735	1.01677	0	
0.2	1.98038	0	
0.0950001	1.96391	0	
0.16148	1.89962	0	
2.905	1.96391	0	
2.79949	1.97915	0	
2.8385	1.89956	0	
2.81323	0.414097	0	
2.91458	0.454203	0	
2.84465	0.521642	0	
0.0992698	1.6456	0	
0.204861	1.63908	0	
0.165303	1.71227	0	
2.89923	1.45455	0	
2.79495	1.46024	0	
2.83574	1.3874	0	
2.79662	0.942542	0	
2.9001	0.945957	0	
2.83643	1.01669	0	
0.14219	2.24142	0	
0.198719	2.15346	0	
0.241187	2.24569	0	
0.204861	1.63908	0	
0.0992698	1.6456	0	
0.158405	1.57344	0	
0.166142	1.40241	0	
0.186477	1.29433	0	
0.25713	1.37519	0	
1.24572	0.0818857	0	
1.34134	0.0779261	0	
1.27841	0.162372	0	
1.68919	0.42866	0	
1.59572	0.42663	0	
1.6243	0.349772	0	
1.79567	0.168531	0	
1.89002	0.165554	0	
1.82792	0.247963	0	
2.64572	0.0818857	0	
2.74275	0.0777623	0	
2.67729	0.155567	0	
0.14219	2.24142	0	
0.241187	2.24569	0	
0.190045	2.3295	0	
2.8506	2.24376	0	
2.90934	2.15154	0	
2.93387	2.24722	0	
0.35	0.0866025	0	
0.257408	0.160839	0	
0.253841	0.0679351	0	
0.257408	0.160839	0	
0.305366	0.253288	0	
0.22487	0.254945	0	
0.190045	2.3295	0	
0.247913	2.41439	0	
0.152907	2.41774	0	
2.92086	1.65219	0	
2.8412	1.69251	0	
2.86133	1.60691	0	
0.7	2.15359	0	
0.75	2.24019	0	
0.65	2.24019	0	
0.7	2.15359	0	
0.8	2.15359	0	
0.75	2.24019	0	
0.298074	2.15464	0	
0.350002	2.06699	0	
0.399435	2.15392	0	
0.8	2.15359	0	
0.7	2.15359	0	
0.75	2.06699	0	
0.247913	2.41439	0	
0.297343	2.328	0	
0.349435	2.41366	0	
0.5	2.5	0	
0.4	2.5	0	
0.45	2.4134	0	
0.348531	2.24111	0	
0.298074	2.15464	0	
0.399435	2.15392	0	
0.45	2.06699	0	
0.350002	2.06699	0	
0.400021	1.98038	0	
0.85	2.06699	0	
0.8	2.15359	0	
0.75	2.06699	0	
1	2.5	0	
0.9	2.5	0	
0.95	2.4134	0	
0.350002	2.06699	0	
0.45	2.06699	0	
0.399435	2.15392	0	
0.5	2.5	0	
0.45	2.4134	0	
0.55	2.4134	0	
0.3	2.5	0	
0.247913	2.41439	0	
0.349435	2.41366	0	
0.8	1.98038	0	
0.85	2.06699	0	
0.75	2.06699	0	
0.9	2.5	0	
0.8	2.5	0	
0.85	2.4134	0	
0.45	2.06699	0	
0.400021	1.98038	0	
0.500009	1.98038	0	
0.85	2.06699	0	
0.8	1.98038	0	
0.9	1.98038	0	
0.400021	1.98038	0	
0.450033	1.89377	0	
0.500009	1.98038	0	
0.8	2.5	0	
0.75	2.4134	0	
0.85	2.4134	0	
0.500025	1.80717	0	
0.55	1.72058	0	
0.600005	1.80718	0	
0.6	2.15359	0	
0.7	2.15359	0	
0.65	2.24019	0	
1.05	1.72058	0	
1	1.80718	0	
0.95	1.72058	0	
0.95	1.89378	0	
0.9	1.98038	0	
0.85	1.89378	0	
1.15	2.4134	0	
1.1	2.5	0	
1.05	2.4134	0	
0.55	2.24019	0	
0.6	2.15359	0	
0.65	2.24019	0	
0.9	1.98038	0	
0.8	1.98038	0	
0.85	1.89378	0	
1.25	1.54737	0	
1.2	1.63397	0	
1.15	1.54737	0	
1.25	1.54737	0	
1.3	1.63397	0	
1.2	1.63397	0	
1.3	1.63397	0	
1.25	1.54737	0	
1.35	1.54737	0	
0.55	2.4134	0	
0.45	2.4134	0	
0.5	2.32679	0	
0.55	1.89378	0	
0.450033	1.89377	0	
0.500025	1.80717	0	
1.4	1.63397	0	
1.3	1.63397	0	
1.35	1.54737	0	
1.45	1.54737	0	
1.4	1.63397	0	
1.35	1.54737	0	
0.450033	1.89377	0	
0.55	1.89378	0	
0.500009	1.98038	0	
0.95	2.4134	0	
0.9	2.5	0	
0.85	2.4134	0	
1.05	1.54737	0	
1.15	1.54737	0	
1.1	1.63397	0	
0.9	1.80718	0	
0.95	1.89378	0	
0.85	1.89378	0	
0.7	1.63397	0	
0.75	1.72058	0	
0.650004	1.72058	0	
0.95	1.89378	0	
0.9	1.80718	0	
1	1.80718	0	
2.65	1.20096	0	
2.55	1.20096	0	
2.6	1.11436	0	
1.9	1.63397	0	
1.8	1.63397	0	
1.85	1.54737	0	
1	1.80718	0	
0.9	1.80718	0	
0.95	1.72058	0	
2.70004	0.594377	0	
2.75033	0.505889	0	
2.79333	0.595517	0	
0.600022	1.63397	0	
0.7	1.63397	0	
0.650004	1.72058	0	
1.55	1.89378	0	
1.45	1.89378	0	
1.5	1.80718	0	
1.75	1.54737	0	
1.8	1.63397	0	
1.7	1.63397	0	
1.75	1.54737	0	
1.7	1.63397	0	
1.65	1.54737	0	
1.65	1.72058	0	
1.6	1.80718	0	
1.55	1.72058	0	
0.55	1.89378	0	
0.500025	1.80717	0	
0.600005	1.80718	0	
1.55	1.72058	0	
1.6	1.80718	0	
1.5	1.80718	0	
2.65	1.20096	0	
2.6	1.11436	0	
2.70324	1.11275	0	
1.1	1.46077	0	
1.2	1.46077	0	
1.15	1.54737	0	
1.65	1.72058	0	
1.75	1.72058	0	
1.7	1.80718	0	
1.2	1.46077	0	
1.25	1.54737	0	
1.15	1.54737	0	
1.8	1.63397	0	
1.75	1.54737	0	
1.85	1.54737	0	
1.55	1.54737	0	
1.6	1.63397	0	
1.5	1.63397	0	
0.699275	0.248935	0	
0.795647	0.249698	0	
0.749039	0.33533	0	
2.75	1.20096	0	
2.65	1.20096	0	
2.70324	1.11275	0	
1.8573	0.333096	0	
1.95	0.335446	0	
1.89958	0.420463	0	
1.14929	0.0858164	0	
1.24572	0.0818857	0	
1.19755	0.171679	0	
0.795647	0.249698	0	
0.699275	0.248935	0	
0.752579	0.163165	0	
2.75033	0.505889	0	
2.70004	0.594377	0	
2.65006	0.507778	0	
0.795647	0.249698	0	
0.849311	0.335334	0	
0.749039	0.33533	0	
1	1.63397	0	
1.05	1.72058	0	
0.95	1.72058	0	
2.6	0.421539	0	
2.7	0.421975	0	
2.65006	0.507778	0	
1	0	0	
1.1	0	0	
1.05	0.0866025	0	
0.8	2.15359	0	
0.85	2.24019	0	
0.75	2.24019	0	
1	1.63397	0	
1.05	1.54737	0	
1.1	1.63397	0	
1.05	1.72058	0	
1	1.63397	0	
1.1	1.63397	0	
3	1	0	
3	1.1	0	
2.915	1.05278	0	
1.2	2.15359	0	
1.15	2.24019	0	
1.1	2.15359	0	
0.9	2.15359	0	
0.85	2.24019	0	
0.8	2.15359	0	
0.75	1.72058	0	
0.7	1.80718	0	
0.650004	1.72058	0	
1.05	1.89378	0	
1.1	1.80718	0	
1.15	1.89378	0	
2.55	1.20096	0	
2.45	1.20096	0	
2.5	1.11436	0	
1.1	2.5	0	
1	2.5	0	
1.05	2.4134	0	
1.09947	0.170575	0	
1.19755	0.171679	0	
1.14436	0.263222	0	
2.05	1.54737	0	
1.95	1.54737	0	
2	1.46077	0	
1.14929	0.0858164	0	
1.19755	0.171679	0	
1.09947	0.170575	0	
0.749039	0.33533	0	
0.849311	0.335334	0	
0.799725	0.421671	0	
1.15	1.54737	0	
1.2	1.63397	0	
1.1	1.63397	0	
1.45	1.89378	0	
1.4	1.80718	0	
1.5	1.80718	0	
1.2	0	0	
1.24572	0.0818857	0	
1.14929	0.0858164	0	
1.6	1.80718	0	
1.55	1.89378	0	
1.5	1.80718	0	
0.7	1.63397	0	
0.600022	1.63397	0	
0.650016	1.54737	0	
1.6	1.80718	0	
1.65	1.72058	0	
1.7	1.80718	0	
1.4	1.63397	0	
1.45	1.54737	0	
1.5	1.63397	0	
1.6	1.46077	0	
1.7	1.46077	0	
1.65	1.54737	0	
3	1.2	0	
2.91549	1.25	0	
2.91611	1.15046	0	
0.55	1.72058	0	
0.500025	1.80717	0	
0.450065	1.72058	0	
1.7	1.46077	0	
1.75	1.54737	0	
1.65	1.54737	0	
0.650016	1.54737	0	
0.7	1.46077	0	
0.750003	1.54737	0	
0.40012	1.80715	0	
0.350181	1.72065	0	
0.450065	1.72058	0	
1.95	1.54737	0	
1.9	1.46077	0	
2	1.46077	0	
0.9	2.15359	0	
0.95	2.24019	0	
0.85	2.24019	0	
0.8	1.46077	0	
0.7	1.46077	0	
0.75	1.37417	0	
2.7	0.421975	0	
2.75033	0.505889	0	
2.65006	0.507778	0	
2.4	0	0	
2.5	0	0	
2.45	0.0866025	0	
1.15	2.24019	0	
1.05	2.24019	0	
1.1	2.15359	0	
1.7	1.63397	0	
1.75	1.72058	0	
1.65	1.72058	0	
2.45	0.854552	0	
2.4	0.941154	0	
2.35	0.854552	0	
0.9	0	0	
1	0	0	
0.946411	0.0865707	0	
2.55	0.508142	0	
2.6	0.421539	0	
2.65006	0.507778	0	
2.6	1.11436	0	
2.55	1.20096	0	
2.5	1.11436	0	
0.699275	0.248935	0	
0.65	0.161731	0	
0.752579	0.163165	0	
1.1	1.80718	0	
1.2	1.80718	0	
1.15	1.89378	0	
3	0.9	0	
3	1	0	
2.9001	0.945957	0	
2.6	0	0	
2.64572	0.0818857	0	
2.54929	0.0835721	0	
1	2.5	0	
0.95	2.4134	0	
1.05	2.4134	0	
2.74992	0.681395	0	
2.84603	0.693858	0	
2.78954	0.777547	0	
1.15	2.06699	0	
1.2	2.15359	0	
1.1	2.15359	0	
0.7	1.46077	0	
0.65	1.37417	0	
0.75	1.37417	0	
0.3	2.5	0	
0.2	2.5	0	
0.247913	2.41439	0	
0.7	2.15359	0	
0.65	2.06699	0	
0.75	2.06699	0	
2.45	0.0866025	0	
2.5	0	0	
2.54929	0.0835721	0	
2.6995	0.768237	0	
2.65	0.681347	0	
2.74992	0.681395	0	
2.6	0.767949	0	
2.65	0.681347	0	
2.6995	0.768237	0	
0.250002	2.06699	0	
0.350002	2.06699	0	
0.298074	2.15464	0	
0.350002	2.06699	0	
0.300013	1.98038	0	
0.400021	1.98038	0	
2.4	0	0	
2.45	0.0866025	0	
2.35	0.0843583	0	
0.7	1.63397	0	
0.650016	1.54737	0	
0.750003	1.54737	0	
2.15	1.37417	0	
2.05	1.37417	0	
2.1	1.28756	0	
0.500025	1.80717	0	
0.40012	1.80715	0	
0.450065	1.72058	0	
1.1	0.594744	0	
1.15	0.681347	0	
1.05	0.681347	0	
0.5	0.251326	0	
0.4	0.250578	0	
0.45	0.161731	0	
1.8	0.941154	0	
1.75	0.854552	0	
1.85	0.854553	0	
2.6995	0.768237	0	
2.74992	0.681395	0	
2.78954	0.777547	0	
0.85	2.06699	0	
0.9	2.15359	0	
0.8	2.15359	0	
2.54929	0.0835721	0	
2.64572	0.0818857	0	
2.59639	0.176746	0	
2.5	0	0	
2.6	0	0	
2.54929	0.0835721	0	
0.95	2.06699	0	
1	2.15359	0	
0.9	2.15359	0	
1.05	0.0866025	0	
1.09947	0.170575	0	
0.989149	0.179188	0	
0.9	0.421539	0	
0.85	0.508142	0	
0.799725	0.421671	0	
1.45	2.24019	0	
1.35	2.24019	0	
1.4	2.15359	0	
0.45	0.334936	0	
0.4	0.250578	0	
0.5	0.251326	0	
1.95	1.54737	0	
1.9	1.63397	0	
1.85	1.54737	0	
0.165192	0.201576	0	
0.161796	0.0922337	0	
0.257408	0.160839	0	
0.300013	1.98038	0	
0.350077	1.89375	0	
0.400021	1.98038	0	
0.198719	2.15346	0	
0.250002	2.06699	0	
0.298074	2.15464	0	
0.839315	0.093894	0	
0.9	0	0	
0.946411	0.0865707	0	
1.5	2.15359	0	
1.45	2.24019	0	
1.4	2.15359	0	
1.05	1.72058	0	
1.1	1.80718	0	
1	1.80718	0	
2.2	2.15359	0	
2.15	2.24019	0	
2.1	2.15359	0	
0	2.2	0	
0	2.1	0	
0.08858	2.15128	0	
2.55	0.508142	0	
2.65006	0.507778	0	
2.6	0.594744	0	
2.65006	0.507778	0	
2.70004	0.594377	0	
2.6	0.594744	0	
0.9	2.15359	0	
1	2.15359	0	
0.95	2.24019	0	
0.849311	0.335334	0	
0.9	0.421539	0	
0.799725	0.421671	0	
0.0851327	0.35	0	
0	0.3	0	
0.0845156	0.250645	0	
2.35	0.854552	0	
2.3	0.767949	0	
2.4	0.767949	0	
2.05	1.54737	0	
2.1	1.46077	0	
2.15	1.54737	0	
1.65	1.54737	0	
1.7	1.63397	0	
1.6	1.63397	0	
0	1.7	0	
0.0992698	1.6456	0	
0.0893224	1.7521	0	
1.75	0.681422	0	
1.8	0.76796	0	
1.7	0.76796	0	
2.4	0.941154	0	
2.5	0.941154	0	
2.45	1.02776	0	
0.250002	2.06699	0	
0.300013	1.98038	0	
0.350002	2.06699	0	
0.95	2.06699	0	
1.05	2.06699	0	
1	2.15359	0	
2.45	0.854552	0	
2.35	0.854552	0	
2.4	0.767949	0	
0.799725	0.421671	0	
0.749954	0.508164	0	
0.699786	0.42163	0	
2.7	0.941154	0	
2.74701	0.856279	0	
2.79662	0.942542	0	
1.45	1.54737	0	
1.55	1.54737	0	
1.5	1.63397	0	
0.7	0.594744	0	
0.65	0.508142	0	
0.749954	0.508164	0	
2.2	1.28756	0	
2.25	1.20096	0	
2.3	1.28756	0	
2.7	0.421975	0	
2.74721	0.333837	0	
2.81323	0.414097	0	
1.45	0.854552	0	
1.4	0.941154	0	
1.35	0.854552	0	
2.5	0.594744	0	
2.55	0.508142	0	
2.6	0.594744	0	
0.749039	0.33533	0	
0.799725	0.421671	0	
0.699786	0.42163	0	
0.7	1.28756	0	
0.65	1.37417	0	
0.6	1.28756	0	
0.65	1.37417	0	
0.7	1.28756	0	
0.75	1.37417	0	
0.0845156	0.250645	0	
0.0843696	0.153868	0	
0.165192	0.201576	0	
0.25	1.89378	0	
0.350077	1.89375	0	
0.300013	1.98038	0	
0.550072	1.54737	0	
0.50003	1.46076	0	
0.6	1.46077	0	
1.1	1.98038	0	
1.15	2.06699	0	
1.05	2.06699	0	
1.2	1.98038	0	
1.25	2.06699	0	
1.15	2.06699	0	
0.4	2.32679	0	
0.45	2.4134	0	
0.349435	2.41366	0	
1.35	1.02776	0	
1.3	0.941154	0	
1.4	0.941154	0	
1.15	1.72058	0	
1.2	1.80718	0	
1.1	1.80718	0	
2.74701	0.856279	0	
2.65	0.854552	0	
2.6995	0.768237	0	
0.25	1.89378	0	
0.300459	1.80698	0	
0.350077	1.89375	0	
2.74992	0.681395	0	
2.79333	0.595517	0	
2.84603	0.693858	0	
1	1.98038	0	
1.05	2.06699	0	
0.95	2.06699	0	
2.92056	0.844766	0	
3	0.9	0	
2.9001	0.945957	0	
2.5	2.15359	0	
2.45	2.24019	0	
2.4	2.15359	0	
2.1	1.46077	0	
2.05	1.54737	0	
2	1.46077	0	
1.15	1.72058	0	
1.25	1.72058	0	
1.2	1.80718	0	
1	0.594744	0	
1.1	0.594744	0	
1.05	0.681347	0	
0.350181	1.72065	0	
0.4	1.63397	0	
0.450065	1.72058	0	
2.6	0.421539	0	
2.65	0.337555	0	
2.7	0.421975	0	
0.899369	0.241805	0	
0.849311	0.335334	0	
0.795647	0.249698	0	
0.55	1.02776	0	
0.5	0.941154	0	
0.6	0.941154	0	
0	2	0	
0	1.9	0	
0.0950001	1.96391	0	
1.1	1.46077	0	
1.15	1.54737	0	
1.05	1.54737	0	
2.65	0.854552	0	
2.6	0.767949	0	
2.6995	0.768237	0	
2.65	1.02776	0	
2.7508	1.02621	0	
2.70324	1.11275	0	
1.8	1.11436	0	
1.85	1.20096	0	
1.75	1.20096	0	
2.15	2.24019	0	
2.05	2.24019	0	
2.1	2.15359	0	
1.35	1.02776	0	
1.3	1.11436	0	
1.25	1.02776	0	
2.7	0.941154	0	
2.65	0.854552	0	
2.74701	0.856279	0	
2.45	2.24019	0	
2.35	2.24019	0	
2.4	2.15359	0	
1.75	1.89378	0	
1.65	1.89378	0	
1.7	1.80718	0	
0.699275	0.248935	0	
0.6	0.250578	0	
0.65	0.161731	0	
1.2	1.98038	0	
1.15	2.06699	0	
1.1	1.98038	0	
2.25	0.0836102	0	
2.35	0.0843583	0	
2.3	0.173205	0	
2.15	0.0843583	0	
2.2	0	0	
2.25	0.0836102	0	
3	0.2	0	
3	0.3	0	
2.89902	0.251072	0	
2.70004	0.594377	0	
2.65	0.681347	0	
2.6	0.594744	0	
2.74701	0.856279	0	
2.6995	0.768237	0	
2.78954	0.777547	0	
0.2	1.98038	0	
0.300013	1.98038	0	
0.250002	2.06699	0	
2.3	0	0	
2.4	0	0	
2.35	0.0843583	0	
2.45	0.681347	0	
2.5	0.594744	0	
2.55	0.681347	0	
2.6	0.767949	0	
2.55	0.681347	0	
2.65	0.681347	0	
1	0	0	
1.05	0.0866025	0	
0.946411	0.0865707	0	
2.7	0.421975	0	
2.65	0.337555	0	
2.74721	0.333837	0	
1.25	1.02776	0	
1.3	1.11436	0	
1.2	1.11436	0	
0.0950001	1.96391	0	
0	1.9	0	
0.0866025	1.85	0	
2.35	0.681347	0	
2.4	0.594744	0	
2.45	0.681347	0	
1.5	2.15359	0	
1.45	2.06699	0	
1.55	2.06699	0	
0.8	0.594744	0	
0.7	0.594744	0	
0.749954	0.508164	0	
0.165192	0.201576	0	
0.0843696	0.153868	0	
0.161796	0.0922337	0	
2.45	0.681347	0	
2.4	0.594744	0	
2.5	0.594744	0	
1.6	2.15359	0	
1.5	2.15359	0	
1.55	2.06699	0	
0.6	0.421539	0	
0.5	0.421539	0	
0.55	0.334936	0	
0.350077	1.89375	0	
0.450033	1.89377	0	
0.400021	1.98038	0	
2.2	1.98038	0	
2.15	2.06699	0	
2.1	1.98038	0	
0.084544	0.55	0	
0	0.5	0	
0.083956	0.45	0	
0	0.2	0	
0.0843696	0.153868	0	
0.0845156	0.250645	0	
1.2	0.421539	0	
1.25	0.508142	0	
1.15	0.508578	0	
0.083956	0.45	0	
0.0851327	0.35	0	
0.162652	0.397176	0	
2.55	2.06699	0	
2.5	2.15359	0	
2.45	2.06699	0	
2.74992	0.681395	0	
2.70004	0.594377	0	
2.79333	0.595517	0	
0.799725	0.421671	0	
0.85	0.508142	0	
0.749954	0.508164	0	
2.2	0.421539	0	
2.25	0.337555	0	
2.3	0.421975	0	
2.4	0.941154	0	
2.45	0.854552	0	
2.5	0.941154	0	
0.7	1.46077	0	
0.8	1.46077	0	
0.750003	1.54737	0	
0	0.2	0	
0	0.1	0	
0.0843696	0.153868	0	
0.9	1.63397	0	
1	1.63397	0	
0.95	1.72058	0	
1.3	0.941154	0	
1.35	1.02776	0	
1.25	1.02776	0	
1.3	0.421539	0	
1.35	0.508142	0	
1.25	0.508142	0	
2.8	0	0	
2.9	0	0	
2.83952	0.0905932	0	
0.65	0.508142	0	
0.55	0.508142	0	
0.6	0.421539	0	
2.15	2.06699	0	
2.05	2.06699	0	
2.1	1.98038	0	
0.65	0.334936	0	
0.55	0.334936	0	
0.6	0.250578	0	
2.7	0.421975	0	
2.81323	0.414097	0	
2.75033	0.505889	0	
1.6	1.98038	0	
1.7	1.98038	0	
1.65	2.06699	0	
2.74992	0.681395	0	
2.65	0.681347	0	
2.70004	0.594377	0	
0.749954	0.508164	0	
0.65	0.508142	0	
0.699786	0.42163	0	
2.3	0	0	
2.35	0.0843583	0	
2.25	0.0836102	0	
1.25	0.508142	0	
1.35	0.508142	0	
1.3	0.594744	0	
2.25	1.89378	0	
2.2	1.98038	0	
2.15	1.89378	0	
3	2.3	0	
3	2.4	0	
2.90943	2.34082	0	
1.78919	0.412709	0	
1.8573	0.333096	0	
1.89958	0.420463	0	
0.300459	1.80698	0	
0.350181	1.72065	0	
0.40012	1.80715	0	
2.45	2.06699	0	
2.5	2.15359	0	
2.4	2.15359	0	
1.9	0.941154	0	
1.8	0.941154	0	
1.85	0.854553	0	
0.85	0.508142	0	
0.8	0.594744	0	
0.749954	0.508164	0	
1.6997	0.173463	0	
1.65765	0.260725	0	
1.60722	0.176328	0	
1.85	1.72058	0	
1.8	1.80718	0	
1.75	1.72058	0	
2.6	1.11436	0	
2.65	1.02776	0	
2.70324	1.11275	0	
1.25	1.72058	0	
1.3	1.80718	0	
1.2	1.80718	0	
1.4	0.941154	0	
1.3	0.941154	0	
1.35	0.854552	0	
0.95	2.06699	0	
0.9	2.15359	0	
0.85	2.06699	0	
0.945867	0.337323	0	
0.849311	0.335334	0	
0.899369	0.241805	0	
1.3	1.80718	0	
1.25	1.89378	0	
1.2	1.80718	0	
1.6997	0.173463	0	
1.79567	0.168531	0	
1.74757	0.258329	0	
1.65765	0.260725	0	
1.74757	0.258329	0	
1.7	0.34641	0	
0.252575	1.7193	0	
0.350181	1.72065	0	
0.300459	1.80698	0	
3	1.9	0	
2.905	1.96391	0	
2.9134	1.85	0	
1.5	1.63397	0	
1.55	1.72058	0	
1.45	1.72058	0	
2.92086	1.65219	0	
3	1.7	0	
2.91405	1.75321	0	
2.4	0.941154	0	
2.3	0.941154	0	
2.35	0.854552	0	
1.9	0	0	
1.95	0.0866025	0	
1.84928	0.0835793	0	
1.2	0.594744	0	
1.25	0.508142	0	
1.3	0.594744	0	
0.55	0.334936	0	
0.45	0.334936	0	
0.5	0.251326	0	
1.45	2.06699	0	
1.5	2.15359	0	
1.4	2.15359	0	
0.45	0.334936	0	
0.35	0.334936	0	
0.4	0.250578	0	
1.15	1.72058	0	
1.1	1.80718	0	
1.05	1.72058	0	
1.65	1.89378	0	
1.6	1.80718	0	
1.7	1.80718	0	
1.05	0.0866025	0	
1.14929	0.0858164	0	
1.09947	0.170575	0	
3	1	0	
2.915	1.05278	0	
2.9001	0.945957	0	
0.450371	1.54735	0	
0.400249	1.46063	0	
0.50003	1.46076	0	
1.8	1.80718	0	
1.75	1.89378	0	
1.7	1.80718	0	
0.95	1.89378	0	
1	1.98038	0	
0.9	1.98038	0	
0.185884	1.80464	0	
0.300459	1.80698	0	
0.25	1.89378	0	
0.6	0.250578	0	
0.55	0.334936	0	
0.5	0.251326	0	
2.2	0.941154	0	
2.15	0.854552	0	
2.25	0.854552	0	
2.05	1.37417	0	
2	1.28756	0	
2.1	1.28756	0	
2.15	1.89378	0	
2.2	1.98038	0	
2.1	1.98038	0	
2.25	1.37417	0	
2.2	1.28756	0	
2.3	1.28756	0	
2.25	1.72058	0	
2.15	1.72058	0	
2.2	1.63397	0	
0.6	0.421539	0	
0.55	0.334936	0	
0.65	0.334936	0	
2.05	1.54737	0	
2.15	1.54737	0	
2.1	1.63397	0	
1.75	2.06699	0	
1.8	2.15359	0	
1.7	2.15359	0	
2.1	1.11436	0	
2.05	1.02776	0	
2.15	1.02776	0	
0.550072	1.54737	0	
0.450371	1.54735	0	
0.50003	1.46076	0	
1.25	1.89378	0	
1.3	1.98038	0	
1.2	1.98038	0	
0.351979	1.54739	0	
0.450371	1.54735	0	
0.4	1.63397	0	
0.7	0.594744	0	
0.6	0.594744	0	
0.65	0.508142	0	
0.500062	1.63397	0	
0.600022	1.63397	0	
0.55	1.72058	0	
2.91549	1.25	0	
2.9134	1.35	0	
2.81896	1.29509	0	
0.95	0.508142	0	
0.85	0.508142	0	
0.9	0.421539	0	
1.6482	0.0881508	0	
1.75	0.0866025	0	
1.6997	0.173463	0	
2.5	0.941154	0	
2.55	1.02776	0	
2.45	1.02776	0	
0	0.4	0	
0	0.3	0	
0.0851327	0.35	0	
0	0.4	0	
0.0851327	0.35	0	
0.083956	0.45	0	
1.1	1.98038	0	
1.05	2.06699	0	
1	1.98038	0	
2.2	1.80718	0	
2.3	1.80718	0	
2.25	1.89378	0	
1.65	2.06699	0	
1.6	2.15359	0	
1.55	2.06699	0	
0.85	0.681347	0	
0.75	0.681347	0	
0.8	0.594744	0	
0.50003	1.46076	0	
0.55	1.37417	0	
0.6	1.46077	0	
2.5	0.767949	0	
2.55	0.681347	0	
2.6	0.767949	0	
0.150144	2.06273	0	
0.250002	2.06699	0	
0.198719	2.15346	0	
0.65	0.334936	0	
0.6	0.250578	0	
0.699275	0.248935	0	
0.0846868	0.648216	0	
0.084544	0.55	0	
0.181703	0.597281	0	
1.8	1.80718	0	
1.85	1.72058	0	
1.9	1.80718	0	
0.65	2.06699	0	
0.7	1.98038	0	
0.75	2.06699	0	
1.2	1.98038	0	
1.1	1.98038	0	
1.15	1.89378	0	
1.1	1.98038	0	
1.05	1.89378	0	
1.15	1.89378	0	
1.95	1.89378	0	
1.85	1.89378	0	
1.9	1.80718	0	
1.6997	0.173463	0	
1.74757	0.258329	0	
1.65765	0.260725	0	
0.350077	1.89375	0	
0.40012	1.80715	0	
0.450033	1.89377	0	
1.35	1.89378	0	
1.25	1.89378	0	
1.3	1.80718	0	
0.4	1.63397	0	
0.450371	1.54735	0	
0.500062	1.63397	0	
0.350077	1.89375	0	
0.300459	1.80698	0	
0.40012	1.80715	0	
0	1.8	0	
0	1.7	0	
0.0893224	1.7521	0	
1.8	0.76796	0	
1.75	0.854552	0	
1.7	0.76796	0	
2.3	1.63397	0	
2.25	1.72058	0	
2.2	1.63397	0	
1.6997	0.173463	0	
1.75	0.0866025	0	
1.79567	0.168531	0	
2	1.11436	0	
2.05	1.02776	0	
2.1	1.11436	0	
2.5	0.594744	0	
2.45	0.508142	0	
2.55	0.508142	0	
0.500062	1.63397	0	
0.55	1.72058	0	
0.450065	1.72058	0	
0.85	1.02776	0	
0.8	1.11436	0	
0.75	1.02776	0	
2.1	1.46077	0	
2.2	1.46077	0	
2.15	1.54737	0	
2.15	1.54737	0	
2.2	1.63397	0	
2.1	1.63397	0	
0.9	0.767949	0	
0.8	0.767949	0	
0.85	0.681347	0	
2.55	0.508142	0	
2.5	0.421539	0	
2.6	0.421539	0	
0.6	1.46077	0	
0.7	1.46077	0	
0.650016	1.54737	0	
1.6482	0.0881508	0	
1.6997	0.173463	0	
1.60722	0.176328	0	
1.2	1.63397	0	
1.25	1.72058	0	
1.15	1.72058	0	
0.0866025	1.85	0	
0	1.8	0	
0.0893224	1.7521	0	
0.6	2.15359	0	
0.65	2.06699	0	
0.7	2.15359	0	
2.35	1.37417	0	
2.25	1.37417	0	
2.3	1.28756	0	
1.1	0.423783	0	
1.2	0.421539	0	
1.15	0.508578	0	
1.75	1.72058	0	
1.8	1.80718	0	
1.7	1.80718	0	
2.1	0.941154	0	
2.15	0.854552	0	
2.2	0.941154	0	
1.8	2.15359	0	
1.75	2.06699	0	
1.85	2.06699	0	
0	0.6	0	
0.084544	0.55	0	
0.0846868	0.648216	0	
0.4	1.63397	0	
0.500062	1.63397	0	
0.450065	1.72058	0	
0.351979	1.54739	0	
0.400249	1.46063	0	
0.450371	1.54735	0	
1.6	1.46077	0	
1.65	1.54737	0	
1.55	1.54737	0	
2.7	2.15359	0	
2.75026	2.24014	0	
2.65004	2.24018	0	
2.05	0.0839842	0	
2.15	0.0843583	0	
2.1	0.173205	0	
0.301089	1.63442	0	
0.4	1.63397	0	
0.350181	1.72065	0	
1.6	1.98038	0	
1.65	2.06699	0	
1.55	2.06699	0	
2.55	2.06699	0	
2.6	2.15359	0	
2.5	2.15359	0	
2.35	0.681347	0	
2.3	0.594744	0	
2.4	0.594744	0	
0.65	1.37417	0	
0.55	1.37417	0	
0.6	1.28756	0	
0.55	0.334936	0	
0.5	0.421539	0	
0.45	0.334936	0	
2.5	2.15359	0	
2.55	2.24019	0	
2.45	2.24019	0	
0.307076	1.45838	0	
0.400249	1.46063	0	
0.351979	1.54739	0	
1.7	1.98038	0	
1.75	2.06699	0	
1.65	2.06699	0	
0.65	1.20096	0	
0.7	1.28756	0	
0.6	1.28756	0	
1.8	0	0	
1.9	0	0	
1.84928	0.0835793	0	
2.3	1.80718	0	
2.35	1.89378	0	
2.25	1.89378	0	
1.85	1.89378	0	
1.8	1.80718	0	
1.9	1.80718	0	
2.3	0.767949	0	
2.25	0.681347	0	
2.35	0.681347	0	
2.25	0.854552	0	
2.3	0.767949	0	
2.35	0.854552	0	
3	1.9	0	
3	2	0	
2.905	1.96391	0	
3	2.1	0	
3	2.2	0	
2.90934	2.15154	0	
2.6	0	0	
2.7	0	0	
2.64572	0.0818857	0	
2.5	2.15359	0	
2.6	2.15359	0	
2.55	2.24019	0	
2.65	0.681347	0	
2.55	0.681347	0	
2.6	0.594744	0	
0.55	1.20096	0	
0.65	1.20096	0	
0.6	1.28756	0	
0	0.3	0	
0	0.2	0	
0.0845156	0.250645	0	
2.25	0.854552	0	
2.2	0.767949	0	
2.3	0.767949	0	
0.945867	0.337323	0	
0.9	0.421539	0	
0.849311	0.335334	0	
1.35	0.334936	0	
1.23919	0.325647	0	
1.3063	0.246344	0	
1.6	0.594744	0	
1.65	0.681422	0	
1.55	0.681359	0	
2.2	1.80718	0	
2.25	1.89378	0	
2.15	1.89378	0	
1.53919	0.0958918	0	
1.6482	0.0881508	0	
1.60722	0.176328	0	
1.2	1.80718	0	
1.25	1.89378	0	
1.15	1.89378	0	
2.75026	2.24014	0	
2.8506	2.24376	0	
2.8009	2.33019	0	
2.25	1.37417	0	
2.2	1.46077	0	
2.15	1.37417	0	
2.89923	1.45455	0	
3	1.5	0	
2.91908	1.5574	0	
0.9	1.11436	0	
0.8	1.11436	0	
0.85	1.02776	0	
0.6	0.421539	0	
0.55	0.508142	0	
0.5	0.421539	0	
0.6	0.421539	0	
0.65	0.334936	0	
0.699786	0.42163	0	
0.45	1.37417	0	
0.55	1.37417	0	
0.50003	1.46076	0	
1.35	1.89378	0	
1.3	1.98038	0	
1.25	1.89378	0	
2.35	1.37417	0	
2.3	1.46077	0	
2.25	1.37417	0	
1.6	1.63397	0	
1.55	1.72058	0	
1.5	1.63397	0	
2.15	2.06699	0	
2.2	2.15359	0	
2.1	2.15359	0	
2.15	1.37417	0	
2.1	1.46077	0	
2.05	1.37417	0	
1.15	2.06699	0	
1.25	2.06699	0	
1.2	2.15359	0	
2.55	0.681347	0	
2.5	0.594744	0	
2.6	0.594744	0	
2.55	0.854552	0	
2.6	0.767949	0	
2.65	0.854552	0	
1.2	2.15359	0	
1.25	2.24019	0	
1.15	2.24019	0	
2.35	1.37417	0	
2.4	1.46077	0	
2.3	1.46077	0	
2	1.80718	0	
1.95	1.89378	0	
1.9	1.80718	0	
2.6	0.421539	0	
2.55	0.337181	0	
2.65	0.337555	0	
2.15	0.508142	0	
2.1	0.594744	0	
2.05	0.508214	0	
1.6	1.63397	0	
1.7	1.63397	0	
1.65	1.72058	0	
2.25	1.54737	0	
2.3	1.63397	0	
2.2	1.63397	0	
2.1	0.941154	0	
2.05	0.854552	0	
2.15	0.854552	0	
1.05	2.06699	0	
1.15	2.06699	0	
1.1	2.15359	0	
3	1.8	0	
2.9134	1.85	0	
2.91405	1.75321	0	
2.05	1.02776	0	
2	0.941154	0	
2.1	0.941154	0	
2.25	1.20096	0	
2.35	1.20096	0	
2.3	1.28756	0	
2.3	1.63397	0	
2.35	1.72058	0	
2.25	1.72058	0	
2.6	1.28756	0	
2.55	1.20096	0	
2.65	1.20096	0	
0.6	1.46077	0	
0.65	1.37417	0	
0.7	1.46077	0	
0	0.6	0	
0	0.5	0	
0.084544	0.55	0	
0.45	1.37417	0	
0.5	1.28756	0	
0.55	1.37417	0	
2.2	0.941154	0	
2.25	0.854552	0	
2.3	0.941154	0	
2.3	0.941154	0	
2.25	0.854552	0	
2.35	0.854552	0	
2.35	1.54737	0	
2.4	1.63397	0	
2.3	1.63397	0	
2.3	1.46077	0	
2.2	1.46077	0	
2.25	1.37417	0	
2	1.11436	0	
1.95	1.02776	0	
2.05	1.02776	0	
1.7	0.595118	0	
1.75	0.681422	0	
1.65	0.681422	0	
0.400249	1.46063	0	
0.45	1.37417	0	
0.50003	1.46076	0	
0.351493	1.3733	0	
0.45	1.37417	0	
0.400249	1.46063	0	
2.35	1.89378	0	
2.4	1.98038	0	
2.3	1.98038	0	
2.1	0.941154	0	
2.2	0.941154	0	
2.15	1.02776	0	
1.25	1.54737	0	
1.3	1.46077	0	
1.35	1.54737	0	
0.65	1.02776	0	
0.6	1.11436	0	
0.55	1.02776	0	
2.35	1.20096	0	
2.4	1.28756	0	
2.3	1.28756	0	
1.75	2.06699	0	
1.7	2.15359	0	
1.65	2.06699	0	
3	1.8	0	
3	1.9	0	
2.9134	1.85	0	
0.7	1.98038	0	
0.8	1.98038	0	
0.75	2.06699	0	
1.45	0.854552	0	
1.5	0.941154	0	
1.4	0.941154	0	
2.915	1.05278	0	
2.91611	1.15046	0	
2.81864	1.10627	0	
1.2	1.98038	0	
1.3	1.98038	0	
1.25	2.06699	0	
0.5	1.28756	0	
0.55	1.20096	0	
0.6	1.28756	0	
2.3	1.46077	0	
2.25	1.54737	0	
2.2	1.46077	0	
1.7	0	0	
1.75	0.0866025	0	
1.6482	0.0881508	0	
1.3	1.63397	0	
1.25	1.72058	0	
1.2	1.63397	0	
2.05	1.02776	0	
2.1	0.941154	0	
2.15	1.02776	0	
2.15	1.37417	0	
2.2	1.46077	0	
2.1	1.46077	0	
2.15	1.72058	0	
2.1	1.80718	0	
2.05	1.72058	0	
1.35	1.02776	0	
1.4	1.11436	0	
1.3	1.11436	0	
1.45	1.02776	0	
1.4	1.11436	0	
1.35	1.02776	0	
2.3	1.98038	0	
2.35	2.06699	0	
2.25	2.06699	0	
1.35	1.72058	0	
1.3	1.80718	0	
1.25	1.72058	0	
2.25	2.06699	0	
2.2	2.15359	0	
2.15	2.06699	0	
0.5	0.941154	0	
0.55	0.854552	0	
0.6	0.941154	0	
2.2	0	0	
2.3	0	0	
2.25	0.0836102	0	
2.3	1.63397	0	
2.4	1.63397	0	
2.35	1.72058	0	
0.95	0.854552	0	
0.85	0.854552	0	
0.9	0.767949	0	
2.25	1.37417	0	
2.15	1.37417	0	
2.2	1.28756	0	
1	1.98038	0	
0.95	2.06699	0	
0.9	1.98038	0	
1.9	1.63397	0	
1.85	1.72058	0	
1.8	1.63397	0	
2.45	0.681347	0	
2.55	0.681347	0	
2.5	0.767949	0	
1.35	0.334936	0	
1.3	0.421539	0	
1.23919	0.325647	0	
1.4	1.80718	0	
1.35	1.89378	0	
1.3	1.80718	0	
3	1.6	0	
2.92086	1.65219	0	
2.91908	1.5574	0	
0	0.5	0	
0	0.4	0	
0.083956	0.45	0	
0.550072	1.54737	0	
0.6	1.46077	0	
0.650016	1.54737	0	
0	1.9	0	
0	1.8	0	
0.0866025	1.85	0	
3	1.6	0	
3	1.7	0	
2.92086	1.65219	0	
2.35	1.89378	0	
2.3	1.98038	0	
2.25	1.89378	0	
0.65	0.508142	0	
0.6	0.594744	0	
0.55	0.508142	0	
0.35	0.681347	0	
0.25	0.681347	0	
0.297436	0.595537	0	
2.35	1.02776	0	
2.3	0.941154	0	
2.4	0.941154	0	
2.55	2.06699	0	
2.65	2.06699	0	
2.6	2.15359	0	
2.3	1.98038	0	
2.2	1.98038	0	
2.25	1.89378	0	
3	1.7	0	
3	1.8	0	
2.91405	1.75321	0	
0.95	1.02776	0	
0.85	1.02776	0	
0.9	0.941154	0	
2.35	1.54737	0	
2.3	1.63397	0	
2.25	1.54737	0	
0.6	1.46077	0	
0.55	1.37417	0	
0.65	1.37417	0	
1.05	1.20096	0	
0.95	1.20096	0	
1	1.11436	0	
2.3	0.767949	0	
2.35	0.681347	0	
2.4	0.767949	0	
0.500062	1.63397	0	
0.550072	1.54737	0	
0.600022	1.63397	0	
1.5	0.941154	0	
1.55	1.02776	0	
1.45	1.02776	0	
0.8	0.594744	0	
0.75	0.681347	0	
0.7	0.594744	0	
2.2	1.98038	0	
2.25	2.06699	0	
2.15	2.06699	0	
0	0.7	0	
0.0846868	0.648216	0	
0.0774873	0.746944	0	
1.35	1.89378	0	
1.4	1.98038	0	
1.3	1.98038	0	
0.55	1.37417	0	
0.5	1.28756	0	
0.6	1.28756	0	
2.15	1.72058	0	
2.2	1.80718	0	
2.1	1.80718	0	
1.9	1.63397	0	
1.95	1.72058	0	
1.85	1.72058	0	
2.4	1.46077	0	
2.45	1.54737	0	
2.35	1.54737	0	
2.05	1.72058	0	
2	1.80718	0	
1.95	1.72058	0	
0.85	0.681347	0	
0.8	0.767949	0	
0.75	0.681347	0	
1.75	0.681422	0	
1.8	0.595253	0	
1.85	0.681444	0	
0	0.7	0	
0	0.6	0	
0.0846868	0.648216	0	
1.9	2.15359	0	
1.8	2.15359	0	
1.85	2.06699	0	
0.9	0.941154	0	
0.85	1.02776	0	
0.8	0.941154	0	
1.23919	0.325647	0	
1.3	0.421539	0	
1.2	0.421539	0	
2.05	1.72058	0	
2.1	1.80718	0	
2	1.80718	0	
1.95	0.0866025	0	
2	0	0	
2.05	0.0839842	0	
1	0.941154	0	
0.9	0.941154	0	
0.95	0.854552	0	
0.9	0.594744	0	
0.8	0.594744	0	
0.85	0.508142	0	
2	1.63397	0	
1.95	1.72058	0	
1.9	1.63397	0	
0.85	1.02776	0	
0.75	1.02776	0	
0.8	0.941154	0	
0.25	1.89378	0	
0.300013	1.98038	0	
0.2	1.98038	0	
0.95	1.20096	0	
0.85	1.20096	0	
0.9	1.11436	0	
1.6	0.594744	0	
1.7	0.595118	0	
1.65	0.681422	0	
2.2	1.46077	0	
2.25	1.54737	0	
2.15	1.54737	0	
2.3	1.98038	0	
2.4	1.98038	0	
2.35	2.06699	0	
0.600022	1.63397	0	
0.550072	1.54737	0	
0.650016	1.54737	0	
2.25	1.72058	0	
2.35	1.72058	0	
2.3	1.80718	0	
2.25	1.72058	0	
2.3	1.80718	0	
2.2	1.80718	0	
1.75	2.06699	0	
1.8	1.98038	0	
1.85	2.06699	0	
1.45	1.89378	0	
1.4	1.98038	0	
1.35	1.89378	0	
2.3	1.98038	0	
2.25	2.06699	0	
2.2	1.98038	0	
0.9	0.767949	0	
0.85	0.854552	0	
0.8	0.767949	0	
2.35	1.54737	0	
2.45	1.54737	0	
2.4	1.63397	0	
2.2	2.15359	0	
2.25	2.24019	0	
2.15	2.24019	0	
1.8	1.98038	0	
1.9	1.98038	0	
1.85	2.06699	0	
0.75	0.854552	0	
0.8	0.941154	0	
0.7	0.941154	0	
2.25	1.72058	0	
2.2	1.80718	0	
2.15	1.72058	0	
2.4	1.46077	0	
2.35	1.54737	0	
2.3	1.46077	0	
1.15	0.681347	0	
1.2	0.767949	0	
1.1	0.767949	0	
1.55	1.89378	0	
1.5	1.98038	0	
1.45	1.89378	0	
1.8	1.63397	0	
1.75	1.72058	0	
1.7	1.63397	0	
2.91549	1.25	0	
3	1.3	0	
2.9134	1.35	0	
0.164278	1.49547	0	
0.0866025	1.45	0	
0.166142	1.40241	0	
0.8	1.11436	0	
0.7	1.11436	0	
0.75	1.02776	0	
2.4	1.28756	0	
2.45	1.37417	0	
2.35	1.37417	0	
1.15	0.854552	0	
1.05	0.854552	0	
1.1	0.767949	0	
3	1.4	0	
3	1.5	0	
2.89923	1.45455	0	
1.85	1.89378	0	
1.9	1.98038	0	
1.8	1.98038	0	
1.85	1.89378	0	
1.8	1.98038	0	
1.75	1.89378	0	
1.7	0.595118	0	
1.75	0.510822	0	
1.8	0.595253	0	
1.8	1.63397	0	
1.85	1.72058	0	
1.75	1.72058	0	
2.25	2.06699	0	
2.35	2.06699	0	
2.3	2.15359	0	
0.4	0.250578	0	
0.35	0.334936	0	
0.305366	0.253288	0	
1.7	0.595118	0	
1.8	0.595253	0	
1.75	0.681422	0	
2.4	1.28756	0	
2.35	1.37417	0	
2.3	1.28756	0	
0.85	1.37417	0	
0.8	1.46077	0	
0.75	1.37417	0	
2.2	2.15359	0	
2.3	2.15359	0	
2.25	2.24019	0	
0.0866025	1.55	0	
0.0866025	1.45	0	
0.164278	1.49547	0	
0.85	0.854552	0	
0.9	0.941154	0	
0.8	0.941154	0	
2.25	2.06699	0	
2.3	2.15359	0	
2.2	2.15359	0	
1.95	1.20096	0	
1.9	1.11436	0	
2	1.11436	0	
2	0	0	
2.1	0	0	
2.05	0.0839842	0	
1.95	1.89378	0	
1.9	1.98038	0	
1.85	1.89378	0	
1.45	1.02776	0	
1.5	1.11436	0	
1.4	1.11436	0	
3	1.4	0	
2.89923	1.45455	0	
2.9134	1.35	0	
1.65	1.89378	0	
1.6	1.98038	0	
1.55	1.89378	0	
1.45	1.02776	0	
1.55	1.02776	0	
1.5	1.11436	0	
1.53919	0.0958918	0	
1.6	0	0	
1.6482	0.0881508	0	
2.7508	1.02621	0	
2.7	0.941154	0	
2.79662	0.942542	0	
0.7	1.11436	0	
0.65	1.02776	0	
0.75	1.02776	0	
0.95	1.20096	0	
0.9	1.11436	0	
1	1.11436	0	
1.75	1.89378	0	
1.8	1.98038	0	
1.7	1.98038	0	
1.75	1.89378	0	
1.7	1.98038	0	
1.65	1.89378	0	
2.5	1.98038	0	
2.55	2.06699	0	
2.45	2.06699	0	
1.45	1.89378	0	
1.5	1.98038	0	
1.4	1.98038	0	
1.45	1.89378	0	
1.35	1.89378	0	
1.4	1.80718	0	
1.4	1.46077	0	
1.45	1.54737	0	
1.35	1.54737	0	
1.5	2.15359	0	
1.55	2.24019	0	
1.45	2.24019	0	
1.85	0.681444	0	
1.8	0.595253	0	
1.9	0.594934	0	
1.2	1.46077	0	
1.3	1.46077	0	
1.25	1.54737	0	
0.65	0.508142	0	
0.6	0.421539	0	
0.699786	0.42163	0	
1.4	1.80718	0	
1.3	1.80718	0	
1.35	1.72058	0	
1.45	2.24019	0	
1.55	2.24019	0	
1.5	2.32679	0	
1.2	0	0	
1.3	0	0	
1.24572	0.0818857	0	
2	1.80718	0	
2.05	1.89378	0	
1.95	1.89378	0	
1.6	2.15359	0	
1.55	2.24019	0	
1.5	2.15359	0	
1.35	1.72058	0	
1.25	1.72058	0	
1.3	1.63397	0	
0.8	0.941154	0	
0.75	1.02776	0	
0.7	0.941154	0	
0.166142	1.40241	0	
0.0850766	1.3504	0	
0.186477	1.29433	0	
1.5	0	0	
1.6	0	0	
1.53919	0.0958918	0	
1.7	0	0	
1.8	0	0	
1.75	0.0866025	0	
0.4	1.28756	0	
0.5	1.28756	0	
0.45	1.37417	0	
0.7	1.28756	0	
0.75	1.20096	0	
0.8	1.28756	0	
1.9	2.15359	0	
1.85	2.24019	0	
1.8	2.15359	0	
1.85	1.89378	0	
1.75	1.89378	0	
1.8	1.80718	0	
2.35	1.54737	0	
2.25	1.54737	0	
2.3	1.46077	0	
1.95	2.06699	0	
2	2.15359	0	
1.9	2.15359	0	
0.95	1.02776	0	
0.9	0.941154	0	
1	0.941154	0	
1.4	0.421539	0	
1.35	0.508142	0	
1.3	0.421539	0	
1.4	0.767949	0	
1.5	0.767949	0	
1.45	0.854552	0	
1.65	1.89378	0	
1.7	1.98038	0	
1.6	1.98038	0	
1.9	2.15359	0	
2	2.15359	0	
1.95	2.24019	0	
1.95	1.89378	0	
2	1.98038	0	
1.9	1.98038	0	
2	1.80718	0	
2.1	1.80718	0	
2.05	1.89378	0	
1.6	2.15359	0	
1.65	2.24019	0	
1.55	2.24019	0	
1.3	1.46077	0	
1.4	1.46077	0	
1.35	1.54737	0	
1.55	1.89378	0	
1.6	1.98038	0	
1.5	1.98038	0	
1.7	2.15359	0	
1.65	2.24019	0	
1.6	2.15359	0	
1.6	0	0	
1.7	0	0	
1.6482	0.0881508	0	
0.351493	1.3733	0	
0.400249	1.46063	0	
0.307076	1.45838	0	
1.65	1.89378	0	
1.55	1.89378	0	
1.6	1.80718	0	
0.351979	1.54739	0	
0.4	1.63397	0	
0.301089	1.63442	0	
0.7	1.11436	0	
0.6	1.11436	0	
0.65	1.02776	0	
1.45	1.02776	0	
1.35	1.02776	0	
1.4	0.941154	0	
1.95	1.89378	0	
2.05	1.89378	0	
2	1.98038	0	
1.8	2.15359	0	
1.75	2.24019	0	
1.7	2.15359	0	
1.9	0	0	
2	0	0	
1.95	0.0866025	0	
1.25	0.681347	0	
1.2	0.767949	0	
1.15	0.681347	0	
2.7	2.15359	0	
2.80156	2.15325	0	
2.75026	2.24014	0	
1.25	1.37417	0	
1.2	1.28756	0	
1.3	1.28756	0	
2.35	1.89378	0	
2.45	1.89378	0	
2.4	1.98038	0	
1.35	1.37417	0	
1.25	1.37417	0	
1.3	1.28756	0	
1.95	1.72058	0	
2	1.80718	0	
1.9	1.80718	0	
2	1.63397	0	
1.9	1.63397	0	
1.95	1.54737	0	
1.9	2.15359	0	
1.95	2.24019	0	
1.85	2.24019	0	
0.9	1.11436	0	
0.85	1.20096	0	
0.8	1.11436	0	
1.8	0.595253	0	
1.85	0.508673	0	
1.9	0.594934	0	
2.05	1.72058	0	
1.95	1.72058	0	
2	1.63397	0	
2.25	1.54737	0	
2.2	1.63397	0	
2.15	1.54737	0	
1.9	1.98038	0	
2	1.98038	0	
1.95	2.06699	0	
3	1.5	0	
3	1.6	0	
2.91908	1.5574	0	
1.6	1.46077	0	
1.55	1.37417	0	
1.65	1.37417	0	
1.6	1.63397	0	
1.65	1.72058	0	
1.55	1.72058	0	
1.7	2.15359	0	
1.75	2.24019	0	
1.65	2.24019	0	
2.5	0.594744	0	
2.4	0.594744	0	
2.45	0.508142	0	
1.5	0.941154	0	
1.45	1.02776	0	
1.4	0.941154	0	
0.9	1.11436	0	
0.85	1.02776	0	
0.95	1.02776	0	
1.8	2.15359	0	
1.85	2.24019	0	
1.75	2.24019	0	
1.95	2.06699	0	
1.9	2.15359	0	
1.85	2.06699	0	
1.7	1.46077	0	
1.65	1.37417	0	
1.75	1.37417	0	
2.05	1.72058	0	
2	1.63397	0	
2.1	1.63397	0	
0.8	1.28756	0	
0.85	1.37417	0	
0.75	1.37417	0	
2.1	0	0	
2.15	0.0843583	0	
2.05	0.0839842	0	
1.4	1.46077	0	
1.35	1.37417	0	
1.45	1.37417	0	
1.5	1.98038	0	
1.6	1.98038	0	
1.55	2.06699	0	
0.252575	1.7193	0	
0.300459	1.80698	0	
0.185884	1.80464	0	
0.45	1.20096	0	
0.55	1.20096	0	
0.5	1.28756	0	
1.5	1.46077	0	
1.45	1.37417	0	
1.55	1.37417	0	
1.15	1.02776	0	
1.2	0.941154	0	
1.25	1.02776	0	
3	1.2	0	
3	1.3	0	
2.91549	1.25	0	
1.85	1.72058	0	
1.95	1.72058	0	
1.9	1.80718	0	
1.45	0.854552	0	
1.55	0.854552	0	
1.5	0.941154	0	
2.25	0.854552	0	
2.15	0.854552	0	
2.2	0.767949	0	
2.35	1.37417	0	
2.45	1.37417	0	
2.4	1.46077	0	
1.15	1.02776	0	
1.25	1.02776	0	
1.2	1.11436	0	
1.4	0.767949	0	
1.45	0.854552	0	
1.35	0.854552	0	
2.1	0	0	
2.2	0	0	
2.15	0.0843583	0	
1.5	0.941154	0	
1.6	0.941154	0	
1.55	1.02776	0	
1.9	1.98038	0	
1.95	2.06699	0	
1.85	2.06699	0	
1.7	1.98038	0	
1.8	1.98038	0	
1.75	2.06699	0	
1.95	1.20096	0	
2	1.11436	0	
2.05	1.20096	0	
1.95	2.06699	0	
2.05	2.06699	0	
2	2.15359	0	
1.9	1.46077	0	
1.95	1.54737	0	
1.85	1.54737	0	
0.6	1.11436	0	
0.5	1.11436	0	
0.55	1.02776	0	
2.5	1.98038	0	
2.6	1.98038	0	
2.55	2.06699	0	
2.25	1.20096	0	
2.2	1.28756	0	
2.15	1.20096	0	
0.95	0.854552	0	
0.9	0.767949	0	
1	0.767949	0	
1.6	0.594744	0	
1.65	0.510386	0	
1.7	0.595118	0	
2.2	1.63397	0	
2.15	1.72058	0	
2.1	1.63397	0	
2.5	1.28756	0	
2.45	1.20096	0	
2.55	1.20096	0	
2.1	1.80718	0	
2.2	1.80718	0	
2.15	1.89378	0	
3	1.3	0	
3	1.4	0	
2.9134	1.35	0	
0	0.8	0	
0	0.7	0	
0.0774873	0.746944	0	
1.6	1.46077	0	
1.65	1.37417	0	
1.7	1.46077	0	
1.6	0.941154	0	
1.7	0.941154	0	
1.65	1.02776	0	
0.301089	1.63442	0	
0.350181	1.72065	0	
0.252575	1.7193	0	
0.65	1.20096	0	
0.75	1.20096	0	
0.7	1.28756	0	
0.5	1.11436	0	
0.4	1.11436	0	
0.45	1.02776	0	
1.7	0.595118	0	
1.65	0.510386	0	
1.75	0.510822	0	
1.4	1.46077	0	
1.45	1.37417	0	
1.5	1.46077	0	
0.95	0.854552	0	
0.9	0.941154	0	
0.85	0.854552	0	
0.5	1.11436	0	
0.45	1.02776	0	
0.55	1.02776	0	
0	1.7	0	
0	1.6	0	
0.0992698	1.6456	0	
1.5	1.46077	0	
1.55	1.37417	0	
1.6	1.46077	0	
1.4	1.98038	0	
1.5	1.98038	0	
1.45	2.06699	0	
1.7	2.15359	0	
1.6	2.15359	0	
1.65	2.06699	0	
2.2	0.941154	0	
2.25	1.02776	0	
2.15	1.02776	0	
2.3	1.80718	0	
2.4	1.80718	0	
2.35	1.89378	0	
0.500062	1.63397	0	
0.450371	1.54735	0	
0.550072	1.54737	0	
2.25	2.24019	0	
2.3	2.15359	0	
2.35	2.24019	0	
1	1.28756	0	
0.95	1.37417	0	
0.9	1.28756	0	
1.45	0.854552	0	
1.5	0.767949	0	
1.55	0.854552	0	
1.95	2.24019	0	
2	2.15359	0	
2.05	2.24019	0	
1.8	0.595253	0	
1.75	0.510822	0	
1.85	0.508673	0	
1.2	2.5	0	
1.1	2.5	0	
1.15	2.4134	0	
1.95	2.06699	0	
2	1.98038	0	
2.05	2.06699	0	
1.2	0.767949	0	
1.15	0.854552	0	
1.1	0.767949	0	
0	1.6	0	
0	1.5	0	
0.0866025	1.55	0	
0.95	1.54737	0	
0.85	1.54737	0	
0.9	1.46077	0	
1.3	1.46077	0	
1.35	1.37417	0	
1.4	1.46077	0	
1.4	1.46077	0	
1.5	1.46077	0	
1.45	1.54737	0	
2.05	0.337555	0	
2.1	0.421539	0	
2	0.421975	0	
1.5	1.11436	0	
1.55	1.02776	0	
1.6	1.11436	0	
2.2	0.421539	0	
2.15	0.337181	0	
2.25	0.337555	0	
0.75	0.854552	0	
0.85	0.854552	0	
0.8	0.941154	0	
1.75	0.0866025	0	
1.8	0	0	
1.84928	0.0835793	0	
1	0.421539	0	
0.9	0.421539	0	
0.945867	0.337323	0	
2	1.98038	0	
2.05	1.89378	0	
2.1	1.98038	0	
0.0992698	1.6456	0	
0	1.6	0	
0.0866025	1.55	0	
1.4	2.5	0	
1.3	2.5	0	
1.35	2.4134	0	
1.45	2.06699	0	
1.5	1.98038	0	
1.55	2.06699	0	
1.55	1.02776	0	
1.6	0.941154	0	
1.65	1.02776	0	
0.9	1.46077	0	
0.85	1.54737	0	
0.8	1.46077	0	
1.5	0.941154	0	
1.55	0.854552	0	
1.6	0.941154	0	
0.45	1.20096	0	
0.5	1.28756	0	
0.4	1.28756	0	
1.05	1.89378	0	
1	1.98038	0	
0.95	1.89378	0	
0	1.5	0	
0	1.4	0	
0.0866025	1.45	0	
0.65	0.334936	0	
0.749039	0.33533	0	
0.699786	0.42163	0	
2.74721	0.333837	0	
2.68879	0.239262	0	
2.8	0.248334	0	
2.1	0.421539	0	
2.15	0.508142	0	
2.05	0.508214	0	
0.166142	1.40241	0	
0.0866025	1.45	0	
0.0850766	1.3504	0	
1.8	1.46077	0	
1.75	1.37417	0	
1.85	1.37417	0	
1.25	0.681347	0	
1.15	0.681347	0	
1.2	0.594744	0	
1.2	2.5	0	
1.15	2.4134	0	
1.25	2.4134	0	
2	1.63397	0	
2.05	1.54737	0	
2.1	1.63397	0	
1.3	2.5	0	
1.2	2.5	0	
1.25	2.4134	0	
2.45	0.681347	0	
2.5	0.767949	0	
2.4	0.767949	0	
1.25	2.06699	0	
1.3	1.98038	0	
1.35	2.06699	0	
0.45	1.02776	0	
0.4	1.11436	0	
0.35	1.02776	0	
0.4	1.28756	0	
0.45	1.37417	0	
0.351493	1.3733	0	
2.55	2.24019	0	
2.6	2.15359	0	
2.65004	2.24018	0	
1.85	1.37417	0	
1.75	1.37417	0	
1.8	1.28756	0	
2.15	1.72058	0	
2.05	1.72058	0	
2.1	1.63397	0	
0.95	1.37417	0	
0.9	1.46077	0	
0.85	1.37417	0	
1.35	2.4134	0	
1.3	2.5	0	
1.25	2.4134	0	
2.35	2.06699	0	
2.4	1.98038	0	
2.45	2.06699	0	
1.7	2.5	0	
1.6	2.5	0	
1.65	2.4134	0	
2.05	1.89378	0	
2.1	1.80718	0	
2.15	1.89378	0	
0	1.4	0	
0	1.3	0	
0.0850766	1.3504	0	
0	1.5	0	
0.0866025	1.45	0	
0.0866025	1.55	0	
1.79567	0.168531	0	
1.75	0.0866025	0	
1.84928	0.0835793	0	
2	2.5	0	
1.9	2.5	0	
1.95	2.4134	0	
2.55	0.508142	0	
2.45	0.508142	0	
2.5	0.421539	0	
2	1.11436	0	
1.9	1.11436	0	
1.95	1.02776	0	
1.4	0.767949	0	
1.45	0.681347	0	
1.5	0.767949	0	
2.05	1.89378	0	
2.15	1.89378	0	
2.1	1.98038	0	
0.0850766	1.3504	0	
0.0845107	1.25	0	
0.186477	1.29433	0	
1.2	0.941154	0	
1.3	0.941154	0	
1.25	1.02776	0	
1.6	1.11436	0	
1.55	1.02776	0	
1.65	1.02776	0	
2.05	2.06699	0	
2	1.98038	0	
2.1	1.98038	0	
2.05	1.20096	0	
2	1.11436	0	
2.1	1.11436	0	
0.450033	1.89377	0	
0.40012	1.80715	0	
0.500025	1.80717	0	
1	1.28756	0	
0.95	1.20096	0	
1.05	1.20096	0	
1.85	1.37417	0	
1.8	1.28756	0	
1.9	1.28756	0	
0.95	2.06699	0	
0.85	2.06699	0	
0.9	1.98038	0	
0	1.3	0	
0	1.2	0	
0.0845107	1.25	0	
0.0866025	1.45	0	
0	1.4	0	
0.0850766	1.3504	0	
0.8	1.11436	0	
0.75	1.20096	0	
0.7	1.11436	0	
3	0.3	0	
2.91001	0.357804	0	
2.89902	0.251072	0	
1	1.46077	0	
0.9	1.46077	0	
0.95	1.37417	0	
2.3	2.15359	0	
2.35	2.06699	0	
2.4	2.15359	0	
1.9	2.5	0	
1.8	2.5	0	
1.85	2.4134	0	
1.65	1.37417	0	
1.55	1.37417	0	
1.6	1.28756	0	
1.9	1.28756	0	
1.95	1.20096	0	
2	1.28756	0	
0	1.1	0	
0	1	0	
0.0897949	1.05552	0	
1.5	0.594744	0	
1.55	0.508142	0	
1.6	0.594744	0	
1.45	1.37417	0	
1.35	1.37417	0	
1.4	1.28756	0	
1.9	1.28756	0	
1.85	1.20096	0	
1.95	1.20096	0	
2.05	1.02776	0	
1.95	1.02776	0	
2	0.941154	0	
1.25	1.37417	0	
1.15	1.37417	0	
1.2	1.28756	0	
2.4	1.46077	0	
2.5	1.46077	0	
2.45	1.54737	0	
1.3	2.15359	0	
1.25	2.06699	0	
1.35	2.06699	0	
0.8	1.46077	0	
0.85	1.54737	0	
0.750003	1.54737	0	
2.1	2.5	0	
2	2.5	0	
2.05	2.4134	0	
1.7	1.46077	0	
1.8	1.46077	0	
1.75	1.54737	0	
1.3	1.46077	0	
1.25	1.37417	0	
1.35	1.37417	0	
0.95	1.20096	0	
0.9	1.28756	0	
0.85	1.20096	0	
0.9	1.46077	0	
0.8	1.46077	0	
0.85	1.37417	0	
1.35	1.72058	0	
1.3	1.63397	0	
1.4	1.63397	0	
2.4	1.63397	0	
2.45	1.54737	0	
2.5	1.63397	0	
0.0796603	0.844152	0	
0	0.8	0	
0.0774873	0.746944	0	
0	1	0	
0	0.9	0	
0.100424	0.946359	0	
1	1.28756	0	
0.9	1.28756	0	
0.95	1.20096	0	
0.35	1.02776	0	
0.4	1.11436	0	
0.3	1.11436	0	
0.7	1.28756	0	
0.8	1.28756	0	
0.75	1.37417	0	
2	1.63397	0	
1.95	1.54737	0	
2.05	1.54737	0	
2.74764	1.71921	0	
2.65	1.72058	0	
2.69961	1.63375	0	
0	1.2	0	
0	1.1	0	
0.0866808	1.15065	0	
0	0.9	0	
0	0.8	0	
0.0796603	0.844152	0	
1.75	1.37417	0	
1.65	1.37417	0	
1.7	1.28756	0	
0.85	0.681347	0	
0.8	0.594744	0	
0.9	0.594744	0	
2.2	2.5	0	
2.1	2.5	0	
2.15	2.4134	0	
0.9	1.28756	0	
0.85	1.37417	0	
0.8	1.28756	0	
1.6	0.941154	0	
1.65	0.854552	0	
1.7	0.941154	0	
2.6	2.15359	0	
2.65	2.06699	0	
2.7	2.15359	0	
0.95	0.508142	0	
0.9	0.421539	0	
1	0.421539	0	
1.8	2.5	0	
1.7	2.5	0	
1.75	2.4134	0	
2.5	0.767949	0	
2.6	0.767949	0	
2.55	0.854552	0	
1.6	0.594744	0	
1.55	0.508142	0	
1.65	0.510386	0	
0.9	0.594744	0	
0.85	0.508142	0	
0.95	0.508142	0	
0.3	1.11436	0	
0.35	1.20096	0	
0.25	1.20096	0	
1.7	1.46077	0	
1.75	1.37417	0	
1.8	1.46077	0	
2.4	1.28756	0	
2.5	1.28756	0	
2.45	1.37417	0	
0.7	1.11436	0	
0.65	1.20096	0	
0.6	1.11436	0	
1.4	1.28756	0	
1.35	1.37417	0	
1.3	1.28756	0	
0.35	1.02776	0	
0.3	1.11436	0	
0.252594	1.02626	0	
2.3	2.5	0	
2.2	2.5	0	
2.25	2.4134	0	
1.55	0.681359	0	
1.65	0.681422	0	
1.6	0.767964	0	
1.1	0.941154	0	
1.2	0.941154	0	
1.15	1.02776	0	
1.05	1.37417	0	
0.95	1.37417	0	
1	1.28756	0	
2.3	1.80718	0	
2.35	1.72058	0	
2.4	1.80718	0	
1.25	1.89378	0	
1.2	1.98038	0	
1.15	1.89378	0	
0.85	1.20096	0	
0.9	1.28756	0	
0.8	1.28756	0	
0.6	1.11436	0	
0.55	1.20096	0	
0.5	1.11436	0	
0.7	0.594744	0	
0.65	0.681347	0	
0.6	0.594744	0	
1.4	1.98038	0	
1.45	2.06699	0	
1.35	2.06699	0	
2.3	0.767949	0	
2.2	0.767949	0	
2.25	0.681347	0	
0.5	1.11436	0	
0.45	1.20096	0	
0.4	1.11436	0	
2.3	1.11436	0	
2.35	1.20096	0	
2.25	1.20096	0	
1.6	0.941154	0	
1.55	0.854552	0	
1.65	0.854552	0	
2.35	0.681347	0	
2.25	0.681347	0	
2.3	0.594744	0	
0.6	1.11436	0	
0.65	1.20096	0	
0.55	1.20096	0	
0.5	1.11436	0	
0.55	1.20096	0	
0.45	1.20096	0	
2.70447	1.28964	0	
2.65	1.20096	0	
2.75	1.20096	0	
2.35	1.89378	0	
2.4	1.80718	0	
2.45	1.89378	0	
2.65	1.89378	0	
2.55	1.89378	0	
2.6	1.80718	0	
0.9	0.767949	0	
0.85	0.681347	0	
0.95	0.681347	0	
1.3	2.15359	0	
1.35	2.06699	0	
1.4	2.15359	0	
0.8	1.11436	0	
0.85	1.20096	0	
0.75	1.20096	0	
2	0.421975	0	
2.1	0.421539	0	
2.05	0.508214	0	
1.55	1.37417	0	
1.45	1.37417	0	
1.5	1.28756	0	
2.7	1.80718	0	
2.6	1.80718	0	
2.65	1.72058	0	
2.5	2.5	0	
2.4	2.5	0	
2.45	2.4134	0	
0.7	1.11436	0	
0.75	1.20096	0	
0.65	1.20096	0	
1	0.767949	0	
0.9	0.767949	0	
0.95	0.681347	0	
1.3	0.767949	0	
1.35	0.681347	0	
1.4	0.767949	0	
2.35	2.06699	0	
2.45	2.06699	0	
2.4	2.15359	0	
1.85	2.4134	0	
1.8	2.5	0	
1.75	2.4134	0	
2.15	1.02776	0	
2.25	1.02776	0	
2.2	1.11436	0	
2.74721	0.333837	0	
2.65	0.337555	0	
2.68879	0.239262	0	
0.252594	1.02626	0	
0.3	1.11436	0	
0.186458	1.10941	0	
0.75	1.20096	0	
0.85	1.20096	0	
0.8	1.28756	0	
2.6	1.80718	0	
2.55	1.89378	0	
2.5	1.80718	0	
0.75	1.02776	0	
0.65	1.02776	0	
0.7	0.941154	0	
2.05	2.06699	0	
2.15	2.06699	0	
2.1	2.15359	0	
1.1	0	0	
1.2	0	0	
1.14929	0.0858164	0	
2.5	1.28756	0	
2.55	1.20096	0	
2.6	1.28756	0	
2.4	2.5	0	
2.3	2.5	0	
2.35	2.4134	0	
2.1	1.11436	0	
2.15	1.02776	0	
2.2	1.11436	0	
0	1.3	0	
0.0845107	1.25	0	
0.0850766	1.3504	0	
2.35	2.24019	0	
2.3	2.15359	0	
2.4	2.15359	0	
2.75026	2.24014	0	
2.80156	2.15325	0	
2.8506	2.24376	0	
0.4	1.28756	0	
0.351493	1.3733	0	
0.3	1.28756	0	
1.7	0.941154	0	
1.65	0.854552	0	
1.75	0.854552	0	
2.55	2.06699	0	
2.6	1.98038	0	
2.65	2.06699	0	
2.15	0.508142	0	
2.2	0.594744	0	
2.1	0.594744	0	
2.35	1.72058	0	
2.4	1.63397	0	
2.45	1.72058	0	
1.25	0.854552	0	
1.15	0.854552	0	
1.2	0.767949	0	
0.7	1.98038	0	
0.75	1.89378	0	
0.8	1.98038	0	
2.4	1.98038	0	
2.45	1.89378	0	
2.5	1.98038	0	
0.0845107	1.25	0	
0	1.2	0	
0.0866808	1.15065	0	
1.9	1.11436	0	
1.85	1.20096	0	
1.8	1.11436	0	
2.05	0.337555	0	
2	0.421975	0	
1.95	0.335446	0	
1.9	2.5	0	
1.85	2.4134	0	
1.95	2.4134	0	
1.9	1.28756	0	
1.8	1.28756	0	
1.85	1.20096	0	
1.2	2.15359	0	
1.3	2.15359	0	
1.25	2.24019	0	
2.65074	1.37451	0	
2.75214	1.37712	0	
2.70048	1.46132	0	
0.2	1.98038	0	
0.250002	2.06699	0	
0.150144	2.06273	0	
0.8	0.767949	0	
0.85	0.854552	0	
0.75	0.854552	0	
0.35	1.20096	0	
0.3	1.28756	0	
0.25	1.20096	0	
1.9	1.46077	0	
1.95	1.37417	0	
2	1.46077	0	
2.4	1.46077	0	
2.45	1.37417	0	
2.5	1.46077	0	
0.9	1.63397	0	
0.8	1.63397	0	
0.85	1.54737	0	
2.45	1.54737	0	
2.5	1.46077	0	
2.55	1.54737	0	
2.4	1.98038	0	
2.5	1.98038	0	
2.45	2.06699	0	
2.6	2.15359	0	
2.7	2.15359	0	
2.65004	2.24018	0	
2.1	0.941154	0	
2	0.941154	0	
2.05	0.854552	0	
0.3	1.11436	0	
0.4	1.11436	0	
0.35	1.20096	0	
1.95	1.20096	0	
2.05	1.20096	0	
2	1.28756	0	
2.84979	2.06272	0	
2.75	2.06699	0	
2.79949	1.97915	0	
0.45	0.681347	0	
0.4	0.767949	0	
0.35	0.681347	0	
1.4	0.767949	0	
1.35	0.681347	0	
1.45	0.681347	0	
0.35	0.681347	0	
0.3	0.767949	0	
0.25	0.681347	0	
0.8	1.63397	0	
0.75	1.72058	0	
0.7	1.63397	0	
0.45	1.20096	0	
0.4	1.28756	0	
0.35	1.20096	0	
0.9	1.28756	0	
0.95	1.37417	0	
0.85	1.37417	0	
0.55	0.681347	0	
0.5	0.767949	0	
0.45	0.681347	0	
0.55	0.681347	0	
0.45	0.681347	0	
0.5	0.594744	0	
2	2.15359	0	
2.05	2.06699	0	
2.1	2.15359	0	
2.1	0.767949	0	
2.05	0.854552	0	
2	0.767949	0	
0.9	1.11436	0	
0.95	1.02776	0	
1	1.11436	0	
1.75	0.681422	0	
1.85	0.681444	0	
1.8	0.76796	0	
1.7	2.5	0	
1.65	2.4134	0	
1.75	2.4134	0	
1.8	1.28756	0	
1.75	1.37417	0	
1.7	1.28756	0	
2.05	0.854552	0	
2	0.941154	0	
1.95	0.854552	0	
2.2	0.941154	0	
2.3	0.941154	0	
2.25	1.02776	0	
1.25	0.681347	0	
1.2	0.594744	0	
1.3	0.594744	0	
0.3	0.767949	0	
0.4	0.767949	0	
0.35	0.854552	0	
1.8	1.46077	0	
1.85	1.37417	0	
1.9	1.46077	0	
2.15	0.854552	0	
2.05	0.854552	0	
2.1	0.767949	0	
1.45	1.37417	0	
1.4	1.28756	0	
1.5	1.28756	0	
0.55	1.72058	0	
0.600022	1.63397	0	
0.650004	1.72058	0	
1.65	0.681422	0	
1.75	0.681422	0	
1.7	0.76796	0	
0	0.9	0	
0.0796603	0.844152	0	
0.100424	0.946359	0	
1.95	1.20096	0	
1.85	1.20096	0	
1.9	1.11436	0	
0.85	1.72058	0	
0.8	1.63397	0	
0.9	1.63397	0	
1.2	1.46077	0	
1.25	1.37417	0	
1.3	1.46077	0	
2	0.941154	0	
1.9	0.941154	0	
1.95	0.854552	0	
1.59572	0.42663	0	
1.49929	0.422388	0	
1.54755	0.336481	0	
0	1.1	0	
0.0897949	1.05552	0	
0.0866808	1.15065	0	
1.4	0.248334	0	
1.35	0.334936	0	
1.3063	0.246344	0	
1.35	2.24019	0	
1.3	2.15359	0	
1.4	2.15359	0	
2.35	0.681347	0	
2.45	0.681347	0	
2.4	0.767949	0	
1.2	0.941154	0	
1.15	0.854552	0	
1.25	0.854552	0	
1.55	0.854552	0	
1.5	0.767949	0	
1.6	0.767964	0	
0.0897949	1.05552	0	
0	1	0	
0.100424	0.946359	0	
2.35	0.508142	0	
2.25	0.508142	0	
2.3	0.421975	0	
2.6	0.421539	0	
2.5	0.421539	0	
2.55	0.337181	0	
2.05	2.4134	0	
2	2.5	0	
1.95	2.4134	0	
0.9	1.63397	0	
0.95	1.54737	0	
1	1.63397	0	
0.45	0.334936	0	
0.4	0.421539	0	
0.35	0.334936	0	
0.4	1.11436	0	
0.45	1.20096	0	
0.35	1.20096	0	
1.2	0.941154	0	
1.25	0.854552	0	
1.3	0.941154	0	
2.1	2.5	0	
2.05	2.4134	0	
2.15	2.4134	0	
0.85	1.72058	0	
0.75	1.72058	0	
0.8	1.63397	0	
1	1.28756	0	
1.05	1.20096	0	
1.1	1.28756	0	
2.4	1.63397	0	
2.5	1.63397	0	
2.45	1.72058	0	
1.3	1.98038	0	
1.4	1.98038	0	
1.35	2.06699	0	
0.95	1.54737	0	
0.9	1.46077	0	
1	1.46077	0	
0.9	1.63397	0	
0.85	1.54737	0	
0.95	1.54737	0	
3	1.1	0	
3	1.2	0	
2.91611	1.15046	0	
2.5	0.767949	0	
2.45	0.854552	0	
2.4	0.767949	0	
2.25	1.02776	0	
2.3	0.941154	0	
2.35	1.02776	0	
1.5	0.767949	0	
1.45	0.681347	0	
1.55	0.681359	0	
0.4	1.28756	0	
0.3	1.28756	0	
0.35	1.20096	0	
0.5	0.767949	0	
0.6	0.767949	0	
0.55	0.854552	0	
1.65	1.37417	0	
1.6	1.28756	0	
1.7	1.28756	0	
1.5	0.594744	0	
1.6	0.594744	0	
1.55	0.681359	0	
1.1	1.46077	0	
1.15	1.37417	0	
1.2	1.46077	0	
0.7	0.594744	0	
0.75	0.681347	0	
0.65	0.681347	0	
1.1	0.941154	0	
1.15	0.854552	0	
1.2	0.941154	0	
2.6	0.941154	0	
2.65	0.854552	0	
2.7	0.941154	0	
2.25	0.337555	0	
2.15	0.337181	0	
2.2	0.248334	0	
1.1	1.98038	0	
1	1.98038	0	
1.05	1.89378	0	
1.2	1.28756	0	
1.15	1.37417	0	
1.1	1.28756	0	
1	0.941154	0	
0.95	0.854552	0	
1.05	0.854552	0	
1.65	1.54737	0	
1.6	1.63397	0	
1.55	1.54737	0	
0.186458	1.10941	0	
0.3	1.11436	0	
0.25	1.20096	0	
0.55	0.681347	0	
0.65	0.681347	0	
0.6	0.767949	0	
1.2	1.46077	0	
1.15	1.37417	0	
1.25	1.37417	0	
0.5	2.32679	0	
0.45	2.24019	0	
0.55	2.24019	0	
2.3	2.5	0	
2.25	2.4134	0	
2.35	2.4134	0	
1.6	1.11436	0	
1.65	1.02776	0	
1.7	1.11436	0	
2.2	1.28756	0	
2.15	1.37417	0	
2.1	1.28756	0	
0.35	0.681347	0	
0.4	0.767949	0	
0.3	0.767949	0	
2.7	2.5	0	
2.6	2.5	0	
2.65	2.4134	0	
2.74764	1.71921	0	
2.69961	1.63375	0	
2.78791	1.62506	0	
2	0.767949	0	
2.05	0.854552	0	
1.95	0.854552	0	
0.3	0.767949	0	
0.35	0.854552	0	
0.252992	0.856279	0	
2.7	1.80718	0	
2.65	1.72058	0	
2.74764	1.71921	0	
1.1	0.941154	0	
1.15	1.02776	0	
1.05	1.02776	0	
1.65	0.854552	0	
1.55	0.854552	0	
1.6	0.767964	0	
1.25	0.854552	0	
1.2	0.767949	0	
1.3	0.767949	0	
1.65	0.510386	0	
1.55	0.508142	0	
1.59572	0.42663	0	
2.5	1.63397	0	
2.45	1.54737	0	
2.55	1.54737	0	
1.15	0.681347	0	
1.1	0.767949	0	
1.05	0.681347	0	
1	1.46077	0	
1.1	1.46077	0	
1.05	1.54737	0	
1.85	0.508673	0	
1.75	0.510822	0	
1.78919	0.412709	0	
0.45	0.681347	0	
0.5	0.767949	0	
0.4	0.767949	0	
2.5	1.46077	0	
2.45	1.37417	0	
2.55012	1.37422	0	
2.3	0.594744	0	
2.25	0.508142	0	
2.35	0.508142	0	
0.55	1.72058	0	
0.650004	1.72058	0	
0.600005	1.80718	0	
2.65	1.89378	0	
2.6	1.80718	0	
2.7	1.80718	0	
1.6	1.28756	0	
1.55	1.37417	0	
1.5	1.28756	0	
2.4	1.80718	0	
2.35	1.72058	0	
2.45	1.72058	0	
1.05	1.37417	0	
1	1.28756	0	
1.1	1.28756	0	
0.6	0.594744	0	
0.65	0.681347	0	
0.55	0.681347	0	
1.4	0.421539	0	
1.3	0.421539	0	
1.35	0.334936	0	
2.7	1.80718	0	
2.74764	1.71921	0	
2.81421	1.80465	0	
0.55	0.681347	0	
0.6	0.767949	0	
0.5	0.767949	0	
0.8	1.80718	0	
0.85	1.72058	0	
0.9	1.80718	0	
1.45	0.681347	0	
1.4	0.594744	0	
1.5	0.594744	0	
1.45	0.508142	0	
1.4	0.594744	0	
1.35	0.508142	0	
2.35	1.20096	0	
2.45	1.20096	0	
2.4	1.28756	0	
1.35	2.06699	0	
1.45	2.06699	0	
1.4	2.15359	0	
1.25	2.24019	0	
1.3	2.15359	0	
1.35	2.24019	0	
0.45	0.334936	0	
0.5	0.421539	0	
0.4	0.421539	0	
2.5	1.98038	0	
2.55	1.89378	0	
2.6	1.98038	0	
1.45	0.681347	0	
1.35	0.681347	0	
1.4	0.594744	0	
2.25	2.4134	0	
2.2	2.5	0	
2.15	2.4134	0	
0.55	0.508142	0	
0.6	0.594744	0	
0.5	0.594744	0	
2.70048	1.46132	0	
2.75214	1.37712	0	
2.79495	1.46024	0	
1.49929	0.422388	0	
1.45	0.334936	0	
1.54755	0.336481	0	
1.45275	0.163189	0	
1.4	0.248334	0	
1.36513	0.16103	0	
1.5	0.594744	0	
1.45	0.508142	0	
1.55	0.508142	0	
0.65	0.334936	0	
0.699275	0.248935	0	
0.749039	0.33533	0	
2.5	1.46077	0	
2.55012	1.37422	0	
2.60022	1.46093	0	
2.55	0.854552	0	
2.65	0.854552	0	
2.6	0.941154	0	
1.35	0.681347	0	
1.25	0.681347	0	
1.3	0.594744	0	
1.45	0.681347	0	
1.5	0.594744	0	
1.55	0.681359	0	
2.5	1.98038	0	
2.45	1.89378	0	
2.55	1.89378	0	
1.1	1.46077	0	
1.05	1.37417	0	
1.15	1.37417	0	
2.7	2.15359	0	
2.65	2.06699	0	
2.75	2.06699	0	
1.4	1.63397	0	
1.5	1.63397	0	
1.45	1.72058	0	
1	1.46077	0	
0.95	1.37417	0	
1.05	1.37417	0	
2.6	1.98038	0	
2.55	1.89378	0	
2.65	1.89378	0	
1.05	1.02776	0	
1.15	1.02776	0	
1.1	1.11436	0	
1.1	0.941154	0	
1.05	0.854552	0	
1.15	0.854552	0	
2.6	2.5	0	
2.5	2.5	0	
2.55	2.4134	0	
2.45	2.4134	0	
2.4	2.5	0	
2.35	2.4134	0	
2.1	1.11436	0	
2.2	1.11436	0	
2.15	1.20096	0	
2.25	0.508142	0	
2.2	0.421539	0	
2.3	0.421975	0	
1.45	0.334936	0	
1.4	0.248334	0	
1.5	0.248334	0	
2	0.941154	0	
1.95	1.02776	0	
1.9	0.941154	0	
1	1.46077	0	
1.05	1.37417	0	
1.1	1.46077	0	
2.4	1.28756	0	
2.45	1.20096	0	
2.5	1.28756	0	
1	0.941154	0	
1.05	0.854552	0	
1.1	0.941154	0	
2.01667	0.25268	0	
1.95	0.335446	0	
1.9235	0.247919	0	
2.25	1.02776	0	
2.3	1.11436	0	
2.2	1.11436	0	
1.2	0.594744	0	
1.15	0.681347	0	
1.1	0.594744	0	
0.85	1.54737	0	
0.8	1.63397	0	
0.750003	1.54737	0	
1.9	1.11436	0	
1.8	1.11436	0	
1.85	1.02776	0	
1.5	0.767949	0	
1.55	0.681359	0	
1.6	0.767964	0	
2.4	0.594744	0	
2.3	0.594744	0	
2.35	0.508142	0	
0.8	1.80718	0	
0.75	1.72058	0	
0.85	1.72058	0	
0.55	1.02776	0	
0.45	1.02776	0	
0.5	0.941154	0	
2.7	2.15359	0	
2.75	2.06699	0	
2.80156	2.15325	0	
0.3	0	0	
0.4	0	0	
0.35	0.0866025	0	
1.1	0.767949	0	
1.05	0.854552	0	
1	0.767949	0	
1.3	0.767949	0	
1.2	0.767949	0	
1.25	0.681347	0	
0.6	0.594744	0	
0.55	0.681347	0	
0.5	0.594744	0	
1.3	0.767949	0	
1.4	0.767949	0	
1.35	0.854552	0	
1.85	1.02776	0	
1.75	1.02776	0	
1.8	0.941154	0	
1.3	0.767949	0	
1.25	0.681347	0	
1.35	0.681347	0	
1.3	0.941154	0	
1.25	0.854552	0	
1.35	0.854552	0	
1.45	0.508142	0	
1.35	0.508142	0	
1.4	0.421539	0	
0.85	0.681347	0	
0.9	0.594744	0	
0.95	0.681347	0	
2.65	2.06699	0	
2.6	1.98038	0	
2.69992	1.98018	0	
2.79949	1.97915	0	
2.75	2.06699	0	
2.69992	1.98018	0	
1.5	1.46077	0	
1.6	1.46077	0	
1.55	1.54737	0	
0.95	2.24019	0	
1	2.15359	0	
1.05	2.24019	0	
2.25	1.02776	0	
2.35	1.02776	0	
2.3	1.11436	0	
2.65	1.72058	0	
2.6	1.80718	0	
2.55	1.72058	0	
2.65074	1.37451	0	
2.70048	1.46132	0	
2.60022	1.46093	0	
0.35	0.334936	0	
0.249915	0.343232	0	
0.305366	0.253288	0	
0.9	0.594744	0	
0.95	0.508142	0	
1	0.594744	0	
0.25	0.681347	0	
0.3	0.767949	0	
0.21192	0.776631	0	
3	0.3	0	
3	0.4	0	
2.91001	0.357804	0	
1	2.15359	0	
1.05	2.06699	0	
1.1	2.15359	0	
1.5	0.248334	0	
1.4	0.248334	0	
1.45275	0.163189	0	
1.45	0.334936	0	
1.35	0.334936	0	
1.4	0.248334	0	
1.5	0.594744	0	
1.4	0.594744	0	
1.45	0.508142	0	
2.6	1.28756	0	
2.65	1.20096	0	
2.70447	1.28964	0	
2.05	0.337555	0	
1.95	0.335446	0	
2.01667	0.25268	0	
1.95	1.02776	0	
1.9	1.11436	0	
1.85	1.02776	0	
0.8	0.767949	0	
0.75	0.854552	0	
0.7	0.767949	0	
1.25	0.854552	0	
1.3	0.767949	0	
1.35	0.854552	0	
2.05	2.24019	0	
2	2.15359	0	
2.1	2.15359	0	
1.05	0.854552	0	
0.95	0.854552	0	
1	0.767949	0	
2.15	0.337181	0	
2.1	0.421539	0	
2.05	0.337555	0	
0.35	0.334936	0	
0.305278	0.424586	0	
0.249915	0.343232	0	
1.3	1.28756	0	
1.25	1.20096	0	
1.35	1.20096	0	
1.15	1.37417	0	
1.05	1.37417	0	
1.1	1.28756	0	
2.3	1.11436	0	
2.4	1.11436	0	
2.35	1.20096	0	
0.75	0.681347	0	
0.8	0.767949	0	
0.7	0.767949	0	
1.2	2.15359	0	
1.25	2.06699	0	
1.3	2.15359	0	
1.35	0.508142	0	
1.4	0.594744	0	
1.3	0.594744	0	
2.80156	2.15325	0	
2.75	2.06699	0	
2.84979	2.06272	0	
2.35	1.20096	0	
2.4	1.11436	0	
2.45	1.20096	0	
1	0.941154	0	
1.1	0.941154	0	
1.05	1.02776	0	
2.65074	1.37451	0	
2.70447	1.28964	0	
2.75214	1.37712	0	
0.301089	1.63442	0	
0.252575	1.7193	0	
0.204861	1.63908	0	
2.2	0.767949	0	
2.15	0.854552	0	
2.1	0.767949	0	
2.45	1.37417	0	
2.5	1.28756	0	
2.55012	1.37422	0	
1	1.11436	0	
1.05	1.02776	0	
1.1	1.11436	0	
1.9	0.941154	0	
1.95	1.02776	0	
1.85	1.02776	0	
2.3	1.11436	0	
2.35	1.02776	0	
2.4	1.11436	0	
2.65	2.4134	0	
2.6	2.5	0	
2.55	2.4134	0	
1.7	1.11436	0	
1.8	1.11436	0	
1.75	1.20096	0	
2.2	0.421539	0	
2.15	0.508142	0	
2.1	0.421539	0	
0.8	1.80718	0	
0.7	1.80718	0	
0.75	1.72058	0	
2.5	0.767949	0	
2.55	0.854552	0	
2.45	0.854552	0	
0.65	1.89378	0	
0.6	1.98038	0	
0.55	1.89378	0	
1.05	1.20096	0	
1	1.11436	0	
1.1	1.11436	0	
0.95	1.02776	0	
1	0.941154	0	
1.05	1.02776	0	
2.3	0.594744	0	
2.2	0.594744	0	
2.25	0.508142	0	
0.3	0.767949	0	
0.252992	0.856279	0	
0.21192	0.776631	0	
1.4	0.421539	0	
1.35	0.334936	0	
1.45	0.334936	0	
0.5	0	0	
0.6	0	0	
0.55	0.0866025	0	
2.6	1.98038	0	
2.65	1.89378	0	
2.69992	1.98018	0	
0.305278	0.424586	0	
0.4	0.421539	0	
0.35088	0.508649	0	
2.75	2.06699	0	
2.65	2.06699	0	
2.69992	1.98018	0	
0.45	0.681347	0	
0.35	0.681347	0	
0.400171	0.594843	0	
2.65	1.02776	0	
2.7	0.941154	0	
2.7508	1.02621	0	
0.6	0.767949	0	
0.65	0.681347	0	
0.7	0.767949	0	
0.6	1.98038	0	
0.55	2.06699	0	
0.500009	1.98038	0	
0.65	0.681347	0	
0.75	0.681347	0	
0.7	0.767949	0	
1.4	0.594744	0	
1.35	0.681347	0	
1.3	0.594744	0	
0.35	0.334936	0	
0.4	0.421539	0	
0.305278	0.424586	0	
2.5	2.5	0	
2.45	2.4134	0	
2.55	2.4134	0	
2.2	0.421539	0	
2.1	0.421539	0	
2.15	0.337181	0	
2.1	0.594744	0	
2.2	0.594744	0	
2.15	0.681347	0	
2.25	0.508142	0	
2.15	0.508142	0	
2.2	0.421539	0	
0.8	1.80718	0	
0.9	1.80718	0	
0.85	1.89378	0	
0.9	0.594744	0	
1	0.594744	0	
0.95	0.681347	0	
2.55	1.89378	0	
2.45	1.89378	0	
2.5	1.80718	0	
2.6	1.28756	0	
2.70447	1.28964	0	
2.65074	1.37451	0	
1.55	0.508142	0	
1.45	0.508142	0	
1.49929	0.422388	0	
0.65	1.02776	0	
0.55	1.02776	0	
0.6	0.941154	0	
1.15	1.02776	0	
1.2	1.11436	0	
1.1	1.11436	0	
2.69961	1.63375	0	
2.65	1.72058	0	
2.59993	1.63394	0	
3	0.5	0	
3	0.6	0	
2.92552	0.551683	0	
1.85	1.02776	0	
1.8	1.11436	0	
1.75	1.02776	0	
1.1	1.80718	0	
1.05	1.89378	0	
1	1.80718	0	
0.75	1.89378	0	
0.7	1.80718	0	
0.8	1.80718	0	
2.3	0.594744	0	
2.25	0.681347	0	
2.2	0.594744	0	
1.36513	0.16103	0	
1.4	0.248334	0	
1.3063	0.246344	0	
2.55	0.337181	0	
2.45	0.335311	0	
2.51667	0.252595	0	
0.8	1.63397	0	
0.7	1.63397	0	
0.750003	1.54737	0	
2.3	1.11436	0	
2.25	1.20096	0	
2.2	1.11436	0	
2.45	1.89378	0	
2.4	1.80718	0	
2.5	1.80718	0	
2.25	0.508142	0	
2.2	0.594744	0	
2.15	0.508142	0	
0.75	1.89378	0	
0.65	1.89378	0	
0.7	1.80718	0	
2.2	1.11436	0	
2.25	1.20096	0	
2.15	1.20096	0	
2.6	1.28756	0	
2.65074	1.37451	0	
2.55012	1.37422	0	
0.305278	0.424586	0	
0.35088	0.508649	0	
0.251861	0.509753	0	
1.59572	0.42663	0	
1.55	0.508142	0	
1.49929	0.422388	0	
1	0.421539	0	
0.945867	0.337323	0	
1.05	0.334936	0	
2.45	0.508142	0	
2.4	0.594744	0	
2.35	0.508142	0	
1	1.11436	0	
0.95	1.02776	0	
1.05	1.02776	0	
2.8	0.248334	0	
2.68879	0.239262	0	
2.75524	0.162368	0	
2.55	1.54737	0	
2.5	1.46077	0	
2.60022	1.46093	0	
1.45	0.508142	0	
1.4	0.421539	0	
1.49929	0.422388	0	
1.4	0.421539	0	
1.45	0.334936	0	
1.49929	0.422388	0	
2.5	1.28756	0	
2.6	1.28756	0	
2.55012	1.37422	0	
0.7	1.98038	0	
0.65	1.89378	0	
0.75	1.89378	0	
0.55	0.508142	0	
0.5	0.594744	0	
0.450147	0.508226	0	
2.55012	1.37422	0	
2.65074	1.37451	0	
2.60022	1.46093	0	
2.4	1.80718	0	
2.45	1.72058	0	
2.5	1.80718	0	
0.8	0	0	
0.9	0	0	
0.839315	0.093894	0	
0.5	0.421539	0	
0.55	0.508142	0	
0.450147	0.508226	0	
2.51667	0.252595	0	
2.45	0.335311	0	
2.4	0.248334	0	
0.55	2.06699	0	
0.45	2.06699	0	
0.500009	1.98038	0	
0.7	0.767949	0	
0.75	0.854552	0	
0.65	0.854552	0	
2.7	1.80718	0	
2.81421	1.80465	0	
2.75	1.89378	0	
0.7	1.98038	0	
0.6	1.98038	0	
0.65	1.89378	0	
1	0.421539	0	
1.05	0.334936	0	
1.1	0.423783	0	
2.6	0.941154	0	
2.65	1.02776	0	
2.55	1.02776	0	
0.35	1.02776	0	
0.252594	1.02626	0	
0.300931	0.941193	0	
1.15	1.72058	0	
1.05	1.72058	0	
1.1	1.63397	0	
0.450147	0.508226	0	
0.5	0.594744	0	
0.400171	0.594843	0	
2.05	1.20096	0	
2.1	1.11436	0	
2.15	1.20096	0	
0.4	0.421539	0	
0.5	0.421539	0	
0.450147	0.508226	0	
3	0.4	0	
3	0.5	0	
2.91458	0.454203	0	
1.65	0.854552	0	
1.6	0.767964	0	
1.7	0.76796	0	
2.55	0.337181	0	
2.5	0.421539	0	
2.45	0.335311	0	
1.45	1.54737	0	
1.5	1.46077	0	
1.55	1.54737	0	
2.6	0.941154	0	
2.7	0.941154	0	
2.65	1.02776	0	
1.9	1.46077	0	
1.85	1.37417	0	
1.95	1.37417	0	
2.65	1.72058	0	
2.55	1.72058	0	
2.59993	1.63394	0	
0.6	0.767949	0	
0.7	0.767949	0	
0.65	0.854552	0	
0.5	2.15359	0	
0.45	2.24019	0	
0.399435	2.15392	0	
2.55	1.02776	0	
2.65	1.02776	0	
2.6	1.11436	0	
1.45	0.334936	0	
1.5	0.248334	0	
1.54755	0.336481	0	
0.55	0.854552	0	
0.6	0.767949	0	
0.65	0.854552	0	
2.55	1.02776	0	
2.6	1.11436	0	
2.5	1.11436	0	
0.8	1.98038	0	
0.75	1.89378	0	
0.85	1.89378	0	
3	0.8	0	
3	0.9	0	
2.92056	0.844766	0	
2	0.421975	0	
2.05	0.508214	0	
1.95	0.508293	0	
1.9	1.28756	0	
2	1.28756	0	
1.95	1.37417	0	
2.6	1.80718	0	
2.5	1.80718	0	
2.55	1.72058	0	
1.95	1.37417	0	
2.05	1.37417	0	
2	1.46077	0	
0.95	1.54737	0	
1	1.46077	0	
1.05	1.54737	0	
1.1	1.11436	0	
1.2	1.11436	0	
1.15	1.20096	0	
0.35088	0.508649	0	
0.4	0.421539	0	
0.450147	0.508226	0	
1.05	1.20096	0	
1.1	1.11436	0	
1.15	1.20096	0	
0.65	2.06699	0	
0.6	1.98038	0	
0.7	1.98038	0	
2.45	1.20096	0	
2.4	1.11436	0	
2.5	1.11436	0	
2.69992	1.98018	0	
2.65	1.89378	0	
2.75	1.89378	0	
0.75	0.854552	0	
0.7	0.941154	0	
0.65	0.854552	0	
1.6	0.767964	0	
1.65	0.681422	0	
1.7	0.76796	0	
0.6	2.5	0	
0.5	2.5	0	
0.55	2.4134	0	
2.45	1.72058	0	
2.5	1.63397	0	
2.55	1.72058	0	
0.35088	0.508649	0	
0.450147	0.508226	0	
0.400171	0.594843	0	
2.79949	1.97915	0	
2.69992	1.98018	0	
2.75	1.89378	0	
2.65	1.89378	0	
2.7	1.80718	0	
2.75	1.89378	0	
0.75	1.89378	0	
0.8	1.80718	0	
0.85	1.89378	0	
0.55	0.854552	0	
0.65	0.854552	0	
0.6	0.941154	0	
1.3	0.421539	0	
1.25	0.508142	0	
1.2	0.421539	0	
0.35	0.854552	0	
0.45	0.854552	0	
0.4	0.941154	0	
1.75	0.854552	0	
1.65	0.854552	0	
1.7	0.76796	0	
2.69961	1.63375	0	
2.59993	1.63394	0	
2.65	1.54737	0	
1	0.767949	0	
0.95	0.681347	0	
1.05	0.681347	0	
2.15	1.20096	0	
2.2	1.28756	0	
2.1	1.28756	0	
2.5	1.80718	0	
2.45	1.72058	0	
2.55	1.72058	0	
2.35	0.508142	0	
2.3	0.421975	0	
2.4	0.421674	0	
1.9	0.941154	0	
1.85	1.02776	0	
1.8	0.941154	0	
2.45	1.02776	0	
2.55	1.02776	0	
2.5	1.11436	0	
2	1.28756	0	
2.05	1.37417	0	
1.95	1.37417	0	
0	2.4	0	
0	2.3	0	
0.0875882	2.33733	0	
1.8	1.46077	0	
1.9	1.46077	0	
1.85	1.54737	0	
0.65	0.854552	0	
0.7	0.941154	0	
0.6	0.941154	0	
1.2	1.28756	0	
1.1	1.28756	0	
1.15	1.20096	0	
2.5	0.421539	0	
2.45	0.508142	0	
2.4	0.421674	0	
2.4	1.11436	0	
2.35	1.02776	0	
2.45	1.02776	0	
1.05	2.24019	0	
1	2.15359	0	
1.1	2.15359	0	
1	1.63397	0	
0.95	1.54737	0	
1.05	1.54737	0	
1.95	0.335446	0	
2	0.421975	0	
1.89958	0.420463	0	
2.25	0.681347	0	
2.2	0.767949	0	
2.15	0.681347	0	
2.55	0.854552	0	
2.6	0.941154	0	
2.5	0.941154	0	
0.35	0.854552	0	
0.4	0.767949	0	
0.45	0.854552	0	
0.45	2.24019	0	
0.348531	2.24111	0	
0.399435	2.15392	0	
2.45	0.854552	0	
2.55	0.854552	0	
2.5	0.941154	0	
2.2	0.594744	0	
2.25	0.681347	0	
2.15	0.681347	0	
1.3	1.28756	0	
1.2	1.28756	0	
1.25	1.20096	0	
1.75	0.854552	0	
1.8	0.76796	0	
1.85	0.854553	0	
0.85	1.72058	0	
0.9	1.63397	0	
0.95	1.72058	0	
0.5	0.767949	0	
0.55	0.854552	0	
0.45	0.854552	0	
0.55	2.06699	0	
0.5	2.15359	0	
0.45	2.06699	0	
2	0.421975	0	
1.95	0.508293	0	
1.89958	0.420463	0	
0.7	2.5	0	
0.6	2.5	0	
0.65	2.4134	0	
0.65	2.06699	0	
0.55	2.06699	0	
0.6	1.98038	0	
2.1	0.594744	0	
2.15	0.681347	0	
2.05	0.681347	0	
2.05	1.20096	0	
2.15	1.20096	0	
2.1	1.28756	0	
1.1	1.28756	0	
1.05	1.20096	0	
1.15	1.20096	0	
0.8	2.5	0	
0.7	2.5	0	
0.75	2.4134	0	
2	1.28756	0	
2.05	1.20096	0	
2.1	1.28756	0	
0.55	0.854552	0	
0.5	0.941154	0	
0.45	0.854552	0	
1.5	1.80718	0	
1.4	1.80718	0	
1.45	1.72058	0	
2.91001	0.357804	0	
3	0.4	0	
2.91458	0.454203	0	
2.55	1.72058	0	
2.5	1.63397	0	
2.59993	1.63394	0	
0.45	2.06699	0	
0.5	2.15359	0	
0.399435	2.15392	0	
0.45	1.02776	0	
0.35	1.02776	0	
0.4	0.941154	0	
0.55	1.89378	0	
0.6	1.98038	0	
0.500009	1.98038	0	
2.2	0.767949	0	
2.1	0.767949	0	
2.15	0.681347	0	
1.4	1.80718	0	
1.35	1.72058	0	
1.45	1.72058	0	
2.35	1.02776	0	
2.4	0.941154	0	
2.45	1.02776	0	
1.85	1.37417	0	
1.9	1.28756	0	
1.95	1.37417	0	
2.3	0.421975	0	
2.25	0.337555	0	
2.35	0.337775	0	
0.5	0.594744	0	
0.45	0.681347	0	
0.400171	0.594843	0	
1	0.594744	0	
0.95	0.508142	0	
1.05	0.508516	0	
2.6	0.941154	0	
2.55	1.02776	0	
2.5	0.941154	0	
1.05	1.89378	0	
0.95	1.89378	0	
1	1.80718	0	
2.45	0.508142	0	
2.35	0.508142	0	
2.4	0.421674	0	
3	0.5	0	
2.92552	0.551683	0	
2.91458	0.454203	0	
2.45	0.335311	0	
2.5	0.421539	0	
2.4	0.421674	0	
1.1	0.767949	0	
1	0.767949	0	
1.05	0.681347	0	
0.95	0.681347	0	
1	0.594744	0	
1.05	0.681347	0	
1.05	0.0866025	0	
1.1	0	0	
1.14929	0.0858164	0	
1.05	0.508516	0	
1.1	0.423783	0	
1.15	0.508578	0	
1.1	0.594744	0	
1	0.594744	0	
1.05	0.508516	0	
2.915	1.05278	0	
3	1.1	0	
2.91611	1.15046	0	
2.5	1.63397	0	
2.55	1.54737	0	
2.59993	1.63394	0	
0.7	0.941154	0	
0.65	1.02776	0	
0.6	0.941154	0	
1.05	0.0866025	0	
0.989149	0.179188	0	
0.946411	0.0865707	0	
1.9235	0.247919	0	
1.95	0.335446	0	
1.8573	0.333096	0	
2.65	1.54737	0	
2.70048	1.46132	0	
2.74581	1.54504	0	
2.05	1.37417	0	
2.1	1.46077	0	
2	1.46077	0	
1.55	1.72058	0	
1.5	1.80718	0	
1.45	1.72058	0	
2.05	0.508214	0	
2.1	0.594744	0	
2	0.594788	0	
1.85	1.20096	0	
1.8	1.28756	0	
1.75	1.20096	0	
0.45	2.24019	0	
0.4	2.32679	0	
0.348531	2.24111	0	
0.55	2.24019	0	
0.45	2.24019	0	
0.5	2.15359	0	
1.7	1.11436	0	
1.65	1.02776	0	
1.75	1.02776	0	
1.75	1.54737	0	
1.8	1.46077	0	
1.85	1.54737	0	
2.15	0.681347	0	
2.1	0.767949	0	
2.05	0.681347	0	
1.8	1.11436	0	
1.7	1.11436	0	
1.75	1.02776	0	
1	0.421539	0	
1.1	0.423783	0	
1.05	0.508516	0	
1.55	1.20096	0	
1.5	1.28756	0	
1.45	1.20096	0	
0.400171	0.594843	0	
0.35	0.681347	0	
0.297436	0.595537	0	
2.60022	1.46093	0	
2.70048	1.46132	0	
2.65	1.54737	0	
2.1	0.767949	0	
2	0.767949	0	
2.05	0.681347	0	
0.6	2.15359	0	
0.55	2.06699	0	
0.65	2.06699	0	
0.45	0.854552	0	
0.5	0.941154	0	
0.4	0.941154	0	
2.69961	1.63375	0	
2.65	1.54737	0	
2.74581	1.54504	0	
1.85	0.854553	0	
1.8	0.76796	0	
1.9	0.767977	0	
0.5	2.32679	0	
0.4	2.32679	0	
0.45	2.24019	0	
2.59993	1.63394	0	
2.55	1.54737	0	
2.65	1.54737	0	
0.5	2.32679	0	
0.45	2.4134	0	
0.4	2.32679	0	
1.85	0.681444	0	
1.9	0.594934	0	
1.95	0.681402	0	
1.5	1.11436	0	
1.55	1.20096	0	
1.45	1.20096	0	
0.4	0.767949	0	
0.5	0.767949	0	
0.45	0.854552	0	
0.95	0.508142	0	
1	0.421539	0	
1.05	0.508516	0	
1.1	0.594744	0	
1.05	0.508516	0	
1.15	0.508578	0	
1.25	1.20096	0	
1.3	1.11436	0	
1.35	1.20096	0	
1.2	1.63397	0	
1.15	1.72058	0	
1.1	1.63397	0	
0.251861	0.509753	0	
0.35088	0.508649	0	
0.297436	0.595537	0	
0.6	2.15359	0	
0.5	2.15359	0	
0.55	2.06699	0	
2.45	0.335311	0	
2.4	0.421674	0	
2.35	0.337775	0	
2.55	1.54737	0	
2.60022	1.46093	0	
2.65	1.54737	0	
2.4	0.421674	0	
2.3	0.421975	0	
2.35	0.337775	0	
1.8	0.76796	0	
1.85	0.681444	0	
1.9	0.767977	0	
0.7	1.80718	0	
0.65	1.89378	0	
0.600005	1.80718	0	
0.9	1.80718	0	
0.85	1.72058	0	
0.95	1.72058	0	
0.55	2.24019	0	
0.5	2.15359	0	
0.6	2.15359	0	
0.4	0.941154	0	
0.35	1.02776	0	
0.300931	0.941193	0	
0.6	2.5	0	
0.55	2.4134	0	
0.65	2.4134	0	
1.85	0.681444	0	
1.95	0.681402	0	
1.9	0.767977	0	
1.4	1.28756	0	
1.35	1.20096	0	
1.45	1.20096	0	
1.4	1.28756	0	
1.3	1.28756	0	
1.35	1.20096	0	
0.650004	1.72058	0	
0.7	1.80718	0	
0.600005	1.80718	0	
2.70048	1.46132	0	
2.79495	1.46024	0	
2.74581	1.54504	0	
0.35088	0.508649	0	
0.400171	0.594843	0	
0.297436	0.595537	0	
1.35	1.72058	0	
1.4	1.63397	0	
1.45	1.72058	0	
1.5	1.28756	0	
1.4	1.28756	0	
1.45	1.20096	0	
0.75	2.4134	0	
0.7	2.5	0	
0.65	2.4134	0	
1.5	1.11436	0	
1.6	1.11436	0	
1.55	1.20096	0	
2.78791	1.62506	0	
2.69961	1.63375	0	
2.74581	1.54504	0	
2.4	0.248334	0	
2.45	0.335311	0	
2.35	0.337775	0	
2.4	1.11436	0	
2.45	1.02776	0	
2.5	1.11436	0	
1.25	0.508142	0	
1.2	0.594744	0	
1.15	0.508578	0	
1.8	1.28756	0	
1.7	1.28756	0	
1.75	1.20096	0	
0.5	0.941154	0	
0.45	1.02776	0	
0.4	0.941154	0	
1.6	1.11436	0	
1.7	1.11436	0	
1.65	1.20096	0	
1.6	1.11436	0	
1.65	1.20096	0	
1.55	1.20096	0	
1.2	1.11436	0	
1.3	1.11436	0	
1.25	1.20096	0	
0.252992	0.856279	0	
0.35	0.854552	0	
0.300931	0.941193	0	
1.75	1.02776	0	
1.7	0.941154	0	
1.8	0.941154	0	
1.75	1.20096	0	
1.7	1.28756	0	
1.65	1.20096	0	
1.65	1.02776	0	
1.7	0.941154	0	
1.75	1.02776	0	
1.7	1.28756	0	
1.6	1.28756	0	
1.65	1.20096	0	
1.3	1.11436	0	
1.4	1.11436	0	
1.35	1.20096	0	
1.7	0.941154	0	
1.75	0.854552	0	
1.8	0.941154	0	
1.35	1.20096	0	
1.4	1.11436	0	
1.45	1.20096	0	
1.2	1.28756	0	
1.15	1.20096	0	
1.25	1.20096	0	
1.7	1.11436	0	
1.75	1.20096	0	
1.65	1.20096	0	
1.65	1.20096	0	
1.6	1.28756	0	
1.55	1.20096	0	
1.4	1.11436	0	
1.5	1.11436	0	
1.45	1.20096	0	
1.6	1.28756	0	
1.5	1.28756	0	
1.55	1.20096	0	
1.15	1.20096	0	
1.2	1.11436	0	
1.25	1.20096	0	
0.297343	2.328	0	
0.4	2.32679	0	
0.349435	2.41366	0	
0.35	0.854552	0	
0.4	0.941154	0	
0.300931	0.941193	0	
0.65	1.89378	0	
0.55	1.89378	0	
0.600005	1.80718	0	
1.9	0.594934	0	
1.85	0.508673	0	
1.95	0.508293	0	
2.05	0.508214	0	
2	0.594788	0	
1.95	0.508293	0	
1.2	0.594744	0	
1.1	0.594744	0	
1.15	0.508578	0	
2.1	0.594744	0	
2.05	0.681347	0	
2	0.594788	0	
1.95	0.508293	0	
1.85	0.508673	0	
1.89958	0.420463	0	
1.95	0.854552	0	
1.85	0.854553	0	
1.9	0.767977	0	
0.55	2.24019	0	
0.65	2.24019	0	
0.6	2.32679	0	
1.95	0.681402	0	
2	0.767949	0	
1.9	0.767977	0	
1.85	0.508673	0	
1.78919	0.412709	0	
1.89958	0.420463	0	
1.95	0.854552	0	
1.9	0.941154	0	
1.85	0.854553	0	
2	0.767949	0	
1.95	0.854552	0	
1.9	0.767977	0	
0.348531	2.24111	0	
0.4	2.32679	0	
0.297343	2.328	0	
0.4	2.5	0	
0.3	2.5	0	
0.349435	2.41366	0	
2	0.594788	0	
1.9	0.594934	0	
1.95	0.508293	0	
2.05	0.681347	0	
2	0.767949	0	
1.95	0.681402	0	
0.45	2.4134	0	
0.4	2.5	0	
0.349435	2.41366	0	
0.300931	0.941193	0	
0.252594	1.02626	0	
0.206742	0.942296	0	
2	0.594788	0	
2.05	0.681347	0	
1.95	0.681402	0	
1.9	0.594934	0	
2	0.594788	0	
1.95	0.681402	0	
0.55	2.4134	0	
0.5	2.32679	0	
0.6	2.32679	0	
0.252992	0.856279	0	
0.300931	0.941193	0	
0.206742	0.942296	0	
0.65	2.4134	0	
0.55	2.4134	0	
0.6	2.32679	0	
0.5	2.32679	0	
0.55	2.24019	0	
0.6	2.32679	0	
0.65	2.24019	0	
0.75	2.24019	0	
0.7	2.32679	0	
1.6	2.32679	0	
1.65	2.24019	0	
1.7	2.32679	0	
0.65	2.4134	0	
0.6	2.32679	0	
0.7	2.32679	0	
0.6	2.32679	0	
0.65	2.24019	0	
0.7	2.32679	0	
0.8	2.32679	0	
0.85	2.24019	0	
0.9	2.32679	0	
0.75	2.4134	0	
0.65	2.4134	0	
0.7	2.32679	0	
0.75	2.24019	0	
0.85	2.24019	0	
0.8	2.32679	0	
0.7	2.32679	0	
0.75	2.24019	0	
0.8	2.32679	0	
0.85	2.24019	0	
0.95	2.24019	0	
0.9	2.32679	0	
0.75	2.4134	0	
0.7	2.32679	0	
0.8	2.32679	0	
0.85	2.4134	0	
0.8	2.32679	0	
0.9	2.32679	0	
0.85	2.4134	0	
0.75	2.4134	0	
0.8	2.32679	0	
1.45	2.24019	0	
1.5	2.32679	0	
1.4	2.32679	0	
1	2.32679	0	
1.05	2.24019	0	
1.1	2.32679	0	
1.4	2.5	0	
1.35	2.4134	0	
1.45	2.4134	0	
0.95	2.24019	0	
1.05	2.24019	0	
1	2.32679	0	
0.9	2.32679	0	
0.95	2.24019	0	
1	2.32679	0	
1.35	2.4134	0	
1.4	2.32679	0	
1.45	2.4134	0	
1.1	2.32679	0	
1.15	2.24019	0	
1.2	2.32679	0	
0.95	2.4134	0	
0.85	2.4134	0	
0.9	2.32679	0	
1.15	2.4134	0	
1.1	2.32679	0	
1.2	2.32679	0	
1.65	2.4134	0	
1.6	2.5	0	
1.55	2.4134	0	
1.4	2.32679	0	
1.5	2.32679	0	
1.45	2.4134	0	
1.55	2.24019	0	
1.65	2.24019	0	
1.6	2.32679	0	
1.05	2.24019	0	
1.15	2.24019	0	
1.1	2.32679	0	
0.95	2.4134	0	
0.9	2.32679	0	
1	2.32679	0	
1.05	2.4134	0	
1	2.32679	0	
1.1	2.32679	0	
1.05	2.4134	0	
0.95	2.4134	0	
1	2.32679	0	
1.15	2.4134	0	
1.05	2.4134	0	
1.1	2.32679	0	
1.25	2.4134	0	
1.15	2.4134	0	
1.2	2.32679	0	
1.65	2.4134	0	
1.6	2.32679	0	
1.7	2.32679	0	
1.25	2.4134	0	
1.2	2.32679	0	
1.3	2.32679	0	
1.35	2.4134	0	
1.25	2.4134	0	
1.3	2.32679	0	
1.15	2.24019	0	
1.25	2.24019	0	
1.2	2.32679	0	
1.35	2.24019	0	
1.45	2.24019	0	
1.4	2.32679	0	
1.2	2.32679	0	
1.25	2.24019	0	
1.3	2.32679	0	
1.35	2.24019	0	
1.4	2.32679	0	
1.3	2.32679	0	
1.4	2.32679	0	
1.35	2.4134	0	
1.3	2.32679	0	
2.75026	2.24014	0	
2.8009	2.33019	0	
2.7002	2.32735	0	
1.25	2.24019	0	
1.35	2.24019	0	
1.3	2.32679	0	
1.5	2.5	0	
1.4	2.5	0	
1.45	2.4134	0	
2.7	2.5	0	
2.65	2.4134	0	
2.74937	2.41453	0	
1.5	2.5	0	
1.45	2.4134	0	
1.55	2.4134	0	
1.45	2.4134	0	
1.5	2.32679	0	
1.55	2.4134	0	
2.65	2.4134	0	
2.7002	2.32735	0	
2.74937	2.41453	0	
1.65	2.4134	0	
1.55	2.4134	0	
1.6	2.32679	0	
2.7002	2.32735	0	
2.8009	2.33019	0	
2.74937	2.41453	0	
1.6	2.5	0	
1.5	2.5	0	
1.55	2.4134	0	
1.65	2.24019	0	
1.75	2.24019	0	
1.7	2.32679	0	
1.7	2.32679	0	
1.75	2.24019	0	
1.8	2.32679	0	
1.5	2.32679	0	
1.55	2.24019	0	
1.6	2.32679	0	
1.75	2.24019	0	
1.85	2.24019	0	
1.8	2.32679	0	
1.8	2.32679	0	
1.85	2.24019	0	
1.9	2.32679	0	
1.75	2.4134	0	
1.65	2.4134	0	
1.7	2.32679	0	
1.85	2.24019	0	
1.95	2.24019	0	
1.9	2.32679	0	
1.75	2.4134	0	
1.7	2.32679	0	
1.8	2.32679	0	
1.9	2.32679	0	
1.95	2.24019	0	
2	2.32679	0	
1.85	2.4134	0	
1.75	2.4134	0	
1.8	2.32679	0	
1.95	2.24019	0	
2.05	2.24019	0	
2	2.32679	0	
1.85	2.4134	0	
1.8	2.32679	0	
1.9	2.32679	0	
2	2.32679	0	
2.05	2.24019	0	
2.1	2.32679	0	
1.95	2.4134	0	
1.85	2.4134	0	
1.9	2.32679	0	
2.05	2.24019	0	
2.15	2.24019	0	
2.1	2.32679	0	
1.95	2.4134	0	
1.9	2.32679	0	
2	2.32679	0	
2.1	2.32679	0	
2.15	2.24019	0	
2.2	2.32679	0	
2.05	2.4134	0	
1.95	2.4134	0	
2	2.32679	0	
2.15	2.24019	0	
2.25	2.24019	0	
2.2	2.32679	0	
2.05	2.4134	0	
2	2.32679	0	
2.1	2.32679	0	
2.2	2.32679	0	
2.25	2.24019	0	
2.3	2.32679	0	
2.15	2.4134	0	
2.05	2.4134	0	
2.1	2.32679	0	
2.25	2.24019	0	
2.35	2.24019	0	
2.3	2.32679	0	
2.15	2.4134	0	
2.1	2.32679	0	
2.2	2.32679	0	
2.65004	2.24018	0	
2.7002	2.32735	0	
2.60004	2.32689	0	
2.3	2.32679	0	
2.35	2.24019	0	
2.4	2.32679	0	
1.55	2.4134	0	
1.5	2.32679	0	
1.6	2.32679	0	
2.25	2.4134	0	
2.15	2.4134	0	
2.2	2.32679	0	
2.35	2.24019	0	
2.45	2.24019	0	
2.4	2.32679	0	
2.25	2.4134	0	
2.2	2.32679	0	
2.3	2.32679	0	
2.4	2.32679	0	
2.45	2.24019	0	
2.5	2.32679	0	
2.35	2.4134	0	
2.25	2.4134	0	
2.3	2.32679	0	
2.45	2.24019	0	
2.55	2.24019	0	
2.5	2.32679	0	
2.35	2.4134	0	
2.3	2.32679	0	
2.4	2.32679	0	
2.7002	2.32735	0	
2.65	2.4134	0	
2.60004	2.32689	0	
2.5	2.32679	0	
2.55	2.24019	0	
2.60004	2.32689	0	
2.45	2.4134	0	
2.35	2.4134	0	
2.4	2.32679	0	
2.55	2.24019	0	
2.65004	2.24018	0	
2.60004	2.32689	0	
2.45	2.4134	0	
2.4	2.32679	0	
2.5	2.32679	0	
2.55	2.4134	0	
2.45	2.4134	0	
2.5	2.32679	0	
2.65004	2.24018	0	
2.75026	2.24014	0	
2.7002	2.32735	0	
2.55	2.4134	0	
2.5	2.32679	0	
2.60004	2.32689	0	
2.8	2.5	0	
2.7	2.5	0	
2.74937	2.41453	0	
2.65	2.4134	0	
2.55	2.4134	0	
2.60004	2.32689	0	
2.89902	0.251072	0	
2.91001	0.357804	0	
2.8339	0.321029	0	
2.91623	0.154904	0	
2.89902	0.251072	0	
2.83961	0.178517	0	
2.8412	1.69251	0	
2.78791	1.62506	0	
2.86133	1.60691	0	
0.0774873	0.746944	0	
0.157101	0.708403	0	
0.137836	0.793984	0	
0.257408	0.160839	0	
0.35	0.0866025	0	
0.352555	0.182608	0	
3	0.7	0	
3	0.8	0	
2.92657	0.748203	0	
1.7	0.34641	0	
1.68919	0.42866	0	
1.6243	0.349772	0	
1.34134	0.0779261	0	
1.36513	0.16103	0	
1.27841	0.162372	0	
1.89002	0.165554	0	
1.9235	0.247919	0	
1.82792	0.247963	0	
2.74275	0.0777623	0	
2.75524	0.162368	0	
2.67729	0.155567	0	
0.181703	0.597281	0	
0.25	0.681347	0	
0.157101	0.708403	0	
0.157101	0.708403	0	
0.21192	0.776631	0	
0.137836	0.793984	0	
2.79333	0.595517	0	
2.84465	0.521642	0	
2.87094	0.608462	0	
0.307076	1.45838	0	
0.351979	1.54739	0	
0.244856	1.54251	0	
0.301089	1.63442	0	
0.204861	1.63908	0	
0.244856	1.54251	0	
3	0.1	0	
3	0.2	0	
2.91623	0.154904	0	
2.9	2.5	0	
2.8	2.5	0	
2.84645	2.4175	0	
2.74937	2.41453	0	
2.8009	2.33019	0	
2.84645	2.4175	0	
0.165192	0.201576	0	
0.257408	0.160839	0	
0.22487	0.254945	0	
0.249915	0.343232	0	
0.162652	0.397176	0	
0.162046	0.299596	0	
3	0.8	0	
2.92056	0.844766	0	
2.92657	0.748203	0	
0.150144	2.06273	0	
0.08858	2.15128	0	
0.0673985	2.05145	0	
2.90934	2.15154	0	
2.84979	2.06272	0	
2.93249	2.05147	0	
0.162652	0.397176	0	
0.0851327	0.35	0	
0.162046	0.299596	0	
0.0845156	0.250645	0	
0.165192	0.201576	0	
0.162046	0.299596	0	
0.2	2.5	0	
0.1	2.5	0	
0.152907	2.41774	0	
3	0.7	0	
2.92657	0.748203	0	
2.93006	0.65	0	
0.0897949	1.05552	0	
0.100424	0.946359	0	
0.166735	1.01677	0	
0.351493	1.3733	0	
0.307076	1.45838	0	
0.25713	1.37519	0	
0.247913	2.41439	0	
0.2	2.5	0	
0.152907	2.41774	0	
0.305366	0.253288	0	
0.257408	0.160839	0	
0.352555	0.182608	0	
0.181703	0.597281	0	
0.084544	0.55	0	
0.163512	0.495241	0	
0.083956	0.45	0	
0.162652	0.397176	0	
0.163512	0.495241	0	
0.185884	1.80464	0	
0.25	1.89378	0	
0.16148	1.89962	0	
2.75	1.89378	0	
2.81421	1.80465	0	
2.8385	1.89956	0	
0.186477	1.29433	0	
0.0845107	1.25	0	
0.159348	1.20076	0	
2.91549	1.25	0	
2.81896	1.29509	0	
2.84384	1.20056	0	
2.81864	1.10627	0	
2.91611	1.15046	0	
2.84384	1.20056	0	
0.351979	1.54739	0	
0.301089	1.63442	0	
0.244856	1.54251	0	
2.79333	0.595517	0	
2.75033	0.505889	0	
2.84465	0.521642	0	
2.8	0	0	
2.83952	0.0905932	0	
2.74275	0.0777623	0	
2.64572	0.0818857	0	
2.7	0	0	
2.74275	0.0777623	0	
2.68879	0.239262	0	
2.65	0.337555	0	
2.60037	0.268668	0	
2.55	0.337181	0	
2.51667	0.252595	0	
2.60037	0.268668	0	
2.54929	0.0835721	0	
2.59639	0.176746	0	
2.48539	0.167931	0	
2.3	0.173205	0	
2.35	0.0843583	0	
2.39708	0.152086	0	
2.25	0.337555	0	
2.2	0.248334	0	
2.3	0.269041	0	
2.1	0.173205	0	
2.15	0.0843583	0	
2.2	0.152543	0	
2.25	0.0836102	0	
2.3	0.173205	0	
2.2	0.152543	0	
2.4	0.248334	0	
2.35	0.337775	0	
2.3	0.269041	0	
2.05	0.337555	0	
2.01667	0.25268	0	
2.10333	0.269791	0	
2.2	0.248334	0	
2.15	0.337181	0	
2.10333	0.269791	0	
2.05	0.0839842	0	
2.1	0.173205	0	
1.9974	0.161722	0	
1.79567	0.168531	0	
1.84928	0.0835793	0	
1.89002	0.165554	0	
1.65	0.510386	0	
1.59572	0.42663	0	
1.68919	0.42866	0	
1.78919	0.412709	0	
1.75	0.510822	0	
1.68919	0.42866	0	
1.5	0	0	
1.53919	0.0958918	0	
1.4421	0.077765	0	
1.23919	0.325647	0	
1.2	0.421539	0	
1.14671	0.353826	0	
1.24572	0.0818857	0	
1.3	0	0	
1.34134	0.0779261	0	
1.09947	0.170575	0	
1.14436	0.263222	0	
1.05164	0.242114	0	
1.1	0.423783	0	
1.05	0.334936	0	
1.14671	0.353826	0	
0.946411	0.0865707	0	
0.989149	0.179188	0	
0.899921	0.156712	0	
0.8	0	0	
0.839315	0.093894	0	
0.731982	0.081988	0	
0.55	0.0866025	0	
0.6	0	0	
0.646396	0.0660644	0	
0.65	0.161731	0	
0.6	0.250578	0	
0.55	0.182394	0	
0.5	0.251326	0	
0.45	0.161731	0	
0.55	0.182394	0	
0.35	0.0866025	0	
0.4	0	0	
0.45	0.0669873	0	
0.5	0	0	
0.55	0.0866025	0	
0.45	0.0669873	0	
0.45	0.161731	0	
0.4	0.250578	0	
0.352555	0.182608	0	
0.08858	2.15128	0	
0.14219	2.24142	0	
0.06187	2.25	0	
3	0.2	0	
2.89902	0.251072	0	
2.91623	0.154904	0	
2.8	2.5	0	
2.74937	2.41453	0	
2.84645	2.4175	0	
2.84465	0.521642	0	
2.92552	0.551683	0	
2.87094	0.608462	0	
0.0875882	2.33733	0	
0.190045	2.3295	0	
0.152907	2.41774	0	
2.92657	0.748203	0	
2.84603	0.693858	0	
2.93006	0.65	0	
0.252575	1.7193	0	
0.185884	1.80464	0	
0.165303	1.71227	0	
2.81421	1.80465	0	
2.74764	1.71921	0	
2.8412	1.69251	0	
2.92552	0.551683	0	
3	0.6	0	
2.93006	0.65	0	
0.252594	1.02626	0	
0.186458	1.10941	0	
0.166735	1.01677	0	
2.9134	1.35	0	
2.89923	1.45455	0	
2.83574	1.3874	0	
0.08858	2.15128	0	
0	2.1	0	
0.0673985	2.05145	0	
0	2	0	
0.0950001	1.96391	0	
0.0673985	2.05145	0	
3	2.1	0	
2.90934	2.15154	0	
2.93249	2.05147	0	
2.905	1.96391	0	
3	2	0	
2.93249	2.05147	0	
2.9001	0.945957	0	
2.915	1.05278	0	
2.83643	1.01669	0	
2.81323	0.414097	0	
2.74721	0.333837	0	
2.8339	0.321029	0	
0.3	0	0	
0.35	0.0866025	0	
0.253841	0.0679351	0	
3	2.3	0	
2.90943	2.34082	0	
2.93387	2.24722	0	
2.90934	2.15154	0	
3	2.2	0	
2.93387	2.24722	0	
0.21192	0.776631	0	
0.252992	0.856279	0	
0.167949	0.864915	0	
2.74701	0.856279	0	
2.78954	0.777547	0	
2.83205	0.864915	0	
2.78791	1.62506	0	
2.74581	1.54504	0	
2.83189	1.53692	0	
2.92086	1.65219	0	
2.91405	1.75321	0	
2.8412	1.69251	0	
0.0893224	1.7521	0	
0.0992698	1.6456	0	
0.165303	1.71227	0	
0.162652	0.397176	0	
0.249915	0.343232	0	
0.229836	0.437699	0	
0	2.2	0	
0.08858	2.15128	0	
0.06187	2.25	0	
0.0875882	2.33733	0	
0	2.3	0	
0.06187	2.25	0	
3	2.4	0	
3	2.5	0	
2.92679	2.42679	0	
3	2.5	0	
2.9	2.5	0	
2.92679	2.42679	0	
0	0.1	0	
0	0	0	
0.0732051	0.0732051	0	
2.9	0	0	
3	0	0	
2.92679	0.0732051	0	
0	0	0	
0.1	0	0	
0.0732051	0.0732051	0	
3	0	0	
3	0.1	0	
2.92679	0.0732051	0	
0.161796	0.0922337	0	
0.0843696	0.153868	0	
0.0732051	0.0732051	0	
0.1	2.5	0	
0	2.5	0	
0.0732051	2.42679	0	
0	2.5	0	
0	2.4	0	
0.0732051	2.42679	0	
0.249915	0.343232	0	
0.305278	0.424586	0	
0.229836	0.437699	0	
0.0774873	0.746944	0	
0.0846868	0.648216	0	
0.157101	0.708403	0	
0.899369	0.241805	0	
0.795647	0.249698	0	
0.833891	0.179624	0	
1.05	0.334936	0	
0.945867	0.337323	0	
0.978327	0.263802	0	
0.0992698	1.6456	0	
0.0866025	1.55	0	
0.158405	1.57344	0	
0.0851327	0.35	0	
0.0845156	0.250645	0	
0.162046	0.299596	0	
0.186458	1.10941	0	
0.25	1.20096	0	
0.159348	1.20076	0	
2.75214	1.37712	0	
2.81896	1.29509	0	
2.83574	1.3874	0	
0.307076	1.45838	0	
0.244856	1.54251	0	
0.227896	1.45479	0	
0.3	1.28756	0	
0.351493	1.3733	0	
0.25713	1.37519	0	
2.81864	1.10627	0	
2.7508	1.02621	0	
2.83643	1.01669	0	
2.91458	0.454203	0	
2.92552	0.551683	0	
2.84465	0.521642	0	
0.084544	0.55	0	
0.083956	0.45	0	
0.163512	0.495241	0	
2.79949	1.97915	0	
2.75	1.89378	0	
2.8385	1.89956	0	
0.0950001	1.96391	0	
0.0866025	1.85	0	
0.16148	1.89962	0	
0.25	1.89378	0	
0.2	1.98038	0	
0.16148	1.89962	0	
2.9134	1.85	0	
2.905	1.96391	0	
2.8385	1.89956	0	
0.0845107	1.25	0	
0.0866808	1.15065	0	
0.159348	1.20076	0	
2.91611	1.15046	0	
2.91549	1.25	0	
2.84384	1.20056	0	
0.244856	1.54251	0	
0.204861	1.63908	0	
0.158405	1.57344	0	
0.244856	1.54251	0	
0.164278	1.49547	0	
0.227896	1.45479	0	
2.75033	0.505889	0	
2.81323	0.414097	0	
2.84465	0.521642	0	
2.7	0	0	
2.8	0	0	
2.74275	0.0777623	0	
2.65	0.337555	0	
2.55	0.337181	0	
2.60037	0.268668	0	
2.45	0.0866025	0	
2.54929	0.0835721	0	
2.48539	0.167931	0	
2.45	0.0866025	0	
2.48539	0.167931	0	
2.39708	0.152086	0	
2.35	0.0843583	0	
2.45	0.0866025	0	
2.39708	0.152086	0	
2.35	0.337775	0	
2.25	0.337555	0	
2.3	0.269041	0	
2.15	0.0843583	0	
2.25	0.0836102	0	
2.2	0.152543	0	
2.15	0.337181	0	
2.05	0.337555	0	
2.10333	0.269791	0	
1.95	0.0866025	0	
2.05	0.0839842	0	
1.9974	0.161722	0	
1.95	0.0866025	0	
1.9974	0.161722	0	
1.89002	0.165554	0	
1.84928	0.0835793	0	
1.95	0.0866025	0	
1.89002	0.165554	0	
1.75	0.510822	0	
1.65	0.510386	0	
1.68919	0.42866	0	
1.4	0	0	
1.5	0	0	
1.4421	0.077765	0	
1.4	0	0	
1.4421	0.077765	0	
1.34134	0.0779261	0	
1.3	0	0	
1.4	0	0	
1.34134	0.0779261	0	
1.2	0.421539	0	
1.1	0.423783	0	
1.14671	0.353826	0	
0.989149	0.179188	0	
1.09947	0.170575	0	
1.05164	0.242114	0	
0.839315	0.093894	0	
0.946411	0.0865707	0	
0.899921	0.156712	0	
0.7	0	0	
0.8	0	0	
0.731982	0.081988	0	
0.7	0	0	
0.731982	0.081988	0	
0.646396	0.0660644	0	
0.6	0	0	
0.7	0	0	
0.646396	0.0660644	0	
0.6	0.250578	0	
0.5	0.251326	0	
0.55	0.182394	0	
0.4	0	0	
0.5	0	0	
0.45	0.0669873	0	
0.4	0.250578	0	
0.305366	0.253288	0	
0.352555	0.182608	0	
0.0846868	0.648216	0	
0.181703	0.597281	0	
0.157101	0.708403	0	
0.899921	0.156712	0	
0.899369	0.241805	0	
0.833891	0.179624	0	
1.05164	0.242114	0	
1.05	0.334936	0	
0.978327	0.263802	0	
0.161796	0.0922337	0	
0.2	0	0	
0.253841	0.0679351	0	
0.25	0.681347	0	
0.21192	0.776631	0	
0.157101	0.708403	0	
0.204861	1.63908	0	
0.252575	1.7193	0	
0.165303	1.71227	0	
2.74764	1.71921	0	
2.78791	1.62506	0	
2.8412	1.69251	0	
0.164278	1.49547	0	
0.244856	1.54251	0	
0.158405	1.57344	0	
3	0.6	0	
3	0.7	0	
2.93006	0.65	0	
2.79495	1.46024	0	
2.75214	1.37712	0	
2.83574	1.3874	0	
2.75524	0.162368	0	
2.68879	0.239262	0	
2.67729	0.155567	0	
1.9235	0.247919	0	
1.8573	0.333096	0	
1.82792	0.247963	0	
1.82792	0.247963	0	
1.8573	0.333096	0	
1.77945	0.325517	0	
1.8573	0.333096	0	
1.78919	0.412709	0	
1.77945	0.325517	0	
1.27841	0.162372	0	
1.3063	0.246344	0	
1.2243	0.244972	0	
1.36513	0.16103	0	
1.3063	0.246344	0	
1.27841	0.162372	0	
1.3063	0.246344	0	
1.23919	0.325647	0	
1.2243	0.244972	0	
1.65765	0.260725	0	
1.7	0.34641	0	
1.6243	0.349772	0	
1.65765	0.260725	0	
1.6243	0.349772	0	
1.5756	0.26055	0	
1.60722	0.176328	0	
1.65765	0.260725	0	
1.5756	0.26055	0	
1.60722	0.176328	0	
1.5756	0.26055	0	
1.52974	0.182838	0	
1.53919	0.0958918	0	
1.60722	0.176328	0	
1.52974	0.182838	0	
2.7508	1.02621	0	
2.79662	0.942542	0	
2.83643	1.01669	0	
0.206742	0.942296	0	
0.252594	1.02626	0	
0.166735	1.01677	0	
2.81896	1.29509	0	
2.9134	1.35	0	
2.83574	1.3874	0	
2.8	0.248334	0	
2.75524	0.162368	0	
2.83961	0.178517	0	
0	2.1	0	
0	2	0	
0.0673985	2.05145	0	
3	2	0	
3	2.1	0	
2.93249	2.05147	0	
0.163512	0.495241	0	
0.162652	0.397176	0	
0.229836	0.437699	0	
2.915	1.05278	0	
2.81864	1.10627	0	
2.83643	1.01669	0	
2.74721	0.333837	0	
2.8	0.248334	0	
2.8339	0.321029	0	
0.2	0	0	
0.3	0	0	
0.253841	0.0679351	0	
0.257408	0.160839	0	
0.161796	0.0922337	0	
0.253841	0.0679351	0	
3	2.2	0	
3	2.3	0	
2.93387	2.24722	0	
0.252992	0.856279	0	
0.206742	0.942296	0	
0.167949	0.864915	0	
2.79662	0.942542	0	
2.74701	0.856279	0	
2.83205	0.864915	0	
2.74581	1.54504	0	
2.79495	1.46024	0	
2.83189	1.53692	0	
0.25713	1.37519	0	
0.307076	1.45838	0	
0.227896	1.45479	0	
3	0.1	0	
2.91623	0.154904	0	
2.92679	0.0732051	0	
2.9	2.5	0	
2.84645	2.4175	0	
2.92679	2.42679	0	
2.83952	0.0905932	0	
2.91623	0.154904	0	
2.83961	0.178517	0	
0.305366	0.253288	0	
0.249915	0.343232	0	
0.22487	0.254945	0	
0	2.3	0	
0	2.2	0	
0.06187	2.25	0	
2.78791	1.62506	0	
2.83189	1.53692	0	
2.86133	1.60691	0	
2.83205	0.864915	0	
2.78954	0.777547	0	
2.86295	0.785858	0	
0.21192	0.776631	0	
0.167949	0.864915	0	
0.137836	0.793984	0	
2.90943	2.34082	0	
3	2.4	0	
2.92679	2.42679	0	
0.0843696	0.153868	0	
0	0.1	0	
0.0732051	0.0732051	0	
2.83952	0.0905932	0	
2.9	0	0	
2.92679	0.0732051	0	
0	2.4	0	
0.0875882	2.33733	0	
0.0732051	2.42679	0	
2.92552	0.551683	0	
2.93006	0.65	0	
2.87094	0.608462	0	
0.945867	0.337323	0	
0.899369	0.241805	0	
0.978327	0.263802	0	
0.795647	0.249698	0	
0.752579	0.163165	0	
0.833891	0.179624	0	
0.162046	0.299596	0	
0.165192	0.201576	0	
0.22487	0.254945	0	
1.19755	0.171679	0	
1.27841	0.162372	0	
1.2243	0.244972	0	
1.19755	0.171679	0	
1.24572	0.0818857	0	
1.27841	0.162372	0	
1.14436	0.263222	0	
1.19755	0.171679	0	
1.2243	0.244972	0	
2.59639	0.176746	0	
2.64572	0.0818857	0	
2.67729	0.155567	0	
1.74757	0.258329	0	
1.79567	0.168531	0	
1.82792	0.247963	0	
1.74757	0.258329	0	
1.82792	0.247963	0	
1.77945	0.325517	0	
1.7	0.34641	0	
1.74757	0.258329	0	
1.77945	0.325517	0	
1.59572	0.42663	0	
1.54755	0.336481	0	
1.6243	0.349772	0	
1.6243	0.349772	0	
1.54755	0.336481	0	
1.5756	0.26055	0	
1.54755	0.336481	0	
1.5	0.248334	0	
1.5756	0.26055	0	
1.5756	0.26055	0	
1.5	0.248334	0	
1.52974	0.182838	0	
1.5	0.248334	0	
1.45275	0.163189	0	
1.52974	0.182838	0	
0.152907	2.41774	0	
0.1	2.5	0	
0.0732051	2.42679	0	
0.0866025	1.55	0	
0.164278	1.49547	0	
0.158405	1.57344	0	
2.84603	0.693858	0	
2.79333	0.595517	0	
2.87094	0.608462	0	
0.164278	1.49547	0	
0.166142	1.40241	0	
0.227896	1.45479	0	
0.989149	0.179188	0	
1.05164	0.242114	0	
0.978327	0.263802	0	
0.839315	0.093894	0	
0.899921	0.156712	0	
0.833891	0.179624	0	
2.91908	1.5574	0	
2.92086	1.65219	0	
2.86133	1.60691	0	
0.0796603	0.844152	0	
0.0774873	0.746944	0	
0.137836	0.793984	0	
0.305278	0.424586	0	
0.251861	0.509753	0	
0.229836	0.437699	0	
2.91623	0.154904	0	
2.83952	0.0905932	0	
2.92679	0.0732051	0	
2.84645	2.4175	0	
2.90943	2.34082	0	
2.92679	2.42679	0	
0.251861	0.509753	0	
0.163512	0.495241	0	
0.229836	0.437699	0	
0.0875882	2.33733	0	
0.152907	2.41774	0	
0.0732051	2.42679	0	
0.249915	0.343232	0	
0.162046	0.299596	0	
0.22487	0.254945	0	
0.166142	1.40241	0	
0.25713	1.37519	0	
0.227896	1.45479	0	
2.92657	0.748203	0	
2.92056	0.844766	0	
2.86295	0.785858	0	
2.93006	0.65	0	
2.84603	0.693858	0	
2.87094	0.608462	0	
0.167949	0.864915	0	
0.0796603	0.844152	0	
0.137836	0.793984	0	
2.83189	1.53692	0	
2.91908	1.5574	0	
2.86133	1.60691	0	
2.92056	0.844766	0	
2.83205	0.864915	0	
2.86295	0.785858	0	
2.90429	3.76504	0	
2.84868	3.86601	0	
2.79852	3.78173	0	
2.81323	2.91396	0	
2.91001	2.8578	0	
2.91458	2.95418	0	
0.089987	2.8578	0	
0.18682	2.914	0	
0.0854265	2.95419	0	
0.0950001	4.46391	0	
0.2	4.48038	0	
0.150144	4.56273	0	
2.81354	3.60941	0	
2.91021	3.55552	0	
2.9134	3.65	0	
2.90556	4.46234	0	
2.85215	4.56107	0	
2.79993	4.47597	0	
2.84868	3.86601	0	
2.90429	3.76504	0	
2.93129	3.85	0	
2.81355	4.30378	0	
2.91185	4.25097	0	
2.9134	4.35	0	
0.0880745	4.25107	0	
0.185846	4.30462	0	
0.0866025	4.35	0	
2.91001	2.8578	0	
2.81323	2.91396	0	
2.83304	2.82077	0	
0.18682	2.914	0	
0.089987	2.8578	0	
0.166922	2.82092	0	
0.55	2.66173	0	
0.433333	2.66556	0	
0.463889	2.58117	0	
0.55	2.66173	0	
0.463889	2.58117	0	
0.552778	2.5659	0	
1.3	2.67321	0	
1.39781	2.65897	0	
1.39798	2.74891	0	
1.30216	2.76955	0	
1.3	2.67321	0	
1.39798	2.74891	0	
1.65	2.66173	0	
1.54725	2.66321	0	
1.56801	2.58233	0	
1.65	2.66173	0	
1.56801	2.58233	0	
1.6536	2.56613	0	
1.9	2.67321	0	
2.01389	2.67009	0	
1.98802	2.75799	0	
1.90214	2.7695	0	
1.9	2.67321	0	
1.98802	2.75799	0	
2.18056	2.74844	0	
2.08333	2.75259	0	
2.10953	2.66484	0	
2.18056	2.74844	0	
2.10953	2.66484	0	
2.21523	2.66537	0	
2.3	2.74833	0	
2.18056	2.74844	0	
2.21523	2.66537	0	
2.3	2.74833	0	
2.21523	2.66537	0	
2.30028	2.65534	0	
2.55	2.66173	0	
2.44738	2.66318	0	
2.46801	2.58199	0	
2.55	2.66173	0	
2.46801	2.58199	0	
2.5536	2.56606	0	
0.0950001	4.46391	0	
0.150144	4.56273	0	
0.0673985	4.55145	0	
2.91021	3.55552	0	
2.81354	3.60941	0	
2.83331	3.51677	0	
2.84968	4.04768	0	
2.90465	4.14196	0	
2.79795	4.13376	0	
0.0953529	4.14196	0	
0.151615	4.04817	0	
0.2	4.13397	0	
2.85215	4.56107	0	
2.90556	4.46234	0	
2.93474	4.55	0	
0.253396	3.86183	0	
0.173205	3.8	0	
0.254621	3.75214	0	
2.84256	2.58642	0	
2.74843	2.65835	0	
2.7482	2.56627	0	
0.251494	2.65842	0	
0.157431	2.58643	0	
0.251785	2.56629	0	
2.74843	2.65835	0	
2.84256	2.58642	0	
2.84085	2.6781	0	
0.157431	2.58643	0	
0.251494	2.65842	0	
0.159097	2.67816	0	
3	4.8	0	
3	4.9	0	
2.9079	4.83711	0	
0.253287	3.53941	0	
0.253837	3.64903	0	
0.173205	3.6	0	
0.0953346	3.95604	0	
0.202283	3.95968	0	
0.151615	4.04817	0	
2.80112	3.95887	0	
2.90902	3.9539	0	
2.84968	4.04768	0	
0.0875882	4.83733	0	
0.14219	4.74142	0	
0.18847	4.82918	0	
0.185846	4.30462	0	
0.0880745	4.25107	0	
0.164329	4.21017	0	
2.91185	4.25097	0	
2.81355	4.30378	0	
2.83512	4.20993	0	
0.35	2.5866	0	
0.251494	2.65842	0	
0.251785	2.56629	0	
0.251494	2.65842	0	
0.35	2.5866	0	
0.346317	2.68257	0	
0.65	2.5866	0	
0.55	2.66173	0	
0.552778	2.5659	0	
0.55	2.66173	0	
0.65	2.5866	0	
0.647096	2.67984	0	
0.955827	2.65877	0	
1.05	2.5866	0	
1.04861	2.68155	0	
1.05	2.5866	0	
0.955827	2.65877	0	
0.953328	2.56825	0	
0.710685	2.74142	0	
0.8	2.67321	0	
0.80777	2.75727	0	
1.21081	2.73937	0	
1.3	2.67321	0	
1.30216	2.76955	0	
1.75	2.5866	0	
1.65	2.66173	0	
1.6536	2.56613	0	
1.65	2.66173	0	
1.75	2.5866	0	
1.7471	2.67983	0	
1.81069	2.74136	0	
1.9	2.67321	0	
1.90214	2.7695	0	
2.65	2.5866	0	
2.55	2.66173	0	
2.5536	2.56606	0	
2.55	2.66173	0	
2.65	2.5866	0	
2.64958	2.68158	0	
0.35	2.5866	0	
0.433333	2.66556	0	
0.346317	2.68257	0	
0.433333	2.66556	0	
0.35	2.5866	0	
0.463889	2.58117	0	
0.955827	2.65877	0	
0.860814	2.59589	0	
0.953328	2.56825	0	
1.05	2.5866	0	
1.13657	2.66304	0	
1.04861	2.68155	0	
1.13657	2.66304	0	
1.05	2.5866	0	
1.15566	2.57748	0	
1.54725	2.66321	0	
1.46081	2.59589	0	
1.56801	2.58233	0	
2.01389	2.67009	0	
2.08333	2.75259	0	
1.98802	2.75799	0	
2.08333	2.75259	0	
2.01389	2.67009	0	
2.10953	2.66484	0	
2.44738	2.66318	0	
2.36069	2.59389	0	
2.46801	2.58199	0	
2.65	2.5866	0	
2.74843	2.65835	0	
2.64958	2.68158	0	
2.74843	2.65835	0	
2.65	2.5866	0	
2.7482	2.56627	0	
0.8	2.67321	0	
0.710685	2.74142	0	
0.716187	2.65494	0	
1.9	2.67321	0	
1.81069	2.74136	0	
1.81846	2.65591	0	
2.36069	2.59389	0	
2.44738	2.66318	0	
2.37031	2.67832	0	
1.3	2.67321	0	
1.21081	2.73937	0	
1.21844	2.65257	0	
0.860814	2.59589	0	
0.955827	2.65877	0	
0.875696	2.67657	0	
1.46081	2.59589	0	
1.54725	2.66321	0	
1.46847	2.68039	0	
2.80331	4.65239	0	
2.91115	4.65092	0	
2.85	4.74019	0	
0.253396	3.86183	0	
0.254621	3.75214	0	
0.32179	3.79902	0	
0.247885	4.91437	0	
0.18847	4.82918	0	
0.297837	4.82759	0	
0.14219	4.74142	0	
0.0875882	4.83733	0	
0.06187	4.75	0	
2.9079	4.83711	0	
3	4.9	0	
2.92679	4.92679	0	
2.90902	3.9539	0	
2.80112	3.95887	0	
2.84868	3.86601	0	
2.89961	3.44645	0	
2.79352	3.44219	0	
2.83205	3.36491	0	
0.204189	3.44467	0	
0.10002	3.44626	0	
0.167949	3.36491	0	
2.91115	4.65092	0	
2.80331	4.65239	0	
2.85215	4.56107	0	
0.08858	4.65128	0	
0.198719	4.65346	0	
0.14219	4.74142	0	
0.0866025	4.35	0	
0.185846	4.30462	0	
0.161478	4.39962	0	
0.253837	3.64903	0	
0.253287	3.53941	0	
0.322181	3.60352	0	
0.08858	4.65128	0	
0.150144	4.56273	0	
0.198719	4.65346	0	
0.348484	4.74109	0	
0.241187	4.74569	0	
0.298023	4.65466	0	
2.90429	3.76504	0	
2.79852	3.78173	0	
2.83811	3.70043	0	
0.18847	4.82918	0	
0.241187	4.74569	0	
0.297837	4.82759	0	
2.81355	4.30378	0	
2.9134	4.35	0	
2.8365	4.39609	0	
2.90465	4.14196	0	
2.84968	4.04768	0	
2.93331	4.05	0	
0.151615	4.04817	0	
0.0953529	4.14196	0	
0.0666897	4.05	0	
2.89867	2.75006	0	
2.79604	2.74872	0	
2.84085	2.6781	0	
0.203789	2.74892	0	
0.101304	2.75009	0	
0.159097	2.67816	0	
2.79604	2.74872	0	
2.89867	2.75006	0	
2.83304	2.82077	0	
0.101304	2.75009	0	
0.203789	2.74892	0	
0.166922	2.82092	0	
2.81354	3.60941	0	
2.9134	3.65	0	
2.83811	3.70043	0	
2.7908	3.27512	0	
2.84568	3.19476	0	
2.86312	3.28558	0	
0.154656	3.195	0	
0.209806	3.27544	0	
0.137078	3.2857	0	
2.84568	3.19476	0	
2.92651	3.24835	0	
2.86312	3.28558	0	
0.0735453	3.24839	0	
0.154656	3.195	0	
0.137078	3.2857	0	
0.241187	4.74569	0	
0.198719	4.65346	0	
0.298023	4.65466	0	
2.92056	3.34477	0	
2.89961	3.44645	0	
2.83205	3.36491	0	
0.10002	3.44626	0	
0.0794351	3.34477	0	
0.167949	3.36491	0	
0.0953346	3.95604	0	
0.151615	4.04817	0	
0.0666897	4.05	0	
2.84968	4.04768	0	
2.90902	3.9539	0	
2.93331	4.05	0	
0.241187	4.74569	0	
0.348484	4.74109	0	
0.297837	4.82759	0	
2.79352	3.44219	0	
2.89961	3.44645	0	
2.83331	3.51677	0	
2.90556	4.46234	0	
2.79993	4.47597	0	
2.8365	4.39609	0	
0.2	4.48038	0	
0.0950001	4.46391	0	
0.161478	4.39962	0	
2.70077	4.65315	0	
2.65064	4.56662	0	
2.7512	4.5647	0	
2.81323	2.91396	0	
2.91458	2.95418	0	
2.84432	3.02214	0	
0.0854265	2.95419	0	
0.18682	2.914	0	
0.155815	3.02221	0	
2.79795	4.13376	0	
2.90465	4.14196	0	
2.83512	4.20993	0	
0.0953529	4.14196	0	
0.2	4.13397	0	
0.164329	4.21017	0	
0.202283	3.95968	0	
0.0953346	3.95604	0	
0.163559	3.8845	0	
0.346619	3.70094	0	
0.254621	3.75214	0	
0.253837	3.64903	0	
0.10002	3.44626	0	
0.204189	3.44467	0	
0.163139	3.51662	0	
0.14219	4.74142	0	
0.198719	4.65346	0	
0.241187	4.74569	0	
2.85215	4.56107	0	
2.7512	4.5647	0	
2.79993	4.47597	0	
2.80331	4.65239	0	
2.70077	4.65315	0	
2.7512	4.5647	0	
2.65064	4.56662	0	
2.70042	4.47903	0	
2.7512	4.5647	0	
2.85215	4.56107	0	
2.80331	4.65239	0	
2.7512	4.5647	0	
2.84868	3.86601	0	
2.80112	3.95887	0	
2.74941	3.87224	0	
2.91853	2.64695	0	
2.89867	2.75006	0	
2.84085	2.6781	0	
0.101304	2.75009	0	
0.0814658	2.64695	0	
0.159097	2.67816	0	
1.50382	2.75336	0	
1.39798	2.74891	0	
1.46847	2.68039	0	
1.15566	2.57748	0	
1.25428	2.58189	0	
1.21844	2.65257	0	
0.904283	2.75342	0	
0.80777	2.75727	0	
0.875696	2.67657	0	
0.14219	4.74142	0	
0.241187	4.74569	0	
0.18847	4.82918	0	
2.85	4.74019	0	
2.91115	4.65092	0	
2.93322	4.74887	0	
0.18847	4.82918	0	
0.247885	4.91437	0	
0.152907	4.91774	0	
0.399908	4.8268	0	
0.349619	4.91354	0	
0.297837	4.82759	0	
0.349619	4.91354	0	
0.247885	4.91437	0	
0.297837	4.82759	0	
0.348484	4.74109	0	
0.399908	4.8268	0	
0.297837	4.82759	0	
2.7512	4.5647	0	
2.70042	4.47903	0	
2.79993	4.47597	0	
2.84613	4.91563	0	
2.79938	4.82715	0	
2.9079	4.83711	0	
2.8	5	0	
2.7	5	0	
2.74925	4.91383	0	
2.65	4.9134	0	
2.60003	4.82678	0	
2.69983	4.82689	0	
2.60003	4.82678	0	
2.65	4.9134	0	
2.55001	4.91339	0	
2.50001	4.82679	0	
2.60003	4.82678	0	
2.55001	4.91339	0	
2.45	4.9134	0	
2.50001	4.82679	0	
2.55001	4.91339	0	
2.50001	4.82679	0	
2.45	4.9134	0	
2.4	4.82679	0	
2.4	5	0	
2.3	5	0	
2.35	4.9134	0	
2.3	4.82679	0	
2.25	4.9134	0	
2.2	4.82679	0	
2.2	5	0	
2.1	5	0	
2.15	4.9134	0	
2.1	4.82679	0	
2.05	4.9134	0	
2	4.82679	0	
2	5	0	
1.9	5	0	
1.95	4.9134	0	
1.85	4.9134	0	
1.8	4.82679	0	
1.9	4.82679	0	
1.8	4.82679	0	
1.85	4.9134	0	
1.75	4.9134	0	
1.7	4.82679	0	
1.8	4.82679	0	
1.75	4.9134	0	
2.79938	4.82715	0	
2.84613	4.91563	0	
2.74925	4.91383	0	
2.84613	4.91563	0	
2.8	5	0	
2.74925	4.91383	0	
2.7	5	0	
2.65	4.9134	0	
2.74925	4.91383	0	
1.65	4.9134	0	
1.7	4.82679	0	
1.75	4.9134	0	
2.74925	4.91383	0	
2.65	4.9134	0	
2.69983	4.82689	0	
1.65	4.9134	0	
1.6	4.82679	0	
1.7	4.82679	0	
1.6	4.82679	0	
1.65	4.9134	0	
1.55	4.9134	0	
1.5	4.82679	0	
1.6	4.82679	0	
1.55	4.9134	0	
2.4	4.82679	0	
2.45	4.9134	0	
2.35	4.9134	0	
2.3	5	0	
2.25	4.9134	0	
2.35	4.9134	0	
2.45	4.9134	0	
2.4	5	0	
2.35	4.9134	0	
1.5	5	0	
1.4	5	0	
1.45	4.9134	0	
2.25	4.9134	0	
2.3	4.82679	0	
2.35	4.9134	0	
2.2	4.82679	0	
2.25	4.9134	0	
2.15	4.9134	0	
2.25	4.9134	0	
2.2	5	0	
2.15	4.9134	0	
2.1	5	0	
2.05	4.9134	0	
2.15	4.9134	0	
2	4.82679	0	
2.05	4.9134	0	
1.95	4.9134	0	
2.05	4.9134	0	
2.1	4.82679	0	
2.15	4.9134	0	
1.25	4.74019	0	
1.35	4.74019	0	
1.3	4.82679	0	
2.05	4.9134	0	
2	5	0	
1.95	4.9134	0	
1.9	5	0	
1.85	4.9134	0	
1.95	4.9134	0	
1.85	4.9134	0	
1.9	4.82679	0	
1.95	4.9134	0	
1.15	4.9134	0	
1.2	4.82679	0	
1.25	4.9134	0	
1.15	4.9134	0	
1.1	4.82679	0	
1.2	4.82679	0	
1.1	4.82679	0	
1.15	4.9134	0	
1.05	4.9134	0	
1.4	5	0	
1.35	4.9134	0	
1.45	4.9134	0	
1.45	4.9134	0	
1.5	4.82679	0	
1.55	4.9134	0	
1	4.82679	0	
1.1	4.82679	0	
1.05	4.9134	0	
1.35	4.9134	0	
1.4	4.82679	0	
1.45	4.9134	0	
1.5	5	0	
1.45	4.9134	0	
1.55	4.9134	0	
1.4	4.82679	0	
1.35	4.9134	0	
1.3	4.82679	0	
0.95	4.9134	0	
1	4.82679	0	
1.05	4.9134	0	
1.35	4.74019	0	
1.4	4.82679	0	
1.3	4.82679	0	
1	4.82679	0	
0.95	4.9134	0	
0.9	4.82679	0	
1.2	4.82679	0	
1.25	4.74019	0	
1.3	4.82679	0	
0.9	4.82679	0	
0.95	4.9134	0	
0.85	4.9134	0	
1.25	4.9134	0	
1.2	4.82679	0	
1.3	4.82679	0	
0.8	4.82679	0	
0.9	4.82679	0	
0.85	4.9134	0	
0.75	4.9134	0	
0.8	4.82679	0	
0.85	4.9134	0	
0.8	4.82679	0	
0.75	4.9134	0	
0.7	4.82679	0	
0.3	5	0	
0.2	5	0	
0.247885	4.91437	0	
0.7	4.82679	0	
0.75	4.9134	0	
0.65	4.9134	0	
0.301585	3.09557	0	
0.207786	3.09844	0	
0.251319	3.00652	0	
1.1	3.78756	0	
1.05	3.70096	0	
1.15	3.70096	0	
1.25	3.87417	0	
1.15	3.87417	0	
1.2	3.78756	0	
2.4	4.13397	0	
2.35	4.04737	0	
2.45	4.04737	0	
0.45	2.83494	0	
0.35	2.83494	0	
0.397222	2.75122	0	
0.6	4.82679	0	
0.7	4.82679	0	
0.65	4.9134	0	
0.35	3.00814	0	
0.301585	3.09557	0	
0.251319	3.00652	0	
2.65	4.22058	0	
2.6	4.13398	0	
2.6998	4.13391	0	
0.55	3.35455	0	
0.5	3.26795	0	
0.6	3.26795	0	
2.6	4.13398	0	
2.64997	4.04739	0	
2.6998	4.13391	0	
0.5	3.26795	0	
0.55	3.18135	0	
0.6	3.26795	0	
1.9	4.82679	0	
2	4.82679	0	
1.95	4.9134	0	
1.6	3.78756	0	
1.65	3.70096	0	
1.7	3.78756	0	
1.6	3.78756	0	
1.55	3.70096	0	
1.65	3.70096	0	
0.397222	2.75122	0	
0.35	2.83494	0	
0.299537	2.75106	0	
0	4.9	0	
0	4.8	0	
0.0875882	4.83733	0	
1.8	2.92154	0	
1.85	2.83494	0	
1.9	2.92175	0	
0.65	2.5866	0	
0.7	2.5	0	
0.755935	2.58576	0	
1.85	2.83494	0	
1.95	2.8362	0	
1.9	2.92175	0	
1.15	3.52776	0	
1.2	3.61436	0	
1.1	3.61436	0	
0.5	5	0	
0.4	5	0	
0.45	4.9134	0	
2.5	3.96077	0	
2.4	3.96077	0	
2.45	3.87417	0	
1.35	3.70096	0	
1.45	3.70096	0	
1.4	3.78756	0	
0.55	2.66173	0	
0.5	2.74833	0	
0.433333	2.66556	0	
1.3	3.78756	0	
1.35	3.70096	0	
1.4	3.78756	0	
1.75	3.35455	0	
1.65	3.35455	0	
1.7	3.26795	0	
2.3	4.82679	0	
2.4	4.82679	0	
2.35	4.9134	0	
1.45	3.70096	0	
1.55	3.70096	0	
1.5	3.78756	0	
0.8	2.5	0	
0.9	2.5	0	
0.860814	2.59589	0	
1.35	3.70096	0	
1.3	3.78756	0	
1.25	3.70096	0	
1.05	3.52776	0	
1.15	3.52776	0	
1.1	3.61436	0	
0.5	2.74833	0	
0.45	2.83494	0	
0.397222	2.75122	0	
1.45	3.70096	0	
1.5	3.78756	0	
1.4	3.78756	0	
1.55	3.70096	0	
1.6	3.78756	0	
1.5	3.78756	0	
1.3	3.78756	0	
1.25	3.87417	0	
1.2	3.78756	0	
2.35	3.70096	0	
2.3	3.78756	0	
2.25	3.70096	0	
0.8	2.5	0	
0.860814	2.59589	0	
0.755935	2.58576	0	
2.4	3.96077	0	
2.35	3.87417	0	
2.45	3.87417	0	
0.089987	2.8578	0	
0	2.8	0	
0.101304	2.75009	0	
1.9	4.65359	0	
1.85	4.74019	0	
1.8	4.65359	0	
2.1	4.82679	0	
2.2	4.82679	0	
2.15	4.9134	0	
0.755935	2.58576	0	
0.860814	2.59589	0	
0.8	2.67321	0	
0.75	4.74019	0	
0.8	4.82679	0	
0.7	4.82679	0	
1.2	3.78756	0	
1.1	3.78756	0	
1.15	3.70096	0	
1.8	3.26795	0	
1.75	3.35455	0	
1.7	3.26795	0	
0.65	4.74019	0	
0.75	4.74019	0	
0.7	4.82679	0	
1.2	3.78756	0	
1.15	3.87417	0	
1.1	3.78756	0	
0.433333	2.66556	0	
0.5	2.74833	0	
0.397222	2.75122	0	
1.7	4.82679	0	
1.75	4.74019	0	
1.8	4.82679	0	
1.8	2.92154	0	
1.85	3.00814	0	
1.75	3.00814	0	
2.74758	4.21918	0	
2.65	4.22058	0	
2.6998	4.13391	0	
2.55	4.04737	0	
2.64997	4.04739	0	
2.6	4.13398	0	
0.5	2.92154	0	
0.4	2.92154	0	
0.45	2.83494	0	
0.5	3.26795	0	
0.55	3.35455	0	
0.450017	3.35454	0	
1.35	3.18135	0	
1.25	3.18135	0	
1.3	3.09475	0	
2.35	4.74019	0	
2.45001	4.74019	0	
2.4	4.82679	0	
2.35	3.87417	0	
2.4	3.78756	0	
2.45	3.87417	0	
2.35	4.04737	0	
2.4	3.96077	0	
2.45	4.04737	0	
0.299537	2.75106	0	
0.203789	2.74892	0	
0.251494	2.65842	0	
0.75	4.56699	0	
0.8	4.65359	0	
0.7	4.65359	0	
0	2.7	0	
0	2.6	0	
0.0814658	2.64695	0	
0.65	3.18135	0	
0.75	3.18135	0	
0.7	3.26795	0	
2.5	4.13397	0	
2.55	4.04737	0	
2.6	4.13398	0	
2.5	4.13397	0	
2.4	4.13397	0	
2.45	4.04737	0	
1.65	4.74019	0	
1.75	4.74019	0	
1.7	4.82679	0	
2.1	3.78756	0	
2.2	3.78756	0	
2.15	3.87417	0	
1.55	3.70096	0	
1.6	3.61436	0	
1.65	3.70096	0	
0	2.7	0	
0.0814658	2.64695	0	
0.101304	2.75009	0	
1.25	3.0082	0	
1.2	3.09474	0	
1.15	3.00815	0	
0.6	4.82679	0	
0.65	4.9134	0	
0.549997	4.9134	0	
1.6	4.65359	0	
1.7	4.65359	0	
1.65	4.74019	0	
2.4	3.78756	0	
2.35	3.87417	0	
2.3	3.78756	0	
2	4.82679	0	
1.9	4.82679	0	
1.95	4.74019	0	
1.9	4.82679	0	
1.85	4.74019	0	
1.95	4.74019	0	
1.15	3.52776	0	
1.05	3.52776	0	
1.1	3.44115	0	
1.45	3.00816	0	
1.35	3.00821	0	
1.4	2.92183	0	
1.2	3.09474	0	
1.25	3.0082	0	
1.3	3.09475	0	
1.85	4.74019	0	
1.75	4.74019	0	
1.8	4.65359	0	
0.202283	3.95968	0	
0.250033	4.04739	0	
0.151615	4.04817	0	
2.45001	4.74019	0	
2.50001	4.82679	0	
2.4	4.82679	0	
2.55	4.04737	0	
2.5	4.13397	0	
2.45	4.04737	0	
0.45	2.83494	0	
0.4	2.92154	0	
0.35	2.83494	0	
0.55	3.00814	0	
0.45	3.00814	0	
0.5	2.92154	0	
0.95	4.22058	0	
1.05	4.22058	0	
1	4.30718	0	
1.25	3.18135	0	
1.2	3.09474	0	
1.3	3.09475	0	
0.8	4.65359	0	
0.75	4.74019	0	
0.7	4.65359	0	
1.5	3.61436	0	
1.6	3.61436	0	
1.55	3.70096	0	
1.7	2.92154	0	
1.8	2.92154	0	
1.75	3.00814	0	
0.75	3.00814	0	
0.7	3.09474	0	
0.65	3.00814	0	
1.05	4.22058	0	
1.1	4.30718	0	
1	4.30718	0	
0.75	4.74019	0	
0.65	4.74019	0	
0.7	4.65359	0	
1.65	4.74019	0	
1.7	4.65359	0	
1.75	4.74019	0	
2.60011	4.65353	0	
2.55004	4.74017	0	
2.50003	4.65357	0	
2.79795	4.13376	0	
2.74758	4.21918	0	
2.6998	4.13391	0	
0.9	3.09474	0	
0.95	3.18135	0	
0.85	3.18135	0	
2.25	3.52776	0	
2.35	3.52776	0	
2.3	3.61436	0	
0.354288	3.87664	0	
0.400814	3.96124	0	
0.300883	3.96128	0	
2.3	3.61436	0	
2.35	3.52776	0	
2.4	3.61436	0	
0.5	2.92154	0	
0.45	3.00814	0	
0.4	2.92154	0	
1.65	3.35455	0	
1.7	3.44115	0	
1.6	3.44115	0	
0.85	3.35455	0	
0.8	3.26795	0	
0.9	3.26795	0	
2.35	3.70096	0	
2.3	3.61436	0	
2.4	3.61436	0	
2.3	3.61436	0	
2.35	3.70096	0	
2.25	3.70096	0	
0.350489	3.18165	0	
0.45	3.18135	0	
0.40005	3.26797	0	
2.2	3.78756	0	
2.1	3.78756	0	
2.15	3.70096	0	
1.45	3.70096	0	
1.4	3.61436	0	
1.5	3.61436	0	
2.15	2.83531	0	
2.18056	2.74844	0	
2.24687	2.83509	0	
0.75	4.56699	0	
0.8	4.48038	0	
0.85	4.56699	0	
0.8	3.09474	0	
0.9	3.09474	0	
0.85	3.18135	0	
1.55	3.35455	0	
1.65	3.35455	0	
1.6	3.44115	0	
2.35	3.52776	0	
2.25	3.52776	0	
2.3	3.44115	0	
1.45	3.70096	0	
1.5	3.61436	0	
1.55	3.70096	0	
1.2	4.30718	0	
1.25	4.39378	0	
1.15	4.39378	0	
0.8	4.48038	0	
0.9	4.48038	0	
0.85	4.56699	0	
1.2	4.13397	0	
1.25	4.22058	0	
1.15	4.22058	0	
2.35	3.70096	0	
2.4	3.78756	0	
2.3	3.78756	0	
0.400017	4.48037	0	
0.449999	4.56699	0	
0.349633	4.56719	0	
1.55	4.74019	0	
1.6	4.65359	0	
1.65	4.74019	0	
2.18056	2.74844	0	
2.3	2.74833	0	
2.24687	2.83509	0	
1.4	3.09476	0	
1.35	3.00821	0	
1.45	3.00816	0	
1.15	3.00815	0	
1.2	3.09474	0	
1.1	3.09475	0	
2.35	3.87417	0	
2.25	3.87417	0	
2.3	3.78756	0	
0.65	3.00814	0	
0.6	3.09474	0	
0.55	3.00814	0	
0.354288	3.87664	0	
0.300883	3.96128	0	
0.253396	3.86183	0	
1.05	3.00814	0	
1.15	3.00815	0	
1.1	3.09475	0	
2.3	3.78756	0	
2.2	3.78756	0	
2.25	3.70096	0	
1.1	4.13397	0	
1.05	4.04737	0	
1.15	4.04737	0	
0.400053	4.13401	0	
0.500035	4.13399	0	
0.45	4.22058	0	
1.05	4.74019	0	
1.1	4.82679	0	
1	4.82679	0	
1.3	3.09475	0	
1.35	3.00821	0	
1.4	3.09476	0	
0.65	3.00814	0	
0.7	3.09474	0	
0.6	3.09474	0	
0.8	4.30718	0	
0.9	4.30718	0	
0.85	4.39378	0	
0.400814	3.96124	0	
0.350162	4.04747	0	
0.300883	3.96128	0	
0.6	2.5	0	
0.7	2.5	0	
0.65	2.5866	0	
0.300883	3.96128	0	
0.250033	4.04739	0	
0.202283	3.95968	0	
0.300011	4.48038	0	
0.400017	4.48037	0	
0.349633	4.56719	0	
1.05	2.83494	0	
1	2.75058	0	
1.10066	2.74874	0	
2.3	3.96077	0	
2.25	3.87417	0	
2.35	3.87417	0	
2.35	3.35455	0	
2.4	3.44115	0	
2.3	3.44115	0	
0.8	4.65359	0	
0.75	4.56699	0	
0.85	4.56699	0	
0.7	2.5	0	
0.8	2.5	0	
0.755935	2.58576	0	
1.05	3.52776	0	
1	3.44115	0	
1.1	3.44115	0	
1.05	3.70096	0	
1.1	3.61436	0	
1.15	3.70096	0	
2.1	3.26795	0	
2.05	3.35455	0	
2	3.26795	0	
1.1	2.92154	0	
1.2	2.92154	0	
1.15	3.00815	0	
0.449999	4.56699	0	
0.499996	4.65359	0	
0.399744	4.65374	0	
2.4	3.44115	0	
2.35	3.52776	0	
2.3	3.44115	0	
0	2.9	0	
0	2.8	0	
0.089987	2.8578	0	
1.35	3.18135	0	
1.3	3.09475	0	
1.4	3.09476	0	
0.550006	4.22058	0	
0.600001	4.30718	0	
0.500018	4.30717	0	
1.85	4.74019	0	
1.9	4.65359	0	
1.95	4.74019	0	
0.45	4.22058	0	
0.500035	4.13399	0	
0.550006	4.22058	0	
0.450156	4.04746	0	
0.50012	3.96084	0	
0.550038	4.04739	0	
1.5	2.92154	0	
1.45	3.00816	0	
1.4	2.92183	0	
2.1	4.82679	0	
2.15	4.74019	0	
2.2	4.82679	0	
1.4	3.61436	0	
1.45	3.52776	0	
1.5	3.61436	0	
2.45001	4.74019	0	
2.35	4.74019	0	
2.4	4.65359	0	
1	4.48038	0	
0.95	4.56699	0	
0.9	4.48038	0	
1.35	4.39378	0	
1.25	4.39378	0	
1.3	4.30718	0	
0.9	4.30718	0	
0.95	4.22058	0	
1	4.30718	0	
0.75	4.39378	0	
0.8	4.30718	0	
0.85	4.39378	0	
1.85	3.00814	0	
1.8	2.92154	0	
1.9	2.92175	0	
2.05	3.00814	0	
2.1	2.92154	0	
2.15	3.00815	0	
0.75	3.00814	0	
0.8	3.09474	0	
0.7	3.09474	0	
0.6	3.26795	0	
0.55	3.18135	0	
0.65	3.18135	0	
0.300036	4.134	0	
0.252371	4.21922	0	
0.2	4.13397	0	
2.35	4.56699	0	
2.3	4.65359	0	
2.25	4.56699	0	
1.2	4.30718	0	
1.15	4.39378	0	
1.1	4.30718	0	
1	4.13397	0	
0.95	4.04737	0	
1.05	4.04737	0	
1.3	4.48038	0	
1.25	4.39378	0	
1.35	4.39378	0	
2.15	3.87417	0	
2.2	3.96077	0	
2.1	3.96077	0	
2.4	3.96077	0	
2.5	3.96077	0	
2.45	4.04737	0	
2.2	3.78756	0	
2.25	3.87417	0	
2.15	3.87417	0	
0.85	4.39378	0	
0.9	4.48038	0	
0.8	4.48038	0	
0.75	3.87417	0	
0.8	3.78756	0	
0.85	3.87417	0	
0	2.8	0	
0	2.7	0	
0.101304	2.75009	0	
2.4	4.65359	0	
2.45	4.56699	0	
2.50003	4.65357	0	
1.75	3.87417	0	
1.7	3.78756	0	
1.8	3.78756	0	
0.500035	4.13399	0	
0.450156	4.04746	0	
0.550038	4.04739	0	
1.7	3.09474	0	
1.75	3.00814	0	
1.8	3.09474	0	
2.6	4.30718	0	
2.69968	4.307	0	
2.6497	4.39334	0	
2.35	3.35455	0	
2.3	3.44115	0	
2.25	3.35455	0	
2.3	4.13397	0	
2.35	4.04737	0	
2.4	4.13397	0	
1.05	4.56699	0	
0.95	4.56699	0	
1	4.48038	0	
0.7	4.13397	0	
0.600007	4.13398	0	
0.650009	4.04738	0	
1.3	4.30718	0	
1.25	4.39378	0	
1.2	4.30718	0	
1.6	4.30718	0	
1.65	4.22058	0	
1.7	4.30718	0	
1.65	3.87417	0	
1.6	3.78756	0	
1.7	3.78756	0	
0.4	2.92154	0	
0.35	3.00814	0	
0.300452	2.92135	0	
0.75	3.18135	0	
0.8	3.09474	0	
0.85	3.18135	0	
1.1	3.44115	0	
1.15	3.35455	0	
1.2	3.44115	0	
1.3	3.26795	0	
1.4	3.26795	0	
1.35	3.35455	0	
1.9	4.65359	0	
2	4.65359	0	
1.95	4.74019	0	
1.2	2.92154	0	
1.25	3.0082	0	
1.15	3.00815	0	
2.55	3.00814	0	
2.6	2.92154	0	
2.64985	3.00785	0	
1.35	4.9134	0	
1.25	4.9134	0	
1.3	4.82679	0	
0.300615	3.4408	0	
0.253287	3.53941	0	
0.204189	3.44467	0	
0.55	2.83494	0	
0.45	2.83494	0	
0.5	2.74833	0	
2.1	3.78756	0	
2.15	3.87417	0	
2.05	3.87417	0	
1.8	4.82679	0	
1.75	4.74019	0	
1.85	4.74019	0	
1.75	4.39378	0	
1.7	4.30718	0	
1.8	4.30718	0	
0.75	4.04737	0	
0.7	4.13397	0	
0.650009	4.04738	0	
1.75	3.87417	0	
1.65	3.87417	0	
1.7	3.78756	0	
2.25	3.00815	0	
2.3	3.09474	0	
2.2	3.09475	0	
0.600007	4.13398	0	
0.7	4.13397	0	
0.650001	4.22058	0	
0.50012	3.96084	0	
0.55012	3.87424	0	
0.600012	3.96078	0	
1.9	4.65359	0	
1.95	4.56699	0	
2	4.65359	0	
0.350015	4.22059	0	
0.400053	4.13401	0	
0.45	4.22058	0	
1.1	4.13397	0	
1.15	4.04737	0	
1.2	4.13397	0	
0.55	3.35455	0	
0.5	3.44115	0	
0.450017	3.35454	0	
2.15	4.74019	0	
2.25	4.74019	0	
2.2	4.82679	0	
0.8	3.26795	0	
0.85	3.18135	0	
0.9	3.26795	0	
3	4.2	0	
3	4.3	0	
2.91185	4.25097	0	
1	4.13397	0	
1.05	4.04737	0	
1.1	4.13397	0	
2.15	3.87417	0	
2.1	3.96077	0	
2.05	3.87417	0	
0.6	4.82679	0	
0.65	4.74019	0	
0.7	4.82679	0	
1.1	2.92154	0	
1	2.92154	0	
1.05	2.83494	0	
1.1	2.92154	0	
1.05	2.83494	0	
1.15	2.83494	0	
0.7	3.09474	0	
0.8	3.09474	0	
0.75	3.18135	0	
0.250033	4.04739	0	
0.300036	4.134	0	
0.2	4.13397	0	
2.35	4.56699	0	
2.25	4.56699	0	
2.3	4.48038	0	
2.1	4.48038	0	
2	4.48038	0	
2.05	4.39378	0	
2.6	3.09474	0	
2.55	3.00814	0	
2.64985	3.00785	0	
0.8	3.96077	0	
0.75	3.87417	0	
0.85	3.87417	0	
1.05	3.00814	0	
1	2.92154	0	
1.1	2.92154	0	
2	4.13397	0	
2.1	4.13397	0	
2.05	4.22058	0	
2.3	3.26795	0	
2.35	3.35455	0	
2.25	3.35455	0	
1.1	3.26795	0	
1.2	3.26795	0	
1.15	3.35455	0	
2.2	3.96077	0	
2.15	4.04737	0	
2.1	3.96077	0	
2.25	3.00815	0	
2.2	2.9216	0	
2.29961	2.92165	0	
0.65	3.70096	0	
0.7	3.78756	0	
0.6	3.78756	0	
1	3.09474	0	
1.05	3.00814	0	
1.1	3.09475	0	
2.05	3.35455	0	
1.95	3.35455	0	
2	3.26795	0	
0.600001	4.30718	0	
0.55	4.39378	0	
0.500018	4.30717	0	
2.3	4.30718	0	
2.25	4.22058	0	
2.35	4.22058	0	
2.5	4.48038	0	
2.45	4.39378	0	
2.55	4.39378	0	
0.9	4.30718	0	
0.95	4.39378	0	
0.85	4.39378	0	
1.9	4.48038	0	
1.85	4.39378	0	
1.95	4.39378	0	
1.65	4.39378	0	
1.6	4.30718	0	
1.7	4.30718	0	
1.35	4.22058	0	
1.4	4.30718	0	
1.3	4.30718	0	
0.55012	3.87424	0	
0.65	3.87417	0	
0.600012	3.96078	0	
0.400264	3.09488	0	
0.45	3.18135	0	
0.350489	3.18165	0	
0.65	4.74019	0	
0.599998	4.65359	0	
0.7	4.65359	0	
2.91185	4.25097	0	
3	4.3	0	
2.9134	4.35	0	
2.7	2.92154	0	
2.81323	2.91396	0	
2.74909	3.00637	0	
1.25	3.70096	0	
1.3	3.78756	0	
1.2	3.78756	0	
1.55	3.35455	0	
1.5	3.26795	0	
1.6	3.26795	0	
2.4	4.30718	0	
2.3	4.30718	0	
2.35	4.22058	0	
1.25	4.22058	0	
1.2	4.30718	0	
1.15	4.22058	0	
1.15	2.83494	0	
1.05	2.83494	0	
1.10066	2.74874	0	
2.1	3.09474	0	
2.05	3.00814	0	
2.15	3.00815	0	
1.8	3.26795	0	
1.75	3.18135	0	
1.85	3.18135	0	
1.5	3.26795	0	
1.55	3.18135	0	
1.6	3.26795	0	
1.1	2.92154	0	
1.15	2.83494	0	
1.2	2.92154	0	
0.6	3.78756	0	
0.7	3.78756	0	
0.65	3.87417	0	
0.151615	4.04817	0	
0.250033	4.04739	0	
0.2	4.13397	0	
1.2	2.92154	0	
1.15	2.83494	0	
1.25	2.83718	0	
1.55	4.04737	0	
1.5	4.13397	0	
1.45	4.04737	0	
1.95	4.22058	0	
2	4.13397	0	
2.05	4.22058	0	
0.6	3.78756	0	
0.65	3.87417	0	
0.55012	3.87424	0	
0.95	4.04737	0	
1	3.96077	0	
1.05	4.04737	0	
0.549994	4.74019	0	
0.65	4.74019	0	
0.6	4.82679	0	
1.2	3.26795	0	
1.25	3.35455	0	
1.15	3.35455	0	
0.599998	4.65359	0	
0.65	4.56699	0	
0.7	4.65359	0	
0.550006	4.22058	0	
0.500035	4.13399	0	
0.600007	4.13398	0	
0.75	3.87417	0	
0.8	3.96077	0	
0.7	3.96077	0	
2.45	4.39378	0	
2.5	4.30718	0	
2.55	4.39378	0	
1.95	4.39378	0	
1.85	4.39378	0	
1.9	4.30718	0	
2.65	2.83494	0	
2.55	2.83494	0	
2.59992	2.75091	0	
2.4	4.48038	0	
2.35	4.56699	0	
2.3	4.48038	0	
1.4	3.26795	0	
1.45	3.35455	0	
1.35	3.35455	0	
1.4	4.48038	0	
1.3	4.48038	0	
1.35	4.39378	0	
0.550038	4.04739	0	
0.50012	3.96084	0	
0.600012	3.96078	0	
1.55	3.35455	0	
1.6	3.26795	0	
1.65	3.35455	0	
1.1	4.30718	0	
1.05	4.39378	0	
1	4.30718	0	
0.55	3.70096	0	
0.65	3.70096	0	
0.6	3.78756	0	
2.3	3.78756	0	
2.25	3.87417	0	
2.2	3.78756	0	
0.6	3.26795	0	
0.65	3.18135	0	
0.7	3.26795	0	
0.253396	3.86183	0	
0.300883	3.96128	0	
0.202283	3.95968	0	
1.9	4.13397	0	
1.8	4.13397	0	
1.85	4.04737	0	
1.55	4.04737	0	
1.6	4.13397	0	
1.5	4.13397	0	
2	4.48038	0	
1.95	4.39378	0	
2.05	4.39378	0	
1.85	4.56699	0	
1.9	4.65359	0	
1.8	4.65359	0	
0.85	3.00814	0	
0.8	3.09474	0	
0.75	3.00814	0	
2.55	4.56699	0	
2.60011	4.65353	0	
2.50003	4.65357	0	
1.15	4.74019	0	
1.1	4.65359	0	
1.2	4.65359	0	
1.35	4.04737	0	
1.4	3.96077	0	
1.45	4.04737	0	
2.2	2.9216	0	
2.24687	2.83509	0	
2.29961	2.92165	0	
0.55	3.00814	0	
0.5	3.09474	0	
0.45	3.00814	0	
1.7	4.13397	0	
1.8	4.13397	0	
1.75	4.22058	0	
2.2	2.9216	0	
2.15	2.83531	0	
2.24687	2.83509	0	
0.85	3.70096	0	
0.9	3.78756	0	
0.8	3.78756	0	
2.1	3.44115	0	
2.15	3.35455	0	
2.2	3.44115	0	
1.05	3.35455	0	
1	3.26795	0	
1.1	3.26795	0	
1.15	3.52776	0	
1.1	3.44115	0	
1.2	3.44115	0	
2.79256	3.09818	0	
2.7	3.09474	0	
2.74909	3.00637	0	
0.449999	4.56699	0	
0.399744	4.65374	0	
0.349633	4.56719	0	
2.35	4.56699	0	
2.45	4.56699	0	
2.4	4.65359	0	
2.70042	4.47903	0	
2.6	4.48038	0	
2.6497	4.39334	0	
1.1	4.65359	0	
1.15	4.56699	0	
1.2	4.65359	0	
2.69954	2.75031	0	
2.65	2.83494	0	
2.59992	2.75091	0	
0.7	4.13397	0	
0.75	4.22058	0	
0.650001	4.22058	0	
1.25	2.83718	0	
1.15	2.83494	0	
1.21081	2.73937	0	
1.4	4.13397	0	
1.35	4.22058	0	
1.3	4.13397	0	
1.9	4.30718	0	
1.95	4.22058	0	
2	4.30718	0	
2.05	3.70096	0	
2.1	3.61436	0	
2.15	3.70096	0	
1.05	3.35455	0	
1.1	3.26795	0	
1.15	3.35455	0	
1.1	3.26795	0	
1.05	3.18135	0	
1.15	3.18135	0	
2.2	3.26795	0	
2.3	3.26795	0	
2.25	3.35455	0	
0.299537	2.75106	0	
0.35	2.83494	0	
0.252709	2.83378	0	
1.21081	2.73937	0	
1.10066	2.74874	0	
1.13657	2.66304	0	
1	3.09474	0	
0.95	3.00814	0	
1.05	3.00814	0	
1.65	4.22058	0	
1.7	4.13397	0	
1.75	4.22058	0	
1.2	2.92154	0	
1.25	2.83718	0	
1.3	2.92191	0	
1.25	3.0082	0	
1.3	2.92191	0	
1.35	3.00821	0	
1.35	3.00821	0	
1.3	2.92191	0	
1.4	2.92183	0	
0	4.2	0	
0.0953529	4.14196	0	
0.0880745	4.25107	0	
2	4.30718	0	
2.05	4.22058	0	
2.1	4.30718	0	
0.45	3.18135	0	
0.55	3.18135	0	
0.5	3.26795	0	
2.1	2.92154	0	
2.2	2.9216	0	
2.15	3.00815	0	
0.7	3.78756	0	
0.8	3.78756	0	
0.75	3.87417	0	
0.350162	4.04747	0	
0.400053	4.13401	0	
0.300036	4.134	0	
1.05	3.00814	0	
1.1	2.92154	0	
1.15	3.00815	0	
1.95	3.70096	0	
1.85	3.70096	0	
1.9	3.61436	0	
3	4.4	0	
2.90556	4.46234	0	
2.9134	4.35	0	
0.75	3.70096	0	
0.85	3.70096	0	
0.8	3.78756	0	
0.95	3.52776	0	
1.05	3.52776	0	
1	3.61436	0	
2.4	3.96077	0	
2.3	3.96077	0	
2.35	3.87417	0	
2.79938	4.82715	0	
2.85	4.74019	0	
2.9079	4.83711	0	
1.7	5	0	
1.65	4.9134	0	
1.75	4.9134	0	
1.65	4.56699	0	
1.7	4.65359	0	
1.6	4.65359	0	
0.350162	4.04747	0	
0.250033	4.04739	0	
0.300883	3.96128	0	
2.25	4.74019	0	
2.3	4.82679	0	
2.2	4.82679	0	
1.7	3.44115	0	
1.65	3.35455	0	
1.75	3.35455	0	
1.6	4.82679	0	
1.55	4.74019	0	
1.65	4.74019	0	
1.25	4.22058	0	
1.2	4.13397	0	
1.3	4.13397	0	
2.2	4.65359	0	
2.15	4.56699	0	
2.25	4.56699	0	
2.05	4.74019	0	
2.1	4.82679	0	
2	4.82679	0	
1.55	3.87417	0	
1.45	3.87417	0	
1.5	3.78756	0	
1.35	3.70096	0	
1.4	3.61436	0	
1.45	3.70096	0	
1.25	3.35455	0	
1.3	3.26795	0	
1.35	3.35455	0	
3	4.3	0	
3	4.4	0	
2.9134	4.35	0	
1	3.96077	0	
1.05	3.87417	0	
1.1	3.96077	0	
1.1	3.26795	0	
1.15	3.18135	0	
1.2	3.26795	0	
1.2	2.92154	0	
1.3	2.92191	0	
1.25	3.0082	0	
1.3	2.92191	0	
1.25	2.83718	0	
1.35	2.83622	0	
1.05	4.39378	0	
1	4.48038	0	
0.95	4.39378	0	
0	3.6	0	
0.0849964	3.55278	0	
0.0863348	3.65046	0	
1.35	4.9134	0	
1.3	5	0	
1.25	4.9134	0	
0.350162	4.04747	0	
0.300036	4.134	0	
0.250033	4.04739	0	
0	2.9	0	
0.089987	2.8578	0	
0.0854265	2.95419	0	
2.6	4.48038	0	
2.5	4.48038	0	
2.55	4.39378	0	
1.95	3.87417	0	
2	3.78756	0	
2.05	3.87417	0	
0.300398	4.30695	0	
0.350015	4.22059	0	
0.40008	4.30714	0	
1.95	4.22058	0	
2.05	4.22058	0	
2	4.30718	0	
1.1	3.26795	0	
1	3.26795	0	
1.05	3.18135	0	
1.8	5	0	
1.7	5	0	
1.75	4.9134	0	
1.3	3.26795	0	
1.25	3.18135	0	
1.35	3.18135	0	
2.91001	2.8578	0	
3	2.9	0	
2.91458	2.95418	0	
0	3.7	0	
0	3.6	0	
0.0863348	3.65046	0	
1.3	3.61436	0	
1.4	3.61436	0	
1.35	3.70096	0	
2.3	4.65359	0	
2.2	4.65359	0	
2.25	4.56699	0	
0.253111	3.35621	0	
0.300615	3.4408	0	
0.204189	3.44467	0	
2.5	3.26795	0	
2.55	3.18135	0	
2.6	3.26795	0	
1.55	4.22058	0	
1.6	4.13397	0	
1.65	4.22058	0	
1.2	3.26795	0	
1.15	3.18135	0	
1.25	3.18135	0	
2.55	3.52776	0	
2.6	3.44115	0	
2.65	3.52776	0	
0.185846	4.30462	0	
0.300398	4.30695	0	
0.25	4.39378	0	
0.300536	3.26822	0	
0.209806	3.27544	0	
0.251724	3.18264	0	
1.45	4.39378	0	
1.5	4.30718	0	
1.55	4.39378	0	
0.40008	4.30714	0	
0.350015	4.22059	0	
0.45	4.22058	0	
1.2	3.26795	0	
1.25	3.18135	0	
1.3	3.26795	0	
2.35	3.18135	0	
2.4	3.09474	0	
2.45	3.18135	0	
1.6	2.92154	0	
1.5	2.92154	0	
1.55064	2.83584	0	
1.7	3.96077	0	
1.75	4.04737	0	
1.65	4.04737	0	
2.2	3.44115	0	
2.15	3.35455	0	
2.25	3.35455	0	
0.4	3.44115	0	
0.353688	3.52563	0	
0.300615	3.4408	0	
0.95	4.74019	0	
1.05	4.74019	0	
1	4.82679	0	
2.5	4.30718	0	
2.6	4.30718	0	
2.55	4.39378	0	
2.6	4.30718	0	
2.65	4.22058	0	
2.69968	4.307	0	
0.95	3.52776	0	
1	3.44115	0	
1.05	3.52776	0	
2.45	3.52776	0	
2.5	3.61436	0	
2.4	3.61436	0	
1.3	3.61436	0	
1.35	3.70096	0	
1.25	3.70096	0	
2.75	3.18135	0	
2.7	3.09474	0	
2.79256	3.09818	0	
0.3	5	0	
0.247885	4.91437	0	
0.349619	4.91354	0	
0.252371	4.21922	0	
0.350015	4.22059	0	
0.300398	4.30695	0	
0.600007	4.13398	0	
0.500035	4.13399	0	
0.550038	4.04739	0	
1.5	4.82679	0	
1.55	4.74019	0	
1.6	4.82679	0	
0.5	3.09474	0	
0.55	3.18135	0	
0.45	3.18135	0	
1.95	4.04737	0	
1.9	4.13397	0	
1.85	4.04737	0	
2.7	3.09474	0	
2.6	3.09474	0	
2.64985	3.00785	0	
0.7	3.78756	0	
0.75	3.70096	0	
0.8	3.78756	0	
1.25	3.18135	0	
1.15	3.18135	0	
1.2	3.09474	0	
2	3.78756	0	
2.1	3.78756	0	
2.05	3.87417	0	
2.25	4.74019	0	
2.3	4.65359	0	
2.35	4.74019	0	
1.45	4.22058	0	
1.4	4.30718	0	
1.35	4.22058	0	
0.7	3.61436	0	
0.75	3.70096	0	
0.65	3.70096	0	
0.45	3.52776	0	
0.5	3.61436	0	
0.403739	3.61187	0	
1.3	4.48038	0	
1.25	4.56699	0	
1.2	4.48038	0	
0.65	3.70096	0	
0.75	3.70096	0	
0.7	3.78756	0	
2.05	3.18135	0	
2.1	3.26795	0	
2	3.26795	0	
0.45	3.70096	0	
0.55	3.70096	0	
0.5	3.78756	0	
1.9	4.48038	0	
1.85	4.56699	0	
1.8	4.48038	0	
1.65	3.18135	0	
1.7	3.09474	0	
1.75	3.18135	0	
1.35	3.52776	0	
1.45	3.52776	0	
1.4	3.61436	0	
0.499996	4.65359	0	
0.449982	4.74019	0	
0.399744	4.65374	0	
0.4	3.44115	0	
0.45	3.52776	0	
0.353688	3.52563	0	
2.5	4.30718	0	
2.55	4.22058	0	
2.6	4.30718	0	
0.5	3.61436	0	
0.45	3.70096	0	
0.403739	3.61187	0	
1.45	3.52776	0	
1.55	3.52776	0	
1.5	3.61436	0	
0.550006	4.22058	0	
0.600007	4.13398	0	
0.650001	4.22058	0	
1.5	3.09474	0	
1.4	3.09476	0	
1.45	3.00816	0	
1.55	3.18135	0	
1.5	3.09474	0	
1.6	3.09474	0	
2.25	4.74019	0	
2.35	4.74019	0	
2.3	4.82679	0	
3	3.6	0	
3	3.7	0	
2.9134	3.65	0	
2.5	4.30718	0	
2.4	4.30718	0	
2.45	4.22058	0	
0.5	3.61436	0	
0.55	3.70096	0	
0.45	3.70096	0	
1.5	4.65359	0	
1.55	4.56699	0	
1.6	4.65359	0	
1.75	2.83494	0	
1.7	2.75058	0	
1.81069	2.74136	0	
1.6	3.09474	0	
1.7	3.09474	0	
1.65	3.18135	0	
1.45	3.35455	0	
1.55	3.35455	0	
1.5	3.44115	0	
1.65	4.39378	0	
1.55	4.39378	0	
1.6	4.30718	0	
1.05	4.56699	0	
1	4.65359	0	
0.95	4.56699	0	
0.7	3.96077	0	
0.8	3.96077	0	
0.75	4.04737	0	
1.5	3.26795	0	
1.45	3.18135	0	
1.55	3.18135	0	
1.05	3.00814	0	
0.95	3.00814	0	
1	2.92154	0	
3	3.7	0	
2.90429	3.76504	0	
2.9134	3.65	0	
1.4	3.26795	0	
1.45	3.18135	0	
1.5	3.26795	0	
1	3.61436	0	
1.05	3.52776	0	
1.1	3.61436	0	
0.9	4.13397	0	
0.95	4.04737	0	
1	4.13397	0	
1.6	3.96077	0	
1.7	3.96077	0	
1.65	4.04737	0	
0.8	3.61436	0	
0.85	3.70096	0	
0.75	3.70096	0	
1.55	3.18135	0	
1.45	3.18135	0	
1.5	3.09474	0	
2.35	4.39378	0	
2.4	4.48038	0	
2.3	4.48038	0	
2.5	4.30718	0	
2.45	4.22058	0	
2.55	4.22058	0	
2.6	4.48038	0	
2.55	4.39378	0	
2.6497	4.39334	0	
1.21081	2.73937	0	
1.15	2.83494	0	
1.10066	2.74874	0	
1.85	3.87417	0	
1.75	3.87417	0	
1.8	3.78756	0	
1.65	4.04737	0	
1.75	4.04737	0	
1.7	4.13397	0	
2.35	4.04737	0	
2.3	3.96077	0	
2.4	3.96077	0	
0.9	4.30718	0	
0.85	4.22058	0	
0.95	4.22058	0	
1.9	3.96077	0	
1.95	4.04737	0	
1.85	4.04737	0	
2	3.96077	0	
1.95	3.87417	0	
2.05	3.87417	0	
2.1	3.78756	0	
2.05	3.70096	0	
2.15	3.70096	0	
2.2	3.26795	0	
2.25	3.18135	0	
2.3	3.26795	0	
2.15	4.39378	0	
2.2	4.48038	0	
2.1	4.48038	0	
2.25	4.56699	0	
2.2	4.48038	0	
2.3	4.48038	0	
1.7	4.48038	0	
1.75	4.56699	0	
1.65	4.56699	0	
1.6	4.48038	0	
1.65	4.56699	0	
1.55	4.56699	0	
1.5	4.48038	0	
1.45	4.39378	0	
1.55	4.39378	0	
1.9	4.13397	0	
1.95	4.22058	0	
1.85	4.22058	0	
0	4.4	0	
0	4.3	0	
0.0866025	4.35	0	
0.6	3.61436	0	
0.65	3.70096	0	
0.55	3.70096	0	
2.55	4.56699	0	
2.5	4.48038	0	
2.6	4.48038	0	
2.7	2.92154	0	
2.74909	3.00637	0	
2.64985	3.00785	0	
0.65	4.56699	0	
0.6	4.48038	0	
0.7	4.48038	0	
1	3.96077	0	
1.1	3.96077	0	
1.05	4.04737	0	
1.2	3.61436	0	
1.3	3.61436	0	
1.25	3.70096	0	
0.300615	3.4408	0	
0.353688	3.52563	0	
0.253287	3.53941	0	
0.599998	4.65359	0	
0.549999	4.56699	0	
0.65	4.56699	0	
2.3	3.09474	0	
2.25	3.18135	0	
2.2	3.09475	0	
0.6	3.61436	0	
0.55	3.70096	0	
0.5	3.61436	0	
0.45	3.70096	0	
0.5	3.78756	0	
0.40359	3.78964	0	
2.25	3.00815	0	
2.2	3.09475	0	
2.15	3.00815	0	
1.7	2.92154	0	
1.6	2.92154	0	
1.65	2.83494	0	
2.55	3.52776	0	
2.5	3.44115	0	
2.6	3.44115	0	
0.25	4.39378	0	
0.300011	4.48038	0	
0.2	4.48038	0	
2.2	4.30718	0	
2.25	4.22058	0	
2.3	4.30718	0	
2.60011	4.65353	0	
2.65015	4.74011	0	
2.55004	4.74017	0	
2.7908	3.27512	0	
2.75	3.18135	0	
2.84568	3.19476	0	
2.4	3.09474	0	
2.5	3.09474	0	
2.45	3.18135	0	
2.1	4.48038	0	
2.05	4.56699	0	
2	4.48038	0	
1.45	4.39378	0	
1.4	4.48038	0	
1.35	4.39378	0	
1.05	4.74019	0	
1.15	4.74019	0	
1.1	4.82679	0	
0.300536	3.26822	0	
0.350489	3.18165	0	
0.40005	3.26797	0	
1.45	3.35455	0	
1.5	3.26795	0	
1.55	3.35455	0	
2.7	3.26795	0	
2.75	3.18135	0	
2.7908	3.27512	0	
1.45	4.74019	0	
1.55	4.74019	0	
1.5	4.82679	0	
2.4	3.09474	0	
2.45	3.00814	0	
2.5	3.09474	0	
0.400814	3.96124	0	
0.50012	3.96084	0	
0.450156	4.04746	0	
2.55	3.70096	0	
2.6	3.61436	0	
2.64991	3.70093	0	
2.15	2.83531	0	
2.08333	2.75259	0	
2.18056	2.74844	0	
2.45	3.00814	0	
2.35	3.00814	0	
2.40011	2.92161	0	
1.5	4.48038	0	
1.4	4.48038	0	
1.45	4.39378	0	
0.300536	3.26822	0	
0.253111	3.35621	0	
0.209806	3.27544	0	
3	2.8	0	
2.91001	2.8578	0	
2.89867	2.75006	0	
0.45	3.70096	0	
0.40359	3.78964	0	
0.346619	3.70094	0	
2.3	3.26795	0	
2.4	3.26795	0	
2.35	3.35455	0	
1.6	3.09474	0	
1.5	3.09474	0	
1.55	3.00814	0	
1.1	5	0	
1	5	0	
1.05	4.9134	0	
2.55	3.00814	0	
2.45	3.00814	0	
2.5	2.92154	0	
1.55	3.18135	0	
1.6	3.09474	0	
1.65	3.18135	0	
1.85	4.22058	0	
1.95	4.22058	0	
1.9	4.30718	0	
2.25	4.04737	0	
2.15	4.04737	0	
2.2	3.96077	0	
1.4	3.26795	0	
1.35	3.18135	0	
1.45	3.18135	0	
0.95	4.04737	0	
0.9	3.96077	0	
1	3.96077	0	
1.05	3.35455	0	
0.95	3.35455	0	
1	3.26795	0	
1.65	3.00814	0	
1.6	2.92154	0	
1.7	2.92154	0	
0.40359	3.78964	0	
0.5	3.78756	0	
0.450598	3.87451	0	
2.5	3.61436	0	
2.45	3.70096	0	
2.4	3.61436	0	
1.75	2.83494	0	
1.65	2.83494	0	
1.7	2.75058	0	
3	4.6	0	
3	4.7	0	
2.91115	4.65092	0	
2.92056	3.34477	0	
3	3.4	0	
2.89961	3.44645	0	
0.7	3.61436	0	
0.65	3.70096	0	
0.6	3.61436	0	
1.65	2.83494	0	
1.6	2.92154	0	
1.55064	2.83584	0	
3	2.9	0	
3	3	0	
2.91458	2.95418	0	
1	3.96077	0	
0.95	3.87417	0	
1.05	3.87417	0	
1.45	3.35455	0	
1.5	3.44115	0	
1.4	3.44115	0	
1.5	4.65359	0	
1.6	4.65359	0	
1.55	4.74019	0	
1.4	3.26795	0	
1.5	3.26795	0	
1.45	3.35455	0	
2.40413	2.75072	0	
2.35069	2.83533	0	
2.3	2.74833	0	
1.3	3.26795	0	
1.35	3.18135	0	
1.4	3.26795	0	
0.5	3.78756	0	
0.55	3.70096	0	
0.6	3.78756	0	
1.55	3.18135	0	
1.65	3.18135	0	
1.6	3.26795	0	
2.6	2.92154	0	
2.7	2.92154	0	
2.64985	3.00785	0	
2.55	2.83494	0	
2.45	2.83494	0	
2.5	2.74833	0	
0.354288	3.87664	0	
0.450598	3.87451	0	
0.400814	3.96124	0	
0.65	4.56699	0	
0.7	4.48038	0	
0.75	4.56699	0	
1.9	4.13397	0	
1.85	4.22058	0	
1.8	4.13397	0	
1.75	2.5866	0	
1.8	2.5	0	
1.85413	2.58422	0	
1.15	4.9134	0	
1.1	5	0	
1.05	4.9134	0	
2.1	2.5	0	
2.2	2.5	0	
2.15	2.5866	0	
2.35	4.39378	0	
2.45	4.39378	0	
2.4	4.48038	0	
1.45	3.52776	0	
1.5	3.44115	0	
1.55	3.52776	0	
1.8	3.44115	0	
1.85	3.52776	0	
1.75	3.52776	0	
2.35	3.18135	0	
2.25	3.18135	0	
2.3	3.09474	0	
1.6	3.09474	0	
1.65	3.00814	0	
1.7	3.09474	0	
1.9	2.5	0	
1.95	2.5866	0	
1.85413	2.58422	0	
1.6	3.09474	0	
1.55	3.00814	0	
1.65	3.00814	0	
1.9	4.48038	0	
1.8	4.48038	0	
1.85	4.39378	0	
1.85	4.9134	0	
1.8	5	0	
1.75	4.9134	0	
0.65	4.56699	0	
0.75	4.56699	0	
0.7	4.65359	0	
1.95	4.04737	0	
2	3.96077	0	
2.05	4.04737	0	
1	3.44115	0	
0.95	3.35455	0	
1.05	3.35455	0	
1.6	2.92154	0	
1.55	3.00814	0	
1.5	2.92154	0	
2.45	4.56699	0	
2.5	4.48038	0	
2.55	4.56699	0	
1.7	4.48038	0	
1.65	4.56699	0	
1.6	4.48038	0	
2.55	3.87417	0	
2.64989	3.87423	0	
2.59998	3.96078	0	
0.40359	3.78964	0	
0.450598	3.87451	0	
0.354288	3.87664	0	
1.6	2.74871	0	
1.65	2.83494	0	
1.55064	2.83584	0	
2.1	2.92154	0	
2	2.92154	0	
2.05	2.83718	0	
2.74997	4.04739	0	
2.69987	3.96085	0	
2.80112	3.95887	0	
2.84568	3.19476	0	
2.75	3.18135	0	
2.79256	3.09818	0	
2.6	2.92154	0	
2.5	2.92154	0	
2.55	2.83494	0	
2.55	3.87417	0	
2.59998	3.96078	0	
2.5	3.96077	0	
2.3	3.96077	0	
2.2	3.96077	0	
2.25	3.87417	0	
2.35	4.39378	0	
2.4	4.30718	0	
2.45	4.39378	0	
2.4	3.09474	0	
2.35	3.00814	0	
2.45	3.00814	0	
2.4	4.48038	0	
2.5	4.48038	0	
2.45	4.56699	0	
2.64989	3.87423	0	
2.6	3.78756	0	
2.69945	3.7874	0	
2.40413	2.75072	0	
2.45	2.83494	0	
2.35069	2.83533	0	
2.3	2.5	0	
2.4	2.5	0	
2.36069	2.59389	0	
1.1	3.96077	0	
1.05	3.87417	0	
1.15	3.87417	0	
1.4	3.96077	0	
1.35	3.87417	0	
1.45	3.87417	0	
1.9	3.96077	0	
1.85	3.87417	0	
1.95	3.87417	0	
2.15	3.35455	0	
2.1	3.26795	0	
2.2	3.26795	0	
2.2	3.26795	0	
2.15	3.18135	0	
2.25	3.18135	0	
2.3	3.26795	0	
2.25	3.18135	0	
2.35	3.18135	0	
1.05	4.56699	0	
1.15	4.56699	0	
1.1	4.65359	0	
2.6	3.78756	0	
2.55	3.70096	0	
2.64991	3.70093	0	
0.25	4.39378	0	
0.350066	4.39374	0	
0.300011	4.48038	0	
2.1	3.61436	0	
2.05	3.52776	0	
2.15	3.52776	0	
2.15	3.52776	0	
2.1	3.44115	0	
2.2	3.44115	0	
2.35	4.22058	0	
2.25	4.22058	0	
2.3	4.13397	0	
2.55	3.00814	0	
2.5	2.92154	0	
2.6	2.92154	0	
2.6	3.44115	0	
2.5	3.44115	0	
2.55	3.35455	0	
2.45	3.70096	0	
2.5	3.78756	0	
2.4	3.78756	0	
2.4	3.26795	0	
2.35	3.18135	0	
2.45	3.18135	0	
1.6	4.48038	0	
1.55	4.56699	0	
1.5	4.48038	0	
2.65	3.18135	0	
2.6	3.09474	0	
2.7	3.09474	0	
2.5	3.61436	0	
2.55	3.70096	0	
2.45	3.70096	0	
2.7	2.92154	0	
2.74721	2.83333	0	
2.81323	2.91396	0	
0.25	4.39378	0	
0.300398	4.30695	0	
0.350066	4.39374	0	
1.65	3.00814	0	
1.55	3.00814	0	
1.6	2.92154	0	
2.6	3.61436	0	
2.55	3.52776	0	
2.65	3.52776	0	
1.65	2.66173	0	
1.6	2.74871	0	
1.54725	2.66321	0	
2.4	3.09474	0	
2.3	3.09474	0	
2.35	3.00814	0	
2.7	2.92154	0	
2.65	2.83494	0	
2.74721	2.83333	0	
1.65	4.22058	0	
1.75	4.22058	0	
1.7	4.30718	0	
2.15	3.35455	0	
2.2	3.26795	0	
2.25	3.35455	0	
2.25	4.39378	0	
2.3	4.30718	0	
2.35	4.39378	0	
2.45	4.22058	0	
2.4	4.30718	0	
2.35	4.22058	0	
1.9	3.61436	0	
1.85	3.70096	0	
1.8	3.61436	0	
0.350102	3.35449	0	
0.300615	3.4408	0	
0.253111	3.35621	0	
2.35	3.00814	0	
2.3	3.09474	0	
2.25	3.00815	0	
1.25428	2.58189	0	
1.3	2.5	0	
1.35252	2.58736	0	
2.55	4.39378	0	
2.6	4.30718	0	
2.6497	4.39334	0	
1.8	2.5	0	
1.9	2.5	0	
1.85413	2.58422	0	
1.7	2.92154	0	
1.65	2.83494	0	
1.75	2.83494	0	
0.5	3.44115	0	
0.45	3.52776	0	
0.4	3.44115	0	
2.5	3.78756	0	
2.6	3.78756	0	
2.55	3.87417	0	
2.55	3.87417	0	
2.6	3.78756	0	
2.64989	3.87423	0	
1.05	4.74019	0	
1.1	4.65359	0	
1.15	4.74019	0	
2.1	2.92154	0	
2.15	2.83531	0	
2.2	2.9216	0	
2.74721	2.83333	0	
2.69954	2.75031	0	
2.79604	2.74872	0	
0.4	3.44115	0	
0.300615	3.4408	0	
0.350102	3.35449	0	
1.9	2.5	0	
2	2.5	0	
1.95	2.5866	0	
2.3	5	0	
2.2	5	0	
2.25	4.9134	0	
2.55	4.56699	0	
2.6	4.48038	0	
2.65064	4.56662	0	
2.9	5	0	
2.8	5	0	
2.84613	4.91563	0	
0.9	4.13397	0	
0.85	4.04737	0	
0.95	4.04737	0	
2.45	3.52776	0	
2.5	3.44115	0	
2.55	3.52776	0	
1.2	3.96077	0	
1.3	3.96077	0	
1.25	4.04737	0	
1.3	3.96077	0	
1.4	3.96077	0	
1.35	4.04737	0	
1.8	3.96077	0	
1.85	3.87417	0	
1.9	3.96077	0	
1.95	3.87417	0	
1.85	3.87417	0	
1.9	3.78756	0	
2.05	3.70096	0	
1.95	3.70096	0	
2	3.61436	0	
0.8	3.61436	0	
0.75	3.70096	0	
0.7	3.61436	0	
1.7	2.75058	0	
1.65	2.83494	0	
1.6	2.74871	0	
0.75	4.39378	0	
0.65	4.39378	0	
0.7	4.30718	0	
1.7	3.96077	0	
1.8	3.96077	0	
1.75	4.04737	0	
2.1	4.65359	0	
2.15	4.56699	0	
2.2	4.65359	0	
2.69945	3.7874	0	
2.6	3.78756	0	
2.64991	3.70093	0	
1.4	4.48038	0	
1.35	4.56699	0	
1.3	4.48038	0	
2.5	3.61436	0	
2.6	3.61436	0	
2.55	3.70096	0	
2.45	3.70096	0	
2.55	3.70096	0	
2.5	3.78756	0	
2.69968	4.307	0	
2.74758	4.21918	0	
2.81355	4.30378	0	
1.9	5	0	
1.8	5	0	
1.85	4.9134	0	
1.7	5	0	
1.6	5	0	
1.65	4.9134	0	
1.9	3.96077	0	
2	3.96077	0	
1.95	4.04737	0	
2.1	3.61436	0	
2.2	3.61436	0	
2.15	3.70096	0	
2.5	3.09474	0	
2.55	3.00814	0	
2.6	3.09474	0	
1.7	4.30718	0	
1.75	4.22058	0	
1.8	4.30718	0	
3	2.6	0	
3	2.7	0	
2.91853	2.64695	0	
1.3	3.96077	0	
1.35	3.87417	0	
1.4	3.96077	0	
1.9	3.96077	0	
1.95	3.87417	0	
2	3.96077	0	
1.95	3.70096	0	
1.9	3.78756	0	
1.85	3.70096	0	
2.1	3.44115	0	
2.05	3.52776	0	
2	3.44115	0	
2.05	3.35455	0	
2	3.44115	0	
1.95	3.35455	0	
2.35	3.35455	0	
2.45	3.35455	0	
2.4	3.44115	0	
2.1	3.61436	0	
2.15	3.52776	0	
2.2	3.61436	0	
2.15	3.18135	0	
2.05	3.18135	0	
2.1	3.09474	0	
2.5	3.09474	0	
2.6	3.09474	0	
2.55	3.18135	0	
2.15	2.83531	0	
2.05	2.83718	0	
2.08333	2.75259	0	
0.549994	4.74019	0	
0.599998	4.65359	0	
0.65	4.74019	0	
1.95	3.35455	0	
1.9	3.44115	0	
1.85	3.35455	0	
1.95	3.35455	0	
1.85	3.35455	0	
1.9	3.26795	0	
2.15	4.39378	0	
2.1	4.48038	0	
2.05	4.39378	0	
1.7	2.75058	0	
1.6	2.74871	0	
1.65	2.66173	0	
1.7	2.5	0	
1.8	2.5	0	
1.75	2.5866	0	
1.1	3.96077	0	
1.15	3.87417	0	
1.2	3.96077	0	
2	4.13397	0	
2.05	4.04737	0	
2.1	4.13397	0	
2.15	4.39378	0	
2.25	4.39378	0	
2.2	4.48038	0	
2.1	4.48038	0	
2.2	4.48038	0	
2.15	4.56699	0	
2.1	3.09474	0	
2	3.09474	0	
2.05	3.00814	0	
1.55	4.56699	0	
1.65	4.56699	0	
1.6	4.65359	0	
0.400814	3.96124	0	
0.450598	3.87451	0	
0.50012	3.96084	0	
0.0953346	3.95604	0	
0	3.9	0	
0.0866025	3.85	0	
2.5	3.61436	0	
2.55	3.52776	0	
2.6	3.61436	0	
1.2	5	0	
1.1	5	0	
1.15	4.9134	0	
2.4	3.44115	0	
2.5	3.44115	0	
2.45	3.52776	0	
2.1	2.92154	0	
2.05	2.83718	0	
2.15	2.83531	0	
0.0950001	4.46391	0	
0	4.4	0	
0.0866025	4.35	0	
2.3	3.44115	0	
2.2	3.44115	0	
2.25	3.35455	0	
0.9	4.13397	0	
0.8	4.13397	0	
0.85	4.04737	0	
2.05	3.52776	0	
2	3.61436	0	
1.95	3.52776	0	
2.1	4.13397	0	
2.2	4.13397	0	
2.15	4.22058	0	
1.2	4.48038	0	
1.15	4.56699	0	
1.1	4.48038	0	
2.05	3.00814	0	
1.95	3.00814	0	
2	2.92154	0	
2.1	3.61436	0	
2	3.61436	0	
2.05	3.52776	0	
2.15	4.04737	0	
2.05	4.04737	0	
2.1	3.96077	0	
1.9	4.13397	0	
2	4.13397	0	
1.95	4.22058	0	
2.15	4.22058	0	
2.25	4.22058	0	
2.2	4.30718	0	
1.95	4.56699	0	
2.05	4.56699	0	
2	4.65359	0	
1.5	4.48038	0	
1.45	4.56699	0	
1.4	4.48038	0	
2.45	3.70096	0	
2.4	3.78756	0	
2.35	3.70096	0	
1.05	2.83494	0	
0.95	2.83494	0	
1	2.75058	0	
0	4.7	0	
0	4.6	0	
0.08858	4.65128	0	
0	4.2	0	
0	4.1	0	
0.0953529	4.14196	0	
0	4	0	
0	3.9	0	
0.0953346	3.95604	0	
0	3.6	0	
0	3.5	0	
0.0849964	3.55278	0	
0	3.4	0	
0	3.3	0	
0.0794351	3.34477	0	
1.2	3.26795	0	
1.3	3.26795	0	
1.25	3.35455	0	
2.05	4.56699	0	
2.15	4.56699	0	
2.1	4.65359	0	
2.59998	3.96078	0	
2.69987	3.96085	0	
2.64997	4.04739	0	
0	4.5	0	
0	4.4	0	
0.0950001	4.46391	0	
0	3.8	0	
0	3.7	0	
0.0866025	3.75	0	
0.8	4.30718	0	
0.85	4.22058	0	
0.9	4.30718	0	
2.59998	3.96078	0	
2.64989	3.87423	0	
2.69987	3.96085	0	
1.75	3.18135	0	
1.8	3.26795	0	
1.7	3.26795	0	
0	4.3	0	
0	4.2	0	
0.0880745	4.25107	0	
3	3	0	
3	3.1	0	
2.92552	3.05168	0	
3	3.7	0	
3	3.8	0	
2.90429	3.76504	0	
3	3.9	0	
3	4	0	
2.90902	3.9539	0	
3	4.1	0	
3	4.2	0	
2.90465	4.14196	0	
3	4.4	0	
3	4.5	0	
2.90556	4.46234	0	
2.5	5	0	
2.4	5	0	
2.45	4.9134	0	
1.4	5	0	
1.3	5	0	
1.35	4.9134	0	
0.65	4.56699	0	
0.549999	4.56699	0	
0.6	4.48038	0	
0.9	3.96077	0	
0.8	3.96077	0	
0.85	3.87417	0	
2	3.78756	0	
1.9	3.78756	0	
1.95	3.70096	0	
1.85413	2.58422	0	
1.95	2.5866	0	
1.9	2.67321	0	
1.05	3.87417	0	
0.95	3.87417	0	
1	3.78756	0	
2.25	3.87417	0	
2.2	3.96077	0	
2.15	3.87417	0	
2.4	4.48038	0	
2.45	4.39378	0	
2.5	4.48038	0	
2.15	4.74019	0	
2.2	4.65359	0	
2.25	4.74019	0	
0.251724	3.18264	0	
0.207786	3.09844	0	
0.301585	3.09557	0	
1.2	2.5	0	
1.3	2.5	0	
1.25428	2.58189	0	
0.0866025	3.75	0	
0	3.7	0	
0.0863348	3.65046	0	
2.15	3.52776	0	
2.05	3.52776	0	
2.1	3.44115	0	
2.1	3.44115	0	
2	3.44115	0	
2.05	3.35455	0	
2.15	3.35455	0	
2.05	3.35455	0	
2.1	3.26795	0	
1.6	4.48038	0	
1.5	4.48038	0	
1.55	4.39378	0	
2.55	3.18135	0	
2.6	3.09474	0	
2.65	3.18135	0	
1	2.5	0	
1.1	2.5	0	
1.05	2.5866	0	
3	3.5	0	
3	3.6	0	
2.91021	3.55552	0	
0.8	5	0	
0.7	5	0	
0.75	4.9134	0	
1.25	3.35455	0	
1.3	3.44115	0	
1.2	3.44115	0	
2.64997	4.04739	0	
2.69987	3.96085	0	
2.74997	4.04739	0	
1.65	3.87417	0	
1.55	3.87417	0	
1.6	3.78756	0	
2.91021	3.55552	0	
3	3.6	0	
2.9134	3.65	0	
1	5	0	
0.9	5	0	
0.95	4.9134	0	
1.4	3.96077	0	
1.45	3.87417	0	
1.5	3.96077	0	
0.45	3.70096	0	
0.346619	3.70094	0	
0.403739	3.61187	0	
1.3	4.48038	0	
1.2	4.48038	0	
1.25	4.39378	0	
2.55004	4.74017	0	
2.65015	4.74011	0	
2.60003	4.82678	0	
0.400814	3.96124	0	
0.450156	4.04746	0	
0.350162	4.04747	0	
0.65	4.39378	0	
0.6	4.48038	0	
0.55	4.39378	0	
2.2	3.26795	0	
2.1	3.26795	0	
2.15	3.18135	0	
1.65	4.39378	0	
1.6	4.48038	0	
1.55	4.39378	0	
2.05	3.00814	0	
2	2.92154	0	
2.1	2.92154	0	
1.5	3.61436	0	
1.55	3.52776	0	
1.6	3.61436	0	
1.5	3.96077	0	
1.55	3.87417	0	
1.6	3.96077	0	
1.7	3.96077	0	
1.75	3.87417	0	
1.8	3.96077	0	
2	3.78756	0	
2.05	3.70096	0	
2.1	3.78756	0	
2.1	2.5	0	
2.15	2.5866	0	
2.05231	2.58384	0	
2	4.48038	0	
1.9	4.48038	0	
1.95	4.39378	0	
2.6	4.30718	0	
2.55	4.22058	0	
2.65	4.22058	0	
2.05	2.83718	0	
2	2.92154	0	
1.95	2.8362	0	
2.69968	4.307	0	
2.65	4.22058	0	
2.74758	4.21918	0	
1.2	3.96077	0	
1.25	3.87417	0	
1.3	3.96077	0	
2.45	4.39378	0	
2.4	4.30718	0	
2.5	4.30718	0	
2.4	4.48038	0	
2.45	4.56699	0	
2.35	4.56699	0	
1.25	3.0082	0	
1.35	3.00821	0	
1.3	3.09475	0	
1.4	2.5	0	
1.5	2.5	0	
1.46081	2.59589	0	
2.1	5	0	
2	5	0	
2.05	4.9134	0	
1.1	4.48038	0	
1.05	4.56699	0	
1	4.48038	0	
2.05	4.74019	0	
2.15	4.74019	0	
2.1	4.82679	0	
0.75	4.39378	0	
0.7	4.30718	0	
0.8	4.30718	0	
0.8	4.30718	0	
0.75	4.22058	0	
0.85	4.22058	0	
1.2	3.96077	0	
1.15	3.87417	0	
1.25	3.87417	0	
1.5	3.96077	0	
1.45	3.87417	0	
1.55	3.87417	0	
1.6	3.96077	0	
1.55	3.87417	0	
1.65	3.87417	0	
1.7	3.96077	0	
1.65	3.87417	0	
1.75	3.87417	0	
1.8	3.96077	0	
1.75	3.87417	0	
1.85	3.87417	0	
1.95	3.87417	0	
1.9	3.78756	0	
2	3.78756	0	
2	3.78756	0	
1.95	3.70096	0	
2.05	3.70096	0	
2.05	3.70096	0	
2	3.61436	0	
2.1	3.61436	0	
2.1	4.13397	0	
2.05	4.04737	0	
2.15	4.04737	0	
2.1	3.44115	0	
2.05	3.35455	0	
2.15	3.35455	0	
1.95	3.35455	0	
2	3.44115	0	
1.9	3.44115	0	
2.1	4.13397	0	
2.15	4.22058	0	
2.05	4.22058	0	
2.2	4.13397	0	
2.15	4.04737	0	
2.25	4.04737	0	
2.2	4.30718	0	
2.25	4.39378	0	
2.15	4.39378	0	
2.1	4.48038	0	
2.15	4.56699	0	
2.05	4.56699	0	
1.8	4.13397	0	
1.75	4.04737	0	
1.85	4.04737	0	
2.5	3.09474	0	
2.45	3.00814	0	
2.55	3.00814	0	
1.7	2.92154	0	
1.75	2.83494	0	
1.8	2.92154	0	
2	4.48038	0	
2.05	4.56699	0	
1.95	4.56699	0	
1.9	4.48038	0	
1.95	4.56699	0	
1.85	4.56699	0	
1.8	4.48038	0	
1.85	4.56699	0	
1.75	4.56699	0	
1.5	4.48038	0	
1.55	4.56699	0	
1.45	4.56699	0	
1.45	4.39378	0	
1.4	4.30718	0	
1.5	4.30718	0	
2.25	4.74019	0	
2.2	4.65359	0	
2.3	4.65359	0	
1.75	4.74019	0	
1.7	4.65359	0	
1.8	4.65359	0	
0.7	4.48038	0	
0.65	4.39378	0	
0.75	4.39378	0	
1	3.44115	0	
1.05	3.35455	0	
1.1	3.44115	0	
2.35	3.35455	0	
2.4	3.26795	0	
2.45	3.35455	0	
1.4	3.44115	0	
1.45	3.52776	0	
1.35	3.52776	0	
2.15	2.5866	0	
2.2	2.5	0	
2.25127	2.58426	0	
1.9	2.67321	0	
1.95	2.5866	0	
2.01389	2.67009	0	
2.01389	2.67009	0	
1.95	2.5866	0	
2.05231	2.58384	0	
1.55	4.04737	0	
1.6	3.96077	0	
1.65	4.04737	0	
2.2	3.61436	0	
2.15	3.52776	0	
2.25	3.52776	0	
2.1	4.13397	0	
2.15	4.04737	0	
2.2	4.13397	0	
2.2	4.48038	0	
2.25	4.39378	0	
2.3	4.48038	0	
1.45	4.56699	0	
1.55	4.56699	0	
1.5	4.65359	0	
1.2	4.48038	0	
1.25	4.56699	0	
1.15	4.56699	0	
1.1	4.48038	0	
1.15	4.56699	0	
1.05	4.56699	0	
2.65064	4.56662	0	
2.6	4.48038	0	
2.70042	4.47903	0	
2.1	4.65359	0	
2.15	4.74019	0	
2.05	4.74019	0	
1.35	3.87417	0	
1.3	3.78756	0	
1.4	3.78756	0	
2.6	2.92154	0	
2.55	2.83494	0	
2.65	2.83494	0	
2.4	3.44115	0	
2.45	3.52776	0	
2.35	3.52776	0	
1.05	4.56699	0	
1.1	4.65359	0	
1	4.65359	0	
1	5	0	
0.95	4.9134	0	
1.05	4.9134	0	
0.549994	4.74019	0	
0.499996	4.65359	0	
0.599998	4.65359	0	
1.8	4.82679	0	
1.85	4.74019	0	
1.9	4.82679	0	
2.7	3.61436	0	
2.65	3.52776	0	
2.74741	3.52626	0	
1.6	3.78756	0	
1.55	3.87417	0	
1.5	3.78756	0	
0.8	3.78756	0	
0.9	3.78756	0	
0.85	3.87417	0	
2.55	4.56699	0	
2.65064	4.56662	0	
2.60011	4.65353	0	
2.6	3.61436	0	
2.65	3.52776	0	
2.7	3.61436	0	
1	4.65359	0	
1.05	4.74019	0	
0.95	4.74019	0	
1	3.78756	0	
0.95	3.87417	0	
0.9	3.78756	0	
1.8	3.44115	0	
1.9	3.44115	0	
1.85	3.52776	0	
2.5	2.74833	0	
2.44738	2.66318	0	
2.55	2.66173	0	
0.7	3.96077	0	
0.75	4.04737	0	
0.650009	4.04738	0	
3	2.8	0	
3	2.9	0	
2.91001	2.8578	0	
1.95	4.04737	0	
2.05	4.04737	0	
2	4.13397	0	
1.35	4.22058	0	
1.3	4.30718	0	
1.25	4.22058	0	
2.90465	4.14196	0	
3	4.2	0	
2.91185	4.25097	0	
2.7	5	0	
2.6	5	0	
2.65	4.9134	0	
2.60011	4.65353	0	
2.70077	4.65315	0	
2.65015	4.74011	0	
0.95	4.74019	0	
1	4.82679	0	
0.9	4.82679	0	
2.6	2.5	0	
2.7	2.5	0	
2.65	2.5866	0	
3	3.3	0	
3	3.4	0	
2.92056	3.34477	0	
0.8	4.13397	0	
0.75	4.22058	0	
0.7	4.13397	0	
2.5	2.74833	0	
2.40413	2.75072	0	
2.44738	2.66318	0	
1.25	3.52776	0	
1.3	3.61436	0	
1.2	3.61436	0	
1.5	3.96077	0	
1.6	3.96077	0	
1.55	4.04737	0	
1.95	3.52776	0	
2	3.61436	0	
1.9	3.61436	0	
2.55	2.83494	0	
2.5	2.92154	0	
2.45	2.83494	0	
2.3	3.26795	0	
2.35	3.18135	0	
2.4	3.26795	0	
2.4	3.44115	0	
2.45	3.35455	0	
2.5	3.44115	0	
2.05	3.00814	0	
2	3.09474	0	
1.95	3.00814	0	
2.7	3.61436	0	
2.74741	3.52626	0	
2.81354	3.60941	0	
0.9	3.61436	0	
0.95	3.52776	0	
1	3.61436	0	
2.2	3.61436	0	
2.25	3.52776	0	
2.3	3.61436	0	
2.15	3.18135	0	
2.1	3.26795	0	
2.05	3.18135	0	
2.15	4.56699	0	
2.2	4.48038	0	
2.25	4.56699	0	
2.74909	3.00637	0	
2.7	3.09474	0	
2.64985	3.00785	0	
2.74997	4.04739	0	
2.80112	3.95887	0	
2.84968	4.04768	0	
1.95	3.00814	0	
1.9	3.09474	0	
1.85	3.00814	0	
2.35	3.52776	0	
2.45	3.52776	0	
2.4	3.61436	0	
0.85	3.52776	0	
0.75	3.52776	0	
0.8	3.44115	0	
0.85	3.00814	0	
0.75	3.00814	0	
0.8	2.92154	0	
0.65	3.87417	0	
0.7	3.78756	0	
0.75	3.87417	0	
2.65	3.18135	0	
2.7	3.09474	0	
2.75	3.18135	0	
0.252371	4.21922	0	
0.300398	4.30695	0	
0.185846	4.30462	0	
0.350066	4.39374	0	
0.300398	4.30695	0	
0.40008	4.30714	0	
0.9	4.65359	0	
0.8	4.65359	0	
0.85	4.56699	0	
2.55	3.87417	0	
2.5	3.96077	0	
2.45	3.87417	0	
1.25	3.35455	0	
1.35	3.35455	0	
1.3	3.44115	0	
2.2	4.30718	0	
2.3	4.30718	0	
2.25	4.39378	0	
0.0866025	3.75	0	
0.17316	3.70008	0	
0.173205	3.8	0	
1.45	4.39378	0	
1.35	4.39378	0	
1.4	4.30718	0	
2.65	3.18135	0	
2.75	3.18135	0	
2.7	3.26795	0	
0	4.3	0	
0.0880745	4.25107	0	
0.0866025	4.35	0	
3	3.4	0	
3	3.5	0	
2.89961	3.44645	0	
1.95	3.00814	0	
2	3.09474	0	
1.9	3.09474	0	
0.5	3.44115	0	
0.4	3.44115	0	
0.450017	3.35454	0	
0.300036	4.134	0	
0.400053	4.13401	0	
0.350015	4.22059	0	
2.75015	4.7401	0	
2.80331	4.65239	0	
2.85	4.74019	0	
0.150144	4.56273	0	
0.250002	4.56699	0	
0.198719	4.65346	0	
0.55	3.00814	0	
0.6	3.09474	0	
0.5	3.09474	0	
0.353688	3.52563	0	
0.45	3.52776	0	
0.403739	3.61187	0	
2.6	2.92154	0	
2.65	2.83494	0	
2.7	2.92154	0	
0.7	4.48038	0	
0.6	4.48038	0	
0.65	4.39378	0	
2.25	4.39378	0	
2.35	4.39378	0	
2.3	4.48038	0	
1	4.13397	0	
1.1	4.13397	0	
1.05	4.22058	0	
1.75	4.56699	0	
1.85	4.56699	0	
1.8	4.65359	0	
1.8	4.48038	0	
1.75	4.56699	0	
1.7	4.48038	0	
0.2	4.48038	0	
0.300011	4.48038	0	
0.250002	4.56699	0	
1.3	2.5	0	
1.4	2.5	0	
1.35252	2.58736	0	
0.0849964	3.55278	0	
0	3.5	0	
0.10002	3.44626	0	
2.79604	2.74872	0	
2.69954	2.75031	0	
2.74843	2.65835	0	
2.55	4.22058	0	
2.45	4.22058	0	
2.5	4.13397	0	
1.55	4.22058	0	
1.65	4.22058	0	
1.6	4.30718	0	
2	4.48038	0	
1.95	4.56699	0	
1.9	4.48038	0	
1.3	4.65359	0	
1.35	4.56699	0	
1.4	4.65359	0	
1.45	3.35455	0	
1.4	3.44115	0	
1.35	3.35455	0	
1.65	4.56699	0	
1.75	4.56699	0	
1.7	4.65359	0	
2.7	3.26795	0	
2.7908	3.27512	0	
2.74835	3.35562	0	
1.5	4.30718	0	
1.4	4.30718	0	
1.45	4.22058	0	
0.0866025	3.75	0	
0.0863348	3.65046	0	
0.17316	3.70008	0	
0.599998	4.65359	0	
0.499996	4.65359	0	
0.549999	4.56699	0	
1.6	3.96077	0	
1.65	3.87417	0	
1.7	3.96077	0	
0.6	3.61436	0	
0.55	3.52776	0	
0.65	3.52776	0	
0.55	3.52776	0	
0.5	3.61436	0	
0.45	3.52776	0	
1.35	3.52776	0	
1.4	3.61436	0	
1.3	3.61436	0	
2.60011	4.65353	0	
2.65064	4.56662	0	
2.70077	4.65315	0	
0.17316	3.70008	0	
0.0863348	3.65046	0	
0.173205	3.6	0	
0.549999	4.56699	0	
0.499996	4.65359	0	
0.449999	4.56699	0	
2.5	2.74833	0	
2.45	2.83494	0	
2.40413	2.75072	0	
2.15	4.22058	0	
2.2	4.13397	0	
2.25	4.22058	0	
2.3	2.5	0	
2.36069	2.59389	0	
2.25127	2.58426	0	
0.300036	4.134	0	
0.350015	4.22059	0	
0.252371	4.21922	0	
1.4	4.82679	0	
1.5	4.82679	0	
1.45	4.9134	0	
0.85	4.22058	0	
0.8	4.13397	0	
0.9	4.13397	0	
2.91853	2.64695	0	
3	2.7	0	
2.89867	2.75006	0	
1.35	3.87417	0	
1.25	3.87417	0	
1.3	3.78756	0	
1.7	4.13397	0	
1.75	4.04737	0	
1.8	4.13397	0	
0.301585	3.09557	0	
0.35	3.00814	0	
0.400264	3.09488	0	
2.35	3.18135	0	
2.3	3.09474	0	
2.4	3.09474	0	
2.4	3.78756	0	
2.5	3.78756	0	
2.45	3.87417	0	
1	4.65359	0	
1.1	4.65359	0	
1.05	4.74019	0	
2.55004	4.74017	0	
2.45001	4.74019	0	
2.50003	4.65357	0	
2.25	4.04737	0	
2.3	3.96077	0	
2.35	4.04737	0	
0.8	4.30718	0	
0.7	4.30718	0	
0.75	4.22058	0	
1.3	3.96077	0	
1.25	3.87417	0	
1.35	3.87417	0	
2.25	4.04737	0	
2.2	3.96077	0	
2.3	3.96077	0	
2.5	3.09474	0	
2.55	3.18135	0	
2.45	3.18135	0	
2.5	3.78756	0	
2.55	3.87417	0	
2.45	3.87417	0	
1.8	3.44115	0	
1.75	3.52776	0	
1.7	3.44115	0	
0.350102	3.35449	0	
0.253111	3.35621	0	
0.300536	3.26822	0	
0.0866025	3.75	0	
0.173205	3.8	0	
0.0866025	3.85	0	
0.6	3.61436	0	
0.5	3.61436	0	
0.55	3.52776	0	
2.1	3.09474	0	
2.05	3.18135	0	
2	3.09474	0	
0.499985	4.8268	0	
0.549994	4.74019	0	
0.6	4.82679	0	
2.5	3.44115	0	
2.45	3.35455	0	
2.55	3.35455	0	
2.5	3.78756	0	
2.55	3.70096	0	
2.6	3.78756	0	
1.4	3.44115	0	
1.5	3.44115	0	
1.45	3.52776	0	
1.45	4.22058	0	
1.35	4.22058	0	
1.4	4.13397	0	
1.2	4.13397	0	
1.25	4.04737	0	
1.3	4.13397	0	
2.45	3.70096	0	
2.35	3.70096	0	
2.4	3.61436	0	
0.350162	4.04747	0	
0.450156	4.04746	0	
0.400053	4.13401	0	
0.95	3.70096	0	
0.9	3.61436	0	
1	3.61436	0	
0.350066	4.39374	0	
0.40008	4.30714	0	
0.450024	4.39377	0	
1	4.48038	0	
0.9	4.48038	0	
0.95	4.39378	0	
1.4	2.5	0	
1.46081	2.59589	0	
1.35252	2.58736	0	
2.2	2.5	0	
2.3	2.5	0	
2.25127	2.58426	0	
2	2.5	0	
2.1	2.5	0	
2.05231	2.58384	0	
0.95	4.74019	0	
0.9	4.82679	0	
0.85	4.74019	0	
1.54725	2.66321	0	
1.6	2.74871	0	
1.50382	2.75336	0	
2.45	3.52776	0	
2.55	3.52776	0	
2.5	3.61436	0	
0.253837	3.64903	0	
0.17316	3.70008	0	
0.173205	3.6	0	
0.299537	2.75106	0	
0.252709	2.83378	0	
0.203789	2.74892	0	
1	3.78756	0	
0.95	3.70096	0	
1.05	3.70096	0	
2.65015	4.74011	0	
2.70077	4.65315	0	
2.75015	4.7401	0	
2.2	2.9216	0	
2.25	3.00815	0	
2.15	3.00815	0	
3	2.7	0	
3	2.8	0	
2.89867	2.75006	0	
1.85	3.52776	0	
1.95	3.52776	0	
1.9	3.61436	0	
1.95	2.5866	0	
2	2.5	0	
2.05231	2.58384	0	
1.25428	2.58189	0	
1.35252	2.58736	0	
1.3	2.67321	0	
2.74997	4.04739	0	
2.84968	4.04768	0	
2.79795	4.13376	0	
2.74721	2.83333	0	
2.65	2.83494	0	
2.69954	2.75031	0	
1.5	3.78756	0	
1.45	3.87417	0	
1.4	3.78756	0	
1.85	3.35455	0	
1.9	3.44115	0	
1.8	3.44115	0	
1.4	4.30718	0	
1.35	4.39378	0	
1.3	4.30718	0	
2.3	4.82679	0	
2.35	4.74019	0	
2.4	4.82679	0	
2.45	3.18135	0	
2.55	3.18135	0	
2.5	3.26795	0	
2.1	4.65359	0	
2.2	4.65359	0	
2.15	4.74019	0	
1.85	4.56699	0	
1.95	4.56699	0	
1.9	4.65359	0	
1.15	4.74019	0	
1.2	4.65359	0	
1.25	4.74019	0	
1.3	5	0	
1.2	5	0	
1.25	4.9134	0	
0.8	4.13397	0	
0.7	4.13397	0	
0.75	4.04737	0	
2.3	3.44115	0	
2.25	3.52776	0	
2.2	3.44115	0	
1.05	4.04737	0	
1.1	3.96077	0	
1.15	4.04737	0	
0.400053	4.13401	0	
0.450156	4.04746	0	
0.500035	4.13399	0	
1.25	4.56699	0	
1.35	4.56699	0	
1.3	4.65359	0	
1.7	4.48038	0	
1.6	4.48038	0	
1.65	4.39378	0	
0.85	4.22058	0	
0.75	4.22058	0	
0.8	4.13397	0	
1.95	3.35455	0	
1.9	3.26795	0	
2	3.26795	0	
0.254621	3.75214	0	
0.17316	3.70008	0	
0.253837	3.64903	0	
0.75	4.9134	0	
0.7	5	0	
0.65	4.9134	0	
1.50382	2.75336	0	
1.6	2.74871	0	
1.55064	2.83584	0	
2.35	4.39378	0	
2.3	4.30718	0	
2.4	4.30718	0	
2.35	4.22058	0	
2.3	4.13397	0	
2.4	4.13397	0	
1.95	4.04737	0	
2	4.13397	0	
1.9	4.13397	0	
1.4	4.48038	0	
1.45	4.56699	0	
1.35	4.56699	0	
1.5	4.65359	0	
1.55	4.74019	0	
1.45	4.74019	0	
1.8	4.13397	0	
1.85	4.22058	0	
1.75	4.22058	0	
2.2	3.78756	0	
2.15	3.70096	0	
2.25	3.70096	0	
1.5	4.30718	0	
1.45	4.22058	0	
1.55	4.22058	0	
1.55	4.39378	0	
1.5	4.30718	0	
1.6	4.30718	0	
1.4	4.13397	0	
1.35	4.04737	0	
1.45	4.04737	0	
1.1	4.30718	0	
1.05	4.22058	0	
1.15	4.22058	0	
1.95	4.39378	0	
1.9	4.30718	0	
2	4.30718	0	
1.45	4.74019	0	
1.5	4.82679	0	
1.4	4.82679	0	
1.5	4.13397	0	
1.4	4.13397	0	
1.45	4.04737	0	
0.173205	3.8	0	
0.17316	3.70008	0	
0.254621	3.75214	0	
1.3	4.48038	0	
1.35	4.56699	0	
1.25	4.56699	0	
1.9	3.26795	0	
1.85	3.35455	0	
1.8	3.26795	0	
2.75015	4.7401	0	
2.85	4.74019	0	
2.79938	4.82715	0	
3	3.5	0	
2.91021	3.55552	0	
2.89961	3.44645	0	
1	3.78756	0	
0.9	3.78756	0	
0.95	3.70096	0	
2.55	2.83494	0	
2.5	2.74833	0	
2.59992	2.75091	0	
0.95	3.70096	0	
0.9	3.78756	0	
0.85	3.70096	0	
0.7	3.61436	0	
0.6	3.61436	0	
0.65	3.52776	0	
2.75015	4.7401	0	
2.70077	4.65315	0	
2.80331	4.65239	0	
0.85	4.74019	0	
0.9	4.82679	0	
0.8	4.82679	0	
0.55	3.52776	0	
0.45	3.52776	0	
0.5	3.44115	0	
2.1	3.96077	0	
2	3.96077	0	
2.05	3.87417	0	
0.65	3.00814	0	
0.6	2.9216	0	
0.7	2.92161	0	
0.85	4.74019	0	
0.8	4.82679	0	
0.75	4.74019	0	
0.95	3.52776	0	
0.9	3.44115	0	
1	3.44115	0	
0.8	5	0	
0.75	4.9134	0	
0.85	4.9134	0	
2.5	3.96077	0	
2.59998	3.96078	0	
2.55	4.04737	0	
0.9	3.61436	0	
0.85	3.70096	0	
0.8	3.61436	0	
0.251724	3.18264	0	
0.209806	3.27544	0	
0.154656	3.195	0	
1.25	3.52776	0	
1.2	3.61436	0	
1.15	3.52776	0	
1.1	4.48038	0	
1	4.48038	0	
1.05	4.39378	0	
0.600007	4.13398	0	
0.550038	4.04739	0	
0.650009	4.04738	0	
1.25	4.39378	0	
1.2	4.48038	0	
1.15	4.39378	0	
2.6	3.61436	0	
2.7	3.61436	0	
2.64991	3.70093	0	
1.05	3.70096	0	
1	3.61436	0	
1.1	3.61436	0	
1.05	3.70096	0	
0.95	3.70096	0	
1	3.61436	0	
0.65	3.87417	0	
0.75	3.87417	0	
0.7	3.96077	0	
1.8	3.96077	0	
1.9	3.96077	0	
1.85	4.04737	0	
1.2	3.09474	0	
1.15	3.18135	0	
1.1	3.09475	0	
0.9	3.96077	0	
0.85	4.04737	0	
0.8	3.96077	0	
2.40011	2.92161	0	
2.35	3.00814	0	
2.29961	2.92165	0	
0.549994	4.74019	0	
0.449982	4.74019	0	
0.499996	4.65359	0	
1.1	4.82679	0	
1.15	4.74019	0	
1.2	4.82679	0	
2.25	3.52776	0	
2.15	3.52776	0	
2.2	3.44115	0	
1	3.96077	0	
0.9	3.96077	0	
0.95	3.87417	0	
0.9	3.61436	0	
0.85	3.52776	0	
0.95	3.52776	0	
3	3	0	
2.92552	3.05168	0	
2.91458	2.95418	0	
0.75	4.22058	0	
0.7	4.30718	0	
0.650001	4.22058	0	
1.25	4.04737	0	
1.3	3.96077	0	
1.35	4.04737	0	
2.59998	3.96078	0	
2.64997	4.04739	0	
2.55	4.04737	0	
2.05	4.04737	0	
2	3.96077	0	
2.1	3.96077	0	
0.6	3.44115	0	
0.5	3.44115	0	
0.55	3.35455	0	
0.5	3.09474	0	
0.6	3.09474	0	
0.55	3.18135	0	
0.85	4.74019	0	
0.75	4.74019	0	
0.8	4.65359	0	
2.55	3.35455	0	
2.5	3.26795	0	
2.6	3.26795	0	
0.449982	4.74019	0	
0.348484	4.74109	0	
0.399744	4.65374	0	
0.0863348	3.65046	0	
0.0849964	3.55278	0	
0.173205	3.6	0	
0.6	3.44115	0	
0.65	3.35455	0	
0.7	3.44115	0	
1.6	4.82679	0	
1.65	4.74019	0	
1.7	4.82679	0	
1.6	4.13397	0	
1.7	4.13397	0	
1.65	4.22058	0	
2.15	3.18135	0	
2.1	3.09474	0	
2.2	3.09475	0	
0.95	4.56699	0	
0.9	4.65359	0	
0.85	4.56699	0	
1.05	3.18135	0	
1	3.09474	0	
1.1	3.09475	0	
0.85	3.18135	0	
0.95	3.18135	0	
0.9	3.26795	0	
2.5	2.92154	0	
2.45	3.00814	0	
2.40011	2.92161	0	
0.95	4.9134	0	
0.9	5	0	
0.85	4.9134	0	
0.9	3.78756	0	
0.95	3.87417	0	
0.85	3.87417	0	
1.35	3.52776	0	
1.3	3.61436	0	
1.25	3.52776	0	
0.5	3.78756	0	
0.6	3.78756	0	
0.55012	3.87424	0	
0.95	3.87417	0	
0.9	3.96077	0	
0.85	3.87417	0	
0.95	4.04737	0	
0.85	4.04737	0	
0.9	3.96077	0	
1.15	4.04737	0	
1.25	4.04737	0	
1.2	4.13397	0	
2.2	3.09475	0	
2.1	3.09474	0	
2.15	3.00815	0	
0.251724	3.18264	0	
0.154656	3.195	0	
0.207786	3.09844	0	
2.65	4.9134	0	
2.6	5	0	
2.55001	4.91339	0	
0.65	4.39378	0	
0.55	4.39378	0	
0.600001	4.30718	0	
2.5	5	0	
2.45	4.9134	0	
2.55001	4.91339	0	
0.95	3.35455	0	
0.9	3.44115	0	
0.85	3.35455	0	
1.15	3.87417	0	
1.05	3.87417	0	
1.1	3.78756	0	
2.25	4.22058	0	
2.2	4.13397	0	
2.3	4.13397	0	
1	3.78756	0	
1.05	3.70096	0	
1.1	3.78756	0	
0.2	4.48038	0	
0.250002	4.56699	0	
0.150144	4.56273	0	
1.7	4.48038	0	
1.65	4.39378	0	
1.75	4.39378	0	
1	4.13397	0	
1.05	4.22058	0	
0.95	4.22058	0	
1.35	4.04737	0	
1.4	4.13397	0	
1.3	4.13397	0	
0.85	4.04737	0	
0.8	4.13397	0	
0.75	4.04737	0	
1.55	4.04737	0	
1.65	4.04737	0	
1.6	4.13397	0	
0.7	3.09474	0	
0.75	3.18135	0	
0.65	3.18135	0	
2.55004	4.74017	0	
2.60003	4.82678	0	
2.50001	4.82679	0	
1.2	5	0	
1.15	4.9134	0	
1.25	4.9134	0	
2.3	2.74833	0	
2.35069	2.83533	0	
2.24687	2.83509	0	
1.15	4.39378	0	
1.05	4.39378	0	
1.1	4.30718	0	
0.95	3.52776	0	
0.85	3.52776	0	
0.9	3.44115	0	
1.45	3.87417	0	
1.35	3.87417	0	
1.4	3.78756	0	
0.55	3.52776	0	
0.6	3.44115	0	
0.65	3.52776	0	
2.35069	2.83533	0	
2.45	2.83494	0	
2.40011	2.92161	0	
0.55	3.52776	0	
0.5	3.44115	0	
0.6	3.44115	0	
0	3.4	0	
0.0794351	3.34477	0	
0.10002	3.44626	0	
1.15	4.56699	0	
1.25	4.56699	0	
1.2	4.65359	0	
1.15	3.18135	0	
1.05	3.18135	0	
1.1	3.09475	0	
0.95	4.39378	0	
0.9	4.48038	0	
0.85	4.39378	0	
2.25	3.18135	0	
2.15	3.18135	0	
2.2	3.09475	0	
0.450598	3.87451	0	
0.5	3.78756	0	
0.55012	3.87424	0	
0.95	3.70096	0	
0.85	3.70096	0	
0.9	3.61436	0	
1.2	4.48038	0	
1.1	4.48038	0	
1.15	4.39378	0	
0.9	3.61436	0	
0.8	3.61436	0	
0.85	3.52776	0	
0.85	3.00814	0	
0.8	2.92154	0	
0.9	2.92154	0	
0	3.9	0	
0	3.8	0	
0.0866025	3.85	0	
0.50012	3.96084	0	
0.450598	3.87451	0	
0.55012	3.87424	0	
2.69945	3.7874	0	
2.64991	3.70093	0	
2.74995	3.6997	0	
2.35069	2.83533	0	
2.40011	2.92161	0	
2.29961	2.92165	0	
1.05	2.83494	0	
1	2.92154	0	
0.95	2.83494	0	
1.75	4.04737	0	
1.8	3.96077	0	
1.85	4.04737	0	
2.5	2.74833	0	
2.55	2.66173	0	
2.59992	2.75091	0	
1.85	4.39378	0	
1.75	4.39378	0	
1.8	4.30718	0	
0.6	3.44115	0	
0.55	3.35455	0	
0.65	3.35455	0	
0.75	4.39378	0	
0.85	4.39378	0	
0.8	4.48038	0	
0.45	3.18135	0	
0.5	3.26795	0	
0.40005	3.26797	0	
2.55004	4.74017	0	
2.50001	4.82679	0	
2.45001	4.74019	0	
2.6	3.44115	0	
2.64973	3.35473	0	
2.69925	3.44111	0	
1.7	4.65359	0	
1.75	4.56699	0	
1.8	4.65359	0	
1.35	4.22058	0	
1.25	4.22058	0	
1.3	4.13397	0	
0	3.5	0	
0	3.4	0	
0.10002	3.44626	0	
1.05	3.18135	0	
0.95	3.18135	0	
1	3.09474	0	
0.850714	2.83803	0	
0.8	2.92154	0	
0.75	2.83494	0	
0.9	5	0	
0.8	5	0	
0.85	4.9134	0	
1.85	3.52776	0	
1.9	3.44115	0	
1.95	3.52776	0	
2.05	4.22058	0	
2.15	4.22058	0	
2.1	4.30718	0	
1.75	3.52776	0	
1.85	3.52776	0	
1.8	3.61436	0	
1.6	4.13397	0	
1.55	4.22058	0	
1.5	4.13397	0	
2.74741	3.52626	0	
2.65	3.52776	0	
2.69925	3.44111	0	
1.1	3.96077	0	
1.2	3.96077	0	
1.15	4.04737	0	
0.85	3.52776	0	
0.8	3.61436	0	
0.75	3.52776	0	
0.300011	4.48038	0	
0.350066	4.39374	0	
0.400017	4.48037	0	
0.65	3.35455	0	
0.55	3.35455	0	
0.6	3.26795	0	
1.5	3.09474	0	
1.45	3.18135	0	
1.4	3.09476	0	
2.3	4.65359	0	
2.35	4.56699	0	
2.4	4.65359	0	
1.85	3.52776	0	
1.9	3.61436	0	
1.8	3.61436	0	
0	3.8	0	
0.0866025	3.75	0	
0.0866025	3.85	0	
0.55	4.39378	0	
0.450024	4.39377	0	
0.500018	4.30717	0	
1	3.44115	0	
0.9	3.44115	0	
0.95	3.35455	0	
2.64973	3.35473	0	
2.74835	3.35562	0	
2.69925	3.44111	0	
2.15	4.22058	0	
2.2	4.30718	0	
2.1	4.30718	0	
1.65	4.04737	0	
1.7	4.13397	0	
1.6	4.13397	0	
2.05	4.39378	0	
2	4.30718	0	
2.1	4.30718	0	
0	3	0	
0	2.9	0	
0.0854265	2.95419	0	
1.1	4.48038	0	
1.05	4.39378	0	
1.15	4.39378	0	
1.25	4.56699	0	
1.3	4.65359	0	
1.2	4.65359	0	
0.499985	4.8268	0	
0.449982	4.74019	0	
0.549994	4.74019	0	
0.8	3.61436	0	
0.7	3.61436	0	
0.75	3.52776	0	
1.2	4.82679	0	
1.15	4.74019	0	
1.25	4.74019	0	
1.45	3.18135	0	
1.35	3.18135	0	
1.4	3.09476	0	
1.3	4.30718	0	
1.2	4.30718	0	
1.25	4.22058	0	
1.5	4.30718	0	
1.55	4.22058	0	
1.6	4.30718	0	
0.8	3.96077	0	
0.85	4.04737	0	
0.75	4.04737	0	
2	3.61436	0	
1.95	3.70096	0	
1.9	3.61436	0	
0.7	5	0	
0.6	5	0	
0.65	4.9134	0	
0.85	4.22058	0	
0.9	4.13397	0	
0.95	4.22058	0	
2.24687	2.83509	0	
2.35069	2.83533	0	
2.29961	2.92165	0	
1.8	4.48038	0	
1.7	4.48038	0	
1.75	4.39378	0	
0.6	3.44115	0	
0.7	3.44115	0	
0.65	3.52776	0	
0.65	3.87417	0	
0.7	3.96077	0	
0.600012	3.96078	0	
2.15	3.70096	0	
2.2	3.61436	0	
2.25	3.70096	0	
1.75	4.39378	0	
1.65	4.39378	0	
1.7	4.30718	0	
0.75	3.52776	0	
0.7	3.44115	0	
0.8	3.44115	0	
2.7	3.61436	0	
2.81354	3.60941	0	
2.74995	3.6997	0	
1.15	3.35455	0	
1.25	3.35455	0	
1.2	3.44115	0	
2	3.26795	0	
1.9	3.26795	0	
1.95	3.18135	0	
1.55	3.00814	0	
1.5	3.09474	0	
1.45	3.00816	0	
0.7	4.30718	0	
0.65	4.39378	0	
0.600001	4.30718	0	
1.2	3.96077	0	
1.25	4.04737	0	
1.15	4.04737	0	
2.35	3.00814	0	
2.25	3.00815	0	
2.29961	2.92165	0	
2.45	2.83494	0	
2.5	2.92154	0	
2.40011	2.92161	0	
0.550006	4.22058	0	
0.650001	4.22058	0	
0.600001	4.30718	0	
0.85	3.00814	0	
0.9	3.09474	0	
0.8	3.09474	0	
1.55	3.52776	0	
1.6	3.44115	0	
1.65	3.52776	0	
2.65	3.18135	0	
2.7	3.26795	0	
2.6	3.26795	0	
1.05	3.87417	0	
1	3.78756	0	
1.1	3.78756	0	
1.2	4.30718	0	
1.1	4.30718	0	
1.15	4.22058	0	
1.35	4.56699	0	
1.45	4.56699	0	
1.4	4.65359	0	
1.2	4.65359	0	
1.3	4.65359	0	
1.25	4.74019	0	
1.1	4.13397	0	
1.2	4.13397	0	
1.15	4.22058	0	
0.45	4.22058	0	
0.550006	4.22058	0	
0.500018	4.30717	0	
2.4	3.26795	0	
2.45	3.18135	0	
2.5	3.26795	0	
2.55	3.18135	0	
2.65	3.18135	0	
2.6	3.26795	0	
0.7	3.61436	0	
0.65	3.52776	0	
0.75	3.52776	0	
1.35252	2.58736	0	
1.46081	2.59589	0	
1.39781	2.65897	0	
2.55	4.22058	0	
2.5	4.13397	0	
2.6	4.13398	0	
1.4	3.96077	0	
1.5	3.96077	0	
1.45	4.04737	0	
2.45001	4.74019	0	
2.4	4.65359	0	
2.50003	4.65357	0	
0.55	4.39378	0	
0.6	4.48038	0	
0.500004	4.48038	0	
0.300452	2.92135	0	
0.35	3.00814	0	
0.251319	3.00652	0	
2	3.44115	0	
2.05	3.52776	0	
1.95	3.52776	0	
0.85	4.74019	0	
0.8	4.65359	0	
0.9	4.65359	0	
0.75	3.18135	0	
0.85	3.18135	0	
0.8	3.26795	0	
0.449982	4.74019	0	
0.399908	4.8268	0	
0.348484	4.74109	0	
1.05	3.18135	0	
1	3.26795	0	
0.95	3.18135	0	
2.2	4.13397	0	
2.25	4.04737	0	
2.3	4.13397	0	
0.450024	4.39377	0	
0.40008	4.30714	0	
0.500018	4.30717	0	
0.4	2.92154	0	
0.45	3.00814	0	
0.35	3.00814	0	
0.450024	4.39377	0	
0.55	4.39378	0	
0.500004	4.48038	0	
0.9	4.13397	0	
1	4.13397	0	
0.95	4.22058	0	
2.6	5	0	
2.5	5	0	
2.55001	4.91339	0	
1.5	3.96077	0	
1.55	4.04737	0	
1.45	4.04737	0	
2.2	4.30718	0	
2.15	4.39378	0	
2.1	4.30718	0	
2.45	3.35455	0	
2.4	3.26795	0	
2.5	3.26795	0	
1.9	3.78756	0	
1.85	3.87417	0	
1.8	3.78756	0	
1.85	4.39378	0	
1.8	4.48038	0	
1.75	4.39378	0	
1.05	3.35455	0	
1.15	3.35455	0	
1.1	3.44115	0	
0.35	2.83494	0	
0.4	2.92154	0	
0.300452	2.92135	0	
2.05	4.39378	0	
1.95	4.39378	0	
2	4.30718	0	
1.8	3.61436	0	
1.75	3.70096	0	
1.7	3.61436	0	
0.0744797	3.05168	0	
0	3	0	
0.0854265	2.95419	0	
1.75	4.22058	0	
1.85	4.22058	0	
1.8	4.30718	0	
1.9	3.44115	0	
2	3.44115	0	
1.95	3.52776	0	
2.15	4.39378	0	
2.05	4.39378	0	
2.1	4.30718	0	
2.7	3.26795	0	
2.74835	3.35562	0	
2.64973	3.35473	0	
1	2.92154	0	
0.95	3.00814	0	
0.9	2.92154	0	
2.55	3.35455	0	
2.45	3.35455	0	
2.5	3.26795	0	
1.3	3.44115	0	
1.25	3.52776	0	
1.2	3.44115	0	
1	2.75058	0	
0.904283	2.75342	0	
0.955827	2.65877	0	
0.650001	4.22058	0	
0.7	4.30718	0	
0.600001	4.30718	0	
0.95	3.35455	0	
0.85	3.35455	0	
0.9	3.26795	0	
1.3	2.67321	0	
1.35252	2.58736	0	
1.39781	2.65897	0	
2	3.09474	0	
2.05	3.18135	0	
1.95	3.18135	0	
0.4	3.44115	0	
0.350102	3.35449	0	
0.450017	3.35454	0	
2.6	3.44115	0	
2.55	3.35455	0	
2.64973	3.35473	0	
2.05	3.18135	0	
2	3.26795	0	
1.95	3.18135	0	
0.9	3.44115	0	
0.85	3.52776	0	
0.8	3.44115	0	
1	3.09474	0	
0.9	3.09474	0	
0.95	3.00814	0	
2.2	3.61436	0	
2.3	3.61436	0	
2.25	3.70096	0	
1.5	2.92154	0	
1.55	3.00814	0	
1.45	3.00816	0	
1.05	4.22058	0	
1.1	4.13397	0	
1.15	4.22058	0	
2.64991	3.70093	0	
2.7	3.61436	0	
2.74995	3.6997	0	
0.85	3.35455	0	
0.9	3.44115	0	
0.8	3.44115	0	
2.25	4.04737	0	
2.35	4.04737	0	
2.3	4.13397	0	
0.95	2.83494	0	
0.9	2.92154	0	
0.850714	2.83803	0	
1.3	2.92191	0	
1.35	2.83622	0	
1.4	2.92183	0	
0.500004	4.48038	0	
0.449999	4.56699	0	
0.400017	4.48037	0	
0.399744	4.65374	0	
0.348484	4.74109	0	
0.298023	4.65466	0	
2	4.65359	0	
2.05	4.74019	0	
1.95	4.74019	0	
1.85	3.70096	0	
1.9	3.78756	0	
1.8	3.78756	0	
2.65	3.52776	0	
2.6	3.44115	0	
2.69925	3.44111	0	
0	3.1	0	
0	3	0	
0.0744797	3.05168	0	
2.64997	4.04739	0	
2.74997	4.04739	0	
2.6998	4.13391	0	
0.550038	4.04739	0	
0.600012	3.96078	0	
0.650009	4.04738	0	
0.549999	4.56699	0	
0.449999	4.56699	0	
0.500004	4.48038	0	
1.35	3.52776	0	
1.25	3.52776	0	
1.3	3.44115	0	
2.05	4.74019	0	
2	4.82679	0	
1.95	4.74019	0	
0.95	4.74019	0	
0.85	4.74019	0	
0.9	4.65359	0	
2.65	4.22058	0	
2.55	4.22058	0	
2.6	4.13398	0	
1.25	3.52776	0	
1.15	3.52776	0	
1.2	3.44115	0	
1.4	3.44115	0	
1.35	3.52776	0	
1.3	3.44115	0	
2.74997	4.04739	0	
2.79795	4.13376	0	
2.6998	4.13391	0	
0.95	4.39378	0	
0.9	4.30718	0	
1	4.30718	0	
1.45	4.56699	0	
1.5	4.65359	0	
1.4	4.65359	0	
1.85	4.22058	0	
1.9	4.30718	0	
1.8	4.30718	0	
2.35	4.74019	0	
2.3	4.65359	0	
2.4	4.65359	0	
1.45	4.22058	0	
1.4	4.13397	0	
1.5	4.13397	0	
0.9	4.48038	0	
0.95	4.56699	0	
0.85	4.56699	0	
1.25	4.74019	0	
1.3	4.65359	0	
1.35	4.74019	0	
2.45	4.56699	0	
2.55	4.56699	0	
2.50003	4.65357	0	
0.9	2.92154	0	
0.8	2.92154	0	
0.850714	2.83803	0	
0.65	3.52776	0	
0.7	3.44115	0	
0.75	3.52776	0	
1.55064	2.83584	0	
1.5	2.92154	0	
1.45074	2.83843	0	
1.25	4.04737	0	
1.35	4.04737	0	
1.3	4.13397	0	
0.95	3.00814	0	
0.85	3.00814	0	
0.9	2.92154	0	
1.05	4.39378	0	
0.95	4.39378	0	
1	4.30718	0	
0.600012	3.96078	0	
0.7	3.96077	0	
0.650009	4.04738	0	
1	3.26795	0	
0.95	3.35455	0	
0.9	3.26795	0	
0.904283	2.75342	0	
0.95	2.83494	0	
0.850714	2.83803	0	
1.9	3.09474	0	
2	3.09474	0	
1.95	3.18135	0	
1	2.75058	0	
0.95	2.83494	0	
0.904283	2.75342	0	
0.7	4.48038	0	
0.75	4.39378	0	
0.8	4.48038	0	
1.35	3.35455	0	
1.4	3.44115	0	
1.3	3.44115	0	
1.3	4.65359	0	
1.4	4.65359	0	
1.35	4.74019	0	
2.05	4.56699	0	
2.1	4.65359	0	
2	4.65359	0	
1.5	4.65359	0	
1.45	4.74019	0	
1.4	4.65359	0	
0.450024	4.39377	0	
0.500004	4.48038	0	
0.400017	4.48037	0	
2.55	3.35455	0	
2.6	3.26795	0	
2.64973	3.35473	0	
0.6	2.75058	0	
0.5	2.74833	0	
0.55	2.66173	0	
2.5	3.96077	0	
2.55	4.04737	0	
2.45	4.04737	0	
0.95	2.83494	0	
1	2.92154	0	
0.9	2.92154	0	
2.1	4.65359	0	
2.05	4.74019	0	
2	4.65359	0	
0.5	2.92154	0	
0.45	2.83494	0	
0.55	2.83494	0	
2.6	3.26795	0	
2.7	3.26795	0	
2.64973	3.35473	0	
0.75	4.56699	0	
0.7	4.48038	0	
0.8	4.48038	0	
1.9	4.30718	0	
1.85	4.39378	0	
1.8	4.30718	0	
1.55	4.22058	0	
1.45	4.22058	0	
1.5	4.13397	0	
0.198719	4.65346	0	
0.250002	4.56699	0	
0.298023	4.65466	0	
0.6	4.48038	0	
0.549999	4.56699	0	
0.500004	4.48038	0	
1	3.09474	0	
0.95	3.18135	0	
0.9	3.09474	0	
0.95	3.00814	0	
0.9	3.09474	0	
0.85	3.00814	0	
1.45	4.74019	0	
1.4	4.82679	0	
1.35	4.74019	0	
0.5	3.09474	0	
0.45	3.18135	0	
0.400264	3.09488	0	
0.301585	3.09557	0	
0.400264	3.09488	0	
0.350489	3.18165	0	
1.8	3.44115	0	
1.7	3.44115	0	
1.75	3.35455	0	
0.95	3.18135	0	
1	3.26795	0	
0.9	3.26795	0	
0.250002	4.56699	0	
0.300011	4.48038	0	
0.349633	4.56719	0	
1.65	3.35455	0	
1.6	3.26795	0	
1.7	3.26795	0	
0.350066	4.39374	0	
0.450024	4.39377	0	
0.400017	4.48037	0	
0.40008	4.30714	0	
0.45	4.22058	0	
0.500018	4.30717	0	
2.74741	3.52626	0	
2.69925	3.44111	0	
2.79352	3.44219	0	
0.3	2.5	0	
0.4	2.5	0	
0.35	2.5866	0	
2.5	4.13397	0	
2.45	4.22058	0	
2.4	4.13397	0	
0.95	4.56699	0	
1	4.65359	0	
0.9	4.65359	0	
1.8	2.92154	0	
1.75	2.83494	0	
1.85	2.83494	0	
0.55	3.18135	0	
0.6	3.09474	0	
0.65	3.18135	0	
1.95	2.8362	0	
2	2.92154	0	
1.9	2.92175	0	
1	4.65359	0	
0.95	4.74019	0	
0.9	4.65359	0	
1.5	2.92154	0	
1.4	2.92183	0	
1.45074	2.83843	0	
1.6	5	0	
1.5	5	0	
1.55	4.9134	0	
0.300536	3.26822	0	
0.251724	3.18264	0	
0.350489	3.18165	0	
1.4	2.92183	0	
1.35	2.83622	0	
1.45074	2.83843	0	
0.252709	2.83378	0	
0.35	2.83494	0	
0.300452	2.92135	0	
2.45	4.22058	0	
2.35	4.22058	0	
2.4	4.13397	0	
1.4	4.65359	0	
1.45	4.74019	0	
1.35	4.74019	0	
0.8	3.26795	0	
0.85	3.35455	0	
0.75	3.35455	0	
1.9	3.26795	0	
1.8	3.26795	0	
1.85	3.18135	0	
2.60003	4.82678	0	
2.65015	4.74011	0	
2.69983	4.82689	0	
0.85	3.35455	0	
0.8	3.44115	0	
0.75	3.35455	0	
1.75	3.00814	0	
1.85	3.00814	0	
1.8	3.09474	0	
0.18682	2.914	0	
0.300452	2.92135	0	
0.251319	3.00652	0	
0.65	2.83531	0	
0.6	2.75058	0	
0.710685	2.74142	0	
0.7	3.44115	0	
0.65	3.35455	0	
0.75	3.35455	0	
0.6	3.09474	0	
0.7	3.09474	0	
0.65	3.18135	0	
0.252709	2.83378	0	
0.300452	2.92135	0	
0.18682	2.914	0	
0.499985	4.8268	0	
0.399908	4.8268	0	
0.449982	4.74019	0	
2.69925	3.44111	0	
2.74835	3.35562	0	
2.79352	3.44219	0	
1.95	3.00814	0	
1.85	3.00814	0	
1.9	2.92175	0	
0.8	2.92154	0	
0.75	3.00814	0	
0.7	2.92161	0	
0.399744	4.65374	0	
0.298023	4.65466	0	
0.349633	4.56719	0	
1.5	3.44115	0	
1.55	3.35455	0	
1.6	3.44115	0	
1.65	3.00814	0	
1.7	2.92154	0	
1.75	3.00814	0	
0.65	3.00814	0	
0.55	3.00814	0	
0.6	2.9216	0	
0.499985	4.8268	0	
0.6	4.82679	0	
0.549997	4.9134	0	
1.1	3.61436	0	
1.2	3.61436	0	
1.15	3.70096	0	
1.8	3.61436	0	
1.85	3.70096	0	
1.75	3.70096	0	
1.7	3.78756	0	
1.65	3.70096	0	
1.75	3.70096	0	
0.298023	4.65466	0	
0.250002	4.56699	0	
0.349633	4.56719	0	
1.8	3.26795	0	
1.85	3.35455	0	
1.75	3.35455	0	
0.8	3.44115	0	
0.7	3.44115	0	
0.75	3.35455	0	
1.65	3.18135	0	
1.75	3.18135	0	
1.7	3.26795	0	
0.75	3.35455	0	
0.65	3.35455	0	
0.7	3.26795	0	
1.8	3.78756	0	
1.7	3.78756	0	
1.75	3.70096	0	
0.35	3.00814	0	
0.45	3.00814	0	
0.400264	3.09488	0	
0.55	3.00814	0	
0.5	2.92154	0	
0.6	2.9216	0	
1.25	3.70096	0	
1.2	3.78756	0	
1.15	3.70096	0	
1.50382	2.75336	0	
1.55064	2.83584	0	
1.45074	2.83843	0	
1.2	3.61436	0	
1.25	3.70096	0	
1.15	3.70096	0	
1.6	3.44115	0	
1.7	3.44115	0	
1.65	3.52776	0	
0.65	4.9134	0	
0.6	5	0	
0.549997	4.9134	0	
0.8	3.26795	0	
0.75	3.35455	0	
0.7	3.26795	0	
0.75	3.18135	0	
0.8	3.26795	0	
0.7	3.26795	0	
0.450017	3.35454	0	
0.350102	3.35449	0	
0.40005	3.26797	0	
1.9	3.09474	0	
1.95	3.18135	0	
1.85	3.18135	0	
0.75	3.00814	0	
0.65	3.00814	0	
0.7	2.92161	0	
1.9	3.09474	0	
1.85	3.18135	0	
1.8	3.09474	0	
1.75	3.70096	0	
1.65	3.70096	0	
1.7	3.61436	0	
0.45	3.00814	0	
0.5	3.09474	0	
0.400264	3.09488	0	
0.5	3.26795	0	
0.450017	3.35454	0	
0.40005	3.26797	0	
0.65	3.35455	0	
0.6	3.26795	0	
0.7	3.26795	0	
1.95	3.18135	0	
1.9	3.26795	0	
1.85	3.18135	0	
0.251724	3.18264	0	
0.301585	3.09557	0	
0.350489	3.18165	0	
1.65	4.9134	0	
1.6	5	0	
1.55	4.9134	0	
0.6	2.9216	0	
0.65	2.83531	0	
0.7	2.92161	0	
0.5	2.92154	0	
0.55	2.83494	0	
0.6	2.9216	0	
1.85	3.35455	0	
1.8	3.44115	0	
1.75	3.35455	0	
0.350102	3.35449	0	
0.300536	3.26822	0	
0.40005	3.26797	0	
0.45	4.9134	0	
0.499985	4.8268	0	
0.549997	4.9134	0	
0.65	2.83531	0	
0.710685	2.74142	0	
0.75	2.83494	0	
2.79938	4.82715	0	
2.74925	4.91383	0	
2.69983	4.82689	0	
1.65	3.70096	0	
1.6	3.61436	0	
1.7	3.61436	0	
1.75	2.83494	0	
1.81069	2.74136	0	
1.85	2.83494	0	
1.55	3.52776	0	
1.5	3.44115	0	
1.6	3.44115	0	
1.7	3.09474	0	
1.65	3.00814	0	
1.75	3.00814	0	
1.6	3.61436	0	
1.55	3.52776	0	
1.65	3.52776	0	
1.75	3.18135	0	
1.7	3.09474	0	
1.8	3.09474	0	
2	2.92154	0	
1.95	3.00814	0	
1.9	2.92175	0	
0.55	2.83494	0	
0.65	2.83531	0	
0.6	2.9216	0	
1.6	3.26795	0	
1.65	3.18135	0	
1.7	3.26795	0	
2.75015	4.7401	0	
2.79938	4.82715	0	
2.69983	4.82689	0	
0.55	2.83494	0	
0.5	2.74833	0	
0.6	2.75058	0	
1.85	3.18135	0	
1.75	3.18135	0	
1.8	3.09474	0	
0.55	2.83494	0	
0.6	2.75058	0	
0.65	2.83531	0	
1.85	3.70096	0	
1.8	3.78756	0	
1.75	3.70096	0	
0.8	2.92154	0	
0.7	2.92161	0	
0.75	2.83494	0	
1.7	3.61436	0	
1.6	3.61436	0	
1.65	3.52776	0	
0.6	5	0	
0.5	5	0	
0.549997	4.9134	0	
1.75	3.52776	0	
1.8	3.61436	0	
1.7	3.61436	0	
0.7	2.92161	0	
0.65	2.83531	0	
0.75	2.83494	0	
1.75	3.52776	0	
1.7	3.61436	0	
1.65	3.52776	0	
2.65015	4.74011	0	
2.75015	4.7401	0	
2.69983	4.82689	0	
1.7	3.44115	0	
1.75	3.52776	0	
1.65	3.52776	0	
1.85	3.00814	0	
1.9	3.09474	0	
1.8	3.09474	0	
0.45	4.9134	0	
0.399908	4.8268	0	
0.499985	4.8268	0	
0.5	5	0	
0.45	4.9134	0	
0.549997	4.9134	0	
0.45	4.9134	0	
0.4	5	0	
0.349619	4.91354	0	
0.4	5	0	
0.3	5	0	
0.349619	4.91354	0	
0.45	4.9134	0	
0.349619	4.91354	0	
0.399908	4.8268	0	
2.80112	3.95887	0	
2.69987	3.96085	0	
2.74941	3.87224	0	
2.64989	3.87423	0	
2.69945	3.7874	0	
2.74941	3.87224	0	
2.89867	2.75006	0	
2.91001	2.8578	0	
2.83304	2.82077	0	
0.089987	2.8578	0	
0.101304	2.75009	0	
0.166922	2.82092	0	
2.69987	3.96085	0	
2.64989	3.87423	0	
2.74941	3.87224	0	
2.74941	3.87224	0	
2.69945	3.7874	0	
2.79852	3.78173	0	
2.79993	4.47597	0	
2.70042	4.47903	0	
2.7481	4.39268	0	
2.69968	4.307	0	
2.81355	4.30378	0	
2.7481	4.39268	0	
2.70042	4.47903	0	
2.6497	4.39334	0	
2.7481	4.39268	0	
2.84868	3.86601	0	
2.74941	3.87224	0	
2.79852	3.78173	0	
3	3.2	0	
3	3.3	0	
2.92651	3.24835	0	
0	3.3	0	
0	3.2	0	
0.0735453	3.24839	0	
1.39798	2.74891	0	
1.39781	2.65897	0	
1.46847	2.68039	0	
0.80777	2.75727	0	
0.8	2.67321	0	
0.875696	2.67657	0	
1.13657	2.66304	0	
1.15566	2.57748	0	
1.21844	2.65257	0	
2.6497	4.39334	0	
2.69968	4.307	0	
2.7481	4.39268	0	
2.79256	3.09818	0	
2.84432	3.02214	0	
2.87094	3.10846	0	
0.155815	3.02221	0	
0.207786	3.09844	0	
0.129061	3.10846	0	
2.69945	3.7874	0	
2.74995	3.6997	0	
2.79852	3.78173	0	
3	3.3	0	
2.92056	3.34477	0	
2.92651	3.24835	0	
0.0794351	3.34477	0	
0	3.3	0	
0.0735453	3.24839	0	
0.150144	4.56273	0	
0.08858	4.65128	0	
0.0673985	4.55145	0	
2.90902	3.9539	0	
2.84868	3.86601	0	
2.93129	3.85	0	
0.2	5	0	
0.1	5	0	
0.152907	4.91774	0	
0.0735453	3.24839	0	
0	3.2	0	
0.069942	3.15	0	
3	3.2	0	
2.92651	3.24835	0	
2.93006	3.15	0	
2.89961	3.44645	0	
2.91021	3.55552	0	
2.83331	3.51677	0	
0.247885	4.91437	0	
0.2	5	0	
0.152907	4.91774	0	
2.91115	4.65092	0	
2.85215	4.56107	0	
2.93474	4.55	0	
0.185846	4.30462	0	
0.25	4.39378	0	
0.161478	4.39962	0	
2.79256	3.09818	0	
2.74909	3.00637	0	
2.84432	3.02214	0	
0.251319	3.00652	0	
0.207786	3.09844	0	
0.155815	3.02221	0	
0.433333	2.66556	0	
0.397222	2.75122	0	
0.346317	2.68257	0	
0.299537	2.75106	0	
0.251494	2.65842	0	
0.346317	2.68257	0	
0.3	2.5	0	
0.35	2.5866	0	
0.251785	2.56629	0	
0.6	2.5	0	
0.65	2.5866	0	
0.552778	2.5659	0	
0.35	2.5866	0	
0.4	2.5	0	
0.463889	2.58117	0	
0.860814	2.59589	0	
0.9	2.5	0	
0.953328	2.56825	0	
0.904283	2.75342	0	
0.850714	2.83803	0	
0.80777	2.75727	0	
1	2.5	0	
1.05	2.5866	0	
0.953328	2.56825	0	
0.6	2.75058	0	
0.55	2.66173	0	
0.647096	2.67984	0	
1.13657	2.66304	0	
1.10066	2.74874	0	
1.04861	2.68155	0	
1	2.75058	0	
0.955827	2.65877	0	
1.04861	2.68155	0	
1.05	2.5866	0	
1.1	2.5	0	
1.15566	2.57748	0	
1.2	2.5	0	
1.25428	2.58189	0	
1.15566	2.57748	0	
0.75	2.83494	0	
0.710685	2.74142	0	
0.80777	2.75727	0	
1.25	2.83718	0	
1.21081	2.73937	0	
1.30216	2.76955	0	
1.46081	2.59589	0	
1.5	2.5	0	
1.56801	2.58233	0	
1.50382	2.75336	0	
1.45074	2.83843	0	
1.39798	2.74891	0	
1.7	2.5	0	
1.75	2.5866	0	
1.6536	2.56613	0	
1.7	2.75058	0	
1.65	2.66173	0	
1.7471	2.67983	0	
1.85	2.83494	0	
1.81069	2.74136	0	
1.90214	2.7695	0	
2.08333	2.75259	0	
2.05	2.83718	0	
1.98802	2.75799	0	
2.01389	2.67009	0	
2.05231	2.58384	0	
2.10953	2.66484	0	
2.36069	2.59389	0	
2.4	2.5	0	
2.46801	2.58199	0	
2.6	2.5	0	
2.65	2.5866	0	
2.5536	2.56606	0	
2.74843	2.65835	0	
2.69954	2.75031	0	
2.64958	2.68158	0	
2.59992	2.75091	0	
2.55	2.66173	0	
2.64958	2.68158	0	
2.65	2.5866	0	
2.7	2.5	0	
2.7482	2.56627	0	
0.08858	4.65128	0	
0.14219	4.74142	0	
0.06187	4.75	0	
0.346619	3.70094	0	
0.253837	3.64903	0	
0.322181	3.60352	0	
2.84432	3.02214	0	
2.92552	3.05168	0	
2.87094	3.10846	0	
0.0744797	3.05168	0	
0.155815	3.02221	0	
0.129061	3.10846	0	
0.0875882	4.83733	0	
0.18847	4.82918	0	
0.152907	4.91774	0	
0.254621	3.75214	0	
0.346619	3.70094	0	
0.32179	3.79902	0	
2.92651	3.24835	0	
2.84568	3.19476	0	
2.93006	3.15	0	
0.154656	3.195	0	
0.0735453	3.24839	0	
0.069942	3.15	0	
2.81355	4.30378	0	
2.74758	4.21918	0	
2.83512	4.20993	0	
0.252371	4.21922	0	
0.185846	4.30462	0	
0.164329	4.21017	0	
2.92552	3.05168	0	
3	3.1	0	
2.93006	3.15	0	
0	3.1	0	
0.0744797	3.05168	0	
0.069942	3.15	0	
0.1	2.5	0	
0.2	2.5	0	
0.157431	2.58643	0	
2.8	2.5	0	
2.9	2.5	0	
2.84256	2.58642	0	
2.90429	3.76504	0	
3	3.8	0	
2.93129	3.85	0	
3	3.9	0	
2.90902	3.9539	0	
2.93129	3.85	0	
2.81354	3.60941	0	
2.74741	3.52626	0	
2.83331	3.51677	0	
0.0953346	3.95604	0	
0.0866025	3.85	0	
0.163559	3.8845	0	
0.08858	4.65128	0	
0	4.6	0	
0.0673985	4.55145	0	
0	4.5	0	
0.0950001	4.46391	0	
0.0673985	4.55145	0	
0.0849964	3.55278	0	
0.10002	3.44626	0	
0.163139	3.51662	0	
2.81323	2.91396	0	
2.74721	2.83333	0	
2.83304	2.82077	0	
0.252709	2.83378	0	
0.18682	2.914	0	
0.166922	2.82092	0	
2.91115	4.65092	0	
3	4.7	0	
2.93322	4.74887	0	
2.90902	3.9539	0	
3	4	0	
2.93331	4.05	0	
3	4.1	0	
2.90465	4.14196	0	
2.93331	4.05	0	
0	4	0	
0.0953346	3.95604	0	
0.0666897	4.05	0	
0.0953529	4.14196	0	
0	4.1	0	
0.0666897	4.05	0	
2.74835	3.35562	0	
2.7908	3.27512	0	
2.83205	3.36491	0	
0.209806	3.27544	0	
0.253111	3.35621	0	
0.167949	3.36491	0	
3	4.6	0	
2.91115	4.65092	0	
2.93474	4.55	0	
2.90556	4.46234	0	
3	4.5	0	
2.93474	4.55	0	
0.0880745	4.25107	0	
0.0953529	4.14196	0	
0.164329	4.21017	0	
2.90465	4.14196	0	
2.91185	4.25097	0	
2.83512	4.20993	0	
0.0875882	4.83733	0	
0	4.8	0	
0.06187	4.75	0	
0	4.7	0	
0.08858	4.65128	0	
0.06187	4.75	0	
0.354288	3.87664	0	
0.253396	3.86183	0	
0.32179	3.79902	0	
0.346619	3.70094	0	
0.40359	3.78964	0	
0.32179	3.79902	0	
0.403739	3.61187	0	
0.346619	3.70094	0	
0.322181	3.60352	0	
0.253287	3.53941	0	
0.353688	3.52563	0	
0.322181	3.60352	0	
2.84613	4.91563	0	
2.9079	4.83711	0	
2.92679	4.92679	0	
3	5	0	
2.9	5	0	
2.92679	4.92679	0	
3	4.9	0	
3	5	0	
2.92679	4.92679	0	
0.1	5	0	
0	5	0	
0.0732051	4.92679	0	
0	5	0	
0	4.9	0	
0.0732051	4.92679	0	
0.65	2.5866	0	
0.755935	2.58576	0	
0.716187	2.65494	0	
1.75	2.5866	0	
1.85413	2.58422	0	
1.81846	2.65591	0	
2.40413	2.75072	0	
2.3	2.74833	0	
2.37031	2.67832	0	
2.9	2.5	0	
3	2.5	0	
2.9273	2.5727	0	
3	2.5	0	
3	2.6	0	
2.9273	2.5727	0	
0	2.5	0	
0.1	2.5	0	
0.0726959	2.5727	0	
0	2.6	0	
0	2.5	0	
0.0726959	2.5727	0	
2.7481	4.39268	0	
2.81355	4.30378	0	
2.8365	4.39609	0	
2.74995	3.6997	0	
2.81354	3.60941	0	
2.83811	3.70043	0	
0.173205	3.8	0	
0.253396	3.86183	0	
0.163559	3.8845	0	
0.157431	2.58643	0	
0.2	2.5	0	
0.251785	2.56629	0	
2.8	2.5	0	
2.84256	2.58642	0	
2.7482	2.56627	0	
2.9134	4.35	0	
2.90556	4.46234	0	
2.8365	4.39609	0	
2.79852	3.78173	0	
2.74995	3.6997	0	
2.83811	3.70043	0	
0.253287	3.53941	0	
0.173205	3.6	0	
0.163139	3.51662	0	
2.91458	2.95418	0	
2.92552	3.05168	0	
2.84432	3.02214	0	
0.0744797	3.05168	0	
0.0854265	2.95419	0	
0.155815	3.02221	0	
0.25	4.39378	0	
0.2	4.48038	0	
0.161478	4.39962	0	
0.0950001	4.46391	0	
0.0866025	4.35	0	
0.161478	4.39962	0	
2.9134	3.65	0	
2.90429	3.76504	0	
2.83811	3.70043	0	
2.74909	3.00637	0	
2.81323	2.91396	0	
2.84432	3.02214	0	
0.18682	2.914	0	
0.251319	3.00652	0	
0.155815	3.02221	0	
0.2	2.5	0	
0.3	2.5	0	
0.251785	2.56629	0	
0.397222	2.75122	0	
0.299537	2.75106	0	
0.346317	2.68257	0	
0.463889	2.58117	0	
0.5	2.5	0	
0.552778	2.5659	0	
0.4	2.5	0	
0.5	2.5	0	
0.463889	2.58117	0	
0.5	2.5	0	
0.6	2.5	0	
0.552778	2.5659	0	
0.710685	2.74142	0	
0.6	2.75058	0	
0.647096	2.67984	0	
0.850714	2.83803	0	
0.75	2.83494	0	
0.80777	2.75727	0	
0.9	2.5	0	
1	2.5	0	
0.953328	2.56825	0	
1.10066	2.74874	0	
1	2.75058	0	
1.04861	2.68155	0	
1.1	2.5	0	
1.2	2.5	0	
1.15566	2.57748	0	
1.35	2.83622	0	
1.25	2.83718	0	
1.30216	2.76955	0	
1.35	2.83622	0	
1.30216	2.76955	0	
1.39798	2.74891	0	
1.45074	2.83843	0	
1.35	2.83622	0	
1.39798	2.74891	0	
1.5	2.5	0	
1.6	2.5	0	
1.56801	2.58233	0	
1.56801	2.58233	0	
1.6	2.5	0	
1.6536	2.56613	0	
1.6	2.5	0	
1.7	2.5	0	
1.6536	2.56613	0	
1.81069	2.74136	0	
1.7	2.75058	0	
1.7471	2.67983	0	
1.95	2.8362	0	
1.85	2.83494	0	
1.90214	2.7695	0	
2.05	2.83718	0	
1.95	2.8362	0	
1.98802	2.75799	0	
1.95	2.8362	0	
1.90214	2.7695	0	
1.98802	2.75799	0	
2.05231	2.58384	0	
2.15	2.5866	0	
2.10953	2.66484	0	
2.10953	2.66484	0	
2.15	2.5866	0	
2.21523	2.66537	0	
2.15	2.5866	0	
2.25127	2.58426	0	
2.21523	2.66537	0	
2.21523	2.66537	0	
2.25127	2.58426	0	
2.30028	2.65534	0	
2.25127	2.58426	0	
2.36069	2.59389	0	
2.30028	2.65534	0	
2.4	2.5	0	
2.5	2.5	0	
2.46801	2.58199	0	
2.46801	2.58199	0	
2.5	2.5	0	
2.5536	2.56606	0	
2.5	2.5	0	
2.6	2.5	0	
2.5536	2.56606	0	
2.69954	2.75031	0	
2.59992	2.75091	0	
2.64958	2.68158	0	
2.7	2.5	0	
2.8	2.5	0	
2.7482	2.56627	0	
2.79993	4.47597	0	
2.7481	4.39268	0	
2.8365	4.39609	0	
0.647096	2.67984	0	
0.65	2.5866	0	
0.716187	2.65494	0	
2.3	2.74833	0	
2.30028	2.65534	0	
2.37031	2.67832	0	
1.7471	2.67983	0	
1.75	2.5866	0	
1.81846	2.65591	0	
3	4.8	0	
2.9079	4.83711	0	
2.93322	4.74887	0	
2.74758	4.21918	0	
2.79795	4.13376	0	
2.83512	4.20993	0	
0.2	4.13397	0	
0.252371	4.21922	0	
0.164329	4.21017	0	
3	3.1	0	
3	3.2	0	
2.93006	3.15	0	
0	3.2	0	
0	3.1	0	
0.069942	3.15	0	
0.253396	3.86183	0	
0.202283	3.95968	0	
0.163559	3.8845	0	
1.21081	2.73937	0	
1.13657	2.66304	0	
1.21844	2.65257	0	
0.8	2.67321	0	
0.860814	2.59589	0	
0.875696	2.67657	0	
1.39781	2.65897	0	
1.46081	2.59589	0	
1.46847	2.68039	0	
0.204189	3.44467	0	
0.253287	3.53941	0	
0.163139	3.51662	0	
3	3.8	0	
3	3.9	0	
2.93129	3.85	0	
2.74741	3.52626	0	
2.79352	3.44219	0	
2.83331	3.51677	0	
0.0866025	3.85	0	
0.173205	3.8	0	
0.163559	3.8845	0	
0.0814658	2.64695	0	
0.157431	2.58643	0	
0.159097	2.67816	0	
2.84256	2.58642	0	
2.91853	2.64695	0	
2.84085	2.6781	0	
0	4.6	0	
0	4.5	0	
0.0673985	4.55145	0	
0.173205	3.6	0	
0.0849964	3.55278	0	
0.163139	3.51662	0	
2.74721	2.83333	0	
2.79604	2.74872	0	
2.83304	2.82077	0	
0.203789	2.74892	0	
0.252709	2.83378	0	
0.166922	2.82092	0	
3	4.7	0	
3	4.8	0	
2.93322	4.74887	0	
2.9079	4.83711	0	
2.85	4.74019	0	
2.93322	4.74887	0	
2.79604	2.74872	0	
2.74843	2.65835	0	
2.84085	2.6781	0	
0.251494	2.65842	0	
0.203789	2.74892	0	
0.159097	2.67816	0	
3	4	0	
3	4.1	0	
2.93331	4.05	0	
0	4.1	0	
0	4	0	
0.0666897	4.05	0	
2.79352	3.44219	0	
2.74835	3.35562	0	
2.83205	3.36491	0	
0.253111	3.35621	0	
0.204189	3.44467	0	
0.167949	3.36491	0	
3	4.5	0	
3	4.6	0	
2.93474	4.55	0	
0	4.8	0	
0	4.7	0	
0.06187	4.75	0	
0.40359	3.78964	0	
0.354288	3.87664	0	
0.32179	3.79902	0	
0.209806	3.27544	0	
0.167949	3.36491	0	
0.137078	3.2857	0	
2.83205	3.36491	0	
2.7908	3.27512	0	
2.86312	3.28558	0	
0.353688	3.52563	0	
0.403739	3.61187	0	
0.322181	3.60352	0	
0.0814658	2.64695	0	
0	2.6	0	
0.0726959	2.5727	0	
3	2.6	0	
2.91853	2.64695	0	
2.9273	2.5727	0	
0	4.9	0	
0.0875882	4.83733	0	
0.0732051	4.92679	0	
2.9	5	0	
2.84613	4.91563	0	
2.92679	4.92679	0	
0.069942	3.15	0	
0.0744797	3.05168	0	
0.129061	3.10846	0	
2.92552	3.05168	0	
2.93006	3.15	0	
2.87094	3.10846	0	
0.755935	2.58576	0	
0.8	2.67321	0	
0.716187	2.65494	0	
1.85413	2.58422	0	
1.9	2.67321	0	
1.81846	2.65591	0	
2.44738	2.66318	0	
2.40413	2.75072	0	
2.37031	2.67832	0	
1.25428	2.58189	0	
1.3	2.67321	0	
1.21844	2.65257	0	
0.955827	2.65877	0	
0.904283	2.75342	0	
0.875696	2.67657	0	
1.54725	2.66321	0	
1.50382	2.75336	0	
1.46847	2.68039	0	
0.152907	4.91774	0	
0.1	5	0	
0.0732051	4.92679	0	
0.207786	3.09844	0	
0.154656	3.195	0	
0.129061	3.10846	0	
2.84568	3.19476	0	
2.79256	3.09818	0	
2.87094	3.10846	0	
0.710685	2.74142	0	
0.647096	2.67984	0	
0.716187	2.65494	0	
1.81069	2.74136	0	
1.7471	2.67983	0	
1.81846	2.65591	0	
2.30028	2.65534	0	
2.36069	2.59389	0	
2.37031	2.67832	0	
0.0875882	4.83733	0	
0.152907	4.91774	0	
0.0732051	4.92679	0	
0.157431	2.58643	0	
0.0814658	2.64695	0	
0.0726959	2.5727	0	
2.91853	2.64695	0	
2.84256	2.58642	0	
2.9273	2.5727	0	
0.1	2.5	0	
0.157431	2.58643	0	
0.0726959	2.5727	0	
2.84256	2.58642	0	
2.9	2.5	0	
2.9273	2.5727	0	
2.92651	3.24835	0	
2.92056	3.34477	0	
2.86312	3.28558	0	
0.0794351	3.34477	0	
0.0735453	3.24839	0	
0.137078	3.2857	0	
2.93006	3.15	0	
2.84568	3.19476	0	
2.87094	3.10846	0	
0.154656	3.195	0	
0.069942	3.15	0	
0.129061	3.10846	0	
2.92056	3.34477	0	
2.83205	3.36491	0	
2.86312	3.28558	0	
0.167949	3.36491	0	
0.0794351	3.34477	0	
0.137078	3.2857	0	
CELLS 3538 14152
3	0	1	2	
3	3	4	5	
3	6	7	8	
3	9	10	11	
3	12	13	14	
3	15	16	17	
3	18	19	20	
3	21	22	23	
3	24	25	26	
3	27	28	29	
3	30	31	32	
3	33	34	35	
3	36	37	38	
3	39	40	41	
3	42	43	44	
3	45	46	47	
3	48	49	50	
3	51	52	53	
3	54	55	56	
3	57	58	59	
3	60	61	62	
3	63	64	65	
3	66	67	68	
3	69	70	71	
3	72	73	74	
3	75	76	77	
3	78	79	80	
3	81	82	83	
3	84	85	86	
3	87	88	89	
3	90	91	92	
3	93	94	95	
3	96	97	98	
3	99	100	101	
3	102	103	104	
3	105	106	107	
3	108	109	110	
3	111	112	113	
3	114	115	116	
3	117	118	119	
3	120	121	122	
3	123	124	125	
3	126	127	128	
3	129	130	131	
3	132	133	134	
3	135	136	137	
3	138	139	140	
3	141	142	143	
3	144	145	146	
3	147	148	149	
3	150	151	152	
3	153	154	155	
3	156	157	158	
3	159	160	161	
3	162	163	164	
3	165	166	167	
3	168	169	170	
3	171	172	173	
3	174	175	176	
3	177	178	179	
3	180	181	182	
3	183	184	185	
3	186	187	188	
3	189	190	191	
3	192	193	194	
3	195	196	197	
3	198	199	200	
3	201	202	203	
3	204	205	206	
3	207	208	209	
3	210	211	212	
3	213	214	215	
3	216	217	218	
3	219	220	221	
3	222	223	224	
3	225	226	227	
3	228	229	230	
3	231	232	233	
3	234	235	236	
3	237	238	239	
3	240	241	242	
3	243	244	245	
3	246	247	248	
3	249	250	251	
3	252	253	254	
3	255	256	257	
3	258	259	260	
3	261	262	263	
3	264	265	266	
3	267	268	269	
3	270	271	272	
3	273	274	275	
3	276	277	278	
3	279	280	281	
3	282	283	284	
3	285	286	287	
3	288	289	290	
3	291	292	293	
3	294	295	296	
3	297	298	299	
3	300	301	302	
3	303	304	305	
3	306	307	308	
3	309	310	311	
3	312	313	314	
3	315	316	317	
3	318	319	320	
3	321	322	323	
3	324	325	326	
3	327	328	329	
3	330	331	332	
3	333	334	335	
3	336	337	338	
3	339	340	341	
3	342	343	344	
3	345	346	347	
3	348	349	350	
3	351	352	353	
3	354	355	356	
3	357	358	359	
3	360	361	362	
3	363	364	365	
3	366	367	368	
3	369	370	371	
3	372	373	374	
3	375	376	377	
3	378	379	380	
3	381	382	383	
3	384	385	386	
3	387	388	389	
3	390	391	392	
3	393	394	395	
3	396	397	398	
3	399	400	401	
3	402	403	404	
3	405	406	407	
3	408	409	410	
3	411	412	413	
3	414	415	416	
3	417	418	419	
3	420	421	422	
3	423	424	425	
3	426	427	428	
3	429	430	431	
3	432	433	434	
3	435	436	437	
3	438	439	440	
3	441	442	443	
3	444	445	446	
3	447	448	449	
3	450	451	452	
3	453	454	455	
3	456	457	458	
3	459	460	461	
3	462	463	464	
3	465	466	467	
3	468	469	470	
3	471	472	473	
3	474	475	476	
3	477	478	479	
3	480	481	482	
3	483	484	485	
3	486	487	488	
3	489	490	491	
3	492	493	494	
3	495	496	497	
3	498	499	500	
3	501	502	503	
3	504	505	506	
3	507	508	509	
3	510	511	512	
3	513	514	515	
3	516	517	518	
3	519	520	521	
3	522	523	524	
3	525	526	527	
3	528	529	530	
3	531	532	533	
3	534	535	536	
3	537	538	539	
3	540	541	542	
3	543	544	545	
3	546	547	548	
3	549	550	551	
3	552	553	554	
3	555	556	557	
3	558	559	560	
3	561	562	563	
3	564	565	566	
3	567	568	569	
3	570	571	572	
3	573	574	575	
3	576	577	578	
3	579	580	581	
3	582	583	584	
3	585	586	587	
3	588	589	590	
3	591	592	593	
3	594	595	596	
3	597	598	599	
3	600	601	602	
3	603	604	605	
3	606	607	608	
3	609	610	611	
3	612	613	614	
3	615	616	617	
3	618	619	620	
3	621	622	623	
3	624	625	626	
3	627	628	629	
3	630	631	632	
3	633	634	635	
3	636	637	638	
3	639	640	641	
3	642	643	644	
3	645	646	647	
3	648	649	650	
3	651	652	653	
3	654	655	656	
3	657	658	659	
3	660	661	662	
3	663	664	665	
3	666	667	668	
3	669	670	671	
3	672	673	674	
3	675	676	677	
3	678	679	680	
3	681	682	683	
3	684	685	686	
3	687	688	689	
3	690	691	692	
3	693	694	695	
3	696	697	698	
3	699	700	701	
3	702	703	704	
3	705	706	707	
3	708	709	710	
3	711	712	713	
3	714	715	716	
3	717	718	719	
3	720	721	722	
3	723	724	725	
3	726	727	728	
3	729	730	731	
3	732	733	734	
3	735	736	737	
3	738	739	740	
3	741	742	743	
3	744	745	746	
3	747	748	749	
3	750	751	752	
3	753	754	755	
3	756	757	758	
3	759	760	761	
3	762	763	764	
3	765	766	767	
3	768	769	770	
3	771	772	773	
3	774	775	776	
3	777	778	779	
3	780	781	782	
3	783	784	785	
3	786	787	788	
3	789	790	791	
3	792	793	794	
3	795	796	797	
3	798	799	800	
3	801	802	803	
3	804	805	806	
3	807	808	809	
3	810	811	812	
3	813	814	815	
3	816	817	818	
3	819	820	821	
3	822	823	824	
3	825	826	827	
3	828	829	830	
3	831	832	833	
3	834	835	836	
3	837	838	839	
3	840	841	842	
3	843	844	845	
3	846	847	848	
3	849	850	851	
3	852	853	854	
3	855	856	857	
3	858	859	860	
3	861	862	863	
3	864	865	866	
3	867	868	869	
3	870	871	872	
3	873	874	875	
3	876	877	878	
3	879	880	881	
3	882	883	884	
3	885	886	887	
3	888	889	890	
3	891	892	893	
3	894	895	896	
3	897	898	899	
3	900	901	902	
3	903	904	905	
3	906	907	908	
3	909	910	911	
3	912	913	914	
3	915	916	917	
3	918	919	920	
3	921	922	923	
3	924	925	926	
3	927	928	929	
3	930	931	932	
3	933	934	935	
3	936	937	938	
3	939	940	941	
3	942	943	944	
3	945	946	947	
3	948	949	950	
3	951	952	953	
3	954	955	956	
3	957	958	959	
3	960	961	962	
3	963	964	965	
3	966	967	968	
3	969	970	971	
3	972	973	974	
3	975	976	977	
3	978	979	980	
3	981	982	983	
3	984	985	986	
3	987	988	989	
3	990	991	992	
3	993	994	995	
3	996	997	998	
3	999	1000	1001	
3	1002	1003	1004	
3	1005	1006	1007	
3	1008	1009	1010	
3	1011	1012	1013	
3	1014	1015	1016	
3	1017	1018	1019	
3	1020	1021	1022	
3	1023	1024	1025	
3	1026	1027	1028	
3	1029	1030	1031	
3	1032	1033	1034	
3	1035	1036	1037	
3	1038	1039	1040	
3	1041	1042	1043	
3	1044	1045	1046	
3	1047	1048	1049	
3	1050	1051	1052	
3	1053	1054	1055	
3	1056	1057	1058	
3	1059	1060	1061	
3	1062	1063	1064	
3	1065	1066	1067	
3	1068	1069	1070	
3	1071	1072	1073	
3	1074	1075	1076	
3	1077	1078	1079	
3	1080	1081	1082	
3	1083	1084	1085	
3	1086	1087	1088	
3	1089	1090	1091	
3	1092	1093	1094	
3	1095	1096	1097	
3	1098	1099	1100	
3	1101	1102	1103	
3	1104	1105	1106	
3	1107	1108	1109	
3	1110	1111	1112	
3	1113	1114	1115	
3	1116	1117	1118	
3	1119	1120	1121	
3	1122	1123	1124	
3	1125	1126	1127	
3	1128	1129	1130	
3	1131	1132	1133	
3	1134	1135	1136	
3	1137	1138	1139	
3	1140	1141	1142	
3	1143	1144	1145	
3	1146	1147	1148	
3	1149	1150	1151	
3	1152	1153	1154	
3	1155	1156	1157	
3	1158	1159	1160	
3	1161	1162	1163	
3	1164	1165	1166	
3	1167	1168	1169	
3	1170	1171	1172	
3	1173	1174	1175	
3	1176	1177	1178	
3	1179	1180	1181	
3	1182	1183	1184	
3	1185	1186	1187	
3	1188	1189	1190	
3	1191	1192	1193	
3	1194	1195	1196	
3	1197	1198	1199	
3	1200	1201	1202	
3	1203	1204	1205	
3	1206	1207	1208	
3	1209	1210	1211	
3	1212	1213	1214	
3	1215	1216	1217	
3	1218	1219	1220	
3	1221	1222	1223	
3	1224	1225	1226	
3	1227	1228	1229	
3	1230	1231	1232	
3	1233	1234	1235	
3	1236	1237	1238	
3	1239	1240	1241	
3	1242	1243	1244	
3	1245	1246	1247	
3	1248	1249	1250	
3	1251	1252	1253	
3	1254	1255	1256	
3	1257	1258	1259	
3	1260	1261	1262	
3	1263	1264	1265	
3	1266	1267	1268	
3	1269	1270	1271	
3	1272	1273	1274	
3	1275	1276	1277	
3	1278	1279	1280	
3	1281	1282	1283	
3	1284	1285	1286	
3	1287	1288	1289	
3	1290	1291	1292	
3	1293	1294	1295	
3	1296	1297	1298	
3	1299	1300	1301	
3	1302	1303	1304	
3	1305	1306	1307	
3	1308	1309	1310	
3	1311	1312	1313	
3	1314	1315	1316	
3	1317	1318	1319	
3	1320	1321	1322	
3	1323	1324	1325	
3	1326	1327	1328	
3	1329	1330	1331	
3	1332	1333	1334	
3	1335	1336	1337	
3	1338	1339	1340	
3	1341	1342	1343	
3	1344	1345	1346	
3	1347	1348	1349	
3	1350	1351	1352	
3	1353	1354	1355	
3	1356	1357	1358	
3	1359	1360	1361	
3	1362	1363	1364	
3	1365	1366	1367	
3	1368	1369	1370	
3	1371	1372	1373	
3	1374	1375	1376	
3	1377	1378	1379	
3	1380	1381	1382	
3	1383	1384	1385	
3	1386	1387	1388	
3	1389	1390	1391	
3	1392	1393	1394	
3	1395	1396	1397	
3	1398	1399	1400	
3	1401	1402	1403	
3	1404	1405	1406	
3	1407	1408	1409	
3	1410	1411	1412	
3	1413	1414	1415	
3	1416	1417	1418	
3	1419	1420	1421	
3	1422	1423	1424	
3	1425	1426	1427	
3	1428	1429	1430	
3	1431	1432	1433	
3	1434	1435	1436	
3	1437	1438	1439	
3	1440	1441	1442	
3	1443	1444	1445	
3	1446	1447	1448	
3	1449	1450	1451	
3	1452	1453	1454	
3	1455	1456	1457	
3	1458	1459	1460	
3	1461	1462	1463	
3	1464	1465	1466	
3	1467	1468	1469	
3	1470	1471	1472	
3	1473	1474	1475	
3	1476	1477	1478	
3	1479	1480	1481	
3	1482	1483	1484	
3	1485	1486	1487	
3	1488	1489	1490	
3	1491	1492	1493	
3	1494	1495	1496	
3	1497	1498	1499	
3	1500	1501	1502	
3	1503	1504	1505	
3	1506	1507	1508	
3	1509	1510	1511	
3	1512	1513	1514	
3	1515	1516	1517	
3	1518	1519	1520	
3	1521	1522	1523	
3	1524	1525	1526	
3	1527	1528	1529	
3	1530	1531	1532	
3	1533	1534	1535	
3	1536	1537	1538	
3	1539	1540	1541	
3	1542	1543	1544	
3	1545	1546	1547	
3	1548	1549	1550	
3	1551	1552	1553	
3	1554	1555	1556	
3	1557	1558	1559	
3	1560	1561	1562	
3	1563	1564	1565	
3	1566	1567	1568	
3	1569	1570	1571	
3	1572	1573	1574	
3	1575	1576	1577	
3	1578	1579	1580	
3	1581	1582	1583	
3	1584	1585	1586	
3	1587	1588	1589	
3	1590	1591	1592	
3	1593	1594	1595	
3	1596	1597	1598	
3	1599	1600	1601	
3	1602	1603	1604	
3	1605	1606	1607	
3	1608	1609	1610	
3	1611	1612	1613	
3	1614	1615	1616	
3	1617	1618	1619	
3	1620	1621	1622	
3	1623	1624	1625	
3	1626	1627	1628	
3	1629	1630	1631	
3	1632	1633	1634	
3	1635	1636	1637	
3	1638	1639	1640	
3	1641	1642	1643	
3	1644	1645	1646	
3	1647	1648	1649	
3	1650	1651	1652	
3	1653	1654	1655	
3	1656	1657	1658	
3	1659	1660	1661	
3	1662	1663	1664	
3	1665	1666	1667	
3	1668	1669	1670	
3	1671	1672	1673	
3	1674	1675	1676	
3	1677	1678	1679	
3	1680	1681	1682	
3	1683	1684	1685	
3	1686	1687	1688	
3	1689	1690	1691	
3	1692	1693	1694	
3	1695	1696	1697	
3	1698	1699	1700	
3	1701	1702	1703	
3	1704	1705	1706	
3	1707	1708	1709	
3	1710	1711	1712	
3	1713	1714	1715	
3	1716	1717	1718	
3	1719	1720	1721	
3	1722	1723	1724	
3	1725	1726	1727	
3	1728	1729	1730	
3	1731	1732	1733	
3	1734	1735	1736	
3	1737	1738	1739	
3	1740	1741	1742	
3	1743	1744	1745	
3	1746	1747	1748	
3	1749	1750	1751	
3	1752	1753	1754	
3	1755	1756	1757	
3	1758	1759	1760	
3	1761	1762	1763	
3	1764	1765	1766	
3	1767	1768	1769	
3	1770	1771	1772	
3	1773	1774	1775	
3	1776	1777	1778	
3	1779	1780	1781	
3	1782	1783	1784	
3	1785	1786	1787	
3	1788	1789	1790	
3	1791	1792	1793	
3	1794	1795	1796	
3	1797	1798	1799	
3	1800	1801	1802	
3	1803	1804	1805	
3	1806	1807	1808	
3	1809	1810	1811	
3	1812	1813	1814	
3	1815	1816	1817	
3	1818	1819	1820	
3	1821	1822	1823	
3	1824	1825	1826	
3	1827	1828	1829	
3	1830	1831	1832	
3	1833	1834	1835	
3	1836	1837	1838	
3	1839	1840	1841	
3	1842	1843	1844	
3	1845	1846	1847	
3	1848	1849	1850	
3	1851	1852	1853	
3	1854	1855	1856	
3	1857	1858	1859	
3	1860	1861	1862	
3	1863	1864	1865	
3	1866	1867	1868	
3	1869	1870	1871	
3	1872	1873	1874	
3	1875	1876	1877	
3	1878	1879	1880	
3	1881	1882	1883	
3	1884	1885	1886	
3	1887	1888	1889	
3	1890	1891	1892	
3	1893	1894	1895	
3	1896	1897	1898	
3	1899	1900	1901	
3	1902	1903	1904	
3	1905	1906	1907	
3	1908	1909	1910	
3	1911	1912	1913	
3	1914	1915	1916	
3	1917	1918	1919	
3	1920	1921	1922	
3	1923	1924	1925	
3	1926	1927	1928	
3	1929	1930	1931	
3	1932	1933	1934	
3	1935	1936	1937	
3	1938	1939	1940	
3	1941	1942	1943	
3	1944	1945	1946	
3	1947	1948	1949	
3	1950	1951	1952	
3	1953	1954	1955	
3	1956	1957	1958	
3	1959	1960	1961	
3	1962	1963	1964	
3	1965	1966	1967	
3	1968	1969	1970	
3	1971	1972	1973	
3	1974	1975	1976	
3	1977	1978	1979	
3	1980	1981	1982	
3	1983	1984	1985	
3	1986	1987	1988	
3	1989	1990	1991	
3	1992	1993	1994	
3	1995	1996	1997	
3	1998	1999	2000	
3	2001	2002	2003	
3	2004	2005	2006	
3	2007	2008	2009	
3	2010	2011	2012	
3	2013	2014	2015	
3	2016	2017	2018	
3	2019	2020	2021	
3	2022	2023	2024	
3	2025	2026	2027	
3	2028	2029	2030	
3	2031	2032	2033	
3	2034	2035	2036	
3	2037	2038	2039	
3	2040	2041	2042	
3	2043	2044	2045	
3	2046	2047	2048	
3	2049	2050	2051	
3	2052	2053	2054	
3	2055	2056	2057	
3	2058	2059	2060	
3	2061	2062	2063	
3	2064	2065	2066	
3	2067	2068	2069	
3	2070	2071	2072	
3	2073	2074	2075	
3	2076	2077	2078	
3	2079	2080	2081	
3	2082	2083	2084	
3	2085	2086	2087	
3	2088	2089	2090	
3	2091	2092	2093	
3	2094	2095	2096	
3	2097	2098	2099	
3	2100	2101	2102	
3	2103	2104	2105	
3	2106	2107	2108	
3	2109	2110	2111	
3	2112	2113	2114	
3	2115	2116	2117	
3	2118	2119	2120	
3	2121	2122	2123	
3	2124	2125	2126	
3	2127	2128	2129	
3	2130	2131	2132	
3	2133	2134	2135	
3	2136	2137	2138	
3	2139	2140	2141	
3	2142	2143	2144	
3	2145	2146	2147	
3	2148	2149	2150	
3	2151	2152	2153	
3	2154	2155	2156	
3	2157	2158	2159	
3	2160	2161	2162	
3	2163	2164	2165	
3	2166	2167	2168	
3	2169	2170	2171	
3	2172	2173	2174	
3	2175	2176	2177	
3	2178	2179	2180	
3	2181	2182	2183	
3	2184	2185	2186	
3	2187	2188	2189	
3	2190	2191	2192	
3	2193	2194	2195	
3	2196	2197	2198	
3	2199	2200	2201	
3	2202	2203	2204	
3	2205	2206	2207	
3	2208	2209	2210	
3	2211	2212	2213	
3	2214	2215	2216	
3	2217	2218	2219	
3	2220	2221	2222	
3	2223	2224	2225	
3	2226	2227	2228	
3	2229	2230	2231	
3	2232	2233	2234	
3	2235	2236	2237	
3	2238	2239	2240	
3	2241	2242	2243	
3	2244	2245	2246	
3	2247	2248	2249	
3	2250	2251	2252	
3	2253	2254	2255	
3	2256	2257	2258	
3	2259	2260	2261	
3	2262	2263	2264	
3	2265	2266	2267	
3	2268	2269	2270	
3	2271	2272	2273	
3	2274	2275	2276	
3	2277	2278	2279	
3	2280	2281	2282	
3	2283	2284	2285	
3	2286	2287	2288	
3	2289	2290	2291	
3	2292	2293	2294	
3	2295	2296	2297	
3	2298	2299	2300	
3	2301	2302	2303	
3	2304	2305	2306	
3	2307	2308	2309	
3	2310	2311	2312	
3	2313	2314	2315	
3	2316	2317	2318	
3	2319	2320	2321	
3	2322	2323	2324	
3	2325	2326	2327	
3	2328	2329	2330	
3	2331	2332	2333	
3	2334	2335	2336	
3	2337	2338	2339	
3	2340	2341	2342	
3	2343	2344	2345	
3	2346	2347	2348	
3	2349	2350	2351	
3	2352	2353	2354	
3	2355	2356	2357	
3	2358	2359	2360	
3	2361	2362	2363	
3	2364	2365	2366	
3	2367	2368	2369	
3	2370	2371	2372	
3	2373	2374	2375	
3	2376	2377	2378	
3	2379	2380	2381	
3	2382	2383	2384	
3	2385	2386	2387	
3	2388	2389	2390	
3	2391	2392	2393	
3	2394	2395	2396	
3	2397	2398	2399	
3	2400	2401	2402	
3	2403	2404	2405	
3	2406	2407	2408	
3	2409	2410	2411	
3	2412	2413	2414	
3	2415	2416	2417	
3	2418	2419	2420	
3	2421	2422	2423	
3	2424	2425	2426	
3	2427	2428	2429	
3	2430	2431	2432	
3	2433	2434	2435	
3	2436	2437	2438	
3	2439	2440	2441	
3	2442	2443	2444	
3	2445	2446	2447	
3	2448	2449	2450	
3	2451	2452	2453	
3	2454	2455	2456	
3	2457	2458	2459	
3	2460	2461	2462	
3	2463	2464	2465	
3	2466	2467	2468	
3	2469	2470	2471	
3	2472	2473	2474	
3	2475	2476	2477	
3	2478	2479	2480	
3	2481	2482	2483	
3	2484	2485	2486	
3	2487	2488	2489	
3	2490	2491	2492	
3	2493	2494	2495	
3	2496	2497	2498	
3	2499	2500	2501	
3	2502	2503	2504	
3	2505	2506	2507	
3	2508	2509	2510	
3	2511	2512	2513	
3	2514	2515	2516	
3	2517	2518	2519	
3	2520	2521	2522	
3	2523	2524	2525	
3	2526	2527	2528	
3	2529	2530	2531	
3	2532	2533	2534	
3	2535	2536	2537	
3	2538	2539	2540	
3	2541	2542	2543	
3	2544	2545	2546	
3	2547	2548	2549	
3	2550	2551	2552	
3	2553	2554	2555	
3	2556	2557	2558	
3	2559	2560	2561	
3	2562	2563	2564	
3	2565	2566	2567	
3	2568	2569	2570	
3	2571	2572	2573	
3	2574	2575	2576	
3	2577	2578	2579	
3	2580	2581	2582	
3	2583	2584	2585	
3	2586	2587	2588	
3	2589	2590	2591	
3	2592	2593	2594	
3	2595	2596	2597	
3	2598	2599	2600	
3	2601	2602	2603	
3	2604	2605	2606	
3	2607	2608	2609	
3	2610	2611	2612	
3	2613	2614	2615	
3	2616	2617	2618	
3	2619	2620	2621	
3	2622	2623	2624	
3	2625	2626	2627	
3	2628	2629	2630	
3	2631	2632	2633	
3	2634	2635	2636	
3	2637	2638	2639	
3	2640	2641	2642	
3	2643	2644	2645	
3	2646	2647	2648	
3	2649	2650	2651	
3	2652	2653	2654	
3	2655	2656	2657	
3	2658	2659	2660	
3	2661	2662	2663	
3	2664	2665	2666	
3	2667	2668	2669	
3	2670	2671	2672	
3	2673	2674	2675	
3	2676	2677	2678	
3	2679	2680	2681	
3	2682	2683	2684	
3	2685	2686	2687	
3	2688	2689	2690	
3	2691	2692	2693	
3	2694	2695	2696	
3	2697	2698	2699	
3	2700	2701	2702	
3	2703	2704	2705	
3	2706	2707	2708	
3	2709	2710	2711	
3	2712	2713	2714	
3	2715	2716	2717	
3	2718	2719	2720	
3	2721	2722	2723	
3	2724	2725	2726	
3	2727	2728	2729	
3	2730	2731	2732	
3	2733	2734	2735	
3	2736	2737	2738	
3	2739	2740	2741	
3	2742	2743	2744	
3	2745	2746	2747	
3	2748	2749	2750	
3	2751	2752	2753	
3	2754	2755	2756	
3	2757	2758	2759	
3	2760	2761	2762	
3	2763	2764	2765	
3	2766	2767	2768	
3	2769	2770	2771	
3	2772	2773	2774	
3	2775	2776	2777	
3	2778	2779	2780	
3	2781	2782	2783	
3	2784	2785	2786	
3	2787	2788	2789	
3	2790	2791	2792	
3	2793	2794	2795	
3	2796	2797	2798	
3	2799	2800	2801	
3	2802	2803	2804	
3	2805	2806	2807	
3	2808	2809	2810	
3	2811	2812	2813	
3	2814	2815	2816	
3	2817	2818	2819	
3	2820	2821	2822	
3	2823	2824	2825	
3	2826	2827	2828	
3	2829	2830	2831	
3	2832	2833	2834	
3	2835	2836	2837	
3	2838	2839	2840	
3	2841	2842	2843	
3	2844	2845	2846	
3	2847	2848	2849	
3	2850	2851	2852	
3	2853	2854	2855	
3	2856	2857	2858	
3	2859	2860	2861	
3	2862	2863	2864	
3	2865	2866	2867	
3	2868	2869	2870	
3	2871	2872	2873	
3	2874	2875	2876	
3	2877	2878	2879	
3	2880	2881	2882	
3	2883	2884	2885	
3	2886	2887	2888	
3	2889	2890	2891	
3	2892	2893	2894	
3	2895	2896	2897	
3	2898	2899	2900	
3	2901	2902	2903	
3	2904	2905	2906	
3	2907	2908	2909	
3	2910	2911	2912	
3	2913	2914	2915	
3	2916	2917	2918	
3	2919	2920	2921	
3	2922	2923	2924	
3	2925	2926	2927	
3	2928	2929	2930	
3	2931	2932	2933	
3	2934	2935	2936	
3	2937	2938	2939	
3	2940	2941	2942	
3	2943	2944	2945	
3	2946	2947	2948	
3	2949	2950	2951	
3	2952	2953	2954	
3	2955	2956	2957	
3	2958	2959	2960	
3	2961	2962	2963	
3	2964	2965	2966	
3	2967	2968	2969	
3	2970	2971	2972	
3	2973	2974	2975	
3	2976	2977	2978	
3	2979	2980	2981	
3	2982	2983	2984	
3	2985	2986	2987	
3	2988	2989	2990	
3	2991	2992	2993	
3	2994	2995	2996	
3	2997	2998	2999	
3	3000	3001	3002	
3	3003	3004	3005	
3	3006	3007	3008	
3	3009	3010	3011	
3	3012	3013	3014	
3	3015	3016	3017	
3	3018	3019	3020	
3	3021	3022	3023	
3	3024	3025	3026	
3	3027	3028	3029	
3	3030	3031	3032	
3	3033	3034	3035	
3	3036	3037	3038	
3	3039	3040	3041	
3	3042	3043	3044	
3	3045	3046	3047	
3	3048	3049	3050	
3	3051	3052	3053	
3	3054	3055	3056	
3	3057	3058	3059	
3	3060	3061	3062	
3	3063	3064	3065	
3	3066	3067	3068	
3	3069	3070	3071	
3	3072	3073	3074	
3	3075	3076	3077	
3	3078	3079	3080	
3	3081	3082	3083	
3	3084	3085	3086	
3	3087	3088	3089	
3	3090	3091	3092	
3	3093	3094	3095	
3	3096	3097	3098	
3	3099	3100	3101	
3	3102	3103	3104	
3	3105	3106	3107	
3	3108	3109	3110	
3	3111	3112	3113	
3	3114	3115	3116	
3	3117	3118	3119	
3	3120	3121	3122	
3	3123	3124	3125	
3	3126	3127	3128	
3	3129	3130	3131	
3	3132	3133	3134	
3	3135	3136	3137	
3	3138	3139	3140	
3	3141	3142	3143	
3	3144	3145	3146	
3	3147	3148	3149	
3	3150	3151	3152	
3	3153	3154	3155	
3	3156	3157	3158	
3	3159	3160	3161	
3	3162	3163	3164	
3	3165	3166	3167	
3	3168	3169	3170	
3	3171	3172	3173	
3	3174	3175	3176	
3	3177	3178	3179	
3	3180	3181	3182	
3	3183	3184	3185	
3	3186	3187	3188	
3	3189	3190	3191	
3	3192	3193	3194	
3	3195	3196	3197	
3	3198	3199	3200	
3	3201	3202	3203	
3	3204	3205	3206	
3	3207	3208	3209	
3	3210	3211	3212	
3	3213	3214	3215	
3	3216	3217	3218	
3	3219	3220	3221	
3	3222	3223	3224	
3	3225	3226	3227	
3	3228	3229	3230	
3	3231	3232	3233	
3	3234	3235	3236	
3	3237	3238	3239	
3	3240	3241	3242	
3	3243	3244	3245	
3	3246	3247	3248	
3	3249	3250	3251	
3	3252	3253	3254	
3	3255	3256	3257	
3	3258	3259	3260	
3	3261	3262	3263	
3	3264	3265	3266	
3	3267	3268	3269	
3	3270	3271	3272	
3	3273	3274	3275	
3	3276	3277	3278	
3	3279	3280	3281	
3	3282	3283	3284	
3	3285	3286	3287	
3	3288	3289	3290	
3	3291	3292	3293	
3	3294	3295	3296	
3	3297	3298	3299	
3	3300	3301	3302	
3	3303	3304	3305	
3	3306	3307	3308	
3	3309	3310	3311	
3	3312	3313	3314	
3	3315	3316	3317	
3	3318	3319	3320	
3	3321	3322	3323	
3	3324	3325	3326	
3	3327	3328	3329	
3	3330	3331	3332	
3	3333	3334	3335	
3	3336	3337	3338	
3	3339	3340	3341	
3	3342	3343	3344	
3	3345	3346	3347	
3	3348	3349	3350	
3	3351	3352	3353	
3	3354	3355	3356	
3	3357	3358	3359	
3	3360	3361	3362	
3	3363	3364	3365	
3	3366	3367	3368	
3	3369	3370	3371	
3	3372	3373	3374	
3	3375	3376	3377	
3	3378	3379	3380	
3	3381	3382	3383	
3	3384	3385	3386	
3	3387	3388	3389	
3	3390	3391	3392	
3	3393	3394	3395	
3	3396	3397	3398	
3	3399	3400	3401	
3	3402	3403	3404	
3	3405	3406	3407	
3	3408	3409	3410	
3	3411	3412	3413	
3	3414	3415	3416	
3	3417	3418	3419	
3	3420	3421	3422	
3	3423	3424	3425	
3	3426	3427	3428	
3	3429	3430	3431	
3	3432	3433	3434	
3	3435	3436	3437	
3	3438	3439	3440	
3	3441	3442	3443	
3	3444	3445	3446	
3	3447	3448	3449	
3	3450	3451	3452	
3	3453	3454	3455	
3	3456	3457	3458	
3	3459	3460	3461	
3	3462	3463	3464	
3	3465	3466	3467	
3	3468	3469	3470	
3	3471	3472	3473	
3	3474	3475	3476	
3	3477	3478	3479	
3	3480	3481	3482	
3	3483	3484	3485	
3	3486	3487	3488	
3	3489	3490	3491	
3	3492	3493	3494	
3	3495	3496	3497	
3	3498	3499	3500	
3	3501	3502	3503	
3	3504	3505	3506	
3	3507	3508	3509	
3	3510	3511	3512	
3	3513	3514	3515	
3	3516	3517	3518	
3	3519	3520	3521	
3	3522	3523	3524	
3	3525	3526	3527	
3	3528	3529	3530	
3	3531	3532	3533	
3	3534	3535	3536	
3	3537	3538	3539	
3	3540	3541	3542	
3	3543	3544	3545	
3	3546	3547	3548	
3	3549	3550	3551	
3	3552	3553	3554	
3	3555	3556	3557	
3	3558	3559	3560	
3	3561	3562	3563	
3	3564	3565	3566	
3	3567	3568	3569	
3	3570	3571	3572	
3	3573	3574	3575	
3	3576	3577	3578	
3	3579	3580	3581	
3	3582	3583	3584	
3	3585	3586	3587	
3	3588	3589	3590	
3	3591	3592	3593	
3	3594	3595	3596	
3	3597	3598	3599	
3	3600	3601	3602	
3	3603	3604	3605	
3	3606	3607	3608	
3	3609	3610	3611	
3	3612	3613	3614	
3	3615	3616	3617	
3	3618	3619	3620	
3	3621	3622	3623	
3	3624	3625	3626	
3	3627	3628	3629	
3	3630	3631	3632	
3	3633	3634	3635	
3	3636	3637	3638	
3	3639	3640	3641	
3	3642	3643	3644	
3	3645	3646	3647	
3	3648	3649	3650	
3	3651	3652	3653	
3	3654	3655	3656	
3	3657	3658	3659	
3	3660	3661	3662	
3	3663	3664	3665	
3	3666	3667	3668	
3	3669	3670	3671	
3	3672	3673	3674	
3	3675	3676	3677	
3	3678	3679	3680	
3	3681	3682	3683	
3	3684	3685	3686	
3	3687	3688	3689	
3	3690	3691	3692	
3	3693	3694	3695	
3	3696	3697	3698	
3	3699	3700	3701	
3	3702	3703	3704	
3	3705	3706	3707	
3	3708	3709	3710	
3	3711	3712	3713	
3	3714	3715	3716	
3	3717	3718	3719	
3	3720	3721	3722	
3	3723	3724	3725	
3	3726	3727	3728	
3	3729	3730	3731	
3	3732	3733	3734	
3	3735	3736	3737	
3	3738	3739	3740	
3	3741	3742	3743	
3	3744	3745	3746	
3	3747	3748	3749	
3	3750	3751	3752	
3	3753	3754	3755	
3	3756	3757	3758	
3	3759	3760	3761	
3	3762	3763	3764	
3	3765	3766	3767	
3	3768	3769	3770	
3	3771	3772	3773	
3	3774	3775	3776	
3	3777	3778	3779	
3	3780	3781	3782	
3	3783	3784	3785	
3	3786	3787	3788	
3	3789	3790	3791	
3	3792	3793	3794	
3	3795	3796	3797	
3	3798	3799	3800	
3	3801	3802	3803	
3	3804	3805	3806	
3	3807	3808	3809	
3	3810	3811	3812	
3	3813	3814	3815	
3	3816	3817	3818	
3	3819	3820	3821	
3	3822	3823	3824	
3	3825	3826	3827	
3	3828	3829	3830	
3	3831	3832	3833	
3	3834	3835	3836	
3	3837	3838	3839	
3	3840	3841	3842	
3	3843	3844	3845	
3	3846	3847	3848	
3	3849	3850	3851	
3	3852	3853	3854	
3	3855	3856	3857	
3	3858	3859	3860	
3	3861	3862	3863	
3	3864	3865	3866	
3	3867	3868	3869	
3	3870	3871	3872	
3	3873	3874	3875	
3	3876	3877	3878	
3	3879	3880	3881	
3	3882	3883	3884	
3	3885	3886	3887	
3	3888	3889	3890	
3	3891	3892	3893	
3	3894	3895	3896	
3	3897	3898	3899	
3	3900	3901	3902	
3	3903	3904	3905	
3	3906	3907	3908	
3	3909	3910	3911	
3	3912	3913	3914	
3	3915	3916	3917	
3	3918	3919	3920	
3	3921	3922	3923	
3	3924	3925	3926	
3	3927	3928	3929	
3	3930	3931	3932	
3	3933	3934	3935	
3	3936	3937	3938	
3	3939	3940	3941	
3	3942	3943	3944	
3	3945	3946	3947	
3	3948	3949	3950	
3	3951	3952	3953	
3	3954	3955	3956	
3	3957	3958	3959	
3	3960	3961	3962	
3	3963	3964	3965	
3	3966	3967	3968	
3	3969	3970	3971	
3	3972	3973	3974	
3	3975	3976	3977	
3	3978	3979	3980	
3	3981	3982	3983	
3	3984	3985	3986	
3	3987	3988	3989	
3	3990	3991	3992	
3	3993	3994	3995	
3	3996	3997	3998	
3	3999	4000	4001	
3	4002	4003	4004	
3	4005	4006	4007	
3	4008	4009	4010	
3	4011	4012	4013	
3	4014	4015	4016	
3	4017	4018	4019	
3	4020	4021	4022	
3	4023	4024	4025	
3	4026	4027	4028	
3	4029	4030	4031	
3	4032	4033	4034	
3	4035	4036	4037	
3	4038	4039	4040	
3	4041	4042	4043	
3	4044	4045	4046	
3	4047	4048	4049	
3	4050	4051	4052	
3	4053	4054	4055	
3	4056	4057	4058	
3	4059	4060	4061	
3	4062	4063	4064	
3	4065	4066	4067	
3	4068	4069	4070	
3	4071	4072	4073	
3	4074	4075	4076	
3	4077	4078	4079	
3	4080	4081	4082	
3	4083	4084	4085	
3	4086	4087	4088	
3	4089	4090	4091	
3	4092	4093	4094	
3	4095	4096	4097	
3	4098	4099	4100	
3	4101	4102	4103	
3	4104	4105	4106	
3	4107	4108	4109	
3	4110	4111	4112	
3	4113	4114	4115	
3	4116	4117	4118	
3	4119	4120	4121	
3	4122	4123	4124	
3	4125	4126	4127	
3	4128	4129	4130	
3	4131	4132	4133	
3	4134	4135	4136	
3	4137	4138	4139	
3	4140	4141	4142	
3	4143	4144	4145	
3	4146	4147	4148	
3	4149	4150	4151	
3	4152	4153	4154	
3	4155	4156	4157	
3	4158	4159	4160	
3	4161	4162	4163	
3	4164	4165	4166	
3	4167	4168	4169	
3	4170	4171	4172	
3	4173	4174	4175	
3	4176	4177	4178	
3	4179	4180	4181	
3	4182	4183	4184	
3	4185	4186	4187	
3	4188	4189	4190	
3	4191	4192	4193	
3	4194	4195	4196	
3	4197	4198	4199	
3	4200	4201	4202	
3	4203	4204	4205	
3	4206	4207	4208	
3	4209	4210	4211	
3	4212	4213	4214	
3	4215	4216	4217	
3	4218	4219	4220	
3	4221	4222	4223	
3	4224	4225	4226	
3	4227	4228	4229	
3	4230	4231	4232	
3	4233	4234	4235	
3	4236	4237	4238	
3	4239	4240	4241	
3	4242	4243	4244	
3	4245	4246	4247	
3	4248	4249	4250	
3	4251	4252	4253	
3	4254	4255	4256	
3	4257	4258	4259	
3	4260	4261	4262	
3	4263	4264	4265	
3	4266	4267	4268	
3	4269	4270	4271	
3	4272	4273	4274	
3	4275	4276	4277	
3	4278	4279	4280	
3	4281	4282	4283	
3	4284	4285	4286	
3	4287	4288	4289	
3	4290	4291	4292	
3	4293	4294	4295	
3	4296	4297	4298	
3	4299	4300	4301	
3	4302	4303	4304	
3	4305	4306	4307	
3	4308	4309	4310	
3	4311	4312	4313	
3	4314	4315	4316	
3	4317	4318	4319	
3	4320	4321	4322	
3	4323	4324	4325	
3	4326	4327	4328	
3	4329	4330	4331	
3	4332	4333	4334	
3	4335	4336	4337	
3	4338	4339	4340	
3	4341	4342	4343	
3	4344	4345	4346	
3	4347	4348	4349	
3	4350	4351	4352	
3	4353	4354	4355	
3	4356	4357	4358	
3	4359	4360	4361	
3	4362	4363	4364	
3	4365	4366	4367	
3	4368	4369	4370	
3	4371	4372	4373	
3	4374	4375	4376	
3	4377	4378	4379	
3	4380	4381	4382	
3	4383	4384	4385	
3	4386	4387	4388	
3	4389	4390	4391	
3	4392	4393	4394	
3	4395	4396	4397	
3	4398	4399	4400	
3	4401	4402	4403	
3	4404	4405	4406	
3	4407	4408	4409	
3	4410	4411	4412	
3	4413	4414	4415	
3	4416	4417	4418	
3	4419	4420	4421	
3	4422	4423	4424	
3	4425	4426	4427	
3	4428	4429	4430	
3	4431	4432	4433	
3	4434	4435	4436	
3	4437	4438	4439	
3	4440	4441	4442	
3	4443	4444	4445	
3	4446	4447	4448	
3	4449	4450	4451	
3	4452	4453	4454	
3	4455	4456	4457	
3	4458	4459	4460	
3	4461	4462	4463	
3	4464	4465	4466	
3	4467	4468	4469	
3	4470	4471	4472	
3	4473	4474	4475	
3	4476	4477	4478	
3	4479	4480	4481	
3	4482	4483	4484	
3	4485	4486	4487	
3	4488	4489	4490	
3	4491	4492	4493	
3	4494	4495	4496	
3	4497	4498	4499	
3	4500	4501	4502	
3	4503	4504	4505	
3	4506	4507	4508	
3	4509	4510	4511	
3	4512	4513	4514	
3	4515	4516	4517	
3	4518	4519	4520	
3	4521	4522	4523	
3	4524	4525	4526	
3	4527	4528	4529	
3	4530	4531	4532	
3	4533	4534	4535	
3	4536	4537	4538	
3	4539	4540	4541	
3	4542	4543	4544	
3	4545	4546	4547	
3	4548	4549	4550	
3	4551	4552	4553	
3	4554	4555	4556	
3	4557	4558	4559	
3	4560	4561	4562	
3	4563	4564	4565	
3	4566	4567	4568	
3	4569	4570	4571	
3	4572	4573	4574	
3	4575	4576	4577	
3	4578	4579	4580	
3	4581	4582	4583	
3	4584	4585	4586	
3	4587	4588	4589	
3	4590	4591	4592	
3	4593	4594	4595	
3	4596	4597	4598	
3	4599	4600	4601	
3	4602	4603	4604	
3	4605	4606	4607	
3	4608	4609	4610	
3	4611	4612	4613	
3	4614	4615	4616	
3	4617	4618	4619	
3	4620	4621	4622	
3	4623	4624	4625	
3	4626	4627	4628	
3	4629	4630	4631	
3	4632	4633	4634	
3	4635	4636	4637	
3	4638	4639	4640	
3	4641	4642	4643	
3	4644	4645	4646	
3	4647	4648	4649	
3	4650	4651	4652	
3	4653	4654	4655	
3	4656	4657	4658	
3	4659	4660	4661	
3	4662	4663	4664	
3	4665	4666	4667	
3	4668	4669	4670	
3	4671	4672	4673	
3	4674	4675	4676	
3	4677	4678	4679	
3	4680	4681	4682	
3	4683	4684	4685	
3	4686	4687	4688	
3	4689	4690	4691	
3	4692	4693	4694	
3	4695	4696	4697	
3	4698	4699	4700	
3	4701	4702	4703	
3	4704	4705	4706	
3	4707	4708	4709	
3	4710	4711	4712	
3	4713	4714	4715	
3	4716	4717	4718	
3	4719	4720	4721	
3	4722	4723	4724	
3	4725	4726	4727	
3	4728	4729	4730	
3	4731	4732	4733	
3	4734	4735	4736	
3	4737	4738	4739	
3	4740	4741	4742	
3	4743	4744	4745	
3	4746	4747	4748	
3	4749	4750	4751	
3	4752	4753	4754	
3	4755	4756	4757	
3	4758	4759	4760	
3	4761	4762	4763	
3	4764	4765	4766	
3	4767	4768	4769	
3	4770	4771	4772	
3	4773	4774	4775	
3	4776	4777	4778	
3	4779	4780	4781	
3	4782	4783	4784	
3	4785	4786	4787	
3	4788	4789	4790	
3	4791	4792	4793	
3	4794	4795	4796	
3	4797	4798	4799	
3	4800	4801	4802	
3	4803	4804	4805	
3	4806	4807	4808	
3	4809	4810	4811	
3	4812	4813	4814	
3	4815	4816	4817	
3	4818	4819	4820	
3	4821	4822	4823	
3	4824	4825	4826	
3	4827	4828	4829	
3	4830	4831	4832	
3	4833	4834	4835	
3	4836	4837	4838	
3	4839	4840	4841	
3	4842	4843	4844	
3	4845	4846	4847	
3	4848	4849	4850	
3	4851	4852	4853	
3	4854	4855	4856	
3	4857	4858	4859	
3	4860	4861	4862	
3	4863	4864	4865	
3	4866	4867	4868	
3	4869	4870	4871	
3	4872	4873	4874	
3	4875	4876	4877	
3	4878	4879	4880	
3	4881	4882	4883	
3	4884	4885	4886	
3	4887	4888	4889	
3	4890	4891	4892	
3	4893	4894	4895	
3	4896	4897	4898	
3	4899	4900	4901	
3	4902	4903	4904	
3	4905	4906	4907	
3	4908	4909	4910	
3	4911	4912	4913	
3	4914	4915	4916	
3	4917	4918	4919	
3	4920	4921	4922	
3	4923	4924	4925	
3	4926	4927	4928	
3	4929	4930	4931	
3	4932	4933	4934	
3	4935	4936	4937	
3	4938	4939	4940	
3	4941	4942	4943	
3	4944	4945	4946	
3	4947	4948	4949	
3	4950	4951	4952	
3	4953	4954	4955	
3	4956	4957	4958	
3	4959	4960	4961	
3	4962	4963	4964	
3	4965	4966	4967	
3	4968	4969	4970	
3	4971	4972	4973	
3	4974	4975	4976	
3	4977	4978	4979	
3	4980	4981	4982	
3	4983	4984	4985	
3	4986	4987	4988	
3	4989	4990	4991	
3	4992	4993	4994	
3	4995	4996	4997	
3	4998	4999	5000	
3	5001	5002	5003	
3	5004	5005	5006	
3	5007	5008	5009	
3	5010	5011	5012	
3	5013	5014	5015	
3	5016	5017	5018	
3	5019	5020	5021	
3	5022	5023	5024	
3	5025	5026	5027	
3	5028	5029	5030	
3	5031	5032	5033	
3	5034	5035	5036	
3	5037	5038	5039	
3	5040	5041	5042	
3	5043	5044	5045	
3	5046	5047	5048	
3	5049	5050	5051	
3	5052	5053	5054	
3	5055	5056	5057	
3	5058	5059	5060	
3	5061	5062	5063	
3	5064	5065	5066	
3	5067	5068	5069	
3	5070	5071	5072	
3	5073	5074	5075	
3	5076	5077	5078	
3	5079	5080	5081	
3	5082	5083	5084	
3	5085	5086	5087	
3	5088	5089	5090	
3	5091	5092	5093	
3	5094	5095	5096	
3	5097	5098	5099	
3	5100	5101	5102	
3	5103	5104	5105	
3	5106	5107	5108	
3	5109	5110	5111	
3	5112	5113	5114	
3	5115	5116	5117	
3	5118	5119	5120	
3	5121	5122	5123	
3	5124	5125	5126	
3	5127	5128	5129	
3	5130	5131	5132	
3	5133	5134	5135	
3	5136	5137	5138	
3	5139	5140	5141	
3	5142	5143	5144	
3	5145	5146	5147	
3	5148	5149	5150	
3	5151	5152	5153	
3	5154	5155	5156	
3	5157	5158	5159	
3	5160	5161	5162	
3	5163	5164	5165	
3	5166	5167	5168	
3	5169	5170	5171	
3	5172	5173	5174	
3	5175	5176	5177	
3	5178	5179	5180	
3	5181	5182	5183	
3	5184	5185	5186	
3	5187	5188	5189	
3	5190	5191	5192	
3	5193	5194	5195	
3	5196	5197	5198	
3	5199	5200	5201	
3	5202	5203	5204	
3	5205	5206	5207	
3	5208	5209	5210	
3	5211	5212	5213	
3	5214	5215	5216	
3	5217	5218	5219	
3	5220	5221	5222	
3	5223	5224	5225	
3	5226	5227	5228	
3	5229	5230	5231	
3	5232	5233	5234	
3	5235	5236	5237	
3	5238	5239	5240	
3	5241	5242	5243	
3	5244	5245	5246	
3	5247	5248	5249	
3	5250	5251	5252	
3	5253	5254	5255	
3	5256	5257	5258	
3	5259	5260	5261	
3	5262	5263	5264	
3	5265	5266	5267	
3	5268	5269	5270	
3	5271	5272	5273	
3	5274	5275	5276	
3	5277	5278	5279	
3	5280	5281	5282	
3	5283	5284	5285	
3	5286	5287	5288	
3	5289	5290	5291	
3	5292	5293	5294	
3	5295	5296	5297	
3	5298	5299	5300	
3	5301	5302	5303	
3	5304	5305	5306	
3	5307	5308	5309	
3	5310	5311	5312	
3	5313	5314	5315	
3	5316	5317	5318	
3	5319	5320	5321	
3	5322	5323	5324	
3	5325	5326	5327	
3	5328	5329	5330	
3	5331	5332	5333	
3	5334	5335	5336	
3	5337	5338	5339	
3	5340	5341	5342	
3	5343	5344	5345	
3	5346	5347	5348	
3	5349	5350	5351	
3	5352	5353	5354	
3	5355	5356	5357	
3	5358	5359	5360	
3	5361	5362	5363	
3	5364	5365	5366	
3	5367	5368	5369	
3	5370	5371	5372	
3	5373	5374	5375	
3	5376	5377	5378	
3	5379	5380	5381	
3	5382	5383	5384	
3	5385	5386	5387	
3	5388	5389	5390	
3	5391	5392	5393	
3	5394	5395	5396	
3	5397	5398	5399	
3	5400	5401	5402	
3	5403	5404	5405	
3	5406	5407	5408	
3	5409	5410	5411	
3	5412	5413	5414	
3	5415	5416	5417	
3	5418	5419	5420	
3	5421	5422	5423	
3	5424	5425	5426	
3	5427	5428	5429	
3	5430	5431	5432	
3	5433	5434	5435	
3	5436	5437	5438	
3	5439	5440	5441	
3	5442	5443	5444	
3	5445	5446	5447	
3	5448	5449	5450	
3	5451	5452	5453	
3	5454	5455	5456	
3	5457	5458	5459	
3	5460	5461	5462	
3	5463	5464	5465	
3	5466	5467	5468	
3	5469	5470	5471	
3	5472	5473	5474	
3	5475	5476	5477	
3	5478	5479	5480	
3	5481	5482	5483	
3	5484	5485	5486	
3	5487	5488	5489	
3	5490	5491	5492	
3	5493	5494	5495	
3	5496	5497	5498	
3	5499	5500	5501	
3	5502	5503	5504	
3	5505	5506	5507	
3	5508	5509	5510	
3	5511	5512	5513	
3	5514	5515	5516	
3	5517	5518	5519	
3	5520	5521	5522	
3	5523	5524	5525	
3	5526	5527	5528	
3	5529	5530	5531	
3	5532	5533	5534	
3	5535	5536	5537	
3	5538	5539	5540	
3	5541	5542	5543	
3	5544	5545	5546	
3	5547	5548	5549	
3	5550	5551	5552	
3	5553	5554	5555	
3	5556	5557	5558	
3	5559	5560	5561	
3	5562	5563	5564	
3	5565	5566	5567	
3	5568	5569	5570	
3	5571	5572	5573	
3	5574	5575	5576	
3	5577	5578	5579	
3	5580	5581	5582	
3	5583	5584	5585	
3	5586	5587	5588	
3	5589	5590	5591	
3	5592	5593	5594	
3	5595	5596	5597	
3	5598	5599	5600	
3	5601	5602	5603	
3	5604	5605	5606	
3	5607	5608	5609	
3	5610	5611	5612	
3	5613	5614	5615	
3	5616	5617	5618	
3	5619	5620	5621	
3	5622	5623	5624	
3	5625	5626	5627	
3	5628	5629	5630	
3	5631	5632	5633	
3	5634	5635	5636	
3	5637	5638	5639	
3	5640	5641	5642	
3	5643	5644	5645	
3	5646	5647	5648	
3	5649	5650	5651	
3	5652	5653	5654	
3	5655	5656	5657	
3	5658	5659	5660	
3	5661	5662	5663	
3	5664	5665	5666	
3	5667	5668	5669	
3	5670	5671	5672	
3	5673	5674	5675	
3	5676	5677	5678	
3	5679	5680	5681	
3	5682	5683	5684	
3	5685	5686	5687	
3	5688	5689	5690	
3	5691	5692	5693	
3	5694	5695	5696	
3	5697	5698	5699	
3	5700	5701	5702	
3	5703	5704	5705	
3	5706	5707	5708	
3	5709	5710	5711	
3	5712	5713	5714	
3	5715	5716	5717	
3	5718	5719	5720	
3	5721	5722	5723	
3	5724	5725	5726	
3	5727	5728	5729	
3	5730	5731	5732	
3	5733	5734	5735	
3	5736	5737	5738	
3	5739	5740	5741	
3	5742	5743	5744	
3	5745	5746	5747	
3	5748	5749	5750	
3	5751	5752	5753	
3	5754	5755	5756	
3	5757	5758	5759	
3	5760	5761	5762	
3	5763	5764	5765	
3	5766	5767	5768	
3	5769	5770	5771	
3	5772	5773	5774	
3	5775	5776	5777	
3	5778	5779	5780	
3	5781	5782	5783	
3	5784	5785	5786	
3	5787	5788	5789	
3	5790	5791	5792	
3	5793	5794	5795	
3	5796	5797	5798	
3	5799	5800	5801	
3	5802	5803	5804	
3	5805	5806	5807	
3	5808	5809	5810	
3	5811	5812	5813	
3	5814	5815	5816	
3	5817	5818	5819	
3	5820	5821	5822	
3	5823	5824	5825	
3	5826	5827	5828	
3	5829	5830	5831	
3	5832	5833	5834	
3	5835	5836	5837	
3	5838	5839	5840	
3	5841	5842	5843	
3	5844	5845	5846	
3	5847	5848	5849	
3	5850	5851	5852	
3	5853	5854	5855	
3	5856	5857	5858	
3	5859	5860	5861	
3	5862	5863	5864	
3	5865	5866	5867	
3	5868	5869	5870	
3	5871	5872	5873	
3	5874	5875	5876	
3	5877	5878	5879	
3	5880	5881	5882	
3	5883	5884	5885	
3	5886	5887	5888	
3	5889	5890	5891	
3	5892	5893	5894	
3	5895	5896	5897	
3	5898	5899	5900	
3	5901	5902	5903	
3	5904	5905	5906	
3	5907	5908	5909	
3	5910	5911	5912	
3	5913	5914	5915	
3	5916	5917	5918	
3	5919	5920	5921	
3	5922	5923	5924	
3	5925	5926	5927	
3	5928	5929	5930	
3	5931	5932	5933	
3	5934	5935	5936	
3	5937	5938	5939	
3	5940	5941	5942	
3	5943	5944	5945	
3	5946	5947	5948	
3	5949	5950	5951	
3	5952	5953	5954	
3	5955	5956	5957	
3	5958	5959	5960	
3	5961	5962	5963	
3	5964	5965	5966	
3	5967	5968	5969	
3	5970	5971	5972	
3	5973	5974	5975	
3	5976	5977	5978	
3	5979	5980	5981	
3	5982	5983	5984	
3	5985	5986	5987	
3	5988	5989	5990	
3	5991	5992	5993	
3	5994	5995	5996	
3	5997	5998	5999	
3	6000	6001	6002	
3	6003	6004	6005	
3	6006	6007	6008	
3	6009	6010	6011	
3	6012	6013	6014	
3	6015	6016	6017	
3	6018	6019	6020	
3	6021	6022	6023	
3	6024	6025	6026	
3	6027	6028	6029	
3	6030	6031	6032	
3	6033	6034	6035	
3	6036	6037	6038	
3	6039	6040	6041	
3	6042	6043	6044	
3	6045	6046	6047	
3	6048	6049	6050	
3	6051	6052	6053	
3	6054	6055	6056	
3	6057	6058	6059	
3	6060	6061	6062	
3	6063	6064	6065	
3	6066	6067	6068	
3	6069	6070	6071	
3	6072	6073	6074	
3	6075	6076	6077	
3	6078	6079	6080	
3	6081	6082	6083	
3	6084	6085	6086	
3	6087	6088	6089	
3	6090	6091	6092	
3	6093	6094	6095	
3	6096	6097	6098	
3	6099	6100	6101	
3	6102	6103	6104	
3	6105	6106	6107	
3	6108	6109	6110	
3	6111	6112	6113	
3	6114	6115	6116	
3	6117	6118	6119	
3	6120	6121	6122	
3	6123	6124	6125	
3	6126	6127	6128	
3	6129	6130	6131	
3	6132	6133	6134	
3	6135	6136	6137	
3	6138	6139	6140	
3	6141	6142	6143	
3	6144	6145	6146	
3	6147	6148	6149	
3	6150	6151	6152	
3	6153	6154	6155	
3	6156	6157	6158	
3	6159	6160	6161	
3	6162	6163	6164	
3	6165	6166	6167	
3	6168	6169	6170	
3	6171	6172	6173	
3	6174	6175	6176	
3	6177	6178	6179	
3	6180	6181	6182	
3	6183	6184	6185	
3	6186	6187	6188	
3	6189	6190	6191	
3	6192	6193	6194	
3	6195	6196	6197	
3	6198	6199	6200	
3	6201	6202	6203	
3	6204	6205	6206	
3	6207	6208	6209	
3	6210	6211	6212	
3	6213	6214	6215	
3	6216	6217	6218	
3	6219	6220	6221	
3	6222	6223	6224	
3	6225	6226	6227	
3	6228	6229	6230	
3	6231	6232	6233	
3	6234	6235	6236	
3	6237	6238	6239	
3	6240	6241	6242	
3	6243	6244	6245	
3	6246	6247	6248	
3	6249	6250	6251	
3	6252	6253	6254	
3	6255	6256	6257	
3	6258	6259	6260	
3	6261	6262	6263	
3	6264	6265	6266	
3	6267	6268	6269	
3	6270	6271	6272	
3	6273	6274	6275	
3	6276	6277	6278	
3	6279	6280	6281	
3	6282	6283	6284	
3	6285	6286	6287	
3	6288	6289	6290	
3	6291	6292	6293	
3	6294	6295	6296	
3	6297	6298	6299	
3	6300	6301	6302	
3	6303	6304	6305	
3	6306	6307	6308	
3	6309	6310	6311	
3	6312	6313	6314	
3	6315	6316	6317	
3	6318	6319	6320	
3	6321	6322	6323	
3	6324	6325	6326	
3	6327	6328	6329	
3	6330	6331	6332	
3	6333	6334	6335	
3	6336	6337	6338	
3	6339	6340	6341	
3	6342	6343	6344	
3	6345	6346	6347	
3	6348	6349	6350	
3	6351	6352	6353	
3	6354	6355	6356	
3	6357	6358	6359	
3	6360	6361	6362	
3	6363	6364	6365	
3	6366	6367	6368	
3	6369	6370	6371	
3	6372	6373	6374	
3	6375	6376	6377	
3	6378	6379	6380	
3	6381	6382	6383	
3	6384	6385	6386	
3	6387	6388	6389	
3	6390	6391	6392	
3	6393	6394	6395	
3	6396	6397	6398	
3	6399	6400	6401	
3	6402	6403	6404	
3	6405	6406	6407	
3	6408	6409	6410	
3	6411	6412	6413	
3	6414	6415	6416	
3	6417	6418	6419	
3	6420	6421	6422	
3	6423	6424	6425	
3	6426	6427	6428	
3	6429	6430	6431	
3	6432	6433	6434	
3	6435	6436	6437	
3	6438	6439	6440	
3	6441	6442	6443	
3	6444	6445	6446	
3	6447	6448	6449	
3	6450	6451	6452	
3	6453	6454	6455	
3	6456	6457	6458	
3	6459	6460	6461	
3	6462	6463	6464	
3	6465	6466	6467	
3	6468	6469	6470	
3	6471	6472	6473	
3	6474	6475	6476	
3	6477	6478	6479	
3	6480	6481	6482	
3	6483	6484	6485	
3	6486	6487	6488	
3	6489	6490	6491	
3	6492	6493	6494	
3	6495	6496	6497	
3	6498	6499	6500	
3	6501	6502	6503	
3	6504	6505	6506	
3	6507	6508	6509	
3	6510	6511	6512	
3	6513	6514	6515	
3	6516	6517	6518	
3	6519	6520	6521	
3	6522	6523	6524	
3	6525	6526	6527	
3	6528	6529	6530	
3	6531	6532	6533	
3	6534	6535	6536	
3	6537	6538	6539	
3	6540	6541	6542	
3	6543	6544	6545	
3	6546	6547	6548	
3	6549	6550	6551	
3	6552	6553	6554	
3	6555	6556	6557	
3	6558	6559	6560	
3	6561	6562	6563	
3	6564	6565	6566	
3	6567	6568	6569	
3	6570	6571	6572	
3	6573	6574	6575	
3	6576	6577	6578	
3	6579	6580	6581	
3	6582	6583	6584	
3	6585	6586	6587	
3	6588	6589	6590	
3	6591	6592	6593	
3	6594	6595	6596	
3	6597	6598	6599	
3	6600	6601	6602	
3	6603	6604	6605	
3	6606	6607	6608	
3	6609	6610	6611	
3	6612	6613	6614	
3	6615	6616	6617	
3	6618	6619	6620	
3	6621	6622	6623	
3	6624	6625	6626	
3	6627	6628	6629	
3	6630	6631	6632	
3	6633	6634	6635	
3	6636	6637	6638	
3	6639	6640	6641	
3	6642	6643	6644	
3	6645	6646	6647	
3	6648	6649	6650	
3	6651	6652	6653	
3	6654	6655	6656	
3	6657	6658	6659	
3	6660	6661	6662	
3	6663	6664	6665	
3	6666	6667	6668	
3	6669	6670	6671	
3	6672	6673	6674	
3	6675	6676	6677	
3	6678	6679	6680	
3	6681	6682	6683	
3	6684	6685	6686	
3	6687	6688	6689	
3	6690	6691	6692	
3	6693	6694	6695	
3	6696	6697	6698	
3	6699	6700	6701	
3	6702	6703	6704	
3	6705	6706	6707	
3	6708	6709	6710	
3	6711	6712	6713	
3	6714	6715	6716	
3	6717	6718	6719	
3	6720	6721	6722	
3	6723	6724	6725	
3	6726	6727	6728	
3	6729	6730	6731	
3	6732	6733	6734	
3	6735	6736	6737	
3	6738	6739	6740	
3	6741	6742	6743	
3	6744	6745	6746	
3	6747	6748	6749	
3	6750	6751	6752	
3	6753	6754	6755	
3	6756	6757	6758	
3	6759	6760	6761	
3	6762	6763	6764	
3	6765	6766	6767	
3	6768	6769	6770	
3	6771	6772	6773	
3	6774	6775	6776	
3	6777	6778	6779	
3	6780	6781	6782	
3	6783	6784	6785	
3	6786	6787	6788	
3	6789	6790	6791	
3	6792	6793	6794	
3	6795	6796	6797	
3	6798	6799	6800	
3	6801	6802	6803	
3	6804	6805	6806	
3	6807	6808	6809	
3	6810	6811	6812	
3	6813	6814	6815	
3	6816	6817	6818	
3	6819	6820	6821	
3	6822	6823	6824	
3	6825	6826	6827	
3	6828	6829	6830	
3	6831	6832	6833	
3	6834	6835	6836	
3	6837	6838	6839	
3	6840	6841	6842	
3	6843	6844	6845	
3	6846	6847	6848	
3	6849	6850	6851	
3	6852	6853	6854	
3	6855	6856	6857	
3	6858	6859	6860	
3	6861	6862	6863	
3	6864	6865	6866	
3	6867	6868	6869	
3	6870	6871	6872	
3	6873	6874	6875	
3	6876	6877	6878	
3	6879	6880	6881	
3	6882	6883	6884	
3	6885	6886	6887	
3	6888	6889	6890	
3	6891	6892	6893	
3	6894	6895	6896	
3	6897	6898	6899	
3	6900	6901	6902	
3	6903	6904	6905	
3	6906	6907	6908	
3	6909	6910	6911	
3	6912	6913	6914	
3	6915	6916	6917	
3	6918	6919	6920	
3	6921	6922	6923	
3	6924	6925	6926	
3	6927	6928	6929	
3	6930	6931	6932	
3	6933	6934	6935	
3	6936	6937	6938	
3	6939	6940	6941	
3	6942	6943	6944	
3	6945	6946	6947	
3	6948	6949	6950	
3	6951	6952	6953	
3	6954	6955	6956	
3	6957	6958	6959	
3	6960	6961	6962	
3	6963	6964	6965	
3	6966	6967	6968	
3	6969	6970	6971	
3	6972	6973	6974	
3	6975	6976	6977	
3	6978	6979	6980	
3	6981	6982	6983	
3	6984	6985	6986	
3	6987	6988	6989	
3	6990	6991	6992	
3	6993	6994	6995	
3	6996	6997	6998	
3	6999	7000	7001	
3	7002	7003	7004	
3	7005	7006	7007	
3	7008	7009	7010	
3	7011	7012	7013	
3	7014	7015	7016	
3	7017	7018	7019	
3	7020	7021	7022	
3	7023	7024	7025	
3	7026	7027	7028	
3	7029	7030	7031	
3	7032	7033	7034	
3	7035	7036	7037	
3	7038	7039	7040	
3	7041	7042	7043	
3	7044	7045	7046	
3	7047	7048	7049	
3	7050	7051	7052	
3	7053	7054	7055	
3	7056	7057	7058	
3	7059	7060	7061	
3	7062	7063	7064	
3	7065	7066	7067	
3	7068	7069	7070	
3	7071	7072	7073	
3	7074	7075	7076	
3	7077	7078	7079	
3	7080	7081	7082	
3	7083	7084	7085	
3	7086	7087	7088	
3	7089	7090	7091	
3	7092	7093	7094	
3	7095	7096	7097	
3	7098	7099	7100	
3	7101	7102	7103	
3	7104	7105	7106	
3	7107	7108	7109	
3	7110	7111	7112	
3	7113	7114	7115	
3	7116	7117	7118	
3	7119	7120	7121	
3	7122	7123	7124	
3	7125	7126	7127	
3	7128	7129	7130	
3	7131	7132	7133	
3	7134	7135	7136	
3	7137	7138	7139	
3	7140	7141	7142	
3	7143	7144	7145	
3	7146	7147	7148	
3	7149	7150	7151	
3	7152	7153	7154	
3	7155	7156	7157	
3	7158	7159	7160	
3	7161	7162	7163	
3	7164	7165	7166	
3	7167	7168	7169	
3	7170	7171	7172	
3	7173	7174	7175	
3	7176	7177	7178	
3	7179	7180	7181	
3	7182	7183	7184	
3	7185	7186	7187	
3	7188	7189	7190	
3	7191	7192	7193	
3	7194	7195	7196	
3	7197	7198	7199	
3	7200	7201	7202	
3	7203	7204	7205	
3	7206	7207	7208	
3	7209	7210	7211	
3	7212	7213	7214	
3	7215	7216	7217	
3	7218	7219	7220	
3	7221	7222	7223	
3	7224	7225	7226	
3	7227	7228	7229	
3	7230	7231	7232	
3	7233	7234	7235	
3	7236	7237	7238	
3	7239	7240	7241	
3	7242	7243	7244	
3	7245	7246	7247	
3	7248	7249	7250	
3	7251	7252	7253	
3	7254	7255	7256	
3	7257	7258	7259	
3	7260	7261	7262	
3	7263	7264	7265	
3	7266	7267	7268	
3	7269	7270	7271	
3	7272	7273	7274	
3	7275	7276	7277	
3	7278	7279	7280	
3	7281	7282	7283	
3	7284	7285	7286	
3	7287	7288	7289	
3	7290	7291	7292	
3	7293	7294	7295	
3	7296	7297	7298	
3	7299	7300	7301	
3	7302	7303	7304	
3	7305	7306	7307	
3	7308	7309	7310	
3	7311	7312	7313	
3	7314	7315	7316	
3	7317	7318	7319	
3	7320	7321	7322	
3	7323	7324	7325	
3	7326	7327	7328	
3	7329	7330	7331	
3	7332	7333	7334	
3	7335	7336	7337	
3	7338	7339	7340	
3	7341	7342	7343	
3	7344	7345	7346	
3	7347	7348	7349	
3	7350	7351	7352	
3	7353	7354	7355	
3	7356	7357	7358	
3	7359	7360	7361	
3	7362	7363	7364	
3	7365	7366	7367	
3	7368	7369	7370	
3	7371	7372	7373	
3	7374	7375	7376	
3	7377	7378	7379	
3	7380	7381	7382	
3	7383	7384	7385	
3	7386	7387	7388	
3	7389	7390	7391	
3	7392	7393	7394	
3	7395	7396	7397	
3	7398	7399	7400	
3	7401	7402	7403	
3	7404	7405	7406	
3	7407	7408	7409	
3	7410	7411	7412	
3	7413	7414	7415	
3	7416	7417	7418	
3	7419	7420	7421	
3	7422	7423	7424	
3	7425	7426	7427	
3	7428	7429	7430	
3	7431	7432	7433	
3	7434	7435	7436	
3	7437	7438	7439	
3	7440	7441	7442	
3	7443	7444	7445	
3	7446	7447	7448	
3	7449	7450	7451	
3	7452	7453	7454	
3	7455	7456	7457	
3	7458	7459	7460	
3	7461	7462	7463	
3	7464	7465	7466	
3	7467	7468	7469	
3	7470	7471	7472	
3	7473	7474	7475	
3	7476	7477	7478	
3	7479	7480	7481	
3	7482	7483	7484	
3	7485	7486	7487	
3	7488	7489	7490	
3	7491	7492	7493	
3	7494	7495	7496	
3	7497	7498	7499	
3	7500	7501	7502	
3	7503	7504	7505	
3	7506	7507	7508	
3	7509	7510	7511	
3	7512	7513	7514	
3	7515	7516	7517	
3	7518	7519	7520	
3	7521	7522	7523	
3	7524	7525	7526	
3	7527	7528	7529	
3	7530	7531	7532	
3	7533	7534	7535	
3	7536	7537	7538	
3	7539	7540	7541	
3	7542	7543	7544	
3	7545	7546	7547	
3	7548	7549	7550	
3	7551	7552	7553	
3	7554	7555	7556	
3	7557	7558	7559	
3	7560	7561	7562	
3	7563	7564	7565	
3	7566	7567	7568	
3	7569	7570	7571	
3	7572	7573	7574	
3	7575	7576	7577	
3	7578	7579	7580	
3	7581	7582	7583	
3	7584	7585	7586	
3	7587	7588	7589	
3	7590	7591	7592	
3	7593	7594	7595	
3	7596	7597	7598	
3	7599	7600	7601	
3	7602	7603	7604	
3	7605	7606	7607	
3	7608	7609	7610	
3	7611	7612	7613	
3	7614	7615	7616	
3	7617	7618	7619	
3	7620	7621	7622	
3	7623	7624	7625	
3	7626	7627	7628	
3	7629	7630	7631	
3	7632	7633	7634	
3	7635	7636	7637	
3	7638	7639	7640	
3	7641	7642	7643	
3	7644	7645	7646	
3	7647	7648	7649	
3	7650	7651	7652	
3	7653	7654	7655	
3	7656	7657	7658	
3	7659	7660	7661	
3	7662	7663	7664	
3	7665	7666	7667	
3	7668	7669	7670	
3	7671	7672	7673	
3	7674	7675	7676	
3	7677	7678	7679	
3	7680	7681	7682	
3	7683	7684	7685	
3	7686	7687	7688	
3	7689	7690	7691	
3	7692	7693	7694	
3	7695	7696	7697	
3	7698	7699	7700	
3	7701	7702	7703	
3	7704	7705	7706	
3	7707	7708	7709	
3	7710	7711	7712	
3	7713	7714	7715	
3	7716	7717	7718	
3	7719	7720	7721	
3	7722	7723	7724	
3	7725	7726	7727	
3	7728	7729	7730	
3	7731	7732	7733	
3	7734	7735	7736	
3	7737	7738	7739	
3	7740	7741	7742	
3	7743	7744	7745	
3	7746	7747	7748	
3	7749	7750	7751	
3	7752	7753	7754	
3	7755	7756	7757	
3	7758	7759	7760	
3	7761	7762	7763	
3	7764	7765	7766	
3	7767	7768	7769	
3	7770	7771	7772	
3	7773	7774	7775	
3	7776	7777	7778	
3	7779	7780	7781	
3	7782	7783	7784	
3	7785	7786	7787	
3	7788	7789	7790	
3	7791	7792	7793	
3	7794	7795	7796	
3	7797	7798	7799	
3	7800	7801	7802	
3	7803	7804	7805	
3	7806	7807	7808	
3	7809	7810	7811	
3	7812	7813	7814	
3	7815	7816	7817	
3	7818	7819	7820	
3	7821	7822	7823	
3	7824	7825	7826	
3	7827	7828	7829	
3	7830	7831	7832	
3	7833	7834	7835	
3	7836	7837	7838	
3	7839	7840	7841	
3	7842	7843	7844	
3	7845	7846	7847	
3	7848	7849	7850	
3	7851	7852	7853	
3	7854	7855	7856	
3	7857	7858	7859	
3	7860	7861	7862	
3	7863	7864	7865	
3	7866	7867	7868	
3	7869	7870	7871	
3	7872	7873	7874	
3	7875	7876	7877	
3	7878	7879	7880	
3	7881	7882	7883	
3	7884	7885	7886	
3	7887	7888	7889	
3	7890	7891	7892	
3	7893	7894	7895	
3	7896	7897	7898	
3	7899	7900	7901	
3	7902	7903	7904	
3	7905	7906	7907	
3	7908	7909	7910	
3	7911	7912	7913	
3	7914	7915	7916	
3	7917	7918	7919	
3	7920	7921	7922	
3	7923	7924	7925	
3	7926	7927	7928	
3	7929	7930	7931	
3	7932	7933	7934	
3	7935	7936	7937	
3	7938	7939	7940	
3	7941	7942	7943	
3	7944	7945	7946	
3	7947	7948	7949	
3	7950	7951	7952	
3	7953	7954	7955	
3	7956	7957	7958	
3	7959	7960	7961	
3	7962	7963	7964	
3	7965	7966	7967	
3	7968	7969	7970	
3	7971	7972	7973	
3	7974	7975	7976	
3	7977	7978	7979	
3	7980	7981	7982	
3	7983	7984	7985	
3	7986	7987	7988	
3	7989	7990	7991	
3	7992	7993	7994	
3	7995	7996	7997	
3	7998	7999	8000	
3	8001	8002	8003	
3	8004	8005	8006	
3	8007	8008	8009	
3	8010	8011	8012	
3	8013	8014	8015	
3	8016	8017	8018	
3	8019	8020	8021	
3	8022	8023	8024	
3	8025	8026	8027	
3	8028	8029	8030	
3	8031	8032	8033	
3	8034	8035	8036	
3	8037	8038	8039	
3	8040	8041	8042	
3	8043	8044	8045	
3	8046	8047	8048	
3	8049	8050	8051	
3	8052	8053	8054	
3	8055	8056	8057	
3	8058	8059	8060	
3	8061	8062	8063	
3	8064	8065	8066	
3	8067	8068	8069	
3	8070	8071	8072	
3	8073	8074	8075	
3	8076	8077	8078	
3	8079	8080	8081	
3	8082	8083	8084	
3	8085	8086	8087	
3	8088	8089	8090	
3	8091	8092	8093	
3	8094	8095	8096	
3	8097	8098	8099	
3	8100	8101	8102	
3	8103	8104	8105	
3	8106	8107	8108	
3	8109	8110	8111	
3	8112	8113	8114	
3	8115	8116	8117	
3	8118	8119	8120	
3	8121	8122	8123	
3	8124	8125	8126	
3	8127	8128	8129	
3	8130	8131	8132	
3	8133	8134	8135	
3	8136	8137	8138	
3	8139	8140	8141	
3	8142	8143	8144	
3	8145	8146	8147	
3	8148	8149	8150	
3	8151	8152	8153	
3	8154	8155	8156	
3	8157	8158	8159	
3	8160	8161	8162	
3	8163	8164	8165	
3	8166	8167	8168	
3	8169	8170	8171	
3	8172	8173	8174	
3	8175	8176	8177	
3	8178	8179	8180	
3	8181	8182	8183	
3	8184	8185	8186	
3	8187	8188	8189	
3	8190	8191	8192	
3	8193	8194	8195	
3	8196	8197	8198	
3	8199	8200	8201	
3	8202	8203	8204	
3	8205	8206	8207	
3	8208	8209	8210	
3	8211	8212	8213	
3	8214	8215	8216	
3	8217	8218	8219	
3	8220	8221	8222	
3	8223	8224	8225	
3	8226	8227	8228	
3	8229	8230	8231	
3	8232	8233	8234	
3	8235	8236	8237	
3	8238	8239	8240	
3	8241	8242	8243	
3	8244	8245	8246	
3	8247	8248	8249	
3	8250	8251	8252	
3	8253	8254	8255	
3	8256	8257	8258	
3	8259	8260	8261	
3	8262	8263	8264	
3	8265	8266	8267	
3	8268	8269	8270	
3	8271	8272	8273	
3	8274	8275	8276	
3	8277	8278	8279	
3	8280	8281	8282	
3	8283	8284	8285	
3	8286	8287	8288	
3	8289	8290	8291	
3	8292	8293	8294	
3	8295	8296	8297	
3	8298	8299	8300	
3	8301	8302	8303	
3	8304	8305	8306	
3	8307	8308	8309	
3	8310	8311	8312	
3	8313	8314	8315	
3	8316	8317	8318	
3	8319	8320	8321	
3	8322	8323	8324	
3	8325	8326	8327	
3	8328	8329	8330	
3	8331	8332	8333	
3	8334	8335	8336	
3	8337	8338	8339	
3	8340	8341	8342	
3	8343	8344	8345	
3	8346	8347	8348	
3	8349	8350	8351	
3	8352	8353	8354	
3	8355	8356	8357	
3	8358	8359	8360	
3	8361	8362	8363	
3	8364	8365	8366	
3	8367	8368	8369	
3	8370	8371	8372	
3	8373	8374	8375	
3	8376	8377	8378	
3	8379	8380	8381	
3	8382	8383	8384	
3	8385	8386	8387	
3	8388	8389	8390	
3	8391	8392	8393	
3	8394	8395	8396	
3	8397	8398	8399	
3	8400	8401	8402	
3	8403	8404	8405	
3	8406	8407	8408	
3	8409	8410	8411	
3	8412	8413	8414	
3	8415	8416	8417	
3	8418	8419	8420	
3	8421	8422	8423	
3	8424	8425	8426	
3	8427	8428	8429	
3	8430	8431	8432	
3	8433	8434	8435	
3	8436	8437	8438	
3	8439	8440	8441	
3	8442	8443	8444	
3	8445	8446	8447	
3	8448	8449	8450	
3	8451	8452	8453	
3	8454	8455	8456	
3	8457	8458	8459	
3	8460	8461	8462	
3	8463	8464	8465	
3	8466	8467	8468	
3	8469	8470	8471	
3	8472	8473	8474	
3	8475	8476	8477	
3	8478	8479	8480	
3	8481	8482	8483	
3	8484	8485	8486	
3	8487	8488	8489	
3	8490	8491	8492	
3	8493	8494	8495	
3	8496	8497	8498	
3	8499	8500	8501	
3	8502	8503	8504	
3	8505	8506	8507	
3	8508	8509	8510	
3	8511	8512	8513	
3	8514	8515	8516	
3	8517	8518	8519	
3	8520	8521	8522	
3	8523	8524	8525	
3	8526	8527	8528	
3	8529	8530	8531	
3	8532	8533	8534	
3	8535	8536	8537	
3	8538	8539	8540	
3	8541	8542	8543	
3	8544	8545	8546	
3	8547	8548	8549	
3	8550	8551	8552	
3	8553	8554	8555	
3	8556	8557	8558	
3	8559	8560	8561	
3	8562	8563	8564	
3	8565	8566	8567	
3	8568	8569	8570	
3	8571	8572	8573	
3	8574	8575	8576	
3	8577	8578	8579	
3	8580	8581	8582	
3	8583	8584	8585	
3	8586	8587	8588	
3	8589	8590	8591	
3	8592	8593	8594	
3	8595	8596	8597	
3	8598	8599	8600	
3	8601	8602	8603	
3	8604	8605	8606	
3	8607	8608	8609	
3	8610	8611	8612	
3	8613	8614	8615	
3	8616	8617	8618	
3	8619	8620	8621	
3	8622	8623	8624	
3	8625	8626	8627	
3	8628	8629	8630	
3	8631	8632	8633	
3	8634	8635	8636	
3	8637	8638	8639	
3	8640	8641	8642	
3	8643	8644	8645	
3	8646	8647	8648	
3	8649	8650	8651	
3	8652	8653	8654	
3	8655	8656	8657	
3	8658	8659	8660	
3	8661	8662	8663	
3	8664	8665	8666	
3	8667	8668	8669	
3	8670	8671	8672	
3	8673	8674	8675	
3	8676	8677	8678	
3	8679	8680	8681	
3	8682	8683	8684	
3	8685	8686	8687	
3	8688	8689	8690	
3	8691	8692	8693	
3	8694	8695	8696	
3	8697	8698	8699	
3	8700	8701	8702	
3	8703	8704	8705	
3	8706	8707	8708	
3	8709	8710	8711	
3	8712	8713	8714	
3	8715	8716	8717	
3	8718	8719	8720	
3	8721	8722	8723	
3	8724	8725	8726	
3	8727	8728	8729	
3	8730	8731	8732	
3	8733	8734	8735	
3	8736	8737	8738	
3	8739	8740	8741	
3	8742	8743	8744	
3	8745	8746	8747	
3	8748	8749	8750	
3	8751	8752	8753	
3	8754	8755	8756	
3	8757	8758	8759	
3	8760	8761	8762	
3	8763	8764	8765	
3	8766	8767	8768	
3	8769	8770	8771	
3	8772	8773	8774	
3	8775	8776	8777	
3	8778	8779	8780	
3	8781	8782	8783	
3	8784	8785	8786	
3	8787	8788	8789	
3	8790	8791	8792	
3	8793	8794	8795	
3	8796	8797	8798	
3	8799	8800	8801	
3	8802	8803	8804	
3	8805	8806	8807	
3	8808	8809	8810	
3	8811	8812	8813	
3	8814	8815	8816	
3	8817	8818	8819	
3	8820	8821	8822	
3	8823	8824	8825	
3	8826	8827	8828	
3	8829	8830	8831	
3	8832	8833	8834	
3	8835	8836	8837	
3	8838	8839	8840	
3	8841	8842	8843	
3	8844	8845	8846	
3	8847	8848	8849	
3	8850	8851	8852	
3	8853	8854	8855	
3	8856	8857	8858	
3	8859	8860	8861	
3	8862	8863	8864	
3	8865	8866	8867	
3	8868	8869	8870	
3	8871	8872	8873	
3	8874	8875	8876	
3	8877	8878	8879	
3	8880	8881	8882	
3	8883	8884	8885	
3	8886	8887	8888	
3	8889	8890	8891	
3	8892	8893	8894	
3	8895	8896	8897	
3	8898	8899	8900	
3	8901	8902	8903	
3	8904	8905	8906	
3	8907	8908	8909	
3	8910	8911	8912	
3	8913	8914	8915	
3	8916	8917	8918	
3	8919	8920	8921	
3	8922	8923	8924	
3	8925	8926	8927	
3	8928	8929	8930	
3	8931	8932	8933	
3	8934	8935	8936	
3	8937	8938	8939	
3	8940	8941	8942	
3	8943	8944	8945	
3	8946	8947	8948	
3	8949	8950	8951	
3	8952	8953	8954	
3	8955	8956	8957	
3	8958	8959	8960	
3	8961	8962	8963	
3	8964	8965	8966	
3	8967	8968	8969	
3	8970	8971	8972	
3	8973	8974	8975	
3	8976	8977	8978	
3	8979	8980	8981	
3	8982	8983	8984	
3	8985	8986	8987	
3	8988	8989	8990	
3	8991	8992	8993	
3	8994	8995	8996	
3	8997	8998	8999	
3	9000	9001	9002	
3	9003	9004	9005	
3	9006	9007	9008	
3	9009	9010	9011	
3	9012	9013	9014	
3	9015	9016	9017	
3	9018	9019	9020	
3	9021	9022	9023	
3	9024	9025	9026	
3	9027	9028	9029	
3	9030	9031	9032	
3	9033	9034	9035	
3	9036	9037	9038	
3	9039	9040	9041	
3	9042	9043	9044	
3	9045	9046	9047	
3	9048	9049	9050	
3	9051	9052	9053	
3	9054	9055	9056	
3	9057	9058	9059	
3	9060	9061	9062	
3	9063	9064	9065	
3	9066	9067	9068	
3	9069	9070	9071	
3	9072	9073	9074	
3	9075	9076	9077	
3	9078	9079	9080	
3	9081	9082	9083	
3	9084	9085	9086	
3	9087	9088	9089	
3	9090	9091	9092	
3	9093	9094	9095	
3	9096	9097	9098	
3	9099	9100	9101	
3	9102	9103	9104	
3	9105	9106	9107	
3	9108	9109	9110	
3	9111	9112	9113	
3	9114	9115	9116	
3	9117	9118	9119	
3	9120	9121	9122	
3	9123	9124	9125	
3	9126	9127	9128	
3	9129	9130	9131	
3	9132	9133	9134	
3	9135	9136	9137	
3	9138	9139	9140	
3	9141	9142	9143	
3	9144	9145	9146	
3	9147	9148	9149	
3	9150	9151	9152	
3	9153	9154	9155	
3	9156	9157	9158	
3	9159	9160	9161	
3	9162	9163	9164	
3	9165	9166	9167	
3	9168	9169	9170	
3	9171	9172	9173	
3	9174	9175	9176	
3	9177	9178	9179	
3	9180	9181	9182	
3	9183	9184	9185	
3	9186	9187	9188	
3	9189	9190	9191	
3	9192	9193	9194	
3	9195	9196	9197	
3	9198	9199	9200	
3	9201	9202	9203	
3	9204	9205	9206	
3	9207	9208	9209	
3	9210	9211	9212	
3	9213	9214	9215	
3	9216	9217	9218	
3	9219	9220	9221	
3	9222	9223	9224	
3	9225	9226	9227	
3	9228	9229	9230	
3	9231	9232	9233	
3	9234	9235	9236	
3	9237	9238	9239	
3	9240	9241	9242	
3	9243	9244	9245	
3	9246	9247	9248	
3	9249	9250	9251	
3	9252	9253	9254	
3	9255	9256	9257	
3	9258	9259	9260	
3	9261	9262	9263	
3	9264	9265	9266	
3	9267	9268	9269	
3	9270	9271	9272	
3	9273	9274	9275	
3	9276	9277	9278	
3	9279	9280	9281	
3	9282	9283	9284	
3	9285	9286	9287	
3	9288	9289	9290	
3	9291	9292	9293	
3	9294	9295	9296	
3	9297	9298	9299	
3	9300	9301	9302	
3	9303	9304	9305	
3	9306	9307	9308	
3	9309	9310	9311	
3	9312	9313	9314	
3	9315	9316	9317	
3	9318	9319	9320	
3	9321	9322	9323	
3	9324	9325	9326	
3	9327	9328	9329	
3	9330	9331	9332	
3	9333	9334	9335	
3	9336	9337	9338	
3	9339	9340	9341	
3	9342	9343	9344	
3	9345	9346	9347	
3	9348	9349	9350	
3	9351	9352	9353	
3	9354	9355	9356	
3	9357	9358	9359	
3	9360	9361	9362	
3	9363	9364	9365	
3	9366	9367	9368	
3	9369	9370	9371	
3	9372	9373	9374	
3	9375	9376	9377	
3	9378	9379	9380	
3	9381	9382	9383	
3	9384	9385	9386	
3	9387	9388	9389	
3	9390	9391	9392	
3	9393	9394	9395	
3	9396	9397	9398	
3	9399	9400	9401	
3	9402	9403	9404	
3	9405	9406	9407	
3	9408	9409	9410	
3	9411	9412	9413	
3	9414	9415	9416	
3	9417	9418	9419	
3	9420	9421	9422	
3	9423	9424	9425	
3	9426	9427	9428	
3	9429	9430	9431	
3	9432	9433	9434	
3	9435	9436	9437	
3	9438	9439	9440	
3	9441	9442	9443	
3	9444	9445	9446	
3	9447	9448	9449	
3	9450	9451	9452	
3	9453	9454	9455	
3	9456	9457	9458	
3	9459	9460	9461	
3	9462	9463	9464	
3	9465	9466	9467	
3	9468	9469	9470	
3	9471	9472	9473	
3	9474	9475	9476	
3	9477	9478	9479	
3	9480	9481	9482	
3	9483	9484	9485	
3	9486	9487	9488	
3	9489	9490	9491	
3	9492	9493	9494	
3	9495	9496	9497	
3	9498	9499	9500	
3	9501	9502	9503	
3	9504	9505	9506	
3	9507	9508	9509	
3	9510	9511	9512	
3	9513	9514	9515	
3	9516	9517	9518	
3	9519	9520	9521	
3	9522	9523	9524	
3	9525	9526	9527	
3	9528	9529	9530	
3	9531	9532	9533	
3	9534	9535	9536	
3	9537	9538	9539	
3	9540	9541	9542	
3	9543	9544	9545	
3	9546	9547	9548	
3	9549	9550	9551	
3	9552	9553	9554	
3	9555	9556	9557	
3	9558	9559	9560	
3	9561	9562	9563	
3	9564	9565	9566	
3	9567	9568	9569	
3	9570	9571	9572	
3	9573	9574	9575	
3	9576	9577	9578	
3	9579	9580	9581	
3	9582	9583	9584	
3	9585	9586	9587	
3	9588	9589	9590	
3	9591	9592	9593	
3	9594	9595	9596	
3	9597	9598	9599	
3	9600	9601	9602	
3	9603	9604	9605	
3	9606	9607	9608	
3	9609	9610	9611	
3	9612	9613	9614	
3	9615	9616	9617	
3	9618	9619	9620	
3	9621	9622	9623	
3	9624	9625	9626	
3	9627	9628	9629	
3	9630	9631	9632	
3	9633	9634	9635	
3	9636	9637	9638	
3	9639	9640	9641	
3	9642	9643	9644	
3	9645	9646	9647	
3	9648	9649	9650	
3	9651	9652	9653	
3	9654	9655	9656	
3	9657	9658	9659	
3	9660	9661	9662	
3	9663	9664	9665	
3	9666	9667	9668	
3	9669	9670	9671	
3	9672	9673	9674	
3	9675	9676	9677	
3	9678	9679	9680	
3	9681	9682	9683	
3	9684	9685	9686	
3	9687	9688	9689	
3	9690	9691	9692	
3	9693	9694	9695	
3	9696	9697	9698	
3	9699	9700	9701	
3	9702	9703	9704	
3	9705	9706	9707	
3	9708	9709	9710	
3	9711	9712	9713	
3	9714	9715	9716	
3	9717	9718	9719	
3	9720	9721	9722	
3	9723	9724	9725	
3	9726	9727	9728	
3	9729	9730	9731	
3	9732	9733	9734	
3	9735	9736	9737	
3	9738	9739	9740	
3	9741	9742	9743	
3	9744	9745	9746	
3	9747	9748	9749	
3	9750	9751	9752	
3	9753	9754	9755	
3	9756	9757	9758	
3	9759	9760	9761	
3	9762	9763	9764	
3	9765	9766	9767	
3	9768	9769	9770	
3	9771	9772	9773	
3	9774	9775	9776	
3	9777	9778	9779	
3	9780	9781	9782	
3	9783	9784	9785	
3	9786	9787	9788	
3	9789	9790	9791	
3	9792	9793	9794	
3	9795	9796	9797	
3	9798	9799	9800	
3	9801	9802	9803	
3	9804	9805	9806	
3	9807	9808	9809	
3	9810	9811	9812	
3	9813	9814	9815	
3	9816	9817	9818	
3	9819	9820	9821	
3	9822	9823	9824	
3	9825	9826	9827	
3	9828	9829	9830	
3	9831	9832	9833	
3	9834	9835	9836	
3	9837	9838	9839	
3	9840	9841	9842	
3	9843	9844	9845	
3	9846	9847	9848	
3	9849	9850	9851	
3	9852	9853	9854	
3	9855	9856	9857	
3	9858	9859	9860	
3	9861	9862	9863	
3	9864	9865	9866	
3	9867	9868	9869	
3	9870	9871	9872	
3	9873	9874	9875	
3	9876	9877	9878	
3	9879	9880	9881	
3	9882	9883	9884	
3	9885	9886	9887	
3	9888	9889	9890	
3	9891	9892	9893	
3	9894	9895	9896	
3	9897	9898	9899	
3	9900	9901	9902	
3	9903	9904	9905	
3	9906	9907	9908	
3	9909	9910	9911	
3	9912	9913	9914	
3	9915	9916	9917	
3	9918	9919	9920	
3	9921	9922	9923	
3	9924	9925	9926	
3	9927	9928	9929	
3	9930	9931	9932	
3	9933	9934	9935	
3	9936	9937	9938	
3	9939	9940	9941	
3	9942	9943	9944	
3	9945	9946	9947	
3	9948	9949	9950	
3	9951	9952	9953	
3	9954	9955	9956	
3	9957	9958	9959	
3	9960	9961	9962	
3	9963	9964	9965	
3	9966	9967	9968	
3	9969	9970	9971	
3	9972	9973	9974	
3	9975	9976	9977	
3	9978	9979	9980	
3	9981	9982	9983	
3	9984	9985	9986	
3	9987	9988	9989	
3	9990	9991	9992	
3	9993	9994	9995	
3	9996	9997	9998	
3	9999	10000	10001	
3	10002	10003	10004	
3	10005	10006	10007	
3	10008	10009	10010	
3	10011	10012	10013	
3	10014	10015	10016	
3	10017	10018	10019	
3	10020	10021	10022	
3	10023	10024	10025	
3	10026	10027	10028	
3	10029	10030	10031	
3	10032	10033	10034	
3	10035	10036	10037	
3	10038	10039	10040	
3	10041	10042	10043	
3	10044	10045	10046	
3	10047	10048	10049	
3	10050	10051	10052	
3	10053	10054	10055	
3	10056	10057	10058	
3	10059	10060	10061	
3	10062	10063	10064	
3	10065	10066	10067	
3	10068	10069	10070	
3	10071	10072	10073	
3	10074	10075	10076	
3	10077	10078	10079	
3	10080	10081	10082	
3	10083	10084	10085	
3	10086	10087	10088	
3	10089	10090	10091	
3	10092	10093	10094	
3	10095	10096	10097	
3	10098	10099	10100	
3	10101	10102	10103	
3	10104	10105	10106	
3	10107	10108	10109	
3	10110	10111	10112	
3	10113	10114	10115	
3	10116	10117	10118	
3	10119	10120	10121	
3	10122	10123	10124	
3	10125	10126	10127	
3	10128	10129	10130	
3	10131	10132	10133	
3	10134	10135	10136	
3	10137	10138	10139	
3	10140	10141	10142	
3	10143	10144	10145	
3	10146	10147	10148	
3	10149	10150	10151	
3	10152	10153	10154	
3	10155	10156	10157	
3	10158	10159	10160	
3	10161	10162	10163	
3	10164	10165	10166	
3	10167	10168	10169	
3	10170	10171	10172	
3	10173	10174	10175	
3	10176	10177	10178	
3	10179	10180	10181	
3	10182	10183	10184	
3	10185	10186	10187	
3	10188	10189	10190	
3	10191	10192	10193	
3	10194	10195	10196	
3	10197	10198	10199	
3	10200	10201	10202	
3	10203	10204	10205	
3	10206	10207	10208	
3	10209	10210	10211	
3	10212	10213	10214	
3	10215	10216	10217	
3	10218	10219	10220	
3	10221	10222	10223	
3	10224	10225	10226	
3	10227	10228	10229	
3	10230	10231	10232	
3	10233	10234	10235	
3	10236	10237	10238	
3	10239	10240	10241	
3	10242	10243	10244	
3	10245	10246	10247	
3	10248	10249	10250	
3	10251	10252	10253	
3	10254	10255	10256	
3	10257	10258	10259	
3	10260	10261	10262	
3	10263	10264	10265	
3	10266	10267	10268	
3	10269	10270	10271	
3	10272	10273	10274	
3	10275	10276	10277	
3	10278	10279	10280	
3	10281	10282	10283	
3	10284	10285	10286	
3	10287	10288	10289	
3	10290	10291	10292	
3	10293	10294	10295	
3	10296	10297	10298	
3	10299	10300	10301	
3	10302	10303	10304	
3	10305	10306	10307	
3	10308	10309	10310	
3	10311	10312	10313	
3	10314	10315	10316	
3	10317	10318	10319	
3	10320	10321	10322	
3	10323	10324	10325	
3	10326	10327	10328	
3	10329	10330	10331	
3	10332	10333	10334	
3	10335	10336	10337	
3	10338	10339	10340	
3	10341	10342	10343	
3	10344	10345	10346	
3	10347	10348	10349	
3	10350	10351	10352	
3	10353	10354	10355	
3	10356	10357	10358	
3	10359	10360	10361	
3	10362	10363	10364	
3	10365	10366	10367	
3	10368	10369	10370	
3	10371	10372	10373	
3	10374	10375	10376	
3	10377	10378	10379	
3	10380	10381	10382	
3	10383	10384	10385	
3	10386	10387	10388	
3	10389	10390	10391	
3	10392	10393	10394	
3	10395	10396	10397	
3	10398	10399	10400	
3	10401	10402	10403	
3	10404	10405	10406	
3	10407	10408	10409	
3	10410	10411	10412	
3	10413	10414	10415	
3	10416	10417	10418	
3	10419	10420	10421	
3	10422	10423	10424	
3	10425	10426	10427	
3	10428	10429	10430	
3	10431	10432	10433	
3	10434	10435	10436	
3	10437	10438	10439	
3	10440	10441	10442	
3	10443	10444	10445	
3	10446	10447	10448	
3	10449	10450	10451	
3	10452	10453	10454	
3	10455	10456	10457	
3	10458	10459	10460	
3	10461	10462	10463	
3	10464	10465	10466	
3	10467	10468	10469	
3	10470	10471	10472	
3	10473	10474	10475	
3	10476	10477	10478	
3	10479	10480	10481	
3	10482	10483	10484	
3	10485	10486	10487	
3	10488	10489	10490	
3	10491	10492	10493	
3	10494	10495	10496	
3	10497	10498	10499	
3	10500	10501	10502	
3	10503	10504	10505	
3	10506	10507	10508	
3	10509	10510	10511	
3	10512	10513	10514	
3	10515	10516	10517	
3	10518	10519	10520	
3	10521	10522	10523	
3	10524	10525	10526	
3	10527	10528	10529	
3	10530	10531	10532	
3	10533	10534	10535	
3	10536	10537	10538	
3	10539	10540	10541	
3	10542	10543	10544	
3	10545	10546	10547	
3	10548	10549	10550	
3	10551	10552	10553	
3	10554	10555	10556	
3	10557	10558	10559	
3	10560	10561	10562	
3	10563	10564	10565	
3	10566	10567	10568	
3	10569	10570	10571	
3	10572	10573	10574	
3	10575	10576	10577	
3	10578	10579	10580	
3	10581	10582	10583	
3	10584	10585	10586	
3	10587	10588	10589	
3	10590	10591	10592	
3	10593	10594	10595	
3	10596	10597	10598	
3	10599	10600	10601	
3	10602	10603	10604	
3	10605	10606	10607	
3	10608	10609	10610	
3	10611	10612	10613	
CELL_TYPES 3538
5
5
5
5
5
5
5
5
5
5
5
5
5
5
5
5
5
5
5
5
5
5
5
5
5
5
5
5
5
5
5
5
5
5
5
5
5
5
5
5
5
5
5
5
5
5
5
5
5
5
5
5
5
5
5
5
5
5
5
5
5
5
5
5
5
5
5
5
5
5
5
5
5
5
5
5
5
5
5
5
5
5
5
5
5
5
5
5
5
5
5
5
5
5
5
5
5
5
5
5
5
5
5
5
5
5
5
5
5
5
5
5
5
5
5
5
5
5
5
5
5
5
5
5
5
5
5
5
5
5
5
5
5
5
5
5
5
5
5
5
5
5
5
5
5
5
5
5
5
5
5
5
5
5
5
5
5
5
5
5
5
5
5
5
5
5
5
5
5
5
5
5
5
5
5
5
5
5
5
5
5
5
5
5
5
5
5
5
5
5
5
5
5
5
5
5
5
5
5
5
5
5
5
5
5
5
5
5
5
5
5
5
5
5
5
5
5
5
5
5
5
5
5
5
5
5
5
5
5
5
5
5
5
5
5
5
5
5
5
5
5
5
5
5
5
5
5
5
5
5
5
5
5
5
5
5
5
5
5
5
5
5
5
5
5
5
5
5
5
5
5
5
5
5
5
5
5
5
5
5
5
5
5
5
5
5
5
5
5
5
5
5
5
5
5
5
5
5
5
5
5
5
5
5
5
5
5
5
5
5
5
5
5
5
5
5
5
5
5
5
5
5
5
5
5
5
5
5
5
5
5
5
5
5
5
5
5
5
5
5
5
5
5
5
5
5
5
5
5
5
5
5
5
5
5
5
5
5
5
5
5
5
5
5
5
5
5
5
5
5
5
5
5
5
5
5
5
5
5
5
5
5
5
5
5
5
5
5
5
5
5
5
5
5
5
5
5
5
5
5
5
5
5
5
5
5
5
5
5
5
5
5
5
5
5
5
5
5
5
5
5
5
5
5
5
5
5
5
5
5
5
5
5
5
5
5
5
5
5
5
5
5
5
5
5
5
5
5
5
5
5
5
5
5
5
5
5
5
5
5
5
5
5
5
5
5
5
5
5
5
5
5
5
5
5
5
5
5
5
5
5
5
5
5
5
5
5
5
5
5
5
5
5
5
5
5
5
5
5
5
5
5
5
5
5
5
5
5
5
5
5
5
5
5
5
5
5
5
5
5
5
5
5
5
5
5
5
5
5
5
5
5
5
5
5
5
5
5
5
5
5
5
5
5
5
5
5
5
5
5
5
5
5
5
5
5
5
5
5
5
5
5
5
5
5
5
5
5
5
5
5
5
5
5
5
5
5
5
5
5
5
5
5
5
5
5
5
5
5
5
5
5
5
5
5
5
5
5
5
5
5
5
5
5
5
5
5
5
5
5
5
5
5
5
5
5
5
5
5
5
5
5
5
5
5
5
5
5
5
5
5
5
5
5
5
5
5
5
5
5
5
5
5
5
5
5
5
5
5
5
5
5
5
5
5
5
5
5
5
5
5
5
5
5
5
5
5
5
5
5
5
5
5
5
5
5
5
5
5
5
5
5
5
5
5
5
5
5
5
5
5
5
5
5
5
5
5
5
5
5
5
5
5
5
5
5
5
5
5
5
5
5
5
5
5
5
5
5
5
5
5
5
5
5
5
5
5
5
5
5
5
5
5
5
5
5
5
5
5
5
5
5
5
5
5
5
5
5
5
5
5
5
5
5
5
5
5
5
5
5
5
5
5
5
5
5
5
5
5
5
5
5
5
5
5
5
5
5
5
5
5
5
5
5
5
5
5
5
5
5
5
5
5
5
5
5
5
5
5
5
5
5
5
5
5
5
5
5
5
5
5
5
5
5
5
5
5
5
5
5
5
5
5
5
5
5
5
5
5
5
5
5
5
5
5
5
5
5
5
5
5
5
5
5
5
5
5
5
5
5
5
5
5
5
5
5
5
5
5
5
5
5
5
5
5
5
5
5
5
5
5
5
5
5
5
5
5
5
5
5
5
5
5
5
5
5
5
5
5
5
5
5
5
5
5
5
5
5
5
5
5
5
5
5
5
5
5
5
5
5
5
5
5
5
5
5
5
5
5
5
5
5
5
5
5
5
5
5
5
5
5
5
5
5
5
5
5
5
5
5
5
5
5
5
5
5
5
5
5
5
5
5
5
5
5
5
5
5
5
5
5
5
5
5
5
5
5
5
5
5
5
5
5
5
5
5
5
5
5
5
5
5
5
5
5
5
5
5
5
5
5
5
5
5
5
5
5
5
5
5
5
5
5
5
5
5
5
5
5
5
5
5
5
5
5
5
5
5
5
5
5
5
5
5
5
5
5
5
5
5
5
5
5
5
5
5
5
5
5
5
5
5
5
5
5
5
5
5
5
5
5
5
5
5
5
5
5
5
5
5
5
5
5
5
5
5
5
5
5
5
5
5
5
5
5
5
5
5
5
5
5
5
5
5
5
5
5
5
5
5
5
5
5
5
5
5
5
5
5
5
5
5
5
5
5
5
5
5
5
5
5
5
5
5
5
5
5
5
5
5
5
5
5
5
5
5
5
5
5
5
5
5
5
5
5
5
5
5
5
5
5
5
5
5
5
5
5
5
5
5
5
5
5
5
5
5
5
5
5
5
5
5
5
5
5
5
5
5
5
5
5
5
5
5
5
5
5
5
5
5
5
5
5
5
5
5
5
5
5
5
5
5
5
5
5
5
5
5
5
5
5
5
5
5
5
5
5
5
5
5
5
5
5
5
5
5
5
5
5
5
5
5
5
5
5
5
5
5
5
5
5
5
5
5
5
5
5
5
5
5
5
5
5
5
5
5
5
5
5
5
5
5
5
5
5
5
5
5
5
5
5
5
5
5
5
5
5
5
5
5
5
5
5
5
5
5
5
5
5
5
5
5
5
5
5
5
5
5
5
5
5
5
5
5
5
5
5
5
5
5
5
5
5
5
5
5
5
5
5
5
5
5
5
5
5
5
5
5
5
5
5
5
5
5
5
5
5
5
5
5
5
5
5
5
5
5
5
5
5
5
5
5
5
5
5
5
5
5
5
5
5
5
5
5
5
5
5
5
5
5
5
5
5
5
5
5
5
5
5
5
5
5
5
5
5
5
5
5
5
5
5
5
5
5
5
5
5
5
5
5
5
5
5
5
5
5
5
5
5
5
5
5
5
5
5
5
5
5
5
5
5
5
5
5
5
5
5
5
5
5
5
5
5
5
5
5
5
5
5
5
5
5
5
5
5
5
5
5
5
5
5
5
5
5
5
5
5
5
5
5
5
5
5
5
5
5
5
5
5
5
5
5
5
5
5
5
5
5
5
5
5
5
5
5
5
5
5
5
5
5
5
5
5
5
5
5
5
5
5
5
5
5
5
5
5
5
5
5
5
5
5
5
5
5
5
5
5
5
5
5
5
5
5
5
5
5
5
5
5
5
5
5
5
5
5
5
5
5
5
5
5
5
5
5
5
5
5
5
5
5
5
5
5
5
5
5
5
5
5
5
5
5
5
5
5
5
5
5
5
5
5
5
5
5
5
5
5
5
5
5
5
5
5
5
5
5
5
5
5
5
5
5
5
5
5
5
5
5
5
5
5
5
5
5
5
5
5
5
5
5
5
5
5
5
5
5
5
5
5
5
5
5
5
5
5
5
5
5
5
5
5
5
5
5
5
5
5
5
5
5
5
5
5
5
5
5
5
5
5
5
5
5
5
5
5
5
5
5
5
5
5
5
5
5
5
5
5
5
5
5
5
5
5
5
5
5
5
5
5
5
5
5
5
5
5
5
5
5
5
5
5
5
5
5
5
5
5
5
5
5
5
5
5
5
5
5
5
5
5
5
5
5
5
5
5
5
5
5
5
5
5
5
5
5
5
5
5
5
5
5
5
5
5
5
5
5
5
5
5
5
5
5
5
5
5
5
5
5
5
5
5
5
5
5
5
5
5
5
5
5
5
5
5
5
5
5
5
5
5
5
5
5
5
5
5
5
5
5
5
5
5
5
5
5
5
5
5
5
5
5
5
5
5
5
5
5
5
5
5
5
5
5
5
5
5
5
5
5
5
5
5
5
5
5
5
5
5
5
5
5
5
5
5
5
5
5
5
5
5
5
5
5
5
5
5
5
5
5
5
5
5
5
5
5
5
5
5
5
5
5
5
5
5
5
5
5
5
5
5
5
5
5
5
5
5
5
5
5
5
5
5
5
5
5
5
5
5
5
5
5
5
5
5
5
5
5
5
5
5
5
5
5
5
5
5
5
5
5
5
5
5
5
5
5
5
5
5
5
5
5
5
5
5
5
5
5
5
5
5
5
5
5
5
5
5
5
5
5
5
5
5
5
5
5
5
5
5
5
5
5
5
5
5
5
5
5
5
5
5
5
5
5
5
5
5
5
5
5
5
5
5
5
5
5
5
5
5
5
5
5
5
5
5
5
5
5
5
5
5
5
5
5
5
5
5
5
5
5
5
5
5
5
5
5
5
5
5
5
5
5
5
5
5
5
5
5
5
5
5
5
5
5
5
5
5
5
5
5
5
5
5
5
5
5
5
5
5
5
5
5
5
5
5
5
5
5
5
5
5
5
5
5
5
5
5
5
5
5
5
5
5
5
5
5
5
5
5
5
5
5
5
5
5
5
5
5
5
5
5
5
5
5
5
5
5
5
5
5
5
5
5
5
5
5
5
5
5
5
5
5
5
5
5
5
5
5
5
5
5
5
5
5
5
5
5
5
5
5
5
5
5
5
5
5
5
5
5
5
5
5
5
5
5
5
5
5
5
5
5
5
5
5
5
5
5
5
5
5
5
5
5
5
5
5
5
5
5
5
5
5
5
5
5
5
5
5
5
5
5
5
5
5
5
5
5
5
5
5
5
5
5
5
5
5
5
5
5
5
5
5
5
5
5
5
5
5
5
5
5
5
5
5
5
5
5
5
5
5
5
5
5
5
5
5
5
5
5
5
5
5
5
5
5
5
5
5
5
5
5
5
5
5
5
5
5
5
5
5
5
5
5
5
5
5
5
5
5
5
5
5
5
5
5
5
5
5
5
5
5
5
5
5
5
5
5
5
5
5
5
5
5
5
5
5
5
5
5
5
5
5
5
5
5
5
5
5
5
5
5
5
5
5
5
5
5
5
5
5
5
5
5
5
5
5
5
5
5
5
5
5
5
5
5
5
5
5
5
5
5
5
5
5
5
5
5
5
5
5
5
5
5
5
5
5
5
5
5
5
5
5
5
5
5
5
5
5
5
5
5
5
5
5
5
5
5
5
5
5
5
5
5
5
5
5
5
5
5
5
5
5
5
5
5
5
5
5
5
5
5
5
5
5
5
5
5
5
5
5
5
5
5
5
5
5
5
5
5
5
5
5
5
5
5
5
5
5
5
5
5
5
5
5
5
5
5
5
5
5
5
5
5
5
5
5
5
5
5
5
5
5
5
5
5
5
5
5
5
5
5
5
5
5
5
5
5
5
5
5
5
5
5
5
5
5
5
5
5
5
5
5
5
5
5
5
5
5
5
5
5
5
5
5
5
5
5
5
5
5
5
5
5
5
5
5
5
5
5
5
5
5
5
5
5
5
5
5
5
5
5
5
5
5
5
5
5
5
5
5
5
5
5
5
5
5
5
5
5
5
5
5
5
5
5
5
5
5
5
5
5
5
5
5
5
5
5
5
5
5
5
5
5
5
5
5
5
5
5
5
5
5
5
5
5
5
5
5
5
5
5
5
5
5
5
5
5
5
5
5
5
5
5
5
5
5
5
5
5
5
5
5
5
5
5
5
5
5
5
5
5
5
5
5
5
5
5
5
5
5
5
5
5
5
5
5
5
5
5
5
5
5
5
5
5
5
5
5
5
5
5
5
5
5
5
5
5
5
5
5
5
5
5
5
5
5
5
5
5
5
5
5
5
5
5
5
5
5
5
5
5
5
5
5
5
5
5
5
5
5
5
5
5
5
5
5
5
5
5
5
5
5
5
5
5
5
5
5
5
5
5
5
5
5
5
5
5
5
5
5
5
5
5
5
5
5
5
5
5
5
5
5
5
5
5
5
5
5
5
5
5
5
5
5
5
5
5
5
5
5
5
5
5
5
5
5
5
5
5
5
5
5
5
5
5
5
5
5
5
5
5
5
5
5
5
5
5
5
5
5
5
5
5
5
5
5
5
5
5
5
5
5
5
5
5
5
5
5
5
5
5
5
5
5
5
5
5
5
5
5
5
5
5
5
5
5
5
5
5
5
5
5
5
5
5
5
5
5
5
5
5
5
5
5
5
5
5
5
5
5
5
5
5
5
5
5
5
5
5
5
5
5
5
5
5
5
5
5
5
5
5
5
5
5
5
5
5
5
5
5
5
5
5
5
5
5
5
5
5
5
5
5
5
5
5
5
5
5
5
5
5
5
5
5
5
5
5
5
5
5
5
5
5
5
5
5
5
5
5
5
5
5
5
5
5
5
5
5
5
5
5
5
5
5
5
5
5
5
5
5
5
5
5
5
5
5
5
5
5
5
5
5
5
5
5
5
5
5
5
5
5
5
5
5
5
5
5
5
5
5
5
5
5
5
5
5
5
5
5
5
5
5
5
5
5
5
5
5
5
5
5
5
5
5
5
5
5
5
5
5
5
5
5
5
5
5
5
5
5
5
5
5
5
5
5
5
5
5
5
5
5
5
5
5
5
5
5
5
5
5
5
5
5
5
5
5
5
5
5
5
5
5
5
5
5
5
5
5
5
5
5
5
5
5
5
5
5
5
5
5
5
5
5
5
5
5
5
5
5
5
5
5
5
5
5
5
5
5
5
5
5
5
5
5
5
5
5
5
5
5
5
5
5
5
5
5
5
5
5
5
5
5
5
5
5
5
5
5
5
5
5
5
5
5
5
5
5
5
5
5
5
5
5
5
5
5
5
5
5
5
5
5
5
5
5
5
5
5
5
5
5
5
5
5
5
5
5
5
5
5
5
5
5
5
5
5
5
5
5
5
5
5
5
5
5
5
5
5
5
5
5
5
5
5
5
5
5
5
5
5
5
5
5
5
5
5
5
5
5
5
5
5
5
5
5
5
5
5
5
5
5
5
5
5
5
5
5
5
5
5
5
5
5
5
5
5
5
5
5
5
5
5
5
5
5
5
5
5
5
5
5
5
5
5
5
5
5
5
5
5
5
5
5
5
5
5
5
5
5
5
5
5
5
5
5
5
5
5
5
5
5
5
5
5
5
5
5
5
5
5
5
5
5
5
5
5
5
5
5
5
5
5
5
5
5
5
5
5
5
5
5
5
5
5
5
5
5
5
5
5
5
5
5
5
5
5
5
5
5
5
5
5
5
5
5
5
5
5
5
5
5
5
5
5
5
5
5
5
5
5
5
5
5
5
5
5
5
5
5
5
5
5
5
5
5
5
5
5
5
5
5
5
5
5
5
5
5
5
5
5
5
5
5
5
5
5
5
5
5
5
5
5
5
5
5
5
5
5
5
5
5
5
5
5
5
5
5
5
5
5
5
5
5
5
5
5
5
5
5
5
5
5
5
5
5
5
5
5
5
5
5
5
5
5
5
5
5
5
5
5
5
5
5
5
5
5
5
5
5
5
5
5
5
5
5
5
5
5
5
5
5
5
5
5
5
5
5
5
5
5
5
5
5
5
5
5
5
5
5
5
5
5
5
5
5
5
5
5
5
5
5
5
5
5
5
5
5
5
5
5
5
5
5
5
5
5
5
5
5
5
5
5
5
5
5
5
5
5
5
5
5
5
5
5
5
5
5
5
5
5
5
5
5
5
5
5
5
5
5
5
5
5
5
5
5
5
5
5
5
5
5
5
5
5
5
5
5
5
5
5
5
5
5
5
5
5
5
5
5
5
5
5
5
5
5
5
5
5
5
5
5
5
5
5
5
5
5
5
5
5
5
5
5
5
5
5
5
5
5
5
5
5
5
5
5
5
5
5
5
5
5
5
5
5
5
5
5
5
5
5
CELL_DATA 3538
POINT_DATA 10614
SCALARS Pressure float 
LOOKUP_TABLE default
4.84265 4.84265 4.84265 4.01048 4.01048 4.01048 4.87222 4.87222 4.87222 4.86361 4.86361 4.86361 4.90422 4.90422 4.90422 4.88645 4.88645 4.88645 4.90796 4.90796 4.90796 4.88095 4.88095 4.88095 4.89753 4.89753 4.89753 4.92154 4.92154 4.92154 3.90023 3.90023 3.90023 4.83635 4.83635 4.83635 4.35824 4.35824 4.35824 4.80698 4.80698 4.80698 4.94367 4.94367 4.94367 4.94691 4.94691 4.94691 4.97181 4.97181 4.97181 4.96699 4.96699 4.96699 4.94533 4.94533 4.94533 4.94747 4.94747 4.94747 4.87414 4.87414 4.87414 4.86208 4.86208 4.86208 4.91979 4.91979 4.91979 4.88023 4.88023 4.88023 4.8526 4.8526 4.8526 4.90769 4.90769 4.90769 4.9058 4.9058 4.9058 4.92988 4.92988 4.92988 4.88117 4.88117 4.88117 4.84243 4.84243 4.84243 4.88648 4.88648 4.88648 4.91175 4.91175 4.91175 4.83917 4.83917 4.83917 4.90732 4.90732 4.90732 4.87509 4.87509 4.87509 3.44591 3.44591 3.44591 4.76528 4.76528 4.76528 4.80399 4.80399 4.80399 4.90064 4.90064 4.90064 4.94095 4.94095 4.94095 4.92323 4.92323 4.92323 4.9495 4.9495 4.9495 4.94286 4.94286 4.94286 4.94151 4.94151 4.94151 4.93551 4.93551 4.93551 4.93449 4.93449 4.93449 2.18217 2.18217 2.18217 3.89975 3.89975 3.89975 3.87992 3.87992 3.87992 4.80267 4.80267 4.80267 4.97676 4.97676 4.97676 4.90957 4.90957 4.90957 4.94517 4.94517 4.94517 4.96879 4.96879 4.96879 4.94876 4.94876 4.94876 4.94542 4.94542 4.94542 4.95086 4.95086 4.95086 4.94841 4.94841 4.94841 4.93848 4.93848 4.93848 4.93778 4.93778 4.93778 4.94962 4.94962 4.94962 4.95023 4.95023 4.95023 3.16147 3.16147 3.16147 4.91225 4.91225 4.91225 4.94851 4.94851 4.94851 4.96727 4.96727 4.96727 2.35342 2.35342 2.35342 4.84673 4.84673 4.84673 4.83753 4.83753 4.83753 4.91395 4.91395 4.91395 4.84366 4.84366 4.84366 4.92926 4.92926 4.92926 4.91066 4.91066 4.91066 4.83097 4.83097 4.83097 4.84801 4.84801 4.84801 4.87947 4.87947 4.87947 4.89966 4.89966 4.89966 4.85339 4.85339 4.85339 4.85772 4.85772 4.85772 4.84228 4.84228 4.84228 4.83963 4.83963 4.83963 4.92218 4.92218 4.92218 3.10644 3.10644 3.10644 4.83135 4.83135 4.83135 4.91815 4.91815 4.91815 3.30011 3.30011 3.30011 4.90696 4.90696 4.90696 4.70531 4.70531 4.70531 4.74377 4.74377 4.74377 4.84428 4.84428 4.84428 4.91203 4.91203 4.91203 4.78989 4.78989 4.78989 4.83603 4.83603 4.83603 4.91063 4.91063 4.91063 4.86911 4.86911 4.86911 4.88378 4.88378 4.88378 4.19925 4.19925 4.19925 4.8925 4.8925 4.8925 4.91851 4.91851 4.91851 4.8218 4.8218 4.8218 4.84614 4.84614 4.84614 4.89237 4.89237 4.89237 4.90219 4.90219 4.90219 4.96423 4.96423 4.96423 4.92713 4.92713 4.92713 4.94768 4.94768 4.94768 2.27635 2.27635 2.27635 4.84185 4.84185 4.84185 4.84674 4.84674 4.84674 4.93187 4.93187 4.93187 4.93038 4.93038 4.93038 4.83942 4.83942 4.83942 4.92234 4.92234 4.92234 4.80219 4.80219 4.80219 4.82474 4.82474 4.82474 4.84711 4.84711 4.84711 4.82702 4.82702 4.82702 4.83362 4.83362 4.83362 4.81265 4.81265 4.81265 4.83862 4.83862 4.83862 4.85383 4.85383 4.85383 4.86571 4.86571 4.86571 3.94852 3.94852 3.94852 4.84636 4.84636 4.84636 4.80258 4.80258 4.80258 4.83565 4.83565 4.83565 4.85512 4.85512 4.85512 4.5449 4.5449 4.5449 4.85794 4.85794 4.85794 4.89587 4.89587 4.89587 4.86195 4.86195 4.86195 4.61381 4.61381 4.61381 4.88001 4.88001 4.88001 4.8191 4.8191 4.8191 4.93303 4.93303 4.93303 4.91564 4.91564 4.91564 5.16797 5.16797 5.16797 4.8149 4.8149 4.8149 4.88137 4.88137 4.88137 4.9387 4.9387 4.9387 4.95027 4.95027 4.95027 4.94191 4.94191 4.94191 4.80609 4.80609 4.80609 4.87092 4.87092 4.87092 4.95623 4.95623 4.95623 4.94286 4.94286 4.94286 4.87091 4.87091 4.87091 4.43066 4.43066 4.43066 4.93375 4.93375 4.93375 4.90245 4.90245 4.90245 4.89355 4.89355 4.89355 4.92728 4.92728 4.92728 4.84301 4.84301 4.84301 4.92459 4.92459 4.92459 4.91718 4.91718 4.91718 4.43049 4.43049 4.43049 4.9026 4.9026 4.9026 5.0188 5.0188 5.0188 4.93805 4.93805 4.93805 4.92995 4.92995 4.92995 4.96446 4.96446 4.96446 4.88333 4.88333 4.88333 4.9924 4.9924 4.9924 4.82029 4.82029 4.82029 4.93113 4.93113 4.93113 4.95572 4.95572 4.95572 4.93819 4.93819 4.93819 4.92101 4.92101 4.92101 4.95564 4.95564 4.95564 4.93956 4.93956 4.93956 4.86023 4.86023 4.86023 4.89968 4.89968 4.89968 4.9613 4.9613 4.9613 4.9453 4.9453 4.9453 4.26627 4.26627 4.26627 4.94338 4.94338 4.94338 4.92605 4.92605 4.92605 4.11685 4.11685 4.11685 4.9636 4.9636 4.9636 4.79221 4.79221 4.79221 4.93028 4.93028 4.93028 4.93472 4.93472 4.93472 4.8958 4.8958 4.8958 5.01924 5.01924 5.01924 4.84708 4.84708 4.84708 4.90107 4.90107 4.90107 4.95441 4.95441 4.95441 4.83312 4.83312 4.83312 5.17098 5.17098 5.17098 4.95333 4.95333 4.95333 4.89567 4.89567 4.89567 4.96511 4.96511 4.96511 4.93725 4.93725 4.93725 4.94116 4.94116 4.94116 4.9886 4.9886 4.9886 4.97489 4.97489 4.97489 4.98698 4.98698 4.98698 4.89638 4.89638 4.89638 4.98376 4.98376 4.98376 4.95815 4.95815 4.95815 4.92366 4.92366 4.92366 4.93985 4.93985 4.93985 4.88916 4.88916 4.88916 4.9308 4.9308 4.9308 4.90289 4.90289 4.90289 4.88631 4.88631 4.88631 4.89733 4.89733 4.89733 4.79794 4.79794 4.79794 4.9081 4.9081 4.9081 4.26908 4.26908 4.26908 7.12228 7.12228 7.12228 5.0013 5.0013 5.0013 4.95896 4.95896 4.95896 4.7347 4.7347 4.7347 4.95879 4.95879 4.95879 4.31232 4.31232 4.31232 4.81039 4.81039 4.81039 4.94174 4.94174 4.94174 4.95994 4.95994 4.95994 4.86819 4.86819 4.86819 2.33382 2.33382 2.33382 4.50768 4.50768 4.50768 4.592 4.592 4.592 5.02104 5.02104 5.02104 4.91307 4.91307 4.91307 4.83744 4.83744 4.83744 4.8499 4.8499 4.8499 4.85594 4.85594 4.85594 4.54677 4.54677 4.54677 4.64325 4.64325 4.64325 4.85007 4.85007 4.85007 4.85871 4.85871 4.85871 5.7005 5.7005 5.7005 4.90901 4.90901 4.90901 4.86905 4.86905 4.86905 4.87867 4.87867 4.87867 4.92823 4.92823 4.92823 4.93513 4.93513 4.93513 4.87268 4.87268 4.87268 4.66594 4.66594 4.66594 4.8343 4.8343 4.8343 2.85336 2.85336 2.85336 2.24312 2.24312 2.24312 4.86643 4.86643 4.86643 4.9609 4.9609 4.9609 4.93441 4.93441 4.93441 5.184 5.184 5.184 4.93219 4.93219 4.93219 4.91071 4.91071 4.91071 4.92998 4.92998 4.92998 4.8638 4.8638 4.8638 4.85116 4.85116 4.85116 4.95983 4.95983 4.95983 5.15318 5.15318 5.15318 4.93701 4.93701 4.93701 4.83613 4.83613 4.83613 4.85141 4.85141 4.85141 4.34275 4.34275 4.34275 4.43604 4.43604 4.43604 4.88914 4.88914 4.88914 4.94016 4.94016 4.94016 4.92623 4.92623 4.92623 4.72101 4.72101 4.72101 4.88486 4.88486 4.88486 4.94875 4.94875 4.94875 4.8934 4.8934 4.8934 4.87092 4.87092 4.87092 4.75666 4.75666 4.75666 4.85706 4.85706 4.85706 4.93154 4.93154 4.93154 4.71631 4.71631 4.71631 4.9331 4.9331 4.9331 4.78667 4.78667 4.78667 4.94119 4.94119 4.94119 4.92953 4.92953 4.92953 4.8481 4.8481 4.8481 3.98433 3.98433 3.98433 4.91025 4.91025 4.91025 4.4712 4.4712 4.4712 4.93807 4.93807 4.93807 4.91315 4.91315 4.91315 4.90857 4.90857 4.90857 4.92858 4.92858 4.92858 4.86897 4.86897 4.86897 4.90575 4.90575 4.90575 4.97145 4.97145 4.97145 5.02209 5.02209 5.02209 4.82287 4.82287 4.82287 4.91248 4.91248 4.91248 4.95765 4.95765 4.95765 4.71849 4.71849 4.71849 4.87224 4.87224 4.87224 4.59348 4.59348 4.59348 4.91542 4.91542 4.91542 4.8917 4.8917 4.8917 4.80421 4.80421 4.80421 4.8875 4.8875 4.8875 4.95576 4.95576 4.95576 4.92784 4.92784 4.92784 4.88503 4.88503 4.88503 4.08494 4.08494 4.08494 4.94202 4.94202 4.94202 4.91744 4.91744 4.91744 4.86976 4.86976 4.86976 4.93111 4.93111 4.93111 4.63334 4.63334 4.63334 4.79616 4.79616 4.79616 4.88195 4.88195 4.88195 4.7927 4.7927 4.7927 4.9151 4.9151 4.9151 4.70593 4.70593 4.70593 4.79842 4.79842 4.79842 4.99857 4.99857 4.99857 4.94184 4.94184 4.94184 4.98425 4.98425 4.98425 5.06291 5.06291 5.06291 5.13676 5.13676 5.13676 3.28693 3.28693 3.28693 4.43726 4.43726 4.43726 4.65111 4.65111 4.65111 4.86074 4.86074 4.86074 5.45991 5.45991 5.45991 4.58071 4.58071 4.58071 4.56106 4.56106 4.56106 4.96578 4.96578 4.96578 3.76574 3.76574 3.76574 4.91695 4.91695 4.91695 4.87681 4.87681 4.87681 4.62288 4.62288 4.62288 5.09444 5.09444 5.09444 4.93099 4.93099 4.93099 4.92918 4.92918 4.92918 4.58495 4.58495 4.58495 5.13373 5.13373 5.13373 4.93331 4.93331 4.93331 4.86893 4.86893 4.86893 4.88206 4.88206 4.88206 4.91973 4.91973 4.91973 4.92848 4.92848 4.92848 4.93715 4.93715 4.93715 4.92464 4.92464 4.92464 4.82831 4.82831 4.82831 4.42121 4.42121 4.42121 4.93533 4.93533 4.93533 4.68485 4.68485 4.68485 4.74955 4.74955 4.74955 4.91354 4.91354 4.91354 4.92892 4.92892 4.92892 4.92587 4.92587 4.92587 4.91417 4.91417 4.91417 4.935 4.935 4.935 1.32104 1.32104 1.32104 4.93152 4.93152 4.93152 4.86716 4.86716 4.86716 4.93742 4.93742 4.93742 4.01369 4.01369 4.01369 5.03372 5.03372 5.03372 4.55542 4.55542 4.55542 4.93352 4.93352 4.93352 5.34713 5.34713 5.34713 4.92693 4.92693 4.92693 4.88103 4.88103 4.88103 4.83551 4.83551 4.83551 4.90051 4.90051 4.90051 4.87889 4.87889 4.87889 4.82305 4.82305 4.82305 4.85446 4.85446 4.85446 4.93067 4.93067 4.93067 4.94994 4.94994 4.94994 4.94348 4.94348 4.94348 4.8285 4.8285 4.8285 4.97549 4.97549 4.97549 4.9117 4.9117 4.9117 4.89329 4.89329 4.89329 4.94577 4.94577 4.94577 4.97396 4.97396 4.97396 4.94831 4.94831 4.94831 4.93447 4.93447 4.93447 4.88528 4.88528 4.88528 4.90364 4.90364 4.90364 4.97392 4.97392 4.97392 4.93317 4.93317 4.93317 4.7591 4.7591 4.7591 5.01192 5.01192 5.01192 4.92996 4.92996 4.92996 4.93463 4.93463 4.93463 5.13308 5.13308 5.13308 4.93195 4.93195 4.93195 4.94501 4.94501 4.94501 4.97912 4.97912 4.97912 4.9582 4.9582 4.9582 4.9112 4.9112 4.9112 4.90309 4.90309 4.90309 4.96581 4.96581 4.96581 4.9059 4.9059 4.9059 4.87817 4.87817 4.87817 4.93485 4.93485 4.93485 4.79086 4.79086 4.79086 4.87126 4.87126 4.87126 4.87094 4.87094 4.87094 4.85325 4.85325 4.85325 4.88156 4.88156 4.88156 4.93328 4.93328 4.93328 4.88959 4.88959 4.88959 5.08182 5.08182 5.08182 4.83617 4.83617 4.83617 4.89646 4.89646 4.89646 5.01445 5.01445 5.01445 4.89792 4.89792 4.89792 4.92942 4.92942 4.92942 4.89747 4.89747 4.89747 4.9062 4.9062 4.9062 4.93675 4.93675 4.93675 4.96658 4.96658 4.96658 4.78346 4.78346 4.78346 4.9251 4.9251 4.9251 4.92314 4.92314 4.92314 4.95217 4.95217 4.95217 4.87962 4.87962 4.87962 5.08582 5.08582 5.08582 4.92828 4.92828 4.92828 4.90139 4.90139 4.90139 4.64136 4.64136 4.64136 4.85353 4.85353 4.85353 4.93707 4.93707 4.93707 4.91924 4.91924 4.91924 4.94797 4.94797 4.94797 4.84836 4.84836 4.84836 4.98154 4.98154 4.98154 4.95984 4.95984 4.95984 4.94665 4.94665 4.94665 4.95885 4.95885 4.95885 4.87116 4.87116 4.87116 5.00229 5.00229 5.00229 4.891 4.891 4.891 4.87775 4.87775 4.87775 4.88743 4.88743 4.88743 4.87945 4.87945 4.87945 4.88075 4.88075 4.88075 4.97948 4.97948 4.97948 4.84028 4.84028 4.84028 4.46599 4.46599 4.46599 4.88599 4.88599 4.88599 4.91906 4.91906 4.91906 4.8785 4.8785 4.8785 4.88482 4.88482 4.88482 4.92557 4.92557 4.92557 4.28064 4.28064 4.28064 4.9093 4.9093 4.9093 4.97667 4.97667 4.97667 4.95555 4.95555 4.95555 4.88688 4.88688 4.88688 4.82962 4.82962 4.82962 4.85775 4.85775 4.85775 4.93552 4.93552 4.93552 4.96848 4.96848 4.96848 4.79445 4.79445 4.79445 5.02131 5.02131 5.02131 4.91602 4.91602 4.91602 4.89393 4.89393 4.89393 4.89535 4.89535 4.89535 4.93896 4.93896 4.93896 4.83483 4.83483 4.83483 4.99384 4.99384 4.99384 4.89187 4.89187 4.89187 5.08077 5.08077 5.08077 4.83197 4.83197 4.83197 4.66678 4.66678 4.66678 4.90575 4.90575 4.90575 4.93121 4.93121 4.93121 4.81165 4.81165 4.81165 4.90147 4.90147 4.90147 5.05903 5.05903 5.05903 4.90953 4.90953 4.90953 4.99094 4.99094 4.99094 4.86431 4.86431 4.86431 4.94854 4.94854 4.94854 4.7195 4.7195 4.7195 4.73756 4.73756 4.73756 4.88816 4.88816 4.88816 4.85759 4.85759 4.85759 1.48656 1.48656 1.48656 4.81422 4.81422 4.81422 4.5553 4.5553 4.5553 4.91359 4.91359 4.91359 4.92747 4.92747 4.92747 4.75959 4.75959 4.75959 4.93863 4.93863 4.93863 4.95123 4.95123 4.95123 4.89928 4.89928 4.89928 4.87344 4.87344 4.87344 4.96525 4.96525 4.96525 4.98132 4.98132 4.98132 4.83246 4.83246 4.83246 4.8667 4.8667 4.8667 4.94378 4.94378 4.94378 4.91714 4.91714 4.91714 4.92975 4.92975 4.92975 4.93572 4.93572 4.93572 4.9073 4.9073 4.9073 4.99955 4.99955 4.99955 4.8605 4.8605 4.8605 4.95173 4.95173 4.95173 4.82557 4.82557 4.82557 4.87503 4.87503 4.87503 5.02209 5.02209 5.02209 4.49923 4.49923 4.49923 4.70381 4.70381 4.70381 5.09608 5.09608 5.09608 4.86567 4.86567 4.86567 4.92927 4.92927 4.92927 4.00499 4.00499 4.00499 4.81007 4.81007 4.81007 4.94577 4.94577 4.94577 4.87718 4.87718 4.87718 4.8163 4.8163 4.8163 4.9769 4.9769 4.9769 4.92207 4.92207 4.92207 4.83543 4.83543 4.83543 4.83708 4.83708 4.83708 4.87475 4.87475 4.87475 4.83614 4.83614 4.83614 4.90422 4.90422 4.90422 4.91893 4.91893 4.91893 4.90366 4.90366 4.90366 4.77498 4.77498 4.77498 4.7629 4.7629 4.7629 4.87365 4.87365 4.87365 4.86795 4.86795 4.86795 4.85179 4.85179 4.85179 4.88494 4.88494 4.88494 4.89957 4.89957 4.89957 4.90518 4.90518 4.90518 4.85124 4.85124 4.85124 4.81581 4.81581 4.81581 4.94319 4.94319 4.94319 4.91659 4.91659 4.91659 4.84529 4.84529 4.84529 5.06043 5.06043 5.06043 4.90393 4.90393 4.90393 4.87713 4.87713 4.87713 4.90517 4.90517 4.90517 4.87604 4.87604 4.87604 5.01342 5.01342 5.01342 4.90741 4.90741 4.90741 4.87126 4.87126 4.87126 4.99491 4.99491 4.99491 4.94933 4.94933 4.94933 4.81952 4.81952 4.81952 4.87378 4.87378 4.87378 4.89917 4.89917 4.89917 4.91364 4.91364 4.91364 4.91107 4.91107 4.91107 4.83664 4.83664 4.83664 4.964 4.964 4.964 4.85196 4.85196 4.85196 4.91706 4.91706 4.91706 5.13658 5.13658 5.13658 4.87491 4.87491 4.87491 4.92303 4.92303 4.92303 4.86184 4.86184 4.86184 4.92142 4.92142 4.92142 4.92567 4.92567 4.92567 4.6066 4.6066 4.6066 4.93954 4.93954 4.93954 4.98399 4.98399 4.98399 4.94059 4.94059 4.94059 4.92219 4.92219 4.92219 4.89897 4.89897 4.89897 4.87975 4.87975 4.87975 4.92587 4.92587 4.92587 4.86723 4.86723 4.86723 4.92811 4.92811 4.92811 4.92042 4.92042 4.92042 4.77417 4.77417 4.77417 4.83471 4.83471 4.83471 4.85656 4.85656 4.85656 4.9178 4.9178 4.9178 4.91908 4.91908 4.91908 4.87428 4.87428 4.87428 4.90993 4.90993 4.90993 4.91869 4.91869 4.91869 4.68854 4.68854 4.68854 4.89287 4.89287 4.89287 4.90217 4.90217 4.90217 4.92746 4.92746 4.92746 4.84468 4.84468 4.84468 4.91309 4.91309 4.91309 5.03708 5.03708 5.03708 4.91075 4.91075 4.91075 4.88576 4.88576 4.88576 4.9268 4.9268 4.9268 4.87126 4.87126 4.87126 4.91368 4.91368 4.91368 4.92541 4.92541 4.92541 4.86587 4.86587 4.86587 4.91578 4.91578 4.91578 5.02394 5.02394 5.02394 4.92044 4.92044 4.92044 4.94383 4.94383 4.94383 4.90293 4.90293 4.90293 5.03137 5.03137 5.03137 4.92091 4.92091 4.92091 4.93223 4.93223 4.93223 4.91332 4.91332 4.91332 4.91813 4.91813 4.91813 4.86612 4.86612 4.86612 4.91695 4.91695 4.91695 4.89866 4.89866 4.89866 4.87672 4.87672 4.87672 4.84928 4.84928 4.84928 4.90417 4.90417 4.90417 4.87765 4.87765 4.87765 4.87468 4.87468 4.87468 5.02184 5.02184 5.02184 5.01101 5.01101 5.01101 4.86148 4.86148 4.86148 4.92349 4.92349 4.92349 4.87111 4.87111 4.87111 4.7797 4.7797 4.7797 4.97872 4.97872 4.97872 4.91966 4.91966 4.91966 4.88679 4.88679 4.88679 4.86675 4.86675 4.86675 4.92361 4.92361 4.92361 5.0143 5.0143 5.0143 4.93683 4.93683 4.93683 4.94853 4.94853 4.94853 4.90117 4.90117 4.90117 4.91559 4.91559 4.91559 4.8575 4.8575 4.8575 4.9218 4.9218 4.9218 4.93162 4.93162 4.93162 4.97773 4.97773 4.97773 4.97442 4.97442 4.97442 4.88508 4.88508 4.88508 4.9443 4.9443 4.9443 4.83377 4.83377 4.83377 4.93023 4.93023 4.93023 4.88598 4.88598 4.88598 4.84753 4.84753 4.84753 4.91653 4.91653 4.91653 4.80869 4.80869 4.80869 4.89896 4.89896 4.89896 4.92054 4.92054 4.92054 4.8148 4.8148 4.8148 4.86612 4.86612 4.86612 5.02543 5.02543 5.02543 4.94985 4.94985 4.94985 4.90843 4.90843 4.90843 4.94532 4.94532 4.94532 5.00875 5.00875 5.00875 4.90553 4.90553 4.90553 4.98979 4.98979 4.98979 4.77598 4.77598 4.77598 4.91795 4.91795 4.91795 4.91977 4.91977 4.91977 5.01205 5.01205 5.01205 4.9949 4.9949 4.9949 4.84163 4.84163 4.84163 5.04829 5.04829 5.04829 5.01508 5.01508 5.01508 4.94524 4.94524 4.94524 5.19447 5.19447 5.19447 4.86999 4.86999 4.86999 4.93352 4.93352 4.93352 4.93149 4.93149 4.93149 4.988 4.988 4.988 5.23903 5.23903 5.23903 4.97107 4.97107 4.97107 4.91618 4.91618 4.91618 5.15438 5.15438 5.15438 4.96662 4.96662 4.96662 4.91977 4.91977 4.91977 4.90381 4.90381 4.90381 4.9793 4.9793 4.9793 4.98548 4.98548 4.98548 4.90865 4.90865 4.90865 4.91208 4.91208 4.91208 5.02272 5.02272 5.02272 4.97563 4.97563 4.97563 4.87205 4.87205 4.87205 4.94286 4.94286 4.94286 4.92059 4.92059 4.92059 4.9313 4.9313 4.9313 4.90859 4.90859 4.90859 5.03576 5.03576 5.03576 4.95208 4.95208 4.95208 4.93655 4.93655 4.93655 4.91013 4.91013 4.91013 5.18654 5.18654 5.18654 4.9342 4.9342 4.9342 5.04787 5.04787 5.04787 5.13169 5.13169 5.13169 4.98105 4.98105 4.98105 4.89878 4.89878 4.89878 5.01323 5.01323 5.01323 4.89029 4.89029 4.89029 4.91394 4.91394 4.91394 4.9092 4.9092 4.9092 4.92419 4.92419 4.92419 5.08614 5.08614 5.08614 5.00251 5.00251 5.00251 4.92212 4.92212 4.92212 4.83702 4.83702 4.83702 4.92353 4.92353 4.92353 4.8595 4.8595 4.8595 4.9277 4.9277 4.9277 4.92484 4.92484 4.92484 4.90998 4.90998 4.90998 5.00889 5.00889 5.00889 4.91885 4.91885 4.91885 4.86408 4.86408 4.86408 4.90886 4.90886 4.90886 4.88073 4.88073 4.88073 4.94397 4.94397 4.94397 4.92949 4.92949 4.92949 4.91843 4.91843 4.91843 4.96913 4.96913 4.96913 5.15829 5.15829 5.15829 4.53256 4.53256 4.53256 4.90731 4.90731 4.90731 4.91978 4.91978 4.91978 5.10293 5.10293 5.10293 4.9739 4.9739 4.9739 4.91169 4.91169 4.91169 4.90095 4.90095 4.90095 4.91206 4.91206 4.91206 5.07485 5.07485 5.07485 4.92655 4.92655 4.92655 5.04659 5.04659 5.04659 4.88044 4.88044 4.88044 4.91168 4.91168 4.91168 4.92342 4.92342 4.92342 4.91733 4.91733 4.91733 4.92546 4.92546 4.92546 4.92897 4.92897 4.92897 4.90395 4.90395 4.90395 4.76338 4.76338 4.76338 4.85749 4.85749 4.85749 4.9178 4.9178 4.9178 4.90989 4.90989 4.90989 5.06637 5.06637 5.06637 4.90048 4.90048 4.90048 4.97001 4.97001 4.97001 5.01006 5.01006 5.01006 4.85808 4.85808 4.85808 4.92524 4.92524 4.92524 4.9079 4.9079 4.9079 4.91232 4.91232 4.91232 4.84616 4.84616 4.84616 4.84606 4.84606 4.84606 4.92341 4.92341 4.92341 4.90119 4.90119 4.90119 4.88973 4.88973 4.88973 4.83042 4.83042 4.83042 4.89308 4.89308 4.89308 4.92966 4.92966 4.92966 4.91323 4.91323 4.91323 4.92366 4.92366 4.92366 4.8918 4.8918 4.8918 4.88545 4.88545 4.88545 4.91561 4.91561 4.91561 4.91084 4.91084 4.91084 4.89968 4.89968 4.89968 4.93417 4.93417 4.93417 4.92183 4.92183 4.92183 4.9151 4.9151 4.9151 4.89399 4.89399 4.89399 4.93031 4.93031 4.93031 5.04712 5.04712 5.04712 5.11737 5.11737 5.11737 4.80419 4.80419 4.80419 4.87067 4.87067 4.87067 4.90046 4.90046 4.90046 4.78624 4.78624 4.78624 4.92071 4.92071 4.92071 4.90187 4.90187 4.90187 4.87235 4.87235 4.87235 4.88532 4.88532 4.88532 5.38065 5.38065 5.38065 4.91146 4.91146 4.91146 4.92096 4.92096 4.92096 4.89866 4.89866 4.89866 4.91519 4.91519 4.91519 4.93515 4.93515 4.93515 4.93285 4.93285 4.93285 4.84289 4.84289 4.84289 4.90115 4.90115 4.90115 4.80944 4.80944 4.80944 4.92157 4.92157 4.92157 5.00135 5.00135 5.00135 4.94216 4.94216 4.94216 4.89772 4.89772 4.89772 4.89849 4.89849 4.89849 5.43921 5.43921 5.43921 5.08782 5.08782 5.08782 4.89293 4.89293 4.89293 4.91822 4.91822 4.91822 4.89634 4.89634 4.89634 4.90579 4.90579 4.90579 4.93693 4.93693 4.93693 4.90177 4.90177 4.90177 4.93531 4.93531 4.93531 3.31406 3.31406 3.31406 4.78284 4.78284 4.78284 4.9019 4.9019 4.9019 4.90347 4.90347 4.90347 4.92624 4.92624 4.92624 5.37834 5.37834 5.37834 4.89613 4.89613 4.89613 5.41713 5.41713 5.41713 4.65902 4.65902 4.65902 5.05887 5.05887 5.05887 4.91355 4.91355 4.91355 4.90229 4.90229 4.90229 4.82411 4.82411 4.82411 4.89965 4.89965 4.89965 4.89315 4.89315 4.89315 4.92004 4.92004 4.92004 5.42215 5.42215 5.42215 4.83687 4.83687 4.83687 5.45045 5.45045 5.45045 4.89059 4.89059 4.89059 4.90375 4.90375 4.90375 4.90202 4.90202 4.90202 4.96779 4.96779 4.96779 5.2345 5.2345 5.2345 4.40386 4.40386 4.40386 4.85404 4.85404 4.85404 4.90912 4.90912 4.90912 4.90048 4.90048 4.90048 4.90448 4.90448 4.90448 4.9162 4.9162 4.9162 4.89834 4.89834 4.89834 4.9103 4.9103 4.9103 4.85325 4.85325 4.85325 4.87945 4.87945 4.87945 4.92061 4.92061 4.92061 4.89135 4.89135 4.89135 4.87466 4.87466 4.87466 4.90507 4.90507 4.90507 4.90372 4.90372 4.90372 4.91752 4.91752 4.91752 3.77927 3.77927 3.77927 4.91858 4.91858 4.91858 4.81624 4.81624 4.81624 5.40838 5.40838 5.40838 4.91742 4.91742 4.91742 4.874 4.874 4.874 4.90755 4.90755 4.90755 4.91282 4.91282 4.91282 4.92668 4.92668 4.92668 4.8791 4.8791 4.8791 4.83607 4.83607 4.83607 4.9266 4.9266 4.9266 4.86591 4.86591 4.86591 5.06016 5.06016 5.06016 4.90833 4.90833 4.90833 3.96306 3.96306 3.96306 4.91611 4.91611 4.91611 4.92788 4.92788 4.92788 4.91932 4.91932 4.91932 4.91298 4.91298 4.91298 4.95336 4.95336 4.95336 4.87426 4.87426 4.87426 4.91061 4.91061 4.91061 4.90913 4.90913 4.90913 4.91783 4.91783 4.91783 4.90958 4.90958 4.90958 4.91574 4.91574 4.91574 4.89991 4.89991 4.89991 4.88931 4.88931 4.88931 4.90634 4.90634 4.90634 4.91116 4.91116 4.91116 4.90938 4.90938 4.90938 4.92816 4.92816 4.92816 4.50939 4.50939 4.50939 4.91834 4.91834 4.91834 4.88499 4.88499 4.88499 4.84127 4.84127 4.84127 4.93535 4.93535 4.93535 5.4348 5.4348 5.4348 4.64819 4.64819 4.64819 4.91025 4.91025 4.91025 4.93141 4.93141 4.93141 4.90667 4.90667 4.90667 4.91466 4.91466 4.91466 4.8457 4.8457 4.8457 4.91594 4.91594 4.91594 4.92211 4.92211 4.92211 4.91214 4.91214 4.91214 4.65197 4.65197 4.65197 4.89931 4.89931 4.89931 4.91866 4.91866 4.91866 4.92015 4.92015 4.92015 4.8694 4.8694 4.8694 4.98165 4.98165 4.98165 4.91493 4.91493 4.91493 4.91428 4.91428 4.91428 4.92638 4.92638 4.92638 5.08061 5.08061 5.08061 4.72398 4.72398 4.72398 4.91265 4.91265 4.91265 4.83148 4.83148 4.83148 4.89579 4.89579 4.89579 4.67294 4.67294 4.67294 4.91082 4.91082 4.91082 4.90913 4.90913 4.90913 4.84937 4.84937 4.84937 4.86153 4.86153 4.86153 4.86888 4.86888 4.86888 4.92569 4.92569 4.92569 5.1155 5.1155 5.1155 4.91488 4.91488 4.91488 4.84398 4.84398 4.84398 4.92327 4.92327 4.92327 4.87973 4.87973 4.87973 4.75332 4.75332 4.75332 4.91278 4.91278 4.91278 4.9258 4.9258 4.9258 4.91593 4.91593 4.91593 4.82691 4.82691 4.82691 5.40524 5.40524 5.40524 4.81988 4.81988 4.81988 3.72013 3.72013 3.72013 4.90826 4.90826 4.90826 4.91758 4.91758 4.91758 4.86729 4.86729 4.86729 4.91684 4.91684 4.91684 4.88311 4.88311 4.88311 4.96758 4.96758 4.96758 4.85364 4.85364 4.85364 4.71174 4.71174 4.71174 4.82758 4.82758 4.82758 4.90462 4.90462 4.90462 4.80008 4.80008 4.80008 4.84267 4.84267 4.84267 4.90697 4.90697 4.90697 4.88546 4.88546 4.88546 4.84873 4.84873 4.84873 4.74201 4.74201 4.74201 4.8726 4.8726 4.8726 4.91949 4.91949 4.91949 4.86818 4.86818 4.86818 4.85191 4.85191 4.85191 4.90542 4.90542 4.90542 4.87803 4.87803 4.87803 4.88048 4.88048 4.88048 5.22284 5.22284 5.22284 4.88504 4.88504 4.88504 5.08183 5.08183 5.08183 4.8784 4.8784 4.8784 4.85972 4.85972 4.85972 4.92251 4.92251 4.92251 4.90877 4.90877 4.90877 4.89291 4.89291 4.89291 4.86739 4.86739 4.86739 4.90954 4.90954 4.90954 4.8745 4.8745 4.8745 4.84471 4.84471 4.84471 4.82582 4.82582 4.82582 4.81525 4.81525 4.81525 4.91103 4.91103 4.91103 4.86805 4.86805 4.86805 4.86575 4.86575 4.86575 4.92066 4.92066 4.92066 4.91415 4.91415 4.91415 4.91897 4.91897 4.91897 4.90924 4.90924 4.90924 4.91 4.91 4.91 4.91604 4.91604 4.91604 4.92219 4.92219 4.92219 4.92399 4.92399 4.92399 4.86318 4.86318 4.86318 4.82205 4.82205 4.82205 4.91836 4.91836 4.91836 4.87405 4.87405 4.87405 5.43795 5.43795 5.43795 4.90041 4.90041 4.90041 4.83842 4.83842 4.83842 4.79485 4.79485 4.79485 4.924 4.924 4.924 4.91791 4.91791 4.91791 4.90406 4.90406 4.90406 4.7905 4.7905 4.7905 4.91913 4.91913 4.91913 4.88866 4.88866 4.88866 4.88824 4.88824 4.88824 4.90857 4.90857 4.90857 4.87009 4.87009 4.87009 4.91716 4.91716 4.91716 4.93346 4.93346 4.93346 4.83564 4.83564 4.83564 4.93371 4.93371 4.93371 4.90595 4.90595 4.90595 4.94666 4.94666 4.94666 5.12841 5.12841 5.12841 4.66446 4.66446 4.66446 4.91821 4.91821 4.91821 4.9012 4.9012 4.9012 4.9072 4.9072 4.9072 4.62002 4.62002 4.62002 4.21666 4.21666 4.21666 4.58594 4.58594 4.58594 4.91926 4.91926 4.91926 4.92917 4.92917 4.92917 4.90777 4.90777 4.90777 4.91623 4.91623 4.91623 4.40169 4.40169 4.40169 4.90127 4.90127 4.90127 4.9204 4.9204 4.9204 4.87288 4.87288 4.87288 5.03546 5.03546 5.03546 4.92301 4.92301 4.92301 4.92117 4.92117 4.92117 4.91444 4.91444 4.91444 4.68126 4.68126 4.68126 4.79176 4.79176 4.79176 4.90776 4.90776 4.90776 4.90477 4.90477 4.90477 4.92092 4.92092 4.92092 4.90821 4.90821 4.90821 4.9081 4.9081 4.9081 4.92962 4.92962 4.92962 4.92712 4.92712 4.92712 4.91905 4.91905 4.91905 4.76061 4.76061 4.76061 4.80503 4.80503 4.80503 4.94228 4.94228 4.94228 4.9236 4.9236 4.9236 4.92148 4.92148 4.92148 4.93683 4.93683 4.93683 4.90946 4.90946 4.90946 4.92355 4.92355 4.92355 4.92758 4.92758 4.92758 4.81238 4.81238 4.81238 4.67109 4.67109 4.67109 4.8918 4.8918 4.8918 4.86155 4.86155 4.86155 4.91883 4.91883 4.91883 4.80494 4.80494 4.80494 4.89211 4.89211 4.89211 4.81659 4.81659 4.81659 4.91562 4.91562 4.91562 4.8829 4.8829 4.8829 4.91898 4.91898 4.91898 4.8912 4.8912 4.8912 4.9182 4.9182 4.9182 4.91845 4.91845 4.91845 4.87195 4.87195 4.87195 4.92424 4.92424 4.92424 4.92747 4.92747 4.92747 4.8931 4.8931 4.8931 4.92054 4.92054 4.92054 4.85882 4.85882 4.85882 4.69242 4.69242 4.69242 4.89404 4.89404 4.89404 4.87257 4.87257 4.87257 4.9145 4.9145 4.9145 4.87246 4.87246 4.87246 4.92256 4.92256 4.92256 4.92565 4.92565 4.92565 4.94236 4.94236 4.94236 4.89119 4.89119 4.89119 4.92213 4.92213 4.92213 4.90131 4.90131 4.90131 4.91517 4.91517 4.91517 4.92307 4.92307 4.92307 4.83127 4.83127 4.83127 5.08544 5.08544 5.08544 5.15337 5.15337 5.15337 4.93095 4.93095 4.93095 4.8564 4.8564 4.8564 4.91749 4.91749 4.91749 4.56655 4.56655 4.56655 4.92764 4.92764 4.92764 4.89767 4.89767 4.89767 4.93354 4.93354 4.93354 4.9557 4.9557 4.9557 4.91758 4.91758 4.91758 4.94027 4.94027 4.94027 4.87335 4.87335 4.87335 4.69866 4.69866 4.69866 4.92278 4.92278 4.92278 4.90987 4.90987 4.90987 4.85748 4.85748 4.85748 4.92593 4.92593 4.92593 4.84355 4.84355 4.84355 4.95427 4.95427 4.95427 4.92329 4.92329 4.92329 4.86036 4.86036 4.86036 4.91935 4.91935 4.91935 4.92034 4.92034 4.92034 4.78297 4.78297 4.78297 4.72677 4.72677 4.72677 4.84002 4.84002 4.84002 4.74326 4.74326 4.74326 4.94464 4.94464 4.94464 4.85297 4.85297 4.85297 4.92438 4.92438 4.92438 4.84693 4.84693 4.84693 4.92051 4.92051 4.92051 4.91706 4.91706 4.91706 4.81723 4.81723 4.81723 4.92651 4.92651 4.92651 4.91479 4.91479 4.91479 4.86775 4.86775 4.86775 4.89971 4.89971 4.89971 4.60524 4.60524 4.60524 4.9102 4.9102 4.9102 4.91393 4.91393 4.91393 4.84993 4.84993 4.84993 4.93414 4.93414 4.93414 4.92263 4.92263 4.92263 4.92062 4.92062 4.92062 4.92503 4.92503 4.92503 4.91416 4.91416 4.91416 4.86785 4.86785 4.86785 4.91883 4.91883 4.91883 4.91492 4.91492 4.91492 4.93163 4.93163 4.93163 4.92899 4.92899 4.92899 4.85189 4.85189 4.85189 4.8607 4.8607 4.8607 4.92932 4.92932 4.92932 4.86849 4.86849 4.86849 4.8041 4.8041 4.8041 4.87526 4.87526 4.87526 4.88347 4.88347 4.88347 4.92964 4.92964 4.92964 4.93298 4.93298 4.93298 4.91725 4.91725 4.91725 3.90118 3.90118 3.90118 4.94152 4.94152 4.94152 4.96167 4.96167 4.96167 4.951 4.951 4.951 4.9208 4.9208 4.9208 4.8661 4.8661 4.8661 4.89676 4.89676 4.89676 4.86605 4.86605 4.86605 4.92301 4.92301 4.92301 4.91564 4.91564 4.91564 4.88424 4.88424 4.88424 4.92288 4.92288 4.92288 4.85192 4.85192 4.85192 4.9272 4.9272 4.9272 4.91931 4.91931 4.91931 4.92388 4.92388 4.92388 4.81685 4.81685 4.81685 4.92476 4.92476 4.92476 5.07906 5.07906 5.07906 4.92633 4.92633 4.92633 4.85323 4.85323 4.85323 4.82963 4.82963 4.82963 4.92006 4.92006 4.92006 4.88468 4.88468 4.88468 4.89141 4.89141 4.89141 4.79356 4.79356 4.79356 4.86167 4.86167 4.86167 4.91897 4.91897 4.91897 4.85251 4.85251 4.85251 4.81072 4.81072 4.81072 4.7924 4.7924 4.7924 4.88861 4.88861 4.88861 4.80307 4.80307 4.80307 4.89032 4.89032 4.89032 4.70366 4.70366 4.70366 4.87582 4.87582 4.87582 4.92007 4.92007 4.92007 4.91946 4.91946 4.91946 4.67794 4.67794 4.67794 4.91601 4.91601 4.91601 4.937 4.937 4.937 4.94193 4.94193 4.94193 4.86322 4.86322 4.86322 4.92616 4.92616 4.92616 4.85691 4.85691 4.85691 4.92222 4.92222 4.92222 4.81119 4.81119 4.81119 4.92357 4.92357 4.92357 4.85962 4.85962 4.85962 4.92465 4.92465 4.92465 4.92037 4.92037 4.92037 4.92885 4.92885 4.92885 4.76463 4.76463 4.76463 4.77994 4.77994 4.77994 4.78334 4.78334 4.78334 4.71212 4.71212 4.71212 4.91218 4.91218 4.91218 4.92833 4.92833 4.92833 4.86346 4.86346 4.86346 4.85991 4.85991 4.85991 4.92622 4.92622 4.92622 4.91541 4.91541 4.91541 4.91861 4.91861 4.91861 4.88183 4.88183 4.88183 4.52397 4.52397 4.52397 4.87862 4.87862 4.87862 4.94376 4.94376 4.94376 4.89954 4.89954 4.89954 4.73308 4.73308 4.73308 4.96074 4.96074 4.96074 4.17941 4.17941 4.17941 4.90187 4.90187 4.90187 4.82741 4.82741 4.82741 4.86658 4.86658 4.86658 4.76223 4.76223 4.76223 4.87707 4.87707 4.87707 4.83762 4.83762 4.83762 4.87079 4.87079 4.87079 4.92526 4.92526 4.92526 4.92187 4.92187 4.92187 4.93984 4.93984 4.93984 4.59559 4.59559 4.59559 4.91994 4.91994 4.91994 3.13438 3.13438 3.13438 4.86958 4.86958 4.86958 4.92731 4.92731 4.92731 4.93917 4.93917 4.93917 4.84925 4.84925 4.84925 4.88459 4.88459 4.88459 4.9265 4.9265 4.9265 4.8655 4.8655 4.8655 4.86905 4.86905 4.86905 4.95455 4.95455 4.95455 4.92945 4.92945 4.92945 4.47292 4.47292 4.47292 4.85049 4.85049 4.85049 4.92153 4.92153 4.92153 4.88277 4.88277 4.88277 4.86248 4.86248 4.86248 4.94293 4.94293 4.94293 4.79166 4.79166 4.79166 4.91109 4.91109 4.91109 4.94129 4.94129 4.94129 4.92575 4.92575 4.92575 4.84688 4.84688 4.84688 4.92791 4.92791 4.92791 4.28336 4.28336 4.28336 4.89162 4.89162 4.89162 4.29773 4.29773 4.29773 4.94387 4.94387 4.94387 4.7504 4.7504 4.7504 4.89421 4.89421 4.89421 4.88043 4.88043 4.88043 4.92212 4.92212 4.92212 4.83124 4.83124 4.83124 4.78404 4.78404 4.78404 4.94935 4.94935 4.94935 4.92025 4.92025 4.92025 4.8151 4.8151 4.8151 4.89788 4.89788 4.89788 4.82481 4.82481 4.82481 4.83278 4.83278 4.83278 4.88144 4.88144 4.88144 4.87272 4.87272 4.87272 4.88448 4.88448 4.88448 4.92307 4.92307 4.92307 4.91953 4.91953 4.91953 4.92737 4.92737 4.92737 4.91975 4.91975 4.91975 4.86543 4.86543 4.86543 4.81034 4.81034 4.81034 4.86707 4.86707 4.86707 4.92083 4.92083 4.92083 4.88718 4.88718 4.88718 4.78811 4.78811 4.78811 4.87468 4.87468 4.87468 4.9248 4.9248 4.9248 4.87174 4.87174 4.87174 4.87661 4.87661 4.87661 4.88641 4.88641 4.88641 4.91975 4.91975 4.91975 4.93322 4.93322 4.93322 4.91689 4.91689 4.91689 4.87753 4.87753 4.87753 4.88713 4.88713 4.88713 4.92535 4.92535 4.92535 4.85448 4.85448 4.85448 4.87163 4.87163 4.87163 4.64319 4.64319 4.64319 4.86819 4.86819 4.86819 4.78302 4.78302 4.78302 4.87846 4.87846 4.87846 4.84154 4.84154 4.84154 4.90712 4.90712 4.90712 4.91845 4.91845 4.91845 4.92217 4.92217 4.92217 4.49108 4.49108 4.49108 4.79085 4.79085 4.79085 4.95171 4.95171 4.95171 4.92769 4.92769 4.92769 4.87957 4.87957 4.87957 4.7662 4.7662 4.7662 4.7491 4.7491 4.7491 4.91722 4.91722 4.91722 4.83565 4.83565 4.83565 4.71089 4.71089 4.71089 4.72367 4.72367 4.72367 4.92265 4.92265 4.92265 4.86056 4.86056 4.86056 4.91221 4.91221 4.91221 4.91879 4.91879 4.91879 4.8435 4.8435 4.8435 4.8705 4.8705 4.8705 4.74935 4.74935 4.74935 4.84803 4.84803 4.84803 4.76999 4.76999 4.76999 4.85676 4.85676 4.85676 4.9212 4.9212 4.9212 4.68849 4.68849 4.68849 4.86346 4.86346 4.86346 4.91842 4.91842 4.91842 4.99382 4.99382 4.99382 4.27043 4.27043 4.27043 4.87511 4.87511 4.87511 4.84171 4.84171 4.84171 4.9125 4.9125 4.9125 4.8611 4.8611 4.8611 4.76052 4.76052 4.76052 4.96862 4.96862 4.96862 4.78416 4.78416 4.78416 4.88902 4.88902 4.88902 4.72305 4.72305 4.72305 4.92349 4.92349 4.92349 4.93157 4.93157 4.93157 4.74677 4.74677 4.74677 4.9261 4.9261 4.9261 4.51383 4.51383 4.51383 4.52483 4.52483 4.52483 4.38423 4.38423 4.38423 4.92523 4.92523 4.92523 4.92906 4.92906 4.92906 4.97028 4.97028 4.97028 4.93805 4.93805 4.93805 4.93303 4.93303 4.93303 4.93535 4.93535 4.93535 4.87884 4.87884 4.87884 4.91873 4.91873 4.91873 4.95533 4.95533 4.95533 4.91589 4.91589 4.91589 4.89305 4.89305 4.89305 4.88242 4.88242 4.88242 4.96886 4.96886 4.96886 4.79429 4.79429 4.79429 4.88934 4.88934 4.88934 4.82626 4.82626 4.82626 4.82645 4.82645 4.82645 4.88939 4.88939 4.88939 4.92008 4.92008 4.92008 4.80365 4.80365 4.80365 4.88054 4.88054 4.88054 4.93554 4.93554 4.93554 4.91198 4.91198 4.91198 4.92178 4.92178 4.92178 4.8785 4.8785 4.8785 4.79483 4.79483 4.79483 4.84361 4.84361 4.84361 4.91558 4.91558 4.91558 4.88748 4.88748 4.88748 4.86426 4.86426 4.86426 4.82215 4.82215 4.82215 4.87732 4.87732 4.87732 4.81349 4.81349 4.81349 4.84111 4.84111 4.84111 4.90956 4.90956 4.90956 4.91949 4.91949 4.91949 4.93764 4.93764 4.93764 4.93113 4.93113 4.93113 4.91822 4.91822 4.91822 4.94284 4.94284 4.94284 4.9232 4.9232 4.9232 4.83548 4.83548 4.83548 4.59832 4.59832 4.59832 4.88177 4.88177 4.88177 4.54603 4.54603 4.54603 4.85035 4.85035 4.85035 4.88991 4.88991 4.88991 4.92109 4.92109 4.92109 4.82348 4.82348 4.82348 4.91439 4.91439 4.91439 4.77022 4.77022 4.77022 4.85612 4.85612 4.85612 4.91641 4.91641 4.91641 4.9214 4.9214 4.9214 4.88357 4.88357 4.88357 4.89324 4.89324 4.89324 4.92376 4.92376 4.92376 4.97301 4.97301 4.97301 4.9181 4.9181 4.9181 4.71751 4.71751 4.71751 4.90506 4.90506 4.90506 4.89887 4.89887 4.89887 4.46707 4.46707 4.46707 4.80955 4.80955 4.80955 4.9295 4.9295 4.9295 4.89564 4.89564 4.89564 4.91599 4.91599 4.91599 4.89764 4.89764 4.89764 4.90215 4.90215 4.90215 4.91795 4.91795 4.91795 4.91518 4.91518 4.91518 4.88109 4.88109 4.88109 4.89838 4.89838 4.89838 4.88144 4.88144 4.88144 4.90502 4.90502 4.90502 4.91511 4.91511 4.91511 4.87101 4.87101 4.87101 4.9149 4.9149 4.9149 4.92085 4.92085 4.92085 4.89283 4.89283 4.89283 4.90596 4.90596 4.90596 4.91086 4.91086 4.91086 4.91261 4.91261 4.91261 4.91973 4.91973 4.91973 4.82843 4.82843 4.82843 4.91407 4.91407 4.91407 4.87248 4.87248 4.87248 4.86831 4.86831 4.86831 4.84397 4.84397 4.84397 4.93212 4.93212 4.93212 4.82092 4.82092 4.82092 4.86737 4.86737 4.86737 4.84018 4.84018 4.84018 4.79491 4.79491 4.79491 4.82501 4.82501 4.82501 4.891 4.891 4.891 4.85712 4.85712 4.85712 4.84538 4.84538 4.84538 4.83294 4.83294 4.83294 4.82824 4.82824 4.82824 4.83443 4.83443 4.83443 4.83311 4.83311 4.83311 4.82304 4.82304 4.82304 4.91251 4.91251 4.91251 4.80935 4.80935 4.80935 4.8489 4.8489 4.8489 4.79075 4.79075 4.79075 4.91251 4.91251 4.91251 4.78111 4.78111 4.78111 4.80666 4.80666 4.80666 4.77882 4.77882 4.77882 5.24857 5.24857 5.24857 4.75659 4.75659 4.75659 4.78555 4.78555 4.78555 4.72871 4.72871 4.72871 4.74326 4.74326 4.74326 4.77849 4.77849 4.77849 4.75905 4.75905 4.75905 4.81623 4.81623 4.81623 4.70982 4.70982 4.70982 4.6806 4.6806 4.6806 4.68369 4.68369 4.68369 5.26326 5.26326 5.26326 4.93724 4.93724 4.93724 5.43964 5.43964 5.43964 4.88734 4.88734 4.88734 4.72024 4.72024 4.72024 5.34253 5.34253 5.34253 5.11029 5.11029 5.11029 4.59833 4.59833 4.59833 5.09625 5.09625 5.09625 5.44765 5.44765 5.44765 5.33457 5.33457 5.33457 5.2276 5.2276 5.2276 4.99194 4.99194 4.99194 4.73603 4.73603 4.73603 4.92258 4.92258 4.92258 4.66594 4.66594 4.66594 5.10789 5.10789 5.10789 5.25452 5.25452 5.25452 5.31898 5.31898 5.31898 5.24246 5.24246 5.24246 5.31589 5.31589 5.31589 5.0967 5.0967 5.0967 5.22306 5.22306 5.22306 5.19588 5.19588 5.19588 5.24261 5.24261 5.24261 5.30906 5.30906 5.30906 4.82999 4.82999 4.82999 5.17625 5.17625 5.17625 5.44692 5.44692 5.44692 4.81309 4.81309 4.81309 5.44664 5.44664 5.44664 5.35212 5.35212 5.35212 4.81759 4.81759 4.81759 5.34768 5.34768 5.34768 4.82177 4.82177 4.82177 5.45117 5.45117 5.45117 5.18516 5.18516 5.18516 5.20564 5.20564 5.20564 5.26526 5.26526 5.26526 5.10832 5.10832 5.10832 5.12346 5.12346 5.12346 5.32694 5.32694 5.32694 5.0023 5.0023 5.0023 5.26041 5.26041 5.26041 4.95264 4.95264 4.95264 5.27197 5.27197 5.27197 4.89169 4.89169 4.89169 5.12235 5.12235 5.12235 4.72339 4.72339 4.72339 5.13386 5.13386 5.13386 4.81067 4.81067 4.81067 4.94559 4.94559 4.94559 4.71637 4.71637 4.71637 4.68962 4.68962 4.68962 4.76294 4.76294 4.76294 4.74322 4.74322 4.74322 4.74022 4.74022 4.74022 4.59094 4.59094 4.59094 4.75633 4.75633 4.75633 4.66713 4.66713 4.66713 4.81906 4.81906 4.81906 4.76415 4.76415 4.76415 5.33782 5.33782 5.33782 4.66046 4.66046 4.66046 4.77006 4.77006 4.77006 4.68012 4.68012 4.68012 4.78598 4.78598 4.78598 4.71535 4.71535 4.71535 4.78901 4.78901 4.78901 4.72309 4.72309 4.72309 4.80666 4.80666 4.80666 4.80429 4.80429 4.80429 4.75315 4.75315 4.75315 4.80666 4.80666 4.80666 4.75889 4.75889 4.75889 4.78077 4.78077 4.78077 4.82136 4.82136 4.82136 4.78596 4.78596 4.78596 4.82065 4.82065 4.82065 4.80189 4.80189 4.80189 3.55659 3.55659 3.55659 2.70961 2.70961 2.70961 4.90421 4.90421 4.90421 4.91361 4.91361 4.91361 4.93232 4.93232 4.93232 4.77484 4.77484 4.77484 4.91727 4.91727 4.91727 4.97088 4.97088 4.97088 4.95506 4.95506 4.95506 2.43647 2.43647 2.43647 4.91875 4.91875 4.91875 4.91542 4.91542 4.91542 4.49169 4.49169 4.49169 4.89537 4.89537 4.89537 4.89114 4.89114 4.89114 2.50383 2.50383 2.50383 4.8298 4.8298 4.8298 4.82787 4.82787 4.82787 4.92908 4.92908 4.92908 4.92691 4.92691 4.92691 4.85409 4.85409 4.85409 4.85643 4.85643 4.85643 4.86304 4.86304 4.86304 4.92527 4.92527 4.92527 4.92771 4.92771 4.92771 4.84111 4.84111 4.84111 4.81324 4.81324 4.81324 4.90964 4.90964 4.90964 4.90368 4.90368 4.90368 4.84198 4.84198 4.84198 4.93095 4.93095 4.93095 4.91959 4.91959 4.91959 4.92257 4.92257 4.92257 4.87374 4.87374 4.87374 4.88412 4.88412 4.88412 4.90467 4.90467 4.90467 4.91824 4.91824 4.91824 4.89831 4.89831 4.89831 4.8969 4.8969 4.8969 4.29097 4.29097 4.29097 1.54385 1.54385 1.54385 1.59423 1.59423 1.59423 3.62443 3.62443 3.62443 3.90198 3.90198 3.90198 3.83345 3.83345 3.83345 5.03769 5.03769 5.03769 4.85379 4.85379 4.85379 5.04995 5.04995 5.04995 5.0415 5.0415 5.0415 4.71212 4.71212 4.71212 4.90947 4.90947 4.90947 4.8576 4.8576 4.8576 5.00063 5.00063 5.00063 4.98221 4.98221 4.98221 4.91345 4.91345 4.91345 4.90083 4.90083 4.90083 4.98499 4.98499 4.98499 4.93928 4.93928 4.93928 4.97897 4.97897 4.97897 4.95568 4.95568 4.95568 4.94091 4.94091 4.94091 4.95692 4.95692 4.95692 4.95486 4.95486 4.95486 4.94522 4.94522 4.94522 4.93843 4.93843 4.93843 4.93575 4.93575 4.93575 4.93621 4.93621 4.93621 4.94052 4.94052 4.94052 4.93283 4.93283 4.93283 4.84688 4.84688 4.84688 3.10503 3.10503 3.10503 4.82714 4.82714 4.82714 4.47868 4.47868 4.47868 4.84129 4.84129 4.84129 4.66268 4.66268 4.66268 4.88518 4.88518 4.88518 4.89334 4.89334 4.89334 4.70045 4.70045 4.70045 4.91067 4.91067 4.91067 4.91093 4.91093 4.91093 4.85592 4.85592 4.85592 4.86628 4.86628 4.86628 4.86891 4.86891 4.86891 4.88587 4.88587 4.88587 4.85222 4.85222 4.85222 3.682 3.682 3.682 4.93271 4.93271 4.93271 4.83811 4.83811 4.83811 4.85101 4.85101 4.85101 4.91396 4.91396 4.91396 4.75063 4.75063 4.75063 4.90112 4.90112 4.90112 4.90875 4.90875 4.90875 4.88768 4.88768 4.88768 4.92501 4.92501 4.92501 4.84666 4.84666 4.84666 4.84095 4.84095 4.84095 4.83331 4.83331 4.83331 4.83203 4.83203 4.83203 4.92926 4.92926 4.92926 1.21321 1.21321 1.21321 4.92949 4.92949 4.92949 1.62954 1.62954 1.62954 4.92935 4.92935 4.92935 4.84109 4.84109 4.84109 4.84181 4.84181 4.84181 4.92689 4.92689 4.92689 4.91607 4.91607 4.91607 4.94863 4.94863 4.94863 4.9477 4.9477 4.9477 4.89594 4.89594 4.89594 4.92696 4.92696 4.92696 4.90621 4.90621 4.90621 4.89798 4.89798 4.89798 4.90023 4.90023 4.90023 4.90166 4.90166 4.90166 4.82425 4.82425 4.82425 4.36491 4.36491 4.36491 4.92209 4.92209 4.92209 4.87695 4.87695 4.87695 4.87227 4.87227 4.87227 4.8703 4.8703 4.8703 4.88531 4.88531 4.88531 4.90642 4.90642 4.90642 4.89409 4.89409 4.89409 4.89638 4.89638 4.89638 4.89823 4.89823 4.89823 4.26341 4.26341 4.26341 1.33994 1.33994 1.33994 3.97473 3.97473 3.97473 4.59338 4.59338 4.59338 4.63625 4.63625 4.63625 5.17568 5.17568 5.17568 4.65505 4.65505 4.65505 5.02168 5.02168 5.02168 4.8658 4.8658 4.8658 4.97535 4.97535 4.97535 4.99151 4.99151 4.99151 4.97056 4.97056 4.97056 4.90843 4.90843 4.90843 4.97695 4.97695 4.97695 4.98354 4.98354 4.98354 4.97465 4.97465 4.97465 4.94389 4.94389 4.94389 4.95122 4.95122 4.95122 4.95227 4.95227 4.95227 4.95034 4.95034 4.95034 4.95022 4.95022 4.95022 4.94594 4.94594 4.94594 4.9385 4.9385 4.9385 4.93739 4.93739 4.93739 4.93251 4.93251 4.93251 4.91649 4.91649 4.91649 4.94806 4.94806 4.94806 4.94524 4.94524 4.94524 4.9303 4.9303 4.9303 4.91629 4.91629 4.91629 4.88687 4.88687 4.88687 4.90486 4.90486 4.90486 4.89595 4.89595 4.89595 4.68624 4.68624 4.68624 4.89844 4.89844 4.89844 2.90418 2.90418 2.90418 4.92583 4.92583 4.92583 4.92795 4.92795 4.92795 4.91774 4.91774 4.91774 4.95936 4.95936 4.95936 4.95602 4.95602 4.95602 4.9496 4.9496 4.9496 4.94174 4.94174 4.94174 4.93749 4.93749 4.93749 4.95918 4.95918 4.95918 4.95153 4.95153 4.95153 4.97191 4.97191 4.97191 4.84077 4.84077 4.84077 4.90973 4.90973 4.90973 4.92138 4.92138 4.92138 2.77306 2.77306 2.77306 4.86036 4.86036 4.86036 4.87278 4.87278 4.87278 4.92459 4.92459 4.92459 4.8831 4.8831 4.8831 3.61525 3.61525 3.61525 4.93136 4.93136 4.93136 4.93059 4.93059 4.93059 4.8435 4.8435 4.8435 4.91341 4.91341 4.91341 4.74 4.74 4.74 4.90711 4.90711 4.90711 4.89917 4.89917 4.89917 2.25112 2.25112 2.25112 4.83346 4.83346 4.83346 2.44925 2.44925 2.44925 4.92854 4.92854 4.92854 4.84462 4.84462 4.84462 4.91175 4.91175 4.91175 4.7091 4.7091 4.7091 4.91405 4.91405 4.91405 4.832 4.832 4.832 4.92952 4.92952 4.92952 1.61268 1.61268 1.61268 4.83989 4.83989 4.83989 4.54876 4.54876 4.54876 4.94401 4.94401 4.94401 4.94465 4.94465 4.94465 4.92869 4.92869 4.92869 4.95418 4.95418 4.95418 4.96781 4.96781 4.96781 4.9582 4.9582 4.9582 2.99374 2.99374 2.99374 4.95729 4.95729 4.95729 4.92905 4.92905 4.92905 4.93942 4.93942 4.93942 4.92762 4.92762 4.92762 4.9449 4.9449 4.9449 4.94274 4.94274 4.94274 4.96033 4.96033 4.96033 4.95577 4.95577 4.95577 4.84296 4.84296 4.84296 4.89829 4.89829 4.89829 4.50357 4.50357 4.50357 4.89971 4.89971 4.89971 4.9535 4.9535 4.9535 4.95292 4.95292 4.95292 4.91694 4.91694 4.91694 4.91359 4.91359 4.91359 4.92458 4.92458 4.92458 2.01849 2.01849 2.01849 4.83259 4.83259 4.83259 4.92308 4.92308 4.92308 4.84132 4.84132 4.84132 4.92753 4.92753 4.92753 4.90275 4.90275 4.90275 4.74418 4.74418 4.74418 4.67077 4.67077 4.67077 4.91157 4.91157 4.91157 4.92281 4.92281 4.92281 4.81304 4.81304 4.81304 6.09936 6.09936 6.09936 6.14968 6.14968 6.14968 6.14596 6.14596 6.14596 6.66356 6.66356 6.66356 6.10267 6.10267 6.10267 6.08303 6.08303 6.08303 6.09797 6.09797 6.09797 6.08848 6.08848 6.08848 6.36882 6.36882 6.36882 6.15262 6.15262 6.15262 6.14827 6.14827 6.14827 6.22874 6.22874 6.22874 6.23661 6.23661 6.23661 5.74376 5.74376 5.74376 5.79858 5.79858 5.79858 5.66537 5.66537 5.66537 5.65579 5.65579 5.65579 6.08192 6.08192 6.08192 6.06524 6.06524 6.06524 6.20828 6.20828 6.20828 6.28736 6.28736 6.28736 6.2283 6.2283 6.2283 6.25497 6.25497 6.25497 6.20521 6.20521 6.20521 6.19503 6.19503 6.19503 6.78799 6.78799 6.78799 6.10342 6.10342 6.10342 6.09289 6.09289 6.09289 6.22253 6.22253 6.22253 6.08308 6.08308 6.08308 6.12767 6.12767 6.12767 6.16715 6.16715 6.16715 6.17989 6.17989 6.17989 6.16455 6.16455 6.16455 6.17662 6.17662 6.17662 6.07609 6.07609 6.07609 6.10323 6.10323 6.10323 6.14276 6.14276 6.14276 6.09633 6.09633 6.09633 8.23043 8.23043 8.23043 6.28605 6.28605 6.28605 6.09106 6.09106 6.09106 6.18704 6.18704 6.18704 6.19034 6.19034 6.19034 6.25537 6.25537 6.25537 6.2623 6.2623 6.2623 6.19003 6.19003 6.19003 6.34144 6.34144 6.34144 6.24408 6.24408 6.24408 5.82446 5.82446 5.82446 5.65505 5.65505 5.65505 5.74114 5.74114 5.74114 5.94704 5.94704 5.94704 6.1865 6.1865 6.1865 6.18015 6.18015 6.18015 6.2021 6.2021 6.2021 6.20679 6.20679 6.20679 6.38683 6.38683 6.38683 5.97388 5.97388 5.97388 5.84824 5.84824 5.84824 5.65457 5.65457 5.65457 6.16552 6.16552 6.16552 6.3045 6.3045 6.3045 6.21852 6.21852 6.21852 6.17329 6.17329 6.17329 6.16985 6.16985 6.16985 6.28379 6.28379 6.28379 5.89863 5.89863 5.89863 6.22862 6.22862 6.22862 5.80482 5.80482 5.80482 6.38306 6.38306 6.38306 5.67252 5.67252 5.67252 6.07825 6.07825 6.07825 6.15127 6.15127 6.15127 8.47446 8.47446 8.47446 7.84542 7.84542 7.84542 6.07548 6.07548 6.07548 6.09608 6.09608 6.09608 6.10822 6.10822 6.10822 6.09121 6.09121 6.09121 6.08003 6.08003 6.08003 7.30034 7.30034 7.30034 6.37227 6.37227 6.37227 6.12247 6.12247 6.12247 7.19161 7.19161 7.19161 7.57772 7.57772 7.57772 6.09868 6.09868 6.09868 8.1815 8.1815 8.1815 6.08852 6.08852 6.08852 6.09516 6.09516 6.09516 6.15324 6.15324 6.15324 6.16209 6.16209 6.16209 6.16866 6.16866 6.16866 6.15916 6.15916 6.15916 6.16108 6.16108 6.16108 6.10188 6.10188 6.10188 6.11947 6.11947 6.11947 6.10671 6.10671 6.10671 6.11796 6.11796 6.11796 6.09072 6.09072 6.09072 7.31541 7.31541 7.31541 6.11197 6.11197 6.11197 6.09022 6.09022 6.09022 6.15892 6.15892 6.15892 6.0953 6.0953 6.0953 7.66254 7.66254 7.66254 6.10847 6.10847 6.10847 6.08507 6.08507 6.08507 6.63244 6.63244 6.63244 6.07761 6.07761 6.07761 6.1434 6.1434 6.1434 6.13211 6.13211 6.13211 6.09287 6.09287 6.09287 6.20576 6.20576 6.20576 6.14884 6.14884 6.14884 6.1344 6.1344 6.1344 6.08767 6.08767 6.08767 7.67598 7.67598 7.67598 6.08166 6.08166 6.08166 6.07869 6.07869 6.07869 6.08003 6.08003 6.08003 6.07953 6.07953 6.07953 6.09736 6.09736 6.09736 6.16214 6.16214 6.16214 6.16838 6.16838 6.16838 5.76372 5.76372 5.76372 5.71279 5.71279 5.71279 6.22358 6.22358 6.22358 7.85595 7.85595 7.85595 6.07801 6.07801 6.07801 8.92479 8.92479 8.92479 7.98868 7.98868 7.98868 8.71014 8.71014 8.71014 7.88643 7.88643 7.88643 6.08096 6.08096 6.08096 6.07543 6.07543 6.07543 6.07356 6.07356 6.07356 6.0713 6.0713 6.0713 6.07055 6.07055 6.07055 6.06807 6.06807 6.06807 6.06745 6.06745 6.06745 6.06431 6.06431 6.06431 6.05922 6.05922 6.05922 6.05597 6.05597 6.05597 6.05012 6.05012 6.05012 6.04758 6.04758 6.04758 6.04147 6.04147 6.04147 6.04023 6.04023 6.04023 6.044 6.044 6.044 6.03719 6.03719 6.03719 6.07479 6.07479 6.07479 6.07466 6.07466 6.07466 6.07224 6.07224 6.07224 6.04199 6.04199 6.04199 6.07307 6.07307 6.07307 6.03461 6.03461 6.03461 6.04052 6.04052 6.04052 6.03246 6.03246 6.03246 6.06397 6.06397 6.06397 6.05477 6.05477 6.05477 6.05982 6.05982 6.05982 6.0258 6.0258 6.0258 6.06029 6.06029 6.06029 6.05656 6.05656 6.05656 6.04958 6.04958 6.04958 6.0444 6.0444 6.0444 6.04957 6.04957 6.04957 6.05294 6.05294 6.05294 6.04641 6.04641 6.04641 6.03937 6.03937 6.03937 6.0346 6.0346 6.0346 6.04655 6.04655 6.04655 6.0377 6.0377 6.0377 6.02201 6.02201 6.02201 6.03546 6.03546 6.03546 6.01475 6.01475 6.01475 6.03958 6.03958 6.03958 6.0144 6.0144 6.0144 6.03902 6.03902 6.03902 6.01864 6.01864 6.01864 6.02866 6.02866 6.02866 6.03008 6.03008 6.03008 6.05426 6.05426 6.05426 6.00019 6.00019 6.00019 6.05713 6.05713 6.05713 6.01846 6.01846 6.01846 6.02615 6.02615 6.02615 5.97383 5.97383 5.97383 5.99203 5.99203 5.99203 5.945 5.945 5.945 9.63088 9.63088 9.63088 5.93538 5.93538 5.93538 6.13521 6.13521 6.13521 6.12423 6.12423 6.12423 6.12078 6.12078 6.12078 6.08752 6.08752 6.08752 6.18708 6.18708 6.18708 6.03936 6.03936 6.03936 6.13946 6.13946 6.13946 6.08886 6.08886 6.08886 6.13229 6.13229 6.13229 6.0891 6.0891 6.0891 6.13406 6.13406 6.13406 6.04372 6.04372 6.04372 6.08645 6.08645 6.08645 6.08415 6.08415 6.08415 6.17738 6.17738 6.17738 8.41443 8.41443 8.41443 6.00456 6.00456 6.00456 6.33434 6.33434 6.33434 6.02215 6.02215 6.02215 6.10501 6.10501 6.10501 8.76848 8.76848 8.76848 6.08934 6.08934 6.08934 6.09489 6.09489 6.09489 6.20947 6.20947 6.20947 6.10191 6.10191 6.10191 6.05175 6.05175 6.05175 6.06022 6.06022 6.06022 6.08842 6.08842 6.08842 6.49517 6.49517 6.49517 6.10336 6.10336 6.10336 6.10527 6.10527 6.10527 6.18807 6.18807 6.18807 6.09517 6.09517 6.09517 6.09002 6.09002 6.09002 6.11643 6.11643 6.11643 6.0945 6.0945 6.0945 6.43412 6.43412 6.43412 6.09217 6.09217 6.09217 6.15436 6.15436 6.15436 6.0551 6.0551 6.0551 6.05171 6.05171 6.05171 6.3481 6.3481 6.3481 6.09309 6.09309 6.09309 6.11976 6.11976 6.11976 6.04165 6.04165 6.04165 6.22977 6.22977 6.22977 6.12775 6.12775 6.12775 6.20771 6.20771 6.20771 6.05122 6.05122 6.05122 6.0027 6.0027 6.0027 6.08812 6.08812 6.08812 6.09046 6.09046 6.09046 6.17635 6.17635 6.17635 6.13167 6.13167 6.13167 6.02929 6.02929 6.02929 6.065 6.065 6.065 6.09006 6.09006 6.09006 6.08707 6.08707 6.08707 6.17811 6.17811 6.17811 6.23695 6.23695 6.23695 6.17034 6.17034 6.17034 6.13449 6.13449 6.13449 6.08752 6.08752 6.08752 6.08609 6.08609 6.08609 6.04535 6.04535 6.04535 6.08917 6.08917 6.08917 6.08346 6.08346 6.08346 6.16768 6.16768 6.16768 6.00592 6.00592 6.00592 5.86615 5.86615 5.86615 6.0547 6.0547 6.0547 6.0935 6.0935 6.0935 6.05419 6.05419 6.05419 6.04899 6.04899 6.04899 6.10162 6.10162 6.10162 5.95828 5.95828 5.95828 6.0167 6.0167 6.0167 6.05887 6.05887 6.05887 6.20779 6.20779 6.20779 6.0681 6.0681 6.0681 6.08896 6.08896 6.08896 6.17019 6.17019 6.17019 6.16251 6.16251 6.16251 6.19396 6.19396 6.19396 6.01418 6.01418 6.01418 6.27626 6.27626 6.27626 6.0786 6.0786 6.0786 5.95825 5.95825 5.95825 6.15431 6.15431 6.15431 6.16001 6.16001 6.16001 6.21731 6.21731 6.21731 6.05913 6.05913 6.05913 6.07197 6.07197 6.07197 6.09058 6.09058 6.09058 6.10363 6.10363 6.10363 6.09934 6.09934 6.09934 6.21164 6.21164 6.21164 6.09379 6.09379 6.09379 6.16178 6.16178 6.16178 6.06097 6.06097 6.06097 6.11819 6.11819 6.11819 6.09827 6.09827 6.09827 6.09071 6.09071 6.09071 6.13006 6.13006 6.13006 6.0865 6.0865 6.0865 6.08315 6.08315 6.08315 6.17573 6.17573 6.17573 6.23223 6.23223 6.23223 6.12496 6.12496 6.12496 6.04535 6.04535 6.04535 6.09391 6.09391 6.09391 6.08717 6.08717 6.08717 6.12714 6.12714 6.12714 6.25754 6.25754 6.25754 6.1328 6.1328 6.1328 6.09056 6.09056 6.09056 6.79479 6.79479 6.79479 6.06034 6.06034 6.06034 6.21634 6.21634 6.21634 5.95714 5.95714 5.95714 6.04044 6.04044 6.04044 6.08838 6.08838 6.08838 6.156 6.156 6.156 6.16378 6.16378 6.16378 6.0461 6.0461 6.0461 6.08847 6.08847 6.08847 6.15885 6.15885 6.15885 6.29661 6.29661 6.29661 6.06522 6.06522 6.06522 5.99858 5.99858 5.99858 6.14402 6.14402 6.14402 6.2559 6.2559 6.2559 6.20096 6.20096 6.20096 6.2942 6.2942 6.2942 6.17565 6.17565 6.17565 6.70142 6.70142 6.70142 6.062 6.062 6.062 6.09047 6.09047 6.09047 6.09899 6.09899 6.09899 6.27447 6.27447 6.27447 6.34791 6.34791 6.34791 6.10218 6.10218 6.10218 6.11753 6.11753 6.11753 6.08615 6.08615 6.08615 6.00487 6.00487 6.00487 6.83578 6.83578 6.83578 6.10479 6.10479 6.10479 6.14763 6.14763 6.14763 5.99458 5.99458 5.99458 6.36294 6.36294 6.36294 6.05942 6.05942 6.05942 6.33496 6.33496 6.33496 6.24948 6.24948 6.24948 5.91294 5.91294 5.91294 6.05917 6.05917 6.05917 6.08282 6.08282 6.08282 6.06934 6.06934 6.06934 6.19891 6.19891 6.19891 6.11291 6.11291 6.11291 6.18577 6.18577 6.18577 6.24467 6.24467 6.24467 6.00569 6.00569 6.00569 6.0981 6.0981 6.0981 6.13292 6.13292 6.13292 6.13722 6.13722 6.13722 6.26616 6.26616 6.26616 6.06847 6.06847 6.06847 6.15162 6.15162 6.15162 6.17809 6.17809 6.17809 6.11235 6.11235 6.11235 6.08559 6.08559 6.08559 6.09062 6.09062 6.09062 6.08684 6.08684 6.08684 6.21854 6.21854 6.21854 6.16972 6.16972 6.16972 6.16211 6.16211 6.16211 6.07307 6.07307 6.07307 6.08539 6.08539 6.08539 6.25194 6.25194 6.25194 6.01098 6.01098 6.01098 6.08397 6.08397 6.08397 6.10679 6.10679 6.10679 6.08487 6.08487 6.08487 6.14976 6.14976 6.14976 6.25263 6.25263 6.25263 6.12988 6.12988 6.12988 6.08866 6.08866 6.08866 6.08763 6.08763 6.08763 6.15401 6.15401 6.15401 6.11958 6.11958 6.11958 6.08777 6.08777 6.08777 6.03799 6.03799 6.03799 6.05649 6.05649 6.05649 6.00674 6.00674 6.00674 6.14845 6.14845 6.14845 6.03857 6.03857 6.03857 6.10429 6.10429 6.10429 6.19868 6.19868 6.19868 6.08562 6.08562 6.08562 6.04686 6.04686 6.04686 6.08083 6.08083 6.08083 6.23502 6.23502 6.23502 6.08798 6.08798 6.08798 6.11591 6.11591 6.11591 6.27426 6.27426 6.27426 6.21503 6.21503 6.21503 6.06522 6.06522 6.06522 6.35894 6.35894 6.35894 6.13946 6.13946 6.13946 6.12894 6.12894 6.12894 6.05806 6.05806 6.05806 6.11216 6.11216 6.11216 6.09163 6.09163 6.09163 6.15633 6.15633 6.15633 6.08729 6.08729 6.08729 6.1295 6.1295 6.1295 6.05483 6.05483 6.05483 6.02022 6.02022 6.02022 6.13845 6.13845 6.13845 6.27768 6.27768 6.27768 6.073 6.073 6.073 6.07384 6.07384 6.07384 6.14341 6.14341 6.14341 6.18078 6.18078 6.18078 6.06388 6.06388 6.06388 6.08222 6.08222 6.08222 6.09978 6.09978 6.09978 6.06768 6.06768 6.06768 6.08653 6.08653 6.08653 6.15813 6.15813 6.15813 6.16942 6.16942 6.16942 6.06688 6.06688 6.06688 6.07423 6.07423 6.07423 6.39626 6.39626 6.39626 6.08112 6.08112 6.08112 6.0786 6.0786 6.0786 6.20216 6.20216 6.20216 6.07289 6.07289 6.07289 6.08522 6.08522 6.08522 6.11131 6.11131 6.11131 6.19255 6.19255 6.19255 6.13679 6.13679 6.13679 6.43769 6.43769 6.43769 6.09202 6.09202 6.09202 6.14776 6.14776 6.14776 6.11018 6.11018 6.11018 6.02837 6.02837 6.02837 6.0811 6.0811 6.0811 6.14413 6.14413 6.14413 6.01974 6.01974 6.01974 6.11455 6.11455 6.11455 6.03611 6.03611 6.03611 6.03334 6.03334 6.03334 6.00298 6.00298 6.00298 6.17278 6.17278 6.17278 6.19116 6.19116 6.19116 5.94229 5.94229 5.94229 6.10388 6.10388 6.10388 6.0821 6.0821 6.0821 6.18941 6.18941 6.18941 6.15963 6.15963 6.15963 6.49334 6.49334 6.49334 6.072 6.072 6.072 6.33806 6.33806 6.33806 6.29066 6.29066 6.29066 6.19096 6.19096 6.19096 6.08095 6.08095 6.08095 6.07814 6.07814 6.07814 6.17104 6.17104 6.17104 6.07283 6.07283 6.07283 6.05395 6.05395 6.05395 6.10073 6.10073 6.10073 6.21816 6.21816 6.21816 6.04899 6.04899 6.04899 6.17952 6.17952 6.17952 6.15783 6.15783 6.15783 6.09138 6.09138 6.09138 6.13087 6.13087 6.13087 6.18627 6.18627 6.18627 6.0857 6.0857 6.0857 6.09773 6.09773 6.09773 6.07243 6.07243 6.07243 6.0651 6.0651 6.0651 6.14472 6.14472 6.14472 6.07511 6.07511 6.07511 6.07881 6.07881 6.07881 6.10842 6.10842 6.10842 6.15379 6.15379 6.15379 6.15287 6.15287 6.15287 6.08746 6.08746 6.08746 6.18282 6.18282 6.18282 6.15233 6.15233 6.15233 6.0871 6.0871 6.0871 6.08627 6.08627 6.08627 6.08955 6.08955 6.08955 6.13681 6.13681 6.13681 6.83546 6.83546 6.83546 6.07083 6.07083 6.07083 6.08128 6.08128 6.08128 6.10205 6.10205 6.10205 6.16681 6.16681 6.16681 6.26111 6.26111 6.26111 5.94223 5.94223 5.94223 6.12036 6.12036 6.12036 6.08041 6.08041 6.08041 6.08534 6.08534 6.08534 6.08419 6.08419 6.08419 6.06716 6.06716 6.06716 6.10879 6.10879 6.10879 6.17555 6.17555 6.17555 5.93563 5.93563 5.93563 6.08862 6.08862 6.08862 6.08885 6.08885 6.08885 5.95948 5.95948 5.95948 5.97784 5.97784 5.97784 5.92806 5.92806 5.92806 6.15519 6.15519 6.15519 6.07968 6.07968 6.07968 6.13543 6.13543 6.13543 6.14606 6.14606 6.14606 6.1689 6.1689 6.1689 6.29878 6.29878 6.29878 6.04178 6.04178 6.04178 6.08144 6.08144 6.08144 6.08843 6.08843 6.08843 6.15255 6.15255 6.15255 6.11637 6.11637 6.11637 6.08787 6.08787 6.08787 6.07626 6.07626 6.07626 6.02608 6.02608 6.02608 6.06758 6.06758 6.06758 6.23975 6.23975 6.23975 6.0621 6.0621 6.0621 6.04965 6.04965 6.04965 6.04453 6.04453 6.04453 6.1355 6.1355 6.1355 6.06626 6.06626 6.06626 6.05649 6.05649 6.05649 6.09638 6.09638 6.09638 6.09258 6.09258 6.09258 6.06161 6.06161 6.06161 6.08891 6.08891 6.08891 6.14502 6.14502 6.14502 6.06702 6.06702 6.06702 5.95853 5.95853 5.95853 5.89969 5.89969 5.89969 6.19108 6.19108 6.19108 6.05717 6.05717 6.05717 6.00997 6.00997 6.00997 6.22658 6.22658 6.22658 6.13497 6.13497 6.13497 6.07956 6.07956 6.07956 6.0849 6.0849 6.0849 6.44377 6.44377 6.44377 6.07973 6.07973 6.07973 6.08257 6.08257 6.08257 6.03414 6.03414 6.03414 6.02552 6.02552 6.02552 6.14837 6.14837 6.14837 6.07386 6.07386 6.07386 6.09009 6.09009 6.09009 6.06906 6.06906 6.06906 6.11012 6.11012 6.11012 6.11853 6.11853 6.11853 6.09363 6.09363 6.09363 6.04421 6.04421 6.04421 6.10347 6.10347 6.10347 6.42115 6.42115 6.42115 6.11813 6.11813 6.11813 6.09372 6.09372 6.09372 6.35723 6.35723 6.35723 6.05306 6.05306 6.05306 6.12005 6.12005 6.12005 5.90553 5.90553 5.90553 6.09044 6.09044 6.09044 6.10003 6.10003 6.10003 6.11715 6.11715 6.11715 6.05584 6.05584 6.05584 6.08216 6.08216 6.08216 6.08541 6.08541 6.08541 6.11163 6.11163 6.11163 6.09679 6.09679 6.09679 6.09961 6.09961 6.09961 6.1326 6.1326 6.1326 9.3571 9.3571 9.3571 6.34189 6.34189 6.34189 6.27797 6.27797 6.27797 6.05108 6.05108 6.05108 6.13977 6.13977 6.13977 6.0852 6.0852 6.0852 6.13758 6.13758 6.13758 6.16208 6.16208 6.16208 6.04532 6.04532 6.04532 6.08711 6.08711 6.08711 6.06687 6.06687 6.06687 6.11163 6.11163 6.11163 6.15359 6.15359 6.15359 6.14299 6.14299 6.14299 6.10753 6.10753 6.10753 6.15717 6.15717 6.15717 6.07782 6.07782 6.07782 6.15419 6.15419 6.15419 6.06806 6.06806 6.06806 6.02295 6.02295 6.02295 6.07622 6.07622 6.07622 6.91811 6.91811 6.91811 6.13121 6.13121 6.13121 6.08378 6.08378 6.08378 6.13845 6.13845 6.13845 6.07098 6.07098 6.07098 6.29913 6.29913 6.29913 5.98838 5.98838 5.98838 5.98314 5.98314 5.98314 6.06154 6.06154 6.06154 6.1013 6.1013 6.1013 6.08233 6.08233 6.08233 6.15672 6.15672 6.15672 6.07057 6.07057 6.07057 5.87009 5.87009 5.87009 5.99181 5.99181 5.99181 6.04549 6.04549 6.04549 6.08755 6.08755 6.08755 6.14811 6.14811 6.14811 6.20473 6.20473 6.20473 6.0079 6.0079 6.0079 6.07775 6.07775 6.07775 6.10023 6.10023 6.10023 6.03537 6.03537 6.03537 6.11459 6.11459 6.11459 6.17633 6.17633 6.17633 6.0929 6.0929 6.0929 6.14655 6.14655 6.14655 6.01333 6.01333 6.01333 6.07644 6.07644 6.07644 6.08395 6.08395 6.08395 6.08046 6.08046 6.08046 5.933 5.933 5.933 6.08587 6.08587 6.08587 6.09085 6.09085 6.09085 6.08913 6.08913 6.08913 6.2254 6.2254 6.2254 6.08554 6.08554 6.08554 6.08624 6.08624 6.08624 6.08862 6.08862 6.08862 6.10025 6.10025 6.10025 6.07427 6.07427 6.07427 6.07096 6.07096 6.07096 6.07308 6.07308 6.07308 6.07635 6.07635 6.07635 6.08891 6.08891 6.08891 6.0833 6.0833 6.0833 6.34535 6.34535 6.34535 6.15746 6.15746 6.15746 6.07691 6.07691 6.07691 6.14679 6.14679 6.14679 6.43004 6.43004 6.43004 6.15939 6.15939 6.15939 6.09904 6.09904 6.09904 6.11989 6.11989 6.11989 6.52648 6.52648 6.52648 6.12567 6.12567 6.12567 6.14498 6.14498 6.14498 6.17099 6.17099 6.17099 6.13388 6.13388 6.13388 5.92386 5.92386 5.92386 6.10995 6.10995 6.10995 6.71599 6.71599 6.71599 6.08017 6.08017 6.08017 6.07403 6.07403 6.07403 6.12377 6.12377 6.12377 6.13496 6.13496 6.13496 6.06824 6.06824 6.06824 6.09871 6.09871 6.09871 6.05117 6.05117 6.05117 6.12694 6.12694 6.12694 6.04967 6.04967 6.04967 6.12083 6.12083 6.12083 6.04444 6.04444 6.04444 6.13382 6.13382 6.13382 6.21419 6.21419 6.21419 6.09744 6.09744 6.09744 6.22325 6.22325 6.22325 6.14561 6.14561 6.14561 6.0918 6.0918 6.0918 6.11036 6.11036 6.11036 6.15814 6.15814 6.15814 6.14568 6.14568 6.14568 6.11513 6.11513 6.11513 5.98729 5.98729 5.98729 6.00213 6.00213 6.00213 6.14859 6.14859 6.14859 6.01506 6.01506 6.01506 6.0808 6.0808 6.0808 6.08497 6.08497 6.08497 6.01307 6.01307 6.01307 6.17559 6.17559 6.17559 6.09702 6.09702 6.09702 5.92779 5.92779 5.92779 6.16546 6.16546 6.16546 6.10077 6.10077 6.10077 5.89001 5.89001 5.89001 6.07995 6.07995 6.07995 6.10644 6.10644 6.10644 6.14677 6.14677 6.14677 5.87148 5.87148 5.87148 6.14392 6.14392 6.14392 6.15643 6.15643 6.15643 6.06412 6.06412 6.06412 6.05601 6.05601 6.05601 6.03027 6.03027 6.03027 6.19833 6.19833 6.19833 6.04214 6.04214 6.04214 6.17287 6.17287 6.17287 6.0103 6.0103 6.0103 6.15064 6.15064 6.15064 6.17969 6.17969 6.17969 6.18037 6.18037 6.18037 6.30745 6.30745 6.30745 6.08443 6.08443 6.08443 5.62035 5.62035 5.62035 5.99202 5.99202 5.99202 6.459 6.459 6.459 6.07679 6.07679 6.07679 6.07241 6.07241 6.07241 6.07168 6.07168 6.07168 6.11181 6.11181 6.11181 5.99527 5.99527 5.99527 5.83467 5.83467 5.83467 5.95631 5.95631 5.95631 6.0751 6.0751 6.0751 6.03016 6.03016 6.03016 6.3844 6.3844 6.3844 6.08464 6.08464 6.08464 6.10128 6.10128 6.10128 5.9131 5.9131 5.9131 6.07644 6.07644 6.07644 6.07225 6.07225 6.07225 6.09515 6.09515 6.09515 6.18654 6.18654 6.18654 5.85111 5.85111 5.85111 6.09273 6.09273 6.09273 6.09487 6.09487 6.09487 6.12729 6.12729 6.12729 6.16208 6.16208 6.16208 6.09089 6.09089 6.09089 6.08657 6.08657 6.08657 6.07952 6.07952 6.07952 6.14539 6.14539 6.14539 6.07485 6.07485 6.07485 6.0981 6.0981 6.0981 6.18796 6.18796 6.18796 6.25396 6.25396 6.25396 6.14286 6.14286 6.14286 6.10762 6.10762 6.10762 6.08597 6.08597 6.08597 6.09917 6.09917 6.09917 6.11082 6.11082 6.11082 6.11973 6.11973 6.11973 6.11692 6.11692 6.11692 6.10014 6.10014 6.10014 6.55471 6.55471 6.55471 6.08929 6.08929 6.08929 6.09359 6.09359 6.09359 6.0826 6.0826 6.0826 6.15424 6.15424 6.15424 6.1066 6.1066 6.1066 6.09259 6.09259 6.09259 6.12471 6.12471 6.12471 6.07679 6.07679 6.07679 6.13438 6.13438 6.13438 6.09559 6.09559 6.09559 6.15391 6.15391 6.15391 6.5702 6.5702 6.5702 5.95717 5.95717 5.95717 6.10646 6.10646 6.10646 5.7398 5.7398 5.7398 6.12716 6.12716 6.12716 6.15696 6.15696 6.15696 6.0869 6.0869 6.0869 6.09221 6.09221 6.09221 6.07831 6.07831 6.07831 6.08243 6.08243 6.08243 6.07903 6.07903 6.07903 6.11243 6.11243 6.11243 6.14268 6.14268 6.14268 5.56547 5.56547 5.56547 6.08254 6.08254 6.08254 5.62101 5.62101 5.62101 5.89829 5.89829 5.89829 6.12714 6.12714 6.12714 6.09692 6.09692 6.09692 6.09341 6.09341 6.09341 6.08818 6.08818 6.08818 6.13088 6.13088 6.13088 6.16129 6.16129 6.16129 6.12244 6.12244 6.12244 5.82744 5.82744 5.82744 6.05468 6.05468 6.05468 6.07826 6.07826 6.07826 6.07512 6.07512 6.07512 6.19824 6.19824 6.19824 6.10118 6.10118 6.10118 6.12945 6.12945 6.12945 6.11705 6.11705 6.11705 6.0862 6.0862 6.0862 6.08492 6.08492 6.08492 6.08306 6.08306 6.08306 6.14445 6.14445 6.14445 5.82383 5.82383 5.82383 6.30058 6.30058 6.30058 6.08895 6.08895 6.08895 6.06735 6.06735 6.06735 6.09603 6.09603 6.09603 6.09344 6.09344 6.09344 6.10249 6.10249 6.10249 6.0988 6.0988 6.0988 6.08742 6.08742 6.08742 6.0376 6.0376 6.0376 6.03109 6.03109 6.03109 6.08571 6.08571 6.08571 6.09108 6.09108 6.09108 6.13693 6.13693 6.13693 6.08469 6.08469 6.08469 6.16369 6.16369 6.16369 6.1105 6.1105 6.1105 6.08521 6.08521 6.08521 6.08325 6.08325 6.08325 6.08583 6.08583 6.08583 6.08 6.08 6.08 6.11134 6.11134 6.11134 6.08668 6.08668 6.08668 6.08577 6.08577 6.08577 6.13531 6.13531 6.13531 6.14425 6.14425 6.14425 6.35332 6.35332 6.35332 6.06838 6.06838 6.06838 6.06524 6.06524 6.06524 6.07279 6.07279 6.07279 5.78801 5.78801 5.78801 5.58512 5.58512 5.58512 6.13179 6.13179 6.13179 6.0834 6.0834 6.0834 6.07375 6.07375 6.07375 6.06938 6.06938 6.06938 6.07918 6.07918 6.07918 6.06523 6.06523 6.06523 6.21776 6.21776 6.21776 6.07471 6.07471 6.07471 6.09918 6.09918 6.09918 6.01302 6.01302 6.01302 6.10805 6.10805 6.10805 6.16431 6.16431 6.16431 6.32662 6.32662 6.32662 6.09346 6.09346 6.09346 6.1995 6.1995 6.1995 6.08324 6.08324 6.08324 6.08245 6.08245 6.08245 6.12775 6.12775 6.12775 6.06829 6.06829 6.06829 6.08308 6.08308 6.08308 6.08451 6.08451 6.08451 6.08279 6.08279 6.08279 6.08011 6.08011 6.08011 6.06286 6.06286 6.06286 6.08359 6.08359 6.08359 6.09691 6.09691 6.09691 6.08659 6.08659 6.08659 7.09245 7.09245 7.09245 6.17433 6.17433 6.17433 6.10477 6.10477 6.10477 6.07449 6.07449 6.07449 6.08071 6.08071 6.08071 6.05089 6.05089 6.05089 6.06434 6.06434 6.06434 6.09351 6.09351 6.09351 6.49498 6.49498 6.49498 6.07933 6.07933 6.07933 6.21833 6.21833 6.21833 6.09247 6.09247 6.09247 6.04299 6.04299 6.04299 6.2469 6.2469 6.2469 6.13424 6.13424 6.13424 6.0998 6.0998 6.0998 6.09765 6.09765 6.09765 6.0942 6.0942 6.0942 6.08573 6.08573 6.08573 6.06356 6.06356 6.06356 6.02296 6.02296 6.02296 6.42481 6.42481 6.42481 6.17533 6.17533 6.17533 6.08378 6.08378 6.08378 5.90041 5.90041 5.90041 6.14416 6.14416 6.14416 6.08878 6.08878 6.08878 6.07794 6.07794 6.07794 6.0645 6.0645 6.0645 6.1249 6.1249 6.1249 5.56474 5.56474 5.56474 6.05832 6.05832 6.05832 6.08426 6.08426 6.08426 6.0803 6.0803 6.0803 6.08349 6.08349 6.08349 6.08518 6.08518 6.08518 6.12785 6.12785 6.12785 5.75813 5.75813 5.75813 6.10325 6.10325 6.10325 5.8622 5.8622 5.8622 6.07789 6.07789 6.07789 6.09165 6.09165 6.09165 6.09143 6.09143 6.09143 6.10127 6.10127 6.10127 5.9811 5.9811 5.9811 6.10251 6.10251 6.10251 6.14995 6.14995 6.14995 6.11264 6.11264 6.11264 6.07128 6.07128 6.07128 6.25286 6.25286 6.25286 6.4281 6.4281 6.4281 6.08982 6.08982 6.08982 6.082 6.082 6.082 6.11381 6.11381 6.11381 6.07883 6.07883 6.07883 6.09623 6.09623 6.09623 6.08824 6.08824 6.08824 6.08486 6.08486 6.08486 6.57583 6.57583 6.57583 6.07407 6.07407 6.07407 6.08559 6.08559 6.08559 6.10149 6.10149 6.10149 6.08725 6.08725 6.08725 6.12025 6.12025 6.12025 6.08047 6.08047 6.08047 6.07466 6.07466 6.07466 5.976 5.976 5.976 5.5587 5.5587 5.5587 6.04568 6.04568 6.04568 6.15696 6.15696 6.15696 6.05472 6.05472 6.05472 6.30284 6.30284 6.30284 6.25981 6.25981 6.25981 6.12974 6.12974 6.12974 6.09942 6.09942 6.09942 6.09329 6.09329 6.09329 6.08916 6.08916 6.08916 6.08682 6.08682 6.08682 6.08552 6.08552 6.08552 6.08567 6.08567 6.08567 6.08679 6.08679 6.08679 6.08441 6.08441 6.08441 6.09095 6.09095 6.09095 6.07364 6.07364 6.07364 6.08169 6.08169 6.08169 6.0851 6.0851 6.0851 6.07744 6.07744 6.07744 6.07051 6.07051 6.07051 6.08726 6.08726 6.08726 6.1451 6.1451 6.1451 5.95836 5.95836 5.95836 6.06997 6.06997 6.06997 6.0701 6.0701 6.0701 6.07107 6.07107 6.07107 6.08117 6.08117 6.08117 6.10084 6.10084 6.10084 6.0636 6.0636 6.0636 6.05445 6.05445 6.05445 6.35801 6.35801 6.35801 6.09862 6.09862 6.09862 6.10586 6.10586 6.10586 6.07699 6.07699 6.07699 6.38886 6.38886 6.38886 6.10504 6.10504 6.10504 6.34922 6.34922 6.34922 6.09482 6.09482 6.09482 6.09479 6.09479 6.09479 6.0834 6.0834 6.0834 6.07518 6.07518 6.07518 6.06912 6.06912 6.06912 6.10951 6.10951 6.10951 6.12639 6.12639 6.12639 6.07893 6.07893 6.07893 6.06237 6.06237 6.06237 6.10638 6.10638 6.10638 6.16165 6.16165 6.16165 6.09795 6.09795 6.09795 6.11864 6.11864 6.11864 5.97242 5.97242 5.97242 6.65699 6.65699 6.65699 6.0524 6.0524 6.0524 6.10694 6.10694 6.10694 6.09182 6.09182 6.09182 6.16131 6.16131 6.16131 6.07549 6.07549 6.07549 6.10095 6.10095 6.10095 6.1017 6.1017 6.1017 6.15117 6.15117 6.15117 6.0693 6.0693 6.0693 6.19095 6.19095 6.19095 6.21776 6.21776 6.21776 6.15302 6.15302 6.15302 6.08436 6.08436 6.08436 6.12592 6.12592 6.12592 6.0944 6.0944 6.0944 6.07095 6.07095 6.07095 6.07442 6.07442 6.07442 6.07039 6.07039 6.07039 6.17671 6.17671 6.17671 6.11138 6.11138 6.11138 6.25145 6.25145 6.25145 6.20162 6.20162 6.20162 6.0962 6.0962 6.0962 6.09879 6.09879 6.09879 6.07991 6.07991 6.07991 6.16795 6.16795 6.16795 6.10859 6.10859 6.10859 6.10341 6.10341 6.10341 6.08153 6.08153 6.08153 6.10196 6.10196 6.10196 6.12428 6.12428 6.12428 6.09035 6.09035 6.09035 6.09686 6.09686 6.09686 6.07157 6.07157 6.07157 6.14133 6.14133 6.14133 6.09338 6.09338 6.09338 6.04151 6.04151 6.04151 6.10278 6.10278 6.10278 6.12955 6.12955 6.12955 6.13621 6.13621 6.13621 6.18108 6.18108 6.18108 6.12845 6.12845 6.12845 6.43451 6.43451 6.43451 6.44224 6.44224 6.44224 6.17862 6.17862 6.17862 6.09375 6.09375 6.09375 6.0593 6.0593 6.0593 6.07762 6.07762 6.07762 6.09056 6.09056 6.09056 6.102 6.102 6.102 6.1265 6.1265 6.1265 6.2075 6.2075 6.2075 6.10656 6.10656 6.10656 6.05576 6.05576 6.05576 6.13062 6.13062 6.13062 6.28944 6.28944 6.28944 6.07735 6.07735 6.07735 6.95101 6.95101 6.95101 6.14891 6.14891 6.14891 6.12782 6.12782 6.12782 6.15802 6.15802 6.15802 6.35404 6.35404 6.35404 6.07514 6.07514 6.07514 6.1755 6.1755 6.1755 6.06197 6.06197 6.06197 6.06946 6.06946 6.06946 6.718 6.718 6.718 5.55891 5.55891 5.55891 6.06157 6.06157 6.06157 6.16625 6.16625 6.16625 6.08498 6.08498 6.08498 6.09264 6.09264 6.09264 6.06773 6.06773 6.06773 6.0814 6.0814 6.0814 6.05025 6.05025 6.05025 6.06296 6.06296 6.06296 6.11952 6.11952 6.11952 6.10162 6.10162 6.10162 6.1006 6.1006 6.1006 6.52526 6.52526 6.52526 6.09152 6.09152 6.09152 6.13835 6.13835 6.13835 6.13489 6.13489 6.13489 6.08868 6.08868 6.08868 6.07702 6.07702 6.07702 6.08305 6.08305 6.08305 6.68505 6.68505 6.68505 6.18553 6.18553 6.18553 6.08191 6.08191 6.08191 6.28491 6.28491 6.28491 6.36098 6.36098 6.36098 6.03058 6.03058 6.03058 6.22572 6.22572 6.22572 6.16412 6.16412 6.16412 6.11106 6.11106 6.11106 6.08836 6.08836 6.08836 6.1434 6.1434 6.1434 6.13228 6.13228 6.13228 6.09537 6.09537 6.09537 6.09445 6.09445 6.09445 6.07177 6.07177 6.07177 6.08587 6.08587 6.08587 6.25897 6.25897 6.25897 6.11783 6.11783 6.11783 6.08772 6.08772 6.08772 6.12523 6.12523 6.12523 6.09176 6.09176 6.09176 6.0628 6.0628 6.0628 6.11834 6.11834 6.11834 6.11094 6.11094 6.11094 6.14642 6.14642 6.14642 6.09191 6.09191 6.09191 6.29053 6.29053 6.29053 6.11401 6.11401 6.11401 6.09442 6.09442 6.09442 6.06143 6.06143 6.06143 6.1085 6.1085 6.1085 6.12547 6.12547 6.12547 6.0933 6.0933 6.0933 6.24631 6.24631 6.24631 6.13023 6.13023 6.13023 6.52802 6.52802 6.52802 6.17857 6.17857 6.17857 5.56285 5.56285 5.56285 6.3151 6.3151 6.3151 7.07106 7.07106 7.07106 6.06794 6.06794 6.06794 5.76007 5.76007 5.76007 6.10512 6.10512 6.10512 6.11506 6.11506 6.11506 6.16711 6.16711 6.16711 6.13506 6.13506 6.13506 6.07594 6.07594 6.07594 6.12162 6.12162 6.12162 6.16036 6.16036 6.16036 6.07732 6.07732 6.07732 6.52041 6.52041 6.52041 5.67903 5.67903 5.67903 6.09372 6.09372 6.09372 6.16423 6.16423 6.16423 6.09809 6.09809 6.09809 6.06775 6.06775 6.06775 6.11328 6.11328 6.11328 6.06512 6.06512 6.06512 6.12697 6.12697 6.12697 6.06089 6.06089 6.06089 6.06201 6.06201 6.06201 6.07852 6.07852 6.07852 6.01914 6.01914 6.01914 6.22541 6.22541 6.22541 6.09999 6.09999 6.09999 6.14354 6.14354 6.14354 6.2959 6.2959 6.2959 6.08395 6.08395 6.08395 6.08041 6.08041 6.08041 6.22601 6.22601 6.22601 6.07074 6.07074 6.07074 6.11091 6.11091 6.11091 5.65834 5.65834 5.65834 5.80677 5.80677 5.80677 6.07892 6.07892 6.07892 6.08438 6.08438 6.08438 6.08411 6.08411 6.08411 6.08791 6.08791 6.08791 6.06266 6.06266 6.06266 6.08548 6.08548 6.08548 6.09167 6.09167 6.09167 6.10072 6.10072 6.10072 6.09171 6.09171 6.09171 6.11386 6.11386 6.11386 6.16675 6.16675 6.16675 6.0767 6.0767 6.0767 6.05224 6.05224 6.05224 6.10489 6.10489 6.10489 6.12809 6.12809 6.12809 6.0971 6.0971 6.0971 6.05511 6.05511 6.05511 6.07571 6.07571 6.07571 6.1034 6.1034 6.1034 6.14144 6.14144 6.14144 6.17453 6.17453 6.17453 6.14485 6.14485 6.14485 6.14538 6.14538 6.14538 6.07654 6.07654 6.07654 6.07727 6.07727 6.07727 6.1373 6.1373 6.1373 6.08507 6.08507 6.08507 6.17192 6.17192 6.17192 6.10944 6.10944 6.10944 6.11412 6.11412 6.11412 5.85973 5.85973 5.85973 6.0921 6.0921 6.0921 6.13868 6.13868 6.13868 6.10938 6.10938 6.10938 6.09414 6.09414 6.09414 6.1497 6.1497 6.1497 6.24726 6.24726 6.24726 6.1311 6.1311 6.1311 6.10339 6.10339 6.10339 6.1201 6.1201 6.1201 6.12759 6.12759 6.12759 6.18897 6.18897 6.18897 6.08666 6.08666 6.08666 6.04142 6.04142 6.04142 6.1912 6.1912 6.1912 6.15984 6.15984 6.15984 6.71665 6.71665 6.71665 6.06079 6.06079 6.06079 6.08924 6.08924 6.08924 6.1597 6.1597 6.1597 6.12621 6.12621 6.12621 6.13793 6.13793 6.13793 6.29469 6.29469 6.29469 6.11801 6.11801 6.11801 6.09001 6.09001 6.09001 6.08577 6.08577 6.08577 6.13368 6.13368 6.13368 6.14436 6.14436 6.14436 6.15522 6.15522 6.15522 6.12052 6.12052 6.12052 7.24273 7.24273 7.24273 6.09261 6.09261 6.09261 6.13234 6.13234 6.13234 6.05075 6.05075 6.05075 6.0922 6.0922 6.0922 6.11286 6.11286 6.11286 6.19778 6.19778 6.19778 6.0729 6.0729 6.0729 6.11146 6.11146 6.11146 6.15777 6.15777 6.15777 5.93489 5.93489 5.93489 6.15702 6.15702 6.15702 6.08414 6.08414 6.08414 6.17184 6.17184 6.17184 6.16947 6.16947 6.16947 6.17781 6.17781 6.17781 6.14144 6.14144 6.14144 6.09973 6.09973 6.09973 6.11903 6.11903 6.11903 6.06877 6.06877 6.06877 6.37172 6.37172 6.37172 6.06455 6.06455 6.06455 6.1144 6.1144 6.1144 6.13191 6.13191 6.13191 6.08323 6.08323 6.08323 6.13035 6.13035 6.13035 6.94011 6.94011 6.94011 6.07734 6.07734 6.07734 6.17039 6.17039 6.17039 6.11405 6.11405 6.11405 6.21786 6.21786 6.21786 6.09629 6.09629 6.09629 6.13126 6.13126 6.13126 6.07088 6.07088 6.07088 6.00312 6.00312 6.00312 6.18922 6.18922 6.18922 6.14572 6.14572 6.14572 6.12124 6.12124 6.12124 6.10291 6.10291 6.10291 6.13846 6.13846 6.13846 6.17486 6.17486 6.17486 6.13246 6.13246 6.13246 6.06607 6.06607 6.06607 6.09705 6.09705 6.09705 6.06451 6.06451 6.06451 6.23605 6.23605 6.23605 6.10029 6.10029 6.10029 6.19223 6.19223 6.19223 6.13754 6.13754 6.13754 6.12847 6.12847 6.12847 6.13327 6.13327 6.13327 6.15395 6.15395 6.15395 6.09214 6.09214 6.09214 6.18999 6.18999 6.18999 6.10094 6.10094 6.10094 6.16265 6.16265 6.16265 6.10441 6.10441 6.10441 6.08741 6.08741 6.08741 6.18588 6.18588 6.18588 6.08003 6.08003 6.08003 6.13162 6.13162 6.13162 6.29226 6.29226 6.29226 6.13272 6.13272 6.13272 6.0683 6.0683 6.0683 6.10849 6.10849 6.10849 6.06583 6.06583 6.06583 6.11926 6.11926 6.11926 6.0755 6.0755 6.0755 6.08466 6.08466 6.08466 6.19243 6.19243 6.19243 5.9388 5.9388 5.9388 6.07499 6.07499 6.07499 6.07958 6.07958 6.07958 6.0724 6.0724 6.0724 6.09903 6.09903 6.09903 6.10472 6.10472 6.10472 6.14373 6.14373 6.14373 6.13366 6.13366 6.13366 6.69052 6.69052 6.69052 6.13164 6.13164 6.13164 5.98403 5.98403 5.98403 6.07101 6.07101 6.07101 6.07755 6.07755 6.07755 6.0622 6.0622 6.0622 6.45381 6.45381 6.45381 6.1095 6.1095 6.1095 6.11502 6.11502 6.11502 6.07965 6.07965 6.07965 6.0923 6.0923 6.0923 6.07631 6.07631 6.07631 6.13075 6.13075 6.13075 6.15669 6.15669 6.15669 6.09012 6.09012 6.09012 6.85796 6.85796 6.85796 6.14064 6.14064 6.14064 6.04839 6.04839 6.04839 6.01821 6.01821 6.01821 6.12379 6.12379 6.12379 6.0942 6.0942 6.0942 6.19757 6.19757 6.19757 6.08257 6.08257 6.08257 5.55664 5.55664 5.55664 6.1957 6.1957 6.1957 6.18116 6.18116 6.18116 6.07714 6.07714 6.07714 6.13353 6.13353 6.13353 6.20502 6.20502 6.20502 6.08798 6.08798 6.08798 6.08308 6.08308 6.08308 6.13062 6.13062 6.13062 6.10367 6.10367 6.10367 6.07182 6.07182 6.07182 6.06519 6.06519 6.06519 5.95067 5.95067 5.95067 6.35157 6.35157 6.35157 6.12967 6.12967 6.12967 6.13739 6.13739 6.13739 6.16451 6.16451 6.16451 6.32615 6.32615 6.32615 6.11553 6.11553 6.11553 6.07007 6.07007 6.07007 6.1204 6.1204 6.1204 6.13963 6.13963 6.13963 6.13973 6.13973 6.13973 6.0751 6.0751 6.0751 6.06916 6.06916 6.06916 6.15391 6.15391 6.15391 6.34911 6.34911 6.34911 6.11465 6.11465 6.11465 6.12739 6.12739 6.12739 6.1379 6.1379 6.1379 5.65552 5.65552 5.65552 6.08727 6.08727 6.08727 6.10681 6.10681 6.10681 6.06927 6.06927 6.06927 6.46216 6.46216 6.46216 6.15115 6.15115 6.15115 6.07935 6.07935 6.07935 6.17625 6.17625 6.17625 6.12616 6.12616 6.12616 7.29369 7.29369 7.29369 6.09091 6.09091 6.09091 6.08393 6.08393 6.08393 6.42888 6.42888 6.42888 6.15835 6.15835 6.15835 6.49326 6.49326 6.49326 6.19979 6.19979 6.19979 6.06754 6.06754 6.06754 6.10075 6.10075 6.10075 6.07669 6.07669 6.07669 6.11883 6.11883 6.11883 6.08481 6.08481 6.08481 6.07442 6.07442 6.07442 6.08643 6.08643 6.08643 6.16796 6.16796 6.16796 6.0772 6.0772 6.0772 6.07684 6.07684 6.07684 6.11691 6.11691 6.11691 6.08308 6.08308 6.08308 6.07738 6.07738 6.07738 6.07702 6.07702 6.07702 6.11433 6.11433 6.11433 6.11943 6.11943 6.11943 6.11027 6.11027 6.11027 6.07774 6.07774 6.07774 6.14767 6.14767 6.14767 6.30806 6.30806 6.30806 6.10926 6.10926 6.10926 5.68373 5.68373 5.68373 6.06912 6.06912 6.06912 6.12236 6.12236 6.12236 6.11513 6.11513 6.11513 6.07794 6.07794 6.07794 6.12395 6.12395 6.12395 6.0929 6.0929 6.0929 6.095 6.095 6.095 5.95112 5.95112 5.95112 6.14963 6.14963 6.14963 6.09864 6.09864 6.09864 6.11939 6.11939 6.11939 6.08619 6.08619 6.08619 6.1677 6.1677 6.1677 5.92444 5.92444 5.92444 6.63176 6.63176 6.63176 7.14633 7.14633 7.14633 6.06063 6.06063 6.06063 6.08353 6.08353 6.08353 6.11059 6.11059 6.11059 6.11483 6.11483 6.11483 6.09201 6.09201 6.09201 6.23622 6.23622 6.23622 6.60068 6.60068 6.60068 6.08366 6.08366 6.08366 6.05165 6.05165 6.05165 6.12193 6.12193 6.12193 6.08648 6.08648 6.08648 6.09206 6.09206 6.09206 6.06806 6.06806 6.06806 6.09089 6.09089 6.09089 6.2143 6.2143 6.2143 6.07505 6.07505 6.07505 6.08201 6.08201 6.08201 6.06644 6.06644 6.06644 6.1083 6.1083 6.1083 6.18307 6.18307 6.18307 6.07143 6.07143 6.07143 6.0732 6.0732 6.0732 6.14056 6.14056 6.14056 6.13559 6.13559 6.13559 5.86292 5.86292 5.86292 6.12638 6.12638 6.12638 6.11039 6.11039 6.11039 6.17006 6.17006 6.17006 6.21438 6.21438 6.21438 6.10392 6.10392 6.10392 6.14735 6.14735 6.14735 6.06414 6.06414 6.06414 6.18615 6.18615 6.18615 6.27475 6.27475 6.27475 6.06981 6.06981 6.06981 6.06281 6.06281 6.06281 6.06602 6.06602 6.06602 6.05861 6.05861 6.05861 6.5892 6.5892 6.5892 6.11305 6.11305 6.11305 6.22707 6.22707 6.22707 6.08847 6.08847 6.08847 6.10284 6.10284 6.10284 6.05848 6.05848 6.05848 6.17963 6.17963 6.17963 6.12078 6.12078 6.12078 6.3352 6.3352 6.3352 6.07811 6.07811 6.07811 6.10008 6.10008 6.10008 7.24174 7.24174 7.24174 6.5337 6.5337 6.5337 6.10259 6.10259 6.10259 6.1234 6.1234 6.1234 6.04508 6.04508 6.04508 6.14049 6.14049 6.14049 6.13378 6.13378 6.13378 6.06332 6.06332 6.06332 6.09813 6.09813 6.09813 6.92065 6.92065 6.92065 6.03234 6.03234 6.03234 6.54099 6.54099 6.54099 6.41447 6.41447 6.41447 6.1099 6.1099 6.1099 6.20055 6.20055 6.20055 6.08576 6.08576 6.08576 6.14249 6.14249 6.14249 5.94821 5.94821 5.94821 6.13802 6.13802 6.13802 6.04894 6.04894 6.04894 6.12249 6.12249 6.12249 5.90562 5.90562 5.90562 6.02838 6.02838 6.02838 6.12173 6.12173 6.12173 5.8701 5.8701 5.8701 6.16147 6.16147 6.16147 6.08366 6.08366 6.08366 6.06627 6.06627 6.06627 6.11975 6.11975 6.11975 6.05313 6.05313 6.05313 6.07329 6.07329 6.07329 6.12427 6.12427 6.12427 6.00336 6.00336 6.00336 6.14555 6.14555 6.14555 6.21861 6.21861 6.21861 6.13008 6.13008 6.13008 6.14423 6.14423 6.14423 6.15741 6.15741 6.15741 7.22255 7.22255 7.22255 6.10919 6.10919 6.10919 6.03524 6.03524 6.03524 6.16942 6.16942 6.16942 7.11141 7.11141 7.11141 6.06115 6.06115 6.06115 5.97548 5.97548 5.97548 6.1615 6.1615 6.1615 6.45291 6.45291 6.45291 6.10935 6.10935 6.10935 6.08078 6.08078 6.08078 6.08205 6.08205 6.08205 6.94238 6.94238 6.94238 6.05743 6.05743 6.05743 6.12731 6.12731 6.12731 6.02001 6.02001 6.02001 6.12748 6.12748 6.12748 6.08434 6.08434 6.08434 6.14686 6.14686 6.14686 6.16837 6.16837 6.16837 6.11336 6.11336 6.11336 5.84078 5.84078 5.84078 6.10804 6.10804 6.10804 6.05891 6.05891 6.05891 5.31146 5.31146 5.31146 6.12773 6.12773 6.12773 6.12338 6.12338 6.12338 6.1272 6.1272 6.1272 6.05184 6.05184 6.05184 6.15322 6.15322 6.15322 6.03503 6.03503 6.03503 6.08138 6.08138 6.08138 6.14833 6.14833 6.14833 6.12829 6.12829 6.12829 6.1323 6.1323 6.1323 6.05649 6.05649 6.05649 6.12939 6.12939 6.12939 6.0223 6.0223 6.0223 6.18016 6.18016 6.18016 6.18142 6.18142 6.18142 6.05773 6.05773 6.05773 6.12091 6.12091 6.12091 6.44283 6.44283 6.44283 6.20981 6.20981 6.20981 6.07381 6.07381 6.07381 6.07656 6.07656 6.07656 5.94947 5.94947 5.94947 6.05835 6.05835 6.05835 5.97391 5.97391 5.97391 6.0687 6.0687 6.0687 6.00962 6.00962 6.00962 6.05995 6.05995 6.05995 6.18896 6.18896 6.18896 6.03606 6.03606 6.03606 6.07515 6.07515 6.07515 6.20227 6.20227 6.20227 6.03579 6.03579 6.03579 6.20846 6.20846 6.20846 6.08188 6.08188 6.08188 6.16812 6.16812 6.16812 6.07671 6.07671 6.07671 3.90601 3.90601 3.90601 6.07637 6.07637 6.07637 6.19517 6.19517 6.19517 6.0693 6.0693 6.0693 6.0738 6.0738 6.0738 6.06991 6.06991 6.06991 6.03214 6.03214 6.03214 7.29302 7.29302 7.29302 6.15813 6.15813 6.15813 8.64793 8.64793 8.64793 9.49656 9.49656 9.49656 8.15859 8.15859 8.15859 6.09416 6.09416 6.09416 6.09496 6.09496 6.09496 6.15712 6.15712 6.15712 6.15922 6.15922 6.15922 6.09633 6.09633 6.09633 6.09894 6.09894 6.09894 6.08306 6.08306 6.08306 6.08603 6.08603 6.08603 6.08233 6.08233 6.08233 6.09636 6.09636 6.09636 6.11702 6.11702 6.11702 6.08685 6.08685 6.08685 5.73903 5.73903 5.73903 6.31108 6.31108 6.31108 5.82651 5.82651 5.82651 6.08414 6.08414 6.08414 6.13433 6.13433 6.13433 6.12464 6.12464 6.12464 6.0976 6.0976 6.0976 6.11154 6.11154 6.11154 6.07254 6.07254 6.07254 6.87987 6.87987 6.87987 6.09808 6.09808 6.09808 9.71557 9.71557 9.71557 6.08194 6.08194 6.08194 6.11782 6.11782 6.11782 6.10566 6.10566 6.10566 9.44262 9.44262 9.44262 6.08117 6.08117 6.08117 6.54576 6.54576 6.54576 6.13782 6.13782 6.13782 6.12806 6.12806 6.12806 6.19197 6.19197 6.19197 6.18109 6.18109 6.18109 6.19164 6.19164 6.19164 6.27998 6.27998 6.27998 6.21427 6.21427 6.21427 6.63914 6.63914 6.63914 6.22582 6.22582 6.22582 6.52443 6.52443 6.52443 6.23156 6.23156 6.23156 5.993 5.993 5.993 6.14634 6.14634 6.14634 5.76554 5.76554 5.76554 5.58649 5.58649 5.58649 6.23513 6.23513 6.23513 5.86402 5.86402 5.86402 5.56092 5.56092 5.56092 5.80407 5.80407 5.80407 5.57908 5.57908 5.57908 5.76927 5.76927 5.76927 5.97001 5.97001 5.97001 6.17427 6.17427 6.17427 6.29087 6.29087 6.29087 6.23267 6.23267 6.23267 6.1811 6.1811 6.1811 6.1686 6.1686 6.1686 6.17746 6.17746 6.17746 6.16984 6.16984 6.16984 7.6159 7.6159 7.6159 6.12557 6.12557 6.12557 6.13402 6.13402 6.13402 6.11565 6.11565 6.11565 8.59685 8.59685 8.59685 6.13651 6.13651 6.13651 6.12329 6.12329 6.12329 6.10343 6.10343 6.10343 6.08883 6.08883 6.08883 6.31557 6.31557 6.31557 6.12756 6.12756 6.12756 6.09965 6.09965 6.09965 6.1756 6.1756 6.1756 6.16391 6.16391 6.16391 6.09972 6.09972 6.09972 6.09878 6.09878 6.09878 6.10627 6.10627 6.10627 6.12561 6.12561 6.12561 6.7726 6.7726 6.7726 6.47524 6.47524 6.47524 6.09132 6.09132 6.09132 6.15492 6.15492 6.15492 6.15649 6.15649 6.15649 6.07871 6.07871 6.07871 6.09818 6.09818 6.09818 6.09631 6.09631 6.09631 6.08435 6.08435 6.08435 6.11914 6.11914 6.11914 6.11409 6.11409 6.11409 6.10629 6.10629 6.10629 6.08184 6.08184 6.08184 6.08504 6.08504 6.08504 6.27534 6.27534 6.27534 6.09086 6.09086 6.09086 7.89848 7.89848 7.89848 7.1713 7.1713 7.1713 6.17079 6.17079 6.17079 6.16195 6.16195 6.16195 6.12985 6.12985 6.12985 6.11404 6.11404 6.11404 6.07559 6.07559 6.07559 6.07549 6.07549 6.07549 6.07572 6.07572 6.07572 9.78619 9.78619 9.78619 9.37826 9.37826 9.37826 6.3 6.3 6.3 5.75631 5.75631 5.75631 6.21975 6.21975 6.21975 6.1642 6.1642 6.1642 6.16362 6.16362 6.16362 6.17323 6.17323 6.17323 6.17201 6.17201 6.17201 6.08558 6.08558 6.08558 6.09983 6.09983 6.09983 6.14889 6.14889 6.14889 6.17787 6.17787 6.17787 6.16281 6.16281 6.16281 6.08568 6.08568 6.08568 6.10128 6.10128 6.10128 6.10523 6.10523 6.10523 6.14004 6.14004 6.14004 6.12939 6.12939 6.12939 6.52905 6.52905 6.52905 6.5069 6.5069 6.5069 6.10053 6.10053 6.10053 6.14476 6.14476 6.14476 6.14253 6.14253 6.14253 6.18397 6.18397 6.18397 6.19082 6.19082 6.19082 6.24268 6.24268 6.24268 6.22601 6.22601 6.22601 6.25265 6.25265 6.25265 6.24814 6.24814 6.24814 6.18678 6.18678 6.18678 7.08207 7.08207 7.08207 6.0603 6.0603 6.0603 5.57744 5.57744 5.57744 5.89229 5.89229 5.89229 5.82652 5.82652 5.82652 5.84893 5.84893 5.84893 5.55334 5.55334 5.55334 5.55159 5.55159 5.55159 5.55503 5.55503 5.55503 5.85873 5.85873 5.85873 6.02336 6.02336 6.02336 6.08102 6.08102 6.08102 6.0458 6.0458 6.0458 6.41312 6.41312 6.41312 6.32532 6.32532 6.32532 6.32566 6.32566 6.32566 6.29229 6.29229 6.29229 6.26452 6.26452 6.26452 6.21447 6.21447 6.21447 6.20167 6.20167 6.20167 6.19199 6.19199 6.19199 6.17378 6.17378 6.17378 6.16774 6.16774 6.16774 6.08427 6.08427 6.08427 6.29067 6.29067 6.29067 6.22475 6.22475 6.22475 5.76532 5.76532 5.76532 6.07648 6.07648 6.07648 6.09007 6.09007 6.09007 6.32473 6.32473 6.32473 6.12478 6.12478 6.12478 6.09928 6.09928 6.09928 6.13822 6.13822 6.13822 5.83035 5.83035 5.83035 6.3271 6.3271 6.3271 5.6742 5.6742 5.6742 6.10214 6.10214 6.10214 6.09851 6.09851 6.09851 6.10503 6.10503 6.10503 6.10056 6.10056 6.10056 6.1723 6.1723 6.1723 6.16442 6.16442 6.16442 6.74522 6.74522 6.74522 6.07976 6.07976 6.07976 6.15976 6.15976 6.15976 6.16529 6.16529 6.16529 6.07745 6.07745 6.07745 6.0768 6.0768 6.0768 6.16417 6.16417 6.16417 6.17161 6.17161 6.17161 6.096 6.096 6.096 6.13361 6.13361 6.13361 6.11367 6.11367 6.11367 6.09993 6.09993 6.09993 6.08275 6.08275 6.08275 7.68474 7.68474 7.68474 6.15557 6.15557 6.15557 6.09841 6.09841 6.09841 6.11699 6.11699 6.11699 6.13457 6.13457 6.13457 6.17352 6.17352 6.17352 6.16551 6.16551 6.16551 8.73969 8.73969 8.73969 6.07575 6.07575 6.07575 6.11486 6.11486 6.11486 6.13123 6.13123 6.13123 6.32623 6.32623 6.32623 5.90491 5.90491 5.90491 6.20615 6.20615 6.20615 5.72055 5.72055 5.72055 6.30044 6.30044 6.30044 5.73659 5.73659 5.73659 9.41475 9.41475 9.41475 6.11487 6.11487 6.11487 6.12981 6.12981 6.12981 6.24982 6.24982 6.24982 5.84891 5.84891 5.84891 6.25195 6.25195 6.25195 8.99661 8.99661 8.99661 6.1725 6.1725 6.1725 6.16377 6.16377 6.16377 6.17194 6.17194 6.17194 6.16235 6.16235 6.16235 6.11669 6.11669 6.11669 6.09442 6.09442 6.09442 6.12482 6.12482 6.12482 6.10178 6.10178 6.10178 6.11185 6.11185 6.11185 6.0872 6.0872 6.0872 
VECTORS Velocity float 
0.00721745 -0.0396715 0 
0.0102849 -0.0431685 0 
0.0162346 -0.0576994 0 
0.0380237 -0.167308 0 
0.0121857 -0.114055 0 
0.0091655 -0.0840473 0 
0.000545522 -0.0013655 0 
0.000910727 -0.0011302 0 
0.00224386 -0.00385469 0 
-0.000130525 0.000499073 0 
-0.000541755 0.000203384 0 
-0.000132261 0.000730528 0 
7.25685e-05 -0.00574555 0 
-9.58316e-05 -0.00318346 0 
0.000242675 -0.00449878 0 
0.0123522 -0.0427202 0 
0.010439 -0.0430066 0 
0.0043928 -0.0277108 0 
7.77085e-05 -0.00124603 0 
0.000221763 -0.00295528 0 
4.12116e-05 -0.00135308 0 
-0.000645238 -0.000863361 0 
-0.000178664 0.000160766 0 
-0.000194706 -0.000320026 0 
0.000625579 -0.00243775 0 
0.00248937 -0.00794197 0 
0.000714167 -0.00418 0 
0.000330932 -0.000762766 0 
0.000540847 -0.000846749 0 
0.000932242 -0.00164627 0 
0.00909379 -0.112256 0 
0.0416799 -0.169435 0 
0.0398455 -0.187496 0 
6.4243e-05 0.000291077 0 
-0.000178757 0.000311671 0 
-0.000208545 0.000180627 0 
0.150212 -0.161211 0 
0.123275 -0.0773715 0 
0.145594 -0.119356 0 
0.139476 -0.113596 0 
0.127509 -0.081358 0 
0.100878 -0.0416913 0 
0.049875 -0.0128725 0 
0.0409674 -0.00952109 0 
0.0311813 -0.00443887 0 
0.031539 -0.00485607 0 
0.0407174 -0.00922943 0 
0.0256436 -0.00385841 0 
0.0114249 -0.00182996 0 
0.00965804 -0.00158487 0 
0.00527993 -0.000229121 0 
0.00546158 -0.000425631 0 
0.00948739 -0.00140027 0 
0.0042239 -0.000354162 0 
0.000667988 -0.000134759 0 
0.00100839 -0.000371938 0 
0.00028064 -7.17113e-05 0 
0.00165066 -0.000573326 0 
0.00106154 -0.000423636 0 
0.000623437 -9.14249e-05 0 
0.000944966 -0.00119148 0 
0.000538338 -0.00135265 0 
0.000213716 -0.000206977 0 
-0.000137294 0.000486943 0 
-0.000139438 0.000717667 0 
-3.67394e-05 0.000555056 0 
0.000738835 -0.00173365 0 
0.000325522 -0.000762684 0 
0.000935778 -0.00164632 0 
0.00777007 -0.0313227 0 
0.0119188 -0.0427408 0 
0.00492084 -0.0276856 0 
0.0146726 -0.0582309 0 
0.00624716 -0.039617 0 
0.0170355 -0.0577444 0 
0.000266772 -0.00293019 0 
4.15662e-05 -0.00126618 0 
0.000290145 -0.00236179 0 
9.06699e-06 -0.00318972 0 
-2.09967e-05 -0.00573997 0 
-0.000309921 -0.00473648 0 
6.02262e-06 -4.92881e-11 0 
-1.11073e-05 -4.92996e-11 0 
-5.95685e-05 1.57996e-05 0 
0.0105768 -0.0435713 0 
0.00682101 -0.0391246 0 
0.00424978 -0.028787 0 
0.000135391 0.000283151 0 
0.000237353 0.000676955 0 
0.000470839 0.0004475 0 
-0.000732574 -0.000910874 0 
-0.000128297 -0.000283898 0 
-0.000569036 -0.00126632 0 
0.000415772 -0.00402623 0 
0.0028935 -0.00815022 0 
0.00239787 -0.00956314 0 
-0.000140101 0.000375448 0 
2.945e-05 0.000233674 0 
-7.8672e-06 0.000382777 0 
0.000195781 -0.00442985 0 
-3.73048e-05 -0.00326949 0 
0.000103478 -0.00263752 0 
0.00482307 -0.0271235 0 
0.010027 -0.0435689 0 
0.00448298 -0.028788 0 
0.139508 -0.248429 0 
0.106815 -0.26704 0 
0.135328 -0.219531 0 
0.127609 -0.078037 0 
0.0740566 -0.0221382 0 
0.100777 -0.0450194 0 
0.0766798 -0.0201674 0 
0.125905 -0.0793174 0 
0.101559 -0.0486514 0 
0.0756209 -0.023431 0 
0.039919 -0.00758161 0 
0.0481421 -0.00987621 0 
0.0424317 -0.00569386 0 
0.0729329 -0.0254505 0 
0.0635288 -0.0199622 0 
0.0365198 -0.0112332 0 
0.0481743 -0.0186861 0 
0.0423119 -0.0167723 0 
0.00959953 -0.00294008 0 
0.0144179 -0.00523854 0 
0.0128598 -0.00545458 0 
0.00100834 -0.000373242 0 
0.000127915 -6.99416e-05 0 
0.000280833 -6.66032e-05 0 
0.000173627 -3.55986e-05 0 
0.000955834 -0.000412692 0 
0.000692429 -0.000395116 0 
0.000232368 -0.000157861 0 
-9.38886e-05 -1.29833e-05 0 
-8.06253e-06 -2.9385e-05 0 
-6.62841e-05 7.75565e-06 0 
0.000200622 -0.000181711 0 
0.000101246 -0.000127466 0 
0.0191543 -0.270827 0 
0.0676065 -0.302245 0 
0.0434452 -0.334961 0 
0.154824 -0.163964 0 
0.139877 -0.239905 0 
0.13522 -0.222029 0 
0.147175 -0.246848 0 
0.150658 -0.160001 0 
0.144102 -0.123395 0 
0.07271 -0.0243615 0 
0.0766798 -0.025037 0 
0.101559 -0.0475328 0 
0.0729229 -0.0222146 0 
0.0756209 -0.0265484 0 
0.0481421 -0.00848828 0 
0.0496921 -0.0127341 0 
0.0423616 -0.00772418 0 
0.0635538 -0.0192384 0 
0.0421108 -0.007485 0 
0.0498687 -0.0129025 0 
0.0311176 -0.00473955 0 
0.00802582 -0.000646305 0 
0.0114384 -0.00172206 0 
0.00525681 -0.000414393 0 
0.00957473 -0.00301974 0 
0.00971592 -0.00421262 0 
0.0069626 -0.00223825 0 
0.0096913 -0.00419391 0 
0.00959703 -0.00303668 0 
0.0128613 -0.0053982 0 
0.00425442 -0.00111684 0 
0.00452822 -0.00171042 0 
0.00275868 -0.00073212 0 
0.00127068 -0.000229451 0 
0.00165888 -0.000540917 0 
0.000610816 -0.000141167 0 
0.000244205 -0.000182134 0 
0.000173627 -5.82736e-05 0 
0.000692429 -0.000380436 0 
0.000193866 -7.34787e-05 0 
0.000232368 -0.000173241 0 
-8.06253e-06 -2.90863e-05 0 
0.00452524 -0.00170834 0 
0.00426625 -0.00112509 0 
0.00625857 -0.00234085 0 
0.00169489 -0.000569674 0 
0.00123341 -0.000199682 0 
0.00256869 -0.000833109 0 
0.104703 -0.268469 0 
0.141497 -0.247083 0 
0.101526 -0.301288 0 
0.048641 -0.0183392 0 
0.0361285 -0.0115241 0 
0.0397989 -0.0119356 0 
0.0145731 -0.00513639 0 
0.0094362 -0.0030476 0 
0.0107162 -0.0029773 0 
0.0115313 -0.00179445 0 
0.00794912 -0.000586587 0 
0.0148375 -0.00247853 0 
0.0642742 -0.299407 0 
0.0221953 -0.273417 0 
0.034873 -0.240289 0 
0.00089043 -0.000785844 0 
0.000160572 0.000221723 0 
4.8444e-05 0.00029884 0 
0.000568818 0.00015042 0 
0.000483888 0.00044661 0 
0.000845769 0.000430476 0 
0.00485525 -0.0223952 0 
0.00114154 -0.0113473 0 
0.00308404 -0.0156546 0 
0.000240725 0.000671031 0 
0.000133386 0.000286672 0 
6.37776e-05 0.000399572 0 
-6.1727e-07 -9.91036e-06 0 
-5.22895e-05 2.66638e-05 0 
-1.54919e-05 1.32418e-05 0 
0.000504475 -0.0026541 0 
8.19599e-05 -0.00117894 0 
0.000354488 -0.0018026 0 
0.00209637 -0.0315249 0 
0.0126897 -0.0587453 0 
0.0104847 -0.0574435 0 
3.7342e-05 0.000691538 0 
9.17715e-05 0.000789879 0 
0.000240666 0.000698896 0 
-8.51623e-05 0.000118042 0 
-0.000758516 -0.000811601 0 
-0.000497446 -5.81618e-05 0 
0.00287918 -0.00776374 0 
0.000307592 -0.00258313 0 
0.00185339 -0.00450358 0 
5.84338e-05 0.000691957 0 
-0.000133685 0.000742633 0 
5.85897e-05 0.00078922 0 
7.7154e-05 0.000223046 0 
0.000982584 -0.000787306 0 
0.000928246 -0.00109476 0 
0.000405395 0.000388507 0 
0.000510833 0.000669644 0 
-0.000115955 0.000457986 0 
0.000493597 0.000446474 0 
0.00046187 0.000693293 0 
0.000818558 0.000430857 0 
0.000534969 -0.000839416 0 
0.000347111 -0.00078295 0 
0.000214291 -0.000329377 0 
0.0130917 -0.15796 0 
0.0557464 -0.241845 0 
0.0343554 -0.238952 0 
-0.000261626 0.000175429 0 
-0.000145753 0.000314904 0 
-0.000299065 0.000137082 0 
0.00121371 -0.0114356 0 
0.000788183 -0.00696387 0 
0.00300523 -0.0155582 0 
0.051974 -0.241949 0 
0.0174392 -0.157839 0 
0.0380499 -0.18819 0 
2.37122e-05 -0.00134584 0 
0.00024297 -0.00296405 0 
7.77439e-05 -0.00265683 0 
0.0202884 -0.0829135 0 
0.0139107 -0.0774617 0 
0.00881879 -0.0578951 0 
0.0139818 -0.0770753 0 
0.00184083 -0.0357957 0 
0.00879328 -0.0580338 0 
0.000467647 0.00073877 0 
5.20085e-05 0.00077591 0 
-7.74555e-05 0.000396362 0 
0.000115466 -0.00121935 0 
9.59723e-05 -0.000703365 0 
0.000328668 -0.00177145 0 
0.00304012 -0.0316672 0 
0.00308306 -0.0303498 0 
0.00962296 -0.0584699 0 
0.000447578 0.000672345 0 
0.000487763 0.000384989 0 
0.000848064 0.000474104 0 
0.000111576 -0.00118007 0 
0.000476316 -0.00265302 0 
0.000274227 -0.00234652 0 
-0.000547935 0.000202414 0 
-0.000116163 0.000501326 0 
-0.000481534 -9.61929e-06 0 
0.000411001 -0.00134607 0 
0.00234009 -0.00386859 0 
0.00183568 -0.00431839 0 
0.0391258 -0.166872 0 
0.00802329 -0.0844993 0 
0.0221373 -0.115053 0 
-0.000127359 -0.000786068 0 
-0.000793758 -0.00237265 0 
-0.000578905 -0.00132966 0 
0.000968699 -0.0113379 0 
0.0049804 -0.022402 0 
0.00352735 -0.0207974 0 
0.0117838 -0.0587752 0 
0.00314543 -0.0314903 0 
0.00679212 -0.0422514 0 
0.000259225 0.00067002 0 
7.23528e-05 0.000820092 0 
0.000436505 0.000671139 0 
-0.000704142 -0.00237817 0 
-0.00022456 -0.000780074 0 
-0.000402566 -0.00199183 0 
-0.000214589 -0.00268404 0 
-4.2758e-05 -0.00324902 0 
-0.000269479 -0.00469019 0 
0.00357781 -0.000333978 0 
0.00443147 -0.00037347 0 
0.00795745 -0.00124738 0 
0.0420642 -0.0167369 0 
0.0360113 -0.014309 0 
0.0322606 -0.0101561 0 
0.0220099 -0.00327912 0 
0.0261247 -0.00390583 0 
0.0340626 -0.00733744 0 
0.0815602 -0.325099 0 
0.0422802 -0.337101 0 
0.101221 -0.300014 0 
0.000232969 0.000668886 0 
0.000474391 0.000672775 0 
0.000481263 0.000466686 0 
8.83911e-05 0.000236127 0 
0.000153944 0.000232129 0 
-1.10138e-05 0.000382646 0 
-5.98169e-05 -1.48284e-05 0 
-3.96359e-05 -3.88716e-06 0 
-7.66699e-05 5.97791e-06 0 
-3.948e-05 1.74628e-05 0 
0.000160887 -0.000181352 0 
6.28549e-05 -4.3547e-05 0 
0.000477102 0.000436656 0 
0.000571501 0.000154357 0 
0.000241602 0.000128431 0 
0.00044156 -0.00526847 0 
0.00243852 -0.00986421 0 
0.00203347 -0.0106436 0 
-0.00849206 -0.00907445 0 
-0.0081338 -0.00733218 0 
-0.00371862 -0.0031694 0 
-0.00835266 -0.00883301 0 
-0.0143595 -0.016746 0 
-0.00828114 -0.00758738 0 
-8.59663e-05 0.000402406 0 
-0.00122853 -0.000658599 0 
-0.000811902 -0.000459129 0 
-0.0138143 -0.016746 0 
-0.00876854 -0.00883301 0 
-0.0122713 -0.0171592 0 
0.00056633 0.000154768 0 
0.000843682 0.000434124 0 
0.000901393 0.000147025 0 
0.000115776 4.80346e-11 0 
2.43532e-05 4.82568e-11 0 
0.00118832 7.91744e-05 0 
0.000450286 0.00046544 0 
-0.000148129 0.000402848 0 
-0.000729809 -0.000459713 0 
-0.00258888 -0.00244894 0 
-0.00123407 -0.000688635 0 
-0.00258965 -0.00274258 0 
-0.0175227 -0.0275113 0 
-0.0141459 -0.0173204 0 
-0.0120017 -0.0166923 0 
-0.00537043 2.02895e-11 0 
0.0056452 4.87635e-11 0 
-0.0134127 -0.00953982 0 
-0.0012456 -0.000688635 0 
-0.0025748 -0.00244894 0 
-0.000780153 -0.000403295 0 
9.46037e-05 -3.66711e-05 0 
0.0012057 0.000109275 0 
0.0013455 5.95234e-05 0 
3.35468e-05 -7.20887e-05 0 
0.000607192 0.000154475 0 
0.000876322 0.000147205 0 
-0.0139182 -0.0257438 0 
-0.0168129 -0.0275113 0 
-0.0126074 -0.0166923 0 
0.00126166 4.39351e-11 0 
0.00072842 4.64363e-11 0 
-0.00191228 0.000461804 0 
-0.0026019 -0.00247149 0 
-0.00256891 -0.00270663 0 
-0.00451137 -0.00560238 0 
-0.0171717 -0.0281327 0 
-0.0136298 -0.0252443 0 
-0.0174066 -0.0375627 0 
-0.00264085 -0.00270664 0 
-0.00384588 -0.0056981 0 
-0.00442232 -0.00560238 0 
0.000461149 0.000462926 0 
0.000443699 -0.000450381 0 
-0.000998263 -0.00112132 0 
-0.00476768 -0.00908018 0 
-0.0047924 -0.0130183 0 
-0.00638046 -0.0141641 0 
-0.00456518 -0.00443185 0 
-0.00856924 -0.00894078 0 
-0.00369016 -0.0032187 0 
-0.00486251 -0.0555726 0 
-0.0101149 -0.0519064 0 
-0.00684364 -0.0448088 0 
-0.0147012 -0.0457506 0 
-0.0170691 -0.0380655 0 
-0.0130652 -0.0332141 0 
-0.0167599 -0.111078 0 
0.00544434 -0.100451 0 
-0.0318726 -0.0636478 0 
-0.00115213 -0.00123203 0 
-0.00457898 -0.00445576 0 
-0.00370886 -0.00325109 0 
-0.0167788 -0.0375627 0 
-0.0142126 -0.0252443 0 
-0.013303 -0.033626 0 
0.0121295 -0.0658093 0 
0.00567436 -0.0665604 0 
0.00691289 -0.0582761 0 
0.0120612 -0.0656909 0 
0.0113979 -0.0744696 0 
0.00575091 -0.066693 0 
0.0115038 -0.0742861 0 
0.0119773 -0.0658362 0 
0.0180843 -0.0721583 0 
0.00126458 5.95234e-05 0 
0.00123563 0.000109275 0 
0.000901768 0.00010947 0 
-0.0058054 -0.00965599 0 
-0.00393538 -0.00559015 0 
-0.0046538 -0.00924346 0 
0.0179914 -0.0804707 0 
0.011627 -0.0744994 0 
0.0179775 -0.0719733 0 
0.0244313 -0.0768874 0 
0.0181342 -0.0802233 0 
0.0178598 -0.0721771 0 
-0.00378358 -0.00559013 0 
-0.00598597 -0.00965601 0 
-0.00448716 -0.00571474 0 
-0.0131284 -0.0100324 0 
0.00345343 0.00379625 0 
-0.00256578 -0.000670095 0 
0.00292007 -0.0500112 0 
0.00697142 -0.0582445 0 
0.00103692 -0.0576364 0 
-0.0107995 -0.0401222 0 
-0.0142528 -0.0457506 0 
-0.0135141 -0.0332141 0 
-0.0047852 -0.0229636 0 
-0.0070281 -0.0259435 0 
-0.00625693 -0.0186482 0 
-0.0144474 -0.0460876 0 
-0.0106344 -0.0398361 0 
-0.0102753 -0.051717 0 
0.0183977 -0.0559385 0 
0.0277908 -0.0649663 0 
0.0267335 -0.0685871 0 
0.0434706 -0.0765049 0 
0.0414089 -0.0813378 0 
0.0436248 -0.0771358 0 
-0.0100055 -0.051717 0 
-0.0109269 -0.0398361 0 
-0.0069417 -0.0449786 0 
0.0564776 -0.142577 0 
0.0520205 -0.155933 0 
0.0294635 -0.119716 0 
-0.00406153 -0.0164831 0 
-0.00490987 -0.0227477 0 
-0.00612306 -0.0188801 0 
0.0226142 -0.105631 0 
0.0137135 -0.103861 0 
0.0203761 -0.0970374 0 
0.0406714 -0.0795789 0 
0.041222 -0.0813681 0 
0.0373357 -0.0845211 0 
0.0407739 -0.0797565 0 
0.0372096 -0.0843027 0 
0.036046 -0.0806601 0 
0.0334873 -0.0905339 0 
0.0285837 -0.0972186 0 
0.0261875 -0.0912597 0 
-0.00591044 -0.00983803 0 
-0.00455958 -0.00908017 0 
-0.0066183 -0.0141641 0 
0.0264024 -0.0908876 0 
0.028338 -0.0976441 0 
0.0206292 -0.0974831 0 
0.0186606 -0.0554832 0 
0.0264302 -0.0691125 0 
0.0169033 -0.057721 0 
0.00818847 -0.0506519 0 
0.0128122 -0.0577628 0 
0.0069694 -0.0582116 0 
0.0330934 -0.0905134 0 
0.0389555 -0.0869955 0 
0.0356573 -0.0938312 0 
0.0127792 -0.0577057 0 
0.0120146 -0.0658093 0 
0.00700667 -0.0582761 0 
0.0413242 -0.0811911 0 
0.0405799 -0.0797374 0 
0.0436926 -0.0772533 0 
0.03054 -0.0795112 0 
0.031437 -0.0855859 0 
0.0251968 -0.0842448 0 
0.00226068 -0.00117715 0 
0.00337169 -0.00148306 0 
0.00399591 -0.00231737 0 
0.0101166 -0.043486 0 
0.0189556 -0.0559721 0 
0.0165412 -0.0571211 0 
0.046496 -0.0144995 0 
0.0552124 -0.0183252 0 
0.0589449 -0.0241436 0 
0.00292929 -0.000337158 0 
0.00375314 -0.000350501 0 
0.00701978 -0.00124413 0 
0.00329609 -0.00148366 0 
0.0023364 -0.00117655 0 
0.00167341 -0.000497551 0 
0.0535618 -0.158645 0 
0.0552339 -0.140388 0 
0.0799324 -0.168583 0 
0.0033247 -0.00139673 0 
0.00550731 -0.00295432 0 
0.00403618 -0.00239137 0 
-0.00223673 -0.0482231 0 
-0.00473155 -0.0555726 0 
-0.00700359 -0.0448088 0 
0.109043 -0.183882 0 
0.0822901 -0.194643 0 
0.081642 -0.166317 0 
-0.000103443 -4.96702e-11 0 
7.04153e-05 -4.97155e-11 0 
0.00232935 -0.000150566 0 
-0.0140705 -0.0172466 0 
-0.0151385 -0.0159215 0 
-0.00853891 -0.00714092 0 
-0.00225377 -0.0481424 0 
0.00290844 -0.0500313 0 
0.00104171 -0.0576281 0 
-0.00477779 -0.0556527 0 
-0.00219017 -0.0481424 0 
0.00100538 -0.0576281 0 
4.90843e-11 -0.000666859 0 
4.95007e-11 0.000467126 0 
0.000963846 -0.0216022 0 
-0.0200745 -0.099359 0 
-0.0264459 -0.0930195 0 
-0.0262791 -0.0759334 0 
-0.0212284 -0.0299275 0 
-0.015617 -0.0167503 0 
-0.0137023 -0.0166087 0 
-0.00732456 -0.0259435 0 
-0.00840281 -0.0211318 0 
-0.00598056 -0.0186482 0 
-0.0135989 -0.0601324 0 
-0.00752582 -0.0643067 0 
-0.0100826 -0.0745714 0 
0.027341 -0.0649368 0 
0.0362048 -0.0707713 0 
0.0364384 -0.0755304 0 
0.00554778 -0.100272 0 
-0.00538713 -0.0383237 0 
-0.0296671 -0.0598278 0 
0.00539219 -0.00123276 0 
0.00711745 -0.00142716 0 
0.00953784 -0.00290476 0 
0.0438783 -0.0689061 0 
0.0447381 -0.0734915 0 
0.0461024 -0.0719434 0 
0.00302064 -0.000174651 0 
0.00691561 -0.00142944 0 
0.00554374 -0.00123105 0 
0.00395399 -0.00239137 0 
0.00560435 -0.00295431 0 
0.00606388 -0.00409691 0 
0.00695127 -0.0582096 0 
0.00562023 -0.0666542 0 
0.00105632 -0.05767 0 
0.0134235 -0.103359 0 
0.0116257 -0.0936418 0 
0.0206306 -0.0974783 0 
-1.37935e-05 0.00017412 0 
0.00355968 -0.000342615 0 
0.00312137 -0.000344987 0 
0.0288457 -0.0976441 0 
0.0229082 -0.105121 0 
0.0201188 -0.0974831 0 
-0.0046676 -0.0227477 0 
-0.00428847 -0.0164831 0 
-0.00282961 -0.0199441 0 
0.0288207 -0.0976291 0 
0.0332844 -0.0901825 0 
0.035442 -0.0942042 0 
0.0182871 -0.0804881 0 
0.0243008 -0.0766613 0 
0.0248727 -0.0842409 0 
0.0354255 -0.0757103 0 
0.0403988 -0.0766265 0 
0.0361599 -0.0804753 0 
-0.000648287 -2.08702e-05 0 
0.00121143 -0.0149292 0 
0.00136559 -0.017102 0 
-0.00489591 -0.0128389 0 
-0.00466478 -0.00925847 0 
-0.00336411 -0.00833334 0 
0.0403151 -0.0764815 0 
0.0405698 -0.0797565 0 
0.0362665 -0.0806601 0 
-0.0029282 -0.019764 0 
-0.000862833 -0.022623 0 
-0.00253261 -0.0261685 0 
-0.00306701 -0.0054923 0 
-0.00217189 -0.00497767 0 
-0.00352184 -0.00834658 0 
0.0447225 -0.0734645 0 
0.0458583 -0.0745195 0 
0.0461149 -0.0719651 0 
-0.020688 -0.0308634 0 
-0.0237692 -0.0330958 0 
-0.0162634 -0.0156306 0 
0.00022397 -0.0287733 0 
-0.000942253 -0.0224697 0 
0.00158082 -0.0246115 0 
0.0806089 -0.191754 0 
0.0500771 -0.158579 0 
0.0829947 -0.168641 0 
-0.0197156 -4.23557e-11 0 
0.0256354 -1.36658e-10 0 
0.0884424 -0.0392752 0 
-0.0267751 -0.0935899 0 
-0.0297588 -0.0628472 0 
-0.0261066 -0.0756346 0 
0.0372219 -0.0842817 0 
0.0386169 -0.0869955 0 
0.0334522 -0.0905134 0 
0.0632697 -0.10171 0 
0.0586724 -0.0924534 0 
0.0707246 -0.0961093 0 
-8.11394e-05 -4.95957e-11 0 
5.87864e-05 -4.96763e-11 0 
0.00166368 -0.000121135 0 
0.103847 -0.155578 0 
0.110154 -0.18197 0 
0.0806083 -0.168097 0 
0.0270175 -0.069079 0 
0.0275574 -0.064562 0 
0.0361982 -0.0759463 0 
0.00229488 -0.00110975 0 
0.000975894 -0.000424834 0 
0.0017199 -0.000572358 0 
-0.00754577 -0.0643412 0 
-0.00266722 -0.0762161 0 
-0.0100435 -0.0745036 0 
4.91485e-11 -0.000995301 0 
4.93805e-11 0.000695296 0 
0.00168899 -0.031258 0 
-0.00252715 -0.324 0 
0.0822955 -0.328874 0 
0.14214 -0.214532 0 
-0.0164419 -0.0191763 0 
-0.0103982 -0.00431846 0 
-0.0274786 -0.0636184 0 
0.0329289 -0.112201 0 
0.0147063 -0.0786406 0 
0.0195799 -0.0818637 0 
-0.0196673 -0.0830992 0 
-0.0205616 -0.099359 0 
-0.025812 -0.0759334 0 
-0.000860504 -0.0226113 0 
0.000541797 -0.0190696 0 
0.0015063 -0.0244824 0 
7.74058e-05 4.8367e-11 0 
-2.94644e-05 4.84378e-11 0 
0.000568874 9.14937e-05 0 
-0.00855484 -0.00920314 0 
-0.00786182 -0.00966662 0 
-0.0124971 -0.0167682 0 
0.0773557 -0.0200723 0 
0.0679364 -0.0732675 0 
0.128248 -0.214423 0 
0.03627 -0.103047 0 
0.0543087 -0.127554 0 
0.0348639 -0.112202 0 
0.0545598 -0.114175 0 
0.0552449 -0.12591 0 
0.0354653 -0.104459 0 
-0.000493901 0.000321914 0 
-0.00120463 -0.000698935 0 
-0.000116616 0.00045414 0 
-0.00123518 -0.000686698 0 
-0.00132319 -0.000859516 0 
-0.00259966 -0.00272525 0 
-0.0113466 0.0144956 0 
0.0887534 -0.0387366 0 
0.0445431 -0.00435357 0 
-0.00478507 -0.0229512 0 
-0.00272568 -0.019764 0 
-0.00274242 -0.0261685 0 
0.0454664 -0.0696296 0 
0.0477889 -0.0717187 0 
0.0499306 -0.0726855 0 
-0.00457297 -0.00909935 0 
-0.00313848 -0.00536841 0 
-0.0034468 -0.00847665 0 
0.0176456 -0.013123 0 
0.0211375 -0.0178965 0 
0.0170097 -0.0154992 0 
0.000835261 -0.000624787 0 
0.000440613 -0.000379879 0 
0.000231135 -0.000153268 0 
0.0586743 -0.0580693 0 
0.0576802 -0.0502765 0 
0.063331 -0.0560745 0 
0.0370547 -0.104399 0 
0.033732 -0.110252 0 
0.0190317 -0.0831939 0 
-0.0171497 -0.0281575 0 
-0.0202026 -0.0299275 0 
-0.0145568 -0.0166087 0 
0.121467 -0.21417 0 
0.0909543 -0.329025 0 
0.142161 -0.241159 0 
0.0286328 -0.139913 0 
-0.00357891 -0.322266 0 
0.135063 -0.202868 0 
-0.0213687 -0.0436429 0 
-0.0254064 -0.0502496 0 
-0.0212713 -0.0298739 0 
0.00232337 -0.000155737 0 
0.00537652 -0.00119897 0 
0.00434786 -0.0011501 0 
0.00818778 -0.00505794 0 
0.00838461 -0.00647911 0 
0.00602625 -0.00416369 0 
0.00505977 -0.142567 0 
-0.00601214 -0.134205 0 
0.000532651 -0.128797 0 
0.00104369 -0.000900881 0 
0.00040196 -0.000380168 0 
0.000880125 -0.000624451 0 
0.0447653 -0.073512 0 
0.0435274 -0.0764065 0 
0.04357 -0.0772308 0 
-2.34657e-05 4.57978e-05 0 
-5.75859e-05 3.36443e-05 0 
-4.78756e-05 -8.2989e-07 0 
-0.00134481 -0.000859516 0 
-0.00227992 -0.00285621 0 
-0.00257166 -0.00272525 0 
0.00010021 0.000776479 0 
-0.000475024 0.000356335 0 
-0.000148766 0.000395519 0 
0.00130334 -0.000248821 0 
-1.82066e-05 0.00011739 0 
0.00160553 -0.000229586 0 
0.012671 -0.133827 0 
0.00526588 -0.14221 0 
0.000310053 -0.129183 0 
-0.00480813 -0.0556668 0 
-0.00746689 -0.0642679 0 
-0.0101883 -0.0517793 0 
0.02898 -0.0240175 0 
0.0294526 -0.0221763 0 
0.0391379 -0.0379292 0 
-4.8452e-11 1.61133e-05 0 
-4.85626e-11 4.49505e-05 0 
2.55439e-05 0.000697579 0 
0.102335 -0.155572 0 
0.082423 -0.168104 0 
0.0784706 -0.144514 0 
0.0813174 -0.166183 0 
0.0540676 -0.142409 0 
0.0793351 -0.146016 0 
-0.0201167 -0.0298739 0 
-0.0266017 -0.0502496 0 
-0.0245485 -0.0344455 0 
0.00556524 -0.00288621 0 
0.00809878 -0.00505782 0 
0.00610229 -0.00416379 0 
2.02654e-05 6.12223e-05 0 
-4.41565e-06 1.1966e-05 0 
-4.21284e-06 7.52931e-05 0 
0.0708306 -0.0961419 0 
0.0822266 -0.0947405 0 
0.0775984 -0.10556 0 
0.0438761 -0.0688931 0 
0.0444708 -0.0686542 0 
0.0411779 -0.063742 0 
0.0361665 -0.0804513 0 
0.0370711 -0.0845426 0 
0.0317499 -0.0855765 0 
9.79523e-05 3.01164e-05 0 
-0.000212759 -0.000739983 0 
-0.00018294 -0.00034579 0 
0.0576313 -0.0386194 0 
0.0617429 -0.0475402 0 
0.0546404 -0.0419913 0 
0.0584529 -0.0926724 0 
0.0494635 -0.0932704 0 
0.0469591 -0.0851863 0 
-0.000463923 0.000321914 0 
-0.00132503 -0.000862698 0 
-0.00124225 -0.000698935 0 
-0.0209993 -0.043003 0 
-0.0229461 -0.0625579 0 
-0.0258942 -0.0510944 0 
0.0630852 -0.10171 0 
0.0708118 -0.0961093 0 
0.0776223 -0.105601 0 
0.00609588 -0.00416287 0 
0.00620039 -0.00528356 0 
0.00432163 -0.00332996 0 
0.0246318 -0.0774483 0 
0.0223119 -0.0798745 0 
0.0116655 -0.0589552 0 
0.0241653 -0.076896 0 
0.0306773 -0.079749 0 
0.0250336 -0.0839621 0 
0.00600348 -0.00636102 0 
0.00439602 -0.00422114 0 
0.00622354 -0.00533429 0 
0.0469549 -0.0717761 0 
0.0489298 -0.0749818 0 
0.0421065 -0.0697899 0 
0.0836994 -0.195841 0 
0.0742697 -0.219732 0 
0.0375093 -0.168487 0 
0.0387619 -0.0367668 0 
0.0355406 -0.0399357 0 
0.0329133 -0.0329744 0 
0.0946497 -0.134186 0 
0.102975 -0.154463 0 
0.0778345 -0.145616 0 
0.00399346 -0.00232414 0 
0.00602514 -0.0041629 0 
0.00438483 -0.00332993 0 
0.00251657 -0.0205785 0 
0.00046735 -0.0191905 0 
0.00144587 -0.0159479 0 
0.000397549 -0.0190696 0 
0.00258058 -0.0206894 0 
0.00165228 -0.0244824 0 
-5.62751e-06 7.16925e-05 0 
-1.85998e-05 5.2906e-05 0 
-2.78999e-05 4.90791e-05 0 
-0.00114141 -0.000974027 0 
-0.00230485 -0.00281307 0 
-0.00132934 -0.000886287 0 
-0.00257623 -0.0145333 0 
-0.00123635 -0.0123341 0 
-0.00137713 -0.016971 0 
-0.0170142 -0.0703916 0 
-0.0196555 -0.0832645 0 
-0.02269 -0.0627747 0 
-0.0120242 -0.0866314 0 
-0.0127718 -0.101347 0 
-0.0194127 -0.0834179 0 
0.00103409 0.000326707 0 
0.00115478 0.000116646 0 
0.000926735 0.000143516 0 
0.0318322 -0.0427762 0 
0.0299032 -0.0358983 0 
0.0355274 -0.0399129 0 
-0.000961338 -0.0662445 0 
-0.00280026 -0.0762161 0 
-0.00745844 -0.0643412 0 
0.0216194 -0.0810476 0 
0.0378884 -0.0964779 0 
0.0363252 -0.103108 0 
-0.00119365 -0.000974009 0 
-0.00178521 -0.00281707 0 
-0.0022497 -0.00281309 0 
0.0347038 -0.111971 0 
0.0308343 -0.117162 0 
0.0127372 -0.078896 0 
-0.0185649 -0.0534648 0 
-0.0224271 -0.0625579 0 
-0.0216369 -0.043003 0 
0.00275807 -0.0302729 0 
-0.00154025 -0.000286779 0 
0.00342867 -0.0320582 0 
0.00888559 -0.00688682 0 
0.0072653 -0.00430795 0 
0.0138723 -0.0103663 0 
0.0444726 -0.0686574 0 
0.043881 -0.0689015 0 
0.0460951 -0.0719561 0 
-0.00102214 -0.0663499 0 
0.00464268 -0.0759817 0 
-0.0027169 -0.0760717 0 
0.0139638 -0.0113109 0 
0.0176742 -0.0131725 0 
0.0169841 -0.015455 0 
-0.00230306 -0.00497758 0 
-0.00235942 -0.00758641 0 
-0.003373 -0.00834668 0 
0.111559 -0.183871 0 
0.111743 -0.215977 0 
0.0797489 -0.194654 0 
0.00459134 -0.00173398 0 
0.0055624 -0.00286641 0 
0.00327738 -0.00147225 0 
0.00333984 -0.0109956 0 
0.00306235 -0.0084078 0 
0.00454826 -0.0110097 0 
-4.86682e-11 7.11908e-05 0 
-4.87952e-11 -2.96448e-06 0 
-7.04477e-05 0.000506586 0 
0.00819747 -0.0506363 0 
0.00695037 -0.0582445 0 
0.00291865 -0.0500112 0 
0.0372661 -0.0953927 0 
0.0531209 -0.11418 0 
0.0370977 -0.104455 0 
0.0252449 -0.0733796 0 
0.0150766 -0.058966 0 
0.0166601 -0.0570613 0 
0.0535376 -0.0655377 0 
0.0523105 -0.0697106 0 
0.0489753 -0.0671415 0 
0.0300828 -0.0210848 0 
0.0399532 -0.0394554 0 
0.0386246 -0.0388182 0 
0.0318268 -0.0427659 0 
0.0277234 -0.0453006 0 
0.0264154 -0.0384624 0 
0.024134 -0.0765496 0 
0.0366102 -0.0965006 0 
0.0229486 -0.081024 0 
0.00715917 -0.00449177 0 
0.0122523 -0.00714644 0 
0.013951 -0.0102299 0 
0.0384684 -0.0960856 0 
0.0319091 -0.10291 0 
0.035678 -0.0938175 0 
0.00225898 -0.00117329 0 
0.00151633 -0.00089983 0 
0.00100996 -0.000364537 0 
-0.0118872 -0.0868687 0 
-0.0195784 -0.083131 0 
-0.0170492 -0.0704523 0 
0.0261615 -0.00331702 0 
0.0450429 -0.00601023 0 
0.0745607 -0.0212183 0 
0.0225993 -0.00224682 0 
-0.000307949 0.00133948 0 
0.0270874 -0.00298907 0 
3.18305e-11 -0.00775127 0 
3.94399e-11 0.00116601 0 
0.00900433 -0.157475 0 
0.0563284 -0.142417 0 
0.0553922 -0.125932 0 
0.0773531 -0.146008 0 
0.0222627 -0.0798555 0 
0.0355442 -0.104555 0 
0.0204867 -0.0830435 0 
-0.000546378 0.000207614 0 
-0.00132151 -0.000868791 0 
-0.00047474 0.000340646 0 
-0.00249414 -5.27839e-11 0 
-0.00275494 -5.90405e-11 0 
0.0418323 0.000220005 0 
0.0857105 -0.118075 0 
0.0941899 -0.133624 0 
0.0732269 -0.127551 0 
0.0539082 -0.113047 0 
0.0728333 -0.12785 0 
0.0560524 -0.127309 0 
-2.51537e-05 0.000135601 0 
0.0022432 -0.000299793 0 
0.001747 -0.000255741 0 
0.0814893 -0.191715 0 
0.109642 -0.219525 0 
0.0763899 -0.22369 0 
0.0264119 -0.0384685 0 
0.0277219 -0.0453031 0 
0.0225362 -0.0406158 0 
-0.000145764 0.000455918 0 
6.90101e-05 4.34614e-05 0 
-0.000152543 0.000157372 0 
0.0907552 -0.103404 0 
0.101195 -0.114936 0 
0.0857528 -0.117803 0 
0.0124832 -0.133302 0 
0.00816503 -0.122183 0 
0.0202201 -0.12354 0 
0.0081766 -0.00791782 0 
0.00602383 -0.00639629 0 
0.00619942 -0.00529248 0 
-2.32791e-05 5.18067e-05 0 
-2.18247e-05 5.10024e-05 0 
-5.77153e-05 2.94781e-05 0 
0.0856533 -0.117976 0 
0.101406 -0.114571 0 
0.0942636 -0.133752 0 
0.0238976 -0.131502 0 
0.012788 -0.13383 0 
0.019934 -0.123045 0 
0.00295744 -0.00255916 0 
0.00194046 -0.00186089 0 
0.00177178 -0.0013293 0 
-0.00224724 -0.00279952 0 
-0.00389585 -0.00561156 0 
-0.00260086 -0.00277589 0 
0.0341481 -0.0380252 0 
0.0365099 -0.0382091 0 
0.0409866 -0.0502375 0 
6.28613e-05 -0.000137232 0 
-2.72826e-05 1.42853e-05 0 
4.54398e-05 -3.98578e-05 0 
5.6256e-06 7.16306e-06 0 
-1.85977e-05 5.42868e-05 0 
-5.62243e-06 7.50592e-05 0 
0.0168995 -0.00802993 0 
0.0216816 -0.0122791 0 
0.0177156 -0.0106919 0 
4.33506e-05 -3.8422e-05 0 
2.31088e-05 6.50844e-05 0 
0.000115028 -0.000116172 0 
0.00943954 -0.00913263 0 
0.00880983 -0.00679056 0 
0.0145147 -0.0132389 0 
0.033832 -0.110246 0 
0.0539254 -0.142608 0 
0.0321089 -0.119684 0 
0.00606148 -0.00410309 0 
0.00834929 -0.00653985 0 
0.00623053 -0.00533594 0 
0.096311 -0.0557276 0 
0.100007 -0.0529247 0 
0.113398 -0.0788545 0 
0.0587988 -0.0926724 0 
0.0631131 -0.101438 0 
0.0490219 -0.0932704 0 
-0.000774304 -0.0224697 0 
5.48401e-05 -0.0287733 0 
-0.00263146 -0.0263397 0 
-4.92869e-11 1.02391e-05 0 
-4.92989e-11 -5.18465e-06 0 
-1.3013e-05 5.12332e-05 0 
-0.00403159 -0.0388117 0 
-0.00230441 -0.0481058 0 
-0.00691944 -0.0449546 0 
0.0298941 -0.0359141 0 
0.0318382 -0.0427659 0 
0.026411 -0.0384624 0 
0.0207356 -0.00922021 0 
0.026329 -0.0140103 0 
0.0217991 -0.0122761 0 
0.000690989 -0.316513 0 
-0.000446346 -0.205926 0 
0.0207836 -0.271775 0 
0.00439351 -0.00421967 0 
0.00301703 -0.00320271 0 
0.00298226 -0.00251912 0 
0.0368426 -0.0376328 0 
0.0429968 -0.0530958 0 
0.0407231 -0.0506939 0 
0.00271836 -0.0018641 0 
0.00179857 -0.00137324 0 
0.00148523 -0.000842747 0 
0.0783798 -0.195471 0 
0.0433418 -0.168892 0 
0.0517214 -0.155838 0 
0.0261509 -0.112906 0 
0.0357838 -0.106561 0 
0.0306928 -0.118076 0 
0.0327103 -0.112203 0 
0.0563246 -0.127553 0 
0.0551793 -0.14042 0 
0.00617098 -0.0053343 0 
0.00444213 -0.00422113 0 
0.00435101 -0.00327928 0 
-0.00101153 0.00250141 0 
0.0381089 -0.0060621 0 
0.0292513 -0.00329391 0 
0.0216978 -0.0122761 0 
0.0264309 -0.0140103 0 
0.0265856 -0.0172422 0 
0.0321726 -0.0388743 0 
0.0343941 -0.0384054 0 
0.0384988 -0.0488937 0 
4.83639e-11 6.17561e-05 0 
4.82959e-11 -3.13692e-05 0 
-8.43433e-05 0.000326476 0 
0.0484546 -0.0185478 0 
0.0464799 -0.0145327 0 
0.0589654 -0.0241012 0 
-0.00183263 -0.00275213 0 
-0.00223132 -0.00508063 0 
-0.00300427 -0.00538363 0 
0.014553 -0.0131725 0 
0.00875426 -0.00688682 0 
0.0140035 -0.0103663 0 
0.0634748 -0.0633692 0 
0.0585474 -0.0578495 0 
0.0634856 -0.0563422 0 
0.00841276 -0.00653987 0 
0.00820088 -0.0078758 0 
0.0061743 -0.00533593 0 
0.0193471 -0.00297799 0 
0.0263118 -0.00593688 0 
0.0162873 -0.00266109 0 
0.0424475 -0.0811341 0 
0.0408299 -0.0873367 0 
0.0386489 -0.08696 0 
0.0270793 -0.0691226 0 
0.0256984 -0.0726557 0 
0.0162532 -0.0577109 0 
0.00453341 -0.0757925 0 
0.00376466 -0.0863233 0 
-0.00259669 -0.0762799 0 
0.0355538 -0.0399129 0 
0.0298878 -0.0358983 0 
0.0328992 -0.0329987 0 
-0.0217911 -0.0429114 0 
-0.0207215 -0.0308262 0 
-0.0167521 -0.0274688 0 
0.00737232 -0.00358552 0 
0.00561535 -0.00296534 0 
0.00452362 -0.00160746 0 
0.00407786 -0.0863233 0 
-0.00394659 -0.0873246 0 
-0.00287693 -0.0762799 0 
0.0189732 -0.002974 0 
0.0223922 -0.00332273 0 
0.0306372 -0.00677086 0 
0.0261689 -0.0062225 0 
0.0307834 -0.00716425 0 
0.0364223 -0.0113363 0 
-0.00120848 -0.00263674 0 
-0.00228211 -0.00499244 0 
-0.00178436 -0.00283594 0 
-0.000272423 6.75114e-05 0 
0.000591214 -0.00153332 0 
0.000555659 -0.00240344 0 
0.0250313 -0.0839388 0 
0.0261949 -0.0912636 0 
0.0190494 -0.0889903 0 
0.000653754 -0.00505234 0 
-0.000328669 2.69653e-05 0 
0.000678429 -0.0042205 0 
0.0586053 -0.0925695 0 
0.0649385 -0.088545 0 
0.0707635 -0.0960419 0 
-7.96486e-05 0.000511135 0 
0.0145813 -0.00117481 0 
0.0122917 -0.000857877 0 
0.0218807 -0.0151648 0 
0.0217419 -0.0121997 0 
0.0265448 -0.0173129 0 
0.0017486 -0.00137144 0 
0.00106476 -0.000936109 0 
0.000854745 -0.00058201 0 
0.00845052 -0.121688 0 
0.0121798 -0.133827 0 
0.000844676 -0.129183 0 
0.00102318 -0.000935482 0 
0.00055329 -0.000547849 0 
0.000422643 -0.000345272 0 
-0.000931682 -0.0662959 0 
-0.00748384 -0.0642972 0 
-0.00478434 -0.0556256 0 
0.0316481 -0.102458 0 
0.0283478 -0.0976291 0 
0.0359013 -0.0942042 0 
0.00224483 -0.000289052 0 
0.00311471 -0.000334712 0 
0.00545079 -0.00107291 0 
-0.00117231 6.11358e-05 0 
0.00167602 -0.0220444 0 
0.00319362 -0.030444 0 
-0.00206721 -0.0101307 0 
-0.00102185 -0.00854888 0 
-0.00139373 -0.0123384 0 
0.041023 -0.0876073 0 
0.0386955 -0.0956922 0 
0.0354754 -0.0941685 0 
-0.0144824 -0.0461295 0 
-0.0182783 -0.0530427 0 
-0.0173415 -0.0375937 0 
-0.000673871 -0.000839607 0 
-0.00182217 -0.0027535 0 
-0.00116275 -0.00102717 0 
0.00151319 -0.000889922 0 
0.00177316 -0.00133037 0 
0.000832714 -0.00061885 0 
0.06814 -0.0828008 0 
0.0751176 -0.0790313 0 
0.0743762 -0.0878545 0 
0.0477963 -0.0717316 0 
0.0510899 -0.0728129 0 
0.0499228 -0.0726719 0 
0.0383198 -0.0492038 0 
0.0346136 -0.0380252 0 
0.0404707 -0.0502375 0 
0.0414047 -0.066699 0 
0.0469015 -0.0717761 0 
0.0421857 -0.0697899 0 
0.0343638 -0.0491424 0 
0.0390998 -0.0570752 0 
0.0378403 -0.0572103 0 
0.00298338 -0.00251422 0 
0.00174642 -0.00137324 0 
0.00278052 -0.0018641 0 
0.043894 -0.0688931 0 
0.0411612 -0.063742 0 
0.0416271 -0.0639509 0 
0.0396645 -0.107256 0 
0.0430545 -0.105817 0 
0.0352955 -0.122133 0 
0.0581522 -0.0756524 0 
0.0631487 -0.0737626 0 
0.0626159 -0.078465 0 
-0.00248694 -0.0143788 0 
-0.00214635 -0.00999268 0 
-0.0013166 -0.0124729 0 
-0.00398482 -0.0873164 0 
-0.00437173 -0.100502 0 
-0.0117819 -0.0869657 0 
-0.00139518 -0.00657106 0 
-0.0021362 -0.00999951 0 
-0.00236422 -0.00759186 0 
0.00598395 -0.00639484 0 
0.0042383 -0.00500001 0 
0.00441651 -0.00418565 0 
-0.00320837 -0.0114215 0 
-0.00428378 -0.0164897 0 
-0.00479997 -0.0130218 0 
0.00127864 -0.01485 0 
0.00112262 -0.0118781 0 
0.0043424 -0.0275343 0 
0.0109605 -0.00783192 0 
0.0084207 -0.00654163 0 
0.00814694 -0.0049872 0 
0.00867811 -0.000713476 0 
0.0106942 -0.000807673 0 
0.0191779 -0.00261032 0 
0.0492042 -0.0928214 0 
0.0366678 -0.0819029 0 
0.0471694 -0.0855505 0 
-4.92296e-11 3.2123e-06 0 
-4.92636e-11 1.45593e-05 0 
9.65999e-06 5.49935e-05 0 
-1.66468e-05 1.29892e-05 0 
2.33219e-05 4.69696e-05 0 
4.304e-05 -1.20296e-05 0 
-0.0170592 -0.0703137 0 
-0.0226212 -0.062894 0 
-0.0183922 -0.0531655 0 
0.0362986 -0.0486058 0 
0.0302483 -0.0401111 0 
0.0323334 -0.0391188 0 
0.0310108 -0.118672 0 
0.0242178 -0.130948 0 
0.0196475 -0.123541 0 
0.0102354 -0.0111021 0 
0.00766994 -0.00911389 0 
0.00819998 -0.00788627 0 
-0.00139628 -0.0123341 0 
-0.000147088 -0.0144889 0 
-0.00120828 -0.0169709 0 
0.0685815 -0.113374 0 
0.073406 -0.126858 0 
0.0533656 -0.113986 0 
-0.000144859 0.000721761 0 
-0.000455381 0.000323212 0 
7.47517e-05 0.00081941 0 
0.0027511 -0.00180886 0 
0.00145202 -0.000898766 0 
0.0023343 -0.00117453 0 
8.85923e-05 -0.000358857 0 
6.90547e-05 -0.000132486 0 
0.000301477 -0.00076386 0 
0.0409542 -0.0875519 0 
0.0423452 -0.080957 0 
0.043437 -0.0786625 0 
-0.00821176 -0.00966662 0 
-0.0103174 -0.0165551 0 
-0.0120658 -0.0167682 0 
-0.0120977 -0.0868687 0 
-0.0168987 -0.0704523 0 
-0.0100964 -0.0745027 0 
-0.0169354 -0.0703887 0 
-0.0135634 -0.0601324 0 
-0.0100567 -0.0745714 0 
0.0445381 -0.0734953 0 
0.0432827 -0.0857602 0 
0.0435486 -0.0785406 0 
0.0191738 -0.00261832 0 
0.0304207 -0.00715459 0 
0.0264531 -0.00623008 0 
-0.00233273 -0.00279954 0 
-0.00305716 -0.00547299 0 
-0.00379343 -0.00561154 0 
0.0039199 -0.0976712 0 
-0.00375122 -0.087663 0 
0.00390488 -0.0860237 0 
-0.00244234 -0.0074575 0 
-0.00206042 -0.0101298 0 
-0.00321867 -0.0114309 0 
-0.0022871 -0.0028785 0 
-0.00174799 -0.00275198 0 
-0.0031087 -0.00538381 0 
-4.88776e-11 8.05503e-05 0 
-4.89406e-11 -2.70215e-05 0 
-9.60858e-05 -0.000295126 0 
0.0614727 -0.0475402 0 
0.0575454 -0.0504897 0 
0.0548625 -0.0419913 0 
0.0326493 -0.0503839 0 
0.0343084 -0.0492385 0 
0.0378767 -0.0571472 0 
0.0194012 -0.002996 0 
0.0104601 -0.000403503 0 
0.0219334 -0.00329915 0 
0.0582046 -0.0723914 0 
0.0630524 -0.0739294 0 
0.0582318 -0.0755146 0 
0.0944376 -0.133819 0 
0.112996 -0.129501 0 
0.103273 -0.154979 0 
-0.00330253 -0.0115848 0 
-0.00469454 -0.0128389 0 
-0.00354381 -0.00833332 0 
0.00976198 -0.0214423 0 
0.00737082 -0.021801 0 
0.00713791 -0.0176146 0 
0.0444696 -0.0686562 0 
0.0410876 -0.0647116 0 
0.0411704 -0.063755 0 
0.0411721 -0.0637609 0 
0.0378666 -0.0571489 0 
0.0416007 -0.0639051 0 
0.0122419 -0.0148953 0 
0.00928731 -0.012388 0 
0.0102524 -0.0110829 0 
0.103325 -0.154674 0 
0.125061 -0.150761 0 
0.110857 -0.183188 0 
-0.00120248 -0.01697 0 
-0.000953583 -0.0224658 0 
-0.00282991 -0.0199343 0 
0.00890008 -0.000345784 0 
0.0189631 -0.00296609 0 
0.0166382 -0.00267195 0 
0.00565202 -0.0665542 0 
0.00445566 -0.0759817 0 
-0.000869328 -0.0663499 0 
-0.000176228 7.30809e-05 0 
9.22899e-05 3.1063e-05 0 
-0.000196899 -0.000241068 0 
-0.00468877 -0.00443185 0 
-0.00799843 -0.00990325 0 
-0.00840337 -0.00894078 0 
0.0357766 -0.0628443 0 
0.0414375 -0.0667559 0 
0.0421352 -0.0697025 0 
0.0135325 -0.00709181 0 
0.0169535 -0.00812381 0 
0.0176636 -0.0106013 0 
0.038792 -0.0867123 0 
0.0406736 -0.0876073 0 
0.035852 -0.0941685 0 
0.0684022 -0.0759764 0 
0.0749321 -0.0793526 0 
0.0682919 -0.0825378 0 
0.0434015 -0.105216 0 
0.0393901 -0.107731 0 
0.0457295 -0.0917216 0 
-3.93534e-05 1.41951e-05 0 
6.89919e-05 -0.000175712 0 
8.86582e-05 -0.00031353 0 
-0.00228491 -0.00745751 0 
-0.00339134 -0.0114309 0 
-0.0034546 -0.00848785 0 
-0.0015196 -0.00657101 0 
-0.00109141 -0.00866924 0 
-0.00199144 -0.00999956 0 
0.0355208 -0.0755453 0 
0.0360465 -0.0806717 0 
0.0306609 -0.0797471 0 
0.00251993 -0.00224774 0 
0.000538493 -0.000506276 0 
0.00195825 -0.00153205 0 
0.0168842 -0.00139145 0 
0.0225058 -0.00227579 0 
0.0415483 -0.00675701 0 
-0.0014246 -0.00448879 0 
-0.00242679 -0.00746919 0 
-0.00223806 -0.00509068 0 
0.0264516 -0.112385 0 
0.0303483 -0.118672 0 
0.020277 -0.123541 0 
0.00937772 -0.00902557 0 
0.00498755 -0.00438855 0 
0.00888247 -0.00691638 0 
0.0910376 -0.103894 0 
0.101047 -0.0938489 0 
0.100833 -0.114309 0 
0.000538424 -0.0190674 0 
-0.000217406 -0.0143601 0 
0.00138165 -0.0160592 0 
0.00179611 -0.00137144 0 
0.0019191 -0.00182388 0 
0.00102233 -0.000936109 0 
0.00879218 -0.00672502 0 
0.00385822 -0.00281711 0 
0.00738762 -0.00451982 0 
-0.000714811 -0.00572117 0 
-0.00115212 -0.00856011 0 
-0.00145373 -0.0066894 0 
0.0354897 -0.106052 0 
0.0393111 -0.107794 0 
0.0310281 -0.118657 0 
0.00317376 -0.0171226 0 
0.00264062 -0.0205785 0 
0.00132361 -0.0159479 0 
-0.000273439 -5.00356e-11 0 
0.000230546 -5.013e-11 0 
0.0120267 -0.000421227 0 
0.0303375 -0.0402656 0 
0.0258351 -0.0306068 0 
0.0322036 -0.0388939 0 
0.0431942 -0.0856069 0 
0.0407326 -0.0875519 0 
0.043619 -0.0786625 0 
0.0821502 -0.0951144 0 
0.0911652 -0.0878404 0 
0.0906724 -0.103242 0 
0.0744044 -0.0879278 0 
0.0820877 -0.0949811 0 
0.0709165 -0.0959931 0 
4.91107e-11 -0.000115758 0 
4.88904e-11 0.000187857 0 
0.000288434 -0.00132963 0 
4.87215e-11 1.47959e-05 0 
4.85038e-11 0.000101346 0 
7.84655e-05 0.000254311 0 
0.00227202 -0.315404 0 
-0.00201449 -0.355319 0 
0.0815874 -0.330142 0 
0.0086817 -0.00691638 0 
0.00516732 -0.00438855 0 
0.00397841 -0.00260892 0 
0.0545975 -0.127309 0 
0.0740951 -0.12785 0 
0.0782444 -0.144465 0 
0.0019791 -0.0130932 0 
0.00311998 -0.0170295 0 
0.00138218 -0.0160494 0 
-4.92631e-11 9.38735e-06 0 
-4.92878e-11 3.79198e-06 0 
-4.72902e-06 7.55946e-05 0 
0.0745676 -0.0882104 0 
0.0825626 -0.0829586 0 
0.0818867 -0.0946329 0 
0.0074628 -0.00358366 0 
0.00814839 -0.00497346 0 
0.00551752 -0.00296736 0 
0.0186493 -0.00645452 0 
0.0146363 -0.00524807 0 
0.0128372 -0.00325771 0 
0.0444365 -0.0255496 0 
0.0503347 -0.0335743 0 
0.0433861 -0.0295633 0 
0.0361842 -0.0488038 0 
0.0324745 -0.0388743 0 
0.0381554 -0.0488937 0 
0.00767468 -0.000707351 0 
0.00907169 -0.000715098 0 
0.0164977 -0.00236953 0 
-0.00275365 -0.0760664 0 
-0.00410387 -0.087597 0 
-0.00995115 -0.0746635 0 
0.000566703 -0.000493494 0 
9.9693e-05 0.000229429 0 
-0.000254667 0.000260833 0 
0.0414213 -0.0667391 0 
0.0410855 -0.0647009 0 
0.0454493 -0.0696392 0 
0.00129284 -0.0110256 0 
-0.000487879 9.01229e-05 0 
0.00072857 -0.00727274 0 
0.0102426 -0.0262411 0 
0.00734274 -0.0217523 0 
0.00978682 -0.0214854 0 
0.00300538 -0.00255916 0 
0.00299717 -0.0031683 0 
0.00189885 -0.00186089 0 
0.00301062 -0.00256139 0 
0.00274946 -0.0018103 0 
0.00431929 -0.00332862 0 
-0.000330382 -0.010385 0 
-0.000220639 -0.0143614 0 
-0.00131816 -0.0124694 0 
0.00437442 -0.0976712 0 
-0.004128 -0.10008 0 
-0.00418493 -0.087663 0 
0.0358813 -0.0628443 0 
0.0361777 -0.0600562 0 
0.0413591 -0.0667559 0 
0.0317744 -0.0855859 0 
0.0264001 -0.0909081 0 
0.0248546 -0.0842448 0 
0.0364919 -0.0382428 0 
0.0297702 -0.0240175 0 
0.0381643 -0.0379292 0 
0.045467 -0.0696296 0 
0.0444701 -0.0686587 0 
0.0477942 -0.0717187 0 
-0.0198513 -0.0834179 0 
-0.0123213 -0.101347 0 
-0.0202988 -0.0989038 0 
0.0735747 -0.126948 0 
0.0938652 -0.134186 0 
0.0789088 -0.145616 0 
0.0521392 -0.102839 0 
0.0537922 -0.113017 0 
0.0366767 -0.0964134 0 
-0.0203623 -0.0988604 0 
-0.0178737 -0.118067 0 
-0.0260182 -0.0937602 0 
0.0358233 -0.0627438 0 
0.0300485 -0.054695 0 
0.0362124 -0.0601164 0 
0.0434416 -0.0684666 0 
0.0445549 -0.0734662 0 
0.0435167 -0.0785959 0 
0.110478 -0.182056 0 
0.134626 -0.181651 0 
0.113202 -0.218426 0 
0.0918833 -0.058985 0 
0.0865806 -0.0614591 0 
0.08131 -0.0456275 0 
0.0314342 -0.0855765 0 
0.0373726 -0.0845426 0 
0.0332726 -0.0902023 0 
0.0368408 -0.0581963 0 
0.0326948 -0.0503839 0 
0.0378109 -0.0571472 0 
0.0685721 -0.0762707 0 
0.0729531 -0.0704734 0 
0.0747265 -0.0789964 0 
-0.0226718 -0.0627747 0 
-0.0195719 -0.0832645 0 
-0.0259443 -0.0757042 0 
-0.000335009 6.63338e-05 0 
0.000627575 -0.0027347 0 
0.00071187 -0.00383819 0 
0.0630621 -0.0739764 0 
0.0669319 -0.0694441 0 
0.0684082 -0.0759516 0 
0.0488852 -0.0750592 0 
0.0433939 -0.073878 0 
0.042151 -0.069713 0 
0.0326732 -0.0504254 0 
0.0284816 -0.0417036 0 
0.0342554 -0.0491468 0 
0.0202728 -0.0531858 0 
0.027314 -0.0649663 0 
0.0189233 -0.0559385 0 
-0.0013736 -0.01697 0 
0.000466039 -0.0192008 0 
-0.000776502 -0.0224658 0 
-4.91553e-11 -9.07881e-06 0 
-4.91972e-11 3.04204e-05 0 
3.33942e-05 -0.000154659 0 
-0.000465694 -0.010385 0 
0.000629578 -0.0120383 0 
-7.89431e-05 -0.0143614 0 
0.0680173 -0.0825883 0 
0.074525 -0.0881122 0 
0.0650321 -0.0884656 0 
0.0649624 -0.0885863 0 
0.0746315 -0.0879278 0 
0.0707354 -0.0959931 0 
0.0312748 -0.0522286 0 
0.0266378 -0.0436254 0 
0.0326653 -0.0503919 0 
0.0361507 -0.0601031 0 
0.0410958 -0.0647187 0 
0.0413951 -0.0666936 0 
0.0582907 -0.0725405 0 
0.0615504 -0.0689168 0 
0.0629465 -0.073746 0 
0.0517022 -0.0295388 0 
0.0577051 -0.0384206 0 
0.0502333 -0.0335538 0 
-0.00116709 -0.00854908 0 
-0.000398269 -0.0105025 0 
-0.00124235 -0.0123382 0 
-0.000351517 -0.00716235 0 
-0.000462983 -0.0103901 0 
-0.00109887 -0.00866763 0 
0.0257228 -0.0307653 0 
0.0204944 -0.0213554 0 
0.0271724 -0.0286086 0 
0.0686927 -0.0759764 0 
0.0680009 -0.0825378 0 
0.0627158 -0.078658 0 
0.0121544 -0.0658362 0 
0.018137 -0.0640286 0 
0.0178917 -0.0721583 0 
0.00494854 -0.0140973 0 
0.00340822 -0.0138863 0 
0.00337336 -0.010947 0 
0.0433128 -0.0737374 0 
0.0357042 -0.0663871 0 
0.0422112 -0.0698173 0 
0.039975 -0.107794 0 
0.034938 -0.121514 0 
0.0304041 -0.118657 0 
4.92651e-11 -0.000127084 0 
4.90405e-11 0.000224795 0 
0.000304736 -0.00254831 0 
-0.0101095 -0.016195 0 
-0.0141905 -0.0252721 0 
-0.0123147 -0.0171993 0 
0.0387874 -0.0368108 0 
0.0414754 -0.0440222 0 
0.0355242 -0.0399072 0 
0.00187967 -0.0220204 0 
0.00146415 -0.0172151 0 
0.00619765 -0.0392797 0 
-0.0122172 -0.0869657 0 
-0.00391825 -0.100502 0 
-0.0125257 -0.100921 0 
0.000571201 -0.0119311 0 
0.00192578 -0.0131855 0 
0.00144127 -0.015947 0 
0.0361951 -0.0601031 0 
0.0368443 -0.0581882 0 
0.0410711 -0.0647187 0 
-2.90431e-05 0.000377195 0 
0.0102352 -0.000800692 0 
0.00908086 -0.000719601 0 
0.0116013 -0.0744696 0 
0.00455891 -0.0758029 0 
0.00557189 -0.066693 0 
0.0629387 -0.0737626 0 
0.0685576 -0.0762104 0 
0.0628272 -0.078465 0 
0.0454609 -0.069619 0 
0.0410793 -0.0647116 0 
0.0444686 -0.0686562 0 
0.0391013 -0.0570873 0 
0.0407983 -0.0583064 0 
0.042479 -0.0653758 0 
0.0318333 -0.0427773 0 
0.0332334 -0.0497881 0 
0.0277261 -0.0453053 0 
0.0375055 -0.0470071 0 
0.0332317 -0.0497911 0 
0.031841 -0.042764 0 
0.0272772 -0.0288199 0 
0.0211623 -0.0186499 0 
0.028379 -0.0264902 0 
0.0114917 -0.0837589 0 
0.00393093 -0.0860353 0 
0.0043986 -0.076026 0 
0.0283131 -0.0264153 0 
0.0293926 -0.0246716 0 
0.0368236 -0.0376684 0 
0.00301861 -0.0084078 0 
0.00396645 -0.00834669 0 
0.00459139 -0.0110097 0 
-0.00110898 -5.13136e-11 0 
0.000484342 -5.27438e-11 0 
0.0280782 -0.00133218 0 
0.0326925 -0.0503919 0 
0.0266377 -0.0436254 0 
0.0284462 -0.041765 0 
0.0140903 -0.019289 0 
0.0107809 -0.0162214 0 
0.0122516 -0.0148892 0 
0.0413816 -0.0667391 0 
0.0454719 -0.0696392 0 
0.0469273 -0.0717314 0 
-0.0188086 -0.0530427 0 
-0.0213114 -0.0435667 0 
-0.0167862 -0.0375937 0 
0.0436059 -0.0765049 0 
0.042319 -0.0809629 0 
0.0412485 -0.0813378 0 
0.0853435 -0.118075 0 
0.0738062 -0.127551 0 
0.0682623 -0.112821 0 
0.0188217 -0.00644007 0 
0.020741 -0.00917357 0 
0.0144394 -0.00526458 0 
0.0120968 -0.0936173 0 
0.00415756 -0.0972595 0 
0.00370593 -0.0863683 0 
-0.000352843 3.59291e-05 0 
0.000651526 -0.00545465 0 
0.000744247 -0.00684174 0 
-4.91941e-11 -1.96284e-06 0 
-4.92319e-11 2.29032e-05 0 
2.08765e-05 -2.5229e-05 0 
-0.00266827 -0.0143737 0 
-0.00129016 -0.0171218 0 
-0.00273187 -0.0197645 0 
-4.87721e-11 8.33044e-05 0 
-4.88839e-11 -2.22207e-05 0 
-9.13874e-05 0.000122063 0 
4.9441e-11 -0.00019675 0 
4.93511e-11 0.000225513 0 
0.000334191 -0.00524539 0 
0.0256312 -0.0306068 0 
0.0273034 -0.0288354 0 
0.0324612 -0.0388939 0 
0.00443616 -0.00421967 0 
0.00422228 -0.00497227 0 
0.00297998 -0.00320271 0 
0.00146437 -0.00283889 0 
0.000742555 -0.00174038 0 
0.000933427 -0.00164207 0 
0.0547831 -0.0852023 0 
0.0648975 -0.088545 0 
0.0587141 -0.0925695 0 
0.00930292 -0.00915513 0 
0.00551757 -0.00588769 0 
0.00507146 -0.0042432 0 
0.0274609 -0.0285625 0 
0.0341896 -0.0380511 0 
0.0323226 -0.039134 0 
4.93869e-11 -0.000176486 0 
4.9242e-11 0.000248721 0 
0.000365474 -0.00402678 0 
0.013073 -0.0255239 0 
0.0097729 -0.0214465 0 
0.0120646 -0.0206273 0 
0.031289 -0.0522532 0 
0.0326777 -0.0504134 0 
0.0368427 -0.058193 0 
-0.00129066 -0.0171136 0 
-7.27544e-05 -0.0143601 0 
0.000389008 -0.0190674 0 
0.0139841 -0.0369051 0 
0.0102556 -0.0315474 0 
0.0137004 -0.0309972 0 
0.0819344 -0.0947405 0 
0.0909431 -0.103711 0 
0.0778226 -0.10556 0 
-0.00340214 -0.0114215 0 
-0.00257302 -0.0145375 0 
-0.00407202 -0.0164897 0 
0.0414507 -0.0440777 0 
0.043302 -0.0512054 0 
0.0374985 -0.047002 0 
0.0082182 -0.00791782 0 
0.00765544 -0.00908877 0 
0.00598764 -0.00639629 0 
0.0343802 -0.0384271 0 
0.0288247 -0.0264153 0 
0.0361977 -0.0376684 0 
-4.07299e-05 8.40407e-06 0 
8.44898e-05 -0.000362568 0 
7.99332e-05 -0.000474226 0 
0.00413514 -0.0972567 0 
0.00529678 -0.109806 0 
-0.00385314 -0.100556 0 
-0.000147802 -0.0144807 0 
0.00069148 -0.0119311 0 
0.0013169 -0.015947 0 
0.0391676 -0.0572021 0 
0.0362825 -0.0486068 0 
0.0407029 -0.0581411 0 
0.0435463 -0.0764017 0 
0.043517 -0.0736644 0 
0.0423914 -0.0810884 0 
0.0300968 -0.054604 0 
0.0248968 -0.0458402 0 
0.0313072 -0.0522646 0 
0.0423943 -0.0654079 0 
0.0434371 -0.0684919 0 
0.0435738 -0.0736189 0 
0.0102636 -0.0111021 0 
0.00927961 -0.0123747 0 
0.0076462 -0.00911389 0 
0.0575077 -0.0383938 0 
0.0596461 -0.0345969 0 
0.0654253 -0.044446 0 
-4.91231e-11 -1.65013e-05 0 
-4.91577e-11 3.66008e-05 0 
4.49704e-05 -0.000338403 0 
0.0475501 -0.0836143 0 
0.0436987 -0.105731 0 
0.0455076 -0.0913372 0 
0.0120508 -0.0206033 0 
0.00978922 -0.0214748 0 
0.00904808 -0.0171454 0 
0.0145518 -0.00508737 0 
0.0206403 -0.00933232 0 
0.0169655 -0.0081465 0 
0.0424274 -0.0654652 0 
0.040877 -0.0581701 0 
0.0433892 -0.0684091 0 
0.0153013 -0.00118849 0 
-9.53092e-05 0.000632249 0 
0.0170043 -0.00130306 0 
0.0156846 -0.0242605 0 
0.0120607 -0.0206065 0 
0.0140923 -0.0192952 0 
0.010823 -0.00955843 0 
0.008226 -0.0079193 0 
0.00838387 -0.00648982 0 
0.0436393 -0.070507 0 
0.0435512 -0.0736051 0 
0.0435058 -0.0764719 0 
0.00980795 -0.0214423 0 
0.00708979 -0.0176146 0 
0.0090313 -0.0171745 0 
-0.00115361 -0.000995153 0 
-0.00131924 -0.000868791 0 
-0.000551648 0.000207614 0 
0.0103029 -0.0315384 0 
0.00723958 -0.0263512 0 
0.0102152 -0.0262919 0 
0.0444718 -0.0254884 0 
0.0516402 -0.0294317 0 
0.05029 -0.0336516 0 
0.0410814 -0.0647008 0 
0.0368451 -0.0581867 0 
0.0411613 -0.0637391 0 
0.0273992 -0.0286086 0 
0.0203331 -0.0213554 0 
0.0210395 -0.0188626 0 
-0.00417829 -0.016674 0 
-0.00247854 -0.0143737 0 
-0.00293324 -0.0197646 0 
0.034369 -0.0491468 0 
0.028398 -0.0417036 0 
0.0303462 -0.0402541 0 
0.0343061 -0.0492557 0 
0.0304288 -0.0401111 0 
0.0360836 -0.0486058 0 
0.0399078 -0.107731 0 
0.0421774 -0.0951307 0 
0.0452144 -0.0917216 0 
0.0136933 -0.103846 0 
0.00559944 -0.109282 0 
0.0038737 -0.0977095 0 
0.0271285 -0.0285625 0 
0.0285802 -0.0268387 0 
0.0345973 -0.0380511 0 
0.0122551 -0.0148953 0 
0.0107802 -0.0162203 0 
0.00927753 -0.012388 0 
0.0312541 -0.0522646 0 
0.024976 -0.0458402 0 
0.0266435 -0.0436155 0 
0.0293193 -0.0246052 0 
0.0196797 -0.0117308 0 
0.0289838 -0.0213643 0 
0.0419988 -0.09544 0 
0.0455961 -0.0810456 0 
0.0454242 -0.0913582 0 
0.00801435 -0.0133656 0 
0.00904492 -0.0171426 0 
0.00653691 -0.0139327 0 
0.0342407 -0.0491424 0 
0.0361834 -0.0487786 0 
0.0392408 -0.0570752 0 
0.0301494 -0.054695 0 
0.0312813 -0.0522198 0 
0.0361376 -0.0601164 0 
0.0211649 -0.0178668 0 
0.0244543 -0.0233253 0 
0.0198546 -0.0203753 0 
0.0232028 -0.105631 0 
0.0161392 -0.113472 0 
0.0131269 -0.103861 0 
0.0414522 -0.0813681 0 
0.0387715 -0.0867278 0 
0.0370837 -0.0845211 0 
0.00126547 -0.0142206 0 
-0.000591206 2.60826e-06 0 
0.00113465 -0.012453 0 
-0.000330758 -0.00241177 0 
-5.43193e-05 -0.00123252 0 
-0.000200307 -0.00269488 0 
0.00740169 -0.0217475 0 
0.00508837 -0.0175859 0 
0.00710978 -0.0176633 0 
0.0357838 -0.0662192 0 
0.0290279 -0.0576613 0 
0.0359055 -0.0628649 0 
0.0224187 -0.0258857 0 
0.0179827 -0.0225222 0 
0.0198389 -0.0203622 0 
4.95556e-11 -0.000351615 0 
4.95296e-11 0.000310192 0 
0.000666882 -0.0113079 0 
0.0432428 -0.0856055 0 
0.0453458 -0.0810456 0 
0.0423005 -0.09544 0 
0.043381 -0.0858449 0 
0.0421263 -0.0951384 0 
0.0385296 -0.0960288 0 
0.0516388 -0.0294033 0 
0.0519312 -0.0251044 0 
0.0596984 -0.0343942 0 
0.0413416 -0.0811765 0 
0.0422202 -0.0811341 0 
0.0389056 -0.08696 0 
0.0287188 -0.0264902 0 
0.0209164 -0.0186499 0 
0.0208646 -0.0158129 0 
0.000440328 -0.00037511 0 
0.000539129 -0.000523957 0 
0.000158603 -0.00017616 0 
0.0517809 -0.0294031 0 
0.0595286 -0.0343944 0 
0.0576142 -0.0385775 0 
0.0358807 -0.0663871 0 
0.0358351 -0.0627431 0 
0.042069 -0.0698173 0 
0.0032747 -0.0305154 0 
0.000146255 -0.0289079 0 
0.00165156 -0.024489 0 
0.0295809 -0.0241521 0 
0.0207011 -0.0155088 0 
0.0194432 -0.0121404 0 
-0.000127993 -0.000979747 0 
-7.87042e-05 -0.0012468 0 
-0.000308546 -0.00239877 0 
0.0107789 -0.0162318 0 
0.0120739 -0.0206033 0 
0.00902259 -0.0171454 0 
0.0285376 -0.0268041 0 
0.0210401 -0.0155088 0 
0.0290927 -0.0241521 0 
0.0541265 -0.0719828 0 
0.0567106 -0.068978 0 
0.058215 -0.0723819 0 
-0.000471719 -5.03005e-11 0 
0.000283837 -5.07652e-11 0 
0.0174023 -0.000634548 0 
0.0446127 -0.0734953 0 
0.0454348 -0.0808915 0 
0.0431535 -0.0857602 0 
0.0375205 -0.0470332 0 
0.038856 -0.0540249 0 
0.0332294 -0.0497871 0 
-0.000582277 -3.64181e-05 0 
0.00132943 -0.0116666 0 
0.00101983 -0.0118476 0 
0.0319436 -0.102939 0 
0.026443 -0.112354 0 
0.0226233 -0.105625 0 
0.0375385 -0.047002 0 
0.0432436 -0.0512054 0 
0.0388448 -0.0540444 0 
0.0081294 -0.000739641 0 
-9.80395e-06 0.00034755 0 
0.00867485 -0.000686918 0 
0.0145356 -0.0582053 0 
0.0235944 -0.0774632 0 
0.0126348 -0.0589413 0 
0.00512228 -0.0176446 0 
0.00501373 -0.0140992 0 
0.00707981 -0.0176114 0 
0.0102766 -0.0315838 0 
0.010241 -0.0262473 0 
0.0136805 -0.0309629 0 
0.0387284 -0.0956844 0 
0.0419014 -0.0955279 0 
0.0357375 -0.106517 0 
0.03896 -0.0960856 0 
0.0354637 -0.106043 0 
0.0314026 -0.10291 0 
0.0142677 -0.0157097 0 
0.00935627 -0.00913263 0 
0.0145801 -0.0132389 0 
0.0134145 -0.103363 0 
0.0158128 -0.114037 0 
0.00591599 -0.10983 0 
0.0131423 -0.103846 0 
0.00441739 -0.0977095 0 
0.0118684 -0.0932215 0 
0.0239807 -0.0692559 0 
0.0241881 -0.0768874 0 
0.0180956 -0.0721771 0 
0.0124818 -0.133499 0 
0.0164509 -0.143501 0 
0.00545684 -0.14254 0 
0.0652678 -0.0447176 0 
0.0597898 -0.0343493 0 
0.0680608 -0.0407932 0 
0.0127332 -0.0577854 0 
0.0182033 -0.0641435 0 
0.0120767 -0.0657017 0 
0.00441744 -0.00417822 0 
0.00295783 -0.00256144 0 
0.00437938 -0.00332857 0 
0.0116612 -0.0936173 0 
0.00412318 -0.0863683 0 
0.0113219 -0.0834647 0 
0.00526851 -0.14254 0 
0.0166298 -0.143501 0 
0.00981757 -0.15286 0 
-0.000111006 -4.97506e-11 0 
9.81175e-05 -4.98135e-11 0 
0.00365536 -0.000171242 0 
0.0434699 -0.0685157 0 
0.0428178 -0.0606856 0 
0.0445176 -0.0734016 0 
0.0244267 -0.131502 0 
0.0166385 -0.143175 0 
0.0122912 -0.13383 0 
0.0111785 -0.0837589 0 
0.0046877 -0.076026 0 
0.0114867 -0.0742712 0 
0.00901289 -0.0171426 0 
0.00711161 -0.0176524 0 
0.00657102 -0.0139327 0 
-0.000207494 -0.00272175 0 
-2.45366e-05 -0.00133675 0 
-4.97418e-05 -0.00321191 0 
-0.000170161 -4.98884e-11 0 
0.000210609 -4.99596e-11 0 
0.00789189 -0.000365127 0 
-0.000246817 -4.9973e-11 0 
0.000215799 -5.00478e-11 0 
0.0104661 -0.000400637 0 
0.000267785 -0.0085392 0 
0.000568609 -0.0119327 0 
-0.000401353 -0.0104965 0 
0.00252762 -0.0205826 0 
0.00492456 -0.0215572 0 
0.00439827 -0.0257719 0 
0.0480945 -0.0836143 0 
0.0457041 -0.0989548 0 
0.0431499 -0.105731 0 
0.0430568 -0.0858449 0 
0.0388898 -0.0960288 0 
0.0408618 -0.0873282 0 
0.031262 -0.0522532 0 
0.0368471 -0.058193 0 
0.0361701 -0.0600599 0 
0.0469155 -0.0724195 0 
0.0462165 -0.0588593 0 
0.047746 -0.0833304 0 
0.0130601 -0.0255461 0 
0.0120766 -0.0206065 0 
0.0156707 -0.0242605 0 
0.0252169 -0.0106536 0 
0.0263859 -0.0139118 0 
0.0206814 -0.00931416 0 
0.0353418 -0.0297234 0 
0.0414306 -0.0333266 0 
0.038782 -0.036798 0 
0.0316648 -0.102456 0 
0.0351645 -0.106561 0 
0.0267616 -0.112906 0 
0.0478405 -0.0833304 0 
0.0459331 -0.0588593 0 
0.0476449 -0.069443 0 
0.0446083 -0.0734876 0 
0.0449144 -0.0651401 0 
0.045447 -0.0809127 0 
0.0435314 -0.0684091 0 
0.040718 -0.0581701 0 
0.0427211 -0.060853 0 
0.0242085 -0.131124 0 
0.0274176 -0.137042 0 
0.0168408 -0.143526 0 
0.0180606 -0.0641611 0 
0.0240706 -0.0694116 0 
0.0179882 -0.0719911 0 
0.0229115 -0.105126 0 
0.026116 -0.11292 0 
0.0164685 -0.114042 0 
0.0352437 -0.122135 0 
0.0276839 -0.136581 0 
0.0239807 -0.131519 0 
-0.000199832 -4.99022e-11 0 
0.000192618 -4.99866e-11 0 
0.00886128 -0.000345948 0 
-0.000406809 -0.00726138 0 
-0.0010373 -0.00855735 0 
-0.000821786 -0.00572375 0 
0.0313705 -0.102939 0 
0.0231991 -0.105625 0 
0.0285924 -0.0972054 0 
-0.00145718 -0.00668284 0 
-0.00229651 -0.00746977 0 
-0.00154617 -0.00448825 0 
0.00515798 -0.0175828 0 
0.00337099 -0.0138218 0 
0.00498169 -0.0141547 0 
0.0375338 -0.0470071 0 
0.0318251 -0.042764 0 
0.0355439 -0.0399416 0 
0.0446579 -0.0734016 0 
0.0426343 -0.0606856 0 
0.0448272 -0.0652911 0 
0.0438143 -0.105817 0 
0.0379219 -0.121921 0 
0.0346395 -0.122133 0 
-0.000374752 -5.01592e-11 0 
0.00026972 -5.03572e-11 0 
0.0149374 -0.00055813 0 
0.0259159 -0.0204442 0 
0.0244696 -0.0232988 0 
0.0211483 -0.0178956 0 
0.00243818 -0.00238851 0 
0.000994364 -0.000805085 0 
0.000618586 -0.000368357 0 
0.0183754 -0.0564229 0 
0.0184563 -0.0491887 0 
0.0236789 -0.0546112 0 
0.0257969 -0.0306369 0 
0.0192061 -0.0237617 0 
0.0204158 -0.0214915 0 
0.0237937 -0.0619527 0 
0.0184138 -0.0564894 0 
0.0236505 -0.0545619 0 
0.0435773 -0.0736128 0 
0.0434517 -0.0684666 0 
0.0435458 -0.0785959 0 
0.0436012 -0.070507 0 
0.0435651 -0.0764719 0 
0.0447342 -0.0734582 0 
0.0478856 -0.0832524 0 
0.0475821 -0.0695518 0 
0.0460652 -0.0995803 0 
0.0101859 -0.0262411 0 
0.00727205 -0.0264074 0 
0.00740225 -0.0217523 0 
0.0595215 -0.0343484 0 
0.06037 -0.0298874 0 
0.0683996 -0.0407943 0 
0.0424311 -0.0654079 0 
0.0435592 -0.0736189 0 
0.0436297 -0.0704903 0 
0.0368353 -0.0581867 0 
0.0378392 -0.0571962 0 
0.0411847 -0.0637391 0 
0.0455014 -0.0809127 0 
0.044782 -0.0651401 0 
0.046791 -0.0724033 0 
4.94431e-11 -0.00025597 0 
4.9441e-11 0.00022169 0 
0.000386503 -0.00703008 0 
0.0355178 -0.0755698 0 
0.0350408 -0.0699372 0 
0.0402076 -0.0722532 0 
0.0316016 -0.0852866 0 
0.0330812 -0.0905339 0 
0.0266031 -0.0912597 0 
0.034941 -0.121611 0 
0.0375207 -0.122616 0 
0.0279907 -0.137112 0 
0.0944764 -0.133752 0 
0.100989 -0.114571 0 
0.112822 -0.129802 0 
0.0414186 -0.0440222 0 
0.0375176 -0.0470351 0 
0.0355638 -0.0399072 0 
0.0102188 -0.0262824 0 
0.00980925 -0.0214465 0 
0.0130391 -0.0255239 0 
0.0434571 -0.105199 0 
0.0452586 -0.0997265 0 
0.0383428 -0.12265 0 
0.0468949 -0.0723836 0 
0.04773 -0.0833026 0 
0.0453686 -0.091578 0 
0.0403086 -0.0765051 0 
0.0400927 -0.0722466 0 
0.0443015 -0.0734737 0 
0.042409 -0.0654462 0 
0.0436359 -0.0704795 0 
0.041611 -0.0639202 0 
0.00434251 -0.0258721 0 
0.00340302 -0.0305154 0 
0.00152071 -0.024489 0 
-0.000264393 0.000920854 0 
0.021212 -0.00228063 0 
0.0178508 -0.00138784 0 
0.0239867 -0.0692751 0 
0.0237736 -0.0619629 0 
0.0296036 -0.0664894 0 
0.01583 -0.114042 0 
0.0267607 -0.11292 0 
0.0199342 -0.122947 0 
-0.00124028 -0.00269497 0 
-0.0017384 -0.00275178 0 
-0.000755953 -0.000841285 0 
0.00113414 -0.00968969 0 
0.00187235 -0.013093 0 
0.000628709 -0.0120307 0 
0.0299248 -0.07316 0 
0.0294673 -0.0664937 0 
0.0351759 -0.0699389 0 
0.0214116 -0.0341167 0 
0.0246398 -0.0319566 0 
0.0264143 -0.0384615 0 
4.94437e-11 -0.000404423 0 
4.95496e-11 0.00035239 0 
0.000639589 -0.0145908 0 
0.0422694 -0.0810884 0 
0.0436071 -0.0736644 0 
0.0435106 -0.0785349 0 
0.0388181 -0.0367576 0 
0.0449216 -0.0408188 0 
0.0414455 -0.0440739 0 
0.0747731 -0.0878545 0 
0.0747218 -0.0790313 0 
0.0823086 -0.0833985 0 
0.0357534 -0.0628649 0 
0.0292102 -0.0576613 0 
0.0301054 -0.0545965 0 
0.0214154 -0.0341167 0 
0.0264078 -0.0384615 0 
0.0225344 -0.0406126 0 
0.0353254 -0.0297517 0 
0.0388001 -0.0367668 0 
0.0328893 -0.0329744 0 
-0.000810192 -5.08255e-11 0 
0.000485974 -5.14056e-11 0 
0.0219156 -0.00109342 0 
0.0414879 -0.0440132 0 
0.0473804 -0.0483061 0 
0.0432689 -0.0512628 0 
0.0455103 -0.0808971 0 
0.0468024 -0.0723836 0 
0.0455511 -0.091578 0 
0.035221 -0.106517 0 
0.0424067 -0.0955279 0 
0.0396275 -0.107246 0 
0.0540724 -0.0718892 0 
0.0582851 -0.0725034 0 
0.0543689 -0.0736312 0 
0.0470606 -0.0721682 0 
0.0430691 -0.0531963 0 
0.046005 -0.0592255 0 
0.0458847 -0.0744737 0 
0.0446951 -0.073512 0 
0.0436586 -0.0772308 0 
0.00344621 -0.0138205 0 
0.00211085 -0.0105036 0 
0.00333954 -0.0110056 0 
0.0142418 -0.0157546 0 
0.00920494 -0.0111142 0 
0.00939108 -0.00907235 0 
0.0489552 -0.0750257 0 
0.0469392 -0.0717489 0 
0.0526124 -0.0748064 0 
0.0140935 -0.0192834 0 
0.0122471 -0.0148969 0 
0.0157723 -0.017564 0 
0.0444142 -0.0254887 0 
0.044337 -0.0212979 0 
0.0517193 -0.0294314 0 
0.0378048 -0.0571489 0 
0.0391604 -0.0571801 0 
0.0416695 -0.0639051 0 
0.0283017 -0.0608387 0 
0.0358453 -0.0707713 0 
0.0277446 -0.0649368 0 
0.0409288 -0.0581411 0 
0.0360705 -0.0486068 0 
0.0383129 -0.0491665 0 
4.95568e-11 -0.000338725 0 
4.9442e-11 0.00029976 0 
0.000552944 -0.0121172 0 
-4.90999e-11 -2.01571e-05 0 
-4.91297e-11 3.30794e-05 0 
4.12516e-05 -0.000497661 0 
0.0355989 -0.0757103 0 
0.0401482 -0.0721503 0 
0.0402385 -0.0766265 0 
0.0474956 -0.0482945 0 
0.053189 -0.0528765 0 
0.0488429 -0.0555161 0 
-0.0014739 -0.00457538 0 
-0.00218134 -0.00499104 0 
-0.00130116 -0.00263802 0 
0.00322615 -0.0170319 0 
0.00487431 -0.0214702 0 
0.00258295 -0.0206784 0 
0.00218661 -0.0105041 0 
0.00122275 -0.00764415 0 
0.00211117 -0.00823938 0 
0.0516875 -0.0294853 0 
0.0443513 -0.0212736 0 
0.0518754 -0.0250103 0 
0.0240715 -0.069422 0 
0.0295367 -0.0663735 0 
0.0298373 -0.0733117 0 
0.0140887 -0.019289 0 
0.0120664 -0.0206163 0 
0.010785 -0.0162214 0 
0.00214885 -0.0105694 0 
0.00214449 -0.00818168 0 
0.00330539 -0.0109465 0 
-4.89459e-11 8.37984e-05 0 
-4.90017e-11 -2.64819e-05 0 
-0.000109475 -0.000796587 0 
0.0300138 -0.0733141 0 
0.0351079 -0.0698211 0 
0.0354336 -0.0757155 0 
0.0052846 -0.10983 0 
0.0164402 -0.114037 0 
0.00845521 -0.121595 0 
0.0345793 -0.122135 0 
0.0245475 -0.131519 0 
0.0307029 -0.118139 0 
0.0681107 -0.082728 0 
0.0600928 -0.082572 0 
0.0626242 -0.0784994 0 
0.0304177 -0.0401267 0 
0.0239406 -0.0326353 0 
0.0257399 -0.0307716 0 
-0.00330738 -0.0115856 0 
-0.00198173 -0.00999265 0 
-0.00266465 -0.0143788 0 
0.0193211 -0.0119288 0 
0.0208001 -0.0156802 0 
0.0121754 -0.007055 0 
0.00990869 -0.0373448 0 
0.00587188 -0.037069 0 
0.00681057 -0.0314271 0 
0.0387586 -0.0367576 0 
0.0414619 -0.0333807 0 
0.0450027 -0.0408188 0 
0.0473726 -0.0689712 0 
0.0461914 -0.0593067 0 
0.0414706 -0.0394198 0 
0.0596223 -0.0345229 0 
0.0519796 -0.0250227 0 
0.0602644 -0.0297045 0 
0.0071963 -0.129891 0 
0.00422123 -0.0983324 0 
-0.0164961 -0.111535 0 
0.0466553 -0.0721682 0 
0.0448961 -0.0653377 0 
0.0435891 -0.0531963 0 
0.0244769 -0.0233253 0 
0.0224258 -0.0258735 0 
0.0198314 -0.0203753 0 
-4.89853e-11 5.52858e-05 0 
-4.90333e-11 -2.48709e-05 0 
-6.94178e-05 -0.000995463 0 
0.00010394 -0.0415692 0 
-0.00183048 -0.0335245 0 
0.00189789 -0.0358716 0 
0.0182158 -0.0641611 0 
0.0238349 -0.0618569 0 
0.0239079 -0.0694116 0 
0.0238848 -0.069422 0 
0.0300242 -0.0733117 0 
0.0243057 -0.0766837 0 
0.066809 -0.0246471 0 
0.0828302 -0.0407814 0 
0.0696599 -0.0307745 0 
0.0388311 -0.0540207 0 
0.0432734 -0.051257 0 
0.0443294 -0.0580168 0 
0.0970893 -0.057035 0 
0.0819829 -0.0343473 0 
0.098968 -0.0511792 0 
0.00802413 -0.0133487 0 
0.0107716 -0.0162192 0 
0.00903293 -0.0171633 0 
0.0106997 -0.000805212 0 
-2.62534e-05 0.000419246 0 
0.0117642 -0.000866333 0 
0.0105773 -0.00601397 0 
0.00819368 -0.00505662 0 
0.00741086 -0.00348829 0 
0.0446686 -0.0650163 0 
0.0427556 -0.0608957 0 
0.0409143 -0.0502724 0 
-0.000202461 -0.000839296 0 
7.88756e-05 9.74691e-06 0 
-0.000122175 -0.000965004 0 
0.00907094 -0.15806 0 
0.00738694 -0.147998 0 
0.000644223 -0.151571 0 
0.00879481 -0.122183 0 
0.0161365 -0.113511 0 
0.0195918 -0.12354 0 
0.0432312 -0.0511976 0 
0.0474347 -0.0484 0 
0.0488989 -0.0554191 0 
0.0018289 -0.0357521 0 
-0.00175163 -0.0336611 0 
0.000220032 -0.0287834 0 
0.0414104 -0.0440132 0 
0.0449693 -0.0409015 0 
0.047482 -0.0483061 0 
0.0010831 -0.00977808 0 
0.000685285 -0.0119327 0 
0.000156603 -0.0085392 0 
-0.0137239 -0.0600346 0 
-0.0184965 -0.0534207 0 
-0.0142987 -0.0458112 0 
-4.9022e-11 3.34725e-05 0 
-4.90435e-11 -1.38072e-05 0 
-4.09454e-05 -0.00122876 0 
0.0027174 -0.00186611 0 
0.00403058 -0.00238917 0 
0.00435179 -0.00327204 0 
0.0741398 -0.219714 0 
0.101611 -0.269432 0 
0.0566115 -0.24337 0 
0.0826345 -0.0415105 0 
0.0929239 -0.0589857 0 
0.0804666 -0.0456268 0 
-0.000182351 -0.00270562 0 
-7.59841e-05 -0.00121956 0 
-3.92755e-05 -0.00134621 0 
0.043875 -0.0760804 0 
0.0442201 -0.0734644 0 
0.0471006 -0.0737073 0 
0.025873 -0.0204442 0 
0.0211907 -0.0178956 0 
0.0218406 -0.0151149 0 
0.00668842 -0.13077 0 
-0.015808 -0.110343 0 
-0.00708311 -0.136086 0 
0.043611 -0.0704795 0 
0.0438885 -0.0689026 0 
0.0416449 -0.0639202 0 
0.00839044 -0.148105 0 
0.00602355 -0.129619 0 
-0.00666366 -0.136812 0 
0.085498 -0.117807 0 
0.0680675 -0.113159 0 
0.0777224 -0.105733 0 
-0.0122371 -0.101421 0 
-0.00415976 -0.100084 0 
-0.00305413 -0.114652 0 
0.00207827 -0.00818238 0 
0.00125851 -0.00770609 0 
0.00125569 -0.00580504 0 
0.00021219 -0.00863549 0 
-0.000339298 -0.010389 0 
-0.000466007 -0.00716335 0 
0.00410101 -0.00282127 0 
0.00506714 -0.00421504 0 
0.0017502 -0.00153811 0 
0.0470594 -0.0737073 0 
0.0442772 -0.0734644 0 
0.0481862 -0.0711764 0 
0.039214 -0.0570873 0 
0.0423684 -0.0653758 0 
0.0416358 -0.0639633 0 
0.00581724 -0.0369988 0 
0.00190757 -0.035859 0 
0.00339667 -0.0305267 0 
0.00025189 -0.150891 0 
0.00791951 -0.148921 0 
-0.00613251 -0.135892 0 
0.0209554 -0.018717 0 
0.0203913 -0.0214562 0 
0.014604 -0.0131943 0 
0.00857846 -0.148143 0 
0.0082381 -0.158002 0 
0.0166329 -0.152778 0 
0.0425899 -0.0606257 0 
0.0408151 -0.0583382 0 
0.0384641 -0.0489046 0 
-4.90383e-11 1.91666e-05 0 
-4.90507e-11 -5.81909e-06 0 
-2.1257e-05 -0.00133648 0 
5.05268e-05 4.30077e-06 0 
-7.87042e-05 -0.00120696 0 
-0.000127993 -0.00102928 0 
0.0221613 -0.00289035 0 
0.0102439 -0.000791333 0 
0.0122968 -0.000882552 0 
0.0100073 -0.0389554 0 
0.00414099 -0.100512 0 
0.0403123 -0.0646531 0 
0.103149 -0.154979 0 
0.112743 -0.129501 0 
0.125184 -0.150548 0 
0.0583823 -0.0723819 0 
0.0565583 -0.068978 0 
0.0614444 -0.0691004 0 
0.0353157 -0.0297234 0 
0.0370372 -0.0261926 0 
0.041473 -0.0333266 0 
0.0429115 -0.0606257 0 
0.0381471 -0.0489046 0 
0.0407026 -0.050639 0 
-3.60132e-05 -0.0013304 0 
7.91024e-06 -0.00135245 0 
-4.43693e-05 -0.00321488 0 
0.0246441 -0.031949 0 
0.0298864 -0.0359008 0 
0.0264124 -0.0384649 0 
0.0443025 -0.0580634 0 
0.0433077 -0.0511976 0 
0.0487984 -0.0554191 0 
0.0433219 -0.053659 0 
0.0450816 -0.0650163 0 
0.0404797 -0.0502724 0 
0.0543162 -0.0737224 0 
0.0583498 -0.0723914 0 
0.0580836 -0.0755146 0 
-0.00385817 -0.00572389 0 
-0.00299688 -0.00536838 0 
-0.00473698 -0.00909938 0 
0.00994455 -0.0373877 0 
0.0102972 -0.0315474 0 
0.0139477 -0.0369051 0 
0.0470711 -0.073687 0 
0.0481841 -0.0711801 0 
0.0504285 -0.0723065 0 
-0.020933 -0.0429114 0 
-0.017555 -0.0274688 0 
-0.0170874 -0.0381155 0 
-4.90436e-11 2.49371e-06 0 
-4.90555e-11 7.34591e-06 0 
4.10058e-06 -0.00135895 0 
-7.6439e-05 -0.00124925 0 
2.84174e-05 2.59963e-06 0 
-3.89683e-05 -0.00132615 0 
0.00733104 -0.0217475 0 
0.00492738 -0.0215463 0 
0.0051606 -0.0175859 0 
-0.00645945 -0.00196393 0 
0.0116815 -0.115433 0 
0.0164484 -0.153868 0 
0.00460732 -0.0431533 0 
0.00185553 -0.0357689 0 
0.00586295 -0.037078 0 
0.0207531 -0.0156199 0 
0.0210007 -0.018796 0 
0.0140147 -0.0103008 0 
0.0059478 -0.0985667 0 
0.00641159 -0.129892 0 
0.0297653 -0.114631 0 
0.0400989 -0.0722532 0 
0.035161 -0.0699372 0 
0.039985 -0.0668189 0 
0.0504105 -0.0723034 0 
0.0541246 -0.0719529 0 
0.0511075 -0.0728097 0 
-4.90535e-11 -1.57216e-05 0 
-4.90717e-11 2.91144e-05 0 
4.02604e-05 -0.00126172 0 
0.0378683 -0.0223376 0 
0.0375563 -0.0182499 0 
0.0444197 -0.0255097 0 
0.0294834 -0.0664894 0 
0.0238936 -0.0619629 0 
0.0291622 -0.0593853 0 
0.0504346 -0.0723451 0 
0.0522984 -0.0697074 0 
0.0540862 -0.0718862 0 
0.0631951 -0.073746 0 
0.0613194 -0.0689168 0 
0.0667801 -0.0697071 0 
0.0183457 -0.0564744 0 
0.0134565 -0.0503058 0 
0.0184751 -0.049156 0 
0.0300356 -0.05471 0 
0.0234086 -0.0482915 0 
0.0249422 -0.0457616 0 
-0.0108336 -0.117035 0 
-0.0128589 -0.101421 0 
-0.00246851 -0.114652 0 
0.000140365 -0.0289214 0 
-0.00166372 -0.0335088 0 
-0.00272651 -0.0261751 0 
-0.00645572 4.82611e-11 0 
0.00815191 1.97076e-11 0 
0.0227379 -0.0126506 0 
0.0402379 -0.0766152 0 
0.0439439 -0.0761648 0 
0.0406605 -0.0795995 0 
0.0181471 -0.0640421 0 
0.0183234 -0.0564894 0 
0.0238902 -0.0619527 0 
0.0102405 -0.0315384 0 
0.00677718 -0.031486 0 
0.00730619 -0.0263512 0 
0.00196932 -0.0357521 0 
7.44032e-05 -0.0287834 0 
0.00333895 -0.0306267 0 
0.0113388 -0.0834812 0 
0.011355 -0.0744994 0 
0.0182788 -0.0804707 0 
0.0266561 -0.0436373 0 
0.0249358 -0.0457706 0 
0.0202237 -0.0367626 0 
8.47465e-05 -0.000695423 0 
-4.14922e-05 8.25265e-06 0 
8.05003e-05 -0.000524534 0 
-4.90623e-11 -2.34783e-05 0 
-4.9077e-11 3.8813e-05 0 
6.25554e-05 -0.00118678 0 
0.00996934 -0.0373448 0 
0.00674316 -0.0314271 0 
0.0102714 -0.031592 0 
0.00122432 -0.00585937 0 
0.00129295 -0.00764643 0 
0.000628491 -0.00522319 0 
0.00264225 -0.0205826 0 
0.00428469 -0.0257719 0 
0.00158461 -0.0245996 0 
0.043614 -0.0704848 0 
0.044715 -0.0734915 0 
0.0438905 -0.0689061 0 
0.00558822 -0.0149325 0 
0.01031 -0.0212935 0 
0.00845268 -0.0222349 0 
-4.90517e-11 -4.9459e-06 0 
-4.90599e-11 1.62243e-05 0 
1.83505e-05 -0.00134531 0 
-4.90847e-11 -2.30463e-05 0 
-4.9103e-11 3.125e-05 0 
4.32525e-05 -0.000718421 0 
0.0442231 -0.0734737 0 
0.0401863 -0.0722466 0 
0.0445935 -0.0693641 0 
0.0102533 -0.0110711 0 
0.00818092 -0.0079193 0 
0.010874 -0.00955843 0 
-0.000977646 4.59426e-11 0 
-0.00103539 4.33374e-11 0 
0.0080823 5.00045e-05 0 
0.00672529 -0.0314164 0 
0.00334547 -0.0306151 0 
0.004396 -0.0257794 0 
0.0473672 -0.0482945 0 
0.051293 -0.0454056 0 
0.0533484 -0.0528765 0 
0.00515964 -0.00439592 0 
0.00544144 -0.00575582 0 
0.00243525 -0.00239695 0 
0.0110009 -0.00776202 0 
0.00810687 -0.00505662 0 
0.0106781 -0.00601397 0 
0.0076649 -0.129772 0 
0.00752234 -0.148104 0 
0.0223436 -0.138815 0 
0.0677673 -0.113374 0 
0.0543519 -0.113986 0 
0.0516911 -0.102062 0 
0.0444232 -0.0255037 0 
0.0375424 -0.018274 0 
0.0443299 -0.021286 0 
0.0108523 -0.00950756 0 
0.00835395 -0.00654163 0 
0.0110338 -0.00783192 0 
0.00065579 -0.0052859 0 
0.000590144 -0.00682144 0 
0.000196147 -0.00443278 0 
0.0403721 -0.0766152 0 
0.0442581 -0.0733986 0 
0.0438263 -0.0761648 0 
0.03567 -0.0664164 0 
0.0284332 -0.0610982 0 
0.0291268 -0.05749 0 
0.00507857 -0.0175828 0 
0.00317516 -0.0171122 0 
0.00345055 -0.0138218 0 
0.0292006 -0.0594517 0 
0.0238407 -0.0618714 0 
0.023617 -0.0546199 0 
0.00119439 -0.00580754 0 
0.00066267 -0.00528239 0 
0.000654586 -0.00383358 0 
-0.000519187 4.67327e-11 0 
2.32278e-05 4.58792e-11 0 
0.00366935 -0.000469745 0 
0.0434572 -0.0295633 0 
0.0502358 -0.0335743 0 
0.0479653 -0.0374365 0 
0.0198851 -0.0280605 0 
0.0246353 -0.0319489 0 
0.0214126 -0.0341185 0 
0.00925575 -0.0436895 0 
0.00584032 -0.0370143 0 
0.00993714 -0.0373941 0 
0.0302726 -0.0401267 0 
0.0284388 -0.0417743 0 
0.024045 -0.0326353 0 
-0.0038228 -0.087597 0 
-0.0119678 -0.0866437 0 
-0.0101892 -0.0746635 0 
0.00726787 -0.0264176 0 
0.00681737 -0.0314164 0 
0.00429976 -0.0257794 0 
0.00336362 -0.0138205 0 
0.00192587 -0.0131764 0 
0.00219232 -0.0105036 0 
0.00601681 -0.00639484 0 
0.00552289 -0.00726202 0 
0.00421018 -0.00500001 0 
0.00558512 -0.109309 0 
0.00811988 -0.122175 0 
-0.00240743 -0.114677 0 
0.0824282 -0.0946329 0 
0.0820231 -0.0829586 0 
0.0908162 -0.0884449 0 
0.00210599 -0.0105041 0 
0.00108236 -0.00977074 0 
0.00130159 -0.00764415 0 
0.0515209 -0.0794186 0 
0.0432635 -0.073878 0 
0.0489793 -0.0750592 0 
0.047428 -0.0483998 0 
0.0450245 -0.0408059 0 
0.0512152 -0.0452709 0 
0.0914138 -0.103242 0 
0.0904266 -0.0878404 0 
0.100564 -0.0946863 0 
0.00340746 -0.0138965 0 
0.0032229 -0.0170295 0 
0.0018778 -0.0130932 0 
0.00214903 -0.0105786 0 
0.00197404 -0.013093 0 
0.00103557 -0.00968969 0 
0.0121547 -0.0423356 0 
0.018394 -0.0559721 0 
0.0106851 -0.043486 0 
0.0256621 -0.0306369 0 
0.0239866 -0.032715 0 
0.0192931 -0.0237617 0 
0.00828682 -0.0127657 0 
0.0133586 -0.0179412 0 
0.0119447 -0.0197458 0 
0.0122525 -0.0148769 0 
0.0102405 -0.0111036 0 
0.0133673 -0.0132344 0 
-0.0104858 -0.117637 0 
-0.00275371 -0.114158 0 
0.000203521 -0.129193 0 
0.00736804 -0.0218116 0 
0.00730869 -0.026344 0 
0.00488622 -0.0214751 0 
0.0701237 -0.0307766 0 
0.0822123 -0.0407787 0 
0.0808258 -0.0462494 0 
0.0350518 -0.0699389 0 
0.0295974 -0.0664937 0 
0.0347202 -0.0634926 0 
0.0069935 -0.0140151 0 
0.0119721 -0.0198038 0 
0.01027 -0.0212211 0 
-0.000207647 4.76654e-11 0 
-3.74916e-05 4.7257e-11 0 
0.000578001 -0.000147359 0 
0.00512048 -0.0176553 0 
0.00497135 -0.0214702 0 
0.0031288 -0.0170319 0 
0.0157525 -0.017564 0 
0.012264 -0.0148969 0 
0.0133528 -0.0132093 0 
0.029649 -0.0264236 0 
0.0311939 -0.0231659 0 
0.0353206 -0.0297317 0 
0.0210463 -0.018717 0 
0.0145656 -0.0131943 0 
0.0139902 -0.0103432 0 
0.0289357 -0.113194 0 
0.00700369 -0.130917 0 
0.0228033 -0.138018 0 
0.0627558 -0.0784994 0 
0.0599828 -0.082572 0 
0.0559586 -0.0781342 0 
0.0717917 -0.223515 0 
0.113459 -0.219671 0 
0.105564 -0.263033 0 
0.000627841 -0.00388329 0 
0.000695745 -0.00522092 0 
0.000201262 -0.00292904 0 
0.00497199 -0.0214751 0 
0.00722537 -0.026344 0 
0.00434685 -0.025861 0 
0.0119732 -0.019795 0 
0.0133451 -0.0179177 0 
0.0177027 -0.0259643 0 
0.00713528 -0.0176114 0 
0.00495694 -0.0140992 0 
0.00655019 -0.0139688 0 
0.0437577 -0.0530958 0 
0.0361397 -0.0376328 0 
0.038648 -0.0387669 0 
-0.000110052 -4.97136e-11 0 
8.91037e-05 -4.97702e-11 0 
0.00301849 -0.000170909 0 
0.0284654 -0.0611222 0 
0.0275378 -0.0645786 0 
0.0200825 -0.0535154 0 
-0.000314073 4.72963e-11 0 
-3.21068e-05 4.67024e-11 0 
0.00169786 -0.00024419 0 
0.0580855 -0.0755368 0 
0.0626958 -0.0786034 0 
0.0560013 -0.0780602 0 
7.02049e-06 -1.65993e-06 0 
7.86104e-06 -0.00136118 0 
-3.6097e-05 -0.00134527 0 
0.0121875 -0.00703413 0 
0.0208349 -0.0156199 0 
0.0139919 -0.0103008 0 
0.000689842 -0.000489051 0 
0.000934734 -0.000704083 0 
9.06047e-06 0.000226159 0 
0.000160253 -0.00854369 0 
-0.000411328 -0.00726 0 
7.08611e-05 -0.00573927 0 
0.0532634 -0.0530237 0 
0.05138 -0.045255 0 
0.0574412 -0.0502941 0 
0.00943887 -0.00915513 0 
0.00915806 -0.011033 0 
0.005384 -0.00588769 0 
0.0924496 -0.0599659 0 
0.0954721 -0.0754799 0 
0.0861168 -0.0606558 0 
0.0284182 -0.0417166 0 
0.0266368 -0.0436239 0 
0.0221583 -0.0346888 0 
0.0274123 -0.0293686 0 
0.0224327 -0.0258855 0 
0.0244707 -0.0233145 0 
-0.0105632 -0.016195 0 
-0.0109984 -0.0234241 0 
-0.01367 -0.0252721 0 
0.0203618 -0.0213979 0 
0.0192362 -0.0238139 0 
0.0142971 -0.0157255 0 
6.07569e-06 -0.00135778 0 
-1.05873e-05 1.08203e-06 0 
3.60178e-05 -0.00135537 0 
0.0565759 -0.0689778 0 
0.0522645 -0.0697904 0 
0.0535945 -0.065439 0 
0.0666986 -0.0244605 0 
0.0697947 -0.0310021 0 
0.0551985 -0.0182574 0 
0.00448298 -0.101104 0 
0.0301794 -0.113914 0 
0.0420704 -0.0676982 0 
0.0504569 -0.0723065 0 
0.0481704 -0.0711801 0 
0.0522662 -0.0697632 0 
-0.020708 -0.0994591 0 
-0.0105444 -0.117626 0 
-0.0174562 -0.117344 0 
0.0142964 -0.0422278 0 
0.0079511 -0.0315009 0 
0.0099314 -0.0316459 0 
-0.000545371 0.000209357 0 
-0.000485548 0.000321926 0 
-0.000127403 0.000722505 0 
0.00927861 -0.0123862 0 
0.0107809 -0.0162192 0 
0.00801217 -0.0133487 0 
0.000506178 -0.00682144 0 
2.82516e-05 -0.00582231 0 
0.000280779 -0.00443278 0 
0.0458942 -0.0745195 0 
0.0483157 -0.0730724 0 
0.0460904 -0.0719651 0 
0.0301709 -0.05471 0 
0.0291155 -0.0574973 0 
0.0232467 -0.0482915 0 
-0.00401485 -0.0387873 0 
-0.00497738 -0.0302344 0 
-0.00176071 -0.0336773 0 
0.0249941 -0.0458515 0 
0.0233279 -0.0481518 0 
0.0182706 -0.0388066 0 
0.0204249 -0.0213979 0 
0.0142768 -0.0157255 0 
0.0145792 -0.0132373 0 
0.0049626 -0.00439592 0 
0.00260601 -0.00239695 0 
0.00185607 -0.00135493 0 
0.0687564 -0.0759516 0 
0.0666067 -0.0694441 0 
0.0727436 -0.0708362 0 
0.000691997 -0.00522319 0 
0.00122125 -0.00764643 0 
0.000548741 -0.00689316 0 
0.0541614 -0.0718892 0 
0.0542745 -0.0736312 0 
0.0510795 -0.0728582 0 
0.000881014 -0.00117956 0 
0.00270313 -0.0031967 0 
0.0022874 -0.00378235 0 
0.00247507 -0.00413212 0 
0.00202934 -0.00435694 0 
0.00146869 -0.00283867 0 
0.0353206 -0.0297317 0 
0.0311907 -0.0231714 0 
0.0370294 -0.0261792 0 
0.00146494 -0.00283889 0 
0.00113033 -0.00291417 0 
0.000743786 -0.00174038 0 
-0.00500068 -0.0302236 0 
-0.00717099 -0.026191 0 
-0.00466053 -0.0227477 0 
0.00103296 -0.00969124 0 
0.000209961 -0.00863162 0 
0.000597469 -0.0068177 0 
0.00677102 -0.0314956 0 
0.00591239 -0.0369988 0 
0.00329445 -0.0305267 0 
0.00381294 -0.00561501 0 
0.00324231 -0.00603189 0 
0.0024759 -0.00413295 0 
0.00380581 -0.00561501 0 
0.00248025 -0.00413295 0 
0.00281441 -0.00372602 0 
0.0455703 -0.0584726 0 
0.0433844 -0.0537424 0 
0.0391516 -0.0378946 0 
0.0791159 -0.0718989 0 
0.0727483 -0.0708887 0 
0.0747209 -0.062266 0 
0.0101985 -0.0262473 0 
0.0130575 -0.0255557 0 
0.0137197 -0.0309629 0 
0.0577616 -0.0383938 0 
0.0651107 -0.0444461 0 
0.0616051 -0.0477788 0 
0.00806167 -0.149038 0 
0.0170432 -0.152067 0 
0.0217705 -0.137822 0 
0.0481921 -0.0711865 0 
0.0442528 -0.0734223 0 
0.0445759 -0.0693946 0 
0.0725298 -0.0704659 0 
0.0667837 -0.0697507 0 
0.0689109 -0.0627673 0 
0.0681913 -0.0825883 0 
0.0648897 -0.0884656 0 
0.0600376 -0.0826677 0 
0.0258993 -0.0203986 0 
0.0218118 -0.0151648 0 
0.0266151 -0.0173129 0 
0.00114017 -0.00290623 0 
0.00202049 -0.00434991 0 
0.00152971 -0.00439046 0 
0.0439153 -0.0761502 0 
0.0470762 -0.0736651 0 
0.0458514 -0.0745334 0 
0.0752037 -0.0789964 0 
0.0725086 -0.0704734 0 
0.0794058 -0.0724009 0 
0.0295392 -0.0663927 0 
0.0291213 -0.0594561 0 
0.0347604 -0.0635623 0 
-0.00491331 -0.0128255 0 
-0.00417451 -0.0166789 0 
-0.00599446 -0.0186573 0 
0.0503814 -0.0335538 0 
0.0575164 -0.0384206 0 
0.0547389 -0.0421617 0 
-5.32029e-05 1.42528e-05 0 
8.67224e-05 -0.000748897 0 
0.000128244 -0.00115645 0 
0.0541822 -0.0718862 0 
0.0522166 -0.0697074 0 
0.0566433 -0.0690945 0 
-0.00758162 -0.0349577 0 
-0.00475237 -0.0302344 0 
-0.00423635 -0.0387873 0 
0.0128346 -0.0577854 0 
0.0183668 -0.0564143 0 
0.0180886 -0.0641435 0 
0.066964 -0.0694383 0 
0.0631616 -0.0633633 0 
0.0687143 -0.0631078 0 
0.0358768 -0.0143102 0 
0.0302414 -0.0122252 0 
0.0272578 -0.00837978 0 
-2.95896e-05 -1.06496e-06 0 
7.88479e-05 -0.00128084 0 
4.05332e-05 -0.00133235 0 
0.0157295 -0.00387383 0 
0.0187332 -0.00628457 0 
0.0127724 -0.00338913 0 
-0.00628715 -0.133728 0 
-0.0111474 -0.117637 0 
0.000761247 -0.129193 0 
0.0911201 -0.103404 0 
0.0854958 -0.117803 0 
0.0777223 -0.105733 0 
0.0246398 -0.0319481 0 
0.022426 -0.0258855 0 
0.0274155 -0.0293686 0 
0.0449618 -0.0408896 0 
0.0415004 -0.033314 0 
0.0479152 -0.0373555 0 
7.05288e-05 -0.00124301 0 
-4.56352e-05 8.97444e-07 0 
0.000120852 -0.00121792 0 
0.112577 -0.101174 0 
0.102702 -0.0772577 0 
0.112342 -0.0807067 0 
0.109807 -0.183188 0 
0.125705 -0.150761 0 
0.135376 -0.180386 0 
0.0195422 -0.00711551 0 
0.020325 -0.0210845 0 
0.0384719 -0.0678407 0 
-0.00419667 -0.0388117 0 
2.66702e-05 -0.041692 0 
-0.00215658 -0.0481058 0 
0.00106295 -0.000935482 0 
0.00113186 -0.00121044 0 
0.000521648 -0.000547849 0 
0.00126076 -0.00771487 0 
0.00112826 -0.00969124 0 
0.000505176 -0.0068177 0 
0.0246403 -0.031949 0 
0.0274183 -0.0293734 0 
0.029896 -0.0359008 0 
-0.00374555 0.00469414 0 
0.0226532 -0.0127973 0 
0.00897776 -0.00150098 0 
-0.00744319 -0.034718 0 
-0.00731314 -0.0259448 0 
-0.00487339 -0.030444 0 
0.00992722 -0.0373577 0 
0.0139645 -0.0369343 0 
0.0138723 -0.043344 0 
0.0266291 -0.0436373 0 
0.0202777 -0.0367626 0 
0.0221522 -0.0346994 0 
-0.00443239 -0.100556 0 
0.00587176 -0.109806 0 
-0.00273807 -0.114104 0 
4.09719e-05 -0.0416782 0 
0.00195716 -0.0357689 0 
0.0045173 -0.0431533 0 
-0.00411281 -0.0389569 0 
-0.00167251 -0.0335245 0 
-4.42548e-05 -0.0415692 0 
4.94002e-11 -0.000489968 0 
4.94542e-11 0.000361918 0 
0.000714684 -0.0174864 0 
0.0683866 -0.113159 0 
0.0631984 -0.101514 0 
0.0775459 -0.105733 0 
0.0600138 -0.0826264 0 
0.0649165 -0.088512 0 
0.054744 -0.08527 0 
0.0414545 -0.0333586 0 
0.0370511 -0.0261685 0 
0.0433849 -0.0295793 0 
0.000260726 -0.00854369 0 
-1.96923e-05 -0.00573927 0 
0.000550743 -0.00689863 0 
0.003249 -0.00602846 0 
0.0048142 -0.00793404 0 
0.00396688 -0.00833675 0 
0.0401445 -0.0721742 0 
0.0399534 -0.0668735 0 
0.0446149 -0.0694012 0 
0.0378603 -0.0223376 0 
0.0444134 -0.0255097 0 
0.0434071 -0.0295996 0 
0.00822129 -0.0506519 0 
0.0134292 -0.0502742 0 
0.0127629 -0.0577628 0 
0.00600264 -0.0063703 0 
0.00764182 -0.00911236 0 
0.00553338 -0.00728018 0 
0.019883 -0.0280605 0 
0.0224259 -0.0258856 0 
0.0246393 -0.0319489 0 
0.0377829 -0.0888538 0 
0.0372236 -0.0954383 0 
0.0236049 -0.077466 0 
0.10047 -0.0511735 0 
0.0811373 -0.0343505 0 
0.0742158 -0.0256117 0 
-0.0168921 -0.0703137 0 
-0.0186439 -0.0531655 0 
-0.0136154 -0.0602226 0 
0.0184871 -0.0491768 0 
0.0134395 -0.0502762 0 
0.0138578 -0.0433575 0 
0.0156815 -0.0242659 0 
0.0140947 -0.019291 0 
0.0179743 -0.0225209 0 
0.0362938 -0.0806717 0 
0.0315962 -0.0853102 0 
0.0304038 -0.0797471 0 
0.000285608 -0.00292536 0 
0.000620176 -0.00522421 0 
0.000225863 -0.00448425 0 
0.00380949 -0.0056161 0 
0.00552627 -0.00727883 0 
0.00482063 -0.00793424 0 
0.0127922 -0.0577119 0 
0.013411 -0.0503058 0 
0.0184014 -0.0564744 0 
0.000906048 0.000163904 0 
-6.21031e-05 -0.00020185 0 
-0.00109306 -0.00125601 0 
-0.000275647 0.000421824 0 
0.00333426 -0.00105015 0 
0.00189888 -0.000592353 0 
0.0442718 -0.0580102 0 
0.0488483 -0.0555055 0 
0.0493544 -0.0618041 0 
0.0469412 -0.0717555 0 
0.0454664 -0.0696297 0 
0.0499317 -0.0726836 0 
0.00146675 -0.00284202 0 
0.0020334 -0.00434991 0 
0.00112575 -0.00290623 0 
-7.63564e-05 4.81468e-11 0 
-5.50118e-05 4.79217e-11 0 
-0.000431528 -1.84849e-05 0 
0.00562919 -0.0148596 0 
0.00840369 -0.0223221 0 
0.00452358 -0.0160077 0 
0.0744569 -0.0627233 0 
0.0729924 -0.0704659 0 
0.0684968 -0.0627673 0 
0.00113245 -0.0029196 0 
0.00153975 -0.00437305 0 
0.000789051 -0.00286743 0 
0.0070299 -0.0139521 0 
0.0102289 -0.0212924 0 
0.00567491 -0.0149337 0 
0.0198807 -0.028068 0 
0.0214155 -0.0341136 0 
0.0169366 -0.0297801 0 
0.0513563 -0.0452709 0 
0.0449135 -0.0408059 0 
0.0479753 -0.0374597 0 
0.0274168 -0.0293609 0 
0.0244656 -0.0233234 0 
0.0296444 -0.0264284 0 
0.0442772 -0.0212872 0 
0.0375805 -0.0182731 0 
0.0359449 -0.0142292 0 
0.020255 -0.0367083 0 
0.0248891 -0.0458515 0 
0.0183988 -0.0388066 0 
0.021182 -0.0178965 0 
0.0198388 -0.020348 0 
0.0169672 -0.0154992 0 
0.00458661 -0.0431754 0 
0.00819243 -0.0506276 0 
0.00292619 -0.0500242 0 
0.0603727 -0.0297069 0 
0.0519799 -0.0250227 0 
0.0485368 -0.0185498 0 
0.00247573 -0.00413325 0 
0.00324469 -0.00602776 0 
0.00202554 -0.00435037 0 
0.0233341 -0.0481401 0 
0.0290096 -0.0576807 0 
0.0219026 -0.0508791 0 
0.100623 -0.094876 0 
0.104287 -0.0772577 0 
0.110823 -0.101174 0 
-0.00468113 -0.0128255 0 
-0.00625025 -0.0186573 0 
-0.00650672 -0.0143827 0 
0.00831883 -0.0127103 0 
0.0119112 -0.0198038 0 
0.00706237 -0.0140151 0 
0.040019 -0.0668777 0 
0.0351069 -0.0698435 0 
0.0346801 -0.063562 0 
0.0239982 -0.0327163 0 
0.0284721 -0.0417166 0 
0.0221369 -0.0346888 0 
0.00923773 -0.0437207 0 
0.00995815 -0.0373577 0 
0.0138493 -0.043344 0 
0.00422149 -0.00498041 0 
0.00551318 -0.00727883 0 
0.00381917 -0.0056161 0 
0.0250658 -0.0106536 0 
0.0208221 -0.00931416 0 
0.0187459 -0.00630879 0 
0.00706153 -0.0140105 0 
0.00561635 -0.0148255 0 
0.00267938 -0.00794923 0 
0.00381153 -0.00561256 0 
0.00482075 -0.00793404 0 
0.00324032 -0.00602846 0 
-0.010177 -0.0294008 0 
-0.00759232 -0.0349823 0 
-0.0106158 -0.0398038 0 
0.037031 -0.0261638 0 
0.0319043 -0.0196637 0 
0.0378594 -0.0223492 0 
0.0316782 -0.0159796 0 
0.0319143 -0.0196089 0 
0.0263493 -0.014008 0 
0.0432084 -0.0739182 0 
0.0361593 -0.0707314 0 
0.0358007 -0.0662201 0 
-0.0030535 -0.114677 0 
0.00873174 -0.122175 0 
0.000527097 -0.128633 0 
-0.0170503 -0.118047 0 
-0.0108426 -0.117109 0 
-0.00660039 -0.134271 0 
0.00104282 -0.000900624 0 
0.0018984 -0.00185973 0 
0.00114882 -0.00123983 0 
0.0142886 -0.0157546 0 
0.0133347 -0.017895 0 
0.00913803 -0.0111142 0 
0.0370221 -0.0261792 0 
0.031207 -0.0231714 0 
0.0319184 -0.0196392 0 
0.00404017 -0.00111202 0 
-0.000477209 0.000866782 0 
0.00686825 -0.00205279 0 
0.00299634 -0.00317437 0 
0.00420706 -0.00499863 0 
0.00282726 -0.00374 0 
0.0100313 -0.0318086 0 
0.00782489 -0.0312952 0 
0.00482841 -0.0224357 0 
0.0301671 -0.012093 0 
0.0226083 -0.00739639 0 
0.0273421 -0.00852988 0 
0.0115993 -0.00182567 0 
0.0156243 -0.00368733 0 
0.00943551 -0.00159036 0 
0.0378493 -0.0223045 0 
0.0316096 -0.0159721 0 
0.0375814 -0.0182935 0 
0.00278375 -0.00186584 0 
0.00229834 -0.00111177 0 
0.00395438 -0.00238947 0 
0.0234282 -0.0483026 0 
0.0217755 -0.0506597 0 
0.016293 -0.0406908 0 
0.0511503 -0.102839 0 
0.0377865 -0.0964134 0 
0.0373203 -0.0880526 0 
0.0311694 -0.0231778 0 
0.0259238 -0.0204409 0 
0.0265882 -0.0172665 0 
0.0370337 -0.0261685 0 
0.0378565 -0.0223441 0 
0.0434188 -0.0295793 0 
0.0142845 -0.0157474 0 
0.0192506 -0.023789 0 
0.0133513 -0.0179236 0 
0.00821142 -0.0506348 0 
0.00923747 -0.0437075 0 
0.0134372 -0.0502879 0 
0.0025172 -0.002255 0 
0.00536225 -0.00589297 0 
0.0027162 -0.00320015 0 
0.0179594 -0.0804881 0 
0.0252057 -0.0842409 0 
0.0188471 -0.0886399 0 
0.00457106 -0.0432161 0 
0.0058997 -0.0370143 0 
0.00920696 -0.0436895 0 
0.00916622 -0.0110654 0 
0.0133081 -0.0179412 0 
0.00835668 -0.0127657 0 
0.0169479 -0.0297801 0 
0.0214046 -0.0341136 0 
0.0178262 -0.0358065 0 
0.0198818 -0.0280585 0 
0.0179751 -0.0225222 0 
0.0224259 -0.0258857 0 
-0.000136758 4.79389e-11 0 
-4.2104e-05 4.76386e-11 0 
-9.57887e-05 -8.19725e-05 0 
0.000703526 -0.000364774 0 
-0.000175782 0.000239526 0 
0.00151478 -0.000561303 0 
0.0581823 -0.0755368 0 
0.0559184 -0.0780602 0 
0.052625 -0.0748378 0 
0.103522 -0.0786717 0 
0.0981054 -0.0557198 0 
0.111273 -0.0788638 0 
0.0226965 -0.00720044 0 
0.0155032 -0.00388637 0 
0.019017 -0.00442847 0 
0.0666249 -0.0694383 0 
0.0614465 -0.0691369 0 
0.0634656 -0.0633633 0 
0.00454757 -0.0431754 0 
0.00922741 -0.0437249 0 
0.00821558 -0.0506276 0 
0.035914 -0.0664164 0 
0.0360138 -0.0704794 0 
0.028152 -0.0610982 0 
0.01568 -0.0242634 0 
0.0179751 -0.0225222 0 
0.0198818 -0.0280586 0 
0.0499176 -0.0128703 0 
0.0551887 -0.0183323 0 
0.0407759 -0.00953088 0 
0.0600061 -0.0826123 0 
0.0515277 -0.0794908 0 
0.055937 -0.0780968 0 
0.0218694 -0.0151646 0 
0.0211644 -0.01785 0 
0.0176177 -0.0131713 0 
-0.00185797 -0.0335088 0 
-0.00486702 -0.0304256 0 
-0.00253196 -0.0261751 0 
0.0567288 -0.0689778 0 
0.0534634 -0.065439 0 
0.0582805 -0.0643805 0 
0.0414287 -0.033314 0 
0.0434165 -0.0296339 0 
0.0480121 -0.0373555 0 
0.10186 -0.114309 0 
0.10003 -0.0938489 0 
0.111585 -0.102494 0 
-0.0100022 -0.0297036 0 
-0.00701998 -0.0259448 0 
-0.00774493 -0.034718 0 
0.0033682 -0.0109465 0 
0.00208252 -0.00818168 0 
0.00303761 -0.00845064 0 
0.00259459 -0.00238904 0 
0.00264973 -0.00308502 0 
0.0008639 -0.000804646 0 
-1.58784e-05 -4.93247e-11 0 
-5.39455e-06 -4.93657e-11 0 
-7.2177e-05 -9.07933e-06 0 
0.0198466 -0.0203755 0 
0.0179758 -0.0225103 0 
0.015759 -0.017565 0 
0.0296305 -0.0264284 0 
0.0244838 -0.0233234 0 
0.0259012 -0.0204187 0 
0.00423201 -0.00499863 0 
0.00381217 -0.00560398 0 
0.00280634 -0.00374 0 
0.0296463 -0.0264236 0 
0.0353139 -0.0297317 0 
0.0328959 -0.0329859 0 
0.058387 -0.0642174 0 
0.0538667 -0.0597214 0 
0.0586809 -0.0580547 0 
0.0296412 -0.0264099 0 
0.0258885 -0.0204409 0 
0.0312008 -0.0231778 0 
0.0298926 -0.0359067 0 
0.0274225 -0.0293661 0 
0.0328884 -0.03298 0 
0.0315823 -0.0159796 0 
0.0264415 -0.014008 0 
0.0251523 -0.0105417 0 
0.0102721 -0.0111036 0 
0.0108516 -0.00951966 0 
0.0133313 -0.0132344 0 
0.00544466 -0.00578263 0 
0.0091035 -0.0111275 0 
0.00521755 -0.00719254 0 
0.0023381 -0.00387233 0 
0.00264382 -0.00309144 0 
0.00509839 -0.00719377 0 
0.0298213 -0.0733141 0 
0.035619 -0.0757155 0 
0.0305389 -0.0795358 0 
-0.0253678 -0.0330264 0 
-0.0260741 -0.0511634 0 
-0.0294345 -0.0622566 0 
0.0599979 -0.0826264 0 
0.0548072 -0.08527 0 
0.0515496 -0.0794529 0 
0.0103094 -0.0212892 0 
0.0119488 -0.0197635 0 
0.0159114 -0.0279407 0 
0.0144321 -0.041991 0 
0.00982888 -0.0318248 0 
0.0165104 -0.0406918 0 
0.000526859 -0.000546402 0 
0.000249717 -0.000250017 0 
0.000168304 -0.000158416 0 
0.0108825 -0.00955975 0 
0.0109996 -0.00777279 0 
0.0139565 -0.0113103 0 
0.000743247 -0.00174131 0 
0.00113207 -0.00291117 0 
0.000573015 -0.00188617 0 
3.80813e-11 -0.00611322 0 
4.38224e-11 0.00166731 0 
0.00700147 -0.112426 0 
-0.0261661 -0.0506234 0 
-0.0227464 -0.0629039 0 
-0.0259052 -0.0756364 0 
0.0187432 -0.00442847 0 
0.0157476 -0.00388637 0 
0.011473 -0.00162178 0 
0.0225838 -0.00739562 0 
0.0188364 -0.00646335 0 
0.01562 -0.00368411 0 
0.0378235 -0.0223492 0 
0.031946 -0.0196637 0 
0.0316418 -0.0159164 0 
0.0204713 -0.0535296 0 
0.0186768 -0.0555117 0 
0.0119 -0.0427503 0 
0.0667946 -0.0244585 0 
0.0551296 -0.0182588 0 
0.0498994 -0.0128477 0 
0.0613366 -0.0689136 0 
0.0566435 -0.0691256 0 
0.0583775 -0.0642124 0 
0.00927868 -0.0123863 0 
0.0080155 -0.0133545 0 
0.00681791 -0.0100605 0 
0.0274198 -0.0293661 0 
0.029644 -0.0264276 0 
0.0328993 -0.03298 0 
0.0407017 -0.0407517 0 
0.046673 -0.0584726 0 
0.0380914 -0.0378946 0 
0.0179696 -0.0225209 0 
0.0140979 -0.019291 0 
0.0157659 -0.017553 0 
0.0810575 -0.0345389 0 
0.0825472 -0.0412568 0 
0.0670238 -0.0242864 0 
0.000556194 -0.000548834 0 
0.000614281 -0.000721615 0 
0.000218312 -0.000247414 0 
0.0236555 -0.0545711 0 
0.0232428 -0.0474774 0 
0.028624 -0.0523443 0 
0.0134327 -0.0502879 0 
0.0092301 -0.0437075 0 
0.0138574 -0.0433581 0 
0.0514505 -0.0795406 0 
0.0450412 -0.079066 0 
0.0433358 -0.0737527 0 
0.00765456 -0.0090994 0 
0.00927292 -0.0123863 0 
0.00682036 -0.0100605 0 
-0.0199782 -0.0994591 0 
-0.0125689 -0.100918 0 
-0.0111748 -0.117626 0 
0.0263894 -0.0139385 0 
0.0318785 -0.0196709 0 
0.0266235 -0.0173079 0 
0.000931531 -0.000691492 0 
0.00258597 -0.00319169 0 
0.000975588 -0.00118361 0 
0.0434314 -0.0739182 0 
0.0449192 -0.0788547 0 
0.0358913 -0.0707314 0 
0.0156872 -0.0242634 0 
0.0198753 -0.0280586 0 
0.0169412 -0.029788 0 
0.0145896 -0.0422203 0 
0.0121036 -0.0424018 0 
0.00766901 -0.0315082 0 
-0.00152357 -0.00448849 0 
-0.00125509 -0.00271863 0 
-0.000719642 -0.00235874 0 
0.0820269 -0.0829106 0 
0.0749527 -0.0794312 0 
0.0796913 -0.0719064 0 
0.0292368 -0.0576806 0 
0.0282896 -0.0608494 0 
0.021647 -0.0508792 0 
0.0136927 -0.0309697 0 
0.0169387 -0.029796 0 
0.0178333 -0.0357941 0 
0.0633231 -0.06361 0 
0.0615754 -0.0689136 0 
0.0581656 -0.0642124 0 
0.0516002 -0.0795406 0 
0.0547418 -0.0851567 0 
0.0448413 -0.079066 0 
-0.000398484 -7.57191e-05 0 
-9.58847e-05 7.0794e-05 0 
-0.000160742 -0.000194474 0 
0.0493516 -0.0617969 0 
0.0534837 -0.0654443 0 
0.0490085 -0.067199 0 
0.0965125 -0.0559887 0 
0.0923924 -0.0599064 0 
0.0831321 -0.0406484 0 
-0.00982506 -0.0293967 0 
-0.00856908 -0.0208438 0 
-0.0071719 -0.026208 0 
0.0681392 -0.11273 0 
0.0513262 -0.102694 0 
0.0633973 -0.101858 0 
-0.00850796 -0.0153303 0 
-0.00708327 -0.0101222 0 
-0.00578643 -0.00962799 0 
0.0139701 -0.0369294 0 
0.0137163 -0.0309697 0 
0.0178126 -0.0357941 0 
0.01305 -0.0255285 0 
0.0156798 -0.0242762 0 
0.0169482 -0.0297758 0 
0.101274 -0.093748 0 
0.0942966 -0.0754698 0 
0.103532 -0.0785659 0 
0.00112774 -0.00291074 0 
0.000798851 -0.00288584 0 
0.000575074 -0.00188637 0 
0.0251496 -0.0105085 0 
0.0186566 -0.00646335 0 
0.0227893 -0.00739562 0 
-4.03308e-05 -4.94084e-11 0 
9.75421e-06 -4.94642e-11 0 
0.000165005 -4.3375e-05 0 
0.00920219 -0.0111277 0 
0.00831794 -0.0126986 0 
0.00511565 -0.00719233 0 
0.000601566 -0.000748055 0 
0.0011462 -0.0012401 0 
0.00110109 -0.00148435 0 
0.00258111 -0.00320015 0 
0.0055081 -0.00589297 0 
0.00515843 -0.00708972 0 
0.00247259 -0.00413212 0 
0.00146915 -0.00283867 0 
0.00173958 -0.00261959 0 
0.026165 -0.0733937 0 
0.0241265 -0.0765723 0 
0.0140903 -0.0589509 0 
0.00482117 -0.00793518 0 
0.00552211 -0.00727163 0 
0.00681353 -0.0100589 0 
-0.0071576 -0.00991304 0 
-0.00480258 -0.00536249 0 
-0.00440994 -0.00557198 0 
0.00551717 -0.00728018 0 
0.00766204 -0.00911236 0 
0.0068165 -0.0100538 0 
0.0319367 -0.0196709 0 
0.0311901 -0.0231421 0 
0.0265643 -0.0173079 0 
0.000539918 -0.000516206 0 
0.00111531 -0.00123911 0 
0.000627894 -0.000748902 0 
-0.000124876 0.000143365 0 
0.000463786 -0.000345186 0 
-2.20833e-05 -0.000209634 0 
0.0977095 -0.0559887 0 
0.0821867 -0.0406484 0 
0.0814634 -0.0352238 0 
0.0870739 -0.0606558 0 
0.0943557 -0.0754799 0 
0.0868025 -0.0743741 0 
0.10433 -0.0772719 0 
0.0918053 -0.0588894 0 
0.0972313 -0.0572337 0 
-0.00981639 -0.0294008 0 
-0.0109833 -0.0398038 0 
-0.0132961 -0.0335917 0 
0.0108284 -0.00955975 0 
0.0140167 -0.0113103 0 
0.0133534 -0.0131961 0 
0.0133417 -0.0179236 0 
0.0192265 -0.023789 0 
0.0177094 -0.0259528 0 
0.0200619 -0.0535378 0 
0.0123189 -0.042742 0 
0.0144255 -0.0419609 0 
0.037497 -0.0182935 0 
0.0316907 -0.0159721 0 
0.0301772 -0.0121371 0 
0.00500978 -0.0140973 0 
0.0033118 -0.010947 0 
0.00457249 -0.0110517 0 
0.0214109 -0.0341245 0 
0.0225352 -0.0406111 0 
0.0178226 -0.0358004 0 
0.00850376 -0.0223243 0 
0.0102707 -0.0212246 0 
0.0139712 -0.029678 0 
4.52392e-11 -0.00263408 0 
4.76237e-11 0.00128689 0 
0.00292032 -0.0581619 0 
0.0581863 -0.0642174 0 
0.0535347 -0.0655624 0 
0.0540374 -0.0597214 0 
-0.00754822 -0.0642679 0 
-0.0135597 -0.0602003 0 
-0.0100616 -0.0517793 0 
-0.0110088 -0.0234132 0 
-0.00822467 -0.0208438 0 
-0.0101958 -0.0293967 0 
0.100022 -0.093748 0 
0.0908565 -0.0885849 0 
0.0954307 -0.0754698 0 
0.00950945 -0.00140525 0 
0.0155482 -0.00387768 0 
0.0129537 -0.00338528 0 
0.135484 -0.180587 0 
0.13703 -0.125398 0 
0.149624 -0.163233 0 
-0.0047504 -0.0302236 0 
-0.00490255 -0.0227477 0 
-0.00263529 -0.0263541 0 
0.0515626 -0.0794908 0 
0.0489491 -0.075007 0 
0.0559352 -0.0780968 0 
0.0192519 -0.023833 0 
0.0240208 -0.0326557 0 
0.0177063 -0.0259474 0 
0.102785 -0.0772719 0 
0.0948873 -0.0764929 0 
0.0930712 -0.0588894 0 
-0.0108075 -0.0230647 0 
-0.00854781 -0.015301 0 
-0.00839559 -0.0211398 0 
0.0559374 -0.0780931 0 
0.0489383 -0.0750257 0 
0.0526068 -0.0748064 0 
0.0202588 -0.0532005 0 
0.0142663 -0.0422337 0 
0.0219253 -0.0508903 0 
0.000609206 -0.000733971 0 
0.00109264 -0.00149994 0 
0.000550453 -0.000847896 0 
0.0359876 -0.0143053 0 
0.0375457 -0.0182111 0 
0.0301221 -0.0122305 0 
0.0106346 -0.00592485 0 
0.00735623 -0.00357328 0 
0.00975068 -0.00422724 0 
0.112342 -0.128971 0 
0.101349 -0.115194 0 
0.112275 -0.1013 0 
0.0137042 -0.0309897 0 
0.0130732 -0.0255285 0 
0.016927 -0.0297758 0 
0.0519932 -0.243747 0 
0.107746 -0.268931 0 
0.0670526 -0.295752 0 
0.0183389 -0.0386882 0 
0.0232407 -0.0483029 0 
0.0164997 -0.0406905 0 
0.0316388 -0.0158817 0 
0.0250895 -0.0106505 0 
0.0302349 -0.0122374 0 
0.0252308 -0.0106492 0 
0.0226979 -0.00723732 0 
0.030085 -0.0122387 0 
0.0281318 -0.0611222 0 
0.02044 -0.0535154 0 
0.0217833 -0.0506436 0 
-0.0103436 -0.0165754 0 
-0.0081951 -0.015301 0 
-0.0112059 -0.0230647 0 
0.00301193 -0.00320136 0 
0.0028151 -0.00371893 0 
0.00188984 -0.0022918 0 
0.0216418 -0.0508911 0 
0.0145735 -0.0422328 0 
0.0164008 -0.0405043 0 
0.0239632 -0.0326557 0 
0.0221442 -0.0347014 0 
0.017728 -0.0259474 0 
-7.20993e-05 -4.95619e-11 0 
5.76644e-05 -4.96234e-11 0 
0.00122127 -0.00012184 0 
0.00191851 -0.00182684 0 
0.0029781 -0.00320134 0 
0.00191944 -0.00229182 0 
0.148058 -0.161289 0 
0.138086 -0.126708 0 
0.129528 -0.0771432 0 
-0.00474418 -0.00526132 0 
-0.00262902 -0.00242453 0 
-0.00446942 -0.00567503 0 
0.00681562 -0.0100644 0 
0.00801998 -0.0133467 0 
0.00575438 -0.0107063 0 
0.00697821 -0.0140086 0 
0.00279107 -0.0079517 0 
0.00434919 -0.00812389 0 
-0.0101504 -0.0162409 0 
-0.00722832 -0.00987099 0 
-0.00835998 -0.0155866 0 
0.0106879 -0.00601721 0 
0.00968632 -0.00411577 0 
0.0135375 -0.00710489 0 
0.0372736 -0.0880498 0 
0.0253066 -0.0733391 0 
0.037309 -0.0819717 0 
0.00124865 -0.0058067 0 
0.000599509 -0.00383443 0 
0.00104337 -0.00423942 0 
-0.000960275 -0.0662959 0 
-0.00479345 -0.0556256 0 
0.00101288 -0.0576411 0 
0.00190255 -0.00226973 0 
0.00280363 -0.00373883 0 
0.00174921 -0.00262873 0 
0.0542705 -0.0736433 0 
0.0581394 -0.0756112 0 
0.0526564 -0.0747834 0 
0.00111423 -0.00123983 0 
0.00193742 -0.00185973 0 
0.00190361 -0.00226429 0 
4.29674e-11 -0.00407934 0 
4.60742e-11 0.00156537 0 
0.00482158 -0.0844296 0 
0.0512838 -0.0453966 0 
0.0480454 -0.0373383 0 
0.0546525 -0.0420127 0 
0.135495 -0.180587 0 
0.125759 -0.150852 0 
0.138234 -0.125375 0 
0.0244282 -0.076896 0 
0.0299235 -0.0731371 0 
0.0304158 -0.079749 0 
0.0368094 -0.0888538 0 
0.0246425 -0.077466 0 
0.0257201 -0.072623 0 
0.0458768 -0.0744893 0 
0.0470571 -0.0736983 0 
0.0483238 -0.0730863 0 
0.0102333 -0.0212892 0 
0.0159705 -0.0279407 0 
0.0140219 -0.0295901 0 
0.00482509 -0.00793518 0 
0.00681244 -0.0100589 0 
0.0057612 -0.0107181 0 
-0.00209845 -0.00195129 0 
-4.96365e-06 -0.00010146 0 
-0.000810381 -0.000448016 0 
0.0365931 -0.0819717 0 
0.026093 -0.0733391 0 
0.0267557 -0.068562 0 
0.0228078 -0.00739323 0 
0.0188926 -0.00421298 0 
0.0271183 -0.00853342 0 
0.00395752 -0.00832055 0 
0.00481998 -0.00794405 0 
0.00576886 -0.0107049 0 
0.036929 -0.08139 0 
0.0264572 -0.069079 0 
0.0367078 -0.0759463 0 
-0.0139333 -0.0257281 0 
-0.01078 -0.0230459 0 
-0.0135472 -0.033203 0 
4.86968e-11 -0.0009834 0 
4.89478e-11 0.000784203 0 
0.0014041 -0.0312143 0 
0.0698619 -0.0312281 0 
0.0811305 -0.0457238 0 
0.0698106 -0.0362745 0 
0.050446 -0.0723034 0 
0.0510635 -0.0728097 0 
0.0483127 -0.0730913 0 
0.0119306 -0.019795 0 
0.01772 -0.0259643 0 
0.0159387 -0.0278934 0 
0.0483108 -0.073081 0 
0.0477959 -0.0717173 0 
0.0460972 -0.0719533 0 
-7.64448e-06 -0.041594 0 
0.00455834 -0.0432244 0 
0.00295157 -0.0499802 0 
0.0178288 -0.0358004 0 
0.0225299 -0.0406111 0 
0.0183277 -0.042277 0 
0.00111215 -0.00150396 0 
0.00113034 -0.00121198 0 
0.00188846 -0.00229047 0 
0.0139616 -0.0369148 0 
0.0178225 -0.0358113 0 
0.0183297 -0.0422735 0 
-0.00803632 -0.00997051 0 
-0.00693605 -0.00987099 0 
-0.0104988 -0.0162409 0 
0.0360366 -0.0704798 0 
0.0447643 -0.0791229 0 
0.0366484 -0.075894 0 
0.00515696 -0.00712084 0 
0.00827751 -0.0127686 0 
0.00440907 -0.00814967 0 
0.00800341 -0.0133467 0 
0.00655141 -0.0139578 0 
0.00577331 -0.0107063 0 
0.0479086 -0.0373383 0 
0.0503026 -0.03369 0 
0.054825 -0.0420127 0 
0.000145725 4.77119e-11 0 
7.34316e-05 4.80623e-11 0 
0.00134372 6.26077e-05 0 
0.0221542 -0.0347029 0 
0.0202495 -0.0367137 0 
0.0159228 -0.0279315 0 
0.00109043 -0.00150387 0 
0.00191458 -0.00229058 0 
0.00174007 -0.0026129 0 
0.00225355 -0.00387146 0 
0.00519985 -0.00719482 0 
0.00436343 -0.00807093 0 
0.0083525 -0.0127686 0 
0.00701842 -0.013939 0 
0.0043343 -0.00814967 0 
-0.0112208 -0.0230459 0 
-0.0100049 -0.0297273 0 
-0.0130717 -0.033203 0 
0.00398154 -0.00832055 0 
0.00574656 -0.0107049 0 
0.00457318 -0.0110413 0 
0.0208004 -0.00933232 0 
0.0217412 -0.0121759 0 
0.0168322 -0.0081465 0 
0.0015455 -0.00437126 0 
0.00255951 -0.00620721 0 
0.00187919 -0.00616739 0 
0.0576583 -0.0502941 0 
0.051202 -0.045255 0 
0.0547513 -0.0421838 0 
0.00838865 -0.0223241 0 
0.0140756 -0.0296782 0 
0.0120125 -0.0309194 0 
0.0157665 -0.0175398 0 
0.0133376 -0.0132356 0 
0.0170009 -0.0154991 0 
0.0526117 -0.0748076 0 
0.0469354 -0.0717555 0 
0.0499238 -0.0726836 0 
0.0177191 -0.0259628 0 
0.0221434 -0.0347029 0 
0.0159607 -0.0279315 0 
0.111665 -0.102746 0 
0.113405 -0.0788748 0 
0.122683 -0.11064 0 
0.0631841 -0.0633692 0 
0.0582777 -0.0644066 0 
0.0587994 -0.0578495 0 
0.0466897 -0.0855505 0 
0.0372251 -0.0819029 0 
0.0364675 -0.0755302 0 
0.0510776 -0.0728341 0 
0.0478046 -0.0717173 0 
0.0483068 -0.073081 0 
-4.83857e-11 -4.60343e-05 0 
-4.83928e-11 4.32923e-05 0 
7.82394e-05 0.000284286 0 
0.0438312 -0.0761502 0 
0.0459192 -0.0745334 0 
0.043612 -0.0771501 0 
0.00576036 -0.0107288 0 
0.00656712 -0.0139306 0 
0.00455565 -0.0110109 0 
0.0184721 -0.0491768 0 
0.0138657 -0.0433575 0 
0.0183226 -0.0422778 0 
0.124697 -0.149706 0 
0.113115 -0.130146 0 
0.124813 -0.110818 0 
0.0449519 -0.0788744 0 
0.054635 -0.0853418 0 
0.0470922 -0.0854715 0 
-0.0297672 -0.0628327 0 
-0.0257624 -0.0506234 0 
-0.0261055 -0.0756364 0 
-0.00221574 -0.0482083 0 
8.32432e-05 -0.041594 0 
0.00287896 -0.0499802 0 
0.0551855 -0.0182798 0 
0.069867 -0.030877 0 
0.058913 -0.0240898 0 
0.0904278 -0.0877722 0 
0.082337 -0.0835024 0 
0.0871896 -0.073624 0 
0.051609 -0.102044 0 
0.036905 -0.0887719 0 
0.0495711 -0.0933778 0 
0.00151862 -0.00437126 0 
0.00202897 -0.00436459 0 
0.0025863 -0.00620721 0 
-6.50631e-05 -0.000204002 0 
0.000498885 0.000382196 0 
-0.000773437 -0.000384983 0 
0.0628707 -0.101858 0 
0.0519844 -0.102694 0 
0.0492655 -0.0928485 0 
0.0948903 -0.0764058 0 
0.0913257 -0.0877722 0 
0.0863694 -0.073624 0 
0.0236323 -0.0546112 0 
0.0184987 -0.0491887 0 
0.0232562 -0.0474541 0 
0.0574224 -0.0502765 0 
0.0616196 -0.0477947 0 
0.0636362 -0.0560745 0 
-0.00770945 -0.0347363 0 
-0.00412692 -0.0389768 0 
-0.00681295 -0.0447701 0 
0.00324191 -0.00604074 0 
0.00397667 -0.00831979 0 
0.00256473 -0.00620724 0 
-0.00479943 -0.00526132 0 
-0.00216168 -0.001926 0 
-0.00258596 -0.00242453 0 
0.0696603 -0.0308801 0 
0.0699993 -0.0366002 0 
0.0590652 -0.0240875 0 
0.000184212 4.71892e-11 0 
0.000159178 4.77559e-11 0 
0.0012709 2.168e-05 0 
-0.00789867 -0.00973209 0 
-0.00488612 -0.00521779 0 
-0.00705897 -0.0100839 0 
0.0866088 -0.0614614 0 
0.0872377 -0.0736203 0 
0.0801068 -0.0616537 0 
0.0543368 -0.0736433 0 
0.0525977 -0.0747834 0 
0.0499374 -0.0727072 0 
0.0138651 -0.0433564 0 
0.0139758 -0.0369148 0 
0.0183201 -0.0422735 0 
0.000193879 4.63572e-11 0 
0.000336013 4.72361e-11 0 
0.00063266 -0.000123092 0 
0.0510534 -0.0728129 0 
0.0543091 -0.0736911 0 
0.0499578 -0.0726719 0 
0.00395091 -0.00831979 0 
0.00303773 -0.00844091 0 
0.00259137 -0.00620724 0 
0.0201313 -0.0974783 0 
0.0121182 -0.0936418 0 
0.0188396 -0.0886205 0 
0.0123825 -0.109903 0 
-0.00520779 -0.000774681 0 
0.00902107 -0.0870944 0 
0.015944 -0.0278948 0 
0.0202155 -0.0367724 0 
0.0140708 -0.0296749 0 
-0.00258748 -0.00242715 0 
-0.00217613 -0.00195104 0 
-0.000754033 -0.0004482 0 
0.00213901 -0.00818238 0 
0.00119585 -0.00580504 0 
0.0018801 -0.00617691 0 
-0.00589429 -0.00981482 0 
-0.00696251 -0.00991304 0 
-0.00456957 -0.00557198 0 
0.0826787 -0.0829106 0 
0.0790888 -0.0719064 0 
0.0867996 -0.0742995 0 
0.0118826 -0.0932337 0 
0.011135 -0.0837883 0 
0.0190457 -0.0889775 0 
0.0548637 -0.0853418 0 
0.0586132 -0.0923948 0 
0.0467945 -0.0854715 0 
0.0470776 -0.0736983 0 
0.0504363 -0.0723202 0 
0.0483156 -0.0730863 0 
0.112304 -0.0807011 0 
0.101145 -0.0510043 0 
0.118838 -0.0805726 0 
0.00282182 -0.00373884 0 
0.00247618 -0.00412589 0 
0.00173433 -0.00262871 0 
0.0139908 -0.0112509 0 
0.0109645 -0.0078336 0 
0.0141225 -0.00922098 0 
0.0376905 -0.0887719 0 
0.0369685 -0.081382 0 
0.0488829 -0.0933778 0 
-0.013464 -0.0600346 0 
-0.0146069 -0.0458112 0 
-0.0101505 -0.0519332 0 
0.113794 -0.128971 0 
0.110829 -0.1013 0 
0.123799 -0.112571 0 
-0.00341399 -0.00026506 0 
0.0053354 -0.0598377 0 
0.00868183 -0.0823599 0 
0.137255 -0.127064 0 
0.126422 -0.149708 0 
0.122697 -0.110815 0 
0.0198229 -0.0203755 0 
0.0157811 -0.017565 0 
0.0169841 -0.0154699 0 
0.0133762 -0.0132356 0 
0.0139905 -0.0112648 0 
0.0169586 -0.0154991 0 
0.00241006 -0.000290361 0 
-2.00558e-05 0.000156701 0 
0.00292528 -0.000333212 0 
0.0141308 -0.00922058 0 
0.013583 -0.00700619 0 
0.0176115 -0.0106896 0 
0.0176071 -0.0131725 0 
0.0140257 -0.0113109 0 
0.0140834 -0.00915348 0 
0.0018902 -0.0210876 0 
-0.000827188 7.59777e-06 0 
0.00145606 -0.0179323 0 
0.0202921 -0.0367725 0 
0.0183352 -0.0386964 0 
0.0139733 -0.0296748 0 
0.00652815 -0.0139306 0 
0.0049828 -0.014144 0 
0.00459603 -0.0110109 0 
0.00241801 -0.000299739 0 
0.00424497 -0.000993535 0 
0.00161224 -0.000255782 0 
0.0408017 -0.00944556 0 
0.0551907 -0.0183257 0 
0.0465582 -0.0144979 0 
0.0120863 -0.0310508 0 
0.00994487 -0.0316498 0 
0.00667792 -0.023067 0 
0.0477955 -0.0717166 0 
0.0444709 -0.0686574 0 
0.0460989 -0.0719561 0 
0.0266195 -0.0912636 0 
0.0203789 -0.0970494 0 
0.0186261 -0.0889903 0 
0.08088 -0.0463716 0 
0.0870159 -0.0607058 0 
0.0770555 -0.0492801 0 
0.0522358 -0.0697106 0 
0.0481826 -0.0712012 0 
0.0490313 -0.0671415 0 
5.9332e-05 -0.000205126 0 
0.00103752 0.000377947 0 
0.000413315 0.000382969 0 
-0.00126558 -0.00125601 0 
5.29967e-05 -0.00020185 0 
-0.0021449 -0.00187085 0 
0.0493074 -0.0618856 0 
0.0489036 -0.0554097 0 
0.0538869 -0.0597302 0 
0.0407401 -0.0797374 0 
0.0438833 -0.0760599 0 
0.0435524 -0.0772533 0 
0.0864074 -0.0736203 0 
0.0794106 -0.0724639 0 
0.0808338 -0.0616537 0 
0.0536029 -0.0654443 0 
0.0492561 -0.0617969 0 
0.0539596 -0.0598562 0 
0.0105862 -0.00601949 0 
0.0136399 -0.00710259 0 
0.0140824 -0.00913852 0 
0.0396282 -0.0607263 0 
0.03472 -0.0635109 0 
0.0341357 -0.0567823 0 
0.00174396 -0.00262714 0 
0.00146689 -0.00283477 0 
0.000928491 -0.00165013 0 
0.0162987 -0.0406926 0 
0.010047 -0.0318239 0 
0.0120072 -0.0309158 0 
0.0797369 -0.0718989 0 
0.0741696 -0.062266 0 
0.0804832 -0.0622611 0 
-0.00461572 -0.00455838 0 
-0.00472949 -0.00521779 0 
-0.00809725 -0.00973209 0 
0.00257545 -0.00623481 0 
0.00305696 -0.00840761 0 
0.0018603 -0.00613469 0 
0.00844776 -0.0222212 0 
0.0119391 -0.0310472 0 
0.00682393 -0.0230705 0 
0.0634763 -0.0563516 0 
0.0617812 -0.047515 0 
0.0681206 -0.0542097 0 
0.000815936 7.825e-06 0 
0.00109486 0.000278639 0 
-2.33124e-06 -9.83225e-05 0 
0.0140234 -0.0295879 0 
0.0182681 -0.0388127 0 
0.0120887 -0.0310512 0 
0.000960453 7.825e-06 0 
0.00119308 0.000182974 0 
0.00100634 0.000278639 0 
0.0650896 -0.0444093 0 
0.0682666 -0.0411493 0 
0.0732787 -0.0520556 0 
0.0388472 -0.0540346 0 
0.0396129 -0.0607263 0 
0.034163 -0.0567823 0 
0.00203718 -0.00435037 0 
0.00323442 -0.00602776 0 
0.00257551 -0.0062259 0 
0.0110421 -0.00783331 0 
0.0106337 -0.00593703 0 
0.0140348 -0.00922131 0 
0.017645 -0.0131072 0 
0.0140444 -0.00922063 0 
0.0177025 -0.0106896 0 
0.0232713 -0.0474774 0 
0.0277222 -0.0452984 0 
0.0285972 -0.0523443 0 
0.00570972 -0.0666542 0 
-0.000930374 -0.0662441 0 
0.000996195 -0.05767 0 
0.000540297 -0.000847783 0 
0.00110684 -0.0015001 0 
0.000933862 -0.00164322 0 
-0.00457804 -0.00449311 0 
-0.00216287 -0.00192394 0 
-0.00477703 -0.00530012 0 
0.135294 -0.123678 0 
0.123958 -0.112992 0 
0.121992 -0.0798877 0 
0.0184112 -0.0388127 0 
0.0163994 -0.0405178 0 
0.0119292 -0.0310512 0 
0.125355 -0.110648 0 
0.111216 -0.0788682 0 
0.120208 -0.0828798 0 
0.0614526 -0.047515 0 
0.0652891 -0.0447548 0 
0.0685113 -0.0542096 0 
-0.00855904 -0.0208567 0 
-0.00837666 -0.0155974 0 
-0.00636165 -0.0141446 0 
-0.0107807 -0.0400894 0 
-0.00745031 -0.0347363 0 
-0.00706209 -0.0447701 0 
-0.00120193 -0.00114577 0 
-0.00217555 -0.00192394 0 
-0.00455741 -0.00449311 0 
0.00185638 -0.00613584 0 
0.00122297 -0.00585201 0 
0.00106444 -0.00420226 0 
0.000152451 1.16508e-05 0 
0.00133432 4.63295e-05 0 
0.00131552 -5.5599e-05 0 
0.0654887 -0.0444094 0 
0.0727993 -0.0520554 0 
0.0683091 -0.0545597 0 
0.0291647 -0.0593994 0 
0.0285885 -0.0523477 0 
0.0341706 -0.0567826 0 
0.0291345 -0.0594517 0 
0.0236837 -0.0546199 0 
0.0286072 -0.0523152 0 
-0.00611802 -0.0188863 0 
-0.00824403 -0.0208567 0 
-0.00664419 -0.0141446 0 
0.00985991 -0.0318067 0 
0.00496643 -0.0224373 0 
0.00674779 -0.022938 0 
0.00109945 -0.00148809 0 
0.00173197 -0.00262706 0 
0.000938151 -0.0016502 0 
0.0115161 -0.0837883 0 
0.0181242 -0.0802028 0 
0.0186522 -0.0889775 0 
0.0346904 -0.0635623 0 
0.0291975 -0.0594561 0 
0.0341531 -0.0567522 0 
0.000787466 -0.000391224 0 
0.000260112 0.000131464 0 
0.00121176 -8.07517e-05 0 
0.0388552 -0.0540207 0 
0.0442875 -0.0580168 0 
0.0396147 -0.0607232 0 
0.00441569 -0.015997 0 
0.00850553 -0.0223321 0 
0.00676333 -0.0229542 0 
0.126164 -0.0829938 0 
0.139764 -0.123788 0 
0.118533 -0.0798024 0 
0.0450954 -0.0791229 0 
0.0469137 -0.0851624 0 
0.0362575 -0.075894 0 
0.0217881 -0.0122796 0 
0.0218403 -0.0150948 0 
0.0176207 -0.0106914 0 
0.0481911 -0.0711865 0 
0.0445937 -0.0693946 0 
0.0490119 -0.0671751 0 
0.00301276 -0.00840761 0 
0.00211096 -0.00823095 0 
0.00190447 -0.00613469 0 
0.0443288 -0.0580102 0 
0.0492754 -0.0618041 0 
0.0446789 -0.0641911 0 
0.0443062 -0.0580493 0 
0.0446914 -0.0641695 0 
0.0396144 -0.0607226 0 
0.0225307 -0.0406158 0 
0.0277249 -0.0453031 0 
0.02326 -0.0474578 0 
0.000812429 -0.00286784 0 
0.0015162 -0.00437263 0 
0.00104202 -0.00423159 0 
0.0539546 -0.0598736 0 
0.05336 -0.0528637 0 
0.0585691 -0.0578611 0 
0.0489959 -0.0671474 0 
0.0445897 -0.0693877 0 
0.0446864 -0.0641637 0 
0.0487814 -0.0554097 0 
0.0532708 -0.0530182 0 
0.0540373 -0.0597302 0 
0.044582 -0.0694012 0 
0.0400017 -0.0668735 0 
0.0446823 -0.0641707 0 
0.0277182 -0.0453053 0 
0.033234 -0.0497881 0 
0.0286092 -0.0523235 0 
0.053171 -0.0528637 0 
0.0575556 -0.0504922 0 
0.0587945 -0.0578611 0 
0.0286232 -0.0523477 0 
0.0332323 -0.0497852 0 
0.0341427 -0.0567826 0 
0.018482 -0.0491597 0 
0.0183199 -0.0422824 0 
0.0232657 -0.0474706 0 
0.0493114 -0.0618665 0 
0.0490383 -0.0671474 0 
0.0446631 -0.0641637 0 
0.0446816 -0.0641695 0 
0.0399826 -0.0668403 0 
0.0396076 -0.0607226 0 
0.0332312 -0.0497871 0 
0.0388416 -0.0540249 0 
0.0341529 -0.0567648 0 
0.039961 -0.0668777 0 
0.0347495 -0.063562 0 
0.0396168 -0.0607066 0 
0.0183308 -0.0422824 0 
0.0225317 -0.0406141 0 
0.0232527 -0.0474706 0 
0.000836113 0.000421678 0 
0.001058 0.000285647 0 
0.000913297 0.0001666 0 
0.00153031 -0.00439756 0 
0.00189739 -0.00613586 0 
0.0010254 -0.00420225 0 
-0.00822242 -0.0153303 0 
-0.00603172 -0.00962799 0 
-0.00649557 -0.0143766 0 
0.0682377 -0.0410736 0 
0.0605065 -0.0296519 0 
0.0698309 -0.0363499 0 
0.0805056 -0.0457233 0 
0.0773727 -0.0498292 0 
0.0703032 -0.0362749 0 
0.0217997 -0.0151646 0 
0.0176822 -0.0131713 0 
0.0176622 -0.0106201 0 
0.0861723 -0.0607055 0 
0.0804678 -0.062279 0 
0.0777563 -0.0492804 0 
0.0701423 -0.0363511 0 
0.0602745 -0.029651 0 
0.0589641 -0.0242636 0 
0.0689172 -0.0627761 0 
0.0633069 -0.0560583 0 
0.0683229 -0.05456 0 
-0.00126709 -0.00123203 0 
-0.00353184 -0.00325109 0 
0.000176625 -0.000280233 0 
0.0730552 -0.0524985 0 
0.0747187 -0.0622812 0 
0.0680929 -0.0541855 0 
0.0603373 -0.0297628 0 
0.0485419 -0.0185417 0 
0.0588764 -0.0241074 0 
0.0685228 -0.0627761 0 
0.0633199 -0.0636375 0 
0.0636495 -0.0560583 0 
0.0742016 -0.0622811 0 
0.0687095 -0.0631357 0 
0.0685391 -0.0541856 0 
0.000451501 0.000446542 0 
0.000982613 0.000286531 0 
0.000879247 0.000421172 0 
9.5526e-05 4.82394e-11 0 
-7.72802e-06 4.83773e-11 0 
0.000909561 8.91509e-05 0 
0.0776548 -0.0493411 0 
0.0680473 -0.0407435 0 
0.0700452 -0.0367212 0 
0.0801482 -0.061681 0 
0.0744485 -0.0627491 0 
0.0733325 -0.0520183 0 
0.00116671 0.000116615 0 
5.9686e-05 -6.11982e-05 0 
0.000941377 0.000143478 0 
0.00102435 -0.00420594 0 
0.000619726 -0.00387001 0 
0.000506274 -0.00264884 0 
0.0774076 -0.0498839 0 
0.080813 -0.0616813 0 
0.0727678 -0.052018 0 
0.0685009 -0.0407442 0 
0.0770938 -0.0493403 0 
0.0730339 -0.052479 0 
0.00135323 0.000213071 0 
0.000839496 1.61166e-06 0 
0.000293372 -0.000521384 0 
0.000800552 -0.00288888 0 
0.00105628 -0.00420632 0 
0.000477758 -0.0026485 0 
0.00109412 -5.5599e-05 0 
0.0014495 4.63295e-05 0 
0.000172713 -0.000312397 0 
0.000999748 1.61166e-06 0 
-0.00118699 -0.00109331 0 
3.7396e-05 -0.000521384 0 
-0.00370516 -0.0031694 0 
-0.008142 -0.00733218 0 
-0.00181612 -0.00140837 0 
0.0189166 -0.149999 0 
0.0276462 -0.136867 0 
0.0280004 -0.139469 0 
0.00127999 0.000266328 0 
5.30092e-05 -0.000519731 0 
-0.00151238 -0.00165895 0 
0.000314899 -0.000519731 0 
-0.00364208 -0.00306014 0 
-0.00196079 -0.00165895 0 
-0.00678421 -0.00434431 0 
-0.0154583 -0.0165764 0 
-0.0154437 -0.0138099 0 
0.000332491 -0.000391224 0 
0.00148037 -8.07517e-05 0 
-0.00175999 -0.00123008 0 
-0.00807041 -0.00714092 0 
-0.0158365 -0.0159215 0 
-0.00651788 -0.0048056 0 
-0.00170848 -0.00159481 0 
-0.00816142 -0.00729854 0 
-0.00647936 -0.00473888 0 
-0.0149123 -0.0156306 0 
-0.0255271 -0.0330958 0 
-0.0162292 -0.0151705 0 
0.00076274 0.000353989 0 
-0.00197056 -0.00159481 0 
-0.00603606 -0.00473888 0 
-0.00256736 -0.000783197 0 
-0.00638311 -0.00434431 0 
-0.0159601 -0.0138099 0 
-0.00276257 -0.00112132 0 
0.00122714 -0.000450381 0 
-0.00632349 -0.00424105 0 
0.00528288 -0.142516 0 
0.00985229 -0.1528 0 
0.000442094 -0.148531 0 
-0.0292313 -0.0416478 0 
-0.0301846 -0.0626168 0 
-0.0298989 -0.0824295 0 
0.00867739 -0.158742 0 
0.00106707 -0.150838 0 
0.00609277 -0.15794 0 
-0.0236917 -0.0330264 0 
-0.0303926 -0.0622566 0 
-0.0291213 -0.0418384 0 
-0.0174518 -0.0130528 0 
-0.0246294 -0.0346506 0 
-0.0274463 -0.0389374 0 
0.000379299 -0.150838 0 
0.000466272 -0.148889 0 
0.00673066 -0.15794 0 
-0.0288494 -0.0830474 0 
-0.0265519 -0.0928901 0 
-0.0213706 -0.115686 0 
-0.0130479 -0.0100324 0 
-0.00263266 -0.000670095 0 
-0.0156361 -0.0143711 0 
-0.0176277 -0.108436 0 
-0.0306222 -0.0830474 0 
-0.0201506 -0.115686 0 
0.0161814 -0.151996 0 
0.00867593 -0.15876 0 
0.0120207 -0.158318 0 
0.000673111 -0.148531 0 
0.00959628 -0.1528 0 
0.00646933 -0.158393 0 
0.0165988 -0.143526 0 
0.0277472 -0.137042 0 
0.0188817 -0.149939 0 
-0.0303176 -0.0628472 0 
-0.0261479 -0.0935899 0 
-0.0295525 -0.0818295 0 
-0.0138799 -0.0114733 0 
-0.014875 -0.0130528 0 
-0.0316433 -0.0389374 0 
-0.0265543 -0.0624359 0 
-0.0297195 -0.0416478 0 
-0.0292608 -0.0824295 0 
-0.027237 -0.0636184 0 
-0.0180107 -0.00431846 0 
-0.0298989 -0.0419586 0 
-0.0191533 -0.111078 0 
-0.0258546 -0.0636478 0 
-0.0297631 -0.0815595 0 
-0.00678691 -0.136086 0 
-0.0165264 -0.110343 0 
-0.020674 -0.11478 0 
0.0166764 -0.152433 0 
0.0190353 -0.149999 0 
0.0279249 -0.139469 0 
-0.00671751 -0.135965 0 
-0.0210572 -0.115443 0 
-0.00971709 -0.136846 0 
0.000784428 -0.150891 0 
-0.00675982 -0.135892 0 
-0.00970994 -0.136858 0 
-0.0270543 -0.0937602 0 
-0.0170914 -0.118067 0 
-0.0207097 -0.114542 0 
-0.00637387 -0.134205 0 
0.00531239 -0.142567 0 
0.000428056 -0.148506 0 
-0.0201892 -0.115443 0 
-0.0174402 -0.117463 0 
-0.0101647 -0.136846 0 
-0.00625163 -0.133993 0 
0.000373728 -0.1486 0 
-0.00960902 -0.136676 0 
0.000299722 -0.1486 0 
0.00059712 -0.151216 0 
-0.00960474 -0.136676 0 
0.000627933 -0.000384605 0 
-0.000312649 0.000157721 0 
0.000104244 -0.000232077 0 
-0.0177774 -0.118047 0 
-0.00609116 -0.134271 0 
-0.00983785 -0.13628 0 
0.00932583 -0.161147 0 
0.0082326 -0.157971 0 
0.00648095 -0.158612 0 
-7.10718e-05 9.15332e-06 0 
-0.000457717 -6.38456e-05 0 
-0.000476154 4.05555e-05 0 
0.00890226 -0.161881 0 
0.00688031 -0.157921 0 
0.0112186 -0.158327 0 
0.00619682 -0.157921 0 
0.00981876 -0.153185 0 
0.0118997 -0.158327 0 
-0.000367444 -6.28192e-05 0 
2.97026e-05 -0.00014134 0 
-0.000523327 4.00191e-05 0 
0.0169286 -0.151996 0 
0.0113495 -0.158318 0 
0.018847 -0.150325 0 
-2.35012e-05 -0.000235678 0 
-0.000218902 0.000160363 0 
-0.000481638 0.00011394 0 
0.00915935 -0.157923 0 
0.00851998 -0.161219 0 
0.0116172 -0.159017 0 
0.0275046 -0.137112 0 
0.0382048 -0.122616 0 
0.0281956 -0.139131 0 
0.028481 -0.139625 0 
0.0378987 -0.122085 0 
0.0371524 -0.119565 0 
0.00978355 -0.152801 0 
0.0166216 -0.143486 0 
0.0188841 -0.149935 0 
0.0375729 -0.12265 0 
0.0462838 -0.0997265 0 
0.0376336 -0.118732 0 
0.0382595 -0.119816 0 
0.0457955 -0.0988806 0 
0.0441987 -0.0882322 0 
0.0224943 -0.137822 0 
0.0164654 -0.152067 0 
0.028072 -0.139723 0 
0.0453915 -0.0995803 0 
0.0482291 -0.0695518 0 
0.0448965 -0.0870235 0 
0.0223715 -0.138034 0 
0.0281288 -0.139625 0 
0.0378736 -0.119565 0 
0.0452874 -0.0877005 0 
0.0480584 -0.0692561 0 
0.0430456 -0.0469287 0 
0.0299189 -0.113194 0 
0.0223623 -0.138018 0 
0.0375829 -0.119062 0 
0.0482229 -0.0689712 0 
0.0399026 -0.0394198 0 
0.0430103 -0.0469899 0 
0.0308645 -0.111556 0 
0.0371475 -0.119816 0 
0.0458448 -0.0882322 0 
0.0413639 -0.0441384 0 
0.0408055 -0.0409837 0 
0.0293294 -0.0169846 0 
0.0367442 -0.0676982 0 
0.0322255 -0.113914 0 
0.0450714 -0.0868926 0 
0.0416879 -0.0394554 0 
0.0287622 -0.0210848 0 
0.0281218 -0.0190761 0 
0.0374338 -0.0665038 0 
0.044605 -0.0877005 0 
0.0436687 -0.0469287 0 
0.0273071 -0.0176649 0 
0.0293016 -0.022019 0 
0.0161447 -0.00703916 0 
0.0270048 -0.00711551 0 
0.0382057 -0.0678407 0 
0.0438129 -0.0471784 0 
0.0296795 -0.0213643 0 
0.0192595 -0.0117308 0 
0.015865 -0.00752353 0 
0.0228597 -0.0142951 0 
0.045568 -0.0441384 0 
0.0267852 -0.0169846 0 
0.0158392 -0.00747887 0 
0.0193189 -0.0118338 0 
0.00861792 -0.00368101 0 
0.00909518 -0.00150098 0 
0.0219949 -0.0127973 0 
0.0275565 -0.0183206 0 
0.019264 -0.0119288 0 
0.0122555 -0.007055 0 
0.00876726 -0.00342234 0 
0.00892629 -0.00179351 0 
0.0279351 -0.0176649 0 
0.0157431 -0.00703916 0 
0.00185932 -0.00136553 0 
-6.53241e-05 -0.000244687 0 
0.000942546 -0.000749171 0 
0.00896362 -0.00376244 0 
0.0121341 -0.00684463 0 
0.0045196 -0.00222956 0 
0.011627 -0.158799 0 
0.0100405 -0.152801 0 
0.0186214 -0.149935 0 
0.00294095 -0.00111202 0 
0.00907598 -0.00205279 0 
0.0156602 -0.0068955 0 
0.0119598 -0.00714644 0 
0.00739818 -0.00449177 0 
0.00472799 -0.00186861 0 
0.00352277 -0.000104283 0 
0.0153234 -0.00747887 0 
0.00900065 -0.00368101 0 
0.00493959 -0.00223511 0 
0.00724746 -0.00423071 0 
0.00214081 -0.00137869 0 
0.00137697 -0.000592353 0 
0.00406886 -0.00105015 0 
0.00869552 -0.0031525 0 
0.00708054 -0.00451982 0 
0.00410493 -0.00281711 0 
0.00230662 -0.00109151 0 
0.00168801 -5.36117e-05 0 
0.00834337 -0.00376244 0 
0.00494579 -0.00222956 0 
8.95766e-05 -0.00024397 0 
-0.000437145 5.66545e-05 0 
0.000737625 -0.00075012 0 
0.00246827 -0.00137151 0 
0.00397616 -0.00259407 0 
0.000700852 -0.000759098 0 
0.000372167 -0.000364774 0 
0.00198112 -0.000561303 0 
0.00473037 -0.00185644 0 
0.00384503 -0.00282125 0 
0.00195886 -0.00153813 0 
0.000824615 -0.000544683 0 
0.000565808 -2.9377e-05 0 
0.00451174 -0.00223511 0 
0.00245924 -0.00137869 0 
-0.000227401 -0.000209634 0 
0.000748141 -0.000345186 0 
0.00231119 -0.00112225 0 
0.00176356 -0.00153196 0 
0.000697814 -0.000506351 0 
2.31891e-05 -9.08616e-05 0 
-0.000103842 4.37762e-06 0 
0.00216712 -0.00137178 0 
0.000928899 -0.000758891 0 
-1.99285e-05 4.8292e-11 0 
-6.57852e-05 4.81363e-11 0 
-0.000475368 3.9195e-05 0 
-0.000513589 -7.57191e-05 0 
1.11794e-05 -0.000194474 0 
0.00083065 -0.000589035 0 
0.0161789 -0.156486 0 
0.0121612 -0.110774 0 
0.0381616 -0.18831 0 
0.0112289 -0.1602 0 
0.0164674 -0.153837 0 
0.0321544 -0.24164 0 
0.00238666 -0.00964371 0 
0.0043725 -0.0159997 0 
0.00207621 -0.0108254 0 
5.46697e-05 -0.000499856 0 
0.000309143 -0.00103486 0 
0.000248479 -0.00114958 0 
-4.0904e-05 -2.87049e-06 0 
-6.67374e-05 -9.27973e-06 0 
0.00010151 -0.000117565 0 
4.82798e-11 -0.00125247 0 
4.86234e-11 0.000858921 0 
0.00155043 -0.0357706 0 
0.0365594 -0.0115347 0 
0.0422738 -0.0164821 0 
0.0320865 -0.0103677 0 
0.00427751 -0.00016686 0 
0.00943728 -0.00157536 0 
0.00809279 -0.001429 0 
0.0257996 -0.00347449 0 
0.0405789 -0.00957008 0 
0.0342954 -0.00764636 0 
0.0430027 -0.33796 0 
0.0681912 -0.298283 0 
0.10228 -0.301272 0 
0.000342929 -0.000741258 0 
0.000725036 -0.00175063 0 
0.00031412 -0.00103482 0 
0.000303732 -0.00101082 0 
0.00056065 -0.00188889 0 
0.00025244 -0.00116717 0 
0.03147 -0.119246 0 
0.0226678 -0.114388 0 
0.0123959 -0.0822287 0 
-0.000758663 -0.00580809 0 
-0.00139364 -0.00657031 0 
-0.000861606 -0.0037664 0 
-0.00142225 -0.0044934 0 
-0.000793072 -0.00235518 0 
-0.00079914 -0.00387505 0 
2.24517e-11 -0.00629652 0 
3.09294e-11 6.68692e-05 0 
0.00533069 -0.158166 0 
3.08303e-05 4.83559e-11 0 
-6.3522e-05 4.82844e-11 0 
-0.000296377 7.78403e-05 0 
-0.000443936 5.22356e-05 0 
-0.000246188 0.00020502 0 
-0.000311875 0.000112529 0 
-3.27672e-05 4.99067e-05 0 
-3.05012e-05 -8.50509e-06 0 
5.79171e-05 -2.9266e-05 0 
0.00022077 -0.000238092 0 
0.000135354 -0.00012768 0 
4.70979e-05 2.31585e-05 0 
-0.00145187 -0.000165186 0 
0.00280803 -0.0320055 0 
0.00289148 -0.0348246 0 
-0.000118327 0.000720543 0 
4.38782e-05 0.000712893 0 
-3.15623e-05 0.000555761 0 
0.000141689 0.000319306 0 
0.00087022 -0.00118131 0 
0.000218167 -0.000207582 0 
0.000135503 -0.000103712 0 
6.98128e-06 5.52697e-05 0 
4.6988e-05 5.44417e-06 0 
-1.26047e-05 7.59361e-05 0 
-2.25426e-05 4.58208e-05 0 
4.30955e-05 1.91476e-05 0 
4.92658e-05 4.8429e-11 0 
-4.1222e-05 4.84412e-11 0 
0.000248299 7.44367e-05 0 
-0.00173237 -0.000115272 0 
0.003126 -0.0368048 0 
0.00381156 -0.0420086 0 
7.43952e-05 -0.00128271 0 
0.000116643 -0.00117469 0 
0.000269593 -0.00235144 0 
-0.000453967 -0.00717105 0 
-0.000778065 -0.00580749 0 
-0.00025669 -0.00466583 0 
0.000532931 0.000155717 0 
9.45478e-06 -6.95409e-05 0 
0.000278466 0.000127131 0 
0.000172035 -0.000159862 0 
-5.12564e-05 -5.23902e-06 0 
0.000102278 -0.00011739 0 
0.000355173 -0.000737729 0 
2.66134e-05 -0.000153139 0 
0.00020992 -0.000353896 0 
2.18942e-05 -2.40195e-05 0 
0.000132231 -0.000127719 0 
0.000212809 -0.000320434 0 
-0.000730936 -0.000918949 0 
-0.00112726 -0.000977831 0 
-0.000511341 -4.08219e-06 0 
0.00435163 -0.00812727 0 
0.00282059 -0.00799268 0 
0.00188496 -0.00438022 0 
-1.81681e-05 -0.00320349 0 
-9.42631e-06 -0.00135998 0 
9.33208e-05 -0.00267255 0 
0.000694808 -0.0145773 0 
0.00501372 -0.0278479 0 
0.00436927 -0.028356 0 
0.0068598 -0.0389794 0 
0.000861725 -0.0174882 0 
0.00424448 -0.0288068 0 
-0.00151963 -0.00657605 0 
-0.00148407 -0.00459445 0 
-0.000728963 -0.00376035 0 
0.0304165 -0.11773 0 
0.0504804 -0.159143 0 
0.0239526 -0.116237 0 
-3.02346e-05 -0.318167 0 
0.0213226 -0.270539 0 
0.0409212 -0.335296 0 
0.0781486 -0.324954 0 
3.58689e-05 -0.358412 0 
0.042629 -0.337116 0 
0.107195 -0.267167 0 
0.112098 -0.21622 0 
0.135747 -0.21967 0 
0.135876 -0.179594 0 
0.148887 -0.165104 0 
0.138575 -0.221385 0 
0.125398 -0.206396 0 
0.138955 -0.247501 0 
0.151757 -0.122788 0 
0.0752208 -0.0223914 0 
0.0446727 -0.00535249 0 
0.099107 -0.0446562 0 
0.0996612 -0.0526163 0 
0.075206 -0.0238446 0 
0.0996305 -0.0479321 0 
0.0422878 -0.00807105 0 
0.0218376 -0.00108836 0 
0.0461786 -0.00947051 0 
0.0275041 -0.000911254 0 
0.0741457 -0.0219619 0 
0.0473178 -0.00865859 0 
0.123874 -0.0788968 0 
0.120082 -0.0825744 0 
0.102031 -0.0487492 0 
0.0667347 -0.0246109 0 
0.0499651 -0.0126802 0 
0.0629024 -0.019367 0 
0.0742953 -0.0257529 0 
0.0813111 -0.0346594 0 
0.0629708 -0.0198384 0 
0.0173676 -0.000528886 0 
0.0410754 -0.00760089 0 
0.0315206 -0.00469444 0 
0.0224147 -0.00329189 0 
0.0119912 -0.0003983 0 
0.0256412 -0.00389057 0 
0.0443285 -0.0212082 0 
0.0358914 -0.0143117 0 
0.042223 -0.0167335 0 
0.0486196 -0.0187572 0 
0.0519347 -0.0249094 0 
0.0420808 -0.0167354 0 
-6.10417e-05 0.000267022 0 
0.00775643 -0.0006966 0 
0.00543168 -0.000381745 0 
0.0146414 -0.00530663 0 
0.0169052 -0.00799897 0 
0.012758 -0.00542355 0 
0.00376847 -0.000341873 0 
-2.09583e-05 0.000179626 0 
0.00420905 -0.00036426 0 
0.00545936 -0.00109411 0 
0.00947066 -0.00304343 0 
0.00700009 -0.00222971 0 
0.0135878 -0.00701548 0 
0.0096363 -0.00420466 0 
0.0128646 -0.00539754 0 
0.00166851 -0.00013385 0 
0.00417934 -0.00113575 0 
0.00279529 -0.000722899 0 
-3.47037e-05 8.93103e-05 0 
0.00117161 -0.000240441 0 
0.000686796 -0.000132739 0 
0.000187697 -8.26787e-05 0 
-1.02158e-05 3.45889e-05 0 
0.000259369 -6.20301e-05 0 
0.00104775 -0.000431685 0 
0.00148761 -0.000848796 0 
0.000655729 -0.000387533 0 
0.000855908 -0.00058779 0 
0.000211223 -0.000188949 0 
0.000698951 -0.000379088 0 
-6.68623e-05 -1.82846e-05 0 
-1.10495e-05 9.79458e-06 0 
-1.63247e-05 -2.77644e-05 0 
-2.36786e-05 2.88425e-05 0 
0.000141719 -8.37075e-05 0 
7.60515e-06 -2.6013e-05 0 
0.00025352 -0.000193044 0 
0.00042513 -0.000352366 0 
7.9586e-05 -0.000122826 0 
3.77726e-05 0.000692262 0 
0.000225088 0.000672702 0 
6.30987e-05 0.000399645 0 
-0.00748788 -0.00396404 0 
0.0179255 -0.161987 0 
0.0103789 -0.155449 0 
-4.22795e-05 -3.77292e-05 0 
-0.000468081 5.14962e-05 0 
-0.00031584 0.000112408 0 
0.0223872 -0.115315 0 
0.00479187 -0.0581272 0 
0.0126282 -0.0814614 0 
0.000143893 0.000282501 0 
0.000472593 0.000447366 0 
0.000244326 0.000121959 0 
0.00306089 -0.0349725 0 
0.0126768 -0.0779558 0 
0.00389205 -0.0442738 0 
-0.00127073 -0.00265601 0 
-0.000725696 -0.000880002 0 
-0.000572671 -0.00128264 0 
0.00280602 -0.0077867 0 
0.00550661 -0.0149664 0 
0.00246883 -0.00985798 0 
0.00540628 -0.0565491 0 
-0.00220469 -0.00014337 0 
0.00343366 -0.0443454 0 
0.000590397 -0.00383621 0 
0.000253133 -0.00299425 0 
0.000297624 -0.00232666 0 
0.00109584 -0.0124087 0 
0.00124528 -0.0110454 0 
0.00332716 -0.0210091 0 
4.27411e-05 0.000707534 0 
-6.98851e-06 4.09052e-05 0 
-3.02568e-05 0.000561914 0 
5.26983e-05 5.11712e-05 0 
-0.000153425 0.000538109 0 
-3.21519e-05 0.000540506 0 
-8.25048e-05 6.16987e-05 0 
0.000168574 0.000203086 0 
0.000199728 -0.000127874 0 
0.000580388 -0.00121872 0 
-0.000204688 0.000110098 0 
0.000198401 -0.000255753 0 
0.00306074 -0.0313962 0 
0.00179308 -0.0212056 0 
0.00678126 -0.0422394 0 
0.0406277 -0.164696 0 
0.0716032 -0.222974 0 
0.0404707 -0.190312 0 
-1.33907e-05 4.30883e-06 0 
-7.74754e-05 -1.82564e-05 0 
-7.44799e-05 6.40307e-06 0 
3.71194e-05 4.50274e-05 0 
-0.000133044 0.000348424 0 
-8.81322e-06 0.0003864 0 
0.000172523 0.000304589 0 
-4.84817e-05 7.54299e-05 0 
-1.24775e-05 0.000376938 0 
0.000570156 -0.00189591 0 
0.000805809 -0.00287235 0 
0.000352925 -0.00177835 0 
0.0227993 -0.0808488 0 
0.0198659 -0.0818945 0 
0.00993596 -0.058534 0 
0.0044531 -0.0159259 0 
0.00671492 -0.0230462 0 
0.00317685 -0.0156503 0 
0.000676333 -0.00538731 0 
0.000652063 -0.00382937 0 
0.00218844 -0.00973762 0 
-0.000191832 -0.000250584 0 
-0.000201467 -0.000860889 0 
-0.000534245 -0.00128457 0 
0.000113543 -0.000114197 0 
0.000250245 -0.000256312 0 
0.000349622 -0.000433032 0 
-1.99056e-05 2.70625e-05 0 
3.82206e-05 0.000690606 0 
5.91533e-05 0.000414228 0 
0.000140497 0.000310817 0 
-5.08649e-05 2.16158e-05 0 
5.85319e-05 0.00038176 0 
4.83187e-11 2.38865e-05 0 
4.83222e-11 -3.04449e-05 0 
-3.97733e-05 7.79491e-05 0 
3.0445e-05 4.83285e-11 0 
-2.23138e-05 4.83376e-11 0 
-7.91002e-05 3.86222e-05 0 
-4.92956e-11 3.74033e-06 0 
-4.92939e-11 -5.18302e-06 0 
-6.5324e-06 1.35403e-05 0 
-0.00160676 -0.205142 0 
0.00231491 -0.00749707 0 
0.00330319 -0.155054 0 
5.18293e-06 -4.92928e-11 0 
-4.2447e-06 -4.92926e-11 0 
-1.31712e-05 6.90145e-06 0 
9.8051e-12 -0.00518217 0 
2.20991e-11 -0.00149322 0 
0.00270049 -0.154452 0 
-5.37782e-05 2.63441e-05 0 
-2.07094e-05 5.01145e-05 0 
-1.38137e-05 1.36023e-05 0 
8.74198e-06 4.84223e-11 0 
-1.93377e-05 4.84164e-11 0 
5.371e-05 2.05558e-05 0 
-4.84109e-11 -1.93376e-05 0 
-4.84084e-11 9.79744e-06 0 
2.13283e-05 5.29375e-05 0 
0.000241204 -0.000213774 0 
0.000596023 -0.000748444 0 
0.00035496 -0.000458143 0 
8.27951e-05 -0.000513471 0 
8.1061e-05 -0.000315549 0 
0.000278666 -0.0010201 0 
0.00445635 -0.00172371 0 
0.00337955 -0.00148003 0 
0.00257997 -0.000781546 0 
0.00958321 -0.0042234 0 
0.0074753 -0.00357601 0 
0.00626648 -0.00226187 0 
-0.000198782 -0.000811531 0 
-0.000127293 -0.00100363 0 
-0.000417615 -0.00197347 0 
2.01748e-05 4.66235e-05 0 
-4.1758e-06 8.12579e-05 0 
3.44281e-05 1.36752e-05 0 
0.000247699 -0.00297998 0 
0.000263722 -0.0044297 0 
7.20334e-05 -0.00263759 0 
0.00785479 -0.0314267 0 
0.00483771 -0.0275836 0 
0.00359533 -0.0209258 0 
-0.000814762 -0.00573224 0 
-0.000799009 -0.00385103 0 
-0.000464471 -0.00381278 0 
2.00511e-05 -0.00582387 0 
-0.000359044 -0.00717294 0 
-0.000345352 -0.00466406 0 
0.00693228 -0.0388085 0 
0.0141037 -0.0589024 0 
0.00723075 -0.0426573 0 
0.00840091 -0.0848635 0 
0.00555933 -0.0578421 0 
0.0224028 -0.115309 0 
6.26209e-05 -0.000178108 0 
4.56123e-05 -1.05318e-05 0 
0.000184708 -0.000336413 0 
0.00230121 -0.00378925 0 
0.00432994 -0.00812869 0 
0.00186657 -0.00438142 0 
-0.000140669 0.000525025 0 
-0.000159053 6.90756e-05 0 
-0.000458219 -3.21662e-05 0 
-0.00116505 -0.000975338 0 
-0.000548257 0.00020174 0 
-0.000479883 -6.15703e-06 0 
0.000582305 -0.0027649 0 
0.000566329 -0.00119576 0 
0.00172921 -0.00442142 0 
6.35051e-06 -0.00137036 0 
3.56301e-05 -0.00133762 0 
7.36825e-05 -0.00265963 0 
0.00137016 -0.0178407 0 
0.00120707 -0.0142238 0 
0.0039808 -0.028624 0 
-0.000842188 -0.0037711 0 
-0.000754236 -0.00244896 0 
-0.000380346 -0.00196043 0 
-0.000791516 -0.00381227 0 
-0.000321202 -0.00239798 0 
-0.000469458 -0.00383857 0 
0.0536267 -0.158618 0 
0.0399721 -0.163975 0 
0.0216804 -0.116617 0 
0.00129347 -0.356125 0 
-0.00110864 -0.316702 0 
0.0424716 -0.337402 0 
0.110501 -0.218436 0 
0.13738 -0.18164 0 
0.136523 -0.218593 0 
0.0985937 -0.0207206 0 
0.131553 -0.214523 0 
0.148373 -0.118321 0 
0.0886425 -0.0435884 0 
0.151357 -0.111464 0 
0.0953658 -0.0426803 0 
0.0453802 -0.00433479 0 
0.0847933 -0.0388255 0 
0.0981155 -0.0460826 0 
0.121543 -0.0805666 0 
0.0984891 -0.0510101 0 
0.10113 -0.0499873 0 
0.0209969 -0.00223484 0 
0.0290217 -0.00300354 0 
0.0470474 -0.00828576 0 
0.0813937 -0.0345401 0 
0.0664777 -0.0242843 0 
0.0631124 -0.0196339 0 
0.0145772 -0.00116953 0 
0.0179074 -0.0013267 0 
0.0311727 -0.00418017 0 
0.0149011 -0.000656294 0 
0.0307636 -0.00482839 0 
0.0262085 -0.00387857 0 
0.0117548 -0.000873992 0 
0.0152791 -0.00115387 0 
0.0258692 -0.00343189 0 
0.05186 -0.0250104 0 
0.0443598 -0.0212736 0 
0.0421676 -0.0166181 0 
-0.000128661 -4.98601e-11 0 
0.000137778 -4.98491e-11 0 
0.00530172 -0.000207197 0 
-2.54318e-05 0.000190691 0 
0.00518371 -0.000425187 0 
0.00443478 -0.000354499 0 
-0.000116248 -4.97903e-11 0 
0.000118117 -4.98622e-11 0 
0.0043054 -0.000182631 0 
0.0168095 -0.00812058 0 
0.0136404 -0.00709423 0 
0.0128251 -0.00533827 0 
0.00416567 -0.00113587 0 
0.0055379 -0.00121157 0 
0.00696694 -0.00218012 0 
0.00117044 -0.000239733 0 
0.00173796 -0.000238642 0 
0.00276767 -0.000681221 0 
-4.97025e-05 -4.95105e-11 0 
3.93888e-05 -4.956e-11 0 
0.000637273 -7.30441e-05 0 
-2.82373e-05 5.50269e-05 0 
0.000608911 -0.000145751 0 
0.000306323 -6.6933e-05 0 
-3.45073e-05 -4.94484e-11 0 
1.64107e-05 -4.95047e-11 0 
0.000279308 -3.36387e-05 0 
0.00145776 -0.000889507 0 
0.000878687 -0.000619194 0 
0.000680538 -0.000353702 0 
-1.83603e-05 -4.9361e-11 0 
-2.15019e-06 -4.94009e-11 0 
-3.70614e-06 -1.08588e-05 0 
0.000409864 -0.000374237 0 
0.00018339 -0.00017687 0 
9.30397e-05 -0.000103552 0 
5.20426e-05 -0.000339668 0 
0.000354044 -0.000791458 0 
0.000305858 -0.000997501 0 
0.00275877 -0.000746174 0 
0.00452787 -0.0016558 0 
0.00252982 -0.000829172 0 
0.00696331 -0.0022785 0 
0.00971382 -0.00409377 0 
0.00617359 -0.00235405 0 
-6.37329e-05 2.58534e-05 0 
-7.67964e-06 -8.27543e-06 0 
-7.4772e-05 5.92911e-06 0 
0.000749861 -0.00175786 0 
0.000569635 -0.00187771 0 
0.000290076 -0.00102782 0 
-0.000762409 -0.00243064 0 
-0.00121517 -0.00265153 0 
-0.000602999 -0.00128508 0 
0.00569829 -0.0150211 0 
0.00446831 -0.0158784 0 
0.00226364 -0.00979943 0 
-0.000335603 -0.00240639 0 
-0.000767037 -0.00379798 0 
-0.000430071 -0.00194264 0 
4.69868e-11 -0.00171945 0 
4.84794e-11 0.00112316 0 
0.00198818 -0.0433121 0 
0.00491029 -0.0222768 0 
0.00775055 -0.0314395 0 
0.003599 -0.0209253 0 
0.069167 -0.298198 0 
0.105065 -0.265829 0 
0.101519 -0.301338 0 
0.0408986 -0.00957022 0 
0.046475 -0.0143908 0 
0.0339971 -0.00764623 0 
0.034071 -0.00743224 0 
0.0464402 -0.0144919 0 
0.0398096 -0.011809 0 
0.0464446 -0.0144914 0 
0.0485988 -0.0187164 0 
0.0398131 -0.0118086 0 
0.0079521 -0.00126779 0 
0.0127959 -0.00337061 0 
0.0107932 -0.00297999 0 
0.0096288 -0.00157833 0 
0.0128439 -0.00322607 0 
0.00789956 -0.00142601 0 
0.0129308 -0.00336836 0 
0.0145675 -0.00516674 0 
0.0107155 -0.00298129 0 
0.0262987 -0.0059599 0 
0.0363293 -0.0115245 0 
0.0323725 -0.0103804 0 
0.0264068 -0.00624867 0 
0.0322632 -0.0100884 0 
0.0225602 -0.00545519 0 
0.0164582 -0.00237512 0 
0.0261252 -0.00624927 0 
0.0228135 -0.00545465 0 
0.0165736 -0.00268246 0 
0.0227164 -0.00519592 0 
0.0146837 -0.00254317 0 
0.0079295 -0.000406084 0 
0.0162556 -0.00265574 0 
0.014846 -0.00255681 0 
0.01497 -0.0589987 0 
0.0121601 -0.0580743 0 
0.00661118 -0.0425884 0 
0.000490038 -0.00267857 0 
0.000641255 -0.00383059 0 
0.000265469 -0.00233022 0 
0.00490626 -0.0272064 0 
0.000611342 -0.0121753 0 
0.00355983 -0.0211211 0 
0.0543058 -0.239306 0 
0.0652459 -0.299221 0 
0.0350905 -0.240247 0 
-4.85636e-11 3.58714e-05 0 
-4.86588e-11 1.09403e-05 0 
-1.68032e-05 0.000552223 0 
4.88481e-11 -4.59467e-05 0 
4.86989e-11 0.000121012 0 
0.000112714 -0.000190429 0 
0.000212543 -0.000350662 0 
0.000132449 -0.000102793 0 
0.000332374 -0.000443436 0 
0.00103733 -0.0215528 0 
0.00712844 -0.0397964 0 
0.00711714 -0.0420851 0 
0.0766093 -0.223714 0 
0.0535919 -0.238479 0 
0.0372802 -0.189841 0 
-1.12112e-06 -4.93008e-11 0 
-1.0463e-05 -4.93236e-11 0 
-7.44413e-05 6.34635e-06 0 
-3.92818e-05 5.33655e-06 0 
-6.71766e-05 2.67625e-05 0 
-7.66527e-05 6.4256e-06 0 
4.84884e-11 4.08077e-05 0 
4.83752e-11 1.54009e-05 0 
-1.68004e-05 0.000380025 0 
0.000790846 -0.00287083 0 
0.000493036 -0.00267692 0 
0.000365977 -0.00177968 0 
0.0122899 -0.0578695 0 
0.0216866 -0.0809618 0 
0.0109362 -0.0584325 0 
0.00681605 -0.0230558 0 
0.00489464 -0.0223134 0 
0.00309006 -0.0156421 0 
-0.000301002 -0.00473964 0 
-0.0007306 -0.00572843 0 
-0.000504146 -0.00381458 0 
-0.00470254 -0.00321447 0 
0.0112116 -0.162021 0 
0.00516669 -0.153549 0 
-3.15162e-06 -5.2352e-05 0 
-0.000265881 0.000124822 0 
-9.37342e-05 7.8603e-05 0 
0.0221997 -0.269132 0 
0.00832683 -0.159306 0 
0.0348708 -0.242477 0 
0.000182721 -0.000181801 0 
0.000238777 -0.000232272 0 
5.32285e-05 -4.33488e-05 0 
-4.84062e-11 -1.94904e-05 0 
-4.84582e-11 4.31491e-05 0 
3.8755e-05 0.000397743 0 
0.00450642 -0.0160328 0 
0.00313578 -0.0155679 0 
0.00200462 -0.0108076 0 
0.0104471 -0.0574835 0 
0.0193166 -0.0830235 0 
0.00926419 -0.0578447 0 
0.000567456 -0.00189049 0 
0.000358322 -0.00178919 0 
0.00025092 -0.00116682 0 
-0.000139869 0.000290193 0 
5.42004e-05 4.04783e-06 0 
-7.75969e-05 9.17935e-05 0 
-2.12856e-05 4.59514e-05 0 
8.88499e-06 4.88179e-07 0 
-1.34708e-05 1.60799e-05 0 
0.0209125 -0.271968 0 
-0.00138117 -0.204526 0 
0.00339263 -0.15481 0 
-5.16208e-05 -9.09707e-06 0 
0.000142867 0.000238042 0 
5.16772e-05 6.4046e-05 0 
0.00530864 -0.0586648 0 
0.00353298 -0.0421934 0 
0.0123868 -0.0812102 0 
0.00742852 -0.00347006 0 
0.00446655 -0.00172469 0 
0.00629667 -0.00233023 0 
0.00333684 -0.00140178 0 
0.00163108 -0.000582589 0 
0.00260419 -0.000825923 0 
4.35818e-05 3.99558e-06 0 
-2.29553e-05 5.86813e-05 0 
4.96277e-05 -3.66791e-05 0 
0.00697262 -0.00140566 0 
0.00806017 -0.00143276 0 
0.0106941 -0.00282875 0 
0.00711522 -0.00142207 0 
0.00364955 -0.00015738 0 
0.0078901 -0.00141318 0 
0.00964908 -0.00309619 0 
0.00702367 -0.00126579 0 
0.0106457 -0.00296121 0 
0.145831 -0.248218 0 
0.0848822 -0.317347 0 
0.100761 -0.301087 0 
0.0308508 -0.00716979 0 
0.0221647 -0.00289798 0 
0.0339323 -0.00765834 0 
0.030528 -0.00712814 0 
0.0342368 -0.00769763 0 
0.0397034 -0.0116391 0 
0.0365892 -0.0116452 0 
0.0306383 -0.00689561 0 
0.0395889 -0.0118804 0 
0.0359563 -0.0141613 0 
0.0271763 -0.00853233 0 
0.032316 -0.0103051 0 
0.032127 -0.0103378 0 
0.0273037 -0.00851027 0 
0.0226974 -0.00520385 0 
0.0272335 -0.00832003 0 
0.0187851 -0.00441219 0 
0.0227717 -0.00540504 0 
0.0225741 -0.00543697 0 
0.0189371 -0.00438762 0 
0.0148184 -0.00231493 0 
0.01886 -0.00421784 0 
0.0113518 -0.00184028 0 
0.0148869 -0.00246591 0 
0.000212033 0.000130825 0 
-9.37979e-06 -4.95095e-05 0 
6.46433e-05 5.04263e-05 0 
-0.000104548 -0.000996206 0 
-0.00033772 -0.00237828 0 
-0.000427506 -0.0019767 0 
0.0140975 -0.0763577 0 
0.0295458 -0.119567 0 
0.0135202 -0.0820412 0 
-0.000331161 -0.00239161 0 
-0.000199833 -0.00271854 0 
-0.000468271 -0.00383933 0 
0.004256 -0.00104491 0 
0.0068906 -0.00225699 0 
0.00626367 -0.0023807 0 
0.00123191 -0.000176023 0 
0.00271849 -0.000732194 0 
0.00256931 -0.000842876 0 
0.000737748 -0.0071892 0 
0.00065809 -0.00510374 0 
0.0019002 -0.010745 0 
8.37096e-05 -0.000741807 0 
8.15198e-05 -0.000478927 0 
0.000230475 -0.00116361 0 
0.000621008 -0.000752787 0 
0.000546898 -0.000842228 0 
0.000344419 -0.000456311 0 
0.0106127 -0.157389 0 
0.0192196 -0.271631 0 
0.00538102 -0.155206 0 
-0.00028699 0.00012238 0 
-0.000137024 0.000304276 0 
-7.99386e-05 8.01989e-05 0 
0.000548433 -0.000837204 0 
0.000192193 -0.000333007 0 
0.000345005 -0.000454394 0 
0.00013707 0.000274101 0 
0.00024819 0.000126716 0 
5.36662e-05 5.16736e-05 0 
0.000239809 -0.000228637 0 
2.9156e-05 1.42484e-05 0 
5.41989e-05 -3.99281e-05 0 
-0.000173611 -0.0026963 0 
-0.000325293 -0.0046735 0 
-0.000488694 -0.00385665 0 
0.0029943 -0.0364785 0 
0.00270309 -0.0303177 0 
0.00826007 -0.0577182 0 
0.00198711 -0.0432796 0 
0.0149027 -0.0791175 0 
0.0131262 -0.0806907 0 
0.000369977 -0.00176174 0 
5.13113e-05 -0.000713868 0 
0.000246436 -0.00117738 0 
0.00315467 -0.0155231 0 
0.00054228 -0.00702164 0 
0.00199631 -0.0108274 0 
0.00168495 -0.0313587 0 
0.0109508 -0.0587721 0 
0.00894216 -0.0570208 0 
-1.79469e-05 -0.00152691 0 
0.000142042 -0.00242139 0 
0.000134184 -0.00345652 0 
-0.000107042 0.000726086 0 
3.53415e-05 0.000723586 0 
-5.31541e-05 0.000633029 0 
0.000181834 0.000292937 0 
0.00109994 -0.00144897 0 
0.000346795 -0.000443133 0 
0.00622709 -0.0773824 0 
0.0369576 -0.138453 0 
0.02652 -0.135193 0 
-0.000208739 -0.00310132 0 
-8.67036e-05 -0.00126833 0 
-3.56889e-05 -0.00135551 0 
7.68163e-05 -0.000171416 0 
0.000128554 -0.000146827 0 
0.000340701 -0.000597325 0 
0.000120561 -0.00238239 0 
8.97198e-06 -0.00157579 0 
3.20188e-05 -0.00105542 0 
0.000367681 -0.00121152 0 
0.000107449 -0.000602995 0 
9.49549e-05 -0.000324557 0 
0.00444451 -0.041912 0 
0.0179555 -0.0905097 0 
0.00578996 -0.0541148 0 
7.80254e-05 0.000698818 0 
-0.000158444 0.000755912 0 
0.000153048 0.000791177 0 
0.00132198 -0.00132011 0 
1.61099e-06 0.000188349 0 
0.000477328 -0.000231101 0 
0.00258415 -0.00144639 0 
0.00119189 -0.000833033 0 
-9.20163e-05 5.5434e-05 0 
0.00286473 -0.0011839 0 
-0.000304403 -0.000143262 0 
0.000202699 -0.000181076 0 
0.028146 -0.139599 0 
0.0183409 -0.150784 0 
0.0222905 -0.142362 0 
0.0329427 -0.129924 0 
0.0283845 -0.139415 0 
0.0222476 -0.142395 0 
-0.00347083 -0.144919 0 
0.00552959 -0.152596 0 
0.00558685 -0.15813 0 
-0.00426858 -0.145691 0 
0.00623287 -0.157504 0 
0.00206485 -0.151283 0 
-0.0312933 -0.0826568 0 
-0.0275133 -0.0363042 0 
-0.0290865 -0.0497075 0 
-0.0285395 -0.0780201 0 
-0.0292335 -0.0806727 0 
-0.0303877 -0.0509609 0 
-0.0116998 -0.0113723 0 
-0.0218551 -0.0253391 0 
-0.0144995 -0.0127232 0 
-0.0124628 -0.0122704 0 
-0.0133456 -0.0113649 0 
-0.00529582 -0.00324355 0 
-0.00475596 -0.00411703 0 
-0.0127606 -0.0115569 0 
-0.00504803 -0.00383724 0 
-0.00528919 -0.00463887 0 
-0.00479537 -0.00358997 0 
-0.00116322 -0.0011462 0 
0.00104922 0.000186372 0 
0.000771827 -0.000133339 0 
0.00135605 0.00014214 0 
0.0011421 0.000276702 0 
0.00125407 4.29554e-05 0 
0.00104739 6.42124e-05 0 
0.00835165 -0.0735752 0 
0.0245957 -0.138641 0 
0.00679333 -0.0695878 0 
-6.35974e-05 -0.00128121 0 
-0.000234268 -0.00308709 0 
-0.000338867 -0.00249594 0 
0.00024942 -0.00188432 0 
0.000118918 -0.000891743 0 
0.000483734 -0.00221209 0 
0.00396074 -0.0365694 0 
0.00677052 -0.0445612 0 
0.0137087 -0.0672847 0 
0.00013295 -0.000154952 0 
7.79035e-05 -0.000173425 0 
2.95736e-05 -3.85024e-06 0 
0.0120888 -0.0486208 0 
0.00495976 -0.0316943 0 
0.0100133 -0.0407281 0 
0.000253702 0.00014192 0 
0.000724339 0.000399801 0 
0.000496947 0.000113841 0 
-0.000245067 7.50751e-05 0 
-0.000359135 0.000136678 0 
-0.000437533 3.93125e-05 0 
0.000686509 0.000428704 0 
0.000283101 0.000119458 0 
0.000361214 0.000458276 0 
-0.000310651 0.000173781 0 
-0.000294132 3.75271e-05 0 
-0.000167332 0.000264938 0 
6.07619e-11 1.06324e-05 0 
6.07504e-11 -5.92524e-06 0 
-1.5249e-05 5.95454e-05 0 
0.00742382 -0.0274116 0 
0.0085145 -0.0334141 0 
0.00367122 -0.0214948 0 
0.0015288 -0.0247666 0 
0.0100001 -0.0487781 0 
0.00696409 -0.0445156 0 
0.000383053 -0.00294083 0 
4.49578e-05 -0.00124832 0 
0.000256522 -0.00189499 0 
0.0116802 -0.166023 0 
0.0298827 -0.194159 0 
0.0420698 -0.268671 0 
0.0196989 -0.0895548 0 
0.00285314 -0.0427837 0 
0.0121755 -0.0671086 0 
5.86536e-05 -0.00057678 0 
0.000428622 -0.00124425 0 
0.000347997 -0.00140773 0 
-0.00039706 -4.35447e-05 0 
-0.000244946 3.65279e-05 0 
-0.000437518 3.44184e-05 0 
-0.000241254 3.3837e-05 0 
-0.000449553 -5.27653e-06 0 
0.000503483 -0.000495662 0 
0.00189008 -0.000593931 0 
0.00286742 -0.00127685 0 
0.000203037 -0.000192753 0 
0.00303749 -0.00140463 0 
0.00167306 -0.000430887 0 
0.00676033 -0.00300896 0 
0.0389335 -0.0279896 0 
0.0372187 -0.06338 0 
0.0453242 -0.0673405 0 
0.0429485 -0.067771 0 
0.0359427 -0.0256976 0 
0.0190421 -0.00489551 0 
0.0143304 -0.00804682 0 
0.0155331 -0.00789582 0 
0.0246513 -0.0159785 0 
0.0408146 -0.116275 0 
0.028383 -0.139486 0 
0.032941 -0.13 0 
-0.00654338 -0.136416 0 
-0.00429405 -0.145015 0 
0.00207842 -0.151643 0 
-0.00398981 -0.145244 0 
-0.00704905 -0.136037 0 
-0.015189 -0.127336 0 
-0.0236781 -0.105837 0 
-0.0292907 -0.0832508 0 
-0.0285223 -0.0772455 0 
0.000949613 0.000166019 0 
0.00114443 0.000214688 0 
0.00104602 0.000100493 0 
0.00114294 0.000215805 0 
0.000952757 0.000163657 0 
0.00090907 0.000377333 0 
-0.000453661 0.000101763 0 
0.000937004 -0.000796329 0 
0.000505614 -0.000551187 0 
0.00111689 -0.000625899 0 
-0.000614631 -5.07471e-05 0 
-1.53892e-05 -0.000156186 0 
0.0359589 -0.0251133 0 
0.00945193 -0.00271143 0 
0.0188855 -0.0105704 0 
0.0372826 -0.0677492 0 
0.0427664 -0.101405 0 
0.0453066 -0.0661381 0 
0.0423403 -0.101781 0 
0.0375532 -0.0675103 0 
0.0288624 -0.116509 0 
0.00561167 -0.152916 0 
0.0117367 -0.158322 0 
0.00542384 -0.157495 0 
-0.0276808 -0.0357351 0 
-0.0203493 -0.0251938 0 
-0.0288893 -0.0503774 0 
-0.0214928 -0.0265523 0 
-0.0257858 -0.0334838 0 
-0.0150548 -0.0108636 0 
0.000758303 -8.01169e-05 0 
0.00113706 -9.35272e-05 0 
0.00137633 6.23061e-05 0 
0.000952684 0.000180103 0 
0.000705721 0.000416322 0 
0.000909033 0.000385578 0 
0.000724414 0.000429947 0 
0.000901487 0.000142785 0 
0.000496907 9.78085e-05 0 
0.0150229 -0.00750616 0 
0.0149214 -0.00849822 0 
0.00809429 -0.00312485 0 
-0.0296771 -0.0829559 0 
-0.0232007 -0.106201 0 
-0.0211399 -0.111946 0 
0.00124878 -4.23933e-06 0 
0.000682673 -0.000140564 0 
-0.000432802 -0.000812042 0 
0.0282391 -0.139379 0 
0.0409251 -0.116357 0 
0.0337968 -0.125383 0 
0.0119853 -0.00103485 0 
0.0332933 -0.0268773 0 
0.0244658 -0.0149155 0 
0.0113535 -0.158621 0 
0.00608112 -0.15255 0 
0.0128614 -0.151754 0 
0.000127023 -0.000111112 0 
1.67675e-05 5.87802e-05 0 
2.13929e-06 5.39213e-05 0 
0.0120927 -0.0489753 0 
0.0100096 -0.0403882 0 
0.016294 -0.0525563 0 
0.0432661 -0.328921 0 
0.0421091 -0.269824 0 
0.0960173 -0.301277 0 
0.031497 -0.196995 0 
0.00941978 -0.162053 0 
0.00608457 -0.104428 0 
-2.55557e-05 5.25073e-05 0 
9.62811e-06 6.49436e-07 0 
-1.34878e-05 1.58482e-05 0 
8.45155e-05 -0.00125014 0 
0.00034527 -0.00293908 0 
0.000131705 -0.00240908 0 
-0.000100405 -0.00112715 0 
-0.000662691 -0.00288962 0 
-0.000531899 -0.00183467 0 
0.00440906 -0.0180963 0 
0.00098955 -0.00887008 0 
0.00281859 -0.0122442 0 
8.59594e-06 5.88918e-05 0 
0.000137121 -0.00011125 0 
0.000130623 -0.00014296 0 
0.00817093 -0.115911 0 
0.0524843 -0.200226 0 
0.0305396 -0.192775 0 
0.00331953 -0.0529852 0 
0.0206893 -0.0917598 0 
0.0206198 -0.0988341 0 
0.00851306 -0.0337011 0 
0.00742561 -0.0270559 0 
0.0121836 -0.0379237 0 
0.0136862 -0.115802 0 
0.0256165 -0.135962 0 
0.0470872 -0.200334 0 
0.116926 -0.250309 0 
0.0764043 -0.257116 0 
0.091011 -0.219757 0 
2.89239e-05 -0.00153431 0 
8.60025e-05 -0.00344892 0 
-4.89206e-05 -0.00275497 0 
0.0466731 -0.269891 0 
0.0730717 -0.252503 0 
0.0897157 -0.301186 0 
0.000433309 -0.00118113 0 
4.02151e-05 -0.000349899 0 
0.000286737 -0.00069453 0 
0.000107796 -0.000910819 0 
0.00026136 -0.00186384 0 
5.03402e-05 -0.000769331 0 
0.00719248 -0.0452646 0 
0.00344082 -0.0357027 0 
0.00133816 -0.0211941 0 
0.000136125 0.00056365 0 
0.000399735 0.000704007 0 
0.0003544 0.000460754 0 
0.000200484 -1.85258e-05 0 
-7.02079e-06 0.000400091 0 
-0.000191041 0.000311757 0 
0.000385356 0.000703819 0 
0.000150999 0.000563845 0 
0.00015128 0.000814854 0 
-8.27779e-05 0.000400956 0 
0.000270163 -1.93208e-05 0 
0.00047709 -0.000118453 0 
-0.000199645 -0.00309762 0 
-3.97596e-05 -0.00135716 0 
-3.05695e-05 -0.0027465 0 
-0.000897143 -0.00183512 0 
-0.000509061 -0.000535771 0 
-0.00040829 -0.000912567 0 
0.00198652 -0.00625002 0 
0.00388666 -0.011996 0 
0.00182141 -0.00778468 0 
-0.000515247 -0.000567981 0 
-8.54379e-05 -0.000197298 0 
-0.00040552 -0.000898148 0 
0.000303917 -0.00339665 0 
0.00204071 -0.00652967 0 
0.00179118 -0.00762869 0 
0.0729701 -0.251615 0 
0.048453 -0.199643 0 
0.0935758 -0.223865 0 
-0.000158978 -0.000541384 0 
-0.000162944 -0.00120262 0 
-0.000481392 -0.00177371 0 
0.00108842 -0.00898848 0 
0.000704574 -0.00513295 0 
0.00272394 -0.0121309 0 
0.00203851 -0.0239321 0 
0.00651541 -0.0452501 0 
0.00164476 -0.0212007 0 
0.000237232 -0.00186451 0 
7.14656e-05 -0.00129021 0 
6.03404e-05 -0.000769054 0 
0.0700687 -0.256844 0 
0.123674 -0.250598 0 
0.0936676 -0.295473 0 
-0.00058835 -0.00288664 0 
-0.000183646 -0.00113049 0 
-0.000315518 -0.00250152 0 
5.93722e-05 -0.000169165 0 
0.000352434 -0.000598839 0 
0.000281534 -0.000662559 0 
0.0339049 -0.138932 0 
0.00913482 -0.0769262 0 
0.0196918 -0.0993604 0 
0.000382804 -0.000389301 0 
0.000844777 -0.00101979 0 
0.000411323 -0.000520785 0 
-0.000169469 0.000701312 0 
-2.00795e-05 0.000646154 0 
-0.00033174 0.000460544 0 
0.000175066 -0.000375068 0 
0.00135343 -0.00154944 0 
0.00140182 -0.00246717 0 
0.000518252 -0.00220944 0 
7.39661e-05 -0.000895197 0 
0.000346808 -0.00144764 0 
0.00231315 -0.0364437 0 
0.0150267 -0.0673853 0 
0.0125241 -0.065904 0 
0.00934313 -0.0488004 0 
0.00215713 -0.0247452 0 
0.00545008 -0.0351716 0 
0.0156353 -0.0474645 0 
0.0100636 -0.0406677 0 
0.00853014 -0.0335113 0 
0.000897691 -0.00886868 0 
0.00448296 -0.0180975 0 
0.00308914 -0.0169159 0 
0.0330117 -0.196621 0 
0.0499793 -0.196329 0 
0.0708376 -0.256246 0 
0.000124661 -0.00015317 0 
0.000407884 -0.000518259 0 
0.000345956 -0.000588762 0 
0.000120227 -0.000114921 0 
0.000395188 -0.000411016 0 
0.000400937 -0.000502571 0 
0.000870244 -0.00102028 0 
0.000806761 -0.00119075 0 
0.000388997 -0.00052036 0 
0.000136307 -0.00015359 0 
0.000130153 -9.82195e-05 0 
0.000391955 -0.000517685 0 
0.000115912 -0.00237825 0 
0.000364608 -0.00297684 0 
0.000441542 -0.00423054 0 
0.000115867 0.000213408 0 
0.000138636 0.000566776 0 
0.000343874 0.000447655 0 
-1.05284e-05 0.000404457 0 
-9.82192e-05 0.000268896 0 
-0.000170417 0.000286089 0 
0.0104768 -0.144703 0 
0.0222468 -0.142359 0 
0.0129123 -0.151932 0 
0.0275947 -0.115687 0 
0.0212862 -0.13894 0 
0.0338551 -0.125405 0 
0.0359948 -0.029413 0 
0.0237762 -0.0156638 0 
0.0244581 -0.01515 0 
0.0284813 -0.196817 0 
0.0753135 -0.256053 0 
0.043814 -0.265363 0 
6.19396e-06 4.80015e-05 0 
1.88315e-05 5.57668e-05 0 
-3.94527e-06 7.15806e-05 0 
0.0440748 -0.267006 0 
0.0422245 -0.330415 0 
0.0179007 -0.263824 0 
0.142742 -0.252375 0 
0.0869194 -0.319861 0 
0.0912206 -0.301359 0 
0.0823504 -0.327446 0 
0.0444112 -0.330911 0 
0.0936975 -0.297247 0 
0.120627 -0.245396 0 
0.134703 -0.252313 0 
0.0971408 -0.301404 0 
0.0003994 -0.000502809 0 
0.000797019 -0.00120719 0 
0.000352553 -0.000600775 0 
-5.27349e-05 2.4506e-05 0 
-4.75591e-05 2.93716e-05 0 
-2.71036e-05 5.78918e-05 0 
-3.93849e-06 6.075e-11 0 
-1.05944e-05 6.07232e-11 0 
-8.13058e-05 5.73549e-06 0 
-6.47773e-05 1.73245e-06 0 
0.000137433 -0.000159629 0 
1.21734e-05 -5.40241e-05 0 
0.000152444 -0.000133608 0 
-7.76722e-05 -2.06208e-05 0 
3.63507e-05 -4.90818e-05 0 
0.000405739 -0.000283825 0 
0.000168516 -0.000161438 0 
1.79366e-05 -1.71979e-05 0 
0.000202305 -8.3493e-05 0 
0.000428294 -0.000244753 0 
-2.11402e-06 -5.19312e-05 0 
0.000452004 -0.000285812 0 
0.000175785 -3.75654e-05 0 
0.000816576 -0.000420779 0 
-5.04955e-05 6.05959e-11 0 
1.96281e-05 6.05412e-11 0 
0.000417497 -6.0729e-05 0 
0.00146635 -0.000571024 0 
0.000744591 -8.15393e-05 0 
0.00212135 -0.000726554 0 
-7.46887e-05 6.04899e-11 0 
4.36464e-05 6.0434e-11 0 
0.00116894 -0.000102481 0 
0.0031644 -0.000896762 0 
0.00168904 -0.000129238 0 
0.00415111 -0.00107075 0 
-9.93578e-05 6.03836e-11 0 
7.20987e-05 6.03324e-11 0 
0.00231722 -0.000148486 0 
0.00305115 -0.000180061 0 
0.00700046 -0.00145563 0 
0.00564021 -0.00126051 0 
0.00709976 -0.00128365 0 
0.00295526 -0.00034614 0 
0.00401065 -0.000393163 0 
0.00876866 -0.0016696 0 
0.007201 -0.00145901 0 
0.00390298 -0.000206664 0 
-4.52149e-05 3.3808e-05 0 
-5.49046e-05 2.03998e-05 0 
-7.6318e-05 7.28654e-06 0 
-5.59494e-05 2.03803e-05 0 
-7.66e-06 -6.31915e-06 0 
-8.04375e-05 7.20995e-06 0 
-1.27239e-05 3.7259e-06 0 
-6.97979e-05 -1.81876e-05 0 
-8.1062e-05 5.30886e-06 0 
0.00500294 -0.000448874 0 
0.00888284 -0.00147183 0 
0.00379244 -0.000398123 0 
-8.92853e-05 5.27309e-06 0 
-5.33443e-05 -1.8116e-05 0 
2.6292e-06 -3.74548e-05 0 
0.00487913 -0.000234419 0 
0.0107954 -0.00190669 0 
0.00899915 -0.00167327 0 
0.0109264 -0.00167976 0 
0.00475213 -0.000454377 0 
0.0061345 -0.000510813 0 
0.0131165 -0.00217958 0 
0.0110598 -0.0019108 0 
0.00599198 -0.000263968 0 
0.000847613 -0.000367016 0 
0.000147459 -8.66322e-05 0 
0.000451556 -0.000120678 0 
-2.14601e-05 7.11663e-05 0 
0.000700448 -0.000160335 0 
0.00045407 -0.000124074 0 
0.000203181 -8.6632e-05 0 
-2.04892e-05 5.19734e-05 0 
0.000382886 -0.000120679 0 
-0.00017651 6.01646e-11 0 
0.000161695 6.01254e-11 0 
0.00726452 -0.000292895 0 
0.000790084 -0.000160336 0 
0.00142459 -0.000498701 0 
0.000378439 -0.000124074 0 
0.00217189 -0.000639017 0 
0.000696999 -0.000163972 0 
0.0012234 -0.000202311 0 
0.000794102 -0.000163972 0 
-2.18259e-05 9.15612e-05 0 
0.0011113 -0.000202311 0 
-2.16465e-05 0.000113091 0 
0.00162074 -0.000246489 0 
0.00122881 -0.000206175 0 
0.0042243 -0.00094397 0 
0.00161899 -0.000250575 0 
0.00239525 -0.000292843 0 
0.00175674 -0.000246489 0 
0.00310132 -0.000787499 0 
0.00110876 -0.000206175 0 
0.0306449 -0.00717602 0 
0.0260004 -0.00605238 0 
0.0191036 -0.00259197 0 
0.00176342 -0.000250575 0 
-2.09972e-05 0.000135725 0 
0.00223388 -0.000292843 0 
-1.99938e-05 0.000159509 0 
0.00295601 -0.000341547 0 
0.00240306 -0.000297161 0 
0.00314438 -0.000341547 0 
0.00555265 -0.00110884 0 
0.00223276 -0.000297161 0 
0.0126986 -0.000932824 0 
0.0228513 -0.00305912 0 
0.0101636 -0.000794651 0 
0.0124071 -0.000427863 0 
0.0271284 -0.00431286 0 
0.0231088 -0.00350515 0 
0.0274466 -0.00376171 0 
0.0121044 -0.000952048 0 
0.0152332 -0.00115215 0 
-2.03618e-05 0.000315332 0 
0.00852765 -0.000669649 0 
0.00743616 -0.000590194 0 
0.00742597 -0.000582514 0 
0.0132674 -0.0019183 0 
0.0058458 -0.000517158 0 
0.0329243 -0.00558315 0 
0.0277712 -0.00432383 0 
0.0148514 -0.000490772 0 
0.00891007 -0.000669649 0 
0.0159639 -0.00220518 0 
0.00709112 -0.000590194 0 
-1.77415e-05 0.000274996 0 
0.0070973 -0.000582514 0 
0.00614487 -0.000517158 0 
0.0161426 -0.00251478 0 
0.00871577 -0.000333105 0 
0.0189008 -0.0029287 0 
0.0185113 -0.00149192 0 
0.0333462 -0.00485244 0 
0.0144521 -0.00118231 0 
0.0258303 -0.00575776 0 
0.0157923 -0.00251478 0 
0.019298 -0.0029287 0 
0.0337719 -0.0055899 0 
0.0179747 -0.000562589 0 
0.0408396 -0.00777681 0 
0.0230799 -0.00349584 0 
0.0308438 -0.00683157 0 
0.0189049 -0.00293601 0 
0.0414364 -0.00674307 0 
0.0174102 -0.00154028 0 
0.0230946 -0.00210031 0 
0.0104052 -0.000376157 0 
0.0225991 -0.00349584 0 
0.01932 -0.00293601 0 
0.0526879 -0.012107 0 
0.042016 -0.00774686 0 
0.0222773 -0.000684792 0 
0.0301623 -0.0035855 0 
0.0536355 -0.0104656 0 
0.0214102 -0.00218666 0 
0.0544321 -0.0118454 0 
0.0286324 -0.00093559 0 
0.0734838 -0.0230244 0 
0.00220604 -0.355849 0 
-0.00106825 -0.316456 0 
0.0432747 -0.332516 0 
0.074284 -0.0216385 0 
0.0269948 -0.00377188 0 
0.0460662 -0.0064725 0 
0.00607759 -0.0100106 0 
0.00303716 -0.00615063 0 
0.00346186 -0.00497572 0 
0.053018 -0.0711086 0 
0.0506562 -0.0727011 0 
0.0491783 -0.0720759 0 
0.0512914 -0.064114 0 
0.0548302 -0.0675733 0 
0.0504742 -0.0689084 0 
0.00478908 -0.00970623 0 
0.00546548 -0.012653 0 
0.0036883 -0.00983768 0 
0.00626317 -0.00514042 0 
0.00350198 -0.00301485 0 
0.00251593 -0.00170691 0 
0.110188 -0.053098 0 
0.0742906 -0.0216498 0 
0.0459583 -0.00628567 0 
0.00686068 -0.00858729 0 
0.00612731 -0.0099225 0 
0.00341419 -0.00506018 0 
0.00154676 -0.003712 0 
0.00201231 -0.00536849 0 
0.00110027 -0.00364233 0 
0.0232958 -0.0394323 0 
0.0188445 -0.0305338 0 
0.0251525 -0.0374051 0 
0.00198355 -0.00536847 0 
0.0013987 -0.00524506 0 
0.00112902 -0.00364235 0 
0.0188502 -0.0305338 0 
0.0206364 -0.0284888 0 
0.0251787 -0.0374051 0 
0.0054669 -0.00125736 0 
0.00429921 -0.00107371 0 
0.00231525 -0.000154284 0 
0.0311455 -0.0552678 0 
0.0260923 -0.0577107 0 
0.0256213 -0.0505853 0 
0.031125 -0.0552323 0 
0.0316455 -0.0622543 0 
0.0261264 -0.0577697 0 
0.00262245 -0.00189574 0 
0.00341575 -0.00286197 0 
0.000903854 -0.000850238 0 
-8.79148e-11 -0.00705629 0 
-7.75614e-11 -0.000406835 0 
0.00582413 -0.164198 0 
-0.0169127 -0.0936039 0 
-0.0242153 -0.088256 0 
-0.02226 -0.0736154 0 
0.0018702 -0.000653691 0 
-0.000232922 0.000438607 0 
0.00345305 -0.00111626 0 
-0.0243085 -0.0884178 0 
-0.0270799 -0.0634983 0 
-0.0222083 -0.0735255 0 
0.0449068 -0.0756432 0 
0.0455765 -0.0740214 0 
0.047672 -0.0736357 0 
0.0289594 -0.140783 0 
-0.00351751 -0.322174 0 
0.137301 -0.203353 0 
0.00264885 -0.0096494 0 
0.00398697 -0.0126571 0 
0.00262802 -0.0123121 0 
0.0421078 -0.0687709 0 
0.037173 -0.0659322 0 
0.0419646 -0.0630779 0 
0.003131 -0.00146432 0 
0.00498707 -0.00297269 0 
0.000809251 -0.00082049 0 
0.0466777 -0.0662112 0 
0.0421269 -0.0687379 0 
0.0419579 -0.0630895 0 
0.00786047 -0.0714997 0 
0.0144732 -0.0785269 0 
0.00735446 -0.0807401 0 
0.00138421 -0.000568643 0 
0.000879909 -0.000422952 0 
0.000415977 -5.90564e-05 0 
0.0371142 -0.0659345 0 
0.0317149 -0.0622567 0 
0.0366677 -0.0594197 0 
-0.0014565 -6.40734e-11 0 
-0.000699069 -6.69687e-11 0 
0.0103152 -0.000726312 0 
0.0421426 -0.0687652 0 
0.0466821 -0.0662187 0 
0.0462555 -0.0707959 0 
0.0460135 -0.0733746 0 
0.0449378 -0.0756969 0 
0.0476538 -0.0736041 0 
0.00512827 -0.00324713 0 
0.00638602 -0.00494554 0 
0.00238508 -0.00191448 0 
0.0371442 -0.0658824 0 
0.0366504 -0.0594497 0 
0.0419741 -0.0630944 0 
0.0316795 -0.0621954 0 
0.0311033 -0.0552698 0 
0.0366861 -0.0594515 0 
0.0466577 -0.066205 0 
0.0512464 -0.064192 0 
0.0505086 -0.0688489 0 
0.00167667 -0.0183238 0 
0.00380837 -0.0194821 0 
0.00321933 -0.0233124 0 
-0.000664228 0.00124926 0 
0.00880481 -0.00310788 0 
0.00427785 -0.00115492 0 
0.00402218 -0.0127181 0 
0.00411766 -0.0158401 0 
0.00258878 -0.0122441 0 
0.000140316 0.000250514 0 
-3.79355e-05 7.57808e-05 0 
1.16682e-05 0.000403224 0 
0.011348 -0.00484688 0 
0.00955142 -0.00286258 0 
0.0140761 -0.00560361 0 
0.00303984 -0.000893982 0 
0.00222393 -0.00072914 0 
0.00116719 -0.000104961 0 
0.00329006 -0.0012503 0 
0.0111313 -0.00288323 0 
0.0151889 -0.00732491 0 
0.0875604 -0.0353985 0 
0.0536977 -0.0118454 0 
0.0744403 -0.0230244 0 
0.0504995 -0.0688439 0 
0.0529864 -0.0710539 0 
0.0491937 -0.0721026 0 
0.00119924 -0.0720558 0 
0.00797179 -0.0713069 0 
0.00721616 -0.0809796 0 
0.115032 -0.0615875 0 
0.0870665 -0.034543 0 
0.0749149 -0.0238464 0 
0.050437 -0.0688439 0 
0.0548874 -0.0676725 0 
0.0530655 -0.0710539 0 
0.00102572 -0.000551702 0 
0.00477404 -0.0032372 0 
0.00262994 -0.00192135 0 
0.00898767 -0.0016696 0 
0.0119686 -0.00328352 0 
0.00700249 -0.00145901 0 
-0.0170198 -0.0933167 0 
-0.0156273 -0.0795729 0 
-0.00872809 -0.0951108 0 
0.000812391 -0.00237843 0 
0.00153832 -0.00369731 0 
0.00111206 -0.00366285 0 
0.00240055 -0.00735544 0 
0.00137883 -0.00521064 0 
0.00200051 -0.00539784 0 
0.011331 -0.0104351 0 
0.00704281 -0.00695218 0 
0.00638956 -0.00497993 0 
0.0188506 -0.0305232 0 
0.0232767 -0.0394655 0 
0.0169736 -0.0325003 0 
0.0320454 -0.097153 0 
0.0387912 -0.0918508 0 
0.0354853 -0.100344 0 
0.00192784 -0.00111847 0 
0.00123441 -0.000814793 0 
0.00084628 -0.000366118 0 
0.00403311 -0.0158401 0 
0.00235536 -0.0152203 0 
0.00267272 -0.0122441 0 
0.00542159 -0.012653 0 
0.00402291 -0.0127076 0 
0.00373307 -0.00983768 0 
0.000932062 -0.000869304 0 
0.000276318 -5.91122e-05 0 
-0.000251022 0.000145241 0 
0.104908 -0.0695281 0 
0.0924664 -0.0433245 0 
0.109644 -0.0659796 0 
-6.16905e-11 5.59617e-05 0 
-6.17515e-11 -2.60902e-05 0 
-6.68443e-05 0.000265478 0 
0.027112 -0.0354766 0 
0.0331844 -0.0435187 0 
0.0313447 -0.0447565 0 
0.00319031 -0.00738162 0 
0.00238028 -0.00739054 0 
0.00201762 -0.0053682 0 
0.00322412 -0.00738203 0 
0.0047731 -0.00967855 0 
0.00370797 -0.00987175 0 
0.014632 -0.00395387 0 
0.0120679 -0.0034555 0 
0.00888057 -0.00148409 0 
0.00849393 -0.0292579 0 
0.00577963 -0.0241345 0 
0.00854525 -0.0243456 0 
0.0317218 -0.0622543 0 
0.0263684 -0.0649264 0 
0.0260472 -0.0577697 0 
1.65763e-05 4.51678e-05 0 
-9.53111e-05 0.000284015 0 
-6.39849e-06 0.000425927 0 
0.0395037 -0.102231 0 
0.0414741 -0.0914863 0 
0.04425 -0.0889583 0 
0.10859 -0.0558662 0 
0.0468728 -0.00470183 0 
0.0857746 -0.039653 0 
0.0211583 -0.00735861 0 
0.0175608 -0.00643204 0 
0.0147421 -0.00377981 0 
0.00230618 -0.0151351 0 
0.0040778 -0.0159175 0 
0.00385838 -0.0193885 0 
0.00415158 -0.00107371 0 
0.00563141 -0.00125736 0 
0.00746506 -0.00244711 0 
0.00555071 -0.00111756 0 
0.00946795 -0.00299733 0 
0.00754006 -0.002577 0 
0.0448746 -0.0756969 0 
0.0460619 -0.0733746 0 
0.0443018 -0.075564 0 
0.0209619 -0.115365 0 
0.0315309 -0.111396 0 
0.0254308 -0.122507 0 
0.041668 -0.0918219 0 
0.0392667 -0.101821 0 
0.0352733 -0.100752 0 
0.00947201 -0.00300011 0 
0.0120557 -0.00345274 0 
0.0141568 -0.00546397 0 
0.00967139 -0.0482039 0 
0.0168666 -0.0674913 0 
0.00739128 -0.0452617 0 
0.00120606 -0.000765703 0 
0.00040163 -0.00028581 0 
0.000877843 -0.000420782 0 
0.00235984 -0.00735514 0 
0.00320733 -0.00741111 0 
0.00372804 -0.009837 0 
0.00648222 -0.00514042 0 
0.00696466 -0.00681682 0 
0.00331928 -0.00301485 0 
0.0168723 -0.0176551 0 
0.011328 -0.012691 0 
0.0114207 -0.0103715 0 
0.0769 -0.067454 0 
0.070958 -0.0587346 0 
0.0766466 -0.0579484 0 
0.0385921 -0.0915059 0 
0.0412417 -0.0918219 0 
0.035721 -0.100752 0 
0.0908214 -0.0433245 0 
0.0879283 -0.0364305 0 
0.111862 -0.0659796 0 
0.0320197 -0.0690104 0 
0.0264287 -0.0650309 0 
0.0316782 -0.0621787 0 
-0.00861613 -0.109893 0 
-0.016771 -0.0937478 0 
-0.0089318 -0.0947579 0 
0.030476 -0.0321142 0 
0.0288689 -0.0339365 0 
0.0235956 -0.0238415 0 
0.0712015 -0.0591564 0 
0.0694291 -0.0488688 0 
0.0763563 -0.0574457 0 
0.089018 -0.034543 0 
0.112017 -0.0615875 0 
0.110705 -0.0679827 0 
0.0148426 -0.00395387 0 
0.0174691 -0.00627324 0 
0.0118767 -0.0034555 0 
0.000828992 -0.000792396 0 
0.000656501 -0.000497545 0 
0.00142349 -0.00123195 0 
0.000492245 -0.00221114 0 
0.000801931 -0.0023971 0 
0.00112328 -0.00364283 0 
0.0408135 -0.0543342 0 
0.0425943 -0.0629178 0 
0.038573 -0.0527157 0 
-0.00064153 -0.0256406 0 
-0.00144616 -0.0196572 0 
0.000718693 -0.021952 0 
0.0218001 -0.0631368 0 
0.0304881 -0.0772375 0 
0.0201084 -0.0658316 0 
0.000640212 -0.0218161 0 
-0.0013609 -0.0198048 0 
1.36826e-06 -0.0166871 0 
0.0114574 -0.0104351 0 
0.0112917 -0.012628 0 
0.00691437 -0.00695218 0 
0.014346 -0.0783002 0 
0.0144239 -0.0698995 0 
0.0208906 -0.0755001 0 
0.0398589 -0.0601554 0 
0.0368991 -0.052472 0 
0.0409546 -0.0608143 0 
0.00173442 -0.0184368 0 
0.000793122 -0.0218161 0 
-0.000147759 -0.0166871 0 
0.000721191 -0.0219407 0 
0.00179961 -0.0183238 0 
0.00309583 -0.0233124 0 
0.00923725 -0.0163085 0 
0.0145901 -0.0221238 0 
0.0128816 -0.0238593 0 
0.00585904 -0.0241345 0 
0.00841807 -0.0292579 0 
0.00521173 -0.0289124 0 
0.0371455 -0.0658621 0 
0.0374041 -0.0718274 0 
0.0321415 -0.0690118 0 
-0.0175571 -0.0217125 0 
-0.0124873 -0.0123002 0 
-0.0105756 -0.0116834 0 
0.10411 -0.0680356 0 
0.097848 -0.0698438 0 
0.0911423 -0.0491911 0 
0.0355425 -0.0429294 0 
0.0406537 -0.0540573 0 
0.0386909 -0.0529198 0 
0.0211087 -0.0834772 0 
0.0144911 -0.0785515 0 
0.0207655 -0.0752834 0 
-0.00127044 -0.0196572 0 
-0.000821486 -0.0256406 0 
-0.00306848 -0.0230377 0 
0.0371873 -0.0659345 0 
0.0320802 -0.0689056 0 
0.0316332 -0.0622567 0 
0.0615543 -0.0423318 0 
0.0560845 -0.0325616 0 
0.0640483 -0.0383083 0 
0.0985027 -0.0687098 0 
0.0863202 -0.0530731 0 
0.0904783 -0.0503411 0 
0.0603951 -0.0539799 0 
0.0583305 -0.0453987 0 
0.0647338 -0.0514703 0 
0.00173587 -0.0184264 0 
0.00240952 -0.0151351 0 
0.0037543 -0.0193885 0 
0.0919511 -0.160114 0 
0.116973 -0.167021 0 
0.0960183 -0.189565 0 
0.0180366 -0.00452408 0 
0.0212603 -0.00718188 0 
0.01464 -0.00395657 0 
-0.011919 -0.0115576 0 
-0.00537015 -0.00411647 0 
-0.0109541 -0.0121779 0 
0.0273681 -0.105349 0 
0.0308792 -0.111395 0 
0.0216012 -0.115365 0 
0.0444184 -0.0886667 0 
0.0413229 -0.0917482 0 
0.0445586 -0.0799812 0 
0.0041212 -0.0158424 0 
0.00598373 -0.0198743 0 
0.00381054 -0.0194713 0 
0.0233805 -0.023892 0 
0.0221957 -0.0263295 0 
0.0169425 -0.0176161 0 
0.0220974 -0.0636079 0 
0.01966 -0.065121 0 
0.0115913 -0.0491405 0 
0.045762 -0.0730406 0 
0.0445143 -0.0888327 0 
0.0444865 -0.0798562 0 
0.00386029 -0.0193922 0 
0.00576616 -0.0241282 0 
0.00316255 -0.0234107 0 
0.065899 -0.0601856 0 
0.0649326 -0.0667213 0 
0.0606549 -0.061059 0 
0.0433577 -0.0990147 0 
0.05711 -0.101783 0 
0.0602894 -0.112307 0 
0.0445148 -0.0106414 0 
0.0271412 -0.00432383 0 
0.0337091 -0.00558315 0 
0.0357734 -0.100796 0 
0.0312021 -0.110836 0 
0.0270849 -0.105839 0 
0.0234734 -0.024053 0 
0.0289811 -0.0337422 0 
0.0221342 -0.026223 0 
0.0887747 -0.0808611 0 
0.08294 -0.0680587 0 
0.0905042 -0.0694069 0 
0.0312715 -0.0772378 0 
0.0300855 -0.0818294 0 
0.0192489 -0.0658313 0 
-0.000343557 -6.28195e-11 0 
2.03075e-05 -6.33307e-11 0 
0.00167472 -0.000315116 0 
0.0200655 -0.0658524 0 
0.0173456 -0.0666114 0 
0.00926563 -0.0489492 0 
0.0643444 -0.163293 0 
0.0929213 -0.161786 0 
0.0947342 -0.187352 0 
0.0477265 -0.0709544 0 
0.0453394 -0.0536594 0 
0.0475721 -0.084622 0 
0.00588205 -0.0161086 0 
0.00606224 -0.0198743 0 
0.00404184 -0.0158424 0 
-0.00475457 -0.0195867 0 
-0.00283972 -0.0169009 0 
-0.00317936 -0.0228607 0 
0.0916114 -0.0448054 0 
0.105769 -0.0680356 0 
0.0898254 -0.0491911 0 
-0.000518978 -6.33707e-11 0 
-2.23724e-05 -6.39762e-11 0 
0.0039033 -0.000425913 0 
0.046038 -0.0733332 0 
0.0444182 -0.0711948 0 
0.0443333 -0.0756186 0 
0.0506245 -0.0727011 0 
0.047649 -0.0736239 0 
0.049198 -0.0720759 0 
-0.00797633 -0.0397409 0 
-0.00380403 -0.0437903 0 
-0.00649018 -0.0504138 0 
0.0467447 -0.0823507 0 
0.0433592 -0.100837 0 
0.0444883 -0.0886615 0 
0.118175 -0.166058 0 
0.13767 -0.152789 0 
0.125078 -0.201267 0 
-0.00304224 -0.0169009 0 
-0.00136161 -0.0198151 0 
-0.00296633 -0.0228607 0 
-6.13434e-11 1.91156e-05 0 
-6.15591e-11 0.000100149 0 
7.29195e-05 0.000207221 0 
0.0322766 -0.0967526 0 
0.0352242 -0.100796 0 
0.0276431 -0.105839 0 
0.0723021 -0.108739 0 
0.087547 -0.110272 0 
0.078964 -0.122072 0 
0.00962922 -0.00299733 0 
0.0112762 -0.00472263 0 
0.00739434 -0.002577 0 
0.0606891 -0.112999 0 
0.05679 -0.101229 0 
0.0719761 -0.109006 0 
0.04297 -0.0904709 0 
0.0413974 -0.0827319 0 
0.0530549 -0.0924865 0 
0.0144032 -0.125021 0 
0.0212698 -0.114833 0 
0.0250831 -0.123107 0 
0.00315816 -0.000893982 0 
0.00418147 -0.00171055 0 
0.0021201 -0.00072914 0 
0.0375311 -0.0718274 0 
0.0325301 -0.0752047 0 
0.0320058 -0.0690118 0 
0.00117679 -0.00081479 0 
0.00199504 -0.00111847 0 
0.00232371 -0.00167522 0 
0.0755171 -0.0418115 0 
0.0769638 -0.0373578 0 
0.0872137 -0.0531632 0 
0.0484369 -0.0281292 0 
0.0558766 -0.0325937 0 
0.054111 -0.0368044 0 
0.0829795 -0.0680698 0 
0.0766076 -0.0679604 0 
0.0769544 -0.0574152 0 
0.0967248 -0.0847723 0 
0.0883324 -0.0816273 0 
0.0909947 -0.0685574 0 
-0.015508 -0.0793661 0 
-0.017186 -0.0936045 0 
-0.022082 -0.0736151 0 
-0.0189306 -0.0448951 0 
-0.0197777 -0.0348744 0 
-0.0156016 -0.0306195 0 
0.0306552 -0.0324245 0 
0.0355519 -0.0429357 0 
0.0287396 -0.0337125 0 
0.0251599 -0.0374377 0 
0.0206661 -0.0284374 0 
0.0269826 -0.0354974 0 
0.0295593 -0.0882611 0 
0.0270559 -0.091974 0 
0.0136292 -0.0675698 0 
0.00376173 -0.00309419 0 
0.00346989 -0.00220844 0 
0.00526887 -0.00393311 0 
0.0614101 -0.0420819 0 
0.0642136 -0.0385946 0 
0.0693752 -0.0489034 0 
0.070418 -0.0672936 0 
0.0674789 -0.0728433 0 
0.0646051 -0.0667213 0 
0.0484961 -0.0237164 0 
0.0560113 -0.0325937 0 
0.0483382 -0.0281292 0 
0.00854859 -0.0243354 0 
0.00829007 -0.0197994 0 
0.0112001 -0.0238309 0 
0.00405209 -0.0126571 0 
0.0025841 -0.0096494 0 
0.00370757 -0.00988186 0 
0.00581808 -0.0242011 0 
0.00606372 -0.0198784 0 
0.00851065 -0.0242856 0 
0.0904892 -0.0694511 0 
0.08736 -0.0530731 0 
0.0972438 -0.0687098 0 
0.0533355 -0.0784269 0 
0.050492 -0.0746184 0 
0.0567042 -0.0766446 0 
-6.15416e-11 5.70895e-05 0 
-6.16955e-11 3.69722e-05 0 
-2.03796e-05 0.000419015 0 
0.0023499 -0.00172565 0 
0.00249097 -0.0022827 0 
0.00142251 -0.00123369 0 
0.0248793 -0.0435758 0 
0.0256315 -0.0505797 0 
0.0204837 -0.045488 0 
0.0567057 -0.101184 0 
0.0423678 -0.0904705 0 
0.0535606 -0.0924869 0 
-0.000410169 -0.0940624 0 
-0.00888554 -0.0947673 0 
-0.00806711 -0.08221 0 
0.00194919 -0.00357177 0 
0.00108463 -0.00234846 0 
0.00134043 -0.00221342 0 
-0.00487266 -0.0193821 0 
-0.00307 -0.0230502 0 
-0.00509833 -0.0263273 0 
0.0067913 -0.0122484 0 
0.00544713 -0.0126847 0 
0.0048044 -0.0096797 0 
0.0654489 -0.0283777 0 
0.0766473 -0.0368097 0 
0.0757944 -0.0422918 0 
0.072052 -0.0917205 0 
0.0663371 -0.0983735 0 
0.0612148 -0.0900968 0 
0.0540269 -0.0366589 0 
0.0559713 -0.0327577 0 
0.0616806 -0.0421131 0 
0.0342722 -0.025291 0 
0.0325365 -0.0286815 0 
0.028671 -0.0223703 0 
0.030253 -0.0482039 0 
0.0311119 -0.0552678 0 
0.0256586 -0.0505853 0 
0.00703077 -0.00696129 0 
0.00681017 -0.00848349 0 
0.00365327 -0.00414109 0 
0.0331628 -0.0435093 0 
0.0353817 -0.0432079 0 
0.0388175 -0.0527005 0 
0.0443657 -0.075642 0 
0.0426431 -0.0792282 0 
0.0421665 -0.0790055 0 
0.0359996 -0.0897332 0 
0.0300179 -0.0920675 0 
0.0344242 -0.08572 0 
0.0112056 -0.00484491 0 
0.00885576 -0.00413963 0 
0.00746349 -0.00245722 0 
0.0431304 -0.10044 0 
0.0390659 -0.102232 0 
0.0446595 -0.0889581 0 
-0.00336324 -0.00379472 0 
-0.00169745 -0.00130978 0 
-0.00180168 -0.00152725 0 
0.00851579 -0.000679472 0 
0.0106391 -0.000781331 0 
0.0191083 -0.00256927 0 
0.00914038 -0.0262598 0 
0.00737084 -0.027092 0 
0.00436018 -0.0181403 0 
0.0105068 -0.00785996 0 
0.00649099 -0.00512736 0 
0.00499476 -0.00301588 0 
0.00846115 -0.0293147 0 
0.0085765 -0.0242914 0 
0.0116683 -0.0289828 0 
0.00709767 -0.00129414 0 
0.0118709 -0.00345274 0 
0.00963968 -0.00300011 0 
0.0244099 -0.0166996 0 
0.028653 -0.0223752 0 
0.0236554 -0.0196801 0 
0.0659265 -0.0853149 0 
0.0720167 -0.0917816 0 
0.0612181 -0.0900912 0 
0.024875 -0.0435833 0 
0.0302576 -0.0482118 0 
0.0256434 -0.050559 0 
-0.0122285 -0.0203251 0 
-0.00961479 -0.0185529 0 
-0.0127607 -0.0275454 0 
0.0663409 -0.0983735 0 
0.0719782 -0.0917205 0 
0.0791752 -0.0999299 0 
0.0415881 -0.0831244 0 
0.0402391 -0.076634 0 
0.0501143 -0.0849272 0 
0.0113378 -0.00484491 0 
0.012305 -0.0067452 0 
0.0087363 -0.00413963 0 
0.0449955 -0.108764 0 
0.0438335 -0.09819 0 
0.0597721 -0.113204 0 
0.0657296 -0.0598922 0 
0.0607943 -0.0613005 0 
0.0605459 -0.0537302 0 
0.0233253 -0.0394655 0 
0.0214637 -0.0415494 0 
0.0168983 -0.0325003 0 
0.00412894 -0.00180154 0 
0.00299267 -0.00145089 0 
0.00217031 -0.000642176 0 
0.0367636 -0.052472 0 
0.0386819 -0.052889 0 
0.0410985 -0.0608143 0 
6.09459e-11 -1.94577e-05 0 
6.09252e-11 3.95664e-05 0 
5.20274e-05 -0.000584738 0 
0.07022 -0.0669506 0 
0.0647689 -0.067005 0 
0.0660753 -0.0598803 0 
0.00852322 -0.0242914 0 
0.0112228 -0.0238702 0 
0.0117182 -0.0289828 0 
0.107311 -0.053098 0 
0.113448 -0.0643311 0 
0.0761831 -0.0216498 0 
0.0469817 -0.0821593 0 
0.0455799 -0.0621904 0 
0.0475514 -0.0709608 0 
0.0469672 -0.0821845 0 
0.0475819 -0.070908 0 
0.0464806 -0.0953686 0 
0.0290134 -0.0337125 0 
0.0352246 -0.0429357 0 
0.0332747 -0.0437031 0 
0.017326 -0.0664966 0 
0.0281924 -0.0882614 0 
0.0149964 -0.0675696 0 
0.00370536 -0.00309419 0 
0.00533288 -0.00393311 0 
0.00536461 -0.00492313 0 
0.00977475 -0.00747312 0 
0.0127279 -0.00885789 0 
0.0125082 -0.010723 0 
-0.00295716 -0.00394429 0 
-0.00331816 -0.00379485 0 
-0.00183784 -0.00152714 0 
0.060895 -0.0803933 0 
0.0533584 -0.0784269 0 
0.056658 -0.0766446 0 
0.0458355 -0.0730737 0 
0.0458023 -0.0621904 0 
0.0468402 -0.0821593 0 
0.015952 -0.0213285 0 
0.0123531 -0.0181103 0 
0.013985 -0.0166026 0 
-0.00695028 -0.0222258 0 
-0.00462907 -0.0193821 0 
-0.00535523 -0.0263273 0 
0.0432082 -0.0776914 0 
0.0409358 -0.0846824 0 
0.0426626 -0.079219 0 
0.0082454 -0.0197994 0 
0.0104084 -0.0192198 0 
0.0112423 -0.0238309 0 
-0.0122035 -0.0203167 0 
-0.014432 -0.0209565 0 
-0.0101448 -0.012263 0 
0.038722 -0.0674257 0 
0.0457154 -0.0740291 0 
0.0394156 -0.0717338 0 
0.0441057 -0.0668414 0 
0.0457577 -0.073048 0 
0.0444697 -0.0798853 0 
-0.00372857 -0.0436596 0 
-0.00132871 -0.0532939 0 
-0.00657173 -0.0505551 0 
0.0875282 -0.110272 0 
0.097065 -0.123712 0 
0.0788227 -0.122072 0 
0.00658227 -0.00840707 0 
0.00800294 -0.0114761 0 
0.0057762 -0.00919486 0 
0.00246685 -0.00283308 0 
0.00351321 -0.00450915 0 
0.00228522 -0.00328394 0 
0.0833292 -0.0687327 0 
0.0823911 -0.0556497 0 
0.0900298 -0.0685852 0 
0.0160625 -0.0102671 0 
0.0198592 -0.0146241 0 
0.0159728 -0.0126416 0 
0.0294917 -0.0190146 0 
0.0342555 -0.025291 0 
0.0286944 -0.0223703 0 
0.0514046 -0.0404673 0 
0.0470978 -0.0322367 0 
0.0540341 -0.036684 0 
0.0400833 -0.0769042 0 
0.047898 -0.0788363 0 
0.0502756 -0.0846474 0 
0.010528 -0.0146435 0 
0.0145475 -0.0221237 0 
0.00929748 -0.0163087 0 
0.113841 -0.0647481 0 
0.13109 -0.10143 0 
0.109375 -0.0656781 0 
0.000108221 -0.00055348 0 
-4.99575e-05 1.1777e-05 0 
9.41895e-05 -0.000373675 0 
-0.000710203 -1.0237e-05 0 
-0.000116782 0.000727736 0 
-0.000822628 -0.000127361 0 
0.0462591 -0.0707896 0 
0.04669 -0.066205 0 
0.0504574 -0.0688489 0 
0.0212619 -0.0831788 0 
0.0221953 -0.0913999 0 
0.0148711 -0.0876436 0 
0.00465085 -0.0066176 0 
0.00658694 -0.00841515 0 
0.00577517 -0.00919308 0 
0.0580567 -0.0453987 0 
0.0615724 -0.0423678 0 
0.065062 -0.0514703 0 
0.0461582 -0.0953686 0 
0.0476992 -0.070908 0 
0.0475752 -0.0846272 0 
-0.0145382 -0.0395397 0 
-0.0182906 -0.0448951 0 
-0.016232 -0.0306196 0 
0.00106987 -0.0718781 0 
-0.0002545 -0.0823834 0 
-0.00585497 -0.0710731 0 
0.0226221 -0.0913999 0 
0.0158064 -0.0965979 0 
0.0144513 -0.0876436 0 
0.0470632 -0.0823507 0 
0.0463578 -0.0951559 0 
0.0429499 -0.100837 0 
0.0392184 -0.0717338 0 
0.0458715 -0.0740291 0 
0.0477734 -0.0786431 0 
0.00638005 -0.0452537 0 
0.0179056 -0.0674996 0 
0.0142634 -0.066301 0 
0.0431883 -0.100424 0 
0.046031 -0.095722 0 
0.0399509 -0.115529 0 
0.0383769 -0.0426165 0 
0.041861 -0.0395127 0 
0.0443852 -0.0468157 0 
0.017801 -0.0194146 0 
0.0159559 -0.0213218 0 
0.0139802 -0.016611 0 
0.0393273 -0.0715452 0 
0.0476619 -0.0788361 0 
0.040375 -0.0769045 0 
0.0671437 -0.0728433 0 
0.0619418 -0.0717151 0 
0.064912 -0.0667213 0 
0.143511 -0.111483 0 
0.111434 -0.0608421 0 
0.110362 -0.0583824 0 
0.0408292 -0.0844978 0 
0.0393014 -0.0836513 0 
0.0427502 -0.0793707 0 
0.127578 -0.10143 0 
0.118009 -0.0968219 0 
0.112257 -0.0656781 0 
0.0721926 -0.108631 0 
0.0565556 -0.101635 0 
0.066437 -0.0985034 0 
0.0533483 -0.0784443 0 
0.0609204 -0.0803494 0 
0.0568821 -0.0835336 0 
0.00353305 -0.00450915 0 
0.00312638 -0.00499138 0 
0.00226884 -0.00328394 0 
0.0159108 -0.0126416 0 
0.0199257 -0.0146241 0 
0.0191445 -0.0171099 0 
-0.00031282 9.80494e-05 0 
-0.00113396 -0.000969711 0 
0.000364902 0.000253335 0 
0.00376306 -0.00386045 0 
0.00373136 -0.00304917 0 
0.005339 -0.00496748 0 
0.0298185 -0.0917221 0 
0.0279903 -0.0859954 0 
0.0345931 -0.0860125 0 
0.0413527 -0.0203548 0 
0.04847 -0.0236712 0 
0.0483656 -0.0281768 0 
0.0532893 -0.0920801 0 
0.0411712 -0.0831241 0 
0.0504585 -0.0849274 0 
0.0214342 -0.0834772 0 
0.0146726 -0.0872998 0 
0.0141764 -0.0785515 0 
0.0689523 -0.0488688 0 
0.0729945 -0.0462562 0 
0.0769209 -0.0574457 0 
0.0316615 -0.0631303 0 
0.0388069 -0.0675727 0 
0.0393036 -0.0715397 0 
0.00376486 -0.0193922 0 
0.00602492 -0.0199456 0 
0.00586018 -0.0241282 0 
0.0251322 -0.0373897 0 
0.0270413 -0.0355991 0 
0.0313989 -0.0446627 0 
0.0119251 -0.0484415 0 
0.0193049 -0.0658648 0 
0.00999385 -0.0489374 0 
0.0201337 -0.024695 0 
0.0248692 -0.0281791 0 
0.0221309 -0.0305381 0 
0.0384014 -0.0426589 0 
0.0358435 -0.0355059 0 
0.0418254 -0.039451 0 
0.0126926 -0.00879686 0 
0.0159024 -0.0126413 0 
0.0125395 -0.0107772 0 
0.0154975 -0.00783655 0 
0.0112113 -0.00484688 0 
0.0142265 -0.00560361 0 
0.0374198 -0.0430401 0 
0.0353785 -0.043236 0 
0.0308599 -0.0320699 0 
0.00154552 -0.00159755 0 
0.000791226 -0.000792379 0 
0.00146744 -0.00123197 0 
0.0369164 -0.00845227 0 
0.0514559 -0.0170906 0 
0.0434103 -0.0137492 0 
0.050179 -0.0512091 0 
0.0459103 -0.0540144 0 
0.0443974 -0.0468056 0 
-0.015007 -0.0209568 0 
-0.0109765 -0.0122238 0 
-0.00966436 -0.0122627 0 
0.0168814 -0.0176551 0 
0.0159549 -0.0200158 0 
0.0112895 -0.012691 0 
0.0301214 -0.0317771 0 
0.0248746 -0.0281779 0 
0.0270919 -0.0254337 0 
-0.014719 -0.0214884 0 
-0.0168246 -0.0217142 0 
-0.0112702 -0.0116818 0 
0.0482517 -0.0719777 0 
0.0532234 -0.074103 0 
0.0504818 -0.0746012 0 
-0.00148504 -0.0376904 0 
-0.00500903 -0.0346803 0 
-0.00253654 -0.029849 0 
0.0438263 -0.0735635 0 
0.0432959 -0.069452 0 
0.0433147 -0.0776425 0 
0.0449157 -0.0756256 0 
0.0442568 -0.075642 0 
0.0422959 -0.0790055 0 
-0.000780251 -0.000403558 0 
-0.00163264 -0.00166051 0 
-0.000832199 -0.000150283 0 
0.118734 -0.167024 0 
0.124242 -0.199824 0 
0.0938549 -0.18956 0 
0.00370384 -0.00309254 0 
0.00251481 -0.00232399 0 
0.0023227 -0.00167853 0 
0.000797456 -0.00120815 0 
0.00151198 -0.00196646 0 
0.00134152 -0.00220819 0 
0.0516661 -0.0170906 0 
0.055329 -0.0227332 0 
0.0432214 -0.0137492 0 
0.000572962 0.000557258 0 
-0.000281546 0.000150527 0 
0.000315042 0.00016967 0 
0.0720698 -0.0918791 0 
0.0817869 -0.0887437 0 
0.0790621 -0.0997339 0 
0.0392729 -0.115544 0 
0.047001 -0.0957002 0 
0.0408042 -0.115293 0 
0.0480304 -0.0436847 0 
0.0514157 -0.0404883 0 
0.0544469 -0.0484057 0 
0.0191609 -0.0171536 0 
0.0177951 -0.0193902 0 
0.0151979 -0.0147628 0 
0.00793099 -0.0347293 0 
0.00418409 -0.034102 0 
0.00525465 -0.0288392 0 
0.0438597 -0.0736213 0 
0.0432756 -0.0775747 0 
0.0425946 -0.0793368 0 
0.0433036 -0.0775764 0 
0.043888 -0.0736377 0 
0.042682 -0.0836038 0 
-0.00768746 -0.0301079 0 
-0.00709454 -0.021976 0 
-0.00522352 -0.0265554 0 
0.000990105 -0.000706875 0 
0.00332243 -0.00301709 0 
0.00158816 -0.00139235 0 
0.0405484 -0.116493 0 
0.048154 -0.08533 0 
0.0423368 -0.100911 0 
0.0441733 -0.0669586 0 
0.04336 -0.0570018 0 
0.0456752 -0.0729051 0 
0.0325343 -0.0286893 0 
0.0301217 -0.0317765 0 
0.0270909 -0.0254353 0 
0.0434914 -0.100935 0 
0.0395469 -0.114848 0 
0.0352472 -0.114821 0 
0.0395729 -0.102287 0 
0.0355281 -0.114282 0 
0.0309311 -0.111361 0 
0.0312212 -0.110861 0 
0.0351911 -0.114864 0 
0.0257793 -0.123109 0 
-0.0019692 -0.000220565 0 
0.00393128 -0.0373769 0 
0.00413342 -0.0414153 0 
0.0152278 -0.014762 0 
0.0139858 -0.0165901 0 
0.011813 -0.0125036 0 
0.0145706 -0.0221103 0 
0.0206186 -0.028458 0 
0.0188434 -0.0305219 0 
-0.019359 -0.0341492 0 
-0.015122 -0.0208847 0 
-0.0159278 -0.0311846 0 
0.0457682 -0.0739928 0 
0.0504979 -0.0746287 0 
0.0533239 -0.0784069 0 
0.0301319 -0.0817983 0 
0.0432365 -0.0991341 0 
0.0294963 -0.0882116 0 
0.0458164 -0.0730406 0 
0.0468477 -0.0821723 0 
0.0443894 -0.0888327 0 
0.0115084 -0.040826 0 
0.0157772 -0.0468403 0 
0.0108746 -0.04753 0 
-3.99609e-05 1.36071e-05 0 
8.58748e-05 -0.000195854 0 
8.20705e-05 -0.000325656 0 
0.0442978 -0.0703552 0 
0.0482523 -0.0719786 0 
0.0504762 -0.0745916 0 
0.0453061 -0.0701995 0 
0.0460402 -0.0733617 0 
0.0480045 -0.0724163 0 
0.00405666 -0.0126583 0 
0.00584892 -0.0160512 0 
0.0040791 -0.0159069 0 
-4.01697e-05 3.00496e-05 0 
3.97471e-06 5.45452e-05 0 
-3.06715e-05 5.75644e-05 0 
-1.7746e-05 0.00021159 0 
0.00475356 -0.000448874 0 
0.00402023 -0.000398123 0 
0.0233647 -0.0103219 0 
0.0173894 -0.00643204 0 
0.021346 -0.00735861 0 
0.0295938 -0.0826893 0 
0.0178758 -0.0675092 0 
0.0196445 -0.0651394 0 
0.00294806 -0.00137363 0 
0.00138205 -0.000571024 0 
0.00221902 -0.000726554 0 
0.0145302 -0.0697154 0 
0.0142151 -0.0785269 0 
0.00809762 -0.0714997 0 
0.0109238 -0.00169386 0 
0.0177973 -0.00452408 0 
0.0148569 -0.00395657 0 
0.0581953 -0.0456328 0 
0.0605298 -0.0537466 0 
0.0542539 -0.0483891 0 
0.00491395 -0.00278018 0 
0.00719497 -0.00483966 0 
0.00533926 -0.00393489 0 
0.00568108 -0.00206821 0 
0.00303946 -0.000896762 0 
0.00429168 -0.00107075 0 
0.0358404 -0.0525834 0 
0.0413881 -0.0566773 0 
0.0366667 -0.0594348 0 
0.0421624 -0.0687709 0 
0.0374596 -0.0717314 0 
0.037105 -0.0659322 0 
0.0395575 -0.0836788 0 
0.0361799 -0.089421 0 
0.0342648 -0.0859961 0 
6.09265e-11 -1.7066e-05 0 
6.0885e-11 3.66786e-05 0 
4.65443e-05 -0.000346167 0 
0.0618327 -0.0714945 0 
0.0572223 -0.0710271 0 
0.0597156 -0.0668928 0 
0.0433701 -0.0776914 0 
0.0426011 -0.0834636 0 
0.0407412 -0.0846824 0 
0.0428436 -0.100938 0 
0.0358391 -0.114819 0 
0.0393027 -0.101821 0 
0.0355448 -0.114317 0 
0.0391952 -0.115444 0 
0.0300527 -0.128753 0 
0.0727081 -0.0457558 0 
0.0758409 -0.0424058 0 
0.0823186 -0.0557016 0 
-0.000507856 1.64669e-05 0 
0.000951272 -0.00995378 0 
0.00108118 -0.0118598 0 
0.00891938 -0.000679472 0 
-2.66051e-05 0.000366099 0 
0.0101855 -0.000781331 0 
0.0306476 -0.0826885 0 
0.0288577 -0.0871092 0 
0.0167409 -0.0675101 0 
-0.000132123 8.10698e-05 0 
0.000188453 0.000153046 0 
0.000338331 -0.000264241 0 
0.00149166 -0.00196713 0 
0.00247979 -0.00285549 0 
0.00227548 -0.00326705 0 
0.0154763 -0.0338496 0 
0.0117921 -0.0346769 0 
0.0117152 -0.0289897 0 
0.0446535 -0.119622 0 
0.0443924 -0.107548 0 
0.0629264 -0.127171 0 
0.017781 -0.0194146 0 
0.0139979 -0.016611 0 
0.0152131 -0.0147366 0 
0.0432655 -0.0776425 0 
0.0433159 -0.069452 0 
0.043915 -0.0735909 0 
-0.000125422 6.02869e-11 0 
0.000104416 6.02439e-11 0 
0.00390529 -0.000199045 0 
0.0361969 -0.0894036 0 
0.0383721 -0.0918508 0 
0.0324851 -0.097153 0 
3.44696e-05 0.000705196 0 
4.60546e-06 4.61087e-05 0 
-5.17189e-05 0.000663298 0 
-6.05422e-11 -0.00033327 0 
-6.05195e-11 0.000313314 0 
0.000558227 -0.0121655 0 
0.0420541 -0.0734735 0 
0.0375125 -0.071823 0 
0.0421301 -0.068715 0 
0.00343565 -0.00226774 0 
0.0049537 -0.00284902 0 
0.00530355 -0.00387304 0 
0.00610769 -0.0181686 0 
0.00900408 -0.0262543 0 
0.00447366 -0.0181449 0 
-0.00428664 -0.0102709 0 
-0.00384615 -0.0070249 0 
-0.00278916 -0.00637263 0 
0.0384417 -0.032175 0 
0.0358176 -0.0355315 0 
0.0325498 -0.0286829 0 
0.040854 -0.0844871 0 
0.0424824 -0.0836691 0 
0.0387304 -0.0918037 0 
-0.00141739 -0.0103025 0 
-0.0018502 -0.00818331 0 
-0.000942465 -0.00688667 0 
0.0181159 -0.0914011 0 
0.0452204 -0.119933 0 
0.0413728 -0.128003 0 
0.00766099 -0.0174679 0 
0.00401922 -0.0119913 0 
0.0049909 -0.0108741 0 
0.0414381 -0.0245893 0 
0.0403954 -0.0285373 0 
0.0351604 -0.0216119 0 
0.0636726 -0.125881 0 
0.0436891 -0.108763 0 
0.0608927 -0.113204 0 
0.0409916 -0.0847255 0 
0.0385648 -0.091517 0 
0.0360236 -0.0897037 0 
-0.00775226 -0.0170538 0 
-0.00713006 -0.01218 0 
-0.00550623 -0.0111964 0 
0.00218848 -0.120542 0 
0.0143184 -0.12502 0 
0.00631947 -0.133148 0 
0.0289466 -0.0412486 0 
0.0271567 -0.0345166 0 
0.0326063 -0.0385417 0 
-0.00263716 -0.0300233 0 
-0.00489581 -0.0344842 0 
-0.00534019 -0.0263321 0 
0.0150305 -0.0342656 0 
0.0131643 -0.035684 0 
0.00897011 -0.0262411 0 
0.0541414 -0.0149926 0 
0.0447836 -0.0111069 0 
0.033341 -0.0049456 0 
0.00312223 -0.00499856 0 
0.00195365 -0.00357239 0 
0.00227489 -0.00327346 0 
0.00194843 -0.00357177 0 
0.00154642 -0.00370602 0 
0.00108677 -0.00234846 0 
0.0453172 -0.0701995 0 
0.0444321 -0.0711707 0 
0.0460215 -0.0733617 0 
-0.00151132 -0.0146806 0 
-0.000368826 -0.012301 0 
-0.000153224 -0.0166869 0 
0.0420964 -0.0734002 0 
0.0421011 -0.0687652 0 
0.0462808 -0.0707959 0 
-0.00125089 -0.00172284 0 
-0.0016057 -0.00165951 0 
-0.000799218 -0.000404263 0 
0.000206225 -0.359134 0 
0.0442523 -0.330909 0 
0.0803302 -0.327429 0 
0.0260095 -0.0933137 0 
0.0451548 -0.108875 0 
0.0436772 -0.117923 0 
0.0661409 -0.0985034 0 
0.0569663 -0.101635 0 
0.0533492 -0.0921208 0 
0.0134059 -0.00217958 0 
0.0179248 -0.00430321 0 
0.0107986 -0.0019108 0 
0.015969 -0.0200402 0 
0.0206381 -0.028458 0 
0.0145828 -0.0221103 0 
0.0176417 -0.0266281 0 
0.0201334 -0.0246956 0 
0.0221308 -0.0305384 0 
-0.00160245 -0.00164585 0 
-0.00298911 -0.0038886 0 
-0.00181574 -0.00156565 0 
0.045841 -0.0739928 0 
0.044321 -0.0703151 0 
0.0504548 -0.0746287 0 
0.0384202 -0.0918037 0 
0.042758 -0.0836691 0 
0.0414316 -0.0914931 0 
0.0118129 -0.0346409 0 
0.00843332 -0.0292665 0 
0.0116937 -0.0290269 0 
0.00298769 -0.00144856 0 
0.00347101 -0.00220348 0 
0.00192663 -0.0011206 0 
0.0447389 -0.0359931 0 
0.0470372 -0.0323417 0 
0.0514715 -0.0403515 0 
0.0384605 -0.0642105 0 
0.0442637 -0.0703785 0 
0.0387772 -0.0675452 0 
0.0196902 -0.0437062 0 
0.0251235 -0.0536572 0 
0.0182633 -0.0461111 0 
0.0484833 -0.0236456 0 
0.0469696 -0.0188137 0 
0.0565673 -0.0279837 0 
0.038653 -0.0675452 0 
0.0443576 -0.0703785 0 
0.0457886 -0.0739022 0 
-0.0111719 -0.0459947 0 
-0.00775233 -0.0397409 0 
-0.00669304 -0.0504138 0 
0.0238553 -0.0566969 0 
0.0319164 -0.0631564 0 
0.0314101 -0.0669078 0 
0.0161118 -0.0103355 0 
0.015497 -0.00785391 0 
0.0198901 -0.0119166 0 
0.00754544 -0.0913331 0 
-0.000589844 -0.0937033 0 
-0.000325561 -0.0824404 0 
0.0377372 -0.0769153 0 
0.032621 -0.0753621 0 
0.0374621 -0.0717079 0 
0.137929 -0.152789 0 
0.146541 -0.188951 0 
0.124078 -0.201266 0 
0.014958 -0.0341334 0 
0.0195946 -0.0438675 0 
0.0132693 -0.0358755 0 
0.00312516 -0.00499856 0 
0.0025976 -0.00530062 0 
0.00195297 -0.00357239 0 
0.0253661 -0.0536509 0 
0.0239863 -0.0564131 0 
0.0179865 -0.0461182 0 
0.0324383 -0.0753637 0 
0.0267515 -0.0722548 0 
0.0320794 -0.0688843 0 
0.0722981 -0.108813 0 
0.0663514 -0.0983552 0 
0.0792098 -0.09987 0 
0.0176817 -0.106439 0 
0.0276613 -0.105857 0 
0.0212685 -0.114789 0 
0.0157979 -0.0965871 0 
0.0176827 -0.106434 0 
0.00862248 -0.102433 0 
0.0029048 -0.00144856 0 
0.0019987 -0.0011206 0 
0.00142313 -0.000499868 0 
6.10132e-11 1.70913e-05 0 
6.09985e-11 -3.79661e-06 0 
-1.80894e-05 -0.00135979 0 
0.00312595 -0.0049995 0 
0.00465494 -0.00661639 0 
0.00398965 -0.00713209 0 
0.0252452 -0.0534415 0 
0.0316385 -0.0631564 0 
0.0241501 -0.0566969 0 
0.0256924 -0.00843943 0 
0.0281366 -0.0118117 0 
0.0211745 -0.00735867 0 
-0.0163298 -0.109987 0 
-0.0121725 -0.128408 0 
-0.022737 -0.10622 0 
0.00806759 -0.102407 0 
-0.0003516 -0.0941159 0 
0.00733587 -0.0909701 0 
0.0280004 -0.0859984 0 
0.0214342 -0.0834882 0 
0.0271807 -0.0790568 0 
0.0294743 -0.0190449 0 
0.0351725 -0.0216215 0 
0.0342688 -0.025268 0 
0.0651297 -0.0283777 0 
0.0619917 -0.0222422 0 
0.0770826 -0.0368097 0 
0.0569056 -0.0835336 0 
0.060863 -0.0803494 0 
0.0659633 -0.0853688 0 
0.0224018 -0.0910183 0 
0.0241406 -0.0989982 0 
0.0160592 -0.0970358 0 
0.0459328 -0.0729051 0 
0.043039 -0.0570018 0 
0.0456539 -0.0624474 0 
6.67585e-06 5.76542e-08 0 
8.01391e-06 -0.00154713 0 
-3.71626e-05 -0.00137081 0 
0.0300444 -0.0920805 0 
0.0243969 -0.0985541 0 
0.0221789 -0.0914043 0 
0.048009 -0.0724242 0 
0.0460306 -0.0733451 0 
0.0476403 -0.0736274 0 
0.0731998 -0.0748785 0 
0.0673008 -0.0731517 0 
0.0706163 -0.0669502 0 
0.0345255 -0.0455459 0 
0.0289437 -0.0412435 0 
0.0326173 -0.0385607 0 
0.0433155 -0.0677949 0 
0.0482317 -0.0719786 0 
0.044338 -0.0703552 0 
0.0155388 -0.0970358 0 
0.0246629 -0.0989982 0 
0.0179801 -0.105919 0 
0.00513211 -0.00585271 0 
0.00372328 -0.00386045 0 
0.0053846 -0.00496748 0 
0.00312582 -0.00499972 0 
0.00399206 -0.00712793 0 
0.0025936 -0.00529369 0 
0.00150206 -0.0019491 0 
0.0022663 -0.00328295 0 
0.00134828 -0.00222002 0 
0.0416264 -0.116585 0 
0.0464574 -0.0948459 0 
0.0472184 -0.0852503 0 
0.0199146 -0.0387631 0 
0.0248814 -0.0435794 0 
0.0204749 -0.0454726 0 
0.0326226 -0.0385417 0 
0.0271485 -0.0345166 0 
0.030124 -0.0317884 0 
0.00544615 -0.0126955 0 
0.00591041 -0.0160512 0 
0.00399445 -0.0126583 0 
0.083335 -0.0686855 0 
0.0807242 -0.0775605 0 
0.0763133 -0.0674506 0 
0.0189744 -0.0324619 0 
0.0176467 -0.0266281 0 
0.0221254 -0.0305384 0 
0.0147926 -0.0281065 0 
0.0155069 -0.0338496 0 
0.0116811 -0.0289897 0 
0.00845622 -0.029324 0 
0.00801036 -0.0347293 0 
0.00516947 -0.0288392 0 
-0.00800229 -0.0301079 0 
-0.0095369 -0.0249975 0 
-0.00679621 -0.021976 0 
0.00958518 -0.00897928 0 
0.00734727 -0.00617532 0 
0.00983658 -0.00747163 0 
0.00530253 -0.00388054 0 
0.00734352 -0.00617371 0 
0.00539112 -0.00496904 0 
0.0243665 -0.0135353 0 
0.0191121 -0.00914033 0 
0.0234272 -0.0104564 0 
0.0293694 -0.0154438 0 
0.0233054 -0.0104546 0 
0.0282002 -0.0119547 0 
0.0350094 -0.0176903 0 
0.0414284 -0.0245893 0 
0.0351811 -0.0216119 0 
0.0201338 -0.0246838 0 
0.0177881 -0.0194152 0 
0.0221735 -0.0223568 0 
-6.32496e-11 -0.00219725 0 
-6.16122e-11 0.00127383 0 
0.00300605 -0.0532174 0 
0.0322904 -0.0595188 0 
0.0386195 -0.0675727 0 
0.0318844 -0.0631303 0 
0.00154478 -0.00160093 0 
0.00245147 -0.00285549 0 
0.00151573 -0.00196713 0 
-0.000704191 1.53511e-07 0 
-0.000830265 -0.000140559 0 
-0.0018073 -0.00154074 0 
0.117966 -0.0965668 0 
0.112677 -0.114626 0 
0.106398 -0.0893826 0 
0.0620692 -0.0714945 0 
0.0595009 -0.0668928 0 
0.0647687 -0.0669694 0 
0.045578 -0.0740315 0 
0.0421337 -0.0734649 0 
0.0462632 -0.0707654 0 
0.00906139 -0.0260952 0 
0.0130579 -0.0358541 0 
0.00748715 -0.0273343 0 
0.129201 -0.104241 0 
0.125857 -0.129355 0 
0.116825 -0.0947711 0 
-0.0100298 -0.0185529 0 
-0.00953305 -0.0250139 0 
-0.0122984 -0.0275454 0 
0.032377 -0.0596688 0 
0.031769 -0.0629304 0 
0.0251303 -0.0536405 0 
0.0240197 -0.0564121 0 
0.0312258 -0.0672272 0 
0.0233432 -0.0603254 0 
-0.012494 -0.0198653 0 
-0.0125204 -0.0279615 0 
-0.0156299 -0.0306268 0 
-0.008641 -0.109939 0 
0.00275562 -0.120538 0 
-0.00545961 -0.125108 0 
-0.00134437 -0.010429 0 
-0.00239476 -0.0119907 0 
-0.00192504 -0.00805369 0 
0.0410496 -0.127985 0 
0.0639595 -0.163607 0 
0.0370064 -0.139043 0 
0.00896756 -0.010382 0 
0.00800657 -0.0114698 0 
0.00657675 -0.00841661 0 
0.000810449 -0.000760308 0 
0.000275698 -0.000290234 0 
0.000677754 -0.000534325 0 
-0.000885897 -0.00185158 0 
-0.00124051 -0.00169029 0 
-0.000517474 -0.000523451 0 
-0.00700128 -0.0119569 0 
-0.00489521 -0.0071818 0 
-0.00561989 -0.0113933 0 
0.00984493 -0.00747312 0 
0.00955989 -0.00573615 0 
0.0126501 -0.00885789 0 
0.0414454 -0.0245742 0 
0.0413512 -0.0203573 0 
0.0483801 -0.0281517 0 
0.0442287 -0.0111371 0 
0.0371442 -0.00875031 0 
0.0274388 -0.00380833 0 
0.00774375 -0.0174601 0 
0.00926224 -0.016265 0 
0.0128481 -0.0239175 0 
0.0283516 -0.0859984 0 
0.0224043 -0.0910379 0 
0.0210832 -0.0834882 0 
-0.00174738 -0.00356461 0 
-0.00125767 -0.00172972 0 
-0.000871788 -0.00181916 0 
0.0214369 -0.00520207 0 
0.0180538 -0.00452664 0 
0.0132644 -0.00193447 0 
-0.00722788 -0.0119569 0 
-0.00559847 -0.00738323 0 
-0.00470354 -0.0071818 0 
0.0305258 -0.0771846 0 
0.0416652 -0.0831961 0 
0.0426362 -0.0898922 0 
0.000227507 -0.010202 0 
-0.000517125 -0.00876501 0 
8.69997e-05 -0.00708768 0 
-0.017314 -0.0224037 0 
-0.0204951 -0.0253972 0 
-0.0128307 -0.011324 0 
-0.00549418 -0.0071969 0 
-0.00870181 -0.0123739 0 
-0.00608606 -0.00700371 0 
0.0349877 -0.0177278 0 
0.041359 -0.0203708 0 
0.0414412 -0.024567 0 
0.00774854 -0.0174749 0 
0.00611969 -0.018185 0 
0.0039232 -0.0119837 0 
-4.48715e-05 4.24064e-05 0 
4.85714e-05 0.000688199 0 
0.000140082 0.000598919 0 
0.0241776 -0.0567139 0 
0.0231643 -0.0599835 0 
0.0155865 -0.0475818 0 
-0.00680932 -0.0219817 0 
-0.00576122 -0.0153935 0 
-0.00475214 -0.0195953 0 
0.0080388 -0.102433 0 
0.0182701 -0.106434 0 
0.0105654 -0.113294 0 
-0.000369729 5.98922e-11 0 
0.000278696 5.96951e-11 0 
0.0148686 -0.000561552 0 
-0.00331152 -0.00377071 0 
-0.00563772 -0.00723407 0 
-0.00340988 -0.00348784 0 
0.0160484 -0.097021 0 
0.00833747 -0.101939 0 
0.00710577 -0.0913686 0 
0.0221516 -0.0223568 0 
0.0178095 -0.0194152 0 
0.0191447 -0.0171256 0 
0.00768104 -0.0157855 0 
0.0103911 -0.0191898 0 
0.00826573 -0.0198347 0 
0.029826 -0.0917023 0 
0.0320217 -0.0971798 0 
0.0246501 -0.0989927 0 
0.0672921 -0.0731003 0 
0.0626214 -0.0760851 0 
0.0618199 -0.0715039 0 
0.0438118 -0.0735887 0 
0.042821 -0.0670235 0 
0.0432983 -0.069448 0 
0.000129894 -0.106465 0 
0.00214729 -0.120538 0 
-0.00798357 -0.109939 0 
0.0228959 -0.0603158 0 
0.0316146 -0.0672355 0 
0.0311443 -0.0715426 0 
-0.000512089 -0.012301 0 
0.000816667 -0.0140535 0 
-3.58066e-06 -0.0166869 0 
-0.0166387 -0.110508 0 
-0.00516576 -0.125714 0 
-0.011806 -0.127789 0 
6.08228e-11 5.14594e-06 0 
6.07855e-11 1.54456e-05 0 
9.15175e-06 6.1605e-05 0 
-0.000143207 -0.000617907 0 
8.19285e-05 2.55724e-05 0 
-0.000183322 -0.00110375 0 
0.0385092 -0.0642947 0 
0.0387063 -0.0674224 0 
0.0322153 -0.0596488 0 
-0.00512545 -0.125687 0 
0.00247272 -0.120048 0 
0.00602537 -0.133658 0 
6.14903e-11 4.90299e-05 0 
6.13718e-11 1.95328e-05 0 
-2.51956e-05 0.000646474 0 
0.0619362 -0.0716738 0 
0.0580065 -0.0739656 0 
0.0571395 -0.0708837 0 
0.0281683 -0.0857076 0 
0.0270378 -0.0793043 0 
0.0333866 -0.0811143 0 
0.0254862 -0.00843943 0 
0.0213624 -0.00735867 0 
0.0179233 -0.00432772 0 
0.0296116 -0.0920805 0 
0.0226159 -0.0914043 0 
0.0281701 -0.085684 0 
-0.00184538 -0.00173595 0 
-0.00599295 -0.00592924 0 
-0.0051989 -0.00441178 0 
0.0363871 -0.0897332 0 
0.0322611 -0.0967651 0 
0.0296151 -0.0920675 0 
0.0315841 -0.0672091 0 
0.0317814 -0.0629225 0 
0.0391688 -0.0717731 0 
0.0155622 -0.097021 0 
0.00757988 -0.0913686 0 
0.0146601 -0.0872819 0 
-0.00170045 -0.00131497 0 
-0.000692793 -1.94608e-05 0 
-0.00180839 -0.00153886 0 
-0.00122063 -0.000956034 0 
-0.00289473 -0.00277482 0 
-0.000296081 -0.000415621 0 
0.0215028 -0.0636774 0 
0.0314189 -0.0719871 0 
0.0308341 -0.0766083 0 
0.116895 -0.0947119 0 
0.107216 -0.0907994 0 
0.105933 -0.0679013 0 
0.0201402 -0.024695 0 
0.0221671 -0.0223457 0 
0.0248645 -0.0281791 0 
-0.00695908 -0.136423 0 
0.00683367 -0.130817 0 
-0.0155493 -0.109211 0 
0.0127011 -0.000952048 0 
-6.389e-05 0.000529729 0 
0.0145276 -0.00115215 0 
0.00119669 -6.61668e-11 0 
0.000745451 -6.35909e-11 0 
-0.00192953 0.000390786 0 
0.00511573 -0.00588109 0 
0.00353887 -0.00451037 0 
0.00374078 -0.00383013 0 
0.0326367 -0.0753637 0 
0.0271826 -0.0790807 0 
0.0265498 -0.0722548 0 
0.00895386 -0.0626931 0 
0.00993562 -0.0548404 0 
0.0150353 -0.0617131 0 
-0.00745027 -0.0170346 0 
-0.00971851 -0.0246927 0 
-0.00982978 -0.0188993 0 
0.00858995 -0.102407 0 
0.000152077 -0.106447 0 
-0.000862403 -0.0941159 0 
0.00573863 -0.100743 0 
-0.0318909 -0.0638124 0 
-0.0166523 -0.110023 0 
0.00832194 -0.101943 0 
0.0102427 -0.113853 0 
0.00045877 -0.106979 0 
0.0160231 -0.0103355 0 
0.0199858 -0.0119166 0 
0.0198974 -0.0145579 0 
0.00315317 -0.00034614 0 
-1.88183e-05 0.000184644 0 
0.00379321 -0.000393163 0 
0.119227 -0.0947119 0 
0.103968 -0.0679013 0 
0.110863 -0.0680921 0 
0.0176329 -0.0266253 0 
0.0147953 -0.0280978 0 
0.0137395 -0.0228267 0 
0.0444427 -0.0711692 0 
0.0428263 -0.0670235 0 
0.043823 -0.0735887 0 
0.00281504 -0.120542 0 
0.0105581 -0.113337 0 
0.0137201 -0.12502 0 
0.00251037 -0.00232245 0 
0.00246768 -0.00282741 0 
0.00152775 -0.00163042 0 
0.0244214 -0.0136304 0 
0.0233658 -0.01035 0 
0.0293128 -0.0155418 0 
0.00162652 -0.0091131 0 
0.000842368 -0.00644472 0 
0.00158221 -0.007098 0 
0.0230984 -0.0599501 0 
0.0309045 -0.0719757 0 
0.022044 -0.0636894 0 
-0.000361193 -0.140299 0 
-0.00567672 -0.125682 0 
0.00648336 -0.133663 0 
-0.0193483 -0.0341889 0 
-0.0234226 -0.0524271 0 
-0.0239691 -0.0398711 0 
0.000704876 -0.00342825 0 
0.000878159 -0.00482416 0 
0.000342597 -0.00293531 0 
-0.000493846 -0.000520137 0 
-0.00126574 -0.00169382 0 
-0.000784353 -0.000433313 0 
-0.00170216 -0.00130008 0 
-0.00338475 -0.00344322 0 
-0.00118882 -0.000914489 0 
0.00158874 -0.00917858 0 
0.00161576 -0.00703985 0 
0.00257872 -0.00964952 0 
0.00591365 -0.0160539 0 
0.00823468 -0.0197956 0 
0.00602731 -0.0199348 0 
0.00514263 -0.00588109 0 
0.00465393 -0.00660425 0 
0.00351621 -0.00451037 0 
-0.00711166 -0.0121582 0 
-0.00844596 -0.0123739 0 
-0.00570605 -0.0071969 0 
0.00372098 -0.00385901 0 
0.00248469 -0.00285687 0 
0.00249007 -0.00228728 0 
0.000879857 -0.00651263 0 
0.000751119 -0.00824631 0 
0.000281801 -0.00560521 0 
-0.00189261 -0.00166117 0 
-0.0029779 -0.00273477 0 
-0.00599076 -0.00593271 0 
0.000185958 -6.28884e-11 0 
0.000182866 -6.23032e-11 0 
0.00133113 2.90262e-06 0 
0.0596175 -0.0670628 0 
0.0573076 -0.0708794 0 
0.0548109 -0.0675705 0 
0.0459152 -0.0540054 0 
0.0466674 -0.0605058 0 
0.0413748 -0.0566721 0 
0.0189721 -0.0324686 0 
0.0199199 -0.0387571 0 
0.0154879 -0.0338567 0 
-0.00501953 -0.0347009 0 
-0.00773282 -0.0397108 0 
-0.0079788 -0.0301171 0 
-0.00784118 -0.030387 0 
-0.0107481 -0.0343029 0 
-0.00971708 -0.0246854 0 
-0.00694716 -0.0222374 0 
-0.00936092 -0.0246927 0 
-0.0077746 -0.0170346 0 
0.065249 -0.0284569 0 
0.0553398 -0.0227519 0 
0.051627 -0.0170228 0 
0.00070958 -0.00832976 0 
0.000340912 -0.010202 0 
-2.106e-05 -0.00708765 0 
0.0397832 -0.130178 0 
0.0672776 -0.143999 0 
0.0655297 -0.160888 0 
0.004176 -0.0341128 0 
0.00278649 -0.0397416 0 
0.000516259 -0.0324162 0 
0.000573102 -0.0325423 0 
-0.00130469 -0.0376904 0 
-0.00272194 -0.029849 0 
0.0057793 -0.00919486 0 
0.00800282 -0.0114761 0 
0.00680601 -0.0122611 0 
-0.00334431 -0.00382751 0 
-0.00338412 -0.00344322 0 
-0.00170305 -0.00130008 0 
-0.00177259 -0.00805369 0 
-0.00256043 -0.0119907 0 
-0.00292771 -0.00933992 0 
0.000816392 -0.0140451 0 
0.00140917 -0.011415 0 
0.00229903 -0.0151338 0 
-0.00562698 -0.0156136 0 
-0.00747185 -0.0170538 0 
-0.00575315 -0.0111964 0 
0.0294227 -0.0155362 0 
0.028139 -0.0118488 0 
0.0349516 -0.0177376 0 
-0.00236952 -0.00385694 0 
-0.00291981 -0.0038886 0 
-0.00166151 -0.00164585 0 
-0.000442999 -0.0124206 0 
0.0003473 -0.0101993 0 
0.00075185 -0.0139413 0 
-0.000686951 -1.1793e-05 0 
8.18942e-05 0.000671546 0 
-0.000140397 0.000729317 0 
0.0426355 -0.130179 0 
0.0440485 -0.117914 0 
0.0647921 -0.143998 0 
-0.000166682 -0.106979 0 
0.0108561 -0.113853 0 
0.00248016 -0.119962 0 
-0.000513284 -0.00876829 0 
-0.00127585 -0.0103025 0 
-0.0010753 -0.00688667 0 
-0.00389385 -0.144913 0 
-0.000305321 -0.140577 0 
0.00570795 -0.152599 0 
-0.00697701 -0.011925 0 
-0.00999448 -0.0185823 0 
-0.00859985 -0.0126405 0 
-0.000700959 1.43778e-05 0 
-0.000315152 9.28922e-05 0 
9.74523e-05 0.000642478 0 
0.0325319 -0.0286893 0 
0.0271002 -0.0254353 0 
0.0286779 -0.0223584 0 
-0.00514462 -0.0344842 0 
-0.00783576 -0.0303648 0 
-0.00509457 -0.0263321 0 
0.00715263 -0.00738925 0 
0.0065831 -0.00839687 0 
0.00511919 -0.00588248 0 
0.00398778 -0.00712886 0 
0.00465324 -0.00661345 0 
0.00577493 -0.00919348 0 
0.0108803 -0.0475399 0 
0.0157742 -0.046835 0 
0.0154465 -0.0540391 0 
0.0110537 -0.025325 0 
0.00907237 -0.0261327 0 
0.00605599 -0.0182607 0 
-0.00878327 -0.0123228 0 
-0.00981314 -0.0188964 0 
-0.0119912 -0.0199141 0 
0.0209643 -0.138802 0 
0.00794336 -0.148942 0 
0.0171294 -0.15216 0 
0.00228041 -0.00328301 0 
0.00195124 -0.00356822 0 
0.00133666 -0.00221997 0 
0.00742871 -0.129892 0 
0.00455315 -0.0985667 0 
-0.0163858 -0.110513 0 
-0.00833258 -0.109404 0 
-0.00580912 -0.125714 0 
-0.0158626 -0.110508 0 
0.0215288 -0.0416473 0 
0.019684 -0.0437128 0 
0.0148818 -0.0342654 0 
0.0014032 -0.0114159 0 
0.000661467 -0.00824288 0 
0.00158954 -0.00918705 0 
0.00154688 -0.00911316 0 
0.000707349 -0.00832235 0 
0.000918978 -0.00644467 0 
0.0447101 -0.0111371 0 
0.0515993 -0.0168423 0 
0.0367443 -0.00875031 0 
-0.0202456 -0.0341497 0 
-0.0172496 -0.0224477 0 
-0.0143689 -0.0208842 0 
7.56384e-05 0.000688112 0 
0.000497943 0.000550053 0 
0.000426478 0.000690953 0 
0.0148825 -0.0342661 0 
0.00913417 -0.0262405 0 
0.0110039 -0.0252382 0 
0.00587249 -0.100512 0 
-0.00529172 -0.0389554 0 
-0.0297273 -0.060065 0 
-6.25479e-05 6.05437e-11 0 
3.1037e-05 6.04876e-11 0 
0.000746225 -8.10468e-05 0 
0.00156094 -0.00162892 0 
0.00150247 -0.00194414 0 
0.000843624 -0.00102144 0 
5.47685e-06 6.07613e-11 0 
-1.11153e-05 6.0749e-11 0 
-5.24601e-05 1.39988e-05 0 
0.0734047 -0.0752333 0 
0.0680487 -0.0791975 0 
0.0671313 -0.0728581 0 
-0.00159396 -0.0145408 0 
-0.00247916 -0.0121369 0 
-0.00126827 -0.0102972 0 
0.0560161 -0.0624364 0 
0.0511671 -0.058129 0 
0.0558316 -0.0560834 0 
0.0513054 -0.0581381 0 
0.0458633 -0.0539331 0 
0.0502446 -0.0513226 0 
0.0237151 -0.0368651 0 
0.0199164 -0.0387631 0 
0.0189786 -0.0324573 0 
0.0155023 -0.0338567 0 
0.0199079 -0.0387571 0 
0.0158157 -0.0401223 0 
0.00800076 -0.0347417 0 
0.0114793 -0.040812 0 
0.00709695 -0.0407894 0 
0.0433324 -0.0678242 0 
0.0443076 -0.0703025 0 
0.0384224 -0.0642765 0 
-0.0114515 -0.128387 0 
-0.0054333 -0.125262 0 
-0.00058818 -0.14069 0 
0.0977551 -0.0848124 0 
0.0998111 -0.103767 0 
0.0903058 -0.0960705 0 
0.0289495 -0.0412437 0 
0.0237203 -0.0368675 0 
0.0271508 -0.034527 0 
0.00672701 -0.00347309 0 
0.0072365 -0.00476771 0 
0.004873 -0.0028511 0 
0.000365965 -0.00560535 0 
0.000661417 -0.00824616 0 
3.05179e-05 -0.00717718 0 
0.0413732 -0.0203548 0 
0.0397908 -0.0158722 0 
0.0484639 -0.0236712 0 
-0.000375537 -0.0123038 0 
-0.000579118 -0.00865763 0 
0.00028662 -0.0103044 0 
0.00087631 -0.0139413 0 
0.000227786 -0.0101993 0 
0.00135509 -0.0115086 0 
0.00108074 -0.00234634 0 
0.000799231 -0.00237886 0 
0.000409101 -0.00121131 0 
-0.000112086 6.03336e-11 0 
8.77857e-05 6.02864e-11 0 
0.00305326 -0.000173094 0 
-0.000139908 6.02437e-11 0 
0.000122081 6.02044e-11 0 
0.00488173 -0.000226889 0 
0.0189794 -0.0324532 0 
0.0147876 -0.0280844 0 
0.0176406 -0.0266386 0 
0.00423526 -0.0340134 0 
0.00203447 -0.0276446 0 
0.00520625 -0.028923 0 
-0.00484896 -0.00720783 0 
-0.00335846 -0.00386466 0 
-0.00291499 -0.00387123 0 
0.0286876 -0.0223752 0 
0.0270899 -0.0254175 0 
0.0236187 -0.0196801 0 
6.16662e-11 -3.67263e-05 0 
6.16483e-11 4.71766e-05 0 
6.83523e-05 0.00022433 0 
0.051186 -0.0581381 0 
0.0466337 -0.0605641 0 
0.0459569 -0.0539331 0 
0.0189632 -0.0324532 0 
0.0154953 -0.0338696 0 
0.0148053 -0.0280844 0 
0.0114978 -0.040826 0 
0.01581 -0.040125 0 
0.0157796 -0.0468403 0 
-0.00145134 -0.0377116 0 
0.00272337 -0.0398416 0 
0.000941719 -0.0461165 0 
-0.00385021 -0.0436596 0 
0.000878209 -0.0462083 0 
-0.00123088 -0.0532939 0 
-0.00463903 -0.0193865 0 
-0.00401801 -0.013694 0 
-0.00294203 -0.0170781 0 
0.00411861 -0.0340134 0 
0.000581162 -0.0325286 0 
0.00215608 -0.0276446 0 
-0.0107513 -0.0343208 0 
-0.0113672 -0.0457398 0 
-0.0145157 -0.0394969 0 
-0.00471747 -0.00720783 0 
-0.00302442 -0.00387123 0 
-0.00383556 -0.00700575 0 
-0.016593 -0.0215091 0 
-0.0245312 -0.0388402 0 
-0.0213105 -0.0264088 0 
0.137377 -0.111483 0 
0.129266 -0.10459 0 
0.116097 -0.0608422 0 
-0.00127495 -0.0533354 0 
0.00432512 -0.0546688 0 
0.00266215 -0.0628214 0 
-0.00127266 -0.0533354 0 
0.00268982 -0.0628214 0 
-0.00361401 -0.06151 0 
0.00961175 -0.00902531 0 
0.0098061 -0.00741883 0 
0.0124775 -0.0107761 0 
-0.0119449 -0.128397 0 
-0.000243806 -0.140684 0 
-0.003966 -0.144787 0 
0.00840552 -0.148104 0 
0.00623008 -0.129772 0 
-0.00659462 -0.137054 0 
0.05952 -0.0668939 0 
0.0548859 -0.0677004 0 
0.0560112 -0.0624295 0 
0.0159519 -0.0213285 0 
0.0137311 -0.0228341 0 
0.0123553 -0.0181103 0 
0.00955944 -0.00902385 0 
0.00716013 -0.00739076 0 
0.00737376 -0.00612943 0 
0.00976984 -0.00747163 0 
0.00740678 -0.00617532 0 
0.00723546 -0.004777 0 
-0.0143096 -0.0391437 0 
-0.0150815 -0.0529431 0 
-0.0185676 -0.0453749 0 
0.028054 -0.0119547 0 
0.0234414 -0.0104546 0 
0.0212603 -0.00721007 0 
0.0311665 -0.0771872 0 
0.0311584 -0.0715332 0 
0.0410884 -0.0831938 0 
0.00229091 -0.023853 0 
-0.000932454 2.70249e-05 0 
0.00148708 -0.0185529 0 
-0.00051249 -0.0123038 0 
-0.00134717 -0.0104261 0 
-0.000449395 -0.00865763 0 
-0.000289703 6.00032e-11 0 
0.000241949 5.98914e-11 0 
0.0124172 -0.000460424 0 
-0.00284776 -0.0169044 0 
-0.00256749 -0.0119839 0 
-0.00150961 -0.0146869 0 
-0.0197904 -0.0349348 0 
-0.023371 -0.0388619 0 
-0.0178071 -0.0214864 0 
0.00897303 -0.0732247 0 
-0.00337056 -0.000251263 0 
0.0052222 -0.0544969 0 
-0.00296207 -0.0228632 0 
-0.00274425 -0.0298378 0 
-0.00522064 -0.0265392 0 
0.0735978 -0.0748989 0 
0.0740083 -0.0833549 0 
0.0678842 -0.0794825 0 
0.00269562 -0.0397621 0 
0.00708679 -0.0407963 0 
0.00588013 -0.0473463 0 
0.0123513 -0.0181079 0 
0.00930903 -0.015071 0 
0.01073 -0.0139548 0 
0.0564911 -0.0279438 0 
0.0553564 -0.0228714 0 
0.0657387 -0.0338163 0 
-0.0183612 -0.0449839 0 
-0.0189091 -0.0619187 0 
-0.0229441 -0.0529768 0 
0.00422529 -0.0340274 0 
0.00705244 -0.0407368 0 
0.00273515 -0.0398305 0 
0.0104238 -0.019193 0 
0.0137169 -0.0228234 0 
0.0112255 -0.0238601 0 
0.0201277 -0.0246943 0 
0.0159608 -0.0213304 0 
0.0177947 -0.0194037 0 
0.0107235 -0.0139559 0 
0.00801119 -0.0114778 0 
0.00895943 -0.0103679 0 
0.0122485 -0.00684305 0 
0.00961076 -0.00581115 0 
0.00879224 -0.00404275 0 
0.0350504 -0.0177278 0 
0.0335732 -0.0136359 0 
0.0413012 -0.0203708 0 
0.0007562 -0.0139408 0 
0.00235463 -0.0152302 0 
0.0017965 -0.0183214 0 
0.0479066 -0.0706505 0 
0.0423072 -0.0468762 0 
0.0451139 -0.0540398 0 
-7.05214e-11 -0.00540393 0 
-6.62887e-11 0.00195107 0 
0.00651506 -0.1142 0 
-6.12966e-11 -0.00141914 0 
-6.08536e-11 0.000660473 0 
0.00198297 -0.0361911 0 
-6.06225e-11 -0.000641631 0 
-6.05989e-11 0.000575151 0 
0.00116001 -0.0245178 0 
-6.05282e-11 -0.000265662 0 
-6.06139e-11 0.000280457 0 
0.000464182 -0.00968319 0 
-6.06676e-11 -0.000214192 0 
-6.06759e-11 0.000213967 0 
0.000340108 -0.00520048 0 
0.0406977 -0.0847255 0 
0.036343 -0.0897037 0 
0.0394215 -0.0834433 0 
0.009512 -0.00580942 0 
0.00727909 -0.00484148 0 
0.00668002 -0.0033917 0 
0.00160941 -0.00704127 0 
0.000828742 -0.00482051 0 
0.00139917 -0.00525302 0 
-6.40249e-11 -0.00294664 0 
-6.22855e-11 0.00201624 0 
0.00471474 -0.0760894 0 
-6.05845e-11 -0.000414317 0 
-6.05172e-11 0.00033892 0 
0.000652322 -0.0148756 0 
0.0879308 -0.0808611 0 
0.0803974 -0.0781265 0 
0.0836969 -0.0680587 0 
0.00154952 -0.00704131 0 
0.000878003 -0.00650652 0 
0.000886632 -0.00482048 0 
-0.000123605 -0.0821566 0 
0.000967273 -0.0720558 0 
0.00747856 -0.0809796 0 
-6.1899e-11 -0.0015817 0 
-6.14178e-11 0.000921241 0 
0.00220445 -0.0425338 0 
6.13827e-11 5.90134e-05 0 
6.12631e-11 -1.08516e-06 0 
-4.47612e-05 0.000414814 0 
6.10037e-11 4.59415e-06 0 
6.09983e-11 8.69047e-06 0 
3.92068e-06 -0.00154435 0 
6.09953e-11 -1.81749e-05 0 
6.09893e-11 2.62611e-05 0 
4.04295e-05 -0.0012627 0 
6.09745e-11 -1.91098e-05 0 
6.09511e-11 4.48392e-05 0 
6.09773e-05 -0.0009021 0 
6.08955e-11 -1.27728e-05 0 
6.08549e-11 3.09781e-05 0 
4.13176e-05 -0.00016644 0 
-3.85164e-05 6.06448e-11 0 
9.51767e-06 6.05935e-11 0 
0.000177181 -4.15987e-05 0 
-0.000202419 6.01233e-11 0 
0.000184762 6.00755e-11 0 
0.00872068 -0.000335309 0 
0.119002 -0.0947711 0 
0.123561 -0.129355 0 
0.111877 -0.116011 0 
0.062564 -0.0761096 0 
0.0608448 -0.0803064 0 
0.056701 -0.0767191 0 
0.0118052 -0.0346508 0 
0.0158007 -0.0401089 0 
0.0115059 -0.04084 0 
-0.0189177 -0.11008 0 
-0.0258882 -0.063663 0 
-0.0299567 -0.0816763 0 
0.0572831 -0.0708837 0 
0.0578541 -0.0739656 0 
0.0540119 -0.0729192 0 
0.00599476 -0.0198784 0 
0.0082635 -0.0198455 0 
0.00857731 -0.0242856 0 
0.00375746 -0.00385901 0 
0.00352569 -0.00448753 0 
0.00245311 -0.00285687 0 
0.00422915 -0.00180154 0 
0.00491515 -0.00277344 0 
0.00290445 -0.00145089 0 
0.00497902 -0.0108988 0 
0.00295262 -0.00614805 0 
0.00615913 -0.0100131 0 
0.0074517 -0.129619 0 
0.00747623 -0.148105 0 
0.0214508 -0.139674 0 
0.00125771 -0.0145261 0 
-0.000583944 1.77978e-06 0 
0.00108188 -0.012466 0 
0.000645945 -0.0324162 0 
0.00266564 -0.0397416 0 
-0.00138413 -0.037828 0 
-0.0013199 -0.0377116 0 
0.000825171 -0.0461165 0 
-0.00378547 -0.0437717 0 
-0.00490488 -0.0345023 0 
-0.00389813 -0.0436273 0 
-0.00786325 -0.0399367 0 
0.0293383 -0.0155362 0 
0.0350368 -0.0177376 0 
0.035158 -0.0215719 0 
-0.00390005 -0.00689404 0 
-0.0029671 -0.00397051 0 
-0.00232362 -0.00377744 0 
0.00942169 -0.0383237 0 
0.00400415 -0.100272 0 
0.0408654 -0.064606 0 
6.10323e-11 4.02196e-05 0 
6.10041e-11 -1.54007e-05 0 
-4.99441e-05 -0.00127888 0 
-0.00130226 5.85387e-11 0 
0.000670527 5.72769e-11 0 
0.0290958 -0.00170848 0 
0.0394057 -0.083461 0 
0.0383185 -0.0809433 0 
0.0423315 -0.0790278 0 
0.00137551 -0.00521198 0 
0.000854451 -0.00486511 0 
0.00072648 -0.00339094 0 
0.0302478 -0.0482127 0 
0.0358412 -0.0525858 0 
0.0311261 -0.0552433 0 
-8.7692e-05 -0.00129758 0 
3.02904e-05 -3.96864e-07 0 
-3.54941e-05 -0.00134975 0 
-0.000502593 5.97037e-11 0 
0.000313359 5.93199e-11 0 
0.0180056 -0.000706635 0 
0.0458783 -0.0539416 0 
0.0413938 -0.0567051 0 
0.0402734 -0.0497606 0 
0.0238301 -0.056714 0 
0.0160089 -0.0475818 0 
0.0181058 -0.0458885 0 
0.048537 -0.0236456 0 
0.0564823 -0.0279837 0 
0.0559525 -0.0326955 0 
0.000637165 -0.000534301 0 
0.000309449 -0.000290254 0 
0.000151256 -0.000128603 0 
0.0308783 -0.0765686 0 
0.0422504 -0.0905663 0 
0.0305574 -0.0826328 0 
0.0998806 -0.103936 0 
0.111709 -0.115706 0 
0.0975503 -0.123441 0 
-0.00768533 -0.0301171 0 
-0.00802621 -0.0397108 0 
-0.0109304 -0.0346187 0 
0.0295217 -0.0190449 0 
0.0293726 -0.0154768 0 
0.0351294 -0.0216215 0 
-0.0186203 -0.0454326 0 
-0.0226267 -0.0524271 0 
-0.0201734 -0.0341889 0 
0.0321522 -0.0690104 0 
0.0266587 -0.0720943 0 
0.0262937 -0.0650309 0 
0.04023 -0.0497668 0 
0.0358388 -0.0525924 0 
0.0345285 -0.0455427 0 
0.0289429 -0.0412437 0 
0.0248816 -0.0435766 0 
0.0237225 -0.0368675 0 
0.0117619 -0.0346409 0 
0.00797662 -0.0347877 0 
0.00848941 -0.0292665 0 
0.00327883 0.00360636 0 
-0.00265716 -0.000869508 0 
-0.012208 -0.00899563 0 
0.0126567 -0.00885901 0 
0.0161018 -0.0103351 0 
0.0159375 -0.0125805 0 
0.00195088 -0.00357602 0 
0.00260186 -0.00529324 0 
0.0015409 -0.00369644 0 
-0.0244788 -0.0390111 0 
-0.0230608 -0.0530375 0 
-0.0268036 -0.0631693 0 
0.00108427 -0.00235281 0 
0.00155132 -0.0036975 0 
0.000798889 -0.00237824 0 
0.0558472 -0.0624364 0 
0.0512427 -0.0642143 0 
0.0513074 -0.058129 0 
0.00352498 -0.00449517 0 
0.00464692 -0.00661639 0 
0.00313106 -0.0049995 0 
0.00374161 -0.00382329 0 
0.00246888 -0.00232399 0 
0.00375639 -0.00309254 0 
0.0389972 -0.102288 0 
0.0315053 -0.111361 0 
0.0355107 -0.100341 0 
0.00926916 -0.157971 0 
0.00850681 -0.161147 0 
0.011323 -0.159172 0 
-8.69395e-05 6.04361e-11 0 
5.73634e-05 6.03819e-11 0 
0.0016909 -0.00012497 0 
0.0654973 -0.0337571 0 
0.065259 -0.0287066 0 
0.0760255 -0.0418915 0 
0.0056185 -0.00217661 0 
0.00423545 -0.00180404 0 
0.00309961 -0.000792572 0 
0.0972515 -0.0856846 0 
0.0907227 -0.0953484 0 
0.0879091 -0.0808941 0 
0.0883123 -0.081522 0 
0.0819406 -0.0886693 0 
0.0800859 -0.077587 0 
0.0559272 -0.062575 0 
0.0549592 -0.0675733 0 
0.0511849 -0.064114 0 
0.0402499 -0.0498012 0 
0.0414098 -0.0566773 0 
0.0358336 -0.0525834 0 
0.0345179 -0.0455611 0 
0.0358426 -0.0525858 0 
0.030256 -0.0482127 0 
0.0289467 -0.0412503 0 
0.0302516 -0.0482118 0 
0.0248855 -0.0435833 0 
0.0237195 -0.0368727 0 
0.02488 -0.0435794 0 
0.0199164 -0.0387631 0 
0.0154913 -0.0338757 0 
0.0158234 -0.0401089 0 
0.0117771 -0.0346508 0 
0.0117864 -0.0346834 0 
0.0115221 -0.040812 0 
0.00795006 -0.0347417 0 
0.00796947 -0.0347959 0 
0.0071273 -0.0407368 0 
0.00414102 -0.0340274 0 
0.0123502 -0.0181191 0 
0.0137372 -0.0228234 0 
0.0104012 -0.019193 0 
-0.00139635 -0.037844 0 
-0.00370211 -0.0436273 0 
-0.0051118 -0.0345023 0 
-0.00126489 -0.0533528 0 
0.000914241 -0.0461459 0 
0.00432025 -0.0546603 0 
0.0123515 -0.0181075 0 
0.0107283 -0.0139577 0 
0.013989 -0.0166095 0 
0.00931021 -0.0150867 0 
0.0104211 -0.0191898 0 
0.00764875 -0.0157855 0 
0.00896032 -0.0103567 0 
0.00712158 -0.00739076 0 
0.00960349 -0.00902385 0 
0.00980695 -0.00740734 0 
0.00719823 -0.00484148 0 
0.00960219 -0.00580942 0 
0.0248706 -0.0281816 0 
0.0271514 -0.0345176 0 
0.0221319 -0.0305397 0 
-0.00478376 -0.00732075 0 
-0.00551236 -0.00723407 0 
-0.0034127 -0.00377071 0 
-0.00805065 -0.109893 0 
-0.0162094 -0.109908 0 
-0.0173895 -0.0937478 0 
0.0126933 -0.00878315 0 
0.00951659 -0.00581115 0 
0.0123526 -0.00684305 0 
0.0160627 -0.0102505 0 
0.012255 -0.00684446 0 
0.0155511 -0.00794754 0 
0.0199436 -0.0118239 0 
0.0154425 -0.00794834 0 
0.0192293 -0.00914053 0 
0.0350038 -0.0176471 0 
0.0280803 -0.0119505 0 
0.0336292 -0.0137328 0 
0.0414501 -0.02461 0 
0.0470559 -0.0322554 0 
0.0403849 -0.028519 0 
0.00294674 -0.00137763 0 
0.00487151 -0.00284902 0 
0.0035081 -0.00226774 0 
0.011967 -0.00329906 0 
0.017378 -0.00643101 0 
0.0142383 -0.00560524 0 
0.107184 -0.0906167 0 
0.100935 -0.103767 0 
0.0966938 -0.0848124 0 
0.0444575 -0.0711948 0 
0.0438076 -0.0735621 0 
0.0442781 -0.0756186 0 
-0.00487266 -0.0193865 0 
-0.00563434 -0.0156133 0 
-0.00380228 -0.013694 0 
0.0332433 -0.0808979 0 
0.0324262 -0.0753621 0 
0.0379217 -0.0769153 0 
-0.00102348 -0.00117854 0 
0.000475942 0.000466803 0 
0.000488882 -0.000395372 0 
-0.0293601 -0.0827097 0 
-0.026742 -0.0621842 0 
-0.0290906 -0.036261 0 
-0.0285842 -0.0355993 0 
-0.0280766 -0.0639283 0 
-0.0162118 -0.00307832 0 
0.0383827 -0.0426235 0 
0.034516 -0.0455623 0 
0.0326305 -0.0385379 0 
0.00208911 -0.0277606 0 
0.000654119 -0.0324022 0 
-0.000805778 -0.0256475 0 
0.0123437 -0.0181079 0 
0.0104102 -0.0192087 0 
0.00931925 -0.015071 0 
0.00739933 -0.00617371 0 
0.0071384 -0.00735313 0 
0.00534193 -0.00496904 0 
0.0334836 -0.0137328 0 
0.0282167 -0.0119505 0 
0.0256006 -0.00828042 0 
0.0565407 -0.0280297 0 
0.0469713 -0.0188107 0 
0.0553142 -0.0227983 0 
0.0656351 -0.0339957 0 
0.0554254 -0.0227519 0 
0.0651149 -0.0284569 0 
0.000857487 -0.000997832 0 
0.00148954 -0.00196616 0 
0.000816796 -0.00120841 0 
0.00668127 -0.00338298 0 
0.00412948 -0.00180404 0 
0.00573757 -0.00217661 0 
0.0466376 -0.060547 0 
0.0466958 -0.0662112 0 
0.0419576 -0.0630895 0 
-0.0016883 -0.00127607 0 
-0.0012207 -0.000969711 0 
-0.000250479 9.80494e-05 0 
-0.00294399 -0.0170711 0 
-0.00142355 -0.0145378 0 
-0.00145342 -0.019656 0 
0.0652122 -0.0285207 0 
0.0516146 -0.0170443 0 
0.0619285 -0.0221327 0 
-0.000111949 0.000676616 0 
0.0175522 -0.00149192 0 
0.015227 -0.00118231 0 
0.139861 -0.115784 0 
0.139719 -0.151135 0 
0.127517 -0.101563 0 
0.00719091 -0.00145563 0 
0.00955301 -0.00285 0 
0.00546818 -0.00126051 0 
-0.000416166 -0.00580101 0 
-0.000951317 -0.00689556 0 
-0.000678901 -0.00427538 0 
0.0311414 -0.0552698 0 
0.0358401 -0.0525839 0 
0.0366571 -0.0594515 0 
0.0505019 -0.0746012 0 
0.0531884 -0.074103 0 
0.0566846 -0.0766786 0 
0.00152743 -0.0016288 0 
0.000872833 -0.00102155 0 
0.000809426 -0.000760946 0 
-0.000574362 -0.0086625 0 
-0.00101074 -0.00699849 0 
-0.000360586 -0.00570474 0 
0.0619329 -0.0219568 0 
0.044371 -0.0111069 0 
0.0546559 -0.0149926 0 
0.0539639 -0.0728361 0 
0.0579148 -0.0740707 0 
0.0532601 -0.0740862 0 
0.0089108 -0.0627677 0 
0.00435988 -0.0546933 0 
0.0099651 -0.0547893 0 
-0.000282897 -0.00041229 0 
0.00062254 -0.000131226 0 
0.0011719 0.000184636 0 
0.0568967 -0.0835489 0 
0.0659944 -0.0853149 0 
0.0611984 -0.0900912 0 
6.15927e-11 1.35827e-05 0 
6.14872e-11 4.39491e-05 0 
2.73259e-05 0.000701846 0 
0.0176442 -0.0266253 0 
0.0137268 -0.0228267 0 
0.0159548 -0.0213335 0 
0.0513267 -0.0403324 0 
0.0541256 -0.0368425 0 
0.0582946 -0.0454214 0 
0.000122002 -0.000864956 0 
-5.41729e-05 1.18664e-05 0 
9.84819e-05 -0.000611599 0 
-1.4875e-05 6.07244e-11 0 
-6.09008e-06 6.06867e-11 0 
-6.36898e-05 -7.60794e-06 0 
0.000793017 -0.00079047 0 
0.000397311 -0.00041337 0 
0.00029273 -0.000260764 0 
0.0544774 -0.0144106 0 
0.032969 -0.0055899 0 
0.0418917 -0.00777681 0 
9.80896e-05 -6.18004e-11 0 
-7.4787e-06 -6.16727e-11 0 
0.000938174 9.14247e-05 0 
6.11077e-11 5.91655e-05 0 
6.10606e-11 -3.13949e-05 0 
-7.19367e-05 -0.00056835 0 
0.0740185 -0.0834069 0 
0.0815926 -0.0890802 0 
0.0722144 -0.0916287 0 
-0.000351707 -0.00052364 0 
-0.00180634 -0.00179371 0 
0.000731013 4.43071e-05 0 
0.0420757 -0.0768619 0 
0.0420502 -0.0734649 0 
0.0456456 -0.0740315 0 
0.0402689 -0.0497668 0 
0.0345047 -0.0455427 0 
0.0384055 -0.0426629 0 
0.00585918 -0.0473826 0 
0.00711093 -0.0407545 0 
0.0108578 -0.0475209 0 
-0.00116484 -0.000956034 0 
-0.00339036 -0.00343351 0 
-0.0029755 -0.00277482 0 
-0.00709481 -0.0219817 0 
-0.00761768 -0.0173064 0 
-0.00549994 -0.0153935 0 
-0.00304232 -0.0169044 0 
-0.00391295 -0.013876 0 
-0.00238622 -0.0119839 0 
-0.0187933 -0.0449839 0 
-0.0149065 -0.0532462 0 
-0.0185565 -0.0619187 0 
-0.000467734 -0.00570518 0 
-0.000634311 -0.00435825 0 
-0.000160513 -0.0030675 0 
0.04655 -0.0704855 0 
0.0453081 -0.0701961 0 
0.0480018 -0.0724211 0 
0.00201685 -0.0276354 0 
-0.00072567 -0.0257863 0 
0.000794705 -0.0218204 0 
-0.0111025 -0.0343208 0 
-0.00788059 -0.039963 0 
-0.0110248 -0.0457398 0 
0.00727163 -0.00483966 0 
0.00737468 -0.00611974 0 
0.00527115 -0.00393489 0 
-0.000837662 -0.000140448 0 
-0.00162198 -0.0016797 0 
-0.00180141 -0.00154082 0 
0.000684503 -0.00339299 0 
0.000364931 -0.00297397 0 
0.000273795 -0.00186341 0 
-0.018745 -0.0620543 0 
-0.0127818 -0.0679224 0 
-0.0154805 -0.0794446 0 
-0.001275 -0.019656 0 
-0.00159378 -0.0145378 0 
-7.58708e-05 -0.0168208 0 
0.0427573 -0.0663632 0 
0.038568 -0.0619171 0 
0.0390298 -0.0605121 0 
0.0379237 -0.0430401 0 
0.030426 -0.0320699 0 
0.0322832 -0.0310618 0 
0.0478549 -0.0787843 0 
0.0458094 -0.0739215 0 
0.053288 -0.0784691 0 
-0.00240823 -0.0037899 0 
-0.00162966 -0.00170101 0 
-0.00122025 -0.00166977 0 
0.0267452 -0.0919697 0 
0.0425471 -0.119987 0 
0.0212288 -0.0913377 0 
0.0659283 -0.142012 0 
0.0430692 -0.119625 0 
0.0645134 -0.127168 0 
0.0755188 -0.0300146 0 
0.0909278 -0.0436214 0 
0.0903863 -0.0501626 0 
0.00155014 -0.00911173 0 
0.00261375 -0.00971019 0 
0.00266747 -0.0122438 0 
0.03928 -0.0836788 0 
0.0345612 -0.0859961 0 
0.0384296 -0.0807509 0 
0.0089457 -0.010382 0 
0.0065945 -0.00841661 0 
0.00713754 -0.00736312 0 
0.000719797 -0.014869 0 
0.0045051 -0.0264878 0 
0.00530189 -0.0313231 0 
0.0414707 -0.0245742 0 
0.0483338 -0.0281517 0 
0.0470263 -0.0323066 0 
-0.00232582 -0.0037899 0 
-0.00129229 -0.00166977 0 
-0.00171257 -0.0036249 0 
-0.00252051 -0.000181384 0 
0.0044725 -0.0437938 0 
0.00575301 -0.0516314 0 
6.10518e-11 6.3477e-05 0 
6.10192e-11 -2.62941e-05 0 
-9.01228e-05 -0.00114687 0 
-0.0186899 -0.0621498 0 
-0.0147829 -0.0530322 0 
-0.0128167 -0.0678619 0 
0.0214071 -0.0416473 0 
0.0150248 -0.0342654 0 
0.016939 -0.0324297 0 
0.0282912 -0.0882117 0 
0.044379 -0.099134 0 
0.0443209 -0.107596 0 
9.68632e-05 -8.58355e-05 0 
0.0001315 -0.000102692 0 
-2.16265e-06 4.58309e-05 0 
0.0240693 -0.138852 0 
0.0633248 -0.183902 0 
0.0497604 -0.19534 0 
0.0169007 -0.0176885 0 
0.0222385 -0.0262553 0 
0.0159518 -0.0200105 0 
0.0130831 -0.0358796 0 
0.0197768 -0.0438635 0 
0.018153 -0.0459105 0 
-0.00166584 -0.00131497 0 
-0.000281327 0.000151479 0 
-0.000720495 -1.94608e-05 0 
0.107897 -0.0893826 0 
0.111085 -0.114626 0 
0.100359 -0.104765 0 
0.00711755 -0.00738925 0 
0.00514929 -0.00588248 0 
0.00536371 -0.00493131 0 
0.0706393 -0.0669506 0 
0.0657047 -0.0598803 0 
0.071212 -0.059142 0 
0.0190992 -0.00914053 0 
0.015562 -0.00794834 0 
0.0141558 -0.00548113 0 
0.0199966 -0.0119157 0 
0.0191706 -0.00903894 0 
0.02431 -0.0136332 0 
0.0337844 -0.139043 0 
0.0672603 -0.163607 0 
0.0611025 -0.180313 0 
0.00851045 -0.147998 0 
0.0081971 -0.15806 0 
0.0166192 -0.153009 0 
0.00087741 -0.00942658 0 
-0.000501108 -3.07256e-05 0 
0.00117962 -0.00917202 0 
0.000389291 0.000691567 0 
0.000557393 0.000549071 0 
0.000705425 0.000458627 0 
0.00260613 -0.00529369 0 
0.00398125 -0.00712793 0 
0.00320756 -0.0074017 0 
0.0384671 -0.032175 0 
0.0325373 -0.0286829 0 
0.0342737 -0.0252936 0 
0.0127371 -0.00885901 0 
0.0123042 -0.00675921 0 
0.0160139 -0.0103351 0 
0.0365014 -0.0114597 0 
0.0397822 -0.0158028 0 
0.0305025 -0.00975533 0 
0.0283345 -0.0859954 0 
0.0332475 -0.0808733 0 
0.0342588 -0.0860125 0 
0.0232871 -0.0104564 0 
0.0192417 -0.00914033 0 
0.0174685 -0.006295 0 
-0.00167965 -0.00355927 0 
-0.000924028 -0.00182328 0 
-0.00110949 -0.0033194 0 
0.0404311 -0.028519 0 
0.0469874 -0.0322554 0 
0.0447805 -0.0360651 0 
0.00125596 -0.0151783 0 
0.00108345 -0.0118819 0 
0.00400637 -0.0262001 0 
0.130747 -0.101563 0 
0.136424 -0.151135 0 
0.124755 -0.131264 0 
0.0345091 -0.0455459 0 
0.0302535 -0.0482085 0 
0.0289507 -0.0412435 0 
0.0322782 -0.0595223 0 
0.0264933 -0.0508432 0 
0.0330686 -0.0568126 0 
0.0266377 -0.0508562 0 
0.0252397 -0.053456 0 
0.0195989 -0.0438643 0 
0.0378199 -0.0767721 0 
0.0373956 -0.071823 0 
0.0421574 -0.0734735 0 
0.000826667 -0.000790597 0 
0.00085827 -0.000996501 0 
0.000368924 -0.000413263 0 
0.00448398 -0.0259272 0 
0.000613993 -0.0121501 0 
0.00391109 -0.021801 0 
0.123983 -0.129927 0 
0.137524 -0.153041 0 
0.118165 -0.166075 0 
-0.000231997 -0.000526619 0 
-0.00294875 -0.00268126 0 
-0.00196268 -0.00178982 0 
0.0107306 -0.0139559 0 
0.0093115 -0.0150753 0 
0.00800737 -0.0114778 0 
0.000249755 9.87092e-05 0 
0.00125936 -0.00010814 0 
0.000789315 -0.000302264 0 
0.0289212 -0.0871202 0 
0.0435702 -0.108897 0 
0.0277913 -0.0932888 0 
0.0157885 -0.00250896 0 
0.013421 -0.00218436 0 
0.00726076 -0.00029636 0 
0.0803816 -0.0780444 0 
0.0744363 -0.0833549 0 
0.0731864 -0.0748989 0 
0.000108702 0.000250604 0 
-5.68976e-05 1.01272e-05 0 
0.000143508 0.000541484 0 
0.0466654 -0.0604989 0 
0.051205 -0.0641204 0 
0.0466786 -0.0662411 0 
0.0301175 -0.0317771 0 
0.0271502 -0.0345196 0 
0.0248727 -0.0281779 0 
0.00617719 -0.0100126 0 
0.00681263 -0.00850053 0 
0.0104792 -0.0146907 0 
-0.00760681 -0.0173058 0 
-0.00964679 -0.0185823 0 
-0.00727726 -0.011925 0 
0.00240525 -0.0151338 0 
0.00130539 -0.011415 0 
0.00262781 -0.0123219 0 
0.0618313 -0.0221327 0 
0.0517159 -0.0170443 0 
0.0445319 -0.0108283 0 
0.000634176 -0.000536196 0 
0.001232 -0.000812839 0 
0.00144647 -0.00119218 0 
0.00763935 -0.0157829 0 
0.00588358 -0.0160977 0 
0.00546974 -0.0126547 0 
0.0886748 -0.0808941 0 
0.0899167 -0.0953484 0 
0.0816361 -0.0891968 0 
0.0512441 -0.0582386 0 
0.0512969 -0.0641204 0 
0.0465961 -0.0604989 0 
0.00766094 -0.0158203 0 
0.00828829 -0.0197956 0 
0.00585828 -0.0160539 0 
-0.00479883 -0.00734875 0 
-0.00376064 -0.00687599 0 
-0.00572135 -0.0112175 0 
0.00135458 -0.0115002 0 
0.00163302 -0.00911173 0 
0.00258269 -0.0122438 0 
0.00901474 -0.0627986 0 
0.0149823 -0.0616214 0 
0.0144599 -0.0698755 0 
0.0109565 -0.0253233 0 
0.00616152 -0.0182626 0 
0.00770389 -0.017392 0 
0.00126678 -0.0145532 0 
0.00478308 -0.0316226 0 
0.00158453 -0.0184301 0 
0.0321936 -0.0596688 0 
0.0253462 -0.0536405 0 
0.0265618 -0.0507246 0 
-0.0147196 -0.0391437 0 
-0.0112015 -0.0460269 0 
-0.0147005 -0.0529431 0 
0.144194 -0.131267 0 
0.140447 -0.11679 0 
0.114593 -0.0510541 0 
-0.00247529 -0.0121382 0 
-0.00381317 -0.0137031 0 
-0.00301439 -0.00918978 0 
0.00130157 -0.0114159 0 
0.000285141 -0.0102986 0 
0.000759741 -0.00824288 0 
0.0331184 -0.0811143 0 
0.0273117 -0.0793043 0 
0.032531 -0.0751806 0 
0.044843 -0.0359931 0 
0.0513367 -0.0403515 0 
0.0480946 -0.043796 0 
0.0602726 -0.0537466 0 
0.0558248 -0.0560943 0 
0.0544685 -0.0483891 0 
0.000881757 -0.0139408 0 
0.00166781 -0.0183214 0 
-7.57268e-05 -0.0168118 0 
0.0296508 -0.0826327 0 
0.0430742 -0.0905663 0 
0.0437699 -0.0982089 0 
0.0503546 -0.0727011 0 
0.0465555 -0.0704855 0 
0.0479963 -0.0724211 0 
0.066887 -0.143672 0 
0.0637889 -0.125913 0 
0.0850022 -0.139547 0 
0.076184 -0.0418115 0 
0.0863813 -0.0531632 0 
0.0819624 -0.0563184 0 
0.00866589 -0.158922 0 
0.0119155 -0.158237 0 
0.0162025 -0.152242 0 
0.000191908 -6.36715e-11 0 
0.000306836 -6.27987e-11 0 
0.000670526 -9.68437e-05 0 
-0.00493481 -9.01567e-11 0 
0.00533001 -6.11495e-11 0 
-0.0124297 -0.00860595 0 
0.0547579 -0.0148964 0 
0.0414364 -0.0069883 0 
0.0679057 -0.0218528 0 
0.00567317 -0.152655 0 
-0.000313079 -0.140589 0 
0.0104627 -0.144594 0 
-0.00143058 -0.0145408 0 
-0.00142157 -0.0102972 0 
-0.000441473 -0.0124268 0 
0.00826025 -0.0335687 0 
0.00448419 -0.026392 0 
0.00391089 -0.021349 0 
0.00108018 -0.000865991 0 
0.00151372 -0.00126084 0 
0.000156696 -6.17881e-05 0 
0.0540079 -0.0728892 0 
0.0503816 -0.0726829 0 
0.0506098 -0.0727002 0 
0.000308671 -0.000288148 0 
0.000383921 -0.000390368 0 
7.49315e-05 -8.85529e-05 0 
-0.0147563 -0.0215178 0 
-0.0119427 -0.0198653 0 
-0.0162501 -0.0306268 0 
6.16622e-11 -1.7981e-05 0 
6.15907e-11 6.45227e-05 0 
8.35994e-05 0.00057108 0 
0.00996551 -0.0548156 0 
0.00585239 -0.0473709 0 
0.0108638 -0.0475312 0 
-0.0274876 -0.0639442 0 
-0.0168022 -0.0190186 0 
-0.00910033 -0.00327039 0 
0.0217161 -0.13876 0 
0.0165135 -0.152194 0 
0.0282329 -0.139813 0 
0.000720753 -0.00339288 0 
0.00023692 -0.00186351 0 
0.000499576 -0.00223845 0 
4.98825e-05 0.000643265 0 
-0.000247151 9.1767e-05 0 
0.000537184 0.00061838 0 
0.0366753 -0.0594497 0 
0.0413968 -0.0566925 0 
0.0419633 -0.0630944 0 
0.00268803 -0.0627766 0 
0.00431094 -0.0546933 0 
0.00898291 -0.0627677 0 
0.046986 -0.0322367 0 
0.0483788 -0.0282297 0 
0.0541805 -0.036684 0 
0.00146284 -0.000568644 0 
0.00196265 -0.00105817 0 
0.000813464 -0.000422951 0 
-0.00552309 -0.0112175 0 
-0.00393212 -0.00687599 0 
-0.00419789 -0.0104246 0 
0.00662925 -0.00347309 0 
0.00495999 -0.0028511 0 
0.00418004 -0.00171647 0 
0.0154334 -0.00794754 0 
0.0123623 -0.00684446 0 
0.0112751 -0.00473634 0 
0.0370934 -0.0087588 0 
0.0432767 -0.0135177 0 
0.0306837 -0.00717481 0 
-0.000237972 6.00733e-11 0 
0.000211124 6.00046e-11 0 
0.0104121 -0.000388929 0 
0.0743258 -0.0834069 0 
0.0719285 -0.0916287 0 
0.0659997 -0.0854417 0 
-0.0031692 -0.0228632 0 
-0.00072974 -0.0257995 0 
-0.00253289 -0.0298378 0 
0.0646255 -0.0667213 0 
0.059617 -0.0670941 0 
0.060926 -0.061059 0 
0.0442364 -0.0990148 0 
0.0426926 -0.0899071 0 
0.0563607 -0.101783 0 
0.0468841 -0.018837 0 
0.0398559 -0.0159305 0 
0.0364076 -0.0112972 0 
0.024328 -0.0136304 0 
0.0294101 -0.0155418 0 
0.0294884 -0.0189873 0 
0.0806457 -0.077587 0 
0.0813553 -0.0886693 0 
0.0742124 -0.0837428 0 
-0.0012887 -0.0533632 0 
-0.00360499 -0.0614944 0 
-0.006625 -0.0504628 0 
0.0100659 -0.0403642 0 
0.00416316 -0.0261888 0 
0.00852841 -0.0337384 0 
0.0302871 -0.00377188 0 
-0.000932459 0.00277645 0 
0.0394077 -0.0064725 0 
0.0104081 -0.144591 0 
-0.000193282 -0.140595 0 
0.00631001 -0.133357 0 
0.00513131 -0.00586148 0 
0.00657255 -0.00841515 0 
0.00466164 -0.0066176 0 
0.00577437 -0.00920339 0 
0.00681337 -0.0122484 0 
0.00478036 -0.0096797 0 
0.0176421 -0.0266289 0 
0.0159566 -0.0213304 0 
0.0201326 -0.0246943 0 
0.0413418 -0.0203004 0 
0.033522 -0.0137247 0 
0.039833 -0.0159453 0 
0.0255997 -0.0082428 0 
0.0178084 -0.00452664 0 
0.0217095 -0.00520207 0 
0.0248699 -0.0281698 0 
0.0221612 -0.0223558 0 
0.0270947 -0.0254386 0 
0.00581443 -0.0242118 0 
0.00525948 -0.0288297 0 
0.00310919 -0.0233183 0 
0.040403 -0.0285677 0 
0.0448136 -0.0360077 0 
0.0384413 -0.0321647 0 
0.0351636 -0.0216062 0 
0.0403984 -0.028532 0 
0.0342772 -0.0252826 0 
0.0481029 -0.0438052 0 
0.0503053 -0.0512091 0 
0.0442984 -0.0468056 0 
0.0691937 -0.0492765 0 
0.0714344 -0.0587531 0 
0.0647101 -0.0514468 0 
0.0159373 -0.0125958 0 
0.0191192 -0.0171536 0 
0.0152367 -0.0147628 0 
0.0215832 -0.00494874 0 
0.0131201 -0.00218436 0 
0.0161247 -0.00250896 0 
0.0419028 -0.0394402 0 
0.0480415 -0.043699 0 
0.0443447 -0.0468858 0 
0.00530164 -0.0318953 0 
0.00450534 -0.0259702 0 
0.00974411 -0.0405699 0 
0.048481 -0.0236416 0 
0.0397571 -0.0159305 0 
0.046983 -0.018837 0 
-0.00359054 -0.0615507 0 
0.00266359 -0.062776 0 
0.00102987 -0.072004 0 
8.01104e-05 -8.58502e-05 0 
9.04155e-06 4.58407e-05 0 
-4.65002e-05 4.0925e-05 0 
5.77498e-05 4.51198e-06 0 
-8.24849e-05 -0.00125876 0 
-0.000164715 -0.00118666 0 
0.0540386 -0.0728361 0 
0.0531863 -0.0740862 0 
0.0503584 -0.072723 0 
-0.00118192 -0.000888981 0 
-0.000365621 -0.000536067 0 
0.000419763 0.000160993 0 
0.050339 -0.0726894 0 
0.0532097 -0.0741268 0 
0.0482601 -0.0719633 0 
0.038401 -0.0642947 0 
0.0323512 -0.0596488 0 
0.0330224 -0.0567325 0 
8.63373e-05 -6.84688e-05 0 
0.000372291 -0.000410848 0 
0.000138996 -0.000115059 0 
0.0681958 -0.0213502 0 
0.0409985 -0.00774686 0 
0.0541889 -0.012107 0 
0.0264857 -0.0508562 0 
0.0197714 -0.0438643 0 
0.02147 -0.0415455 0 
0.0112427 -0.0238356 0 
0.014777 -0.0280796 0 
0.0116977 -0.0290184 0 
0.0234441 -0.0240194 0 
0.0172459 -0.0148808 0 
0.0241142 -0.0212715 0 
0.0683241 -0.0215723 0 
0.0538678 -0.0115508 0 
0.0877195 -0.035123 0 
0.0453118 -0.0701901 0 
0.0426196 -0.0660587 0 
0.0444354 -0.0711763 0 
-0.000456802 0.00146438 0 
0.0280121 -0.0035855 0 
0.0229886 -0.00218666 0 
0.00264323 -0.00964951 0 
0.00155253 -0.00703985 0 
0.00238049 -0.00739978 0 
0.0465486 -0.07049 0 
0.0482429 -0.0719593 0 
0.0433057 -0.0678118 0 
0.0050383 -0.010979 0 
0.00396784 -0.0118776 0 
0.001886 -0.00639664 0 
0.0421315 -0.0769586 0 
0.0456081 -0.0739666 0 
0.0448668 -0.0757125 0 
0.0658731 -0.0337571 0 
0.075544 -0.0418915 0 
0.0729642 -0.0461996 0 
0.0662764 -0.0982684 0 
0.0531984 -0.0923822 0 
0.061263 -0.0901802 0 
0.0558752 -0.0325616 0 
0.0565641 -0.0281254 0 
0.0643156 -0.0383083 0 
-0.000458033 -0.0086625 0 
-0.000463384 -0.00570474 0 
3.27991e-05 -0.00718171 0 
0.0506337 -0.072717 0 
0.0480075 -0.0724242 0 
0.047651 -0.0736274 0 
0.0506434 -0.0727002 0 
0.0503441 -0.0726829 0 
0.0480028 -0.0724323 0 
0.047738 -0.0787843 0 
0.0533627 -0.0784691 0 
0.0568614 -0.0834978 0 
0.0237227 -0.0368651 0 
0.0189718 -0.0324573 0 
0.0221302 -0.0305468 0 
0.0415788 -0.0917482 0 
0.0426385 -0.0834621 0 
0.0443532 -0.0799812 0 
0.0623973 -0.0761096 0 
0.067863 -0.0794167 0 
0.0610016 -0.0803064 0 
-0.00620333 -0.00680121 0 
-0.00857052 -0.0126006 0 
-0.00972815 -0.0123474 0 
0.142194 -0.111741 0 
0.146199 -0.188359 0 
0.138347 -0.153512 0 
0.0277301 -0.00431286 0 
0.0369117 -0.00834762 0 
0.0226048 -0.00350515 0 
-0.000642025 -0.0256475 0 
0.000492205 -0.0324022 0 
-0.00263065 -0.0300072 0 
0.0620343 -0.0715039 0 
0.0623977 -0.0760851 0 
0.0579236 -0.0741092 0 
0.0465481 -0.0704821 0 
0.0427603 -0.0663611 0 
0.0453065 -0.0701931 0 
3.20894e-05 3.67462e-05 0 
-8.59161e-05 0.000443372 0 
-5.04232e-05 0.000632942 0 
0.0813745 -0.0887437 0 
0.0902419 -0.0959117 0 
0.0794429 -0.0997339 0 
0.0557377 -0.0559207 0 
0.0512389 -0.0582533 0 
0.0503171 -0.051197 0 
0.00158138 -0.00708983 0 
0.00142363 -0.00521063 0 
0.00235489 -0.00735544 0 
0.0137292 -0.0228447 0 
0.0148059 -0.0280796 0 
0.0112114 -0.0238356 0 
0.02796 -0.0483828 0 
0.0215137 -0.041636 0 
0.0233029 -0.0394267 0 
0.0159861 -0.0200105 0 
0.0221618 -0.0262553 0 
0.0206247 -0.0284813 0 
0.0686435 -0.0215723 0 
0.0871734 -0.035123 0 
0.0914395 -0.044395 0 
-0.00292131 -0.00933508 0 
-0.00411276 -0.0102709 0 
-0.00294266 -0.00637263 0 
0.145514 -0.190719 0 
0.122225 -0.249405 0 
0.12496 -0.199748 0 
0.00107354 -0.0124171 0 
0.000957671 -0.00948677 0 
0.00349441 -0.0215589 0 
0.0280128 -0.0483707 0 
0.0295902 -0.0463085 0 
0.034004 -0.0546234 0 
0.0110467 -0.00190669 0 
0.0147437 -0.00376048 0 
0.00877134 -0.00167327 0 
0.0358283 -0.035513 0 
0.0301199 -0.0317732 0 
0.0325402 -0.0286995 0 
-0.0109411 -0.0346496 0 
-0.014289 -0.0391043 0 
-0.012755 -0.0275379 0 
0.0766287 -0.0366861 0 
0.0751239 -0.0306987 0 
0.0908547 -0.0493513 0 
0.0439531 -0.0736069 0 
0.0441732 -0.0668414 0 
0.0444545 -0.0798853 0 
0.038782 -0.0527157 0 
0.0423865 -0.0629178 0 
0.0410268 -0.0609384 0 
-0.00345519 -0.00340937 0 
-0.00557662 -0.00733991 0 
-0.0060006 -0.00685546 0 
0.0184869 -0.00154028 0 
-0.000221667 0.000926692 0 
0.0216589 -0.00210031 0 
0.0532194 -0.0741567 0 
0.0579668 -0.0739806 0 
0.0566485 -0.0766162 0 
0.0378974 -0.0769064 0 
0.0421013 -0.0733763 0 
0.0420118 -0.0769726 0 
0.0312416 -0.0672091 0 
0.0394585 -0.0717731 0 
0.0402104 -0.0766183 0 
0.0578494 -0.0739806 0 
0.0624879 -0.0762414 0 
0.0567605 -0.0766162 0 
0.067432 -0.0728581 0 
0.0677365 -0.0791975 0 
0.0625023 -0.0762915 0 
0.0609288 -0.0610675 0 
0.0557176 -0.0559088 0 
0.0604045 -0.0539751 0 
-0.0122758 -0.0275379 0 
-0.0147896 -0.0391043 0 
-0.0159288 -0.0311445 0 
0.00494346 -0.0109669 0 
0.00200621 -0.00641194 0 
0.00297432 -0.00610647 0 
-5.61773e-05 -2.06199e-05 0 
-1.63529e-05 1.77758e-05 0 
4.58628e-06 -4.90831e-05 0 
0.100612 -0.103936 0 
0.0969081 -0.123441 0 
0.0876487 -0.11048 0 
-1.8833e-05 3.40929e-05 0 
0.000152995 -8.34909e-05 0 
3.54392e-05 -5.19328e-05 0 
0.0428005 -0.0670004 0 
0.0426191 -0.0660735 0 
0.0398819 -0.0600915 0 
0.0549463 -0.0675705 0 
0.0571539 -0.0708794 0 
0.0530176 -0.0711368 0 
0.00800559 -0.0114809 0 
0.00931528 -0.0150688 0 
0.0067997 -0.0122502 0 
0.0539733 -0.0728293 0 
0.0506333 -0.0727409 0 
0.05305 -0.0710532 0 
0.0355078 -0.136058 0 
0.058922 -0.18409 0 
0.0286182 -0.138658 0 
0.0243681 -0.0135611 0 
0.0294519 -0.0190506 0 
0.0244457 -0.0167424 0 
0.070418 -0.0673339 0 
0.0714472 -0.0587346 0 
0.0763426 -0.067454 0 
0.0502376 -0.0513262 0 
0.0481724 -0.0436847 0 
0.0542705 -0.0484057 0 
0.0677406 -0.0792338 0 
0.0741821 -0.0836558 0 
0.0661091 -0.0852521 0 
0.0384218 -0.0426235 0 
0.0326053 -0.0385379 0 
0.0358218 -0.0355434 0 
0.0288856 -0.0339338 0 
0.0333811 -0.0435187 0 
0.0269566 -0.0354766 0 
0.000657562 -0.000498962 0 
0.000132307 -0.000161434 0 
0.000451386 -0.00028383 0 
-3.92895e-05 0.000433729 0 
0.0121445 -0.000932824 0 
0.0106463 -0.000794651 0 
-0.00519423 -0.00440376 0 
-0.00594022 -0.00583874 0 
-0.0111538 -0.0118517 0 
0.0644038 -0.0382652 0 
0.0727357 -0.0458081 0 
0.0691738 -0.0492523 0 
0.04531 -0.0701931 0 
0.0427599 -0.0663611 0 
0.0426138 -0.0660686 0 
0.0414086 -0.0566721 0 
0.0466139 -0.0605058 0 
0.0419618 -0.0630969 0 
0.0266161 -0.0508432 0 
0.0279967 -0.0483233 0 
0.0329722 -0.0568126 0 
-0.00598476 -0.00593274 0 
-0.00299496 -0.0027347 0 
-0.00605427 -0.00693806 0 
0.0265546 -0.0507368 0 
0.0214177 -0.041636 0 
0.0280311 -0.0483828 0 
-0.000443878 9.44497e-05 0 
0.000647525 -0.00541424 0 
0.00116764 -0.00859789 0 
0.0552915 -0.0227983 0 
0.047009 -0.0188107 0 
0.0432893 -0.0136316 0 
0.0425567 -0.0836038 0 
0.043971 -0.0736377 0 
0.0444315 -0.0798455 0 
0.0815763 -0.0556497 0 
0.0868446 -0.0539657 0 
0.0909891 -0.0685852 0 
-0.00934338 -0.0246854 0 
-0.0111413 -0.0343029 0 
-0.0125245 -0.0279371 0 
0.031381 -0.0719591 0 
0.0314221 -0.0668968 0 
0.0400149 -0.0769564 0 
0.0503613 -0.0726894 0 
0.0482452 -0.0719633 0 
0.0465507 -0.0704938 0 
0.056669 -0.0279438 0 
0.0655005 -0.0338163 0 
0.0641885 -0.0385284 0 
0.0465436 -0.07049 0 
0.0433219 -0.0678118 0 
0.0427604 -0.0663609 0 
0.0376609 -0.0434953 0 
0.032597 -0.0305183 0 
0.0397388 -0.0441024 0 
-6.07539e-11 -0.000511327 0 
-6.05103e-11 0.000399998 0 
0.000789231 -0.01815 0 
0.0413575 -0.0827248 0 
0.0309147 -0.0719578 0 
0.0404259 -0.0769576 0 
0.000323728 -0.00567907 0 
7.85937e-05 -0.00709328 0 
-0.000100135 -0.00454317 0 
-0.00605987 -0.00606383 0 
-0.00597593 -0.00680132 0 
-0.0100124 -0.0123473 0 
0.0473722 -0.0706505 0 
0.0457542 -0.0624923 0 
0.0430665 -0.0468762 0 
0.0271453 -0.0345176 0 
0.0237208 -0.0368683 0 
0.0221343 -0.0305397 0 
-0.000213693 -0.000532154 0 
0.00109896 0.000310968 0 
0.000321372 0.000158459 0 
0.0198707 -0.0146232 0 
0.0244363 -0.0167453 0 
0.0236311 -0.0196381 0 
0.0279899 -0.0483311 0 
0.0232876 -0.0394532 0 
0.0295856 -0.0463005 0 
0.0978821 -0.0847723 0 
0.0899732 -0.0685574 0 
0.0978822 -0.0698156 0 
0.0145765 -0.0221002 0 
0.0188292 -0.0305465 0 
0.0129123 -0.0239125 0 
0.000679072 -0.000536205 0 
0.000427075 -0.00024174 0 
0.00117885 -0.000812829 0 
-0.00191245 -0.00806249 0 
-0.00195927 -0.00586283 0 
-0.00113165 -0.00502927 0 
0.017547 -0.00643101 0 
0.0191705 -0.00901705 0 
0.0140842 -0.00560524 0 
0.0515058 -0.0403324 0 
0.0580733 -0.0454214 0 
0.0543551 -0.0485645 0 
-6.05231e-11 -0.000299964 0 
-6.05765e-11 0.00029975 0 
0.000599832 -0.00886051 0 
0.0439738 -0.0735711 0 
0.0424223 -0.0629642 0 
0.0441255 -0.066924 0 
0.0333748 -0.029506 0 
0.0322451 -0.0310514 0 
0.0245882 -0.0180375 0 
-0.000756693 5.93429e-11 0 
0.000388657 5.85756e-11 0 
0.0222988 -0.000991902 0 
0.00998028 -0.0548156 0 
0.00434405 -0.0546659 0 
0.00585493 -0.0473709 0 
0.0139746 -0.0166095 0 
0.0107395 -0.0139577 0 
0.0118255 -0.012482 0 
0.0149474 -0.0617131 0 
0.0100075 -0.0548404 0 
0.0154567 -0.0539986 0 
0.0358029 -0.0355059 0 
0.0384632 -0.0322122 0 
0.0418838 -0.039451 0 
-0.000571796 -0.00427703 0 
-0.0010639 -0.00689383 0 
-0.0011937 -0.00513108 0 
0.0597326 -0.0668939 0 
0.0558265 -0.0624295 0 
0.0607991 -0.0612789 0 
0.0427617 -0.0663632 0 
0.0433083 -0.0677882 0 
0.0385493 -0.0619171 0 
0.0669191 -0.163293 0 
0.0661428 -0.142035 0 
0.0905877 -0.161786 0 
0.0295941 -0.0463005 0 
0.0233079 -0.0394532 0 
0.0251686 -0.0374328 0 
0.0182803 -0.106439 0 
0.0244001 -0.098543 0 
0.0270622 -0.105857 0 
0.00350301 -0.00226581 0 
0.00373231 -0.00304323 0 
0.00229447 -0.00172742 0 
0.00997933 -0.0547917 0 
0.0108587 -0.0475399 0 
0.0154801 -0.0540391 0 
-0.000705218 -7.15946e-06 0 
0.00126678 -0.0152303 0 
0.00158453 -0.0176909 0 
0.097025 -0.123782 0 
0.0859668 -0.139115 0 
0.0789393 -0.12187 0 
0.0444386 -0.0711763 0 
0.0426105 -0.0660587 0 
0.0428201 -0.0670343 0 
-0.00189761 -0.00575527 0 
-0.00116831 -0.00324086 0 
-0.0011866 -0.00512511 0 
0.010731 -0.013943 0 
0.00895039 -0.0103836 0 
0.0118372 -0.0125022 0 
0.0326151 -0.0385548 0 
0.0301328 -0.0317732 0 
0.0358043 -0.035513 0 
0.0125076 -0.0107361 0 
0.0151908 -0.014762 0 
0.011846 -0.0125036 0 
-6.11413e-11 -3.72244e-05 0 
-6.13509e-11 0.000164876 0 
0.000172648 -0.000369335 0 
0.0656697 -0.0341093 0 
0.0731903 -0.0458081 0 
0.0640366 -0.0382652 0 
0.0469541 -0.0187157 0 
0.0363196 -0.0114496 0 
0.0433696 -0.0137708 0 
0.149681 -0.140769 0 
0.148252 -0.188359 0 
0.137531 -0.111741 0 
0.0432876 -0.0678242 0 
0.0384889 -0.0642765 0 
0.0385623 -0.0618946 0 
0.0228451 -0.00308907 0 
0.0366743 -0.0087588 0 
0.0310419 -0.00717481 0 
0.0241405 -0.0989927 0 
0.0325233 -0.0971798 0 
0.0273577 -0.105345 0 
0.0542315 -0.0366589 0 
0.0614254 -0.0421131 0 
0.0581822 -0.0456161 0 
0.0403824 -0.028532 0 
0.0384572 -0.0321922 0 
0.03428 -0.0252826 0 
0.0609199 -0.0804479 0 
0.0679686 -0.0792338 0 
0.0658959 -0.0852521 0 
0.0070768 -0.0407545 0 
0.0114979 -0.0408441 0 
0.0108799 -0.0475209 0 
-0.00253544 5.72959e-11 0 
-0.00270705 5.10428e-11 0 
0.0432304 0.000148613 0 
0.0801022 -0.0775605 0 
0.0734168 -0.075298 0 
0.0768777 -0.0674506 0 
-0.0107493 -0.0118508 0 
-0.00619271 -0.00583933 0 
-0.00986628 -0.0125942 0 
0.0199029 -0.0119157 0 
0.0244097 -0.0136332 0 
0.0244082 -0.0166775 0 
0.0279694 -0.0483707 0 
0.0340226 -0.0546234 0 
0.0330144 -0.0567393 0 
0.047803 -0.0786717 0 
0.0568054 -0.0835949 0 
0.0503949 -0.0848542 0 
0.00515236 -0.0288297 0 
0.00209441 -0.0277484 0 
0.00321896 -0.0233183 0 
0.0243852 -0.0167424 0 
0.0295125 -0.0190506 0 
0.0286751 -0.0223369 0 
0.0385567 -0.0618975 0 
0.034009 -0.0546145 0 
0.0390217 -0.0604981 0 
-0.000357331 -0.00570999 0 
-0.000277798 -0.00306239 0 
-4.72315e-05 -0.00461845 0 
0.0425609 -0.0793707 0 
0.0395156 -0.0836513 0 
0.0422426 -0.0788738 0 
-0.00653484 -0.0504628 0 
-0.00365973 -0.0614944 0 
-0.00962884 -0.0584685 0 
0.0108965 -0.113868 0 
0.0179773 -0.105927 0 
0.0209338 -0.115369 0 
0.0899519 -0.0954575 0 
0.10026 -0.104545 0 
0.0878902 -0.110062 0 
0.0559233 -0.0625971 0 
0.0559324 -0.0559088 0 
0.0606771 -0.0610675 0 
-0.00840866 -0.0123228 0 
-0.0124345 -0.019914 0 
-0.00991368 -0.0126658 0 
-0.00297368 -0.00277168 0 
-0.00337646 -0.00340942 0 
-0.00610185 -0.00685539 0 
0.0722594 -0.108813 0 
0.0791439 -0.09987 0 
0.0875279 -0.110305 0 
0.037659 -0.0434543 0 
0.0410201 -0.0540573 0 
0.0352015 -0.0429294 0 
0.0267562 -0.0722482 0 
0.0207737 -0.0753039 0 
0.0205706 -0.067646 0 
-0.00237628 -0.00387729 0 
-0.0016657 -0.00354372 0 
-0.00292116 -0.00638538 0 
0.0572197 -0.0709934 0 
0.0540638 -0.0728293 0 
0.0529694 -0.0710532 0 
0.0617375 -0.0420819 0 
0.0689783 -0.0489034 0 
0.0648928 -0.0517633 0 
0.0396999 -0.0159453 0 
0.0336487 -0.0137247 0 
0.0305953 -0.00959449 0 
0.0431306 -0.0137708 0 
0.0365332 -0.0114496 0 
0.0308443 -0.00689671 0 
0.066073 -0.0598922 0 
0.0602509 -0.0537302 0 
0.0649063 -0.0517691 0 
0.0600532 -0.112999 0 
0.0724557 -0.109006 0 
0.0787725 -0.12174 0 
-0.00574653 -0.0154065 0 
-0.00563202 -0.0114062 0 
-0.0041008 -0.0102564 0 
-0.0037706 -0.00689404 0 
-0.00243393 -0.00377744 0 
-0.00285884 -0.00649333 0 
0.0384502 -0.0642095 0 
0.0329843 -0.0567984 0 
0.0385809 -0.0619269 0 
0.0168544 -0.152191 0 
0.0111624 -0.158297 0 
0.0183404 -0.150864 0 
0.00259731 -0.00530896 0 
0.00321916 -0.00738162 0 
0.0019884 -0.0053682 0 
0.0459523 -0.0539416 0 
0.0402202 -0.0497606 0 
0.0443505 -0.0468869 0 
0.00120496 -0.000766011 0 
0.0022946 -0.00172564 0 
0.00147044 -0.00123369 0 
0.0972608 -0.123942 0 
0.112166 -0.114915 0 
0.107363 -0.141287 0 
0.00371932 -0.00402539 0 
0.00674988 -0.00858911 0 
0.00352018 -0.00505844 0 
0.000895128 -0.0461972 0 
0.00276928 -0.0397621 0 
0.00582113 -0.0473463 0 
0.0683599 -0.0220636 0 
0.0918861 -0.0436214 0 
0.0748492 -0.0300146 0 
0.0333806 -0.0435093 0 
0.0385731 -0.0527005 0 
0.0368385 -0.0526017 0 
0.149509 -0.190755 0 
0.138339 -0.246252 0 
0.118244 -0.249369 0 
0.0439036 -0.0735711 0 
0.0433222 -0.069463 0 
0.0425233 -0.0629642 0 
0.00929986 -0.0150688 0 
0.00766244 -0.0158092 0 
0.00681761 -0.0122502 0 
0.0856087 -0.138495 0 
0.06322 -0.1269 0 
0.0792221 -0.12236 0 
0.00696994 -0.00685593 0 
0.0112429 -0.0127126 0 
0.00686602 -0.00858022 0 
0.0855668 -0.139115 0 
0.0971683 -0.123782 0 
0.107485 -0.141498 0 
0.073659 -0.0748785 0 
0.0701965 -0.0669502 0 
0.0766092 -0.0679157 0 
-2.66137e-05 6.06884e-11 0 
8.52423e-07 6.06426e-11 0 
1.91879e-05 -2.37875e-05 0 
0.0402463 -0.0498058 0 
0.0384323 -0.0426165 0 
0.0443094 -0.0468157 0 
0.00897584 -0.0103836 0 
0.00958434 -0.00899068 0 
0.0118074 -0.0125022 0 
-0.00390778 -0.0138767 0 
-0.00551494 -0.0154065 0 
-0.00430796 -0.0102564 0 
0.0158137 -0.0401188 0 
0.019913 -0.038766 0 
0.0204709 -0.0454795 0 
0.0199351 -0.0146232 0 
0.0199441 -0.0118443 0 
0.0243691 -0.0167453 0 
0.0437734 -0.0736213 0 
0.0427058 -0.0793368 0 
0.0443152 -0.0755544 0 
0.00340757 -0.00286194 0 
0.00688108 -0.00696158 0 
0.00378944 -0.00414083 0 
0.0124838 -0.0107772 0 
0.0159635 -0.0126413 0 
0.0152135 -0.0147227 0 
0.015497 -0.0540565 0 
0.0206993 -0.0525267 0 
0.0206755 -0.0599663 0 
0.000355396 -0.000967489 0 
-0.000167746 5.27365e-05 0 
0.000327181 -0.00045221 0 
0.0270777 -0.0254386 0 
0.0221808 -0.0223558 0 
0.0236324 -0.0196563 0 
0.00434726 -0.0546603 0 
0.000865544 -0.0461459 0 
0.00584511 -0.0473879 0 
0.00956435 -0.00902531 0 
0.0125306 -0.0107761 0 
0.0118263 -0.0124696 0 
-0.00172366 -0.00363907 0 
-0.00106566 -0.00323993 0 
-0.00201113 -0.00575629 0 
0.0453923 -0.0619942 0 
0.0432413 -0.0573522 0 
0.0404268 -0.0441097 0 
-0.00283742 -0.00918978 0 
-0.004008 -0.0137031 0 
-0.00420619 -0.0104327 0 
0.0385184 -0.0809433 0 
0.0420837 -0.0768398 0 
0.0421508 -0.0790278 0 
0.0457934 -0.0529298 0 
0.034473 -0.0287574 0 
0.0358871 -0.030622 0 
0.0792541 -0.100061 0 
0.0905041 -0.0954575 0 
0.0873878 -0.110062 0 
0.042859 -0.0670004 0 
0.039822 -0.0600915 0 
0.0410133 -0.0609158 0 
0.0280982 -0.139592 0 
0.0166801 -0.152466 0 
0.0183867 -0.150791 0 
-0.0148562 -0.0532128 0 
-0.0110654 -0.0457912 0 
-0.00974772 -0.0583521 0 
0.0149537 -0.0341424 0 
0.0109523 -0.025328 0 
0.0169835 -0.0325068 0 
-0.00184518 -0.00817942 0 
-0.00284711 -0.00920032 0 
-0.00202639 -0.00574617 0 
-0.0112894 -0.0457912 0 
-0.0065998 -0.0505753 0 
-0.00956163 -0.0583521 0 
0.0426028 -0.0660496 0 
0.0427592 -0.0663599 0 
0.0390386 -0.0604969 0 
0.0442895 -0.0667574 0 
0.0406707 -0.0540934 0 
0.0431927 -0.0572914 0 
0.00215964 -0.0276354 0 
0.00065173 -0.0218204 0 
0.00315911 -0.023422 0 
0.0140614 -0.124428 0 
0.0102516 -0.113868 0 
0.0215789 -0.115369 0 
0.0709874 -0.0587531 0 
0.0658923 -0.0602052 0 
0.0650924 -0.0514468 0 
-1.90615e-05 -0.00709207 0 
-0.000409138 -0.0057985 0 
-3.86221e-06 -0.00454436 0 
0.0398536 -0.0601406 0 
0.0426329 -0.0660496 0 
0.0390157 -0.0604969 0 
0.00767762 -0.0157829 0 
0.00542976 -0.0126547 0 
0.00680497 -0.012272 0 
0.0421158 -0.0466613 0 
0.0401114 -0.0447579 0 
0.0342909 -0.0294525 0 
0.0358643 -0.114864 0 
0.0297113 -0.128168 0 
0.0251435 -0.123108 0 
0.107886 -0.141882 0 
0.117626 -0.165889 0 
0.0913238 -0.161201 0 
0.126628 -0.20259 0 
0.119833 -0.245329 0 
0.0889419 -0.223302 0 
0.00879348 -0.00403177 0 
0.00562004 -0.00217926 0 
0.00753107 -0.00257426 0 
0.0157819 -0.0468362 0 
0.0158135 -0.0401188 0 
0.020475 -0.0454795 0 
-0.00100571 -0.00699621 0 
-0.00178048 -0.00806255 0 
-0.00125159 -0.00502921 0 
-6.09627e-11 -7.27936e-05 0 
-6.11716e-11 0.000169138 0 
0.00018019 -0.00108907 0 
0.00141775 -0.00521198 0 
0.000684742 -0.00339094 0 
0.00111288 -0.00367036 0 
0.0534637 -0.0923823 0 
0.0503182 -0.0846842 0 
0.0610775 -0.0901802 0 
0.124929 -0.129927 0 
0.117734 -0.166075 0 
0.10782 -0.141768 0 
0.0377335 -0.0769064 0 
0.0421603 -0.0769726 0 
0.0384202 -0.0807732 0 
0.0057452 -0.00217926 0 
0.00422248 -0.000950894 0 
0.00739165 -0.00257426 0 
0.0544766 -0.0148964 0 
0.0682382 -0.0218528 0 
0.0750097 -0.0302924 0 
0.00155575 -0.00369644 0 
0.00258824 -0.00529324 0 
0.00200044 -0.00538905 0 
0.0420151 -0.0769586 0 
0.0449659 -0.0757125 0 
0.0422298 -0.0788909 0 
0.033364 -0.0811069 0 
0.037825 -0.0767478 0 
0.0383125 -0.0809598 0 
0.000703686 -0.00342361 0 
0.000514731 -0.00221117 0 
0.0010969 -0.00364279 0 
0.081992 -0.056341 0 
0.0837119 -0.0680698 0 
0.07632 -0.0574152 0 
0.0335685 -0.0135858 0 
0.0255097 -0.00843787 0 
0.0306908 -0.00975978 0 
0.0221665 -0.0223311 0 
0.0191287 -0.0171532 0 
0.0236474 -0.0196823 0 
0.00196145 -0.00106029 0 
0.00343502 -0.00226581 0 
0.00235385 -0.00172742 0 
0.044789 -0.0360865 0 
0.0481507 -0.043699 0 
0.0418194 -0.0394402 0 
0.086793 -0.053892 0 
0.0773515 -0.0366861 0 
0.0899069 -0.0493513 0 
0.0310056 -0.00717602 0 
0.0364018 -0.011222 0 
0.0256849 -0.00605238 0 
0.00246801 -0.00232245 0 
0.00156449 -0.00163042 0 
0.00144548 -0.00119392 0 
0.0404982 -0.0441024 0 
0.0319213 -0.0305183 0 
0.0338233 -0.0302447 0 
0.0330485 -0.0567984 0 
0.0340132 -0.0546072 0 
0.0385397 -0.0619269 0 
0.00662117 -0.133658 0 
0.0140436 -0.124555 0 
0.0179713 -0.134529 0 
0.055925 -0.0559207 0 
0.050163 -0.051197 0 
0.0543647 -0.0485689 0 
0.0434942 -0.0569142 0 
0.0374005 -0.0430443 0 
0.0400849 -0.0447019 0 
0.0732834 -0.0457558 0 
0.0816229 -0.0557016 0 
0.0766293 -0.0579509 0 
0.0502201 -0.0848541 0 
0.0569233 -0.0835949 0 
0.0611636 -0.090031 0 
0.0432765 -0.0694102 0 
0.0428333 -0.0670449 0 
0.0410584 -0.0608377 0 
0.0352036 -0.030283 0 
0.0433115 -0.0466985 0 
0.0333138 -0.0294221 0 
-0.012697 -0.0678619 0 
-0.0149605 -0.0530322 0 
-0.00966996 -0.0584868 0 
0.044432 -0.0528893 0 
0.042772 -0.0476604 0 
0.0360332 -0.0288038 0 
0.106444 -0.0893342 0 
0.0972763 -0.0858214 0 
0.0985566 -0.0686474 0 
0.0344147 -0.0857424 0 
0.0331126 -0.0811069 0 
0.0385502 -0.0809598 0 
0.0362646 -0.0114597 0 
0.0307157 -0.00975533 0 
0.0258295 -0.00580201 0 
0.00956088 -0.00572475 0 
0.00663178 -0.00347525 0 
0.00884694 -0.00413749 0 
0.0257123 -0.00843787 0 
0.0215818 -0.00498088 0 
0.0304673 -0.00975978 0 
0.0858583 -0.13861 0 
0.107263 -0.141882 0 
0.0923357 -0.161201 0 
-0.00299896 -0.00920059 0 
-0.00286565 -0.00650603 0 
-0.00189093 -0.00574593 0 
0.00873974 -0.0052016 0 
0.00512521 -0.00321194 0 
0.00293546 -0.00112564 0 
0.00261369 -0.00970067 0 
0.00240626 -0.00735514 0 
0.00368167 -0.009837 0 
0.0426532 -0.0475921 0 
0.0460417 -0.0619942 0 
0.0397372 -0.0441097 0 
0.00673454 -0.00347525 0 
0.00567957 -0.00207615 0 
0.00873244 -0.00413749 0 
0.0114012 -0.0103135 0 
0.00630444 -0.00512736 0 
0.0107152 -0.00785996 0 
-0.00279652 -0.00638538 0 
-0.0017789 -0.00354372 0 
-0.00195369 -0.00585545 0 
0.104983 -0.0695472 0 
0.108062 -0.0893342 0 
0.0971573 -0.0686474 0 
0.0191695 -0.0171532 0 
0.019898 -0.0145761 0 
0.0236056 -0.0196823 0 
0.0384906 -0.0321647 0 
0.0447435 -0.0360077 0 
0.0418547 -0.0395014 0 
0.0522849 -0.199597 0 
0.0612145 -0.180344 0 
0.0886968 -0.223924 0 
0.111244 -0.114915 0 
0.12441 -0.130826 0 
0.108098 -0.141287 0 
0.0440293 -0.0667574 0 
0.0424949 -0.06309 0 
0.0409525 -0.0540934 0 
0.0429749 -0.0569142 0 
0.040835 -0.0543779 0 
0.0378957 -0.0430443 0 
0.0217307 -0.00520428 0 
0.0159602 -0.00222396 0 
0.025661 -0.00605107 0 
0.015966 -0.0200351 0 
0.014569 -0.0220864 0 
0.0105083 -0.0146777 0 
0.00609215 -0.010012 0 
0.0105554 -0.0146913 0 
0.00926167 -0.0162463 0 
0.00887152 -0.0627986 0 
0.0146226 -0.0698755 0 
0.00799252 -0.0713177 0 
0.0424683 -0.0630594 0 
0.0433527 -0.0694102 0 
0.0409688 -0.0608377 0 
0.0630861 -0.183749 0 
0.0657046 -0.160913 0 
0.0930904 -0.190228 0 
0.0143319 -0.0782822 0 
0.0144867 -0.0876219 0 
0.00751492 -0.081018 0 
0.0651983 -0.143673 0 
0.0863992 -0.139546 0 
0.0916297 -0.159978 0 
0.0642602 -0.1269 0 
0.0604142 -0.112374 0 
0.0784145 -0.12236 0 
-0.0006178 -0.00435837 0 
-0.00114235 -0.0050403 0 
-0.000666081 -0.00287508 0 
-7.66306e-05 -6.18957e-11 0 
-7.34274e-05 -6.21437e-11 0 
-0.000457842 -2.77415e-06 0 
0.00319621 -0.00738203 0 
0.00398912 -0.00714156 0 
0.00479978 -0.00967855 0 
0.0768913 -0.0371409 0 
0.0621119 -0.022034 0 
0.0748386 -0.0302046 0 
-0.0171096 -0.093263 0 
-0.0165684 -0.11053 0 
-0.0239309 -0.0887485 0 
0.0205993 -0.0284374 0 
0.0222141 -0.0263458 0 
0.0270906 -0.0354974 0 
-0.0270382 -0.0635696 0 
-0.022838 -0.0526574 0 
-0.0222377 -0.0734751 0 
0.0619775 -0.022034 0 
0.0545385 -0.0147892 0 
0.0750604 -0.0302046 0 
0.0137684 -0.125019 0 
0.02575 -0.123109 0 
0.0182557 -0.134049 0 
-0.00015645 6.02036e-11 0 
0.000141027 6.01661e-11 0 
0.00599503 -0.000257623 0 
0.00770437 -0.0173919 0 
0.00494614 -0.0109525 0 
0.00928915 -0.0163116 0 
0.0254404 -0.1226 0 
0.0293364 -0.12881 0 
0.0185683 -0.134563 0 
0.00144599 -0.00139404 0 
0.00349535 -0.00301503 0 
0.00371275 -0.00400707 0 
0.00399645 -0.00712886 0 
0.00576865 -0.00919348 0 
0.00478974 -0.00969594 0 
0.0305928 -0.00954246 0 
0.0214528 -0.00520428 0 
0.0259733 -0.00605107 0 
0.0368363 -0.0525808 0 
0.039901 -0.0600824 0 
0.0352432 -0.0531467 0 
-0.00366539 -0.0615507 0 
0.00114258 -0.072004 0 
-0.00593114 -0.0709412 0 
0.000169174 -0.000159591 0 
0.000294009 -0.000263551 0 
-1.17277e-05 -5.40524e-05 0 
0.03982 -0.0600824 0 
0.0390292 -0.0605203 0 
0.03531 -0.0531467 0 
-0.00908386 -0.0951108 0 
-0.0153195 -0.0795729 0 
-0.00791219 -0.0819416 0 
0.00115495 -0.00145762 0 
0.00376885 -0.00411124 0 
0.0034539 -0.00494353 0 
0.016513 -0.0117663 0 
0.00881486 -0.00508025 0 
0.0148097 -0.00831145 0 
0.0340082 -0.0546162 0 
0.0296012 -0.0462894 0 
0.0352551 -0.0531502 0 
0.022285 -0.026223 0 
0.028775 -0.0337422 0 
0.0270296 -0.0356031 0 
0.00149099 -0.00131151 0 
0.00365183 -0.00411881 0 
0.00128298 -0.00144934 0 
0.149123 -0.141736 0 
0.140562 -0.250097 0 
0.148188 -0.18847 0 
-0.0012347 -0.00504135 0 
-0.00111783 -0.00332874 0 
-0.000592479 -0.00287424 0 
-0.0187022 -0.0620543 0 
-0.0154625 -0.0794446 0 
-0.0221206 -0.0735483 0 
0.0320044 -0.0305788 0 
0.030631 -0.0324249 0 
0.0244466 -0.0211825 0 
0.122662 -0.202554 0 
0.0931176 -0.223339 0 
0.0951024 -0.187405 0 
0.0273216 -0.079301 0 
0.0212683 -0.0832008 0 
0.0206322 -0.0755143 0 
0.000405828 -0.106943 0 
-0.00831309 -0.109368 0 
-0.00918058 -0.0951888 0 
0.0235176 -0.023892 0 
0.0168614 -0.0176161 0 
0.0171807 -0.0149937 0 
0.158782 -0.131267 0 
0.105811 -0.051054 0 
0.089029 -0.0452896 0 
0.0476422 -0.0736357 0 
0.0456209 -0.0740214 0 
0.0491968 -0.072078 0 
0.0154667 -0.0540041 0 
0.0157634 -0.0468538 0 
0.0207219 -0.0525659 0 
0.0256402 -0.0505525 0 
0.0260623 -0.0577626 0 
0.0207307 -0.052577 0 
0.0909911 -0.219735 0 
0.0593453 -0.183756 0 
0.0967631 -0.19022 0 
0.00109962 -0.0718832 0 
0.00261278 -0.062864 0 
0.0080623 -0.0714637 0 
0.039042 -0.0604981 0 
0.0340072 -0.0546145 0 
0.0352815 -0.053196 0 
0.0071537 -0.0913331 0 
4.02414e-05 -0.0824404 0 
0.00733232 -0.0807263 0 
0.0353139 -0.0531502 0 
0.0295674 -0.0462894 0 
0.0313505 -0.0447431 0 
0.0204601 -0.045488 0 
0.0256559 -0.0505797 0 
0.0207056 -0.0525335 0 
0.00676646 -0.00858022 0 
0.0113323 -0.0127126 0 
0.0105215 -0.0146177 0 
0.0168781 -0.0176451 0 
0.0114034 -0.0104015 0 
0.0171504 -0.0149413 0 
0.0462587 -0.0707888 0 
0.050477 -0.0688828 0 
0.0492058 -0.0720815 0 
0.0105469 -0.144347 0 
0.00614567 -0.133646 0 
0.0184595 -0.134541 0 
0.0456024 -0.0739892 0 
0.0462496 -0.0707888 0 
0.0491988 -0.0720815 0 
0.0206605 -0.0755001 0 
0.0146418 -0.0698995 0 
0.0206621 -0.0674875 0 
0.0460308 -0.00470183 0 
-0.0112861 0.0148594 0 
0.0887977 -0.039653 0 
0.0367714 -0.0524684 0 
0.0352796 -0.0532097 0 
0.0314028 -0.0446524 0 
0.0332798 -0.043684 0 
0.0369155 -0.0524684 0 
0.0312847 -0.0446524 0 
0.016894 -0.0325068 0 
0.0110575 -0.0253279 0 
0.0128843 -0.0238615 0 
-0.0127258 -0.0679117 0 
-0.0096337 -0.058424 0 
-0.0059394 -0.0710008 0 
0.0308105 -0.0321142 0 
0.0233413 -0.0238415 0 
0.0242547 -0.0215147 0 
-0.0126987 -0.0679587 0 
-0.00597256 -0.0709433 0 
-0.00796598 -0.0821254 0 
0.0206702 -0.052577 0 
0.0261252 -0.0577626 0 
0.0207172 -0.059894 0 
0.0113047 -0.0126645 0 
0.0159438 -0.0200351 0 
0.0105559 -0.0146778 0 
0.018864 -0.0305465 0 
0.0169357 -0.0324346 0 
0.0128549 -0.0239125 0 
0.0295839 -0.0463181 0 
0.0251934 -0.0373897 0 
0.031304 -0.0446627 0 
-0.00965455 -0.058424 0 
-0.00364631 -0.0615176 0 
-0.00596555 -0.0710008 0 
0.00501016 -0.0109532 0 
0.0061252 -0.00995382 0 
0.00922491 -0.016311 0 
0.00501307 -0.000454377 0 
-1.71843e-05 0.000241215 0 
0.00584885 -0.000510813 0 
0.0171237 -0.0148808 0 
0.0165538 -0.0118783 0 
0.0243063 -0.0212715 0 
0.011452 -0.0104014 0 
0.0106537 -0.0077534 0 
0.0171313 -0.0149414 0 
0.00273849 -0.062864 0 
0.00893613 -0.0626867 0 
0.00790822 -0.0714637 0 
0.0110056 -0.025238 0 
0.00766489 -0.0174599 0 
0.0129167 -0.0239177 0 
0.13024 -0.216036 0 
0.152822 -0.141587 0 
0.103346 -0.0204989 0 
0.0165045 -0.0117531 0 
0.0147904 -0.00828152 0 
0.024358 -0.0181941 0 
-4.10963e-05 2.66867e-05 0 
-8.22798e-05 1.75951e-05 0 
-5.77323e-06 -5.2234e-05 0 
0.0260882 -0.0576985 0 
0.0263126 -0.0650232 0 
0.0207667 -0.0599797 0 
-0.0159779 -0.11053 0 
-0.0233405 -0.10529 0 
-0.0245037 -0.0887485 0 
0.0266549 -0.0720728 0 
0.0270554 -0.079301 0 
0.0208952 -0.0755143 0 
-0.000620833 -0.0936975 0 
-0.000133975 -0.106943 0 
-0.00864216 -0.0951888 0 
0.026364 -0.0649091 0 
0.0265699 -0.0722482 0 
0.0207525 -0.067646 0 
-0.00015656 -0.0821477 0 
-0.000797181 -0.0940624 0 
-0.00771205 -0.08221 0 
-0.0231289 -0.0526568 0 
-0.0187666 -0.0621656 0 
-0.0220785 -0.0734754 0 
0.0106195 -0.00781278 0 
0.0165269 -0.0118319 0 
0.0171451 -0.0149176 0 
0.0148564 -0.0876219 0 
0.00735653 -0.0909818 0 
0.00716392 -0.081018 0 
8.8168e-05 -7.16025e-05 0 
-5.45722e-05 2.66518e-05 0 
1.36363e-05 -5.21837e-05 0 
0.0106178 -0.00766767 0 
0.00487836 -0.00321748 0 
0.00902388 -0.00519523 0 
-0.00604748 -0.0710731 0 
-2.05094e-05 -0.0823834 0 
-0.00786344 -0.0819477 0 
0.0107036 -0.00781246 0 
0.00888514 -0.00496115 0 
0.0164742 -0.0118321 0 
0.0157921 -0.0468538 0 
0.02047 -0.0454709 0 
0.0206869 -0.0525659 0 
0.0325177 -0.0305792 0 
0.0240548 -0.0211822 0 
0.0242948 -0.0185457 0 
0.0206532 -0.0599797 0 
0.0264299 -0.0650232 0 
0.0206706 -0.0675042 0 
-0.0198657 6.75977e-11 0 
0.0257538 -2.60523e-11 0 
0.0888816 -0.0395076 0 
0.0149945 -0.0616315 0 
0.0154233 -0.0540565 0 
0.0207581 -0.0599663 0 
0.0242061 -0.0214444 0 
0.016626 -0.0117536 0 
0.0240914 -0.0181931 0 
0.0150538 -0.0617343 0 
0.0207095 -0.0598821 0 
0.0205972 -0.0676313 0 
0.000279929 -0.000288147 0 
9.79971e-05 -8.85537e-05 0 
1.4112e-06 -3.11005e-05 0 
0.014544 -0.06973 0 
0.0149171 -0.0617343 0 
0.0207452 -0.0676313 0 
-0.015437 -0.0793692 0 
-0.0128028 -0.0679587 0 
-0.00780612 -0.0821254 0 
0.126632 -0.209785 0 
0.136814 -0.250097 0 
0.152909 -0.141737 0 
0.0679961 -0.0731694 0 
0.129978 -0.216036 0 
0.0779075 -0.020499 0 
0.144319 -0.215507 0 
-0.00237446 -0.324154 0 
0.0841288 -0.329805 0 
0.00286109 -0.315169 0 
-0.00158095 -0.35602 0 
0.082902 -0.33191 0 
0.123339 -0.215477 0 
0.0926916 -0.329817 0 
0.139115 -0.24612 0 
0.000388851 -0.00293622 0 
0.000828743 -0.0048232 0 
0.000414023 -0.00427665 0 
0.00084268 -0.00644749 0 
0.000320359 -0.00567277 0 
0.000450723 -0.00422593 0 
0.000137878 0.000577981 0 
4.81778e-05 0.00068446 0 
0.000167018 0.000797898 0 
0.000154551 0.000115022 0 
2.26235e-06 0.000492753 0 
0.000404902 -0.000196376 0 
0.000856461 -0.00487276 0 
0.000911269 -0.00644886 0 
0.000384928 -0.00422462 0 
0.000417873 -0.00428172 0 
0.000355437 -0.0056132 0 
7.64004e-05 -0.0034398 0 
0.000339925 -0.000600386 0 
0.000813153 -0.00120768 0 
0.000680101 -0.00132329 0 
0.00108562 -0.00234647 0 
0.000403816 -0.00121116 0 
0.000679343 -0.00133926 0 
0.000805711 -0.0011942 0 
0.0013353 -0.00221871 0 
0.000686314 -0.00133454 0 
0.000165852 -0.00238139 0 
0.000388292 -0.0042272 0 
0.000108703 -0.00349933 0 
6.11714e-11 6.6482e-05 0 
6.11082e-11 -2.76426e-05 0 
-6.91719e-05 -0.000200181 0 
-6.07151e-11 -0.000157029 0 
-6.07833e-11 0.000211953 0 
0.000271369 -0.00341481 0 
0.0222904 -0.142401 0 
0.0183412 -0.150623 0 
0.0128202 -0.151842 0 
0.0245909 -0.0166318 0 
0.0155869 -0.00731372 0 
0.0236963 -0.0142449 0 
0.042323 -0.101704 0 
0.0284505 -0.114663 0 
0.0335852 -0.125728 0 
0.00134352 -0.00221876 0 
0.00108457 -0.00234834 0 
0.000682025 -0.00133452 0 
-0.000770383 -0.000409618 0 
-0.000324863 0.000435842 0 
-0.000321969 0.000123395 0 
0.00138032 -0.0025276 0 
0.00291608 -0.0061537 0 
0.0012388 -0.00341711 0 
0.000283422 -0.00560908 0 
-6.09217e-05 -0.00461126 0 
0.000141286 -0.00344351 0 
6.85517e-05 2.05326e-05 0 
-0.000141713 -0.000529027 0 
-0.00012713 -0.000240911 0 
0.000667083 -0.00501621 0 
-0.000293217 4.87223e-05 0 
0.000495671 -0.0035722 0 
0.0272297 -0.138282 0 
0.0113764 -0.11248 0 
0.00570277 -0.0697364 0 
7.18881e-05 -0.00126854 0 
0.000146571 -0.00238743 0 
2.39384e-05 -0.00105386 0 
0.0003615 -0.316957 0 
-4.09663e-05 -0.205363 0 
0.0168127 -0.264073 0 
0.000537198 -0.00323989 0 
-0.000235767 5.68176e-05 0 
0.00041281 -0.0021261 0 
6.27001e-05 2.52269e-05 0 
-0.000136106 -0.00015614 0 
-0.000115735 0.000105282 0 
-0.000161536 -0.00115394 0 
-8.57504e-05 -0.00129237 0 
-0.000326605 -0.00248976 0 
0.0420973 -0.33041 0 
-0.00022004 -0.317973 0 
0.0169739 -0.263791 0 
1.63703e-05 7.07325e-05 0 
0.000123574 -0.000153696 0 
2.89238e-05 -3.76319e-06 0 
0.0199451 -0.0888587 0 
0.0397562 -0.13025 0 
0.0211306 -0.100825 0 
-0.000777895 -0.000398582 0 
-0.000840431 -0.000167669 0 
-0.000312818 0.000418146 0 
0.00352908 -0.00511765 0 
0.00298839 -0.00604765 0 
0.00129971 -0.00264582 0 
0.00114608 -0.000837209 0 
0.00254628 -0.00172288 0 
0.000394776 -0.000529516 0 
0.000997884 -0.000742377 0 
-0.000319074 1.4014e-05 0 
0.000538842 -0.000486655 0 
-6.78044e-05 1.52874e-05 0 
-0.000492814 -6.33486e-05 0 
-0.000424281 3.7156e-05 0 
-0.00021066 0.000230185 0 
0.001461 -0.000685294 0 
0.000334154 -0.000164834 0 
-0.000424921 -5.97945e-05 0 
-0.000101757 4.90676e-05 0 
-0.000211232 -0.000146846 0 
0.0113593 -0.00328124 0 
-0.00253074 0.00448224 0 
0.017677 -0.0102093 0 
0.034618 -0.029358 0 
0.0338259 -0.0302307 0 
0.0249451 -0.0157104 0 
0.020525 -0.0190922 0 
0.0385569 -0.0686045 0 
0.015906 -0.00549079 0 
0.00890399 -0.00490974 0 
0.00274808 -0.00145861 0 
0.00691872 -0.00297941 0 
0.0425225 -0.101354 0 
0.0479113 -0.0847508 0 
0.0460342 -0.0662912 0 
0.0452292 -0.0541023 0 
0.0369153 -0.028485 0 
0.046286 -0.0671043 0 
0.042804 -0.0679636 0 
0.0040963 -0.100431 0 
0.0270524 -0.116353 0 
0.006842 -0.130539 0 
0.0219574 -0.13891 0 
0.026422 -0.115739 0 
0.0242219 -0.0185177 0 
0.0149302 -0.00794884 0 
0.0240615 -0.0160749 0 
0.0395453 -0.114865 0 
0.0403491 -0.116429 0 
0.0332435 -0.1299 0 
0.0109344 -0.158221 0 
0.00883872 -0.161959 0 
0.00620232 -0.157593 0 
0.0107617 -0.144691 0 
0.0182577 -0.134218 0 
0.0219527 -0.142371 0 
0.0080739 -0.148679 0 
-0.00618227 -0.13634 0 
0.00208749 -0.151641 0 
-0.0116594 -0.127889 0 
-0.00425031 -0.145292 0 
-0.0146132 -0.127229 0 
-0.0243181 -0.0883067 0 
-0.0235546 -0.105799 0 
-0.0289369 -0.0773731 0 
-0.0218221 -0.0251105 0 
-0.0242176 -0.039636 0 
-0.0283741 -0.0504065 0 
-0.0296204 -0.0332734 0 
-0.0130398 -0.0101984 0 
-0.0129559 -0.0109787 0 
0.00138292 -0.000120795 0 
0.000169646 3.15741e-05 0 
0.00132419 6.80886e-05 0 
5.72054e-05 -7.08135e-05 0 
0.000985677 0.000173703 0 
0.000988297 8.81949e-05 0 
0.000731085 0.000410361 0 
0.000533209 0.00059456 0 
0.000889865 0.000390083 0 
0.000360439 0.000228244 0 
0.00103347 0.000193985 0 
0.000952959 0.000386082 0 
0.000909476 0.000141131 0 
2.39185e-05 -5.43816e-05 0 
0.000506023 9.59214e-05 0 
0.0112537 -0.110728 0 
0.0282371 -0.196646 0 
0.00801938 -0.104634 0 
0.0157713 -0.0473884 0 
0.00836598 -0.0336032 0 
0.0122371 -0.0379593 0 
-0.000331396 0.000414657 0 
-6.42023e-05 0.00041328 0 
-0.000318429 0.000134876 0 
0.000238535 -0.00109359 0 
0.00142113 -0.00265917 0 
0.00120911 -0.00332139 0 
0.00825367 -0.165747 0 
0.0448329 -0.268894 0 
0.0173379 -0.262423 0 
0.0098107 -0.040527 0 
0.0159423 -0.0476354 0 
0.0163791 -0.0524969 0 
-0.000133472 -0.000229143 0 
-0.000454993 -0.000528035 0 
-0.000118612 0.000185041 0 
0.00176381 -0.00634738 0 
0.0005261 -0.00354292 0 
0.000422958 -0.001849 0 
0.000418332 -0.00119947 0 
0.000795365 -0.00238382 0 
0.000353527 -0.0014318 0 
0.0277572 -0.0932689 0 
0.0197309 -0.0894147 0 
0.0121818 -0.0670812 0 
-9.06591e-05 0.000385039 0 
4.7178e-05 2.95208e-05 0 
-9.90489e-05 0.000175983 0 
-0.00018377 4.64242e-05 0 
0.000366429 -0.00120989 0 
0.000365642 -0.00185913 0 
3.26708e-05 -6.1697e-11 0 
-6.19127e-05 -6.17622e-11 0 
-0.000320035 8.17494e-05 0 
4.9475e-05 -6.16097e-11 0 
-4.57082e-05 -6.1613e-11 0 
0.000270011 8.22611e-05 0 
2.09422e-05 -0.00153813 0 
-1.34762e-05 3.76798e-06 0 
2.73203e-05 -0.00107021 0 
-2.3293e-05 -4.37533e-06 0 
7.50319e-05 -0.0012832 0 
2.35045e-05 -0.00105184 0 
-0.000221963 -0.00314476 0 
-0.000579172 -0.00428892 0 
-0.000346695 -0.00245925 0 
0.00221265 -0.0248034 0 
0.00154875 -0.017804 0 
0.00541712 -0.0351371 0 
0.011641 -0.111233 0 
-0.004036 -0.00038523 0 
0.00551867 -0.070604 0 
-0.00410618 -0.00138673 0 
0.0097471 -0.0780011 0 
0.00600436 -0.0670854 0 
0.000946448 -0.00991609 0 
0.00110435 -0.00863831 0 
0.00294699 -0.0170744 0 
-0.000150238 0.000717297 0 
6.55173e-05 0.000651544 0 
0.000151071 0.000800481 0 
0.00153094 -0.00136015 0 
0.00129201 -0.00146033 0 
0.000489183 -0.00017564 0 
2.17107e-05 6.85421e-05 0 
-5.65078e-06 1.23243e-05 0 
-4.2066e-06 7.0421e-05 0 
8.40021e-05 -0.00124062 0 
-3.45205e-05 8.77065e-06 0 
5.31599e-05 -0.000797458 0 
-3.81887e-05 -2.30378e-06 0 
0.000112089 -0.000924593 0 
4.88159e-05 -0.000764441 0 
-0.0009542 -0.000201645 0 
0.00238996 -0.0250849 0 
0.0014177 -0.0204559 0 
0.00349617 -0.0355252 0 
-0.00114369 0.000157163 0 
0.00130937 -0.0212865 0 
-0.00113887 -0.00326369 0 
-0.000895506 -0.00187737 0 
-0.00051027 -0.00177561 0 
0.00395027 -0.0119332 0 
0.00608491 -0.0182498 0 
0.00288952 -0.0122169 0 
-9.99183e-06 1.0872e-05 0 
1.99518e-05 5.54157e-05 0 
2.67104e-05 5.70276e-06 0 
8.6185e-05 -0.000148549 0 
-3.03233e-05 1.88866e-05 0 
2.67362e-05 -1.23731e-05 0 
0.0042756 -0.0435466 0 
0.00377274 -0.0350004 0 
0.0116117 -0.0668062 0 
0.000117208 -0.000937469 0 
0.000102328 -0.000553424 0 
0.00032084 -0.00142225 0 
0.00921353 -0.162753 0 
-0.00341575 -0.00186248 0 
0.00614318 -0.104229 0 
-0.00513994 -0.00257667 0 
0.0131858 -0.117869 0 
0.00676478 -0.0999971 0 
0.0215558 -0.0636874 0 
0.0121787 -0.0490543 0 
0.0162712 -0.0525354 0 
0.015832 -0.0471996 0 
0.0229511 -0.0603154 0 
0.0164501 -0.0527771 0 
0.0182495 -0.0461126 0 
0.0158032 -0.0472611 0 
0.0122263 -0.0380024 0 
0.00717283 -0.0272911 0 
0.0132966 -0.0358869 0 
0.0123111 -0.037805 0 
-5.08075e-05 2.20559e-05 0 
-2.4988e-05 5.52025e-05 0 
-1.39221e-05 1.3786e-05 0 
5.25343e-06 6.07564e-11 0 
-3.80524e-06 6.07578e-11 0 
-1.37066e-05 6.63146e-06 0 
6.07547e-11 4.17355e-06 0 
6.07552e-11 -5.2533e-06 0 
-6.90087e-06 1.34372e-05 0 
-0.00150032 -0.20479 0 
0.00229756 -0.00724468 0 
0.00294909 -0.154638 0 
-1.00148e-10 -0.00494712 0 
-8.82981e-11 -0.00193163 0 
0.00220749 -0.153896 0 
0.00122652 -0.0006486 0 
0.00416367 -0.00112188 0 
0.00797991 -0.00289256 0 
-0.00655029 -0.136432 0 
-0.0164658 -0.10919 0 
-0.0210771 -0.11159 0 
-0.00198743 -0.00173921 0 
-0.00490944 -0.00440515 0 
-0.000460067 -0.000538567 0 
8.82901e-06 -6.16322e-11 0 
-1.82307e-05 -6.16358e-11 0 
4.96914e-05 1.96712e-05 0 
6.16399e-11 -1.82308e-05 0 
6.16486e-11 7.57168e-06 0 
1.87574e-05 5.06052e-05 0 
2.95062e-05 -6.17209e-11 0 
-2.47193e-05 -6.17183e-11 0 
-7.40364e-05 3.94197e-05 0 
-6.1738e-11 2.00779e-05 0 
-6.17264e-11 -2.95064e-05 0 
-3.60458e-05 7.74104e-05 0 
0.00067286 -0.00133046 0 
0.000420287 -0.00123353 0 
0.000292785 -0.000670198 0 
-9.64884e-05 -0.00454851 0 
-0.000214422 -0.00315238 0 
-2.25349e-05 -0.00271673 0 
0.00535647 -0.0313884 0 
0.0115682 -0.0490222 0 
0.0058041 -0.0354677 0 
-0.000345673 0.000133804 0 
-3.99369e-05 -4.46192e-05 0 
-0.00042092 3.57662e-05 0 
1.77357e-05 -6.44499e-05 0 
0.00030476 0.000152823 0 
0.000451051 0.000104041 0 
8.56613e-05 -0.000377138 0 
8.24679e-05 -0.00014701 0 
0.000263023 -0.000680316 0 
0.000109502 -0.00349719 0 
-2.34105e-05 -0.00454791 0 
-6.73605e-05 -0.0027171 0 
0.00721214 -0.0272515 0 
0.00389216 -0.0216619 0 
0.00320129 -0.0169801 0 
-4.61161e-05 0.000671337 0 
-9.03594e-05 0.000403764 0 
-0.000297171 0.000427109 0 
0.000375111 -0.00114308 0 
0.000304477 -0.000249997 0 
0.00126259 -0.00260173 0 
0.0424603 -0.130428 0 
0.0352789 -0.136051 0 
0.0190583 -0.100689 0 
0.00872908 -0.0765338 0 
0.00543709 -0.0515819 0 
0.0197463 -0.0994131 0 
-3.81576e-05 -0.00135824 0 
8.57177e-06 -0.00155418 0 
-3.63049e-05 -0.00274266 0 
-0.000799368 -0.000160868 0 
-0.000148674 0.000773677 0 
-0.000345477 0.000412737 0 
0.00127697 -0.00128257 0 
0.00335272 -0.00508867 0 
0.00146058 -0.00267225 0 
-5.08081e-06 -6.17684e-11 0 
-5.66852e-05 -6.18945e-11 0 
-0.000422137 3.42084e-05 0 
0.00241785 -0.00189607 0 
0.00107137 -0.000849968 0 
0.000485007 -0.000407838 0 
-0.000122218 -0.000174559 0 
-7.1051e-05 7.84455e-05 0 
0.000164443 -0.000174504 0 
-0.000140377 -6.21172e-11 0 
-3.61525e-05 -6.24379e-11 0 
-0.000162239 -8.46006e-05 0 
-0.000133875 -6.23978e-11 0 
-4.57174e-05 -6.2738e-11 0 
0.00025767 -5.8097e-05 0 
0.014454 -0.00828201 0 
0.00902933 -0.005098 0 
0.00680032 -0.00280159 0 
0.0342251 -0.0294799 0 
0.0238808 -0.0180592 0 
0.0244637 -0.0166156 0 
-0.00603285 -6.06179e-11 0 
0.00746965 -9.18038e-11 0 
0.0184532 -0.00921588 0 
0.0480049 -0.0846299 0 
0.0449119 -0.0536516 0 
0.0458661 -0.0665082 0 
0.00560411 -0.0983324 0 
0.00647125 -0.129891 0 
0.0268972 -0.116569 0 
0.029357 -0.128747 0 
0.0399978 -0.115451 0 
0.0329466 -0.129515 0 
0.0296418 -0.12835 0 
0.0326915 -0.12987 0 
0.0224339 -0.142435 0 
0.0180477 -0.134574 0 
0.0298883 -0.128798 0 
0.0221836 -0.14198 0 
0.00945059 -0.161219 0 
0.00839587 -0.157923 0 
0.00577654 -0.158109 0 
0.00548673 -0.157363 0 
0.00862761 -0.158519 0 
0.00257771 -0.15138 0 
0.009047 -0.158002 0 
0.00769832 -0.148143 0 
0.0022167 -0.151826 0 
-0.0237717 -0.106134 0 
-0.0112638 -0.128484 0 
-0.0149934 -0.126658 0 
-0.0272417 -0.0635003 0 
-0.0242303 -0.0884168 0 
-0.0288713 -0.0774553 0 
-0.0237228 -0.0390037 0 
-0.0272402 -0.0631736 0 
-0.0290349 -0.0512508 0 
-0.0271461 -0.0633672 0 
-0.0292119 -0.0779299 0 
-0.0290914 -0.0511347 0 
-0.0121897 -0.00899511 0 
-0.00274083 -0.000871875 0 
-0.0137597 -0.0121166 0 
-0.0141465 -0.0113689 0 
-0.00258749 -0.00116835 0 
-0.00464897 -0.00324032 0 
-0.00256643 -0.00114292 0 
0.00103557 -0.000407993 0 
-0.00479748 -0.00341967 0 
-0.00471773 -0.00359913 0 
0.00077588 0.000176356 0 
-0.00116952 -0.00114546 0 
0.000423658 -0.000334445 0 
0.00145857 -9.06074e-05 0 
-0.00109044 -0.00103078 0 
0.000143455 -6.23361e-11 0 
6.34997e-05 -6.19912e-11 0 
0.00132209 6.55561e-05 0 
0.00133693 2.75375e-05 0 
6.99066e-05 -1.64215e-05 0 
0.00102931 6.75764e-05 0 
8.32303e-05 -6.2012e-11 0 
7.47273e-06 -6.18017e-11 0 
0.00101509 5.00492e-05 0 
0.000506385 0.000557657 0 
0.000402768 0.000169144 0 
0.000920201 0.000431819 0 
6.34669e-05 -6.16908e-11 0 
-3.26406e-05 -6.16174e-11 0 
0.000482587 6.36947e-05 0 
0.00034754 -0.000588149 0 
0.00067571 -0.00133035 0 
0.000285165 -0.000670491 0 
0.00676502 -0.00315963 0 
0.00166572 -0.000195105 0 
0.00760376 -0.00328096 0 
-0.00529106 -0.00402518 0 
-0.00116252 -0.00137782 0 
-0.000190939 -0.00080653 0 
-0.0152019 -0.126923 0 
-0.00702186 -0.136909 0 
-0.0212202 -0.111735 0 
7.63166e-06 7.55725e-06 0 
-2.45478e-05 6.32923e-05 0 
-4.19779e-06 7.06041e-05 0 
0.000794017 -0.00238368 0 
0.000506022 -0.0022345 0 
0.000354488 -0.0014319 0 
0.0144713 -0.0661991 0 
0.0261595 -0.0934331 0 
0.0130342 -0.0669936 0 
6.12786e-11 6.32472e-05 0 
6.11655e-11 -1.9596e-05 0 
-5.79422e-05 0.000146597 0 
-6.0793e-11 -0.000111727 0 
-6.1002e-11 0.000177797 0 
0.000202499 -0.00197576 0 
0.0123287 -0.049214 0 
0.00963067 -0.0482422 0 
0.00535585 -0.0353546 0 
0.0409049 -0.116127 0 
0.0416493 -0.101618 0 
0.0338298 -0.125759 0 
0.0151939 -0.00733117 0 
0.0115469 -0.00341155 0 
0.0245969 -0.0142049 0 
0.0181562 -0.150679 0 
0.0113646 -0.158499 0 
0.0128543 -0.151832 0 
0.00443026 -0.0180051 0 
0.00729963 -0.0272294 0 
0.00313528 -0.0169968 0 
6.09964e-11 -6.03921e-06 0 
6.09851e-11 1.25759e-05 0 
1.27898e-05 -0.00105963 0 
-0.000660836 -0.0042799 0 
-0.000623553 -0.00295262 0 
-0.000295957 -0.00246486 0 
0.000958453 -0.0180686 0 
0.00542555 -0.0319935 0 
0.00574936 -0.0349882 0 
-0.000104895 0.000266213 0 
-0.000310977 0.000155835 0 
-0.000166922 0.000287494 0 
0.000282361 0.000159065 0 
0.00010022 0.000219682 0 
0.000361545 0.00044057 0 
-6.77217e-11 -0.00329233 0 
-6.45899e-11 0.001748 0 
0.00339711 -0.0690758 0 
0.00393294 -0.0213242 0 
0.000522289 -0.00971983 0 
0.00317705 -0.0171809 0 
9.96211e-05 0.000646555 0 
0.00040122 0.00073472 0 
0.000144403 0.000801457 0 
0.000228302 6.24328e-05 0 
0.00144942 -0.00137238 0 
0.000505147 -0.000173247 0 
6.07839e-11 8.18927e-06 0 
6.07633e-11 1.71368e-06 0 
-4.32433e-06 7.05072e-05 0 
-2.54243e-05 6.63473e-05 0 
-3.41775e-07 4.73203e-05 0 
-4.46249e-06 7.15267e-05 0 
0.00039761 0.000707356 0 
0.000690059 0.000429463 0 
0.000356598 0.00045729 0 
-0.000181564 1.34714e-05 0 
0.00023016 2.84565e-05 0 
-0.000214277 0.00027497 0 
6.09827e-11 -1.71109e-05 0 
6.09607e-11 2.63279e-05 0 
2.89692e-05 -0.000779321 0 
-6.12319e-11 -0.000700307 0 
-6.08305e-11 0.000513758 0 
0.000809656 -0.0209118 0 
-0.0006323 -0.00295056 0 
-0.00108051 -0.00325721 0 
-0.00055867 -0.00178098 0 
0.00615665 -0.0182572 0 
0.00442609 -0.0180589 0 
0.0028336 -0.0122112 0 
6.08475e-11 -4.3475e-06 0 
6.08199e-11 1.85279e-05 0 
1.49277e-05 -3.32526e-06 0 
-7.89158e-11 -0.00462291 0 
-7.16142e-11 0.00157715 0 
0.00383598 -0.102364 0 
0.0233301 -0.0603589 0 
0.0217628 -0.0631931 0 
0.0161828 -0.0527464 0 
0.00398622 -0.01201 0 
0.0028565 -0.0121463 0 
0.00176559 -0.0077768 0 
-0.000531861 -0.00182261 0 
-0.000874598 -0.00183185 0 
-0.000420639 -0.000914355 0 
0.0132072 -0.0356659 0 
0.0180222 -0.0461358 0 
0.0123844 -0.0379862 0 
-0.000107936 0.000241795 0 
4.84988e-05 1.86208e-06 0 
-7.53316e-05 9.21659e-05 0 
-4.65342e-05 -9.90625e-06 0 
0.00011937 0.000194926 0 
4.92586e-05 6.20612e-05 0 
-0.00473814 -0.00366591 0 
0.0117536 -0.168441 0 
0.00451772 -0.153051 0 
-4.22962e-07 -9.24048e-06 0 
-4.69774e-05 2.2586e-05 0 
-1.62095e-05 1.34694e-05 0 
0.00037747 -0.00211541 0 
0.000355449 -0.000971973 0 
0.00111586 -0.00341839 0 
-8.82033e-05 0.000438248 0 
-0.000102108 0.000109697 0 
-0.000293814 0.000109269 0 
0.00373274 -0.000371861 0 
0.0151068 -0.00748787 0 
0.00811126 -0.00312116 0 
-0.017445 -0.107223 0 
-0.0307316 -0.0831797 0 
-0.0209226 -0.1119 0 
0.000837363 -0.000170955 0 
-0.00191251 -0.00157882 0 
-0.000574788 -0.000784148 0 
0.0214574 -0.139277 0 
0.0284806 -0.139318 0 
0.0338385 -0.125372 0 
0.0339242 -0.0270174 0 
0.0355221 -0.0306839 0 
0.0245393 -0.0149318 0 
0.00556884 -0.152439 0 
0.0104961 -0.144663 0 
0.0129855 -0.151781 0 
0.0169745 -0.264324 0 
-0.00110483 -0.203709 0 
0.00302845 -0.154421 0 
0.00300665 -0.00616523 0 
0.00198971 -0.00638194 0 
0.00121029 -0.00341348 0 
-0.000517543 -0.000563223 0 
-0.000771393 -0.00040975 0 
-0.000326957 0.000122741 0 
0.0148813 -0.00786821 0 
0.00652127 -0.00307179 0 
0.00811597 -0.00346555 0 
-0.0232525 -0.105632 0 
-0.0152505 -0.126907 0 
-0.0211573 -0.111756 0 
-0.000850086 -0.00127529 0 
0.00126176 0.000109609 0 
-0.000441553 -0.000888777 0 
0.0108138 -0.162595 0 
0.015893 -0.264202 0 
0.00476983 -0.154619 0 
-0.000289829 0.000138987 0 
-0.000105039 0.000266327 0 
-7.69983e-05 7.80538e-05 0 
0.000115051 0.000231498 0 
0.000258057 0.000139702 0 
5.05712e-05 5.09468e-05 0 
-3.99436e-06 -5.51794e-05 0 
-0.000281058 0.000140408 0 
-8.78844e-05 7.62892e-05 0 
0.000228671 0.000144462 0 
-1.08629e-05 -5.24289e-05 0 
6.0815e-05 4.92873e-05 0 
-0.000131487 -0.000170253 0 
-0.000136727 -0.000609897 0 
-0.000376637 -0.000915111 0 
0.000646575 -0.00535179 0 
0.000513937 -0.00327332 0 
0.00166477 -0.00770292 0 
-4.81081e-05 0.000147638 0 
-0.000541235 -0.000482283 0 
-0.000318033 9.22521e-05 0 
0.00204394 -0.00619859 0 
0.000181125 -0.00197745 0 
0.00119284 -0.00347248 0 
-8.62876e-05 -0.000557931 0 
-0.000557826 -0.00175631 0 
-0.000407777 -0.000947194 0 
0.002876 -0.0120963 0 
0.000482371 -0.00518353 0 
0.00175739 -0.00779783 0 
TENSORS Stress float 
-4.9955 0.139431 0 
0.139431 -4.68981 0 
0 0 0 
-4.99751 0.105164 0 
0.105164 -4.6878 0 
0 0 0 
-5.02635 0.150264 0 
0.150264 -4.65895 0 
0 0 0 
-4.57975 0.599775 0 
0.599775 -3.44121 0 
0 0 0 
-4.83472 0.86763 0 
0.86763 -3.18624 0 
0 0 0 
-4.29463 0.786164 0 
0.786164 -3.72634 0 
0 0 0 
-4.89714 0.0237007 0 
0.0237007 -4.84729 0 
0 0 0 
-4.90648 0.0076821 0 
0.0076821 -4.83795 0 
0 0 0 
-4.91095 0.0242607 0 
0.0242607 -4.83348 0 
0 0 0 
-4.86869 -0.00240258 0 
-0.00240258 -4.85853 0 
0 0 0 
-4.87254 -0.00140614 0 
-0.00140614 -4.85468 0 
0 0 0 
-4.8723 0.0021777 0 
0.0021777 -4.85491 0 
0 0 0 
-4.90143 -0.0254768 0 
-0.0254768 -4.90702 0 
0 0 0 
-4.90274 -0.0260656 0 
-0.0260656 -4.90571 0 
0 0 0 
-4.90168 -0.0240827 0 
-0.0240827 -4.90677 0 
0 0 0 
-5.02895 0.111284 0 
0.111284 -4.74396 0 
0 0 0 
-5.02099 0.134054 0 
0.134054 -4.75192 0 
0 0 0 
-5.01536 0.108196 0 
0.108196 -4.75754 0 
0 0 0 
-4.90257 -0.0158478 0 
-0.0158478 -4.91336 0 
0 0 0 
-4.90449 -0.0181551 0 
-0.0181551 -4.91144 0 
0 0 0 
-4.90632 -0.01644 0 
-0.01644 -4.90961 0 
0 0 0 
-4.89033 -0.00791855 0 
-0.00791855 -4.87156 0 
0 0 0 
-4.89433 -0.00643987 0 
-0.00643987 -4.86756 0 
0 0 0 
-4.88815 -0.00688556 0 
-0.00688556 -4.87374 0 
0 0 0 
-4.93931 0.0436863 0 
0.0436863 -4.85575 0 
0 0 0 
-4.93429 0.0432434 0 
0.0432434 -4.86076 0 
0 0 0 
-4.93714 0.0475915 0 
0.0475915 -4.85792 0 
0 0 0 
-4.9128 -0.00724734 0 
-0.00724734 -4.93028 0 
0 0 0 
-4.91167 -0.0028899 0 
-0.0028899 -4.93141 0 
0 0 0 
-4.90984 -0.00661485 0 
-0.00661485 -4.93324 0 
0 0 0 
-4.64572 0.763819 0 
0.763819 -3.15475 0 
0 0 0 
-4.45352 0.68316 0 
0.68316 -3.34694 0 
0 0 0 
-4.8412 0.591575 0 
0.591575 -2.95926 0 
0 0 0 
-4.83516 0.00234128 0 
0.00234128 -4.83755 0 
0 0 0 
-4.83565 -0.00138195 0 
-0.00138195 -4.83705 0 
0 0 0 
-4.8386 -0.00396748 0 
-0.00396748 -4.8341 0 
0 0 0 
-4.36278 -0.587405 0 
-0.587405 -4.3537 0 
0 0 0 
-3.73127 -0.555116 0 
-0.555116 -4.98521 0 
0 0 0 
-3.63043 -1.27151 0 
-1.27151 -5.08605 0 
0 0 0 
-4.10353 -0.595439 0 
-0.595439 -5.51042 0 
0 0 0 
-4.20518 -0.302071 0 
-0.302071 -5.40877 0 
0 0 0 
-3.67201 -0.426682 0 
-0.426682 -5.94194 0 
0 0 0 
-4.73243 0.1495 0 
0.1495 -5.15491 0 
0 0 0 
-4.80543 0.123586 0 
0.123586 -5.08191 0 
0 0 0 
-4.78247 0.17562 0 
0.17562 -5.10486 0 
0 0 0 
-4.80642 0.162407 0 
0.162407 -5.08741 0 
0 0 0 
-4.81827 0.12444 0 
0.12444 -5.07556 0 
0 0 0 
-4.84581 0.155928 0 
0.155928 -5.04801 0 
0 0 0 
-4.92739 0.0665402 0 
0.0665402 -5.01622 0 
0 0 0 
-4.9411 0.0612856 0 
0.0612856 -5.00252 0 
0 0 0 
-4.93714 0.0703993 0 
0.0703993 -5.00647 0 
0 0 0 
-4.93805 0.0629228 0 
0.0629228 -4.99594 0 
0 0 0 
-4.94021 0.0550452 0 
0.0550452 -4.99378 0 
0 0 0 
-4.94618 0.0601991 0 
0.0601991 -4.98781 0 
0 0 0 
-4.93742 0.00981754 0 
0.00981754 -4.95325 0 
0 0 0 
-4.9375 0.00568957 0 
0.00568957 -4.95317 0 
0 0 0 
-4.94107 0.00704109 0 
0.00704109 -4.9496 0 
0 0 0 
-4.93543 0.00964868 0 
0.00964868 -4.9595 0 
0 0 0 
-4.93747 0.0086122 0 
0.0086122 -4.95746 0 
0 0 0 
-4.93735 0.0115789 0 
0.0115789 -4.95758 0 
0 0 0 
-4.90036 0.00897607 0 
0.00897607 -4.84792 0 
0 0 0 
-4.89345 0.0188653 0 
0.0188653 -4.85483 0 
0 0 0 
-4.88487 0.00884612 0 
0.00884612 -4.86341 0 
0 0 0 
-4.86502 0.00127429 0 
0.00127429 -4.85915 0 
0 0 0 
-4.86772 0.00366694 0 
0.00366694 -4.85645 0 
0 0 0 
-4.86419 0.00278079 0 
0.00278079 -4.85998 0 
0 0 0 
-4.90984 -0.0105033 0 
-0.0105033 -4.92975 0 
0 0 0 
-4.91016 -0.00631135 0 
-0.00631135 -4.92943 0 
0 0 0 
-4.90679 -0.00578944 0 
-0.00578944 -4.9328 0 
0 0 0 
-4.99587 0.0861676 0 
0.0861676 -4.76459 0 
0 0 0 
-5.01793 0.122283 0 
0.122283 -4.74254 0 
0 0 0 
-4.99321 0.121192 0 
0.121192 -4.76725 0 
0 0 0 
-5.03841 0.157009 0 
0.157009 -4.66679 0 
0 0 0 
-5.0328 0.128503 0 
0.128503 -4.67239 0 
0 0 0 
-5.03843 0.139448 0 
0.139448 -4.66677 0 
0 0 0 
-4.90344 -0.0169165 0 
-0.0169165 -4.91195 0 
0 0 0 
-4.9021 -0.0162012 0 
-0.0162012 -4.91329 0 
0 0 0 
-4.90101 -0.0173624 0 
-0.0173624 -4.91437 0 
0 0 0 
-4.90731 -0.0254179 0 
-0.0254179 -4.90429 0 
0 0 0 
-4.90427 -0.0249335 0 
-0.0249335 -4.90732 0 
0 0 0 
-4.90736 -0.0282354 0 
-0.0282354 -4.90424 0 
0 0 0 
-4.93007 -0.00069792 0 
-0.00069792 -4.92969 0 
0 0 0 
-4.93059 -0.000746018 0 
-0.000746018 -4.92918 0 
0 0 0 
-4.93024 -0.000664626 0 
-0.000664626 -4.92953 0 
0 0 0 
-5.03159 0.137468 0 
0.137468 -4.73075 0 
0 0 0 
-5.02671 0.176289 0 
0.176289 -4.73562 0 
0 0 0 
-4.97636 0.137794 0 
0.137794 -4.78598 0 
0 0 0 
-4.83743 0.00139487 0 
0.00139487 -4.84743 0 
0 0 0 
-4.83576 0.00277016 0 
0.00277016 -4.84909 0 
0 0 0 
-4.83551 0.00202904 0 
0.00202904 -4.84935 0 
0 0 0 
-4.90095 -0.0108933 0 
-0.0108933 -4.872 0 
0 0 0 
-4.89855 -0.00876517 0 
-0.00876517 -4.8744 0 
0 0 0 
-4.89422 -0.013839 0 
-0.013839 -4.87873 0 
0 0 0 
-4.96216 0.0480672 0 
0.0480672 -4.86134 0 
0 0 0 
-4.96609 0.0534974 0 
0.0534974 -4.85741 0 
0 0 0 
-4.95667 0.0615912 0 
0.0615912 -4.86684 0 
0 0 0 
-4.84054 -0.00175153 0 
-0.00175153 -4.8378 0 
0 0 0 
-4.83829 -0.000645837 0 
-0.000645837 -4.84005 0 
0 0 0 
-4.83736 0.00104937 0 
0.00104937 -4.84097 0 
0 0 0 
-4.90536 -0.0216223 0 
-0.0216223 -4.90929 0 
0 0 0 
-4.90515 -0.0219681 0 
-0.0219681 -4.9095 0 
0 0 0 
-4.90472 -0.021731 0 
-0.021731 -4.90993 0 
0 0 0 
-4.99994 0.129047 0 
0.129047 -4.75023 0 
0 0 0 
-4.99837 0.149511 0 
0.149511 -4.75181 0 
0 0 0 
-4.98656 0.147558 0 
0.147558 -4.76362 0 
0 0 0 
-4.41847 -0.64658 0 
-0.64658 -2.47334 0 
0 0 0 
-4.13545 -0.37264 0 
-0.37264 -2.75636 0 
0 0 0 
-3.77729 -0.585171 0 
-0.585171 -3.11452 0 
0 0 0 
-4.27086 -0.161541 0 
-0.161541 -5.25971 0 
0 0 0 
-4.15941 0.0944354 0 
0.0944354 -5.37116 0 
0 0 0 
-3.66456 -0.147777 0 
-0.147777 -5.86601 0 
0 0 0 
-4.08797 -0.0172601 0 
-0.0172601 -5.52001 0 
0 0 0 
-4.16766 -0.19756 0 
-0.19756 -5.44032 0 
0 0 0 
-4.56865 -0.0342463 0 
-0.0342463 -5.03933 0 
0 0 0 
-4.64661 0.212902 0 
0.212902 -5.15466 0 
0 0 0 
-4.60465 0.207155 0 
0.207155 -5.19662 0 
0 0 0 
-4.57354 0.225567 0 
0.225567 -5.22773 0 
0 0 0 
-4.62772 0.141258 0 
0.141258 -5.25419 0 
0 0 0 
-4.65581 0.133758 0 
0.133758 -5.2261 0 
0 0 0 
-4.70477 0.138285 0 
0.138285 -5.17714 0 
0 0 0 
-4.776 0.0536568 0 
0.0536568 -5.07046 0 
0 0 0 
-4.7799 0.0480884 0 
0.0480884 -5.06657 0 
0 0 0 
-4.79164 0.0495828 0 
0.0495828 -5.05483 0 
0 0 0 
-4.89658 0.0277833 0 
0.0277833 -5.00242 0 
0 0 0 
-4.89608 0.0352019 0 
0.0352019 -5.00292 0 
0 0 0 
-4.8886 0.0272945 0 
0.0272945 -5.01039 0 
0 0 0 
-4.93587 0.00728024 0 
0.00728024 -4.94986 0 
0 0 0 
-4.93509 0.00379523 0 
0.00379523 -4.95064 0 
0 0 0 
-4.94085 0.00793993 0 
0.00793993 -4.94488 0 
0 0 0 
-4.93436 0.00419752 0 
0.00419752 -4.94867 0 
0 0 0 
-4.93516 0.00690549 0 
0.00690549 -4.94787 0 
0 0 0 
-4.93039 0.00371702 0 
0.00371702 -4.95264 0 
0 0 0 
-4.93282 0.00209504 0 
0.00209504 -4.93821 0 
0 0 0 
-4.93206 0.000582188 0 
0.000582188 -4.93896 0 
0 0 0 
-4.93501 0.00254128 0 
0.00254128 -4.93601 0 
0 0 0 
-4.93165 0.000904584 0 
0.000904584 -4.93733 0 
0 0 0 
-4.93231 0.00214133 0 
0.00214133 -4.93667 0 
0 0 0 
-4.92976 0.000379984 0 
0.000379984 -4.93922 0 
0 0 0 
-2.79653 0.913937 0 
0.913937 -1.56781 0 
0 0 0 
-2.60622 0.763899 0 
0.763899 -1.75812 0 
0 0 0 
-3.18433 0.958803 0 
0.958803 -1.18001 0 
0 0 0 
-4.34555 -0.767265 0 
-0.767265 -3.45395 0 
0 0 0 
-4.2801 -0.853082 0 
-0.853082 -3.51939 0 
0 0 0 
-4.23272 -0.760365 0 
-0.760365 -3.56677 0 
0 0 0 
-3.95545 -1.18904 0 
-1.18904 -3.80438 0 
0 0 0 
-4.07911 -0.545137 0 
-0.545137 -3.68072 0 
0 0 0 
-3.71576 -1.07488 0 
-1.07488 -4.04407 0 
0 0 0 
-4.34553 0.0503171 0 
0.0503171 -5.25981 0 
0 0 0 
-4.33092 0.0747758 0 
0.0747758 -5.27442 0 
0 0 0 
-4.30384 0.0825736 0 
0.0825736 -5.3015 0 
0 0 0 
-4.56649 0.258958 0 
0.258958 -5.38702 0 
0 0 0 
-4.55652 0.156121 0 
0.156121 -5.397 0 
0 0 0 
-4.69732 0.16838 0 
0.16838 -5.2562 0 
0 0 0 
-4.70788 0.111397 0 
0.111397 -5.11126 0 
0 0 0 
-4.69708 0.186338 0 
0.186338 -5.12206 0 
0 0 0 
-4.6048 0.174808 0 
0.174808 -5.21433 0 
0 0 0 
-4.74098 0.212797 0 
0.212797 -5.14935 0 
0 0 0 
-4.74778 0.134059 0 
0.134059 -5.14256 0 
0 0 0 
-4.8356 0.176905 0 
0.176905 -5.05474 0 
0 0 0 
-4.93313 0.0804546 0 
0.0804546 -5.00445 0 
0 0 0 
-4.93093 0.0638013 0 
0.0638013 -5.00664 0 
0 0 0 
-4.95058 0.0701676 0 
0.0701676 -4.98699 0 
0 0 0 
-4.90335 0.0325212 0 
0.0325212 -4.99418 0 
0 0 0 
-4.90171 0.0232531 0 
0.0232531 -4.99581 0 
0 0 0 
-4.91479 0.0243243 0 
0.0243243 -4.98273 0 
0 0 0 
-4.89667 0.0218657 0 
0.0218657 -4.99417 0 
0 0 0 
-4.89781 0.0312693 0 
0.0312693 -4.99303 0 
0 0 0 
-4.88501 0.0294172 0 
0.0294172 -5.00583 0 
0 0 0 
-4.92628 0.0236008 0 
0.0236008 -4.97544 0 
0 0 0 
-4.9242 0.0169485 0 
0.0169485 -4.97752 0 
0 0 0 
-4.93291 0.0181454 0 
0.0181454 -4.9688 0 
0 0 0 
-4.93749 0.0133256 0 
0.0133256 -4.95934 0 
0 0 0 
-4.9364 0.00834517 0 
0.00834517 -4.96043 0 
0 0 0 
-4.9406 0.0116572 0 
0.0116572 -4.95623 0 
0 0 0 
-4.93272 0.00209596 0 
0.00209596 -4.94425 0 
0 0 0 
-4.93347 0.00541367 0 
0.00541367 -4.9435 0 
0 0 0 
-4.92972 0.00454883 0 
0.00454883 -4.94725 0 
0 0 0 
-4.93408 0.00374948 0 
0.00374948 -4.94148 0 
0 0 0 
-4.9332 0.00123783 0 
0.00123783 -4.94236 0 
0 0 0 
-4.9362 0.00210587 0 
0.00210587 -4.93936 0 
0 0 0 
-4.92136 0.0173823 0 
0.0173823 -4.97787 0 
0 0 0 
-4.92278 0.0230864 0 
0.0230864 -4.97646 0 
0 0 0 
-4.91484 0.0237045 0 
0.0237045 -4.98439 0 
0 0 0 
-4.9368 0.011285 0 
0.011285 -4.96366 0 
0 0 0 
-4.93733 0.0157929 0 
0.0157929 -4.96313 0 
0 0 0 
-4.93189 0.0152279 0 
0.0152279 -4.96857 0 
0 0 0 
-3.77182 -0.285486 0 
-0.285486 -2.55113 0 
0 0 0 
-4.08292 -0.483198 0 
-0.483198 -2.24003 0 
0 0 0 
-4.4725 -0.289715 0 
-0.289715 -1.85045 0 
0 0 0 
-4.77207 0.0689023 0 
0.0689023 -5.05244 0 
0 0 0 
-4.76742 0.0615939 0 
0.0615939 -5.05709 0 
0 0 0 
-4.76905 0.0690844 0 
0.0690844 -5.05545 0 
0 0 0 
-4.89537 0.0386406 0 
0.0386406 -5.00164 0 
0 0 0 
-4.89454 0.0318851 0 
0.0318851 -5.00248 0 
0 0 0 
-4.90408 0.0411461 0 
0.0411461 -4.99293 0 
0 0 0 
-4.92849 0.065916 0 
0.065916 -5.00605 0 
0 0 0 
-4.92863 0.0818367 0 
0.0818367 -5.0059 0 
0 0 0 
-4.90797 0.0840265 0 
0.0840265 -5.02656 0 
0 0 0 
-3.07136 0.833711 0 
0.833711 -1.63548 0 
0 0 0 
-3.25608 0.901592 0 
0.901592 -1.45077 0 
0 0 0 
-2.73224 0.844328 0 
0.844328 -1.97461 0 
0 0 0 
-4.86223 0.0048682 0 
0.0048682 -4.83124 0 
0 0 0 
-4.85438 0.00760369 0 
0.00760369 -4.83908 0 
0 0 0 
-4.85989 -0.0041404 0 
-0.0041404 -4.83358 0 
0 0 0 
-4.83079 -0.00101744 0 
-0.00101744 -4.84428 0 
0 0 0 
-4.83215 -0.000553385 0 
-0.000553385 -4.84292 0 
0 0 0 
-4.82929 -0.000632065 0 
-0.000632065 -4.84578 0 
0 0 0 
-5.00172 0.110872 0 
0.110872 -4.82618 0 
0 0 0 
-4.9772 0.108392 0 
0.108392 -4.8507 0 
0 0 0 
-4.97989 0.0775577 0 
0.0775577 -4.84801 0 
0 0 0 
-4.83762 0.00398685 0 
0.00398685 -4.84971 0 
0 0 0 
-4.83907 0.00262537 0 
0.00262537 -4.84826 0 
0 0 0 
-4.84015 0.00366978 0 
0.00366978 -4.84718 0 
0 0 0 
-4.92999 -0.000398224 0 
-0.000398224 -4.92854 0 
0 0 0 
-4.93004 -0.000218383 0 
-0.000218383 -4.92849 0 
0 0 0 
-4.92955 2.1424e-06 0 
2.1424e-06 -4.92898 0 
0 0 0 
-4.9016 -0.0146943 0 
-0.0146943 -4.91972 0 
0 0 0 
-4.90395 -0.0150246 0 
-0.0150246 -4.91737 0 
0 0 0 
-4.90331 -0.0115392 0 
-0.0115392 -4.91802 0 
0 0 0 
-5.01554 0.226741 0 
0.226741 -4.6464 0 
0 0 0 
-5.04577 0.236046 0 
0.236046 -4.61617 0 
0 0 0 
-5.02267 0.284428 0 
0.284428 -4.63928 0 
0 0 0 
-4.84543 0.00193772 0 
0.00193772 -4.85059 0 
0 0 0 
-4.84616 0.0035182 0 
0.0035182 -4.84986 0 
0 0 0 
-4.84716 0.00433872 0 
0.00433872 -4.84887 0 
0 0 0 
-4.8916 -0.00785115 0 
-0.00785115 -4.86734 0 
0 0 0 
-4.88985 -0.00574502 0 
-0.00574502 -4.86908 0 
0 0 0 
-4.89234 -0.00574669 0 
-0.00574669 -4.8666 0 
0 0 0 
-4.94721 0.036635 0 
0.036635 -4.8521 0 
0 0 0 
-4.94555 0.0470907 0 
0.0470907 -4.85376 0 
0 0 0 
-4.94008 0.0287883 0 
0.0287883 -4.85923 0 
0 0 0 
-4.85409 0.00257587 0 
0.00257587 -4.85269 0 
0 0 0 
-4.85322 0.000854272 0 
0.000854272 -4.85356 0 
0 0 0 
-4.85645 0.00454229 0 
0.00454229 -4.85033 0 
0 0 0 
-4.87283 0.00433574 0 
0.00433574 -4.84262 0 
0 0 0 
-4.88276 0.00144226 0 
0.00144226 -4.83269 0 
0 0 0 
-4.87371 0.0148391 0 
0.0148391 -4.84174 0 
0 0 0 
-4.84688 0.00590389 0 
0.00590389 -4.83767 0 
0 0 0 
-4.84382 0.00378052 0 
0.00378052 -4.84073 0 
0 0 0 
-4.84356 -0.000575925 0 
-0.000575925 -4.84099 0 
0 0 0 
-4.83498 0.00118913 0 
0.00118913 -4.84428 0 
0 0 0 
-4.83357 0.000871763 0 
0.000871763 -4.84569 0 
0 0 0 
-4.83379 0.00225546 0 
0.00225546 -4.84547 0 
0 0 0 
-4.91377 -0.00299594 0 
-0.00299594 -4.93058 0 
0 0 0 
-4.9145 -0.00569711 0 
-0.00569711 -4.92985 0 
0 0 0 
-4.91635 -0.00450422 0 
-0.00450422 -4.928 0 
0 0 0 
-3.8236 0.781902 0 
0.781902 -2.38928 0 
0 0 0 
-3.88059 0.95103 0 
0.95103 -2.33229 0 
0 0 0 
-3.95481 0.992341 0 
0.992341 -2.25807 0 
0 0 0 
-4.82829 7.29578e-05 0 
7.29578e-05 -4.8344 0 
0 0 0 
-4.82835 0.00101541 0 
0.00101541 -4.83434 0 
0 0 0 
-4.82848 -0.00213462 0 
-0.00213462 -4.83421 0 
0 0 0 
-4.97685 0.107202 0 
0.107202 -4.85944 0 
0 0 0 
-4.95505 0.0939262 0 
0.0939262 -4.88125 0 
0 0 0 
-4.97891 0.0809287 0 
0.0809287 -4.85738 0 
0 0 0 
-4.29414 0.939581 0 
0.939581 -2.30609 0 
0 0 0 
-3.96976 0.836281 0 
0.836281 -2.63046 0 
0 0 0 
-3.91904 0.572941 0 
0.572941 -2.68119 0 
0 0 0 
-4.90398 -0.0166788 0 
-0.0166788 -4.90993 0 
0 0 0 
-4.9021 -0.0183803 0 
-0.0183803 -4.91182 0 
0 0 0 
-4.90553 -0.0205424 0 
-0.0205424 -4.90839 0 
0 0 0 
-5.0497 0.263841 0 
0.263841 -4.36092 0 
0 0 0 
-5.0345 0.348633 0 
0.348633 -4.37611 0 
0 0 0 
-4.91173 0.289384 0 
0.289384 -4.49888 0 
0 0 0 
-5.0342 0.378524 0 
0.378524 -4.45334 0 
0 0 0 
-5.00445 0.449902 0 
0.449902 -4.48309 0 
0 0 0 
-4.91664 0.319459 0 
0.319459 -4.5709 0 
0 0 0 
-4.84738 0.0042733 0 
0.0042733 -4.84117 0 
0 0 0 
-4.84418 3.73597e-05 0 
3.73597e-05 -4.84437 0 
0 0 0 
-4.84655 0.00159132 0 
0.00159132 -4.84201 0 
0 0 0 
-4.90604 -0.012838 0 
-0.012838 -4.91802 0 
0 0 0 
-4.90712 -0.011836 0 
-0.011836 -4.91694 0 
0 0 0 
-4.90579 -0.0107562 0 
-0.0107562 -4.91828 0 
0 0 0 
-4.94876 0.305281 0 
0.305281 -4.63101 0 
0 0 0 
-4.95574 0.286599 0 
0.286599 -4.62403 0 
0 0 0 
-4.95606 0.319004 0 
0.319004 -4.62371 0 
0 0 0 
-4.83361 0.000817454 0 
0.000817454 -4.83845 0 
0 0 0 
-4.83427 0.00211472 0 
0.00211472 -4.83779 0 
0 0 0 
-4.83467 0.00520753 0 
0.00520753 -4.83739 0 
0 0 0 
-4.90466 -0.0140375 0 
-0.0140375 -4.9166 0 
0 0 0 
-4.90174 -0.0138475 0 
-0.0138475 -4.91952 0 
0 0 0 
-4.9047 -0.0180825 0 
-0.0180825 -4.91656 0 
0 0 0 
-4.88165 -0.0011211 0 
-0.0011211 -4.85657 0 
0 0 0 
-4.87749 -0.00196097 0 
-0.00196097 -4.86073 0 
0 0 0 
-4.87606 -0.00676208 0 
-0.00676208 -4.86217 0 
0 0 0 
-4.91887 0.0206059 0 
0.0206059 -4.84869 0 
0 0 0 
-4.92944 0.0211146 0 
0.0211146 -4.83812 0 
0 0 0 
-4.91607 0.0379006 0 
0.0379006 -4.85149 0 
0 0 0 
-4.92645 0.609982 0 
0.609982 -3.47206 0 
0 0 0 
-4.70085 0.750204 0 
0.750204 -3.69766 0 
0 0 0 
-4.61491 0.386525 0 
0.386525 -3.7836 0 
0 0 0 
-4.90381 -0.0166624 0 
-0.0166624 -4.88118 0 
0 0 0 
-4.90468 -0.0148968 0 
-0.0148968 -4.88031 0 
0 0 0 
-4.90451 -0.0128561 0 
-0.0128561 -4.88048 0 
0 0 0 
-4.98864 0.0991964 0 
0.0991964 -4.84837 0 
0 0 0 
-5.00459 0.102159 0 
0.102159 -4.83242 0 
0 0 0 
-4.98959 0.130461 0 
0.130461 -4.84742 0 
0 0 0 
-5.029 0.258718 0 
0.258718 -4.61461 0 
0 0 0 
-4.97265 0.252085 0 
0.252085 -4.67096 0 
0 0 0 
-4.97153 0.173805 0 
0.173805 -4.67208 0 
0 0 0 
-4.84401 0.00243633 0 
0.00243633 -4.84826 0 
0 0 0 
-4.84266 0.00207424 0 
0.00207424 -4.84961 0 
0 0 0 
-4.84442 0.00392135 0 
0.00392135 -4.84785 0 
0 0 0 
-4.90439 -0.0139407 0 
-0.0139407 -4.88035 0 
0 0 0 
-4.90114 -0.0158311 0 
-0.0158311 -4.8836 0 
0 0 0 
-4.90134 -0.0200622 0 
-0.0200622 -4.8834 0 
0 0 0 
-4.90769 -0.023174 0 
-0.023174 -4.8967 0 
0 0 0 
-4.90332 -0.0215375 0 
-0.0215375 -4.90107 0 
0 0 0 
-4.90319 -0.0255563 0 
-0.0255563 -4.90119 0 
0 0 0 
-4.94253 0.0492117 0 
0.0492117 -4.98593 0 
0 0 0 
-4.93944 0.0509925 0 
0.0509925 -4.98902 0 
0 0 0 
-4.94167 0.0469052 0 
0.0469052 -4.98679 0 
0 0 0 
-4.7956 0.043637 0 
0.043637 -5.05867 0 
0 0 0 
-4.81605 0.0416326 0 
0.0416326 -5.03821 0 
0 0 0 
-4.79774 0.0564633 0 
0.0564633 -5.05653 0 
0 0 0 
-4.8637 0.129318 0 
0.129318 -5.03167 0 
0 0 0 
-4.83818 0.134016 0 
0.134016 -5.05719 0 
0 0 0 
-4.84881 0.111772 0 
0.111772 -5.04655 0 
0 0 0 
-3.68747 0.631365 0 
0.631365 -0.865234 0 
0 0 0 
-2.90586 0.43571 0 
0.43571 -1.64684 0 
0 0 0 
-2.93036 -0.0664282 0 
-0.0664282 -1.62233 0 
0 0 0 
-4.83704 0.00163806 0 
0.00163806 -4.84667 0 
0 0 0 
-4.83584 0.00252132 0 
0.00252132 -4.84786 0 
0 0 0 
-4.83714 0.00230713 0 
0.00230713 -4.84656 0 
0 0 0 
-4.854 -0.00319999 0 
-0.00319999 -4.83948 0 
0 0 0 
-4.84986 0.0028766 0 
0.0028766 -4.84362 0 
0 0 0 
-4.84739 -6.47547e-05 0 
-6.47547e-05 -4.84609 0 
0 0 0 
-4.93146 0.000590544 0 
0.000590544 -4.93227 0 
0 0 0 
-4.93098 -0.000399376 0 
-0.000399376 -4.93275 0 
0 0 0 
-4.9319 0.00016158 0 
0.00016158 -4.93183 0 
0 0 0 
-4.92777 0.000538943 0 
0.000538943 -4.93299 0 
0 0 0 
-4.92798 -0.000162125 0 
-0.000162125 -4.93278 0 
0 0 0 
-4.92847 -0.000409801 0 
-0.000409801 -4.93229 0 
0 0 0 
-4.83244 -0.000484653 0 
-0.000484653 -4.8464 0 
0 0 0 
-4.83116 -0.00210441 0 
-0.00210441 -4.84768 0 
0 0 0 
-4.8349 -0.00196244 0 
-0.00196244 -4.84394 0 
0 0 0 
-4.9729 0.0644085 0 
0.0644085 -4.87178 0 
0 0 0 
-4.97561 0.0698343 0 
0.0698343 -4.86907 0 
0 0 0 
-4.96653 0.0782408 0 
0.0782408 -4.87815 0 
0 0 0 
-4.89049 -0.0395097 0 
-0.0395097 -4.71389 0 
0 0 0 
-4.91693 0.00326016 0 
0.00326016 -4.68746 0 
0 0 0 
-4.87701 -0.00421209 0 
-0.00421209 -4.72738 0 
0 0 0 
-4.91432 -0.0612665 0 
-0.0612665 -4.73516 0 
0 0 0 
-4.95782 -0.0510927 0 
-0.0510927 -4.69167 0 
0 0 0 
-4.94488 -0.0229085 0 
-0.0229085 -4.70461 0 
0 0 0 
-4.85939 0.00149668 0 
0.00149668 -4.83483 0 
0 0 0 
-4.86119 -0.00632818 0 
-0.00632818 -4.83303 0 
0 0 0 
-4.86742 0.00391027 0 
0.00391027 -4.82681 0 
0 0 0 
-4.94849 -0.0559476 0 
-0.0559476 -4.70555 0 
0 0 0 
-4.9193 -0.0628297 0 
-0.0628297 -4.73474 0 
0 0 0 
-4.92794 -0.0833474 0 
-0.0833474 -4.72611 0 
0 0 0 
-4.82975 -0.00295303 0 
-0.00295303 -4.83749 0 
0 0 0 
-4.82705 -0.0019832 0 
-0.0019832 -4.84019 0 
0 0 0 
-4.82523 -0.00254757 0 
-0.00254757 -4.84201 0 
0 0 0 
-4.80388 -0.0169185 0 
-0.0169185 -4.82141 0 
0 0 0 
-4.81763 -0.0168457 0 
-0.0168457 -4.80766 0 
0 0 0 
-4.81082 -0.0127143 0 
-0.0127143 -4.81448 0 
0 0 0 
-4.84995 0.00764757 0 
0.00764757 -4.82729 0 
0 0 0 
-4.84516 -0.00108802 0 
-0.00108802 -4.83209 0 
0 0 0 
-4.8509 0.00121508 0 
0.00121508 -4.82635 0 
0 0 0 
-4.88894 -0.00515466 0 
-0.00515466 -4.81873 0 
0 0 0 
-4.87731 -0.0076828 0 
-0.0076828 -4.83036 0 
0 0 0 
-4.88093 -0.0178316 0 
-0.0178316 -4.82674 0 
0 0 0 
-4.98046 -0.103574 0 
-0.103574 -4.75095 0 
0 0 0 
-4.97613 -0.0968679 0 
-0.0968679 -4.75529 0 
0 0 0 
-4.95948 -0.110682 0 
-0.110682 -4.77193 0 
0 0 0 
-4.4547 0.321506 0 
0.321506 -3.44235 0 
0 0 0 
-4.26154 0.102936 0 
0.102936 -3.6355 0 
0 0 0 
-4.16883 -0.526217 0 
-0.526217 -3.72821 0 
0 0 0 
-4.86459 -0.00944635 0 
-0.00944635 -4.82814 0 
0 0 0 
-4.87602 -0.00647575 0 
-0.00647575 -4.81671 0 
0 0 0 
-4.87303 0.00325866 0 
0.00325866 -4.8197 0 
0 0 0 
-4.79978 -0.0134215 0 
-0.0134215 -4.80537 0 
0 0 0 
-4.80835 -0.00918854 0 
-0.00918854 -4.79681 0 
0 0 0 
-4.79271 -0.0100495 0 
-0.0100495 -4.81245 0 
0 0 0 
-4.83047 -0.00844107 0 
-0.00844107 -4.84083 0 
0 0 0 
-4.83444 -0.00591183 0 
-0.00591183 -4.83686 0 
0 0 0 
-4.82828 -0.00713318 0 
-0.00713318 -4.84303 0 
0 0 0 
-4.93923 -0.117367 0 
-0.117367 -4.77102 0 
0 0 0 
-4.94861 -0.111922 0 
-0.111922 -4.76164 0 
0 0 0 
-4.93916 -0.117291 0 
-0.117291 -4.77109 0 
0 0 0 
-4.45943 -0.00961651 0 
-0.00961651 -4.63036 0 
0 0 0 
-4.65986 -0.038958 0 
-0.038958 -4.42994 0 
0 0 0 
-4.53423 0.0523336 0 
0.0523336 -4.55556 0 
0 0 0 
-4.89679 -0.0100826 0 
-0.0100826 -4.81908 0 
0 0 0 
-4.88707 -0.0237438 0 
-0.0237438 -4.82881 0 
0 0 0 
-4.90096 -0.0205364 0 
-0.0205364 -4.81492 0 
0 0 0 
-4.9714 -0.152229 0 
-0.152229 -4.82033 0 
0 0 0 
-4.96896 -0.143686 0 
-0.143686 -4.82277 0 
0 0 0 
-4.96659 -0.139498 0 
-0.139498 -4.82514 0 
0 0 0 
-4.89377 -0.0231357 0 
-0.0231357 -4.83012 0 
0 0 0 
-4.89758 -0.0327016 0 
-0.0327016 -4.82632 0 
0 0 0 
-4.90577 -0.0206129 0 
-0.0206129 -4.81813 0 
0 0 0 
-4.64265 0.0314774 0 
0.0314774 -4.58497 0 
0 0 0 
-4.67259 0.019104 0 
0.019104 -4.55503 0 
0 0 0 
-4.61812 0.0159771 0 
0.0159771 -4.60949 0 
0 0 0 
-4.91167 -0.0595255 0 
-0.0595255 -4.84835 0 
0 0 0 
-4.91227 -0.061423 0 
-0.061423 -4.84775 0 
0 0 0 
-4.91632 -0.057536 0 
-0.057536 -4.8437 0 
0 0 0 
-4.87613 -0.0251771 0 
-0.0251771 -4.76207 0 
0 0 0 
-4.90891 -0.0174811 0 
-0.0174811 -4.7293 0 
0 0 0 
-4.89918 0.00755071 0 
0.00755071 -4.73902 0 
0 0 0 
-4.88157 -0.150017 0 
-0.150017 -4.98449 0 
0 0 0 
-4.89341 -0.176059 0 
-0.176059 -4.97265 0 
0 0 0 
-4.90619 -0.149471 0 
-0.149471 -4.95987 0 
0 0 0 
-4.93799 -0.156164 0 
-0.156164 -4.89329 0 
0 0 0 
-4.94836 -0.180011 0 
-0.180011 -4.88292 0 
0 0 0 
-4.95532 -0.15813 0 
-0.15813 -4.87595 0 
0 0 0 
-5.17562 -0.309579 0 
-0.309579 -5.16032 0 
0 0 0 
-4.86572 -0.129109 0 
-0.129109 -5.47023 0 
0 0 0 
-4.82825 -0.152291 0 
-0.152291 -5.5077 0 
0 0 0 
-4.85857 0.00892938 0 
0.00892938 -4.77124 0 
0 0 0 
-4.86604 -0.0143639 0 
-0.0143639 -4.76377 0 
0 0 0 
-4.88228 0.0139953 0 
0.0139953 -4.74753 0 
0 0 0 
-4.93207 -0.148866 0 
-0.148866 -4.83068 0 
0 0 0 
-4.93943 -0.152387 0 
-0.152387 -4.82332 0 
0 0 0 
-4.9327 -0.136744 0 
-0.136744 -4.83005 0 
0 0 0 
-4.82768 -0.115892 0 
-0.115892 -5.04971 0 
0 0 0 
-4.83436 -0.131202 0 
-0.131202 -5.04303 0 
0 0 0 
-4.8444 -0.113958 0 
-0.113958 -5.033 0 
0 0 0 
-4.83733 -0.106777 0 
-0.106777 -5.06321 0 
0 0 0 
-4.82787 -0.123492 0 
-0.123492 -5.07267 0 
0 0 0 
-4.84237 -0.120937 0 
-0.120937 -5.05817 0 
0 0 0 
-4.81977 -0.111449 0 
-0.111449 -5.06405 0 
0 0 0 
-4.8276 -0.0994268 0 
-0.0994268 -5.05622 0 
0 0 0 
-4.81626 -0.101922 0 
-0.101922 -5.06756 0 
0 0 0 
-4.80215 0.00158257 0 
0.00158257 -4.81004 0 
0 0 0 
-4.81215 -0.000308327 0 
-0.000308327 -4.80003 0 
0 0 0 
-4.80551 0.00076938 0 
0.00076938 -4.80667 0 
0 0 0 
-4.91495 -0.0393574 0 
-0.0393574 -4.82688 0 
0 0 0 
-4.90573 -0.0416756 0 
-0.0416756 -4.8361 0 
0 0 0 
-4.90833 -0.0480777 0 
-0.0480777 -4.83351 0 
0 0 0 
-4.82225 -0.100164 0 
-0.100164 -5.09022 0 
0 0 0 
-4.83012 -0.0969747 0 
-0.0969747 -5.08235 0 
0 0 0 
-4.82894 -0.0902688 0 
-0.0902688 -5.08352 0 
0 0 0 
-4.81201 -0.0822094 0 
-0.0822094 -5.07371 0 
0 0 0 
-4.81143 -0.0840388 0 
-0.0840388 -5.07428 0 
0 0 0 
-4.81589 -0.0793003 0 
-0.0793003 -5.06982 0 
0 0 0 
-4.90621 -0.0411407 0 
-0.0411407 -4.83561 0 
0 0 0 
-4.91861 -0.0381854 0 
-0.0381854 -4.82321 0 
0 0 0 
-4.91497 -0.0300327 0 
-0.0300327 -4.82685 0 
0 0 0 
-4.62299 0.0477896 0 
0.0477896 -4.23833 0 
0 0 0 
-4.64191 0.147245 0 
0.147245 -4.2194 0 
0 0 0 
-4.48835 -0.0517915 0 
-0.0517915 -4.37296 0 
0 0 0 
-4.86348 -0.121258 0 
-0.121258 -5.00402 0 
0 0 0 
-4.84418 -0.122541 0 
-0.122541 -5.02331 0 
0 0 0 
-4.85272 -0.140981 0 
-0.140981 -5.01477 0 
0 0 0 
-4.91723 -0.143134 0 
-0.143134 -4.88767 0 
0 0 0 
-4.91015 -0.165062 0 
-0.165062 -4.89475 0 
0 0 0 
-4.92743 -0.166867 0 
-0.166867 -4.87747 0 
0 0 0 
-4.90897 -0.0892043 0 
-0.0892043 -4.87812 0 
0 0 0 
-4.90801 -0.09496 0 
-0.09496 -4.87909 0 
0 0 0 
-4.9125 -0.0964403 0 
-0.0964403 -4.87459 0 
0 0 0 
-4.9201 -0.185131 0 
-0.185131 -4.93447 0 
0 0 0 
-4.93163 -0.158255 0 
-0.158255 -4.92294 0 
0 0 0 
-4.90786 -0.15784 0 
-0.15784 -4.94671 0 
0 0 0 
-5.03095 0.0483001 0 
0.0483001 -4.65507 0 
0 0 0 
-5.02121 0.0538337 0 
0.0538337 -4.66481 0 
0 0 0 
-5.03087 0.0477508 0 
0.0477508 -4.65515 0 
0 0 0 
-4.89609 0.0419939 0 
0.0419939 -4.9531 0 
0 0 0 
-4.86584 0.0447572 0 
0.0447572 -4.98334 0 
0 0 0 
-4.88336 0.0116916 0 
0.0116916 -4.96583 0 
0 0 0 
-4.88855 -0.165394 0 
-0.165394 -4.94581 0 
0 0 0 
-4.9098 -0.165886 0 
-0.165886 -4.92456 0 
0 0 0 
-4.89875 -0.140202 0 
-0.140202 -4.93561 0 
0 0 0 
-4.96157 0.154622 0 
0.154622 -3.89941 0 
0 0 0 
-5.00679 0.126694 0 
0.126694 -3.85418 0 
0 0 0 
-4.97741 0.114424 0 
0.114424 -3.88357 0 
0 0 0 
-4.9199 -0.0813773 0 
-0.0813773 -4.8853 0 
0 0 0 
-4.91697 -0.0800669 0 
-0.0800669 -4.88823 0 
0 0 0 
-4.91957 -0.0854922 0 
-0.0854922 -4.88563 0 
0 0 0 
-4.83711 -0.0453664 0 
-0.0453664 -5.2005 0 
0 0 0 
-4.83248 -0.0384443 0 
-0.0384443 -5.20513 0 
0 0 0 
-4.84079 -0.0462952 0 
-0.0462952 -5.19682 0 
0 0 0 
-4.86032 -0.0038993 0 
-0.0038993 -5.01577 0 
0 0 0 
-4.87014 0.0211211 0 
0.0211211 -5.00595 0 
0 0 0 
-4.84478 0.0244242 0 
0.0244242 -5.03131 0 
0 0 0 
-4.84882 -0.0125767 0 
-0.0125767 -5.01108 0 
0 0 0 
-4.83539 0.0109353 0 
0.0109353 -5.02451 0 
0 0 0 
-4.82721 -0.00954739 0 
-0.00954739 -5.03269 0 
0 0 0 
-4.83071 -0.0142886 0 
-0.0142886 -5.09821 0 
0 0 0 
-4.81846 0.00478602 0 
0.00478602 -5.11045 0 
0 0 0 
-4.8146 -0.00945003 0 
-0.00945003 -5.11432 0 
0 0 0 
-4.92451 -0.0518252 0 
-0.0518252 -4.84214 0 
0 0 0 
-4.91841 -0.0580842 0 
-0.0580842 -4.84824 0 
0 0 0 
-4.92636 -0.0556334 0 
-0.0556334 -4.8403 0 
0 0 0 
-4.83823 -0.0318426 0 
-0.0318426 -5.14658 0 
0 0 0 
-4.83867 -0.0235118 0 
-0.0235118 -5.14614 0 
0 0 0 
-4.82812 -0.017933 0 
-0.017933 -5.15668 0 
0 0 0 
-5.00588 0.0706821 0 
0.0706821 -4.63471 0 
0 0 0 
-5.01003 0.0780938 0 
0.0780938 -4.63056 0 
0 0 0 
-5.01281 0.0716837 0 
0.0716837 -4.62778 0 
0 0 0 
-4.84769 -0.106668 0 
-0.106668 -5.01458 0 
0 0 0 
-4.83192 -0.107988 0 
-0.107988 -5.03035 0 
0 0 0 
-4.83866 -0.122325 0 
-0.122325 -5.02361 0 
0 0 0 
-4.82904 0.0254879 0 
0.0254879 -5.08241 0 
0 0 0 
-4.85551 0.0211066 0 
0.0211066 -5.05593 0 
0 0 0 
-4.83848 0.0505864 0 
0.0505864 -5.07297 0 
0 0 0 
-4.83803 -0.10247 0 
-0.10247 -5.03835 0 
0 0 0 
-4.8293 -0.118115 0 
-0.118115 -5.04708 0 
0 0 0 
-4.84368 -0.116336 0 
-0.116336 -5.0327 0 
0 0 0 
-4.85876 0.0355317 0 
0.0355317 -4.98327 0 
0 0 0 
-4.8472 0.00879265 0 
0.00879265 -4.99482 0 
0 0 0 
-4.87504 0.00606576 0 
0.00606576 -4.96699 0 
0 0 0 
-4.83083 -0.0463443 0 
-0.0463443 -5.08044 0 
0 0 0 
-4.83227 -0.0382469 0 
-0.0382469 -5.079 0 
0 0 0 
-4.82289 -0.034497 0 
-0.034497 -5.08838 0 
0 0 0 
-4.91726 0.0107335 0 
0.0107335 -4.96185 0 
0 0 0 
-4.91448 0.0116628 0 
0.0116628 -4.96464 0 
0 0 0 
-4.91678 0.00787285 0 
0.00787285 -4.96234 0 
0 0 0 
-5.02837 0.0943015 0 
0.0943015 -4.69209 0 
0 0 0 
-5.03731 0.0986979 0 
0.0986979 -4.68314 0 
0 0 0 
-5.03768 0.110893 0 
0.110893 -4.68278 0 
0 0 0 
-4.73886 0.069322 0 
0.069322 -5.0605 0 
0 0 0 
-4.6878 0.0773277 0 
0.0773277 -5.11156 0 
0 0 0 
-4.715 0.0402897 0 
0.0402897 -5.08436 0 
0 0 0 
-4.93833 0.0397988 0 
0.0397988 -4.98426 0 
0 0 0 
-4.93958 0.0419113 0 
0.0419113 -4.98301 0 
0 0 0 
-4.9408 0.0409122 0 
0.0409122 -4.98179 0 
0 0 0 
-4.9252 0.0105453 0 
0.0105453 -4.9654 0 
0 0 0 
-4.92773 0.00939726 0 
0.00939726 -4.96287 0 
0 0 0 
-4.92583 0.0131181 0 
0.0131181 -4.96478 0 
0 0 0 
-4.86437 -0.0643425 0 
-0.0643425 -3.66817 0 
0 0 0 
-4.79694 0.0187048 0 
0.0187048 -3.73559 0 
0 0 0 
-4.80813 -0.021307 0 
-0.021307 -3.72441 0 
0 0 0 
-4.91382 0.014184 0 
0.014184 -4.97294 0 
0 0 0 
-4.91314 0.0101142 0 
0.0101142 -4.97363 0 
0 0 0 
-4.91706 0.00903638 0 
0.00903638 -4.9697 0 
0 0 0 
-4.88061 -0.131515 0 
-0.131515 -4.97149 0 
0 0 0 
-4.86959 -0.15593 0 
-0.15593 -4.98252 0 
0 0 0 
-4.89099 -0.155556 0 
-0.155556 -4.96111 0 
0 0 0 
-4.62451 -0.286549 0 
-0.286549 -3.60918 0 
0 0 0 
-4.76557 -0.33927 0 
-0.33927 -3.46813 0 
0 0 0 
-4.65065 -0.13913 0 
-0.13913 -3.58305 0 
0 0 0 
-4.95696 0.0252611 0 
0.0252611 -4.97024 0 
0 0 0 
-4.96025 0.0270113 0 
0.0270113 -4.96694 0 
0 0 0 
-4.96012 0.027306 0 
0.027306 -4.96708 0 
0 0 0 
-4.9242 -0.0894243 0 
-0.0894243 -4.66022 0 
0 0 0 
-4.95693 -0.0431394 0 
-0.0431394 -4.62749 0 
0 0 0 
-4.91013 -0.0539113 0 
-0.0539113 -4.67429 0 
0 0 0 
-4.87338 -0.140641 0 
-0.140641 -4.98718 0 
0 0 0 
-4.86437 -0.119913 0 
-0.119913 -4.99619 0 
0 0 0 
-4.85384 -0.141516 0 
-0.141516 -5.00671 0 
0 0 0 
-4.8708 -0.159804 0 
-0.159804 -4.99863 0 
0 0 0 
-4.883 -0.136145 0 
-0.136145 -4.98643 0 
0 0 0 
-4.86045 -0.137206 0 
-0.137206 -5.00898 0 
0 0 0 
-4.93464 0.263384 0 
0.263384 -4.85696 0 
0 0 0 
-4.91693 0.254212 0 
0.254212 -4.87467 0 
0 0 0 
-4.91836 0.255881 0 
0.255881 -4.87324 0 
0 0 0 
-4.87701 -0.261534 0 
-0.261534 -5.16147 0 
0 0 0 
-4.89515 -0.326723 0 
-0.326723 -5.14333 0 
0 0 0 
-4.92552 -0.254472 0 
-0.254472 -5.11297 0 
0 0 0 
-5.00402 -0.115554 0 
-0.115554 -4.69013 0 
0 0 0 
-4.9976 -0.104783 0 
-0.104783 -4.69655 0 
0 0 0 
-4.97164 -0.12683 0 
-0.12683 -4.72251 0 
0 0 0 
-4.92539 -0.0916895 0 
-0.0916895 -4.87675 0 
0 0 0 
-4.92795 -0.09756 0 
-0.09756 -4.87419 0 
0 0 0 
-4.92766 -0.0933312 0 
-0.0933312 -4.87447 0 
0 0 0 
-4.89868 -0.202641 0 
-0.202641 -5.01014 0 
0 0 0 
-4.88409 -0.164548 0 
-0.164548 -5.02474 0 
0 0 0 
-4.86614 -0.204577 0 
-0.204577 -5.04269 0 
0 0 0 
-5.01702 0.00829681 0 
0.00829681 -4.64922 0 
0 0 0 
-4.99453 0.0136338 0 
0.0136338 -4.67171 0 
0 0 0 
-5.0104 -0.00624496 0 
-0.00624496 -4.65584 0 
0 0 0 
-5.26463 -0.0956502 0 
-0.0956502 -5.07733 0 
0 0 0 
-4.48222 -0.00459678 0 
-0.00459678 -5.85974 0 
0 0 0 
-4.95228 -0.549763 0 
-0.549763 -5.38968 0 
0 0 0 
-4.92106 0.0356212 0 
0.0356212 -4.98559 0 
0 0 0 
-4.91413 0.0375153 0 
0.0375153 -4.99252 0 
0 0 0 
-4.91869 0.0309742 0 
0.0309742 -4.98796 0 
0 0 0 
-4.92617 0.0328189 0 
0.0328189 -4.86517 0 
0 0 0 
-4.89603 0.0348569 0 
0.0348569 -4.89531 0 
0 0 0 
-4.91286 0.00315971 0 
0.00315971 -4.87847 0 
0 0 0 
-4.93803 0.0381055 0 
0.0381055 -4.9922 0 
0 0 0 
-4.9389 0.0363667 0 
0.0363667 -4.99133 0 
0 0 0 
-4.94023 0.0345176 0 
0.0345176 -4.99 0 
0 0 0 
-4.90618 0.0102451 0 
0.0102451 -4.96833 0 
0 0 0 
-4.90076 0.0112155 0 
0.0112155 -4.97375 0 
0 0 0 
-4.90438 0.00515923 0 
0.00515923 -4.97013 0 
0 0 0 
-4.84988 -0.116983 0 
-0.116983 -5.03244 0 
0 0 0 
-4.83907 -0.137801 0 
-0.137801 -5.04325 0 
0 0 0 
-4.85766 -0.13605 0 
-0.13605 -5.02466 0 
0 0 0 
-4.8085 -0.0712071 0 
-0.0712071 -5.1687 0 
0 0 0 
-4.81464 -0.0660509 0 
-0.0660509 -5.16256 0 
0 0 0 
-4.81301 -0.0721973 0 
-0.0721973 -5.16419 0 
0 0 0 
-4.96253 0.0401465 0 
0.0401465 -4.98725 0 
0 0 0 
-4.96528 0.041648 0 
0.041648 -4.9845 0 
0 0 0 
-4.96363 0.0393677 0 
0.0393677 -4.98616 0 
0 0 0 
-4.8233 -0.0260528 0 
-0.0260528 -5.15067 0 
0 0 0 
-4.81244 -0.0116027 0 
-0.0116027 -5.16152 0 
0 0 0 
-4.81245 -0.0197804 0 
-0.0197804 -5.16151 0 
0 0 0 
-4.9027 -0.0824267 0 
-0.0824267 -4.89007 0 
0 0 0 
-4.90732 -0.0836292 0 
-0.0836292 -4.88545 0 
0 0 0 
-4.90397 -0.077155 0 
-0.077155 -4.8888 0 
0 0 0 
-4.83599 0.0297939 0 
0.0297939 -5.13153 0 
0 0 0 
-4.85134 0.00378769 0 
0.00378769 -5.11619 0 
0 0 0 
-4.85757 0.0245331 0 
0.0245331 -5.10995 0 
0 0 0 
-4.82312 -0.0670275 0 
-0.0670275 -5.09318 0 
0 0 0 
-4.82644 -0.0693333 0 
-0.0693333 -5.08986 0 
0 0 0 
-4.82354 -0.0706233 0 
-0.0706233 -5.09277 0 
0 0 0 
-4.81852 -0.0326711 0 
-0.0326711 -5.0288 0 
0 0 0 
-4.83441 -0.0352909 0 
-0.0352909 -5.01291 0 
0 0 0 
-4.82419 -0.0174942 0 
-0.0174942 -5.02312 0 
0 0 0 
-4.98586 0.192489 0 
0.192489 -4.89384 0 
0 0 0 
-4.9713 0.179832 0 
0.179832 -4.9084 0 
0 0 0 
-4.98513 0.188766 0 
0.188766 -4.89457 0 
0 0 0 
-4.92048 -0.0516441 0 
-0.0516441 -4.85784 0 
0 0 0 
-4.91982 -0.0499378 0 
-0.0499378 -4.8585 0 
0 0 0 
-4.91581 -0.0535741 0 
-0.0535741 -4.86251 0 
0 0 0 
-4.84473 -0.0279651 0 
-0.0279651 -5.01686 0 
0 0 0 
-4.852 -0.00867274 0 
-0.00867274 -5.0096 0 
0 0 0 
-4.83221 -0.00563986 0 
-0.00563986 -5.02938 0 
0 0 0 
-4.89968 -0.0883314 0 
-0.0883314 -4.90611 0 
0 0 0 
-4.89498 -0.0791398 0 
-0.0791398 -4.91081 0 
0 0 0 
-4.89175 -0.0874859 0 
-0.0874859 -4.91404 0 
0 0 0 
-4.91334 -0.0338144 0 
-0.0338144 -4.85928 0 
0 0 0 
-4.90902 -0.0387612 0 
-0.0387612 -4.86359 0 
0 0 0 
-4.91434 -0.0368382 0 
-0.0368382 -4.85828 0 
0 0 0 
-4.8922 0.0322081 0 
0.0322081 -4.90246 0 
0 0 0 
-4.8791 0.00338649 0 
0.00338649 -4.91556 0 
0 0 0 
-4.90898 0.00125788 0 
0.00125788 -4.88568 0 
0 0 0 
-4.94805 -0.162092 0 
-0.162092 -4.64782 0 
0 0 0 
-4.96665 -0.156158 0 
-0.156158 -4.62922 0 
0 0 0 
-4.95481 -0.170796 0 
-0.170796 -4.64107 0 
0 0 0 
-4.88019 -0.0880832 0 
-0.0880832 -4.93601 0 
0 0 0 
-4.89033 -0.0886395 0 
-0.0886395 -4.92588 0 
0 0 0 
-4.88478 -0.0778366 0 
-0.0778366 -4.93143 0 
0 0 0 
-4.93277 -0.124662 0 
-0.124662 -3.60538 0 
0 0 0 
-4.93503 -0.0565376 0 
-0.0565376 -3.60313 0 
0 0 0 
-4.83267 -0.00320993 0 
-0.00320993 -3.70548 0 
0 0 0 
-6.27982 1.02434 0 
1.02434 -7.96475 0 
0 0 0 
-4.88489 1.75516 0 
1.75516 -9.35968 0 
0 0 0 
-6.21526 -1.5474 0 
-1.5474 -8.0293 0 
0 0 0 
-4.90301 -0.354667 0 
-0.354667 -5.09959 0 
0 0 0 
-4.97064 -0.349122 0 
-0.349122 -5.03196 0 
0 0 0 
-4.94163 -0.247139 0 
-0.247139 -5.06098 0 
0 0 0 
-4.85567 0.00263269 0 
0.00263269 -5.06225 0 
0 0 0 
-4.86422 0.0264062 0 
0.0264062 -5.0537 0 
0 0 0 
-4.83998 0.0305219 0 
0.0305219 -5.07793 0 
0 0 0 
-4.92046 -0.173297 0 
-0.173297 -4.54895 0 
0 0 0 
-4.8838 -0.108292 0 
-0.108292 -4.58561 0 
0 0 0 
-4.86177 -0.164851 0 
-0.164851 -4.60764 0 
0 0 0 
-4.95361 0.0181247 0 
0.0181247 -4.96398 0 
0 0 0 
-4.95567 0.019608 0 
0.019608 -4.96192 0 
0 0 0 
-4.95594 0.0184645 0 
0.0184645 -4.96165 0 
0 0 0 
-4.65859 -0.263079 0 
-0.263079 -3.96604 0 
0 0 0 
-4.77862 -0.45896 0 
-0.45896 -3.84602 0 
0 0 0 
-4.82441 -0.304637 0 
-0.304637 -3.80023 0 
0 0 0 
-5.00823 0.0136916 0 
0.0136916 -4.61256 0 
0 0 0 
-4.994 0.030061 0 
0.030061 -4.62678 0 
0 0 0 
-4.99042 0.0198314 0 
0.0198314 -4.63036 0 
0 0 0 
-4.92746 0.00765208 0 
0.00765208 -4.95602 0 
0 0 0 
-4.92744 0.00971892 0 
0.00971892 -4.95604 0 
0 0 0 
-4.9262 0.010638 0 
0.010638 -4.95728 0 
0 0 0 
-4.88052 -0.165277 0 
-0.165277 -5.03937 0 
0 0 0 
-4.84911 -0.168097 0 
-0.168097 -5.07078 0 
0 0 0 
-4.86237 -0.200296 0 
-0.200296 -5.05751 0 
0 0 0 
-4.9365 0.326561 0 
0.326561 -4.79988 0 
0 0 0 
-4.90207 0.310655 0 
0.310655 -4.83431 0 
0 0 0 
-4.90167 0.305558 0 
0.305558 -4.83471 0 
0 0 0 
-3.53052 0.287126 0 
0.287126 -1.13712 0 
0 0 0 
-2.22681 -0.562418 0 
-0.562418 -2.44083 0 
0 0 0 
-3.59207 0.155819 0 
0.155819 -1.07557 0 
0 0 0 
-4.84928 -1.25944 0 
-1.25944 -4.16607 0 
0 0 0 
-5.15194 -0.389435 0 
-0.389435 -3.86341 0 
0 0 0 
-4.19771 -0.187985 0 
-0.187985 -4.81764 0 
0 0 0 
-5.0239 0.280147 0 
0.280147 -4.16011 0 
0 0 0 
-4.93518 0.278668 0 
0.278668 -4.24883 0 
0 0 0 
-4.94049 0.193016 0 
0.193016 -4.24352 0 
0 0 0 
-4.91604 -0.220978 0 
-0.220978 -5.12605 0 
0 0 0 
-4.88713 -0.291582 0 
-0.291582 -5.15495 0 
0 0 0 
-4.93342 -0.284933 0 
-0.284933 -5.10866 0 
0 0 0 
-4.89378 -0.0823868 0 
-0.0823868 -4.93236 0 
0 0 0 
-4.89787 -0.0735326 0 
-0.0735326 -4.92828 0 
0 0 0 
-4.88888 -0.0730584 0 
-0.0730584 -4.93727 0 
0 0 0 
-4.83253 -0.00807644 0 
-0.00807644 -4.84235 0 
0 0 0 
-4.83721 -0.007462 0 
-0.007462 -4.83766 0 
0 0 0 
-4.83529 -0.00618871 0 
-0.00618871 -4.83958 0 
0 0 0 
-4.9426 -0.0396293 0 
-0.0396293 -4.75719 0 
0 0 0 
-4.92288 -0.0636399 0 
-0.0636399 -4.77691 0 
0 0 0 
-4.95108 -0.0571525 0 
-0.0571525 -4.74871 0 
0 0 0 
-2.64957 -0.940321 0 
-0.940321 -7.06232 0 
0 0 0 
-3.83005 -4.20277 0 
-4.20277 -5.88184 0 
0 0 0 
-5.95534 -0.203704 0 
-0.203704 -3.75655 0 
0 0 0 
-4.936 0.0690775 0 
0.0690775 -4.15755 0 
0 0 0 
-4.94561 0.0623232 0 
0.0623232 -4.14793 0 
0 0 0 
-4.97285 0.0353166 0 
0.0353166 -4.12069 0 
0 0 0 
-4.98 0.00553492 0 
0.00553492 -4.3065 0 
0 0 0 
-5.02622 -0.0474362 0 
-0.0474362 -4.26029 0 
0 0 0 
-5.03426 -0.0169524 0 
-0.0169524 -4.25225 0 
0 0 0 
-4.85858 -0.0051379 0 
-0.0051379 -4.84157 0 
0 0 0 
-4.86575 -0.00287233 0 
-0.00287233 -4.83439 0 
0 0 0 
-4.86447 0.00344414 0 
0.00344414 -4.83568 0 
0 0 0 
-4.88424 -0.00391794 0 
-0.00391794 -4.83318 0 
0 0 0 
-4.877 -0.0144494 0 
-0.0144494 -4.84042 0 
0 0 0 
-4.88688 -0.011796 0 
-0.011796 -4.83055 0 
0 0 0 
-4.86153 0.951517 0 
0.951517 -6.53948 0 
0 0 0 
-4.83043 0.563366 0 
0.563366 -6.57058 0 
0 0 0 
-5.58413 0.12489 0 
0.12489 -5.81687 0 
0 0 0 
-4.90935 -0.0939232 0 
-0.0939232 -4.90868 0 
0 0 0 
-4.91219 -0.0860993 0 
-0.0860993 -4.90584 0 
0 0 0 
-4.90506 -0.085259 0 
-0.085259 -4.91297 0 
0 0 0 
-4.92827 -0.00987563 0 
-0.00987563 -4.80983 0 
0 0 0 
-4.89837 -0.00735586 0 
-0.00735586 -4.83974 0 
0 0 0 
-4.9155 -0.0379039 0 
-0.0379039 -4.8226 0 
0 0 0 
-4.91195 -0.0394361 0 
-0.0394361 -4.84539 0 
0 0 0 
-4.90608 -0.0413195 0 
-0.0413195 -4.85125 0 
0 0 0 
-4.90738 -0.04508 0 
-0.04508 -4.84995 0 
0 0 0 
-4.84567 -0.00109944 0 
-0.00109944 -5.01079 0 
0 0 0 
-4.84058 -0.0104241 0 
-0.0104241 -5.01588 0 
0 0 0 
-4.8526 -0.0114863 0 
-0.0114863 -5.00385 0 
0 0 0 
-4.92708 0.00201431 0 
0.00201431 -4.94318 0 
0 0 0 
-4.9284 0.00151419 0 
0.00151419 -4.94186 0 
0 0 0 
-4.92731 0.00396614 0 
0.00396614 -4.94295 0 
0 0 0 
-4.75966 -0.0729294 0 
-0.0729294 -4.9857 0 
0 0 0 
-4.7599 -0.0789919 0 
-0.0789919 -4.98547 0 
0 0 0 
-4.76034 -0.0795164 0 
-0.0795164 -4.98502 0 
0 0 0 
-5.05021 0.142679 0 
0.142679 -4.28167 0 
0 0 0 
-5.05455 0.167789 0 
0.167789 -4.27732 0 
0 0 0 
-5.01773 0.132194 0 
0.132194 -4.31414 0 
0 0 0 
-4.94722 -0.136049 0 
-0.136049 -4.72139 0 
0 0 0 
-4.96124 -0.127751 0 
-0.127751 -4.70737 0 
0 0 0 
-4.94779 -0.136173 0 
-0.136173 -4.72082 0 
0 0 0 
-3.56934 -0.756034 0 
-0.756034 -2.13738 0 
0 0 0 
-3.66612 -0.903091 0 
-0.903091 -2.04059 0 
0 0 0 
-3.47778 -0.381991 0 
-0.381991 -2.22893 0 
0 0 0 
-4.68831 0.702037 0 
0.702037 0.202059 0 
0 0 0 
-1.9286 0.221737 0 
0.221737 -2.55765 0 
0 0 0 
-2.87358 -1.45515 0 
-1.45515 -1.61266 0 
0 0 0 
-4.94914 -0.19031 0 
-0.19031 -4.78373 0 
0 0 0 
-4.9424 -0.230398 0 
-0.230398 -4.79047 0 
0 0 0 
-4.9697 -0.238376 0 
-0.238376 -4.76317 0 
0 0 0 
-4.9377 0.029171 0 
0.029171 -4.98411 0 
0 0 0 
-4.93876 0.0289329 0 
0.0289329 -4.98305 0 
0 0 0 
-4.93935 0.0272211 0 
0.0272211 -4.98246 0 
0 0 0 
-4.88694 0.0082724 0 
0.0082724 -4.98189 0 
0 0 0 
-4.89127 0.00123768 0 
0.00123768 -4.97755 0 
0 0 0 
-4.89394 0.00734527 0 
0.00734527 -4.97488 0 
0 0 0 
-4.95483 -0.0997333 0 
-0.0997333 -5.41317 0 
0 0 0 
-4.94121 -0.0829421 0 
-0.0829421 -5.42679 0 
0 0 0 
-4.96256 -0.0943014 0 
-0.0943014 -5.40544 0 
0 0 0 
-4.92269 0.000185823 0 
0.000185823 -4.94169 0 
0 0 0 
-4.92323 0.00269736 0 
0.00269736 -4.94115 0 
0 0 0 
-4.92125 0.00326578 0 
0.00326578 -4.94312 0 
0 0 0 
-4.90445 0.019606 0 
0.019606 -4.91697 0 
0 0 0 
-4.88681 0.0522102 0 
0.0522102 -4.93462 0 
0 0 0 
-4.87318 0.0219294 0 
0.0219294 -4.94824 0 
0 0 0 
-4.92956 -0.00045429 0 
-0.00045429 -4.93039 0 
0 0 0 
-4.93012 -6.68017e-05 0 
-6.68017e-05 -4.92983 0 
0 0 0 
-4.93038 0.000582911 0 
0.000582911 -4.92957 0 
0 0 0 
-4.88563 -0.0133884 0 
-0.0133884 -4.84197 0 
0 0 0 
-4.88833 -0.0210496 0 
-0.0210496 -4.83927 0 
0 0 0 
-4.8948 -0.0112198 0 
-0.0112198 -4.83279 0 
0 0 0 
-4.85571 0.00161715 0 
0.00161715 -4.8466 0 
0 0 0 
-4.85616 -0.00261377 0 
-0.00261377 -4.84615 0 
0 0 0 
-4.8603 0.00340361 0 
0.00340361 -4.84201 0 
0 0 0 
-4.95195 0.0165181 0 
0.0165181 -4.9677 0 
0 0 0 
-4.9519 0.0163963 0 
0.0163963 -4.96776 0 
0 0 0 
-4.95444 0.0181294 0 
0.0181294 -4.96522 0 
0 0 0 
-4.92617 -0.0722526 0 
-0.0722526 -5.38019 0 
0 0 0 
-4.90596 -0.0607737 0 
-0.0607737 -5.4004 0 
0 0 0 
-4.91802 -0.0536268 0 
-0.0536268 -5.38835 0 
0 0 0 
-4.88258 -0.147999 0 
-0.147999 -4.99143 0 
0 0 0 
-4.86848 -0.179438 0 
-0.179438 -5.00553 0 
0 0 0 
-4.89508 -0.178514 0 
-0.178514 -4.97894 0 
0 0 0 
-5.01501 0.0999474 0 
0.0999474 -4.65726 0 
0 0 0 
-5.03929 0.0829812 0 
0.0829812 -4.63297 0 
0 0 0 
-5.04409 0.0887017 0 
0.0887017 -4.62817 0 
0 0 0 
-4.85373 0.00912659 0 
0.00912659 -4.84909 0 
0 0 0 
-4.84782 0.00927836 0 
0.00927836 -4.855 0 
0 0 0 
-4.85084 0.00786138 0 
0.00786138 -4.85198 0 
0 0 0 
-4.7051 -0.306282 0 
-0.306282 -3.98041 0 
0 0 0 
-4.83762 -0.339479 0 
-0.339479 -3.84789 0 
0 0 0 
-4.74176 -0.170277 0 
-0.170277 -3.94374 0 
0 0 0 
-4.9425 -0.199467 0 
-0.199467 -3.92958 0 
0 0 0 
-4.96242 -0.119918 0 
-0.119918 -3.90966 0 
0 0 0 
-4.85961 -0.084291 0 
-0.084291 -4.01247 0 
0 0 0 
-5.02046 -0.216554 0 
-0.216554 -4.75782 0 
0 0 0 
-4.99766 -0.205261 0 
-0.205261 -4.78062 0 
0 0 0 
-5.01884 -0.252055 0 
-0.252055 -4.75944 0 
0 0 0 
-4.90026 0.0127768 0 
0.0127768 -4.98007 0 
0 0 0 
-4.8984 0.00760938 0 
0.00760938 -4.98192 0 
0 0 0 
-4.90399 0.00661222 0 
0.00661222 -4.97634 0 
0 0 0 
-4.92645 0.000613003 0 
0.000613003 -4.92601 0 
0 0 0 
-4.92594 0.000439549 0 
0.000439549 -4.92652 0 
0 0 0 
-4.92548 0.000639384 0 
0.000639384 -4.92698 0 
0 0 0 
-4.81358 -0.160779 0 
-0.160779 -4.62845 0 
0 0 0 
-4.78825 -0.227682 0 
-0.227682 -4.65378 0 
0 0 0 
-4.8523 -0.235418 0 
-0.235418 -4.58972 0 
0 0 0 
-4.92316 0.0381127 0 
0.0381127 -4.84656 0 
0 0 0 
-4.93882 0.0088585 0 
0.0088585 -4.8309 0 
0 0 0 
-4.95154 0.0364081 0 
0.0364081 -4.81818 0 
0 0 0 
-4.84233 -0.023786 0 
-0.023786 -5.05517 0 
0 0 0 
-4.84819 -0.00655054 0 
-0.00655054 -5.04931 0 
0 0 0 
-4.83014 -0.00290327 0 
-0.00290327 -5.06736 0 
0 0 0 
-4.89967 -0.00641892 0 
-0.00641892 -4.88714 0 
0 0 0 
-4.89651 -0.00742357 0 
-0.00742357 -4.8903 0 
0 0 0 
-4.90097 -0.00697919 0 
-0.00697919 -4.88583 0 
0 0 0 
-4.72887 -0.0478328 0 
-0.0478328 -5.01297 0 
0 0 0 
-4.72264 -0.0526166 0 
-0.0526166 -5.01921 0 
0 0 0 
-4.73664 -0.0535003 0 
-0.0535003 -5.00521 0 
0 0 0 
-4.9204 -0.0960687 0 
-0.0960687 -4.59293 0 
0 0 0 
-4.96681 -0.104325 0 
-0.104325 -4.54652 0 
0 0 0 
-4.93645 -0.0549379 0 
-0.0549379 -4.57687 0 
0 0 0 
-4.87061 -0.0035925 0 
-0.0035925 -4.84352 0 
0 0 0 
-4.87263 -0.0105065 0 
-0.0105065 -4.8415 0 
0 0 0 
-4.87842 -0.00141573 0 
-0.00141573 -4.8357 0 
0 0 0 
-4.99374 -0.227402 0 
-0.227402 -4.86935 0 
0 0 0 
-4.94171 -0.224222 0 
-0.224222 -4.92138 0 
0 0 0 
-4.97048 -0.28817 0 
-0.28817 -4.89261 0 
0 0 0 
-4.89652 -0.164429 0 
-0.164429 -4.5361 0 
0 0 0 
-4.82706 -0.153978 0 
-0.153978 -4.60556 0 
0 0 0 
-4.87084 -0.226992 0 
-0.226992 -4.56178 0 
0 0 0 
-4.8938 0.00528348 0 
0.00528348 -4.9724 0 
0 0 0 
-4.89761 -0.00108529 0 
-0.00108529 -4.96858 0 
0 0 0 
-4.89993 0.00444391 0 
0.00444391 -4.96627 0 
0 0 0 
-5.05255 0.143551 0 
0.143551 -4.5208 0 
0 0 0 
-5.05335 0.16734 0 
0.16734 -4.52 0 
0 0 0 
-5.03279 0.131212 0 
0.131212 -4.54056 0 
0 0 0 
-4.81131 -0.0558975 0 
-0.0558975 -5.07108 0 
0 0 0 
-4.81604 -0.0590384 0 
-0.0590384 -5.06635 0 
0 0 0 
-4.81095 -0.0521616 0 
-0.0521616 -5.07144 0 
0 0 0 
-4.89297 -0.00761295 0 
-0.00761295 -4.96609 0 
0 0 0 
-4.89573 -0.00153248 0 
-0.00153248 -4.96333 0 
0 0 0 
-4.88893 -0.000795362 0 
-0.000795362 -4.97013 0 
0 0 0 
-4.92653 -0.0202321 0 
-0.0202321 -4.76967 0 
0 0 0 
-4.94507 -0.0510105 0 
-0.0510105 -4.75113 0 
0 0 0 
-4.95774 -0.0236152 0 
-0.0236152 -4.73845 0 
0 0 0 
-4.68247 0.214804 0 
0.214804 -3.28619 0 
0 0 0 
-4.83077 0.0819807 0 
0.0819807 -3.1379 0 
0 0 0 
-4.77543 0.116009 0 
0.116009 -3.19323 0 
0 0 0 
-4.78774 -0.0381603 0 
-0.0381603 -5.03275 0 
0 0 0 
-4.79327 -0.0453225 0 
-0.0453225 -5.02722 0 
0 0 0 
-4.79855 -0.0383076 0 
-0.0383076 -5.02194 0 
0 0 0 
-4.71124 -0.251931 0 
-0.251931 -4.23115 0 
0 0 0 
-4.8075 -0.411841 0 
-0.411841 -4.13489 0 
0 0 0 
-4.85446 -0.280391 0 
-0.280391 -4.08793 0 
0 0 0 
-4.90521 0.00947208 0 
0.00947208 -4.97094 0 
0 0 0 
-4.90349 0.00453268 0 
0.00453268 -4.97266 0 
0 0 0 
-4.9088 0.00354614 0 
0.00354614 -4.96734 0 
0 0 0 
-4.88722 -0.0611786 0 
-0.0611786 -4.93908 0 
0 0 0 
-4.89174 -0.0695179 0 
-0.0695179 -4.93457 0 
0 0 0 
-4.89544 -0.0616478 0 
-0.0616478 -4.93086 0 
0 0 0 
-4.88855 -0.0750208 0 
-0.0750208 -4.92859 0 
0 0 0 
-4.88348 -0.0655257 0 
-0.0655257 -4.93367 0 
0 0 0 
-4.87937 -0.074462 0 
-0.074462 -4.93777 0 
0 0 0 
-4.92887 -8.64773e-05 0 
-8.64773e-05 -4.92829 0 
0 0 0 
-4.92876 9.25831e-05 0 
9.25831e-05 -4.9284 0 
0 0 0 
-4.92896 0.000413217 0 
0.000413217 -4.9282 0 
0 0 0 
-4.8864 -0.0171869 0 
-0.0171869 -4.85153 0 
0 0 0 
-4.89401 -0.0148642 0 
-0.0148642 -4.84393 0 
0 0 0 
-4.89221 -0.00908685 0 
-0.00908685 -4.84572 0 
0 0 0 
-4.90857 -0.0644762 0 
-0.0644762 -4.90293 0 
0 0 0 
-4.90973 -0.0603673 0 
-0.0603673 -4.90177 0 
0 0 0 
-4.90583 -0.0594675 0 
-0.0594675 -4.90566 0 
0 0 0 
-4.91075 -0.20442 0 
-0.20442 -5.03214 0 
0 0 0 
-4.88503 -0.267771 0 
-0.267771 -5.05787 0 
0 0 0 
-4.93195 -0.265151 0 
-0.265151 -5.01095 0 
0 0 0 
-4.88927 -0.18842 0 
-0.18842 -5.15491 0 
0 0 0 
-4.86579 -0.239825 0 
-0.239825 -5.17839 0 
0 0 0 
-4.90138 -0.233257 0 
-0.233257 -5.1428 0 
0 0 0 
-4.81833 -0.0015889 0 
-0.0015889 -4.82741 0 
0 0 0 
-4.81556 -0.00180066 0 
-0.00180066 -4.83018 0 
0 0 0 
-4.82273 -0.00273247 0 
-0.00273247 -4.82301 0 
0 0 0 
-4.8 -0.0540916 0 
-0.0540916 -5.02496 0 
0 0 0 
-4.80494 -0.0474885 0 
-0.0474885 -5.02002 0 
0 0 0 
-4.79527 -0.0476163 0 
-0.0476163 -5.02969 0 
0 0 0 
-4.86449 -0.144167 0 
-0.144167 -5.05081 0 
0 0 0 
-4.84914 -0.175734 0 
-0.175734 -5.06615 0 
0 0 0 
-4.8755 -0.173237 0 
-0.173237 -5.0398 0 
0 0 0 
-5.04139 0.0737753 0 
0.0737753 -4.39559 0 
0 0 0 
-5.03194 0.0902996 0 
0.0902996 -4.40504 0 
0 0 0 
-5.05124 0.082 0 
0.082 -4.38575 0 
0 0 0 
-4.89143 -0.0165794 0 
-0.0165794 -4.85305 0 
0 0 0 
-4.89331 -0.0223219 0 
-0.0223219 -4.85117 0 
0 0 0 
-4.89874 -0.014603 0 
-0.014603 -4.84573 0 
0 0 0 
-5.04069 0.244547 0 
0.244547 -4.14626 0 
0 0 0 
-5.03217 0.30273 0 
0.30273 -4.15479 0 
0 0 0 
-4.98442 0.230854 0 
0.230854 -4.20253 0 
0 0 0 
-4.93122 -0.192993 0 
-0.192993 -4.89961 0 
0 0 0 
-4.91382 -0.245629 0 
-0.245629 -4.91701 0 
0 0 0 
-4.95274 -0.248005 0 
-0.248005 -4.8781 0 
0 0 0 
-4.98384 0.349207 0 
0.349207 -4.79956 0 
0 0 0 
-4.99215 0.323845 0 
0.323845 -4.79125 0 
0 0 0 
-4.97499 0.333274 0 
0.333274 -4.80841 0 
0 0 0 
-4.8861 -0.00240588 0 
-0.00240588 -4.72232 0 
0 0 0 
-4.90394 -0.0302797 0 
-0.0302797 -4.70448 0 
0 0 0 
-4.91106 -0.00859821 0 
-0.00859821 -4.69736 0 
0 0 0 
-4.93646 0.00725386 0 
0.00725386 -4.83853 0 
0 0 0 
-4.91995 0.0377261 0 
0.0377261 -4.85505 0 
0 0 0 
-4.90677 0.00917965 0 
0.00917965 -4.86822 0 
0 0 0 
-4.85697 -0.140216 0 
-0.140216 -5.05454 0 
0 0 0 
-4.83301 -0.143137 0 
-0.143137 -5.07851 0 
0 0 0 
-4.84246 -0.1665 0 
-0.1665 -5.06905 0 
0 0 0 
-4.85852 -0.00234359 0 
-0.00234359 -4.99716 0 
0 0 0 
-4.84722 -0.00146074 0 
-0.00146074 -5.00846 0 
0 0 0 
-4.85363 -0.0113696 0 
-0.0113696 -5.00205 0 
0 0 0 
-4.90609 -0.0390199 0 
-0.0390199 -4.86396 0 
0 0 0 
-4.90646 -0.0409648 0 
-0.0409648 -4.86359 0 
0 0 0 
-4.90944 -0.0375049 0 
-0.0375049 -4.86061 0 
0 0 0 
-4.60089 -0.228987 0 
-0.228987 -3.569 0 
0 0 0 
-4.71916 -0.437153 0 
-0.437153 -3.45072 0 
0 0 0 
-4.74378 -0.286038 0 
-0.286038 -3.42611 0 
0 0 0 
-4.91168 0.0153027 0 
0.0153027 -4.97235 0 
0 0 0 
-4.9141 0.0122699 0 
0.0122699 -4.96994 0 
0 0 0 
-4.91438 0.0146125 0 
0.0146125 -4.96965 0 
0 0 0 
-4.88772 -0.0361029 0 
-0.0361029 -4.94716 0 
0 0 0 
-4.89092 -0.0295481 0 
-0.0295481 -4.94396 0 
0 0 0 
-4.88372 -0.0290826 0 
-0.0290826 -4.95116 0 
0 0 0 
-4.87623 0.00675995 0 
0.00675995 -4.86329 0 
0 0 0 
-4.86908 0.00631994 0 
0.00631994 -4.87044 0 
0 0 0 
-4.87133 0.00522381 0 
0.00522381 -4.86819 0 
0 0 0 
-4.85048 -0.107399 0 
-0.107399 -5.01175 0 
0 0 0 
-4.84111 -0.125421 0 
-0.125421 -5.02112 0 
0 0 0 
-4.85792 -0.124305 0 
-0.124305 -5.00431 0 
0 0 0 
-4.95483 0.0256843 0 
0.0256843 -4.31185 0 
0 0 0 
-4.95471 0.00691405 0 
0.00691405 -4.31198 0 
0 0 0 
-4.9878 -0.0119827 0 
-0.0119827 -4.27889 0 
0 0 0 
-5.00791 0.112821 0 
0.112821 -4.58441 0 
0 0 0 
-5.00417 0.104376 0 
0.104376 -4.58815 0 
0 0 0 
-4.99964 0.0967352 0 
0.0967352 -4.59268 0 
0 0 0 
-4.81524 -0.0727607 0 
-0.0727607 -4.94865 0 
0 0 0 
-4.82151 -0.0554961 0 
-0.0554961 -4.94238 0 
0 0 0 
-4.80552 -0.0535046 0 
-0.0535046 -4.95837 0 
0 0 0 
-4.9989 0.147137 0 
0.147137 -4.5865 0 
0 0 0 
-5.00628 0.132722 0 
0.132722 -4.57912 0 
0 0 0 
-4.99011 0.130852 0 
0.130852 -4.59529 0 
0 0 0 
-4.80252 -0.0566577 0 
-0.0566577 -5.02769 0 
0 0 0 
-4.80687 -0.0631862 0 
-0.0631862 -5.02333 0 
0 0 0 
-4.81185 -0.0562988 0 
-0.0562988 -5.01835 0 
0 0 0 
-4.98541 0.0893823 0 
0.0893823 -4.42646 0 
0 0 0 
-4.99638 0.0997643 0 
0.0997643 -4.41549 0 
0 0 0 
-5.00153 0.0842961 0 
0.0842961 -4.41034 0 
0 0 0 
-4.89109 -0.0277819 0 
-0.0277819 -4.70575 0 
0 0 0 
-4.92003 -0.0338708 0 
-0.0338708 -4.67682 0 
0 0 0 
-4.90028 -0.000300855 0 
-0.000300855 -4.69656 0 
0 0 0 
-4.87648 0.0678532 0 
0.0678532 -5.12065 0 
0 0 0 
-4.84783 0.0738864 0 
0.0738864 -5.1493 0 
0 0 0 
-4.86738 0.0386553 0 
0.0386553 -5.12975 0 
0 0 0 
-4.92643 0.00705325 0 
0.00705325 -4.95725 0 
0 0 0 
-4.92802 0.00632731 0 
0.00632731 -4.95567 0 
0 0 0 
-4.92655 0.0093038 0 
0.0093038 -4.95714 0 
0 0 0 
-4.86274 -0.21262 0 
-0.21262 -5.10577 0 
0 0 0 
-4.88101 -0.261225 0 
-0.261225 -5.08749 0 
0 0 0 
-4.90648 -0.208463 0 
-0.208463 -5.06202 0 
0 0 0 
-4.82337 0.483238 0 
0.483238 -5.30245 0 
0 0 0 
-4.44715 0.551217 0 
0.551217 -5.67867 0 
0 0 0 
-4.69089 0.150994 0 
0.150994 -5.43493 0 
0 0 0 
-5.04894 0.28796 0 
0.28796 -5.22459 0 
0 0 0 
-5.04245 0.310692 0 
0.310692 -5.23108 0 
0 0 0 
-5.06351 0.304468 0 
0.304468 -5.21001 0 
0 0 0 
-3.87451 1.73485 0 
1.73485 -2.69935 0 
0 0 0 
-3.18887 1.6618 0 
1.6618 -3.38499 0 
0 0 0 
-3.46579 1.49765 0 
1.49765 -3.10807 0 
0 0 0 
-4.92208 -0.131537 0 
-0.131537 -3.95243 0 
0 0 0 
-4.85846 -0.0384543 0 
-0.0384543 -4.01605 0 
0 0 0 
-4.85004 -0.100246 0 
-0.100246 -4.02447 0 
0 0 0 
-4.97228 0.134061 0 
0.134061 -4.32995 0 
0 0 0 
-4.99723 0.1684 0 
0.1684 -4.305 0 
0 0 0 
-4.97704 0.154863 0 
0.154863 -4.32519 0 
0 0 0 
-4.87096 -0.00851334 0 
-0.00851334 -4.85053 0 
0 0 0 
-4.87749 -0.0061808 0 
-0.0061808 -4.844 0 
0 0 0 
-4.87624 -0.000682694 0 
-0.000682694 -4.84524 0 
0 0 0 
-5.10769 0.315147 0 
0.315147 -5.81212 0 
0 0 0 
-5.63574 0.425872 0 
0.425872 -5.28407 0 
0 0 0 
-5.46512 0.594827 0 
0.594827 -5.45469 0 
0 0 0 
-4.75625 -0.221949 0 
-0.221949 -4.40516 0 
0 0 0 
-4.83038 -0.345991 0 
-0.345991 -4.33103 0 
0 0 0 
-4.87064 -0.241504 0 
-0.241504 -4.29077 0 
0 0 0 
-4.89668 -0.0617857 0 
-0.0617857 -4.22545 0 
0 0 0 
-4.8783 -0.126845 0 
-0.126845 -4.24383 0 
0 0 0 
-4.95274 -0.148599 0 
-0.148599 -4.16939 0 
0 0 0 
-4.95624 0.0239021 0 
0.0239021 -4.97532 0 
0 0 0 
-4.95851 0.0243296 0 
0.0243296 -4.97306 0 
0 0 0 
-4.9567 0.022708 0 
0.022708 -4.97487 0 
0 0 0 
-4.45502 -0.0503707 0 
-0.0503707 -3.07646 0 
0 0 0 
-4.49883 -0.132274 0 
-0.132274 -3.03264 0 
0 0 0 
-4.55193 -0.202563 0 
-0.202563 -2.97955 0 
0 0 0 
-4.81324 -0.0568279 0 
-0.0568279 -5.02066 0 
0 0 0 
-4.80788 -0.0647756 0 
-0.0647756 -5.02602 0 
0 0 0 
-4.81794 -0.064401 0 
-0.064401 -5.01596 0 
0 0 0 
-4.88369 0.00178822 0 
0.00178822 -4.86993 0 
0 0 0 
-4.88166 0.00302058 0 
0.00302058 -4.87196 0 
0 0 0 
-4.87757 0.000174024 0 
0.000174024 -4.87605 0 
0 0 0 
-4.66497 -0.259966 0 
-0.259966 -4.58078 0 
0 0 0 
-4.72292 -0.366953 0 
-0.366953 -4.52283 0 
0 0 0 
-4.7585 -0.272883 0 
-0.272883 -4.48725 0 
0 0 0 
-4.85333 -0.0307161 0 
-0.0307161 -5.33554 0 
0 0 0 
-4.86339 -0.0275072 0 
-0.0275072 -5.32548 0 
0 0 0 
-4.86802 -0.0417932 0 
-0.0417932 -5.32085 0 
0 0 0 
-4.88491 -0.00656844 0 
-0.00656844 -4.97706 0 
0 0 0 
-4.89246 -0.00743509 0 
-0.00743509 -4.96952 0 
0 0 0 
-4.88793 6.3191e-05 0 
6.3191e-05 -4.97405 0 
0 0 0 
-4.92965 0.000177802 0 
0.000177802 -4.92871 0 
0 0 0 
-4.92967 -0.000334186 0 
-0.000334186 -4.92869 0 
0 0 0 
-4.92974 0.000330844 0 
0.000330844 -4.92862 0 
0 0 0 
-4.7278 -0.237248 0 
-0.237248 -4.4421 0 
0 0 0 
-4.6864 -0.356372 0 
-0.356372 -4.4835 0 
0 0 0 
-4.79347 -0.370384 0 
-0.370384 -4.37642 0 
0 0 0 
-4.90279 -0.000153631 0 
-0.000153631 -5.36468 0 
0 0 0 
-4.89646 0.0136057 0 
0.0136057 -5.371 0 
0 0 0 
-4.91154 -0.00203216 0 
-0.00203216 -5.35592 0 
0 0 0 
-4.91165 7.10845e-05 0 
7.10845e-05 -4.95498 0 
0 0 0 
-4.91556 -0.00066092 0 
-0.00066092 -4.95106 0 
0 0 0 
-4.91297 0.00401175 0 
0.00401175 -4.95365 0 
0 0 0 
-4.89442 -0.0270295 0 
-0.0270295 -4.84344 0 
0 0 0 
-4.90487 -0.0244144 0 
-0.0244144 -4.83299 0 
0 0 0 
-4.90192 -0.0169017 0 
-0.0169017 -4.83594 0 
0 0 0 
-5.02004 0.109216 0 
0.109216 -4.74409 0 
0 0 0 
-5.01883 0.124503 0 
0.124503 -4.74529 0 
0 0 0 
-5.01117 0.105489 0 
0.105489 -4.75295 0 
0 0 0 
-4.91897 -0.00173634 0 
-0.00173634 -4.92049 0 
0 0 0 
-4.9178 -0.00130625 0 
-0.00130625 -4.92166 0 
0 0 0 
-4.91723 -0.00139304 0 
-0.00139304 -4.92223 0 
0 0 0 
-4.9289 0.000571912 0 
0.000571912 -4.92806 0 
0 0 0 
-4.92847 0.000568971 0 
0.000568971 -4.92849 0 
0 0 0 
-4.92913 0.000679253 0 
0.000679253 -4.92783 0 
0 0 0 
-4.85754 0.0217748 0 
0.0217748 -5.01676 0 
0 0 0 
-4.85356 0.0138681 0 
0.0138681 -5.02074 0 
0 0 0 
-4.86439 0.0123019 0 
0.0123019 -5.00991 0 
0 0 0 
-4.92257 -0.0014608 0 
-0.0014608 -4.92672 0 
0 0 0 
-4.92205 -0.00117957 0 
-0.00117957 -4.92724 0 
0 0 0 
-4.9225 -0.000803396 0 
-0.000803396 -4.92678 0 
0 0 0 
-4.91457 0.013293 0 
0.013293 -4.74206 0 
0 0 0 
-4.92981 -0.0102762 0 
-0.0102762 -4.72681 0 
0 0 0 
-4.93693 0.00859833 0 
0.00859833 -4.71969 0 
0 0 0 
-4.88637 0.149165 0 
0.149165 -3.95606 0 
0 0 0 
-4.91236 0.159719 0 
0.159719 -3.93006 0 
0 0 0 
-4.92676 0.124418 0 
0.124418 -3.91567 0 
0 0 0 
-4.89294 0.00674406 0 
0.00674406 -4.97771 0 
0 0 0 
-4.89035 0.000582297 0 
0.000582297 -4.98031 0 
0 0 0 
-4.89731 -0.000396496 0 
-0.000396496 -4.97334 0 
0 0 0 
-4.38577 -0.198307 0 
-0.198307 -4.98392 0 
0 0 0 
-4.3436 -0.176467 0 
-0.176467 -5.02609 0 
0 0 0 
-4.3206 -0.186451 0 
-0.186451 -5.04909 0 
0 0 0 
-4.90804 -0.090853 0 
-0.090853 -4.59106 0 
0 0 0 
-4.94509 -0.147934 0 
-0.147934 -4.55401 0 
0 0 0 
-4.96503 -0.100731 0 
-0.100731 -4.53407 0 
0 0 0 
-4.90154 -0.0866196 0 
-0.0866196 -4.92554 0 
0 0 0 
-4.89154 -0.0861419 0 
-0.0861419 -4.93554 0 
0 0 0 
-4.89696 -0.0968206 0 
-0.0968206 -4.93012 0 
0 0 0 
-4.92951 0.000720148 0 
0.000720148 -4.92834 0 
0 0 0 
-4.92904 0.000693943 0 
0.000693943 -4.92881 0 
0 0 0 
-4.92924 0.000649107 0 
0.000649107 -4.92861 0 
0 0 0 
-4.90121 -0.130552 0 
-0.130552 -4.95053 0 
0 0 0 
-4.88182 -0.130766 0 
-0.130766 -4.96993 0 
0 0 0 
-4.89133 -0.151102 0 
-0.151102 -4.96042 0 
0 0 0 
-4.80562 -0.0476273 0 
-0.0476273 -5.02271 0 
0 0 0 
-4.80046 -0.0549042 0 
-0.0549042 -5.02788 0 
0 0 0 
-4.81057 -0.0547735 0 
-0.0547735 -5.01777 0 
0 0 0 
-4.8444 0.0280104 0 
0.0280104 -5.0256 0 
0 0 0 
-4.83899 0.0179686 0 
0.0179686 -5.03101 0 
0 0 0 
-4.85291 0.0161764 0 
0.0161764 -5.01708 0 
0 0 0 
-1.61063 1.44904 0 
1.44904 -1.03145 0 
0 0 0 
-1.49419 1.23222 0 
1.23222 -1.1479 0 
0 0 0 
-1.33328 1.27397 0 
1.27397 -1.3088 0 
0 0 0 
-4.90204 -0.00294805 0 
-0.00294805 -4.961 0 
0 0 0 
-4.90728 -0.00372095 0 
-0.00372095 -4.95576 0 
0 0 0 
-4.90399 0.00198046 0 
0.00198046 -4.95905 0 
0 0 0 
-5.00438 0.153519 0 
0.153519 -4.72993 0 
0 0 0 
-4.98424 0.148819 0 
0.148819 -4.75008 0 
0 0 0 
-4.99024 0.120583 0 
0.120583 -4.74407 0 
0 0 0 
-4.91831 0.00383399 0 
0.00383399 -4.95653 0 
0 0 0 
-4.92104 0.00306528 0 
0.00306528 -4.95381 0 
0 0 0 
-4.91903 0.00699548 0 
0.00699548 -4.95582 0 
0 0 0 
-4.72328 0.181091 0 
0.181091 -3.3041 0 
0 0 0 
-4.70592 0.0973057 0 
0.0973057 -3.32147 0 
0 0 0 
-4.65098 0.142916 0 
0.142916 -3.3764 0 
0 0 0 
-4.83848 0.0587799 0 
0.0587799 -5.22897 0 
0 0 0 
-4.86062 0.0489823 0 
0.0489823 -5.20682 0 
0 0 0 
-4.84107 0.0804016 0 
0.0804016 -5.22638 0 
0 0 0 
-5.02145 0.0269938 0 
0.0269938 -4.08939 0 
0 0 0 
-4.97854 0.0592069 0 
0.0592069 -4.13229 0 
0 0 0 
-5.02795 0.0128027 0 
0.0128027 -4.08288 0 
0 0 0 
-4.89664 -0.00145325 0 
-0.00145325 -4.9704 0 
0 0 0 
-4.90273 -0.00231629 0 
-0.00231629 -4.96431 0 
0 0 0 
-4.89892 0.00410926 0 
0.00410926 -4.96812 0 
0 0 0 
-5.17662 0.502769 0 
0.502769 -5.51765 0 
0 0 0 
-5.20498 0.402818 0 
0.402818 -5.48929 0 
0 0 0 
-5.15268 0.400313 0 
0.400313 -5.54159 0 
0 0 0 
-4.83807 0.0151184 0 
0.0151184 -5.0158 0 
0 0 0 
-4.82408 0.0165005 0 
0.0165005 -5.02979 0 
0 0 0 
-4.83227 0.00482502 0 
0.00482502 -5.0216 0 
0 0 0 
-5.00936 0.08828 0 
0.08828 -4.7527 0 
0 0 0 
-5.00755 0.100143 0 
0.100143 -4.75451 0 
0 0 0 
-5.00166 0.0859173 0 
0.0859173 -4.7604 0 
0 0 0 
-4.8317 -0.00422386 0 
-0.00422386 -4.83933 0 
0 0 0 
-4.83467 -0.00400911 0 
-0.00400911 -4.83636 0 
0 0 0 
-4.83358 -0.00376661 0 
-0.00376661 -4.83744 0 
0 0 0 
-4.74365 0.0369373 0 
0.0369373 -5.05737 0 
0 0 0 
-4.72962 0.076878 0 
0.076878 -5.0714 0 
0 0 0 
-4.70551 0.0486589 0 
0.0486589 -5.09551 0 
0 0 0 
-4.90116 -0.0278593 0 
-0.0278593 -4.85663 0 
0 0 0 
-4.9024 -0.0319849 0 
-0.0319849 -4.85539 0 
0 0 0 
-4.90662 -0.0261484 0 
-0.0261484 -4.85117 0 
0 0 0 
-4.92803 0.0157117 0 
0.0157117 -4.71807 0 
0 0 0 
-4.91954 -0.00676482 0 
-0.00676482 -4.72657 0 
0 0 0 
-4.94448 -0.0113505 0 
-0.0113505 -4.70162 0 
0 0 0 
-4.7576 -0.082796 0 
-0.082796 -4.95132 0 
0 0 0 
-4.75227 -0.0816703 0 
-0.0816703 -4.95664 0 
0 0 0 
-4.75591 -0.0936115 0 
-0.0936115 -4.953 0 
0 0 0 
-4.88134 0.00107757 0 
0.00107757 -4.98001 0 
0 0 0 
-4.88592 -0.00648207 0 
-0.00648207 -4.97543 0 
0 0 0 
-4.8891 0.000271032 0 
0.000271032 -4.97225 0 
0 0 0 
-4.86987 0.0961624 0 
0.0961624 -5.03001 0 
0 0 0 
-4.87812 0.0885296 0 
0.0885296 -5.02177 0 
0 0 0 
-4.87865 0.0932437 0 
0.0932437 -5.02124 0 
0 0 0 
-4.8878 0.0497926 0 
0.0497926 -4.99915 0 
0 0 0 
-4.86751 0.086937 0 
0.086937 -5.01945 0 
0 0 0 
-4.85344 0.0533892 0 
0.0533892 -5.03352 0 
0 0 0 
-5.03144 0.071731 0 
0.071731 -4.62556 0 
0 0 0 
-5.03946 0.0716049 0 
0.0716049 -4.61754 0 
0 0 0 
-5.03522 0.0643212 0 
0.0643212 -4.62178 0 
0 0 0 
-4.84826 -0.128149 0 
-0.128149 -5.10272 0 
0 0 0 
-4.83451 -0.153978 0 
-0.153978 -5.11647 0 
0 0 0 
-4.85531 -0.150107 0 
-0.150107 -5.09567 0 
0 0 0 
-4.7931 -0.0452593 0 
-0.0452593 -5.03031 0 
0 0 0 
-4.80398 -0.0454356 0 
-0.0454356 -5.01943 0 
0 0 0 
-4.79838 -0.0380209 0 
-0.0380209 -5.02502 0 
0 0 0 
-4.98508 -0.165981 0 
-0.165981 -4.80149 0 
0 0 0 
-4.99407 -0.188176 0 
-0.188176 -4.79251 0 
0 0 0 
-4.99197 -0.172381 0 
-0.172381 -4.79461 0 
0 0 0 
-4.9084 0.0142641 0 
0.0142641 -4.98315 0 
0 0 0 
-4.91463 0.0126599 0 
0.0126599 -4.97692 0 
0 0 0 
-4.91039 0.018587 0 
0.018587 -4.98116 0 
0 0 0 
-4.82639 -0.148047 0 
-0.148047 -5.12153 0 
0 0 0 
-4.83487 -0.172148 0 
-0.172148 -5.11306 0 
0 0 0 
-4.85084 -0.143717 0 
-0.143717 -5.09708 0 
0 0 0 
-4.86774 0.109801 0 
0.109801 -5.02887 0 
0 0 0 
-4.85439 0.11343 0 
0.11343 -5.04223 0 
0 0 0 
-4.86547 0.101867 0 
0.101867 -5.03114 0 
0 0 0 
-4.83788 0.0869707 0 
0.0869707 -5.03107 0 
0 0 0 
-4.81149 0.0889548 0 
0.0889548 -5.05745 0 
0 0 0 
-4.82649 0.0704878 0 
0.0704878 -5.04245 0 
0 0 0 
-4.90312 -0.0270425 0 
-0.0270425 -4.86744 0 
0 0 0 
-4.90836 -0.0255036 0 
-0.0255036 -4.8622 0 
0 0 0 
-4.90733 -0.0220009 0 
-0.0220009 -4.86323 0 
0 0 0 
-4.92236 0.0222147 0 
0.0222147 -4.88491 0 
0 0 0 
-4.92399 0.0237074 0 
0.0237074 -4.88329 0 
0 0 0 
-4.91433 0.0282012 0 
0.0282012 -4.89295 0 
0 0 0 
-4.83101 -0.0541824 0 
-0.0541824 -5.11683 0 
0 0 0 
-4.82956 -0.0513884 0 
-0.0513884 -5.11828 0 
0 0 0 
-4.82463 -0.0468669 0 
-0.0468669 -5.12321 0 
0 0 0 
-4.95104 0.0607005 0 
0.0607005 -4.91529 0 
0 0 0 
-4.9573 0.0567065 0 
0.0567065 -4.90903 0 
0 0 0 
-4.9557 0.0554697 0 
0.0554697 -4.91063 0 
0 0 0 
-4.90678 -0.131942 0 
-0.131942 -4.61143 0 
0 0 0 
-4.85106 -0.12403 0 
-0.12403 -4.66715 0 
0 0 0 
-4.88577 -0.181914 0 
-0.181914 -4.63244 0 
0 0 0 
-4.97616 0.163788 0 
0.163788 -5.04768 0 
0 0 0 
-4.98014 0.158538 0 
0.158538 -5.04371 0 
0 0 0 
-4.98255 0.152061 0 
0.152061 -5.04129 0 
0 0 0 
-4.84464 0.00245135 0 
0.00245135 -5.01528 0 
0 0 0 
-4.83668 0.0136143 0 
0.0136143 -5.02324 0 
0 0 0 
-4.83129 0.00393469 0 
0.00393469 -5.02864 0 
0 0 0 
-4.92013 0.00175563 0 
0.00175563 -4.94913 0 
0 0 0 
-4.92289 0.00109067 0 
0.00109067 -4.94637 0 
0 0 0 
-4.92095 0.00498923 0 
0.00498923 -4.9483 0 
0 0 0 
-4.90638 -0.0668956 0 
-0.0668956 -5.35978 0 
0 0 0 
-4.89628 -0.0746544 0 
-0.0746544 -5.36988 0 
0 0 0 
-4.89293 -0.0610615 0 
-0.0610615 -5.37323 0 
0 0 0 
-4.92204 0.000154839 0 
0.000154839 -4.94186 0 
0 0 0 
-4.92398 -0.000386958 0 
-0.000386958 -4.93992 0 
0 0 0 
-4.92255 0.00261829 0 
0.00261829 -4.94135 0 
0 0 0 
-4.85593 -0.153176 0 
-0.153176 -5.03408 0 
0 0 0 
-4.86795 -0.180578 0 
-0.180578 -5.02206 0 
0 0 0 
-4.883 -0.151431 0 
-0.151431 -5.00701 0 
0 0 0 
-4.82805 0.0464381 0 
0.0464381 -5.13019 0 
0 0 0 
-4.82157 0.0250064 0 
0.0250064 -5.13667 0 
0 0 0 
-4.84465 0.0191608 0 
0.0191608 -5.11359 0 
0 0 0 
-4.93918 0.0317426 0 
0.0317426 -4.97723 0 
0 0 0 
-4.93793 0.0336171 0 
0.0336171 -4.97847 0 
0 0 0 
-4.94016 0.0303639 0 
0.0303639 -4.97624 0 
0 0 0 
-4.98725 0.306554 0 
0.306554 -4.83515 0 
0 0 0 
-4.94519 0.238923 0 
0.238923 -4.87721 0 
0 0 0 
-5.0067 0.268937 0 
0.268937 -4.8157 0 
0 0 0 
-4.91053 -0.0497965 0 
-0.0497965 -4.89566 0 
0 0 0 
-4.91063 -0.0478279 0 
-0.0478279 -4.89556 0 
0 0 0 
-4.90862 -0.0468008 0 
-0.0468008 -4.89756 0 
0 0 0 
-4.87611 0.0584956 0 
0.0584956 -5.05551 0 
0 0 0 
-4.85486 0.0967496 0 
0.0967496 -5.07676 0 
0 0 0 
-4.84211 0.0634031 0 
0.0634031 -5.08951 0 
0 0 0 
-4.92464 -0.166228 0 
-0.166228 -4.88717 0 
0 0 0 
-4.91395 -0.199081 0 
-0.199081 -4.89785 0 
0 0 0 
-4.93923 -0.201336 0 
-0.201336 -4.87258 0 
0 0 0 
-4.89422 -0.0179596 0 
-0.0179596 -4.86211 0 
0 0 0 
-4.89922 -0.0157316 0 
-0.0157316 -4.85711 0 
0 0 0 
-4.89786 -0.0107812 0 
-0.0107812 -4.85848 0 
0 0 0 
-4.91938 0.00540987 0 
0.00540987 -4.95033 0 
0 0 0 
-4.92115 0.00199459 0 
0.00199459 -4.94856 0 
0 0 0 
-4.92169 0.00471936 0 
0.00471936 -4.94802 0 
0 0 0 
-4.80569 -0.130873 0 
-0.130873 -4.77603 0 
0 0 0 
-4.78929 -0.173991 0 
-0.173991 -4.79243 0 
0 0 0 
-4.82914 -0.178061 0 
-0.178061 -4.75258 0 
0 0 0 
-4.8946 -0.00888411 0 
-0.00888411 -4.84792 0 
0 0 0 
-4.88186 -0.0372381 0 
-0.0372381 -4.86066 0 
0 0 0 
-4.91135 -0.0395502 0 
-0.0395502 -4.83117 0 
0 0 0 
-4.98808 0.0965329 0 
0.0965329 -4.75379 0 
0 0 0 
-4.99791 0.118819 0 
0.118819 -4.74396 0 
0 0 0 
-4.98347 0.115805 0 
0.115805 -4.7584 0 
0 0 0 
-4.94757 0.00266269 0 
0.00266269 -4.75894 0 
0 0 0 
-4.93582 -0.0231674 0 
-0.0231674 -4.77069 0 
0 0 0 
-4.96419 -0.0259782 0 
-0.0259782 -4.74232 0 
0 0 0 
-4.98607 0.0721818 0 
0.0721818 -4.77705 0 
0 0 0 
-4.96631 0.0722817 0 
0.0722817 -4.79681 0 
0 0 0 
-4.97628 0.0513468 0 
0.0513468 -4.78684 0 
0 0 0 
-4.91259 0.000346413 0 
0.000346413 -4.95396 0 
0 0 0 
-4.91389 0.00415491 0 
0.00415491 -4.95266 0 
0 0 0 
-4.91004 0.0048787 0 
0.0048787 -4.95651 0 
0 0 0 
-4.93141 0.0337041 0 
0.0337041 -4.84777 0 
0 0 0 
-4.95967 0.0322073 0 
0.0322073 -4.81951 0 
0 0 0 
-4.94424 0.0612784 0 
0.0612784 -4.83493 0 
0 0 0 
-4.92664 0.121971 0 
0.121971 -5.237 0 
0 0 0 
-4.93114 0.160098 0 
0.160098 -5.2325 0 
0 0 0 
-4.90244 0.171474 0 
0.171474 -5.2612 0 
0 0 0 
-4.84683 -0.0771502 0 
-0.0771502 -4.82552 0 
0 0 0 
-4.83366 -0.109244 0 
-0.109244 -4.83868 0 
0 0 0 
-4.86505 -0.11216 0 
-0.11216 -4.8073 0 
0 0 0 
-4.90304 -0.0556795 0 
-0.0556795 -4.88989 0 
0 0 0 
-4.9054 -0.0567425 0 
-0.0567425 -4.88753 0 
0 0 0 
-4.90328 -0.0533558 0 
-0.0533558 -4.88964 0 
0 0 0 
-4.86624 -0.155959 0 
-0.155959 -5.16265 0 
0 0 0 
-4.84733 -0.193532 0 
-0.193532 -5.18156 0 
0 0 0 
-4.87452 -0.187388 0 
-0.187388 -5.15438 0 
0 0 0 
-4.91125 -0.0428186 0 
-0.0428186 -4.88458 0 
0 0 0 
-4.91253 -0.0415948 0 
-0.0415948 -4.8833 0 
0 0 0 
-4.91298 -0.0418547 0 
-0.0418547 -4.88285 0 
0 0 0 
-4.8919 -0.00742889 0 
-0.00742889 -4.96693 0 
0 0 0 
-4.89847 -0.00821842 0 
-0.00821842 -4.96036 0 
0 0 0 
-4.8945 -0.0015002 0 
-0.0015002 -4.96433 0 
0 0 0 
-4.91744 -0.0637686 0 
-0.0637686 -4.8775 0 
0 0 0 
-4.91796 -0.062281 0 
-0.062281 -4.87699 0 
0 0 0 
-4.91899 -0.0641726 0 
-0.0641726 -4.87596 0 
0 0 0 
-4.98625 0.15087 0 
0.15087 -4.82614 0 
0 0 0 
-4.97089 0.145015 0 
0.145015 -4.84151 0 
0 0 0 
-4.97135 0.139773 0 
0.139773 -4.84104 0 
0 0 0 
-4.88293 0.00317399 0 
0.00317399 -4.99058 0 
0 0 0 
-4.89092 0.00205734 0 
0.00205734 -4.98259 0 
0 0 0 
-4.88595 0.00994239 0 
0.00994239 -4.98755 0 
0 0 0 
-4.9228 0.108341 0 
0.108341 -5.01036 0 
0 0 0 
-4.91651 0.112833 0 
0.112833 -5.01665 0 
0 0 0 
-4.9237 0.104616 0 
0.104616 -5.00946 0 
0 0 0 
-4.9935 -0.0700903 0 
-0.0700903 -4.57343 0 
0 0 0 
-5.00616 -0.0403431 0 
-0.0403431 -4.56077 0 
0 0 0 
-4.96581 -0.0316685 0 
-0.0316685 -4.60112 0 
0 0 0 
-4.92557 0.000952982 0 
0.000952982 -4.92462 0 
0 0 0 
-4.92388 0.00112386 0 
0.00112386 -4.92632 0 
0 0 0 
-4.92487 0.000640465 0 
0.000640465 -4.92532 0 
0 0 0 
-4.92196 -0.00011247 0 
-0.00011247 -4.92432 0 
0 0 0 
-4.92142 -4.77566e-05 0 
-4.77566e-05 -4.92485 0 
0 0 0 
-4.92281 -0.000266392 0 
-0.000266392 -4.92346 0 
0 0 0 
-4.90252 -0.214736 0 
-0.214736 -5.00182 0 
0 0 0 
-4.92551 -0.268332 0 
-0.268332 -4.97883 0 
0 0 0 
-4.94958 -0.214112 0 
-0.214112 -4.95476 0 
0 0 0 
-4.99555 0.071163 0 
0.071163 -4.76369 0 
0 0 0 
-5.0033 0.0725449 0 
0.0725449 -4.75593 0 
0 0 0 
-5.00062 0.0828176 0 
0.0828176 -4.75861 0 
0 0 0 
-4.87596 0.025804 0 
0.025804 -5.29569 0 
0 0 0 
-4.85856 0.0487824 0 
0.0487824 -5.31309 0 
0 0 0 
-4.86508 0.0396191 0 
0.0396191 -5.30657 0 
0 0 0 
-4.87324 -0.0133439 0 
-0.0133439 -4.98332 0 
0 0 0 
-4.88214 -0.0141726 0 
-0.0141726 -4.97443 0 
0 0 0 
-4.87697 -0.00570756 0 
-0.00570756 -4.97959 0 
0 0 0 
-4.90081 -0.0615619 0 
-0.0615619 -4.90197 0 
0 0 0 
-4.89763 -0.0559309 0 
-0.0559309 -4.90515 0 
0 0 0 
-4.89593 -0.0606999 0 
-0.0606999 -4.90685 0 
0 0 0 
-4.88753 -0.116107 0 
-0.116107 -4.3952 0 
0 0 0 
-4.94568 -0.20306 0 
-0.20306 -4.33705 0 
0 0 0 
-4.97166 -0.134681 0 
-0.134681 -4.31107 0 
0 0 0 
-4.85659 -0.00164592 0 
-0.00164592 -4.85047 0 
0 0 0 
-4.86009 6.15388e-05 0 
6.15388e-05 -4.84697 0 
0 0 0 
-4.86024 0.00305665 0 
0.00305665 -4.84682 0 
0 0 0 
-4.919 0.00438458 0 
0.00438458 -4.95513 0 
0 0 0 
-4.91973 0.00758058 0 
0.00758058 -4.9544 0 
0 0 0 
-4.91692 0.0082307 0 
0.0082307 -4.95721 0 
0 0 0 
-4.91483 -0.00509131 0 
-0.00509131 -4.92366 0 
0 0 0 
-4.91339 -0.00457171 0 
-0.00457171 -4.9251 0 
0 0 0 
-4.91464 -0.00471196 0 
-0.00471196 -4.92385 0 
0 0 0 
-4.87699 0.0994737 0 
0.0994737 -5.01894 0 
0 0 0 
-4.89831 0.0572893 0 
0.0572893 -4.99762 0 
0 0 0 
-4.91391 0.0961715 0 
0.0961715 -4.98203 0 
0 0 0 
-4.9199 -0.0657546 0 
-0.0657546 -4.77682 0 
0 0 0 
-4.92544 -0.078321 0 
-0.078321 -4.77128 0 
0 0 0 
-4.9391 -0.0610652 0 
-0.0610652 -4.75762 0 
0 0 0 
-4.86373 -0.227568 0 
-0.227568 -5.09934 0 
0 0 0 
-4.90085 -0.223844 0 
-0.223844 -5.06222 0 
0 0 0 
-4.88552 -0.17934 0 
-0.17934 -5.07756 0 
0 0 0 
-4.8897 -0.235696 0 
-0.235696 -5.02997 0 
0 0 0 
-4.91129 -0.191113 0 
-0.191113 -5.00839 0 
0 0 0 
-4.87196 -0.193326 0 
-0.193326 -5.04772 0 
0 0 0 
-4.94036 0.137693 0 
0.137693 -4.95293 0 
0 0 0 
-4.89795 0.140443 0 
0.140443 -4.99534 0 
0 0 0 
-4.92154 0.0905713 0 
0.0905713 -4.97175 0 
0 0 0 
-4.86441 0.102917 0 
0.102917 -5.05329 0 
0 0 0 
-4.86086 0.092053 0 
0.092053 -5.05685 0 
0 0 0 
-4.87803 0.0886367 0 
0.0886367 -5.03967 0 
0 0 0 
-4.89794 -0.0268023 0 
-0.0268023 -4.84437 0 
0 0 0 
-4.90038 -0.0333473 0 
-0.0333473 -4.84194 0 
0 0 0 
-4.90652 -0.0246811 0 
-0.0246811 -4.83579 0 
0 0 0 
-4.83445 -0.152522 0 
-0.152522 -5.17013 0 
0 0 0 
-4.85369 -0.146981 0 
-0.146981 -5.15089 0 
0 0 0 
-4.84887 -0.126491 0 
-0.126491 -5.15571 0 
0 0 0 
-4.90731 -0.0490935 0 
-0.0490935 -4.87468 0 
0 0 0 
-4.90652 -0.0484515 0 
-0.0484515 -4.87548 0 
0 0 0 
-4.90807 -0.0477386 0 
-0.0477386 -4.87393 0 
0 0 0 
-4.90509 -0.0206423 0 
-0.0206423 -4.85042 0 
0 0 0 
-4.89932 -0.0281099 0 
-0.0281099 -4.85619 0 
0 0 0 
-4.90701 -0.0259613 0 
-0.0259613 -4.8485 0 
0 0 0 
-4.89331 -0.00163174 0 
-0.00163174 -4.88155 0 
0 0 0 
-4.88776 -0.00256878 0 
-0.00256878 -4.8871 0 
0 0 0 
-4.88956 -0.00417593 0 
-0.00417593 -4.8853 0 
0 0 0 
-4.74277 -0.0600892 0 
-0.0600892 -5.01613 0 
0 0 0 
-4.74725 -0.0619167 0 
-0.0619167 -5.01165 0 
0 0 0 
-4.75144 -0.0602523 0 
-0.0602523 -5.00746 0 
0 0 0 
-4.99394 0.051619 0 
0.051619 -4.76756 0 
0 0 0 
-4.9853 0.0690435 0 
0.0690435 -4.7762 0 
0 0 0 
-4.97734 0.0520133 0 
0.0520133 -4.78417 0 
0 0 0 
-4.92291 0.112538 0 
0.112538 -5.03606 0 
0 0 0 
-4.91427 0.122279 0 
0.122279 -5.04469 0 
0 0 0 
-4.91366 0.116674 0 
0.116674 -5.04531 0 
0 0 0 
-4.82269 -0.0772089 0 
-0.0772089 -4.85788 0 
0 0 0 
-4.83974 -0.108951 0 
-0.108951 -4.84083 0 
0 0 0 
-4.85144 -0.0802994 0 
-0.0802994 -4.82913 0 
0 0 0 
-4.66045 -0.278832 0 
-0.278832 -4.27152 0 
0 0 0 
-4.60756 -0.443478 0 
-0.443478 -4.32441 0 
0 0 0 
-4.74984 -0.464547 0 
-0.464547 -4.18213 0 
0 0 0 
-4.90902 -0.0549735 0 
-0.0549735 -4.86296 0 
0 0 0 
-4.91154 -0.0530611 0 
-0.0530611 -4.86043 0 
0 0 0 
-4.90927 -0.054661 0 
-0.054661 -4.86271 0 
0 0 0 
-4.86091 -0.0474629 0 
-0.0474629 -4.97722 0 
0 0 0 
-4.86658 -0.0573946 0 
-0.0573946 -4.97154 0 
0 0 0 
-4.87176 -0.0477458 0 
-0.0477458 -4.96636 0 
0 0 0 
-4.93414 0.0139479 0 
0.0139479 -4.82286 0 
0 0 0 
-4.96121 0.0121758 0 
0.0121758 -4.79579 0 
0 0 0 
-4.94614 0.0397079 0 
0.0397079 -4.81086 0 
0 0 0 
-4.95951 0.0325246 0 
0.0325246 -4.81014 0 
0 0 0 
-4.97126 0.0577409 0 
0.0577409 -4.79838 0 
0 0 0 
-4.946 0.0587468 0 
0.0587468 -4.82364 0 
0 0 0 
-4.86209 -0.0216892 0 
-0.0216892 -4.98904 0 
0 0 0 
-4.87216 -0.0224422 0 
-0.0224422 -4.97897 0 
0 0 0 
-4.86647 -0.0131523 0 
-0.0131523 -4.98466 0 
0 0 0 
-4.56471 -0.318139 0 
-0.318139 -3.99657 0 
0 0 0 
-4.50604 -0.527121 0 
-0.527121 -4.05524 0 
0 0 0 
-4.68303 -0.561557 0 
-0.561557 -3.87825 0 
0 0 0 
-4.90703 -0.0736226 0 
-0.0736226 -4.91157 0 
0 0 0 
-4.90034 -0.072888 0 
-0.072888 -4.91826 0 
0 0 0 
-4.90432 -0.0805671 0 
-0.0805671 -4.91428 0 
0 0 0 
-4.91981 0.0998265 0 
0.0998265 -5.03352 0 
0 0 0 
-4.92201 0.0980458 0 
0.0980458 -5.03132 0 
0 0 0 
-4.92707 0.0938699 0 
0.0938699 -5.02626 0 
0 0 0 
-4.84905 -0.124341 0 
-0.124341 -5.06205 0 
0 0 0 
-4.83667 -0.148022 0 
-0.148022 -5.07442 0 
0 0 0 
-4.85685 -0.145384 0 
-0.145384 -5.05424 0 
0 0 0 
-4.89475 -0.00216184 0 
-0.00216184 -4.87901 0 
0 0 0 
-4.89321 -0.00160855 0 
-0.00160855 -4.88055 0 
0 0 0 
-4.88975 -0.00296459 0 
-0.00296459 -4.88401 0 
0 0 0 
-4.8944 -0.0228274 0 
-0.0228274 -4.76484 0 
0 0 0 
-4.90392 -0.0460444 0 
-0.0460444 -4.75533 0 
0 0 0 
-4.9225 -0.017587 0 
-0.017587 -4.73674 0 
0 0 0 
-4.98149 0.00445393 0 
0.00445393 -4.73401 0 
0 0 0 
-4.95562 0.0072342 0 
0.0072342 -4.75988 0 
0 0 0 
-4.97097 -0.0176376 0 
-0.0176376 -4.74453 0 
0 0 0 
-4.86968 0.0194562 0 
0.0194562 -5.00136 0 
0 0 0 
-4.85942 0.0205661 0 
0.0205661 -5.01161 0 
0 0 0 
-4.8659 0.0114641 0 
0.0114641 -5.00514 0 
0 0 0 
-4.87205 0.0346093 0 
0.0346093 -5.06491 0 
0 0 0 
-4.88365 0.0662013 0 
0.0662013 -5.05331 0 
0 0 0 
-4.85267 0.0706909 0 
0.0706909 -5.08429 0 
0 0 0 
-4.77554 -0.129461 0 
-0.129461 -4.81336 0 
0 0 0 
-4.79666 -0.169847 0 
-0.169847 -4.79225 0 
0 0 0 
-4.81034 -0.133753 0 
-0.133753 -4.77857 0 
0 0 0 
-4.89453 0.212561 0 
0.212561 -5.1481 0 
0 0 0 
-4.88021 0.161545 0 
0.161545 -5.16242 0 
0 0 0 
-4.92377 0.152931 0 
0.152931 -5.11886 0 
0 0 0 
-4.91323 -0.00324058 0 
-0.00324058 -4.91881 0 
0 0 0 
-4.91284 -0.00310137 0 
-0.00310137 -4.9192 0 
0 0 0 
-4.91447 -0.00358309 0 
-0.00358309 -4.91757 0 
0 0 0 
-4.9135 -0.0482968 0 
-0.0482968 -4.87437 0 
0 0 0 
-4.91592 -0.0467482 0 
-0.0467482 -4.87195 0 
0 0 0 
-4.91605 -0.0464031 0 
-0.0464031 -4.87182 0 
0 0 0 
-4.90642 -0.0432676 0 
-0.0432676 -4.88428 0 
0 0 0 
-4.90493 -0.0415974 0 
-0.0415974 -4.88577 0 
0 0 0 
-4.90531 -0.0422361 0 
-0.0422361 -4.88538 0 
0 0 0 
-4.83125 -0.0440216 0 
-0.0440216 -5.04667 0 
0 0 0 
-4.83477 -0.0322348 0 
-0.0322348 -5.04315 0 
0 0 0 
-4.82229 -0.0291002 0 
-0.0291002 -5.05562 0 
0 0 0 
-4.86315 0.00497528 0 
0.00497528 -4.80651 0 
0 0 0 
-4.86105 -0.00565399 0 
-0.00565399 -4.8086 0 
0 0 0 
-4.87027 -0.00851185 0 
-0.00851185 -4.79938 0 
0 0 0 
-4.885 0.237789 0 
0.237789 -5.10268 0 
0 0 0 
-4.85079 0.255235 0 
0.255235 -5.13689 0 
0 0 0 
-4.88319 0.205101 0 
0.205101 -5.10449 0 
0 0 0 
-4.90932 -0.0353796 0 
-0.0353796 -4.87442 0 
0 0 0 
-4.91237 -0.0338554 0 
-0.0338554 -4.87137 0 
0 0 0 
-4.91217 -0.0324259 0 
-0.0324259 -4.87157 0 
0 0 0 
-4.87934 0.0212824 0 
0.0212824 -5.2822 0 
0 0 0 
-4.87735 0.0343846 0 
0.0343846 -5.28419 0 
0 0 0 
-4.86282 0.0450757 0 
0.0450757 -5.29872 0 
0 0 0 
-4.90987 0.0119346 0 
0.0119346 -4.75408 0 
0 0 0 
-4.90351 -0.0066022 0 
-0.0066022 -4.76044 0 
0 0 0 
-4.92264 -0.0102999 0 
-0.0102999 -4.74131 0 
0 0 0 
-4.67106 -0.247849 0 
-0.247849 -4.6625 0 
0 0 0 
-4.64101 -0.336284 0 
-0.336284 -4.69255 0 
0 0 0 
-4.71346 -0.34342 0 
-0.34342 -4.6201 0 
0 0 0 
-4.88779 -0.0628128 0 
-0.0628128 -4.92371 0 
0 0 0 
-4.89468 -0.0635061 0 
-0.0635061 -4.91683 0 
0 0 0 
-4.89064 -0.0561941 0 
-0.0561941 -4.92087 0 
0 0 0 
-4.9135 0.00282256 0 
0.00282256 -4.94891 0 
0 0 0 
-4.91573 -0.00130251 0 
-0.00130251 -4.94668 0 
0 0 0 
-4.91685 0.00218104 0 
0.00218104 -4.94556 0 
0 0 0 
-4.88223 -0.00360703 0 
-0.00360703 -4.74106 0 
0 0 0 
-4.87713 -0.0225181 0 
-0.0225181 -4.74617 0 
0 0 0 
-4.89508 -0.0269831 0 
-0.0269831 -4.72822 0 
0 0 0 
-4.90983 -0.0369397 0 
-0.0369397 -4.89312 0 
0 0 0 
-4.90987 -0.0361734 0 
-0.0361734 -4.89308 0 
0 0 0 
-4.91056 -0.0369691 0 
-0.0369691 -4.89239 0 
0 0 0 
-4.89337 0.0771793 0 
0.0771793 -5.22469 0 
0 0 0 
-4.89882 0.108083 0 
0.108083 -5.21924 0 
0 0 0 
-4.87128 0.117686 0 
0.117686 -5.24678 0 
0 0 0 
-4.88319 -0.0542616 0 
-0.0542616 -4.93587 0 
0 0 0 
-4.87947 -0.0622131 0 
-0.0622131 -4.93959 0 
0 0 0 
-4.88789 -0.0627784 0 
-0.0627784 -4.93117 0 
0 0 0 
-4.97382 0.140045 0 
0.140045 -5.00806 0 
0 0 0 
-4.97797 0.145947 0 
0.145947 -5.0039 0 
0 0 0 
-4.98085 0.143806 0 
0.143806 -5.00102 0 
0 0 0 
-4.99168 0.0645475 0 
0.0645475 -4.73694 0 
0 0 0 
-4.99394 0.0689535 0 
0.0689535 -4.73468 0 
0 0 0 
-4.99311 0.0668244 0 
0.0668244 -4.73551 0 
0 0 0 
-4.89081 0.132113 0 
0.132113 -5.00627 0 
0 0 0 
-4.87325 0.0905147 0 
0.0905147 -5.02383 0 
0 0 0 
-4.91453 0.0869584 0 
0.0869584 -4.98255 0 
0 0 0 
-4.72936 -0.201998 0 
-0.201998 -4.70964 0 
0 0 0 
-4.70588 -0.268818 0 
-0.268818 -4.73311 0 
0 0 0 
-4.76303 -0.274707 0 
-0.274707 -4.67597 0 
0 0 0 
-4.77227 -0.169273 0 
-0.169273 -4.70285 0 
0 0 0 
-4.80732 -0.232246 0 
-0.232246 -4.6678 0 
0 0 0 
-4.82919 -0.176883 0 
-0.176883 -4.64593 0 
0 0 0 
-4.89403 0.014684 0 
0.014684 -4.88229 0 
0 0 0 
-4.9021 0.0118316 0 
0.0118316 -4.87422 0 
0 0 0 
-4.8946 0.0132664 0 
0.0132664 -4.88173 0 
0 0 0 
-4.85503 -0.00459109 0 
-0.00459109 -4.86015 0 
0 0 0 
-4.86635 -0.00590583 0 
-0.00590583 -4.84883 0 
0 0 0 
-4.85934 -0.003016 0 
-0.003016 -4.85584 0 
0 0 0 
-1.89118 0.771433 0 
0.771433 -1.08193 0 
0 0 0 
-1.80111 0.441702 0 
0.441702 -1.17201 0 
0 0 0 
-1.56867 0.546008 0 
0.546008 -1.40445 0 
0 0 0 
-4.88915 -0.00606065 0 
-0.00606065 -4.73929 0 
0 0 0 
-4.87234 -0.0017145 0 
-0.0017145 -4.7561 0 
0 0 0 
-4.88451 -0.0227612 0 
-0.0227612 -4.74393 0 
0 0 0 
-4.9707 -0.140379 0 
-0.140379 -4.1399 0 
0 0 0 
-4.87492 -0.114463 0 
-0.114463 -4.23568 0 
0 0 0 
-4.94525 -0.217253 0 
-0.217253 -4.16535 0 
0 0 0 
-4.89416 -0.0508868 0 
-0.0508868 -4.93302 0 
0 0 0 
-4.88657 -0.050418 0 
-0.050418 -4.94061 0 
0 0 0 
-4.89077 -0.0579995 0 
-0.0579995 -4.93641 0 
0 0 0 
-4.92819 0.00116726 0 
0.00116726 -4.92676 0 
0 0 0 
-4.92693 0.0012079 0 
0.0012079 -4.92802 0 
0 0 0 
-4.92759 0.000871957 0 
0.000871957 -4.92736 0 
0 0 0 
-4.77311 -0.163595 0 
-0.163595 -4.74608 0 
0 0 0 
-4.75387 -0.216271 0 
-0.216271 -4.76532 0 
0 0 0 
-4.80081 -0.22115 0 
-0.22115 -4.71838 0 
0 0 0 
-4.89532 0.015095 0 
0.015095 -4.98194 0 
0 0 0 
-4.89924 0.00907516 0 
0.00907516 -4.97802 0 
0 0 0 
-4.90078 0.0138584 0 
0.0138584 -4.97648 0 
0 0 0 
-4.88181 0.0395007 0 
0.0395007 -5.02065 0 
0 0 0 
-4.89345 0.0352928 0 
0.0352928 -5.00901 0 
0 0 0 
-4.88919 0.0497789 0 
0.0497789 -5.01327 0 
0 0 0 
-4.76035 -0.00575123 0 
-0.00575123 -5.03822 0 
0 0 0 
-4.75232 -0.0167165 0 
-0.0167165 -5.04625 0 
0 0 0 
-4.77144 -0.0185059 0 
-0.0185059 -5.02712 0 
0 0 0 
-4.98706 0.0776737 0 
0.0776737 -4.75982 0 
0 0 0 
-4.9948 0.0946282 0 
0.0946282 -4.75207 0 
0 0 0 
-4.98252 0.0927762 0 
0.0927762 -4.76436 0 
0 0 0 
-4.92264 0.0881563 0 
0.0881563 -5.00786 0 
0 0 0 
-4.9255 0.0921306 0 
0.0921306 -5.005 0 
0 0 0 
-4.92618 0.0925049 0 
0.0925049 -5.00432 0 
0 0 0 
-4.86437 -0.152835 0 
-0.152835 -5.09826 0 
0 0 0 
-4.84663 -0.188928 0 
-0.188928 -5.116 0 
0 0 0 
-4.8752 -0.184939 0 
-0.184939 -5.08743 0 
0 0 0 
-4.84179 0.000666856 0 
0.000666856 -4.82312 0 
0 0 0 
-4.83726 0.00292193 0 
0.00292193 -4.82766 0 
0 0 0 
-4.84123 -0.00557864 0 
-0.00557864 -4.82369 0 
0 0 0 
-4.96274 -0.00707022 0 
-0.00707022 -4.77066 0 
0 0 0 
-4.94726 0.0203552 0 
0.0203552 -4.78615 0 
0 0 0 
-4.9356 -0.00486543 0 
-0.00486543 -4.79781 0 
0 0 0 
-4.98074 0.0996579 0 
0.0996579 -4.90681 0 
0 0 0 
-4.9747 0.112649 0 
0.112649 -4.91286 0 
0 0 0 
-4.96449 0.0873783 0 
0.0873783 -4.92306 0 
0 0 0 
-4.85374 -0.0594897 0 
-0.0594897 -4.98055 0 
0 0 0 
-4.86513 -0.0598236 0 
-0.0598236 -4.96915 0 
0 0 0 
-4.85915 -0.0492447 0 
-0.0492447 -4.97514 0 
0 0 0 
-4.90472 0.000981483 0 
0.000981483 -4.95477 0 
0 0 0 
-4.90762 -0.00411785 0 
-0.00411785 -4.95188 0 
0 0 0 
-4.90934 0.000307612 0 
0.000307612 -4.95015 0 
0 0 0 
-4.91251 0.00117367 0 
0.00117367 -4.95894 0 
0 0 0 
-4.90952 0.00643164 0 
0.00643164 -4.96193 0 
0 0 0 
-4.90794 0.00200264 0 
0.00200264 -4.96351 0 
0 0 0 
-4.90648 -0.0510103 0 
-0.0510103 -4.90812 0 
0 0 0 
-4.90244 -0.0502648 0 
-0.0502648 -4.91216 0 
0 0 0 
-4.90511 -0.0550278 0 
-0.0550278 -4.90949 0 
0 0 0 
-4.82312 -0.145812 0 
-0.145812 -5.17599 0 
0 0 0 
-4.82836 -0.167381 0 
-0.167381 -5.17074 0 
0 0 0 
-4.84466 -0.139435 0 
-0.139435 -5.15445 0 
0 0 0 
-4.98353 0.00313105 0 
0.00313105 -4.73746 0 
0 0 0 
-4.97005 0.0258743 0 
0.0258743 -4.75094 0 
0 0 0 
-4.96057 0.00543537 0 
0.00543537 -4.76043 0 
0 0 0 
-4.8217 -0.0403455 0 
-0.0403455 -5.08176 0 
0 0 0 
-4.81333 -0.0280597 0 
-0.0280597 -5.09012 0 
0 0 0 
-4.81178 -0.0364137 0 
-0.0364137 -5.09168 0 
0 0 0 
-4.99346 0.10557 0 
0.10557 -4.65769 0 
0 0 0 
-4.99629 0.1116 0 
0.1116 -4.65486 0 
0 0 0 
-5.0051 0.103239 0 
0.103239 -4.64604 0 
0 0 0 
-4.93806 -0.013573 0 
-0.013573 -4.812 0 
0 0 0 
-4.92157 0.0163642 0 
0.0163642 -4.82848 0 
0 0 0 
-4.9088 -0.0114287 0 
-0.0114287 -4.84125 0 
0 0 0 
-4.89647 -0.213512 0 
-0.213512 -5.14771 0 
0 0 0 
-4.85957 -0.221053 0 
-0.221053 -5.18461 0 
0 0 0 
-4.87149 -0.266257 0 
-0.266257 -5.17269 0 
0 0 0 
-4.79836 -0.169506 0 
-0.169506 -4.20011 0 
0 0 0 
-4.76292 -0.282696 0 
-0.282696 -4.23554 0 
0 0 0 
-4.8741 -0.305961 0 
-0.305961 -4.12437 0 
0 0 0 
-4.97463 -0.0219218 0 
-0.0219218 -4.43299 0 
0 0 0 
-5.01306 -0.0706968 0 
-0.0706968 -4.39456 0 
0 0 0 
-5.02452 -0.0374888 0 
-0.0374888 -4.38309 0 
0 0 0 
-4.93319 -0.220015 0 
-0.220015 -5.25897 0 
0 0 0 
-4.91252 -0.273292 0 
-0.273292 -5.27965 0 
0 0 0 
-4.932 -0.260669 0 
-0.260669 -5.26017 0 
0 0 0 
-4.98895 0.0116907 0 
0.0116907 -4.74239 0 
0 0 0 
-4.99682 0.0276635 0 
0.0276635 -4.73452 0 
0 0 0 
-4.97756 0.0296932 0 
0.0296932 -4.75378 0 
0 0 0 
-4.95331 0.100703 0 
0.100703 -4.90523 0 
0 0 0 
-4.93078 0.145749 0 
0.145749 -4.92777 0 
0 0 0 
-4.91164 0.102668 0 
0.102668 -4.9469 0 
0 0 0 
-4.43268 -0.322128 0 
-0.322128 -3.5773 0 
0 0 0 
-4.38214 -0.557648 0 
-0.557648 -3.62785 0 
0 0 0 
-4.57539 -0.614108 0 
-0.614108 -3.43459 0 
0 0 0 
-4.58061 -0.12346 0 
-0.12346 -5.03954 0 
0 0 0 
-4.59861 -0.134721 0 
-0.134721 -5.02154 0 
0 0 0 
-4.61254 -0.125776 0 
-0.125776 -5.00761 0 
0 0 0 
-4.82047 -0.00649388 0 
-0.00649388 -5.07108 0 
0 0 0 
-4.8401 -0.0102747 0 
-0.0102747 -5.05145 0 
0 0 0 
-4.82701 0.0117041 0 
0.0117041 -5.06454 0 
0 0 0 
-4.9795 0.0360522 0 
0.0360522 -4.77485 0 
0 0 0 
-4.98834 0.0544002 0 
0.0544002 -4.76601 0 
0 0 0 
-4.96949 0.0550767 0 
0.0550767 -4.78486 0 
0 0 0 
-4.78084 -0.120818 0 
-0.120818 -4.85177 0 
0 0 0 
-4.76963 -0.152525 0 
-0.152525 -4.86298 0 
0 0 0 
-4.79661 -0.155165 0 
-0.155165 -4.83599 0 
0 0 0 
-4.94637 -0.242418 0 
-0.242418 -5.00744 0 
0 0 0 
-4.88819 -0.245161 0 
-0.245161 -5.06561 0 
0 0 0 
-4.9149 -0.313155 0 
-0.313155 -5.0389 0 
0 0 0 
-4.94536 0.0396609 0 
0.0396609 -4.89879 0 
0 0 0 
-4.94538 0.0381176 0 
0.0381176 -4.89877 0 
0 0 0 
-4.93823 0.0420938 0 
0.0420938 -4.90592 0 
0 0 0 
-4.8059 -0.0959841 0 
-0.0959841 -4.86496 0 
0 0 0 
-4.79521 -0.124456 0 
-0.124456 -4.87565 0 
0 0 0 
-4.82077 -0.126863 0 
-0.126863 -4.85009 0 
0 0 0 
-4.93467 -0.041306 0 
-0.041306 -4.73948 0 
0 0 0 
-4.96542 -0.044935 0 
-0.044935 -4.70873 0 
0 0 0 
-4.9469 -0.0137229 0 
-0.0137229 -4.72725 0 
0 0 0 
-4.99023 0.0507687 0 
0.0507687 -4.75928 0 
0 0 0 
-4.99617 0.0628015 0 
0.0628015 -4.75333 0 
0 0 0 
-4.98468 0.0625706 0 
0.0625706 -4.76482 0 
0 0 0 
-5.00395 0.0559685 0 
0.0559685 -4.66832 0 
0 0 0 
-5.00603 0.0586184 0 
0.0586184 -4.66624 0 
0 0 0 
-5.01038 0.0537047 0 
0.0537047 -4.66189 0 
0 0 0 
-4.89661 -0.0752541 0 
-0.0752541 -4.91183 0 
0 0 0 
-4.89227 -0.0671352 0 
-0.0671352 -4.91616 0 
0 0 0 
-4.88925 -0.0744971 0 
-0.0744971 -4.91918 0 
0 0 0 
-4.9188 -0.00156604 0 
-0.00156604 -4.91906 0 
0 0 0 
-4.91678 -0.00115033 0 
-0.00115033 -4.92108 0 
0 0 0 
-4.91814 -0.00181943 0 
-0.00181943 -4.91972 0 
0 0 0 
-4.89896 -0.0519293 0 
-0.0519293 -4.90836 0 
0 0 0 
-4.89592 -0.0467004 0 
-0.0467004 -4.91139 0 
0 0 0 
-4.89421 -0.0511688 0 
-0.0511688 -4.91311 0 
0 0 0 
-4.80611 -0.134656 0 
-0.134656 -4.74384 0 
0 0 0 
-4.83468 -0.185542 0 
-0.185542 -4.71527 0 
0 0 0 
-4.85289 -0.14064 0 
-0.14064 -4.69706 0 
0 0 0 
-4.84082 -0.128916 0 
-0.128916 -4.68497 0 
0 0 0 
-4.82011 -0.181766 0 
-0.181766 -4.70569 0 
0 0 0 
-4.87194 -0.187778 0 
-0.187778 -4.65385 0 
0 0 0 
-4.9942 0.0414137 0 
0.0414137 -4.7531 0 
0 0 0 
-4.99964 0.0520619 0 
0.0520619 -4.74766 0 
0 0 0 
-4.98795 0.0525282 0 
0.0525282 -4.75935 0 
0 0 0 
-4.97741 0.0202444 0 
0.0202444 -4.75849 0 
0 0 0 
-4.95276 0.0222894 0 
0.0222894 -4.78315 0 
0 0 0 
-4.96686 -0.00185831 0 
-0.00185831 -4.76905 0 
0 0 0 
-4.82387 -0.0737956 0 
-0.0737956 -4.87971 0 
0 0 0 
-4.81354 -0.0999539 0 
-0.0999539 -4.89004 0 
0 0 0 
-4.83802 -0.102162 0 
-0.102162 -4.86556 0 
0 0 0 
-4.7355 -0.0166166 0 
-0.0166166 -5.03437 0 
0 0 0 
-4.72676 -0.0274635 0 
-0.0274635 -5.04311 0 
0 0 0 
-4.74747 -0.0293374 0 
-0.0293374 -5.0224 0 
0 0 0 
-4.90318 -0.0485223 0 
-0.0485223 -4.89596 0 
0 0 0 
-4.90105 -0.0451436 0 
-0.0451436 -4.89809 0 
0 0 0 
-4.9005 -0.0476137 0 
-0.0476137 -4.89865 0 
0 0 0 
-4.90763 -0.0405603 0 
-0.0405603 -4.90272 0 
0 0 0 
-4.90565 -0.0397719 0 
-0.0397719 -4.9047 0 
0 0 0 
-4.90728 -0.0425355 0 
-0.0425355 -4.90308 0 
0 0 0 
-4.9848 0.0559419 0 
0.0559419 -4.71768 0 
0 0 0 
-4.982 0.0490997 0 
0.0490997 -4.72048 0 
0 0 0 
-4.9932 0.0458655 0 
0.0458655 -4.70928 0 
0 0 0 
-4.81518 -0.138986 0 
-0.138986 -4.81644 0 
0 0 0 
-4.85003 -0.142408 0 
-0.142408 -4.78158 0 
0 0 0 
-4.82964 -0.10242 0 
-0.10242 -4.80197 0 
0 0 0 
-4.83121 -0.100778 0 
-0.100778 -5.05516 0 
0 0 0 
-4.82844 -0.0922964 0 
-0.0922964 -5.05793 0 
0 0 0 
-4.82159 -0.103135 0 
-0.103135 -5.06478 0 
0 0 0 
-4.88073 -0.0376806 0 
-0.0376806 -4.95245 0 
0 0 0 
-4.88509 -0.0453615 0 
-0.0453615 -4.94809 0 
0 0 0 
-4.88869 -0.0381133 0 
-0.0381133 -4.94449 0 
0 0 0 
-4.97543 -0.0326684 0 
-0.0326684 -4.71515 0 
0 0 0 
-4.98621 -0.00976107 0 
-0.00976107 -4.70437 0 
0 0 0 
-4.95821 -0.00604543 0 
-0.00604543 -4.73237 0 
0 0 0 
-4.89092 0.0930779 0 
0.0930779 -5.22994 0 
0 0 0 
-4.86901 0.131887 0 
0.131887 -5.25185 0 
0 0 0 
-4.86778 0.105014 0 
0.105014 -5.25308 0 
0 0 0 
-4.90941 0.02909 0 
0.02909 -4.89845 0 
0 0 0 
-4.91845 0.0256691 0 
0.0256691 -4.88941 0 
0 0 0 
-4.91097 0.0284296 0 
0.0284296 -4.89689 0 
0 0 0 
-4.94796 -0.0989019 0 
-0.0989019 -4.8063 0 
0 0 0 
-4.96144 -0.0942289 0 
-0.0942289 -4.79281 0 
0 0 0 
-4.95875 -0.0904556 0 
-0.0904556 -4.79551 0 
0 0 0 
-4.78615 -0.0419366 0 
-0.0419366 -5.02419 0 
0 0 0 
-4.7815 -0.0471529 0 
-0.0471529 -5.02884 0 
0 0 0 
-4.79092 -0.0472262 0 
-0.0472262 -5.01942 0 
0 0 0 
-5.00159 0.219532 0 
0.219532 -4.7505 0 
0 0 0 
-4.95311 0.208758 0 
0.208758 -4.79898 0 
0 0 0 
-4.97095 0.187247 0 
0.187247 -4.78114 0 
0 0 0 
-4.86823 -0.174837 0 
-0.174837 -5.15861 0 
0 0 0 
-4.83902 -0.181977 0 
-0.181977 -5.18781 0 
0 0 0 
-4.84744 -0.214219 0 
-0.214219 -5.1794 0 
0 0 0 
-4.89381 -0.0529711 0 
-0.0529711 -4.92102 0 
0 0 0 
-4.89001 -0.0462687 0 
-0.0462687 -4.92481 0 
0 0 0 
-4.88734 -0.0523205 0 
-0.0523205 -4.92749 0 
0 0 0 
-4.98147 0.0181736 0 
0.0181736 -4.76105 0 
0 0 0 
-4.96878 0.0407233 0 
0.0407233 -4.77374 0 
0 0 0 
-4.95899 0.0198502 0 
0.0198502 -4.78353 0 
0 0 0 
-4.96887 0.111744 0 
0.111744 -5.02095 0 
0 0 0 
-4.9727 0.112301 0 
0.112301 -5.01713 0 
0 0 0 
-4.97265 0.107853 0 
0.107853 -5.01717 0 
0 0 0 
-4.82254 -0.120693 0 
-0.120693 -5.07612 0 
0 0 0 
-4.82874 -0.136501 0 
-0.136501 -5.06992 0 
0 0 0 
-4.83974 -0.117926 0 
-0.117926 -5.05892 0 
0 0 0 
-4.803 -0.101725 0 
-0.101725 -4.83604 0 
0 0 0 
-4.82175 -0.136991 0 
-0.136991 -4.81729 0 
0 0 0 
-4.83424 -0.105336 0 
-0.105336 -4.80479 0 
0 0 0 
-4.94156 -0.010786 0 
-0.010786 -4.80599 0 
0 0 0 
-4.9538 0.0154892 0 
0.0154892 -4.79375 0 
0 0 0 
-4.9257 0.0175765 0 
0.0175765 -4.82185 0 
0 0 0 
-4.98108 0.0746909 0 
0.0746909 -4.81726 0 
0 0 0 
-4.96672 0.104412 0 
0.104412 -4.83161 0 
0 0 0 
-4.95333 0.0752492 0 
0.0752492 -4.845 0 
0 0 0 
-4.8035 -0.0576498 0 
-0.0576498 -5.02379 0 
0 0 0 
-4.79916 -0.0629606 0 
-0.0629606 -5.02812 0 
0 0 0 
-4.80684 -0.0623889 0 
-0.0623889 -5.02044 0 
0 0 0 
-4.79486 -0.0573873 0 
-0.0573873 -5.02729 0 
0 0 0 
-4.79778 -0.0609759 0 
-0.0609759 -5.02436 0 
0 0 0 
-4.80157 -0.0568873 0 
-0.0568873 -5.02057 0 
0 0 0 
-4.98097 0.0577857 0 
0.0577857 -4.6923 0 
0 0 0 
-4.97622 0.0467188 0 
0.0467188 -4.69705 0 
0 0 0 
-4.99401 0.0419317 0 
0.0419317 -4.67926 0 
0 0 0 
-4.81727 -0.120873 0 
-0.120873 -5.11073 0 
0 0 0 
-4.82214 -0.135982 0 
-0.135982 -5.10586 0 
0 0 0 
-4.83377 -0.116965 0 
-0.116965 -5.09423 0 
0 0 0 
-5.00733 0.0844273 0 
0.0844273 -4.69659 0 
0 0 0 
-5.02217 0.0748294 0 
0.0748294 -4.68175 0 
0 0 0 
-5.02481 0.0773843 0 
0.0773843 -4.67911 0 
0 0 0 
-4.8897 -0.0302472 0 
-0.0302472 -4.94442 0 
0 0 0 
-4.8856 -0.0231992 0 
-0.0231992 -4.94851 0 
0 0 0 
-4.88256 -0.0296379 0 
-0.0296379 -4.95155 0 
0 0 0 
-5.05249 0.308328 0 
0.308328 -5.22066 0 
0 0 0 
-5.1099 0.336455 0 
0.336455 -5.16325 0 
0 0 0 
-5.10471 0.330971 0 
0.330971 -5.16844 0 
0 0 0 
-4.99174 0.0511305 0 
0.0511305 -4.75807 0 
0 0 0 
-5.00043 0.051033 0 
0.051033 -4.74938 0 
0 0 0 
-4.996 0.0600087 0 
0.0600087 -4.75381 0 
0 0 0 
-4.85188 -0.0314153 0 
-0.0314153 -4.99418 0 
0 0 0 
-4.86291 -0.032051 0 
-0.032051 -4.98316 0 
0 0 0 
-4.85684 -0.0221172 0 
-0.0221172 -4.98922 0 
0 0 0 
-4.95589 -0.00435621 0 
-0.00435621 -4.7678 0 
0 0 0 
-4.92684 -0.00171727 0 
-0.00171727 -4.79685 0 
0 0 0 
-4.94365 -0.0305945 0 
-0.0305945 -4.78004 0 
0 0 0 
-4.94555 -0.185643 0 
-0.185643 -4.8973 0 
0 0 0 
-4.96187 -0.222754 0 
-0.222754 -4.88098 0 
0 0 0 
-4.9736 -0.188299 0 
-0.188299 -4.86925 0 
0 0 0 
-4.89744 0.0361555 0 
0.0361555 -4.95389 0 
0 0 0 
-4.87852 0.0710428 0 
0.0710428 -4.97282 0 
0 0 0 
-4.86441 0.0389365 0 
0.0389365 -4.98692 0 
0 0 0 
-4.80574 -0.243631 0 
-0.243631 -4.40745 0 
0 0 0 
-4.89664 -0.259625 0 
-0.259625 -4.31655 0 
0 0 0 
-4.83734 -0.152648 0 
-0.152648 -4.37585 0 
0 0 0 
-4.85978 0.0407916 0 
0.0407916 -5.01931 0 
0 0 0 
-4.86795 0.0280074 0 
0.0280074 -5.01114 0 
0 0 0 
-4.87106 0.0371056 0 
0.0371056 -5.00803 0 
0 0 0 
-4.81404 -0.114487 0 
-0.114487 -5.15395 0 
0 0 0 
-4.81618 -0.126768 0 
-0.126768 -5.15181 0 
0 0 0 
-4.8278 -0.109009 0 
-0.109009 -5.14019 0 
0 0 0 
-4.96664 0.0803709 0 
0.0803709 -4.91454 0 
0 0 0 
-4.962 0.073945 0 
0.073945 -4.91917 0 
0 0 0 
-4.96339 0.0791151 0 
0.0791151 -4.91779 0 
0 0 0 
-4.92243 1.08414e-05 0 
1.08414e-05 -4.92196 0 
0 0 0 
-4.92042 0.000332651 0 
0.000332651 -4.92396 0 
0 0 0 
-4.92169 -0.000383867 0 
-0.000383867 -4.92269 0 
0 0 0 
-4.90351 -0.0721044 0 
-0.0721044 -4.89443 0 
0 0 0 
-4.90024 -0.0661108 0 
-0.0661108 -4.8977 0 
0 0 0 
-4.89872 -0.0710972 0 
-0.0710972 -4.89922 0 
0 0 0 
-4.88545 0.00312622 0 
0.00312622 -4.87406 0 
0 0 0 
-4.87957 0.00238037 0 
0.00238037 -4.87993 0 
0 0 0 
-4.88186 0.00133447 0 
0.00133447 -4.87764 0 
0 0 0 
-4.93645 0.0679838 0 
0.0679838 -4.91529 0 
0 0 0 
-4.93932 0.0635501 0 
0.0635501 -4.91241 0 
0 0 0 
-4.93434 0.0659362 0 
0.0659362 -4.9174 0 
0 0 0 
-4.99879 0.06566 0 
0.06566 -4.73568 0 
0 0 0 
-5.00383 0.0636989 0 
0.0636989 -4.73063 0 
0 0 0 
-5.0039 0.0627872 0 
0.0627872 -4.73056 0 
0 0 0 
-4.89547 -0.00220369 0 
-0.00220369 -4.96074 0 
0 0 0 
-4.89898 -0.00825747 0 
-0.00825747 -4.95723 0 
0 0 0 
-4.90133 -0.00287613 0 
-0.00287613 -4.95488 0 
0 0 0 
-4.90469 -0.0100122 0 
-0.0100122 -4.93616 0 
0 0 0 
-4.90852 -0.0106215 0 
-0.0106215 -4.93232 0 
0 0 0 
-4.90586 -0.00626482 0 
-0.00626482 -4.93499 0 
0 0 0 
-4.89784 -0.0862056 0 
-0.0862056 -4.6505 0 
0 0 0 
-4.87927 -0.132052 0 
-0.132052 -4.66906 0 
0 0 0 
-4.9275 -0.138466 0 
-0.138466 -4.62083 0 
0 0 0 
-4.91604 0.00891441 0 
0.00891441 -4.75338 0 
0 0 0 
-4.89828 0.0126756 0 
0.0126756 -4.77114 0 
0 0 0 
-4.91042 -0.00772334 0 
-0.00772334 -4.759 0 
0 0 0 
-4.99325 0.0788156 0 
0.0788156 -4.71988 0 
0 0 0 
-4.99487 0.0754434 0 
0.0754434 -4.71826 0 
0 0 0 
-4.99114 0.0743241 0 
0.0743241 -4.72199 0 
0 0 0 
-4.92619 0.0473564 0 
0.0473564 -4.90941 0 
0 0 0 
-4.93355 0.0434836 0 
0.0434836 -4.90205 0 
0 0 0 
-4.92632 0.047118 0 
0.047118 -4.90928 0 
0 0 0 
-4.84761 -0.0513387 0 
-0.0513387 -4.99055 0 
0 0 0 
-4.8592 -0.0517163 0 
-0.0517163 -4.97896 0 
0 0 0 
-4.85308 -0.041233 0 
-0.041233 -4.98508 0 
0 0 0 
-4.99432 0.0381942 0 
0.0381942 -4.75425 0 
0 0 0 
-4.98536 0.0545413 0 
0.0545413 -4.76321 0 
0 0 0 
-4.97807 0.0391604 0 
0.0391604 -4.7705 0 
0 0 0 
-4.9007 -0.0685895 0 
-0.0685895 -4.91917 0 
0 0 0 
-4.90331 -0.0622941 0 
-0.0622941 -4.91656 0 
0 0 0 
-4.89696 -0.06164 0 
-0.06164 -4.92291 0 
0 0 0 
-4.83777 -0.0754924 0 
-0.0754924 -4.99961 0 
0 0 0 
-4.85037 -0.0754369 0 
-0.0754369 -4.98701 0 
0 0 0 
-4.84412 -0.0640102 0 
-0.0640102 -4.99326 0 
0 0 0 
-4.72647 -0.210374 0 
-0.210374 -4.65061 0 
0 0 0 
-4.77078 -0.29096 0 
-0.29096 -4.6063 0 
0 0 0 
-4.79805 -0.220204 0 
-0.220204 -4.57902 0 
0 0 0 
-4.90814 -0.0652214 0 
-0.0652214 -4.87761 0 
0 0 0 
-4.90628 -0.0621296 0 
-0.0621296 -4.87947 0 
0 0 0 
-4.90666 -0.063923 0 
-0.063923 -4.87909 0 
0 0 0 
-4.7861 -0.0541592 0 
-0.0541592 -5.01825 0 
0 0 0 
-4.78304 -0.0559353 0 
-0.0559353 -5.02131 0 
0 0 0 
-4.78839 -0.0554829 0 
-0.0554829 -5.01596 0 
0 0 0 
-4.87818 -0.00613619 0 
-0.00613619 -4.97675 0 
0 0 0 
-4.88285 -0.0139354 0 
-0.0139354 -4.97207 0 
0 0 0 
-4.88632 -0.00683136 0 
-0.00683136 -4.9686 0 
0 0 0 
-4.99215 0.0874039 0 
0.0874039 -4.69722 0 
0 0 0 
-4.99425 0.0921633 0 
0.0921633 -4.69512 0 
0 0 0 
-4.99909 0.0869382 0 
0.0869382 -4.69027 0 
0 0 0 
-4.91005 -0.00519205 0 
-0.00519205 -4.91612 0 
0 0 0 
-4.90974 -0.00540627 0 
-0.00540627 -4.91644 0 
0 0 0 
-4.9114 -0.0062001 0 
-0.0062001 -4.91478 0 
0 0 0 
-4.85408 -0.116941 0 
-0.116941 -5.22008 0 
0 0 0 
-4.84026 -0.139896 0 
-0.139896 -5.23391 0 
0 0 0 
-4.85455 -0.132183 0 
-0.132183 -5.21961 0 
0 0 0 
-4.89824 -0.0578068 0 
-0.0578068 -4.92326 0 
0 0 0 
-4.90074 -0.0520163 0 
-0.0520163 -4.92075 0 
0 0 0 
-4.89472 -0.051432 0 
-0.051432 -4.92677 0 
0 0 0 
-4.97416 0.0691883 0 
0.0691883 -4.79735 0 
0 0 0 
-4.98553 0.094113 0 
0.094113 -4.78598 0 
0 0 0 
-4.96359 0.093652 0 
0.093652 -4.80792 0 
0 0 0 
-4.90429 0.040624 0 
0.040624 -4.94931 0 
0 0 0 
-4.91929 0.0760612 0 
0.0760612 -4.93432 0 
0 0 0 
-4.88497 0.0785602 0 
0.0785602 -4.96864 0 
0 0 0 
-4.99947 0.03463 0 
0.03463 -4.74306 0 
0 0 0 
-5.00441 0.0440592 0 
0.0440592 -4.73812 0 
0 0 0 
-4.99248 0.0452432 0 
0.0452432 -4.75005 0 
0 0 0 
-4.95629 0.076364 0 
0.076364 -4.87108 0 
0 0 0 
-4.93727 0.113926 0 
0.113926 -4.8901 0 
0 0 0 
-4.92086 0.0778669 0 
0.0778669 -4.90651 0 
0 0 0 
-4.86783 -0.0131111 0 
-0.0131111 -4.98299 0 
0 0 0 
-4.87306 -0.0217932 0 
-0.0217932 -4.97776 0 
0 0 0 
-4.87721 -0.0137385 0 
-0.0137385 -4.97361 0 
0 0 0 
-4.72013 -0.0466938 0 
-0.0466938 -5.01162 0 
0 0 0 
-4.70753 -0.0347325 0 
-0.0347325 -5.02422 0 
0 0 0 
-4.69809 -0.0448544 0 
-0.0448544 -5.03366 0 
0 0 0 
-4.91524 -0.00380956 0 
-0.00380956 -4.91633 0 
0 0 0 
-4.91326 -0.00329208 0 
-0.00329208 -4.91831 0 
0 0 0 
-4.91472 -0.00414064 0 
-0.00414064 -4.91684 0 
0 0 0 
-4.96645 0.233795 0 
0.233795 -5.08143 0 
0 0 0 
-4.91403 0.241496 0 
0.241496 -5.13384 0 
0 0 0 
-4.94691 0.164761 0 
0.164761 -5.10097 0 
0 0 0 
-4.85454 -0.03998 0 
-0.03998 -4.98635 0 
0 0 0 
-4.86039 -0.0499783 0 
-0.0499783 -4.9805 0 
0 0 0 
-4.86568 -0.0403024 0 
-0.0403024 -4.9752 0 
0 0 0 
-4.86946 0.0332321 0 
0.0332321 -5.0182 0 
0 0 0 
-4.8679 0.0267882 0 
0.0267882 -5.01976 0 
0 0 0 
-4.87832 0.0250668 0 
0.0250668 -5.00934 0 
0 0 0 
-4.95318 0.072955 0 
0.072955 -4.85269 0 
0 0 0 
-4.96857 0.107877 0 
0.107877 -4.8373 0 
0 0 0 
-4.93694 0.108364 0 
0.108364 -4.86892 0 
0 0 0 
-4.98853 0.188124 0 
0.188124 -5.07421 0 
0 0 0 
-4.9873 0.190814 0 
0.190814 -5.07543 0 
0 0 0 
-4.9992 0.19627 0 
0.19627 -5.06353 0 
0 0 0 
-4.84299 -0.0422193 0 
-0.0422193 -4.99883 0 
0 0 0 
-4.8547 -0.0426941 0 
-0.0426941 -4.98712 0 
0 0 0 
-4.84843 -0.0323202 0 
-0.0323202 -4.99339 0 
0 0 0 
-4.87684 -0.00520845 0 
-0.00520845 -4.98761 0 
0 0 0 
-4.88538 -0.00616115 0 
-0.00616115 -4.97907 0 
0 0 0 
-4.88029 0.00207052 0 
0.00207052 -4.98416 0 
0 0 0 
-4.92954 0.0484953 0 
0.0484953 -4.8971 0 
0 0 0 
-4.91065 0.0842443 0 
0.0842443 -4.91599 0 
0 0 0 
-4.89536 0.050574 0 
0.050574 -4.93128 0 
0 0 0 
-4.85886 -0.0478344 0 
-0.0478344 -4.97739 0 
0 0 0 
-4.86948 -0.0483025 0 
-0.0483025 -4.96678 0 
0 0 0 
-4.86376 -0.0384336 0 
-0.0384336 -4.97249 0 
0 0 0 
-4.88147 -0.0131398 0 
-0.0131398 -4.85077 0 
0 0 0 
-4.88669 -0.00523126 0 
-0.00523126 -4.84556 0 
0 0 0 
-4.87982 -0.00728866 0 
-0.00728866 -4.85243 0 
0 0 0 
-4.84975 -0.0719721 0 
-0.0719721 -4.98415 0 
0 0 0 
-4.8619 -0.0721373 0 
-0.0721373 -4.97199 0 
0 0 0 
-4.85568 -0.0607846 0 
-0.0607846 -4.97821 0 
0 0 0 
-4.76462 -0.0081118 0 
-0.0081118 -5.0327 0 
0 0 0 
-4.74375 -0.00648048 0 
-0.00648048 -5.05356 0 
0 0 0 
-4.75547 -0.0207866 0 
-0.0207866 -5.04185 0 
0 0 0 
-4.96304 0.0147726 0 
0.0147726 -4.79039 0 
0 0 0 
-4.97397 0.0378381 0 
0.0378381 -4.77946 0 
0 0 0 
-4.94957 0.0393014 0 
0.0393014 -4.80386 0 
0 0 0 
-4.99594 0.0429768 0 
0.0429768 -4.70262 0 
0 0 0 
-4.97751 0.0474534 0 
0.0474534 -4.72105 0 
0 0 0 
-4.9906 0.0320479 0 
0.0320479 -4.70796 0 
0 0 0 
-4.91327 -0.074584 0 
-0.074584 -4.89507 0 
0 0 0 
-4.91408 -0.0704715 0 
-0.0704715 -4.89425 0 
0 0 0 
-4.91059 -0.0693942 0 
-0.0693942 -4.89775 0 
0 0 0 
-4.99245 0.0597878 0 
0.0597878 -4.76284 0 
0 0 0 
-5.00064 0.0603896 0 
0.0603896 -4.75465 0 
0 0 0 
-4.99707 0.0698561 0 
0.0698561 -4.75823 0 
0 0 0 
-4.98778 0.0627158 0 
0.0627158 -4.76158 0 
0 0 0 
-4.9944 0.0766496 0 
0.0766496 -4.75495 0 
0 0 0 
-4.98283 0.0756766 0 
0.0756766 -4.76652 0 
0 0 0 
-4.8877 0.180696 0 
0.180696 -5.15599 0 
0 0 0 
-4.91571 0.121876 0 
0.121876 -5.12798 0 
0 0 0 
-4.93099 0.173346 0 
0.173346 -5.1127 0 
0 0 0 
-4.81701 -0.0995073 0 
-0.0995073 -5.20501 0 
0 0 0 
-4.81462 -0.106046 0 
-0.106046 -5.20741 0 
0 0 0 
-4.82544 -0.0918807 0 
-0.0918807 -5.19659 0 
0 0 0 
-5.00201 0.0736349 0 
0.0736349 -4.72095 0 
0 0 0 
-5.01085 0.0687876 0 
0.0687876 -4.7121 0 
0 0 0 
-5.01195 0.0691637 0 
0.0691637 -4.711 0 
0 0 0 
-4.85825 -0.0216303 0 
-0.0216303 -4.98872 0 
0 0 0 
-4.86394 -0.0310538 0 
-0.0310538 -4.98304 0 
0 0 0 
-4.8687 -0.0221612 0 
-0.0221612 -4.97827 0 
0 0 0 
-4.99285 0.0450429 0 
0.0450429 -4.74938 0 
0 0 0 
-5.00188 0.0442466 0 
0.0442466 -4.74035 0 
0 0 0 
-4.99668 0.0527839 0 
0.0527839 -4.74555 0 
0 0 0 
-4.96578 0.064194 0 
0.064194 -4.59362 0 
0 0 0 
-4.952 0.0307847 0 
0.0307847 -4.6074 0 
0 0 0 
-4.99921 0.0194436 0 
0.0194436 -4.56019 0 
0 0 0 
-4.88534 0.150352 0 
0.150352 -5.07211 0 
0 0 0 
-4.93695 0.145307 0 
0.145307 -5.0205 0 
0 0 0 
-4.90678 0.206233 0 
0.206233 -5.05067 0 
0 0 0 
-4.8695 -0.0286255 0 
-0.0286255 -4.96982 0 
0 0 0 
-4.86511 -0.0372134 0 
-0.0372134 -4.97421 0 
0 0 0 
-4.87488 -0.0377857 0 
-0.0377857 -4.96443 0 
0 0 0 
-4.99557 0.0678269 0 
0.0678269 -4.77802 0 
0 0 0 
-4.9868 0.0873567 0 
0.0873567 -4.78679 0 
0 0 0 
-4.97778 0.0676879 0 
0.0676879 -4.7958 0 
0 0 0 
-4.99611 0.0271733 0 
0.0271733 -4.7374 0 
0 0 0 
-4.98652 0.0430967 0 
0.0430967 -4.74699 0 
0 0 0 
-4.97973 0.0287921 0 
0.0287921 -4.75378 0 
0 0 0 
-4.83162 -0.0116456 0 
-0.0116456 -5.0156 0 
0 0 0 
-4.82602 -0.0213024 0 
-0.0213024 -5.0212 0 
0 0 0 
-4.8387 -0.0221623 0 
-0.0221623 -5.00852 0 
0 0 0 
-4.82205 -0.0464347 0 
-0.0464347 -5.20656 0 
0 0 0 
-4.81278 -0.0381152 0 
-0.0381152 -5.21582 0 
0 0 0 
-4.81764 -0.038284 0 
-0.038284 -5.21096 0 
0 0 0 
-4.86628 0.0160897 0 
0.0160897 -5.00738 0 
0 0 0 
-4.84946 0.0460264 0 
0.0460264 -5.0242 0 
0 0 0 
-4.8385 0.0194678 0 
0.0194678 -5.03516 0 
0 0 0 
-4.98818 0.155544 0 
0.155544 -4.90888 0 
0 0 0 
-4.99043 0.157108 0 
0.157108 -4.90663 0 
0 0 0 
-4.98034 0.148632 0 
0.148632 -4.91672 0 
0 0 0 
-4.90855 -0.0194272 0 
-0.0194272 -4.89379 0 
0 0 0 
-4.90657 -0.0166739 0 
-0.0166739 -4.89577 0 
0 0 0 
-4.90398 -0.0197061 0 
-0.0197061 -4.89835 0 
0 0 0 
-4.86463 -0.0543156 0 
-0.0543156 -4.96656 0 
0 0 0 
-4.87481 -0.0547677 0 
-0.0547677 -4.95638 0 
0 0 0 
-4.86933 -0.0450871 0 
-0.0450871 -4.96186 0 
0 0 0 
-4.99505 0.00264319 0 
0.00264319 -4.71995 0 
0 0 0 
-5.00262 0.0181006 0 
0.0181006 -4.71239 0 
0 0 0 
-4.98248 0.0209945 0 
0.0209945 -4.73253 0 
0 0 0 
-4.82741 -0.0327256 0 
-0.0327256 -5.01618 0 
0 0 0 
-4.83979 -0.0333333 0 
-0.0333333 -5.0038 0 
0 0 0 
-4.83308 -0.0229633 0 
-0.0229633 -5.01052 0 
0 0 0 
-4.95322 0.116842 0 
0.116842 -4.91001 0 
0 0 0 
-4.94924 0.110334 0 
0.110334 -4.914 0 
0 0 0 
-4.94494 0.111084 0 
0.111084 -4.91829 0 
0 0 0 
-4.91683 0.109197 0 
0.109197 -5.03864 0 
0 0 0 
-4.93589 0.161654 0 
0.161654 -5.01957 0 
0 0 0 
-4.88997 0.166151 0 
0.166151 -5.0655 0 
0 0 0 
-4.903 0.100574 0 
0.100574 -5.04584 0 
0 0 0 
-4.87739 0.149064 0 
0.149064 -5.07145 0 
0 0 0 
-4.86081 0.105792 0 
0.105792 -5.08802 0 
0 0 0 
-4.73933 -0.014615 0 
-0.014615 -5.03084 0 
0 0 0 
-4.72402 0.00330889 0 
0.00330889 -5.04615 0 
0 0 0 
-4.71339 -0.011771 0 
-0.011771 -5.05678 0 
0 0 0 
-4.87801 0.0250177 0 
0.0250177 -5.01059 0 
0 0 0 
-4.8906 0.0565381 0 
0.0565381 -4.998 0 
0 0 0 
-4.85948 0.0599632 0 
0.0599632 -5.02912 0 
0 0 0 
-4.99803 0.0374984 0 
0.0374984 -4.6695 0 
0 0 0 
-4.96986 0.0442812 0 
0.0442812 -4.69768 0 
0 0 0 
-4.98982 0.0206702 0 
0.0206702 -4.67772 0 
0 0 0 
-4.92294 0.00144418 0 
0.00144418 -4.93752 0 
0 0 0 
-4.92405 -0.000778429 0 
-0.000778429 -4.93641 0 
0 0 0 
-4.9245 0.00102433 0 
0.00102433 -4.93597 0 
0 0 0 
-4.7413 -0.0211903 0 
-0.0211903 -5.03067 0 
0 0 0 
-4.71828 -0.0196301 0 
-0.0196301 -5.05369 0 
0 0 0 
-4.73108 -0.0342989 0 
-0.0342989 -5.04088 0 
0 0 0 
-4.98609 -0.0104975 0 
-0.0104975 -4.70896 0 
0 0 0 
-4.97129 0.0133544 0 
0.0133544 -4.72376 0 
0 0 0 
-4.96188 -0.00738384 0 
-0.00738384 -4.73317 0 
0 0 0 
-4.87803 -0.0835356 0 
-0.0835356 -4.95502 0 
0 0 0 
-4.88406 -0.0951737 0 
-0.0951737 -4.94899 0 
0 0 0 
-4.88971 -0.0837592 0 
-0.0837592 -4.94335 0 
0 0 0 
-4.99932 0.0281676 0 
0.0281676 -4.61805 0 
0 0 0 
-4.95459 0.0389357 0 
0.0389357 -4.66278 0 
0 0 0 
-4.98628 0.000739877 0 
0.000739877 -4.63109 0 
0 0 0 
-4.9066 -0.0152705 0 
-0.0152705 -4.89131 0 
0 0 0 
-4.90234 -0.0157373 0 
-0.0157373 -4.89558 0 
0 0 0 
-4.90445 -0.0187675 0 
-0.0187675 -4.89346 0 
0 0 0 
-4.85952 -0.0307171 0 
-0.0307171 -4.98157 0 
0 0 0 
-4.85454 -0.0401188 0 
-0.0401188 -4.98655 0 
0 0 0 
-4.86542 -0.0406489 0 
-0.0406489 -4.97567 0 
0 0 0 
-4.97585 0.0602789 0 
0.0602789 -4.65375 0 
0 0 0 
-4.96798 0.0418064 0 
0.0418064 -4.66162 0 
0 0 0 
-4.99621 0.0346008 0 
0.0346008 -4.6334 0 
0 0 0 
-4.83603 -0.0538199 0 
-0.0538199 -4.89621 0 
0 0 0 
-4.82596 -0.0783809 0 
-0.0783809 -4.90629 0 
0 0 0 
-4.84969 -0.0804492 0 
-0.0804492 -4.88255 0 
0 0 0 
-4.9931 0.198076 0 
0.198076 -5.05776 0 
0 0 0 
-5.01012 0.208449 0 
0.208449 -5.04075 0 
0 0 0 
-5.01032 0.204833 0 
0.204833 -5.04054 0 
0 0 0 
-4.9475 0.125073 0 
0.125073 -4.95219 0 
0 0 0 
-4.92066 0.179005 0 
0.179005 -4.97903 0 
0 0 0 
-4.89906 0.128094 0 
0.128094 -5.00063 0 
0 0 0 
-4.7959 -0.059239 0 
-0.059239 -5.02096 0 
0 0 0 
-4.79299 -0.0611208 0 
-0.0611208 -5.02387 0 
0 0 0 
-4.79746 -0.0603486 0 
-0.0603486 -5.01939 0 
0 0 0 
-4.98266 0.120467 0 
0.120467 -4.90799 0 
0 0 0 
-4.97944 0.12471 0 
0.12471 -4.91121 0 
0 0 0 
-4.97445 0.132447 0 
0.132447 -4.91619 0 
0 0 0 
-4.8378 0.00823687 0 
0.00823687 -5.17971 0 
0 0 0 
-4.82235 0.031029 0 
0.031029 -5.19516 0 
0 0 0 
-4.82059 0.0161393 0 
0.0161393 -5.19692 0 
0 0 0 
-4.79366 -0.0586047 0 
-0.0586047 -5.01741 0 
0 0 0 
-4.79033 -0.0592533 0 
-0.0592533 -5.02073 0 
0 0 0 
-4.79143 -0.0591588 0 
-0.0591588 -5.01963 0 
0 0 0 
-4.96985 0.0901601 0 
0.0901601 -5.00972 0 
0 0 0 
-4.96669 0.0919185 0 
0.0919185 -5.01289 0 
0 0 0 
-4.97001 0.0940044 0 
0.0940044 -5.00957 0 
0 0 0 
-5.00255 0.12911 0 
0.12911 -4.54941 0 
0 0 0 
-5.0162 0.159368 0 
0.159368 -4.53576 0 
0 0 0 
-5.00467 0.149336 0 
0.149336 -4.54729 0 
0 0 0 
-4.87663 -0.0517863 0 
-0.0517863 -4.95927 0 
0 0 0 
-4.88105 -0.0432402 0 
-0.0432402 -4.95484 0 
0 0 0 
-4.87156 -0.0428702 0 
-0.0428702 -4.96434 0 
0 0 0 
-4.85098 -0.0741052 0 
-0.0741052 -4.98856 0 
0 0 0 
-4.85724 -0.062988 0 
-0.062988 -4.9823 0 
0 0 0 
-4.84473 -0.0629936 0 
-0.0629936 -4.99481 0 
0 0 0 
-4.88877 0.0787276 0 
0.0787276 -5.13533 0 
0 0 0 
-4.90087 0.117931 0 
0.117931 -5.12322 0 
0 0 0 
-4.86496 0.124688 0 
0.124688 -5.15913 0 
0 0 0 
-4.86488 0.0593132 0 
0.0593132 -5.12493 0 
0 0 0 
-4.84376 0.0960478 0 
0.0960478 -5.14605 0 
0 0 0 
-4.83458 0.0662114 0 
0.0662114 -5.15523 0 
0 0 0 
-4.94611 0.0285621 0 
0.0285621 -4.73715 0 
0 0 0 
-4.93895 0.0103796 0 
0.0103796 -4.74431 0 
0 0 0 
-4.95934 0.00686967 0 
0.00686967 -4.72392 0 
0 0 0 
-4.85035 -0.068426 0 
-0.068426 -5.24623 0 
0 0 0 
-4.84216 -0.0762523 0 
-0.0762523 -5.25442 0 
0 0 0 
-4.84379 -0.0677287 0 
-0.0677287 -5.25279 0 
0 0 0 
-4.83113 -0.102479 0 
-0.102479 -5.19903 0 
0 0 0 
-4.83875 -0.0959642 0 
-0.0959642 -5.19141 0 
0 0 0 
-4.84058 -0.0893953 0 
-0.0893953 -5.18958 0 
0 0 0 
-4.82339 -0.0780162 0 
-0.0780162 -5.06709 0 
0 0 0 
-4.81944 -0.0821643 0 
-0.0821643 -5.07105 0 
0 0 0 
-4.8225 -0.0793701 0 
-0.0793701 -5.06798 0 
0 0 0 
-4.97459 -0.0301192 0 
-0.0301192 -5.41435 0 
0 0 0 
-4.96266 -0.0341304 0 
-0.0341304 -5.42628 0 
0 0 0 
-4.95664 -0.0168806 0 
-0.0168806 -5.4323 0 
0 0 0 
-4.70448 -0.0556445 0 
-0.0556445 -5.0355 0 
0 0 0 
-4.7154 -0.042772 0 
-0.042772 -5.02459 0 
0 0 0 
-4.69089 -0.0413652 0 
-0.0413652 -5.04909 0 
0 0 0 
-4.83176 -0.0983316 0 
-0.0983316 -5.03528 0 
0 0 0 
-4.81958 -0.100126 0 
-0.100126 -5.04745 0 
0 0 0 
-4.82412 -0.110493 0 
-0.110493 -5.04292 0 
0 0 0 
-4.90302 -0.0028676 0 
-0.0028676 -4.95996 0 
0 0 0 
-4.90506 0.0021361 0 
0.0021361 -4.95792 0 
0 0 0 
-4.89968 0.00288478 0 
0.00288478 -4.96331 0 
0 0 0 
-4.82716 -0.117913 0 
-0.117913 -5.14884 0 
0 0 0 
-4.83888 -0.11304 0 
-0.11304 -5.13712 0 
0 0 0 
-4.83724 -0.101782 0 
-0.101782 -5.13876 0 
0 0 0 
-5.02899 -0.0127451 0 
-0.0127451 -5.44907 0 
0 0 0 
-5.03605 -0.0366656 0 
-0.0366656 -5.44201 0 
0 0 0 
-5.0118 -0.0194164 0 
-0.0194164 -5.46626 0 
0 0 0 
-4.96422 0.0433381 0 
0.0433381 -4.97792 0 
0 0 0 
-4.96559 0.0456894 0 
0.0456894 -4.97655 0 
0 0 0 
-4.96683 0.0440877 0 
0.0440877 -4.97531 0 
0 0 0 
-4.95017 0.0962562 0 
0.0962562 -4.88218 0 
0 0 0 
-4.96869 0.140133 0 
0.140133 -4.86367 0 
0 0 0 
-4.93061 0.140737 0 
0.140737 -4.90174 0 
0 0 0 
-4.92941 -0.00683555 0 
-0.00683555 -5.37935 0 
0 0 0 
-4.91167 0.00905296 0 
0.00905296 -5.39709 0 
0 0 0 
-4.92665 0.0120583 0 
0.0120583 -5.38211 0 
0 0 0 
-4.8268 -0.12414 0 
-0.12414 -5.10644 0 
0 0 0 
-4.84063 -0.120571 0 
-0.120571 -5.09261 0 
0 0 0 
-4.8368 -0.107028 0 
-0.107028 -5.09644 0 
0 0 0 
-4.8656 -0.0368736 0 
-0.0368736 -4.97394 0 
0 0 0 
-4.87093 -0.0460905 0 
-0.0460905 -4.96861 0 
0 0 0 
-4.8756 -0.0372596 0 
-0.0372596 -4.96394 0 
0 0 0 
-4.90841 -0.021642 0 
-0.021642 -4.89921 0 
0 0 0 
-4.9063 -0.0175268 0 
-0.0175268 -4.90132 0 
0 0 0 
-4.904 -0.0202382 0 
-0.0202382 -4.90362 0 
0 0 0 
-4.97017 0.0818994 0 
0.0818994 -4.98843 0 
0 0 0 
-4.96645 0.0858424 0 
0.0858424 -4.99216 0 
0 0 0 
-4.97133 0.0805195 0 
0.0805195 -4.98728 0 
0 0 0 
-4.97047 0.117707 0 
0.117707 -5.00049 0 
0 0 0 
-4.97331 0.122714 0 
0.122714 -4.99764 0 
0 0 0 
-4.97622 0.120454 0 
0.120454 -4.99473 0 
0 0 0 
-4.90412 -0.0425425 0 
-0.0425425 -4.91319 0 
0 0 0 
-4.90001 -0.041882 0 
-0.041882 -4.91729 0 
0 0 0 
-4.90264 -0.0464851 0 
-0.0464851 -4.91467 0 
0 0 0 
-4.88021 -0.0719696 0 
-0.0719696 -4.94396 0 
0 0 0 
-4.87467 -0.0617216 0 
-0.0617216 -4.9495 0 
0 0 0 
-4.86986 -0.0715478 0 
-0.0715478 -4.95431 0 
0 0 0 
-4.95778 0.202506 0 
0.202506 -5.08765 0 
0 0 0 
-4.92383 0.280039 0 
0.280039 -5.12161 0 
0 0 0 
-4.90489 0.211182 0 
0.211182 -5.14054 0 
0 0 0 
-4.90735 0.111817 0 
0.111817 -5.04392 0 
0 0 0 
-4.86914 0.116494 0 
0.116494 -5.08212 0 
0 0 0 
-4.89229 0.0708669 0 
0.0708669 -5.05897 0 
0 0 0 
-4.992 0.0397326 0 
0.0397326 -4.75209 0 
0 0 0 
-4.97324 0.0410374 0 
0.0410374 -4.77086 0 
0 0 0 
-4.98375 0.0228839 0 
0.0228839 -4.76034 0 
0 0 0 
-4.97345 0.175071 0 
0.175071 -4.91227 0 
0 0 0 
-5.00494 0.263646 0 
0.263646 -4.88079 0 
0 0 0 
-4.94091 0.264262 0 
0.264262 -4.94482 0 
0 0 0 
-4.84871 -0.0527687 0 
-0.0527687 -4.99248 0 
0 0 0 
-4.85446 -0.0426123 0 
-0.0426123 -4.98673 0 
0 0 0 
-4.84253 -0.0423661 0 
-0.0423661 -4.99866 0 
0 0 0 
-4.83226 0.0310975 0 
0.0310975 -5.03034 0 
0 0 0 
-4.84059 0.0197898 0 
0.0197898 -5.02201 0 
0 0 0 
-4.84578 0.029282 0 
0.029282 -5.01683 0 
0 0 0 
-4.79277 -0.028023 0 
-0.028023 -5.02441 0 
0 0 0 
-4.78003 -0.0275443 0 
-0.0275443 -5.03715 0 
0 0 0 
-4.78681 -0.0361408 0 
-0.0361408 -5.03037 0 
0 0 0 
-4.8677 0.0348736 0 
0.0348736 -5.20382 0 
0 0 0 
-4.87223 0.057956 0 
0.057956 -5.19929 0 
0 0 0 
-4.84914 0.0660572 0 
0.0660572 -5.22238 0 
0 0 0 
-4.94838 0.229302 0 
0.229302 -4.95578 0 
0 0 0 
-5.03329 0.228601 0 
0.228601 -4.87087 0 
0 0 0 
-4.99023 0.331427 0 
0.331427 -4.91393 0 
0 0 0 
-4.9472 0.121279 0 
0.121279 -4.9259 0 
0 0 0 
-4.96934 0.17712 0 
0.17712 -4.90376 0 
0 0 0 
-4.92264 0.178515 0 
0.178515 -4.95046 0 
0 0 0 
-4.95004 0.0998345 0 
0.0998345 -4.87021 0 
0 0 0 
-4.98352 0.0993909 0 
0.0993909 -4.83674 0 
0 0 0 
-4.9664 0.135985 0 
0.135985 -4.85386 0 
0 0 0 
-4.975 0.0345379 0 
0.0345379 -5.39807 0 
0 0 0 
-4.95892 0.0315417 0 
0.0315417 -5.41416 0 
0 0 0 
-4.96134 0.0487173 0 
0.0487173 -5.41174 0 
0 0 0 
-4.81916 -0.0850593 0 
-0.0850593 -5.04923 0 
0 0 0 
-4.81262 -0.0872441 0 
-0.0872441 -5.05577 0 
0 0 0 
-4.814 -0.091747 0 
-0.091747 -5.0544 0 
0 0 0 
-4.85491 -0.0160719 0 
-0.0160719 -5.24082 0 
0 0 0 
-4.85268 -0.00876583 0 
-0.00876583 -5.24305 0 
0 0 0 
-4.84215 -0.000109364 0 
-0.000109364 -5.25358 0 
0 0 0 
-4.92277 0.062139 0 
0.062139 -5.34061 0 
0 0 0 
-4.90643 0.0857468 0 
0.0857468 -5.35695 0 
0 0 0 
-4.92082 0.0798806 0 
0.0798806 -5.34256 0 
0 0 0 
-4.96921 0.0984586 0 
0.0984586 -4.9929 0 
0 0 0 
-4.96964 0.102738 0 
0.102738 -4.99246 0 
0 0 0 
-4.97316 0.0990689 0 
0.0990689 -4.98895 0 
0 0 0 
-4.9031 -0.0357275 0 
-0.0357275 -4.89447 0 
0 0 0 
-4.90334 -0.0363546 0 
-0.0363546 -4.89422 0 
0 0 0 
-4.90436 -0.0371629 0 
-0.0371629 -4.8932 0 
0 0 0 
-4.8524 0.013258 0 
0.013258 -5.17407 0 
0 0 0 
-4.83549 0.0200281 0 
0.0200281 -5.19098 0 
0 0 0 
-4.84981 -0.00200343 0 
-0.00200343 -5.17666 0 
0 0 0 
-4.90549 -0.036572 0 
-0.036572 -4.87509 0 
0 0 0 
-4.90769 -0.0343607 0 
-0.0343607 -4.87289 0 
0 0 0 
-4.90557 -0.0356168 0 
-0.0356168 -4.87501 0 
0 0 0 
-4.87431 -0.0481355 0 
-0.0481355 -4.95356 0 
0 0 0 
-4.88301 -0.0486706 0 
-0.0486706 -4.94486 0 
0 0 0 
-4.8782 -0.0402126 0 
-0.0402126 -4.94968 0 
0 0 0 
-4.79074 -0.0548891 0 
-0.0548891 -5.02766 0 
0 0 0 
-4.79883 -0.0546081 0 
-0.0546081 -5.01957 0 
0 0 0 
-4.79503 -0.0500174 0 
-0.0500174 -5.02337 0 
0 0 0 
-4.94378 0.128739 0 
0.128739 -4.90461 0 
0 0 0 
-4.98662 0.128123 0 
0.128123 -4.86177 0 
0 0 0 
-4.96466 0.175714 0 
0.175714 -4.88372 0 
0 0 0 
-4.92382 0.13586 0 
0.13586 -5.24846 0 
0 0 0 
-4.90264 0.179461 0 
0.179461 -5.26963 0 
0 0 0 
-4.9066 0.15037 0 
0.15037 -5.26568 0 
0 0 0 
-4.97743 0.16605 0 
0.16605 -5.02759 0 
0 0 0 
-4.98749 0.174319 0 
0.174319 -5.01753 0 
0 0 0 
-4.98962 0.17247 0 
0.17247 -5.0154 0 
0 0 0 
-4.81959 -0.0105197 0 
-0.0105197 -5.02464 0 
0 0 0 
-4.82676 -0.0211146 0 
-0.0211146 -5.01747 0 
0 0 0 
-4.83263 -0.0112773 0 
-0.0112773 -5.01161 0 
0 0 0 
-4.86788 0.00426662 0 
0.00426662 -4.80616 0 
0 0 0 
-4.85847 0.00703737 0 
0.00703737 -4.81557 0 
0 0 0 
-4.86547 -0.00671314 0 
-0.00671314 -4.80857 0 
0 0 0 
-4.81908 -0.0907449 0 
-0.0907449 -5.02799 0 
0 0 0 
-4.82497 -0.0819115 0 
-0.0819115 -5.0221 0 
0 0 0 
-4.81512 -0.0830225 0 
-0.0830225 -5.03195 0 
0 0 0 
-4.99485 0.0467088 0 
0.0467088 -4.72415 0 
0 0 0 
-4.98261 0.0496953 0 
0.0496953 -4.73639 0 
0 0 0 
-4.99132 0.0391647 0 
0.0391647 -4.72769 0 
0 0 0 
-4.8149 -0.0870402 0 
-0.0870402 -5.04049 0 
0 0 0 
-4.82268 -0.0855288 0 
-0.0855288 -5.03272 0 
0 0 0 
-4.8201 -0.0795547 0 
-0.0795547 -5.0353 0 
0 0 0 
-4.92672 0.0699213 0 
0.0699213 -4.92296 0 
0 0 0 
-4.94378 0.110237 0 
0.110237 -4.9059 0 
0 0 0 
-4.90645 0.11209 0 
0.11209 -4.94323 0 
0 0 0 
-4.92334 0.0544903 0 
0.0544903 -4.89661 0 
0 0 0 
-4.8915 0.0566082 0 
0.0566082 -4.92845 0 
0 0 0 
-4.90926 0.0223619 0 
0.0223619 -4.9107 0 
0 0 0 
-4.97856 0.200331 0 
0.200331 -5.03923 0 
0 0 0 
-5.00804 0.305046 0 
0.305046 -5.00975 0 
0 0 0 
-4.93673 0.312172 0 
0.312172 -5.08106 0 
0 0 0 
-4.85719 -0.0590064 0 
-0.0590064 -4.98051 0 
0 0 0 
-4.86318 -0.0696972 0 
-0.0696972 -4.97452 0 
0 0 0 
-4.8689 -0.0591613 0 
-0.0591613 -4.96881 0 
0 0 0 
-4.70538 -0.034159 0 
-0.034159 -5.02278 0 
0 0 0 
-4.68624 -0.013899 0 
-0.013899 -5.04192 0 
0 0 0 
-4.67308 -0.0308861 0 
-0.0308861 -5.05508 0 
0 0 0 
-4.9466 0.0835441 0 
0.0835441 -4.87113 0 
0 0 0 
-4.91364 0.0850506 0 
0.0850506 -4.90408 0 
0 0 0 
-4.93142 0.0490909 0 
0.0490909 -4.8863 0 
0 0 0 
-4.98019 0.0348009 0 
0.0348009 -4.78126 0 
0 0 0 
-4.96771 0.0582124 0 
0.0582124 -4.79374 0 
0 0 0 
-4.9573 0.03599 0 
0.03599 -4.80416 0 
0 0 0 
-4.93201 0.161559 0 
0.161559 -4.95593 0 
0 0 0 
-4.98735 0.160034 0 
0.160034 -4.90059 0 
0 0 0 
-4.95836 0.222956 0 
0.222956 -4.92958 0 
0 0 0 
-4.94355 0.0903006 0 
0.0903006 -4.91544 0 
0 0 0 
-4.94122 0.0859646 0 
0.0859646 -4.91777 0 
0 0 0 
-4.93915 0.0863035 0 
0.0863035 -4.91983 0 
0 0 0 
-4.81509 -0.0389563 0 
-0.0389563 -5.02176 0 
0 0 0 
-4.81169 -0.0494431 0 
-0.0494431 -5.02516 0 
0 0 0 
-4.82227 -0.0516298 0 
-0.0516298 -5.01458 0 
0 0 0 
-4.83957 -0.0246859 0 
-0.0246859 -5.09869 0 
0 0 0 
-4.84322 -0.0109536 0 
-0.0109536 -5.09505 0 
0 0 0 
-4.82815 -0.00646374 0 
-0.00646374 -5.11012 0 
0 0 0 
-4.96769 0.102095 0 
0.102095 -5.34889 0 
0 0 0 
-4.95358 0.111589 0 
0.111589 -5.36299 0 
0 0 0 
-4.95343 0.127966 0 
0.127966 -5.36315 0 
0 0 0 
-4.71245 -0.337387 0 
-0.337387 -4.35268 0 
0 0 0 
-4.5828 -0.319842 0 
-0.319842 -4.48233 0 
0 0 0 
-4.66282 -0.46944 0 
-0.46944 -4.40231 0 
0 0 0 
-4.78666 -0.050341 0 
-0.050341 -5.02795 0 
0 0 0 
-4.79021 -0.0542344 0 
-0.0542344 -5.0244 0 
0 0 0 
-4.79418 -0.0501017 0 
-0.0501017 -5.02044 0 
0 0 0 
-4.85519 -0.0617435 0 
-0.0617435 -4.98438 0 
0 0 0 
-4.86097 -0.0513556 0 
-0.0513556 -4.9786 0 
0 0 0 
-4.8491 -0.0511803 0 
-0.0511803 -4.99047 0 
0 0 0 
-4.96461 0.16616 0 
0.16616 -5.24125 0 
0 0 0 
-4.96507 0.210372 0 
0.210372 -5.24079 0 
0 0 0 
-4.94025 0.224175 0 
0.224175 -5.26561 0 
0 0 0 
-4.97909 0.189778 0 
0.189778 -4.9687 0 
0 0 0 
-4.94337 0.267761 0 
0.267761 -5.00442 0 
0 0 0 
-4.91444 0.193693 0 
0.193693 -5.03336 0 
0 0 0 
-4.82751 -0.0210513 0 
-0.0210513 -4.99587 0 
0 0 0 
-4.82083 -0.037933 0 
-0.037933 -5.00254 0 
0 0 0 
-4.83804 -0.0401575 0 
-0.0401575 -4.98533 0 
0 0 0 
-4.94144 0.0857837 0 
0.0857837 -4.86045 0 
0 0 0 
-4.92717 0.0548776 0 
0.0548776 -4.87472 0 
0 0 0 
-4.95812 0.0534878 0 
0.0534878 -4.84377 0 
0 0 0 
-4.87442 -0.0739256 0 
-0.0739256 -4.94971 0 
0 0 0 
-4.86902 -0.0850972 0 
-0.0850972 -4.95511 0 
0 0 0 
-4.88041 -0.0854429 0 
-0.0854429 -4.94371 0 
0 0 0 
-5.00942 0.246202 0 
0.246202 -5.14027 0 
0 0 0 
-5.01991 0.232563 0 
0.232563 -5.12979 0 
0 0 0 
-5.01761 0.221442 0 
0.221442 -5.13209 0 
0 0 0 
-4.80995 -0.0772498 0 
-0.0772498 -5.04315 0 
0 0 0 
-4.81302 -0.0746945 0 
-0.0746945 -5.04009 0 
0 0 0 
-4.81014 -0.07657 0 
-0.07657 -5.04297 0 
0 0 0 
-4.83231 -0.00199737 0 
-0.00199737 -5.26087 0 
0 0 0 
-4.84216 -0.0126848 0 
-0.0126848 -5.25102 0 
0 0 0 
-4.82798 0.00384887 0 
0.00384887 -5.2652 0 
0 0 0 
-4.89669 -0.0230856 0 
-0.0230856 -4.8642 0 
0 0 0 
-4.90271 -0.0151764 0 
-0.0151764 -4.85817 0 
0 0 0 
-4.8964 -0.0169191 0 
-0.0169191 -4.86449 0 
0 0 0 
-4.8993 -0.0427522 0 
-0.0427522 -4.92405 0 
0 0 0 
-4.89358 -0.042207 0 
-0.042207 -4.92977 0 
0 0 0 
-4.89691 -0.0481349 0 
-0.0481349 -4.92644 0 
0 0 0 
-4.80925 -0.0583567 0 
-0.0583567 -5.03759 0 
0 0 0 
-4.80921 -0.0621492 0 
-0.0621492 -5.03763 0 
0 0 0 
-4.81287 -0.0642227 0 
-0.0642227 -5.03396 0 
0 0 0 
-4.823 -0.055147 0 
-0.055147 -5.01166 0 
0 0 0 
-4.81727 -0.0461546 0 
-0.0461546 -5.01738 0 
0 0 0 
-4.81156 -0.0551374 0 
-0.0551374 -5.02309 0 
0 0 0 
-4.94925 0.177462 0 
0.177462 -4.90167 0 
0 0 0 
-4.94435 0.17012 0 
0.17012 -4.90657 0 
0 0 0 
-4.9406 0.172767 0 
0.172767 -4.91033 0 
0 0 0 
-4.88553 0.0712139 0 
0.0712139 -4.97241 0 
0 0 0 
-4.92338 0.0686294 0 
0.0686294 -4.93456 0 
0 0 0 
-4.90221 0.108906 0 
0.108906 -4.95572 0 
0 0 0 
-4.78648 -0.0428574 0 
-0.0428574 -5.02142 0 
0 0 0 
-4.77717 -0.0427916 0 
-0.0427916 -5.03074 0 
0 0 0 
-4.78188 -0.0478781 0 
-0.0478781 -5.02602 0 
0 0 0 
-4.77776 -0.166644 0 
-0.166644 -4.74899 0 
0 0 0 
-4.73802 -0.161491 0 
-0.161491 -4.78874 0 
0 0 0 
-4.76235 -0.209154 0 
-0.209154 -4.7644 0 
0 0 0 
-4.98204 0.0209475 0 
0.0209475 -4.73295 0 
0 0 0 
-4.99884 0.0185456 0 
0.0185456 -4.71615 0 
0 0 0 
-4.98836 0.034477 0 
0.034477 -4.72663 0 
0 0 0 
-4.82371 -0.0560251 0 
-0.0560251 -5.01188 0 
0 0 0 
-4.81257 -0.0562445 0 
-0.0562445 -5.02303 0 
0 0 0 
-4.81795 -0.064932 0 
-0.064932 -5.01765 0 
0 0 0 
-4.79167 -0.0273902 0 
-0.0273902 -5.02811 0 
0 0 0 
-4.78597 -0.0352212 0 
-0.0352212 -5.03381 0 
0 0 0 
-4.79834 -0.0357776 0 
-0.0357776 -5.02144 0 
0 0 0 
-5.01171 0.244682 0 
0.244682 -5.12103 0 
0 0 0 
-5.04282 0.260304 0 
0.260304 -5.08991 0 
0 0 0 
-5.04044 0.261103 0 
0.261103 -5.09229 0 
0 0 0 
-4.78528 -0.0548551 0 
-0.0548551 -5.01568 0 
0 0 0 
-4.78063 -0.0552288 0 
-0.0552288 -5.02033 0 
0 0 0 
-4.78263 -0.0558272 0 
-0.0558272 -5.01833 0 
0 0 0 
-4.94498 0.145883 0 
0.145883 -4.99504 0 
0 0 0 
-4.96928 0.213663 0 
0.213663 -4.97075 0 
0 0 0 
-4.91458 0.217191 0 
0.217191 -5.02544 0 
0 0 0 
-4.8546 0.112505 0 
0.112505 -5.16552 0 
0 0 0 
-4.89174 0.104627 0 
0.104627 -5.12838 0 
0 0 0 
-4.86635 0.15195 0 
0.15195 -5.15378 0 
0 0 0 
-4.83625 -0.0551721 0 
-0.0551721 -4.87991 0 
0 0 0 
-4.85215 -0.0846211 0 
-0.0846211 -4.86401 0 
0 0 0 
-4.86334 -0.0578895 0 
-0.0578895 -4.85281 0 
0 0 0 
-4.97335 0.182261 0 
0.182261 -4.87713 0 
0 0 0 
-5.03301 0.184443 0 
0.184443 -4.81746 0 
0 0 0 
-5.00507 0.253741 0 
0.253741 -4.84541 0 
0 0 0 
-4.88717 -0.00420746 0 
-0.00420746 -4.92863 0 
0 0 0 
-4.89969 0.0246955 0 
0.0246955 -4.91612 0 
0 0 0 
-4.87046 0.0271173 0 
0.0271173 -4.94535 0 
0 0 0 
-4.88256 -0.0414118 0 
-0.0414118 -4.94209 0 
0 0 0 
-4.88968 -0.0419937 0 
-0.0419937 -4.93497 0 
0 0 0 
-4.88562 -0.0349117 0 
-0.0349117 -4.93903 0 
0 0 0 
-4.9533 0.0231699 0 
0.0231699 -4.73902 0 
0 0 0 
-4.93428 0.0267562 0 
0.0267562 -4.75804 0 
0 0 0 
-4.9469 0.00683077 0 
0.00683077 -4.74542 0 
0 0 0 
-4.93792 -0.0573927 0 
-0.0573927 -4.7542 0 
0 0 0 
-4.91921 -0.024266 0 
-0.024266 -4.77292 0 
0 0 0 
-4.90586 -0.0542907 0 
-0.0542907 -4.78626 0 
0 0 0 
-4.85291 -0.0321364 0 
-0.0321364 -4.99392 0 
0 0 0 
-4.85814 -0.0226805 0 
-0.0226805 -4.98868 0 
0 0 0 
-4.84676 -0.0221543 0 
-0.0221543 -5.00007 0 
0 0 0 
-4.76927 -0.00332133 0 
-0.00332133 -5.0331 0 
0 0 0 
-4.75543 0.0137301 0 
0.0137301 -5.04694 0 
0 0 0 
-4.74615 -0.000457747 0 
-0.000457747 -5.05622 0 
0 0 0 
-4.97998 0.0534262 0 
0.0534262 -4.79949 0 
0 0 0 
-4.96702 0.0790512 0 
0.0790512 -4.81244 0 
0 0 0 
-4.95549 0.0542439 0 
0.0542439 -4.82397 0 
0 0 0 
-4.99243 0.0269594 0 
0.0269594 -4.6684 0 
0 0 0 
-4.98763 0.015237 0 
0.015237 -4.67321 0 
0 0 0 
-5.00524 0.0106102 0 
0.0106102 -4.65559 0 
0 0 0 
-4.97947 0.0869617 0 
0.0869617 -4.8067 0 
0 0 0 
-4.99986 0.0876385 0 
0.0876385 -4.7863 0 
0 0 0 
-4.99025 0.11099 0 
0.11099 -4.79591 0 
0 0 0 
-4.9502 0.144174 0 
0.144174 -4.90913 0 
0 0 0 
-4.94499 0.138219 0 
0.138219 -4.91434 0 
0 0 0 
-4.94243 0.135334 0 
0.135334 -4.91689 0 
0 0 0 
-4.91232 -0.00642008 0 
-0.00642008 -4.91414 0 
0 0 0 
-4.91108 -0.00586632 0 
-0.00586632 -4.91539 0 
0 0 0 
-4.91216 -0.00646795 0 
-0.00646795 -4.9143 0 
0 0 0 
-4.82135 -0.0294062 0 
-0.0294062 -5.02598 0 
0 0 0 
-4.83087 -0.0462819 0 
-0.0462819 -5.01646 0 
0 0 0 
-4.83578 -0.0320744 0 
-0.0320744 -5.01155 0 
0 0 0 
-4.77889 -0.0625811 0 
-0.0625811 -5.00471 0 
0 0 0 
-4.77793 -0.063132 0 
-0.063132 -5.00567 0 
0 0 0 
-4.77793 -0.0596303 0 
-0.0596303 -5.00567 0 
0 0 0 
-4.9034 -0.0298905 0 
-0.0298905 -4.86751 0 
0 0 0 
-4.90685 -0.0254268 0 
-0.0254268 -4.86406 0 
0 0 0 
-4.90262 -0.0268655 0 
-0.0268655 -4.86828 0 
0 0 0 
-4.88711 -0.0587518 0 
-0.0587518 -4.94412 0 
0 0 0 
-4.87758 -0.0584008 0 
-0.0584008 -4.95364 0 
0 0 0 
-4.88265 -0.0676267 0 
-0.0676267 -4.94857 0 
0 0 0 
-4.88931 -0.0345963 0 
-0.0345963 -4.93238 0 
0 0 0 
-4.89486 -0.0351914 0 
-0.0351914 -4.92683 0 
0 0 0 
-4.89157 -0.0295209 0 
-0.0295209 -4.93012 0 
0 0 0 
-4.74954 -0.00579855 0 
-0.00579855 -5.04982 0 
0 0 0 
-4.76073 0.0117737 0 
0.0117737 -5.03863 0 
0 0 0 
-4.73453 0.014259 0 
0.014259 -5.06483 0 
0 0 0 
-4.81649 -0.0673481 0 
-0.0673481 -5.05185 0 
0 0 0 
-4.81886 -0.0699863 0 
-0.0699863 -5.04949 0 
0 0 0 
-4.81704 -0.0697658 0 
-0.0697658 -5.05131 0 
0 0 0 
-4.84976 -0.0314876 0 
-0.0314876 -4.99391 0 
0 0 0 
-4.85576 -0.0414868 0 
-0.0414868 -4.98791 0 
0 0 0 
-4.86106 -0.0318922 0 
-0.0318922 -4.98261 0 
0 0 0 
-4.89188 -0.0385919 0 
-0.0385919 -4.93831 0 
0 0 0 
-4.89467 -0.0326893 0 
-0.0326893 -4.93552 0 
0 0 0 
-4.88828 -0.0322234 0 
-0.0322234 -4.94191 0 
0 0 0 
-4.89991 -0.00622752 0 
-0.00622752 -4.88807 0 
0 0 0 
-4.89398 -0.00724799 0 
-0.00724799 -4.894 0 
0 0 0 
-4.89623 -0.00871182 0 
-0.00871182 -4.89175 0 
0 0 0 
-4.81592 -0.0480811 0 
-0.0480811 -5.04471 0 
0 0 0 
-4.82191 -0.0579136 0 
-0.0579136 -5.03871 0 
0 0 0 
-4.8234 -0.0506866 0 
-0.0506866 -5.03722 0 
0 0 0 
-4.83372 -0.0642636 0 
-0.0642636 -5.26052 0 
0 0 0 
-4.83252 -0.0747825 0 
-0.0747825 -5.26172 0 
0 0 0 
-4.82401 -0.0728057 0 
-0.0728057 -5.27023 0 
0 0 0 
-4.91172 0.0777855 0 
0.0777855 -5.32302 0 
0 0 0 
-4.89898 0.0909302 0 
0.0909302 -5.33576 0 
0 0 0 
-4.91674 0.0625925 0 
0.0625925 -5.31801 0 
0 0 0 
-4.85482 -0.147395 0 
-0.147395 -4.75356 0 
0 0 0 
-4.87054 -0.109612 0 
-0.109612 -4.73783 0 
0 0 0 
-4.83081 -0.104836 0 
-0.104836 -4.77756 0 
0 0 0 
-4.99963 0.0579588 0 
0.0579588 -4.7417 0 
0 0 0 
-4.99774 0.0597188 0 
0.0597188 -4.74359 0 
0 0 0 
-5.00021 0.0595163 0 
0.0595163 -4.74112 0 
0 0 0 
-4.91415 -0.0570161 0 
-0.0570161 -4.88677 0 
0 0 0 
-4.91356 -0.0557148 0 
-0.0557148 -4.88737 0 
0 0 0 
-4.91267 -0.0545083 0 
-0.0545083 -4.88826 0 
0 0 0 
-4.9583 -0.02642 0 
-0.02642 -4.61419 0 
0 0 0 
-4.92916 0.0191717 0 
0.0191717 -4.64333 0 
0 0 0 
-4.91451 -0.0180514 0 
-0.0180514 -4.65798 0 
0 0 0 
-4.85206 -0.0840426 0 
-0.0840426 -4.98936 0 
0 0 0 
-4.85874 -0.0967283 0 
-0.0967283 -4.98267 0 
0 0 0 
-4.86579 -0.0838375 0 
-0.0838375 -4.97563 0 
0 0 0 
-4.78328 -0.0394109 0 
-0.0394109 -5.02046 0 
0 0 0 
-4.77699 -0.032546 0 
-0.032546 -5.02675 0 
0 0 0 
-4.77158 -0.0388995 0 
-0.0388995 -5.03216 0 
0 0 0 
-4.96461 0.289961 0 
0.289961 -4.78009 0 
0 0 0 
-4.99039 0.18074 0 
0.18074 -4.75431 0 
0 0 0 
-5.03126 0.298678 0 
0.298678 -4.71343 0 
0 0 0 
-4.718 -0.0202982 0 
-0.0202982 -5.05264 0 
0 0 0 
-4.73127 0.000648677 0 
0.000648677 -5.03938 0 
0 0 0 
-4.70055 0.00182777 0 
0.00182777 -5.07009 0 
0 0 0 
-5.29208 -0.0759648 0 
-0.0759648 -5.46922 0 
0 0 0 
-5.23894 -0.011718 0 
-0.011718 -5.52236 0 
0 0 0 
-5.32115 -0.0786771 0 
-0.0786771 -5.44015 0 
0 0 0 
-4.95064 0.205111 0 
0.205111 -4.87227 0 
0 0 0 
-4.97278 0.143756 0 
0.143756 -4.85013 0 
0 0 0 
-4.99763 0.206676 0 
0.206676 -4.82528 0 
0 0 0 
-4.8213 -0.0224655 0 
-0.0224655 -5.02062 0 
0 0 0 
-4.82805 -0.0327674 0 
-0.0327674 -5.01387 0 
0 0 0 
-4.83391 -0.022981 0 
-0.022981 -5.00801 0 
0 0 0 
-4.90221 -0.0105419 0 
-0.0105419 -4.8951 0 
0 0 0 
-4.89923 -0.0110745 0 
-0.0110745 -4.89808 0 
0 0 0 
-4.90026 -0.0117176 0 
-0.0117176 -4.89705 0 
0 0 0 
-4.86925 -0.116516 0 
-0.116516 -4.96113 0 
0 0 0 
-4.88397 -0.116638 0 
-0.116638 -4.94642 0 
0 0 0 
-4.8765 -0.100947 0 
-0.100947 -4.95388 0 
0 0 0 
-4.82234 -0.0851229 0 
-0.0851229 -5.04795 0 
0 0 0 
-4.82131 -0.0811159 0 
-0.0811159 -5.04899 0 
0 0 0 
-4.81663 -0.0872274 0 
-0.0872274 -5.05367 0 
0 0 0 
-4.81193 -0.0684035 0 
-0.0684035 -5.05377 0 
0 0 0 
-4.81245 -0.0708636 0 
-0.0708636 -5.05324 0 
0 0 0 
-4.81006 -0.0682188 0 
-0.0682188 -5.05564 0 
0 0 0 
-4.57844 0.0406187 0 
0.0406187 -5.10734 0 
0 0 0 
-4.54935 -0.00611055 0 
-0.00611055 -5.13643 0 
0 0 0 
-4.6269 -0.0169627 0 
-0.0169627 -5.05888 0 
0 0 0 
-4.79058 -0.0591632 0 
-0.0591632 -5.01172 0 
0 0 0 
-4.79119 -0.0623928 0 
-0.0623928 -5.01112 0 
0 0 0 
-4.79008 -0.0601495 0 
-0.0601495 -5.01223 0 
0 0 0 
-4.47025 -0.132579 0 
-0.132579 -5.14864 0 
0 0 0 
-4.51112 -0.065137 0 
-0.065137 -5.10777 0 
0 0 0 
-4.41061 -0.0532502 0 
-0.0532502 -5.20828 0 
0 0 0 
-4.87139 -0.0301636 0 
-0.0301636 -4.97174 0 
0 0 0 
-4.86108 -0.029723 0 
-0.029723 -4.98205 0 
0 0 0 
-4.86662 -0.039094 0 
-0.039094 -4.97652 0 
0 0 0 
-4.97559 0.12929 0 
0.12929 -5.02711 0 
0 0 0 
-4.97183 0.133055 0 
0.133055 -5.03087 0 
0 0 0 
-4.97693 0.134521 0 
0.134521 -5.02577 0 
0 0 0 
-4.89255 0.0114592 0 
0.0114592 -4.99177 0 
0 0 0 
-4.89923 0.0101209 0 
0.0101209 -4.98509 0 
0 0 0 
-4.89415 0.0173436 0 
0.0173436 -4.99017 0 
0 0 0 
-4.95719 0.156871 0 
0.156871 -4.83826 0 
0 0 0 
-4.97281 0.115158 0 
0.115158 -4.82264 0 
0 0 0 
-4.99111 0.158416 0 
0.158416 -4.80434 0 
0 0 0 
-4.9062 -0.0110127 0 
-0.0110127 -4.89078 0 
0 0 0 
-4.90355 -0.0086052 0 
-0.0086052 -4.89343 0 
0 0 0 
-4.89962 -0.0133806 0 
-0.0133806 -4.89736 0 
0 0 0 
-5.38952 -0.022281 0 
-0.022281 -5.48891 0 
0 0 0 
-5.36782 0.00873698 0 
0.00873698 -5.5106 0 
0 0 0 
-5.40553 -0.020129 0 
-0.020129 -5.47289 0 
0 0 0 
-4.86018 -0.0292594 0 
-0.0292594 -5.31545 0 
0 0 0 
-4.87187 -0.038548 0 
-0.038548 -5.30376 0 
0 0 0 
-4.86465 -0.0401819 0 
-0.0401819 -5.31098 0 
0 0 0 
-4.77992 -0.0582284 0 
-0.0582284 -5.00594 0 
0 0 0 
-4.77958 -0.0609069 0 
-0.0609069 -5.00629 0 
0 0 0 
-4.77808 -0.0588947 0 
-0.0588947 -5.00778 0 
0 0 0 
-4.87926 -0.0978246 0 
-0.0978246 -4.95718 0 
0 0 0 
-4.88604 -0.111387 0 
-0.111387 -4.9504 0 
0 0 0 
-4.89261 -0.0979511 0 
-0.0979511 -4.94383 0 
0 0 0 
-4.77851 -0.0510474 0 
-0.0510474 -5.01417 0 
0 0 0 
-4.77491 -0.0485573 0 
-0.0485573 -5.01777 0 
0 0 0 
-4.77119 -0.051116 0 
-0.051116 -5.02149 0 
0 0 0 
-4.89521 -0.0382737 0 
-0.0382737 -4.91636 0 
0 0 0 
-4.89345 -0.0426005 0 
-0.0426005 -4.91813 0 
0 0 0 
-4.89816 -0.0432832 0 
-0.0432832 -4.91341 0 
0 0 0 
-4.90845 -0.18422 0 
-0.18422 -4.96541 0 
0 0 0 
-4.92543 -0.222623 0 
-0.222623 -4.94842 0 
0 0 0 
-4.94209 -0.184408 0 
-0.184408 -4.93177 0 
0 0 0 
-4.9041 -0.0135039 0 
-0.0135039 -4.89945 0 
0 0 0 
-4.9021 -0.013942 0 
-0.013942 -4.90145 0 
0 0 0 
-4.90272 -0.0145668 0 
-0.0145668 -4.90083 0 
0 0 0 
-4.91041 0.00690421 0 
0.00690421 -4.96021 0 
0 0 0 
-4.90588 0.00776267 0 
0.00776267 -4.96474 0 
0 0 0 
-4.90889 0.00257035 0 
0.00257035 -4.96173 0 
0 0 0 
-4.11636 0.145593 0 
0.145593 -2.51176 0 
0 0 0 
-4.25696 0.230737 0 
0.230737 -2.37117 0 
0 0 0 
-4.1918 0.10344 0 
0.10344 -2.43633 0 
0 0 0 
-4.53362 -0.0780513 0 
-0.0780513 -5.03205 0 
0 0 0 
-4.5119 -0.099373 0 
-0.099373 -5.05378 0 
0 0 0 
-4.56565 -0.105255 0 
-0.105255 -5.00002 0 
0 0 0 
-4.90494 -0.0196089 0 
-0.0196089 -4.89886 0 
0 0 0 
-4.90709 -0.0168018 0 
-0.0168018 -4.89671 0 
0 0 0 
-4.90341 -0.0171279 0 
-0.0171279 -4.90039 0 
0 0 0 
-4.84586 -0.0062267 0 
-0.0062267 -4.96108 0 
0 0 0 
-4.83633 -0.0285493 0 
-0.0285493 -4.97061 0 
0 0 0 
-4.85922 -0.0307572 0 
-0.0307572 -4.94772 0 
0 0 0 
-4.8271 -0.00912516 0 
-0.00912516 -5.02537 0 
0 0 0 
-4.84008 -0.0102805 0 
-0.0102805 -5.01239 0 
0 0 0 
-4.83259 0.000473441 0 
0.000473441 -5.01988 0 
0 0 0 
-5.20384 -0.0188051 0 
-0.0188051 -5.55284 0 
0 0 0 
-5.20148 -0.0493966 0 
-0.0493966 -5.5552 0 
0 0 0 
-5.29856 -0.102715 0 
-0.102715 -5.45812 0 
0 0 0 
-4.91918 0.0604344 0 
0.0604344 -4.87308 0 
0 0 0 
-4.93545 0.028729 0 
0.028729 -4.85681 0 
0 0 0 
-4.94914 0.0589389 0 
0.0589389 -4.84312 0 
0 0 0 
-5.35513 -0.033162 0 
-0.033162 -5.47912 0 
0 0 0 
-5.31518 0.00682951 0 
0.00682951 -5.51907 0 
0 0 0 
-5.36979 -0.0375605 0 
-0.0375605 -5.46446 0 
0 0 0 
-4.85212 -0.281627 0 
-0.281627 -4.46592 0 
0 0 0 
-4.88424 -0.201235 0 
-0.201235 -4.4338 0 
0 0 0 
-4.79561 -0.187158 0 
-0.187158 -4.52243 0 
0 0 0 
-4.87707 -0.173635 0 
-0.173635 -5.24067 0 
0 0 0 
-4.87521 -0.149615 0 
-0.149615 -5.24253 0 
0 0 0 
-4.85769 -0.18268 0 
-0.18268 -5.26005 0 
0 0 0 
-4.89418 -0.0268014 0 
-0.0268014 -4.93293 0 
0 0 0 
-4.8971 -0.0319544 0 
-0.0319544 -4.93 0 
0 0 0 
-4.89916 -0.0273006 0 
-0.0273006 -4.92794 0 
0 0 0 
-4.89957 -0.0376801 0 
-0.0376801 -4.90501 0 
0 0 0 
-4.89877 -0.0403457 0 
-0.0403457 -4.90581 0 
0 0 0 
-4.90182 -0.0411675 0 
-0.0411675 -4.90276 0 
0 0 0 
-4.8801 -0.0170863 0 
-0.0170863 -4.76812 0 
0 0 0 
-4.8711 6.85005e-05 0 
6.85005e-05 -4.77711 0 
0 0 0 
-4.86803 -0.0136763 0 
-0.0136763 -4.78019 0 
0 0 0 
-4.85252 -0.0265904 0 
-0.0265904 -4.94678 0 
0 0 0 
-4.83137 -0.024209 0 
-0.024209 -4.96793 0 
0 0 0 
-4.84401 -0.0476913 0 
-0.0476913 -4.95529 0 
0 0 0 
-4.96942 0.0807414 0 
0.0807414 -4.81689 0 
0 0 0 
-4.9419 0.0814095 0 
0.0814095 -4.8444 0 
0 0 0 
-4.95624 0.0517817 0 
0.0517817 -4.83007 0 
0 0 0 
-4.86474 -0.0919159 0 
-0.0919159 -4.97534 0 
0 0 0 
-4.87163 -0.105343 0 
-0.105343 -4.96845 0 
0 0 0 
-4.87868 -0.0918217 0 
-0.0918217 -4.9614 0 
0 0 0 
-5.35325 -0.0585315 0 
-0.0585315 -5.49105 0 
0 0 0 
-5.29446 -0.00602158 0 
-0.00602158 -5.54984 0 
0 0 0 
-5.30075 -0.0209628 0 
-0.0209628 -5.54355 0 
0 0 0 
-4.97817 0.0168351 0 
0.0168351 -4.69558 0 
0 0 0 
-4.9639 0.0381629 0 
0.0381629 -4.70984 0 
0 0 0 
-4.95677 0.0209532 0 
0.0209532 -4.71698 0 
0 0 0 
-5.41552 -0.0126224 0 
-0.0126224 -5.48539 0 
0 0 0 
-5.41657 0.0192472 0 
0.0192472 -5.48433 0 
0 0 0 
-5.44365 0.00427803 0 
0.00427803 -5.45726 0 
0 0 0 
-4.9609 0.120931 0 
0.120931 -4.82028 0 
0 0 0 
-4.97311 0.0902258 0 
0.0902258 -4.80808 0 
0 0 0 
-4.98709 0.121958 0 
0.121958 -4.79409 0 
0 0 0 
-4.90508 -0.0153076 0 
-0.0153076 -4.90243 0 
0 0 0 
-4.9037 -0.015463 0 
-0.015463 -4.9038 0 
0 0 0 
-4.90425 -0.0160398 0 
-0.0160398 -4.90326 0 
0 0 0 
-4.90557 -0.0123386 0 
-0.0123386 -4.89847 0 
0 0 0 
-4.9033 -0.0147679 0 
-0.0147679 -4.90074 0 
0 0 0 
-4.90671 -0.0141087 0 
-0.0141087 -4.89733 0 
0 0 0 
-4.91816 0.125521 0 
0.125521 -5.01741 0 
0 0 0 
-4.91701 0.12919 0 
0.12919 -5.01857 0 
0 0 0 
-4.91075 0.134543 0 
0.134543 -5.02483 0 
0 0 0 
-4.67359 -0.0243393 0 
-0.0243393 -5.7954 0 
0 0 0 
-5.37932 0.0804069 0 
0.0804069 -5.08967 0 
0 0 0 
-5.11717 0.488073 0 
0.488073 -5.35182 0 
0 0 0 
-4.66507 -0.413798 0 
-0.413798 -4.14265 0 
0 0 0 
-4.48111 -0.387651 0 
-0.387651 -4.32662 0 
0 0 0 
-4.59573 -0.603032 0 
-0.603032 -4.21199 0 
0 0 0 
-4.82649 -0.0747781 0 
-0.0747781 -4.8816 0 
0 0 0 
-4.80441 -0.0723355 0 
-0.0723355 -4.90368 0 
0 0 0 
-4.81757 -0.0980698 0 
-0.0980698 -4.89052 0 
0 0 0 
-4.79413 -0.0250733 0 
-0.0250733 -5.0241 0 
0 0 0 
-4.78597 -0.0150272 0 
-0.0150272 -5.03226 0 
0 0 0 
-4.77958 -0.0240479 0 
-0.0240479 -5.03865 0 
0 0 0 
-4.98184 0.111167 0 
0.111167 -4.81912 0 
0 0 0 
-5.00752 0.11243 0 
0.11243 -4.79344 0 
0 0 0 
-4.99577 0.142687 0 
0.142687 -4.80519 0 
0 0 0 
-4.90732 -0.0176126 0 
-0.0176126 -4.90164 0 
0 0 0 
-4.90249 -0.017714 0 
-0.017714 -4.90646 0 
0 0 0 
-4.90526 -0.0202265 0 
-0.0202265 -4.9037 0 
0 0 0 
-4.81695 -0.0461322 0 
-0.0461322 -5.01544 0 
0 0 0 
-4.8058 -0.0461591 0 
-0.0461591 -5.0266 0 
0 0 0 
-4.81135 -0.0545492 0 
-0.0545492 -5.02104 0 
0 0 0 
-4.78853 -0.0585903 0 
-0.0585903 -5.00816 0 
0 0 0 
-4.78883 -0.0622553 0 
-0.0622553 -5.00786 0 
0 0 0 
-4.78964 -0.0630727 0 
-0.0630727 -5.00704 0 
0 0 0 
-5.00234 0.187246 0 
0.187246 -4.81826 0 
0 0 0 
-4.98252 0.142249 0 
0.142249 -4.83808 0 
0 0 0 
-5.01882 0.144175 0 
0.144175 -4.80178 0 
0 0 0 
-4.85857 -0.0542572 0 
-0.0542572 -4.84792 0 
0 0 0 
-4.84623 -0.083395 0 
-0.083395 -4.86026 0 
0 0 0 
-4.8753 -0.0859327 0 
-0.0859327 -4.83119 0 
0 0 0 
-4.91428 -0.0333482 0 
-0.0333482 -4.84461 0 
0 0 0 
-4.90807 -0.0408331 0 
-0.0408331 -4.85082 0 
0 0 0 
-4.91642 -0.038491 0 
-0.038491 -4.84247 0 
0 0 0 
-4.8476 -0.0867477 0 
-0.0867477 -4.99362 0 
0 0 0 
-4.85438 -0.0748097 0 
-0.0748097 -4.98684 0 
0 0 0 
-4.84121 -0.0750383 0 
-0.0750383 -5.00001 0 
0 0 0 
-4.84646 -0.0198729 0 
-0.0198729 -4.93623 0 
0 0 0 
-4.8367 -0.0427077 0 
-0.0427077 -4.94599 0 
0 0 0 
-4.85976 -0.0447545 0 
-0.0447545 -4.92293 0 
0 0 0 
-4.94022 -0.180486 0 
-0.180486 -4.80911 0 
0 0 0 
-4.9532 -0.185663 0 
-0.185663 -4.79613 0 
0 0 0 
-4.94222 -0.16011 0 
-0.16011 -4.8071 0 
0 0 0 
-4.90545 -0.015852 0 
-0.015852 -4.90468 0 
0 0 0 
-4.90447 -0.0158397 0 
-0.0158397 -4.90567 0 
0 0 0 
-4.90497 -0.01626 0 
-0.01626 -4.90516 0 
0 0 0 
-4.90672 -0.015946 0 
-0.015946 -4.90073 0 
0 0 0 
-4.90572 -0.0145064 0 
-0.0145064 -4.90172 0 
0 0 0 
-4.90406 -0.0164007 0 
-0.0164007 -4.90338 0 
0 0 0 
-4.86868 -0.0537049 0 
-0.0537049 -4.96635 0 
0 0 0 
-4.87411 -0.0634183 0 
-0.0634183 -4.96092 0 
0 0 0 
-4.87903 -0.0539956 0 
-0.0539956 -4.956 0 
0 0 0 
-4.19731 1.4932 0 
1.4932 -3.36122 0 
0 0 0 
-3.8461 1.08583 0 
1.08583 -3.71243 0 
0 0 0 
-4.47413 1.28173 0 
1.28173 -3.0844 0 
0 0 0 
-4.85606 -0.108552 0 
-0.108552 -4.9811 0 
0 0 0 
-4.87075 -0.10839 0 
-0.10839 -4.96641 0 
0 0 0 
-4.86354 -0.0935323 0 
-0.0935323 -4.97361 0 
0 0 0 
-4.97113 -0.000191136 0 
-0.000191136 -4.66134 0 
0 0 0 
-4.951 0.0302401 0 
0.0302401 -4.68147 0 
0 0 0 
-4.94091 0.00560146 0 
0.00560146 -4.69156 0 
0 0 0 
-5.35576 0.00516677 0 
0.00516677 -5.46101 0 
0 0 0 
-5.36543 0.0710622 0 
0.0710622 -5.45134 0 
0 0 0 
-5.41766 0.0439484 0 
0.0439484 -5.39911 0 
0 0 0 
-4.82137 -0.0487885 0 
-0.0487885 -5.01347 0 
0 0 0 
-4.81208 -0.0465479 0 
-0.0465479 -5.02277 0 
0 0 0 
-4.81867 -0.0584143 0 
-0.0584143 -5.01618 0 
0 0 0 
-4.84484 -0.0351426 0 
-0.0351426 -4.90315 0 
0 0 0 
-4.86006 -0.0632813 0 
-0.0632813 -4.88794 0 
0 0 0 
-4.87096 -0.0376299 0 
-0.0376299 -4.87703 0 
0 0 0 
-4.90704 -0.0139077 0 
-0.0139077 -4.90807 0 
0 0 0 
-4.90576 -0.0135449 0 
-0.0135449 -4.90935 0 
0 0 0 
-4.90666 -0.0141217 0 
-0.0141217 -4.90845 0 
0 0 0 
-4.79397 0.0026745 0 
0.0026745 -5.03166 0 
0 0 0 
-4.78179 0.0177613 0 
0.0177613 -5.04384 0 
0 0 0 
-4.77364 0.00500337 0 
0.00500337 -5.05199 0 
0 0 0 
-4.81188 -0.0755676 0 
-0.0755676 -5.04149 0 
0 0 0 
-4.81473 -0.0737361 0 
-0.0737361 -5.03864 0 
0 0 0 
-4.81489 -0.0730541 0 
-0.0730541 -5.03848 0 
0 0 0 
-4.84335 -0.0358396 0 
-0.0358396 -4.91486 0 
0 0 0 
-4.83344 -0.0593499 0 
-0.0593499 -4.92476 0 
0 0 0 
-4.85673 -0.061358 0 
-0.061358 -4.90147 0 
0 0 0 
-4.80752 -0.0953401 0 
-0.0953401 -4.86462 0 
0 0 0 
-4.785 -0.0926887 0 
-0.0926887 -4.88714 0 
0 0 0 
-4.79856 -0.120006 0 
-0.120006 -4.87358 0 
0 0 0 
-4.82214 -0.0952625 0 
-0.0952625 -5.03106 0 
0 0 0 
-4.83354 -0.0941317 0 
-0.0941317 -5.01967 0 
0 0 0 
-4.82882 -0.0841143 0 
-0.0841143 -5.02438 0 
0 0 0 
-4.99525 0.0417868 0 
0.0417868 -4.73656 0 
0 0 0 
-5.00434 0.0402322 0 
0.0402322 -4.72748 0 
0 0 0 
-4.99845 0.0481766 0 
0.0481766 -4.73337 0 
0 0 0 
-4.85236 -0.190415 0 
-0.190415 -5.26797 0 
0 0 0 
-4.86969 -0.158908 0 
-0.158908 -5.25064 0 
0 0 0 
-4.85431 -0.170043 0 
-0.170043 -5.26602 0 
0 0 0 
-4.88707 -0.0912454 0 
-0.0912454 -4.92958 0 
0 0 0 
-4.88182 -0.103337 0 
-0.103337 -4.93483 0 
0 0 0 
-4.89328 -0.103895 0 
-0.103895 -4.92337 0 
0 0 0 
-4.23651 -0.263557 0 
-0.263557 -3.6896 0 
0 0 0 
-4.64823 -0.479674 0 
-0.479674 -3.27788 0 
0 0 0 
-4.25521 0.510789 0 
0.510789 -3.6709 0 
0 0 0 
-4.83291 -0.0172568 0 
-0.0172568 -4.99931 0 
0 0 0 
-4.85544 -0.0197788 0 
-0.0197788 -4.97678 0 
0 0 0 
-4.84199 0.0044207 0 
0.0044207 -4.99023 0 
0 0 0 
-4.81654 -0.0935364 0 
-0.0935364 -5.03921 0 
0 0 0 
-4.82215 -0.0855722 0 
-0.0855722 -5.03361 0 
0 0 0 
-4.8137 -0.0871679 0 
-0.0871679 -5.04205 0 
0 0 0 
-4.85433 -0.0712791 0 
-0.0712791 -4.98432 0 
0 0 0 
-4.86064 -0.0828528 0 
-0.0828528 -4.97801 0 
0 0 0 
-4.86695 -0.0712749 0 
-0.0712749 -4.97169 0 
0 0 0 
-4.86891 -0.100005 0 
-0.100005 -4.95705 0 
0 0 0 
-4.88168 -0.100255 0 
-0.100255 -4.94427 0 
0 0 0 
-4.87508 -0.0870062 0 
-0.0870062 -4.95087 0 
0 0 0 
-4.81488 -0.106525 0 
-0.106525 -5.09183 0 
0 0 0 
-4.82262 -0.0954058 0 
-0.0954058 -5.08409 0 
0 0 0 
-4.81304 -0.0988114 0 
-0.0988114 -5.09368 0 
0 0 0 
-5.00047 0.0528848 0 
0.0528848 -4.74806 0 
0 0 0 
-5.00291 0.0498162 0 
0.0498162 -4.74561 0 
0 0 0 
-5.00482 0.0525756 0 
0.0525756 -4.74371 0 
0 0 0 
-4.90852 -0.00850826 0 
-0.00850826 -4.91271 0 
0 0 0 
-4.90747 -0.00811364 0 
-0.00811364 -4.91376 0 
0 0 0 
-4.90749 -0.00792403 0 
-0.00792403 -4.91374 0 
0 0 0 
-4.90808 -0.0118111 0 
-0.0118111 -4.91018 0 
0 0 0 
-4.90638 -0.0112234 0 
-0.0112234 -4.91188 0 
0 0 0 
-4.90789 -0.0120959 0 
-0.0120959 -4.91037 0 
0 0 0 
-4.84678 -0.0850618 0 
-0.0850618 -4.98888 0 
0 0 0 
-4.85976 -0.0850163 0 
-0.0850163 -4.9759 0 
0 0 0 
-4.85331 -0.0727375 0 
-0.0727375 -4.98235 0 
0 0 0 
-4.89629 -0.0242291 0 
-0.0242291 -4.92287 0 
0 0 0 
-4.89455 -0.0282819 0 
-0.0282819 -4.92461 0 
0 0 0 
-4.899 -0.0288418 0 
-0.0288418 -4.92016 0 
0 0 0 
-4.88787 -0.0707153 0 
-0.0707153 -4.94362 0 
0 0 0 
-4.87741 -0.0704199 0 
-0.0704199 -4.95408 0 
0 0 0 
-4.88289 -0.0806801 0 
-0.0806801 -4.94859 0 
0 0 0 
-4.9164 0.060314 0 
0.060314 -4.88342 0 
0 0 0 
-4.90236 0.0297947 0 
0.0297947 -4.89746 0 
0 0 0 
-4.93371 0.0279055 0 
0.0279055 -4.86611 0 
0 0 0 
-4.97999 0.0559299 0 
0.0559299 -4.79863 0 
0 0 0 
-4.9937 0.0553935 0 
0.0553935 -4.78491 0 
0 0 0 
-4.98629 0.0710776 0 
0.0710776 -4.79233 0 
0 0 0 
-4.90628 -0.0153767 0 
-0.0153767 -4.9064 0 
0 0 0 
-4.9051 -0.015109 0 
-0.015109 -4.90757 0 
0 0 0 
-4.90591 -0.0158315 0 
-0.0158315 -4.90676 0 
0 0 0 
-4.91005 -0.00913039 0 
-0.00913039 -4.91228 0 
0 0 0 
-4.90915 -0.00859697 0 
-0.00859697 -4.91317 0 
0 0 0 
-4.91008 -0.00912215 0 
-0.00912215 -4.91225 0 
0 0 0 
-4.83438 -0.0365406 0 
-0.0365406 -4.98438 0 
0 0 0 
-4.81886 -0.0342048 0 
-0.0342048 -4.9999 0 
0 0 0 
-4.82864 -0.0522702 0 
-0.0522702 -4.99012 0 
0 0 0 
-4.8743 -0.0135386 0 
-0.0135386 -4.98202 0 
0 0 0 
-4.87824 -0.00573119 0 
-0.00573119 -4.97807 0 
0 0 0 
-4.86905 -0.00498205 0 
-0.00498205 -4.98726 0 
0 0 0 
-4.64128 -0.0281348 0 
-0.0281348 -4.3775 0 
0 0 0 
-4.43913 -0.0650519 0 
-0.0650519 -4.57964 0 
0 0 0 
-4.50823 -0.122099 0 
-0.122099 -4.51054 0 
0 0 0 
-4.86548 -0.0783226 0 
-0.0783226 -4.97121 0 
0 0 0 
-4.87176 -0.0901586 0 
-0.0901586 -4.96493 0 
0 0 0 
-4.87792 -0.0783901 0 
-0.0783901 -4.95877 0 
0 0 0 
-4.76732 -0.0577443 0 
-0.0577443 -5.00267 0 
0 0 0 
-4.76537 -0.0588852 0 
-0.0588852 -5.00462 0 
0 0 0 
-4.76293 -0.0580275 0 
-0.0580275 -5.00705 0 
0 0 0 
-4.90603 -0.00492575 0 
-0.00492575 -4.77651 0 
0 0 0 
-4.89576 0.0134747 0 
0.0134747 -4.78678 0 
0 0 0 
-4.89097 -0.00175743 0 
-0.00175743 -4.79157 0 
0 0 0 
-4.88392 0.00409907 0 
0.00409907 -4.98677 0 
0 0 0 
-4.88699 0.0107718 0 
0.0107718 -4.9837 0 
0 0 0 
-4.87898 0.0118526 0 
0.0118526 -4.99171 0 
0 0 0 
-5.38789 -0.0124346 0 
-0.0124346 -5.48172 0 
0 0 0 
-5.40564 0.028195 0 
0.028195 -5.46396 0 
0 0 0 
-5.43195 0.0187525 0 
0.0187525 -5.43766 0 
0 0 0 
-4.89729 -0.12539 0 
-0.12539 -4.39909 0 
0 0 0 
-4.96238 -0.140791 0 
-0.140791 -4.334 0 
0 0 0 
-4.91649 -0.0678164 0 
-0.0678164 -4.37988 0 
0 0 0 
-4.77622 0.00263501 0 
0.00263501 -5.04428 0 
0 0 0 
-4.78557 0.017234 0 
0.017234 -5.03494 0 
0 0 0 
-4.76352 0.0201655 0 
0.0201655 -5.05699 0 
0 0 0 
-4.87781 -0.00480493 0 
-0.00480493 -4.98501 0 
0 0 0 
-4.88139 0.00253729 0 
0.00253729 -4.98143 0 
0 0 0 
-4.87268 0.0034364 0 
0.0034364 -4.99014 0 
0 0 0 
-4.89879 -0.0249832 0 
-0.0249832 -4.91455 0 
0 0 0 
-4.89787 -0.0274519 0 
-0.0274519 -4.91548 0 
0 0 0 
-4.90059 -0.0279547 0 
-0.0279547 -4.91276 0 
0 0 0 
-4.83296 -0.013142 0 
-0.013142 -4.99636 0 
0 0 0 
-4.84558 -0.0361911 0 
-0.0361911 -4.98375 0 
0 0 0 
-4.85365 -0.0157626 0 
-0.0157626 -4.97567 0 
0 0 0 
-4.98475 0.0161274 0 
0.0161274 -4.70665 0 
0 0 0 
-5.00197 0.0127477 0 
0.0127477 -4.68942 0 
0 0 0 
-4.99043 0.02885 0 
0.02885 -4.70096 0 
0 0 0 
-4.87868 -0.0474732 0 
-0.0474732 -4.9532 0 
0 0 0 
-4.88338 -0.0558728 0 
-0.0558728 -4.9485 0 
0 0 0 
-4.8874 -0.0478697 0 
-0.0478697 -4.94449 0 
0 0 0 
-4.8088 -0.077024 0 
-0.077024 -5.03542 0 
0 0 0 
-4.81044 -0.0803687 0 
-0.0803687 -5.03378 0 
0 0 0 
-4.81446 -0.0756525 0 
-0.0756525 -5.02977 0 
0 0 0 
-4.89878 -0.0217882 0 
-0.0217882 -4.9255 0 
0 0 0 
-4.90089 -0.0256362 0 
-0.0256362 -4.92339 0 
0 0 0 
-4.9025 -0.0222978 0 
-0.0222978 -4.92178 0 
0 0 0 
-4.69413 -0.0271597 0 
-0.0271597 -4.60982 0 
0 0 0 
-4.64598 -0.0355119 0 
-0.0355119 -4.65796 0 
0 0 0 
-4.66282 -0.0443035 0 
-0.0443035 -4.64112 0 
0 0 0 
-4.77099 -0.0229706 0 
-0.0229706 -5.02762 0 
0 0 0 
-4.75494 -0.0220487 0 
-0.0220487 -5.04367 0 
0 0 0 
-4.76375 -0.0323844 0 
-0.0323844 -5.03486 0 
0 0 0 
-4.8296 -0.045239 0 
-0.045239 -5.00772 0 
0 0 0 
-4.81759 -0.0451699 0 
-0.0451699 -5.01973 0 
0 0 0 
-4.82366 -0.0548325 0 
-0.0548325 -5.01367 0 
0 0 0 
-4.84459 -0.0985288 0 
-0.0985288 -4.99572 0 
0 0 0 
-4.85856 -0.0982173 0 
-0.0982173 -4.98174 0 
0 0 0 
-4.85184 -0.0847563 0 
-0.0847563 -4.98846 0 
0 0 0 
-4.99369 0.0602898 0 
0.0602898 -4.74512 0 
0 0 0 
-4.99396 0.0572801 0 
0.0572801 -4.74485 0 
0 0 0 
-4.9963 0.0614884 0 
0.0614884 -4.74251 0 
0 0 0 
-4.84157 -0.179263 0 
-0.179263 -5.12174 0 
0 0 0 
-4.85433 -0.214204 0 
-0.214204 -5.10898 0 
0 0 0 
-4.8749 -0.174752 0 
-0.174752 -5.08841 0 
0 0 0 
-4.86458 -0.0680624 0 
-0.0680624 -4.96529 0 
0 0 0 
-4.85878 -0.0794571 0 
-0.0794571 -4.97109 0 
0 0 0 
-4.87076 -0.0796738 0 
-0.0796738 -4.95911 0 
0 0 0 
-4.88695 -0.0407537 0 
-0.0407537 -4.94161 0 
0 0 0 
-4.89085 -0.0476983 0 
-0.0476983 -4.93771 0 
0 0 0 
-4.89395 -0.0412224 0 
-0.0412224 -4.93461 0 
0 0 0 
-4.88614 -0.00684902 0 
-0.00684902 -4.96662 0 
0 0 0 
-4.89025 -0.0138387 0 
-0.0138387 -4.96252 0 
0 0 0 
-4.89323 -0.00749827 0 
-0.00749827 -4.95953 0 
0 0 0 
-4.87006 -0.0972248 0 
-0.0972248 -5.29115 0 
0 0 0 
-4.85814 -0.113377 0 
-0.113377 -5.30307 0 
0 0 0 
-4.86396 -0.102974 0 
-0.102974 -5.29725 0 
0 0 0 
-4.73385 -0.205562 0 
-0.205562 -4.71411 0 
0 0 0 
-4.68713 -0.199342 0 
-0.199342 -4.76083 0 
0 0 0 
-4.71588 -0.257416 0 
-0.257416 -4.73208 0 
0 0 0 
-4.89345 -0.0339801 0 
-0.0339801 -4.93185 0 
0 0 0 
-4.89656 -0.0394749 0 
-0.0394749 -4.92874 0 
0 0 0 
-4.8988 -0.0344811 0 
-0.0344811 -4.9265 0 
0 0 0 
-4.9458 -0.0725095 0 
-0.0725095 -4.71717 0 
0 0 0 
-4.95939 -0.0426853 0 
-0.0426853 -4.70357 0 
0 0 0 
-4.92463 -0.0383153 0 
-0.0383153 -4.73833 0 
0 0 0 
-4.77197 -0.0528905 0 
-0.0528905 -5.0196 0 
0 0 0 
-4.77559 -0.0505515 0 
-0.0505515 -5.01599 0 
0 0 0 
-4.76845 -0.050604 0 
-0.050604 -5.02313 0 
0 0 0 
-4.67505 -0.252747 0 
-0.252747 -4.67082 0 
0 0 0 
-4.61823 -0.245181 0 
-0.245181 -4.72764 0 
0 0 0 
-4.65319 -0.31852 0 
-0.31852 -4.69268 0 
0 0 0 
-4.88392 -0.0440386 0 
-0.0440386 -4.93772 0 
0 0 0 
-4.88053 -0.0512154 0 
-0.0512154 -4.94111 0 
0 0 0 
-4.8883 -0.051789 0 
-0.051789 -4.93334 0 
0 0 0 
-4.89036 -0.037344 0 
-0.037344 -4.9279 0 
0 0 0 
-4.88786 -0.0429157 0 
-0.0429157 -4.9304 0 
0 0 0 
-4.89393 -0.0435311 0 
-0.0435311 -4.92434 0 
0 0 0 
-5.00442 0.0904472 0 
0.0904472 -4.69432 0 
0 0 0 
-5.01148 0.106722 0 
0.106722 -4.68726 0 
0 0 0 
-5.00312 0.102071 0 
0.102071 -4.69563 0 
0 0 0 
-4.99424 0.0482501 0 
0.0482501 -4.72882 0 
0 0 0 
-4.98891 0.0549143 0 
0.0549143 -4.73415 0 
0 0 0 
-4.98729 0.0503901 0 
0.0503901 -4.73577 0 
0 0 0 
-4.96491 0.0356805 0 
0.0356805 -4.77284 0 
0 0 0 
-4.9793 0.0336099 0 
0.0336099 -4.75845 0 
0 0 0 
-4.97031 0.0496886 0 
0.0496886 -4.76744 0 
0 0 0 
-4.86315 -0.0221794 0 
-0.0221794 -4.98823 0 
0 0 0 
-4.8678 -0.013444 0 
-0.013444 -4.98358 0 
0 0 0 
-4.85737 -0.0127891 0 
-0.0127891 -4.99401 0 
0 0 0 
-4.89279 -0.137974 0 
-0.137974 -5.33821 0 
0 0 0 
-4.90171 -0.129578 0 
-0.129578 -5.32928 0 
0 0 0 
-4.88872 -0.150625 0 
-0.150625 -5.34227 0 
0 0 0 
-4.86643 -0.0561681 0 
-0.0561681 -4.96333 0 
0 0 0 
-4.86122 -0.0663716 0 
-0.0663716 -4.96855 0 
0 0 0 
-4.87225 -0.066719 0 
-0.066719 -4.95751 0 
0 0 0 
-4.62778 -0.0314233 0 
-0.0314233 -5.06018 0 
0 0 0 
-4.56669 -0.026664 0 
-0.026664 -5.12127 0 
0 0 0 
-4.60178 -0.0680142 0 
-0.0680142 -5.08617 0 
0 0 0 
-4.81388 -0.0622854 0 
-0.0622854 -5.03266 0 
0 0 0 
-4.81088 -0.0602098 0 
-0.0602098 -5.03566 0 
0 0 0 
-4.81418 -0.0656443 0 
-0.0656443 -5.03236 0 
0 0 0 
-4.97378 0.0456106 0 
0.0456106 -4.78568 0 
0 0 0 
-4.98726 0.0442006 0 
0.0442006 -4.7722 0 
0 0 0 
-4.9793 0.0599169 0 
0.0599169 -4.78016 0 
0 0 0 
-4.77128 0.000315349 0 
0.000315349 -4.73535 0 
0 0 0 
-4.74737 -0.00269475 0 
-0.00269475 -4.75926 0 
0 0 0 
-4.75672 -0.0079585 0 
-0.0079585 -4.74991 0 
0 0 0 
-4.87592 -0.050454 0 
-0.050454 -4.94963 0 
0 0 0 
-4.8716 -0.0592398 0 
-0.0592398 -4.95395 0 
0 0 0 
-4.88109 -0.0597239 0 
-0.0597239 -4.94446 0 
0 0 0 
-4.85117 -0.0219055 0 
-0.0219055 -5.00042 0 
0 0 0 
-4.86224 -0.0226885 0 
-0.0226885 -4.98936 0 
0 0 0 
-4.85603 -0.0127864 0 
-0.0127864 -4.99557 0 
0 0 0 
-4.81033 -0.0226964 0 
-0.0226964 -5.02153 0 
0 0 0 
-4.8025 -0.0122857 0 
-0.0122857 -5.02936 0 
0 0 0 
-4.79634 -0.0217298 0 
-0.0217298 -5.03552 0 
0 0 0 
-4.96507 0.0161018 0 
0.0161018 -4.68875 0 
0 0 0 
-4.93787 0.0219376 0 
0.0219376 -4.71595 0 
0 0 0 
-4.95652 -0.00402853 0 
-0.00402853 -4.69729 0 
0 0 0 
-5.29492 0.0232847 0 
0.0232847 -5.51556 0 
0 0 0 
-5.28259 0.0127944 0 
0.0127944 -5.52789 0 
0 0 0 
-5.36096 0.0756504 0 
0.0756504 -5.44952 0 
0 0 0 
-4.85999 -0.112066 0 
-0.112066 -4.77976 0 
0 0 0 
-4.89733 -0.1159 0 
-0.1159 -4.74242 0 
0 0 0 
-4.87534 -0.0753659 0 
-0.0753659 -4.76441 0 
0 0 0 
-4.5728 -0.120885 0 
-0.120885 -2.86746 0 
0 0 0 
-4.40271 -0.0494427 0 
-0.0494427 -3.03755 0 
0 0 0 
-4.60748 -0.242569 0 
-0.242569 -2.83278 0 
0 0 0 
-4.89978 -0.0195084 0 
-0.0195084 -4.91673 0 
0 0 0 
-4.89884 -0.0218744 0 
-0.0218744 -4.91767 0 
0 0 0 
-4.90074 -0.0227596 0 
-0.0227596 -4.91578 0 
0 0 0 
-4.878 -0.0657507 0 
-0.0657507 -4.95717 0 
0 0 0 
-4.8667 -0.0655587 0 
-0.0655587 -4.96847 0 
0 0 0 
-4.87252 -0.0762074 0 
-0.0762074 -4.96265 0 
0 0 0 
-4.97403 0.0489823 0 
0.0489823 -4.76054 0 
0 0 0 
-4.98188 0.0360469 0 
0.0360469 -4.75269 0 
0 0 0 
-4.98625 0.0469762 0 
0.0469762 -4.74833 0 
0 0 0 
-4.86906 -0.0433741 0 
-0.0433741 -4.96462 0 
0 0 0 
-4.87842 -0.0439092 0 
-0.0439092 -4.95527 0 
0 0 0 
-4.87328 -0.0350052 0 
-0.0350052 -4.96041 0 
0 0 0 
-5.02352 0.132712 0 
0.132712 -4.7427 0 
0 0 0 
-5.03725 0.138581 0 
0.138581 -4.72897 0 
0 0 0 
-5.03547 0.162057 0 
0.162057 -4.73075 0 
0 0 0 
-4.96084 0.0337265 0 
0.0337265 -4.97433 0 
0 0 0 
-4.96277 0.0358039 0 
0.0358039 -4.9724 0 
0 0 0 
-4.9636 0.0348167 0 
0.0348167 -4.97157 0 
0 0 0 
-5.01254 0.0434366 0 
0.0434366 -4.69474 0 
0 0 0 
-5.0213 0.0357542 0 
0.0357542 -4.68598 0 
0 0 0 
-5.02311 0.0394261 0 
0.0394261 -4.68417 0 
0 0 0 
-4.73843 -0.0094519 0 
-0.0094519 -4.68506 0 
0 0 0 
-4.70481 -0.0143467 0 
-0.0143467 -4.71867 0 
0 0 0 
-4.71738 -0.0209985 0 
-0.0209985 -4.7061 0 
0 0 0 
-4.84847 -0.0785 0 
-0.0785 -4.80668 0 
0 0 0 
-4.86926 -0.115384 0 
-0.115384 -4.78589 0 
0 0 0 
-4.88334 -0.0823741 0 
-0.0823741 -4.77181 0 
0 0 0 
-4.90512 -0.0153803 0 
-0.0153803 -4.90413 0 
0 0 0 
-4.90399 -0.0170559 0 
-0.0170559 -4.90526 0 
0 0 0 
-4.90605 -0.0169187 0 
-0.0169187 -4.9032 0 
0 0 0 
-4.93694 -0.0283311 0 
-0.0283311 -4.66322 0 
0 0 0 
-4.94779 -0.000886804 0 
-0.000886804 -4.65237 0 
0 0 0 
-4.91105 0.00779437 0 
0.00779437 -4.68911 0 
0 0 0 
-4.86226 -0.00394894 0 
-0.00394894 -4.82309 0 
0 0 0 
-4.85602 0.00737435 0 
0.00737435 -4.82932 0 
0 0 0 
-4.85424 -0.00054172 0 
-0.00054172 -4.8311 0 
0 0 0 
-4.90338 -0.0331836 0 
-0.0331836 -4.91056 0 
0 0 0 
-4.90523 -0.0361737 0 
-0.0361737 -4.90871 0 
0 0 0 
-4.90578 -0.0338473 0 
-0.0338473 -4.90816 0 
0 0 0 
-4.76424 -0.0611119 0 
-0.0611119 -5.00669 0 
0 0 0 
-4.76646 -0.0623578 0 
-0.0623578 -5.00447 0 
0 0 0 
-4.76243 -0.0625951 0 
-0.0625951 -5.00849 0 
0 0 0 
-4.94151 0.00576196 0 
0.00576196 -4.75595 0 
0 0 0 
-4.92983 0.0259931 0 
0.0259931 -4.76763 0 
0 0 0 
-4.92349 0.00884541 0 
0.00884541 -4.77397 0 
0 0 0 
-4.55491 -0.180947 0 
-0.180947 -4.92912 0 
0 0 0 
-4.54808 -0.171296 0 
-0.171296 -4.93595 0 
0 0 0 
-4.56278 -0.1719 0 
-0.1719 -4.92125 0 
0 0 0 
-4.99626 0.055594 0 
0.055594 -4.74894 0 
0 0 0 
-4.9978 0.0523031 0 
0.0523031 -4.74741 0 
0 0 0 
-5.00006 0.0560125 0 
0.0560125 -4.74514 0 
0 0 0 
-4.81409 -0.0329686 0 
-0.0329686 -5.02489 0 
0 0 0 
-4.82673 -0.0335612 0 
-0.0335612 -5.01225 0 
0 0 0 
-4.8199 -0.023489 0 
-0.023489 -5.01909 0 
0 0 0 
-4.93046 -0.103766 0 
-0.103766 -4.8059 0 
0 0 0 
-4.93032 -0.103225 0 
-0.103225 -4.80604 0 
0 0 0 
-4.93656 -0.100082 0 
-0.100082 -4.7998 0 
0 0 0 
-4.98352 0.0287525 0 
0.0287525 -4.72031 0 
0 0 0 
-4.9732 0.0444632 0 
0.0444632 -4.73062 0 
0 0 0 
-4.96801 0.0317075 0 
0.0317075 -4.73581 0 
0 0 0 
-4.90577 -0.0168338 0 
-0.0168338 -4.90507 0 
0 0 0 
-4.90469 -0.015414 0 
-0.015414 -4.90615 0 
0 0 0 
-4.90383 -0.0166109 0 
-0.0166109 -4.90701 0 
0 0 0 
-4.82888 -0.0740052 0 
-0.0740052 -4.92719 0 
0 0 0 
-4.8184 -0.0529602 0 
-0.0529602 -4.93766 0 
0 0 0 
-4.8109 -0.0722888 0 
-0.0722888 -4.94516 0 
0 0 0 
-4.61426 0.0690473 0 
0.0690473 -5.14669 0 
0 0 0 
-4.65449 0.0113644 0 
0.0113644 -5.10646 0 
0 0 0 
-4.68288 0.059265 0 
0.059265 -5.07808 0 
0 0 0 
-4.98502 0.0979178 0 
0.0979178 -5.46066 0 
0 0 0 
-5.28293 0.26878 0 
0.26878 -5.16276 0 
0 0 0 
-4.96437 0.108708 0 
0.108708 -5.48132 0 
0 0 0 
-4.84805 -0.0403144 0 
-0.0403144 -4.92204 0 
0 0 0 
-4.82662 -0.0380269 0 
-0.0380269 -4.94347 0 
0 0 0 
-4.83931 -0.0619685 0 
-0.0619685 -4.93077 0 
0 0 0 
-4.89525 -0.193157 0 
-0.193157 -5.26841 0 
0 0 0 
-4.88472 -0.206357 0 
-0.206357 -5.27893 0 
0 0 0 
-4.87855 -0.230408 0 
-0.230408 -5.2851 0 
0 0 0 
-5.01117 0.0940579 0 
0.0940579 -4.74564 0 
0 0 0 
-4.99849 0.0923585 0 
0.0923585 -4.75832 0 
0 0 0 
-5.0024 0.0757935 0 
0.0757935 -4.75441 0 
0 0 0 
-4.86706 -0.00498999 0 
-0.00498999 -4.85238 0 
0 0 0 
-4.87125 0.000810242 0 
0.000810242 -4.84819 0 
0 0 0 
-4.86653 -0.000932392 0 
-0.000932392 -4.85292 0 
0 0 0 
-4.86714 -0.0212754 0 
-0.0212754 -4.97788 0 
0 0 0 
-4.86269 -0.0299094 0 
-0.0299094 -4.98233 0 
0 0 0 
-4.8727 -0.0305548 0 
-0.0305548 -4.97232 0 
0 0 0 
-4.90242 -0.0270431 0 
-0.0270431 -4.91511 0 
0 0 0 
-4.90426 -0.0300668 0 
-0.0300668 -4.91328 0 
0 0 0 
-4.90521 -0.0275544 0 
-0.0275544 -4.91232 0 
0 0 0 
-4.87266 0.00814247 0 
0.00814247 -4.91317 0 
0 0 0 
-4.88899 -0.0220916 0 
-0.0220916 -4.89684 0 
0 0 0 
-4.90128 0.00581134 0 
0.00581134 -4.88455 0 
0 0 0 
-4.99814 0.0408587 0 
0.0408587 -4.73664 0 
0 0 0 
-5.00588 0.0307838 0 
0.0307838 -4.72891 0 
0 0 0 
-5.01017 0.038876 0 
0.038876 -4.72461 0 
0 0 0 
-4.88405 -0.120717 0 
-0.120717 -4.93503 0 
0 0 0 
-4.8975 -0.121278 0 
-0.121278 -4.92158 0 
0 0 0 
-4.89029 -0.105908 0 
-0.105908 -4.92879 0 
0 0 0 
-5.00596 0.0526114 0 
0.0526114 -4.74305 0 
0 0 0 
-5.00897 0.0503561 0 
0.0503561 -4.74003 0 
0 0 0 
-5.01017 0.0515638 0 
0.0515638 -4.73883 0 
0 0 0 
-4.97426 0.0285214 0 
0.0285214 -4.71516 0 
0 0 0 
-4.95402 0.0326024 0 
0.0326024 -4.7354 0 
0 0 0 
-4.96767 0.0132471 0 
0.0132471 -4.72175 0 
0 0 0 
-4.8762 -0.00038466 0 
-0.00038466 -4.77543 0 
0 0 0 
-4.86404 0.0028719 0 
0.0028719 -4.78759 0 
0 0 0 
-4.87296 -0.0136871 0 
-0.0136871 -4.77868 0 
0 0 0 
-4.78123 -0.118344 0 
-0.118344 -4.84927 0 
0 0 0 
-4.75823 -0.115426 0 
-0.115426 -4.87227 0 
0 0 0 
-4.77226 -0.144902 0 
-0.144902 -4.85824 0 
0 0 0 
-4.90184 -0.0281376 0 
-0.0281376 -4.92022 0 
0 0 0 
-4.89829 -0.0276988 0 
-0.0276988 -4.92377 0 
0 0 0 
-4.90044 -0.0316612 0 
-0.0316612 -4.92161 0 
0 0 0 
-4.85392 -0.0605105 0 
-0.0605105 -4.88218 0 
0 0 0 
-4.88161 -0.0627937 0 
-0.0627937 -4.85449 0 
0 0 0 
-4.86579 -0.0331756 0 
-0.0331756 -4.87031 0 
0 0 0 
-4.89867 0.0126128 0 
0.0126128 -4.83282 0 
0 0 0 
-4.91239 0.0104103 0 
0.0104103 -4.8191 0 
0 0 0 
-4.90243 0.0264621 0 
0.0264621 -4.82906 0 
0 0 0 
-4.89759 -0.0105733 0 
-0.0105733 -4.94372 0 
0 0 0 
-4.90053 -0.0157645 0 
-0.0157645 -4.94078 0 
0 0 0 
-4.90252 -0.0111224 0 
-0.0111224 -4.93879 0 
0 0 0 
-4.79737 -0.0223039 0 
-0.0223039 -5.03092 0 
0 0 0 
-4.80396 -0.012297 0 
-0.012297 -5.02434 0 
0 0 0 
-4.78932 -0.0114519 0 
-0.0114519 -5.03897 0 
0 0 0 
-4.90209 -0.00926327 0 
-0.00926327 -4.93586 0 
0 0 0 
-4.90455 -0.0136433 0 
-0.0136433 -4.9334 0 
0 0 0 
-4.90606 -0.00981482 0 
-0.00981482 -4.93189 0 
0 0 0 
-4.91125 -0.0990151 0 
-0.0990151 -4.90723 0 
0 0 0 
-4.91605 -0.109186 0 
-0.109186 -4.90244 0 
0 0 0 
-4.91913 -0.1 0 
-0.1 -4.89935 0 
0 0 0 
-4.89873 -0.0342483 0 
-0.0342483 -4.92126 0 
0 0 0 
-4.90129 -0.0386626 0 
-0.0386626 -4.91871 0 
0 0 0 
-4.90283 -0.0348333 0 
-0.0348333 -4.91717 0 
0 0 0 
-4.86368 -0.0805799 0 
-0.0805799 -4.9684 0 
0 0 0 
-4.85715 -0.0935197 0 
-0.0935197 -4.97493 0 
0 0 0 
-4.8703 -0.0935718 0 
-0.0935718 -4.96178 0 
0 0 0 
-4.89196 -0.0116779 0 
-0.0116779 -4.95241 0 
0 0 0 
-4.89545 -0.0177487 0 
-0.0177487 -4.94893 0 
0 0 0 
-4.89795 -0.0122418 0 
-0.0122418 -4.94642 0 
0 0 0 
-4.89523 -0.012325 0 
-0.012325 -4.95275 0 
0 0 0 
-4.90092 -0.0130104 0 
-0.0130104 -4.94706 0 
0 0 0 
-4.89748 -0.00707893 0 
-0.00707893 -4.9505 0 
0 0 0 
-4.98074 0.200209 0 
0.200209 -4.74562 0 
0 0 0 
-4.99156 0.151516 0 
0.151516 -4.73481 0 
0 0 0 
-5.015 0.207496 0 
0.207496 -4.71137 0 
0 0 0 
-4.74221 -0.149138 0 
-0.149138 -4.90188 0 
0 0 0 
-4.73414 -0.125963 0 
-0.125963 -4.90995 0 
0 0 0 
-4.72871 -0.147618 0 
-0.147618 -4.91538 0 
0 0 0 
-4.85417 -0.0634373 0 
-0.0634373 -4.98256 0 
0 0 0 
-4.84794 -0.0524732 0 
-0.0524732 -4.98879 0 
0 0 0 
-4.84203 -0.0632531 0 
-0.0632531 -4.9947 0 
0 0 0 
-4.73413 -0.0544775 0 
-0.0544775 -5.01397 0 
0 0 0 
-4.71879 -0.053764 0 
-0.053764 -5.02932 0 
0 0 0 
-4.72707 -0.0606999 0 
-0.0606999 -5.02103 0 
0 0 0 
-5.34341 0.00470879 0 
0.00470879 -5.5325 0 
0 0 0 
-5.38982 0.038245 0 
0.038245 -5.48609 0 
0 0 0 
-5.36309 8.35528e-05 0 
8.35528e-05 -5.51281 0 
0 0 0 
-4.83871 -0.0486616 0 
-0.0486616 -4.96211 0 
0 0 0 
-4.82808 -0.0287393 0 
-0.0287393 -4.97273 0 
0 0 0 
-4.82086 -0.046701 0 
-0.046701 -4.97996 0 
0 0 0 
-4.7753 -0.12779 0 
-0.12779 -4.90153 0 
0 0 0 
-4.76604 -0.104968 0 
-0.104968 -4.9108 0 
0 0 0 
-4.75962 -0.126151 0 
-0.126151 -4.91722 0 
0 0 0 
-4.84336 -0.143976 0 
-0.143976 -4.74633 0 
0 0 0 
-4.88664 -0.148736 0 
-0.148736 -4.70306 0 
0 0 0 
-4.86088 -0.100741 0 
-0.100741 -4.72882 0 
0 0 0 
-4.82794 -0.0086397 0 
-0.0086397 -5.02007 0 
0 0 0 
-4.8338 0.00136937 0 
0.00136937 -5.0142 0 
0 0 0 
-4.82028 0.00240618 0 
0.00240618 -5.02772 0 
0 0 0 
-4.90218 -0.0139407 0 
-0.0139407 -4.93365 0 
0 0 0 
-4.89752 -0.013411 0 
-0.013411 -4.93831 0 
0 0 0 
-4.9003 -0.0183672 0 
-0.0183672 -4.93552 0 
0 0 0 
-4.85039 -0.000516343 0 
-0.000516343 -4.95774 0 
0 0 0 
-4.86534 -0.0281941 0 
-0.0281941 -4.94279 0 
0 0 0 
-4.87598 -0.0030097 0 
-0.0030097 -4.93215 0 
0 0 0 
-4.74551 -0.144168 0 
-0.144168 -4.8355 0 
0 0 0 
-4.72214 -0.140965 0 
-0.140965 -4.85886 0 
0 0 0 
-4.7366 -0.173241 0 
-0.173241 -4.8444 0 
0 0 0 
-4.80635 -0.0674475 0 
-0.0674475 -5.03192 0 
0 0 0 
-4.8079 -0.0678994 0 
-0.0678994 -5.03037 0 
0 0 0 
-4.80755 -0.0694846 0 
-0.0694846 -5.03072 0 
0 0 0 
-4.91179 -0.0739653 0 
-0.0739653 -4.86552 0 
0 0 0 
-4.91028 -0.0713137 0 
-0.0713137 -4.86703 0 
0 0 0 
-4.91154 -0.072361 0 
-0.072361 -4.86577 0 
0 0 0 
-4.75291 -0.0352792 0 
-0.0352792 -5.02356 0 
0 0 0 
-4.73668 -0.0344227 0 
-0.0344227 -5.03979 0 
0 0 0 
-4.74553 -0.0436465 0 
-0.0436465 -5.03094 0 
0 0 0 
-4.90516 -0.0116604 0 
-0.0116604 -4.91199 0 
0 0 0 
-4.90546 -0.0102997 0 
-0.0102997 -4.91168 0 
0 0 0 
-4.90558 -0.0109255 0 
-0.0109255 -4.91157 0 
0 0 0 
-4.83963 -0.0564445 0 
-0.0564445 -4.90056 0 
0 0 0 
-4.81792 -0.0541298 0 
-0.0541298 -4.92227 0 
0 0 0 
-4.83078 -0.0787734 0 
-0.0787734 -4.90941 0 
0 0 0 
-4.90684 -0.132524 0 
-0.132524 -4.92748 0 
0 0 0 
-4.91334 -0.117422 0 
-0.117422 -4.92097 0 
0 0 0 
-4.8995 -0.116942 0 
-0.116942 -4.93481 0 
0 0 0 
-4.83227 -0.0993749 0 
-0.0993749 -5.03464 0 
0 0 0 
-4.82838 -0.0899109 0 
-0.0899109 -5.03854 0 
0 0 0 
-4.82157 -0.101057 0 
-0.101057 -5.04534 0 
0 0 0 
-4.76448 -0.100088 0 
-0.100088 -4.90679 0 
0 0 0 
-4.75145 -0.0982147 0 
-0.0982147 -4.91983 0 
0 0 0 
-4.75959 -0.118017 0 
-0.118017 -4.91169 0 
0 0 0 
-4.81498 0.0430895 0 
0.0430895 -5.05245 0 
0 0 0 
-4.83588 0.038534 0 
0.038534 -5.03155 0 
0 0 0 
-4.82282 0.0553408 0 
0.0553408 -5.04461 0 
0 0 0 
-4.90396 -0.0142981 0 
-0.0142981 -4.90794 0 
0 0 0 
-4.90313 -0.0154823 0 
-0.0154823 -4.90878 0 
0 0 0 
-4.90518 -0.0159317 0 
-0.0159317 -4.90673 0 
0 0 0 
-4.87845 0.0521673 0 
0.0521673 -5.01488 0 
0 0 0 
-4.88545 0.0429673 0 
0.0429673 -5.00788 0 
0 0 0 
-4.88887 0.0491867 0 
0.0491867 -5.00446 0 
0 0 0 
-4.89023 -0.13758 0 
-0.13758 -5.36658 0 
0 0 0 
-4.90118 -0.121871 0 
-0.121871 -5.35563 0 
0 0 0 
-4.90861 -0.138803 0 
-0.138803 -5.3482 0 
0 0 0 
-4.74497 -0.284681 0 
-0.284681 -4.58394 0 
0 0 0 
-4.82658 -0.294879 0 
-0.294879 -4.50234 0 
0 0 0 
-4.77694 -0.197019 0 
-0.197019 -4.55197 0 
0 0 0 
-4.81842 -0.0440624 0 
-0.0440624 -5.018 0 
0 0 0 
-4.82432 -0.0346693 0 
-0.0346693 -5.0121 0 
0 0 0 
-4.81206 -0.0344045 0 
-0.0344045 -5.02436 0 
0 0 0 
-4.7729 -0.0409612 0 
-0.0409612 -5.02949 0 
0 0 0 
-4.7786 -0.0341834 0 
-0.0341834 -5.02379 0 
0 0 0 
-4.76645 -0.0337439 0 
-0.0337439 -5.03594 0 
0 0 0 
-4.90601 -0.0146088 0 
-0.0146088 -4.90839 0 
0 0 0 
-4.90429 -0.0121752 0 
-0.0121752 -4.91011 0 
0 0 0 
-4.90336 -0.0136077 0 
-0.0136077 -4.91105 0 
0 0 0 
-4.4292 -0.289865 0 
-0.289865 -4.81084 0 
0 0 0 
-4.41208 -0.28769 0 
-0.28769 -4.82796 0 
0 0 0 
-4.42252 -0.342169 0 
-0.342169 -4.81753 0 
0 0 0 
-4.60744 -0.489974 0 
-0.489974 -3.82587 0 
0 0 0 
-4.38728 -0.44581 0 
-0.44581 -4.04603 0 
0 0 0 
-4.53462 -0.730718 0 
-0.730718 -3.8987 0 
0 0 0 
-5.29042 0.318853 0 
0.318853 -3.88147 0 
0 0 0 
-4.96454 1.20593 0 
1.20593 -4.20735 0 
0 0 0 
-4.36052 0.15827 0 
0.15827 -4.81137 0 
0 0 0 
-4.88715 -0.134946 0 
-0.134946 -4.95137 0 
0 0 0 
-4.87846 -0.115778 0 
-0.115778 -4.96006 0 
0 0 0 
-4.86966 -0.135012 0 
-0.135012 -4.96887 0 
0 0 0 
-4.91644 0.00114042 0 
0.00114042 -4.94189 0 
0 0 0 
-4.91834 -0.00238178 0 
-0.00238178 -4.93999 0 
0 0 0 
-4.91929 0.000593972 0 
0.000593972 -4.93904 0 
0 0 0 
-4.89531 -0.0308044 0 
-0.0308044 -4.92023 0 
0 0 0 
-4.89364 -0.0348298 0 
-0.0348298 -4.92191 0 
0 0 0 
-4.89807 -0.0354542 0 
-0.0354542 -4.91748 0 
0 0 0 
-4.81724 -0.0447858 0 
-0.0447858 -5.01522 0 
0 0 0 
-4.81111 -0.0358388 0 
-0.0358388 -5.02134 0 
0 0 0 
-4.80544 -0.0445249 0 
-0.0445249 -5.02701 0 
0 0 0 
-4.6752 -0.235853 0 
-0.235853 -4.12818 0 
0 0 0 
-4.66803 -0.117048 0 
-0.117048 -4.13535 0 
0 0 0 
-4.46429 0.00885968 0 
0.00885968 -4.33909 0 
0 0 0 
-4.89975 -0.119032 0 
-0.119032 -4.90279 0 
0 0 0 
-4.91 -0.120192 0 
-0.120192 -4.89254 0 
0 0 0 
-4.90387 -0.106997 0 
-0.106997 -4.89867 0 
0 0 0 
-4.8477 -0.0872889 0 
-0.0872889 -4.99309 0 
0 0 0 
-4.8415 -0.0753554 0 
-0.0753554 -4.9993 0 
0 0 0 
-4.83468 -0.0876401 0 
-0.0876401 -5.00611 0 
0 0 0 
-4.99912 0.0532683 0 
0.0532683 -4.74664 0 
0 0 0 
-5.00049 0.0533887 0 
0.0533887 -4.74528 0 
0 0 0 
-4.99991 0.0542972 0 
0.0542972 -4.74585 0 
0 0 0 
-4.84435 -0.123782 0 
-0.123782 -5.22657 0 
0 0 0 
-4.83054 -0.133094 0 
-0.133094 -5.24039 0 
0 0 0 
-4.82938 -0.147229 0 
-0.147229 -5.24155 0 
0 0 0 
-4.8718 -0.121914 0 
-0.121914 -4.97421 0 
0 0 0 
-4.88006 -0.105984 0 
-0.105984 -4.96595 0 
0 0 0 
-4.86409 -0.106295 0 
-0.106295 -4.98193 0 
0 0 0 
-4.88861 -0.1298 0 
-0.1298 -4.95374 0 
0 0 0 
-4.89652 -0.113461 0 
-0.113461 -4.94583 0 
0 0 0 
-4.88072 -0.113471 0 
-0.113471 -4.96163 0 
0 0 0 
-4.94585 0.216362 0 
0.216362 -4.88303 0 
0 0 0 
-4.93241 0.207171 0 
0.207171 -4.89648 0 
0 0 0 
-4.93151 0.203659 0 
0.203659 -4.89737 0 
0 0 0 
-4.91077 -0.213793 0 
-0.213793 -4.45175 0 
0 0 0 
-4.86445 -0.130914 0 
-0.130914 -4.49808 0 
0 0 0 
-4.83791 -0.202365 0 
-0.202365 -4.52461 0 
0 0 0 
-4.86887 -0.0971463 0 
-0.0971463 -4.71464 0 
0 0 0 
-4.89715 -0.144449 0 
-0.144449 -4.68636 0 
0 0 0 
-4.91487 -0.10324 0 
-0.10324 -4.66864 0 
0 0 0 
-4.78109 -0.0256812 0 
-0.0256812 -5.03443 0 
0 0 0 
-4.78804 -0.0158098 0 
-0.0158098 -5.02748 0 
0 0 0 
-4.7726 -0.0149225 0 
-0.0149225 -5.04291 0 
0 0 0 
-4.89798 -0.0336968 0 
-0.0336968 -4.91157 0 
0 0 0 
-4.90144 -0.0343263 0 
-0.0343263 -4.9081 0 
0 0 0 
-4.89916 -0.0306931 0 
-0.0306931 -4.91038 0 
0 0 0 
-4.8926 -0.0180789 0 
-0.0180789 -4.94924 0 
0 0 0 
-4.88571 -0.0175487 0 
-0.0175487 -4.95613 0 
0 0 0 
-4.88961 -0.0243222 0 
-0.0243222 -4.95222 0 
0 0 0 
-4.81499 -0.0402066 0 
-0.0402066 -5.00144 0 
0 0 0 
-4.81066 -0.0524807 0 
-0.0524807 -5.00577 0 
0 0 0 
-4.82255 -0.0543498 0 
-0.0543498 -4.99388 0 
0 0 0 
-4.78521 -0.000794035 0 
-0.000794035 -5.03099 0 
0 0 0 
-4.76646 0.000591142 0 
0.000591142 -5.04973 0 
0 0 0 
-4.77703 -0.012988 0 
-0.012988 -5.03916 0 
0 0 0 
-4.84474 -0.10846 0 
-0.10846 -5.0145 0 
0 0 0 
-4.83879 -0.0952407 0 
-0.0952407 -5.02045 0 
0 0 0 
-4.83079 -0.109642 0 
-0.109642 -5.02845 0 
0 0 0 
-4.88495 -0.00655315 0 
-0.00655315 -4.96929 0 
0 0 0 
-4.88171 -0.0134375 0 
-0.0134375 -4.97253 0 
0 0 0 
-4.88953 -0.014211 0 
-0.014211 -4.96471 0 
0 0 0 
-4.83033 -0.0444822 0 
-0.0444822 -5.00778 0 
0 0 0 
-4.82393 -0.0345511 0 
-0.0345511 -5.01418 0 
0 0 0 
-4.81811 -0.0441442 0 
-0.0441442 -5.01999 0 
0 0 0 
-5.02206 0.0512427 0 
0.0512427 -4.49915 0 
0 0 0 
-5.04417 0.03317 0 
0.03317 -4.47705 0 
0 0 0 
-5.04365 0.0381815 0 
0.0381815 -4.47756 0 
0 0 0 
-4.352 -0.0188526 0 
-0.0188526 -5.25806 0 
0 0 0 
-4.527 -0.0420749 0 
-0.0420749 -5.08306 0 
0 0 0 
-4.41989 0.0823225 0 
0.0823225 -5.19017 0 
0 0 0 
-4.8879 -0.230602 0 
-0.230602 -4.99667 0 
0 0 0 
-4.9256 -0.230027 0 
-0.230027 -4.95896 0 
0 0 0 
-4.90725 -0.182499 0 
-0.182499 -4.97732 0 
0 0 0 
-4.8254 -0.0865099 0 
-0.0865099 -5.0218 0 
0 0 0 
-4.83101 -0.0973062 0 
-0.0973062 -5.01618 0 
0 0 0 
-4.83804 -0.0856936 0 
-0.0856936 -5.00916 0 
0 0 0 
-4.84389 -0.0430278 0 
-0.0430278 -4.99907 0 
0 0 0 
-4.84957 -0.0330926 0 
-0.0330926 -4.99339 0 
0 0 0 
-4.83757 -0.0327303 0 
-0.0327303 -5.00539 0 
0 0 0 
-4.82856 -0.0349867 0 
-0.0349867 -5.0451 0 
0 0 0 
-4.81903 -0.019338 0 
-0.019338 -5.05463 0 
0 0 0 
-4.815 -0.0318089 0 
-0.0318089 -5.05866 0 
0 0 0 
-4.90424 -0.0223167 0 
-0.0223167 -4.91468 0 
0 0 0 
-4.90098 -0.0214019 0 
-0.0214019 -4.91794 0 
0 0 0 
-4.90355 -0.0255879 0 
-0.0255879 -4.91537 0 
0 0 0 
-4.89226 -0.0131003 0 
-0.0131003 -4.95483 0 
0 0 0 
-4.88515 -0.0125189 0 
-0.0125189 -4.96194 0 
0 0 0 
-4.88921 -0.0194902 0 
-0.0194902 -4.95788 0 
0 0 0 
-4.82777 -0.105347 0 
-0.105347 -5.02738 0 
0 0 0 
-4.83511 -0.0934044 0 
-0.0934044 -5.02004 0 
0 0 0 
-4.82259 -0.0946531 0 
-0.0946531 -5.03256 0 
0 0 0 
-4.833 0.0159388 0 
0.0159388 -4.79177 0 
0 0 0 
-4.82729 0.00329038 0 
0.00329038 -4.79748 0 
0 0 0 
-4.83321 0.00646924 0 
0.00646924 -4.79156 0 
0 0 0 
-4.69979 -0.0378797 0 
-0.0378797 -4.64238 0 
0 0 0 
-4.68169 -0.0392673 0 
-0.0392673 -4.66048 0 
0 0 0 
-4.71028 -0.0348734 0 
-0.0348734 -4.63189 0 
0 0 0 
-4.78699 -0.0596143 0 
-0.0596143 -4.99662 0 
0 0 0 
-4.79015 -0.0678016 0 
-0.0678016 -4.99345 0 
0 0 0 
-4.79118 -0.0608469 0 
-0.0608469 -4.99243 0 
0 0 0 
-4.93857 -0.0349471 0 
-0.0349471 -4.78454 0 
0 0 0 
-4.92136 -0.00415277 0 
-0.00415277 -4.80174 0 
0 0 0 
-4.90854 -0.0324146 0 
-0.0324146 -4.81456 0 
0 0 0 
-4.90067 -0.00984876 0 
-0.00984876 -4.93698 0 
0 0 0 
-4.89897 -0.0141156 0 
-0.0141156 -4.93868 0 
0 0 0 
-4.90347 -0.0147468 0 
-0.0147468 -4.93419 0 
0 0 0 
-4.8125 0.00834114 0 
0.00834114 -4.79739 0 
0 0 0 
-4.79974 0.00747421 0 
0.00747421 -4.81015 0 
0 0 0 
-4.80537 0.00444814 0 
0.00444814 -4.80452 0 
0 0 0 
-4.98264 0.0573868 0 
0.0573868 -4.80158 0 
0 0 0 
-4.98839 0.0733986 0 
0.0733986 -4.79582 0 
0 0 0 
-4.97281 0.0712597 0 
0.0712597 -4.81141 0 
0 0 0 
-4.72668 -0.135382 0 
-0.135382 -4.9065 0 
0 0 0 
-4.7303 -0.117756 0 
-0.117756 -4.90287 0 
0 0 0 
-4.71999 -0.115988 0 
-0.115988 -4.91319 0 
0 0 0 
-4.90003 -0.012442 0 
-0.012442 -4.9312 0 
0 0 0 
-4.89854 -0.0163801 0 
-0.0163801 -4.93269 0 
0 0 0 
-4.90287 -0.016819 0 
-0.016819 -4.92837 0 
0 0 0 
-4.97678 0.0442562 0 
0.0442562 -4.78902 0 
0 0 0 
-4.98237 0.0593702 0 
0.0593702 -4.78344 0 
0 0 0 
-4.96791 0.0603308 0 
0.0603308 -4.7979 0 
0 0 0 
-4.8294 -0.0448968 0 
-0.0448968 -5.00856 0 
0 0 0 
-4.82348 -0.0548908 0 
-0.0548908 -5.01448 0 
0 0 0 
-4.83557 -0.055034 0 
-0.055034 -5.00239 0 
0 0 0 
-4.75747 -0.0456231 0 
-0.0456231 -5.02494 0 
0 0 0 
-4.76794 -0.0460369 0 
-0.0460369 -5.01446 0 
0 0 0 
-4.76235 -0.0413479 0 
-0.0413479 -5.02006 0 
0 0 0 
-4.81462 -0.0329445 0 
-0.0329445 -5.02178 0 
0 0 0 
-4.82063 -0.0234055 0 
-0.0234055 -5.01577 0 
0 0 0 
-4.80774 -0.0228991 0 
-0.0228991 -5.02866 0 
0 0 0 
-4.77974 0.0237255 0 
0.0237255 -5.05715 0 
0 0 0 
-4.80063 0.02023 0 
0.02023 -5.03626 0 
0 0 0 
-4.78644 0.0381086 0 
0.0381086 -5.05046 0 
0 0 0 
-5.00176 0.0540019 0 
0.0540019 -4.74215 0 
0 0 0 
-5.00147 0.0542462 0 
0.0542462 -4.74243 0 
0 0 0 
-5.00313 0.053619 0 
0.053619 -4.74077 0 
0 0 0 
-4.83319 -0.01125 0 
-0.01125 -5.01529 0 
0 0 0 
-4.83994 -0.0216124 0 
-0.0216124 -5.00853 0 
0 0 0 
-4.84544 -0.0119734 0 
-0.0119734 -5.00304 0 
0 0 0 
-4.86455 -0.109203 0 
-0.109203 -4.99039 0 
0 0 0 
-4.84756 -0.110011 0 
-0.110011 -5.00738 0 
0 0 0 
-4.85535 -0.126072 0 
-0.126072 -4.99959 0 
0 0 0 
-4.70683 0.0102728 0 
0.0102728 -5.07937 0 
0 0 0 
-4.75235 0.0092619 0 
0.0092619 -5.03385 0 
0 0 0 
-4.71973 0.0341292 0 
0.0341292 -5.06647 0 
0 0 0 
-4.89615 -0.0110908 0 
-0.0110908 -4.94492 0 
0 0 0 
-4.89395 -0.0162077 0 
-0.0162077 -4.94713 0 
0 0 0 
-4.89949 -0.0168573 0 
-0.0168573 -4.94159 0 
0 0 0 
-5.00076 0.0466025 0 
0.0466025 -4.71688 0 
0 0 0 
-4.99853 0.0420439 0 
0.0420439 -4.71912 0 
0 0 0 
-5.0072 0.0395981 0 
0.0395981 -4.71045 0 
0 0 0 
-4.5617 -0.264217 0 
-0.264217 -4.82313 0 
0 0 0 
-4.54579 -0.328395 0 
-0.328395 -4.83905 0 
0 0 0 
-4.58156 -0.330673 0 
-0.330673 -4.80327 0 
0 0 0 
-4.92262 -0.0719499 0 
-0.0719499 -4.86545 0 
0 0 0 
-4.92498 -0.0700828 0 
-0.0700828 -4.86309 0 
0 0 0 
-4.92542 -0.0711676 0 
-0.0711676 -4.86266 0 
0 0 0 
-4.96955 0.0329636 0 
0.0329636 -4.77559 0 
0 0 0 
-4.97481 0.0474393 0 
0.0474393 -4.77033 0 
0 0 0 
-4.96045 0.0496509 0 
0.0496509 -4.78469 0 
0 0 0 
-4.81206 -0.0615586 0 
-0.0615586 -5.01694 0 
0 0 0 
-4.80772 -0.0535386 0 
-0.0535386 -5.02128 0 
0 0 0 
-4.80641 -0.0598095 0 
-0.0598095 -5.02259 0 
0 0 0 
-4.99916 0.0563004 0 
0.0563004 -4.74576 0 
0 0 0 
-4.99828 0.0546884 0 
0.0546884 -4.74663 0 
0 0 0 
-4.9985 0.0555789 0 
0.0555789 -4.74642 0 
0 0 0 
-4.84474 -0.0993169 0 
-0.0993169 -5.00038 0 
0 0 0 
-4.85212 -0.0863821 0 
-0.0863821 -4.99299 0 
0 0 0 
-4.83822 -0.0868888 0 
-0.0868888 -5.00689 0 
0 0 0 
-4.89177 -0.00700295 0 
-0.00700295 -4.95953 0 
0 0 0 
-4.88903 -0.0130745 0 
-0.0130745 -4.96227 0 
0 0 0 
-4.89577 -0.0138005 0 
-0.0138005 -4.95553 0 
0 0 0 
-4.85332 0.0326745 0 
0.0326745 -5.0314 0 
0 0 0 
-4.86569 0.0303484 0 
0.0303484 -5.01904 0 
0 0 0 
-4.85749 0.0411657 0 
0.0411657 -5.02724 0 
0 0 0 
-4.97842 0.0442344 0 
0.0442344 -4.80396 0 
0 0 0 
-4.96527 0.0665486 0 
0.0665486 -4.8171 0 
0 0 0 
-4.96277 0.0451578 0 
0.0451578 -4.8196 0 
0 0 0 
-4.89052 -0.0120934 0 
-0.0120934 -4.95374 0 
0 0 0 
-4.88778 -0.0181115 0 
-0.0181115 -4.95648 0 
0 0 0 
-4.89443 -0.0187854 0 
-0.0187854 -4.94983 0 
0 0 0 
-4.91771 -0.140813 0 
-0.140813 -4.88491 0 
0 0 0 
-4.91009 -0.123678 0 
-0.123678 -4.89253 0 
0 0 0 
-4.90493 -0.139384 0 
-0.139384 -4.89769 0 
0 0 0 
-4.79607 -0.00919782 0 
-0.00919782 -5.03427 0 
0 0 0 
-4.8033 0.00213579 0 
0.00213579 -5.02704 0 
0 0 0 
-4.78664 0.00340166 0 
0.00340166 -5.04369 0 
0 0 0 
-4.80718 0.0191527 0 
0.0191527 -5.03897 0 
0 0 0 
-4.8165 0.0064075 0 
0.0064075 -5.02965 0 
0 0 0 
-4.82311 0.0175951 0 
0.0175951 -5.02304 0 
0 0 0 
-4.96279 -0.0184301 0 
-0.0184301 -4.69974 0 
0 0 0 
-4.98892 -0.0225945 0 
-0.0225945 -4.67361 0 
0 0 0 
-4.97225 0.00322057 0 
0.00322057 -4.69028 0 
0 0 0 
-4.86236 -0.0943946 0 
-0.0943946 -5.30853 0 
0 0 0 
-4.86032 -0.107785 0 
-0.107785 -5.31057 0 
0 0 0 
-4.84974 -0.109579 0 
-0.109579 -5.32115 0 
0 0 0 
-4.92657 -0.163309 0 
-0.163309 -5.38016 0 
0 0 0 
-4.94437 -0.160054 0 
-0.160054 -5.36237 0 
0 0 0 
-4.93515 -0.178907 0 
-0.178907 -5.37159 0 
0 0 0 
-4.91596 0.0021842 0 
0.0021842 -4.94594 0 
0 0 0 
-4.91478 -0.00132317 0 
-0.00132317 -4.94711 0 
0 0 0 
-4.9182 -0.00194386 0 
-0.00194386 -4.94369 0 
0 0 0 
-4.97018 0.0214651 0 
0.0214651 -4.74262 0 
0 0 0 
-4.95941 0.0395197 0 
0.0395197 -4.75339 0 
0 0 0 
-4.95338 0.024197 0 
0.024197 -4.75942 0 
0 0 0 
-4.79461 -0.00851533 0 
-0.00851533 -5.04037 0 
0 0 0 
-4.81024 -0.0099465 0 
-0.0099465 -5.02474 0 
0 0 0 
-4.80119 0.00184271 0 
0.00184271 -5.03379 0 
0 0 0 
-4.64271 -0.0704005 0 
-0.0704005 -4.49038 0 
0 0 0 
-4.62311 -0.0963068 0 
-0.0963068 -4.50998 0 
0 0 0 
-4.60079 -0.0719651 0 
-0.0719651 -4.5323 0 
0 0 0 
-4.90004 -0.00263411 0 
-0.00263411 -4.95524 0 
0 0 0 
-4.89787 -0.00782615 0 
-0.00782615 -4.95741 0 
0 0 0 
-4.90348 -0.00855502 0 
-0.00855502 -4.9518 0 
0 0 0 
-5.01517 0.087925 0 
0.087925 -4.78018 0 
0 0 0 
-5.00927 0.109162 0 
0.109162 -4.78608 0 
0 0 0 
-4.99625 0.0859867 0 
0.0859867 -4.7991 0 
0 0 0 
-4.83839 0.0404971 0 
0.0404971 -5.02869 0 
0 0 0 
-4.84499 0.0523422 0 
0.0523422 -5.02209 0 
0 0 0 
-4.82727 0.0552259 0 
0.0552259 -5.03981 0 
0 0 0 
-4.90301 0.0636625 0 
0.0636625 -5.00839 0 
0 0 0 
-4.90863 0.0554237 0 
0.0554237 -5.00277 0 
0 0 0 
-4.91233 0.0606228 0 
0.0606228 -4.99907 0 
0 0 0 
-4.79814 0.00624758 0 
0.00624758 -5.03701 0 
0 0 0 
-4.80586 0.0188155 0 
0.0188155 -5.02929 0 
0 0 0 
-4.78735 0.0205842 0 
0.0205842 -5.0478 0 
0 0 0 
-4.91916 0.00574018 0 
0.00574018 -4.96137 0 
0 0 0 
-4.91672 0.0102336 0 
0.0102336 -4.96381 0 
0 0 0 
-4.91574 0.00658493 0 
0.00658493 -4.96479 0 
0 0 0 
-5.01256 0.0555235 0 
0.0555235 -4.73414 0 
0 0 0 
-5.01566 0.0549982 0 
0.0549982 -4.73104 0 
0 0 0 
-5.01561 0.0536904 0 
0.0536904 -4.73109 0 
0 0 0 
-4.95949 -0.0220114 0 
-0.0220114 -4.43783 0 
0 0 0 
-4.99601 -0.0356531 0 
-0.0356531 -4.40131 0 
0 0 0 
-4.96593 0.00346039 0 
0.00346039 -4.43138 0 
0 0 0 
-4.81184 -0.00823676 0 
-0.00823676 -5.03373 0 
0 0 0 
-4.82612 -0.00951731 0 
-0.00951731 -5.01945 0 
0 0 0 
-4.81787 0.00180185 0 
0.00180185 -5.0277 0 
0 0 0 
-4.79219 -0.0125238 0 
-0.0125238 -5.02755 0 
0 0 0 
-4.78217 -0.000218056 0 
-0.000218056 -5.03756 0 
0 0 0 
-4.77493 -0.0109179 0 
-0.0109179 -5.04481 0 
0 0 0 
-4.97546 0.0260344 0 
0.0260344 -4.73949 0 
0 0 0 
-4.98064 0.0383578 0 
0.0383578 -4.73432 0 
0 0 0 
-4.96527 0.0412542 0 
0.0412542 -4.74968 0 
0 0 0 
-4.84194 -0.111379 0 
-0.111379 -5.00992 0 
0 0 0 
-4.85007 -0.0972047 0 
-0.0972047 -5.00179 0 
0 0 0 
-4.8353 -0.0980651 0 
-0.0980651 -5.01657 0 
0 0 0 
-4.89647 -0.00274133 0 
-0.00274133 -4.79063 0 
0 0 0 
-4.90097 0.011951 0 
0.011951 -4.78613 0 
0 0 0 
-4.88639 0.015175 0 
0.015175 -4.80071 0 
0 0 0 
-4.81273 -0.067161 0 
-0.067161 -5.09581 0 
0 0 0 
-4.81255 -0.0709663 0 
-0.0709663 -5.09599 0 
0 0 0 
-4.80934 -0.0689397 0 
-0.0689397 -5.09919 0 
0 0 0 
-4.85715 -0.111194 0 
-0.111194 -4.98944 0 
0 0 0 
-4.86512 -0.0965834 0 
-0.0965834 -4.98146 0 
0 0 0 
-4.84998 -0.0970476 0 
-0.0970476 -4.99661 0 
0 0 0 
-4.95939 0.0208553 0 
0.0208553 -4.76133 0 
0 0 0 
-4.96525 0.0358978 0 
0.0358978 -4.75548 0 
0 0 0 
-4.94873 0.038672 0 
0.038672 -4.772 0 
0 0 0 
-4.83635 -0.0553817 0 
-0.0553817 -5.00235 0 
0 0 0 
-4.82422 -0.0554629 0 
-0.0554629 -5.01448 0 
0 0 0 
-4.83021 -0.0655141 0 
-0.0655141 -5.00848 0 
0 0 0 
-4.83132 -0.0437938 0 
-0.0437938 -5.00935 0 
0 0 0 
-4.83721 -0.0339124 0 
-0.0339124 -5.00346 0 
0 0 0 
-4.82488 -0.0335966 0 
-0.0335966 -5.01579 0 
0 0 0 
-4.79509 0.00597708 0 
0.00597708 -4.77086 0 
0 0 0 
-4.77767 0.00422747 0 
0.00422747 -4.78828 0 
0 0 0 
-4.78487 0.000227705 0 
0.000227705 -4.78108 0 
0 0 0 
-4.75246 -0.0183351 0 
-0.0183351 -4.70108 0 
0 0 0 
-4.74299 -0.0164 0 
-0.0164 -4.71054 0 
0 0 0 
-4.72932 -0.0207654 0 
-0.0207654 -4.72421 0 
0 0 0 
-4.87136 -0.0843827 0 
-0.0843827 -4.80868 0 
0 0 0 
-4.90469 -0.0875276 0 
-0.0875276 -4.77535 0 
0 0 0 
-4.8853 -0.0520099 0 
-0.0520099 -4.79474 0 
0 0 0 
-4.47983 -0.226417 0 
-0.226417 -5.00669 0 
0 0 0 
-4.4904 -0.238308 0 
-0.238308 -4.99611 0 
0 0 0 
-4.46143 -0.233616 0 
-0.233616 -5.02508 0 
0 0 0 
-4.87436 0.0513356 0 
0.0513356 -5.01491 0 
0 0 0 
-4.87782 0.0593525 0 
0.0593525 -5.01145 0 
0 0 0 
-4.86637 0.0619662 0 
0.0619662 -5.0229 0 
0 0 0 
-4.7997 -0.108025 0 
-0.108025 -4.90625 0 
0 0 0 
-4.78979 -0.0857909 0 
-0.0857909 -4.91616 0 
0 0 0 
-4.78277 -0.106353 0 
-0.106353 -4.92317 0 
0 0 0 
-4.85807 -0.111453 0 
-0.111453 -4.99069 0 
0 0 0 
-4.85102 -0.0964596 0 
-0.0964596 -4.99774 0 
0 0 0 
-4.84283 -0.112109 0 
-0.112109 -5.00593 0 
0 0 0 
-4.98806 0.0153644 0 
0.0153644 -4.7058 0 
0 0 0 
-5.00217 -0.0037155 0 
-0.0037155 -4.69169 0 
0 0 0 
-5.00939 0.0113878 0 
0.0113878 -4.68446 0 
0 0 0 
-4.84292 -0.0439139 0 
-0.0439139 -4.9981 0 
0 0 0 
-4.83647 -0.0335179 0 
-0.0335179 -5.00454 0 
0 0 0 
-4.83074 -0.0435042 0 
-0.0435042 -5.01028 0 
0 0 0 
-4.70814 0.129745 0 
0.129745 -5.12599 0 
0 0 0 
-4.72586 0.0836599 0 
0.0836599 -5.10827 0 
0 0 0 
-4.76841 0.114213 0 
0.114213 -5.06572 0 
0 0 0 
-4.90542 -0.112668 0 
-0.112668 -4.72905 0 
0 0 0 
-4.92089 -0.0774503 0 
-0.0774503 -4.71358 0 
0 0 0 
-4.8817 -0.0726887 0 
-0.0726887 -4.75277 0 
0 0 0 
-4.83447 0.000516939 0 
0.000516939 -5.01854 0 
0 0 0 
-4.84147 -0.00990881 0 
-0.00990881 -5.01154 0 
0 0 0 
-4.84679 -0.000455039 0 
-0.000455039 -5.00622 0 
0 0 0 
-4.89515 -0.100635 0 
-0.100635 -4.93444 0 
0 0 0 
-4.90131 -0.113268 0 
-0.113268 -4.92827 0 
0 0 0 
-4.90665 -0.101116 0 
-0.101116 -4.92294 0 
0 0 0 
-4.80855 -0.0686316 0 
-0.0686316 -4.92695 0 
0 0 0 
-4.79299 -0.0667004 0 
-0.0667004 -4.94251 0 
0 0 0 
-4.80244 -0.0862842 0 
-0.0862842 -4.93306 0 
0 0 0 
-4.77644 -0.030197 0 
-0.030197 -5.02298 0 
0 0 0 
-4.76805 -0.0208478 0 
-0.0208478 -5.03138 0 
0 0 0 
-4.7615 -0.0291309 0 
-0.0291309 -5.03793 0 
0 0 0 
-4.59629 -0.311495 0 
-0.311495 -4.61419 0 
0 0 0 
-4.52497 -0.302241 0 
-0.302241 -4.68551 0 
0 0 0 
-4.56864 -0.398139 0 
-0.398139 -4.64184 0 
0 0 0 
-4.9247 -0.127296 0 
-0.127296 -4.8957 0 
0 0 0 
-4.92831 -0.115894 0 
-0.115894 -4.89209 0 
0 0 0 
-4.91902 -0.114701 0 
-0.114701 -4.90138 0 
0 0 0 
-4.88549 -0.0328281 0 
-0.0328281 -4.94237 0 
0 0 0 
-4.89197 -0.0334197 0 
-0.0334197 -4.93589 0 
0 0 0 
-4.88822 -0.0269278 0 
-0.0269278 -4.93965 0 
0 0 0 
-4.8929 0.000112592 0 
0.000112592 -4.80696 0 
0 0 0 
-4.88392 0.0159571 0 
0.0159571 -4.81594 0 
0 0 0 
-4.88054 0.00302324 0 
0.00302324 -4.81933 0 
0 0 0 
-4.9328 -0.00136523 0 
-0.00136523 -4.93548 0 
0 0 0 
-4.93483 -0.00122852 0 
-0.00122852 -4.93345 0 
0 0 0 
-4.93393 -0.000856243 0 
-0.000856243 -4.93435 0 
0 0 0 
-4.83437 -0.0223488 0 
-0.0223488 -5.01089 0 
0 0 0 
-4.84088 -0.0326363 0 
-0.0326363 -5.00438 0 
0 0 0 
-4.84648 -0.02287 0 
-0.02287 -4.99878 0 
0 0 0 
-4.81179 -0.021106 0 
-0.021106 -5.02945 0 
0 0 0 
-4.82515 -0.0220117 0 
-0.0220117 -5.01609 0 
0 0 0 
-4.81769 -0.0114607 0 
-0.0114607 -5.02356 0 
0 0 0 
-4.89296 -0.00715036 0 
-0.00715036 -4.9571 0 
0 0 0 
-4.89652 -0.0133027 0 
-0.0133027 -4.95355 0 
0 0 0 
-4.89901 -0.00776243 0 
-0.00776243 -4.95105 0 
0 0 0 
-4.80685 -0.0247909 0 
-0.0247909 -5.02147 0 
0 0 0 
-4.7939 -0.0242932 0 
-0.0242932 -5.03442 0 
0 0 0 
-4.80081 -0.0337928 0 
-0.0337928 -5.02751 0 
0 0 0 
-4.78026 -0.072822 0 
-0.072822 -4.95543 0 
0 0 0 
-4.77227 -0.0714689 0 
-0.0714689 -4.96342 0 
0 0 0 
-4.77744 -0.0846202 0 
-0.0846202 -4.95825 0 
0 0 0 
-4.81258 -0.0211072 0 
-0.0211072 -5.02508 0 
0 0 0 
-4.81881 -0.0111128 0 
-0.0111128 -5.01885 0 
0 0 0 
-4.80497 -0.0103139 0 
-0.0103139 -5.03269 0 
0 0 0 
-4.8056 -0.0443362 0 
-0.0443362 -5.02424 0 
0 0 0 
-4.8113 -0.0358845 0 
-0.0358845 -5.01854 0 
0 0 0 
-4.79954 -0.0356745 0 
-0.0356745 -5.0303 0 
0 0 0 
-4.82301 0.0214961 0 
0.0214961 -5.04026 0 
0 0 0 
-4.83852 0.0192483 0 
0.0192483 -5.02475 0 
0 0 0 
-4.82882 0.0320721 0 
0.0320721 -5.03445 0 
0 0 0 
-4.87355 -0.0136543 0 
-0.0136543 -4.98443 0 
0 0 0 
-4.86781 -0.00446268 0 
-0.00446268 -4.99018 0 
0 0 0 
-4.86361 -0.012761 0 
-0.012761 -4.99438 0 
0 0 0 
-4.92978 0.00702963 0 
0.00702963 -4.774 0 
0 0 0 
-4.93544 0.0229866 0 
0.0229866 -4.76835 0 
0 0 0 
-4.91849 0.0261391 0 
0.0261391 -4.78529 0 
0 0 0 
-4.90614 0.0270724 0 
0.0270724 -4.81526 0 
0 0 0 
-4.91652 0.00895477 0 
0.00895477 -4.80488 0 
0 0 0 
-4.92101 0.0241612 0 
0.0241612 -4.80039 0 
0 0 0 
-4.81149 -0.0502856 0 
-0.0502856 -5.04716 0 
0 0 0 
-4.81976 -0.0528905 0 
-0.0528905 -5.03889 0 
0 0 0 
-4.81337 -0.042549 0 
-0.042549 -5.04528 0 
0 0 0 
-4.9892 -0.330355 0 
-0.330355 -4.74779 0 
0 0 0 
-4.94983 -0.219555 0 
-0.219555 -4.78716 0 
0 0 0 
-4.92797 -0.320245 0 
-0.320245 -4.80902 0 
0 0 0 
-4.89183 -0.103308 0 
-0.103308 -4.71638 0 
0 0 0 
-4.93259 -0.108263 0 
-0.108263 -4.67562 0 
0 0 0 
-4.90792 -0.0649434 0 
-0.0649434 -4.70029 0 
0 0 0 
-4.9808 0.0568584 0 
0.0568584 -4.76973 0 
0 0 0 
-4.9873 0.0444017 0 
0.0444017 -4.76322 0 
0 0 0 
-4.99171 0.0556454 0 
0.0556454 -4.75882 0 
0 0 0 
-5.01672 0.0821791 0 
0.0821791 -4.75021 0 
0 0 0 
-5.01169 0.0704976 0 
0.0704976 -4.75524 0 
0 0 0 
-5.01868 0.0721013 0 
0.0721013 -4.74825 0 
0 0 0 
-4.92293 -0.000928482 0 
-0.000928482 -4.93635 0 
0 0 0 
-4.92484 -0.00106248 0 
-0.00106248 -4.93444 0 
0 0 0 
-4.92374 0.00141849 0 
0.00141849 -4.93553 0 
0 0 0 
-4.8772 -0.00440099 0 
-0.00440099 -4.98876 0 
0 0 0 
-4.8715 0.00453391 0 
0.00453391 -4.99446 0 
0 0 0 
-4.86765 -0.0033333 0 
-0.0033333 -4.99831 0 
0 0 0 
-4.90407 -0.00918734 0 
-0.00918734 -4.93043 0 
0 0 0 
-4.90296 -0.0125201 0 
-0.0125201 -4.93153 0 
0 0 0 
-4.90703 -0.0122525 0 
-0.0122525 -4.92746 0 
0 0 0 
-4.29287 1.38305 0 
1.38305 -3.50949 0 
0 0 0 
-3.85456 1.32624 0 
1.32624 -3.9478 0 
0 0 0 
-4.05939 1.21192 0 
1.21192 -3.74297 0 
0 0 0 
-4.96547 -0.304953 0 
-0.304953 -4.91757 0 
0 0 0 
-4.9363 -0.222798 0 
-0.222798 -4.94674 0 
0 0 0 
-4.90803 -0.304433 0 
-0.304433 -4.97501 0 
0 0 0 
-4.89997 0.0623463 0 
0.0623463 -5.02338 0 
0 0 0 
-4.90783 0.059586 0 
0.059586 -5.01552 0 
0 0 0 
-4.90199 0.0681253 0 
0.0681253 -5.02136 0 
0 0 0 
-4.87323 0.0478221 0 
0.0478221 -5.02877 0 
0 0 0 
-4.88376 0.0450037 0 
0.0450037 -5.01824 0 
0 0 0 
-4.87605 0.0551624 0 
0.0551624 -5.02595 0 
0 0 0 
-4.7963 0.00658267 0 
0.00658267 -5.04529 0 
0 0 0 
-4.8136 0.00461745 0 
0.00461745 -5.028 0 
0 0 0 
-4.80325 0.0179855 0 
0.0179855 -5.03835 0 
0 0 0 
-5.02741 0.0762699 0 
0.0762699 -4.70479 0 
0 0 0 
-5.02893 0.0835931 0 
0.0835931 -4.70328 0 
0 0 0 
-5.02405 0.0722227 0 
0.0722227 -4.70815 0 
0 0 0 
-4.63607 0.0824243 0 
0.0824243 -5.15745 0 
0 0 0 
-4.70224 0.0677967 0 
0.0677967 -5.09128 0 
0 0 0 
-4.67893 0.123477 0 
0.123477 -5.11459 0 
0 0 0 
-4.81713 -0.0900458 0 
-0.0900458 -4.91496 0 
0 0 0 
-4.80687 -0.0684292 0 
-0.0684292 -4.92523 0 
0 0 0 
-4.79952 -0.0883617 0 
-0.0883617 -4.93258 0 
0 0 0 
-4.86866 -0.0206731 0 
-0.0206731 -4.97736 0 
0 0 0 
-4.8738 -0.0293324 0 
-0.0293324 -4.97223 0 
0 0 0 
-4.87801 -0.0212066 0 
-0.0212066 -4.96802 0 
0 0 0 
-4.81288 -0.0341305 0 
-0.0341305 -5.0184 0 
0 0 0 
-4.80605 -0.0246992 0 
-0.0246992 -5.02523 0 
0 0 0 
-4.80022 -0.0335526 0 
-0.0335526 -5.03106 0 
0 0 0 
-5.05587 0.22712 0 
0.22712 -4.7126 0 
0 0 0 
-5.03215 0.17268 0 
0.17268 -4.73632 0 
0 0 0 
-5.06171 0.183004 0 
0.183004 -4.70676 0 
0 0 0 
-4.84007 -0.0323102 0 
-0.0323102 -5.00569 0 
0 0 0 
-4.8519 -0.0329324 0 
-0.0329324 -4.99386 0 
0 0 0 
-4.84544 -0.0226176 0 
-0.0226176 -5.00031 0 
0 0 0 
-4.51762 0.02908 0 
0.02908 -5.18622 0 
0 0 0 
-4.57056 -0.0386154 0 
-0.0386154 -5.13328 0 
0 0 0 
-4.60814 0.0206189 0 
0.0206189 -5.0957 0 
0 0 0 
-4.91869 -0.000333207 0 
-0.000333207 -4.93571 0 
0 0 0 
-4.9203 -0.00276942 0 
-0.00276942 -4.9341 0 
0 0 0 
-4.92051 -0.000497168 0 
-0.000497168 -4.93389 0 
0 0 0 
-4.81169 -0.0786698 0 
-0.0786698 -5.02694 0 
0 0 0 
-4.81647 -0.0722132 0 
-0.0722132 -5.02216 0 
0 0 0 
-4.80853 -0.073147 0 
-0.073147 -5.0301 0 
0 0 0 
-4.83248 -0.0992188 0 
-0.0992188 -5.01529 0 
0 0 0 
-4.84594 -0.0985005 0 
-0.0985005 -5.00182 0 
0 0 0 
-4.83983 -0.0859671 0 
-0.0859671 -5.00793 0 
0 0 0 
-4.93192 -0.059521 0 
-0.059521 -4.70178 0 
0 0 0 
-4.96634 -0.0642466 0 
-0.0642466 -4.66737 0 
0 0 0 
-4.94504 -0.028932 0 
-0.028932 -4.68866 0 
0 0 0 
-4.87571 -0.0131678 0 
-0.0131678 -4.97381 0 
0 0 0 
-4.87185 -0.0209594 0 
-0.0209594 -4.97767 0 
0 0 0 
-4.88083 -0.0216852 0 
-0.0216852 -4.9687 0 
0 0 0 
-4.90459 -0.217316 0 
-0.217316 -5.25353 0 
0 0 0 
-4.90299 -0.184799 0 
-0.184799 -5.25512 0 
0 0 0 
-4.88307 -0.227892 0 
-0.227892 -5.27504 0 
0 0 0 
-4.82123 0.0163278 0 
0.0163278 -5.03142 0 
0 0 0 
-4.81518 0.00592139 0 
0.00592139 -5.03747 0 
0 0 0 
-4.83024 0.00421074 0 
0.00421074 -5.02241 0 
0 0 0 
-4.88678 0.00159593 0 
0.00159593 -4.81967 0 
0 0 0 
-4.88925 0.0134718 0 
0.0134718 -4.81721 0 
0 0 0 
-4.87776 0.0156208 0 
0.0156208 -4.82869 0 
0 0 0 
-4.96062 -0.0174059 0 
-0.0174059 -4.69864 0 
0 0 0 
-4.98043 -0.0468348 0 
-0.0468348 -4.67882 0 
0 0 0 
-4.99171 -0.0223307 0 
-0.0223307 -4.66754 0 
0 0 0 
-4.84229 -0.0441964 0 
-0.0441964 -4.99784 0 
0 0 0 
-4.83004 -0.0440356 0 
-0.0440356 -5.01009 0 
0 0 0 
-4.8363 -0.0543539 0 
-0.0543539 -5.00382 0 
0 0 0 
-5.02573 0.086702 0 
0.086702 -4.74363 0 
0 0 0 
-5.02141 0.104381 0 
0.104381 -4.74795 0 
0 0 0 
-5.01166 0.0856955 0 
0.0856955 -4.7577 0 
0 0 0 
-4.90874 -0.0236133 0 
-0.0236133 -4.87409 0 
0 0 0 
-4.90824 -0.0212351 0 
-0.0212351 -4.87458 0 
0 0 0 
-4.90504 -0.0255308 0 
-0.0255308 -4.87779 0 
0 0 0 
-4.76369 -0.187971 0 
-0.187971 -4.82342 0 
0 0 0 
-4.74684 -0.148956 0 
-0.148956 -4.84027 0 
0 0 0 
-4.73495 -0.185108 0 
-0.185108 -4.85216 0 
0 0 0 
-5.00478 0.0399633 0 
0.0399633 -4.71857 0 
0 0 0 
-5.01325 0.030659 0 
0.030659 -4.7101 0 
0 0 0 
-5.01659 0.0369992 0 
0.0369992 -4.70676 0 
0 0 0 
-4.84229 -0.0653603 0 
-0.0653603 -4.99565 0 
0 0 0 
-4.83615 -0.0546969 0 
-0.0546969 -5.00178 0 
0 0 0 
-4.83004 -0.0653499 0 
-0.0653499 -5.0079 0 
0 0 0 
-4.78431 -0.101491 0 
-0.101491 -4.9207 0 
0 0 0 
-4.78998 -0.0836043 0 
-0.0836043 -4.91503 0 
0 0 0 
-4.77534 -0.0816982 0 
-0.0816982 -4.92967 0 
0 0 0 
-4.921 -0.0561767 0 
-0.0561767 -4.70044 0 
0 0 0 
-4.9459 -0.0955802 0 
-0.0955802 -4.67554 0 
0 0 0 
-4.96096 -0.0618587 0 
-0.0618587 -4.66048 0 
0 0 0 
-4.80268 0.000119353 0 
0.000119353 -4.78212 0 
0 0 0 
-4.79716 0.00120628 0 
0.00120628 -4.78765 0 
0 0 0 
-4.79057 -0.000494151 0 
-0.000494151 -4.79423 0 
0 0 0 
-4.80113 -0.0670819 0 
-0.0670819 -4.97608 0 
0 0 0 
-4.81331 -0.0685337 0 
-0.0685337 -4.9639 0 
0 0 0 
-4.80596 -0.0531959 0 
-0.0531959 -4.97125 0 
0 0 0 
-4.5011 -0.103888 0 
-0.103888 -5.10504 0 
0 0 0 
-4.53546 -0.1365 0 
-0.1365 -5.07068 0 
0 0 0 
-4.56118 -0.108877 0 
-0.108877 -5.04496 0 
0 0 0 
-4.91478 -0.109294 0 
-0.109294 -4.86586 0 
0 0 0 
-4.91937 -0.111184 0 
-0.111184 -4.86127 0 
0 0 0 
-4.91544 -0.102632 0 
-0.102632 -4.8652 0 
0 0 0 
-4.94508 -0.176501 0 
-0.176501 -4.46224 0 
0 0 0 
-4.96825 -0.119432 0 
-0.119432 -4.43907 0 
0 0 0 
-4.89871 -0.106038 0 
-0.106038 -4.5086 0 
0 0 0 
-4.93367 -0.0582594 0 
-0.0582594 -4.81797 0 
0 0 0 
-4.93025 -0.0514916 0 
-0.0514916 -4.82139 0 
0 0 0 
-4.92124 -0.0614869 0 
-0.0614869 -4.8304 0 
0 0 0 
-4.83814 -0.0761984 0 
-0.0761984 -5.002 0 
0 0 0 
-4.84458 -0.0652451 0 
-0.0652451 -4.99556 0 
0 0 0 
-4.83202 -0.065428 0 
-0.065428 -5.00812 0 
0 0 0 
-4.84778 -0.0539636 0 
-0.0539636 -4.99113 0 
0 0 0 
-4.84149 -0.0433534 0 
-0.0433534 -4.99742 0 
0 0 0 
-4.83567 -0.0536962 0 
-0.0536962 -5.00325 0 
0 0 0 
-4.5458 -0.244856 0 
-0.244856 -4.81008 0 
0 0 0 
-4.52574 -0.241838 0 
-0.241838 -4.83014 0 
0 0 0 
-4.53838 -0.287364 0 
-0.287364 -4.81749 0 
0 0 0 
-4.90153 -0.01182 0 
-0.01182 -4.9305 0 
0 0 0 
-4.90351 -0.0151161 0 
-0.0151161 -4.92851 0 
0 0 0 
-4.90519 -0.0115866 0 
-0.0115866 -4.92684 0 
0 0 0 
-4.85434 0.0350509 0 
0.0350509 -5.01965 0 
0 0 0 
-4.85914 0.0445647 0 
0.0445647 -5.01485 0 
0 0 0 
-4.84577 0.0467419 0 
0.0467419 -5.02822 0 
0 0 0 
-4.93898 0.000954976 0 
0.000954976 -4.94488 0 
0 0 0 
-4.94192 0.00150944 0 
0.00150944 -4.94194 0 
0 0 0 
-4.94093 0.00194738 0 
0.00194738 -4.94293 0 
0 0 0 
-4.95557 0.0200207 0 
0.0200207 -4.77087 0 
0 0 0 
-4.94507 0.0386248 0 
0.0386248 -4.78137 0 
0 0 0 
-4.939 0.0225281 0 
0.0225281 -4.78744 0 
0 0 0 
-4.91559 -0.00195941 0 
-0.00195941 -4.93673 0 
0 0 0 
-4.91252 -0.00158283 0 
-0.00158283 -4.9398 0 
0 0 0 
-4.91445 -0.00485454 0 
-0.00485454 -4.93788 0 
0 0 0 
-4.9101 0.0110373 0 
0.0110373 -4.80373 0 
0 0 0 
-4.92589 0.0081238 0 
0.0081238 -4.78794 0 
0 0 0 
-4.91544 0.0266186 0 
0.0266186 -4.79839 0 
0 0 0 
-4.90035 -0.0112769 0 
-0.0112769 -4.94409 0 
0 0 0 
-4.90506 -0.0119246 0 
-0.0119246 -4.93939 0 
0 0 0 
-4.90216 -0.00682532 0 
-0.00682532 -4.94228 0 
0 0 0 
-5.04234 0.104571 0 
0.104571 -4.58004 0 
0 0 0 
-5.05205 0.107246 0 
0.107246 -4.57033 0 
0 0 0 
-5.04498 0.0946532 0 
0.0946532 -4.5774 0 
0 0 0 
-4.88824 -0.0204362 0 
-0.0204362 -4.9589 0 
0 0 0 
-4.88373 -0.0128045 0 
-0.0128045 -4.96342 0 
0 0 0 
-4.88042 -0.0197365 0 
-0.0197365 -4.96673 0 
0 0 0 
-4.92004 -0.0352451 0 
-0.0352451 -4.79919 0 
0 0 0 
-4.91458 -0.0230319 0 
-0.0230319 -4.80466 0 
0 0 0 
-4.9024 -0.0391135 0 
-0.0391135 -4.81683 0 
0 0 0 
-4.88536 -0.013618 0 
-0.013618 -4.96394 0 
0 0 0 
-4.8771 -0.0130151 0 
-0.0130151 -4.9722 0 
0 0 0 
-4.88176 -0.0208767 0 
-0.0208767 -4.96755 0 
0 0 0 
-4.80444 0.00365866 0 
0.00365866 -5.03629 0 
0 0 0 
-4.81292 -0.00811149 0 
-0.00811149 -5.02782 0 
0 0 0 
-4.8194 0.0025067 0 
0.0025067 -5.02134 0 
0 0 0 
-4.91821 0.000303205 0 
0.000303205 -4.9395 0 
0 0 0 
-4.91756 -0.00221494 0 
-0.00221494 -4.94014 0 
0 0 0 
-4.9202 -0.00259728 0 
-0.00259728 -4.93751 0 
0 0 0 
-4.77435 -0.00506899 0 
-0.00506899 -4.75492 0 
0 0 0 
-4.76475 -0.00817717 0 
-0.00817717 -4.76451 0 
0 0 0 
-4.78151 -0.00677207 0 
-0.00677207 -4.74775 0 
0 0 0 
-4.43501 -0.0732549 0 
-0.0732549 -5.12487 0 
0 0 0 
-4.52233 -0.084148 0 
-0.084148 -5.03755 0 
0 0 0 
-4.46948 -0.0281584 0 
-0.0281584 -5.0904 0 
0 0 0 
-4.63668 -0.194011 0 
-0.194011 -4.93001 0 
0 0 0 
-4.63959 -0.194503 0 
-0.194503 -4.9271 0 
0 0 0 
-4.63771 -0.173444 0 
-0.173444 -4.92898 0 
0 0 0 
-4.44503 -0.183743 0 
-0.183743 -4.97921 0 
0 0 0 
-4.48472 -0.1875 0 
-0.1875 -4.93952 0 
0 0 0 
-4.46162 -0.182007 0 
-0.182007 -4.96262 0 
0 0 0 
-4.94022 -0.134753 0 
-0.134753 -4.88413 0 
0 0 0 
-4.9282 -0.133251 0 
-0.133251 -4.89615 0 
0 0 0 
-4.93551 -0.149925 0 
-0.149925 -4.88884 0 
0 0 0 
-4.86898 -0.00420928 0 
-0.00420928 -4.98768 0 
0 0 0 
-4.85875 -0.00339857 0 
-0.00339857 -4.99791 0 
0 0 0 
-4.86457 -0.0126457 0 
-0.0126457 -4.9921 0 
0 0 0 
-4.97714 0.0398742 0 
0.0398742 -4.74979 0 
0 0 0 
-4.98878 0.0377965 0 
0.0377965 -4.73814 0 
0 0 0 
-4.98116 0.0501832 0 
0.0501832 -4.74576 0 
0 0 0 
-5.01266 0.0830546 0 
0.0830546 -4.70716 0 
0 0 0 
-5.00774 0.0797597 0 
0.0797597 -4.71208 0 
0 0 0 
-5.00695 0.0707853 0 
0.0707853 -4.71287 0 
0 0 0 
-4.80322 0.0237422 0 
0.0237422 -5.04921 0 
0 0 0 
-4.82139 0.0213126 0 
0.0213126 -5.03105 0 
0 0 0 
-4.80999 0.0359723 0 
0.0359723 -5.04244 0 
0 0 0 
-4.87798 -0.0382551 0 
-0.0382551 -4.95283 0 
0 0 0 
-4.88591 -0.0388321 0 
-0.0388321 -4.9449 0 
0 0 0 
-4.88145 -0.0311025 0 
-0.0311025 -4.94937 0 
0 0 0 
-4.82436 -0.0560336 0 
-0.0560336 -5.01287 0 
0 0 0 
-4.81842 -0.065764 0 
-0.065764 -5.01881 0 
0 0 0 
-4.83 -0.0655852 0 
-0.0655852 -5.00723 0 
0 0 0 
-4.98546 0.0663656 0 
0.0663656 -4.77821 0 
0 0 0 
-4.99163 0.0528293 0 
0.0528293 -4.77203 0 
0 0 0 
-4.99662 0.0658088 0 
0.0658088 -4.76704 0 
0 0 0 
-4.68979 0.833396 0 
0.833396 -4.35816 0 
0 0 0 
-4.56761 0.795315 0 
0.795315 -4.48034 0 
0 0 0 
-4.60274 0.761586 0 
0.761586 -4.44521 0 
0 0 0 
-4.80242 -0.0786326 0 
-0.0786326 -4.95482 0 
0 0 0 
-4.79565 -0.0633552 0 
-0.0633552 -4.9616 0 
0 0 0 
-4.79113 -0.0773285 0 
-0.0773285 -4.96612 0 
0 0 0 
-4.87867 -0.171231 0 
-0.171231 -5.00885 0 
0 0 0 
-4.89349 -0.204903 0 
-0.204903 -4.99403 0 
0 0 0 
-4.91027 -0.170098 0 
-0.170098 -4.97724 0 
0 0 0 
-4.93896 -0.111527 0 
-0.111527 -4.86012 0 
0 0 0 
-4.93795 -0.106881 0 
-0.106881 -4.86113 0 
0 0 0 
-4.93627 -0.104742 0 
-0.104742 -4.86281 0 
0 0 0 
-4.6603 -0.273105 0 
-0.273105 -4.80585 0 
0 0 0 
-4.64125 -0.219137 0 
-0.219137 -4.8249 0 
0 0 0 
-4.62715 -0.270249 0 
-0.270249 -4.839 0 
0 0 0 
-4.90882 0.0581909 0 
0.0581909 -5.01266 0 
0 0 0 
-4.90416 0.05253 0 
0.05253 -5.01732 0 
0 0 0 
-4.91387 0.0495685 0 
0.0495685 -5.00761 0 
0 0 0 
-4.38393 -0.64744 0 
-0.64744 -3.97488 0 
0 0 0 
-4.0549 -0.589342 0 
-0.589342 -4.30392 0 
0 0 0 
-4.11585 -0.997193 0 
-0.997193 -4.24297 0 
0 0 0 
-4.89527 -0.102112 0 
-0.102112 -4.90846 0 
0 0 0 
-4.90407 -0.103086 0 
-0.103086 -4.89967 0 
0 0 0 
-4.89882 -0.0923265 0 
-0.0923265 -4.90491 0 
0 0 0 
-4.93599 -0.0815636 0 
-0.0815636 -4.71882 0 
0 0 0 
-4.91486 -0.0444018 0 
-0.0444018 -4.73995 0 
0 0 0 
-4.90046 -0.0776756 0 
-0.0776756 -4.75435 0 
0 0 0 
-4.99287 0.0440958 0 
0.0440958 -4.74029 0 
0 0 0 
-4.99535 0.0499022 0 
0.0499022 -4.73782 0 
0 0 0 
-4.98706 0.051829 0 
0.051829 -4.7461 0 
0 0 0 
-4.56262 -0.215858 0 
-0.215858 -4.96183 0 
0 0 0 
-4.56795 -0.199898 0 
-0.199898 -4.9565 0 
0 0 0 
-4.57139 -0.216953 0 
-0.216953 -4.95307 0 
0 0 0 
-4.9263 -0.0901125 0 
-0.0901125 -4.82784 0 
0 0 0 
-4.92285 -0.0927828 0 
-0.0927828 -4.83128 0 
0 0 0 
-4.92226 -0.0914661 0 
-0.0914661 -4.83187 0 
0 0 0 
-4.91099 -0.0850478 0 
-0.0850478 -4.76425 0 
0 0 0 
-4.92499 -0.0537488 0 
-0.0537488 -4.75025 0 
0 0 0 
-4.89046 -0.0499762 0 
-0.0499762 -4.78479 0 
0 0 0 
-5.02286 0.0650432 0 
0.0650432 -4.71872 0 
0 0 0 
-5.02113 0.0602589 0 
0.0602589 -4.72045 0 
0 0 0 
-5.0199 0.0630041 0 
0.0630041 -4.72168 0 
0 0 0 
-4.91441 -0.00136906 0 
-0.00136906 -4.93612 0 
0 0 0 
-4.9131 -0.00452247 0 
-0.00452247 -4.93742 0 
0 0 0 
-4.91616 -0.0050478 0 
-0.0050478 -4.93437 0 
0 0 0 
-4.79241 0.0406839 0 
0.0406839 -5.05132 0 
0 0 0 
-4.805 0.0238514 0 
0.0238514 -5.03874 0 
0 0 0 
-4.81234 0.0370372 0 
0.0370372 -5.0314 0 
0 0 0 
-4.89295 0.0131379 0 
0.0131379 -4.98674 0 
0 0 0 
-4.89477 0.0183305 0 
0.0183305 -4.98492 0 
0 0 0 
-4.88854 0.0192916 0 
0.0192916 -4.99115 0 
0 0 0 
-4.65027 -0.435615 0 
-0.435615 -4.54091 0 
0 0 0 
-4.59423 -0.302828 0 
-0.302828 -4.59695 0 
0 0 0 
-4.55293 -0.427108 0 
-0.427108 -4.63825 0 
0 0 0 
-4.84287 -0.0644962 0 
-0.0644962 -4.99702 0 
0 0 0 
-4.84899 -0.0539002 0 
-0.0539002 -4.9909 0 
0 0 0 
-4.83665 -0.053848 0 
-0.053848 -5.00323 0 
0 0 0 
-3.84369 0.144898 0 
0.144898 -2.42507 0 
0 0 0 
-4.14411 0.282295 0 
0.282295 -2.12465 0 
0 0 0 
-4.18716 0.424471 0 
0.424471 -2.0816 0 
0 0 0 
-5.00403 0.0560061 0 
0.0560061 -4.73512 0 
0 0 0 
-5.0048 0.0585006 0 
0.0585006 -4.73435 0 
0 0 0 
-5.00573 0.0570725 0 
0.0570725 -4.73342 0 
0 0 0 
-4.82447 0.0224737 0 
0.0224737 -5.03016 0 
0 0 0 
-4.83108 0.0341372 0 
0.0341372 -5.02355 0 
0 0 0 
-4.8142 0.0363959 0 
0.0363959 -5.04043 0 
0 0 0 
-4.85263 0.0355553 0 
0.0355553 -5.02571 0 
0 0 0 
-4.84244 0.0490057 0 
0.0490057 -5.03589 0 
0 0 0 
-4.83672 0.0384822 0 
0.0384822 -5.04161 0 
0 0 0 
-5.00213 0.0467445 0 
0.0467445 -4.69638 0 
0 0 0 
-5.01008 0.0432788 0 
0.0432788 -4.68843 0 
0 0 0 
-5.00309 0.0489776 0 
0.0489776 -4.69542 0 
0 0 0 
-4.94481 -0.0842101 0 
-0.0842101 -4.82438 0 
0 0 0 
-4.93773 -0.0891508 0 
-0.0891508 -4.83146 0 
0 0 0 
-4.94622 -0.0858753 0 
-0.0858753 -4.82297 0 
0 0 0 
-4.90101 -0.00316345 0 
-0.00316345 -4.952 0 
0 0 0 
-4.90402 -0.00845044 0 
-0.00845044 -4.94899 0 
0 0 0 
-4.90596 -0.00377978 0 
-0.00377978 -4.94704 0 
0 0 0 
-5.00864 0.067545 0 
0.067545 -4.72236 0 
0 0 0 
-5.00719 0.0651881 0 
0.0651881 -4.72381 0 
0 0 0 
-5.00586 0.0611926 0 
0.0611926 -4.72514 0 
0 0 0 
-4.99704 0.0501961 0 
0.0501961 -4.74107 0 
0 0 0 
-4.99376 0.0550299 0 
0.0550299 -4.74435 0 
0 0 0 
-4.99272 0.0514874 0 
0.0514874 -4.74539 0 
0 0 0 
-4.94972 0.0122981 0 
0.0122981 -4.95937 0 
0 0 0 
-4.95139 0.0135949 0 
0.0135949 -4.95771 0 
0 0 0 
-4.95185 0.0126387 0 
0.0126387 -4.95725 0 
0 0 0 
-4.90823 0.000371006 0 
0.000371006 -4.95067 0 
0 0 0 
-4.9066 -0.00395338 0 
-0.00395338 -4.9523 0 
0 0 0 
-4.91109 -0.00464731 0 
-0.00464731 -4.9478 0 
0 0 0 
-4.21369 -0.758478 0 
-0.758478 -4.73215 0 
0 0 0 
-4.21377 -0.341105 0 
-0.341105 -4.73207 0 
0 0 0 
-4.04036 -0.769081 0 
-0.769081 -4.90548 0 
0 0 0 
-4.90355 -0.0131242 0 
-0.0131242 -4.79743 0 
0 0 0 
-4.8874 -0.0162175 0 
-0.0162175 -4.81358 0 
0 0 0 
-4.89279 -0.0297486 0 
-0.0297486 -4.80819 0 
0 0 0 
-4.87622 -0.020035 0 
-0.020035 -4.96684 0 
0 0 0 
-4.87236 -0.0278045 0 
-0.0278045 -4.9707 0 
0 0 0 
-4.8812 -0.0284534 0 
-0.0284534 -4.96186 0 
0 0 0 
-4.96401 0.0493368 0 
0.0493368 -4.80153 0 
0 0 0 
-4.94703 0.051275 0 
0.051275 -4.8185 0 
0 0 0 
-4.95473 0.0273659 0 
0.0273659 -4.8108 0 
0 0 0 
-4.93014 -0.0621826 0 
-0.0621826 -4.79483 0 
0 0 0 
-4.91756 -0.0655584 0 
-0.0655584 -4.80741 0 
0 0 0 
-4.92092 -0.073107 0 
-0.073107 -4.80404 0 
0 0 0 
-4.89279 0.0139997 0 
0.0139997 -4.99307 0 
0 0 0 
-4.88724 0.0224621 0 
0.0224621 -4.99863 0 
0 0 0 
-4.88414 0.0157845 0 
0.0157845 -5.00173 0 
0 0 0 
-5.03171 0.00844799 0 
0.00844799 -4.55161 0 
0 0 0 
-5.03546 0.0196057 0 
0.0196057 -4.54786 0 
0 0 0 
-5.01164 0.0290281 0 
0.0290281 -4.57169 0 
0 0 0 
-4.89638 -0.0222906 0 
-0.0222906 -4.92579 0 
0 0 0 
-4.90003 -0.0229251 0 
-0.0229251 -4.92215 0 
0 0 0 
-4.89772 -0.0189674 0 
-0.0189674 -4.92445 0 
0 0 0 
-4.85187 -0.158986 0 
-0.158986 -5.03071 0 
0 0 0 
-4.87477 -0.157473 0 
-0.157473 -5.00781 0 
0 0 0 
-4.86463 -0.132668 0 
-0.132668 -5.01795 0 
0 0 0 
-4.90462 -0.00336468 0 
-0.00336468 -4.94688 0 
0 0 0 
-4.90286 -0.00782033 0 
-0.00782033 -4.94864 0 
0 0 0 
-4.90755 -0.00849096 0 
-0.00849096 -4.94395 0 
0 0 0 
-4.86057 -0.0546601 0 
-0.0546601 -4.83319 0 
0 0 0 
-4.87916 -0.0878271 0 
-0.0878271 -4.8146 0 
0 0 0 
-4.8922 -0.0578678 0 
-0.0578678 -4.80157 0 
0 0 0 
-4.91287 -0.00103615 0 
-0.00103615 -4.94296 0 
0 0 0 
-4.90896 -0.000420094 0 
-0.000420094 -4.94687 0 
0 0 0 
-4.91146 -0.00486172 0 
-0.00486172 -4.94437 0 
0 0 0 
-4.55318 1.07607 0 
1.07607 -4.01354 0 
0 0 0 
-4.30868 1.02345 0 
1.02345 -4.25804 0 
0 0 0 
-4.39789 0.954203 0 
0.954203 -4.16883 0 
0 0 0 
-4.75948 -0.0492563 0 
-0.0492563 -5.02376 0 
0 0 0 
-4.76465 -0.0445137 0 
-0.0445137 -5.01859 0 
0 0 0 
-4.75371 -0.0441698 0 
-0.0441698 -5.02953 0 
0 0 0 
-4.47631 -0.762328 0 
-0.762328 -4.11916 0 
0 0 0 
-4.35016 -0.421244 0 
-0.421244 -4.2453 0 
0 0 0 
-4.26436 -0.729031 0 
-0.729031 -4.3311 0 
0 0 0 
-4.81918 -0.0545656 0 
-0.0545656 -5.06856 0 
0 0 0 
-4.82412 -0.0612973 0 
-0.0612973 -5.06362 0 
0 0 0 
-4.82376 -0.0576227 0 
-0.0576227 -5.06398 0 
0 0 0 
-4.99579 0.0572594 0 
0.0572594 -4.50501 0 
0 0 0 
-5.01029 0.046517 0 
0.046517 -4.4905 0 
0 0 0 
-4.99374 0.0588181 0 
0.0588181 -4.50706 0 
0 0 0 
-4.86887 0.0046705 0 
0.0046705 -4.91954 0 
0 0 0 
-4.85723 -0.0215438 0 
-0.0215438 -4.93118 0 
0 0 0 
-4.88427 -0.0237107 0 
-0.0237107 -4.90415 0 
0 0 0 
-4.9913 0.0537008 0 
0.0537008 -4.76955 0 
0 0 0 
-5.00034 0.0529617 0 
0.0529617 -4.76052 0 
0 0 0 
-4.99516 0.0639548 0 
0.0639548 -4.76569 0 
0 0 0 
-4.88598 -0.0198206 0 
-0.0198206 -4.95826 0 
0 0 0 
-4.87784 -0.0192875 0 
-0.0192875 -4.96639 0 
0 0 0 
-4.88237 -0.0270393 0 
-0.0270393 -4.96187 0 
0 0 0 
-4.85939 0.000390191 0 
0.000390191 -4.80309 0 
0 0 0 
-4.85669 0.0113012 0 
0.0113012 -4.8058 0 
0 0 0 
-4.8485 -0.00296632 0 
-0.00296632 -4.81398 0 
0 0 0 
-4.99326 0.032905 0 
0.032905 -4.57481 0 
0 0 0 
-5.0093 0.024544 0 
0.024544 -4.55877 0 
0 0 0 
-4.99404 0.0395281 0 
0.0395281 -4.57403 0 
0 0 0 
-4.87322 0.0530761 0 
0.0530761 -5.02549 0 
0 0 0 
-4.8634 0.0661923 0 
0.0661923 -5.0353 0 
0 0 0 
-4.85843 0.0565987 0 
0.0565987 -5.04027 0 
0 0 0 
-4.88838 -0.0258572 0 
-0.0258572 -4.95212 0 
0 0 0 
-4.88402 -0.0184286 0 
-0.0184286 -4.95648 0 
0 0 0 
-4.88079 -0.0252118 0 
-0.0252118 -4.95971 0 
0 0 0 
-5.02012 -0.00325645 0 
-0.00325645 -4.61009 0 
0 0 0 
-5.02569 0.0101539 0 
0.0101539 -4.60452 0 
0 0 0 
-5.00226 0.0172474 0 
0.0172474 -4.62795 0 
0 0 0 
-4.95322 -0.128809 0 
-0.128809 -4.84253 0 
0 0 0 
-4.95141 -0.123049 0 
-0.123049 -4.84434 0 
0 0 0 
-4.94997 -0.120127 0 
-0.120127 -4.84579 0 
0 0 0 
-4.88753 0.405959 0 
0.405959 -4.76209 0 
0 0 0 
-4.86355 0.388181 0 
0.388181 -4.78607 0 
0 0 0 
-4.85962 0.384826 0 
0.384826 -4.79 0 
0 0 0 
-4.60628 -0.0139204 0 
-0.0139204 -5.05929 0 
0 0 0 
-4.5848 -0.0420557 0 
-0.0420557 -5.08077 0 
0 0 0 
-4.63832 -0.0480987 0 
-0.0480987 -5.02725 0 
0 0 0 
-4.85743 -0.039995 0 
-0.039995 -4.90545 0 
0 0 0 
-4.88449 -0.0421503 0 
-0.0421503 -4.87839 0 
0 0 0 
-4.86909 -0.0135634 0 
-0.0135634 -4.89379 0 
0 0 0 
-4.98497 0.0467953 0 
0.0467953 -4.76046 0 
0 0 0 
-4.99438 0.045442 0 
0.045442 -4.75105 0 
0 0 0 
-4.9885 0.0562296 0 
0.0562296 -4.75693 0 
0 0 0 
-4.88202 -0.0163176 0 
-0.0163176 -4.88695 0 
0 0 0 
-4.91124 -0.0184534 0 
-0.0184534 -4.85773 0 
0 0 0 
-4.89478 0.011795 0 
0.011795 -4.87419 0 
0 0 0 
-4.87188 -0.124117 0 
-0.124117 -4.97426 0 
0 0 0 
-4.86389 -0.106726 0 
-0.106726 -4.98226 0 
0 0 0 
-4.8551 -0.124571 0 
-0.124571 -4.99104 0 
0 0 0 
-4.83167 -0.0659344 0 
-0.0659344 -5.0074 0 
0 0 0 
-4.81999 -0.0663025 0 
-0.0663025 -5.01907 0 
0 0 0 
-4.82551 -0.0758222 0 
-0.0758222 -5.01356 0 
0 0 0 
-4.91414 -0.00511336 0 
-0.00511336 -4.94059 0 
0 0 0 
-4.91166 -0.000843089 0 
-0.000843089 -4.94308 0 
0 0 0 
-4.91042 -0.00448821 0 
-0.00448821 -4.94432 0 
0 0 0 
-4.83821 -0.0763058 0 
-0.0763058 -5.0013 0 
0 0 0 
-4.83239 -0.0657373 0 
-0.0657373 -5.00712 0 
0 0 0 
-4.82606 -0.0766077 0 
-0.0766077 -5.01345 0 
0 0 0 
-4.93668 -0.0479822 0 
-0.0479822 -4.79417 0 
0 0 0 
-4.92343 -0.0634839 0 
-0.0634839 -4.80742 0 
0 0 0 
-4.94222 -0.0590321 0 
-0.0590321 -4.78863 0 
0 0 0 
-4.97266 -0.00405656 0 
-0.00405656 -4.64802 0 
0 0 0 
-4.96314 -0.0271265 0 
-0.0271265 -4.65754 0 
0 0 0 
-4.9918 -0.0326862 0 
-0.0326862 -4.62888 0 
0 0 0 
-4.94442 0.019841 0 
0.019841 -4.78972 0 
0 0 0 
-4.95034 0.0358287 0 
0.0358287 -4.7838 0 
0 0 0 
-4.93401 0.0384672 0 
0.0384672 -4.80013 0 
0 0 0 
-4.87127 -0.0274333 0 
-0.0274333 -4.97039 0 
0 0 0 
-4.87623 -0.0359312 0 
-0.0359312 -4.96543 0 
0 0 0 
-4.88037 -0.0279018 0 
-0.0279018 -4.96129 0 
0 0 0 
-4.7572 -0.0392713 0 
-0.0392713 -5.01717 0 
0 0 0 
-4.74885 -0.031257 0 
-0.031257 -5.02551 0 
0 0 0 
-4.74232 -0.0382281 0 
-0.0382281 -5.03205 0 
0 0 0 
-4.77651 -0.0201158 0 
-0.0201158 -4.79972 0 
0 0 0 
-4.79799 -0.0207892 0 
-0.0207892 -4.77823 0 
0 0 0 
-4.78667 -0.0140091 0 
-0.0140091 -4.78956 0 
0 0 0 
-5.0013 0.0525765 0 
0.0525765 -4.74805 0 
0 0 0 
-4.9993 0.056878 0 
0.056878 -4.75005 0 
0 0 0 
-4.99827 0.0531343 0 
0.0531343 -4.75108 0 
0 0 0 
-4.90976 -0.00426256 0 
-0.00426256 -4.93985 0 
0 0 0 
-4.90558 -0.00369312 0 
-0.00369312 -4.94403 0 
0 0 0 
-4.90816 -0.00826568 0 
-0.00826568 -4.94144 0 
0 0 0 
-4.92486 0.0224769 0 
0.0224769 -4.81862 0 
0 0 0 
-4.94148 0.0202753 0 
0.0202753 -4.802 0 
0 0 0 
-4.93107 0.0395681 0 
0.0395681 -4.81241 0 
0 0 0 
-4.96737 0.0323899 0 
0.0323899 -4.78584 0 
0 0 0 
-4.95697 0.0509479 0 
0.0509479 -4.79624 0 
0 0 0 
-4.95099 0.0349443 0 
0.0349443 -4.80222 0 
0 0 0 
-4.92825 -0.129081 0 
-0.129081 -4.84457 0 
0 0 0 
-4.92343 -0.118107 0 
-0.118107 -4.84939 0 
0 0 0 
-4.92297 -0.126563 0 
-0.126563 -4.84985 0 
0 0 0 
-4.88792 -0.0252 0 
-0.0252 -4.95158 0 
0 0 0 
-4.88014 -0.0247135 0 
-0.0247135 -4.95936 0 
0 0 0 
-4.88445 -0.0321867 0 
-0.0321867 -4.95505 0 
0 0 0 
-4.84648 0.0261752 0 
0.0261752 -5.01996 0 
0 0 0 
-4.85385 0.0154387 0 
0.0154387 -5.01258 0 
0 0 0 
-4.85879 0.0247634 0 
0.0247634 -5.00765 0 
0 0 0 
-4.89877 -0.0191127 0 
-0.0191127 -4.93501 0 
0 0 0 
-4.89359 -0.0186158 0 
-0.0186158 -4.94019 0 
0 0 0 
-4.89661 -0.0239923 0 
-0.0239923 -4.93717 0 
0 0 0 
-4.74441 -0.056404 0 
-0.056404 -5.01065 0 
0 0 0 
-4.75276 -0.0566161 0 
-0.0566161 -5.0023 0 
0 0 0 
-4.7484 -0.0550604 0 
-0.0550604 -5.00666 0 
0 0 0 
-4.99634 0.0618704 0 
0.0618704 -4.77791 0 
0 0 0 
-5.00632 0.0618108 0 
0.0618108 -4.76793 0 
0 0 0 
-5.00131 0.0743776 0 
0.0743776 -4.77295 0 
0 0 0 
-4.85209 -0.0220676 0 
-0.0220676 -4.99862 0 
0 0 0 
-4.85719 -0.0127915 0 
-0.0127915 -4.99351 0 
0 0 0 
-4.84579 -0.0121058 0 
-0.0121058 -5.00491 0 
0 0 0 
-4.91425 -0.0604184 0 
-0.0604184 -4.79471 0 
0 0 0 
-4.92739 -0.0314258 0 
-0.0314258 -4.78158 0 
0 0 0 
-4.89585 -0.0283839 0 
-0.0283839 -4.81312 0 
0 0 0 
-4.99529 0.0480946 0 
0.0480946 -4.74798 0 
0 0 0 
-4.99736 0.0535184 0 
0.0535184 -4.74591 0 
0 0 0 
-4.99134 0.0546038 0 
0.0546038 -4.75193 0 
0 0 0 
-4.45798 -0.320574 0 
-0.320574 -4.82839 0 
0 0 0 
-4.43801 -0.403561 0 
-0.403561 -4.84836 0 
0 0 0 
-4.47878 -0.403711 0 
-0.403711 -4.8076 0 
0 0 0 
-4.7863 -0.089889 0 
-0.089889 -4.95007 0 
0 0 0 
-4.78049 -0.0751415 0 
-0.0751415 -4.95588 0 
0 0 0 
-4.77669 -0.0887323 0 
-0.0887323 -4.95969 0 
0 0 0 
-4.96286 -0.0323712 0 
-0.0323712 -4.60318 0 
0 0 0 
-4.99462 -0.0397966 0 
-0.0397966 -4.57142 0 
0 0 0 
-4.97231 -0.00758769 0 
-0.00758769 -4.59373 0 
0 0 0 
-4.8885 -0.0418139 0 
-0.0418139 -4.86841 0 
0 0 0 
-4.90074 -0.0141948 0 
-0.0141948 -4.85618 0 
0 0 0 
-4.87204 -0.0117507 0 
-0.0117507 -4.88488 0 
0 0 0 
-4.8392 0.00273462 0 
0.00273462 -4.84388 0 
0 0 0 
-4.83925 0.00334796 0 
0.00334796 -4.84383 0 
0 0 0 
-4.83973 0.00322069 0 
0.00322069 -4.84334 0 
0 0 0 
-4.85369 -0.0051576 0 
-0.0051576 -4.96056 0 
0 0 0 
-4.8811 -0.00750114 0 
-0.00750114 -4.93315 0 
0 0 0 
-4.86536 0.0212798 0 
0.0212798 -4.94888 0 
0 0 0 
-4.87822 -0.0260812 0 
-0.0260812 -4.95868 0 
0 0 0 
-4.87449 -0.0336461 0 
-0.0336461 -4.9624 0 
0 0 0 
-4.88298 -0.0342452 0 
-0.0342452 -4.95391 0 
0 0 0 
-4.82353 -0.0868234 0 
-0.0868234 -5.02082 0 
0 0 0 
-4.83539 -0.0861457 0 
-0.0861457 -5.00896 0 
0 0 0 
-4.83004 -0.0757899 0 
-0.0757899 -5.0143 0 
0 0 0 
-4.57411 -0.569637 0 
-0.569637 -4.40805 0 
0 0 0 
-4.49365 -0.363485 0 
-0.363485 -4.48851 0 
0 0 0 
-4.4322 -0.559099 0 
-0.559099 -4.54996 0 
0 0 0 
-4.94171 -0.04283 0 
-0.04283 -4.64 0 
0 0 0 
-4.92729 -0.077882 0 
-0.077882 -4.65441 0 
0 0 0 
-4.96687 -0.0840852 0 
-0.0840852 -4.61483 0 
0 0 0 
-4.95857 -0.367855 0 
-0.367855 -4.94485 0 
0 0 0 
-4.99769 -0.271808 0 
-0.271808 -4.90573 0 
0 0 0 
-4.91776 -0.27083 0 
-0.27083 -4.98566 0 
0 0 0 
-4.87177 -0.140056 0 
-0.140056 -4.9836 0 
0 0 0 
-4.88171 -0.120815 0 
-0.120815 -4.97367 0 
0 0 0 
-4.86291 -0.12143 0 
-0.12143 -4.99247 0 
0 0 0 
-4.66492 0.0657245 0 
0.0657245 -5.09422 0 
0 0 0 
-4.64265 0.0293353 0 
0.0293353 -5.11648 0 
0 0 0 
-4.70087 0.019374 0 
0.019374 -5.05826 0 
0 0 0 
-4.71942 -0.226592 0 
-0.226592 -4.81298 0 
0 0 0 
-4.70144 -0.181327 0 
-0.181327 -4.83096 0 
0 0 0 
-4.68863 -0.223602 0 
-0.223602 -4.84376 0 
0 0 0 
-5.00242 -0.0758654 0 
-0.0758654 -4.49578 0 
0 0 0 
-5.01542 -0.0430969 0 
-0.0430969 -4.48278 0 
0 0 0 
-4.96934 -0.0314985 0 
-0.0314985 -4.52886 0 
0 0 0 
-4.89899 -0.0198905 0 
-0.0198905 -4.93545 0 
0 0 0 
-4.89587 -0.0144606 0 
-0.0144606 -4.93858 0 
0 0 0 
-4.89382 -0.0192733 0 
-0.0192733 -4.94063 0 
0 0 0 
-4.85171 0.00876181 0 
0.00876181 -4.81959 0 
0 0 0 
-4.84557 0.00624671 0 
0.00624671 -4.82573 0 
0 0 0 
-4.84657 -0.00145441 0 
-0.00145441 -4.82473 0 
0 0 0 
-4.91078 -0.112907 0 
-0.112907 -4.51101 0 
0 0 0 
-4.96575 -0.124046 0 
-0.124046 -4.45604 0 
0 0 0 
-4.92862 -0.0641885 0 
-0.0641885 -4.49317 0 
0 0 0 
-4.62454 -0.243024 0 
-0.243024 -4.82279 0 
0 0 0 
-4.63261 -0.206599 0 
-0.206599 -4.81472 0 
0 0 0 
-4.61043 -0.203109 0 
-0.203109 -4.8369 0 
0 0 0 
-4.81442 -0.0827347 0 
-0.0827347 -5.03089 0 
0 0 0 
-4.82382 -0.0817347 0 
-0.0817347 -5.02149 0 
0 0 0 
-4.81998 -0.0742499 0 
-0.0742499 -5.02533 0 
0 0 0 
-4.73854 -0.0718749 0 
-0.0718749 -4.98258 0 
0 0 0 
-4.73628 -0.0748675 0 
-0.0748675 -4.98484 0 
0 0 0 
-4.73374 -0.0720356 0 
-0.0720356 -4.98737 0 
0 0 0 
-4.90302 -0.141575 0 
-0.141575 -4.9214 0 
0 0 0 
-4.89428 -0.122107 0 
-0.122107 -4.93014 0 
0 0 0 
-4.8865 -0.141021 0 
-0.141021 -4.93792 0 
0 0 0 
-4.89055 -0.0165385 0 
-0.0165385 -4.94703 0 
0 0 0 
-4.88794 -0.0223044 0 
-0.0223044 -4.94965 0 
0 0 0 
-4.89427 -0.0229394 0 
-0.0229394 -4.94331 0 
0 0 0 
-4.89304 -0.0137325 0 
-0.0137325 -4.79396 0 
0 0 0 
-4.88777 0.000216587 0 
0.000216587 -4.79923 0 
0 0 0 
-4.87554 -0.0177454 0 
-0.0177454 -4.81145 0 
0 0 0 
-4.63128 0.0164861 0 
0.0164861 -5.10972 0 
0 0 0 
-4.66134 -0.0227392 0 
-0.0227392 -5.07966 0 
0 0 0 
-4.68374 0.0107801 0 
0.0107801 -5.05726 0 
0 0 0 
-4.73388 -0.0213397 0 
-0.0213397 -4.76483 0 
0 0 0 
-4.7674 -0.0234 0 
-0.0234 -4.73131 0 
0 0 0 
-4.74885 -0.0127456 0 
-0.0127456 -4.74986 0 
0 0 0 
-4.9215 -0.0298143 0 
-0.0298143 -4.77456 0 
0 0 0 
-4.90172 -0.0336582 0 
-0.0336582 -4.79434 0 
0 0 0 
-4.90828 -0.0490962 0 
-0.0490962 -4.78778 0 
0 0 0 
-4.62737 -0.168912 0 
-0.168912 -4.9126 0 
0 0 0 
-4.62579 -0.154482 0 
-0.154482 -4.91418 0 
0 0 0 
-4.62756 -0.153685 0 
-0.153685 -4.91241 0 
0 0 0 
-4.87844 -0.0597272 0 
-0.0597272 -4.83509 0 
0 0 0 
-4.90924 -0.0623733 0 
-0.0623733 -4.80429 0 
0 0 0 
-4.89155 -0.0300234 0 
-0.0300234 -4.82198 0 
0 0 0 
-4.83432 -0.0873404 0 
-0.0873404 -5.00809 0 
0 0 0 
-4.84105 -0.0760611 0 
-0.0760611 -5.00136 0 
0 0 0 
-4.8284 -0.076529 0 
-0.076529 -5.01401 0 
0 0 0 
-4.66959 -0.0167966 0 
-0.0167966 -4.70739 0 
0 0 0 
-4.72129 -0.0215419 0 
-0.0215419 -4.65569 0 
0 0 0 
-4.69133 -0.00443581 0 
-0.00443581 -4.68565 0 
0 0 0 
-4.86818 -0.0325834 0 
-0.0325834 -4.85875 0 
0 0 0 
-4.88537 -0.0635652 0 
-0.0635652 -4.84155 0 
0 0 0 
-4.89783 -0.0353205 0 
-0.0353205 -4.8291 0 
0 0 0 
-4.88759 -0.0217176 0 
-0.0217176 -4.94925 0 
0 0 0 
-4.89123 -0.0281104 0 
-0.0281104 -4.94561 0 
0 0 0 
-4.89402 -0.0222098 0 
-0.0222098 -4.94282 0 
0 0 0 
-4.82841 -0.0726893 0 
-0.0726893 -5.15924 0 
0 0 0 
-4.82928 -0.0672424 0 
-0.0672424 -5.15836 0 
0 0 0 
-4.83356 -0.068378 0 
-0.068378 -5.15408 0 
0 0 0 
-4.79043 1.03728 0 
1.03728 -3.75042 0 
0 0 0 
-4.62605 1.18495 0 
1.18495 -3.9148 0 
0 0 0 
-4.39521 0.930743 0 
0.930743 -4.14565 0 
0 0 0 
-4.9981 0.0523137 0 
0.0523137 -4.75212 0 
0 0 0 
-5.00042 0.0585666 0 
0.0585666 -4.7498 0 
0 0 0 
-4.99521 0.0588876 0 
0.0588876 -4.75501 0 
0 0 0 
-4.86988 -0.0122573 0 
-0.0122573 -4.81355 0 
0 0 0 
-4.87915 0.00336639 0 
0.00336639 -4.80428 0 
0 0 0 
-4.86584 0.000344407 0 
0.000344407 -4.81759 0 
0 0 0 
-4.89159 -0.0274076 0 
-0.0274076 -4.9334 0 
0 0 0 
-4.89668 -0.0279863 0 
-0.0279863 -4.92832 0 
0 0 0 
-4.89364 -0.0227287 0 
-0.0227287 -4.93136 0 
0 0 0 
-4.90897 -0.049568 0 
-0.049568 -4.81324 0 
0 0 0 
-4.91837 -0.0365045 0 
-0.0365045 -4.80384 0 
0 0 0 
-4.90465 -0.0394409 0 
-0.0394409 -4.81756 0 
0 0 0 
-4.69738 -0.173352 0 
-0.173352 -4.82365 0 
0 0 0 
-4.67409 -0.169907 0 
-0.169907 -4.84694 0 
0 0 0 
-4.68872 -0.205669 0 
-0.205669 -4.83232 0 
0 0 0 
-4.8104 -0.0937343 0 
-0.0937343 -5.12683 0 
0 0 0 
-4.8176 -0.0847757 0 
-0.0847757 -5.11963 0 
0 0 0 
-4.81116 -0.0893706 0 
-0.0893706 -5.12607 0 
0 0 0 
-4.91549 -0.0738265 0 
-0.0738265 -4.65284 0 
0 0 0 
-4.94555 -0.120672 0 
-0.120672 -4.62278 0 
0 0 0 
-4.9627 -0.0812783 0 
-0.0812783 -4.60563 0 
0 0 0 
-4.84933 -0.0169011 0 
-0.0169011 -4.9287 0 
0 0 0 
-4.86426 -0.0445166 0 
-0.0445166 -4.91378 0 
0 0 0 
-4.87501 -0.0193076 0 
-0.0193076 -4.90302 0 
0 0 0 
-4.36932 -0.250654 0 
-0.250654 -5.07679 0 
0 0 0 
-4.39404 -0.253282 0 
-0.253282 -5.05207 0 
0 0 0 
-4.33029 -0.244584 0 
-0.244584 -5.11581 0 
0 0 0 
-4.89868 -0.00708812 0 
-0.00708812 -4.94831 0 
0 0 0 
-4.9017 -0.012404 0 
-0.012404 -4.94529 0 
0 0 0 
-4.90373 -0.00766017 0 
-0.00766017 -4.94326 0 
0 0 0 
-4.86853 -0.00266621 0 
-0.00266621 -4.99462 0 
0 0 0 
-4.87257 0.00529894 0 
0.00529894 -4.99058 0 
0 0 0 
-4.86278 0.00635988 0 
0.00635988 -5.00036 0 
0 0 0 
-4.99689 -0.04206 0 
-0.04206 -4.49666 0 
0 0 0 
-4.97062 -0.00553088 0 
-0.00553088 -4.52293 0 
0 0 0 
-4.96157 -0.0321253 0 
-0.0321253 -4.53198 0 
0 0 0 
-4.88931 -0.195142 0 
-0.195142 -4.9629 0 
0 0 0 
-4.9176 -0.19538 0 
-0.19538 -4.93461 0 
0 0 0 
-4.90325 -0.160433 0 
-0.160433 -4.94896 0 
0 0 0 
-4.49384 -0.386829 0 
-0.386829 -4.53382 0 
0 0 0 
-4.39723 -0.37644 0 
-0.37644 -4.63043 0 
0 0 0 
-4.45452 -0.509926 0 
-0.509926 -4.57314 0 
0 0 0 
-4.77684 0.959594 0 
0.959594 -4.27282 0 
0 0 0 
-4.6222 0.727125 0 
0.727125 -4.42746 0 
0 0 0 
-4.87503 0.835996 0 
0.835996 -4.17463 0 
0 0 0 
-4.31025 -0.71227 0 
-0.71227 -4.4582 0 
0 0 0 
-4.39163 -0.488693 0 
-0.488693 -4.37683 0 
0 0 0 
-4.20658 -0.47633 0 
-0.47633 -4.56187 0 
0 0 0 
-4.83913 -0.0216992 0 
-0.0216992 -5.01133 0 
0 0 0 
-4.85107 -0.0225162 0 
-0.0225162 -4.99939 0 
0 0 0 
-4.84439 -0.0121933 0 
-0.0121933 -5.00607 0 
0 0 0 
-4.86374 -0.0127003 0 
-0.0127003 -4.99437 0 
0 0 0 
-4.85741 -0.00286608 0 
-0.00286608 -5.0007 0 
0 0 0 
-4.85275 -0.0117308 0 
-0.0117308 -5.00536 0 
0 0 0 
-4.96042 0.0301452 0 
0.0301452 -4.98013 0 
0 0 0 
-4.9594 0.0316733 0 
0.0316733 -4.98115 0 
0 0 0 
-4.96188 0.0321761 0 
0.0321761 -4.97867 0 
0 0 0 
-4.875 0.00846979 0 
0.00846979 -5.0011 0 
0 0 0 
-4.86847 0.0184236 0 
0.0184236 -5.00763 0 
0 0 0 
-4.8646 0.0100507 0 
0.0100507 -5.01149 0 
0 0 0 
-4.85707 -0.00102614 0 
-0.00102614 -5.00898 0 
0 0 0 
-4.86778 -0.00221907 0 
-0.00221907 -4.99827 0 
0 0 0 
-4.8614 0.00752435 0 
0.00752435 -5.00466 0 
0 0 0 
-4.99789 0.22588 0 
0.22588 -4.87282 0 
0 0 0 
-4.99437 0.23806 0 
0.23806 -4.87634 0 
0 0 0 
-4.97437 0.215023 0 
0.215023 -4.89634 0 
0 0 0 
-5.00663 0.0563711 0 
0.0563711 -4.75105 0 
0 0 0 
-5.00531 0.0612075 0 
0.0612075 -4.75237 0 
0 0 0 
-5.00375 0.056236 0 
0.056236 -4.75393 0 
0 0 0 
-4.87539 -0.0331732 0 
-0.0331732 -4.96207 0 
0 0 0 
-4.88009 -0.0413561 0 
-0.0413561 -4.95737 0 
0 0 0 
-4.88404 -0.0336073 0 
-0.0336073 -4.95343 0 
0 0 0 
-4.93735 0.02602 0 
0.02602 -4.97331 0 
0 0 0 
-4.93948 0.022357 0 
0.022357 -4.97118 0 
0 0 0 
-4.93937 0.0242268 0 
0.0242268 -4.97129 0 
0 0 0 
-4.74271 0.114124 0 
0.114124 -5.08907 0 
0 0 0 
-4.70901 0.0906321 0 
0.0906321 -5.12277 0 
0 0 0 
-4.76168 0.0777079 0 
0.0777079 -5.0701 0 
0 0 0 
-5.01172 0.0733781 0 
0.0733781 -4.77437 0 
0 0 0 
-5.00676 0.0884231 0 
0.0884231 -4.77933 0 
0 0 0 
-4.99909 0.072197 0 
0.072197 -4.787 0 
0 0 0 
-4.91498 -0.0168587 0 
-0.0168587 -4.84986 0 
0 0 0 
-4.92783 0.0114113 0 
0.0114113 -4.83702 0 
0 0 0 
-4.89836 0.0135952 0 
0.0135952 -4.86649 0 
0 0 0 
-4.81564 -0.0524808 0 
-0.0524808 -5.12208 0 
0 0 0 
-4.80899 -0.0450691 0 
-0.0450691 -5.12872 0 
0 0 0 
-4.81086 -0.0475668 0 
-0.0475668 -5.12686 0 
0 0 0 
-4.59507 -0.100457 0 
-0.100457 -4.99351 0 
0 0 0 
-4.58197 -0.108522 0 
-0.108522 -5.0066 0 
0 0 0 
-4.6127 -0.11112 0 
-0.11112 -4.97587 0 
0 0 0 
-4.83584 -0.0601056 0 
-0.0601056 -4.94284 0 
0 0 0 
-4.82525 -0.0395954 0 
-0.0395954 -4.95343 0 
0 0 0 
-4.81778 -0.0583057 0 
-0.0583057 -4.9609 0 
0 0 0 
-4.83244 0.00392258 0 
0.00392258 -4.82009 0 
0 0 0 
-4.83298 0.00909374 0 
0.00909374 -4.81955 0 
0 0 0 
-4.8306 0.00204881 0 
0.00204881 -4.82193 0 
0 0 0 
-4.86192 0.0124764 0 
0.0124764 -4.79099 0 
0 0 0 
-4.84965 0.0090589 0 
0.0090589 -4.80326 0 
0 0 0 
-4.85282 -0.00442357 0 
-0.00442357 -4.80008 0 
0 0 0 
-4.78973 -0.0599192 0 
-0.0599192 -4.98906 0 
0 0 0 
-4.78777 -0.0684416 0 
-0.0684416 -4.99101 0 
0 0 0 
-4.79346 -0.0694685 0 
-0.0694685 -4.98533 0 
0 0 0 
-4.84862 0.01357 0 
0.01357 -4.99155 0 
0 0 0 
-4.86384 -0.0144823 0 
-0.0144823 -4.97633 0 
0 0 0 
-4.87424 0.0107917 0 
0.0107917 -4.96592 0 
0 0 0 
-4.69805 -0.171668 0 
-0.171668 -4.90926 0 
0 0 0 
-4.69218 -0.148803 0 
-0.148803 -4.91513 0 
0 0 0 
-4.6884 -0.170464 0 
-0.170464 -4.91891 0 
0 0 0 
-4.79705 -0.0636984 0 
-0.0636984 -4.96403 0 
0 0 0 
-4.7875 -0.0621608 0 
-0.0621608 -4.97359 0 
0 0 0 
-4.79361 -0.0758345 0 
-0.0758345 -4.96748 0 
0 0 0 
-4.87879 0.0145805 0 
0.0145805 -4.99228 0 
0 0 0 
-4.87012 0.0161166 0 
0.0161166 -5.00095 0 
0 0 0 
-4.87543 0.00753774 0 
0.00753774 -4.99564 0 
0 0 0 
-4.80381 -0.0653755 0 
-0.0653755 -5.02015 0 
0 0 0 
-4.80213 -0.0616221 0 
-0.0616221 -5.02183 0 
0 0 0 
-4.80273 -0.0640581 0 
-0.0640581 -5.02123 0 
0 0 0 
-4.90331 -0.00668591 0 
-0.00668591 -4.94026 0 
0 0 0 
-4.90597 -0.0114267 0 
-0.0114267 -4.9376 0 
0 0 0 
-4.90743 -0.00720087 0 
-0.00720087 -4.93614 0 
0 0 0 
-5.00801 0.0772472 0 
0.0772472 -4.74899 0 
0 0 0 
-5.00033 0.0760891 0 
0.0760891 -4.75667 0 
0 0 0 
-5.00303 0.0652775 0 
0.0652775 -4.75397 0 
0 0 0 
-4.68511 -0.13615 0 
-0.13615 -4.90455 0 
0 0 0 
-4.67931 -0.134678 0 
-0.134678 -4.91035 0 
0 0 0 
-4.68349 -0.152816 0 
-0.152816 -4.90618 0 
0 0 0 
-4.91096 -0.0110552 0 
-0.0110552 -4.77625 0 
0 0 0 
-4.89416 -0.0340852 0 
-0.0340852 -4.79305 0 
0 0 0 
-4.91858 -0.028784 0 
-0.028784 -4.76863 0 
0 0 0 
-4.89165 -0.0201452 0 
-0.0201452 -4.93952 0 
0 0 0 
-4.88928 -0.0254441 0 
-0.0254441 -4.94188 0 
0 0 0 
-4.89506 -0.0260483 0 
-0.0260483 -4.9361 0 
0 0 0 
-4.99519 0.0634145 0 
0.0634145 -4.77976 0 
0 0 0 
-5.00081 0.0786283 0 
0.0786283 -4.77414 0 
0 0 0 
-4.98836 0.0780471 0 
0.0780471 -4.78659 0 
0 0 0 
-4.73746 -0.0794342 0 
-0.0794342 -4.99105 0 
0 0 0 
-4.73986 -0.0825831 0 
-0.0825831 -4.98865 0 
0 0 0 
-4.73531 -0.082725 0 
-0.082725 -4.9932 0 
0 0 0 
-4.82988 0.00959279 0 
0.00959279 -4.81442 0 
0 0 0 
-4.82962 0.00725634 0 
0.00725634 -4.81468 0 
0 0 0 
-4.82773 0.0026351 0 
0.0026351 -4.81657 0 
0 0 0 
-5.0009 0.0577494 0 
0.0577494 -4.75374 0 
0 0 0 
-5.00413 0.0660851 0 
0.0660851 -4.75051 0 
0 0 0 
-4.99841 0.065669 0 
0.065669 -4.75622 0 
0 0 0 
-4.81072 0.00184469 0 
0.00184469 -4.81626 0 
0 0 0 
-4.81441 0.00318602 0 
0.00318602 -4.81257 0 
0 0 0 
-4.81665 0.00100903 0 
0.00100903 -4.81033 0 
0 0 0 
-4.68913 -0.0727104 0 
-0.0727104 -4.99309 0 
0 0 0 
-4.67732 -0.0643985 0 
-0.0643985 -5.00491 0 
0 0 0 
-4.66829 -0.0711187 0 
-0.0711187 -5.01394 0 
0 0 0 
-4.80056 -0.0643621 0 
-0.0643621 -5.01856 0 
0 0 0 
-4.79933 -0.0627732 0 
-0.0627732 -5.01979 0 
0 0 0 
-4.79958 -0.0614976 0 
-0.0614976 -5.01954 0 
0 0 0 
-4.89794 -0.0160903 0 
-0.0160903 -4.94105 0 
0 0 0 
-4.89225 -0.0155646 0 
-0.0155646 -4.94674 0 
0 0 0 
-4.89555 -0.0213675 0 
-0.0213675 -4.94344 0 
0 0 0 
-4.88333 0.00504436 0 
0.00504436 -4.99195 0 
0 0 0 
-4.87796 0.0133965 0 
0.0133965 -4.99732 0 
0 0 0 
-4.87465 0.00630077 0 
0.00630077 -5.00063 0 
0 0 0 
-4.85799 -0.000232288 0 
-0.000232288 -5.00427 0 
0 0 0 
-4.86248 0.00848519 0 
0.00848519 -4.99977 0 
0 0 0 
-4.85154 0.00963654 0 
0.00963654 -5.01072 0 
0 0 0 
-4.81507 -0.0712568 0 
-0.0712568 -5.02137 0 
0 0 0 
-4.8117 -0.0655453 0 
-0.0655453 -5.02474 0 
0 0 0 
-4.80693 -0.0720675 0 
-0.0720675 -5.02951 0 
0 0 0 
-4.83934 -0.133975 0 
-0.133975 -5.04633 0 
0 0 0 
-4.84857 -0.155054 0 
-0.155054 -5.03711 0 
0 0 0 
-4.86117 -0.132022 0 
-0.132022 -5.0245 0 
0 0 0 
-4.91305 -0.00438445 0 
-0.00438445 -4.93334 0 
0 0 0 
-4.90954 -0.00380445 0 
-0.00380445 -4.93686 0 
0 0 0 
-4.91156 -0.00771617 0 
-0.00771617 -4.93484 0 
0 0 0 
-4.89748 -0.00154426 0 
-0.00154426 -4.77349 0 
0 0 0 
-4.87685 -0.00544612 0 
-0.00544612 -4.79411 0 
0 0 0 
-4.88379 -0.0238519 0 
-0.0238519 -4.78718 0 
0 0 0 
-4.35203 -0.505506 0 
-0.505506 -4.8446 0 
0 0 0 
-4.3337 -0.395466 0 
-0.395466 -4.86293 0 
0 0 0 
-4.29996 -0.51824 0 
-0.51824 -4.89668 0 
0 0 0 
-5.01262 0.0625283 0 
0.0625283 -4.75093 0 
0 0 0 
-5.01143 0.0690613 0 
0.0690613 -4.75211 0 
0 0 0 
-5.0087 0.0616673 0 
0.0616673 -4.75484 0 
0 0 0 
-4.25771 -0.344511 0 
-0.344511 -4.83436 0 
0 0 0 
-4.27033 -0.345193 0 
-0.345193 -4.82174 0 
0 0 0 
-4.26347 -0.393265 0 
-0.393265 -4.8286 0 
0 0 0 
-4.71534 -0.0740476 0 
-0.0740476 -4.98536 0 
0 0 0 
-4.70918 -0.0725205 0 
-0.0725205 -4.99153 0 
0 0 0 
-4.70392 -0.0735218 0 
-0.0735218 -4.99679 0 
0 0 0 
-4.93424 -0.0779234 0 
-0.0779234 -4.84559 0 
0 0 0 
-4.93386 -0.077832 0 
-0.077832 -4.84596 0 
0 0 0 
-4.9293 -0.0803426 0 
-0.0803426 -4.85053 0 
0 0 0 
-4.91332 -0.155859 0 
-0.155859 -4.92885 0 
0 0 0 
-4.92173 -0.136182 0 
-0.136182 -4.92044 0 
0 0 0 
-4.9041 -0.135713 0 
-0.135713 -4.93807 0 
0 0 0 
-4.87112 0.0133858 0 
0.0133858 -4.77584 0 
0 0 0 
-4.85683 -0.00894438 0 
-0.00894438 -4.79013 0 
0 0 0 
-4.87658 -0.0038531 0 
-0.0038531 -4.77038 0 
0 0 0 
-4.89584 -0.0207406 0 
-0.0207406 -4.93294 0 
0 0 0 
-4.89838 -0.0254021 0 
-0.0254021 -4.9304 0 
0 0 0 
-4.90025 -0.0211712 0 
-0.0211712 -4.92853 0 
0 0 0 
-4.7706 -0.0129525 0 
-0.0129525 -4.76985 0 
0 0 0 
-4.78295 -0.00742806 0 
-0.00742806 -4.7575 0 
0 0 0 
-4.75909 -0.0079123 0 
-0.0079123 -4.78136 0 
0 0 0 
-4.71553 -0.0828936 0 
-0.0828936 -4.99672 0 
0 0 0 
-4.70356 -0.0824688 0 
-0.0824688 -5.00869 0 
0 0 0 
-4.70992 -0.0843974 0 
-0.0843974 -5.00233 0 
0 0 0 
-4.80476 -0.070655 0 
-0.070655 -5.02805 0 
0 0 0 
-4.80768 -0.0682386 0 
-0.0682386 -5.02513 0 
0 0 0 
-4.80382 -0.0693766 0 
-0.0693766 -5.029 0 
0 0 0 
-4.8084 -0.0760016 0 
-0.0760016 -5.03441 0 
0 0 0 
-4.81413 -0.074705 0 
-0.074705 -5.02868 0 
0 0 0 
-4.81238 -0.0712786 0 
-0.0712786 -5.03042 0 
0 0 0 
-4.91557 -0.0810098 0 
-0.0810098 -4.85157 0 
0 0 0 
-4.918 -0.0810321 0 
-0.0810321 -4.84914 0 
0 0 0 
-4.91665 -0.0830598 0 
-0.0830598 -4.85049 0 
0 0 0 
-5.00507 0.095169 0 
0.095169 -4.78142 0 
0 0 0 
-4.9904 0.0944594 0 
0.0944594 -4.79608 0 
0 0 0 
-4.99661 0.075348 0 
0.075348 -4.78988 0 
0 0 0 
-4.90837 -0.00355075 0 
-0.00355075 -4.93916 0 
0 0 0 
-4.90687 -0.00746236 0 
-0.00746236 -4.94065 0 
0 0 0 
-4.91066 -0.00810297 0 
-0.00810297 -4.93686 0 
0 0 0 
-4.82917 -0.086351 0 
-0.086351 -5.11685 0 
0 0 0 
-4.83029 -0.0826945 0 
-0.0826945 -5.11573 0 
0 0 0 
-4.82411 -0.0905608 0 
-0.0905608 -5.12191 0 
0 0 0 
-4.80638 -0.0676464 0 
-0.0676464 -5.02982 0 
0 0 0 
-4.80741 -0.066092 0 
-0.066092 -5.02879 0 
0 0 0 
-4.80824 -0.0676718 0 
-0.0676718 -5.02796 0 
0 0 0 
-4.70861 -0.00160753 0 
-0.00160753 -4.72641 0 
0 0 0 
-4.726 -0.00582312 0 
-0.00582312 -4.70902 0 
0 0 0 
-4.74226 -0.00225308 0 
-0.00225308 -4.69276 0 
0 0 0 
-4.7966 -0.0624457 0 
-0.0624457 -5.01352 0 
0 0 0 
-4.79808 -0.0635117 0 
-0.0635117 -5.01205 0 
0 0 0 
-4.79642 -0.0589562 0 
-0.0589562 -5.01371 0 
0 0 0 
-4.98442 0.0663418 0 
0.0663418 -4.81331 0 
0 0 0 
-4.99926 0.0688647 0 
0.0688647 -4.79848 0 
0 0 0 
-4.99237 0.0836833 0 
0.0836833 -4.80536 0 
0 0 0 
-4.04148 -0.470351 0 
-0.470351 -4.89266 0 
0 0 0 
-4.02412 -0.421408 0 
-0.421408 -4.91003 0 
0 0 0 
-4.08348 -0.433788 0 
-0.433788 -4.85067 0 
0 0 0 
-4.96303 -0.0262908 0 
-0.0262908 -4.65608 0 
0 0 0 
-4.98631 -0.059704 0 
-0.059704 -4.63279 0 
0 0 0 
-4.9983 -0.0328089 0 
-0.0328089 -4.6208 0 
0 0 0 
-4.83883 0.0127237 0 
0.0127237 -5.02017 0 
0 0 0 
-4.84595 0.00256066 0 
0.00256066 -5.01305 0 
0 0 0 
-4.85093 0.0115882 0 
0.0115882 -5.00807 0 
0 0 0 
-4.82986 -0.0446092 0 
-0.0446092 -4.96143 0 
0 0 0 
-4.81386 -0.0424914 0 
-0.0424914 -4.97742 0 
0 0 0 
-4.82369 -0.0612801 0 
-0.0612801 -4.96759 0 
0 0 0 
-4.89053 -0.0248397 0 
-0.0248397 -4.94145 0 
0 0 0 
-4.89383 -0.0306751 0 
-0.0306751 -4.93816 0 
0 0 0 
-4.8963 -0.025313 0 
-0.025313 -4.93568 0 
0 0 0 
-4.79648 -0.0637433 0 
-0.0637433 -4.99881 0 
0 0 0 
-4.8031 -0.064987 0 
-0.064987 -4.99219 0 
0 0 0 
-4.79871 -0.0552128 0 
-0.0552128 -4.99658 0 
0 0 0 
-4.80062 -0.0653044 0 
-0.0653044 -5.00369 0 
0 0 0 
-4.80171 -0.0587033 0 
-0.0587033 -5.0026 0 
0 0 0 
-4.79693 -0.0572077 0 
-0.0572077 -5.00738 0 
0 0 0 
-4.81943 -0.0653426 0 
-0.0653426 -5.01647 0 
0 0 0 
-4.80966 -0.0658948 0 
-0.0658948 -5.02624 0 
0 0 0 
-4.81406 -0.0731939 0 
-0.0731939 -5.02183 0 
0 0 0 
-4.90244 -0.0160031 0 
-0.0160031 -4.92791 0 
0 0 0 
-4.8982 -0.0156533 0 
-0.0156533 -4.93215 0 
0 0 0 
-4.90071 -0.0200569 0 
-0.0200569 -4.92964 0 
0 0 0 
-4.77691 -0.0661027 0 
-0.0661027 -4.98527 0 
0 0 0 
-4.77574 -0.0738549 0 
-0.0738549 -4.98643 0 
0 0 0 
-4.77946 -0.0746546 0 
-0.0746546 -4.98272 0 
0 0 0 
-4.81979 -0.0602247 0 
-0.0602247 -4.97696 0 
0 0 0 
-4.81218 -0.045245 0 
-0.045245 -4.98457 0 
0 0 0 
-4.80741 -0.0585932 0 
-0.0585932 -4.98934 0 
0 0 0 
-4.77422 -0.0634848 0 
-0.0634848 -4.98866 0 
0 0 0 
-4.77632 -0.0709586 0 
-0.0709586 -4.98656 0 
0 0 0 
-4.77678 -0.0644385 0 
-0.0644385 -4.98611 0 
0 0 0 
-4.81681 -0.0509159 0 
-0.0509159 -4.99322 0 
0 0 0 
-4.80663 -0.0489627 0 
-0.0489627 -5.00341 0 
0 0 0 
-4.81341 -0.0620388 0 
-0.0620388 -4.99662 0 
0 0 0 
-4.80887 -0.0640358 0 
-0.0640358 -5.02136 0 
0 0 0 
-4.80199 -0.0647653 0 
-0.0647653 -5.02823 0 
0 0 0 
-4.8048 -0.0689036 0 
-0.0689036 -5.02543 0 
0 0 0 
-4.75817 -0.0679186 0 
-0.0679186 -4.98386 0 
0 0 0 
-4.75854 -0.0737562 0 
-0.0737562 -4.98348 0 
0 0 0 
-4.75785 -0.0685358 0 
-0.0685358 -4.98418 0 
0 0 0 
-4.80591 -0.0665097 0 
-0.0665097 -5.02389 0 
0 0 0 
-4.80451 -0.064699 0 
-0.064699 -5.02529 0 
0 0 0 
-4.8013 -0.0675598 0 
-0.0675598 -5.02851 0 
0 0 0 
-4.82193 -0.0845158 0 
-0.0845158 -5.01976 0 
0 0 0 
-4.828 -0.0750619 0 
-0.0750619 -5.01369 0 
0 0 0 
-4.81709 -0.0757694 0 
-0.0757694 -5.02461 0 
0 0 0 
-4.80532 -0.0680727 0 
-0.0680727 -4.98033 0 
0 0 0 
-4.80896 -0.0561537 0 
-0.0561537 -4.9767 0 
0 0 0 
-4.7987 -0.0544269 0 
-0.0544269 -4.98696 0 
0 0 0 
-4.80907 -0.0620801 0 
-0.0620801 -5.00286 0 
0 0 0 
-4.80448 -0.0527993 0 
-0.0527993 -5.00744 0 
0 0 0 
-4.80246 -0.0606026 0 
-0.0606026 -5.00947 0 
0 0 0 
-4.80097 -0.062788 0 
-0.062788 -5.02075 0 
0 0 0 
-4.79789 -0.0636869 0 
-0.0636869 -5.02383 0 
0 0 0 
-4.79865 -0.063825 0 
-0.063825 -5.02307 0 
0 0 0 
-4.80904 -0.0588906 0 
-0.0588906 -5.01618 0 
0 0 0 
-4.80466 -0.0571197 0 
-0.0571197 -5.02057 0 
0 0 0 
-4.80838 -0.0643263 0 
-0.0643263 -5.01684 0 
0 0 0 
-4.82615 -0.0747737 0 
-0.0747737 -5.01332 0 
0 0 0 
-4.82129 -0.0661098 0 
-0.0661098 -5.01817 0 
0 0 0 
-4.81548 -0.0753322 0 
-0.0753322 -5.02398 0 
0 0 0 
-4.82604 -0.00056215 0 
-0.00056215 -4.83083 0 
0 0 0 
-4.82176 -0.000421424 0 
-0.000421424 -4.83511 0 
0 0 0 
-4.82409 4.50731e-05 0 
4.50731e-05 -4.83278 0 
0 0 0 
-4.89644 -0.017095 0 
-0.017095 -4.9317 0 
0 0 0 
-4.89467 -0.0214021 0 
-0.0214021 -4.93346 0 
0 0 0 
-4.89932 -0.0219807 0 
-0.0219807 -4.92881 0 
0 0 0 
-4.92249 -0.0607391 0 
-0.0607391 -4.82247 0 
0 0 0 
-4.91451 -0.0632845 0 
-0.0632845 -4.83045 0 
0 0 0 
-4.91629 -0.0674973 0 
-0.0674973 -4.82866 0 
0 0 0 
-4.68157 -0.0442159 0 
-0.0442159 -5.05504 0 
0 0 0 
-4.69765 -0.0224183 0 
-0.0224183 -5.03896 0 
0 0 0 
-4.66067 -0.0198916 0 
-0.0198916 -5.07594 0 
0 0 0 
-4.61802 -0.0592123 0 
-0.0592123 -5.06992 0 
0 0 0 
-4.63989 -0.0820472 0 
-0.0820472 -5.04805 0 
0 0 0 
-4.65695 -0.0619361 0 
-0.0619361 -5.03099 0 
0 0 0 
-4.84507 0.00146348 0 
0.00146348 -5.01917 0 
0 0 0 
-4.85682 0.000103344 0 
0.000103344 -5.00743 0 
0 0 0 
-4.84977 0.0104233 0 
0.0104233 -5.01447 0 
0 0 0 
-4.64448 -0.126882 0 
-0.126882 -4.99735 0 
0 0 0 
-4.65261 -0.126333 0 
-0.126333 -4.98922 0 
0 0 0 
-4.65941 -0.127639 0 
-0.127639 -4.98242 0 
0 0 0 
-4.65105 -0.0075784 0 
-0.0075784 -5.08369 0 
0 0 0 
-4.69706 -0.0122732 0 
-0.0122732 -5.03768 0 
0 0 0 
-4.66934 0.0180463 0 
0.0180463 -5.0654 0 
0 0 0 
-4.72786 -0.0927817 0 
-0.0927817 -4.9525 0 
0 0 0 
-4.72673 -0.0919998 0 
-0.0919998 -4.95362 0 
0 0 0 
-4.72797 -0.101741 0 
-0.101741 -4.95239 0 
0 0 0 
-4.82644 0.00161119 0 
0.00161119 -4.76337 0 
0 0 0 
-4.84329 0.00777369 0 
0.00777369 -4.74653 0 
0 0 0 
-4.8402 0.0260515 0 
0.0260515 -4.74961 0 
0 0 0 
-4.69251 -0.107462 0 
-0.107462 -4.95751 0 
0 0 0 
-4.68965 -0.101678 0 
-0.101678 -4.96037 0 
0 0 0 
-4.695 -0.10147 0 
-0.10147 -4.95502 0 
0 0 0 
-4.71418 0.00239782 0 
0.00239782 -5.06783 0 
0 0 0 
-4.72933 0.031121 0 
0.031121 -5.05268 0 
0 0 0 
-4.68568 0.0404541 0 
0.0404541 -5.09633 0 
0 0 0 
-4.76392 -0.101581 0 
-0.101581 -4.95033 0 
0 0 0 
-4.75966 -0.0880227 0 
-0.0880227 -4.95459 0 
0 0 0 
-4.75707 -0.100616 0 
-0.100616 -4.95718 0 
0 0 0 
-4.73397 -0.112753 0 
-0.112753 -4.95679 0 
0 0 0 
-4.73214 -0.101422 0 
-0.101422 -4.95861 0 
0 0 0 
-4.73147 -0.112091 0 
-0.112091 -4.95929 0 
0 0 0 
-4.83082 0.00104699 0 
0.00104699 -4.83505 0 
0 0 0 
-4.83172 0.0048035 0 
0.0048035 -4.83415 0 
0 0 0 
-4.83254 0.00322966 0 
0.00322966 -4.83334 0 
0 0 0 
-4.82152 -0.0127591 0 
-0.0127591 -4.83496 0 
0 0 0 
-4.83013 -0.0122972 0 
-0.0122972 -4.82635 0 
0 0 0 
-4.82617 -0.00986584 0 
-0.00986584 -4.83031 0 
0 0 0 
-4.62772 -0.0620964 0 
-0.0620964 -5.04115 0 
0 0 0 
-4.66239 -0.0653268 0 
-0.0653268 -5.00647 0 
0 0 0 
-4.64218 -0.0466293 0 
-0.0466293 -5.02668 0 
0 0 0 
-4.69482 -0.12198 0 
-0.12198 -4.9714 0 
0 0 0 
-4.69683 -0.114579 0 
-0.114579 -4.9694 0 
0 0 0 
-4.69909 -0.121831 0 
-0.121831 -4.96714 0 
0 0 0 
-4.81444 -0.00938036 0 
-0.00938036 -4.83164 0 
0 0 0 
-4.81861 -0.0114758 0 
-0.0114758 -4.82746 0 
0 0 0 
-4.82453 -0.00829812 0 
-0.00829812 -4.82155 0 
0 0 0 
-4.89951 -0.017108 0 
-0.017108 -4.92552 0 
0 0 0 
-4.90151 -0.0208556 0 
-0.0208556 -4.92352 0 
0 0 0 
-4.90293 -0.017461 0 
-0.017461 -4.92209 0 
0 0 0 
-4.64846 -0.108355 0 
-0.108355 -4.97025 0 
0 0 0 
-4.6415 -0.10783 0 
-0.10783 -4.97721 0 
0 0 0 
-4.65682 -0.10863 0 
-0.10863 -4.96188 0 
0 0 0 
-4.68729 -0.0774024 0 
-0.0774024 -5.01051 0 
0 0 0 
-4.66448 -0.0761303 0 
-0.0761303 -5.03332 0 
0 0 0 
-4.67704 -0.0861373 0 
-0.0861373 -5.02077 0 
0 0 0 
-4.80167 0.0107245 0 
0.0107245 -4.77982 0 
0 0 0 
-4.80276 0.00448617 0 
0.00448617 -4.77873 0 
0 0 0 
-4.79686 0.00663181 0 
0.00663181 -4.78463 0 
0 0 0 
-4.90018 -0.0143351 0 
-0.0143351 -4.92484 0 
0 0 0 
-4.89882 -0.0178886 0 
-0.0178886 -4.92621 0 
0 0 0 
-4.9027 -0.0183482 0 
-0.0183482 -4.92233 0 
0 0 0 
-4.78543 0.0100642 0 
0.0100642 -4.77679 0 
0 0 0 
-4.79754 0.00628605 0 
0.00628605 -4.76467 0 
0 0 0 
-4.78822 0.00581279 0 
0.00581279 -4.774 0 
0 0 0 
-4.82693 0.0138778 0 
0.0138778 -4.7864 0 
0 0 0 
-4.82591 0.00376136 0 
0.00376136 -4.78742 0 
0 0 0 
-4.83161 0.0177543 0 
0.0177543 -4.78172 0 
0 0 0 
-4.838 -0.0112607 0 
-0.0112607 -4.71963 0 
0 0 0 
-4.87734 0.000151212 0 
0.000151212 -4.68029 0 
0 0 0 
-4.86755 0.0331003 0 
0.0331003 -4.69008 0 
0 0 0 
-5.06113 0.0602777 0 
0.0602777 -5.43601 0 
0 0 0 
-5.06689 0.0602359 0 
0.0602359 -5.43025 0 
0 0 0 
-5.03507 0.0385731 0 
0.0385731 -5.46207 0 
0 0 0 
-4.7879 0.0267972 0 
0.0267972 -4.72528 0 
0 0 0 
-4.78395 0.00953575 0 
0.00953575 -4.72923 0 
0 0 0 
-4.78316 0.0145499 0 
0.0145499 -4.73002 0 
0 0 0 
-4.82693 0.0235428 0 
0.0235428 -4.74416 0 
0 0 0 
-4.83106 -0.00129291 0 
-0.00129291 -4.74003 0 
0 0 0 
-4.84676 0.0302273 0 
0.0302273 -4.72433 0 
0 0 0 
-4.87434 -0.0285829 0 
-0.0285829 -4.58307 0 
0 0 0 
-4.9019 -0.100866 0 
-0.100866 -4.55552 0 
0 0 0 
-4.96186 -0.00987142 0 
-0.00987142 -4.49555 0 
0 0 0 
-4.76689 0.0280712 0 
0.0280712 -4.71963 0 
0 0 0 
-4.77993 0.0197687 0 
0.0197687 -4.70659 0 
0 0 0 
-4.76622 0.0144005 0 
0.0144005 -4.7203 0 
0 0 0 
-4.8816 -0.0551836 0 
-0.0551836 -4.67538 0 
0 0 0 
-4.95378 -0.0365705 0 
-0.0365705 -4.6032 0 
0 0 0 
-4.93381 0.0115402 0 
0.0115402 -4.62317 0 
0 0 0 
-4.83814 0.024954 0 
0.024954 -4.67996 0 
0 0 0 
-4.85447 -0.0267463 0 
-0.0267463 -4.66363 0 
0 0 0 
-4.89014 0.0361215 0 
0.0361215 -4.62796 0 
0 0 0 
-4.98265 -0.155062 0 
-0.155062 -4.64982 0 
0 0 0 
-5.03948 -0.134892 0 
-0.134892 -4.59299 0 
0 0 0 
-5.02853 -0.117087 0 
-0.117087 -4.60394 0 
0 0 0 
-4.79113 0.0586084 0 
0.0586084 -4.62851 0 
0 0 0 
-4.7607 0.00602223 0 
0.00602223 -4.65895 0 
0 0 0 
-4.79266 0.0227111 0 
0.0227111 -4.62699 0 
0 0 0 
-4.87214 0.0656914 0 
0.0656914 -4.48906 0 
0 0 0 
-4.79256 -0.0412485 0 
-0.0412485 -4.56864 0 
0 0 0 
-4.89284 -0.00724985 0 
-0.00724985 -4.46837 0 
0 0 0 
-4.8062 0.0821014 0 
0.0821014 -4.56119 0 
0 0 0 
-4.7522 0.0639598 0 
0.0639598 -4.61518 0 
0 0 0 
-4.76349 -0.0114983 0 
-0.0114983 -4.6039 0 
0 0 0 
-5.07506 -0.0505442 0 
-0.0505442 -5.45146 0 
0 0 0 
-5.0661 -0.0494292 0 
-0.0494292 -5.46042 0 
0 0 0 
-5.0474 -0.0282925 0 
-0.0282925 -5.47911 0 
0 0 0 
-4.99793 -0.427994 0 
-0.427994 -4.87655 0 
0 0 0 
-4.95059 -0.26557 0 
-0.26557 -4.92389 0 
0 0 0 
-4.90156 -0.428977 0 
-0.428977 -4.97293 0 
0 0 0 
-5.33913 -0.00134501 0 
-0.00134501 -5.54016 0 
0 0 0 
-5.35188 -0.00479263 0 
-0.00479263 -5.5274 0 
0 0 0 
-5.37887 -0.0351023 0 
-0.0351023 -5.50041 0 
0 0 0 
-5.07719 -0.284077 0 
-0.284077 -4.69749 0 
0 0 0 
-4.93655 -0.267348 0 
-0.267348 -4.83813 0 
0 0 0 
-5.02136 -0.433139 0 
-0.433139 -4.75332 0 
0 0 0 
-4.9538 -0.253109 0 
-0.253109 -4.48668 0 
0 0 0 
-4.92013 -0.21368 0 
-0.21368 -4.52035 0 
0 0 0 
-4.94347 -0.220195 0 
-0.220195 -4.49701 0 
0 0 0 
-5.17701 -0.0131249 0 
-0.0131249 -5.50806 0 
0 0 0 
-5.2155 -0.0481608 0 
-0.0481608 -5.46956 0 
0 0 0 
-5.20951 -0.0388118 0 
-0.0388118 -5.47555 0 
0 0 0 
-4.95294 -0.305254 0 
-0.305254 -5.26763 0 
0 0 0 
-4.96071 -0.251625 0 
-0.251625 -5.25986 0 
0 0 0 
-4.93881 -0.322386 0 
-0.322386 -5.28177 0 
0 0 0 
-4.90416 0.0527017 0 
0.0527017 -4.29249 0 
0 0 0 
-4.77102 0.0169542 0 
0.0169542 -4.42563 0 
0 0 0 
-4.80663 -0.113442 0 
-0.113442 -4.39002 0 
0 0 0 
-4.88682 -0.272779 0 
-0.272779 -5.30568 0 
0 0 0 
-4.87996 -0.240762 0 
-0.240762 -5.31254 0 
0 0 0 
-4.92695 -0.25997 0 
-0.25997 -5.26555 0 
0 0 0 
-5.38871 -0.0134339 0 
-0.0134339 -5.50659 0 
0 0 0 
-5.36444 -0.000347313 0 
-0.000347313 -5.53086 0 
0 0 0 
-5.39351 0.0173684 0 
0.0173684 -5.50179 0 
0 0 0 
-5.16937 -0.0196212 0 
-0.0196212 -5.49977 0 
0 0 0 
-5.19083 -0.0473233 0 
-0.0473233 -5.47832 0 
0 0 0 
-5.15611 -0.0199898 0 
-0.0199898 -5.51304 0 
0 0 0 
-5.03188 0.042562 0 
0.042562 -5.42333 0 
0 0 0 
-5.01977 0.018097 0 
0.018097 -5.43544 0 
0 0 0 
-5.00464 0.0296152 0 
0.0296152 -5.45057 0 
0 0 0 
-4.9512 -0.29804 0 
-0.29804 -5.03268 0 
0 0 0 
-4.87601 -0.303882 0 
-0.303882 -5.10787 0 
0 0 0 
-4.90855 -0.410639 0 
-0.410639 -5.07533 0 
0 0 0 
-5.0714 -0.105652 0 
-0.105652 -4.40067 0 
0 0 0 
-4.93328 -0.230284 0 
-0.230284 -4.53878 0 
0 0 0 
-5.1021 -0.168267 0 
-0.168267 -4.36997 0 
0 0 0 
-4.9134 -0.515018 0 
-0.515018 -4.93175 0 
0 0 0 
-4.97443 -0.338682 0 
-0.338682 -4.87072 0 
0 0 0 
-4.86147 -0.343933 0 
-0.343933 -4.98368 0 
0 0 0 
-4.82304 -0.524827 0 
-0.524827 -4.50884 0 
0 0 0 
-4.96221 -0.573506 0 
-0.573506 -4.36968 0 
0 0 0 
-4.85047 -0.108909 0 
-0.108909 -4.48142 0 
0 0 0 
-4.92653 -0.41781 0 
-0.41781 -5.28925 0 
0 0 0 
-4.97997 -0.394004 0 
-0.394004 -5.23581 0 
0 0 0 
-4.97386 -0.246868 0 
-0.246868 -5.24191 0 
0 0 0 
-5.10668 -0.126198 0 
-0.126198 -5.40237 0 
0 0 0 
-4.96291 -0.0974013 0 
-0.0974013 -5.54613 0 
0 0 0 
-5.05973 -0.199435 0 
-0.199435 -5.44931 0 
0 0 0 
-5.14119 0.0217227 0 
0.0217227 -5.49677 0 
0 0 0 
-5.18351 0.0511765 0 
0.0511765 -5.45445 0 
0 0 0 
-5.15266 0.0201162 0 
0.0201162 -5.48529 0 
0 0 0 
-5.01566 -0.104565 0 
-0.104565 -5.46926 0 
0 0 0 
-5.00625 -0.119347 0 
-0.119347 -5.47867 0 
0 0 0 
-5.09072 -0.157249 0 
-0.157249 -5.39421 0 
0 0 0 
-5.17198 -0.0683454 0 
-0.0683454 -5.45981 0 
0 0 0 
-5.109 -0.0400326 0 
-0.0400326 -5.52279 0 
0 0 0 
-5.16501 -0.0947349 0 
-0.0947349 -5.46678 0 
0 0 0 
-4.90762 -0.221456 0 
-0.221456 -5.28578 0 
0 0 0 
-4.91621 -0.238165 0 
-0.238165 -5.27719 0 
0 0 0 
-4.89744 -0.258508 0 
-0.258508 -5.29595 0 
0 0 0 
-4.99722 -0.0679969 0 
-0.0679969 -5.4489 0 
0 0 0 
-5.02291 -0.0919336 0 
-0.0919336 -5.42321 0 
0 0 0 
-4.98933 -0.069149 0 
-0.069149 -5.45679 0 
0 0 0 
-4.95915 -0.166966 0 
-0.166966 -5.43261 0 
0 0 0 
-4.99539 -0.180405 0 
-0.180405 -5.39637 0 
0 0 0 
-4.99713 -0.186885 0 
-0.186885 -5.39463 0 
0 0 0 
-5.04295 -0.109843 0 
-0.109843 -5.44226 0 
0 0 0 
-5.04483 -0.0992899 0 
-0.0992899 -5.44038 0 
0 0 0 
-5.00467 -0.0782723 0 
-0.0782723 -5.48054 0 
0 0 0 
-5.16129 -0.0876743 0 
-0.0876743 -5.45684 0 
0 0 0 
-5.11098 -0.0463668 0 
-0.0463668 -5.50715 0 
0 0 0 
-5.11341 -0.0572192 0 
-0.0572192 -5.50472 0 
0 0 0 
-4.83785 0.00140317 0 
0.00140317 -4.82212 0 
0 0 0 
-4.83798 -0.00439118 0 
-0.00439118 -4.82199 0 
0 0 0 
-4.84155 -0.00678015 0 
-0.00678015 -4.81842 0 
0 0 0 
-4.94538 -0.136376 0 
-0.136376 -5.40711 0 
0 0 0 
-4.97805 -0.158538 0 
-0.158538 -5.37445 0 
0 0 0 
-4.94252 -0.142833 0 
-0.142833 -5.40997 0 
0 0 0 
-5.40837 -0.0148515 0 
-0.0148515 -5.48547 0 
0 0 0 
-5.39407 0.0126711 0 
0.0126711 -5.49977 0 
0 0 0 
-5.42506 -0.0116854 0 
-0.0116854 -5.46878 0 
0 0 0 
-4.81356 0.003744 0 
0.003744 -4.81261 0 
0 0 0 
-4.80965 0.0034482 0 
0.0034482 -4.81653 0 
0 0 0 
-4.81771 0.00318984 0 
0.00318984 -4.80846 0 
0 0 0 
-5.35987 -0.00177859 0 
-0.00177859 -5.53341 0 
0 0 0 
-5.37975 0.00572004 0 
0.00572004 -5.51352 0 
0 0 0 
-5.38918 -0.0226817 0 
-0.0226817 -5.50409 0 
0 0 0 
-5.21163 0.00230515 0 
0.00230515 -5.49261 0 
0 0 0 
-5.23806 -0.0170347 0 
-0.0170347 -5.46618 0 
0 0 0 
-5.22133 -0.0226174 0 
-0.0226174 -5.48291 0 
0 0 0 
-4.82036 -0.00433089 0 
-0.00433089 -4.81482 0 
0 0 0 
-4.82065 -0.000811256 0 
-0.000811256 -4.81452 0 
0 0 0 
-4.82363 -0.00281142 0 
-0.00281142 -4.81154 0 
0 0 0 
-5.20699 -0.00794285 0 
-0.00794285 -5.48837 0 
0 0 0 
-5.2202 0.018045 0 
0.018045 -5.47517 0 
0 0 0 
-5.2361 0.0128334 0 
0.0128334 -5.45926 0 
0 0 0 
-4.82442 -0.000868279 0 
-0.000868279 -4.81911 0 
0 0 0 
-4.82473 9.42166e-05 0 
9.42166e-05 -4.8188 0 
0 0 0 
-4.82525 -0.00488917 0 
-0.00488917 -4.81828 0 
0 0 0 
-5.41963 -0.00994058 0 
-0.00994058 -5.4827 0 
0 0 0 
-5.40856 0.0181012 0 
0.0181012 -5.49378 0 
0 0 0 
-5.43838 -0.00667778 0 
-0.00667778 -5.46396 0 
0 0 0 
-5.00238 0.10919 0 
0.10919 -5.36795 0 
0 0 0 
-4.98064 0.0856896 0 
0.0856896 -5.38968 0 
0 0 0 
-4.97116 0.100875 0 
0.100875 -5.39916 0 
0 0 0 
-5.02828 0.144184 0 
0.144184 -5.383 0 
0 0 0 
-5.03221 0.131083 0 
0.131083 -5.37907 0 
0 0 0 
-4.99956 0.12306 0 
0.12306 -5.41173 0 
0 0 0 
-5.06637 0.0119894 0 
0.0119894 -5.46415 0 
0 0 0 
-5.08325 0.00126439 0 
0.00126439 -5.44727 0 
0 0 0 
-5.06314 -0.00936807 0 
-0.00936807 -5.46739 0 
0 0 0 
-4.95222 0.190101 0 
0.190101 -5.26442 0 
0 0 0 
-4.94881 0.17115 0 
0.17115 -5.26783 0 
0 0 0 
-4.9341 0.213361 0 
0.213361 -5.28254 0 
0 0 0 
-4.98048 0.277077 0 
0.277077 -5.26643 0 
0 0 0 
-5.00467 0.205218 0 
0.205218 -5.24224 0 
0 0 0 
-4.99609 0.258159 0 
0.258159 -5.25082 0 
0 0 0 
-5.15961 0.0162441 0 
0.0162441 -5.49428 0 
0 0 0 
-5.20248 0.0454852 0 
0.0454852 -5.45141 0 
0 0 0 
-5.20636 0.0558291 0 
0.0558291 -5.44752 0 
0 0 0 
-4.91587 0.261048 0 
0.261048 -5.08874 0 
0 0 0 
-4.99012 0.252452 0 
0.252452 -5.01448 0 
0 0 0 
-4.94555 0.366943 0 
0.366943 -5.05905 0 
0 0 0 
-5.06551 0.0739116 0 
0.0739116 -5.4553 0 
0 0 0 
-5.13434 0.117595 0 
0.117595 -5.38647 0 
0 0 0 
-5.06482 0.0782506 0 
0.0782506 -5.45599 0 
0 0 0 
-4.94581 0.392606 0 
0.392606 -4.95946 0 
0 0 0 
-4.99747 0.225986 0 
0.225986 -4.9078 0 
0 0 0 
-5.04243 0.388733 0 
0.388733 -4.86285 0 
0 0 0 
-5.0312 0.0643701 0 
0.0643701 -5.51273 0 
0 0 0 
-5.1572 0.0951226 0 
0.0951226 -5.38673 0 
0 0 0 
-5.12083 0.155442 0 
0.155442 -5.4231 0 
0 0 0 
-4.9727 0.234059 0 
0.234059 -4.81068 0 
0 0 0 
-5.11872 0.248361 0 
0.248361 -4.66467 0 
0 0 0 
-5.0581 0.406441 0 
0.406441 -4.72529 0 
0 0 0 
-4.9484 0.229574 0 
0.229574 -5.29629 0 
0 0 0 
-4.99087 0.217597 0 
0.217597 -5.25382 0 
0 0 0 
-4.94742 0.193642 0 
0.193642 -5.29727 0 
0 0 0 
-4.98526 0.196276 0 
0.196276 -4.46152 0 
0 0 0 
-4.96408 0.180815 0 
0.180815 -4.4827 0 
0 0 0 
-4.99791 0.228034 0 
0.228034 -4.44887 0 
0 0 0 
-5.04177 0.338923 0 
0.338923 -5.22594 0 
0 0 0 
-4.99763 0.366384 0 
0.366384 -5.27009 0 
0 0 0 
-5.04348 0.207422 0 
0.207422 -5.22423 0 
0 0 0 
-5.07863 0.107137 0 
0.107137 -4.54271 0 
0 0 0 
-5.02545 0.126934 0 
0.126934 -4.59589 0 
0 0 0 
-5.06919 0.096307 0 
0.096307 -4.55216 0 
0 0 0 
-4.96431 0.469488 0 
0.469488 -4.92686 0 
0 0 0 
-4.92246 0.306156 0 
0.306156 -4.96871 0 
0 0 0 
-5.02564 0.294909 0 
0.294909 -4.86553 0 
0 0 0 
-5.0023 -0.0174071 0 
-0.0174071 -4.43044 0 
0 0 0 
-4.93962 0.072605 0 
0.072605 -4.49312 0 
0 0 0 
-4.91107 0.00230038 0 
0.00230038 -4.52167 0 
0 0 0 
-5.01902 0.538685 0 
0.538685 -4.36021 0 
0 0 0 
-4.88489 0.49443 0 
0.49443 -4.49434 0 
0 0 0 
-4.91363 0.0671085 0 
0.0671085 -4.4656 0 
0 0 0 
-4.99316 0.00957683 0 
0.00957683 -4.53272 0 
0 0 0 
-4.91548 0.0292304 0 
0.0292304 -4.6104 0 
0 0 0 
-4.97134 -0.0395041 0 
-0.0395041 -4.55454 0 
0 0 0 
-5.11888 0.0789772 0 
0.0789772 -4.36757 0 
0 0 0 
-5.15275 0.137323 0 
0.137323 -4.33369 0 
0 0 0 
-4.98184 0.196886 0 
0.196886 -4.50461 0 
0 0 0 
-4.92579 -0.0676467 0 
-0.0676467 -4.55465 0 
0 0 0 
-4.88464 0.000991117 0 
0.000991117 -4.59579 0 
0 0 0 
-4.86516 -0.0551431 0 
-0.0551431 -4.61528 0 
0 0 0 
-4.80858 -0.0490321 0 
-0.0490321 -4.37329 0 
0 0 0 
-4.95251 -0.0855353 0 
-0.0855353 -4.22936 0 
0 0 0 
-4.84893 0.0755503 0 
0.0755503 -4.33294 0 
0 0 0 
-4.90824 -0.0252225 0 
-0.0252225 -4.60441 0 
0 0 0 
-4.86191 -0.0120353 0 
-0.0120353 -4.65074 0 
0 0 0 
-4.8965 -0.0616955 0 
-0.0616955 -4.61616 0 
0 0 0 
-4.91097 -0.105741 0 
-0.105741 -4.42329 0 
0 0 0 
-4.9382 -0.027123 0 
-0.027123 -4.39606 0 
0 0 0 
-4.82193 0.00855821 0 
0.00855821 -4.51233 0 
0 0 0 
-4.83904 -0.00374922 0 
-0.00374922 -4.79907 0 
0 0 0 
-4.83957 -0.0110342 0 
-0.0110342 -4.79854 0 
0 0 0 
-4.84314 -0.0137402 0 
-0.0137402 -4.79497 0 
0 0 0 
-4.87382 -0.0589385 0 
-0.0589385 -4.65449 0 
0 0 0 
-4.85303 -0.0204364 0 
-0.0204364 -4.67527 0 
0 0 0 
-4.84648 -0.0507207 0 
-0.0507207 -4.68183 0 
0 0 0 
-5.1662 -0.00135173 0 
-0.00135173 -5.50944 0 
0 0 0 
-5.19171 0.012165 0 
0.012165 -5.48393 0 
0 0 0 
-5.1891 -0.0157836 0 
-0.0157836 -5.48653 0 
0 0 0 
-4.76056 -0.115091 0 
-0.115091 -4.56037 0 
0 0 0 
-4.84122 -0.13556 0 
-0.13556 -4.47971 0 
0 0 0 
-4.78316 -0.0204232 0 
-0.0204232 -4.53776 0 
0 0 0 
-4.8659 -0.0279644 0 
-0.0279644 -4.67422 0 
0 0 0 
-4.84288 -0.0199898 0 
-0.0199898 -4.69724 0 
0 0 0 
-4.86129 -0.0506524 0 
-0.0506524 -4.67883 0 
0 0 0 
-4.80658 -0.101333 0 
-0.101333 -4.55367 0 
0 0 0 
-4.81142 -0.0589809 0 
-0.0589809 -4.54882 0 
0 0 0 
-4.76551 -0.0380715 0 
-0.0380715 -4.59473 0 
0 0 0 
-4.85159 -0.0398064 0 
-0.0398064 -4.72037 0 
0 0 0 
-4.84195 -0.0196195 0 
-0.0196195 -4.73 0 
0 0 0 
-4.84157 -0.0344639 0 
-0.0344639 -4.73039 0 
0 0 0 
-4.78105 -0.0575358 0 
-0.0575358 -4.64964 0 
0 0 0 
-4.77599 -0.068315 0 
-0.068315 -4.6547 0 
0 0 0 
-4.76918 -0.0468085 0 
-0.0468085 -4.66151 0 
0 0 0 
-4.85009 -0.0200147 0 
-0.0200147 -4.72793 0 
0 0 0 
-4.83881 -0.0153102 0 
-0.0153102 -4.73921 0 
0 0 0 
-4.84852 -0.0344614 0 
-0.0344614 -4.7295 0 
0 0 0 
-4.79104 -0.0606351 0 
-0.0606351 -4.65514 0 
0 0 0 
-4.78727 -0.0440836 0 
-0.0440836 -4.65891 0 
0 0 0 
-4.78139 -0.0363314 0 
-0.0363314 -4.66479 0 
0 0 0 
-4.8192 -0.00466216 0 
-0.00466216 -4.79412 0 
0 0 0 
-4.81948 -0.0104413 0 
-0.0104413 -4.79383 0 
0 0 0 
-4.81722 -0.00615349 0 
-0.00615349 -4.7961 0 
0 0 0 
-4.84514 -0.0247166 0 
-0.0247166 -4.76343 0 
0 0 0 
-4.83957 -0.0115754 0 
-0.0115754 -4.769 0 
0 0 0 
-4.8403 -0.0210731 0 
-0.0210731 -4.76828 0 
0 0 0 
-4.79449 -0.0337794 0 
-0.0337794 -4.71181 0 
0 0 0 
-4.78628 -0.0396209 0 
-0.0396209 -4.72002 0 
0 0 0 
-4.78533 -0.0301356 0 
-0.0301356 -4.72097 0 
0 0 0 
-4.84514 -0.0106858 0 
-0.0106858 -4.76818 0 
0 0 0 
-4.83829 -0.00762475 0 
-0.00762475 -4.77502 0 
0 0 0 
-4.84437 -0.0211849 0 
-0.0211849 -4.76894 0 
0 0 0 
-4.79994 -0.0353916 0 
-0.0353916 -4.71784 0 
0 0 0 
-4.79517 -0.0279035 0 
-0.0279035 -4.72261 0 
0 0 0 
-4.79725 -0.0235976 0 
-0.0235976 -4.72053 0 
0 0 0 
-4.80743 -0.0181983 0 
-0.0181983 -4.75411 0 
0 0 0 
-4.79941 -0.0218222 0 
-0.0218222 -4.76213 0 
0 0 0 
-4.80028 -0.0167276 0 
-0.0167276 -4.76126 0 
0 0 0 
-4.84337 -0.00318204 0 
-0.00318204 -4.79934 0 
0 0 0 
-4.83806 -0.000975025 0 
-0.000975025 -4.80466 0 
0 0 0 
-4.84265 -0.0115193 0 
-0.0115193 -4.80007 0 
0 0 0 
-4.81068 -0.0199589 0 
-0.0199589 -4.76125 0 
0 0 0 
-4.80688 -0.0151615 0 
-0.0151615 -4.76504 0 
0 0 0 
-4.81012 -0.012646 0 
-0.012646 -4.76181 0 
0 0 0 
-4.82393 0.00754684 0 
0.00754684 -4.81736 0 
0 0 0 
-4.8157 0.0073816 0 
0.0073816 -4.82559 0 
0 0 0 
-4.81973 0.00535193 0 
0.00535193 -4.82157 0 
0 0 0 
-4.81734 -0.0084579 0 
-0.0084579 -4.78644 0 
0 0 0 
-4.81151 -0.0108136 0 
-0.0108136 -4.79227 0 
0 0 0 
-4.81239 -0.00694578 0 
-0.00694578 -4.79139 0 
0 0 0 
-4.36743 1.02389 0 
1.02389 -2.74576 0 
0 0 0 
-3.97716 0.945817 0 
0.945817 -3.13603 0 
0 0 0 
-4.29357 0.706875 0 
0.706875 -2.81961 0 
0 0 0 
-3.35832 1.16553 0 
1.16553 -2.0609 0 
0 0 0 
-3.24229 1.17029 0 
1.17029 -2.17693 0 
0 0 0 
-3.35764 1.31146 0 
1.31146 -2.06159 0 
0 0 0 
-4.97267 0.0660574 0 
0.0660574 -4.83575 0 
0 0 0 
-4.97171 0.0783511 0 
0.0783511 -4.83671 0 
0 0 0 
-4.96344 0.074433 0 
0.074433 -4.84498 0 
0 0 0 
-4.90738 -0.00744641 0 
-0.00744641 -4.91984 0 
0 0 0 
-4.90631 -0.0084663 0 
-0.0084663 -4.9209 0 
0 0 0 
-4.90858 -0.00993168 0 
-0.00993168 -4.91864 0 
0 0 0 
-4.93063 -0.000282456 0 
-0.000282456 -4.93402 0 
0 0 0 
-4.93106 0.00157323 0 
0.00157323 -4.93358 0 
0 0 0 
-4.9293 0.000933273 0 
0.000933273 -4.93534 0 
0 0 0 
-4.85662 0.509894 0 
0.509894 -4.69307 0 
0 0 0 
-4.81549 0.485045 0 
0.485045 -4.7342 0 
0 0 0 
-4.81657 0.46898 0 
0.46898 -4.73312 0 
0 0 0 
-4.779 0.0606405 0 
0.0606405 -5.05554 0 
0 0 0 
-4.79466 0.0555302 0 
0.0555302 -5.03987 0 
0 0 0 
-4.79419 0.061304 0 
0.061304 -5.04034 0 
0 0 0 
-4.9393 0.0586397 0 
0.0586397 -5.00247 0 
0 0 0 
-4.93496 0.0545037 0 
0.0545037 -5.00681 0 
0 0 0 
-4.94318 0.0517887 0 
0.0517887 -4.99859 0 
0 0 0 
-4.82853 0.151754 0 
0.151754 -5.08158 0 
0 0 0 
-4.80513 0.125092 0 
0.125092 -5.10498 0 
0 0 0 
-4.84624 0.115356 0 
0.115356 -5.06387 0 
0 0 0 
-3.44222 0.473054 0 
0.473054 -1.43072 0 
0 0 0 
-2.88396 0.335113 0 
0.335113 -1.98898 0 
0 0 0 
-3.36686 0.372673 0 
0.372673 -1.50608 0 
0 0 0 
-4.90856 -0.00650765 0 
-0.00650765 -4.92894 0 
0 0 0 
-4.90886 -0.00914513 0 
-0.00914513 -4.92864 0 
0 0 0 
-4.91145 -0.0081582 0 
-0.0081582 -4.92605 0 
0 0 0 
-4.90613 -0.00874199 0 
-0.00874199 -4.92471 0 
0 0 0 
-4.90632 -0.0111568 0 
-0.0111568 -4.92451 0 
0 0 0 
-4.90876 -0.0103642 0 
-0.0103642 -4.92208 0 
0 0 0 
-5.01524 0.344735 0 
0.344735 -3.96814 0 
0 0 0 
-4.99804 0.484432 0 
0.484432 -3.98533 0 
0 0 0 
-4.83473 0.373771 0 
0.373771 -4.14865 0 
0 0 0 
-4.90455 -0.0330319 0 
-0.0330319 -4.8862 0 
0 0 0 
-4.90754 -0.0299328 0 
-0.0299328 -4.88321 0 
0 0 0 
-4.90462 -0.0309222 0 
-0.0309222 -4.88613 0 
0 0 0 
-4.90546 -0.0239307 0 
-0.0239307 -4.87682 0 
0 0 0 
-4.90529 -0.0248846 0 
-0.0248846 -4.877 0 
0 0 0 
-4.90458 -0.0252104 0 
-0.0252104 -4.87771 0 
0 0 0 
-2.95142 2.06456 0 
2.06456 -2.05623 0 
0 0 0 
-2.34246 2.01 0 
2.01 -2.6652 0 
0 0 0 
-2.63556 1.80308 0 
1.80308 -2.3721 0 
0 0 0 
-4.8292 0.00418935 0 
0.00418935 -4.8304 0 
0 0 0 
-4.82615 0.0043475 0 
0.0043475 -4.83345 0 
0 0 0 
-4.82789 0.00367418 0 
0.00367418 -4.83171 0 
0 0 0 
-4.82535 -0.00101768 0 
-0.00101768 -4.83038 0 
0 0 0 
-4.82521 0.00150173 0 
0.00150173 -4.83052 0 
0 0 0 
-4.8268 2.05381e-05 0 
2.05381e-05 -4.82894 0 
0 0 0 
-4.9279 -0.000194636 0 
-0.000194636 -4.93027 0 
0 0 0 
-4.9281 0.00026107 0 
0.00026107 -4.93007 0 
0 0 0 
-4.92817 3.15322e-05 0 
3.15322e-05 -4.93 0 
0 0 0 
-4.92373 -0.000145183 0 
-0.000145183 -4.93008 0 
0 0 0 
-4.92322 -0.0017096 0 
-0.0017096 -4.9306 0 
0 0 0 
-4.92385 -0.00132407 0 
-0.00132407 -4.92996 0 
0 0 0 
-4.96619 0.42742 0 
0.42742 -4.742 0 
0 0 0 
-4.92916 0.410118 0 
0.410118 -4.77903 0 
0 0 0 
-4.96325 0.430499 0 
0.430499 -4.74494 0 
0 0 0 
-4.85768 0.0038652 0 
0.0038652 -4.85517 0 
0 0 0 
-4.85932 0.00408876 0 
0.00408876 -4.85353 0 
0 0 0 
-4.85626 0.00265012 0 
0.00265012 -4.85659 0 
0 0 0 
-4.88166 0.00462172 0 
0.00462172 -4.84441 0 
0 0 0 
-4.87964 0.0103192 0 
0.0103192 -4.84643 0 
0 0 0 
-4.872 0.0109208 0 
0.0109208 -4.85408 0 
0 0 0 
-4.92322 -0.000573459 0 
-0.000573459 -4.92733 0 
0 0 0 
-4.92309 -0.00150075 0 
-0.00150075 -4.92746 0 
0 0 0 
-4.92319 -0.000385057 0 
-0.000385057 -4.92736 0 
0 0 0 
-4.92712 -0.000557401 0 
-0.000557401 -4.9283 0 
0 0 0 
-4.92727 0.000210426 0 
0.000210426 -4.92815 0 
0 0 0 
-4.92724 5.62084e-05 0 
5.62084e-05 -4.92818 0 
0 0 0 
-4.83847 -0.0034135 0 
-0.0034135 -4.84375 0 
0 0 0 
-4.83932 -0.00294617 0 
-0.00294617 -4.84291 0 
0 0 0 
-4.83931 -0.00284751 0 
-0.00284751 -4.84292 0 
0 0 0 
-4.95893 0.558262 0 
0.558262 -4.66755 0 
0 0 0 
-4.90382 0.504694 0 
0.504694 -4.72266 0 
0 0 0 
-4.96344 0.533527 0 
0.533527 -4.66304 0 
0 0 0 
-4.90624 -0.0146885 0 
-0.0146885 -4.91304 0 
0 0 0 
-4.90369 -0.0139525 0 
-0.0139525 -4.91559 0 
0 0 0 
-4.90408 -0.0170276 0 
-0.0170276 -4.9152 0 
0 0 0 
-4.90642 -0.0306408 0 
-0.0306408 -4.90095 0 
0 0 0 
-4.90814 -0.0327333 0 
-0.0327333 -4.89923 0 
0 0 0 
-4.9081 -0.0314375 0 
-0.0314375 -4.89927 0 
0 0 0 
-4.83614 -0.00407788 0 
-0.00407788 -4.84782 0 
0 0 0 
-4.83696 -0.00515817 0 
-0.00515817 -4.847 0 
0 0 0 
-4.83965 -0.00282459 0 
-0.00282459 -4.84431 0 
0 0 0 
-4.92837 -0.000691903 0 
-0.000691903 -4.93353 0 
0 0 0 
-4.92867 0.000920692 0 
0.000920692 -4.93323 0 
0 0 0 
-4.9277 0.00178234 0 
0.00178234 -4.93421 0 
0 0 0 
-4.91403 -0.00377764 0 
-0.00377764 -4.92516 0 
0 0 0 
-4.91394 -0.0052259 0 
-0.0052259 -4.92524 0 
0 0 0 
-4.91426 -0.00313323 0 
-0.00313323 -4.92493 0 
0 0 0 
-4.91876 -0.00286783 0 
-0.00286783 -4.92638 0 
0 0 0 
-4.91889 -0.0016744 0 
-0.0016744 -4.92625 0 
0 0 0 
-4.91901 -0.00199899 0 
-0.00199899 -4.92613 0 
0 0 0 
-4.88832 -0.0119021 0 
-0.0119021 -4.85915 0 
0 0 0 
-4.89042 -0.0076666 0 
-0.0076666 -4.85705 0 
0 0 0 
-4.88651 -0.00981009 0 
-0.00981009 -4.86096 0 
0 0 0 
-4.94847 0.0303742 0 
0.0303742 -4.81978 0 
0 0 0 
-4.94317 0.0470918 0 
0.0470918 -4.82508 0 
0 0 0 
-4.92951 0.0358859 0 
0.0358859 -4.83874 0 
0 0 0 
-4.90528 -0.0194051 0 
-0.0194051 -4.90406 0 
0 0 0 
-4.90351 -0.0181928 0 
-0.0181928 -4.90584 0 
0 0 0 
-4.9021 -0.0210599 0 
-0.0210599 -4.90725 0 
0 0 0 
-5.0124 0.150332 0 
0.150332 -4.82409 0 
0 0 0 
-5.00522 0.152542 0 
0.152542 -4.83126 0 
0 0 0 
-5.01003 0.157427 0 
0.157427 -4.82646 0 
0 0 0 
-5.02572 0.179744 0 
0.179744 -4.7709 0 
0 0 0 
-5.00542 0.206071 0 
0.206071 -4.79119 0 
0 0 0 
-4.98006 0.147406 0 
0.147406 -4.81656 0 
0 0 0 
-4.91099 -0.03021 0 
-0.03021 -4.88281 0 
0 0 0 
-4.91129 -0.0291992 0 
-0.0291992 -4.88251 0 
0 0 0 
-4.90934 -0.0315079 0 
-0.0315079 -4.88446 0 
0 0 0 
-4.80459 0.211297 0 
0.211297 -3.77736 0 
0 0 0 
-4.91365 0.340692 0 
0.340692 -3.6683 0 
0 0 0 
-4.81302 0.321828 0 
0.321828 -3.76893 0 
0 0 0 
-2.06216 1.07737 0 
1.07737 -1.02553 0 
0 0 0 
-1.77323 0.903616 0 
0.903616 -1.31446 0 
0 0 0 
-1.90896 1.1065 0 
1.1065 -1.17874 0 
0 0 0 
-2.18549 0.668237 0 
0.668237 -1.00297 0 
0 0 0 
-2.28078 0.821743 0 
0.821743 -0.907687 0 
0 0 0 
-1.84699 0.367819 0 
0.367819 -1.34147 0 
0 0 0 
-4.46275 -0.516475 0 
-0.516475 -2.78612 0 
0 0 0 
-4.25528 -0.216051 0 
-0.216051 -2.99358 0 
0 0 0 
-4.26456 -0.599313 0 
-0.599313 -2.9843 0 
0 0 0 
-4.17601 -0.535894 0 
-0.535894 -3.62795 0 
0 0 0 
-4.01633 -0.822322 0 
-0.822322 -3.78763 0 
0 0 0 
-4.27477 -0.989405 0 
-0.989405 -3.52919 0 
0 0 0 
-3.99176 -1.50418 0 
-1.50418 -3.67514 0 
0 0 0 
-4.1674 -0.893157 0 
-0.893157 -3.49949 0 
0 0 0 
-3.84531 -0.696825 0 
-0.696825 -3.82159 0 
0 0 0 
-4.52873 0.172336 0 
0.172336 -5.54664 0 
0 0 0 
-4.2883 0.431717 0 
0.431717 -5.78708 0 
0 0 0 
-4.20079 0.127062 0 
0.127062 -5.87459 0 
0 0 0 
-4.42354 -0.0920618 0 
-0.0920618 -5.28405 0 
0 0 0 
-4.47016 -0.0288783 0 
-0.0288783 -5.23743 0 
0 0 0 
-4.35271 0.0431234 0 
0.0431234 -5.35488 0 
0 0 0 
-4.87547 0.24426 0 
0.24426 -5.22444 0 
0 0 0 
-4.85098 0.278178 0 
0.278178 -5.24892 0 
0 0 0 
-4.85462 0.251427 0 
0.251427 -5.24528 0 
0 0 0 
-4.69568 0.470634 0 
0.470634 -5.38733 0 
0 0 0 
-4.62389 0.306598 0 
0.306598 -5.45912 0 
0 0 0 
-4.83769 0.148842 0 
0.148842 -5.24532 0 
0 0 0 
-4.15478 -0.234188 0 
-0.234188 -5.26946 0 
0 0 0 
-4.24718 -0.337687 0 
-0.337687 -5.17706 0 
0 0 0 
-4.29644 -0.196039 0 
-0.196039 -5.1278 0 
0 0 0 
-4.65988 0.0621519 0 
0.0621519 -5.15906 0 
0 0 0 
-4.69749 0.101988 0 
0.101988 -5.12146 0 
0 0 0 
-4.63452 0.138902 0 
0.138902 -5.18442 0 
0 0 0 
-4.4954 0.0867091 0 
0.0867091 -5.2198 0 
0 0 0 
-4.55496 0.0148934 0 
0.0148934 -5.16024 0 
0 0 0 
-4.59434 0.118364 0 
0.118364 -5.12086 0 
0 0 0 
-4.86799 0.238113 0 
0.238113 -5.13328 0 
0 0 0 
-4.86046 0.204986 0 
0.204986 -5.14081 0 
0 0 0 
-4.89635 0.180634 0 
0.180634 -5.10492 0 
0 0 0 
-4.91826 0.131573 0 
0.131573 -5.04617 0 
0 0 0 
-4.90556 0.149664 0 
0.149664 -5.05887 0 
0 0 0 
-4.90105 0.137766 0 
0.137766 -5.06338 0 
0 0 0 
-4.78167 0.0239038 0 
0.0239038 -5.04523 0 
0 0 0 
-4.78851 0.0381398 0 
0.0381398 -5.03839 0 
0 0 0 
-4.76518 0.0409306 0 
0.0409306 -5.06172 0 
0 0 0 
-4.73019 0.0360894 0 
0.0360894 -5.07148 0 
0 0 0 
-4.75235 0.0214068 0 
0.0214068 -5.04932 0 
0 0 0 
-4.75993 0.0422062 0 
0.0422062 -5.04173 0 
0 0 0 
-4.96801 0.0835989 0 
0.0835989 -5.00197 0 
0 0 0 
-4.96388 0.0757257 0 
0.0757257 -5.00611 0 
0 0 0 
-4.97332 0.0683803 0 
0.0683803 -4.99666 0 
0 0 0 
-4.87387 0.028371 0 
0.028371 -5.00469 0 
0 0 0 
-4.87646 0.0276525 0 
0.0276525 -5.0021 0 
0 0 0 
-4.87636 0.0281977 0 
0.0281977 -5.0022 0 
0 0 0 
-4.96753 0.0490141 0 
0.0490141 -4.9904 0 
0 0 0 
-4.96568 0.0515253 0 
0.0515253 -4.99226 0 
0 0 0 
-4.96772 0.0514809 0 
0.0514809 -4.99021 0 
0 0 0 
-4.91873 0.0353839 0 
0.0353839 -4.99262 0 
0 0 0 
-4.91671 0.0293916 0 
0.0293916 -4.99464 0 
0 0 0 
-4.92293 0.0243927 0 
0.0243927 -4.98842 0 
0 0 0 
-4.88494 0.0156397 0 
0.0156397 -4.99688 0 
0 0 0 
-4.8882 0.0228649 0 
0.0228649 -4.99363 0 
0 0 0 
-4.87981 0.0275161 0 
0.0275161 -5.00202 0 
0 0 0 
-4.93799 0.0250954 0 
0.0250954 -4.97585 0 
0 0 0 
-4.93664 0.0203053 0 
0.0203053 -4.9772 0 
0 0 0 
-4.94099 0.0163438 0 
0.0163438 -4.97285 0 
0 0 0 
-4.94925 0.0137385 0 
0.0137385 -4.96046 0 
0 0 0 
-4.94858 0.0109087 0 
0.0109087 -4.96113 0 
0 0 0 
-4.94987 0.00929146 0 
0.00929146 -4.95984 0 
0 0 0 
-4.94154 0.00329443 0 
0.00329443 -4.9489 0 
0 0 0 
-4.94246 0.002475 0 
0.002475 -4.94798 0 
0 0 0 
-4.94413 0.00485936 0 
0.00485936 -4.94631 0 
0 0 0 
-4.9267 0.00667374 0 
0.00667374 -4.95015 0 
0 0 0 
-4.92737 0.00543116 0 
0.00543116 -4.94948 0 
0 0 0 
-4.92693 0.00615839 0 
0.00615839 -4.94992 0 
0 0 0 
-4.92778 0.00139903 0 
0.00139903 -4.94372 0 
0 0 0 
-4.92828 0.00400857 0 
0.00400857 -4.94322 0 
0 0 0 
-4.92682 0.00533433 0 
0.00533433 -4.94468 0 
0 0 0 
-4.93473 -0.000362483 0 
-0.000362483 -4.93769 0 
0 0 0 
-4.93532 -0.000304934 0 
-0.000304934 -4.93709 0 
0 0 0 
-4.93608 0.000223679 0 
0.000223679 -4.93634 0 
0 0 0 
-4.93849 0.00222407 0 
0.00222407 -4.94254 0 
0 0 0 
-4.93913 0.00118885 0 
0.00118885 -4.94191 0 
0 0 0 
-4.93828 0.000980562 0 
0.000980562 -4.94276 0 
0 0 0 
-4.9274 0.00221584 0 
0.00221584 -4.93826 0 
0 0 0 
-4.92793 0.00101634 0 
0.00101634 -4.93772 0 
0 0 0 
-4.9278 0.00205736 0 
0.00205736 -4.93785 0 
0 0 0 
-4.84254 0.00446307 0 
0.00446307 -4.85122 0 
0 0 0 
-4.84358 0.00467749 0 
0.00467749 -4.85019 0 
0 0 0 
-4.84435 0.00373309 0 
0.00373309 -4.84941 0 
0 0 0 
-3.56811 1.59947 0 
1.59947 -2.64195 0 
0 0 0 
-3.27966 1.63223 0 
1.63223 -2.9304 0 
0 0 0 
-3.72482 1.59768 0 
1.59768 -2.48524 0 
0 0 0 
-4.82428 0.00369938 0 
0.00369938 -4.82999 0 
0 0 0 
-4.82263 0.00390352 0 
0.00390352 -4.83164 0 
0 0 0 
-4.82728 0.00296831 0 
0.00296831 -4.82699 0 
0 0 0 
-4.96902 0.575354 0 
0.575354 -3.98834 0 
0 0 0 
-4.83699 0.659772 0 
0.659772 -4.12038 0 
0 0 0 
-4.79824 0.430877 0 
0.430877 -4.15913 0 
0 0 0 
-4.83626 0.00122102 0 
0.00122102 -4.84632 0 
0 0 0 
-4.83306 0.000764444 0 
0.000764444 -4.84952 0 
0 0 0 
-4.83545 -0.00121977 0 
-0.00121977 -4.84713 0 
0 0 0 
-4.85219 0.470026 0 
0.470026 -4.47317 0 
0 0 0 
-4.88091 0.412678 0 
0.412678 -4.44445 0 
0 0 0 
-4.96726 0.485775 0 
0.485775 -4.3581 0 
0 0 0 
-4.90254 -0.0174909 0 
-0.0174909 -4.86782 0 
0 0 0 
-4.90271 -0.0130735 0 
-0.0130735 -4.86765 0 
0 0 0 
-4.89486 -0.0171398 0 
-0.0171398 -4.8755 0 
0 0 0 
-4.96551 0.0496689 0 
0.0496689 -4.82117 0 
0 0 0 
-4.96506 0.0643699 0 
0.0643699 -4.82163 0 
0 0 0 
-4.9532 0.0587883 0 
0.0587883 -4.83348 0 
0 0 0 
-4.92148 0.660123 0 
0.660123 -4.47943 0 
0 0 0 
-4.88131 0.748218 0 
0.748218 -4.5196 0 
0 0 0 
-4.78287 0.60205 0 
0.60205 -4.61803 0 
0 0 0 
-4.9033 -0.0181488 0 
-0.0181488 -4.91804 0 
0 0 0 
-4.90329 -0.0190118 0 
-0.0190118 -4.91806 0 
0 0 0 
-4.90354 -0.0184291 0 
-0.0184291 -4.91781 0 
0 0 0 
-4.96853 0.121773 0 
0.121773 -4.85334 0 
0 0 0 
-4.97521 0.116596 0 
0.116596 -4.84666 0 
0 0 0 
-4.97365 0.129682 0 
0.129682 -4.84821 0 
0 0 0 
-4.85721 0.00778973 0 
0.00778973 -4.85463 0 
0 0 0 
-4.85577 0.00670574 0 
0.00670574 -4.85608 0 
0 0 0 
-4.8543 0.00687368 0 
0.00687368 -4.85755 0 
0 0 0 
-4.86915 0.00372903 0 
0.00372903 -4.86341 0 
0 0 0 
-4.86818 0.00652572 0 
0.00652572 -4.86438 0 
0 0 0 
-4.87016 0.00642106 0 
0.00642106 -4.8624 0 
0 0 0 
-4.87574 -0.000327702 0 
-0.000327702 -4.86208 0 
0 0 0 
-4.87887 0.000217786 0 
0.000217786 -4.85896 0 
0 0 0 
-4.87088 0.00476777 0 
0.00476777 -4.86695 0 
0 0 0 
-4.90003 0.00918008 0 
0.00918008 -4.87171 0 
0 0 0 
-4.89816 0.0182793 0 
0.0182793 -4.87358 0 
0 0 0 
-4.89682 0.00338774 0 
0.00338774 -4.87493 0 
0 0 0 
-4.99923 0.270033 0 
0.270033 -4.70521 0 
0 0 0 
-4.94003 0.246885 0 
0.246885 -4.7644 0 
0 0 0 
-4.99488 0.192808 0 
0.192808 -4.70956 0 
0 0 0 
-4.39176 0.414713 0 
0.414713 -2.97224 0 
0 0 0 
-4.43529 0.36322 0 
0.36322 -2.92872 0 
0 0 0 
-4.5879 0.339152 0 
0.339152 -2.7761 0 
0 0 0 
-4.9325 -0.000534024 0 
-0.000534024 -4.93293 0 
0 0 0 
-4.93297 -0.000868813 0 
-0.000868813 -4.93246 0 
0 0 0 
-4.93203 -0.000607599 0 
-0.000607599 -4.9334 0 
0 0 0 
-4.83597 -0.00196386 0 
-0.00196386 -4.84025 0 
0 0 0 
-4.83673 -0.00469545 0 
-0.00469545 -4.8395 0 
0 0 0 
-4.83534 -0.00512488 0 
-0.00512488 -4.84089 0 
0 0 0 
-4.85254 -0.0044927 0 
-0.0044927 -4.84947 0 
0 0 0 
-4.85369 -0.000484888 0 
-0.000484888 -4.84833 0 
0 0 0 
-4.85482 -0.00424852 0 
-0.00424852 -4.84719 0 
0 0 0 
-4.90324 -0.0111357 0 
-0.0111357 -4.92468 0 
0 0 0 
-4.90182 -0.0141464 0 
-0.0141464 -4.9261 0 
0 0 0 
-4.90523 -0.0139465 0 
-0.0139465 -4.92269 0 
0 0 0 
-5.0535 0.199273 0 
0.199273 -4.44777 0 
0 0 0 
-5.04596 0.237426 0 
0.237426 -4.45531 0 
0 0 0 
-5.01123 0.193086 0 
0.193086 -4.49003 0 
0 0 0 
-4.98482 0.0699543 0 
0.0699543 -4.81743 0 
0 0 0 
-4.99391 0.0896642 0 
0.0896642 -4.80834 0 
0 0 0 
-4.97653 0.0866275 0 
0.0866275 -4.82572 0 
0 0 0 
-4.94632 0.0622061 0 
0.0622061 -4.87118 0 
0 0 0 
-4.95432 0.0573082 0 
0.0573082 -4.86317 0 
0 0 0 
-4.9486 0.0643288 0 
0.0643288 -4.8689 0 
0 0 0 
-4.89855 -0.010886 0 
-0.010886 -4.87682 0 
0 0 0 
-4.8965 -0.010813 0 
-0.010813 -4.87887 0 
0 0 0 
-4.8972 -0.0110533 0 
-0.0110533 -4.87817 0 
0 0 0 
-4.91991 -0.00243574 0 
-0.00243574 -4.9301 0 
0 0 0 
-4.92009 -0.00154278 0 
-0.00154278 -4.92992 0 
0 0 0 
-4.91999 -0.00169337 0 
-0.00169337 -4.93002 0 
0 0 0 
-4.84478 0.00708545 0 
0.00708545 -4.84855 0 
0 0 0 
-4.84368 0.00716577 0 
0.00716577 -4.84965 0 
0 0 0 
-4.84638 0.00533227 0 
0.00533227 -4.84695 0 
0 0 0 
-4.83719 0.00447076 0 
0.00447076 -4.8447 0 
0 0 0 
-4.8375 0.00226701 0 
0.00226701 -4.84439 0 
0 0 0 
-4.83796 0.00608833 0 
0.00608833 -4.84394 0 
0 0 0 
-4.83243 -0.000864969 0 
-0.000864969 -4.8342 0 
0 0 0 
-4.83196 -0.000665683 0 
-0.000665683 -4.83467 0 
0 0 0 
-4.83218 -0.00104477 0 
-0.00104477 -4.83445 0 
0 0 0 
-4.83064 0.000641199 0 
0.000641199 -4.83341 0 
0 0 0 
-4.83116 0.00089861 0 
0.00089861 -4.83289 0 
0 0 0 
-4.83097 0.000981679 0 
0.000981679 -4.83309 0 
0 0 0 
-4.9294 0.000153325 0 
0.000153325 -4.92912 0 
0 0 0 
-4.9295 0.000108998 0 
0.000108998 -4.92903 0 
0 0 0 
-4.92944 0.000168547 0 
0.000168547 -4.92908 0 
0 0 0 
-1.53014 2.17388 0 
2.17388 -0.896276 0 
0 0 0 
-1.17058 1.99336 0 
1.99336 -1.25583 0 
0 0 0 
-1.04701 1.84007 0 
1.84007 -1.3794 0 
0 0 0 
-4.92972 -0.000116654 0 
-0.000116654 -4.92926 0 
0 0 0 
-4.92965 -0.000145565 0 
-0.000145565 -4.92933 0 
0 0 0 
-4.92969 -0.000178499 0 
-0.000178499 -4.92929 0 
0 0 0 
-1.90308 2.27571 0 
2.27571 -1.35599 0 
0 0 0 
-1.26249 2.2373 0 
2.2373 -1.99658 0 
0 0 0 
-1.7234 2.03267 0 
2.03267 -1.53567 0 
0 0 0 
-4.93027 -3.23576e-05 0 
-3.23576e-05 -4.92843 0 
0 0 0 
-4.93032 0.000102517 0 
0.000102517 -4.92839 0 
0 0 0 
-4.92984 5.43069e-05 0 
5.43069e-05 -4.92887 0 
0 0 0 
-4.84087 -0.000591967 0 
-0.000591967 -4.84131 0 
0 0 0 
-4.8401 -0.000282697 0 
-0.000282697 -4.84209 0 
0 0 0 
-4.84045 -0.000897322 0 
-0.000897322 -4.84174 0 
0 0 0 
-4.84083 0.000298856 0 
0.000298856 -4.84279 0 
0 0 0 
-4.84156 0.000573559 0 
0.000573559 -4.84205 0 
0 0 0 
-4.84112 0.000925499 0 
0.000925499 -4.84249 0 
0 0 0 
-4.91948 -0.0016591 0 
-0.0016591 -4.93431 0 
0 0 0 
-4.91991 -0.00241843 0 
-0.00241843 -4.93387 0 
0 0 0 
-4.9208 -0.00254343 0 
-0.00254343 -4.93299 0 
0 0 0 
-4.91192 -0.00701354 0 
-0.00701354 -4.92022 0 
0 0 0 
-4.90976 -0.0062455 0 
-0.0062455 -4.92239 0 
0 0 0 
-4.91087 -0.00772963 0 
-0.00772963 -4.92127 0 
0 0 0 
-4.92568 0.0152245 0 
0.0152245 -4.97157 0 
0 0 0 
-4.92545 0.014438 0 
0.014438 -4.9718 0 
0 0 0 
-4.9249 0.0153582 0 
0.0153582 -4.97236 0 
0 0 0 
-4.90595 0.0188418 0 
0.0188418 -4.98946 0 
0 0 0 
-4.90798 0.018142 0 
0.018142 -4.98743 0 
0 0 0 
-4.90517 0.0211736 0 
0.0211736 -4.99024 0 
0 0 0 
-4.9052 -0.0128997 0 
-0.0128997 -4.88668 0 
0 0 0 
-4.90033 -0.0143643 0 
-0.0143643 -4.89155 0 
0 0 0 
-4.90518 -0.0170548 0 
-0.0170548 -4.8867 0 
0 0 0 
-4.9261 -0.000529032 0 
-0.000529032 -4.92783 0 
0 0 0 
-4.92607 -0.000284191 0 
-0.000284191 -4.92785 0 
0 0 0 
-4.92626 0.000435503 0 
0.000435503 -4.92766 0 
0 0 0 
-4.90142 -0.019394 0 
-0.019394 -4.91099 0 
0 0 0 
-4.90068 -0.0219514 0 
-0.0219514 -4.91173 0 
0 0 0 
-4.90506 -0.0219833 0 
-0.0219833 -4.90735 0 
0 0 0 
-5.00879 0.10474 0 
0.10474 -4.78717 0 
0 0 0 
-5.00776 0.131312 0 
0.131312 -4.78821 0 
0 0 0 
-4.97504 0.11375 0 
0.11375 -4.82092 0 
0 0 0 
-4.91008 -0.0284559 0 
-0.0284559 -4.89038 0 
0 0 0 
-4.90948 -0.0260302 0 
-0.0260302 -4.89099 0 
0 0 0 
-4.90479 -0.028011 0 
-0.028011 -4.89568 0 
0 0 0 
-4.90199 -0.0294 0 
-0.0294 -4.90132 0 
0 0 0 
-4.9015 -0.0312566 0 
-0.0312566 -4.90182 0 
0 0 0 
-4.90394 -0.0317094 0 
-0.0317094 -4.89938 0 
0 0 0 
-4.99304 0.172207 0 
0.172207 -4.65547 0 
0 0 0 
-4.99057 0.180666 0 
0.180666 -4.65794 0 
0 0 0 
-4.99891 0.178346 0 
0.178346 -4.64959 0 
0 0 0 
-4.88397 0.757204 0 
0.757204 -3.84585 0 
0 0 0 
-4.58549 0.675743 0 
0.675743 -4.14433 0 
0 0 0 
-4.82177 0.525533 0 
0.525533 -3.90805 0 
0 0 0 
-4.91872 -0.00303353 0 
-0.00303353 -4.92546 0 
0 0 0 
-4.91817 -0.00265177 0 
-0.00265177 -4.92602 0 
0 0 0 
-4.91872 -0.00231101 0 
-0.00231101 -4.92547 0 
0 0 0 
-4.93242 0.0206267 0 
0.0206267 -4.82147 0 
0 0 0 
-4.93585 0.0347494 0 
0.0347494 -4.81804 0 
0 0 0 
-4.92001 0.0392717 0 
0.0392717 -4.83388 0 
0 0 0 
-4.8825 -0.00192413 0 
-0.00192413 -4.86203 0 
0 0 0 
-4.87894 -0.00263223 0 
-0.00263223 -4.8656 0 
0 0 0 
-4.88094 -0.00400569 0 
-0.00400569 -4.86359 0 
0 0 0 
-4.88629 -0.00812173 0 
-0.00812173 -4.85431 0 
0 0 0 
-4.8857 -0.00409803 0 
-0.00409803 -4.8549 0 
0 0 0 
-4.88009 -0.0106748 0 
-0.0106748 -4.8605 0 
0 0 0 
-4.91539 0.0302001 0 
0.0302001 -4.85524 0 
0 0 0 
-4.92061 0.0282355 0 
0.0282355 -4.85001 0 
0 0 0 
-4.91777 0.0318735 0 
0.0318735 -4.85285 0 
0 0 0 
-4.90607 -0.0172966 0 
-0.0172966 -4.90676 0 
0 0 0 
-4.90367 -0.0170296 0 
-0.0170296 -4.90916 0 
0 0 0 
-4.90495 -0.0192892 0 
-0.0192892 -4.90788 0 
0 0 0 
-4.98091 0.181475 0 
0.181475 -4.80728 0 
0 0 0 
-4.96424 0.17657 0 
0.17657 -4.82394 0 
0 0 0 
-4.96896 0.164882 0 
0.164882 -4.81923 0 
0 0 0 
-4.90748 -0.0203322 0 
-0.0203322 -4.88529 0 
0 0 0 
-4.90828 -0.0208743 0 
-0.0208743 -4.88449 0 
0 0 0 
-4.90778 -0.0209037 0 
-0.0209037 -4.88498 0 
0 0 0 
-4.90905 -0.0237229 0 
-0.0237229 -4.88741 0 
0 0 0 
-4.90646 -0.0203761 0 
-0.0203761 -4.89 0 
0 0 0 
-4.90335 -0.0259005 0 
-0.0259005 -4.89312 0 
0 0 0 
-4.963 0.270565 0 
0.270565 -3.56382 0 
0 0 0 
-4.95089 0.423182 0 
0.423182 -3.57594 0 
0 0 0 
-4.74209 0.295282 0 
0.295282 -3.78473 0 
0 0 0 
-1.63829 1.07459 0 
1.07459 -1.04159 0 
0 0 0 
-1.53407 0.829428 0 
0.829428 -1.14581 0 
0 0 0 
-1.38029 0.879045 0 
0.879045 -1.29958 0 
0 0 0 
-4.54967 -0.525865 0 
-0.525865 -3.3998 0 
0 0 0 
-4.38075 -0.457096 0 
-0.457096 -3.56872 0 
0 0 0 
-4.50859 -0.796557 0 
-0.796557 -3.44088 0 
0 0 0 
-3.32185 -1.7745 0 
-1.7745 -5.8649 0 
0 0 0 
-4.01959 -1.58509 0 
-1.58509 -5.16717 0 
0 0 0 
-4.29089 0.106475 0 
0.106475 -4.89587 0 
0 0 0 
-3.55893 -0.152728 0 
-0.152728 -5.71357 0 
0 0 0 
-3.46899 -0.167064 0 
-0.167064 -5.80351 0 
0 0 0 
-3.8146 -0.438175 0 
-0.438175 -5.4579 0 
0 0 0 
-4.52406 0.251605 0 
0.251605 -5.82731 0 
0 0 0 
-4.17877 0.372322 0 
0.372322 -6.17259 0 
0 0 0 
-4.38696 -0.147898 0 
-0.147898 -5.96441 0 
0 0 0 
-4.18021 -0.175955 0 
-0.175955 -5.12989 0 
0 0 0 
-4.24575 -0.203125 0 
-0.203125 -5.06434 0 
0 0 0 
-4.19454 -0.165539 0 
-0.165539 -5.11556 0 
0 0 0 
-4.85062 0.308857 0 
0.308857 -5.19275 0 
0 0 0 
-4.83119 0.331127 0 
0.331127 -5.21217 0 
0 0 0 
-4.85657 0.27536 0 
0.27536 -5.18679 0 
0 0 0 
-4.54831 0.051925 0 
0.051925 -5.18329 0 
0 0 0 
-4.60705 0.0325547 0 
0.0325547 -5.12456 0 
0 0 0 
-4.56875 0.10565 0 
0.10565 -5.16285 0 
0 0 0 
-4.89319 0.190565 0 
0.190565 -5.05751 0 
0 0 0 
-4.88616 0.201929 0 
0.201929 -5.06453 0 
0 0 0 
-4.89814 0.184581 0 
0.184581 -5.05255 0 
0 0 0 
-4.89553 0.189625 0 
0.189625 -5.0875 0 
0 0 0 
-4.88905 0.166503 0 
0.166503 -5.09398 0 
0 0 0 
-4.90851 0.159377 0 
0.159377 -5.07452 0 
0 0 0 
-4.91376 0.156987 0 
0.156987 -5.02736 0 
0 0 0 
-4.89709 0.165703 0 
0.165703 -5.04403 0 
0 0 0 
-4.90749 0.142016 0 
0.142016 -5.03363 0 
0 0 0 
-4.75078 0.0196075 0 
0.0196075 -5.06608 0 
0 0 0 
-4.77822 0.0162856 0 
0.0162856 -5.03864 0 
0 0 0 
-4.75663 0.0378 0 
0.0378 -5.06023 0 
0 0 0 
-4.96945 0.0672103 0 
0.0672103 -4.98446 0 
0 0 0 
-4.96956 0.0699246 0 
0.0699246 -4.98434 0 
0 0 0 
-4.97168 0.0687967 0 
0.0687967 -4.98222 0 
0 0 0 
-4.96894 0.0653195 0 
0.0653195 -4.99814 0 
0 0 0 
-4.96975 0.0628909 0 
0.0628909 -4.99732 0 
0 0 0 
-4.9714 0.0599959 0 
0.0599959 -4.99568 0 
0 0 0 
-4.96773 0.0543152 0 
0.0543152 -4.98157 0 
0 0 0 
-4.96806 0.0569308 0 
0.0569308 -4.98124 0 
0 0 0 
-4.96976 0.054206 0 
0.054206 -4.97954 0 
0 0 0 
-4.87715 0.0207909 0 
0.0207909 -5.01062 0 
0 0 0 
-4.88314 0.0196982 0 
0.0196982 -5.00464 0 
0 0 0 
-4.87856 0.0280354 0 
0.0280354 -5.00921 0 
0 0 0 
-4.92081 0.0269929 0 
0.0269929 -4.98164 0 
0 0 0 
-4.92125 0.0282578 0 
0.0282578 -4.9812 0 
0 0 0 
-4.92176 0.0276185 0 
0.0276185 -4.98068 0 
0 0 0 
-4.93798 0.0174178 0 
0.0174178 -4.96656 0 
0 0 0 
-4.93959 0.0183172 0 
0.0183172 -4.96495 0 
0 0 0 
-4.93899 0.019016 0 
0.019016 -4.96555 0 
0 0 0 
-4.94696 0.00740622 0 
0.00740622 -4.95373 0 
0 0 0 
-4.94841 0.00815995 0 
0.00815995 -4.95228 0 
0 0 0 
-4.94845 0.00770223 0 
0.00770223 -4.95224 0 
0 0 0 
-4.94642 0.00859761 0 
0.00859761 -4.95402 0 
0 0 0 
-4.94634 0.00650928 0 
0.00650928 -4.9541 0 
0 0 0 
-4.94656 0.0053965 0 
0.0053965 -4.95388 0 
0 0 0 
-4.94367 0.00351675 0 
0.00351675 -4.9482 0 
0 0 0 
-4.94525 0.00412075 0 
0.00412075 -4.94662 0 
0 0 0 
-4.94491 0.00426871 0 
0.00426871 -4.94696 0 
0 0 0 
-4.92671 0.00428949 0 
0.00428949 -4.95029 0 
0 0 0 
-4.92785 0.00363001 0 
0.00363001 -4.94916 0 
0 0 0 
-4.9268 0.0066216 0 
0.0066216 -4.9502 0 
0 0 0 
-4.93592 -0.000759953 0 
-0.000759953 -4.93886 0 
0 0 0 
-4.93773 -0.000398993 0 
-0.000398993 -4.93705 0 
0 0 0 
-4.93707 0.000471555 0 
0.000471555 -4.93771 0 
0 0 0 
-4.9274 0.00065555 0 
0.00065555 -4.93763 0 
0 0 0 
-4.92827 0.000329549 0 
0.000329549 -4.93676 0 
0 0 0 
-4.92753 0.00236262 0 
0.00236262 -4.9375 0 
0 0 0 
-4.91009 -0.00547857 0 
-0.00547857 -4.92289 0 
0 0 0 
-4.90908 -0.00631968 0 
-0.00631968 -4.92389 0 
0 0 0 
-4.91114 -0.00760355 0 
-0.00760355 -4.92184 0 
0 0 0 
-4.92978 0.0194653 0 
0.0194653 -4.96635 0 
0 0 0 
-4.9257 0.0193191 0 
0.0193191 -4.97043 0 
0 0 0 
-4.92454 0.0137418 0 
0.0137418 -4.97159 0 
0 0 0 
-4.90887 0.0260034 0 
0.0260034 -4.98162 0 
0 0 0 
-4.90513 0.0260576 0 
0.0260576 -4.98536 0 
0 0 0 
-4.90315 0.0199771 0 
0.0199771 -4.98734 0 
0 0 0 
-4.93059 -0.000825628 0 
-0.000825628 -4.93001 0 
0 0 0 
-4.93079 -0.000378169 0 
-0.000378169 -4.92981 0 
0 0 0 
-4.93091 -0.000894152 0 
-0.000894152 -4.92969 0 
0 0 0 
-4.90476 -0.00905751 0 
-0.00905751 -4.92782 0 
0 0 0 
-4.90708 -0.0116543 0 
-0.0116543 -4.9255 0 
0 0 0 
-4.90722 -0.00793919 0 
-0.00793919 -4.92535 0 
0 0 0 
-4.90076 -0.0204241 0 
-0.0204241 -4.87298 0 
0 0 0 
-4.90295 -0.0166279 0 
-0.0166279 -4.87078 0 
0 0 0 
-4.89991 -0.0172805 0 
-0.0172805 -4.87382 0 
0 0 0 
-4.98504 0.0628837 0 
0.0628837 -4.82469 0 
0 0 0 
-4.9765 0.076436 0 
0.076436 -4.83322 0 
0 0 0 
-4.97495 0.0565195 0 
0.0565195 -4.83477 0 
0 0 0 
-4.90237 -0.0197047 0 
-0.0197047 -4.88953 0 
0 0 0 
-4.90462 -0.0226596 0 
-0.0226596 -4.88728 0 
0 0 0 
-4.90871 -0.0203538 0 
-0.0203538 -4.88319 0 
0 0 0 
-4.78844 0.647418 0 
0.647418 -4.58403 0 
0 0 0 
-4.73707 0.619298 0 
0.619298 -4.6354 0 
0 0 0 
-4.74309 0.616362 0 
0.616362 -4.62938 0 
0 0 0 
-4.99487 0.0921964 0 
0.0921964 -4.80202 0 
0 0 0 
-5.00491 0.114096 0 
0.114096 -4.79198 0 
0 0 0 
-4.98549 0.117979 0 
0.117979 -4.8114 0 
0 0 0 
-3.70105 0.156146 0 
0.156146 -2.10731 0 
0 0 0 
-3.69196 0.0117785 0 
0.0117785 -2.1164 0 
0 0 0 
-4.15641 0.123943 0 
0.123943 -1.65195 0 
0 0 0 
-4.76043 0.117665 0 
0.117665 -5.09122 0 
0 0 0 
-4.77489 0.0826693 0 
0.0826693 -5.07676 0 
0 0 0 
-4.80612 0.110051 0 
0.110051 -5.04553 0 
0 0 0 
-4.78383 0.105133 0 
0.105133 -5.07208 0 
0 0 0 
-4.76488 0.0887711 0 
0.0887711 -5.09103 0 
0 0 0 
-4.8045 0.0745062 0 
0.0745062 -5.0514 0 
0 0 0 
-4.75066 0.0804554 0 
0.0804554 -5.08481 0 
0 0 0 
-4.7591 0.0560396 0 
0.0560396 -5.07638 0 
0 0 0 
-4.79155 0.0655815 0 
0.0655815 -5.04392 0 
0 0 0 
-4.913 0.0485778 0 
0.0485778 -5.00572 0 
0 0 0 
-4.9098 0.0447331 0 
0.0447331 -5.00892 0 
0 0 0 
-4.91687 0.0422905 0 
0.0422905 -5.00185 0 
0 0 0 
-4.90965 0.0531723 0 
0.0531723 -5.0024 0 
0 0 0 
-4.91345 0.046193 0 
0.046193 -4.9986 0 
0 0 0 
-4.91841 0.0512687 0 
0.0512687 -4.99364 0 
0 0 0 
-4.89109 0.0437875 0 
0.0437875 -5.00811 0 
0 0 0 
-4.89461 0.0344349 0 
0.0344349 -5.0046 0 
0 0 0 
-4.90602 0.0401236 0 
0.0401236 -4.99318 0 
0 0 0 
-4.82876 0.0766553 0 
0.0766553 -5.05472 0 
0 0 0 
-4.8227 0.0680361 0 
0.0680361 -5.06078 0 
0 0 0 
-4.84391 0.0668993 0 
0.0668993 -5.03957 0 
0 0 0 
-4.83191 0.0782691 0 
0.0782691 -5.04306 0 
0 0 0 
-4.84491 0.0678379 0 
0.0678379 -5.03006 0 
0 0 0 
-4.8486 0.0761372 0 
0.0761372 -5.02638 0 
0 0 0 
-4.87785 0.0864427 0 
0.0864427 -5.04052 0 
0 0 0 
-4.87617 0.0793512 0 
0.0793512 -5.0422 0 
0 0 0 
-4.88913 0.0770583 0 
0.0770583 -5.02924 0 
0 0 0 
-4.88165 0.0822602 0 
0.0822602 -5.02141 0 
0 0 0 
-4.88889 0.078139 0 
0.078139 -5.01417 0 
0 0 0 
-4.88972 0.0811846 0 
0.0811846 -5.01334 0 
0 0 0 
-4.92258 0.0775925 0 
0.0775925 -5.02124 0 
0 0 0 
-4.92883 0.0860253 0 
0.0860253 -5.01499 0 
0 0 0 
-4.91662 0.0790155 0 
0.0790155 -5.02719 0 
0 0 0 
-5.04842 0.178437 0 
0.178437 -4.63312 0 
0 0 0 
-5.04089 0.204397 0 
0.204397 -4.64064 0 
0 0 0 
-5.01891 0.166581 0 
0.166581 -4.66263 0 
0 0 0 
-4.90082 -0.0158809 0 
-0.0158809 -4.91863 0 
0 0 0 
-4.89985 -0.018017 0 
-0.018017 -4.91961 0 
0 0 0 
-4.90278 -0.0189489 0 
-0.0189489 -4.91668 0 
0 0 0 
-5.00669 0.127113 0 
0.127113 -4.83607 0 
0 0 0 
-5.00501 0.139529 0 
0.139529 -4.83774 0 
0 0 0 
-4.98651 0.115239 0 
0.115239 -4.85625 0 
0 0 0 
-3.5081 0.561216 0 
0.561216 -2.03803 0 
0 0 0 
-3.73146 0.758951 0 
0.758951 -1.81466 0 
0 0 0 
-3.47371 0.726824 0 
0.726824 -2.07241 0 
0 0 0 
-4.86312 0.00947025 0 
0.00947025 -4.8576 0 
0 0 0 
-4.85898 0.0092752 0 
0.0092752 -4.86174 0 
0 0 0 
-4.86084 0.00712917 0 
0.00712917 -4.85988 0 
0 0 0 
-4.87359 0.00148463 0 
0.00148463 -4.87197 0 
0 0 0 
-4.88032 0.000394518 0 
0.000394518 -4.86524 0 
0 0 0 
-4.87608 0.00466296 0 
0.00466296 -4.86948 0 
0 0 0 
-4.91924 -0.00308215 0 
-0.00308215 -4.92993 0 
0 0 0 
-4.91957 -0.00275419 0 
-0.00275419 -4.92961 0 
0 0 0 
-4.91937 -0.00146505 0 
-0.00146505 -4.92981 0 
0 0 0 
-5.02484 0.217198 0 
0.217198 -4.74135 0 
0 0 0 
-4.99756 0.205937 0 
0.205937 -4.76864 0 
0 0 0 
-5.03906 0.204599 0 
0.204599 -4.72713 0 
0 0 0 
-4.52112 0.448267 0 
0.448267 -2.70938 0 
0 0 0 
-4.53342 0.507426 0 
0.507426 -2.69708 0 
0 0 0 
-4.33325 0.318815 0 
0.318815 -2.89725 0 
0 0 0 
-4.93103 -0.00141622 0 
-0.00141622 -4.93169 0 
0 0 0 
-4.93205 -0.00134272 0 
-0.00134272 -4.93068 0 
0 0 0 
-4.93154 -0.000835539 0 
-0.000835539 -4.93119 0 
0 0 0 
-4.9308 3.31377e-05 0 
3.31377e-05 -4.93037 0 
0 0 0 
-4.93039 -0.000312922 0 
-0.000312922 -4.93078 0 
0 0 0 
-4.93116 0.000355855 0 
0.000355855 -4.93002 0 
0 0 0 
-4.84061 -0.00701195 0 
-0.00701195 -4.84639 0 
0 0 0 
-4.84549 -0.00730898 0 
-0.00730898 -4.8415 0 
0 0 0 
-4.84304 -0.00431746 0 
-0.00431746 -4.84395 0 
0 0 0 
-4.90185 -0.0134332 0 
-0.0134332 -4.92497 0 
0 0 0 
-4.90353 -0.0162147 0 
-0.0162147 -4.9233 0 
0 0 0 
-4.90499 -0.0132618 0 
-0.0132618 -4.92184 0 
0 0 0 
-4.98755 0.186983 0 
0.186983 -4.49245 0 
0 0 0 
-5.00479 0.222849 0 
0.222849 -4.4752 0 
0 0 0 
-4.97931 0.217328 0 
0.217328 -4.50068 0 
0 0 0 
-5.00261 0.0838013 0 
0.0838013 -4.81162 0 
0 0 0 
-4.9953 0.102361 0 
0.102361 -4.81893 0 
0 0 0 
-4.98328 0.0811027 0 
0.0811027 -4.83095 0 
0 0 0 
-4.90454 -0.0276518 0 
-0.0276518 -4.89381 0 
0 0 0 
-4.90429 -0.0279897 0 
-0.0279897 -4.89406 0 
0 0 0 
-4.90614 -0.0284944 0 
-0.0284944 -4.89221 0 
0 0 0 
-2.58311 1.9532 0 
1.9532 -1.91913 0 
0 0 0 
-2.2774 1.91384 0 
1.91384 -2.22484 0 
0 0 0 
-2.8509 1.89991 0 
1.89991 -1.65134 0 
0 0 0 
-4.82955 0.00192088 0 
0.00192088 -4.83738 0 
0 0 0 
-4.8295 0.00152465 0 
0.00152465 -4.83742 0 
0 0 0 
-4.8314 0.000692733 0 
0.000692733 -4.83552 0 
0 0 0 
-3.11347 1.2726 0 
1.2726 -1.78504 0 
0 0 0 
-2.99332 1.18106 0 
1.18106 -1.90519 0 
0 0 0 
-2.88188 1.27009 0 
1.27009 -2.01662 0 
0 0 0 
-4.92412 0.000547284 0 
0.000547284 -4.93295 0 
0 0 0 
-4.92497 -0.00112421 0 
-0.00112421 -4.93211 0 
0 0 0 
-4.92615 0.000157573 0 
0.000157573 -4.93092 0 
0 0 0 
-4.84427 0.00696524 0 
0.00696524 -4.84498 0 
0 0 0 
-4.84228 0.00711935 0 
0.00711935 -4.84697 0 
0 0 0 
-4.84337 0.00568256 0 
0.00568256 -4.84588 0 
0 0 0 
-4.98766 0.076487 0 
0.076487 -4.83583 0 
0 0 0 
-4.98145 0.0893688 0 
0.0893688 -4.84205 0 
0 0 0 
-4.96883 0.0691793 0 
0.0691793 -4.85467 0 
0 0 0 
-4.97799 0.249192 0 
0.249192 -4.44022 0 
0 0 0 
-5.00283 0.301026 0 
0.301026 -4.41538 0 
0 0 0 
-4.95278 0.302566 0 
0.302566 -4.46542 0 
0 0 0 
-4.90418 -0.0106843 0 
-0.0106843 -4.92392 0 
0 0 0 
-4.90552 -0.0128455 0 
-0.0128455 -4.92258 0 
0 0 0 
-4.90738 -0.00974492 0 
-0.00974492 -4.92071 0 
0 0 0 
-4.82783 -0.00143844 0 
-0.00143844 -4.83617 0 
0 0 0 
-4.82802 -0.00213321 0 
-0.00213321 -4.83598 0 
0 0 0 
-4.83013 -0.000356279 0 
-0.000356279 -4.83387 0 
0 0 0 
-4.93018 0.000274728 0 
0.000274728 -4.92886 0 
0 0 0 
-4.93018 0.000333372 0 
0.000333372 -4.92886 0 
0 0 0 
-4.9299 0.000136013 0 
0.000136013 -4.92915 0 
0 0 0 
-1.90562 1.53017 0 
1.53017 -1.31974 0 
0 0 0 
-2.00089 1.66431 0 
1.66431 -1.22447 0 
0 0 0 
-1.65228 1.31734 0 
1.31734 -1.57307 0 
0 0 0 
-4.83616 0.00219179 0 
0.00219179 -4.84363 0 
0 0 0 
-4.83645 0.000831741 0 
0.000831741 -4.84334 0 
0 0 0 
-4.83802 3.14285e-05 0 
3.14285e-05 -4.84177 0 
0 0 0 
-4.88684 0.611392 0 
0.611392 -4.21067 0 
0 0 0 
-4.77267 0.586694 0 
0.586694 -4.32485 0 
0 0 0 
-4.85139 0.449983 0 
0.449983 -4.24613 0 
0 0 0 
-4.91052 0.0156033 0 
0.0156033 -4.97749 0 
0 0 0 
-4.91186 0.0201115 0 
0.0201115 -4.97616 0 
0 0 0 
-4.90484 0.0243724 0 
0.0243724 -4.98317 0 
0 0 0 
-4.92678 0.0107661 0 
0.0107661 -4.96252 0 
0 0 0 
-4.92717 0.0141709 0 
0.0141709 -4.96213 0 
0 0 0 
-4.92402 0.0165303 0 
0.0165303 -4.96528 0 
0 0 0 
-4.92722 -0.000564542 0 
-0.000564542 -4.93017 0 
0 0 0 
-4.9275 -0.000361337 0 
-0.000361337 -4.92989 0 
0 0 0 
-4.92761 0.000492807 0 
0.000492807 -4.92978 0 
0 0 0 
-4.91892 0.0424392 0 
0.0424392 -4.98944 0 
0 0 0 
-4.91364 0.0433088 0 
0.0433088 -4.99471 0 
0 0 0 
-4.91662 0.0393034 0 
0.0393034 -4.99174 0 
0 0 0 
-4.9406 0.0439401 0 
0.0439401 -4.99503 0 
0 0 0 
-4.93805 0.0462902 0 
0.0462902 -4.99757 0 
0 0 0 
-4.93889 0.0455342 0 
0.0455342 -4.99674 0 
0 0 0 
-4.91776 0.0370395 0 
0.0370395 -4.99863 0 
0 0 0 
-4.91452 0.0390253 0 
0.0390253 -5.00188 0 
0 0 0 
-4.91225 0.0367417 0 
0.0367417 -5.00414 0 
0 0 0 
-3.93871 -0.137373 0 
-0.137373 -2.04877 0 
0 0 0 
-3.88308 -0.275621 0 
-0.275621 -2.1044 0 
0 0 0 
-3.70033 -0.277975 0 
-0.277975 -2.28715 0 
0 0 0 
-4.86343 0.107016 0 
0.107016 -5.05115 0 
0 0 0 
-4.84879 0.119408 0 
0.119408 -5.06579 0 
0 0 0 
-4.83967 0.108101 0 
0.108101 -5.07491 0 
0 0 0 
-4.81726 0.0986084 0 
0.0986084 -5.04084 0 
0 0 0 
-4.79677 0.0987537 0 
0.0987537 -5.06133 0 
0 0 0 
-4.80789 0.0848918 0 
0.0848918 -5.05021 0 
0 0 0 
-4.82221 0.0795687 0 
0.0795687 -5.05663 0 
0 0 0 
-4.81033 0.0889648 0 
0.0889648 -5.06851 0 
0 0 0 
-4.79898 0.0732505 0 
0.0732505 -5.07986 0 
0 0 0 
-4.81825 0.0465986 0 
0.0465986 -5.03699 0 
0 0 0 
-4.82549 0.0571001 0 
0.0571001 -5.02975 0 
0 0 0 
-4.7997 0.0645601 0 
0.0645601 -5.05554 0 
0 0 0 
-4.84241 0.0621422 0 
0.0621422 -5.04738 0 
0 0 0 
-4.85923 0.0561653 0 
0.0561653 -5.03056 0 
0 0 0 
-4.84562 0.0696019 0 
0.0696019 -5.04417 0 
0 0 0 
-4.86188 0.062006 0 
0.062006 -5.0236 0 
0 0 0 
-4.86509 0.0686661 0 
0.0686661 -5.0204 0 
0 0 0 
-4.84909 0.0740913 0 
0.0740913 -5.0364 0 
0 0 0 
-4.88827 0.0702428 0 
0.0702428 -5.03239 0 
0 0 0 
-4.89741 0.0655967 0 
0.0655967 -5.02325 0 
0 0 0 
-4.88911 0.0755165 0 
0.0755165 -5.03155 0 
0 0 0 
-4.90176 0.0651554 0 
0.0651554 -5.00978 0 
0 0 0 
-4.90296 0.0723396 0 
0.0723396 -5.00858 0 
0 0 0 
-4.89278 0.0786457 0 
0.0786457 -5.01876 0 
0 0 0 
-4.83966 -0.000820172 0 
-0.000820172 -4.84625 0 
0 0 0 
-4.83936 -0.00198523 0 
-0.00198523 -4.84655 0 
0 0 0 
-4.84109 -6.64803e-05 0 
-6.64803e-05 -4.84482 0 
0 0 0 
-4.90602 -0.0154051 0 
-0.0154051 -4.89055 0 
0 0 0 
-4.90404 -0.0177883 0 
-0.0177883 -4.89254 0 
0 0 0 
-4.90931 -0.0176493 0 
-0.0176493 -4.88727 0 
0 0 0 
-4.90941 0.352637 0 
0.352637 -4.09774 0 
0 0 0 
-4.93123 0.410222 0 
0.410222 -4.07591 0 
0 0 0 
-4.87594 0.410839 0 
0.410839 -4.1312 0 
0 0 0 
-4.90806 -0.0209304 0 
-0.0209304 -4.89136 0 
0 0 0 
-4.90419 -0.0207401 0 
-0.0207401 -4.89522 0 
0 0 0 
-4.90558 -0.0246339 0 
-0.0246339 -4.89384 0 
0 0 0 
-4.92172 0.0219271 0 
0.0219271 -4.98527 0 
0 0 0 
-4.9232 0.026481 0 
0.026481 -4.98379 0 
0 0 0 
-4.91925 0.0223933 0 
0.0223933 -4.98774 0 
0 0 0 
-4.93818 0.0139311 0 
0.0139311 -4.96766 0 
0 0 0 
-4.93954 0.0196109 0 
0.0196109 -4.9663 0 
0 0 0 
-4.93377 0.0140883 0 
0.0140883 -4.97208 0 
0 0 0 
-4.96012 0.0806107 0 
0.0806107 -4.87376 0 
0 0 0 
-4.95881 0.0781011 0 
0.0781011 -4.87507 0 
0 0 0 
-4.9582 0.0749543 0 
0.0749543 -4.87568 0 
0 0 0 
-4.9088 -0.00925398 0 
-0.00925398 -4.91837 0 
0 0 0 
-4.90801 -0.00899924 0 
-0.00899924 -4.91916 0 
0 0 0 
-4.9086 -0.00952103 0 
-0.00952103 -4.91857 0 
0 0 0 
-4.91544 -0.00250233 0 
-0.00250233 -4.93371 0 
0 0 0 
-4.91634 -0.0043112 0 
-0.0043112 -4.93282 0 
0 0 0 
-4.91826 -0.00221716 0 
-0.00221716 -4.9309 0 
0 0 0 
-2.27474 1.45532 0 
1.45532 -1.76223 0 
0 0 0 
-2.39588 1.55108 0 
1.55108 -1.64109 0 
0 0 0 
-2.49322 1.42051 0 
1.42051 -1.54375 0 
0 0 0 
-4.82708 0.000313743 0 
0.000313743 -4.83809 0 
0 0 0 
-4.82729 -0.000411198 0 
-0.000411198 -4.83788 0 
0 0 0 
-4.82989 0.00012209 0 
0.00012209 -4.83529 0 
0 0 0 
-4.91515 -0.00347151 0 
-0.00347151 -4.93102 0 
0 0 0 
-4.91628 -0.00457413 0 
-0.00457413 -4.92988 0 
0 0 0 
-4.91644 -0.00202365 0 
-0.00202365 -4.92973 0 
0 0 0 
-4.83578 0.00148442 0 
0.00148442 -4.84686 0 
0 0 0 
-4.83514 -0.00133352 0 
-0.00133352 -4.8475 0 
0 0 0 
-4.83967 -2.2441e-05 0 
-2.2441e-05 -4.84297 0 
0 0 0 
-4.9241 -0.000274257 0 
-0.000274257 -4.93096 0 
0 0 0 
-4.92464 -0.00193644 0 
-0.00193644 -4.93043 0 
0 0 0 
-4.92527 0.000780229 0 
0.000780229 -4.9298 0 
0 0 0 
-4.90831 -0.02298 0 
-0.02298 -4.8972 0 
0 0 0 
-4.90553 -0.0238132 0 
-0.0238132 -4.89998 0 
0 0 0 
-4.90931 -0.0264923 0 
-0.0264923 -4.89619 0 
0 0 0 
-4.94602 0.390776 0 
0.390776 -4.54233 0 
0 0 0 
-4.9137 0.384365 0 
0.384365 -4.57465 0 
0 0 0 
-4.91734 0.368352 0 
0.368352 -4.57101 0 
0 0 0 
-5.00555 0.469282 0 
0.469282 -4.336 0 
0 0 0 
-4.95433 0.475391 0 
0.475391 -4.38722 0 
0 0 0 
-5.02082 0.46974 0 
0.46974 -4.32073 0 
0 0 0 
-4.90452 -0.0107903 0 
-0.0107903 -4.91862 0 
0 0 0 
-4.90512 -0.0120614 0 
-0.0120614 -4.91802 0 
0 0 0 
-4.90519 -0.00931463 0 
-0.00931463 -4.91795 0 
0 0 0 
-4.98599 0.0872204 0 
0.0872204 -4.85963 0 
0 0 0 
-4.97603 0.0952889 0 
0.0952889 -4.86959 0 
0 0 0 
-4.97163 0.0682457 0 
0.0682457 -4.87399 0 
0 0 0 
-5.01634 0.295979 0 
0.295979 -4.60973 0 
0 0 0 
-5.01784 0.31924 0 
0.31924 -4.60824 0 
0 0 0 
-5.01909 0.343432 0 
0.343432 -4.60699 0 
0 0 0 
-6.10072 0.0197658 0 
0.0197658 -6.098 0 
0 0 0 
-6.10201 0.0178991 0 
0.0178991 -6.09671 0 
0 0 0 
-6.10272 0.0199475 0 
0.0199475 -6.096 0 
0 0 0 
-6.14813 -0.00333397 0 
-0.00333397 -6.15124 0 
0 0 0 
-6.14587 -0.00279935 0 
-0.00279935 -6.15349 0 
0 0 0 
-6.14918 -0.00197317 0 
-0.00197317 -6.15018 0 
0 0 0 
-6.12497 -0.00821315 0 
-0.00821315 -6.16694 0 
0 0 0 
-6.12994 -0.00772248 0 
-0.00772248 -6.16197 0 
0 0 0 
-6.12994 -0.0109184 0 
-0.0109184 -6.16197 0 
0 0 0 
-6.21408 -0.445992 0 
-0.445992 -7.11305 0 
0 0 0 
-6.05828 -0.4618 0 
-0.4618 -7.26884 0 
0 0 0 
-6.08758 -0.634488 0 
-0.634488 -7.23954 0 
0 0 0 
-6.09941 0.0201499 0 
0.0201499 -6.10593 0 
0 0 0 
-6.09677 0.0168884 0 
0.0168884 -6.10857 0 
0 0 0 
-6.1026 0.0174929 0 
0.0174929 -6.10274 0 
0 0 0 
-6.0866 0.0041169 0 
0.0041169 -6.07946 0 
0 0 0 
-6.08837 0.00138707 0 
0.00138707 -6.07769 0 
0 0 0 
-6.08895 0.00403813 0 
0.00403813 -6.07711 0 
0 0 0 
-6.1003 0.0166958 0 
0.0166958 -6.09565 0 
0 0 0 
-6.10008 0.0177737 0 
0.0177737 -6.09587 0 
0 0 0 
-6.09912 0.0164018 0 
0.0164018 -6.09683 0 
0 0 0 
-6.09389 0.00725093 0 
0.00725093 -6.08308 0 
0 0 0 
-6.09367 0.00744003 0 
0.00744003 -6.0833 0 
0 0 0 
-6.09526 0.00693537 0 
0.00693537 -6.08171 0 
0 0 0 
-6.17021 -0.444953 0 
-0.444953 -6.56744 0 
0 0 0 
-6.11235 -0.370521 0 
-0.370521 -6.6253 0 
0 0 0 
-5.994 -0.461222 0 
-0.461222 -6.74365 0 
0 0 0 
-6.15122 -0.000976 0 
-0.000976 -6.15401 0 
0 0 0 
-6.15197 -0.00398101 0 
-0.00398101 -6.15327 0 
0 0 0 
-6.15197 -0.0045284 0 
-0.0045284 -6.15327 0 
0 0 0 
-6.12947 -0.00310338 0 
-0.00310338 -6.16707 0 
0 0 0 
-6.12852 -0.0111395 0 
-0.0111395 -6.16802 0 
0 0 0 
-6.13339 0.000268478 0 
0.000268478 -6.16315 0 
0 0 0 
-6.20771 0.018828 0 
0.018828 -6.24976 0 
0 0 0 
-6.19731 0.0161374 0 
0.0161374 -6.26016 0 
0 0 0 
-6.20188 0.0174205 0 
0.0174205 -6.25559 0 
0 0 0 
-6.21432 0.0270701 0 
0.0270701 -6.2589 0 
0 0 0 
-6.20499 0.00978938 0 
0.00978938 -6.26824 0 
0 0 0 
-6.23543 0.0286743 0 
0.0286743 -6.23779 0 
0 0 0 
-5.94126 -0.0391472 0 
-0.0391472 -5.54626 0 
0 0 0 
-5.94312 -0.0548714 0 
-0.0548714 -5.54439 0 
0 0 0 
-5.91603 -0.0447576 0 
-0.0447576 -5.57148 0 
0 0 0 
-5.97532 -0.0648362 0 
-0.0648362 -5.62184 0 
0 0 0 
-6.02298 -0.0754425 0 
-0.0754425 -5.57417 0 
0 0 0 
-5.99541 -0.0693879 0 
-0.0693879 -5.60175 0 
0 0 0 
-5.83466 0.0457361 0 
0.0457361 -5.49607 0 
0 0 0 
-5.7961 0.0635944 0 
0.0635944 -5.53463 0 
0 0 0 
-5.85308 0.0333514 0 
0.0333514 -5.47765 0 
0 0 0 
-5.77668 0.0183348 0 
0.0183348 -5.53489 0 
0 0 0 
-5.80224 0.0508691 0 
0.0508691 -5.50933 0 
0 0 0 
-5.7955 0.0182429 0 
0.0182429 -5.51607 0 
0 0 0 
-6.04603 0.43085 0 
0.43085 -6.11781 0 
0 0 0 
-5.9309 0.420438 0 
0.420438 -6.23294 0 
0 0 0 
-6.09608 0.257334 0 
0.257334 -6.06776 0 
0 0 0 
-6.1173 0.32722 0 
0.32722 -6.01317 0 
0 0 0 
-6.07668 0.352701 0 
0.352701 -6.05379 0 
0 0 0 
-6.10821 0.328186 0 
0.328186 -6.02227 0 
0 0 0 
-6.02454 0.105064 0 
0.105064 -6.39202 0 
0 0 0 
-6.00646 0.0853395 0 
0.0853395 -6.4101 0 
0 0 0 
-6.00161 0.0912473 0 
0.0912473 -6.41495 0 
0 0 0 
-6.12022 0.0675708 0 
0.0675708 -6.45449 0 
0 0 0 
-6.09904 -0.00696087 0 
-0.00696087 -6.47567 0 
0 0 0 
-6.15947 0.0122752 0 
0.0122752 -6.41524 0 
0 0 0 
-6.11929 0.0228182 0 
0.0228182 -6.33732 0 
0 0 0 
-6.07582 0.0050626 0 
0.0050626 -6.38079 0 
0 0 0 
-6.10835 -0.0356184 0 
-0.0356184 -6.34826 0 
0 0 0 
-6.16699 -0.00712968 0 
-0.00712968 -6.34295 0 
0 0 0 
-6.1671 -0.0366666 0 
-0.0366666 -6.34285 0 
0 0 0 
-6.20122 -0.0175072 0 
-0.0175072 -6.30872 0 
0 0 0 
-6.20043 -0.00298837 0 
-0.00298837 -6.20999 0 
0 0 0 
-6.20388 -0.00438437 0 
-0.00438437 -6.20654 0 
0 0 0 
-6.20253 -0.00760179 0 
-0.00760179 -6.20788 0 
0 0 0 
-6.19768 0.00350672 0 
0.00350672 -6.19238 0 
0 0 0 
-6.20004 0.00235287 0 
0.00235287 -6.19002 0 
0 0 0 
-6.19347 0.000679368 0 
0.000679368 -6.19659 0 
0 0 0 
-6.34657 -0.64089 0 
-0.64089 -7.22941 0 
0 0 0 
-6.27914 -0.794046 0 
-0.794046 -7.29684 0 
0 0 0 
-6.44788 -0.794513 0 
-0.794513 -7.1281 0 
0 0 0 
-6.09804 0.0176634 0 
0.0176634 -6.10881 0 
0 0 0 
-6.10039 0.0196147 0 
0.0196147 -6.10646 0 
0 0 0 
-6.09539 0.0209611 0 
0.0209611 -6.11145 0 
0 0 0 
-6.09987 0.0155574 0 
0.0155574 -6.08592 0 
0 0 0 
-6.09869 0.0121944 0 
0.0121944 -6.0871 0 
0 0 0 
-6.102 0.011204 0 
0.011204 -6.08379 0 
0 0 0 
-6.04934 -0.282254 0 
-0.282254 -6.39573 0 
0 0 0 
-6.03368 -0.214387 0 
-0.214387 -6.41139 0 
0 0 0 
-5.98705 -0.303743 0 
-0.303743 -6.45801 0 
0 0 0 
-6.08703 0.00133579 0 
0.00133579 -6.07914 0 
0 0 0 
-6.08581 0.00292914 0 
0.00292914 -6.08036 0 
0 0 0 
-6.08463 0.00138503 0 
0.00138503 -6.08154 0 
0 0 0 
-5.97136 -0.12746 0 
-0.12746 -6.28397 0 
0 0 0 
-5.97819 -0.151377 0 
-0.151377 -6.27715 0 
0 0 0 
-6.00317 -0.121428 0 
-0.121428 -6.25216 0 
0 0 0 
-6.17344 0.00193589 0 
0.00193589 -6.16085 0 
0 0 0 
-6.17407 0.00265939 0 
0.00265939 -6.16022 0 
0 0 0 
-6.17391 0.00199558 0 
0.00199558 -6.16038 0 
0 0 0 
-6.18169 0.000345235 0 
0.000345235 -6.17809 0 
0 0 0 
-6.17944 -0.00144186 0 
-0.00144186 -6.18034 0 
0 0 0 
-6.18417 0.00187687 0 
0.00187687 -6.1756 0 
0 0 0 
-6.17215 -0.00016631 0 
-0.00016631 -6.15695 0 
0 0 0 
-6.1715 5.68139e-06 0 
5.68139e-06 -6.1576 0 
0 0 0 
-6.17069 0.000603247 0 
0.000603247 -6.15841 0 
0 0 0 
-6.17775 3.86227e-05 0 
3.86227e-05 -6.1755 0 
0 0 0 
-6.1799 0.00188206 0 
0.00188206 -6.17335 0 
0 0 0 
-6.17514 -0.00148711 0 
-0.00148711 -6.17811 0 
0 0 0 
-6.07543 -0.000730873 0 
-0.000730873 -6.07675 0 
0 0 0 
-6.0759 -0.000692381 0 
-0.000692381 -6.07628 0 
0 0 0 
-6.07574 -0.00068025 0 
-0.00068025 -6.07644 0 
0 0 0 
-6.00625 -0.0965039 0 
-0.0965039 -6.20022 0 
0 0 0 
-5.98892 -0.10163 0 
-0.10163 -6.21754 0 
0 0 0 
-5.99593 -0.115685 0 
-0.115685 -6.21053 0 
0 0 0 
-6.01514 -0.19401 0 
-0.19401 -6.27037 0 
0 0 0 
-5.96682 -0.199709 0 
-0.199709 -6.3187 0 
0 0 0 
-5.98648 -0.260654 0 
-0.260654 -6.29903 0 
0 0 0 
-6.10363 0.0167552 0 
0.0167552 -6.08903 0 
0 0 0 
-6.10095 0.0170339 0 
0.0170339 -6.09171 0 
0 0 0 
-6.10242 0.013754 0 
0.013754 -6.09024 0 
0 0 0 
-7.63051 -1.06063 0 
-1.06063 -8.83035 0 
0 0 0 
-7.6366 -0.888788 0 
-0.888788 -8.82426 0 
0 0 0 
-7.31069 -1.26436 0 
-1.26436 -9.15017 0 
0 0 0 
-5.93736 -0.336137 0 
-0.336137 -6.63474 0 
0 0 0 
-5.99147 -0.415015 0 
-0.415015 -6.58063 0 
0 0 0 
-6.10543 -0.252962 0 
-0.252962 -6.46667 0 
0 0 0 
-6.0986 0.00816432 0 
0.00816432 -6.08353 0 
0 0 0 
-6.09922 0.00897786 0 
0.00897786 -6.08291 0 
0 0 0 
-6.09691 0.0102807 0 
0.0102807 -6.08522 0 
0 0 0 
-6.18626 0.00311579 0 
0.00311579 -6.18783 0 
0 0 0 
-6.18315 -0.00155324 0 
-0.00155324 -6.19093 0 
0 0 0 
-6.18771 0.00116151 0 
0.00116151 -6.18638 0 
0 0 0 
-6.18202 0.000338675 0 
0.000338675 -6.19867 0 
0 0 0 
-6.18524 0.00954913 0 
0.00954913 -6.19545 0 
0 0 0 
-6.17572 0.0070997 0 
0.0070997 -6.20497 0 
0 0 0 
-6.22709 0.0383841 0 
0.0383841 -6.28364 0 
0 0 0 
-6.21981 0.017351 0 
0.017351 -6.29093 0 
0 0 0 
-6.24163 0.0242369 0 
0.0242369 -6.2691 0 
0 0 0 
-6.21449 0.0275933 0 
0.0275933 -6.31011 0 
0 0 0 
-6.21891 0.0530055 0 
0.0530055 -6.3057 0 
0 0 0 
-6.19234 0.0471887 0 
0.0471887 -6.33226 0 
0 0 0 
-6.08985 -0.315646 0 
-0.315646 -6.29021 0 
0 0 0 
-6.00184 -0.395235 0 
-0.395235 -6.37823 0 
0 0 0 
-6.1259 -0.334515 0 
-0.334515 -6.25417 0 
0 0 0 
-5.94283 -0.48346 0 
-0.48346 -6.74004 0 
0 0 0 
-6.3141 -0.105831 0 
-0.105831 -6.36877 0 
0 0 0 
-5.60547 -0.379124 0 
-0.379124 -7.0774 0 
0 0 0 
-6.07707 0.00899749 0 
0.00899749 -6.41109 0 
0 0 0 
-6.07219 0.0405197 0 
0.0405197 -6.41597 0 
0 0 0 
-6.05368 0.0338741 0 
0.0338741 -6.43448 0 
0 0 0 
-6.02994 -0.135461 0 
-0.135461 -5.61898 0 
0 0 0 
-6.04531 -0.122349 0 
-0.122349 -5.60361 0 
0 0 0 
-5.96741 -0.115507 0 
-0.115507 -5.68152 0 
0 0 0 
-5.82659 0.0249257 0 
0.0249257 -5.4835 0 
0 0 0 
-5.80529 0.0732258 0 
0.0732258 -5.50481 0 
0 0 0 
-5.77365 0.0803818 0 
0.0803818 -5.53645 0 
0 0 0 
-5.92 0.11227 0 
0.11227 -5.56228 0 
0 0 0 
-5.95175 0.085275 0 
0.085275 -5.53054 0 
0 0 0 
-5.95059 0.0729618 0 
0.0729618 -5.5317 0 
0 0 0 
-6.07068 0.272091 0 
0.272091 -5.82341 0 
0 0 0 
-6.12298 0.356077 0 
0.356077 -5.7711 0 
0 0 0 
-5.99236 0.323487 0 
0.323487 -5.90173 0 
0 0 0 
-6.18726 0.00497466 0 
0.00497466 -6.18573 0 
0 0 0 
-6.1896 0.00187616 0 
0.00187616 -6.1834 0 
0 0 0 
-6.19613 -0.000416622 0 
-0.000416622 -6.17687 0 
0 0 0 
-6.18615 -0.00240773 0 
-0.00240773 -6.17415 0 
0 0 0 
-6.18397 0.000186224 0 
0.000186224 -6.17633 0 
0 0 0 
-6.17772 0.00211736 0 
0.00211736 -6.18258 0 
0 0 0 
-6.18799 0.0062669 0 
0.0062669 -6.2162 0 
0 0 0 
-6.19289 0.0135225 0 
0.0135225 -6.21131 0 
0 0 0 
-6.17863 0.00459671 0 
0.00459671 -6.22556 0 
0 0 0 
-6.1957 0.012552 0 
0.012552 -6.21789 0 
0 0 0 
-6.19038 0.0092615 0 
0.0092615 -6.22321 0 
0 0 0 
-6.20009 0.0127389 0 
0.0127389 -6.21349 0 
0 0 0 
-6.15039 0.00409346 0 
0.00409346 -6.62328 0 
0 0 0 
-6.06628 0.0309658 0 
0.0309658 -6.70738 0 
0 0 0 
-5.97735 0.021019 0 
0.021019 -6.79631 0 
0 0 0 
-6.07944 -0.390016 0 
-0.390016 -5.86831 0 
0 0 0 
-6.01769 -0.276291 0 
-0.276291 -5.93006 0 
0 0 0 
-5.89241 -0.33451 0 
-0.33451 -6.05534 0 
0 0 0 
-5.87625 -0.161518 0 
-0.161518 -5.82023 0 
0 0 0 
-5.97486 -0.333884 0 
-0.333884 -5.72162 0 
0 0 0 
-6.10869 -0.331969 0 
-0.331969 -5.58779 0 
0 0 0 
-5.77467 0.00349487 0 
0.00349487 -5.53448 0 
0 0 0 
-5.78594 0.0193924 0 
0.0193924 -5.52321 0 
0 0 0 
-5.79105 0.000219182 0 
0.000219182 -5.5181 0 
0 0 0 
-5.94021 0.373761 0 
0.373761 -6.39084 0 
0 0 0 
-5.94111 0.230659 0 
0.230659 -6.38994 0 
0 0 0 
-6.11597 0.241284 0 
0.241284 -6.21508 0 
0 0 0 
-6.10002 0.154329 0 
0.154329 -6.50899 0 
0 0 0 
-6.08135 0.186917 0 
0.186917 -6.52766 0 
0 0 0 
-6.01899 0.205658 0 
0.205658 -6.59001 0 
0 0 0 
-6.20971 0.00192114 0 
0.00192114 -6.22733 0 
0 0 0 
-6.21467 -0.00752889 0 
-0.00752889 -6.22236 0 
0 0 0 
-6.21155 -0.00538277 0 
-0.00538277 -6.22548 0 
0 0 0 
-6.17895 -0.000630467 0 
-0.000630467 -6.16762 0 
0 0 0 
-6.17797 0.00118699 0 
0.00118699 -6.1686 0 
0 0 0 
-6.17928 0.000734316 0 
0.000734316 -6.16729 0 
0 0 0 
-6.17682 0.00294231 0 
0.00294231 -6.16287 0 
0 0 0 
-6.1777 0.00416624 0 
0.00416624 -6.162 0 
0 0 0 
-6.17306 0.00193006 0 
0.00193006 -6.16664 0 
0 0 0 
-6.14615 0.0630183 0 
0.0630183 -6.42143 0 
0 0 0 
-6.14237 0.0366519 0 
0.0366519 -6.42522 0 
0 0 0 
-6.16736 0.0412269 0 
0.0412269 -6.40023 0 
0 0 0 
-6.08544 0.319929 0 
0.319929 -5.71182 0 
0 0 0 
-6.02868 0.260747 0 
0.260747 -5.76858 0 
0 0 0 
-6.17445 0.276955 0 
0.276955 -5.62281 0 
0 0 0 
-6.2134 -0.0178247 0 
-0.0178247 -6.24385 0 
0 0 0 
-6.21152 -0.00759481 0 
-0.00759481 -6.24573 0 
0 0 0 
-6.20579 -0.0151015 0 
-0.0151015 -6.25146 0 
0 0 0 
-5.97836 -0.118048 0 
-0.118048 -5.63129 0 
0 0 0 
-5.96199 -0.129436 0 
-0.129436 -5.64766 0 
0 0 0 
-6.04115 -0.14085 0 
-0.14085 -5.5685 0 
0 0 0 
-6.04276 -0.0243755 0 
-0.0243755 -6.72335 0 
0 0 0 
-6.107 -0.0468456 0 
-0.0468456 -6.65912 0 
0 0 0 
-6.20527 -0.00868043 0 
-0.00868043 -6.56085 0 
0 0 0 
-5.83805 0.0298137 0 
0.0298137 -5.50699 0 
0 0 0 
-5.81894 0.00182434 0 
0.00182434 -5.52611 0 
0 0 0 
-5.83408 0.032741 0 
0.032741 -5.51096 0 
0 0 0 
-6.08056 0.000848614 0 
0.000848614 -6.07594 0 
0 0 0 
-6.07936 0.00135837 0 
0.00135837 -6.07715 0 
0 0 0 
-6.08017 -0.000588275 0 
-0.000588275 -6.07633 0 
0 0 0 
-5.97824 -0.117922 0 
-0.117922 -6.32429 0 
0 0 0 
-6.00591 -0.115681 0 
-0.115681 -6.29662 0 
0 0 0 
-5.98887 -0.0831393 0 
-0.0831393 -6.31367 0 
0 0 0 
-7.50629 -0.715397 0 
-0.715397 -9.44263 0 
0 0 0 
-7.83191 -0.381497 0 
-0.381497 -9.11702 0 
0 0 0 
-7.54443 -0.647313 0 
-0.647313 -9.40449 0 
0 0 0 
-7.18665 -1.2227 0 
-1.2227 -8.50418 0 
0 0 0 
-7.17806 -1.43431 0 
-1.43431 -8.51278 0 
0 0 0 
-7.64492 -1.06458 0 
-1.06458 -8.04592 0 
0 0 0 
-6.07475 -0.000244005 0 
-0.000244005 -6.07622 0 
0 0 0 
-6.07478 -0.000383054 0 
-0.000383054 -6.07619 0 
0 0 0 
-6.07516 -5.06732e-05 0 
-5.06732e-05 -6.07581 0 
0 0 0 
-6.09978 0.0160674 0 
0.0160674 -6.09238 0 
0 0 0 
-6.10281 0.0159401 0 
0.0159401 -6.08935 0 
0 0 0 
-6.10048 0.019417 0 
0.019417 -6.09168 0 
0 0 0 
-6.09903 0.0187773 0 
0.0187773 -6.11741 0 
0 0 0 
-6.09778 0.0177111 0 
0.0177111 -6.11866 0 
0 0 0 
-6.09813 0.0159101 0 
0.0159101 -6.11831 0 
0 0 0 
-6.01222 -0.0903147 0 
-0.0903147 -6.1702 0 
0 0 0 
-6.03356 -0.0906794 0 
-0.0906794 -6.14886 0 
0 0 0 
-6.03126 -0.0628751 0 
-0.0628751 -6.15116 0 
0 0 0 
-6.08218 0.000850882 0 
0.000850882 -6.07789 0 
0 0 0 
-6.08385 0.000289166 0 
0.000289166 -6.07621 0 
0 0 0 
-6.0823 0.00253613 0 
0.00253613 -6.07777 0 
0 0 0 
-6.72726 -0.617196 0 
-0.617196 -7.87343 0 
0 0 0 
-6.51393 -0.760597 0 
-0.760597 -8.08675 0 
0 0 0 
-6.48928 -0.94259 0 
-0.94259 -8.1114 0 
0 0 0 
-5.97632 -0.432149 0 
-0.432149 -6.76823 0 
0 0 0 
-6.06854 -0.414619 0 
-0.414619 -6.67601 0 
0 0 0 
-5.94057 -0.391396 0 
-0.391396 -6.80398 0 
0 0 0 
-5.99377 -0.0978945 0 
-0.0978945 -6.25117 0 
0 0 0 
-6.00609 -0.0957295 0 
-0.0957295 -6.23885 0 
0 0 0 
-6.00394 -0.0818365 0 
-0.0818365 -6.241 0 
0 0 0 
-6.61276 -0.704333 0 
-0.704333 -7.77047 0 
0 0 0 
-6.61234 -0.478172 0 
-0.478172 -7.77088 0 
0 0 0 
-6.36642 -0.799484 0 
-0.799484 -8.0168 0 
0 0 0 
-6.7091 0.0559422 0 
0.0559422 -8.44634 0 
0 0 0 
-6.73051 0.172794 0 
0.172794 -8.42493 0 
0 0 0 
-6.81333 0.0422321 0 
0.0422321 -8.34211 0 
0 0 0 
-6.09889 0.0191069 0 
0.0191069 -6.09847 0 
0 0 0 
-6.10085 0.0191821 0 
0.0191821 -6.0965 0 
0 0 0 
-6.0986 0.0215611 0 
0.0215611 -6.09876 0 
0 0 0 
-7.34139 -0.326567 0 
-0.326567 -9.0216 0 
0 0 0 
-7.39466 -0.319763 0 
-0.319763 -8.96833 0 
0 0 0 
-7.1932 -0.50511 0 
-0.50511 -9.1698 0 
0 0 0 
-6.09518 0.00607217 0 
0.00607217 -6.08186 0 
0 0 0 
-6.09561 0.0073714 0 
0.0073714 -6.08143 0 
0 0 0 
-6.09521 0.00541674 0 
0.00541674 -6.08183 0 
0 0 0 
-6.10063 0.0109833 0 
0.0109833 -6.08969 0 
0 0 0 
-6.10146 0.0135501 0 
0.0135501 -6.08885 0 
0 0 0 
-6.09734 0.013836 0 
0.013836 -6.09298 0 
0 0 0 
-5.98165 -0.264319 0 
-0.264319 -6.32484 0 
0 0 0 
-6.00353 -0.332073 0 
-0.332073 -6.30295 0 
0 0 0 
-6.08334 -0.260723 0 
-0.260723 -6.22314 0 
0 0 0 
-6.16736 -0.00225865 0 
-0.00225865 -6.15682 0 
0 0 0 
-6.16823 -0.00305086 0 
-0.00305086 -6.15595 0 
0 0 0 
-6.1672 -0.00233979 0 
-0.00233979 -6.15698 0 
0 0 0 
-6.16433 -4.89233e-06 0 
-4.89233e-06 -6.17299 0 
0 0 0 
-6.16702 -0.00185256 0 
-0.00185256 -6.1703 0 
0 0 0 
-6.16508 0.00504158 0 
0.00504158 -6.17225 0 
0 0 0 
-6.16255 -0.00404384 0 
-0.00404384 -6.15578 0 
0 0 0 
-6.1629 -0.00274505 0 
-0.00274505 -6.15542 0 
0 0 0 
-6.16386 -0.00282857 0 
-0.00282857 -6.15446 0 
0 0 0 
-6.15418 0.000612238 0 
0.000612238 -6.16798 0 
0 0 0 
-6.14942 0.00284462 0 
0.00284462 -6.17274 0 
0 0 0 
-6.15571 -0.00525234 0 
-0.00525234 -6.16645 0 
0 0 0 
-6.09781 0.0196841 0 
0.0196841 -6.10595 0 
0 0 0 
-6.10027 0.0180411 0 
0.0180411 -6.1035 0 
0 0 0 
-6.1022 0.0219651 0 
0.0219651 -6.10156 0 
0 0 0 
-6.10456 0.0147683 0 
0.0147683 -6.13438 0 
0 0 0 
-6.10478 0.0109656 0 
0.0109656 -6.13417 0 
0 0 0 
-6.11108 0.0137835 0 
0.0137835 -6.12787 0 
0 0 0 
-6.04532 -0.0500688 0 
-0.0500688 -6.16811 0 
0 0 0 
-6.04527 -0.061478 0 
-0.061478 -6.16815 0 
0 0 0 
-6.05872 -0.0587079 0 
-0.0587079 -6.1547 0 
0 0 0 
-6.10608 0.00886972 0 
0.00886972 -6.12983 0 
0 0 0 
-6.10754 0.00708268 0 
0.00708268 -6.12837 0 
0 0 0 
-6.11084 0.0110748 0 
0.0110748 -6.12507 0 
0 0 0 
-6.04568 -0.0496928 0 
-0.0496928 -6.13577 0 
0 0 0 
-6.04594 -0.0517515 0 
-0.0517515 -6.1355 0 
0 0 0 
-6.05146 -0.0568125 0 
-0.0568125 -6.12999 0 
0 0 0 
-6.40278 -0.222458 0 
-0.222458 -8.22803 0 
0 0 0 
-6.58446 -0.102845 0 
-0.102845 -8.04635 0 
0 0 0 
-6.43722 -0.200275 0 
-0.200275 -8.19359 0 
0 0 0 
-6.10347 0.0137834 0 
0.0137834 -6.12046 0 
0 0 0 
-6.10411 0.0142384 0 
0.0142384 -6.11983 0 
0 0 0 
-6.10365 0.0129047 0 
0.0129047 -6.12028 0 
0 0 0 
-6.03752 -0.0870413 0 
-0.0870413 -6.14292 0 
0 0 0 
-6.05583 -0.0749831 0 
-0.0749831 -6.1246 0 
0 0 0 
-6.0357 -0.0635643 0 
-0.0635643 -6.14474 0 
0 0 0 
-6.03449 -0.235573 0 
-0.235573 -6.28335 0 
0 0 0 
-6.02143 -0.28527 0 
-0.28527 -6.29641 0 
0 0 0 
-6.06725 -0.277687 0 
-0.277687 -6.25058 0 
0 0 0 
-6.10045 0.0128626 0 
0.0128626 -6.09016 0 
0 0 0 
-6.09997 0.0147134 0 
0.0147134 -6.09064 0 
0 0 0 
-6.09856 0.013238 0 
0.013238 -6.09205 0 
0 0 0 
-6.80244 0.082797 0 
0.082797 -8.52265 0 
0 0 0 
-6.77085 -0.0732491 0 
-0.0732491 -8.55424 0 
0 0 0 
-6.66201 0.0621784 0 
0.0621784 -8.66307 0 
0 0 0 
-6.09808 0.0169645 0 
0.0169645 -6.11886 0 
0 0 0 
-6.10161 0.0177093 0 
0.0177093 -6.11533 0 
0 0 0 
-6.10192 0.0218211 0 
0.0218211 -6.11503 0 
0 0 0 
-6.09039 0.00356168 0 
0.00356168 -6.07976 0 
0 0 0 
-6.09244 0.00349482 0 
0.00349482 -6.07771 0 
0 0 0 
-6.08977 0.00643609 0 
0.00643609 -6.08038 0 
0 0 0 
-6.04344 -0.527918 0 
-0.527918 -7.22144 0 
0 0 0 
-6.20869 -0.524339 0 
-0.524339 -7.05619 0 
0 0 0 
-6.25264 -0.297664 0 
-0.297664 -7.01224 0 
0 0 0 
-6.08635 4.88782e-06 0 
4.88782e-06 -6.06886 0 
0 0 0 
-6.08713 0.00271771 0 
0.00271771 -6.06808 0 
0 0 0 
-6.08456 0.00320073 0 
0.00320073 -6.07065 0 
0 0 0 
-6.13641 -0.00156034 0 
-0.00156034 -6.1504 0 
0 0 0 
-6.13833 -0.000806774 0 
-0.000806774 -6.14848 0 
0 0 0 
-6.13993 0.000287979 0 
0.000287979 -6.14688 0 
0 0 0 
-6.1057 -0.012085 0 
-0.012085 -6.15851 0 
0 0 0 
-6.10114 -0.0130255 0 
-0.0130255 -6.16307 0 
0 0 0 
-6.10913 -0.0189221 0 
-0.0189221 -6.15508 0 
0 0 0 
-6.10168 0.0119768 0 
0.0119768 -6.08406 0 
0 0 0 
-6.10019 0.0129319 0 
0.0129319 -6.08555 0 
0 0 0 
-6.10032 0.00940704 0 
0.00940704 -6.08542 0 
0 0 0 
-5.97416 -0.262282 0 
-0.262282 -6.43737 0 
0 0 0 
-5.966 -0.282829 0 
-0.282829 -6.44552 0 
0 0 0 
-5.97336 -0.319181 0 
-0.319181 -6.43817 0 
0 0 0 
-5.97876 -0.222618 0 
-0.222618 -6.31892 0 
0 0 0 
-6.02867 -0.218473 0 
-0.218473 -6.26901 0 
0 0 0 
-6.03311 -0.145792 0 
-0.145792 -6.26457 0 
0 0 0 
-5.99733 -0.0854876 0 
-0.0854876 -6.27147 0 
0 0 0 
-5.97702 -0.10917 0 
-0.10917 -6.29178 0 
0 0 0 
-6.00954 -0.104408 0 
-0.104408 -6.25926 0 
0 0 0 
-6.02625 -0.0819788 0 
-0.0819788 -6.14908 0 
0 0 0 
-6.00851 -0.0831776 0 
-0.0831776 -6.16682 0 
0 0 0 
-6.02384 -0.112099 0 
-0.112099 -6.15149 0 
0 0 0 
-6.93134 -0.545309 0 
-0.545309 -8.42062 0 
0 0 0 
-6.93514 -0.400136 0 
-0.400136 -8.41682 0 
0 0 0 
-6.6629 -0.63829 0 
-0.63829 -8.68906 0 
0 0 0 
-6.08669 0.00243056 0 
0.00243056 -6.07663 0 
0 0 0 
-6.08914 0.00194896 0 
0.00194896 -6.07417 0 
0 0 0 
-6.08723 0.00484944 0 
0.00484944 -6.07608 0 
0 0 0 
-6.08347 0.000942762 0 
0.000942762 -6.07391 0 
0 0 0 
-6.08567 0.000415038 0 
0.000415038 -6.07171 0 
0 0 0 
-6.08404 0.00322327 0 
0.00322327 -6.07334 0 
0 0 0 
-6.09164 0.0019792 0 
0.0019792 -6.06842 0 
0 0 0 
-6.08963 0.00543756 0 
0.00543756 -6.07043 0 
0 0 0 
-6.08872 0.00245204 0 
0.00245204 -6.07134 0 
0 0 0 
-6.08317 0.00299799 0 
0.00299799 -6.07588 0 
0 0 0 
-6.08477 0.000495595 0 
0.000495595 -6.07428 0 
0 0 0 
-6.08517 0.00255381 0 
0.00255381 -6.07388 0 
0 0 0 
-6.102 0.0206734 0 
0.0206734 -6.09273 0 
0 0 0 
-6.10392 0.0180278 0 
0.0180278 -6.09081 0 
0 0 0 
-6.10484 0.0206074 0 
0.0206074 -6.08989 0 
0 0 0 
-6.16684 -0.00243689 0 
-0.00243689 -6.15745 0 
0 0 0 
-6.16867 -0.00282685 0 
-0.00282685 -6.15562 0 
0 0 0 
-6.16858 -0.00167401 0 
-0.00167401 -6.1557 0 
0 0 0 
-6.17051 -0.000394249 0 
-0.000394249 -6.16625 0 
0 0 0 
-6.17047 0.000911652 0 
0.000911652 -6.16628 0 
0 0 0 
-6.16949 0.0037225 0 
0.0037225 -6.16727 0 
0 0 0 
-5.95917 -0.0183835 0 
-0.0183835 -5.56827 0 
0 0 0 
-5.97957 0.00338697 0 
0.00338697 -5.54788 0 
0 0 0 
-5.99105 0.00276314 0 
0.00276314 -5.53639 0 
0 0 0 
-5.90428 -0.0579521 0 
-0.0579521 -5.5213 0 
0 0 0 
-5.82409 -0.0801919 0 
-0.0801919 -5.60148 0 
0 0 0 
-5.85986 -0.124654 0 
-0.124654 -5.56571 0 
0 0 0 
-5.97277 -0.0417763 0 
-0.0417763 -6.4744 0 
0 0 0 
-5.99442 -0.0710872 0 
-0.0710872 -6.45275 0 
0 0 0 
-5.95871 -0.0561641 0 
-0.0561641 -6.48846 0 
0 0 0 
-7.17189 -0.5271 0 
-0.5271 -8.54001 0 
0 0 0 
-6.92584 -0.66998 0 
-0.66998 -8.78606 0 
0 0 0 
-6.89268 -0.78912 0 
-0.78912 -8.81922 0 
0 0 0 
-6.07896 -0.000567845 0 
-0.000567845 -6.07707 0 
0 0 0 
-6.07836 0.000428223 0 
0.000428223 -6.07767 0 
0 0 0 
-6.0781 4.9322e-05 0 
4.9322e-05 -6.07793 0 
0 0 0 
-8.41228 -0.844128 0 
-0.844128 -9.43729 0 
0 0 0 
-8.18236 -1.08885 0 
-1.08885 -9.66721 0 
0 0 0 
-8.38343 -0.889909 0 
-0.889909 -9.46614 0 
0 0 0 
-7.01533 0.106036 0 
0.106036 -8.96203 0 
0 0 0 
-6.98299 0.219076 0 
0.219076 -8.99437 0 
0 0 0 
-7.23907 0.279531 0 
0.279531 -8.73829 0 
0 0 0 
-7.52806 -0.595101 0 
-0.595101 -9.89222 0 
0 0 0 
-8.07989 -0.38592 0 
-0.38592 -9.34039 0 
0 0 0 
-7.96601 -0.120169 0 
-0.120169 -9.45427 0 
0 0 0 
-7.15324 0.239643 0 
0.239643 -8.61961 0 
0 0 0 
-7.0391 0.353315 0 
0.353315 -8.73375 0 
0 0 0 
-7.03739 0.487335 0 
0.487335 -8.73546 0 
0 0 0 
-6.09009 0.0019313 0 
0.0019313 -6.07183 0 
0 0 0 
-6.09083 0.00479529 0 
0.00479529 -6.07109 0 
0 0 0 
-6.08808 0.00526046 0 
0.00526046 -6.07384 0 
0 0 0 
-6.07493 -0.0003499 0 
-0.0003499 -6.07592 0 
0 0 0 
-6.07491 6.84904e-05 0 
6.84904e-05 -6.07595 0 
0 0 0 
-6.07487 0.000254415 0 
0.000254415 -6.07598 0 
0 0 0 
-6.07415 0.00128226 0 
0.00128226 -6.07298 0 
0 0 0 
-6.07276 0.00124454 0 
0.00124454 -6.07437 0 
0 0 0 
-6.07343 0.000924796 0 
0.000924796 -6.0737 0 
0 0 0 
-6.07381 -0.00165032 0 
-0.00165032 -6.06879 0 
0 0 0 
-6.07357 -0.000688398 0 
-0.000688398 -6.06902 0 
0 0 0 
-6.07357 -0.000419279 0 
-0.000419279 -6.06903 0 
0 0 0 
-6.07283 -0.000774054 0 
-0.000774054 -6.06827 0 
0 0 0 
-6.0734 -0.00138781 0 
-0.00138781 -6.06771 0 
0 0 0 
-6.07292 -0.00176413 0 
-0.00176413 -6.06819 0 
0 0 0 
-6.07241 -0.00211734 0 
-0.00211734 -6.06373 0 
0 0 0 
-6.0725 -0.00170357 0 
-0.00170357 -6.06364 0 
0 0 0 
-6.07281 -0.00316067 0 
-0.00316067 -6.06332 0 
0 0 0 
-6.07168 -0.00355473 0 
-0.00355473 -6.06322 0 
0 0 0 
-6.07154 -0.00241854 0 
-0.00241854 -6.06336 0 
0 0 0 
-6.07231 -0.00303171 0 
-0.00303171 -6.0626 0 
0 0 0 
-6.07115 -0.00368527 0 
-0.00368527 -6.05747 0 
0 0 0 
-6.0716 -0.00536048 0 
-0.00536048 -6.05702 0 
0 0 0 
-6.07103 -0.00427442 0 
-0.00427442 -6.05759 0 
0 0 0 
-6.06277 -0.00375706 0 
-0.00375706 -6.05566 0 
0 0 0 
-6.05979 -0.00451802 0 
-0.00451802 -6.05865 0 
0 0 0 
-6.06062 -0.00490396 0 
-0.00490396 -6.05782 0 
0 0 0 
-6.06815 -0.0100312 0 
-0.0100312 -6.04379 0 
0 0 0 
-6.06907 -0.0122159 0 
-0.0122159 -6.04287 0 
0 0 0 
-6.06825 -0.0110342 0 
-0.0110342 -6.04369 0 
0 0 0 
-6.05506 -0.0121934 0 
-0.0121934 -6.04519 0 
0 0 0 
-6.05207 -0.0134321 0 
-0.0134321 -6.04818 0 
0 0 0 
-6.05249 -0.0135582 0 
-0.0135582 -6.04776 0 
0 0 0 
-6.06568 -0.0200455 0 
-0.0200455 -6.02949 0 
0 0 0 
-6.06732 -0.0228787 0 
-0.0228787 -6.02785 0 
0 0 0 
-6.06639 -0.021531 0 
-0.021531 -6.02878 0 
0 0 0 
-6.04774 -0.0252721 0 
-0.0252721 -6.0352 0 
0 0 0 
-6.04513 -0.0270482 0 
-0.0270482 -6.03781 0 
0 0 0 
-6.0449 -0.02676 0 
-0.02676 -6.03804 0 
0 0 0 
-6.06744 -0.037964 0 
-0.037964 -6.01303 0 
0 0 0 
-6.06654 -0.036319 0 
-0.036319 -6.01393 0 
0 0 0 
-6.0648 -0.034276 0 
-0.034276 -6.01567 0 
0 0 0 
-6.06511 -0.039568 0 
-0.039568 -6.0229 0 
0 0 0 
-6.06639 -0.0405572 0 
-0.0405572 -6.02162 0 
0 0 0 
-6.06751 -0.0426786 0 
-0.0426786 -6.0205 0 
0 0 0 
-6.06771 -0.0455055 0 
-0.0455055 -6.00666 0 
0 0 0 
-6.06528 -0.0431432 0 
-0.0431432 -6.0091 0 
0 0 0 
-6.06854 -0.0473979 0 
-0.0473979 -6.00584 0 
0 0 0 
-6.07436 0.000362756 0 
0.000362756 -6.07523 0 
0 0 0 
-6.07459 3.74387e-05 0 
3.74387e-05 -6.07499 0 
0 0 0 
-6.07445 -0.000151412 0 
-0.000151412 -6.07514 0 
0 0 0 
-6.07467 0.000563926 0 
0.000563926 -6.07465 0 
0 0 0 
-6.07419 0.000603039 0 
0.000603039 -6.07513 0 
0 0 0 
-6.07393 0.000699495 0 
0.000699495 -6.0754 0 
0 0 0 
-6.07247 0.000521853 0 
0.000521853 -6.072 0 
0 0 0 
-6.07186 0.000616792 0 
0.000616792 -6.07261 0 
0 0 0 
-6.07306 0.000623389 0 
0.000623389 -6.07142 0 
0 0 0 
-6.06921 -0.0530207 0 
-0.0530207 -6.01477 0 
0 0 0 
-6.0662 -0.04938 0 
-0.04938 -6.01778 0 
0 0 0 
-6.06743 -0.0505732 0 
-0.0505732 -6.01655 0 
0 0 0 
-6.07416 -0.000412266 0 
-0.000412266 -6.07199 0 
0 0 0 
-6.07388 -0.000673455 0 
-0.000673455 -6.07226 0 
0 0 0 
-6.07379 0.000149616 0 
0.000149616 -6.07235 0 
0 0 0 
-6.07054 -0.0582771 0 
-0.0582771 -5.99869 0 
0 0 0 
-6.06983 -0.0560186 0 
-0.0560186 -5.99939 0 
0 0 0 
-6.06653 -0.0532949 0 
-0.0532949 -6.0027 0 
0 0 0 
-6.06817 -0.0605835 0 
-0.0605835 -6.01288 0 
0 0 0 
-6.06933 -0.0620769 0 
-0.0620769 -6.01171 0 
0 0 0 
-6.0719 -0.0649025 0 
-0.0649025 -6.00915 0 
0 0 0 
-6.07306 -0.0680112 0 
-0.0680112 -5.99185 0 
0 0 0 
-6.06867 -0.064862 0 
-0.064862 -5.99625 0 
0 0 0 
-6.07359 -0.0708215 0 
-0.0708215 -5.99132 0 
0 0 0 
-6.07005 -0.00483883 0 
-0.00483883 -6.05789 0 
0 0 0 
-6.07099 -0.00544567 0 
-0.00544567 -6.05695 0 
0 0 0 
-6.07031 -0.00613937 0 
-0.00613937 -6.05763 0 
0 0 0 
-6.0597 -0.0072265 0 
-0.0072265 -6.04985 0 
0 0 0 
-6.05786 -0.00761195 0 
-0.00761195 -6.05168 0 
0 0 0 
-6.06004 -0.00674555 0 
-0.00674555 -6.04951 0 
0 0 0 
-6.06393 -0.00357638 0 
-0.00357638 -6.05571 0 
0 0 0 
-6.06341 -0.00391096 0 
-0.00391096 -6.05622 0 
0 0 0 
-6.06182 -0.00420181 0 
-0.00420181 -6.05782 0 
0 0 0 
-6.03634 -0.0817868 0 
-0.0817868 -6.01525 0 
0 0 0 
-6.03501 -0.0853831 0 
-0.0853831 -6.01658 0 
0 0 0 
-6.03256 -0.0836063 0 
-0.0836063 -6.01903 0 
0 0 0 
-6.06897 -0.00960227 0 
-0.00960227 -6.0516 0 
0 0 0 
-6.06852 -0.00810409 0 
-0.00810409 -6.05205 0 
0 0 0 
-6.0696 -0.00871738 0 
-0.00871738 -6.05097 0 
0 0 0 
-6.06709 -0.0122866 0 
-0.0122866 -6.04603 0 
0 0 0 
-6.06827 -0.0129251 0 
-0.0129251 -6.04485 0 
0 0 0 
-6.0678 -0.0140194 0 
-0.0140194 -6.04532 0 
0 0 0 
-6.05602 -0.0109232 0 
-0.0109232 -6.04315 0 
0 0 0 
-6.05593 -0.0115905 0 
-0.0115905 -6.04324 0 
0 0 0 
-6.05389 -0.0120446 0 
-0.0120446 -6.04528 0 
0 0 0 
-6.05224 -0.0170663 0 
-0.0170663 -6.03657 0 
0 0 0 
-6.05005 -0.0175649 0 
-0.0175649 -6.03876 0 
0 0 0 
-6.05203 -0.0161752 0 
-0.0161752 -6.03678 0 
0 0 0 
-6.06509 -0.0236835 0 
-0.0236835 -6.03404 0 
0 0 0 
-6.06638 -0.0244352 0 
-0.0244352 -6.03275 0 
0 0 0 
-6.06652 -0.0260008 0 
-0.0260008 -6.03262 0 
0 0 0 
-6.06694 -0.0194621 0 
-0.0194621 -6.03895 0 
0 0 0 
-6.0659 -0.0174573 0 
-0.0174573 -6.03998 0 
0 0 0 
-6.06715 -0.0181411 0 
-0.0181411 -6.03873 0 
0 0 0 
-6.14388 -0.0925685 0 
-0.0925685 -5.94893 0 
0 0 0 
-6.1261 -0.0875945 0 
-0.0875945 -5.96672 0 
0 0 0 
-6.1393 -0.104498 0 
-0.104498 -5.95352 0 
0 0 0 
-6.0482 -0.0225648 0 
-0.0225648 -6.03054 0 
0 0 0 
-6.04878 -0.0237154 0 
-0.0237154 -6.02996 0 
0 0 0 
-6.04646 -0.0242355 0 
-0.0242355 -6.03228 0 
0 0 0 
-6.04565 -0.0316009 0 
-0.0316009 -6.02354 0 
0 0 0 
-6.04324 -0.0321194 0 
-0.0321194 -6.02595 0 
0 0 0 
-6.04466 -0.0301547 0 
-0.0301547 -6.02453 0 
0 0 0 
-6.06666 -0.0337104 0 
-0.0337104 -6.02645 0 
0 0 0 
-6.06479 -0.0310306 0 
-0.0310306 -6.02832 0 
0 0 0 
-6.06608 -0.0318798 0 
-0.0318798 -6.02703 0 
0 0 0 
-6.09747 -0.13572 0 
-0.13572 -5.97794 0 
0 0 0 
-6.0884 -0.124661 0 
-0.124661 -5.987 0 
0 0 0 
-6.08935 -0.129937 0 
-0.129937 -5.98605 0 
0 0 0 
-6.1024 -0.148544 0 
-0.148544 -5.94161 0 
0 0 0 
-6.10381 -0.137891 0 
-0.137891 -5.94021 0 
0 0 0 
-6.08929 -0.131133 0 
-0.131133 -5.95472 0 
0 0 0 
-6.09804 -0.148432 0 
-0.148432 -5.97289 0 
0 0 0 
-6.09905 -0.156507 0 
-0.156507 -5.97188 0 
0 0 0 
-6.11007 -0.164039 0 
-0.164039 -5.96086 0 
0 0 0 
-6.03658 -0.0933036 0 
-0.0933036 -5.99292 0 
0 0 0 
-6.03352 -0.0933729 0 
-0.0933729 -5.99598 0 
0 0 0 
-6.03298 -0.0895308 0 
-0.0895308 -5.99652 0 
0 0 0 
-6.07578 -0.0785764 0 
-0.0785764 -6.00338 0 
0 0 0 
-6.07118 -0.0733539 0 
-0.0733539 -6.00798 0 
0 0 0 
-6.07227 -0.0752931 0 
-0.0752931 -6.00689 0 
0 0 0 
-6.12043 -0.164633 0 
-0.164633 -5.90838 0 
0 0 0 
-6.09869 -0.155502 0 
-0.155502 -5.93012 0 
0 0 0 
-6.11746 -0.181849 0 
-0.181849 -5.91134 0 
0 0 0 
-6.08108 -0.0944396 0 
-0.0944396 -5.99696 0 
0 0 0 
-6.0754 -0.0879647 0 
-0.0879647 -6.00264 0 
0 0 0 
-6.07641 -0.0905733 0 
-0.0905733 -6.00163 0 
0 0 0 
-6.03769 -0.0773862 0 
-0.0773862 -5.99959 0 
0 0 0 
-6.0349 -0.0776184 0 
-0.0776184 -6.00239 0 
0 0 0 
-6.03466 -0.0742528 0 
-0.0742528 -6.00263 0 
0 0 0 
-6.07621 -0.093142 0 
-0.093142 -5.98112 0 
0 0 0 
-6.08383 -0.102471 0 
-0.102471 -5.9735 0 
0 0 0 
-6.0839 -0.0975041 0 
-0.0975041 -5.97343 0 
0 0 0 
-6.12847 -0.201574 0 
-0.201574 -5.93169 0 
0 0 0 
-6.11126 -0.177489 0 
-0.177489 -5.9489 0 
0 0 0 
-6.11213 -0.191139 0 
-0.191139 -5.94803 0 
0 0 0 
-6.12438 -0.0847254 0 
-0.0847254 -5.98415 0 
0 0 0 
-6.12147 -0.0932047 0 
-0.0932047 -5.98705 0 
0 0 0 
-6.13435 -0.0972866 0 
-0.0972866 -5.97418 0 
0 0 0 
-6.11113 -0.18379 0 
-0.18379 -5.88924 0 
0 0 0 
-6.14154 -0.228542 0 
-0.228542 -5.85883 0 
0 0 0 
-6.14836 -0.19741 0 
-0.19741 -5.85201 0 
0 0 0 
-6.15381 -0.115768 0 
-0.115768 -5.96044 0 
0 0 0 
-6.14063 -0.0987806 0 
-0.0987806 -5.97363 0 
0 0 0 
-6.13617 -0.110727 0 
-0.110727 -5.97808 0 
0 0 0 
-6.13215 -0.212921 0 
-0.212921 -5.90477 0 
0 0 0 
-6.13153 -0.239368 0 
-0.239368 -5.90539 0 
0 0 0 
-6.16031 -0.255272 0 
-0.255272 -5.87661 0 
0 0 0 
-6.09173 -0.123017 0 
-0.123017 -5.96056 0 
0 0 0 
-6.09231 -0.115938 0 
-0.115938 -5.95999 0 
0 0 0 
-6.08193 -0.110618 0 
-0.110618 -5.97036 0 
0 0 0 
-6.20437 -0.236059 0 
-0.236059 -5.74328 0 
0 0 0 
-6.13066 -0.213257 0 
-0.213257 -5.81699 0 
0 0 0 
-6.18726 -0.299896 0 
-0.299896 -5.76039 0 
0 0 0 
-6.21809 -0.337039 0 
-0.337039 -5.76598 0 
0 0 0 
-6.16708 -0.254984 0 
-0.254984 -5.81699 0 
0 0 0 
-6.16661 -0.307858 0 
-0.307858 -5.81746 0 
0 0 0 
-6.16777 -0.204742 0 
-0.204742 -5.72222 0 
0 0 0 
-6.32603 -0.412149 0 
-0.412149 -5.56396 0 
0 0 0 
-6.37737 -0.266476 0 
-0.266476 -5.51263 0 
0 0 0 
-9.30651 -1.05103 0 
-1.05103 -9.95526 0 
0 0 0 
-9.41085 -0.807038 0 
-0.807038 -9.85092 0 
0 0 0 
-9.56413 -0.858941 0 
-0.858941 -9.69764 0 
0 0 0 
-6.31681 -0.157768 0 
-0.157768 -5.55396 0 
0 0 0 
-6.19731 -0.477927 0 
-0.477927 -5.67346 0 
0 0 0 
-6.53316 -0.533841 0 
-0.533841 -5.33761 0 
0 0 0 
-6.06403 -0.0347032 0 
-0.0347032 -6.20639 0 
0 0 0 
-6.08122 -0.0362849 0 
-0.0362849 -6.1892 0 
0 0 0 
-6.06888 -0.0196356 0 
-0.0196356 -6.20154 0 
0 0 0 
-6.15379 0.0602641 0 
0.0602641 -6.09467 0 
0 0 0 
-6.14379 0.0362819 0 
0.0362819 -6.10467 0 
0 0 0 
-6.16792 0.0338948 0 
0.0338948 -6.08053 0 
0 0 0 
-6.19791 0.068132 0 
0.068132 -6.04364 0 
0 0 0 
-6.18241 0.0697396 0 
0.0697396 -6.05915 0 
0 0 0 
-6.19155 0.0512062 0 
0.0512062 -6.05 0 
0 0 0 
-6.12306 0.0255272 0 
0.0255272 -6.05198 0 
0 0 0 
-6.12646 0.0325648 0 
0.0325648 -6.04858 0 
0 0 0 
-6.11862 0.0331685 0 
0.0331685 -6.05642 0 
0 0 0 
-6.12914 0.00438409 0 
0.00438409 -6.24502 0 
0 0 0 
-6.14156 0.00062097 0 
0.00062097 -6.2326 0 
0 0 0 
-6.13125 0.0183655 0 
0.0183655 -6.2429 0 
0 0 0 
-6.88385 -0.146874 0 
-0.146874 -5.19488 0 
0 0 0 
-6.45403 -0.0448206 0 
-0.0448206 -5.6247 0 
0 0 0 
-6.75732 -0.396571 0 
-0.396571 -5.32141 0 
0 0 0 
-6.05905 -0.0180395 0 
-0.0180395 -6.21987 0 
0 0 0 
-6.07007 -0.0364401 0 
-0.0364401 -6.20886 0 
0 0 0 
-6.07568 -0.0212183 0 
-0.0212183 -6.20325 0 
0 0 0 
-6.10714 0.0138929 0 
0.0138929 -6.07057 0 
0 0 0 
-6.10889 0.0182209 0 
0.0182209 -6.06882 0 
0 0 0 
-6.10429 0.0188351 0 
0.0188351 -6.07343 0 
0 0 0 
-6.00613 -0.0545076 0 
-0.0545076 -6.25845 0 
0 0 0 
-6.00575 -0.0539507 0 
-0.0539507 -6.25883 0 
0 0 0 
-6.00546 -0.0533467 0 
-0.0533467 -6.25912 0 
0 0 0 
-6.10895 0.0175457 0 
0.0175457 -6.06926 0 
0 0 0 
-6.10623 0.0224246 0 
0.0224246 -6.07198 0 
0 0 0 
-6.10434 0.0180279 0 
0.0180279 -6.07387 0 
0 0 0 
-6.01038 -0.0544658 0 
-0.0544658 -6.25775 0 
0 0 0 
-6.00749 -0.0507475 0 
-0.0507475 -6.26063 0 
0 0 0 
-6.00656 -0.0533411 0 
-0.0533411 -6.26157 0 
0 0 0 
-6.06614 -0.0283541 0 
-0.0283541 -6.02131 0 
0 0 0 
-6.06498 -0.0266009 0 
-0.0266009 -6.02247 0 
0 0 0 
-6.06708 -0.0298268 0 
-0.0298268 -6.02037 0 
0 0 0 
-6.19897 0.0721064 0 
0.0721064 -5.97393 0 
0 0 0 
-6.19693 0.0755637 0 
0.0755637 -5.97597 0 
0 0 0 
-6.19303 0.071024 0 
0.071024 -5.97987 0 
0 0 0 
-6.19453 0.0699908 0 
0.0699908 -5.97377 0 
0 0 0 
-6.1975 0.0724146 0 
0.0724146 -5.9708 0 
0 0 0 
-6.19413 0.0709312 0 
0.0709312 -5.97417 0 
0 0 0 
-6.13504 0.0127928 0 
0.0127928 -6.21972 0 
0 0 0 
-6.14253 -0.000933999 0 
-0.000933999 -6.21223 0 
0 0 0 
-6.14384 0.0096579 0 
0.0096579 -6.21092 0 
0 0 0 
-7.93851 -2.08706 0 
-2.08706 -8.89036 0 
0 0 0 
-8.66564 -2.0054 0 
-2.0054 -8.16322 0 
0 0 0 
-8.27618 -1.81793 0 
-1.81793 -8.55269 0 
0 0 0 
-6.13551 0.239356 0 
0.239356 -5.8736 0 
0 0 0 
-6.11178 0.302604 0 
0.302604 -5.89733 0 
0 0 0 
-6.08196 0.236098 0 
0.236098 -5.92715 0 
0 0 0 
-6.29584 0.0331637 0 
0.0331637 -6.37284 0 
0 0 0 
-6.30333 0.0397283 0 
0.0397283 -6.36535 0 
0 0 0 
-6.31818 0.0380259 0 
0.0380259 -6.3505 0 
0 0 0 
-6.11007 0.306887 0 
0.306887 -5.93422 0 
0 0 0 
-6.05162 0.305514 0 
0.305514 -5.99267 0 
0 0 0 
-6.07822 0.230643 0 
0.230643 -5.96607 0 
0 0 0 
-6.14692 -0.00250137 0 
-0.00250137 -6.0631 0 
0 0 0 
-6.15773 0.0222177 0 
0.0222177 -6.05229 0 
0 0 0 
-6.13228 0.0244266 0 
0.0244266 -6.07774 0 
0 0 0 
-6.3125 -0.667566 0 
-0.667566 -11.2245 0 
0 0 0 
-9.12585 -0.205953 0 
-0.205953 -8.41112 0 
0 0 0 
-8.11895 1.39427 0 
1.39427 -9.41802 0 
0 0 0 
-6.11292 0.0362071 0 
0.0362071 -6.06576 0 
0 0 0 
-6.12007 0.0357523 0 
0.0357523 -6.05861 0 
0 0 0 
-6.1161 0.0427725 0 
0.0427725 -6.06258 0 
0 0 0 
-6.19146 0.053999 0 
0.053999 -5.99832 0 
0 0 0 
-6.19903 0.0520842 0 
0.0520842 -5.99076 0 
0 0 0 
-6.19359 0.0624756 0 
0.0624756 -5.9962 0 
0 0 0 
-6.16227 0.0301297 0 
0.0301297 -6.25667 0 
0 0 0 
-6.16923 0.0160231 0 
0.0160231 -6.24971 0 
0 0 0 
-6.16599 0.0260724 0 
0.0260724 -6.25296 0 
0 0 0 
-6.19001 0.060153 0 
0.060153 -6.01382 0 
0 0 0 
-6.19631 0.04773 0 
0.04773 -6.00752 0 
0 0 0 
-6.19985 0.0585571 0 
0.0585571 -6.00398 0 
0 0 0 
-6.17421 0.10864 0 
0.10864 -5.92929 0 
0 0 0 
-6.18824 0.11185 0 
0.11185 -5.91526 0 
0 0 0 
-6.184 0.12425 0 
0.12425 -5.9195 0 
0 0 0 
-6.0696 -0.00722309 0 
-0.00722309 -6.05085 0 
0 0 0 
-6.06966 -0.00643626 0 
-0.00643626 -6.05079 0 
0 0 0 
-6.07031 -0.00835053 0 
-0.00835053 -6.05014 0 
0 0 0 
-6.19698 0.0631296 0 
0.0631296 -5.97986 0 
0 0 0 
-6.19881 0.0614086 0 
0.0614086 -5.97803 0 
0 0 0 
-6.19641 0.0659255 0 
0.0659255 -5.98044 0 
0 0 0 
-6.35257 0.0371261 0 
0.0371261 -6.63778 0 
0 0 0 
-6.55874 0.0857894 0 
0.0857894 -6.43161 0 
0 0 0 
-6.48069 0.114245 0 
0.114245 -6.50966 0 
0 0 0 
-6.19414 0.0440558 0 
0.0440558 -6.01257 0 
0 0 0 
-6.18561 0.0603269 0 
0.0603269 -6.0211 0 
0 0 0 
-6.18068 0.0461322 0 
0.0461322 -6.02603 0 
0 0 0 
-6.11509 -0.00482543 0 
-0.00482543 -6.09545 0 
0 0 0 
-6.14266 -0.00724008 0 
-0.00724008 -6.06787 0 
0 0 0 
-6.12678 0.0222262 0 
0.0222262 -6.08375 0 
0 0 0 
-6.1233 0.0219177 0 
0.0219177 -6.25283 0 
0 0 0 
-6.1335 0.00342187 0 
0.00342187 -6.24264 0 
0 0 0 
-6.13628 0.0188987 0 
0.0188987 -6.23985 0 
0 0 0 
-6.20164 0.0566689 0 
0.0566689 -5.9887 0 
0 0 0 
-6.20243 0.0619351 0 
0.0619351 -5.98791 0 
0 0 0 
-6.19835 0.0633802 0 
0.0633802 -5.99199 0 
0 0 0 
-6.20168 0.0663528 0 
0.0663528 -5.97837 0 
0 0 0 
-6.19993 0.0663837 0 
0.0663837 -5.98012 0 
0 0 0 
-6.20122 0.0676605 0 
0.0676605 -5.97883 0 
0 0 0 
-6.20185 0.0523393 0 
0.0523393 -6.03101 0 
0 0 0 
-6.19345 0.0691382 0 
0.0691382 -6.03941 0 
0 0 0 
-6.18832 0.0542303 0 
0.0542303 -6.04454 0 
0 0 0 
-6.12021 0.0685625 0 
0.0685625 -6.06879 0 
0 0 0 
-6.12535 0.0591142 0 
0.0591142 -6.06364 0 
0 0 0 
-6.12961 0.0680556 0 
0.0680556 -6.05938 0 
0 0 0 
-6.35825 0.10734 0 
0.10734 -6.50998 0 
0 0 0 
-6.38016 0.0698244 0 
0.0698244 -6.48808 0 
0 0 0 
-6.35877 0.0632463 0 
0.0632463 -6.50947 0 
0 0 0 
-6.12274 0.038467 0 
0.038467 -6.06159 0 
0 0 0 
-6.1262 0.0456826 0 
0.0456826 -6.05813 0 
0 0 0 
-6.11831 0.0462467 0 
0.0462467 -6.06602 0 
0 0 0 
-6.15573 0.00106646 0 
0.00106646 -6.15299 0 
0 0 0 
-6.15187 0.0021181 0 
0.0021181 -6.15684 0 
0 0 0 
-6.14832 0.0025988 0 
0.0025988 -6.16039 0 
0 0 0 
-6.10448 -0.0259381 0 
-0.0259381 -6.00572 0 
0 0 0 
-6.10966 -0.0333879 0 
-0.0333879 -6.00054 0 
0 0 0 
-6.11166 -0.0277741 0 
-0.0277741 -5.99854 0 
0 0 0 
-6.06713 -0.0157802 0 
-0.0157802 -6.03628 0 
0 0 0 
-6.06678 -0.0145443 0 
-0.0145443 -6.03664 0 
0 0 0 
-6.06803 -0.0170339 0 
-0.0170339 -6.03539 0 
0 0 0 
-6.26322 0.111477 0 
0.111477 -6.43298 0 
0 0 0 
-6.15821 0.151782 0 
0.151782 -6.53799 0 
0 0 0 
-6.19741 -0.0102953 0 
-0.0102953 -6.49879 0 
0 0 0 
-6.50794 -0.0345399 0 
-0.0345399 -5.67824 0 
0 0 0 
-6.4159 -0.212605 0 
-0.212605 -5.77028 0 
0 0 0 
-6.65005 -0.241512 0 
-0.241512 -5.53613 0 
0 0 0 
-6.17838 0.056662 0 
0.056662 -6.06115 0 
0 0 0 
-6.1573 0.058581 0 
0.058581 -6.08223 0 
0 0 0 
-6.1695 0.0352317 0 
0.0352317 -6.07003 0 
0 0 0 
-6.15588 0.136226 0 
0.136226 -5.92741 0 
0 0 0 
-6.16199 0.118044 0 
0.118044 -5.92131 0 
0 0 0 
-6.17367 0.13945 0 
0.13945 -5.90962 0 
0 0 0 
-6.88246 0.0225839 0 
0.0225839 -5.57708 0 
0 0 0 
-6.61148 0.0712101 0 
0.0712101 -5.84806 0 
0 0 0 
-6.78908 -0.120207 0 
-0.120207 -5.67046 0 
0 0 0 
-6.19182 0.0516749 0 
0.0516749 -6.06368 0 
0 0 0 
-6.18032 0.0739555 0 
0.0739555 -6.07518 0 
0 0 0 
-6.17257 0.0538416 0 
0.0538416 -6.08292 0 
0 0 0 
-6.16174 0.0238179 0 
0.0238179 -6.25368 0 
0 0 0 
-6.166 0.0157846 0 
0.0157846 -6.24942 0 
0 0 0 
-6.16966 0.0124069 0 
0.0124069 -6.24577 0 
0 0 0 
-6.09513 -0.046204 0 
-0.046204 -6.00731 0 
0 0 0 
-6.09092 -0.0405845 0 
-0.0405845 -6.01151 0 
0 0 0 
-6.09042 -0.044063 0 
-0.044063 -6.01201 0 
0 0 0 
-6.14069 0.246044 0 
0.246044 -5.86472 0 
0 0 0 
-6.11618 0.197139 0 
0.197139 -5.88923 0 
0 0 0 
-6.15499 0.203036 0 
0.203036 -5.85042 0 
0 0 0 
-6.10134 0.013322 0 
0.013322 -6.0749 0 
0 0 0 
-6.10545 0.0128985 0 
0.0128985 -6.07079 0 
0 0 0 
-6.10301 0.0171779 0 
0.0171779 -6.07323 0 
0 0 0 
-6.11298 0.0239302 0 
0.0239302 -6.06795 0 
0 0 0 
-6.10779 0.0245295 0 
0.0245295 -6.07314 0 
0 0 0 
-6.1109 0.0191304 0 
0.0191304 -6.07002 0 
0 0 0 
-6.08449 -0.00604891 0 
-0.00604891 -6.26822 0 
0 0 0 
-6.10394 -0.010237 0 
-0.010237 -6.24877 0 
0 0 0 
-6.09059 0.0115106 0 
0.0115106 -6.26212 0 
0 0 0 
-6.00559 -0.0524149 0 
-0.0524149 -6.25775 0 
0 0 0 
-6.00459 -0.0555203 0 
-0.0555203 -6.25874 0 
0 0 0 
-6.00716 -0.0558565 0 
-0.0558565 -6.25617 0 
0 0 0 
-6.17398 -0.0481531 0 
-0.0481531 -5.8846 0 
0 0 0 
-6.14476 -0.0425673 0 
-0.0425673 -5.91382 0 
0 0 0 
-6.16421 -0.0762788 0 
-0.0762788 -5.89438 0 
0 0 0 
-6.07907 -0.00533073 0 
-0.00533073 -6.05093 0 
0 0 0 
-6.07739 -0.00459851 0 
-0.00459851 -6.0526 0 
0 0 0 
-6.07887 -0.00769529 0 
-0.00769529 -6.05113 0 
0 0 0 
-6.12156 0.0449994 0 
0.0449994 -6.05856 0 
0 0 0 
-6.11727 0.0526723 0 
0.0526723 -6.06285 0 
0 0 0 
-6.11373 0.0454372 0 
0.0454372 -6.06639 0 
0 0 0 
-6.1252 0.0320382 0 
0.0320382 -6.04894 0 
0 0 0 
-6.12084 0.0396659 0 
0.0396659 -6.0533 0 
0 0 0 
-6.11726 0.0324877 0 
0.0324877 -6.05688 0 
0 0 0 
-6.16447 0.000838679 0 
0.000838679 -6.19174 0 
0 0 0 
-6.16889 -0.00124625 0 
-0.00124625 -6.18732 0 
0 0 0 
-6.16487 0.00711974 0 
0.00711974 -6.19134 0 
0 0 0 
-6.5805 0.194337 0 
0.194337 -5.89341 0 
0 0 0 
-6.54865 0.163677 0 
0.163677 -5.92526 0 
0 0 0 
-6.62881 0.154175 0 
0.154175 -5.8451 0 
0 0 0 
-6.17343 0.00404726 0 
0.00404726 -6.16726 0 
0 0 0 
-6.17066 0.00386743 0 
0.00386743 -6.17002 0 
0 0 0 
-6.17197 0.00328906 0 
0.00328906 -6.16871 0 
0 0 0 
-6.00887 -0.0690189 0 
-0.0690189 -6.26012 0 
0 0 0 
-6.01506 -0.0677679 0 
-0.0677679 -6.25393 0 
0 0 0 
-6.01305 -0.060614 0 
-0.060614 -6.25594 0 
0 0 0 
-6.1143 0.020795 0 
0.020795 -6.06073 0 
0 0 0 
-6.11097 0.0266684 0 
0.0266684 -6.06406 0 
0 0 0 
-6.1085 0.0212914 0 
0.0212914 -6.06653 0 
0 0 0 
-6.11393 0.024507 0 
0.024507 -6.05825 0 
0 0 0 
-6.12106 0.024017 0 
0.024017 -6.05112 0 
0 0 0 
-6.11707 0.0309778 0 
0.0309778 -6.05511 0 
0 0 0 
-6.09767 -0.0460246 0 
-0.0460246 -5.99302 0 
0 0 0 
-6.09136 -0.0435838 0 
-0.0435838 -5.99933 0 
0 0 0 
-6.09663 -0.0505857 0 
-0.0505857 -5.99406 0 
0 0 0 
-6.1491 0.0707529 0 
0.0707529 -6.02925 0 
0 0 0 
-6.13738 0.0710069 0 
0.0710069 -6.04096 0 
0 0 0 
-6.14346 0.0598938 0 
0.0598938 -6.03489 0 
0 0 0 
-6.19714 0.0737872 0 
0.0737872 -5.96977 0 
0 0 0 
-6.19695 0.0744941 0 
0.0744941 -5.96996 0 
0 0 0 
-6.1941 0.0722525 0 
0.0722525 -5.97282 0 
0 0 0 
-6.16933 0.00259953 0 
0.00259953 -6.16602 0 
0 0 0 
-6.16756 0.00289889 0 
0.00289889 -6.16779 0 
0 0 0 
-6.17032 0.00407088 0 
0.00407088 -6.16503 0 
0 0 0 
-6.12697 -0.152521 0 
-0.152521 -5.88487 0 
0 0 0 
-6.10085 -0.0993146 0 
-0.0993146 -5.91099 0 
0 0 0 
-6.08501 -0.146537 0 
-0.146537 -5.92683 0 
0 0 0 
-6.64417 0.152542 0 
0.152542 -5.08812 0 
0 0 0 
-6.46552 -0.241689 0 
-0.241689 -5.26677 0 
0 0 0 
-6.99487 -0.34104 0 
-0.34104 -4.73742 0 
0 0 0 
-6.12965 -0.0423197 0 
-0.0423197 -5.97974 0 
0 0 0 
-6.11933 -0.0398302 0 
-0.0398302 -5.99006 0 
0 0 0 
-6.12664 -0.0495868 0 
-0.0495868 -5.98275 0 
0 0 0 
-6.11976 0.0567879 0 
0.0567879 -6.06723 0 
0 0 0 
-6.12454 0.0482476 0 
0.0482476 -6.06245 0 
0 0 0 
-6.12839 0.0562508 0 
0.0562508 -6.05861 0 
0 0 0 
-6.08366 -0.0279573 0 
-0.0279573 -6.02473 0 
0 0 0 
-6.08669 -0.0295545 0 
-0.0295545 -6.0217 0 
0 0 0 
-6.08379 -0.0251917 0 
-0.0251917 -6.02459 0 
0 0 0 
-6.08755 -0.0331623 0 
-0.0331623 -6.01043 0 
0 0 0 
-6.08808 -0.0295928 0 
-0.0295928 -6.0099 0 
0 0 0 
-6.08388 -0.0277822 0 
-0.0277822 -6.0141 0 
0 0 0 
-6.13803 -0.00244394 0 
-0.00244394 -6.06521 0 
0 0 0 
-6.10881 -0.000194233 0 
-0.000194233 -6.09443 0 
0 0 0 
-6.12537 -0.0306446 0 
-0.0306446 -6.07787 0 
0 0 0 
-6.16808 -0.0310998 0 
-0.0310998 -5.74848 0 
0 0 0 
-6.1525 -0.0202731 0 
-0.0202731 -5.76406 0 
0 0 0 
-6.16966 -0.0445596 0 
-0.0445596 -5.74691 0 
0 0 0 
-6.12083 -0.0847673 0 
-0.0847673 -5.91257 0 
0 0 0 
-6.14459 -0.128314 0 
-0.128314 -5.8888 0 
0 0 0 
-6.15744 -0.0910798 0 
-0.0910798 -5.87596 0 
0 0 0 
-6.10862 -0.0357594 0 
-0.0357594 -6.00911 0 
0 0 0 
-6.11564 -0.0375934 0 
-0.0375934 -6.0021 0 
0 0 0 
-6.11054 -0.0304095 0 
-0.0304095 -6.00719 0 
0 0 0 
-6.01554 -0.161294 0 
-0.161294 -6.40005 0 
0 0 0 
-5.98676 -0.212686 0 
-0.212686 -6.42883 0 
0 0 0 
-6.0236 -0.20211 0 
-0.20211 -6.39199 0 
0 0 0 
-6.07763 -0.00333734 0 
-0.00333734 -6.05858 0 
0 0 0 
-6.07765 -0.00517831 0 
-0.00517831 -6.05856 0 
0 0 0 
-6.07873 -0.00582588 0 
-0.00582588 -6.05748 0 
0 0 0 
-6.11257 0.0288792 0 
0.0288792 -6.06536 0 
0 0 0 
-6.11633 0.0223841 0 
0.0223841 -6.0616 0 
0 0 0 
-6.11904 0.0282693 0 
0.0282693 -6.05889 0 
0 0 0 
-6.09592 0.00893479 0 
0.00893479 -6.24446 0 
0 0 0 
-6.10693 -0.010459 0 
-0.010459 -6.23345 0 
0 0 0 
-6.11202 0.00551643 0 
0.00551643 -6.22836 0 
0 0 0 
-6.04487 -0.022601 0 
-0.022601 -6.28015 0 
0 0 0 
-6.06526 -0.0265729 0 
-0.0265729 -6.25976 0 
0 0 0 
-6.05162 -0.00596303 0 
-0.00596303 -6.2734 0 
0 0 0 
-6.313 0.118687 0 
0.118687 -6.07493 0 
0 0 0 
-6.31424 0.117744 0 
0.117744 -6.07368 0 
0 0 0 
-6.3128 0.130488 0 
0.130488 -6.07512 0 
0 0 0 
-6.12459 -0.0590903 0 
-0.0590903 -5.90376 0 
0 0 0 
-6.11229 -0.0951276 0 
-0.0951276 -5.91607 0 
0 0 0 
-6.14654 -0.100696 0 
-0.100696 -5.88182 0 
0 0 0 
-6.60746 0.123403 0 
0.123403 -5.94506 0 
0 0 0 
-6.69707 0.0364476 0 
0.0364476 -5.85545 0 
0 0 0 
-6.75099 0.102798 0 
0.102798 -5.80153 0 
0 0 0 
-6.19212 0.0691137 0 
0.0691137 -5.96508 0 
0 0 0 
-6.19222 0.0670919 0 
0.0670919 -5.96498 0 
0 0 0 
-6.19042 0.0694772 0 
0.0694772 -5.96678 0 
0 0 0 
-6.14273 0.217232 0 
0.217232 -5.77377 0 
0 0 0 
-6.11434 0.20893 0 
0.20893 -5.80215 0 
0 0 0 
-6.12134 0.173233 0 
0.173233 -5.79515 0 
0 0 0 
-6.00931 -0.0572951 0 
-0.0572951 -6.29931 0 
0 0 0 
-6.0167 -0.0639781 0 
-0.0639781 -6.29192 0 
0 0 0 
-6.0179 -0.0608683 0 
-0.0608683 -6.29072 0 
0 0 0 
-6.29856 0.0996132 0 
0.0996132 -6.02147 0 
0 0 0 
-6.29512 0.103313 0 
0.103313 -6.02491 0 
0 0 0 
-6.30206 0.103275 0 
0.103275 -6.01797 0 
0 0 0 
-6.61818 0.118681 0 
0.118681 -5.81644 0 
0 0 0 
-6.77152 0.0983973 0 
0.0983973 -5.6631 0 
0 0 0 
-6.67728 0.199073 0 
0.199073 -5.75734 0 
0 0 0 
-6.1245 -0.0459648 0 
-0.0459648 -5.99375 0 
0 0 0 
-6.11844 -0.0377321 0 
-0.0377321 -5.99981 0 
0 0 0 
-6.11605 -0.0438483 0 
-0.0438483 -6.0022 0 
0 0 0 
-6.0821 -1.55938e-05 0 
-1.55938e-05 -6.06184 0 
0 0 0 
-6.08386 -0.00344877 0 
-0.00344877 -6.06009 0 
0 0 0 
-6.08459 -0.000606019 0 
-0.000606019 -6.05935 0 
0 0 0 
-6.10104 0.0158423 0 
0.0158423 -6.08013 0 
0 0 0 
-6.10338 0.011506 0 
0.011506 -6.07779 0 
0 0 0 
-6.10492 0.0152622 0 
0.0152622 -6.07624 0 
0 0 0 
-6.0232 -0.127394 0 
-0.127394 -6.18406 0 
0 0 0 
-6.03703 -0.0966913 0 
-0.0966913 -6.17023 0 
0 0 0 
-6.00984 -0.0969596 0 
-0.0969596 -6.19742 0 
0 0 0 
-6.11917 0.0823427 0 
0.0823427 -6.07951 0 
0 0 0 
-6.1105 0.0830335 0 
0.0830335 -6.08818 0 
0 0 0 
-6.11543 0.0735691 0 
0.0735691 -6.08324 0 
0 0 0 
-6.00407 -0.0652026 0 
-0.0652026 -6.4192 0 
0 0 0 
-5.99774 -0.0719857 0 
-0.0719857 -6.42553 0 
0 0 0 
-5.99512 -0.0631027 0 
-0.0631027 -6.42815 0 
0 0 0 
-6.11086 0.0682311 0 
0.0682311 -6.07672 0 
0 0 0 
-6.10657 0.076334 0 
0.076334 -6.08101 0 
0 0 0 
-6.1033 0.0688236 0 
0.0688236 -6.08428 0 
0 0 0 
-6.05842 -0.00329859 0 
-0.00329859 -6.26514 0 
0 0 0 
-6.07092 -0.0244703 0 
-0.0244703 -6.25264 0 
0 0 0 
-6.07765 -0.00662838 0 
-0.00662838 -6.24591 0 
0 0 0 
-6.1903 0.0993917 0 
0.0993917 -5.93163 0 
0 0 0 
-6.18387 0.0905276 0 
0.0905276 -5.93806 0 
0 0 0 
-6.19187 0.0933348 0 
0.0933348 -5.93006 0 
0 0 0 
-6.03707 -0.0541808 0 
-0.0541808 -6.1993 0 
0 0 0 
-6.02546 -0.0793635 0 
-0.0793635 -6.21091 0 
0 0 0 
-6.04914 -0.0796252 0 
-0.0796252 -6.18723 0 
0 0 0 
-6.11708 0.0618149 0 
0.0618149 -6.07945 0 
0 0 0 
-6.12051 0.0695688 0 
0.0695688 -6.07602 0 
0 0 0 
-6.11253 0.0702189 0 
0.0702189 -6.084 0 
0 0 0 
-6.11663 0.0762792 0 
0.0762792 -6.06479 0 
0 0 0 
-6.11231 0.0673239 0 
0.0673239 -6.06911 0 
0 0 0 
-6.12165 0.0669244 0 
0.0669244 -6.05977 0 
0 0 0 
-6.02713 -0.0445572 0 
-0.0445572 -6.23299 0 
0 0 0 
-6.01513 -0.0431192 0 
-0.0431192 -6.245 0 
0 0 0 
-6.02239 -0.0567712 0 
-0.0567712 -6.23773 0 
0 0 0 
-6.13171 0.0700328 0 
0.0700328 -6.0413 0 
0 0 0 
-6.14382 0.0699405 0 
0.0699405 -6.02919 0 
0 0 0 
-6.13768 0.0812283 0 
0.0812283 -6.03532 0 
0 0 0 
-6.1884 0.0614421 0 
0.0614421 -5.97789 0 
0 0 0 
-6.18715 0.0548364 0 
0.0548364 -5.97914 0 
0 0 0 
-6.19349 0.0526128 0 
0.0526128 -5.9728 0 
0 0 0 
-6.02359 0.0731746 0 
0.0731746 -6.32786 0 
0 0 0 
-6.03397 0.0634793 0 
0.0634793 -6.31748 0 
0 0 0 
-6.05 0.0843666 0 
0.0843666 -6.30146 0 
0 0 0 
-6.51581 0.171899 0 
0.171899 -5.94865 0 
0 0 0 
-6.49158 0.183387 0 
0.183387 -5.97287 0 
0 0 0 
-6.47454 0.176044 0 
0.176044 -5.98991 0 
0 0 0 
-6.01183 -0.110734 0 
-0.110734 -6.2381 0 
0 0 0 
-6.03074 -0.109056 0 
-0.109056 -6.21918 0 
0 0 0 
-6.02274 -0.0862609 0 
-0.0862609 -6.22719 0 
0 0 0 
-6.18274 0.0864122 0 
0.0864122 -5.90796 0 
0 0 0 
-6.17876 0.0828921 0 
0.0828921 -5.91194 0 
0 0 0 
-6.1777 0.0804319 0 
0.0804319 -5.913 0 
0 0 0 
-6.09934 0.0811433 0 
0.0811433 -6.08847 0 
0 0 0 
-6.10754 0.080499 0 
0.080499 -6.08027 0 
0 0 0 
-6.10289 0.0896355 0 
0.0896355 -6.08493 0 
0 0 0 
-6.19538 0.0653452 0 
0.0653452 -5.97897 0 
0 0 0 
-6.19826 0.060214 0 
0.060214 -5.97609 0 
0 0 0 
-6.19815 0.0636208 0 
0.0636208 -5.9762 0 
0 0 0 
-6.28642 0.0466547 0 
0.0466547 -5.96787 0 
0 0 0 
-6.27619 0.0343802 0 
0.0343802 -5.9781 0 
0 0 0 
-6.29914 0.0329436 0 
0.0329436 -5.95515 0 
0 0 0 
-6.5189 0.14427 0 
0.14427 -5.99618 0 
0 0 0 
-6.47633 0.148401 0 
0.148401 -6.03876 0 
0 0 0 
-6.50119 0.13494 0 
0.13494 -6.01389 0 
0 0 0 
-6.26086 0.0708011 0 
0.0708011 -6.00473 0 
0 0 0 
-6.25792 0.0721497 0 
0.0721497 -6.00767 0 
0 0 0 
-6.26371 0.0721982 0 
0.0721982 -6.00188 0 
0 0 0 
-6.11745 0.0638289 0 
0.0638289 -6.06366 0 
0 0 0 
-6.11355 0.0558204 0 
0.0558204 -6.06757 0 
0 0 0 
-6.12209 0.0553996 0 
0.0553996 -6.05903 0 
0 0 0 
-6.37616 0.233921 0 
0.233921 -7.21343 0 
0 0 0 
-6.4205 0.417893 0 
0.417893 -7.16908 0 
0 0 0 
-6.25898 0.460341 0 
0.460341 -7.33061 0 
0 0 0 
-6.13558 -0.0553817 0 
-0.0553817 -5.98509 0 
0 0 0 
-6.12827 -0.0456912 0 
-0.0456912 -5.9924 0 
0 0 0 
-6.12521 -0.0529271 0 
-0.0529271 -5.99547 0 
0 0 0 
-6.0811 0.0117813 0 
0.0117813 -6.35158 0 
0 0 0 
-6.11811 0.0244958 0 
0.0244958 -6.31457 0 
0 0 0 
-6.10314 0.0659512 0 
0.0659512 -6.32953 0 
0 0 0 
-6.14268 -0.0117887 0 
-0.0117887 -5.7716 0 
0 0 0 
-6.14178 -0.0271415 0 
-0.0271415 -5.7725 0 
0 0 0 
-6.15874 -0.0358771 0 
-0.0358771 -5.75553 0 
0 0 0 
-6.10515 -0.172448 0 
-0.172448 -5.97572 0 
0 0 0 
-6.12509 -0.123223 0 
-0.123223 -5.95579 0 
0 0 0 
-6.07785 -0.118966 0 
-0.118966 -6.00303 0 
0 0 0 
-6.12114 0.0520693 0 
0.0520693 -6.05561 0 
0 0 0 
-6.13071 0.0517229 0 
0.0517229 -6.04604 0 
0 0 0 
-6.12563 0.0608385 0 
0.0608385 -6.05113 0 
0 0 0 
-6.01685 -0.0332697 0 
-0.0332697 -6.29515 0 
0 0 0 
-6.02724 -0.0480178 0 
-0.0480178 -6.28476 0 
0 0 0 
-6.03199 -0.036527 0 
-0.036527 -6.28001 0 
0 0 0 
-5.96121 -0.0914388 0 
-0.0914388 -6.36635 0 
0 0 0 
-5.96303 -0.115481 0 
-0.115481 -6.36454 0 
0 0 0 
-5.97925 -0.0907906 0 
-0.0907906 -6.34832 0 
0 0 0 
-6.04948 -0.1779 0 
-0.1779 -6.04272 0 
0 0 0 
-6.09782 -0.180908 0 
-0.180908 -5.99438 0 
0 0 0 
-6.07105 -0.121067 0 
-0.121067 -6.02114 0 
0 0 0 
-6.12159 0.0635342 0 
0.0635342 -6.05535 0 
0 0 0 
-6.13207 0.0632565 0 
0.0632565 -6.04488 0 
0 0 0 
-6.12659 0.0732946 0 
0.0732946 -6.05036 0 
0 0 0 
-6.24441 0.105197 0 
0.105197 -6.0733 0 
0 0 0 
-6.24083 0.0904159 0 
0.0904159 -6.07687 0 
0 0 0 
-6.25065 0.0888766 0 
0.0888766 -6.06706 0 
0 0 0 
-6.00368 0.078243 0 
0.078243 -6.58953 0 
0 0 0 
-6.06382 0.0640598 0 
0.0640598 -6.5294 0 
0 0 0 
-6.02151 0.123873 0 
0.123873 -6.5717 0 
0 0 0 
-6.19658 -0.128397 0 
-0.128397 -5.93386 0 
0 0 0 
-6.18471 -0.15695 0 
-0.15695 -5.94573 0 
0 0 0 
-6.22357 -0.165683 0 
-0.165683 -5.90687 0 
0 0 0 
-6.15354 -0.0369453 0 
-0.0369453 -5.84362 0 
0 0 0 
-6.17235 -0.0675857 0 
-0.0675857 -5.82481 0 
0 0 0 
-6.17776 -0.0446924 0 
-0.0446924 -5.8194 0 
0 0 0 
-6.00709 -0.047742 0 
-0.047742 -6.28096 0 
0 0 0 
-6.00452 -0.0526098 0 
-0.0526098 -6.28353 0 
0 0 0 
-6.01517 -0.0557909 0 
-0.0557909 -6.27288 0 
0 0 0 
-6.36903 0.179622 0 
0.179622 -6.14278 0 
0 0 0 
-6.38006 0.177369 0 
0.177369 -6.13174 0 
0 0 0 
-6.3726 0.205155 0 
0.205155 -6.13921 0 
0 0 0 
-5.97416 -0.0653949 0 
-0.0653949 -6.42776 0 
0 0 0 
-5.9603 -0.0570362 0 
-0.0570362 -6.44162 0 
0 0 0 
-5.96209 -0.0562325 0 
-0.0562325 -6.43983 0 
0 0 0 
-6.26691 0.00965215 0 
0.00965215 -6.32149 0 
0 0 0 
-6.29864 0.0144365 0 
0.0144365 -6.28975 0 
0 0 0 
-6.28692 0.0216946 0 
0.0216946 -6.30148 0 
0 0 0 
-5.95375 -0.134492 0 
-0.134492 -6.39755 0 
0 0 0 
-5.95675 -0.16271 0 
-0.16271 -6.39455 0 
0 0 0 
-5.97781 -0.126332 0 
-0.126332 -6.3735 0 
0 0 0 
-6.1074 0.188924 0 
0.188924 -7.29544 0 
0 0 0 
-6.23502 0.140789 0 
0.140789 -7.16782 0 
0 0 0 
-6.13052 0.294818 0 
0.294818 -7.27232 0 
0 0 0 
-6.01676 -0.204851 0 
-0.204851 -6.10723 0 
0 0 0 
-5.97671 -0.317967 0 
-0.317967 -6.14729 0 
0 0 0 
-6.05627 -0.315103 0 
-0.315103 -6.06772 0 
0 0 0 
-6.13088 0.043758 0 
0.043758 -6.05006 0 
0 0 0 
-6.13519 0.0523916 0 
0.0523916 -6.04575 0 
0 0 0 
-6.12571 0.0528872 0 
0.0528872 -6.05523 0 
0 0 0 
-6.09219 0.0845113 0 
0.0845113 -6.10578 0 
0 0 0 
-6.0906 0.07883 0 
0.07883 -6.10737 0 
0 0 0 
-6.09554 0.0778155 0 
0.0778155 -6.10243 0 
0 0 0 
-6.59336 0.105796 0 
0.105796 -5.95559 0 
0 0 0 
-6.62464 0.135077 0 
0.135077 -5.92431 0 
0 0 0 
-6.54551 0.144638 0 
0.144638 -6.00344 0 
0 0 0 
-6.30617 0.0275771 0 
0.0275771 -6.38965 0 
0 0 0 
-6.3591 0.0374725 0 
0.0374725 -6.33672 0 
0 0 0 
-6.33736 0.0542846 0 
0.0542846 -6.35846 0 
0 0 0 
-6.10388 -0.00275057 0 
-0.00275057 -6.10048 0 
0 0 0 
-6.09069 -0.0326592 0 
-0.0326592 -6.11367 0 
0 0 0 
-6.1209 -0.0348755 0 
-0.0348755 -6.08345 0 
0 0 0 
-6.13151 0.040778 0 
0.040778 -6.10356 0 
0 0 0 
-6.14606 0.0136857 0 
0.0136857 -6.089 0 
0 0 0 
-6.15697 0.0386708 0 
0.0386708 -6.0781 0 
0 0 0 
-6.10594 0.152061 0 
0.152061 -6.06636 0 
0 0 0 
-6.11587 0.12942 0 
0.12942 -6.05643 0 
0 0 0 
-6.12555 0.151912 0 
0.151912 -6.04675 0 
0 0 0 
-6.05197 -0.203264 0 
-0.203264 -5.95776 0 
0 0 0 
-6.10319 -0.209042 0 
-0.209042 -5.90654 0 
0 0 0 
-6.07258 -0.139897 0 
-0.139897 -5.93716 0 
0 0 0 
-6.58375 0.386624 0 
0.386624 -7.08782 0 
0 0 0 
-6.66263 0.681325 0 
0.681325 -7.00894 0 
0 0 0 
-6.44049 0.718757 0 
0.718757 -7.23108 0 
0 0 0 
-6.10241 0.0808155 0 
0.0808155 -6.10717 0 
0 0 0 
-6.10631 0.0733827 0 
0.0733827 -6.10327 0 
0 0 0 
-6.10851 0.0798401 0 
0.0798401 -6.10106 0 
0 0 0 
-6.15117 0.00413065 0 
0.00413065 -6.14409 0 
0 0 0 
-6.1399 0.00563244 0 
0.00563244 -6.15536 0 
0 0 0 
-6.14613 0.00262166 0 
0.00262166 -6.14913 0 
0 0 0 
-6.1462 -0.02131 0 
-0.02131 -5.84295 0 
0 0 0 
-6.14036 -0.0440802 0 
-0.0440802 -5.8488 0 
0 0 0 
-6.16358 -0.0507399 0 
-0.0507399 -5.82558 0 
0 0 0 
-6.19127 0.173869 0 
0.173869 -6.5346 0 
0 0 0 
-6.22354 0.263143 0 
0.263143 -6.50234 0 
0 0 0 
-6.13706 0.275822 0 
0.275822 -6.58882 0 
0 0 0 
-6.10845 -0.0302206 0 
-0.0302206 -6.01039 0 
0 0 0 
-6.10412 -0.0238312 0 
-0.0238312 -6.01472 0 
0 0 0 
-6.10254 -0.0286296 0 
-0.0286296 -6.0163 0 
0 0 0 
-6.06324 0.176773 0 
0.176773 -6.60669 0 
0 0 0 
-6.10921 0.0986989 0 
0.0986989 -6.56071 0 
0 0 0 
-6.13257 0.163646 0 
0.163646 -6.53736 0 
0 0 0 
-6.01922 0.0724293 0 
0.0724293 -6.47975 0 
0 0 0 
-6.04744 0.0296764 0 
0.0296764 -6.45152 0 
0 0 0 
-6.06009 0.0634779 0 
0.0634779 -6.43888 0 
0 0 0 
-6.14082 -0.00942081 0 
-0.00942081 -5.68506 0 
0 0 0 
-6.12642 0.00709744 0 
0.00709744 -5.69946 0 
0 0 0 
-6.13156 0.00181737 0 
0.00181737 -5.69432 0 
0 0 0 
-6.08191 -0.017305 0 
-0.017305 -6.03643 0 
0 0 0 
-6.07993 -0.0138111 0 
-0.0138111 -6.03841 0 
0 0 0 
-6.07996 -0.0161464 0 
-0.0161464 -6.03839 0 
0 0 0 
-6.18778 0.0572095 0 
0.0572095 -5.97787 0 
0 0 0 
-6.19333 0.0477661 0 
0.0477661 -5.97232 0 
0 0 0 
-6.19508 0.055011 0 
0.055011 -5.97057 0 
0 0 0 
-6.08497 -0.00590729 0 
-0.00590729 -6.05371 0 
0 0 0 
-6.0877 -0.0066367 0 
-0.0066367 -6.05097 0 
0 0 0 
-6.0857 -0.00285138 0 
-0.00285138 -6.05297 0 
0 0 0 
-6.40253 0.0801958 0 
0.0801958 -5.9953 0 
0 0 0 
-6.43285 0.0516315 0 
0.0516315 -5.96498 0 
0 0 0 
-6.45384 0.0748142 0 
0.0748142 -5.94398 0 
0 0 0 
-6.25218 0.0165833 0 
0.0165833 -5.97363 0 
0 0 0 
-6.27371 0.0151465 0 
0.0151465 -5.9521 0 
0 0 0 
-6.2617 0.0292954 0 
0.0292954 -5.96411 0 
0 0 0 
-6.30376 0.146786 0 
0.146786 -6.06777 0 
0 0 0 
-6.30627 0.131044 0 
0.131044 -6.06526 0 
0 0 0 
-6.30743 0.146009 0 
0.146009 -6.0641 0 
0 0 0 
-6.34847 0.23221 0 
0.23221 -6.14087 0 
0 0 0 
-6.35927 0.195033 0 
0.195033 -6.13006 0 
0 0 0 
-6.36701 0.230439 0 
0.230439 -6.12233 0 
0 0 0 
-6.10376 0.201727 0 
0.201727 -5.90761 0 
0 0 0 
-6.1292 0.262081 0 
0.262081 -5.88217 0 
0 0 0 
-6.08622 0.257723 0 
0.257723 -5.92516 0 
0 0 0 
-6.04272 0.165294 0 
0.165294 -6.15348 0 
0 0 0 
-6.03153 0.191556 0 
0.191556 -6.16467 0 
0 0 0 
-6.02694 0.169115 0 
0.169115 -6.16926 0 
0 0 0 
-5.99667 -0.0800383 0 
-0.0800383 -6.26916 0 
0 0 0 
-5.99893 -0.073716 0 
-0.073716 -6.2669 0 
0 0 0 
-5.99947 -0.0766368 0 
-0.0766368 -6.26637 0 
0 0 0 
-6.01089 -0.0558417 0 
-0.0558417 -6.26355 0 
0 0 0 
-6.01063 -0.0553306 0 
-0.0553306 -6.26382 0 
0 0 0 
-6.00876 -0.0539485 0 
-0.0539485 -6.26568 0 
0 0 0 
-5.96055 -0.154316 0 
-0.154316 -6.57177 0 
0 0 0 
-5.94848 -0.166116 0 
-0.166116 -6.58385 0 
0 0 0 
-5.96816 -0.134559 0 
-0.134559 -6.56417 0 
0 0 0 
-6.09531 -0.00177278 0 
-0.00177278 -6.04164 0 
0 0 0 
-6.09862 -0.00746483 0 
-0.00746483 -6.03833 0 
0 0 0 
-6.10037 -0.00266634 0 
-0.00266634 -6.03657 0 
0 0 0 
-6.29943 0.0612386 0 
0.0612386 -6.00381 0 
0 0 0 
-6.31092 0.05219 0 
0.05219 -5.99232 0 
0 0 0 
-6.31969 0.0596656 0 
0.0596656 -5.98354 0 
0 0 0 
-6.23557 0.130111 0 
0.130111 -6.12062 0 
0 0 0 
-6.2284 0.107614 0 
0.107614 -6.12778 0 
0 0 0 
-6.24691 0.105202 0 
0.105202 -6.10928 0 
0 0 0 
-6.26581 -0.00648698 0 
-0.00648698 -5.95889 0 
0 0 0 
-6.27622 0.00817708 0 
0.00817708 -5.94848 0 
0 0 0 
-6.25071 0.0108854 0 
0.0108854 -5.97398 0 
0 0 0 
-6.14379 0.0610738 0 
0.0610738 -6.02739 0 
0 0 0 
-6.13825 0.050932 0 
0.050932 -6.03293 0 
0 0 0 
-6.14971 0.0507116 0 
0.0507116 -6.02146 0 
0 0 0 
-6.12307 0.0363563 0 
0.0363563 -6.05818 0 
0 0 0 
-6.11588 0.0369445 0 
0.0369445 -6.06537 0 
0 0 0 
-6.11998 0.0298311 0 
0.0298311 -6.06126 0 
0 0 0 
-6.13578 0.0680331 0 
0.0680331 -6.0379 0 
0 0 0 
-6.13041 0.0579342 0 
0.0579342 -6.04327 0 
0 0 0 
-6.14153 0.0577137 0 
0.0577137 -6.03215 0 
0 0 0 
-6.41621 0.167626 0 
0.167626 -6.02086 0 
0 0 0 
-6.40825 0.172702 0 
0.172702 -6.02882 0 
0 0 0 
-6.42659 0.171306 0 
0.171306 -6.01048 0 
0 0 0 
-6.08215 0.0817661 0 
0.0817661 -6.25729 0 
0 0 0 
-6.10235 0.0455569 0 
0.0455569 -6.23709 0 
0 0 0 
-6.11658 0.0783246 0 
0.0783246 -6.22286 0 
0 0 0 
-6.16679 0.00578131 0 
0.00578131 -6.15743 0 
0 0 0 
-6.15733 0.00623415 0 
0.00623415 -6.16689 0 
0 0 0 
-6.16251 0.00417172 0 
0.00417172 -6.16171 0 
0 0 0 
-6.09407 -0.0034786 0 
-0.0034786 -6.05207 0 
0 0 0 
-6.09162 0.00096955 0 
0.00096955 -6.05453 0 
0 0 0 
-6.09033 -0.00280315 0 
-0.00280315 -6.05581 0 
0 0 0 
-6.18834 0.0670196 0 
0.0670196 -5.98243 0 
0 0 0 
-6.19372 0.0750557 0 
0.0750557 -5.97706 0 
0 0 0 
-6.18423 0.0743277 0 
0.0743277 -5.98655 0 
0 0 0 
-6.02771 0.111155 0 
0.111155 -6.47618 0 
0 0 0 
-6.01101 0.0711709 0 
0.0711709 -6.49287 0 
0 0 0 
-6.06255 0.0606959 0 
0.0606959 -6.44133 0 
0 0 0 
-6.17341 0.166822 0 
0.166822 -5.84856 0 
0 0 0 
-6.16412 0.196304 0 
0.196304 -5.85784 0 
0 0 0 
-6.14496 0.161117 0 
0.161117 -5.87701 0 
0 0 0 
-6.1029 0.0111418 0 
0.0111418 -6.06504 0 
0 0 0 
-6.09862 0.0117856 0 
0.0117856 -6.06932 0 
0 0 0 
-6.10132 0.00701736 0 
0.00701736 -6.06662 0 
0 0 0 
-6.09808 0.0939948 0 
0.0939948 -6.1155 0 
0 0 0 
-6.10228 0.0855632 0 
0.0855632 -6.1113 0 
0 0 0 
-6.10447 0.092838 0 
0.092838 -6.10911 0 
0 0 0 
-6.12926 0.0270494 0 
0.0270494 -6.04047 0 
0 0 0 
-6.1246 0.0350837 0 
0.0350837 -6.04513 0 
0 0 0 
-6.12077 0.0275231 0 
0.0275231 -6.04896 0 
0 0 0 
-6.35002 0.0158243 0 
0.0158243 -5.9495 0 
0 0 0 
-6.40508 0.0114121 0 
0.0114121 -5.89444 0 
0 0 0 
-6.37373 0.0493714 0 
0.0493714 -5.92579 0 
0 0 0 
-6.15966 0.171007 0 
0.171007 -6.34559 0 
0 0 0 
-6.1047 0.178089 0 
0.178089 -6.40055 0 
0 0 0 
-6.13831 0.1168 0 
0.1168 -6.36694 0 
0 0 0 
-6.27113 0.0396259 0 
0.0396259 -5.98862 0 
0 0 0 
-6.28295 0.0280887 0 
0.0280887 -5.9768 0 
0 0 0 
-6.29173 0.0378742 0 
0.0378742 -5.96802 0 
0 0 0 
-6.20842 0.0124475 0 
0.0124475 -5.96891 0 
0 0 0 
-6.20069 0.0231329 0 
0.0231329 -5.97664 0 
0 0 0 
-6.19431 0.0132302 0 
0.0132302 -5.98301 0 
0 0 0 
-6.1967 0.0659578 0 
0.0659578 -5.97857 0 
0 0 0 
-6.20073 0.0707175 0 
0.0707175 -5.97454 0 
0 0 0 
-6.19437 0.0697367 0 
0.0697367 -5.9809 0 
0 0 0 
-6.07532 -0.00492379 0 
-0.00492379 -6.2327 0 
0 0 0 
-6.08616 -0.0242024 0 
-0.0242024 -6.22186 0 
0 0 0 
-6.09206 -0.00792354 0 
-0.00792354 -6.21596 0 
0 0 0 
-6.00086 -0.0816339 0 
-0.0816339 -6.23831 0 
0 0 0 
-6.00649 -0.0979706 0 
-0.0979706 -6.23268 0 
0 0 0 
-6.01425 -0.0804076 0 
-0.0804076 -6.22492 0 
0 0 0 
-6.11439 -0.0164154 0 
-0.0164154 -6.06115 0 
0 0 0 
-6.13175 -0.048226 0 
-0.048226 -6.04378 0 
0 0 0 
-6.14467 -0.0189802 0 
-0.0189802 -6.03086 0 
0 0 0 
-6.15141 -0.010588 0 
-0.010588 -5.92457 0 
0 0 0 
-6.17154 -0.0150379 0 
-0.0150379 -5.90443 0 
0 0 0 
-6.15762 0.00865355 0 
0.00865355 -5.91835 0 
0 0 0 
-6.10519 -0.0216132 0 
-0.0216132 -6.0078 0 
0 0 0 
-6.09906 -0.0200302 0 
-0.0200302 -6.01393 0 
0 0 0 
-6.10349 -0.0267138 0 
-0.0267138 -6.0095 0 
0 0 0 
-6.11858 -0.186586 0 
-0.186586 -5.89489 0 
0 0 0 
-6.1352 -0.137828 0 
-0.137828 -5.87828 0 
0 0 0 
-6.09009 -0.130922 0 
-0.130922 -5.92338 0 
0 0 0 
-6.11385 0.014377 0 
0.014377 -6.18305 0 
0 0 0 
-6.11723 0.00509456 0 
0.00509456 -6.17967 0 
0 0 0 
-6.12568 0.017353 0 
0.017353 -6.17122 0 
0 0 0 
-6.08199 -0.10848 0 
-0.10848 -5.99514 0 
0 0 0 
-6.08813 -0.113133 0 
-0.113133 -5.989 0 
0 0 0 
-6.08103 -0.104845 0 
-0.104845 -5.9961 0 
0 0 0 
-5.99599 -0.0764975 0 
-0.0764975 -6.21259 0 
0 0 0 
-6.00507 -0.0936004 0 
-0.0936004 -6.20351 0 
0 0 0 
-6.01387 -0.0749903 0 
-0.0749903 -6.19471 0 
0 0 0 
-6.11285 0.00995 0 
0.00995 -6.28452 0 
0 0 0 
-6.1321 0.00520595 0 
0.00520595 -6.26526 0 
0 0 0 
-6.11837 0.0287366 0 
0.0287366 -6.279 0 
0 0 0 
-6.14745 0.0735904 0 
0.0735904 -6.02378 0 
0 0 0 
-6.14138 0.0625903 0 
0.0625903 -6.02985 0 
0 0 0 
-6.15364 0.0625249 0 
0.0625249 -6.0176 0 
0 0 0 
-6.09148 -0.041263 0 
-0.041263 -6.00223 0 
0 0 0 
-6.09222 -0.0372825 0 
-0.0372825 -6.00149 0 
0 0 0 
-6.0871 -0.0351798 0 
-0.0351798 -6.00661 0 
0 0 0 
-6.18078 0.000305671 0 
0.000305671 -5.98088 0 
0 0 0 
-6.18658 0.010156 0 
0.010156 -5.97508 0 
0 0 0 
-6.17294 0.0113389 0 
0.0113389 -5.98872 0 
0 0 0 
-6.17223 0.127155 0 
0.127155 -6.29781 0 
0 0 0 
-6.14083 0.18102 0 
0.18102 -6.3292 0 
0 0 0 
-6.12125 0.133974 0 
0.133974 -6.34879 0 
0 0 0 
-6.19087 0.0657378 0 
0.0657378 -5.98509 0 
0 0 0 
-6.19922 0.0664182 0 
0.0664182 -5.97674 0 
0 0 0 
-6.19563 0.0721813 0 
0.0721813 -5.98033 0 
0 0 0 
-6.05299 0.103891 0 
0.103891 -6.17883 0 
0 0 0 
-6.05867 0.105224 0 
0.105224 -6.17315 0 
0 0 0 
-6.05315 0.101853 0 
0.101853 -6.17867 0 
0 0 0 
-6.1378 0.168507 0 
0.168507 -6.41072 0 
0 0 0 
-6.2005 0.159671 0 
0.159671 -6.34802 0 
0 0 0 
-6.1615 0.226869 0 
0.226869 -6.38702 0 
0 0 0 
-6.0206 0.0604099 0 
0.0604099 -6.40947 0 
0 0 0 
-6.04423 0.0238959 0 
0.0238959 -6.38584 0 
0 0 0 
-6.05644 0.0538152 0 
0.0538152 -6.37363 0 
0 0 0 
-6.12218 -0.0219823 0 
-0.0219823 -6.00826 0 
0 0 0 
-6.11725 -0.0145046 0 
-0.0145046 -6.01319 0 
0 0 0 
-6.11465 -0.0206359 0 
-0.0206359 -6.01579 0 
0 0 0 
-6.0239 0.0772174 0 
0.0772174 -6.69399 0 
0 0 0 
-6.06333 0.0212762 0 
0.0212762 -6.65456 0 
0 0 0 
-6.0739 0.0605042 0 
0.0605042 -6.64399 0 
0 0 0 
-6.24028 0.0903296 0 
0.0903296 -6.03864 0 
0 0 0 
-6.24313 0.0797203 0 
0.0797203 -6.03579 0 
0 0 0 
-6.24463 0.0895413 0 
0.0895413 -6.03429 0 
0 0 0 
-6.0007 -0.0542253 0 
-0.0542253 -6.25718 0 
0 0 0 
-6.00038 -0.0555017 0 
-0.0555017 -6.2575 0 
0 0 0 
-6.00031 -0.0540844 0 
-0.0540844 -6.25757 0 
0 0 0 
-6.08102 -0.0124148 0 
-0.0124148 -6.0351 0 
0 0 0 
-6.07864 -0.0113125 0 
-0.0113125 -6.03748 0 
0 0 0 
-6.08078 -0.0151937 0 
-0.0151937 -6.03533 0 
0 0 0 
-6.01402 -0.0739375 0 
-0.0739375 -6.2103 0 
0 0 0 
-6.02546 -0.0986868 0 
-0.0986868 -6.19886 0 
0 0 0 
-6.03676 -0.0740243 0 
-0.0740243 -6.18756 0 
0 0 0 
-6.09228 0.00645114 0 
0.00645114 -6.09097 0 
0 0 0 
-6.09437 0.00588233 0 
0.00588233 -6.08888 0 
0 0 0 
-6.0928 0.00704471 0 
0.00704471 -6.09045 0 
0 0 0 
-6.23212 0.113821 0 
0.113821 -6.08054 0 
0 0 0 
-6.23923 0.095209 0 
0.095209 -6.07343 0 
0 0 0 
-6.24402 0.112483 0 
0.112483 -6.06865 0 
0 0 0 
-6.14503 0.0631955 0 
0.0631955 -6.02955 0 
0 0 0 
-6.15119 0.0522786 0 
0.0522786 -6.02339 0 
0 0 0 
-6.15691 0.0629469 0 
0.0629469 -6.01766 0 
0 0 0 
-6.95155 -0.0512896 0 
-0.0512896 -5.30744 0 
0 0 0 
-6.75204 0.201091 0 
0.201091 -5.50695 0 
0 0 0 
-6.63067 -0.00618099 0 
-0.00618099 -5.62832 0 
0 0 0 
-6.05775 -0.196489 0 
-0.196489 -6.05192 0 
0 0 0 
-5.99507 -0.196044 0 
-0.196044 -6.1146 0 
0 0 0 
-6.0268 -0.271453 0 
-0.271453 -6.08287 0 
0 0 0 
-6.04225 -0.178677 0 
-0.178677 -5.99819 0 
0 0 0 
-6.01605 -0.260471 0 
-0.260471 -6.02439 0 
0 0 0 
-6.07508 -0.264303 0 
-0.264303 -5.96536 0 
0 0 0 
-6.00961 -0.0815549 0 
-0.0815549 -6.26729 0 
0 0 0 
-6.01499 -0.0793274 0 
-0.0793274 -6.26191 0 
0 0 0 
-6.01423 -0.0717278 0 
-0.0717278 -6.26267 0 
0 0 0 
-6.01389 -0.137602 0 
-0.137602 -6.54148 0 
0 0 0 
-5.99662 -0.167464 0 
-0.167464 -6.55875 0 
0 0 0 
-6.00625 -0.153092 0 
-0.153092 -6.54912 0 
0 0 0 
-6.10327 -0.00268808 0 
-0.00268808 -6.04272 0 
0 0 0 
-6.10918 -0.00347207 0 
-0.00347207 -6.03681 0 
0 0 0 
-6.10555 0.00271489 0 
0.00271489 -6.04045 0 
0 0 0 
-6.12901 -0.00291672 0 
-0.00291672 -6.01868 0 
0 0 0 
-6.13842 -0.00384657 0 
-0.00384657 -6.00927 0 
0 0 0 
-6.13291 0.00486906 0 
0.00486906 -6.01478 0 
0 0 0 
-6.11377 0.0252234 0 
0.0252234 -6.17306 0 
0 0 0 
-6.10631 0.0139415 0 
0.0139415 -6.18051 0 
0 0 0 
-6.11714 0.0163711 0 
0.0163711 -6.16968 0 
0 0 0 
-6.11479 0.111286 0 
0.111286 -6.24678 0 
0 0 0 
-6.09995 0.0772317 0 
0.0772317 -6.26161 0 
0 0 0 
-6.13697 0.0729944 0 
0.0729944 -6.2246 0 
0 0 0 
-6.04313 -0.151443 0 
-0.151443 -6.08464 0 
0 0 0 
-6.01709 -0.22033 0 
-0.22033 -6.11068 0 
0 0 0 
-6.07083 -0.221291 0 
-0.221291 -6.05694 0 
0 0 0 
-6.15942 0.0332638 0 
0.0332638 -6.00502 0 
0 0 0 
-6.14792 0.0338728 0 
0.0338728 -6.01652 0 
0 0 0 
-6.1542 0.0236744 0 
0.0236744 -6.01024 0 
0 0 0 
-6.08526 0.0975369 0 
0.0975369 -6.11431 0 
0 0 0 
-6.08386 0.0912541 0 
0.0912541 -6.11571 0 
0 0 0 
-6.08878 0.0900275 0 
0.0900275 -6.11078 0 
0 0 0 
-6.09892 -0.0712913 0 
-0.0712913 -6.03644 0 
0 0 0 
-6.13256 -0.0743092 0 
-0.0743092 -6.0028 0 
0 0 0 
-6.11313 -0.0367346 0 
-0.0367346 -6.02223 0 
0 0 0 
-6.14051 0.0514251 0 
0.0514251 -6.03254 0 
0 0 0 
-6.14646 0.0411446 0 
0.0411446 -6.02659 0 
0 0 0 
-6.1517 0.0510121 0 
0.0510121 -6.02135 0 
0 0 0 
-6.07203 0.0957823 0 
0.0957823 -6.24423 0 
0 0 0 
-6.05811 0.0801407 0 
0.0801407 -6.25814 0 
0 0 0 
-6.07659 0.0855709 0 
0.0855709 -6.23966 0 
0 0 0 
-6.04342 0.00323568 0 
0.00323568 -6.29541 0 
0 0 0 
-6.05426 0.0276818 0 
0.0276818 -6.28458 0 
0 0 0 
-6.02606 0.0314519 0 
0.0314519 -6.31278 0 
0 0 0 
-6.03429 -0.1328 0 
-0.1328 -6.09947 0 
0 0 0 
-6.0596 -0.185728 0 
-0.185728 -6.07416 0 
0 0 0 
-6.08177 -0.134613 0 
-0.134613 -6.05199 0 
0 0 0 
-6.11079 0.136421 0 
0.136421 -6.03768 0 
0 0 0 
-6.13259 0.137051 0 
0.137051 -6.01588 0 
0 0 0 
-6.12223 0.159445 0 
0.159445 -6.02624 0 
0 0 0 
-6.28783 0.240486 0 
0.240486 -6.50468 0 
0 0 0 
-6.22216 0.355463 0 
0.355463 -6.57035 0 
0 0 0 
-6.18365 0.25621 0 
0.25621 -6.60886 0 
0 0 0 
-6.12565 0.0139214 0 
0.0139214 -6.03658 0 
0 0 0 
-6.12928 0.0213595 0 
0.0213595 -6.03295 0 
0 0 0 
-6.1208 0.0220649 0 
0.0220649 -6.04143 0 
0 0 0 
-6.10316 0.00352328 0 
0.00352328 -6.05404 0 
0 0 0 
-6.10518 0.00842444 0 
0.00842444 -6.05202 0 
0 0 0 
-6.09993 0.0091226 0 
0.0091226 -6.05727 0 
0 0 0 
-6.35494 0.149665 0 
0.149665 -6.04939 0 
0 0 0 
-6.35258 0.161266 0 
0.161266 -6.05174 0 
0 0 0 
-6.35723 0.161302 0 
0.161302 -6.0471 0 
0 0 0 
-6.15062 -0.00774058 0 
-0.00774058 -5.99516 0 
0 0 0 
-6.15524 0.00109351 0 
0.00109351 -5.99053 0 
0 0 0 
-6.14386 0.00232647 0 
0.00232647 -6.00192 0 
0 0 0 
-6.19644 -0.000181592 0 
-0.000181592 -5.974 0 
0 0 0 
-6.20273 0.00993651 0 
0.00993651 -5.96771 0 
0 0 0 
-6.18789 0.011247 0 
0.011247 -5.98256 0 
0 0 0 
-6.25004 0.039172 0 
0.039172 -5.97259 0 
0 0 0 
-6.24294 0.0306897 0 
0.0306897 -5.97968 0 
0 0 0 
-6.25854 0.0298779 0 
0.0298779 -5.96408 0 
0 0 0 
-6.02219 0.045285 0 
0.045285 -6.36291 0 
0 0 0 
-6.06001 0.0393899 0 
0.0393899 -6.3251 0 
0 0 0 
-6.03598 0.0757045 0 
0.0757045 -6.34912 0 
0 0 0 
-6.03117 -0.0323175 0 
-0.0323175 -6.24242 0 
0 0 0 
-6.02607 -0.0454416 0 
-0.0454416 -6.24751 0 
0 0 0 
-6.04005 -0.0475355 0 
-0.0475355 -6.23354 0 
0 0 0 
-6.87199 0.312702 0 
0.312702 -6.00339 0 
0 0 0 
-6.89681 0.29805 0 
0.29805 -5.97857 0 
0 0 0 
-6.82188 0.312649 0 
0.312649 -6.0535 0 
0 0 0 
-6.09421 0.00601614 0 
0.00601614 -6.08983 0 
0 0 0 
-6.09548 0.00561341 0 
0.00561341 -6.08857 0 
0 0 0 
-6.09576 0.00550262 0 
0.00550262 -6.08828 0 
0 0 0 
-6.13224 -0.00177437 0 
-0.00177437 -6.16329 0 
0 0 0 
-6.13898 0.0013083 0 
0.0013083 -6.15654 0 
0 0 0 
-6.13833 0.00797393 0 
0.00797393 -6.15719 0 
0 0 0 
-6.18552 0.0404577 0 
0.0404577 -6.03483 0 
0 0 0 
-6.19182 0.0568017 0 
0.0568017 -6.02853 0 
0 0 0 
-6.1762 0.0585479 0 
0.0585479 -6.04415 0 
0 0 0 
-6.17486 0.0685874 0 
0.0685874 -5.88189 0 
0 0 0 
-6.17889 0.0713977 0 
0.0713977 -5.87786 0 
0 0 0 
-6.17869 0.0668623 0 
0.0668623 -5.87806 0 
0 0 0 
-6.11645 0.0142213 0 
0.0142213 -6.04576 0 
0 0 0 
-6.12422 0.0136361 0 
0.0136361 -6.03799 0 
0 0 0 
-6.11982 0.0211163 0 
0.0211163 -6.04238 0 
0 0 0 
-6.27781 0.0645795 0 
0.0645795 -6.01046 0 
0 0 0 
-6.28424 0.0617294 0 
0.0617294 -6.00403 0 
0 0 0 
-6.28962 0.0639748 0 
0.0639748 -5.99864 0 
0 0 0 
-6.08886 -0.230296 0 
-0.230296 -5.95062 0 
0 0 0 
-6.00735 -0.226828 0 
-0.226828 -6.03213 0 
0 0 0 
-6.0497 -0.32747 0 
-0.32747 -5.98978 0 
0 0 0 
-6.07339 0.154017 0 
0.154017 -6.15572 0 
0 0 0 
-6.07896 0.177421 0 
0.177421 -6.15014 0 
0 0 0 
-6.06212 0.180714 0 
0.180714 -6.16699 0 
0 0 0 
-6.14812 0.139394 0 
0.139394 -5.9241 0 
0 0 0 
-6.16331 0.169499 0 
0.169499 -5.90891 0 
0 0 0 
-6.13866 0.166193 0 
0.166193 -5.93356 0 
0 0 0 
-6.19294 0.0712896 0 
0.0712896 -5.87373 0 
0 0 0 
-6.19675 0.0698544 0 
0.0698544 -5.86992 0 
0 0 0 
-6.19197 0.0663289 0 
0.0663289 -5.8747 0 
0 0 0 
-6.04832 -0.179146 0 
-0.179146 -5.95764 0 
0 0 0 
-6.08524 -0.255579 0 
-0.255579 -5.92071 0 
0 0 0 
-6.10958 -0.186409 0 
-0.186409 -5.89637 0 
0 0 0 
-6.02725 0.0302193 0 
0.0302193 -6.31832 0 
0 0 0 
-6.06 0.0257156 0 
0.0257156 -6.28557 0 
0 0 0 
-6.03972 0.0572595 0 
0.0572595 -6.30585 0 
0 0 0 
-5.98523 -0.184762 0 
-0.184762 -6.39709 0 
0 0 0 
-5.94573 -0.195117 0 
-0.195117 -6.43659 0 
0 0 0 
-5.95614 -0.238983 0 
-0.238983 -6.42619 0 
0 0 0 
-6.06455 -0.148717 0 
-0.148717 -5.82003 0 
0 0 0 
-6.05218 -0.203603 0 
-0.203603 -5.8324 0 
0 0 0 
-6.09539 -0.216699 0 
-0.216699 -5.7892 0 
0 0 0 
-6.22008 0.0498254 0 
0.0498254 -5.98769 0 
0 0 0 
-6.22405 0.046219 0 
0.046219 -5.98372 0 
0 0 0 
-6.22811 0.0498802 0 
0.0498802 -5.97965 0 
0 0 0 
-6.16486 0.0236175 0 
0.0236175 -5.99933 0 
0 0 0 
-6.15852 0.0338133 0 
0.0338133 -6.00568 0 
0 0 0 
-6.15304 0.0241197 0 
0.0241197 -6.01116 0 
0 0 0 
-6.04345 0.0144749 0 
0.0144749 -6.33536 0 
0 0 0 
-6.05497 0.0413868 0 
0.0413868 -6.32384 0 
0 0 0 
-6.02329 0.046274 0 
0.046274 -6.35553 0 
0 0 0 
-6.19168 0.115671 0 
0.115671 -6.12759 0 
0 0 0 
-6.20427 0.0889046 0 
0.0889046 -6.115 0 
0 0 0 
-6.21331 0.113625 0 
0.113625 -6.10595 0 
0 0 0 
-7.18432 0.337368 0 
0.337368 -5.80236 0 
0 0 0 
-7.01993 0.375163 0 
0.375163 -5.96675 0 
0 0 0 
-7.13486 0.338686 0 
0.338686 -5.85182 0 
0 0 0 
-6.14098 -0.0632853 0 
-0.0632853 -6.00303 0 
0 0 0 
-6.15387 -0.0330933 0 
-0.0330933 -5.99014 0 
0 0 0 
-6.12262 -0.0299345 0 
-0.0299345 -6.02139 0 
0 0 0 
-6.65388 0.374121 0 
0.374121 -6.02225 0 
0 0 0 
-6.64447 0.325341 0 
0.325341 -6.03165 0 
0 0 0 
-6.6486 0.381938 0 
0.381938 -6.02752 0 
0 0 0 
-6.09295 0.200294 0 
0.200294 -6.48838 0 
0 0 0 
-6.06836 0.140664 0 
0.140664 -6.51296 0 
0 0 0 
-6.13772 0.129006 0 
0.129006 -6.4436 0 
0 0 0 
-6.1102 0.0676716 0 
0.0676716 -6.27173 0 
0 0 0 
-6.126 0.105084 0 
0.105084 -6.25593 0 
0 0 0 
-6.08696 0.10938 0 
0.10938 -6.29497 0 
0 0 0 
-6.10957 0.00772751 0 
0.00772751 -6.05234 0 
0 0 0 
-6.10624 0.0135243 0 
0.0135243 -6.05567 0 
0 0 0 
-6.10394 0.00832159 0 
0.00832159 -6.05797 0 
0 0 0 
-6.15327 0.00268025 0 
0.00268025 -6.00301 0 
0 0 0 
-6.16516 0.00178593 0 
0.00178593 -5.99112 0 
0 0 0 
-6.15844 0.0120092 0 
0.0120092 -5.99784 0 
0 0 0 
-6.1603 0.0011053 0 
0.0011053 -6.18178 0 
0 0 0 
-6.15327 -0.00147958 0 
-0.00147958 -6.18882 0 
0 0 0 
-6.15463 -0.00955989 0 
-0.00955989 -6.18746 0 
0 0 0 
-6.10074 0.00368853 0 
0.00368853 -6.04492 0 
0 0 0 
-6.10435 -0.00247925 0 
-0.00247925 -6.04131 0 
0 0 0 
-6.10654 0.00287263 0 
0.00287263 -6.03912 0 
0 0 0 
-6.18601 0.00599174 0 
0.00599174 -5.9219 0 
0 0 0 
-6.1901 0.0195456 0 
0.0195456 -5.91781 0 
0 0 0 
-6.17499 0.0235472 0 
0.0235472 -5.93292 0 
0 0 0 
-6.23277 -0.0126756 0 
-0.0126756 -5.9687 0 
0 0 0 
-6.25693 -0.0147182 0 
-0.0147182 -5.94454 0 
0 0 0 
-6.24308 0.00301986 0 
0.00301986 -5.95839 0 
0 0 0 
-6.03211 0.094027 0 
0.094027 -6.40421 0 
0 0 0 
-6.01702 0.0595295 0 
0.0595295 -6.4193 0 
0 0 0 
-6.0609 0.0516536 0 
0.0516536 -6.37542 0 
0 0 0 
-6.19348 0.0858109 0 
0.0858109 -5.90449 0 
0 0 0 
-6.19414 0.0889341 0 
0.0889341 -5.90383 0 
0 0 0 
-6.1883 0.082058 0 
0.082058 -5.90967 0 
0 0 0 
-6.32969 0.0917488 0 
0.0917488 -6.02935 0 
0 0 0 
-6.33889 0.0886041 0 
0.0886041 -6.02015 0 
0 0 0 
-6.34634 0.0907388 0 
0.0907388 -6.0127 0 
0 0 0 
-6.00598 -0.0025997 0 
-0.0025997 -6.30969 0 
0 0 0 
-6.03022 -0.00626591 0 
-0.00626591 -6.28544 0 
0 0 0 
-6.01492 0.0161983 0 
0.0161983 -6.30074 0 
0 0 0 
-6.12776 0.0645498 0 
0.0645498 -6.055 0 
0 0 0 
-6.13329 0.0545414 0 
0.0545414 -6.04948 0 
0 0 0 
-6.13809 0.0641295 0 
0.0641295 -6.04468 0 
0 0 0 
-6.00467 -0.058092 0 
-0.058092 -6.25707 0 
0 0 0 
-6.00554 -0.0623969 0 
-0.0623969 -6.2562 0 
0 0 0 
-6.00795 -0.0571976 0 
-0.0571976 -6.25379 0 
0 0 0 
-5.99912 -0.119698 0 
-0.119698 -6.37342 0 
0 0 0 
-5.98211 -0.148245 0 
-0.148245 -6.39043 0 
0 0 0 
-6.00289 -0.14327 0 
-0.14327 -6.36965 0 
0 0 0 
-6.17448 0.035693 0 
0.035693 -5.99692 0 
0 0 0 
-6.1868 0.0354315 0 
0.0354315 -5.9846 0 
0 0 0 
-6.18041 0.0453853 0 
0.0453853 -5.99099 0 
0 0 0 
-6.21737 0.0474817 0 
0.0474817 -5.97809 0 
0 0 0 
-6.21253 0.04166 0 
0.04166 -5.98293 0 
0 0 0 
-6.22231 0.0415972 0 
0.0415972 -5.97315 0 
0 0 0 
-6.13969 -0.00488207 0 
-0.00488207 -6.00517 0 
0 0 0 
-6.14386 0.00340148 0 
0.00340148 -6.001 0 
0 0 0 
-6.1336 0.00450558 0 
0.00450558 -6.01126 0 
0 0 0 
-6.12541 -0.0195106 0 
-0.0195106 -6.00479 0 
0 0 0 
-6.12239 -0.0262556 0 
-0.0262556 -6.00781 0 
0 0 0 
-6.13109 -0.0277967 0 
-0.0277967 -5.99911 0 
0 0 0 
-6.0129 -0.0950386 0 
-0.0950386 -6.27654 0 
0 0 0 
-6.01352 -0.0861496 0 
-0.0861496 -6.27592 0 
0 0 0 
-6.00799 -0.0985914 0 
-0.0985914 -6.28145 0 
0 0 0 
-6.08863 0.00226304 0 
0.00226304 -6.0616 0 
0 0 0 
-6.08757 -0.00102296 0 
-0.00102296 -6.06266 0 
0 0 0 
-6.09075 -0.00162564 0 
-0.00162564 -6.05948 0 
0 0 0 
-6.23972 -0.107011 0 
-0.107011 -5.9179 0 
0 0 0 
-6.25414 -0.0796974 0 
-0.0796974 -5.90348 0 
0 0 0 
-6.21274 -0.0724429 0 
-0.0724429 -5.94488 0 
0 0 0 
-6.22481 0.0595103 0 
0.0595103 -5.99203 0 
0 0 0 
-6.22405 0.0577107 0 
0.0577107 -5.99279 0 
0 0 0 
-6.22242 0.0590045 0 
0.0590045 -5.99442 0 
0 0 0 
-6.0388 0.0739633 0 
0.0739633 -6.26878 0 
0 0 0 
-6.04705 0.0589575 0 
0.0589575 -6.26053 0 
0 0 0 
-6.0669 0.0821954 0 
0.0821954 -6.24068 0 
0 0 0 
-6.02994 -0.0216501 0 
-0.0216501 -6.2758 0 
0 0 0 
-6.04103 -0.039613 0 
-0.039613 -6.26471 0 
0 0 0 
-6.04707 -0.024568 0 
-0.024568 -6.25867 0 
0 0 0 
-6.19822 0.0346671 0 
0.0346671 -5.97669 0 
0 0 0 
-6.18562 0.0352113 0 
0.0352113 -5.98929 0 
0 0 0 
-6.19239 0.0255068 0 
0.0255068 -5.98252 0 
0 0 0 
-6.0679 0.104665 0 
0.104665 -6.29774 0 
0 0 0 
-6.04742 0.0825263 0 
0.0825263 -6.31822 0 
0 0 0 
-6.07517 0.0908591 0 
0.0908591 -6.29047 0 
0 0 0 
-6.0975 0.024354 0 
0.024354 -6.20717 0 
0 0 0 
-6.11079 0.0542362 0 
0.0542362 -6.19388 0 
0 0 0 
-6.07933 0.057053 0 
0.057053 -6.22534 0 
0 0 0 
-6.11528 0.108905 0 
0.108905 -6.05891 0 
0 0 0 
-6.10813 0.123691 0 
0.123691 -6.06607 0 
0 0 0 
-6.10145 0.109179 0 
0.109179 -6.07274 0 
0 0 0 
-6.08589 -0.0488219 0 
-0.0488219 -6.08664 0 
0 0 0 
-6.07036 -0.0848547 0 
-0.0848547 -6.10217 0 
0 0 0 
-6.10486 -0.0868416 0 
-0.0868416 -6.06767 0 
0 0 0 
-6.12876 0.0062601 0 
0.0062601 -6.05033 0 
0 0 0 
-6.11703 -0.021482 0 
-0.021482 -6.06207 0 
0 0 0 
-6.14505 -0.0241088 0 
-0.0241088 -6.03404 0 
0 0 0 
-6.1239 0.0125467 0 
0.0125467 -6.14973 0 
0 0 0 
-6.11645 0.0110667 0 
0.0110667 -6.15718 0 
0 0 0 
-6.11785 0.00612896 0 
0.00612896 -6.15578 0 
0 0 0 
-6.48585 0.346609 0 
0.346609 -7.18508 0 
0 0 0 
-6.33891 0.606229 0 
0.606229 -7.33202 0 
0 0 0 
-6.27989 0.397059 0 
0.397059 -7.39104 0 
0 0 0 
-6.09612 -0.000522722 0 
-0.000522722 -6.04553 0 
0 0 0 
-6.09175 0.000253381 0 
0.000253381 -6.04991 0 
0 0 0 
-6.09461 -0.004819 0 
-0.004819 -6.04705 0 
0 0 0 
-6.09418 0.00468499 0 
0.00468499 -6.06837 0 
0 0 0 
-6.09793 0.00421791 0 
0.00421791 -6.06462 0 
0 0 0 
-6.09552 0.00842249 0 
0.00842249 -6.06703 0 
0 0 0 
-6.29702 -0.072693 0 
-0.072693 -5.90708 0 
0 0 0 
-6.27094 -0.0377931 0 
-0.0377931 -5.93316 0 
0 0 0 
-6.25326 -0.0678457 0 
-0.0678457 -5.95084 0 
0 0 0 
-6.16186 -0.00480509 0 
-0.00480509 -6.17177 0 
0 0 0 
-6.1617 0.00033298 0 
0.00033298 -6.17193 0 
0 0 0 
-6.15823 -0.00685296 0 
-0.00685296 -6.17539 0 
0 0 0 
-6.20661 0.160158 0 
0.160158 -6.31561 0 
0 0 0 
-6.22881 0.219188 0 
0.219188 -6.29341 0 
0 0 0 
-6.17371 0.225371 0 
0.225371 -6.34851 0 
0 0 0 
-6.09094 -0.187194 0 
-0.187194 -5.79352 0 
0 0 0 
-6.08371 -0.175534 0 
-0.175534 -5.80075 0 
0 0 0 
-6.09195 -0.214199 0 
-0.214199 -5.79251 0 
0 0 0 
-6.24405 0.0519293 0 
0.0519293 -5.99666 0 
0 0 0 
-6.24869 0.0492763 0 
0.0492763 -5.99203 0 
0 0 0 
-6.2529 0.0516889 0 
0.0516889 -5.98781 0 
0 0 0 
-6.1662 0.0130266 0 
0.0130266 -5.99461 0 
0 0 0 
-6.15967 0.0232336 0 
0.0232336 -6.00115 0 
0 0 0 
-6.15431 0.0137053 0 
0.0137053 -6.00651 0 
0 0 0 
-6.14547 0.0829075 0 
0.0829075 -6.02522 0 
0 0 0 
-6.13887 0.0954309 0 
0.0954309 -6.03182 0 
0 0 0 
-6.13215 0.082837 0 
0.082837 -6.03853 0 
0 0 0 
-6.0901 -0.0465183 0 
-0.0465183 -6.07828 0 
0 0 0 
-6.1095 -0.0828388 0 
-0.0828388 -6.05889 0 
0 0 0 
-6.12463 -0.0489752 0 
-0.0489752 -6.04375 0 
0 0 0 
-6.09128 -0.0681272 0 
-0.0681272 -6.04305 0 
0 0 0 
-6.07439 -0.109198 0 
-0.109198 -6.05994 0 
0 0 0 
-6.11269 -0.111806 0 
-0.111806 -6.02164 0 
0 0 0 
-6.0992 0.107658 0 
0.107658 -6.11838 0 
0 0 0 
-6.0922 0.109079 0 
0.109079 -6.12538 0 
0 0 0 
-6.09693 0.0990618 0 
0.0990618 -6.12065 0 
0 0 0 
-6.14004 0.0109466 0 
0.0109466 -6.21106 0 
0 0 0 
-6.13762 -0.000859852 0 
-0.000859852 -6.21348 0 
0 0 0 
-6.14811 -0.00382758 0 
-0.00382758 -6.20299 0 
0 0 0 
-6.08151 -0.220007 0 
-0.220007 -5.78975 0 
0 0 0 
-6.00705 -0.21765 0 
-0.21765 -5.86421 0 
0 0 0 
-6.10424 -0.331987 0 
-0.331987 -5.76702 0 
0 0 0 
-6.04231 -0.123203 0 
-0.123203 -6.13492 0 
0 0 0 
-6.02117 -0.175217 0 
-0.175217 -6.15607 0 
0 0 0 
-6.06305 -0.174983 0 
-0.174983 -6.11418 0 
0 0 0 
-6.20453 0.0250369 0 
0.0250369 -5.97317 0 
0 0 0 
-6.19772 0.034716 0 
0.034716 -5.97998 0 
0 0 0 
-6.19171 0.0255028 0 
0.0255028 -5.98599 0 
0 0 0 
-6.1014 -0.127549 0 
-0.127549 -5.81756 0 
0 0 0 
-6.12428 -0.17434 0 
-0.17434 -5.79468 0 
0 0 0 
-6.12979 -0.138086 0 
-0.138086 -5.78918 0 
0 0 0 
-6.12802 -0.0808146 0 
-0.0808146 -5.82766 0 
0 0 0 
-6.15067 -0.12094 0 
-0.12094 -5.805 0 
0 0 0 
-6.15758 -0.089945 0 
-0.089945 -5.79809 0 
0 0 0 
-6.11628 -0.0521605 0 
-0.0521605 -5.73985 0 
0 0 0 
-6.11516 -0.0745025 0 
-0.0745025 -5.74097 0 
0 0 0 
-6.1357 -0.0850671 0 
-0.0850671 -5.72043 0 
0 0 0 
-6.02402 -0.431806 0 
-0.431806 -6.28636 0 
0 0 0 
-6.07421 -0.39718 0 
-0.39718 -6.23617 0 
0 0 0 
-6.01019 -0.414232 0 
-0.414232 -6.30019 0 
0 0 0 
-6.15404 0.0137078 0 
0.0137078 -6.00532 0 
0 0 0 
-6.14797 0.0234482 0 
0.0234482 -6.01138 0 
0 0 0 
-6.14304 0.014359 0 
0.014359 -6.01632 0 
0 0 0 
-6.01712 -0.0475312 0 
-0.0475312 -6.25375 0 
0 0 0 
-6.00933 -0.046089 0 
-0.046089 -6.26153 0 
0 0 0 
-6.01447 -0.0547915 0 
-0.0547915 -6.25639 0 
0 0 0 
-6.05579 0.144633 0 
0.144633 -6.23633 0 
0 0 0 
-6.05655 0.150604 0 
0.150604 -6.23557 0 
0 0 0 
-6.06134 0.139922 0 
0.139922 -6.23078 0 
0 0 0 
-6.06046 0.04559 0 
0.04559 -6.27734 0 
0 0 0 
-6.09502 0.0416202 0 
0.0416202 -6.24278 0 
0 0 0 
-6.0743 0.0760803 0 
0.0760803 -6.2635 0 
0 0 0 
-6.02402 -0.0470921 0 
-0.0470921 -6.57355 0 
0 0 0 
-6.02341 -0.0373217 0 
-0.0373217 -6.57415 0 
0 0 0 
-6.00015 -0.0231159 0 
-0.0231159 -6.59742 0 
0 0 0 
-6.03941 -0.16022 0 
-0.16022 -6.04415 0 
0 0 0 
-6.07031 -0.225264 0 
-0.225264 -6.01325 0 
0 0 0 
-6.09554 -0.163506 0 
-0.163506 -5.98801 0 
0 0 0 
-6.15942 0.0878349 0 
0.0878349 -6.00346 0 
0 0 0 
-6.17302 0.0885243 0 
0.0885243 -5.98986 0 
0 0 0 
-6.16682 0.100487 0 
0.100487 -5.99606 0 
0 0 0 
-6.09119 0.00293839 0 
0.00293839 -6.08568 0 
0 0 0 
-6.09171 0.00336333 0 
0.00336333 -6.08515 0 
0 0 0 
-6.08965 0.00409291 0 
0.00409291 -6.08721 0 
0 0 0 
-6.06052 0.0248052 0 
0.0248052 -6.24458 0 
0 0 0 
-6.09182 0.0216791 0 
0.0216791 -6.21329 0 
0 0 0 
-6.07346 0.0529792 0 
0.0529792 -6.23164 0 
0 0 0 
-6.08892 -0.0120728 0 
-0.0120728 -6.14382 0 
0 0 0 
-6.11831 -0.0142992 0 
-0.0142992 -6.11443 0 
0 0 0 
-6.10169 0.0164349 0 
0.0164349 -6.13105 0 
0 0 0 
-6.11969 0.0416942 0 
0.0416942 -6.05605 0 
0 0 0 
-6.12843 0.0412921 0 
0.0412921 -6.0473 0 
0 0 0 
-6.12371 0.0496253 0 
0.0496253 -6.05202 0 
0 0 0 
-6.07663 -0.000613529 0 
-0.000613529 -6.07589 0 
0 0 0 
-6.076 0.000539649 0 
0.000539649 -6.07652 0 
0 0 0 
-6.07606 -0.000142353 0 
-0.000142353 -6.07646 0 
0 0 0 
-6.04074 -0.0513907 0 
-0.0513907 -6.01141 0 
0 0 0 
-6.03819 -0.0518292 0 
-0.0518292 -6.01397 0 
0 0 0 
-6.03879 -0.0492264 0 
-0.0492264 -6.01336 0 
0 0 0 
-6.14671 -0.0307002 0 
-0.0307002 -5.98845 0 
0 0 0 
-6.14241 -0.0393703 0 
-0.0393703 -5.99274 0 
0 0 0 
-6.15453 -0.0414017 0 
-0.0414017 -5.98063 0 
0 0 0 
-5.99324 -0.110121 0 
-0.110121 -6.48627 0 
0 0 0 
-5.9985 -0.0986724 0 
-0.0986724 -6.48101 0 
0 0 0 
-6.00594 -0.0906765 0 
-0.0906765 -6.47357 0 
0 0 0 
-6.07884 -0.00950448 0 
-0.00950448 -6.04536 0 
0 0 0 
-6.07889 -0.0116654 0 
-0.0116654 -6.0453 0 
0 0 0 
-6.08046 -0.0126341 0 
-0.0126341 -6.04373 0 
0 0 0 
-6.172 0.10011 0 
0.10011 -5.9273 0 
0 0 0 
-6.18044 0.114102 0 
0.114102 -5.91886 0 
0 0 0 
-6.16873 0.111121 0 
0.111121 -5.93058 0 
0 0 0 
-6.10334 -0.061282 0 
-0.061282 -5.98572 0 
0 0 0 
-6.10481 -0.0558635 0 
-0.0558635 -5.98424 0 
0 0 0 
-6.09693 -0.0530171 0 
-0.0530171 -5.99213 0 
0 0 0 
-6.26102 0.0658186 0 
0.0658186 -6.00999 0 
0 0 0 
-6.26399 0.0645668 0 
0.0645668 -6.00702 0 
0 0 0 
-6.25814 0.0645189 0 
0.0645189 -6.01287 0 
0 0 0 
-6.10337 -0.0107006 0 
-0.0107006 -6.02915 0 
0 0 0 
-6.10539 -0.00541401 0 
-0.00541401 -6.02713 0 
0 0 0 
-6.09957 -0.00438315 0 
-0.00438315 -6.03295 0 
0 0 0 
-6.08154 -0.0190217 0 
-0.0190217 -6.03145 0 
0 0 0 
-6.0815 -0.0215531 0 
-0.0215531 -6.03148 0 
0 0 0 
-6.08394 -0.0229206 0 
-0.0229206 -6.02904 0 
0 0 0 
-6.20615 0.0627434 0 
0.0627434 -5.98661 0 
0 0 0 
-6.20674 0.0637701 0 
0.0637701 -5.98602 0 
0 0 0 
-6.20733 0.0613889 0 
0.0613889 -5.98542 0 
0 0 0 
-6.1876 0.0570321 0 
0.0570321 -5.99757 0 
0 0 0 
-6.19373 0.0457059 0 
0.0457059 -5.99144 0 
0 0 0 
-6.19664 0.0551704 0 
0.0551704 -5.98853 0 
0 0 0 
-6.1521 -0.0058555 0 
-0.0058555 -5.97113 0 
0 0 0 
-6.16746 -0.0325306 0 
-0.0325306 -5.95576 0 
0 0 0 
-6.17643 -0.00955312 0 
-0.00955312 -5.94679 0 
0 0 0 
-6.08947 0.00381385 0 
0.00381385 -6.08835 0 
0 0 0 
-6.09131 0.00334281 0 
0.00334281 -6.0865 0 
0 0 0 
-6.08998 0.0038857 0 
0.0038857 -6.08783 0 
0 0 0 
-6.17495 0.0941915 0 
0.0941915 -6.11508 0 
0 0 0 
-6.18736 0.0689528 0 
0.0689528 -6.10268 0 
0 0 0 
-6.19639 0.0922406 0 
0.0922406 -6.09365 0 
0 0 0 
-6.09823 -0.0638716 0 
-0.0638716 -6.0358 0 
0 0 0 
-6.11959 -0.103872 0 
-0.103872 -6.01444 0 
0 0 0 
-6.13548 -0.0670361 0 
-0.0670361 -5.99855 0 
0 0 0 
-6.08893 -0.145059 0 
-0.145059 -5.82813 0 
0 0 0 
-6.1237 -0.154184 0 
-0.154184 -5.79336 0 
0 0 0 
-6.09868 -0.104981 0 
-0.104981 -5.81838 0 
0 0 0 
-6.0822 -0.0947464 0 
-0.0947464 -5.71718 0 
0 0 0 
-6.08373 -0.120566 0 
-0.120566 -5.71564 0 
0 0 0 
-6.10141 -0.132301 0 
-0.132301 -5.69797 0 
0 0 0 
-6.36572 0.0902899 0 
0.0902899 -6.01643 0 
0 0 0 
-6.38329 0.0772855 0 
0.0772855 -5.99886 0 
0 0 0 
-6.39631 0.0876639 0 
0.0876639 -5.98584 0 
0 0 0 
-6.02159 -0.127995 0 
-0.127995 -6.09276 0 
0 0 0 
-6.02876 -0.121997 0 
-0.121997 -6.08558 0 
0 0 0 
-6.02544 -0.128242 0 
-0.128242 -6.08891 0 
0 0 0 
-6.03115 -0.1072 0 
-0.1072 -5.98879 0 
0 0 0 
-6.03529 -0.111776 0 
-0.111776 -5.98465 0 
0 0 0 
-6.03176 -0.111631 0 
-0.111631 -5.98818 0 
0 0 0 
-5.96206 -0.099384 0 
-0.099384 -6.49109 0 
0 0 0 
-5.94888 -0.100544 0 
-0.100544 -6.50428 0 
0 0 0 
-5.95804 -0.0864663 0 
-0.0864663 -6.49511 0 
0 0 0 
-6.12592 -0.00160345 0 
-0.00160345 -6.14401 0 
0 0 0 
-6.12216 -0.0011568 0 
-0.0011568 -6.14777 0 
0 0 0 
-6.13174 -0.00339301 0 
-0.00339301 -6.1382 0 
0 0 0 
-6.09753 0.00450082 0 
0.00450082 -6.0616 0 
0 0 0 
-6.10217 0.00389536 0 
0.00389536 -6.05696 0 
0 0 0 
-6.09933 0.00890016 0 
0.00890016 -6.0598 0 
0 0 0 
-6.16639 0.0658117 0 
0.0658117 -6.00342 0 
0 0 0 
-6.16013 0.0769404 0 
0.0769404 -6.00968 0 
0 0 0 
-6.15367 0.0657001 0 
0.0657001 -6.01614 0 
0 0 0 
-6.02725 0.061838 0 
0.061838 -6.86028 0 
0 0 0 
-6.07765 -0.00482257 0 
-0.00482257 -6.80988 0 
0 0 0 
-6.08828 0.0390106 0 
0.0390106 -6.79926 0 
0 0 0 
-6.16051 0.0231789 0 
0.0231789 -5.99895 0 
0 0 0 
-6.14893 0.023955 0 
0.023955 -6.01053 0 
0 0 0 
-6.15539 0.0137839 0 
0.0137839 -6.00407 0 
0 0 0 
-6.10068 -0.0792396 0 
-0.0792396 -6.06446 0 
0 0 0 
-6.06294 -0.0771979 0 
-0.0771979 -6.1022 0 
0 0 0 
-6.08358 -0.117352 0 
-0.117352 -6.08156 0 
0 0 0 
-6.0418 -0.0434501 0 
-0.0434501 -6.02649 0 
0 0 0 
-6.03981 -0.0458352 0 
-0.0458352 -6.02847 0 
0 0 0 
-6.03874 -0.0450087 0 
-0.0450087 -6.02955 0 
0 0 0 
-6.14326 -0.0224926 0 
-0.0224926 -5.90778 0 
0 0 0 
-6.13416 -0.0494071 0 
-0.0494071 -5.91689 0 
0 0 0 
-6.16111 -0.0544552 0 
-0.0544552 -5.88993 0 
0 0 0 
-6.14558 -0.00710275 0 
-0.00710275 -6.15116 0 
0 0 0 
-6.14801 -0.00671146 0 
-0.00671146 -6.14874 0 
0 0 0 
-6.1503 -0.00670271 0 
-0.00670271 -6.14645 0 
0 0 0 
-6.05447 -0.144466 0 
-0.144466 -6.09324 0 
0 0 0 
-6.05661 -0.138239 0 
-0.138239 -6.0911 0 
0 0 0 
-6.06093 -0.140443 0 
-0.140443 -6.08678 0 
0 0 0 
-6.17658 0.0410981 0 
0.0410981 -6.00359 0 
0 0 0 
-6.18932 0.0387547 0 
0.0387547 -5.99086 0 
0 0 0 
-6.18092 0.0540415 0 
0.0540415 -5.99925 0 
0 0 0 
-6.09768 -0.00799284 0 
-0.00799284 -6.04043 0 
0 0 0 
-6.10269 -0.0088828 0 
-0.0088828 -6.03542 0 
0 0 0 
-6.09942 -0.00329404 0 
-0.00329404 -6.0387 0 
0 0 0 
-6.01544 -0.0637484 0 
-0.0637484 -6.2048 0 
0 0 0 
-6.00818 -0.0828459 0 
-0.0828459 -6.21206 0 
0 0 0 
-6.02306 -0.0820914 0 
-0.0820914 -6.19718 0 
0 0 0 
-6.08748 0.0431773 0 
0.0431773 -6.14958 0 
0 0 0 
-6.08858 0.0402765 0 
0.0402765 -6.14848 0 
0 0 0 
-6.09311 0.0451611 0 
0.0451611 -6.14394 0 
0 0 0 
-6.21816 0.0273361 0 
0.0273361 -5.96909 0 
0 0 0 
-6.21146 0.0361838 0 
0.0361838 -5.97579 0 
0 0 0 
-6.20554 0.0277815 0 
0.0277815 -5.98172 0 
0 0 0 
-6.11925 -0.0501521 0 
-0.0501521 -5.96917 0 
0 0 0 
-6.10525 -0.0865662 0 
-0.0865662 -5.98316 0 
0 0 0 
-6.1402 -0.0905864 0 
-0.0905864 -5.94821 0 
0 0 0 
-6.09524 0.0411689 0 
0.0411689 -6.11171 0 
0 0 0 
-6.09398 0.0429732 0 
0.0429732 -6.11297 0 
0 0 0 
-6.0945 0.0422015 0 
0.0422015 -6.11245 0 
0 0 0 
-5.97302 -0.137639 0 
-0.137639 -6.86927 0 
0 0 0 
-5.99498 -0.178688 0 
-0.178688 -6.84731 0 
0 0 0 
-5.95241 -0.159949 0 
-0.159949 -6.88988 0 
0 0 0 
-6.03023 -0.0599943 0 
-0.0599943 -6.20604 0 
0 0 0 
-6.04615 -0.0590937 0 
-0.0590937 -6.19012 0 
0 0 0 
-6.03554 -0.0445081 0 
-0.0445081 -6.20073 0 
0 0 0 
-6.22909 -9.68097e-05 0 
-9.68097e-05 -5.95835 0 
0 0 0 
-6.21928 0.0127076 0 
0.0127076 -5.96817 0 
0 0 0 
-6.21166 0.0011707 0 
0.0011707 -5.97579 0 
0 0 0 
-6.01304 0.127583 0 
0.127583 -6.70143 0 
0 0 0 
-5.99551 0.0767553 0 
0.0767553 -6.71896 0 
0 0 0 
-6.06614 0.0563351 0 
0.0563351 -6.64832 0 
0 0 0 
-6.13322 -0.0393586 0 
-0.0393586 -5.9729 0 
0 0 0 
-6.15242 -0.0736707 0 
-0.0736707 -5.9537 0 
0 0 0 
-6.16447 -0.0434838 0 
-0.0434838 -5.94164 0 
0 0 0 
-6.07353 0.0652794 0 
0.0652794 -6.16657 0 
0 0 0 
-6.07513 0.0623526 0 
0.0623526 -6.16497 0 
0 0 0 
-6.08117 0.0678465 0 
0.0678465 -6.15892 0 
0 0 0 
-6.13697 0.0600174 0 
0.0600174 -5.67409 0 
0 0 0 
-6.1345 0.0744971 0 
0.0744971 -5.67656 0 
0 0 0 
-6.14815 0.0689164 0 
0.0689164 -5.6629 0 
0 0 0 
-6.19943 0.0554934 0 
0.0554934 -5.98144 0 
0 0 0 
-6.19416 0.0480044 0 
0.0480044 -5.98671 0 
0 0 0 
-6.2045 0.0481181 0 
0.0481181 -5.97637 0 
0 0 0 
-6.10892 0.100593 0 
0.100593 -6.09114 0 
0 0 0 
-6.11374 0.112955 0 
0.112955 -6.08631 0 
0 0 0 
-6.10264 0.113792 0 
0.113792 -6.09742 0 
0 0 0 
-5.99141 -0.0670696 0 
-0.0670696 -6.24289 0 
0 0 0 
-5.99583 -0.0788901 0 
-0.0788901 -6.23847 0 
0 0 0 
-5.99961 -0.0665131 0 
-0.0665131 -6.23469 0 
0 0 0 
-6.26175 -0.136471 0 
-0.136471 -5.84993 0 
0 0 0 
-6.20216 -0.123722 0 
-0.123722 -5.90952 0 
0 0 0 
-6.243 -0.178383 0 
-0.178383 -5.86868 0 
0 0 0 
-6.10757 0.0123983 0 
0.0123983 -6.05676 0 
0 0 0 
-6.10234 0.0130697 0 
0.0130697 -6.06199 0 
0 0 0 
-6.10554 0.00752786 0 
0.00752786 -6.05879 0 
0 0 0 
-6.10536 0.0104062 0 
0.0104062 -6.06545 0 
0 0 0 
-6.1027 0.0151922 0 
0.0151922 -6.06811 0 
0 0 0 
-6.10092 0.0109161 0 
0.0109161 -6.06989 0 
0 0 0 
-6.08069 -0.0076049 0 
-0.0076049 -6.14257 0 
0 0 0 
-6.09754 -0.0387742 0 
-0.0387742 -6.12571 0 
0 0 0 
-6.11092 -0.00961382 0 
-0.00961382 -6.11234 0 
0 0 0 
-6.1011 0.0622276 0 
0.0622276 -6.09248 0 
0 0 0 
-6.09923 0.0572167 0 
0.0572167 -6.09435 0 
0 0 0 
-6.10425 0.0564763 0 
0.0564763 -6.08933 0 
0 0 0 
-6.1832 0.0324935 0 
0.0324935 -6.01601 0 
0 0 0 
-6.18913 0.0479171 0 
0.0479171 -6.01008 0 
0 0 0 
-6.17388 0.0498741 0 
0.0498741 -6.02533 0 
0 0 0 
-6.11491 0.0166866 0 
0.0166866 -6.15028 0 
0 0 0 
-6.11075 0.0106313 0 
0.0106313 -6.15445 0 
0 0 0 
-6.11672 0.0120258 0 
0.0120258 -6.14847 0 
0 0 0 
-8.66256 -0.807495 0 
-0.807495 -10.0516 0 
0 0 0 
-9.06024 -0.446966 0 
-0.446966 -9.65396 0 
0 0 0 
-8.75076 -0.746547 0 
-0.746547 -9.96344 0 
0 0 0 
-5.95571 -0.0601152 0 
-0.0601152 -6.72807 0 
0 0 0 
-5.98324 -0.0801656 0 
-0.0801656 -6.70054 0 
0 0 0 
-5.95252 -0.0558731 0 
-0.0558731 -6.73126 0 
0 0 0 
-6.11443 0.137647 0 
0.137647 -6.44151 0 
0 0 0 
-6.05775 0.147231 0 
0.147231 -6.49819 0 
0 0 0 
-6.09439 0.0852216 0 
0.0852216 -6.46155 0 
0 0 0 
-6.10947 -0.068154 0 
-0.068154 -5.99268 0 
0 0 0 
-6.10322 -0.0603018 0 
-0.0603018 -5.99893 0 
0 0 0 
-6.10197 -0.06527 0 
-0.06527 -6.00018 0 
0 0 0 
-6.01866 -0.0375251 0 
-0.0375251 -6.26087 0 
0 0 0 
-6.01486 -0.046722 0 
-0.046722 -6.26468 0 
0 0 0 
-6.02613 -0.0488347 0 
-0.0488347 -6.25341 0 
0 0 0 
-6.16857 0.0456638 0 
0.0456638 -6.00184 0 
0 0 0 
-6.17499 0.0354418 0 
0.0354418 -5.99542 0 
0 0 0 
-6.18081 0.0453198 0 
0.0453198 -5.9896 0 
0 0 0 
-6.11661 0.0207835 0 
0.0207835 -6.15854 0 
0 0 0 
-6.10741 0.0182761 0 
0.0182761 -6.16774 0 
0 0 0 
-6.10986 0.0114129 0 
0.0114129 -6.16529 0 
0 0 0 
-6.05133 0.0484993 0 
0.0484993 -6.27284 0 
0 0 0 
-6.06981 0.0165175 0 
0.0165175 -6.25436 0 
0 0 0 
-6.08261 0.0452225 0 
0.0452225 -6.24156 0 
0 0 0 
-6.14766 -0.0820756 0 
-0.0820756 -5.94298 0 
0 0 0 
-6.10889 -0.0776857 0 
-0.0776857 -5.98175 0 
0 0 0 
-6.13208 -0.120795 0 
-0.120795 -5.95856 0 
0 0 0 
-6.16093 0.0754807 0 
0.0754807 -6.01328 0 
0 0 0 
-6.14839 0.075524 0 
0.075524 -6.02583 0 
0 0 0 
-6.1547 0.0639277 0 
0.0639277 -6.01952 0 
0 0 0 
-6.09042 -0.00977658 0 
-0.00977658 -6.04331 0 
0 0 0 
-6.08809 -0.00554333 0 
-0.00554333 -6.04564 0 
0 0 0 
-6.08724 -0.00891431 0 
-0.00891431 -6.04649 0 
0 0 0 
-6.23821 0.0359111 0 
0.0359111 -5.98505 0 
0 0 0 
-6.24628 0.0276475 0 
0.0276475 -5.97698 0 
0 0 0 
-6.25267 0.0349386 0 
0.0349386 -5.97059 0 
0 0 0 
-6.04386 -0.0100382 0 
-0.0100382 -6.26332 0 
0 0 0 
-6.05438 0.0130753 0 
0.0130753 -6.25279 0 
0 0 0 
-6.02837 0.0159442 0 
0.0159442 -6.27881 0 
0 0 0 
-6.00157 -0.0536266 0 
-0.0536266 -6.28441 0 
0 0 0 
-6.00078 -0.0550835 0 
-0.0550835 -6.28519 0 
0 0 0 
-5.99824 -0.0526922 0 
-0.0526922 -6.28773 0 
0 0 0 
-6.24966 -0.0094832 0 
-0.0094832 -5.9654 0 
0 0 0 
-6.26921 -0.0329338 0 
-0.0329338 -5.94585 0 
0 0 0 
-6.28187 -0.0134631 0 
-0.0134631 -5.93319 0 
0 0 0 
-6.03136 0.0143639 0 
0.0143639 -6.28297 0 
0 0 0 
-6.06073 0.0109335 0 
0.0109335 -6.2536 0 
0 0 0 
-6.04307 0.0393794 0 
0.0393794 -6.27126 0 
0 0 0 
-6.09901 0.170085 0 
0.170085 -6.05664 0 
0 0 0 
-6.08806 0.146008 0 
0.146008 -6.06759 0 
0 0 0 
-6.11 0.145987 0 
0.145987 -6.04565 0 
0 0 0 
-5.98883 -0.0262892 0 
-0.0262892 -6.31955 0 
0 0 0 
-6.00365 -0.0300685 0 
-0.0300685 -6.30473 0 
0 0 0 
-5.99296 -0.0174095 0 
-0.0174095 -6.31541 0 
0 0 0 
-6.13685 -0.0091903 0 
-0.0091903 -5.99926 0 
0 0 0 
-6.14362 -0.0190292 0 
-0.0190292 -5.99249 0 
0 0 0 
-6.14777 -0.0107036 0 
-0.0107036 -5.98834 0 
0 0 0 
-6.18585 0.134256 0 
0.134256 -5.86005 0 
0 0 0 
-6.18037 0.153261 0 
0.153261 -5.86553 0 
0 0 0 
-6.16601 0.12913 0 
0.12913 -5.87989 0 
0 0 0 
-6.17529 0.0400108 0 
0.0400108 -5.97716 0 
0 0 0 
-6.18651 0.0372991 0 
0.0372991 -5.96594 0 
0 0 0 
-6.17855 0.0509328 0 
0.0509328 -5.9739 0 
0 0 0 
-6.8341 0.551732 0 
0.551732 -7.00212 0 
0 0 0 
-6.64049 0.942395 0 
0.942395 -7.19573 0 
0 0 0 
-6.53012 0.597923 0 
0.597923 -7.3061 0 
0 0 0 
-6.00045 -0.0610135 0 
-0.0610135 -6.26196 0 
0 0 0 
-5.99838 -0.0669072 0 
-0.0669072 -6.26404 0 
0 0 0 
-6.00073 -0.0658129 0 
-0.0658129 -6.26168 0 
0 0 0 
-6.11044 0.0117279 0 
0.0117279 -6.05712 0 
0 0 0 
-6.10722 0.0173722 0 
0.0173722 -6.06034 0 
0 0 0 
-6.10496 0.0122806 0 
0.0122806 -6.0626 0 
0 0 0 
-5.99174 -0.0515461 0 
-0.0515461 -6.28516 0 
0 0 0 
-5.98657 -0.0483404 0 
-0.0483404 -6.29033 0 
0 0 0 
-5.98557 -0.0488635 0 
-0.0488635 -6.29133 0 
0 0 0 
-6.18492 0.0598942 0 
0.0598942 -5.95705 0 
0 0 0 
-6.18901 0.0573003 0 
0.0573003 -5.95296 0 
0 0 0 
-6.18472 0.0636125 0 
0.0636125 -5.95725 0 
0 0 0 
-6.11875 0.222335 0 
0.222335 -6.47951 0 
0 0 0 
-6.16088 0.144412 0 
0.144412 -6.43738 0 
0 0 0 
-6.18682 0.21299 0 
0.21299 -6.41144 0 
0 0 0 
-6.18613 0.00933456 0 
0.00933456 -5.79063 0 
0 0 0 
-6.17522 0.0177509 0 
0.0177509 -5.80154 0 
0 0 0 
-6.18797 0.00182766 0 
0.00182766 -5.78879 0 
0 0 0 
-6.16434 0.0681331 0 
0.0681331 -5.80194 0 
0 0 0 
-6.17118 0.0745028 0 
0.0745028 -5.7951 0 
0 0 0 
-6.16963 0.0675 0 
0.0675 -5.79665 0 
0 0 0 
-6.07986 -0.00847889 0 
-0.00847889 -6.04321 0 
0 0 0 
-6.07788 -0.00757152 0 
-0.00757152 -6.04519 0 
0 0 0 
-6.07966 -0.011048 0 
-0.011048 -6.04341 0 
0 0 0 
-6.1 0.0152709 0 
0.0152709 -6.10259 0 
0 0 0 
-6.10135 0.015504 0 
0.015504 -6.10124 0 
0 0 0 
-6.10088 0.0159506 0 
0.0159506 -6.10171 0 
0 0 0 
-6.1101 0.0134009 0 
0.0134009 -6.05457 0 
0 0 0 
-6.11671 0.012833 0 
0.012833 -6.04796 0 
0 0 0 
-6.11291 0.0193922 0 
0.0193922 -6.05176 0 
0 0 0 
-6.00695 -0.0398207 0 
-0.0398207 -6.30649 0 
0 0 0 
-6.01056 -0.0319196 0 
-0.0319196 -6.30287 0 
0 0 0 
-5.99762 -0.0286187 0 
-0.0286187 -6.31582 0 
0 0 0 
-6.17036 -0.0489489 0 
-0.0489489 -5.97077 0 
0 0 0 
-6.16093 -0.0362868 0 
-0.0362868 -5.98021 0 
0 0 0 
-6.15556 -0.0465954 0 
-0.0465954 -5.98557 0 
0 0 0 
-6.05875 0.188778 0 
0.188778 -5.68142 0 
0 0 0 
-6.07516 0.226213 0 
0.226213 -5.66501 0 
0 0 0 
-6.07314 0.208163 0 
0.208163 -5.66704 0 
0 0 0 
-6.17257 0.130211 0 
0.130211 -5.81105 0 
0 0 0 
-6.15873 0.123911 0 
0.123911 -5.82489 0 
0 0 0 
-6.16019 0.109906 0 
0.109906 -5.82343 0 
0 0 0 
-6.17765 0.0540261 0 
0.0540261 -5.91334 0 
0 0 0 
-6.18258 0.0502213 0 
0.0502213 -5.90841 0 
0 0 0 
-6.17682 0.0573699 0 
0.0573699 -5.91417 0 
0 0 0 
-6.19468 -0.00064175 0 
-0.00064175 -5.98041 0 
0 0 0 
-6.21036 -0.00180479 0 
-0.00180479 -5.96474 0 
0 0 0 
-6.20151 0.0102275 0 
0.0102275 -5.97358 0 
0 0 0 
-6.34554 0.0031071 0 
0.0031071 -5.95068 0 
0 0 0 
-6.38717 -0.0454263 0 
-0.0454263 -5.90905 0 
0 0 0 
-6.41343 -0.00575956 0 
-0.00575956 -5.88279 0 
0 0 0 
-6.10881 0.103901 0 
0.103901 -6.30065 0 
0 0 0 
-6.15159 0.0985619 0 
0.0985619 -6.25786 0 
0 0 0 
-6.12558 0.143229 0 
0.143229 -6.28388 0 
0 0 0 
-6.16952 0.0495781 0 
0.0495781 -5.84627 0 
0 0 0 
-6.17206 0.0476661 0 
0.0476661 -5.84374 0 
0 0 0 
-6.17692 0.0419315 0 
0.0419315 -5.83887 0 
0 0 0 
-6.0446 -0.158246 0 
-0.158246 -6.1109 0 
0 0 0 
-5.99571 -0.15857 0 
-0.15857 -6.15979 0 
0 0 0 
-6.01987 -0.214863 0 
-0.214863 -6.13562 0 
0 0 0 
-6.09978 0.0153145 0 
0.0153145 -6.10069 0 
0 0 0 
-6.10075 0.0169982 0 
0.0169982 -6.09971 0 
0 0 0 
-6.09851 0.0172177 0 
0.0172177 -6.10196 0 
0 0 0 
-6.18296 0.0321755 0 
0.0321755 -5.88778 0 
0 0 0 
-6.19268 0.0186238 0 
0.0186238 -5.87806 0 
0 0 0 
-6.1936 0.0270933 0 
0.0270933 -5.87714 0 
0 0 0 
-6.10583 0.0179995 0 
0.0179995 -6.12335 0 
0 0 0 
-6.12197 -0.0117202 0 
-0.0117202 -6.10722 0 
0 0 0 
-6.13438 0.0158524 0 
0.0158524 -6.09481 0 
0 0 0 
-6.21526 0.139837 0 
0.139837 -6.13739 0 
0 0 0 
-6.228 0.111096 0 
0.111096 -6.12465 0 
0 0 0 
-6.237 0.137682 0 
0.137682 -6.11565 0 
0 0 0 
-6.20924 0.0559343 0 
0.0559343 -5.97655 0 
0 0 0 
-6.20027 0.0556808 0 
0.0556808 -5.98553 0 
0 0 0 
-6.20453 0.0499026 0 
0.0499026 -5.98126 0 
0 0 0 
-6.06867 -0.00186019 0 
-0.00186019 -6.22442 0 
0 0 0 
-6.08098 0.0251593 0 
0.0251593 -6.21211 0 
0 0 0 
-6.05186 0.0277614 0 
0.0277614 -6.24123 0 
0 0 0 
-6.19252 0.0422088 0 
0.0422088 -5.83415 0 
0 0 0 
-6.18786 0.0487045 0 
0.0487045 -5.8388 0 
0 0 0 
-6.19581 0.0408142 0 
0.0408142 -5.83085 0 
0 0 0 
-6.10967 0.00871201 0 
0.00871201 -6.04322 0 
0 0 0 
-6.10705 0.00288143 0 
0.00288143 -6.04584 0 
0 0 0 
-6.11349 0.00218554 0 
0.00218554 -6.03939 0 
0 0 0 
-6.11192 0.0122594 0 
0.0122594 -6.05598 0 
0 0 0 
-6.11441 0.0178525 0 
0.0178525 -6.05349 0 
0 0 0 
-6.10828 0.0185131 0 
0.0185131 -6.05962 0 
0 0 0 
-6.09893 0.00397331 0 
0.00397331 -6.062 0 
0 0 0 
-6.10053 0.00814949 0 
0.00814949 -6.06039 0 
0 0 0 
-6.09614 0.00876695 0 
0.00876695 -6.06479 0 
0 0 0 
-6.0614 -0.276749 0 
-0.276749 -5.8046 0 
0 0 0 
-6.03502 -0.180231 0 
-0.180231 -5.83098 0 
0 0 0 
-6.01409 -0.272839 0 
-0.272839 -5.85191 0 
0 0 0 
-6.17936 0.0669934 0 
0.0669934 -5.99238 0 
0 0 0 
-6.1902 0.067487 0 
0.067487 -5.98154 0 
0 0 0 
-6.18521 0.0760243 0 
0.0760243 -5.98653 0 
0 0 0 
-6.2058 0.0461599 0 
0.0461599 -5.9759 0 
0 0 0 
-6.19457 0.0463337 0 
0.0463337 -5.98714 0 
0 0 0 
-6.20033 0.0382298 0 
0.0382298 -5.98137 0 
0 0 0 
-6.12745 0.0340509 0 
0.0340509 -6.05081 0 
0 0 0 
-6.1313 0.0418528 0 
0.0418528 -6.04696 0 
0 0 0 
-6.12264 0.0424092 0 
0.0424092 -6.05563 0 
0 0 0 
-6.31362 0.178241 0 
0.178241 -6.13719 0 
0 0 0 
-6.30822 0.153591 0 
0.153591 -6.14259 0 
0 0 0 
-6.32339 0.151074 0 
0.151074 -6.12742 0 
0 0 0 
-6.17512 0.0561287 0 
0.0561287 -5.99597 0 
0 0 0 
-6.16909 0.0461529 0 
0.0461529 -6.00199 0 
0 0 0 
-6.18129 0.0460637 0 
0.0460637 -5.98979 0 
0 0 0 
-6.16275 0.0550639 0 
0.0550639 -6.00973 0 
0 0 0 
-6.16885 0.065959 0 
0.065959 -6.00363 0 
0 0 0 
-6.15652 0.0660371 0 
0.0660371 -6.01596 0 
0 0 0 
-6.14544 0.0719675 0 
0.0719675 -6.0318 0 
0 0 0 
-6.1517 0.0840658 0 
0.0840658 -6.02554 0 
0 0 0 
-6.13903 0.0841499 0 
0.0841499 -6.03821 0 
0 0 0 
-6.08005 0.103741 0 
0.103741 -6.12045 0 
0 0 0 
-6.07613 0.112628 0 
0.112628 -6.12437 0 
0 0 0 
-6.07487 0.105276 0 
0.105276 -6.12563 0 
0 0 0 
-6.12405 0.00666228 0 
0.00666228 -6.02448 0 
0 0 0 
-6.12058 -0.000507815 0 
-0.000507815 -6.02795 0 
0 0 0 
-6.12897 -0.00134814 0 
-0.00134814 -6.01956 0 
0 0 0 
-6.11001 -0.0047455 0 
-0.0047455 -6.03191 0 
0 0 0 
-6.11255 0.00121986 0 
0.00121986 -6.02937 0 
0 0 0 
-6.10588 0.00213629 0 
0.00213629 -6.03604 0 
0 0 0 
-6.15938 -0.0160828 0 
-0.0160828 -5.98678 0 
0 0 0 
-6.15433 -0.0255167 0 
-0.0255167 -5.99183 0 
0 0 0 
-6.16727 -0.0271537 0 
-0.0271537 -5.97889 0 
0 0 0 
-6.17425 -0.0194578 0 
-0.0194578 -5.97846 0 
0 0 0 
-6.16824 -0.0302332 0 
-0.0302332 -5.98447 0 
0 0 0 
-6.18351 -0.0321024 0 
-0.0321024 -5.9692 0 
0 0 0 
-6.21385 -0.0158506 0 
-0.0158506 -5.96396 0 
0 0 0 
-6.22138 -0.00392964 0 
-0.00392964 -5.95643 0 
0 0 0 
-6.20274 -0.00186077 0 
-0.00186077 -5.97507 0 
0 0 0 
-6.17101 0.0341547 0 
0.0341547 -5.99559 0 
0 0 0 
-6.16523 0.0243129 0 
0.0243129 -6.00137 0 
0 0 0 
-6.17764 0.0238217 0 
0.0238217 -5.98896 0 
0 0 0 
-6.20874 -0.64796 0 
-0.64796 -6.48196 0 
0 0 0 
-6.298 -0.621912 0 
-0.621912 -6.3927 0 
0 0 0 
-6.27593 -0.612081 0 
-0.612081 -6.41477 0 
0 0 0 
-6.02276 -0.0224342 0 
-0.0224342 -6.29216 0 
0 0 0 
-6.0302 -0.00593275 0 
-0.00593275 -6.28473 0 
0 0 0 
-6.00989 -0.00279598 0 
-0.00279598 -6.30503 0 
0 0 0 
-6.09562 0.000623666 0 
0.000623666 -6.05819 0 
0 0 0 
-6.09713 0.00468574 0 
0.00468574 -6.05669 0 
0 0 0 
-6.09295 0.00535647 0 
0.00535647 -6.06086 0 
0 0 0 
-6.1273 0.00144577 0 
0.00144577 -6.16628 0 
0 0 0 
-6.13335 0.0104604 0 
0.0104604 -6.16022 0 
0 0 0 
-6.12552 0.00784695 0 
0.00784695 -6.16806 0 
0 0 0 
-6.55561 0.421386 0 
0.421386 -6.30446 0 
0 0 0 
-6.53313 0.336777 0 
0.336777 -6.32694 0 
0 0 0 
-6.58869 0.330653 0 
0.330653 -6.27138 0 
0 0 0 
-6.20322 0.0876686 0 
0.0876686 -6.11555 0 
0 0 0 
-6.22225 0.0853803 0 
0.0853803 -6.09653 0 
0 0 0 
-6.21075 0.10922 0 
0.10922 -6.10802 0 
0 0 0 
-6.16063 0.0292504 0 
0.0292504 -6.03746 0 
0 0 0 
-6.17938 0.0268543 0 
0.0268543 -6.01871 0 
0 0 0 
-6.16793 0.0480378 0 
0.0480378 -6.03016 0 
0 0 0 
-6.00467 -0.0712939 0 
-0.0712939 -6.23511 0 
0 0 0 
-5.99988 -0.0862031 0 
-0.0862031 -6.23991 0 
0 0 0 
-6.00961 -0.0825005 0 
-0.0825005 -6.23017 0 
0 0 0 
-6.70713 0.54217 0 
0.54217 -6.34583 0 
0 0 0 
-6.67255 0.416629 0 
0.416629 -6.38041 0 
0 0 0 
-6.75031 0.411659 0 
0.411659 -6.30265 0 
0 0 0 
-6.07802 0.110074 0 
0.110074 -6.17333 0 
0 0 0 
-6.0803 0.104916 0 
0.104916 -6.17105 0 
0 0 0 
-6.07773 0.107273 0 
0.107273 -6.17362 0 
0 0 0 
-6.01046 -0.0314762 0 
-0.0314762 -6.2795 0 
0 0 0 
-6.00004 -0.0177738 0 
-0.0177738 -6.28991 0 
0 0 0 
-5.99461 -0.028604 0 
-0.028604 -6.29535 0 
0 0 0 
-6.0061 -0.0417808 0 
-0.0417808 -6.33587 0 
0 0 0 
-6.00766 -0.0367564 0 
-0.0367564 -6.33432 0 
0 0 0 
-5.99624 -0.0329857 0 
-0.0329857 -6.34574 0 
0 0 0 
-6.06824 0.127107 0 
0.127107 -6.19953 0 
0 0 0 
-6.07116 0.120225 0 
0.120225 -6.1966 0 
0 0 0 
-6.06723 0.123146 0 
0.123146 -6.20053 0 
0 0 0 
-6.13777 0.126963 0 
0.126963 -5.70995 0 
0 0 0 
-6.14336 0.139925 0 
0.139925 -5.70436 0 
0 0 0 
-6.15179 0.148612 0 
0.148612 -5.69593 0 
0 0 0 
-6.10055 0.0475406 0 
0.0475406 -6.11934 0 
0 0 0 
-6.10016 0.0485573 0 
0.0485573 -6.11974 0 
0 0 0 
-6.09904 0.0496636 0 
0.0496636 -6.12086 0 
0 0 0 
-6.17697 -0.135799 0 
-0.135799 -7.255 0 
0 0 0 
-6.14227 -0.156756 0 
-0.156756 -7.2897 0 
0 0 0 
-6.12936 -0.109228 0 
-0.109228 -7.30261 0 
0 0 0 
-6.13297 0.0140711 0 
0.0140711 -6.02737 0 
0 0 0 
-6.12799 0.022419 0 
0.022419 -6.03235 0 
0 0 0 
-6.12405 0.0146761 0 
0.0146761 -6.03629 0 
0 0 0 
-6.08206 0.000640853 0 
0.000640853 -6.06599 0 
0 0 0 
-6.08152 -0.00172851 0 
-0.00172851 -6.06653 0 
0 0 0 
-6.08354 -0.0022641 0 
-0.0022641 -6.06451 0 
0 0 0 
-6.10958 0.0177978 0 
0.0177978 -6.13797 0 
0 0 0 
-6.10434 0.0125295 0 
0.0125295 -6.14321 0 
0 0 0 
-6.11024 0.0124643 0 
0.0124643 -6.13731 0 
0 0 0 
-6.08585 0.0475076 0 
0.0475076 -6.18407 0 
0 0 0 
-6.09548 0.0500155 0 
0.0500155 -6.17444 0 
0 0 0 
-6.09284 0.0563149 0 
0.0563149 -6.17708 0 
0 0 0 
-6.11904 -0.00258029 0 
-0.00258029 -6.01743 0 
0 0 0 
-6.12434 -0.0108712 0 
-0.0108712 -6.01214 0 
0 0 0 
-6.12762 -0.00374984 0 
-0.00374984 -6.00886 0 
0 0 0 
-6.22446 0.00212694 0 
0.00212694 -5.97297 0 
0 0 0 
-6.23741 -0.0134916 0 
-0.0134916 -5.96002 0 
0 0 0 
-6.24623 -0.000252921 0 
-0.000252921 -5.95119 0 
0 0 0 
-6.204 -0.122671 0 
-0.122671 -5.89834 0 
0 0 0 
-6.16666 -0.113979 0 
-0.113979 -5.93567 0 
0 0 0 
-6.19286 -0.148715 0 
-0.148715 -5.90948 0 
0 0 0 
-6.03216 -0.0574563 0 
-0.0574563 -6.22172 0 
0 0 0 
-6.02432 -0.0421373 0 
-0.0421373 -6.22956 0 
0 0 0 
-6.01883 -0.0560977 0 
-0.0560977 -6.23505 0 
0 0 0 
-6.1891 0.0552366 0 
0.0552366 -5.91023 0 
0 0 0 
-6.19503 0.0479997 0 
0.0479997 -5.9043 0 
0 0 0 
-6.194 0.0512131 0 
0.0512131 -5.90533 0 
0 0 0 
-6.09999 0.0209604 0 
0.0209604 -6.14167 0 
0 0 0 
-6.10119 0.0169039 0 
0.0169039 -6.14047 0 
0 0 0 
-6.10629 0.0215392 0 
0.0215392 -6.13537 0 
0 0 0 
-6.11423 -0.0668557 0 
-0.0668557 -5.97466 0 
0 0 0 
-6.10417 -0.0635001 0 
-0.0635001 -5.98471 0 
0 0 0 
-6.1121 -0.0735757 0 
-0.0735757 -5.97678 0 
0 0 0 
-6.07938 0.0457943 0 
0.0457943 -6.18827 0 
0 0 0 
-6.08334 0.0373404 0 
0.0373404 -6.18431 0 
0 0 0 
-6.09288 0.0490202 0 
0.0490202 -6.17477 0 
0 0 0 
-5.981 0.0103429 0 
0.0103429 -6.44739 0 
0 0 0 
-6.01265 0.00172001 0 
0.00172001 -6.41574 0 
0 0 0 
-5.98928 0.0303265 0 
0.0303265 -6.4391 0 
0 0 0 
-6.10246 0.0376857 0 
0.0376857 -6.09243 0 
0 0 0 
-6.10025 0.0413883 0 
0.0413883 -6.09463 0 
0 0 0 
-6.09925 0.0383845 0 
0.0383845 -6.09563 0 
0 0 0 
-6.07149 0.106344 0 
0.106344 -6.37501 0 
0 0 0 
-6.05733 0.10811 0 
0.10811 -6.38917 0 
0 0 0 
-6.05384 0.121391 0 
0.121391 -6.39267 0 
0 0 0 
-6.09498 0.0479176 0 
0.0479176 -6.19623 0 
0 0 0 
-6.07546 0.0435913 0 
0.0435913 -6.21575 0 
0 0 0 
-6.08143 0.0305856 0 
0.0305856 -6.20978 0 
0 0 0 
-6.21065 -0.0162543 0 
-0.0162543 -5.97295 0 
0 0 0 
-6.23095 -0.0180735 0 
-0.0180735 -5.95265 0 
0 0 0 
-6.21922 -0.00268144 0 
-0.00268144 -5.96437 0 
0 0 0 
-6.01782 -0.0561966 0 
-0.0561966 -6.2029 0 
0 0 0 
-6.02531 -0.0712402 0 
-0.0712402 -6.19541 0 
0 0 0 
-6.0325 -0.0548964 0 
-0.0548964 -6.18822 0 
0 0 0 
-6.16093 -0.00535595 0 
-0.00535595 -6.15535 0 
0 0 0 
-6.16194 -0.00624507 0 
-0.00624507 -6.15433 0 
0 0 0 
-6.15902 -0.00614745 0 
-0.00614745 -6.15726 0 
0 0 0 
-5.988 -0.0607162 0 
-0.0607162 -6.30335 0 
0 0 0 
-5.97955 -0.0569453 0 
-0.0569453 -6.31181 0 
0 0 0 
-5.97973 -0.0561006 0 
-0.0561006 -6.31163 0 
0 0 0 
-6.09364 0.0832808 0 
0.0832808 -6.13662 0 
0 0 0 
-6.09189 0.0849034 0 
0.0849034 -6.13838 0 
0 0 0 
-6.09417 0.0804538 0 
0.0804538 -6.1361 0 
0 0 0 
-6.18376 0.0651973 0 
0.0651973 -5.79082 0 
0 0 0 
-6.18573 0.0734789 0 
0.0734789 -5.78886 0 
0 0 0 
-6.19192 0.0724767 0 
0.0724767 -5.78267 0 
0 0 0 
-6.0261 -0.165866 0 
-0.165866 -5.97817 0 
0 0 0 
-6.01758 -0.173642 0 
-0.173642 -5.98669 0 
0 0 0 
-6.0151 -0.171058 0 
-0.171058 -5.98917 0 
0 0 0 
-6.11328 0.0288119 0 
0.0288119 -6.1839 0 
0 0 0 
-6.09707 0.0252249 0 
0.0252249 -6.20011 0 
0 0 0 
-6.10207 0.013267 0 
0.013267 -6.19512 0 
0 0 0 
-6.19261 0.0946807 0 
0.0946807 -5.83751 0 
0 0 0 
-6.19391 0.100558 0 
0.100558 -5.83621 0 
0 0 0 
-6.18468 0.0885997 0 
0.0885997 -5.84544 0 
0 0 0 
-6.17313 0.0229292 0 
0.0229292 -5.98848 0 
0 0 0 
-6.16076 0.0237365 0 
0.0237365 -6.00084 0 
0 0 0 
-6.16764 0.0132764 0 
0.0132764 -5.99396 0 
0 0 0 
-6.13415 0.0400372 0 
0.0400372 -6.03579 0 
0 0 0 
-6.1448 0.0396913 0 
0.0396913 -6.02514 0 
0 0 0 
-6.13917 0.0493829 0 
0.0493829 -6.03077 0 
0 0 0 
-6.1605 0.0120212 0 
0.0120212 -5.86564 0 
0 0 0 
-6.15716 -0.00284787 0 
-0.00284787 -5.86897 0 
0 0 0 
-6.17358 -0.00847749 0 
-0.00847749 -5.85255 0 
0 0 0 
-6.19162 0.126368 0 
0.126368 -6.15956 0 
0 0 0 
-6.18075 0.0980914 0 
0.0980914 -6.17044 0 
0 0 0 
-6.20789 0.0949795 0 
0.0949795 -6.14329 0 
0 0 0 
-6.09237 -0.0566841 0 
-0.0566841 -6.10167 0 
0 0 0 
-6.05908 -0.0549768 0 
-0.0549768 -6.13496 0 
0 0 0 
-6.0772 -0.0898102 0 
-0.0898102 -6.11683 0 
0 0 0 
-6.1304 0.125673 0 
0.125673 -5.72517 0 
0 0 0 
-6.14478 0.14949 0 
0.14949 -5.7108 0 
0 0 0 
-6.13375 0.139259 0 
0.139259 -5.72182 0 
0 0 0 
-5.97798 -0.029882 0 
-0.029882 -6.35294 0 
0 0 0 
-5.99555 -0.0341967 0 
-0.0341967 -6.33537 0 
0 0 0 
-5.98266 -0.0211008 0 
-0.0211008 -6.34826 0 
0 0 0 
-6.10742 0.0582951 0 
0.0582951 -6.09411 0 
0 0 0 
-6.11094 0.0520793 0 
0.0520793 -6.0906 0 
0 0 0 
-6.11315 0.0575443 0 
0.0575443 -6.08838 0 
0 0 0 
-6.10726 0.155527 0 
0.155527 -5.67276 0 
0 0 0 
-6.10276 0.172667 0 
0.172667 -5.67726 0 
0 0 0 
-6.11947 0.179608 0 
0.179608 -5.66055 0 
0 0 0 
-6.07934 -0.00104512 0 
-0.00104512 -6.08056 0 
0 0 0 
-6.08134 -0.00123062 0 
-0.00123062 -6.07856 0 
0 0 0 
-6.08016 -0.000683449 0 
-0.000683449 -6.07974 0 
0 0 0 
-6.1008 0.0103725 0 
0.0103725 -6.11208 0 
0 0 0 
-6.10114 0.010943 0 
0.010943 -6.11174 0 
0 0 0 
-6.10293 0.0106085 0 
0.0106085 -6.10995 0 
0 0 0 
-6.03458 -0.0157458 0 
-0.0157458 -6.25897 0 
0 0 0 
-6.0209 0.00558472 0 
0.00558472 -6.27265 0 
0 0 0 
-6.01192 -0.0130273 0 
-0.0130273 -6.28163 0 
0 0 0 
-6.10853 0.0969464 0 
0.0969464 -5.63444 0 
0 0 0 
-6.0955 0.0984577 0 
0.0984577 -5.64746 0 
0 0 0 
-6.10604 0.110494 0 
0.110494 -5.63693 0 
0 0 0 
-6.13995 -0.00932568 0 
-0.00932568 -6.14789 0 
0 0 0 
-6.14653 -0.00889753 0 
-0.00889753 -6.14131 0 
0 0 0 
-6.14334 -0.00729812 0 
-0.00729812 -6.1445 0 
0 0 0 
-6.17377 0.101318 0 
0.101318 -6.13909 0 
0 0 0 
-6.1633 0.0751569 0 
0.0751569 -6.14956 0 
0 0 0 
-6.189 0.0724062 0 
0.0724062 -6.12386 0 
0 0 0 
-6.19109 0.0345518 0 
0.0345518 -5.93714 0 
0 0 0 
-6.19292 0.0427542 0 
0.0427542 -5.93531 0 
0 0 0 
-6.1836 0.0460276 0 
0.0460276 -5.94464 0 
0 0 0 
-6.14234 -0.0504923 0 
-0.0504923 -5.96969 0 
0 0 0 
-6.12956 -0.0475545 0 
-0.0475545 -5.98247 0 
0 0 0 
-6.13849 -0.0591938 0 
-0.0591938 -5.97354 0 
0 0 0 
-6.16914 0.0299029 0 
0.0299029 -5.8914 0 
0 0 0 
-6.17933 0.0252297 0 
0.0252297 -5.88122 0 
0 0 0 
-6.17019 0.0382788 0 
0.0382788 -5.89036 0 
0 0 0 
-6.14229 -0.00823186 0 
-0.00823186 -6.25438 0 
0 0 0 
-6.13349 0.0221936 0 
0.0221936 -6.26318 0 
0 0 0 
-6.11248 -0.0129468 0 
-0.0129468 -6.28419 0 
0 0 0 
-6.16252 -0.00610108 0 
-0.00610108 -5.92177 0 
0 0 0 
-6.17758 -0.0310661 0 
-0.0310661 -5.9067 0 
0 0 0 
-6.18435 -0.010892 0 
-0.010892 -5.89993 0 
0 0 0 
-6.00691 0.00410751 0 
0.00410751 -6.33883 0 
0 0 0 
-6.02118 -0.0164106 0 
-0.0164106 -6.32457 0 
0 0 0 
-6.02801 -0.000183958 0 
-0.000183958 -6.31773 0 
0 0 0 
-6.1779 0.0967854 0 
0.0967854 -5.8427 0 
0 0 0 
-6.1713 0.091411 0 
0.091411 -5.8493 0 
0 0 0 
-6.16994 0.0860464 0 
0.0860464 -5.85065 0 
0 0 0 
-6.1238 0.00202748 0 
0.00202748 -6.17747 0 
0 0 0 
-6.13318 0.00431915 0 
0.00431915 -6.16809 0 
0 0 0 
-6.1305 0.0127951 0 
0.0127951 -6.17077 0 
0 0 0 
-6.15635 0.0037055 0 
0.0037055 -6.20302 0 
0 0 0 
-6.1426 -7.09877e-05 0 
-7.09877e-05 -6.21678 0 
0 0 0 
-6.14621 -0.0136356 0 
-0.0136356 -6.21317 0 
0 0 0 
-5.97122 -0.0360625 0 
-0.0360625 -6.38952 0 
0 0 0 
-5.98468 -0.0424076 0 
-0.0424076 -6.37605 0 
0 0 0 
-5.97213 -0.033678 0 
-0.033678 -6.3886 0 
0 0 0 
-6.52492 0.317595 0 
0.317595 -6.08998 0 
0 0 0 
-6.52668 0.273372 0 
0.273372 -6.08822 0 
0 0 0 
-6.53161 0.319426 0 
0.319426 -6.08329 0 
0 0 0 
-6.17216 0.0348692 0 
0.0348692 -5.9967 0 
0 0 0 
-6.17892 0.0246277 0 
0.0246277 -5.98995 0 
0 0 0 
-6.18469 0.034303 0 
0.034303 -5.98417 0 
0 0 0 
-5.70465 0.103058 0 
0.103058 -5.53606 0 
0 0 0 
-5.79667 0.0175591 0 
0.0175591 -5.44404 0 
0 0 0 
-5.79249 0.0519838 0 
0.0519838 -5.44822 0 
0 0 0 
-6.02364 -0.153106 0 
-0.153106 -5.9604 0 
0 0 0 
-6.02855 -0.160238 0 
-0.160238 -5.95549 0 
0 0 0 
-6.02261 -0.159372 0 
-0.159372 -5.96143 0 
0 0 0 
-6.53926 0.00763107 0 
0.00763107 -6.37875 0 
0 0 0 
-6.34472 0.0376993 0 
0.0376993 -6.57329 0 
0 0 0 
-6.46803 -0.0485159 0 
-0.0485159 -6.44998 0 
0 0 0 
-6.11077 0.00834558 0 
0.00834558 -6.04281 0 
0 0 0 
-6.10458 0.00909853 0 
0.00909853 -6.049 0 
0 0 0 
-6.10833 0.00269926 0 
0.00269926 -6.04526 0 
0 0 0 
-6.18965 0.0615195 0 
0.0615195 -5.95517 0 
0 0 0 
-6.19415 0.0549588 0 
0.0549588 -5.95067 0 
0 0 0 
-6.1941 0.0588977 0 
0.0588977 -5.95072 0 
0 0 0 
-6.17368 0.119031 0 
0.119031 -5.96969 0 
0 0 0 
-6.16502 0.104508 0 
0.104508 -5.97835 0 
0 0 0 
-6.17954 0.106121 0 
0.106121 -5.96383 0 
0 0 0 
-6.07002 0.0930283 0 
0.0930283 -6.15359 0 
0 0 0 
-6.0671 0.0905821 0 
0.0905821 -6.15652 0 
0 0 0 
-6.06644 0.0929695 0 
0.0929695 -6.15717 0 
0 0 0 
-6.18551 0.125077 0 
0.125077 -5.80503 0 
0 0 0 
-6.18432 0.139392 0 
0.139392 -5.80622 0 
0 0 0 
-6.1704 0.117733 0 
0.117733 -5.82014 0 
0 0 0 
-6.13552 0.120458 0 
0.120458 -5.53382 0 
0 0 0 
-6.18034 0.155105 0 
0.155105 -5.489 0 
0 0 0 
-5.80553 0.320935 0 
0.320935 -5.86382 0 
0 0 0 
-6.15199 0.0939432 0 
0.0939432 -5.76063 0 
0 0 0 
-6.16322 0.109537 0 
0.109537 -5.7494 0 
0 0 0 
-6.15544 0.101061 0 
0.101061 -5.75718 0 
0 0 0 
-6.1495 -0.00885168 0 
-0.00885168 -6.0007 0 
0 0 0 
-6.1612 -0.0100004 0 
-0.0100004 -5.989 0 
0 0 0 
-6.15436 0.000163021 0 
0.000163021 -5.99585 0 
0 0 0 
-6.04151 -0.0390135 0 
-0.0390135 -6.01881 0 
0 0 0 
-6.04296 -0.0407951 0 
-0.0407951 -6.01736 0 
0 0 0 
-6.04047 -0.0412873 0 
-0.0412873 -6.01984 0 
0 0 0 
-6.70197 0.266785 0 
0.266785 -6.06682 0 
0 0 0 
-6.66799 0.272087 0 
0.272087 -6.10081 0 
0 0 0 
-6.68957 0.288102 0 
0.288102 -6.07923 0 
0 0 0 
-6.16876 0.0446634 0 
0.0446634 -6.00052 0 
0 0 0 
-6.16251 0.0551228 0 
0.0551228 -6.00677 0 
0 0 0 
-6.15657 0.0448473 0 
0.0448473 -6.0127 0 
0 0 0 
-6.08135 -0.0290326 0 
-0.0290326 -6.12122 0 
0 0 0 
-6.06714 -0.0609422 0 
-0.0609422 -6.13542 0 
0 0 0 
-6.09862 -0.0627095 0 
-0.0627095 -6.10395 0 
0 0 0 
-6.14069 0.0657484 0 
0.0657484 -5.68551 0 
0 0 0 
-6.1312 0.0678341 0 
0.0678341 -5.695 0 
0 0 0 
-6.14096 0.0768622 0 
0.0768622 -5.68524 0 
0 0 0 
-6.09882 0.000167218 0 
0.000167218 -6.05407 0 
0 0 0 
-6.09609 0.00500501 0 
0.00500501 -6.05679 0 
0 0 0 
-6.09447 0.000802291 0 
0.000802291 -6.05841 0 
0 0 0 
-6.16109 -0.0161266 0 
-0.0161266 -5.98341 0 
0 0 0 
-6.17008 -0.0282304 0 
-0.0282304 -5.97442 0 
0 0 0 
-6.17558 -0.0181367 0 
-0.0181367 -5.96891 0 
0 0 0 
-6.11276 0.0318257 0 
0.0318257 -6.07754 0 
0 0 0 
-6.10793 0.0324215 0 
0.0324215 -6.08238 0 
0 0 0 
-6.11086 0.027398 0 
0.027398 -6.07945 0 
0 0 0 
-6.00074 -0.0485287 0 
-0.0485287 -6.37234 0 
0 0 0 
-6.00106 -0.0473933 0 
-0.0473933 -6.37202 0 
0 0 0 
-5.99046 -0.0420379 0 
-0.0420379 -6.38262 0 
0 0 0 
-6.09569 0.0926889 0 
0.0926889 -5.60654 0 
0 0 0 
-6.08601 0.0849541 0 
0.0849541 -5.61622 0 
0 0 0 
-6.07277 0.103416 0 
0.103416 -5.62946 0 
0 0 0 
-5.99956 0.206078 0 
0.206078 -6.18591 0 
0 0 0 
-6.03101 0.201294 0 
0.201294 -6.15445 0 
0 0 0 
-6.01125 0.248932 0 
0.248932 -6.17422 0 
0 0 0 
-6.10541 0.0171609 0 
0.0171609 -6.08433 0 
0 0 0 
-6.10677 0.0206322 0 
0.0206322 -6.08297 0 
0 0 0 
-6.10322 0.0210167 0 
0.0210167 -6.08653 0 
0 0 0 
-6.11464 0.0133699 0 
0.0133699 -6.13995 0 
0 0 0 
-6.10912 0.0130094 0 
0.0130094 -6.14547 0 
0 0 0 
-6.11083 0.00840791 0 
0.00840791 -6.14376 0 
0 0 0 
-6.13833 0.0115059 0 
0.0115059 -6.18583 0 
0 0 0 
-6.12449 0.00805996 0 
0.00805996 -6.19966 0 
0 0 0 
-6.12843 -0.00362511 0 
-0.00362511 -6.19573 0 
0 0 0 
-6.11016 0.0358206 0 
0.0358206 -6.07163 0 
0 0 0 
-6.10777 0.030592 0 
0.030592 -6.07402 0 
0 0 0 
-6.11338 0.0301108 0 
0.0301108 -6.06841 0 
0 0 0 
-6.12815 0.0467105 0 
0.0467105 -6.04499 0 
0 0 0 
-6.13839 0.0463873 0 
0.0463873 -6.03475 0 
0 0 0 
-6.13299 0.0558894 0 
0.0558894 -6.04015 0 
0 0 0 
-6.11592 0.00772497 0 
0.00772497 -6.04312 0 
0 0 0 
-6.11205 0.014366 0 
0.014366 -6.04699 0 
0 0 0 
-6.10926 0.00834914 0 
0.00834914 -6.04978 0 
0 0 0 
-6.0906 0.0591063 0 
0.0591063 -6.20019 0 
0 0 0 
-6.08045 0.0455033 0 
0.0455033 -6.21033 0 
0 0 0 
-6.0951 0.04876 0 
0.04876 -6.19569 0 
0 0 0 
-6.10143 0.00401553 0 
0.00401553 -6.04827 0 
0 0 0 
-6.09645 0.00474771 0 
0.00474771 -6.05324 0 
0 0 0 
-6.09957 -0.000702828 0 
-0.000702828 -6.05012 0 
0 0 0 
-6.10753 0.0282094 0 
0.0282094 -6.08867 0 
0 0 0 
-6.10886 0.0315344 0 
0.0315344 -6.08734 0 
0 0 0 
-6.10515 0.0321158 0 
0.0321158 -6.09106 0 
0 0 0 
-6.1264 -0.0146883 0 
-0.0146883 -6.24953 0 
0 0 0 
-6.14621 0.0130107 0 
0.0130107 -6.22971 0 
0 0 0 
-6.12135 0.00660125 0 
0.00660125 -6.25458 0 
0 0 0 
-6.26836 0.0214821 0 
0.0214821 -6.23957 0 
0 0 0 
-6.23054 0.0220517 0 
0.0220517 -6.27739 0 
0 0 0 
-6.25394 0.0126713 0 
0.0126713 -6.25398 0 
0 0 0 
-6.19279 0.0904902 0 
0.0904902 -6.09292 0 
0 0 0 
-6.18508 0.0697252 0 
0.0697252 -6.10063 0 
0 0 0 
-6.2043 0.0675292 0 
0.0675292 -6.08141 0 
0 0 0 
-6.21348 0.0649969 0 
0.0649969 -6.00177 0 
0 0 0 
-6.21338 0.0601537 0 
0.0601537 -6.00187 0 
0 0 0 
-6.21558 0.058995 0 
0.058995 -5.99967 0 
0 0 0 
-6.17461 0.0568132 0 
0.0568132 -5.99732 0 
0 0 0 
-6.18072 0.067176 0 
0.067176 -5.99121 0 
0 0 0 
-6.16869 0.0670632 0 
0.0670632 -6.00324 0 
0 0 0 
-6.10409 0.116396 0 
0.116396 -6.09425 0 
0 0 0 
-6.11001 0.132108 0 
0.132108 -6.08833 0 
0 0 0 
-6.09651 0.133064 0 
0.133064 -6.10183 0 
0 0 0 
-6.0902 0.114381 0 
0.114381 -6.13144 0 
0 0 0 
-6.09278 0.12528 0 
0.12528 -6.12885 0 
0 0 0 
-6.08447 0.127095 0 
0.127095 -6.13716 0 
0 0 0 
-6.08801 0.0919534 0 
0.0919534 -6.15146 0 
0 0 0 
-6.08658 0.0944684 0 
0.0944684 -6.15289 0 
0 0 0 
-6.08582 0.0965533 0 
0.0965533 -6.15364 0 
0 0 0 
-6.33475 -0.0316883 0 
-0.0316883 -5.89908 0 
0 0 0 
-6.28319 -0.0246105 0 
-0.0246105 -5.95064 0 
0 0 0 
-6.3151 -0.0633921 0 
-0.0633921 -5.91873 0 
0 0 0 
-6.10738 0.0348788 0 
0.0348788 -6.09289 0 
0 0 0 
-6.10869 0.0382798 0 
0.0382798 -6.09158 0 
0 0 0 
-6.10489 0.0389536 0 
0.0389536 -6.09538 0 
0 0 0 
-6.00515 0.000419753 0 
0.000419753 -7.10428 0 
0 0 0 
-6.07373 -0.0392434 0 
-0.0392434 -7.0357 0 
0 0 0 
-6.00509 0.0370557 0 
0.0370557 -7.10434 0 
0 0 0 
-6.1347 0.0920635 0 
0.0920635 -6.04389 0 
0 0 0 
-6.14165 0.106419 0 
0.106419 -6.03694 0 
0 0 0 
-6.12764 0.106478 0 
0.106478 -6.05094 0 
0 0 0 
-6.12193 0.097824 0 
0.097824 -6.06524 0 
0 0 0 
-6.12824 0.11192 0 
0.11192 -6.05894 0 
0 0 0 
-6.11497 0.112299 0 
0.112299 -6.07221 0 
0 0 0 
-6.12313 0.0215142 0 
0.0215142 -6.04208 0 
0 0 0 
-6.13194 0.0209881 0 
0.0209881 -6.03327 0 
0 0 0 
-6.12708 0.0292565 0 
0.0292565 -6.03813 0 
0 0 0 
-6.12062 0.0216102 0 
0.0216102 -6.18786 0 
0 0 0 
-6.11127 0.0067866 0 
0.0067866 -6.19721 0 
0 0 0 
-6.12513 0.00958113 0 
0.00958113 -6.18335 0 
0 0 0 
-6.09213 0.048901 0 
0.048901 -6.12107 0 
0 0 0 
-6.09178 0.0476175 0 
0.0476175 -6.12142 0 
0 0 0 
-6.09084 0.0488775 0 
0.0488775 -6.12236 0 
0 0 0 
-6.11038 0.0537261 0 
0.0537261 -6.07479 0 
0 0 0 
-6.10754 0.0475305 0 
0.0475305 -6.07763 0 
0 0 0 
-6.11412 0.0470121 0 
0.0470121 -6.07105 0 
0 0 0 
-6.09034 0.070617 0 
0.070617 -6.15909 0 
0 0 0 
-6.08655 0.0677688 0 
0.0677688 -6.16287 0 
0 0 0 
-6.09049 0.0698661 0 
0.0698661 -6.15894 0 
0 0 0 
-6.17673 -0.0185944 0 
-0.0185944 -5.97684 0 
0 0 0 
-6.18736 -0.0324332 0 
-0.0324332 -5.96621 0 
0 0 0 
-6.19392 -0.020945 0 
-0.020945 -5.95965 0 
0 0 0 
-6.10921 0.0266108 0 
0.0266108 -6.15954 0 
0 0 0 
-6.10339 0.0181541 0 
0.0181541 -6.16537 0 
0 0 0 
-6.11146 0.0202171 0 
0.0202171 -6.15729 0 
0 0 0 
-6.10368 0.0525334 0 
0.0525334 -6.0875 0 
0 0 0 
-6.10176 0.0477741 0 
0.0477741 -6.08942 0 
0 0 0 
-6.10671 0.0471306 0 
0.0471306 -6.08447 0 
0 0 0 
-6.14402 0.000382791 0 
0.000382791 -6.1638 0 
0 0 0 
-6.14614 -0.00532051 0 
-0.00532051 -6.16169 0 
0 0 0 
-6.14886 0.00340801 0 
0.00340801 -6.15896 0 
0 0 0 
-6.08528 -0.00155847 0 
-0.00155847 -7.05512 0 
0 0 0 
-6.12715 -0.0475778 0 
-0.0475778 -7.01326 0 
0 0 0 
-6.11292 -0.0341405 0 
-0.0341405 -7.02749 0 
0 0 0 
-6.16531 0.0947093 0 
0.0947093 -5.74903 0 
0 0 0 
-6.17176 0.105206 0 
0.105206 -5.74258 0 
0 0 0 
-6.17763 0.110446 0 
0.110446 -5.73671 0 
0 0 0 
-6.10245 0.0403828 0 
0.0403828 -6.11047 0 
0 0 0 
-6.10248 0.0418228 0 
0.0418228 -6.11045 0 
0 0 0 
-6.10078 0.0427713 0 
0.0427713 -6.11215 0 
0 0 0 
-5.9601 0.0452089 0 
0.0452089 -5.5195 0 
0 0 0 
-5.92672 0.0742353 0 
0.0742353 -5.55288 0 
0 0 0 
-5.93139 0.0663505 0 
0.0663505 -5.54821 0 
0 0 0 
-6.07599 0.0731915 0 
0.0731915 -6.17832 0 
0 0 0 
-6.06364 0.0697186 0 
0.0697186 -6.19067 0 
0 0 0 
-6.06681 0.0639481 0 
0.0639481 -6.18751 0 
0 0 0 
-6.14854 0.00360054 0 
0.00360054 -6.16538 0 
0 0 0 
-6.14383 -0.00417365 0 
-0.00417365 -6.17009 0 
0 0 0 
-6.14992 -0.00188374 0 
-0.00188374 -6.164 0 
0 0 0 
-6.20156 0.0228732 0 
0.0228732 -5.97225 0 
0 0 0 
-6.18797 0.0237655 0 
0.0237655 -5.98583 0 
0 0 0 
-6.19554 0.0133736 0 
0.0133736 -5.97827 0 
0 0 0 
-6.09728 0.109378 0 
0.109378 -6.08714 0 
0 0 0 
-6.09121 0.122332 0 
0.122332 -6.09321 0 
0 0 0 
-6.08653 0.110184 0 
0.110184 -6.09789 0 
0 0 0 
-6.12342 0.00734205 0 
0.00734205 -6.03321 0 
0 0 0 
-6.11898 0.0148201 0 
0.0148201 -6.03764 0 
0 0 0 
-6.11569 0.00800541 0 
0.00800541 -6.04093 0 
0 0 0 
-6.11394 0.0204608 0 
0.0204608 -6.05093 0 
0 0 0 
-6.11818 0.013249 0 
0.013249 -6.04669 0 
0 0 0 
-6.12123 0.0197776 0 
0.0197776 -6.04363 0 
0 0 0 
-6.16481 0.0983428 0 
0.0983428 -5.99326 0 
0 0 0 
-6.17036 0.0866791 0 
0.0866791 -5.98771 0 
0 0 0 
-6.17757 0.0993044 0 
0.0993044 -5.98049 0 
0 0 0 
-6.00263 -0.0635107 0 
-0.0635107 -6.22224 0 
0 0 0 
-6.00904 -0.0788365 0 
-0.0788365 -6.21583 0 
0 0 0 
-6.01549 -0.0633788 0 
-0.0633788 -6.20938 0 
0 0 0 
-6.08106 0.0810693 0 
0.0810693 -6.20429 0 
0 0 0 
-6.07852 0.0866662 0 
0.0866662 -6.20683 0 
0 0 0 
-6.06948 0.0773195 0 
0.0773195 -6.21587 0 
0 0 0 
-5.63586 0.00878608 0 
0.00878608 -5.49508 0 
0 0 0 
-5.6584 -0.00566197 0 
-0.00566197 -5.47254 0 
0 0 0 
-5.61848 -0.0265493 0 
-0.0265493 -5.51245 0 
0 0 0 
-6.10431 0.00742447 0 
0.00742447 -6.06078 0 
0 0 0 
-6.10149 0.0123833 0 
0.0123833 -6.06359 0 
0 0 0 
-6.09965 0.0079655 0 
0.0079655 -6.06543 0 
0 0 0 
-5.71337 0.0713555 0 
0.0713555 -5.52865 0 
0 0 0 
-5.75667 0.00639218 0 
0.00639218 -5.48535 0 
0 0 0 
-5.67712 0.0682794 0 
0.0682794 -5.56491 0 
0 0 0 
-6.09936 0.15892 0 
0.15892 -5.69722 0 
0 0 0 
-6.11513 0.190058 0 
0.190058 -5.68146 0 
0 0 0 
-6.10494 0.177736 0 
0.177736 -5.69165 0 
0 0 0 
-5.99513 -0.0572823 0 
-0.0572823 -6.25915 0 
0 0 0 
-5.9942 -0.0595829 0 
-0.0595829 -6.26008 0 
0 0 0 
-5.99505 -0.0562545 0 
-0.0562545 -6.25923 0 
0 0 0 
-6.11378 0.039336 0 
0.039336 -6.08006 0 
0 0 0 
-6.10864 0.0399613 0 
0.0399613 -6.0852 0 
0 0 0 
-6.11175 0.0346256 0 
0.0346256 -6.08209 0 
0 0 0 
-6.10868 0.0312192 0 
0.0312192 -6.07814 0 
0 0 0 
-6.10599 0.0359785 0 
0.0359785 -6.08083 0 
0 0 0 
-6.10418 0.0317328 0 
0.0317328 -6.08264 0 
0 0 0 
-6.27647 -0.118399 0 
-0.118399 -5.8999 0 
0 0 0 
-6.2475 -0.0787895 0 
-0.0787895 -5.92887 0 
0 0 0 
-6.23011 -0.111711 0 
-0.111711 -5.94626 0 
0 0 0 
-6.01252 0.132498 0 
0.132498 -6.24923 0 
0 0 0 
-6.01334 0.134561 0 
0.134561 -6.24841 0 
0 0 0 
-6.02802 0.140516 0 
0.140516 -6.23373 0 
0 0 0 
-6.16292 -0.000674586 0 
-0.000674586 -6.15965 0 
0 0 0 
-6.16087 -0.00436765 0 
-0.00436765 -6.1617 0 
0 0 0 
-6.16237 -0.00283932 0 
-0.00283932 -6.1602 0 
0 0 0 
-6.00179 -0.0719601 0 
-0.0719601 -6.2431 0 
0 0 0 
-6.0119 -0.0719926 0 
-0.0719926 -6.23298 0 
0 0 0 
-6.00683 -0.0588832 0 
-0.0588832 -6.23806 0 
0 0 0 
-5.73606 0.0872765 0 
0.0872765 -5.91881 0 
0 0 0 
-6.53062 -0.00812205 0 
-0.00812205 -5.12426 0 
0 0 0 
-6.05072 0.555978 0 
0.555978 -5.60415 0 
0 0 0 
-6.05894 -0.0074238 0 
-0.0074238 -6.05043 0 
0 0 0 
-6.05589 -0.00841603 0 
-0.00841603 -6.05348 0 
0 0 0 
-6.05656 -0.00869316 0 
-0.00869316 -6.05281 0 
0 0 0 
-6.09486 0.00128499 0 
0.00128499 -6.06165 0 
0 0 0 
-6.09251 0.00547348 0 
0.00547348 -6.064 0 
0 0 0 
-6.09125 0.00185496 0 
0.00185496 -6.06526 0 
0 0 0 
-6.07501 0.000721917 0 
0.000721917 -6.07523 0 
0 0 0 
-6.07448 0.000749572 0 
0.000749572 -6.07576 0 
0 0 0 
-6.07478 0.000643498 0 
0.000643498 -6.07546 0 
0 0 0 
-6.21658 0.155256 0 
0.155256 -6.17989 0 
0 0 0 
-6.20513 0.123922 0 
0.123922 -6.19134 0 
0 0 0 
-6.23425 0.120338 0 
0.120338 -6.16222 0 
0 0 0 
-6.09676 0.053329 0 
0.053329 -6.1056 0 
0 0 0 
-6.09467 0.0569985 0 
0.0569985 -6.1077 0 
0 0 0 
-6.09428 0.0543148 0 
0.0543148 -6.10808 0 
0 0 0 
-6.22457 0.0678656 0 
0.0678656 -6.03433 0 
0 0 0 
-6.23036 0.0666686 0 
0.0666686 -6.02854 0 
0 0 0 
-6.22643 0.077394 0 
0.077394 -6.03247 0 
0 0 0 
-6.22623 0.0614167 0 
0.0614167 -6.00787 0 
0 0 0 
-6.22705 0.0605553 0 
0.0605553 -6.00706 0 
0 0 0 
-6.22589 0.0660022 0 
0.0660022 -6.00821 0 
0 0 0 
-6.18663 0.0572997 0 
0.0572997 -5.98576 0 
0 0 0 
-6.18093 0.066765 0 
0.066765 -5.99147 0 
0 0 0 
-6.17491 0.0571206 0 
0.0571206 -5.99748 0 
0 0 0 
-6.16662 0.0671238 0 
0.0671238 -6.00321 0 
0 0 0 
-6.17891 0.0674251 0 
0.0674251 -5.99092 0 
0 0 0 
-6.17303 0.077747 0 
0.077747 -5.9968 0 
0 0 0 
-6.14525 0.0869604 0 
0.0869604 -6.02087 0 
0 0 0 
-6.15938 0.0873307 0 
0.0873307 -6.00675 0 
0 0 0 
-6.15264 0.100223 0 
0.100223 -6.01349 0 
0 0 0 
-6.06214 -0.00504477 0 
-0.00504477 -6.22676 0 
0 0 0 
-6.04625 0.0216631 0 
0.0216631 -6.24265 0 
0 0 0 
-6.03488 -0.00243442 0 
-0.00243442 -6.25402 0 
0 0 0 
-6.06501 0.113242 0 
0.113242 -5.58265 0 
0 0 0 
-6.04134 0.125925 0 
0.125925 -5.60633 0 
0 0 0 
-6.04733 0.131185 0 
0.131185 -5.60034 0 
0 0 0 
-6.36364 0.300104 0 
0.300104 -6.23752 0 
0 0 0 
-6.31131 0.304986 0 
0.304986 -6.28986 0 
0 0 0 
-6.3417 0.231735 0 
0.231735 -6.25946 0 
0 0 0 
-6.19899 0.0563359 0 
0.0563359 -5.9789 0 
0 0 0 
-6.18824 0.0562343 0 
0.0562343 -5.98965 0 
0 0 0 
-6.19353 0.0481634 0 
0.0481634 -5.98436 0 
0 0 0 
-6.10819 -0.0125377 0 
-0.0125377 -6.02651 0 
0 0 0 
-6.10443 -0.00636196 0 
-0.00636196 -6.03027 0 
0 0 0 
-6.10244 -0.0115139 0 
-0.0115139 -6.03225 0 
0 0 0 
-6.10086 0.0315083 0 
0.0315083 -6.09119 0 
0 0 0 
-6.10394 0.0309903 0 
0.0309903 -6.08811 0 
0 0 0 
-6.10195 0.0344734 0 
0.0344734 -6.0901 0 
0 0 0 
-6.2195 -0.0169511 0 
-0.0169511 -5.96738 0 
0 0 0 
-6.23526 -0.0363661 0 
-0.0363661 -5.95163 0 
0 0 0 
-6.24526 -0.0202707 0 
-0.0202707 -5.94162 0 
0 0 0 
-6.10776 0.0459722 0 
0.0459722 -6.09722 0 
0 0 0 
-6.104 0.0467617 0 
0.0467617 -6.10098 0 
0 0 0 
-6.10656 0.0425271 0 
0.0425271 -6.09842 0 
0 0 0 
-6.11393 0.04794 0 
0.04794 -6.08367 0 
0 0 0 
-6.10844 0.0486177 0 
0.0486177 -6.08917 0 
0 0 0 
-6.11177 0.0428419 0 
0.0428419 -6.08583 0 
0 0 0 
-6.10185 0.00877818 0 
0.00877818 -6.07298 0 
0 0 0 
-6.09862 0.013743 0 
0.013743 -6.07622 0 
0 0 0 
-6.09806 0.00917151 0 
0.00917151 -6.07677 0 
0 0 0 
-6.04455 -0.0336929 0 
-0.0336929 -6.03066 0 
0 0 0 
-6.04224 -0.0357625 0 
-0.0357625 -6.03297 0 
0 0 0 
-6.0416 -0.0352185 0 
-0.0352185 -6.03361 0 
0 0 0 
-6.03953 -0.0546263 0 
-0.0546263 -6.02266 0 
0 0 0 
-6.03787 -0.0573584 0 
-0.0573584 -6.02432 0 
0 0 0 
-6.03633 -0.0562278 0 
-0.0562278 -6.02585 0 
0 0 0 
-6.17548 0.0558598 0 
0.0558598 -5.99593 0 
0 0 0 
-6.16329 0.0560401 0 
0.0560401 -6.00812 0 
0 0 0 
-6.16954 0.0455592 0 
0.0455592 -6.00187 0 
0 0 0 
-6.14113 0.0910922 0 
0.0910922 -6.04103 0 
0 0 0 
-6.1287 0.0913029 0 
0.0913029 -6.05347 0 
0 0 0 
-6.1351 0.0788132 0 
0.0788132 -6.04707 0 
0 0 0 
-6.09477 0.029326 0 
0.029326 -6.17908 0 
0 0 0 
-6.09825 0.0209856 0 
0.0209856 -6.17561 0 
0 0 0 
-6.10666 0.0321775 0 
0.0321775 -6.16719 0 
0 0 0 
-6.19342 0.0118879 0 
0.0118879 -5.97596 0 
0 0 0 
-6.18607 0.0225541 0 
0.0225541 -5.98331 0 
0 0 0 
-6.18001 0.0126335 0 
0.0126335 -5.98937 0 
0 0 0 
-6.16512 -0.00286261 0 
-0.00286261 -6.16226 0 
0 0 0 
-6.16608 -0.00318553 0 
-0.00318553 -6.1613 0 
0 0 0 
-6.16537 -0.00271738 0 
-0.00271738 -6.16201 0 
0 0 0 
-6.21241 0.0659638 0 
0.0659638 -6.00858 0 
0 0 0 
-6.21508 0.0586097 0 
0.0586097 -6.00591 0 
0 0 0 
-6.21608 0.0650026 0 
0.0650026 -6.00491 0 
0 0 0 
-6.17451 0.0561767 0 
0.0561767 -5.9959 0 
0 0 0 
-6.16837 0.0666571 0 
0.0666571 -6.00205 0 
0 0 0 
-6.16215 0.0561401 0 
0.0561401 -6.00826 0 
0 0 0 
-6.16301 0.088608 0 
0.088608 -6.00349 0 
0 0 0 
-6.16889 0.0771661 0 
0.0771661 -5.99762 0 
0 0 0 
-6.1757 0.0891503 0 
0.0891503 -5.9908 0 
0 0 0 
-6.12573 0.123033 0 
0.123033 -6.04592 0 
0 0 0 
-6.13369 0.10594 0 
0.10594 -6.03797 0 
0 0 0 
-6.1419 0.123181 0 
0.123181 -6.02975 0 
0 0 0 
-6.1232 0.141123 0 
0.141123 -6.0368 0 
0 0 0 
-6.13238 0.120357 0 
0.120357 -6.02761 0 
0 0 0 
-6.14236 0.141582 0 
0.141582 -6.01763 0 
0 0 0 
-6.09908 0.07303 0 
0.07303 -6.12359 0 
0 0 0 
-6.09649 0.0743385 0 
0.0743385 -6.12619 0 
0 0 0 
-6.09892 0.0699024 0 
0.0699024 -6.12376 0 
0 0 0 
-6.13249 0.0894169 0 
0.0894169 -6.04087 0 
0 0 0 
-6.12593 0.102197 0 
0.102197 -6.04743 0 
0 0 0 
-6.1195 0.0894929 0 
0.0894929 -6.05386 0 
0 0 0 
-6.0652 0.149337 0 
0.149337 -6.10634 0 
0 0 0 
-6.08362 0.148231 0 
0.148231 -6.08792 0 
0 0 0 
-6.07345 0.171046 0 
0.171046 -6.09809 0 
0 0 0 
-6.09477 0.0299209 0 
0.0299209 -6.17584 0 
0 0 0 
-6.10422 0.032175 0 
0.032175 -6.1664 0 
0 0 0 
-6.10145 0.0392265 0 
0.0392265 -6.16917 0 
0 0 0 
-5.99052 0.168987 0 
0.168987 -6.29798 0 
0 0 0 
-6.00847 0.156518 0 
0.156518 -6.28003 0 
0 0 0 
-5.97819 0.189159 0 
0.189159 -6.31031 0 
0 0 0 
-6.79916 0.465484 0 
0.465484 -5.90748 0 
0 0 0 
-6.77891 0.38836 0 
0.38836 -5.92773 0 
0 0 0 
-6.79747 0.487897 0 
0.487897 -5.90916 0 
0 0 0 
-6.13836 0.141846 0 
0.141846 -5.99839 0 
0 0 0 
-6.14712 0.121039 0 
0.121039 -5.98963 0 
0 0 0 
-6.1582 0.143192 0 
0.143192 -5.97855 0 
0 0 0 
-6.13157 0.137317 0 
0.137317 -5.9989 0 
0 0 0 
-6.15472 0.138864 0 
0.138864 -5.97575 0 
0 0 0 
-6.14449 0.161727 0 
0.161727 -5.98599 0 
0 0 0 
-6.12464 0.00635914 0 
0.00635914 -6.02094 0 
0 0 0 
-6.13011 -0.00233786 0 
-0.00233786 -6.01547 0 
0 0 0 
-6.13384 0.00536421 0 
0.00536421 -6.01174 0 
0 0 0 
-6.01743 0.094493 0 
0.094493 -5.55858 0 
0 0 0 
-5.98294 0.119392 0 
0.119392 -5.59308 0 
0 0 0 
-6.02109 0.0927057 0 
0.0927057 -5.55493 0 
0 0 0 
-5.64324 0.0311079 0 
0.0311079 -5.52701 0 
0 0 0 
-5.68648 -0.0107221 0 
-0.0107221 -5.48377 0 
0 0 0 
-5.62863 0.0390211 0 
0.0390211 -5.54162 0 
0 0 0 
-6.19319 0.0829621 0 
0.0829621 -6.07038 0 
0 0 0 
-6.20196 0.0641661 0 
0.0641661 -6.06161 0 
0 0 0 
-6.20811 0.0814469 0 
0.0814469 -6.05546 0 
0 0 0 
-6.16152 0.0334904 0 
0.0334904 -6.00529 0 
0 0 0 
-6.15534 0.0437191 0 
0.0437191 -6.01147 0 
0 0 0 
-6.14978 0.0338561 0 
0.0338561 -6.01702 0 
0 0 0 
-6.12505 0.00685563 0 
0.00685563 -6.02246 0 
0 0 0 
-6.11687 0.00775695 0 
0.00775695 -6.03064 0 
0 0 0 
-6.12174 -0.000211821 0 
-0.000211821 -6.02577 0 
0 0 0 
-6.11954 -0.000984194 0 
-0.000984194 -6.01922 0 
0 0 0 
-6.11195 4.96351e-05 0 
4.96351e-05 -6.02681 0 
0 0 0 
-6.11664 -0.00753692 0 
-0.00753692 -6.02212 0 
0 0 0 
-6.05131 0.175528 0 
0.175528 -6.10705 0 
0 0 0 
-6.07837 0.174259 0 
0.174259 -6.07999 0 
0 0 0 
-6.06374 0.207339 0 
0.207339 -6.09462 0 
0 0 0 
-6.16241 -0.0339692 0 
-0.0339692 -5.96805 0 
0 0 0 
-6.14827 -0.0314944 0 
-0.0314944 -5.9822 0 
0 0 0 
-6.15748 -0.0437105 0 
-0.0437105 -5.97298 0 
0 0 0 
-5.99846 0.00750142 0 
0.00750142 -6.43706 0 
0 0 0 
-6.01746 -0.0160083 0 
-0.0160083 -6.41805 0 
0 0 0 
-6.02306 -7.22298e-05 0 
-7.22298e-05 -6.41246 0 
0 0 0 
-6.00726 -0.22454 0 
-0.22454 -6.14216 0 
0 0 0 
-6.01289 -0.243353 0 
-0.243353 -6.13653 0 
0 0 0 
-6.03961 -0.208891 0 
-0.208891 -6.10981 0 
0 0 0 
-6.10011 0.0452013 0 
0.0452013 -6.09826 0 
0 0 0 
-6.09792 0.0489302 0 
0.0489302 -6.10045 0 
0 0 0 
-6.09715 0.0460201 0 
0.0460201 -6.10121 0 
0 0 0 
-6.03112 -0.139346 0 
-0.139346 -5.99492 0 
0 0 0 
-6.02672 -0.145427 0 
-0.145427 -5.99933 0 
0 0 0 
-6.02366 -0.142846 0 
-0.142846 -6.00239 0 
0 0 0 
-6.10311 0.0634202 0 
0.0634202 -6.11299 0 
0 0 0 
-6.0999 0.0645066 0 
0.0645066 -6.1162 0 
0 0 0 
-6.10244 0.0600806 0 
0.0600806 -6.11365 0 
0 0 0 
-6.05285 0.164471 0 
0.164471 -6.27577 0 
0 0 0 
-6.04541 0.177582 0 
0.177582 -6.28321 0 
0 0 0 
-6.04363 0.187097 0 
0.187097 -6.28498 0 
0 0 0 
-6.05138 -0.639642 0 
-0.639642 -6.60186 0 
0 0 0 
-6.0946 -0.74314 0 
-0.74314 -6.55864 0 
0 0 0 
-6.2385 -0.572973 0 
-0.572973 -6.41475 0 
0 0 0 
-6.09385 0.0947952 0 
0.0947952 -6.09307 0 
0 0 0 
-6.10301 0.094083 0 
0.094083 -6.08391 0 
0 0 0 
-6.09782 0.104722 0 
0.104722 -6.0891 0 
0 0 0 
-6.22158 0.160916 0 
0.160916 -6.17741 0 
0 0 0 
-6.18806 0.164248 0 
0.164248 -6.21093 0 
0 0 0 
-6.20771 0.123685 0 
0.123685 -6.19129 0 
0 0 0 
-6.1396 0.112393 0 
0.112393 -6.02688 0 
0 0 0 
-6.14693 0.0969715 0 
0.0969715 -6.01955 0 
0 0 0 
-6.15497 0.112807 0 
0.112807 -6.0115 0 
0 0 0 
-6.14805 0.031958 0 
0.031958 -6.01684 0 
0 0 0 
-6.13745 0.0325848 0 
0.0325848 -6.02744 0 
0 0 0 
-6.14329 0.0228996 0 
0.0228996 -6.0216 0 
0 0 0 
-6.28861 0.00614017 0 
0.00614017 -5.96689 0 
0 0 0 
-6.3127 -0.0217104 0 
-0.0217104 -5.9428 0 
0 0 0 
-6.32863 0.0014257 0 
0.0014257 -5.92688 0 
0 0 0 
-6.03707 0.207404 0 
0.207404 -6.09951 0 
0 0 0 
-6.07936 0.206385 0 
0.206385 -6.05722 0 
0 0 0 
-6.05733 0.256506 0 
0.256506 -6.07925 0 
0 0 0 
-6.13194 0.096186 0 
0.096186 -6.03423 0 
0 0 0 
-6.14682 0.0964687 0 
0.0964687 -6.01934 0 
0 0 0 
-6.13963 0.110643 0 
0.110643 -6.02654 0 
0 0 0 
-6.14478 0.0428362 0 
0.0428362 -6.02423 0 
0 0 0 
-6.15642 0.0425657 0 
0.0425657 -6.01259 0 
0 0 0 
-6.15037 0.0528664 0 
0.0528664 -6.01864 0 
0 0 0 
-6.1717 0.0339737 0 
0.0339737 -5.99388 0 
0 0 0 
-6.15954 0.0345618 0 
0.0345618 -6.00604 0 
0 0 0 
-6.16613 0.024164 0 
0.024164 -5.99945 0 
0 0 0 
-6.13854 0.0224827 0 
0.0224827 -6.02169 0 
0 0 0 
-6.12892 0.0232102 0 
0.0232102 -6.0313 0 
0 0 0 
-6.13436 0.0142288 0 
0.0142288 -6.02587 0 
0 0 0 
-6.11822 -0.0128592 0 
-0.0128592 -6.00751 0 
0 0 0 
-6.11065 -0.011492 0 
-0.011492 -6.01508 0 
0 0 0 
-6.11562 -0.0191318 0 
-0.0191318 -6.01011 0 
0 0 0 
-6.19579 -0.0193132 0 
-0.0193132 -5.9714 0 
0 0 0 
-6.20861 -0.0355314 0 
-0.0355314 -5.95858 0 
0 0 0 
-6.21662 -0.0220928 0 
-0.0220928 -5.95057 0 
0 0 0 
-6.11347 0.0587039 0 
0.0587039 -6.08034 0 
0 0 0 
-6.11771 0.0511066 0 
0.0511066 -6.0761 0 
0 0 0 
-6.12087 0.058081 0 
0.058081 -6.07294 0 
0 0 0 
-6.01679 -0.212818 0 
-0.212818 -6.15639 0 
0 0 0 
-5.9374 -0.215772 0 
-0.215772 -6.23579 0 
0 0 0 
-5.9746 -0.313238 0 
-0.313238 -6.19858 0 
0 0 0 
-6.69457 -1.40663 0 
-1.40663 -7.49033 0 
0 0 0 
-7.04891 -1.32863 0 
-1.32863 -7.136 0 
0 0 0 
-6.94606 -1.23632 0 
-1.23632 -7.23885 0 
0 0 0 
-6.07937 -0.409807 0 
-0.409807 -6.26929 0 
0 0 0 
-6.156 -0.387559 0 
-0.387559 -6.19267 0 
0 0 0 
-6.13123 -0.365987 0 
-0.365987 -6.21743 0 
0 0 0 
-6.06169 -0.264701 0 
-0.264701 -6.14786 0 
0 0 0 
-6.07197 -0.251077 0 
-0.251077 -6.13758 0 
0 0 0 
-6.08076 -0.252795 0 
-0.252795 -6.12879 0 
0 0 0 
-6.05929 -0.116214 0 
-0.116214 -6.0897 0 
0 0 0 
-6.05893 -0.110952 0 
-0.110952 -6.09006 0 
0 0 0 
-6.06366 -0.111989 0 
-0.111989 -6.08533 0 
0 0 0 
-6.06924 -0.0677665 0 
-0.0677665 -6.09217 0 
0 0 0 
-6.06833 -0.0636013 0 
-0.0636013 -6.09308 0 
0 0 0 
-6.07218 -0.066103 0 
-0.066103 -6.08923 0 
0 0 0 
-6.12713 -0.0456409 0 
-0.0456409 -5.97464 0 
0 0 0 
-6.15555 -0.0495224 0 
-0.0495224 -5.94622 0 
0 0 0 
-6.13798 -0.0171731 0 
-0.0171731 -5.96379 0 
0 0 0 
-6.11129 -0.00880708 0 
-0.00880708 -6.01739 0 
0 0 0 
-6.10465 -0.00761918 0 
-0.00761918 -6.02403 0 
0 0 0 
-6.109 -0.0145778 0 
-0.0145778 -6.01968 0 
0 0 0 
-6.11088 0.0253104 0 
0.0253104 -6.07615 0 
0 0 0 
-6.10643 0.0258812 0 
0.0258812 -6.0806 0 
0 0 0 
-6.10915 0.0211879 0 
0.0211879 -6.07788 0 
0 0 0 
-6.28068 -0.832478 0 
-0.832478 -6.70927 0 
0 0 0 
-6.39701 -0.789647 0 
-0.789647 -6.59294 0 
0 0 0 
-6.39696 -0.783446 0 
-0.783446 -6.59299 0 
0 0 0 
-6.05405 -0.177228 0 
-0.177228 -6.1046 0 
0 0 0 
-6.06186 -0.169947 0 
-0.169947 -6.09679 0 
0 0 0 
-6.06426 -0.169953 0 
-0.169953 -6.09439 0 
0 0 0 
-6.29081 0.197611 0 
0.197611 -6.14585 0 
0 0 0 
-6.30301 0.163604 0 
0.163604 -6.13365 0 
0 0 0 
-6.31147 0.195454 0 
0.195454 -6.12519 0 
0 0 0 
-6.10827 0.0247011 0 
0.0247011 -6.07666 0 
0 0 0 
-6.10575 0.0292041 0 
0.0292041 -6.07919 0 
0 0 0 
-6.10405 0.0251811 0 
0.0251811 -6.08089 0 
0 0 0 
-6.17321 0.155305 0 
0.155305 -5.91276 0 
0 0 0 
-6.15956 0.131543 0 
0.131543 -5.92642 0 
0 0 0 
-6.18071 0.135098 0 
0.135098 -5.90526 0 
0 0 0 
-6.13991 -0.510502 0 
-0.510502 -6.35388 0 
0 0 0 
-6.21045 -0.486772 0 
-0.486772 -6.28334 0 
0 0 0 
-6.1971 -0.464407 0 
-0.464407 -6.29669 0 
0 0 0 
-6.12996 -0.00732831 0 
-0.00732831 -6.13852 0 
0 0 0 
-6.13517 -0.00657609 0 
-0.00657609 -6.13331 0 
0 0 0 
-6.13304 -0.00511635 0 
-0.00511635 -6.13545 0 
0 0 0 
-6.09936 0.0158557 0 
0.0158557 -6.10024 0 
0 0 0 
-6.10088 0.0158457 0 
0.0158457 -6.09871 0 
0 0 0 
-6.0998 0.0165308 0 
0.0165308 -6.0998 0 
0 0 0 
-6.09856 0.013955 0 
0.013955 -6.09674 0 
0 0 0 
-6.0995 0.0134586 0 
0.0134586 -6.09581 0 
0 0 0 
-6.09853 0.0141316 0 
0.0141316 -6.09678 0 
0 0 0 
-6.0947 0.00919755 0 
0.00919755 -6.09371 0 
0 0 0 
-6.09724 0.00847215 0 
0.00847215 -6.09117 0 
0 0 0 
-6.09551 0.00974668 0 
0.00974668 -6.0929 0 
0 0 0 
-6.08626 0.00168668 0 
0.00168668 -6.0852 0 
0 0 0 
-6.08822 0.00127137 0 
0.00127137 -6.08324 0 
0 0 0 
-6.08664 0.00173786 0 
0.00173786 -6.08482 0 
0 0 0 
-6.0664 -0.00113084 0 
-0.00113084 -6.06073 0 
0 0 0 
-6.06359 -0.00167685 0 
-0.00167685 -6.06353 0 
0 0 0 
-6.06452 -0.00212561 0 
-0.00212561 -6.0626 0 
0 0 0 
-6.03512 -0.0982519 0 
-0.0982519 -6.0108 0 
0 0 0 
-6.03354 -0.102437 0 
-0.102437 -6.01238 0 
0 0 0 
-6.0307 -0.100341 0 
-0.100341 -6.01522 0 
0 0 0 
-6.55734 0.478313 0 
0.478313 -6.29227 0 
0 0 0 
-6.46648 0.483025 0 
0.483025 -6.38314 0 
0 0 0 
-6.51599 0.344122 0 
0.344122 -6.33363 0 
0 0 0 
-6.15529 0.108023 0 
0.108023 -6.19537 0 
0 0 0 
-6.12085 0.111345 0 
0.111345 -6.22981 0 
0 0 0 
-6.14094 0.0736752 0 
0.0736752 -6.20971 0 
0 0 0 
-6.1568 0.0771226 0 
0.0771226 -6.01077 0 
0 0 0 
-6.16995 0.0774921 0 
0.0774921 -5.99762 0 
0 0 0 
-6.16369 0.0890123 0 
0.0890123 -6.00387 0 
0 0 0 
-6.10204 0.42406 0 
0.42406 -5.69879 0 
0 0 0 
-6.02284 0.406107 0 
0.406107 -5.77799 0 
0 0 0 
-6.03443 0.247317 0 
0.247317 -5.76639 0 
0 0 0 
-6.16694 0.0784448 0 
0.0784448 -6.12138 0 
0 0 0 
-6.14025 0.0807345 0 
0.0807345 -6.14806 0 
0 0 0 
-6.15558 0.0514146 0 
0.0514146 -6.13274 0 
0 0 0 
-6.13466 0.0586925 0 
0.0586925 -6.04291 0 
0 0 0 
-6.14043 0.048454 0 
0.048454 -6.03713 0 
0 0 0 
-6.14553 0.0583029 0 
0.0583029 -6.03203 0 
0 0 0 
-6.10734 0.00325373 0 
0.00325373 -6.04854 0 
0 0 0 
-6.10403 0.00901176 0 
0.00901176 -6.05185 0 
0 0 0 
-6.10183 0.00389602 0 
0.00389602 -6.05406 0 
0 0 0 
-6.09372 -0.013639 0 
-0.013639 -6.03527 0 
0 0 0 
-6.09099 -0.00893861 0 
-0.00893861 -6.038 0 
0 0 0 
-6.09002 -0.0126242 0 
-0.0126242 -6.03897 0 
0 0 0 
-6.05568 -0.0482656 0 
-0.0482656 -6.19412 0 
0 0 0 
-6.06276 -0.0324137 0 
-0.0324137 -6.18703 0 
0 0 0 
-6.04662 -0.0310413 0 
-0.0310413 -6.20318 0 
0 0 0 
-5.60247 0.0112684 0 
0.0112684 -5.52702 0 
0 0 0 
-5.59362 -0.0304614 0 
-0.0304614 -5.53587 0 
0 0 0 
-5.56456 -0.0180931 0 
-0.0180931 -5.56493 0 
0 0 0 
-6.01964 -0.155412 0 
-0.155412 -6.09699 0 
0 0 0 
-6.01775 -0.158264 0 
-0.158264 -6.09888 0 
0 0 0 
-6.02887 -0.147921 0 
-0.147921 -6.08777 0 
0 0 0 
-6.11709 0.103992 0 
0.103992 -6.05142 0 
0 0 0 
-6.13207 0.104071 0 
0.104071 -6.03644 0 
0 0 0 
-6.12465 0.119053 0 
0.119053 -6.04386 0 
0 0 0 
-6.11403 0.11961 0 
0.11961 -6.04657 0 
0 0 0 
-6.13186 0.119909 0 
0.119909 -6.02875 0 
0 0 0 
-6.1232 0.137998 0 
0.137998 -6.0374 0 
0 0 0 
-6.09527 0.126398 0 
0.126398 -6.07172 0 
0 0 0 
-6.1123 0.126215 0 
0.126215 -6.05469 0 
0 0 0 
-6.10363 0.144735 0 
0.144735 -6.06336 0 
0 0 0 
-6.19192 -0.0164625 0 
-0.0164625 -5.97844 0 
0 0 0 
-6.20918 -0.0180787 0 
-0.0180787 -5.96118 0 
0 0 0 
-6.19915 -0.00455435 0 
-0.00455435 -5.97121 0 
0 0 0 
-6.09417 0.0307389 0 
0.0307389 -6.16154 0 
0 0 0 
-6.09632 0.0251638 0 
0.0251638 -6.15938 0 
0 0 0 
-6.1025 0.0330613 0 
0.0330613 -6.1532 0 
0 0 0 
-6.30852 0.0300893 0 
0.0300893 -5.20774 0 
0 0 0 
-5.62407 -0.085165 0 
-0.085165 -5.89219 0 
0 0 0 
-5.86648 -0.482582 0 
-0.482582 -5.64978 0 
0 0 0 
-6.10072 0.0134699 0 
0.0134699 -6.10578 0 
0 0 0 
-6.1032 0.0138185 0 
0.0138185 -6.1033 0 
0 0 0 
-6.10212 0.0145547 0 
0.0145547 -6.10438 0 
0 0 0 
-5.95359 -0.309633 0 
-0.309633 -5.77081 0 
0 0 0 
-5.89364 -0.334988 0 
-0.334988 -5.83076 0 
0 0 0 
-5.90165 -0.334175 0 
-0.334175 -5.82274 0 
0 0 0 
-6.15815 -0.0269114 0 
-0.0269114 -5.99763 0 
0 0 0 
-6.16827 -0.00269739 0 
-0.00269739 -5.98751 0 
0 0 0 
-6.14292 0.000255106 0 
0.000255106 -6.01286 0 
0 0 0 
-6.10703 0.0191057 0 
0.0191057 -6.07627 0 
0 0 0 
-6.10463 0.023455 0 
0.023455 -6.07868 0 
0 0 0 
-6.10305 0.0195728 0 
0.0195728 -6.08026 0 
0 0 0 
-6.20011 0.0640424 0 
0.0640424 -5.98275 0 
0 0 0 
-6.205 0.0649 0 
0.0649 -5.97786 0 
0 0 0 
-6.2033 0.0669766 0 
0.0669766 -5.97957 0 
0 0 0 
-6.09798 0.016018 0 
0.016018 -6.10455 0 
0 0 0 
-6.09922 0.0143999 0 
0.0143999 -6.10332 0 
0 0 0 
-6.10093 0.0165944 0 
0.0165944 -6.10161 0 
0 0 0 
-6.01572 -0.198438 0 
-0.198438 -5.94648 0 
0 0 0 
-5.99781 -0.209227 0 
-0.209227 -5.9644 0 
0 0 0 
-5.99742 -0.207231 0 
-0.207231 -5.96478 0 
0 0 0 
-6.21441 0.0613494 0 
0.0613494 -5.99062 0 
0 0 0 
-6.21461 0.0587985 0 
0.0587985 -5.99041 0 
0 0 0 
-6.21347 0.0605741 0 
0.0605741 -5.99155 0 
0 0 0 
-5.99473 -0.0653859 0 
-0.0653859 -6.30517 0 
0 0 0 
-5.99623 -0.0617997 0 
-0.0617997 -6.30366 0 
0 0 0 
-5.99907 -0.0587212 0 
-0.0587212 -6.30082 0 
0 0 0 
-6.25914 -0.0035367 0 
-0.0035367 -5.96614 0 
0 0 0 
-6.28788 -0.00580622 0 
-0.00580622 -5.93739 0 
0 0 0 
-6.27154 0.0145343 0 
0.0145343 -5.95373 0 
0 0 0 
-6.07807 -0.00114268 0 
-0.00114268 -6.0645 0 
0 0 0 
-6.07681 -0.000686458 0 
-0.000686458 -6.06576 0 
0 0 0 
-6.07783 -0.00305838 0 
-0.00305838 -6.06473 0 
0 0 0 
-6.01884 -0.0263323 0 
-0.0263323 -6.48687 0 
0 0 0 
-6.02266 -0.012261 0 
-0.012261 -6.48305 0 
0 0 0 
-5.99807 -0.00209309 0 
-0.00209309 -6.50764 0 
0 0 0 
-6.44223 0.310014 0 
0.310014 -6.41397 0 
0 0 0 
-6.38149 0.430506 0 
0.430506 -6.4747 0 
0 0 0 
-6.34295 0.322827 0 
0.322827 -6.51325 0 
0 0 0 
-6.07705 0.128008 0 
0.128008 -6.10258 0 
0 0 0 
-6.09056 0.127073 0 
0.127073 -6.08907 0 
0 0 0 
-6.083 0.143736 0 
0.143736 -6.09663 0 
0 0 0 
-6.18452 -0.00276811 0 
-0.00276811 -5.97948 0 
0 0 0 
-6.19416 -0.0154301 0 
-0.0154301 -5.96985 0 
0 0 0 
-6.20068 -0.00456725 0 
-0.00456725 -5.96333 0 
0 0 0 
-6.06475 0.180708 0 
0.180708 -6.16288 0 
0 0 0 
-6.07526 0.220547 0 
0.220547 -6.15237 0 
0 0 0 
-6.04677 0.224862 0 
0.224862 -6.18086 0 
0 0 0 
-6.19404 0.0705361 0 
0.0705361 -5.96361 0 
0 0 0 
-6.196 0.06796 0 
0.06796 -5.96166 0 
0 0 0 
-6.19441 0.0684912 0 
0.0684912 -5.96324 0 
0 0 0 
-6.21213 0.0589461 0 
0.0589461 -5.98032 0 
0 0 0 
-6.21026 0.0605287 0 
0.0605287 -5.9822 0 
0 0 0 
-6.20731 0.0583296 0 
0.0583296 -5.98514 0 
0 0 0 
-6.19749 0.0577194 0 
0.0577194 -5.97898 0 
0 0 0 
-6.19264 0.0653571 0 
0.0653571 -5.98383 0 
0 0 0 
-6.18724 0.0573955 0 
0.0573955 -5.98923 0 
0 0 0 
-6.15675 0.0748383 0 
0.0748383 -6.01297 0 
0 0 0 
-6.15031 0.0867159 0 
0.0867159 -6.01941 0 
0 0 0 
-6.14364 0.0747109 0 
0.0747109 -6.02608 0 
0 0 0 
-6.3737 -0.134111 0 
-0.134111 -6.77796 0 
0 0 0 
-6.50889 0.032346 0 
0.032346 -6.64277 0 
0 0 0 
-6.39835 -0.0563378 0 
-0.0563378 -6.75331 0 
0 0 0 
-6.13861 -0.00574508 0 
-0.00574508 -6.00952 0 
0 0 0 
-6.14911 -0.00677705 0 
-0.00677705 -5.99903 0 
0 0 0 
-6.14297 0.00264099 0 
0.00264099 -6.00517 0 
0 0 0 
-6.10681 0.0110053 0 
0.0110053 -6.06437 0 
0 0 0 
-6.10878 0.0157131 0 
0.0157131 -6.06241 0 
0 0 0 
-6.10375 0.0163478 0 
0.0163478 -6.06744 0 
0 0 0 
-6.02682 0.289654 0 
0.289654 -6.17616 0 
0 0 0 
-6.05527 0.209064 0 
0.209064 -6.14771 0 
0 0 0 
-6.07715 0.284567 0 
0.284567 -6.12584 0 
0 0 0 
-6.10277 0.00980879 0 
0.00980879 -6.07174 0 
0 0 0 
-6.10423 0.0135736 0 
0.0135736 -6.07028 0 
0 0 0 
-6.10013 0.0140218 0 
0.0140218 -6.07438 0 
0 0 0 
-6.20553 0.0732171 0 
0.0732171 -6.03497 0 
0 0 0 
-6.21104 0.0604294 0 
0.0604294 -6.02945 0 
0 0 0 
-6.21449 0.0720196 0 
0.0720196 -6.02601 0 
0 0 0 
-6.11079 0.00771318 0 
0.00771318 -6.05015 0 
0 0 0 
-6.11332 0.0134287 0 
0.0134287 -6.04762 0 
0 0 0 
-6.10704 0.0141304 0 
0.0141304 -6.0539 0 
0 0 0 
-6.10041 0.00410895 0 
0.00410895 -6.04891 0 
0 0 0 
-6.09847 -0.000700796 0 
-0.000700796 -6.05086 0 
0 0 0 
-6.10357 -0.00140194 0 
-0.00140194 -6.04575 0 
0 0 0 
-6.11763 -0.0924928 0 
-0.0924928 -5.83438 0 
0 0 0 
-6.14738 -0.100197 0 
-0.100197 -5.80463 0 
0 0 0 
-6.12584 -0.0607887 0 
-0.0607887 -5.82617 0 
0 0 0 
-5.60094 0.0116122 0 
0.0116122 -5.51646 0 
0 0 0 
-5.60177 -0.0168775 0 
-0.0168775 -5.51563 0 
0 0 0 
-5.57316 -0.00110735 0 
-0.00110735 -5.54424 0 
0 0 0 
-6.05128 -0.0181243 0 
-0.0181243 -6.04007 0 
0 0 0 
-6.04844 -0.0196241 0 
-0.0196241 -6.04291 0 
0 0 0 
-6.04856 -0.0195606 0 
-0.0195606 -6.04279 0 
0 0 0 
-6.33903 0.0342565 0 
0.0342565 -5.97489 0 
0 0 0 
-6.36752 0.00334657 0 
0.00334657 -5.94639 0 
0 0 0 
-6.38678 0.0289257 0 
0.0289257 -5.92714 0 
0 0 0 
-6.08267 -0.0172065 0 
-0.0172065 -6.02676 0 
0 0 0 
-6.07981 -0.0158902 0 
-0.0158902 -6.02963 0 
0 0 0 
-6.08238 -0.0202103 0 
-0.0202103 -6.02705 0 
0 0 0 
-6.35911 0.277855 0 
0.277855 -6.24656 0 
0 0 0 
-6.3442 0.227567 0 
0.227567 -6.26147 0 
0 0 0 
-6.38349 0.222099 0 
0.222099 -6.22218 0 
0 0 0 
-6.29691 0.229059 0 
0.229059 -6.22272 0 
0 0 0 
-6.28358 0.187412 0 
0.187412 -6.23605 0 
0 0 0 
-6.31855 0.182608 0 
0.182608 -6.20107 0 
0 0 0 
-6.20523 0.0799138 0 
0.0799138 -6.05425 0 
0 0 0 
-6.20025 0.0646859 0 
0.0646859 -6.05923 0 
0 0 0 
-6.21326 0.0629233 0 
0.0629233 -6.04622 0 
0 0 0 
-6.21094 0.0611818 0 
0.0611818 -5.98789 0 
0 0 0 
-6.21287 0.0608519 0 
0.0608519 -5.98597 0 
0 0 0 
-6.21063 0.0599207 0 
0.0599207 -5.98821 0 
0 0 0 
-6.20502 0.0592127 0 
0.0592127 -5.98156 0 
0 0 0 
-6.20862 0.0627649 0 
0.0627649 -5.97796 0 
0 0 0 
-6.20268 0.0620426 0 
0.0620426 -5.9839 0 
0 0 0 
-6.19649 0.0583284 0 
0.0583284 -5.98184 0 
0 0 0 
-6.20136 0.0650113 0 
0.0650113 -5.97697 0 
0 0 0 
-6.19251 0.064493 0 
0.064493 -5.98581 0 
0 0 0 
-6.18609 0.0577489 0 
0.0577489 -5.98755 0 
0 0 0 
-6.1918 0.0667167 0 
0.0667167 -5.98184 0 
0 0 0 
-6.18093 0.0664024 0 
0.0664024 -5.99272 0 
0 0 0 
-6.16645 0.0664143 0 
0.0664143 -6.00459 0 
0 0 0 
-6.1729 0.0778325 0 
0.0778325 -5.99814 0 
0 0 0 
-6.16034 0.0776314 0 
0.0776314 -6.0107 0 
0 0 0 
-6.15711 0.0756969 0 
0.0756969 -6.01423 0 
0 0 0 
-6.16391 0.0883071 0 
0.0883071 -6.00742 0 
0 0 0 
-6.15067 0.0880948 0 
0.0880948 -6.02066 0 
0 0 0 
-6.14651 0.0844173 0 
0.0844173 -6.02706 0 
0 0 0 
-6.15355 0.0981212 0 
0.0981212 -6.02003 0 
0 0 0 
-6.13971 0.0979897 0 
0.0979897 -6.03387 0 
0 0 0 
-6.15113 0.0328328 0 
0.0328328 -6.01769 0 
0 0 0 
-6.1564 0.0425896 0 
0.0425896 -6.01242 0 
0 0 0 
-6.14502 0.0430768 0 
0.0430768 -6.0238 0 
0 0 0 
-6.11914 0.112937 0 
0.112937 -6.06275 0 
0 0 0 
-6.12679 0.130433 0 
0.130433 -6.0551 0 
0 0 0 
-6.11097 0.130731 0 
0.130731 -6.07092 0 
0 0 0 
-6.14176 0.144061 0 
0.144061 -6.00552 0 
0 0 0 
-6.13103 0.12378 0 
0.12378 -6.01624 0 
0 0 0 
-6.1508 0.124748 0 
0.124748 -5.99647 0 
0 0 0 
-6.1469 0.0329441 0 
0.0329441 -6.01647 0 
0 0 0 
-6.14185 0.0236801 0 
0.0236801 -6.02153 0 
0 0 0 
-6.15285 0.0231675 0 
0.0231675 -6.01053 0 
0 0 0 
-6.14055 0.0308689 0 
0.0308689 -6.02965 0 
0 0 0 
-6.14528 0.0399539 0 
0.0399539 -6.02492 0 
0 0 0 
-6.13488 0.0404957 0 
0.0404957 -6.03532 0 
0 0 0 
-6.12707 0.0148058 0 
0.0148058 -6.0278 0 
0 0 0 
-6.1233 0.00724646 0 
0.00724646 -6.03158 0 
0 0 0 
-6.13208 0.00653657 0 
0.00653657 -6.02279 0 
0 0 0 
-6.11859 -0.00174255 0 
-0.00174255 -6.02243 0 
0 0 0 
-6.11562 -0.00828078 0 
-0.00828078 -6.02541 0 
0 0 0 
-6.12329 -0.00927659 0 
-0.00927659 -6.01773 0 
0 0 0 
-6.18765 0.0365721 0 
0.0365721 -5.98687 0 
0 0 0 
-6.19342 0.0457542 0 
0.0457542 -5.9811 0 
0 0 0 
-6.18143 0.0460162 0 
0.0460162 -5.9931 0 
0 0 0 
-6.10311 0.0390279 0 
0.0390279 -6.18709 0 
0 0 0 
-6.09394 0.0256291 0 
0.0256291 -6.19627 0 
0 0 0 
-6.10747 0.0284049 0 
0.0284049 -6.18273 0 
0 0 0 
-6.1474 0.200433 0 
0.200433 -5.76932 0 
0 0 0 
-6.14514 0.231274 0 
0.231274 -5.77158 0 
0 0 0 
-6.12487 0.190043 0 
0.190043 -5.79184 0 
0 0 0 
-6.12669 -0.0048204 0 
-0.0048204 -6.01325 0 
0 0 0 
-6.12333 -0.0119284 0 
-0.0119284 -6.01661 0 
0 0 0 
-6.132 -0.0130532 0 
-0.0130532 -6.00794 0 
0 0 0 
-6.13602 -0.00837603 0 
-0.00837603 -6.00418 0 
0 0 0 
-6.13222 -0.0161039 0 
-0.0161039 -6.00798 0 
0 0 0 
-6.14203 -0.0173757 0 
-0.0173757 -5.99817 0 
0 0 0 
-6.14681 -0.0122313 0 
-0.0122313 -5.99534 0 
0 0 0 
-6.14246 -0.0206993 0 
-0.0206993 -5.99968 0 
0 0 0 
-6.15365 -0.0221398 0 
-0.0221398 -5.98849 0 
0 0 0 
-6.19215 -0.0216437 0 
-0.0216437 -5.9702 0 
0 0 0 
-6.18479 -0.0343354 0 
-0.0343354 -5.97756 0 
0 0 0 
-6.20323 -0.0364834 0 
-0.0364834 -5.95912 0 
0 0 0 
-6.23426 0.00492665 0 
0.00492665 -5.96742 0 
0 0 0 
-6.24178 0.015491 0 
0.015491 -5.9599 0 
0 0 0 
-6.22396 0.0170942 0 
0.0170942 -5.97772 0 
0 0 0 
-6.09087 -0.0118482 0 
-0.0118482 -6.03633 0 
0 0 0 
-6.09198 -0.0078993 0 
-0.0078993 -6.03522 0 
0 0 0 
-6.08804 -0.00691087 0 
-0.00691087 -6.03915 0 
0 0 0 
-6.11724 -0.0409987 0 
-0.0409987 -5.99165 0 
0 0 0 
-6.11966 -0.0347018 0 
-0.0347018 -5.98924 0 
0 0 0 
-6.11113 -0.0325698 0 
-0.0325698 -5.99776 0 
0 0 0 
-6.44284 0.339379 0 
0.339379 -6.27318 0 
0 0 0 
-6.42535 0.276097 0 
0.276097 -6.29067 0 
0 0 0 
-6.47073 0.270096 0 
0.270096 -6.2453 0 
0 0 0 
-6.08439 -0.0274851 0 
-0.0274851 -6.11285 0 
0 0 0 
-6.10221 -0.0607029 0 
-0.0607029 -6.09503 0 
0 0 0 
-6.11638 -0.0295908 0 
-0.0295908 -6.08087 0 
0 0 0 
-6.08603 0.0709862 0 
0.0709862 -6.12568 0 
0 0 0 
-6.08445 0.0742165 0 
0.0742165 -6.12726 0 
0 0 0 
-6.08542 0.0724591 0 
0.0724591 -6.1263 0 
0 0 0 
-6.1869 0.0283747 0 
0.0283747 -5.96708 0 
0 0 0 
-6.19074 0.0400451 0 
0.0400451 -5.96324 0 
0 0 0 
-6.17839 0.0427401 0 
0.0427401 -5.97559 0 
0 0 0 
-6.38079 -0.0131165 0 
-0.0131165 -6.39693 0 
0 0 0 
-6.36014 -0.0336986 0 
-0.0336986 -6.41758 0 
0 0 0 
-6.33456 -0.0173296 0 
-0.0173296 -6.44316 0 
0 0 0 
-6.165 0.344313 0 
0.344313 -6.04508 0 
0 0 0 
-6.07787 0.562959 0 
0.562959 -6.13221 0 
0 0 0 
-6.03963 0.328049 0 
0.328049 -6.17046 0 
0 0 0 
-6.22528 0.0669306 0 
0.0669306 -6.47316 0 
0 0 0 
-6.14695 0.5187 0 
0.5187 -6.55149 0 
0 0 0 
-5.95322 0.568695 0 
0.568695 -6.74523 0 
0 0 0 
-6.21387 0.0499808 0 
0.0499808 -5.97576 0 
0 0 0 
-6.20986 0.0550097 0 
0.0550097 -5.97977 0 
0 0 0 
-6.20547 0.0497567 0 
0.0497567 -5.98417 0 
0 0 0 
-6.12399 0.08389 0 
0.08389 -6.06559 0 
0 0 0 
-6.12939 0.0956615 0 
0.0956615 -6.0602 0 
0 0 0 
-6.11784 0.0960933 0 
0.0960933 -6.07174 0 
0 0 0 
-6.14969 0.0318845 0 
0.0318845 -6.01711 0 
0 0 0 
-6.14389 0.0416503 0 
0.0416503 -6.02291 0 
0 0 0 
-6.1388 0.0322946 0 
0.0322946 -6.028 0 
0 0 0 
-6.12069 0.000662312 0 
0.000662312 -6.02967 0 
0 0 0 
-6.11633 0.00794346 0 
0.00794346 -6.03403 0 
0 0 0 
-6.11328 0.00142463 0 
0.00142463 -6.03707 0 
0 0 0 
-6.18063 -0.0392324 0 
-0.0392324 -5.95761 0 
0 0 0 
-6.16319 -0.0362911 0 
-0.0362911 -5.97504 0 
0 0 0 
-6.17446 -0.0508723 0 
-0.0508723 -5.96378 0 
0 0 0 
-6.27636 -0.00713413 0 
-0.00713413 -5.94265 0 
0 0 0 
-6.26095 -0.0313548 0 
-0.0313548 -5.95806 0 
0 0 0 
-6.29764 -0.034737 0 
-0.034737 -5.92138 0 
0 0 0 
-6.32017 0.0135147 0 
0.0135147 -5.9326 0 
0 0 0 
-6.30047 -0.0162751 0 
-0.0162751 -5.9523 0 
0 0 0 
-6.34666 -0.0201931 0 
-0.0201931 -5.90611 0 
0 0 0 
-6.09246 0.00152216 0 
0.00152216 -6.0654 0 
0 0 0 
-6.09357 0.00496479 0 
0.00496479 -6.06429 0 
0 0 0 
-6.09016 0.00551107 0 
0.00551107 -6.0677 0 
0 0 0 
-6.09453 -0.0130951 0 
-0.0130951 -6.03021 0 
0 0 0 
-6.0934 -0.0171075 0 
-0.0171075 -6.03134 0 
0 0 0 
-6.09772 -0.0182935 0 
-0.0182935 -6.02703 0 
0 0 0 
-6.20115 0.0659763 0 
0.0659763 -6.01162 0 
0 0 0 
-6.19864 0.0564572 0 
0.0564572 -6.01412 0 
0 0 0 
-6.20652 0.0548012 0 
0.0548012 -6.00625 0 
0 0 0 
-6.14225 0.00769635 0 
0.00769635 -6.18106 0 
0 0 0 
-6.13512 -0.00443613 0 
-0.00443613 -6.18818 0 
0 0 0 
-6.14493 -0.00187215 0 
-0.00187215 -6.17837 0 
0 0 0 
-6.09736 0.072852 0 
0.072852 -6.09855 0 
0 0 0 
-6.0956 0.0675506 0 
0.0675506 -6.10031 0 
0 0 0 
-6.10061 0.0666905 0 
0.0666905 -6.0953 0 
0 0 0 
-6.32492 -0.0197399 0 
-0.0197399 -5.91236 0 
0 0 0 
-6.29999 -0.0609705 0 
-0.0609705 -5.93728 0 
0 0 0 
-6.36024 -0.0669747 0 
-0.0669747 -5.87703 0 
0 0 0 
-6.01893 -0.194223 0 
-0.194223 -5.92592 0 
0 0 0 
-6.01017 -0.192503 0 
-0.192503 -5.93467 0 
0 0 0 
-6.01419 -0.184711 0 
-0.184711 -5.93066 0 
0 0 0 
-6.90102 0.74491 0 
0.74491 -6.41296 0 
0 0 0 
-6.83144 0.527626 0 
0.527626 -6.48254 0 
0 0 0 
-6.96689 0.529754 0 
0.529754 -6.34709 0 
0 0 0 
-6.09034 -0.0372849 0 
-0.0372849 -6.01445 0 
0 0 0 
-6.08685 -0.0323667 0 
-0.0323667 -6.01794 0 
0 0 0 
-6.08657 -0.0354325 0 
-0.0354325 -6.01822 0 
0 0 0 
-6.10122 0.0310596 0 
0.0310596 -6.11267 0 
0 0 0 
-6.10079 0.0311274 0 
0.0311274 -6.1131 0 
0 0 0 
-6.10029 0.0318594 0 
0.0318594 -6.1136 0 
0 0 0 
-6.20204 0.0642826 0 
0.0642826 -5.9816 0 
0 0 0 
-6.20214 0.0649103 0 
0.0649103 -5.98151 0 
0 0 0 
-6.20434 0.0654991 0 
0.0654991 -5.97931 0 
0 0 0 
-6.09399 0.0530172 0 
0.0530172 -6.22863 0 
0 0 0 
-6.12709 0.0495946 0 
0.0495946 -6.19552 0 
0 0 0 
-6.10758 0.0836671 0 
0.0836671 -6.21504 0 
0 0 0 
-6.08957 0.00214488 0 
0.00214488 -6.0614 0 
0 0 0 
-6.08644 0.00273842 0 
0.00273842 -6.06453 0 
0 0 0 
-6.08852 -0.00112784 0 
-0.00112784 -6.06245 0 
0 0 0 
-6.09786 0.0351666 0 
0.0351666 -6.10404 0 
0 0 0 
-6.09667 0.0369483 0 
0.0369483 -6.10522 0 
0 0 0 
-6.09688 0.0359733 0 
0.0359733 -6.10501 0 
0 0 0 
-6.30739 -0.0693856 0 
-0.0693856 -5.896 0 
0 0 0 
-6.27968 -0.120549 0 
-0.120549 -5.92371 0 
0 0 0 
-6.35055 -0.129465 0 
-0.129465 -5.85284 0 
0 0 0 
-6.15439 0.0521955 0 
0.0521955 -6.14794 0 
0 0 0 
-6.13709 0.0836121 0 
0.0836121 -6.16524 0 
0 0 0 
-6.12485 0.055121 0 
0.055121 -6.17748 0 
0 0 0 
-6.16971 0.124615 0 
0.124615 -5.96889 0 
0 0 0 
-6.15352 0.123121 0 
0.123121 -5.98509 0 
0 0 0 
-6.16032 0.107049 0 
0.107049 -5.97829 0 
0 0 0 
-6.18039 -0.00261714 0 
-0.00261714 -6.20151 0 
0 0 0 
-6.17736 -0.0129034 0 
-0.0129034 -6.20454 0 
0 0 0 
-6.17932 -0.0100845 0 
-0.0100845 -6.20257 0 
0 0 0 
-6.12183 0.0913086 0 
0.0913086 -6.3137 0 
0 0 0 
-6.13991 0.135562 0 
0.135562 -6.29562 0 
0 0 0 
-6.09426 0.141029 0 
0.141029 -6.34127 0 
0 0 0 
-6.15115 -0.00904918 0 
-0.00904918 -6.1549 0 
0 0 0 
-6.15675 -0.008916 0 
-0.008916 -6.1493 0 
0 0 0 
-6.15368 -0.00782407 0 
-0.00782407 -6.15237 0 
0 0 0 
-6.16835 0.0443561 0 
0.0443561 -6.00036 0 
0 0 0 
-6.15633 0.0447761 0 
0.0447761 -6.01238 0 
0 0 0 
-6.1627 0.0343062 0 
0.0343062 -6.00601 0 
0 0 0 
-6.2576 0.0474093 0 
0.0474093 -5.99423 0 
0 0 0 
-6.26528 0.041102 0 
0.041102 -5.98656 0 
0 0 0 
-6.27143 0.0465341 0 
0.0465341 -5.9804 0 
0 0 0 
-6.09679 0.00862468 0 
0.00862468 -6.092 0 
0 0 0 
-6.09798 0.00839039 0 
0.00839039 -6.09081 0 
0 0 0 
-6.09812 0.00811093 0 
0.00811093 -6.09067 0 
0 0 0 
-6.07229 0.00128687 0 
0.00128687 -6.06961 0 
0 0 0 
-6.07027 0.0011097 0 
0.0011097 -6.07164 0 
0 0 0 
-6.07113 0.000692182 0 
0.000692182 -6.07078 0 
0 0 0 
-6.08291 0.000614084 0 
0.000614084 -6.06593 0 
0 0 0 
-6.08082 0.00112072 0 
0.00112072 -6.06802 0 
0 0 0 
-6.0823 -0.0018256 0 
-0.0018256 -6.06654 0 
0 0 0 
-6.24884 -0.137802 0 
-0.137802 -5.89194 0 
0 0 0 
-6.2274 -0.187353 0 
-0.187353 -5.91338 0 
0 0 0 
-6.29218 -0.199992 0 
-0.199992 -5.8486 0 
0 0 0 
-6.18398 0.0132871 0 
0.0132871 -6.16944 0 
0 0 0 
-6.17496 0.0125392 0 
0.0125392 -6.17846 0 
0 0 0 
-6.17882 0.00979098 0 
0.00979098 -6.1746 0 
0 0 0 
-6.10731 0.00611814 0 
0.00611814 -6.11545 0 
0 0 0 
-6.11018 0.0069675 0 
0.0069675 -6.11258 0 
0 0 0 
-6.10959 0.0076536 0 
0.0076536 -6.11317 0 
0 0 0 
-6.24482 0.163088 0 
0.163088 -6.25807 0 
0 0 0 
-6.21536 0.217783 0 
0.217783 -6.28753 0 
0 0 0 
-6.19679 0.169371 0 
0.169371 -6.3061 0 
0 0 0 
-6.18061 -0.00348108 0 
-0.00348108 -6.22262 0 
0 0 0 
-6.17048 -0.00800529 0 
-0.00800529 -6.23276 0 
0 0 0 
-6.17345 -0.0204332 0 
-0.0204332 -6.22979 0 
0 0 0 
-6.16811 0.0109175 0 
0.0109175 -6.02429 0 
0 0 0 
-6.1764 0.0309205 0 
0.0309205 -6.01599 0 
0 0 0 
-6.15589 0.0331799 0 
0.0331799 -6.0365 0 
0 0 0 
-6.21767 0.0560843 0 
0.0560843 -5.9799 0 
0 0 0 
-6.21119 0.0556654 0 
0.0556654 -5.98638 0 
0 0 0 
-6.21407 0.0529015 0 
0.0529015 -5.9835 0 
0 0 0 
-6.15485 0.113842 0 
0.113842 -6.00497 0 
0 0 0 
-6.14656 0.0989644 0 
0.0989644 -6.01326 0 
0 0 0 
-6.16196 0.0996477 0 
0.0996477 -5.99787 0 
0 0 0 
-6.13708 -0.000139416 0 
-0.000139416 -6.19882 0 
0 0 0 
-6.13174 0.015426 0 
0.015426 -6.20416 0 
0 0 0 
-6.12056 -0.00350876 0 
-0.00350876 -6.21534 0 
0 0 0 
-6.07785 0.0804621 0 
0.0804621 -6.13934 0 
0 0 0 
-6.07669 0.0832886 0 
0.0832886 -6.14049 0 
0 0 0 
-6.07877 0.0823238 0 
0.0823238 -6.13842 0 
0 0 0 
-6.09219 0.061947 0 
0.061947 -6.11463 0 
0 0 0 
-6.09029 0.0654705 0 
0.0654705 -6.11653 0 
0 0 0 
-6.09045 0.0631416 0 
0.0631416 -6.11636 0 
0 0 0 
-6.06872 0.222993 0 
0.222993 -6.09435 0 
0 0 0 
-6.08627 0.178644 0 
0.178644 -6.0768 0 
0 0 0 
-6.10222 0.222071 0 
0.222071 -6.06085 0 
0 0 0 
-6.09798 0.0256983 0 
0.0256983 -6.10594 0 
0 0 0 
-6.09604 0.0276924 0 
0.0276924 -6.10788 0 
0 0 0 
-6.09636 0.0266278 0 
0.0266278 -6.10756 0 
0 0 0 
-6.07867 0.0129352 0 
0.0129352 -6.16989 0 
0 0 0 
-6.09525 -0.0174081 0 
-0.0174081 -6.15332 0 
0 0 0 
-6.10817 0.0108263 0 
0.0108263 -6.1404 0 
0 0 0 
-6.12028 0.0795893 0 
0.0795893 -6.06041 0 
0 0 0 
-6.11479 0.0901641 0 
0.0901641 -6.0659 0 
0 0 0 
-6.10994 0.0799602 0 
0.0799602 -6.07076 0 
0 0 0 
-6.08874 0.156532 0 
0.156532 -6.10498 0 
0 0 0 
-6.09841 0.13435 0 
0.13435 -6.09531 0 
0 0 0 
-6.10619 0.155434 0 
0.155434 -6.08753 0 
0 0 0 
-6.11572 -0.00608523 0 
-0.00608523 -6.02741 0 
0 0 0 
-6.11158 0.000774068 0 
0.000774068 -6.03156 0 
0 0 0 
-6.10896 -0.00520279 0 
-0.00520279 -6.03418 0 
0 0 0 
-6.12413 0.00932104 0 
0.00932104 -6.15853 0 
0 0 0 
-6.12193 0.0156671 0 
0.0156671 -6.16074 0 
0 0 0 
-6.11619 0.00698025 0 
0.00698025 -6.16647 0 
0 0 0 
-6.10358 0.0154242 0 
0.0154242 -6.08319 0 
0 0 0 
-6.10169 0.0189555 0 
0.0189555 -6.08508 0 
0 0 0 
-6.10037 0.015872 0 
0.015872 -6.0864 0 
0 0 0 
-6.08915 0.234102 0 
0.234102 -5.99387 0 
0 0 0 
-6.1068 0.186131 0 
0.186131 -5.97622 0 
0 0 0 
-6.12827 0.23631 0 
0.23631 -5.95475 0 
0 0 0 
-6.11138 0.068153 0 
0.068153 -6.09418 0 
0 0 0 
-6.10546 0.0689995 0 
0.0689995 -6.10009 0 
0 0 0 
-6.10915 0.0622552 0 
0.0622552 -6.0964 0 
0 0 0 
-6.05669 -0.0192981 0 
-0.0192981 -6.20241 0 
0 0 0 
-6.03197 -0.0176455 0 
-0.0176455 -6.22712 0 
0 0 0 
-6.04576 -0.0426737 0 
-0.0426737 -6.21333 0 
0 0 0 
-5.98879 -0.0863925 0 
-0.0863925 -6.28362 0 
0 0 0 
-5.99163 -0.0909637 0 
-0.0909637 -6.28078 0 
0 0 0 
-5.98625 -0.0943017 0 
-0.0943017 -6.28616 0 
0 0 0 
-6.05134 0.0703098 0 
0.0703098 -6.31082 0 
0 0 0 
-6.07242 0.0342752 0 
0.0342752 -6.28974 0 
0 0 0 
-6.08624 0.0661171 0 
0.0661171 -6.27592 0 
0 0 0 
-6.10317 0.019947 0 
0.019947 -6.15373 0 
0 0 0 
-6.10469 0.0148821 0 
0.0148821 -6.15221 0 
0 0 0 
-6.11004 0.022158 0 
0.022158 -6.14686 0 
0 0 0 
-6.07242 -0.124802 0 
-0.124802 -6.79661 0 
0 0 0 
-6.01487 -0.193633 0 
-0.193633 -6.85416 0 
0 0 0 
-6.05904 -0.161951 0 
-0.161951 -6.80999 0 
0 0 0 
-6.01265 0.102318 0 
0.102318 -6.87183 0 
0 0 0 
-6.00527 0.0610218 0 
0.0610218 -6.87921 0 
0 0 0 
-6.06565 0.0343224 0 
0.0343224 -6.81883 0 
0 0 0 
-6.447 0.0303818 0 
0.0303818 -5.91023 0 
0 0 0 
-6.54173 0.021641 0 
0.021641 -5.8155 0 
0 0 0 
-6.4868 0.08772 0 
0.08772 -5.87044 0 
0 0 0 
-6.11243 0.0392666 0 
0.0392666 -6.07506 0 
0 0 0 
-6.11609 0.0329044 0 
0.0329044 -6.0714 0 
0 0 0 
-6.11873 0.0386714 0 
0.0386714 -6.06876 0 
0 0 0 
-6.14565 -0.0103838 0 
-0.0103838 -5.97295 0 
0 0 0 
-6.16789 -0.0139575 0 
-0.0139575 -5.95071 0 
0 0 0 
-6.15368 0.0112995 0 
0.0112995 -5.96493 0 
0 0 0 
-6.12819 0.0143965 0 
0.0143965 -6.02705 0 
0 0 0 
-6.11973 0.0151882 0 
0.0151882 -6.03551 0 
0 0 0 
-6.12464 0.00704332 0 
0.00704332 -6.03059 0 
0 0 0 
-5.99392 -0.161862 0 
-0.161862 -6.18719 0 
0 0 0 
-6.01149 -0.144 0 
-0.144 -6.16962 0 
0 0 0 
-5.98964 -0.151677 0 
-0.151677 -6.19147 0 
0 0 0 
-6.23072 0.00631336 0 
0.00631336 -5.97329 0 
0 0 0 
-6.25018 0.00494708 0 
0.00494708 -5.95383 0 
0 0 0 
-6.23926 0.0185555 0 
0.0185555 -5.96474 0 
0 0 0 
-6.10142 0.0197718 0 
0.0197718 -6.15157 0 
0 0 0 
-6.10714 0.021556 0 
0.021556 -6.14585 0 
0 0 0 
-6.10583 0.026088 0 
0.026088 -6.14717 0 
0 0 0 
-6.03243 -0.557028 0 
-0.557028 -6.38258 0 
0 0 0 
-6.11059 -0.487769 0 
-0.487769 -6.30442 0 
0 0 0 
-6.00853 -0.514896 0 
-0.514896 -6.40648 0 
0 0 0 
-6.10186 0.0102945 0 
0.0102945 -6.11127 0 
0 0 0 
-6.10592 0.0110277 0 
0.0110277 -6.10721 0 
0 0 0 
-6.10479 0.0120925 0 
0.0120925 -6.10833 0 
0 0 0 
-6.09508 0.236723 0 
0.236723 -6.01644 0 
0 0 0 
-6.07501 0.193173 0 
0.193173 -6.03651 0 
0 0 0 
-6.11331 0.194239 0 
0.194239 -5.99821 0 
0 0 0 
-6.00148 -0.0599256 0 
-0.0599256 -6.25976 0 
0 0 0 
-6.00375 -0.0595141 0 
-0.0595141 -6.25749 0 
0 0 0 
-6.00298 -0.0553765 0 
-0.0553765 -6.25827 0 
0 0 0 
-5.96618 -0.0178115 0 
-0.0178115 -6.6127 0 
0 0 0 
-5.99642 -0.0334718 0 
-0.0334718 -6.58246 0 
0 0 0 
-5.96776 -0.00424737 0 
-0.00424737 -6.61112 0 
0 0 0 
-6.0804 -0.000326332 0 
-0.000326332 -6.0743 0 
0 0 0 
-6.07939 0.00151195 0 
0.00151195 -6.0753 0 
0 0 0 
-6.07905 0.000176472 0 
0.000176472 -6.07564 0 
0 0 0 
-6.27526 -0.309961 0 
-0.309961 -7.62675 0 
0 0 0 
-6.20523 -0.382372 0 
-0.382372 -7.69678 0 
0 0 0 
-6.16891 -0.410703 0 
-0.410703 -7.73311 0 
0 0 0 
-6.02317 -0.028812 0 
-0.028812 -6.27464 0 
0 0 0 
-6.01826 -0.0399437 0 
-0.0399437 -6.27955 0 
0 0 0 
-6.03349 -0.0430674 0 
-0.0430674 -6.26432 0 
0 0 0 
-5.99214 -0.0613036 0 
-0.0613036 -6.2635 0 
0 0 0 
-5.99033 -0.0630742 0 
-0.0630742 -6.2653 0 
0 0 0 
-5.98975 -0.0671705 0 
-0.0671705 -6.26589 0 
0 0 0 
-6.13706 0.00361655 0 
0.00361655 -6.17899 0 
0 0 0 
-6.13912 -0.00416806 0 
-0.00416806 -6.17693 0 
0 0 0 
-6.14566 0.00620289 0 
0.00620289 -6.17039 0 
0 0 0 
-6.44627 0.374311 0 
0.374311 -6.26181 0 
0 0 0 
-6.38045 0.379437 0 
0.379437 -6.32763 0 
0 0 0 
-6.4178 0.282525 0 
0.282525 -6.29028 0 
0 0 0 
-6.11738 0.00784097 0 
0.00784097 -6.0329 0 
0 0 0 
-6.1102 0.0086618 0 
0.0086618 -6.04007 0 
0 0 0 
-6.1145 0.0014633 0 
0.0014633 -6.03577 0 
0 0 0 
-6.27209 0.104594 0 
0.104594 -6.07891 0 
0 0 0 
-6.2786 0.103258 0 
0.103258 -6.07239 0 
0 0 0 
-6.27419 0.118364 0 
0.118364 -6.07681 0 
0 0 0 
-6.13616 -0.0227524 0 
-0.0227524 -5.98779 0 
0 0 0 
-6.12613 -0.0209352 0 
-0.0209352 -5.99782 0 
0 0 0 
-6.13272 -0.0302734 0 
-0.0302734 -5.99123 0 
0 0 0 
-6.14799 -0.0127945 0 
-0.0127945 -5.99094 0 
0 0 0 
-6.15573 -0.0236189 0 
-0.0236189 -5.9832 0 
0 0 0 
-6.16047 -0.0145311 0 
-0.0145311 -5.97846 0 
0 0 0 
-6.09628 -0.0958877 0 
-0.0958877 -7.33972 0 
0 0 0 
-6.10046 -0.153428 0 
-0.153428 -7.33554 0 
0 0 0 
-6.04854 -0.127536 0 
-0.127536 -7.38746 0 
0 0 0 
-5.59439 0.0116431 0 
0.0116431 -5.52343 0 
0 0 0 
-5.59168 -0.0203227 0 
-0.0203227 -5.52614 0 
0 0 0 
-5.56522 -0.00693464 0 
-0.00693464 -5.5526 0 
0 0 0 
-6.03763 -0.108397 0 
-0.108397 -6.08552 0 
0 0 0 
-6.02887 -0.0950831 0 
-0.0950831 -6.09428 0 
0 0 0 
-6.02939 -0.100457 0 
-0.100457 -6.09375 0 
0 0 0 
-6.17008 -0.000906328 0 
-0.000906328 -6.16241 0 
0 0 0 
-6.17118 -0.00174853 0 
-0.00174853 -6.16131 0 
0 0 0 
-6.16981 -0.00253188 0 
-0.00253188 -6.16268 0 
0 0 0 
-6.10978 0.0177756 0 
0.0177756 -6.06018 0 
0 0 0 
-6.11609 0.0172509 0 
0.0172509 -6.05386 0 
0 0 0 
-6.11248 0.0235601 0 
0.0235601 -6.05748 0 
0 0 0 
-6.21745 0.0243232 0 
0.0243232 -5.96783 0 
0 0 0 
-6.20339 0.0252641 0 
0.0252641 -5.98189 0 
0 0 0 
-6.21123 0.0152356 0 
0.0152356 -5.97404 0 
0 0 0 
-6.12729 -0.0057044 0 
-0.0057044 -6.00817 0 
0 0 0 
-6.13327 -0.0147278 0 
-0.0147278 -6.00219 0 
0 0 0 
-6.13695 -0.00703169 0 
-0.00703169 -5.99851 0 
0 0 0 
-6.21624 -0.0640546 0 
-0.0640546 -5.94656 0 
0 0 0 
-6.20138 -0.0443643 0 
-0.0443643 -5.96142 0 
0 0 0 
-6.19218 -0.0607831 0 
-0.0607831 -5.97061 0 
0 0 0 
-6.17905 0.0167396 0 
0.0167396 -5.92144 0 
0 0 0 
-6.16873 0.0334925 0 
0.0334925 -5.93176 0 
0 0 0 
-6.16503 0.0205606 0 
0.0205606 -5.93546 0 
0 0 0 
-6.14793 -0.0283248 0 
-0.0283248 -5.97799 0 
0 0 0 
-6.13615 -0.0262142 0 
-0.0262142 -5.98977 0 
0 0 0 
-6.14387 -0.0367646 0 
-0.0367646 -5.98205 0 
0 0 0 
-6.10019 0.0204063 0 
0.0204063 -6.13884 0 
0 0 0 
-6.10417 0.0211423 0 
0.0211423 -6.13486 0 
0 0 0 
-6.10314 0.0243367 0 
0.0243367 -6.13589 0 
0 0 0 
-6.22579 0.0209773 0 
0.0209773 -5.97745 0 
0 0 0 
-6.24114 0.0201448 0 
0.0201448 -5.96209 0 
0 0 0 
-6.23274 0.0303212 0 
0.0303212 -5.97049 0 
0 0 0 
-6.02132 -0.152596 0 
-0.152596 -6.17989 0 
0 0 0 
-6.03801 -0.146187 0 
-0.146187 -6.16319 0 
0 0 0 
-6.03513 -0.138016 0 
-0.138016 -6.16608 0 
0 0 0 
-6.70742 0.637296 0 
0.637296 -6.3431 0 
0 0 0 
-6.56479 0.640401 0 
0.640401 -6.48573 0 
0 0 0 
-6.63878 0.417954 0 
0.417954 -6.41174 0 
0 0 0 
-6.20625 0.0580141 0 
0.0580141 -5.97679 0 
0 0 0 
-6.20269 0.0630112 0 
0.0630112 -5.98035 0 
0 0 0 
-6.19831 0.0575453 0 
0.0575453 -5.98473 0 
0 0 0 
-6.00685 -0.022495 0 
-0.022495 -6.26986 0 
0 0 0 
-6.00087 -0.034309 0 
-0.034309 -6.27584 0 
0 0 0 
-6.0161 -0.0361992 0 
-0.0361992 -6.26061 0 
0 0 0 
-5.99917 -0.0483469 0 
-0.0483469 -6.2706 0 
0 0 0 
-5.99411 -0.0432945 0 
-0.0432945 -6.27566 0 
0 0 0 
-5.99211 -0.0465805 0 
-0.0465805 -6.27767 0 
0 0 0 
-6.18392 0.028114 0 
0.028114 -5.99344 0 
0 0 0 
-6.18908 0.0420757 0 
0.0420757 -5.98829 0 
0 0 0 
-6.17484 0.0443405 0 
0.0443405 -6.00253 0 
0 0 0 
-6.08795 -0.000293016 0 
-0.000293016 -6.06609 0 
0 0 0 
-6.08614 0.00305331 0 
0.00305331 -6.0679 0 
0 0 0 
-6.08528 0.000250958 0 
0.000250958 -6.06876 0 
0 0 0 
-5.99707 -0.127397 0 
-0.127397 -6.16902 0 
0 0 0 
-6.00052 -0.136471 0 
-0.136471 -6.16558 0 
0 0 0 
-6.01455 -0.121167 0 
-0.121167 -6.15155 0 
0 0 0 
-6.70234 0.474253 0 
0.474253 -6.66776 0 
0 0 0 
-6.56869 0.746193 0 
0.746193 -6.80141 0 
0 0 0 
-6.47725 0.498641 0 
0.498641 -6.89285 0 
0 0 0 
-6.15429 -0.0105876 0 
-0.0105876 -6.21677 0 
0 0 0 
-6.15082 0.0053098 0 
0.0053098 -6.22023 0 
0 0 0 
-6.13883 -0.0152386 0 
-0.0152386 -6.23223 0 
0 0 0 
-6.14181 0.0223038 0 
0.0223038 -6.022 0 
0 0 0 
-6.13637 0.0314189 0 
0.0314189 -6.02744 0 
0 0 0 
-6.13183 0.0228247 0 
0.0228247 -6.03198 0 
0 0 0 
-6.278 0.00673058 0 
0.00673058 -6.29183 0 
0 0 0 
-6.26332 0.00289151 0 
0.00289151 -6.3065 0 
0 0 0 
-6.29551 -0.00188342 0 
-0.00188342 -6.27431 0 
0 0 0 
-6.03992 -0.0803866 0 
-0.0803866 -6.68204 0 
0 0 0 
-6.02618 -0.0887585 0 
-0.0887585 -6.69578 0 
0 0 0 
-6.0196 -0.0693301 0 
-0.0693301 -6.70236 0 
0 0 0 
-6.07765 -0.0817178 0 
-0.0817178 -5.98351 0 
0 0 0 
-6.07185 -0.078043 0 
-0.078043 -5.98931 0 
0 0 0 
-6.07793 -0.0853716 0 
-0.0853716 -5.98323 0 
0 0 0 
-6.25072 0.188983 0 
0.188983 -6.20073 0 
0 0 0 
-6.23848 0.15336 0 
0.15336 -6.21297 0 
0 0 0 
-6.27016 0.149203 0 
0.149203 -6.18129 0 
0 0 0 
-6.16593 -0.00218639 0 
-0.00218639 -6.16231 0 
0 0 0 
-6.16804 -0.00502354 0 
-0.00502354 -6.1602 0 
0 0 0 
-6.1691 -0.00403614 0 
-0.00403614 -6.15915 0 
0 0 0 
-6.20556 0.0644107 0 
0.0644107 -6.01656 0 
0 0 0 
-6.19576 0.0657931 0 
0.0657931 -6.02637 0 
0 0 0 
-6.20185 0.0529055 0 
0.0529055 -6.02027 0 
0 0 0 
-6.19941 0.0364196 0 
0.0364196 -5.97731 0 
0 0 0 
-6.19325 0.0455387 0 
0.0455387 -5.98346 0 
0 0 0 
-6.18745 0.0366234 0 
0.0366234 -5.98927 0 
0 0 0 
-6.0668 -0.0366705 0 
-0.0366705 -6.22001 0 
0 0 0 
-6.05574 -0.0188557 0 
-0.0188557 -6.23106 0 
0 0 0 
-6.0503 -0.0341181 0 
-0.0341181 -6.23651 0 
0 0 0 
-6.08489 0.0784905 0 
0.0784905 -6.17967 0 
0 0 0 
-6.07897 0.0730287 0 
0.0730287 -6.1856 0 
0 0 0 
-6.08607 0.0757677 0 
0.0757677 -6.1785 0 
0 0 0 
-6.12027 0.0477843 0 
0.0477843 -6.07047 0 
0 0 0 
-6.11342 0.0483885 0 
0.0483885 -6.07732 0 
0 0 0 
-6.11737 0.0414558 0 
0.0414558 -6.07337 0 
0 0 0 
-6.31842 -0.0779621 0 
-0.0779621 -5.87047 0 
0 0 0 
-6.25772 -0.0679312 0 
-0.0679312 -5.93118 0 
0 0 0 
-6.29676 -0.117476 0 
-0.117476 -5.89214 0 
0 0 0 
-6.08309 -0.00353207 0 
-0.00353207 -6.06046 0 
0 0 0 
-6.08544 -0.00415066 0 
-0.00415066 -6.0581 0 
0 0 0 
-6.08373 -0.000802887 0 
-0.000802887 -6.05982 0 
0 0 0 
-6.1343 0.0361205 0 
0.0361205 -6.03744 0 
0 0 0 
-6.12926 0.0448774 0 
0.0448774 -6.04248 0 
0 0 0 
-6.12493 0.0365268 0 
0.0365268 -6.04681 0 
0 0 0 
-6.30188 0.243421 0 
0.243421 -6.21607 0 
0 0 0 
-6.25814 0.24781 0 
0.24781 -6.25981 0 
0 0 0 
-6.28381 0.189702 0 
0.189702 -6.23414 0 
0 0 0 
-6.21184 0.0712078 0 
0.0712078 -6.02381 0 
0 0 0 
-6.20943 0.0613506 0 
0.0613506 -6.02623 0 
0 0 0 
-6.21673 0.059924 0 
0.059924 -6.01892 0 
0 0 0 
-6.13632 0.0378886 0 
0.0378886 -6.03912 0 
0 0 0 
-6.14091 0.0468537 0 
0.0468537 -6.03453 0 
0 0 0 
-6.13086 0.0473513 0 
0.0473513 -6.04457 0 
0 0 0 
-6.08602 0.0402344 0 
0.0402344 -6.16444 0 
0 0 0 
-6.09265 0.0479157 0 
0.0479157 -6.15781 0 
0 0 0 
-6.08369 0.0454249 0 
0.0454249 -6.16677 0 
0 0 0 
-6.11075 0.0441878 0 
0.0441878 -6.07277 0 
0 0 0 
-6.10813 0.0385052 0 
0.0385052 -6.07539 0 
0 0 0 
-6.11422 0.0380156 0 
0.0380156 -6.0693 0 
0 0 0 
-6.16731 0.110777 0 
0.110777 -5.95829 0 
0 0 0 
-6.1717 0.0990477 0 
0.0990477 -5.9539 0 
0 0 0 
-6.17981 0.11292 0 
0.11292 -5.94579 0 
0 0 0 
-6.01311 -0.0680743 0 
-0.0680743 -6.22356 0 
0 0 0 
-6.02702 -0.0685417 0 
-0.0685417 -6.20966 0 
0 0 0 
-6.01882 -0.0526844 0 
-0.0526844 -6.21786 0 
0 0 0 
-6.03898 -0.174759 0 
-0.174759 -6.1829 0 
0 0 0 
-6.0334 -0.161163 0 
-0.161163 -6.18847 0 
0 0 0 
-6.01471 -0.182328 0 
-0.182328 -6.20716 0 
0 0 0 
-6.0136 -0.032405 0 
-0.032405 -6.27925 0 
0 0 0 
-6.00134 -0.03009 0 
-0.03009 -6.2915 0 
0 0 0 
-6.00947 -0.0411726 0 
-0.0411726 -6.28337 0 
0 0 0 
-6.07933 0.185987 0 
0.185987 -6.10448 0 
0 0 0 
-6.09229 0.155035 0 
0.155035 -6.09152 0 
0 0 0 
-6.10319 0.184801 0 
0.184801 -6.08062 0 
0 0 0 
-6.91648 0.654729 0 
0.654729 -5.66458 0 
0 0 0 
-6.88246 0.511935 0 
0.511935 -5.6986 0 
0 0 0 
-6.97622 0.728509 0 
0.728509 -5.60484 0 
0 0 0 
-6.09803 0.0551137 0 
0.0551137 -6.12998 0 
0 0 0 
-6.09686 0.0552912 0 
0.0552912 -6.13116 0 
0 0 0 
-6.09687 0.0566401 0 
0.0566401 -6.13114 0 
0 0 0 
-6.10813 0.0386801 0 
0.0386801 -6.08071 0 
0 0 0 
-6.10526 0.0437435 0 
0.0437435 -6.08359 0 
0 0 0 
-6.10336 0.039245 0 
0.039245 -6.08548 0 
0 0 0 
-6.17598 0.0439308 0 
0.0439308 -5.94687 0 
0 0 0 
-6.18468 0.0407345 0 
0.0407345 -5.93818 0 
0 0 0 
-6.17756 0.0517614 0 
0.0517614 -5.9453 0 
0 0 0 
-6.23314 0.0405036 0 
0.0405036 -5.98387 0 
0 0 0 
-6.2442 0.040169 0 
0.040169 -5.97281 0 
0 0 0 
-6.23838 0.0459043 0 
0.0459043 -5.97863 0 
0 0 0 
-6.24175 0.0713076 0 
0.0713076 -6.00918 0 
0 0 0 
-6.24155 0.0667554 0 
0.0667554 -6.00939 0 
0 0 0 
-6.24061 0.0708803 0 
0.0708803 -6.01033 0 
0 0 0 
-6.10597 0.0576401 0 
0.0576401 -6.08063 0 
0 0 0 
-6.11303 0.0570888 0 
0.0570888 -6.07358 0 
0 0 0 
-6.10902 0.0644247 0 
0.0644247 -6.07758 0 
0 0 0 
-5.97136 0.00268658 0 
0.00268658 -6.52127 0 
0 0 0 
-6.00534 -0.00951946 0 
-0.00951946 -6.48728 0 
0 0 0 
-5.97785 0.0217396 0 
0.0217396 -6.51478 0 
0 0 0 
-6.10142 0.0369713 0 
0.0369713 -6.15905 0 
0 0 0 
-6.08878 0.00889627 0 
0.00889627 -6.17169 0 
0 0 0 
-6.11828 0.00645851 0 
0.00645851 -6.14219 0 
0 0 0 
-6.0949 0.222588 0 
0.222588 -6.96113 0 
0 0 0 
-6.16557 0.105152 0 
0.105152 -6.89046 0 
0 0 0 
-6.18894 0.195155 0 
0.195155 -6.86709 0 
0 0 0 
-6.36797 0.0972704 0 
0.0972704 -5.98917 0 
0 0 0 
-6.40099 0.0950016 0 
0.0950016 -5.95615 0 
0 0 0 
-6.38252 0.110103 0 
0.110103 -5.97463 0 
0 0 0 
-5.65234 -0.00489758 0 
-0.00489758 -5.47335 0 
0 0 0 
-5.62719 -0.00978558 0 
-0.00978558 -5.4985 0 
0 0 0 
-5.62197 0.0226235 0 
0.0226235 -5.50373 0 
0 0 0 
-6.3326 0.0170275 0 
0.0170275 -6.2976 0 
0 0 0 
-6.28434 0.0214357 0 
0.0214357 -6.34585 0 
0 0 0 
-6.31279 0.00525752 0 
0.00525752 -6.3174 0 
0 0 0 
-6.60453 -0.316453 0 
-0.316453 -7.53759 0 
0 0 0 
-6.76396 -0.0955454 0 
-0.0955454 -7.37816 0 
0 0 0 
-6.83758 0.538089 0 
0.538089 -7.30454 0 
0 0 0 
-6.26084 -0.119726 0 
-0.119726 -5.87503 0 
0 0 0 
-6.33089 -0.211126 0 
-0.211126 -5.80498 0 
0 0 0 
-6.36446 -0.140789 0 
-0.140789 -5.77142 0 
0 0 0 
-5.98478 0.0410086 0 
0.0410086 -5.53536 0 
0 0 0 
-5.97428 0.0393691 0 
0.0393691 -5.54587 0 
0 0 0 
-5.95288 0.059479 0 
0.059479 -5.56726 0 
0 0 0 
-6.10594 0.0543845 0 
0.0543845 -6.10429 0 
0 0 0 
-6.10235 0.0553008 0 
0.0553008 -6.10789 0 
0 0 0 
-6.10494 0.0509406 0 
0.0509406 -6.1053 0 
0 0 0 
-6.01401 -0.106293 0 
-0.106293 -6.21611 0 
0 0 0 
-6.00114 -0.123364 0 
-0.123364 -6.22898 0 
0 0 0 
-6.01953 -0.118389 0 
-0.118389 -6.21059 0 
0 0 0 
-6.14224 0.00598214 0 
0.00598214 -6.19197 0 
0 0 0 
-6.14835 -0.00556112 0 
-0.00556112 -6.18586 0 
0 0 0 
-6.14999 0.00330731 0 
0.00330731 -6.18423 0 
0 0 0 
-6.1305 0.0607482 0 
0.0607482 -6.13963 0 
0 0 0 
-6.11867 0.0335532 0 
0.0335532 -6.15145 0 
0 0 0 
-6.1468 0.0309681 0 
0.0309681 -6.12332 0 
0 0 0 
-6.08189 -0.000971469 0 
-0.000971469 -6.06999 0 
0 0 0 
-6.08063 0.00145379 0 
0.00145379 -6.07125 0 
0 0 0 
-6.08018 -0.000477246 0 
-0.000477246 -6.0717 0 
0 0 0 
-6.03547 0.117664 0 
0.117664 -6.20777 0 
0 0 0 
-6.04403 0.120182 0 
0.120182 -6.19921 0 
0 0 0 
-6.0354 0.115278 0 
0.115278 -6.20784 0 
0 0 0 
-6.16009 -0.00635424 0 
-0.00635424 -6.16063 0 
0 0 0 
-6.16481 -0.00678694 0 
-0.00678694 -6.15591 0 
0 0 0 
-6.16201 -0.00555631 0 
-0.00555631 -6.15871 0 
0 0 0 
-6.16794 0.113387 0 
0.113387 -5.98671 0 
0 0 0 
-6.15288 0.11244 0 
0.11244 -6.00177 0 
0 0 0 
-6.15959 0.0977945 0 
0.0977945 -5.99506 0 
0 0 0 
-6.83705 0.202463 0 
0.202463 -6.20377 0 
0 0 0 
-6.13619 1.32283 0 
1.32283 -6.90464 0 
0 0 0 
-5.85469 0.364704 0 
0.364704 -7.18614 0 
0 0 0 
-5.8458 -0.0178609 0 
-0.0178609 -5.51226 0 
0 0 0 
-5.80295 -0.0440054 0 
-0.0440054 -5.55511 0 
0 0 0 
-5.79532 -0.0495389 0 
-0.0495389 -5.56274 0 
0 0 0 
-6.10463 0.0161265 0 
0.0161265 -6.0828 0 
0 0 0 
-6.10153 0.0166068 0 
0.0166068 -6.08591 0 
0 0 0 
-6.10334 0.0130045 0 
0.0130045 -6.0841 0 
0 0 0 
-6.16189 0.000168238 0 
0.000168238 -6.16658 0 
0 0 0 
-6.158 -0.00171996 0 
-0.00171996 -6.17046 0 
0 0 0 
-6.15834 -0.0063002 0 
-0.0063002 -6.17013 0 
0 0 0 
-6.20636 0.0589902 0 
0.0589902 -5.98983 0 
0 0 0 
-6.20385 0.0646857 0 
0.0646857 -5.99233 0 
0 0 0 
-6.20384 0.0604277 0 
0.0604277 -5.99235 0 
0 0 0 
-6.16119 0.139529 0 
0.139529 -5.97431 0 
0 0 0 
-6.15037 0.120212 0 
0.120212 -5.98513 0 
0 0 0 
-6.16913 0.121873 0 
0.121873 -5.96637 0 
0 0 0 
-6.24596 0.0254911 0 
0.0254911 -5.9806 0 
0 0 0 
-6.25717 0.013247 0 
0.013247 -5.96939 0 
0 0 0 
-6.2654 0.0237674 0 
0.0237674 -5.96116 0 
0 0 0 
-6.07944 -0.0088333 0 
-0.0088333 -6.0508 0 
0 0 0 
-6.07811 -0.00603654 0 
-0.00603654 -6.05214 0 
0 0 0 
-6.07816 -0.00803555 0 
-0.00803555 -6.05209 0 
0 0 0 
-6.09042 0.0468018 0 
0.0468018 -6.16352 0 
0 0 0 
-6.09642 0.048798 0 
0.048798 -6.15751 0 
0 0 0 
-6.09515 0.052309 0 
0.052309 -6.15879 0 
0 0 0 
-6.09555 -0.0116913 0 
-0.0116913 -6.02624 0 
0 0 0 
-6.09099 -0.010527 0 
-0.010527 -6.03079 0 
0 0 0 
-6.09428 -0.0159976 0 
-0.0159976 -6.02751 0 
0 0 0 
-6.12641 -0.0175388 0 
-0.0175388 -5.99762 0 
0 0 0 
-6.11774 -0.0159648 0 
-0.0159648 -6.00629 0 
0 0 0 
-6.12343 -0.0243722 0 
-0.0243722 -6.00059 0 
0 0 0 
-6.2271 -0.104335 0 
-0.104335 -5.92994 0 
0 0 0 
-6.20671 -0.0770228 0 
-0.0770228 -5.95033 0 
0 0 0 
-6.1953 -0.0991543 0 
-0.0991543 -5.96174 0 
0 0 0 
-6.03364 -0.117197 0 
-0.117197 -6.00464 0 
0 0 0 
-6.03121 -0.122166 0 
-0.122166 -6.00707 0 
0 0 0 
-6.02812 -0.119785 0 
-0.119785 -6.01016 0 
0 0 0 
-6.19599 0.175218 0 
0.175218 -6.25482 0 
0 0 0 
-6.15034 0.180178 0 
0.180178 -6.30047 0 
0 0 0 
-6.17746 0.12769 0 
0.12769 -6.27335 0 
0 0 0 
-6.10725 0.0973952 0 
0.0973952 -6.09272 0 
0 0 0 
-6.11271 0.0864334 0 
0.0864334 -6.08726 0 
0 0 0 
-6.11688 0.0966449 0 
0.0966449 -6.0831 0 
0 0 0 
-6.20938 0.0978002 0 
0.0978002 -6.07769 0 
0 0 0 
-6.21753 0.0789348 0 
0.0789348 -6.06955 0 
0 0 0 
-6.22318 0.0963612 0 
0.0963612 -6.06389 0 
0 0 0 
-6.01994 0.0796913 0 
0.0796913 -6.57186 0 
0 0 0 
-6.0533 0.0301818 0 
0.0301818 -6.5385 0 
0 0 0 
-6.06572 0.0674817 0 
0.0674817 -6.52608 0 
0 0 0 
-6.2351 -0.0452192 0 
-0.0452192 -5.9328 0 
0 0 0 
-6.20632 -0.0408252 0 
-0.0408252 -5.96158 0 
0 0 0 
-6.22451 -0.0637082 0 
-0.0637082 -5.94339 0 
0 0 0 
-6.17583 -0.0147257 0 
-0.0147257 -5.98499 0 
0 0 0 
-6.19076 -0.0161635 0 
-0.0161635 -5.97005 0 
0 0 0 
-6.18205 -0.00405767 0 
-0.00405767 -5.97877 0 
0 0 0 
-6.25577 0.198193 0 
0.198193 -6.19625 0 
0 0 0 
-6.21798 0.202038 0 
0.202038 -6.23404 0 
0 0 0 
-6.2402 0.154231 0 
0.154231 -6.21182 0 
0 0 0 
-6.13114 0.135118 0 
0.135118 -6.01034 0 
0 0 0 
-6.14351 0.161637 0 
0.161637 -5.99798 0 
0 0 0 
-6.12042 0.160688 0 
0.160688 -6.02106 0 
0 0 0 
-5.97777 -0.114983 0 
-0.114983 -6.24404 0 
0 0 0 
-5.98437 -0.131486 0 
-0.131486 -6.23744 0 
0 0 0 
-6.00128 -0.10832 0 
-0.10832 -6.22053 0 
0 0 0 
-5.85377 -0.393662 0 
-0.393662 -5.4629 0 
0 0 0 
-5.84075 -0.502496 0 
-0.502496 -5.47593 0 
0 0 0 
-5.81737 -0.399641 0 
-0.399641 -5.4993 0 
0 0 0 
-6.03585 0.0656125 0 
0.0656125 -5.57769 0 
0 0 0 
-6.04509 0.0497639 0 
0.0497639 -5.56845 0 
0 0 0 
-6.02601 0.060167 0 
0.060167 -5.58752 0 
0 0 0 
-6.11714 0.00756504 0 
0.00756504 -6.04071 0 
0 0 0 
-6.12018 0.0141221 0 
0.0141221 -6.03766 0 
0 0 0 
-6.11281 0.0148654 0 
0.0148654 -6.04503 0 
0 0 0 
-6.12504 0.020158 0 
0.020158 -6.04372 0 
0 0 0 
-6.12862 0.027493 0 
0.027493 -6.04014 0 
0 0 0 
-6.12035 0.0281358 0 
0.0281358 -6.04841 0 
0 0 0 
-6.16763 0.044908 0 
0.044908 -6.00059 0 
0 0 0 
-6.16179 0.0349125 0 
0.0349125 -6.00644 0 
0 0 0 
-6.17402 0.0345969 0 
0.0345969 -5.9942 0 
0 0 0 
-6.21413 -0.0215645 0 
-0.0215645 -5.96169 0 
0 0 0 
-6.20488 -0.0369939 0 
-0.0369939 -5.97095 0 
0 0 0 
-6.22769 -0.03948 0 
-0.03948 -5.94814 0 
0 0 0 
-6.14068 -0.0541027 0 
-0.0541027 -5.98463 0 
0 0 0 
-6.13663 -0.0630253 0 
-0.0630253 -5.98868 0 
0 0 0 
-6.1497 -0.0658998 0 
-0.0658998 -5.97561 0 
0 0 0 
-6.18415 0.0342818 0 
0.0342818 -5.98681 0 
0 0 0 
-6.1782 0.0245961 0 
0.0245961 -5.99277 0 
0 0 0 
-6.19094 0.0241166 0 
0.0241166 -5.98003 0 
0 0 0 
-6.13467 0.06627 0 
0.06627 -6.04866 0 
0 0 0 
-6.14003 0.0770261 0 
0.0770261 -6.04331 0 
0 0 0 
-6.12876 0.0773533 0 
0.0773533 -6.05458 0 
0 0 0 
-6.22816 0.0195592 0 
0.0195592 -5.97327 0 
0 0 0 
-6.23452 0.0279606 0 
0.0279606 -5.96692 0 
0 0 0 
-6.22012 0.0289379 0 
0.0289379 -5.98132 0 
0 0 0 
-6.21414 0.00097917 0 
0.00097917 -5.96929 0 
0 0 0 
-6.221 0.0113485 0 
0.0113485 -5.96243 0 
0 0 0 
-6.20476 0.0128034 0 
0.0128034 -5.97867 0 
0 0 0 
-6.234 0.0544278 0 
0.0544278 -5.99372 0 
0 0 0 
-6.2369 0.054959 0 
0.054959 -5.99082 0 
0 0 0 
-6.23151 0.0547228 0 
0.0547228 -5.99622 0 
0 0 0 
-6.30124 0.0912305 0 
0.0912305 -6.03226 0 
0 0 0 
-6.30483 0.0880901 0 
0.0880901 -6.02866 0 
0 0 0 
-6.29756 0.0881363 0 
0.0881363 -6.03594 0 
0 0 0 
-6.15435 0.00326696 0 
0.00326696 -5.99905 0 
0 0 0 
-6.15928 0.0124279 0 
0.0124279 -5.99412 0 
0 0 0 
-6.14772 0.0134132 0 
0.0134132 -6.00568 0 
0 0 0 
-6.11233 -0.0718979 0 
-0.0718979 -5.99215 0 
0 0 0 
-6.11042 -0.0782337 0 
-0.0782337 -5.99406 0 
0 0 0 
-6.12013 -0.0816319 0 
-0.0816319 -5.98435 0 
0 0 0 
-6.22372 0.047554 0 
0.047554 -5.98607 0 
0 0 0 
-6.23154 0.0475951 0 
0.0475951 -5.97825 0 
0 0 0 
-6.22767 0.0509376 0 
0.0509376 -5.98212 0 
0 0 0 
-5.9912 -0.144264 0 
-0.144264 -6.26499 0 
0 0 0 
-6.01909 -0.139465 0 
-0.139465 -6.2371 0 
0 0 0 
-6.01006 -0.121804 0 
-0.121804 -6.24613 0 
0 0 0 
-6.24161 -0.0175726 0 
-0.0175726 -5.95258 0 
0 0 0 
-6.22973 -0.0368143 0 
-0.0368143 -5.96446 0 
0 0 0 
-6.25852 -0.0397107 0 
-0.0397107 -5.93567 0 
0 0 0 
-6.13812 0.1555 0 
0.1555 -5.9721 0 
0 0 0 
-6.14752 0.131448 0 
0.131448 -5.9627 0 
0 0 0 
-6.16062 0.15764 0 
0.15764 -5.9496 0 
0 0 0 
-6.07723 0.000322411 0 
0.000322411 -6.07419 0 
0 0 0 
-6.07646 0.000660132 0 
0.000660132 -6.07496 0 
0 0 0 
-6.07712 -0.000750913 0 
-0.000750913 -6.0743 0 
0 0 0 
-6.09968 0.0117361 0 
0.0117361 -6.10712 0 
0 0 0 
-6.10264 0.0157907 0 
0.0157907 -6.10415 0 
0 0 0 
-6.09773 0.0142167 0 
0.0142167 -6.10906 0 
0 0 0 
-6.137 0.0573574 0 
0.0573574 -6.14587 0 
0 0 0 
-6.10756 0.0597928 0 
0.0597928 -6.17531 0 
0 0 0 
-6.12439 0.0286877 0 
0.0286877 -6.15848 0 
0 0 0 
-6.15819 0.00152321 0 
0.00152321 -6.19087 0 
0 0 0 
-6.15204 -0.0102715 0 
-0.0102715 -6.19702 0 
0 0 0 
-6.15967 -0.00798659 0 
-0.00798659 -6.18939 0 
0 0 0 
-6.12107 0.0276134 0 
0.0276134 -6.16863 0 
0 0 0 
-6.10327 0.0591847 0 
0.0591847 -6.18643 0 
0 0 0 
-6.09038 0.030447 0 
0.030447 -6.19932 0 
0 0 0 
-6.03222 -0.0147567 0 
-0.0147567 -6.25854 0 
0 0 0 
-6.01263 -0.0124949 0 
-0.0124949 -6.27812 0 
0 0 0 
-6.02438 -0.0315989 0 
-0.0315989 -6.26637 0 
0 0 0 
-6.08107 -0.000823098 0 
-0.000823098 -6.07201 0 
0 0 0 
-6.08157 0.001173 0 
0.001173 -6.07151 0 
0 0 0 
-6.07988 0.0016518 0 
0.0016518 -6.0732 0 
0 0 0 
-6.34108 -0.120968 0 
-0.120968 -5.81346 0 
0 0 0 
-6.2942 -0.221356 0 
-0.221356 -5.86034 0 
0 0 0 
-6.42138 -0.240652 0 
-0.240652 -5.73316 0 
0 0 0 
-6.00415 -0.050112 0 
-0.050112 -6.27046 0 
0 0 0 
-5.99935 -0.0486485 0 
-0.0486485 -6.27526 0 
0 0 0 
-6.00302 -0.0520774 0 
-0.0520774 -6.27159 0 
0 0 0 
-6.14973 0.0541105 0 
0.0541105 -6.02041 0 
0 0 0 
-6.16196 0.0540119 0 
0.0540119 -6.00819 0 
0 0 0 
-6.15576 0.0647527 0 
0.0647527 -6.01439 0 
0 0 0 
-6.03456 -0.0446538 0 
-0.0446538 -6.30928 0 
0 0 0 
-6.04165 -0.0278628 0 
-0.0278628 -6.30219 0 
0 0 0 
-6.01936 -0.0231722 0 
-0.0231722 -6.32448 0 
0 0 0 
-6.37808 -0.0745363 0 
-0.0745363 -5.84081 0 
0 0 0 
-6.49735 -0.22097 0 
-0.22097 -5.72154 0 
0 0 0 
-6.55761 -0.108613 0 
-0.108613 -5.66128 0 
0 0 0 
-6.0778 -0.00913862 0 
-0.00913862 -6.15044 0 
0 0 0 
-6.06458 -0.0382063 0 
-0.0382063 -6.16366 0 
0 0 0 
-6.09418 -0.0400256 0 
-0.0400256 -6.13406 0 
0 0 0 
-5.9602 -0.315442 0 
-0.315442 -5.75926 0 
0 0 0 
-5.93995 -0.297434 0 
-0.297434 -5.77952 0 
0 0 0 
-5.9517 -0.280827 0 
-0.280827 -5.76777 0 
0 0 0 
-6.11627 0.0307267 0 
0.0307267 -6.06792 0 
0 0 0 
-6.11053 0.0313205 0 
0.0313205 -6.07367 0 
0 0 0 
-6.11391 0.0254612 0 
0.0254612 -6.07028 0 
0 0 0 
-6.09073 0.00174159 0 
0.00174159 -6.18662 0 
0 0 0 
-6.07382 0.0314717 0 
0.0314717 -6.20353 0 
0 0 0 
-6.06125 0.00424827 0 
0.00424827 -6.2161 0 
0 0 0 
-6.03468 -0.0453388 0 
-0.0453388 -6.18408 0 
0 0 0 
-6.04599 -0.0615372 0 
-0.0615372 -6.17277 0 
0 0 0 
-6.0493 -0.0429766 0 
-0.0429766 -6.16946 0 
0 0 0 
-6.1629 0.00377439 0 
0.00377439 -6.02537 0 
0 0 0 
-6.14884 0.0296612 0 
0.0296612 -6.03943 0 
0 0 0 
-6.13927 0.00636487 0 
0.00636487 -6.049 0 
0 0 0 
-6.32728 0.0461472 0 
0.0461472 -5.97213 0 
0 0 0 
-6.36333 0.0436325 0 
0.0436325 -5.93608 0 
0 0 0 
-6.34312 0.0655208 0 
0.0655208 -5.95629 0 
0 0 0 
-6.0859 0.162912 0 
0.162912 -6.40863 0 
0 0 0 
-6.06539 0.114659 0 
0.114659 -6.42913 0 
0 0 0 
-6.12148 0.105951 0 
0.105951 -6.37305 0 
0 0 0 
-6.28265 0.026657 0 
0.026657 -5.97956 0 
0 0 0 
-6.29991 0.00800339 0 
0.00800339 -5.9623 0 
0 0 0 
-6.312 0.0236735 0 
0.0236735 -5.9502 0 
0 0 0 
-6.10409 0.0356233 0 
0.0356233 -6.10268 0 
0 0 0 
-6.10163 0.036358 0 
0.036358 -6.10515 0 
0 0 0 
-6.10349 0.0336392 0 
0.0336392 -6.10328 0 
0 0 0 
-6.12723 0.0403893 0 
0.0403893 -6.11297 0 
0 0 0 
-6.11555 0.0136071 0 
0.0136071 -6.12465 0 
0 0 0 
-6.14308 0.0111963 0 
0.0111963 -6.09711 0 
0 0 0 
-6.13396 0.0357277 0 
0.0357277 -6.12121 0 
0 0 0 
-6.1054 0.0379438 0 
0.0379438 -6.14977 0 
0 0 0 
-6.1216 0.00806765 0 
0.00806765 -6.13357 0 
0 0 0 
-6.06112 0.0671584 0 
0.0671584 -6.31682 0 
0 0 0 
-6.10068 0.0620529 0 
0.0620529 -6.27726 0 
0 0 0 
-6.07648 0.101579 0 
0.101579 -6.30146 0 
0 0 0 
-6.18754 0.056507 0 
0.056507 -5.98577 0 
0 0 0 
-6.17573 0.0565501 0 
0.0565501 -5.99758 0 
0 0 0 
-6.18167 0.046916 0 
0.046916 -5.99164 0 
0 0 0 
-6.12106 -0.135397 0 
-0.135397 -5.96177 0 
0 0 0 
-6.0969 -0.0857606 0 
-0.0857606 -5.98593 0 
0 0 0 
-6.07939 -0.131561 0 
-0.131561 -6.00344 0 
0 0 0 
-6.18465 0.100809 0 
0.100809 -6.19776 0 
0 0 0 
-6.16329 0.139606 0 
0.139606 -6.21912 0 
0 0 0 
-6.1491 0.104947 0 
0.104947 -6.2333 0 
0 0 0 
-6.09647 0.0442056 0 
0.0442056 -6.22321 0 
0 0 0 
-6.08967 0.0603652 0 
0.0603652 -6.23001 0 
0 0 0 
-6.07531 0.0397271 0 
0.0397271 -6.24437 0 
0 0 0 
-6.91366 0.901138 0 
0.901138 -6.51963 0 
0 0 0 
-6.66417 0.910175 0 
0.910175 -6.76912 0 
0 0 0 
-6.79668 0.465577 0 
0.465577 -6.63661 0 
0 0 0 
-6.18156 -0.138078 0 
-0.138078 -5.94002 0 
0 0 0 
-6.1633 -0.113779 0 
-0.113779 -5.95829 0 
0 0 0 
-6.15624 -0.13161 0 
-0.13161 -5.96535 0 
0 0 0 
-6.10634 0.0938327 0 
0.0938327 -6.07214 0 
0 0 0 
-6.11808 0.0935015 0 
0.0935015 -6.0604 0 
0 0 0 
-6.11192 0.105787 0 
0.105787 -6.06656 0 
0 0 0 
-6.17885 0.102237 0 
0.102237 -6.14055 0 
0 0 0 
-6.15068 0.10478 0 
0.10478 -6.16872 0 
0 0 0 
-6.16697 0.073011 0 
0.073011 -6.15243 0 
0 0 0 
-6.07528 0.0109256 0 
0.0109256 -6.17713 0 
0 0 0 
-6.06261 -0.016598 0 
-0.016598 -6.1898 0 
0 0 0 
-6.09154 -0.0186718 0 
-0.0186718 -6.16087 0 
0 0 0 
-6.13539 -0.00622895 0 
-0.00622895 -6.14046 0 
0 0 0 
-6.13818 -0.00443725 0 
-0.00443725 -6.13767 0 
0 0 0 
-6.13313 -0.00588811 0 
-0.00588811 -6.14272 0 
0 0 0 
-6.29217 0.202599 0 
0.202599 -6.29722 0 
0 0 0 
-6.25606 0.270925 0 
0.270925 -6.33332 0 
0 0 0 
-6.23358 0.210468 0 
0.210468 -6.3558 0 
0 0 0 
-6.22485 0.0687932 0 
0.0687932 -6.01116 0 
0 0 0 
-6.22642 0.0623518 0 
0.0623518 -6.00959 0 
0 0 0 
-6.22675 0.0680773 0 
0.0680773 -6.00927 0 
0 0 0 
-6.10864 0.0285751 0 
0.0285751 -6.07138 0 
0 0 0 
-6.1065 0.0237752 0 
0.0237752 -6.07351 0 
0 0 0 
-6.1116 0.0232989 0 
0.0232989 -6.06842 0 
0 0 0 
-6.15766 0.043698 0 
0.043698 -6.01388 0 
0 0 0 
-6.16337 0.0540564 0 
0.0540564 -6.00817 0 
0 0 0 
-6.15142 0.054362 0 
0.054362 -6.02012 0 
0 0 0 
-6.00674 -0.0497605 0 
-0.0497605 -6.26061 0 
0 0 0 
-6.0017 -0.0491452 0 
-0.0491452 -6.26566 0 
0 0 0 
-6.00475 -0.0533457 0 
-0.0533457 -6.2626 0 
0 0 0 
-6.02418 -0.0426177 0 
-0.0426177 -6.26454 0 
0 0 0 
-6.01364 -0.0403791 0 
-0.0403791 -6.27509 0 
0 0 0 
-6.02085 -0.0511399 0 
-0.0511399 -6.26788 0 
0 0 0 
-6.4624 -0.0573455 0 
-0.0573455 -5.84803 0 
0 0 0 
-6.61687 -0.0733056 0 
-0.0733056 -5.69357 0 
0 0 0 
-6.52581 0.0477536 0 
0.0477536 -5.78462 0 
0 0 0 
-6.09712 0.0474337 0 
0.0474337 -6.14392 0 
0 0 0 
-6.09402 0.0441944 0 
0.0441944 -6.14703 0 
0 0 0 
-6.0974 0.0458209 0 
0.0458209 -6.14364 0 
0 0 0 
-6.83652 0.712364 0 
0.712364 -7.64894 0 
0 0 0 
-6.60332 0.782742 0 
0.782742 -7.88213 0 
0 0 0 
-6.78067 0.371681 0 
0.371681 -7.70478 0 
0 0 0 
-6.02511 -0.12739 0 
-0.12739 -6.16011 0 
0 0 0 
-6.03799 -0.121951 0 
-0.121951 -6.14723 0 
0 0 0 
-6.03578 -0.116066 0 
-0.116066 -6.14944 0 
0 0 0 
-6.0057 -0.0422183 0 
-0.0422183 -6.25897 0 
0 0 0 
-6.01251 -0.0543677 0 
-0.0543677 -6.25216 0 
0 0 0 
-6.01797 -0.0430019 0 
-0.0430019 -6.24671 0 
0 0 0 
-6.10136 -0.0564346 0 
-0.0564346 -6.00015 0 
0 0 0 
-6.09626 -0.049882 0 
-0.049882 -6.00524 0 
0 0 0 
-6.09545 -0.0539572 0 
-0.0539572 -6.00605 0 
0 0 0 
-6.2121 0.0356952 0 
0.0356952 -5.97231 0 
0 0 0 
-6.19975 0.0362131 0 
0.0362131 -5.98466 0 
0 0 0 
-6.20637 0.0274492 0 
0.0274492 -5.97804 0 
0 0 0 
-6.08218 0.132362 0 
0.132362 -6.14354 0 
0 0 0 
-6.08562 0.147452 0 
0.147452 -6.1401 0 
0 0 0 
-6.07456 0.149862 0 
0.149862 -6.15115 0 
0 0 0 
-6.43245 0.0559185 0 
0.0559185 -5.9631 0 
0 0 0 
-6.4823 0.00275663 0 
0.00275663 -5.91326 0 
0 0 0 
-6.5145 0.0457328 0 
0.0457328 -5.88106 0 
0 0 0 
-6.06727 -0.0983852 0 
-0.0983852 -6.07852 0 
0 0 0 
-6.04785 -0.145816 0 
-0.145816 -6.09794 0 
0 0 0 
-6.08955 -0.147465 0 
-0.147465 -6.05625 0 
0 0 0 
-6.02571 -0.104791 0 
-0.104791 -6.1972 0 
0 0 0 
-6.05278 -0.104655 0 
-0.104655 -6.17013 0 
0 0 0 
-6.03937 -0.0742331 0 
-0.0742331 -6.18355 0 
0 0 0 
-6.11304 0.0211071 0 
0.0211071 -6.20249 0 
0 0 0 
-6.10682 0.0363867 0 
0.0363867 -6.20871 0 
0 0 0 
-6.09448 0.0175776 0 
0.0175776 -6.22105 0 
0 0 0 
-5.99467 -0.226629 0 
-0.226629 -5.87511 0 
0 0 0 
-5.99833 -0.240456 0 
-0.240456 -5.87145 0 
0 0 0 
-5.98376 -0.237155 0 
-0.237155 -5.88603 0 
0 0 0 
-6.13066 0.0503997 0 
0.0503997 -6.18339 0 
0 0 0 
-6.1439 0.0812071 0 
0.0812071 -6.17015 0 
0 0 0 
-6.11256 0.0840077 0 
0.0840077 -6.20148 0 
0 0 0 
-6.17776 0.0189115 0 
0.0189115 -5.99053 0 
0 0 0 
-6.16643 0.0393119 0 
0.0393119 -6.00186 0 
0 0 0 
-6.15979 0.0216141 0 
0.0216141 -6.0085 0 
0 0 0 
-5.99831 0.00500775 0 
0.00500775 -6.34538 0 
0 0 0 
-6.02527 9.75455e-05 0 
9.75455e-05 -6.31841 0 
0 0 0 
-6.00747 0.024712 0 
0.024712 -6.33621 0 
0 0 0 
-6.16664 0.0752669 0 
0.0752669 -6.17231 0 
0 0 0 
-6.1477 0.109586 0 
0.109586 -6.19125 0 
0 0 0 
-6.1347 0.0787032 0 
0.0787032 -6.20424 0 
0 0 0 
-6.1966 0.129405 0 
0.129405 -6.15903 0 
0 0 0 
-6.1662 0.132297 0 
0.132297 -6.18943 0 
0 0 0 
-6.1839 0.0968932 0 
0.0968932 -6.17172 0 
0 0 0 
-6.24489 0.0751728 0 
0.0751728 -6.038 0 
0 0 0 
-6.24804 0.0742485 0 
0.0742485 -6.03484 0 
0 0 0 
-6.24567 0.0836369 0 
0.0836369 -6.03722 0 
0 0 0 
-6.04747 0.142189 0 
0.142189 -6.15199 0 
0 0 0 
-6.05616 0.139467 0 
0.139467 -6.14331 0 
0 0 0 
-6.04946 0.155583 0 
0.155583 -6.15001 0 
0 0 0 
-6.04856 -0.0494255 0 
-0.0494255 -6.18949 0 
0 0 0 
-6.06594 -0.0474243 0 
-0.0474243 -6.17212 0 
0 0 0 
-6.05699 -0.0304261 0 
-0.0304261 -6.18107 0 
0 0 0 
-6.07063 2.36853e-05 0 
2.36853e-05 -6.06691 0 
0 0 0 
-6.06998 -0.000135588 0 
-0.000135588 -6.06755 0 
0 0 0 
-6.06901 -0.000168655 0 
-0.000168655 -6.06853 0 
0 0 0 
-6.33358 0.344105 0 
0.344105 -6.40985 0 
0 0 0 
-6.24417 0.354219 0 
0.354219 -6.49926 0 
0 0 0 
-6.29763 0.241494 0 
0.241494 -6.4458 0 
0 0 0 
-6.0669 -0.00157448 0 
-0.00157448 -6.0622 0 
0 0 0 
-6.06559 -0.00174586 0 
-0.00174586 -6.06351 0 
0 0 0 
-6.06752 -0.00134591 0 
-0.00134591 -6.06158 0 
0 0 0 
-6.07098 -0.0629623 0 
-0.0629623 -6.15783 0 
0 0 0 
-6.05603 -0.0336353 0 
-0.0336353 -6.17277 0 
0 0 0 
-6.04311 -0.061793 0 
-0.061793 -6.18569 0 
0 0 0 
-6.18504 0.0732864 0 
0.0732864 -6.07878 0 
0 0 0 
-6.1638 0.0751866 0 
0.0751866 -6.10002 0 
0 0 0 
-6.17606 0.0510629 0 
0.0510629 -6.08776 0 
0 0 0 
-6.13354 0.0217282 0 
0.0217282 -6.03292 0 
0 0 0 
-6.13774 0.030009 0 
0.030009 -6.02872 0 
0 0 0 
-6.12824 0.0306477 0 
0.0306477 -6.03822 0 
0 0 0 
-6.13405 0.0595209 0 
0.0595209 -6.12664 0 
0 0 0 
-6.14882 0.0316965 0 
0.0316965 -6.11188 0 
0 0 0 
-6.15987 0.0573803 0 
0.0573803 -6.10083 0 
0 0 0 
-6.3427 -0.286519 0 
-0.286519 -7.53752 0 
0 0 0 
-6.24073 -0.397232 0 
-0.397232 -7.63948 0 
0 0 0 
-6.32177 -0.331531 0 
-0.331531 -7.55845 0 
0 0 0 
-6.17746 -0.0134489 0 
-0.0134489 -5.97721 0 
0 0 0 
-6.1832 -0.00340129 0 
-0.00340129 -5.97147 0 
0 0 0 
-6.16899 -0.00182773 0 
-0.00182773 -5.98568 0 
0 0 0 
-6.2683 0.112702 0 
0.112702 -6.07248 0 
0 0 0 
-6.27169 0.129299 0 
0.129299 -6.06909 0 
0 0 0 
-6.26291 0.13045 0 
0.13045 -6.07786 0 
0 0 0 
-6.23601 0.0571717 0 
0.0571717 -5.99209 0 
0 0 0 
-6.23331 0.0570139 0 
0.0570139 -5.99478 0 
0 0 0 
-6.23837 0.0572074 0 
0.0572074 -5.98973 0 
0 0 0 
-6.20998 0.129698 0 
0.129698 -6.22575 0 
0 0 0 
-6.18523 0.175015 0 
0.175015 -6.25049 0 
0 0 0 
-6.16927 0.134766 0 
0.134766 -6.26646 0 
0 0 0 
-6.21753 0.0472479 0 
0.0472479 -5.97506 0 
0 0 0 
-6.20759 0.0473211 0 
0.0473211 -5.98499 0 
0 0 0 
-6.21262 0.0411468 0 
0.0411468 -5.97996 0 
0 0 0 
-6.00277 -0.0699375 0 
-0.0699375 -6.25975 0 
0 0 0 
-6.00511 -0.0642493 0 
-0.0642493 -6.2574 0 
0 0 0 
-6.00349 -0.0660187 0 
-0.0660187 -6.25903 0 
0 0 0 
-6.07727 -0.0013451 0 
-0.0013451 -6.0645 0 
0 0 0 
-6.07724 -0.00301337 0 
-0.00301337 -6.06453 0 
0 0 0 
-6.07819 -0.00353521 0 
-0.00353521 -6.06357 0 
0 0 0 
-6.03308 -0.133621 0 
-0.133621 -5.97315 0 
0 0 0 
-6.02868 -0.133193 0 
-0.133193 -5.97755 0 
0 0 0 
-6.02847 -0.127991 0 
-0.127991 -5.97776 0 
0 0 0 
-6.08806 -0.00504029 0 
-0.00504029 -6.29039 0 
0 0 0 
-6.11968 0.0381558 0 
0.0381558 -6.25877 0 
0 0 0 
-6.07551 0.0282131 0 
0.0282131 -6.30294 0 
0 0 0 
-6.30232 0.0626571 0 
0.0626571 -5.98912 0 
0 0 0 
-6.32464 0.0613668 0 
0.0613668 -5.96681 0 
0 0 0 
-6.31236 0.0722719 0 
0.0722719 -5.97908 0 
0 0 0 
-6.08297 -0.0145591 0 
-0.0145591 -6.15951 0 
0 0 0 
-6.05438 -0.0127581 0 
-0.0127581 -6.1881 0 
0 0 0 
-6.07024 -0.0419951 0 
-0.0419951 -6.17224 0 
0 0 0 
-6.20816 0.0626646 0 
0.0626646 -5.99766 0 
0 0 0 
-6.2038 0.0638609 0 
0.0638609 -6.00202 0 
0 0 0 
-6.20702 0.0564271 0 
0.0564271 -5.9988 0 
0 0 0 
-6.00387 -0.0346313 0 
-0.0346313 -6.27304 0 
0 0 0 
-6.01134 -0.0462494 0 
-0.0462494 -6.26558 0 
0 0 0 
-6.01619 -0.0361362 0 
-0.0361362 -6.26072 0 
0 0 0 
-6.09822 0.00448764 0 
0.00448764 -6.2515 0 
0 0 0 
-6.12344 0.0091393 0 
0.0091393 -6.22628 0 
0 0 0 
-6.11483 0.0308513 0 
0.0308513 -6.23489 0 
0 0 0 
-6.00019 -0.0428997 0 
-0.0428997 -6.26472 0 
0 0 0 
-5.99721 -0.0480518 0 
-0.0480518 -6.2677 0 
0 0 0 
-6.00501 -0.0491189 0 
-0.0491189 -6.2599 0 
0 0 0 
-6.03767 -0.0888154 0 
-0.0888154 -6.09446 0 
0 0 0 
-6.046 -0.0671174 0 
-0.0671174 -6.08614 0 
0 0 0 
-6.03416 -0.0774679 0 
-0.0774679 -6.09798 0 
0 0 0 
-6.27707 -0.0425974 0 
-0.0425974 -5.91702 0 
0 0 0 
-6.23872 -0.0370532 0 
-0.0370532 -5.95537 0 
0 0 0 
-6.2627 -0.0668157 0 
-0.0668157 -5.9314 0 
0 0 0 
-6.11186 -0.102136 0 
-0.102136 -6.01716 0 
0 0 0 
-6.06888 -0.0993343 0 
-0.0993343 -6.06014 0 
0 0 0 
-6.0928 -0.146159 0 
-0.146159 -6.03622 0 
0 0 0 
-6.41286 0.14245 0 
0.14245 -6.05924 0 
0 0 0 
-6.42431 0.143011 0 
0.143011 -6.04779 0 
0 0 0 
-6.43349 0.141148 0 
0.141148 -6.0386 0 
0 0 0 
-6.06298 0.121752 0 
0.121752 -6.13759 0 
0 0 0 
-6.06913 0.119752 0 
0.119752 -6.13144 0 
0 0 0 
-6.06433 0.131152 0 
0.131152 -6.13625 0 
0 0 0 
-6.0016 0.00795141 0 
0.00795141 -6.38286 0 
0 0 0 
-6.01855 -0.0144243 0 
-0.0144243 -6.36591 0 
0 0 0 
-6.02562 0.00261447 0 
0.00261447 -6.35884 0 
0 0 0 
-6.10809 0.0319562 0 
0.0319562 -6.16698 0 
0 0 0 
-6.07822 0.0343352 0 
0.0343352 -6.19686 0 
0 0 0 
-6.09521 0.00351917 0 
0.00351917 -6.17986 0 
0 0 0 
-6.29056 0.0144876 0 
0.0144876 -5.96639 0 
0 0 0 
-6.32391 0.0120306 0 
0.0120306 -5.93304 0 
0 0 0 
-6.30511 0.0344127 0 
0.0344127 -5.95184 0 
0 0 0 
-6.08112 0.00539407 0 
0.00539407 -6.18542 0 
0 0 0 
-6.05289 0.00751212 0 
0.00751212 -6.21366 0 
0 0 0 
-6.06884 -0.0212155 0 
-0.0212155 -6.1977 0 
0 0 0 
-6.01112 -0.104942 0 
-0.104942 -6.29679 0 
0 0 0 
-6.00355 -0.122969 0 
-0.122969 -6.30435 0 
0 0 0 
-6.00928 -0.117538 0 
-0.117538 -6.29863 0 
0 0 0 
-6.06136 -0.216183 0 
-0.216183 -6.12292 0 
0 0 0 
-6.07176 -0.207691 0 
-0.207691 -6.11252 0 
0 0 0 
-6.07392 -0.210414 0 
-0.210414 -6.11037 0 
0 0 0 
-5.99853 0.0306033 0 
0.0306033 -6.38145 0 
0 0 0 
-5.98923 0.0101942 0 
0.0101942 -6.39074 0 
0 0 0 
-6.01922 0.0036405 0 
0.0036405 -6.36076 0 
0 0 0 
-6.10442 0.0278668 0 
0.0278668 -6.09747 0 
0 0 0 
-6.10495 0.0296517 0 
0.0296517 -6.09694 0 
0 0 0 
-6.10285 0.0302218 0 
0.0302218 -6.09904 0 
0 0 0 
-6.08214 0.0184045 0 
0.0184045 -6.24317 0 
0 0 0 
-6.10141 0.0440635 0 
0.0440635 -6.2239 0 
0 0 0 
-6.0738 0.0381876 0 
0.0381876 -6.25151 0 
0 0 0 
-6.04285 -0.245745 0 
-0.245745 -6.16597 0 
0 0 0 
-6.0183 -0.167448 0 
-0.167448 -6.19053 0 
0 0 0 
-5.98768 -0.249242 0 
-0.249242 -6.22114 0 
0 0 0 
-6.19342 0.0470478 0 
0.0470478 -5.9814 0 
0 0 0 
-6.18763 0.0560966 0 
0.0560966 -5.98719 0 
0 0 0 
-6.18182 0.0470376 0 
0.0470376 -5.993 0 
0 0 0 
-6.17555 -0.00544409 0 
-0.00544409 -6.1962 0 
0 0 0 
-6.17447 -0.0110239 0 
-0.0110239 -6.19728 0 
0 0 0 
-6.17734 -0.0033642 0 
-0.0033642 -6.19441 0 
0 0 0 
-6.16569 0.000898152 0 
0.000898152 -5.99437 0 
0 0 0 
-6.17868 -7.56512e-05 0 
-7.56512e-05 -5.98139 0 
0 0 0 
-6.17134 0.0107061 0 
0.0107061 -5.98872 0 
0 0 0 
-6.00566 -0.0461769 0 
-0.0461769 -6.25758 0 
0 0 0 
-6.00211 -0.0525838 0 
-0.0525838 -6.26112 0 
0 0 0 
-6.00972 -0.0528841 0 
-0.0528841 -6.25351 0 
0 0 0 
-6.44991 0.207505 0 
0.207505 -6.13462 0 
0 0 0 
-6.45343 0.206087 0 
0.206087 -6.1311 0 
0 0 0 
-6.45044 0.233313 0 
0.233313 -6.13409 0 
0 0 0 
-6.01431 -0.0445587 0 
-0.0445587 -6.25113 0 
0 0 0 
-6.01084 -0.053465 0 
-0.053465 -6.25459 0 
0 0 0 
-6.02004 -0.0547581 0 
-0.0547581 -6.2454 0 
0 0 0 
-6.07707 -0.00232257 0 
-0.00232257 -6.05953 0 
0 0 0 
-6.07829 -0.0050568 0 
-0.0050568 -6.0583 0 
0 0 0 
-6.07851 -0.00290275 0 
-0.00290275 -6.05809 0 
0 0 0 
-6.09309 0.0354316 0 
0.0354316 -6.12389 0 
0 0 0 
-6.09275 0.03512 0 
0.03512 -6.12423 0 
0 0 0 
-6.09467 0.0367285 0 
0.0367285 -6.12231 0 
0 0 0 
-6.14169 -0.0342989 0 
-0.0342989 -5.98996 0 
0 0 0 
-6.13508 -0.0249857 0 
-0.0249857 -5.99657 0 
0 0 0 
-6.13153 -0.032533 0 
-0.032533 -6.00012 0 
0 0 0 
-6.2462 0.0533617 0 
0.0533617 -5.99232 0 
0 0 0 
-6.25536 0.0531643 0 
0.0531643 -5.98316 0 
0 0 0 
-6.25061 0.0560905 0 
0.0560905 -5.98791 0 
0 0 0 
-6.05779 -0.0918829 0 
-0.0918829 -6.09321 0 
0 0 0 
-6.05753 -0.0860476 0 
-0.0860476 -6.09347 0 
0 0 0 
-6.06346 -0.0880675 0 
-0.0880675 -6.08754 0 
0 0 0 
-6.07205 -0.106146 0 
-0.106146 -6.09727 0 
0 0 0 
-6.03323 -0.105003 0 
-0.105003 -6.13609 0 
0 0 0 
-6.05363 -0.147247 0 
-0.147247 -6.11569 0 
0 0 0 
-6.00131 -0.0601386 0 
-0.0601386 -6.38356 0 
0 0 0 
-6.02015 -0.0803755 0 
-0.0803755 -6.36472 0 
0 0 0 
-6.02462 -0.0701934 0 
-0.0701934 -6.36025 0 
0 0 0 
-5.99276 -0.24168 0 
-0.24168 -5.88484 0 
0 0 0 
-5.95809 -0.25752 0 
-0.25752 -5.91951 0 
0 0 0 
-5.96171 -0.255656 0 
-0.255656 -5.91589 0 
0 0 0 
-6.16503 0.111361 0 
0.111361 -5.98495 0 
0 0 0 
-6.1575 0.127177 0 
0.127177 -5.99248 0 
0 0 0 
-6.14806 0.110263 0 
0.110263 -6.00192 0 
0 0 0 
-6.14896 0.0230813 0 
0.0230813 -6.0102 0 
0 0 0 
-6.13831 0.0238317 0 
0.0238317 -6.02086 0 
0 0 0 
-6.14428 0.014161 0 
0.014161 -6.01488 0 
0 0 0 
-6.17885 0.107551 0 
0.107551 -5.96594 0 
0 0 0 
-6.1661 0.106068 0 
0.106068 -5.97869 0 
0 0 0 
-6.17119 0.0942446 0 
0.0942446 -5.9736 0 
0 0 0 
-6.21436 0.0386914 0 
0.0386914 -5.9837 0 
0 0 0 
-6.22065 0.0313197 0 
0.0313197 -5.97741 0 
0 0 0 
-6.22611 0.0382153 0 
0.0382153 -5.97195 0 
0 0 0 
-6.09548 0.0317805 0 
0.0317805 -6.11396 0 
0 0 0 
-6.09529 0.0307507 0 
0.0307507 -6.11415 0 
0 0 0 
-6.09448 0.0312627 0 
0.0312627 -6.11496 0 
0 0 0 
-6.21737 0.076922 0 
0.076922 -6.0701 0 
0 0 0 
-6.22922 0.0752623 0 
0.0752623 -6.05825 0 
0 0 0 
-6.22186 0.0921267 0 
0.0921267 -6.06561 0 
0 0 0 
-6.06428 -0.0224109 0 
-0.0224109 -6.20305 0 
0 0 0 
-6.04942 0.00381001 0 
0.00381001 -6.21791 0 
0 0 0 
-6.03798 -0.0204299 0 
-0.0204299 -6.22935 0 
0 0 0 
-6.13328 0.209233 0 
0.209233 -7.24776 0 
0 0 0 
-6.21709 0.0767431 0 
0.0767431 -7.16394 0 
0 0 0 
-6.23482 0.170948 0 
0.170948 -7.14622 0 
0 0 0 
-6.00824 -0.0523218 0 
-0.0523218 -6.25504 0 
0 0 0 
-6.00382 -0.0524541 0 
-0.0524541 -6.25946 0 
0 0 0 
-6.00592 -0.0568688 0 
-0.0568688 -6.25736 0 
0 0 0 
-6.17132 0.00743011 0 
0.00743011 -5.79675 0 
0 0 0 
-6.15967 0.0227414 0 
0.0227414 -5.8084 0 
0 0 0 
-6.16037 0.0145599 0 
0.0145599 -5.8077 0 
0 0 0 
-6.09802 -0.00588261 0 
-0.00588261 -6.044 0 
0 0 0 
-6.09518 -0.000867013 0 
-0.000867013 -6.04684 0 
0 0 0 
-6.09368 -0.005109 0 
-0.005109 -6.04834 0 
0 0 0 
-6.16997 0.110766 0 
0.110766 -5.98512 0 
0 0 0 
-6.16198 0.0972143 0 
0.0972143 -5.99311 0 
0 0 0 
-6.17607 0.0983076 0 
0.0983076 -5.97902 0 
0 0 0 
-6.01299 -0.1947 0 
-0.1947 -6.11141 0 
0 0 0 
-6.02915 -0.17748 0 
-0.17748 -6.09525 0 
0 0 0 
-6.01176 -0.186098 0 
-0.186098 -6.11265 0 
0 0 0 
-6.27263 0.321455 0 
0.321455 -6.63499 0 
0 0 0 
-6.16162 0.339387 0 
0.339387 -6.746 0 
0 0 0 
-6.23261 0.20351 0 
0.20351 -6.67501 0 
0 0 0 
-6.08662 -0.0351397 0 
-0.0351397 -6.13237 0 
0 0 0 
-6.05639 -0.0334865 0 
-0.0334865 -6.16261 0 
0 0 0 
-6.07294 -0.0647067 0 
-0.0647067 -6.14606 0 
0 0 0 
-6.09785 0.0281978 0 
0.0281978 -6.13219 0 
0 0 0 
-6.10045 0.0294872 0 
0.0294872 -6.12959 0 
0 0 0 
-6.1003 0.0312004 0 
0.0312004 -6.12974 0 
0 0 0 
-6.13739 0.023205 0 
0.023205 -6.02191 0 
0 0 0 
-6.13293 0.0147181 0 
0.0147181 -6.02637 0 
0 0 0 
-6.14293 0.0140913 0 
0.0140913 -6.01637 0 
0 0 0 
-6.20573 0.0459752 0 
0.0459752 -5.97887 0 
0 0 0 
-6.20028 0.0383374 0 
0.0383374 -5.98431 0 
0 0 0 
-6.21141 0.0381975 0 
0.0381975 -5.97318 0 
0 0 0 
-6.14321 0.00483263 0 
0.00483263 -6.00941 0 
0 0 0 
-6.1477 0.0135049 0 
0.0135049 -6.00492 0 
0 0 0 
-6.13714 0.0144153 0 
0.0144153 -6.01548 0 
0 0 0 
-6.13145 -0.0024267 0 
-0.0024267 -6.13004 0 
0 0 0 
-6.11934 -0.000302685 0 
-0.000302685 -6.14215 0 
0 0 0 
-6.12671 -0.00488949 0 
-0.00488949 -6.13478 0 
0 0 0 
-6.33976 0.0341217 0 
0.0341217 -5.97361 0 
0 0 0 
-6.35311 0.0491432 0 
0.0491432 -5.96026 0 
0 0 0 
-6.32113 0.0521924 0 
0.0521924 -5.99224 0 
0 0 0 
-6.23112 -0.0442358 0 
-0.0442358 -5.94912 0 
0 0 0 
-6.21851 -0.0661601 0 
-0.0661601 -5.96172 0 
0 0 0 
-6.25056 -0.0701097 0 
-0.0701097 -5.92967 0 
0 0 0 
-7.07238 1.31707 0 
1.31707 -6.64354 0 
0 0 0 
-6.80027 0.687371 0 
0.687371 -6.91566 0 
0 0 0 
-7.33833 0.690887 0 
0.690887 -6.3776 0 
0 0 0 
-6.05522 -0.00252834 0 
-0.00252834 -6.22606 0 
0 0 0 
-6.03034 -0.000350372 0 
-0.000350372 -6.25094 0 
0 0 0 
-6.04467 -0.0252878 0 
-0.0252878 -6.23661 0 
0 0 0 
-6.16103 -0.124432 0 
-0.124432 -5.93574 0 
0 0 0 
-6.16803 -0.107288 0 
-0.107288 -5.92874 0 
0 0 0 
-6.14296 -0.100897 0 
-0.100897 -5.95381 0 
0 0 0 
-6.18904 -0.00504849 0 
-0.00504849 -5.84739 0 
0 0 0 
-6.17173 0.00128465 0 
0.00128465 -5.86469 0 
0 0 0 
-6.18587 -0.0201462 0 
-0.0201462 -5.85056 0 
0 0 0 
-6.26079 0.0464859 0 
0.0464859 -5.98679 0 
0 0 0 
-6.27579 0.0457688 0 
0.0457688 -5.97179 0 
0 0 0 
-6.26767 0.0531453 0 
0.0531453 -5.97991 0 
0 0 0 
-6.22434 0.0148196 0 
0.0148196 -5.96406 0 
0 0 0 
-6.21625 0.0253736 0 
0.0253736 -5.97215 0 
0 0 0 
-6.20957 0.0156352 0 
0.0156352 -5.97883 0 
0 0 0 
-6.15612 0.099173 0 
0.099173 -6.23903 0 
0 0 0 
-6.17216 0.138871 0 
0.138871 -6.22298 0 
0 0 0 
-6.1331 0.142897 0 
0.142897 -6.26204 0 
0 0 0 
-6.15206 0.10055 0 
0.10055 -6.01308 0 
0 0 0 
-6.15863 0.0871491 0 
0.0871491 -6.00651 0 
0 0 0 
-6.16613 0.101084 0 
0.101084 -5.99901 0 
0 0 0 
-5.91683 -0.319506 0 
-0.319506 -5.19644 0 
0 0 0 
-5.38621 -0.433036 0 
-0.433036 -5.72706 0 
0 0 0 
-5.5532 -0.587059 0 
-0.587059 -5.56007 0 
0 0 0 
-6.24749 0.167009 0 
0.167009 -6.1439 0 
0 0 0 
-6.26019 0.135843 0 
0.135843 -6.13121 0 
0 0 0 
-6.26903 0.164785 0 
0.164785 -6.12236 0 
0 0 0 
-6.07426 0.0299067 0 
0.0299067 -6.28805 0 
0 0 0 
-6.10161 0.0364996 0 
0.0364996 -6.2607 0 
0 0 0 
-6.09306 0.0600405 0 
0.0600405 -6.26926 0 
0 0 0 
-6.16182 -0.0119814 0 
-0.0119814 -5.99246 0 
0 0 0 
-6.17496 -0.0132643 0 
-0.0132643 -5.97932 0 
0 0 0 
-6.16728 -0.00223873 0 
-0.00223873 -5.987 0 
0 0 0 
-6.00596 -0.0429787 0 
-0.0429787 -6.26111 0 
0 0 0 
-6.02097 -0.0441262 0 
-0.0441262 -6.2461 0 
0 0 0 
-6.01247 -0.0300116 0 
-0.0300116 -6.2546 0 
0 0 0 
-6.07679 0.0517633 0 
0.0517633 -6.33325 0 
0 0 0 
-6.09221 0.0884269 0 
0.0884269 -6.31783 0 
0 0 0 
-6.05196 0.0938481 0 
0.0938481 -6.35808 0 
0 0 0 
-6.1326 0.0758282 0 
0.0758282 -6.04337 0 
0 0 0 
-6.12665 0.0870345 0 
0.0870345 -6.04932 0 
0 0 0 
-6.12103 0.0760184 0 
0.0760184 -6.05493 0 
0 0 0 
-6.17944 -0.000424243 0 
-0.000424243 -5.98672 0 
0 0 0 
-6.19366 -0.00148794 0 
-0.00148794 -5.97251 0 
0 0 0 
-6.18563 0.00987832 0 
0.00987832 -5.98054 0 
0 0 0 
-6.03036 -0.0208661 0 
-0.0208661 -6.23087 0 
0 0 0 
-6.02078 -0.0407967 0 
-0.0407967 -6.24045 0 
0 0 0 
-6.04217 -0.0420841 0 
-0.0420841 -6.21906 0 
0 0 0 
-6.10149 0.0260996 0 
0.0260996 -6.10585 0 
0 0 0 
-6.10117 0.0269548 0 
0.0269548 -6.10617 0 
0 0 0 
-6.10196 0.0259745 0 
0.0259745 -6.10538 0 
0 0 0 
-6.12115 -0.0355805 0 
-0.0355805 -6.02249 0 
0 0 0 
-6.14966 -0.0386758 0 
-0.0386758 -5.99398 0 
0 0 0 
-6.13272 -0.00714391 0 
-0.00714391 -6.01091 0 
0 0 0 
-6.10818 0.154266 0 
0.154266 -6.02219 0 
0 0 0 
-6.13519 0.155425 0 
0.155425 -5.99519 0 
0 0 0 
-6.12269 0.18344 0 
0.18344 -6.00768 0 
0 0 0 
-6.16144 0.0330519 0 
0.0330519 -5.7399 0 
0 0 0 
-6.15141 0.0416333 0 
0.0416333 -5.74993 0 
0 0 0 
-6.1569 0.0420127 0 
0.0420127 -5.74444 0 
0 0 0 
-6.35615 0.25053 0 
0.25053 -6.34699 0 
0 0 0 
-6.31033 0.339208 0 
0.339208 -6.39281 0 
0 0 0 
-6.28179 0.260498 0 
0.260498 -6.42135 0 
0 0 0 
-6.22457 0.0695946 0 
0.0695946 -6.03478 0 
0 0 0 
-6.2273 0.0806674 0 
0.0806674 -6.03204 0 
0 0 0 
-6.22007 0.08168 0 
0.08168 -6.03927 0 
0 0 0 
-6.07075 0.0779364 0 
0.0779364 -6.20404 0 
0 0 0 
-6.05165 0.0728531 0 
0.0728531 -6.22314 0 
0 0 0 
-6.05693 0.0630035 0 
0.0630035 -6.21786 0 
0 0 0 
-6.10999 0.00151764 0 
0.00151764 -6.21904 0 
0 0 0 
-6.12455 0.0225163 0 
0.0225163 -6.20448 0 
0 0 0 
-6.10352 0.017795 0 
0.017795 -6.22551 0 
0 0 0 
-6.15871 0.208831 0 
0.208831 -6.49359 0 
0 0 0 
-6.23836 0.197184 0 
0.197184 -6.41394 0 
0 0 0 
-6.18845 0.283791 0 
0.283791 -6.46386 0 
0 0 0 
-5.99916 -0.123218 0 
-0.123218 -6.23191 0 
0 0 0 
-6.009 -0.100383 0 
-0.100383 -6.22207 0 
0 0 0 
-5.9929 -0.102446 0 
-0.102446 -6.23817 0 
0 0 0 
-6.19329 0.079671 0 
0.079671 -5.94685 0 
0 0 0 
-6.19378 0.0807748 0 
0.0807748 -5.94636 0 
0 0 0 
-6.1901 0.077262 0 
0.077262 -5.95004 0 
0 0 0 
-6.09529 0.026492 0 
0.026492 -6.14551 0 
0 0 0 
-6.09968 0.0319046 0 
0.0319046 -6.14113 0 
0 0 0 
-6.09423 0.029989 0 
0.029989 -6.14658 0 
0 0 0 
-6.16152 0.0794246 0 
0.0794246 -6.11774 0 
0 0 0 
-6.15133 0.0546383 0 
0.0546383 -6.12793 0 
0 0 0 
-6.17605 0.052132 0 
0.052132 -6.10321 0 
0 0 0 
-6.27868 0.0701967 0 
0.0701967 -6.00079 0 
0 0 0 
-6.29126 0.0697074 0 
0.0697074 -5.9882 0 
0 0 0 
-6.28455 0.0732144 0 
0.0732144 -5.99492 0 
0 0 0 
-6.20409 -0.0433876 0 
-0.0433876 -5.94611 0 
0 0 0 
-6.18199 -0.03983 0 
-0.03983 -5.9682 0 
0 0 0 
-6.19612 -0.0578171 0 
-0.0578171 -5.95407 0 
0 0 0 
-6.21097 -0.0748734 0 
-0.0748734 -5.92734 0 
0 0 0 
-6.18172 -0.0693798 0 
-0.0693798 -5.95659 0 
0 0 0 
-6.2011 -0.0942 0 
-0.0942 -5.93721 0 
0 0 0 
-6.27132 0.0823228 0 
0.0823228 -6.03649 0 
0 0 0 
-6.27032 0.0817793 0 
0.0817793 -6.03749 0 
0 0 0 
-6.27035 0.0887846 0 
0.0887846 -6.03746 0 
0 0 0 
-6.07146 0.167363 0 
0.167363 -6.62676 0 
0 0 0 
-6.1581 0.151557 0 
0.151557 -6.54012 0 
0 0 0 
-6.10107 0.242228 0 
0.242228 -6.59715 0 
0 0 0 
-6.08129 0.0599401 0 
0.0599401 -6.14802 0 
0 0 0 
-6.08174 0.0589604 0 
0.0589604 -6.14757 0 
0 0 0 
-6.08563 0.061928 0 
0.061928 -6.14367 0 
0 0 0 
-6.09595 0.0312585 0 
0.0312585 -6.15883 0 
0 0 0 
-6.10216 0.0331066 0 
0.0331066 -6.15262 0 
0 0 0 
-6.10066 0.0375417 0 
0.0375417 -6.15412 0 
0 0 0 
-6.02597 -0.00685184 0 
-0.00685184 -6.24983 0 
0 0 0 
-6.01681 -0.0257725 0 
-0.0257725 -6.259 0 
0 0 0 
-6.03849 -0.0277145 0 
-0.0277145 -6.23731 0 
0 0 0 
-5.7889 0.00614302 0 
0.00614302 -5.52214 0 
0 0 0 
-5.78259 -0.0192566 0 
-0.0192566 -5.52845 0 
0 0 0 
-5.76959 -0.00402703 0 
-0.00402703 -5.54145 0 
0 0 0 
-6.11188 0.016125 0 
0.016125 -6.06265 0 
0 0 0 
-6.11422 0.0214109 0 
0.0214109 -6.06031 0 
0 0 0 
-6.10846 0.0220354 0 
0.0220354 -6.06607 0 
0 0 0 
-6.2236 0.0576509 0 
0.0576509 -5.99001 0 
0 0 0 
-6.22036 0.0570376 0 
0.0570376 -5.99326 0 
0 0 0 
-6.22145 0.0580071 0 
0.0580071 -5.99216 0 
0 0 0 
-6.08575 -0.00564059 0 
-0.00564059 -6.05279 0 
0 0 0 
-6.08661 -0.00241102 0 
-0.00241102 -6.05194 0 
0 0 0 
-6.08369 -0.00171253 0 
-0.00171253 -6.05486 0 
0 0 0 
-6.36611 0.291515 0 
0.291515 -6.55821 0 
0 0 0 
-6.4147 0.436167 0 
0.436167 -6.50961 0 
0 0 0 
-6.29374 0.449889 0 
0.449889 -6.63057 0 
0 0 0 
-6.08628 -0.00653188 0 
-0.00653188 -6.21601 0 
0 0 0 
-6.08101 -0.0217253 0 
-0.0217253 -6.22128 0 
0 0 0 
-6.09692 -0.0252638 0 
-0.0252638 -6.20537 0 
0 0 0 
-6.14038 0.126881 0 
0.126881 -6.01831 0 
0 0 0 
-6.13139 0.109913 0 
0.109913 -6.0273 0 
0 0 0 
-6.14839 0.110482 0 
0.110482 -6.01031 0 
0 0 0 
-6.51699 -0.0831503 0 
-0.0831503 -5.83551 0 
0 0 0 
-6.5639 -0.0101442 0 
-0.0101442 -5.78861 0 
0 0 0 
-6.43724 0.00881582 0 
0.00881582 -5.91526 0 
0 0 0 
-6.01337 -0.0871231 0 
-0.0871231 -6.23894 0 
0 0 0 
-6.0297 -0.0862292 0 
-0.0862292 -6.22261 0 
0 0 0 
-6.02231 -0.0678117 0 
-0.0678117 -6.23 0 
0 0 0 
-6.87242 0.513304 0 
0.513304 -7.71496 0 
0 0 0 
-6.67168 0.936491 0 
0.936491 -7.91571 0 
0 0 0 
-6.63762 0.600196 0 
0.600196 -7.94977 0 
0 0 0 
-6.08196 -0.115582 0 
-0.115582 -6.09987 0 
0 0 0 
-6.0633 -0.0755816 0 
-0.0755816 -6.11852 0 
0 0 0 
-6.04656 -0.114483 0 
-0.114483 -6.13527 0 
0 0 0 
-6.13885 0.0297174 0 
0.0297174 -6.02901 0 
0 0 0 
-6.13358 0.0387202 0 
0.0387202 -6.03429 0 
0 0 0 
-6.12908 0.0301641 0 
0.0301641 -6.03879 0 
0 0 0 
-6.1088 0.284552 0 
0.284552 -6.74896 0 
0 0 0 
-6.07394 0.19159 0 
0.19159 -6.78382 0 
0 0 0 
-6.18212 0.169257 0 
0.169257 -6.67564 0 
0 0 0 
-6.07081 -0.00431138 0 
-0.00431138 -6.24588 0 
0 0 0 
-6.0647 -0.0207832 0 
-0.0207832 -6.252 0 
0 0 0 
-6.08284 -0.0241979 0 
-0.0241979 -6.23386 0 
0 0 0 
-6.21056 0.310274 0 
0.310274 -6.77595 0 
0 0 0 
-6.34997 0.288241 0 
0.288241 -6.63654 0 
0 0 0 
-6.26124 0.444641 0 
0.444641 -6.72527 0 
0 0 0 
-6.26253 0.129579 0 
0.129579 -6.13706 0 
0 0 0 
-6.27992 0.127063 0 
0.127063 -6.11967 0 
0 0 0 
-6.26904 0.153145 0 
0.153145 -6.13054 0 
0 0 0 
-6.06964 0.000523188 0 
0.000523188 -6.06545 0 
0 0 0 
-6.06715 0.00017348 0 
0.00017348 -6.06793 0 
0 0 0 
-6.06809 -0.000287376 0 
-0.000287376 -6.06699 0 
0 0 0 
-6.21829 0.0554736 0 
0.0554736 -5.98321 0 
0 0 0 
-6.2151 0.0531352 0 
0.0531352 -5.9864 0 
0 0 0 
-6.22088 0.0534851 0 
0.0534851 -5.98062 0 
0 0 0 
-6.12782 0.0150384 0 
0.0150384 -6.02555 0 
0 0 0 
-6.13332 0.00612484 0 
0.00612484 -6.02006 0 
0 0 0 
-6.13735 0.0141916 0 
0.0141916 -6.01603 0 
0 0 0 
-6.09469 0.0628306 0 
0.0628306 -6.14297 0 
0 0 0 
-6.09242 0.0617842 0 
0.0617842 -6.14523 0 
0 0 0 
-6.09407 0.0634473 0 
0.0634473 -6.14358 0 
0 0 0 
-6.17257 0.0771601 0 
0.0771601 -5.99704 0 
0 0 0 
-6.17795 0.0673531 0 
0.0673531 -5.99166 0 
0 0 0 
-6.18413 0.0776238 0 
0.0776238 -5.98548 0 
0 0 0 
-6.15556 7.69075e-05 0 
7.69075e-05 -5.99328 0 
0 0 0 
-6.1631 -0.0107095 0 
-0.0107095 -5.98574 0 
0 0 0 
-6.16824 -0.00131027 0 
-0.00131027 -5.98061 0 
0 0 0 
-6.09402 -0.0526804 0 
-0.0526804 -6.07884 0 
0 0 0 
-6.1258 -0.0551339 0 
-0.0551339 -6.04707 0 
0 0 0 
-6.10779 -0.0206055 0 
-0.0206055 -6.06508 0 
0 0 0 
-6.10589 0.00642222 0 
0.00642222 -6.23002 0 
0 0 0 
-6.10141 -0.00866825 0 
-0.00866825 -6.2345 0 
0 0 0 
-6.11669 -0.012274 0 
-0.012274 -6.21922 0 
0 0 0 
-6.14208 0.00448965 0 
0.00448965 -6.01232 0 
0 0 0 
-6.15293 0.00366504 0 
0.00366504 -6.00146 0 
0 0 0 
-6.14679 0.0133034 0 
0.0133034 -6.0076 0 
0 0 0 
-6.17667 0.0914263 0 
0.0914263 -5.977 0 
0 0 0 
-6.18041 0.0831286 0 
0.0831286 -5.97327 0 
0 0 0 
-6.18652 0.0928001 0 
0.0928001 -5.96715 0 
0 0 0 
-6.11044 -0.013725 0 
-0.013725 -6.12337 0 
0 0 0 
-6.1042 -0.00866537 0 
-0.00866537 -6.12961 0 
0 0 0 
-6.10145 -0.00942497 0 
-0.00942497 -6.13237 0 
0 0 0 
-6.1868 0.022654 0 
0.022654 -5.97936 0 
0 0 0 
-6.17378 0.0235001 0 
0.0235001 -5.99239 0 
0 0 0 
-6.18102 0.0129676 0 
0.0129676 -5.98514 0 
0 0 0 
-6.15639 0.127956 0 
0.127956 -5.99836 0 
0 0 0 
-6.13902 0.127157 0 
0.127157 -6.01574 0 
0 0 0 
-6.14701 0.10932 0 
0.10932 -6.00774 0 
0 0 0 
-6.13209 0.00605868 0 
0.00605868 -6.02194 0 
0 0 0 
-6.14192 0.0052952 0 
0.0052952 -6.01211 0 
0 0 0 
-6.13634 0.0142867 0 
0.0142867 -6.01769 0 
0 0 0 
-6.09516 0.0257811 0 
0.0257811 -6.13351 0 
0 0 0 
-6.09856 0.029643 0 
0.029643 -6.13011 0 
0 0 0 
-6.09466 0.0281499 0 
0.0281499 -6.13401 0 
0 0 0 
-6.03435 -0.183228 0 
-0.183228 -6.20451 0 
0 0 0 
-6.02012 -0.136343 0 
-0.136343 -6.21874 0 
0 0 0 
-5.99951 -0.186914 0 
-0.186914 -6.23935 0 
0 0 0 
-6.08923 0.0555481 0 
0.0555481 -6.13132 0 
0 0 0 
-6.08724 0.0539621 0 
0.0539621 -6.13331 0 
0 0 0 
-6.08686 0.0543219 0 
0.0543219 -6.13368 0 
0 0 0 
-6.16458 -0.00714989 0 
-0.00714989 -5.9909 0 
0 0 0 
-6.15039 0.0186473 0 
0.0186473 -6.00509 0 
0 0 0 
-6.14134 -0.00418307 0 
-0.00418307 -6.01414 0 
0 0 0 
-5.94551 -0.186451 0 
-0.186451 -6.34982 0 
0 0 0 
-5.88748 -0.195353 0 
-0.195353 -6.40786 0 
0 0 0 
-5.90515 -0.265399 0 
-0.265399 -6.39019 0 
0 0 0 
-6.24573 0.197724 0 
0.197724 -6.37038 0 
0 0 0 
-6.27339 0.273928 0 
0.273928 -6.34272 0 
0 0 0 
-6.20453 0.281743 0 
0.281743 -6.41158 0 
0 0 0 
-6.06164 -0.0577365 0 
-0.0577365 -6.15688 0 
0 0 0 
-6.03362 -0.0567059 0 
-0.0567059 -6.18491 0 
0 0 0 
-6.04852 -0.0860683 0 
-0.0860683 -6.17 0 
0 0 0 
-5.85219 -0.0193744 0 
-0.0193744 -5.51528 0 
0 0 0 
-5.85909 -0.0135734 0 
-0.0135734 -5.50838 0 
0 0 0 
-5.81647 -0.059028 0 
-0.059028 -5.551 0 
0 0 0 
-6.09548 0.200893 0 
0.200893 -6.04277 0 
0 0 0 
-6.08061 0.168408 0 
0.168408 -6.05763 0 
0 0 0 
-6.10979 0.168725 0 
0.168725 -6.02845 0 
0 0 0 
-6.00164 -0.0675616 0 
-0.0675616 -6.24309 0 
0 0 0 
-6.00498 -0.0584804 0 
-0.0584804 -6.23975 0 
0 0 0 
-5.99802 -0.0583039 0 
-0.0583039 -6.2467 0 
0 0 0 
-6.0987 0.0420698 0 
0.0420698 -6.13157 0 
0 0 0 
-6.09678 0.0403719 0 
0.0403719 -6.13349 0 
0 0 0 
-6.09832 0.041696 0 
0.041696 -6.13195 0 
0 0 0 
-6.10015 0.176911 0 
0.176911 -6.05572 0 
0 0 0 
-6.11249 0.147401 0 
0.147401 -6.04338 0 
0 0 0 
-6.12513 0.17708 0 
0.17708 -6.03075 0 
0 0 0 
-6.06719 -0.0415316 0 
-0.0415316 -6.1807 0 
0 0 0 
-6.05266 -0.0145058 0 
-0.0145058 -6.19523 0 
0 0 0 
-6.04074 -0.0400284 0 
-0.0400284 -6.20716 0 
0 0 0 
-6.03862 -0.124421 0 
-0.124421 -6.14718 0 
0 0 0 
-6.00333 -0.124941 0 
-0.124941 -6.18247 0 
0 0 0 
-6.02052 -0.165148 0 
-0.165148 -6.16527 0 
0 0 0 
-6.12991 0.0811426 0 
0.0811426 -6.06008 0 
0 0 0 
-6.11958 0.0816151 0 
0.0816151 -6.07041 0 
0 0 0 
-6.12516 0.0710026 0 
0.0710026 -6.06484 0 
0 0 0 
-6.17766 0.0336524 0 
0.0336524 -5.72458 0 
0 0 0 
-6.17026 0.0321615 0 
0.0321615 -5.73198 0 
0 0 0 
-6.16575 0.0433081 0 
0.0433081 -5.73649 0 
0 0 0 
-6.26719 0.0980582 0 
0.0980582 -6.03207 0 
0 0 0 
-6.26753 0.090051 0 
0.090051 -6.03173 0 
0 0 0 
-6.26707 0.0975906 0 
0.0975906 -6.0322 0 
0 0 0 
-6.09973 0.0292417 0 
0.0292417 -6.09755 0 
0 0 0 
-6.09822 0.0315416 0 
0.0315416 -6.09907 0 
0 0 0 
-6.09779 0.0298265 0 
0.0298265 -6.0995 0 
0 0 0 
-6.04705 -0.0626705 0 
-0.0626705 -6.19173 0 
0 0 0 
-6.05878 -0.0375451 0 
-0.0375451 -6.18 0 
0 0 0 
-6.03311 -0.0362732 0 
-0.0362732 -6.20567 0 
0 0 0 
-6.13524 0.0365447 0 
0.0365447 -6.03714 0 
0 0 0 
-6.12605 0.037126 0 
0.037126 -6.04633 0 
0 0 0 
-6.13115 0.0284041 0 
0.0284041 -6.04123 0 
0 0 0 
-6.00607 -0.151648 0 
-0.151648 -6.32932 0 
0 0 0 
-6.00846 -0.132155 0 
-0.132155 -6.32694 0 
0 0 0 
-5.99592 -0.161098 0 
-0.161098 -6.33948 0 
0 0 0 
-6.11937 -0.061763 0 
-0.061763 -5.72951 0 
0 0 0 
-6.13885 -0.0934385 0 
-0.0934385 -5.71003 0 
0 0 0 
-6.13573 -0.0749201 0 
-0.0749201 -5.71315 0 
0 0 0 
-6.42067 0.331927 0 
0.331927 -6.84285 0 
0 0 0 
-6.30053 0.544026 0 
0.544026 -6.96299 0 
0 0 0 
-6.23711 0.364755 0 
0.364755 -7.02641 0 
0 0 0 
-6.54726 0.257607 0 
0.257607 -7.74541 0 
0 0 0 
-6.40319 0.505166 0 
0.505166 -7.88948 0 
0 0 0 
-6.39962 0.338704 0 
0.338704 -7.89305 0 
0 0 0 
-6.09885 -0.0180541 0 
-0.0180541 -6.02241 0 
0 0 0 
-6.09753 -0.0224258 0 
-0.0224258 -6.02374 0 
0 0 0 
-6.10256 -0.0238028 0 
-0.0238028 -6.0187 0 
0 0 0 
-6.17676 0.0877443 0 
0.0877443 -5.9903 0 
0 0 0 
-6.17022 0.0771102 0 
0.0771102 -5.99684 0 
0 0 0 
-6.18222 0.0777293 0 
0.0777293 -5.98483 0 
0 0 0 
-6.09993 0.0364454 0 
0.0364454 -6.12125 0 
0 0 0 
-6.09891 0.0358387 0 
0.0358387 -6.12228 0 
0 0 0 
-6.09912 0.0368899 0 
0.0368899 -6.12207 0 
0 0 0 
-6.11207 -0.0138645 0 
-0.0138645 -6.11759 0 
0 0 0 
-6.10364 -0.0108035 0 
-0.0108035 -6.12603 0 
0 0 0 
-6.11 -0.0149938 0 
-0.0149938 -6.11966 0 
0 0 0 
-6.1082 0.0197855 0 
0.0197855 -6.07583 0 
0 0 0 
-6.10416 0.0203646 0 
0.0203646 -6.07987 0 
0 0 0 
-6.10667 0.0159257 0 
0.0159257 -6.07736 0 
0 0 0 
-6.05401 0.1195 0 
0.1195 -6.41843 0 
0 0 0 
-6.08388 0.0690547 0 
0.0690547 -6.38856 0 
0 0 0 
-6.10128 0.112331 0 
0.112331 -6.37116 0 
0 0 0 
-6.52299 0.555717 0 
0.555717 -6.67837 0 
0 0 0 
-6.35474 0.5764 0 
0.5764 -6.84662 0 
0 0 0 
-6.45676 0.343311 0 
0.343311 -6.7446 0 
0 0 0 
-6.17975 0.0226518 0 
0.0226518 -5.98757 0 
0 0 0 
-6.16008 0.0252896 0 
0.0252896 -6.00724 0 
0 0 0 
-6.1722 0.00381219 0 
0.00381219 -5.99512 0 
0 0 0 
-6.0815 -0.0213643 0 
-0.0213643 -6.02179 0 
0 0 0 
-6.08458 -0.0261738 0 
-0.0261738 -6.01872 0 
0 0 0 
-6.08496 -0.0229153 0 
-0.0229153 -6.01833 0 
0 0 0 
-6.35294 -0.113612 0 
-0.113612 -5.89092 0 
0 0 0 
-6.46221 -0.125638 0 
-0.125638 -5.78165 0 
0 0 0 
-6.39716 -0.0350703 0 
-0.0350703 -5.8467 0 
0 0 0 
-6.105 0.0155629 0 
0.0155629 -6.06797 0 
0 0 0 
-6.11017 0.0150407 0 
0.0150407 -6.0628 0 
0 0 0 
-6.10713 0.0204155 0 
0.0204155 -6.06583 0 
0 0 0 
-6.1617 0.00823297 0 
0.00823297 -6.02241 0 
0 0 0 
-6.13615 0.010709 0 
0.010709 -6.04796 0 
0 0 0 
-6.15107 -0.0163675 0 
-0.0163675 -6.03304 0 
0 0 0 
-6.17803 0.0151188 0 
0.0151188 -5.95809 0 
0 0 0 
-6.16703 0.0341787 0 
0.0341787 -5.96909 0 
0 0 0 
-6.16152 0.0182887 0 
0.0182887 -5.9746 0 
0 0 0 
-6.1028 0.0184304 0 
0.0184304 -6.07898 0 
0 0 0 
-6.10136 0.0149279 0 
0.0149279 -6.08042 0 
0 0 0 
-6.10483 0.0145011 0 
0.0145011 -6.07695 0 
0 0 0 
-6.36214 0.139733 0 
0.139733 -6.06646 0 
0 0 0 
-6.36587 0.131517 0 
0.131517 -6.06273 0 
0 0 0 
-6.35871 0.131342 0 
0.131342 -6.06989 0 
0 0 0 
-6.17868 -0.0411617 0 
-0.0411617 -5.97143 0 
0 0 0 
-6.17177 -0.053912 0 
-0.053912 -5.97834 0 
0 0 0 
-6.19036 -0.0566674 0 
-0.0566674 -5.95975 0 
0 0 0 
-6.17238 0.0227961 0 
0.0227961 -5.99164 0 
0 0 0 
-6.16665 0.0129949 0 
0.0129949 -5.99737 0 
0 0 0 
-6.17934 0.0122847 0 
0.0122847 -5.98468 0 
0 0 0 
-6.08806 -0.00841877 0 
-0.00841877 -6.04481 0 
0 0 0 
-6.08904 -0.00482618 0 
-0.00482618 -6.04384 0 
0 0 0 
-6.08564 -0.00399338 0 
-0.00399338 -6.04723 0 
0 0 0 
-6.23492 0.0381885 0 
0.0381885 -5.98167 0 
0 0 0 
-6.23991 0.0432046 0 
0.0432046 -5.97668 0 
0 0 0 
-6.22925 0.0436009 0 
0.0436009 -5.98735 0 
0 0 0 
-6.43417 0.105494 0 
0.105494 -5.93196 0 
0 0 0 
-6.40962 0.0759421 0 
0.0759421 -5.95652 0 
0 0 0 
-6.46678 0.0712947 0 
0.0712947 -5.89935 0 
0 0 0 
-6.19283 -0.0904434 0 
-0.0904434 -5.95004 0 
0 0 0 
-6.17785 -0.0707051 0 
-0.0707051 -5.96502 0 
0 0 0 
-6.17005 -0.0862938 0 
-0.0862938 -5.97282 0 
0 0 0 
-6.09254 0.00106636 0 
0.00106636 -6.05386 0 
0 0 0 
-6.08882 0.00174755 0 
0.00174755 -6.05758 0 
0 0 0 
-6.09127 -0.00270951 0 
-0.00270951 -6.05513 0 
0 0 0 
-5.9732 -0.104066 0 
-0.104066 -6.30792 0 
0 0 0 
-5.97653 -0.11109 0 
-0.11109 -6.30459 0 
0 0 0 
-5.96889 -0.117038 0 
-0.117038 -6.31223 0 
0 0 0 
-6.01484 -0.0244118 0 
-0.0244118 -6.25634 0 
0 0 0 
-6.02577 -0.0434323 0 
-0.0434323 -6.24542 0 
0 0 0 
-6.03399 -0.0259731 0 
-0.0259731 -6.23719 0 
0 0 0 
-6.10393 0.0231939 0 
0.0231939 -5.62191 0 
0 0 0 
-6.08913 0.0340994 0 
0.0340994 -5.63671 0 
0 0 0 
-6.09843 0.0372658 0 
0.0372658 -5.62741 0 
0 0 0 
-6.24295 0.0632564 0 
0.0632564 -6.00981 0 
0 0 0 
-6.24117 0.0627472 0 
0.0627472 -6.01159 0 
0 0 0 
-6.24162 0.0666943 0 
0.0666943 -6.01114 0 
0 0 0 
-6.00203 -0.126714 0 
-0.126714 -6.21875 0 
0 0 0 
-5.98047 -0.129866 0 
-0.129866 -6.24031 0 
0 0 0 
-5.98852 -0.158642 0 
-0.158642 -6.23226 0 
0 0 0 
-6.32897 0.104418 0 
0.104418 -6.01116 0 
0 0 0 
-6.34624 0.103548 0 
0.103548 -5.99388 0 
0 0 0 
-6.33685 0.107009 0 
0.107009 -6.00327 0 
0 0 0 
-6.06277 0.090133 0 
0.090133 -6.36599 0 
0 0 0 
-6.10931 0.0834985 0 
0.0834985 -6.31945 0 
0 0 0 
-6.08028 0.130286 0 
0.130286 -6.34848 0 
0 0 0 
-6.07581 -0.0874194 0 
-0.0874194 -6.13203 0 
0 0 0 
-6.05956 -0.0539238 0 
-0.0539238 -6.14828 0 
0 0 0 
-6.04505 -0.0864143 0 
-0.0864143 -6.16279 0 
0 0 0 
-5.94263 -0.147848 0 
-0.147848 -6.35206 0 
0 0 0 
-5.9468 -0.132834 0 
-0.132834 -6.34789 0 
0 0 0 
-5.95886 -0.144103 0 
-0.144103 -6.33583 0 
0 0 0 
-6.12611 0.205961 0 
0.205961 -6.00217 0 
0 0 0 
-6.0942 0.205098 0 
0.205098 -6.03407 0 
0 0 0 
-6.10941 0.166673 0 
0.166673 -6.01887 0 
0 0 0 
-6.01211 -0.223243 0 
-0.223243 -6.3602 0 
0 0 0 
-6.01016 -0.16058 0 
-0.16058 -6.36215 0 
0 0 0 
-5.97763 -0.240024 0 
-0.240024 -6.39468 0 
0 0 0 
-6.42474 0.271665 0 
0.271665 -6.12476 0 
0 0 0 
-6.43249 0.231079 0 
0.231079 -6.117 0 
0 0 0 
-6.43903 0.270963 0 
0.270963 -6.11046 0 
0 0 0 
-6.17856 0.0016311 0 
0.0016311 -5.96106 0 
0 0 0 
-6.18479 0.0184861 0 
0.0184861 -5.95482 0 
0 0 0 
-6.16677 0.0216895 0 
0.0216895 -5.97284 0 
0 0 0 
-6.18076 -0.0673891 0 
-0.0673891 -5.94486 0 
0 0 0 
-6.15932 -0.0630583 0 
-0.0630583 -5.96631 0 
0 0 0 
-6.17379 -0.0815786 0 
-0.0815786 -5.95183 0 
0 0 0 
-6.11032 -0.0101012 0 
-0.0101012 -6.02172 0 
0 0 0 
-6.10806 -0.0157199 0 
-0.0157199 -6.02398 0 
0 0 0 
-6.11463 -0.0168952 0 
-0.0168952 -6.01741 0 
0 0 0 
-6.14252 -0.0554632 0 
-0.0554632 -5.97471 0 
0 0 0 
-6.15371 -0.0698575 0 
-0.0698575 -5.96351 0 
0 0 0 
-6.15881 -0.0589881 0 
-0.0589881 -5.95842 0 
0 0 0 
-6.29061 0.227075 0 
0.227075 -6.8878 0 
0 0 0 
-6.33766 0.38134 0 
0.38134 -6.84075 0 
0 0 0 
-6.19708 0.408248 0 
0.408248 -6.98133 0 
0 0 0 
-6.09054 0.0397112 0 
0.0397112 -6.13556 0 
0 0 0 
-6.09084 0.0382799 0 
0.0382799 -6.13526 0 
0 0 0 
-6.09391 0.0412821 0 
0.0412821 -6.13219 0 
0 0 0 
-6.15458 0.0252577 0 
0.0252577 -6.29956 0 
0 0 0 
-6.17023 0.0183123 0 
0.0183123 -6.28392 0 
0 0 0 
-6.157 0.0421785 0 
0.0421785 -6.29715 0 
0 0 0 
-6.11398 0.0341118 0 
0.0341118 -6.06297 0 
0 0 0 
-6.11116 0.0281546 0 
0.0281546 -6.06579 0 
0 0 0 
-6.11763 0.0276808 0 
0.0276808 -6.05932 0 
0 0 0 
-5.97675 -0.2164 0 
-0.2164 -6.22893 0 
0 0 0 
-6.0002 -0.162579 0 
-0.162579 -6.20548 0 
0 0 0 
-5.96091 -0.166974 0 
-0.166974 -6.24476 0 
0 0 0 
-6.09462 -0.0148913 0 
-0.0148913 -6.02233 0 
0 0 0 
-6.09843 -0.0209335 0 
-0.0209335 -6.01852 0 
0 0 0 
-6.09989 -0.0162527 0 
-0.0162527 -6.01706 0 
0 0 0 
-6.09142 -0.0104177 0 
-0.0104177 -6.26785 0 
0 0 0 
-6.09871 0.0102689 0 
0.0102689 -6.26056 0 
0 0 0 
-6.07703 0.0143678 0 
0.0143678 -6.28224 0 
0 0 0 
-6.09696 0.0303134 0 
0.0303134 -6.14459 0 
0 0 0 
-6.10116 0.0318687 0 
0.0318687 -6.14039 0 
0 0 0 
-6.10043 0.0347224 0 
0.0347224 -6.14112 0 
0 0 0 
-6.55329 0.261622 0 
0.261622 -6.11711 0 
0 0 0 
-6.5577 0.236818 0 
0.236818 -6.1127 0 
0 0 0 
-6.54781 0.237434 0 
0.237434 -6.12259 0 
0 0 0 
-6.15961 0.0122575 0 
0.0122575 -5.9966 0 
0 0 0 
-6.16683 0.00163859 0 
0.00163859 -5.98939 0 
0 0 0 
-6.17218 0.0111825 0 
0.0111825 -5.98403 0 
0 0 0 
-6.21944 0.0323971 0 
0.0323971 -5.98071 0 
0 0 0 
-6.23154 0.0319895 0 
0.0319895 -5.96862 0 
0 0 0 
-6.22513 0.0395829 0 
0.0395829 -5.97502 0 
0 0 0 
-6.44133 -0.0846538 0 
-0.0846538 -8.04216 0 
0 0 0 
-6.51087 -0.134936 0 
-0.134936 -7.97262 0 
0 0 0 
-6.43466 -0.167891 0 
-0.167891 -8.04883 0 
0 0 0 
-6.55613 0.384657 0 
0.384657 -6.51128 0 
0 0 0 
-6.4708 0.558022 0 
0.558022 -6.59661 0 
0 0 0 
-6.41446 0.40141 0 
0.40141 -6.65295 0 
0 0 0 
-6.05716 -0.135893 0 
-0.135893 -6.14802 0 
0 0 0 
-6.04105 -0.097184 0 
-0.097184 -6.16412 0 
0 0 0 
-6.02427 -0.136284 0 
-0.136284 -6.18091 0 
0 0 0 
-6.03167 -0.139769 0 
-0.139769 -6.21514 0 
0 0 0 
-6.02182 -0.10899 0 
-0.10899 -6.22499 0 
0 0 0 
-6.00744 -0.142388 0 
-0.142388 -6.23937 0 
0 0 0 
-6.11362 -0.075042 0 
-0.075042 -5.97655 0 
0 0 0 
-6.12369 -0.0878073 0 
-0.0878073 -5.96648 0 
0 0 0 
-6.12678 -0.0790711 0 
-0.0790711 -5.96338 0 
0 0 0 
-6.02229 -0.0333008 0 
-0.0333008 -6.2587 0 
0 0 0 
-6.03099 -0.0481602 0 
-0.0481602 -6.25 0 
0 0 0 
-6.03602 -0.0354251 0 
-0.0354251 -6.24497 0 
0 0 0 
-6.04901 -0.0332785 0 
-0.0332785 -6.21854 0 
0 0 0 
-6.03367 -0.0312987 0 
-0.0312987 -6.23388 0 
0 0 0 
-6.04311 -0.0482813 0 
-0.0482813 -6.22444 0 
0 0 0 
-6.16902 0.108744 0 
0.108744 -5.95761 0 
0 0 0 
-6.18368 0.111042 0 
0.111042 -5.94296 0 
0 0 0 
-6.17834 0.124094 0 
0.124094 -5.9483 0 
0 0 0 
-6.05045 -0.113925 0 
-0.113925 -6.14581 0 
0 0 0 
-6.06575 -0.080446 0 
-0.080446 -6.13051 0 
0 0 0 
-6.0335 -0.0794905 0 
-0.0794905 -6.16276 0 
0 0 0 
-6.23324 0.128782 0 
0.128782 -7.60807 0 
0 0 0 
-6.31863 0.0127676 0 
0.0127676 -7.52267 0 
0 0 0 
-6.3011 0.0689336 0 
0.0689336 -7.5402 0 
0 0 0 
-6.17177 0.0962389 0 
0.0962389 -5.8929 0 
0 0 0 
-6.18023 0.109388 0 
0.109388 -5.88444 0 
0 0 0 
-6.17031 0.105344 0 
0.105344 -5.89436 0 
0 0 0 
-6.08128 0.203655 0 
0.203655 -7.00069 0 
0 0 0 
-6.20761 0.171753 0 
0.171753 -6.87437 0 
0 0 0 
-6.11693 0.312419 0 
0.312419 -6.96504 0 
0 0 0 
-6.07401 0.204627 0 
0.204627 -6.75494 0 
0 0 0 
-6.13134 0.107896 0 
0.107896 -6.6976 0 
0 0 0 
-6.15647 0.186093 0 
0.186093 -6.67247 0 
0 0 0 
-6.09986 0.0273384 0 
0.0273384 -6.11994 0 
0 0 0 
-6.09856 0.0256316 0 
0.0256316 -6.12123 0 
0 0 0 
-6.09947 0.0265723 0 
0.0265723 -6.12032 0 
0 0 0 
-6.19224 -0.00918411 0 
-0.00918411 -6.20887 0 
0 0 0 
-6.20688 -0.0081124 0 
-0.0081124 -6.19422 0 
0 0 0 
-6.20049 -0.00445418 0 
-0.00445418 -6.20062 0 
0 0 0 
-6.11378 0.0252016 0 
0.0252016 -6.05774 0 
0 0 0 
-6.11783 0.0182557 0 
0.0182557 -6.05369 0 
0 0 0 
-6.12078 0.0245634 0 
0.0245634 -6.05074 0 
0 0 0 
-6.39702 0.0185077 0 
0.0185077 -5.88796 0 
0 0 0 
-6.36325 -0.034976 0 
-0.034976 -5.92173 0 
0 0 0 
-6.44358 -0.0423534 0 
-0.0423534 -5.8414 0 
0 0 0 
-6.09546 0.208354 0 
0.208354 -5.80096 0 
0 0 0 
-6.1192 0.267777 0 
0.267777 -5.77722 0 
0 0 0 
-6.08771 0.258547 0 
0.258547 -5.80871 0 
0 0 0 
-6.01315 -0.0546332 0 
-0.0546332 -6.26288 0 
0 0 0 
-6.00819 -0.0494543 0 
-0.0494543 -6.26784 0 
0 0 0 
-6.00673 -0.0526138 0 
-0.0526138 -6.26931 0 
0 0 0 
-6.06067 0.314862 0 
0.314862 -6.03722 0 
0 0 0 
-6.02973 0.242613 0 
0.242613 -6.06815 0 
0 0 0 
-6.08967 0.244022 0 
0.244022 -6.00821 0 
0 0 0 
-6.32691 -0.0466788 0 
-0.0466788 -5.91808 0 
0 0 0 
-6.38415 -0.117212 0 
-0.117212 -5.86084 0 
0 0 0 
-6.41691 -0.060814 0 
-0.060814 -5.82808 0 
0 0 0 
-6.13472 -0.00798111 0 
-0.00798111 -5.67652 0 
0 0 0 
-6.1296 0.0076425 0 
0.0076425 -5.68164 0 
0 0 0 
-6.14507 -0.00868687 0 
-0.00868687 -5.66617 0 
0 0 0 
-6.03774 -0.0673428 0 
-0.0673428 -6.01901 0 
0 0 0 
-6.03633 -0.0704696 0 
-0.0704696 -6.02042 0 
0 0 0 
-6.03433 -0.0690193 0 
-0.0690193 -6.02243 0 
0 0 0 
-6.03358 -0.0603125 0 
-0.0603125 -6.20988 0 
0 0 0 
-6.04015 -0.0437975 0 
-0.0437975 -6.20332 0 
0 0 0 
-6.02462 -0.0425076 0 
-0.0425076 -6.21884 0 
0 0 0 
-6.0848 -0.032923 0 
-0.032923 -5.65541 0 
0 0 0 
-6.09488 -0.0366266 0 
-0.0366266 -5.64532 0 
0 0 0 
-6.0989 -0.051439 0 
-0.051439 -5.6413 0 
0 0 0 
-6.12372 0.000220073 0 
0.000220073 -6.19922 0 
0 0 0 
-6.10992 0.00383735 0 
0.00383735 -6.21302 0 
0 0 0 
-6.11946 -0.0126559 0 
-0.0126559 -6.20349 0 
0 0 0 
-6.11578 0.0197982 0 
0.0197982 -6.05154 0 
0 0 0 
-6.12334 0.0192709 0 
0.0192709 -6.04398 0 
0 0 0 
-6.1191 0.0265772 0 
0.0265772 -6.04822 0 
0 0 0 
-6.15668 -0.0626441 0 
-0.0626441 -5.97586 0 
0 0 0 
-6.15116 -0.0741615 0 
-0.0741615 -5.98139 0 
0 0 0 
-6.16812 -0.0775788 0 
-0.0775788 -5.96442 0 
0 0 0 
-6.0266 -0.0761981 0 
-0.0761981 -6.21291 0 
0 0 0 
-6.03636 -0.0552267 0 
-0.0552267 -6.20315 0 
0 0 0 
-6.01597 -0.0547244 0 
-0.0547244 -6.22354 0 
0 0 0 
-6.13386 0.149548 0 
0.149548 -5.9724 0 
0 0 0 
-6.16055 0.151954 0 
0.151954 -5.94571 0 
0 0 0 
-6.14929 0.178598 0 
0.178598 -5.95697 0 
0 0 0 
-6.07771 -0.00189613 0 
-0.00189613 -6.06887 0 
0 0 0 
-6.07692 -2.70056e-05 0 
-2.70056e-05 -6.06966 0 
0 0 0 
-6.07684 -0.00146919 0 
-0.00146919 -6.06974 0 
0 0 0 
-6.04569 -0.059157 0 
-0.059157 -6.20285 0 
0 0 0 
-6.03407 -0.0365457 0 
-0.0365457 -6.21447 0 
0 0 0 
-6.02373 -0.0584202 0 
-0.0584202 -6.22481 0 
0 0 0 
-6.14929 0.217161 0 
0.217161 -5.85743 0 
0 0 0 
-6.11578 0.212008 0 
0.212008 -5.89094 0 
0 0 0 
-6.12807 0.172075 0 
0.172075 -5.87865 0 
0 0 0 
-6.10497 -0.0101172 0 
-0.0101172 -6.18614 0 
0 0 0 
-6.08928 -0.00504072 0 
-0.00504072 -6.20182 0 
0 0 0 
-6.10204 -0.0278327 0 
-0.0278327 -6.18906 0 
0 0 0 
-6.09995 -0.00348543 0 
-0.00348543 -6.33727 0 
0 0 0 
-6.112 0.0298801 0 
0.0298801 -6.32521 0 
0 0 0 
-6.08053 0.0330337 0 
0.0330337 -6.35669 0 
0 0 0 
-6.017 -0.0401201 0 
-0.0401201 -6.24316 0 
0 0 0 
-6.00995 -0.0544384 0 
-0.0544384 -6.25022 0 
0 0 0 
-6.02487 -0.0549048 0 
-0.0549048 -6.23529 0 
0 0 0 
-6.0147 -0.0577229 0 
-0.0577229 -6.27377 0 
0 0 0 
-6.01016 -0.0554078 0 
-0.0554078 -6.27831 0 
0 0 0 
-6.01443 -0.0590489 0 
-0.0590489 -6.27403 0 
0 0 0 
-6.12035 0.00650491 0 
0.00650491 -6.19448 0 
0 0 0 
-6.11224 -0.0108469 0 
-0.0108469 -6.20258 0 
0 0 0 
-6.12581 -0.0161778 0 
-0.0161778 -6.18901 0 
0 0 0 
-7.15506 1.104 0 
1.104 -7.29003 0 
0 0 0 
-6.82887 1.17286 0 
1.17286 -7.61622 0 
0 0 0 
-7.05117 0.535758 0 
0.535758 -7.39392 0 
0 0 0 
-6.0951 0.0259002 0 
0.0259002 -6.12327 0 
0 0 0 
-6.09555 0.0238485 0 
0.0238485 -6.12283 0 
0 0 0 
-6.09837 0.02699 0 
0.02699 -6.12001 0 
0 0 0 
-6.07507 0.217776 0 
0.217776 -5.99541 0 
0 0 0 
-6.12089 0.22015 0 
0.22015 -5.94959 0 
0 0 0 
-6.10004 0.272561 0 
0.272561 -5.97045 0 
0 0 0 
-6.00611 -0.0592491 0 
-0.0592491 -6.33272 0 
0 0 0 
-6.01822 -0.0708843 0 
-0.0708843 -6.32061 0 
0 0 0 
-6.02081 -0.0647342 0 
-0.0647342 -6.31803 0 
0 0 0 
-6.53044 0.352719 0 
0.352719 -7.69238 0 
0 0 0 
-6.40604 0.421547 0 
0.421547 -7.81679 0 
0 0 0 
-6.52654 0.195578 0 
0.195578 -7.69629 0 
0 0 0 
-6.19206 0.0708063 0 
0.0708063 -5.93025 0 
0 0 0 
-6.19494 0.0683656 0 
0.0683656 -5.92737 0 
0 0 0 
-6.19238 0.0676656 0 
0.0676656 -5.92993 0 
0 0 0 
-6.17045 0.161 0 
0.161 -5.78051 0 
0 0 0 
-6.16721 0.184468 0 
0.184468 -5.78375 0 
0 0 0 
-6.14912 0.152426 0 
0.152426 -5.80184 0 
0 0 0 
-6.02167 -0.0318678 0 
-0.0318678 -6.30134 0 
0 0 0 
-6.043 -0.0364406 0 
-0.0364406 -6.28 0 
0 0 0 
-6.02838 -0.0169872 0 
-0.0169872 -6.29463 0 
0 0 0 
-7.6577 0.386482 0 
0.386482 -5.24813 0 
0 0 0 
-7.07546 0.554573 0 
0.554573 -5.83037 0 
0 0 0 
-7.51218 0.232271 0 
0.232271 -5.39365 0 
0 0 0 
-6.13994 0.0200873 0 
0.0200873 -6.07875 0 
0 0 0 
-6.16378 0.0176798 0 
0.0176798 -6.05492 0 
0 0 0 
-6.14977 0.0436529 0 
0.0436529 -6.06892 0 
0 0 0 
-6.17995 0.0959075 0 
0.0959075 -5.98161 0 
0 0 0 
-6.17332 0.085342 0 
0.085342 -5.98825 0 
0 0 0 
-6.18485 0.0863461 0 
0.0863461 -5.97671 0 
0 0 0 
-6.18868 0.0737769 0 
0.0737769 -5.97542 0 
0 0 0 
-6.19356 0.0805808 0 
0.0805808 -5.97054 0 
0 0 0 
-6.18588 0.0793808 0 
0.0793808 -5.97822 0 
0 0 0 
-6.19397 0.156738 0 
0.156738 -7.69079 0 
0 0 0 
-6.22047 0.106883 0 
0.106883 -7.66429 0 
0 0 0 
-6.29136 0.0323341 0 
0.0323341 -7.5934 0 
0 0 0 
-6.16642 0.149631 0 
0.149631 -5.94844 0 
0 0 0 
-6.1541 0.12782 0 
0.12782 -5.96076 0 
0 0 0 
-6.17451 0.130265 0 
0.130265 -5.94036 0 
0 0 0 
-6.03543 -0.0393894 0 
-0.0393894 -6.21918 0 
0 0 0 
-6.01608 -0.0384028 0 
-0.0384028 -6.23853 0 
0 0 0 
-6.02661 -0.0581406 0 
-0.0581406 -6.228 0 
0 0 0 
-6.17471 0.139238 0 
0.139238 -5.8653 0 
0 0 0 
-6.15774 0.134679 0 
0.134679 -5.88228 0 
0 0 0 
-6.16228 0.117258 0 
0.117258 -5.87774 0 
0 0 0 
-6.01852 -0.0525745 0 
-0.0525745 -6.23644 0 
0 0 0 
-6.00636 -0.0524463 0 
-0.0524463 -6.2486 0 
0 0 0 
-6.01255 -0.065262 0 
-0.065262 -6.24241 0 
0 0 0 
-6.18272 0.0748846 0 
0.0748846 -5.98596 0 
0 0 0 
-6.1923 0.0757455 0 
0.0757455 -5.97638 0 
0 0 0 
-6.18826 0.083045 0 
0.083045 -5.98043 0 
0 0 0 
-6.06169 -0.0209275 0 
-0.0209275 -6.23203 0 
0 0 0 
-6.04464 -0.0182372 0 
-0.0182372 -6.24908 0 
0 0 0 
-6.0556 -0.0370153 0 
-0.0370153 -6.23812 0 
0 0 0 
-6.05346 -0.0299831 0 
-0.0299831 -6.28328 0 
0 0 0 
-6.06111 -0.0109074 0 
-0.0109074 -6.27562 0 
0 0 0 
-6.03903 -0.00696213 0 
-0.00696213 -6.29771 0 
0 0 0 
-6.18379 0.0379904 0 
0.0379904 -6.04294 0 
0 0 0 
-6.17231 0.0597249 0 
0.0597249 -6.05442 0 
0 0 0 
-6.16468 0.0402159 0 
0.0402159 -6.06205 0 
0 0 0 
-6.08644 0.0278537 0 
0.0278537 -5.59512 0 
0 0 0 
-6.07127 0.0193598 0 
0.0193598 -5.61029 0 
0 0 0 
-6.06951 0.0384926 0 
0.0384926 -5.61205 0 
0 0 0 
-6.16702 0.02168 0 
0.02168 -6.04906 0 
0 0 0 
-6.17571 0.0424425 0 
0.0424425 -6.04037 0 
0 0 0 
-6.15482 0.0444726 0 
0.0444726 -6.06126 0 
0 0 0 
-6.18492 0.0940289 0 
0.0940289 -5.9329 0 
0 0 0 
-6.17827 0.0913585 0 
0.0913585 -5.93955 0 
0 0 0 
-6.17928 0.0861085 0 
0.0861085 -5.93854 0 
0 0 0 
-5.43342 -0.13584 0 
-0.13584 -5.1895 0 
0 0 0 
-6.16679 -0.937702 0 
-0.937702 -4.45613 0 
0 0 0 
-6.20396 -0.537775 0 
-0.537775 -4.41896 0 
0 0 0 
-6.0278 -0.0686876 0 
-0.0686876 -6.22766 0 
0 0 0 
-6.02035 -0.0526388 0 
-0.0526388 -6.2351 0 
0 0 0 
-6.01257 -0.0688862 0 
-0.0688862 -6.24288 0 
0 0 0 
-6.01077 -0.0794051 0 
-0.0794051 -6.236 0 
0 0 0 
-6.0174 -0.0648591 0 
-0.0648591 -6.22937 0 
0 0 0 
-6.00503 -0.0653774 0 
-0.0653774 -6.24174 0 
0 0 0 
-6.00653 -0.0614368 0 
-0.0614368 -6.24787 0 
0 0 0 
-6.01524 -0.0620211 0 
-0.0620211 -6.23917 0 
0 0 0 
-6.01038 -0.0514138 0 
-0.0514138 -6.24402 0 
0 0 0 
-6.12573 0.208823 0 
0.208823 -5.97796 0 
0 0 0 
-6.10754 0.172299 0 
0.172299 -5.99615 0 
0 0 0 
-6.14042 0.17432 0 
0.17432 -5.96327 0 
0 0 0 
-5.99936 -0.0527101 0 
-0.0527101 -6.30708 0 
0 0 0 
-6.01681 -0.0576173 0 
-0.0576173 -6.28964 0 
0 0 0 
-6.00384 -0.0444829 0 
-0.0444829 -6.30261 0 
0 0 0 
-6.11637 0.199698 0 
0.199698 -5.9537 0 
0 0 0 
-6.12969 0.162851 0 
0.162851 -5.94038 0 
0 0 0 
-6.1483 0.202755 0 
0.202755 -5.92177 0 
0 0 0 
-6.18539 0.0798689 0 
0.0798689 -5.97737 0 
0 0 0 
-6.19333 0.0811605 0 
0.0811605 -5.96942 0 
0 0 0 
-6.19048 0.0868905 0 
0.0868905 -5.97228 0 
0 0 0 
-6.04019 -0.0205867 0 
-0.0205867 -6.25646 0 
0 0 0 
-6.0345 -0.0347455 0 
-0.0347455 -6.26216 0 
0 0 0 
-6.05107 -0.0376306 0 
-0.0376306 -6.24558 0 
0 0 0 
-6.00405 -0.0516438 0 
-0.0516438 -6.25253 0 
0 0 0 
-6.00804 -0.0599471 0 
-0.0599471 -6.24854 0 
0 0 0 
-6.01074 -0.0523914 0 
-0.0523914 -6.24584 0 
0 0 0 
-6.01009 -0.0521586 0 
-0.0521586 -6.25451 0 
0 0 0 
-6.0062 -0.0595595 0 
-0.0595595 -6.2584 0 
0 0 0 
-6.01321 -0.0591114 0 
-0.0591114 -6.25139 0 
0 0 0 
-6.11795 0.180962 0 
0.180962 -5.99504 0 
0 0 0 
-6.13027 0.149707 0 
0.149707 -5.98271 0 
0 0 0 
-6.14563 0.182714 0 
0.182714 -5.96735 0 
0 0 0 
-6.05352 -0.0484091 0 
-0.0484091 -6.20527 0 
0 0 0 
-6.04385 -0.0303815 0 
-0.0303815 -6.21493 0 
0 0 0 
-6.03802 -0.0463474 0 
-0.0463474 -6.22077 0 
0 0 0 
-6.03653 -0.0609126 0 
-0.0609126 -6.00806 0 
0 0 0 
-6.03901 -0.0635205 0 
-0.0635205 -6.00558 0 
0 0 0 
-6.03636 -0.0638739 0 
-0.0638739 -6.00823 0 
0 0 0 
-6.05743 -0.0278036 0 
-0.0278036 -6.30288 0 
0 0 0 
-6.03652 -0.000106189 0 
-0.000106189 -6.3238 0 
0 0 0 
-6.02743 -0.0209416 0 
-0.0209416 -6.33288 0 
0 0 0 
-6.0852 -0.0133859 0 
-0.0133859 -6.27763 0 
0 0 0 
-6.06789 0.0124635 0 
0.0124635 -6.29495 0 
0 0 0 
-6.05985 -0.00799997 0 
-0.00799997 -6.30299 0 
0 0 0 
-6.15442 0.131584 0 
0.131584 -5.96104 0 
0 0 0 
-6.16112 0.114151 0 
0.114151 -5.95433 0 
0 0 0 
-6.17168 0.133812 0 
0.133812 -5.94377 0 
0 0 0 
-6.0153 -0.0670407 0 
-0.0670407 -6.22653 0 
0 0 0 
-6.02059 -0.053591 0 
-0.053591 -6.22124 0 
0 0 0 
-6.00839 -0.0526563 0 
-0.0526563 -6.23344 0 
0 0 0 
-6.8377 1.62199 0 
1.62199 -6.04797 0 
0 0 0 
-6.98111 0.00549324 0 
0.00549324 -5.90456 0 
0 0 0 
-7.29391 1.72029 0 
1.72029 -5.59176 0 
0 0 0 
-6.0817 -0.0144132 0 
-0.0144132 -6.33793 0 
0 0 0 
-6.05581 0.0246404 0 
0.0246404 -6.36382 0 
0 0 0 
-6.03456 -0.00302854 0 
-0.00302854 -6.38507 0 
0 0 0 
-6.07432 0.000223996 0 
0.000223996 -6.07329 0 
0 0 0 
-6.07451 -0.000723403 0 
-0.000723403 -6.07311 0 
0 0 0 
-6.07441 5.05794e-05 0 
5.05794e-05 -6.07321 0 
0 0 0 
-6.18747 0.0770799 0 
0.0770799 -5.96564 0 
0 0 0 
-6.1917 0.0823039 0 
0.0823039 -5.96141 0 
0 0 0 
-6.18625 0.0805687 0 
0.0805687 -5.96686 0 
0 0 0 
-6.12652 0.236966 0 
0.236966 -5.77242 0 
0 0 0 
-6.12785 0.285015 0 
0.285015 -5.77109 0 
0 0 0 
-6.0881 0.227807 0 
0.227807 -5.81084 0 
0 0 0 
-6.18155 0.0697191 0 
0.0697191 -5.93514 0 
0 0 0 
-6.18384 0.0701261 0 
0.0701261 -5.93286 0 
0 0 0 
-6.18452 0.0670972 0 
0.0670972 -5.93218 0 
0 0 0 
-6.14407 0.139496 0 
0.139496 -5.80374 0 
0 0 0 
-6.16097 0.170794 0 
0.170794 -5.78685 0 
0 0 0 
-6.13979 0.163511 0 
0.163511 -5.80803 0 
0 0 0 
-6.18505 0.0760179 0 
0.0760179 -5.95235 0 
0 0 0 
-6.18843 0.0791839 0 
0.0791839 -5.94897 0 
0 0 0 
-6.18572 0.0768422 0 
0.0768422 -5.95168 0 
0 0 0 
-6.14792 0.143001 0 
0.143001 -5.87132 0 
0 0 0 
-6.16469 0.175529 0 
0.175529 -5.85455 0 
0 0 0 
-6.13977 0.170545 0 
0.170545 -5.87946 0 
0 0 0 
-6.05842 0.265415 0 
0.265415 -6.06149 0 
0 0 0 
-6.08082 0.204649 0 
0.204649 -6.03908 0 
0 0 0 
-6.10402 0.266091 0 
0.266091 -6.01588 0 
0 0 0 
-6.08059 0.00675035 0 
0.00675035 -6.29732 0 
0 0 0 
-6.05236 0.0122983 0 
0.0122983 -6.32556 0 
0 0 0 
-6.07108 -0.0181501 0 
-0.0181501 -6.30683 0 
0 0 0 
-6.19206 0.106985 0 
0.106985 -5.88006 0 
0 0 0 
-6.18991 0.117239 0 
0.117239 -5.88221 0 
0 0 0 
-6.18007 0.10255 0 
0.10255 -5.89204 0 
0 0 0 
-6.07652 0.000603398 0 
0.000603398 -6.07377 0 
0 0 0 
-6.07646 -0.000496665 0 
-0.000496665 -6.07384 0 
0 0 0 
-6.07719 -0.000860515 0 
-0.000860515 -6.07311 0 
0 0 0 
-6.12108 0.00635434 0 
0.00635434 -6.28346 0 
0 0 0 
-6.12662 0.0269465 0 
0.0269465 -6.27792 0 
0 0 0 
-6.10702 0.0329227 0 
0.0329227 -6.29753 0 
0 0 0 
-6.13849 0.15857 0 
0.15857 -5.93308 0 
0 0 0 
-6.16773 0.162286 0 
0.162286 -5.90385 0 
0 0 0 
-6.15633 0.191865 0 
0.191865 -5.91525 0 
0 0 0 
-6.11611 0.00211745 0 
0.00211745 -6.30081 0 
0 0 0 
-6.0935 0.0371174 0 
0.0371174 -6.32341 0 
0 0 0 
-6.08458 0.0104577 0 
0.0104577 -6.33234 0 
0 0 0 
-6.17512 0.0855671 0 
0.0855671 -5.98865 0 
0 0 0 
-6.17978 0.0763995 0 
0.0763995 -5.98399 0 
0 0 0 
-6.18596 0.0864471 0 
0.0864471 -5.97781 0 
0 0 0 
-5.99152 -0.0521713 0 
-0.0521713 -6.34473 0 
0 0 0 
-6.01966 -0.0599724 0 
-0.0599724 -6.31659 0 
0 0 0 
-5.9988 -0.0384592 0 
-0.0384592 -6.33745 0 
0 0 0 
-6.18775 0.080991 0 
0.080991 -5.96567 0 
0 0 0 
-6.19362 0.082792 0 
0.082792 -5.9598 0 
0 0 0 
-6.19225 0.0865224 0 
0.0865224 -5.96118 0 
0 0 0 
-4.75474 -1.02907 0 
-1.02907 -3.05728 0 
0 0 0 
-6.14112 -1.75594 0 
-1.75594 -1.67091 0 
0 0 0 
-4.81829 1.52505 0 
1.52505 -2.99373 0 
0 0 0 
-6.18307 0.101352 0 
0.101352 -5.96967 0 
0 0 0 
-6.17637 0.0909821 0 
0.0909821 -5.97637 0 
0 0 0 
-6.18721 0.0924585 0 
0.0924585 -5.96553 0 
0 0 0 
-6.04557 -0.0407286 0 
-0.0407286 -6.34478 0 
0 0 0 
-6.05644 -0.0138192 0 
-0.0138192 -6.33391 0 
0 0 0 
-6.02269 -0.00712773 0 
-0.00712773 -6.36766 0 
0 0 0 
-6.17761 0.0937471 0 
0.0937471 -5.96099 0 
0 0 0 
-6.18017 0.0866736 0 
0.0866736 -5.95843 0 
0 0 0 
-6.18612 0.0957102 0 
0.0957102 -5.95247 0 
0 0 0 
-6.07766 -4.39918e-05 0 
-4.39918e-05 -6.06994 0 
0 0 0 
-6.07658 0.000329079 0 
0.000329079 -6.07103 0 
0 0 0 
-6.07743 -0.00163769 0 
-0.00163769 -6.07017 0 
0 0 0 
-6.18647 0.102976 0 
0.102976 -5.95335 0 
0 0 0 
-6.17981 0.0930792 0 
0.0930792 -5.96002 0 
0 0 0 
-6.18956 0.0951438 0 
0.0951438 -5.95026 0 
0 0 0 
-6.13207 0.232326 0 
0.232326 -5.93221 0 
0 0 0 
-6.11006 0.188222 0 
0.188222 -5.95422 0 
0 0 0 
-6.14816 0.191647 0 
0.191647 -5.91612 0 
0 0 0 
-6.97091 1.37927 0 
1.37927 -7.61513 0 
0 0 0 
-6.90263 0.832372 0 
0.832372 -7.68341 0 
0 0 0 
-7.22492 0.725849 0 
0.725849 -7.36112 0 
0 0 0 
-7.19952 4.10349 0 
4.10349 -5.11675 0 
0 0 0 
-5.09432 0.324887 0 
0.324887 -7.22194 0 
0 0 0 
-8.39258 0.851598 0 
0.851598 -3.92369 0 
0 0 0 
-7.39823 -0.179739 0 
-0.179739 -9.89764 0 
0 0 0 
-7.45277 -0.246047 0 
-0.246047 -9.8431 0 
0 0 0 
-8.68694 0.510635 0 
0.510635 -8.60893 0 
0 0 0 
-9.0551 -0.74865 0 
-0.74865 -9.93802 0 
0 0 0 
-9.19151 -0.419081 0 
-0.419081 -9.80161 0 
0 0 0 
-9.4074 -0.494629 0 
-0.494629 -9.58573 0 
0 0 0 
-7.4376 0.715465 0 
0.715465 -8.87959 0 
0 0 0 
-7.36487 0.886525 0 
0.886525 -8.95231 0 
0 0 0 
-7.54856 0.316967 0 
0.316967 -8.76863 0 
0 0 0 
-6.10152 0.0202228 0 
0.0202228 -6.0868 0 
0 0 0 
-6.10476 0.0199291 0 
0.0199291 -6.08356 0 
0 0 0 
-6.10269 0.0235323 0 
0.0235323 -6.08563 0 
0 0 0 
-6.10482 0.0250464 0 
0.0250464 -6.0851 0 
0 0 0 
-6.10265 0.0287113 0 
0.0287113 -6.08727 0 
0 0 0 
-6.10144 0.0254427 0 
0.0254427 -6.08848 0 
0 0 0 
-6.15931 -0.00305349 0 
-0.00305349 -6.15494 0 
0 0 0 
-6.15965 -0.00279942 0 
-0.00279942 -6.1546 0 
0 0 0 
-6.16038 -0.00491823 0 
-0.00491823 -6.15387 0 
0 0 0 
-6.15203 -0.00379311 0 
-0.00379311 -6.1664 0 
0 0 0 
-6.14982 -0.00269693 0 
-0.00269693 -6.16861 0 
0 0 0 
-6.15203 -0.00141116 0 
-0.00141116 -6.1664 0 
0 0 0 
-6.10685 0.0223029 0 
0.0223029 -6.08581 0 
0 0 0 
-6.10822 0.0256919 0 
0.0256919 -6.08445 0 
0 0 0 
-6.1045 0.026075 0 
0.026075 -6.08816 0 
0 0 0 
-6.10438 0.0223687 0 
0.0223687 -6.0935 0 
0 0 0 
-6.10539 0.0251349 0 
0.0251349 -6.09248 0 
0 0 0 
-6.10234 0.0253335 0 
0.0253335 -6.09554 0 
0 0 0 
-6.0916 0.00445212 0 
0.00445212 -6.07452 0 
0 0 0 
-6.09474 0.00407172 0 
0.00407172 -6.07138 0 
0 0 0 
-6.0925 0.00773238 0 
0.00773238 -6.07362 0 
0 0 0 
-6.09945 0.0096294 0 
0.0096294 -6.0726 0 
0 0 0 
-6.09613 0.0101558 0 
0.0101558 -6.07593 0 
0 0 0 
-6.09768 0.00551198 0 
0.00551198 -6.07437 0 
0 0 0 
-6.09563 0.00412079 0 
0.00412079 -6.06903 0 
0 0 0 
-6.09671 0.00745574 0 
0.00745574 -6.06796 0 
0 0 0 
-6.09325 0.00801639 0 
0.00801639 -6.07142 0 
0 0 0 
-6.09972 0.0200659 0 
0.0200659 -6.093 0 
0 0 0 
-6.10215 0.0199449 0 
0.0199449 -6.09056 0 
0 0 0 
-6.10052 0.0224621 0 
0.0224621 -6.09219 0 
0 0 0 
-6.11249 0.00126736 0 
0.00126736 -6.12155 0 
0 0 0 
-6.1162 0.00225729 0 
0.00225729 -6.11783 0 
0 0 0 
-6.11515 0.00363533 0 
0.00363533 -6.11888 0 
0 0 0 
-6.07922 -0.0470615 0 
-0.0470615 -6.09449 0 
0 0 0 
-6.07361 -0.0430273 0 
-0.0430273 -6.1001 0 
0 0 0 
-6.07952 -0.0484381 0 
-0.0484381 -6.09419 0 
0 0 0 
-5.91975 -0.00312848 0 
-0.00312848 -5.5583 0 
0 0 0 
-5.93834 -0.00582127 0 
-0.00582127 -5.53972 0 
0 0 0 
-5.9333 -0.0227316 0 
-0.0227316 -5.54476 0 
0 0 0 
-6.09648 -0.00235614 0 
-0.00235614 -6.52568 0 
0 0 0 
-6.11476 0.0110445 0 
0.0110445 -6.50739 0 
0 0 0 
-6.08369 0.0306578 0 
0.0306578 -6.53846 0 
0 0 0 
-6.00982 -0.140322 0 
-0.140322 -5.6432 0 
0 0 0 
-6.01785 -0.167478 0 
-0.167478 -5.63516 0 
0 0 0 
-5.97665 -0.16875 0 
-0.16875 -5.67636 0 
0 0 0 
-6.10002 0.00675502 0 
0.00675502 -6.06826 0 
0 0 0 
-6.09762 0.0109039 0 
0.0109039 -6.07065 0 
0 0 0 
-6.09617 0.00731875 0 
0.00731875 -6.0721 0 
0 0 0 
-6.1219 0.00623784 0 
0.00623784 -6.14676 0 
0 0 0 
-6.12153 0.00289958 0 
0.00289958 -6.14713 0 
0 0 0 
-6.12688 0.00653831 0 
0.00653831 -6.14178 0 
0 0 0 
-6.07787 -0.0231328 0 
-0.0231328 -6.17141 0 
0 0 0 
-6.07794 -0.034838 0 
-0.034838 -6.17133 0 
0 0 0 
-6.08978 -0.0339813 0 
-0.0339813 -6.1595 0 
0 0 0 
-6.10166 0.0243562 0 
0.0243562 -6.09355 0 
0 0 0 
-6.10008 0.0269514 0 
0.0269514 -6.09512 0 
0 0 0 
-6.09945 0.0246963 0 
0.0246963 -6.09575 0 
0 0 0 
-6.10628 0.00585005 0 
0.00585005 -6.11681 0 
0 0 0 
-6.10873 0.00664717 0 
0.00664717 -6.11435 0 
0 0 0 
-6.10576 0.00581613 0 
0.00581613 -6.11733 0 
0 0 0 
-6.05285 -0.0578081 0 
-0.0578081 -6.09222 0 
0 0 0 
-6.05009 -0.0614265 0 
-0.0614265 -6.09498 0 
0 0 0 
-6.05407 -0.0526325 0 
-0.0526325 -6.09101 0 
0 0 0 
-6.26205 -0.701313 0 
-0.701313 -7.49769 0 
0 0 0 
-6.28879 -0.960486 0 
-0.960486 -7.47095 0 
0 0 0 
-6.67326 -0.768176 0 
-0.768176 -7.08648 0 
0 0 0 
-6.10155 0.0152141 0 
0.0152141 -6.09461 0 
0 0 0 
-6.10221 0.0178148 0 
0.0178148 -6.09395 0 
0 0 0 
-6.09871 0.0166196 0 
0.0166196 -6.09745 0 
0 0 0 
-9.48668 -1.44466 0 
-1.44466 -9.94446 0 
0 0 0 
-9.55042 -1.2172 0 
-1.2172 -9.88072 0 
0 0 0 
-9.70912 -1.28727 0 
-1.28727 -9.72202 0 
0 0 0 
-6.06676 -0.040222 0 
-0.040222 -6.09712 0 
0 0 0 
-6.06223 -0.0404573 0 
-0.0404573 -6.10166 0 
0 0 0 
-6.06386 -0.0360458 0 
-0.0360458 -6.10002 0 
0 0 0 
-6.11257 0.000896103 0 
0.000896103 -6.12308 0 
0 0 0 
-6.11513 0.0021836 0 
0.0021836 -6.12052 0 
0 0 0 
-6.11178 0.00122872 0 
0.00122872 -6.12387 0 
0 0 0 
-6.09825 0.0154388 0 
0.0154388 -6.11308 0 
0 0 0 
-6.10251 0.0164106 0 
0.0164106 -6.10882 0 
0 0 0 
-6.09885 0.0201235 0 
0.0201235 -6.11248 0 
0 0 0 
-9.06165 -1.1268 0 
-1.1268 -9.82358 0 
0 0 0 
-8.93947 -1.14684 0 
-1.14684 -9.94577 0 
0 0 0 
-9.22706 -0.884642 0 
-0.884642 -9.65817 0 
0 0 0 
-6.08391 0.000648612 0 
0.000648612 -6.07843 0 
0 0 0 
-6.08358 0.00158204 0 
0.00158204 -6.07875 0 
0 0 0 
-6.08222 0.00170151 0 
0.00170151 -6.08011 0 
0 0 0 
-6.11807 -0.284179 0 
-0.284179 -6.97345 0 
0 0 0 
-6.1103 -0.283708 0 
-0.283708 -6.98123 0 
0 0 0 
-6.05668 -0.267851 0 
-0.267851 -7.03484 0 
0 0 0 
-6.12666 0.00896642 0 
0.00896642 -6.14898 0 
0 0 0 
-6.12201 0.0038709 0 
0.0038709 -6.15362 0 
0 0 0 
-6.12702 0.00408072 0 
0.00408072 -6.14861 0 
0 0 0 
-6.07185 -0.022055 0 
-0.022055 -6.18427 0 
0 0 0 
-6.08126 -0.0352729 0 
-0.0352729 -6.17486 0 
0 0 0 
-6.08372 -0.0202671 0 
-0.0202671 -6.1724 0 
0 0 0 
-6.16607 0.0157476 0 
0.0157476 -6.21787 0 
0 0 0 
-6.16686 0.0129556 0 
0.0129556 -6.21708 0 
0 0 0 
-6.16263 0.0118307 0 
0.0118307 -6.22131 0 
0 0 0 
-6.16741 -0.00238156 0 
-0.00238156 -6.19477 0 
0 0 0 
-6.16959 0.00751856 0 
0.00751856 -6.1926 0 
0 0 0 
-6.16335 0.0132355 0 
0.0132355 -6.19884 0 
0 0 0 
-6.19118 -0.00352789 0 
-0.00352789 -6.19209 0 
0 0 0 
-6.19368 -0.00514913 0 
-0.00514913 -6.18959 0 
0 0 0 
-6.18819 -0.00306531 0 
-0.00306531 -6.19508 0 
0 0 0 
-6.26415 0.0233114 0 
0.0233114 -6.29581 0 
0 0 0 
-6.26945 0.01296 0 
0.01296 -6.29051 0 
0 0 0 
-6.26147 0.0124323 0 
0.0124323 -6.29849 0 
0 0 0 
-6.20411 -0.000136392 0 
-0.000136392 -6.22442 0 
0 0 0 
-6.21072 -0.00322053 0 
-0.00322053 -6.21781 0 
0 0 0 
-6.21665 0.00153102 0 
0.00153102 -6.21188 0 
0 0 0 
-6.50264 0.0724063 0 
0.0724063 -6.77563 0 
0 0 0 
-6.36887 0.140953 0 
0.140953 -6.9094 0 
0 0 0 
-6.41474 0.125852 0 
0.125852 -6.86354 0 
0 0 0 
-5.99859 -0.077058 0 
-0.077058 -6.45306 0 
0 0 0 
-6.02115 -0.0872938 0 
-0.0872938 -6.43049 0 
0 0 0 
-6.02364 -0.0884216 0 
-0.0884216 -6.428 0 
0 0 0 
-6.01927 -1.41564 0 
-1.41564 -7.02958 0 
0 0 0 
-6.67037 -0.325647 0 
-0.325647 -6.37848 0 
0 0 0 
-5.66713 -0.108004 0 
-0.108004 -7.38173 0 
0 0 0 
-6.16254 0.0154942 0 
0.0154942 -6.30057 0 
0 0 0 
-6.16871 0.0424489 0 
0.0424489 -6.29441 0 
0 0 0 
-6.14759 0.0574174 0 
0.0574174 -6.31553 0 
0 0 0 
-6.081 -0.347509 0 
-0.347509 -5.905 0 
0 0 0 
-6.01946 -0.222278 0 
-0.222278 -5.96654 0 
0 0 0 
-6.02319 -0.375237 0 
-0.375237 -5.96281 0 
0 0 0 
-5.9986 -0.1613 0 
-0.1613 -6.29407 0 
0 0 0 
-5.89231 -0.362614 0 
-0.362614 -6.40036 0 
0 0 0 
-6.04509 -0.435563 0 
-0.435563 -6.24759 0 
0 0 0 
-6.00735 -0.0724363 0 
-0.0724363 -5.52374 0 
0 0 0 
-5.99723 -0.0592236 0 
-0.0592236 -5.53385 0 
0 0 0 
-5.73854 -0.290814 0 
-0.290814 -5.79255 0 
0 0 0 
-5.69682 -0.0168645 0 
-0.0168645 -5.47615 0 
0 0 0 
-5.64035 -0.0501366 0 
-0.0501366 -5.53262 0 
0 0 0 
-5.67194 -0.000522 0 
-0.000522 -5.50104 0 
0 0 0 
-6.06233 -0.0288091 0 
-0.0288091 -6.40792 0 
0 0 0 
-6.08331 -0.0021415 0 
-0.0021415 -6.38694 0 
0 0 0 
-6.03993 0.023156 0 
0.023156 -6.43032 0 
0 0 0 
-6.03719 -0.149173 0 
-0.149173 -5.69085 0 
0 0 0 
-6.05861 -0.14828 0 
-0.14828 -5.66943 0 
0 0 0 
-6.03903 -0.152511 0 
-0.152511 -5.68901 0 
0 0 0 
-5.63054 0.0201304 0 
0.0201304 -5.4913 0 
0 0 0 
-5.64586 0.0228656 0 
0.0228656 -5.47598 0 
0 0 0 
-5.61995 -0.0146473 0 
-0.0146473 -5.50189 0 
0 0 0 
-6.03449 -0.0165484 0 
-0.0165484 -5.57364 0 
0 0 0 
-6.01745 -0.000858744 0 
-0.000858744 -5.59069 0 
0 0 0 
-6.03167 0.00282525 0 
0.00282525 -5.57647 0 
0 0 0 
-5.69228 -0.0148945 0 
-0.0148945 -5.46588 0 
0 0 0 
-5.69662 0.015807 0 
0.015807 -5.46154 0 
0 0 0 
-5.63839 0.0759965 0 
0.0759965 -5.51976 0 
0 0 0 
-5.97282 0.138545 0 
0.138545 -5.56571 0 
0 0 0 
-5.97183 0.140579 0 
0.140579 -5.56671 0 
0 0 0 
-6.0048 0.110051 0 
0.110051 -5.53374 0 
0 0 0 
-6.0772 0.231188 0 
0.231188 -5.86282 0 
0 0 0 
-6.12325 0.312322 0 
0.312322 -5.81677 0 
0 0 0 
-6.07881 0.34011 0 
0.34011 -5.86121 0 
0 0 0 
-5.99273 0.274845 0 
0.274845 -6.35581 0 
0 0 0 
-6.05861 0.187244 0 
0.187244 -6.28993 0 
0 0 0 
-6.04554 0.267812 0 
0.267812 -6.303 0 
0 0 0 
-5.92356 0.118509 0 
0.118509 -6.65819 0 
0 0 0 
-5.96208 0.0722392 0 
0.0722392 -6.61967 0 
0 0 0 
-6.06748 0.195245 0 
0.195245 -6.51426 0 
0 0 0 
-6.24219 0.0116233 0 
0.0116233 -6.22316 0 
0 0 0 
-6.2321 0.010763 0 
0.010763 -6.23325 0 
0 0 0 
-6.22364 0.00753626 0 
0.00753626 -6.24171 0 
0 0 0 
-6.1862 0.0107546 0 
0.0107546 -6.17599 0 
0 0 0 
-6.18269 0.0113753 0 
0.0113753 -6.1795 0 
0 0 0 
-6.18829 0.0104932 0 
0.0104932 -6.1739 0 
0 0 0 
-6.17252 -0.00242342 0 
-0.00242342 -6.16468 0 
0 0 0 
-6.17298 0.000470515 0 
0.000470515 -6.16421 0 
0 0 0 
-6.17236 -0.00389521 0 
-0.00389521 -6.16483 0 
0 0 0 
-6.17623 -0.00285754 0 
-0.00285754 -6.17868 0 
0 0 0 
-6.17555 -0.00600996 0 
-0.00600996 -6.17936 0 
0 0 0 
-6.17402 -0.00390486 0 
-0.00390486 -6.18089 0 
0 0 0 
-6.17659 0.00819026 0 
0.00819026 -6.16309 0 
0 0 0 
-6.17423 0.0101971 0 
0.0101971 -6.16545 0 
0 0 0 
-6.17051 0.00468797 0 
0.00468797 -6.16917 0 
0 0 0 
-7.07686 -1.03683 0 
-1.03683 -8.15494 0 
0 0 0 
-6.94152 -1.25874 0 
-1.25874 -8.29028 0 
0 0 0 
-7.09606 -1.13512 0 
-1.13512 -8.13573 0 
0 0 0 
-5.97813 -0.088497 0 
-0.088497 -6.27301 0 
0 0 0 
-5.98814 -0.104368 0 
-0.104368 -6.26299 0 
0 0 0 
-6.00433 -0.071967 0 
-0.071967 -6.24681 0 
0 0 0 
-6.12409 0.000466803 0 
0.000466803 -6.14394 0 
0 0 0 
-6.12687 4.84281e-05 0 
4.84281e-05 -6.14117 0 
0 0 0 
-6.12823 0.00331279 0 
0.00331279 -6.13981 0 
0 0 0 
-6.0864 -0.0194543 0 
-0.0194543 -6.1449 0 
0 0 0 
-6.0797 -0.0227513 0 
-0.0227513 -6.15161 0 
0 0 0 
-6.08935 -0.0313743 0 
-0.0313743 -6.14196 0 
0 0 0 
-8.10565 -1.02368 0 
-1.02368 -9.08805 0 
0 0 0 
-8.01518 -1.25706 0 
-1.25706 -9.17852 0 
0 0 0 
-7.92237 -1.29588 0 
-1.29588 -9.27133 0 
0 0 0 
-5.97487 -0.104173 0 
-0.104173 -6.29815 0 
0 0 0 
-5.98982 -0.0934388 0 
-0.0934388 -6.28321 0 
0 0 0 
-5.96771 -0.088128 0 
-0.088128 -6.30532 0 
0 0 0 
-6.11665 0.00538537 0 
0.00538537 -6.12994 0 
0 0 0 
-6.11529 0.00597231 0 
0.00597231 -6.13129 0 
0 0 0 
-6.11229 0.00485651 0 
0.00485651 -6.1343 0 
0 0 0 
-6.07189 -0.0401598 0 
-0.0401598 -6.13497 0 
0 0 0 
-6.06925 -0.0465125 0 
-0.0465125 -6.13762 0 
0 0 0 
-6.06861 -0.0425675 0 
-0.0425675 -6.13826 0 
0 0 0 
-6.09997 0.00891691 0 
0.00891691 -6.07769 0 
0 0 0 
-6.09986 0.0117322 0 
0.0117322 -6.07781 0 
0 0 0 
-6.09609 0.0112895 0 
0.0112895 -6.08157 0 
0 0 0 
-5.93837 -0.208708 0 
-0.208708 -6.69277 0 
0 0 0 
-5.94318 -0.296625 0 
-0.296625 -6.68796 0 
0 0 0 
-6.06753 -0.227213 0 
-0.227213 -6.56361 0 
0 0 0 
-6.12189 -0.00265803 0 
-0.00265803 -6.13323 0 
0 0 0 
-6.12365 -0.00404713 0 
-0.00404713 -6.13147 0 
0 0 0 
-6.12664 -0.00130601 0 
-0.00130601 -6.12848 0 
0 0 0 
-6.08448 -0.0202403 0 
-0.0202403 -6.11481 0 
0 0 0 
-6.08292 -0.0223417 0 
-0.0223417 -6.11637 0 
0 0 0 
-6.09095 -0.0265922 0 
-0.0265922 -6.10835 0 
0 0 0 
-6.1766 -0.00404723 0 
-0.00404723 -6.1746 0 
0 0 0 
-6.17946 -0.00442185 0 
-0.00442185 -6.17174 0 
0 0 0 
-6.17753 -0.00378559 0 
-0.00378559 -6.17367 0 
0 0 0 
-6.16676 0.00348666 0 
0.00348666 -6.16106 0 
0 0 0 
-6.16611 0.00282374 0 
0.00282374 -6.16171 0 
0 0 0 
-6.16577 0.00267429 0 
0.00267429 -6.16205 0 
0 0 0 
-6.09997 0.016191 0 
0.016191 -6.09947 0 
0 0 0 
-6.10061 0.0160982 0 
0.0160982 -6.09882 0 
0 0 0 
-6.10095 0.0166418 0 
0.0166418 -6.09849 0 
0 0 0 
-6.10047 0.0136311 0 
0.0136311 -6.0971 0 
0 0 0 
-6.10122 0.0151058 0 
0.0151058 -6.09634 0 
0 0 0 
-6.09938 0.0162419 0 
0.0162419 -6.09819 0 
0 0 0 
-6.10085 0.0220799 0 
0.0220799 -6.11169 0 
0 0 0 
-6.10104 0.0235649 0 
0.0235649 -6.1115 0 
0 0 0 
-6.09791 0.0231995 0 
0.0231995 -6.11463 0 
0 0 0 
-6.00948 -0.222686 0 
-0.222686 -6.24174 0 
0 0 0 
-6.05334 -0.210216 0 
-0.210216 -6.19788 0 
0 0 0 
-6.01584 -0.173482 0 
-0.173482 -6.23538 0 
0 0 0 
-6.31763 -1.08768 0 
-1.08768 -7.22757 0 
0 0 0 
-6.46611 -1.2921 0 
-1.2921 -7.07909 0 
0 0 0 
-6.68971 -0.86708 0 
-0.86708 -6.85549 0 
0 0 0 
-6.20976 -0.761359 0 
-0.761359 -6.74072 0 
0 0 0 
-6.23591 -0.855551 0 
-0.855551 -6.71457 0 
0 0 0 
-6.22179 -0.916952 0 
-0.916952 -6.72869 0 
0 0 0 
-6.04193 -0.100478 0 
-0.100478 -6.14071 0 
0 0 0 
-6.03353 -0.0949811 0 
-0.0949811 -6.14911 0 
0 0 0 
-6.03486 -0.10897 0 
-0.10897 -6.14777 0 
0 0 0 
-6.15291 0.000348471 0 
0.000348471 -6.15694 0 
0 0 0 
-6.15125 -0.00430718 0 
-0.00430718 -6.1586 0 
0 0 0 
-6.15483 -0.00152558 0 
-0.00152558 -6.15501 0 
0 0 0 
-6.12736 0.00153113 0 
0.00153113 -6.18561 0 
0 0 0 
-6.13081 -0.0122124 0 
-0.0122124 -6.18217 0 
0 0 0 
-6.14024 -0.00551638 0 
-0.00551638 -6.17274 0 
0 0 0 
-6.07871 -0.00085055 0 
-0.00085055 -6.07871 0 
0 0 0 
-6.07901 -0.0003487 0 
-0.0003487 -6.07842 0 
0 0 0 
-6.07932 -0.000689279 0 
-0.000689279 -6.07811 0 
0 0 0 
-6.1005 0.0131461 0 
0.0131461 -6.09587 0 
0 0 0 
-6.10066 0.0138861 0 
0.0138861 -6.09571 0 
0 0 0 
-6.10033 0.0125035 0 
0.0125035 -6.09603 0 
0 0 0 
-6.09891 0.00904895 0 
0.00904895 -6.09371 0 
0 0 0 
-6.10039 0.0106775 0 
0.0106775 -6.09223 0 
0 0 0 
-6.09745 0.0130617 0 
0.0130617 -6.09517 0 
0 0 0 
-6.01919 -0.25184 0 
-0.25184 -6.14951 0 
0 0 0 
-6.01461 -0.27676 0 
-0.27676 -6.15409 0 
0 0 0 
-6.03242 -0.3023 0 
-0.3023 -6.13627 0 
0 0 0 
-5.99704 -0.34096 0 
-0.34096 -6.24124 0 
0 0 0 
-6.04246 -0.395672 0 
-0.395672 -6.19582 0 
0 0 0 
-6.08657 -0.267236 0 
-0.267236 -6.15171 0 
0 0 0 
-6.09816 0.0202401 0 
0.0202401 -6.13003 0 
0 0 0 
-6.09916 0.0174151 0 
0.0174151 -6.12903 0 
0 0 0 
-6.10245 0.0205421 0 
0.0205421 -6.12573 0 
0 0 0 
-6.02936 -0.0564942 0 
-0.0564942 -6.18323 0 
0 0 0 
-6.02199 -0.0741818 0 
-0.0741818 -6.19059 0 
0 0 0 
-6.03865 -0.0717653 0 
-0.0717653 -6.17393 0 
0 0 0 
-6.08272 -0.000338289 0 
-0.000338289 -6.08096 0 
0 0 0 
-6.08329 -0.000245839 0 
-0.000245839 -6.08039 0 
0 0 0 
-6.08196 0.000490345 0 
0.000490345 -6.08172 0 
0 0 0 
-6.08697 0.00103845 0 
0.00103845 -6.08311 0 
0 0 0 
-6.08685 0.00249803 0 
0.00249803 -6.08323 0 
0 0 0 
-6.0868 0.000343172 0 
0.000343172 -6.08328 0 
0 0 0 
-6.03655 -0.363948 0 
-0.363948 -6.51414 0 
0 0 0 
-6.08313 -0.362565 0 
-0.362565 -6.46756 0 
0 0 0 
-6.0754 -0.332449 0 
-0.332449 -6.47528 0 
0 0 0 
-6.09673 0.00997278 0 
0.00997278 -6.08498 0 
0 0 0 
-6.09698 0.00966875 0 
0.00966875 -6.08473 0 
0 0 0 
-6.0968 0.00916511 0 
0.00916511 -6.08491 0 
0 0 0 
-7.36119 -1.75401 0 
-1.75401 -8.43576 0 
0 0 0 
-7.62847 -1.87202 0 
-1.87202 -8.16848 0 
0 0 0 
-7.87035 -1.39539 0 
-1.39539 -7.9266 0 
0 0 0 
-6.79975 -1.2521 0 
-1.2521 -7.54285 0 
0 0 0 
-6.86796 -1.39878 0 
-1.39878 -7.47464 0 
0 0 0 
-6.79519 -1.45861 0 
-1.45861 -7.5474 0 
0 0 0 
-5.97251 -0.106499 0 
-0.106499 -6.36907 0 
0 0 0 
-5.99829 -0.107243 0 
-0.107243 -6.3433 0 
0 0 0 
-6.00711 -0.0725713 0 
-0.0725713 -6.33447 0 
0 0 0 
-5.99749 -0.0766116 0 
-0.0766116 -6.32641 0 
0 0 0 
-6.00055 -0.0713225 0 
-0.0713225 -6.32335 0 
0 0 0 
-5.98364 -0.0726548 0 
-0.0726548 -6.34026 0 
0 0 0 
-5.98162 -0.0699371 0 
-0.0699371 -6.27809 0 
0 0 0 
-5.98353 -0.0806599 0 
-0.0806599 -6.27617 0 
0 0 0 
-5.99569 -0.0719968 0 
-0.0719968 -6.26402 0 
0 0 0 
-5.99012 -0.0792712 0 
-0.0792712 -6.23795 0 
0 0 0 
-5.99104 -0.0821275 0 
-0.0821275 -6.23703 0 
0 0 0 
-5.99148 -0.0877553 0 
-0.0877553 -6.23659 0 
0 0 0 
-6.0746 7.1515e-05 0 
7.1515e-05 -6.07658 0 
0 0 0 
-6.07465 -7.95559e-05 0 
-7.95559e-05 -6.07653 0 
0 0 0 
-6.07512 1.86178e-05 0 
1.86178e-05 -6.07606 0 
0 0 0 
-6.07525 0.000110254 0 
0.000110254 -6.07573 0 
0 0 0 
-6.07535 0.000154189 0 
0.000154189 -6.07563 0 
0 0 0 
-6.07531 0.000176123 0 
0.000176123 -6.07568 0 
0 0 0 
-6.07556 -0.000149301 0 
-0.000149301 -6.07587 0 
0 0 0 
-6.07548 -0.000115796 0 
-0.000115796 -6.07595 0 
0 0 0 
-6.07552 -0.000180755 0 
-0.000180755 -6.07592 0 
0 0 0 
-9.46271 -2.16854 0 
-2.16854 -10.1097 0 
0 0 0 
-9.82997 -1.99015 0 
-1.99015 -9.74242 0 
0 0 0 
-9.95133 -1.83017 0 
-1.83017 -9.62106 0 
0 0 0 
-9.1093 -2.27349 0 
-2.27349 -9.64723 0 
0 0 0 
-9.77446 -2.23193 0 
-2.23193 -8.98206 0 
0 0 0 
-9.28915 -2.00278 0 
-2.00278 -9.46738 0 
0 0 0 
-6.2352 0.0586425 0 
0.0586425 -6.3648 0 
0 0 0 
-6.24549 0.0655605 0 
0.0655605 -6.35451 0 
0 0 0 
-6.24635 0.0551336 0 
0.0551336 -6.35365 0 
0 0 0 
-5.91654 0.114262 0 
0.114262 -5.59608 0 
0 0 0 
-6.07983 0.0908359 0 
0.0908359 -5.4328 0 
0 0 0 
-5.92067 0.245956 0 
0.245956 -5.59196 0 
0 0 0 
-6.17953 -0.000627429 0 
-0.000627429 -6.25997 0 
0 0 0 
-6.15927 -0.00540169 0 
-0.00540169 -6.28022 0 
0 0 0 
-6.15399 -0.0303393 0 
-0.0303393 -6.28551 0 
0 0 0 
-6.16444 0.00054784 0 
0.00054784 -6.16397 0 
0 0 0 
-6.16514 0.000271951 0 
0.000271951 -6.16327 0 
0 0 0 
-6.16484 0.000869077 0 
0.000869077 -6.16357 0 
0 0 0 
-6.16457 -0.000252022 0 
-0.000252022 -6.16266 0 
0 0 0 
-6.16384 -0.000579794 0 
-0.000579794 -6.16339 0 
0 0 0 
-6.16418 -0.00080159 0 
-0.00080159 -6.16305 0 
0 0 0 
-6.17453 -0.000671787 0 
-0.000671787 -6.17194 0 
0 0 0 
-6.17424 -0.00085168 0 
-0.00085168 -6.17223 0 
0 0 0 
-6.17434 -0.000936952 0 
-0.000936952 -6.17212 0 
0 0 0 
-6.17274 0.000877832 0 
0.000877832 -6.17127 0 
0 0 0 
-6.17337 0.000603973 0 
0.000603973 -6.17064 0 
0 0 0 
-6.17301 0.000996659 0 
0.000996659 -6.171 0 
0 0 0 
-6.09566 0.00578299 0 
0.00578299 -6.07549 0 
0 0 0 
-6.09479 0.00854986 0 
0.00854986 -6.07636 0 
0 0 0 
-6.09255 0.00665554 0 
0.00665554 -6.0786 0 
0 0 0 
-6.09769 0.0230229 0 
0.0230229 -6.10196 0 
0 0 0 
-6.09799 0.022166 0 
0.022166 -6.10166 0 
0 0 0 
-6.09983 0.0231039 0 
0.0231039 -6.09982 0 
0 0 0 
-6.01542 -0.156267 0 
-0.156267 -6.28237 0 
0 0 0 
-6.01596 -0.15042 0 
-0.15042 -6.28183 0 
0 0 0 
-5.99233 -0.15781 0 
-0.15781 -6.30545 0 
0 0 0 
-6.17948 -0.00458998 0 
-0.00458998 -6.17627 0 
0 0 0 
-6.18082 -0.0025282 0 
-0.0025282 -6.17493 0 
0 0 0 
-6.18135 -0.00505861 0 
-0.00505861 -6.1744 0 
0 0 0 
-6.16756 0.00312016 0 
0.00312016 -6.15806 0 
0 0 0 
-6.16673 0.00425553 0 
0.00425553 -6.1589 0 
0 0 0 
-6.16717 0.00537255 0 
0.00537255 -6.15846 0 
0 0 0 
-6.08983 0.00484131 0 
0.00484131 -6.08154 0 
0 0 0 
-6.09125 0.00440831 0 
0.00440831 -6.08012 0 
0 0 0 
-6.09059 0.005435 0 
0.005435 -6.08078 0 
0 0 0 
-6.10236 0.0220804 0 
0.0220804 -6.1002 0 
0 0 0 
-6.10274 0.0229414 0 
0.0229414 -6.09981 0 
0 0 0 
-6.10092 0.0233802 0 
0.0233802 -6.10164 0 
0 0 0 
-6.01435 -0.0918069 0 
-0.0918069 -6.19611 0 
0 0 0 
-6.00484 -0.112358 0 
-0.112358 -6.20562 0 
0 0 0 
-6.03058 -0.101522 0 
-0.101522 -6.17988 0 
0 0 0 
-6.13262 -0.0021635 0 
-0.0021635 -6.14745 0 
0 0 0 
-6.13731 -0.000736838 0 
-0.000736838 -6.14277 0 
0 0 0 
-6.13465 -0.000628567 0 
-0.000628567 -6.14543 0 
0 0 0 
-6.11153 -0.0188154 0 
-0.0188154 -6.14725 0 
0 0 0 
-6.10121 -0.0142122 0 
-0.0142122 -6.15757 0 
0 0 0 
-6.10601 -0.0203239 0 
-0.0203239 -6.15278 0 
0 0 0 
-5.99813 -0.28487 0 
-0.28487 -7.05996 0 
0 0 0 
-5.98819 -0.313872 0 
-0.313872 -7.0699 0 
0 0 0 
-6.0521 -0.246858 0 
-0.246858 -7.00599 0 
0 0 0 
-6.06282 -0.595898 0 
-0.595898 -6.95098 0 
0 0 0 
-6.24342 -0.558521 0 
-0.558521 -6.77037 0 
0 0 0 
-6.12003 -0.367059 0 
-0.367059 -6.89377 0 
0 0 0 
-6.09865 0.0178755 0 
0.0178755 -6.10242 0 
0 0 0 
-6.10108 0.017409 0 
0.017409 -6.09998 0 
0 0 0 
-6.10041 0.0207768 0 
0.0207768 -6.10066 0 
0 0 0 
-6.13398 0.00369045 0 
0.00369045 -6.15554 0 
0 0 0 
-6.13311 0.000580259 0 
0.000580259 -6.15641 0 
0 0 0 
-6.13886 0.00410724 0 
0.00410724 -6.15066 0 
0 0 0 
-6.09759 -0.0129157 0 
-0.0129157 -6.18747 0 
0 0 0 
-6.09845 -0.0228912 0 
-0.0228912 -6.18661 0 
0 0 0 
-6.10983 -0.0221333 0 
-0.0221333 -6.17523 0 
0 0 0 
-6.18222 -0.00806079 0 
-0.00806079 -6.18572 0 
0 0 0 
-6.1876 -0.00777855 0 
-0.00777855 -6.18034 0 
0 0 0 
-6.18497 -0.00484932 0 
-0.00484932 -6.18297 0 
0 0 0 
-6.16272 0.00683193 0 
0.00683193 -6.21892 0 
0 0 0 
-6.16687 0.00483009 0 
0.00483009 -6.21477 0 
0 0 0 
-6.16296 0.016339 0 
0.016339 -6.21868 0 
0 0 0 
-6.22709 0.00253468 0 
0.00253468 -6.25826 0 
0 0 0 
-6.23604 -0.000132662 0 
-0.000132662 -6.24931 0 
0 0 0 
-6.24328 0.00858647 0 
0.00858647 -6.24207 0 
0 0 0 
-6.21662 -0.0068422 0 
-0.0068422 -6.2354 0 
0 0 0 
-6.23286 -0.0050654 0 
-0.0050654 -6.21916 0 
0 0 0 
-6.22404 -0.00152532 0 
-0.00152532 -6.22799 0 
0 0 0 
-6.24186 -0.00199862 0 
-0.00199862 -6.26345 0 
0 0 0 
-6.25732 0.000628305 0 
0.000628305 -6.24799 0 
0 0 0 
-6.25069 0.00891197 0 
0.00891197 -6.25461 0 
0 0 0 
-6.1363 0.031444 0 
0.031444 -6.35998 0 
0 0 0 
-6.15607 0.0250993 0 
0.0250993 -6.34021 0 
0 0 0 
-6.13281 0.0625301 0 
0.0625301 -6.36347 0 
0 0 0 
-5.97611 -0.0475742 0 
-0.0475742 -6.39744 0 
0 0 0 
-6.01037 -0.0626679 0 
-0.0626679 -6.36318 0 
0 0 0 
-5.98762 -0.0289546 0 
-0.0289546 -6.38593 0 
0 0 0 
-6.81013 0.251774 0 
0.251774 -7.35402 0 
0 0 0 
-6.41061 0.527743 0 
0.527743 -7.75354 0 
0 0 0 
-6.87223 -0.69388 0 
-0.69388 -7.29192 0 
0 0 0 
-6.04232 -0.265208 0 
-0.265208 -6.07827 0 
0 0 0 
-5.9725 -0.282762 0 
-0.282762 -6.1481 0 
0 0 0 
-6.00338 -0.406492 0 
-0.406492 -6.11721 0 
0 0 0 
-5.61009 -0.0110815 0 
-0.0110815 -5.5448 0 
0 0 0 
-5.60789 -0.0743448 0 
-0.0743448 -5.547 0 
0 0 0 
-5.56 -0.0460038 0 
-0.0460038 -5.59489 0 
0 0 0 
-6.09206 -0.118816 0 
-0.118816 -5.69252 0 
0 0 0 
-6.08988 -0.0983953 0 
-0.0983953 -5.69469 0 
0 0 0 
-6.10391 -0.131609 0 
-0.131609 -5.68066 0 
0 0 0 
-6.02673 -0.0632799 0 
-0.0632799 -5.62632 0 
0 0 0 
-6.03886 -0.0715575 0 
-0.0715575 -5.61419 0 
0 0 0 
-6.04125 -0.086057 0 
-0.086057 -5.6118 0 
0 0 0 
-6.06922 -0.0454067 0 
-0.0454067 -5.62865 0 
0 0 0 
-6.06635 -0.0257505 0 
-0.0257505 -5.63152 0 
0 0 0 
-6.0853 -0.0458178 0 
-0.0458178 -5.61257 0 
0 0 0 
-5.59037 0.0102116 0 
0.0102116 -5.5163 0 
0 0 0 
-5.60398 -0.0144387 0 
-0.0144387 -5.50269 0 
0 0 0 
-5.57031 0.00949459 0 
0.00949459 -5.53637 0 
0 0 0 
-5.61889 0.026904 0 
0.026904 -5.4843 0 
0 0 0 
-5.63968 0.0255753 0 
0.0255753 -5.46351 0 
0 0 0 
-5.61994 -0.00144635 0 
-0.00144635 -5.48325 0 
0 0 0 
-5.59574 0.0173692 0 
0.0173692 -5.51432 0 
0 0 0 
-5.60773 -0.0118109 0 
-0.0118109 -5.50234 0 
0 0 0 
-5.58149 0.0136753 0 
0.0136753 -5.52857 0 
0 0 0 
-6.08264 0.180252 0 
0.180252 -5.63482 0 
0 0 0 
-6.05829 0.204447 0 
0.204447 -5.65917 0 
0 0 0 
-6.08757 0.192876 0 
0.192876 -5.62989 0 
0 0 0 
-6.06199 0.279327 0 
0.279327 -5.98474 0 
0 0 0 
-6.1052 0.278527 0 
0.278527 -5.94152 0 
0 0 0 
-6.08823 0.363926 0 
0.363926 -5.9585 0 
0 0 0 
-5.97859 0.256693 0 
0.256693 -6.18345 0 
0 0 0 
-6.06543 0.254999 0 
0.254999 -6.09661 0 
0 0 0 
-5.99404 0.362911 0 
0.362911 -6.168 0 
0 0 0 
-6.05147 0.24659 0 
0.24659 -6.04014 0 
0 0 0 
-6.07972 0.380165 0 
0.380165 -6.01189 0 
0 0 0 
-5.99495 0.352111 0 
0.352111 -6.09665 0 
0 0 0 
-6.14101 -0.0524551 0 
-0.0524551 -6.68523 0 
0 0 0 
-6.25306 -0.0248234 0 
-0.0248234 -6.57318 0 
0 0 0 
-6.2005 0.0981997 0 
0.0981997 -6.62574 0 
0 0 0 
-6.1283 -0.0151145 0 
-0.0151145 -6.52234 0 
0 0 0 
-6.1568 -0.0797155 0 
-0.0797155 -6.49384 0 
0 0 0 
-6.19612 0.0185957 0 
0.0185957 -6.45452 0 
0 0 0 
-6.22507 -0.0780581 0 
-0.0780581 -6.42625 0 
0 0 0 
-6.27695 -0.058489 0 
-0.058489 -6.37436 0 
0 0 0 
-6.23774 0.0189564 0 
0.0189564 -6.41358 0 
0 0 0 
-6.2204 -0.0270448 0 
-0.0270448 -6.36419 0 
0 0 0 
-6.22655 -0.0563102 0 
-0.0563102 -6.35803 0 
0 0 0 
-6.24885 -0.00287517 0 
-0.00287517 -6.33573 0 
0 0 0 
-6.24451 -0.0239963 0 
-0.0239963 -6.28454 0 
0 0 0 
-6.23108 -0.0154134 0 
-0.0154134 -6.29797 0 
0 0 0 
-6.24109 -0.0223185 0 
-0.0223185 -6.28795 0 
0 0 0 
-6.22316 0.0209157 0 
0.0209157 -6.20579 0 
0 0 0 
-6.20222 0.0204432 0 
0.0204432 -6.22673 0 
0 0 0 
-6.21635 0.0142063 0 
0.0142063 -6.2126 0 
0 0 0 
-6.21006 0.0144619 0 
0.0144619 -6.19328 0 
0 0 0 
-6.20356 0.0146976 0 
0.0146976 -6.19978 0 
0 0 0 
-6.19768 0.00925254 0 
0.00925254 -6.20566 0 
0 0 0 
-6.19715 0.0176788 0 
0.0176788 -6.18683 0 
0 0 0 
-6.18938 0.0176155 0 
0.0176155 -6.1946 0 
0 0 0 
-6.19357 0.013805 0 
0.013805 -6.19041 0 
0 0 0 
-6.17324 -0.00177839 0 
-0.00177839 -6.17432 0 
0 0 0 
-6.17214 -0.00310946 0 
-0.00310946 -6.17542 0 
0 0 0 
-6.17181 -0.00731093 0 
-0.00731093 -6.17575 0 
0 0 0 
-6.17127 0.00819197 0 
0.00819197 -6.16421 0 
0 0 0 
-6.1686 0.00785062 0 
0.00785062 -6.16688 0 
0 0 0 
-6.16965 0.00675221 0 
0.00675221 -6.16583 0 
0 0 0 
-6.09329 0.00388948 0 
0.00388948 -6.07525 0 
0 0 0 
-6.09371 0.00647282 0 
0.00647282 -6.07483 0 
0 0 0 
-6.09073 0.00722881 0 
0.00722881 -6.07781 0 
0 0 0 
-6.19983 0.0337245 0 
0.0337245 -6.38152 0 
0 0 0 
-6.2297 0.0385427 0 
0.0385427 -6.35165 0 
0 0 0 
-6.24157 0.0735984 0 
0.0735984 -6.33978 0 
0 0 0 
-6.17078 -0.0239916 0 
-0.0239916 -6.27871 0 
0 0 0 
-6.16906 -0.0272062 0 
-0.0272062 -6.28043 0 
0 0 0 
-6.15991 -0.010916 0 
-0.010916 -6.28958 0 
0 0 0 
-5.90667 0.133391 0 
0.133391 -5.62396 0 
0 0 0 
-6.00495 0.149538 0 
0.149538 -5.52568 0 
0 0 0 
-5.99486 0.15936 0 
0.15936 -5.53577 0 
0 0 0 
-6.07604 -0.000394918 0 
-0.000394918 -6.07693 0 
0 0 0 
-6.07621 -0.000838016 0 
-0.000838016 -6.07676 0 
0 0 0 
-6.07592 -0.000894817 0 
-0.000894817 -6.07705 0 
0 0 0 
-6.1017 0.0110689 0 
0.0110689 -6.07843 0 
0 0 0 
-6.1002 0.0142054 0 
0.0142054 -6.07993 0 
0 0 0 
-6.09842 0.0108392 0 
0.0108392 -6.08171 0 
0 0 0 
-6.03232 -0.199637 0 
-0.199637 -6.61713 0 
0 0 0 
-6.01762 -0.246014 0 
-0.246014 -6.63183 0 
0 0 0 
-6.03648 -0.236857 0 
-0.236857 -6.61297 0 
0 0 0 
-6.12066 -0.00354689 0 
-0.00354689 -6.1289 0 
0 0 0 
-6.12439 -0.0026914 0 
-0.0026914 -6.12517 0 
0 0 0 
-6.12312 -0.00198523 0 
-0.00198523 -6.12644 0 
0 0 0 
-6.09376 -0.0285312 0 
-0.0285312 -6.10481 0 
0 0 0 
-6.08836 -0.0250487 0 
-0.0250487 -6.11021 0 
0 0 0 
-6.09349 -0.0274151 0 
-0.0274151 -6.10508 0 
0 0 0 
-5.97024 -0.158624 0 
-0.158624 -6.3062 0 
0 0 0 
-5.97535 -0.176043 0 
-0.176043 -6.30108 0 
0 0 0 
-5.99216 -0.145117 0 
-0.145117 -6.28427 0 
0 0 0 
-5.97357 -0.174494 0 
-0.174494 -5.68714 0 
0 0 0 
-6.00907 -0.2016 0 
-0.2016 -5.65164 0 
0 0 0 
-6.0386 -0.208481 0 
-0.208481 -5.6221 0 
0 0 0 
-6.14231 0.010325 0 
0.010325 -6.5119 0 
0 0 0 
-6.10781 0.0862076 0 
0.0862076 -6.5464 0 
0 0 0 
-6.03352 0.0464272 0 
0.0464272 -6.62068 0 
0 0 0 
-5.8202 0.0197679 0 
0.0197679 -5.52819 0 
0 0 0 
-5.83749 -0.0186537 0 
-0.0186537 -5.51091 0 
0 0 0 
-5.8347 -0.0152621 0 
-0.0152621 -5.5137 0 
0 0 0 
-6.01418 -0.0767313 0 
-0.0767313 -6.1901 0 
0 0 0 
-6.00484 -0.0970158 0 
-0.0970158 -6.19944 0 
0 0 0 
-6.02575 -0.10684 0 
-0.10684 -6.17853 0 
0 0 0 
-6.09871 0.0153473 0 
0.0153473 -6.0983 0 
0 0 0 
-6.0993 0.0151621 0 
0.0151621 -6.09771 0 
0 0 0 
-6.09888 0.0156019 0 
0.0156019 -6.09813 0 
0 0 0 
-6.09602 0.0226723 0 
0.0226723 -6.11404 0 
0 0 0 
-6.09609 0.0222465 0 
0.0222465 -6.11398 0 
0 0 0 
-6.09744 0.0235627 0 
0.0235627 -6.11263 0 
0 0 0 
-5.9859 -0.18866 0 
-0.18866 -6.21523 0 
0 0 0 
-6.0073 -0.174109 0 
-0.174109 -6.19382 0 
0 0 0 
-5.97536 -0.177693 0 
-0.177693 -6.22576 0 
0 0 0 
-6.17573 -0.000551459 0 
-0.000551459 -6.16886 0 
0 0 0 
-6.17572 0.00173716 0 
0.00173716 -6.16888 0 
0 0 0 
-6.1758 0.00105418 0 
0.00105418 -6.16879 0 
0 0 0 
-6.16963 -9.55793e-05 0 
-9.55793e-05 -6.15921 0 
0 0 0 
-6.17026 -0.00162384 0 
-0.00162384 -6.15858 0 
0 0 0 
-6.17222 -0.000162758 0 
-0.000162758 -6.15661 0 
0 0 0 
-6.55598 -1.07604 0 
-1.07604 -6.93446 0 
0 0 0 
-6.69416 -1.05032 0 
-1.05032 -6.79628 0 
0 0 0 
-6.6451 -0.987786 0 
-0.987786 -6.84534 0 
0 0 0 
-6.0077 -0.107598 0 
-0.107598 -6.15181 0 
0 0 0 
-6.00705 -0.114555 0 
-0.114555 -6.15247 0 
0 0 0 
-6.01953 -0.100046 0 
-0.100046 -6.13999 0 
0 0 0 
-6.16023 -0.00194629 0 
-0.00194629 -6.15929 0 
0 0 0 
-6.15964 -0.00408275 0 
-0.00408275 -6.15987 0 
0 0 0 
-6.162 -0.000160366 0 
-0.000160366 -6.15752 0 
0 0 0 
-6.14554 0.00390168 0 
0.00390168 -6.18505 0 
0 0 0 
-6.14494 -0.00410299 0 
-0.00410299 -6.18564 0 
0 0 0 
-6.15259 -0.00850367 0 
-0.00850367 -6.178 0 
0 0 0 
-6.07691 -0.00127864 0 
-0.00127864 -6.07798 0 
0 0 0 
-6.07777 -0.00132994 0 
-0.00132994 -6.07712 0 
0 0 0 
-6.07732 -0.000833424 0 
-0.000833424 -6.07757 0 
0 0 0 
-6.07695 -0.00033169 0 
-0.00033169 -6.07666 0 
0 0 0 
-6.07662 -6.31269e-05 0 
-6.31269e-05 -6.07699 0 
0 0 0 
-6.07632 0.000258083 0 
0.000258083 -6.07729 0 
0 0 0 
-6.17077 -0.00160609 0 
-0.00160609 -6.15757 0 
0 0 0 
-6.17083 -0.0018822 0 
-0.0018822 -6.15752 0 
0 0 0 
-6.16933 -0.000514074 0 
-0.000514074 -6.15902 0 
0 0 0 
-6.16663 0.00274667 0 
0.00274667 -6.17658 0 
0 0 0 
-6.16885 -0.000767169 0 
-0.000767169 -6.17436 0 
0 0 0 
-6.16811 0.0016932 0 
0.0016932 -6.1751 0 
0 0 0 
-6.09667 0.0116016 0 
0.0116016 -6.09534 0 
0 0 0 
-6.09746 0.0113173 0 
0.0113173 -6.09455 0 
0 0 0 
-6.09687 0.0118196 0 
0.0118196 -6.09514 0 
0 0 0 
-6.09724 -0.321231 0 
-0.321231 -6.16998 0 
0 0 0 
-6.11348 -0.315279 0 
-0.315279 -6.15374 0 
0 0 0 
-6.10933 -0.309678 0 
-0.309678 -6.15789 0 
0 0 0 
-6.10162 0.0221509 0 
0.0221509 -6.12572 0 
0 0 0 
-6.09957 0.0195369 0 
0.0195369 -6.12778 0 
0 0 0 
-6.10242 0.019853 0 
0.019853 -6.12492 0 
0 0 0 
-6.01277 -0.0691651 0 
-0.0691651 -6.18708 0 
0 0 0 
-6.02044 -0.0856452 0 
-0.0856452 -6.17941 0 
0 0 0 
-6.03162 -0.0669294 0 
-0.0669294 -6.16823 0 
0 0 0 
-6.08269 -0.000237835 0 
-0.000237835 -6.08281 0 
0 0 0 
-6.08393 -0.000394321 0 
-0.000394321 -6.08157 0 
0 0 0 
-6.08321 0.000470247 0 
0.000470247 -6.08229 0 
0 0 0 
-7.41309 -1.74921 0 
-1.74921 -7.95639 0 
0 0 0 
-7.66601 -1.71496 0 
-1.71496 -7.70347 0 
0 0 0 
-7.56074 -1.57436 0 
-1.57436 -7.80874 0 
0 0 0 
-5.97561 -0.0709082 0 
-0.0709082 -6.33554 0 
0 0 0 
-5.97278 -0.0724435 0 
-0.0724435 -6.33836 0 
0 0 0 
-5.9766 -0.067875 0 
-0.067875 -6.33454 0 
0 0 0 
-6.02789 -0.0580333 0 
-0.0580333 -6.16893 0 
0 0 0 
-6.03616 -0.07115 0 
-0.07115 -6.16066 0 
0 0 0 
-6.04797 -0.0545239 0 
-0.0545239 -6.14885 0 
0 0 0 
-6.10459 0.0168292 0 
0.0168292 -6.12938 0 
0 0 0 
-6.1021 0.0138 0 
0.0138 -6.13188 0 
0 0 0 
-6.1065 0.0135654 0 
0.0135654 -6.12748 0 
0 0 0 
-5.99885 -0.0700716 0 
-0.0700716 -6.27029 0 
0 0 0 
-5.99744 -0.0773479 0 
-0.0773479 -6.27169 0 
0 0 0 
-6.00114 -0.0770523 0 
-0.0770523 -6.268 0 
0 0 0 
-6.17707 0.00170017 0 
0.00170017 -6.16998 0 
0 0 0 
-6.17713 0.00186955 0 
0.00186955 -6.16991 0 
0 0 0 
-6.17572 0.000974957 0 
0.000974957 -6.17132 0 
0 0 0 
-6.16888 -0.00183349 0 
-0.00183349 -6.16214 0 
0 0 0 
-6.16854 -0.000910362 0 
-0.000910362 -6.16248 0 
0 0 0 
-6.16754 -0.00022785 0 
-0.00022785 -6.16349 0 
0 0 0 
-8.41095 -1.92112 0 
-1.92112 -9.06843 0 
0 0 0 
-8.68718 -1.92335 0 
-1.92335 -8.7922 0 
0 0 0 
-8.1533 -1.88063 0 
-1.88063 -9.32608 0 
0 0 0 
-6.07506 0.00034859 0 
0.00034859 -6.07643 0 
0 0 0 
-6.07505 0.00025906 0 
0.00025906 -6.07644 0 
0 0 0 
-6.07539 0.000104229 0 
0.000104229 -6.0761 0 
0 0 0 
-6.09088 -0.0290169 0 
-0.0290169 -6.13883 0 
0 0 0 
-6.08595 -0.0272408 0 
-0.0272408 -6.14376 0 
0 0 0 
-6.08835 -0.0322632 0 
-0.0322632 -6.14136 0 
0 0 0 
-6.12296 0.000584043 0 
0.000584043 -6.13949 0 
0 0 0 
-6.12592 0.00111339 0 
0.00111339 -6.13653 0 
0 0 0 
-6.12417 0.00291469 0 
0.00291469 -6.13829 0 
0 0 0 
-6.20457 0.100333 0 
0.100333 -6.44788 0 
0 0 0 
-6.19562 0.0585201 0 
0.0585201 -6.45684 0 
0 0 0 
-6.25131 0.0159359 0 
0.0159359 -6.40114 0 
0 0 0 
-6.1032 0.283313 0 
0.283313 -5.70661 0 
0 0 0 
-6.11799 0.23696 0 
0.23696 -5.69182 0 
0 0 0 
-6.08287 0.249813 0 
0.249813 -5.72695 0 
0 0 0 
-6.17988 -0.0196258 0 
-0.0196258 -6.23243 0 
0 0 0 
-6.17951 -0.00676248 0 
-0.00676248 -6.23279 0 
0 0 0 
-6.16783 -0.0277862 0 
-0.0277862 -6.24448 0 
0 0 0 
-5.91555 -0.0696972 0 
-0.0696972 -5.52554 0 
0 0 0 
-5.85992 -0.082147 0 
-0.082147 -5.58117 0 
0 0 0 
-5.9211 -0.0747699 0 
-0.0747699 -5.51999 0 
0 0 0 
-5.9535 -0.0689019 0 
-0.0689019 -6.64738 0 
0 0 0 
-6.01709 -0.147848 0 
-0.147848 -6.58379 0 
0 0 0 
-6.10236 -0.0397979 0 
-0.0397979 -6.49852 0 
0 0 0 
-5.93732 0.0180545 0 
0.0180545 -5.53586 0 
0 0 0 
-5.92035 0.0222639 0 
0.0222639 -5.55283 0 
0 0 0 
-5.9319 0.0311709 0 
0.0311709 -5.54128 0 
0 0 0 
-9.17642 -1.55513 0 
-1.55513 -9.65308 0 
0 0 0 
-9.06229 -1.64139 0 
-1.64139 -9.76721 0 
0 0 0 
-9.37665 -1.3701 0 
-1.3701 -9.45284 0 
0 0 0 
-6.05965 -0.0321502 0 
-0.0321502 -6.17009 0 
0 0 0 
-6.06676 -0.0444909 0 
-0.0444909 -6.16298 0 
0 0 0 
-6.07992 -0.030776 0 
-0.030776 -6.14982 0 
0 0 0 
-6.11788 0.00906542 0 
0.00906542 -6.14175 0 
0 0 0 
-6.11528 0.00582673 0 
0.00582673 -6.14434 0 
0 0 0 
-6.1203 0.00615225 0 
0.00615225 -6.13933 0 
0 0 0 
-6.14823 0.0532605 0 
0.0532605 -6.35141 0 
0 0 0 
-6.13765 0.0409625 0 
0.0409625 -6.36199 0 
0 0 0 
-6.14075 0.0557732 0 
0.0557732 -6.35888 0 
0 0 0 
-6.02797 0.220725 0 
0.220725 -5.66984 0 
0 0 0 
-6.02594 0.188366 0 
0.188366 -5.67187 0 
0 0 0 
-6.09645 0.224884 0 
0.224884 -5.60136 0 
0 0 0 
-6.23366 -0.0265704 0 
-0.0265704 -6.27024 0 
0 0 0 
-6.2248 -0.0135219 0 
-0.0135219 -6.27911 0 
0 0 0 
-6.21145 -0.00886639 0 
-0.00886639 -6.29245 0 
0 0 0 
-8.72388 -1.42909 0 
-1.42909 -9.26935 0 
0 0 0 
-8.56841 -1.59887 0 
-1.59887 -9.42482 0 
0 0 0 
-8.61972 -1.43112 0 
-1.43112 -9.37351 0 
0 0 0 
-6.1777 -0.000130902 0 
-0.000130902 -6.1673 0 
0 0 0 
-6.178 0.000738737 0 
0.000738737 -6.167 0 
0 0 0 
-6.1751 0.000335261 0 
0.000335261 -6.16991 0 
0 0 0 
-6.16995 -0.00157153 0 
-0.00157153 -6.15758 0 
0 0 0 
-6.16924 0.00128116 0 
0.00128116 -6.1583 0 
0 0 0 
-6.16542 -0.000207054 0 
-0.000207054 -6.16211 0 
0 0 0 
-6.17606 -0.00219833 0 
-0.00219833 -6.16783 0 
0 0 0 
-6.17635 -0.00124725 0 
-0.00124725 -6.16753 0 
0 0 0 
-6.17357 -0.000127789 0 
-0.000127789 -6.17032 0 
0 0 0 
-6.16591 0.000725736 0 
0.000725736 -6.15878 0 
0 0 0 
-6.16611 0.00220276 0 
0.00220276 -6.15859 0 
0 0 0 
-6.16403 -0.00021359 0 
-0.00021359 -6.16066 0 
0 0 0 
-6.10726 0.00886011 0 
0.00886011 -6.12611 0 
0 0 0 
-6.10918 0.00907546 0 
0.00907546 -6.12419 0 
0 0 0 
-6.10867 0.0094068 0 
0.0094068 -6.1247 0 
0 0 0 
-6.05563 -0.0622497 0 
-0.0622497 -6.13321 0 
0 0 0 
-6.05932 -0.0593064 0 
-0.0593064 -6.12952 0 
0 0 0 
-6.05655 -0.0516641 0 
-0.0516641 -6.1323 0 
0 0 0 
-6.11457 0.00635965 0 
0.00635965 -6.13506 0 
0 0 0 
-6.11555 0.00389155 0 
0.00389155 -6.13409 0 
0 0 0 
-6.11429 0.00354406 0 
0.00354406 -6.13534 0 
0 0 0 
-6.0619 -0.0352912 0 
-0.0352912 -6.14166 0 
0 0 0 
-6.06332 -0.0458961 0 
-0.0458961 -6.14024 0 
0 0 0 
-6.06788 -0.0278995 0 
-0.0278995 -6.13568 0 
0 0 0 
-6.10224 0.0142801 0 
0.0142801 -6.12147 0 
0 0 0 
-6.10212 0.0123759 0 
0.0123759 -6.12158 0 
0 0 0 
-6.1015 0.0115734 0 
0.0115734 -6.1222 0 
0 0 0 
-6.02996 -0.0689513 0 
-0.0689513 -6.14445 0 
0 0 0 
-6.04086 -0.0774292 0 
-0.0774292 -6.13354 0 
0 0 0 
-6.04153 -0.0526241 0 
-0.0526241 -6.13288 0 
0 0 0 
METADATA
COMPONENT_NAMES
XX
XY
XZ
YX
YY
YZ
ZX
ZY
ZZ

