# vtk DataFile Version 3.0
vtk output
ASCII
DATASET UNSTRUCTURED_GRID
POINTS 8000 float
0.1	0.9	1	
0	0.9	1	
0	1	1	
0.1	1	1	
0.1	0.9	0.9	
0	0.9	0.9	
0	1	0.9	
0.1	1	0.9	
0.1	0.9	0.9	
0	0.9	0.9	
0	1	0.9	
0.1	1	0.9	
0.1	0.9	0.8	
0	0.9	0.8	
0	1	0.8	
0.1	1	0.8	
0.1	0.9	0.8	
0	0.9	0.8	
0	1	0.8	
0.1	1	0.8	
0.1	0.9	0.7	
0	0.9	0.7	
0	1	0.7	
0.1	1	0.7	
0.1	0.9	0.7	
0	0.9	0.7	
0	1	0.7	
0.1	1	0.7	
0.1	0.9	0.6	
0	0.9	0.6	
0	1	0.6	
0.1	1	0.6	
0.1	0.9	0.6	
0	0.9	0.6	
0	1	0.6	
0.1	1	0.6	
0.1	0.9	0.5	
0	0.9	0.5	
0	1	0.5	
0.1	1	0.5	
0.1	0.9	0.5	
0	0.9	0.5	
0	1	0.5	
0.1	1	0.5	
0.1	0.9	0.4	
0	0.9	0.4	
0	1	0.4	
0.1	1	0.4	
0.1	0.9	0.4	
0	0.9	0.4	
0	1	0.4	
0.1	1	0.4	
0.1	0.9	0.3	
0	0.9	0.3	
0	1	0.3	
0.1	1	0.3	
0.1	0.9	0.3	
0	0.9	0.3	
0	1	0.3	
0.1	1	0.3	
0.1	0.9	0.2	
0	0.9	0.2	
0	1	0.2	
0.1	1	0.2	
0.1	0.9	0.2	
0	0.9	0.2	
0	1	0.2	
0.1	1	0.2	
0.1	0.9	0.1	
0	0.9	0.1	
0	1	0.1	
0.1	1	0.1	
0.1	0.9	0.1	
0	0.9	0.1	
0	1	0.1	
0.1	1	0.1	
0.1	0.9	0	
0	0.9	0	
0	1	0	
0.1	1	0	
0.2	0.9	1	
0.1	0.9	1	
0.1	1	1	
0.2	1	1	
0.2	0.9	0.9	
0.1	0.9	0.9	
0.1	1	0.9	
0.2	1	0.9	
0.2	0.9	0.9	
0.1	0.9	0.9	
0.1	1	0.9	
0.2	1	0.9	
0.2	0.9	0.8	
0.1	0.9	0.8	
0.1	1	0.8	
0.2	1	0.8	
0.2	0.9	0.8	
0.1	0.9	0.8	
0.1	1	0.8	
0.2	1	0.8	
0.2	0.9	0.7	
0.1	0.9	0.7	
0.1	1	0.7	
0.2	1	0.7	
0.2	0.9	0.7	
0.1	0.9	0.7	
0.1	1	0.7	
0.2	1	0.7	
0.2	0.9	0.6	
0.1	0.9	0.6	
0.1	1	0.6	
0.2	1	0.6	
0.2	0.9	0.6	
0.1	0.9	0.6	
0.1	1	0.6	
0.2	1	0.6	
0.2	0.9	0.5	
0.1	0.9	0.5	
0.1	1	0.5	
0.2	1	0.5	
0.2	0.9	0.5	
0.1	0.9	0.5	
0.1	1	0.5	
0.2	1	0.5	
0.2	0.9	0.4	
0.1	0.9	0.4	
0.1	1	0.4	
0.2	1	0.4	
0.2	0.9	0.4	
0.1	0.9	0.4	
0.1	1	0.4	
0.2	1	0.4	
0.2	0.9	0.3	
0.1	0.9	0.3	
0.1	1	0.3	
0.2	1	0.3	
0.2	0.9	0.3	
0.1	0.9	0.3	
0.1	1	0.3	
0.2	1	0.3	
0.2	0.9	0.2	
0.1	0.9	0.2	
0.1	1	0.2	
0.2	1	0.2	
0.2	0.9	0.2	
0.1	0.9	0.2	
0.1	1	0.2	
0.2	1	0.2	
0.2	0.9	0.1	
0.1	0.9	0.1	
0.1	1	0.1	
0.2	1	0.1	
0.2	0.9	0.1	
0.1	0.9	0.1	
0.1	1	0.1	
0.2	1	0.1	
0.2	0.9	0	
0.1	0.9	0	
0.1	1	0	
0.2	1	0	
0.3	0.9	1	
0.2	0.9	1	
0.2	1	1	
0.3	1	1	
0.3	0.9	0.9	
0.2	0.9	0.9	
0.2	1	0.9	
0.3	1	0.9	
0.3	0.9	0.9	
0.2	0.9	0.9	
0.2	1	0.9	
0.3	1	0.9	
0.3	0.9	0.8	
0.2	0.9	0.8	
0.2	1	0.8	
0.3	1	0.8	
0.3	0.9	0.8	
0.2	0.9	0.8	
0.2	1	0.8	
0.3	1	0.8	
0.3	0.9	0.7	
0.2	0.9	0.7	
0.2	1	0.7	
0.3	1	0.7	
0.3	0.9	0.7	
0.2	0.9	0.7	
0.2	1	0.7	
0.3	1	0.7	
0.3	0.9	0.6	
0.2	0.9	0.6	
0.2	1	0.6	
0.3	1	0.6	
0.3	0.9	0.6	
0.2	0.9	0.6	
0.2	1	0.6	
0.3	1	0.6	
0.3	0.9	0.5	
0.2	0.9	0.5	
0.2	1	0.5	
0.3	1	0.5	
0.3	0.9	0.5	
0.2	0.9	0.5	
0.2	1	0.5	
0.3	1	0.5	
0.3	0.9	0.4	
0.2	0.9	0.4	
0.2	1	0.4	
0.3	1	0.4	
0.3	0.9	0.4	
0.2	0.9	0.4	
0.2	1	0.4	
0.3	1	0.4	
0.3	0.9	0.3	
0.2	0.9	0.3	
0.2	1	0.3	
0.3	1	0.3	
0.3	0.9	0.3	
0.2	0.9	0.3	
0.2	1	0.3	
0.3	1	0.3	
0.3	0.9	0.2	
0.2	0.9	0.2	
0.2	1	0.2	
0.3	1	0.2	
0.3	0.9	0.2	
0.2	0.9	0.2	
0.2	1	0.2	
0.3	1	0.2	
0.3	0.9	0.1	
0.2	0.9	0.1	
0.2	1	0.1	
0.3	1	0.1	
0.3	0.9	0.1	
0.2	0.9	0.1	
0.2	1	0.1	
0.3	1	0.1	
0.3	0.9	0	
0.2	0.9	0	
0.2	1	0	
0.3	1	0	
0.4	0.9	1	
0.3	0.9	1	
0.3	1	1	
0.4	1	1	
0.4	0.9	0.9	
0.3	0.9	0.9	
0.3	1	0.9	
0.4	1	0.9	
0.4	0.9	0.9	
0.3	0.9	0.9	
0.3	1	0.9	
0.4	1	0.9	
0.4	0.9	0.8	
0.3	0.9	0.8	
0.3	1	0.8	
0.4	1	0.8	
0.4	0.9	0.8	
0.3	0.9	0.8	
0.3	1	0.8	
0.4	1	0.8	
0.4	0.9	0.7	
0.3	0.9	0.7	
0.3	1	0.7	
0.4	1	0.7	
0.4	0.9	0.7	
0.3	0.9	0.7	
0.3	1	0.7	
0.4	1	0.7	
0.4	0.9	0.6	
0.3	0.9	0.6	
0.3	1	0.6	
0.4	1	0.6	
0.4	0.9	0.6	
0.3	0.9	0.6	
0.3	1	0.6	
0.4	1	0.6	
0.4	0.9	0.5	
0.3	0.9	0.5	
0.3	1	0.5	
0.4	1	0.5	
0.4	0.9	0.5	
0.3	0.9	0.5	
0.3	1	0.5	
0.4	1	0.5	
0.4	0.9	0.4	
0.3	0.9	0.4	
0.3	1	0.4	
0.4	1	0.4	
0.4	0.9	0.4	
0.3	0.9	0.4	
0.3	1	0.4	
0.4	1	0.4	
0.4	0.9	0.3	
0.3	0.9	0.3	
0.3	1	0.3	
0.4	1	0.3	
0.4	0.9	0.3	
0.3	0.9	0.3	
0.3	1	0.3	
0.4	1	0.3	
0.4	0.9	0.2	
0.3	0.9	0.2	
0.3	1	0.2	
0.4	1	0.2	
0.4	0.9	0.2	
0.3	0.9	0.2	
0.3	1	0.2	
0.4	1	0.2	
0.4	0.9	0.1	
0.3	0.9	0.1	
0.3	1	0.1	
0.4	1	0.1	
0.4	0.9	0.1	
0.3	0.9	0.1	
0.3	1	0.1	
0.4	1	0.1	
0.4	0.9	0	
0.3	0.9	0	
0.3	1	0	
0.4	1	0	
0.5	0.9	1	
0.4	0.9	1	
0.4	1	1	
0.5	1	1	
0.5	0.9	0.9	
0.4	0.9	0.9	
0.4	1	0.9	
0.5	1	0.9	
0.5	0.9	0.9	
0.4	0.9	0.9	
0.4	1	0.9	
0.5	1	0.9	
0.5	0.9	0.8	
0.4	0.9	0.8	
0.4	1	0.8	
0.5	1	0.8	
0.5	0.9	0.8	
0.4	0.9	0.8	
0.4	1	0.8	
0.5	1	0.8	
0.5	0.9	0.7	
0.4	0.9	0.7	
0.4	1	0.7	
0.5	1	0.7	
0.5	0.9	0.7	
0.4	0.9	0.7	
0.4	1	0.7	
0.5	1	0.7	
0.5	0.9	0.6	
0.4	0.9	0.6	
0.4	1	0.6	
0.5	1	0.6	
0.5	0.9	0.6	
0.4	0.9	0.6	
0.4	1	0.6	
0.5	1	0.6	
0.5	0.9	0.5	
0.4	0.9	0.5	
0.4	1	0.5	
0.5	1	0.5	
0.5	0.9	0.5	
0.4	0.9	0.5	
0.4	1	0.5	
0.5	1	0.5	
0.5	0.9	0.4	
0.4	0.9	0.4	
0.4	1	0.4	
0.5	1	0.4	
0.5	0.9	0.4	
0.4	0.9	0.4	
0.4	1	0.4	
0.5	1	0.4	
0.5	0.9	0.3	
0.4	0.9	0.3	
0.4	1	0.3	
0.5	1	0.3	
0.5	0.9	0.3	
0.4	0.9	0.3	
0.4	1	0.3	
0.5	1	0.3	
0.5	0.9	0.2	
0.4	0.9	0.2	
0.4	1	0.2	
0.5	1	0.2	
0.5	0.9	0.2	
0.4	0.9	0.2	
0.4	1	0.2	
0.5	1	0.2	
0.5	0.9	0.1	
0.4	0.9	0.1	
0.4	1	0.1	
0.5	1	0.1	
0.5	0.9	0.1	
0.4	0.9	0.1	
0.4	1	0.1	
0.5	1	0.1	
0.5	0.9	0	
0.4	0.9	0	
0.4	1	0	
0.5	1	0	
0.6	0.9	1	
0.5	0.9	1	
0.5	1	1	
0.6	1	1	
0.6	0.9	0.9	
0.5	0.9	0.9	
0.5	1	0.9	
0.6	1	0.9	
0.6	0.9	0.9	
0.5	0.9	0.9	
0.5	1	0.9	
0.6	1	0.9	
0.6	0.9	0.8	
0.5	0.9	0.8	
0.5	1	0.8	
0.6	1	0.8	
0.6	0.9	0.8	
0.5	0.9	0.8	
0.5	1	0.8	
0.6	1	0.8	
0.6	0.9	0.7	
0.5	0.9	0.7	
0.5	1	0.7	
0.6	1	0.7	
0.6	0.9	0.7	
0.5	0.9	0.7	
0.5	1	0.7	
0.6	1	0.7	
0.6	0.9	0.6	
0.5	0.9	0.6	
0.5	1	0.6	
0.6	1	0.6	
0.6	0.9	0.6	
0.5	0.9	0.6	
0.5	1	0.6	
0.6	1	0.6	
0.6	0.9	0.5	
0.5	0.9	0.5	
0.5	1	0.5	
0.6	1	0.5	
0.6	0.9	0.5	
0.5	0.9	0.5	
0.5	1	0.5	
0.6	1	0.5	
0.6	0.9	0.4	
0.5	0.9	0.4	
0.5	1	0.4	
0.6	1	0.4	
0.6	0.9	0.4	
0.5	0.9	0.4	
0.5	1	0.4	
0.6	1	0.4	
0.6	0.9	0.3	
0.5	0.9	0.3	
0.5	1	0.3	
0.6	1	0.3	
0.6	0.9	0.3	
0.5	0.9	0.3	
0.5	1	0.3	
0.6	1	0.3	
0.6	0.9	0.2	
0.5	0.9	0.2	
0.5	1	0.2	
0.6	1	0.2	
0.6	0.9	0.2	
0.5	0.9	0.2	
0.5	1	0.2	
0.6	1	0.2	
0.6	0.9	0.1	
0.5	0.9	0.1	
0.5	1	0.1	
0.6	1	0.1	
0.6	0.9	0.1	
0.5	0.9	0.1	
0.5	1	0.1	
0.6	1	0.1	
0.6	0.9	0	
0.5	0.9	0	
0.5	1	0	
0.6	1	0	
0.7	0.9	1	
0.6	0.9	1	
0.6	1	1	
0.7	1	1	
0.7	0.9	0.9	
0.6	0.9	0.9	
0.6	1	0.9	
0.7	1	0.9	
0.7	0.9	0.9	
0.6	0.9	0.9	
0.6	1	0.9	
0.7	1	0.9	
0.7	0.9	0.8	
0.6	0.9	0.8	
0.6	1	0.8	
0.7	1	0.8	
0.7	0.9	0.8	
0.6	0.9	0.8	
0.6	1	0.8	
0.7	1	0.8	
0.7	0.9	0.7	
0.6	0.9	0.7	
0.6	1	0.7	
0.7	1	0.7	
0.7	0.9	0.7	
0.6	0.9	0.7	
0.6	1	0.7	
0.7	1	0.7	
0.7	0.9	0.6	
0.6	0.9	0.6	
0.6	1	0.6	
0.7	1	0.6	
0.7	0.9	0.6	
0.6	0.9	0.6	
0.6	1	0.6	
0.7	1	0.6	
0.7	0.9	0.5	
0.6	0.9	0.5	
0.6	1	0.5	
0.7	1	0.5	
0.7	0.9	0.5	
0.6	0.9	0.5	
0.6	1	0.5	
0.7	1	0.5	
0.7	0.9	0.4	
0.6	0.9	0.4	
0.6	1	0.4	
0.7	1	0.4	
0.7	0.9	0.4	
0.6	0.9	0.4	
0.6	1	0.4	
0.7	1	0.4	
0.7	0.9	0.3	
0.6	0.9	0.3	
0.6	1	0.3	
0.7	1	0.3	
0.7	0.9	0.3	
0.6	0.9	0.3	
0.6	1	0.3	
0.7	1	0.3	
0.7	0.9	0.2	
0.6	0.9	0.2	
0.6	1	0.2	
0.7	1	0.2	
0.7	0.9	0.2	
0.6	0.9	0.2	
0.6	1	0.2	
0.7	1	0.2	
0.7	0.9	0.1	
0.6	0.9	0.1	
0.6	1	0.1	
0.7	1	0.1	
0.7	0.9	0.1	
0.6	0.9	0.1	
0.6	1	0.1	
0.7	1	0.1	
0.7	0.9	0	
0.6	0.9	0	
0.6	1	0	
0.7	1	0	
0.8	0.9	1	
0.7	0.9	1	
0.7	1	1	
0.8	1	1	
0.8	0.9	0.9	
0.7	0.9	0.9	
0.7	1	0.9	
0.8	1	0.9	
0.8	0.9	0.9	
0.7	0.9	0.9	
0.7	1	0.9	
0.8	1	0.9	
0.8	0.9	0.8	
0.7	0.9	0.8	
0.7	1	0.8	
0.8	1	0.8	
0.8	0.9	0.8	
0.7	0.9	0.8	
0.7	1	0.8	
0.8	1	0.8	
0.8	0.9	0.7	
0.7	0.9	0.7	
0.7	1	0.7	
0.8	1	0.7	
0.8	0.9	0.7	
0.7	0.9	0.7	
0.7	1	0.7	
0.8	1	0.7	
0.8	0.9	0.6	
0.7	0.9	0.6	
0.7	1	0.6	
0.8	1	0.6	
0.8	0.9	0.6	
0.7	0.9	0.6	
0.7	1	0.6	
0.8	1	0.6	
0.8	0.9	0.5	
0.7	0.9	0.5	
0.7	1	0.5	
0.8	1	0.5	
0.8	0.9	0.5	
0.7	0.9	0.5	
0.7	1	0.5	
0.8	1	0.5	
0.8	0.9	0.4	
0.7	0.9	0.4	
0.7	1	0.4	
0.8	1	0.4	
0.8	0.9	0.4	
0.7	0.9	0.4	
0.7	1	0.4	
0.8	1	0.4	
0.8	0.9	0.3	
0.7	0.9	0.3	
0.7	1	0.3	
0.8	1	0.3	
0.8	0.9	0.3	
0.7	0.9	0.3	
0.7	1	0.3	
0.8	1	0.3	
0.8	0.9	0.2	
0.7	0.9	0.2	
0.7	1	0.2	
0.8	1	0.2	
0.8	0.9	0.2	
0.7	0.9	0.2	
0.7	1	0.2	
0.8	1	0.2	
0.8	0.9	0.1	
0.7	0.9	0.1	
0.7	1	0.1	
0.8	1	0.1	
0.8	0.9	0.1	
0.7	0.9	0.1	
0.7	1	0.1	
0.8	1	0.1	
0.8	0.9	0	
0.7	0.9	0	
0.7	1	0	
0.8	1	0	
0.9	0.9	1	
0.8	0.9	1	
0.8	1	1	
0.9	1	1	
0.9	0.9	0.9	
0.8	0.9	0.9	
0.8	1	0.9	
0.9	1	0.9	
0.9	0.9	0.9	
0.8	0.9	0.9	
0.8	1	0.9	
0.9	1	0.9	
0.9	0.9	0.8	
0.8	0.9	0.8	
0.8	1	0.8	
0.9	1	0.8	
0.9	0.9	0.8	
0.8	0.9	0.8	
0.8	1	0.8	
0.9	1	0.8	
0.9	0.9	0.7	
0.8	0.9	0.7	
0.8	1	0.7	
0.9	1	0.7	
0.9	0.9	0.7	
0.8	0.9	0.7	
0.8	1	0.7	
0.9	1	0.7	
0.9	0.9	0.6	
0.8	0.9	0.6	
0.8	1	0.6	
0.9	1	0.6	
0.9	0.9	0.6	
0.8	0.9	0.6	
0.8	1	0.6	
0.9	1	0.6	
0.9	0.9	0.5	
0.8	0.9	0.5	
0.8	1	0.5	
0.9	1	0.5	
0.9	0.9	0.5	
0.8	0.9	0.5	
0.8	1	0.5	
0.9	1	0.5	
0.9	0.9	0.4	
0.8	0.9	0.4	
0.8	1	0.4	
0.9	1	0.4	
0.9	0.9	0.4	
0.8	0.9	0.4	
0.8	1	0.4	
0.9	1	0.4	
0.9	0.9	0.3	
0.8	0.9	0.3	
0.8	1	0.3	
0.9	1	0.3	
0.9	0.9	0.3	
0.8	0.9	0.3	
0.8	1	0.3	
0.9	1	0.3	
0.9	0.9	0.2	
0.8	0.9	0.2	
0.8	1	0.2	
0.9	1	0.2	
0.9	0.9	0.2	
0.8	0.9	0.2	
0.8	1	0.2	
0.9	1	0.2	
0.9	0.9	0.1	
0.8	0.9	0.1	
0.8	1	0.1	
0.9	1	0.1	
0.9	0.9	0.1	
0.8	0.9	0.1	
0.8	1	0.1	
0.9	1	0.1	
0.9	0.9	0	
0.8	0.9	0	
0.8	1	0	
0.9	1	0	
1	0.9	1	
0.9	0.9	1	
0.9	1	1	
1	1	1	
1	0.9	0.9	
0.9	0.9	0.9	
0.9	1	0.9	
1	1	0.9	
1	0.9	0.9	
0.9	0.9	0.9	
0.9	1	0.9	
1	1	0.9	
1	0.9	0.8	
0.9	0.9	0.8	
0.9	1	0.8	
1	1	0.8	
1	0.9	0.8	
0.9	0.9	0.8	
0.9	1	0.8	
1	1	0.8	
1	0.9	0.7	
0.9	0.9	0.7	
0.9	1	0.7	
1	1	0.7	
1	0.9	0.7	
0.9	0.9	0.7	
0.9	1	0.7	
1	1	0.7	
1	0.9	0.6	
0.9	0.9	0.6	
0.9	1	0.6	
1	1	0.6	
1	0.9	0.6	
0.9	0.9	0.6	
0.9	1	0.6	
1	1	0.6	
1	0.9	0.5	
0.9	0.9	0.5	
0.9	1	0.5	
1	1	0.5	
1	0.9	0.5	
0.9	0.9	0.5	
0.9	1	0.5	
1	1	0.5	
1	0.9	0.4	
0.9	0.9	0.4	
0.9	1	0.4	
1	1	0.4	
1	0.9	0.4	
0.9	0.9	0.4	
0.9	1	0.4	
1	1	0.4	
1	0.9	0.3	
0.9	0.9	0.3	
0.9	1	0.3	
1	1	0.3	
1	0.9	0.3	
0.9	0.9	0.3	
0.9	1	0.3	
1	1	0.3	
1	0.9	0.2	
0.9	0.9	0.2	
0.9	1	0.2	
1	1	0.2	
1	0.9	0.2	
0.9	0.9	0.2	
0.9	1	0.2	
1	1	0.2	
1	0.9	0.1	
0.9	0.9	0.1	
0.9	1	0.1	
1	1	0.1	
1	0.9	0.1	
0.9	0.9	0.1	
0.9	1	0.1	
1	1	0.1	
1	0.9	0	
0.9	0.9	0	
0.9	1	0	
1	1	0	
0.1	0.8	1	
0	0.8	1	
0	0.9	1	
0.1	0.9	1	
0.1	0.8	0.9	
0	0.8	0.9	
0	0.9	0.9	
0.1	0.9	0.9	
0.1	0.8	0.9	
0	0.8	0.9	
0	0.9	0.9	
0.1	0.9	0.9	
0.1	0.8	0.8	
0	0.8	0.8	
0	0.9	0.8	
0.1	0.9	0.8	
0.1	0.8	0.8	
0	0.8	0.8	
0	0.9	0.8	
0.1	0.9	0.8	
0.1	0.8	0.7	
0	0.8	0.7	
0	0.9	0.7	
0.1	0.9	0.7	
0.1	0.8	0.7	
0	0.8	0.7	
0	0.9	0.7	
0.1	0.9	0.7	
0.1	0.8	0.6	
0	0.8	0.6	
0	0.9	0.6	
0.1	0.9	0.6	
0.1	0.8	0.6	
0	0.8	0.6	
0	0.9	0.6	
0.1	0.9	0.6	
0.1	0.8	0.5	
0	0.8	0.5	
0	0.9	0.5	
0.1	0.9	0.5	
0.1	0.8	0.5	
0	0.8	0.5	
0	0.9	0.5	
0.1	0.9	0.5	
0.1	0.8	0.4	
0	0.8	0.4	
0	0.9	0.4	
0.1	0.9	0.4	
0.1	0.8	0.4	
0	0.8	0.4	
0	0.9	0.4	
0.1	0.9	0.4	
0.1	0.8	0.3	
0	0.8	0.3	
0	0.9	0.3	
0.1	0.9	0.3	
0.1	0.8	0.3	
0	0.8	0.3	
0	0.9	0.3	
0.1	0.9	0.3	
0.1	0.8	0.2	
0	0.8	0.2	
0	0.9	0.2	
0.1	0.9	0.2	
0.1	0.8	0.2	
0	0.8	0.2	
0	0.9	0.2	
0.1	0.9	0.2	
0.1	0.8	0.1	
0	0.8	0.1	
0	0.9	0.1	
0.1	0.9	0.1	
0.1	0.8	0.1	
0	0.8	0.1	
0	0.9	0.1	
0.1	0.9	0.1	
0.1	0.8	0	
0	0.8	0	
0	0.9	0	
0.1	0.9	0	
0.2	0.8	1	
0.1	0.8	1	
0.1	0.9	1	
0.2	0.9	1	
0.2	0.8	0.9	
0.1	0.8	0.9	
0.1	0.9	0.9	
0.2	0.9	0.9	
0.2	0.8	0.9	
0.1	0.8	0.9	
0.1	0.9	0.9	
0.2	0.9	0.9	
0.2	0.8	0.8	
0.1	0.8	0.8	
0.1	0.9	0.8	
0.2	0.9	0.8	
0.2	0.8	0.8	
0.1	0.8	0.8	
0.1	0.9	0.8	
0.2	0.9	0.8	
0.2	0.8	0.7	
0.1	0.8	0.7	
0.1	0.9	0.7	
0.2	0.9	0.7	
0.2	0.8	0.7	
0.1	0.8	0.7	
0.1	0.9	0.7	
0.2	0.9	0.7	
0.2	0.8	0.6	
0.1	0.8	0.6	
0.1	0.9	0.6	
0.2	0.9	0.6	
0.2	0.8	0.6	
0.1	0.8	0.6	
0.1	0.9	0.6	
0.2	0.9	0.6	
0.2	0.8	0.5	
0.1	0.8	0.5	
0.1	0.9	0.5	
0.2	0.9	0.5	
0.2	0.8	0.5	
0.1	0.8	0.5	
0.1	0.9	0.5	
0.2	0.9	0.5	
0.2	0.8	0.4	
0.1	0.8	0.4	
0.1	0.9	0.4	
0.2	0.9	0.4	
0.2	0.8	0.4	
0.1	0.8	0.4	
0.1	0.9	0.4	
0.2	0.9	0.4	
0.2	0.8	0.3	
0.1	0.8	0.3	
0.1	0.9	0.3	
0.2	0.9	0.3	
0.2	0.8	0.3	
0.1	0.8	0.3	
0.1	0.9	0.3	
0.2	0.9	0.3	
0.2	0.8	0.2	
0.1	0.8	0.2	
0.1	0.9	0.2	
0.2	0.9	0.2	
0.2	0.8	0.2	
0.1	0.8	0.2	
0.1	0.9	0.2	
0.2	0.9	0.2	
0.2	0.8	0.1	
0.1	0.8	0.1	
0.1	0.9	0.1	
0.2	0.9	0.1	
0.2	0.8	0.1	
0.1	0.8	0.1	
0.1	0.9	0.1	
0.2	0.9	0.1	
0.2	0.8	0	
0.1	0.8	0	
0.1	0.9	0	
0.2	0.9	0	
0.3	0.8	1	
0.2	0.8	1	
0.2	0.9	1	
0.3	0.9	1	
0.3	0.8	0.9	
0.2	0.8	0.9	
0.2	0.9	0.9	
0.3	0.9	0.9	
0.3	0.8	0.9	
0.2	0.8	0.9	
0.2	0.9	0.9	
0.3	0.9	0.9	
0.3	0.8	0.8	
0.2	0.8	0.8	
0.2	0.9	0.8	
0.3	0.9	0.8	
0.3	0.8	0.8	
0.2	0.8	0.8	
0.2	0.9	0.8	
0.3	0.9	0.8	
0.3	0.8	0.7	
0.2	0.8	0.7	
0.2	0.9	0.7	
0.3	0.9	0.7	
0.3	0.8	0.7	
0.2	0.8	0.7	
0.2	0.9	0.7	
0.3	0.9	0.7	
0.3	0.8	0.6	
0.2	0.8	0.6	
0.2	0.9	0.6	
0.3	0.9	0.6	
0.3	0.8	0.6	
0.2	0.8	0.6	
0.2	0.9	0.6	
0.3	0.9	0.6	
0.3	0.8	0.5	
0.2	0.8	0.5	
0.2	0.9	0.5	
0.3	0.9	0.5	
0.3	0.8	0.5	
0.2	0.8	0.5	
0.2	0.9	0.5	
0.3	0.9	0.5	
0.3	0.8	0.4	
0.2	0.8	0.4	
0.2	0.9	0.4	
0.3	0.9	0.4	
0.3	0.8	0.4	
0.2	0.8	0.4	
0.2	0.9	0.4	
0.3	0.9	0.4	
0.3	0.8	0.3	
0.2	0.8	0.3	
0.2	0.9	0.3	
0.3	0.9	0.3	
0.3	0.8	0.3	
0.2	0.8	0.3	
0.2	0.9	0.3	
0.3	0.9	0.3	
0.3	0.8	0.2	
0.2	0.8	0.2	
0.2	0.9	0.2	
0.3	0.9	0.2	
0.3	0.8	0.2	
0.2	0.8	0.2	
0.2	0.9	0.2	
0.3	0.9	0.2	
0.3	0.8	0.1	
0.2	0.8	0.1	
0.2	0.9	0.1	
0.3	0.9	0.1	
0.3	0.8	0.1	
0.2	0.8	0.1	
0.2	0.9	0.1	
0.3	0.9	0.1	
0.3	0.8	0	
0.2	0.8	0	
0.2	0.9	0	
0.3	0.9	0	
0.4	0.8	1	
0.3	0.8	1	
0.3	0.9	1	
0.4	0.9	1	
0.4	0.8	0.9	
0.3	0.8	0.9	
0.3	0.9	0.9	
0.4	0.9	0.9	
0.4	0.8	0.9	
0.3	0.8	0.9	
0.3	0.9	0.9	
0.4	0.9	0.9	
0.4	0.8	0.8	
0.3	0.8	0.8	
0.3	0.9	0.8	
0.4	0.9	0.8	
0.4	0.8	0.8	
0.3	0.8	0.8	
0.3	0.9	0.8	
0.4	0.9	0.8	
0.4	0.8	0.7	
0.3	0.8	0.7	
0.3	0.9	0.7	
0.4	0.9	0.7	
0.4	0.8	0.7	
0.3	0.8	0.7	
0.3	0.9	0.7	
0.4	0.9	0.7	
0.4	0.8	0.6	
0.3	0.8	0.6	
0.3	0.9	0.6	
0.4	0.9	0.6	
0.4	0.8	0.6	
0.3	0.8	0.6	
0.3	0.9	0.6	
0.4	0.9	0.6	
0.4	0.8	0.5	
0.3	0.8	0.5	
0.3	0.9	0.5	
0.4	0.9	0.5	
0.4	0.8	0.5	
0.3	0.8	0.5	
0.3	0.9	0.5	
0.4	0.9	0.5	
0.4	0.8	0.4	
0.3	0.8	0.4	
0.3	0.9	0.4	
0.4	0.9	0.4	
0.4	0.8	0.4	
0.3	0.8	0.4	
0.3	0.9	0.4	
0.4	0.9	0.4	
0.4	0.8	0.3	
0.3	0.8	0.3	
0.3	0.9	0.3	
0.4	0.9	0.3	
0.4	0.8	0.3	
0.3	0.8	0.3	
0.3	0.9	0.3	
0.4	0.9	0.3	
0.4	0.8	0.2	
0.3	0.8	0.2	
0.3	0.9	0.2	
0.4	0.9	0.2	
0.4	0.8	0.2	
0.3	0.8	0.2	
0.3	0.9	0.2	
0.4	0.9	0.2	
0.4	0.8	0.1	
0.3	0.8	0.1	
0.3	0.9	0.1	
0.4	0.9	0.1	
0.4	0.8	0.1	
0.3	0.8	0.1	
0.3	0.9	0.1	
0.4	0.9	0.1	
0.4	0.8	0	
0.3	0.8	0	
0.3	0.9	0	
0.4	0.9	0	
0.5	0.8	1	
0.4	0.8	1	
0.4	0.9	1	
0.5	0.9	1	
0.5	0.8	0.9	
0.4	0.8	0.9	
0.4	0.9	0.9	
0.5	0.9	0.9	
0.5	0.8	0.9	
0.4	0.8	0.9	
0.4	0.9	0.9	
0.5	0.9	0.9	
0.5	0.8	0.8	
0.4	0.8	0.8	
0.4	0.9	0.8	
0.5	0.9	0.8	
0.5	0.8	0.8	
0.4	0.8	0.8	
0.4	0.9	0.8	
0.5	0.9	0.8	
0.5	0.8	0.7	
0.4	0.8	0.7	
0.4	0.9	0.7	
0.5	0.9	0.7	
0.5	0.8	0.7	
0.4	0.8	0.7	
0.4	0.9	0.7	
0.5	0.9	0.7	
0.5	0.8	0.6	
0.4	0.8	0.6	
0.4	0.9	0.6	
0.5	0.9	0.6	
0.5	0.8	0.6	
0.4	0.8	0.6	
0.4	0.9	0.6	
0.5	0.9	0.6	
0.5	0.8	0.5	
0.4	0.8	0.5	
0.4	0.9	0.5	
0.5	0.9	0.5	
0.5	0.8	0.5	
0.4	0.8	0.5	
0.4	0.9	0.5	
0.5	0.9	0.5	
0.5	0.8	0.4	
0.4	0.8	0.4	
0.4	0.9	0.4	
0.5	0.9	0.4	
0.5	0.8	0.4	
0.4	0.8	0.4	
0.4	0.9	0.4	
0.5	0.9	0.4	
0.5	0.8	0.3	
0.4	0.8	0.3	
0.4	0.9	0.3	
0.5	0.9	0.3	
0.5	0.8	0.3	
0.4	0.8	0.3	
0.4	0.9	0.3	
0.5	0.9	0.3	
0.5	0.8	0.2	
0.4	0.8	0.2	
0.4	0.9	0.2	
0.5	0.9	0.2	
0.5	0.8	0.2	
0.4	0.8	0.2	
0.4	0.9	0.2	
0.5	0.9	0.2	
0.5	0.8	0.1	
0.4	0.8	0.1	
0.4	0.9	0.1	
0.5	0.9	0.1	
0.5	0.8	0.1	
0.4	0.8	0.1	
0.4	0.9	0.1	
0.5	0.9	0.1	
0.5	0.8	0	
0.4	0.8	0	
0.4	0.9	0	
0.5	0.9	0	
0.6	0.8	1	
0.5	0.8	1	
0.5	0.9	1	
0.6	0.9	1	
0.6	0.8	0.9	
0.5	0.8	0.9	
0.5	0.9	0.9	
0.6	0.9	0.9	
0.6	0.8	0.9	
0.5	0.8	0.9	
0.5	0.9	0.9	
0.6	0.9	0.9	
0.6	0.8	0.8	
0.5	0.8	0.8	
0.5	0.9	0.8	
0.6	0.9	0.8	
0.6	0.8	0.8	
0.5	0.8	0.8	
0.5	0.9	0.8	
0.6	0.9	0.8	
0.6	0.8	0.7	
0.5	0.8	0.7	
0.5	0.9	0.7	
0.6	0.9	0.7	
0.6	0.8	0.7	
0.5	0.8	0.7	
0.5	0.9	0.7	
0.6	0.9	0.7	
0.6	0.8	0.6	
0.5	0.8	0.6	
0.5	0.9	0.6	
0.6	0.9	0.6	
0.6	0.8	0.6	
0.5	0.8	0.6	
0.5	0.9	0.6	
0.6	0.9	0.6	
0.6	0.8	0.5	
0.5	0.8	0.5	
0.5	0.9	0.5	
0.6	0.9	0.5	
0.6	0.8	0.5	
0.5	0.8	0.5	
0.5	0.9	0.5	
0.6	0.9	0.5	
0.6	0.8	0.4	
0.5	0.8	0.4	
0.5	0.9	0.4	
0.6	0.9	0.4	
0.6	0.8	0.4	
0.5	0.8	0.4	
0.5	0.9	0.4	
0.6	0.9	0.4	
0.6	0.8	0.3	
0.5	0.8	0.3	
0.5	0.9	0.3	
0.6	0.9	0.3	
0.6	0.8	0.3	
0.5	0.8	0.3	
0.5	0.9	0.3	
0.6	0.9	0.3	
0.6	0.8	0.2	
0.5	0.8	0.2	
0.5	0.9	0.2	
0.6	0.9	0.2	
0.6	0.8	0.2	
0.5	0.8	0.2	
0.5	0.9	0.2	
0.6	0.9	0.2	
0.6	0.8	0.1	
0.5	0.8	0.1	
0.5	0.9	0.1	
0.6	0.9	0.1	
0.6	0.8	0.1	
0.5	0.8	0.1	
0.5	0.9	0.1	
0.6	0.9	0.1	
0.6	0.8	0	
0.5	0.8	0	
0.5	0.9	0	
0.6	0.9	0	
0.7	0.8	1	
0.6	0.8	1	
0.6	0.9	1	
0.7	0.9	1	
0.7	0.8	0.9	
0.6	0.8	0.9	
0.6	0.9	0.9	
0.7	0.9	0.9	
0.7	0.8	0.9	
0.6	0.8	0.9	
0.6	0.9	0.9	
0.7	0.9	0.9	
0.7	0.8	0.8	
0.6	0.8	0.8	
0.6	0.9	0.8	
0.7	0.9	0.8	
0.7	0.8	0.8	
0.6	0.8	0.8	
0.6	0.9	0.8	
0.7	0.9	0.8	
0.7	0.8	0.7	
0.6	0.8	0.7	
0.6	0.9	0.7	
0.7	0.9	0.7	
0.7	0.8	0.7	
0.6	0.8	0.7	
0.6	0.9	0.7	
0.7	0.9	0.7	
0.7	0.8	0.6	
0.6	0.8	0.6	
0.6	0.9	0.6	
0.7	0.9	0.6	
0.7	0.8	0.6	
0.6	0.8	0.6	
0.6	0.9	0.6	
0.7	0.9	0.6	
0.7	0.8	0.5	
0.6	0.8	0.5	
0.6	0.9	0.5	
0.7	0.9	0.5	
0.7	0.8	0.5	
0.6	0.8	0.5	
0.6	0.9	0.5	
0.7	0.9	0.5	
0.7	0.8	0.4	
0.6	0.8	0.4	
0.6	0.9	0.4	
0.7	0.9	0.4	
0.7	0.8	0.4	
0.6	0.8	0.4	
0.6	0.9	0.4	
0.7	0.9	0.4	
0.7	0.8	0.3	
0.6	0.8	0.3	
0.6	0.9	0.3	
0.7	0.9	0.3	
0.7	0.8	0.3	
0.6	0.8	0.3	
0.6	0.9	0.3	
0.7	0.9	0.3	
0.7	0.8	0.2	
0.6	0.8	0.2	
0.6	0.9	0.2	
0.7	0.9	0.2	
0.7	0.8	0.2	
0.6	0.8	0.2	
0.6	0.9	0.2	
0.7	0.9	0.2	
0.7	0.8	0.1	
0.6	0.8	0.1	
0.6	0.9	0.1	
0.7	0.9	0.1	
0.7	0.8	0.1	
0.6	0.8	0.1	
0.6	0.9	0.1	
0.7	0.9	0.1	
0.7	0.8	0	
0.6	0.8	0	
0.6	0.9	0	
0.7	0.9	0	
0.8	0.8	1	
0.7	0.8	1	
0.7	0.9	1	
0.8	0.9	1	
0.8	0.8	0.9	
0.7	0.8	0.9	
0.7	0.9	0.9	
0.8	0.9	0.9	
0.8	0.8	0.9	
0.7	0.8	0.9	
0.7	0.9	0.9	
0.8	0.9	0.9	
0.8	0.8	0.8	
0.7	0.8	0.8	
0.7	0.9	0.8	
0.8	0.9	0.8	
0.8	0.8	0.8	
0.7	0.8	0.8	
0.7	0.9	0.8	
0.8	0.9	0.8	
0.8	0.8	0.7	
0.7	0.8	0.7	
0.7	0.9	0.7	
0.8	0.9	0.7	
0.8	0.8	0.7	
0.7	0.8	0.7	
0.7	0.9	0.7	
0.8	0.9	0.7	
0.8	0.8	0.6	
0.7	0.8	0.6	
0.7	0.9	0.6	
0.8	0.9	0.6	
0.8	0.8	0.6	
0.7	0.8	0.6	
0.7	0.9	0.6	
0.8	0.9	0.6	
0.8	0.8	0.5	
0.7	0.8	0.5	
0.7	0.9	0.5	
0.8	0.9	0.5	
0.8	0.8	0.5	
0.7	0.8	0.5	
0.7	0.9	0.5	
0.8	0.9	0.5	
0.8	0.8	0.4	
0.7	0.8	0.4	
0.7	0.9	0.4	
0.8	0.9	0.4	
0.8	0.8	0.4	
0.7	0.8	0.4	
0.7	0.9	0.4	
0.8	0.9	0.4	
0.8	0.8	0.3	
0.7	0.8	0.3	
0.7	0.9	0.3	
0.8	0.9	0.3	
0.8	0.8	0.3	
0.7	0.8	0.3	
0.7	0.9	0.3	
0.8	0.9	0.3	
0.8	0.8	0.2	
0.7	0.8	0.2	
0.7	0.9	0.2	
0.8	0.9	0.2	
0.8	0.8	0.2	
0.7	0.8	0.2	
0.7	0.9	0.2	
0.8	0.9	0.2	
0.8	0.8	0.1	
0.7	0.8	0.1	
0.7	0.9	0.1	
0.8	0.9	0.1	
0.8	0.8	0.1	
0.7	0.8	0.1	
0.7	0.9	0.1	
0.8	0.9	0.1	
0.8	0.8	0	
0.7	0.8	0	
0.7	0.9	0	
0.8	0.9	0	
0.9	0.8	1	
0.8	0.8	1	
0.8	0.9	1	
0.9	0.9	1	
0.9	0.8	0.9	
0.8	0.8	0.9	
0.8	0.9	0.9	
0.9	0.9	0.9	
0.9	0.8	0.9	
0.8	0.8	0.9	
0.8	0.9	0.9	
0.9	0.9	0.9	
0.9	0.8	0.8	
0.8	0.8	0.8	
0.8	0.9	0.8	
0.9	0.9	0.8	
0.9	0.8	0.8	
0.8	0.8	0.8	
0.8	0.9	0.8	
0.9	0.9	0.8	
0.9	0.8	0.7	
0.8	0.8	0.7	
0.8	0.9	0.7	
0.9	0.9	0.7	
0.9	0.8	0.7	
0.8	0.8	0.7	
0.8	0.9	0.7	
0.9	0.9	0.7	
0.9	0.8	0.6	
0.8	0.8	0.6	
0.8	0.9	0.6	
0.9	0.9	0.6	
0.9	0.8	0.6	
0.8	0.8	0.6	
0.8	0.9	0.6	
0.9	0.9	0.6	
0.9	0.8	0.5	
0.8	0.8	0.5	
0.8	0.9	0.5	
0.9	0.9	0.5	
0.9	0.8	0.5	
0.8	0.8	0.5	
0.8	0.9	0.5	
0.9	0.9	0.5	
0.9	0.8	0.4	
0.8	0.8	0.4	
0.8	0.9	0.4	
0.9	0.9	0.4	
0.9	0.8	0.4	
0.8	0.8	0.4	
0.8	0.9	0.4	
0.9	0.9	0.4	
0.9	0.8	0.3	
0.8	0.8	0.3	
0.8	0.9	0.3	
0.9	0.9	0.3	
0.9	0.8	0.3	
0.8	0.8	0.3	
0.8	0.9	0.3	
0.9	0.9	0.3	
0.9	0.8	0.2	
0.8	0.8	0.2	
0.8	0.9	0.2	
0.9	0.9	0.2	
0.9	0.8	0.2	
0.8	0.8	0.2	
0.8	0.9	0.2	
0.9	0.9	0.2	
0.9	0.8	0.1	
0.8	0.8	0.1	
0.8	0.9	0.1	
0.9	0.9	0.1	
0.9	0.8	0.1	
0.8	0.8	0.1	
0.8	0.9	0.1	
0.9	0.9	0.1	
0.9	0.8	0	
0.8	0.8	0	
0.8	0.9	0	
0.9	0.9	0	
1	0.8	1	
0.9	0.8	1	
0.9	0.9	1	
1	0.9	1	
1	0.8	0.9	
0.9	0.8	0.9	
0.9	0.9	0.9	
1	0.9	0.9	
1	0.8	0.9	
0.9	0.8	0.9	
0.9	0.9	0.9	
1	0.9	0.9	
1	0.8	0.8	
0.9	0.8	0.8	
0.9	0.9	0.8	
1	0.9	0.8	
1	0.8	0.8	
0.9	0.8	0.8	
0.9	0.9	0.8	
1	0.9	0.8	
1	0.8	0.7	
0.9	0.8	0.7	
0.9	0.9	0.7	
1	0.9	0.7	
1	0.8	0.7	
0.9	0.8	0.7	
0.9	0.9	0.7	
1	0.9	0.7	
1	0.8	0.6	
0.9	0.8	0.6	
0.9	0.9	0.6	
1	0.9	0.6	
1	0.8	0.6	
0.9	0.8	0.6	
0.9	0.9	0.6	
1	0.9	0.6	
1	0.8	0.5	
0.9	0.8	0.5	
0.9	0.9	0.5	
1	0.9	0.5	
1	0.8	0.5	
0.9	0.8	0.5	
0.9	0.9	0.5	
1	0.9	0.5	
1	0.8	0.4	
0.9	0.8	0.4	
0.9	0.9	0.4	
1	0.9	0.4	
1	0.8	0.4	
0.9	0.8	0.4	
0.9	0.9	0.4	
1	0.9	0.4	
1	0.8	0.3	
0.9	0.8	0.3	
0.9	0.9	0.3	
1	0.9	0.3	
1	0.8	0.3	
0.9	0.8	0.3	
0.9	0.9	0.3	
1	0.9	0.3	
1	0.8	0.2	
0.9	0.8	0.2	
0.9	0.9	0.2	
1	0.9	0.2	
1	0.8	0.2	
0.9	0.8	0.2	
0.9	0.9	0.2	
1	0.9	0.2	
1	0.8	0.1	
0.9	0.8	0.1	
0.9	0.9	0.1	
1	0.9	0.1	
1	0.8	0.1	
0.9	0.8	0.1	
0.9	0.9	0.1	
1	0.9	0.1	
1	0.8	0	
0.9	0.8	0	
0.9	0.9	0	
1	0.9	0	
0.1	0.7	1	
0	0.7	1	
0	0.8	1	
0.1	0.8	1	
0.1	0.7	0.9	
0	0.7	0.9	
0	0.8	0.9	
0.1	0.8	0.9	
0.1	0.7	0.9	
0	0.7	0.9	
0	0.8	0.9	
0.1	0.8	0.9	
0.1	0.7	0.8	
0	0.7	0.8	
0	0.8	0.8	
0.1	0.8	0.8	
0.1	0.7	0.8	
0	0.7	0.8	
0	0.8	0.8	
0.1	0.8	0.8	
0.1	0.7	0.7	
0	0.7	0.7	
0	0.8	0.7	
0.1	0.8	0.7	
0.1	0.7	0.7	
0	0.7	0.7	
0	0.8	0.7	
0.1	0.8	0.7	
0.1	0.7	0.6	
0	0.7	0.6	
0	0.8	0.6	
0.1	0.8	0.6	
0.1	0.7	0.6	
0	0.7	0.6	
0	0.8	0.6	
0.1	0.8	0.6	
0.1	0.7	0.5	
0	0.7	0.5	
0	0.8	0.5	
0.1	0.8	0.5	
0.1	0.7	0.5	
0	0.7	0.5	
0	0.8	0.5	
0.1	0.8	0.5	
0.1	0.7	0.4	
0	0.7	0.4	
0	0.8	0.4	
0.1	0.8	0.4	
0.1	0.7	0.4	
0	0.7	0.4	
0	0.8	0.4	
0.1	0.8	0.4	
0.1	0.7	0.3	
0	0.7	0.3	
0	0.8	0.3	
0.1	0.8	0.3	
0.1	0.7	0.3	
0	0.7	0.3	
0	0.8	0.3	
0.1	0.8	0.3	
0.1	0.7	0.2	
0	0.7	0.2	
0	0.8	0.2	
0.1	0.8	0.2	
0.1	0.7	0.2	
0	0.7	0.2	
0	0.8	0.2	
0.1	0.8	0.2	
0.1	0.7	0.1	
0	0.7	0.1	
0	0.8	0.1	
0.1	0.8	0.1	
0.1	0.7	0.1	
0	0.7	0.1	
0	0.8	0.1	
0.1	0.8	0.1	
0.1	0.7	0	
0	0.7	0	
0	0.8	0	
0.1	0.8	0	
0.2	0.7	1	
0.1	0.7	1	
0.1	0.8	1	
0.2	0.8	1	
0.2	0.7	0.9	
0.1	0.7	0.9	
0.1	0.8	0.9	
0.2	0.8	0.9	
0.2	0.7	0.9	
0.1	0.7	0.9	
0.1	0.8	0.9	
0.2	0.8	0.9	
0.2	0.7	0.8	
0.1	0.7	0.8	
0.1	0.8	0.8	
0.2	0.8	0.8	
0.2	0.7	0.8	
0.1	0.7	0.8	
0.1	0.8	0.8	
0.2	0.8	0.8	
0.2	0.7	0.7	
0.1	0.7	0.7	
0.1	0.8	0.7	
0.2	0.8	0.7	
0.2	0.7	0.7	
0.1	0.7	0.7	
0.1	0.8	0.7	
0.2	0.8	0.7	
0.2	0.7	0.6	
0.1	0.7	0.6	
0.1	0.8	0.6	
0.2	0.8	0.6	
0.2	0.7	0.6	
0.1	0.7	0.6	
0.1	0.8	0.6	
0.2	0.8	0.6	
0.2	0.7	0.5	
0.1	0.7	0.5	
0.1	0.8	0.5	
0.2	0.8	0.5	
0.2	0.7	0.5	
0.1	0.7	0.5	
0.1	0.8	0.5	
0.2	0.8	0.5	
0.2	0.7	0.4	
0.1	0.7	0.4	
0.1	0.8	0.4	
0.2	0.8	0.4	
0.2	0.7	0.4	
0.1	0.7	0.4	
0.1	0.8	0.4	
0.2	0.8	0.4	
0.2	0.7	0.3	
0.1	0.7	0.3	
0.1	0.8	0.3	
0.2	0.8	0.3	
0.2	0.7	0.3	
0.1	0.7	0.3	
0.1	0.8	0.3	
0.2	0.8	0.3	
0.2	0.7	0.2	
0.1	0.7	0.2	
0.1	0.8	0.2	
0.2	0.8	0.2	
0.2	0.7	0.2	
0.1	0.7	0.2	
0.1	0.8	0.2	
0.2	0.8	0.2	
0.2	0.7	0.1	
0.1	0.7	0.1	
0.1	0.8	0.1	
0.2	0.8	0.1	
0.2	0.7	0.1	
0.1	0.7	0.1	
0.1	0.8	0.1	
0.2	0.8	0.1	
0.2	0.7	0	
0.1	0.7	0	
0.1	0.8	0	
0.2	0.8	0	
0.3	0.7	1	
0.2	0.7	1	
0.2	0.8	1	
0.3	0.8	1	
0.3	0.7	0.9	
0.2	0.7	0.9	
0.2	0.8	0.9	
0.3	0.8	0.9	
0.3	0.7	0.9	
0.2	0.7	0.9	
0.2	0.8	0.9	
0.3	0.8	0.9	
0.3	0.7	0.8	
0.2	0.7	0.8	
0.2	0.8	0.8	
0.3	0.8	0.8	
0.3	0.7	0.8	
0.2	0.7	0.8	
0.2	0.8	0.8	
0.3	0.8	0.8	
0.3	0.7	0.7	
0.2	0.7	0.7	
0.2	0.8	0.7	
0.3	0.8	0.7	
0.3	0.7	0.7	
0.2	0.7	0.7	
0.2	0.8	0.7	
0.3	0.8	0.7	
0.3	0.7	0.6	
0.2	0.7	0.6	
0.2	0.8	0.6	
0.3	0.8	0.6	
0.3	0.7	0.6	
0.2	0.7	0.6	
0.2	0.8	0.6	
0.3	0.8	0.6	
0.3	0.7	0.5	
0.2	0.7	0.5	
0.2	0.8	0.5	
0.3	0.8	0.5	
0.3	0.7	0.5	
0.2	0.7	0.5	
0.2	0.8	0.5	
0.3	0.8	0.5	
0.3	0.7	0.4	
0.2	0.7	0.4	
0.2	0.8	0.4	
0.3	0.8	0.4	
0.3	0.7	0.4	
0.2	0.7	0.4	
0.2	0.8	0.4	
0.3	0.8	0.4	
0.3	0.7	0.3	
0.2	0.7	0.3	
0.2	0.8	0.3	
0.3	0.8	0.3	
0.3	0.7	0.3	
0.2	0.7	0.3	
0.2	0.8	0.3	
0.3	0.8	0.3	
0.3	0.7	0.2	
0.2	0.7	0.2	
0.2	0.8	0.2	
0.3	0.8	0.2	
0.3	0.7	0.2	
0.2	0.7	0.2	
0.2	0.8	0.2	
0.3	0.8	0.2	
0.3	0.7	0.1	
0.2	0.7	0.1	
0.2	0.8	0.1	
0.3	0.8	0.1	
0.3	0.7	0.1	
0.2	0.7	0.1	
0.2	0.8	0.1	
0.3	0.8	0.1	
0.3	0.7	0	
0.2	0.7	0	
0.2	0.8	0	
0.3	0.8	0	
0.4	0.7	1	
0.3	0.7	1	
0.3	0.8	1	
0.4	0.8	1	
0.4	0.7	0.9	
0.3	0.7	0.9	
0.3	0.8	0.9	
0.4	0.8	0.9	
0.4	0.7	0.9	
0.3	0.7	0.9	
0.3	0.8	0.9	
0.4	0.8	0.9	
0.4	0.7	0.8	
0.3	0.7	0.8	
0.3	0.8	0.8	
0.4	0.8	0.8	
0.4	0.7	0.8	
0.3	0.7	0.8	
0.3	0.8	0.8	
0.4	0.8	0.8	
0.4	0.7	0.7	
0.3	0.7	0.7	
0.3	0.8	0.7	
0.4	0.8	0.7	
0.4	0.7	0.7	
0.3	0.7	0.7	
0.3	0.8	0.7	
0.4	0.8	0.7	
0.4	0.7	0.6	
0.3	0.7	0.6	
0.3	0.8	0.6	
0.4	0.8	0.6	
0.4	0.7	0.6	
0.3	0.7	0.6	
0.3	0.8	0.6	
0.4	0.8	0.6	
0.4	0.7	0.5	
0.3	0.7	0.5	
0.3	0.8	0.5	
0.4	0.8	0.5	
0.4	0.7	0.5	
0.3	0.7	0.5	
0.3	0.8	0.5	
0.4	0.8	0.5	
0.4	0.7	0.4	
0.3	0.7	0.4	
0.3	0.8	0.4	
0.4	0.8	0.4	
0.4	0.7	0.4	
0.3	0.7	0.4	
0.3	0.8	0.4	
0.4	0.8	0.4	
0.4	0.7	0.3	
0.3	0.7	0.3	
0.3	0.8	0.3	
0.4	0.8	0.3	
0.4	0.7	0.3	
0.3	0.7	0.3	
0.3	0.8	0.3	
0.4	0.8	0.3	
0.4	0.7	0.2	
0.3	0.7	0.2	
0.3	0.8	0.2	
0.4	0.8	0.2	
0.4	0.7	0.2	
0.3	0.7	0.2	
0.3	0.8	0.2	
0.4	0.8	0.2	
0.4	0.7	0.1	
0.3	0.7	0.1	
0.3	0.8	0.1	
0.4	0.8	0.1	
0.4	0.7	0.1	
0.3	0.7	0.1	
0.3	0.8	0.1	
0.4	0.8	0.1	
0.4	0.7	0	
0.3	0.7	0	
0.3	0.8	0	
0.4	0.8	0	
0.5	0.7	1	
0.4	0.7	1	
0.4	0.8	1	
0.5	0.8	1	
0.5	0.7	0.9	
0.4	0.7	0.9	
0.4	0.8	0.9	
0.5	0.8	0.9	
0.5	0.7	0.9	
0.4	0.7	0.9	
0.4	0.8	0.9	
0.5	0.8	0.9	
0.5	0.7	0.8	
0.4	0.7	0.8	
0.4	0.8	0.8	
0.5	0.8	0.8	
0.5	0.7	0.8	
0.4	0.7	0.8	
0.4	0.8	0.8	
0.5	0.8	0.8	
0.5	0.7	0.7	
0.4	0.7	0.7	
0.4	0.8	0.7	
0.5	0.8	0.7	
0.5	0.7	0.7	
0.4	0.7	0.7	
0.4	0.8	0.7	
0.5	0.8	0.7	
0.5	0.7	0.6	
0.4	0.7	0.6	
0.4	0.8	0.6	
0.5	0.8	0.6	
0.5	0.7	0.6	
0.4	0.7	0.6	
0.4	0.8	0.6	
0.5	0.8	0.6	
0.5	0.7	0.5	
0.4	0.7	0.5	
0.4	0.8	0.5	
0.5	0.8	0.5	
0.5	0.7	0.5	
0.4	0.7	0.5	
0.4	0.8	0.5	
0.5	0.8	0.5	
0.5	0.7	0.4	
0.4	0.7	0.4	
0.4	0.8	0.4	
0.5	0.8	0.4	
0.5	0.7	0.4	
0.4	0.7	0.4	
0.4	0.8	0.4	
0.5	0.8	0.4	
0.5	0.7	0.3	
0.4	0.7	0.3	
0.4	0.8	0.3	
0.5	0.8	0.3	
0.5	0.7	0.3	
0.4	0.7	0.3	
0.4	0.8	0.3	
0.5	0.8	0.3	
0.5	0.7	0.2	
0.4	0.7	0.2	
0.4	0.8	0.2	
0.5	0.8	0.2	
0.5	0.7	0.2	
0.4	0.7	0.2	
0.4	0.8	0.2	
0.5	0.8	0.2	
0.5	0.7	0.1	
0.4	0.7	0.1	
0.4	0.8	0.1	
0.5	0.8	0.1	
0.5	0.7	0.1	
0.4	0.7	0.1	
0.4	0.8	0.1	
0.5	0.8	0.1	
0.5	0.7	0	
0.4	0.7	0	
0.4	0.8	0	
0.5	0.8	0	
0.6	0.7	1	
0.5	0.7	1	
0.5	0.8	1	
0.6	0.8	1	
0.6	0.7	0.9	
0.5	0.7	0.9	
0.5	0.8	0.9	
0.6	0.8	0.9	
0.6	0.7	0.9	
0.5	0.7	0.9	
0.5	0.8	0.9	
0.6	0.8	0.9	
0.6	0.7	0.8	
0.5	0.7	0.8	
0.5	0.8	0.8	
0.6	0.8	0.8	
0.6	0.7	0.8	
0.5	0.7	0.8	
0.5	0.8	0.8	
0.6	0.8	0.8	
0.6	0.7	0.7	
0.5	0.7	0.7	
0.5	0.8	0.7	
0.6	0.8	0.7	
0.6	0.7	0.7	
0.5	0.7	0.7	
0.5	0.8	0.7	
0.6	0.8	0.7	
0.6	0.7	0.6	
0.5	0.7	0.6	
0.5	0.8	0.6	
0.6	0.8	0.6	
0.6	0.7	0.6	
0.5	0.7	0.6	
0.5	0.8	0.6	
0.6	0.8	0.6	
0.6	0.7	0.5	
0.5	0.7	0.5	
0.5	0.8	0.5	
0.6	0.8	0.5	
0.6	0.7	0.5	
0.5	0.7	0.5	
0.5	0.8	0.5	
0.6	0.8	0.5	
0.6	0.7	0.4	
0.5	0.7	0.4	
0.5	0.8	0.4	
0.6	0.8	0.4	
0.6	0.7	0.4	
0.5	0.7	0.4	
0.5	0.8	0.4	
0.6	0.8	0.4	
0.6	0.7	0.3	
0.5	0.7	0.3	
0.5	0.8	0.3	
0.6	0.8	0.3	
0.6	0.7	0.3	
0.5	0.7	0.3	
0.5	0.8	0.3	
0.6	0.8	0.3	
0.6	0.7	0.2	
0.5	0.7	0.2	
0.5	0.8	0.2	
0.6	0.8	0.2	
0.6	0.7	0.2	
0.5	0.7	0.2	
0.5	0.8	0.2	
0.6	0.8	0.2	
0.6	0.7	0.1	
0.5	0.7	0.1	
0.5	0.8	0.1	
0.6	0.8	0.1	
0.6	0.7	0.1	
0.5	0.7	0.1	
0.5	0.8	0.1	
0.6	0.8	0.1	
0.6	0.7	0	
0.5	0.7	0	
0.5	0.8	0	
0.6	0.8	0	
0.7	0.7	1	
0.6	0.7	1	
0.6	0.8	1	
0.7	0.8	1	
0.7	0.7	0.9	
0.6	0.7	0.9	
0.6	0.8	0.9	
0.7	0.8	0.9	
0.7	0.7	0.9	
0.6	0.7	0.9	
0.6	0.8	0.9	
0.7	0.8	0.9	
0.7	0.7	0.8	
0.6	0.7	0.8	
0.6	0.8	0.8	
0.7	0.8	0.8	
0.7	0.7	0.8	
0.6	0.7	0.8	
0.6	0.8	0.8	
0.7	0.8	0.8	
0.7	0.7	0.7	
0.6	0.7	0.7	
0.6	0.8	0.7	
0.7	0.8	0.7	
0.7	0.7	0.7	
0.6	0.7	0.7	
0.6	0.8	0.7	
0.7	0.8	0.7	
0.7	0.7	0.6	
0.6	0.7	0.6	
0.6	0.8	0.6	
0.7	0.8	0.6	
0.7	0.7	0.6	
0.6	0.7	0.6	
0.6	0.8	0.6	
0.7	0.8	0.6	
0.7	0.7	0.5	
0.6	0.7	0.5	
0.6	0.8	0.5	
0.7	0.8	0.5	
0.7	0.7	0.5	
0.6	0.7	0.5	
0.6	0.8	0.5	
0.7	0.8	0.5	
0.7	0.7	0.4	
0.6	0.7	0.4	
0.6	0.8	0.4	
0.7	0.8	0.4	
0.7	0.7	0.4	
0.6	0.7	0.4	
0.6	0.8	0.4	
0.7	0.8	0.4	
0.7	0.7	0.3	
0.6	0.7	0.3	
0.6	0.8	0.3	
0.7	0.8	0.3	
0.7	0.7	0.3	
0.6	0.7	0.3	
0.6	0.8	0.3	
0.7	0.8	0.3	
0.7	0.7	0.2	
0.6	0.7	0.2	
0.6	0.8	0.2	
0.7	0.8	0.2	
0.7	0.7	0.2	
0.6	0.7	0.2	
0.6	0.8	0.2	
0.7	0.8	0.2	
0.7	0.7	0.1	
0.6	0.7	0.1	
0.6	0.8	0.1	
0.7	0.8	0.1	
0.7	0.7	0.1	
0.6	0.7	0.1	
0.6	0.8	0.1	
0.7	0.8	0.1	
0.7	0.7	0	
0.6	0.7	0	
0.6	0.8	0	
0.7	0.8	0	
0.8	0.7	1	
0.7	0.7	1	
0.7	0.8	1	
0.8	0.8	1	
0.8	0.7	0.9	
0.7	0.7	0.9	
0.7	0.8	0.9	
0.8	0.8	0.9	
0.8	0.7	0.9	
0.7	0.7	0.9	
0.7	0.8	0.9	
0.8	0.8	0.9	
0.8	0.7	0.8	
0.7	0.7	0.8	
0.7	0.8	0.8	
0.8	0.8	0.8	
0.8	0.7	0.8	
0.7	0.7	0.8	
0.7	0.8	0.8	
0.8	0.8	0.8	
0.8	0.7	0.7	
0.7	0.7	0.7	
0.7	0.8	0.7	
0.8	0.8	0.7	
0.8	0.7	0.7	
0.7	0.7	0.7	
0.7	0.8	0.7	
0.8	0.8	0.7	
0.8	0.7	0.6	
0.7	0.7	0.6	
0.7	0.8	0.6	
0.8	0.8	0.6	
0.8	0.7	0.6	
0.7	0.7	0.6	
0.7	0.8	0.6	
0.8	0.8	0.6	
0.8	0.7	0.5	
0.7	0.7	0.5	
0.7	0.8	0.5	
0.8	0.8	0.5	
0.8	0.7	0.5	
0.7	0.7	0.5	
0.7	0.8	0.5	
0.8	0.8	0.5	
0.8	0.7	0.4	
0.7	0.7	0.4	
0.7	0.8	0.4	
0.8	0.8	0.4	
0.8	0.7	0.4	
0.7	0.7	0.4	
0.7	0.8	0.4	
0.8	0.8	0.4	
0.8	0.7	0.3	
0.7	0.7	0.3	
0.7	0.8	0.3	
0.8	0.8	0.3	
0.8	0.7	0.3	
0.7	0.7	0.3	
0.7	0.8	0.3	
0.8	0.8	0.3	
0.8	0.7	0.2	
0.7	0.7	0.2	
0.7	0.8	0.2	
0.8	0.8	0.2	
0.8	0.7	0.2	
0.7	0.7	0.2	
0.7	0.8	0.2	
0.8	0.8	0.2	
0.8	0.7	0.1	
0.7	0.7	0.1	
0.7	0.8	0.1	
0.8	0.8	0.1	
0.8	0.7	0.1	
0.7	0.7	0.1	
0.7	0.8	0.1	
0.8	0.8	0.1	
0.8	0.7	0	
0.7	0.7	0	
0.7	0.8	0	
0.8	0.8	0	
0.9	0.7	1	
0.8	0.7	1	
0.8	0.8	1	
0.9	0.8	1	
0.9	0.7	0.9	
0.8	0.7	0.9	
0.8	0.8	0.9	
0.9	0.8	0.9	
0.9	0.7	0.9	
0.8	0.7	0.9	
0.8	0.8	0.9	
0.9	0.8	0.9	
0.9	0.7	0.8	
0.8	0.7	0.8	
0.8	0.8	0.8	
0.9	0.8	0.8	
0.9	0.7	0.8	
0.8	0.7	0.8	
0.8	0.8	0.8	
0.9	0.8	0.8	
0.9	0.7	0.7	
0.8	0.7	0.7	
0.8	0.8	0.7	
0.9	0.8	0.7	
0.9	0.7	0.7	
0.8	0.7	0.7	
0.8	0.8	0.7	
0.9	0.8	0.7	
0.9	0.7	0.6	
0.8	0.7	0.6	
0.8	0.8	0.6	
0.9	0.8	0.6	
0.9	0.7	0.6	
0.8	0.7	0.6	
0.8	0.8	0.6	
0.9	0.8	0.6	
0.9	0.7	0.5	
0.8	0.7	0.5	
0.8	0.8	0.5	
0.9	0.8	0.5	
0.9	0.7	0.5	
0.8	0.7	0.5	
0.8	0.8	0.5	
0.9	0.8	0.5	
0.9	0.7	0.4	
0.8	0.7	0.4	
0.8	0.8	0.4	
0.9	0.8	0.4	
0.9	0.7	0.4	
0.8	0.7	0.4	
0.8	0.8	0.4	
0.9	0.8	0.4	
0.9	0.7	0.3	
0.8	0.7	0.3	
0.8	0.8	0.3	
0.9	0.8	0.3	
0.9	0.7	0.3	
0.8	0.7	0.3	
0.8	0.8	0.3	
0.9	0.8	0.3	
0.9	0.7	0.2	
0.8	0.7	0.2	
0.8	0.8	0.2	
0.9	0.8	0.2	
0.9	0.7	0.2	
0.8	0.7	0.2	
0.8	0.8	0.2	
0.9	0.8	0.2	
0.9	0.7	0.1	
0.8	0.7	0.1	
0.8	0.8	0.1	
0.9	0.8	0.1	
0.9	0.7	0.1	
0.8	0.7	0.1	
0.8	0.8	0.1	
0.9	0.8	0.1	
0.9	0.7	0	
0.8	0.7	0	
0.8	0.8	0	
0.9	0.8	0	
1	0.7	1	
0.9	0.7	1	
0.9	0.8	1	
1	0.8	1	
1	0.7	0.9	
0.9	0.7	0.9	
0.9	0.8	0.9	
1	0.8	0.9	
1	0.7	0.9	
0.9	0.7	0.9	
0.9	0.8	0.9	
1	0.8	0.9	
1	0.7	0.8	
0.9	0.7	0.8	
0.9	0.8	0.8	
1	0.8	0.8	
1	0.7	0.8	
0.9	0.7	0.8	
0.9	0.8	0.8	
1	0.8	0.8	
1	0.7	0.7	
0.9	0.7	0.7	
0.9	0.8	0.7	
1	0.8	0.7	
1	0.7	0.7	
0.9	0.7	0.7	
0.9	0.8	0.7	
1	0.8	0.7	
1	0.7	0.6	
0.9	0.7	0.6	
0.9	0.8	0.6	
1	0.8	0.6	
1	0.7	0.6	
0.9	0.7	0.6	
0.9	0.8	0.6	
1	0.8	0.6	
1	0.7	0.5	
0.9	0.7	0.5	
0.9	0.8	0.5	
1	0.8	0.5	
1	0.7	0.5	
0.9	0.7	0.5	
0.9	0.8	0.5	
1	0.8	0.5	
1	0.7	0.4	
0.9	0.7	0.4	
0.9	0.8	0.4	
1	0.8	0.4	
1	0.7	0.4	
0.9	0.7	0.4	
0.9	0.8	0.4	
1	0.8	0.4	
1	0.7	0.3	
0.9	0.7	0.3	
0.9	0.8	0.3	
1	0.8	0.3	
1	0.7	0.3	
0.9	0.7	0.3	
0.9	0.8	0.3	
1	0.8	0.3	
1	0.7	0.2	
0.9	0.7	0.2	
0.9	0.8	0.2	
1	0.8	0.2	
1	0.7	0.2	
0.9	0.7	0.2	
0.9	0.8	0.2	
1	0.8	0.2	
1	0.7	0.1	
0.9	0.7	0.1	
0.9	0.8	0.1	
1	0.8	0.1	
1	0.7	0.1	
0.9	0.7	0.1	
0.9	0.8	0.1	
1	0.8	0.1	
1	0.7	0	
0.9	0.7	0	
0.9	0.8	0	
1	0.8	0	
0.1	0.6	1	
0	0.6	1	
0	0.7	1	
0.1	0.7	1	
0.1	0.6	0.9	
0	0.6	0.9	
0	0.7	0.9	
0.1	0.7	0.9	
0.1	0.6	0.9	
0	0.6	0.9	
0	0.7	0.9	
0.1	0.7	0.9	
0.1	0.6	0.8	
0	0.6	0.8	
0	0.7	0.8	
0.1	0.7	0.8	
0.1	0.6	0.8	
0	0.6	0.8	
0	0.7	0.8	
0.1	0.7	0.8	
0.1	0.6	0.7	
0	0.6	0.7	
0	0.7	0.7	
0.1	0.7	0.7	
0.1	0.6	0.7	
0	0.6	0.7	
0	0.7	0.7	
0.1	0.7	0.7	
0.1	0.6	0.6	
0	0.6	0.6	
0	0.7	0.6	
0.1	0.7	0.6	
0.1	0.6	0.6	
0	0.6	0.6	
0	0.7	0.6	
0.1	0.7	0.6	
0.1	0.6	0.5	
0	0.6	0.5	
0	0.7	0.5	
0.1	0.7	0.5	
0.1	0.6	0.5	
0	0.6	0.5	
0	0.7	0.5	
0.1	0.7	0.5	
0.1	0.6	0.4	
0	0.6	0.4	
0	0.7	0.4	
0.1	0.7	0.4	
0.1	0.6	0.4	
0	0.6	0.4	
0	0.7	0.4	
0.1	0.7	0.4	
0.1	0.6	0.3	
0	0.6	0.3	
0	0.7	0.3	
0.1	0.7	0.3	
0.1	0.6	0.3	
0	0.6	0.3	
0	0.7	0.3	
0.1	0.7	0.3	
0.1	0.6	0.2	
0	0.6	0.2	
0	0.7	0.2	
0.1	0.7	0.2	
0.1	0.6	0.2	
0	0.6	0.2	
0	0.7	0.2	
0.1	0.7	0.2	
0.1	0.6	0.1	
0	0.6	0.1	
0	0.7	0.1	
0.1	0.7	0.1	
0.1	0.6	0.1	
0	0.6	0.1	
0	0.7	0.1	
0.1	0.7	0.1	
0.1	0.6	0	
0	0.6	0	
0	0.7	0	
0.1	0.7	0	
0.2	0.6	1	
0.1	0.6	1	
0.1	0.7	1	
0.2	0.7	1	
0.2	0.6	0.9	
0.1	0.6	0.9	
0.1	0.7	0.9	
0.2	0.7	0.9	
0.2	0.6	0.9	
0.1	0.6	0.9	
0.1	0.7	0.9	
0.2	0.7	0.9	
0.2	0.6	0.8	
0.1	0.6	0.8	
0.1	0.7	0.8	
0.2	0.7	0.8	
0.2	0.6	0.8	
0.1	0.6	0.8	
0.1	0.7	0.8	
0.2	0.7	0.8	
0.2	0.6	0.7	
0.1	0.6	0.7	
0.1	0.7	0.7	
0.2	0.7	0.7	
0.2	0.6	0.7	
0.1	0.6	0.7	
0.1	0.7	0.7	
0.2	0.7	0.7	
0.2	0.6	0.6	
0.1	0.6	0.6	
0.1	0.7	0.6	
0.2	0.7	0.6	
0.2	0.6	0.6	
0.1	0.6	0.6	
0.1	0.7	0.6	
0.2	0.7	0.6	
0.2	0.6	0.5	
0.1	0.6	0.5	
0.1	0.7	0.5	
0.2	0.7	0.5	
0.2	0.6	0.5	
0.1	0.6	0.5	
0.1	0.7	0.5	
0.2	0.7	0.5	
0.2	0.6	0.4	
0.1	0.6	0.4	
0.1	0.7	0.4	
0.2	0.7	0.4	
0.2	0.6	0.4	
0.1	0.6	0.4	
0.1	0.7	0.4	
0.2	0.7	0.4	
0.2	0.6	0.3	
0.1	0.6	0.3	
0.1	0.7	0.3	
0.2	0.7	0.3	
0.2	0.6	0.3	
0.1	0.6	0.3	
0.1	0.7	0.3	
0.2	0.7	0.3	
0.2	0.6	0.2	
0.1	0.6	0.2	
0.1	0.7	0.2	
0.2	0.7	0.2	
0.2	0.6	0.2	
0.1	0.6	0.2	
0.1	0.7	0.2	
0.2	0.7	0.2	
0.2	0.6	0.1	
0.1	0.6	0.1	
0.1	0.7	0.1	
0.2	0.7	0.1	
0.2	0.6	0.1	
0.1	0.6	0.1	
0.1	0.7	0.1	
0.2	0.7	0.1	
0.2	0.6	0	
0.1	0.6	0	
0.1	0.7	0	
0.2	0.7	0	
0.3	0.6	1	
0.2	0.6	1	
0.2	0.7	1	
0.3	0.7	1	
0.3	0.6	0.9	
0.2	0.6	0.9	
0.2	0.7	0.9	
0.3	0.7	0.9	
0.3	0.6	0.9	
0.2	0.6	0.9	
0.2	0.7	0.9	
0.3	0.7	0.9	
0.3	0.6	0.8	
0.2	0.6	0.8	
0.2	0.7	0.8	
0.3	0.7	0.8	
0.3	0.6	0.8	
0.2	0.6	0.8	
0.2	0.7	0.8	
0.3	0.7	0.8	
0.3	0.6	0.7	
0.2	0.6	0.7	
0.2	0.7	0.7	
0.3	0.7	0.7	
0.3	0.6	0.7	
0.2	0.6	0.7	
0.2	0.7	0.7	
0.3	0.7	0.7	
0.3	0.6	0.6	
0.2	0.6	0.6	
0.2	0.7	0.6	
0.3	0.7	0.6	
0.3	0.6	0.6	
0.2	0.6	0.6	
0.2	0.7	0.6	
0.3	0.7	0.6	
0.3	0.6	0.5	
0.2	0.6	0.5	
0.2	0.7	0.5	
0.3	0.7	0.5	
0.3	0.6	0.5	
0.2	0.6	0.5	
0.2	0.7	0.5	
0.3	0.7	0.5	
0.3	0.6	0.4	
0.2	0.6	0.4	
0.2	0.7	0.4	
0.3	0.7	0.4	
0.3	0.6	0.4	
0.2	0.6	0.4	
0.2	0.7	0.4	
0.3	0.7	0.4	
0.3	0.6	0.3	
0.2	0.6	0.3	
0.2	0.7	0.3	
0.3	0.7	0.3	
0.3	0.6	0.3	
0.2	0.6	0.3	
0.2	0.7	0.3	
0.3	0.7	0.3	
0.3	0.6	0.2	
0.2	0.6	0.2	
0.2	0.7	0.2	
0.3	0.7	0.2	
0.3	0.6	0.2	
0.2	0.6	0.2	
0.2	0.7	0.2	
0.3	0.7	0.2	
0.3	0.6	0.1	
0.2	0.6	0.1	
0.2	0.7	0.1	
0.3	0.7	0.1	
0.3	0.6	0.1	
0.2	0.6	0.1	
0.2	0.7	0.1	
0.3	0.7	0.1	
0.3	0.6	0	
0.2	0.6	0	
0.2	0.7	0	
0.3	0.7	0	
0.4	0.6	1	
0.3	0.6	1	
0.3	0.7	1	
0.4	0.7	1	
0.4	0.6	0.9	
0.3	0.6	0.9	
0.3	0.7	0.9	
0.4	0.7	0.9	
0.4	0.6	0.9	
0.3	0.6	0.9	
0.3	0.7	0.9	
0.4	0.7	0.9	
0.4	0.6	0.8	
0.3	0.6	0.8	
0.3	0.7	0.8	
0.4	0.7	0.8	
0.4	0.6	0.8	
0.3	0.6	0.8	
0.3	0.7	0.8	
0.4	0.7	0.8	
0.4	0.6	0.7	
0.3	0.6	0.7	
0.3	0.7	0.7	
0.4	0.7	0.7	
0.4	0.6	0.7	
0.3	0.6	0.7	
0.3	0.7	0.7	
0.4	0.7	0.7	
0.4	0.6	0.6	
0.3	0.6	0.6	
0.3	0.7	0.6	
0.4	0.7	0.6	
0.4	0.6	0.6	
0.3	0.6	0.6	
0.3	0.7	0.6	
0.4	0.7	0.6	
0.4	0.6	0.5	
0.3	0.6	0.5	
0.3	0.7	0.5	
0.4	0.7	0.5	
0.4	0.6	0.5	
0.3	0.6	0.5	
0.3	0.7	0.5	
0.4	0.7	0.5	
0.4	0.6	0.4	
0.3	0.6	0.4	
0.3	0.7	0.4	
0.4	0.7	0.4	
0.4	0.6	0.4	
0.3	0.6	0.4	
0.3	0.7	0.4	
0.4	0.7	0.4	
0.4	0.6	0.3	
0.3	0.6	0.3	
0.3	0.7	0.3	
0.4	0.7	0.3	
0.4	0.6	0.3	
0.3	0.6	0.3	
0.3	0.7	0.3	
0.4	0.7	0.3	
0.4	0.6	0.2	
0.3	0.6	0.2	
0.3	0.7	0.2	
0.4	0.7	0.2	
0.4	0.6	0.2	
0.3	0.6	0.2	
0.3	0.7	0.2	
0.4	0.7	0.2	
0.4	0.6	0.1	
0.3	0.6	0.1	
0.3	0.7	0.1	
0.4	0.7	0.1	
0.4	0.6	0.1	
0.3	0.6	0.1	
0.3	0.7	0.1	
0.4	0.7	0.1	
0.4	0.6	0	
0.3	0.6	0	
0.3	0.7	0	
0.4	0.7	0	
0.5	0.6	1	
0.4	0.6	1	
0.4	0.7	1	
0.5	0.7	1	
0.5	0.6	0.9	
0.4	0.6	0.9	
0.4	0.7	0.9	
0.5	0.7	0.9	
0.5	0.6	0.9	
0.4	0.6	0.9	
0.4	0.7	0.9	
0.5	0.7	0.9	
0.5	0.6	0.8	
0.4	0.6	0.8	
0.4	0.7	0.8	
0.5	0.7	0.8	
0.5	0.6	0.8	
0.4	0.6	0.8	
0.4	0.7	0.8	
0.5	0.7	0.8	
0.5	0.6	0.7	
0.4	0.6	0.7	
0.4	0.7	0.7	
0.5	0.7	0.7	
0.5	0.6	0.7	
0.4	0.6	0.7	
0.4	0.7	0.7	
0.5	0.7	0.7	
0.5	0.6	0.6	
0.4	0.6	0.6	
0.4	0.7	0.6	
0.5	0.7	0.6	
0.5	0.6	0.6	
0.4	0.6	0.6	
0.4	0.7	0.6	
0.5	0.7	0.6	
0.5	0.6	0.5	
0.4	0.6	0.5	
0.4	0.7	0.5	
0.5	0.7	0.5	
0.5	0.6	0.5	
0.4	0.6	0.5	
0.4	0.7	0.5	
0.5	0.7	0.5	
0.5	0.6	0.4	
0.4	0.6	0.4	
0.4	0.7	0.4	
0.5	0.7	0.4	
0.5	0.6	0.4	
0.4	0.6	0.4	
0.4	0.7	0.4	
0.5	0.7	0.4	
0.5	0.6	0.3	
0.4	0.6	0.3	
0.4	0.7	0.3	
0.5	0.7	0.3	
0.5	0.6	0.3	
0.4	0.6	0.3	
0.4	0.7	0.3	
0.5	0.7	0.3	
0.5	0.6	0.2	
0.4	0.6	0.2	
0.4	0.7	0.2	
0.5	0.7	0.2	
0.5	0.6	0.2	
0.4	0.6	0.2	
0.4	0.7	0.2	
0.5	0.7	0.2	
0.5	0.6	0.1	
0.4	0.6	0.1	
0.4	0.7	0.1	
0.5	0.7	0.1	
0.5	0.6	0.1	
0.4	0.6	0.1	
0.4	0.7	0.1	
0.5	0.7	0.1	
0.5	0.6	0	
0.4	0.6	0	
0.4	0.7	0	
0.5	0.7	0	
0.6	0.6	1	
0.5	0.6	1	
0.5	0.7	1	
0.6	0.7	1	
0.6	0.6	0.9	
0.5	0.6	0.9	
0.5	0.7	0.9	
0.6	0.7	0.9	
0.6	0.6	0.9	
0.5	0.6	0.9	
0.5	0.7	0.9	
0.6	0.7	0.9	
0.6	0.6	0.8	
0.5	0.6	0.8	
0.5	0.7	0.8	
0.6	0.7	0.8	
0.6	0.6	0.8	
0.5	0.6	0.8	
0.5	0.7	0.8	
0.6	0.7	0.8	
0.6	0.6	0.7	
0.5	0.6	0.7	
0.5	0.7	0.7	
0.6	0.7	0.7	
0.6	0.6	0.7	
0.5	0.6	0.7	
0.5	0.7	0.7	
0.6	0.7	0.7	
0.6	0.6	0.6	
0.5	0.6	0.6	
0.5	0.7	0.6	
0.6	0.7	0.6	
0.6	0.6	0.6	
0.5	0.6	0.6	
0.5	0.7	0.6	
0.6	0.7	0.6	
0.6	0.6	0.5	
0.5	0.6	0.5	
0.5	0.7	0.5	
0.6	0.7	0.5	
0.6	0.6	0.5	
0.5	0.6	0.5	
0.5	0.7	0.5	
0.6	0.7	0.5	
0.6	0.6	0.4	
0.5	0.6	0.4	
0.5	0.7	0.4	
0.6	0.7	0.4	
0.6	0.6	0.4	
0.5	0.6	0.4	
0.5	0.7	0.4	
0.6	0.7	0.4	
0.6	0.6	0.3	
0.5	0.6	0.3	
0.5	0.7	0.3	
0.6	0.7	0.3	
0.6	0.6	0.3	
0.5	0.6	0.3	
0.5	0.7	0.3	
0.6	0.7	0.3	
0.6	0.6	0.2	
0.5	0.6	0.2	
0.5	0.7	0.2	
0.6	0.7	0.2	
0.6	0.6	0.2	
0.5	0.6	0.2	
0.5	0.7	0.2	
0.6	0.7	0.2	
0.6	0.6	0.1	
0.5	0.6	0.1	
0.5	0.7	0.1	
0.6	0.7	0.1	
0.6	0.6	0.1	
0.5	0.6	0.1	
0.5	0.7	0.1	
0.6	0.7	0.1	
0.6	0.6	0	
0.5	0.6	0	
0.5	0.7	0	
0.6	0.7	0	
0.7	0.6	1	
0.6	0.6	1	
0.6	0.7	1	
0.7	0.7	1	
0.7	0.6	0.9	
0.6	0.6	0.9	
0.6	0.7	0.9	
0.7	0.7	0.9	
0.7	0.6	0.9	
0.6	0.6	0.9	
0.6	0.7	0.9	
0.7	0.7	0.9	
0.7	0.6	0.8	
0.6	0.6	0.8	
0.6	0.7	0.8	
0.7	0.7	0.8	
0.7	0.6	0.8	
0.6	0.6	0.8	
0.6	0.7	0.8	
0.7	0.7	0.8	
0.7	0.6	0.7	
0.6	0.6	0.7	
0.6	0.7	0.7	
0.7	0.7	0.7	
0.7	0.6	0.7	
0.6	0.6	0.7	
0.6	0.7	0.7	
0.7	0.7	0.7	
0.7	0.6	0.6	
0.6	0.6	0.6	
0.6	0.7	0.6	
0.7	0.7	0.6	
0.7	0.6	0.6	
0.6	0.6	0.6	
0.6	0.7	0.6	
0.7	0.7	0.6	
0.7	0.6	0.5	
0.6	0.6	0.5	
0.6	0.7	0.5	
0.7	0.7	0.5	
0.7	0.6	0.5	
0.6	0.6	0.5	
0.6	0.7	0.5	
0.7	0.7	0.5	
0.7	0.6	0.4	
0.6	0.6	0.4	
0.6	0.7	0.4	
0.7	0.7	0.4	
0.7	0.6	0.4	
0.6	0.6	0.4	
0.6	0.7	0.4	
0.7	0.7	0.4	
0.7	0.6	0.3	
0.6	0.6	0.3	
0.6	0.7	0.3	
0.7	0.7	0.3	
0.7	0.6	0.3	
0.6	0.6	0.3	
0.6	0.7	0.3	
0.7	0.7	0.3	
0.7	0.6	0.2	
0.6	0.6	0.2	
0.6	0.7	0.2	
0.7	0.7	0.2	
0.7	0.6	0.2	
0.6	0.6	0.2	
0.6	0.7	0.2	
0.7	0.7	0.2	
0.7	0.6	0.1	
0.6	0.6	0.1	
0.6	0.7	0.1	
0.7	0.7	0.1	
0.7	0.6	0.1	
0.6	0.6	0.1	
0.6	0.7	0.1	
0.7	0.7	0.1	
0.7	0.6	0	
0.6	0.6	0	
0.6	0.7	0	
0.7	0.7	0	
0.8	0.6	1	
0.7	0.6	1	
0.7	0.7	1	
0.8	0.7	1	
0.8	0.6	0.9	
0.7	0.6	0.9	
0.7	0.7	0.9	
0.8	0.7	0.9	
0.8	0.6	0.9	
0.7	0.6	0.9	
0.7	0.7	0.9	
0.8	0.7	0.9	
0.8	0.6	0.8	
0.7	0.6	0.8	
0.7	0.7	0.8	
0.8	0.7	0.8	
0.8	0.6	0.8	
0.7	0.6	0.8	
0.7	0.7	0.8	
0.8	0.7	0.8	
0.8	0.6	0.7	
0.7	0.6	0.7	
0.7	0.7	0.7	
0.8	0.7	0.7	
0.8	0.6	0.7	
0.7	0.6	0.7	
0.7	0.7	0.7	
0.8	0.7	0.7	
0.8	0.6	0.6	
0.7	0.6	0.6	
0.7	0.7	0.6	
0.8	0.7	0.6	
0.8	0.6	0.6	
0.7	0.6	0.6	
0.7	0.7	0.6	
0.8	0.7	0.6	
0.8	0.6	0.5	
0.7	0.6	0.5	
0.7	0.7	0.5	
0.8	0.7	0.5	
0.8	0.6	0.5	
0.7	0.6	0.5	
0.7	0.7	0.5	
0.8	0.7	0.5	
0.8	0.6	0.4	
0.7	0.6	0.4	
0.7	0.7	0.4	
0.8	0.7	0.4	
0.8	0.6	0.4	
0.7	0.6	0.4	
0.7	0.7	0.4	
0.8	0.7	0.4	
0.8	0.6	0.3	
0.7	0.6	0.3	
0.7	0.7	0.3	
0.8	0.7	0.3	
0.8	0.6	0.3	
0.7	0.6	0.3	
0.7	0.7	0.3	
0.8	0.7	0.3	
0.8	0.6	0.2	
0.7	0.6	0.2	
0.7	0.7	0.2	
0.8	0.7	0.2	
0.8	0.6	0.2	
0.7	0.6	0.2	
0.7	0.7	0.2	
0.8	0.7	0.2	
0.8	0.6	0.1	
0.7	0.6	0.1	
0.7	0.7	0.1	
0.8	0.7	0.1	
0.8	0.6	0.1	
0.7	0.6	0.1	
0.7	0.7	0.1	
0.8	0.7	0.1	
0.8	0.6	0	
0.7	0.6	0	
0.7	0.7	0	
0.8	0.7	0	
0.9	0.6	1	
0.8	0.6	1	
0.8	0.7	1	
0.9	0.7	1	
0.9	0.6	0.9	
0.8	0.6	0.9	
0.8	0.7	0.9	
0.9	0.7	0.9	
0.9	0.6	0.9	
0.8	0.6	0.9	
0.8	0.7	0.9	
0.9	0.7	0.9	
0.9	0.6	0.8	
0.8	0.6	0.8	
0.8	0.7	0.8	
0.9	0.7	0.8	
0.9	0.6	0.8	
0.8	0.6	0.8	
0.8	0.7	0.8	
0.9	0.7	0.8	
0.9	0.6	0.7	
0.8	0.6	0.7	
0.8	0.7	0.7	
0.9	0.7	0.7	
0.9	0.6	0.7	
0.8	0.6	0.7	
0.8	0.7	0.7	
0.9	0.7	0.7	
0.9	0.6	0.6	
0.8	0.6	0.6	
0.8	0.7	0.6	
0.9	0.7	0.6	
0.9	0.6	0.6	
0.8	0.6	0.6	
0.8	0.7	0.6	
0.9	0.7	0.6	
0.9	0.6	0.5	
0.8	0.6	0.5	
0.8	0.7	0.5	
0.9	0.7	0.5	
0.9	0.6	0.5	
0.8	0.6	0.5	
0.8	0.7	0.5	
0.9	0.7	0.5	
0.9	0.6	0.4	
0.8	0.6	0.4	
0.8	0.7	0.4	
0.9	0.7	0.4	
0.9	0.6	0.4	
0.8	0.6	0.4	
0.8	0.7	0.4	
0.9	0.7	0.4	
0.9	0.6	0.3	
0.8	0.6	0.3	
0.8	0.7	0.3	
0.9	0.7	0.3	
0.9	0.6	0.3	
0.8	0.6	0.3	
0.8	0.7	0.3	
0.9	0.7	0.3	
0.9	0.6	0.2	
0.8	0.6	0.2	
0.8	0.7	0.2	
0.9	0.7	0.2	
0.9	0.6	0.2	
0.8	0.6	0.2	
0.8	0.7	0.2	
0.9	0.7	0.2	
0.9	0.6	0.1	
0.8	0.6	0.1	
0.8	0.7	0.1	
0.9	0.7	0.1	
0.9	0.6	0.1	
0.8	0.6	0.1	
0.8	0.7	0.1	
0.9	0.7	0.1	
0.9	0.6	0	
0.8	0.6	0	
0.8	0.7	0	
0.9	0.7	0	
1	0.6	1	
0.9	0.6	1	
0.9	0.7	1	
1	0.7	1	
1	0.6	0.9	
0.9	0.6	0.9	
0.9	0.7	0.9	
1	0.7	0.9	
1	0.6	0.9	
0.9	0.6	0.9	
0.9	0.7	0.9	
1	0.7	0.9	
1	0.6	0.8	
0.9	0.6	0.8	
0.9	0.7	0.8	
1	0.7	0.8	
1	0.6	0.8	
0.9	0.6	0.8	
0.9	0.7	0.8	
1	0.7	0.8	
1	0.6	0.7	
0.9	0.6	0.7	
0.9	0.7	0.7	
1	0.7	0.7	
1	0.6	0.7	
0.9	0.6	0.7	
0.9	0.7	0.7	
1	0.7	0.7	
1	0.6	0.6	
0.9	0.6	0.6	
0.9	0.7	0.6	
1	0.7	0.6	
1	0.6	0.6	
0.9	0.6	0.6	
0.9	0.7	0.6	
1	0.7	0.6	
1	0.6	0.5	
0.9	0.6	0.5	
0.9	0.7	0.5	
1	0.7	0.5	
1	0.6	0.5	
0.9	0.6	0.5	
0.9	0.7	0.5	
1	0.7	0.5	
1	0.6	0.4	
0.9	0.6	0.4	
0.9	0.7	0.4	
1	0.7	0.4	
1	0.6	0.4	
0.9	0.6	0.4	
0.9	0.7	0.4	
1	0.7	0.4	
1	0.6	0.3	
0.9	0.6	0.3	
0.9	0.7	0.3	
1	0.7	0.3	
1	0.6	0.3	
0.9	0.6	0.3	
0.9	0.7	0.3	
1	0.7	0.3	
1	0.6	0.2	
0.9	0.6	0.2	
0.9	0.7	0.2	
1	0.7	0.2	
1	0.6	0.2	
0.9	0.6	0.2	
0.9	0.7	0.2	
1	0.7	0.2	
1	0.6	0.1	
0.9	0.6	0.1	
0.9	0.7	0.1	
1	0.7	0.1	
1	0.6	0.1	
0.9	0.6	0.1	
0.9	0.7	0.1	
1	0.7	0.1	
1	0.6	0	
0.9	0.6	0	
0.9	0.7	0	
1	0.7	0	
0.1	0.5	1	
0	0.5	1	
0	0.6	1	
0.1	0.6	1	
0.1	0.5	0.9	
0	0.5	0.9	
0	0.6	0.9	
0.1	0.6	0.9	
0.1	0.5	0.9	
0	0.5	0.9	
0	0.6	0.9	
0.1	0.6	0.9	
0.1	0.5	0.8	
0	0.5	0.8	
0	0.6	0.8	
0.1	0.6	0.8	
0.1	0.5	0.8	
0	0.5	0.8	
0	0.6	0.8	
0.1	0.6	0.8	
0.1	0.5	0.7	
0	0.5	0.7	
0	0.6	0.7	
0.1	0.6	0.7	
0.1	0.5	0.7	
0	0.5	0.7	
0	0.6	0.7	
0.1	0.6	0.7	
0.1	0.5	0.6	
0	0.5	0.6	
0	0.6	0.6	
0.1	0.6	0.6	
0.1	0.5	0.6	
0	0.5	0.6	
0	0.6	0.6	
0.1	0.6	0.6	
0.1	0.5	0.5	
0	0.5	0.5	
0	0.6	0.5	
0.1	0.6	0.5	
0.1	0.5	0.5	
0	0.5	0.5	
0	0.6	0.5	
0.1	0.6	0.5	
0.1	0.5	0.4	
0	0.5	0.4	
0	0.6	0.4	
0.1	0.6	0.4	
0.1	0.5	0.4	
0	0.5	0.4	
0	0.6	0.4	
0.1	0.6	0.4	
0.1	0.5	0.3	
0	0.5	0.3	
0	0.6	0.3	
0.1	0.6	0.3	
0.1	0.5	0.3	
0	0.5	0.3	
0	0.6	0.3	
0.1	0.6	0.3	
0.1	0.5	0.2	
0	0.5	0.2	
0	0.6	0.2	
0.1	0.6	0.2	
0.1	0.5	0.2	
0	0.5	0.2	
0	0.6	0.2	
0.1	0.6	0.2	
0.1	0.5	0.1	
0	0.5	0.1	
0	0.6	0.1	
0.1	0.6	0.1	
0.1	0.5	0.1	
0	0.5	0.1	
0	0.6	0.1	
0.1	0.6	0.1	
0.1	0.5	0	
0	0.5	0	
0	0.6	0	
0.1	0.6	0	
0.2	0.5	1	
0.1	0.5	1	
0.1	0.6	1	
0.2	0.6	1	
0.2	0.5	0.9	
0.1	0.5	0.9	
0.1	0.6	0.9	
0.2	0.6	0.9	
0.2	0.5	0.9	
0.1	0.5	0.9	
0.1	0.6	0.9	
0.2	0.6	0.9	
0.2	0.5	0.8	
0.1	0.5	0.8	
0.1	0.6	0.8	
0.2	0.6	0.8	
0.2	0.5	0.8	
0.1	0.5	0.8	
0.1	0.6	0.8	
0.2	0.6	0.8	
0.2	0.5	0.7	
0.1	0.5	0.7	
0.1	0.6	0.7	
0.2	0.6	0.7	
0.2	0.5	0.7	
0.1	0.5	0.7	
0.1	0.6	0.7	
0.2	0.6	0.7	
0.2	0.5	0.6	
0.1	0.5	0.6	
0.1	0.6	0.6	
0.2	0.6	0.6	
0.2	0.5	0.6	
0.1	0.5	0.6	
0.1	0.6	0.6	
0.2	0.6	0.6	
0.2	0.5	0.5	
0.1	0.5	0.5	
0.1	0.6	0.5	
0.2	0.6	0.5	
0.2	0.5	0.5	
0.1	0.5	0.5	
0.1	0.6	0.5	
0.2	0.6	0.5	
0.2	0.5	0.4	
0.1	0.5	0.4	
0.1	0.6	0.4	
0.2	0.6	0.4	
0.2	0.5	0.4	
0.1	0.5	0.4	
0.1	0.6	0.4	
0.2	0.6	0.4	
0.2	0.5	0.3	
0.1	0.5	0.3	
0.1	0.6	0.3	
0.2	0.6	0.3	
0.2	0.5	0.3	
0.1	0.5	0.3	
0.1	0.6	0.3	
0.2	0.6	0.3	
0.2	0.5	0.2	
0.1	0.5	0.2	
0.1	0.6	0.2	
0.2	0.6	0.2	
0.2	0.5	0.2	
0.1	0.5	0.2	
0.1	0.6	0.2	
0.2	0.6	0.2	
0.2	0.5	0.1	
0.1	0.5	0.1	
0.1	0.6	0.1	
0.2	0.6	0.1	
0.2	0.5	0.1	
0.1	0.5	0.1	
0.1	0.6	0.1	
0.2	0.6	0.1	
0.2	0.5	0	
0.1	0.5	0	
0.1	0.6	0	
0.2	0.6	0	
0.3	0.5	1	
0.2	0.5	1	
0.2	0.6	1	
0.3	0.6	1	
0.3	0.5	0.9	
0.2	0.5	0.9	
0.2	0.6	0.9	
0.3	0.6	0.9	
0.3	0.5	0.9	
0.2	0.5	0.9	
0.2	0.6	0.9	
0.3	0.6	0.9	
0.3	0.5	0.8	
0.2	0.5	0.8	
0.2	0.6	0.8	
0.3	0.6	0.8	
0.3	0.5	0.8	
0.2	0.5	0.8	
0.2	0.6	0.8	
0.3	0.6	0.8	
0.3	0.5	0.7	
0.2	0.5	0.7	
0.2	0.6	0.7	
0.3	0.6	0.7	
0.3	0.5	0.7	
0.2	0.5	0.7	
0.2	0.6	0.7	
0.3	0.6	0.7	
0.3	0.5	0.6	
0.2	0.5	0.6	
0.2	0.6	0.6	
0.3	0.6	0.6	
0.3	0.5	0.6	
0.2	0.5	0.6	
0.2	0.6	0.6	
0.3	0.6	0.6	
0.3	0.5	0.5	
0.2	0.5	0.5	
0.2	0.6	0.5	
0.3	0.6	0.5	
0.3	0.5	0.5	
0.2	0.5	0.5	
0.2	0.6	0.5	
0.3	0.6	0.5	
0.3	0.5	0.4	
0.2	0.5	0.4	
0.2	0.6	0.4	
0.3	0.6	0.4	
0.3	0.5	0.4	
0.2	0.5	0.4	
0.2	0.6	0.4	
0.3	0.6	0.4	
0.3	0.5	0.3	
0.2	0.5	0.3	
0.2	0.6	0.3	
0.3	0.6	0.3	
0.3	0.5	0.3	
0.2	0.5	0.3	
0.2	0.6	0.3	
0.3	0.6	0.3	
0.3	0.5	0.2	
0.2	0.5	0.2	
0.2	0.6	0.2	
0.3	0.6	0.2	
0.3	0.5	0.2	
0.2	0.5	0.2	
0.2	0.6	0.2	
0.3	0.6	0.2	
0.3	0.5	0.1	
0.2	0.5	0.1	
0.2	0.6	0.1	
0.3	0.6	0.1	
0.3	0.5	0.1	
0.2	0.5	0.1	
0.2	0.6	0.1	
0.3	0.6	0.1	
0.3	0.5	0	
0.2	0.5	0	
0.2	0.6	0	
0.3	0.6	0	
0.4	0.5	1	
0.3	0.5	1	
0.3	0.6	1	
0.4	0.6	1	
0.4	0.5	0.9	
0.3	0.5	0.9	
0.3	0.6	0.9	
0.4	0.6	0.9	
0.4	0.5	0.9	
0.3	0.5	0.9	
0.3	0.6	0.9	
0.4	0.6	0.9	
0.4	0.5	0.8	
0.3	0.5	0.8	
0.3	0.6	0.8	
0.4	0.6	0.8	
0.4	0.5	0.8	
0.3	0.5	0.8	
0.3	0.6	0.8	
0.4	0.6	0.8	
0.4	0.5	0.7	
0.3	0.5	0.7	
0.3	0.6	0.7	
0.4	0.6	0.7	
0.4	0.5	0.7	
0.3	0.5	0.7	
0.3	0.6	0.7	
0.4	0.6	0.7	
0.4	0.5	0.6	
0.3	0.5	0.6	
0.3	0.6	0.6	
0.4	0.6	0.6	
0.4	0.5	0.6	
0.3	0.5	0.6	
0.3	0.6	0.6	
0.4	0.6	0.6	
0.4	0.5	0.5	
0.3	0.5	0.5	
0.3	0.6	0.5	
0.4	0.6	0.5	
0.4	0.5	0.5	
0.3	0.5	0.5	
0.3	0.6	0.5	
0.4	0.6	0.5	
0.4	0.5	0.4	
0.3	0.5	0.4	
0.3	0.6	0.4	
0.4	0.6	0.4	
0.4	0.5	0.4	
0.3	0.5	0.4	
0.3	0.6	0.4	
0.4	0.6	0.4	
0.4	0.5	0.3	
0.3	0.5	0.3	
0.3	0.6	0.3	
0.4	0.6	0.3	
0.4	0.5	0.3	
0.3	0.5	0.3	
0.3	0.6	0.3	
0.4	0.6	0.3	
0.4	0.5	0.2	
0.3	0.5	0.2	
0.3	0.6	0.2	
0.4	0.6	0.2	
0.4	0.5	0.2	
0.3	0.5	0.2	
0.3	0.6	0.2	
0.4	0.6	0.2	
0.4	0.5	0.1	
0.3	0.5	0.1	
0.3	0.6	0.1	
0.4	0.6	0.1	
0.4	0.5	0.1	
0.3	0.5	0.1	
0.3	0.6	0.1	
0.4	0.6	0.1	
0.4	0.5	0	
0.3	0.5	0	
0.3	0.6	0	
0.4	0.6	0	
0.5	0.5	1	
0.4	0.5	1	
0.4	0.6	1	
0.5	0.6	1	
0.5	0.5	0.9	
0.4	0.5	0.9	
0.4	0.6	0.9	
0.5	0.6	0.9	
0.5	0.5	0.9	
0.4	0.5	0.9	
0.4	0.6	0.9	
0.5	0.6	0.9	
0.5	0.5	0.8	
0.4	0.5	0.8	
0.4	0.6	0.8	
0.5	0.6	0.8	
0.5	0.5	0.8	
0.4	0.5	0.8	
0.4	0.6	0.8	
0.5	0.6	0.8	
0.5	0.5	0.7	
0.4	0.5	0.7	
0.4	0.6	0.7	
0.5	0.6	0.7	
0.5	0.5	0.7	
0.4	0.5	0.7	
0.4	0.6	0.7	
0.5	0.6	0.7	
0.5	0.5	0.6	
0.4	0.5	0.6	
0.4	0.6	0.6	
0.5	0.6	0.6	
0.5	0.5	0.6	
0.4	0.5	0.6	
0.4	0.6	0.6	
0.5	0.6	0.6	
0.5	0.5	0.5	
0.4	0.5	0.5	
0.4	0.6	0.5	
0.5	0.6	0.5	
0.5	0.5	0.5	
0.4	0.5	0.5	
0.4	0.6	0.5	
0.5	0.6	0.5	
0.5	0.5	0.4	
0.4	0.5	0.4	
0.4	0.6	0.4	
0.5	0.6	0.4	
0.5	0.5	0.4	
0.4	0.5	0.4	
0.4	0.6	0.4	
0.5	0.6	0.4	
0.5	0.5	0.3	
0.4	0.5	0.3	
0.4	0.6	0.3	
0.5	0.6	0.3	
0.5	0.5	0.3	
0.4	0.5	0.3	
0.4	0.6	0.3	
0.5	0.6	0.3	
0.5	0.5	0.2	
0.4	0.5	0.2	
0.4	0.6	0.2	
0.5	0.6	0.2	
0.5	0.5	0.2	
0.4	0.5	0.2	
0.4	0.6	0.2	
0.5	0.6	0.2	
0.5	0.5	0.1	
0.4	0.5	0.1	
0.4	0.6	0.1	
0.5	0.6	0.1	
0.5	0.5	0.1	
0.4	0.5	0.1	
0.4	0.6	0.1	
0.5	0.6	0.1	
0.5	0.5	0	
0.4	0.5	0	
0.4	0.6	0	
0.5	0.6	0	
0.6	0.5	1	
0.5	0.5	1	
0.5	0.6	1	
0.6	0.6	1	
0.6	0.5	0.9	
0.5	0.5	0.9	
0.5	0.6	0.9	
0.6	0.6	0.9	
0.6	0.5	0.9	
0.5	0.5	0.9	
0.5	0.6	0.9	
0.6	0.6	0.9	
0.6	0.5	0.8	
0.5	0.5	0.8	
0.5	0.6	0.8	
0.6	0.6	0.8	
0.6	0.5	0.8	
0.5	0.5	0.8	
0.5	0.6	0.8	
0.6	0.6	0.8	
0.6	0.5	0.7	
0.5	0.5	0.7	
0.5	0.6	0.7	
0.6	0.6	0.7	
0.6	0.5	0.7	
0.5	0.5	0.7	
0.5	0.6	0.7	
0.6	0.6	0.7	
0.6	0.5	0.6	
0.5	0.5	0.6	
0.5	0.6	0.6	
0.6	0.6	0.6	
0.6	0.5	0.6	
0.5	0.5	0.6	
0.5	0.6	0.6	
0.6	0.6	0.6	
0.6	0.5	0.5	
0.5	0.5	0.5	
0.5	0.6	0.5	
0.6	0.6	0.5	
0.6	0.5	0.5	
0.5	0.5	0.5	
0.5	0.6	0.5	
0.6	0.6	0.5	
0.6	0.5	0.4	
0.5	0.5	0.4	
0.5	0.6	0.4	
0.6	0.6	0.4	
0.6	0.5	0.4	
0.5	0.5	0.4	
0.5	0.6	0.4	
0.6	0.6	0.4	
0.6	0.5	0.3	
0.5	0.5	0.3	
0.5	0.6	0.3	
0.6	0.6	0.3	
0.6	0.5	0.3	
0.5	0.5	0.3	
0.5	0.6	0.3	
0.6	0.6	0.3	
0.6	0.5	0.2	
0.5	0.5	0.2	
0.5	0.6	0.2	
0.6	0.6	0.2	
0.6	0.5	0.2	
0.5	0.5	0.2	
0.5	0.6	0.2	
0.6	0.6	0.2	
0.6	0.5	0.1	
0.5	0.5	0.1	
0.5	0.6	0.1	
0.6	0.6	0.1	
0.6	0.5	0.1	
0.5	0.5	0.1	
0.5	0.6	0.1	
0.6	0.6	0.1	
0.6	0.5	0	
0.5	0.5	0	
0.5	0.6	0	
0.6	0.6	0	
0.7	0.5	1	
0.6	0.5	1	
0.6	0.6	1	
0.7	0.6	1	
0.7	0.5	0.9	
0.6	0.5	0.9	
0.6	0.6	0.9	
0.7	0.6	0.9	
0.7	0.5	0.9	
0.6	0.5	0.9	
0.6	0.6	0.9	
0.7	0.6	0.9	
0.7	0.5	0.8	
0.6	0.5	0.8	
0.6	0.6	0.8	
0.7	0.6	0.8	
0.7	0.5	0.8	
0.6	0.5	0.8	
0.6	0.6	0.8	
0.7	0.6	0.8	
0.7	0.5	0.7	
0.6	0.5	0.7	
0.6	0.6	0.7	
0.7	0.6	0.7	
0.7	0.5	0.7	
0.6	0.5	0.7	
0.6	0.6	0.7	
0.7	0.6	0.7	
0.7	0.5	0.6	
0.6	0.5	0.6	
0.6	0.6	0.6	
0.7	0.6	0.6	
0.7	0.5	0.6	
0.6	0.5	0.6	
0.6	0.6	0.6	
0.7	0.6	0.6	
0.7	0.5	0.5	
0.6	0.5	0.5	
0.6	0.6	0.5	
0.7	0.6	0.5	
0.7	0.5	0.5	
0.6	0.5	0.5	
0.6	0.6	0.5	
0.7	0.6	0.5	
0.7	0.5	0.4	
0.6	0.5	0.4	
0.6	0.6	0.4	
0.7	0.6	0.4	
0.7	0.5	0.4	
0.6	0.5	0.4	
0.6	0.6	0.4	
0.7	0.6	0.4	
0.7	0.5	0.3	
0.6	0.5	0.3	
0.6	0.6	0.3	
0.7	0.6	0.3	
0.7	0.5	0.3	
0.6	0.5	0.3	
0.6	0.6	0.3	
0.7	0.6	0.3	
0.7	0.5	0.2	
0.6	0.5	0.2	
0.6	0.6	0.2	
0.7	0.6	0.2	
0.7	0.5	0.2	
0.6	0.5	0.2	
0.6	0.6	0.2	
0.7	0.6	0.2	
0.7	0.5	0.1	
0.6	0.5	0.1	
0.6	0.6	0.1	
0.7	0.6	0.1	
0.7	0.5	0.1	
0.6	0.5	0.1	
0.6	0.6	0.1	
0.7	0.6	0.1	
0.7	0.5	0	
0.6	0.5	0	
0.6	0.6	0	
0.7	0.6	0	
0.8	0.5	1	
0.7	0.5	1	
0.7	0.6	1	
0.8	0.6	1	
0.8	0.5	0.9	
0.7	0.5	0.9	
0.7	0.6	0.9	
0.8	0.6	0.9	
0.8	0.5	0.9	
0.7	0.5	0.9	
0.7	0.6	0.9	
0.8	0.6	0.9	
0.8	0.5	0.8	
0.7	0.5	0.8	
0.7	0.6	0.8	
0.8	0.6	0.8	
0.8	0.5	0.8	
0.7	0.5	0.8	
0.7	0.6	0.8	
0.8	0.6	0.8	
0.8	0.5	0.7	
0.7	0.5	0.7	
0.7	0.6	0.7	
0.8	0.6	0.7	
0.8	0.5	0.7	
0.7	0.5	0.7	
0.7	0.6	0.7	
0.8	0.6	0.7	
0.8	0.5	0.6	
0.7	0.5	0.6	
0.7	0.6	0.6	
0.8	0.6	0.6	
0.8	0.5	0.6	
0.7	0.5	0.6	
0.7	0.6	0.6	
0.8	0.6	0.6	
0.8	0.5	0.5	
0.7	0.5	0.5	
0.7	0.6	0.5	
0.8	0.6	0.5	
0.8	0.5	0.5	
0.7	0.5	0.5	
0.7	0.6	0.5	
0.8	0.6	0.5	
0.8	0.5	0.4	
0.7	0.5	0.4	
0.7	0.6	0.4	
0.8	0.6	0.4	
0.8	0.5	0.4	
0.7	0.5	0.4	
0.7	0.6	0.4	
0.8	0.6	0.4	
0.8	0.5	0.3	
0.7	0.5	0.3	
0.7	0.6	0.3	
0.8	0.6	0.3	
0.8	0.5	0.3	
0.7	0.5	0.3	
0.7	0.6	0.3	
0.8	0.6	0.3	
0.8	0.5	0.2	
0.7	0.5	0.2	
0.7	0.6	0.2	
0.8	0.6	0.2	
0.8	0.5	0.2	
0.7	0.5	0.2	
0.7	0.6	0.2	
0.8	0.6	0.2	
0.8	0.5	0.1	
0.7	0.5	0.1	
0.7	0.6	0.1	
0.8	0.6	0.1	
0.8	0.5	0.1	
0.7	0.5	0.1	
0.7	0.6	0.1	
0.8	0.6	0.1	
0.8	0.5	0	
0.7	0.5	0	
0.7	0.6	0	
0.8	0.6	0	
0.9	0.5	1	
0.8	0.5	1	
0.8	0.6	1	
0.9	0.6	1	
0.9	0.5	0.9	
0.8	0.5	0.9	
0.8	0.6	0.9	
0.9	0.6	0.9	
0.9	0.5	0.9	
0.8	0.5	0.9	
0.8	0.6	0.9	
0.9	0.6	0.9	
0.9	0.5	0.8	
0.8	0.5	0.8	
0.8	0.6	0.8	
0.9	0.6	0.8	
0.9	0.5	0.8	
0.8	0.5	0.8	
0.8	0.6	0.8	
0.9	0.6	0.8	
0.9	0.5	0.7	
0.8	0.5	0.7	
0.8	0.6	0.7	
0.9	0.6	0.7	
0.9	0.5	0.7	
0.8	0.5	0.7	
0.8	0.6	0.7	
0.9	0.6	0.7	
0.9	0.5	0.6	
0.8	0.5	0.6	
0.8	0.6	0.6	
0.9	0.6	0.6	
0.9	0.5	0.6	
0.8	0.5	0.6	
0.8	0.6	0.6	
0.9	0.6	0.6	
0.9	0.5	0.5	
0.8	0.5	0.5	
0.8	0.6	0.5	
0.9	0.6	0.5	
0.9	0.5	0.5	
0.8	0.5	0.5	
0.8	0.6	0.5	
0.9	0.6	0.5	
0.9	0.5	0.4	
0.8	0.5	0.4	
0.8	0.6	0.4	
0.9	0.6	0.4	
0.9	0.5	0.4	
0.8	0.5	0.4	
0.8	0.6	0.4	
0.9	0.6	0.4	
0.9	0.5	0.3	
0.8	0.5	0.3	
0.8	0.6	0.3	
0.9	0.6	0.3	
0.9	0.5	0.3	
0.8	0.5	0.3	
0.8	0.6	0.3	
0.9	0.6	0.3	
0.9	0.5	0.2	
0.8	0.5	0.2	
0.8	0.6	0.2	
0.9	0.6	0.2	
0.9	0.5	0.2	
0.8	0.5	0.2	
0.8	0.6	0.2	
0.9	0.6	0.2	
0.9	0.5	0.1	
0.8	0.5	0.1	
0.8	0.6	0.1	
0.9	0.6	0.1	
0.9	0.5	0.1	
0.8	0.5	0.1	
0.8	0.6	0.1	
0.9	0.6	0.1	
0.9	0.5	0	
0.8	0.5	0	
0.8	0.6	0	
0.9	0.6	0	
1	0.5	1	
0.9	0.5	1	
0.9	0.6	1	
1	0.6	1	
1	0.5	0.9	
0.9	0.5	0.9	
0.9	0.6	0.9	
1	0.6	0.9	
1	0.5	0.9	
0.9	0.5	0.9	
0.9	0.6	0.9	
1	0.6	0.9	
1	0.5	0.8	
0.9	0.5	0.8	
0.9	0.6	0.8	
1	0.6	0.8	
1	0.5	0.8	
0.9	0.5	0.8	
0.9	0.6	0.8	
1	0.6	0.8	
1	0.5	0.7	
0.9	0.5	0.7	
0.9	0.6	0.7	
1	0.6	0.7	
1	0.5	0.7	
0.9	0.5	0.7	
0.9	0.6	0.7	
1	0.6	0.7	
1	0.5	0.6	
0.9	0.5	0.6	
0.9	0.6	0.6	
1	0.6	0.6	
1	0.5	0.6	
0.9	0.5	0.6	
0.9	0.6	0.6	
1	0.6	0.6	
1	0.5	0.5	
0.9	0.5	0.5	
0.9	0.6	0.5	
1	0.6	0.5	
1	0.5	0.5	
0.9	0.5	0.5	
0.9	0.6	0.5	
1	0.6	0.5	
1	0.5	0.4	
0.9	0.5	0.4	
0.9	0.6	0.4	
1	0.6	0.4	
1	0.5	0.4	
0.9	0.5	0.4	
0.9	0.6	0.4	
1	0.6	0.4	
1	0.5	0.3	
0.9	0.5	0.3	
0.9	0.6	0.3	
1	0.6	0.3	
1	0.5	0.3	
0.9	0.5	0.3	
0.9	0.6	0.3	
1	0.6	0.3	
1	0.5	0.2	
0.9	0.5	0.2	
0.9	0.6	0.2	
1	0.6	0.2	
1	0.5	0.2	
0.9	0.5	0.2	
0.9	0.6	0.2	
1	0.6	0.2	
1	0.5	0.1	
0.9	0.5	0.1	
0.9	0.6	0.1	
1	0.6	0.1	
1	0.5	0.1	
0.9	0.5	0.1	
0.9	0.6	0.1	
1	0.6	0.1	
1	0.5	0	
0.9	0.5	0	
0.9	0.6	0	
1	0.6	0	
0.1	0.4	1	
0	0.4	1	
0	0.5	1	
0.1	0.5	1	
0.1	0.4	0.9	
0	0.4	0.9	
0	0.5	0.9	
0.1	0.5	0.9	
0.1	0.4	0.9	
0	0.4	0.9	
0	0.5	0.9	
0.1	0.5	0.9	
0.1	0.4	0.8	
0	0.4	0.8	
0	0.5	0.8	
0.1	0.5	0.8	
0.1	0.4	0.8	
0	0.4	0.8	
0	0.5	0.8	
0.1	0.5	0.8	
0.1	0.4	0.7	
0	0.4	0.7	
0	0.5	0.7	
0.1	0.5	0.7	
0.1	0.4	0.7	
0	0.4	0.7	
0	0.5	0.7	
0.1	0.5	0.7	
0.1	0.4	0.6	
0	0.4	0.6	
0	0.5	0.6	
0.1	0.5	0.6	
0.1	0.4	0.6	
0	0.4	0.6	
0	0.5	0.6	
0.1	0.5	0.6	
0.1	0.4	0.5	
0	0.4	0.5	
0	0.5	0.5	
0.1	0.5	0.5	
0.1	0.4	0.5	
0	0.4	0.5	
0	0.5	0.5	
0.1	0.5	0.5	
0.1	0.4	0.4	
0	0.4	0.4	
0	0.5	0.4	
0.1	0.5	0.4	
0.1	0.4	0.4	
0	0.4	0.4	
0	0.5	0.4	
0.1	0.5	0.4	
0.1	0.4	0.3	
0	0.4	0.3	
0	0.5	0.3	
0.1	0.5	0.3	
0.1	0.4	0.3	
0	0.4	0.3	
0	0.5	0.3	
0.1	0.5	0.3	
0.1	0.4	0.2	
0	0.4	0.2	
0	0.5	0.2	
0.1	0.5	0.2	
0.1	0.4	0.2	
0	0.4	0.2	
0	0.5	0.2	
0.1	0.5	0.2	
0.1	0.4	0.1	
0	0.4	0.1	
0	0.5	0.1	
0.1	0.5	0.1	
0.1	0.4	0.1	
0	0.4	0.1	
0	0.5	0.1	
0.1	0.5	0.1	
0.1	0.4	0	
0	0.4	0	
0	0.5	0	
0.1	0.5	0	
0.2	0.4	1	
0.1	0.4	1	
0.1	0.5	1	
0.2	0.5	1	
0.2	0.4	0.9	
0.1	0.4	0.9	
0.1	0.5	0.9	
0.2	0.5	0.9	
0.2	0.4	0.9	
0.1	0.4	0.9	
0.1	0.5	0.9	
0.2	0.5	0.9	
0.2	0.4	0.8	
0.1	0.4	0.8	
0.1	0.5	0.8	
0.2	0.5	0.8	
0.2	0.4	0.8	
0.1	0.4	0.8	
0.1	0.5	0.8	
0.2	0.5	0.8	
0.2	0.4	0.7	
0.1	0.4	0.7	
0.1	0.5	0.7	
0.2	0.5	0.7	
0.2	0.4	0.7	
0.1	0.4	0.7	
0.1	0.5	0.7	
0.2	0.5	0.7	
0.2	0.4	0.6	
0.1	0.4	0.6	
0.1	0.5	0.6	
0.2	0.5	0.6	
0.2	0.4	0.6	
0.1	0.4	0.6	
0.1	0.5	0.6	
0.2	0.5	0.6	
0.2	0.4	0.5	
0.1	0.4	0.5	
0.1	0.5	0.5	
0.2	0.5	0.5	
0.2	0.4	0.5	
0.1	0.4	0.5	
0.1	0.5	0.5	
0.2	0.5	0.5	
0.2	0.4	0.4	
0.1	0.4	0.4	
0.1	0.5	0.4	
0.2	0.5	0.4	
0.2	0.4	0.4	
0.1	0.4	0.4	
0.1	0.5	0.4	
0.2	0.5	0.4	
0.2	0.4	0.3	
0.1	0.4	0.3	
0.1	0.5	0.3	
0.2	0.5	0.3	
0.2	0.4	0.3	
0.1	0.4	0.3	
0.1	0.5	0.3	
0.2	0.5	0.3	
0.2	0.4	0.2	
0.1	0.4	0.2	
0.1	0.5	0.2	
0.2	0.5	0.2	
0.2	0.4	0.2	
0.1	0.4	0.2	
0.1	0.5	0.2	
0.2	0.5	0.2	
0.2	0.4	0.1	
0.1	0.4	0.1	
0.1	0.5	0.1	
0.2	0.5	0.1	
0.2	0.4	0.1	
0.1	0.4	0.1	
0.1	0.5	0.1	
0.2	0.5	0.1	
0.2	0.4	0	
0.1	0.4	0	
0.1	0.5	0	
0.2	0.5	0	
0.3	0.4	1	
0.2	0.4	1	
0.2	0.5	1	
0.3	0.5	1	
0.3	0.4	0.9	
0.2	0.4	0.9	
0.2	0.5	0.9	
0.3	0.5	0.9	
0.3	0.4	0.9	
0.2	0.4	0.9	
0.2	0.5	0.9	
0.3	0.5	0.9	
0.3	0.4	0.8	
0.2	0.4	0.8	
0.2	0.5	0.8	
0.3	0.5	0.8	
0.3	0.4	0.8	
0.2	0.4	0.8	
0.2	0.5	0.8	
0.3	0.5	0.8	
0.3	0.4	0.7	
0.2	0.4	0.7	
0.2	0.5	0.7	
0.3	0.5	0.7	
0.3	0.4	0.7	
0.2	0.4	0.7	
0.2	0.5	0.7	
0.3	0.5	0.7	
0.3	0.4	0.6	
0.2	0.4	0.6	
0.2	0.5	0.6	
0.3	0.5	0.6	
0.3	0.4	0.6	
0.2	0.4	0.6	
0.2	0.5	0.6	
0.3	0.5	0.6	
0.3	0.4	0.5	
0.2	0.4	0.5	
0.2	0.5	0.5	
0.3	0.5	0.5	
0.3	0.4	0.5	
0.2	0.4	0.5	
0.2	0.5	0.5	
0.3	0.5	0.5	
0.3	0.4	0.4	
0.2	0.4	0.4	
0.2	0.5	0.4	
0.3	0.5	0.4	
0.3	0.4	0.4	
0.2	0.4	0.4	
0.2	0.5	0.4	
0.3	0.5	0.4	
0.3	0.4	0.3	
0.2	0.4	0.3	
0.2	0.5	0.3	
0.3	0.5	0.3	
0.3	0.4	0.3	
0.2	0.4	0.3	
0.2	0.5	0.3	
0.3	0.5	0.3	
0.3	0.4	0.2	
0.2	0.4	0.2	
0.2	0.5	0.2	
0.3	0.5	0.2	
0.3	0.4	0.2	
0.2	0.4	0.2	
0.2	0.5	0.2	
0.3	0.5	0.2	
0.3	0.4	0.1	
0.2	0.4	0.1	
0.2	0.5	0.1	
0.3	0.5	0.1	
0.3	0.4	0.1	
0.2	0.4	0.1	
0.2	0.5	0.1	
0.3	0.5	0.1	
0.3	0.4	0	
0.2	0.4	0	
0.2	0.5	0	
0.3	0.5	0	
0.4	0.4	1	
0.3	0.4	1	
0.3	0.5	1	
0.4	0.5	1	
0.4	0.4	0.9	
0.3	0.4	0.9	
0.3	0.5	0.9	
0.4	0.5	0.9	
0.4	0.4	0.9	
0.3	0.4	0.9	
0.3	0.5	0.9	
0.4	0.5	0.9	
0.4	0.4	0.8	
0.3	0.4	0.8	
0.3	0.5	0.8	
0.4	0.5	0.8	
0.4	0.4	0.8	
0.3	0.4	0.8	
0.3	0.5	0.8	
0.4	0.5	0.8	
0.4	0.4	0.7	
0.3	0.4	0.7	
0.3	0.5	0.7	
0.4	0.5	0.7	
0.4	0.4	0.7	
0.3	0.4	0.7	
0.3	0.5	0.7	
0.4	0.5	0.7	
0.4	0.4	0.6	
0.3	0.4	0.6	
0.3	0.5	0.6	
0.4	0.5	0.6	
0.4	0.4	0.6	
0.3	0.4	0.6	
0.3	0.5	0.6	
0.4	0.5	0.6	
0.4	0.4	0.5	
0.3	0.4	0.5	
0.3	0.5	0.5	
0.4	0.5	0.5	
0.4	0.4	0.5	
0.3	0.4	0.5	
0.3	0.5	0.5	
0.4	0.5	0.5	
0.4	0.4	0.4	
0.3	0.4	0.4	
0.3	0.5	0.4	
0.4	0.5	0.4	
0.4	0.4	0.4	
0.3	0.4	0.4	
0.3	0.5	0.4	
0.4	0.5	0.4	
0.4	0.4	0.3	
0.3	0.4	0.3	
0.3	0.5	0.3	
0.4	0.5	0.3	
0.4	0.4	0.3	
0.3	0.4	0.3	
0.3	0.5	0.3	
0.4	0.5	0.3	
0.4	0.4	0.2	
0.3	0.4	0.2	
0.3	0.5	0.2	
0.4	0.5	0.2	
0.4	0.4	0.2	
0.3	0.4	0.2	
0.3	0.5	0.2	
0.4	0.5	0.2	
0.4	0.4	0.1	
0.3	0.4	0.1	
0.3	0.5	0.1	
0.4	0.5	0.1	
0.4	0.4	0.1	
0.3	0.4	0.1	
0.3	0.5	0.1	
0.4	0.5	0.1	
0.4	0.4	0	
0.3	0.4	0	
0.3	0.5	0	
0.4	0.5	0	
0.5	0.4	1	
0.4	0.4	1	
0.4	0.5	1	
0.5	0.5	1	
0.5	0.4	0.9	
0.4	0.4	0.9	
0.4	0.5	0.9	
0.5	0.5	0.9	
0.5	0.4	0.9	
0.4	0.4	0.9	
0.4	0.5	0.9	
0.5	0.5	0.9	
0.5	0.4	0.8	
0.4	0.4	0.8	
0.4	0.5	0.8	
0.5	0.5	0.8	
0.5	0.4	0.8	
0.4	0.4	0.8	
0.4	0.5	0.8	
0.5	0.5	0.8	
0.5	0.4	0.7	
0.4	0.4	0.7	
0.4	0.5	0.7	
0.5	0.5	0.7	
0.5	0.4	0.7	
0.4	0.4	0.7	
0.4	0.5	0.7	
0.5	0.5	0.7	
0.5	0.4	0.6	
0.4	0.4	0.6	
0.4	0.5	0.6	
0.5	0.5	0.6	
0.5	0.4	0.6	
0.4	0.4	0.6	
0.4	0.5	0.6	
0.5	0.5	0.6	
0.5	0.4	0.5	
0.4	0.4	0.5	
0.4	0.5	0.5	
0.5	0.5	0.5	
0.5	0.4	0.5	
0.4	0.4	0.5	
0.4	0.5	0.5	
0.5	0.5	0.5	
0.5	0.4	0.4	
0.4	0.4	0.4	
0.4	0.5	0.4	
0.5	0.5	0.4	
0.5	0.4	0.4	
0.4	0.4	0.4	
0.4	0.5	0.4	
0.5	0.5	0.4	
0.5	0.4	0.3	
0.4	0.4	0.3	
0.4	0.5	0.3	
0.5	0.5	0.3	
0.5	0.4	0.3	
0.4	0.4	0.3	
0.4	0.5	0.3	
0.5	0.5	0.3	
0.5	0.4	0.2	
0.4	0.4	0.2	
0.4	0.5	0.2	
0.5	0.5	0.2	
0.5	0.4	0.2	
0.4	0.4	0.2	
0.4	0.5	0.2	
0.5	0.5	0.2	
0.5	0.4	0.1	
0.4	0.4	0.1	
0.4	0.5	0.1	
0.5	0.5	0.1	
0.5	0.4	0.1	
0.4	0.4	0.1	
0.4	0.5	0.1	
0.5	0.5	0.1	
0.5	0.4	0	
0.4	0.4	0	
0.4	0.5	0	
0.5	0.5	0	
0.6	0.4	1	
0.5	0.4	1	
0.5	0.5	1	
0.6	0.5	1	
0.6	0.4	0.9	
0.5	0.4	0.9	
0.5	0.5	0.9	
0.6	0.5	0.9	
0.6	0.4	0.9	
0.5	0.4	0.9	
0.5	0.5	0.9	
0.6	0.5	0.9	
0.6	0.4	0.8	
0.5	0.4	0.8	
0.5	0.5	0.8	
0.6	0.5	0.8	
0.6	0.4	0.8	
0.5	0.4	0.8	
0.5	0.5	0.8	
0.6	0.5	0.8	
0.6	0.4	0.7	
0.5	0.4	0.7	
0.5	0.5	0.7	
0.6	0.5	0.7	
0.6	0.4	0.7	
0.5	0.4	0.7	
0.5	0.5	0.7	
0.6	0.5	0.7	
0.6	0.4	0.6	
0.5	0.4	0.6	
0.5	0.5	0.6	
0.6	0.5	0.6	
0.6	0.4	0.6	
0.5	0.4	0.6	
0.5	0.5	0.6	
0.6	0.5	0.6	
0.6	0.4	0.5	
0.5	0.4	0.5	
0.5	0.5	0.5	
0.6	0.5	0.5	
0.6	0.4	0.5	
0.5	0.4	0.5	
0.5	0.5	0.5	
0.6	0.5	0.5	
0.6	0.4	0.4	
0.5	0.4	0.4	
0.5	0.5	0.4	
0.6	0.5	0.4	
0.6	0.4	0.4	
0.5	0.4	0.4	
0.5	0.5	0.4	
0.6	0.5	0.4	
0.6	0.4	0.3	
0.5	0.4	0.3	
0.5	0.5	0.3	
0.6	0.5	0.3	
0.6	0.4	0.3	
0.5	0.4	0.3	
0.5	0.5	0.3	
0.6	0.5	0.3	
0.6	0.4	0.2	
0.5	0.4	0.2	
0.5	0.5	0.2	
0.6	0.5	0.2	
0.6	0.4	0.2	
0.5	0.4	0.2	
0.5	0.5	0.2	
0.6	0.5	0.2	
0.6	0.4	0.1	
0.5	0.4	0.1	
0.5	0.5	0.1	
0.6	0.5	0.1	
0.6	0.4	0.1	
0.5	0.4	0.1	
0.5	0.5	0.1	
0.6	0.5	0.1	
0.6	0.4	0	
0.5	0.4	0	
0.5	0.5	0	
0.6	0.5	0	
0.7	0.4	1	
0.6	0.4	1	
0.6	0.5	1	
0.7	0.5	1	
0.7	0.4	0.9	
0.6	0.4	0.9	
0.6	0.5	0.9	
0.7	0.5	0.9	
0.7	0.4	0.9	
0.6	0.4	0.9	
0.6	0.5	0.9	
0.7	0.5	0.9	
0.7	0.4	0.8	
0.6	0.4	0.8	
0.6	0.5	0.8	
0.7	0.5	0.8	
0.7	0.4	0.8	
0.6	0.4	0.8	
0.6	0.5	0.8	
0.7	0.5	0.8	
0.7	0.4	0.7	
0.6	0.4	0.7	
0.6	0.5	0.7	
0.7	0.5	0.7	
0.7	0.4	0.7	
0.6	0.4	0.7	
0.6	0.5	0.7	
0.7	0.5	0.7	
0.7	0.4	0.6	
0.6	0.4	0.6	
0.6	0.5	0.6	
0.7	0.5	0.6	
0.7	0.4	0.6	
0.6	0.4	0.6	
0.6	0.5	0.6	
0.7	0.5	0.6	
0.7	0.4	0.5	
0.6	0.4	0.5	
0.6	0.5	0.5	
0.7	0.5	0.5	
0.7	0.4	0.5	
0.6	0.4	0.5	
0.6	0.5	0.5	
0.7	0.5	0.5	
0.7	0.4	0.4	
0.6	0.4	0.4	
0.6	0.5	0.4	
0.7	0.5	0.4	
0.7	0.4	0.4	
0.6	0.4	0.4	
0.6	0.5	0.4	
0.7	0.5	0.4	
0.7	0.4	0.3	
0.6	0.4	0.3	
0.6	0.5	0.3	
0.7	0.5	0.3	
0.7	0.4	0.3	
0.6	0.4	0.3	
0.6	0.5	0.3	
0.7	0.5	0.3	
0.7	0.4	0.2	
0.6	0.4	0.2	
0.6	0.5	0.2	
0.7	0.5	0.2	
0.7	0.4	0.2	
0.6	0.4	0.2	
0.6	0.5	0.2	
0.7	0.5	0.2	
0.7	0.4	0.1	
0.6	0.4	0.1	
0.6	0.5	0.1	
0.7	0.5	0.1	
0.7	0.4	0.1	
0.6	0.4	0.1	
0.6	0.5	0.1	
0.7	0.5	0.1	
0.7	0.4	0	
0.6	0.4	0	
0.6	0.5	0	
0.7	0.5	0	
0.8	0.4	1	
0.7	0.4	1	
0.7	0.5	1	
0.8	0.5	1	
0.8	0.4	0.9	
0.7	0.4	0.9	
0.7	0.5	0.9	
0.8	0.5	0.9	
0.8	0.4	0.9	
0.7	0.4	0.9	
0.7	0.5	0.9	
0.8	0.5	0.9	
0.8	0.4	0.8	
0.7	0.4	0.8	
0.7	0.5	0.8	
0.8	0.5	0.8	
0.8	0.4	0.8	
0.7	0.4	0.8	
0.7	0.5	0.8	
0.8	0.5	0.8	
0.8	0.4	0.7	
0.7	0.4	0.7	
0.7	0.5	0.7	
0.8	0.5	0.7	
0.8	0.4	0.7	
0.7	0.4	0.7	
0.7	0.5	0.7	
0.8	0.5	0.7	
0.8	0.4	0.6	
0.7	0.4	0.6	
0.7	0.5	0.6	
0.8	0.5	0.6	
0.8	0.4	0.6	
0.7	0.4	0.6	
0.7	0.5	0.6	
0.8	0.5	0.6	
0.8	0.4	0.5	
0.7	0.4	0.5	
0.7	0.5	0.5	
0.8	0.5	0.5	
0.8	0.4	0.5	
0.7	0.4	0.5	
0.7	0.5	0.5	
0.8	0.5	0.5	
0.8	0.4	0.4	
0.7	0.4	0.4	
0.7	0.5	0.4	
0.8	0.5	0.4	
0.8	0.4	0.4	
0.7	0.4	0.4	
0.7	0.5	0.4	
0.8	0.5	0.4	
0.8	0.4	0.3	
0.7	0.4	0.3	
0.7	0.5	0.3	
0.8	0.5	0.3	
0.8	0.4	0.3	
0.7	0.4	0.3	
0.7	0.5	0.3	
0.8	0.5	0.3	
0.8	0.4	0.2	
0.7	0.4	0.2	
0.7	0.5	0.2	
0.8	0.5	0.2	
0.8	0.4	0.2	
0.7	0.4	0.2	
0.7	0.5	0.2	
0.8	0.5	0.2	
0.8	0.4	0.1	
0.7	0.4	0.1	
0.7	0.5	0.1	
0.8	0.5	0.1	
0.8	0.4	0.1	
0.7	0.4	0.1	
0.7	0.5	0.1	
0.8	0.5	0.1	
0.8	0.4	0	
0.7	0.4	0	
0.7	0.5	0	
0.8	0.5	0	
0.9	0.4	1	
0.8	0.4	1	
0.8	0.5	1	
0.9	0.5	1	
0.9	0.4	0.9	
0.8	0.4	0.9	
0.8	0.5	0.9	
0.9	0.5	0.9	
0.9	0.4	0.9	
0.8	0.4	0.9	
0.8	0.5	0.9	
0.9	0.5	0.9	
0.9	0.4	0.8	
0.8	0.4	0.8	
0.8	0.5	0.8	
0.9	0.5	0.8	
0.9	0.4	0.8	
0.8	0.4	0.8	
0.8	0.5	0.8	
0.9	0.5	0.8	
0.9	0.4	0.7	
0.8	0.4	0.7	
0.8	0.5	0.7	
0.9	0.5	0.7	
0.9	0.4	0.7	
0.8	0.4	0.7	
0.8	0.5	0.7	
0.9	0.5	0.7	
0.9	0.4	0.6	
0.8	0.4	0.6	
0.8	0.5	0.6	
0.9	0.5	0.6	
0.9	0.4	0.6	
0.8	0.4	0.6	
0.8	0.5	0.6	
0.9	0.5	0.6	
0.9	0.4	0.5	
0.8	0.4	0.5	
0.8	0.5	0.5	
0.9	0.5	0.5	
0.9	0.4	0.5	
0.8	0.4	0.5	
0.8	0.5	0.5	
0.9	0.5	0.5	
0.9	0.4	0.4	
0.8	0.4	0.4	
0.8	0.5	0.4	
0.9	0.5	0.4	
0.9	0.4	0.4	
0.8	0.4	0.4	
0.8	0.5	0.4	
0.9	0.5	0.4	
0.9	0.4	0.3	
0.8	0.4	0.3	
0.8	0.5	0.3	
0.9	0.5	0.3	
0.9	0.4	0.3	
0.8	0.4	0.3	
0.8	0.5	0.3	
0.9	0.5	0.3	
0.9	0.4	0.2	
0.8	0.4	0.2	
0.8	0.5	0.2	
0.9	0.5	0.2	
0.9	0.4	0.2	
0.8	0.4	0.2	
0.8	0.5	0.2	
0.9	0.5	0.2	
0.9	0.4	0.1	
0.8	0.4	0.1	
0.8	0.5	0.1	
0.9	0.5	0.1	
0.9	0.4	0.1	
0.8	0.4	0.1	
0.8	0.5	0.1	
0.9	0.5	0.1	
0.9	0.4	0	
0.8	0.4	0	
0.8	0.5	0	
0.9	0.5	0	
1	0.4	1	
0.9	0.4	1	
0.9	0.5	1	
1	0.5	1	
1	0.4	0.9	
0.9	0.4	0.9	
0.9	0.5	0.9	
1	0.5	0.9	
1	0.4	0.9	
0.9	0.4	0.9	
0.9	0.5	0.9	
1	0.5	0.9	
1	0.4	0.8	
0.9	0.4	0.8	
0.9	0.5	0.8	
1	0.5	0.8	
1	0.4	0.8	
0.9	0.4	0.8	
0.9	0.5	0.8	
1	0.5	0.8	
1	0.4	0.7	
0.9	0.4	0.7	
0.9	0.5	0.7	
1	0.5	0.7	
1	0.4	0.7	
0.9	0.4	0.7	
0.9	0.5	0.7	
1	0.5	0.7	
1	0.4	0.6	
0.9	0.4	0.6	
0.9	0.5	0.6	
1	0.5	0.6	
1	0.4	0.6	
0.9	0.4	0.6	
0.9	0.5	0.6	
1	0.5	0.6	
1	0.4	0.5	
0.9	0.4	0.5	
0.9	0.5	0.5	
1	0.5	0.5	
1	0.4	0.5	
0.9	0.4	0.5	
0.9	0.5	0.5	
1	0.5	0.5	
1	0.4	0.4	
0.9	0.4	0.4	
0.9	0.5	0.4	
1	0.5	0.4	
1	0.4	0.4	
0.9	0.4	0.4	
0.9	0.5	0.4	
1	0.5	0.4	
1	0.4	0.3	
0.9	0.4	0.3	
0.9	0.5	0.3	
1	0.5	0.3	
1	0.4	0.3	
0.9	0.4	0.3	
0.9	0.5	0.3	
1	0.5	0.3	
1	0.4	0.2	
0.9	0.4	0.2	
0.9	0.5	0.2	
1	0.5	0.2	
1	0.4	0.2	
0.9	0.4	0.2	
0.9	0.5	0.2	
1	0.5	0.2	
1	0.4	0.1	
0.9	0.4	0.1	
0.9	0.5	0.1	
1	0.5	0.1	
1	0.4	0.1	
0.9	0.4	0.1	
0.9	0.5	0.1	
1	0.5	0.1	
1	0.4	0	
0.9	0.4	0	
0.9	0.5	0	
1	0.5	0	
0.1	0.3	1	
0	0.3	1	
0	0.4	1	
0.1	0.4	1	
0.1	0.3	0.9	
0	0.3	0.9	
0	0.4	0.9	
0.1	0.4	0.9	
0.1	0.3	0.9	
0	0.3	0.9	
0	0.4	0.9	
0.1	0.4	0.9	
0.1	0.3	0.8	
0	0.3	0.8	
0	0.4	0.8	
0.1	0.4	0.8	
0.1	0.3	0.8	
0	0.3	0.8	
0	0.4	0.8	
0.1	0.4	0.8	
0.1	0.3	0.7	
0	0.3	0.7	
0	0.4	0.7	
0.1	0.4	0.7	
0.1	0.3	0.7	
0	0.3	0.7	
0	0.4	0.7	
0.1	0.4	0.7	
0.1	0.3	0.6	
0	0.3	0.6	
0	0.4	0.6	
0.1	0.4	0.6	
0.1	0.3	0.6	
0	0.3	0.6	
0	0.4	0.6	
0.1	0.4	0.6	
0.1	0.3	0.5	
0	0.3	0.5	
0	0.4	0.5	
0.1	0.4	0.5	
0.1	0.3	0.5	
0	0.3	0.5	
0	0.4	0.5	
0.1	0.4	0.5	
0.1	0.3	0.4	
0	0.3	0.4	
0	0.4	0.4	
0.1	0.4	0.4	
0.1	0.3	0.4	
0	0.3	0.4	
0	0.4	0.4	
0.1	0.4	0.4	
0.1	0.3	0.3	
0	0.3	0.3	
0	0.4	0.3	
0.1	0.4	0.3	
0.1	0.3	0.3	
0	0.3	0.3	
0	0.4	0.3	
0.1	0.4	0.3	
0.1	0.3	0.2	
0	0.3	0.2	
0	0.4	0.2	
0.1	0.4	0.2	
0.1	0.3	0.2	
0	0.3	0.2	
0	0.4	0.2	
0.1	0.4	0.2	
0.1	0.3	0.1	
0	0.3	0.1	
0	0.4	0.1	
0.1	0.4	0.1	
0.1	0.3	0.1	
0	0.3	0.1	
0	0.4	0.1	
0.1	0.4	0.1	
0.1	0.3	0	
0	0.3	0	
0	0.4	0	
0.1	0.4	0	
0.2	0.3	1	
0.1	0.3	1	
0.1	0.4	1	
0.2	0.4	1	
0.2	0.3	0.9	
0.1	0.3	0.9	
0.1	0.4	0.9	
0.2	0.4	0.9	
0.2	0.3	0.9	
0.1	0.3	0.9	
0.1	0.4	0.9	
0.2	0.4	0.9	
0.2	0.3	0.8	
0.1	0.3	0.8	
0.1	0.4	0.8	
0.2	0.4	0.8	
0.2	0.3	0.8	
0.1	0.3	0.8	
0.1	0.4	0.8	
0.2	0.4	0.8	
0.2	0.3	0.7	
0.1	0.3	0.7	
0.1	0.4	0.7	
0.2	0.4	0.7	
0.2	0.3	0.7	
0.1	0.3	0.7	
0.1	0.4	0.7	
0.2	0.4	0.7	
0.2	0.3	0.6	
0.1	0.3	0.6	
0.1	0.4	0.6	
0.2	0.4	0.6	
0.2	0.3	0.6	
0.1	0.3	0.6	
0.1	0.4	0.6	
0.2	0.4	0.6	
0.2	0.3	0.5	
0.1	0.3	0.5	
0.1	0.4	0.5	
0.2	0.4	0.5	
0.2	0.3	0.5	
0.1	0.3	0.5	
0.1	0.4	0.5	
0.2	0.4	0.5	
0.2	0.3	0.4	
0.1	0.3	0.4	
0.1	0.4	0.4	
0.2	0.4	0.4	
0.2	0.3	0.4	
0.1	0.3	0.4	
0.1	0.4	0.4	
0.2	0.4	0.4	
0.2	0.3	0.3	
0.1	0.3	0.3	
0.1	0.4	0.3	
0.2	0.4	0.3	
0.2	0.3	0.3	
0.1	0.3	0.3	
0.1	0.4	0.3	
0.2	0.4	0.3	
0.2	0.3	0.2	
0.1	0.3	0.2	
0.1	0.4	0.2	
0.2	0.4	0.2	
0.2	0.3	0.2	
0.1	0.3	0.2	
0.1	0.4	0.2	
0.2	0.4	0.2	
0.2	0.3	0.1	
0.1	0.3	0.1	
0.1	0.4	0.1	
0.2	0.4	0.1	
0.2	0.3	0.1	
0.1	0.3	0.1	
0.1	0.4	0.1	
0.2	0.4	0.1	
0.2	0.3	0	
0.1	0.3	0	
0.1	0.4	0	
0.2	0.4	0	
0.3	0.3	1	
0.2	0.3	1	
0.2	0.4	1	
0.3	0.4	1	
0.3	0.3	0.9	
0.2	0.3	0.9	
0.2	0.4	0.9	
0.3	0.4	0.9	
0.3	0.3	0.9	
0.2	0.3	0.9	
0.2	0.4	0.9	
0.3	0.4	0.9	
0.3	0.3	0.8	
0.2	0.3	0.8	
0.2	0.4	0.8	
0.3	0.4	0.8	
0.3	0.3	0.8	
0.2	0.3	0.8	
0.2	0.4	0.8	
0.3	0.4	0.8	
0.3	0.3	0.7	
0.2	0.3	0.7	
0.2	0.4	0.7	
0.3	0.4	0.7	
0.3	0.3	0.7	
0.2	0.3	0.7	
0.2	0.4	0.7	
0.3	0.4	0.7	
0.3	0.3	0.6	
0.2	0.3	0.6	
0.2	0.4	0.6	
0.3	0.4	0.6	
0.3	0.3	0.6	
0.2	0.3	0.6	
0.2	0.4	0.6	
0.3	0.4	0.6	
0.3	0.3	0.5	
0.2	0.3	0.5	
0.2	0.4	0.5	
0.3	0.4	0.5	
0.3	0.3	0.5	
0.2	0.3	0.5	
0.2	0.4	0.5	
0.3	0.4	0.5	
0.3	0.3	0.4	
0.2	0.3	0.4	
0.2	0.4	0.4	
0.3	0.4	0.4	
0.3	0.3	0.4	
0.2	0.3	0.4	
0.2	0.4	0.4	
0.3	0.4	0.4	
0.3	0.3	0.3	
0.2	0.3	0.3	
0.2	0.4	0.3	
0.3	0.4	0.3	
0.3	0.3	0.3	
0.2	0.3	0.3	
0.2	0.4	0.3	
0.3	0.4	0.3	
0.3	0.3	0.2	
0.2	0.3	0.2	
0.2	0.4	0.2	
0.3	0.4	0.2	
0.3	0.3	0.2	
0.2	0.3	0.2	
0.2	0.4	0.2	
0.3	0.4	0.2	
0.3	0.3	0.1	
0.2	0.3	0.1	
0.2	0.4	0.1	
0.3	0.4	0.1	
0.3	0.3	0.1	
0.2	0.3	0.1	
0.2	0.4	0.1	
0.3	0.4	0.1	
0.3	0.3	0	
0.2	0.3	0	
0.2	0.4	0	
0.3	0.4	0	
0.4	0.3	1	
0.3	0.3	1	
0.3	0.4	1	
0.4	0.4	1	
0.4	0.3	0.9	
0.3	0.3	0.9	
0.3	0.4	0.9	
0.4	0.4	0.9	
0.4	0.3	0.9	
0.3	0.3	0.9	
0.3	0.4	0.9	
0.4	0.4	0.9	
0.4	0.3	0.8	
0.3	0.3	0.8	
0.3	0.4	0.8	
0.4	0.4	0.8	
0.4	0.3	0.8	
0.3	0.3	0.8	
0.3	0.4	0.8	
0.4	0.4	0.8	
0.4	0.3	0.7	
0.3	0.3	0.7	
0.3	0.4	0.7	
0.4	0.4	0.7	
0.4	0.3	0.7	
0.3	0.3	0.7	
0.3	0.4	0.7	
0.4	0.4	0.7	
0.4	0.3	0.6	
0.3	0.3	0.6	
0.3	0.4	0.6	
0.4	0.4	0.6	
0.4	0.3	0.6	
0.3	0.3	0.6	
0.3	0.4	0.6	
0.4	0.4	0.6	
0.4	0.3	0.5	
0.3	0.3	0.5	
0.3	0.4	0.5	
0.4	0.4	0.5	
0.4	0.3	0.5	
0.3	0.3	0.5	
0.3	0.4	0.5	
0.4	0.4	0.5	
0.4	0.3	0.4	
0.3	0.3	0.4	
0.3	0.4	0.4	
0.4	0.4	0.4	
0.4	0.3	0.4	
0.3	0.3	0.4	
0.3	0.4	0.4	
0.4	0.4	0.4	
0.4	0.3	0.3	
0.3	0.3	0.3	
0.3	0.4	0.3	
0.4	0.4	0.3	
0.4	0.3	0.3	
0.3	0.3	0.3	
0.3	0.4	0.3	
0.4	0.4	0.3	
0.4	0.3	0.2	
0.3	0.3	0.2	
0.3	0.4	0.2	
0.4	0.4	0.2	
0.4	0.3	0.2	
0.3	0.3	0.2	
0.3	0.4	0.2	
0.4	0.4	0.2	
0.4	0.3	0.1	
0.3	0.3	0.1	
0.3	0.4	0.1	
0.4	0.4	0.1	
0.4	0.3	0.1	
0.3	0.3	0.1	
0.3	0.4	0.1	
0.4	0.4	0.1	
0.4	0.3	0	
0.3	0.3	0	
0.3	0.4	0	
0.4	0.4	0	
0.5	0.3	1	
0.4	0.3	1	
0.4	0.4	1	
0.5	0.4	1	
0.5	0.3	0.9	
0.4	0.3	0.9	
0.4	0.4	0.9	
0.5	0.4	0.9	
0.5	0.3	0.9	
0.4	0.3	0.9	
0.4	0.4	0.9	
0.5	0.4	0.9	
0.5	0.3	0.8	
0.4	0.3	0.8	
0.4	0.4	0.8	
0.5	0.4	0.8	
0.5	0.3	0.8	
0.4	0.3	0.8	
0.4	0.4	0.8	
0.5	0.4	0.8	
0.5	0.3	0.7	
0.4	0.3	0.7	
0.4	0.4	0.7	
0.5	0.4	0.7	
0.5	0.3	0.7	
0.4	0.3	0.7	
0.4	0.4	0.7	
0.5	0.4	0.7	
0.5	0.3	0.6	
0.4	0.3	0.6	
0.4	0.4	0.6	
0.5	0.4	0.6	
0.5	0.3	0.6	
0.4	0.3	0.6	
0.4	0.4	0.6	
0.5	0.4	0.6	
0.5	0.3	0.5	
0.4	0.3	0.5	
0.4	0.4	0.5	
0.5	0.4	0.5	
0.5	0.3	0.5	
0.4	0.3	0.5	
0.4	0.4	0.5	
0.5	0.4	0.5	
0.5	0.3	0.4	
0.4	0.3	0.4	
0.4	0.4	0.4	
0.5	0.4	0.4	
0.5	0.3	0.4	
0.4	0.3	0.4	
0.4	0.4	0.4	
0.5	0.4	0.4	
0.5	0.3	0.3	
0.4	0.3	0.3	
0.4	0.4	0.3	
0.5	0.4	0.3	
0.5	0.3	0.3	
0.4	0.3	0.3	
0.4	0.4	0.3	
0.5	0.4	0.3	
0.5	0.3	0.2	
0.4	0.3	0.2	
0.4	0.4	0.2	
0.5	0.4	0.2	
0.5	0.3	0.2	
0.4	0.3	0.2	
0.4	0.4	0.2	
0.5	0.4	0.2	
0.5	0.3	0.1	
0.4	0.3	0.1	
0.4	0.4	0.1	
0.5	0.4	0.1	
0.5	0.3	0.1	
0.4	0.3	0.1	
0.4	0.4	0.1	
0.5	0.4	0.1	
0.5	0.3	0	
0.4	0.3	0	
0.4	0.4	0	
0.5	0.4	0	
0.6	0.3	1	
0.5	0.3	1	
0.5	0.4	1	
0.6	0.4	1	
0.6	0.3	0.9	
0.5	0.3	0.9	
0.5	0.4	0.9	
0.6	0.4	0.9	
0.6	0.3	0.9	
0.5	0.3	0.9	
0.5	0.4	0.9	
0.6	0.4	0.9	
0.6	0.3	0.8	
0.5	0.3	0.8	
0.5	0.4	0.8	
0.6	0.4	0.8	
0.6	0.3	0.8	
0.5	0.3	0.8	
0.5	0.4	0.8	
0.6	0.4	0.8	
0.6	0.3	0.7	
0.5	0.3	0.7	
0.5	0.4	0.7	
0.6	0.4	0.7	
0.6	0.3	0.7	
0.5	0.3	0.7	
0.5	0.4	0.7	
0.6	0.4	0.7	
0.6	0.3	0.6	
0.5	0.3	0.6	
0.5	0.4	0.6	
0.6	0.4	0.6	
0.6	0.3	0.6	
0.5	0.3	0.6	
0.5	0.4	0.6	
0.6	0.4	0.6	
0.6	0.3	0.5	
0.5	0.3	0.5	
0.5	0.4	0.5	
0.6	0.4	0.5	
0.6	0.3	0.5	
0.5	0.3	0.5	
0.5	0.4	0.5	
0.6	0.4	0.5	
0.6	0.3	0.4	
0.5	0.3	0.4	
0.5	0.4	0.4	
0.6	0.4	0.4	
0.6	0.3	0.4	
0.5	0.3	0.4	
0.5	0.4	0.4	
0.6	0.4	0.4	
0.6	0.3	0.3	
0.5	0.3	0.3	
0.5	0.4	0.3	
0.6	0.4	0.3	
0.6	0.3	0.3	
0.5	0.3	0.3	
0.5	0.4	0.3	
0.6	0.4	0.3	
0.6	0.3	0.2	
0.5	0.3	0.2	
0.5	0.4	0.2	
0.6	0.4	0.2	
0.6	0.3	0.2	
0.5	0.3	0.2	
0.5	0.4	0.2	
0.6	0.4	0.2	
0.6	0.3	0.1	
0.5	0.3	0.1	
0.5	0.4	0.1	
0.6	0.4	0.1	
0.6	0.3	0.1	
0.5	0.3	0.1	
0.5	0.4	0.1	
0.6	0.4	0.1	
0.6	0.3	0	
0.5	0.3	0	
0.5	0.4	0	
0.6	0.4	0	
0.7	0.3	1	
0.6	0.3	1	
0.6	0.4	1	
0.7	0.4	1	
0.7	0.3	0.9	
0.6	0.3	0.9	
0.6	0.4	0.9	
0.7	0.4	0.9	
0.7	0.3	0.9	
0.6	0.3	0.9	
0.6	0.4	0.9	
0.7	0.4	0.9	
0.7	0.3	0.8	
0.6	0.3	0.8	
0.6	0.4	0.8	
0.7	0.4	0.8	
0.7	0.3	0.8	
0.6	0.3	0.8	
0.6	0.4	0.8	
0.7	0.4	0.8	
0.7	0.3	0.7	
0.6	0.3	0.7	
0.6	0.4	0.7	
0.7	0.4	0.7	
0.7	0.3	0.7	
0.6	0.3	0.7	
0.6	0.4	0.7	
0.7	0.4	0.7	
0.7	0.3	0.6	
0.6	0.3	0.6	
0.6	0.4	0.6	
0.7	0.4	0.6	
0.7	0.3	0.6	
0.6	0.3	0.6	
0.6	0.4	0.6	
0.7	0.4	0.6	
0.7	0.3	0.5	
0.6	0.3	0.5	
0.6	0.4	0.5	
0.7	0.4	0.5	
0.7	0.3	0.5	
0.6	0.3	0.5	
0.6	0.4	0.5	
0.7	0.4	0.5	
0.7	0.3	0.4	
0.6	0.3	0.4	
0.6	0.4	0.4	
0.7	0.4	0.4	
0.7	0.3	0.4	
0.6	0.3	0.4	
0.6	0.4	0.4	
0.7	0.4	0.4	
0.7	0.3	0.3	
0.6	0.3	0.3	
0.6	0.4	0.3	
0.7	0.4	0.3	
0.7	0.3	0.3	
0.6	0.3	0.3	
0.6	0.4	0.3	
0.7	0.4	0.3	
0.7	0.3	0.2	
0.6	0.3	0.2	
0.6	0.4	0.2	
0.7	0.4	0.2	
0.7	0.3	0.2	
0.6	0.3	0.2	
0.6	0.4	0.2	
0.7	0.4	0.2	
0.7	0.3	0.1	
0.6	0.3	0.1	
0.6	0.4	0.1	
0.7	0.4	0.1	
0.7	0.3	0.1	
0.6	0.3	0.1	
0.6	0.4	0.1	
0.7	0.4	0.1	
0.7	0.3	0	
0.6	0.3	0	
0.6	0.4	0	
0.7	0.4	0	
0.8	0.3	1	
0.7	0.3	1	
0.7	0.4	1	
0.8	0.4	1	
0.8	0.3	0.9	
0.7	0.3	0.9	
0.7	0.4	0.9	
0.8	0.4	0.9	
0.8	0.3	0.9	
0.7	0.3	0.9	
0.7	0.4	0.9	
0.8	0.4	0.9	
0.8	0.3	0.8	
0.7	0.3	0.8	
0.7	0.4	0.8	
0.8	0.4	0.8	
0.8	0.3	0.8	
0.7	0.3	0.8	
0.7	0.4	0.8	
0.8	0.4	0.8	
0.8	0.3	0.7	
0.7	0.3	0.7	
0.7	0.4	0.7	
0.8	0.4	0.7	
0.8	0.3	0.7	
0.7	0.3	0.7	
0.7	0.4	0.7	
0.8	0.4	0.7	
0.8	0.3	0.6	
0.7	0.3	0.6	
0.7	0.4	0.6	
0.8	0.4	0.6	
0.8	0.3	0.6	
0.7	0.3	0.6	
0.7	0.4	0.6	
0.8	0.4	0.6	
0.8	0.3	0.5	
0.7	0.3	0.5	
0.7	0.4	0.5	
0.8	0.4	0.5	
0.8	0.3	0.5	
0.7	0.3	0.5	
0.7	0.4	0.5	
0.8	0.4	0.5	
0.8	0.3	0.4	
0.7	0.3	0.4	
0.7	0.4	0.4	
0.8	0.4	0.4	
0.8	0.3	0.4	
0.7	0.3	0.4	
0.7	0.4	0.4	
0.8	0.4	0.4	
0.8	0.3	0.3	
0.7	0.3	0.3	
0.7	0.4	0.3	
0.8	0.4	0.3	
0.8	0.3	0.3	
0.7	0.3	0.3	
0.7	0.4	0.3	
0.8	0.4	0.3	
0.8	0.3	0.2	
0.7	0.3	0.2	
0.7	0.4	0.2	
0.8	0.4	0.2	
0.8	0.3	0.2	
0.7	0.3	0.2	
0.7	0.4	0.2	
0.8	0.4	0.2	
0.8	0.3	0.1	
0.7	0.3	0.1	
0.7	0.4	0.1	
0.8	0.4	0.1	
0.8	0.3	0.1	
0.7	0.3	0.1	
0.7	0.4	0.1	
0.8	0.4	0.1	
0.8	0.3	0	
0.7	0.3	0	
0.7	0.4	0	
0.8	0.4	0	
0.9	0.3	1	
0.8	0.3	1	
0.8	0.4	1	
0.9	0.4	1	
0.9	0.3	0.9	
0.8	0.3	0.9	
0.8	0.4	0.9	
0.9	0.4	0.9	
0.9	0.3	0.9	
0.8	0.3	0.9	
0.8	0.4	0.9	
0.9	0.4	0.9	
0.9	0.3	0.8	
0.8	0.3	0.8	
0.8	0.4	0.8	
0.9	0.4	0.8	
0.9	0.3	0.8	
0.8	0.3	0.8	
0.8	0.4	0.8	
0.9	0.4	0.8	
0.9	0.3	0.7	
0.8	0.3	0.7	
0.8	0.4	0.7	
0.9	0.4	0.7	
0.9	0.3	0.7	
0.8	0.3	0.7	
0.8	0.4	0.7	
0.9	0.4	0.7	
0.9	0.3	0.6	
0.8	0.3	0.6	
0.8	0.4	0.6	
0.9	0.4	0.6	
0.9	0.3	0.6	
0.8	0.3	0.6	
0.8	0.4	0.6	
0.9	0.4	0.6	
0.9	0.3	0.5	
0.8	0.3	0.5	
0.8	0.4	0.5	
0.9	0.4	0.5	
0.9	0.3	0.5	
0.8	0.3	0.5	
0.8	0.4	0.5	
0.9	0.4	0.5	
0.9	0.3	0.4	
0.8	0.3	0.4	
0.8	0.4	0.4	
0.9	0.4	0.4	
0.9	0.3	0.4	
0.8	0.3	0.4	
0.8	0.4	0.4	
0.9	0.4	0.4	
0.9	0.3	0.3	
0.8	0.3	0.3	
0.8	0.4	0.3	
0.9	0.4	0.3	
0.9	0.3	0.3	
0.8	0.3	0.3	
0.8	0.4	0.3	
0.9	0.4	0.3	
0.9	0.3	0.2	
0.8	0.3	0.2	
0.8	0.4	0.2	
0.9	0.4	0.2	
0.9	0.3	0.2	
0.8	0.3	0.2	
0.8	0.4	0.2	
0.9	0.4	0.2	
0.9	0.3	0.1	
0.8	0.3	0.1	
0.8	0.4	0.1	
0.9	0.4	0.1	
0.9	0.3	0.1	
0.8	0.3	0.1	
0.8	0.4	0.1	
0.9	0.4	0.1	
0.9	0.3	0	
0.8	0.3	0	
0.8	0.4	0	
0.9	0.4	0	
1	0.3	1	
0.9	0.3	1	
0.9	0.4	1	
1	0.4	1	
1	0.3	0.9	
0.9	0.3	0.9	
0.9	0.4	0.9	
1	0.4	0.9	
1	0.3	0.9	
0.9	0.3	0.9	
0.9	0.4	0.9	
1	0.4	0.9	
1	0.3	0.8	
0.9	0.3	0.8	
0.9	0.4	0.8	
1	0.4	0.8	
1	0.3	0.8	
0.9	0.3	0.8	
0.9	0.4	0.8	
1	0.4	0.8	
1	0.3	0.7	
0.9	0.3	0.7	
0.9	0.4	0.7	
1	0.4	0.7	
1	0.3	0.7	
0.9	0.3	0.7	
0.9	0.4	0.7	
1	0.4	0.7	
1	0.3	0.6	
0.9	0.3	0.6	
0.9	0.4	0.6	
1	0.4	0.6	
1	0.3	0.6	
0.9	0.3	0.6	
0.9	0.4	0.6	
1	0.4	0.6	
1	0.3	0.5	
0.9	0.3	0.5	
0.9	0.4	0.5	
1	0.4	0.5	
1	0.3	0.5	
0.9	0.3	0.5	
0.9	0.4	0.5	
1	0.4	0.5	
1	0.3	0.4	
0.9	0.3	0.4	
0.9	0.4	0.4	
1	0.4	0.4	
1	0.3	0.4	
0.9	0.3	0.4	
0.9	0.4	0.4	
1	0.4	0.4	
1	0.3	0.3	
0.9	0.3	0.3	
0.9	0.4	0.3	
1	0.4	0.3	
1	0.3	0.3	
0.9	0.3	0.3	
0.9	0.4	0.3	
1	0.4	0.3	
1	0.3	0.2	
0.9	0.3	0.2	
0.9	0.4	0.2	
1	0.4	0.2	
1	0.3	0.2	
0.9	0.3	0.2	
0.9	0.4	0.2	
1	0.4	0.2	
1	0.3	0.1	
0.9	0.3	0.1	
0.9	0.4	0.1	
1	0.4	0.1	
1	0.3	0.1	
0.9	0.3	0.1	
0.9	0.4	0.1	
1	0.4	0.1	
1	0.3	0	
0.9	0.3	0	
0.9	0.4	0	
1	0.4	0	
0.1	0.2	1	
0	0.2	1	
0	0.3	1	
0.1	0.3	1	
0.1	0.2	0.9	
0	0.2	0.9	
0	0.3	0.9	
0.1	0.3	0.9	
0.1	0.2	0.9	
0	0.2	0.9	
0	0.3	0.9	
0.1	0.3	0.9	
0.1	0.2	0.8	
0	0.2	0.8	
0	0.3	0.8	
0.1	0.3	0.8	
0.1	0.2	0.8	
0	0.2	0.8	
0	0.3	0.8	
0.1	0.3	0.8	
0.1	0.2	0.7	
0	0.2	0.7	
0	0.3	0.7	
0.1	0.3	0.7	
0.1	0.2	0.7	
0	0.2	0.7	
0	0.3	0.7	
0.1	0.3	0.7	
0.1	0.2	0.6	
0	0.2	0.6	
0	0.3	0.6	
0.1	0.3	0.6	
0.1	0.2	0.6	
0	0.2	0.6	
0	0.3	0.6	
0.1	0.3	0.6	
0.1	0.2	0.5	
0	0.2	0.5	
0	0.3	0.5	
0.1	0.3	0.5	
0.1	0.2	0.5	
0	0.2	0.5	
0	0.3	0.5	
0.1	0.3	0.5	
0.1	0.2	0.4	
0	0.2	0.4	
0	0.3	0.4	
0.1	0.3	0.4	
0.1	0.2	0.4	
0	0.2	0.4	
0	0.3	0.4	
0.1	0.3	0.4	
0.1	0.2	0.3	
0	0.2	0.3	
0	0.3	0.3	
0.1	0.3	0.3	
0.1	0.2	0.3	
0	0.2	0.3	
0	0.3	0.3	
0.1	0.3	0.3	
0.1	0.2	0.2	
0	0.2	0.2	
0	0.3	0.2	
0.1	0.3	0.2	
0.1	0.2	0.2	
0	0.2	0.2	
0	0.3	0.2	
0.1	0.3	0.2	
0.1	0.2	0.1	
0	0.2	0.1	
0	0.3	0.1	
0.1	0.3	0.1	
0.1	0.2	0.1	
0	0.2	0.1	
0	0.3	0.1	
0.1	0.3	0.1	
0.1	0.2	0	
0	0.2	0	
0	0.3	0	
0.1	0.3	0	
0.2	0.2	1	
0.1	0.2	1	
0.1	0.3	1	
0.2	0.3	1	
0.2	0.2	0.9	
0.1	0.2	0.9	
0.1	0.3	0.9	
0.2	0.3	0.9	
0.2	0.2	0.9	
0.1	0.2	0.9	
0.1	0.3	0.9	
0.2	0.3	0.9	
0.2	0.2	0.8	
0.1	0.2	0.8	
0.1	0.3	0.8	
0.2	0.3	0.8	
0.2	0.2	0.8	
0.1	0.2	0.8	
0.1	0.3	0.8	
0.2	0.3	0.8	
0.2	0.2	0.7	
0.1	0.2	0.7	
0.1	0.3	0.7	
0.2	0.3	0.7	
0.2	0.2	0.7	
0.1	0.2	0.7	
0.1	0.3	0.7	
0.2	0.3	0.7	
0.2	0.2	0.6	
0.1	0.2	0.6	
0.1	0.3	0.6	
0.2	0.3	0.6	
0.2	0.2	0.6	
0.1	0.2	0.6	
0.1	0.3	0.6	
0.2	0.3	0.6	
0.2	0.2	0.5	
0.1	0.2	0.5	
0.1	0.3	0.5	
0.2	0.3	0.5	
0.2	0.2	0.5	
0.1	0.2	0.5	
0.1	0.3	0.5	
0.2	0.3	0.5	
0.2	0.2	0.4	
0.1	0.2	0.4	
0.1	0.3	0.4	
0.2	0.3	0.4	
0.2	0.2	0.4	
0.1	0.2	0.4	
0.1	0.3	0.4	
0.2	0.3	0.4	
0.2	0.2	0.3	
0.1	0.2	0.3	
0.1	0.3	0.3	
0.2	0.3	0.3	
0.2	0.2	0.3	
0.1	0.2	0.3	
0.1	0.3	0.3	
0.2	0.3	0.3	
0.2	0.2	0.2	
0.1	0.2	0.2	
0.1	0.3	0.2	
0.2	0.3	0.2	
0.2	0.2	0.2	
0.1	0.2	0.2	
0.1	0.3	0.2	
0.2	0.3	0.2	
0.2	0.2	0.1	
0.1	0.2	0.1	
0.1	0.3	0.1	
0.2	0.3	0.1	
0.2	0.2	0.1	
0.1	0.2	0.1	
0.1	0.3	0.1	
0.2	0.3	0.1	
0.2	0.2	0	
0.1	0.2	0	
0.1	0.3	0	
0.2	0.3	0	
0.3	0.2	1	
0.2	0.2	1	
0.2	0.3	1	
0.3	0.3	1	
0.3	0.2	0.9	
0.2	0.2	0.9	
0.2	0.3	0.9	
0.3	0.3	0.9	
0.3	0.2	0.9	
0.2	0.2	0.9	
0.2	0.3	0.9	
0.3	0.3	0.9	
0.3	0.2	0.8	
0.2	0.2	0.8	
0.2	0.3	0.8	
0.3	0.3	0.8	
0.3	0.2	0.8	
0.2	0.2	0.8	
0.2	0.3	0.8	
0.3	0.3	0.8	
0.3	0.2	0.7	
0.2	0.2	0.7	
0.2	0.3	0.7	
0.3	0.3	0.7	
0.3	0.2	0.7	
0.2	0.2	0.7	
0.2	0.3	0.7	
0.3	0.3	0.7	
0.3	0.2	0.6	
0.2	0.2	0.6	
0.2	0.3	0.6	
0.3	0.3	0.6	
0.3	0.2	0.6	
0.2	0.2	0.6	
0.2	0.3	0.6	
0.3	0.3	0.6	
0.3	0.2	0.5	
0.2	0.2	0.5	
0.2	0.3	0.5	
0.3	0.3	0.5	
0.3	0.2	0.5	
0.2	0.2	0.5	
0.2	0.3	0.5	
0.3	0.3	0.5	
0.3	0.2	0.4	
0.2	0.2	0.4	
0.2	0.3	0.4	
0.3	0.3	0.4	
0.3	0.2	0.4	
0.2	0.2	0.4	
0.2	0.3	0.4	
0.3	0.3	0.4	
0.3	0.2	0.3	
0.2	0.2	0.3	
0.2	0.3	0.3	
0.3	0.3	0.3	
0.3	0.2	0.3	
0.2	0.2	0.3	
0.2	0.3	0.3	
0.3	0.3	0.3	
0.3	0.2	0.2	
0.2	0.2	0.2	
0.2	0.3	0.2	
0.3	0.3	0.2	
0.3	0.2	0.2	
0.2	0.2	0.2	
0.2	0.3	0.2	
0.3	0.3	0.2	
0.3	0.2	0.1	
0.2	0.2	0.1	
0.2	0.3	0.1	
0.3	0.3	0.1	
0.3	0.2	0.1	
0.2	0.2	0.1	
0.2	0.3	0.1	
0.3	0.3	0.1	
0.3	0.2	0	
0.2	0.2	0	
0.2	0.3	0	
0.3	0.3	0	
0.4	0.2	1	
0.3	0.2	1	
0.3	0.3	1	
0.4	0.3	1	
0.4	0.2	0.9	
0.3	0.2	0.9	
0.3	0.3	0.9	
0.4	0.3	0.9	
0.4	0.2	0.9	
0.3	0.2	0.9	
0.3	0.3	0.9	
0.4	0.3	0.9	
0.4	0.2	0.8	
0.3	0.2	0.8	
0.3	0.3	0.8	
0.4	0.3	0.8	
0.4	0.2	0.8	
0.3	0.2	0.8	
0.3	0.3	0.8	
0.4	0.3	0.8	
0.4	0.2	0.7	
0.3	0.2	0.7	
0.3	0.3	0.7	
0.4	0.3	0.7	
0.4	0.2	0.7	
0.3	0.2	0.7	
0.3	0.3	0.7	
0.4	0.3	0.7	
0.4	0.2	0.6	
0.3	0.2	0.6	
0.3	0.3	0.6	
0.4	0.3	0.6	
0.4	0.2	0.6	
0.3	0.2	0.6	
0.3	0.3	0.6	
0.4	0.3	0.6	
0.4	0.2	0.5	
0.3	0.2	0.5	
0.3	0.3	0.5	
0.4	0.3	0.5	
0.4	0.2	0.5	
0.3	0.2	0.5	
0.3	0.3	0.5	
0.4	0.3	0.5	
0.4	0.2	0.4	
0.3	0.2	0.4	
0.3	0.3	0.4	
0.4	0.3	0.4	
0.4	0.2	0.4	
0.3	0.2	0.4	
0.3	0.3	0.4	
0.4	0.3	0.4	
0.4	0.2	0.3	
0.3	0.2	0.3	
0.3	0.3	0.3	
0.4	0.3	0.3	
0.4	0.2	0.3	
0.3	0.2	0.3	
0.3	0.3	0.3	
0.4	0.3	0.3	
0.4	0.2	0.2	
0.3	0.2	0.2	
0.3	0.3	0.2	
0.4	0.3	0.2	
0.4	0.2	0.2	
0.3	0.2	0.2	
0.3	0.3	0.2	
0.4	0.3	0.2	
0.4	0.2	0.1	
0.3	0.2	0.1	
0.3	0.3	0.1	
0.4	0.3	0.1	
0.4	0.2	0.1	
0.3	0.2	0.1	
0.3	0.3	0.1	
0.4	0.3	0.1	
0.4	0.2	0	
0.3	0.2	0	
0.3	0.3	0	
0.4	0.3	0	
0.5	0.2	1	
0.4	0.2	1	
0.4	0.3	1	
0.5	0.3	1	
0.5	0.2	0.9	
0.4	0.2	0.9	
0.4	0.3	0.9	
0.5	0.3	0.9	
0.5	0.2	0.9	
0.4	0.2	0.9	
0.4	0.3	0.9	
0.5	0.3	0.9	
0.5	0.2	0.8	
0.4	0.2	0.8	
0.4	0.3	0.8	
0.5	0.3	0.8	
0.5	0.2	0.8	
0.4	0.2	0.8	
0.4	0.3	0.8	
0.5	0.3	0.8	
0.5	0.2	0.7	
0.4	0.2	0.7	
0.4	0.3	0.7	
0.5	0.3	0.7	
0.5	0.2	0.7	
0.4	0.2	0.7	
0.4	0.3	0.7	
0.5	0.3	0.7	
0.5	0.2	0.6	
0.4	0.2	0.6	
0.4	0.3	0.6	
0.5	0.3	0.6	
0.5	0.2	0.6	
0.4	0.2	0.6	
0.4	0.3	0.6	
0.5	0.3	0.6	
0.5	0.2	0.5	
0.4	0.2	0.5	
0.4	0.3	0.5	
0.5	0.3	0.5	
0.5	0.2	0.5	
0.4	0.2	0.5	
0.4	0.3	0.5	
0.5	0.3	0.5	
0.5	0.2	0.4	
0.4	0.2	0.4	
0.4	0.3	0.4	
0.5	0.3	0.4	
0.5	0.2	0.4	
0.4	0.2	0.4	
0.4	0.3	0.4	
0.5	0.3	0.4	
0.5	0.2	0.3	
0.4	0.2	0.3	
0.4	0.3	0.3	
0.5	0.3	0.3	
0.5	0.2	0.3	
0.4	0.2	0.3	
0.4	0.3	0.3	
0.5	0.3	0.3	
0.5	0.2	0.2	
0.4	0.2	0.2	
0.4	0.3	0.2	
0.5	0.3	0.2	
0.5	0.2	0.2	
0.4	0.2	0.2	
0.4	0.3	0.2	
0.5	0.3	0.2	
0.5	0.2	0.1	
0.4	0.2	0.1	
0.4	0.3	0.1	
0.5	0.3	0.1	
0.5	0.2	0.1	
0.4	0.2	0.1	
0.4	0.3	0.1	
0.5	0.3	0.1	
0.5	0.2	0	
0.4	0.2	0	
0.4	0.3	0	
0.5	0.3	0	
0.6	0.2	1	
0.5	0.2	1	
0.5	0.3	1	
0.6	0.3	1	
0.6	0.2	0.9	
0.5	0.2	0.9	
0.5	0.3	0.9	
0.6	0.3	0.9	
0.6	0.2	0.9	
0.5	0.2	0.9	
0.5	0.3	0.9	
0.6	0.3	0.9	
0.6	0.2	0.8	
0.5	0.2	0.8	
0.5	0.3	0.8	
0.6	0.3	0.8	
0.6	0.2	0.8	
0.5	0.2	0.8	
0.5	0.3	0.8	
0.6	0.3	0.8	
0.6	0.2	0.7	
0.5	0.2	0.7	
0.5	0.3	0.7	
0.6	0.3	0.7	
0.6	0.2	0.7	
0.5	0.2	0.7	
0.5	0.3	0.7	
0.6	0.3	0.7	
0.6	0.2	0.6	
0.5	0.2	0.6	
0.5	0.3	0.6	
0.6	0.3	0.6	
0.6	0.2	0.6	
0.5	0.2	0.6	
0.5	0.3	0.6	
0.6	0.3	0.6	
0.6	0.2	0.5	
0.5	0.2	0.5	
0.5	0.3	0.5	
0.6	0.3	0.5	
0.6	0.2	0.5	
0.5	0.2	0.5	
0.5	0.3	0.5	
0.6	0.3	0.5	
0.6	0.2	0.4	
0.5	0.2	0.4	
0.5	0.3	0.4	
0.6	0.3	0.4	
0.6	0.2	0.4	
0.5	0.2	0.4	
0.5	0.3	0.4	
0.6	0.3	0.4	
0.6	0.2	0.3	
0.5	0.2	0.3	
0.5	0.3	0.3	
0.6	0.3	0.3	
0.6	0.2	0.3	
0.5	0.2	0.3	
0.5	0.3	0.3	
0.6	0.3	0.3	
0.6	0.2	0.2	
0.5	0.2	0.2	
0.5	0.3	0.2	
0.6	0.3	0.2	
0.6	0.2	0.2	
0.5	0.2	0.2	
0.5	0.3	0.2	
0.6	0.3	0.2	
0.6	0.2	0.1	
0.5	0.2	0.1	
0.5	0.3	0.1	
0.6	0.3	0.1	
0.6	0.2	0.1	
0.5	0.2	0.1	
0.5	0.3	0.1	
0.6	0.3	0.1	
0.6	0.2	0	
0.5	0.2	0	
0.5	0.3	0	
0.6	0.3	0	
0.7	0.2	1	
0.6	0.2	1	
0.6	0.3	1	
0.7	0.3	1	
0.7	0.2	0.9	
0.6	0.2	0.9	
0.6	0.3	0.9	
0.7	0.3	0.9	
0.7	0.2	0.9	
0.6	0.2	0.9	
0.6	0.3	0.9	
0.7	0.3	0.9	
0.7	0.2	0.8	
0.6	0.2	0.8	
0.6	0.3	0.8	
0.7	0.3	0.8	
0.7	0.2	0.8	
0.6	0.2	0.8	
0.6	0.3	0.8	
0.7	0.3	0.8	
0.7	0.2	0.7	
0.6	0.2	0.7	
0.6	0.3	0.7	
0.7	0.3	0.7	
0.7	0.2	0.7	
0.6	0.2	0.7	
0.6	0.3	0.7	
0.7	0.3	0.7	
0.7	0.2	0.6	
0.6	0.2	0.6	
0.6	0.3	0.6	
0.7	0.3	0.6	
0.7	0.2	0.6	
0.6	0.2	0.6	
0.6	0.3	0.6	
0.7	0.3	0.6	
0.7	0.2	0.5	
0.6	0.2	0.5	
0.6	0.3	0.5	
0.7	0.3	0.5	
0.7	0.2	0.5	
0.6	0.2	0.5	
0.6	0.3	0.5	
0.7	0.3	0.5	
0.7	0.2	0.4	
0.6	0.2	0.4	
0.6	0.3	0.4	
0.7	0.3	0.4	
0.7	0.2	0.4	
0.6	0.2	0.4	
0.6	0.3	0.4	
0.7	0.3	0.4	
0.7	0.2	0.3	
0.6	0.2	0.3	
0.6	0.3	0.3	
0.7	0.3	0.3	
0.7	0.2	0.3	
0.6	0.2	0.3	
0.6	0.3	0.3	
0.7	0.3	0.3	
0.7	0.2	0.2	
0.6	0.2	0.2	
0.6	0.3	0.2	
0.7	0.3	0.2	
0.7	0.2	0.2	
0.6	0.2	0.2	
0.6	0.3	0.2	
0.7	0.3	0.2	
0.7	0.2	0.1	
0.6	0.2	0.1	
0.6	0.3	0.1	
0.7	0.3	0.1	
0.7	0.2	0.1	
0.6	0.2	0.1	
0.6	0.3	0.1	
0.7	0.3	0.1	
0.7	0.2	0	
0.6	0.2	0	
0.6	0.3	0	
0.7	0.3	0	
0.8	0.2	1	
0.7	0.2	1	
0.7	0.3	1	
0.8	0.3	1	
0.8	0.2	0.9	
0.7	0.2	0.9	
0.7	0.3	0.9	
0.8	0.3	0.9	
0.8	0.2	0.9	
0.7	0.2	0.9	
0.7	0.3	0.9	
0.8	0.3	0.9	
0.8	0.2	0.8	
0.7	0.2	0.8	
0.7	0.3	0.8	
0.8	0.3	0.8	
0.8	0.2	0.8	
0.7	0.2	0.8	
0.7	0.3	0.8	
0.8	0.3	0.8	
0.8	0.2	0.7	
0.7	0.2	0.7	
0.7	0.3	0.7	
0.8	0.3	0.7	
0.8	0.2	0.7	
0.7	0.2	0.7	
0.7	0.3	0.7	
0.8	0.3	0.7	
0.8	0.2	0.6	
0.7	0.2	0.6	
0.7	0.3	0.6	
0.8	0.3	0.6	
0.8	0.2	0.6	
0.7	0.2	0.6	
0.7	0.3	0.6	
0.8	0.3	0.6	
0.8	0.2	0.5	
0.7	0.2	0.5	
0.7	0.3	0.5	
0.8	0.3	0.5	
0.8	0.2	0.5	
0.7	0.2	0.5	
0.7	0.3	0.5	
0.8	0.3	0.5	
0.8	0.2	0.4	
0.7	0.2	0.4	
0.7	0.3	0.4	
0.8	0.3	0.4	
0.8	0.2	0.4	
0.7	0.2	0.4	
0.7	0.3	0.4	
0.8	0.3	0.4	
0.8	0.2	0.3	
0.7	0.2	0.3	
0.7	0.3	0.3	
0.8	0.3	0.3	
0.8	0.2	0.3	
0.7	0.2	0.3	
0.7	0.3	0.3	
0.8	0.3	0.3	
0.8	0.2	0.2	
0.7	0.2	0.2	
0.7	0.3	0.2	
0.8	0.3	0.2	
0.8	0.2	0.2	
0.7	0.2	0.2	
0.7	0.3	0.2	
0.8	0.3	0.2	
0.8	0.2	0.1	
0.7	0.2	0.1	
0.7	0.3	0.1	
0.8	0.3	0.1	
0.8	0.2	0.1	
0.7	0.2	0.1	
0.7	0.3	0.1	
0.8	0.3	0.1	
0.8	0.2	0	
0.7	0.2	0	
0.7	0.3	0	
0.8	0.3	0	
0.9	0.2	1	
0.8	0.2	1	
0.8	0.3	1	
0.9	0.3	1	
0.9	0.2	0.9	
0.8	0.2	0.9	
0.8	0.3	0.9	
0.9	0.3	0.9	
0.9	0.2	0.9	
0.8	0.2	0.9	
0.8	0.3	0.9	
0.9	0.3	0.9	
0.9	0.2	0.8	
0.8	0.2	0.8	
0.8	0.3	0.8	
0.9	0.3	0.8	
0.9	0.2	0.8	
0.8	0.2	0.8	
0.8	0.3	0.8	
0.9	0.3	0.8	
0.9	0.2	0.7	
0.8	0.2	0.7	
0.8	0.3	0.7	
0.9	0.3	0.7	
0.9	0.2	0.7	
0.8	0.2	0.7	
0.8	0.3	0.7	
0.9	0.3	0.7	
0.9	0.2	0.6	
0.8	0.2	0.6	
0.8	0.3	0.6	
0.9	0.3	0.6	
0.9	0.2	0.6	
0.8	0.2	0.6	
0.8	0.3	0.6	
0.9	0.3	0.6	
0.9	0.2	0.5	
0.8	0.2	0.5	
0.8	0.3	0.5	
0.9	0.3	0.5	
0.9	0.2	0.5	
0.8	0.2	0.5	
0.8	0.3	0.5	
0.9	0.3	0.5	
0.9	0.2	0.4	
0.8	0.2	0.4	
0.8	0.3	0.4	
0.9	0.3	0.4	
0.9	0.2	0.4	
0.8	0.2	0.4	
0.8	0.3	0.4	
0.9	0.3	0.4	
0.9	0.2	0.3	
0.8	0.2	0.3	
0.8	0.3	0.3	
0.9	0.3	0.3	
0.9	0.2	0.3	
0.8	0.2	0.3	
0.8	0.3	0.3	
0.9	0.3	0.3	
0.9	0.2	0.2	
0.8	0.2	0.2	
0.8	0.3	0.2	
0.9	0.3	0.2	
0.9	0.2	0.2	
0.8	0.2	0.2	
0.8	0.3	0.2	
0.9	0.3	0.2	
0.9	0.2	0.1	
0.8	0.2	0.1	
0.8	0.3	0.1	
0.9	0.3	0.1	
0.9	0.2	0.1	
0.8	0.2	0.1	
0.8	0.3	0.1	
0.9	0.3	0.1	
0.9	0.2	0	
0.8	0.2	0	
0.8	0.3	0	
0.9	0.3	0	
1	0.2	1	
0.9	0.2	1	
0.9	0.3	1	
1	0.3	1	
1	0.2	0.9	
0.9	0.2	0.9	
0.9	0.3	0.9	
1	0.3	0.9	
1	0.2	0.9	
0.9	0.2	0.9	
0.9	0.3	0.9	
1	0.3	0.9	
1	0.2	0.8	
0.9	0.2	0.8	
0.9	0.3	0.8	
1	0.3	0.8	
1	0.2	0.8	
0.9	0.2	0.8	
0.9	0.3	0.8	
1	0.3	0.8	
1	0.2	0.7	
0.9	0.2	0.7	
0.9	0.3	0.7	
1	0.3	0.7	
1	0.2	0.7	
0.9	0.2	0.7	
0.9	0.3	0.7	
1	0.3	0.7	
1	0.2	0.6	
0.9	0.2	0.6	
0.9	0.3	0.6	
1	0.3	0.6	
1	0.2	0.6	
0.9	0.2	0.6	
0.9	0.3	0.6	
1	0.3	0.6	
1	0.2	0.5	
0.9	0.2	0.5	
0.9	0.3	0.5	
1	0.3	0.5	
1	0.2	0.5	
0.9	0.2	0.5	
0.9	0.3	0.5	
1	0.3	0.5	
1	0.2	0.4	
0.9	0.2	0.4	
0.9	0.3	0.4	
1	0.3	0.4	
1	0.2	0.4	
0.9	0.2	0.4	
0.9	0.3	0.4	
1	0.3	0.4	
1	0.2	0.3	
0.9	0.2	0.3	
0.9	0.3	0.3	
1	0.3	0.3	
1	0.2	0.3	
0.9	0.2	0.3	
0.9	0.3	0.3	
1	0.3	0.3	
1	0.2	0.2	
0.9	0.2	0.2	
0.9	0.3	0.2	
1	0.3	0.2	
1	0.2	0.2	
0.9	0.2	0.2	
0.9	0.3	0.2	
1	0.3	0.2	
1	0.2	0.1	
0.9	0.2	0.1	
0.9	0.3	0.1	
1	0.3	0.1	
1	0.2	0.1	
0.9	0.2	0.1	
0.9	0.3	0.1	
1	0.3	0.1	
1	0.2	0	
0.9	0.2	0	
0.9	0.3	0	
1	0.3	0	
0.1	0.1	1	
0	0.1	1	
0	0.2	1	
0.1	0.2	1	
0.1	0.1	0.9	
0	0.1	0.9	
0	0.2	0.9	
0.1	0.2	0.9	
0.1	0.1	0.9	
0	0.1	0.9	
0	0.2	0.9	
0.1	0.2	0.9	
0.1	0.1	0.8	
0	0.1	0.8	
0	0.2	0.8	
0.1	0.2	0.8	
0.1	0.1	0.8	
0	0.1	0.8	
0	0.2	0.8	
0.1	0.2	0.8	
0.1	0.1	0.7	
0	0.1	0.7	
0	0.2	0.7	
0.1	0.2	0.7	
0.1	0.1	0.7	
0	0.1	0.7	
0	0.2	0.7	
0.1	0.2	0.7	
0.1	0.1	0.6	
0	0.1	0.6	
0	0.2	0.6	
0.1	0.2	0.6	
0.1	0.1	0.6	
0	0.1	0.6	
0	0.2	0.6	
0.1	0.2	0.6	
0.1	0.1	0.5	
0	0.1	0.5	
0	0.2	0.5	
0.1	0.2	0.5	
0.1	0.1	0.5	
0	0.1	0.5	
0	0.2	0.5	
0.1	0.2	0.5	
0.1	0.1	0.4	
0	0.1	0.4	
0	0.2	0.4	
0.1	0.2	0.4	
0.1	0.1	0.4	
0	0.1	0.4	
0	0.2	0.4	
0.1	0.2	0.4	
0.1	0.1	0.3	
0	0.1	0.3	
0	0.2	0.3	
0.1	0.2	0.3	
0.1	0.1	0.3	
0	0.1	0.3	
0	0.2	0.3	
0.1	0.2	0.3	
0.1	0.1	0.2	
0	0.1	0.2	
0	0.2	0.2	
0.1	0.2	0.2	
0.1	0.1	0.2	
0	0.1	0.2	
0	0.2	0.2	
0.1	0.2	0.2	
0.1	0.1	0.1	
0	0.1	0.1	
0	0.2	0.1	
0.1	0.2	0.1	
0.1	0.1	0.1	
0	0.1	0.1	
0	0.2	0.1	
0.1	0.2	0.1	
0.1	0.1	0	
0	0.1	0	
0	0.2	0	
0.1	0.2	0	
0.2	0.1	1	
0.1	0.1	1	
0.1	0.2	1	
0.2	0.2	1	
0.2	0.1	0.9	
0.1	0.1	0.9	
0.1	0.2	0.9	
0.2	0.2	0.9	
0.2	0.1	0.9	
0.1	0.1	0.9	
0.1	0.2	0.9	
0.2	0.2	0.9	
0.2	0.1	0.8	
0.1	0.1	0.8	
0.1	0.2	0.8	
0.2	0.2	0.8	
0.2	0.1	0.8	
0.1	0.1	0.8	
0.1	0.2	0.8	
0.2	0.2	0.8	
0.2	0.1	0.7	
0.1	0.1	0.7	
0.1	0.2	0.7	
0.2	0.2	0.7	
0.2	0.1	0.7	
0.1	0.1	0.7	
0.1	0.2	0.7	
0.2	0.2	0.7	
0.2	0.1	0.6	
0.1	0.1	0.6	
0.1	0.2	0.6	
0.2	0.2	0.6	
0.2	0.1	0.6	
0.1	0.1	0.6	
0.1	0.2	0.6	
0.2	0.2	0.6	
0.2	0.1	0.5	
0.1	0.1	0.5	
0.1	0.2	0.5	
0.2	0.2	0.5	
0.2	0.1	0.5	
0.1	0.1	0.5	
0.1	0.2	0.5	
0.2	0.2	0.5	
0.2	0.1	0.4	
0.1	0.1	0.4	
0.1	0.2	0.4	
0.2	0.2	0.4	
0.2	0.1	0.4	
0.1	0.1	0.4	
0.1	0.2	0.4	
0.2	0.2	0.4	
0.2	0.1	0.3	
0.1	0.1	0.3	
0.1	0.2	0.3	
0.2	0.2	0.3	
0.2	0.1	0.3	
0.1	0.1	0.3	
0.1	0.2	0.3	
0.2	0.2	0.3	
0.2	0.1	0.2	
0.1	0.1	0.2	
0.1	0.2	0.2	
0.2	0.2	0.2	
0.2	0.1	0.2	
0.1	0.1	0.2	
0.1	0.2	0.2	
0.2	0.2	0.2	
0.2	0.1	0.1	
0.1	0.1	0.1	
0.1	0.2	0.1	
0.2	0.2	0.1	
0.2	0.1	0.1	
0.1	0.1	0.1	
0.1	0.2	0.1	
0.2	0.2	0.1	
0.2	0.1	0	
0.1	0.1	0	
0.1	0.2	0	
0.2	0.2	0	
0.3	0.1	1	
0.2	0.1	1	
0.2	0.2	1	
0.3	0.2	1	
0.3	0.1	0.9	
0.2	0.1	0.9	
0.2	0.2	0.9	
0.3	0.2	0.9	
0.3	0.1	0.9	
0.2	0.1	0.9	
0.2	0.2	0.9	
0.3	0.2	0.9	
0.3	0.1	0.8	
0.2	0.1	0.8	
0.2	0.2	0.8	
0.3	0.2	0.8	
0.3	0.1	0.8	
0.2	0.1	0.8	
0.2	0.2	0.8	
0.3	0.2	0.8	
0.3	0.1	0.7	
0.2	0.1	0.7	
0.2	0.2	0.7	
0.3	0.2	0.7	
0.3	0.1	0.7	
0.2	0.1	0.7	
0.2	0.2	0.7	
0.3	0.2	0.7	
0.3	0.1	0.6	
0.2	0.1	0.6	
0.2	0.2	0.6	
0.3	0.2	0.6	
0.3	0.1	0.6	
0.2	0.1	0.6	
0.2	0.2	0.6	
0.3	0.2	0.6	
0.3	0.1	0.5	
0.2	0.1	0.5	
0.2	0.2	0.5	
0.3	0.2	0.5	
0.3	0.1	0.5	
0.2	0.1	0.5	
0.2	0.2	0.5	
0.3	0.2	0.5	
0.3	0.1	0.4	
0.2	0.1	0.4	
0.2	0.2	0.4	
0.3	0.2	0.4	
0.3	0.1	0.4	
0.2	0.1	0.4	
0.2	0.2	0.4	
0.3	0.2	0.4	
0.3	0.1	0.3	
0.2	0.1	0.3	
0.2	0.2	0.3	
0.3	0.2	0.3	
0.3	0.1	0.3	
0.2	0.1	0.3	
0.2	0.2	0.3	
0.3	0.2	0.3	
0.3	0.1	0.2	
0.2	0.1	0.2	
0.2	0.2	0.2	
0.3	0.2	0.2	
0.3	0.1	0.2	
0.2	0.1	0.2	
0.2	0.2	0.2	
0.3	0.2	0.2	
0.3	0.1	0.1	
0.2	0.1	0.1	
0.2	0.2	0.1	
0.3	0.2	0.1	
0.3	0.1	0.1	
0.2	0.1	0.1	
0.2	0.2	0.1	
0.3	0.2	0.1	
0.3	0.1	0	
0.2	0.1	0	
0.2	0.2	0	
0.3	0.2	0	
0.4	0.1	1	
0.3	0.1	1	
0.3	0.2	1	
0.4	0.2	1	
0.4	0.1	0.9	
0.3	0.1	0.9	
0.3	0.2	0.9	
0.4	0.2	0.9	
0.4	0.1	0.9	
0.3	0.1	0.9	
0.3	0.2	0.9	
0.4	0.2	0.9	
0.4	0.1	0.8	
0.3	0.1	0.8	
0.3	0.2	0.8	
0.4	0.2	0.8	
0.4	0.1	0.8	
0.3	0.1	0.8	
0.3	0.2	0.8	
0.4	0.2	0.8	
0.4	0.1	0.7	
0.3	0.1	0.7	
0.3	0.2	0.7	
0.4	0.2	0.7	
0.4	0.1	0.7	
0.3	0.1	0.7	
0.3	0.2	0.7	
0.4	0.2	0.7	
0.4	0.1	0.6	
0.3	0.1	0.6	
0.3	0.2	0.6	
0.4	0.2	0.6	
0.4	0.1	0.6	
0.3	0.1	0.6	
0.3	0.2	0.6	
0.4	0.2	0.6	
0.4	0.1	0.5	
0.3	0.1	0.5	
0.3	0.2	0.5	
0.4	0.2	0.5	
0.4	0.1	0.5	
0.3	0.1	0.5	
0.3	0.2	0.5	
0.4	0.2	0.5	
0.4	0.1	0.4	
0.3	0.1	0.4	
0.3	0.2	0.4	
0.4	0.2	0.4	
0.4	0.1	0.4	
0.3	0.1	0.4	
0.3	0.2	0.4	
0.4	0.2	0.4	
0.4	0.1	0.3	
0.3	0.1	0.3	
0.3	0.2	0.3	
0.4	0.2	0.3	
0.4	0.1	0.3	
0.3	0.1	0.3	
0.3	0.2	0.3	
0.4	0.2	0.3	
0.4	0.1	0.2	
0.3	0.1	0.2	
0.3	0.2	0.2	
0.4	0.2	0.2	
0.4	0.1	0.2	
0.3	0.1	0.2	
0.3	0.2	0.2	
0.4	0.2	0.2	
0.4	0.1	0.1	
0.3	0.1	0.1	
0.3	0.2	0.1	
0.4	0.2	0.1	
0.4	0.1	0.1	
0.3	0.1	0.1	
0.3	0.2	0.1	
0.4	0.2	0.1	
0.4	0.1	0	
0.3	0.1	0	
0.3	0.2	0	
0.4	0.2	0	
0.5	0.1	1	
0.4	0.1	1	
0.4	0.2	1	
0.5	0.2	1	
0.5	0.1	0.9	
0.4	0.1	0.9	
0.4	0.2	0.9	
0.5	0.2	0.9	
0.5	0.1	0.9	
0.4	0.1	0.9	
0.4	0.2	0.9	
0.5	0.2	0.9	
0.5	0.1	0.8	
0.4	0.1	0.8	
0.4	0.2	0.8	
0.5	0.2	0.8	
0.5	0.1	0.8	
0.4	0.1	0.8	
0.4	0.2	0.8	
0.5	0.2	0.8	
0.5	0.1	0.7	
0.4	0.1	0.7	
0.4	0.2	0.7	
0.5	0.2	0.7	
0.5	0.1	0.7	
0.4	0.1	0.7	
0.4	0.2	0.7	
0.5	0.2	0.7	
0.5	0.1	0.6	
0.4	0.1	0.6	
0.4	0.2	0.6	
0.5	0.2	0.6	
0.5	0.1	0.6	
0.4	0.1	0.6	
0.4	0.2	0.6	
0.5	0.2	0.6	
0.5	0.1	0.5	
0.4	0.1	0.5	
0.4	0.2	0.5	
0.5	0.2	0.5	
0.5	0.1	0.5	
0.4	0.1	0.5	
0.4	0.2	0.5	
0.5	0.2	0.5	
0.5	0.1	0.4	
0.4	0.1	0.4	
0.4	0.2	0.4	
0.5	0.2	0.4	
0.5	0.1	0.4	
0.4	0.1	0.4	
0.4	0.2	0.4	
0.5	0.2	0.4	
0.5	0.1	0.3	
0.4	0.1	0.3	
0.4	0.2	0.3	
0.5	0.2	0.3	
0.5	0.1	0.3	
0.4	0.1	0.3	
0.4	0.2	0.3	
0.5	0.2	0.3	
0.5	0.1	0.2	
0.4	0.1	0.2	
0.4	0.2	0.2	
0.5	0.2	0.2	
0.5	0.1	0.2	
0.4	0.1	0.2	
0.4	0.2	0.2	
0.5	0.2	0.2	
0.5	0.1	0.1	
0.4	0.1	0.1	
0.4	0.2	0.1	
0.5	0.2	0.1	
0.5	0.1	0.1	
0.4	0.1	0.1	
0.4	0.2	0.1	
0.5	0.2	0.1	
0.5	0.1	0	
0.4	0.1	0	
0.4	0.2	0	
0.5	0.2	0	
0.6	0.1	1	
0.5	0.1	1	
0.5	0.2	1	
0.6	0.2	1	
0.6	0.1	0.9	
0.5	0.1	0.9	
0.5	0.2	0.9	
0.6	0.2	0.9	
0.6	0.1	0.9	
0.5	0.1	0.9	
0.5	0.2	0.9	
0.6	0.2	0.9	
0.6	0.1	0.8	
0.5	0.1	0.8	
0.5	0.2	0.8	
0.6	0.2	0.8	
0.6	0.1	0.8	
0.5	0.1	0.8	
0.5	0.2	0.8	
0.6	0.2	0.8	
0.6	0.1	0.7	
0.5	0.1	0.7	
0.5	0.2	0.7	
0.6	0.2	0.7	
0.6	0.1	0.7	
0.5	0.1	0.7	
0.5	0.2	0.7	
0.6	0.2	0.7	
0.6	0.1	0.6	
0.5	0.1	0.6	
0.5	0.2	0.6	
0.6	0.2	0.6	
0.6	0.1	0.6	
0.5	0.1	0.6	
0.5	0.2	0.6	
0.6	0.2	0.6	
0.6	0.1	0.5	
0.5	0.1	0.5	
0.5	0.2	0.5	
0.6	0.2	0.5	
0.6	0.1	0.5	
0.5	0.1	0.5	
0.5	0.2	0.5	
0.6	0.2	0.5	
0.6	0.1	0.4	
0.5	0.1	0.4	
0.5	0.2	0.4	
0.6	0.2	0.4	
0.6	0.1	0.4	
0.5	0.1	0.4	
0.5	0.2	0.4	
0.6	0.2	0.4	
0.6	0.1	0.3	
0.5	0.1	0.3	
0.5	0.2	0.3	
0.6	0.2	0.3	
0.6	0.1	0.3	
0.5	0.1	0.3	
0.5	0.2	0.3	
0.6	0.2	0.3	
0.6	0.1	0.2	
0.5	0.1	0.2	
0.5	0.2	0.2	
0.6	0.2	0.2	
0.6	0.1	0.2	
0.5	0.1	0.2	
0.5	0.2	0.2	
0.6	0.2	0.2	
0.6	0.1	0.1	
0.5	0.1	0.1	
0.5	0.2	0.1	
0.6	0.2	0.1	
0.6	0.1	0.1	
0.5	0.1	0.1	
0.5	0.2	0.1	
0.6	0.2	0.1	
0.6	0.1	0	
0.5	0.1	0	
0.5	0.2	0	
0.6	0.2	0	
0.7	0.1	1	
0.6	0.1	1	
0.6	0.2	1	
0.7	0.2	1	
0.7	0.1	0.9	
0.6	0.1	0.9	
0.6	0.2	0.9	
0.7	0.2	0.9	
0.7	0.1	0.9	
0.6	0.1	0.9	
0.6	0.2	0.9	
0.7	0.2	0.9	
0.7	0.1	0.8	
0.6	0.1	0.8	
0.6	0.2	0.8	
0.7	0.2	0.8	
0.7	0.1	0.8	
0.6	0.1	0.8	
0.6	0.2	0.8	
0.7	0.2	0.8	
0.7	0.1	0.7	
0.6	0.1	0.7	
0.6	0.2	0.7	
0.7	0.2	0.7	
0.7	0.1	0.7	
0.6	0.1	0.7	
0.6	0.2	0.7	
0.7	0.2	0.7	
0.7	0.1	0.6	
0.6	0.1	0.6	
0.6	0.2	0.6	
0.7	0.2	0.6	
0.7	0.1	0.6	
0.6	0.1	0.6	
0.6	0.2	0.6	
0.7	0.2	0.6	
0.7	0.1	0.5	
0.6	0.1	0.5	
0.6	0.2	0.5	
0.7	0.2	0.5	
0.7	0.1	0.5	
0.6	0.1	0.5	
0.6	0.2	0.5	
0.7	0.2	0.5	
0.7	0.1	0.4	
0.6	0.1	0.4	
0.6	0.2	0.4	
0.7	0.2	0.4	
0.7	0.1	0.4	
0.6	0.1	0.4	
0.6	0.2	0.4	
0.7	0.2	0.4	
0.7	0.1	0.3	
0.6	0.1	0.3	
0.6	0.2	0.3	
0.7	0.2	0.3	
0.7	0.1	0.3	
0.6	0.1	0.3	
0.6	0.2	0.3	
0.7	0.2	0.3	
0.7	0.1	0.2	
0.6	0.1	0.2	
0.6	0.2	0.2	
0.7	0.2	0.2	
0.7	0.1	0.2	
0.6	0.1	0.2	
0.6	0.2	0.2	
0.7	0.2	0.2	
0.7	0.1	0.1	
0.6	0.1	0.1	
0.6	0.2	0.1	
0.7	0.2	0.1	
0.7	0.1	0.1	
0.6	0.1	0.1	
0.6	0.2	0.1	
0.7	0.2	0.1	
0.7	0.1	0	
0.6	0.1	0	
0.6	0.2	0	
0.7	0.2	0	
0.8	0.1	1	
0.7	0.1	1	
0.7	0.2	1	
0.8	0.2	1	
0.8	0.1	0.9	
0.7	0.1	0.9	
0.7	0.2	0.9	
0.8	0.2	0.9	
0.8	0.1	0.9	
0.7	0.1	0.9	
0.7	0.2	0.9	
0.8	0.2	0.9	
0.8	0.1	0.8	
0.7	0.1	0.8	
0.7	0.2	0.8	
0.8	0.2	0.8	
0.8	0.1	0.8	
0.7	0.1	0.8	
0.7	0.2	0.8	
0.8	0.2	0.8	
0.8	0.1	0.7	
0.7	0.1	0.7	
0.7	0.2	0.7	
0.8	0.2	0.7	
0.8	0.1	0.7	
0.7	0.1	0.7	
0.7	0.2	0.7	
0.8	0.2	0.7	
0.8	0.1	0.6	
0.7	0.1	0.6	
0.7	0.2	0.6	
0.8	0.2	0.6	
0.8	0.1	0.6	
0.7	0.1	0.6	
0.7	0.2	0.6	
0.8	0.2	0.6	
0.8	0.1	0.5	
0.7	0.1	0.5	
0.7	0.2	0.5	
0.8	0.2	0.5	
0.8	0.1	0.5	
0.7	0.1	0.5	
0.7	0.2	0.5	
0.8	0.2	0.5	
0.8	0.1	0.4	
0.7	0.1	0.4	
0.7	0.2	0.4	
0.8	0.2	0.4	
0.8	0.1	0.4	
0.7	0.1	0.4	
0.7	0.2	0.4	
0.8	0.2	0.4	
0.8	0.1	0.3	
0.7	0.1	0.3	
0.7	0.2	0.3	
0.8	0.2	0.3	
0.8	0.1	0.3	
0.7	0.1	0.3	
0.7	0.2	0.3	
0.8	0.2	0.3	
0.8	0.1	0.2	
0.7	0.1	0.2	
0.7	0.2	0.2	
0.8	0.2	0.2	
0.8	0.1	0.2	
0.7	0.1	0.2	
0.7	0.2	0.2	
0.8	0.2	0.2	
0.8	0.1	0.1	
0.7	0.1	0.1	
0.7	0.2	0.1	
0.8	0.2	0.1	
0.8	0.1	0.1	
0.7	0.1	0.1	
0.7	0.2	0.1	
0.8	0.2	0.1	
0.8	0.1	0	
0.7	0.1	0	
0.7	0.2	0	
0.8	0.2	0	
0.9	0.1	1	
0.8	0.1	1	
0.8	0.2	1	
0.9	0.2	1	
0.9	0.1	0.9	
0.8	0.1	0.9	
0.8	0.2	0.9	
0.9	0.2	0.9	
0.9	0.1	0.9	
0.8	0.1	0.9	
0.8	0.2	0.9	
0.9	0.2	0.9	
0.9	0.1	0.8	
0.8	0.1	0.8	
0.8	0.2	0.8	
0.9	0.2	0.8	
0.9	0.1	0.8	
0.8	0.1	0.8	
0.8	0.2	0.8	
0.9	0.2	0.8	
0.9	0.1	0.7	
0.8	0.1	0.7	
0.8	0.2	0.7	
0.9	0.2	0.7	
0.9	0.1	0.7	
0.8	0.1	0.7	
0.8	0.2	0.7	
0.9	0.2	0.7	
0.9	0.1	0.6	
0.8	0.1	0.6	
0.8	0.2	0.6	
0.9	0.2	0.6	
0.9	0.1	0.6	
0.8	0.1	0.6	
0.8	0.2	0.6	
0.9	0.2	0.6	
0.9	0.1	0.5	
0.8	0.1	0.5	
0.8	0.2	0.5	
0.9	0.2	0.5	
0.9	0.1	0.5	
0.8	0.1	0.5	
0.8	0.2	0.5	
0.9	0.2	0.5	
0.9	0.1	0.4	
0.8	0.1	0.4	
0.8	0.2	0.4	
0.9	0.2	0.4	
0.9	0.1	0.4	
0.8	0.1	0.4	
0.8	0.2	0.4	
0.9	0.2	0.4	
0.9	0.1	0.3	
0.8	0.1	0.3	
0.8	0.2	0.3	
0.9	0.2	0.3	
0.9	0.1	0.3	
0.8	0.1	0.3	
0.8	0.2	0.3	
0.9	0.2	0.3	
0.9	0.1	0.2	
0.8	0.1	0.2	
0.8	0.2	0.2	
0.9	0.2	0.2	
0.9	0.1	0.2	
0.8	0.1	0.2	
0.8	0.2	0.2	
0.9	0.2	0.2	
0.9	0.1	0.1	
0.8	0.1	0.1	
0.8	0.2	0.1	
0.9	0.2	0.1	
0.9	0.1	0.1	
0.8	0.1	0.1	
0.8	0.2	0.1	
0.9	0.2	0.1	
0.9	0.1	0	
0.8	0.1	0	
0.8	0.2	0	
0.9	0.2	0	
1	0.1	1	
0.9	0.1	1	
0.9	0.2	1	
1	0.2	1	
1	0.1	0.9	
0.9	0.1	0.9	
0.9	0.2	0.9	
1	0.2	0.9	
1	0.1	0.9	
0.9	0.1	0.9	
0.9	0.2	0.9	
1	0.2	0.9	
1	0.1	0.8	
0.9	0.1	0.8	
0.9	0.2	0.8	
1	0.2	0.8	
1	0.1	0.8	
0.9	0.1	0.8	
0.9	0.2	0.8	
1	0.2	0.8	
1	0.1	0.7	
0.9	0.1	0.7	
0.9	0.2	0.7	
1	0.2	0.7	
1	0.1	0.7	
0.9	0.1	0.7	
0.9	0.2	0.7	
1	0.2	0.7	
1	0.1	0.6	
0.9	0.1	0.6	
0.9	0.2	0.6	
1	0.2	0.6	
1	0.1	0.6	
0.9	0.1	0.6	
0.9	0.2	0.6	
1	0.2	0.6	
1	0.1	0.5	
0.9	0.1	0.5	
0.9	0.2	0.5	
1	0.2	0.5	
1	0.1	0.5	
0.9	0.1	0.5	
0.9	0.2	0.5	
1	0.2	0.5	
1	0.1	0.4	
0.9	0.1	0.4	
0.9	0.2	0.4	
1	0.2	0.4	
1	0.1	0.4	
0.9	0.1	0.4	
0.9	0.2	0.4	
1	0.2	0.4	
1	0.1	0.3	
0.9	0.1	0.3	
0.9	0.2	0.3	
1	0.2	0.3	
1	0.1	0.3	
0.9	0.1	0.3	
0.9	0.2	0.3	
1	0.2	0.3	
1	0.1	0.2	
0.9	0.1	0.2	
0.9	0.2	0.2	
1	0.2	0.2	
1	0.1	0.2	
0.9	0.1	0.2	
0.9	0.2	0.2	
1	0.2	0.2	
1	0.1	0.1	
0.9	0.1	0.1	
0.9	0.2	0.1	
1	0.2	0.1	
1	0.1	0.1	
0.9	0.1	0.1	
0.9	0.2	0.1	
1	0.2	0.1	
1	0.1	0	
0.9	0.1	0	
0.9	0.2	0	
1	0.2	0	
0.1	0	1	
0	0	1	
0	0.1	1	
0.1	0.1	1	
0.1	0	0.9	
0	0	0.9	
0	0.1	0.9	
0.1	0.1	0.9	
0.1	0	0.9	
0	0	0.9	
0	0.1	0.9	
0.1	0.1	0.9	
0.1	0	0.8	
0	0	0.8	
0	0.1	0.8	
0.1	0.1	0.8	
0.1	0	0.8	
0	0	0.8	
0	0.1	0.8	
0.1	0.1	0.8	
0.1	0	0.7	
0	0	0.7	
0	0.1	0.7	
0.1	0.1	0.7	
0.1	0	0.7	
0	0	0.7	
0	0.1	0.7	
0.1	0.1	0.7	
0.1	0	0.6	
0	0	0.6	
0	0.1	0.6	
0.1	0.1	0.6	
0.1	0	0.6	
0	0	0.6	
0	0.1	0.6	
0.1	0.1	0.6	
0.1	0	0.5	
0	0	0.5	
0	0.1	0.5	
0.1	0.1	0.5	
0.1	0	0.5	
0	0	0.5	
0	0.1	0.5	
0.1	0.1	0.5	
0.1	0	0.4	
0	0	0.4	
0	0.1	0.4	
0.1	0.1	0.4	
0.1	0	0.4	
0	0	0.4	
0	0.1	0.4	
0.1	0.1	0.4	
0.1	0	0.3	
0	0	0.3	
0	0.1	0.3	
0.1	0.1	0.3	
0.1	0	0.3	
0	0	0.3	
0	0.1	0.3	
0.1	0.1	0.3	
0.1	0	0.2	
0	0	0.2	
0	0.1	0.2	
0.1	0.1	0.2	
0.1	0	0.2	
0	0	0.2	
0	0.1	0.2	
0.1	0.1	0.2	
0.1	0	0.1	
0	0	0.1	
0	0.1	0.1	
0.1	0.1	0.1	
0.1	0	0.1	
0	0	0.1	
0	0.1	0.1	
0.1	0.1	0.1	
0.1	0	0	
0	0	0	
0	0.1	0	
0.1	0.1	0	
0.2	0	1	
0.1	0	1	
0.1	0.1	1	
0.2	0.1	1	
0.2	0	0.9	
0.1	0	0.9	
0.1	0.1	0.9	
0.2	0.1	0.9	
0.2	0	0.9	
0.1	0	0.9	
0.1	0.1	0.9	
0.2	0.1	0.9	
0.2	0	0.8	
0.1	0	0.8	
0.1	0.1	0.8	
0.2	0.1	0.8	
0.2	0	0.8	
0.1	0	0.8	
0.1	0.1	0.8	
0.2	0.1	0.8	
0.2	0	0.7	
0.1	0	0.7	
0.1	0.1	0.7	
0.2	0.1	0.7	
0.2	0	0.7	
0.1	0	0.7	
0.1	0.1	0.7	
0.2	0.1	0.7	
0.2	0	0.6	
0.1	0	0.6	
0.1	0.1	0.6	
0.2	0.1	0.6	
0.2	0	0.6	
0.1	0	0.6	
0.1	0.1	0.6	
0.2	0.1	0.6	
0.2	0	0.5	
0.1	0	0.5	
0.1	0.1	0.5	
0.2	0.1	0.5	
0.2	0	0.5	
0.1	0	0.5	
0.1	0.1	0.5	
0.2	0.1	0.5	
0.2	0	0.4	
0.1	0	0.4	
0.1	0.1	0.4	
0.2	0.1	0.4	
0.2	0	0.4	
0.1	0	0.4	
0.1	0.1	0.4	
0.2	0.1	0.4	
0.2	0	0.3	
0.1	0	0.3	
0.1	0.1	0.3	
0.2	0.1	0.3	
0.2	0	0.3	
0.1	0	0.3	
0.1	0.1	0.3	
0.2	0.1	0.3	
0.2	0	0.2	
0.1	0	0.2	
0.1	0.1	0.2	
0.2	0.1	0.2	
0.2	0	0.2	
0.1	0	0.2	
0.1	0.1	0.2	
0.2	0.1	0.2	
0.2	0	0.1	
0.1	0	0.1	
0.1	0.1	0.1	
0.2	0.1	0.1	
0.2	0	0.1	
0.1	0	0.1	
0.1	0.1	0.1	
0.2	0.1	0.1	
0.2	0	0	
0.1	0	0	
0.1	0.1	0	
0.2	0.1	0	
0.3	0	1	
0.2	0	1	
0.2	0.1	1	
0.3	0.1	1	
0.3	0	0.9	
0.2	0	0.9	
0.2	0.1	0.9	
0.3	0.1	0.9	
0.3	0	0.9	
0.2	0	0.9	
0.2	0.1	0.9	
0.3	0.1	0.9	
0.3	0	0.8	
0.2	0	0.8	
0.2	0.1	0.8	
0.3	0.1	0.8	
0.3	0	0.8	
0.2	0	0.8	
0.2	0.1	0.8	
0.3	0.1	0.8	
0.3	0	0.7	
0.2	0	0.7	
0.2	0.1	0.7	
0.3	0.1	0.7	
0.3	0	0.7	
0.2	0	0.7	
0.2	0.1	0.7	
0.3	0.1	0.7	
0.3	0	0.6	
0.2	0	0.6	
0.2	0.1	0.6	
0.3	0.1	0.6	
0.3	0	0.6	
0.2	0	0.6	
0.2	0.1	0.6	
0.3	0.1	0.6	
0.3	0	0.5	
0.2	0	0.5	
0.2	0.1	0.5	
0.3	0.1	0.5	
0.3	0	0.5	
0.2	0	0.5	
0.2	0.1	0.5	
0.3	0.1	0.5	
0.3	0	0.4	
0.2	0	0.4	
0.2	0.1	0.4	
0.3	0.1	0.4	
0.3	0	0.4	
0.2	0	0.4	
0.2	0.1	0.4	
0.3	0.1	0.4	
0.3	0	0.3	
0.2	0	0.3	
0.2	0.1	0.3	
0.3	0.1	0.3	
0.3	0	0.3	
0.2	0	0.3	
0.2	0.1	0.3	
0.3	0.1	0.3	
0.3	0	0.2	
0.2	0	0.2	
0.2	0.1	0.2	
0.3	0.1	0.2	
0.3	0	0.2	
0.2	0	0.2	
0.2	0.1	0.2	
0.3	0.1	0.2	
0.3	0	0.1	
0.2	0	0.1	
0.2	0.1	0.1	
0.3	0.1	0.1	
0.3	0	0.1	
0.2	0	0.1	
0.2	0.1	0.1	
0.3	0.1	0.1	
0.3	0	0	
0.2	0	0	
0.2	0.1	0	
0.3	0.1	0	
0.4	0	1	
0.3	0	1	
0.3	0.1	1	
0.4	0.1	1	
0.4	0	0.9	
0.3	0	0.9	
0.3	0.1	0.9	
0.4	0.1	0.9	
0.4	0	0.9	
0.3	0	0.9	
0.3	0.1	0.9	
0.4	0.1	0.9	
0.4	0	0.8	
0.3	0	0.8	
0.3	0.1	0.8	
0.4	0.1	0.8	
0.4	0	0.8	
0.3	0	0.8	
0.3	0.1	0.8	
0.4	0.1	0.8	
0.4	0	0.7	
0.3	0	0.7	
0.3	0.1	0.7	
0.4	0.1	0.7	
0.4	0	0.7	
0.3	0	0.7	
0.3	0.1	0.7	
0.4	0.1	0.7	
0.4	0	0.6	
0.3	0	0.6	
0.3	0.1	0.6	
0.4	0.1	0.6	
0.4	0	0.6	
0.3	0	0.6	
0.3	0.1	0.6	
0.4	0.1	0.6	
0.4	0	0.5	
0.3	0	0.5	
0.3	0.1	0.5	
0.4	0.1	0.5	
0.4	0	0.5	
0.3	0	0.5	
0.3	0.1	0.5	
0.4	0.1	0.5	
0.4	0	0.4	
0.3	0	0.4	
0.3	0.1	0.4	
0.4	0.1	0.4	
0.4	0	0.4	
0.3	0	0.4	
0.3	0.1	0.4	
0.4	0.1	0.4	
0.4	0	0.3	
0.3	0	0.3	
0.3	0.1	0.3	
0.4	0.1	0.3	
0.4	0	0.3	
0.3	0	0.3	
0.3	0.1	0.3	
0.4	0.1	0.3	
0.4	0	0.2	
0.3	0	0.2	
0.3	0.1	0.2	
0.4	0.1	0.2	
0.4	0	0.2	
0.3	0	0.2	
0.3	0.1	0.2	
0.4	0.1	0.2	
0.4	0	0.1	
0.3	0	0.1	
0.3	0.1	0.1	
0.4	0.1	0.1	
0.4	0	0.1	
0.3	0	0.1	
0.3	0.1	0.1	
0.4	0.1	0.1	
0.4	0	0	
0.3	0	0	
0.3	0.1	0	
0.4	0.1	0	
0.5	0	1	
0.4	0	1	
0.4	0.1	1	
0.5	0.1	1	
0.5	0	0.9	
0.4	0	0.9	
0.4	0.1	0.9	
0.5	0.1	0.9	
0.5	0	0.9	
0.4	0	0.9	
0.4	0.1	0.9	
0.5	0.1	0.9	
0.5	0	0.8	
0.4	0	0.8	
0.4	0.1	0.8	
0.5	0.1	0.8	
0.5	0	0.8	
0.4	0	0.8	
0.4	0.1	0.8	
0.5	0.1	0.8	
0.5	0	0.7	
0.4	0	0.7	
0.4	0.1	0.7	
0.5	0.1	0.7	
0.5	0	0.7	
0.4	0	0.7	
0.4	0.1	0.7	
0.5	0.1	0.7	
0.5	0	0.6	
0.4	0	0.6	
0.4	0.1	0.6	
0.5	0.1	0.6	
0.5	0	0.6	
0.4	0	0.6	
0.4	0.1	0.6	
0.5	0.1	0.6	
0.5	0	0.5	
0.4	0	0.5	
0.4	0.1	0.5	
0.5	0.1	0.5	
0.5	0	0.5	
0.4	0	0.5	
0.4	0.1	0.5	
0.5	0.1	0.5	
0.5	0	0.4	
0.4	0	0.4	
0.4	0.1	0.4	
0.5	0.1	0.4	
0.5	0	0.4	
0.4	0	0.4	
0.4	0.1	0.4	
0.5	0.1	0.4	
0.5	0	0.3	
0.4	0	0.3	
0.4	0.1	0.3	
0.5	0.1	0.3	
0.5	0	0.3	
0.4	0	0.3	
0.4	0.1	0.3	
0.5	0.1	0.3	
0.5	0	0.2	
0.4	0	0.2	
0.4	0.1	0.2	
0.5	0.1	0.2	
0.5	0	0.2	
0.4	0	0.2	
0.4	0.1	0.2	
0.5	0.1	0.2	
0.5	0	0.1	
0.4	0	0.1	
0.4	0.1	0.1	
0.5	0.1	0.1	
0.5	0	0.1	
0.4	0	0.1	
0.4	0.1	0.1	
0.5	0.1	0.1	
0.5	0	0	
0.4	0	0	
0.4	0.1	0	
0.5	0.1	0	
0.6	0	1	
0.5	0	1	
0.5	0.1	1	
0.6	0.1	1	
0.6	0	0.9	
0.5	0	0.9	
0.5	0.1	0.9	
0.6	0.1	0.9	
0.6	0	0.9	
0.5	0	0.9	
0.5	0.1	0.9	
0.6	0.1	0.9	
0.6	0	0.8	
0.5	0	0.8	
0.5	0.1	0.8	
0.6	0.1	0.8	
0.6	0	0.8	
0.5	0	0.8	
0.5	0.1	0.8	
0.6	0.1	0.8	
0.6	0	0.7	
0.5	0	0.7	
0.5	0.1	0.7	
0.6	0.1	0.7	
0.6	0	0.7	
0.5	0	0.7	
0.5	0.1	0.7	
0.6	0.1	0.7	
0.6	0	0.6	
0.5	0	0.6	
0.5	0.1	0.6	
0.6	0.1	0.6	
0.6	0	0.6	
0.5	0	0.6	
0.5	0.1	0.6	
0.6	0.1	0.6	
0.6	0	0.5	
0.5	0	0.5	
0.5	0.1	0.5	
0.6	0.1	0.5	
0.6	0	0.5	
0.5	0	0.5	
0.5	0.1	0.5	
0.6	0.1	0.5	
0.6	0	0.4	
0.5	0	0.4	
0.5	0.1	0.4	
0.6	0.1	0.4	
0.6	0	0.4	
0.5	0	0.4	
0.5	0.1	0.4	
0.6	0.1	0.4	
0.6	0	0.3	
0.5	0	0.3	
0.5	0.1	0.3	
0.6	0.1	0.3	
0.6	0	0.3	
0.5	0	0.3	
0.5	0.1	0.3	
0.6	0.1	0.3	
0.6	0	0.2	
0.5	0	0.2	
0.5	0.1	0.2	
0.6	0.1	0.2	
0.6	0	0.2	
0.5	0	0.2	
0.5	0.1	0.2	
0.6	0.1	0.2	
0.6	0	0.1	
0.5	0	0.1	
0.5	0.1	0.1	
0.6	0.1	0.1	
0.6	0	0.1	
0.5	0	0.1	
0.5	0.1	0.1	
0.6	0.1	0.1	
0.6	0	0	
0.5	0	0	
0.5	0.1	0	
0.6	0.1	0	
0.7	0	1	
0.6	0	1	
0.6	0.1	1	
0.7	0.1	1	
0.7	0	0.9	
0.6	0	0.9	
0.6	0.1	0.9	
0.7	0.1	0.9	
0.7	0	0.9	
0.6	0	0.9	
0.6	0.1	0.9	
0.7	0.1	0.9	
0.7	0	0.8	
0.6	0	0.8	
0.6	0.1	0.8	
0.7	0.1	0.8	
0.7	0	0.8	
0.6	0	0.8	
0.6	0.1	0.8	
0.7	0.1	0.8	
0.7	0	0.7	
0.6	0	0.7	
0.6	0.1	0.7	
0.7	0.1	0.7	
0.7	0	0.7	
0.6	0	0.7	
0.6	0.1	0.7	
0.7	0.1	0.7	
0.7	0	0.6	
0.6	0	0.6	
0.6	0.1	0.6	
0.7	0.1	0.6	
0.7	0	0.6	
0.6	0	0.6	
0.6	0.1	0.6	
0.7	0.1	0.6	
0.7	0	0.5	
0.6	0	0.5	
0.6	0.1	0.5	
0.7	0.1	0.5	
0.7	0	0.5	
0.6	0	0.5	
0.6	0.1	0.5	
0.7	0.1	0.5	
0.7	0	0.4	
0.6	0	0.4	
0.6	0.1	0.4	
0.7	0.1	0.4	
0.7	0	0.4	
0.6	0	0.4	
0.6	0.1	0.4	
0.7	0.1	0.4	
0.7	0	0.3	
0.6	0	0.3	
0.6	0.1	0.3	
0.7	0.1	0.3	
0.7	0	0.3	
0.6	0	0.3	
0.6	0.1	0.3	
0.7	0.1	0.3	
0.7	0	0.2	
0.6	0	0.2	
0.6	0.1	0.2	
0.7	0.1	0.2	
0.7	0	0.2	
0.6	0	0.2	
0.6	0.1	0.2	
0.7	0.1	0.2	
0.7	0	0.1	
0.6	0	0.1	
0.6	0.1	0.1	
0.7	0.1	0.1	
0.7	0	0.1	
0.6	0	0.1	
0.6	0.1	0.1	
0.7	0.1	0.1	
0.7	0	0	
0.6	0	0	
0.6	0.1	0	
0.7	0.1	0	
0.8	0	1	
0.7	0	1	
0.7	0.1	1	
0.8	0.1	1	
0.8	0	0.9	
0.7	0	0.9	
0.7	0.1	0.9	
0.8	0.1	0.9	
0.8	0	0.9	
0.7	0	0.9	
0.7	0.1	0.9	
0.8	0.1	0.9	
0.8	0	0.8	
0.7	0	0.8	
0.7	0.1	0.8	
0.8	0.1	0.8	
0.8	0	0.8	
0.7	0	0.8	
0.7	0.1	0.8	
0.8	0.1	0.8	
0.8	0	0.7	
0.7	0	0.7	
0.7	0.1	0.7	
0.8	0.1	0.7	
0.8	0	0.7	
0.7	0	0.7	
0.7	0.1	0.7	
0.8	0.1	0.7	
0.8	0	0.6	
0.7	0	0.6	
0.7	0.1	0.6	
0.8	0.1	0.6	
0.8	0	0.6	
0.7	0	0.6	
0.7	0.1	0.6	
0.8	0.1	0.6	
0.8	0	0.5	
0.7	0	0.5	
0.7	0.1	0.5	
0.8	0.1	0.5	
0.8	0	0.5	
0.7	0	0.5	
0.7	0.1	0.5	
0.8	0.1	0.5	
0.8	0	0.4	
0.7	0	0.4	
0.7	0.1	0.4	
0.8	0.1	0.4	
0.8	0	0.4	
0.7	0	0.4	
0.7	0.1	0.4	
0.8	0.1	0.4	
0.8	0	0.3	
0.7	0	0.3	
0.7	0.1	0.3	
0.8	0.1	0.3	
0.8	0	0.3	
0.7	0	0.3	
0.7	0.1	0.3	
0.8	0.1	0.3	
0.8	0	0.2	
0.7	0	0.2	
0.7	0.1	0.2	
0.8	0.1	0.2	
0.8	0	0.2	
0.7	0	0.2	
0.7	0.1	0.2	
0.8	0.1	0.2	
0.8	0	0.1	
0.7	0	0.1	
0.7	0.1	0.1	
0.8	0.1	0.1	
0.8	0	0.1	
0.7	0	0.1	
0.7	0.1	0.1	
0.8	0.1	0.1	
0.8	0	0	
0.7	0	0	
0.7	0.1	0	
0.8	0.1	0	
0.9	0	1	
0.8	0	1	
0.8	0.1	1	
0.9	0.1	1	
0.9	0	0.9	
0.8	0	0.9	
0.8	0.1	0.9	
0.9	0.1	0.9	
0.9	0	0.9	
0.8	0	0.9	
0.8	0.1	0.9	
0.9	0.1	0.9	
0.9	0	0.8	
0.8	0	0.8	
0.8	0.1	0.8	
0.9	0.1	0.8	
0.9	0	0.8	
0.8	0	0.8	
0.8	0.1	0.8	
0.9	0.1	0.8	
0.9	0	0.7	
0.8	0	0.7	
0.8	0.1	0.7	
0.9	0.1	0.7	
0.9	0	0.7	
0.8	0	0.7	
0.8	0.1	0.7	
0.9	0.1	0.7	
0.9	0	0.6	
0.8	0	0.6	
0.8	0.1	0.6	
0.9	0.1	0.6	
0.9	0	0.6	
0.8	0	0.6	
0.8	0.1	0.6	
0.9	0.1	0.6	
0.9	0	0.5	
0.8	0	0.5	
0.8	0.1	0.5	
0.9	0.1	0.5	
0.9	0	0.5	
0.8	0	0.5	
0.8	0.1	0.5	
0.9	0.1	0.5	
0.9	0	0.4	
0.8	0	0.4	
0.8	0.1	0.4	
0.9	0.1	0.4	
0.9	0	0.4	
0.8	0	0.4	
0.8	0.1	0.4	
0.9	0.1	0.4	
0.9	0	0.3	
0.8	0	0.3	
0.8	0.1	0.3	
0.9	0.1	0.3	
0.9	0	0.3	
0.8	0	0.3	
0.8	0.1	0.3	
0.9	0.1	0.3	
0.9	0	0.2	
0.8	0	0.2	
0.8	0.1	0.2	
0.9	0.1	0.2	
0.9	0	0.2	
0.8	0	0.2	
0.8	0.1	0.2	
0.9	0.1	0.2	
0.9	0	0.1	
0.8	0	0.1	
0.8	0.1	0.1	
0.9	0.1	0.1	
0.9	0	0.1	
0.8	0	0.1	
0.8	0.1	0.1	
0.9	0.1	0.1	
0.9	0	0	
0.8	0	0	
0.8	0.1	0	
0.9	0.1	0	
1	0	1	
0.9	0	1	
0.9	0.1	1	
1	0.1	1	
1	0	0.9	
0.9	0	0.9	
0.9	0.1	0.9	
1	0.1	0.9	
1	0	0.9	
0.9	0	0.9	
0.9	0.1	0.9	
1	0.1	0.9	
1	0	0.8	
0.9	0	0.8	
0.9	0.1	0.8	
1	0.1	0.8	
1	0	0.8	
0.9	0	0.8	
0.9	0.1	0.8	
1	0.1	0.8	
1	0	0.7	
0.9	0	0.7	
0.9	0.1	0.7	
1	0.1	0.7	
1	0	0.7	
0.9	0	0.7	
0.9	0.1	0.7	
1	0.1	0.7	
1	0	0.6	
0.9	0	0.6	
0.9	0.1	0.6	
1	0.1	0.6	
1	0	0.6	
0.9	0	0.6	
0.9	0.1	0.6	
1	0.1	0.6	
1	0	0.5	
0.9	0	0.5	
0.9	0.1	0.5	
1	0.1	0.5	
1	0	0.5	
0.9	0	0.5	
0.9	0.1	0.5	
1	0.1	0.5	
1	0	0.4	
0.9	0	0.4	
0.9	0.1	0.4	
1	0.1	0.4	
1	0	0.4	
0.9	0	0.4	
0.9	0.1	0.4	
1	0.1	0.4	
1	0	0.3	
0.9	0	0.3	
0.9	0.1	0.3	
1	0.1	0.3	
1	0	0.3	
0.9	0	0.3	
0.9	0.1	0.3	
1	0.1	0.3	
1	0	0.2	
0.9	0	0.2	
0.9	0.1	0.2	
1	0.1	0.2	
1	0	0.2	
0.9	0	0.2	
0.9	0.1	0.2	
1	0.1	0.2	
1	0	0.1	
0.9	0	0.1	
0.9	0.1	0.1	
1	0.1	0.1	
1	0	0.1	
0.9	0	0.1	
0.9	0.1	0.1	
1	0.1	0.1	
1	0	0	
0.9	0	0	
0.9	0.1	0	
1	0.1	0	
CELLS 1000 9000
8	0	1	2	3	4	5	6	7	
8	8	9	10	11	12	13	14	15	
8	16	17	18	19	20	21	22	23	
8	24	25	26	27	28	29	30	31	
8	32	33	34	35	36	37	38	39	
8	40	41	42	43	44	45	46	47	
8	48	49	50	51	52	53	54	55	
8	56	57	58	59	60	61	62	63	
8	64	65	66	67	68	69	70	71	
8	72	73	74	75	76	77	78	79	
8	80	81	82	83	84	85	86	87	
8	88	89	90	91	92	93	94	95	
8	96	97	98	99	100	101	102	103	
8	104	105	106	107	108	109	110	111	
8	112	113	114	115	116	117	118	119	
8	120	121	122	123	124	125	126	127	
8	128	129	130	131	132	133	134	135	
8	136	137	138	139	140	141	142	143	
8	144	145	146	147	148	149	150	151	
8	152	153	154	155	156	157	158	159	
8	160	161	162	163	164	165	166	167	
8	168	169	170	171	172	173	174	175	
8	176	177	178	179	180	181	182	183	
8	184	185	186	187	188	189	190	191	
8	192	193	194	195	196	197	198	199	
8	200	201	202	203	204	205	206	207	
8	208	209	210	211	212	213	214	215	
8	216	217	218	219	220	221	222	223	
8	224	225	226	227	228	229	230	231	
8	232	233	234	235	236	237	238	239	
8	240	241	242	243	244	245	246	247	
8	248	249	250	251	252	253	254	255	
8	256	257	258	259	260	261	262	263	
8	264	265	266	267	268	269	270	271	
8	272	273	274	275	276	277	278	279	
8	280	281	282	283	284	285	286	287	
8	288	289	290	291	292	293	294	295	
8	296	297	298	299	300	301	302	303	
8	304	305	306	307	308	309	310	311	
8	312	313	314	315	316	317	318	319	
8	320	321	322	323	324	325	326	327	
8	328	329	330	331	332	333	334	335	
8	336	337	338	339	340	341	342	343	
8	344	345	346	347	348	349	350	351	
8	352	353	354	355	356	357	358	359	
8	360	361	362	363	364	365	366	367	
8	368	369	370	371	372	373	374	375	
8	376	377	378	379	380	381	382	383	
8	384	385	386	387	388	389	390	391	
8	392	393	394	395	396	397	398	399	
8	400	401	402	403	404	405	406	407	
8	408	409	410	411	412	413	414	415	
8	416	417	418	419	420	421	422	423	
8	424	425	426	427	428	429	430	431	
8	432	433	434	435	436	437	438	439	
8	440	441	442	443	444	445	446	447	
8	448	449	450	451	452	453	454	455	
8	456	457	458	459	460	461	462	463	
8	464	465	466	467	468	469	470	471	
8	472	473	474	475	476	477	478	479	
8	480	481	482	483	484	485	486	487	
8	488	489	490	491	492	493	494	495	
8	496	497	498	499	500	501	502	503	
8	504	505	506	507	508	509	510	511	
8	512	513	514	515	516	517	518	519	
8	520	521	522	523	524	525	526	527	
8	528	529	530	531	532	533	534	535	
8	536	537	538	539	540	541	542	543	
8	544	545	546	547	548	549	550	551	
8	552	553	554	555	556	557	558	559	
8	560	561	562	563	564	565	566	567	
8	568	569	570	571	572	573	574	575	
8	576	577	578	579	580	581	582	583	
8	584	585	586	587	588	589	590	591	
8	592	593	594	595	596	597	598	599	
8	600	601	602	603	604	605	606	607	
8	608	609	610	611	612	613	614	615	
8	616	617	618	619	620	621	622	623	
8	624	625	626	627	628	629	630	631	
8	632	633	634	635	636	637	638	639	
8	640	641	642	643	644	645	646	647	
8	648	649	650	651	652	653	654	655	
8	656	657	658	659	660	661	662	663	
8	664	665	666	667	668	669	670	671	
8	672	673	674	675	676	677	678	679	
8	680	681	682	683	684	685	686	687	
8	688	689	690	691	692	693	694	695	
8	696	697	698	699	700	701	702	703	
8	704	705	706	707	708	709	710	711	
8	712	713	714	715	716	717	718	719	
8	720	721	722	723	724	725	726	727	
8	728	729	730	731	732	733	734	735	
8	736	737	738	739	740	741	742	743	
8	744	745	746	747	748	749	750	751	
8	752	753	754	755	756	757	758	759	
8	760	761	762	763	764	765	766	767	
8	768	769	770	771	772	773	774	775	
8	776	777	778	779	780	781	782	783	
8	784	785	786	787	788	789	790	791	
8	792	793	794	795	796	797	798	799	
8	800	801	802	803	804	805	806	807	
8	808	809	810	811	812	813	814	815	
8	816	817	818	819	820	821	822	823	
8	824	825	826	827	828	829	830	831	
8	832	833	834	835	836	837	838	839	
8	840	841	842	843	844	845	846	847	
8	848	849	850	851	852	853	854	855	
8	856	857	858	859	860	861	862	863	
8	864	865	866	867	868	869	870	871	
8	872	873	874	875	876	877	878	879	
8	880	881	882	883	884	885	886	887	
8	888	889	890	891	892	893	894	895	
8	896	897	898	899	900	901	902	903	
8	904	905	906	907	908	909	910	911	
8	912	913	914	915	916	917	918	919	
8	920	921	922	923	924	925	926	927	
8	928	929	930	931	932	933	934	935	
8	936	937	938	939	940	941	942	943	
8	944	945	946	947	948	949	950	951	
8	952	953	954	955	956	957	958	959	
8	960	961	962	963	964	965	966	967	
8	968	969	970	971	972	973	974	975	
8	976	977	978	979	980	981	982	983	
8	984	985	986	987	988	989	990	991	
8	992	993	994	995	996	997	998	999	
8	1000	1001	1002	1003	1004	1005	1006	1007	
8	1008	1009	1010	1011	1012	1013	1014	1015	
8	1016	1017	1018	1019	1020	1021	1022	1023	
8	1024	1025	1026	1027	1028	1029	1030	1031	
8	1032	1033	1034	1035	1036	1037	1038	1039	
8	1040	1041	1042	1043	1044	1045	1046	1047	
8	1048	1049	1050	1051	1052	1053	1054	1055	
8	1056	1057	1058	1059	1060	1061	1062	1063	
8	1064	1065	1066	1067	1068	1069	1070	1071	
8	1072	1073	1074	1075	1076	1077	1078	1079	
8	1080	1081	1082	1083	1084	1085	1086	1087	
8	1088	1089	1090	1091	1092	1093	1094	1095	
8	1096	1097	1098	1099	1100	1101	1102	1103	
8	1104	1105	1106	1107	1108	1109	1110	1111	
8	1112	1113	1114	1115	1116	1117	1118	1119	
8	1120	1121	1122	1123	1124	1125	1126	1127	
8	1128	1129	1130	1131	1132	1133	1134	1135	
8	1136	1137	1138	1139	1140	1141	1142	1143	
8	1144	1145	1146	1147	1148	1149	1150	1151	
8	1152	1153	1154	1155	1156	1157	1158	1159	
8	1160	1161	1162	1163	1164	1165	1166	1167	
8	1168	1169	1170	1171	1172	1173	1174	1175	
8	1176	1177	1178	1179	1180	1181	1182	1183	
8	1184	1185	1186	1187	1188	1189	1190	1191	
8	1192	1193	1194	1195	1196	1197	1198	1199	
8	1200	1201	1202	1203	1204	1205	1206	1207	
8	1208	1209	1210	1211	1212	1213	1214	1215	
8	1216	1217	1218	1219	1220	1221	1222	1223	
8	1224	1225	1226	1227	1228	1229	1230	1231	
8	1232	1233	1234	1235	1236	1237	1238	1239	
8	1240	1241	1242	1243	1244	1245	1246	1247	
8	1248	1249	1250	1251	1252	1253	1254	1255	
8	1256	1257	1258	1259	1260	1261	1262	1263	
8	1264	1265	1266	1267	1268	1269	1270	1271	
8	1272	1273	1274	1275	1276	1277	1278	1279	
8	1280	1281	1282	1283	1284	1285	1286	1287	
8	1288	1289	1290	1291	1292	1293	1294	1295	
8	1296	1297	1298	1299	1300	1301	1302	1303	
8	1304	1305	1306	1307	1308	1309	1310	1311	
8	1312	1313	1314	1315	1316	1317	1318	1319	
8	1320	1321	1322	1323	1324	1325	1326	1327	
8	1328	1329	1330	1331	1332	1333	1334	1335	
8	1336	1337	1338	1339	1340	1341	1342	1343	
8	1344	1345	1346	1347	1348	1349	1350	1351	
8	1352	1353	1354	1355	1356	1357	1358	1359	
8	1360	1361	1362	1363	1364	1365	1366	1367	
8	1368	1369	1370	1371	1372	1373	1374	1375	
8	1376	1377	1378	1379	1380	1381	1382	1383	
8	1384	1385	1386	1387	1388	1389	1390	1391	
8	1392	1393	1394	1395	1396	1397	1398	1399	
8	1400	1401	1402	1403	1404	1405	1406	1407	
8	1408	1409	1410	1411	1412	1413	1414	1415	
8	1416	1417	1418	1419	1420	1421	1422	1423	
8	1424	1425	1426	1427	1428	1429	1430	1431	
8	1432	1433	1434	1435	1436	1437	1438	1439	
8	1440	1441	1442	1443	1444	1445	1446	1447	
8	1448	1449	1450	1451	1452	1453	1454	1455	
8	1456	1457	1458	1459	1460	1461	1462	1463	
8	1464	1465	1466	1467	1468	1469	1470	1471	
8	1472	1473	1474	1475	1476	1477	1478	1479	
8	1480	1481	1482	1483	1484	1485	1486	1487	
8	1488	1489	1490	1491	1492	1493	1494	1495	
8	1496	1497	1498	1499	1500	1501	1502	1503	
8	1504	1505	1506	1507	1508	1509	1510	1511	
8	1512	1513	1514	1515	1516	1517	1518	1519	
8	1520	1521	1522	1523	1524	1525	1526	1527	
8	1528	1529	1530	1531	1532	1533	1534	1535	
8	1536	1537	1538	1539	1540	1541	1542	1543	
8	1544	1545	1546	1547	1548	1549	1550	1551	
8	1552	1553	1554	1555	1556	1557	1558	1559	
8	1560	1561	1562	1563	1564	1565	1566	1567	
8	1568	1569	1570	1571	1572	1573	1574	1575	
8	1576	1577	1578	1579	1580	1581	1582	1583	
8	1584	1585	1586	1587	1588	1589	1590	1591	
8	1592	1593	1594	1595	1596	1597	1598	1599	
8	1600	1601	1602	1603	1604	1605	1606	1607	
8	1608	1609	1610	1611	1612	1613	1614	1615	
8	1616	1617	1618	1619	1620	1621	1622	1623	
8	1624	1625	1626	1627	1628	1629	1630	1631	
8	1632	1633	1634	1635	1636	1637	1638	1639	
8	1640	1641	1642	1643	1644	1645	1646	1647	
8	1648	1649	1650	1651	1652	1653	1654	1655	
8	1656	1657	1658	1659	1660	1661	1662	1663	
8	1664	1665	1666	1667	1668	1669	1670	1671	
8	1672	1673	1674	1675	1676	1677	1678	1679	
8	1680	1681	1682	1683	1684	1685	1686	1687	
8	1688	1689	1690	1691	1692	1693	1694	1695	
8	1696	1697	1698	1699	1700	1701	1702	1703	
8	1704	1705	1706	1707	1708	1709	1710	1711	
8	1712	1713	1714	1715	1716	1717	1718	1719	
8	1720	1721	1722	1723	1724	1725	1726	1727	
8	1728	1729	1730	1731	1732	1733	1734	1735	
8	1736	1737	1738	1739	1740	1741	1742	1743	
8	1744	1745	1746	1747	1748	1749	1750	1751	
8	1752	1753	1754	1755	1756	1757	1758	1759	
8	1760	1761	1762	1763	1764	1765	1766	1767	
8	1768	1769	1770	1771	1772	1773	1774	1775	
8	1776	1777	1778	1779	1780	1781	1782	1783	
8	1784	1785	1786	1787	1788	1789	1790	1791	
8	1792	1793	1794	1795	1796	1797	1798	1799	
8	1800	1801	1802	1803	1804	1805	1806	1807	
8	1808	1809	1810	1811	1812	1813	1814	1815	
8	1816	1817	1818	1819	1820	1821	1822	1823	
8	1824	1825	1826	1827	1828	1829	1830	1831	
8	1832	1833	1834	1835	1836	1837	1838	1839	
8	1840	1841	1842	1843	1844	1845	1846	1847	
8	1848	1849	1850	1851	1852	1853	1854	1855	
8	1856	1857	1858	1859	1860	1861	1862	1863	
8	1864	1865	1866	1867	1868	1869	1870	1871	
8	1872	1873	1874	1875	1876	1877	1878	1879	
8	1880	1881	1882	1883	1884	1885	1886	1887	
8	1888	1889	1890	1891	1892	1893	1894	1895	
8	1896	1897	1898	1899	1900	1901	1902	1903	
8	1904	1905	1906	1907	1908	1909	1910	1911	
8	1912	1913	1914	1915	1916	1917	1918	1919	
8	1920	1921	1922	1923	1924	1925	1926	1927	
8	1928	1929	1930	1931	1932	1933	1934	1935	
8	1936	1937	1938	1939	1940	1941	1942	1943	
8	1944	1945	1946	1947	1948	1949	1950	1951	
8	1952	1953	1954	1955	1956	1957	1958	1959	
8	1960	1961	1962	1963	1964	1965	1966	1967	
8	1968	1969	1970	1971	1972	1973	1974	1975	
8	1976	1977	1978	1979	1980	1981	1982	1983	
8	1984	1985	1986	1987	1988	1989	1990	1991	
8	1992	1993	1994	1995	1996	1997	1998	1999	
8	2000	2001	2002	2003	2004	2005	2006	2007	
8	2008	2009	2010	2011	2012	2013	2014	2015	
8	2016	2017	2018	2019	2020	2021	2022	2023	
8	2024	2025	2026	2027	2028	2029	2030	2031	
8	2032	2033	2034	2035	2036	2037	2038	2039	
8	2040	2041	2042	2043	2044	2045	2046	2047	
8	2048	2049	2050	2051	2052	2053	2054	2055	
8	2056	2057	2058	2059	2060	2061	2062	2063	
8	2064	2065	2066	2067	2068	2069	2070	2071	
8	2072	2073	2074	2075	2076	2077	2078	2079	
8	2080	2081	2082	2083	2084	2085	2086	2087	
8	2088	2089	2090	2091	2092	2093	2094	2095	
8	2096	2097	2098	2099	2100	2101	2102	2103	
8	2104	2105	2106	2107	2108	2109	2110	2111	
8	2112	2113	2114	2115	2116	2117	2118	2119	
8	2120	2121	2122	2123	2124	2125	2126	2127	
8	2128	2129	2130	2131	2132	2133	2134	2135	
8	2136	2137	2138	2139	2140	2141	2142	2143	
8	2144	2145	2146	2147	2148	2149	2150	2151	
8	2152	2153	2154	2155	2156	2157	2158	2159	
8	2160	2161	2162	2163	2164	2165	2166	2167	
8	2168	2169	2170	2171	2172	2173	2174	2175	
8	2176	2177	2178	2179	2180	2181	2182	2183	
8	2184	2185	2186	2187	2188	2189	2190	2191	
8	2192	2193	2194	2195	2196	2197	2198	2199	
8	2200	2201	2202	2203	2204	2205	2206	2207	
8	2208	2209	2210	2211	2212	2213	2214	2215	
8	2216	2217	2218	2219	2220	2221	2222	2223	
8	2224	2225	2226	2227	2228	2229	2230	2231	
8	2232	2233	2234	2235	2236	2237	2238	2239	
8	2240	2241	2242	2243	2244	2245	2246	2247	
8	2248	2249	2250	2251	2252	2253	2254	2255	
8	2256	2257	2258	2259	2260	2261	2262	2263	
8	2264	2265	2266	2267	2268	2269	2270	2271	
8	2272	2273	2274	2275	2276	2277	2278	2279	
8	2280	2281	2282	2283	2284	2285	2286	2287	
8	2288	2289	2290	2291	2292	2293	2294	2295	
8	2296	2297	2298	2299	2300	2301	2302	2303	
8	2304	2305	2306	2307	2308	2309	2310	2311	
8	2312	2313	2314	2315	2316	2317	2318	2319	
8	2320	2321	2322	2323	2324	2325	2326	2327	
8	2328	2329	2330	2331	2332	2333	2334	2335	
8	2336	2337	2338	2339	2340	2341	2342	2343	
8	2344	2345	2346	2347	2348	2349	2350	2351	
8	2352	2353	2354	2355	2356	2357	2358	2359	
8	2360	2361	2362	2363	2364	2365	2366	2367	
8	2368	2369	2370	2371	2372	2373	2374	2375	
8	2376	2377	2378	2379	2380	2381	2382	2383	
8	2384	2385	2386	2387	2388	2389	2390	2391	
8	2392	2393	2394	2395	2396	2397	2398	2399	
8	2400	2401	2402	2403	2404	2405	2406	2407	
8	2408	2409	2410	2411	2412	2413	2414	2415	
8	2416	2417	2418	2419	2420	2421	2422	2423	
8	2424	2425	2426	2427	2428	2429	2430	2431	
8	2432	2433	2434	2435	2436	2437	2438	2439	
8	2440	2441	2442	2443	2444	2445	2446	2447	
8	2448	2449	2450	2451	2452	2453	2454	2455	
8	2456	2457	2458	2459	2460	2461	2462	2463	
8	2464	2465	2466	2467	2468	2469	2470	2471	
8	2472	2473	2474	2475	2476	2477	2478	2479	
8	2480	2481	2482	2483	2484	2485	2486	2487	
8	2488	2489	2490	2491	2492	2493	2494	2495	
8	2496	2497	2498	2499	2500	2501	2502	2503	
8	2504	2505	2506	2507	2508	2509	2510	2511	
8	2512	2513	2514	2515	2516	2517	2518	2519	
8	2520	2521	2522	2523	2524	2525	2526	2527	
8	2528	2529	2530	2531	2532	2533	2534	2535	
8	2536	2537	2538	2539	2540	2541	2542	2543	
8	2544	2545	2546	2547	2548	2549	2550	2551	
8	2552	2553	2554	2555	2556	2557	2558	2559	
8	2560	2561	2562	2563	2564	2565	2566	2567	
8	2568	2569	2570	2571	2572	2573	2574	2575	
8	2576	2577	2578	2579	2580	2581	2582	2583	
8	2584	2585	2586	2587	2588	2589	2590	2591	
8	2592	2593	2594	2595	2596	2597	2598	2599	
8	2600	2601	2602	2603	2604	2605	2606	2607	
8	2608	2609	2610	2611	2612	2613	2614	2615	
8	2616	2617	2618	2619	2620	2621	2622	2623	
8	2624	2625	2626	2627	2628	2629	2630	2631	
8	2632	2633	2634	2635	2636	2637	2638	2639	
8	2640	2641	2642	2643	2644	2645	2646	2647	
8	2648	2649	2650	2651	2652	2653	2654	2655	
8	2656	2657	2658	2659	2660	2661	2662	2663	
8	2664	2665	2666	2667	2668	2669	2670	2671	
8	2672	2673	2674	2675	2676	2677	2678	2679	
8	2680	2681	2682	2683	2684	2685	2686	2687	
8	2688	2689	2690	2691	2692	2693	2694	2695	
8	2696	2697	2698	2699	2700	2701	2702	2703	
8	2704	2705	2706	2707	2708	2709	2710	2711	
8	2712	2713	2714	2715	2716	2717	2718	2719	
8	2720	2721	2722	2723	2724	2725	2726	2727	
8	2728	2729	2730	2731	2732	2733	2734	2735	
8	2736	2737	2738	2739	2740	2741	2742	2743	
8	2744	2745	2746	2747	2748	2749	2750	2751	
8	2752	2753	2754	2755	2756	2757	2758	2759	
8	2760	2761	2762	2763	2764	2765	2766	2767	
8	2768	2769	2770	2771	2772	2773	2774	2775	
8	2776	2777	2778	2779	2780	2781	2782	2783	
8	2784	2785	2786	2787	2788	2789	2790	2791	
8	2792	2793	2794	2795	2796	2797	2798	2799	
8	2800	2801	2802	2803	2804	2805	2806	2807	
8	2808	2809	2810	2811	2812	2813	2814	2815	
8	2816	2817	2818	2819	2820	2821	2822	2823	
8	2824	2825	2826	2827	2828	2829	2830	2831	
8	2832	2833	2834	2835	2836	2837	2838	2839	
8	2840	2841	2842	2843	2844	2845	2846	2847	
8	2848	2849	2850	2851	2852	2853	2854	2855	
8	2856	2857	2858	2859	2860	2861	2862	2863	
8	2864	2865	2866	2867	2868	2869	2870	2871	
8	2872	2873	2874	2875	2876	2877	2878	2879	
8	2880	2881	2882	2883	2884	2885	2886	2887	
8	2888	2889	2890	2891	2892	2893	2894	2895	
8	2896	2897	2898	2899	2900	2901	2902	2903	
8	2904	2905	2906	2907	2908	2909	2910	2911	
8	2912	2913	2914	2915	2916	2917	2918	2919	
8	2920	2921	2922	2923	2924	2925	2926	2927	
8	2928	2929	2930	2931	2932	2933	2934	2935	
8	2936	2937	2938	2939	2940	2941	2942	2943	
8	2944	2945	2946	2947	2948	2949	2950	2951	
8	2952	2953	2954	2955	2956	2957	2958	2959	
8	2960	2961	2962	2963	2964	2965	2966	2967	
8	2968	2969	2970	2971	2972	2973	2974	2975	
8	2976	2977	2978	2979	2980	2981	2982	2983	
8	2984	2985	2986	2987	2988	2989	2990	2991	
8	2992	2993	2994	2995	2996	2997	2998	2999	
8	3000	3001	3002	3003	3004	3005	3006	3007	
8	3008	3009	3010	3011	3012	3013	3014	3015	
8	3016	3017	3018	3019	3020	3021	3022	3023	
8	3024	3025	3026	3027	3028	3029	3030	3031	
8	3032	3033	3034	3035	3036	3037	3038	3039	
8	3040	3041	3042	3043	3044	3045	3046	3047	
8	3048	3049	3050	3051	3052	3053	3054	3055	
8	3056	3057	3058	3059	3060	3061	3062	3063	
8	3064	3065	3066	3067	3068	3069	3070	3071	
8	3072	3073	3074	3075	3076	3077	3078	3079	
8	3080	3081	3082	3083	3084	3085	3086	3087	
8	3088	3089	3090	3091	3092	3093	3094	3095	
8	3096	3097	3098	3099	3100	3101	3102	3103	
8	3104	3105	3106	3107	3108	3109	3110	3111	
8	3112	3113	3114	3115	3116	3117	3118	3119	
8	3120	3121	3122	3123	3124	3125	3126	3127	
8	3128	3129	3130	3131	3132	3133	3134	3135	
8	3136	3137	3138	3139	3140	3141	3142	3143	
8	3144	3145	3146	3147	3148	3149	3150	3151	
8	3152	3153	3154	3155	3156	3157	3158	3159	
8	3160	3161	3162	3163	3164	3165	3166	3167	
8	3168	3169	3170	3171	3172	3173	3174	3175	
8	3176	3177	3178	3179	3180	3181	3182	3183	
8	3184	3185	3186	3187	3188	3189	3190	3191	
8	3192	3193	3194	3195	3196	3197	3198	3199	
8	3200	3201	3202	3203	3204	3205	3206	3207	
8	3208	3209	3210	3211	3212	3213	3214	3215	
8	3216	3217	3218	3219	3220	3221	3222	3223	
8	3224	3225	3226	3227	3228	3229	3230	3231	
8	3232	3233	3234	3235	3236	3237	3238	3239	
8	3240	3241	3242	3243	3244	3245	3246	3247	
8	3248	3249	3250	3251	3252	3253	3254	3255	
8	3256	3257	3258	3259	3260	3261	3262	3263	
8	3264	3265	3266	3267	3268	3269	3270	3271	
8	3272	3273	3274	3275	3276	3277	3278	3279	
8	3280	3281	3282	3283	3284	3285	3286	3287	
8	3288	3289	3290	3291	3292	3293	3294	3295	
8	3296	3297	3298	3299	3300	3301	3302	3303	
8	3304	3305	3306	3307	3308	3309	3310	3311	
8	3312	3313	3314	3315	3316	3317	3318	3319	
8	3320	3321	3322	3323	3324	3325	3326	3327	
8	3328	3329	3330	3331	3332	3333	3334	3335	
8	3336	3337	3338	3339	3340	3341	3342	3343	
8	3344	3345	3346	3347	3348	3349	3350	3351	
8	3352	3353	3354	3355	3356	3357	3358	3359	
8	3360	3361	3362	3363	3364	3365	3366	3367	
8	3368	3369	3370	3371	3372	3373	3374	3375	
8	3376	3377	3378	3379	3380	3381	3382	3383	
8	3384	3385	3386	3387	3388	3389	3390	3391	
8	3392	3393	3394	3395	3396	3397	3398	3399	
8	3400	3401	3402	3403	3404	3405	3406	3407	
8	3408	3409	3410	3411	3412	3413	3414	3415	
8	3416	3417	3418	3419	3420	3421	3422	3423	
8	3424	3425	3426	3427	3428	3429	3430	3431	
8	3432	3433	3434	3435	3436	3437	3438	3439	
8	3440	3441	3442	3443	3444	3445	3446	3447	
8	3448	3449	3450	3451	3452	3453	3454	3455	
8	3456	3457	3458	3459	3460	3461	3462	3463	
8	3464	3465	3466	3467	3468	3469	3470	3471	
8	3472	3473	3474	3475	3476	3477	3478	3479	
8	3480	3481	3482	3483	3484	3485	3486	3487	
8	3488	3489	3490	3491	3492	3493	3494	3495	
8	3496	3497	3498	3499	3500	3501	3502	3503	
8	3504	3505	3506	3507	3508	3509	3510	3511	
8	3512	3513	3514	3515	3516	3517	3518	3519	
8	3520	3521	3522	3523	3524	3525	3526	3527	
8	3528	3529	3530	3531	3532	3533	3534	3535	
8	3536	3537	3538	3539	3540	3541	3542	3543	
8	3544	3545	3546	3547	3548	3549	3550	3551	
8	3552	3553	3554	3555	3556	3557	3558	3559	
8	3560	3561	3562	3563	3564	3565	3566	3567	
8	3568	3569	3570	3571	3572	3573	3574	3575	
8	3576	3577	3578	3579	3580	3581	3582	3583	
8	3584	3585	3586	3587	3588	3589	3590	3591	
8	3592	3593	3594	3595	3596	3597	3598	3599	
8	3600	3601	3602	3603	3604	3605	3606	3607	
8	3608	3609	3610	3611	3612	3613	3614	3615	
8	3616	3617	3618	3619	3620	3621	3622	3623	
8	3624	3625	3626	3627	3628	3629	3630	3631	
8	3632	3633	3634	3635	3636	3637	3638	3639	
8	3640	3641	3642	3643	3644	3645	3646	3647	
8	3648	3649	3650	3651	3652	3653	3654	3655	
8	3656	3657	3658	3659	3660	3661	3662	3663	
8	3664	3665	3666	3667	3668	3669	3670	3671	
8	3672	3673	3674	3675	3676	3677	3678	3679	
8	3680	3681	3682	3683	3684	3685	3686	3687	
8	3688	3689	3690	3691	3692	3693	3694	3695	
8	3696	3697	3698	3699	3700	3701	3702	3703	
8	3704	3705	3706	3707	3708	3709	3710	3711	
8	3712	3713	3714	3715	3716	3717	3718	3719	
8	3720	3721	3722	3723	3724	3725	3726	3727	
8	3728	3729	3730	3731	3732	3733	3734	3735	
8	3736	3737	3738	3739	3740	3741	3742	3743	
8	3744	3745	3746	3747	3748	3749	3750	3751	
8	3752	3753	3754	3755	3756	3757	3758	3759	
8	3760	3761	3762	3763	3764	3765	3766	3767	
8	3768	3769	3770	3771	3772	3773	3774	3775	
8	3776	3777	3778	3779	3780	3781	3782	3783	
8	3784	3785	3786	3787	3788	3789	3790	3791	
8	3792	3793	3794	3795	3796	3797	3798	3799	
8	3800	3801	3802	3803	3804	3805	3806	3807	
8	3808	3809	3810	3811	3812	3813	3814	3815	
8	3816	3817	3818	3819	3820	3821	3822	3823	
8	3824	3825	3826	3827	3828	3829	3830	3831	
8	3832	3833	3834	3835	3836	3837	3838	3839	
8	3840	3841	3842	3843	3844	3845	3846	3847	
8	3848	3849	3850	3851	3852	3853	3854	3855	
8	3856	3857	3858	3859	3860	3861	3862	3863	
8	3864	3865	3866	3867	3868	3869	3870	3871	
8	3872	3873	3874	3875	3876	3877	3878	3879	
8	3880	3881	3882	3883	3884	3885	3886	3887	
8	3888	3889	3890	3891	3892	3893	3894	3895	
8	3896	3897	3898	3899	3900	3901	3902	3903	
8	3904	3905	3906	3907	3908	3909	3910	3911	
8	3912	3913	3914	3915	3916	3917	3918	3919	
8	3920	3921	3922	3923	3924	3925	3926	3927	
8	3928	3929	3930	3931	3932	3933	3934	3935	
8	3936	3937	3938	3939	3940	3941	3942	3943	
8	3944	3945	3946	3947	3948	3949	3950	3951	
8	3952	3953	3954	3955	3956	3957	3958	3959	
8	3960	3961	3962	3963	3964	3965	3966	3967	
8	3968	3969	3970	3971	3972	3973	3974	3975	
8	3976	3977	3978	3979	3980	3981	3982	3983	
8	3984	3985	3986	3987	3988	3989	3990	3991	
8	3992	3993	3994	3995	3996	3997	3998	3999	
8	4000	4001	4002	4003	4004	4005	4006	4007	
8	4008	4009	4010	4011	4012	4013	4014	4015	
8	4016	4017	4018	4019	4020	4021	4022	4023	
8	4024	4025	4026	4027	4028	4029	4030	4031	
8	4032	4033	4034	4035	4036	4037	4038	4039	
8	4040	4041	4042	4043	4044	4045	4046	4047	
8	4048	4049	4050	4051	4052	4053	4054	4055	
8	4056	4057	4058	4059	4060	4061	4062	4063	
8	4064	4065	4066	4067	4068	4069	4070	4071	
8	4072	4073	4074	4075	4076	4077	4078	4079	
8	4080	4081	4082	4083	4084	4085	4086	4087	
8	4088	4089	4090	4091	4092	4093	4094	4095	
8	4096	4097	4098	4099	4100	4101	4102	4103	
8	4104	4105	4106	4107	4108	4109	4110	4111	
8	4112	4113	4114	4115	4116	4117	4118	4119	
8	4120	4121	4122	4123	4124	4125	4126	4127	
8	4128	4129	4130	4131	4132	4133	4134	4135	
8	4136	4137	4138	4139	4140	4141	4142	4143	
8	4144	4145	4146	4147	4148	4149	4150	4151	
8	4152	4153	4154	4155	4156	4157	4158	4159	
8	4160	4161	4162	4163	4164	4165	4166	4167	
8	4168	4169	4170	4171	4172	4173	4174	4175	
8	4176	4177	4178	4179	4180	4181	4182	4183	
8	4184	4185	4186	4187	4188	4189	4190	4191	
8	4192	4193	4194	4195	4196	4197	4198	4199	
8	4200	4201	4202	4203	4204	4205	4206	4207	
8	4208	4209	4210	4211	4212	4213	4214	4215	
8	4216	4217	4218	4219	4220	4221	4222	4223	
8	4224	4225	4226	4227	4228	4229	4230	4231	
8	4232	4233	4234	4235	4236	4237	4238	4239	
8	4240	4241	4242	4243	4244	4245	4246	4247	
8	4248	4249	4250	4251	4252	4253	4254	4255	
8	4256	4257	4258	4259	4260	4261	4262	4263	
8	4264	4265	4266	4267	4268	4269	4270	4271	
8	4272	4273	4274	4275	4276	4277	4278	4279	
8	4280	4281	4282	4283	4284	4285	4286	4287	
8	4288	4289	4290	4291	4292	4293	4294	4295	
8	4296	4297	4298	4299	4300	4301	4302	4303	
8	4304	4305	4306	4307	4308	4309	4310	4311	
8	4312	4313	4314	4315	4316	4317	4318	4319	
8	4320	4321	4322	4323	4324	4325	4326	4327	
8	4328	4329	4330	4331	4332	4333	4334	4335	
8	4336	4337	4338	4339	4340	4341	4342	4343	
8	4344	4345	4346	4347	4348	4349	4350	4351	
8	4352	4353	4354	4355	4356	4357	4358	4359	
8	4360	4361	4362	4363	4364	4365	4366	4367	
8	4368	4369	4370	4371	4372	4373	4374	4375	
8	4376	4377	4378	4379	4380	4381	4382	4383	
8	4384	4385	4386	4387	4388	4389	4390	4391	
8	4392	4393	4394	4395	4396	4397	4398	4399	
8	4400	4401	4402	4403	4404	4405	4406	4407	
8	4408	4409	4410	4411	4412	4413	4414	4415	
8	4416	4417	4418	4419	4420	4421	4422	4423	
8	4424	4425	4426	4427	4428	4429	4430	4431	
8	4432	4433	4434	4435	4436	4437	4438	4439	
8	4440	4441	4442	4443	4444	4445	4446	4447	
8	4448	4449	4450	4451	4452	4453	4454	4455	
8	4456	4457	4458	4459	4460	4461	4462	4463	
8	4464	4465	4466	4467	4468	4469	4470	4471	
8	4472	4473	4474	4475	4476	4477	4478	4479	
8	4480	4481	4482	4483	4484	4485	4486	4487	
8	4488	4489	4490	4491	4492	4493	4494	4495	
8	4496	4497	4498	4499	4500	4501	4502	4503	
8	4504	4505	4506	4507	4508	4509	4510	4511	
8	4512	4513	4514	4515	4516	4517	4518	4519	
8	4520	4521	4522	4523	4524	4525	4526	4527	
8	4528	4529	4530	4531	4532	4533	4534	4535	
8	4536	4537	4538	4539	4540	4541	4542	4543	
8	4544	4545	4546	4547	4548	4549	4550	4551	
8	4552	4553	4554	4555	4556	4557	4558	4559	
8	4560	4561	4562	4563	4564	4565	4566	4567	
8	4568	4569	4570	4571	4572	4573	4574	4575	
8	4576	4577	4578	4579	4580	4581	4582	4583	
8	4584	4585	4586	4587	4588	4589	4590	4591	
8	4592	4593	4594	4595	4596	4597	4598	4599	
8	4600	4601	4602	4603	4604	4605	4606	4607	
8	4608	4609	4610	4611	4612	4613	4614	4615	
8	4616	4617	4618	4619	4620	4621	4622	4623	
8	4624	4625	4626	4627	4628	4629	4630	4631	
8	4632	4633	4634	4635	4636	4637	4638	4639	
8	4640	4641	4642	4643	4644	4645	4646	4647	
8	4648	4649	4650	4651	4652	4653	4654	4655	
8	4656	4657	4658	4659	4660	4661	4662	4663	
8	4664	4665	4666	4667	4668	4669	4670	4671	
8	4672	4673	4674	4675	4676	4677	4678	4679	
8	4680	4681	4682	4683	4684	4685	4686	4687	
8	4688	4689	4690	4691	4692	4693	4694	4695	
8	4696	4697	4698	4699	4700	4701	4702	4703	
8	4704	4705	4706	4707	4708	4709	4710	4711	
8	4712	4713	4714	4715	4716	4717	4718	4719	
8	4720	4721	4722	4723	4724	4725	4726	4727	
8	4728	4729	4730	4731	4732	4733	4734	4735	
8	4736	4737	4738	4739	4740	4741	4742	4743	
8	4744	4745	4746	4747	4748	4749	4750	4751	
8	4752	4753	4754	4755	4756	4757	4758	4759	
8	4760	4761	4762	4763	4764	4765	4766	4767	
8	4768	4769	4770	4771	4772	4773	4774	4775	
8	4776	4777	4778	4779	4780	4781	4782	4783	
8	4784	4785	4786	4787	4788	4789	4790	4791	
8	4792	4793	4794	4795	4796	4797	4798	4799	
8	4800	4801	4802	4803	4804	4805	4806	4807	
8	4808	4809	4810	4811	4812	4813	4814	4815	
8	4816	4817	4818	4819	4820	4821	4822	4823	
8	4824	4825	4826	4827	4828	4829	4830	4831	
8	4832	4833	4834	4835	4836	4837	4838	4839	
8	4840	4841	4842	4843	4844	4845	4846	4847	
8	4848	4849	4850	4851	4852	4853	4854	4855	
8	4856	4857	4858	4859	4860	4861	4862	4863	
8	4864	4865	4866	4867	4868	4869	4870	4871	
8	4872	4873	4874	4875	4876	4877	4878	4879	
8	4880	4881	4882	4883	4884	4885	4886	4887	
8	4888	4889	4890	4891	4892	4893	4894	4895	
8	4896	4897	4898	4899	4900	4901	4902	4903	
8	4904	4905	4906	4907	4908	4909	4910	4911	
8	4912	4913	4914	4915	4916	4917	4918	4919	
8	4920	4921	4922	4923	4924	4925	4926	4927	
8	4928	4929	4930	4931	4932	4933	4934	4935	
8	4936	4937	4938	4939	4940	4941	4942	4943	
8	4944	4945	4946	4947	4948	4949	4950	4951	
8	4952	4953	4954	4955	4956	4957	4958	4959	
8	4960	4961	4962	4963	4964	4965	4966	4967	
8	4968	4969	4970	4971	4972	4973	4974	4975	
8	4976	4977	4978	4979	4980	4981	4982	4983	
8	4984	4985	4986	4987	4988	4989	4990	4991	
8	4992	4993	4994	4995	4996	4997	4998	4999	
8	5000	5001	5002	5003	5004	5005	5006	5007	
8	5008	5009	5010	5011	5012	5013	5014	5015	
8	5016	5017	5018	5019	5020	5021	5022	5023	
8	5024	5025	5026	5027	5028	5029	5030	5031	
8	5032	5033	5034	5035	5036	5037	5038	5039	
8	5040	5041	5042	5043	5044	5045	5046	5047	
8	5048	5049	5050	5051	5052	5053	5054	5055	
8	5056	5057	5058	5059	5060	5061	5062	5063	
8	5064	5065	5066	5067	5068	5069	5070	5071	
8	5072	5073	5074	5075	5076	5077	5078	5079	
8	5080	5081	5082	5083	5084	5085	5086	5087	
8	5088	5089	5090	5091	5092	5093	5094	5095	
8	5096	5097	5098	5099	5100	5101	5102	5103	
8	5104	5105	5106	5107	5108	5109	5110	5111	
8	5112	5113	5114	5115	5116	5117	5118	5119	
8	5120	5121	5122	5123	5124	5125	5126	5127	
8	5128	5129	5130	5131	5132	5133	5134	5135	
8	5136	5137	5138	5139	5140	5141	5142	5143	
8	5144	5145	5146	5147	5148	5149	5150	5151	
8	5152	5153	5154	5155	5156	5157	5158	5159	
8	5160	5161	5162	5163	5164	5165	5166	5167	
8	5168	5169	5170	5171	5172	5173	5174	5175	
8	5176	5177	5178	5179	5180	5181	5182	5183	
8	5184	5185	5186	5187	5188	5189	5190	5191	
8	5192	5193	5194	5195	5196	5197	5198	5199	
8	5200	5201	5202	5203	5204	5205	5206	5207	
8	5208	5209	5210	5211	5212	5213	5214	5215	
8	5216	5217	5218	5219	5220	5221	5222	5223	
8	5224	5225	5226	5227	5228	5229	5230	5231	
8	5232	5233	5234	5235	5236	5237	5238	5239	
8	5240	5241	5242	5243	5244	5245	5246	5247	
8	5248	5249	5250	5251	5252	5253	5254	5255	
8	5256	5257	5258	5259	5260	5261	5262	5263	
8	5264	5265	5266	5267	5268	5269	5270	5271	
8	5272	5273	5274	5275	5276	5277	5278	5279	
8	5280	5281	5282	5283	5284	5285	5286	5287	
8	5288	5289	5290	5291	5292	5293	5294	5295	
8	5296	5297	5298	5299	5300	5301	5302	5303	
8	5304	5305	5306	5307	5308	5309	5310	5311	
8	5312	5313	5314	5315	5316	5317	5318	5319	
8	5320	5321	5322	5323	5324	5325	5326	5327	
8	5328	5329	5330	5331	5332	5333	5334	5335	
8	5336	5337	5338	5339	5340	5341	5342	5343	
8	5344	5345	5346	5347	5348	5349	5350	5351	
8	5352	5353	5354	5355	5356	5357	5358	5359	
8	5360	5361	5362	5363	5364	5365	5366	5367	
8	5368	5369	5370	5371	5372	5373	5374	5375	
8	5376	5377	5378	5379	5380	5381	5382	5383	
8	5384	5385	5386	5387	5388	5389	5390	5391	
8	5392	5393	5394	5395	5396	5397	5398	5399	
8	5400	5401	5402	5403	5404	5405	5406	5407	
8	5408	5409	5410	5411	5412	5413	5414	5415	
8	5416	5417	5418	5419	5420	5421	5422	5423	
8	5424	5425	5426	5427	5428	5429	5430	5431	
8	5432	5433	5434	5435	5436	5437	5438	5439	
8	5440	5441	5442	5443	5444	5445	5446	5447	
8	5448	5449	5450	5451	5452	5453	5454	5455	
8	5456	5457	5458	5459	5460	5461	5462	5463	
8	5464	5465	5466	5467	5468	5469	5470	5471	
8	5472	5473	5474	5475	5476	5477	5478	5479	
8	5480	5481	5482	5483	5484	5485	5486	5487	
8	5488	5489	5490	5491	5492	5493	5494	5495	
8	5496	5497	5498	5499	5500	5501	5502	5503	
8	5504	5505	5506	5507	5508	5509	5510	5511	
8	5512	5513	5514	5515	5516	5517	5518	5519	
8	5520	5521	5522	5523	5524	5525	5526	5527	
8	5528	5529	5530	5531	5532	5533	5534	5535	
8	5536	5537	5538	5539	5540	5541	5542	5543	
8	5544	5545	5546	5547	5548	5549	5550	5551	
8	5552	5553	5554	5555	5556	5557	5558	5559	
8	5560	5561	5562	5563	5564	5565	5566	5567	
8	5568	5569	5570	5571	5572	5573	5574	5575	
8	5576	5577	5578	5579	5580	5581	5582	5583	
8	5584	5585	5586	5587	5588	5589	5590	5591	
8	5592	5593	5594	5595	5596	5597	5598	5599	
8	5600	5601	5602	5603	5604	5605	5606	5607	
8	5608	5609	5610	5611	5612	5613	5614	5615	
8	5616	5617	5618	5619	5620	5621	5622	5623	
8	5624	5625	5626	5627	5628	5629	5630	5631	
8	5632	5633	5634	5635	5636	5637	5638	5639	
8	5640	5641	5642	5643	5644	5645	5646	5647	
8	5648	5649	5650	5651	5652	5653	5654	5655	
8	5656	5657	5658	5659	5660	5661	5662	5663	
8	5664	5665	5666	5667	5668	5669	5670	5671	
8	5672	5673	5674	5675	5676	5677	5678	5679	
8	5680	5681	5682	5683	5684	5685	5686	5687	
8	5688	5689	5690	5691	5692	5693	5694	5695	
8	5696	5697	5698	5699	5700	5701	5702	5703	
8	5704	5705	5706	5707	5708	5709	5710	5711	
8	5712	5713	5714	5715	5716	5717	5718	5719	
8	5720	5721	5722	5723	5724	5725	5726	5727	
8	5728	5729	5730	5731	5732	5733	5734	5735	
8	5736	5737	5738	5739	5740	5741	5742	5743	
8	5744	5745	5746	5747	5748	5749	5750	5751	
8	5752	5753	5754	5755	5756	5757	5758	5759	
8	5760	5761	5762	5763	5764	5765	5766	5767	
8	5768	5769	5770	5771	5772	5773	5774	5775	
8	5776	5777	5778	5779	5780	5781	5782	5783	
8	5784	5785	5786	5787	5788	5789	5790	5791	
8	5792	5793	5794	5795	5796	5797	5798	5799	
8	5800	5801	5802	5803	5804	5805	5806	5807	
8	5808	5809	5810	5811	5812	5813	5814	5815	
8	5816	5817	5818	5819	5820	5821	5822	5823	
8	5824	5825	5826	5827	5828	5829	5830	5831	
8	5832	5833	5834	5835	5836	5837	5838	5839	
8	5840	5841	5842	5843	5844	5845	5846	5847	
8	5848	5849	5850	5851	5852	5853	5854	5855	
8	5856	5857	5858	5859	5860	5861	5862	5863	
8	5864	5865	5866	5867	5868	5869	5870	5871	
8	5872	5873	5874	5875	5876	5877	5878	5879	
8	5880	5881	5882	5883	5884	5885	5886	5887	
8	5888	5889	5890	5891	5892	5893	5894	5895	
8	5896	5897	5898	5899	5900	5901	5902	5903	
8	5904	5905	5906	5907	5908	5909	5910	5911	
8	5912	5913	5914	5915	5916	5917	5918	5919	
8	5920	5921	5922	5923	5924	5925	5926	5927	
8	5928	5929	5930	5931	5932	5933	5934	5935	
8	5936	5937	5938	5939	5940	5941	5942	5943	
8	5944	5945	5946	5947	5948	5949	5950	5951	
8	5952	5953	5954	5955	5956	5957	5958	5959	
8	5960	5961	5962	5963	5964	5965	5966	5967	
8	5968	5969	5970	5971	5972	5973	5974	5975	
8	5976	5977	5978	5979	5980	5981	5982	5983	
8	5984	5985	5986	5987	5988	5989	5990	5991	
8	5992	5993	5994	5995	5996	5997	5998	5999	
8	6000	6001	6002	6003	6004	6005	6006	6007	
8	6008	6009	6010	6011	6012	6013	6014	6015	
8	6016	6017	6018	6019	6020	6021	6022	6023	
8	6024	6025	6026	6027	6028	6029	6030	6031	
8	6032	6033	6034	6035	6036	6037	6038	6039	
8	6040	6041	6042	6043	6044	6045	6046	6047	
8	6048	6049	6050	6051	6052	6053	6054	6055	
8	6056	6057	6058	6059	6060	6061	6062	6063	
8	6064	6065	6066	6067	6068	6069	6070	6071	
8	6072	6073	6074	6075	6076	6077	6078	6079	
8	6080	6081	6082	6083	6084	6085	6086	6087	
8	6088	6089	6090	6091	6092	6093	6094	6095	
8	6096	6097	6098	6099	6100	6101	6102	6103	
8	6104	6105	6106	6107	6108	6109	6110	6111	
8	6112	6113	6114	6115	6116	6117	6118	6119	
8	6120	6121	6122	6123	6124	6125	6126	6127	
8	6128	6129	6130	6131	6132	6133	6134	6135	
8	6136	6137	6138	6139	6140	6141	6142	6143	
8	6144	6145	6146	6147	6148	6149	6150	6151	
8	6152	6153	6154	6155	6156	6157	6158	6159	
8	6160	6161	6162	6163	6164	6165	6166	6167	
8	6168	6169	6170	6171	6172	6173	6174	6175	
8	6176	6177	6178	6179	6180	6181	6182	6183	
8	6184	6185	6186	6187	6188	6189	6190	6191	
8	6192	6193	6194	6195	6196	6197	6198	6199	
8	6200	6201	6202	6203	6204	6205	6206	6207	
8	6208	6209	6210	6211	6212	6213	6214	6215	
8	6216	6217	6218	6219	6220	6221	6222	6223	
8	6224	6225	6226	6227	6228	6229	6230	6231	
8	6232	6233	6234	6235	6236	6237	6238	6239	
8	6240	6241	6242	6243	6244	6245	6246	6247	
8	6248	6249	6250	6251	6252	6253	6254	6255	
8	6256	6257	6258	6259	6260	6261	6262	6263	
8	6264	6265	6266	6267	6268	6269	6270	6271	
8	6272	6273	6274	6275	6276	6277	6278	6279	
8	6280	6281	6282	6283	6284	6285	6286	6287	
8	6288	6289	6290	6291	6292	6293	6294	6295	
8	6296	6297	6298	6299	6300	6301	6302	6303	
8	6304	6305	6306	6307	6308	6309	6310	6311	
8	6312	6313	6314	6315	6316	6317	6318	6319	
8	6320	6321	6322	6323	6324	6325	6326	6327	
8	6328	6329	6330	6331	6332	6333	6334	6335	
8	6336	6337	6338	6339	6340	6341	6342	6343	
8	6344	6345	6346	6347	6348	6349	6350	6351	
8	6352	6353	6354	6355	6356	6357	6358	6359	
8	6360	6361	6362	6363	6364	6365	6366	6367	
8	6368	6369	6370	6371	6372	6373	6374	6375	
8	6376	6377	6378	6379	6380	6381	6382	6383	
8	6384	6385	6386	6387	6388	6389	6390	6391	
8	6392	6393	6394	6395	6396	6397	6398	6399	
8	6400	6401	6402	6403	6404	6405	6406	6407	
8	6408	6409	6410	6411	6412	6413	6414	6415	
8	6416	6417	6418	6419	6420	6421	6422	6423	
8	6424	6425	6426	6427	6428	6429	6430	6431	
8	6432	6433	6434	6435	6436	6437	6438	6439	
8	6440	6441	6442	6443	6444	6445	6446	6447	
8	6448	6449	6450	6451	6452	6453	6454	6455	
8	6456	6457	6458	6459	6460	6461	6462	6463	
8	6464	6465	6466	6467	6468	6469	6470	6471	
8	6472	6473	6474	6475	6476	6477	6478	6479	
8	6480	6481	6482	6483	6484	6485	6486	6487	
8	6488	6489	6490	6491	6492	6493	6494	6495	
8	6496	6497	6498	6499	6500	6501	6502	6503	
8	6504	6505	6506	6507	6508	6509	6510	6511	
8	6512	6513	6514	6515	6516	6517	6518	6519	
8	6520	6521	6522	6523	6524	6525	6526	6527	
8	6528	6529	6530	6531	6532	6533	6534	6535	
8	6536	6537	6538	6539	6540	6541	6542	6543	
8	6544	6545	6546	6547	6548	6549	6550	6551	
8	6552	6553	6554	6555	6556	6557	6558	6559	
8	6560	6561	6562	6563	6564	6565	6566	6567	
8	6568	6569	6570	6571	6572	6573	6574	6575	
8	6576	6577	6578	6579	6580	6581	6582	6583	
8	6584	6585	6586	6587	6588	6589	6590	6591	
8	6592	6593	6594	6595	6596	6597	6598	6599	
8	6600	6601	6602	6603	6604	6605	6606	6607	
8	6608	6609	6610	6611	6612	6613	6614	6615	
8	6616	6617	6618	6619	6620	6621	6622	6623	
8	6624	6625	6626	6627	6628	6629	6630	6631	
8	6632	6633	6634	6635	6636	6637	6638	6639	
8	6640	6641	6642	6643	6644	6645	6646	6647	
8	6648	6649	6650	6651	6652	6653	6654	6655	
8	6656	6657	6658	6659	6660	6661	6662	6663	
8	6664	6665	6666	6667	6668	6669	6670	6671	
8	6672	6673	6674	6675	6676	6677	6678	6679	
8	6680	6681	6682	6683	6684	6685	6686	6687	
8	6688	6689	6690	6691	6692	6693	6694	6695	
8	6696	6697	6698	6699	6700	6701	6702	6703	
8	6704	6705	6706	6707	6708	6709	6710	6711	
8	6712	6713	6714	6715	6716	6717	6718	6719	
8	6720	6721	6722	6723	6724	6725	6726	6727	
8	6728	6729	6730	6731	6732	6733	6734	6735	
8	6736	6737	6738	6739	6740	6741	6742	6743	
8	6744	6745	6746	6747	6748	6749	6750	6751	
8	6752	6753	6754	6755	6756	6757	6758	6759	
8	6760	6761	6762	6763	6764	6765	6766	6767	
8	6768	6769	6770	6771	6772	6773	6774	6775	
8	6776	6777	6778	6779	6780	6781	6782	6783	
8	6784	6785	6786	6787	6788	6789	6790	6791	
8	6792	6793	6794	6795	6796	6797	6798	6799	
8	6800	6801	6802	6803	6804	6805	6806	6807	
8	6808	6809	6810	6811	6812	6813	6814	6815	
8	6816	6817	6818	6819	6820	6821	6822	6823	
8	6824	6825	6826	6827	6828	6829	6830	6831	
8	6832	6833	6834	6835	6836	6837	6838	6839	
8	6840	6841	6842	6843	6844	6845	6846	6847	
8	6848	6849	6850	6851	6852	6853	6854	6855	
8	6856	6857	6858	6859	6860	6861	6862	6863	
8	6864	6865	6866	6867	6868	6869	6870	6871	
8	6872	6873	6874	6875	6876	6877	6878	6879	
8	6880	6881	6882	6883	6884	6885	6886	6887	
8	6888	6889	6890	6891	6892	6893	6894	6895	
8	6896	6897	6898	6899	6900	6901	6902	6903	
8	6904	6905	6906	6907	6908	6909	6910	6911	
8	6912	6913	6914	6915	6916	6917	6918	6919	
8	6920	6921	6922	6923	6924	6925	6926	6927	
8	6928	6929	6930	6931	6932	6933	6934	6935	
8	6936	6937	6938	6939	6940	6941	6942	6943	
8	6944	6945	6946	6947	6948	6949	6950	6951	
8	6952	6953	6954	6955	6956	6957	6958	6959	
8	6960	6961	6962	6963	6964	6965	6966	6967	
8	6968	6969	6970	6971	6972	6973	6974	6975	
8	6976	6977	6978	6979	6980	6981	6982	6983	
8	6984	6985	6986	6987	6988	6989	6990	6991	
8	6992	6993	6994	6995	6996	6997	6998	6999	
8	7000	7001	7002	7003	7004	7005	7006	7007	
8	7008	7009	7010	7011	7012	7013	7014	7015	
8	7016	7017	7018	7019	7020	7021	7022	7023	
8	7024	7025	7026	7027	7028	7029	7030	7031	
8	7032	7033	7034	7035	7036	7037	7038	7039	
8	7040	7041	7042	7043	7044	7045	7046	7047	
8	7048	7049	7050	7051	7052	7053	7054	7055	
8	7056	7057	7058	7059	7060	7061	7062	7063	
8	7064	7065	7066	7067	7068	7069	7070	7071	
8	7072	7073	7074	7075	7076	7077	7078	7079	
8	7080	7081	7082	7083	7084	7085	7086	7087	
8	7088	7089	7090	7091	7092	7093	7094	7095	
8	7096	7097	7098	7099	7100	7101	7102	7103	
8	7104	7105	7106	7107	7108	7109	7110	7111	
8	7112	7113	7114	7115	7116	7117	7118	7119	
8	7120	7121	7122	7123	7124	7125	7126	7127	
8	7128	7129	7130	7131	7132	7133	7134	7135	
8	7136	7137	7138	7139	7140	7141	7142	7143	
8	7144	7145	7146	7147	7148	7149	7150	7151	
8	7152	7153	7154	7155	7156	7157	7158	7159	
8	7160	7161	7162	7163	7164	7165	7166	7167	
8	7168	7169	7170	7171	7172	7173	7174	7175	
8	7176	7177	7178	7179	7180	7181	7182	7183	
8	7184	7185	7186	7187	7188	7189	7190	7191	
8	7192	7193	7194	7195	7196	7197	7198	7199	
8	7200	7201	7202	7203	7204	7205	7206	7207	
8	7208	7209	7210	7211	7212	7213	7214	7215	
8	7216	7217	7218	7219	7220	7221	7222	7223	
8	7224	7225	7226	7227	7228	7229	7230	7231	
8	7232	7233	7234	7235	7236	7237	7238	7239	
8	7240	7241	7242	7243	7244	7245	7246	7247	
8	7248	7249	7250	7251	7252	7253	7254	7255	
8	7256	7257	7258	7259	7260	7261	7262	7263	
8	7264	7265	7266	7267	7268	7269	7270	7271	
8	7272	7273	7274	7275	7276	7277	7278	7279	
8	7280	7281	7282	7283	7284	7285	7286	7287	
8	7288	7289	7290	7291	7292	7293	7294	7295	
8	7296	7297	7298	7299	7300	7301	7302	7303	
8	7304	7305	7306	7307	7308	7309	7310	7311	
8	7312	7313	7314	7315	7316	7317	7318	7319	
8	7320	7321	7322	7323	7324	7325	7326	7327	
8	7328	7329	7330	7331	7332	7333	7334	7335	
8	7336	7337	7338	7339	7340	7341	7342	7343	
8	7344	7345	7346	7347	7348	7349	7350	7351	
8	7352	7353	7354	7355	7356	7357	7358	7359	
8	7360	7361	7362	7363	7364	7365	7366	7367	
8	7368	7369	7370	7371	7372	7373	7374	7375	
8	7376	7377	7378	7379	7380	7381	7382	7383	
8	7384	7385	7386	7387	7388	7389	7390	7391	
8	7392	7393	7394	7395	7396	7397	7398	7399	
8	7400	7401	7402	7403	7404	7405	7406	7407	
8	7408	7409	7410	7411	7412	7413	7414	7415	
8	7416	7417	7418	7419	7420	7421	7422	7423	
8	7424	7425	7426	7427	7428	7429	7430	7431	
8	7432	7433	7434	7435	7436	7437	7438	7439	
8	7440	7441	7442	7443	7444	7445	7446	7447	
8	7448	7449	7450	7451	7452	7453	7454	7455	
8	7456	7457	7458	7459	7460	7461	7462	7463	
8	7464	7465	7466	7467	7468	7469	7470	7471	
8	7472	7473	7474	7475	7476	7477	7478	7479	
8	7480	7481	7482	7483	7484	7485	7486	7487	
8	7488	7489	7490	7491	7492	7493	7494	7495	
8	7496	7497	7498	7499	7500	7501	7502	7503	
8	7504	7505	7506	7507	7508	7509	7510	7511	
8	7512	7513	7514	7515	7516	7517	7518	7519	
8	7520	7521	7522	7523	7524	7525	7526	7527	
8	7528	7529	7530	7531	7532	7533	7534	7535	
8	7536	7537	7538	7539	7540	7541	7542	7543	
8	7544	7545	7546	7547	7548	7549	7550	7551	
8	7552	7553	7554	7555	7556	7557	7558	7559	
8	7560	7561	7562	7563	7564	7565	7566	7567	
8	7568	7569	7570	7571	7572	7573	7574	7575	
8	7576	7577	7578	7579	7580	7581	7582	7583	
8	7584	7585	7586	7587	7588	7589	7590	7591	
8	7592	7593	7594	7595	7596	7597	7598	7599	
8	7600	7601	7602	7603	7604	7605	7606	7607	
8	7608	7609	7610	7611	7612	7613	7614	7615	
8	7616	7617	7618	7619	7620	7621	7622	7623	
8	7624	7625	7626	7627	7628	7629	7630	7631	
8	7632	7633	7634	7635	7636	7637	7638	7639	
8	7640	7641	7642	7643	7644	7645	7646	7647	
8	7648	7649	7650	7651	7652	7653	7654	7655	
8	7656	7657	7658	7659	7660	7661	7662	7663	
8	7664	7665	7666	7667	7668	7669	7670	7671	
8	7672	7673	7674	7675	7676	7677	7678	7679	
8	7680	7681	7682	7683	7684	7685	7686	7687	
8	7688	7689	7690	7691	7692	7693	7694	7695	
8	7696	7697	7698	7699	7700	7701	7702	7703	
8	7704	7705	7706	7707	7708	7709	7710	7711	
8	7712	7713	7714	7715	7716	7717	7718	7719	
8	7720	7721	7722	7723	7724	7725	7726	7727	
8	7728	7729	7730	7731	7732	7733	7734	7735	
8	7736	7737	7738	7739	7740	7741	7742	7743	
8	7744	7745	7746	7747	7748	7749	7750	7751	
8	7752	7753	7754	7755	7756	7757	7758	7759	
8	7760	7761	7762	7763	7764	7765	7766	7767	
8	7768	7769	7770	7771	7772	7773	7774	7775	
8	7776	7777	7778	7779	7780	7781	7782	7783	
8	7784	7785	7786	7787	7788	7789	7790	7791	
8	7792	7793	7794	7795	7796	7797	7798	7799	
8	7800	7801	7802	7803	7804	7805	7806	7807	
8	7808	7809	7810	7811	7812	7813	7814	7815	
8	7816	7817	7818	7819	7820	7821	7822	7823	
8	7824	7825	7826	7827	7828	7829	7830	7831	
8	7832	7833	7834	7835	7836	7837	7838	7839	
8	7840	7841	7842	7843	7844	7845	7846	7847	
8	7848	7849	7850	7851	7852	7853	7854	7855	
8	7856	7857	7858	7859	7860	7861	7862	7863	
8	7864	7865	7866	7867	7868	7869	7870	7871	
8	7872	7873	7874	7875	7876	7877	7878	7879	
8	7880	7881	7882	7883	7884	7885	7886	7887	
8	7888	7889	7890	7891	7892	7893	7894	7895	
8	7896	7897	7898	7899	7900	7901	7902	7903	
8	7904	7905	7906	7907	7908	7909	7910	7911	
8	7912	7913	7914	7915	7916	7917	7918	7919	
8	7920	7921	7922	7923	7924	7925	7926	7927	
8	7928	7929	7930	7931	7932	7933	7934	7935	
8	7936	7937	7938	7939	7940	7941	7942	7943	
8	7944	7945	7946	7947	7948	7949	7950	7951	
8	7952	7953	7954	7955	7956	7957	7958	7959	
8	7960	7961	7962	7963	7964	7965	7966	7967	
8	7968	7969	7970	7971	7972	7973	7974	7975	
8	7976	7977	7978	7979	7980	7981	7982	7983	
8	7984	7985	7986	7987	7988	7989	7990	7991	
8	7992	7993	7994	7995	7996	7997	7998	7999	
CELL_TYPES 1000
12
12
12
12
12
12
12
12
12
12
12
12
12
12
12
12
12
12
12
12
12
12
12
12
12
12
12
12
12
12
12
12
12
12
12
12
12
12
12
12
12
12
12
12
12
12
12
12
12
12
12
12
12
12
12
12
12
12
12
12
12
12
12
12
12
12
12
12
12
12
12
12
12
12
12
12
12
12
12
12
12
12
12
12
12
12
12
12
12
12
12
12
12
12
12
12
12
12
12
12
12
12
12
12
12
12
12
12
12
12
12
12
12
12
12
12
12
12
12
12
12
12
12
12
12
12
12
12
12
12
12
12
12
12
12
12
12
12
12
12
12
12
12
12
12
12
12
12
12
12
12
12
12
12
12
12
12
12
12
12
12
12
12
12
12
12
12
12
12
12
12
12
12
12
12
12
12
12
12
12
12
12
12
12
12
12
12
12
12
12
12
12
12
12
12
12
12
12
12
12
12
12
12
12
12
12
12
12
12
12
12
12
12
12
12
12
12
12
12
12
12
12
12
12
12
12
12
12
12
12
12
12
12
12
12
12
12
12
12
12
12
12
12
12
12
12
12
12
12
12
12
12
12
12
12
12
12
12
12
12
12
12
12
12
12
12
12
12
12
12
12
12
12
12
12
12
12
12
12
12
12
12
12
12
12
12
12
12
12
12
12
12
12
12
12
12
12
12
12
12
12
12
12
12
12
12
12
12
12
12
12
12
12
12
12
12
12
12
12
12
12
12
12
12
12
12
12
12
12
12
12
12
12
12
12
12
12
12
12
12
12
12
12
12
12
12
12
12
12
12
12
12
12
12
12
12
12
12
12
12
12
12
12
12
12
12
12
12
12
12
12
12
12
12
12
12
12
12
12
12
12
12
12
12
12
12
12
12
12
12
12
12
12
12
12
12
12
12
12
12
12
12
12
12
12
12
12
12
12
12
12
12
12
12
12
12
12
12
12
12
12
12
12
12
12
12
12
12
12
12
12
12
12
12
12
12
12
12
12
12
12
12
12
12
12
12
12
12
12
12
12
12
12
12
12
12
12
12
12
12
12
12
12
12
12
12
12
12
12
12
12
12
12
12
12
12
12
12
12
12
12
12
12
12
12
12
12
12
12
12
12
12
12
12
12
12
12
12
12
12
12
12
12
12
12
12
12
12
12
12
12
12
12
12
12
12
12
12
12
12
12
12
12
12
12
12
12
12
12
12
12
12
12
12
12
12
12
12
12
12
12
12
12
12
12
12
12
12
12
12
12
12
12
12
12
12
12
12
12
12
12
12
12
12
12
12
12
12
12
12
12
12
12
12
12
12
12
12
12
12
12
12
12
12
12
12
12
12
12
12
12
12
12
12
12
12
12
12
12
12
12
12
12
12
12
12
12
12
12
12
12
12
12
12
12
12
12
12
12
12
12
12
12
12
12
12
12
12
12
12
12
12
12
12
12
12
12
12
12
12
12
12
12
12
12
12
12
12
12
12
12
12
12
12
12
12
12
12
12
12
12
12
12
12
12
12
12
12
12
12
12
12
12
12
12
12
12
12
12
12
12
12
12
12
12
12
12
12
12
12
12
12
12
12
12
12
12
12
12
12
12
12
12
12
12
12
12
12
12
12
12
12
12
12
12
12
12
12
12
12
12
12
12
12
12
12
12
12
12
12
12
12
12
12
12
12
12
12
12
12
12
12
12
12
12
12
12
12
12
12
12
12
12
12
12
12
12
12
12
12
12
12
12
12
12
12
12
12
12
12
12
12
12
12
12
12
12
12
12
12
12
12
12
12
12
12
12
12
12
12
12
12
12
12
12
12
12
12
12
12
12
12
12
12
12
12
12
12
12
12
12
12
12
12
12
12
12
12
12
12
12
12
12
12
12
12
12
12
12
12
12
12
12
12
12
12
12
12
12
12
12
12
12
12
12
12
12
12
12
12
12
12
12
12
12
12
12
12
12
12
12
12
12
12
12
12
12
12
12
12
12
12
12
12
12
12
12
12
12
12
12
12
12
12
12
12
12
12
12
12
12
12
12
12
12
12
12
12
12
12
12
12
12
12
12
12
12
12
12
12
12
12
12
12
12
12
12
12
12
12
12
12
12
12
12
12
12
12
12
12
12
12
12
12
12
12
12
12
12
12
12
12
12
12
12
12
12
12
12
12
12
12
12
12
12
12
12
12
12
12
12
12
12
12
12
12
12
12
12
12
12
12
12
12
12
12
12
12
12
12
12
12
12
12
12
12
12
12
12
12
12
12
12
12
12
12
12
12
12
12
CELL_DATA 1000
POINT_DATA 8000
SCALARS Pressure float 
LOOKUP_TABLE default
41.6196 41.6196 41.6196 41.6196 41.6196 41.6196 41.6196 41.6196 8.05542 8.05542 8.05542 8.05542 8.05542 8.05542 8.05542 8.05542 3.5675 3.5675 3.5675 3.5675 3.5675 3.5675 3.5675 3.5675 1.62025 1.62025 1.62025 1.62025 1.62025 1.62025 1.62025 1.62025 0.473991 0.473991 0.473991 0.473991 0.473991 0.473991 0.473991 0.473991 -0.473991 -0.473991 -0.473991 -0.473991 -0.473991 -0.473991 -0.473991 -0.473991 -1.62025 -1.62025 -1.62025 -1.62025 -1.62025 -1.62025 -1.62025 -1.62025 -3.5675 -3.5675 -3.5675 -3.5675 -3.5675 -3.5675 -3.5675 -3.5675 -8.05542 -8.05542 -8.05542 -8.05542 -8.05542 -8.05542 -8.05542 -8.05542 -41.6196 -41.6196 -41.6196 -41.6196 -41.6196 -41.6196 -41.6196 -41.6196 41.6262 41.6262 41.6262 41.6262 41.6262 41.6262 41.6262 41.6262 8.0623 8.0623 8.0623 8.0623 8.0623 8.0623 8.0623 8.0623 3.57357 3.57357 3.57357 3.57357 3.57357 3.57357 3.57357 3.57357 1.62441 1.62441 1.62441 1.62441 1.62441 1.62441 1.62441 1.62441 0.47547 0.47547 0.47547 0.47547 0.47547 0.47547 0.47547 0.47547 -0.47547 -0.47547 -0.47547 -0.47547 -0.47547 -0.47547 -0.47547 -0.47547 -1.62441 -1.62441 -1.62441 -1.62441 -1.62441 -1.62441 -1.62441 -1.62441 -3.57357 -3.57357 -3.57357 -3.57357 -3.57357 -3.57357 -3.57357 -3.57357 -8.0623 -8.0623 -8.0623 -8.0623 -8.0623 -8.0623 -8.0623 -8.0623 -41.6262 -41.6262 -41.6262 -41.6262 -41.6262 -41.6262 -41.6262 -41.6262 41.6415 41.6415 41.6415 41.6415 41.6415 41.6415 41.6415 41.6415 8.07823 8.07823 8.07823 8.07823 8.07823 8.07823 8.07823 8.07823 3.58752 3.58752 3.58752 3.58752 3.58752 3.58752 3.58752 3.58752 1.63396 1.63396 1.63396 1.63396 1.63396 1.63396 1.63396 1.63396 0.478859 0.478859 0.478859 0.478859 0.478859 0.478859 0.478859 0.478859 -0.478859 -0.478859 -0.478859 -0.478859 -0.478859 -0.478859 -0.478859 -0.478859 -1.63396 -1.63396 -1.63396 -1.63396 -1.63396 -1.63396 -1.63396 -1.63396 -3.58752 -3.58752 -3.58752 -3.58752 -3.58752 -3.58752 -3.58752 -3.58752 -8.07823 -8.07823 -8.07823 -8.07823 -8.07823 -8.07823 -8.07823 -8.07823 -41.6415 -41.6415 -41.6415 -41.6415 -41.6415 -41.6415 -41.6415 -41.6415 41.6707 41.6707 41.6707 41.6707 41.6707 41.6707 41.6707 41.6707 8.10832 8.10832 8.10832 8.10832 8.10832 8.10832 8.10832 8.10832 3.6137 3.6137 3.6137 3.6137 3.6137 3.6137 3.6137 3.6137 1.65179 1.65179 1.65179 1.65179 1.65179 1.65179 1.65179 1.65179 0.485178 0.485178 0.485178 0.485178 0.485178 0.485178 0.485178 0.485178 -0.485178 -0.485178 -0.485178 -0.485178 -0.485178 -0.485178 -0.485178 -0.485178 -1.65179 -1.65179 -1.65179 -1.65179 -1.65179 -1.65179 -1.65179 -1.65179 -3.6137 -3.6137 -3.6137 -3.6137 -3.6137 -3.6137 -3.6137 -3.6137 -8.10832 -8.10832 -8.10832 -8.10832 -8.10832 -8.10832 -8.10832 -8.10832 -41.6707 -41.6707 -41.6707 -41.6707 -41.6707 -41.6707 -41.6707 -41.6707 41.7237 41.7237 41.7237 41.7237 41.7237 41.7237 41.7237 41.7237 8.16223 8.16223 8.16223 8.16223 8.16223 8.16223 8.16223 8.16223 3.66049 3.66049 3.66049 3.66049 3.66049 3.66049 3.66049 3.66049 1.68361 1.68361 1.68361 1.68361 1.68361 1.68361 1.68361 1.68361 0.496431 0.496431 0.496431 0.496431 0.496431 0.496431 0.496431 0.496431 -0.496431 -0.496431 -0.496431 -0.496431 -0.496431 -0.496431 -0.496431 -0.496431 -1.68361 -1.68361 -1.68361 -1.68361 -1.68361 -1.68361 -1.68361 -1.68361 -3.66049 -3.66049 -3.66049 -3.66049 -3.66049 -3.66049 -3.66049 -3.66049 -8.16223 -8.16223 -8.16223 -8.16223 -8.16223 -8.16223 -8.16223 -8.16223 -41.7237 -41.7237 -41.7237 -41.7237 -41.7237 -41.7237 -41.7237 -41.7237 41.8193 41.8193 41.8193 41.8193 41.8193 41.8193 41.8193 41.8193 8.25951 8.25951 8.25951 8.25951 8.25951 8.25951 8.25951 8.25951 3.74468 3.74468 3.74468 3.74468 3.74468 3.74468 3.74468 3.74468 1.7405 1.7405 1.7405 1.7405 1.7405 1.7405 1.7405 1.7405 0.516504 0.516504 0.516504 0.516504 0.516504 0.516504 0.516504 0.516504 -0.516504 -0.516504 -0.516504 -0.516504 -0.516504 -0.516504 -0.516504 -0.516504 -1.7405 -1.7405 -1.7405 -1.7405 -1.7405 -1.7405 -1.7405 -1.7405 -3.74468 -3.74468 -3.74468 -3.74468 -3.74468 -3.74468 -3.74468 -3.74468 -8.25951 -8.25951 -8.25951 -8.25951 -8.25951 -8.25951 -8.25951 -8.25951 -41.8193 -41.8193 -41.8193 -41.8193 -41.8193 -41.8193 -41.8193 -41.8193 41.9936 41.9936 41.9936 41.9936 41.9936 41.9936 41.9936 41.9936 8.43693 8.43693 8.43693 8.43693 8.43693 8.43693 8.43693 8.43693 3.89805 3.89805 3.89805 3.89805 3.89805 3.89805 3.89805 3.89805 1.84457 1.84457 1.84457 1.84457 1.84457 1.84457 1.84457 1.84457 0.553074 0.553074 0.553074 0.553074 0.553074 0.553074 0.553074 0.553074 -0.553074 -0.553074 -0.553074 -0.553074 -0.553074 -0.553074 -0.553074 -0.553074 -1.84457 -1.84457 -1.84457 -1.84457 -1.84457 -1.84457 -1.84457 -1.84457 -3.89806 -3.89806 -3.89806 -3.89806 -3.89806 -3.89806 -3.89806 -3.89806 -8.43693 -8.43693 -8.43693 -8.43693 -8.43693 -8.43693 -8.43693 -8.43693 -41.9936 -41.9936 -41.9936 -41.9936 -41.9936 -41.9936 -41.9936 -41.9936 42.3151 42.3151 42.3151 42.3151 42.3151 42.3151 42.3151 42.3151 8.76468 8.76468 8.76468 8.76468 8.76468 8.76468 8.76468 8.76468 4.19477 4.19477 4.19477 4.19477 4.19477 4.19477 4.19477 4.19477 2.03758 2.03758 2.03758 2.03758 2.03758 2.03758 2.03758 2.03758 0.618154 0.618154 0.618154 0.618154 0.618154 0.618154 0.618154 0.618154 -0.618155 -0.618155 -0.618155 -0.618155 -0.618155 -0.618155 -0.618155 -0.618155 -2.03758 -2.03758 -2.03758 -2.03758 -2.03758 -2.03758 -2.03758 -2.03758 -4.19477 -4.19477 -4.19477 -4.19477 -4.19477 -4.19477 -4.19477 -4.19477 -8.76468 -8.76468 -8.76468 -8.76468 -8.76468 -8.76468 -8.76468 -8.76468 -42.3151 -42.3151 -42.3151 -42.3151 -42.3151 -42.3151 -42.3151 -42.3151 43.1447 43.1447 43.1447 43.1447 43.1447 43.1447 43.1447 43.1447 9.68602 9.68602 9.68602 9.68602 9.68602 9.68602 9.68602 9.68602 4.83594 4.83594 4.83594 4.83594 4.83594 4.83594 4.83594 4.83594 2.36398 2.36398 2.36398 2.36398 2.36398 2.36398 2.36398 2.36398 0.716824 0.716824 0.716824 0.716824 0.716824 0.716824 0.716824 0.716824 -0.716824 -0.716824 -0.716824 -0.716824 -0.716824 -0.716824 -0.716824 -0.716824 -2.36398 -2.36398 -2.36398 -2.36398 -2.36398 -2.36398 -2.36398 -2.36398 -4.83594 -4.83594 -4.83594 -4.83594 -4.83594 -4.83594 -4.83594 -4.83594 -9.68602 -9.68602 -9.68602 -9.68602 -9.68602 -9.68602 -9.68602 -9.68602 -43.1447 -43.1447 -43.1447 -43.1447 -43.1447 -43.1447 -43.1447 -43.1447 45.8885 45.8885 45.8885 45.8885 45.8885 45.8885 45.8885 45.8885 10.9052 10.9052 10.9052 10.9052 10.9052 10.9052 10.9052 10.9052 5.30899 5.30899 5.30899 5.30899 5.30899 5.30899 5.30899 5.30899 2.57232 2.57232 2.57232 2.57232 2.57232 2.57232 2.57232 2.57232 0.772675 0.772675 0.772675 0.772675 0.772675 0.772675 0.772675 0.772675 -0.772675 -0.772675 -0.772675 -0.772675 -0.772675 -0.772675 -0.772675 -0.772675 -2.57232 -2.57232 -2.57232 -2.57232 -2.57232 -2.57232 -2.57232 -2.57232 -5.30899 -5.30899 -5.30899 -5.30899 -5.30899 -5.30899 -5.30899 -5.30899 -10.9052 -10.9052 -10.9052 -10.9052 -10.9052 -10.9052 -10.9052 -10.9052 -45.8885 -45.8885 -45.8885 -45.8885 -45.8885 -45.8885 -45.8885 -45.8885 12.5108 12.5108 12.5108 12.5108 12.5108 12.5108 12.5108 12.5108 8.09934 8.09934 8.09934 8.09934 8.09934 8.09934 8.09934 8.09934 4.57366 4.57366 4.57366 4.57366 4.57366 4.57366 4.57366 4.57366 2.14491 2.14491 2.14491 2.14491 2.14491 2.14491 2.14491 2.14491 0.646934 0.646934 0.646934 0.646934 0.646934 0.646934 0.646934 0.646934 -0.646935 -0.646935 -0.646935 -0.646935 -0.646935 -0.646935 -0.646935 -0.646935 -2.14491 -2.14491 -2.14491 -2.14491 -2.14491 -2.14491 -2.14491 -2.14491 -4.57366 -4.57366 -4.57366 -4.57366 -4.57366 -4.57366 -4.57366 -4.57366 -8.09934 -8.09934 -8.09934 -8.09934 -8.09934 -8.09934 -8.09934 -8.09934 -12.5108 -12.5108 -12.5108 -12.5108 -12.5108 -12.5108 -12.5108 -12.5108 12.5169 12.5169 12.5169 12.5169 12.5169 12.5169 12.5169 12.5169 8.10626 8.10626 8.10626 8.10626 8.10626 8.10626 8.10626 8.10626 4.57986 4.57986 4.57986 4.57986 4.57986 4.57986 4.57986 4.57986 2.14916 2.14916 2.14916 2.14916 2.14916 2.14916 2.14916 2.14916 0.648443 0.648443 0.648443 0.648443 0.648443 0.648443 0.648443 0.648443 -0.648444 -0.648444 -0.648444 -0.648444 -0.648444 -0.648444 -0.648444 -0.648444 -2.14916 -2.14916 -2.14916 -2.14916 -2.14916 -2.14916 -2.14916 -2.14916 -4.57986 -4.57986 -4.57986 -4.57986 -4.57986 -4.57986 -4.57986 -4.57986 -8.10626 -8.10626 -8.10626 -8.10626 -8.10626 -8.10626 -8.10626 -8.10626 -12.5169 -12.5169 -12.5169 -12.5169 -12.5169 -12.5169 -12.5169 -12.5169 12.531 12.531 12.531 12.531 12.531 12.531 12.531 12.531 8.12216 8.12216 8.12216 8.12216 8.12216 8.12216 8.12216 8.12216 4.59397 4.59397 4.59397 4.59397 4.59397 4.59397 4.59397 4.59397 2.15879 2.15879 2.15879 2.15879 2.15879 2.15879 2.15879 2.15879 0.651852 0.651852 0.651852 0.651852 0.651852 0.651852 0.651852 0.651852 -0.651852 -0.651852 -0.651852 -0.651852 -0.651852 -0.651852 -0.651852 -0.651852 -2.15879 -2.15879 -2.15879 -2.15879 -2.15879 -2.15879 -2.15879 -2.15879 -4.59397 -4.59397 -4.59397 -4.59397 -4.59397 -4.59397 -4.59397 -4.59397 -8.12216 -8.12216 -8.12216 -8.12216 -8.12216 -8.12216 -8.12216 -8.12216 -12.531 -12.531 -12.531 -12.531 -12.531 -12.531 -12.531 -12.531 12.5578 12.5578 12.5578 12.5578 12.5578 12.5578 12.5578 12.5578 8.15165 8.15165 8.15165 8.15165 8.15165 8.15165 8.15165 8.15165 4.61985 4.61985 4.61985 4.61985 4.61985 4.61985 4.61985 4.61985 2.17632 2.17632 2.17632 2.17632 2.17632 2.17632 2.17632 2.17632 0.658036 0.658036 0.658036 0.658036 0.658036 0.658036 0.658036 0.658036 -0.658036 -0.658036 -0.658036 -0.658036 -0.658036 -0.658036 -0.658036 -0.658036 -2.17632 -2.17632 -2.17632 -2.17632 -2.17632 -2.17632 -2.17632 -2.17632 -4.61985 -4.61985 -4.61985 -4.61985 -4.61985 -4.61985 -4.61985 -4.61985 -8.15165 -8.15165 -8.15165 -8.15165 -8.15165 -8.15165 -8.15165 -8.15165 -12.5578 -12.5578 -12.5578 -12.5578 -12.5578 -12.5578 -12.5578 -12.5578 12.6059 12.6059 12.6059 12.6059 12.6059 12.6059 12.6059 12.6059 8.20334 8.20334 8.20334 8.20334 8.20334 8.20334 8.20334 8.20334 4.66455 4.66455 4.66455 4.66455 4.66455 4.66455 4.66455 4.66455 2.20631 2.20631 2.20631 2.20631 2.20631 2.20631 2.20631 2.20631 0.668565 0.668565 0.668565 0.668565 0.668565 0.668565 0.668565 0.668565 -0.668565 -0.668565 -0.668565 -0.668565 -0.668565 -0.668565 -0.668565 -0.668565 -2.20632 -2.20632 -2.20632 -2.20632 -2.20632 -2.20632 -2.20632 -2.20632 -4.66455 -4.66455 -4.66455 -4.66455 -4.66455 -4.66455 -4.66455 -4.66455 -8.20334 -8.20334 -8.20334 -8.20334 -8.20334 -8.20334 -8.20334 -8.20334 -12.6059 -12.6059 -12.6059 -12.6059 -12.6059 -12.6059 -12.6059 -12.6059 12.6898 12.6898 12.6898 12.6898 12.6898 12.6898 12.6898 12.6898 8.29099 8.29099 8.29099 8.29099 8.29099 8.29099 8.29099 8.29099 4.73971 4.73971 4.73971 4.73971 4.73971 4.73971 4.73971 4.73971 2.25628 2.25628 2.25628 2.25628 2.25628 2.25628 2.25628 2.25628 0.686012 0.686012 0.686012 0.686012 0.686012 0.686012 0.686012 0.686012 -0.686012 -0.686012 -0.686012 -0.686012 -0.686012 -0.686012 -0.686012 -0.686012 -2.25628 -2.25628 -2.25628 -2.25628 -2.25628 -2.25628 -2.25628 -2.25628 -4.73971 -4.73971 -4.73971 -4.73971 -4.73971 -4.73971 -4.73971 -4.73971 -8.29099 -8.29099 -8.29099 -8.29099 -8.29099 -8.29099 -8.29099 -8.29099 -12.6898 -12.6898 -12.6898 -12.6898 -12.6898 -12.6898 -12.6898 -12.6898 12.8299 12.8299 12.8299 12.8299 12.8299 12.8299 12.8299 12.8299 8.44059 8.44059 8.44059 8.44059 8.44059 8.44059 8.44059 8.44059 4.86456 4.86456 4.86456 4.86456 4.86456 4.86456 4.86456 4.86456 2.33768 2.33768 2.33768 2.33768 2.33768 2.33768 2.33768 2.33768 0.714141 0.714141 0.714141 0.714141 0.714141 0.714141 0.714141 0.714141 -0.714141 -0.714141 -0.714141 -0.714141 -0.714141 -0.714141 -0.714141 -0.714141 -2.33768 -2.33768 -2.33768 -2.33768 -2.33768 -2.33768 -2.33768 -2.33768 -4.86456 -4.86456 -4.86456 -4.86456 -4.86456 -4.86456 -4.86456 -4.86456 -8.44059 -8.44059 -8.44059 -8.44059 -8.44059 -8.44059 -8.44059 -8.44059 -12.8299 -12.8299 -12.8299 -12.8299 -12.8299 -12.8299 -12.8299 -12.8299 13.1003 13.1003 13.1003 13.1003 13.1003 13.1003 13.1003 13.1003 8.68528 8.68528 8.68528 8.68528 8.68528 8.68528 8.68528 8.68528 5.06486 5.06486 5.06486 5.06486 5.06486 5.06486 5.06486 5.06486 2.46315 2.46315 2.46315 2.46315 2.46315 2.46315 2.46315 2.46315 0.756032 0.756032 0.756032 0.756032 0.756032 0.756032 0.756032 0.756032 -0.756032 -0.756032 -0.756032 -0.756032 -0.756032 -0.756032 -0.756032 -0.756032 -2.46315 -2.46315 -2.46315 -2.46315 -2.46315 -2.46315 -2.46315 -2.46315 -5.06486 -5.06486 -5.06486 -5.06486 -5.06486 -5.06486 -5.06486 -5.06486 -8.68528 -8.68528 -8.68528 -8.68528 -8.68528 -8.68528 -8.68528 -8.68528 -13.1003 -13.1003 -13.1003 -13.1003 -13.1003 -13.1003 -13.1003 -13.1003 13.3468 13.3468 13.3468 13.3468 13.3468 13.3468 13.3468 13.3468 8.9577 8.9577 8.9577 8.9577 8.9577 8.9577 8.9577 8.9577 5.2952 5.2952 5.2952 5.2952 5.2952 5.2952 5.2952 5.2952 2.60657 2.60657 2.60657 2.60657 2.60657 2.60657 2.60657 2.60657 0.802154 0.802154 0.802154 0.802154 0.802154 0.802154 0.802154 0.802154 -0.802154 -0.802154 -0.802154 -0.802154 -0.802154 -0.802154 -0.802154 -0.802154 -2.60657 -2.60657 -2.60657 -2.60657 -2.60657 -2.60657 -2.60657 -2.60657 -5.2952 -5.2952 -5.2952 -5.2952 -5.2952 -5.2952 -5.2952 -5.2952 -8.9577 -8.9577 -8.9577 -8.9577 -8.9577 -8.9577 -8.9577 -8.9577 -13.3468 -13.3468 -13.3468 -13.3468 -13.3468 -13.3468 -13.3468 -13.3468 13.2899 13.2899 13.2899 13.2899 13.2899 13.2899 13.2899 13.2899 9.25899 9.25899 9.25899 9.25899 9.25899 9.25899 9.25899 9.25899 5.28023 5.28023 5.28023 5.28023 5.28023 5.28023 5.28023 5.28023 2.59593 2.59593 2.59593 2.59593 2.59593 2.59593 2.59593 2.59593 0.79777 0.79777 0.79777 0.79777 0.79777 0.79777 0.79777 0.79777 -0.79777 -0.79777 -0.79777 -0.79777 -0.79777 -0.79777 -0.79777 -0.79777 -2.59593 -2.59593 -2.59593 -2.59593 -2.59593 -2.59593 -2.59593 -2.59593 -5.28023 -5.28023 -5.28023 -5.28023 -5.28023 -5.28023 -5.28023 -5.28023 -9.25899 -9.25899 -9.25899 -9.25899 -9.25899 -9.25899 -9.25899 -9.25899 -13.2899 -13.2899 -13.2899 -13.2899 -13.2899 -13.2899 -13.2899 -13.2899 5.24273 5.24273 5.24273 5.24273 5.24273 5.24273 5.24273 5.24273 5.28055 5.28055 5.28055 5.28055 5.28055 5.28055 5.28055 5.28055 3.59105 3.59105 3.59105 3.59105 3.59105 3.59105 3.59105 3.59105 1.96435 1.96435 1.96435 1.96435 1.96435 1.96435 1.96435 1.96435 0.621402 0.621402 0.621402 0.621402 0.621402 0.621402 0.621402 0.621402 -0.621402 -0.621402 -0.621402 -0.621402 -0.621402 -0.621402 -0.621402 -0.621402 -1.96435 -1.96435 -1.96435 -1.96435 -1.96435 -1.96435 -1.96435 -1.96435 -3.59105 -3.59105 -3.59105 -3.59105 -3.59105 -3.59105 -3.59105 -3.59105 -5.28055 -5.28055 -5.28055 -5.28055 -5.28055 -5.28055 -5.28055 -5.28055 -5.24273 -5.24273 -5.24273 -5.24273 -5.24273 -5.24273 -5.24273 -5.24273 5.24777 5.24777 5.24777 5.24777 5.24777 5.24777 5.24777 5.24777 5.28678 5.28678 5.28678 5.28678 5.28678 5.28678 5.28678 5.28678 3.59678 3.59678 3.59678 3.59678 3.59678 3.59678 3.59678 3.59678 1.9683 1.9683 1.9683 1.9683 1.9683 1.9683 1.9683 1.9683 0.622805 0.622805 0.622805 0.622805 0.622805 0.622805 0.622805 0.622805 -0.622805 -0.622805 -0.622805 -0.622805 -0.622805 -0.622805 -0.622805 -0.622805 -1.9683 -1.9683 -1.9683 -1.9683 -1.9683 -1.9683 -1.9683 -1.9683 -3.59678 -3.59678 -3.59678 -3.59678 -3.59678 -3.59678 -3.59678 -3.59678 -5.28678 -5.28678 -5.28678 -5.28678 -5.28678 -5.28678 -5.28678 -5.28678 -5.24777 -5.24777 -5.24777 -5.24777 -5.24777 -5.24777 -5.24777 -5.24777 5.25956 5.25956 5.25956 5.25956 5.25956 5.25956 5.25956 5.25956 5.30093 5.30093 5.30093 5.30093 5.30093 5.30093 5.30093 5.30093 3.60961 3.60961 3.60961 3.60961 3.60961 3.60961 3.60961 3.60961 1.97709 1.97709 1.97709 1.97709 1.97709 1.97709 1.97709 1.97709 0.625914 0.625914 0.625914 0.625914 0.625914 0.625914 0.625914 0.625914 -0.625914 -0.625914 -0.625914 -0.625914 -0.625914 -0.625914 -0.625914 -0.625914 -1.97709 -1.97709 -1.97709 -1.97709 -1.97709 -1.97709 -1.97709 -1.97709 -3.60961 -3.60961 -3.60961 -3.60961 -3.60961 -3.60961 -3.60961 -3.60961 -5.30093 -5.30093 -5.30093 -5.30093 -5.30093 -5.30093 -5.30093 -5.30093 -5.25956 -5.25956 -5.25956 -5.25956 -5.25956 -5.25956 -5.25956 -5.25956 5.2819 5.2819 5.2819 5.2819 5.2819 5.2819 5.2819 5.2819 5.32667 5.32667 5.32667 5.32667 5.32667 5.32667 5.32667 5.32667 3.63249 3.63249 3.63249 3.63249 3.63249 3.63249 3.63249 3.63249 1.99256 1.99256 1.99256 1.99256 1.99256 1.99256 1.99256 1.99256 0.631361 0.631361 0.631361 0.631361 0.631361 0.631361 0.631361 0.631361 -0.631361 -0.631361 -0.631361 -0.631361 -0.631361 -0.631361 -0.631361 -0.631361 -1.99256 -1.99256 -1.99256 -1.99256 -1.99256 -1.99256 -1.99256 -1.99256 -3.63249 -3.63249 -3.63249 -3.63249 -3.63249 -3.63249 -3.63249 -3.63249 -5.32667 -5.32667 -5.32667 -5.32667 -5.32667 -5.32667 -5.32667 -5.32667 -5.2819 -5.2819 -5.2819 -5.2819 -5.2819 -5.2819 -5.2819 -5.2819 5.32109 5.32109 5.32109 5.32109 5.32109 5.32109 5.32109 5.32109 5.36999 5.36999 5.36999 5.36999 5.36999 5.36999 5.36999 5.36999 3.67007 3.67007 3.67007 3.67007 3.67007 3.67007 3.67007 3.67007 2.01763 2.01763 2.01763 2.01763 2.01763 2.01763 2.01763 2.01763 0.640124 0.640124 0.640124 0.640124 0.640124 0.640124 0.640124 0.640124 -0.640124 -0.640124 -0.640124 -0.640124 -0.640124 -0.640124 -0.640124 -0.640124 -2.01763 -2.01763 -2.01763 -2.01763 -2.01763 -2.01763 -2.01763 -2.01763 -3.67007 -3.67007 -3.67007 -3.67007 -3.67007 -3.67007 -3.67007 -3.67007 -5.36999 -5.36999 -5.36999 -5.36999 -5.36999 -5.36999 -5.36999 -5.36999 -5.32109 -5.32109 -5.32109 -5.32109 -5.32109 -5.32109 -5.32109 -5.32109 5.38716 5.38716 5.38716 5.38716 5.38716 5.38716 5.38716 5.38716 5.43964 5.43964 5.43964 5.43964 5.43964 5.43964 5.43964 5.43964 3.72867 3.72867 3.72867 3.72867 3.72867 3.72867 3.72867 3.72867 2.05598 2.05598 2.05598 2.05598 2.05598 2.05598 2.05598 2.05598 0.653411 0.653411 0.653411 0.653411 0.653411 0.653411 0.653411 0.653411 -0.653411 -0.653411 -0.653411 -0.653411 -0.653411 -0.653411 -0.653411 -0.653411 -2.05598 -2.05598 -2.05598 -2.05598 -2.05598 -2.05598 -2.05598 -2.05598 -3.72867 -3.72867 -3.72867 -3.72867 -3.72867 -3.72867 -3.72867 -3.72867 -5.43964 -5.43964 -5.43964 -5.43964 -5.43964 -5.43964 -5.43964 -5.43964 -5.38716 -5.38716 -5.38716 -5.38716 -5.38716 -5.38716 -5.38716 -5.38716 5.49316 5.49316 5.49316 5.49316 5.49316 5.49316 5.49316 5.49316 5.54615 5.54615 5.54615 5.54615 5.54615 5.54615 5.54615 5.54615 3.81373 3.81373 3.81373 3.81373 3.81373 3.81373 3.81373 3.81373 2.1101 2.1101 2.1101 2.1101 2.1101 2.1101 2.1101 2.1101 0.671952 0.671952 0.671952 0.671952 0.671952 0.671952 0.671952 0.671952 -0.671952 -0.671952 -0.671952 -0.671952 -0.671952 -0.671952 -0.671952 -0.671952 -2.1101 -2.1101 -2.1101 -2.1101 -2.1101 -2.1101 -2.1101 -2.1101 -3.81373 -3.81373 -3.81373 -3.81373 -3.81373 -3.81373 -3.81373 -3.81373 -5.54615 -5.54615 -5.54615 -5.54615 -5.54615 -5.54615 -5.54615 -5.54615 -5.49316 -5.49316 -5.49316 -5.49316 -5.49316 -5.49316 -5.49316 -5.49316 5.64797 5.64797 5.64797 5.64797 5.64797 5.64797 5.64797 5.64797 5.68876 5.68876 5.68876 5.68876 5.68876 5.68876 5.68876 5.68876 3.91282 3.91282 3.91282 3.91282 3.91282 3.91282 3.91282 3.91282 2.17055 2.17055 2.17055 2.17055 2.17055 2.17055 2.17055 2.17055 0.692534 0.692534 0.692534 0.692534 0.692534 0.692534 0.692534 0.692534 -0.692534 -0.692534 -0.692534 -0.692534 -0.692534 -0.692534 -0.692534 -0.692534 -2.17055 -2.17055 -2.17055 -2.17055 -2.17055 -2.17055 -2.17055 -2.17055 -3.91282 -3.91282 -3.91282 -3.91282 -3.91282 -3.91282 -3.91282 -3.91282 -5.68876 -5.68876 -5.68876 -5.68876 -5.68876 -5.68876 -5.68876 -5.68876 -5.64797 -5.64797 -5.64797 -5.64797 -5.64797 -5.64797 -5.64797 -5.64797 5.96005 5.96005 5.96005 5.96005 5.96005 5.96005 5.96005 5.96005 5.82606 5.82606 5.82606 5.82606 5.82606 5.82606 5.82606 5.82606 3.96027 3.96027 3.96027 3.96027 3.96027 3.96027 3.96027 3.96027 2.20017 2.20017 2.20017 2.20017 2.20017 2.20017 2.20017 2.20017 0.703679 0.703679 0.703679 0.703679 0.703679 0.703679 0.703679 0.703679 -0.703679 -0.703679 -0.703679 -0.703679 -0.703679 -0.703679 -0.703679 -0.703679 -2.20017 -2.20017 -2.20017 -2.20017 -2.20017 -2.20017 -2.20017 -2.20017 -3.96027 -3.96027 -3.96027 -3.96027 -3.96027 -3.96027 -3.96027 -3.96027 -5.82606 -5.82606 -5.82606 -5.82606 -5.82606 -5.82606 -5.82606 -5.82606 -5.96005 -5.96005 -5.96005 -5.96005 -5.96005 -5.96005 -5.96005 -5.96005 6.34945 6.34945 6.34945 6.34945 6.34945 6.34945 6.34945 6.34945 5.858 5.858 5.858 5.858 5.858 5.858 5.858 5.858 3.94582 3.94582 3.94582 3.94582 3.94582 3.94582 3.94582 3.94582 2.17662 2.17662 2.17662 2.17662 2.17662 2.17662 2.17662 2.17662 0.693588 0.693588 0.693588 0.693588 0.693588 0.693588 0.693588 0.693588 -0.693588 -0.693588 -0.693588 -0.693588 -0.693588 -0.693588 -0.693588 -0.693588 -2.17662 -2.17662 -2.17662 -2.17662 -2.17662 -2.17662 -2.17662 -2.17662 -3.94582 -3.94582 -3.94582 -3.94582 -3.94582 -3.94582 -3.94582 -3.94582 -5.858 -5.858 -5.858 -5.858 -5.858 -5.858 -5.858 -5.858 -6.34945 -6.34945 -6.34945 -6.34945 -6.34945 -6.34945 -6.34945 -6.34945 2.67331 2.67331 2.67331 2.67331 2.67331 2.67331 2.67331 2.67331 2.96136 2.96136 2.96136 2.96136 2.96136 2.96136 2.96136 2.96136 2.3842 2.3842 2.3842 2.3842 2.3842 2.3842 2.3842 2.3842 1.46478 1.46478 1.46478 1.46478 1.46478 1.46478 1.46478 1.46478 0.48621 0.48621 0.48621 0.48621 0.48621 0.48621 0.48621 0.48621 -0.48621 -0.48621 -0.48621 -0.48621 -0.48621 -0.48621 -0.48621 -0.48621 -1.46478 -1.46478 -1.46478 -1.46478 -1.46478 -1.46478 -1.46478 -1.46478 -2.3842 -2.3842 -2.3842 -2.3842 -2.3842 -2.3842 -2.3842 -2.3842 -2.96136 -2.96136 -2.96136 -2.96136 -2.96136 -2.96136 -2.96136 -2.96136 -2.67331 -2.67331 -2.67331 -2.67331 -2.67331 -2.67331 -2.67331 -2.67331 2.67759 2.67759 2.67759 2.67759 2.67759 2.67759 2.67759 2.67759 2.96683 2.96683 2.96683 2.96683 2.96683 2.96683 2.96683 2.96683 2.38926 2.38926 2.38926 2.38926 2.38926 2.38926 2.38926 2.38926 1.46828 1.46828 1.46828 1.46828 1.46828 1.46828 1.46828 1.46828 0.487452 0.487452 0.487452 0.487452 0.487452 0.487452 0.487452 0.487452 -0.487452 -0.487452 -0.487452 -0.487452 -0.487452 -0.487452 -0.487452 -0.487452 -1.46828 -1.46828 -1.46828 -1.46828 -1.46828 -1.46828 -1.46828 -1.46828 -2.38926 -2.38926 -2.38926 -2.38926 -2.38926 -2.38926 -2.38926 -2.38926 -2.96683 -2.96683 -2.96683 -2.96683 -2.96683 -2.96683 -2.96683 -2.96683 -2.67759 -2.67759 -2.67759 -2.67759 -2.67759 -2.67759 -2.67759 -2.67759 2.68768 2.68768 2.68768 2.68768 2.68768 2.68768 2.68768 2.68768 2.97914 2.97914 2.97914 2.97914 2.97914 2.97914 2.97914 2.97914 2.40046 2.40046 2.40046 2.40046 2.40046 2.40046 2.40046 2.40046 1.47593 1.47593 1.47593 1.47593 1.47593 1.47593 1.47593 1.47593 0.490154 0.490154 0.490154 0.490154 0.490154 0.490154 0.490154 0.490154 -0.490154 -0.490154 -0.490154 -0.490154 -0.490154 -0.490154 -0.490154 -0.490154 -1.47593 -1.47593 -1.47593 -1.47593 -1.47593 -1.47593 -1.47593 -1.47593 -2.40046 -2.40046 -2.40046 -2.40046 -2.40046 -2.40046 -2.40046 -2.40046 -2.97914 -2.97914 -2.97914 -2.97914 -2.97914 -2.97914 -2.97914 -2.97914 -2.68768 -2.68768 -2.68768 -2.68768 -2.68768 -2.68768 -2.68768 -2.68768 2.70681 2.70681 2.70681 2.70681 2.70681 2.70681 2.70681 2.70681 3.00117 3.00117 3.00117 3.00117 3.00117 3.00117 3.00117 3.00117 2.41988 2.41988 2.41988 2.41988 2.41988 2.41988 2.41988 2.41988 1.48897 1.48897 1.48897 1.48897 1.48897 1.48897 1.48897 1.48897 0.494724 0.494724 0.494724 0.494724 0.494724 0.494724 0.494724 0.494724 -0.494725 -0.494725 -0.494725 -0.494725 -0.494725 -0.494725 -0.494725 -0.494725 -1.48897 -1.48897 -1.48897 -1.48897 -1.48897 -1.48897 -1.48897 -1.48897 -2.41988 -2.41988 -2.41988 -2.41988 -2.41988 -2.41988 -2.41988 -2.41988 -3.00117 -3.00117 -3.00117 -3.00117 -3.00117 -3.00117 -3.00117 -3.00117 -2.70681 -2.70681 -2.70681 -2.70681 -2.70681 -2.70681 -2.70681 -2.70681 2.74033 2.74033 2.74033 2.74033 2.74033 2.74033 2.74033 2.74033 3.03737 3.03737 3.03737 3.03737 3.03737 3.03737 3.03737 3.03737 2.45055 2.45055 2.45055 2.45055 2.45055 2.45055 2.45055 2.45055 1.50906 1.50906 1.50906 1.50906 1.50906 1.50906 1.50906 1.50906 0.501677 0.501677 0.501677 0.501677 0.501677 0.501677 0.501677 0.501677 -0.501677 -0.501677 -0.501677 -0.501677 -0.501677 -0.501677 -0.501677 -0.501677 -1.50906 -1.50906 -1.50906 -1.50906 -1.50906 -1.50906 -1.50906 -1.50906 -2.45055 -2.45055 -2.45055 -2.45055 -2.45055 -2.45055 -2.45055 -2.45055 -3.03737 -3.03737 -3.03737 -3.03737 -3.03737 -3.03737 -3.03737 -3.03737 -2.74033 -2.74033 -2.74033 -2.74033 -2.74033 -2.74033 -2.74033 -2.74033 2.7965 2.7965 2.7965 2.7965 2.7965 2.7965 2.7965 2.7965 3.09348 3.09348 3.09348 3.09348 3.09348 3.09348 3.09348 3.09348 2.49545 2.49545 2.49545 2.49545 2.49545 2.49545 2.49545 2.49545 1.53734 1.53734 1.53734 1.53734 1.53734 1.53734 1.53734 1.53734 0.511287 0.511287 0.511287 0.511287 0.511287 0.511287 0.511287 0.511287 -0.511287 -0.511287 -0.511287 -0.511287 -0.511287 -0.511287 -0.511287 -0.511287 -1.53734 -1.53734 -1.53734 -1.53734 -1.53734 -1.53734 -1.53734 -1.53734 -2.49545 -2.49545 -2.49545 -2.49545 -2.49545 -2.49545 -2.49545 -2.49545 -3.09348 -3.09348 -3.09348 -3.09348 -3.09348 -3.09348 -3.09348 -3.09348 -2.7965 -2.7965 -2.7965 -2.7965 -2.7965 -2.7965 -2.7965 -2.7965 2.88538 2.88538 2.88538 2.88538 2.88538 2.88538 2.88538 2.88538 3.17495 3.17495 3.17495 3.17495 3.17495 3.17495 3.17495 3.17495 2.55424 2.55424 2.55424 2.55424 2.55424 2.55424 2.55424 2.55424 1.57153 1.57153 1.57153 1.57153 1.57153 1.57153 1.57153 1.57153 0.522501 0.522501 0.522501 0.522501 0.522501 0.522501 0.522501 0.522501 -0.522501 -0.522501 -0.522501 -0.522501 -0.522501 -0.522501 -0.522501 -0.522501 -1.57153 -1.57153 -1.57153 -1.57153 -1.57153 -1.57153 -1.57153 -1.57153 -2.55424 -2.55424 -2.55424 -2.55424 -2.55424 -2.55424 -2.55424 -2.55424 -3.17495 -3.17495 -3.17495 -3.17495 -3.17495 -3.17495 -3.17495 -3.17495 -2.88538 -2.88538 -2.88538 -2.88538 -2.88538 -2.88538 -2.88538 -2.88538 3.03196 3.03196 3.03196 3.03196 3.03196 3.03196 3.03196 3.03196 3.28519 3.28519 3.28519 3.28519 3.28519 3.28519 3.28519 3.28519 2.6152 2.6152 2.6152 2.6152 2.6152 2.6152 2.6152 2.6152 1.60066 1.60066 1.60066 1.60066 1.60066 1.60066 1.60066 1.60066 0.531398 0.531398 0.531398 0.531398 0.531398 0.531398 0.531398 0.531398 -0.531398 -0.531398 -0.531398 -0.531398 -0.531398 -0.531398 -0.531398 -0.531398 -1.60066 -1.60066 -1.60066 -1.60066 -1.60066 -1.60066 -1.60066 -1.60066 -2.6152 -2.6152 -2.6152 -2.6152 -2.6152 -2.6152 -2.6152 -2.6152 -3.28519 -3.28519 -3.28519 -3.28519 -3.28519 -3.28519 -3.28519 -3.28519 -3.03196 -3.03196 -3.03196 -3.03196 -3.03196 -3.03196 -3.03196 -3.03196 3.31452 3.31452 3.31452 3.31452 3.31452 3.31452 3.31452 3.31452 3.40895 3.40895 3.40895 3.40895 3.40895 3.40895 3.40895 3.40895 2.64354 2.64354 2.64354 2.64354 2.64354 2.64354 2.64354 2.64354 1.60556 1.60556 1.60556 1.60556 1.60556 1.60556 1.60556 1.60556 0.532288 0.532288 0.532288 0.532288 0.532288 0.532288 0.532288 0.532288 -0.532288 -0.532288 -0.532288 -0.532288 -0.532288 -0.532288 -0.532288 -0.532288 -1.60556 -1.60556 -1.60556 -1.60556 -1.60556 -1.60556 -1.60556 -1.60556 -2.64354 -2.64354 -2.64354 -2.64354 -2.64354 -2.64354 -2.64354 -2.64354 -3.40895 -3.40895 -3.40895 -3.40895 -3.40895 -3.40895 -3.40895 -3.40895 -3.31452 -3.31452 -3.31452 -3.31452 -3.31452 -3.31452 -3.31452 -3.31452 3.51586 3.51586 3.51586 3.51586 3.51586 3.51586 3.51586 3.51586 3.39625 3.39625 3.39625 3.39625 3.39625 3.39625 3.39625 3.39625 2.62255 2.62255 2.62255 2.62255 2.62255 2.62255 2.62255 2.62255 1.594 1.594 1.594 1.594 1.594 1.594 1.594 1.594 0.527778 0.527778 0.527778 0.527778 0.527778 0.527778 0.527778 0.527778 -0.527778 -0.527778 -0.527778 -0.527778 -0.527778 -0.527778 -0.527778 -0.527778 -1.594 -1.594 -1.594 -1.594 -1.594 -1.594 -1.594 -1.594 -2.62255 -2.62255 -2.62255 -2.62255 -2.62255 -2.62255 -2.62255 -2.62255 -3.39625 -3.39625 -3.39625 -3.39625 -3.39625 -3.39625 -3.39625 -3.39625 -3.51586 -3.51586 -3.51586 -3.51586 -3.51586 -3.51586 -3.51586 -3.51586 1.26589 1.26589 1.26589 1.26589 1.26589 1.26589 1.26589 1.26589 1.61644 1.61644 1.61644 1.61644 1.61644 1.61644 1.61644 1.61644 1.44764 1.44764 1.44764 1.44764 1.44764 1.44764 1.44764 1.44764 0.960171 0.960171 0.960171 0.960171 0.960171 0.960171 0.960171 0.960171 0.331953 0.331953 0.331953 0.331953 0.331953 0.331953 0.331953 0.331953 -0.331953 -0.331953 -0.331953 -0.331953 -0.331953 -0.331953 -0.331953 -0.331953 -0.960171 -0.960171 -0.960171 -0.960171 -0.960171 -0.960171 -0.960171 -0.960171 -1.44764 -1.44764 -1.44764 -1.44764 -1.44764 -1.44764 -1.44764 -1.44764 -1.61644 -1.61644 -1.61644 -1.61644 -1.61644 -1.61644 -1.61644 -1.61644 -1.26589 -1.26589 -1.26589 -1.26589 -1.26589 -1.26589 -1.26589 -1.26589 1.26983 1.26983 1.26983 1.26983 1.26983 1.26983 1.26983 1.26983 1.62136 1.62136 1.62136 1.62136 1.62136 1.62136 1.62136 1.62136 1.45214 1.45214 1.45214 1.45214 1.45214 1.45214 1.45214 1.45214 0.963259 0.963259 0.963259 0.963259 0.963259 0.963259 0.963259 0.963259 0.333045 0.333045 0.333045 0.333045 0.333045 0.333045 0.333045 0.333045 -0.333045 -0.333045 -0.333045 -0.333045 -0.333045 -0.333045 -0.333045 -0.333045 -0.963259 -0.963259 -0.963259 -0.963259 -0.963259 -0.963259 -0.963259 -0.963259 -1.45214 -1.45214 -1.45214 -1.45214 -1.45214 -1.45214 -1.45214 -1.45214 -1.62136 -1.62136 -1.62136 -1.62136 -1.62136 -1.62136 -1.62136 -1.62136 -1.26983 -1.26983 -1.26983 -1.26983 -1.26983 -1.26983 -1.26983 -1.26983 1.27918 1.27918 1.27918 1.27918 1.27918 1.27918 1.27918 1.27918 1.6324 1.6324 1.6324 1.6324 1.6324 1.6324 1.6324 1.6324 1.46199 1.46199 1.46199 1.46199 1.46199 1.46199 1.46199 1.46199 0.96992 0.96992 0.96992 0.96992 0.96992 0.96992 0.96992 0.96992 0.335386 0.335386 0.335386 0.335386 0.335386 0.335386 0.335386 0.335386 -0.335386 -0.335386 -0.335386 -0.335386 -0.335386 -0.335386 -0.335386 -0.335386 -0.96992 -0.96992 -0.96992 -0.96992 -0.96992 -0.96992 -0.96992 -0.96992 -1.46199 -1.46199 -1.46199 -1.46199 -1.46199 -1.46199 -1.46199 -1.46199 -1.6324 -1.6324 -1.6324 -1.6324 -1.6324 -1.6324 -1.6324 -1.6324 -1.27918 -1.27918 -1.27918 -1.27918 -1.27918 -1.27918 -1.27918 -1.27918 1.297 1.297 1.297 1.297 1.297 1.297 1.297 1.297 1.65199 1.65199 1.65199 1.65199 1.65199 1.65199 1.65199 1.65199 1.47882 1.47882 1.47882 1.47882 1.47882 1.47882 1.47882 1.47882 0.981036 0.981036 0.981036 0.981036 0.981036 0.981036 0.981036 0.981036 0.339248 0.339248 0.339248 0.339248 0.339248 0.339248 0.339248 0.339248 -0.339248 -0.339248 -0.339248 -0.339248 -0.339248 -0.339248 -0.339248 -0.339248 -0.981036 -0.981036 -0.981036 -0.981036 -0.981036 -0.981036 -0.981036 -0.981036 -1.47882 -1.47882 -1.47882 -1.47882 -1.47882 -1.47882 -1.47882 -1.47882 -1.65199 -1.65199 -1.65199 -1.65199 -1.65199 -1.65199 -1.65199 -1.65199 -1.297 -1.297 -1.297 -1.297 -1.297 -1.297 -1.297 -1.297 1.32844 1.32844 1.32844 1.32844 1.32844 1.32844 1.32844 1.32844 1.68382 1.68382 1.68382 1.68382 1.68382 1.68382 1.68382 1.68382 1.50475 1.50475 1.50475 1.50475 1.50475 1.50475 1.50475 1.50475 0.997589 0.997589 0.997589 0.997589 0.997589 0.997589 0.997589 0.997589 0.344899 0.344899 0.344899 0.344899 0.344899 0.344899 0.344899 0.344899 -0.344899 -0.344899 -0.344899 -0.344899 -0.344899 -0.344899 -0.344899 -0.344899 -0.997589 -0.997589 -0.997589 -0.997589 -0.997589 -0.997589 -0.997589 -0.997589 -1.50475 -1.50475 -1.50475 -1.50475 -1.50475 -1.50475 -1.50475 -1.50475 -1.68382 -1.68382 -1.68382 -1.68382 -1.68382 -1.68382 -1.68382 -1.68382 -1.32844 -1.32844 -1.32844 -1.32844 -1.32844 -1.32844 -1.32844 -1.32844 1.38132 1.38132 1.38132 1.38132 1.38132 1.38132 1.38132 1.38132 1.7325 1.7325 1.7325 1.7325 1.7325 1.7325 1.7325 1.7325 1.54158 1.54158 1.54158 1.54158 1.54158 1.54158 1.54158 1.54158 1.01983 1.01983 1.01983 1.01983 1.01983 1.01983 1.01983 1.01983 0.352253 0.352253 0.352253 0.352253 0.352253 0.352253 0.352253 0.352253 -0.352253 -0.352253 -0.352253 -0.352253 -0.352253 -0.352253 -0.352253 -0.352253 -1.01983 -1.01983 -1.01983 -1.01983 -1.01983 -1.01983 -1.01983 -1.01983 -1.54158 -1.54158 -1.54158 -1.54158 -1.54158 -1.54158 -1.54158 -1.54158 -1.7325 -1.7325 -1.7325 -1.7325 -1.7325 -1.7325 -1.7325 -1.7325 -1.38132 -1.38132 -1.38132 -1.38132 -1.38132 -1.38132 -1.38132 -1.38132 1.4684 1.4684 1.4684 1.4684 1.4684 1.4684 1.4684 1.4684 1.80295 1.80295 1.80295 1.80295 1.80295 1.80295 1.80295 1.80295 1.58889 1.58889 1.58889 1.58889 1.58889 1.58889 1.58889 1.58889 1.04533 1.04533 1.04533 1.04533 1.04533 1.04533 1.04533 1.04533 0.360142 0.360142 0.360142 0.360142 0.360142 0.360142 0.360142 0.360142 -0.360142 -0.360142 -0.360142 -0.360142 -0.360142 -0.360142 -0.360142 -0.360142 -1.04533 -1.04533 -1.04533 -1.04533 -1.04533 -1.04533 -1.04533 -1.04533 -1.58889 -1.58889 -1.58889 -1.58889 -1.58889 -1.58889 -1.58889 -1.58889 -1.80295 -1.80295 -1.80295 -1.80295 -1.80295 -1.80295 -1.80295 -1.80295 -1.4684 -1.4684 -1.4684 -1.4684 -1.4684 -1.4684 -1.4684 -1.4684 1.61194 1.61194 1.61194 1.61194 1.61194 1.61194 1.61194 1.61194 1.89742 1.89742 1.89742 1.89742 1.89742 1.89742 1.89742 1.89742 1.63874 1.63874 1.63874 1.63874 1.63874 1.63874 1.63874 1.63874 1.06632 1.06632 1.06632 1.06632 1.06632 1.06632 1.06632 1.06632 0.365764 0.365764 0.365764 0.365764 0.365764 0.365764 0.365764 0.365764 -0.365764 -0.365764 -0.365764 -0.365764 -0.365764 -0.365764 -0.365764 -0.365764 -1.06632 -1.06632 -1.06632 -1.06632 -1.06632 -1.06632 -1.06632 -1.06632 -1.63874 -1.63874 -1.63874 -1.63874 -1.63874 -1.63874 -1.63874 -1.63874 -1.89742 -1.89742 -1.89742 -1.89742 -1.89742 -1.89742 -1.89742 -1.89742 -1.61194 -1.61194 -1.61194 -1.61194 -1.61194 -1.61194 -1.61194 -1.61194 1.82383 1.82383 1.82383 1.82383 1.82383 1.82383 1.82383 1.82383 1.99461 1.99461 1.99461 1.99461 1.99461 1.99461 1.99461 1.99461 1.66593 1.66593 1.66593 1.66593 1.66593 1.66593 1.66593 1.66593 1.07024 1.07024 1.07024 1.07024 1.07024 1.07024 1.07024 1.07024 0.365709 0.365709 0.365709 0.365709 0.365709 0.365709 0.365709 0.365709 -0.365709 -0.365709 -0.365709 -0.365709 -0.365709 -0.365709 -0.365709 -0.365709 -1.07024 -1.07024 -1.07024 -1.07024 -1.07024 -1.07024 -1.07024 -1.07024 -1.66593 -1.66593 -1.66593 -1.66593 -1.66593 -1.66593 -1.66593 -1.66593 -1.99461 -1.99461 -1.99461 -1.99461 -1.99461 -1.99461 -1.99461 -1.99461 -1.82383 -1.82383 -1.82383 -1.82383 -1.82383 -1.82383 -1.82383 -1.82383 1.95578 1.95578 1.95578 1.95578 1.95578 1.95578 1.95578 1.95578 1.98413 1.98413 1.98413 1.98413 1.98413 1.98413 1.98413 1.98413 1.64097 1.64097 1.64097 1.64097 1.64097 1.64097 1.64097 1.64097 1.05747 1.05747 1.05747 1.05747 1.05747 1.05747 1.05747 1.05747 0.361923 0.361923 0.361923 0.361923 0.361923 0.361923 0.361923 0.361923 -0.361923 -0.361923 -0.361923 -0.361923 -0.361923 -0.361923 -0.361923 -0.361923 -1.05747 -1.05747 -1.05747 -1.05747 -1.05747 -1.05747 -1.05747 -1.05747 -1.64097 -1.64097 -1.64097 -1.64097 -1.64097 -1.64097 -1.64097 -1.64097 -1.98413 -1.98413 -1.98413 -1.98413 -1.98413 -1.98413 -1.98413 -1.98413 -1.95578 -1.95578 -1.95578 -1.95578 -1.95578 -1.95578 -1.95578 -1.95578 0.490889 0.490889 0.490889 0.490889 0.490889 0.490889 0.490889 0.490889 0.812734 0.812734 0.812734 0.812734 0.812734 0.812734 0.812734 0.812734 0.810773 0.810773 0.810773 0.810773 0.810773 0.810773 0.810773 0.810773 0.573725 0.573725 0.573725 0.573725 0.573725 0.573725 0.573725 0.573725 0.204876 0.204876 0.204876 0.204876 0.204876 0.204876 0.204876 0.204876 -0.204876 -0.204876 -0.204876 -0.204876 -0.204876 -0.204876 -0.204876 -0.204876 -0.573725 -0.573725 -0.573725 -0.573725 -0.573725 -0.573725 -0.573725 -0.573725 -0.810773 -0.810773 -0.810773 -0.810773 -0.810773 -0.810773 -0.810773 -0.810773 -0.812734 -0.812734 -0.812734 -0.812734 -0.812734 -0.812734 -0.812734 -0.812734 -0.49089 -0.49089 -0.49089 -0.49089 -0.49089 -0.49089 -0.49089 -0.49089 0.494819 0.494819 0.494819 0.494819 0.494819 0.494819 0.494819 0.494819 0.81736 0.81736 0.81736 0.81736 0.81736 0.81736 0.81736 0.81736 0.814898 0.814898 0.814898 0.814898 0.814898 0.814898 0.814898 0.814898 0.576516 0.576516 0.576516 0.576516 0.576516 0.576516 0.576516 0.576516 0.205858 0.205858 0.205858 0.205858 0.205858 0.205858 0.205858 0.205858 -0.205858 -0.205858 -0.205858 -0.205858 -0.205858 -0.205858 -0.205858 -0.205858 -0.576516 -0.576516 -0.576516 -0.576516 -0.576516 -0.576516 -0.576516 -0.576516 -0.814898 -0.814898 -0.814898 -0.814898 -0.814898 -0.814898 -0.814898 -0.814898 -0.817361 -0.817361 -0.817361 -0.817361 -0.817361 -0.817361 -0.817361 -0.817361 -0.494819 -0.494819 -0.494819 -0.494819 -0.494819 -0.494819 -0.494819 -0.494819 0.504097 0.504097 0.504097 0.504097 0.504097 0.504097 0.504097 0.504097 0.827698 0.827698 0.827698 0.827698 0.827698 0.827698 0.827698 0.827698 0.823865 0.823865 0.823865 0.823865 0.823865 0.823865 0.823865 0.823865 0.582491 0.582491 0.582491 0.582491 0.582491 0.582491 0.582491 0.582491 0.207944 0.207944 0.207944 0.207944 0.207944 0.207944 0.207944 0.207944 -0.207944 -0.207944 -0.207944 -0.207944 -0.207944 -0.207944 -0.207944 -0.207944 -0.582491 -0.582491 -0.582491 -0.582491 -0.582491 -0.582491 -0.582491 -0.582491 -0.823865 -0.823865 -0.823865 -0.823865 -0.823865 -0.823865 -0.823865 -0.823865 -0.827699 -0.827699 -0.827699 -0.827699 -0.827699 -0.827699 -0.827699 -0.827699 -0.504098 -0.504098 -0.504098 -0.504098 -0.504098 -0.504098 -0.504098 -0.504098 0.521748 0.521748 0.521748 0.521748 0.521748 0.521748 0.521748 0.521748 0.845925 0.845925 0.845925 0.845925 0.845925 0.845925 0.845925 0.845925 0.839021 0.839021 0.839021 0.839021 0.839021 0.839021 0.839021 0.839021 0.592336 0.592336 0.592336 0.592336 0.592336 0.592336 0.592336 0.592336 0.211338 0.211338 0.211338 0.211338 0.211338 0.211338 0.211338 0.211338 -0.211339 -0.211339 -0.211339 -0.211339 -0.211339 -0.211339 -0.211339 -0.211339 -0.592336 -0.592336 -0.592336 -0.592336 -0.592336 -0.592336 -0.592336 -0.592336 -0.839021 -0.839021 -0.839021 -0.839021 -0.839021 -0.839021 -0.839021 -0.839021 -0.845925 -0.845925 -0.845925 -0.845925 -0.845925 -0.845925 -0.845925 -0.845925 -0.521748 -0.521748 -0.521748 -0.521748 -0.521748 -0.521748 -0.521748 -0.521748 0.552737 0.552737 0.552737 0.552737 0.552737 0.552737 0.552737 0.552737 0.87525 0.87525 0.87525 0.87525 0.87525 0.87525 0.87525 0.87525 0.862072 0.862072 0.862072 0.862072 0.862072 0.862072 0.862072 0.862072 0.60676 0.60676 0.60676 0.60676 0.60676 0.60676 0.60676 0.60676 0.216215 0.216215 0.216215 0.216215 0.216215 0.216215 0.216215 0.216215 -0.216215 -0.216215 -0.216215 -0.216215 -0.216215 -0.216215 -0.216215 -0.216215 -0.606761 -0.606761 -0.606761 -0.606761 -0.606761 -0.606761 -0.606761 -0.606761 -0.862072 -0.862072 -0.862072 -0.862072 -0.862072 -0.862072 -0.862072 -0.862072 -0.87525 -0.87525 -0.87525 -0.87525 -0.87525 -0.87525 -0.87525 -0.87525 -0.552738 -0.552738 -0.552738 -0.552738 -0.552738 -0.552738 -0.552738 -0.552738 0.604595 0.604595 0.604595 0.604595 0.604595 0.604595 0.604595 0.604595 0.919582 0.919582 0.919582 0.919582 0.919582 0.919582 0.919582 0.919582 0.894377 0.894377 0.894377 0.894377 0.894377 0.894377 0.894377 0.894377 0.625837 0.625837 0.625837 0.625837 0.625837 0.625837 0.625837 0.625837 0.222447 0.222447 0.222447 0.222447 0.222447 0.222447 0.222447 0.222447 -0.222447 -0.222447 -0.222447 -0.222447 -0.222447 -0.222447 -0.222447 -0.222447 -0.625837 -0.625837 -0.625837 -0.625837 -0.625837 -0.625837 -0.625837 -0.625837 -0.894377 -0.894377 -0.894377 -0.894377 -0.894377 -0.894377 -0.894377 -0.894377 -0.919583 -0.919583 -0.919583 -0.919583 -0.919583 -0.919583 -0.919583 -0.919583 -0.604596 -0.604596 -0.604596 -0.604596 -0.604596 -0.604596 -0.604596 -0.604596 0.688088 0.688088 0.688088 0.688088 0.688088 0.688088 0.688088 0.688088 0.982353 0.982353 0.982353 0.982353 0.982353 0.982353 0.982353 0.982353 0.935282 0.935282 0.935282 0.935282 0.935282 0.935282 0.935282 0.935282 0.647587 0.647587 0.647587 0.647587 0.647587 0.647587 0.647587 0.647587 0.229091 0.229091 0.229091 0.229091 0.229091 0.229091 0.229091 0.229091 -0.229091 -0.229091 -0.229091 -0.229091 -0.229091 -0.229091 -0.229091 -0.229091 -0.647587 -0.647587 -0.647587 -0.647587 -0.647587 -0.647587 -0.647587 -0.647587 -0.935282 -0.935282 -0.935282 -0.935282 -0.935282 -0.935282 -0.935282 -0.935282 -0.982353 -0.982353 -0.982353 -0.982353 -0.982353 -0.982353 -0.982353 -0.982353 -0.688088 -0.688088 -0.688088 -0.688088 -0.688088 -0.688088 -0.688088 -0.688088 0.814108 0.814108 0.814108 0.814108 0.814108 0.814108 0.814108 0.814108 1.06157 1.06157 1.06157 1.06157 1.06157 1.06157 1.06157 1.06157 0.977545 0.977545 0.977545 0.977545 0.977545 0.977545 0.977545 0.977545 0.665861 0.665861 0.665861 0.665861 0.665861 0.665861 0.665861 0.665861 0.233978 0.233978 0.233978 0.233978 0.233978 0.233978 0.233978 0.233978 -0.233978 -0.233978 -0.233978 -0.233978 -0.233978 -0.233978 -0.233978 -0.233978 -0.665861 -0.665861 -0.665861 -0.665861 -0.665861 -0.665861 -0.665861 -0.665861 -0.977545 -0.977545 -0.977545 -0.977545 -0.977545 -0.977545 -0.977545 -0.977545 -1.06157 -1.06157 -1.06157 -1.06157 -1.06157 -1.06157 -1.06157 -1.06157 -0.814108 -0.814108 -0.814108 -0.814108 -0.814108 -0.814108 -0.814108 -0.814108 0.975862 0.975862 0.975862 0.975862 0.975862 0.975862 0.975862 0.975862 1.1347 1.1347 1.1347 1.1347 1.1347 1.1347 1.1347 1.1347 1.00119 1.00119 1.00119 1.00119 1.00119 1.00119 1.00119 1.00119 0.670751 0.670751 0.670751 0.670751 0.670751 0.670751 0.670751 0.670751 0.234396 0.234396 0.234396 0.234396 0.234396 0.234396 0.234396 0.234396 -0.234396 -0.234396 -0.234396 -0.234396 -0.234396 -0.234396 -0.234396 -0.234396 -0.670751 -0.670751 -0.670751 -0.670751 -0.670751 -0.670751 -0.670751 -0.670751 -1.00119 -1.00119 -1.00119 -1.00119 -1.00119 -1.00119 -1.00119 -1.00119 -1.1347 -1.1347 -1.1347 -1.1347 -1.1347 -1.1347 -1.1347 -1.1347 -0.975863 -0.975863 -0.975863 -0.975863 -0.975863 -0.975863 -0.975863 -0.975863 1.06714 1.06714 1.06714 1.06714 1.06714 1.06714 1.06714 1.06714 1.12449 1.12449 1.12449 1.12449 1.12449 1.12449 1.12449 1.12449 0.976823 0.976823 0.976823 0.976823 0.976823 0.976823 0.976823 0.976823 0.655881 0.655881 0.655881 0.655881 0.655881 0.655881 0.655881 0.655881 0.22977 0.22977 0.22977 0.22977 0.22977 0.22977 0.22977 0.22977 -0.22977 -0.22977 -0.22977 -0.22977 -0.22977 -0.22977 -0.22977 -0.22977 -0.655881 -0.655881 -0.655881 -0.655881 -0.655881 -0.655881 -0.655881 -0.655881 -0.976824 -0.976824 -0.976824 -0.976824 -0.976824 -0.976824 -0.976824 -0.976824 -1.12449 -1.12449 -1.12449 -1.12449 -1.12449 -1.12449 -1.12449 -1.12449 -1.06714 -1.06714 -1.06714 -1.06714 -1.06714 -1.06714 -1.06714 -1.06714 0.0756713 0.0756713 0.0756713 0.0756713 0.0756713 0.0756713 0.0756713 0.0756713 0.342678 0.342678 0.342678 0.342678 0.342678 0.342678 0.342678 0.342678 0.407891 0.407891 0.407891 0.407891 0.407891 0.407891 0.407891 0.407891 0.31171 0.31171 0.31171 0.31171 0.31171 0.31171 0.31171 0.31171 0.115071 0.115071 0.115071 0.115071 0.115071 0.115071 0.115071 0.115071 -0.115071 -0.115071 -0.115071 -0.115071 -0.115071 -0.115071 -0.115071 -0.115071 -0.311711 -0.311711 -0.311711 -0.311711 -0.311711 -0.311711 -0.311711 -0.311711 -0.407891 -0.407891 -0.407891 -0.407891 -0.407891 -0.407891 -0.407891 -0.407891 -0.342678 -0.342678 -0.342678 -0.342678 -0.342678 -0.342678 -0.342678 -0.342678 -0.0756715 -0.0756715 -0.0756715 -0.0756715 -0.0756715 -0.0756715 -0.0756715 -0.0756715 0.0797161 0.0797161 0.0797161 0.0797161 0.0797161 0.0797161 0.0797161 0.0797161 0.347163 0.347163 0.347163 0.347163 0.347163 0.347163 0.347163 0.347163 0.411784 0.411784 0.411784 0.411784 0.411784 0.411784 0.411784 0.411784 0.31431 0.31431 0.31431 0.31431 0.31431 0.31431 0.31431 0.31431 0.11598 0.11598 0.11598 0.11598 0.11598 0.11598 0.11598 0.11598 -0.11598 -0.11598 -0.11598 -0.11598 -0.11598 -0.11598 -0.11598 -0.11598 -0.31431 -0.31431 -0.31431 -0.31431 -0.31431 -0.31431 -0.31431 -0.31431 -0.411784 -0.411784 -0.411784 -0.411784 -0.411784 -0.411784 -0.411784 -0.411784 -0.347163 -0.347163 -0.347163 -0.347163 -0.347163 -0.347163 -0.347163 -0.347163 -0.0797162 -0.0797162 -0.0797162 -0.0797162 -0.0797162 -0.0797162 -0.0797162 -0.0797162 0.0891756 0.0891756 0.0891756 0.0891756 0.0891756 0.0891756 0.0891756 0.0891756 0.35712 0.35712 0.35712 0.35712 0.35712 0.35712 0.35712 0.35712 0.420194 0.420194 0.420194 0.420194 0.420194 0.420194 0.420194 0.420194 0.31984 0.31984 0.31984 0.31984 0.31984 0.31984 0.31984 0.31984 0.1179 0.1179 0.1179 0.1179 0.1179 0.1179 0.1179 0.1179 -0.117901 -0.117901 -0.117901 -0.117901 -0.117901 -0.117901 -0.117901 -0.117901 -0.319841 -0.319841 -0.319841 -0.319841 -0.319841 -0.319841 -0.319841 -0.319841 -0.420194 -0.420194 -0.420194 -0.420194 -0.420194 -0.420194 -0.420194 -0.420194 -0.35712 -0.35712 -0.35712 -0.35712 -0.35712 -0.35712 -0.35712 -0.35712 -0.0891757 -0.0891757 -0.0891757 -0.0891757 -0.0891757 -0.0891757 -0.0891757 -0.0891757 0.106905 0.106905 0.106905 0.106905 0.106905 0.106905 0.106905 0.106905 0.374486 0.374486 0.374486 0.374486 0.374486 0.374486 0.374486 0.374486 0.43427 0.43427 0.43427 0.43427 0.43427 0.43427 0.43427 0.43427 0.328868 0.328868 0.328868 0.328868 0.328868 0.328868 0.328868 0.328868 0.120996 0.120996 0.120996 0.120996 0.120996 0.120996 0.120996 0.120996 -0.120997 -0.120997 -0.120997 -0.120997 -0.120997 -0.120997 -0.120997 -0.120997 -0.328868 -0.328868 -0.328868 -0.328868 -0.328868 -0.328868 -0.328868 -0.328868 -0.43427 -0.43427 -0.43427 -0.43427 -0.43427 -0.43427 -0.43427 -0.43427 -0.374486 -0.374486 -0.374486 -0.374486 -0.374486 -0.374486 -0.374486 -0.374486 -0.106906 -0.106906 -0.106906 -0.106906 -0.106906 -0.106906 -0.106906 -0.106906 0.137431 0.137431 0.137431 0.137431 0.137431 0.137431 0.137431 0.137431 0.401986 0.401986 0.401986 0.401986 0.401986 0.401986 0.401986 0.401986 0.455384 0.455384 0.455384 0.455384 0.455384 0.455384 0.455384 0.455384 0.341932 0.341932 0.341932 0.341932 0.341932 0.341932 0.341932 0.341932 0.125395 0.125395 0.125395 0.125395 0.125395 0.125395 0.125395 0.125395 -0.125395 -0.125395 -0.125395 -0.125395 -0.125395 -0.125395 -0.125395 -0.125395 -0.341932 -0.341932 -0.341932 -0.341932 -0.341932 -0.341932 -0.341932 -0.341932 -0.455384 -0.455384 -0.455384 -0.455384 -0.455384 -0.455384 -0.455384 -0.455384 -0.401987 -0.401987 -0.401987 -0.401987 -0.401987 -0.401987 -0.401987 -0.401987 -0.137431 -0.137431 -0.137431 -0.137431 -0.137431 -0.137431 -0.137431 -0.137431 0.187013 0.187013 0.187013 0.187013 0.187013 0.187013 0.187013 0.187013 0.442574 0.442574 0.442574 0.442574 0.442574 0.442574 0.442574 0.442574 0.48441 0.48441 0.48441 0.48441 0.48441 0.48441 0.48441 0.48441 0.358962 0.358962 0.358962 0.358962 0.358962 0.358962 0.358962 0.358962 0.130956 0.130956 0.130956 0.130956 0.130956 0.130956 0.130956 0.130956 -0.130956 -0.130956 -0.130956 -0.130956 -0.130956 -0.130956 -0.130956 -0.130956 -0.358963 -0.358963 -0.358963 -0.358963 -0.358963 -0.358963 -0.358963 -0.358963 -0.484411 -0.484411 -0.484411 -0.484411 -0.484411 -0.484411 -0.484411 -0.484411 -0.442574 -0.442574 -0.442574 -0.442574 -0.442574 -0.442574 -0.442574 -0.442574 -0.187013 -0.187013 -0.187013 -0.187013 -0.187013 -0.187013 -0.187013 -0.187013 0.262742 0.262742 0.262742 0.262742 0.262742 0.262742 0.262742 0.262742 0.497772 0.497772 0.497772 0.497772 0.497772 0.497772 0.497772 0.497772 0.520086 0.520086 0.520086 0.520086 0.520086 0.520086 0.520086 0.520086 0.37811 0.37811 0.37811 0.37811 0.37811 0.37811 0.37811 0.37811 0.136869 0.136869 0.136869 0.136869 0.136869 0.136869 0.136869 0.136869 -0.136869 -0.136869 -0.136869 -0.136869 -0.136869 -0.136869 -0.136869 -0.136869 -0.37811 -0.37811 -0.37811 -0.37811 -0.37811 -0.37811 -0.37811 -0.37811 -0.520086 -0.520086 -0.520086 -0.520086 -0.520086 -0.520086 -0.520086 -0.520086 -0.497772 -0.497772 -0.497772 -0.497772 -0.497772 -0.497772 -0.497772 -0.497772 -0.262742 -0.262742 -0.262742 -0.262742 -0.262742 -0.262742 -0.262742 -0.262742 0.368291 0.368291 0.368291 0.368291 0.368291 0.368291 0.368291 0.368291 0.56309 0.56309 0.56309 0.56309 0.56309 0.56309 0.56309 0.56309 0.555531 0.555531 0.555531 0.555531 0.555531 0.555531 0.555531 0.555531 0.394194 0.394194 0.394194 0.394194 0.394194 0.394194 0.394194 0.394194 0.141336 0.141336 0.141336 0.141336 0.141336 0.141336 0.141336 0.141336 -0.141336 -0.141336 -0.141336 -0.141336 -0.141336 -0.141336 -0.141336 -0.141336 -0.394194 -0.394194 -0.394194 -0.394194 -0.394194 -0.394194 -0.394194 -0.394194 -0.555531 -0.555531 -0.555531 -0.555531 -0.555531 -0.555531 -0.555531 -0.555531 -0.56309 -0.56309 -0.56309 -0.56309 -0.56309 -0.56309 -0.56309 -0.56309 -0.368291 -0.368291 -0.368291 -0.368291 -0.368291 -0.368291 -0.368291 -0.368291 0.490099 0.490099 0.490099 0.490099 0.490099 0.490099 0.490099 0.490099 0.618391 0.618391 0.618391 0.618391 0.618391 0.618391 0.618391 0.618391 0.574757 0.574757 0.574757 0.574757 0.574757 0.574757 0.574757 0.574757 0.399021 0.399021 0.399021 0.399021 0.399021 0.399021 0.399021 0.399021 0.142009 0.142009 0.142009 0.142009 0.142009 0.142009 0.142009 0.142009 -0.142009 -0.142009 -0.142009 -0.142009 -0.142009 -0.142009 -0.142009 -0.142009 -0.399021 -0.399021 -0.399021 -0.399021 -0.399021 -0.399021 -0.399021 -0.399021 -0.574757 -0.574757 -0.574757 -0.574757 -0.574757 -0.574757 -0.574757 -0.574757 -0.618391 -0.618391 -0.618391 -0.618391 -0.618391 -0.618391 -0.618391 -0.618391 -0.490099 -0.490099 -0.490099 -0.490099 -0.490099 -0.490099 -0.490099 -0.490099 0.552312 0.552312 0.552312 0.552312 0.552312 0.552312 0.552312 0.552312 0.609007 0.609007 0.609007 0.609007 0.609007 0.609007 0.609007 0.609007 0.553138 0.553138 0.553138 0.553138 0.553138 0.553138 0.553138 0.553138 0.384269 0.384269 0.384269 0.384269 0.384269 0.384269 0.384269 0.384269 0.137079 0.137079 0.137079 0.137079 0.137079 0.137079 0.137079 0.137079 -0.137079 -0.137079 -0.137079 -0.137079 -0.137079 -0.137079 -0.137079 -0.137079 -0.384269 -0.384269 -0.384269 -0.384269 -0.384269 -0.384269 -0.384269 -0.384269 -0.553138 -0.553138 -0.553138 -0.553138 -0.553138 -0.553138 -0.553138 -0.553138 -0.609008 -0.609008 -0.609008 -0.609008 -0.609008 -0.609008 -0.609008 -0.609008 -0.552312 -0.552312 -0.552312 -0.552312 -0.552312 -0.552312 -0.552312 -0.552312 -0.135479 -0.135479 -0.135479 -0.135479 -0.135479 -0.135479 -0.135479 -0.135479 0.0783889 0.0783889 0.0783889 0.0783889 0.0783889 0.0783889 0.0783889 0.0783889 0.167153 0.167153 0.167153 0.167153 0.167153 0.167153 0.167153 0.167153 0.148131 0.148131 0.148131 0.148131 0.148131 0.148131 0.148131 0.148131 0.057628 0.057628 0.057628 0.057628 0.057628 0.057628 0.057628 0.057628 -0.0576281 -0.0576281 -0.0576281 -0.0576281 -0.0576281 -0.0576281 -0.0576281 -0.0576281 -0.148131 -0.148131 -0.148131 -0.148131 -0.148131 -0.148131 -0.148131 -0.148131 -0.167153 -0.167153 -0.167153 -0.167153 -0.167153 -0.167153 -0.167153 -0.167153 -0.078389 -0.078389 -0.078389 -0.078389 -0.078389 -0.078389 -0.078389 -0.078389 0.135478 0.135478 0.135478 0.135478 0.135478 0.135478 0.135478 0.135478 -0.131317 -0.131317 -0.131317 -0.131317 -0.131317 -0.131317 -0.131317 -0.131317 0.0827953 0.0827953 0.0827953 0.0827953 0.0827953 0.0827953 0.0827953 0.0827953 0.170899 0.170899 0.170899 0.170899 0.170899 0.170899 0.170899 0.170899 0.150607 0.150607 0.150607 0.150607 0.150607 0.150607 0.150607 0.150607 0.0584903 0.0584903 0.0584903 0.0584903 0.0584903 0.0584903 0.0584903 0.0584903 -0.0584904 -0.0584904 -0.0584904 -0.0584904 -0.0584904 -0.0584904 -0.0584904 -0.0584904 -0.150607 -0.150607 -0.150607 -0.150607 -0.150607 -0.150607 -0.150607 -0.150607 -0.170899 -0.170899 -0.170899 -0.170899 -0.170899 -0.170899 -0.170899 -0.170899 -0.0827955 -0.0827955 -0.0827955 -0.0827955 -0.0827955 -0.0827955 -0.0827955 -0.0827955 0.131316 0.131316 0.131316 0.131316 0.131316 0.131316 0.131316 0.131316 -0.121716 -0.121716 -0.121716 -0.121716 -0.121716 -0.121716 -0.121716 -0.121716 0.0924927 0.0924927 0.0924927 0.0924927 0.0924927 0.0924927 0.0924927 0.0924927 0.178937 0.178937 0.178937 0.178937 0.178937 0.178937 0.178937 0.178937 0.155843 0.155843 0.155843 0.155843 0.155843 0.155843 0.155843 0.155843 0.0603011 0.0603011 0.0603011 0.0603011 0.0603011 0.0603011 0.0603011 0.0603011 -0.0603012 -0.0603012 -0.0603012 -0.0603012 -0.0603012 -0.0603012 -0.0603012 -0.0603012 -0.155843 -0.155843 -0.155843 -0.155843 -0.155843 -0.155843 -0.155843 -0.155843 -0.178937 -0.178937 -0.178937 -0.178937 -0.178937 -0.178937 -0.178937 -0.178937 -0.0924928 -0.0924928 -0.0924928 -0.0924928 -0.0924928 -0.0924928 -0.0924928 -0.0924928 0.121716 0.121716 0.121716 0.121716 0.121716 0.121716 0.121716 0.121716 -0.104094 -0.104094 -0.104094 -0.104094 -0.104094 -0.104094 -0.104094 -0.104094 0.109163 0.109163 0.109163 0.109163 0.109163 0.109163 0.109163 0.109163 0.19223 0.19223 0.19223 0.19223 0.19223 0.19223 0.19223 0.19223 0.164301 0.164301 0.164301 0.164301 0.164301 0.164301 0.164301 0.164301 0.0631933 0.0631933 0.0631933 0.0631933 0.0631933 0.0631933 0.0631933 0.0631933 -0.0631934 -0.0631934 -0.0631934 -0.0631934 -0.0631934 -0.0631934 -0.0631934 -0.0631934 -0.164302 -0.164302 -0.164302 -0.164302 -0.164302 -0.164302 -0.164302 -0.164302 -0.19223 -0.19223 -0.19223 -0.19223 -0.19223 -0.19223 -0.19223 -0.19223 -0.109163 -0.109163 -0.109163 -0.109163 -0.109163 -0.109163 -0.109163 -0.109163 0.104094 0.104094 0.104094 0.104094 0.104094 0.104094 0.104094 0.104094 -0.0746018 -0.0746018 -0.0746018 -0.0746018 -0.0746018 -0.0746018 -0.0746018 -0.0746018 0.135005 0.135005 0.135005 0.135005 0.135005 0.135005 0.135005 0.135005 0.211825 0.211825 0.211825 0.211825 0.211825 0.211825 0.211825 0.211825 0.176364 0.176364 0.176364 0.176364 0.176364 0.176364 0.176364 0.176364 0.0672484 0.0672484 0.0672484 0.0672484 0.0672484 0.0672484 0.0672484 0.0672484 -0.0672485 -0.0672485 -0.0672485 -0.0672485 -0.0672485 -0.0672485 -0.0672485 -0.0672485 -0.176364 -0.176364 -0.176364 -0.176364 -0.176364 -0.176364 -0.176364 -0.176364 -0.211825 -0.211825 -0.211825 -0.211825 -0.211825 -0.211825 -0.211825 -0.211825 -0.135005 -0.135005 -0.135005 -0.135005 -0.135005 -0.135005 -0.135005 -0.135005 0.0746017 0.0746017 0.0746017 0.0746017 0.0746017 0.0746017 0.0746017 0.0746017 -0.0285382 -0.0285382 -0.0285382 -0.0285382 -0.0285382 -0.0285382 -0.0285382 -0.0285382 0.171999 0.171999 0.171999 0.171999 0.171999 0.171999 0.171999 0.171999 0.238101 0.238101 0.238101 0.238101 0.238101 0.238101 0.238101 0.238101 0.191782 0.191782 0.191782 0.191782 0.191782 0.191782 0.191782 0.191782 0.0722953 0.0722953 0.0722953 0.0722953 0.0722953 0.0722953 0.0722953 0.0722953 -0.0722955 -0.0722955 -0.0722955 -0.0722955 -0.0722955 -0.0722955 -0.0722955 -0.0722955 -0.191782 -0.191782 -0.191782 -0.191782 -0.191782 -0.191782 -0.191782 -0.191782 -0.238101 -0.238101 -0.238101 -0.238101 -0.238101 -0.238101 -0.238101 -0.238101 -0.171999 -0.171999 -0.171999 -0.171999 -0.171999 -0.171999 -0.171999 -0.171999 0.028538 0.028538 0.028538 0.028538 0.028538 0.028538 0.028538 0.028538 0.0381837 0.0381837 0.0381837 0.0381837 0.0381837 0.0381837 0.0381837 0.0381837 0.220188 0.220188 0.220188 0.220188 0.220188 0.220188 0.220188 0.220188 0.269312 0.269312 0.269312 0.269312 0.269312 0.269312 0.269312 0.269312 0.208741 0.208741 0.208741 0.208741 0.208741 0.208741 0.208741 0.208741 0.0775984 0.0775984 0.0775984 0.0775984 0.0775984 0.0775984 0.0775984 0.0775984 -0.0775985 -0.0775985 -0.0775985 -0.0775985 -0.0775985 -0.0775985 -0.0775985 -0.0775985 -0.208741 -0.208741 -0.208741 -0.208741 -0.208741 -0.208741 -0.208741 -0.208741 -0.269312 -0.269312 -0.269312 -0.269312 -0.269312 -0.269312 -0.269312 -0.269312 -0.220188 -0.220188 -0.220188 -0.220188 -0.220188 -0.220188 -0.220188 -0.220188 -0.0381839 -0.0381839 -0.0381839 -0.0381839 -0.0381839 -0.0381839 -0.0381839 -0.0381839 0.124991 0.124991 0.124991 0.124991 0.124991 0.124991 0.124991 0.124991 0.274035 0.274035 0.274035 0.274035 0.274035 0.274035 0.274035 0.274035 0.299078 0.299078 0.299078 0.299078 0.299078 0.299078 0.299078 0.299078 0.222759 0.222759 0.222759 0.222759 0.222759 0.222759 0.222759 0.222759 0.0816156 0.0816156 0.0816156 0.0816156 0.0816156 0.0816156 0.0816156 0.0816156 -0.0816158 -0.0816158 -0.0816158 -0.0816158 -0.0816158 -0.0816158 -0.0816158 -0.0816158 -0.222759 -0.222759 -0.222759 -0.222759 -0.222759 -0.222759 -0.222759 -0.222759 -0.299078 -0.299078 -0.299078 -0.299078 -0.299078 -0.299078 -0.299078 -0.299078 -0.274035 -0.274035 -0.274035 -0.274035 -0.274035 -0.274035 -0.274035 -0.274035 -0.124991 -0.124991 -0.124991 -0.124991 -0.124991 -0.124991 -0.124991 -0.124991 0.216909 0.216909 0.216909 0.216909 0.216909 0.216909 0.216909 0.216909 0.31623 0.31623 0.31623 0.31623 0.31623 0.31623 0.31623 0.31623 0.314353 0.314353 0.314353 0.314353 0.314353 0.314353 0.314353 0.314353 0.226974 0.226974 0.226974 0.226974 0.226974 0.226974 0.226974 0.226974 0.0823102 0.0823102 0.0823102 0.0823102 0.0823102 0.0823102 0.0823102 0.0823102 -0.0823103 -0.0823103 -0.0823103 -0.0823103 -0.0823103 -0.0823103 -0.0823103 -0.0823103 -0.226974 -0.226974 -0.226974 -0.226974 -0.226974 -0.226974 -0.226974 -0.226974 -0.314353 -0.314353 -0.314353 -0.314353 -0.314353 -0.314353 -0.314353 -0.314353 -0.31623 -0.31623 -0.31623 -0.31623 -0.31623 -0.31623 -0.31623 -0.31623 -0.216909 -0.216909 -0.216909 -0.216909 -0.216909 -0.216909 -0.216909 -0.216909 0.259674 0.259674 0.259674 0.259674 0.259674 0.259674 0.259674 0.259674 0.307733 0.307733 0.307733 0.307733 0.307733 0.307733 0.307733 0.307733 0.295606 0.295606 0.295606 0.295606 0.295606 0.295606 0.295606 0.295606 0.213346 0.213346 0.213346 0.213346 0.213346 0.213346 0.213346 0.213346 0.0775613 0.0775613 0.0775613 0.0775613 0.0775613 0.0775613 0.0775613 0.0775613 -0.0775614 -0.0775614 -0.0775614 -0.0775614 -0.0775614 -0.0775614 -0.0775614 -0.0775614 -0.213346 -0.213346 -0.213346 -0.213346 -0.213346 -0.213346 -0.213346 -0.213346 -0.295606 -0.295606 -0.295606 -0.295606 -0.295606 -0.295606 -0.295606 -0.295606 -0.307733 -0.307733 -0.307733 -0.307733 -0.307733 -0.307733 -0.307733 -0.307733 -0.259674 -0.259674 -0.259674 -0.259674 -0.259674 -0.259674 -0.259674 -0.259674 -0.233596 -0.233596 -0.233596 -0.233596 -0.233596 -0.233596 -0.233596 -0.233596 -0.0594109 -0.0594109 -0.0594109 -0.0594109 -0.0594109 -0.0594109 -0.0594109 -0.0594109 0.03502 0.03502 0.03502 0.03502 0.03502 0.03502 0.03502 0.03502 0.0555438 0.0555438 0.0555438 0.0555438 0.0555438 0.0555438 0.0555438 0.0555438 0.0246039 0.0246039 0.0246039 0.0246039 0.0246039 0.0246039 0.0246039 0.0246039 -0.0246041 -0.0246041 -0.0246041 -0.0246041 -0.0246041 -0.0246041 -0.0246041 -0.0246041 -0.0555439 -0.0555439 -0.0555439 -0.0555439 -0.0555439 -0.0555439 -0.0555439 -0.0555439 -0.0350202 -0.0350202 -0.0350202 -0.0350202 -0.0350202 -0.0350202 -0.0350202 -0.0350202 0.0594107 0.0594107 0.0594107 0.0594107 0.0594107 0.0594107 0.0594107 0.0594107 0.233596 0.233596 0.233596 0.233596 0.233596 0.233596 0.233596 0.233596 -0.229366 -0.229366 -0.229366 -0.229366 -0.229366 -0.229366 -0.229366 -0.229366 -0.0550602 -0.0550602 -0.0550602 -0.0550602 -0.0550602 -0.0550602 -0.0550602 -0.0550602 0.0386716 0.0386716 0.0386716 0.0386716 0.0386716 0.0386716 0.0386716 0.0386716 0.0579422 0.0579422 0.0579422 0.0579422 0.0579422 0.0579422 0.0579422 0.0579422 0.0254369 0.0254369 0.0254369 0.0254369 0.0254369 0.0254369 0.0254369 0.0254369 -0.025437 -0.025437 -0.025437 -0.025437 -0.025437 -0.025437 -0.025437 -0.025437 -0.0579423 -0.0579423 -0.0579423 -0.0579423 -0.0579423 -0.0579423 -0.0579423 -0.0579423 -0.0386717 -0.0386717 -0.0386717 -0.0386717 -0.0386717 -0.0386717 -0.0386717 -0.0386717 0.05506 0.05506 0.05506 0.05506 0.05506 0.05506 0.05506 0.05506 0.229366 0.229366 0.229366 0.229366 0.229366 0.229366 0.229366 0.229366 -0.219732 -0.219732 -0.219732 -0.219732 -0.219732 -0.219732 -0.219732 -0.219732 -0.0455656 -0.0455656 -0.0455656 -0.0455656 -0.0455656 -0.0455656 -0.0455656 -0.0455656 0.0464535 0.0464535 0.0464535 0.0464535 0.0464535 0.0464535 0.0464535 0.0464535 0.0629836 0.0629836 0.0629836 0.0629836 0.0629836 0.0629836 0.0629836 0.0629836 0.0271765 0.0271765 0.0271765 0.0271765 0.0271765 0.0271765 0.0271765 0.0271765 -0.0271766 -0.0271766 -0.0271766 -0.0271766 -0.0271766 -0.0271766 -0.0271766 -0.0271766 -0.0629838 -0.0629838 -0.0629838 -0.0629838 -0.0629838 -0.0629838 -0.0629838 -0.0629838 -0.0464536 -0.0464536 -0.0464536 -0.0464536 -0.0464536 -0.0464536 -0.0464536 -0.0464536 0.0455655 0.0455655 0.0455655 0.0455655 0.0455655 0.0455655 0.0455655 0.0455655 0.219732 0.219732 0.219732 0.219732 0.219732 0.219732 0.219732 0.219732 -0.202391 -0.202391 -0.202391 -0.202391 -0.202391 -0.202391 -0.202391 -0.202391 -0.0294706 -0.0294706 -0.0294706 -0.0294706 -0.0294706 -0.0294706 -0.0294706 -0.0294706 0.0591783 0.0591783 0.0591783 0.0591783 0.0591783 0.0591783 0.0591783 0.0591783 0.0710478 0.0710478 0.0710478 0.0710478 0.0710478 0.0710478 0.0710478 0.0710478 0.0299296 0.0299296 0.0299296 0.0299296 0.0299296 0.0299296 0.0299296 0.0299296 -0.0299298 -0.0299298 -0.0299298 -0.0299298 -0.0299298 -0.0299298 -0.0299298 -0.0299298 -0.0710479 -0.0710479 -0.0710479 -0.0710479 -0.0710479 -0.0710479 -0.0710479 -0.0710479 -0.0591784 -0.0591784 -0.0591784 -0.0591784 -0.0591784 -0.0591784 -0.0591784 -0.0591784 0.0294705 0.0294705 0.0294705 0.0294705 0.0294705 0.0294705 0.0294705 0.0294705 0.202391 0.202391 0.202391 0.202391 0.202391 0.202391 0.202391 0.202391 -0.174127 -0.174127 -0.174127 -0.174127 -0.174127 -0.174127 -0.174127 -0.174127 -0.00501528 -0.00501528 -0.00501528 -0.00501528 -0.00501528 -0.00501528 -0.00501528 -0.00501528 0.0776249 0.0776249 0.0776249 0.0776249 0.0776249 0.0776249 0.0776249 0.0776249 0.0823828 0.0823828 0.0823828 0.0823828 0.0823828 0.0823828 0.0823828 0.0823828 0.0337393 0.0337393 0.0337393 0.0337393 0.0337393 0.0337393 0.0337393 0.0337393 -0.0337394 -0.0337394 -0.0337394 -0.0337394 -0.0337394 -0.0337394 -0.0337394 -0.0337394 -0.0823829 -0.0823829 -0.0823829 -0.0823829 -0.0823829 -0.0823829 -0.0823829 -0.0823829 -0.077625 -0.077625 -0.077625 -0.077625 -0.077625 -0.077625 -0.077625 -0.077625 0.00501514 0.00501514 0.00501514 0.00501514 0.00501514 0.00501514 0.00501514 0.00501514 0.174127 0.174127 0.174127 0.174127 0.174127 0.174127 0.174127 0.174127 -0.131466 -0.131466 -0.131466 -0.131466 -0.131466 -0.131466 -0.131466 -0.131466 0.0290485 0.0290485 0.0290485 0.0290485 0.0290485 0.0290485 0.0290485 0.0290485 0.101802 0.101802 0.101802 0.101802 0.101802 0.101802 0.101802 0.101802 0.0966011 0.0966011 0.0966011 0.0966011 0.0966011 0.0966011 0.0966011 0.0966011 0.0384054 0.0384054 0.0384054 0.0384054 0.0384054 0.0384054 0.0384054 0.0384054 -0.0384055 -0.0384055 -0.0384055 -0.0384055 -0.0384055 -0.0384055 -0.0384055 -0.0384055 -0.0966013 -0.0966013 -0.0966013 -0.0966013 -0.0966013 -0.0966013 -0.0966013 -0.0966013 -0.101802 -0.101802 -0.101802 -0.101802 -0.101802 -0.101802 -0.101802 -0.101802 -0.0290486 -0.0290486 -0.0290486 -0.0290486 -0.0290486 -0.0290486 -0.0290486 -0.0290486 0.131466 0.131466 0.131466 0.131466 0.131466 0.131466 0.131466 0.131466 -0.0722975 -0.0722975 -0.0722975 -0.0722975 -0.0722975 -0.0722975 -0.0722975 -0.0722975 0.0718531 0.0718531 0.0718531 0.0718531 0.0718531 0.0718531 0.0718531 0.0718531 0.129688 0.129688 0.129688 0.129688 0.129688 0.129688 0.129688 0.129688 0.111912 0.111912 0.111912 0.111912 0.111912 0.111912 0.111912 0.111912 0.0432356 0.0432356 0.0432356 0.0432356 0.0432356 0.0432356 0.0432356 0.0432356 -0.0432358 -0.0432358 -0.0432358 -0.0432358 -0.0432358 -0.0432358 -0.0432358 -0.0432358 -0.111912 -0.111912 -0.111912 -0.111912 -0.111912 -0.111912 -0.111912 -0.111912 -0.129688 -0.129688 -0.129688 -0.129688 -0.129688 -0.129688 -0.129688 -0.129688 -0.0718533 -0.0718533 -0.0718533 -0.0718533 -0.0718533 -0.0718533 -0.0718533 -0.0718533 0.0722974 0.0722974 0.0722974 0.0722974 0.0722974 0.0722974 0.0722974 0.0722974 0.000607228 0.000607228 0.000607228 0.000607228 0.000607228 0.000607228 0.000607228 0.000607228 0.117514 0.117514 0.117514 0.117514 0.117514 0.117514 0.117514 0.117514 0.155354 0.155354 0.155354 0.155354 0.155354 0.155354 0.155354 0.155354 0.124309 0.124309 0.124309 0.124309 0.124309 0.124309 0.124309 0.124309 0.0468614 0.0468614 0.0468614 0.0468614 0.0468614 0.0468614 0.0468614 0.0468614 -0.0468616 -0.0468616 -0.0468616 -0.0468616 -0.0468616 -0.0468616 -0.0468616 -0.0468616 -0.124309 -0.124309 -0.124309 -0.124309 -0.124309 -0.124309 -0.124309 -0.124309 -0.155354 -0.155354 -0.155354 -0.155354 -0.155354 -0.155354 -0.155354 -0.155354 -0.117514 -0.117514 -0.117514 -0.117514 -0.117514 -0.117514 -0.117514 -0.117514 -0.000607368 -0.000607368 -0.000607368 -0.000607368 -0.000607368 -0.000607368 -0.000607368 -0.000607368 0.072713 0.072713 0.072713 0.072713 0.072713 0.072713 0.072713 0.072713 0.151141 0.151141 0.151141 0.151141 0.151141 0.151141 0.151141 0.151141 0.167831 0.167831 0.167831 0.167831 0.167831 0.167831 0.167831 0.167831 0.127897 0.127897 0.127897 0.127897 0.127897 0.127897 0.127897 0.127897 0.0474893 0.0474893 0.0474893 0.0474893 0.0474893 0.0474893 0.0474893 0.0474893 -0.0474894 -0.0474894 -0.0474894 -0.0474894 -0.0474894 -0.0474894 -0.0474894 -0.0474894 -0.127897 -0.127897 -0.127897 -0.127897 -0.127897 -0.127897 -0.127897 -0.127897 -0.167832 -0.167832 -0.167832 -0.167832 -0.167832 -0.167832 -0.167832 -0.167832 -0.151141 -0.151141 -0.151141 -0.151141 -0.151141 -0.151141 -0.151141 -0.151141 -0.0727131 -0.0727131 -0.0727131 -0.0727131 -0.0727131 -0.0727131 -0.0727131 -0.0727131 0.103234 0.103234 0.103234 0.103234 0.103234 0.103234 0.103234 0.103234 0.143238 0.143238 0.143238 0.143238 0.143238 0.143238 0.143238 0.143238 0.151313 0.151313 0.151313 0.151313 0.151313 0.151313 0.151313 0.151313 0.115467 0.115467 0.115467 0.115467 0.115467 0.115467 0.115467 0.115467 0.043058 0.043058 0.043058 0.043058 0.043058 0.043058 0.043058 0.043058 -0.0430581 -0.0430581 -0.0430581 -0.0430581 -0.0430581 -0.0430581 -0.0430581 -0.0430581 -0.115467 -0.115467 -0.115467 -0.115467 -0.115467 -0.115467 -0.115467 -0.115467 -0.151313 -0.151313 -0.151313 -0.151313 -0.151313 -0.151313 -0.151313 -0.151313 -0.143238 -0.143238 -0.143238 -0.143238 -0.143238 -0.143238 -0.143238 -0.143238 -0.103234 -0.103234 -0.103234 -0.103234 -0.103234 -0.103234 -0.103234 -0.103234 -0.270767 -0.270767 -0.270767 -0.270767 -0.270767 -0.270767 -0.270767 -0.270767 -0.117459 -0.117459 -0.117459 -0.117459 -0.117459 -0.117459 -0.117459 -0.117459 -0.0227896 -0.0227896 -0.0227896 -0.0227896 -0.0227896 -0.0227896 -0.0227896 -0.0227896 0.0142238 0.0142238 0.0142238 0.0142238 0.0142238 0.0142238 0.0142238 0.0142238 0.00972741 0.00972741 0.00972741 0.00972741 0.00972741 0.00972741 0.00972741 0.00972741 -0.00972756 -0.00972756 -0.00972756 -0.00972756 -0.00972756 -0.00972756 -0.00972756 -0.00972756 -0.0142239 -0.0142239 -0.0142239 -0.0142239 -0.0142239 -0.0142239 -0.0142239 -0.0142239 0.0227894 0.0227894 0.0227894 0.0227894 0.0227894 0.0227894 0.0227894 0.0227894 0.117459 0.117459 0.117459 0.117459 0.117459 0.117459 0.117459 0.117459 0.270767 0.270767 0.270767 0.270767 0.270767 0.270767 0.270767 0.270767 -0.266512 -0.266512 -0.266512 -0.266512 -0.266512 -0.266512 -0.266512 -0.266512 -0.113141 -0.113141 -0.113141 -0.113141 -0.113141 -0.113141 -0.113141 -0.113141 -0.0191875 -0.0191875 -0.0191875 -0.0191875 -0.0191875 -0.0191875 -0.0191875 -0.0191875 0.0165827 0.0165827 0.0165827 0.0165827 0.0165827 0.0165827 0.0165827 0.0165827 0.0105457 0.0105457 0.0105457 0.0105457 0.0105457 0.0105457 0.0105457 0.0105457 -0.0105458 -0.0105458 -0.0105458 -0.0105458 -0.0105458 -0.0105458 -0.0105458 -0.0105458 -0.0165828 -0.0165828 -0.0165828 -0.0165828 -0.0165828 -0.0165828 -0.0165828 -0.0165828 0.0191874 0.0191874 0.0191874 0.0191874 0.0191874 0.0191874 0.0191874 0.0191874 0.113141 0.113141 0.113141 0.113141 0.113141 0.113141 0.113141 0.113141 0.266512 0.266512 0.266512 0.266512 0.266512 0.266512 0.266512 0.266512 -0.256894 -0.256894 -0.256894 -0.256894 -0.256894 -0.256894 -0.256894 -0.256894 -0.103768 -0.103768 -0.103768 -0.103768 -0.103768 -0.103768 -0.103768 -0.103768 -0.0115427 -0.0115427 -0.0115427 -0.0115427 -0.0115427 -0.0115427 -0.0115427 -0.0115427 0.0215233 0.0215233 0.0215233 0.0215233 0.0215233 0.0215233 0.0215233 0.0215233 0.0122488 0.0122488 0.0122488 0.0122488 0.0122488 0.0122488 0.0122488 0.0122488 -0.012249 -0.012249 -0.012249 -0.012249 -0.012249 -0.012249 -0.012249 -0.012249 -0.0215235 -0.0215235 -0.0215235 -0.0215235 -0.0215235 -0.0215235 -0.0215235 -0.0215235 0.0115425 0.0115425 0.0115425 0.0115425 0.0115425 0.0115425 0.0115425 0.0115425 0.103767 0.103767 0.103767 0.103767 0.103767 0.103767 0.103767 0.103767 0.256894 0.256894 0.256894 0.256894 0.256894 0.256894 0.256894 0.256894 -0.239785 -0.239785 -0.239785 -0.239785 -0.239785 -0.239785 -0.239785 -0.239785 -0.088012 -0.088012 -0.088012 -0.088012 -0.088012 -0.088012 -0.088012 -0.088012 0.000870448 0.000870448 0.000870448 0.000870448 0.000870448 0.000870448 0.000870448 0.000870448 0.0293775 0.0293775 0.0293775 0.0293775 0.0293775 0.0293775 0.0293775 0.0293775 0.0149287 0.0149287 0.0149287 0.0149287 0.0149287 0.0149287 0.0149287 0.0149287 -0.0149288 -0.0149288 -0.0149288 -0.0149288 -0.0149288 -0.0149288 -0.0149288 -0.0149288 -0.0293777 -0.0293777 -0.0293777 -0.0293777 -0.0293777 -0.0293777 -0.0293777 -0.0293777 -0.000870588 -0.000870588 -0.000870588 -0.000870588 -0.000870588 -0.000870588 -0.000870588 -0.000870588 0.0880118 0.0880118 0.0880118 0.0880118 0.0880118 0.0880118 0.0880118 0.0880118 0.239784 0.239784 0.239784 0.239784 0.239784 0.239784 0.239784 0.239784 -0.212331 -0.212331 -0.212331 -0.212331 -0.212331 -0.212331 -0.212331 -0.212331 -0.0643606 -0.0643606 -0.0643606 -0.0643606 -0.0643606 -0.0643606 -0.0643606 -0.0643606 0.0186831 0.0186831 0.0186831 0.0186831 0.0186831 0.0186831 0.0186831 0.0186831 0.0403195 0.0403195 0.0403195 0.0403195 0.0403195 0.0403195 0.0403195 0.0403195 0.0186066 0.0186066 0.0186066 0.0186066 0.0186066 0.0186066 0.0186066 0.0186066 -0.0186068 -0.0186068 -0.0186068 -0.0186068 -0.0186068 -0.0186068 -0.0186068 -0.0186068 -0.0403197 -0.0403197 -0.0403197 -0.0403197 -0.0403197 -0.0403197 -0.0403197 -0.0403197 -0.0186833 -0.0186833 -0.0186833 -0.0186833 -0.0186833 -0.0186833 -0.0186833 -0.0186833 0.0643605 0.0643605 0.0643605 0.0643605 0.0643605 0.0643605 0.0643605 0.0643605 0.212331 0.212331 0.212331 0.212331 0.212331 0.212331 0.212331 0.212331 -0.171713 -0.171713 -0.171713 -0.171713 -0.171713 -0.171713 -0.171713 -0.171713 -0.031945 -0.031945 -0.031945 -0.031945 -0.031945 -0.031945 -0.031945 -0.031945 0.0417134 0.0417134 0.0417134 0.0417134 0.0417134 0.0417134 0.0417134 0.0417134 0.0538885 0.0538885 0.0538885 0.0538885 0.0538885 0.0538885 0.0538885 0.0538885 0.0230665 0.0230665 0.0230665 0.0230665 0.0230665 0.0230665 0.0230665 0.0230665 -0.0230667 -0.0230667 -0.0230667 -0.0230667 -0.0230667 -0.0230667 -0.0230667 -0.0230667 -0.0538887 -0.0538887 -0.0538887 -0.0538887 -0.0538887 -0.0538887 -0.0538887 -0.0538887 -0.0417136 -0.0417136 -0.0417136 -0.0417136 -0.0417136 -0.0417136 -0.0417136 -0.0417136 0.0319449 0.0319449 0.0319449 0.0319449 0.0319449 0.0319449 0.0319449 0.0319449 0.171713 0.171713 0.171713 0.171713 0.171713 0.171713 0.171713 0.171713 -0.116778 -0.116778 -0.116778 -0.116778 -0.116778 -0.116778 -0.116778 -0.116778 0.00794084 0.00794084 0.00794084 0.00794084 0.00794084 0.00794084 0.00794084 0.00794084 0.0678202 0.0678202 0.0678202 0.0678202 0.0678202 0.0678202 0.0678202 0.0678202 0.0683091 0.0683091 0.0683091 0.0683091 0.0683091 0.0683091 0.0683091 0.0683091 0.027637 0.027637 0.027637 0.027637 0.027637 0.027637 0.027637 0.027637 -0.0276372 -0.0276372 -0.0276372 -0.0276372 -0.0276372 -0.0276372 -0.0276372 -0.0276372 -0.0683093 -0.0683093 -0.0683093 -0.0683093 -0.0683093 -0.0683093 -0.0683093 -0.0683093 -0.0678203 -0.0678203 -0.0678203 -0.0678203 -0.0678203 -0.0678203 -0.0678203 -0.0678203 -0.00794098 -0.00794098 -0.00794098 -0.00794098 -0.00794098 -0.00794098 -0.00794098 -0.00794098 0.116778 0.116778 0.116778 0.116778 0.116778 0.116778 0.116778 0.116778 -0.0511931 -0.0511931 -0.0511931 -0.0511931 -0.0511931 -0.0511931 -0.0511931 -0.0511931 0.0493591 0.0493591 0.0493591 0.0493591 0.0493591 0.0493591 0.0493591 0.0493591 0.0913467 0.0913467 0.0913467 0.0913467 0.0913467 0.0913467 0.0913467 0.0913467 0.0798246 0.0798246 0.0798246 0.0798246 0.0798246 0.0798246 0.0798246 0.0798246 0.0310389 0.0310389 0.0310389 0.0310389 0.0310389 0.0310389 0.0310389 0.0310389 -0.0310391 -0.0310391 -0.0310391 -0.0310391 -0.0310391 -0.0310391 -0.0310391 -0.0310391 -0.0798247 -0.0798247 -0.0798247 -0.0798247 -0.0798247 -0.0798247 -0.0798247 -0.0798247 -0.0913468 -0.0913468 -0.0913468 -0.0913468 -0.0913468 -0.0913468 -0.0913468 -0.0913468 -0.0493593 -0.0493593 -0.0493593 -0.0493593 -0.0493593 -0.0493593 -0.0493593 -0.0493593 0.051193 0.051193 0.051193 0.051193 0.051193 0.051193 0.051193 0.051193 0.011033 0.011033 0.011033 0.011033 0.011033 0.011033 0.011033 0.011033 0.0787288 0.0787288 0.0787288 0.0787288 0.0787288 0.0787288 0.0787288 0.0787288 0.102387 0.102387 0.102387 0.102387 0.102387 0.102387 0.102387 0.102387 0.0830475 0.0830475 0.0830475 0.0830475 0.0830475 0.0830475 0.0830475 0.0830475 0.0316127 0.0316127 0.0316127 0.0316127 0.0316127 0.0316127 0.0316127 0.0316127 -0.0316128 -0.0316128 -0.0316128 -0.0316128 -0.0316128 -0.0316128 -0.0316128 -0.0316128 -0.0830477 -0.0830477 -0.0830477 -0.0830477 -0.0830477 -0.0830477 -0.0830477 -0.0830477 -0.102387 -0.102387 -0.102387 -0.102387 -0.102387 -0.102387 -0.102387 -0.102387 -0.0787289 -0.0787289 -0.0787289 -0.0787289 -0.0787289 -0.0787289 -0.0787289 -0.0787289 -0.0110331 -0.0110331 -0.0110331 -0.0110331 -0.0110331 -0.0110331 -0.0110331 -0.0110331 0.0356709 0.0356709 0.0356709 0.0356709 0.0356709 0.0356709 0.0356709 0.0356709 0.071144 0.071144 0.071144 0.071144 0.071144 0.071144 0.071144 0.071144 0.0870653 0.0870653 0.0870653 0.0870653 0.0870653 0.0870653 0.0870653 0.0870653 0.071334 0.071334 0.071334 0.071334 0.071334 0.071334 0.071334 0.071334 0.0273935 0.0273935 0.0273935 0.0273935 0.0273935 0.0273935 0.0273935 0.0273935 -0.0273936 -0.0273936 -0.0273936 -0.0273936 -0.0273936 -0.0273936 -0.0273936 -0.0273936 -0.0713341 -0.0713341 -0.0713341 -0.0713341 -0.0713341 -0.0713341 -0.0713341 -0.0713341 -0.0870654 -0.0870654 -0.0870654 -0.0870654 -0.0870654 -0.0870654 -0.0870654 -0.0870654 -0.0711442 -0.0711442 -0.0711442 -0.0711442 -0.0711442 -0.0711442 -0.0711442 -0.0711442 -0.035671 -0.035671 -0.035671 -0.035671 -0.035671 -0.035671 -0.035671 -0.035671 
VECTORS Velocity float 
-0.000229997 -0.132495 -1.31991e-10 
-4.35136e-11 -0.132484 -1.32017e-10 
-1.46853e-09 9.85217e-10 1.6971e-09 
0.000198419 9.85228e-10 1.69711e-09 
-0.000637468 -0.524269 -0.310383 
-2.53379e-10 -0.524262 -0.310371 
1.00531e-10 -3.85024e-12 0.966693 
-0.000234759 -3.82543e-12 0.966669 
-0.000896258 -0.343537 -0.310383 
-2.30666e-10 -0.343521 -0.310371 
5.5785e-12 -3.38571e-11 0.966693 
3.99543e-05 -3.38453e-11 0.966669 
-0.00102234 -0.132212 0.162598 
-3.56117e-11 -0.132198 0.162657 
-6.18274e-11 8.94952e-11 0.968452 
-9.74135e-05 8.95067e-11 0.968393 
-0.00105988 -0.134611 0.162598 
-5.51167e-11 -0.134597 0.162657 
-4.13661e-11 2.22639e-11 0.968452 
-6.00922e-05 2.22779e-11 0.968393 
-0.00100088 -0.0660811 0.338156 
-3.19197e-11 -0.0660676 0.338261 
-1.46422e-11 2.42217e-11 0.992511 
7.68997e-06 2.42279e-11 0.992415 
-0.000865525 -0.0687988 0.338156 
-3.11385e-11 -0.0687893 0.338261 
-1.43797e-11 9.95868e-12 0.992511 
-0.000129856 9.97184e-12 0.992415 
-0.000664974 -0.0269237 0.431691 
-1.19386e-11 -0.0269148 0.431829 
-7.6126e-12 1.15522e-11 0.993903 
9.2669e-05 1.15524e-11 0.993779 
-0.000418301 -0.0292602 0.431691 
-1.20521e-11 -0.0292565 0.431829 
-6.63591e-12 2.79586e-12 0.993903 
-0.000158496 2.80617e-12 0.993779 
-0.00014256 0.0010195 0.45814 
-1.4979e-13 0.00102226 0.45829 
-2.17498e-13 3.48519e-12 0.995404 
0.000145154 3.47962e-12 0.995269 
0.00014256 -0.0010195 0.45814 
1.49791e-13 -0.00102226 0.45829 
2.175e-13 -3.4852e-12 0.995404 
-0.000145154 -3.47962e-12 0.995269 
0.000418301 0.0292602 0.431691 
1.20521e-11 0.0292565 0.431829 
6.63591e-12 -2.79586e-12 0.993903 
0.000158496 -2.80618e-12 0.993779 
0.000664974 0.0269237 0.431691 
1.19386e-11 0.0269148 0.431829 
7.6126e-12 -1.15522e-11 0.993903 
-9.2669e-05 -1.15524e-11 0.993779 
0.000865525 0.0687988 0.338156 
3.11385e-11 0.0687893 0.338261 
1.43797e-11 -9.95868e-12 0.992511 
0.000129856 -9.97185e-12 0.992415 
0.00100088 0.0660811 0.338156 
3.19197e-11 0.0660676 0.338261 
1.46422e-11 -2.42217e-11 0.992511 
-7.68997e-06 -2.42279e-11 0.992415 
0.00105988 0.134611 0.162598 
5.51167e-11 0.134597 0.162657 
4.13661e-11 -2.22639e-11 0.968452 
6.00922e-05 -2.22779e-11 0.968393 
0.00102234 0.132212 0.162598 
3.56117e-11 0.132198 0.162657 
6.18274e-11 -8.94952e-11 0.968452 
9.74135e-05 -8.95067e-11 0.968393 
0.000896258 0.343537 -0.310383 
2.30666e-10 0.343521 -0.310371 
-5.57849e-12 3.38571e-11 0.966693 
-3.99543e-05 3.38453e-11 0.966669 
0.000637468 0.524269 -0.310383 
2.53379e-10 0.524262 -0.310371 
-1.00531e-10 3.85024e-12 0.966693 
0.000234759 3.82543e-12 0.966669 
0.000229997 0.132495 -1.31991e-10 
4.35136e-11 0.132484 -1.32017e-10 
1.46853e-09 -9.85217e-10 1.6971e-09 
-0.000198419 -9.85228e-10 1.69711e-09 
-0.000516418 -0.132514 -1.319e-10 
-0.000229997 -0.132479 -1.31987e-10 
0.000198419 9.85263e-10 1.69715e-09 
0.0004429 9.85301e-10 1.69718e-09 
-0.00143206 -0.524308 -0.310471 
-0.000637468 -0.524285 -0.310431 
-0.000234759 -3.81115e-12 0.966715 
-0.000527168 -3.72876e-12 0.966642 
-0.00200109 -0.343586 -0.310471 
-0.000896258 -0.343537 -0.310431 
3.99543e-05 -3.38086e-11 0.966715 
8.00549e-05 -3.37684e-11 0.966642 
-0.00227165 -0.132257 0.162297 
-0.00102234 -0.13221 0.162484 
-9.74135e-05 8.95475e-11 0.968511 
-0.000213462 8.95862e-11 0.968325 
-0.00234549 -0.134655 0.162297 
-0.00105988 -0.13461 0.162484 
-6.00922e-05 2.23081e-11 0.968511 
-0.000139479 2.2355e-11 0.968325 
-0.00220745 -0.0661177 0.337638 
-0.00100088 -0.0660751 0.337968 
7.68997e-06 2.42678e-11 0.992606 
1.83876e-05 2.4289e-11 0.992302 
-0.00190467 -0.0688295 0.337638 
-0.000865525 -0.0687997 0.337968 
-0.000129856 9.9903e-12 0.992606 
-0.000288989 1.00339e-11 0.992302 
-0.00145928 -0.0269455 0.431017 
-0.000664974 -0.026918 0.43145 
9.2669e-05 1.15837e-11 0.994025 
0.000203223 1.15849e-11 0.993633 
-0.000918167 -0.0292742 0.431017 
-0.000418301 -0.0292624 0.43145 
-0.000158496 2.80757e-12 0.994025 
-0.000347994 2.84132e-12 0.993633 
-0.000311369 0.00101535 0.457411 
-0.00014256 0.00102356 0.45788 
0.000145154 3.49601e-12 0.995534 
0.000317262 3.47813e-12 0.995111 
0.000311369 -0.00101535 0.457411 
0.00014256 -0.00102356 0.45788 
-0.000145154 -3.49601e-12 0.995534 
-0.000317262 -3.47813e-12 0.995111 
0.000918167 0.0292742 0.431017 
0.000418301 0.0292624 0.43145 
0.000158496 -2.80757e-12 0.994025 
0.000347994 -2.84132e-12 0.993633 
0.00145928 0.0269455 0.431017 
0.000664974 0.026918 0.43145 
-9.2669e-05 -1.15837e-11 0.994025 
-0.000203223 -1.15849e-11 0.993633 
0.00190467 0.0688295 0.337638 
0.000865525 0.0687997 0.337968 
0.000129856 -9.9903e-12 0.992606 
0.000288989 -1.00339e-11 0.992302 
0.00220745 0.0661177 0.337638 
0.00100088 0.0660751 0.337968 
-7.68997e-06 -2.42678e-11 0.992606 
-1.83876e-05 -2.4289e-11 0.992302 
0.00234549 0.134655 0.162297 
0.00105988 0.13461 0.162484 
6.00922e-05 -2.23081e-11 0.968511 
0.000139479 -2.2355e-11 0.968325 
0.00227165 0.132257 0.162297 
0.00102234 0.13221 0.162484 
9.74135e-05 -8.95475e-11 0.968511 
0.000213462 -8.95862e-11 0.968325 
0.00200109 0.343586 -0.310471 
0.000896258 0.343537 -0.310431 
-3.99543e-05 3.38086e-11 0.966715 
-8.00549e-05 3.37684e-11 0.966642 
0.00143206 0.524308 -0.310471 
0.000637468 0.524285 -0.310431 
0.000234759 3.81114e-12 0.966715 
0.000527168 3.72876e-12 0.966642 
0.000516418 0.132514 -1.319e-10 
0.000229997 0.132479 -1.31987e-10 
-0.000198419 -9.85263e-10 1.69715e-09 
-0.0004429 -9.85301e-10 1.69718e-09 
-0.000926765 -0.132542 -1.31714e-10 
-0.000516418 -0.132479 -1.31889e-10 
0.0004429 9.85381e-10 1.69727e-09 
0.000786804 9.85464e-10 1.69734e-09 
-0.00257145 -0.524386 -0.31065 
-0.00143206 -0.524341 -0.310574 
-0.000527168 -3.69498e-12 0.966742 
-0.000946158 -3.52934e-12 0.966606 
-0.00355998 -0.343677 -0.31065 
-0.00200109 -0.343587 -0.310574 
8.00549e-05 -3.36841e-11 0.966742 
0.000115262 -3.36001e-11 0.966606 
-0.00400874 -0.13234 0.161701 
-0.00227165 -0.132254 0.162052 
-0.000213462 8.96799e-11 0.968579 
-0.000368555 8.97578e-11 0.968234 
-0.00411558 -0.134737 0.161701 
-0.00234549 -0.134655 0.162052 
-0.000139479 2.24235e-11 0.968579 
-0.000265464 2.25204e-11 0.968234 
-0.00384932 -0.06618 0.336623 
-0.00220745 -0.0661059 0.337235 
1.83876e-05 2.43802e-11 0.992713 
3.6685e-05 2.44232e-11 0.992152 
-0.00331315 -0.0688855 0.336623 
-0.00190467 -0.0688311 0.337235 
-0.000288989 1.00755e-11 0.992713 
-0.000514304 1.01644e-11 0.992152 
-0.00252326 -0.0269798 0.429705 
-0.00145928 -0.0269351 0.430502 
0.000203223 1.16564e-11 0.994161 
0.000352651 1.16595e-11 0.993439 
-0.00159192 -0.029301 0.429705 
-0.000918167 -0.0292774 0.430502 
-0.000347994 2.84423e-12 0.994161 
-0.000605327 2.91213e-12 0.993439 
-0.000532322 0.00101162 0.455993 
-0.000311369 0.00102193 0.456855 
0.000317262 3.51557e-12 0.99568 
0.000547452 3.48033e-12 0.994901 
0.000532322 -0.00101162 0.455993 
0.000311369 -0.00102193 0.456855 
-0.000317262 -3.51557e-12 0.99568 
-0.000547452 -3.48033e-12 0.994901 
0.00159192 0.029301 0.429705 
0.000918167 0.0292774 0.430502 
0.000347994 -2.84423e-12 0.994161 
0.000605327 -2.91213e-12 0.993439 
0.00252326 0.0269798 0.429705 
0.00145928 0.0269351 0.430502 
-0.000203223 -1.16564e-11 0.994161 
-0.000352651 -1.16595e-11 0.993439 
0.00331315 0.0688855 0.336623 
0.00190467 0.0688311 0.337235 
0.000288989 -1.00755e-11 0.992713 
0.000514304 -1.01644e-11 0.992152 
0.00384932 0.06618 0.336623 
0.00220745 0.0661059 0.337235 
-1.83876e-05 -2.43802e-11 0.992713 
-3.6685e-05 -2.44232e-11 0.992152 
0.00411558 0.134737 0.161701 
0.00234549 0.134655 0.162052 
0.000139479 -2.24235e-11 0.968579 
0.000265464 -2.25205e-11 0.968234 
0.00400874 0.13234 0.161701 
0.00227165 0.132254 0.162052 
0.000213462 -8.96799e-11 0.968579 
0.000368555 -8.97578e-11 0.968234 
0.00355998 0.343677 -0.31065 
0.00200109 0.343587 -0.310574 
-8.00549e-05 3.36841e-11 0.966742 
-0.000115262 3.36001e-11 0.966606 
0.00257145 0.524386 -0.31065 
0.00143206 0.524341 -0.310574 
0.000527168 3.69498e-12 0.966742 
0.000946158 3.52934e-12 0.966606 
0.000926765 0.132542 -1.31714e-10 
0.000516418 0.132479 -1.31889e-10 
-0.0004429 -9.85381e-10 1.69727e-09 
-0.000786804 -9.85464e-10 1.69734e-09 
-0.00154673 -0.132583 -1.31369e-10 
-0.000926765 -0.132489 -1.3169e-10 
0.000786804 9.85611e-10 1.6975e-09 
0.00130205 9.85775e-10 1.69766e-09 
-0.0043162 -0.524527 -0.310954 
-0.00257145 -0.524442 -0.31083 
-0.000946158 -3.4633e-12 0.966775 
-0.00159185 -3.16125e-12 0.966555 
-0.00588864 -0.343823 -0.310954 
-0.00355998 -0.343688 -0.31083 
0.000115262 -3.34431e-11 0.966775 
0.000136363 -3.32853e-11 0.966555 
-0.00657803 -0.132473 0.160706 
-0.00400874 -0.132333 0.161284 
-0.000368555 8.99336e-11 0.968666 
-0.000595653 9.0082e-11 0.968102 
-0.00667758 -0.134855 0.160706 
-0.00411558 -0.134743 0.161284 
-0.000265464 2.26468e-11 0.968666 
-0.000470316 2.28229e-11 0.968102 
-0.00621747 -0.0662724 0.334946 
-0.00384932 -0.0661605 0.335943 
3.6685e-05 2.45932e-11 0.992849 
5.57031e-05 2.46803e-11 0.991933 
-0.00530781 -0.0689568 0.334946 
-0.00331315 -0.0688899 0.335943 
-0.000514304 1.02406e-11 0.992849 
-0.000844323 1.03982e-11 0.991933 
-0.00403285 -0.0270271 0.42755 
-0.00252326 -0.0269659 0.428841 
0.000352651 1.1792e-11 0.99433 
0.000551603 1.18085e-11 0.993156 
-0.00253064 -0.0293309 0.42755 
-0.00159192 -0.0293034 0.428841 
-0.000605327 2.91713e-12 0.99433 
-0.000962201 3.03283e-12 0.993156 
-0.000848245 0.00100402 0.453669 
-0.000532322 0.00101771 0.455062 
0.000547452 3.54958e-12 0.995862 
0.0008574 3.49583e-12 0.994595 
0.000848245 -0.00100402 0.453669 
0.000532322 -0.00101771 0.455062 
-0.000547452 -3.54959e-12 0.995862 
-0.0008574 -3.49583e-12 0.994595 
0.00253064 0.0293309 0.42755 
0.00159192 0.0293034 0.428841 
0.000605327 -2.91713e-12 0.99433 
0.000962201 -3.03283e-12 0.993156 
0.00403285 0.0270271 0.42755 
0.00252326 0.0269659 0.428841 
-0.000352651 -1.1792e-11 0.99433 
-0.000551603 -1.18085e-11 0.993156 
0.00530781 0.0689568 0.334946 
0.00331315 0.0688899 0.335943 
0.000514304 -1.02406e-11 0.992849 
0.000844323 -1.03982e-11 0.991933 
0.00621747 0.0662724 0.334946 
0.00384932 0.0661605 0.335943 
-3.6685e-05 -2.45932e-11 0.992849 
-5.57031e-05 -2.46803e-11 0.991933 
0.00667758 0.134855 0.160706 
0.00411558 0.134743 0.161284 
0.000265464 -2.26468e-11 0.968666 
0.000470316 -2.28229e-11 0.968102 
0.00657803 0.132473 0.160706 
0.00400874 0.132333 0.161284 
0.000368555 -8.99336e-11 0.968666 
0.000595653 -9.0082e-11 0.968102 
0.00588864 0.343823 -0.310954 
0.00355998 0.343688 -0.31083 
-0.000115262 3.34431e-11 0.966775 
-0.000136363 3.32853e-11 0.966555 
0.0043162 0.524527 -0.310954 
0.00257145 0.524442 -0.31083 
0.000946158 3.4633e-12 0.966775 
0.00159185 3.16125e-12 0.966555 
0.00154673 0.132583 -1.31369e-10 
0.000926765 0.132489 -1.3169e-10 
-0.000786804 -9.85611e-10 1.6975e-09 
-0.00130205 -9.85775e-10 1.69766e-09 
-0.00253435 -0.132648 -1.30751e-10 
-0.00154673 -0.132513 -1.3132e-10 
0.00130205 9.86028e-10 1.69793e-09 
0.00207012 9.86361e-10 1.69824e-09 
-0.00701553 -0.524736 -0.31145 
-0.0043162 -0.524613 -0.311246 
-0.00159185 -3.03903e-12 0.966818 
-0.0025688 -2.51924e-12 0.966493 
-0.00946293 -0.344058 -0.31145 
-0.00588864 -0.343855 -0.311246 
0.000136363 -3.30028e-11 0.966818 
5.59678e-05 -3.26959e-11 0.966493 
-0.0103414 -0.13261 0.159129 
-0.00657803 -0.132462 0.160045 
-0.000595653 9.03938e-11 0.968788 
-0.000894554 9.06324e-11 0.967922 
-0.0105 -0.135025 0.159129 
-0.00667758 -0.13487 0.160045 
-0.000470316 2.30476e-11 0.968788 
-0.000888743 2.34057e-11 0.967922 
-0.00955448 -0.0663054 0.33231 
-0.00621747 -0.0662555 0.333877 
5.57031e-05 2.49777e-11 0.993034 
0.000136768 2.51099e-11 0.991622 
-0.00823023 -0.069053 0.33231 
-0.00530781 -0.068951 0.333877 
-0.000844323 1.05384e-11 0.993034 
-0.0014175 1.08605e-11 0.991622 
-0.00606271 -0.0269967 0.424182 
-0.00403285 -0.0270338 0.426197 
0.000551603 1.20354e-11 0.994561 
0.000881904 1.20423e-11 0.992742 
-0.00393487 -0.0293929 0.424182 
-0.00253064 -0.0293071 0.426197 
-0.000962201 3.04892e-12 0.994561 
-0.00153398 3.2884e-12 0.992742 
-0.00119043 0.00105568 0.450047 
-0.000848245 0.000980065 0.452214 
0.0008574 3.60976e-12 0.996108 
0.00134311 3.4884e-12 0.994145 
0.00119043 -0.00105568 0.450047 
0.000848245 -0.000980065 0.452214 
-0.0008574 -3.60976e-12 0.996108 
-0.00134311 -3.4884e-12 0.994145 
0.00393487 0.0293929 0.424182 
0.00253064 0.0293071 0.426197 
0.000962201 -3.04892e-12 0.994561 
0.00153398 -3.2884e-12 0.992742 
0.00606271 0.0269967 0.424182 
0.00403285 0.0270338 0.426197 
-0.000551603 -1.20354e-11 0.994561 
-0.000881904 -1.20423e-11 0.992742 
0.00823023 0.069053 0.33231 
0.00530781 0.068951 0.333877 
0.000844323 -1.05384e-11 0.993034 
0.0014175 -1.08605e-11 0.991622 
0.00955448 0.0663054 0.33231 
0.00621747 0.0662555 0.333877 
-5.57031e-05 -2.49777e-11 0.993034 
-0.000136768 -2.51099e-11 0.991622 
0.0105 0.135025 0.159129 
0.00667758 0.13487 0.160045 
0.000470316 -2.30476e-11 0.968788 
0.000888743 -2.34057e-11 0.967922 
0.0103414 0.13261 0.159129 
0.00657803 0.132462 0.160045 
0.000595653 -9.03938e-11 0.968788 
0.000894554 -9.06324e-11 0.967922 
0.00946293 0.344058 -0.31145 
0.00588864 0.343855 -0.311246 
-0.000136363 3.30028e-11 0.966818 
-5.59678e-05 3.26959e-11 0.966493 
0.00701553 0.524736 -0.31145 
0.0043162 0.524613 -0.311246 
0.00159185 3.03903e-12 0.966818 
0.0025688 2.51924e-12 0.966493 
0.00253435 0.132648 -1.30751e-10 
0.00154673 0.132513 -1.3132e-10 
-0.00130205 -9.86028e-10 1.69793e-09 
-0.00207012 -9.86361e-10 1.69824e-09 
-0.0038219 -0.132628 -1.29677e-10 
-0.00253435 -0.132616 -1.30663e-10 
0.00207012 9.86792e-10 1.6987e-09 
0.00324588 9.87364e-10 1.69933e-09 
-0.0113653 -0.52515 -0.312289 
-0.00701553 -0.524814 -0.311943 
-0.0025688 -2.26042e-12 0.966929 
-0.00435901 -1.29804e-12 0.96626 
-0.0146434 -0.34418 -0.312289 
-0.00946293 -0.344226 -0.311943 
5.59678e-05 -3.223e-11 0.966929 
-1.96401e-05 -3.17686e-11 0.96626 
-0.0162507 -0.13284 0.156385 
-0.0103414 -0.132541 0.158092 
-0.000894554 9.12448e-11 0.969057 
-0.00154919 9.18159e-11 0.967389 
-0.0155632 -0.134837 0.156385 
-0.0105 -0.135114 0.158092 
-0.000888743 2.3759e-11 0.969057 
-0.00138455 2.4259e-11 0.967389 
-0.01459 -0.0663367 0.327839 
-0.00955448 -0.0662739 0.330638 
0.000136768 2.5693e-11 0.993435 
-7.84308e-05 2.61413e-11 0.990763 
-0.0117782 -0.0687121 0.327839 
-0.00823023 -0.0690563 0.330638 
-0.0014175 1.10518e-11 0.993435 
-0.00198891 1.14606e-11 0.990763 
-0.00918171 -0.0270119 0.418556 
-0.00606271 -0.0270393 0.422077 
0.000881904 1.24995e-11 0.995046 
0.000984892 1.27374e-11 0.991681 
-0.00536022 -0.0290946 0.418556 
-0.00393487 -0.0293233 0.422077 
-0.00153398 3.26254e-12 0.995046 
-0.00200212 3.49359e-12 0.991681 
-0.00204923 0.000915714 0.444024 
-0.00119043 0.000968584 0.447787 
0.00134311 3.74246e-12 0.996621 
0.00164272 3.74594e-12 0.993009 
0.00204923 -0.000915714 0.444024 
0.00119043 -0.000968584 0.447787 
-0.00134311 -3.74246e-12 0.996621 
-0.00164272 -3.74594e-12 0.993009 
0.00536022 0.0290946 0.418556 
0.00393487 0.0293233 0.422077 
0.00153398 -3.26254e-12 0.995046 
0.00200212 -3.49359e-12 0.991681 
0.00918171 0.0270119 0.418556 
0.00606271 0.0270393 0.422077 
-0.000881904 -1.24995e-11 0.995046 
-0.000984892 -1.27374e-11 0.991681 
0.0117782 0.0687121 0.327839 
0.00823023 0.0690563 0.330638 
0.0014175 -1.10518e-11 0.993435 
0.00198891 -1.14606e-11 0.990763 
0.01459 0.0663367 0.327839 
0.00955448 0.0662739 0.330638 
-0.000136768 -2.5693e-11 0.993435 
7.84308e-05 -2.61413e-11 0.990763 
0.0155632 0.134837 0.156385 
0.0105 0.135114 0.158092 
0.000888743 -2.3759e-11 0.969057 
0.00138455 -2.4259e-11 0.967389 
0.0162507 0.13284 0.156385 
0.0103414 0.132541 0.158092 
0.000894554 -9.12448e-11 0.969057 
0.00154919 -9.18159e-11 0.967389 
0.0146434 0.34418 -0.312289 
0.00946293 0.344226 -0.311943 
-5.59678e-05 3.223e-11 0.966929 
1.96401e-05 3.17686e-11 0.96626 
0.0113653 0.52515 -0.312289 
0.00701553 0.524814 -0.311943 
0.0025688 2.26042e-12 0.966929 
0.00435901 1.29804e-12 0.96626 
0.0038219 0.132628 -1.29677e-10 
0.00253435 0.132616 -1.30663e-10 
-0.00207012 -9.86792e-10 1.6987e-09 
-0.00324588 -9.87364e-10 1.69933e-09 
-0.00698004 -0.133347 -1.27323e-10 
-0.0038219 -0.132706 -1.29537e-10 
0.00324588 9.88171e-10 1.7e-09 
0.00475521 9.89774e-10 1.70145e-09 
-0.0174284 -0.525154 -0.313293 
-0.0113653 -0.525206 -0.313153 
-0.00435901 -8.94474e-13 0.966751 
-0.00567063 3.74682e-13 0.967085 
-0.0232691 -0.344663 -0.313293 
-0.0146434 -0.344582 -0.313153 
-1.96401e-05 -3.07115e-11 0.966751 
-0.00166005 -2.90709e-11 0.967085 
-0.0222077 -0.131211 0.153031 
-0.0162507 -0.132757 0.154452 
-0.00154919 9.26383e-11 0.96902 
-0.00148529 9.32004e-11 0.96794 
-0.0243126 -0.134975 0.153031 
-0.0155632 -0.134965 0.154452 
-0.00138455 2.52131e-11 0.96902 
-0.00369437 2.71366e-11 0.96794 
-0.0185919 -0.0641933 0.321658 
-0.01459 -0.0664344 0.324788 
-7.84308e-05 2.68501e-11 0.993531 
0.00109199 2.68549e-11 0.991144 
-0.018297 -0.0687282 0.321658 
-0.0117782 -0.0685805 0.324788 
-0.00198891 1.21953e-11 0.993531 
-0.00453424 1.39847e-11 0.991144 
-0.010214 -0.0249529 0.410483 
-0.00918171 -0.0273494 0.414776 
0.000984892 1.31536e-11 0.995278 
0.00254802 1.2764e-11 0.991661 
-0.00927036 -0.029582 0.410483 
-0.00536022 -0.0287153 0.414776 
-0.00200212 3.86399e-12 0.995278 
-0.00408573 5.25015e-12 0.991661 
-0.000522743 0.00224506 0.435332 
-0.00204923 0.000464117 0.439975 
0.00164272 3.77019e-12 0.996906 
0.003401 2.91686e-12 0.992863 
0.000522743 -0.00224506 0.435332 
0.00204923 -0.000464117 0.439975 
-0.00164272 -3.77019e-12 0.996906 
-0.003401 -2.91686e-12 0.992863 
0.00927036 0.029582 0.410483 
0.00536022 0.0287153 0.414776 
0.00200212 -3.86399e-12 0.995278 
0.00408573 -5.25015e-12 0.991661 
0.010214 0.0249529 0.410483 
0.00918171 0.0273494 0.414776 
-0.000984892 -1.31536e-11 0.995278 
-0.00254802 -1.2764e-11 0.991661 
0.018297 0.0687282 0.321658 
0.0117782 0.0685805 0.324788 
0.00198891 -1.21953e-11 0.993531 
0.00453424 -1.39847e-11 0.991144 
0.0185919 0.0641933 0.321658 
0.01459 0.0664344 0.324788 
7.84308e-05 -2.68501e-11 0.993531 
-0.00109199 -2.68549e-11 0.991144 
0.0243126 0.134975 0.153031 
0.0155632 0.134965 0.154452 
0.00138455 -2.52131e-11 0.96902 
0.00369437 -2.71366e-11 0.96794 
0.0222077 0.131211 0.153031 
0.0162507 0.132757 0.154452 
0.00154919 -9.26383e-11 0.96902 
0.00148529 -9.32004e-11 0.96794 
0.0232691 0.344663 -0.313293 
0.0146434 0.344582 -0.313153 
1.96401e-05 3.07115e-11 0.966751 
0.00166005 2.90709e-11 0.967085 
0.0174284 0.525154 -0.313293 
0.0113653 0.525206 -0.313153 
0.00435901 8.94473e-13 0.966751 
0.00567063 -3.74683e-13 0.967085 
0.00698004 0.133347 -1.27323e-10 
0.0038219 0.132706 -1.29537e-10 
-0.00324588 -9.88171e-10 1.7e-09 
-0.00475521 -9.89774e-10 1.70145e-09 
-0.00416887 -0.128044 -1.27133e-10 
-0.00698004 -0.1349 -1.26928e-10 
0.00475521 9.90229e-10 1.7036e-09 
0.00630284 9.92339e-10 1.7053e-09 
-0.0289939 -0.524484 -0.319924 
-0.0174284 -0.524421 -0.314844 
-0.00567063 2.0929e-12 0.969878 
-0.0156772 7.02443e-12 0.959527 
-0.0291839 -0.339573 -0.319924 
-0.0232691 -0.345857 -0.314844 
-0.00166005 -2.82663e-11 0.969878 
0.000277778 -2.99304e-11 0.959527 
-0.0385477 -0.131873 0.134447 
-0.0222077 -0.130628 0.150393 
-0.00148529 9.71999e-11 0.973935 
-0.0070696 9.94684e-11 0.957891 
-0.0243817 -0.125773 0.134447 
-0.0243126 -0.135381 0.150393 
-0.00369437 2.66773e-11 0.973935 
-0.00290807 2.65399e-11 0.957891 
-0.0302151 -0.0628412 0.29524 
-0.0185919 -0.0648973 0.31711 
0.00109199 3.06717e-11 0.999892 
-0.00434759 3.49941e-11 0.97697 
-0.0133714 -0.0594475 0.29524 
-0.018297 -0.0677592 0.31711 
-0.00453424 1.28494e-11 0.999892 
-0.000784334 1.23182e-11 0.97697 
-0.0189868 -0.0258123 0.380041 
-0.010214 -0.0265276 0.404422 
0.00254802 1.59242e-11 1.00235 
-0.00292027 1.9842e-11 0.976386 
-0.00213639 -0.0227504 0.380041 
-0.00927036 -0.0280753 0.404422 
-0.00408573 3.40245e-12 1.00235 
0.000848567 1.78104e-12 0.976386 
-0.00834908 -0.00166909 0.403721 
-0.000522743 0.000566603 0.428765 
0.003401 5.4186e-12 1.00412 
-0.00199808 8.21327e-12 0.977358 
0.00834908 0.00166909 0.403721 
0.000522743 -0.000566603 0.428765 
-0.003401 -5.4186e-12 1.00412 
0.00199808 -8.21327e-12 0.977358 
0.00213639 0.0227504 0.380041 
0.00927036 0.0280753 0.404422 
0.00408573 -3.40245e-12 1.00235 
-0.000848567 -1.78104e-12 0.976386 
0.0189868 0.0258123 0.380041 
0.010214 0.0265276 0.404422 
-0.00254802 -1.59242e-11 1.00235 
0.00292027 -1.9842e-11 0.976386 
0.0133714 0.0594475 0.29524 
0.018297 0.0677592 0.31711 
0.00453424 -1.28494e-11 0.999892 
0.000784334 -1.23182e-11 0.97697 
0.0302151 0.0628412 0.29524 
0.0185919 0.0648973 0.31711 
-0.00109199 -3.06717e-11 0.999892 
0.00434759 -3.49941e-11 0.97697 
0.0243817 0.125773 0.134447 
0.0243126 0.135381 0.150393 
0.00369437 -2.66773e-11 0.973935 
0.00290807 -2.65399e-11 0.957891 
0.0385477 0.131873 0.134447 
0.0222077 0.130628 0.150393 
0.00148529 -9.71999e-11 0.973935 
0.0070696 -9.94684e-11 0.957891 
0.0291839 0.339573 -0.319924 
0.0232691 0.345857 -0.314844 
0.00166005 2.82663e-11 0.969878 
-0.000277778 2.99304e-11 0.959527 
0.0289939 0.524484 -0.319924 
0.0174284 0.524421 -0.314844 
0.00567063 -2.0929e-12 0.969878 
0.0156772 -7.02444e-12 0.959527 
0.00416887 0.128044 -1.27133e-10 
0.00698004 0.1349 -1.26928e-10 
-0.00475521 -9.90229e-10 1.7036e-09 
-0.00630284 -9.92339e-10 1.7053e-09 
-0.0163155 -0.161563 -8.79038e-11 
-0.00416887 -0.129711 -1.30235e-10 
0.00630284 1.00837e-09 1.69973e-09 
0.00664057 9.96237e-10 1.71954e-09 
-0.0234955 -0.529186 -0.297419 
-0.0289939 -0.519466 -0.327529 
-0.0156772 1.00963e-11 0.952538 
-0.0151256 -8.88937e-12 1.00658 
-0.0470519 -0.336809 -0.297419 
-0.0291839 -0.35216 -0.327529 
0.000277778 -2.23941e-11 0.952538 
-0.0345697 1.17649e-12 1.00658 
-0.00302342 -0.0829543 0.158715 
-0.0385477 -0.129233 0.119099 
-0.0070696 9.85805e-11 0.955614 
0.00604364 1.01802e-10 0.99782 
-0.0500574 -0.118707 0.158715 
-0.0243817 -0.127214 0.119099 
-0.00290807 3.92662e-11 0.955614 
-0.018653 5.81081e-11 0.99782 
0.0152185 -0.0226743 0.30786 
-0.0302151 -0.0642745 0.270682 
-0.00434759 2.78436e-11 0.983147 
0.00840954 2.63118e-11 1.0192 
-0.0394471 -0.0616213 0.30786 
-0.0133714 -0.0603934 0.270682 
-0.000784334 2.39398e-11 0.983147 
-0.0156643 3.74067e-11 1.0192 
0.0221445 0.00197785 0.384309 
-0.0189868 -0.0258888 0.351487 
-0.00292027 1.11157e-11 0.986638 
0.0105229 5.17744e-12 1.018 
-0.0330473 -0.0340491 0.384309 
-0.00213639 -0.0239259 0.351487 
0.000848567 1.23009e-11 0.986638 
-0.0130697 2.26383e-11 1.018 
0.0277859 0.0175635 0.405106 
-0.00834908 -0.000771797 0.373897 
-0.00199808 -1.44396e-12 0.988924 
0.0116534 -9.62547e-12 1.01864 
-0.0277859 -0.0175635 0.405106 
0.00834908 0.000771797 0.373897 
0.00199808 1.44396e-12 0.988924 
-0.0116534 9.62547e-12 1.01864 
0.0330473 0.0340491 0.384309 
0.00213639 0.0239259 0.351487 
-0.000848567 -1.23009e-11 0.986638 
0.0130697 -2.26383e-11 1.018 
-0.0221445 -0.00197785 0.384309 
0.0189868 0.0258888 0.351487 
0.00292027 -1.11157e-11 0.986638 
-0.0105229 -5.17744e-12 1.018 
0.0394471 0.0616213 0.30786 
0.0133714 0.0603934 0.270682 
0.000784334 -2.39398e-11 0.983147 
0.0156643 -3.74067e-11 1.0192 
-0.0152185 0.0226743 0.30786 
0.0302151 0.0642745 0.270682 
0.00434759 -2.78436e-11 0.983147 
-0.00840954 -2.63118e-11 1.0192 
0.0500574 0.118707 0.158715 
0.0243817 0.127214 0.119099 
0.00290807 -3.92662e-11 0.955614 
0.018653 -5.81081e-11 0.99782 
0.00302342 0.0829543 0.158715 
0.0385477 0.129233 0.119099 
0.0070696 -9.85805e-11 0.955614 
-0.00604364 -1.01802e-10 0.99782 
0.0470519 0.336809 -0.297419 
0.0291839 0.35216 -0.327529 
-0.000277778 2.23941e-11 0.952538 
0.0345697 -1.1765e-12 1.00658 
0.0234955 0.529186 -0.297419 
0.0289939 0.519466 -0.327529 
0.0156772 -1.00963e-11 0.952538 
0.0151256 8.88937e-12 1.00658 
0.0163155 0.161563 -8.79038e-11 
0.00416887 0.129711 -1.30235e-10 
-0.00630284 -1.00837e-09 1.69973e-09 
-0.00664057 -9.96237e-10 1.71954e-09 
4.48283e-11 0.0897251 -2.66355e-10 
-0.0163155 -0.259791 -9.4929e-11 
0.00664057 8.75903e-10 1.75158e-09 
1.62296e-09 1.28256e-09 1.88356e-09 
2.5893e-10 -0.167479 -0.556931 
-0.0234955 -0.533126 -0.304672 
-0.0151256 -9.26635e-12 1.1076 
-2.30465e-11 2.90006e-10 0.672971 
2.5365e-10 -0.0699104 -0.556931 
-0.0470519 -0.281324 -0.304672 
-0.0345697 -2.53952e-11 1.1076 
1.20843e-10 3.06036e-11 0.672971 
3.9086e-12 0.0215386 -0.432592 
-0.00302342 -0.147951 0.132649 
0.00604364 1.52671e-10 1.18059 
5.19426e-11 1.61655e-10 0.594568 
1.17916e-10 0.00284948 -0.432592 
-0.0500574 -0.0569771 0.132649 
-0.018653 1.02885e-14 1.18059 
1.09252e-10 1.31944e-11 0.594568 
-1.50873e-11 0.000678632 -0.405212 
0.0152185 -0.0853089 0.257311 
0.00840954 9.13676e-11 1.23392 
-6.33931e-12 9.01713e-11 0.573032 
9.43706e-11 0.00242497 -0.405212 
-0.0394471 -0.00728384 0.257311 
-0.0156643 -2.72734e-11 1.23392 
7.26718e-11 -1.79901e-11 0.573032 
-4.08807e-11 -0.00441378 -0.382706 
0.0221445 -0.051934 0.317479 
0.0105229 7.42992e-11 1.25174 
-2.60539e-11 6.59092e-11 0.556198 
7.28072e-11 0.00570165 -0.382706 
-0.0330473 0.0175109 0.317479 
-0.0130697 -4.51184e-11 1.25174 
5.63046e-11 -3.56586e-11 0.556198 
-5.70027e-11 -0.00589407 -0.37728 
0.0277859 -0.0338448 0.33335 
0.0116534 5.9328e-11 1.25806 
-4.20139e-11 5.01218e-11 0.551776 
5.70027e-11 0.00589407 -0.37728 
-0.0277859 0.0338448 0.33335 
-0.0116534 -5.9328e-11 1.25806 
4.20139e-11 -5.01218e-11 0.551776 
-7.28072e-11 -0.00570165 -0.382706 
0.0330473 -0.0175109 0.317479 
0.0130697 4.51184e-11 1.25174 
-5.63046e-11 3.56586e-11 0.556198 
4.08807e-11 0.00441378 -0.382706 
-0.0221445 0.051934 0.317479 
-0.0105229 -7.42992e-11 1.25174 
2.60539e-11 -6.59092e-11 0.556198 
-9.43706e-11 -0.00242497 -0.405212 
0.0394471 0.00728384 0.257311 
0.0156643 2.72734e-11 1.23392 
-7.26718e-11 1.79901e-11 0.573032 
1.50873e-11 -0.000678632 -0.405212 
-0.0152185 0.0853089 0.257311 
-0.00840954 -9.13676e-11 1.23392 
6.33931e-12 -9.01713e-11 0.573032 
-1.17916e-10 -0.00284948 -0.432592 
0.0500574 0.0569771 0.132649 
0.018653 -1.02899e-14 1.18059 
-1.09252e-10 -1.31944e-11 0.594568 
-3.9086e-12 -0.0215386 -0.432592 
0.00302342 0.147951 0.132649 
-0.00604364 -1.52671e-10 1.18059 
-5.19426e-11 -1.61655e-10 0.594568 
-2.5365e-10 0.0699104 -0.556931 
0.0470519 0.281324 -0.304672 
0.0345697 2.53951e-11 1.1076 
-1.20843e-10 -3.06036e-11 0.672971 
-2.5893e-10 0.167479 -0.556931 
0.0234955 0.533126 -0.304672 
0.0151256 9.26634e-12 1.1076 
2.30465e-11 -2.90006e-10 0.672971 
-4.48283e-11 -0.0897251 -2.66355e-10 
0.0163155 0.259791 -9.4929e-11 
-0.00664057 -8.75903e-10 1.75158e-09 
-1.62296e-09 -1.28256e-09 1.88356e-09 
-9.7565e-05 -0.0306604 1.07815e-10 
-7.02949e-11 -0.030644 1.07809e-10 
-1.52224e-10 -0.132484 7.40644e-11 
4.95137e-05 -0.132495 7.40717e-11 
-0.00104755 -0.407804 -0.0918703 
-6.04591e-11 -0.407785 -0.0918254 
-2.17777e-10 -0.524262 -0.127435 
-0.000902325 -0.524269 -0.127485 
-0.00117682 -0.41208 -0.0918703 
-9.04754e-11 -0.412048 -0.0918254 
-1.13634e-10 -0.343521 -0.127435 
-0.000761689 -0.343537 -0.127485 
-0.0015489 -0.317781 -0.104226 
-5.17357e-11 -0.317749 -0.104082 
-6.89424e-11 -0.132198 0.136701 
-0.00113735 -0.132212 0.136557 
-0.00158935 -0.307689 -0.104226 
-5.47383e-11 -0.307659 -0.104082 
-7.09352e-11 -0.134597 0.136701 
-0.00109063 -0.134611 0.136557 
-0.00145827 -0.183324 -0.0197746 
-3.11647e-11 -0.183296 -0.019527 
-2.7022e-11 -0.0660676 0.340006 
-0.000958457 -0.0660811 0.339761 
-0.00139981 -0.178641 -0.0197746 
-3.17324e-11 -0.17862 -0.019527 
-2.95195e-11 -0.0687893 0.340006 
-0.00101478 -0.0687988 0.339761 
-0.000897444 -0.0816552 0.0531861 
-1.33479e-11 -0.0816374 0.0535068 
-1.18872e-11 -0.0269148 0.429697 
-0.000508447 -0.0269237 0.429381 
-0.00077348 -0.0806885 0.0531861 
-1.35989e-11 -0.0806799 0.0535068 
-1.31323e-11 -0.0292565 0.429697 
-0.000631698 -0.0292602 0.429381 
-7.327e-05 -0.000228794 0.0778206 
-2.569e-14 -0.000223975 0.0781674 
6.24762e-13 0.00102226 0.457033 
7.32167e-05 0.0010195 0.456691 
7.327e-05 0.000228794 0.0778206 
2.56914e-14 0.000223975 0.0781674 
-6.24761e-13 -0.00102226 0.457033 
-7.32167e-05 -0.0010195 0.456691 
0.00077348 0.0806885 0.0531861 
1.35989e-11 0.0806799 0.0535068 
1.31324e-11 0.0292565 0.429697 
0.000631698 0.0292602 0.429381 
0.000897444 0.0816552 0.0531861 
1.33479e-11 0.0816374 0.0535068 
1.18872e-11 0.0269148 0.429697 
0.000508447 0.0269237 0.429381 
0.00139981 0.178641 -0.0197746 
3.17324e-11 0.17862 -0.019527 
2.95195e-11 0.0687893 0.340006 
0.00101478 0.0687988 0.339761 
0.00145827 0.183324 -0.0197746 
3.11647e-11 0.183296 -0.019527 
2.7022e-11 0.0660676 0.340006 
0.000958457 0.0660811 0.339761 
0.00158935 0.307689 -0.104226 
5.47383e-11 0.307659 -0.104082 
7.09352e-11 0.134597 0.136701 
0.00109063 0.134611 0.136557 
0.0015489 0.317781 -0.104226 
5.17357e-11 0.317749 -0.104082 
6.89424e-11 0.132198 0.136701 
0.00113735 0.132212 0.136557 
0.00117682 0.41208 -0.0918703 
9.04754e-11 0.412048 -0.0918254 
1.13634e-10 0.343521 -0.127435 
0.000761689 0.343537 -0.127485 
0.00104755 0.407804 -0.0918703 
6.04591e-11 0.407785 -0.0918254 
2.17777e-10 0.524262 -0.127435 
0.000902325 0.524269 -0.127485 
9.7565e-05 0.0306604 1.07815e-10 
7.02949e-11 0.030644 1.07809e-10 
1.52224e-10 0.132484 7.40644e-11 
-4.95137e-05 0.132495 7.40717e-11 
-0.000210142 -0.0306824 1.07868e-10 
-9.7565e-05 -0.0306322 1.07845e-10 
4.95137e-05 -0.132479 7.41099e-11 
9.77814e-05 -0.132514 7.41365e-11 
-0.00231975 -0.407891 -0.0920336 
-0.00104755 -0.407829 -0.0918918 
-0.000902325 -0.524285 -0.127457 
-0.0020112 -0.524308 -0.127614 
-0.00259114 -0.412176 -0.0920336 
-0.00117682 -0.41208 -0.0918918 
-0.000761689 -0.343537 -0.127457 
-0.00171135 -0.343586 -0.127614 
-0.00338934 -0.317884 -0.10474 
-0.0015489 -0.317785 -0.104286 
-0.00113735 -0.13221 0.136618 
-0.00251573 -0.132257 0.136164 
-0.0034728 -0.307788 -0.10474 
-0.00158935 -0.307697 -0.104286 
-0.00109063 -0.13461 0.136618 
-0.0024172 -0.134655 0.136164 
-0.00316586 -0.183404 -0.0206461 
-0.00145827 -0.18332 -0.0198719 
-0.000958457 -0.0660751 0.339861 
-0.00210881 -0.0661177 0.339096 
-0.00304153 -0.178713 -0.0206461 
-0.00139981 -0.17865 -0.0198719 
-0.00101478 -0.0687997 0.339861 
-0.00222878 -0.0688295 0.339096 
-0.00193661 -0.0817 0.0520625 
-0.000897444 -0.0816484 0.0530622 
-0.000508447 -0.026918 0.429507 
-0.0011185 -0.0269455 0.428521 
-0.00167746 -0.0807243 0.0520625 
-0.00077348 -0.0806978 0.0530622 
-0.000631698 -0.0292624 0.429507 
-0.00137731 -0.0292742 0.428521 
-0.000152554 -0.000233355 0.0766071 
-7.327e-05 -0.000220493 0.0776873 
7.32167e-05 0.00102356 0.456827 
0.000153221 0.00101535 0.455761 
0.000152554 0.000233355 0.0766071 
7.327e-05 0.000220493 0.0776873 
-7.32167e-05 -0.00102356 0.456827 
-0.000153221 -0.00101535 0.455761 
0.00167746 0.0807243 0.0520625 
0.00077348 0.0806978 0.0530622 
0.000631698 0.0292624 0.429507 
0.00137731 0.0292742 0.428521 
0.00193661 0.0817 0.0520625 
0.000897444 0.0816484 0.0530622 
0.000508447 0.026918 0.429507 
0.0011185 0.0269455 0.428521 
0.00304153 0.178713 -0.0206461 
0.00139981 0.17865 -0.0198719 
0.00101478 0.0687997 0.339861 
0.00222878 0.0688295 0.339096 
0.00316586 0.183404 -0.0206461 
0.00145827 0.18332 -0.0198719 
0.000958457 0.0660751 0.339861 
0.00210881 0.0661177 0.339096 
0.0034728 0.307788 -0.10474 
0.00158935 0.307697 -0.104286 
0.00109063 0.13461 0.136618 
0.0024172 0.134655 0.136164 
0.00338934 0.317884 -0.10474 
0.0015489 0.317785 -0.104286 
0.00113735 0.13221 0.136618 
0.00251573 0.132257 0.136164 
0.00259114 0.412176 -0.0920336 
0.00117682 0.41208 -0.0918918 
0.000761689 0.343537 -0.127457 
0.00171135 0.343586 -0.127614 
0.00231975 0.407891 -0.0920336 
0.00104755 0.407829 -0.0918918 
0.000902325 0.524285 -0.127457 
0.0020112 0.524308 -0.127614 
0.000210142 0.0306824 1.07868e-10 
9.7565e-05 0.0306322 1.07845e-10 
-4.95137e-05 0.132479 7.41099e-11 
-9.77814e-05 0.132514 7.41365e-11 
-0.000348691 -0.0307109 1.07989e-10 
-0.000210142 -0.0306256 1.07937e-10 
9.77814e-05 -0.132479 7.42222e-11 
0.000135805 -0.132542 7.42849e-11 
-0.00406567 -0.408056 -0.0923381 
-0.00231975 -0.407942 -0.0920783 
-0.0020112 -0.524341 -0.127557 
-0.00356561 -0.524386 -0.127842 
-0.00449655 -0.412344 -0.0923381 
-0.00259114 -0.412181 -0.0920783 
-0.00171135 -0.343587 -0.127557 
-0.00307329 -0.343677 -0.127842 
-0.00582706 -0.318059 -0.105688 
-0.00338934 -0.317891 -0.104861 
-0.00251573 -0.132254 0.136288 
-0.00440995 -0.13234 0.135463 
-0.00595478 -0.307952 -0.105688 
-0.0034728 -0.307807 -0.104861 
-0.0024172 -0.134655 0.136288 
-0.00424788 -0.134737 0.135463 
-0.00537317 -0.183529 -0.0222371 
-0.00316586 -0.183398 -0.0208408 
-0.00210881 -0.0661059 0.339296 
-0.0036668 -0.06618 0.337915 
-0.00516821 -0.178828 -0.0222371 
-0.00304153 -0.178732 -0.0208408 
-0.00222878 -0.0688311 0.339296 
-0.0038595 -0.0688855 0.337915 
-0.00325415 -0.081763 0.0500234 
-0.00193661 -0.0816897 0.0518166 
-0.0011185 -0.0269351 0.428772 
-0.00194587 -0.0269798 0.427 
-0.00284137 -0.0807817 0.0500234 
-0.00167746 -0.0807399 0.0518166 
-0.00137731 -0.0292774 0.428772 
-0.00235553 -0.029301 0.427 
-0.000241152 -0.000235001 0.0744094 
-0.000152554 -0.000221072 0.0763434 
0.000153221 0.00102193 0.456031 
0.000241457 0.00101162 0.454118 
0.000241152 0.000235001 0.0744094 
0.000152554 0.000221072 0.0763434 
-0.000153221 -0.00102193 0.456031 
-0.000241457 -0.00101162 0.454118 
0.00284137 0.0807817 0.0500234 
0.00167746 0.0807399 0.0518166 
0.00137731 0.0292774 0.428772 
0.00235553 0.029301 0.427 
0.00325415 0.081763 0.0500234 
0.00193661 0.0816897 0.0518166 
0.0011185 0.0269351 0.428772 
0.00194587 0.0269798 0.427 
0.00516821 0.178828 -0.0222371 
0.00304153 0.178732 -0.0208408 
0.00222878 0.0688311 0.339296 
0.0038595 0.0688855 0.337915 
0.00537317 0.183529 -0.0222371 
0.00316586 0.183398 -0.0208408 
0.00210881 0.0661059 0.339296 
0.0036668 0.06618 0.337915 
0.00595478 0.307952 -0.105688 
0.0034728 0.307807 -0.104861 
0.0024172 0.134655 0.136288 
0.00424788 0.134737 0.135463 
0.00582706 0.318059 -0.105688 
0.00338934 0.317891 -0.104861 
0.00251573 0.132254 0.136288 
0.00440995 0.13234 0.135463 
0.00449655 0.412344 -0.0923381 
0.00259114 0.412181 -0.0920783 
0.00171135 0.343587 -0.127557 
0.00307329 0.343677 -0.127842 
0.00406567 0.408056 -0.0923381 
0.00231975 0.407942 -0.0920783 
0.0020112 0.524341 -0.127557 
0.00356561 0.524386 -0.127842 
0.000348691 0.0307109 1.07989e-10 
0.000210142 0.0306256 1.07937e-10 
-9.77814e-05 0.132479 7.42222e-11 
-0.000135805 0.132542 7.42849e-11 
-0.000512203 -0.0307435 1.08219e-10 
-0.000348691 -0.0306303 1.08119e-10 
0.000135805 -0.132489 7.44397e-11 
0.000129425 -0.132583 7.45729e-11 
-0.00656651 -0.408304 -0.0928278 
-0.00406567 -0.40813 -0.0924102 
-0.00356561 -0.524442 -0.127756 
-0.00586561 -0.524527 -0.12821 
-0.0071705 -0.412573 -0.0928278 
-0.00449655 -0.41237 -0.0924102 
-0.00307329 -0.343688 -0.127756 
-0.00515485 -0.343823 -0.12821 
-0.00916127 -0.318271 -0.107187 
-0.00582706 -0.318064 -0.105871 
-0.00440995 -0.132333 0.13565 
-0.00714758 -0.132473 0.134338 
-0.00934775 -0.308144 -0.107187 
-0.00595478 -0.307992 -0.105871 
-0.00424788 -0.134743 0.13565 
-0.00692449 -0.134855 0.134338 
-0.00828805 -0.183638 -0.0247198 
-0.00537317 -0.183524 -0.0225235 
-0.0036668 -0.0661605 0.338213 
-0.00587706 -0.0662724 0.336035 
-0.00801527 -0.17894 -0.0247198 
-0.00516821 -0.178854 -0.0225235 
-0.0038595 -0.0688899 0.338213 
-0.00616617 -0.0689568 0.336035 
-0.00494002 -0.0817909 0.04687 
-0.00325415 -0.0817632 0.0496681 
-0.00194587 -0.0269659 0.427371 
-0.00311598 -0.0270271 0.424594 
-0.00439419 -0.0808363 0.04687 
-0.00284137 -0.0807885 0.0496681 
-0.00235553 -0.0293034 0.427371 
-0.00370147 -0.0293309 0.424594 
-0.000317148 -0.000216625 0.0710213 
-0.000241152 -0.000237857 0.0740311 
0.000241457 0.00101771 0.454515 
0.000341499 0.00100402 0.451527 
0.000317148 0.000216625 0.0710213 
0.000241152 0.000237857 0.0740311 
-0.000241457 -0.00101771 0.454515 
-0.000341499 -0.00100402 0.451527 
0.00439419 0.0808363 0.04687 
0.00284137 0.0807885 0.0496681 
0.00235553 0.0293034 0.427371 
0.00370147 0.0293309 0.424594 
0.00494002 0.0817909 0.04687 
0.00325415 0.0817632 0.0496681 
0.00194587 0.0269659 0.427371 
0.00311598 0.0270271 0.424594 
0.00801527 0.17894 -0.0247198 
0.00516821 0.178854 -0.0225235 
0.0038595 0.0688899 0.338213 
0.00616617 0.0689568 0.336035 
0.00828805 0.183638 -0.0247198 
0.00537317 0.183524 -0.0225235 
0.0036668 0.0661605 0.338213 
0.00587706 0.0662724 0.336035 
0.00934775 0.308144 -0.107187 
0.00595478 0.307992 -0.105871 
0.00424788 0.134743 0.13565 
0.00692449 0.134855 0.134338 
0.00916127 0.318271 -0.107187 
0.00582706 0.318064 -0.105871 
0.00440995 0.132333 0.13565 
0.00714758 0.132473 0.134338 
0.0071705 0.412573 -0.0928278 
0.00449655 0.41237 -0.0924102 
0.00307329 0.343688 -0.127756 
0.00515485 0.343823 -0.12821 
0.00656651 0.408304 -0.0928278 
0.00406567 0.40813 -0.0924102 
0.00356561 0.524442 -0.127756 
0.00586561 0.524527 -0.12821 
0.000512203 0.0307435 1.08219e-10 
0.000348691 0.0306303 1.08119e-10 
-0.000135805 0.132489 7.44397e-11 
-0.000129425 0.132583 7.45729e-11 
-0.000649568 -0.0307576 1.08639e-10 
-0.000512203 -0.0306751 1.08449e-10 
0.000129425 -0.132513 7.48291e-11 
1.67786e-05 -0.132648 7.51078e-11 
-0.0101581 -0.408601 -0.0935837 
-0.00656651 -0.408373 -0.0929312 
-0.00586561 -0.524613 -0.128102 
-0.00932064 -0.524736 -0.128783 
-0.0108081 -0.412743 -0.0935837 
-0.0071705 -0.412675 -0.0929312 
-0.00515485 -0.343855 -0.128102 
-0.00836192 -0.344058 -0.128783 
-0.0136479 -0.318369 -0.109447 
-0.00916127 -0.318252 -0.107421 
-0.00714758 -0.132462 0.134578 
-0.0111964 -0.13261 0.132563 
-0.0138062 -0.30813 -0.109447 
-0.00934775 -0.308232 -0.107421 
-0.00692449 -0.13487 0.134578 
-0.0107955 -0.135025 0.132563 
-0.0120438 -0.183528 -0.028398 
-0.00828805 -0.183644 -0.0250647 
-0.00587706 -0.0662555 0.336411 
-0.00908904 -0.0663054 0.333105 
-0.0116224 -0.178795 -0.028398 
-0.00801527 -0.178954 -0.0250647 
-0.00616617 -0.068951 0.336411 
-0.00933816 -0.069053 0.333105 
-0.00704288 -0.0816408 0.0422551 
-0.00494002 -0.0818459 0.0464591 
-0.00311598 -0.0270338 0.425054 
-0.00484887 -0.0269967 0.420873 
-0.00631429 -0.0807289 0.0422551 
-0.00439419 -0.0807837 0.0464591 
-0.00370147 -0.0293071 0.425054 
-0.00544366 -0.0293929 0.420873 
-0.000413194 -0.000181115 0.0660832 
-0.000317148 -0.000294877 0.0705903 
0.000341499 0.000980065 0.452015 
0.000354503 0.00105568 0.447531 
0.000413194 0.000181115 0.0660832 
0.000317148 0.000294877 0.0705903 
-0.000341499 -0.000980065 0.452015 
-0.000354503 -0.00105568 0.447531 
0.00631429 0.0807289 0.0422551 
0.00439419 0.0807837 0.0464591 
0.00370147 0.0293071 0.425054 
0.00544366 0.0293929 0.420873 
0.00704288 0.0816408 0.0422551 
0.00494002 0.0818459 0.0464591 
0.00311598 0.0270338 0.425054 
0.00484887 0.0269967 0.420873 
0.0116224 0.178795 -0.028398 
0.00801527 0.178954 -0.0250647 
0.00616617 0.068951 0.336411 
0.00933816 0.069053 0.333105 
0.0120438 0.183528 -0.028398 
0.00828805 0.183644 -0.0250647 
0.00587706 0.0662555 0.336411 
0.00908904 0.0663054 0.333105 
0.0138062 0.30813 -0.109447 
0.00934775 0.308232 -0.107421 
0.00692449 0.13487 0.134578 
0.0107955 0.135025 0.132563 
0.0136479 0.318369 -0.109447 
0.00916127 0.318252 -0.107421 
0.00714758 0.132462 0.134578 
0.0111964 0.13261 0.132563 
0.0108081 0.412743 -0.0935837 
0.0071705 0.412675 -0.0929312 
0.00515485 0.343855 -0.128102 
0.00836192 0.344058 -0.128783 
0.0101581 0.408601 -0.0935837 
0.00656651 0.408373 -0.0929312 
0.00586561 0.524613 -0.128102 
0.00932064 0.524736 -0.128783 
0.000649568 0.0307576 1.08639e-10 
0.000512203 0.0306751 1.08449e-10 
-0.000129425 0.132513 7.48291e-11 
-1.67786e-05 0.132648 7.51078e-11 
-0.000690496 -0.0307268 1.0936e-10 
-0.000649568 -0.0308381 1.09022e-10 
1.67786e-05 -0.132616 7.55279e-11 
-0.000569841 -0.132628 7.61336e-11 
-0.0147495 -0.408562 -0.0946373 
-0.0101581 -0.408549 -0.0937609 
-0.00932064 -0.524814 -0.128654 
-0.0143126 -0.52515 -0.129691 
-0.015629 -0.412502 -0.0946373 
-0.0108081 -0.413078 -0.0937609 
-0.00836192 -0.344226 -0.128654 
-0.0134285 -0.34418 -0.129691 
-0.0188375 -0.317504 -0.112676 
-0.0136479 -0.318238 -0.10973 
-0.0111964 -0.132541 0.132813 
-0.0166595 -0.13284 0.129844 
-0.0194581 -0.307291 -0.112676 
-0.0138062 -0.308321 -0.10973 
-0.0107955 -0.135114 0.132813 
-0.0165998 -0.134837 0.129844 
-0.0158349 -0.182166 -0.0335803 
-0.0120438 -0.183578 -0.0287466 
-0.00908904 -0.0662739 0.333476 
-0.0131802 -0.0663367 0.328557 
-0.0160722 -0.177832 -0.0335803 
-0.0116224 -0.178728 -0.0287466 
-0.00933816 -0.0690563 0.333476 
-0.0138422 -0.0687121 0.328557 
-0.00882333 -0.0805261 0.0357873 
-0.00704288 -0.0818823 0.0418886 
-0.00484887 -0.0270393 0.421306 
-0.00686407 -0.0270119 0.415124 
-0.00880955 -0.080242 0.0357873 
-0.00631429 -0.0804598 0.0418886 
-0.00544366 -0.0293233 0.421306 
-0.0079232 -0.0290946 0.415124 
-4.98166e-05 0.000182116 0.0591746 
-0.000413194 -0.000516848 0.0657192 
0.000354503 0.000968584 0.447982 
0.000596292 0.000915714 0.441363 
4.98166e-05 -0.000182116 0.0591746 
0.000413194 0.000516848 0.0657192 
-0.000354503 -0.000968584 0.447982 
-0.000596292 -0.000915714 0.441363 
0.00880955 0.080242 0.0357873 
0.00631429 0.0804598 0.0418886 
0.00544366 0.0293233 0.421306 
0.0079232 0.0290946 0.415124 
0.00882333 0.0805261 0.0357873 
0.00704288 0.0818823 0.0418886 
0.00484887 0.0270393 0.421306 
0.00686407 0.0270119 0.415124 
0.0160722 0.177832 -0.0335803 
0.0116224 0.178728 -0.0287466 
0.00933816 0.0690563 0.333476 
0.0138422 0.0687121 0.328557 
0.0158349 0.182166 -0.0335803 
0.0120438 0.183578 -0.0287466 
0.00908904 0.0662739 0.333476 
0.0131802 0.0663367 0.328557 
0.0194581 0.307291 -0.112676 
0.0138062 0.308321 -0.10973 
0.0107955 0.135114 0.132813 
0.0165998 0.134837 0.129844 
0.0188375 0.317504 -0.112676 
0.0136479 0.318238 -0.10973 
0.0111964 0.132541 0.132813 
0.0166595 0.13284 0.129844 
0.015629 0.412502 -0.0946373 
0.0108081 0.413078 -0.0937609 
0.00836192 0.344226 -0.128654 
0.0134285 0.34418 -0.129691 
0.0147495 0.408562 -0.0946373 
0.0101581 0.408549 -0.0937609 
0.00932064 0.524814 -0.128654 
0.0143126 0.52515 -0.129691 
0.000690496 0.0307268 1.0936e-10 
0.000649568 0.0308381 1.09022e-10 
-1.67786e-05 0.132616 7.55279e-11 
0.000569841 0.132628 7.61336e-11 
-4.39056e-06 -0.0301256 1.10465e-10 
-0.000690496 -0.0314379 1.10071e-10 
-0.000569841 -0.132706 7.67947e-11 
-0.000920601 -0.133347 7.75441e-11 
-0.0211814 -0.40733 -0.0972231 
-0.0147495 -0.407918 -0.0947632 
-0.0143126 -0.525206 -0.129481 
-0.0215697 -0.525154 -0.131487 
-0.0196462 -0.409186 -0.0972231 
-0.015629 -0.41348 -0.0947632 
-0.0134285 -0.344582 -0.129481 
-0.0201811 -0.344663 -0.131487 
-0.0243725 -0.313613 -0.119101 
-0.0188375 -0.317168 -0.112699 
-0.0166595 -0.132757 0.130281 
-0.0252837 -0.131211 0.12387 
-0.0234024 -0.302056 -0.119101 
-0.0194581 -0.307503 -0.112699 
-0.0165998 -0.134965 0.130281 
-0.0224375 -0.134975 0.12387 
-0.0195856 -0.177785 -0.0433651 
-0.0158349 -0.182554 -0.0334361 
-0.0131802 -0.0664344 0.32913 
-0.0196989 -0.0641933 0.319301 
-0.0182092 -0.172579 -0.0433651 
-0.0160722 -0.177259 -0.0334361 
-0.0138422 -0.0685805 0.32913 
-0.0172232 -0.0687282 0.319301 
-0.0109433 -0.0775609 0.0239339 
-0.00882333 -0.0815506 0.0361004 
-0.00686407 -0.0273494 0.41569 
-0.0107779 -0.0249529 0.403692 
-0.00930519 -0.0770617 0.0239339 
-0.00880955 -0.0790649 0.0361004 
-0.0079232 -0.0287153 0.41569 
-0.00865278 -0.029582 0.403692 
-0.000869324 0.000171278 0.0466193 
-4.98166e-05 -0.00115009 0.059538 
0.000596292 0.000464117 0.441938 
-0.000980183 0.00224506 0.429218 
0.000869324 -0.000171278 0.0466193 
4.98166e-05 0.00115009 0.059538 
-0.000596292 -0.000464117 0.441938 
0.000980183 -0.00224506 0.429218 
0.00930519 0.0770617 0.0239339 
0.00880955 0.0790649 0.0361004 
0.0079232 0.0287153 0.41569 
0.00865278 0.029582 0.403692 
0.0109433 0.0775609 0.0239339 
0.00882333 0.0815506 0.0361004 
0.00686407 0.0273494 0.41569 
0.0107779 0.0249529 0.403692 
0.0182092 0.172579 -0.0433651 
0.0160722 0.177259 -0.0334361 
0.0138422 0.0685805 0.32913 
0.0172232 0.0687282 0.319301 
0.0195856 0.177785 -0.0433651 
0.0158349 0.182554 -0.0334361 
0.0131802 0.0664344 0.32913 
0.0196989 0.0641933 0.319301 
0.0234024 0.302056 -0.119101 
0.0194581 0.307503 -0.112699 
0.0165998 0.134965 0.130281 
0.0224375 0.134975 0.12387 
0.0243725 0.313613 -0.119101 
0.0188375 0.317168 -0.112699 
0.0166595 0.132757 0.130281 
0.0252837 0.131211 0.12387 
0.0196462 0.409186 -0.0972231 
0.015629 0.41348 -0.0947632 
0.0134285 0.344582 -0.129481 
0.0201811 0.344663 -0.131487 
0.0211814 0.40733 -0.0972231 
0.0147495 0.407918 -0.0947632 
0.0143126 0.525206 -0.129481 
0.0215697 0.525154 -0.131487 
4.39056e-06 0.0301256 1.10465e-10 
0.000690496 0.0314379 1.10071e-10 
0.000569841 0.132706 7.67947e-11 
0.000920601 0.133347 7.75441e-11 
0.000330349 -0.0293267 1.13505e-10 
-4.39056e-06 -0.0338512 1.10885e-10 
-0.000920601 -0.1349 7.84757e-11 
-0.00835902 -0.128044 8.32805e-11 
-0.017921 -0.396427 -0.0957764 
-0.0211814 -0.404517 -0.0981978 
-0.0215697 -0.524421 -0.13239 
-0.0300344 -0.524484 -0.133672 
-0.0230988 -0.399073 -0.0957764 
-0.0196462 -0.412626 -0.0981978 
-0.0201811 -0.345857 -0.13239 
-0.0317387 -0.339573 -0.133672 
-0.0184693 -0.295258 -0.121977 
-0.0243725 -0.311485 -0.119362 
-0.0252837 -0.130628 0.121943 
-0.0281984 -0.131873 0.117851 
-0.0269843 -0.286333 -0.121977 
-0.0234024 -0.303481 -0.119362 
-0.0224375 -0.135381 0.121943 
-0.0335251 -0.125773 0.117851 
-0.0113423 -0.156985 -0.0506784 
-0.0195856 -0.178226 -0.0425454 
-0.0196989 -0.0648973 0.316484 
-0.0183104 -0.0628412 0.306289 
-0.0222467 -0.159603 -0.0506784 
-0.0182092 -0.171278 -0.0425454 
-0.0172232 -0.0677592 0.316484 
-0.024209 -0.0594475 0.306289 
-0.00326262 -0.0637225 0.0126257 
-0.0109433 -0.0798074 0.0250439 
-0.0107779 -0.0265276 0.400858 
-0.00688784 -0.0258123 0.386434 
-0.0140775 -0.0720779 0.0126257 
-0.00930519 -0.0746696 0.0250439 
-0.00865278 -0.0280753 0.400858 
-0.0138012 -0.0227504 0.386434 
0.00530338 0.00455765 0.0338102 
-0.000869324 -0.00248769 0.0477683 
-0.000980183 0.000566603 0.426461 
0.00366669 -0.00166909 0.41057 
-0.00530338 -0.00455765 0.0338102 
0.000869324 0.00248769 0.0477683 
0.000980183 -0.000566603 0.426461 
-0.00366669 0.00166909 0.41057 
0.0140775 0.0720779 0.0126257 
0.00930519 0.0746696 0.0250439 
0.00865278 0.0280753 0.400858 
0.0138012 0.0227504 0.386434 
0.00326262 0.0637225 0.0126257 
0.0109433 0.0798074 0.0250439 
0.0107779 0.0265276 0.400858 
0.00688784 0.0258123 0.386434 
0.0222467 0.159603 -0.0506784 
0.0182092 0.171278 -0.0425454 
0.0172232 0.0677592 0.316484 
0.024209 0.0594475 0.306289 
0.0113423 0.156985 -0.0506784 
0.0195856 0.178226 -0.0425454 
0.0196989 0.0648973 0.316484 
0.0183104 0.0628412 0.306289 
0.0269843 0.286333 -0.121977 
0.0234024 0.303481 -0.119362 
0.0224375 0.135381 0.121943 
0.0335251 0.125773 0.117851 
0.0184693 0.295258 -0.121977 
0.0243725 0.311485 -0.119362 
0.0252837 0.130628 0.121943 
0.0281984 0.131873 0.117851 
0.0230988 0.399073 -0.0957764 
0.0196462 0.412626 -0.0981978 
0.0201811 0.345857 -0.13239 
0.0317387 0.339573 -0.133672 
0.017921 0.396427 -0.0957764 
0.0211814 0.404517 -0.0981978 
0.0215697 0.524421 -0.13239 
0.0300344 0.524484 -0.133672 
-0.000330349 0.0293267 1.13505e-10 
4.39056e-06 0.0338512 1.10885e-10 
0.000920601 0.1349 7.84757e-11 
0.00835902 0.128044 8.32805e-11 
-0.0136159 -0.0155282 1.10793e-10 
0.000330349 -0.0407948 1.14895e-10 
-0.00835902 -0.129711 8.97111e-11 
0.0254847 -0.161563 7.28278e-11 
-0.0243412 -0.357422 -0.135512 
-0.017921 -0.384278 -0.0959642 
-0.0300344 -0.519466 -0.124262 
-0.00980178 -0.529186 -0.152456 
-0.00239518 -0.326746 -0.135512 
-0.0230988 -0.405639 -0.0959642 
-0.0317387 -0.35216 -0.124262 
-0.0044516 -0.336809 -0.152456 
-0.019846 -0.222993 -0.187239 
-0.0184693 -0.29576 -0.115629 
-0.0281984 -0.129233 0.128494 
-0.0324458 -0.0829543 0.0585282 
-0.00827302 -0.208851 -0.187239 
-0.0269843 -0.275994 -0.115629 
-0.0335251 -0.127214 0.128494 
-0.00220885 -0.118707 0.0585282 
-0.00900922 -0.107211 -0.141682 
-0.0113423 -0.17097 -0.042937 
-0.0183104 -0.0642745 0.320257 
-0.0286368 -0.0226743 0.220706 
-0.00629426 -0.108 -0.141682 
-0.0222467 -0.144802 -0.042937 
-0.024209 -0.0603934 0.320257 
0.00422318 -0.0616213 0.220706 
-0.00485676 -0.0428471 -0.0947909 
-0.00326262 -0.0797603 0.0200416 
-0.00688784 -0.0258888 0.40214 
-0.0210612 0.00197785 0.287054 
-0.0025714 -0.0457781 -0.0947909 
-0.0140775 -0.0569639 0.0200416 
-0.0138012 -0.0239259 0.40214 
0.00995923 -0.0340491 0.287054 
-0.00121015 0.00127498 -0.0792163 
0.00530338 -0.0108902 0.0410205 
0.00366669 -0.000771797 0.426939 
-0.0152158 0.0175635 0.306746 
0.00121015 -0.00127498 -0.0792163 
-0.00530338 0.0108902 0.0410205 
-0.00366669 0.000771797 0.426939 
0.0152158 -0.0175635 0.306746 
0.0025714 0.0457781 -0.0947909 
0.0140775 0.0569639 0.0200416 
0.0138012 0.0239259 0.40214 
-0.00995923 0.0340491 0.287054 
0.00485676 0.0428471 -0.0947909 
0.00326262 0.0797603 0.0200416 
0.00688784 0.0258888 0.40214 
0.0210612 -0.00197785 0.287054 
0.00629426 0.108 -0.141682 
0.0222467 0.144802 -0.042937 
0.024209 0.0603934 0.320257 
-0.00422318 0.0616213 0.220706 
0.00900922 0.107211 -0.141682 
0.0113423 0.17097 -0.042937 
0.0183104 0.0642745 0.320257 
0.0286368 0.0226743 0.220706 
0.00827302 0.208851 -0.187239 
0.0269843 0.275994 -0.115629 
0.0335251 0.127214 0.128494 
0.00220885 0.118707 0.0585282 
0.019846 0.222993 -0.187239 
0.0184693 0.29576 -0.115629 
0.0281984 0.129233 0.128494 
0.0324458 0.0829543 0.0585282 
0.00239518 0.326746 -0.135512 
0.0230988 0.405639 -0.0959642 
0.0317387 0.35216 -0.124262 
0.0044516 0.336809 -0.152456 
0.0243412 0.357422 -0.135512 
0.017921 0.384278 -0.0959642 
0.0300344 0.519466 -0.124262 
0.00980178 0.529186 -0.152456 
0.0136159 0.0155282 1.10793e-10 
-0.000330349 0.0407948 1.14895e-10 
0.00835902 0.129711 8.97111e-11 
-0.0254847 0.161563 7.28278e-11 
9.78703e-11 0.0672574 1.6399e-10 
-0.0136159 -0.110259 1.02659e-10 
0.0254847 -0.259791 5.71119e-11 
1.28498e-10 0.0897251 9.03671e-11 
7.98969e-11 -0.0840992 0.0254192 
-0.0243412 -0.282956 -0.0786346 
-0.00980178 -0.533126 -0.265078 
2.27056e-10 -0.167479 -0.120047 
9.77104e-11 -0.0715109 0.0254192 
-0.00239518 -0.330765 -0.0786346 
-0.0044516 -0.281324 -0.265078 
9.45574e-11 -0.0699104 -0.120047 
7.41665e-11 0.0334334 -0.00462806 
-0.019846 -0.232542 -0.089288 
-0.0324458 -0.147951 -0.109005 
1.03823e-10 0.0215386 -0.0525432 
4.14257e-11 -0.0314917 -0.00462806 
-0.00827302 -0.196715 -0.089288 
-0.00220885 -0.0569771 -0.109005 
5.7687e-11 0.00284948 -0.0525432 
4.95375e-11 0.0216591 -0.0391704 
-0.00900922 -0.121915 -0.0148582 
-0.0286368 -0.0853089 0.0356214 
5.34243e-11 0.000678632 0.000776111 
2.27685e-11 -0.0200318 -0.0391704 
-0.00629426 -0.100729 -0.0148582 
0.00422318 -0.00728384 0.0356214 
1.64907e-11 0.00242497 0.000776111 
2.58101e-11 0.0167667 -0.0451521 
-0.00485676 -0.0510739 0.0399511 
-0.0210612 -0.051934 0.0980681 
3.37257e-11 -0.00441378 0.0113517 
5.3915e-12 -0.0151158 -0.0451521 
-0.0025714 -0.0412762 0.0399511 
0.00995923 0.0175109 0.0980681 
-2.32906e-12 0.00570165 0.0113517 
9.49194e-12 0.0143654 -0.0464194 
-0.00121015 -0.00341242 0.0569806 
-0.0152158 -0.0338448 0.11722 
1.77545e-11 -0.00589407 0.0143887 
-9.49194e-12 -0.0143654 -0.0464194 
0.00121015 0.00341242 0.0569806 
0.0152158 0.0338448 0.11722 
-1.77545e-11 0.00589407 0.0143887 
-5.3915e-12 0.0151158 -0.0451521 
0.0025714 0.0412762 0.0399511 
-0.00995923 -0.0175109 0.0980681 
2.32906e-12 -0.00570165 0.0113517 
-2.58101e-11 -0.0167667 -0.0451521 
0.00485676 0.0510739 0.0399511 
0.0210612 0.051934 0.0980681 
-3.37257e-11 0.00441378 0.0113517 
-2.27685e-11 0.0200318 -0.0391704 
0.00629426 0.100729 -0.0148582 
-0.00422318 0.00728384 0.0356214 
-1.64907e-11 -0.00242497 0.000776111 
-4.95375e-11 -0.0216591 -0.0391704 
0.00900922 0.121915 -0.0148582 
0.0286368 0.0853089 0.0356214 
-5.34243e-11 -0.000678632 0.000776111 
-4.14257e-11 0.0314917 -0.00462806 
0.00827302 0.196715 -0.089288 
0.00220885 0.0569771 -0.109005 
-5.7687e-11 -0.00284948 -0.0525432 
-7.41665e-11 -0.0334334 -0.00462806 
0.019846 0.232542 -0.089288 
0.0324458 0.147951 -0.109005 
-1.03823e-10 -0.0215386 -0.0525432 
-9.77104e-11 0.0715109 0.0254192 
0.00239518 0.330765 -0.0786346 
0.0044516 0.281324 -0.265078 
-9.45574e-11 0.0699104 -0.120047 
-7.98969e-11 0.0840992 0.0254192 
0.0243412 0.282956 -0.0786346 
0.00980178 0.533126 -0.265078 
-2.27056e-10 0.167479 -0.120047 
-9.78703e-11 -0.0672574 1.6399e-10 
0.0136159 0.110259 1.02659e-10 
-0.0254847 0.259791 5.71119e-11 
-1.28498e-10 -0.0897251 9.03671e-11 
-3.56365e-05 -0.0118052 4.13828e-11 
-3.14416e-11 -0.0117914 4.13819e-11 
-6.07211e-11 -0.030644 4.33478e-11 
-7.14075e-06 -0.0306604 4.33524e-11 
-0.00117285 -0.302249 -0.0533828 
-4.00847e-11 -0.302231 -0.0533233 
-7.78636e-11 -0.407785 -0.0722011 
-0.00113754 -0.407804 -0.0722628 
-0.00120914 -0.300254 -0.0533828 
-3.96182e-11 -0.300223 -0.0533233 
-8.06891e-11 -0.412048 -0.0722011 
-0.00110232 -0.41208 -0.0722628 
-0.00171739 -0.330781 -0.130326 
-3.54463e-11 -0.330749 -0.130146 
-5.64884e-11 -0.317749 -0.0969039 
-0.00161058 -0.317781 -0.0970853 
-0.00173697 -0.326112 -0.130326 
-3.7484e-11 -0.32608 -0.130146 
-5.22754e-11 -0.307659 -0.0969039 
-0.00158498 -0.307689 -0.0970853 
-0.00159976 -0.232727 -0.146655 
-2.29285e-11 -0.232697 -0.146349 
-3.21233e-11 -0.183296 -0.0159375 
-0.00145049 -0.183324 -0.0162439 
-0.00158634 -0.229734 -0.146655 
-2.4652e-11 -0.229712 -0.146349 
-2.98526e-11 -0.17862 -0.0159375 
-0.00145736 -0.178641 -0.0162439 
-0.000956385 -0.115054 -0.134362 
-1.10894e-11 -0.115034 -0.133967 
-1.38725e-11 -0.0816374 0.0538438 
-0.000832013 -0.0816552 0.0534489 
-0.00091687 -0.113349 -0.134362 
-1.19392e-11 -0.113339 -0.133967 
-1.35386e-11 -0.0806799 0.0538438 
-0.000865283 -0.0806885 0.0534489 
-2.43796e-05 -0.000640457 -0.126767 
3.25924e-13 -0.00063531 -0.12634 
-3.4887e-14 -0.000223975 0.0784274 
2.13095e-05 -0.000228794 0.0780009 
2.43796e-05 0.000640457 -0.126767 
-3.25923e-13 0.00063531 -0.12634 
3.48884e-14 0.000223975 0.0784274 
-2.13095e-05 0.000228794 0.0780009 
0.00091687 0.113349 -0.134362 
1.19392e-11 0.113339 -0.133967 
1.35386e-11 0.0806799 0.0538438 
0.000865283 0.0806885 0.0534489 
0.000956385 0.115054 -0.134362 
1.10894e-11 0.115034 -0.133967 
1.38725e-11 0.0816374 0.0538438 
0.000832013 0.0816552 0.0534489 
0.00158634 0.229734 -0.146655 
2.4652e-11 0.229712 -0.146349 
2.98526e-11 0.17862 -0.0159375 
0.00145736 0.178641 -0.0162439 
0.00159976 0.232727 -0.146655 
2.29285e-11 0.232697 -0.146349 
3.21233e-11 0.183296 -0.0159375 
0.00145049 0.183324 -0.0162439 
0.00173697 0.326112 -0.130326 
3.7484e-11 0.32608 -0.130146 
5.22754e-11 0.307659 -0.0969039 
0.00158498 0.307689 -0.0970853 
0.00171739 0.330781 -0.130326 
3.54463e-11 0.330749 -0.130146 
5.64884e-11 0.317749 -0.0969039 
0.00161058 0.317781 -0.0970853 
0.00120914 0.300254 -0.0533828 
3.96182e-11 0.300223 -0.0533233 
8.06891e-11 0.412048 -0.0722011 
0.00110232 0.41208 -0.0722628 
0.00117285 0.302249 -0.0533828 
4.00847e-11 0.302231 -0.0533233 
7.78636e-11 0.407785 -0.0722011 
0.00113754 0.407804 -0.0722628 
3.56365e-05 0.0118052 4.13828e-11 
3.14416e-11 0.0117914 4.13819e-11 
6.07211e-11 0.030644 4.33478e-11 
7.14075e-06 0.0306604 4.33524e-11 
-7.17461e-05 -0.0118209 4.14189e-11 
-3.56365e-05 -0.0117812 4.14135e-11 
-7.14075e-06 -0.0306322 4.33824e-11 
-2.87692e-05 -0.0306824 4.34009e-11 
-0.00256036 -0.302326 -0.0535672 
-0.00117285 -0.302274 -0.0533827 
-0.00113754 -0.407829 -0.0722498 
-0.00249949 -0.407891 -0.0724405 
-0.0026233 -0.300342 -0.0535672 
-0.00120914 -0.300252 -0.0533827 
-0.00110232 -0.41208 -0.0722498 
-0.00243593 -0.412176 -0.0724405 
-0.00370262 -0.33088 -0.130896 
-0.00171739 -0.330788 -0.130339 
-0.00161058 -0.317785 -0.0970728 
-0.00351442 -0.317884 -0.0976325 
-0.00373977 -0.326208 -0.130896 
-0.00173697 -0.326121 -0.130339 
-0.00158498 -0.307697 -0.0970728 
-0.00346164 -0.307788 -0.0976325 
-0.00341937 -0.232807 -0.147616 
-0.00159976 -0.232725 -0.146674 
-0.00145049 -0.18332 -0.0162268 
-0.00314833 -0.183404 -0.0171677 
-0.00339591 -0.229807 -0.147616 
-0.00158634 -0.229745 -0.146674 
-0.00145736 -0.17865 -0.0162268 
-0.00315606 -0.178713 -0.0171677 
-0.00203044 -0.115098 -0.135596 
-0.000956385 -0.115048 -0.134386 
-0.000832013 -0.0816484 0.0534688 
-0.0018034 -0.0817 0.0522598 
-0.00195884 -0.113385 -0.135596 
-0.00091687 -0.113359 -0.134386 
-0.000865283 -0.0806978 0.0534688 
-0.00186082 -0.0807243 0.0522598 
-4.42209e-05 -0.000644005 -0.128097 
-2.43796e-05 -0.000632248 -0.126792 
2.13095e-05 -0.000220493 0.0780217 
3.73962e-05 -0.000233355 0.0767174 
4.42209e-05 0.000644005 -0.128097 
2.43796e-05 0.000632248 -0.126792 
-2.13095e-05 0.000220493 0.0780217 
-3.73962e-05 0.000233355 0.0767174 
0.00195884 0.113385 -0.135596 
0.00091687 0.113359 -0.134386 
0.000865283 0.0806978 0.0534688 
0.00186082 0.0807243 0.0522598 
0.00203044 0.115098 -0.135596 
0.000956385 0.115048 -0.134386 
0.000832013 0.0816484 0.0534688 
0.0018034 0.0817 0.0522598 
0.00339591 0.229807 -0.147616 
0.00158634 0.229745 -0.146674 
0.00145736 0.17865 -0.0162268 
0.00315606 0.178713 -0.0171677 
0.00341937 0.232807 -0.147616 
0.00159976 0.232725 -0.146674 
0.00145049 0.18332 -0.0162268 
0.00314833 0.183404 -0.0171677 
0.00373977 0.326208 -0.130896 
0.00173697 0.326121 -0.130339 
0.00158498 0.307697 -0.0970728 
0.00346164 0.307788 -0.0976325 
0.00370262 0.33088 -0.130896 
0.00171739 0.330788 -0.130339 
0.00161058 0.317785 -0.0970728 
0.00351442 0.317884 -0.0976325 
0.0026233 0.300342 -0.0535672 
0.00120914 0.300252 -0.0533827 
0.00110232 0.41208 -0.0722498 
0.00243593 0.412176 -0.0724405 
0.00256036 0.302326 -0.0535672 
0.00117285 0.302274 -0.0533827 
0.00113754 0.407829 -0.0722498 
0.00249949 0.407891 -0.0724405 
7.17461e-05 0.0118209 4.14189e-11 
3.56365e-05 0.0117812 4.14135e-11 
7.14075e-06 0.0306322 4.33824e-11 
2.87692e-05 0.0306824 4.34009e-11 
-0.000104552 -0.0118337 4.15084e-11 
-7.17461e-05 -0.0117791 4.14894e-11 
-2.87692e-05 -0.0306256 4.3468e-11 
-8.68352e-05 -0.0307109 4.35153e-11 
-0.00437681 -0.302451 -0.053892 
-0.00256036 -0.302371 -0.053564 
-0.00249949 -0.407942 -0.0724181 
-0.00432158 -0.408056 -0.0727551 
-0.00443936 -0.300463 -0.053892 
-0.0026233 -0.300345 -0.053564 
-0.00243593 -0.412181 -0.0724181 
-0.00425211 -0.412344 -0.0727551 
-0.00620206 -0.331013 -0.13189 
-0.00370262 -0.33089 -0.13091 
-0.00351442 -0.317891 -0.0976193 
-0.00601205 -0.318059 -0.0986029 
-0.00625285 -0.326328 -0.13189 
-0.00373977 -0.326229 -0.13091 
-0.00346164 -0.307807 -0.0976193 
-0.00593146 -0.307952 -0.0986029 
-0.00564525 -0.232892 -0.149272 
-0.00341937 -0.232805 -0.147634 
-0.00314833 -0.183398 -0.0171543 
-0.00533949 -0.183529 -0.0187923 
-0.00562492 -0.229888 -0.149272 
-0.00339591 -0.229826 -0.147634 
-0.00315606 -0.178732 -0.0171543 
-0.00533409 -0.178828 -0.0187923 
-0.00331289 -0.115132 -0.137704 
-0.00203044 -0.115093 -0.135615 
-0.0018034 -0.0816897 0.052272 
-0.00305113 -0.081763 0.0501817 
-0.00323478 -0.113426 -0.137704 
-0.00195884 -0.113397 -0.135615 
-0.00186082 -0.0807399 0.052272 
-0.00310922 -0.0807817 0.0501817 
-4.89532e-05 -0.000638243 -0.130363 
-4.42209e-05 -0.000638171 -0.128116 
3.73962e-05 -0.000221072 0.0767288 
3.99243e-05 -0.000235001 0.0744794 
4.89532e-05 0.000638243 -0.130363 
4.42209e-05 0.000638171 -0.128116 
-3.73962e-05 0.000221072 0.0767288 
-3.99243e-05 0.000235001 0.0744794 
0.00323478 0.113426 -0.137704 
0.00195884 0.113397 -0.135615 
0.00186082 0.0807399 0.052272 
0.00310922 0.0807817 0.0501817 
0.00331289 0.115132 -0.137704 
0.00203044 0.115093 -0.135615 
0.0018034 0.0816897 0.052272 
0.00305113 0.081763 0.0501817 
0.00562492 0.229888 -0.149272 
0.00339591 0.229826 -0.147634 
0.00315606 0.178732 -0.0171543 
0.00533409 0.178828 -0.0187923 
0.00564525 0.232892 -0.149272 
0.00341937 0.232805 -0.147634 
0.00314833 0.183398 -0.0171543 
0.00533949 0.183529 -0.0187923 
0.00625285 0.326328 -0.13189 
0.00373977 0.326229 -0.13091 
0.00346164 0.307807 -0.0976193 
0.00593146 0.307952 -0.0986029 
0.00620206 0.331013 -0.13189 
0.00370262 0.33089 -0.13091 
0.00351442 0.317891 -0.0976193 
0.00601205 0.318059 -0.0986029 
0.00443936 0.300463 -0.053892 
0.0026233 0.300345 -0.053564 
0.00243593 0.412181 -0.0724181 
0.00425211 0.412344 -0.0727551 
0.00437681 0.302451 -0.053892 
0.00256036 0.302371 -0.053564 
0.00249949 0.407942 -0.0724181 
0.00432158 0.408056 -0.0727551 
0.000104552 0.0118337 4.15084e-11 
7.17461e-05 0.0117791 4.14894e-11 
2.87692e-05 0.0306256 4.3468e-11 
8.68352e-05 0.0307109 4.35153e-11 
-0.000115929 -0.0118281 4.16895e-11 
-0.000104552 -0.0118008 4.16376e-11 
-8.68352e-05 -0.0306303 4.36331e-11 
-0.00021875 -0.0307435 4.3743e-11 
-0.00681499 -0.302563 -0.054377 
-0.00437681 -0.302494 -0.0538786 
-0.00432158 -0.40813 -0.0727344 
-0.00685202 -0.408304 -0.0732437 
-0.00680838 -0.300524 -0.054377 
-0.00443936 -0.300499 -0.0538786 
-0.00425211 -0.41237 -0.0727344 
-0.00682087 -0.412573 -0.0732437 
-0.00938889 -0.331046 -0.133347 
-0.00620206 -0.331011 -0.131877 
-0.00601205 -0.318064 -0.0986225 
-0.00939901 -0.318271 -0.100097 
-0.00943035 -0.326322 -0.133347 
-0.00625285 -0.326373 -0.131877 
-0.00593146 -0.307992 -0.0986225 
-0.00927844 -0.308144 -0.100097 
-0.0083675 -0.232828 -0.15165 
-0.00564525 -0.232894 -0.149235 
-0.00533949 -0.183524 -0.0188393 
-0.00825026 -0.183638 -0.0212588 
-0.00836744 -0.229826 -0.15165 
-0.00562492 -0.229903 -0.149235 
-0.00533409 -0.178854 -0.0188393 
-0.00818024 -0.17894 -0.0212588 
-0.00482823 -0.115044 -0.140686 
-0.00331289 -0.115154 -0.137643 
-0.00305113 -0.0817632 0.0501112 
-0.0047022 -0.0817909 0.0470583 
-0.00478748 -0.113384 -0.140686 
-0.00323478 -0.113407 -0.137643 
-0.00310922 -0.0807885 0.0501112 
-0.00468625 -0.0808363 0.0470583 
-2.66536e-05 -0.000606624 -0.133552 
-4.89532e-05 -0.00067079 -0.130292 
3.99243e-05 -0.000237857 0.0743995 
6.77924e-07 -0.000216625 0.0711274 
2.66536e-05 0.000606624 -0.133552 
4.89532e-05 0.00067079 -0.130292 
-3.99243e-05 0.000237857 0.0743995 
-6.77924e-07 0.000216625 0.0711274 
0.00478748 0.113384 -0.140686 
0.00323478 0.113407 -0.137643 
0.00310922 0.0807885 0.0501112 
0.00468625 0.0808363 0.0470583 
0.00482823 0.115044 -0.140686 
0.00331289 0.115154 -0.137643 
0.00305113 0.0817632 0.0501112 
0.0047022 0.0817909 0.0470583 
0.00836744 0.229826 -0.15165 
0.00562492 0.229903 -0.149235 
0.00533409 0.178854 -0.0188393 
0.00818024 0.17894 -0.0212588 
0.0083675 0.232828 -0.15165 
0.00564525 0.232894 -0.149235 
0.00533949 0.183524 -0.0188393 
0.00825026 0.183638 -0.0212588 
0.00943035 0.326322 -0.133347 
0.00625285 0.326373 -0.131877 
0.00593146 0.307992 -0.0986225 
0.00927844 0.308144 -0.100097 
0.00938889 0.331046 -0.133347 
0.00620206 0.331011 -0.131877 
0.00601205 0.318064 -0.0986225 
0.00939901 0.318271 -0.100097 
0.00680838 0.300524 -0.054377 
0.00443936 0.300499 -0.0538786 
0.00425211 0.41237 -0.0727344 
0.00682087 0.412573 -0.0732437 
0.00681499 0.302563 -0.054377 
0.00437681 0.302494 -0.0538786 
0.00432158 0.40813 -0.0727344 
0.00685202 0.408304 -0.0732437 
0.000115929 0.0118281 4.16895e-11 
0.000104552 0.0118008 4.16376e-11 
8.68352e-05 0.0306303 4.36331e-11 
0.00021875 0.0307435 4.3743e-11 
-9.92184e-05 -0.0117609 4.20276e-11 
-0.000115929 -0.0118932 4.19064e-11 
-0.00021875 -0.0306751 4.39364e-11 
-0.000486891 -0.0307576 4.41535e-11 
-0.00994622 -0.302422 -0.0550453 
-0.00681499 -0.302526 -0.054339 
-0.00685202 -0.408373 -0.0732474 
-0.0102554 -0.408601 -0.0739596 
-0.00977421 -0.300213 -0.0550453 
-0.00680838 -0.30067 -0.054339 
-0.00682087 -0.412675 -0.0732474 
-0.0104188 -0.412743 -0.0739596 
-0.0131612 -0.330504 -0.135275 
-0.00938889 -0.330985 -0.133246 
-0.00939901 -0.318252 -0.100222 
-0.0138091 -0.318369 -0.102263 
-0.0132297 -0.325709 -0.135275 
-0.00943035 -0.326411 -0.133246 
-0.00927844 -0.308232 -0.100222 
-0.0137112 -0.30813 -0.102263 
-0.0113629 -0.232079 -0.154685 
-0.0083675 -0.232848 -0.151435 
-0.00825026 -0.183644 -0.0214933 
-0.0119053 -0.183528 -0.0247616 
-0.0115156 -0.229164 -0.154685 
-0.00836744 -0.229788 -0.151435 
-0.00818024 -0.178954 -0.0214933 
-0.011782 -0.178795 -0.0247616 
-0.00636993 -0.114453 -0.144399 
-0.00482823 -0.115171 -0.140376 
-0.0047022 -0.0818459 0.0467373 
-0.00673439 -0.0816408 0.0426794 
-0.00656422 -0.113019 -0.144399 
-0.00478748 -0.113236 -0.140376 
-0.00468625 -0.0807837 0.0467373 
-0.00661391 -0.0807289 0.0426794 
0.000103528 -0.00046776 -0.137489 
-2.66536e-05 -0.000787857 -0.133205 
6.77924e-07 -0.000294877 0.0707737 
-5.91831e-05 -0.000181115 0.0664502 
-0.000103528 0.00046776 -0.137489 
2.66536e-05 0.000787857 -0.133205 
-6.77924e-07 0.000294877 0.0707737 
5.91831e-05 0.000181115 0.0664502 
0.00656422 0.113019 -0.144399 
0.00478748 0.113236 -0.140376 
0.00468625 0.0807837 0.0467373 
0.00661391 0.0807289 0.0426794 
0.00636993 0.114453 -0.144399 
0.00482823 0.115171 -0.140376 
0.0047022 0.0818459 0.0467373 
0.00673439 0.0816408 0.0426794 
0.0115156 0.229164 -0.154685 
0.00836744 0.229788 -0.151435 
0.00818024 0.178954 -0.0214933 
0.011782 0.178795 -0.0247616 
0.0113629 0.232079 -0.154685 
0.0083675 0.232848 -0.151435 
0.00825026 0.183644 -0.0214933 
0.0119053 0.183528 -0.0247616 
0.0132297 0.325709 -0.135275 
0.00943035 0.326411 -0.133246 
0.00927844 0.308232 -0.100222 
0.0137112 0.30813 -0.102263 
0.0131612 0.330504 -0.135275 
0.00938889 0.330985 -0.133246 
0.00939901 0.318252 -0.100222 
0.0138091 0.318369 -0.102263 
0.00977421 0.300213 -0.0550453 
0.00680838 0.30067 -0.054339 
0.00682087 0.412675 -0.0732474 
0.0104188 0.412743 -0.0739596 
0.00994622 0.302422 -0.0550453 
0.00681499 0.302526 -0.054339 
0.00685202 0.408373 -0.0732474 
0.0102554 0.408601 -0.0739596 
9.92184e-05 0.0117609 4.20276e-11 
0.000115929 0.0118932 4.19064e-11 
0.00021875 0.0306751 4.39364e-11 
0.000486891 0.0307576 4.41535e-11 
6.65136e-05 -0.0114169 4.25954e-11 
-9.92184e-05 -0.0122138 4.23765e-11 
-0.000486891 -0.0308381 4.44508e-11 
-0.000889815 -0.0307268 4.4894e-11 
-0.0135986 -0.301273 -0.0559443 
-0.00994622 -0.302051 -0.0549418 
-0.0102554 -0.408549 -0.0740356 
-0.0146538 -0.408562 -0.0750872 
-0.0129332 -0.298424 -0.0559443 
-0.00977421 -0.30068 -0.0549418 
-0.0104188 -0.413078 -0.0740356 
-0.0148729 -0.412502 -0.0750872 
-0.0170468 -0.328045 -0.137737 
-0.0131612 -0.330244 -0.134908 
-0.0138091 -0.318238 -0.102646 
-0.0191203 -0.317504 -0.105457 
-0.0167845 -0.322854 -0.137737 
-0.0132297 -0.325876 -0.134908 
-0.0137112 -0.308321 -0.102646 
-0.0187203 -0.307291 -0.105457 
-0.0140442 -0.229228 -0.158268 
-0.0113629 -0.232181 -0.153964 
-0.0119053 -0.183578 -0.0254506 
-0.0161647 -0.182166 -0.0297848 
-0.0141397 -0.226378 -0.158268 
-0.0115156 -0.228902 -0.153964 
-0.011782 -0.178728 -0.0254506 
-0.0154117 -0.177832 -0.0297848 
-0.00764175 -0.112461 -0.148601 
-0.00636993 -0.114922 -0.14341 
-0.00673439 -0.0818823 0.0417622 
-0.00916394 -0.0805261 0.0365196 
-0.00791961 -0.111441 -0.148601 
-0.00656422 -0.112438 -0.14341 
-0.00661391 -0.0804598 0.0417622 
-0.00828853 -0.080242 0.0365196 
0.000167887 -0.000187957 -0.141884 
0.000103528 -0.00112741 -0.136398 
-5.91831e-05 -0.000516848 0.0654462 
-0.000455134 0.000182116 0.0599032 
-0.000167887 0.000187957 -0.141884 
-0.000103528 0.00112741 -0.136398 
5.91831e-05 0.000516848 0.0654462 
0.000455134 -0.000182116 0.0599032 
0.00791961 0.111441 -0.148601 
0.00656422 0.112438 -0.14341 
0.00661391 0.0804598 0.0417622 
0.00828853 0.080242 0.0365196 
0.00764175 0.112461 -0.148601 
0.00636993 0.114922 -0.14341 
0.00673439 0.0818823 0.0417622 
0.00916394 0.0805261 0.0365196 
0.0141397 0.226378 -0.158268 
0.0115156 0.228902 -0.153964 
0.011782 0.178728 -0.0254506 
0.0154117 0.177832 -0.0297848 
0.0140442 0.229228 -0.158268 
0.0113629 0.232181 -0.153964 
0.0119053 0.183578 -0.0254506 
0.0161647 0.182166 -0.0297848 
0.0167845 0.322854 -0.137737 
0.0132297 0.325876 -0.134908 
0.0137112 0.308321 -0.102646 
0.0187203 0.307291 -0.105457 
0.0170468 0.328045 -0.137737 
0.0131612 0.330244 -0.134908 
0.0138091 0.318238 -0.102646 
0.0191203 0.317504 -0.105457 
0.0129332 0.298424 -0.0559443 
0.00977421 0.30068 -0.0549418 
0.0104188 0.413078 -0.0740356 
0.0148729 0.412502 -0.0750872 
0.0135986 0.301273 -0.0559443 
0.00994622 0.302051 -0.0549418 
0.0102554 0.408549 -0.0740356 
0.0146538 0.408562 -0.0750872 
-6.65136e-05 0.0114169 4.25954e-11 
9.92184e-05 0.0122138 4.23765e-11 
0.000486891 0.0308381 4.44508e-11 
0.000889815 0.0307268 4.4894e-11 
-0.000263344 -0.0107053 4.38451e-11 
6.65136e-05 -0.0131258 4.30808e-11 
-0.000889815 -0.0314379 4.52906e-11 
-0.00158094 -0.0301256 4.59761e-11 
-0.0163835 -0.296599 -0.0566743 
-0.0135986 -0.299734 -0.0557101 
-0.0146538 -0.407918 -0.0755089 
-0.0184865 -0.40733 -0.0763936 
-0.0157708 -0.292281 -0.0566743 
-0.0129332 -0.299868 -0.0557101 
-0.0148729 -0.41348 -0.0755089 
-0.0202419 -0.409186 -0.0763936 
-0.0183875 -0.318955 -0.139425 
-0.0170468 -0.327128 -0.136724 
-0.0191203 -0.317168 -0.106866 
-0.0227052 -0.313613 -0.109619 
-0.0189109 -0.313833 -0.139425 
-0.0167845 -0.323218 -0.136724 
-0.0187203 -0.307503 -0.106866 
-0.0235398 -0.302056 -0.109619 
-0.0138165 -0.219601 -0.160473 
-0.0140442 -0.229464 -0.156348 
-0.0161647 -0.182554 -0.0320297 
-0.0181608 -0.177785 -0.0362796 
-0.015296 -0.218089 -0.160473 
-0.0141397 -0.225549 -0.156348 
-0.0154117 -0.177259 -0.0320297 
-0.0185906 -0.172579 -0.0362796 
-0.00676517 -0.105782 -0.151094 
-0.00764175 -0.113766 -0.14602 
-0.00916394 -0.0815506 0.0336961 
-0.00982882 -0.0775609 0.0283992 
-0.00883392 -0.107138 -0.151094 
-0.00791961 -0.109765 -0.14602 
-0.00828853 -0.0790649 0.0336961 
-0.0099882 -0.0770617 0.0283992 
0.00111713 0.00115712 -0.144523 
0.000167887 -0.00203126 -0.139081 
-0.000455134 -0.00115009 0.056894 
4.7386e-05 0.000171278 0.0512001 
-0.00111713 -0.00115712 -0.144523 
-0.000167887 0.00203126 -0.139081 
0.000455134 0.00115009 0.056894 
-4.7386e-05 -0.000171278 0.0512001 
0.00883392 0.107138 -0.151094 
0.00791961 0.109765 -0.14602 
0.00828853 0.0790649 0.0336961 
0.0099882 0.0770617 0.0283992 
0.00676517 0.105782 -0.151094 
0.00764175 0.113766 -0.14602 
0.00916394 0.0815506 0.0336961 
0.00982882 0.0775609 0.0283992 
0.015296 0.218089 -0.160473 
0.0141397 0.225549 -0.156348 
0.0154117 0.177259 -0.0320297 
0.0185906 0.172579 -0.0362796 
0.0138165 0.219601 -0.160473 
0.0140442 0.229464 -0.156348 
0.0161647 0.182554 -0.0320297 
0.0181608 0.177785 -0.0362796 
0.0189109 0.313833 -0.139425 
0.0167845 0.323218 -0.136724 
0.0187203 0.307503 -0.106866 
0.0235398 0.302056 -0.109619 
0.0183875 0.318955 -0.139425 
0.0170468 0.327128 -0.136724 
0.0191203 0.317168 -0.106866 
0.0227052 0.313613 -0.109619 
0.0157708 0.292281 -0.0566743 
0.0129332 0.299868 -0.0557101 
0.0148729 0.41348 -0.0755089 
0.0202419 0.409186 -0.0763936 
0.0163835 0.296599 -0.0566743 
0.0135986 0.299734 -0.0557101 
0.0146538 0.407918 -0.0755089 
0.0184865 0.40733 -0.0763936 
0.000263344 0.0107053 4.38451e-11 
-6.65136e-05 0.0131258 4.30808e-11 
0.000889815 0.0314379 4.52906e-11 
0.00158094 0.0301256 4.59761e-11 
-0.000848265 -0.0055363 4.3751e-11 
-0.000263344 -0.0164738 4.46147e-11 
-0.00158094 -0.0338512 4.71271e-11 
0.000535238 -0.0293267 4.73884e-11 
-0.0182672 -0.280259 -0.0598804 
-0.0163835 -0.291709 -0.0557447 
-0.0184865 -0.404517 -0.076627 
-0.0213717 -0.396427 -0.0811296 
-0.0163049 -0.270419 -0.0598804 
-0.0157708 -0.295536 -0.0557447 
-0.0202419 -0.412626 -0.076627 
-0.0179143 -0.399073 -0.0811296 
-0.0168199 -0.292241 -0.144516 
-0.0183875 -0.316961 -0.136384 
-0.0227052 -0.311485 -0.111273 
-0.0206102 -0.295258 -0.119039 
-0.0134057 -0.283891 -0.144516 
-0.0189109 -0.31343 -0.136384 
-0.0235398 -0.303481 -0.111273 
-0.0177872 -0.286333 -0.119039 
-0.0115897 -0.193074 -0.165549 
-0.0138165 -0.221501 -0.154987 
-0.0181608 -0.178226 -0.039806 
-0.017883 -0.156985 -0.0502353 
-0.0100833 -0.192442 -0.165549 
-0.015296 -0.214105 -0.154987 
-0.0185906 -0.171278 -0.039806 
-0.0127885 -0.159603 -0.0502353 
-0.00564596 -0.089928 -0.157423 
-0.00676517 -0.110671 -0.144209 
-0.00982882 -0.0798074 0.0239108 
-0.0113746 -0.0637225 0.0104666 
-0.0056186 -0.0936605 -0.157423 
-0.00883392 -0.101513 -0.144209 
-0.0099882 -0.0746696 0.0239108 
-0.00528781 -0.0720779 0.0104666 
0.000128093 0.00239768 -0.151579 
0.00111713 -0.0047418 -0.1372 
4.7386e-05 -0.00248769 0.0464075 
-0.00307941 0.00455765 0.0317561 
-0.000128093 -0.00239768 -0.151579 
-0.00111713 0.0047418 -0.1372 
-4.7386e-05 0.00248769 0.0464075 
0.00307941 -0.00455765 0.0317561 
0.0056186 0.0936605 -0.157423 
0.00883392 0.101513 -0.144209 
0.0099882 0.0746696 0.0239108 
0.00528781 0.0720779 0.0104666 
0.00564596 0.089928 -0.157423 
0.00676517 0.110671 -0.144209 
0.00982882 0.0798074 0.0239108 
0.0113746 0.0637225 0.0104666 
0.0100833 0.192442 -0.165549 
0.015296 0.214105 -0.154987 
0.0185906 0.171278 -0.039806 
0.0127885 0.159603 -0.0502353 
0.0115897 0.193074 -0.165549 
0.0138165 0.221501 -0.154987 
0.0181608 0.178226 -0.039806 
0.017883 0.156985 -0.0502353 
0.0134057 0.283891 -0.144516 
0.0189109 0.31343 -0.136384 
0.0235398 0.303481 -0.111273 
0.0177872 0.286333 -0.119039 
0.0168199 0.292241 -0.144516 
0.0183875 0.316961 -0.136384 
0.0227052 0.311485 -0.111273 
0.0206102 0.295258 -0.119039 
0.0163049 0.270419 -0.0598804 
0.0157708 0.295536 -0.0557447 
0.0202419 0.412626 -0.076627 
0.0179143 0.399073 -0.0811296 
0.0182672 0.280259 -0.0598804 
0.0163835 0.291709 -0.0557447 
0.0184865 0.404517 -0.076627 
0.0213717 0.396427 -0.0811296 
0.000848265 0.0055363 4.3751e-11 
0.000263344 0.0164738 4.46147e-11 
0.00158094 0.0338512 4.71271e-11 
-0.000535238 0.0293267 4.73884e-11 
-0.00140977 0.00101749 5.19704e-11 
-0.000848265 -0.0247224 4.82492e-11 
0.000535238 -0.0407948 4.29683e-11 
-0.0100845 -0.0155282 5.1625e-11 
-0.0134964 -0.234932 -0.0438817 
-0.0182672 -0.261999 -0.0545168 
-0.0213717 -0.384278 -0.0933818 
-0.0103579 -0.357422 -0.0810033 
-0.00922516 -0.208946 -0.0438817 
-0.0163049 -0.28291 -0.0545168 
-0.0179143 -0.405639 -0.0933818 
-0.0149151 -0.326746 -0.0810033 
-0.010219 -0.208972 -0.108868 
-0.0168199 -0.283879 -0.12826 
-0.0206102 -0.29576 -0.144448 
-0.000512012 -0.222993 -0.120861 
-0.00240524 -0.20589 -0.108868 
-0.0134057 -0.282505 -0.12826 
-0.0177872 -0.275994 -0.144448 
-0.01202 -0.208851 -0.120861 
-0.00702211 -0.122071 -0.127337 
-0.0115897 -0.197137 -0.141716 
-0.017883 -0.17097 -0.0831488 
-0.000790851 -0.107211 -0.0672314 
-0.00269467 -0.135273 -0.127337 
-0.0100833 -0.184796 -0.141716 
-0.0127885 -0.144802 -0.0831488 
-0.00929704 -0.108 -0.0672314 
-0.00337932 -0.0511299 -0.124524 
-0.00564596 -0.0986999 -0.129369 
-0.0113746 -0.0797603 -0.0259399 
0.000307966 -0.0428471 -0.0202809 
-0.00133896 -0.0675174 -0.124524 
-0.0056186 -0.0845816 -0.129369 
-0.00528781 -0.0569639 -0.0259399 
-0.00652151 -0.0457781 -0.0202809 
-0.000777743 0.00835824 -0.121304 
0.000128093 -0.00701865 -0.122208 
-0.00307941 -0.0108902 -0.00569171 
0.00330247 0.00127498 -0.00398619 
0.000777743 -0.00835824 -0.121304 
-0.000128093 0.00701865 -0.122208 
0.00307941 0.0108902 -0.00569171 
-0.00330247 -0.00127498 -0.00398619 
0.00133896 0.0675174 -0.124524 
0.0056186 0.0845816 -0.129369 
0.00528781 0.0569639 -0.0259399 
0.00652151 0.0457781 -0.0202809 
0.00337932 0.0511299 -0.124524 
0.00564596 0.0986999 -0.129369 
0.0113746 0.0797603 -0.0259399 
-0.000307966 0.0428471 -0.0202809 
0.00269467 0.135273 -0.127337 
0.0100833 0.184796 -0.141716 
0.0127885 0.144802 -0.0831488 
0.00929704 0.108 -0.0672314 
0.00702211 0.122071 -0.127337 
0.0115897 0.197137 -0.141716 
0.017883 0.17097 -0.0831488 
0.000790851 0.107211 -0.0672314 
0.00240524 0.20589 -0.108868 
0.0134057 0.282505 -0.12826 
0.0177872 0.275994 -0.144448 
0.01202 0.208851 -0.120861 
0.010219 0.208972 -0.108868 
0.0168199 0.283879 -0.12826 
0.0206102 0.29576 -0.144448 
0.000512012 0.222993 -0.120861 
0.00922516 0.208946 -0.0438817 
0.0163049 0.28291 -0.0545168 
0.0179143 0.405639 -0.0933818 
0.0149151 0.326746 -0.0810033 
0.0134964 0.234932 -0.0438817 
0.0182672 0.261999 -0.0545168 
0.0213717 0.384278 -0.0933818 
0.0103579 0.357422 -0.0810033 
0.00140977 -0.00101749 5.19704e-11 
0.000848265 0.0247224 4.82492e-11 
-0.000535238 0.0407948 4.29683e-11 
0.0100845 0.0155282 5.1625e-11 
4.9425e-11 0.0505522 5.13643e-11 
-0.00140977 -0.0618675 4.33371e-11 
-0.0100845 -0.110259 6.98889e-11 
7.75701e-11 0.0672574 7.48775e-11 
5.04388e-11 -0.0653619 0.000278914 
-0.0134964 -0.18139 -0.0521257 
-0.0103579 -0.282956 -0.0689484 
7.0967e-11 -0.0840992 0.00415463 
4.83836e-11 -0.0160443 0.000278914 
-0.00922516 -0.21603 -0.0521257 
-0.0149151 -0.330765 -0.0689484 
8.53918e-11 -0.0715109 0.00415463 
4.59024e-11 -0.000832788 -0.00541135 
-0.010219 -0.21307 -0.109603 
-0.000512012 -0.232542 -0.117349 
5.03621e-11 0.0334334 -0.0048139 
4.03157e-11 -0.0241788 -0.00541135 
-0.00240524 -0.183232 -0.109603 
-0.01202 -0.196715 -0.117349 
5.69723e-11 -0.0314917 -0.0048139 
2.79691e-11 0.0125109 -0.0180672 
-0.00702211 -0.147264 -0.113092 
-0.000790851 -0.121915 -0.0804615 
3.25483e-11 0.0216591 0.0103829 
2.42138e-11 -0.018125 -0.0180672 
-0.00269467 -0.111283 -0.113092 
-0.00929704 -0.100729 -0.0804615 
3.33406e-11 -0.0200318 0.0103829 
1.46895e-11 0.012968 -0.026713 
-0.00337932 -0.0762966 -0.0980703 
0.000307966 -0.0510739 -0.0454998 
1.36869e-11 0.0167667 0.0217775 
1.03842e-11 -0.0135848 -0.026713 
-0.00133896 -0.0445967 -0.0980703 
-0.00652151 -0.0412762 -0.0454998 
1.61773e-11 -0.0151158 0.0217775 
2.04513e-12 0.012211 -0.0295049 
-0.000777743 -0.014852 -0.0909646 
0.00330247 -0.00341242 -0.0328008 
-1.43847e-12 0.0143654 0.0254839 
-2.04513e-12 -0.012211 -0.0295049 
0.000777743 0.014852 -0.0909646 
-0.00330247 0.00341242 -0.0328008 
1.43847e-12 -0.0143654 0.0254839 
-1.03842e-11 0.0135848 -0.026713 
0.00133896 0.0445967 -0.0980703 
0.00652151 0.0412762 -0.0454998 
-1.61774e-11 0.0151158 0.0217775 
-1.46895e-11 -0.012968 -0.026713 
0.00337932 0.0762966 -0.0980703 
-0.000307966 0.0510739 -0.0454998 
-1.36869e-11 -0.0167667 0.0217775 
-2.42138e-11 0.018125 -0.0180672 
0.00269467 0.111283 -0.113092 
0.00929704 0.100729 -0.0804615 
-3.33406e-11 0.0200318 0.0103829 
-2.79691e-11 -0.0125109 -0.0180672 
0.00702211 0.147264 -0.113092 
0.000790851 0.121915 -0.0804615 
-3.25483e-11 -0.0216591 0.0103829 
-4.03157e-11 0.0241788 -0.00541135 
0.00240524 0.183232 -0.109603 
0.01202 0.196715 -0.117349 
-5.69723e-11 0.0314917 -0.0048139 
-4.59024e-11 0.000832788 -0.00541135 
0.010219 0.21307 -0.109603 
0.000512012 0.232542 -0.117349 
-5.03621e-11 -0.0334334 -0.0048139 
-4.83836e-11 0.0160443 0.000278914 
0.00922516 0.21603 -0.0521257 
0.0149151 0.330765 -0.0689484 
-8.53918e-11 0.0715109 0.00415463 
-5.04388e-11 0.0653619 0.000278914 
0.0134964 0.18139 -0.0521257 
0.0103579 0.282956 -0.0689484 
-7.0967e-11 0.0840992 0.00415463 
-4.9425e-11 -0.0505522 5.13643e-11 
0.00140977 0.0618675 4.33371e-11 
0.0100845 0.110259 6.98889e-11 
-7.75701e-11 -0.0672574 7.48775e-11 
-8.58042e-06 -0.00709859 1.84119e-11 
-1.43648e-11 -0.0070915 1.8413e-11 
-3.02969e-11 -0.0117914 2.44785e-11 
-3.06267e-05 -0.0118052 2.44808e-11 
-0.0011611 -0.215358 -0.040196 
-2.11617e-11 -0.215348 -0.0401356 
-4.15252e-11 -0.302231 -0.0525832 
-0.00117645 -0.302249 -0.0526429 
-0.00115317 -0.215372 -0.040196 
-2.15179e-11 -0.215354 -0.0401356 
-4.02108e-11 -0.300223 -0.0525832 
-0.00118993 -0.300254 -0.0526429 
-0.00169527 -0.271535 -0.115469 
-2.08971e-11 -0.271517 -0.11529 
-3.68875e-11 -0.330749 -0.124309 
-0.00172971 -0.330781 -0.124488 
-0.00169558 -0.270036 -0.115469 
-2.19286e-11 -0.270017 -0.11529 
-3.45781e-11 -0.32608 -0.124309 
-0.00172503 -0.326112 -0.124488 
-0.00157036 -0.218327 -0.170027 
-1.54634e-11 -0.218309 -0.169725 
-2.46239e-11 -0.232697 -0.143511 
-0.00160275 -0.232727 -0.143813 
-0.00157461 -0.216493 -0.170027 
-1.64744e-11 -0.216479 -0.169725 
-2.32793e-11 -0.229712 -0.143511 
-0.00158945 -0.229734 -0.143813 
-0.000924552 -0.116676 -0.195141 
-7.88607e-12 -0.116664 -0.194754 
-1.18937e-11 -0.115034 -0.132525 
-0.00094651 -0.115054 -0.132913 
-0.000929467 -0.115104 -0.195141 
-8.72526e-12 -0.115098 -0.194754 
-1.1228e-11 -0.113339 -0.132525 
-0.000930705 -0.113349 -0.132913 
2.42748e-06 -0.000700993 -0.201504 
3.8503e-13 -0.000698045 -0.201087 
-2.30396e-13 -0.00063531 -0.125276 
-8.09394e-06 -0.000640457 -0.125694 
-2.42748e-06 0.000700993 -0.201504 
-3.85029e-13 0.000698045 -0.201087 
2.30397e-13 0.00063531 -0.125276 
8.09394e-06 0.000640457 -0.125694 
0.000929467 0.115104 -0.195141 
8.72526e-12 0.115098 -0.194754 
1.1228e-11 0.113339 -0.132525 
0.000930705 0.113349 -0.132913 
0.000924552 0.116676 -0.195141 
7.88607e-12 0.116664 -0.194754 
1.18937e-11 0.115034 -0.132525 
0.00094651 0.115054 -0.132913 
0.00157461 0.216493 -0.170027 
1.64744e-11 0.216479 -0.169725 
2.32793e-11 0.229712 -0.143511 
0.00158945 0.229734 -0.143813 
0.00157036 0.218327 -0.170027 
1.54634e-11 0.218309 -0.169725 
2.46239e-11 0.232697 -0.143511 
0.00160275 0.232727 -0.143813 
0.00169558 0.270036 -0.115469 
2.19286e-11 0.270017 -0.11529 
3.45781e-11 0.32608 -0.124309 
0.00172503 0.326112 -0.124488 
0.00169527 0.271535 -0.115469 
2.08972e-11 0.271517 -0.11529 
3.68875e-11 0.330749 -0.124309 
0.00172971 0.330781 -0.124488 
0.00115317 0.215372 -0.040196 
2.15179e-11 0.215354 -0.0401356 
4.02108e-11 0.300223 -0.0525832 
0.00118993 0.300254 -0.0526429 
0.0011611 0.215358 -0.040196 
2.11617e-11 0.215348 -0.0401356 
4.15252e-11 0.302231 -0.0525832 
0.00117645 0.302249 -0.0526429 
8.58042e-06 0.00709859 1.84119e-11 
1.43648e-11 0.0070915 1.8413e-11 
3.02969e-11 0.0117914 2.44785e-11 
3.06267e-05 0.0118052 2.44808e-11 
-1.55727e-05 -0.00710325 1.84415e-11 
-8.58042e-06 -0.00708731 1.84415e-11 
-3.06267e-05 -0.0117812 2.45062e-11 
-7.71348e-05 -0.0118209 2.45171e-11 
-0.00250349 -0.215394 -0.0403672 
-0.0011611 -0.215371 -0.0401834 
-0.00117645 -0.302274 -0.0526428 
-0.00255102 -0.302326 -0.0528239 
-0.00247362 -0.215411 -0.0403672 
-0.00115317 -0.215371 -0.0401834 
-0.00118993 -0.300252 -0.0526428 
-0.00259007 -0.300342 -0.0528239 
-0.00360735 -0.271582 -0.11599 
-0.00169527 -0.271541 -0.11545 
-0.00172971 -0.330788 -0.124508 
-0.00371919 -0.33088 -0.125048 
-0.00360326 -0.270081 -0.11599 
-0.00169558 -0.270042 -0.11545 
-0.00172503 -0.326121 -0.124508 
-0.0037116 -0.326208 -0.125048 
-0.00331049 -0.218363 -0.170898 
-0.00157036 -0.218327 -0.169996 
-0.00160275 -0.232725 -0.143851 
-0.00342597 -0.232807 -0.144756 
-0.00332412 -0.216526 -0.170898 
-0.00157461 -0.216501 -0.169996 
-0.00158945 -0.229745 -0.143851 
-0.00339133 -0.229807 -0.144756 
-0.00193521 -0.116694 -0.196252 
-0.000924552 -0.116675 -0.195099 
-0.00094651 -0.115048 -0.132964 
-0.00201863 -0.115098 -0.134122 
-0.00195695 -0.115121 -0.196252 
-0.000929467 -0.115109 -0.195099 
-0.000930705 -0.113359 -0.132964 
-0.00197263 -0.113385 -0.134122 
1.20184e-05 -0.000700708 -0.2027 
2.42748e-06 -0.00069814 -0.201459 
-8.09394e-06 -0.000632248 -0.125749 
-2.44806e-05 -0.000644005 -0.126997 
-1.20184e-05 0.000700708 -0.2027 
-2.42748e-06 0.00069814 -0.201459 
8.09394e-06 0.000632248 -0.125749 
2.44806e-05 0.000644005 -0.126997 
0.00195695 0.115121 -0.196252 
0.000929467 0.115109 -0.195099 
0.000930705 0.113359 -0.132964 
0.00197263 0.113385 -0.134122 
0.00193521 0.116694 -0.196252 
0.000924552 0.116675 -0.195099 
0.00094651 0.115048 -0.132964 
0.00201863 0.115098 -0.134122 
0.00332412 0.216526 -0.170898 
0.00157461 0.216501 -0.169996 
0.00158945 0.229745 -0.143851 
0.00339133 0.229807 -0.144756 
0.00331049 0.218363 -0.170898 
0.00157036 0.218327 -0.169996 
0.00160275 0.232725 -0.143851 
0.00342597 0.232807 -0.144756 
0.00360326 0.270081 -0.11599 
0.00169558 0.270042 -0.11545 
0.00172503 0.326121 -0.124508 
0.0037116 0.326208 -0.125048 
0.00360735 0.271582 -0.11599 
0.00169527 0.271541 -0.11545 
0.00172971 0.330788 -0.124508 
0.00371919 0.33088 -0.125048 
0.00247362 0.215411 -0.0403672 
0.00115317 0.215371 -0.0401834 
0.00118993 0.300252 -0.0526428 
0.00259007 0.300342 -0.0528239 
0.00250349 0.215394 -0.0403672 
0.0011611 0.215371 -0.0401834 
0.00117645 0.302274 -0.0526428 
0.00255102 0.302326 -0.0528239 
1.55727e-05 0.00710325 1.84415e-11 
8.58042e-06 0.00708731 1.84415e-11 
3.06267e-05 0.0117812 2.45062e-11 
7.71348e-05 0.0118209 2.45171e-11 
-1.81734e-05 -0.00709599 1.85205e-11 
-1.55727e-05 -0.00709449 1.85086e-11 
-7.71348e-05 -0.0117791 2.45738e-11 
-0.00015881 -0.0118337 2.46071e-11 
-0.00419215 -0.215419 -0.040649 
-0.00250349 -0.215408 -0.0403376 
-0.00255102 -0.302371 -0.0528303 
-0.00431322 -0.302451 -0.053135 
-0.00410809 -0.215418 -0.040649 
-0.00247362 -0.215421 -0.0403376 
-0.00259007 -0.300345 -0.0528303 
-0.00440469 -0.300463 -0.053135 
-0.00591218 -0.271586 -0.116839 
-0.00360735 -0.271588 -0.115938 
-0.00371919 -0.33089 -0.125106 
-0.00620366 -0.331013 -0.126007 
-0.00589235 -0.270071 -0.116839 
-0.00360326 -0.270097 -0.115938 
-0.0037116 -0.326229 -0.125106 
-0.00619579 -0.326328 -0.126007 
-0.00534104 -0.218335 -0.172291 
-0.00331049 -0.218366 -0.170809 
-0.00342597 -0.232805 -0.144861 
-0.00565878 -0.232892 -0.14635 
-0.00537466 -0.216502 -0.172291 
-0.00332412 -0.216534 -0.170809 
-0.00339133 -0.229826 -0.144861 
-0.00558308 -0.229888 -0.14635 
-0.00308461 -0.116659 -0.198006 
-0.00193521 -0.116702 -0.196133 
-0.00201863 -0.115093 -0.134262 
-0.00332151 -0.115132 -0.136147 
-0.00314905 -0.115106 -0.198006 
-0.00195695 -0.115117 -0.196133 
-0.00197263 -0.113397 -0.134262 
-0.00321116 -0.113426 -0.136147 
3.71843e-05 -0.000686853 -0.204577 
1.20184e-05 -0.000710984 -0.202569 
-2.44806e-05 -0.000638171 -0.12715 
-6.03666e-05 -0.000638243 -0.129171 
-3.71843e-05 0.000686853 -0.204577 
-1.20184e-05 0.000710984 -0.202569 
2.44806e-05 0.000638171 -0.12715 
6.03666e-05 0.000638243 -0.129171 
0.00314905 0.115106 -0.198006 
0.00195695 0.115117 -0.196133 
0.00197263 0.113397 -0.134262 
0.00321116 0.113426 -0.136147 
0.00308461 0.116659 -0.198006 
0.00193521 0.116702 -0.196133 
0.00201863 0.115093 -0.134262 
0.00332151 0.115132 -0.136147 
0.00537466 0.216502 -0.172291 
0.00332412 0.216534 -0.170809 
0.00339133 0.229826 -0.144861 
0.00558308 0.229888 -0.14635 
0.00534104 0.218335 -0.172291 
0.00331049 0.218366 -0.170809 
0.00342597 0.232805 -0.144861 
0.00565878 0.232892 -0.14635 
0.00589235 0.270071 -0.116839 
0.00360326 0.270097 -0.115938 
0.0037116 0.326229 -0.125106 
0.00619579 0.326328 -0.126007 
0.00591218 0.271586 -0.116839 
0.00360735 0.271588 -0.115938 
0.00371919 0.33089 -0.125106 
0.00620366 0.331013 -0.126007 
0.00410809 0.215418 -0.040649 
0.00247362 0.215421 -0.0403376 
0.00259007 0.300345 -0.0528303 
0.00440469 0.300463 -0.053135 
0.00419215 0.215419 -0.040649 
0.00250349 0.215408 -0.0403376 
0.00255102 0.302371 -0.0528303 
0.00431322 0.302451 -0.053135 
1.81734e-05 0.00709599 1.85205e-11 
1.55727e-05 0.00709449 1.85086e-11 
7.71348e-05 0.0117791 2.45738e-11 
0.00015881 0.0118337 2.46071e-11 
-1.475e-05 -0.00705122 1.86859e-11 
-1.81734e-05 -0.00713537 1.86412e-11 
-0.00015881 -0.0118008 2.47076e-11 
-0.000299214 -0.0118281 2.4789e-11 
-0.0063371 -0.215312 -0.0410294 
-0.00419215 -0.215394 -0.0405924 
-0.00431322 -0.302494 -0.0531633 
-0.00661195 -0.302563 -0.0535878 
-0.00614807 -0.215231 -0.0410294 
-0.00410809 -0.215473 -0.0405924 
-0.00440469 -0.300499 -0.0531633 
-0.0068024 -0.300524 -0.0535878 
-0.00866851 -0.271318 -0.117944 
-0.00591218 -0.271567 -0.116718 
-0.00620366 -0.331011 -0.126145 
-0.00932526 -0.331046 -0.127373 
-0.00861939 -0.269765 -0.117944 
-0.00589235 -0.270105 -0.116718 
-0.00619579 -0.326373 -0.126145 
-0.00932883 -0.326322 -0.127373 
-0.00764757 -0.217994 -0.174034 
-0.00534104 -0.218347 -0.172078 
-0.00565878 -0.232894 -0.146596 
-0.00838205 -0.232828 -0.148568 
-0.00772817 -0.216189 -0.174034 
-0.00537466 -0.216487 -0.172078 
-0.00558308 -0.229903 -0.146596 
-0.00824056 -0.229826 -0.148568 
-0.00433503 -0.116396 -0.200139 
-0.00308461 -0.116711 -0.197719 
-0.00332151 -0.115154 -0.136472 
-0.00488727 -0.115044 -0.138915 
-0.00449536 -0.114933 -0.200139 
-0.00314905 -0.115046 -0.197719 
-0.00321116 -0.113407 -0.136472 
-0.00466599 -0.113384 -0.138915 
9.37997e-05 -0.000630143 -0.206836 
3.71843e-05 -0.000761818 -0.204263 
-6.03666e-05 -0.00067079 -0.129526 
-0.000123646 -0.000606624 -0.132127 
-9.37997e-05 0.000630143 -0.206836 
-3.71843e-05 0.000761818 -0.204263 
6.03666e-05 0.00067079 -0.129526 
0.000123646 0.000606624 -0.132127 
0.00449536 0.114933 -0.200139 
0.00314905 0.115046 -0.197719 
0.00321116 0.113407 -0.136472 
0.00466599 0.113384 -0.138915 
0.00433503 0.116396 -0.200139 
0.00308461 0.116711 -0.197719 
0.00332151 0.115154 -0.136472 
0.00488727 0.115044 -0.138915 
0.00772817 0.216189 -0.174034 
0.00537466 0.216487 -0.172078 
0.00558308 0.229903 -0.146596 
0.00824056 0.229826 -0.148568 
0.00764757 0.217994 -0.174034 
0.00534104 0.218347 -0.172078 
0.00565878 0.232894 -0.146596 
0.00838205 0.232828 -0.148568 
0.00861939 0.269765 -0.117944 
0.00589235 0.270105 -0.116718 
0.00619579 0.326373 -0.126145 
0.00932883 0.326322 -0.127373 
0.00866851 0.271318 -0.117944 
0.00591218 0.271567 -0.116718 
0.00620366 0.331011 -0.126145 
0.00932526 0.331046 -0.127373 
0.00614807 0.215231 -0.0410294 
0.00410809 0.215473 -0.0405924 
0.00440469 0.300499 -0.0531633 
0.0068024 0.300524 -0.0535878 
0.0063371 0.215312 -0.0410294 
0.00419215 0.215394 -0.0405924 
0.00431322 0.302494 -0.0531633 
0.00661195 0.302563 -0.0535878 
1.475e-05 0.00705122 1.86859e-11 
1.81734e-05 0.00713537 1.86412e-11 
0.00015881 0.0118008 2.47076e-11 
0.000299214 0.0118281 2.4789e-11 
-9.76455e-06 -0.00689832 1.90049e-11 
-1.475e-05 -0.00727044 1.88874e-11 
-0.000299214 -0.0118932 2.49493e-11 
-0.000508524 -0.0117609 2.51224e-11 
-0.00892785 -0.214727 -0.0414617 
-0.0063371 -0.215127 -0.0409226 
-0.00661195 -0.302526 -0.0536748 
-0.00948313 -0.302422 -0.0541854 
-0.00854637 -0.214383 -0.0414617 
-0.00614807 -0.215425 -0.0409226 
-0.0068024 -0.30067 -0.0536748 
-0.00980979 -0.300213 -0.0541854 
-0.0116944 -0.270147 -0.119094 
-0.00866851 -0.271207 -0.117675 
-0.00932526 -0.330985 -0.127685 
-0.0130046 -0.330504 -0.129109 
-0.0115672 -0.268471 -0.119094 
-0.00861939 -0.269836 -0.117675 
-0.00932883 -0.326411 -0.127685 
-0.0129795 -0.325709 -0.129109 
-0.00996959 -0.216661 -0.175674 
-0.00764757 -0.218028 -0.173553 
-0.00838205 -0.232848 -0.149109 
-0.0114347 -0.232079 -0.151253 
-0.0100851 -0.214927 -0.175674 
-0.00772817 -0.216081 -0.173553 
-0.00824056 -0.229788 -0.149109 
-0.0111384 -0.229164 -0.151253 
-0.00550807 -0.115447 -0.201991 
-0.00433503 -0.11659 -0.199492 
-0.00488727 -0.115171 -0.139627 
-0.00661245 -0.114453 -0.142163 
-0.00578617 -0.114229 -0.201991 
-0.00449536 -0.114683 -0.199492 
-0.00466599 -0.113236 -0.139627 
-0.00615471 -0.113019 -0.142163 
0.000167047 -0.000474131 -0.20874 
9.37997e-05 -0.000912828 -0.206128 
-0.000123646 -0.000787857 -0.132899 
-0.000254978 -0.00046776 -0.135555 
-0.000167047 0.000474131 -0.20874 
-9.37997e-05 0.000912828 -0.206128 
0.000123646 0.000787857 -0.132899 
0.000254978 0.00046776 -0.135555 
0.00578617 0.114229 -0.201991 
0.00449536 0.114683 -0.199492 
0.00466599 0.113236 -0.139627 
0.00615471 0.113019 -0.142163 
0.00550807 0.115447 -0.201991 
0.00433503 0.11659 -0.199492 
0.00488727 0.115171 -0.139627 
0.00661245 0.114453 -0.142163 
0.0100851 0.214927 -0.175674 
0.00772817 0.216081 -0.173553 
0.00824056 0.229788 -0.149109 
0.0111384 0.229164 -0.151253 
0.00996959 0.216661 -0.175674 
0.00764757 0.218028 -0.173553 
0.00838205 0.232848 -0.149109 
0.0114347 0.232079 -0.151253 
0.0115672 0.268471 -0.119094 
0.00861939 0.269836 -0.117675 
0.00932883 0.326411 -0.127685 
0.0129795 0.325709 -0.129109 
0.0116944 0.270147 -0.119094 
0.00866851 0.271207 -0.117675 
0.00932526 0.330985 -0.127685 
0.0130046 0.330504 -0.129109 
0.00854637 0.214383 -0.0414617 
0.00614807 0.215425 -0.0409226 
0.0068024 0.30067 -0.0536748 
0.00980979 0.300213 -0.0541854 
0.00892785 0.214727 -0.0414617 
0.0063371 0.215127 -0.0409226 
0.00661195 0.302526 -0.0536748 
0.00948313 0.302422 -0.0541854 
9.76455e-06 0.00689832 1.90049e-11 
1.475e-05 0.00727044 1.88874e-11 
0.000299214 0.0118932 2.49493e-11 
0.000508524 0.0117609 2.51224e-11 
-7.38545e-05 -0.00646528 1.95825e-11 
-9.76455e-06 -0.00766106 1.93185e-11 
-0.000508524 -0.0122138 2.53733e-11 
-0.000826761 -0.0114169 2.57124e-11 
-0.0116173 -0.212695 -0.0417579 
-0.00892785 -0.214046 -0.0412678 
-0.00948313 -0.302051 -0.0544104 
-0.0126468 -0.301273 -0.0548866 
-0.0110909 -0.211681 -0.0417579 
-0.00854637 -0.214967 -0.0412678 
-0.00980979 -0.30068 -0.0544104 
-0.0131768 -0.298424 -0.0548866 
-0.014248 -0.266346 -0.119623 
-0.0116944 -0.269749 -0.118524 
-0.0130046 -0.330244 -0.12981 
-0.0164507 -0.328045 -0.130928 
-0.0141216 -0.264432 -0.119623 
-0.0115672 -0.268625 -0.118524 
-0.0129795 -0.325876 -0.12981 
-0.0165617 -0.322854 -0.130928 
-0.0114741 -0.212494 -0.175951 
-0.00996959 -0.216742 -0.174643 
-0.0114347 -0.232181 -0.152442 
-0.0139018 -0.229228 -0.153804 
-0.0117652 -0.211099 -0.175951 
-0.0100851 -0.214546 -0.174643 
-0.0111384 -0.228902 -0.152442 
-0.0136267 -0.226378 -0.153804 
-0.00605992 -0.11256 -0.201883 
-0.00550807 -0.116016 -0.20061 
-0.00661245 -0.114922 -0.143702 
-0.0078564 -0.112461 -0.145051 
-0.00663314 -0.112129 -0.201883 
-0.00578617 -0.113459 -0.20061 
-0.00615471 -0.112438 -0.143702 
-0.00734286 -0.111441 -0.145051 
0.000340476 8.63747e-06 -0.208462 
0.000167047 -0.00131599 -0.207229 
-0.000254978 -0.00112741 -0.13722 
-0.00030118 -0.000187957 -0.138541 
-0.000340476 -8.63747e-06 -0.208462 
-0.000167047 0.00131599 -0.207229 
0.000254978 0.00112741 -0.13722 
0.00030118 0.000187957 -0.138541 
0.00663314 0.112129 -0.201883 
0.00578617 0.113459 -0.20061 
0.00615471 0.112438 -0.143702 
0.00734286 0.111441 -0.145051 
0.00605992 0.11256 -0.201883 
0.00550807 0.116016 -0.20061 
0.00661245 0.114922 -0.143702 
0.0078564 0.112461 -0.145051 
0.0117652 0.211099 -0.175951 
0.0100851 0.214546 -0.174643 
0.0111384 0.228902 -0.152442 
0.0136267 0.226378 -0.153804 
0.0114741 0.212494 -0.175951 
0.00996959 0.216742 -0.174643 
0.0114347 0.232181 -0.152442 
0.0139018 0.229228 -0.153804 
0.0141216 0.264432 -0.119623 
0.0115672 0.268625 -0.118524 
0.0129795 0.325876 -0.12981 
0.0165617 0.322854 -0.130928 
0.014248 0.266346 -0.119623 
0.0116944 0.269749 -0.118524 
0.0130046 0.330244 -0.12981 
0.0164507 0.328045 -0.130928 
0.0110909 0.211681 -0.0417579 
0.00854637 0.214967 -0.0412678 
0.00980979 0.30068 -0.0544104 
0.0131768 0.298424 -0.0548866 
0.0116173 0.212695 -0.0417579 
0.00892785 0.214046 -0.0412678 
0.00948313 0.302051 -0.0544104 
0.0126468 0.301273 -0.0548866 
7.38545e-05 0.00646528 1.95825e-11 
9.76455e-06 0.00766106 1.93185e-11 
0.000508524 0.0122138 2.53733e-11 
0.000826761 0.0114169 2.57124e-11 
-0.000365139 -0.00517514 2.05127e-11 
-7.38545e-05 -0.00869826 2.01102e-11 
-0.000826761 -0.0131258 2.60701e-11 
-0.000804967 -0.0107053 2.6567e-11 
-0.0140231 -0.206832 -0.0417884 
-0.0116173 -0.210645 -0.0413404 
-0.0126468 -0.299734 -0.0553572 
-0.0152557 -0.296599 -0.0556119 
-0.0131117 -0.203795 -0.0417884 
-0.0110909 -0.213207 -0.0413404 
-0.0131768 -0.299868 -0.0553572 
-0.0155303 -0.292281 -0.0556119 
-0.0151741 -0.255702 -0.1184 
-0.014248 -0.265265 -0.118372 
-0.0164507 -0.327128 -0.13229 
-0.0182016 -0.318955 -0.13235 
-0.0147241 -0.25299 -0.1184 
-0.0141216 -0.264615 -0.118372 
-0.0165617 -0.323218 -0.13229 
-0.017547 -0.313833 -0.13235 
-0.0112887 -0.201337 -0.172707 
-0.0114741 -0.212817 -0.173745 
-0.0139018 -0.229464 -0.156096 
-0.0143338 -0.219601 -0.155057 
-0.0110974 -0.200443 -0.172707 
-0.0117652 -0.209838 -0.173745 
-0.0136267 -0.225549 -0.156096 
-0.013344 -0.218089 -0.155057 
-0.00572953 -0.105098 -0.197033 
-0.00605992 -0.114216 -0.198958 
-0.0078564 -0.113766 -0.148024 
-0.00811803 -0.105782 -0.146161 
-0.00597226 -0.106245 -0.197033 
-0.00663314 -0.109896 -0.198958 
-0.00734286 -0.109765 -0.148024 
-0.00673655 -0.107138 -0.146161 
0.000226303 0.000977787 -0.203069 
0.000340476 -0.00236643 -0.205281 
-0.00030118 -0.00203126 -0.141749 
-0.000780949 0.00115712 -0.13965 
-0.000226303 -0.000977787 -0.203069 
-0.000340476 0.00236643 -0.205281 
0.00030118 0.00203126 -0.141749 
0.000780949 -0.00115712 -0.13965 
0.00597226 0.106245 -0.197033 
0.00663314 0.109896 -0.198958 
0.00734286 0.109765 -0.148024 
0.00673655 0.107138 -0.146161 
0.00572953 0.105098 -0.197033 
0.00605992 0.114216 -0.198958 
0.0078564 0.113766 -0.148024 
0.00811803 0.105782 -0.146161 
0.0110974 0.200443 -0.172707 
0.0117652 0.209838 -0.173745 
0.0136267 0.225549 -0.156096 
0.013344 0.218089 -0.155057 
0.0112887 0.201337 -0.172707 
0.0114741 0.212817 -0.173745 
0.0139018 0.229464 -0.156096 
0.0143338 0.219601 -0.155057 
0.0147241 0.25299 -0.1184 
0.0141216 0.264615 -0.118372 
0.0165617 0.323218 -0.13229 
0.017547 0.313833 -0.13235 
0.0151741 0.255702 -0.1184 
0.014248 0.265265 -0.118372 
0.0164507 0.327128 -0.13229 
0.0182016 0.318955 -0.13235 
0.0131117 0.203795 -0.0417884 
0.0110909 0.213207 -0.0413404 
0.0131768 0.299868 -0.0553572 
0.0155303 0.292281 -0.0556119 
0.0140231 0.206832 -0.0417884 
0.0116173 0.210645 -0.0413404 
0.0126468 0.299734 -0.0553572 
0.0152557 0.296599 -0.0556119 
0.000365139 0.00517514 2.05127e-11 
7.38545e-05 0.00869826 2.01102e-11 
0.000826761 0.0131258 2.60701e-11 
0.000804967 0.0107053 2.6567e-11 
-0.000616343 -0.00213077 2.24677e-11 
-0.000365139 -0.0114631 2.14883e-11 
-0.000804967 -0.0164738 2.69253e-11 
-0.00274943 -0.0055363 2.82795e-11 
-0.0141745 -0.191297 -0.0382287 
-0.0140231 -0.201 -0.04062 
-0.0152557 -0.291709 -0.0576866 
-0.0165121 -0.280259 -0.0551562 
-0.0134282 -0.184025 -0.0382287 
-0.0131117 -0.207895 -0.04062 
-0.0155303 -0.295536 -0.0576866 
-0.0167165 -0.270419 -0.0551562 
-0.012199 -0.228317 -0.107438 
-0.0151741 -0.252478 -0.115273 
-0.0182016 -0.316961 -0.137017 
-0.0142822 -0.292241 -0.129014 
-0.0115673 -0.224376 -0.107438 
-0.0147241 -0.253553 -0.115273 
-0.017547 -0.31343 -0.137017 
-0.0147097 -0.283891 -0.129014 
-0.00823836 -0.172967 -0.154806 
-0.0112887 -0.201903 -0.167388 
-0.0143338 -0.221501 -0.162029 
-0.00892478 -0.193074 -0.14916 
-0.00731394 -0.174898 -0.154806 
-0.0110974 -0.197338 -0.167388 
-0.013344 -0.214105 -0.162029 
-0.0102062 -0.192442 -0.14916 
-0.00400135 -0.0870066 -0.175512 
-0.00572953 -0.108907 -0.190222 
-0.00811803 -0.110671 -0.154616 
-0.00474683 -0.089928 -0.14001 
-0.00375167 -0.0928543 -0.175512 
-0.00597226 -0.10127 -0.190222 
-0.00673655 -0.101513 -0.154616 
-0.00537602 -0.0936605 -0.14001 
2.55976e-05 0.00349875 -0.180613 
0.000226303 -0.00422011 -0.195723 
-0.000780949 -0.0047418 -0.148612 
0.000178937 0.00239768 -0.133743 
-2.55976e-05 -0.00349875 -0.180613 
-0.000226303 0.00422011 -0.195723 
0.000780949 0.0047418 -0.148612 
-0.000178937 -0.00239768 -0.133743 
0.00375167 0.0928543 -0.175512 
0.00597226 0.10127 -0.190222 
0.00673655 0.101513 -0.154616 
0.00537602 0.0936605 -0.14001 
0.00400135 0.0870066 -0.175512 
0.00572953 0.108907 -0.190222 
0.00811803 0.110671 -0.154616 
0.00474683 0.089928 -0.14001 
0.00731394 0.174898 -0.154806 
0.0110974 0.197338 -0.167388 
0.013344 0.214105 -0.162029 
0.0102062 0.192442 -0.14916 
0.00823836 0.172967 -0.154806 
0.0112887 0.201903 -0.167388 
0.0143338 0.221501 -0.162029 
0.00892478 0.193074 -0.14916 
0.0115673 0.224376 -0.107438 
0.0147241 0.253553 -0.115273 
0.017547 0.31343 -0.137017 
0.0147097 0.283891 -0.129014 
0.012199 0.228317 -0.107438 
0.0151741 0.252478 -0.115273 
0.0182016 0.316961 -0.137017 
0.0142822 0.292241 -0.129014 
0.0134282 0.184025 -0.0382287 
0.0131117 0.207895 -0.04062 
0.0155303 0.295536 -0.0576866 
0.0167165 0.270419 -0.0551562 
0.0141745 0.191297 -0.0382287 
0.0140231 0.201 -0.04062 
0.0152557 0.291709 -0.0576866 
0.0165121 0.280259 -0.0551562 
0.000616343 0.00213077 2.24677e-11 
0.000365139 0.0114631 2.14883e-11 
0.000804967 0.0164738 2.69253e-11 
0.00274943 0.0055363 2.82795e-11 
-0.00205052 0.00440879 2.68265e-11 
-0.000616343 -0.0175699 2.3599e-11 
-0.00274943 -0.0247224 2.97986e-11 
-0.00254811 0.00101749 3.34685e-11 
-0.00755798 -0.15409 -0.0265895 
-0.0141745 -0.176415 -0.0389755 
-0.0165121 -0.261999 -0.0551677 
-0.00932744 -0.234932 -0.0436689 
-0.00783423 -0.133596 -0.0265895 
-0.0134282 -0.193598 -0.0389755 
-0.0167165 -0.28291 -0.0551677 
-0.00729169 -0.208946 -0.0436689 
-0.00521797 -0.160871 -0.074048 
-0.012199 -0.221396 -0.105824 
-0.0142822 -0.283879 -0.131622 
-0.00653543 -0.208972 -0.0984068 
-0.00408858 -0.156092 -0.074048 
-0.0115673 -0.22244 -0.105824 
-0.0147097 -0.282505 -0.131622 
-0.00401018 -0.20589 -0.0984068 
-0.00379571 -0.110989 -0.106347 
-0.00823836 -0.177053 -0.149798 
-0.00892478 -0.197137 -0.155182 
-0.00354282 -0.122071 -0.1116 
-0.00222403 -0.119294 -0.106347 
-0.00731394 -0.165928 -0.149798 
-0.0102062 -0.184796 -0.155182 
-0.00203226 -0.135273 -0.1116 
-0.00194444 -0.0514153 -0.12124 
-0.00400135 -0.0969414 -0.167649 
-0.00474683 -0.0986999 -0.149038 
-0.00241537 -0.0511299 -0.103667 
-0.00108851 -0.0645787 -0.12124 
-0.00375167 -0.081476 -0.167649 
-0.00537602 -0.0845816 -0.149038 
-0.000568389 -0.0675174 -0.103667 
-0.000242838 0.00715612 -0.125024 
2.55976e-05 -0.00817819 -0.1716 
0.000178937 -0.00701865 -0.143923 
-0.00101701 0.00835824 -0.0987236 
0.000242838 -0.00715612 -0.125024 
-2.55976e-05 0.00817819 -0.1716 
-0.000178937 0.00701865 -0.143923 
0.00101701 -0.00835824 -0.0987236 
0.00108851 0.0645787 -0.12124 
0.00375167 0.081476 -0.167649 
0.00537602 0.0845816 -0.149038 
0.000568389 0.0675174 -0.103667 
0.00194444 0.0514153 -0.12124 
0.00400135 0.0969414 -0.167649 
0.00474683 0.0986999 -0.149038 
0.00241537 0.0511299 -0.103667 
0.00222403 0.119294 -0.106347 
0.00731394 0.165928 -0.149798 
0.0102062 0.184796 -0.155182 
0.00203226 0.135273 -0.1116 
0.00379571 0.110989 -0.106347 
0.00823836 0.177053 -0.149798 
0.00892478 0.197137 -0.155182 
0.00354282 0.122071 -0.1116 
0.00408858 0.156092 -0.074048 
0.0115673 0.22244 -0.105824 
0.0147097 0.282505 -0.131622 
0.00401018 0.20589 -0.0984068 
0.00521797 0.160871 -0.074048 
0.012199 0.221396 -0.105824 
0.0142822 0.283879 -0.131622 
0.00653543 0.208972 -0.0984068 
0.00783423 0.133596 -0.0265895 
0.0134282 0.193598 -0.0389755 
0.0167165 0.28291 -0.0551677 
0.00729169 0.208946 -0.0436689 
0.00755798 0.15409 -0.0265895 
0.0141745 0.176415 -0.0389755 
0.0165121 0.261999 -0.0551677 
0.00932744 0.234932 -0.0436689 
0.00205052 -0.00440879 2.68265e-11 
0.000616343 0.0175699 2.3599e-11 
0.00274943 0.0247224 2.97986e-11 
0.00254811 -0.00101749 3.34685e-11 
2.7511e-11 0.032902 2.87424e-11 
-0.00205052 -0.0412047 2.48283e-11 
-0.00254811 -0.0618675 3.91155e-11 
3.75698e-11 0.0505522 3.8682e-11 
2.81695e-11 -0.040286 0.00276761 
-0.00755798 -0.11304 -0.0300872 
-0.00932744 -0.18139 -0.0413843 
4.48635e-11 -0.0653619 -0.00625078 
2.79277e-11 -0.00445057 0.00276761 
-0.00783423 -0.146618 -0.0300872 
-0.00729169 -0.21603 -0.0413843 
3.95762e-11 -0.0160443 -0.00625078 
2.83406e-11 -0.00669995 0.00384198 
-0.00521797 -0.153158 -0.0772332 
-0.00653543 -0.21307 -0.0990049 
3.54218e-11 -0.000832788 -0.0107303 
2.43565e-11 -0.015806 0.00384198 
-0.00408858 -0.145362 -0.0772332 
-0.00401018 -0.183232 -0.0990049 
3.32341e-11 -0.0241788 -0.0107303 
2.03315e-11 0.0075766 0.000518104 
-0.00379571 -0.124402 -0.105893 
-0.00354282 -0.147264 -0.116413 
2.62724e-11 0.0125109 -0.0100705 
1.60922e-11 -0.0169736 0.000518104 
-0.00222403 -0.101214 -0.105893 
-0.00203226 -0.111283 -0.116413 
2.13297e-11 -0.018125 -0.0100705 
1.16369e-11 0.0121949 -0.00363606 
-0.00194444 -0.0706965 -0.115406 
-0.00241537 -0.0762966 -0.114337 
1.44976e-11 0.012968 -0.00591234 
6.71075e-12 -0.015133 -0.00363606 
-0.00108851 -0.0447753 -0.115406 
-0.000568389 -0.0445967 -0.114337 
8.88711e-12 -0.0135848 -0.00591234 
2.53344e-12 0.0136593 -0.00533397 
-0.000242838 -0.0129708 -0.11694 
-0.00101701 -0.014852 -0.111645 
2.88001e-12 0.012211 -0.00405707 
-2.53344e-12 -0.0136593 -0.00533397 
0.000242838 0.0129708 -0.11694 
0.00101701 0.014852 -0.111645 
-2.88002e-12 -0.012211 -0.00405707 
-6.71075e-12 0.015133 -0.00363606 
0.00108851 0.0447753 -0.115406 
0.000568389 0.0445967 -0.114337 
-8.88711e-12 0.0135848 -0.00591234 
-1.16369e-11 -0.0121949 -0.00363606 
0.00194444 0.0706965 -0.115406 
0.00241537 0.0762966 -0.114337 
-1.44976e-11 -0.012968 -0.00591234 
-1.60922e-11 0.0169736 0.000518104 
0.00222403 0.101214 -0.105893 
0.00203226 0.111283 -0.116413 
-2.13297e-11 0.018125 -0.0100705 
-2.03315e-11 -0.0075766 0.000518104 
0.00379571 0.124402 -0.105893 
0.00354282 0.147264 -0.116413 
-2.62724e-11 -0.0125109 -0.0100705 
-2.43565e-11 0.015806 0.00384198 
0.00408858 0.145362 -0.0772332 
0.00401018 0.183232 -0.0990049 
-3.32341e-11 0.0241788 -0.0107303 
-2.83406e-11 0.00669995 0.00384198 
0.00521797 0.153158 -0.0772332 
0.00653543 0.21307 -0.0990049 
-3.54218e-11 0.000832788 -0.0107303 
-2.79277e-11 0.00445057 0.00276761 
0.00783423 0.146618 -0.0300872 
0.00729169 0.21603 -0.0413843 
-3.95762e-11 0.0160443 -0.00625078 
-2.81695e-11 0.040286 0.00276761 
0.00755798 0.11304 -0.0300872 
0.00932744 0.18139 -0.0413843 
-4.48635e-11 0.0653619 -0.00625078 
-2.7511e-11 -0.032902 2.87424e-11 
0.00205052 0.0412047 2.48283e-11 
0.00254811 0.0618675 3.91155e-11 
-3.75698e-11 -0.0505522 3.8682e-11 
-2.4545e-06 -0.00382296 7.27902e-12 
-4.86496e-12 -0.00382301 7.27934e-12 
-1.38545e-11 -0.0070915 1.02377e-11 
-3.53548e-05 -0.00709859 1.02394e-11 
-0.00110307 -0.149454 -0.0301522 
-1.06474e-11 -0.149453 -0.0300986 
-2.16703e-11 -0.215348 -0.0401568 
-0.00113259 -0.215358 -0.0402086 
-0.00108011 -0.149606 -0.0301522 
-1.05392e-11 -0.149604 -0.0300986 
-2.15735e-11 -0.215354 -0.0401568 
-0.00116236 -0.215372 -0.0402086 
-0.00160143 -0.202889 -0.0941814 
-1.19006e-11 -0.202887 -0.094026 
-2.16671e-11 -0.271517 -0.113285 
-0.00168166 -0.271535 -0.11344 
-0.00159182 -0.202206 -0.0941814 
-1.22478e-11 -0.202203 -0.094026 
-2.09804e-11 -0.270017 -0.113285 
-0.00168717 -0.270036 -0.11344 
-0.00147533 -0.175324 -0.153614 
-9.48124e-12 -0.175322 -0.153355 
-1.63831e-11 -0.218309 -0.167832 
-0.00157292 -0.218327 -0.168092 
-0.00148287 -0.174277 -0.153614 
-1.00987e-11 -0.174275 -0.153355 
-1.55706e-11 -0.216479 -0.167832 
-0.00155492 -0.216493 -0.168092 
-0.00086157 -0.0984392 -0.191016 
-5.02158e-12 -0.0984384 -0.190687 
-8.62972e-12 -0.116664 -0.19329 
-0.000939357 -0.116676 -0.193622 
-0.000881451 -0.097319 -0.191016 
-5.69655e-12 -0.0973182 -0.190687 
-7.98542e-12 -0.115098 -0.19329 
-0.000905635 -0.115104 -0.193622 
1.21141e-05 -0.000556332 -0.203294 
3.37891e-13 -0.00055656 -0.202939 
-2.73935e-13 -0.000698045 -0.199836 
-1.95324e-05 -0.000700993 -0.200193 
-1.21141e-05 0.000556332 -0.203294 
-3.3789e-13 0.00055656 -0.202939 
2.73936e-13 0.000698045 -0.199836 
1.95324e-05 0.000700993 -0.200193 
0.000881451 0.097319 -0.191016 
5.69656e-12 0.0973182 -0.190687 
7.98542e-12 0.115098 -0.19329 
0.000905635 0.115104 -0.193622 
0.00086157 0.0984392 -0.191016 
5.02158e-12 0.0984384 -0.190687 
8.62972e-12 0.116664 -0.19329 
0.000939357 0.116676 -0.193622 
0.00148287 0.174277 -0.153614 
1.00987e-11 0.174275 -0.153355 
1.55706e-11 0.216479 -0.167832 
0.00155492 0.216493 -0.168092 
0.00147533 0.175324 -0.153614 
9.48124e-12 0.175322 -0.153355 
1.63831e-11 0.218309 -0.167832 
0.00157292 0.218327 -0.168092 
0.00159182 0.202206 -0.0941814 
1.22478e-11 0.202203 -0.094026 
2.09804e-11 0.270017 -0.113285 
0.00168717 0.270036 -0.11344 
0.00160143 0.202889 -0.0941814 
1.19006e-11 0.202887 -0.094026 
2.16671e-11 0.271517 -0.113285 
0.00168166 0.271535 -0.11344 
0.00108011 0.149606 -0.0301522 
1.05392e-11 0.149604 -0.0300986 
2.15735e-11 0.215354 -0.0401568 
0.00116236 0.215372 -0.0402086 
0.00110307 0.149454 -0.0301522 
1.06474e-11 0.149453 -0.0300986 
2.16703e-11 0.215348 -0.0401568 
0.00113259 0.215358 -0.0402086 
2.4545e-06 0.00382296 7.27902e-12 
4.86496e-12 0.00382301 7.27934e-12 
1.38545e-11 0.0070915 1.02377e-11 
3.53548e-05 0.00709859 1.02394e-11 
-5.42645e-06 -0.00381804 7.30986e-12 
-2.4545e-06 -0.00382533 7.30704e-12 
-3.53548e-05 -0.00708731 1.02624e-11 
-8.43915e-05 -0.00710325 1.02717e-11 
-0.0023565 -0.149448 -0.0302939 
-0.00110307 -0.149454 -0.0301352 
-0.00113259 -0.215371 -0.0402151 
-0.00243028 -0.215394 -0.0403677 
-0.0022988 -0.149596 -0.0302939 
-0.00108011 -0.149609 -0.0301352 
-0.00116236 -0.215371 -0.0402151 
-0.00249953 -0.215411 -0.0403677 
-0.003373 -0.202878 -0.094605 
-0.00160143 -0.202892 -0.0941504 
-0.00168166 -0.271541 -0.113475 
-0.0035707 -0.271582 -0.113929 
-0.00334908 -0.202192 -0.094605 
-0.00159182 -0.20221 -0.0941504 
-0.00168717 -0.270042 -0.113475 
-0.00358319 -0.270081 -0.113929 
-0.00307692 -0.175308 -0.154311 
-0.00147533 -0.175326 -0.153562 
-0.00157292 -0.218327 -0.168154 
-0.0033163 -0.218363 -0.168907 
-0.0030953 -0.174263 -0.154311 
-0.00148287 -0.174279 -0.153562 
-0.00155492 -0.216501 -0.168154 
-0.00327334 -0.216526 -0.168907 
-0.00178445 -0.0984251 -0.191896 
-0.00086157 -0.098443 -0.190948 
-0.000939357 -0.116675 -0.193704 
-0.00197401 -0.116694 -0.19466 
-0.0018329 -0.0973114 -0.191896 
-0.000881451 -0.0973173 -0.190948 
-0.000905635 -0.115109 -0.193704 
-0.00189419 -0.115121 -0.19466 
2.9495e-05 -0.000551982 -0.204236 
1.21141e-05 -0.000560214 -0.203219 
-1.95324e-05 -0.00069814 -0.200283 
-4.6158e-05 -0.000700708 -0.201308 
-2.9495e-05 0.000551982 -0.204236 
-1.21141e-05 0.000560214 -0.203219 
1.95324e-05 0.00069814 -0.200283 
4.6158e-05 0.000700708 -0.201308 
0.0018329 0.0973114 -0.191896 
0.000881451 0.0973173 -0.190948 
0.000905635 0.115109 -0.193704 
0.00189419 0.115121 -0.19466 
0.00178445 0.0984251 -0.191896 
0.00086157 0.098443 -0.190948 
0.000939357 0.116675 -0.193704 
0.00197401 0.116694 -0.19466 
0.0030953 0.174263 -0.154311 
0.00148287 0.174279 -0.153562 
0.00155492 0.216501 -0.168154 
0.00327334 0.216526 -0.168907 
0.00307692 0.175308 -0.154311 
0.00147533 0.175326 -0.153562 
0.00157292 0.218327 -0.168154 
0.0033163 0.218363 -0.168907 
0.00334908 0.202192 -0.094605 
0.00159182 0.20221 -0.0941504 
0.00168717 0.270042 -0.113475 
0.00358319 0.270081 -0.113929 
0.003373 0.202878 -0.094605 
0.00160143 0.202892 -0.0941504 
0.00168166 0.271541 -0.113475 
0.0035707 0.271582 -0.113929 
0.0022988 0.149596 -0.0302939 
0.00108011 0.149609 -0.0301352 
0.00116236 0.215371 -0.0402151 
0.00249953 0.215411 -0.0403677 
0.0023565 0.149448 -0.0302939 
0.00110307 0.149454 -0.0301352 
0.00113259 0.215371 -0.0402151 
0.00243028 0.215394 -0.0403677 
5.42645e-06 0.00381804 7.30986e-12 
2.4545e-06 0.00382533 7.30704e-12 
3.53548e-05 0.00708731 1.02624e-11 
8.43915e-05 0.00710325 1.02717e-11 
-1.05819e-05 -0.00379663 7.39144e-12 
-5.42645e-06 -0.00384016 7.37316e-12 
-8.43915e-05 -0.00709449 1.03233e-11 
-0.000161857 -0.00709599 1.03538e-11 
-0.00388841 -0.149389 -0.0305095 
-0.0023565 -0.149434 -0.0302563 
-0.00243028 -0.215408 -0.0403871 
-0.00403871 -0.215419 -0.0406282 
-0.00377208 -0.149507 -0.0305095 
-0.0022988 -0.149613 -0.0302563 
-0.00249953 -0.215421 -0.0403871 
-0.00416665 -0.215418 -0.0406282 
-0.00543705 -0.202764 -0.0952351 
-0.003373 -0.202875 -0.0945306 
-0.0035707 -0.271588 -0.114015 
-0.00583137 -0.271586 -0.114719 
-0.00539014 -0.202065 -0.0952351 
-0.00334908 -0.202203 -0.0945306 
-0.00358319 -0.270097 -0.114015 
-0.00585315 -0.270071 -0.114719 
-0.00487758 -0.175175 -0.155316 
-0.00307692 -0.175315 -0.154185 
-0.0033163 -0.218366 -0.169058 
-0.00535057 -0.218335 -0.170199 
-0.00491405 -0.17414 -0.155316 
-0.0030953 -0.174258 -0.154185 
-0.00327334 -0.216534 -0.169058 
-0.00526876 -0.216502 -0.170199 
-0.00279546 -0.0983254 -0.193135 
-0.00178445 -0.0984449 -0.19173 
-0.00197401 -0.116702 -0.194859 
-0.00316577 -0.116659 -0.196279 
-0.00288992 -0.0972441 -0.193135 
-0.0018329 -0.0972905 -0.19173 
-0.00189419 -0.115117 -0.194859 
-0.00301605 -0.115106 -0.196279 
5.72599e-05 -0.000531267 -0.205553 
2.9495e-05 -0.000578475 -0.204055 
-4.6158e-05 -0.000710984 -0.201525 
-8.62432e-05 -0.000686853 -0.203039 
-5.72599e-05 0.000531267 -0.205553 
-2.9495e-05 0.000578475 -0.204055 
4.6158e-05 0.000710984 -0.201525 
8.62432e-05 0.000686853 -0.203039 
0.00288992 0.0972441 -0.193135 
0.0018329 0.0972905 -0.19173 
0.00189419 0.115117 -0.194859 
0.00301605 0.115106 -0.196279 
0.00279546 0.0983254 -0.193135 
0.00178445 0.0984449 -0.19173 
0.00197401 0.116702 -0.194859 
0.00316577 0.116659 -0.196279 
0.00491405 0.17414 -0.155316 
0.0030953 0.174258 -0.154185 
0.00327334 0.216534 -0.169058 
0.00526876 0.216502 -0.170199 
0.00487758 0.175175 -0.155316 
0.00307692 0.175315 -0.154185 
0.0033163 0.218366 -0.169058 
0.00535057 0.218335 -0.170199 
0.00539014 0.202065 -0.0952351 
0.00334908 0.202203 -0.0945306 
0.00358319 0.270097 -0.114015 
0.00585315 0.270071 -0.114719 
0.00543705 0.202764 -0.0952351 
0.003373 0.202875 -0.0945306 
0.0035707 0.271588 -0.114015 
0.00583137 0.271586 -0.114719 
0.00377208 0.149507 -0.0305095 
0.0022988 0.149613 -0.0302563 
0.00249953 0.215421 -0.0403871 
0.00416665 0.215418 -0.0406282 
0.00388841 0.149389 -0.0305095 
0.0023565 0.149434 -0.0302563 
0.00243028 0.215408 -0.0403871 
0.00403871 0.215419 -0.0406282 
1.05819e-05 0.00379663 7.39144e-12 
5.42645e-06 0.00384016 7.37317e-12 
8.43915e-05 0.00709449 1.03233e-11 
0.000161857 0.00709599 1.03538e-11 
-2.24423e-05 -0.00373165 7.56364e-12 
-1.05819e-05 -0.00389099 7.50543e-12 
-0.000161857 -0.00713537 1.04453e-11 
-0.000283338 -0.00705122 1.05239e-11 
-0.00576904 -0.14914 -0.0307561 
-0.00388841 -0.149311 -0.0304433 
-0.00403871 -0.215394 -0.0406763 
-0.00605007 -0.215312 -0.0409692 
-0.00555865 -0.149159 -0.0307561 
-0.00377208 -0.149576 -0.0304433 
-0.00416665 -0.215473 -0.0406763 
-0.00625824 -0.215231 -0.0409692 
-0.00780017 -0.202297 -0.095905 
-0.00543705 -0.202726 -0.0950886 
-0.00583137 -0.271567 -0.114894 
-0.00851404 -0.271318 -0.115711 
-0.00771602 -0.201553 -0.095905 
-0.00539014 -0.20209 -0.0950886 
-0.00585315 -0.270105 -0.114894 
-0.00854027 -0.269765 -0.115711 
-0.00682599 -0.174651 -0.156294 
-0.00487758 -0.175189 -0.155063 
-0.00535057 -0.218347 -0.170501 
-0.00766825 -0.217994 -0.171747 
-0.00688614 -0.173648 -0.156294 
-0.00491405 -0.1741 -0.155063 
-0.00526876 -0.216487 -0.170501 
-0.00752029 -0.216189 -0.171747 
-0.00384587 -0.0979519 -0.194259 
-0.00279546 -0.0983979 -0.192801 
-0.00316577 -0.116711 -0.196676 
-0.00449288 -0.116396 -0.198156 
-0.00400206 -0.0969709 -0.194259 
-0.00288992 -0.0971518 -0.192801 
-0.00301605 -0.115046 -0.196676 
-0.00423572 -0.114933 -0.198156 
9.46677e-05 -0.000467279 -0.206714 
5.72599e-05 -0.000636434 -0.205188 
-8.62432e-05 -0.000761818 -0.20347 
-0.00014686 -0.000630143 -0.20502 
-9.46677e-05 0.000467279 -0.206714 
-5.72599e-05 0.000636434 -0.205188 
8.62432e-05 0.000761818 -0.20347 
0.00014686 0.000630143 -0.20502 
0.00400206 0.0969709 -0.194259 
0.00288992 0.0971518 -0.192801 
0.00301605 0.115046 -0.196676 
0.00423572 0.114933 -0.198156 
0.00384587 0.0979519 -0.194259 
0.00279546 0.0983979 -0.192801 
0.00316577 0.116711 -0.196676 
0.00449288 0.116396 -0.198156 
0.00688614 0.173648 -0.156294 
0.00491405 0.1741 -0.155063 
0.00526876 0.216487 -0.170501 
0.00752029 0.216189 -0.171747 
0.00682599 0.174651 -0.156294 
0.00487758 0.175189 -0.155063 
0.00535057 0.218347 -0.170501 
0.00766825 0.217994 -0.171747 
0.00771602 0.201553 -0.095905 
0.00539014 0.20209 -0.0950886 
0.00585315 0.270105 -0.114894 
0.00854027 0.269765 -0.115711 
0.00780017 0.202297 -0.095905 
0.00543705 0.202726 -0.0950886 
0.00583137 0.271567 -0.114894 
0.00851404 0.271318 -0.115711 
0.00555865 0.149159 -0.0307561 
0.00377208 0.149576 -0.0304433 
0.00416665 0.215473 -0.0406763 
0.00625824 0.215231 -0.0409692 
0.00576904 0.14914 -0.0307561 
0.00388841 0.149311 -0.0304433 
0.00403871 0.215394 -0.0406763 
0.00605007 0.215312 -0.0409692 
2.24423e-05 0.00373165 7.56364e-12 
1.05819e-05 0.00389099 7.50543e-12 
0.000161857 0.00713537 1.04453e-11 
0.000283338 0.00705122 1.05239e-11 
-6.08048e-05 -0.00356082 7.89499e-12 
-2.24423e-05 -0.0040342 7.75318e-12 
-0.000283338 -0.00727044 1.06742e-11 
-0.000464498 -0.00689832 1.08455e-11 
-0.00794529 -0.148357 -0.030926 
-0.00576904 -0.14887 -0.0306484 
-0.00605007 -0.215127 -0.0410756 
-0.00842532 -0.214727 -0.0413218 
-0.00761176 -0.148107 -0.030926 
-0.00555865 -0.149378 -0.0306484 
-0.00625824 -0.215425 -0.0410756 
-0.00873836 -0.214383 -0.0413218 
-0.0102338 -0.200841 -0.0962106 
-0.00780017 -0.202148 -0.0956359 
-0.00851404 -0.271207 -0.116049 
-0.0114104 -0.270147 -0.11663 
-0.010117 -0.199986 -0.0962106 
-0.00771602 -0.201613 -0.0956359 
-0.00854027 -0.269836 -0.116049 
-0.0114379 -0.268471 -0.11663 
-0.00863419 -0.173046 -0.156474 
-0.00682599 -0.174679 -0.155824 
-0.00766825 -0.218028 -0.172318 
-0.00997271 -0.216661 -0.172993 
-0.00873321 -0.172143 -0.156474 
-0.00688614 -0.173504 -0.155824 
-0.00752029 -0.216081 -0.172318 
-0.00975353 -0.214927 -0.172993 
-0.00474312 -0.0968284 -0.194204 
-0.00384587 -0.0981684 -0.193635 
-0.00449288 -0.11659 -0.198897 
-0.00573901 -0.115447 -0.199497 
-0.00497835 -0.0961327 -0.194204 
-0.00400206 -0.0966727 -0.193635 
-0.00423572 -0.114683 -0.198897 
-0.00537253 -0.114229 -0.199497 
0.000140638 -0.000288712 -0.206547 
9.46677e-05 -0.00079315 -0.206033 
-0.00014686 -0.000912828 -0.205823 
-0.0002073 -0.000474131 -0.20637 
-0.000140638 0.000288712 -0.206547 
-9.46677e-05 0.00079315 -0.206033 
0.00014686 0.000912828 -0.205823 
0.0002073 0.000474131 -0.20637 
0.00497835 0.0961327 -0.194204 
0.00400206 0.0966727 -0.193635 
0.00423572 0.114683 -0.198897 
0.00537253 0.114229 -0.199497 
0.00474312 0.0968284 -0.194204 
0.00384587 0.0981684 -0.193635 
0.00449288 0.11659 -0.198897 
0.00573901 0.115447 -0.199497 
0.00873321 0.172143 -0.156474 
0.00688614 0.173504 -0.155824 
0.00752029 0.216081 -0.172318 
0.00975353 0.214927 -0.172993 
0.00863419 0.173046 -0.156474 
0.00682599 0.174679 -0.155824 
0.00766825 0.218028 -0.172318 
0.00997271 0.216661 -0.172993 
0.010117 0.199986 -0.0962106 
0.00771602 0.201613 -0.0956359 
0.00854027 0.269836 -0.116049 
0.0114379 0.268471 -0.11663 
0.0102338 0.200841 -0.0962106 
0.00780017 0.202148 -0.0956359 
0.00851404 0.271207 -0.116049 
0.0114104 0.270147 -0.11663 
0.00761176 0.148107 -0.030926 
0.00555865 0.149378 -0.0306484 
0.00625824 0.215425 -0.0410756 
0.00873836 0.214383 -0.0413218 
0.00794529 0.148357 -0.030926 
0.00576904 0.14887 -0.0306484 
0.00605007 0.215127 -0.0410756 
0.00842532 0.214727 -0.0413218 
6.08048e-05 0.00356082 7.89499e-12 
2.24423e-05 0.0040342 7.75318e-12 
0.000283338 0.00727044 1.06742e-11 
0.000464498 0.00689832 1.08455e-11 
-0.000148472 -0.00312016 8.48304e-12 
-6.08048e-05 -0.00440405 8.20206e-12 
-0.000464498 -0.00766106 1.10835e-11 
-0.000702544 -0.00646528 1.14211e-11 
-0.0101746 -0.146222 -0.0307792 
-0.00794529 -0.147581 -0.0307521 
-0.00842532 -0.214046 -0.0415371 
-0.0109211 -0.212695 -0.0415226 
-0.00969036 -0.145278 -0.0307792 
-0.00761176 -0.1487 -0.0307521 
-0.00873836 -0.214967 -0.0415371 
-0.0112494 -0.211681 -0.0415226 
-0.0121762 -0.19691 -0.095286 
-0.0102338 -0.200395 -0.0957325 
-0.0114104 -0.269749 -0.117241 
-0.0138956 -0.266346 -0.116808 
-0.0119971 -0.195745 -0.095286 
-0.010117 -0.20011 -0.0957325 
-0.0114379 -0.268625 -0.117241 
-0.0137997 -0.264432 -0.116808 
-0.00972929 -0.168766 -0.154256 
-0.00863419 -0.17311 -0.155636 
-0.00997271 -0.216742 -0.174008 
-0.0115627 -0.212494 -0.172656 
-0.0097951 -0.168085 -0.154256 
-0.00873321 -0.171705 -0.155636 
-0.00975353 -0.214546 -0.174008 
-0.0111603 -0.211099 -0.172656 
-0.00517656 -0.0938869 -0.190839 
-0.00474312 -0.097418 -0.193095 
-0.00573901 -0.116016 -0.200802 
-0.00646404 -0.11256 -0.198573 
-0.00537521 -0.0938545 -0.190839 
-0.00497835 -0.0952941 -0.193095 
-0.00537253 -0.113459 -0.200802 
-0.00591752 -0.112129 -0.198573 
0.000125313 0.000131108 -0.20273 
0.000140638 -0.00118534 -0.205337 
-0.0002073 -0.00131599 -0.207781 
-0.00029975 8.63747e-06 -0.205203 
-0.000125313 -0.000131108 -0.20273 
-0.000140638 0.00118534 -0.205337 
0.0002073 0.00131599 -0.207781 
0.00029975 -8.63747e-06 -0.205203 
0.00537521 0.0938545 -0.190839 
0.00497835 0.0952941 -0.193095 
0.00537253 0.113459 -0.200802 
0.00591752 0.112129 -0.198573 
0.00517656 0.0938869 -0.190839 
0.00474312 0.097418 -0.193095 
0.00573901 0.116016 -0.200802 
0.00646404 0.11256 -0.198573 
0.0097951 0.168085 -0.154256 
0.00873321 0.171705 -0.155636 
0.00975353 0.214546 -0.174008 
0.0111603 0.211099 -0.172656 
0.00972929 0.168766 -0.154256 
0.00863419 0.17311 -0.155636 
0.00997271 0.216742 -0.174008 
0.0115627 0.212494 -0.172656 
0.0119971 0.195745 -0.095286 
0.010117 0.20011 -0.0957325 
0.0114379 0.268625 -0.117241 
0.0137997 0.264432 -0.116808 
0.0121762 0.19691 -0.095286 
0.0102338 0.200395 -0.0957325 
0.0114104 0.269749 -0.117241 
0.0138956 0.266346 -0.116808 
0.00969036 0.145278 -0.0307792 
0.00761176 0.1487 -0.0307521 
0.00873836 0.214967 -0.0415371 
0.0112494 0.211681 -0.0415226 
0.0101746 0.146222 -0.0307792 
0.00794529 0.147581 -0.0307521 
0.00842532 0.214046 -0.0415371 
0.0109211 0.212695 -0.0415226 
0.000148472 0.00312016 8.48305e-12 
6.08048e-05 0.00440405 8.20206e-12 
0.000464498 0.00766106 1.10835e-11 
0.000702544 0.00646528 1.14211e-11 
-0.000318827 -0.00216374 9.56781e-12 
-0.000148472 -0.00527788 8.99107e-12 
-0.000702544 -0.00869826 1.17667e-11 
-0.00122671 -0.00517514 1.24476e-11 
-0.0117952 -0.140959 -0.0295485 
-0.0101746 -0.144184 -0.0305012 
-0.0109211 -0.210645 -0.0420097 
-0.0128797 -0.206832 -0.0409799 
-0.0111747 -0.138381 -0.0295485 
-0.00969036 -0.146801 -0.0305012 
-0.0112494 -0.213207 -0.0420097 
-0.0132815 -0.203795 -0.0409799 
-0.0124765 -0.187158 -0.0907291 
-0.0121762 -0.1957 -0.0944565 
-0.0138956 -0.265265 -0.118034 
-0.0146535 -0.255702 -0.114323 
-0.0123349 -0.185397 -0.0907291 
-0.0119971 -0.196028 -0.0944565 
-0.0137997 -0.264615 -0.118034 
-0.0144814 -0.25299 -0.114323 
-0.00921453 -0.158294 -0.145757 
-0.00972929 -0.168864 -0.152826 
-0.0115627 -0.212817 -0.174581 
-0.0109942 -0.201337 -0.167489 
-0.00914357 -0.158254 -0.145757 
-0.0097951 -0.166977 -0.152826 
-0.0111603 -0.209838 -0.174581 
-0.0107254 -0.200443 -0.167489 
-0.00471991 -0.0867628 -0.17936 
-0.00517656 -0.0952986 -0.188945 
-0.00646404 -0.114216 -0.200994 
-0.00574551 -0.105098 -0.191394 
-0.00470297 -0.0883856 -0.17936 
-0.00537521 -0.0918045 -0.188945 
-0.00591752 -0.109896 -0.200994 
-0.00545713 -0.106245 -0.191394 
2.03795e-05 0.00113593 -0.190182 
0.000125313 -0.00202918 -0.200668 
-0.00029975 -0.00236643 -0.207803 
-0.000171314 0.000977787 -0.197333 
-2.03795e-05 -0.00113593 -0.190182 
-0.000125313 0.00202918 -0.200668 
0.00029975 0.00236643 -0.207803 
0.000171314 -0.000977787 -0.197333 
0.00470297 0.0883856 -0.17936 
0.00537521 0.0918045 -0.188945 
0.00591752 0.109896 -0.200994 
0.00545713 0.106245 -0.191394 
0.00471991 0.0867628 -0.17936 
0.00517656 0.0952986 -0.188945 
0.00646404 0.114216 -0.200994 
0.00574551 0.105098 -0.191394 
0.00914357 0.158254 -0.145757 
0.0097951 0.166977 -0.152826 
0.0111603 0.209838 -0.174581 
0.0107254 0.200443 -0.167489 
0.00921453 0.158294 -0.145757 
0.00972929 0.168864 -0.152826 
0.0115627 0.212817 -0.174581 
0.0109942 0.201337 -0.167489 
0.0123349 0.185397 -0.0907291 
0.0119971 0.196028 -0.0944565 
0.0137997 0.264615 -0.118034 
0.0144814 0.25299 -0.114323 
0.0124765 0.187158 -0.0907291 
0.0121762 0.1957 -0.0944565 
0.0138956 0.265265 -0.118034 
0.0146535 0.255702 -0.114323 
0.0111747 0.138381 -0.0295485 
0.00969036 0.146801 -0.0305012 
0.0112494 0.213207 -0.0420097 
0.0132815 0.203795 -0.0409799 
0.0117952 0.140959 -0.0295485 
0.0101746 0.144184 -0.0305012 
0.0109211 0.210645 -0.0420097 
0.0128797 0.206832 -0.0409799 
0.000318827 0.00216374 9.56781e-12 
0.000148472 0.00527788 8.99107e-12 
0.000702544 0.00869826 1.17667e-11 
0.00122671 0.00517514 1.24476e-11 
-0.000514718 6.0867e-05 1.14377e-11 
-0.000318827 -0.00730027 1.02567e-11 
-0.00122671 -0.0114631 1.31633e-11 
-0.00192836 -0.00213077 1.45695e-11 
-0.0110704 -0.128629 -0.0256044 
-0.0117952 -0.136074 -0.0294837 
-0.0128797 -0.201 -0.0414305 
-0.0130257 -0.191297 -0.0377488 
-0.0105908 -0.122392 -0.0256044 
-0.0111747 -0.141909 -0.0294837 
-0.0132815 -0.207895 -0.0414305 
-0.0126722 -0.184025 -0.0377488 
-0.00971982 -0.164728 -0.0780223 
-0.0124765 -0.184287 -0.0901028 
-0.0146535 -0.252478 -0.115513 
-0.0119838 -0.228317 -0.103408 
-0.00959968 -0.161541 -0.0780223 
-0.0123349 -0.185753 -0.0901028 
-0.0144814 -0.253553 -0.115513 
-0.0111823 -0.224376 -0.103408 
-0.00650564 -0.134663 -0.124014 
-0.00921453 -0.158732 -0.144338 
-0.0109942 -0.201903 -0.169617 
-0.00763825 -0.172967 -0.149089 
-0.00612578 -0.136224 -0.124014 
-0.00914357 -0.155345 -0.144338 
-0.0107254 -0.197338 -0.169617 
-0.00712669 -0.174898 -0.149089 
-0.00324904 -0.0714184 -0.151723 
-0.00471991 -0.0902125 -0.177276 
-0.00574551 -0.108907 -0.194233 
-0.00375769 -0.0870066 -0.1687 
-0.00284369 -0.076365 -0.151723 
-0.00470297 -0.0836472 -0.177276 
-0.00545713 -0.10127 -0.194233 
-0.00332703 -0.0928543 -0.1687 
-0.000179443 0.00301452 -0.160611 
2.03795e-05 -0.00377747 -0.187838 
-0.000171314 -0.00422011 -0.200456 
-0.000237728 0.00349875 -0.173374 
0.000179443 -0.00301452 -0.160611 
-2.03795e-05 0.00377747 -0.187838 
0.000171314 0.00422011 -0.200456 
0.000237728 -0.00349875 -0.173374 
0.00284369 0.076365 -0.151723 
0.00470297 0.0836472 -0.177276 
0.00545713 0.10127 -0.194233 
0.00332703 0.0928543 -0.1687 
0.00324904 0.0714184 -0.151723 
0.00471991 0.0902125 -0.177276 
0.00574551 0.108907 -0.194233 
0.00375769 0.0870066 -0.1687 
0.00612578 0.136224 -0.124014 
0.00914357 0.155345 -0.144338 
0.0107254 0.197338 -0.169617 
0.00712669 0.174898 -0.149089 
0.00650564 0.134663 -0.124014 
0.00921453 0.158732 -0.144338 
0.0109942 0.201903 -0.169617 
0.00763825 0.172967 -0.149089 
0.00959968 0.161541 -0.0780223 
0.0123349 0.185753 -0.0901028 
0.0144814 0.253553 -0.115513 
0.0111823 0.224376 -0.103408 
0.00971982 0.164728 -0.0780223 
0.0124765 0.184287 -0.0901028 
0.0146535 0.252478 -0.115513 
0.0119838 0.228317 -0.103408 
0.0105908 0.122392 -0.0256044 
0.0111747 0.141909 -0.0294837 
0.0132815 0.207895 -0.0414305 
0.0126722 0.184025 -0.0377488 
0.0110704 0.128629 -0.0256044 
0.0117952 0.136074 -0.0294837 
0.0128797 0.201 -0.0414305 
0.0130257 0.191297 -0.0377488 
0.000514718 -6.0867e-05 1.14377e-11 
0.000318827 0.00730027 1.02567e-11 
0.00122671 0.0114631 1.31633e-11 
0.00192836 0.00213077 1.45695e-11 
-0.00111195 0.00462334 1.46264e-11 
-0.000514718 -0.0119137 1.2254e-11 
-0.00192836 -0.0175699 1.56227e-11 
-0.00242882 0.00440879 1.81766e-11 
-0.00559189 -0.100525 -0.0159872 
-0.0110704 -0.116926 -0.0266149 
-0.0130257 -0.176415 -0.0375008 
-0.00588712 -0.15409 -0.0273025 
-0.00542609 -0.0856691 -0.0159872 
-0.0105908 -0.130236 -0.0266149 
-0.0126722 -0.193598 -0.0375008 
-0.00646913 -0.133596 -0.0273025 
-0.00397946 -0.113796 -0.0487999 
-0.00971982 -0.158489 -0.078872 
-0.0119838 -0.221396 -0.103618 
-0.00449372 -0.160871 -0.0727876 
-0.00347334 -0.110109 -0.0487999 
-0.00959968 -0.160912 -0.078872 
-0.0111823 -0.22244 -0.103618 
-0.00439023 -0.156092 -0.0727876 
-0.00274447 -0.08574 -0.0777841 
-0.00650564 -0.136667 -0.124263 
-0.00763825 -0.177053 -0.150207 
-0.00234713 -0.110989 -0.103 
-0.00172076 -0.0921154 -0.0777841 
-0.00612578 -0.129505 -0.124263 
-0.00712669 -0.165928 -0.150207 
-0.00243855 -0.119294 -0.103 
-0.0016381 -0.0418253 -0.0956102 
-0.00324904 -0.078902 -0.151092 
-0.00375769 -0.0969414 -0.170851 
-0.000886723 -0.0514153 -0.115357 
-0.000501489 -0.0531941 -0.0956102 
-0.00284369 -0.0669437 -0.151092 
-0.00332703 -0.081476 -0.170851 
-0.00118084 -0.0645787 -0.115357 
-0.000539928 0.00639824 -0.101377 
-0.000179443 -0.00664877 -0.159551 
-0.000237728 -0.00817819 -0.17602 
0.000150302 0.00715612 -0.118134 
0.000539928 -0.00639824 -0.101377 
0.000179443 0.00664877 -0.159551 
0.000237728 0.00817819 -0.17602 
-0.000150302 -0.00715612 -0.118134 
0.000501489 0.0531941 -0.0956102 
0.00284369 0.0669437 -0.151092 
0.00332703 0.081476 -0.170851 
0.00118084 0.0645787 -0.115357 
0.0016381 0.0418253 -0.0956102 
0.00324904 0.078902 -0.151092 
0.00375769 0.0969414 -0.170851 
0.000886723 0.0514153 -0.115357 
0.00172076 0.0921154 -0.0777841 
0.00612578 0.129505 -0.124263 
0.00712669 0.165928 -0.150207 
0.00243855 0.119294 -0.103 
0.00274447 0.08574 -0.0777841 
0.00650564 0.136667 -0.124263 
0.00763825 0.177053 -0.150207 
0.00234713 0.110989 -0.103 
0.00347334 0.110109 -0.0487999 
0.00959968 0.160912 -0.078872 
0.0111823 0.22244 -0.103618 
0.00439023 0.156092 -0.0727876 
0.00397946 0.113796 -0.0487999 
0.00971982 0.158489 -0.078872 
0.0119838 0.221396 -0.103618 
0.00449372 0.160871 -0.0727876 
0.00542609 0.0856691 -0.0159872 
0.0105908 0.130236 -0.0266149 
0.0126722 0.193598 -0.0375008 
0.00646913 0.133596 -0.0273025 
0.00559189 0.100525 -0.0159872 
0.0110704 0.116926 -0.0266149 
0.0130257 0.176415 -0.0375008 
0.00588712 0.15409 -0.0273025 
0.00111195 -0.00462334 1.46264e-11 
0.000514718 0.0119137 1.2254e-11 
0.00192836 0.0175699 1.56227e-11 
0.00242882 -0.00440879 1.81766e-11 
1.50167e-11 0.0216761 1.57891e-11 
-0.00111195 -0.0260157 1.34839e-11 
-0.00242882 -0.0412047 2.22676e-11 
2.11931e-11 0.032902 2.11544e-11 
1.57577e-11 -0.0262148 0.0018329 
-0.00559189 -0.0724435 -0.018927 
-0.00588712 -0.11304 -0.0238326 
2.46639e-11 -0.040286 -0.00268368 
1.58427e-11 0.00046988 0.0018329 
-0.00542609 -0.096795 -0.018927 
-0.00646913 -0.146618 -0.0238326 
2.27789e-11 -0.00445057 -0.00268368 
1.67017e-11 -0.00724185 0.0036506 
-0.00397946 -0.105867 -0.0543276 
-0.00449372 -0.153158 -0.0677046 
2.06677e-11 -0.00669995 -0.00635223 
1.45732e-11 -0.00889669 0.0036506 
-0.00347334 -0.10399 -0.0543276 
-0.00439023 -0.145362 -0.0677046 
2.09844e-11 -0.015806 -0.00635223 
1.29721e-11 0.00334517 0.00351095 
-0.00274447 -0.093619 -0.0842072 
-0.00234713 -0.124402 -0.0976982 
1.57268e-11 0.0075766 -0.00821694 
1.05109e-11 -0.0123695 0.00351095 
-0.00172076 -0.0778365 -0.0842072 
-0.00243855 -0.101214 -0.0976982 
1.49134e-11 -0.0169736 -0.00821694 
7.60744e-12 0.00882959 0.00247134 
-0.0016381 -0.0570491 -0.101088 
-0.000886723 -0.0706965 -0.111368 
8.86789e-12 0.0121949 -0.0082062 
4.71733e-12 -0.0125036 0.00247134 
-0.000501489 -0.0358061 -0.101088 
-0.00118084 -0.0447753 -0.111368 
7.13333e-12 -0.015133 -0.0082062 
1.52657e-12 0.0113193 0.00191044 
-0.000539928 -0.0112658 -0.106248 
0.000150302 -0.0129708 -0.114857 
1.01936e-12 0.0136593 -0.00788783 
-1.52658e-12 -0.0113193 0.00191044 
0.000539928 0.0112658 -0.106248 
-0.000150302 0.0129708 -0.114857 
-1.01936e-12 -0.0136593 -0.00788783 
-4.71733e-12 0.0125036 0.00247134 
0.000501489 0.0358061 -0.101088 
0.00118084 0.0447753 -0.111368 
-7.13333e-12 0.015133 -0.0082062 
-7.60744e-12 -0.00882959 0.00247134 
0.0016381 0.0570491 -0.101088 
0.000886723 0.0706965 -0.111368 
-8.86789e-12 -0.0121949 -0.0082062 
-1.05109e-11 0.0123695 0.00351095 
0.00172076 0.0778365 -0.0842072 
0.00243855 0.101214 -0.0976982 
-1.49134e-11 0.0169736 -0.00821694 
-1.29721e-11 -0.00334517 0.00351095 
0.00274447 0.093619 -0.0842072 
0.00234713 0.124402 -0.0976982 
-1.57268e-11 -0.0075766 -0.00821694 
-1.45732e-11 0.00889669 0.0036506 
0.00347334 0.10399 -0.0543276 
0.00439023 0.145362 -0.0677046 
-2.09844e-11 0.015806 -0.00635223 
-1.67017e-11 0.00724185 0.0036506 
0.00397946 0.105867 -0.0543276 
0.00449372 0.153158 -0.0677046 
-2.06677e-11 0.00669995 -0.00635223 
-1.58427e-11 -0.00046988 0.0018329 
0.00542609 0.096795 -0.018927 
0.00646913 0.146618 -0.0238326 
-2.27789e-11 0.00445057 -0.00268368 
-1.57577e-11 0.0262148 0.0018329 
0.00559189 0.0724435 -0.018927 
0.00588712 0.11304 -0.0238326 
-2.46639e-11 0.040286 -0.00268368 
-1.50167e-11 -0.0216761 1.57891e-11 
0.00111195 0.0260157 1.34839e-11 
0.00242882 0.0412047 2.22676e-11 
-2.11931e-11 -0.032902 2.11544e-11 
-4.44692e-06 -0.0020713 1.47099e-12 
-9.72216e-14 -0.00207582 1.46968e-12 
-4.61782e-12 -0.00382301 2.64554e-12 
-3.43186e-05 -0.00382296 2.64787e-12 
-0.00104076 -0.099687 -0.0221784 
-4.52281e-12 -0.0996914 -0.0221344 
-1.07772e-11 -0.149453 -0.0304107 
-0.00106918 -0.149454 -0.0304526 
-0.00101676 -0.0999564 -0.0221784 
-4.37591e-12 -0.0999647 -0.0221344 
-1.07353e-11 -0.149604 -0.0304107 
-0.00109928 -0.149606 -0.0304526 
-0.00149814 -0.141784 -0.0727237 
-6.18768e-12 -0.141792 -0.0725993 
-1.2176e-11 -0.202887 -0.0932063 
-0.00157951 -0.202889 -0.0933302 
-0.0014856 -0.141515 -0.0727237 
-6.32701e-12 -0.141524 -0.0725993 
-1.18553e-11 -0.202203 -0.0932063 
-0.00158756 -0.202206 -0.0933302 
-0.00137232 -0.127821 -0.124815 
-5.3575e-12 -0.127831 -0.124611 
-1.00079e-11 -0.175322 -0.152257 
-0.00147589 -0.175324 -0.152462 
-0.00137808 -0.127237 -0.124815 
-5.72853e-12 -0.127244 -0.124611 
-9.55756e-12 -0.174275 -0.152257 
-0.00145874 -0.174277 -0.152462 
-0.000798274 -0.0739322 -0.161278 
-2.94143e-12 -0.0739393 -0.161022 
-5.57965e-12 -0.0984384 -0.18959 
-0.000882529 -0.0984392 -0.189849 
-0.000818185 -0.0732007 -0.161278 
-3.42089e-12 -0.0732036 -0.161022 
-5.13292e-12 -0.0973182 -0.18959 
-0.000847196 -0.097319 -0.189849 
1.25355e-05 -0.000384157 -0.174108 
2.55185e-13 -0.00038678 -0.173833 
-2.15404e-13 -0.00055656 -0.201885 
-2.08933e-05 -0.000556332 -0.202162 
-1.25355e-05 0.000384157 -0.174108 
-2.55183e-13 0.00038678 -0.173833 
2.15405e-13 0.00055656 -0.201885 
2.08933e-05 0.000556332 -0.202162 
0.000818185 0.0732007 -0.161278 
3.42089e-12 0.0732036 -0.161022 
5.13292e-12 0.0973182 -0.18959 
0.000847196 0.097319 -0.189849 
0.000798274 0.0739322 -0.161278 
2.94143e-12 0.0739393 -0.161022 
5.57965e-12 0.0984384 -0.18959 
0.000882529 0.0984392 -0.189849 
0.00137808 0.127237 -0.124815 
5.72854e-12 0.127244 -0.124611 
9.55756e-12 0.174275 -0.152257 
0.00145874 0.174277 -0.152462 
0.00137232 0.127821 -0.124815 
5.35751e-12 0.127831 -0.124611 
1.00079e-11 0.175322 -0.152257 
0.00147589 0.175324 -0.152462 
0.0014856 0.141515 -0.0727237 
6.32701e-12 0.141524 -0.0725993 
1.18554e-11 0.202203 -0.0932063 
0.00158756 0.202206 -0.0933302 
0.00149814 0.141784 -0.0727237 
6.18768e-12 0.141792 -0.0725993 
1.2176e-11 0.202887 -0.0932063 
0.00157951 0.202889 -0.0933302 
0.00101676 0.0999564 -0.0221784 
4.37591e-12 0.0999647 -0.0221344 
1.07353e-11 0.149604 -0.0304107 
0.00109928 0.149606 -0.0304526 
0.00104076 0.099687 -0.0221784 
4.52281e-12 0.0996914 -0.0221344 
1.07772e-11 0.149453 -0.0304107 
0.00106918 0.149454 -0.0304526 
4.44692e-06 0.0020713 1.47099e-12 
9.7223e-14 0.00207582 1.46968e-12 
4.61782e-12 0.00382301 2.64554e-12 
3.43186e-05 0.00382296 2.64787e-12 
-1.09395e-05 -0.00206158 1.50622e-12 
-4.44692e-06 -0.00208193 1.49818e-12 
-3.43186e-05 -0.00382533 2.67052e-12 
-8.08949e-05 -0.00381804 2.68198e-12 
-0.00220776 -0.0996588 -0.0222884 
-0.00104076 -0.0996792 -0.0221621 
-0.00106918 -0.149454 -0.030461 
-0.00227626 -0.149448 -0.0305804 
-0.00215074 -0.0999181 -0.0222884 
-0.00101676 -0.0999614 -0.0221621 
-0.00109928 -0.149609 -0.030461 
-0.00234308 -0.149596 -0.0305804 
-0.00313048 -0.141738 -0.073043 
-0.00149814 -0.141783 -0.0726931 
-0.00157951 -0.202892 -0.0933668 
-0.0033219 -0.202878 -0.0937155 
-0.00310214 -0.141466 -0.073043 
-0.0014856 -0.141517 -0.0726931 
-0.00158756 -0.20221 -0.0933668 
-0.00333818 -0.202192 -0.0937155 
-0.00283888 -0.127773 -0.125327 
-0.00137232 -0.127825 -0.124764 
-0.00147589 -0.175326 -0.152526 
-0.00307863 -0.175308 -0.153093 
-0.00285248 -0.127193 -0.125327 
-0.00137808 -0.127235 -0.124764 
-0.00145874 -0.174279 -0.152526 
-0.00303877 -0.174263 -0.153093 
-0.0016406 -0.073898 -0.161914 
-0.000798274 -0.073939 -0.161212 
-0.000882529 -0.098443 -0.189933 
-0.0018331 -0.0984251 -0.190643 
-0.00168561 -0.0731773 -0.161914 
-0.000818185 -0.0731941 -0.161212 
-0.000847196 -0.0973173 -0.189933 
-0.00175365 -0.0973114 -0.190643 
2.81359e-05 -0.000377369 -0.174785 
1.25355e-05 -0.000392583 -0.174035 
-2.08933e-05 -0.000560214 -0.202254 
-4.66591e-05 -0.000551982 -0.203012 
-2.81359e-05 0.000377369 -0.174785 
-1.25355e-05 0.000392583 -0.174035 
2.08933e-05 0.000560214 -0.202254 
4.66591e-05 0.000551982 -0.203012 
0.00168561 0.0731773 -0.161914 
0.000818185 0.0731941 -0.161212 
0.000847196 0.0973173 -0.189933 
0.00175365 0.0973114 -0.190643 
0.0016406 0.073898 -0.161914 
0.000798274 0.073939 -0.161212 
0.000882529 0.098443 -0.189933 
0.0018331 0.0984251 -0.190643 
0.00285248 0.127193 -0.125327 
0.00137808 0.127235 -0.124764 
0.00145874 0.174279 -0.152526 
0.00303877 0.174263 -0.153093 
0.00283888 0.127773 -0.125327 
0.00137232 0.127825 -0.124764 
0.00147589 0.175326 -0.152526 
0.00307863 0.175308 -0.153093 
0.00310214 0.141466 -0.073043 
0.0014856 0.141517 -0.0726931 
0.00158756 0.20221 -0.0933668 
0.00333818 0.202192 -0.0937155 
0.00313048 0.141738 -0.073043 
0.00149814 0.141783 -0.0726931 
0.00157951 0.202892 -0.0933668 
0.0033219 0.202878 -0.0937155 
0.00215074 0.0999181 -0.0222884 
0.00101676 0.0999614 -0.0221621 
0.00109928 0.149609 -0.030461 
0.00234308 0.149596 -0.0305804 
0.00220776 0.0996588 -0.0222884 
0.00104076 0.0996792 -0.0221621 
0.00106918 0.149454 -0.030461 
0.00227626 0.149448 -0.0305804 
1.09395e-05 0.00206158 1.50622e-12 
4.44692e-06 0.00208193 1.49818e-12 
3.43186e-05 0.00382533 2.67052e-12 
8.08949e-05 0.00381804 2.68198e-12 
-2.2321e-05 -0.0020366 1.59569e-12 
-1.09395e-05 -0.00209895 1.56753e-12 
-8.08949e-05 -0.00384016 2.733e-12 
-0.000153286 -0.00379663 2.76816e-12 
-0.00360289 -0.0995642 -0.0224395 
-0.00220776 -0.0996282 -0.022254 
-0.00227626 -0.149434 -0.0306022 
-0.00373646 -0.149389 -0.0307752 
-0.00349497 -0.09979 -0.0224395 
-0.00215074 -0.0999401 -0.022254 
-0.00234308 -0.149613 -0.0306022 
-0.00385187 -0.149507 -0.0307752 
-0.0049831 -0.141573 -0.0734634 
-0.00313048 -0.141728 -0.0729746 
-0.0033219 -0.202875 -0.0938003 
-0.00534331 -0.202764 -0.0942879 
-0.00493331 -0.141287 -0.0734634 
-0.00310214 -0.141473 -0.0729746 
-0.00333818 -0.202203 -0.0938003 
-0.00536592 -0.202065 -0.0942879 
-0.00444317 -0.127593 -0.125965 
-0.00283888 -0.12778 -0.125212 
-0.00307863 -0.175315 -0.153239 
-0.00488258 -0.175175 -0.154 
-0.0044682 -0.127024 -0.125965 
-0.00285248 -0.12718 -0.125212 
-0.00303877 -0.174258 -0.153239 
-0.00480802 -0.17414 -0.154 
-0.00253994 -0.0737708 -0.162671 
-0.0016406 -0.0739227 -0.161763 
-0.0018331 -0.0984449 -0.190834 
-0.00288505 -0.0983254 -0.191754 
-0.00261796 -0.0730848 -0.162671 
-0.00168561 -0.0731476 -0.161763 
-0.00175365 -0.0972905 -0.190834 
-0.0027449 -0.0972441 -0.191754 
4.82139e-05 -0.000355343 -0.175577 
2.81359e-05 -0.000411753 -0.17462 
-4.66591e-05 -0.000578475 -0.203219 
-8.12456e-05 -0.000531267 -0.204189 
-4.82139e-05 0.000355343 -0.175577 
-2.81359e-05 0.000411753 -0.17462 
4.66591e-05 0.000578475 -0.203219 
8.12456e-05 0.000531267 -0.204189 
0.00261796 0.0730848 -0.162671 
0.00168561 0.0731476 -0.161763 
0.00175365 0.0972905 -0.190834 
0.0027449 0.0972441 -0.191754 
0.00253994 0.0737708 -0.162671 
0.0016406 0.0739227 -0.161763 
0.0018331 0.0984449 -0.190834 
0.00288505 0.0983254 -0.191754 
0.0044682 0.127024 -0.125965 
0.00285248 0.12718 -0.125212 
0.00303877 0.174258 -0.153239 
0.00480802 0.17414 -0.154 
0.00444317 0.127593 -0.125965 
0.00283888 0.12778 -0.125212 
0.00307863 0.175315 -0.153239 
0.00488258 0.175175 -0.154 
0.00493331 0.141287 -0.0734634 
0.00310214 0.141473 -0.0729746 
0.00333818 0.202203 -0.0938003 
0.00536592 0.202065 -0.0942879 
0.0049831 0.141573 -0.0734634 
0.00313048 0.141728 -0.0729746 
0.0033219 0.202875 -0.0938003 
0.00534331 0.202764 -0.0942879 
0.00349497 0.09979 -0.0224395 
0.00215074 0.0999401 -0.022254 
0.00234308 0.149613 -0.0306022 
0.00385187 0.149507 -0.0307752 
0.00360289 0.0995642 -0.0224395 
0.00220776 0.0996282 -0.022254 
0.00227626 0.149434 -0.0306022 
0.00373646 0.149389 -0.0307752 
2.2321e-05 0.0020366 1.59569e-12 
1.09395e-05 0.00209895 1.56753e-12 
8.08949e-05 0.00384016 2.733e-12 
0.000153286 0.00379663 2.76816e-12 
-4.36799e-05 -0.00197532 1.77946e-12 
-2.2321e-05 -0.00214647 1.70552e-12 
-0.000153286 -0.00389099 2.85977e-12 
-0.000267635 -0.00373165 2.94683e-12 
-0.00526817 -0.0992903 -0.022571 
-0.00360289 -0.0994675 -0.0223847 
-0.00373646 -0.149311 -0.030821 
-0.00550726 -0.14914 -0.0309893 
-0.00508558 -0.0994224 -0.022571 
-0.00349497 -0.0998633 -0.0223847 
-0.00385187 -0.149576 -0.030821 
-0.00568453 -0.149159 -0.0309893 
-0.00702983 -0.141072 -0.0737626 
-0.0049831 -0.141525 -0.0733439 
-0.00534331 -0.202726 -0.094444 
-0.0076452 -0.202297 -0.0948637 
-0.00695516 -0.140745 -0.0737626 
-0.00493331 -0.141308 -0.0733439 
-0.00536592 -0.20209 -0.094444 
-0.00766709 -0.201553 -0.0948637 
-0.00611436 -0.127042 -0.126303 
-0.00444317 -0.127605 -0.125761 
-0.00488258 -0.175189 -0.154264 
-0.00683588 -0.174651 -0.154819 
-0.00615657 -0.126505 -0.126303 
-0.0044682 -0.126977 -0.125761 
-0.00480802 -0.1741 -0.154264 
-0.00671037 -0.173648 -0.154819 
-0.00344071 -0.0733829 -0.16296 
-0.00253994 -0.0738447 -0.162402 
-0.00288505 -0.0983979 -0.192097 
-0.00398793 -0.0979519 -0.192671 
-0.00355776 -0.0727943 -0.16296 
-0.00261796 -0.0729845 -0.162402 
-0.0027449 -0.0971518 -0.192097 
-0.00377109 -0.0969709 -0.192671 
7.0881e-05 -0.000293447 -0.175833 
4.82139e-05 -0.000465829 -0.175284 
-8.12456e-05 -0.000636434 -0.204561 
-0.000123291 -0.000467279 -0.205126 
-7.0881e-05 0.000293447 -0.175833 
-4.82139e-05 0.000465829 -0.175284 
8.12456e-05 0.000636434 -0.204561 
0.000123291 0.000467279 -0.205126 
0.00355776 0.0727943 -0.16296 
0.00261796 0.0729845 -0.162402 
0.0027449 0.0971518 -0.192097 
0.00377109 0.0969709 -0.192671 
0.00344071 0.0733829 -0.16296 
0.00253994 0.0738447 -0.162402 
0.00288505 0.0983979 -0.192097 
0.00398793 0.0979519 -0.192671 
0.00615657 0.126505 -0.126303 
0.0044682 0.126977 -0.125761 
0.00480802 0.1741 -0.154264 
0.00671037 0.173648 -0.154819 
0.00611436 0.127042 -0.126303 
0.00444317 0.127605 -0.125761 
0.00488258 0.175189 -0.154264 
0.00683588 0.174651 -0.154819 
0.00695516 0.140745 -0.0737626 
0.00493331 0.141308 -0.0733439 
0.00536592 0.20209 -0.094444 
0.00766709 0.201553 -0.0948637 
0.00702983 0.141072 -0.0737626 
0.0049831 0.141525 -0.0733439 
0.00534331 0.202726 -0.094444 
0.0076452 0.202297 -0.0948637 
0.00508558 0.0994224 -0.022571 
0.00349497 0.0998633 -0.0223847 
0.00385187 0.149576 -0.030821 
0.00568453 0.149159 -0.0309893 
0.00526817 0.0992903 -0.022571 
0.00360289 0.0994675 -0.0223847 
0.00373646 0.149311 -0.030821 
0.00550726 0.14914 -0.0309893 
4.36799e-05 0.00197532 1.77946e-12 
2.2321e-05 0.00214647 1.70552e-12 
0.000153286 0.00389099 2.85978e-12 
0.000267635 0.00373165 2.94683e-12 
-8.31337e-05 -0.00183159 2.12386e-12 
-4.36799e-05 -0.00226813 1.96154e-12 
-0.000267635 -0.0040342 3.09888e-12 
-0.000442994 -0.00356082 3.28597e-12 
-0.00713231 -0.0985726 -0.0225514 
-0.00526817 -0.0990212 -0.0224949 
-0.00550726 -0.14887 -0.0310758 
-0.00753135 -0.148357 -0.03111 
-0.00684761 -0.0984656 -0.0225514 
-0.00508558 -0.09963 -0.0224949 
-0.00568453 -0.149378 -0.0310758 
-0.00777207 -0.148107 -0.03111 
-0.00904627 -0.13973 -0.0734733 
-0.00702983 -0.140917 -0.0735763 
-0.0076452 -0.202148 -0.0951242 
-0.0100195 -0.200841 -0.095029 
-0.00894922 -0.139293 -0.0734733 
-0.00695516 -0.140796 -0.0735763 
-0.00766709 -0.201613 -0.0951242 
-0.0100065 -0.199986 -0.095029 
-0.00759716 -0.125558 -0.125475 
-0.00611436 -0.127057 -0.125981 
-0.00683588 -0.174679 -0.15525 
-0.00866535 -0.173046 -0.154761 
-0.0076522 -0.125097 -0.125475 
-0.00615657 -0.126361 -0.125981 
-0.00671037 -0.173504 -0.15525 
-0.00845806 -0.172143 -0.154761 
-0.00418547 -0.0723476 -0.161607 
-0.00344071 -0.0735822 -0.162537 
-0.00398793 -0.0981684 -0.193224 
-0.00495243 -0.0968284 -0.192309 
-0.00432221 -0.0719997 -0.161607 
-0.00355776 -0.0725068 -0.162537 
-0.00377109 -0.0966727 -0.193224 
-0.00464209 -0.0961327 -0.192309 
8.00242e-05 -0.000140501 -0.174265 
7.0881e-05 -0.000602399 -0.175372 
-0.000123291 -0.00079315 -0.205723 
-0.000169701 -0.000288712 -0.204627 
-8.00242e-05 0.000140501 -0.174265 
-7.0881e-05 0.000602399 -0.175372 
0.000123291 0.00079315 -0.205723 
0.000169701 0.000288712 -0.204627 
0.00432221 0.0719997 -0.161607 
0.00355776 0.0725068 -0.162537 
0.00377109 0.0966727 -0.193224 
0.00464209 0.0961327 -0.192309 
0.00418547 0.0723476 -0.161607 
0.00344071 0.0735822 -0.162537 
0.00398793 0.0981684 -0.193224 
0.00495243 0.0968284 -0.192309 
0.0076522 0.125097 -0.125475 
0.00615657 0.126361 -0.125981 
0.00671037 0.173504 -0.15525 
0.00845806 0.172143 -0.154761 
0.00759716 0.125558 -0.125475 
0.00611436 0.127057 -0.125981 
0.00683588 0.174679 -0.15525 
0.00866535 0.173046 -0.154761 
0.00894922 0.139293 -0.0734733 
0.00695516 0.140796 -0.0735763 
0.00766709 0.201613 -0.0951242 
0.0100065 0.199986 -0.095029 
0.00904627 0.13973 -0.0734733 
0.00702983 0.140917 -0.0735763 
0.0076452 0.202148 -0.0951242 
0.0100195 0.200841 -0.095029 
0.00684761 0.0984656 -0.0225514 
0.00508558 0.09963 -0.0224949 
0.00568453 0.149378 -0.0310758 
0.00777207 0.148107 -0.03111 
0.00713231 0.0985726 -0.0225514 
0.00526817 0.0990212 -0.0224949 
0.00550726 0.14887 -0.0310758 
0.00753135 0.148357 -0.03111 
8.31337e-05 0.00183159 2.12387e-12 
4.36799e-05 0.00226813 1.96154e-12 
0.000267635 0.0040342 3.09888e-12 
0.000442994 0.00356082 3.28597e-12 
-0.000144348 -0.00151394 2.73464e-12 
-8.31337e-05 -0.00255803 2.41198e-12 
-0.000442994 -0.00440405 3.53073e-12 
-0.000730108 -0.00312016 3.90341e-12 
-0.00890325 -0.0968292 -0.022084 
-0.00713231 -0.0978871 -0.0224642 
-0.00753135 -0.147581 -0.0312608 
-0.00955357 -0.146222 -0.0308713 
-0.00850603 -0.0961655 -0.022084 
-0.00684761 -0.0989995 -0.0224642 
-0.00777207 -0.1487 -0.0312608 
-0.00983874 -0.145278 -0.0308713 
-0.010494 -0.13643 -0.0716188 
-0.00904627 -0.139301 -0.0732216 
-0.0100195 -0.200395 -0.0954347 
-0.0119063 -0.19691 -0.0938514 
-0.0104006 -0.135739 -0.0716188 
-0.00894922 -0.139416 -0.0732216 
-0.0100065 -0.20011 -0.0954347 
-0.0118213 -0.195745 -0.0938514 
-0.00838156 -0.121911 -0.121763 
-0.00759716 -0.125572 -0.125035 
-0.00866535 -0.17311 -0.155411 
-0.00975549 -0.168766 -0.152151 
-0.00843898 -0.12164 -0.121763 
-0.0076522 -0.12472 -0.125035 
-0.00845806 -0.171705 -0.155411 
-0.00947299 -0.168085 -0.152151 
-0.00448995 -0.0698196 -0.156354 
-0.00418547 -0.0728367 -0.161027 
-0.00495243 -0.097418 -0.19313 
-0.00536992 -0.0938869 -0.188452 
-0.00459004 -0.0700425 -0.156354 
-0.00432221 -0.0712681 -0.161027 
-0.00464209 -0.0952941 -0.19313 
-0.00502594 -0.0938545 -0.188452 
5.30665e-05 0.000220687 -0.16842 
8.00242e-05 -0.000915617 -0.173633 
-0.000169701 -0.00118534 -0.205509 
-0.000176469 0.000131108 -0.200284 
-5.30665e-05 -0.000220687 -0.16842 
-8.00242e-05 0.000915617 -0.173633 
0.000169701 0.00118534 -0.205509 
0.000176469 -0.000131108 -0.200284 
0.00459004 0.0700425 -0.156354 
0.00432221 0.0712681 -0.161027 
0.00464209 0.0952941 -0.19313 
0.00502594 0.0938545 -0.188452 
0.00448995 0.0698196 -0.156354 
0.00418547 0.0728367 -0.161027 
0.00495243 0.097418 -0.19313 
0.00536992 0.0938869 -0.188452 
0.00843898 0.12164 -0.121763 
0.0076522 0.12472 -0.125035 
0.00845806 0.171705 -0.155411 
0.00947299 0.168085 -0.152151 
0.00838156 0.121911 -0.121763 
0.00759716 0.125572 -0.125035 
0.00866535 0.17311 -0.155411 
0.00975549 0.168766 -0.152151 
0.0104006 0.135739 -0.0716188 
0.00894922 0.139416 -0.0732216 
0.0100065 0.20011 -0.0954347 
0.0118213 0.195745 -0.0938514 
0.010494 0.13643 -0.0716188 
0.00904627 0.139301 -0.0732216 
0.0100195 0.200395 -0.0954347 
0.0119063 0.19691 -0.0938514 
0.00850603 0.0961655 -0.022084 
0.00684761 0.0989995 -0.0224642 
0.00777207 0.1487 -0.0312608 
0.00983874 0.145278 -0.0308713 
0.00890325 0.0968292 -0.022084 
0.00713231 0.0978871 -0.0224642 
0.00753135 0.147581 -0.0312608 
0.00955357 0.146222 -0.0308713 
0.000144348 0.00151394 2.73464e-12 
8.31337e-05 0.00255803 2.41198e-12 
0.000442994 0.00440405 3.53073e-12 
0.000730108 0.00312016 3.90341e-12 
-0.000252575 -0.000853401 3.78341e-12 
-0.000144348 -0.00320252 3.16167e-12 
-0.000730108 -0.00527788 4.30151e-12 
-0.00113876 -0.00216374 5.00087e-12 
-0.00988542 -0.0928438 -0.0205941 
-0.00890325 -0.095203 -0.0220693 
-0.00955357 -0.144184 -0.0310424 
-0.0108928 -0.140959 -0.0296145 
-0.00940502 -0.0909145 -0.0205941 
-0.00850603 -0.0974314 -0.0220693 
-0.00983874 -0.146801 -0.0310424 
-0.011145 -0.138381 -0.0296145 
-0.0104382 -0.128829 -0.066372 
-0.010494 -0.135381 -0.0714443 
-0.0119063 -0.1957 -0.0942856 
-0.0123091 -0.187158 -0.0892544 
-0.0104173 -0.127594 -0.066372 
-0.0104006 -0.135981 -0.0714443 
-0.0118213 -0.196028 -0.0942856 
-0.0120033 -0.185397 -0.0892544 
-0.00778305 -0.113604 -0.112121 
-0.00838156 -0.12194 -0.121412 
-0.00975549 -0.168864 -0.152842 
-0.00923841 -0.158294 -0.143528 
-0.00779237 -0.113759 -0.112121 
-0.00843898 -0.120705 -0.121412 
-0.00947299 -0.166977 -0.152842 
-0.00883503 -0.158254 -0.143528 
-0.0040373 -0.0641365 -0.143359 
-0.00448995 -0.0709721 -0.155859 
-0.00536992 -0.0952986 -0.18933 
-0.00480597 -0.0867628 -0.176775 
-0.00399039 -0.0655882 -0.143359 
-0.00459004 -0.0683097 -0.155859 
-0.00502594 -0.0918045 -0.18933 
-0.0044431 -0.0883856 -0.176775 
-3.49426e-05 0.000981171 -0.154196 
5.30665e-05 -0.00159313 -0.167871 
-0.000176469 -0.00202918 -0.201228 
-0.000170248 0.00113593 -0.187502 
3.49426e-05 -0.000981171 -0.154196 
-5.30665e-05 0.00159313 -0.167871 
0.000176469 0.00202918 -0.201228 
0.000170248 -0.00113593 -0.187502 
0.00399039 0.0655882 -0.143359 
0.00459004 0.0683097 -0.155859 
0.00502594 0.0918045 -0.18933 
0.0044431 0.0883856 -0.176775 
0.0040373 0.0641365 -0.143359 
0.00448995 0.0709721 -0.155859 
0.00536992 0.0952986 -0.18933 
0.00480597 0.0867628 -0.176775 
0.00779237 0.113759 -0.112121 
0.00843898 0.120705 -0.121412 
0.00947299 0.166977 -0.152842 
0.00883503 0.158254 -0.143528 
0.00778305 0.113604 -0.112121 
0.00838156 0.12194 -0.121412 
0.00975549 0.168864 -0.152842 
0.00923841 0.158294 -0.143528 
0.0104173 0.127594 -0.066372 
0.0104006 0.135981 -0.0714443 
0.0118213 0.196028 -0.0942856 
0.0120033 0.185397 -0.0892544 
0.0104382 0.128829 -0.066372 
0.010494 0.135381 -0.0714443 
0.0119063 0.1957 -0.0942856 
0.0123091 0.187158 -0.0892544 
0.00940502 0.0909145 -0.0205941 
0.00850603 0.0974314 -0.0220693 
0.00983874 0.146801 -0.0310424 
0.011145 0.138381 -0.0296145 
0.00988542 0.0928438 -0.0205941 
0.00890325 0.095203 -0.0220693 
0.00955357 0.144184 -0.0310424 
0.0108928 0.140959 -0.0296145 
0.000252575 0.000853401 3.78341e-12 
0.000144348 0.00320252 3.16167e-12 
0.000730108 0.00527788 4.30151e-12 
0.00113876 0.00216374 5.00087e-12 
-0.00035922 0.000620541 5.39919e-12 
-0.000252575 -0.00466648 4.325e-12 
-0.00113876 -0.00730027 5.66586e-12 
-0.00164597 6.0867e-05 6.90879e-12 
-0.00872953 -0.0839011 -0.0170016 
-0.00988542 -0.0891454 -0.0208875 
-0.0108928 -0.136074 -0.0296237 
-0.0101345 -0.128629 -0.0260363 
-0.0083361 -0.0793692 -0.0170016 
-0.00940502 -0.0937117 -0.0208875 
-0.011145 -0.141909 -0.0296237 
-0.0101426 -0.122392 -0.0260363 
-0.00787428 -0.112156 -0.0546365 
-0.0104382 -0.126452 -0.0667309 
-0.0123091 -0.184287 -0.0893 
-0.00965392 -0.164728 -0.0772188 
-0.00788581 -0.109936 -0.0546365 
-0.0104173 -0.127958 -0.0667309 
-0.0120033 -0.185753 -0.0893 
-0.00926312 -0.161541 -0.0772188 
-0.00539928 -0.0957997 -0.091687 
-0.00778305 -0.113763 -0.112493 
-0.00923841 -0.158732 -0.143694 
-0.00634529 -0.134663 -0.122697 
-0.00524992 -0.0971385 -0.091687 
-0.00779237 -0.111552 -0.112493 
-0.00883503 -0.155345 -0.143694 
-0.00606998 -0.136224 -0.122697 
-0.00274371 -0.0523973 -0.116824 
-0.0040373 -0.066714 -0.143685 
-0.00480597 -0.0902125 -0.177056 
-0.00303454 -0.0714184 -0.15003 
-0.00244599 -0.0563773 -0.116824 
-0.00399039 -0.0618621 -0.143685 
-0.0044431 -0.0836472 -0.177056 
-0.00288339 -0.076365 -0.15003 
-0.000176462 0.00244175 -0.12553 
-3.49426e-05 -0.00287242 -0.154491 
-0.000170248 -0.00377747 -0.187837 
-5.02692e-05 0.00301452 -0.158761 
0.000176462 -0.00244175 -0.12553 
3.49426e-05 0.00287242 -0.154491 
0.000170248 0.00377747 -0.187837 
5.02692e-05 -0.00301452 -0.158761 
0.00244599 0.0563773 -0.116824 
0.00399039 0.0618621 -0.143685 
0.0044431 0.0836472 -0.177056 
0.00288339 0.076365 -0.15003 
0.00274371 0.0523973 -0.116824 
0.0040373 0.066714 -0.143685 
0.00480597 0.0902125 -0.177056 
0.00303454 0.0714184 -0.15003 
0.00524992 0.0971385 -0.091687 
0.00779237 0.111552 -0.112493 
0.00883503 0.155345 -0.143694 
0.00606998 0.136224 -0.122697 
0.00539928 0.0957997 -0.091687 
0.00778305 0.113763 -0.112493 
0.00923841 0.158732 -0.143694 
0.00634529 0.134663 -0.122697 
0.00788581 0.109936 -0.0546365 
0.0104173 0.127958 -0.0667309 
0.0120033 0.185753 -0.0893 
0.00926312 0.161541 -0.0772188 
0.00787428 0.112156 -0.0546365 
0.0104382 0.126452 -0.0667309 
0.0123091 0.184287 -0.0893 
0.00965392 0.164728 -0.0772188 
0.0083361 0.0793692 -0.0170016 
0.00940502 0.0937117 -0.0208875 
0.011145 0.141909 -0.0296237 
0.0101426 0.122392 -0.0260363 
0.00872953 0.0839011 -0.0170016 
0.00988542 0.0891454 -0.0208875 
0.0108928 0.136074 -0.0296237 
0.0101345 0.128629 -0.0260363 
0.00035922 -0.000620541 5.39919e-12 
0.000252575 0.00466648 4.325e-12 
0.00113876 0.00730027 5.66586e-12 
0.00164597 -6.0867e-05 6.90879e-12 
-0.000722007 0.0036737 7.71543e-12 
-0.00035922 -0.00780323 5.93341e-12 
-0.00164597 -0.0119137 7.90029e-12 
-0.00170497 0.00462334 9.60972e-12 
-0.00402402 -0.0643684 -0.00985455 
-0.00872953 -0.0756015 -0.0181617 
-0.0101345 -0.116926 -0.025209 
-0.00445469 -0.100525 -0.017453 
-0.00408246 -0.0540611 -0.00985455 
-0.0083361 -0.0850607 -0.0181617 
-0.0101426 -0.130236 -0.025209 
-0.00482704 -0.0856691 -0.017453 
-0.00295261 -0.0765085 -0.0321708 
-0.00787428 -0.107448 -0.0565512 
-0.00965392 -0.158489 -0.075675 
-0.00373414 -0.113796 -0.0509827 
-0.00293885 -0.0735826 -0.0321708 
-0.00788581 -0.109677 -0.0565512 
-0.00926312 -0.160912 -0.075675 
-0.00347743 -0.110109 -0.0509827 
-0.00199687 -0.0607053 -0.0544402 
-0.00539928 -0.0969371 -0.0942827 
-0.00634529 -0.136667 -0.120681 
-0.00231912 -0.08574 -0.0803396 
-0.00161738 -0.0649599 -0.0544402 
-0.00524992 -0.0921706 -0.0942827 
-0.00606998 -0.129505 -0.120681 
-0.00192501 -0.0921154 -0.0803396 
-0.00116923 -0.0306399 -0.0697891 
-0.00274371 -0.0578892 -0.11966 
-0.00303454 -0.078902 -0.147921 
-0.00108862 -0.0418253 -0.097764 
-0.000531805 -0.0390123 -0.0697891 
-0.00244599 -0.049053 -0.11966 
-0.00288339 -0.0669437 -0.147921 
-0.000795384 -0.0531941 -0.097764 
-0.000352519 0.00484051 -0.0751349 
-0.000176462 -0.00505777 -0.128386 
-5.02692e-05 -0.00664877 -0.156683 
-0.00012276 0.00639824 -0.103283 
0.000352519 -0.00484051 -0.0751349 
0.000176462 0.00505777 -0.128386 
5.02692e-05 0.00664877 -0.156683 
0.00012276 -0.00639824 -0.103283 
0.000531805 0.0390123 -0.0697891 
0.00244599 0.049053 -0.11966 
0.00288339 0.0669437 -0.147921 
0.000795384 0.0531941 -0.097764 
0.00116923 0.0306399 -0.0697891 
0.00274371 0.0578892 -0.11966 
0.00303454 0.078902 -0.147921 
0.00108862 0.0418253 -0.097764 
0.00161738 0.0649599 -0.0544402 
0.00524992 0.0921706 -0.0942827 
0.00606998 0.129505 -0.120681 
0.00192501 0.0921154 -0.0803396 
0.00199687 0.0607053 -0.0544402 
0.00539928 0.0969371 -0.0942827 
0.00634529 0.136667 -0.120681 
0.00231912 0.08574 -0.0803396 
0.00293885 0.0735826 -0.0321708 
0.00788581 0.109677 -0.0565512 
0.00926312 0.160912 -0.075675 
0.00347743 0.110109 -0.0509827 
0.00295261 0.0765085 -0.0321708 
0.00787428 0.107448 -0.0565512 
0.00965392 0.158489 -0.075675 
0.00373414 0.113796 -0.0509827 
0.00408246 0.0540611 -0.00985455 
0.0083361 0.0850607 -0.0181617 
0.0101426 0.130236 -0.025209 
0.00482704 0.0856691 -0.017453 
0.00402402 0.0643684 -0.00985455 
0.00872953 0.0756015 -0.0181617 
0.0101345 0.116926 -0.025209 
0.00445469 0.100525 -0.017453 
0.000722007 -0.0036737 7.71543e-12 
0.00035922 0.00780323 5.93341e-12 
0.00164597 0.0119137 7.90029e-12 
0.00170497 -0.00462334 9.60973e-12 
8.01308e-12 0.0138744 8.37757e-12 
-0.000722007 -0.016425 7.09415e-12 
-0.00170497 -0.0260157 1.23649e-11 
1.12524e-11 0.0216761 1.13309e-11 
8.51706e-12 -0.0165664 0.00135889 
-0.00402402 -0.0456445 -0.0120857 
-0.00445469 -0.0724435 -0.0147157 
1.38388e-11 -0.0262148 -0.00188843 
8.64398e-12 0.00150237 0.00135889 
-0.00408246 -0.0625227 -0.0120857 
-0.00482704 -0.096795 -0.0147157 
1.2185e-11 0.00046988 -0.00188843 
9.49286e-12 -0.00563952 0.00317484 
-0.00295261 -0.0698553 -0.0370569 
-0.00373414 -0.105867 -0.0461855 
1.22062e-11 -0.00724185 -0.00458645 
8.35227e-12 -0.00506005 0.00317484 
-0.00293885 -0.070474 -0.0370569 
-0.00347743 -0.10399 -0.0461855 
1.1967e-11 -0.00889669 -0.00458645 
7.79501e-12 0.00150937 0.00410707 
-0.00199687 -0.0649164 -0.0615423 
-0.00231912 -0.093619 -0.0738276 
9.58681e-12 0.00334517 -0.00687845 
6.3197e-12 -0.0084819 0.00410707 
-0.00161738 -0.0550601 -0.0615423 
-0.00192501 -0.0778365 -0.0738276 
9.058e-12 -0.0123695 -0.00687845 
4.74048e-12 0.00609731 0.00435556 
-0.00116923 -0.0411857 -0.077771 
-0.00108862 -0.0570491 -0.0906743 
5.53236e-12 0.00882959 -0.00804647 
2.95017e-12 -0.00934137 0.00435556 
-0.000531805 -0.0259952 -0.077771 
-0.000795384 -0.0358061 -0.0906743 
4.53619e-12 -0.0125036 -0.00804647 
9.51591e-13 0.00851595 0.00434909 
-0.000352519 -0.00837958 -0.0833013 
-0.00012276 -0.0112658 -0.0960954 
6.01372e-13 0.0113193 -0.00834203 
-9.51592e-13 -0.00851595 0.00434909 
0.000352519 0.00837958 -0.0833013 
0.00012276 0.0112658 -0.0960954 
-6.01374e-13 -0.0113193 -0.00834203 
-2.95017e-12 0.00934137 0.00435556 
0.000531805 0.0259952 -0.077771 
0.000795384 0.0358061 -0.0906743 
-4.53619e-12 0.0125036 -0.00804647 
-4.74048e-12 -0.00609731 0.00435556 
0.00116923 0.0411857 -0.077771 
0.00108862 0.0570491 -0.0906743 
-5.53236e-12 -0.00882959 -0.00804647 
-6.3197e-12 0.0084819 0.00410707 
0.00161738 0.0550601 -0.0615423 
0.00192501 0.0778365 -0.0738276 
-9.058e-12 0.0123695 -0.00687845 
-7.79501e-12 -0.00150937 0.00410707 
0.00199687 0.0649164 -0.0615423 
0.00231912 0.093619 -0.0738276 
-9.58681e-12 -0.00334517 -0.00687845 
-8.35227e-12 0.00506005 0.00317484 
0.00293885 0.070474 -0.0370569 
0.00347743 0.10399 -0.0461855 
-1.1967e-11 0.00889669 -0.00458645 
-9.49287e-12 0.00563952 0.00317484 
0.00295261 0.0698553 -0.0370569 
0.00373414 0.105867 -0.0461855 
-1.22062e-11 0.00724185 -0.00458645 
-8.64398e-12 -0.00150237 0.00135889 
0.00408246 0.0625227 -0.0120857 
0.00482704 0.096795 -0.0147157 
-1.2185e-11 -0.00046988 -0.00188843 
-8.51706e-12 0.0165664 0.00135889 
0.00402402 0.0456445 -0.0120857 
0.00445469 0.0724435 -0.0147157 
-1.38388e-11 0.0262148 -0.00188843 
-8.01308e-12 -0.0138744 8.37757e-12 
0.000722007 0.016425 7.09415e-12 
0.00170497 0.0260157 1.23649e-11 
-1.12524e-11 -0.0216761 1.13309e-11 
-8.12604e-06 -0.00105341 -1.43908e-12 
2.22491e-12 -0.00105915 -1.44206e-12 
7.82796e-14 -0.00207582 -1.17404e-12 
-3.24939e-05 -0.0020713 -1.17048e-12 
-0.000987799 -0.0631326 -0.0160691 
-1.13938e-12 -0.0631381 -0.0160342 
-4.54903e-12 -0.0996914 -0.0225226 
-0.00101089 -0.099687 -0.0225556 
-0.000967507 -0.0633741 -0.0160691 
-9.78663e-13 -0.0633856 -0.0160342 
-4.58656e-12 -0.0999647 -0.0225226 
-0.00103602 -0.0999564 -0.0225556 
-0.0014091 -0.0927517 -0.0543823 
-2.77074e-12 -0.0927636 -0.0542868 
-6.28224e-12 -0.141792 -0.0722646 
-0.00147714 -0.141784 -0.0723596 
-0.00139748 -0.0926559 -0.0543823 
-2.80879e-12 -0.0926687 -0.0542868 
-6.15795e-12 -0.141524 -0.0722646 
-0.00148372 -0.141515 -0.0723596 
-0.00128452 -0.0858834 -0.0962071 
-2.73988e-12 -0.0858962 -0.0960545 
-5.65699e-12 -0.127831 -0.124001 
-0.00137193 -0.127821 -0.124155 
-0.00128767 -0.0855651 -0.0962071 
-2.96215e-12 -0.0855752 -0.0960545 
-5.42043e-12 -0.127244 -0.124001 
-0.00135694 -0.127237 -0.124155 
-0.000746183 -0.0505827 -0.12704 
-1.57405e-12 -0.0505925 -0.12685 
-3.31423e-12 -0.0739393 -0.16029 
-0.000817444 -0.0739322 -0.160482 
-0.000760991 -0.0501386 -0.12704 
-1.89958e-12 -0.0501427 -0.12685 
-3.0398e-12 -0.0732036 -0.16029 
-0.000786641 -0.0732007 -0.160482 
9.54503e-06 -0.000241277 -0.138232 
1.79512e-13 -0.000244736 -0.138031 
-1.40749e-13 -0.00038678 -0.17308 
-1.823e-05 -0.000384157 -0.173284 
-9.54503e-06 0.000241277 -0.138232 
-1.7951e-13 0.000244736 -0.138031 
1.40751e-13 0.00038678 -0.17308 
1.823e-05 0.000384157 -0.173284 
0.000760991 0.0501386 -0.12704 
1.89958e-12 0.0501427 -0.12685 
3.0398e-12 0.0732036 -0.16029 
0.000786641 0.0732007 -0.160482 
0.000746183 0.0505827 -0.12704 
1.57405e-12 0.0505925 -0.12685 
3.31423e-12 0.0739393 -0.16029 
0.000817444 0.0739322 -0.160482 
0.00128767 0.0855651 -0.0962071 
2.96215e-12 0.0855752 -0.0960545 
5.42044e-12 0.127244 -0.124001 
0.00135694 0.127237 -0.124155 
0.00128452 0.0858834 -0.0962071 
2.73988e-12 0.0858962 -0.0960545 
5.65699e-12 0.127831 -0.124001 
0.00137193 0.127821 -0.124155 
0.00139748 0.0926559 -0.0543823 
2.80879e-12 0.0926687 -0.0542868 
6.15795e-12 0.141524 -0.0722646 
0.00148372 0.141515 -0.0723596 
0.0014091 0.0927517 -0.0543823 
2.77074e-12 0.0927636 -0.0542868 
6.28224e-12 0.141792 -0.0722646 
0.00147714 0.141784 -0.0723596 
0.000967507 0.0633741 -0.0160691 
9.78665e-13 0.0633856 -0.0160342 
4.58656e-12 0.0999647 -0.0225226 
0.00103602 0.0999564 -0.0225556 
0.000987799 0.0631326 -0.0160691 
1.13938e-12 0.0631381 -0.0160342 
4.54903e-12 0.0996914 -0.0225226 
0.00101089 0.099687 -0.0225556 
8.12604e-06 0.00105341 -1.43908e-12 
-2.22491e-12 0.00105915 -1.44206e-12 
-7.82782e-14 0.00207582 -1.17404e-12 
3.24939e-05 0.0020713 -1.17048e-12 
-1.85511e-05 -0.00104364 -1.39914e-12 
-8.12604e-06 -0.00106582 -1.41236e-12 
-3.24939e-05 -0.00208193 -1.14725e-12 
-7.67302e-05 -0.00206158 -1.13188e-12 
-0.0020819 -0.0631011 -0.0161523 
-0.000987799 -0.0631225 -0.016056 
-0.00101089 -0.0996792 -0.0225628 
-0.00213798 -0.0996588 -0.0226532 
-0.00203398 -0.0633318 -0.0161523 
-0.000967507 -0.0633798 -0.016056 
-0.00103602 -0.0999614 -0.0225628 
-0.002193 -0.0999181 -0.0226532 
-0.00292471 -0.0926997 -0.0546149 
-0.0014091 -0.0927494 -0.0543587 
-0.00147714 -0.141783 -0.0723905 
-0.00308396 -0.141738 -0.0726458 
-0.00289946 -0.0926005 -0.0546149 
-0.00139748 -0.0926574 -0.0543587 
-0.00148372 -0.141517 -0.0723905 
-0.00309611 -0.141466 -0.0726458 
-0.00263998 -0.085829 -0.096568 
-0.00128452 -0.0858861 -0.0961681 
-0.00137193 -0.127825 -0.124208 
-0.00283922 -0.127773 -0.124611 
-0.00264777 -0.085515 -0.096568 
-0.00128767 -0.0855615 -0.0961681 
-0.00135694 -0.127235 -0.124208 
-0.00280444 -0.127193 -0.124611 
-0.0015243 -0.0505449 -0.127476 
-0.000746183 -0.0505898 -0.126989 
-0.000817444 -0.073939 -0.160551 
-0.00168369 -0.073898 -0.161044 
-0.0015569 -0.0501117 -0.127476 
-0.000760991 -0.0501306 -0.126989 
-0.000786641 -0.0731941 -0.160551 
-0.00161563 -0.0731773 -0.161044 
2.07593e-05 -0.000234394 -0.138693 
9.54503e-06 -0.000250638 -0.138177 
-1.823e-05 -0.000392583 -0.173359 
-3.98784e-05 -0.000377369 -0.173881 
-2.07593e-05 0.000234394 -0.138693 
-9.54503e-06 0.000250638 -0.138177 
1.823e-05 0.000392583 -0.173359 
3.98784e-05 0.000377369 -0.173881 
0.0015569 0.0501117 -0.127476 
0.000760991 0.0501306 -0.126989 
0.000786641 0.0731941 -0.160551 
0.00161563 0.0731773 -0.161044 
0.0015243 0.0505449 -0.127476 
0.000746183 0.0505898 -0.126989 
0.000817444 0.073939 -0.160551 
0.00168369 0.073898 -0.161044 
0.00264777 0.085515 -0.096568 
0.00128767 0.0855615 -0.0961681 
0.00135694 0.127235 -0.124208 
0.00280444 0.127193 -0.124611 
0.00263998 0.085829 -0.096568 
0.00128452 0.0858861 -0.0961681 
0.00137193 0.127825 -0.124208 
0.00283922 0.127773 -0.124611 
0.00289946 0.0926005 -0.0546149 
0.00139748 0.0926574 -0.0543587 
0.00148372 0.141517 -0.0723905 
0.00309611 0.141466 -0.0726458 
0.00292471 0.0926997 -0.0546149 
0.0014091 0.0927494 -0.0543587 
0.00147714 0.141783 -0.0723905 
0.00308396 0.141738 -0.0726458 
0.00203398 0.0633318 -0.0161523 
0.000967507 0.0633798 -0.016056 
0.00103602 0.0999614 -0.0225628 
0.002193 0.0999181 -0.0226532 
0.0020819 0.0631011 -0.0161523 
0.000987799 0.0631225 -0.016056 
0.00101089 0.0996792 -0.0225628 
0.00213798 0.0996588 -0.0226532 
1.85511e-05 0.00104364 -1.39914e-12 
8.12604e-06 0.00106582 -1.41235e-12 
3.24939e-05 0.00208193 -1.14725e-12 
7.67302e-05 0.00206158 -1.13188e-12 
-3.36195e-05 -0.00102303 -1.30235e-12 
-1.85511e-05 -0.00108029 -1.33937e-12 
-7.67302e-05 -0.00209895 -1.07968e-12 
-0.000146002 -0.0020366 -1.03739e-12 
-0.00336173 -0.063014 -0.0162539 
-0.0020819 -0.0630695 -0.0161265 
-0.00213798 -0.0996282 -0.0226707 
-0.00347239 -0.0995642 -0.0227886 
-0.0032717 -0.0632156 -0.0162539 
-0.00203398 -0.0633529 -0.0161265 
-0.002193 -0.0999401 -0.0226707 
-0.00356596 -0.09979 -0.0227886 
-0.00460505 -0.092546 -0.0548765 
-0.00292471 -0.0926871 -0.054566 
-0.00308396 -0.141728 -0.0727132 
-0.00490341 -0.141573 -0.0730232 
-0.00456363 -0.0924344 -0.0548765 
-0.00289946 -0.0926064 -0.054566 
-0.00309611 -0.141473 -0.0727132 
-0.00491738 -0.141287 -0.0730232 
-0.00408906 -0.0856619 -0.0969307 
-0.00263998 -0.0858339 -0.0964861 
-0.00283922 -0.12778 -0.124726 
-0.00444703 -0.127593 -0.125176 
-0.00410462 -0.0853576 -0.0969307 
-0.00264777 -0.0855014 -0.0964861 
-0.00280444 -0.12718 -0.124726 
-0.00438264 -0.127024 -0.125176 
-0.00233735 -0.0504276 -0.127874 
-0.0015243 -0.0505673 -0.127369 
-0.00168369 -0.0739227 -0.161193 
-0.002615 -0.0737708 -0.161707 
-0.00239223 -0.0500243 -0.127874 
-0.0015569 -0.0500826 -0.127369 
-0.00161563 -0.0731476 -0.161193 
-0.0024984 -0.0730848 -0.161707 
3.4185e-05 -0.000215351 -0.139095 
2.07593e-05 -0.000266907 -0.138576 
-3.98784e-05 -0.000411753 -0.174043 
-6.71524e-05 -0.000355343 -0.174571 
-3.4185e-05 0.000215351 -0.139095 
-2.07593e-05 0.000266907 -0.138576 
3.98784e-05 0.000411753 -0.174043 
6.71524e-05 0.000355343 -0.174571 
0.00239223 0.0500243 -0.127874 
0.0015569 0.0500826 -0.127369 
0.00161563 0.0731476 -0.161193 
0.0024984 0.0730848 -0.161707 
0.00233735 0.0504276 -0.127874 
0.0015243 0.0505673 -0.127369 
0.00168369 0.0739227 -0.161193 
0.002615 0.0737708 -0.161707 
0.00410462 0.0853576 -0.0969307 
0.00264777 0.0855014 -0.0964861 
0.00280444 0.12718 -0.124726 
0.00438264 0.127024 -0.125176 
0.00408906 0.0856619 -0.0969307 
0.00263998 0.0858339 -0.0964861 
0.00283922 0.12778 -0.124726 
0.00444703 0.127593 -0.125176 
0.00456363 0.0924344 -0.0548765 
0.00289946 0.0926064 -0.054566 
0.00309611 0.141473 -0.0727132 
0.00491738 0.141287 -0.0730232 
0.00460505 0.092546 -0.0548765 
0.00292471 0.0926871 -0.054566 
0.00308396 0.141728 -0.0727132 
0.00490341 0.141573 -0.0730232 
0.0032717 0.0632156 -0.0162539 
0.00203398 0.0633529 -0.0161265 
0.002193 0.0999401 -0.0226707 
0.00356596 0.09979 -0.0227886 
0.00336173 0.063014 -0.0162539 
0.0020819 0.0630695 -0.0161265 
0.00213798 0.0996282 -0.0226707 
0.00347239 0.0995642 -0.0227886 
3.36195e-05 0.00102303 -1.30234e-12 
1.85511e-05 0.00108029 -1.33937e-12 
7.67302e-05 0.00209895 -1.07968e-12 
0.000146002 0.0020366 -1.03739e-12 
-5.54221e-05 -0.000978353 -1.11064e-12 
-3.36195e-05 -0.0011164 -1.19665e-12 
-0.000146002 -0.00214647 -9.44223e-13 
-0.000256616 -0.00197532 -8.46424e-13 
-0.00484339 -0.062795 -0.0163075 
-0.00336173 -0.0629294 -0.016218 
-0.00347239 -0.0994675 -0.0228217 
-0.00504537 -0.0992903 -0.0229002 
-0.00469068 -0.0629222 -0.0163075 
-0.0032717 -0.0632793 -0.016218 
-0.00356596 -0.0998633 -0.0228217 
-0.0051867 -0.0994224 -0.0229002 
-0.00640118 -0.0921359 -0.0549312 
-0.00460505 -0.0925003 -0.0548018 
-0.00490341 -0.141525 -0.0731358 
-0.00691165 -0.141072 -0.0732674 
-0.00634334 -0.0919885 -0.0549312 
-0.00456363 -0.0924519 -0.0548018 
-0.00491738 -0.141308 -0.0731358 
-0.00691608 -0.140745 -0.0732674 
-0.00555147 -0.085205 -0.0968546 
-0.00408906 -0.0856675 -0.0968037 
-0.00444703 -0.127605 -0.125364 
-0.0061293 -0.127042 -0.125423 
-0.00557872 -0.0849235 -0.0968546 
-0.00410462 -0.0853158 -0.0968037 
-0.00438264 -0.126977 -0.125364 
-0.00601907 -0.126505 -0.125423 
-0.00312868 -0.050106 -0.12763 
-0.00233735 -0.0504885 -0.127707 
-0.002615 -0.0738447 -0.161948 
-0.00355682 -0.0733829 -0.161879 
-0.00320648 -0.0497791 -0.12763 
-0.00239223 -0.0499376 -0.127707 
-0.0024984 -0.0729845 -0.161948 
-0.00337854 -0.0727943 -0.161879 
4.6848e-05 -0.00016636 -0.138777 
3.4185e-05 -0.00030948 -0.138915 
-6.71524e-05 -0.000465829 -0.174831 
-9.9947e-05 -0.000293447 -0.174701 
-4.6848e-05 0.00016636 -0.138777 
-3.4185e-05 0.00030948 -0.138915 
6.71524e-05 0.000465829 -0.174831 
9.9947e-05 0.000293447 -0.174701 
0.00320648 0.0497791 -0.12763 
0.00239223 0.0499376 -0.127707 
0.0024984 0.0729845 -0.161948 
0.00337854 0.0727943 -0.161879 
0.00312868 0.050106 -0.12763 
0.00233735 0.0504885 -0.127707 
0.002615 0.0738447 -0.161948 
0.00355682 0.0733829 -0.161879 
0.00557872 0.0849235 -0.0968546 
0.00410462 0.0853158 -0.0968037 
0.00438264 0.126977 -0.125364 
0.00601907 0.126505 -0.125423 
0.00555147 0.085205 -0.0968546 
0.00408906 0.0856675 -0.0968037 
0.00444703 0.127605 -0.125364 
0.0061293 0.127042 -0.125423 
0.00634334 0.0919885 -0.0549312 
0.00456363 0.0924519 -0.0548018 
0.00491738 0.141308 -0.0731358 
0.00691608 0.140745 -0.0732674 
0.00640118 0.0921359 -0.0549312 
0.00460505 0.0925003 -0.0548018 
0.00490341 0.141525 -0.0731358 
0.00691165 0.141072 -0.0732674 
0.00469068 0.0629222 -0.0163075 
0.0032717 0.0632793 -0.016218 
0.00356596 0.0998633 -0.0228217 
0.0051867 0.0994224 -0.0229002 
0.00484339 0.062795 -0.0163075 
0.00336173 0.0629294 -0.016218 
0.00347239 0.0994675 -0.0228217 
0.00504537 0.0992903 -0.0229002 
5.54221e-05 0.000978353 -1.11064e-12 
3.36195e-05 0.0011164 -1.19665e-12 
0.000146002 0.00214647 -9.44222e-13 
0.000256616 0.00197532 -8.46422e-13 
-8.56995e-05 -0.00088335 -7.63319e-13 
-5.54221e-05 -0.00120375 -9.39736e-13 
-0.000256616 -0.00226813 -6.92743e-13 
-0.000430134 -0.00183159 -4.92005e-13 
-0.00642212 -0.0622711 -0.0161796 
-0.00484339 -0.0625835 -0.0162712 
-0.00504537 -0.0990212 -0.0229537 
-0.00677202 -0.0985726 -0.0228566 
-0.00618486 -0.06222 -0.0161796 
-0.00469068 -0.0630921 -0.0162712 
-0.0051867 -0.09963 -0.0229537 
-0.00696708 -0.0984656 -0.0228566 
-0.00808014 -0.0911179 -0.0543212 
-0.00640118 -0.092002 -0.0548425 
-0.00691165 -0.140917 -0.0734278 
-0.00889493 -0.13973 -0.0729165 
-0.00801564 -0.0908823 -0.0543212 
-0.00634334 -0.0920341 -0.0548425 
-0.00691608 -0.140796 -0.0734278 
-0.00886648 -0.139293 -0.0729165 
-0.00678409 -0.0840589 -0.0955079 
-0.00555147 -0.0852065 -0.0967003 
-0.0061293 -0.127057 -0.125682 
-0.00763145 -0.125558 -0.124498 
-0.00682668 -0.0838315 -0.0955079 
-0.00557872 -0.0848102 -0.0967003 
-0.00601907 -0.126361 -0.125682 
-0.00745887 -0.125097 -0.124498 
-0.00375162 -0.0493001 -0.125627 
-0.00312868 -0.0502587 -0.127428 
-0.00355682 -0.0735822 -0.162206 
-0.00433732 -0.0723476 -0.160406 
-0.00384151 -0.0491567 -0.125627 
-0.00320648 -0.0495492 -0.127428 
-0.00337854 -0.0725068 -0.162206 
-0.00409579 -0.0719997 -0.160406 
5.05216e-05 -4.89203e-05 -0.136513 
4.6848e-05 -0.000411524 -0.138557 
-9.9947e-05 -0.000602399 -0.175053 
-0.000129766 -0.000140501 -0.173005 
-5.05216e-05 4.89203e-05 -0.136513 
-4.6848e-05 0.000411524 -0.138557 
9.9947e-05 0.000602399 -0.175053 
0.000129766 0.000140501 -0.173005 
0.00384151 0.0491567 -0.125627 
0.00320648 0.0495492 -0.127428 
0.00337854 0.0725068 -0.162206 
0.00409579 0.0719997 -0.160406 
0.00375162 0.0493001 -0.125627 
0.00312868 0.0502587 -0.127428 
0.00355682 0.0735822 -0.162206 
0.00433732 0.0723476 -0.160406 
0.00682668 0.0838315 -0.0955079 
0.00557872 0.0848102 -0.0967003 
0.00601907 0.126361 -0.125682 
0.00745887 0.125097 -0.124498 
0.00678409 0.0840589 -0.0955079 
0.00555147 0.0852065 -0.0967003 
0.0061293 0.127057 -0.125682 
0.00763145 0.125558 -0.124498 
0.00801564 0.0908823 -0.0543212 
0.00634334 0.0920341 -0.0548425 
0.00691608 0.140796 -0.0734278 
0.00886648 0.139293 -0.0729165 
0.00808014 0.0911179 -0.0543212 
0.00640118 0.092002 -0.0548425 
0.00691165 0.140917 -0.0734278 
0.00889493 0.13973 -0.0729165 
0.00618486 0.06222 -0.0161796 
0.00469068 0.0630921 -0.0162712 
0.0051867 0.09963 -0.0229537 
0.00696708 0.0984656 -0.0228566 
0.00642212 0.0622711 -0.0161796 
0.00484339 0.0625835 -0.0162712 
0.00504537 0.0990212 -0.0229537 
0.00677202 0.0985726 -0.0228566 
8.56995e-05 0.00088335 -7.63318e-13 
5.54221e-05 0.00120375 -9.39735e-13 
0.000256616 0.00226813 -6.92742e-13 
0.000430134 0.00183159 -4.92004e-13 
-0.000125025 -0.000683526 -1.75192e-13 
-8.56995e-05 -0.00140489 -5.0538e-13 
-0.000430134 -0.00255803 -2.46623e-13 
-0.000685265 -0.00151394 1.30405e-13 
-0.00778017 -0.061065 -0.0156219 
-0.00642212 -0.0617695 -0.0161756 
-0.00677202 -0.0978871 -0.0229194 
-0.00836179 -0.0968292 -0.0223906 
-0.007452 -0.0606118 -0.0156219 
-0.00618486 -0.0626347 -0.0161756 
-0.00696708 -0.0989995 -0.0229194 
-0.00858976 -0.0961655 -0.0223906 
-0.00914852 -0.0887386 -0.0522315 
-0.00808014 -0.0907736 -0.0542756 
-0.00889493 -0.139301 -0.0730838 
-0.0103468 -0.13643 -0.0710645 
-0.00910243 -0.088302 -0.0522315 
-0.00801564 -0.0909861 -0.0542756 
-0.00886648 -0.139416 -0.0730838 
-0.0102396 -0.135739 -0.0710645 
-0.00734737 -0.0813781 -0.0914552 
-0.00678409 -0.0840487 -0.0954152 
-0.00763145 -0.125572 -0.124757 
-0.00845478 -0.121911 -0.120798 
-0.00740465 -0.0812752 -0.0914552 
-0.00682668 -0.0835456 -0.0954152 
-0.00745887 -0.12472 -0.124757 
-0.00819864 -0.12164 -0.120798 
-0.00396521 -0.0474278 -0.119976 
-0.00375162 -0.0496633 -0.125502 
-0.00433732 -0.0728367 -0.160724 
-0.00465268 -0.0698196 -0.155174 
-0.004034 -0.0476938 -0.119976 
-0.00384151 -0.0485944 -0.125502 
-0.00409579 -0.0712681 -0.160724 
-0.00435989 -0.0700425 -0.155174 
3.15407e-05 0.000212287 -0.130253 
5.05216e-05 -0.000641169 -0.136377 
-0.000129766 -0.000915617 -0.173344 
-0.000147174 0.000220687 -0.167184 
-3.15407e-05 -0.000212287 -0.130253 
-5.05216e-05 0.000641169 -0.136377 
0.000129766 0.000915617 -0.173344 
0.000147174 -0.000220687 -0.167184 
0.004034 0.0476938 -0.119976 
0.00384151 0.0485944 -0.125502 
0.00409579 0.0712681 -0.160724 
0.00435989 0.0700425 -0.155174 
0.00396521 0.0474278 -0.119976 
0.00375162 0.0496633 -0.125502 
0.00433732 0.0728367 -0.160724 
0.00465268 0.0698196 -0.155174 
0.00740465 0.0812752 -0.0914552 
0.00682668 0.0835456 -0.0954152 
0.00745887 0.12472 -0.124757 
0.00819864 0.12164 -0.120798 
0.00734737 0.0813781 -0.0914552 
0.00678409 0.0840487 -0.0954152 
0.00763145 0.125572 -0.124757 
0.00845478 0.121911 -0.120798 
0.00910243 0.088302 -0.0522315 
0.00801564 0.0909861 -0.0542756 
0.00886648 0.139416 -0.0730838 
0.0102396 0.135739 -0.0710645 
0.00914852 0.0887386 -0.0522315 
0.00808014 0.0907736 -0.0542756 
0.00889493 0.139301 -0.0730838 
0.0103468 0.13643 -0.0710645 
0.007452 0.0606118 -0.0156219 
0.00618486 0.0626347 -0.0161756 
0.00696708 0.0989995 -0.0229194 
0.00858976 0.0961655 -0.0223906 
0.00778017 0.061065 -0.0156219 
0.00642212 0.0617695 -0.0161756 
0.00677202 0.0978871 -0.0229194 
0.00836179 0.0968292 -0.0223906 
0.000125025 0.000683526 -1.75191e-13 
8.56995e-05 0.00140489 -5.05378e-13 
0.000430134 0.00255803 -2.46621e-13 
0.000685265 0.00151394 1.30407e-13 
-0.000189905 -0.000270733 7.59798e-13 
-0.000125025 -0.00184934 1.84811e-13 
-0.000685265 -0.00320252 5.08187e-13 
-0.00100669 -0.000853401 1.15858e-12 
-0.00827915 -0.0583738 -0.0142163 
-0.00778017 -0.0599236 -0.0157335 
-0.00836179 -0.095203 -0.0224072 
-0.00913473 -0.0928438 -0.0209863 
-0.00789198 -0.0570481 -0.0142163 
-0.007452 -0.0615554 -0.0157335 
-0.00858976 -0.0974314 -0.0224072 
-0.00936725 -0.0909145 -0.0209863 
-0.0088415 -0.0834298 -0.0473231 
-0.00914852 -0.0879328 -0.0523897 
-0.0103468 -0.135381 -0.071091 
-0.0103777 -0.128829 -0.0660716 
-0.0088574 -0.0826005 -0.0473231 
-0.00910243 -0.0885028 -0.0523897 
-0.0102396 -0.135981 -0.071091 
-0.0101554 -0.127594 -0.0660716 
-0.00669666 -0.0754822 -0.0824484 
-0.00734737 -0.0813541 -0.0916764 
-0.00845478 -0.12194 -0.120821 
-0.00788158 -0.113604 -0.111555 
-0.00673883 -0.0756747 -0.0824484 
-0.00740465 -0.0805979 -0.0916764 
-0.00819864 -0.120705 -0.120821 
-0.00757139 -0.113759 -0.111555 
-0.00351618 -0.0433679 -0.107817 
-0.00396521 -0.0482487 -0.120241 
-0.00465268 -0.0709721 -0.15519 
-0.004136 -0.0641365 -0.142676 
-0.00349651 -0.0445015 -0.107817 
-0.004034 -0.0464197 -0.120241 
-0.00435989 -0.0683097 -0.15519 
-0.00385326 -0.0655882 -0.142676 
-2.55687e-05 0.000751692 -0.116927 
3.15407e-05 -0.00111564 -0.130534 
-0.000147174 -0.00159313 -0.167197 
-0.000130876 0.000981171 -0.153488 
2.55687e-05 -0.000751692 -0.116927 
-3.15407e-05 0.00111564 -0.130534 
0.000147174 0.00159313 -0.167197 
0.000130876 -0.000981171 -0.153488 
0.00349651 0.0445015 -0.107817 
0.004034 0.0464197 -0.120241 
0.00435989 0.0683097 -0.15519 
0.00385326 0.0655882 -0.142676 
0.00351618 0.0433679 -0.107817 
0.00396521 0.0482487 -0.120241 
0.00465268 0.0709721 -0.15519 
0.004136 0.0641365 -0.142676 
0.00673883 0.0756747 -0.0824484 
0.00740465 0.0805979 -0.0916764 
0.00819864 0.120705 -0.120821 
0.00757139 0.113759 -0.111555 
0.00669666 0.0754822 -0.0824484 
0.00734737 0.0813541 -0.0916764 
0.00845478 0.12194 -0.120821 
0.00788158 0.113604 -0.111555 
0.0088574 0.0826005 -0.0473231 
0.00910243 0.0885028 -0.0523897 
0.0102396 0.135981 -0.071091 
0.0101554 0.127594 -0.0660716 
0.0088415 0.0834298 -0.0473231 
0.00914852 0.0879328 -0.0523897 
0.0103468 0.135381 -0.071091 
0.0103777 0.128829 -0.0660716 
0.00789198 0.0570481 -0.0142163 
0.007452 0.0615554 -0.0157335 
0.00858976 0.0974314 -0.0224072 
0.00936725 0.0909145 -0.0209863 
0.00827915 0.0583738 -0.0142163 
0.00778017 0.0599236 -0.0157335 
0.00836179 0.095203 -0.0224072 
0.00913473 0.0928438 -0.0209863 
0.000189905 0.000270733 7.598e-13 
0.000125025 0.00184934 1.84813e-13 
0.000685265 0.00320252 5.08188e-13 
0.00100669 0.000853401 1.15858e-12 
-0.000257204 0.000661727 2.086e-12 
-0.000189905 -0.00283427 1.18801e-12 
-0.00100669 -0.00466648 1.73448e-12 
-0.00128819 0.000620541 2.7451e-12 
-0.00692442 -0.0524397 -0.0112999 
-0.00827915 -0.0558559 -0.0146189 
-0.00913473 -0.0891454 -0.020786 
-0.00798817 -0.0839011 -0.0177671 
-0.00662122 -0.0493619 -0.0112999 
-0.00789198 -0.0590325 -0.0146189 
-0.00936725 -0.0937117 -0.020786 
-0.00805441 -0.0793692 -0.0177671 
-0.0064568 -0.0721133 -0.0376748 
-0.0088415 -0.0817067 -0.048055 
-0.0103777 -0.126452 -0.0655559 
-0.00791364 -0.112156 -0.0552279 
-0.00652017 -0.0705969 -0.0376748 
-0.0088574 -0.0828814 -0.048055 
-0.0101554 -0.127958 -0.0655559 
-0.00760992 -0.109936 -0.0552279 
-0.00455352 -0.0632736 -0.0654223 
-0.00669666 -0.0755293 -0.0835352 
-0.00788158 -0.113763 -0.110768 
-0.00544494 -0.0957997 -0.0925008 
-0.00452447 -0.0642155 -0.0654223 
-0.00673883 -0.0741188 -0.0835352 
-0.00757139 -0.111552 -0.110768 
-0.00515563 -0.0971385 -0.0925008 
-0.00234157 -0.0352547 -0.0854222 
-0.00351618 -0.0451618 -0.109146 
-0.004136 -0.066714 -0.141704 
-0.00270685 -0.0523973 -0.117772 
-0.00218595 -0.0380753 -0.0854222 
-0.00349651 -0.0418289 -0.109146 
-0.00385326 -0.0618621 -0.141704 
-0.00248103 -0.0563773 -0.117772 
-0.000105983 0.0017422 -0.0926039 
-2.55687e-05 -0.00200427 -0.118337 
-0.000130876 -0.00287242 -0.152455 
-9.49388e-05 0.00244175 -0.126513 
0.000105983 -0.0017422 -0.0926039 
2.55687e-05 0.00200427 -0.118337 
0.000130876 0.00287242 -0.152455 
9.49388e-05 -0.00244175 -0.126513 
0.00218595 0.0380753 -0.0854222 
0.00349651 0.0418289 -0.109146 
0.00385326 0.0618621 -0.141704 
0.00248103 0.0563773 -0.117772 
0.00234157 0.0352547 -0.0854222 
0.00351618 0.0451618 -0.109146 
0.004136 0.066714 -0.141704 
0.00270685 0.0523973 -0.117772 
0.00452447 0.0642155 -0.0654223 
0.00673883 0.0741188 -0.0835352 
0.00757139 0.111552 -0.110768 
0.00515563 0.0971385 -0.0925008 
0.00455352 0.0632736 -0.0654223 
0.00669666 0.0755293 -0.0835352 
0.00788158 0.113763 -0.110768 
0.00544494 0.0957997 -0.0925008 
0.00652017 0.0705969 -0.0376748 
0.0088574 0.0828814 -0.048055 
0.0101554 0.127958 -0.0655559 
0.00760992 0.109936 -0.0552279 
0.0064568 0.0721133 -0.0376748 
0.0088415 0.0817067 -0.048055 
0.0103777 0.126452 -0.0655559 
0.00791364 0.112156 -0.0552279 
0.00662122 0.0493619 -0.0112999 
0.00789198 0.0590325 -0.0146189 
0.00936725 0.0937117 -0.020786 
0.00805441 0.0793692 -0.0177671 
0.00692442 0.0524397 -0.0112999 
0.00827915 0.0558559 -0.0146189 
0.00913473 0.0891454 -0.020786 
0.00798817 0.0839011 -0.0177671 
0.000257204 -0.000661727 2.086e-12 
0.000189905 0.00283427 1.18801e-12 
0.00100669 0.00466648 1.73448e-12 
0.00128819 -0.000620541 2.7451e-12 
-0.000455444 0.00258772 3.73247e-12 
-0.000257204 -0.00487295 2.47114e-12 
-0.00128819 -0.00780323 3.54115e-12 
-0.00121488 0.0036737 4.72313e-12 
-0.00301531 -0.0397217 -0.00617377 
-0.00692442 -0.046947 -0.0122949 
-0.00798817 -0.0756015 -0.0169481 
-0.0033437 -0.0643684 -0.0113002 
-0.00306024 -0.0330021 -0.00617377 
-0.00662122 -0.053229 -0.0122949 
-0.00805441 -0.0850607 -0.0169481 
-0.00374132 -0.0540611 -0.0113002 
-0.00232698 -0.0487134 -0.021135 
-0.0064568 -0.0688228 -0.0395878 
-0.00791364 -0.107448 -0.0534613 
-0.00296797 -0.0765085 -0.0348942 
-0.00239963 -0.0466598 -0.021135 
-0.00652017 -0.0705497 -0.0395878 
-0.00760992 -0.109677 -0.0534613 
-0.00291169 -0.0735826 -0.0348942 
-0.00159826 -0.0398674 -0.0372108 
-0.00455352 -0.0638517 -0.0683363 
-0.00544494 -0.0969371 -0.0898704 
-0.00196277 -0.0607053 -0.0583784 
-0.00141653 -0.0426083 -0.0372108 
-0.00452447 -0.0608751 -0.0683363 
-0.00515563 -0.0921706 -0.0898704 
-0.00172755 -0.0649599 -0.0583784 
-0.000923011 -0.0205173 -0.0489883 
-0.00234157 -0.0389267 -0.088963 
-0.00270685 -0.0578892 -0.114624 
-0.000987457 -0.0306399 -0.0742784 
-0.000519848 -0.02624 -0.0489883 
-0.00218595 -0.0329763 -0.088963 
-0.00248103 -0.049053 -0.114624 
-0.000740142 -0.0390123 -0.0742784 
-0.000239572 0.00336091 -0.0532414 
-0.000105983 -0.00347043 -0.0963417 
-9.49388e-05 -0.00505777 -0.123208 
-0.00011737 0.00484051 -0.0797681 
0.000239572 -0.00336091 -0.0532414 
0.000105983 0.00347043 -0.0963417 
9.49388e-05 0.00505777 -0.123208 
0.00011737 -0.00484051 -0.0797681 
0.000519848 0.02624 -0.0489883 
0.00218595 0.0329763 -0.088963 
0.00248103 0.049053 -0.114624 
0.000740142 0.0390123 -0.0742784 
0.000923011 0.0205173 -0.0489883 
0.00234157 0.0389267 -0.088963 
0.00270685 0.0578892 -0.114624 
0.000987457 0.0306399 -0.0742784 
0.00141653 0.0426083 -0.0372108 
0.00452447 0.0608751 -0.0683363 
0.00515563 0.0921706 -0.0898704 
0.00172755 0.0649599 -0.0583784 
0.00159826 0.0398674 -0.0372108 
0.00455352 0.0638517 -0.0683363 
0.00544494 0.0969371 -0.0898704 
0.00196277 0.0607053 -0.0583784 
0.00239963 0.0466598 -0.021135 
0.00652017 0.0705497 -0.0395878 
0.00760992 0.109677 -0.0534613 
0.00291169 0.0735826 -0.0348942 
0.00232698 0.0487134 -0.021135 
0.0064568 0.0688228 -0.0395878 
0.00791364 0.107448 -0.0534613 
0.00296797 0.0765085 -0.0348942 
0.00306024 0.0330021 -0.00617377 
0.00662122 0.053229 -0.0122949 
0.00805441 0.0850607 -0.0169481 
0.00374132 0.0540611 -0.0113002 
0.00301531 0.0397217 -0.00617377 
0.00692442 0.046947 -0.0122949 
0.00798817 0.0756015 -0.0169481 
0.0033437 0.0643684 -0.0113002 
0.000455444 -0.00258772 3.73248e-12 
0.000257204 0.00487295 2.47114e-12 
0.00128819 0.00780323 3.54115e-12 
0.00121488 -0.0036737 4.72313e-12 
3.95121e-12 0.0085811 4.14834e-12 
-0.000455444 -0.0100127 3.43316e-12 
-0.00121488 -0.016425 6.53434e-12 
5.71099e-12 0.0138744 5.71933e-12 
4.30445e-12 -0.0101519 0.000962658 
-0.00301531 -0.0278651 -0.00775481 
-0.0033437 -0.0456445 -0.00925986 
7.36681e-12 -0.0165664 -0.00123144 
4.38974e-12 0.00145124 0.000962658 
-0.00306024 -0.0387695 -0.00775481 
-0.00374132 -0.0625227 -0.00925986 
6.30888e-12 0.00150237 -0.00123144 
5.12405e-12 -0.00389417 0.00242648 
-0.00232698 -0.0439683 -0.0249212 
-0.00296797 -0.0698553 -0.0309485 
6.72232e-12 -0.00563952 -0.00307816 
4.50051e-12 -0.00280707 0.00242648 
-0.00239963 -0.0450529 -0.0249212 
-0.00291169 -0.070474 -0.0309485 
6.58922e-12 -0.00506005 -0.00307816 
4.40325e-12 0.000641447 0.00349207 
-0.00159826 -0.0421286 -0.0431988 
-0.00196277 -0.0649164 -0.0525535 
5.43378e-12 0.00150937 -0.0049828 
3.5835e-12 -0.00542277 0.00349207 
-0.00141653 -0.0361227 -0.0431988 
-0.00172755 -0.0550601 -0.0525535 
5.28052e-12 -0.0084819 -0.0049828 
2.75454e-12 0.00392569 0.00409387 
-0.000923011 -0.0274069 -0.0562904 
-0.000987457 -0.0411857 -0.0673609 
3.1346e-12 0.00609731 -0.00623488 
1.7342e-12 -0.00631901 0.00409387 
-0.000519848 -0.0172969 -0.0562904 
-0.000740142 -0.0259952 -0.0673609 
2.80374e-12 -0.00934137 -0.00623488 
5.4641e-13 0.0057911 0.00427003 
-0.000239572 -0.00571374 -0.0609647 
-0.00011737 -0.00837958 -0.0724976 
2.14577e-13 0.00851595 -0.00664481 
-5.46411e-13 -0.0057911 0.00427003 
0.000239572 0.00571374 -0.0609647 
0.00011737 0.00837958 -0.0724976 
-2.14578e-13 -0.00851595 -0.00664481 
-1.7342e-12 0.00631901 0.00409387 
0.000519848 0.0172969 -0.0562904 
0.000740142 0.0259952 -0.0673609 
-2.80374e-12 0.00934137 -0.00623488 
-2.75454e-12 -0.00392569 0.00409387 
0.000923011 0.0274069 -0.0562904 
0.000987457 0.0411857 -0.0673609 
-3.1346e-12 -0.00609731 -0.00623488 
-3.5835e-12 0.00542277 0.00349207 
0.00141653 0.0361227 -0.0431988 
0.00172755 0.0550601 -0.0525535 
-5.28052e-12 0.0084819 -0.0049828 
-4.40325e-12 -0.000641447 0.00349207 
0.00159826 0.0421286 -0.0431988 
0.00196277 0.0649164 -0.0525535 
-5.43378e-12 -0.00150937 -0.0049828 
-4.50051e-12 0.00280707 0.00242648 
0.00239963 0.0450529 -0.0249212 
0.00291169 0.070474 -0.0309485 
-6.58923e-12 0.00506005 -0.00307816 
-5.12406e-12 0.00389417 0.00242648 
0.00232698 0.0439683 -0.0249212 
0.00296797 0.0698553 -0.0309485 
-6.72232e-12 0.00563952 -0.00307816 
-4.38974e-12 -0.00145124 0.000962658 
0.00306024 0.0387695 -0.00775481 
0.00374132 0.0625227 -0.00925986 
-6.30888e-12 -0.00150237 -0.00123144 
-4.30445e-12 0.0101519 0.000962658 
0.00301531 0.0278651 -0.00775481 
0.0033437 0.0456445 -0.00925986 
-7.36681e-12 0.0165664 -0.00123144 
-3.95121e-12 -0.0085811 4.14834e-12 
0.000455444 0.0100127 3.43316e-12 
0.00121488 0.016425 6.53434e-12 
-5.71099e-12 -0.0138744 5.71933e-12 
-1.16849e-05 -0.000490806 -2.78136e-12 
3.21873e-12 -0.000495445 -2.78572e-12 
2.3417e-12 -0.00105915 -2.91072e-12 
-3.05799e-05 -0.00105341 -2.90594e-12 
-0.000946734 -0.0365464 -0.0117541 
6.42179e-13 -0.0365506 -0.0117264 
-1.12495e-12 -0.0631381 -0.0163732 
-0.000963998 -0.0631326 -0.0163994 
-0.000931543 -0.0367242 -0.0117541 
7.79025e-13 -0.0367336 -0.0117264 
-1.15897e-12 -0.0633856 -0.0163732 
-0.000982937 -0.0633741 -0.0163994 
-0.00134141 -0.0549609 -0.040732 
-8.35247e-13 -0.0549706 -0.0406587 
-2.78777e-12 -0.0927636 -0.0541619 
-0.00139262 -0.0927517 -0.0542349 
-0.00133214 -0.0549384 -0.040732 
-8.34694e-13 -0.0549491 -0.0406587 
-2.74092e-12 -0.0926687 -0.0541619 
-0.00139644 -0.0926559 -0.0542349 
-0.00121909 -0.0517861 -0.0736023 
-1.19781e-12 -0.0517968 -0.0734881 
-2.90512e-12 -0.0858962 -0.0957239 
-0.00128421 -0.0858834 -0.0958388 
-0.00121985 -0.0516245 -0.0736023 
-1.33134e-12 -0.0516331 -0.0734881 
-2.79088e-12 -0.0855752 -0.0957239 
-0.0012715 -0.0855651 -0.0958388 
-0.000708489 -0.0308448 -0.0985878 
-7.54306e-13 -0.0308531 -0.0984489 
-1.80597e-12 -0.0505925 -0.126399 
-0.000761177 -0.0505827 -0.126539 
-0.00071715 -0.0305985 -0.0985878 
-9.68399e-13 -0.030602 -0.0984489 
-1.66141e-12 -0.0501427 -0.126399 
-0.000736514 -0.0501386 -0.126539 
5.78174e-06 -0.000136845 -0.107817 
1.20721e-13 -0.000139771 -0.10767 
-7.6567e-14 -0.000244736 -0.137546 
-1.44621e-05 -0.000241277 -0.137694 
-5.78174e-06 0.000136845 -0.107817 
-1.2072e-13 0.000139771 -0.10767 
7.65684e-14 0.000244736 -0.137546 
1.44621e-05 0.000241277 -0.137694 
0.00071715 0.0305985 -0.0985878 
9.684e-13 0.030602 -0.0984489 
1.66141e-12 0.0501427 -0.126399 
0.000736514 0.0501386 -0.126539 
0.000708489 0.0308448 -0.0985878 
7.54307e-13 0.0308531 -0.0984489 
1.80598e-12 0.0505925 -0.126399 
0.000761177 0.0505827 -0.126539 
0.00121985 0.0516245 -0.0736023 
1.33134e-12 0.0516331 -0.0734881 
2.79089e-12 0.0855752 -0.0957239 
0.0012715 0.0855651 -0.0958388 
0.00121909 0.0517861 -0.0736023 
1.19781e-12 0.0517968 -0.0734881 
2.90512e-12 0.0858962 -0.0957239 
0.00128421 0.0858834 -0.0958388 
0.00133214 0.0549384 -0.040732 
8.34695e-13 0.0549491 -0.0406587 
2.74092e-12 0.0926687 -0.0541619 
0.00139644 0.0926559 -0.0542349 
0.00134141 0.0549609 -0.040732 
8.35249e-13 0.0549706 -0.0406587 
2.78777e-12 0.0927636 -0.0541619 
0.00139262 0.0927517 -0.0542349 
0.000931543 0.0367242 -0.0117541 
-7.79023e-13 0.0367336 -0.0117264 
1.15898e-12 0.0633856 -0.0163732 
0.000982937 0.0633741 -0.0163994 
0.000946734 0.0365464 -0.0117541 
-6.42178e-13 0.0365506 -0.0117264 
1.12495e-12 0.0631381 -0.0163732 
0.000963998 0.0631326 -0.0163994 
1.16849e-05 0.000490806 -2.78136e-12 
-3.21873e-12 0.000495445 -2.78572e-12 
-2.3417e-12 0.00105915 -2.91072e-12 
3.05799e-05 0.00105341 -2.90594e-12 
-2.57229e-05 -0.000483727 -2.73785e-12 
-1.16849e-05 -0.000500529 -2.75516e-12 
-3.05799e-05 -0.00106582 -2.88207e-12 
-7.20701e-05 -0.00104364 -2.86303e-12 
-0.00198283 -0.036523 -0.0118183 
-0.000946734 -0.0365381 -0.011745 
-0.000963998 -0.0631225 -0.0164042 
-0.0020257 -0.0631011 -0.0164735 
-0.00194646 -0.0366924 -0.0118183 
-0.000931543 -0.0367289 -0.011745 
-0.000982937 -0.0633798 -0.0164042 
-0.00206707 -0.0633318 -0.0164735 
-0.00276799 -0.0549209 -0.0409045 
-0.00134141 -0.0549584 -0.0407174 
-0.00139262 -0.0927494 -0.0542573 
-0.00288911 -0.0926997 -0.054444 
-0.00274828 -0.0548956 -0.0409045 
-0.00133214 -0.0549395 -0.0407174 
-0.00139644 -0.0926574 -0.0542573 
-0.00289524 -0.0926005 -0.054444 
-0.00249211 -0.0517437 -0.073859 
-0.00121909 -0.0517877 -0.0735783 
-0.00128421 -0.0858861 -0.0958771 
-0.0026408 -0.085829 -0.09616 
-0.00249482 -0.0515852 -0.073859 
-0.00121985 -0.0516214 -0.0735783 
-0.0012715 -0.0855615 -0.0958771 
-0.00261136 -0.085515 -0.09616 
-0.00144016 -0.0308152 -0.0988878 
-0.000708489 -0.0308502 -0.0985565 
-0.000761177 -0.0505898 -0.126589 
-0.00155771 -0.0505449 -0.126924 
-0.00145942 -0.0305773 -0.0988878 
-0.00071715 -0.030592 -0.0985565 
-0.000736514 -0.0501306 -0.126589 
-0.00150354 -0.0501117 -0.126924 
1.25771e-05 -0.00013158 -0.108129 
5.78174e-06 -0.000144269 -0.107783 
-1.44621e-05 -0.000250638 -0.137748 
-3.1403e-05 -0.000234394 -0.138098 
-1.25771e-05 0.00013158 -0.108129 
-5.78174e-06 0.000144269 -0.107783 
1.44621e-05 0.000250638 -0.137748 
3.1403e-05 0.000234394 -0.138098 
0.00145942 0.0305773 -0.0988878 
0.00071715 0.030592 -0.0985565 
0.000736514 0.0501306 -0.126589 
0.00150354 0.0501117 -0.126924 
0.00144016 0.0308152 -0.0988878 
0.000708489 0.0308502 -0.0985565 
0.000761177 0.0505898 -0.126589 
0.00155771 0.0505449 -0.126924 
0.00249482 0.0515852 -0.073859 
0.00121985 0.0516214 -0.0735783 
0.0012715 0.0855615 -0.0958771 
0.00261136 0.085515 -0.09616 
0.00249211 0.0517437 -0.073859 
0.00121909 0.0517877 -0.0735783 
0.00128421 0.0858861 -0.0958771 
0.0026408 0.085829 -0.09616 
0.00274828 0.0548956 -0.0409045 
0.00133214 0.0549395 -0.0407174 
0.00139644 0.0926574 -0.0542573 
0.00289524 0.0926005 -0.054444 
0.00276799 0.0549209 -0.0409045 
0.00134141 0.0549584 -0.0407174 
0.00139262 0.0927494 -0.0542573 
0.00288911 0.0926997 -0.054444 
0.00194646 0.0366924 -0.0118183 
0.000931543 0.0367289 -0.011745 
0.000982937 0.0633798 -0.0164042 
0.00206707 0.0633318 -0.0164735 
0.00198283 0.036523 -0.0118183 
0.000946734 0.0365381 -0.011745 
0.000963998 0.0631225 -0.0164042 
0.0020257 0.0631011 -0.0164735 
2.57229e-05 0.000483727 -2.73785e-12 
1.16849e-05 0.000500529 -2.75516e-12 
3.05799e-05 0.00106582 -2.88207e-12 
7.20701e-05 0.00104364 -2.86303e-12 
-4.39535e-05 -0.000470548 -2.63639e-12 
-2.57229e-05 -0.000510224 -2.67991e-12 
-7.20701e-05 -0.00108029 -2.80992e-12 
-0.000136602 -0.00102303 -2.76176e-12 
-0.00316799 -0.0364638 -0.0118881 
-0.00198283 -0.0364996 -0.0118018 
-0.0020257 -0.0630695 -0.0164847 
-0.00325499 -0.063014 -0.0165653 
-0.00309844 -0.036613 -0.0118881 
-0.00194646 -0.0367084 -0.0118018 
-0.00206707 -0.0633529 -0.0164847 
-0.00332526 -0.0632156 -0.0165653 
-0.00431644 -0.0548127 -0.041066 
-0.00276799 -0.0549104 -0.0408768 
-0.00288911 -0.0926871 -0.0544904 
-0.0045466 -0.092546 -0.0546798 
-0.00428503 -0.0547781 -0.041066 
-0.00274828 -0.0549001 -0.0408768 
-0.00289524 -0.0926064 -0.0544904 
-0.00455072 -0.0924344 -0.0546798 
-0.00382658 -0.0516242 -0.074051 
-0.00249211 -0.0517461 -0.0738127 
-0.0026408 -0.0858339 -0.096238 
-0.00409481 -0.0856619 -0.0964801 
-0.00383382 -0.0514719 -0.074051 
-0.00249482 -0.051575 -0.0738127 
-0.00261136 -0.0855014 -0.096238 
-0.00404026 -0.0853576 -0.0964801 
-0.00219091 -0.0307309 -0.0990647 
-0.00144016 -0.0308312 -0.0988274 
-0.00155771 -0.0505673 -0.127024 
-0.00239533 -0.0504276 -0.127266 
-0.00222361 -0.0305137 -0.0990647 
-0.00145942 -0.0305556 -0.0988274 
-0.00150354 -0.0500826 -0.127024 
-0.0023029 -0.0500243 -0.127266 
2.06326e-05 -0.000118289 -0.108293 
1.25771e-05 -0.000155522 -0.108063 
-3.1403e-05 -0.000266907 -0.138207 
-5.2578e-05 -0.000215351 -0.138442 
-2.06326e-05 0.000118289 -0.108293 
-1.25771e-05 0.000155522 -0.108063 
3.1403e-05 0.000266907 -0.138207 
5.2578e-05 0.000215351 -0.138442 
0.00222361 0.0305137 -0.0990647 
0.00145942 0.0305556 -0.0988274 
0.00150354 0.0500826 -0.127024 
0.0023029 0.0500243 -0.127266 
0.00219091 0.0307309 -0.0990647 
0.00144016 0.0308312 -0.0988274 
0.00155771 0.0505673 -0.127024 
0.00239533 0.0504276 -0.127266 
0.00383382 0.0514719 -0.074051 
0.00249482 0.051575 -0.0738127 
0.00261136 0.0855014 -0.096238 
0.00404026 0.0853576 -0.0964801 
0.00382658 0.0516242 -0.074051 
0.00249211 0.0517461 -0.0738127 
0.0026408 0.0858339 -0.096238 
0.00409481 0.0856619 -0.0964801 
0.00428503 0.0547781 -0.041066 
0.00274828 0.0549001 -0.0408768 
0.00289524 0.0926064 -0.0544904 
0.00455072 0.0924344 -0.0546798 
0.00431644 0.0548127 -0.041066 
0.00276799 0.0549104 -0.0408768 
0.00288911 0.0926871 -0.0544904 
0.0045466 0.092546 -0.0546798 
0.00309844 0.036613 -0.0118881 
0.00194646 0.0367084 -0.0118018 
0.00206707 0.0633529 -0.0164847 
0.00332526 0.0632156 -0.0165653 
0.00316799 0.0364638 -0.0118881 
0.00198283 0.0364996 -0.0118018 
0.0020257 0.0630695 -0.0164847 
0.00325499 0.063014 -0.0165653 
4.39535e-05 0.000470548 -2.63638e-12 
2.57229e-05 0.000510224 -2.67991e-12 
7.20701e-05 0.00108029 -2.80992e-12 
0.000136602 0.00102303 -2.76176e-12 
-6.70969e-05 -0.000444547 -2.44232e-12 
-4.39535e-05 -0.00053293 -2.53592e-12 
-0.000136602 -0.0011164 -2.66848e-12 
-0.000238173 -0.000978353 -2.56411e-12 
-0.00449387 -0.0363257 -0.0118987 
-0.00316799 -0.0364063 -0.0118695 
-0.00325499 -0.0629294 -0.0165847 
-0.00465724 -0.062795 -0.0166097 
-0.00437433 -0.0364259 -0.0118987 
-0.00309844 -0.0366585 -0.0118695 
-0.00332526 -0.0632793 -0.0165847 
-0.00476407 -0.0629222 -0.0166097 
-0.00591888 -0.0545423 -0.0409908 
-0.00431644 -0.0547785 -0.0410317 
-0.0045466 -0.0925003 -0.0547498 
-0.00631862 -0.0921359 -0.0547119 
-0.00587716 -0.054482 -0.0409908 
-0.00428503 -0.0547917 -0.0410317 
-0.00455072 -0.0924519 -0.0547498 
-0.00631118 -0.0919885 -0.0547119 
-0.00513372 -0.0513162 -0.0737613 
-0.00382658 -0.0516253 -0.0739922 
-0.00409481 -0.0856675 -0.0965945 
-0.00556945 -0.085205 -0.0963683 
-0.00514977 -0.0511778 -0.0737613 
-0.00383382 -0.0514432 -0.0739922 
-0.00404026 -0.0853158 -0.0965945 
-0.00547747 -0.0849235 -0.0963683 
-0.00290136 -0.0305122 -0.0985517 
-0.00219091 -0.0307719 -0.0989878 
-0.00239533 -0.0504885 -0.127412 
-0.003217 -0.050106 -0.126979 
-0.00294885 -0.0303458 -0.0985517 
-0.00222361 -0.0304531 -0.0989878 
-0.0023029 -0.0499376 -0.127412 
-0.00307698 -0.0497791 -0.126979 
2.84431e-05 -8.54217e-05 -0.107686 
2.06326e-05 -0.000183666 -0.10821 
-5.2578e-05 -0.00030948 -0.138598 
-7.75148e-05 -0.00016636 -0.138077 
-2.84431e-05 8.54217e-05 -0.107686 
-2.06326e-05 0.000183666 -0.10821 
5.2578e-05 0.00030948 -0.138598 
7.75148e-05 0.00016636 -0.138077 
0.00294885 0.0303458 -0.0985517 
0.00222361 0.0304531 -0.0989878 
0.0023029 0.0499376 -0.127412 
0.00307698 0.0497791 -0.126979 
0.00290136 0.0305122 -0.0985517 
0.00219091 0.0307719 -0.0989878 
0.00239533 0.0504885 -0.127412 
0.003217 0.050106 -0.126979 
0.00514977 0.0511778 -0.0737613 
0.00383382 0.0514432 -0.0739922 
0.00404026 0.0853158 -0.0965945 
0.00547747 0.0849235 -0.0963683 
0.00513372 0.0513162 -0.0737613 
0.00382658 0.0516253 -0.0739922 
0.00409481 0.0856675 -0.0965945 
0.00556945 0.085205 -0.0963683 
0.00587716 0.054482 -0.0409908 
0.00428503 0.0547917 -0.0410317 
0.00455072 0.0924519 -0.0547498 
0.00631118 0.0919885 -0.0547119 
0.00591888 0.0545423 -0.0409908 
0.00431644 0.0547785 -0.0410317 
0.0045466 0.0925003 -0.0547498 
0.00631862 0.0921359 -0.0547119 
0.00437433 0.0364259 -0.0118987 
0.00309844 0.0366585 -0.0118695 
0.00332526 0.0632793 -0.0165847 
0.00476407 0.0629222 -0.0166097 
0.00449387 0.0363257 -0.0118987 
0.00316799 0.0364063 -0.0118695 
0.00325499 0.0629294 -0.0165847 
0.00465724 0.062795 -0.0166097 
6.70969e-05 0.000444547 -2.44232e-12 
4.39535e-05 0.00053293 -2.53592e-12 
0.000136602 0.0011164 -2.66848e-12 
0.000238173 0.000978353 -2.5641e-12 
-9.50188e-05 -0.000392012 -2.10451e-12 
-6.70969e-05 -0.000586672 -2.28473e-12 
-0.000238173 -0.00120375 -2.41382e-12 
-0.000390058 -0.00088335 -2.21153e-12 
-0.00583046 -0.0360095 -0.0117322 
-0.00449387 -0.0361901 -0.0118918 
-0.00465724 -0.0625835 -0.0166354 
-0.00611828 -0.0622711 -0.0164815 
-0.00564415 -0.0359955 -0.0117322 
-0.00437433 -0.0365426 -0.0118918 
-0.00476407 -0.0630921 -0.0166354 
-0.00626594 -0.06222 -0.0164815 
-0.00733931 -0.0538961 -0.0402778 
-0.00591888 -0.0544475 -0.0409724 
-0.00631862 -0.092002 -0.0547911 
-0.00798332 -0.0911179 -0.0541067 
-0.00729611 -0.0537742 -0.0402778 
-0.00587716 -0.0545165 -0.0409724 
-0.00631118 -0.0920341 -0.0547911 
-0.00794544 -0.0908823 -0.0541067 
-0.00618166 -0.0505716 -0.0722643 
-0.00513372 -0.0513111 -0.0737254 
-0.00556945 -0.0852065 -0.0964918 
-0.00682698 -0.0840589 -0.0950338 
-0.00621167 -0.0504649 -0.0722643 
-0.00514977 -0.0511031 -0.0737254 
-0.00547747 -0.0848102 -0.0964918 
-0.0066827 -0.0838315 -0.0950338 
-0.00343424 -0.0299836 -0.0963753 
-0.00290136 -0.0306116 -0.098504 
-0.003217 -0.0502587 -0.127131 
-0.00387121 -0.0493001 -0.124996 
-0.00349161 -0.0299352 -0.0963753 
-0.00294885 -0.0301909 -0.098504 
-0.00307698 -0.0495492 -0.127131 
-0.00367861 -0.0491567 -0.124996 
3.13425e-05 -9.1994e-06 -0.105243 
2.84431e-05 -0.000249895 -0.107635 
-7.75148e-05 -0.000411524 -0.138239 
-0.00010251 -4.89203e-05 -0.135837 
-3.13425e-05 9.1994e-06 -0.105243 
-2.84431e-05 0.000249895 -0.107635 
7.75148e-05 0.000411524 -0.138239 
0.00010251 4.89203e-05 -0.135837 
0.00349161 0.0299352 -0.0963753 
0.00294885 0.0301909 -0.098504 
0.00307698 0.0495492 -0.127131 
0.00367861 0.0491567 -0.124996 
0.00343424 0.0299836 -0.0963753 
0.00290136 0.0306116 -0.098504 
0.003217 0.0502587 -0.127131 
0.00387121 0.0493001 -0.124996 
0.00621167 0.0504649 -0.0722643 
0.00514977 0.0511031 -0.0737254 
0.00547747 0.0848102 -0.0964918 
0.0066827 0.0838315 -0.0950338 
0.00618166 0.0505716 -0.0722643 
0.00513372 0.0513111 -0.0737254 
0.00556945 0.0852065 -0.0964918 
0.00682698 0.0840589 -0.0950338 
0.00729611 0.0537742 -0.0402778 
0.00587716 0.0545165 -0.0409724 
0.00631118 0.0920341 -0.0547911 
0.00794544 0.0908823 -0.0541067 
0.00733931 0.0538961 -0.0402778 
0.00591888 0.0544475 -0.0409724 
0.00631862 0.092002 -0.0547911 
0.00798332 0.0911179 -0.0541067 
0.00564415 0.0359955 -0.0117322 
0.00437433 0.0365426 -0.0118918 
0.00476407 0.0630921 -0.0166354 
0.00626594 0.06222 -0.0164815 
0.00583046 0.0360095 -0.0117322 
0.00449387 0.0361901 -0.0118918 
0.00465724 0.0625835 -0.0166354 
0.00611828 0.0622711 -0.0164815 
9.50188e-05 0.000392012 -2.10451e-12 
6.70969e-05 0.000586672 -2.28473e-12 
0.000238173 0.00120375 -2.41382e-12 
0.000390058 0.00088335 -2.21153e-12 
-0.000127146 -0.000282176 -1.56018e-12 
-9.50188e-05 -0.000710497 -1.87556e-12 
-0.000390058 -0.00140489 -1.98148e-12 
-0.000595499 -0.000683526 -1.62489e-12 
-0.00685866 -0.0352926 -0.0111918 
-0.00583046 -0.0356984 -0.0117688 
-0.00611828 -0.0617695 -0.0164974 
-0.007328 -0.061065 -0.0159568 
-0.00660252 -0.0350262 -0.0111918 
-0.00564415 -0.0362718 -0.0117688 
-0.00626594 -0.0626347 -0.0164974 
-0.00750488 -0.0606118 -0.0159568 
-0.00812729 -0.0524155 -0.0382783 
-0.00733931 -0.0536613 -0.0403345 
-0.00798332 -0.0907736 -0.0541432 
-0.0090656 -0.0887386 -0.0521102 
-0.00810085 -0.0521599 -0.0382783 
-0.00729611 -0.0538502 -0.0403345 
-0.00794544 -0.0909861 -0.0541432 
-0.00897266 -0.088302 -0.0521102 
-0.00658337 -0.0488701 -0.0684176 
-0.00618166 -0.0505523 -0.0723458 
-0.00682698 -0.0840487 -0.0950782 
-0.0074302 -0.0813781 -0.0911438 
-0.00662902 -0.0488381 -0.0684176 
-0.00621167 -0.0502812 -0.0723458 
-0.0066827 -0.0835456 -0.0950782 
-0.00722595 -0.0812752 -0.0911438 
-0.00357905 -0.0287857 -0.0910324 
-0.00343424 -0.0302146 -0.0964784 
-0.00387121 -0.0496633 -0.12504 
-0.004101 -0.0474278 -0.119562 
-0.00362758 -0.0289967 -0.0910324 
-0.00349161 -0.0295671 -0.0964784 
-0.00367861 -0.0485944 -0.12504 
-0.00386803 -0.0476938 -0.119562 
2.10712e-05 0.000157111 -0.0993304 
3.13425e-05 -0.000395663 -0.105355 
-0.00010251 -0.000641169 -0.13588 
-0.000117681 0.000212287 -0.129813 
-2.10712e-05 -0.000157111 -0.0993304 
-3.13425e-05 0.000395663 -0.105355 
0.00010251 0.000641169 -0.13588 
0.000117681 -0.000212287 -0.129813 
0.00362758 0.0289967 -0.0910324 
0.00349161 0.0295671 -0.0964784 
0.00367861 0.0485944 -0.12504 
0.00386803 0.0476938 -0.119562 
0.00357905 0.0287857 -0.0910324 
0.00343424 0.0302146 -0.0964784 
0.00387121 0.0496633 -0.12504 
0.004101 0.0474278 -0.119562 
0.00662902 0.0488381 -0.0684176 
0.00621167 0.0502812 -0.0723458 
0.0066827 0.0835456 -0.0950782 
0.00722595 0.0812752 -0.0911438 
0.00658337 0.0488701 -0.0684176 
0.00618166 0.0505523 -0.0723458 
0.00682698 0.0840487 -0.0950782 
0.0074302 0.0813781 -0.0911438 
0.00810085 0.0521599 -0.0382783 
0.00729611 0.0538502 -0.0403345 
0.00794544 0.0909861 -0.0541432 
0.00897266 0.088302 -0.0521102 
0.00812729 0.0524155 -0.0382783 
0.00733931 0.0536613 -0.0403345 
0.00798332 0.0907736 -0.0541432 
0.0090656 0.0887386 -0.0521102 
0.00660252 0.0350262 -0.0111918 
0.00564415 0.0362718 -0.0117688 
0.00626594 0.0626347 -0.0164974 
0.00750488 0.0606118 -0.0159568 
0.00685866 0.0352926 -0.0111918 
0.00583046 0.0356984 -0.0117688 
0.00611828 0.0617695 -0.0164974 
0.007328 0.061065 -0.0159568 
0.000127146 0.000282176 -1.56018e-12 
9.50188e-05 0.000710497 -1.87556e-12 
0.000390058 0.00140489 -1.98148e-12 
0.000595499 0.000683526 -1.62489e-12 
-0.000172934 -4.91128e-05 -7.47802e-13 
-0.000127146 -0.000984756 -1.25512e-12 
-0.000595499 -0.00184934 -1.2908e-12 
-0.000822191 -0.000270733 -7.20837e-13 
-0.00702247 -0.0336931 -0.00998014 
-0.00685866 -0.0345959 -0.0113358 
-0.007328 -0.0599236 -0.015914 
-0.00768361 -0.0583738 -0.0146566 
-0.00672989 -0.0328886 -0.00998014 
-0.00660252 -0.0356363 -0.0113358 
-0.00750488 -0.0615554 -0.015914 
-0.00786516 -0.0570481 -0.0146566 
-0.00765445 -0.0491539 -0.0340401 
-0.00812729 -0.0518853 -0.0385392 
-0.0090656 -0.0879328 -0.0519715 
-0.00882841 -0.0834298 -0.0475154 
-0.0076752 -0.0486456 -0.0340401 
-0.00810085 -0.0522998 -0.0385392 
-0.00897266 -0.0885028 -0.0519715 
-0.00866093 -0.0826005 -0.0475154 
-0.00589506 -0.0451974 -0.0606142 
-0.00658337 -0.0488349 -0.0688236 
-0.0074302 -0.0813541 -0.0908972 
-0.0068154 -0.0754822 -0.0826525 
-0.00594116 -0.045342 -0.0606142 
-0.00662902 -0.0484084 -0.0688236 
-0.00722595 -0.0805979 -0.0908972 
-0.00656752 -0.0756747 -0.0826525 
-0.00312703 -0.0262436 -0.0804667 
-0.00357905 -0.0293009 -0.091548 
-0.004101 -0.0482487 -0.119232 
-0.00362801 -0.0433679 -0.108064 
-0.0031285 -0.0269899 -0.0804667 
-0.00362758 -0.0281792 -0.091548 
-0.00386803 -0.0464197 -0.119232 
-0.00338473 -0.0445015 -0.108064 
-1.11918e-05 0.000491454 -0.0877367 
2.10712e-05 -0.000692541 -0.099887 
-0.000117681 -0.00111564 -0.129451 
-0.000116971 0.000751692 -0.1172 
1.11918e-05 -0.000491454 -0.0877367 
-2.10712e-05 0.000692541 -0.099887 
0.000117681 0.00111564 -0.129451 
0.000116971 -0.000751692 -0.1172 
0.0031285 0.0269899 -0.0804667 
0.00362758 0.0281792 -0.091548 
0.00386803 0.0464197 -0.119232 
0.00338473 0.0445015 -0.108064 
0.00312703 0.0262436 -0.0804667 
0.00357905 0.0293009 -0.091548 
0.004101 0.0482487 -0.119232 
0.00362801 0.0433679 -0.108064 
0.00594116 0.045342 -0.0606142 
0.00662902 0.0484084 -0.0688236 
0.00722595 0.0805979 -0.0908972 
0.00656752 0.0756747 -0.0826525 
0.00589506 0.0451974 -0.0606142 
0.00658337 0.0488349 -0.0688236 
0.0074302 0.0813541 -0.0908972 
0.0068154 0.0754822 -0.0826525 
0.0076752 0.0486456 -0.0340401 
0.00810085 0.0522998 -0.0385392 
0.00897266 0.0885028 -0.0519715 
0.00866093 0.0826005 -0.0475154 
0.00765445 0.0491539 -0.0340401 
0.00812729 0.0518853 -0.0385392 
0.0090656 0.0879328 -0.0519715 
0.00882841 0.0834298 -0.0475154 
0.00672989 0.0328886 -0.00998014 
0.00660252 0.0356363 -0.0113358 
0.00750488 0.0615554 -0.015914 
0.00786516 0.0570481 -0.0146566 
0.00702247 0.0336931 -0.00998014 
0.00685866 0.0345959 -0.0113358 
0.007328 0.0599236 -0.015914 
0.00768361 0.0583738 -0.0146566 
0.000172934 4.91128e-05 -7.478e-13 
0.000127146 0.000984756 -1.25512e-12 
0.000595499 0.00184934 -1.2908e-12 
0.000822191 0.000270733 -7.20835e-13 
-0.00021303 0.000489663 3.22147e-13 
-0.000172934 -0.00158621 -4.00181e-13 
-0.000822191 -0.00283427 -2.49376e-13 
-0.000971437 0.000661727 5.49907e-13 
-0.00561248 -0.0301628 -0.00769403 
-0.00702247 -0.0321682 -0.0103418 
-0.00768361 -0.0558559 -0.0144355 
-0.00636087 -0.0524397 -0.0120259 
-0.00538564 -0.0283002 -0.00769403 
-0.00672989 -0.0341351 -0.0103418 
-0.00786516 -0.0590325 -0.0144355 
-0.00645163 -0.0493619 -0.0120259 
-0.00544245 -0.0422874 -0.0263754 
-0.00765445 -0.0480548 -0.0347478 
-0.00882841 -0.0817067 -0.0469248 
-0.00651801 -0.0721133 -0.038606 
-0.00549823 -0.0413594 -0.0263754 
-0.0076752 -0.0488379 -0.0347478 
-0.00866093 -0.0828814 -0.0469248 
-0.00632484 -0.0705969 -0.038606 
-0.00394208 -0.0377275 -0.0469407 
-0.00589506 -0.045193 -0.0617212 
-0.0068154 -0.0755293 -0.08171 
-0.00465293 -0.0632736 -0.066817 
-0.00394829 -0.0383155 -0.0469407 
-0.00594116 -0.0443766 -0.0617212 
-0.00656752 -0.0741188 -0.08171 
-0.00443506 -0.0642155 -0.066817 
-0.00204977 -0.0212523 -0.0623232 
-0.00312703 -0.0273472 -0.0818659 
-0.00362801 -0.0451618 -0.106868 
-0.00238109 -0.0352547 -0.0871419 
-0.00196817 -0.0230215 -0.0623232 
-0.0031285 -0.0253099 -0.0818659 
-0.00338473 -0.0418289 -0.106868 
-0.00218165 -0.0380753 -0.0871419 
-6.09971e-05 0.001097 -0.0679636 
-1.11918e-05 -0.00123754 -0.0892412 
-0.000116971 -0.00200427 -0.115913 
-9.23192e-05 0.0017422 -0.0944365 
6.09971e-05 -0.001097 -0.0679636 
1.11918e-05 0.00123754 -0.0892412 
0.000116971 0.00200427 -0.115913 
9.23192e-05 -0.0017422 -0.0944365 
0.00196817 0.0230215 -0.0623232 
0.0031285 0.0253099 -0.0818659 
0.00338473 0.0418289 -0.106868 
0.00218165 0.0380753 -0.0871419 
0.00204977 0.0212523 -0.0623232 
0.00312703 0.0273472 -0.0818659 
0.00362801 0.0451618 -0.106868 
0.00238109 0.0352547 -0.0871419 
0.00394829 0.0383155 -0.0469407 
0.00594116 0.0443766 -0.0617212 
0.00656752 0.0741188 -0.08171 
0.00443506 0.0642155 -0.066817 
0.00394208 0.0377275 -0.0469407 
0.00589506 0.045193 -0.0617212 
0.0068154 0.0755293 -0.08171 
0.00465293 0.0632736 -0.066817 
0.00549823 0.0413594 -0.0263754 
0.0076752 0.0488379 -0.0347478 
0.00866093 0.0828814 -0.0469248 
0.00632484 0.0705969 -0.038606 
0.00544245 0.0422874 -0.0263754 
0.00765445 0.0480548 -0.0347478 
0.00882841 0.0817067 -0.0469248 
0.00651801 0.0721133 -0.038606 
0.00538564 0.0283002 -0.00769403 
0.00672989 0.0341351 -0.0103418 
0.00786516 0.0590325 -0.0144355 
0.00645163 0.0493619 -0.0120259 
0.00561248 0.0301628 -0.00769403 
0.00702247 0.0321682 -0.0103418 
0.00768361 0.0558559 -0.0144355 
0.00636087 0.0524397 -0.0120259 
0.00021303 -0.000489663 3.22148e-13 
0.000172934 0.00158621 -4.0018e-13 
0.000822191 0.00283427 -2.49374e-13 
0.000971437 -0.000661727 5.49908e-13 
-0.000309315 0.00160373 1.51397e-12 
-0.00021303 -0.00279458 6.27411e-13 
-0.000971437 -0.00487295 1.15456e-12 
-0.000851811 0.00258772 1.98249e-12 
-0.00232499 -0.0226598 -0.00400049 
-0.00561248 -0.0268861 -0.00842319 
-0.00636087 -0.046947 -0.0113855 
-0.00257928 -0.0397217 -0.00731536 
-0.00237808 -0.0186791 -0.00400049 
-0.00538564 -0.0306561 -0.00842319 
-0.00645163 -0.053229 -0.0113855 
-0.00289339 -0.0330021 -0.00731536 
-0.00190636 -0.028373 -0.014232 
-0.00544245 -0.0402479 -0.0278699 
-0.00651801 -0.0688228 -0.0371391 
-0.00240207 -0.0487134 -0.0234768 
-0.00200625 -0.0270916 -0.014232 
-0.00549823 -0.0413766 -0.0278699 
-0.00632484 -0.0705497 -0.0371391 
-0.00239702 -0.0466598 -0.0234768 
-0.00133423 -0.0236659 -0.0258198 
-0.00394208 -0.0380072 -0.0493178 
-0.00465293 -0.0638517 -0.0645449 
-0.00166627 -0.0398674 -0.0408082 
-0.00126283 -0.0252716 -0.0258198 
-0.00394829 -0.0362887 -0.0493178 
-0.00443506 -0.0608751 -0.0645449 
-0.00149597 -0.0426083 -0.0408082 
-0.00075384 -0.0123196 -0.0346494 
-0.00204977 -0.0234696 -0.065313 
-0.00238109 -0.0389267 -0.0843301 
-0.000882649 -0.0205173 -0.0533573 
-0.000517798 -0.0158079 -0.0346494 
-0.00196817 -0.0198642 -0.065313 
-0.00218165 -0.0329763 -0.0843301 
-0.000652464 -0.02624 -0.0533573 
-0.000148211 0.00206869 -0.0379084 
-6.09971e-05 -0.00212652 -0.0711646 
-9.23192e-05 -0.00347043 -0.0914421 
-0.000121244 0.00336091 -0.0578672 
0.000148211 -0.00206869 -0.0379084 
6.09971e-05 0.00212652 -0.0711646 
9.23192e-05 0.00347043 -0.0914421 
0.000121244 -0.00336091 -0.0578672 
0.000517798 0.0158079 -0.0346494 
0.00196817 0.0198642 -0.065313 
0.00218165 0.0329763 -0.0843301 
0.000652464 0.02624 -0.0533573 
0.00075384 0.0123196 -0.0346494 
0.00204977 0.0234696 -0.065313 
0.00238109 0.0389267 -0.0843301 
0.000882649 0.0205173 -0.0533573 
0.00126283 0.0252716 -0.0258198 
0.00394829 0.0362887 -0.0493178 
0.00443506 0.0608751 -0.0645449 
0.00149597 0.0426083 -0.0408082 
0.00133423 0.0236659 -0.0258198 
0.00394208 0.0380072 -0.0493178 
0.00465293 0.0638517 -0.0645449 
0.00166627 0.0398674 -0.0408082 
0.00200625 0.0270916 -0.014232 
0.00549823 0.0413766 -0.0278699 
0.00632484 0.0705497 -0.0371391 
0.00239702 0.0466598 -0.0234768 
0.00190636 0.028373 -0.014232 
0.00544245 0.0402479 -0.0278699 
0.00651801 0.0688228 -0.0371391 
0.00240207 0.0487134 -0.0234768 
0.00237808 0.0186791 -0.00400049 
0.00538564 0.0306561 -0.00842319 
0.00645163 0.053229 -0.0113855 
0.00289339 0.0330021 -0.00731536 
0.00232499 0.0226598 -0.00400049 
0.00561248 0.0268861 -0.00842319 
0.00636087 0.046947 -0.0113855 
0.00257928 0.0397217 -0.00731536 
0.000309315 -0.00160373 1.51398e-12 
0.00021303 0.00279458 6.27412e-13 
0.000971437 0.00487295 1.15456e-12 
0.000851811 -0.00258772 1.98249e-12 
1.67715e-12 0.00490367 1.76873e-12 
-0.000309315 -0.00566488 1.41523e-12 
-0.000851811 -0.0100127 3.17216e-12 
2.56723e-12 0.0085811 2.55904e-12 
1.92785e-12 -0.00576081 0.000631395 
-0.00232499 -0.0157665 -0.00503475 
-0.00257928 -0.0278651 -0.00590609 
3.64202e-12 -0.0101519 -0.000785193 
1.96308e-12 0.00102743 0.000631395 
-0.00237808 -0.0221876 -0.00503475 
-0.00289339 -0.0387695 -0.00590609 
2.95551e-12 0.00145124 -0.000785193 
2.55655e-12 -0.00237172 0.00168065 
-0.00190636 -0.0254048 -0.0168429 
-0.00240207 -0.0439683 -0.0206462 
3.4564e-12 -0.00389417 -0.00195039 
2.22921e-12 -0.00148053 0.00168065 
-0.00200625 -0.0262992 -0.0168429 
-0.00239702 -0.0450529 -0.0206462 
3.36022e-12 -0.00280707 -0.00195039 
2.32405e-12 0.000262921 0.00253347 
-0.00133423 -0.0248158 -0.0301197 
-0.00166627 -0.0421286 -0.0364876 
2.89864e-12 0.000641447 -0.00329571 
1.90617e-12 -0.00316424 0.00253347 
-0.00126283 -0.0214268 -0.0301197 
-0.00149597 -0.0361227 -0.0364876 
2.87613e-12 -0.00542277 -0.00329571 
1.49607e-12 0.00230759 0.00308423 
-0.00075384 -0.0163931 -0.0400835 
-0.000882649 -0.0274069 -0.0480574 
1.67853e-12 0.00392569 -0.0042676 
9.68016e-13 -0.00382138 0.00308423 
-0.000517798 -0.0103471 -0.0400835 
-0.000652464 -0.0172969 -0.0480574 
1.61716e-12 -0.00631901 -0.0042676 
2.84955e-13 0.00351604 0.00326636 
-0.000148211 -0.00346828 -0.0437353 
-0.000121244 -0.00571374 -0.0522249 
4.81179e-14 0.0057911 -0.00460864 
-2.84956e-13 -0.00351604 0.00326636 
0.000148211 0.00346828 -0.0437353 
0.000121244 0.00571374 -0.0522249 
-4.81193e-14 -0.0057911 -0.00460864 
-9.68017e-13 0.00382138 0.00308423 
0.000517798 0.0103471 -0.0400835 
0.000652464 0.0172969 -0.0480574 
-1.61716e-12 0.00631901 -0.0042676 
-1.49607e-12 -0.00230759 0.00308423 
0.00075384 0.0163931 -0.0400835 
0.000882649 0.0274069 -0.0480574 
-1.67853e-12 -0.00392569 -0.0042676 
-1.90618e-12 0.00316424 0.00253347 
0.00126283 0.0214268 -0.0301197 
0.00149597 0.0361227 -0.0364876 
-2.87613e-12 0.00542277 -0.00329571 
-2.32406e-12 -0.000262921 0.00253347 
0.00133423 0.0248158 -0.0301197 
0.00166627 0.0421286 -0.0364876 
-2.89864e-12 -0.000641447 -0.00329571 
-2.22921e-12 0.00148053 0.00168065 
0.00200625 0.0262992 -0.0168429 
0.00239702 0.0450529 -0.0206462 
-3.36022e-12 0.00280707 -0.00195039 
-2.55655e-12 0.00237172 0.00168065 
0.00190636 0.0254048 -0.0168429 
0.00240207 0.0439683 -0.0206462 
-3.4564e-12 0.00389417 -0.00195039 
-1.96308e-12 -0.00102743 0.000631395 
0.00237808 0.0221876 -0.00503475 
0.00289339 0.0387695 -0.00590609 
-2.95551e-12 -0.00145124 -0.000785193 
-1.92785e-12 0.00576081 0.000631395 
0.00232499 0.0157665 -0.00503475 
0.00257928 0.0278651 -0.00590609 
-3.64202e-12 0.0101519 -0.000785193 
-1.67715e-12 -0.00490367 1.76873e-12 
0.000309315 0.00566488 1.41523e-12 
0.000851811 0.0100127 3.17216e-12 
-2.56723e-12 -0.0085811 2.55905e-12 
-1.54029e-05 -0.000186229 -3.35482e-12 
3.58124e-12 -0.000188695 -3.36014e-12 
3.29213e-12 -0.000495445 -3.54954e-12 
-2.78457e-05 -0.000490806 -3.54391e-12 
-0.000918797 -0.0166151 -0.00921494 
1.47772e-12 -0.0166172 -0.00919214 
6.63077e-13 -0.0365506 -0.0119694 
-0.000929765 -0.0365464 -0.0119914 
-0.000909601 -0.0167077 -0.00921494 
1.57977e-12 -0.0167127 -0.00919214 
6.51098e-13 -0.0367336 -0.0119694 
-0.000942007 -0.0367242 -0.0119914 
-0.00129803 -0.0253599 -0.0324242 
1.35552e-13 -0.025365 -0.032365 
-8.27037e-13 -0.0549706 -0.0406218 
-0.00133037 -0.0549609 -0.0406808 
-0.0012914 -0.0253593 -0.0324242 
1.47238e-13 -0.0253651 -0.032365 
-8.11384e-13 -0.0549491 -0.0406218 
-0.00133135 -0.0549384 -0.0406808 
-0.00117869 -0.0241423 -0.0594635 
-4.07205e-13 -0.0241481 -0.0593738 
-1.28351e-12 -0.0517968 -0.0733202 
-0.00121913 -0.0517861 -0.0734104 
-0.00117704 -0.0240755 -0.0594635 
-4.85802e-13 -0.0240801 -0.0593738 
-1.24234e-12 -0.0516331 -0.0733202 
-0.00120893 -0.0516245 -0.0734104 
-0.00068635 -0.0144713 -0.0804104 
-3.34063e-13 -0.0144758 -0.0803034 
-8.85686e-13 -0.0308531 -0.0981952 
-0.000718755 -0.0308448 -0.0983029 
-0.000688671 -0.0143629 -0.0804104 
-4.68673e-13 -0.0143648 -0.0803034 
-8.33208e-13 -0.030602 -0.0981952 
-0.000700672 -0.0305985 -0.0983029 
1.89252e-06 -6.10877e-05 -0.088227 
7.69683e-14 -6.26999e-05 -0.0881148 
-2.7916e-14 -0.000139771 -0.10739 
-1.04328e-05 -0.000136845 -0.107503 
-1.89252e-06 6.10877e-05 -0.088227 
-7.69669e-14 6.26999e-05 -0.0881148 
2.79175e-14 0.000139771 -0.10739 
1.04328e-05 0.000136845 -0.107503 
0.000688671 0.0143629 -0.0804104 
4.68674e-13 0.0143648 -0.0803034 
8.33209e-13 0.030602 -0.0981952 
0.000700672 0.0305985 -0.0983029 
0.00068635 0.0144713 -0.0804104 
3.34064e-13 0.0144758 -0.0803034 
8.85687e-13 0.0308531 -0.0981952 
0.000718755 0.0308448 -0.0983029 
0.00117704 0.0240755 -0.0594635 
4.85804e-13 0.0240801 -0.0593738 
1.24234e-12 0.0516331 -0.0733202 
0.00120893 0.0516245 -0.0734104 
0.00117869 0.0241423 -0.0594635 
4.07206e-13 0.0241481 -0.0593738 
1.28351e-12 0.0517968 -0.0733202 
0.00121913 0.0517861 -0.0734104 
0.0012914 0.0253593 -0.0324242 
-1.47236e-13 0.0253651 -0.032365 
8.11385e-13 0.0549491 -0.0406218 
0.00133135 0.0549384 -0.0406808 
0.00129803 0.0253599 -0.0324242 
-1.35551e-13 0.025365 -0.032365 
8.27039e-13 0.0549706 -0.0406218 
0.00133037 0.0549609 -0.0406808 
0.000909601 0.0167077 -0.00921494 
-1.57976e-12 0.0167127 -0.00919214 
-6.51096e-13 0.0367336 -0.0119694 
0.000942007 0.0367242 -0.0119914 
0.000918797 0.0166151 -0.00921494 
-1.47771e-12 0.0166172 -0.00919214 
-6.63076e-13 0.0365506 -0.0119694 
0.000929765 0.0365464 -0.0119914 
1.54029e-05 0.000186229 -3.35482e-12 
-3.58124e-12 0.000188695 -3.36014e-12 
-3.29213e-12 0.000495445 -3.54954e-12 
2.78457e-05 0.000490806 -3.54391e-12 
-3.3883e-05 -0.000182691 -3.30911e-12 
-1.54029e-05 -0.000191323 -3.32925e-12 
-2.78457e-05 -0.000500529 -3.51964e-12 
-6.49254e-05 -0.000483727 -3.49822e-12 
-0.00191446 -0.0166034 -0.00926807 
-0.000918797 -0.0166107 -0.00920939 
-0.000929765 -0.0365381 -0.0119935 
-0.0019422 -0.036523 -0.01205 
-0.00189173 -0.0166916 -0.00926807 
-0.000909601 -0.0167103 -0.00920939 
-0.000942007 -0.0367289 -0.0119935 
-0.00196867 -0.0366924 -0.01205 
-0.00266715 -0.0253392 -0.0325622 
-0.00129803 -0.0253584 -0.0324178 
-0.00133037 -0.0549584 -0.0406949 
-0.00274446 -0.0549209 -0.0408392 
-0.002653 -0.025337 -0.0325622 
-0.0012914 -0.0253599 -0.0324178 
-0.00133135 -0.0549395 -0.0406949 
-0.00274494 -0.0548956 -0.0408392 
-0.00240063 -0.02412 -0.059661 
-0.00117869 -0.024143 -0.0594533 
-0.00121913 -0.0517877 -0.0734345 
-0.00249358 -0.0517437 -0.0736435 
-0.00239789 -0.0240548 -0.059661 
-0.00117704 -0.0240738 -0.0594533 
-0.00120893 -0.0516214 -0.0734345 
-0.00247014 -0.0515852 -0.0736435 
-0.00139058 -0.0144556 -0.0806334 
-0.00068635 -0.0144741 -0.080397 
-0.000718755 -0.0308502 -0.098334 
-0.00146316 -0.0308152 -0.0985723 
-0.00139617 -0.0143516 -0.0806334 
-0.000688671 -0.0143593 -0.080397 
-0.000700672 -0.030592 -0.098334 
-0.00142357 -0.0305773 -0.0985723 
4.26639e-06 -5.83184e-05 -0.0884559 
1.89252e-06 -6.50605e-05 -0.0882125 
-1.04328e-05 -0.000144269 -0.107537 
-2.25929e-05 -0.00013158 -0.107782 
-4.26639e-06 5.83184e-05 -0.0884559 
-1.89252e-06 6.50605e-05 -0.0882125 
1.04328e-05 0.000144269 -0.107537 
2.25929e-05 0.00013158 -0.107782 
0.00139617 0.0143516 -0.0806334 
0.000688671 0.0143593 -0.080397 
0.000700672 0.030592 -0.098334 
0.00142357 0.0305773 -0.0985723 
0.00139058 0.0144556 -0.0806334 
0.00068635 0.0144741 -0.080397 
0.000718755 0.0308502 -0.098334 
0.00146316 0.0308152 -0.0985723 
0.00239789 0.0240548 -0.059661 
0.00117704 0.0240738 -0.0594533 
0.00120893 0.0516214 -0.0734345 
0.00247014 0.0515852 -0.0736435 
0.00240063 0.02412 -0.059661 
0.00117869 0.024143 -0.0594533 
0.00121913 0.0517877 -0.0734345 
0.00249358 0.0517437 -0.0736435 
0.002653 0.025337 -0.0325622 
0.0012914 0.0253599 -0.0324178 
0.00133135 0.0549395 -0.0406949 
0.00274494 0.0548956 -0.0408392 
0.00266715 0.0253392 -0.0325622 
0.00129803 0.0253584 -0.0324178 
0.00133037 0.0549584 -0.0406949 
0.00274446 0.0549209 -0.0408392 
0.00189173 0.0166916 -0.00926807 
0.000909601 0.0167103 -0.00920939 
0.000942007 0.0367289 -0.0119935 
0.00196867 0.0366924 -0.01205 
0.00191446 0.0166034 -0.00926807 
0.000918797 0.0166107 -0.00920939 
0.000929765 0.0365381 -0.0119935 
0.0019422 0.036523 -0.01205 
3.3883e-05 0.000182691 -3.30911e-12 
1.54029e-05 0.000191323 -3.32925e-12 
2.78457e-05 0.000500529 -3.51964e-12 
6.49254e-05 0.000483727 -3.49822e-12 
-5.79016e-05 -0.000176629 -3.20533e-12 
-3.3883e-05 -0.000195996 -3.25317e-12 
-6.49254e-05 -0.000510224 -3.44484e-12 
-0.000121007 -0.000470548 -3.39356e-12 
-0.00303205 -0.0165751 -0.00932098 
-0.00191446 -0.0165915 -0.00925904 
-0.0019422 -0.0364996 -0.0120554 
-0.0030895 -0.0364638 -0.0121146 
-0.00298716 -0.0166532 -0.00932098 
-0.00189173 -0.0167 -0.00925904 
-0.00196867 -0.0367084 -0.0120554 
-0.00313392 -0.036613 -0.0121146 
-0.00412978 -0.0252857 -0.0326721 
-0.00266715 -0.0253334 -0.0325518 
-0.00274446 -0.0549104 -0.0408675 
-0.00427856 -0.0548127 -0.0409882 
-0.0041071 -0.0252785 -0.0326721 
-0.002653 -0.0253396 -0.0325518 
-0.00274494 -0.0549001 -0.0408675 
-0.0042749 -0.0547781 -0.0409882 
-0.00366369 -0.0240598 -0.0597663 
-0.00240063 -0.0241209 -0.0596436 
-0.00249358 -0.0517461 -0.0736905 
-0.00383281 -0.0516242 -0.0738152 
-0.00366133 -0.0239974 -0.0597663 
-0.00239789 -0.0240495 -0.0596436 
-0.00247014 -0.051575 -0.0736905 
-0.0037901 -0.0514719 -0.0738152 
-0.00210406 -0.0144128 -0.0806992 
-0.00139058 -0.0144637 -0.0806106 
-0.00146316 -0.0308312 -0.0986326 
-0.00223106 -0.0307309 -0.0987236 
-0.00211444 -0.0143191 -0.0806992 
-0.00139617 -0.0143403 -0.0806106 
-0.00142357 -0.0305556 -0.0986326 
-0.00216384 -0.0305137 -0.0987236 
7.27345e-06 -5.16187e-05 -0.0885005 
4.26639e-06 -7.06797e-05 -0.088431 
-2.25929e-05 -0.000155522 -0.107847 
-3.76978e-05 -0.000118289 -0.107919 
-7.27345e-06 5.16187e-05 -0.0885005 
-4.26639e-06 7.06797e-05 -0.088431 
2.25929e-05 0.000155522 -0.107847 
3.76978e-05 0.000118289 -0.107919 
0.00211444 0.0143191 -0.0806992 
0.00139617 0.0143403 -0.0806106 
0.00142357 0.0305556 -0.0986326 
0.00216384 0.0305137 -0.0987236 
0.00210406 0.0144128 -0.0806992 
0.00139058 0.0144637 -0.0806106 
0.00146316 0.0308312 -0.0986326 
0.00223106 0.0307309 -0.0987236 
0.00366133 0.0239974 -0.0597663 
0.00239789 0.0240495 -0.0596436 
0.00247014 0.051575 -0.0736905 
0.0037901 0.0514719 -0.0738152 
0.00366369 0.0240598 -0.0597663 
0.00240063 0.0241209 -0.0596436 
0.00249358 0.0517461 -0.0736905 
0.00383281 0.0516242 -0.0738152 
0.0041071 0.0252785 -0.0326721 
0.002653 0.0253396 -0.0325518 
0.00274494 0.0549001 -0.0408675 
0.0042749 0.0547781 -0.0409882 
0.00412978 0.0252857 -0.0326721 
0.00266715 0.0253334 -0.0325518 
0.00274446 0.0549104 -0.0408675 
0.00427856 0.0548127 -0.0409882 
0.00298716 0.0166532 -0.00932098 
0.00189173 0.0167 -0.00925904 
0.00196867 0.0367084 -0.0120554 
0.00313392 0.036613 -0.0121146 
0.00303205 0.0165751 -0.00932098 
0.00191446 0.0165915 -0.00925904 
0.0019422 0.0364996 -0.0120554 
0.0030895 0.0364638 -0.0121146 
5.79016e-05 0.000176629 -3.20532e-12 
3.3883e-05 0.000195996 -3.25317e-12 
6.49254e-05 0.000510224 -3.44484e-12 
0.000121007 0.000470548 -3.39356e-12 
-8.86447e-05 -0.000165385 -3.01213e-12 
-5.79016e-05 -0.000206607 -3.11e-12 
-0.000121007 -0.00053293 -3.30163e-12 
-0.000205893 -0.000444547 -3.19591e-12 
-0.00424617 -0.0165116 -0.00931333 
-0.00303205 -0.0165471 -0.00931396 
-0.0030895 -0.0364063 -0.0121242 
-0.00435546 -0.0363257 -0.012123 
-0.00416721 -0.0165659 -0.00931333 
-0.00298716 -0.0166766 -0.00931396 
-0.00313392 -0.0366585 -0.0121242 
-0.00442205 -0.0364259 -0.012123 
-0.00560632 -0.0251558 -0.0325445 
-0.00412978 -0.0252677 -0.0326649 
-0.00427856 -0.0547785 -0.0410276 
-0.00586704 -0.0545423 -0.0409098 
-0.00557579 -0.0251352 -0.0325445 
-0.0041071 -0.025286 -0.0326649 
-0.0042749 -0.0547917 -0.0410276 
-0.00585221 -0.054482 -0.0409098 
-0.00487409 -0.0239088 -0.0593942 
-0.00366369 -0.0240593 -0.0597527 
-0.00383281 -0.0516253 -0.0738783 
-0.00515115 -0.0513162 -0.0735221 
-0.00487481 -0.0238526 -0.0593942 
-0.00366133 -0.0239833 -0.0597527 
-0.0037901 -0.0514432 -0.0738783 
-0.0050804 -0.0511778 -0.0735221 
-0.00276582 -0.0143046 -0.0800857 
-0.00210406 -0.0144329 -0.0806809 
-0.00223106 -0.0307719 -0.0988027 
-0.00296363 -0.0305122 -0.0982079 
-0.00278197 -0.0142357 -0.0800857 
-0.00211444 -0.0142886 -0.0806809 
-0.00216384 -0.0304531 -0.0988027 
-0.00286182 -0.0303458 -0.0982079 
1.02233e-05 -3.54467e-05 -0.0877873 
7.27345e-06 -8.44725e-05 -0.0884804 
-3.76978e-05 -0.000183666 -0.108004 
-5.57324e-05 -8.54217e-05 -0.10731 
-1.02233e-05 3.54467e-05 -0.0877873 
-7.27345e-06 8.44725e-05 -0.0884804 
3.76978e-05 0.000183666 -0.108004 
5.57324e-05 8.54217e-05 -0.10731 
0.00278197 0.0142357 -0.0800857 
0.00211444 0.0142886 -0.0806809 
0.00216384 0.0304531 -0.0988027 
0.00286182 0.0303458 -0.0982079 
0.00276582 0.0143046 -0.0800857 
0.00210406 0.0144329 -0.0806809 
0.00223106 0.0307719 -0.0988027 
0.00296363 0.0305122 -0.0982079 
0.00487481 0.0238526 -0.0593942 
0.00366133 0.0239833 -0.0597527 
0.0037901 0.0514432 -0.0738783 
0.0050804 0.0511778 -0.0735221 
0.00487409 0.0239088 -0.0593942 
0.00366369 0.0240593 -0.0597527 
0.00383281 0.0516253 -0.0738783 
0.00515115 0.0513162 -0.0735221 
0.00557579 0.0251352 -0.0325445 
0.0041071 0.025286 -0.0326649 
0.0042749 0.0547917 -0.0410276 
0.00585221 0.054482 -0.0409098 
0.00560632 0.0251558 -0.0325445 
0.00412978 0.0252677 -0.0326649 
0.00427856 0.0547785 -0.0410276 
0.00586704 0.0545423 -0.0409098 
0.00416721 0.0165659 -0.00931333 
0.00298716 0.0166766 -0.00931396 
0.00313392 0.0366585 -0.0121242 
0.00442205 0.0364259 -0.012123 
0.00424617 0.0165116 -0.00931333 
0.00303205 0.0165471 -0.00931396 
0.0030895 0.0364063 -0.0121242 
0.00435546 0.0363257 -0.012123 
8.86447e-05 0.000165385 -3.01213e-12 
5.79016e-05 0.000206607 -3.11e-12 
0.000121007 0.00053293 -3.30163e-12 
0.000205893 0.000444547 -3.19591e-12 
-0.000125795 -0.00014316 -2.6864e-12 
-8.86447e-05 -0.000231722 -2.86598e-12 
-0.000205893 -0.000586672 -3.05215e-12 
-0.000326212 -0.000392012 -2.85675e-12 
-0.00541303 -0.0163686 -0.00914182 
-0.00424617 -0.0164476 -0.00932012 
-0.00435546 -0.0361901 -0.0121349 
-0.00560514 -0.0360095 -0.0119644 
-0.00528865 -0.0163681 -0.00914182 
-0.00416721 -0.0166246 -0.00932012 
-0.00442205 -0.0365426 -0.0121349 
-0.00569592 -0.0359955 -0.0119644 
-0.00686145 -0.02485 -0.0318283 
-0.00560632 -0.0251074 -0.0325591 
-0.00586704 -0.0544475 -0.0409466 
-0.00728111 -0.0538961 -0.0402234 
-0.00682827 -0.0247981 -0.0318283 
-0.00557579 -0.0251539 -0.0325591 
-0.00585221 -0.0545165 -0.0409466 
-0.00724374 -0.0537742 -0.0402234 
-0.005808 -0.0235494 -0.0579102 
-0.00487409 -0.023904 -0.0594134 
-0.00515115 -0.0513111 -0.0735757 
-0.00622015 -0.0505716 -0.0720729 
-0.00581536 -0.0235075 -0.0579102 
-0.00487481 -0.0238164 -0.0594134 
-0.0050804 -0.0511031 -0.0735757 
-0.00611234 -0.0504649 -0.0720729 
-0.00324443 -0.0140474 -0.0779421 
-0.00276582 -0.0143526 -0.0801091 
-0.00296363 -0.0306116 -0.0982712 
-0.00352068 -0.0299836 -0.0960972 
-0.00326422 -0.0140355 -0.0779421 
-0.00278197 -0.0141592 -0.0801091 
-0.00286182 -0.0301909 -0.0982712 
-0.0033808 -0.0299352 -0.0960972 
1.07216e-05 1.59585e-06 -0.0853858 
1.02233e-05 -0.000116577 -0.0878124 
-5.57324e-05 -0.000249895 -0.107376 
-7.42022e-05 -9.1994e-06 -0.10494 
-1.07216e-05 -1.59585e-06 -0.0853858 
-1.02233e-05 0.000116577 -0.0878124 
5.57324e-05 0.000249895 -0.107376 
7.42022e-05 9.1994e-06 -0.10494 
0.00326422 0.0140355 -0.0779421 
0.00278197 0.0141592 -0.0801091 
0.00286182 0.0301909 -0.0982712 
0.0033808 0.0299352 -0.0960972 
0.00324443 0.0140474 -0.0779421 
0.00276582 0.0143526 -0.0801091 
0.00296363 0.0306116 -0.0982712 
0.00352068 0.0299836 -0.0960972 
0.00581536 0.0235075 -0.0579102 
0.00487481 0.0238164 -0.0594134 
0.0050804 0.0511031 -0.0735757 
0.00611234 0.0504649 -0.0720729 
0.005808 0.0235494 -0.0579102 
0.00487409 0.023904 -0.0594134 
0.00515115 0.0513111 -0.0735757 
0.00622015 0.0505716 -0.0720729 
0.00682827 0.0247981 -0.0318283 
0.00557579 0.0251539 -0.0325591 
0.00585221 0.0545165 -0.0409466 
0.00724374 0.0537742 -0.0402234 
0.00686145 0.02485 -0.0318283 
0.00560632 0.0251074 -0.0325591 
0.00586704 0.0544475 -0.0409466 
0.00728111 0.0538961 -0.0402234 
0.00528865 0.0163681 -0.00914182 
0.00416721 0.0166246 -0.00932012 
0.00442205 0.0365426 -0.0121349 
0.00569592 0.0359955 -0.0119644 
0.00541303 0.0163686 -0.00914182 
0.00424617 0.0164476 -0.00932012 
0.00435546 0.0361901 -0.0121349 
0.00560514 0.0360095 -0.0119644 
0.000125795 0.00014316 -2.6864e-12 
8.86447e-05 0.000231722 -2.86598e-12 
0.000205893 0.000586672 -3.05215e-12 
0.000326212 0.000392012 -2.85675e-12 
-0.000167088 -9.59563e-05 -2.18085e-12 
-0.000125795 -0.000290105 -2.47961e-12 
-0.000326212 -0.000710497 -2.64595e-12 
-0.000477335 -0.000282176 -2.31873e-12 
-0.00622253 -0.0160435 -0.00864589 
-0.00541303 -0.0162234 -0.00918508 
-0.00560514 -0.0356984 -0.0119679 
-0.00652935 -0.0352926 -0.0114579 
-0.0060517 -0.0159227 -0.00864589 
-0.00528865 -0.0165046 -0.00918508 
-0.00569592 -0.0362718 -0.0119679 
-0.00663651 -0.0350262 -0.0114579 
-0.00747721 -0.0241529 -0.0299926 
-0.00686145 -0.0247326 -0.0319052 
-0.00728111 -0.0536613 -0.0402187 
-0.00808171 -0.0524155 -0.0383224 
-0.00745283 -0.0240347 -0.0299926 
-0.00682827 -0.0248381 -0.0319052 
-0.00724374 -0.0538502 -0.0402187 
-0.00800866 -0.0521599 -0.0383224 
-0.00611204 -0.0227361 -0.0543785 
-0.005808 -0.023536 -0.0580271 
-0.00622015 -0.0505523 -0.0720512 
-0.00665332 -0.0488701 -0.0683965 
-0.00612815 -0.0227283 -0.0543785 
-0.00581536 -0.0234192 -0.0580271 
-0.00611234 -0.0502812 -0.0720512 
-0.00650486 -0.0488381 -0.0683965 
-0.00334738 -0.0134713 -0.0730362 
-0.00324443 -0.014158 -0.078091 
-0.00352068 -0.0302146 -0.0960589 
-0.00368205 -0.0287857 -0.0909796 
-0.00336171 -0.0135834 -0.0730362 
-0.00326422 -0.0138558 -0.078091 
-0.0033808 -0.0295671 -0.0960589 
-0.00351057 -0.0289967 -0.0909796 
4.57099e-06 8.13972e-05 -0.0799562 
1.07216e-05 -0.000186736 -0.0855469 
-7.42022e-05 -0.000395663 -0.104895 
-8.76255e-05 0.000157111 -0.0992725 
-4.57099e-06 -8.13972e-05 -0.0799562 
-1.07216e-05 0.000186736 -0.0855469 
7.42022e-05 0.000395663 -0.104895 
8.76255e-05 -0.000157111 -0.0992725 
0.00336171 0.0135834 -0.0730362 
0.00326422 0.0138558 -0.078091 
0.0033808 0.0295671 -0.0960589 
0.00351057 0.0289967 -0.0909796 
0.00334738 0.0134713 -0.0730362 
0.00324443 0.014158 -0.078091 
0.00352068 0.0302146 -0.0960589 
0.00368205 0.0287857 -0.0909796 
0.00612815 0.0227283 -0.0543785 
0.00581536 0.0234192 -0.0580271 
0.00611234 0.0502812 -0.0720512 
0.00650486 0.0488381 -0.0683965 
0.00611204 0.0227361 -0.0543785 
0.005808 0.023536 -0.0580271 
0.00622015 0.0505523 -0.0720512 
0.00665332 0.0488701 -0.0683965 
0.00745283 0.0240347 -0.0299926 
0.00682827 0.0248381 -0.0319052 
0.00724374 0.0538502 -0.0402187 
0.00800866 0.0521599 -0.0383224 
0.00747721 0.0241529 -0.0299926 
0.00686145 0.0247326 -0.0319052 
0.00728111 0.0536613 -0.0402187 
0.00808171 0.0524155 -0.0383224 
0.0060517 0.0159227 -0.00864589 
0.00528865 0.0165046 -0.00918508 
0.00569592 0.0362718 -0.0119679 
0.00663651 0.0350262 -0.0114579 
0.00622253 0.0160435 -0.00864589 
0.00541303 0.0162234 -0.00918508 
0.00560514 0.0356984 -0.0119679 
0.00652935 0.0352926 -0.0114579 
0.000167088 9.59563e-05 -2.18084e-12 
0.000125795 0.000290105 -2.47961e-12 
0.000326212 0.000710497 -2.64595e-12 
0.000477335 0.000282176 -2.31873e-12 
-0.000212302 7.7459e-06 -1.46194e-12 
-0.000167088 -0.000420326 -1.91306e-12 
-0.000477335 -0.000984756 -2.02848e-12 
-0.000627874 -4.91128e-05 -1.53548e-12 
-0.00618844 -0.0153107 -0.00760265 
-0.00622253 -0.015719 -0.00876438 
-0.00652935 -0.0345959 -0.0114221 
-0.00660551 -0.0336931 -0.0103293 
-0.00599674 -0.0149355 -0.00760265 
-0.0060517 -0.0162192 -0.00876438 
-0.00663651 -0.0356363 -0.0114221 
-0.0067161 -0.0328886 -0.0103293 
-0.0069167 -0.0226206 -0.0263219 
-0.00747721 -0.0238925 -0.0302091 
-0.00808171 -0.0518853 -0.0381899 
-0.0076558 -0.0491539 -0.0343319 
-0.00692036 -0.0223802 -0.0263219 
-0.00745283 -0.0241064 -0.0302091 
-0.00800866 -0.0522998 -0.0381899 
-0.0075437 -0.0486456 -0.0343319 
-0.00540625 -0.0209935 -0.0475878 
-0.00611204 -0.0227126 -0.0547192 
-0.00665332 -0.0488349 -0.0681618 
-0.00599358 -0.0451974 -0.0610061 
-0.00542369 -0.021068 -0.0475878 
-0.00612815 -0.0225228 -0.0547192 
-0.00650486 -0.0484084 -0.0681618 
-0.00581993 -0.045342 -0.0610061 
-0.00289444 -0.0122605 -0.0638134 
-0.00334738 -0.0137164 -0.073472 
-0.00368205 -0.0293009 -0.0906667 
-0.00322293 -0.0262436 -0.0809487 
-0.00288211 -0.0126261 -0.0638134 
-0.00336171 -0.0131887 -0.073472 
-0.00351057 -0.0281792 -0.0906667 
-0.00304021 -0.0269899 -0.0809487 
-1.40456e-05 0.000240093 -0.0698248 
4.57099e-06 -0.000328127 -0.0804278 
-8.76255e-05 -0.000692541 -0.0989306 
-9.09356e-05 0.000491454 -0.0882569 
1.40456e-05 -0.000240093 -0.0698248 
-4.57099e-06 0.000328127 -0.0804278 
8.76255e-05 0.000692541 -0.0989306 
9.09356e-05 -0.000491454 -0.0882569 
0.00288211 0.0126261 -0.0638134 
0.00336171 0.0131887 -0.073472 
0.00351057 0.0281792 -0.0906667 
0.00304021 0.0269899 -0.0809487 
0.00289444 0.0122605 -0.0638134 
0.00334738 0.0137164 -0.073472 
0.00368205 0.0293009 -0.0906667 
0.00322293 0.0262436 -0.0809487 
0.00542369 0.021068 -0.0475878 
0.00612815 0.0225228 -0.0547192 
0.00650486 0.0484084 -0.0681618 
0.00581993 0.045342 -0.0610061 
0.00540625 0.0209935 -0.0475878 
0.00611204 0.0227126 -0.0547192 
0.00665332 0.0488349 -0.0681618 
0.00599358 0.0451974 -0.0610061 
0.00692036 0.0223802 -0.0263219 
0.00745283 0.0241064 -0.0302091 
0.00800866 0.0522998 -0.0381899 
0.0075437 0.0486456 -0.0343319 
0.0069167 0.0226206 -0.0263219 
0.00747721 0.0238925 -0.0302091 
0.00808171 0.0518853 -0.0381899 
0.0076558 0.0491539 -0.0343319 
0.00599674 0.0149355 -0.00760265 
0.0060517 0.0162192 -0.00876438 
0.00663651 0.0356363 -0.0114221 
0.0067161 0.0328886 -0.0103293 
0.00618844 0.0153107 -0.00760265 
0.00622253 0.015719 -0.00876438 
0.00652935 0.0345959 -0.0114221 
0.00660551 0.0336931 -0.0103293 
0.000212302 -7.7459e-06 -1.46194e-12 
0.000167088 0.000420326 -1.91306e-12 
0.000477335 0.000984756 -2.02847e-12 
0.000627874 4.91128e-05 -1.53548e-12 
-0.000237288 0.000252407 -5.63363e-13 
-0.000212302 -0.000703953 -1.15978e-12 
-0.000627874 -0.00158621 -1.15573e-12 
-0.00070074 0.000489663 -5.13412e-13 
-0.00478055 -0.013683 -0.00574505 
-0.00618844 -0.0146002 -0.00785209 
-0.00660551 -0.0321682 -0.0101831 
-0.00522856 -0.0301628 -0.00822552 
-0.00463457 -0.0128128 -0.00574505 
-0.00599674 -0.0155314 -0.00785209 
-0.0067161 -0.0341351 -0.0101831 
-0.00529326 -0.0283002 -0.00822552 
-0.00482851 -0.0194096 -0.0200224 
-0.0069167 -0.0220906 -0.0268069 
-0.0076558 -0.0480548 -0.0339097 
-0.00549216 -0.0422874 -0.027163 
-0.00485905 -0.018971 -0.0200224 
-0.00692036 -0.022477 -0.0268069 
-0.0075437 -0.0488379 -0.0339097 
-0.00537533 -0.0413594 -0.027163 
-0.00357304 -0.0174804 -0.0362551 
-0.00540625 -0.0209816 -0.0483597 
-0.00599358 -0.045193 -0.0603213 
-0.004032 -0.0377275 -0.0481492 
-0.00357307 -0.017759 -0.0362551 
-0.00542369 -0.02061 -0.0483597 
-0.00581993 -0.0443766 -0.0603213 
-0.00387987 -0.0383155 -0.0481492 
-0.00187491 -0.00990551 -0.048684 
-0.00289444 -0.0127814 -0.0648009 
-0.00322293 -0.0273472 -0.0800723 
-0.00210524 -0.0212523 -0.0638357 
-0.00181756 -0.0107493 -0.048684 
-0.00288211 -0.011823 -0.0648009 
-0.00304021 -0.0253099 -0.0800723 
-0.00194527 -0.0230215 -0.0638357 
-4.18495e-05 0.000524484 -0.0532993 
-1.40456e-05 -0.000585462 -0.0708915 
-9.09356e-05 -0.00123754 -0.0873121 
-7.94332e-05 0.001097 -0.0695855 
4.18495e-05 -0.000524484 -0.0532993 
1.40456e-05 0.000585462 -0.0708915 
9.09356e-05 0.00123754 -0.0873121 
7.94332e-05 -0.001097 -0.0695855 
0.00181756 0.0107493 -0.048684 
0.00288211 0.011823 -0.0648009 
0.00304021 0.0253099 -0.0800723 
0.00194527 0.0230215 -0.0638357 
0.00187491 0.00990551 -0.048684 
0.00289444 0.0127814 -0.0648009 
0.00322293 0.0273472 -0.0800723 
0.00210524 0.0212523 -0.0638357 
0.00357307 0.017759 -0.0362551 
0.00542369 0.02061 -0.0483597 
0.00581993 0.0443766 -0.0603213 
0.00387987 0.0383155 -0.0481492 
0.00357304 0.0174804 -0.0362551 
0.00540625 0.0209816 -0.0483597 
0.00599358 0.045193 -0.0603213 
0.004032 0.0377275 -0.0481492 
0.00485905 0.018971 -0.0200224 
0.00692036 0.022477 -0.0268069 
0.0075437 0.0488379 -0.0339097 
0.00537533 0.0413594 -0.027163 
0.00482851 0.0194096 -0.0200224 
0.0069167 0.0220906 -0.0268069 
0.0076558 0.0480548 -0.0339097 
0.00549216 0.0422874 -0.027163 
0.00463457 0.0128128 -0.00574505 
0.00599674 0.0155314 -0.00785209 
0.0067161 0.0341351 -0.0101831 
0.00529326 0.0283002 -0.00822552 
0.00478055 0.013683 -0.00574505 
0.00618844 0.0146002 -0.00785209 
0.00660551 0.0321682 -0.0101831 
0.00522856 0.0301628 -0.00822552 
0.000237288 -0.000252407 -5.63361e-13 
0.000212302 0.000703953 -1.15978e-12 
0.000627874 0.00158621 -1.15573e-12 
0.00070074 -0.000489663 -5.13411e-13 
-0.000259129 0.000759927 3.51504e-13 
-0.000237288 -0.00126384 -2.90301e-13 
-0.00070074 -0.00279458 -6.1638e-14 
-0.000584504 0.00160373 5.48611e-13 
-0.00190435 -0.0102303 -0.00291488 
-0.00478055 -0.0121651 -0.00618471 
-0.00522856 -0.0268861 -0.0078292 
-0.00206293 -0.0226598 -0.00477256 
-0.00197458 -0.00839178 -0.00291488 
-0.00463457 -0.0139201 -0.00618471 
-0.00529326 -0.0306561 -0.0078292 
-0.00229657 -0.0186791 -0.00477256 
-0.0016729 -0.0129695 -0.0105851 
-0.00482851 -0.0184413 -0.0209404 
-0.00549216 -0.0402479 -0.0262197 
-0.00198249 -0.028373 -0.0158677 
-0.00176295 -0.0123598 -0.0105851 
-0.00485905 -0.0189921 -0.0209404 
-0.00537533 -0.0413766 -0.0262197 
-0.00200926 -0.0270916 -0.0158677 
-0.00119537 -0.0109328 -0.0196069 
-0.00357304 -0.0175914 -0.0377491 
-0.004032 -0.0380072 -0.0466712 
-0.00141545 -0.0236659 -0.0283946 
-0.00116108 -0.0116703 -0.0196069 
-0.00357307 -0.01681 -0.0377491 
-0.00387987 -0.0362887 -0.0466712 
-0.00130857 -0.0252716 -0.0283946 
-0.000665341 -0.00572572 -0.0266571 
-0.00187491 -0.0109405 -0.0505958 
-0.00210524 -0.0234696 -0.0619883 
-0.000767632 -0.0123196 -0.0378531 
-0.000510747 -0.00736421 -0.0266571 
-0.00181756 -0.00925416 -0.0505958 
-0.00194527 -0.0198642 -0.0619883 
-0.000586216 -0.0158079 -0.0378531 
-9.98714e-05 0.000976818 -0.0292949 
-4.18495e-05 -0.00100084 -0.0553596 
-7.94332e-05 -0.00212652 -0.0676095 
-0.000102168 0.00206869 -0.0413328 
9.98714e-05 -0.000976818 -0.0292949 
4.18495e-05 0.00100084 -0.0553596 
7.94332e-05 0.00212652 -0.0676095 
0.000102168 -0.00206869 -0.0413328 
0.000510747 0.00736421 -0.0266571 
0.00181756 0.00925416 -0.0505958 
0.00194527 0.0198642 -0.0619883 
0.000586216 0.0158079 -0.0378531 
0.000665341 0.00572572 -0.0266571 
0.00187491 0.0109405 -0.0505958 
0.00210524 0.0234696 -0.0619883 
0.000767632 0.0123196 -0.0378531 
0.00116108 0.0116703 -0.0196069 
0.00357307 0.01681 -0.0377491 
0.00387987 0.0362887 -0.0466712 
0.00130857 0.0252716 -0.0283946 
0.00119537 0.0109328 -0.0196069 
0.00357304 0.0175914 -0.0377491 
0.004032 0.0380072 -0.0466712 
0.00141545 0.0236659 -0.0283946 
0.00176295 0.0123598 -0.0105851 
0.00485905 0.0189921 -0.0209404 
0.00537533 0.0413766 -0.0262197 
0.00200926 0.0270916 -0.0158677 
0.0016729 0.0129695 -0.0105851 
0.00482851 0.0184413 -0.0209404 
0.00549216 0.0402479 -0.0262197 
0.00198249 0.028373 -0.0158677 
0.00197458 0.00839178 -0.00291488 
0.00463457 0.0139201 -0.00618471 
0.00529326 0.0306561 -0.0078292 
0.00229657 0.0186791 -0.00477256 
0.00190435 0.0102303 -0.00291488 
0.00478055 0.0121651 -0.00618471 
0.00522856 0.0268861 -0.0078292 
0.00206293 0.0226598 -0.00477256 
0.000259129 -0.000759927 3.51505e-13 
0.000237288 0.00126384 -2.903e-13 
0.00070074 0.00279458 -6.16366e-14 
0.000584504 -0.00160373 5.48613e-13 
4.88612e-13 0.00221725 5.22549e-13 
-0.000259129 -0.00254429 4.17953e-13 
-0.000584504 -0.00566488 1.30372e-12 
8.91752e-13 0.00490367 8.75709e-13 
7.15721e-13 -0.00259281 0.000348452 
-0.00190435 -0.00708144 -0.00346018 
-0.00206293 -0.0157665 -0.00391952 
1.5725e-12 -0.00576081 -0.000445112 
6.85208e-13 0.000518908 0.000348452 
-0.00197458 -0.0100356 -0.00346018 
-0.00229657 -0.0221876 -0.00391952 
1.15136e-12 0.00102743 -0.000445112 
1.17338e-12 -0.0011108 0.0009875 
-0.0016729 -0.0115574 -0.0120648 
-0.00198249 -0.0254048 -0.0141616 
1.61756e-12 -0.00237172 -0.00106281 
1.00749e-12 -0.000635458 0.0009875 
-0.00176295 -0.0120342 -0.0120648 
-0.00200926 -0.0262992 -0.0141616 
1.55911e-12 -0.00148053 -0.00106281 
1.16777e-12 9.20629e-05 0.00149967 
-0.00119537 -0.0114148 -0.0221227 
-0.00141545 -0.0248158 -0.0257745 
1.44887e-12 0.000262921 -0.0018614 
9.88036e-13 -0.00144691 0.00149967 
-0.00116108 -0.00989299 -0.0221227 
-0.00130857 -0.0214268 -0.0257745 
1.4803e-12 -0.00316424 -0.0018614 
7.74823e-13 0.00106067 0.00183753 
-0.000665341 -0.00760508 -0.029907 
-0.000767632 -0.0163931 -0.0346082 
8.50871e-13 0.00230759 -0.00247091 
5.50062e-13 -0.00178309 0.00183753 
-0.000510747 -0.00479893 -0.029907 
-0.000586216 -0.0103471 -0.0346082 
8.94842e-13 -0.00382138 -0.00247091 
1.22182e-13 0.00164462 0.00195199 
-9.98714e-05 -0.00162284 -0.0328062 
-0.000102168 -0.00346828 -0.0378636 
-1.81701e-14 0.00351604 -0.00269218 
-1.22183e-13 -0.00164462 0.00195199 
9.98714e-05 0.00162284 -0.0328062 
0.000102168 0.00346828 -0.0378636 
1.81686e-14 -0.00351604 -0.00269218 
-5.50064e-13 0.00178309 0.00183753 
0.000510747 0.00479893 -0.029907 
0.000586216 0.0103471 -0.0346082 
-8.94844e-13 0.00382138 -0.00247091 
-7.74824e-13 -0.00106067 0.00183753 
0.000665341 0.00760508 -0.029907 
0.000767632 0.0163931 -0.0346082 
-8.50872e-13 -0.00230759 -0.00247091 
-9.88037e-13 0.00144691 0.00149967 
0.00116108 0.00989299 -0.0221227 
0.00130857 0.0214268 -0.0257745 
-1.4803e-12 0.00316424 -0.0018614 
-1.16777e-12 -9.20629e-05 0.00149967 
0.00119537 0.0114148 -0.0221227 
0.00141545 0.0248158 -0.0257745 
-1.44887e-12 -0.000262921 -0.0018614 
-1.00749e-12 0.000635458 0.0009875 
0.00176295 0.0120342 -0.0120648 
0.00200926 0.0262992 -0.0141616 
-1.55912e-12 0.00148053 -0.00106281 
-1.17338e-12 0.0011108 0.0009875 
0.0016729 0.0115574 -0.0120648 
0.00198249 0.0254048 -0.0141616 
-1.61756e-12 0.00237172 -0.00106281 
-6.85209e-13 -0.000518908 0.000348452 
0.00197458 0.0100356 -0.00346018 
0.00229657 0.0221876 -0.00391952 
-1.15136e-12 -0.00102743 -0.000445112 
-7.15722e-13 0.00259281 0.000348452 
0.00190435 0.00708144 -0.00346018 
0.00206293 0.0157665 -0.00391952 
-1.5725e-12 0.00576081 -0.000445112 
-4.88613e-13 -0.00221725 5.22551e-13 
0.000259129 0.00254429 4.17954e-13 
0.000584504 0.00566488 1.30372e-12 
-8.91753e-13 -0.00490367 8.7571e-13 
-1.96236e-05 4.38908e-12 -3.595e-12 
3.67551e-12 4.40589e-12 -3.60087e-12 
3.61646e-12 -0.000188695 -3.68184e-12 
-2.40235e-05 -0.000186229 -3.67586e-12 
-0.000906014 -2.02522e-12 -0.00841591 
1.72396e-12 -2.00364e-12 -0.00839556 
1.49117e-12 -0.0166172 -0.00931753 
-0.000909818 -0.0166151 -0.00933763 
-0.000903697 -9.16939e-13 -0.00841591 
1.7862e-12 -8.96325e-13 -0.00839556 
1.51388e-12 -0.0167127 -0.00931753 
-0.000914858 -0.0167077 -0.00933763 
-0.00128139 -4.52455e-12 -0.0296438 
4.32179e-13 -4.50514e-12 -0.0295915 
1.44708e-13 -0.025365 -0.0323584 
-0.00129253 -0.0253599 -0.0324108 
-0.00127729 -4.41033e-12 -0.0296438 
4.42773e-13 -4.39264e-12 -0.0295915 
1.53173e-13 -0.0253651 -0.0323584 
-0.00129091 -0.0253593 -0.0324108 
-0.00116507 -4.38848e-12 -0.0546615 
-1.75445e-13 -4.37337e-12 -0.0545832 
-4.43332e-13 -0.0241481 -0.0593041 
-0.00117885 -0.0241423 -0.0593826 
-0.00116067 -5.34262e-12 -0.0546615 
-2.15842e-13 -5.33008e-12 -0.0545832 
-4.4829e-13 -0.0240801 -0.0593041 
-0.00117149 -0.0240755 -0.0593826 
-0.000680632 -2.18965e-12 -0.0741786 
-2.22263e-13 -2.18094e-12 -0.0740865 
-3.92836e-13 -0.0144758 -0.0801906 
-0.000691605 -0.0144713 -0.0802828 
-0.000676297 -3.91856e-12 -0.0741786 
-2.95299e-13 -3.9127e-12 -0.0740865 
-4.08151e-13 -0.0143648 -0.0801906 
-0.000680368 -0.0143629 -0.0802828 
-2.1391e-06 1.00437e-12 -0.0814889 
4.21903e-14 1.00583e-12 -0.0813929 
9.52366e-15 -6.26999e-05 -0.0879885 
-6.29147e-06 -6.10877e-05 -0.0880847 
2.1391e-06 -1.00437e-12 -0.0814889 
-4.21889e-14 -1.00583e-12 -0.0813929 
-9.52225e-15 6.26999e-05 -0.0879885 
6.29147e-06 6.10877e-05 -0.0880847 
0.000676297 3.91856e-12 -0.0741786 
2.953e-13 3.9127e-12 -0.0740865 
4.08153e-13 0.0143648 -0.0801906 
0.000680368 0.0143629 -0.0802828 
0.000680632 2.18965e-12 -0.0741786 
2.22265e-13 2.18094e-12 -0.0740865 
3.92838e-13 0.0144758 -0.0801906 
0.000691605 0.0144713 -0.0802828 
0.00116067 5.34263e-12 -0.0546615 
2.15843e-13 5.33008e-12 -0.0545832 
4.48291e-13 0.0240801 -0.0593041 
0.00117149 0.0240755 -0.0593826 
0.00116507 4.38848e-12 -0.0546615 
1.75447e-13 4.37337e-12 -0.0545832 
4.43333e-13 0.0241481 -0.0593041 
0.00117885 0.0241423 -0.0593826 
0.00127729 4.41033e-12 -0.0296438 
-4.42771e-13 4.39265e-12 -0.0295915 
-1.53171e-13 0.0253651 -0.0323584 
0.00129091 0.0253593 -0.0324108 
0.00128139 4.52455e-12 -0.0296438 
-4.32178e-13 4.50514e-12 -0.0295915 
-1.44707e-13 0.025365 -0.0323584 
0.00129253 0.0253599 -0.0324108 
0.000903697 9.1694e-13 -0.00841591 
-1.7862e-12 8.96327e-13 -0.00839556 
-1.51388e-12 0.0167127 -0.00931753 
0.000914858 0.0167077 -0.00933763 
0.000906014 2.02523e-12 -0.00841591 
-1.72395e-12 2.00364e-12 -0.00839556 
-1.49117e-12 0.0166172 -0.00931753 
0.000909818 0.0166151 -0.00933763 
1.96236e-05 -4.38907e-12 -3.595e-12 
-3.67551e-12 -4.40589e-12 -3.60087e-12 
-3.61646e-12 0.000188695 -3.68184e-12 
2.40235e-05 0.000186229 -3.67586e-12 
-4.39605e-05 4.32885e-12 -3.54822e-12 
-1.96236e-05 4.38543e-12 -3.57002e-12 
-2.40235e-05 -0.000191323 -3.65129e-12 
-5.50096e-05 -0.000182691 -3.62901e-12 
-0.00188307 -2.09218e-12 -0.00846467 
-0.000906014 -2.02262e-12 -0.00841323 
-0.000909818 -0.0166107 -0.00933736 
-0.00189277 -0.0166034 -0.00938813 
-0.0018762 -9.8265e-13 -0.00846467 
-0.000903697 -9.17689e-13 -0.00841323 
-0.000914858 -0.0167103 -0.00933736 
-0.00190286 -0.0166916 -0.00938813 
-0.0026287 -4.58332e-12 -0.0297691 
-0.00128139 -4.52248e-12 -0.0296444 
-0.00129253 -0.0253584 -0.0324178 
-0.00265549 -0.0253392 -0.0325424 
-0.00261955 -4.46728e-12 -0.0297691 
-0.00127729 -4.41301e-12 -0.0296444 
-0.00129091 -0.0253599 -0.0324178 
-0.00265102 -0.025337 -0.0325424 
-0.00236997 -4.43145e-12 -0.0548371 
-0.00116507 -4.38559e-12 -0.0546628 
-0.00117885 -0.024143 -0.0593946 
-0.00240178 -0.02412 -0.0595694 
-0.00236072 -5.38351e-12 -0.0548371 
-0.00116067 -5.34559e-12 -0.0546628 
-0.00117149 -0.0240738 -0.0593946 
-0.00238531 -0.0240548 -0.0595694 
-0.00137776 -2.21235e-12 -0.0743734 
-0.000680632 -2.18675e-12 -0.0741802 
-0.000691605 -0.0144741 -0.0802983 
-0.00140242 -0.0144556 -0.0804921 
-0.00136876 -3.93935e-12 -0.0743734 
-0.000676297 -3.92148e-12 -0.0741802 
-0.000680368 -0.0143593 -0.0802983 
-0.00137808 -0.0143516 -0.0804921 
-4.44286e-06 1.00348e-12 -0.0816873 
-2.1391e-06 1.0072e-12 -0.0814906 
-6.29147e-06 -6.50605e-05 -0.0881015 
-1.35184e-05 -5.83184e-05 -0.0882988 
4.44286e-06 -1.00348e-12 -0.0816873 
2.1391e-06 -1.0072e-12 -0.0814906 
6.29147e-06 6.50605e-05 -0.0881015 
1.35184e-05 5.83184e-05 -0.0882988 
0.00136876 3.93935e-12 -0.0743734 
0.000676297 3.92148e-12 -0.0741802 
0.000680368 0.0143593 -0.0802983 
0.00137808 0.0143516 -0.0804921 
0.00137776 2.21235e-12 -0.0743734 
0.000680632 2.18675e-12 -0.0741802 
0.000691605 0.0144741 -0.0802983 
0.00140242 0.0144556 -0.0804921 
0.00236072 5.38351e-12 -0.0548371 
0.00116067 5.34559e-12 -0.0546628 
0.00117149 0.0240738 -0.0593946 
0.00238531 0.0240548 -0.0595694 
0.00236997 4.43145e-12 -0.0548371 
0.00116507 4.38559e-12 -0.0546628 
0.00117885 0.024143 -0.0593946 
0.00240178 0.02412 -0.0595694 
0.00261955 4.46728e-12 -0.0297691 
0.00127729 4.41301e-12 -0.0296444 
0.00129091 0.0253599 -0.0324178 
0.00265102 0.025337 -0.0325424 
0.0026287 4.58332e-12 -0.0297691 
0.00128139 4.52248e-12 -0.0296444 
0.00129253 0.0253584 -0.0324178 
0.00265549 0.0253392 -0.0325424 
0.0018762 9.82651e-13 -0.00846467 
0.000903697 9.1769e-13 -0.00841323 
0.000914858 0.0167103 -0.00933736 
0.00190286 0.0166916 -0.00938813 
0.00188307 2.09218e-12 -0.00846467 
0.000906014 2.02262e-12 -0.00841323 
0.000909818 0.0166107 -0.00933736 
0.00189277 0.0166034 -0.00938813 
4.39605e-05 -4.32885e-12 -3.54822e-12 
1.96236e-05 -4.38543e-12 -3.57002e-12 
2.40235e-05 0.000191323 -3.65128e-12 
5.50096e-05 0.000182691 -3.629e-12 
-7.72636e-05 4.20614e-12 -3.44333e-12 
-4.39605e-05 4.32043e-12 -3.49386e-12 
-5.50096e-05 -0.000195996 -3.57543e-12 
-9.98278e-05 -0.000176629 -3.52362e-12 
-0.00296955 -2.21668e-12 -0.00851195 
-0.00188307 -2.08536e-12 -0.00846106 
-0.00189277 -0.0165915 -0.00938884 
-0.00298982 -0.0165751 -0.00943899 
-0.00295368 -1.1039e-12 -0.00851195 
-0.0018762 -9.86887e-13 -0.00846106 
-0.00190286 -0.0167 -0.00938884 
-0.00300486 -0.0166532 -0.00943899 
-0.00405931 -4.68633e-12 -0.0298625 
-0.0026287 -4.57772e-12 -0.0297718 
-0.00265549 -0.0253334 -0.0325569 
-0.00411117 -0.0252857 -0.0326478 
-0.00404355 -4.56698e-12 -0.0298625 
-0.00261955 -4.4745e-12 -0.0297718 
-0.00265102 -0.0253396 -0.0325569 
-0.0041013 -0.0252785 -0.0326478 
-0.00360964 -4.50224e-12 -0.0549153 
-0.00236997 -4.4259e-12 -0.0548416 
-0.00240178 -0.0241209 -0.0595932 
-0.00366782 -0.0240598 -0.0596676 
-0.00359488 -5.45225e-12 -0.0549153 
-0.00236072 -5.3897e-12 -0.0548416 
-0.00238531 -0.0240495 -0.0595932 
-0.00363888 -0.0239974 -0.0596676 
-0.00208158 -2.24749e-12 -0.0744049 
-0.00137776 -2.20833e-12 -0.0743787 
-0.00140242 -0.0144637 -0.0805224 
-0.00212493 -0.0144128 -0.0805492 
-0.0020673 -3.97407e-12 -0.0744049 
-0.00136876 -3.94373e-12 -0.0743787 
-0.00137808 -0.0143403 -0.0805224 
-0.00208414 -0.0143191 -0.0805492 
-7.09857e-06 1.00362e-12 -0.081695 
-4.44286e-06 1.00685e-12 -0.0816928 
-1.35184e-05 -7.06797e-05 -0.0883313 
-2.23795e-05 -5.16187e-05 -0.0883341 
7.09857e-06 -1.00362e-12 -0.081695 
4.44286e-06 -1.00685e-12 -0.0816928 
1.35184e-05 7.06797e-05 -0.0883313 
2.23795e-05 5.16187e-05 -0.0883341 
0.0020673 3.97407e-12 -0.0744049 
0.00136876 3.94373e-12 -0.0743787 
0.00137808 0.0143403 -0.0805224 
0.00208414 0.0143191 -0.0805492 
0.00208158 2.24749e-12 -0.0744049 
0.00137776 2.20833e-12 -0.0743787 
0.00140242 0.0144637 -0.0805224 
0.00212493 0.0144128 -0.0805492 
0.00359488 5.45225e-12 -0.0549153 
0.00236072 5.38971e-12 -0.0548416 
0.00238531 0.0240495 -0.0595932 
0.00363888 0.0239974 -0.0596676 
0.00360964 4.50224e-12 -0.0549153 
0.00236997 4.42591e-12 -0.0548416 
0.00240178 0.0241209 -0.0595932 
0.00366782 0.0240598 -0.0596676 
0.00404355 4.56699e-12 -0.0298625 
0.00261955 4.4745e-12 -0.0297718 
0.00265102 0.0253396 -0.0325569 
0.0041013 0.0252785 -0.0326478 
0.00405931 4.68633e-12 -0.0298625 
0.0026287 4.57772e-12 -0.0297718 
0.00265549 0.0253334 -0.0325569 
0.00411117 0.0252857 -0.0326478 
0.00295368 1.1039e-12 -0.00851195 
0.0018762 9.86888e-13 -0.00846106 
0.00190286 0.0167 -0.00938884 
0.00300486 0.0166532 -0.00943899 
0.00296955 2.21668e-12 -0.00851195 
0.00188307 2.08536e-12 -0.00846106 
0.00189277 0.0165915 -0.00938884 
0.00298982 0.0165751 -0.00943899 
7.72636e-05 -4.20614e-12 -3.44333e-12 
4.39605e-05 -4.32043e-12 -3.49386e-12 
5.50096e-05 0.000195996 -3.57543e-12 
9.98278e-05 0.000176629 -3.52362e-12 
-0.000122526 3.99018e-12 -3.25052e-12 
-7.72636e-05 4.18959e-12 -3.35145e-12 
-9.98278e-05 -0.000206607 -3.4327e-12 
-0.000164399 -0.000165385 -3.32887e-12 
-0.00413285 -2.41474e-12 -0.00849991 
-0.00296955 -2.20163e-12 -0.00851141 
-0.00298982 -0.0165471 -0.00944278 
-0.00417153 -0.0165116 -0.00943148 
-0.00410172 -1.29409e-12 -0.00849991 
-0.00295368 -1.11887e-12 -0.00851141 
-0.00300486 -0.0166766 -0.00944278 
-0.00419091 -0.0165659 -0.00943148 
-0.0054901 -4.83523e-12 -0.0297236 
-0.00405931 -4.67403e-12 -0.0298713 
-0.00411117 -0.0252677 -0.0326691 
-0.0055812 -0.0251558 -0.0325224 
-0.00546639 -4.70913e-12 -0.0297236 
-0.00404355 -4.5835e-12 -0.0298713 
-0.0041013 -0.025286 -0.0326691 
-0.00556191 -0.0251352 -0.0325224 
-0.00478915 -4.59437e-12 -0.0545269 
-0.00360964 -4.49556e-12 -0.054928 
-0.00366782 -0.0240593 -0.0597007 
-0.00488482 -0.0239088 -0.0593003 
-0.00476847 -5.54192e-12 -0.0545269 
-0.00359488 -5.46192e-12 -0.054928 
-0.00363888 -0.0239833 -0.0597007 
-0.00483896 -0.0238526 -0.0593003 
-0.00273076 -2.28866e-12 -0.0737728 
-0.00208158 -2.24805e-12 -0.07442 
-0.00212493 -0.0144329 -0.0805901 
-0.00279859 -0.0143046 -0.0799428 
-0.00271027 -4.01721e-12 -0.0737728 
-0.0020673 -3.97541e-12 -0.07442 
-0.00208414 -0.0142886 -0.0805901 
-0.00273753 -0.0142357 -0.0799428 
-1.03985e-05 1.00552e-12 -0.0809628 
-7.09857e-06 1.00061e-12 -0.0817109 
-2.23795e-05 -8.44725e-05 -0.0883776 
-3.29668e-05 -3.54467e-05 -0.0876289 
1.03985e-05 -1.00552e-12 -0.0809628 
7.09857e-06 -1.0006e-12 -0.0817109 
2.23795e-05 8.44725e-05 -0.0883776 
3.29668e-05 3.54467e-05 -0.0876289 
0.00271027 4.01721e-12 -0.0737728 
0.0020673 3.97541e-12 -0.07442 
0.00208414 0.0142886 -0.0805901 
0.00273753 0.0142357 -0.0799428 
0.00273076 2.28866e-12 -0.0737728 
0.00208158 2.24805e-12 -0.07442 
0.00212493 0.0144329 -0.0805901 
0.00279859 0.0143046 -0.0799428 
0.00476847 5.54192e-12 -0.0545269 
0.00359488 5.46192e-12 -0.054928 
0.00363888 0.0239833 -0.0597007 
0.00483896 0.0238526 -0.0593003 
0.00478915 4.59437e-12 -0.0545269 
0.00360964 4.49556e-12 -0.054928 
0.00366782 0.0240593 -0.0597007 
0.00488482 0.0239088 -0.0593003 
0.00546639 4.70913e-12 -0.0297236 
0.00404355 4.5835e-12 -0.0298713 
0.0041013 0.025286 -0.0326691 
0.00556191 0.0251352 -0.0325224 
0.0054901 4.83523e-12 -0.0297236 
0.00405931 4.67403e-12 -0.0298713 
0.00411117 0.0252677 -0.0326691 
0.0055812 0.0251558 -0.0325224 
0.00410172 1.29409e-12 -0.00849991 
0.00295368 1.11887e-12 -0.00851141 
0.00300486 0.0166766 -0.00944278 
0.00419091 0.0165659 -0.00943148 
0.00413285 2.41474e-12 -0.00849991 
0.00296955 2.20163e-12 -0.00851141 
0.00298982 0.0165471 -0.00944278 
0.00417153 0.0165116 -0.00943148 
0.000122526 -3.99018e-12 -3.25052e-12 
7.72636e-05 -4.18959e-12 -3.35144e-12 
9.98278e-05 0.000206607 -3.4327e-12 
0.000164399 0.000165385 -3.32887e-12 
-0.000180193 3.64267e-12 -2.93017e-12 
-0.000122526 3.9567e-12 -3.111e-12 
-0.000164399 -0.000231722 -3.18985e-12 
-0.000251223 -0.00014316 -3.00326e-12 
-0.00522456 -2.69726e-12 -0.00833201 
-0.00413285 -2.38294e-12 -0.00850952 
-0.00417153 -0.0164476 -0.0094403 
-0.00529226 -0.0163686 -0.00926613 
-0.00517205 -1.55962e-12 -0.00833201 
-0.00410172 -1.33587e-12 -0.00850952 
-0.00419091 -0.0166246 -0.0094403 
-0.00531434 -0.0163681 -0.00926613 
-0.00668754 -5.01588e-12 -0.0290235 
-0.0054901 -4.81099e-12 -0.0297461 
-0.0055812 -0.0251074 -0.032546 
-0.00683382 -0.02485 -0.0318261 
-0.00665642 -4.87652e-12 -0.0290235 
-0.00546639 -4.74502e-12 -0.0297461 
-0.00556191 -0.0251539 -0.032546 
-0.00680008 -0.0247981 -0.0318261 
-0.00568811 -4.68299e-12 -0.0530772 
-0.00478915 -4.59227e-12 -0.0545587 
-0.00488482 -0.023904 -0.0593329 
-0.0058306 -0.0235494 -0.0578514 
-0.00566182 -5.62716e-12 -0.0530772 
-0.00476847 -5.55459e-12 -0.0545587 
-0.00483896 -0.0238164 -0.0593329 
-0.0057638 -0.0235075 -0.0578514 
-0.00319543 -2.31714e-12 -0.0716802 
-0.00273076 -2.30861e-12 -0.0738113 
-0.00279859 -0.0143526 -0.0799807 
-0.00329058 -0.0140474 -0.0778468 
-0.00316719 -4.05174e-12 -0.0716802 
-0.00271027 -4.00413e-12 -0.0738113 
-0.00273753 -0.0141592 -0.0799807 
-0.00320695 -0.0140355 -0.0778468 
-1.49308e-05 1.01042e-12 -0.0786189 
-1.03985e-05 9.79019e-13 -0.0810037 
-3.29668e-05 -0.000116577 -0.0876685 
-4.43246e-05 1.59585e-06 -0.0852797 
1.49308e-05 -1.01042e-12 -0.0786189 
1.03985e-05 -9.79018e-13 -0.0810037 
3.29668e-05 0.000116577 -0.0876685 
4.43246e-05 -1.59585e-06 -0.0852797 
0.00316719 4.05174e-12 -0.0716802 
0.00271027 4.00413e-12 -0.0738113 
0.00273753 0.0141592 -0.0799807 
0.00320695 0.0140355 -0.0778468 
0.00319543 2.31714e-12 -0.0716802 
0.00273076 2.30861e-12 -0.0738113 
0.00279859 0.0143526 -0.0799807 
0.00329058 0.0140474 -0.0778468 
0.00566182 5.62716e-12 -0.0530772 
0.00476847 5.5546e-12 -0.0545587 
0.00483896 0.0238164 -0.0593329 
0.0057638 0.0235075 -0.0578514 
0.00568811 4.68299e-12 -0.0530772 
0.00478915 4.59227e-12 -0.0545587 
0.00488482 0.023904 -0.0593329 
0.0058306 0.0235494 -0.0578514 
0.00665642 4.87652e-12 -0.0290235 
0.00546639 4.74503e-12 -0.0297461 
0.00556191 0.0251539 -0.032546 
0.00680008 0.0247981 -0.0318261 
0.00668754 5.01588e-12 -0.0290235 
0.0054901 4.81099e-12 -0.0297461 
0.0055812 0.0251074 -0.032546 
0.00683382 0.02485 -0.0318261 
0.00517205 1.55962e-12 -0.00833201 
0.00410172 1.33587e-12 -0.00850952 
0.00419091 0.0166246 -0.0094403 
0.00531434 0.0163681 -0.00926613 
0.00522456 2.69726e-12 -0.00833201 
0.00413285 2.38294e-12 -0.00850952 
0.00417153 0.0164476 -0.0094403 
0.00529226 0.0163686 -0.00926613 
0.000180193 -3.64267e-12 -2.93016e-12 
0.000122526 -3.9567e-12 -3.111e-12 
0.000164399 0.000231722 -3.18985e-12 
0.000251223 0.00014316 -3.00325e-12 
-0.000245585 3.12955e-12 -2.4416e-12 
-0.000180193 3.57025e-12 -2.73447e-12 
-0.000251223 -0.000290105 -2.80572e-12 
-0.000353983 -9.59563e-05 -2.50267e-12 
-0.00594183 -3.05107e-12 -0.00786288 
-0.00522456 -2.63118e-12 -0.00836262 
-0.00529226 -0.0162234 -0.00927901 
-0.00604854 -0.0160435 -0.00879019 
-0.00586613 -1.87918e-12 -0.00786288 
-0.00517205 -1.66166e-12 -0.00836262 
-0.00531434 -0.0165046 -0.00927901 
-0.00606897 -0.0159227 -0.00879019 
-0.00724752 -5.17426e-12 -0.027279 
-0.00668754 -4.97256e-12 -0.0290734 
-0.00683382 -0.0247326 -0.0318376 
-0.00745657 -0.0241529 -0.0300489 
-0.00721314 -5.0105e-12 -0.027279 
-0.00665642 -4.95158e-12 -0.0290734 
-0.00680008 -0.0248381 -0.0318376 
-0.00740474 -0.0240347 -0.0300489 
-0.00596486 -4.70329e-12 -0.0497142 
-0.00568811 -4.70177e-12 -0.0531496 
-0.0058306 -0.023536 -0.0578585 
-0.00615164 -0.0227361 -0.0544207 
-0.00593417 -5.64304e-12 -0.0497142 
-0.00566182 -5.64001e-12 -0.0531496 
-0.0057638 -0.0234192 -0.0578585 
-0.00606352 -0.0227283 -0.0544207 
-0.00328782 -2.28967e-12 -0.0670041 
-0.00319543 -2.39061e-12 -0.0717697 
-0.00329058 -0.014158 -0.077849 
-0.00340362 -0.0134713 -0.0730744 
-0.00324911 -4.03698e-12 -0.0670041 
-0.00316719 -3.99899e-12 -0.0717697 
-0.00320695 -0.0138558 -0.077849 
-0.00329976 -0.0135834 -0.0730744 
-2.16064e-05 1.02015e-12 -0.0734422 
-1.49308e-05 9.2289e-13 -0.0787149 
-4.43246e-05 -0.000186736 -0.08528 
-5.40682e-05 8.13972e-05 -0.0799958 
2.16064e-05 -1.02014e-12 -0.0734422 
1.49308e-05 -9.22888e-13 -0.0787149 
4.43246e-05 0.000186736 -0.08528 
5.40682e-05 -8.13972e-05 -0.0799958 
0.00324911 4.03699e-12 -0.0670041 
0.00316719 3.99899e-12 -0.0717697 
0.00320695 0.0138558 -0.077849 
0.00329976 0.0135834 -0.0730744 
0.00328782 2.28967e-12 -0.0670041 
0.00319543 2.39061e-12 -0.0717697 
0.00329058 0.014158 -0.077849 
0.00340362 0.0134713 -0.0730744 
0.00593417 5.64304e-12 -0.0497142 
0.00566182 5.64002e-12 -0.0531496 
0.0057638 0.0234192 -0.0578585 
0.00606352 0.0227283 -0.0544207 
0.00596486 4.70329e-12 -0.0497142 
0.00568811 4.70177e-12 -0.0531496 
0.0058306 0.023536 -0.0578585 
0.00615164 0.0227361 -0.0544207 
0.00721314 5.0105e-12 -0.027279 
0.00665642 4.95158e-12 -0.0290734 
0.00680008 0.0248381 -0.0318376 
0.00740474 0.0240347 -0.0300489 
0.00724752 5.17426e-12 -0.027279 
0.00668754 4.97256e-12 -0.0290734 
0.00683382 0.0247326 -0.0318376 
0.00745657 0.0241529 -0.0300489 
0.00586613 1.87918e-12 -0.00786288 
0.00517205 1.66167e-12 -0.00836262 
0.00531434 0.0165046 -0.00927901 
0.00606897 0.0159227 -0.00879019 
0.00594183 3.05108e-12 -0.00786288 
0.00522456 2.63119e-12 -0.00836262 
0.00529226 0.0162234 -0.00927901 
0.00604854 0.0160435 -0.00879019 
0.000245585 -3.12955e-12 -2.44159e-12 
0.000180193 -3.57025e-12 -2.73447e-12 
0.000251223 0.000290105 -2.80572e-12 
0.000353983 9.59563e-05 -2.50267e-12 
-0.000307319 2.44359e-12 -1.76225e-12 
-0.000245585 2.96629e-12 -2.18913e-12 
-0.000353983 -0.000420326 -2.24212e-12 
-0.00045013 7.7459e-06 -1.80054e-12 
-0.00583062 -3.40099e-12 -0.00689655 
-0.00594183 -2.91495e-12 -0.00792842 
-0.00604854 -0.015719 -0.008798 
-0.00597317 -0.0153107 -0.0077906 
-0.00574544 -2.16651e-12 -0.00689655 
-0.00586613 -2.10672e-12 -0.00792842 
-0.00606897 -0.0162192 -0.008798 
-0.00599192 -0.0149355 -0.0077906 
-0.0066667 -5.17337e-12 -0.0238621 
-0.00724752 -5.1058e-12 -0.0273784 
-0.00745657 -0.0238925 -0.0300155 
-0.00691931 -0.0226206 -0.0265095 
-0.00664089 -4.97185e-12 -0.0238621 
-0.00721314 -5.15963e-12 -0.0273784 
-0.00740474 -0.0241064 -0.0300155 
-0.00685447 -0.0223802 -0.0265095 
-0.0052586 -4.51881e-12 -0.0433724 
-0.00596486 -4.78302e-12 -0.0498644 
-0.00615164 -0.0227126 -0.0543511 
-0.00546085 -0.0209935 -0.0478506 
-0.00522462 -5.45432e-12 -0.0433724 
-0.00593417 -5.64747e-12 -0.0498644 
-0.00606352 -0.0225228 -0.0543511 
-0.00536043 -0.021068 -0.0478506 
-0.00283438 -2.12322e-12 -0.0583756 
-0.00328782 -2.48701e-12 -0.0671937 
-0.00340362 -0.0137164 -0.0729777 
-0.00294904 -0.0122605 -0.0641385 
-0.00277929 -3.89145e-12 -0.0583756 
-0.00324911 -3.89513e-12 -0.0671937 
-0.00329976 -0.0131887 -0.0729777 
-0.00283277 -0.0126261 -0.0641385 
-3.24027e-05 1.03479e-12 -0.0639578 
-2.16064e-05 7.98622e-13 -0.0736468 
-5.40682e-05 -0.000328127 -0.0798892 
-6.05522e-05 0.000240093 -0.0701751 
3.24027e-05 -1.03478e-12 -0.0639578 
2.16064e-05 -7.98621e-13 -0.0736468 
5.40682e-05 0.000328127 -0.0798892 
6.05522e-05 -0.000240093 -0.0701751 
0.00277929 3.89145e-12 -0.0583756 
0.00324911 3.89513e-12 -0.0671937 
0.00329976 0.0131887 -0.0729777 
0.00283277 0.0126261 -0.0641385 
0.00283438 2.12322e-12 -0.0583756 
0.00328782 2.48701e-12 -0.0671937 
0.00340362 0.0137164 -0.0729777 
0.00294904 0.0122605 -0.0641385 
0.00522462 5.45432e-12 -0.0433724 
0.00593417 5.64747e-12 -0.0498644 
0.00606352 0.0225228 -0.0543511 
0.00536043 0.021068 -0.0478506 
0.0052586 4.51881e-12 -0.0433724 
0.00596486 4.78302e-12 -0.0498644 
0.00615164 0.0227126 -0.0543511 
0.00546085 0.0209935 -0.0478506 
0.00664089 4.97186e-12 -0.0238621 
0.00721314 5.15963e-12 -0.0273784 
0.00740474 0.0241064 -0.0300155 
0.00685447 0.0223802 -0.0265095 
0.0066667 5.17337e-12 -0.0238621 
0.00724752 5.10581e-12 -0.0273784 
0.00745657 0.0238925 -0.0300155 
0.00691931 0.0226206 -0.0265095 
0.00574544 2.16651e-12 -0.00689655 
0.00586613 2.10672e-12 -0.00792842 
0.00606897 0.0162192 -0.008798 
0.00599192 0.0149355 -0.0077906 
0.00583062 3.401e-12 -0.00689655 
0.00594183 2.91495e-12 -0.00792842 
0.00604854 0.015719 -0.008798 
0.00597317 0.0153107 -0.0077906 
0.000307319 -2.44359e-12 -1.76225e-12 
0.000245585 -2.96629e-12 -2.18913e-12 
0.000353983 0.000420326 -2.24212e-12 
0.00045013 -7.7459e-06 -1.80054e-12 
-0.000328875 1.66416e-12 -9.3252e-13 
-0.000307319 2.07044e-12 -1.47042e-12 
-0.00045013 -0.000703953 -1.48246e-12 
-0.000484643 0.000252407 -9.29199e-13 
-0.00443624 -3.5495e-12 -0.00521493 
-0.00583062 -3.12312e-12 -0.00700852 
-0.00597317 -0.0146002 -0.0077642 
-0.00458554 -0.013683 -0.00602118 
-0.00437114 -2.20309e-12 -0.00521493 
-0.00574544 -2.63464e-12 -0.00700852 
-0.00599192 -0.0155314 -0.0077642 
-0.00459411 -0.0128128 -0.00602118 
-0.00463106 -4.74028e-12 -0.0181154 
-0.0066667 -5.08319e-12 -0.0240421 
-0.00691931 -0.0220906 -0.0263687 
-0.00485539 -0.0194096 -0.0204555 
-0.00462336 -4.48411e-12 -0.0181154 
-0.00664089 -5.24785e-12 -0.0240421 
-0.00685447 -0.022477 -0.0263687 
-0.00479915 -0.018971 -0.0204555 
-0.00346618 -3.88491e-12 -0.0329884 
-0.0052586 -4.74785e-12 -0.0436578 
-0.00546085 -0.0209816 -0.0476178 
-0.00362448 -0.0174804 -0.036926 
-0.00343083 -4.82638e-12 -0.0329884 
-0.00522462 -5.42621e-12 -0.0436578 
-0.00536043 -0.02061 -0.0476178 
-0.00353577 -0.017759 -0.036926 
-0.00182937 -1.68609e-12 -0.0444722 
-0.00283438 -2.57488e-12 -0.058743 
-0.00294904 -0.0127814 -0.0638407 
-0.00191121 -0.00990551 -0.0495287 
-0.00175652 -3.48349e-12 -0.0444722 
-0.00277929 -3.57577e-12 -0.058743 
-0.00283277 -0.011823 -0.0638407 
-0.00179924 -0.0107493 -0.0495287 
-4.44733e-05 1.05106e-12 -0.0487554 
-3.24027e-05 5.55913e-13 -0.0643561 
-6.05522e-05 -0.000585462 -0.0698546 
-5.99631e-05 0.000524484 -0.0542071 
4.44733e-05 -1.05106e-12 -0.0487554 
3.24027e-05 -5.55911e-13 -0.0643561 
6.05522e-05 0.000585462 -0.0698546 
5.99631e-05 -0.000524484 -0.0542071 
0.00175652 3.48349e-12 -0.0444722 
0.00277929 3.57577e-12 -0.058743 
0.00283277 0.011823 -0.0638407 
0.00179924 0.0107493 -0.0495287 
0.00182937 1.68609e-12 -0.0444722 
0.00283438 2.57488e-12 -0.058743 
0.00294904 0.0127814 -0.0638407 
0.00191121 0.00990551 -0.0495287 
0.00343083 4.82638e-12 -0.0329884 
0.00522462 5.42621e-12 -0.0436578 
0.00536043 0.02061 -0.0476178 
0.00353577 0.017759 -0.036926 
0.00346618 3.88491e-12 -0.0329884 
0.0052586 4.74785e-12 -0.0436578 
0.00546085 0.0209816 -0.0476178 
0.00362448 0.0174804 -0.036926 
0.00462336 4.48411e-12 -0.0181154 
0.00664089 5.24785e-12 -0.0240421 
0.00685447 0.022477 -0.0263687 
0.00479915 0.018971 -0.0204555 
0.00463106 4.74028e-12 -0.0181154 
0.0066667 5.0832e-12 -0.0240421 
0.00691931 0.0220906 -0.0263687 
0.00485539 0.0194096 -0.0204555 
0.00437114 2.20309e-12 -0.00521493 
0.00574544 2.63464e-12 -0.00700852 
0.00599192 0.0155314 -0.0077642 
0.00459411 0.0128128 -0.00602118 
0.00443624 3.5495e-12 -0.00521493 
0.00583062 3.12312e-12 -0.00700852 
0.00597317 0.0146002 -0.0077642 
0.00458554 0.013683 -0.00602118 
0.000328875 -1.66416e-12 -9.32519e-13 
0.000307319 -2.07044e-12 -1.47042e-12 
0.00045013 0.000703953 -1.48246e-12 
0.000484643 -0.000252407 -9.29197e-13 
-0.000291673 9.91149e-13 -1.27539e-13 
-0.000328875 8.44692e-13 -6.46382e-13 
-0.000484643 -0.00126384 -5.84212e-13 
-0.000400184 0.000759927 -7.50876e-14 
-0.00172623 -3.05902e-12 -0.00270201 
-0.00443624 -2.98986e-12 -0.00536653 
-0.00458554 -0.0121651 -0.00589362 
-0.00178017 -0.0102303 -0.00330008 
-0.00183305 -1.5823e-12 -0.00270201 
-0.00437114 -3.09227e-12 -0.00536653 
-0.00459411 -0.0139201 -0.00589362 
-0.00194231 -0.00839178 -0.00330008 
-0.00161165 -3.34916e-12 -0.00969866 
-0.00463106 -4.67653e-12 -0.0184075 
-0.00485539 -0.0184413 -0.0201181 
-0.00171691 -0.0129695 -0.0114129 
-0.00168227 -3.10115e-12 -0.00969866 
-0.00462336 -4.93513e-12 -0.0184075 
-0.00479915 -0.0189921 -0.0201181 
-0.00176606 -0.0123598 -0.0114129 
-0.00116746 -2.45342e-12 -0.018042 
-0.00346618 -4.4445e-12 -0.0334841 
-0.00362448 -0.0175914 -0.0364096 
-0.00124417 -0.0109328 -0.0209243 
-0.0011321 -3.41854e-12 -0.018042 
-0.00343083 -4.71715e-12 -0.0334841 
-0.00353577 -0.01681 -0.0364096 
-0.0011822 -0.0116703 -0.0209243 
-0.000644102 -8.35061e-13 -0.0246102 
-0.00182937 -2.59613e-12 -0.0451233 
-0.00191121 -0.0109405 -0.048893 
-0.000682118 -0.00572572 -0.0283133 
-0.000515153 -2.61446e-12 -0.0246102 
-0.00175652 -2.87544e-12 -0.0451233 
-0.00179924 -0.00925416 -0.048893 
-0.000539244 -0.00736421 -0.0283133 
-8.18398e-05 1.03257e-12 -0.0270782 
-4.44733e-05 1.41165e-13 -0.0494632 
-5.99631e-05 -0.00100084 -0.0535303 
-8.56493e-05 0.000976818 -0.0310722 
8.18398e-05 -1.03257e-12 -0.0270782 
4.44733e-05 -1.41164e-13 -0.0494632 
5.99631e-05 0.00100084 -0.0535303 
8.56493e-05 -0.000976818 -0.0310722 
0.000515153 2.61446e-12 -0.0246102 
0.00175652 2.87544e-12 -0.0451233 
0.00179924 0.00925416 -0.048893 
0.000539244 0.00736421 -0.0283133 
0.000644102 8.35062e-13 -0.0246102 
0.00182937 2.59613e-12 -0.0451233 
0.00191121 0.0109405 -0.048893 
0.000682118 0.00572572 -0.0283133 
0.0011321 3.41854e-12 -0.018042 
0.00343083 4.71715e-12 -0.0334841 
0.00353577 0.01681 -0.0364096 
0.0011822 0.0116703 -0.0209243 
0.00116746 2.45342e-12 -0.018042 
0.00346618 4.44451e-12 -0.0334841 
0.00362448 0.0175914 -0.0364096 
0.00124417 0.0109328 -0.0209243 
0.00168227 3.10115e-12 -0.00969866 
0.00462336 4.93513e-12 -0.0184075 
0.00479915 0.0189921 -0.0201181 
0.00176606 0.0123598 -0.0114129 
0.00161165 3.34916e-12 -0.00969866 
0.00463106 4.67654e-12 -0.0184075 
0.00485539 0.0184413 -0.0201181 
0.00171691 0.0129695 -0.0114129 
0.00183305 1.5823e-12 -0.00270201 
0.00437114 3.09227e-12 -0.00536653 
0.00459411 0.0139201 -0.00589362 
0.00194231 0.00839178 -0.00330008 
0.00172623 3.05902e-12 -0.00270201 
0.00443624 2.98986e-12 -0.00536653 
0.00458554 0.0121651 -0.00589362 
0.00178017 0.0102303 -0.00330008 
0.000291673 -9.91148e-13 -1.27537e-13 
0.000328875 -8.4469e-13 -6.46381e-13 
0.000484643 0.00126384 -5.84211e-13 
0.000400184 -0.000759927 -7.50862e-14 
1.99992e-14 1.29884e-12 2.23617e-14 
-0.000291673 -8.71491e-13 1.10014e-13 
-0.000400184 -0.00254429 3.78877e-13 
1.33787e-13 0.00221725 1.2124e-13 
3.034e-13 -1.18666e-12 9.09572e-05 
-0.00172623 -1.93191e-12 -0.00279315 
-0.00178017 -0.00708144 -0.00293669 
5.62282e-13 -0.00259281 -0.000164144 
1.85876e-13 5.98003e-13 9.09572e-05 
-0.00183305 -3.0395e-12 -0.00279315 
-0.00194231 -0.0100356 -0.00293669 
3.2128e-13 0.000518908 -0.000164144 
6.1903e-13 -4.44692e-13 0.000333414 
-0.00161165 -3.50041e-12 -0.0101105 
-0.00171691 -0.0115574 -0.0107793 
7.51842e-13 -0.0011108 -0.000327571 
5.36204e-13 -2.09568e-13 0.000333414 
-0.00168227 -3.7349e-12 -0.0101105 
-0.00176606 -0.0120342 -0.0107793 
7.00099e-13 -0.000635458 -0.000327571 
6.84574e-13 1.00345e-13 0.000453917 
-0.00116746 -3.61622e-12 -0.0188228 
-0.00124417 -0.0114148 -0.020008 
7.68159e-13 9.20629e-05 -0.00063947 
6.40435e-13 -8.88824e-13 0.000453917 
-0.0011321 -3.14649e-12 -0.0188228 
-0.0011822 -0.00989299 -0.020008 
7.89981e-13 -0.00144691 -0.00063947 
4.55182e-13 6.39549e-13 0.000512768 
-0.000644102 -2.46951e-12 -0.0256655 
-0.000682118 -0.00760508 -0.0272091 
4.75542e-13 0.00106067 -0.000898352 
4.08276e-13 -1.16391e-12 0.000512768 
-0.000515153 -1.54819e-12 -0.0256655 
-0.000539244 -0.00479893 -0.0272091 
5.15564e-13 -0.00178309 -0.000898352 
2.6337e-14 1.0423e-12 0.000529133 
-8.18398e-05 -5.38026e-13 -0.0282321 
-8.56493e-05 -0.00162284 -0.0298997 
-1.96589e-14 0.00164462 -0.000995863 
-2.63384e-14 -1.0423e-12 0.000529133 
8.18398e-05 5.38027e-13 -0.0282321 
8.56493e-05 0.00162284 -0.0298997 
1.96575e-14 -0.00164462 -0.000995863 
-4.08277e-13 1.16391e-12 0.000512768 
0.000515153 1.5482e-12 -0.0256655 
0.000539244 0.00479893 -0.0272091 
-5.15566e-13 0.00178309 -0.000898352 
-4.55184e-13 -6.39547e-13 0.000512768 
0.000644102 2.46951e-12 -0.0256655 
0.000682118 0.00760508 -0.0272091 
-4.75544e-13 -0.00106067 -0.000898352 
-6.40436e-13 8.88825e-13 0.000453917 
0.0011321 3.14649e-12 -0.0188228 
0.0011822 0.00989299 -0.020008 
-7.89983e-13 0.00144691 -0.00063947 
-6.84576e-13 -1.00343e-13 0.000453917 
0.00116746 3.61622e-12 -0.0188228 
0.00124417 0.0114148 -0.020008 
-7.6816e-13 -9.20629e-05 -0.00063947 
-5.36205e-13 2.09569e-13 0.000333414 
0.00168227 3.7349e-12 -0.0101105 
0.00176606 0.0120342 -0.0107793 
-7.001e-13 0.000635458 -0.000327571 
-6.19031e-13 4.44693e-13 0.000333414 
0.00161165 3.50041e-12 -0.0101105 
0.00171691 0.0115574 -0.0107793 
-7.51843e-13 0.0011108 -0.000327571 
-1.85878e-13 -5.98002e-13 9.09572e-05 
0.00183305 3.0395e-12 -0.00279315 
0.00194231 0.0100356 -0.00293669 
-3.21281e-13 -0.000518908 -0.000164144 
-3.03401e-13 1.18667e-12 9.09572e-05 
0.00172623 1.93191e-12 -0.00279315 
0.00178017 0.00708144 -0.00293669 
-5.62283e-13 0.00259281 -0.000164144 
-2.00006e-14 -1.29884e-12 2.23631e-14 
0.000291673 8.71492e-13 1.10016e-13 
0.000400184 0.00254429 3.78878e-13 
-1.33789e-13 -0.00221725 1.21242e-13 
TENSORS Stress float 
-41.6266 0.00417191 0.00407472 
0.00417191 -14.5909 3.91774 
0.00407472 3.91774 -68.6414 
-41.6218 -0.000112264 2.09891e-09 
-0.000112264 -14.5938 3.91778 
2.09891e-09 3.91778 -68.6432 
-41.61 -1.42501e-08 -1.56905e-08 
-1.42501e-08 14.1131 2.81818e-08 
-1.56905e-08 2.81818e-08 -97.362 
-41.6137 0.00428416 0.00433178 
0.00428416 14.115 2.81815e-08 
0.00433178 2.81815e-08 -97.3601 
-41.6391 0.00395682 0.00394806 
0.00395682 -41.631 16.6883 
0.00394806 16.6883 -41.5887 
-41.6332 -7.02685e-05 -0.000126653 
-7.02685e-05 -41.6338 16.6884 
-0.000126653 16.6884 -41.5919 
-41.6216 3.53934e-09 -0.000231649 
3.53934e-09 -98.0985 12.7706 
-0.000231649 12.7706 14.8612 
-41.6271 0.00402709 0.00410014 
0.00402709 -98.0966 12.7705 
0.00410014 12.7705 14.8648 
-8.08116 0.00920719 0.00113412 
0.00920719 11.0649 10.6573 
0.00113412 10.6573 -27.1501 
-8.07376 -0.000154934 -0.000126657 
-0.000154934 11.06 10.6574 
-0.000126657 10.6574 -27.1525 
-8.04763 2.36256e-09 -0.000231633 
2.36256e-09 -0.609071 12.7706 
-0.000231633 12.7706 -15.5096 
-8.05267 0.00936212 0.00114204 
0.00936212 -0.606054 12.7705 
0.00114204 12.7705 -15.5075 
-8.08409 0.00910193 0.000670614 
0.00910193 -10.9461 5.9447 
0.000670614 5.9447 -5.13606 
-8.07656 -0.000147285 -0.000590161 
-0.000147285 -10.9511 5.94471 
-0.000590161 5.94471 -5.13864 
-8.05051 -2.62041e-10 -0.000587685 
-2.62041e-10 -12.7001 8.05795 
-0.000587685 8.05795 -3.41561 
-8.05603 0.00924922 0.000785993 
0.00924922 -12.6971 8.05795 
0.000785993 8.05795 -3.41311 
-3.59819 0.00985548 -0.00118014 
0.00985548 4.26436 7.37265 
-0.00118014 7.37265 -11.3687 
-3.59103 -0.00014237 -0.000590159 
-0.00014237 4.25969 7.37266 
-0.000590159 7.37266 -11.3712 
-3.56276 1.37646e-10 -0.000587686 
1.37646e-10 -1.31858 8.05795 
-0.000587686 8.05795 -5.82117 
-3.56783 0.00999785 -0.00126551 
0.00999785 -1.31595 8.05795 
-0.00126551 8.05795 -5.81872 
-3.59436 0.00995061 -0.00163785 
0.00995061 -2.85275 5.85729 
-0.00163785 5.85729 -4.2554 
-3.58752 -0.000135089 -0.00104787 
-0.000135089 -2.8574 5.85721 
-0.00104787 5.85721 -4.25759 
-3.55918 1.72837e-10 -0.000964522 
1.72837e-10 -6.33389 6.5425 
-0.000964522 6.5425 -0.809436 
-3.56367 0.0100857 -0.00164234 
0.0100857 -6.33127 6.54259 
-0.00164234 6.54259 -0.807565 
-1.64604 0.00726153 -0.00305338 
0.00726153 3.19677 6.12384 
-0.00305338 6.12384 -6.41148 
-1.64082 -9.51564e-05 -0.00104787 
-9.51564e-05 3.1935 6.12376 
-0.00104787 6.12376 -6.41343 
-1.61978 1.6772e-10 -0.000964522 
1.6772e-10 -1.11044 6.5425 
-0.000964522 6.5425 -2.13053 
-1.6238 0.00735668 -0.00318978 
0.00735668 -1.1086 6.54259 
-0.00318978 6.54259 -2.12835 
-1.63689 0.00748743 -0.00338252 
0.00748743 -1.89491 5.20213 
-0.00338252 5.20213 -1.32895 
-1.63238 -8.8993e-05 -0.00137701 
-8.8993e-05 -1.89815 5.202 
-0.00137701 5.202 -1.33022 
-1.61117 4.32618e-11 -0.00124501 
4.32618e-11 -2.84246 5.62075 
-0.00124501 5.62075 -0.407112 
-1.61382 0.00757643 -0.00347027 
0.00757643 -2.84063 5.62088 
-0.00347027 5.62088 -0.406294 
-0.487724 0.00256104 -0.00413441 
0.00256104 1.93405 5.31808 
-0.00413441 5.31808 -2.8683 
-0.485566 -3.70047e-05 -0.00137701 
-3.70047e-05 1.93287 5.31796 
-0.00137701 5.31796 -2.86928 
-0.477903 5.42646e-11 -0.00124501 
5.42646e-11 0.115415 5.62075 
-0.00124501 5.62075 -1.05948 
-0.479952 0.00259805 -0.00428151 
0.00259805 0.116075 5.62088 
-0.00428151 5.62088 -1.0581 
-0.475761 0.00284956 -0.00425135 
0.00284956 -1.57676 5.06849 
-0.00425135 5.06849 0.630552 
-0.474457 -2.75819e-05 -0.00149395 
-2.75819e-05 -1.57791 5.06835 
-0.00149395 5.06835 0.630395 
-0.466602 -7.32852e-13 -0.00134663 
-7.32852e-13 -1.23866 5.37114 
-0.00134663 5.37114 0.28329 
-0.466932 0.00287714 -0.00438313 
0.00287714 -1.23801 5.37128 
-0.00438313 5.37128 0.28297 
0.475761 -0.00284956 -0.00425135 
-0.00284956 1.57676 5.06849 
-0.00425135 5.06849 -0.630552 
0.474457 2.75819e-05 -0.00149395 
2.75819e-05 1.57791 5.06835 
-0.00149395 5.06835 -0.630395 
0.466603 7.32852e-13 -0.00134663 
7.32852e-13 1.23866 5.37114 
-0.00134663 5.37114 -0.28329 
0.466932 -0.00287714 -0.00438313 
-0.00287714 1.23801 5.37128 
-0.00438313 5.37128 -0.28297 
0.487725 -0.00256104 -0.00413441 
-0.00256104 -1.93405 5.31808 
-0.00413441 5.31808 2.8683 
0.485566 3.70047e-05 -0.00137701 
3.70047e-05 -1.93287 5.31796 
-0.00137701 5.31796 2.86928 
0.477903 -5.42646e-11 -0.00124501 
-5.42646e-11 -0.115415 5.62075 
-0.00124501 5.62075 1.05949 
0.479952 -0.00259805 -0.00428151 
-0.00259805 -0.116075 5.62088 
-0.00428151 5.62088 1.0581 
1.63689 -0.00748743 -0.00338252 
-0.00748743 1.89491 5.20213 
-0.00338252 5.20213 1.32895 
1.63238 8.8993e-05 -0.00137701 
8.8993e-05 1.89815 5.202 
-0.00137701 5.202 1.33022 
1.61117 -4.32618e-11 -0.00124501 
-4.32618e-11 2.84246 5.62075 
-0.00124501 5.62075 0.407112 
1.61382 -0.00757643 -0.00347027 
-0.00757643 2.84063 5.62088 
-0.00347027 5.62088 0.406294 
1.64604 -0.00726153 -0.00305338 
-0.00726153 -3.19677 6.12384 
-0.00305338 6.12384 6.41148 
1.64083 9.51564e-05 -0.00104787 
9.51564e-05 -3.1935 6.12376 
-0.00104787 6.12376 6.41343 
1.61978 -1.6772e-10 -0.000964522 
-1.6772e-10 1.11044 6.5425 
-0.000964522 6.5425 2.13053 
1.6238 -0.00735668 -0.00318978 
-0.00735668 1.1086 6.54259 
-0.00318978 6.54259 2.12835 
3.59436 -0.00995061 -0.00163785 
-0.00995061 2.85275 5.85729 
-0.00163785 5.85729 4.2554 
3.58752 0.000135089 -0.00104787 
0.000135089 2.8574 5.85721 
-0.00104787 5.85721 4.25759 
3.55918 -1.72837e-10 -0.000964522 
-1.72837e-10 6.33389 6.5425 
-0.000964522 6.5425 0.809436 
3.56367 -0.0100857 -0.00164234 
-0.0100857 6.33127 6.54259 
-0.00164234 6.54259 0.807565 
3.59819 -0.00985548 -0.00118014 
-0.00985548 -4.26436 7.37265 
-0.00118014 7.37265 11.3687 
3.59103 0.00014237 -0.000590159 
0.00014237 -4.25969 7.37266 
-0.000590159 7.37266 11.3712 
3.56276 -1.37646e-10 -0.000587686 
-1.37646e-10 1.31858 8.05795 
-0.000587686 8.05795 5.82117 
3.56783 -0.00999785 -0.00126551 
-0.00999785 1.31595 8.05795 
-0.00126551 8.05795 5.81872 
8.08409 -0.00910193 0.000670614 
-0.00910193 10.9461 5.9447 
0.000670614 5.9447 5.13606 
8.07656 0.000147285 -0.000590161 
0.000147285 10.9511 5.94471 
-0.000590161 5.94471 5.13864 
8.05051 2.62041e-10 -0.000587685 
2.62041e-10 12.7001 8.05795 
-0.000587685 8.05795 3.41561 
8.05603 -0.00924922 0.000785993 
-0.00924922 12.6971 8.05795 
0.000785993 8.05795 3.41311 
8.08116 -0.00920719 0.00113412 
-0.00920719 -11.0649 10.6573 
0.00113412 10.6573 27.1501 
8.07376 0.000154934 -0.000126657 
0.000154934 -11.06 10.6574 
-0.000126657 10.6574 27.1525 
8.04763 -2.36256e-09 -0.000231633 
-2.36256e-09 0.609071 12.7706 
-0.000231633 12.7706 15.5096 
8.05267 -0.00936212 0.00114204 
-0.00936212 0.606054 12.7705 
0.00114204 12.7705 15.5075 
41.6391 -0.00395682 0.00394806 
-0.00395682 41.631 16.6883 
0.00394806 16.6883 41.5887 
41.6332 7.02685e-05 -0.000126653 
7.02685e-05 41.6338 16.6884 
-0.000126653 16.6884 41.5919 
41.6216 -3.53934e-09 -0.000231649 
-3.53934e-09 98.0985 12.7706 
-0.000231649 12.7706 -14.8612 
41.6271 -0.00402709 0.00410014 
-0.00402709 98.0966 12.7705 
0.00410014 12.7705 -14.8648 
41.6266 -0.00417191 0.00407472 
-0.00417191 14.5909 3.91774 
0.00407472 3.91774 68.6414 
41.6218 0.000112264 2.09891e-09 
0.000112264 14.5938 3.91778 
2.09891e-09 3.91778 68.6432 
41.61 1.42501e-08 -1.56905e-08 
1.42501e-08 -14.1131 2.81818e-08 
-1.56905e-08 2.81818e-08 97.362 
41.6137 -0.00428416 0.00433178 
-0.00428416 -14.115 2.81815e-08 
0.00433178 2.81815e-08 97.3601 
-41.6398 0.0092415 0.00915644 
0.0092415 -14.5932 3.91794 
0.00915644 3.91794 -68.6455 
-41.624 0.00393248 0.00407472 
0.00393248 -14.603 3.91806 
0.00407472 3.91806 -68.6516 
-41.6103 0.00428416 0.00433178 
0.00428416 14.1033 2.81821e-08 
0.00433178 2.81821e-08 -97.3715 
-41.6227 0.00959318 0.00970068 
0.00959318 14.1096 2.81811e-08 
0.00970068 2.81811e-08 -97.3654 
-41.6565 0.00881875 0.00875431 
0.00881875 -41.6335 16.6891 
0.00875431 16.6891 -41.5885 
-41.6371 0.00379691 0.00367258 
0.00379691 -41.6426 16.6895 
0.00367258 16.6895 -41.5988 
-41.623 0.00402709 0.00360082 
0.00402709 -98.1065 12.7715 
0.00360082 12.7715 14.8509 
-41.6411 0.00904894 0.00896973 
0.00904894 -98.1 12.7711 
0.00896973 12.7711 14.8626 
-8.10149 0.0203211 0.00230352 
0.0203211 11.0654 10.6578 
0.00230352 10.6578 -27.1508 
-8.07742 0.00887181 0.000858639 
0.00887181 11.0492 10.6582 
0.000858639 10.6582 -27.1586 
-8.04772 0.00936212 0.000642725 
0.00936212 -0.619237 12.7715 
0.000642725 12.7715 -15.5199 
-8.06438 0.0208114 0.00220422 
0.0208114 -0.609109 12.7711 
0.00220422 12.7711 -15.5134 
-8.10493 0.020113 0.000833105 
0.020113 -10.9467 5.94699 
0.000833105 5.94699 -5.13531 
-8.08051 0.00878028 -0.000611776 
0.00878028 -10.9628 5.947 
-0.000611776 5.947 -5.14354 
-8.05054 0.00924922 -0.000484325 
0.00924922 -12.7108 8.06026 
-0.000484325 8.06026 -3.42553 
-8.06861 0.0205819 0.00107717 
0.0205819 -12.7007 8.06028 
0.00107717 8.06028 -3.41757 
-3.61791 0.0216114 -0.003253 
0.0216114 4.26565 7.3749 
-0.003253 7.3749 -11.3684 
-3.59488 0.00954909 -0.00246253 
0.00954909 4.25046 7.37491 
-0.00246253 7.37491 -11.3763 
-3.56273 0.00999785 -0.00253582 
0.00999785 -1.32671 8.06026 
-0.00253582 8.06026 -5.83125 
-3.5793 0.0220602 -0.00343667 
0.0220602 -1.31788 8.06028 
-0.00343667 8.06028 -5.82351 
-3.61286 0.0218332 -0.00468753 
0.0218332 -2.8535 5.86127 
-0.00468753 5.86127 -4.25434 
-3.59083 0.00966051 -0.00389705 
0.00966051 -2.86861 5.86102 
-0.00389705 5.86102 -4.26125 
-3.55887 0.0100857 -0.00371922 
0.0100857 -6.34419 6.54638 
-0.00371922 6.54638 -0.817631 
-3.57357 0.0222584 -0.00462006 
0.0222584 -6.3354 6.54664 
-0.00462006 6.54664 -0.811732 
-1.66049 0.0158587 -0.00776098 
0.0158587 3.19842 6.1278 
-0.00776098 6.1278 -6.41116 
-1.64382 0.00705854 -0.00531259 
0.00705854 3.18784 6.12756 
-0.00531259 6.12756 -6.41725 
-1.61975 0.00735668 -0.00526665 
0.00735668 -1.11501 6.54638 
-0.00526665 6.54638 -2.13847 
-1.63276 0.0161568 -0.00796352 
0.0161568 -1.10884 6.54664 
-0.00796352 6.54664 -2.13163 
-1.64891 0.01635 -0.00878813 
0.01635 -1.89617 5.20732 
-0.00878813 5.20732 -1.32816 
-1.63441 0.00730141 -0.00633974 
0.00730141 -1.90667 5.20693 
-0.00633974 5.20693 -1.33214 
-1.61085 0.00757643 -0.00614585 
0.00757643 -2.85064 5.62574 
-0.00614585 5.62574 -0.411742 
-1.61956 0.016625 -0.00884272 
0.016625 -2.8445 5.62616 
-0.00884272 5.62616 -0.409167 
-0.493908 0.00558385 -0.0104022 
0.00558385 1.93584 5.32326 
-0.0104022 5.32326 -2.86835 
-0.487055 0.00248016 -0.00709163 
0.00248016 1.93202 5.32289 
-0.00709163 5.32289 -2.87138 
-0.478003 0.00259805 -0.00695709 
0.00259805 0.115338 5.62574 
-0.00695709 5.62574 -1.06375 
-0.484533 0.00570173 -0.0105732 
0.00570173 0.117556 5.62616 
-0.0105732 5.62616 -1.05943 
-0.47898 0.00620422 -0.0107659 
0.00620422 -1.57843 5.0741 
-0.0107659 5.0741 0.630996 
-0.47477 0.00279505 -0.00745528 
0.00279505 -1.58213 5.07368 
-0.00745528 5.07368 0.630484 
-0.466375 0.00287714 -0.00727481 
0.00287714 -1.24312 5.37654 
-0.00727481 5.37654 0.283089 
-0.467582 0.00628631 -0.0108909 
0.00628631 -1.24094 5.377 
-0.0108909 5.377 0.282115 
0.47898 -0.00620422 -0.0107659 
-0.00620422 1.57843 5.0741 
-0.0107659 5.0741 -0.630996 
0.47477 -0.00279505 -0.00745528 
-0.00279505 1.58213 5.07368 
-0.00745528 5.07368 -0.630484 
0.466376 -0.00287714 -0.00727481 
-0.00287714 1.24312 5.37654 
-0.00727481 5.37654 -0.283089 
0.467582 -0.00628631 -0.0108909 
-0.00628631 1.24094 5.377 
-0.0108909 5.377 -0.282115 
0.493908 -0.00558385 -0.0104022 
-0.00558385 -1.93584 5.32326 
-0.0104022 5.32326 2.86835 
0.487055 -0.00248016 -0.00709163 
-0.00248016 -1.93202 5.32289 
-0.00709163 5.32289 2.87138 
0.478003 -0.00259805 -0.00695709 
-0.00259805 -0.115338 5.62574 
-0.00695709 5.62574 1.06375 
0.484533 -0.00570173 -0.0105732 
-0.00570173 -0.117556 5.62616 
-0.0105732 5.62616 1.05943 
1.64891 -0.01635 -0.00878813 
-0.01635 1.89617 5.20732 
-0.00878813 5.20732 1.32816 
1.63441 -0.00730141 -0.00633974 
-0.00730141 1.90667 5.20693 
-0.00633974 5.20693 1.33214 
1.61085 -0.00757643 -0.00614585 
-0.00757643 2.85064 5.62574 
-0.00614585 5.62574 0.411742 
1.61956 -0.016625 -0.00884272 
-0.016625 2.8445 5.62616 
-0.00884272 5.62616 0.409168 
1.66049 -0.0158587 -0.00776098 
-0.0158587 -3.19842 6.1278 
-0.00776098 6.1278 6.41116 
1.64382 -0.00705854 -0.00531259 
-0.00705854 -3.18784 6.12756 
-0.00531259 6.12756 6.41725 
1.61975 -0.00735668 -0.00526665 
-0.00735668 1.11501 6.54638 
-0.00526665 6.54638 2.13847 
1.63276 -0.0161568 -0.00796352 
-0.0161568 1.10884 6.54664 
-0.00796352 6.54664 2.13163 
3.61286 -0.0218332 -0.00468753 
-0.0218332 2.8535 5.86127 
-0.00468753 5.86127 4.25434 
3.59083 -0.00966051 -0.00389705 
-0.00966051 2.86861 5.86102 
-0.00389705 5.86102 4.26125 
3.55887 -0.0100857 -0.00371922 
-0.0100857 6.34419 6.54638 
-0.00371922 6.54638 0.817632 
3.57357 -0.0222584 -0.00462006 
-0.0222584 6.3354 6.54664 
-0.00462006 6.54664 0.811732 
3.61791 -0.0216114 -0.003253 
-0.0216114 -4.26565 7.3749 
-0.003253 7.3749 11.3684 
3.59488 -0.00954909 -0.00246253 
-0.00954909 -4.25046 7.37491 
-0.00246253 7.37491 11.3763 
3.56273 -0.00999785 -0.00253582 
-0.00999785 1.32671 8.06026 
-0.00253582 8.06026 5.83125 
3.5793 -0.0220602 -0.00343667 
-0.0220602 1.31788 8.06028 
-0.00343667 8.06028 5.82351 
8.10493 -0.020113 0.000833105 
-0.020113 10.9467 5.94699 
0.000833105 5.94699 5.13531 
8.08051 -0.00878028 -0.000611776 
-0.00878028 10.9628 5.947 
-0.000611776 5.947 5.14354 
8.05054 -0.00924922 -0.000484325 
-0.00924922 12.7108 8.06026 
-0.000484325 8.06026 3.42553 
8.06861 -0.0205819 0.00107717 
-0.0205819 12.7007 8.06028 
0.00107717 8.06028 3.41757 
8.10149 -0.0203211 0.00230352 
-0.0203211 -11.0654 10.6578 
0.00230352 10.6578 27.1508 
8.07742 -0.00887181 0.000858639 
-0.00887181 -11.0492 10.6582 
0.000858639 10.6582 27.1586 
8.04772 -0.00936212 0.000642725 
-0.00936212 0.619237 12.7715 
0.000642725 12.7715 15.5199 
8.06438 -0.0208114 0.00220422 
-0.0208114 0.609109 12.7711 
0.00220422 12.7711 15.5134 
41.6565 -0.00881875 0.00875431 
-0.00881875 41.6335 16.6891 
0.00875431 16.6891 41.5885 
41.6371 -0.00379691 0.00367258 
-0.00379691 41.6426 16.6895 
0.00367258 16.6895 41.5988 
41.623 -0.00402709 0.00360082 
-0.00402709 98.1065 12.7715 
0.00360082 12.7715 -14.8509 
41.6411 -0.00904894 0.00896973 
-0.00904894 98.1 12.7711 
0.00896973 12.7711 -14.8626 
41.6398 -0.0092415 0.00915644 
-0.0092415 14.5932 3.91794 
0.00915644 3.91794 68.6455 
41.624 -0.00393248 0.00407472 
-0.00393248 14.603 3.91806 
0.00407472 3.91806 68.6516 
41.6103 -0.00428416 0.00433178 
-0.00428416 -14.1033 2.81821e-08 
0.00433178 2.81821e-08 97.3715 
41.6227 -0.00959318 0.00970068 
-0.00959318 -14.1096 2.81811e-08 
0.00970068 2.81811e-08 97.3654 
-41.6655 0.0165079 0.0164469 
0.0165079 -14.602 3.91844 
0.0164469 3.91844 -68.6569 
-41.6339 0.00896534 0.00915644 
0.00896534 -14.6212 3.91862 
0.00915644 3.91862 -68.6694 
-41.6151 0.00959318 0.00970068 
0.00959318 14.0823 2.81823e-08 
0.00970068 2.81823e-08 -97.3917 
-41.6406 0.0171357 0.0173296 
0.0171357 14.0953 2.81805e-08 
0.0173296 2.81805e-08 -97.3792 
-41.6902 0.0158071 0.0156824 
0.0158071 -41.6424 16.691 
0.0156824 16.691 -41.5919 
-41.6518 0.00860312 0.00839195 
0.00860312 -41.6605 16.6918 
0.00839195 16.6918 -41.6121 
-41.6319 0.00904894 0.00834468 
0.00904894 -98.1234 12.7732 
0.00834468 12.7732 14.8308 
-41.6679 0.016253 0.0159736 
0.016253 -98.1102 12.7726 
0.0159736 12.7726 14.8536 
-8.13997 0.0358461 0.00372313 
0.0358461 11.0612 10.6592 
0.00372313 10.6592 -27.1559 
-8.09313 0.0199051 0.00194116 
0.0199051 11.0293 10.6598 
0.00194116 10.6598 -27.1708 
-8.05324 0.0208114 0.00157917 
0.0208114 -0.639785 12.7732 
0.00157917 12.7732 -15.5417 
-8.08683 0.0367524 0.00348217 
0.0367524 -0.618872 12.7726 
0.00348217 12.7726 -15.529 
-8.14391 0.0355432 0.000980825 
0.0355432 -10.9534 5.95196 
0.000980825 5.95196 -5.13735 
-8.09697 0.0197232 -0.000801139 
0.0197232 -10.9851 5.95195 
-0.000801139 5.95195 -5.15259 
-8.05645 0.0205819 -0.000512073 
0.0205819 -12.7328 8.06527 
-0.000512073 8.06527 -3.44541 
-8.09194 0.0364019 0.00139093 
0.0364019 -12.7119 8.06533 
0.00139093 8.06533 -3.43079 
-3.65468 0.0376834 -0.00616944 
0.0376834 4.26351 7.37976 
-0.00616944 7.37976 -11.3714 
-3.61064 0.0212424 -0.00488725 
0.0212424 4.23405 7.37978 
-0.00488725 7.37978 -11.386 
-3.56804 0.0220602 -0.00502591 
0.0220602 -1.34291 8.06527 
-0.00502591 8.06527 -5.85162 
-3.6008 0.0385012 -0.00646873 
0.0385012 -1.32465 8.06533 
-0.00646873 8.06533 -5.83712 
-3.64687 0.0381197 -0.00878382 
0.0381197 -2.86053 5.86972 
-0.00878382 5.86972 -4.25517 
-3.60512 0.0215181 -0.00750162 
0.0215181 -2.88973 5.86929 
-0.00750162 5.86929 -4.26772 
-3.563 0.0222584 -0.00719237 
0.0222584 -6.3655 6.55478 
-0.00719237 6.55478 -0.834069 
-3.5918 0.03886 -0.00863519 
0.03886 -6.34733 6.55529 
-0.00863519 6.55529 -0.823447 
-1.68723 0.0274444 -0.0140201 
0.0274444 3.19866 6.13623 
-0.0140201 6.13623 -6.4133 
-1.65564 0.0156128 -0.0105751 
0.0156128 3.17823 6.13582 
-0.0105751 6.13582 -6.42446 
-1.62392 0.0161568 -0.0105358 
0.0161568 -1.12377 6.55478 
-0.0105358 6.55478 -2.15418 
-1.64931 0.0279885 -0.0142832 
0.0279885 -1.11099 6.55529 
-0.0142832 6.55529 -2.14156 
-1.6707 0.0283122 -0.0158745 
0.0283122 -1.90286 5.21829 
-0.0158745 5.21829 -1.32831 
-1.64353 0.0161781 -0.0124295 
0.0161781 -1.92295 5.21762 
-0.0124295 5.21762 -1.33538 
-1.61304 0.016625 -0.0121373 
0.016625 -2.86769 5.63658 
-0.0121373 5.63658 -0.421137 
-1.6302 0.0287591 -0.0158847 
0.0287591 -2.85502 5.63734 
-0.0158847 5.63734 -0.416651 
-0.50542 0.00963001 -0.0185716 
0.00963001 1.93876 5.33422 
-0.0185716 5.33422 -2.86992 
-0.492436 0.00546577 -0.0140435 
0.00546577 1.93133 5.33359 
-0.0140435 5.33359 -2.87547 
-0.480323 0.00570173 -0.0138677 
0.00570173 0.11576 5.63658 
-0.0138677 5.63658 -1.07202 
-0.492838 0.00986597 -0.0187429 
0.00986597 0.120364 5.63734 
-0.0187429 5.63734 -1.0641 
-0.484629 0.0106946 -0.0192236 
0.0106946 -1.58369 5.08596 
-0.0192236 5.08596 0.63174 
-0.47686 0.00618321 -0.0146955 
0.00618321 -1.59065 5.08526 
-0.0146955 5.08526 0.630928 
-0.466321 0.00628631 -0.0144444 
0.00628631 -1.25273 5.38825 
-0.0144444 5.38825 0.28247 
-0.468921 0.0107977 -0.0193197 
0.0107977 -1.24824 5.38909 
-0.0193197 5.38909 0.280584 
0.484629 -0.0106946 -0.0192236 
-0.0106946 1.58369 5.08596 
-0.0192236 5.08596 -0.63174 
0.47686 -0.00618321 -0.0146955 
-0.00618321 1.59065 5.08526 
-0.0146955 5.08526 -0.630928 
0.466321 -0.00628631 -0.0144444 
-0.00628631 1.25273 5.38825 
-0.0144444 5.38825 -0.28247 
0.468921 -0.0107977 -0.0193197 
-0.0107977 1.24824 5.38909 
-0.0193197 5.38909 -0.280584 
0.505421 -0.00963001 -0.0185716 
-0.00963001 -1.93876 5.33422 
-0.0185716 5.33422 2.86992 
0.492436 -0.00546577 -0.0140435 
-0.00546577 -1.93133 5.33359 
-0.0140435 5.33359 2.87547 
0.480323 -0.00570173 -0.0138677 
-0.00570173 -0.11576 5.63658 
-0.0138677 5.63658 1.07202 
0.492838 -0.00986597 -0.0187429 
-0.00986597 -0.120364 5.63734 
-0.0187429 5.63734 1.0641 
1.6707 -0.0283122 -0.0158745 
-0.0283122 1.90286 5.21829 
-0.0158745 5.21829 1.32831 
1.64353 -0.0161781 -0.0124295 
-0.0161781 1.92296 5.21762 
-0.0124295 5.21762 1.33538 
1.61304 -0.016625 -0.0121373 
-0.016625 2.86769 5.63658 
-0.0121373 5.63658 0.421137 
1.6302 -0.0287591 -0.0158847 
-0.0287591 2.85502 5.63734 
-0.0158847 5.63734 0.416651 
1.68723 -0.0274444 -0.0140201 
-0.0274444 -3.19866 6.13623 
-0.0140201 6.13623 6.4133 
1.65564 -0.0156128 -0.0105751 
-0.0156128 -3.17823 6.13582 
-0.0105751 6.13582 6.42446 
1.62392 -0.0161568 -0.0105358 
-0.0161568 1.12377 6.55478 
-0.0105358 6.55478 2.15418 
1.64931 -0.0279885 -0.0142832 
-0.0279885 1.11099 6.55529 
-0.0142832 6.55529 2.14156 
3.64687 -0.0381197 -0.00878382 
-0.0381197 2.86053 5.86972 
-0.00878382 5.86972 4.25517 
3.60512 -0.0215181 -0.00750162 
-0.0215181 2.88973 5.86929 
-0.00750162 5.86929 4.26772 
3.563 -0.0222584 -0.00719237 
-0.0222584 6.3655 6.55478 
-0.00719237 6.55478 0.83407 
3.5918 -0.03886 -0.00863519 
-0.03886 6.34733 6.55529 
-0.00863519 6.55529 0.823447 
3.65469 -0.0376834 -0.00616944 
-0.0376834 -4.26351 7.37976 
-0.00616944 7.37976 11.3714 
3.61064 -0.0212424 -0.00488725 
-0.0212424 -4.23405 7.37978 
-0.00488725 7.37978 11.386 
3.56804 -0.0220602 -0.00502591 
-0.0220602 1.34291 8.06527 
-0.00502591 8.06527 5.85162 
3.6008 -0.0385012 -0.00646873 
-0.0385012 1.32465 8.06533 
-0.00646873 8.06533 5.83712 
8.14391 -0.0355432 0.000980825 
-0.0355432 10.9534 5.95196 
0.000980825 5.95196 5.13735 
8.09697 -0.0197232 -0.000801139 
-0.0197232 10.9851 5.95195 
-0.000801139 5.95195 5.15259 
8.05645 -0.0205819 -0.000512073 
-0.0205819 12.7328 8.06527 
-0.000512073 8.06527 3.44541 
8.09194 -0.0364019 0.00139093 
-0.0364019 12.7119 8.06533 
0.00139093 8.06533 3.43079 
8.13997 -0.0358461 0.00372313 
-0.0358461 -11.0612 10.6592 
0.00372313 10.6592 27.1559 
8.09313 -0.0199051 0.00194116 
-0.0199051 -11.0293 10.6598 
0.00194116 10.6598 27.1708 
8.05324 -0.0208114 0.00157917 
-0.0208114 0.639785 12.7732 
0.00157917 12.7732 15.5417 
8.08683 -0.0367524 0.00348217 
-0.0367524 0.618873 12.7726 
0.00348217 12.7726 15.529 
41.6902 -0.0158071 0.0156824 
-0.0158071 41.6424 16.691 
0.0156824 16.691 41.5919 
41.6518 -0.00860312 0.00839195 
-0.00860312 41.6605 16.6918 
0.00839195 16.6918 41.6121 
41.6319 -0.00904894 0.00834468 
-0.00904894 98.1234 12.7732 
0.00834468 12.7732 -14.8308 
41.6679 -0.016253 0.0159736 
-0.016253 98.1102 12.7726 
0.0159736 12.7726 -14.8536 
41.6655 -0.0165079 0.0164469 
-0.0165079 14.602 3.91844 
0.0164469 3.91844 68.6569 
41.6339 -0.00896534 0.00915644 
-0.00896534 14.6212 3.91862 
0.00915644 3.91862 68.6694 
41.6151 -0.00959318 0.00970068 
-0.00959318 -14.0823 2.81823e-08 
0.00970068 2.81823e-08 97.3917 
41.6406 -0.0171357 0.0173296 
-0.0171357 -14.0953 2.81805e-08 
0.0173296 2.81805e-08 97.3792 
-41.7114 0.0275429 0.0276947 
0.0275429 -14.621 3.91943 
0.0276947 3.91943 -68.6799 
-41.6547 0.0161909 0.0164469 
0.0161909 -14.6547 3.91953 
0.0164469 3.91953 -68.7028 
-41.6264 0.0171357 0.0173296 
0.0171357 14.0434 2.81827e-08 
0.0173296 2.81827e-08 -97.4292 
-41.6739 0.0284877 0.028939 
0.0284877 14.0679 2.81796e-08 
0.028939 2.81796e-08 -97.4062 
-41.7502 0.0263959 0.0264582 
0.0263959 -41.6607 16.6945 
0.0264582 16.6945 -41.6013 
-41.6815 0.0154054 0.0152104 
0.0154054 -41.6935 16.6956 
0.0152104 16.6956 -41.6372 
-41.6513 0.016253 0.0151339 
0.016253 -98.1554 12.7761 
0.0151339 12.7761 14.7944 
-41.7164 0.0272434 0.0267432 
0.0272434 -98.1303 12.7751 
0.0267432 12.7751 14.8345 
-8.20605 0.0589034 0.00565738 
0.0589034 11.0497 10.6616 
0.00565738 10.6616 -27.1686 
-8.1251 0.0354057 0.00325109 
0.0354057 10.9938 10.6625 
0.00325109 10.6625 -27.1937 
-8.06667 0.0367524 0.00264243 
0.0367524 -0.677384 12.7761 
0.00264243 12.7761 -15.5809 
-8.12726 0.0602501 0.00512442 
0.0602501 -0.638104 12.7751 
0.00512442 12.7751 -15.5596 
-8.21147 0.058418 0.00111441 
0.058418 -10.9691 5.96047 
0.00111441 5.96047 -5.14439 
-8.12977 0.034996 -0.00129188 
0.034996 -11.0252 5.96027 
-0.00129188 5.96027 -5.16998 
-8.07031 0.0364019 -0.000806002 
0.0364019 -12.7735 8.07383 
-0.000806002 8.07383 -3.48116 
-8.13407 0.0598238 0.00167599 
0.0598238 -12.7342 8.07396 
0.00167599 8.07396 -3.45672 
-3.71568 0.0609531 -0.0103806 
0.0609531 4.25576 7.38814 
-0.0103806 7.38814 -11.3812 
-3.64226 0.0373817 -0.00844215 
0.0373817 4.20527 7.388 
-0.00844215 7.388 -11.4041 
-3.58107 0.0385012 -0.00866566 
0.0385012 -1.37237 8.07383 
-0.00866566 8.07383 -5.88766 
-3.6385 0.0620726 -0.0109044 
0.0620726 -1.33788 8.07396 
-0.0109044 8.07396 -5.86472 
-3.70481 0.0616129 -0.0145696 
0.0616129 -2.87688 5.88405 
-0.0145696 5.88405 -4.25942 
-3.63341 0.0377411 -0.0126312 
0.0377411 -2.9274 5.88323 
-0.0126312 5.88323 -4.28028 
-3.57311 0.03886 -0.0121773 
0.03886 -6.40466 6.56906 
-0.0121773 6.56906 -0.863327 
-3.62539 0.0627317 -0.014416 
0.0627317 -6.37021 6.56987 
-0.014416 6.56987 -0.845499 
-1.7305 0.0439654 -0.0227181 
0.0439654 3.19613 6.15057 
-0.0227181 6.15057 -6.42099 
-1.67912 0.027319 -0.0178675 
0.027319 3.16164 6.14982 
-0.0178675 6.14982 -6.43788 
-1.63411 0.0279885 -0.0178253 
0.0279885 -1.13956 6.56906 
-0.0178253 6.56906 -2.18169 
-1.67747 0.0446349 -0.023115 
0.0446349 -1.11544 6.56987 
-0.023115 6.56987 -2.16246 
-1.70774 0.0452327 -0.0256576 
0.0452327 -1.91768 5.23677 
-0.0256576 5.23677 -1.32995 
-1.66153 0.0281472 -0.020807 
0.0281472 -1.95198 5.23566 
-0.020807 5.23566 -1.34186 
-1.6186 0.0287591 -0.0204122 
0.0287591 -2.89894 5.6549 
-0.0204122 5.6549 -0.437817 
-1.65065 0.0458446 -0.0257019 
0.0458446 -2.87489 5.65606 
-0.0257019 5.65606 -0.429829 
-0.523173 0.0154093 -0.029732 
0.0154093 1.94282 5.35271 
-0.029732 5.35271 -2.87518 
-0.503042 0.0095909 -0.0235041 
0.0095909 1.93045 5.35169 
-0.0235041 5.35169 -2.88294 
-0.485842 0.00986597 -0.0232704 
0.00986597 0.116682 5.6549 
-0.0232704 5.6549 -1.08637 
-0.505872 0.0156844 -0.0299386 
0.0156844 0.125349 5.65606 
-0.0299386 5.65606 -1.07501 
-0.495002 0.0169195 -0.0307522 
0.0169195 -1.59411 5.10591 
-0.0307522 5.10591 0.633581 
-0.481009 0.0106608 -0.0245243 
0.0106608 -1.60596 5.10479 
-0.0245243 5.10479 0.63144 
-0.466427 0.0107977 -0.024197 
0.0107977 -1.27036 5.408 
-0.024197 5.408 0.281252 
-0.473115 0.0170564 -0.0308652 
0.0170564 -1.26179 5.40926 
-0.0308652 5.40926 0.279374 
0.495002 -0.0169195 -0.0307522 
-0.0169195 1.59411 5.10591 
-0.0307522 5.10591 -0.633581 
0.481009 -0.0106608 -0.0245243 
-0.0106608 1.60596 5.10479 
-0.0245243 5.10479 -0.63144 
0.466428 -0.0107977 -0.024197 
-0.0107977 1.27036 5.408 
-0.024197 5.408 -0.281252 
0.473115 -0.0170564 -0.0308652 
-0.0170564 1.26179 5.40926 
-0.0308652 5.40926 -0.279374 
0.523173 -0.0154093 -0.029732 
-0.0154093 -1.94282 5.35271 
-0.029732 5.35271 2.87518 
0.503042 -0.0095909 -0.0235041 
-0.0095909 -1.93045 5.35169 
-0.0235041 5.35169 2.88294 
0.485842 -0.00986597 -0.0232704 
-0.00986597 -0.116682 5.6549 
-0.0232704 5.6549 1.08637 
0.505873 -0.0156844 -0.0299386 
-0.0156844 -0.125349 5.65606 
-0.0299386 5.65606 1.07501 
1.70774 -0.0452327 -0.0256576 
-0.0452327 1.91768 5.23677 
-0.0256576 5.23677 1.32995 
1.66153 -0.0281472 -0.020807 
-0.0281472 1.95198 5.23566 
-0.020807 5.23566 1.34186 
1.6186 -0.0287591 -0.0204122 
-0.0287591 2.89894 5.6549 
-0.0204122 5.6549 0.437817 
1.65065 -0.0458446 -0.0257019 
-0.0458446 2.87489 5.65606 
-0.0257019 5.65606 0.429829 
1.7305 -0.0439654 -0.0227181 
-0.0439654 -3.19613 6.15057 
-0.0227181 6.15057 6.42099 
1.67912 -0.027319 -0.0178675 
-0.027319 -3.16164 6.14982 
-0.0178675 6.14982 6.43788 
1.63411 -0.0279885 -0.0178253 
-0.0279885 1.13956 6.56906 
-0.0178253 6.56906 2.18169 
1.67747 -0.0446349 -0.023115 
-0.0446349 1.11544 6.56987 
-0.023115 6.56987 2.16246 
3.70481 -0.0616129 -0.0145696 
-0.0616129 2.87688 5.88405 
-0.0145696 5.88405 4.25942 
3.63341 -0.0377411 -0.0126312 
-0.0377411 2.9274 5.88323 
-0.0126312 5.88323 4.28028 
3.57311 -0.03886 -0.0121773 
-0.03886 6.40466 6.56906 
-0.0121773 6.56906 0.863327 
3.62539 -0.0627317 -0.014416 
-0.0627317 6.37021 6.56987 
-0.014416 6.56987 0.845499 
3.71568 -0.0609531 -0.0103806 
-0.0609531 -4.25576 7.38814 
-0.0103806 7.38814 11.3812 
3.64226 -0.0373817 -0.00844215 
-0.0373817 -4.20527 7.388 
-0.00844215 7.388 11.4041 
3.58107 -0.0385012 -0.00866566 
-0.0385012 1.37237 8.07383 
-0.00866566 8.07383 5.88766 
3.6385 -0.0620726 -0.0109044 
-0.0620726 1.33788 8.07396 
-0.0109044 8.07396 5.86472 
8.21147 -0.058418 0.00111441 
-0.058418 10.9691 5.96047 
0.00111441 5.96047 5.14439 
8.12977 -0.034996 -0.00129188 
-0.034996 11.0252 5.96027 
-0.00129188 5.96027 5.16998 
8.07031 -0.0364019 -0.000806002 
-0.0364019 12.7735 8.07383 
-0.000806002 8.07383 3.48116 
8.13407 -0.0598238 0.00167599 
-0.0598238 12.7342 8.07396 
0.00167599 8.07396 3.45672 
8.20605 -0.0589034 0.00565738 
-0.0589034 -11.0497 10.6616 
0.00565738 10.6616 27.1686 
8.1251 -0.0354057 0.00325109 
-0.0354057 -10.9938 10.6625 
0.00325109 10.6625 27.1937 
8.06667 -0.0367524 0.00264243 
-0.0367524 0.677384 12.7761 
0.00264243 12.7761 15.5809 
8.12726 -0.0602501 0.00512442 
-0.0602501 0.638104 12.7751 
0.00512442 12.7751 15.5596 
41.7502 -0.0263959 0.0264582 
-0.0263959 41.6607 16.6945 
0.0264582 16.6945 41.6013 
41.6815 -0.0154054 0.0152104 
-0.0154054 41.6935 16.6956 
0.0152104 16.6956 41.6372 
41.6513 -0.016253 0.0151339 
-0.016253 98.1554 12.7761 
0.0151339 12.7761 -14.7944 
41.7164 -0.0272434 0.0267432 
-0.0272434 98.1303 12.7751 
0.0267432 12.7751 -14.8345 
41.7114 -0.0275429 0.0276947 
-0.0275429 14.621 3.91943 
0.0276947 3.91943 68.6799 
41.6547 -0.0161909 0.0164469 
-0.0161909 14.6547 3.91953 
0.0164469 3.91953 68.7028 
41.6264 -0.0171357 0.0173296 
-0.0171357 -14.0434 2.81827e-08 
0.0173296 2.81827e-08 97.4292 
41.6739 -0.0284877 0.028939 
-0.0284877 -14.0679 2.81796e-08 
0.028939 2.81796e-08 97.4062 
-41.7942 0.0446994 0.0448118 
0.0446994 -14.6562 3.92088 
0.0448118 3.92088 -68.7207 
-41.6927 0.0271425 0.0276947 
0.0271425 -14.7145 3.921 
0.0276947 3.921 -68.7639 
-41.6487 0.0284877 0.028939 
0.0284877 13.9743 2.81832e-08 
0.028939 2.81832e-08 -97.4966 
-41.7364 0.0460447 0.0463891 
0.0460447 14.0187 2.81787e-08 
0.0463891 2.81787e-08 -97.4534 
-41.8515 0.0432384 0.0427705 
0.0432384 -41.6964 16.7003 
0.0427705 16.7003 -41.6232 
-41.7354 0.0260145 0.0256534 
0.0260145 -41.7535 16.7016 
0.0256534 16.7016 -41.6822 
-41.6885 0.0272434 0.0256849 
0.0272434 -98.2133 12.7806 
0.0256849 12.7806 14.7307 
-41.7981 0.0444673 0.0431351 
0.0444673 -98.1682 12.7794 
0.0431351 12.7794 14.7952 
-8.31834 0.0931637 0.00674338 
0.0931637 11.0259 10.665 
0.00674338 10.665 -27.1942 
-8.18134 0.0582247 0.00485261 
0.0582247 10.9319 10.6667 
0.00485261 10.6667 -27.2372 
-8.09217 0.0602501 0.00406608 
0.0602501 -0.74473 12.7806 
0.00406608 12.7806 -15.6498 
-8.20413 0.095189 0.00625113 
0.095189 -0.670914 12.7794 
0.00625113 12.7794 -15.6116 
-8.3171 0.0929918 -0.000371114 
0.0929918 -11.0049 5.97346 
-0.000371114 5.97346 -5.1647 
-8.18919 0.0583471 -0.00226188 
0.0583471 -11.0968 5.9735 
-0.00226188 5.9735 -5.20068 
-8.09882 0.0598238 -0.00133409 
0.0598238 -12.8461 8.08743 
-0.00133409 8.08743 -3.54175 
-8.20541 0.0944685 0.000850964 
0.0944685 -12.7727 8.08793 
0.000850964 8.08793 -3.50855 
-3.81939 0.0945607 -0.0186108 
0.0945607 4.23859 7.40073 
-0.0186108 7.40073 -11.4007 
-3.69566 0.0605209 -0.0137569 
0.0605209 4.15461 7.40128 
-0.0137569 7.40128 -11.4404 
-3.60478 0.0620726 -0.0139144 
0.0620726 -1.42529 8.08743 
-0.0139144 8.08743 -5.95138 
-3.71056 0.0961124 -0.0189094 
0.0961124 -1.36037 8.08793 
-0.0189094 8.08793 -5.91053 
-3.79216 0.0964129 -0.025129 
0.0964129 -2.91452 5.90593 
-0.025129 5.90593 -4.27478 
-3.68469 0.0622321 -0.0202751 
0.0622321 -2.99473 5.90542 
-0.0202751 5.90542 -4.30203 
-3.59555 0.0627317 -0.0193791 
0.0627317 -6.47395 6.59157 
-0.0193791 6.59157 -0.911953 
-3.68097 0.0969125 -0.024374 
0.0969125 -6.40997 6.59312 
-0.024374 6.59312 -0.890522 
-1.80438 0.0671067 -0.0373492 
0.0671067 3.18941 6.17256 
-0.0373492 6.17256 -6.43586 
-1.71735 0.0436143 -0.0284236 
0.0436143 3.13238 6.1724 
-0.0284236 6.1724 -6.46586 
-1.65142 0.0446349 -0.0280782 
0.0446349 -1.16851 6.59157 
-0.0280782 6.59157 -2.23089 
-1.73213 0.0681273 -0.037113 
0.0681273 -1.12262 6.59312 
-0.037113 6.59312 -2.19608 
-1.75988 0.0698178 -0.0418258 
0.0698178 -1.95161 5.26503 
-0.0418258 5.26503 -1.33934 
-1.69516 0.0462163 -0.0329002 
0.0462163 -2.00355 5.26446 
-0.0329002 5.26446 -1.35212 
-1.63274 0.0458446 -0.032147 
0.0458446 -2.95387 5.68363 
-0.032147 5.68363 -0.464215 
-1.68363 0.0694461 -0.0411818 
0.0694461 -2.90912 5.68559 
-0.0411818 5.68559 -0.458074 
-0.556511 0.0231507 -0.047595 
0.0231507 1.95071 5.38111 
-0.047595 5.38111 -2.88349 
-0.518549 0.0148261 -0.0369745 
0.0148261 1.92875 5.38076 
-0.0369745 5.38076 -2.8995 
-0.493506 0.0156844 -0.0363838 
0.0156844 0.117421 5.68363 
-0.0363838 5.68363 -1.11321 
-0.532567 0.024009 -0.0469586 
0.024009 0.134213 5.68559 
-0.0469586 5.68559 -1.09094 
-0.505286 0.0260916 -0.0491219 
0.0260916 -1.61699 5.13649 
-0.0491219 5.13649 0.632986 
-0.490913 0.0178126 -0.0385014 
0.0178126 -1.63296 5.13606 
-0.0385014 5.13606 0.634584 
-0.470043 0.0170564 -0.037828 
0.0170564 -1.30079 5.43893 
-0.037828 5.43893 0.281536 
-0.477372 0.0253354 -0.0484028 
0.0253354 -1.28523 5.44098 
-0.0484028 5.44098 0.273311 
0.505286 -0.0260916 -0.0491219 
-0.0260916 1.61699 5.13649 
-0.0491219 5.13649 -0.632986 
0.490913 -0.0178126 -0.0385014 
-0.0178126 1.63296 5.13606 
-0.0385014 5.13606 -0.634584 
0.470043 -0.0170564 -0.037828 
-0.0170564 1.30079 5.43893 
-0.037828 5.43893 -0.281536 
0.477372 -0.0253354 -0.0484028 
-0.0253354 1.28523 5.44098 
-0.0484028 5.44098 -0.27331 
0.556511 -0.0231507 -0.047595 
-0.0231507 -1.95071 5.38111 
-0.047595 5.38111 2.88349 
0.518549 -0.0148261 -0.0369745 
-0.0148261 -1.92875 5.38076 
-0.0369745 5.38076 2.8995 
0.493506 -0.0156844 -0.0363838 
-0.0156844 -0.11742 5.68363 
-0.0363838 5.68363 1.11321 
0.532567 -0.024009 -0.0469586 
-0.024009 -0.134213 5.68559 
-0.0469586 5.68559 1.09094 
1.75988 -0.0698178 -0.0418258 
-0.0698178 1.95161 5.26503 
-0.0418258 5.26503 1.33934 
1.69516 -0.0462163 -0.0329002 
-0.0462163 2.00355 5.26446 
-0.0329002 5.26446 1.35212 
1.63274 -0.0458446 -0.032147 
-0.0458446 2.95387 5.68363 
-0.032147 5.68363 0.464215 
1.68363 -0.0694461 -0.0411818 
-0.0694461 2.90912 5.68559 
-0.0411818 5.68559 0.458074 
1.80438 -0.0671067 -0.0373492 
-0.0671067 -3.18941 6.17256 
-0.0373492 6.17256 6.43586 
1.71735 -0.0436143 -0.0284236 
-0.0436143 -3.13238 6.1724 
-0.0284236 6.1724 6.46586 
1.65142 -0.0446349 -0.0280782 
-0.0446349 1.16851 6.59157 
-0.0280782 6.59157 2.23089 
1.73213 -0.0681273 -0.037113 
-0.0681273 1.12262 6.59312 
-0.037113 6.59312 2.19608 
3.79216 -0.0964129 -0.025129 
-0.0964129 2.91452 5.90593 
-0.025129 5.90593 4.27478 
3.68469 -0.0622321 -0.0202751 
-0.0622321 2.99473 5.90542 
-0.0202751 5.90542 4.30203 
3.59555 -0.0627317 -0.0193791 
-0.0627317 6.47395 6.59157 
-0.0193791 6.59157 0.911953 
3.68097 -0.0969125 -0.024374 
-0.0969125 6.40997 6.59312 
-0.024374 6.59312 0.890522 
3.81939 -0.0945607 -0.0186108 
-0.0945607 -4.23859 7.40073 
-0.0186108 7.40073 11.4007 
3.69566 -0.0605209 -0.0137569 
-0.0605209 -4.15461 7.40128 
-0.0137569 7.40128 11.4404 
3.60478 -0.0620726 -0.0139144 
-0.0620726 1.42529 8.08743 
-0.0139144 8.08743 5.95138 
3.71056 -0.0961124 -0.0189094 
-0.0961124 1.36037 8.08793 
-0.0189094 8.08793 5.91053 
8.3171 -0.0929918 -0.000371114 
-0.0929918 11.0049 5.97346 
-0.000371114 5.97346 5.1647 
8.18919 -0.0583471 -0.00226188 
-0.0583471 11.0968 5.9735 
-0.00226188 5.9735 5.20068 
8.09882 -0.0598238 -0.00133409 
-0.0598238 12.8461 8.08743 
-0.00133409 8.08743 3.54175 
8.20541 -0.0944685 0.000850964 
-0.0944685 12.7727 8.08793 
0.000850964 8.08793 3.50856 
8.31834 -0.0931637 0.00674338 
-0.0931637 -11.0259 10.665 
0.00674338 10.665 27.1942 
8.18134 -0.0582247 0.00485261 
-0.0582247 -10.9319 10.6667 
0.00485261 10.6667 27.2372 
8.09217 -0.0602501 0.00406608 
-0.0602501 0.74473 12.7806 
0.00406608 12.7806 15.6498 
8.20413 -0.095189 0.00625113 
-0.095189 0.670914 12.7794 
0.00625113 12.7794 15.6116 
41.8515 -0.0432384 0.0427705 
-0.0432384 41.6964 16.7003 
0.0427705 16.7003 41.6232 
41.7354 -0.0260145 0.0256534 
-0.0260145 41.7535 16.7016 
0.0256534 16.7016 41.6822 
41.6885 -0.0272434 0.0256849 
-0.0272434 98.2133 12.7806 
0.0256849 12.7806 -14.7307 
41.7981 -0.0444673 0.0431351 
-0.0444673 98.1682 12.7794 
0.0431351 12.7794 -14.7952 
41.7942 -0.0446994 0.0448118 
-0.0446994 14.6562 3.92088 
0.0448118 3.92088 68.7207 
41.6927 -0.0271425 0.0276947 
-0.0271425 14.7145 3.921 
0.0276947 3.921 68.7639 
41.6487 -0.0284877 0.028939 
-0.0284877 -13.9743 2.81832e-08 
0.028939 2.81832e-08 97.4966 
41.7364 -0.0460447 0.0463891 
-0.0460447 -14.0187 2.81787e-08 
0.0463891 2.81787e-08 97.4534 
-41.9207 0.0705584 0.0754342 
0.0705584 -14.7335 3.92522 
0.0754342 3.92522 -68.8039 
-41.7669 0.0459252 0.0448118 
0.0459252 -14.8203 3.92198 
0.0448118 3.92198 -68.8708 
-41.693 0.0460447 0.0463891 
0.0460447 13.8474 2.81842e-08 
0.0463891 2.81842e-08 -97.6124 
-41.8509 0.0706778 0.0760489 
0.0706778 13.9374 2.81767e-08 
0.0760489 2.81767e-08 -97.5445 
-42.0373 0.0667006 0.0719709 
0.0667006 -41.7625 16.7107 
0.0719709 16.7107 -41.6582 
-41.8233 0.0411047 0.0413484 
0.0411047 -41.8605 16.7107 
0.0413484 16.7107 -41.7742 
-41.745 0.0444673 0.0397044 
0.0444673 -98.3238 12.7887 
0.0397044 12.7887 14.6108 
-41.9676 0.0700632 0.0693641 
0.0700632 -98.2305 12.7855 
0.0693641 12.7855 14.7401 
-8.49665 0.146698 0.0126093 
0.146698 10.9705 10.6721 
0.0126093 10.6721 -27.2524 
-8.28379 0.0956496 0.00532132 
0.0956496 10.8197 10.6719 
0.00532132 10.6719 -27.3145 
-8.14906 0.095189 0.0028205 
0.095189 -0.860855 12.7887 
0.0028205 12.7887 -15.7686 
-8.33371 0.146238 0.00861076 
0.146238 -0.725443 12.7855 
0.00861076 12.7855 -15.7194 
-8.51912 0.144026 -0.000995893 
0.144026 -11.0684 5.99664 
-0.000995893 5.99664 -5.19103 
-8.27592 0.0914792 -0.00828389 
0.0914792 -11.232 5.9928 
-0.00828389 5.9928 -5.2706 
-8.13822 0.0944685 -0.00716955 
0.0944685 -12.9831 8.10965 
-0.00716955 8.10965 -3.65721 
-8.35245 0.147015 -0.00137929 
0.147015 -12.8451 8.11004 
-0.00137929 8.11004 -3.58099 
-3.96063 0.144553 -0.0268003 
0.144553 4.18423 7.42503 
-0.0268003 7.42503 -11.4576 
-3.79898 0.0988795 -0.0265236 
0.0988795 4.06485 7.42125 
-0.0265236 7.42125 -11.4999 
-3.66259 0.0961124 -0.0269299 
0.0961124 -1.51369 8.10965 
-0.0269299 8.10965 -6.05778 
-3.82706 0.141786 -0.029736 
0.141786 -1.39164 8.11004 
-0.029736 8.11004 -6.01534 
-3.95461 0.144488 -0.0377196 
0.144488 -2.98839 5.94423 
-0.0377196 5.94423 -4.29105 
-3.75633 0.0962848 -0.0374428 
0.0962848 -3.12019 5.93956 
-0.0374428 5.93956 -4.35753 
-3.62124 0.0969125 -0.0369706 
0.0969125 -6.60747 6.62796 
-0.0369706 6.62796 -1.00534 
-3.80842 0.145116 -0.0397767 
0.145116 -6.48268 6.62924 
-0.0397767 6.62924 -0.942954 
-1.88975 0.101335 -0.0539524 
0.101335 3.15413 6.21223 
-0.0539524 6.21223 -6.48587 
-1.79581 0.0715696 -0.0496631 
0.0715696 3.08013 6.20779 
-0.0496631 6.20779 -6.50582 
-1.70027 0.0681273 -0.0497095 
0.0681273 -1.21097 6.62796 
-0.0497095 6.62796 -2.31025 
-1.80802 0.0978926 -0.0564535 
0.0978926 -1.12648 6.62924 
-0.0564535 6.62924 -2.287 
-1.86607 0.101941 -0.0611829 
0.101941 -2.01353 5.31425 
-0.0611829 5.31425 -1.34189 
-1.73583 0.0697207 -0.0568936 
0.0697207 -2.0991 5.30952 
-0.0568936 5.30952 -1.38656 
-1.64327 0.0694461 -0.0566462 
0.0694461 -3.06123 5.72969 
-0.0566462 5.72969 -0.517003 
-1.77039 0.101666 -0.0633901 
0.101666 -2.97414 5.73125 
-0.0633901 5.73125 -0.476965 
-0.577993 0.0358682 -0.0683283 
0.0358682 1.94789 5.43115 
-0.0683283 5.43115 -2.9194 
-0.559226 0.0262962 -0.0626628 
0.0262962 1.92621 5.42677 
-0.0626628 5.42677 -2.91649 
-0.524181 0.024009 -0.062423 
0.024009 0.128005 5.72969 
-0.062423 5.72969 -1.15334 
-0.554979 0.033581 -0.0701006 
0.033581 0.15741 5.73125 
-0.0701006 5.73125 -1.15194 
-0.548143 0.0363908 -0.0707388 
0.0363908 -1.65086 5.18975 
-0.0707388 5.18975 0.64949 
-0.492265 0.0248067 -0.0650734 
0.0248067 -1.68261 5.18543 
-0.0650734 5.18543 0.625363 
-0.460676 0.0253354 -0.0648894 
0.0253354 -1.36433 5.48835 
-0.0648894 5.48835 0.27549 
-0.512675 0.0369195 -0.072567 
0.0369195 -1.3324 5.48986 
-0.072567 5.48986 0.295561 
0.548143 -0.0363908 -0.0707388 
-0.0363908 1.65086 5.18975 
-0.0707388 5.18975 -0.64949 
0.492266 -0.0248067 -0.0650734 
-0.0248067 1.68261 5.18543 
-0.0650734 5.18543 -0.625362 
0.460676 -0.0253354 -0.0648894 
-0.0253354 1.36433 5.48835 
-0.0648894 5.48835 -0.27549 
0.512676 -0.0369195 -0.072567 
-0.0369195 1.3324 5.48986 
-0.072567 5.48986 -0.295561 
0.577993 -0.0358682 -0.0683283 
-0.0358682 -1.94789 5.43115 
-0.0683283 5.43115 2.91941 
0.559226 -0.0262962 -0.0626628 
-0.0262962 -1.92621 5.42677 
-0.0626628 5.42677 2.91649 
0.524181 -0.024009 -0.062423 
-0.024009 -0.128005 5.72969 
-0.062423 5.72969 1.15334 
0.554979 -0.033581 -0.0701006 
-0.033581 -0.15741 5.73125 
-0.0701006 5.73125 1.15194 
1.86607 -0.101941 -0.0611829 
-0.101941 2.01353 5.31425 
-0.0611829 5.31425 1.34189 
1.73583 -0.0697207 -0.0568936 
-0.0697207 2.0991 5.30952 
-0.0568936 5.30952 1.38656 
1.64327 -0.0694461 -0.0566462 
-0.0694461 3.06123 5.72969 
-0.0566462 5.72969 0.517003 
1.77039 -0.101666 -0.0633901 
-0.101666 2.97414 5.73125 
-0.0633901 5.73125 0.476965 
1.88975 -0.101335 -0.0539524 
-0.101335 -3.15413 6.21223 
-0.0539524 6.21223 6.48587 
1.79581 -0.0715696 -0.0496631 
-0.0715696 -3.08013 6.20779 
-0.0496631 6.20779 6.50582 
1.70027 -0.0681273 -0.0497095 
-0.0681273 1.21097 6.62796 
-0.0497095 6.62796 2.31026 
1.80802 -0.0978926 -0.0564535 
-0.0978926 1.12648 6.62924 
-0.0564535 6.62924 2.287 
3.95461 -0.144488 -0.0377196 
-0.144488 2.98839 5.94423 
-0.0377196 5.94423 4.29105 
3.75633 -0.0962848 -0.0374428 
-0.0962848 3.12019 5.93956 
-0.0374428 5.93956 4.35753 
3.62124 -0.0969125 -0.0369706 
-0.0969125 6.60747 6.62796 
-0.0369706 6.62796 1.00534 
3.80842 -0.145116 -0.0397767 
-0.145116 6.48268 6.62924 
-0.0397767 6.62924 0.942954 
3.96063 -0.144553 -0.0268003 
-0.144553 -4.18423 7.42503 
-0.0268003 7.42503 11.4576 
3.79898 -0.0988795 -0.0265236 
-0.0988795 -4.06485 7.42125 
-0.0265236 7.42125 11.4999 
3.66259 -0.0961124 -0.0269299 
-0.0961124 1.51369 8.10965 
-0.0269299 8.10965 6.05778 
3.82706 -0.141786 -0.029736 
-0.141786 1.39164 8.11004 
-0.029736 8.11004 6.01534 
8.51912 -0.144026 -0.000995893 
-0.144026 11.0684 5.99664 
-0.000995893 5.99664 5.19103 
8.27592 -0.0914792 -0.00828389 
-0.0914792 11.232 5.9928 
-0.00828389 5.9928 5.2706 
8.13822 -0.0944685 -0.00716955 
-0.0944685 12.9831 8.10965 
-0.00716955 8.10965 3.65721 
8.35245 -0.147015 -0.00137929 
-0.147015 12.8451 8.11004 
-0.00137929 8.11004 3.58099 
8.49665 -0.146698 0.0126093 
-0.146698 -10.9705 10.6721 
0.0126093 10.6721 27.2524 
8.28379 -0.0956496 0.00532132 
-0.0956496 -10.8197 10.6719 
0.00532132 10.6719 27.3145 
8.14906 -0.095189 0.0028205 
-0.095189 0.860856 12.7887 
0.0028205 12.7887 15.7686 
8.33371 -0.146238 0.00861076 
-0.146238 0.725443 12.7855 
0.00861076 12.7855 15.7194 
42.0373 -0.0667006 0.0719709 
-0.0667006 41.7625 16.7107 
0.0719709 16.7107 41.6582 
41.8233 -0.0411047 0.0413484 
-0.0411047 41.8605 16.7107 
0.0413484 16.7107 41.7742 
41.745 -0.0444673 0.0397044 
-0.0444673 98.3238 12.7887 
0.0397044 12.7887 -14.6108 
41.9676 -0.0700632 0.0693641 
-0.0700632 98.2305 12.7855 
0.0693641 12.7855 -14.7401 
41.9207 -0.0705584 0.0754342 
-0.0705584 14.7335 3.92522 
0.0754342 3.92522 68.8039 
41.7669 -0.0459252 0.0448118 
-0.0459252 14.8203 3.92198 
0.0448118 3.92198 68.8708 
41.693 -0.0460447 0.0463891 
-0.0460447 -13.8474 2.81842e-08 
0.0463891 2.81842e-08 97.6124 
41.8509 -0.0706778 0.0760489 
-0.0706778 -13.9374 2.81767e-08 
0.0760489 2.81767e-08 97.5445 
-42.2413 0.110937 0.104484 
0.110937 -14.8059 3.91807 
0.104484 3.91807 -68.9336 
-41.8617 0.0642619 0.0754342 
0.0642619 -15.0209 3.925 
0.0754342 3.925 -69.0981 
-41.7692 0.0706778 0.0760489 
0.0706778 13.6178 2.8186e-08 
0.0760489 2.8186e-08 -97.8294 
-42.0771 0.117352 0.104258 
0.117352 13.7635 2.81817e-08 
0.104258 2.81817e-08 -97.6671 
-42.3054 0.118098 0.103085 
0.118098 -41.8973 16.7219 
0.103085 16.7219 -41.778 
-42.0049 0.0705829 0.0740356 
0.0705829 -42.0868 16.724 
0.0740356 16.724 -41.8889 
-41.9089 0.0700632 0.0793879 
0.0700632 -98.5013 12.799 
0.0793879 12.799 14.4295 
-42.1409 0.117578 0.107597 
0.117578 -98.3612 12.8038 
0.107597 12.8038 14.5214 
-8.82733 0.215274 -0.0120125 
0.215274 10.8572 10.6693 
-0.0120125 10.6693 -27.3406 
-8.43377 0.145421 0.014674 
0.145421 10.6101 10.6808 
0.014674 10.6808 -27.4872 
-8.20097 0.146238 0.0186345 
0.146238 -1.1187 12.799 
0.0186345 12.799 -15.9911 
-8.64747 0.21609 0.00159145 
0.21609 -0.834483 12.8038 
0.00159145 12.8038 -15.8288 
-8.69481 0.222684 -0.0248231 
0.222684 -11.2875 6.01456 
-0.0248231 6.01456 -5.32852 
-8.50609 0.162475 0.00186341 
0.162475 -11.4726 6.02743 
0.00186341 6.02743 -5.33209 
-8.28214 0.147015 0.0044974 
0.147015 -13.1971 8.14568 
0.0044974 8.14568 -3.83149 
-8.54921 0.207224 -0.0125457 
0.207224 -12.9238 8.14909 
-0.0125457 8.14909 -3.83774 
-4.28336 0.206081 -0.0714158 
0.206081 4.0822 7.44127 
-0.0714158 7.44127 -11.493 
-3.90254 0.141685 -0.023941 
0.141685 3.871 7.46037 
-0.023941 7.46037 -11.6626 
-3.69369 0.141786 -0.0238593 
0.141786 -1.72393 8.14568 
-0.0238593 8.14568 -6.27655 
-4.12303 0.206182 -0.0586617 
0.206182 -1.47517 8.14909 
-0.0586617 8.14909 -6.09596 
-4.0645 0.21925 -0.0885007 
0.21925 -3.21336 5.98704 
-0.0885007 5.98704 -4.41631 
-3.96048 0.167526 -0.0410259 
0.167526 -3.3419 6.00213 
-0.0410259 6.00213 -4.39179 
-3.76757 0.145116 -0.0369338 
0.145116 -6.79567 6.68743 
-0.0369338 6.68743 -1.13092 
-3.9449 0.196839 -0.0717362 
0.196839 -6.56492 6.69485 
-0.0717362 6.69485 -1.18434 
-2.13907 0.13615 -0.112125 
0.13615 3.09566 6.2571 
-0.112125 6.2571 -6.49028 
-1.84191 0.0964149 -0.0572587 
0.0964149 2.95774 6.27512 
-0.0572587 6.27512 -6.64953 
-1.69358 0.0978926 -0.0536106 
0.0978926 -1.34865 6.68743 
-0.0536106 6.68743 -2.49147 
-2.05888 0.137628 -0.0946952 
0.137628 -1.16894 6.69485 
-0.0946952 6.69485 -2.30588 
-1.87103 0.151584 -0.123761 
0.151584 -2.21344 5.37402 
-0.123761 5.37402 -1.44923 
-1.89463 0.12563 -0.0688943 
0.12563 -2.25721 5.3927 
-0.0688943 5.3927 -1.38186 
-1.76472 0.101666 -0.0659066 
0.101666 -3.19867 5.80502 
-0.0659066 5.80502 -0.570314 
-1.83405 0.12762 -0.106991 
0.12762 -3.03858 5.81178 
-0.106991 5.81178 -0.661069 
-0.736321 0.0431791 -0.130406 
0.0431791 1.96997 5.49351 
-0.130406 5.49351 -2.89287 
-0.537134 0.0249137 -0.0760396 
0.0249137 1.89295 5.51322 
-0.0760396 5.51322 -3.01503 
-0.479439 0.033581 -0.072617 
0.033581 0.0871322 5.80502 
-0.072617 5.80502 -1.26691 
-0.694666 0.0518463 -0.111036 
0.0518463 0.156159 5.81178 
-0.111036 5.81178 -1.12071 
-0.470445 0.0570468 -0.133905 
0.0570468 -1.76991 5.25704 
-0.133905 5.25704 0.581132 
-0.586266 0.0547289 -0.0795382 
0.0547289 -1.74855 5.27752 
-0.0795382 5.27752 0.675593 
-0.547371 0.0369195 -0.0768813 
0.0369195 -1.41891 5.56931 
-0.0768813 5.56931 0.307059 
-0.481306 0.0392374 -0.1153 
0.0392374 -1.3699 5.57531 
-0.1153 5.57531 0.191987 
0.470446 -0.0570468 -0.133905 
-0.0570468 1.76991 5.25704 
-0.133905 5.25704 -0.581132 
0.586266 -0.0547289 -0.0795382 
-0.0547289 1.74855 5.27752 
-0.0795382 5.27752 -0.675593 
0.547372 -0.0369195 -0.0768813 
-0.0369195 1.41891 5.56931 
-0.0768813 5.56931 -0.307059 
0.481306 -0.0392374 -0.1153 
-0.0392374 1.3699 5.57531 
-0.1153 5.57531 -0.191987 
0.736321 -0.0431791 -0.130406 
-0.0431791 -1.96997 5.49351 
-0.130406 5.49351 2.89287 
0.537134 -0.0249137 -0.0760396 
-0.0249137 -1.89295 5.51322 
-0.0760396 5.51322 3.01503 
0.479439 -0.033581 -0.072617 
-0.033581 -0.0871321 5.80502 
-0.072617 5.80502 1.26691 
0.694666 -0.0518463 -0.111036 
-0.0518463 -0.156159 5.81178 
-0.111036 5.81178 1.12071 
1.87103 -0.151584 -0.123761 
-0.151584 2.21344 5.37402 
-0.123761 5.37402 1.44923 
1.89463 -0.12563 -0.0688943 
-0.12563 2.25721 5.3927 
-0.0688943 5.3927 1.38186 
1.76472 -0.101666 -0.0659066 
-0.101666 3.19867 5.80502 
-0.0659066 5.80502 0.570314 
1.83405 -0.12762 -0.106991 
-0.12762 3.03858 5.81178 
-0.106991 5.81178 0.661069 
2.13907 -0.13615 -0.112125 
-0.13615 -3.09566 6.2571 
-0.112125 6.2571 6.49028 
1.84191 -0.0964149 -0.0572587 
-0.0964149 -2.95774 6.27512 
-0.0572587 6.27512 6.64953 
1.69358 -0.0978926 -0.0536106 
-0.0978926 1.34865 6.68743 
-0.0536106 6.68743 2.49147 
2.05888 -0.137628 -0.0946952 
-0.137628 1.16894 6.69485 
-0.0946952 6.69485 2.30588 
4.0645 -0.21925 -0.0885007 
-0.21925 3.21336 5.98704 
-0.0885007 5.98704 4.41631 
3.96048 -0.167526 -0.0410259 
-0.167526 3.3419 6.00213 
-0.0410259 6.00213 4.39179 
3.76757 -0.145116 -0.0369338 
-0.145116 6.79567 6.68743 
-0.0369338 6.68743 1.13092 
3.9449 -0.196839 -0.0717362 
-0.196839 6.56492 6.69485 
-0.0717362 6.69485 1.18434 
4.28336 -0.206081 -0.0714158 
-0.206081 -4.0822 7.44127 
-0.0714158 7.44127 11.493 
3.90254 -0.141685 -0.023941 
-0.141685 -3.871 7.46037 
-0.023941 7.46037 11.6626 
3.69369 -0.141786 -0.0238593 
-0.141786 1.72393 8.14568 
-0.0238593 8.14568 6.27655 
4.12303 -0.206182 -0.0586617 
-0.206182 1.47517 8.14909 
-0.0586617 8.14909 6.09596 
8.69481 -0.222684 -0.0248231 
-0.222684 11.2875 6.01456 
-0.0248231 6.01456 5.32852 
8.50609 -0.162475 0.00186341 
-0.162475 11.4726 6.02743 
0.00186341 6.02743 5.33209 
8.28214 -0.147015 0.0044974 
-0.147015 13.1971 8.14568 
0.0044974 8.14568 3.83149 
8.54921 -0.207224 -0.0125457 
-0.207224 12.9238 8.14909 
-0.0125457 8.14909 3.83774 
8.82733 -0.215274 -0.0120125 
-0.215274 -10.8572 10.6693 
-0.0120125 10.6693 27.3406 
8.43377 -0.145421 0.014674 
-0.145421 -10.6101 10.6808 
0.014674 10.6808 27.4872 
8.20097 -0.146238 0.0186345 
-0.146238 1.1187 12.799 
0.0186345 12.799 15.9911 
8.64747 -0.21609 0.00159145 
-0.21609 0.834483 12.8038 
0.00159145 12.8038 15.8288 
42.3054 -0.118098 0.103085 
-0.118098 41.8973 16.7219 
0.103085 16.7219 41.778 
42.0049 -0.0705829 0.0740356 
-0.0705829 42.0868 16.724 
0.0740356 16.724 41.8889 
41.9089 -0.0700632 0.0793879 
-0.0700632 98.5013 12.799 
0.0793879 12.799 -14.4295 
42.1409 -0.117578 0.107597 
-0.117578 98.3612 12.8038 
0.107597 12.8038 -14.5214 
42.2413 -0.110937 0.104484 
-0.110937 14.8059 3.91807 
0.104484 3.91807 68.9336 
41.8617 -0.0642619 0.0754342 
-0.0642619 15.0209 3.925 
0.0754342 3.925 69.0981 
41.7692 -0.0706778 0.0760489 
-0.0706778 -13.6178 2.8186e-08 
0.0760489 2.8186e-08 97.8294 
42.0771 -0.117352 0.104258 
-0.117352 -13.7635 2.81817e-08 
0.104258 2.81817e-08 97.6671 
-42.3285 0.173281 0.24825 
0.173281 -15.3973 3.9644 
0.24825 3.9644 -69.2196 
-42.315 0.185916 0.104484 
0.185916 -15.2389 3.89521 
0.104484 3.89521 -69.3916 
-41.9525 0.117352 0.104258 
0.117352 13.2422 2.81866e-08 
0.104258 2.81866e-08 -98.2351 
-42.5702 0.104717 0.2198 
0.104717 13.6464 2.81775e-08 
0.2198 2.81775e-08 -98.0215 
-42.9743 0.132537 0.197444 
0.132537 -42.3003 16.7589 
0.197444 16.7589 -41.6707 
-42.1709 0.116948 0.0536779 
0.116948 -42.4114 16.7424 
0.0536779 16.7424 -42.3631 
-41.7839 0.117578 0.000742444 
0.117578 -99.0159 12.8472 
0.000742444 12.8472 13.8543 
-43.1144 0.133167 0.116284 
0.133167 -98.5718 12.7945 
0.116284 12.7945 14.7408 
-9.18066 0.357459 0.0428322 
0.357459 10.4324 10.7175 
0.0428322 10.7175 -27.5458 
-8.90983 0.278932 -0.0614199 
0.278932 10.3256 10.6949 
-0.0614199 10.6949 -27.7098 
-8.6418 0.21609 -0.105264 
0.21609 -1.28553 12.8472 
-0.105264 12.8472 -16.3667 
-9.15634 0.294617 -0.0300421 
0.294617 -0.729756 12.7945 
-0.0300421 12.7945 -16.4079 
-9.41527 0.302331 -0.0658216 
0.302331 -11.7189 6.15745 
-0.0658216 6.15745 -5.15987 
-8.42824 0.194774 -0.170074 
0.194774 -12.1067 6.08314 
-0.170074 6.08314 -5.75905 
-8.11839 0.207224 -0.162187 
0.207224 -13.8644 8.23543 
-0.162187 8.23543 -4.31127 
-9.30294 0.314781 -0.0869659 
0.314781 -13.2529 8.23445 
-0.0869659 8.23445 -3.7382 
-4.39963 0.310822 -0.101126 
0.310822 3.61402 7.60513 
-0.101126 7.60513 -11.7987 
-4.52523 0.302268 -0.216666 
0.302268 3.68961 7.53058 
-0.216666 7.53058 -11.7487 
-4.20551 0.206182 -0.208303 
0.206182 -1.74562 8.23543 
-0.208303 8.23543 -6.63318 
-4.62048 0.214736 -0.146045 
0.214736 -1.26857 8.23445 
-0.146045 8.23445 -6.69526 
-4.55414 0.279236 -0.160367 
0.279236 -3.7654 6.18799 
-0.160367 6.18799 -4.26477 
-3.845 0.2174 -0.275908 
0.2174 -3.9617 6.12298 
-0.275908 6.12298 -4.77762 
-3.47576 0.196839 -0.277082 
0.196839 -7.55385 6.82782 
-0.277082 6.82782 -1.5547 
-4.58624 0.258675 -0.214823 
0.258675 -7.01094 6.8173 
-0.214823 6.8173 -0.987128 
-2.00228 0.208987 -0.162547 
0.208987 2.75427 6.48095 
-0.162547 6.48095 -6.86473 
-2.42295 0.220745 -0.299532 
0.220745 2.88699 6.4155 
-0.299532 6.4155 -6.57679 
-2.24452 0.137628 -0.300041 
0.137628 -1.15768 6.82782 
-0.300041 6.82782 -2.71054 
-2.18984 0.125871 -0.207859 
0.125871 -0.88198 6.8173 
-0.207859 6.8173 -3.04092 
-2.26361 0.167819 -0.187652 
0.167819 -2.59246 5.6271 
-0.187652 5.6271 -1.25667 
-1.66384 0.134773 -0.324637 
0.134773 -2.73568 5.56693 
-0.324637 5.56693 -1.71321 
-1.43708 0.12762 -0.330425 
0.12762 -3.86585 5.97925 
-0.330425 5.97925 -0.809809 
-2.29914 0.160666 -0.238243 
0.160666 -3.52638 5.96345 
-0.238243 5.96345 -0.28722 
-0.483357 0.0830984 -0.18168 
0.0830984 1.86381 5.75264 
-0.18168 5.75264 -3.23492 
-1.00159 0.105095 -0.331283 
0.105095 2.00463 5.69283 
-0.331283 5.69283 -2.8575 
-0.969861 0.0518463 -0.33447 
0.0518463 0.443465 5.97925 
-0.33447 5.97925 -1.32807 
-0.60427 0.0298496 -0.231136 
0.0298496 0.515161 5.96345 
-0.231136 5.96345 -1.76535 
-0.789805 0.0411532 -0.188319 
0.0411532 -1.91339 5.52556 
-0.188319 5.52556 0.848731 
-0.235282 0.0168805 -0.337922 
0.0168805 -2.04888 5.46714 
-0.337922 5.46714 0.429696 
-0.144372 0.0392374 -0.342498 
0.0392374 -1.9332 5.75356 
-0.342498 5.75356 0.223111 
-0.762985 0.0635101 -0.239164 
0.0635101 -1.7997 5.73637 
-0.239164 5.73637 0.708225 
0.789805 -0.0411532 -0.188319 
-0.0411532 1.91339 5.52556 
-0.188319 5.52556 -0.848731 
0.235282 -0.0168805 -0.337922 
-0.0168805 2.04888 5.46714 
-0.337922 5.46714 -0.429695 
0.144372 -0.0392374 -0.342498 
-0.0392374 1.9332 5.75356 
-0.342498 5.75356 -0.22311 
0.762985 -0.0635101 -0.239164 
-0.0635101 1.7997 5.73637 
-0.239164 5.73637 -0.708225 
0.483358 -0.0830984 -0.18168 
-0.0830984 -1.86381 5.75264 
-0.18168 5.75264 3.23492 
1.00159 -0.105095 -0.331283 
-0.105095 -2.00463 5.69283 
-0.331283 5.69283 2.8575 
0.969861 -0.0518463 -0.33447 
-0.0518463 -0.443465 5.97925 
-0.33447 5.97925 1.32807 
0.60427 -0.0298496 -0.231136 
-0.0298496 -0.515161 5.96345 
-0.231136 5.96345 1.76535 
2.26361 -0.167819 -0.187652 
-0.167819 2.59246 5.6271 
-0.187652 5.6271 1.25667 
1.66384 -0.134773 -0.324637 
-0.134773 2.73568 5.56693 
-0.324637 5.56693 1.71321 
1.43708 -0.12762 -0.330425 
-0.12762 3.86585 5.97925 
-0.330425 5.97925 0.80981 
2.29914 -0.160666 -0.238243 
-0.160666 3.52638 5.96345 
-0.238243 5.96345 0.28722 
2.00228 -0.208987 -0.162547 
-0.208987 -2.75427 6.48095 
-0.162547 6.48095 6.86473 
2.42295 -0.220745 -0.299532 
-0.220745 -2.88699 6.4155 
-0.299532 6.4155 6.57679 
2.24452 -0.137628 -0.300041 
-0.137628 1.15769 6.82782 
-0.300041 6.82782 2.71054 
2.18984 -0.125871 -0.207859 
-0.125871 0.881981 6.8173 
-0.207859 6.8173 3.04092 
4.55414 -0.279236 -0.160367 
-0.279236 3.7654 6.18799 
-0.160367 6.18799 4.26477 
3.845 -0.2174 -0.275908 
-0.2174 3.9617 6.12298 
-0.275908 6.12298 4.77762 
3.47576 -0.196839 -0.277082 
-0.196839 7.55385 6.82782 
-0.277082 6.82782 1.55471 
4.58624 -0.258675 -0.214823 
-0.258675 7.01094 6.8173 
-0.214823 6.8173 0.987128 
4.39963 -0.310822 -0.101126 
-0.310822 -3.61402 7.60513 
-0.101126 7.60513 11.7987 
4.52523 -0.302268 -0.216666 
-0.302268 -3.68961 7.53058 
-0.216666 7.53058 11.7487 
4.20551 -0.206182 -0.208303 
-0.206182 1.74562 8.23543 
-0.208303 8.23543 6.63318 
4.62048 -0.214736 -0.146045 
-0.214736 1.26857 8.23445 
-0.146045 8.23445 6.69526 
9.41527 -0.302331 -0.0658216 
-0.302331 11.7189 6.15745 
-0.0658216 6.15745 5.15987 
8.42824 -0.194774 -0.170074 
-0.194774 12.1067 6.08314 
-0.170074 6.08314 5.75905 
8.11839 -0.207224 -0.162187 
-0.207224 13.8644 8.23543 
-0.162187 8.23543 4.31127 
9.30294 -0.314781 -0.0869659 
-0.314781 13.2529 8.23445 
-0.0869659 8.23445 3.7382 
9.18066 -0.357459 0.0428322 
-0.357459 -10.4324 10.7175 
0.0428322 10.7175 27.5458 
8.90983 -0.278932 -0.0614199 
-0.278932 -10.3256 10.6949 
-0.0614199 10.6949 27.7098 
8.6418 -0.21609 -0.105264 
-0.21609 1.28553 12.8472 
-0.105264 12.8472 16.3667 
9.15634 -0.294617 -0.0300421 
-0.294617 0.729756 12.7945 
-0.0300421 12.7945 16.4079 
42.9743 -0.132537 0.197444 
-0.132537 42.3003 16.7589 
0.197444 16.7589 41.6707 
42.1709 -0.116948 0.0536779 
-0.116948 42.4114 16.7424 
0.0536779 16.7424 42.3631 
41.7839 -0.117578 0.000742444 
-0.117578 99.0159 12.8472 
0.000742444 12.8472 -13.8543 
43.1144 -0.133167 0.116284 
-0.133167 98.5718 12.7945 
0.116284 12.7945 -14.7408 
42.3285 -0.173281 0.24825 
-0.173281 15.3973 3.9644 
0.24825 3.9644 69.2196 
42.315 -0.185916 0.104484 
-0.185916 15.2389 3.89521 
0.104484 3.89521 69.3916 
41.9525 -0.117352 0.104258 
-0.117352 -13.2422 2.81866e-08 
0.104258 2.81866e-08 98.2351 
42.5702 -0.104717 0.2198 
-0.104717 -13.6464 2.81775e-08 
0.2198 2.81775e-08 98.0215 
-42.4334 -0.0889625 0.0717997 
-0.0889625 -15.4661 3.67623 
0.0717997 3.67623 -71.5346 
-41.8394 -0.213806 0.24825 
-0.213806 -16.5658 3.89755 
0.24825 3.89755 -71.0289 
-42.0826 0.104717 0.2198 
0.104717 10.6873 2.82823e-08 
0.2198 2.82823e-08 -98.0388 
-44.4645 0.229561 0.217661 
0.229561 13.8056 2.81257e-08 
0.217661 2.81257e-08 -98.7752 
-42.6105 -0.0134999 0.372905 
-0.0134999 -43.9026 16.7162 
0.372905 16.7162 -42.921 
-43.1466 0.0359676 0.549355 
0.0359676 -44.0898 16.6982 
0.549355 16.6982 -42.1977 
-43.6662 0.133167 0.760206 
0.133167 -99.5352 12.8007 
0.760206 12.8007 13.7673 
-45.1447 0.0836991 0.758067 
0.0836991 -96.494 13.04 
0.758067 13.04 12.2046 
-9.72258 0.278334 -0.13918 
0.278334 8.81086 10.5014 
-0.13918 10.5014 -28.1463 
-8.79724 0.448129 0.394743 
0.448129 8.46096 10.5714 
0.394743 10.5714 -28.7218 
-7.56666 0.294617 0.61388 
0.294617 -3.8753 12.8007 
0.61388 12.8007 -17.6161 
-11.1709 0.124821 0.134272 
0.124821 -1.7551 13.04 
0.134272 13.04 -16.132 
-9.07777 0.553459 -0.0441258 
0.553459 -13.8019 5.8525 
-0.0441258 5.8525 -6.17836 
-10.8888 0.77757 0.489797 
0.77757 -12.9912 6.13588 
0.489797 6.13588 -5.17808 
-9.74204 0.314781 0.495532 
0.314781 -14.094 8.36515 
0.495532 8.36515 -5.22202 
-10.6852 0.0906706 0.0159245 
0.0906706 -12.1962 8.39105 
0.0159245 8.39105 -6.17662 
-5.01621 0.399121 -0.2566 
0.399121 1.91477 7.43073 
-0.2566 7.43073 -11.4064 
-3.68591 0.299813 0.454493 
0.299813 1.86268 7.73575 
0.454493 7.73575 -12.6846 
-2.83867 0.214736 0.436454 
0.214736 -3.88742 8.36515 
0.436454 8.36515 -7.78172 
-5.31879 0.314044 0.151433 
0.314044 -2.78012 8.39105 
0.151433 8.39105 -6.40891 
-3.78603 0.347912 -0.280977 
0.347912 -5.33187 6.15306 
-0.280977 6.15306 -5.38992 
-6.11217 0.674677 0.430116 
0.674677 -4.1138 6.49526 
0.430116 6.49526 -4.28184 
-5.69889 0.258675 0.374904 
0.258675 -6.96727 7.12466 
0.374904 7.12466 -1.84165 
-5.56003 -0.0680892 0.0898837 
-0.0680892 -6.06968 7.11338 
0.0898837 7.11338 -2.8781 
-2.73512 0.22555 -0.244134 
0.22555 1.68642 6.47739 
-0.244134 6.47739 -6.04323 
-1.04309 0.113592 0.427936 
0.113592 1.54306 6.77961 
0.427936 6.77961 -7.5919 
-0.622909 0.125871 0.381868 
0.125871 -2.97113 7.12466 
0.381868 7.12466 -3.49789 
-2.71727 0.237829 0.0986375 
0.237829 -2.39107 7.11338 
0.0986375 7.11338 -1.98359 
-1.34931 0.16245 -0.287699 
0.16245 -3.41223 5.70089 
-0.287699 5.70089 -2.33039 
-3.6246 0.439332 0.384372 
0.439332 -2.44769 6.00646 
0.384372 6.00646 -1.01964 
-3.57465 0.160666 0.334955 
0.160666 -2.73452 6.35151 
0.334955 6.35151 -0.782765 
-2.70011 -0.116216 0.0517242 
-0.116216 -2.34764 6.33689 
0.0517242 6.33689 -2.04418 
-1.35776 0.0985431 -0.280114 
0.0985431 1.45384 5.82076 
-0.280114 5.82076 -2.24656 
0.591508 -0.0713824 0.390344 
-0.0713824 1.03969 6.11997 
0.390344 6.11997 -3.78167 
0.838516 0.0298496 0.342062 
0.0298496 -1.13177 6.35151 
0.342062 6.35151 -1.85722 
-0.870463 0.199775 0.0663644 
0.199775 -0.905256 6.33689 
0.0663644 6.33689 -0.374751 
0.136364 0.0220275 -0.296246 
0.0220275 -2.09317 5.61926 
-0.296246 5.61926 -0.193668 
-1.98989 0.246863 0.374212 
0.246863 -1.41789 5.91873 
0.374212 5.91873 1.25731 
-2.11922 0.0635101 0.325667 
0.0635101 -0.538 6.15027 
0.325667 6.15027 0.506749 
-0.765354 -0.161325 0.0499699 
-0.161325 -0.494707 6.13539 
0.0499699 6.13539 -0.890409 
-0.136364 -0.0220275 -0.296246 
-0.0220275 2.09317 5.61926 
-0.296246 5.61926 0.193668 
1.98989 -0.246863 0.374212 
-0.246863 1.41789 5.91873 
0.374212 5.91873 -1.25731 
2.11922 -0.0635101 0.325667 
-0.0635101 0.538 6.15027 
0.325667 6.15027 -0.506749 
0.765354 0.161325 0.0499699 
0.161325 0.494708 6.13539 
0.0499699 6.13539 0.890409 
1.35776 -0.0985431 -0.280114 
-0.0985431 -1.45384 5.82076 
-0.280114 5.82076 2.24656 
-0.591508 0.0713824 0.390344 
0.0713824 -1.03969 6.11997 
0.390344 6.11997 3.78167 
-0.838516 -0.0298496 0.342062 
-0.0298496 1.13177 6.35151 
0.342062 6.35151 1.85722 
0.870464 -0.199775 0.0663644 
-0.199775 0.905257 6.33689 
0.0663644 6.33689 0.374751 
1.34931 -0.16245 -0.287699 
-0.16245 3.41223 5.70089 
-0.287699 5.70089 2.33039 
3.6246 -0.439332 0.384372 
-0.439332 2.44769 6.00646 
0.384372 6.00646 1.01964 
3.57465 -0.160666 0.334955 
-0.160666 2.73452 6.35151 
0.334955 6.35151 0.782765 
2.70011 0.116216 0.0517242 
0.116216 2.34764 6.33689 
0.0517242 6.33689 2.04418 
2.73512 -0.22555 -0.244134 
-0.22555 -1.68642 6.47739 
-0.244134 6.47739 6.04323 
1.04309 -0.113592 0.427936 
-0.113592 -1.54306 6.77961 
0.427936 6.77961 7.5919 
0.62291 -0.125871 0.381868 
-0.125871 2.97113 7.12466 
0.381868 7.12466 3.4979 
2.71727 -0.237829 0.0986375 
-0.237829 2.39107 7.11338 
0.0986375 7.11338 1.98359 
3.78603 -0.347912 -0.280977 
-0.347912 5.33187 6.15306 
-0.280977 6.15306 5.38992 
6.11217 -0.674677 0.430116 
-0.674677 4.1138 6.49526 
0.430116 6.49526 4.28184 
5.69889 -0.258675 0.374904 
-0.258675 6.96727 7.12466 
0.374904 7.12466 1.84166 
5.56003 0.0680892 0.0898837 
0.0680892 6.06968 7.11338 
0.0898837 7.11338 2.8781 
5.01621 -0.399121 -0.2566 
-0.399121 -1.91477 7.43073 
-0.2566 7.43073 11.4064 
3.68591 -0.299813 0.454493 
-0.299813 -1.86268 7.73575 
0.454493 7.73575 12.6846 
2.83867 -0.214736 0.436454 
-0.214736 3.88742 8.36515 
0.436454 8.36515 7.78172 
5.31879 -0.314044 0.151433 
-0.314044 2.78012 8.39105 
0.151433 8.39105 6.40891 
9.07777 -0.553459 -0.0441258 
-0.553459 13.8019 5.8525 
-0.0441258 5.8525 6.17836 
10.8888 -0.77757 0.489797 
-0.77757 12.9912 6.13588 
0.489797 6.13588 5.17808 
9.74204 -0.314781 0.495532 
-0.314781 14.094 8.36515 
0.495532 8.36515 5.22202 
10.6852 -0.0906706 0.0159245 
-0.0906706 12.1962 8.39105 
0.0159245 8.39105 6.17662 
9.72258 -0.278334 -0.13918 
-0.278334 -8.81086 10.5014 
-0.13918 10.5014 28.1463 
8.79724 -0.448129 0.394743 
-0.448129 -8.46096 10.5714 
0.394743 10.5714 28.7218 
7.56666 -0.294617 0.61388 
-0.294617 3.8753 12.8007 
0.61388 12.8007 17.6161 
11.1709 -0.124821 0.134272 
-0.124821 1.7551 13.04 
0.134272 13.04 16.132 
42.6105 0.0134999 0.372905 
0.0134999 43.9026 16.7162 
0.372905 16.7162 42.921 
43.1466 -0.0359676 0.549355 
-0.0359676 44.0898 16.6982 
0.549355 16.6982 42.1977 
43.6662 -0.133167 0.760206 
-0.133167 99.5352 12.8007 
0.760206 12.8007 -13.7673 
45.1447 -0.0836991 0.758067 
-0.0836991 96.494 13.04 
0.758067 13.04 -12.2046 
42.4334 0.0889625 0.0717997 
0.0889625 15.4661 3.67623 
0.0717997 3.67623 71.5346 
41.8394 0.213806 0.24825 
0.213806 16.5658 3.89755 
0.24825 3.89755 71.0289 
42.0826 -0.104717 0.2198 
-0.104717 -10.6873 2.82823e-08 
0.2198 2.82823e-08 98.0388 
44.4645 -0.229561 0.217661 
-0.229561 -13.8056 2.81257e-08 
0.217661 2.81257e-08 98.7752 
-63.7924 3.49516 -3.85528e-09 
3.49516 -7.21626 2.57204 
-3.85528e-09 2.57204 -66.6567 
-50.301 3.72472 0.0717997 
3.72472 -13.3531 2.73336 
0.0717997 2.73336 -74.0112 
-43.024 0.229561 0.217661 
0.229561 15.5661 2.73168e-08 
0.217661 2.73168e-08 -110.207 
-34.584 1.98479e-08 1.77798e-08 
1.98479e-08 -2.40827 3.14247e-08 
1.77798e-08 3.14247e-08 -100.673 
-60.9714 3.65647 -2.52258 
3.65647 -42.9159 14.8711 
-2.52258 14.8711 -33.7781 
-44.3347 3.74017 -2.45078 
3.74017 -49.4002 16.8561 
-2.45078 16.8561 -43.9305 
-35.5418 0.0836991 -4.12862 
0.0836991 -106.755 14.1227 
-4.12862 14.1227 4.6314 
-32.6266 1.72957e-10 -4.34629 
1.72957e-10 -125.798 12.299 
-4.34629 12.299 20.7594 
-20.5529 2.11414 -2.52258 
2.11414 4.68226 11.3845 
-2.52258 11.3845 -16.845 
-16.4638 2.23896 -2.96287 
2.23896 15.3009 12.789 
-2.96287 12.789 -31.5526 
-14.6475 0.124821 -4.75242 
0.124821 5.88434 14.1227 
-4.75242 14.1227 -23.9524 
-22.0577 -7.68081e-10 -4.34629 
-7.68081e-10 4.56016 12.299 
-4.34629 12.299 -15.218 
0.100543 1.6949 -5.65241 
1.6949 -27.8345 9.35711 
-5.65241 9.35711 -4.98163 
-5.52042 1.78557 -6.0927 
1.78557 -19.6351 9.14568 
-6.0927 9.14568 -7.56 
-2.74948 0.0906706 -6.26636 
0.0906706 -24.6125 10.4794 
-6.26636 10.4794 -5.35358 
-2.20617 5.70183e-10 -5.86022 
5.70183e-10 -26.4811 10.2716 
-5.86022 10.2716 -4.02825 
-15.3007 0.598266 -5.65241 
0.598266 5.61418 10.2933 
-5.65241 10.2933 -6.24047 
-12.5611 0.91231 -6.30517 
0.91231 8.29056 10.7627 
-6.30517 10.7627 -11.6564 
-12.8456 0.314044 -6.13085 
0.314044 8.41273 10.4794 
-6.13085 10.4794 -11.4941 
-16.7527 4.52026e-11 -5.86022 
4.52026e-11 7.66811 10.2716 
-5.86022 10.2716 -6.84241 
6.10071 0.859875 -6.62523 
0.859875 -16.5451 9.80415 
-6.62523 9.80415 -5.48254 
2.3088 0.791786 -7.27799 
0.791786 -12.9108 10.0495 
-7.27799 10.0495 -5.325 
3.51491 -0.0680892 -6.87955 
-0.0680892 -18.2474 9.76613 
-6.87955 9.76613 -1.1945 
4.86701 7.55166e-11 -6.60892 
7.55166e-11 -19.2039 9.78245 
-6.60892 9.78245 -1.59006 
-13.2745 0.0970881 -6.62523 
0.0970881 8.41562 9.85083 
-6.62523 9.85083 -2.85808 
-10.4639 0.334917 -7.24115 
0.334917 8.95676 10.2126 
-7.24115 10.2126 -6.20984 
-10.9578 0.237829 -6.87079 
0.237829 9.75481 9.76613 
-6.87079 9.76613 -6.51398 
-14.1202 -1.24156e-10 -6.60892 
-1.24156e-10 9.55471 9.78245 
-6.60892 9.78245 -3.15145 
8.83552 0.475202 -7.00185 
0.475202 -13.3559 9.45742 
-7.00185 9.45742 -3.19659 
5.61045 0.358986 -7.61776 
0.358986 -11.3563 9.78906 
-7.61776 9.78906 -1.9711 
6.44296 -0.116216 -7.21725 
-0.116216 -14.8337 9.34256 
-7.21725 9.34256 0.673801 
8.24664 6.43679e-11 -6.95538 
6.43679e-11 -15.2663 9.38903 
-6.95538 9.38903 -0.697312 
-11.9047 -0.118092 -7.00185 
-0.118092 9.66888 9.50499 
-7.00185 9.50499 -0.0821856 
-8.96074 0.0816828 -7.61018 
0.0816828 9.23925 9.85612 
-7.61018 9.85612 -2.59653 
-9.5966 0.199775 -7.20261 
0.199775 11.4799 9.34256 
-7.20261 9.34256 -4.20136 
-12.2349 -7.04266e-11 -6.95538 
-7.04266e-11 11.4841 9.38903 
-6.95538 9.38903 -1.56719 
10.5456 0.279507 -7.1063 
0.279507 -11.1896 9.40652 
-7.1063 9.40652 -1.67406 
7.52134 0.118182 -7.71463 
0.118182 -10.079 9.76069 
-7.71463 9.76069 0.239589 
8.23108 -0.161325 -7.3101 
-0.161325 -12.9451 9.24713 
-7.3101 9.24713 2.39603 
10.4847 5.7826e-11 -7.06287 
5.7826e-11 -13.1788 9.29056 
-7.06287 9.29056 0.376148 
-10.5456 -0.279507 -7.1063 
-0.279507 11.1896 9.40652 
-7.1063 9.40652 1.67406 
-7.52134 -0.118182 -7.71463 
-0.118182 10.079 9.76069 
-7.71463 9.76069 -0.239589 
-8.23108 0.161325 -7.3101 
0.161325 12.9451 9.24713 
-7.3101 9.24713 -2.39603 
-10.4847 -5.7826e-11 -7.06287 
-5.7826e-11 13.1788 9.29056 
-7.06287 9.29056 -0.376148 
11.9047 0.118092 -7.00185 
0.118092 -9.66888 9.50499 
-7.00185 9.50499 0.0821858 
8.96074 -0.0816828 -7.61018 
-0.0816828 -9.23925 9.85612 
-7.61018 9.85612 2.59653 
9.5966 -0.199775 -7.20261 
-0.199775 -11.4799 9.34256 
-7.20261 9.34256 4.20136 
12.2349 7.04266e-11 -6.95538 
7.04266e-11 -11.4841 9.38903 
-6.95538 9.38903 1.56719 
-8.83552 -0.475202 -7.00185 
-0.475202 13.3559 9.45742 
-7.00185 9.45742 3.19659 
-5.61045 -0.358986 -7.61776 
-0.358986 11.3563 9.78906 
-7.61776 9.78906 1.9711 
-6.44296 0.116216 -7.21725 
0.116216 14.8337 9.34256 
-7.21725 9.34256 -0.6738 
-8.24664 -6.43679e-11 -6.95538 
-6.43679e-11 15.2663 9.38903 
-6.95538 9.38903 0.697312 
13.2745 -0.0970881 -6.62523 
-0.0970881 -8.41562 9.85083 
-6.62523 9.85083 2.85808 
10.4639 -0.334917 -7.24115 
-0.334917 -8.95676 10.2126 
-7.24115 10.2126 6.20984 
10.9578 -0.237829 -6.87079 
-0.237829 -9.75481 9.76613 
-6.87079 9.76613 6.51398 
14.1202 1.24156e-10 -6.60892 
1.24156e-10 -9.55471 9.78245 
-6.60892 9.78245 3.15145 
-6.10071 -0.859875 -6.62523 
-0.859875 16.5451 9.80415 
-6.62523 9.80415 5.48254 
-2.3088 -0.791786 -7.27799 
-0.791786 12.9108 10.0495 
-7.27799 10.0495 5.325 
-3.51491 0.0680892 -6.87955 
0.0680892 18.2474 9.76613 
-6.87955 9.76613 1.1945 
-4.86701 -7.55166e-11 -6.60892 
-7.55166e-11 19.2039 9.78245 
-6.60892 9.78245 1.59006 
15.3007 -0.598266 -5.65241 
-0.598266 -5.61418 10.2933 
-5.65241 10.2933 6.24047 
12.5611 -0.91231 -6.30517 
-0.91231 -8.29056 10.7627 
-6.30517 10.7627 11.6564 
12.8456 -0.314044 -6.13085 
-0.314044 -8.41273 10.4794 
-6.13085 10.4794 11.4941 
16.7527 -4.52026e-11 -5.86022 
-4.52026e-11 -7.66811 10.2716 
-5.86022 10.2716 6.84241 
-0.100543 -1.6949 -5.65241 
-1.6949 27.8345 9.35711 
-5.65241 9.35711 4.98163 
5.52042 -1.78557 -6.0927 
-1.78557 19.6351 9.14568 
-6.0927 9.14568 7.56 
2.74948 -0.0906706 -6.26636 
-0.0906706 24.6125 10.4794 
-6.26636 10.4794 5.35358 
2.20617 -5.70183e-10 -5.86022 
-5.70183e-10 26.4811 10.2716 
-5.86022 10.2716 4.02825 
20.5529 -2.11414 -2.52258 
-2.11414 -4.68226 11.3845 
-2.52258 11.3845 16.845 
16.4638 -2.23896 -2.96287 
-2.23896 -15.3009 12.789 
-2.96287 12.789 31.5526 
14.6475 -0.124821 -4.75242 
-0.124821 -5.88434 14.1227 
-4.75242 14.1227 23.9524 
22.0577 7.68081e-10 -4.34629 
7.68081e-10 -4.56016 12.299 
-4.34629 12.299 15.218 
60.9714 -3.65647 -2.52258 
-3.65647 42.9159 14.8711 
-2.52258 14.8711 33.7781 
44.3347 -3.74017 -2.45078 
-3.74017 49.4002 16.8561 
-2.45078 16.8561 43.9305 
35.5418 -0.0836991 -4.12862 
-0.0836991 106.755 14.1227 
-4.12862 14.1227 -4.6314 
32.6266 -1.72957e-10 -4.34629 
-1.72957e-10 125.798 12.299 
-4.34629 12.299 -20.7594 
63.7924 -3.49516 -3.85528e-09 
-3.49516 7.21626 2.57204 
-3.85528e-09 2.57204 66.6567 
50.301 -3.72472 0.0717997 
-3.72472 13.3531 2.73336 
0.0717997 2.73336 74.0112 
43.024 -0.229561 0.217661 
-0.229561 -15.5661 2.73168e-08 
0.217661 2.73168e-08 110.207 
34.584 -1.98479e-08 1.77798e-08 
-1.98479e-08 2.40827 3.14247e-08 
1.77798e-08 3.14247e-08 100.673 
-12.5109 0.00130674 0.00949986 
0.00130674 -4.26302 3.77144 
0.00949986 3.77144 -20.7586 
-12.507 -0.000164051 -9.82904e-11 
-0.000164051 -4.26399 3.77141 
-9.82904e-11 3.77141 -20.7615 
-12.5029 -0.00011225 6.55609e-10 
-0.00011225 -27.9922 3.91778 
6.55609e-10 3.91778 2.96264 
-12.507 0.00135854 0.00951839 
0.00135854 -27.9911 3.91774 
0.00951839 3.91774 2.96562 
-12.5405 0.00125838 0.00905081 
0.00125838 -8.43163 3.41529 
0.00905081 3.41529 -16.5604 
-12.5329 -0.000193875 -0.000449049 
-0.000193875 -8.43276 3.41531 
-0.000449049 3.41531 -16.5668 
-12.5288 -7.02736e-05 -0.000499468 
-7.02736e-05 -18.0889 3.56168 
-0.000499468 3.56168 -6.91477 
-12.5367 0.00138198 0.00901892 
0.00138198 -18.0876 3.56159 
0.00901892 3.56159 -6.90818 
-8.12809 0.00383736 0.00327177 
0.00383736 -11.6026 -1.29913 
0.00327177 -1.29913 -4.56731 
-8.11958 -0.000313914 -0.000449049 
-0.000313914 -11.6054 -1.29909 
-0.000449049 -1.29909 -4.57305 
-8.1081 -0.000154936 -0.000499469 
-0.000154936 0.840908 -2.46934 
-0.000499469 -2.46934 -17.0308 
-8.11654 0.00399634 0.00325712 
0.00399634 0.843785 -2.46939 
0.00325712 -2.46939 -17.0253 
-8.13728 0.00379559 0.00227507 
0.00379559 -8.62335 1.46485 
0.00227507 1.46485 -7.53739 
-8.12785 -0.000319921 -0.00144575 
-0.000319921 -8.62615 1.46484 
-0.00144575 1.46484 -7.54402 
-8.11639 -0.000147285 -0.00144702 
-0.000147285 -2.84859 0.294593 
-0.00144702 0.294593 -13.333 
-8.12588 0.00396823 0.00230956 
0.00396823 -2.84569 0.294584 
0.00230956 0.294584 -13.3265 
-4.6153 0.00468743 -0.00275659 
0.00468743 -2.37586 1.16417 
-0.00275659 1.16417 -6.72981 
-4.60594 -0.000299785 -0.00144575 
-0.000299785 -2.37902 1.16419 
-0.00144575 1.16419 -6.73602 
-4.59197 -0.00014237 -0.00144702 
-0.00014237 5.67578 1.72254 
-0.00144702 1.72254 -14.8048 
-4.60105 0.00484485 -0.00276877 
0.00484485 5.67868 1.72253 
-0.00276877 1.72253 -14.7986 
-4.60592 0.00471826 -0.00378673 
0.00471826 -5.18703 2.3517 
-0.00378673 2.3517 -3.92803 
-4.59765 -0.000279861 -0.0024759 
-0.000279861 -5.19012 2.35169 
-0.0024759 2.35169 -3.93321 
-4.58367 -0.000135089 -0.00244546 
-0.000135089 -4.79506 2.91004 
-0.00244546 2.91004 -4.34225 
-4.59164 0.00486304 -0.0037672 
0.00486304 -4.79215 2.91006 
-0.0037672 2.91006 -4.33718 
-2.18423 0.00364079 -0.00749957 
0.00364079 1.06952 2.6255 
-0.00749957 2.6255 -5.32003 
-2.17692 -0.000209492 -0.0024759 
-0.000209492 1.06718 2.6255 
-0.0024759 2.6255 -5.325 
-2.16603 -9.51565e-05 -0.00244546 
-9.51565e-05 2.52953 3.17658 
-0.00244546 3.17658 -6.79824 
-2.17315 0.00375512 -0.00750882 
0.00375512 2.53159 3.17661 
-0.00750882 3.17661 -6.79318 
-2.16102 0.00371205 -0.00823032 
0.00371205 -2.97354 2.79209 
-0.00823032 2.79209 -1.30017 
-2.15594 -0.000177916 -0.00320665 
-0.000177916 -2.97577 2.79208 
-0.00320665 2.79208 -1.30303 
-2.14503 -8.8993e-05 -0.0031612 
-8.8993e-05 -2.62241 3.34316 
-0.0031612 3.34316 -1.6673 
-2.1498 0.00380098 -0.00822456 
0.00380098 -2.62035 3.3432 
-0.00822456 3.3432 -1.66459 
-0.672426 0.00133137 -0.0102087 
0.00133137 1.6675 2.95735 
-0.0102087 2.95735 -2.93588 
-0.66883 -8.6453e-05 -0.00320665 
-8.6453e-05 1.6666 2.95734 
-0.00320665 2.95734 -2.93857 
-0.664776 -3.70048e-05 -0.0031612 
-3.70048e-05 1.92094 3.45912 
-0.0031612 3.45912 -3.19696 
-0.668349 0.00138081 -0.0102103 
0.00138081 1.92167 3.45915 
-0.0102103 3.45915 -3.19413 
-0.641825 0.00141668 -0.0104707 
0.00141668 -2.07979 2.98411 
-0.0104707 2.98411 0.780808 
-0.640997 -4.81856e-05 -0.00346863 
-4.81856e-05 -2.08055 2.9841 
-0.00346863 2.9841 0.78074 
-0.636912 -2.75819e-05 -0.00341902 
-2.75819e-05 -1.98937 3.48587 
-0.00341902 3.48587 0.685482 
-0.637569 0.00143728 -0.0104682 
0.00143728 -1.98863 3.48591 
-0.0104682 3.48591 0.685392 
0.641825 -0.00141668 -0.0104707 
-0.00141668 2.07979 2.98411 
-0.0104707 2.98411 -0.780808 
0.640998 4.81856e-05 -0.00346863 
4.81856e-05 2.08055 2.9841 
-0.00346863 2.9841 -0.78074 
0.636912 2.75819e-05 -0.00341902 
2.75819e-05 1.98937 3.48587 
-0.00341902 3.48587 -0.685482 
0.637569 -0.00143728 -0.0104682 
-0.00143728 1.98863 3.48591 
-0.0104682 3.48591 -0.685392 
0.672427 -0.00133137 -0.0102087 
-0.00133137 -1.6675 2.95735 
-0.0102087 2.95735 2.93588 
0.668831 8.6453e-05 -0.00320665 
8.6453e-05 -1.6666 2.95734 
-0.00320665 2.95734 2.93858 
0.664776 3.70048e-05 -0.0031612 
3.70048e-05 -1.92094 3.45912 
-0.0031612 3.45912 3.19696 
0.668349 -0.00138081 -0.0102103 
-0.00138081 -1.92167 3.45915 
-0.0102103 3.45915 3.19413 
2.16102 -0.00371205 -0.00823032 
-0.00371205 2.97354 2.79209 
-0.00823032 2.79209 1.30017 
2.15594 0.000177916 -0.00320665 
0.000177916 2.97577 2.79208 
-0.00320665 2.79208 1.30303 
2.14503 8.8993e-05 -0.0031612 
8.8993e-05 2.62241 3.34316 
-0.0031612 3.34316 1.6673 
2.1498 -0.00380098 -0.00822456 
-0.00380098 2.62035 3.3432 
-0.00822456 3.3432 1.66459 
2.18423 -0.00364079 -0.00749957 
-0.00364079 -1.06952 2.6255 
-0.00749957 2.6255 5.32003 
2.17692 0.000209492 -0.0024759 
0.000209492 -1.06718 2.6255 
-0.0024759 2.6255 5.325 
2.16603 9.51565e-05 -0.00244546 
9.51565e-05 -2.52953 3.17658 
-0.00244546 3.17658 6.79824 
2.17315 -0.00375512 -0.00750882 
-0.00375512 -2.53159 3.17661 
-0.00750882 3.17661 6.79318 
4.60592 -0.00471826 -0.00378673 
-0.00471826 5.18703 2.3517 
-0.00378673 2.3517 3.92803 
4.59765 0.000279861 -0.0024759 
0.000279861 5.19012 2.35169 
-0.0024759 2.35169 3.93321 
4.58367 0.000135089 -0.00244546 
0.000135089 4.79506 2.91004 
-0.00244546 2.91004 4.34225 
4.59164 -0.00486304 -0.0037672 
-0.00486304 4.79215 2.91006 
-0.0037672 2.91006 4.33718 
4.6153 -0.00468743 -0.00275659 
-0.00468743 2.37586 1.16417 
-0.00275659 1.16417 6.72981 
4.60594 0.000299785 -0.00144575 
0.000299785 2.37902 1.16419 
-0.00144575 1.16419 6.73602 
4.59197 0.00014237 -0.00144702 
0.00014237 -5.67578 1.72254 
-0.00144702 1.72254 14.8048 
4.60105 -0.00484485 -0.00276877 
-0.00484485 -5.67868 1.72253 
-0.00276877 1.72253 14.7986 
8.13728 -0.00379559 0.00227507 
-0.00379559 8.62335 1.46485 
0.00227507 1.46485 7.53739 
8.12785 0.000319921 -0.00144575 
0.000319921 8.62615 1.46484 
-0.00144575 1.46484 7.54402 
8.11639 0.000147285 -0.00144702 
0.000147285 2.84859 0.294593 
-0.00144702 0.294593 13.333 
8.12588 -0.00396823 0.00230956 
-0.00396823 2.84569 0.294584 
0.00230956 0.294584 13.3265 
8.12809 -0.00383736 0.00327177 
-0.00383736 11.6026 -1.29913 
0.00327177 -1.29913 4.56731 
8.11958 0.000313914 -0.000449049 
0.000313914 11.6054 -1.29909 
-0.000449049 -1.29909 4.57305 
8.1081 0.000154936 -0.000499469 
0.000154936 -0.840908 -2.46934 
-0.000499469 -2.46934 17.0308 
8.11654 -0.00399634 0.00325712 
-0.00399634 -0.843785 -2.46939 
0.00325712 -2.46939 17.0253 
12.5405 -0.00125838 0.00905081 
-0.00125838 8.43163 3.41529 
0.00905081 3.41529 16.5604 
12.5329 0.000193875 -0.000449049 
0.000193875 8.43276 3.41531 
-0.000449049 3.41531 16.5668 
12.5288 7.02736e-05 -0.000499468 
7.02736e-05 18.0889 3.56168 
-0.000499468 3.56168 6.91477 
12.5367 -0.00138198 0.00901892 
-0.00138198 18.0876 3.56159 
0.00901892 3.56159 6.90818 
12.5109 -0.00130674 0.00949986 
-0.00130674 4.26302 3.77144 
0.00949986 3.77144 20.7586 
12.507 0.000164051 -9.82904e-11 
0.000164051 4.26399 3.77141 
-9.82904e-11 3.77141 20.7615 
12.5029 0.00011225 6.55609e-10 
0.00011225 27.9922 3.91778 
6.55609e-10 3.91778 -2.96264 
12.507 -0.00135854 0.00951839 
-0.00135854 27.9911 3.91774 
0.00951839 3.91774 -2.96562 
-12.5207 0.00257648 0.021096 
0.00257648 -4.26745 3.77208 
0.021096 3.77208 -20.7624 
-12.508 0.000968027 0.00949986 
0.000968027 -4.27042 3.77197 
0.00949986 3.77197 -20.7722 
-12.5031 0.00111911 0.00951839 
0.00111911 -28.0006 3.91806 
0.00951839 3.91806 2.9531 
-12.5169 0.00272756 0.0210898 
0.00272756 -27.9968 3.91794 
0.0210898 3.91794 2.9631 
-12.5604 0.00246928 0.0196779 
0.00246928 -8.43605 3.41628 
0.0196779 3.41628 -16.5542 
-12.5361 0.000836043 0.00808167 
0.000836043 -8.43961 3.41632 
0.00808167 3.41632 -16.5749 
-12.531 0.00122207 0.00794804 
0.00122207 -18.0951 3.56241 
0.00794804 3.56241 -6.92443 
-12.5566 0.00285531 0.0195194 
0.00285531 -18.0909 3.56213 
0.0195194 3.56213 -6.90316 
-8.14917 0.00783352 0.00656386 
0.00783352 -11.6058 -1.29873 
0.00656386 -1.29873 -4.56383 
-8.12203 0.00318692 0.00230264 
0.00318692 -11.6145 -1.2986 
0.00230264 -1.2986 -4.58226 
-8.10904 0.00366096 0.00218624 
0.00366096 0.832023 -2.46891 
0.00218624 -2.46891 -17.0418 
-8.13644 0.00830756 0.00647349 
0.00830756 0.841544 -2.46909 
0.00647349 -2.46909 -17.0239 
-8.16047 0.00775089 0.00343954 
0.00775089 -8.62736 1.46612 
0.00343954 1.46612 -7.53095 
-8.13069 0.00313032 -0.000821685 
0.00313032 -8.6362 1.4661 
-0.000821685 1.4661 -7.55189 
-8.11758 0.00364657 -0.000786441 
0.00364657 -2.85801 0.295784 
-0.000786441 0.295784 -13.3432 
-8.14798 0.00826715 0.00350081 
0.00826715 -2.84842 0.295762 
0.00350081 0.295762 -13.3224 
-4.6382 0.00964776 -0.00761182 
0.00964776 -2.37738 1.16521 
-0.00761182 1.16521 -6.724 
-4.60874 0.00407898 -0.00585334 
0.00407898 -2.3873 1.16528 
-0.00585334 1.16528 -6.74352 
-4.5932 0.00453845 -0.00586477 
0.00453845 5.66857 1.72369 
-0.00586477 1.72369 -14.8149 
-4.62225 0.0101072 -0.00762689 
0.0101072 5.67814 1.72367 
-0.00762689 1.72367 -14.7955 
-4.6256 0.00973204 -0.0108112 
0.00973204 -5.19054 2.35358 
-0.0108112 2.35358 -3.92343 
-4.59974 0.00415962 -0.00905274 
0.00415962 -5.20023 2.35356 
-0.00905274 2.35356 -3.9396 
-4.58421 0.00457294 -0.00897171 
0.00457294 -4.80485 2.91197 
-0.00897171 2.91197 -4.35051 
-4.60962 0.0101454 -0.0107338 
0.0101454 -4.79524 2.91204 
-0.0107338 2.91204 -4.3347 
-2.20214 0.00749942 -0.0187911 
0.00749942 1.06943 2.62729 
-0.0187911 2.62729 -5.31478 
-2.17934 0.00322222 -0.0127656 
0.00322222 1.06208 2.62731 
-0.0127656 2.62731 -5.33024 
-2.16728 0.00355214 -0.0127133 
0.00355214 2.52552 3.17851 
-0.0127133 3.17851 -6.80573 
-2.18979 0.00782933 -0.0187528 
0.00782933 2.53231 3.17858 
-0.0187528 3.17858 -6.79001 
-2.17275 0.00766519 -0.0210459 
0.00766519 -2.97659 2.79445 
-0.0210459 2.79445 -1.29815 
-2.15696 0.00337399 -0.0150203 
0.00337399 -2.98353 2.79443 
-0.0150203 2.79443 -1.307 
-2.14502 0.00361496 -0.0149276 
0.00361496 -2.63029 3.34563 
-0.0149276 3.34563 -1.67218 
-2.16022 0.00790616 -0.0209671 
0.00790616 -2.62349 3.34574 
-0.0209671 3.34574 -1.66378 
-0.68145 0.00273701 -0.0252457 
0.00273701 1.6687 2.95967 
-0.0252457 2.95967 -2.93258 
-0.670287 0.00115337 -0.0169988 
0.00115337 1.66587 2.95968 
-0.0169988 2.95968 -2.94091 
-0.665754 0.00129993 -0.0169134 
0.00129993 1.92108 3.46159 
-0.0169134 3.46159 -3.20066 
-0.676911 0.00288357 -0.0251696 
0.00288357 1.9235 3.46169 
-0.0251696 3.46169 -3.19192 
-0.643334 0.00292913 -0.0260514 
0.00292913 -2.08207 2.98663 
-0.0260514 2.98663 0.78007 
-0.640773 0.00133625 -0.0178045 
0.00133625 -2.08441 2.98662 
-0.0178045 2.98662 0.779848 
-0.636381 0.00138277 -0.0177085 
0.00138277 -1.99378 3.48853 
-0.0177085 3.48853 0.684831 
-0.638613 0.00297565 -0.0259647 
0.00297565 -1.99131 3.48864 
-0.0259647 3.48864 0.684597 
0.643334 -0.00292913 -0.0260514 
-0.00292913 2.08207 2.98663 
-0.0260514 2.98663 -0.78007 
0.640773 -0.00133625 -0.0178045 
-0.00133625 2.08441 2.98662 
-0.0178045 2.98662 -0.779848 
0.636381 -0.00138277 -0.0177085 
-0.00138277 1.99378 3.48853 
-0.0177085 3.48853 -0.684831 
0.638613 -0.00297565 -0.0259647 
-0.00297565 1.99131 3.48864 
-0.0259647 3.48864 -0.684597 
0.68145 -0.00273701 -0.0252457 
-0.00273701 -1.6687 2.95967 
-0.0252457 2.95967 2.93258 
0.670287 -0.00115337 -0.0169988 
-0.00115337 -1.66587 2.95968 
-0.0169988 2.95968 2.94091 
0.665754 -0.00129993 -0.0169134 
-0.00129993 -1.92108 3.46159 
-0.0169134 3.46159 3.20066 
0.676911 -0.00288357 -0.0251696 
-0.00288357 -1.9235 3.46169 
-0.0251696 3.46169 3.19192 
2.17275 -0.00766519 -0.0210459 
-0.00766519 2.97659 2.79445 
-0.0210459 2.79445 1.29815 
2.15696 -0.00337399 -0.0150203 
-0.00337399 2.98353 2.79443 
-0.0150203 2.79443 1.307 
2.14502 -0.00361496 -0.0149276 
-0.00361496 2.63029 3.34563 
-0.0149276 3.34563 1.67218 
2.16023 -0.00790616 -0.0209671 
-0.00790616 2.62349 3.34574 
-0.0209671 3.34574 1.66378 
2.20214 -0.00749942 -0.0187911 
-0.00749942 -1.06943 2.62729 
-0.0187911 2.62729 5.31478 
2.17934 -0.00322222 -0.0127656 
-0.00322222 -1.06208 2.62731 
-0.0127656 2.62731 5.33024 
2.16728 -0.00355214 -0.0127133 
-0.00355214 -2.52552 3.17851 
-0.0127133 3.17851 6.80573 
2.18979 -0.00782933 -0.0187528 
-0.00782933 -2.53231 3.17858 
-0.0187528 3.17858 6.79001 
4.6256 -0.00973204 -0.0108112 
-0.00973204 5.19054 2.35358 
-0.0108112 2.35358 3.92343 
4.59974 -0.00415962 -0.00905274 
-0.00415962 5.20023 2.35356 
-0.00905274 2.35356 3.9396 
4.58421 -0.00457294 -0.00897171 
-0.00457294 4.80485 2.91197 
-0.00897171 2.91197 4.35051 
4.60962 -0.0101454 -0.0107338 
-0.0101454 4.79524 2.91204 
-0.0107338 2.91204 4.3347 
4.6382 -0.00964776 -0.00761182 
-0.00964776 2.37738 1.16521 
-0.00761182 1.16521 6.724 
4.60874 -0.00407898 -0.00585334 
-0.00407898 2.3873 1.16528 
-0.00585334 1.16528 6.74352 
4.5932 -0.00453845 -0.00586477 
-0.00453845 -5.66857 1.72369 
-0.00586477 1.72369 14.8149 
4.62225 -0.0101072 -0.00762689 
-0.0101072 -5.67814 1.72367 
-0.00762689 1.72367 14.7955 
8.16047 -0.00775089 0.00343954 
-0.00775089 8.62736 1.46612 
0.00343954 1.46612 7.53095 
8.13069 -0.00313032 -0.000821685 
-0.00313032 8.6362 1.4661 
-0.000821685 1.4661 7.55189 
8.11758 -0.00364657 -0.000786441 
-0.00364657 2.85801 0.295784 
-0.000786441 0.295784 13.3432 
8.14798 -0.00826715 0.00350081 
-0.00826715 2.84842 0.295762 
0.00350081 0.295762 13.3224 
8.14917 -0.00783352 0.00656386 
-0.00783352 11.6058 -1.29873 
0.00656386 -1.29873 4.56383 
8.12203 -0.00318692 0.00230264 
-0.00318692 11.6145 -1.2986 
0.00230264 -1.2986 4.58226 
8.10904 -0.00366096 0.00218624 
-0.00366096 -0.832023 -2.46891 
0.00218624 -2.46891 17.0418 
8.13644 -0.00830756 0.00647349 
-0.00830756 -0.841544 -2.46909 
0.00647349 -2.46909 17.0239 
12.5604 -0.00246928 0.0196779 
-0.00246928 8.43605 3.41628 
0.0196779 3.41628 16.5542 
12.5361 -0.000836043 0.00808167 
-0.000836043 8.43961 3.41632 
0.00808167 3.41632 16.5749 
12.531 -0.00122207 0.00794804 
-0.00122207 18.0951 3.56241 
0.00794804 3.56241 6.92443 
12.5566 -0.00285531 0.0195194 
-0.00285531 18.0909 3.56213 
0.0195194 3.56213 6.90316 
12.5207 -0.00257648 0.021096 
-0.00257648 4.26745 3.77208 
0.021096 3.77208 20.7624 
12.508 -0.000968027 0.00949986 
-0.000968027 4.27042 3.77197 
0.00949986 3.77197 20.7722 
12.5031 -0.00111911 0.00951839 
-0.00111911 28.0006 3.91806 
0.00951839 3.91806 -2.9531 
12.5169 -0.00272756 0.0210898 
-0.00272756 27.9968 3.91794 
0.0210898 3.91794 -2.9631 
-12.5396 0.00399238 0.0371698 
0.00399238 -4.27921 3.77345 
0.0371698 3.77345 -20.7742 
-12.5144 0.00222666 0.021096 
0.00222666 -4.28434 3.77316 
0.021096 3.77316 -20.7943 
-12.5081 0.00245141 0.0210898 
0.00245141 -28.0188 3.91862 
0.0210898 3.91862 2.93394 
-12.5364 0.00421713 0.0370141 
0.00421713 -28.011 3.91844 
0.0370141 3.91844 2.95437 
-12.5971 0.00386407 0.0345724 
0.00386407 -8.44801 3.41841 
0.0345724 3.41841 -16.5479 
-12.5508 0.00194892 0.0184987 
0.00194892 -8.4545 3.41838 
0.0184987 3.41838 -16.5877 
-12.5443 0.00263967 0.0182413 
0.00263967 -18.1086 3.56383 
0.0182413 3.56383 -6.94016 
-12.5935 0.00455483 0.0341656 
0.00455483 -18.1001 3.5634 
0.0341656 3.5634 -6.89949 
-8.18672 0.0126072 0.0107077 
0.0126072 -11.6167 -1.29789 
0.0107077 -1.29789 -4.56307 
-8.13617 0.00717249 0.00538466 
0.00717249 -11.6324 -1.29769 
0.00538466 -1.29769 -4.59788 
-8.11997 0.00789156 0.0051953 
0.00789156 0.814416 -2.46811 
0.0051953 -2.46811 -17.0609 
-8.17297 0.0133262 0.010518 
0.0133262 0.833509 -2.46841 
0.010518 -2.46841 -17.027 
-8.20116 0.0124889 0.00504285 
0.0124889 -8.64033 1.46866 
0.00504285 1.46866 -7.52498 
-8.14652 0.00705389 -0.000280199 
0.00705389 -8.65637 1.46859 
-0.000280199 1.46859 -7.56358 
-8.13007 0.00787742 -0.000204969 
0.00787742 -2.87698 0.298172 
-0.000204969 0.298172 -13.3594 
-8.18765 0.0133124 0.00511776 
0.0133124 -2.85772 0.298138 
0.00511776 0.298138 -13.3211 
-4.67778 0.0156205 -0.0140784 
0.0156205 -2.38504 1.16729 
-0.0140784 1.16729 -6.71909 
-4.62442 0.00910746 -0.0113316 
0.00910746 -2.40289 1.16741 
-0.0113316 1.16741 -6.7546 
-4.60538 0.00973821 -0.0113327 
0.00973821 5.65488 1.72601 
-0.0113327 1.72601 -14.8314 
-4.65988 0.0162512 -0.0140596 
0.0162512 5.67389 1.72594 
-0.0140596 1.72594 -14.7959 
-4.65935 0.0157494 -0.01978 
0.0157494 -5.20261 2.35729 
-0.01978 2.35729 -3.91996 
-4.61279 0.00925625 -0.0170332 
0.00925625 -5.22003 2.35727 
-0.0170332 2.35727 -3.94909 
-4.59378 0.00983023 -0.0168919 
0.00983023 -4.82442 2.91587 
-0.0168919 2.91587 -4.3637 
-4.6415 0.0163233 -0.0196188 
0.0163233 -4.80523 2.91595 
-0.0196188 2.91595 -4.33518 
-2.2325 0.0121262 -0.0331044 
0.0121262 1.06599 2.63087 
-0.0331044 2.63087 -5.30987 
-2.19197 0.00716652 -0.0250131 
0.00716652 1.05291 2.63094 
-0.0250131 2.63094 -5.33732 
-2.17737 0.00758345 -0.0249109 
0.00758345 2.51829 3.1824 
-0.0249109 3.1824 -6.8173 
-2.21863 0.0125431 -0.0329444 
0.0125431 2.53164 3.18246 
-0.0329444 3.18246 -6.78939 
-2.19259 0.0123499 -0.0370719 
0.0123499 -2.98644 2.79911 
-0.0370719 2.79911 -1.29735 
-2.1645 0.00744821 -0.0289805 
0.00744821 -2.99872 2.79913 
-0.0289805 2.79913 -1.31317 
-2.1501 0.00773429 -0.0288279 
0.00773429 -2.64616 3.3506 
-0.0288279 3.3506 -1.68012 
-2.17878 0.012636 -0.0368613 
0.012636 -2.6326 3.35071 
-0.0368613 3.35071 -1.665 
-0.6965 0.00444073 -0.0439335 
0.00444073 1.67009 2.96429 
-0.0439335 2.96429 -2.92915 
-0.676962 0.00258377 -0.0331803 
0.00258377 1.66504 2.96437 
-0.0331803 2.96437 -2.94364 
-0.671496 0.00276549 -0.0330303 
0.00276549 1.922 3.46656 
-0.0330303 3.46656 -3.20606 
-0.691294 0.00462246 -0.0436949 
0.00462246 1.92666 3.46664 
-0.0436949 3.46664 -3.19093 
-0.645973 0.00468679 -0.0453425 
0.00468679 -2.08816 2.99162 
-0.0453425 2.99162 0.778571 
-0.641298 0.00291845 -0.0345893 
0.00291845 -2.09224 2.99168 
-0.0345893 2.99168 0.777981 
-0.636062 0.00295464 -0.0344279 
0.00295464 -2.00294 3.49388 
-0.0344279 3.49388 0.683446 
-0.640933 0.00472298 -0.0450925 
0.00472298 -1.99796 3.49397 
-0.0450925 3.49397 0.68334 
0.645973 -0.00468679 -0.0453425 
-0.00468679 2.08816 2.99162 
-0.0453425 2.99162 -0.778571 
0.641298 -0.00291845 -0.0345893 
-0.00291845 2.09224 2.99168 
-0.0345893 2.99168 -0.777981 
0.636062 -0.00295464 -0.0344279 
-0.00295464 2.00294 3.49388 
-0.0344279 3.49388 -0.683446 
0.640934 -0.00472298 -0.0450925 
-0.00472298 1.99796 3.49397 
-0.0450925 3.49397 -0.68334 
0.6965 -0.00444073 -0.0439335 
-0.00444073 -1.67009 2.96429 
-0.0439335 2.96429 2.92915 
0.676963 -0.00258377 -0.0331803 
-0.00258377 -1.66504 2.96437 
-0.0331803 2.96437 2.94364 
0.671496 -0.00276549 -0.0330303 
-0.00276549 -1.922 3.46656 
-0.0330303 3.46656 3.20606 
0.691294 -0.00462246 -0.0436949 
-0.00462246 -1.92666 3.46664 
-0.0436949 3.46664 3.19093 
2.19259 -0.0123499 -0.0370719 
-0.0123499 2.98644 2.79911 
-0.0370719 2.79911 1.29735 
2.1645 -0.00744821 -0.0289805 
-0.00744821 2.99872 2.79913 
-0.0289805 2.79913 1.31317 
2.1501 -0.00773429 -0.0288279 
-0.00773429 2.64616 3.3506 
-0.0288279 3.3506 1.68012 
2.17879 -0.012636 -0.0368613 
-0.012636 2.6326 3.35071 
-0.0368613 3.35071 1.665 
2.2325 -0.0121262 -0.0331044 
-0.0121262 -1.06599 2.63087 
-0.0331044 2.63087 5.30987 
2.19197 -0.00716652 -0.0250131 
-0.00716652 -1.05291 2.63094 
-0.0250131 2.63094 5.33732 
2.17737 -0.00758345 -0.0249109 
-0.00758345 -2.51829 3.1824 
-0.0249109 3.1824 6.8173 
2.21863 -0.0125431 -0.0329444 
-0.0125431 -2.53164 3.18246 
-0.0329444 3.18246 6.78939 
4.65935 -0.0157494 -0.01978 
-0.0157494 5.20261 2.35729 
-0.01978 2.35729 3.91996 
4.61279 -0.00925625 -0.0170332 
-0.00925625 5.22003 2.35727 
-0.0170332 2.35727 3.94909 
4.59378 -0.00983023 -0.0168919 
-0.00983023 4.82442 2.91587 
-0.0168919 2.91587 4.3637 
4.6415 -0.0163233 -0.0196188 
-0.0163233 4.80523 2.91595 
-0.0196188 2.91595 4.33518 
4.67778 -0.0156205 -0.0140784 
-0.0156205 2.38504 1.16729 
-0.0140784 1.16729 6.71909 
4.62442 -0.00910746 -0.0113316 
-0.00910746 2.40289 1.16741 
-0.0113316 1.16741 6.7546 
4.60538 -0.00973821 -0.0113327 
-0.00973821 -5.65488 1.72601 
-0.0113327 1.72601 14.8314 
4.65988 -0.0162512 -0.0140596 
-0.0162512 -5.67389 1.72594 
-0.0140596 1.72594 14.7959 
8.20116 -0.0124889 0.00504285 
-0.0124889 8.64033 1.46866 
0.00504285 1.46866 7.52498 
8.14652 -0.00705389 -0.000280199 
-0.00705389 8.65637 1.46859 
-0.000280199 1.46859 7.56358 
8.13007 -0.00787742 -0.000204969 
-0.00787742 2.87698 0.298172 
-0.000204969 0.298172 13.3594 
8.18765 -0.0133124 0.00511776 
-0.0133124 2.85772 0.298138 
0.00511776 0.298138 13.3211 
8.18672 -0.0126072 0.0107077 
-0.0126072 11.6167 -1.29789 
0.0107077 -1.29789 4.56307 
8.13617 -0.00717249 0.00538466 
-0.00717249 11.6324 -1.29769 
0.00538466 -1.29769 4.59788 
8.11997 -0.00789156 0.0051953 
-0.00789156 -0.814416 -2.46811 
0.0051953 -2.46811 17.0609 
8.17297 -0.0133262 0.010518 
-0.0133262 -0.833509 -2.46841 
0.010518 -2.46841 17.027 
12.5971 -0.00386407 0.0345724 
-0.00386407 8.44801 3.41841 
0.0345724 3.41841 16.5479 
12.5508 -0.00194892 0.0184987 
-0.00194892 8.4545 3.41838 
0.0184987 3.41838 16.5877 
12.5443 -0.00263967 0.0182413 
-0.00263967 18.1086 3.56383 
0.0182413 3.56383 6.94016 
12.5935 -0.00455483 0.0341656 
-0.00455483 18.1001 3.5634 
0.0341656 3.5634 6.89949 
12.5396 -0.00399238 0.0371698 
-0.00399238 4.27921 3.77345 
0.0371698 3.77345 20.7742 
12.5144 -0.00222666 0.021096 
-0.00222666 4.28434 3.77316 
0.021096 3.77316 20.7943 
12.5081 -0.00245141 0.0210898 
-0.00245141 28.0188 3.91862 
0.0210898 3.91862 -2.93394 
12.5364 -0.00421713 0.0370141 
-0.00421713 28.011 3.91844 
0.0370141 3.91844 -2.95437 
-12.5729 0.00528514 0.0605431 
0.00528514 -4.30299 3.7756 
0.0605431 3.7756 -20.7975 
-12.5288 0.00371382 0.0371698 
0.00371382 -4.30979 3.775 
0.0371698 3.775 -20.8349 
-12.5204 0.00390019 0.0370141 
0.00390019 -28.0523 3.91953 
0.0370141 3.91953 2.89929 
-12.573 0.0054715 0.0599503 
0.0054715 -28.0377 3.91943 
0.0599503 3.91943 2.9372 
-12.6577 0.00527118 0.0563672 
0.00527118 -8.47304 3.42178 
0.0563672 3.42178 -16.5428 
-12.5806 0.00326276 0.0329939 
0.00326276 -8.48253 3.42154 
0.0329939 3.42154 -16.6104 
-12.5721 0.00415307 0.0324675 
0.00415307 -18.1343 3.56608 
0.0324675 3.56608 -6.96704 
-12.6559 0.00616149 0.0554037 
0.00616149 -18.1192 3.56561 
0.0554037 3.56561 -6.89833 
-8.24772 0.0181266 0.0157318 
0.0181266 -11.6404 -1.29684 
0.0157318 -1.29684 -4.56686 
-8.16536 0.0122027 0.00912916 
0.0122027 -11.6641 -1.29651 
0.00912916 -1.29651 -4.62549 
-8.14441 0.0128858 0.00881997 
0.0128858 0.783085 -2.46701 
0.00881997 -2.46701 -17.0936 
-8.23591 0.0188097 0.0153807 
0.0188097 0.817321 -2.46732 
0.0153807 -2.46732 -17.0363 
-8.26416 0.0180677 0.00674677 
0.0180677 -8.66884 1.47223 
0.00674677 1.47223 -7.52194 
-8.17875 0.012102 0.000144142 
0.012102 -8.69276 1.47215 
0.000144142 1.47215 -7.58343 
-8.15748 0.0127653 0.000241239 
0.0127653 -2.9115 0.301654 
0.000241239 0.301654 -13.386 
-8.25247 0.018731 0.00680198 
0.018731 -2.87755 0.301749 
0.00680198 0.301749 -13.3249 
-4.73959 0.0227105 -0.0237579 
0.0227105 -2.40322 1.17019 
-0.0237579 1.17019 -6.71673 
-4.65587 0.0155469 -0.0189771 
0.0155469 -2.42999 1.17054 
-0.0189771 1.17054 -6.77369 
-4.63163 0.0159495 -0.0189361 
0.0159495 5.63078 1.72939 
-0.0189361 1.72939 -14.8587 
-4.72241 0.0231131 -0.0235996 
0.0231131 5.66457 1.72942 
-0.0235996 1.72942 -14.8017 
-4.7094 0.0229709 -0.0325606 
0.0229709 -5.22968 2.36249 
-0.0325606 2.36249 -3.92047 
-4.63959 0.0159246 -0.0277798 
0.0159246 -5.25501 2.36269 
-0.0277798 2.36269 -3.96495 
-4.61539 0.0159448 -0.027594 
0.0159448 -4.85952 2.92154 
-0.027594 2.92154 -4.38463 
-4.6927 0.0229911 -0.0322576 
0.0229911 -4.82601 2.92172 
-0.0322576 2.92172 -4.34083 
-2.27875 0.0176239 -0.0527161 
0.0176239 1.05656 2.63605 
-0.0527161 2.63605 -5.30677 
-2.21655 0.01222 -0.0411042 
0.01222 1.03709 2.63646 
-0.0411042 2.63646 -5.3495 
-2.19832 0.0124177 -0.0409196 
0.0124177 2.50559 3.18812 
-0.0409196 3.18812 -6.83624 
-2.26508 0.0178215 -0.0522851 
0.0178215 2.52908 3.18825 
-0.0522851 3.18825 -6.79296 
-2.22111 0.0179637 -0.058734 
0.0179637 -3.00801 2.80574 
-0.058734 2.80574 -1.29985 
-2.18043 0.0128062 -0.0471222 
0.0128062 -3.02527 2.80612 
-0.0471222 2.80612 -1.32327 
-2.16235 0.012471 -0.0469057 
0.012471 -2.67429 3.35779 
-0.0469057 3.35779 -1.69233 
-2.20838 0.0176285 -0.0582713 
0.0176285 -2.65098 3.35794 
-0.0582713 3.35794 -1.6696 
-0.719318 0.00644884 -0.068752 
0.00644884 1.67145 2.97104 
-0.068752 2.97104 -2.92624 
-0.689279 0.00438011 -0.0539838 
0.00438011 1.66366 2.97152 
-0.0539838 2.97152 -2.94849 
-0.682585 0.00458335 -0.0537393 
0.00458335 1.92356 3.47382 
-0.0537393 3.47382 -3.21508 
-0.71382 0.00665209 -0.0681991 
0.00665209 1.93186 3.47389 
-0.0681991 3.47389 -3.19215 
-0.649143 0.00679879 -0.0708683 
0.00679879 -2.10058 2.99886 
-0.0708683 2.99886 0.775617 
-0.6434 0.0050384 -0.0561002 
0.0050384 -2.10585 2.99934 
-0.0561002 2.99934 0.775143 
-0.636795 0.00468913 -0.0558551 
0.00468913 -2.01904 3.50163 
-0.0558551 3.50163 0.681723 
-0.644935 0.00644952 -0.0703149 
0.00644952 -2.01069 3.50171 
-0.0703149 3.50171 0.681513 
0.649143 -0.00679879 -0.0708683 
-0.00679879 2.10058 2.99886 
-0.0708683 2.99886 -0.775617 
0.6434 -0.0050384 -0.0561002 
-0.0050384 2.10585 2.99934 
-0.0561002 2.99934 -0.775143 
0.636795 -0.00468913 -0.0558551 
-0.00468913 2.01904 3.50163 
-0.0558551 3.50163 -0.681723 
0.644935 -0.00644952 -0.0703149 
-0.00644952 2.01069 3.50171 
-0.0703149 3.50171 -0.681513 
0.719318 -0.00644884 -0.068752 
-0.00644884 -1.67145 2.97104 
-0.068752 2.97104 2.92624 
0.689279 -0.00438011 -0.0539838 
-0.00438011 -1.66366 2.97152 
-0.0539838 2.97152 2.94849 
0.682585 -0.00458335 -0.0537393 
-0.00458335 -1.92356 3.47382 
-0.0537393 3.47382 3.21508 
0.71382 -0.00665209 -0.0681991 
-0.00665209 -1.93186 3.47389 
-0.0681991 3.47389 3.19215 
2.22111 -0.0179637 -0.058734 
-0.0179637 3.00801 2.80574 
-0.058734 2.80574 1.29985 
2.18043 -0.0128062 -0.0471222 
-0.0128062 3.02527 2.80612 
-0.0471222 2.80612 1.32327 
2.16235 -0.012471 -0.0469057 
-0.012471 2.67429 3.35779 
-0.0469057 3.35779 1.69233 
2.20838 -0.0176285 -0.0582713 
-0.0176285 2.65098 3.35794 
-0.0582713 3.35794 1.6696 
2.27875 -0.0176239 -0.0527161 
-0.0176239 -1.05656 2.63605 
-0.0527161 2.63605 5.30677 
2.21655 -0.01222 -0.0411042 
-0.01222 -1.03709 2.63646 
-0.0411042 2.63646 5.3495 
2.19832 -0.0124177 -0.0409196 
-0.0124177 -2.50559 3.18812 
-0.0409196 3.18812 6.83624 
2.26508 -0.0178215 -0.0522851 
-0.0178215 -2.52908 3.18825 
-0.0522851 3.18825 6.79297 
4.7094 -0.0229709 -0.0325606 
-0.0229709 5.22968 2.36249 
-0.0325606 2.36249 3.92047 
4.63959 -0.0159246 -0.0277798 
-0.0159246 5.25501 2.36269 
-0.0277798 2.36269 3.96495 
4.61539 -0.0159448 -0.027594 
-0.0159448 4.85952 2.92154 
-0.027594 2.92154 4.38463 
4.6927 -0.0229911 -0.0322576 
-0.0229911 4.82601 2.92172 
-0.0322576 2.92172 4.34083 
4.73959 -0.0227105 -0.0237579 
-0.0227105 2.40322 1.17019 
-0.0237579 1.17019 6.71673 
4.65587 -0.0155469 -0.0189771 
-0.0155469 2.42999 1.17054 
-0.0189771 1.17054 6.77369 
4.63163 -0.0159495 -0.0189361 
-0.0159495 -5.63078 1.72939 
-0.0189361 1.72939 14.8587 
4.72241 -0.0231131 -0.0235996 
-0.0231131 -5.66457 1.72942 
-0.0235996 1.72942 14.8017 
8.26416 -0.0180677 0.00674677 
-0.0180677 8.66884 1.47223 
0.00674677 1.47223 7.52194 
8.17875 -0.012102 0.000144142 
-0.012102 8.69276 1.47215 
0.000144142 1.47215 7.58343 
8.15748 -0.0127653 0.000241239 
-0.0127653 2.9115 0.301654 
0.000241239 0.301654 13.386 
8.25247 -0.018731 0.00680198 
-0.018731 2.87755 0.301749 
0.00680198 0.301749 13.3249 
8.24772 -0.0181266 0.0157318 
-0.0181266 11.6404 -1.29684 
0.0157318 -1.29684 4.56686 
8.16536 -0.0122027 0.00912916 
-0.0122027 11.6641 -1.29651 
0.00912916 -1.29651 4.62549 
8.14441 -0.0128858 0.00881997 
-0.0128858 -0.783085 -2.46701 
0.00881997 -2.46701 17.0936 
8.23591 -0.0188097 0.0153807 
-0.0188097 -0.817321 -2.46732 
0.0153807 -2.46732 17.0363 
12.6577 -0.00527118 0.0563672 
-0.00527118 8.47304 3.42178 
0.0563672 3.42178 16.5428 
12.5806 -0.00326276 0.0329939 
-0.00326276 8.48253 3.42154 
0.0329939 3.42154 16.6104 
12.5721 -0.00415307 0.0324675 
-0.00415307 18.1343 3.56608 
0.0324675 3.56608 6.96704 
12.6559 -0.00616149 0.0554037 
-0.00616149 18.1192 3.56561 
0.0554037 3.56561 6.89833 
12.5729 -0.00528514 0.0605431 
-0.00528514 4.30299 3.7756 
0.0605431 3.7756 20.7975 
12.5288 -0.00371382 0.0371698 
-0.00371382 4.30979 3.775 
0.0371698 3.775 20.8349 
12.5204 -0.00390019 0.0370141 
-0.00390019 28.0523 3.91953 
0.0370141 3.91953 -2.89929 
12.573 -0.0054715 0.0599503 
-0.0054715 28.0377 3.91943 
0.0599503 3.91943 -2.9372 
-12.629 0.00583825 0.0950849 
0.00583825 -4.34741 3.77843 
0.0950849 3.77843 -20.8412 
-12.557 0.00559106 0.0605431 
0.00559106 -4.35396 3.77698 
0.0605431 3.77698 -20.9067 
-12.5464 0.00507104 0.0599503 
0.00507104 -28.1109 3.921 
0.0599503 3.921 2.83974 
-12.6382 0.00531823 0.0933742 
0.00531823 -28.0854 3.92088 
0.0933742 3.92088 2.906 
-12.7563 0.00609489 0.0885601 
0.00609489 -8.52134 3.42644 
0.0885601 3.42644 -16.54 
-12.631 0.00472979 0.0540183 
0.00472979 -8.53416 3.42527 
0.0540183 3.42527 -16.6524 
-12.6209 0.00578015 0.0531418 
0.00578015 -18.1821 3.56929 
0.0531418 3.56929 -7.01464 
-12.7601 0.00714524 0.0865657 
0.00714524 -18.1558 3.56889 
0.0865657 3.56889 -6.90173 
-8.33808 0.0237791 0.0218727 
0.0237791 -11.6901 -1.29574 
0.0218727 -1.29574 -4.58184 
-8.21771 0.0194736 0.0133829 
0.0194736 -11.718 -1.29593 
0.0133829 -1.29593 -4.67434 
-8.19069 0.0181311 0.0131188 
0.0181311 0.72916 -2.46564 
0.0131188 -2.46564 -17.1485 
-8.3397 0.0224366 0.0215367 
0.0224366 0.78667 -2.46647 
0.0215367 -2.46647 -17.057 
-8.35875 0.023351 0.00814336 
0.023351 -8.72704 1.47636 
0.00814336 1.47636 -7.52423 
-8.23198 0.0189735 -0.000346453 
0.0189735 -8.75724 1.47577 
-0.000346453 1.47577 -7.6208 
-8.20471 0.0186602 -0.000218818 
0.0186602 -2.97391 0.306064 
-0.000218818 0.306064 -13.4314 
-8.3603 0.0230377 0.00819902 
0.0230377 -2.91414 0.305623 
0.00819902 0.305623 -13.3356 
-4.82488 0.0311205 -0.0378782 
0.0311205 -2.44467 1.17407 
-0.0378782 1.17407 -6.7241 
-4.71092 0.025246 -0.0308511 
0.025246 -2.47584 1.17412 
-0.0308511 1.17412 -6.80688 
-4.6806 0.0226809 -0.0306204 
0.0226809 5.5901 1.73384 
-0.0306204 1.73384 -14.9032 
-4.81703 0.0285553 -0.037211 
0.0285553 5.64344 1.7329 
-0.037211 1.7329 -14.8201 
-4.78265 0.0307121 -0.0509561 
0.0307121 -5.28447 2.369 
-0.0509561 2.369 -3.92652 
-4.68288 0.0252741 -0.043929 
0.0252741 -5.31585 2.36889 
-0.043929 2.36889 -3.99491 
-4.65238 0.0236103 -0.0435431 
0.0236103 -4.92158 2.92862 
-0.0435431 2.92862 -4.41968 
-4.77693 0.0290483 -0.0501337 
0.0290483 -4.86442 2.92783 
-0.0501337 2.92783 -4.35229 
-2.33769 0.024435 -0.079127 
0.024435 1.03158 2.64348 
-0.079127 2.64348 -5.31283 
-2.2591 0.0200839 -0.0640845 
0.0200839 1.01048 2.64368 
-0.0640845 2.64368 -5.37033 
-2.2368 0.0174704 -0.0635707 
0.0174704 2.48424 3.19559 
-0.0635707 3.19559 -6.86639 
-2.33009 0.0218215 -0.0779617 
0.0218215 2.51908 3.19446 
-0.0779617 3.19446 -6.80793 
-2.26345 0.0239914 -0.087835 
0.0239914 -3.05031 2.81463 
-0.087835 2.81463 -1.30519 
-2.20576 0.0202917 -0.0727926 
0.0202917 -3.0707 2.81486 
-0.0727926 2.81486 -1.34249 
-2.18301 0.0186121 -0.0723108 
0.0186121 -2.72327 3.36677 
-0.0723108 3.36677 -1.71267 
-2.25922 0.0223118 -0.0867019 
0.0223118 -2.68355 3.36561 
-0.0867019 3.36561 -1.67618 
-0.744819 0.00925491 -0.101051 
0.00925491 1.66886 2.9807 
-0.101051 2.9807 -2.92973 
-0.710708 0.00747578 -0.0828105 
0.00747578 1.66118 2.98106 
-0.0828105 2.98106 -2.95617 
-0.702964 0.00606889 -0.0822386 
0.00606889 1.92638 3.48307 
-0.0822386 3.48307 -3.22911 
-0.740583 0.00784802 -0.0997906 
0.00784802 1.93664 3.48169 
-0.0997906 3.48169 -3.20176 
-0.658118 0.00881459 -0.104082 
0.00881459 -2.12209 3.009 
-0.104082 3.009 0.774516 
-0.64596 0.00772409 -0.0858417 
0.00772409 -2.1288 3.00936 
-0.0858417 3.00936 0.769066 
-0.637414 0.00734261 -0.0852707 
0.00734261 -2.04677 3.51138 
-0.0852707 3.51138 0.678486 
-0.657764 0.00843311 -0.102823 
0.00843311 -2.03095 3.50999 
-0.102823 3.50999 0.683021 
0.658118 -0.00881459 -0.104082 
-0.00881459 2.12209 3.009 
-0.104082 3.009 -0.774516 
0.645961 -0.00772409 -0.0858417 
-0.00772409 2.1288 3.00936 
-0.0858417 3.00936 -0.769065 
0.637414 -0.00734261 -0.0852707 
-0.00734261 2.04677 3.51138 
-0.0852707 3.51138 -0.678486 
0.657765 -0.00843311 -0.102823 
-0.00843311 2.03095 3.50999 
-0.102823 3.50999 -0.683021 
0.744819 -0.00925491 -0.101051 
-0.00925491 -1.66886 2.9807 
-0.101051 2.9807 2.92973 
0.710708 -0.00747578 -0.0828105 
-0.00747578 -1.66118 2.98106 
-0.0828105 2.98106 2.95617 
0.702964 -0.00606889 -0.0822386 
-0.00606889 -1.92638 3.48307 
-0.0822386 3.48307 3.22911 
0.740584 -0.00784802 -0.0997906 
-0.00784802 -1.93664 3.48169 
-0.0997906 3.48169 3.20176 
2.26345 -0.0239914 -0.087835 
-0.0239914 3.05031 2.81463 
-0.087835 2.81463 1.30519 
2.20576 -0.0202917 -0.0727926 
-0.0202917 3.0707 2.81486 
-0.0727926 2.81486 1.34249 
2.18301 -0.0186121 -0.0723108 
-0.0186121 2.72327 3.36677 
-0.0723108 3.36677 1.71267 
2.25922 -0.0223118 -0.0867019 
-0.0223118 2.68355 3.36561 
-0.0867019 3.36561 1.67618 
2.33769 -0.024435 -0.079127 
-0.024435 -1.03158 2.64348 
-0.079127 2.64348 5.31283 
2.2591 -0.0200839 -0.0640845 
-0.0200839 -1.01048 2.64368 
-0.0640845 2.64368 5.37033 
2.2368 -0.0174704 -0.0635707 
-0.0174704 -2.48424 3.19559 
-0.0635707 3.19559 6.86639 
2.33009 -0.0218215 -0.0779617 
-0.0218215 -2.51908 3.19446 
-0.0779617 3.19446 6.80793 
4.78265 -0.0307121 -0.0509561 
-0.0307121 5.28447 2.369 
-0.0509561 2.369 3.92652 
4.68288 -0.0252741 -0.043929 
-0.0252741 5.31585 2.36889 
-0.043929 2.36889 3.99491 
4.65238 -0.0236103 -0.0435431 
-0.0236103 4.92158 2.92862 
-0.0435431 2.92862 4.41968 
4.77693 -0.0290483 -0.0501337 
-0.0290483 4.86442 2.92783 
-0.0501337 2.92783 4.35229 
4.82488 -0.0311205 -0.0378782 
-0.0311205 2.44467 1.17407 
-0.0378782 1.17407 6.7241 
4.71092 -0.025246 -0.0308511 
-0.025246 2.47584 1.17412 
-0.0308511 1.17412 6.80688 
4.6806 -0.0226809 -0.0306204 
-0.0226809 -5.5901 1.73384 
-0.0306204 1.73384 14.9032 
4.81703 -0.0285553 -0.037211 
-0.0285553 -5.64344 1.7329 
-0.037211 1.7329 14.8201 
8.35875 -0.023351 0.00814336 
-0.023351 8.72704 1.47636 
0.00814336 1.47636 7.52423 
8.23198 -0.0189735 -0.000346453 
-0.0189735 8.75724 1.47577 
-0.000346453 1.47577 7.6208 
8.20471 -0.0186602 -0.000218818 
-0.0186602 2.97391 0.306064 
-0.000218818 0.306064 13.4314 
8.36031 -0.0230377 0.00819902 
-0.0230377 2.91414 0.305623 
0.00819902 0.305623 13.3356 
8.33808 -0.0237791 0.0218727 
-0.0237791 11.6901 -1.29574 
0.0218727 -1.29574 4.58184 
8.21771 -0.0194736 0.0133829 
-0.0194736 11.718 -1.29593 
0.0133829 -1.29593 4.67434 
8.19069 -0.0181311 0.0131188 
-0.0181311 -0.72916 -2.46564 
0.0131188 -2.46564 17.1485 
8.3397 -0.0224366 0.0215367 
-0.0224366 -0.78667 -2.46647 
0.0215367 -2.46647 17.057 
12.7563 -0.00609489 0.0885601 
-0.00609489 8.52134 3.42644 
0.0885601 3.42644 16.54 
12.631 -0.00472979 0.0540183 
-0.00472979 8.53416 3.42527 
0.0540183 3.42527 16.6524 
12.6209 -0.00578015 0.0531418 
-0.00578015 18.1821 3.56929 
0.0531418 3.56929 7.01464 
12.7601 -0.00714524 0.0865657 
-0.00714524 18.1558 3.56889 
0.0865657 3.56889 6.90173 
12.629 -0.00583825 0.0950849 
-0.00583825 4.34741 3.77843 
0.0950849 3.77843 20.8412 
12.557 -0.00559106 0.0605431 
-0.00559106 4.35396 3.77698 
0.0605431 3.77698 20.9067 
12.5464 -0.00507104 0.0599503 
-0.00507104 28.1109 3.921 
0.0599503 3.921 -2.83974 
12.6382 -0.00531823 0.0933742 
-0.00531823 28.0854 3.92088 
0.0933742 3.92088 -2.906 
-12.7253 0.0023194 0.14059 
0.0023194 -4.42938 3.77835 
0.14059 3.77835 -20.9149 
-12.6092 0.00777632 0.0950849 
0.00777632 -4.42397 3.77711 
0.0950849 3.77711 -21.0364 
-12.5922 0.00654403 0.0933742 
0.00654403 -28.2119 3.92198 
0.0933742 3.92198 2.73462 
-12.7687 0.00108712 0.137428 
0.00108712 -28.1591 3.92522 
0.137428 3.92522 2.85824 
-12.8852 0.00423917 0.131826 
0.00423917 -8.62766 3.42781 
0.131826 3.42781 -16.5567 
-12.7208 0.00824462 0.0863207 
0.00824462 -8.62586 3.42818 
0.0863207 3.42818 -16.7229 
-12.7072 0.00501159 0.0830013 
0.00501159 -18.2712 3.57305 
0.0830013 3.57305 -7.09116 
-12.9187 0.00100614 0.127055 
0.00100614 -18.2309 3.57468 
0.127055 3.57468 -6.91989 
-8.47849 0.0277729 0.0233203 
0.0277729 -11.7883 -1.30051 
0.0233203 -1.30051 -4.60618 
-8.29983 0.03023 0.0196333 
0.03023 -11.8098 -1.29734 
0.0196333 -1.29734 -4.7633 
-8.2688 0.0249226 0.0179722 
0.0249226 0.637548 -2.46578 
0.0179722 -2.46578 -17.2417 
-8.51432 0.0224654 0.0219366 
0.0224654 0.732006 -2.46393 
0.0219366 -2.46393 -17.0907 
-8.46481 0.0291162 0.00262985 
0.0291162 -8.85335 1.47522 
0.00262985 1.47522 -7.55482 
-8.32623 0.0318507 -0.00105718 
0.0318507 -8.86651 1.47702 
-0.00105718 1.47702 -7.68025 
-8.29566 0.0215251 -0.00134556 
0.0215251 -3.07924 0.308584 
-0.00134556 0.308584 -13.4981 
-8.50142 0.0187906 0.00261884 
0.0187906 -2.99884 0.311798 
0.00261884 0.311798 -13.3727 
-4.95445 0.0388799 -0.0656865 
0.0388799 -2.53152 1.17394 
-0.0656865 1.17394 -6.73316 
-4.7904 0.0404038 -0.0470787 
0.0404038 -2.55648 1.17801 
-0.0470787 1.17801 -6.87225 
-4.75296 0.0328741 -0.0467556 
0.0328741 5.51633 1.73703 
-0.0467556 1.73703 -14.9825 
-4.9783 0.0313502 -0.0638868 
0.0313502 5.60347 1.74019 
-0.0638868 1.74019 -14.8443 
-4.84649 0.0406718 -0.0845687 
0.0406718 -5.40718 2.37013 
-0.0845687 2.37013 -3.96546 
-4.76456 0.0436724 -0.065961 
0.0436724 -5.41474 2.3748 
-0.065961 2.3748 -4.03984 
-4.72691 0.0289203 -0.0662484 
0.0289203 -5.02403 2.93382 
-0.0662484 2.93382 -4.46819 
-4.87715 0.0259197 -0.0833796 
0.0259197 -4.9518 2.93637 
-0.0833796 2.93637 -4.39019 
-2.43042 0.0312613 -0.120826 
0.0312613 0.977658 2.64832 
-0.120826 2.64832 -5.31609 
-2.31291 0.0318036 -0.0941319 
0.0318036 0.959258 2.65377 
-0.0941319 2.65377 -5.41519 
-2.28677 0.0262844 -0.0940764 
0.0262844 2.44137 3.20205 
-0.0940764 3.20205 -6.92345 
-2.44047 0.0257421 -0.118965 
0.0257421 2.49892 3.20438 
-0.118965 3.20438 -6.8273 
-2.28895 0.0331543 -0.133501 
0.0331543 -3.14263 2.82031 
-0.133501 2.82031 -1.33727 
-2.25989 0.0355018 -0.106808 
0.0355018 -3.14114 2.82571 
-0.106808 2.82571 -1.36781 
-2.23241 0.0222146 -0.106713 
0.0222146 -2.80022 3.374 
-0.106713 3.374 -1.73622 
-2.30842 0.0198671 -0.131602 
0.0198671 -2.75753 3.37636 
-0.131602 3.37636 -1.7029 
-0.796229 0.0110414 -0.14861 
0.0110414 1.6619 2.98912 
-0.14861 2.98912 -2.92371 
-0.729104 0.0108842 -0.120024 
0.0108842 1.64945 2.99474 
-0.120024 2.99474 -2.97838 
-0.720541 0.0109935 -0.119802 
0.0109935 1.92329 3.49125 
-0.119802 3.49125 -3.26079 
-0.796291 0.0111507 -0.147015 
0.0111507 1.94688 3.49326 
-0.147015 3.49326 -3.20862 
-0.646103 0.0134507 -0.153042 
0.0134507 -2.16753 3.01764 
-0.153042 3.01764 0.755599 
-0.665435 0.0146666 -0.124456 
0.0146666 -2.15986 3.0232 
-0.124456 3.0232 0.767257 
-0.654501 0.00714827 -0.124173 
0.00714827 -2.08585 3.51971 
-0.124173 3.51971 0.682319 
-0.654677 0.00593238 -0.151387 
0.00593238 -2.07626 3.52178 
-0.151387 3.52178 0.6729 
0.646103 -0.0134507 -0.153042 
-0.0134507 2.16753 3.01764 
-0.153042 3.01764 -0.755599 
0.665435 -0.0146666 -0.124456 
-0.0146666 2.15986 3.0232 
-0.124456 3.0232 -0.767257 
0.654501 -0.00714827 -0.124173 
-0.00714827 2.08585 3.51971 
-0.124173 3.51971 -0.682319 
0.654677 -0.00593238 -0.151387 
-0.00593238 2.07626 3.52178 
-0.151387 3.52178 -0.672899 
0.79623 -0.0110414 -0.14861 
-0.0110414 -1.6619 2.98912 
-0.14861 2.98912 2.92371 
0.729104 -0.0108842 -0.120024 
-0.0108842 -1.64945 2.99474 
-0.120024 2.99474 2.97838 
0.720542 -0.0109935 -0.119802 
-0.0109935 -1.92329 3.49125 
-0.119802 3.49125 3.26079 
0.796291 -0.0111507 -0.147015 
-0.0111507 -1.94688 3.49326 
-0.147015 3.49326 3.20862 
2.28895 -0.0331543 -0.133501 
-0.0331543 3.14263 2.82031 
-0.133501 2.82031 1.33727 
2.25989 -0.0355018 -0.106808 
-0.0355018 3.14114 2.82571 
-0.106808 2.82571 1.36781 
2.23241 -0.0222146 -0.106713 
-0.0222146 2.80022 3.374 
-0.106713 3.374 1.73622 
2.30842 -0.0198671 -0.131602 
-0.0198671 2.75753 3.37636 
-0.131602 3.37636 1.7029 
2.43042 -0.0312613 -0.120826 
-0.0312613 -0.977658 2.64832 
-0.120826 2.64832 5.31609 
2.31291 -0.0318036 -0.0941319 
-0.0318036 -0.959258 2.65377 
-0.0941319 2.65377 5.41519 
2.28677 -0.0262844 -0.0940764 
-0.0262844 -2.44137 3.20205 
-0.0940764 3.20205 6.92345 
2.44047 -0.0257421 -0.118965 
-0.0257421 -2.49892 3.20438 
-0.118965 3.20438 6.8273 
4.84649 -0.0406718 -0.0845687 
-0.0406718 5.40718 2.37013 
-0.0845687 2.37013 3.96546 
4.76456 -0.0436724 -0.065961 
-0.0436724 5.41474 2.3748 
-0.065961 2.3748 4.03984 
4.72691 -0.0289203 -0.0662484 
-0.0289203 5.02403 2.93382 
-0.0662484 2.93382 4.46819 
4.87715 -0.0259197 -0.0833796 
-0.0259197 4.9518 2.93637 
-0.0833796 2.93637 4.39019 
4.95445 -0.0388799 -0.0656865 
-0.0388799 2.53152 1.17394 
-0.0656865 1.17394 6.73316 
4.7904 -0.0404038 -0.0470787 
-0.0404038 2.55648 1.17801 
-0.0470787 1.17801 6.87225 
4.75296 -0.0328741 -0.0467556 
-0.0328741 -5.51633 1.73703 
-0.0467556 1.73703 14.9825 
4.9783 -0.0313502 -0.0638868 
-0.0313502 -5.60347 1.74019 
-0.0638868 1.74019 14.8443 
8.46481 -0.0291162 0.00262985 
-0.0291162 8.85336 1.47522 
0.00262985 1.47522 7.55482 
8.32623 -0.0318507 -0.00105718 
-0.0318507 8.86651 1.47702 
-0.00105718 1.47702 7.68025 
8.29566 -0.0215251 -0.00134556 
-0.0215251 3.07924 0.308584 
-0.00134556 0.308584 13.4981 
8.50142 -0.0187906 0.00261884 
-0.0187906 2.99884 0.311798 
0.00261884 0.311798 13.3727 
8.47849 -0.0277729 0.0233203 
-0.0277729 11.7883 -1.30051 
0.0233203 -1.30051 4.60618 
8.29983 -0.03023 0.0196333 
-0.03023 11.8098 -1.29734 
0.0196333 -1.29734 4.7633 
8.2688 -0.0249226 0.0179722 
-0.0249226 -0.637547 -2.46578 
0.0179722 -2.46578 17.2417 
8.51432 -0.0224654 0.0219366 
-0.0224654 -0.732005 -2.46393 
0.0219366 -2.46393 17.0907 
12.8852 -0.00423917 0.131826 
-0.00423917 8.62766 3.42781 
0.131826 3.42781 16.5567 
12.7208 -0.00824462 0.0863207 
-0.00824462 8.62586 3.42818 
0.0863207 3.42818 16.7229 
12.7072 -0.00501159 0.0830013 
-0.00501159 18.2712 3.57305 
0.0830013 3.57305 7.09116 
12.9187 -0.00100614 0.127055 
-0.00100614 18.2309 3.57468 
0.127055 3.57468 6.91989 
12.7253 -0.0023194 0.14059 
-0.0023194 4.42938 3.77835 
0.14059 3.77835 20.9149 
12.6092 -0.00777632 0.0950849 
-0.00777632 4.42397 3.77711 
0.0950849 3.77711 21.0364 
12.5922 -0.00654403 0.0933742 
-0.00654403 28.2119 3.92198 
0.0933742 3.92198 -2.73462 
12.7687 -0.00108712 0.137428 
-0.00108712 28.1591 3.92522 
0.137428 3.92522 -2.85824 
-12.8577 0.0039613 0.21177 
0.0039613 -4.56424 3.77205 
0.21177 3.77205 -21.0677 
-12.72 0.01433 0.14059 
0.01433 -4.51894 3.7648 
0.14059 3.7648 -21.2506 
-12.7196 -0.00520932 0.137428 
-0.00520932 -28.3558 3.925 
0.137428 3.925 2.58588 
-12.9116 -0.015578 0.206491 
-0.015578 -28.3457 3.91807 
0.206491 3.91807 2.76766 
-13.1469 0.00199474 0.187171 
0.00199474 -8.81797 3.42941 
0.187171 3.42941 -16.5247 
-12.8131 0.0102471 0.115991 
0.0102471 -8.80674 3.41762 
0.115991 3.41762 -16.8697 
-12.8194 0.00488846 0.117371 
0.00488846 -18.4265 3.57782 
0.117371 3.57782 -7.24369 
-13.1848 -0.00336389 0.186435 
-0.00336389 -18.387 3.57543 
0.186435 3.57543 -6.91782 
-8.63224 0.0375908 0.0226634 
0.0375908 -12.0128 -1.29837 
0.0226634 -1.29837 -4.67678 
-8.48442 0.0649446 0.00748533 
0.0649446 -11.9308 -1.31031 
0.00748533 -1.31031 -4.90656 
-8.43063 0.0211884 0.0122528 
0.0211884 0.509902 -2.46543 
0.0122528 -2.46543 -17.4011 
-8.75904 -0.00616549 0.030969 
-0.00616549 0.590955 -2.47716 
0.030969 -2.47716 -17.1537 
-8.64463 0.0264323 -0.0167544 
0.0264323 -9.12621 1.47398 
-0.0167544 1.47398 -7.55094 
-8.41875 0.0573243 -0.0319324 
0.0573243 -9.08349 1.46668 
-0.0319324 1.46668 -7.81954 
-8.36637 0.0372399 -0.0318079 
0.0372399 -3.30532 0.311562 
-0.0318079 0.311562 -13.6501 
-8.78583 0.00634793 -0.0130917 
0.00634793 -3.15765 0.295185 
-0.0130917 0.295185 -13.3783 
-5.03789 0.0641198 -0.102184 
0.0641198 -2.7386 1.18701 
-0.102184 1.18701 -6.81718 
-4.98247 0.0830542 -0.100249 
0.0830542 -2.65323 1.18032 
-0.100249 1.18032 -6.95797 
-4.93883 0.028482 -0.0983135 
0.028482 5.43259 1.7445 
-0.0983135 1.7445 -15.0874 
-5.11053 0.00954762 -0.0915031 
0.00954762 5.4635 1.72189 
-0.0915031 1.72189 -14.9466 
-4.97393 0.0465531 -0.137457 
0.0465531 -5.66203 2.38395 
-0.137457 2.38395 -3.95771 
-4.81641 0.0742333 -0.135522 
0.0742333 -5.61857 2.37617 
-0.135522 2.37617 -4.1587 
-4.77118 0.0489578 -0.132489 
0.0489578 -5.24346 2.94036 
-0.132489 2.94036 -4.57903 
-5.08727 0.0212776 -0.125679 
0.0212776 -5.12344 2.91884 
-0.125679 2.91884 -4.38296 
-2.4519 0.0566639 -0.171949 
0.0566639 0.840567 2.67648 
-0.171949 2.67648 -5.40171 
-2.47163 0.0691034 -0.171779 
0.0691034 0.913585 2.66857 
-0.171779 2.66857 -5.455 
-2.44024 0.0208221 -0.168075 
0.0208221 2.41062 3.21335 
-0.168075 3.21335 -6.98343 
-2.47924 0.00838264 -0.162746 
0.00838264 2.39108 3.1889 
-0.162746 3.1889 -6.92488 
-2.38129 0.0415504 -0.194324 
0.0415504 -3.32327 2.8474 
-0.194324 2.8474 -1.30848 
-2.26869 0.0594892 -0.194153 
0.0594892 -3.29611 2.83881 
-0.194153 2.83881 -1.44825 
-2.2299 0.043557 -0.189769 
0.043557 -2.97182 3.38359 
-0.189769 3.38359 -1.81133 
-2.44062 0.0256183 -0.18444 
0.0256183 -2.89256 3.35982 
-0.18444 3.35982 -1.67986 
-0.768999 0.0265562 -0.206023 
0.0265562 1.62453 3.02525 
-0.206023 3.02525 -2.99795 
-0.833825 0.0288955 -0.209262 
0.0288955 1.66648 3.01675 
-0.209262 3.01675 -2.97508 
-0.824206 0.000196219 -0.205183 
0.000196219 1.95755 3.50411 
-0.205183 3.50411 -3.27577 
-0.765735 -0.00214309 -0.196714 
-0.00214309 1.91379 3.47931 
-0.196714 3.47931 -3.29048 
-0.70765 0.0121051 -0.213546 
0.0121051 -2.24278 3.05365 
-0.213546 3.05365 0.808008 
-0.619702 0.0196748 -0.216785 
0.0196748 -2.24757 3.04485 
-0.216785 3.04485 0.724852 
-0.602933 0.0242705 -0.212395 
0.0242705 -2.19141 3.5322 
-0.212395 3.5322 0.651923 
-0.734926 0.0167008 -0.203926 
0.0167008 -2.13302 3.50771 
-0.203926 3.50771 0.725526 
0.70765 -0.0121051 -0.213546 
-0.0121051 2.24278 3.05365 
-0.213546 3.05365 -0.808008 
0.619702 -0.0196748 -0.216785 
-0.0196748 2.24757 3.04485 
-0.216785 3.04485 -0.724852 
0.602933 -0.0242705 -0.212395 
-0.0242705 2.19141 3.5322 
-0.212395 3.5322 -0.651922 
0.734926 -0.0167008 -0.203926 
-0.0167008 2.13302 3.50771 
-0.203926 3.50771 -0.725526 
0.768999 -0.0265562 -0.206023 
-0.0265562 -1.62453 3.02525 
-0.206023 3.02525 2.99795 
0.833825 -0.0288955 -0.209262 
-0.0288955 -1.66648 3.01675 
-0.209262 3.01675 2.97508 
0.824206 -0.000196219 -0.205183 
-0.000196219 -1.95755 3.50411 
-0.205183 3.50411 3.27577 
0.765735 0.00214309 -0.196714 
0.00214309 -1.91379 3.47931 
-0.196714 3.47931 3.29048 
2.38129 -0.0415504 -0.194324 
-0.0415504 3.32327 2.8474 
-0.194324 2.8474 1.30849 
2.26869 -0.0594892 -0.194153 
-0.0594892 3.29611 2.83881 
-0.194153 2.83881 1.44825 
2.2299 -0.043557 -0.189769 
-0.043557 2.97182 3.38359 
-0.189769 3.38359 1.81133 
2.44063 -0.0256183 -0.18444 
-0.0256183 2.89256 3.35982 
-0.18444 3.35982 1.67986 
2.4519 -0.0566639 -0.171949 
-0.0566639 -0.840567 2.67648 
-0.171949 2.67648 5.40171 
2.47163 -0.0691034 -0.171779 
-0.0691034 -0.913585 2.66857 
-0.171779 2.66857 5.455 
2.44024 -0.0208221 -0.168075 
-0.0208221 -2.41062 3.21335 
-0.168075 3.21335 6.98343 
2.47924 -0.00838264 -0.162746 
-0.00838264 -2.39108 3.1889 
-0.162746 3.1889 6.92488 
4.97393 -0.0465531 -0.137457 
-0.0465531 5.66203 2.38395 
-0.137457 2.38395 3.95771 
4.81641 -0.0742333 -0.135522 
-0.0742333 5.61857 2.37617 
-0.135522 2.37617 4.1587 
4.77118 -0.0489578 -0.132489 
-0.0489578 5.24346 2.94036 
-0.132489 2.94036 4.57903 
5.08727 -0.0212776 -0.125679 
-0.0212776 5.12344 2.91884 
-0.125679 2.91884 4.38296 
5.03789 -0.0641198 -0.102184 
-0.0641198 2.7386 1.18701 
-0.102184 1.18701 6.81718 
4.98247 -0.0830542 -0.100249 
-0.0830542 2.65323 1.18032 
-0.100249 1.18032 6.95797 
4.93883 -0.028482 -0.0983135 
-0.028482 -5.43259 1.7445 
-0.0983135 1.7445 15.0874 
5.11053 -0.00954762 -0.0915031 
-0.00954762 -5.4635 1.72189 
-0.0915031 1.72189 14.9466 
8.64463 -0.0264323 -0.0167544 
-0.0264323 9.12621 1.47398 
-0.0167544 1.47398 7.55094 
8.41875 -0.0573243 -0.0319324 
-0.0573243 9.08349 1.46668 
-0.0319324 1.46668 7.81954 
8.36638 -0.0372399 -0.0318079 
-0.0372399 3.30532 0.311562 
-0.0318079 0.311562 13.6501 
8.78583 -0.00634793 -0.0130917 
-0.00634793 3.15765 0.295185 
-0.0130917 0.295185 13.3783 
8.63224 -0.0375908 0.0226634 
-0.0375908 12.0128 -1.29837 
0.0226634 -1.29837 4.67678 
8.48442 -0.0649446 0.00748533 
-0.0649446 11.9308 -1.31031 
0.00748533 -1.31031 4.90656 
8.43063 -0.0211884 0.0122528 
-0.0211884 -0.509902 -2.46543 
0.0122528 -2.46543 17.4011 
8.75904 0.00616549 0.030969 
0.00616549 -0.590954 -2.47716 
0.030969 -2.47716 17.1537 
13.1469 -0.00199474 0.187171 
-0.00199474 8.81797 3.42941 
0.187171 3.42941 16.5247 
12.8131 -0.0102471 0.115991 
-0.0102471 8.80674 3.41762 
0.115991 3.41762 16.8697 
12.8194 -0.00488846 0.117371 
-0.00488846 18.4265 3.57782 
0.117371 3.57782 7.24369 
13.1848 0.00336389 0.186435 
0.00336389 18.387 3.57543 
0.186435 3.57543 6.91782 
12.8577 -0.0039613 0.21177 
-0.0039613 4.56424 3.77205 
0.21177 3.77205 21.0677 
12.72 -0.01433 0.14059 
-0.01433 4.51894 3.7648 
0.14059 3.7648 21.2506 
12.7196 0.00520932 0.137428 
0.00520932 28.3558 3.925 
0.137428 3.925 -2.58588 
12.9116 0.015578 0.206491 
0.015578 28.3457 3.91807 
0.206491 3.91807 -2.76766 
-13.2181 -0.0416493 0.182513 
-0.0416493 -4.83977 3.67101 
0.182513 3.67101 -21.2432 
-12.8879 0.0360822 0.21177 
0.0360822 -4.69643 3.70666 
0.21177 3.70666 -21.7167 
-12.7028 0.0594019 0.206491 
0.0594019 -28.7506 3.89521 
0.206491 3.89521 2.15237 
-13.618 -0.0183296 0.216754 
-0.0183296 -28.3204 3.9644 
0.216754 3.9644 2.63738 
-13.0188 -0.0402357 0.206727 
-0.0402357 -9.44701 3.29205 
0.206727 3.29205 -16.8352 
-13.2195 0.0770147 0.235984 
0.0770147 -9.1085 3.36474 
0.235984 3.36474 -16.973 
-13.0907 -0.00451368 0.193667 
-0.00451368 -18.8529 3.55329 
0.193667 3.55329 -7.35752 
-13.5392 -0.121764 0.20393 
-0.121764 -18.6963 3.58545 
0.20393 3.58545 -7.06548 
-8.76127 0.0491276 -0.022081 
0.0491276 -12.5808 -1.41711 
-0.022081 -1.41711 -4.71377 
-8.59852 0.130177 0.0714765 
0.130177 -12.2591 -1.35332 
0.0714765 -1.35332 -5.19826 
-8.59141 0.0574929 0.0382016 
0.0574929 0.163271 -2.49421 
0.0382016 -2.49421 -17.6277 
-9.08535 -0.0235566 -0.0482265 
-0.0235566 0.309682 -2.45595 
-0.0482265 -2.45595 -17.2802 
-8.43877 0.0649811 -0.0724471 
0.0649811 -9.75107 1.36013 
-0.0724471 1.36013 -7.86601 
-8.85008 0.15316 0.0211103 
0.15316 -9.27132 1.40165 
0.0211103 1.40165 -7.93445 
-8.84189 -0.0215618 0.0101018 
-0.0215618 -3.56029 0.260765 
0.0101018 0.260765 -13.6537 
-8.79582 -0.109741 -0.0763263 
-0.109741 -3.71219 0.321285 
-0.0763263 0.321285 -13.5478 
-5.29809 0.106073 -0.182572 
0.106073 -3.21051 1.10481 
-0.182572 1.10481 -6.68598 
-4.98715 0.18113 -0.0643196 
0.18113 -3.01408 1.16051 
-0.0643196 1.16051 -7.19335 
-4.91358 0.105735 -0.0683097 
0.105735 5.07636 1.70821 
-0.0683097 1.70821 -15.3574 
-5.38436 0.0306774 -0.193071 
0.0306774 5.08962 1.76897 
-0.193071 1.76897 -14.8998 
-4.80036 0.142731 -0.23775 
0.142731 -6.14757 2.2762 
-0.23775 2.2762 -4.24665 
-5.27644 0.211279 -0.119497 
0.211279 -5.73754 2.33775 
-0.119497 2.33775 -4.1806 
-5.17217 0.0194281 -0.129336 
0.0194281 -5.41799 2.88545 
-0.129336 2.88545 -4.60442 
-4.88823 -0.0491203 -0.254098 
-0.0491203 -5.7119 2.94036 
-0.254098 2.94036 -4.59446 
-2.72788 0.0971261 -0.271171 
0.0971261 0.51408 2.61086 
-0.271171 2.61086 -5.17565 
-2.35958 0.12661 -0.153989 
0.12661 0.606864 2.67558 
-0.153989 2.67558 -5.63674 
-2.29684 0.0929771 -0.166403 
0.0929771 2.12252 3.17798 
-0.166403 3.17798 -7.21513 
-2.7098 0.0634936 -0.275162 
0.0634936 2.14779 3.23332 
-0.275162 3.23332 -6.82744 
-2.16163 0.124597 -0.314023 
0.124597 -3.63036 2.77927 
-0.314023 2.77927 -1.59745 
-2.65455 0.162503 -0.196842 
0.162503 -3.3107 2.84343 
-0.196842 2.84343 -1.4242 
-2.58008 0.0088072 -0.208691 
0.0088072 -3.03801 3.34582 
-0.208691 3.34582 -1.77136 
-2.19294 -0.0290988 -0.31745 
-0.0290988 -3.32277 3.40173 
-0.31745 3.40173 -1.87374 
-1.03505 0.0286802 -0.317991 
0.0286802 1.49982 2.97173 
-0.317991 2.97173 -2.73286 
-0.622031 0.0324416 -0.208541 
0.0324416 1.45735 3.03632 
-0.208541 3.03632 -3.10341 
-0.602224 0.0597729 -0.220965 
0.0597729 1.78411 3.47172 
-0.220965 3.47172 -3.44998 
-1.00596 0.0560116 -0.318917 
0.0560116 1.89031 3.52727 
-0.318917 3.52727 -3.15244 
-0.454852 0.0540864 -0.333389 
0.0540864 -2.33814 3.00125 
-0.333389 3.00125 0.524893 
-0.917403 0.0693448 -0.223939 
0.0693448 -2.15103 3.06511 
-0.223939 3.06511 0.800341 
-0.890992 -0.0234655 -0.235628 
-0.0234655 -2.1396 3.50051 
-0.235628 3.50051 0.762501 
-0.483779 -0.0387238 -0.333581 
-0.0387238 -2.3411 3.55679 
-0.333581 3.55679 0.556786 
0.454852 -0.0540864 -0.333389 
-0.0540864 2.33814 3.00125 
-0.333389 3.00125 -0.524893 
0.917403 -0.0693448 -0.223939 
-0.0693448 2.15103 3.06511 
-0.223939 3.06511 -0.800341 
0.890993 0.0234655 -0.235628 
0.0234655 2.1396 3.50051 
-0.235628 3.50051 -0.762501 
0.483779 0.0387238 -0.333581 
0.0387238 2.3411 3.55679 
-0.333581 3.55679 -0.556786 
1.03505 -0.0286802 -0.317991 
-0.0286802 -1.49982 2.97173 
-0.317991 2.97173 2.73286 
0.622031 -0.0324416 -0.208541 
-0.0324416 -1.45735 3.03632 
-0.208541 3.03632 3.10341 
0.602224 -0.0597729 -0.220965 
-0.0597729 -1.78411 3.47172 
-0.220965 3.47172 3.44999 
1.00596 -0.0560116 -0.318917 
-0.0560116 -1.89031 3.52727 
-0.318917 3.52727 3.15244 
2.16163 -0.124597 -0.314023 
-0.124597 3.63036 2.77927 
-0.314023 2.77927 1.59745 
2.65455 -0.162503 -0.196842 
-0.162503 3.3107 2.84343 
-0.196842 2.84343 1.4242 
2.58008 -0.0088072 -0.208691 
-0.0088072 3.03801 3.34582 
-0.208691 3.34582 1.77136 
2.19294 0.0290988 -0.31745 
0.0290988 3.32277 3.40173 
-0.31745 3.40173 1.87374 
2.72788 -0.0971261 -0.271171 
-0.0971261 -0.514079 2.61086 
-0.271171 2.61086 5.17565 
2.35958 -0.12661 -0.153989 
-0.12661 -0.606864 2.67558 
-0.153989 2.67558 5.63674 
2.29684 -0.0929771 -0.166403 
-0.0929771 -2.12252 3.17798 
-0.166403 3.17798 7.21513 
2.7098 -0.0634936 -0.275162 
-0.0634936 -2.14779 3.23332 
-0.275162 3.23332 6.82744 
4.80036 -0.142731 -0.23775 
-0.142731 6.14757 2.2762 
-0.23775 2.2762 4.24665 
5.27644 -0.211279 -0.119497 
-0.211279 5.73754 2.33775 
-0.119497 2.33775 4.1806 
5.17217 -0.0194281 -0.129336 
-0.0194281 5.41799 2.88545 
-0.129336 2.88545 4.60442 
4.88823 0.0491203 -0.254098 
0.0491203 5.7119 2.94036 
-0.254098 2.94036 4.59446 
5.29809 -0.106073 -0.182572 
-0.106073 3.21051 1.10481 
-0.182572 1.10481 6.68598 
4.98715 -0.18113 -0.0643196 
-0.18113 3.01409 1.16051 
-0.0643196 1.16051 7.19335 
4.91358 -0.105735 -0.0683097 
-0.105735 -5.07636 1.70821 
-0.0683097 1.70821 15.3574 
5.38436 -0.0306774 -0.193071 
-0.0306774 -5.08962 1.76897 
-0.193071 1.76897 14.8998 
8.43877 -0.0649811 -0.0724471 
-0.0649811 9.75107 1.36013 
-0.0724471 1.36013 7.86601 
8.85008 -0.15316 0.0211103 
-0.15316 9.27132 1.40165 
0.0211103 1.40165 7.93445 
8.84189 0.0215618 0.0101018 
0.0215618 3.56029 0.260765 
0.0101018 0.260765 13.6537 
8.79582 0.109741 -0.0763263 
0.109741 3.71219 0.321285 
-0.0763263 0.321285 13.5478 
8.76127 -0.0491276 -0.022081 
-0.0491276 12.5808 -1.41711 
-0.022081 -1.41711 4.71377 
8.59852 -0.130177 0.0714765 
-0.130177 12.2591 -1.35332 
0.0714765 -1.35332 5.19826 
8.59141 -0.0574929 0.0382016 
-0.0574929 -0.163271 -2.49421 
0.0382016 -2.49421 17.6277 
9.08535 0.0235566 -0.0482265 
0.0235566 -0.309682 -2.45595 
-0.0482265 -2.45595 17.2802 
13.0188 0.0402357 0.206727 
0.0402357 9.44701 3.29205 
0.206727 3.29205 16.8352 
13.2195 -0.0770147 0.235984 
-0.0770147 9.1085 3.36474 
0.235984 3.36474 16.973 
13.0907 0.00451368 0.193667 
0.00451368 18.8529 3.55329 
0.193667 3.55329 7.35752 
13.5392 0.121764 0.20393 
0.121764 18.6963 3.58545 
0.20393 3.58545 7.06548 
13.2181 0.0416493 0.182513 
0.0416493 4.83977 3.67101 
0.182513 3.67101 21.2432 
12.8879 -0.0360822 0.21177 
-0.0360822 4.69643 3.70666 
0.21177 3.70666 21.7167 
12.7028 -0.0594019 0.206491 
-0.0594019 28.7506 3.89521 
0.206491 3.89521 -2.15237 
13.618 0.0183296 0.216754 
0.0183296 28.3204 3.9644 
0.216754 3.9644 -2.63738 
-14.5685 0.643671 0.107254 
0.643671 -4.31029 3.41893 
0.107254 3.41893 -21.1616 
-13.6805 0.165772 0.182513 
0.165772 -4.00721 3.43484 
0.182513 3.43484 -22.3526 
-14.3694 -0.405417 0.216754 
-0.405417 -27.4274 3.89755 
0.216754 3.89755 1.75647 
-11.2186 0.0724825 0.352865 
0.0724825 -31.6117 3.67623 
0.352865 3.67623 2.79005 
-14.1116 0.413963 -0.288221 
0.413963 -10.1197 3.24949 
-0.288221 3.24949 -15.8091 
-12.5406 0.147434 -0.212961 
0.147434 -9.82241 3.15186 
-0.212961 3.15186 -17.6773 
-13.3451 -0.218333 -0.0651839 
-0.218333 -18.9401 3.61457 
-0.0651839 3.61457 -7.7552 
-11.5915 0.0481956 0.0709268 
0.0481956 -22.2116 3.50679 
0.0709268 3.50679 -6.23719 
-10.2746 0.76837 -0.220965 
0.76837 -12.1096 -1.20698 
-0.220965 -1.20698 -4.48884 
-10.0557 0.702535 -0.441769 
0.702535 -11.5024 -1.38177 
-0.441769 -1.38177 -5.31499 
-9.52202 0.0671137 -0.31734 
0.0671137 0.933348 -2.51225 
-0.31734 -2.51225 -18.2844 
-7.26058 0.132948 -0.00199593 
0.132948 -2.57599 -2.70799 
-0.00199593 -2.70799 -17.0365 
-9.70428 0.601676 -0.541589 
0.601676 -10.5694 1.42014 
-0.541589 1.42014 -6.5994 
-8.2852 0.630382 -0.762392 
0.630382 -10.4028 1.34244 
-0.762392 1.34244 -8.1851 
-7.77964 0.365498 -0.735058 
0.365498 -4.57127 0.211957 
-0.735058 0.211957 -14.5222 
-7.08487 0.336791 -0.419714 
0.336791 -6.86418 -0.0808769 
-0.419714 -0.0808769 -12.924 
-6.39215 0.732063 -0.708736 
0.732063 -2.83796 1.44127 
-0.708736 1.44127 -6.6555 
-6.63603 0.606013 -0.872517 
0.606013 -1.97743 1.39099 
-0.872517 1.39099 -7.27215 
-6.18428 0.0196682 -0.851803 
0.0196682 5.66955 1.81183 
-0.851803 1.81183 -15.3709 
-4.57477 0.145719 -0.435376 
0.145719 3.36108 1.49735 
-0.435376 1.49735 -14.6719 
-4.75015 0.441312 -0.980086 
0.441312 -7.62614 2.60748 
-0.980086 2.60748 -3.50932 
-4.26601 0.567906 -1.14387 
0.567906 -7.12984 2.5817 
-1.14387 2.5817 -4.48976 
-3.95533 0.34632 -1.14765 
0.34632 -6.78657 3.00254 
-1.14765 3.00254 -5.14371 
-3.92152 0.219726 -0.731228 
0.219726 -7.82808 2.66356 
-0.731228 2.66356 -4.13601 
-3.58669 0.473193 -1.00182 
0.473193 1.05859 2.97235 
-1.00182 2.97235 -5.29161 
-3.93828 0.348396 -1.17729 
0.348396 1.65753 2.98153 
-1.17729 2.98153 -5.53896 
-3.68771 -0.0319023 -1.16872 
-0.0319023 2.90426 3.28689 
-1.16872 3.28689 -7.03626 
-2.60618 0.0928953 -0.742663 
0.0928953 1.59452 2.98789 
-0.742663 2.98789 -6.80805 
-1.62776 0.207088 -1.1627 
0.207088 -5.13578 3.16692 
-1.1627 3.16692 -1.05617 
-1.37197 0.33288 -1.33817 
0.33288 -4.73688 3.17057 
-1.33817 3.17057 -1.71085 
-1.22691 0.242414 -1.32407 
0.242414 -4.40091 3.47593 
-1.32407 3.47593 -2.19189 
-1.66237 0.116622 -0.898014 
0.116622 -4.61456 3.18245 
-0.898014 3.18245 -1.54278 
-1.86358 0.237164 -1.16194 
0.237164 2.39122 3.34792 
-1.16194 3.34792 -2.93411 
-2.13557 0.114621 -1.34213 
0.114621 2.64666 3.36024 
-1.34213 3.36024 -2.91755 
-2.02312 -0.0984693 -1.32554 
-0.0984693 2.82909 3.58944 
-1.32554 3.58944 -3.21243 
-1.24365 0.0240743 -0.899108 
0.0240743 2.06984 3.30232 
-0.899108 3.30232 -3.23265 
0.292357 -0.018405 -1.21598 
-0.018405 -3.58181 3.38909 
-1.21598 3.38909 0.882986 
0.513785 0.105285 -1.39618 
0.105285 -3.48557 3.39844 
-1.39618 3.39844 0.565325 
0.527905 0.166986 -1.37661 
0.166986 -3.37506 3.62764 
-1.37661 3.62764 0.440691 
-0.0905405 0.0432959 -0.95018 
0.0432959 -3.06466 3.34349 
-0.95018 3.34349 0.748736 
-0.292357 0.018405 -1.21598 
0.018405 3.58181 3.38909 
-1.21598 3.38909 -0.882986 
-0.513785 -0.105285 -1.39618 
-0.105285 3.48557 3.39844 
-1.39618 3.39844 -0.565325 
-0.527905 -0.166986 -1.37661 
-0.166986 3.37506 3.62764 
-1.37661 3.62764 -0.440691 
0.0905406 -0.0432959 -0.95018 
-0.0432959 3.06466 3.34349 
-0.95018 3.34349 -0.748736 
1.86358 -0.237164 -1.16194 
-0.237164 -2.39122 3.34792 
-1.16194 3.34792 2.93411 
2.13557 -0.114621 -1.34213 
-0.114621 -2.64666 3.36024 
-1.34213 3.36024 2.91755 
2.02312 0.0984693 -1.32554 
0.0984693 -2.82909 3.58944 
-1.32554 3.58944 3.21243 
1.24365 -0.0240743 -0.899108 
-0.0240743 -2.06984 3.30232 
-0.899108 3.30232 3.23265 
1.62776 -0.207088 -1.1627 
-0.207088 5.13578 3.16692 
-1.1627 3.16692 1.05617 
1.37197 -0.33288 -1.33817 
-0.33288 4.73688 3.17057 
-1.33817 3.17057 1.71085 
1.22691 -0.242414 -1.32407 
-0.242414 4.40091 3.47593 
-1.32407 3.47593 2.19189 
1.66237 -0.116622 -0.898014 
-0.116622 4.61456 3.18245 
-0.898014 3.18245 1.54278 
3.58669 -0.473193 -1.00182 
-0.473193 -1.05859 2.97235 
-1.00182 2.97235 5.29161 
3.93828 -0.348396 -1.17729 
-0.348396 -1.65753 2.98153 
-1.17729 2.98153 5.53896 
3.68771 0.0319023 -1.16872 
0.0319023 -2.90426 3.28689 
-1.16872 3.28689 7.03626 
2.60618 -0.0928953 -0.742663 
-0.0928953 -1.59452 2.98789 
-0.742663 2.98789 6.80805 
4.75015 -0.441312 -0.980086 
-0.441312 7.62614 2.60748 
-0.980086 2.60748 3.50932 
4.26601 -0.567906 -1.14387 
-0.567906 7.12984 2.5817 
-1.14387 2.5817 4.48976 
3.95533 -0.34632 -1.14765 
-0.34632 6.78657 3.00254 
-1.14765 3.00254 5.14371 
3.92152 -0.219726 -0.731228 
-0.219726 7.82808 2.66356 
-0.731228 2.66356 4.13601 
6.39215 -0.732063 -0.708736 
-0.732063 2.83796 1.44127 
-0.708736 1.44127 6.6555 
6.63603 -0.606013 -0.872517 
-0.606013 1.97743 1.39099 
-0.872517 1.39099 7.27215 
6.18428 -0.0196682 -0.851803 
-0.0196682 -5.66955 1.81183 
-0.851803 1.81183 15.3709 
4.57477 -0.145719 -0.435376 
-0.145719 -3.36108 1.49735 
-0.435376 1.49735 14.6719 
9.70428 -0.601676 -0.541589 
-0.601676 10.5694 1.42014 
-0.541589 1.42014 6.5994 
8.2852 -0.630382 -0.762392 
-0.630382 10.4028 1.34244 
-0.762392 1.34244 8.1851 
7.77964 -0.365498 -0.735058 
-0.365498 4.57127 0.211957 
-0.735058 0.211957 14.5222 
7.08487 -0.336791 -0.419714 
-0.336791 6.86418 -0.0808769 
-0.419714 -0.0808769 12.924 
10.2746 -0.76837 -0.220965 
-0.76837 12.1096 -1.20698 
-0.220965 -1.20698 4.48884 
10.0557 -0.702535 -0.441769 
-0.702535 11.5024 -1.38177 
-0.441769 -1.38177 5.31499 
9.52202 -0.0671137 -0.31734 
-0.0671137 -0.933348 -2.51225 
-0.31734 -2.51225 18.2844 
7.26058 -0.132948 -0.00199593 
-0.132948 2.57599 -2.70799 
-0.00199593 -2.70799 17.0365 
14.1116 -0.413963 -0.288221 
-0.413963 10.1197 3.24949 
-0.288221 3.24949 15.8091 
12.5406 -0.147434 -0.212961 
-0.147434 9.82241 3.15186 
-0.212961 3.15186 17.6773 
13.3451 0.218333 -0.0651839 
0.218333 18.9401 3.61457 
-0.0651839 3.61457 7.7552 
11.5915 -0.0481956 0.0709268 
-0.0481956 22.2116 3.50679 
0.0709268 3.50679 6.23719 
14.5685 -0.643671 0.107254 
-0.643671 4.31029 3.41893 
0.107254 3.41893 21.1616 
13.6805 -0.165772 0.182513 
-0.165772 4.00721 3.43484 
0.182513 3.43484 22.3526 
14.3694 0.405417 0.216754 
0.405417 27.4274 3.89755 
0.216754 3.89755 -1.75647 
11.2186 -0.0724825 0.352865 
-0.0724825 31.6117 3.67623 
0.352865 3.67623 -2.79005 
-13.2003 1.77516 7.93043e-10 
1.77516 -4.22315 1.51357 
7.93043e-10 1.51357 -22.4463 
-14.69 2.16617 0.107254 
2.16617 -8.0954 1.72697 
0.107254 1.72697 -17.0843 
-9.09075 3.88616 0.352865 
3.88616 -31.7666 2.73336 
0.352865 2.73336 0.987611 
-10.5538 3.49516 -6.5303e-10 
3.49516 -24.5211 2.57204 
-6.5303e-10 2.57204 -4.79491 
-17.1121 1.98856 1.04054 
1.98856 -4.6725 0.0589071 
1.04054 0.0589071 -18.0851 
-16.5067 2.13396 1.14779 
2.13396 -7.69419 -0.137468 
1.14779 -0.137468 -15.6689 
-10.1199 3.80186 1.80318 
3.80186 -25.8171 0.868918 
1.80318 0.868918 -3.93278 
-14.1548 3.65647 1.45032 
3.65647 -17.9539 1.11738 
1.45032 1.11738 -7.76103 
-8.0859 2.59255 1.04054 
2.59255 -11.2315 -2.5041 
1.04054 -2.5041 -8.45961 
-7.72158 2.57198 1.21505 
2.57198 -13.2021 -2.84667 
1.21505 -2.84667 -6.8533 
-5.71794 2.09357 1.73026 
2.09357 -5.78498 -3.19817 
1.73026 -3.19817 -16.2741 
-0.718305 2.11414 1.45032 
2.11414 -10.6196 -2.36915 
1.45032 -2.36915 -16.4391 
-17.8313 2.65975 0.846599 
2.65975 -5.59067 -1.52859 
0.846599 -1.52859 -4.355 
-11.8214 2.53376 1.02111 
2.53376 -6.71965 -1.1794 
1.02111 -1.1794 -9.23594 
-9.72255 1.5689 0.844558 
1.5689 -4.90283 -1.5309 
0.844558 -1.5309 -13.1516 
-10.0874 1.6949 0.564616 
1.6949 -11.0711 -1.39364 
0.564616 -1.39364 -6.6184 
-3.65676 1.65224 0.846599 
1.65224 -7.42825 -1.01066 
0.846599 -1.01066 -4.75568 
-3.00823 1.71288 0.853961 
1.71288 -4.95842 -0.945171 
0.853961 -0.945171 -7.87405 
-2.9816 0.658907 0.828896 
0.658907 1.14326 0.0861499 
0.828896 0.0861499 -14.0024 
-1.4349 0.598266 0.564616 
0.598266 -2.61136 -0.457443 
0.564616 -0.457443 -11.7944 
-9.03205 1.43574 -0.243123 
1.43574 -4.3104 -0.132042 
-0.243123 -0.132042 -2.49825 
-7.28429 1.23946 -0.235761 
1.23946 -2.93059 -0.243207 
-0.235761 -0.243207 -5.62582 
-6.18873 0.663599 -0.084173 
0.663599 -5.42566 0.788113 
-0.084173 0.788113 -4.22631 
-6.73019 0.859875 -0.348452 
0.859875 -8.13224 0.421174 
-0.348452 0.421174 -0.978271 
-0.851878 0.806969 -0.243123 
0.806969 -3.75101 0.031481 
-0.243123 0.031481 -3.1849 
-0.863882 0.912143 -0.257498 
0.912143 -2.03846 0.0082473 
-0.257498 0.0082473 -4.88545 
-1.13259 0.202263 -0.0956086 
0.202263 0.491564 0.951297 
-0.0956086 0.951297 -7.14676 
-0.228334 0.0970881 -0.348452 
0.0970881 -1.77762 0.467853 
-0.348452 0.467853 -5.78183 
-4.96234 0.678406 -0.851032 
0.678406 -1.89197 0.197053 
-0.851032 0.197053 -0.93347 
-4.09817 0.516361 -0.865407 
0.516361 -0.975367 0.0846216 
-0.865407 0.0846216 -2.71425 
-3.29623 0.313158 -0.61432 
0.313158 -3.13542 1.02767 
-0.61432 1.02767 -1.35614 
-4.21445 0.475202 -0.867164 
0.475202 -3.93471 0.633425 
-0.867164 0.633425 0.361372 
1.01524 0.261604 -0.851032 
0.261604 -1.79591 0.270225 
-0.851032 0.270225 -1.61263 
0.60358 0.38691 -0.864645 
0.38691 -1.06975 0.202532 
-0.864645 0.202532 -1.92714 
0.165828 0.00721394 -0.615413 
0.00721394 1.19514 1.09473 
-0.615413 1.09473 -3.75428 
1.0935 -0.118092 -0.867164 
-0.118092 -0.0126304 0.680995 
-0.867164 0.680995 -3.47418 
-2.74116 0.177778 -1.034 
0.177778 0.0544857 0.313269 
-1.034 0.313269 0.293365 
-2.12183 0.0377215 -1.04761 
0.0377215 0.165327 0.223755 
-1.04761 0.223755 -0.436806 
-1.51948 0.13945 -0.776561 
0.13945 -2.04607 1.11595 
-0.776561 1.11595 1.17224 
-2.5163 0.279507 -1.02831 
0.279507 -1.71625 0.724038 
-1.02831 0.724038 1.83924 
2.74116 -0.177778 -1.034 
-0.177778 -0.0544855 0.313269 
-1.034 0.313269 -0.293365 
2.12183 -0.0377215 -1.04761 
-0.0377215 -0.165327 0.223755 
-1.04761 0.223755 0.436806 
1.51948 -0.13945 -0.776561 
-0.13945 2.04607 1.11595 
-0.776561 1.11595 -1.17224 
2.5163 -0.279507 -1.02831 
-0.279507 1.71625 0.724038 
-1.02831 0.724038 -1.83924 
-1.01523 -0.261604 -0.851032 
-0.261604 1.79591 0.270225 
-0.851032 0.270225 1.61263 
-0.60358 -0.38691 -0.864645 
-0.38691 1.06975 0.202532 
-0.864645 0.202532 1.92714 
-0.165828 -0.00721394 -0.615413 
-0.00721394 -1.19514 1.09473 
-0.615413 1.09473 3.75428 
-1.0935 0.118092 -0.867164 
0.118092 0.0126305 0.680995 
-0.867164 0.680995 3.47418 
4.96234 -0.678406 -0.851032 
-0.678406 1.89197 0.197053 
-0.851032 0.197053 0.93347 
4.09817 -0.516361 -0.865407 
-0.516361 0.975367 0.0846216 
-0.865407 0.0846216 2.71425 
3.29623 -0.313158 -0.61432 
-0.313158 3.13542 1.02767 
-0.61432 1.02767 1.35614 
4.21445 -0.475202 -0.867164 
-0.475202 3.93471 0.633425 
-0.867164 0.633425 -0.361372 
0.851879 -0.806969 -0.243123 
-0.806969 3.75101 0.031481 
-0.243123 0.031481 3.1849 
0.863882 -0.912143 -0.257498 
-0.912143 2.03846 0.0082473 
-0.257498 0.0082473 4.88545 
1.13259 -0.202263 -0.0956086 
-0.202263 -0.491564 0.951297 
-0.0956086 0.951297 7.14676 
0.228334 -0.0970881 -0.348452 
-0.0970881 1.77762 0.467853 
-0.348452 0.467853 5.78183 
9.03205 -1.43574 -0.243123 
-1.43574 4.3104 -0.132042 
-0.243123 -0.132042 2.49825 
7.28429 -1.23946 -0.235761 
-1.23946 2.93059 -0.243207 
-0.235761 -0.243207 5.62582 
6.18873 -0.663599 -0.084173 
-0.663599 5.42566 0.788113 
-0.084173 0.788113 4.22631 
6.73019 -0.859875 -0.348452 
-0.859875 8.13224 0.421174 
-0.348452 0.421174 0.978271 
3.65676 -1.65224 0.846599 
-1.65224 7.42825 -1.01066 
0.846599 -1.01066 4.75568 
3.00823 -1.71288 0.853961 
-1.71288 4.95842 -0.945171 
0.853961 -0.945171 7.87405 
2.9816 -0.658907 0.828896 
-0.658907 -1.14326 0.0861499 
0.828896 0.0861499 14.0024 
1.4349 -0.598266 0.564616 
-0.598266 2.61137 -0.457443 
0.564616 -0.457443 11.7944 
17.8313 -2.65975 0.846599 
-2.65975 5.59067 -1.52859 
0.846599 -1.52859 4.355 
11.8214 -2.53376 1.02111 
-2.53376 6.71965 -1.1794 
1.02111 -1.1794 9.23594 
9.72255 -1.5689 0.844558 
-1.5689 4.90283 -1.5309 
0.844558 -1.5309 13.1516 
10.0874 -1.6949 0.564616 
-1.6949 11.0711 -1.39364 
0.564616 -1.39364 6.6184 
8.0859 -2.59255 1.04054 
-2.59255 11.2315 -2.5041 
1.04054 -2.5041 8.45961 
7.72158 -2.57198 1.21505 
-2.57198 13.2021 -2.84667 
1.21505 -2.84667 6.8533 
5.71794 -2.09357 1.73026 
-2.09357 5.78498 -3.19817 
1.73026 -3.19817 16.2741 
0.718305 -2.11414 1.45032 
-2.11414 10.6196 -2.36915 
1.45032 -2.36915 16.4391 
17.1121 -1.98856 1.04054 
-1.98856 4.6725 0.0589071 
1.04054 0.0589071 18.0851 
16.5067 -2.13396 1.14779 
-2.13396 7.69419 -0.137468 
1.14779 -0.137468 15.6689 
10.1199 -3.80186 1.80318 
-3.80186 25.8171 0.868918 
1.80318 0.868918 3.93278 
14.1548 -3.65647 1.45032 
-3.65647 17.9539 1.11738 
1.45032 1.11738 7.76103 
13.2003 -1.77516 7.93043e-10 
-1.77516 4.22315 1.51357 
7.93043e-10 1.51357 22.4463 
14.69 -2.16617 0.107254 
-2.16617 8.0954 1.72697 
0.107254 1.72697 17.0843 
9.09075 -3.88616 0.352865 
-3.88616 31.7666 2.73336 
0.352865 2.73336 -0.98761 
10.5538 -3.49516 -6.5303e-10 
-3.49516 24.5211 2.57204 
-6.5303e-10 2.57204 4.79491 
-5.23958 0.000146578 0.0113722 
0.000146578 -2.55237 2.90444 
0.0113722 2.90444 -7.93623 
-5.23668 -0.00013838 8.64391e-11 
-0.00013838 -2.55256 2.9044 
8.64391e-11 2.9044 -7.93894 
-5.23594 -0.00016405 1.71471e-10 
-0.00016405 -8.32973 3.77141 
1.71471e-10 3.77141 -2.1625 
-5.23933 0.000120908 0.011304 
0.000120908 -8.32908 3.77144 
0.011304 3.77144 -2.15977 
-5.27513 0.000175726 0.0107773 
0.000175726 -5.36612 2.71564 
0.0107773 2.71564 -5.08693 
-5.26772 -0.000177371 -0.000594858 
-0.000177371 -5.36645 2.71562 
-0.000594858 2.71562 -5.09401 
-5.26693 -0.000193874 -0.000616907 
-0.000193874 -9.69936 3.58263 
-0.000616907 3.58263 -0.761892 
-5.27463 0.000159224 0.0106871 
0.000159224 -9.69881 3.58264 
0.0106871 3.58264 -0.754736 
-5.30765 0.000753825 0.00448759 
0.000753825 -5.46216 0.116467 
0.00448759 0.116467 -5.07183 
-5.29989 -0.000314382 -0.000594858 
-0.000314382 -5.46293 0.116478 
-0.000594858 0.116478 -5.07882 
-5.29722 -0.000313914 -0.000616907 
-0.000313914 -10.5357 -1.13177 
-0.000616907 -1.13177 -0.00867154 
-5.30583 0.000754292 0.00446563 
0.000754292 -10.5341 -1.13178 
0.00446563 -1.13178 -0.00175059 
-5.32054 0.000742535 0.00327548 
0.000742535 -5.33419 0.637678 
0.00327548 0.637678 -5.18692 
-5.31138 -0.000325585 -0.00180697 
-0.000325585 -5.335 0.637674 
-0.00180697 0.637674 -5.19526 
-5.30871 -0.000319921 -0.00181428 
-0.000319921 -3.74402 -0.610571 
-0.00181428 -0.610571 -6.78891 
-5.31873 0.000748199 0.00326826 
0.000748199 -3.74235 -0.610572 
0.00326826 -0.610572 -6.78056 
-3.63439 0.00120276 -0.00317904 
0.00120276 -4.20475 -0.601441 
-0.00317904 -0.601441 -2.93402 
-3.62532 -0.000317107 -0.00180697 
-0.000317107 -4.2059 -0.601417 
-0.00180697 -0.601417 -2.94194 
-3.62132 -0.000299785 -0.00181428 
-0.000299785 -0.735015 -0.911219 
-0.00181428 -0.911219 -6.41682 
-3.6312 0.00122008 -0.00315915 
0.00122008 -0.733027 -0.911247 
-0.00315915 -0.911247 -6.40893 
-3.62342 0.00119173 -0.00444053 
0.00119173 -4.20136 0.370264 
-0.00444053 0.370264 -2.94839 
-3.61565 -0.000300923 -0.00306845 
-0.000300923 -4.20247 0.370275 
-0.00306845 0.370275 -2.95504 
-3.61167 -0.000279861 -0.00306329 
-0.000279861 -2.51102 0.0604726 
-0.00306329 0.0604726 -4.65047 
-3.62034 0.00121279 -0.00440816 
0.00121279 -2.50897 0.0604578 
-0.00440816 0.0604578 -4.64385 
-2.00758 0.00106178 -0.00936806 
0.00106178 -1.35587 0.157309 
-0.00936806 0.157309 -2.52959 
-2.0003 -0.000228056 -0.00306845 
-0.000228056 -1.35686 0.157339 
-0.00306845 0.157339 -2.53588 
-1.99685 -0.000209492 -0.00306329 
-0.000209492 1.71396 0.334287 
-0.00306329 0.334287 -5.61016 
-2.00465 0.00108034 -0.00931678 
0.00108034 1.71545 0.33426 
-0.00931678 0.33426 -5.60385 
-1.9785 0.00105093 -0.0102565 
0.00105093 -2.79628 0.731306 
-0.0102565 0.731306 -1.11827 
-1.97394 -0.000192791 -0.00395693 
-0.000192791 -2.79716 0.731333 
-0.00395693 0.731333 -1.12195 
-1.97051 -0.000177916 -0.00394851 
-0.000177916 -2.04019 0.908281 
-0.00394851 0.908281 -1.88235 
-1.97575 0.0010658 -0.010202 
0.0010658 -2.0386 0.908257 
-0.010202 0.908257 -1.8787 
-0.651359 0.000420183 -0.0128818 
0.000420183 0.479719 0.751029 
-0.0128818 0.751029 -1.69256 
-0.647581 -9.56896e-05 -0.00395693 
-9.56896e-05 0.479296 0.751065 
-0.00395693 0.751065 -1.69592 
-0.646228 -8.64531e-05 -0.00394851 
-8.64531e-05 1.90089 1.07355 
-0.00394851 1.07355 -3.11886 
-0.650123 0.00042942 -0.0128144 
0.00042942 1.9014 1.07352 
-0.0128144 1.07352 -3.11548 
-0.612635 0.000405418 -0.0131981 
0.000405418 -1.65058 0.920597 
-0.0131981 0.920597 0.399014 
-0.612194 -5.14723e-05 -0.00427318 
-5.14723e-05 -1.65087 0.920633 
-0.00427318 0.920633 0.398857 
-0.610876 -4.81856e-05 -0.00426448 
-4.81856e-05 -1.89299 1.24311 
-0.00426448 1.24311 0.63966 
-0.611627 0.000408705 -0.0131304 
0.000408705 -1.89236 1.24308 
-0.0131304 1.24308 0.639786 
0.612635 -0.000405418 -0.0131981 
-0.000405418 1.65058 0.920597 
-0.0131981 0.920597 -0.399014 
0.612194 5.14723e-05 -0.00427318 
5.14723e-05 1.65087 0.920633 
-0.00427318 0.920633 -0.398856 
0.610876 4.81856e-05 -0.00426448 
4.81856e-05 1.89299 1.24311 
-0.00426448 1.24311 -0.63966 
0.611627 -0.000408705 -0.0131304 
-0.000408705 1.89236 1.24308 
-0.0131304 1.24308 -0.639786 
0.651359 -0.000420183 -0.0128818 
-0.000420183 -0.479719 0.751029 
-0.0128818 0.751029 1.69257 
0.647581 9.56896e-05 -0.00395693 
9.56896e-05 -0.479296 0.751065 
-0.00395693 0.751065 1.69592 
0.646228 8.64531e-05 -0.00394851 
8.64531e-05 -1.90089 1.07355 
-0.00394851 1.07355 3.11886 
0.650124 -0.00042942 -0.0128144 
-0.00042942 -1.9014 1.07352 
-0.0128144 1.07352 3.11548 
1.9785 -0.00105093 -0.0102565 
-0.00105093 2.79628 0.731306 
-0.0102565 0.731306 1.11827 
1.97394 0.000192791 -0.00395693 
0.000192791 2.79716 0.731333 
-0.00395693 0.731333 1.12195 
1.97051 0.000177916 -0.00394851 
0.000177916 2.04019 0.908281 
-0.00394851 0.908281 1.88235 
1.97575 -0.0010658 -0.010202 
-0.0010658 2.0386 0.908257 
-0.010202 0.908257 1.8787 
2.00758 -0.00106178 -0.00936806 
-0.00106178 1.35587 0.157309 
-0.00936806 0.157309 2.52959 
2.0003 0.000228056 -0.00306845 
0.000228056 1.35686 0.157339 
-0.00306845 0.157339 2.53588 
1.99685 0.000209492 -0.00306329 
0.000209492 -1.71396 0.334287 
-0.00306329 0.334287 5.61016 
2.00465 -0.00108034 -0.00931678 
-0.00108034 -1.71545 0.33426 
-0.00931678 0.33426 5.60385 
3.62342 -0.00119173 -0.00444053 
-0.00119173 4.20136 0.370264 
-0.00444053 0.370264 2.94839 
3.61565 0.000300923 -0.00306845 
0.000300923 4.20247 0.370275 
-0.00306845 0.370275 2.95504 
3.61167 0.000279861 -0.00306329 
0.000279861 2.51102 0.0604726 
-0.00306329 0.0604726 4.65047 
3.62034 -0.00121279 -0.00440816 
-0.00121279 2.50897 0.0604578 
-0.00440816 0.0604578 4.64385 
3.63439 -0.00120276 -0.00317904 
-0.00120276 4.20475 -0.601441 
-0.00317904 -0.601441 2.93402 
3.62532 0.000317107 -0.00180697 
0.000317107 4.2059 -0.601417 
-0.00180697 -0.601417 2.94194 
3.62132 0.000299785 -0.00181428 
0.000299785 0.735015 -0.911219 
-0.00181428 -0.911219 6.41682 
3.6312 -0.00122008 -0.00315915 
-0.00122008 0.733027 -0.911247 
-0.00315915 -0.911247 6.40893 
5.32054 -0.000742535 0.00327548 
-0.000742535 5.33419 0.637678 
0.00327548 0.637678 5.18692 
5.31138 0.000325585 -0.00180697 
0.000325585 5.335 0.637674 
-0.00180697 0.637674 5.19526 
5.30871 0.000319921 -0.00181428 
0.000319921 3.74402 -0.610571 
-0.00181428 -0.610571 6.78891 
5.31873 -0.000748199 0.00326826 
-0.000748199 3.74235 -0.610572 
0.00326826 -0.610572 6.78056 
5.30765 -0.000753825 0.00448759 
-0.000753825 5.46216 0.116467 
0.00448759 0.116467 5.07183 
5.29989 0.000314382 -0.000594858 
0.000314382 5.46293 0.116478 
-0.000594858 0.116478 5.07882 
5.29722 0.000313914 -0.000616907 
0.000313914 10.5357 -1.13177 
-0.000616907 -1.13177 0.00867168 
5.30583 -0.000754292 0.00446563 
-0.000754292 10.5341 -1.13178 
0.00446563 -1.13178 0.00175073 
5.27513 -0.000175726 0.0107773 
-0.000175726 5.36612 2.71564 
0.0107773 2.71564 5.08693 
5.26772 0.000177371 -0.000594858 
0.000177371 5.36645 2.71562 
-0.000594858 2.71562 5.09401 
5.26693 0.000193874 -0.000616907 
0.000193874 9.69936 3.58263 
-0.000616907 3.58263 0.761892 
5.27463 -0.000159224 0.0106871 
-0.000159224 9.69881 3.58264 
0.0106871 3.58264 0.754736 
5.23958 -0.000146578 0.0113722 
-0.000146578 2.55237 2.90444 
0.0113722 2.90444 7.93623 
5.23668 0.00013838 8.64391e-11 
0.00013838 2.55256 2.9044 
8.64391e-11 2.9044 7.93894 
5.23594 0.00016405 1.71471e-10 
0.00016405 8.32973 3.77141 
1.71471e-10 3.77141 2.1625 
5.23933 -0.000120908 0.011304 
-0.000120908 8.32908 3.77144 
0.011304 3.77144 2.15977 
-5.2469 3.30141e-05 0.0248861 
3.30141e-05 -2.55685 2.90505 
0.0248861 2.90505 -7.93955 
-5.23732 -0.000111797 0.0113722 
-0.000111797 -2.5573 2.90492 
0.0113722 2.90492 -7.94868 
-5.23637 -0.000217803 0.011304 
-0.000217803 -8.33594 3.77197 
0.011304 3.77197 -2.17099 
-5.24768 -7.29913e-05 0.0247072 
-7.29913e-05 -8.33385 3.77208 
0.0247072 3.77208 -2.16178 
-5.29344 8.21687e-05 0.0230413 
8.21687e-05 -5.37107 2.71632 
0.0230413 2.71632 -5.07879 
-5.26998 -0.000173409 0.00952735 
-0.000173409 -5.37197 2.71625 
0.00952735 2.71625 -5.10135 
-5.26913 -0.000263113 0.00939688 
-0.000263113 -9.70509 3.5833 
0.00939688 3.5833 -0.769077 
-5.29361 -7.53488e-06 0.0228 
-7.53488e-06 -9.70337 3.58335 
0.0228 3.58335 -0.746314 
-5.32595 0.000981372 0.00894832 
0.000981372 -5.46782 0.116653 
0.00894832 0.116653 -5.06656 
-5.30168 0.000175823 0.00323763 
0.000175823 -5.46992 0.11668 
0.00323763 0.11668 -5.08873 
-5.29868 0.000103853 0.00317539 
0.000103853 -10.5434 -1.13162 
0.00317539 -1.13162 -0.0182909 
-5.32599 0.000909402 0.00887777 
0.000909402 -10.538 -1.13166 
0.00887777 -1.13166 0.00367859 
-5.34174 0.000954112 0.00521794 
0.000954112 -5.34041 0.638022 
0.00521794 0.638022 -5.17819 
-5.31344 0.000140258 -0.000492744 
0.000140258 -5.34265 0.638008 
-0.000492744 0.638008 -5.20424 
-5.31043 8.29245e-05 -0.000514223 
8.29245e-05 -3.75191 -0.610287 
-0.000514223 -0.610287 -6.79799 
-5.34177 0.000896779 0.00518816 
0.000896779 -3.74665 -0.610288 
0.00518816 -0.610288 -6.77191 
-3.65519 0.0019096 -0.0087792 
0.0019096 -4.20926 -0.601373 
-0.0087792 -0.601373 -2.92589 
-3.62734 0.00064818 -0.00694727 
0.00064818 -4.21253 -0.601299 
-0.00694727 -0.601299 -2.95047 
-3.62299 0.000611623 -0.00694163 
0.000611623 -0.741598 -0.91111 
-0.00694163 -0.91111 -6.42575 
-3.65375 0.00187304 -0.00872987 
0.00187304 -0.735348 -0.911202 
-0.00872987 -0.911202 -6.40124 
-3.64094 0.00189182 -0.0126243 
0.00189182 -4.2071 0.370478 
-0.0126243 0.370478 -2.9423 
-3.61728 0.000674088 -0.0107924 
0.000674088 -4.21023 0.37052 
-0.0107924 0.37052 -2.96282 
-3.61286 0.00065415 -0.0107543 
0.00065415 -2.51929 0.0607086 
-0.0107543 0.0607086 -4.65819 
-3.63977 0.00187188 -0.0125425 
0.00187188 -2.51283 0.0606498 
-0.0125425 0.0606498 -4.63774 
-2.02413 0.0017873 -0.0230751 
0.0017873 -1.35828 0.157397 
-0.0230751 0.157397 -2.52249 
-2.00205 0.00067864 -0.0157199 
0.00067864 -1.36112 0.1575 
-0.0157199 0.1575 -2.54172 
-1.99838 0.000661774 -0.0156629 
0.000661774 1.71 0.334459 
-0.0156629 0.334459 -5.61653 
-2.02232 0.00177044 -0.022936 
0.00177044 1.71467 0.334358 
-0.022936 0.334358 -5.59725 
-1.9886 0.00177394 -0.0257607 
0.00177394 -2.80062 0.731469 
-0.0257607 0.731469 -1.11568 
-1.9748 0.000747286 -0.0184055 
0.000747286 -2.80311 0.731568 
-0.0184055 0.731568 -1.12699 
-1.97102 0.000727738 -0.0183437 
0.000727738 -2.04675 0.908526 
-0.0183437 0.908526 -1.88714 
-1.98726 0.00175439 -0.0256168 
0.00175439 -2.04174 0.90843 
-0.0256168 0.90843 -1.8759 
-0.65993 0.000719294 -0.0312521 
0.000719294 0.479701 0.751149 
-0.0312521 0.751149 -1.68819 
-0.648587 0.00025495 -0.0210308 
0.00025495 0.478475 0.751276 
-0.0210308 0.751276 -1.6983 
-0.647213 0.000251425 -0.0209561 
0.000251425 1.90052 1.07377 
-0.0209561 1.07377 -3.12172 
-0.658968 0.00071577 -0.0310723 
0.00071577 1.90209 1.07365 
-0.0310723 1.07365 -3.11154 
-0.613497 0.000698603 -0.0322037 
0.000698603 -1.65292 0.920738 
-0.0322037 0.920738 0.398007 
-0.612131 0.000339324 -0.0219824 
0.000339324 -1.65371 0.920866 
-0.0219824 0.920866 0.397426 
-0.610629 0.000328273 -0.0219088 
0.000328273 -1.8964 1.24336 
-0.0219088 1.24336 0.638614 
-0.613134 0.000687553 -0.032025 
0.000687553 -1.89442 1.24324 
-0.032025 1.24324 0.639137 
0.613497 -0.000698603 -0.0322037 
-0.000698603 1.65292 0.920738 
-0.0322037 0.920738 -0.398007 
0.612131 -0.000339324 -0.0219824 
-0.000339324 1.65371 0.920866 
-0.0219824 0.920866 -0.397425 
0.610629 -0.000328273 -0.0219088 
-0.000328273 1.8964 1.24336 
-0.0219088 1.24336 -0.638614 
0.613134 -0.000687553 -0.032025 
-0.000687553 1.89442 1.24324 
-0.032025 1.24324 -0.639136 
0.65993 -0.000719294 -0.0312521 
-0.000719294 -0.479701 0.751149 
-0.0312521 0.751149 1.68819 
0.648587 -0.00025495 -0.0210308 
-0.00025495 -0.478475 0.751276 
-0.0210308 0.751276 1.6983 
0.647213 -0.000251425 -0.0209561 
-0.000251425 -1.90052 1.07377 
-0.0209561 1.07377 3.12172 
0.658968 -0.00071577 -0.0310723 
-0.00071577 -1.90209 1.07365 
-0.0310723 1.07365 3.11154 
1.9886 -0.00177394 -0.0257607 
-0.00177394 2.80062 0.731469 
-0.0257607 0.731469 1.11568 
1.9748 -0.000747286 -0.0184055 
-0.000747286 2.80311 0.731568 
-0.0184055 0.731568 1.12699 
1.97102 -0.000727738 -0.0183437 
-0.000727738 2.04675 0.908526 
-0.0183437 0.908526 1.88714 
1.98726 -0.00175439 -0.0256168 
-0.00175439 2.04174 0.90843 
-0.0256168 0.90843 1.8759 
2.02413 -0.0017873 -0.0230751 
-0.0017873 1.35828 0.157397 
-0.0230751 0.157397 2.52249 
2.00205 -0.00067864 -0.0157199 
-0.00067864 1.36112 0.1575 
-0.0157199 0.1575 2.54172 
1.99838 -0.000661774 -0.0156629 
-0.000661774 -1.71 0.334459 
-0.0156629 0.334459 5.61653 
2.02232 -0.00177044 -0.022936 
-0.00177044 -1.71467 0.334358 
-0.022936 0.334358 5.59725 
3.64094 -0.00189182 -0.0126243 
-0.00189182 4.2071 0.370478 
-0.0126243 0.370478 2.9423 
3.61728 -0.000674088 -0.0107924 
-0.000674088 4.21023 0.37052 
-0.0107924 0.37052 2.96282 
3.61286 -0.00065415 -0.0107543 
-0.00065415 2.51929 0.0607086 
-0.0107543 0.0607086 4.65819 
3.63977 -0.00187188 -0.0125425 
-0.00187188 2.51283 0.0606498 
-0.0125425 0.0606498 4.63774 
3.65519 -0.0019096 -0.0087792 
-0.0019096 4.20926 -0.601373 
-0.0087792 -0.601373 2.92589 
3.62734 -0.00064818 -0.00694727 
-0.00064818 4.21253 -0.601299 
-0.00694727 -0.601299 2.95047 
3.62299 -0.000611623 -0.00694163 
-0.000611623 0.741598 -0.91111 
-0.00694163 -0.91111 6.42575 
3.65375 -0.00187304 -0.00872987 
-0.00187304 0.735348 -0.911202 
-0.00872987 -0.911202 6.40124 
5.34174 -0.000954112 0.00521794 
-0.000954112 5.34041 0.638022 
0.00521794 0.638022 5.17819 
5.31344 -0.000140258 -0.000492744 
-0.000140258 5.34265 0.638008 
-0.000492744 0.638008 5.20424 
5.31043 -8.29245e-05 -0.000514223 
-8.29245e-05 3.75191 -0.610287 
-0.000514223 -0.610287 6.79799 
5.34177 -0.000896779 0.00518816 
-0.000896779 3.74665 -0.610288 
0.00518816 -0.610288 6.77191 
5.32595 -0.000981372 0.00894832 
-0.000981372 5.46782 0.116653 
0.00894832 0.116653 5.06656 
5.30168 -0.000175823 0.00323763 
-0.000175823 5.46992 0.11668 
0.00323763 0.11668 5.08873 
5.29868 -0.000103853 0.00317539 
-0.000103853 10.5434 -1.13162 
0.00317539 -1.13162 0.018291 
5.32599 -0.000909402 0.00887777 
-0.000909402 10.538 -1.13166 
0.00887777 -1.13166 -0.00367845 
5.29344 -8.21687e-05 0.0230413 
-8.21687e-05 5.37107 2.71632 
0.0230413 2.71632 5.07879 
5.26998 0.000173409 0.00952735 
0.000173409 5.37197 2.71625 
0.00952735 2.71625 5.10135 
5.26914 0.000263113 0.00939688 
0.000263113 9.70509 3.5833 
0.00939688 3.5833 0.769077 
5.29361 7.53488e-06 0.0228 
7.53488e-06 9.70337 3.58335 
0.0228 3.58335 0.746314 
5.2469 -3.30141e-05 0.0248861 
-3.30141e-05 2.55685 2.90505 
0.0248861 2.90505 7.93955 
5.23732 0.000111797 0.0113722 
0.000111797 2.5573 2.90492 
0.0113722 2.90492 7.94868 
5.23637 0.000217803 0.011304 
0.000217803 8.33594 3.77197 
0.011304 3.77197 2.17099 
5.24768 7.29913e-05 0.0247072 
7.29913e-05 8.33385 3.77208 
0.0247072 3.77208 2.16178 
-5.2612 -0.000368272 0.0427226 
-0.000368272 -2.56779 2.90617 
0.0427226 2.90617 -7.94969 
-5.24214 -0.000115671 0.0248861 
-0.000115671 -2.568 2.90592 
0.0248861 2.90592 -7.96855 
-5.24123 -0.000422809 0.0247072 
-0.000422809 -8.34946 3.77316 
0.0247072 3.77316 -2.188 
-5.26404 -0.000675409 0.0423474 
-0.000675409 -8.34562 3.77345 
0.0423474 3.77345 -2.16902 
-5.32553 -0.000244395 0.0394423 
-0.000244395 -5.38354 2.71754 
0.0394423 2.71754 -5.06961 
-5.28248 -0.000188012 0.0216059 
-0.000188012 -5.38457 2.71738 
0.0216059 2.71738 -5.11164 
-5.28194 -0.000527899 0.0213372 
-0.000527899 -9.71819 3.58462 
0.0213372 3.58462 -0.778563 
-5.32712 -0.000584282 0.0389775 
-0.000584282 -9.71532 3.58482 
0.0389775 3.58482 -0.736254 
-5.3573 0.000698487 0.0143468 
0.000698487 -5.48222 0.116867 
0.0143468 0.116867 -5.06327 
-5.31372 0.000699748 0.0075129 
0.000699748 -5.48468 0.116904 
0.0075129 0.116904 -5.10438 
-5.31095 0.000248371 0.00741493 
0.000248371 -10.5589 -1.13145 
0.00741493 -1.13145 -0.0329692 
-5.36129 0.00024711 0.0142294 
0.00024711 -10.5494 -1.13148 
0.0142294 -1.13148 0.0078553 
-5.37671 0.000673377 0.00782818 
0.000673377 -5.35635 0.638367 
0.00782818 0.638367 -5.16972 
-5.3274 0.000655208 0.000994293 
0.000655208 -5.359 0.638351 
0.000994293 0.638351 -5.21638 
-5.32461 0.000199773 0.000949179 
0.000199773 -3.7684 -0.609998 
0.000949179 -0.609998 -6.80978 
-5.38063 0.000217942 0.00776363 
0.000217942 -3.75909 -0.609978 
0.00776363 -0.609978 -6.76307 
-3.68918 0.00221543 -0.0158749 
0.00221543 -4.22152 -0.601492 
-0.0158749 -0.601492 -2.91813 
-3.64101 0.00178277 -0.0130028 
0.00178277 -4.22599 -0.601334 
-0.0130028 -0.601334 -2.96184 
-3.6368 0.00133274 -0.0129688 
0.00133274 -0.754508 -0.911184 
-0.0129688 -0.911184 -6.43752 
-3.69148 0.0017654 -0.0157554 
0.0017654 -0.743429 -0.911355 
-0.0157554 -0.911355 -6.39392 
-3.66896 0.00217961 -0.0224551 
0.00217961 -4.22211 0.37044 
-0.0224551 0.37044 -2.93776 
-3.62902 0.00183241 -0.0195831 
0.00183241 -4.22624 0.370561 
-0.0195831 0.370561 -2.97357 
-3.62461 0.00139609 -0.0195129 
0.00139609 -2.53591 0.060711 
-0.0195129 0.060711 -4.66831 
-3.67183 0.00174329 -0.0222995 
0.00174329 -2.52444 0.060576 
-0.0222995 0.060576 -4.63256 
-2.05028 0.00228581 -0.0394994 
0.00228581 -1.3655 0.157238 
-0.0394994 0.157238 -2.51548 
-2.0131 0.00177602 -0.0300338 
0.00177602 -1.36953 0.157478 
-0.0300338 0.157478 -2.54863 
-2.00956 0.00143754 -0.0299065 
0.00143754 1.70245 0.334376 
-0.0299065 0.334376 -5.62415 
-2.05092 0.00194734 -0.0392094 
0.00194734 1.71063 0.334148 
-0.0392094 0.334148 -5.59097 
-2.00453 0.00223489 -0.0440122 
0.00223489 -2.81188 0.731294 
-0.0440122 0.731294 -1.11484 
-1.98172 0.00188772 -0.0345466 
0.00188772 -2.81519 0.731545 
-0.0345466 0.731545 -1.13435 
-1.97785 0.00153741 -0.0344297 
0.00153741 -2.05975 0.908443 
-0.0344297 0.908443 -1.89366 
-2.00623 0.00188458 -0.0437327 
0.00188458 -2.05089 0.908204 
-0.0437327 0.908204 -1.87414 
-0.673069 0.000961641 -0.0527502 
0.000961641 0.478816 0.75098 
-0.0527502 0.75098 -1.68349 
-0.654268 0.00068622 -0.040038 
0.00068622 0.476985 0.751285 
-0.040038 0.751285 -1.70046 
-0.653047 0.000562532 -0.0398852 
0.000562532 1.89996 1.07368 
-0.0398852 1.07368 -3.12465 
-0.672727 0.000837953 -0.0523945 
0.000837953 1.90266 1.07339 
-0.0523945 1.07339 -3.10767 
-0.615081 0.000888059 -0.0543332 
0.000888059 -1.65856 0.920548 
-0.0543332 0.920548 0.395896 
-0.612879 0.000815454 -0.0416211 
0.000815454 -1.65949 0.92086 
-0.0416211 0.92086 0.394632 
-0.611241 0.000676874 -0.0414761 
0.000676874 -1.90318 1.24326 
-0.0414761 1.24326 0.636677 
-0.616062 0.000749479 -0.0539855 
0.000749479 -1.89965 1.24296 
-0.0539855 1.24296 0.63797 
0.615082 -0.000888059 -0.0543332 
-0.000888059 1.65856 0.920548 
-0.0543332 0.920548 -0.395896 
0.612879 -0.000815454 -0.0416211 
-0.000815454 1.6595 0.92086 
-0.0416211 0.92086 -0.394632 
0.611241 -0.000676874 -0.0414761 
-0.000676874 1.90318 1.24326 
-0.0414761 1.24326 -0.636677 
0.616062 -0.000749479 -0.0539855 
-0.000749479 1.89965 1.24296 
-0.0539855 1.24296 -0.63797 
0.673069 -0.000961641 -0.0527502 
-0.000961641 -0.478816 0.75098 
-0.0527502 0.75098 1.68349 
0.654268 -0.00068622 -0.040038 
-0.00068622 -0.476985 0.751285 
-0.040038 0.751285 1.70046 
0.653047 -0.000562532 -0.0398852 
-0.000562532 -1.89996 1.07368 
-0.0398852 1.07368 3.12465 
0.672727 -0.000837953 -0.0523945 
-0.000837953 -1.90266 1.07339 
-0.0523945 1.07339 3.10767 
2.00453 -0.00223489 -0.0440122 
-0.00223489 2.81188 0.731294 
-0.0440122 0.731294 1.11484 
1.98172 -0.00188772 -0.0345466 
-0.00188772 2.81519 0.731545 
-0.0345466 0.731545 1.13435 
1.97785 -0.00153741 -0.0344297 
-0.00153741 2.05975 0.908443 
-0.0344297 0.908443 1.89366 
2.00623 -0.00188458 -0.0437327 
-0.00188458 2.05089 0.908204 
-0.0437327 0.908204 1.87414 
2.05028 -0.00228581 -0.0394994 
-0.00228581 1.3655 0.157238 
-0.0394994 0.157238 2.51549 
2.0131 -0.00177602 -0.0300338 
-0.00177602 1.36953 0.157478 
-0.0300338 0.157478 2.54863 
2.00956 -0.00143754 -0.0299065 
-0.00143754 -1.70245 0.334376 
-0.0299065 0.334376 5.62415 
2.05092 -0.00194734 -0.0392094 
-0.00194734 -1.71063 0.334148 
-0.0392094 0.334148 5.59097 
3.66896 -0.00217961 -0.0224551 
-0.00217961 4.22211 0.37044 
-0.0224551 0.37044 2.93776 
3.62902 -0.00183241 -0.0195831 
-0.00183241 4.22625 0.370561 
-0.0195831 0.370561 2.97357 
3.62461 -0.00139609 -0.0195129 
-0.00139609 2.53591 0.060711 
-0.0195129 0.060711 4.66831 
3.67183 -0.00174329 -0.0222995 
-0.00174329 2.52444 0.060576 
-0.0222995 0.060576 4.63256 
3.68918 -0.00221543 -0.0158749 
-0.00221543 4.22152 -0.601492 
-0.0158749 -0.601492 2.91813 
3.64101 -0.00178277 -0.0130028 
-0.00178277 4.22599 -0.601334 
-0.0130028 -0.601334 2.96184 
3.6368 -0.00133274 -0.0129688 
-0.00133274 0.754508 -0.911184 
-0.0129688 -0.911184 6.43753 
3.69148 -0.0017654 -0.0157554 
-0.0017654 0.743429 -0.911355 
-0.0157554 -0.911355 6.39392 
5.37671 -0.000673377 0.00782818 
-0.000673377 5.35635 0.638367 
0.00782818 0.638367 5.16972 
5.3274 -0.000655208 0.000994293 
-0.000655208 5.359 0.638351 
0.000994293 0.638351 5.21638 
5.32461 -0.000199773 0.000949179 
-0.000199773 3.7684 -0.609998 
0.000949179 -0.609998 6.80978 
5.38063 -0.000217942 0.00776363 
-0.000217942 3.75909 -0.609978 
0.00776363 -0.609978 6.76307 
5.3573 -0.000698487 0.0143468 
-0.000698487 5.48222 0.116867 
0.0143468 0.116867 5.06327 
5.31372 -0.000699748 0.0075129 
-0.000699748 5.48468 0.116904 
0.0075129 0.116904 5.10438 
5.31095 -0.000248371 0.00741493 
-0.000248371 10.5589 -1.13145 
0.00741493 -1.13145 0.0329693 
5.36129 -0.00024711 0.0142294 
-0.00024711 10.5494 -1.13148 
0.0142294 -1.13148 -0.00785516 
5.32553 0.000244395 0.0394423 
0.000244395 5.38354 2.71754 
0.0394423 2.71754 5.06961 
5.28248 0.000188012 0.0216059 
0.000188012 5.38457 2.71738 
0.0216059 2.71738 5.11164 
5.28194 0.000527899 0.0213372 
0.000527899 9.71819 3.58462 
0.0213372 3.58462 0.778564 
5.32712 0.000584282 0.0389775 
0.000584282 9.71532 3.58482 
0.0389775 3.58482 0.736254 
5.2612 0.000368272 0.0427226 
0.000368272 2.56779 2.90617 
0.0427226 2.90617 7.94969 
5.24214 0.000115671 0.0248861 
0.000115671 2.568 2.90592 
0.0248861 2.90592 7.96855 
5.24123 0.000422809 0.0247072 
0.000422809 8.34946 3.77316 
0.0247072 3.77316 2.188 
5.26404 0.000675409 0.0423474 
0.000675409 8.34562 3.77345 
0.0423474 3.77345 2.16902 
-5.28691 -0.00130155 0.0669906 
-0.00130155 -2.5891 2.90735 
0.0669906 2.90735 -7.96968 
-5.25373 -9.61634e-05 0.0427226 
-9.61634e-05 -2.58761 2.90693 
0.0427226 2.90693 -8.00435 
-5.2532 -0.000953969 0.0423474 
-0.000953969 -8.37399 3.775 
0.0423474 3.775 -2.2185 
-5.29383 -0.00215935 0.0663327 
-0.00215935 -8.36816 3.7756 
0.0663327 3.7756 -2.1837 
-5.37588 -0.00105986 0.0620067 
-0.00105986 -5.40879 2.71868 
0.0620067 2.71868 -5.06103 
-5.30755 -0.00013723 0.0377386 
-0.00013723 -5.40854 2.71837 
0.0377386 2.71837 -5.1296 
-5.30794 -0.0011856 0.0372546 
-0.0011856 -9.7438 3.58644 
0.0372546 3.58644 -0.793946 
-5.38061 -0.00210823 0.0612399 
-0.00210823 -9.74006 3.58694 
0.0612399 3.58694 -0.725018 
-5.40492 -0.000372951 0.0208211 
-0.000372951 -5.51083 0.116549 
0.0208211 0.116549 -5.06426 
-5.33882 0.00162436 0.0126431 
0.00162436 -5.51059 0.116555 
0.0126431 0.116555 -5.1306 
-5.33721 -0.000157338 0.0125066 
-0.000157338 -10.5864 -1.13162 
0.0125066 -1.13162 -0.0563959 
-5.41644 -0.00215465 0.0206886 
-0.00215465 -10.5732 -1.13169 
0.0206886 -1.13169 0.00959009 
-5.4278 -0.000452302 0.0111071 
-0.000452302 -5.38809 0.637721 
0.0111071 0.637721 -5.16411 
-5.35545 0.00154908 0.00292907 
0.00154908 -5.38825 0.63766 
0.00292907 0.63766 -5.23631 
-5.3539 -0.000168966 0.0028592 
-0.000168966 -3.79854 -0.610511 
0.0028592 -0.610511 -6.82757 
-5.43928 -0.00217034 0.0110413 
-0.00217034 -3.78542 -0.610514 
0.0110413 -0.610514 -6.75532 
-3.73685 0.0020309 -0.0253264 
0.0020309 -4.24678 -0.602435 
-0.0253264 -0.602435 -2.91383 
-3.66857 0.00372576 -0.020774 
0.00372576 -4.24913 -0.602237 
-0.020774 -0.602237 -2.97976 
-3.66532 0.00169179 -0.0206599 
0.00169179 -0.777333 -0.912126 
-0.0206599 -0.912126 -6.45481 
-3.74633 -3.0715e-06 -0.0250219 
-3.0715e-06 -0.762196 -0.912551 
-0.0250219 -0.912551 -6.38894 
-3.70826 0.00183989 -0.0347765 
0.00183989 -4.2518 0.368971 
-0.0347765 0.368971 -2.93741 
-3.65276 0.00372514 -0.0302241 
0.00372514 -4.25387 0.369172 
-0.0302241 0.369172 -2.99083 
-3.64909 0.00191849 -0.0301137 
0.00191849 -2.56525 0.059284 
-0.0301137 0.059284 -4.68313 
-3.71901 3.32496e-05 -0.0344758 
3.32496e-05 -2.54882 0.0588549 
-0.0344758 0.0588549 -4.62963 
-2.08439 0.00264093 -0.05954 
0.00264093 -1.38129 0.156095 
-0.05954 0.156095 -2.51202 
-2.03456 0.00367725 -0.0472684 
0.00367725 -1.38399 0.156473 
-0.0472684 0.156473 -2.55915 
-2.03177 0.00204118 -0.0470236 
0.00204118 1.68881 0.333053 
-0.0470236 0.333053 -5.63474 
-2.08958 0.00100485 -0.0589744 
0.00100485 1.69952 0.332416 
-0.0589744 0.332416 -5.58763 
-2.02713 0.00236067 -0.0658255 
0.00236067 -2.83358 0.729629 
-0.0658255 0.729629 -1.11699 
-1.99617 0.00371788 -0.0535539 
0.00371788 -2.8355 0.730056 
-0.0535539 0.730056 -1.14602 
-1.9926 0.00234085 -0.0533587 
0.00234085 -2.082 0.906636 
-0.0533587 0.906636 -1.90309 
-2.03453 0.000983653 -0.0653095 
0.000983653 -2.06935 0.90595 
-0.0653095 0.90595 -1.87381 
-0.68855 0.00124754 -0.0780418 
0.00124754 0.475493 0.749672 
-0.0780418 0.749672 -1.68103 
-0.664623 0.00149085 -0.0622918 
0.00149085 0.474131 0.750174 
-0.0622918 0.750174 -1.70359 
-0.663866 0.000777328 -0.0620205 
0.000777328 1.89828 1.07203 
-0.0620205 1.07203 -3.1285 
-0.689355 0.000534021 -0.0773983 
0.000534021 1.90138 1.07125 
-0.0773983 1.07125 -3.10611 
-0.619007 0.000914972 -0.0802084 
0.000914972 -1.66852 0.919019 
-0.0802084 0.919019 0.393441 
-0.615319 0.00153043 -0.0644584 
0.00153043 -1.6689 0.919547 
-0.0644584 0.919547 0.390139 
-0.613551 0.00110109 -0.0642133 
0.00110109 -1.91426 1.24141 
-0.0642133 1.24141 0.633729 
-0.622487 0.000485633 -0.0795911 
0.000485633 -1.90892 1.24059 
-0.0795911 1.24059 0.637321 
0.619007 -0.000914972 -0.0802084 
-0.000914972 1.66852 0.919019 
-0.0802084 0.919019 -0.393441 
0.615319 -0.00153043 -0.0644584 
-0.00153043 1.6689 0.919547 
-0.0644584 0.919547 -0.390139 
0.613551 -0.00110109 -0.0642133 
-0.00110109 1.91426 1.24141 
-0.0642133 1.24141 -0.633729 
0.622487 -0.000485633 -0.0795911 
-0.000485633 1.90892 1.24059 
-0.0795911 1.24059 -0.637321 
0.68855 -0.00124754 -0.0780418 
-0.00124754 -0.475492 0.749672 
-0.0780418 0.749672 1.68103 
0.664623 -0.00149085 -0.0622918 
-0.00149085 -0.474131 0.750174 
-0.0622918 0.750174 1.70359 
0.663866 -0.000777328 -0.0620205 
-0.000777328 -1.89828 1.07203 
-0.0620205 1.07203 3.1285 
0.689355 -0.000534021 -0.0773983 
-0.000534021 -1.90138 1.07125 
-0.0773983 1.07125 3.10611 
2.02713 -0.00236067 -0.0658255 
-0.00236067 2.83358 0.729629 
-0.0658255 0.729629 1.11699 
1.99617 -0.00371788 -0.0535539 
-0.00371788 2.8355 0.730056 
-0.0535539 0.730056 1.14602 
1.9926 -0.00234085 -0.0533587 
-0.00234085 2.082 0.906636 
-0.0533587 0.906636 1.9031 
2.03453 -0.000983653 -0.0653095 
-0.000983653 2.06935 0.90595 
-0.0653095 0.90595 1.87381 
2.08439 -0.00264093 -0.05954 
-0.00264093 1.38129 0.156095 
-0.05954 0.156095 2.51202 
2.03456 -0.00367725 -0.0472684 
-0.00367725 1.38399 0.156473 
-0.0472684 0.156473 2.55915 
2.03177 -0.00204118 -0.0470236 
-0.00204118 -1.68881 0.333053 
-0.0470236 0.333053 5.63474 
2.08958 -0.00100485 -0.0589744 
-0.00100485 -1.69952 0.332416 
-0.0589744 0.332416 5.58764 
3.70826 -0.00183989 -0.0347765 
-0.00183989 4.2518 0.368971 
-0.0347765 0.368971 2.93741 
3.65276 -0.00372514 -0.0302241 
-0.00372514 4.25387 0.369172 
-0.0302241 0.369172 2.99083 
3.64909 -0.00191849 -0.0301137 
-0.00191849 2.56525 0.059284 
-0.0301137 0.059284 4.68313 
3.71901 -3.32496e-05 -0.0344758 
-3.32496e-05 2.54882 0.0588549 
-0.0344758 0.0588549 4.62963 
3.73685 -0.0020309 -0.0253264 
-0.0020309 4.24678 -0.602435 
-0.0253264 -0.602435 2.91383 
3.66857 -0.00372576 -0.020774 
-0.00372576 4.24913 -0.602237 
-0.020774 -0.602237 2.97976 
3.66532 -0.00169179 -0.0206599 
-0.00169179 0.777333 -0.912126 
-0.0206599 -0.912126 6.45481 
3.74633 3.0715e-06 -0.0250219 
3.0715e-06 0.762196 -0.912551 
-0.0250219 -0.912551 6.38894 
5.4278 0.000452302 0.0111071 
0.000452302 5.38809 0.637721 
0.0111071 0.637721 5.16411 
5.35545 -0.00154908 0.00292907 
-0.00154908 5.38825 0.63766 
0.00292907 0.63766 5.23631 
5.3539 0.000168966 0.0028592 
0.000168966 3.79854 -0.610511 
0.0028592 -0.610511 6.82757 
5.43928 0.00217034 0.0110413 
0.00217034 3.78542 -0.610514 
0.0110413 -0.610514 6.75532 
5.40492 0.000372951 0.0208211 
0.000372951 5.51083 0.116549 
0.0208211 0.116549 5.06426 
5.33882 -0.00162436 0.0126431 
-0.00162436 5.51059 0.116555 
0.0126431 0.116555 5.1306 
5.33721 0.000157338 0.0125066 
0.000157338 10.5864 -1.13162 
0.0125066 -1.13162 0.0563961 
5.41644 0.00215465 0.0206886 
0.00215465 10.5732 -1.13169 
0.0206886 -1.13169 -0.00958995 
5.37588 0.00105986 0.0620067 
0.00105986 5.40879 2.71868 
0.0620067 2.71868 5.06103 
5.30755 0.00013723 0.0377386 
0.00013723 5.40854 2.71837 
0.0377386 2.71837 5.1296 
5.30794 0.0011856 0.0372546 
0.0011856 9.7438 3.58644 
0.0372546 3.58644 0.793946 
5.38061 0.00210823 0.0612399 
0.00210823 9.74006 3.58694 
0.0612399 3.58694 0.725018 
5.28691 0.00130155 0.0669906 
0.00130155 2.5891 2.90735 
0.0669906 2.90735 7.96968 
5.25373 9.61634e-05 0.0427226 
9.61634e-05 2.58761 2.90693 
0.0427226 2.90693 8.00435 
5.2532 0.000953969 0.0423474 
0.000953969 8.37399 3.775 
0.0423474 3.775 2.2185 
5.29383 0.00215935 0.0663327 
0.00215935 8.36816 3.7756 
0.0663327 3.7756 2.1837 
-5.33384 -0.0025534 0.09847 
-0.0025534 -2.6259 2.90661 
0.09847 2.90661 -8.00354 
-5.27721 0.000295109 0.0669906 
0.000295109 -2.6203 2.90633 
0.0669906 2.90633 -8.06576 
-5.27778 -0.00185343 0.0663327 
-0.00185343 -8.41429 3.77698 
0.0663327 3.77698 -2.2712 
-5.34523 -0.00470194 0.0976852 
-0.00470194 -8.40899 3.77843 
0.0976852 3.77843 -2.20905 
-5.44745 -0.00205029 0.0914069 
-0.00205029 -5.45712 2.71746 
0.0914069 2.71746 -5.05871 
-5.34992 0.000671279 0.0599275 
0.000671279 -5.4515 2.71724 
0.0599275 2.71724 -5.16186 
-5.35259 -0.00264962 0.0592107 
-0.00264962 -9.79146 3.5879 
0.0592107 3.5879 -0.819228 
-5.45616 -0.00537119 0.0905632 
-0.00537119 -9.79138 3.58929 
0.0905632 3.58929 -0.715732 
-5.47468 -0.0018739 0.0268067 
-0.0018739 -5.56294 0.113769 
0.0268067 0.113769 -5.07236 
-5.38208 0.00444724 0.018742 
0.00444724 -5.55251 0.114064 
0.018742 0.114064 -5.17539 
-5.38263 -0.000807672 0.0186594 
-0.000807672 -10.6324 -1.13331 
0.0186594 -1.13331 -0.0949191 
-5.49737 -0.00712881 0.026781 
-0.00712881 -10.6205 -1.13289 
0.026781 -1.13289 0.00793213 
-5.49163 -0.00167109 0.0135815 
-0.00167109 -5.44837 0.633029 
0.0135815 0.633029 -5.16998 
-5.40314 0.00470687 0.00551669 
0.00470687 -5.43668 0.63339 
0.00551669 0.63339 -5.27015 
-5.40384 -0.00126459 0.00536868 
-0.00126459 -3.85158 -0.613982 
0.00536868 -0.613982 -6.85456 
-5.51443 -0.00764256 0.0134903 
-0.00764256 -3.84163 -0.613626 
0.0134903 -0.613626 -6.75392 
-3.79945 0.00221064 -0.0389559 
0.00221064 -4.29384 -0.606177 
-0.0389559 -0.606177 -2.91692 
-3.71285 0.00854502 -0.0309168 
0.00854502 -4.28661 -0.605393 
-0.0309168 -0.605393 -3.01075 
-3.71149 0.00253249 -0.0306945 
0.00253249 -0.816342 -0.915632 
-0.0306945 -0.915632 -6.48238 
-3.81871 -0.00380189 -0.0384714 
-0.00380189 -0.802678 -0.915907 
-0.0384714 -0.915907 -6.38882 
-3.75331 0.00226159 -0.0511656 
0.00226159 -4.30725 0.362935 
-0.0511656 0.362935 -2.94965 
-3.69383 0.00885817 -0.0431265 
0.00885817 -4.2977 0.363779 
-0.0431265 0.363779 -3.01868 
-3.69147 0.00233649 -0.0429645 
0.00233649 -2.61464 0.0535398 
-0.0429645 0.0535398 -4.7041 
-3.77474 -0.0042601 -0.0507413 
-0.0042601 -2.60093 0.0532043 
-0.0507413 0.0532043 -4.63454 
-2.12499 0.00357579 -0.0839543 
0.00357579 -1.41196 0.152124 
-0.0839543 0.152124 -2.51594 
-2.06649 0.00811224 -0.06789 
0.00811224 -1.40802 0.153246 
-0.06789 0.153246 -2.57838 
-2.06489 0.0034649 -0.0674631 
0.0034649 1.66415 0.328329 
-0.0674631 0.328329 -5.65216 
-2.13636 -0.00107155 -0.0831589 
-0.00107155 1.67348 0.327685 
-0.0831589 0.327685 -5.59001 
-2.05187 0.00353306 -0.0916847 
0.00353306 -2.87332 0.723678 
-0.0916847 0.723678 -1.12771 
-2.02306 0.00843799 -0.0756205 
0.00843799 -2.8663 0.724966 
-0.0756205 0.724966 -1.16354 
-2.01961 0.00331161 -0.0753592 
0.00331161 -2.11788 0.900048 
-0.0753592 0.900048 -1.91541 
-2.06674 -0.00159332 -0.091055 
-0.00159332 -2.10761 0.89924 
-0.091055 0.89924 -1.87855 
-0.705532 0.00166734 -0.106906 
0.00166734 0.467544 0.745267 
-0.106906 0.745267 -1.68238 
-0.677286 0.00317649 -0.0878367 
0.00317649 0.467881 0.746654 
-0.0878367 0.746654 -1.71097 
-0.677396 0.00156095 -0.0874481 
0.00156095 1.8931 1.06625 
-0.0874481 1.06625 -3.13608 
-0.707908 5.18043e-05 -0.106126 
5.18043e-05 1.89584 1.06531 
-0.106126 1.06531 -3.1083 
-0.623625 0.00157387 -0.109518 
0.00157387 -1.68554 0.913876 
-0.109518 0.913876 0.388796 
-0.623371 0.00347429 -0.0904483 
0.00347429 -1.68192 0.915307 
-0.0904483 0.915307 0.384916 
-0.621164 0.00141094 -0.090104 
0.00141094 -1.93051 1.2349 
-0.090104 1.2349 0.631308 
-0.630069 -0.000489483 -0.108782 
-0.000489483 -1.92649 1.23391 
-0.108782 1.23391 0.636192 
0.623625 -0.00157387 -0.109518 
-0.00157387 1.68554 0.913876 
-0.109518 0.913876 -0.388796 
0.623371 -0.00347429 -0.0904483 
-0.00347429 1.68192 0.915307 
-0.0904483 0.915307 -0.384916 
0.621165 -0.00141094 -0.090104 
-0.00141094 1.93051 1.2349 
-0.090104 1.2349 -0.631307 
0.63007 0.000489483 -0.108782 
0.000489483 1.92649 1.23391 
-0.108782 1.23391 -0.636192 
0.705532 -0.00166734 -0.106906 
-0.00166734 -0.467543 0.745267 
-0.106906 0.745267 1.68238 
0.677286 -0.00317649 -0.0878367 
-0.00317649 -0.467881 0.746654 
-0.0878367 0.746654 1.71097 
0.677397 -0.00156095 -0.0874481 
-0.00156095 -1.8931 1.06625 
-0.0874481 1.06625 3.13608 
0.707909 -5.18043e-05 -0.106126 
-5.18043e-05 -1.89584 1.06531 
-0.106126 1.06531 3.1083 
2.05187 -0.00353306 -0.0916847 
-0.00353306 2.87332 0.723678 
-0.0916847 0.723678 1.12771 
2.02306 -0.00843799 -0.0756205 
-0.00843799 2.8663 0.724966 
-0.0756205 0.724966 1.16354 
2.01961 -0.00331161 -0.0753592 
-0.00331161 2.11788 0.900048 
-0.0753592 0.900048 1.91541 
2.06674 0.00159332 -0.091055 
0.00159332 2.10761 0.89924 
-0.091055 0.89924 1.87855 
2.12499 -0.00357579 -0.0839543 
-0.00357579 1.41196 0.152124 
-0.0839543 0.152124 2.51594 
2.06649 -0.00811224 -0.06789 
-0.00811224 1.40802 0.153246 
-0.06789 0.153246 2.57838 
2.06489 -0.0034649 -0.0674631 
-0.0034649 -1.66415 0.328329 
-0.0674631 0.328329 5.65216 
2.13636 0.00107155 -0.0831589 
0.00107155 -1.67348 0.327685 
-0.0831589 0.327685 5.59001 
3.75331 -0.00226159 -0.0511656 
-0.00226159 4.30725 0.362935 
-0.0511656 0.362935 2.94965 
3.69383 -0.00885817 -0.0431265 
-0.00885817 4.2977 0.363779 
-0.0431265 0.363779 3.01868 
3.69147 -0.00233649 -0.0429645 
-0.00233649 2.61464 0.0535398 
-0.0429645 0.0535398 4.7041 
3.77474 0.0042601 -0.0507413 
0.0042601 2.60093 0.0532043 
-0.0507413 0.0532043 4.63454 
3.79945 -0.00221064 -0.0389559 
-0.00221064 4.29384 -0.606177 
-0.0389559 -0.606177 2.91692 
3.71285 -0.00854502 -0.0309168 
-0.00854502 4.28661 -0.605393 
-0.0309168 -0.605393 3.01075 
3.71149 -0.00253249 -0.0306945 
-0.00253249 0.816342 -0.915632 
-0.0306945 -0.915632 6.48238 
3.81871 0.00380189 -0.0384714 
0.00380189 0.802678 -0.915907 
-0.0384714 -0.915907 6.38882 
5.49163 0.00167109 0.0135815 
0.00167109 5.44837 0.633029 
0.0135815 0.633029 5.16998 
5.40314 -0.00470687 0.00551669 
-0.00470687 5.43668 0.63339 
0.00551669 0.63339 5.27015 
5.40384 0.00126459 0.00536868 
0.00126459 3.85158 -0.613982 
0.00536868 -0.613982 6.85456 
5.51443 0.00764256 0.0134903 
0.00764256 3.84164 -0.613626 
0.0134903 -0.613626 6.75392 
5.47468 0.0018739 0.0268067 
0.0018739 5.56294 0.113769 
0.0268067 0.113769 5.07236 
5.38208 -0.00444724 0.018742 
-0.00444724 5.55251 0.114064 
0.018742 0.114064 5.17539 
5.38263 0.000807672 0.0186594 
0.000807672 10.6324 -1.13331 
0.0186594 -1.13331 0.0949192 
5.49737 0.00712881 0.026781 
0.00712881 10.6205 -1.13289 
0.026781 -1.13289 -0.00793199 
5.44745 0.00205029 0.0914069 
0.00205029 5.45712 2.71746 
0.0914069 2.71746 5.05871 
5.34992 -0.000671279 0.0599275 
-0.000671279 5.4515 2.71724 
0.0599275 2.71724 5.16186 
5.35259 0.00264962 0.0592107 
0.00264962 9.79146 3.5879 
0.0592107 3.5879 0.819229 
5.45616 0.00537119 0.0905632 
0.00537119 9.79138 3.58929 
0.0905632 3.58929 0.715732 
5.33384 0.0025534 0.09847 
0.0025534 2.6259 2.90661 
0.09847 2.90661 8.00354 
5.27721 -0.000295109 0.0669906 
-0.000295109 2.6203 2.90633 
0.0669906 2.90633 8.06576 
5.27778 0.00185343 0.0663327 
0.00185343 8.41429 3.77698 
0.0663327 3.77698 2.2712 
5.34523 0.00470194 0.0976852 
0.00470194 8.409 3.77843 
0.0976852 3.77843 2.20905 
-5.41005 -0.00159392 0.136651 
-0.00159392 -2.68888 2.89856 
0.136651 2.89856 -8.06256 
-5.32686 0.00409264 0.09847 
0.00409264 -2.66969 2.89837 
0.09847 2.89837 -8.16495 
-5.32552 -0.00276387 0.0976852 
-0.00276387 -8.47816 3.77711 
0.0976852 3.77711 -2.35781 
-5.42184 -0.00845043 0.13764 
-0.00845043 -8.48396 3.77835 
0.13764 3.77835 -2.25569 
-5.55118 -0.00277081 0.126626 
-0.00277081 -5.54599 2.70713 
0.126626 2.70713 -5.06432 
-5.41191 0.00468895 0.0884449 
0.00468895 -5.52608 2.70744 
0.0884449 2.70744 -5.2235 
-5.41482 -0.00322146 0.0871699 
-0.00322146 -9.8818 3.58617 
0.0871699 3.58617 -0.864877 
-5.56666 -0.0106812 0.127125 
-0.0106812 -9.8916 3.58692 
0.127125 3.58692 -0.70324 
-5.56669 0.00316319 0.0311109 
0.00316319 -5.65407 0.104773 
0.0311109 0.104773 -5.09818 
-5.4576 0.0161138 0.0238447 
0.0161138 -5.61356 0.104694 
0.0238447 0.104694 -5.24777 
-5.45965 -0.000677871 0.0233878 
-0.000677871 -10.7055 -1.13935 
0.0233878 -1.13935 -0.153813 
-5.5869 -0.0136285 0.031959 
-0.0136285 -10.7258 -1.1414 
0.031959 -1.1414 -0.00624076 
-5.57596 0.00125545 0.0128386 
0.00125545 -5.55403 0.619008 
0.0128386 0.619008 -5.18894 
-5.46935 0.0155111 0.00557248 
0.0155111 -5.51671 0.618253 
0.00557248 0.618253 -5.33288 
-5.47221 0.000857212 0.00579094 
0.000857212 -3.94536 -0.625786 
0.00579094 -0.625786 -6.90137 
-5.6012 -0.0133985 0.0143622 
-0.0133985 -3.9593 -0.627169 
0.0143622 -0.627169 -6.75843 
-3.85837 0.0108566 -0.0557 
0.0108566 -4.37958 -0.613455 
-0.0557 -0.613455 -2.94806 
-3.78839 0.0253998 -0.0469649 
0.0253998 -4.33829 -0.614334 
-0.0469649 -0.614334 -3.05933 
-3.78499 0.00548146 -0.0461707 
0.00548146 -0.88125 -0.924804 
-0.0461707 -0.924804 -6.51978 
-3.87586 -0.00906176 -0.053668 
-0.00906176 -0.902969 -0.928446 
-0.053668 -0.928446 -6.40719 
-3.81102 0.00831601 -0.0704429 
0.00831601 -4.40307 0.348574 
-0.0704429 0.348574 -2.97192 
-3.75015 0.0240971 -0.0617078 
0.0240971 -4.3674 0.348182 
-0.0617078 0.348182 -3.06847 
-3.74524 0.00870021 -0.0614011 
0.00870021 -2.69916 0.0377121 
-0.0614011 0.0377121 -4.74161 
-3.83554 -0.00708087 -0.0688984 
-0.00708087 -2.70628 0.0335822 
-0.0688984 0.0335822 -4.6442 
-2.14748 0.0125162 -0.108019 
0.0125162 -1.47092 0.145663 
-0.108019 0.145663 -2.54952 
-2.11975 0.0225726 -0.0944965 
0.0225726 -1.44056 0.145344 
-0.0944965 0.145344 -2.60761 
-2.11652 0.00629702 -0.0938187 
0.00629702 1.62125 0.31668 
-0.0938187 0.31668 -5.67265 
-2.15344 -0.00375937 -0.105821 
-0.00375937 1.6002 0.311777 
-0.105821 0.311777 -5.61469 
-2.09142 0.00939377 -0.116891 
0.00939377 -2.93879 0.712035 
-0.116891 0.712035 -1.13772 
-2.05823 0.0209711 -0.103368 
0.0209711 -2.91456 0.711928 
-0.103368 0.711928 -1.19514 
-2.05226 0.00991709 -0.102902 
0.00991709 -2.17641 0.883264 
-0.102902 0.883264 -1.93925 
-2.10692 -0.00166023 -0.114904 
-0.00166023 -2.18025 0.878149 
-0.114904 0.878149 -1.88076 
-0.701577 0.00628448 -0.132787 
0.00628448 0.447574 0.738677 
-0.132787 0.738677 -1.70623 
-0.700171 0.00947695 -0.118589 
0.00947695 0.460611 0.738613 
-0.118589 0.738613 -1.72067 
-0.699727 0.00168114 -0.117973 
0.00168114 1.88143 1.05229 
-0.117973 1.05229 -3.14194 
-0.699522 -0.00151133 -0.13076 
-0.00151133 1.86749 1.04697 
-0.13076 1.04697 -3.1282 
-0.647036 0.00316434 -0.135729 
0.00316434 -1.70963 0.90534 
-0.135729 0.90534 0.396437 
-0.631436 0.00776744 -0.121531 
0.00776744 -1.70288 0.905337 
-0.121531 0.905337 0.374083 
-0.627528 0.00536254 -0.120977 
0.00536254 -1.95472 1.21902 
-0.120977 1.21902 0.622019 
-0.654754 0.000759431 -0.133764 
0.000759431 -1.95084 1.21363 
-0.133764 1.21363 0.645359 
0.647036 -0.00316434 -0.135729 
-0.00316434 1.70963 0.90534 
-0.135729 0.90534 -0.396437 
0.631436 -0.00776744 -0.121531 
-0.00776744 1.70288 0.905337 
-0.121531 0.905337 -0.374083 
0.627528 -0.00536254 -0.120977 
-0.00536254 1.95472 1.21902 
-0.120977 1.21902 -0.622019 
0.654754 -0.000759431 -0.133764 
-0.000759431 1.95084 1.21363 
-0.133764 1.21363 -0.645359 
0.701577 -0.00628448 -0.132787 
-0.00628448 -0.447574 0.738677 
-0.132787 0.738677 1.70623 
0.700171 -0.00947695 -0.118589 
-0.00947695 -0.460611 0.738613 
-0.118589 0.738613 1.72067 
0.699727 -0.00168114 -0.117973 
-0.00168114 -1.88143 1.05229 
-0.117973 1.05229 3.14194 
0.699522 0.00151133 -0.13076 
0.00151133 -1.86749 1.04697 
-0.13076 1.04697 3.1282 
2.09142 -0.00939377 -0.116891 
-0.00939377 2.93879 0.712035 
-0.116891 0.712035 1.13772 
2.05823 -0.0209711 -0.103368 
-0.0209711 2.91456 0.711928 
-0.103368 0.711928 1.19514 
2.05226 -0.00991709 -0.102902 
-0.00991709 2.17641 0.883264 
-0.102902 0.883264 1.93926 
2.10692 0.00166023 -0.114904 
0.00166023 2.18025 0.878149 
-0.114904 0.878149 1.88076 
2.14748 -0.0125162 -0.108019 
-0.0125162 1.47092 0.145663 
-0.108019 0.145663 2.54952 
2.11975 -0.0225726 -0.0944965 
-0.0225726 1.44056 0.145344 
-0.0944965 0.145344 2.60761 
2.11652 -0.00629702 -0.0938187 
-0.00629702 -1.62125 0.31668 
-0.0938187 0.31668 5.67265 
2.15344 0.00375937 -0.105821 
0.00375937 -1.6002 0.311777 
-0.105821 0.311777 5.61469 
3.81102 -0.00831601 -0.0704429 
-0.00831601 4.40307 0.348574 
-0.0704429 0.348574 2.97192 
3.75015 -0.0240971 -0.0617078 
-0.0240971 4.3674 0.348182 
-0.0617078 0.348182 3.06847 
3.74524 -0.00870021 -0.0614011 
-0.00870021 2.69916 0.0377121 
-0.0614011 0.0377121 4.74161 
3.83554 0.00708087 -0.0688984 
0.00708087 2.70628 0.0335822 
-0.0688984 0.0335822 4.6442 
3.85837 -0.0108566 -0.0557 
-0.0108566 4.37958 -0.613455 
-0.0557 -0.613455 2.94806 
3.78839 -0.0253998 -0.0469649 
-0.0253998 4.33829 -0.614334 
-0.0469649 -0.614334 3.05933 
3.78499 -0.00548146 -0.0461707 
-0.00548146 0.88125 -0.924804 
-0.0461707 -0.924804 6.51978 
3.87586 0.00906176 -0.053668 
0.00906176 0.902969 -0.928446 
-0.053668 -0.928446 6.40719 
5.57596 -0.00125545 0.0128386 
-0.00125545 5.55403 0.619008 
0.0128386 0.619008 5.18894 
5.46935 -0.0155111 0.00557248 
-0.0155111 5.51671 0.618253 
0.00557248 0.618253 5.33288 
5.47221 -0.000857212 0.00579094 
-0.000857212 3.94536 -0.625786 
0.00579094 -0.625786 6.90137 
5.6012 0.0133985 0.0143622 
0.0133985 3.9593 -0.627169 
0.0143622 -0.627169 6.75843 
5.56669 -0.00316319 0.0311109 
-0.00316319 5.65407 0.104773 
0.0311109 0.104773 5.09818 
5.4576 -0.0161138 0.0238447 
-0.0161138 5.61356 0.104694 
0.0238447 0.104694 5.24777 
5.45965 0.000677871 0.0233878 
0.000677871 10.7055 -1.13935 
0.0233878 -1.13935 0.153813 
5.5869 0.0136285 0.031959 
0.0136285 10.7258 -1.1414 
0.031959 -1.1414 0.0062409 
5.55118 0.00277081 0.126626 
0.00277081 5.54599 2.70713 
0.126626 2.70713 5.06432 
5.41191 -0.00468895 0.0884449 
-0.00468895 5.52608 2.70744 
0.0884449 2.70744 5.2235 
5.41482 0.00322146 0.0871699 
0.00322146 9.8818 3.58617 
0.0871699 3.58617 0.864877 
5.56666 0.0106812 0.127125 
0.0106812 9.8916 3.58692 
0.127125 3.58692 0.70324 
5.41005 0.00159392 0.136651 
0.00159392 2.68888 2.89856 
0.136651 2.89856 8.06256 
5.32686 -0.00409264 0.09847 
-0.00409264 2.66969 2.89837 
0.09847 2.89837 8.16495 
5.32552 0.00276387 0.0976852 
0.00276387 8.47816 3.77711 
0.0976852 3.77711 2.35781 
5.42184 0.00845043 0.13764 
0.00845043 8.48396 3.77835 
0.13764 3.77835 2.25569 
-5.57792 0.0110284 0.161201 
0.0110284 -2.76517 2.85894 
0.161201 2.85894 -8.13638 
-5.40391 0.0146411 0.136651 
0.0146411 -2.74857 2.86608 
0.136651 2.86608 -8.327 
-5.40935 0.00356012 0.13764 
0.00356012 -8.56199 3.7648 
0.13764 3.7648 -2.50813 
-5.54407 -5.25964e-05 0.169056 
-5.25964e-05 -8.61227 3.77205 
0.169056 3.77205 -2.32314 
-5.63911 0.0103199 0.151559 
0.0103199 -5.69993 2.66174 
0.151559 2.66174 -5.14044 
-5.51752 0.0207988 0.127009 
0.0207988 -5.64621 2.66809 
0.127009 2.66809 -5.31574 
-5.52954 -0.00467328 0.128793 
-0.00467328 -10.0498 3.56682 
0.128793 3.56682 -0.900169 
-5.62939 -0.0151522 0.160209 
-0.0151522 -10.1273 3.57486 
0.160209 3.57486 -0.722798 
-5.71372 0.0311546 0.0165239 
0.0311546 -5.7933 0.0695455 
0.0165239 0.0695455 -5.13142 
-5.56244 0.056469 0.0314938 
0.056469 -5.71265 0.0746104 
0.0314938 0.0746104 -5.36335 
-5.54551 0.0235433 0.0336275 
0.0235433 -10.8375 -1.16111 
0.0336275 -1.16111 -0.255448 
-5.67788 -0.00177107 0.0157861 
-0.00177107 -10.9396 -1.15292 
0.0157861 -1.15292 -0.0209782 
-5.62224 0.0385482 -0.000839959 
0.0385482 -5.72357 0.564791 
-0.000839959 0.564791 -5.29263 
-5.60802 0.060991 0.0141299 
0.060991 -5.61484 0.571179 
0.0141299 0.571179 -5.41558 
-5.58581 0.0148096 0.0149413 
0.0148096 -4.11152 -0.664545 
0.0149413 -0.664545 -6.94111 
-5.57883 -0.00763319 -0.00290018 
-0.00763319 -4.24483 -0.657676 
-0.00290018 -0.657676 -6.81477 
-3.93087 0.0475659 -0.0779502 
0.0475659 -4.51647 -0.644271 
-0.0779502 -0.644271 -2.99385 
-3.86326 0.0744964 -0.0544087 
0.0744964 -4.43078 -0.638968 
-0.0544087 -0.638968 -3.14716 
-3.84478 0.0351126 -0.0530888 
0.0351126 -1.00879 -0.950909 
-0.0530888 -0.950909 -6.58763 
-3.88077 0.00818201 -0.0813233 
0.00818201 -1.12534 -0.944651 
-0.0813233 -0.944651 -6.43509 
-3.83488 0.0551874 -0.0921932 
0.0551874 -4.54281 0.299611 
-0.0921932 0.299611 -3.0635 
-3.87928 0.0774249 -0.0686517 
0.0774249 -4.43482 0.305636 
-0.0686517 0.305636 -3.12711 
-3.85147 0.0264806 -0.0680549 
0.0264806 -2.8281 -0.00630434 
-0.0680549 -0.00630434 -4.76164 
-3.77312 0.00424304 -0.0962894 
0.00424304 -2.97404 -0.000769185 
-0.0962894 -0.000769185 -4.69403 
-2.18001 0.0416458 -0.126558 
0.0416458 -1.57185 0.118856 
-0.126558 0.118856 -2.57843 
-2.14667 0.0618702 -0.106228 
0.0618702 -1.51422 0.125358 
-0.106228 0.125358 -2.6694 
-2.12763 0.0340827 -0.104977 
0.0340827 1.52163 0.286097 
-0.104977 0.286097 -5.72429 
-2.1365 0.0138583 -0.130117 
0.0138583 1.44194 0.291754 
-0.130117 0.291754 -5.63574 
-2.10642 0.0492065 -0.136052 
0.0492065 -3.02713 0.671854 
-0.136052 0.671854 -1.19674 
-2.16306 0.0646211 -0.115722 
0.0646211 -2.94577 0.679332 
-0.115722 0.679332 -1.22146 
-2.13212 0.0246747 -0.115447 
0.0246747 -2.25282 0.84007 
-0.115447 0.84007 -1.94535 
-2.0533 0.00926012 -0.140587 
0.00926012 -2.36314 0.844751 
-0.140587 0.844751 -1.91385 
-0.718745 0.014726 -0.150254 
0.014726 0.403238 0.711983 
-0.150254 0.711983 -1.70035 
-0.67772 0.0225795 -0.131618 
0.0225795 0.416178 0.719824 
-0.131618 0.719824 -1.75431 
-0.673165 0.0163428 -0.131303 
0.0163428 1.8347 1.01801 
-0.131303 1.01801 -3.17739 
-0.702149 0.00848924 -0.153325 
0.00848924 1.81553 1.0226 
-0.153325 1.0226 -3.12924 
-0.645207 0.0211864 -0.153923 
0.0211864 -1.73301 0.874278 
-0.153923 0.874278 0.36236 
-0.698102 0.0256536 -0.135288 
0.0256536 -1.69512 0.88242 
-0.135288 0.88242 0.377369 
-0.682349 0.00698347 -0.135273 
0.00698347 -1.97023 1.1806 
-0.135273 1.1806 0.636723 
-0.624666 0.00251628 -0.157295 
0.00251628 -2.02006 1.1849 
-0.157295 1.1849 0.628867 
0.645207 -0.0211864 -0.153923 
-0.0211864 1.73301 0.874278 
-0.153923 0.874278 -0.36236 
0.698102 -0.0256536 -0.135288 
-0.0256536 1.69512 0.88242 
-0.135288 0.88242 -0.377369 
0.682349 -0.00698347 -0.135273 
-0.00698347 1.97023 1.1806 
-0.135273 1.1806 -0.636723 
0.624667 -0.00251628 -0.157295 
-0.00251628 2.02006 1.1849 
-0.157295 1.1849 -0.628867 
0.718745 -0.014726 -0.150254 
-0.014726 -0.403238 0.711983 
-0.150254 0.711983 1.70035 
0.67772 -0.0225795 -0.131618 
-0.0225795 -0.416178 0.719824 
-0.131618 0.719824 1.75431 
0.673165 -0.0163428 -0.131303 
-0.0163428 -1.8347 1.01801 
-0.131303 1.01801 3.17739 
0.702149 -0.00848924 -0.153325 
-0.00848924 -1.81553 1.0226 
-0.153325 1.0226 3.12924 
2.10642 -0.0492065 -0.136052 
-0.0492065 3.02713 0.671854 
-0.136052 0.671854 1.19674 
2.16306 -0.0646211 -0.115722 
-0.0646211 2.94577 0.679332 
-0.115722 0.679332 1.22146 
2.13212 -0.0246747 -0.115447 
-0.0246747 2.25283 0.84007 
-0.115447 0.84007 1.94535 
2.0533 -0.00926012 -0.140587 
-0.00926012 2.36314 0.844751 
-0.140587 0.844751 1.91385 
2.18001 -0.0416458 -0.126558 
-0.0416458 1.57185 0.118856 
-0.126558 0.118856 2.57843 
2.14667 -0.0618702 -0.106228 
-0.0618702 1.51422 0.125358 
-0.106228 0.125358 2.6694 
2.12763 -0.0340827 -0.104977 
-0.0340827 -1.52163 0.286097 
-0.104977 0.286097 5.72429 
2.1365 -0.0138583 -0.130117 
-0.0138583 -1.44194 0.291754 
-0.130117 0.291754 5.63574 
3.83488 -0.0551874 -0.0921932 
-0.0551874 4.54281 0.299611 
-0.0921932 0.299611 3.0635 
3.87928 -0.0774249 -0.0686517 
-0.0774249 4.43482 0.305636 
-0.0686517 0.305636 3.12711 
3.85147 -0.0264806 -0.0680549 
-0.0264806 2.8281 -0.00630434 
-0.0680549 -0.00630434 4.76164 
3.77312 -0.00424304 -0.0962894 
-0.00424304 2.97404 -0.000769185 
-0.0962894 -0.000769185 4.69403 
3.93087 -0.0475659 -0.0779502 
-0.0475659 4.51647 -0.644271 
-0.0779502 -0.644271 2.99385 
3.86326 -0.0744964 -0.0544087 
-0.0744964 4.43078 -0.638968 
-0.0544087 -0.638968 3.14716 
3.84478 -0.0351126 -0.0530888 
-0.0351126 1.00879 -0.950909 
-0.0530888 -0.950909 6.58763 
3.88077 -0.00818201 -0.0813233 
-0.00818201 1.12534 -0.944651 
-0.0813233 -0.944651 6.43509 
5.62224 -0.0385482 -0.000839959 
-0.0385482 5.72357 0.564791 
-0.000839959 0.564791 5.29263 
5.60802 -0.060991 0.0141299 
-0.060991 5.61484 0.571179 
0.0141299 0.571179 5.41558 
5.58581 -0.0148096 0.0149413 
-0.0148096 4.11152 -0.664545 
0.0149413 -0.664545 6.94111 
5.57883 0.00763319 -0.00290018 
0.00763319 4.24483 -0.657676 
-0.00290018 -0.657676 6.81477 
5.71372 -0.0311546 0.0165239 
-0.0311546 5.7933 0.0695455 
0.0165239 0.0695455 5.13142 
5.56244 -0.056469 0.0314938 
-0.056469 5.71265 0.0746104 
0.0314938 0.0746104 5.36335 
5.54551 -0.0235433 0.0336275 
-0.0235433 10.8375 -1.16111 
0.0336275 -1.16111 0.255449 
5.67788 0.00177107 0.0157861 
0.00177107 10.9396 -1.15292 
0.0157861 -1.15292 0.0209784 
5.63911 -0.0103199 0.151559 
-0.0103199 5.69993 2.66174 
0.151559 2.66174 5.14044 
5.51752 -0.0207988 0.127009 
-0.0207988 5.64621 2.66809 
0.127009 2.66809 5.31574 
5.52954 0.00467328 0.128793 
0.00467328 10.0498 3.56682 
0.128793 3.56682 0.900169 
5.62939 0.0151522 0.160209 
0.0151522 10.1273 3.57486 
0.160209 3.57486 0.722798 
5.57792 -0.0110284 0.161201 
-0.0110284 2.76517 2.85894 
0.161201 2.85894 8.13638 
5.40391 -0.0146411 0.136651 
-0.0146411 2.74857 2.86608 
0.136651 2.86608 8.327 
5.40935 -0.00356012 0.13764 
-0.00356012 8.56199 3.7648 
0.13764 3.7648 2.50814 
5.54407 5.25964e-05 0.169056 
5.25964e-05 8.61227 3.77205 
0.169056 3.77205 2.32314 
-5.93472 0.12321 0.174189 
0.12321 -2.81458 2.74723 
0.174189 2.74723 -8.19461 
-5.6616 0.0961985 0.161201 
0.0961985 -2.79626 2.75235 
0.161201 2.75235 -8.48606 
-5.55697 0.0320683 0.169056 
0.0320683 -8.6343 3.70666 
0.169056 3.70666 -2.75266 
-5.46661 0.0590794 0.21907 
0.0590794 -9.01423 3.67101 
0.21907 3.67101 -2.46309 
-5.96052 0.0834574 0.132833 
0.0834574 -5.85807 2.53473 
0.132833 2.53473 -5.12533 
-5.58976 0.0934721 0.119845 
0.0934721 -5.83974 2.54353 
0.119845 2.54353 -5.51442 
-5.48957 0.0598678 0.12403 
0.0598678 -10.3945 3.49784 
0.12403 3.49784 -1.05987 
-5.65354 0.0498531 0.174043 
0.0498531 -10.6379 3.45851 
0.174043 3.45851 -0.65249 
-6.09501 0.235071 -0.0362061 
0.235071 -5.77617 0.0057258 
-0.0362061 0.0057258 -5.19509 
-5.85419 0.206455 -0.0151904 
0.206455 -5.70045 0.00543213 
-0.0151904 0.00543213 -5.51162 
-5.75171 0.0908153 -0.0203933 
0.0908153 -10.9335 -1.22023 
-0.0203933 -1.22023 -0.381011 
-5.33787 0.119432 -0.0180671 
0.119432 -11.6488 -1.25064 
-0.0180671 -1.25064 -0.0795475 
-5.8505 0.209299 -0.0761665 
0.209299 -5.87824 0.472981 
-0.0761665 0.472981 -5.33753 
-5.65362 0.204024 -0.0551508 
0.204024 -5.83679 0.465369 
-0.0551508 0.465369 -5.57585 
-5.57023 0.119094 -0.0530361 
0.119094 -4.42759 -0.76029 
-0.0530361 -0.76029 -7.06844 
-5.17866 0.124369 -0.0507099 
0.124369 -5.03984 -0.783388 
-0.0507099 -0.783388 -6.84777 
-3.99074 0.251571 -0.0994762 
0.251571 -4.51269 -0.653414 
-0.0994762 -0.653414 -3.23502 
-4.15079 0.249098 -0.132261 
0.249098 -4.35433 -0.668178 
-0.132261 -0.668178 -3.23332 
-3.98574 0.125192 -0.131459 
0.125192 -1.17819 -1.00143 
-0.131459 -1.00143 -6.57451 
-3.3807 0.127666 -0.0767113 
0.127666 -1.799 -1.03871 
-0.0767113 -1.03871 -6.55875 
-4.06394 0.221339 -0.123784 
0.221339 -4.71265 0.244964 
-0.123784 0.244964 -2.96186 
-3.89652 0.240829 -0.156569 
0.240829 -4.6284 0.232518 
-0.156569 0.232518 -3.21353 
-3.75059 0.168969 -0.158084 
0.168969 -3.09012 -0.100736 
-0.158084 -0.100736 -4.89773 
-3.533 0.14948 -0.103336 
0.14948 -3.55229 -0.140336 
-0.103336 -0.140336 -4.65316 
-2.20984 0.189585 -0.149998 
0.189585 -1.5729 0.128004 
-0.149998 0.128004 -2.7289 
-2.36111 0.183691 -0.190933 
0.183691 -1.41924 0.117469 
-0.190933 0.117469 -2.7313 
-2.2392 0.083804 -0.191911 
0.083804 1.40693 0.2371 
-0.191911 0.2371 -5.67938 
-1.82821 0.0896977 -0.118431 
0.0896977 0.982785 0.194331 
-0.118431 0.194331 -5.66622 
-2.2199 0.150146 -0.176504 
0.150146 -3.19805 0.653755 
-0.176504 0.653755 -1.09369 
-2.11035 0.176796 -0.21744 
0.176796 -3.11302 0.646862 
-0.21744 0.646862 -1.28827 
-2.01328 0.130212 -0.22206 
0.130212 -2.44354 0.766493 
-0.22206 0.766493 -2.05482 
-1.95897 0.103562 -0.14858 
0.103562 -2.69796 0.720082 
-0.14858 0.720082 -1.85471 
-0.729525 0.0818301 -0.189598 
0.0818301 0.4499 0.71831 
-0.189598 0.71831 -1.79798 
-0.838025 0.0669794 -0.231641 
0.0669794 0.527509 0.713494 
-0.231641 0.713494 -1.76709 
-0.790915 0.0143746 -0.234798 
0.0143746 1.8163 0.959383 
-0.234798 0.959383 -3.10298 
-0.558062 0.0292253 -0.156526 
0.0292253 1.61718 0.912537 
-0.156526 0.912537 -3.13672 
-0.678815 0.0393197 -0.201263 
0.0393197 -1.85117 0.872771 
-0.201263 0.872771 0.452386 
-0.58534 0.0606974 -0.243307 
0.0606974 -1.83457 0.868361 
-0.243307 0.868361 0.342304 
-0.560965 0.0597559 -0.24687 
0.0597559 -2.06137 1.11425 
-0.24687 1.11425 0.544738 
-0.646629 0.0383783 -0.168598 
0.0383783 -2.09046 1.067 
-0.168598 1.067 0.659484 
0.678815 -0.0393197 -0.201263 
-0.0393197 1.85117 0.872771 
-0.201263 0.872771 -0.452386 
0.58534 -0.0606974 -0.243307 
-0.0606974 1.83457 0.868361 
-0.243307 0.868361 -0.342304 
0.560965 -0.0597559 -0.24687 
-0.0597559 2.06137 1.11425 
-0.24687 1.11425 -0.544738 
0.646629 -0.0383783 -0.168598 
-0.0383783 2.09046 1.067 
-0.168598 1.067 -0.659484 
0.729525 -0.0818301 -0.189598 
-0.0818301 -0.4499 0.71831 
-0.189598 0.71831 1.79798 
0.838025 -0.0669794 -0.231641 
-0.0669794 -0.527509 0.713494 
-0.231641 0.713494 1.76709 
0.790915 -0.0143746 -0.234798 
-0.0143746 -1.8163 0.959383 
-0.234798 0.959383 3.10298 
0.558062 -0.0292253 -0.156526 
-0.0292253 -1.61718 0.912537 
-0.156526 0.912537 3.13672 
2.2199 -0.150146 -0.176504 
-0.150146 3.19805 0.653755 
-0.176504 0.653755 1.09369 
2.11035 -0.176796 -0.21744 
-0.176796 3.11302 0.646862 
-0.21744 0.646862 1.28827 
2.01328 -0.130212 -0.22206 
-0.130212 2.44354 0.766493 
-0.22206 0.766493 2.05482 
1.95897 -0.103562 -0.14858 
-0.103562 2.69796 0.720082 
-0.14858 0.720082 1.85471 
2.20984 -0.189585 -0.149998 
-0.189585 1.5729 0.128004 
-0.149998 0.128004 2.7289 
2.36111 -0.183691 -0.190933 
-0.183691 1.41924 0.117469 
-0.190933 0.117469 2.7313 
2.2392 -0.083804 -0.191911 
-0.083804 -1.40693 0.2371 
-0.191911 0.2371 5.67938 
1.82821 -0.0896977 -0.118431 
-0.0896977 -0.982785 0.194331 
-0.118431 0.194331 5.66622 
4.06394 -0.221339 -0.123784 
-0.221339 4.71265 0.244964 
-0.123784 0.244964 2.96186 
3.89652 -0.240829 -0.156569 
-0.240829 4.6284 0.232518 
-0.156569 0.232518 3.21353 
3.75059 -0.168969 -0.158084 
-0.168969 3.09012 -0.100736 
-0.158084 -0.100736 4.89773 
3.533 -0.14948 -0.103336 
-0.14948 3.55229 -0.140336 
-0.103336 -0.140336 4.65316 
3.99074 -0.251571 -0.0994762 
-0.251571 4.51269 -0.653414 
-0.0994762 -0.653414 3.23502 
4.15079 -0.249098 -0.132261 
-0.249098 4.35434 -0.668178 
-0.132261 -0.668178 3.23332 
3.98574 -0.125192 -0.131459 
-0.125192 1.17819 -1.00143 
-0.131459 -1.00143 6.57451 
3.3807 -0.127666 -0.0767113 
-0.127666 1.799 -1.03871 
-0.0767113 -1.03871 6.55875 
5.8505 -0.209299 -0.0761665 
-0.209299 5.87824 0.472981 
-0.0761665 0.472981 5.33753 
5.65362 -0.204024 -0.0551508 
-0.204024 5.83679 0.465369 
-0.0551508 0.465369 5.57585 
5.57023 -0.119094 -0.0530361 
-0.119094 4.4276 -0.76029 
-0.0530361 -0.76029 7.06844 
5.17866 -0.124369 -0.0507099 
-0.124369 5.03984 -0.783388 
-0.0507099 -0.783388 6.84777 
6.09501 -0.235071 -0.0362061 
-0.235071 5.77617 0.0057258 
-0.0362061 0.0057258 5.19509 
5.85419 -0.206455 -0.0151904 
-0.206455 5.70045 0.00543213 
-0.0151904 0.00543213 5.51163 
5.75171 -0.0908153 -0.0203933 
-0.0908153 10.9335 -1.22023 
-0.0203933 -1.22023 0.381011 
5.33787 -0.119432 -0.0180671 
-0.119432 11.6488 -1.25064 
-0.0180671 -1.25064 0.0795476 
5.96052 -0.0834574 0.132833 
-0.0834574 5.85807 2.53473 
0.132833 2.53473 5.12533 
5.58976 -0.0934721 0.119845 
-0.0934721 5.83974 2.54353 
0.119845 2.54353 5.51442 
5.48958 -0.0598678 0.12403 
-0.0598678 10.3945 3.49784 
0.12403 3.49784 1.05987 
5.65354 -0.0498531 0.174043 
-0.0498531 10.6379 3.45851 
0.174043 3.45851 0.65249 
5.93472 -0.12321 0.174189 
-0.12321 2.81458 2.74723 
0.174189 2.74723 8.19462 
5.6616 -0.0961985 0.161201 
-0.0961985 2.79626 2.75235 
0.161201 2.75235 8.48606 
5.55697 -0.0320683 0.169056 
-0.0320683 8.6343 3.70666 
0.169056 3.70666 2.75266 
5.46661 -0.0590794 0.21907 
-0.0590794 9.01423 3.67101 
0.21907 3.67101 2.46309 
-6.49624 0.170652 0.120867 
0.170652 -3.13303 2.3595 
0.120867 2.3595 -8.25088 
-5.54968 0.271234 0.174189 
0.271234 -3.3577 2.37277 
0.174189 2.37277 -8.97276 
-5.72047 0.266501 0.21907 
0.266501 -8.93414 3.43484 
0.21907 3.43484 -3.22553 
-6.28444 0.165918 0.00273397 
0.165918 -9.12482 3.41893 
0.00273397 3.41893 -2.47089 
-6.10906 0.302052 0.227217 
0.302052 -5.59526 1.98828 
0.227217 1.98828 -6.17582 
-5.99865 0.239622 0.280539 
0.239622 -5.8245 1.98412 
0.280539 1.98412 -6.057 
-5.87536 0.237523 0.342854 
0.237523 -11.3115 3.04619 
0.342854 3.04619 -0.693307 
-5.46235 0.299953 0.126519 
0.299953 -11.4949 3.04772 
0.126519 3.04772 -0.922856 
-5.66002 0.682741 0.116289 
0.682741 -5.63829 -0.370959 
0.116289 -0.370959 -6.17987 
-5.87054 0.723545 0.111501 
0.723545 -6.16339 -0.378958 
0.111501 -0.378958 -5.44425 
-5.20909 0.772839 0.150744 
0.772839 -11.9348 -1.48744 
0.150744 -1.48744 -0.334328 
-4.30727 0.732035 -0.0202459 
0.732035 -12.1502 -1.40875 
-0.0202459 -1.40875 -1.02073 
-7.06021 0.846146 0.203855 
0.846146 -5.02141 -0.119676 
0.203855 -0.119676 -5.39657 
-6.38515 0.711173 0.199067 
0.711173 -5.48062 -0.152192 
0.199067 -0.152192 -5.61241 
-5.52691 0.68977 0.262827 
0.68977 -5.2057 -1.26068 
0.262827 -1.26068 -6.74559 
-5.11819 0.824743 0.0918378 
0.824743 -5.67139 -1.15747 
0.0918378 -1.15747 -6.68861 
-3.72348 0.670003 0.240085 
0.670003 -4.68079 -0.958128 
0.240085 -0.958128 -3.47653 
-3.74013 0.722335 0.175757 
0.722335 -4.75156 -1.01557 
0.175757 -1.01557 -3.38912 
-3.26864 0.627606 0.236826 
0.627606 -1.9446 -1.21212 
0.236826 -1.21212 -6.66756 
-2.51655 0.575274 0.123577 
0.575274 -2.77563 -1.13634 
0.123577 -1.13634 -6.58862 
-5.13857 0.812972 0.189952 
0.812972 -3.89023 -0.237135 
0.189952 -0.237135 -2.852 
-4.54582 0.687727 0.125624 
0.687727 -4.01439 -0.268018 
0.125624 -0.268018 -3.3206 
-3.87865 0.574655 0.160132 
0.574655 -3.43771 -0.46457 
0.160132 -0.46457 -4.56444 
-3.33321 0.6999 0.0468834 
0.6999 -4.40417 -0.415344 
0.0468834 -0.415344 -4.14343 
-1.96043 0.429202 0.150629 
0.429202 -2.08305 -0.24037 
0.150629 -0.24037 -2.55702 
-1.8462 0.468175 0.0994094 
0.468175 -1.92778 -0.275289 
0.0994094 -0.275289 -2.82653 
-1.67098 0.340967 0.145037 
0.340967 0.789628 -0.0647444 
0.145037 -0.0647444 -5.71915 
-1.32797 0.301995 0.0631247 
0.301995 0.107967 -0.0504659 
0.0631247 -0.0504659 -5.3805 
-2.93642 0.512572 0.0552901 
0.512572 -2.53871 0.201006 
0.0552901 0.201006 -1.12537 
-2.6664 0.418413 0.00407007 
0.418413 -2.4745 0.173333 
0.00407007 0.173333 -1.4596 
-2.29136 0.311845 0.0424523 
0.311845 -2.50744 0.383877 
0.0424523 0.383877 -1.80171 
-1.90841 0.406005 -0.0394596 
0.406005 -3.18786 0.390911 
-0.0394596 0.390911 -1.50423 
-0.365486 0.118817 0.0428314 
0.118817 -0.179763 0.28368 
0.0428314 0.28368 -1.56579 
-0.329983 0.17395 -0.00902337 
0.17395 -0.0717594 0.25866 
-0.00902337 0.25866 -1.7093 
-0.35119 0.115166 0.0345064 
0.115166 1.44425 0.573552 
0.0345064 0.573552 -3.20409 
-0.293974 0.0600325 -0.0416494 
0.0600325 1.20011 0.571906 
-0.0416494 0.571906 -3.01718 
-1.18072 0.194571 0.00343733 
0.194571 -1.22641 0.414417 
0.00343733 0.414417 0.2961 
-1.10462 0.121694 -0.0484175 
0.121694 -1.20691 0.389538 
-0.0484175 0.389538 0.200491 
-0.911564 0.0895767 -0.00502877 
0.0895767 -1.91974 0.704431 
-0.00502877 0.704431 0.720267 
-0.751015 0.162454 -0.0811846 
0.162454 -2.13312 0.702643 
-0.0811846 0.702643 0.773096 
1.18072 -0.194571 0.00343733 
-0.194571 1.22642 0.414417 
0.00343733 0.414417 -0.2961 
1.10462 -0.121694 -0.0484175 
-0.121694 1.20691 0.389538 
-0.0484175 0.389538 -0.200491 
0.911564 -0.0895767 -0.00502877 
-0.0895767 1.91974 0.704431 
-0.00502877 0.704431 -0.720267 
0.751015 -0.162454 -0.0811846 
-0.162454 2.13312 0.702643 
-0.0811846 0.702643 -0.773096 
0.365486 -0.118817 0.0428314 
-0.118817 0.179763 0.28368 
0.0428314 0.28368 1.56579 
0.329983 -0.17395 -0.00902337 
-0.17395 0.0717595 0.25866 
-0.00902337 0.25866 1.7093 
0.351191 -0.115166 0.0345064 
-0.115166 -1.44425 0.573552 
0.0345064 0.573552 3.20409 
0.293975 -0.0600325 -0.0416494 
-0.0600325 -1.20011 0.571906 
-0.0416494 0.571906 3.01718 
2.93642 -0.512572 0.0552901 
-0.512572 2.53871 0.201006 
0.0552901 0.201006 1.12537 
2.6664 -0.418413 0.00407007 
-0.418413 2.4745 0.173333 
0.00407007 0.173333 1.4596 
2.29136 -0.311845 0.0424523 
-0.311845 2.50744 0.383877 
0.0424523 0.383877 1.80171 
1.90841 -0.406005 -0.0394596 
-0.406005 3.18786 0.390911 
-0.0394596 0.390911 1.50423 
1.96043 -0.429202 0.150629 
-0.429202 2.08305 -0.24037 
0.150629 -0.24037 2.55702 
1.8462 -0.468175 0.0994094 
-0.468175 1.92778 -0.275289 
0.0994094 -0.275289 2.82653 
1.67098 -0.340967 0.145037 
-0.340967 -0.789628 -0.0647444 
0.145037 -0.0647444 5.71915 
1.32797 -0.301995 0.0631247 
-0.301995 -0.107966 -0.0504659 
0.0631247 -0.0504659 5.3805 
5.13857 -0.812972 0.189952 
-0.812972 3.89023 -0.237135 
0.189952 -0.237135 2.852 
4.54582 -0.687727 0.125624 
-0.687727 4.01439 -0.268018 
0.125624 -0.268018 3.3206 
3.87865 -0.574655 0.160132 
-0.574655 3.43772 -0.46457 
0.160132 -0.46457 4.56444 
3.33321 -0.6999 0.0468834 
-0.6999 4.40417 -0.415344 
0.0468834 -0.415344 4.14343 
3.72348 -0.670003 0.240085 
-0.670003 4.68079 -0.958128 
0.240085 -0.958128 3.47653 
3.74013 -0.722335 0.175757 
-0.722335 4.75156 -1.01557 
0.175757 -1.01557 3.38912 
3.26864 -0.627606 0.236826 
-0.627606 1.9446 -1.21212 
0.236826 -1.21212 6.66756 
2.51655 -0.575274 0.123577 
-0.575274 2.77563 -1.13634 
0.123577 -1.13634 6.58862 
7.06021 -0.846146 0.203855 
-0.846146 5.02141 -0.119676 
0.203855 -0.119676 5.39657 
6.38515 -0.711173 0.199067 
-0.711173 5.48062 -0.152192 
0.199067 -0.152192 5.61241 
5.52691 -0.68977 0.262827 
-0.68977 5.2057 -1.26068 
0.262827 -1.26068 6.74559 
5.11819 -0.824743 0.0918378 
-0.824743 5.67139 -1.15747 
0.0918378 -1.15747 6.68861 
5.66002 -0.682741 0.116289 
-0.682741 5.63829 -0.370959 
0.116289 -0.370959 6.17987 
5.87054 -0.723545 0.111501 
-0.723545 6.16339 -0.378958 
0.111501 -0.378958 5.44425 
5.20909 -0.772839 0.150744 
-0.772839 11.9348 -1.48744 
0.150744 -1.48744 0.334328 
4.30727 -0.732035 -0.0202459 
-0.732035 12.1502 -1.40875 
-0.0202459 -1.40875 1.02073 
6.10906 -0.302052 0.227217 
-0.302052 5.59526 1.98828 
0.227217 1.98828 6.17582 
5.99865 -0.239622 0.280539 
-0.239622 5.8245 1.98412 
0.280539 1.98412 6.057 
5.87536 -0.237523 0.342854 
-0.237523 11.3115 3.04619 
0.342854 3.04619 0.693307 
5.46235 -0.299953 0.126519 
-0.299953 11.4949 3.04772 
0.126519 3.04772 0.922857 
6.49624 -0.170652 0.120867 
-0.170652 3.13303 2.3595 
0.120867 2.3595 8.25088 
5.54968 -0.271234 0.174189 
-0.271234 3.3577 2.37277 
0.174189 2.37277 8.97276 
5.72047 -0.266501 0.21907 
-0.266501 8.93414 3.43484 
0.21907 3.43484 3.22553 
6.28444 -0.165918 0.00273397 
-0.165918 9.12482 3.41893 
0.00273397 3.41893 2.47089 
-8.07055 1.1242 7.01333e-11 
1.1242 -2.64839 1.15914 
7.01333e-11 1.15914 -8.3294 
-7.10036 1.03745 0.120867 
1.03745 -4.21987 1.19522 
0.120867 1.19522 -7.72812 
-4.33885 1.68841 0.00273397 
1.68841 -10.327 1.72697 
0.00273397 1.72697 -4.38252 
-5.75187 1.77516 1.15917e-10 
1.77516 -8.25827 1.51357 
1.15917e-10 1.51357 -5.0382 
-6.79708 1.16028 0.524047 
1.16028 -4.75808 1.1979 
0.524047 1.1979 -7.49319 
-7.53888 1.19166 0.644913 
1.19166 -6.41889 1.02699 
0.644913 1.02699 -5.09058 
-5.14277 2.01995 0.733764 
2.01995 -11.5085 1.55874 
0.733764 1.55874 -2.39706 
-4.64128 1.98856 0.73103 
1.98856 -8.73616 1.55232 
0.73103 1.55232 -5.6709 
-6.49282 1.99986 0.524047 
1.99986 -3.08833 -0.113358 
0.524047 -0.113358 -7.99284 
-6.66779 1.94296 0.533985 
1.94296 -5.62012 -0.197828 
0.533985 -0.197828 -5.28608 
-3.70468 2.53565 0.586999 
2.53565 -11.6918 -1.15046 
0.586999 -1.15046 -2.17755 
-3.00945 2.59255 0.73103 
2.59255 -10.4396 -1.01069 
0.73103 -1.01069 -4.12494 
-8.64832 2.12237 1.04191 
2.12237 -3.87116 -0.14614 
1.04191 -0.14614 -5.05451 
-7.02785 2.21944 1.05185 
2.21944 -6.00971 -0.107066 
1.05185 -0.107066 -4.53643 
-4.62254 2.75682 0.98132 
2.75682 -6.87883 -1.0597 
0.98132 -1.0597 -6.07261 
-5.29568 2.65975 1.12535 
2.65975 -5.48075 -1.04347 
1.12535 -1.04347 -6.79756 
-4.33005 1.59053 1.04191 
1.59053 -3.07646 -0.360923 
1.04191 -0.360923 -4.43097 
-3.62893 1.49438 1.08808 
1.49438 -3.61 -0.437148 
1.08808 -0.437148 -4.59854 
-2.17131 1.55609 1.01306 
1.55609 -3.98183 -0.825467 
1.01306 -0.825467 -5.68433 
-2.40879 1.65224 1.12535 
1.65224 -4.20892 -0.525533 
1.12535 -0.525533 -5.21976 
-5.6888 1.59775 0.950249 
1.59775 -3.72913 -0.0823959 
0.950249 -0.0823959 -2.41954 
-4.71531 1.66006 0.996418 
1.66006 -4.04224 -0.0333777 
0.996418 -0.0333777 -3.07992 
-3.90873 1.49805 0.796153 
1.49805 -3.68146 -0.421697 
0.796153 -0.421697 -4.24728 
-3.82514 1.43574 0.908444 
1.43574 -4.68852 -0.247007 
0.908444 -0.247007 -3.32381 
-2.2658 0.931583 0.950249 
0.931583 -1.63992 -0.026429 
0.950249 -0.026429 -2.62415 
-1.59166 0.86556 0.957095 
0.86556 -1.34664 -0.0235618 
0.957095 -0.0235618 -3.59157 
-0.96392 0.740945 0.812394 
0.740945 -1.32212 -0.170242 
0.812394 -0.170242 -4.24382 
-1.29714 0.806969 0.908444 
0.806969 -1.83399 -0.0834834 
0.908444 -0.0834834 -3.39874 
-3.09885 0.892646 0.713573 
0.892646 -2.63983 0.173975 
0.713573 0.173975 -0.791181 
-2.81524 0.929518 0.720419 
0.929518 -2.41814 0.175837 
0.720419 0.175837 -1.29648 
-2.56948 0.715278 0.576723 
0.715278 -1.86065 0.0291566 
0.576723 0.0291566 -2.09973 
-2.20837 0.678406 0.672773 
0.678406 -2.84491 0.116921 
0.672773 0.116921 -1.47659 
-0.550083 0.310119 0.713573 
0.310119 -0.0921535 0.226947 
0.713573 0.226947 -1.43853 
-0.118131 0.258293 0.707961 
0.258293 0.117214 0.228257 
0.707961 0.228257 -2.07985 
0.165995 0.209778 0.574534 
0.209778 -0.136821 0.147067 
0.574534 0.147067 -2.10994 
-0.244011 0.261604 0.672773 
0.261604 -0.256043 0.190093 
0.672773 0.190093 -1.58071 
-1.11946 0.27063 0.614598 
0.27063 -1.31868 0.29193 
0.614598 0.29193 0.357378 
-1.26304 0.311432 0.608985 
0.311432 -1.22537 0.284191 
0.608985 0.284191 0.407645 
-1.30936 0.21858 0.484608 
0.21858 -0.793985 0.203 
0.484608 0.203 0.0225849 
-0.897173 0.177778 0.582847 
0.177778 -1.22753 0.255076 
0.582847 0.255076 0.0439414 
1.11946 -0.27063 0.614598 
-0.27063 1.31868 0.29193 
0.614598 0.29193 -0.357378 
1.26304 -0.311432 0.608985 
-0.311432 1.22537 0.284191 
0.608985 0.284191 -0.407645 
1.30936 -0.21858 0.484608 
-0.21858 0.793985 0.203 
0.484608 0.203 -0.0225848 
0.897173 -0.177778 0.582847 
-0.177778 1.22753 0.255076 
0.582847 0.255076 -0.0439412 
0.550083 -0.310119 0.713573 
-0.310119 0.0921536 0.226947 
0.713573 0.226947 1.43853 
0.118131 -0.258293 0.707961 
-0.258293 -0.117214 0.228257 
0.707961 0.228257 2.07985 
-0.165995 -0.209778 0.574534 
-0.209778 0.136822 0.147067 
0.574534 0.147067 2.10994 
0.244012 -0.261604 0.672773 
-0.261604 0.256043 0.190093 
0.672773 0.190093 1.58071 
3.09885 -0.892646 0.713573 
-0.892646 2.63983 0.173975 
0.713573 0.173975 0.791181 
2.81524 -0.929518 0.720419 
-0.929518 2.41814 0.175837 
0.720419 0.175837 1.29648 
2.56948 -0.715278 0.576723 
-0.715278 1.86065 0.0291566 
0.576723 0.0291566 2.09973 
2.20837 -0.678406 0.672773 
-0.678406 2.84491 0.116921 
0.672773 0.116921 1.47659 
2.2658 -0.931583 0.950249 
-0.931583 1.63992 -0.026429 
0.950249 -0.026429 2.62415 
1.59166 -0.86556 0.957095 
-0.86556 1.34664 -0.0235618 
0.957095 -0.0235618 3.59157 
0.96392 -0.740945 0.812394 
-0.740945 1.32212 -0.170242 
0.812394 -0.170242 4.24382 
1.29714 -0.806969 0.908444 
-0.806969 1.83399 -0.0834834 
0.908444 -0.0834834 3.39874 
5.6888 -1.59775 0.950249 
-1.59775 3.72913 -0.0823959 
0.950249 -0.0823959 2.41954 
4.71532 -1.66006 0.996418 
-1.66006 4.04224 -0.0333777 
0.996418 -0.0333777 3.07992 
3.90873 -1.49805 0.796153 
-1.49805 3.68146 -0.421697 
0.796153 -0.421697 4.24728 
3.82514 -1.43574 0.908444 
-1.43574 4.68852 -0.247007 
0.908444 -0.247007 3.32381 
4.33005 -1.59053 1.04191 
-1.59053 3.07646 -0.360923 
1.04191 -0.360923 4.43097 
3.62893 -1.49438 1.08808 
-1.49438 3.61 -0.437148 
1.08808 -0.437148 4.59854 
2.17131 -1.55609 1.01306 
-1.55609 3.98183 -0.825467 
1.01306 -0.825467 5.68433 
2.40879 -1.65224 1.12535 
-1.65224 4.20892 -0.525533 
1.12535 -0.525533 5.21976 
8.64832 -2.12237 1.04191 
-2.12237 3.87116 -0.14614 
1.04191 -0.14614 5.05451 
7.02785 -2.21944 1.05185 
-2.21944 6.00971 -0.107066 
1.05185 -0.107066 4.53643 
4.62255 -2.75682 0.98132 
-2.75682 6.87884 -1.0597 
0.98132 -1.0597 6.07261 
5.29568 -2.65975 1.12535 
-2.65975 5.48075 -1.04347 
1.12535 -1.04347 6.79756 
6.49282 -1.99986 0.524047 
-1.99986 3.08833 -0.113358 
0.524047 -0.113358 7.99284 
6.66779 -1.94296 0.533985 
-1.94296 5.62012 -0.197828 
0.533985 -0.197828 5.28608 
3.70468 -2.53565 0.586999 
-2.53565 11.6918 -1.15046 
0.586999 -1.15046 2.17755 
3.00945 -2.59255 0.73103 
-2.59255 10.4396 -1.01069 
0.73103 -1.01069 4.12494 
6.79708 -1.16028 0.524047 
-1.16028 4.75808 1.1979 
0.524047 1.1979 7.49319 
7.53888 -1.19166 0.644913 
-1.19166 6.41889 1.02699 
0.644913 1.02699 5.09058 
5.14277 -2.01995 0.733764 
-2.01995 11.5085 1.55874 
0.733764 1.55874 2.39706 
4.64128 -1.98856 0.73103 
-1.98856 8.73616 1.55232 
0.73103 1.55232 5.6709 
8.07055 -1.1242 7.01333e-11 
-1.1242 2.64839 1.15914 
7.01333e-11 1.15914 8.3294 
7.10036 -1.03745 0.120867 
-1.03745 4.21987 1.19522 
0.120867 1.19522 7.72812 
4.33885 -1.68841 0.00273397 
-1.68841 10.327 1.72697 
0.00273397 1.72697 4.38253 
5.75187 -1.77516 1.15917e-10 
-1.77516 8.25827 1.51357 
1.15917e-10 1.51357 5.0382 
-2.66905 -0.000291384 0.0115252 
-0.000291384 -1.18553 2.08259 
0.0115252 2.08259 -4.16533 
-2.6667 -7.09205e-05 6.79586e-11 
-7.09205e-05 -1.18532 2.08257 
6.79586e-11 2.08257 -4.1679 
-2.66741 -0.00013838 1.12306e-10 
-0.00013838 -3.59945 2.9044 
1.12306e-10 2.9044 -1.75306 
-2.67015 -0.000358843 0.0114582 
-0.000358843 -3.59928 2.90444 
0.0114582 2.90444 -1.75049 
-2.705 -0.00024718 0.010921 
-0.00024718 -3.16555 1.95812 
0.010921 1.95812 -2.14937 
-2.69836 -9.37114e-05 -0.0006042 
-9.37114e-05 -3.16539 1.95809 
-0.0006042 1.95809 -2.15617 
-2.69902 -0.000177371 -0.000597548 
-0.000177371 -6.40661 2.77992 
-0.000597548 2.77992 1.08571 
-2.70584 -0.00033084 0.0108607 
-0.00033084 -6.40656 2.77997 
0.0108607 2.77997 1.09248 
-2.98612 -0.000546893 0.00481685 
-0.000546893 -3.26614 0.437168 
0.00481685 0.437168 -2.63184 
-2.97936 -0.000179295 -0.0006042 
-0.000179295 -3.26589 0.437154 
-0.0006042 0.437154 -2.63884 
-2.98071 -0.000314381 -0.000597548 
-0.000314381 -6.34627 0.18078 
-0.000597548 0.18078 0.442883 
-2.98821 -0.000681979 0.00480023 
-0.000681979 -6.3458 0.180798 
0.00480023 0.180798 0.449917 
-3.00004 -0.000530442 0.00363171 
-0.000530442 -3.48744 0.471445 
0.00363171 0.471445 -2.39662 
-2.99191 -0.000186122 -0.00178934 
-0.000186122 -3.4872 0.47144 
-0.00178934 0.47144 -2.40498 
-2.99324 -0.000325585 -0.00179081 
-0.000325585 -4.5109 0.215066 
-0.00179081 0.215066 -1.37996 
-3.00205 -0.000669905 0.00360696 
-0.000669905 -4.51047 0.215075 
0.00360696 0.215075 -1.37158 
-2.4253 -0.000484195 -0.00304153 
-0.000484195 -3.27737 -0.607287 
-0.00304153 -0.607287 -1.44993 
-2.41736 -0.000189717 -0.00178934 
-0.000189717 -3.27728 -0.607276 
-0.00178934 -0.607276 -1.45796 
-2.41851 -0.000317107 -0.00179081 
-0.000317107 -3.62663 -1.02403 
-0.00179081 -1.02403 -1.10745 
-2.42723 -0.000611585 -0.00301356 
-0.000611585 -3.62594 -1.02404 
-0.00301356 -1.02404 -1.09942 
-2.41479 -0.000504553 -0.00426359 
-0.000504553 -3.01151 -0.254964 
-0.00426359 -0.254964 -1.7263 
-2.40807 -0.000180637 -0.0030114 
-0.000180637 -3.0114 -0.254946 
-0.0030114 -0.254946 -1.73313 
-2.40923 -0.000300923 -0.00302055 
-0.000300923 -2.44067 -0.671695 
-0.00302055 -0.671695 -2.30269 
-2.41684 -0.000624838 -0.0042433 
-0.000624838 -2.43992 -0.671721 
-0.0042433 -0.671721 -2.29583 
-1.50673 -0.000286943 -0.00951199 
-0.000286943 -1.91017 -0.736042 
-0.00951199 -0.736042 -0.977435 
-1.50037 -0.000138542 -0.0030114 
-0.000138542 -1.9102 -0.73601 
-0.0030114 -0.73601 -0.983759 
-1.50103 -0.000228056 -0.00302055 
-0.000228056 -0.641482 -0.884631 
-0.00302055 -0.884631 -2.25182 
-1.50791 -0.000376456 -0.00944995 
-0.000376456 -0.640905 -0.884676 
-0.00944995 -0.884676 -2.24552 
-1.47728 -0.000335505 -0.0103667 
-0.000335505 -2.09226 -0.3759 
-0.0103667 -0.3759 -0.824799 
-1.47344 -0.00011592 -0.00386615 
-0.00011592 -2.09224 -0.375863 
-0.00386615 -0.375863 -0.82866 
-1.47414 -0.000192791 -0.00388113 
-0.000192791 -1.68025 -0.524484 
-0.00388113 -0.524484 -1.23995 
-1.47873 -0.000412377 -0.0103105 
-0.000412377 -1.67956 -0.524534 
-0.0103105 -0.524534 -1.23604 
-0.516059 -7.14348e-05 -0.0131851 
-7.14348e-05 -0.336446 -0.521761 
-0.0131851 -0.521761 -0.606124 
-0.512736 -5.90493e-05 -0.00386615 
-5.90493e-05 -0.3365 -0.521716 
-0.00386615 -0.521716 -0.609393 
-0.512924 -9.56896e-05 -0.00388113 
-9.56896e-05 0.707169 -0.504752 
-0.00388113 -0.504752 -1.65287 
-0.51633 -0.000108075 -0.0131072 
-0.000108075 0.707345 -0.504811 
-0.0131072 -0.504811 -1.64964 
-0.47649 -0.000134698 -0.0134876 
-0.000134698 -0.977405 -0.385936 
-0.0134876 -0.385936 -0.00473389 
-0.476203 -2.94835e-05 -0.00416869 
-2.94835e-05 -0.977384 -0.385889 
-0.00416869 -0.385889 -0.00504198 
-0.476447 -5.14723e-05 -0.00418601 
-5.14723e-05 -1.26563 -0.368925 
-0.00418601 -0.368925 0.283447 
-0.477121 -0.000156686 -0.0134121 
-0.000156686 -1.26531 -0.368987 
-0.0134121 -0.368987 0.283804 
0.47649 0.000134698 -0.0134876 
0.000134698 0.977405 -0.385936 
-0.0134876 -0.385936 0.00473403 
0.476203 2.94835e-05 -0.00416869 
2.94835e-05 0.977384 -0.385889 
-0.00416869 -0.385889 0.00504212 
0.476447 5.14723e-05 -0.00418601 
5.14723e-05 1.26563 -0.368925 
-0.00418601 -0.368925 -0.283446 
0.477121 0.000156686 -0.0134121 
0.000156686 1.26531 -0.368987 
-0.0134121 -0.368987 -0.283803 
0.516059 7.14348e-05 -0.0131851 
7.14348e-05 0.336446 -0.521761 
-0.0131851 -0.521761 0.606124 
0.512736 5.90493e-05 -0.00386615 
5.90493e-05 0.336501 -0.521716 
-0.00386615 -0.521716 0.609393 
0.512924 9.56896e-05 -0.00388113 
9.56896e-05 -0.707169 -0.504752 
-0.00388113 -0.504752 1.65287 
0.516331 0.000108075 -0.0131072 
0.000108075 -0.707345 -0.504811 
-0.0131072 -0.504811 1.64964 
1.47728 0.000335505 -0.0103667 
0.000335505 2.09226 -0.3759 
-0.0103667 -0.3759 0.824799 
1.47344 0.00011592 -0.00386615 
0.00011592 2.09224 -0.375863 
-0.00386615 -0.375863 0.82866 
1.47414 0.000192791 -0.00388113 
0.000192791 1.68025 -0.524484 
-0.00388113 -0.524484 1.23995 
1.47873 0.000412377 -0.0103105 
0.000412377 1.67956 -0.524534 
-0.0103105 -0.524534 1.23604 
1.50673 0.000286943 -0.00951199 
0.000286943 1.91017 -0.736042 
-0.00951199 -0.736042 0.977435 
1.50037 0.000138542 -0.0030114 
0.000138542 1.9102 -0.73601 
-0.0030114 -0.73601 0.983759 
1.50103 0.000228056 -0.00302055 
0.000228056 0.641482 -0.884631 
-0.00302055 -0.884631 2.25182 
1.50791 0.000376456 -0.00944995 
0.000376456 0.640905 -0.884676 
-0.00944995 -0.884676 2.24552 
2.41479 0.000504553 -0.00426359 
0.000504553 3.01151 -0.254964 
-0.00426359 -0.254964 1.7263 
2.40807 0.000180637 -0.0030114 
0.000180637 3.0114 -0.254946 
-0.0030114 -0.254946 1.73313 
2.40923 0.000300923 -0.00302055 
0.000300923 2.44067 -0.671695 
-0.00302055 -0.671695 2.30269 
2.41684 0.000624838 -0.0042433 
0.000624838 2.43992 -0.671721 
-0.0042433 -0.671721 2.29583 
2.4253 0.000484195 -0.00304153 
0.000484195 3.27737 -0.607287 
-0.00304153 -0.607287 1.44993 
2.41736 0.000189717 -0.00178934 
0.000189717 3.27728 -0.607276 
-0.00178934 -0.607276 1.45796 
2.41851 0.000317107 -0.00179081 
0.000317107 3.62664 -1.02403 
-0.00179081 -1.02403 1.10745 
2.42723 0.000611585 -0.00301356 
0.000611585 3.62594 -1.02404 
-0.00301356 -1.02404 1.09942 
3.00004 0.000530442 0.00363171 
0.000530442 3.48744 0.471445 
0.00363171 0.471445 2.39662 
2.99191 0.000186122 -0.00178934 
0.000186122 3.4872 0.47144 
-0.00178934 0.47144 2.40498 
2.99324 0.000325585 -0.00179081 
0.000325585 4.5109 0.215066 
-0.00179081 0.215066 1.37996 
3.00205 0.000669905 0.00360696 
0.000669905 4.51047 0.215075 
0.00360696 0.215075 1.37158 
2.98612 0.000546893 0.00481685 
0.000546893 3.26614 0.437168 
0.00481685 0.437168 2.63184 
2.97936 0.000179295 -0.0006042 
0.000179295 3.26589 0.437154 
-0.0006042 0.437154 2.63884 
2.98071 0.000314381 -0.000597548 
0.000314381 6.34627 0.18078 
-0.000597548 0.18078 -0.442883 
2.98821 0.000681979 0.00480023 
0.000681979 6.3458 0.180798 
0.00480023 0.180798 -0.449917 
2.705 0.00024718 0.010921 
0.00024718 3.16555 1.95812 
0.010921 1.95812 2.14937 
2.69836 9.37114e-05 -0.0006042 
9.37114e-05 3.16539 1.95809 
-0.0006042 1.95809 2.15617 
2.69902 0.000177371 -0.000597548 
0.000177371 6.40661 2.77992 
-0.000597548 2.77992 -1.08571 
2.70584 0.00033084 0.0108607 
0.00033084 6.40656 2.77997 
0.0108607 2.77997 -1.09248 
2.66905 0.000291384 0.0115252 
0.000291384 1.18553 2.08259 
0.0115252 2.08259 4.16533 
2.6667 7.09205e-05 6.79586e-11 
7.09205e-05 1.18532 2.08257 
6.79586e-11 2.08257 4.1679 
2.66741 0.00013838 1.12306e-10 
0.00013838 3.59945 2.9044 
1.12306e-10 2.9044 1.75306 
2.67015 0.000358843 0.0114582 
0.000358843 3.59928 2.90444 
0.0114582 2.90444 1.75049 
-2.67517 -0.000774977 0.0248791 
-0.000774977 -1.18984 2.0829 
0.0248791 2.0829 -4.16776 
-2.66727 -0.00037982 0.0115252 
-0.00037982 -1.18906 2.08284 
0.0115252 2.08284 -4.17645 
-2.66798 -0.000617218 0.0114582 
-0.000617218 -3.60392 2.90492 
0.0114582 2.90492 -1.76088 
-2.67709 -0.00101238 0.0247388 
-0.00101238 -3.60347 2.90505 
0.0247388 2.90505 -1.75222 
-2.72081 -0.000701048 0.0230417 
-0.000701048 -3.17055 1.95834 
0.0230417 1.95834 -2.14142 
-2.70007 -0.000379223 0.00968774 
-0.000379223 -3.16993 1.95824 
0.00968774 1.95824 -2.16278 
-2.70095 -0.000679976 0.0096471 
-0.000679976 -6.41193 2.78033 
0.0096471 2.78033 1.0801 
-2.72222 -0.0010018 0.0229277 
-0.0010018 -6.41192 2.78049 
0.0229277 2.78049 1.10137 
-3.00174 -0.00155885 0.00949981 
-0.00155885 -3.27234 0.437151 
0.00949981 0.437151 -2.62641 
-2.98085 -0.000762004 0.00358359 
-0.000762004 -3.27128 0.437108 
0.00358359 0.437108 -2.64836 
-2.98238 -0.00125998 0.00358667 
-0.00125998 -6.3526 0.180758 
0.00358667 0.180758 0.434495 
-3.00562 -0.00205682 0.00948014 
-0.00205682 -6.35141 0.180819 
0.00948014 0.180819 0.456546 
-3.01824 -0.00152976 0.00593765 
-0.00152976 -3.49402 0.471139 
0.00593765 0.471139 -2.38823 
-2.99358 -0.000755674 2.14277e-05 
-0.000755674 -3.493 0.471127 
2.14277e-05 0.471127 -2.41391 
-2.99516 -0.00127218 -6.09577e-06 
-0.00127218 -4.51765 0.214777 
-6.09577e-06 0.214777 -1.38767 
-3.02195 -0.00204627 0.00588737 
-0.00204627 -4.51658 0.214808 
0.00588737 0.214808 -1.36195 
-2.44277 -0.0014656 -0.00832732 
-0.0014656 -3.28301 -0.607757 
-0.00832732 -0.607757 -1.44202 
-2.41885 -0.000676671 -0.00665181 
-0.000676671 -3.2824 -0.607723 
-0.00665181 -0.607723 -1.46654 
-2.42024 -0.00116616 -0.00662662 
-0.00116616 -3.63258 -1.02453 
-0.00662662 -1.02453 -1.11497 
-2.44663 -0.00195509 -0.00826021 
-0.00195509 -3.63072 -1.02459 
-0.00826021 -1.02459 -1.09044 
-2.42964 -0.00150675 -0.0119516 
-0.00150675 -3.01769 -0.255763 
-0.0119516 -0.255763 -1.72046 
-2.40961 -0.000675895 -0.0102761 
-0.000675895 -3.01702 -0.255699 
-0.0102761 -0.255699 -1.74116 
-2.41092 -0.00114248 -0.01028 
-0.00114248 -2.4473 -0.672507 
-0.01028 -0.672507 -2.30957 
-2.43376 -0.00197333 -0.0119136 
-0.00197333 -2.44527 -0.672594 
-0.0119136 -0.672594 -2.28876 
-1.52029 -0.000929499 -0.022913 
-0.000929499 -1.9138 -0.736912 
-0.022913 -0.736912 -0.970746 
-1.50149 -0.000405792 -0.0155244 
-0.000405792 -1.91365 -0.736809 
-0.0155244 -0.736809 -0.989691 
-1.50239 -0.000759595 -0.0154867 
-0.000759595 -0.645438 -0.885527 
-0.0154867 -0.885527 -2.25701 
-1.52281 -0.0012833 -0.0227842 
-0.0012833 -0.643886 -0.885675 
-0.0227842 -0.885675 -2.23814 
-1.48587 -0.00102176 -0.0254187 
-0.00102176 -2.0967 -0.377025 
-0.0254187 -0.377025 -0.822267 
-1.47452 -0.000407108 -0.0180302 
-0.000407108 -2.09638 -0.376901 
-0.0180302 -0.376901 -0.833932 
-1.47523 -0.000716018 -0.0180135 
-0.000716018 -1.6852 -0.525618 
-0.0180135 -0.525618 -1.24441 
-1.48899 -0.00133067 -0.0253111 
-0.00133067 -1.68327 -0.525788 
-0.0253111 -0.525788 -1.23258 
-0.522799 -0.000272377 -0.0312193 
-0.000272377 -0.337389 -0.5229 
-0.0312193 -0.5229 -0.602169 
-0.513134 -0.000127951 -0.0208486 
-0.000127951 -0.337454 -0.522756 
-0.0208486 -0.522756 -0.611768 
-0.513512 -0.000273309 -0.0208102 
-0.000273309 0.706143 -0.50591 
-0.0208102 -0.50591 -1.65499 
-0.52342 -0.000417735 -0.0310656 
-0.000417735 0.706591 -0.506108 
-0.0310656 -0.506108 -1.64553 
-0.477534 -0.000390667 -0.0321002 
-0.000390667 -0.979306 -0.387172 
-0.0321002 -0.387172 -0.00551695 
-0.476609 -0.000130892 -0.0217295 
-0.000130892 -0.979151 -0.387019 
-0.0217295 -0.387019 -0.00659588 
-0.476747 -0.000222781 -0.0216995 
-0.000222781 -1.2678 -0.370173 
-0.0216995 -0.370173 0.28219 
-0.478911 -0.000482557 -0.0319549 
-0.000482557 -1.26689 -0.370379 
-0.0319549 -0.370379 0.283446 
0.477534 0.000390667 -0.0321002 
0.000390667 0.979306 -0.387172 
-0.0321002 -0.387172 0.00551709 
0.476609 0.000130892 -0.0217295 
0.000130892 0.979152 -0.387019 
-0.0217295 -0.387019 0.00659602 
0.476747 0.000222781 -0.0216995 
0.000222781 1.2678 -0.370173 
-0.0216995 -0.370173 -0.28219 
0.478911 0.000482557 -0.0319549 
0.000482557 1.26689 -0.370379 
-0.0319549 -0.370379 -0.283445 
0.522799 0.000272377 -0.0312193 
0.000272377 0.337389 -0.5229 
-0.0312193 -0.5229 0.602169 
0.513134 0.000127951 -0.0208486 
0.000127951 0.337455 -0.522756 
-0.0208486 -0.522756 0.611768 
0.513512 0.000273309 -0.0208102 
0.000273309 -0.706143 -0.50591 
-0.0208102 -0.50591 1.65499 
0.52342 0.000417735 -0.0310656 
0.000417735 -0.706591 -0.506108 
-0.0310656 -0.506108 1.64553 
1.48587 0.00102176 -0.0254187 
0.00102176 2.0967 -0.377025 
-0.0254187 -0.377025 0.822267 
1.47452 0.000407108 -0.0180302 
0.000407108 2.09638 -0.376901 
-0.0180302 -0.376901 0.833932 
1.47523 0.000716018 -0.0180135 
0.000716018 1.6852 -0.525618 
-0.0180135 -0.525618 1.24441 
1.48899 0.00133067 -0.0253111 
0.00133067 1.68327 -0.525788 
-0.0253111 -0.525788 1.23258 
1.52029 0.000929499 -0.022913 
0.000929499 1.9138 -0.736912 
-0.022913 -0.736912 0.970746 
1.50149 0.000405792 -0.0155244 
0.000405792 1.91365 -0.736809 
-0.0155244 -0.736809 0.989691 
1.50239 0.000759595 -0.0154867 
0.000759595 0.645438 -0.885527 
-0.0154867 -0.885527 2.25701 
1.52281 0.0012833 -0.0227842 
0.0012833 0.643886 -0.885675 
-0.0227842 -0.885675 2.23814 
2.42964 0.00150675 -0.0119516 
0.00150675 3.0177 -0.255763 
-0.0119516 -0.255763 1.72046 
2.40961 0.000675895 -0.0102761 
0.000675895 3.01702 -0.255699 
-0.0102761 -0.255699 1.74116 
2.41092 0.00114248 -0.01028 
0.00114248 2.4473 -0.672507 
-0.01028 -0.672507 2.30957 
2.43376 0.00197333 -0.0119136 
0.00197333 2.44527 -0.672594 
-0.0119136 -0.672594 2.28876 
2.44277 0.0014656 -0.00832732 
0.0014656 3.28301 -0.607757 
-0.00832732 -0.607757 1.44202 
2.41885 0.000676671 -0.00665181 
0.000676671 3.2824 -0.607723 
-0.00665181 -0.607723 1.46654 
2.42024 0.00116616 -0.00662662 
0.00116616 3.63258 -1.02453 
-0.00662662 -1.02453 1.11497 
2.44663 0.00195509 -0.00826021 
0.00195509 3.63073 -1.02459 
-0.00826021 -1.02459 1.09044 
3.01824 0.00152976 0.00593765 
0.00152976 3.49402 0.471139 
0.00593765 0.471139 2.38823 
2.99358 0.000755674 2.14277e-05 
0.000755674 3.493 0.471127 
2.14277e-05 0.471127 2.41391 
2.99516 0.00127218 -6.09577e-06 
0.00127218 4.51765 0.214777 
-6.09577e-06 0.214777 1.38767 
3.02195 0.00204627 0.00588737 
0.00204627 4.51658 0.214808 
0.00588737 0.214808 1.36195 
3.00174 0.00155885 0.00949981 
0.00155885 3.27234 0.437151 
0.00949981 0.437151 2.62641 
2.98085 0.000762004 0.00358359 
0.000762004 3.27128 0.437108 
0.00358359 0.437108 2.64836 
2.98238 0.00125998 0.00358667 
0.00125998 6.3526 0.180758 
0.00358667 0.180758 -0.434495 
3.00562 0.00205682 0.00948014 
0.00205682 6.35141 0.180819 
0.00948014 0.180819 -0.456546 
2.72081 0.000701048 0.0230417 
0.000701048 3.17055 1.95834 
0.0230417 1.95834 2.14142 
2.70007 0.000379223 0.00968774 
0.000379223 3.16993 1.95824 
0.00968774 1.95824 2.16278 
2.70095 0.000679976 0.0096471 
0.000679976 6.41193 2.78033 
0.0096471 2.78033 -1.0801 
2.72222 0.0010018 0.0229277 
0.0010018 6.41192 2.78049 
0.0229277 2.78049 -1.10136 
2.67518 0.000774977 0.0248791 
0.000774977 1.18984 2.0829 
0.0248791 2.0829 4.16776 
2.66727 0.00037982 0.0115252 
0.00037982 1.18906 2.08284 
0.0115252 2.08284 4.17645 
2.66798 0.000617218 0.0114582 
0.000617218 3.60392 2.90492 
0.0114582 2.90492 1.76088 
2.67709 0.00101238 0.0247388 
0.00101238 3.60347 2.90505 
0.0247388 2.90505 1.75222 
-2.6876 -0.0014213 0.0417398 
-0.0014213 -1.19978 2.08323 
0.0417398 2.08323 -4.17565 
-2.67143 -0.000630555 0.0248791 
-0.000630555 -1.19802 2.08314 
0.0248791 2.08314 -4.19358 
-2.67251 -0.00116106 0.0247388 
-0.00116106 -3.61399 2.90592 
0.0247388 2.90592 -1.77654 
-2.6907 -0.0019518 0.0415441 
-0.0019518 -3.61364 2.90617 
0.0415441 2.90617 -1.75869 
-2.74771 -0.0013168 0.0386257 
-0.0013168 -3.1823 1.95837 
0.0386257 1.95837 -2.13302 
-2.71062 -0.000581424 0.021765 
-0.000581424 -3.18068 1.95821 
0.021765 1.95821 -2.17173 
-2.71214 -0.00127198 0.021692 
-0.00127198 -6.42459 2.78099 
0.021692 2.78099 1.07369 
-2.75012 -0.00200736 0.0384974 
-0.00200736 -6.42509 2.78131 
0.0384974 2.78131 1.11218 
-3.02791 -0.0029358 0.0149268 
-0.0029358 -3.2863 0.436823 
0.0149268 0.436823 -2.62322 
-2.99126 -0.00113416 0.00822315 
-0.00113416 -3.28339 0.436742 
0.00822315 0.436742 -2.66278 
-2.99383 -0.00233845 0.00824448 
-0.00233845 -6.36639 0.180518 
0.00824448 0.180518 0.422793 
-3.03452 -0.00414008 0.0149429 
-0.00414008 -6.36551 0.180638 
0.0149429 0.180638 0.462599 
-3.04728 -0.00289862 0.00903585 
-0.00289862 -3.50893 0.470004 
0.00903585 0.470004 -2.38121 
-3.00571 -0.00110226 0.00233219 
-0.00110226 -3.50603 0.469997 
0.00233219 0.469997 -2.42569 
-3.00845 -0.00234517 0.00227936 
-0.00234517 -4.53264 0.213773 
0.00227936 0.213773 -1.39635 
-3.05372 -0.00414153 0.00897775 
-0.00414153 -4.53193 0.213819 
0.00897775 0.213819 -1.35179 
-2.46987 -0.00277808 -0.0145181 
-0.00277808 -3.29585 -0.609034 
-0.0145181 -0.609034 -1.43565 
-2.43026 -0.000827019 -0.0119328 
-0.000827019 -3.29355 -0.608974 
-0.0119328 -0.608974 -1.47755 
-2.43281 -0.00208192 -0.0118682 
-0.00208192 -3.64526 -1.02591 
-0.0118682 -1.02591 -1.12329 
-2.47664 -0.00403298 -0.014382 
-0.00403298 -3.64339 -1.02604 
-0.014382 -1.02604 -1.08134 
-2.45272 -0.00286787 -0.0203295 
-0.00286787 -3.03157 -0.257951 
-0.0203295 -0.257951 -1.71707 
-2.42022 -0.000845247 -0.0177442 
-0.000845247 -3.02917 -0.257824 
-0.0177442 -0.257824 -1.75197 
-2.42258 -0.00203274 -0.0177466 
-0.00203274 -2.46126 -0.674762 
-0.0177466 -0.674762 -2.31752 
-2.46001 -0.00405537 -0.0202604 
-0.00405537 -2.45899 -0.674957 
-0.0202604 -0.674957 -2.28237 
-1.53994 -0.0017604 -0.037717 
-0.0017604 -1.92232 -0.739029 
-0.037717 -0.739029 -0.965519 
-1.51021 -0.000348359 -0.0287056 
-0.000348359 -1.92107 -0.738846 
-0.0287056 -0.738846 -0.996499 
-1.51202 -0.00129458 -0.0286172 
-0.00129458 -0.653885 -0.887845 
-0.0286172 -0.887845 -2.26188 
-1.54447 -0.00270663 -0.0375059 
-0.00270663 -0.652266 -0.888159 
-0.0375059 -0.888159 -2.23105 
-1.49948 -0.00193673 -0.0416247 
-0.00193673 -2.10652 -0.379843 
-0.0416247 -0.379843 -0.821783 
-1.48136 -0.000401956 -0.0326133 
-0.000401956 -2.10506 -0.379613 
-0.0326133 -0.379613 -0.841359 
-1.48269 -0.00121689 -0.0325722 
-0.00121689 -1.69519 -0.528611 
-0.0325722 -0.528611 -1.2499 
-1.50503 -0.00275166 -0.0414609 
-0.00275166 -1.69279 -0.528972 
-0.0414609 -0.528972 -1.22996 
-0.531572 -0.00051545 -0.0505865 
-0.00051545 -0.339906 -0.525605 
-0.0505865 -0.525605 -0.598983 
-0.516961 -5.11306e-05 -0.0384139 
-5.11306e-05 -0.339601 -0.525349 
-0.0384139 -0.525349 -0.6139 
-0.517796 -0.000450809 -0.0383268 
-0.000450809 0.703689 -0.508872 
-0.0383268 -0.508872 -1.65635 
-0.532729 -0.000915128 -0.0503532 
-0.000915128 0.704007 -0.509286 
-0.0503532 -0.509286 -1.64174 
-0.480239 -0.0007342 -0.051938 
-0.0007342 -0.983274 -0.390139 
-0.051938 -0.390139 -0.00694715 
-0.47835 -0.00012368 -0.0397654 
-0.00012368 -0.982715 -0.389865 
-0.0397654 -0.389865 -0.00939587 
-0.478565 -0.000365706 -0.0396958 
-0.000365706 -1.2719 -0.373388 
-0.0396958 -0.373388 0.280008 
-0.482671 -0.000976226 -0.0517222 
-0.000976226 -1.27063 -0.37382 
-0.0517222 -0.37382 0.282837 
0.480239 0.0007342 -0.051938 
0.0007342 0.983274 -0.390139 
-0.051938 -0.390139 0.00694729 
0.47835 0.00012368 -0.0397654 
0.00012368 0.982715 -0.389865 
-0.0397654 -0.389865 0.00939601 
0.478565 0.000365706 -0.0396958 
0.000365706 1.2719 -0.373388 
-0.0396958 -0.373388 -0.280007 
0.482671 0.000976226 -0.0517222 
0.000976226 1.27063 -0.37382 
-0.0517222 -0.37382 -0.282836 
0.531572 0.00051545 -0.0505865 
0.00051545 0.339906 -0.525605 
-0.0505865 -0.525605 0.598983 
0.516961 5.11306e-05 -0.0384139 
5.11306e-05 0.339601 -0.525349 
-0.0384139 -0.525349 0.6139 
0.517796 0.000450809 -0.0383268 
0.000450809 -0.703688 -0.508872 
-0.0383268 -0.508872 1.65635 
0.532729 0.000915128 -0.0503532 
0.000915128 -0.704007 -0.509286 
-0.0503532 -0.509286 1.64174 
1.49948 0.00193673 -0.0416247 
0.00193673 2.10652 -0.379843 
-0.0416247 -0.379843 0.821783 
1.48136 0.000401956 -0.0326133 
0.000401956 2.10506 -0.379613 
-0.0326133 -0.379613 0.841359 
1.48269 0.00121689 -0.0325722 
0.00121689 1.69519 -0.528611 
-0.0325722 -0.528611 1.2499 
1.50503 0.00275166 -0.0414609 
0.00275166 1.69279 -0.528972 
-0.0414609 -0.528972 1.22996 
1.53994 0.0017604 -0.037717 
0.0017604 1.92232 -0.739029 
-0.037717 -0.739029 0.965519 
1.51021 0.000348359 -0.0287056 
0.000348359 1.92107 -0.738846 
-0.0287056 -0.738846 0.996499 
1.51202 0.00129458 -0.0286172 
0.00129458 0.653885 -0.887845 
-0.0286172 -0.887845 2.26188 
1.54447 0.00270663 -0.0375059 
0.00270663 0.652266 -0.888159 
-0.0375059 -0.888159 2.23105 
2.45272 0.00286787 -0.0203295 
0.00286787 3.03157 -0.257951 
-0.0203295 -0.257951 1.71707 
2.42022 0.000845247 -0.0177442 
0.000845247 3.02917 -0.257824 
-0.0177442 -0.257824 1.75197 
2.42258 0.00203274 -0.0177466 
0.00203274 2.46127 -0.674762 
-0.0177466 -0.674762 2.31752 
2.46001 0.00405537 -0.0202604 
0.00405537 2.45899 -0.674957 
-0.0202604 -0.674957 2.28237 
2.46987 0.00277808 -0.0145181 
0.00277808 3.29585 -0.609034 
-0.0145181 -0.609034 1.43565 
2.43026 0.000827019 -0.0119328 
0.000827019 3.29355 -0.608974 
-0.0119328 -0.608974 1.47755 
2.43281 0.00208192 -0.0118682 
0.00208192 3.64526 -1.02591 
-0.0118682 -1.02591 1.12329 
2.47664 0.00403298 -0.014382 
0.00403298 3.64339 -1.02604 
-0.014382 -1.02604 1.08134 
3.04728 0.00289862 0.00903585 
0.00289862 3.50893 0.470004 
0.00903585 0.470004 2.38121 
3.00571 0.00110226 0.00233219 
0.00110226 3.50603 0.469997 
0.00233219 0.469997 2.42569 
3.00845 0.00234517 0.00227936 
0.00234517 4.53264 0.213773 
0.00227936 0.213773 1.39635 
3.05372 0.00414153 0.00897775 
0.00414153 4.53193 0.213819 
0.00897775 0.213819 1.35179 
3.02791 0.0029358 0.0149268 
0.0029358 3.2863 0.436823 
0.0149268 0.436823 2.62322 
2.99126 0.00113416 0.00822315 
0.00113416 3.2834 0.436742 
0.00822315 0.436742 2.66278 
2.99383 0.00233845 0.00824448 
0.00233845 6.36639 0.180518 
0.00824448 0.180518 -0.422793 
3.03452 0.00414008 0.0149429 
0.00414008 6.36551 0.180638 
0.0149429 0.180638 -0.462599 
2.74771 0.0013168 0.0386257 
0.0013168 3.1823 1.95837 
0.0386257 1.95837 2.13302 
2.71062 0.000581424 0.021765 
0.000581424 3.18068 1.95821 
0.021765 1.95821 2.17173 
2.71214 0.00127198 0.021692 
0.00127198 6.42459 2.78099 
0.021692 2.78099 -1.07369 
2.75012 0.00200736 0.0384974 
0.00200736 6.42509 2.78131 
0.0384974 2.78131 -1.11218 
2.6876 0.0014213 0.0417398 
0.0014213 1.19978 2.08323 
0.0417398 2.08323 4.17565 
2.67143 0.000630555 0.0248791 
0.000630555 1.19802 2.08314 
0.0248791 2.08314 4.19358 
2.67251 0.00116106 0.0247388 
0.00116106 3.61399 2.90592 
0.0247388 2.90592 1.77654 
2.6907 0.0019518 0.0415441 
0.0019518 3.61364 2.90617 
0.0415441 2.90617 1.75869 
-2.71134 -0.00200313 0.0632235 
-0.00200313 -1.21835 2.08261 
0.0632235 2.08261 -4.19073 
-2.68173 -0.000564849 0.0417398 
-0.000564849 -1.21486 2.08259 
0.0417398 2.08259 -4.22383 
-2.68341 -0.00167969 0.0415441 
-0.00167969 -3.63232 2.90693 
0.0415441 2.90693 -1.80469 
-2.71512 -0.00311798 0.0631274 
-0.00311798 -3.63348 2.90735 
0.0631274 2.90735 -1.77182 
-2.78819 -0.00192691 0.0588536 
-0.00192691 -3.20481 1.95703 
0.0588536 1.95703 -2.12742 
-2.7319 -0.000389089 0.0373699 
-0.000389089 -3.20097 1.95688 
0.0373699 1.95688 -2.18755 
-2.73439 -0.0019002 0.0372983 
-0.0019002 -6.44938 2.78122 
0.0372983 2.78122 1.06335 
-2.7916 -0.00343802 0.0588816 
-0.00343802 -6.45197 2.78176 
0.0588816 2.78176 1.12315 
-3.06756 -0.0041242 0.0208345 
-0.0041242 -3.31125 0.435293 
0.0208345 0.435293 -2.62469 
-3.01286 -0.000547011 0.0136711 
-0.000547011 -3.30452 0.435233 
0.0136711 0.435233 -2.68612 
-3.01703 -0.0032142 0.0137438 
-0.0032142 -6.39105 0.179404 
0.0137438 0.179404 0.404585 
-3.07611 -0.00679139 0.0209828 
-0.00679139 -6.39383 0.179631 
0.0209828 0.179631 0.466442 
-3.08735 -0.00408415 0.0129411 
-0.00408415 -3.53594 0.466591 
0.0129411 0.466591 -2.38021 
-3.03031 -0.000431438 0.00577764 
-0.000431438 -3.52883 0.466673 
0.00577764 0.466673 -2.44435 
-3.03476 -0.00326583 0.00570855 
-0.00326583 -4.56022 0.210844 
0.00570855 0.210844 -1.40852 
-3.09597 -0.00691855 0.0129475 
-0.00691855 -4.56337 0.210929 
0.0129475 0.210929 -1.34417 
-2.50615 -0.00368976 -0.0219815 
-0.00368976 -3.31876 -0.611995 
-0.0219815 -0.611995 -1.43474 
-2.45283 0.000370183 -0.0177763 
0.000370183 -3.31244 -0.611854 
-0.0177763 -0.611854 -1.49439 
-2.45696 -0.00252264 -0.0176512 
-0.00252264 -3.66802 -1.02905 
-0.0176512 -1.02905 -1.13468 
-2.51497 -0.00658259 -0.0217489 
-0.00658259 -3.66973 -1.02923 
-0.0217489 -1.02923 -1.07496 
-2.48319 -0.00381681 -0.0292822 
-0.00381681 -3.05609 -0.263045 
-0.0292822 -0.263045 -1.72038 
-2.44198 0.000350573 -0.025077 
0.000350573 -3.04943 -0.262764 
-0.025077 -0.262764 -1.76825 
-2.4457 -0.00250984 -0.0250913 
-0.00250984 -2.48579 -0.679964 
-0.0250913 -0.679964 -2.32816 
-2.49289 -0.00667723 -0.029189 
-0.00667723 -2.48702 -0.680277 
-0.029189 -0.680277 -2.27974 
-1.56297 -0.00213683 -0.0534953 
-0.00213683 -1.93785 -0.743262 
-0.0534953 -0.743262 -0.966109 
-1.52645 0.000902908 -0.0424645 
0.000902908 -1.93367 -0.742941 
-0.0424645 -0.742941 -1.0068 
-1.52939 -0.00131519 -0.0423368 
-0.00131519 -0.669469 -0.892664 
-0.0423368 -0.892664 -2.26807 
-1.56871 -0.00435492 -0.053254 
-0.00435492 -0.670514 -0.893153 
-0.053254 -0.893153 -2.2277 
-1.51809 -0.00237204 -0.0581232 
-0.00237204 -2.12337 -0.385693 
-0.0581232 -0.385693 -0.82547 
-1.49601 0.000781388 -0.0470924 
0.000781388 -2.1189 -0.385288 
-0.0470924 -0.385288 -0.852017 
-1.49801 -0.00126868 -0.047049 
-0.00126868 -1.71187 -0.535011 
-0.047049 -0.535011 -1.25704 
-1.52526 -0.0044221 -0.0579661 
-0.0044221 -1.71188 -0.535583 
-0.0579661 -0.535583 -1.22979 
-0.53945 -0.000571718 -0.0700834 
-0.000571718 -0.345058 -0.530794 
-0.0700834 -0.530794 -0.599666 
-0.523041 0.000513437 -0.0560542 
0.000513437 -0.343681 -0.530371 
-0.0560542 -0.530371 -0.617452 
-0.524439 -0.000385919 -0.0559413 
-0.000385919 0.69829 -0.514893 
-0.0559413 -0.514893 -1.65802 
-0.540877 -0.00147107 -0.0698567 
-0.00147107 0.697528 -0.515541 
-0.0698567 -0.515541 -1.64082 
-0.486237 -0.000857705 -0.0716254 
-0.000857705 -0.989563 -0.395933 
-0.0716254 -0.395933 -0.0083735 
-0.483246 0.000341242 -0.0575962 
0.000341242 -0.987912 -0.395474 
-0.0575962 -0.395474 -0.0130147 
-0.483461 -0.000333853 -0.057518 
-0.000333853 -1.27791 -0.379996 
-0.057518 -0.379996 0.277199 
-0.489356 -0.0015328 -0.0714334 
-0.0015328 -1.2774 -0.380679 
-0.0714334 -0.380679 0.282582 
0.486237 0.000857705 -0.0716254 
0.000857705 0.989563 -0.395933 
-0.0716254 -0.395933 0.00837364 
0.483246 -0.000341242 -0.0575962 
-0.000341242 0.987913 -0.395474 
-0.0575962 -0.395474 0.0130149 
0.483461 0.000333853 -0.057518 
0.000333853 1.27791 -0.379996 
-0.057518 -0.379996 -0.277199 
0.489356 0.0015328 -0.0714334 
0.0015328 1.2774 -0.380679 
-0.0714334 -0.380679 -0.282581 
0.53945 0.000571718 -0.0700834 
0.000571718 0.345058 -0.530794 
-0.0700834 -0.530794 0.599666 
0.523041 -0.000513437 -0.0560542 
-0.000513437 0.343681 -0.530371 
-0.0560542 -0.530371 0.617452 
0.524439 0.000385919 -0.0559413 
0.000385919 -0.69829 -0.514893 
-0.0559413 -0.514893 1.65802 
0.540877 0.00147107 -0.0698567 
0.00147107 -0.697528 -0.515541 
-0.0698567 -0.515541 1.64082 
1.51809 0.00237204 -0.0581232 
0.00237204 2.12337 -0.385693 
-0.0581232 -0.385693 0.82547 
1.49601 -0.000781388 -0.0470924 
-0.000781388 2.1189 -0.385288 
-0.0470924 -0.385288 0.852017 
1.49801 0.00126868 -0.047049 
0.00126868 1.71187 -0.535011 
-0.047049 -0.535011 1.25704 
1.52526 0.0044221 -0.0579661 
0.0044221 1.71188 -0.535583 
-0.0579661 -0.535583 1.22979 
1.56297 0.00213683 -0.0534953 
0.00213683 1.93785 -0.743262 
-0.0534953 -0.743262 0.966109 
1.52645 -0.000902908 -0.0424645 
-0.000902908 1.93367 -0.742941 
-0.0424645 -0.742941 1.0068 
1.52939 0.00131519 -0.0423368 
0.00131519 0.669469 -0.892664 
-0.0423368 -0.892664 2.26807 
1.56871 0.00435492 -0.053254 
0.00435492 0.670514 -0.893153 
-0.053254 -0.893153 2.2277 
2.48319 0.00381681 -0.0292822 
0.00381681 3.05609 -0.263045 
-0.0292822 -0.263045 1.72038 
2.44198 -0.000350573 -0.025077 
-0.000350573 3.04943 -0.262764 
-0.025077 -0.262764 1.76825 
2.4457 0.00250984 -0.0250913 
0.00250984 2.48579 -0.679964 
-0.0250913 -0.679964 2.32816 
2.4929 0.00667723 -0.029189 
0.00667723 2.48702 -0.680277 
-0.029189 -0.680277 2.27974 
2.50615 0.00368976 -0.0219815 
0.00368976 3.31876 -0.611995 
-0.0219815 -0.611995 1.43474 
2.45283 -0.000370183 -0.0177763 
-0.000370183 3.31244 -0.611854 
-0.0177763 -0.611854 1.49439 
2.45696 0.00252264 -0.0176512 
0.00252264 3.66802 -1.02905 
-0.0176512 -1.02905 1.13468 
2.51497 0.00658259 -0.0217489 
0.00658259 3.66973 -1.02923 
-0.0217489 -1.02923 1.07496 
3.08735 0.00408415 0.0129411 
0.00408415 3.53594 0.466591 
0.0129411 0.466591 2.38021 
3.03031 0.000431438 0.00577764 
0.000431438 3.52883 0.466673 
0.00577764 0.466673 2.44435 
3.03476 0.00326583 0.00570855 
0.00326583 4.56022 0.210844 
0.00570855 0.210844 1.40852 
3.09597 0.00691855 0.0129475 
0.00691855 4.56337 0.210929 
0.0129475 0.210929 1.34417 
3.06756 0.0041242 0.0208345 
0.0041242 3.31125 0.435293 
0.0208345 0.435293 2.62469 
3.01286 0.000547011 0.0136711 
0.000547011 3.30452 0.435233 
0.0136711 0.435233 2.68612 
3.01703 0.0032142 0.0137438 
0.0032142 6.39105 0.179404 
0.0137438 0.179404 -0.404585 
3.07611 0.00679139 0.0209828 
0.00679139 6.39383 0.179631 
0.0209828 0.179631 -0.466441 
2.78819 0.00192691 0.0588536 
0.00192691 3.20481 1.95703 
0.0588536 1.95703 2.12742 
2.7319 0.000389089 0.0373699 
0.000389089 3.20097 1.95688 
0.0373699 1.95688 2.18755 
2.73439 0.0019002 0.0372983 
0.0019002 6.44938 2.78122 
0.0372983 2.78122 -1.06335 
2.7916 0.00343802 0.0588816 
0.00343802 6.45197 2.78176 
0.0588816 2.78176 -1.12315 
2.71134 0.00200313 0.0632235 
0.00200313 1.21835 2.08261 
0.0632235 2.08261 4.19073 
2.68173 0.000564849 0.0417398 
0.000564849 1.21486 2.08259 
0.0417398 2.08259 4.22383 
2.68341 0.00167969 0.0415441 
0.00167969 3.63232 2.90693 
0.0415441 2.90693 1.80469 
2.71512 0.00311798 0.0631274 
0.00311798 3.63348 2.90735 
0.0631274 2.90735 1.77182 
-2.75493 -0.0012664 0.0891809 
-0.0012664 -1.2499 2.07829 
0.0891809 2.07829 -4.21617 
-2.70334 0.000876555 0.0632235 
0.000876555 -1.24404 2.07857 
0.0632235 2.07857 -4.27362 
-2.70549 -0.00152132 0.0631274 
-0.00152132 -3.66308 2.90633 
0.0631274 2.90633 -1.85242 
-2.75506 -0.00366427 0.0897461 
-0.00366427 -3.67038 2.90661 
0.0897461 2.90661 -1.79556 
-2.84592 -0.00154933 0.08379 
-0.00154933 -3.24375 1.95105 
0.08379 1.95105 -2.13133 
-2.76671 0.00125496 0.0578327 
0.00125496 -3.23624 1.95105 
0.0578327 1.95105 -2.21804 
-2.77 -0.00170688 0.058021 
-0.00170688 -6.49512 2.7788 
0.058021 2.7788 1.04412 
-2.84787 -0.00451118 0.0846397 
-0.00451118 -6.50328 2.77937 
0.0846397 2.77937 1.13015 
-3.12435 -0.00221503 0.0260892 
-0.00221503 -3.35117 0.430401 
0.0260892 0.430401 -2.63659 
-3.05043 0.00387587 0.0198135 
0.00387587 -3.33768 0.430299 
0.0198135 0.430299 -2.724 
-3.05468 -0.0019712 0.0201222 
-0.0019712 -6.43278 0.175626 
0.0201222 0.175626 0.375347 
-3.12703 -0.00806209 0.0268417 
-0.00806209 -6.44878 0.175675 
0.0268417 0.175675 0.463703 
-3.13881 -0.00250034 0.0172874 
-0.00250034 -3.57938 0.457487 
0.0172874 0.457487 -2.39392 
-3.07019 0.00403437 0.0110118 
0.00403437 -3.56519 0.457717 
0.0110118 0.457717 -2.47673 
-3.07482 -0.00175938 0.0109895 
-0.00175938 -4.60862 0.203044 
0.0109895 0.203044 -1.42867 
-3.14309 -0.00829408 0.017709 
-0.00829408 -4.62368 0.202761 
0.017709 0.202761 -1.34534 
-2.54768 -0.000468125 -0.0301691 
-0.000468125 -3.35497 -0.618247 
-0.0301691 -0.618247 -1.44901 
-2.48934 0.00656012 -0.0239108 
0.00656012 -3.34079 -0.618185 
-0.0239108 -0.618185 -1.52153 
-2.49302 -6.84735e-05 -0.0237069 
-6.84735e-05 -3.707 -1.03574 
-0.0237069 -1.03574 -1.15164 
-2.54912 -0.00709672 -0.0296871 
-0.00709672 -3.72348 -1.03645 
-0.0296871 -1.03645 -1.07906 
-2.52135 -0.000981294 -0.0371906 
-0.000981294 -3.09351 -0.273889 
-0.0371906 -0.273889 -1.73679 
-2.47756 0.00632506 -0.0309322 
0.00632506 -3.0798 -0.273645 
-0.0309322 -0.273645 -1.79429 
-2.48055 0.000341054 -0.0309105 
0.000341054 -2.52644 -0.691199 
-0.0309105 -0.691199 -2.34466 
-2.52472 -0.0069653 -0.0368907 
-0.0069653 -2.54052 -0.692087 
-0.0368907 -0.692087 -2.28642 
-1.58089 0.00100443 -0.066984 
0.00100443 -1.96323 -0.750599 
-0.066984 -0.750599 -0.983048 
-1.55056 0.00641367 -0.0551454 
0.00641367 -1.95254 -0.750475 
-0.0551454 -0.750475 -1.02407 
-1.5526 0.00111639 -0.0549755 
0.00111639 -0.697396 -0.901732 
-0.0549755 -0.901732 -2.27717 
-1.58079 -0.00429285 -0.0667019 
-0.00429285 -0.709891 -0.902898 
-0.0667019 -0.902898 -2.23649 
-1.54439 0.000389038 -0.0707593 
0.000389038 -2.14773 -0.396534 
-0.0707593 -0.396534 -0.835046 
-1.52125 0.00591041 -0.0589207 
0.00591041 -2.13834 -0.396259 
-0.0589207 -0.396259 -0.867583 
-1.52184 0.00165522 -0.0589022 
0.00165522 -1.7377 -0.547516 
-0.0589022 -0.547516 -1.26763 
-1.54625 -0.00386615 -0.0706287 
-0.00386615 -1.74684 -0.548833 
-0.0706287 -0.548833 -1.23408 
-0.537969 0.000853635 -0.0845216 
0.000853635 -0.355007 -0.539277 
-0.0845216 -0.539277 -0.612054 
-0.529789 0.00283273 -0.0708809 
0.00283273 -0.350545 -0.539049 
-0.0708809 -0.539049 -0.624695 
-0.530984 0.000457872 -0.0707928 
0.000457872 0.686655 -0.525828 
-0.0707928 -0.525828 -1.6607 
-0.537025 -0.00152123 -0.0843667 
-0.00152123 0.680848 -0.527244 
-0.0843667 -0.527244 -1.64885 
-0.501503 0.000166712 -0.0856567 
0.000166712 -0.997114 -0.4057 
-0.0856567 -0.4057 -0.00641263 
-0.493798 0.00221251 -0.0720161 
0.00221251 -0.994286 -0.40542 
-0.0720161 -0.40542 -0.0169457 
-0.493207 0.00102652 -0.0719802 
0.00102652 -1.28516 -0.392199 
-0.0719802 -0.392199 0.273335 
-0.502643 -0.00101928 -0.0855541 
-0.00101928 -1.28728 -0.393668 
-0.0855541 -0.393668 0.284896 
0.501503 -0.000166712 -0.0856567 
-0.000166712 0.997114 -0.4057 
-0.0856567 -0.4057 0.00641277 
0.493798 -0.00221251 -0.0720161 
-0.00221251 0.994286 -0.40542 
-0.0720161 -0.40542 0.0169458 
0.493207 -0.00102652 -0.0719802 
-0.00102652 1.28516 -0.392199 
-0.0719802 -0.392199 -0.273335 
0.502643 0.00101928 -0.0855541 
0.00101928 1.28728 -0.393668 
-0.0855541 -0.393668 -0.284896 
0.537969 -0.000853635 -0.0845216 
-0.000853635 0.355008 -0.539277 
-0.0845216 -0.539277 0.612054 
0.529789 -0.00283273 -0.0708809 
-0.00283273 0.350545 -0.539049 
-0.0708809 -0.539049 0.624695 
0.530984 -0.000457872 -0.0707928 
-0.000457872 -0.686655 -0.525828 
-0.0707928 -0.525828 1.6607 
0.537025 0.00152123 -0.0843667 
0.00152123 -0.680848 -0.527244 
-0.0843667 -0.527244 1.64885 
1.54439 -0.000389038 -0.0707593 
-0.000389038 2.14773 -0.396534 
-0.0707593 -0.396534 0.835046 
1.52125 -0.00591041 -0.0589207 
-0.00591041 2.13834 -0.396259 
-0.0589207 -0.396259 0.867583 
1.52184 -0.00165522 -0.0589022 
-0.00165522 1.7377 -0.547516 
-0.0589022 -0.547516 1.26763 
1.54625 0.00386615 -0.0706287 
0.00386615 1.74684 -0.548833 
-0.0706287 -0.548833 1.23408 
1.58089 -0.00100443 -0.066984 
-0.00100443 1.96323 -0.750599 
-0.066984 -0.750599 0.983048 
1.55056 -0.00641367 -0.0551454 
-0.00641367 1.95254 -0.750475 
-0.0551454 -0.750475 1.02407 
1.5526 -0.00111639 -0.0549755 
-0.00111639 0.697396 -0.901732 
-0.0549755 -0.901732 2.27717 
1.58079 0.00429285 -0.0667019 
0.00429285 0.709891 -0.902898 
-0.0667019 -0.902898 2.23649 
2.52135 0.000981294 -0.0371906 
0.000981294 3.09351 -0.273889 
-0.0371906 -0.273889 1.73679 
2.47756 -0.00632506 -0.0309322 
-0.00632506 3.0798 -0.273645 
-0.0309322 -0.273645 1.79429 
2.48055 -0.000341054 -0.0309105 
-0.000341054 2.52644 -0.691199 
-0.0309105 -0.691199 2.34466 
2.52472 0.0069653 -0.0368907 
0.0069653 2.54052 -0.692087 
-0.0368907 -0.692087 2.28642 
2.54768 0.000468125 -0.0301691 
0.000468125 3.35497 -0.618247 
-0.0301691 -0.618247 1.44901 
2.48934 -0.00656012 -0.0239108 
-0.00656012 3.34079 -0.618185 
-0.0239108 -0.618185 1.52153 
2.49302 6.84735e-05 -0.0237069 
6.84735e-05 3.707 -1.03574 
-0.0237069 -1.03574 1.15164 
2.54912 0.00709672 -0.0296871 
0.00709672 3.72348 -1.03645 
-0.0296871 -1.03645 1.07906 
3.13881 0.00250034 0.0172874 
0.00250034 3.57938 0.457487 
0.0172874 0.457487 2.39392 
3.07019 -0.00403437 0.0110118 
-0.00403437 3.56519 0.457717 
0.0110118 0.457717 2.47673 
3.07482 0.00175938 0.0109895 
0.00175938 4.60862 0.203044 
0.0109895 0.203044 1.42867 
3.14309 0.00829408 0.017709 
0.00829408 4.62368 0.202761 
0.017709 0.202761 1.34534 
3.12435 0.00221503 0.0260892 
0.00221503 3.35117 0.430401 
0.0260892 0.430401 2.63659 
3.05043 -0.00387587 0.0198135 
-0.00387587 3.33768 0.430299 
0.0198135 0.430299 2.724 
3.05468 0.0019712 0.0201222 
0.0019712 6.43278 0.175626 
0.0201222 0.175626 -0.375347 
3.12703 0.00806209 0.0268417 
0.00806209 6.44878 0.175675 
0.0268417 0.175675 -0.463703 
2.84592 0.00154933 0.08379 
0.00154933 3.24375 1.95105 
0.08379 1.95105 2.13133 
2.76671 -0.00125496 0.0578327 
-0.00125496 3.23624 1.95105 
0.0578327 1.95105 2.21805 
2.77 0.00170688 0.058021 
0.00170688 6.49512 2.7788 
0.058021 2.7788 -1.04412 
2.84787 0.00451118 0.0846397 
0.00451118 6.50328 2.77937 
0.0846397 2.77937 -1.13015 
2.75493 0.0012664 0.0891809 
0.0012664 1.2499 2.07829 
0.0891809 2.07829 4.21617 
2.70334 -0.000876555 0.0632235 
-0.000876555 1.24404 2.07857 
0.0632235 2.07857 4.27362 
2.70549 0.00152132 0.0631274 
0.00152132 3.66308 2.90633 
0.0631274 2.90633 1.85243 
2.75506 0.00366427 0.0897461 
0.00366427 3.67038 2.90661 
0.0897461 2.90661 1.79556 
-2.83705 0.00442872 0.115434 
0.00442872 -1.29946 2.0623 
0.115434 2.0623 -4.25298 
-2.74493 0.00697019 0.0891809 
0.00697019 -1.29327 2.06385 
0.0891809 2.06385 -4.35129 
-2.74336 0.00298176 0.0897461 
0.00298176 -3.71281 2.89837 
0.0897461 2.89837 -1.93332 
-2.82108 0.000440296 0.1182 
0.000440296 -3.73221 2.89856 
0.1182 2.89856 -1.8362 
-2.91919 0.00321787 0.110533 
0.00321787 -3.30593 1.93101 
0.110533 1.93101 -2.16437 
-2.82214 0.00796 0.0842799 
0.00796 -3.2926 1.93243 
0.0842799 1.93243 -2.27475 
-2.82137 0.00222806 0.0849834 
0.00222806 -6.57956 2.76695 
0.0849834 2.76695 1.01144 
-2.91227 -0.00251407 0.113437 
-0.00251407 -6.59962 2.76727 
0.113437 2.76727 1.12239 
-3.20847 0.0119994 0.02667 
0.0119994 -3.40498 0.415361 
0.02667 0.415361 -2.66698 
-3.10931 0.0202242 0.0265791 
0.0202242 -3.38757 0.416399 
0.0265791 0.416399 -2.78355 
-3.10592 0.0099256 0.0271854 
0.0099256 -6.50265 0.164206 
0.0271854 0.164206 0.328141 
-3.17484 0.0017008 0.0279771 
0.0017008 -6.55044 0.164914 
0.0279771 0.164914 0.444855 
-3.19541 0.0120059 0.0205829 
0.0120059 -3.63869 0.4336 
0.0205829 0.4336 -2.44634 
-3.13439 0.0209315 0.020492 
0.0209315 -3.61593 0.434969 
0.020492 0.434969 -2.53011 
-3.13052 0.00888816 0.0207659 
0.00888816 -4.69168 0.182777 
0.0207659 0.182777 -1.45823 
-3.1654 -3.74347e-05 0.0215576 
-3.74347e-05 -4.74192 0.183152 
0.0215576 0.183152 -1.37311 
-2.59207 0.0175255 -0.0374628 
0.0175255 -3.40215 -0.632433 
-0.0374628 -0.632433 -1.49212 
-2.53896 0.0278035 -0.0269646 
0.0278035 -3.38172 -0.631678 
-0.0269646 -0.631678 -1.56567 
-2.53086 0.0160924 -0.0266301 
0.0160924 -3.77498 -1.04981 
-0.0266301 -1.04981 -1.18051 
-2.55376 0.00581442 -0.037781 
0.00581442 -3.82536 -1.04931 
-0.037781 -1.04931 -1.10723 
-2.56248 0.0182101 -0.0395551 
0.0182101 -3.13945 -0.297919 
-0.0395551 -0.297919 -1.78442 
-2.53832 0.0278355 -0.0290568 
0.0278355 -3.11653 -0.296815 
-0.0290568 -0.296815 -1.8315 
-2.52802 0.0148702 -0.0290721 
0.0148702 -2.59189 -0.714947 
-0.0290721 -0.714947 -2.36643 
-2.52345 0.00524477 -0.0402229 
0.00524477 -2.64539 -0.714797 
-0.0402229 -0.714797 -2.31751 
-1.58665 0.015854 -0.070133 
0.015854 -1.9979 -0.763919 
-0.070133 -0.763919 -1.02748 
-1.57518 0.0239361 -0.0588502 
0.0239361 -1.98139 -0.763288 
-0.0588502 -0.763288 -1.05545 
-1.56762 0.014704 -0.0588833 
0.014704 -0.749023 -0.917785 
-0.0588833 -0.917785 -2.29539 
-1.55652 0.00662191 -0.0713272 
0.00662191 -0.787018 -0.917707 
-0.0713272 -0.917707 -2.26849 
-1.5782 0.0165915 -0.069784 
0.0165915 -2.17391 -0.417061 
-0.069784 -0.417061 -0.859912 
-1.56891 0.0235125 -0.0585012 
0.0235125 -2.15714 -0.41621 
-0.0585012 -0.41621 -0.885975 
-1.55849 0.0135719 -0.0587548 
0.0135719 -1.77457 -0.570707 
-0.0587548 -0.570707 -1.27897 
-1.54573 0.00665089 -0.0711987 
0.00665089 -1.81546 -0.57085 
-0.0711987 -0.57085 -1.25084 
-0.52169 0.00620705 -0.0824673 
0.00620705 -0.371853 -0.553054 
-0.0824673 -0.553054 -0.640317 
-0.526534 0.00961888 -0.0722634 
0.00961888 -0.365389 -0.552348 
-0.0722634 -0.552348 -0.641937 
-0.524208 0.00628838 -0.0724928 
0.00628838 0.660242 -0.544023 
-0.0724928 -0.544023 -1.66989 
-0.510971 0.00287654 -0.0839123 
0.00287654 0.6471 -0.544208 
-0.0839123 -0.544208 -1.66999 
-0.528863 0.00682971 -0.082064 
0.00682971 -1.00144 -0.42217 
-0.082064 -0.42217 -0.00355263 
-0.52198 0.00902602 -0.0718601 
0.00902602 -0.995416 -0.421347 
-0.0718601 -0.421347 -0.0164647 
-0.516562 0.00517429 -0.0722061 
0.00517429 -1.28979 -0.413022 
-0.0722061 -0.413022 0.272492 
-0.515801 0.00297798 -0.0836256 
0.00297798 -1.3057 -0.413324 
-0.0836256 -0.413324 0.287641 
0.528863 -0.00682971 -0.082064 
-0.00682971 1.00144 -0.42217 
-0.082064 -0.42217 0.00355277 
0.52198 -0.00902602 -0.0718601 
-0.00902602 0.995416 -0.421347 
-0.0718601 -0.421347 0.0164648 
0.516562 -0.00517429 -0.0722061 
-0.00517429 1.28979 -0.413022 
-0.0722061 -0.413022 -0.272491 
0.515801 -0.00297798 -0.0836256 
-0.00297798 1.3057 -0.413324 
-0.0836256 -0.413324 -0.28764 
0.52169 -0.00620705 -0.0824673 
-0.00620705 0.371853 -0.553054 
-0.0824673 -0.553054 0.640317 
0.526534 -0.00961888 -0.0722634 
-0.00961888 0.365389 -0.552348 
-0.0722634 -0.552348 0.641938 
0.524209 -0.00628838 -0.0724928 
-0.00628838 -0.660242 -0.544023 
-0.0724928 -0.544023 1.66989 
0.510971 -0.00287654 -0.0839123 
-0.00287654 -0.6471 -0.544208 
-0.0839123 -0.544208 1.66999 
1.5782 -0.0165915 -0.069784 
-0.0165915 2.17391 -0.417061 
-0.069784 -0.417061 0.859912 
1.56891 -0.0235125 -0.0585012 
-0.0235125 2.15714 -0.41621 
-0.0585012 -0.41621 0.885975 
1.55849 -0.0135719 -0.0587548 
-0.0135719 1.77457 -0.570707 
-0.0587548 -0.570707 1.27897 
1.54573 -0.00665089 -0.0711987 
-0.00665089 1.81546 -0.57085 
-0.0711987 -0.57085 1.25084 
1.58665 -0.015854 -0.070133 
-0.015854 1.9979 -0.763919 
-0.070133 -0.763919 1.02748 
1.57518 -0.0239361 -0.0588502 
-0.0239361 1.98139 -0.763288 
-0.0588502 -0.763288 1.05545 
1.56762 -0.014704 -0.0588833 
-0.014704 0.749023 -0.917785 
-0.0588833 -0.917785 2.29539 
1.55652 -0.00662191 -0.0713272 
-0.00662191 0.787018 -0.917707 
-0.0713272 -0.917707 2.26849 
2.56248 -0.0182101 -0.0395551 
-0.0182101 3.13945 -0.297919 
-0.0395551 -0.297919 1.78442 
2.53832 -0.0278355 -0.0290568 
-0.0278355 3.11653 -0.296815 
-0.0290568 -0.296815 1.8315 
2.52802 -0.0148702 -0.0290721 
-0.0148702 2.59189 -0.714947 
-0.0290721 -0.714947 2.36643 
2.52345 -0.00524477 -0.0402229 
-0.00524477 2.64539 -0.714797 
-0.0402229 -0.714797 2.31751 
2.59207 -0.0175255 -0.0374628 
-0.0175255 3.40215 -0.632433 
-0.0374628 -0.632433 1.49212 
2.53896 -0.0278035 -0.0269646 
-0.0278035 3.38172 -0.631678 
-0.0269646 -0.631678 1.56567 
2.53086 -0.0160924 -0.0266301 
-0.0160924 3.77498 -1.04981 
-0.0266301 -1.04981 1.18051 
2.55376 -0.00581442 -0.037781 
-0.00581442 3.82536 -1.04931 
-0.037781 -1.04931 1.10723 
3.19541 -0.0120059 0.0205829 
-0.0120059 3.63869 0.4336 
0.0205829 0.4336 2.44634 
3.13439 -0.0209315 0.020492 
-0.0209315 3.61593 0.434969 
0.020492 0.434969 2.53011 
3.13052 -0.00888816 0.0207659 
-0.00888816 4.69168 0.182777 
0.0207659 0.182777 1.45823 
3.1654 3.74347e-05 0.0215576 
3.74347e-05 4.74192 0.183152 
0.0215576 0.183152 1.37311 
3.20847 -0.0119994 0.02667 
-0.0119994 3.40498 0.415361 
0.02667 0.415361 2.66698 
3.10931 -0.0202242 0.0265791 
-0.0202242 3.38757 0.416399 
0.0265791 0.416399 2.78355 
3.10592 -0.0099256 0.0271854 
-0.0099256 6.50265 0.164206 
0.0271854 0.164206 -0.328141 
3.17484 -0.0017008 0.0279771 
-0.0017008 6.55044 0.164914 
0.0279771 0.164914 -0.444855 
2.91919 -0.00321787 0.110533 
-0.00321787 3.30593 1.93101 
0.110533 1.93101 2.16437 
2.82214 -0.00796 0.0842799 
-0.00796 3.2926 1.93243 
0.0842799 1.93243 2.27475 
2.82137 -0.00222806 0.0849834 
-0.00222806 6.57956 2.76695 
0.0849834 2.76695 -1.01144 
2.91227 0.00251407 0.113437 
0.00251407 6.59962 2.76727 
0.113437 2.76727 -1.12239 
2.83705 -0.00442872 0.115434 
-0.00442872 1.29946 2.0623 
0.115434 2.0623 4.25298 
2.74493 -0.00697019 0.0891809 
-0.00697019 1.29327 2.06385 
0.0891809 2.06385 4.35129 
2.74336 -0.00298176 0.0897461 
-0.00298176 3.71281 2.89837 
0.0897461 2.89837 1.93332 
2.82108 -0.000440296 0.1182 
-0.000440296 3.73221 2.89856 
0.1182 2.89856 1.8362 
-2.98857 0.030833 0.13658 
0.030833 -1.36426 2.01657 
0.13658 2.01657 -4.3033 
-2.82425 0.0277022 0.115434 
0.0277022 -1.3709 2.01946 
0.115434 2.01946 -4.46099 
-2.81683 0.0166754 0.1182 
0.0166754 -3.78311 2.86608 
0.1182 2.86608 -2.05621 
-2.88579 0.0198062 0.144507 
0.0198062 -3.86918 2.85894 
0.144507 2.85894 -1.90117 
-3.0391 0.0257976 0.1321 
0.0257976 -3.37835 1.87834 
0.1321 1.87834 -2.23869 
-2.89395 0.0278288 0.110954 
0.0278288 -3.37741 1.87929 
0.110954 1.87929 -2.38478 
-2.88265 0.0210555 0.115653 
0.0210555 -6.71645 2.72591 
0.115653 2.72591 0.942959 
-2.96327 0.0190244 0.141961 
0.0190244 -6.77592 2.7207 
0.141961 2.7207 1.08305 
-3.3445 0.0699278 0.0161442 
0.0699278 -3.44012 0.380829 
0.0161442 0.380829 -2.74023 
-3.21378 0.0732546 0.0270911 
0.0732546 -3.44355 0.38042 
0.0270911 0.38042 -2.86752 
-3.16418 0.0550066 0.0301929 
0.0550066 -6.61532 0.132431 
0.0301929 0.132431 0.25465 
-3.16367 0.0516798 0.0241663 
0.0516798 -6.74991 0.128503 
0.0241663 0.128503 0.388725 
-3.2841 0.0653622 0.0203467 
0.0653622 -3.68852 0.379564 
0.0203467 0.379564 -2.55224 
-3.21788 0.0736093 0.0312936 
0.0736093 -3.68929 0.381407 
0.0312936 0.381407 -2.61768 
-3.16868 0.0596981 0.0321433 
0.0596981 -4.83544 0.133418 
0.0321433 0.133418 -1.52073 
-3.12487 0.051451 0.0261167 
0.051451 -4.94798 0.127238 
0.0261167 0.127238 -1.45201 
-2.6291 0.0880209 -0.0346308 
0.0880209 -3.42036 -0.656029 
-0.0346308 -0.656029 -1.61327 
-2.62119 0.091849 -0.0267521 
0.091849 -3.41304 -0.657161 
-0.0267521 -0.657161 -1.62849 
-2.56179 0.0694543 -0.0271953 
0.0694543 -3.88377 -1.07673 
-0.0271953 -1.07673 -1.21717 
-2.42702 0.0656262 -0.0327279 
0.0656262 -4.03335 -1.08182 
-0.0327279 -1.08182 -1.20235 
-2.64722 0.0843484 -0.02397 
0.0843484 -3.16388 -0.340039 
-0.02397 -0.340039 -1.85163 
-2.61238 0.0905226 -0.0160913 
0.0905226 -3.16608 -0.341491 
-0.0160913 -0.341491 -1.88427 
-2.55413 0.0743537 -0.0162129 
0.0743537 -2.69827 -0.76106 
-0.0162129 -0.76106 -2.41034 
-2.45448 0.0681795 -0.0217455 
0.0681795 -2.82953 -0.765833 
-0.0217455 -0.765833 -2.37872 
-1.55787 0.0714867 -0.043295 
0.0714867 -2.01218 -0.776965 
-0.043295 -0.776965 -1.14455 
-1.61572 0.075338 -0.0466692 
0.075338 -1.99612 -0.77974 
-0.0466692 -0.77974 -1.10276 
-1.56451 0.0559758 -0.0473172 
0.0559758 -0.838496 -0.941338 
-0.0473172 -0.941338 -2.3116 
-1.41054 0.0521245 -0.041874 
0.0521245 -0.95232 -0.946588 
-0.041874 -0.946588 -2.35173 
-1.66047 0.0672949 -0.0344293 
0.0672949 -2.18272 -0.444738 
-0.0344293 -0.444738 -0.871411 
-1.6256 0.0732152 -0.0378035 
0.0732152 -2.18194 -0.446884 
-0.0378035 -0.446884 -0.907063 
-1.57659 0.0618782 -0.0390812 
0.0618782 -1.82945 -0.608481 
-0.0390812 -0.608481 -1.30856 
-1.52019 0.055958 -0.033638 
0.055958 -1.92267 -0.614361 
-0.033638 -0.614361 -1.27174 
-0.471377 0.0288698 -0.0427364 
0.0288698 -0.382444 -0.563512 
-0.0427364 -0.563512 -0.713682 
-0.527031 0.0294154 -0.0504869 
0.0294154 -0.36917 -0.565955 
-0.0504869 -0.565955 -0.671301 
-0.506527 0.0191716 -0.0517948 
0.0191716 0.610262 -0.567989 
-0.0517948 -0.567989 -1.67124 
-0.415479 0.018626 -0.040934 
0.018626 0.561901 -0.574231 
-0.040934 -0.574231 -1.71392 
-0.594815 0.0233696 -0.0398644 
0.0233696 -0.999623 -0.438034 
-0.0398644 -0.438034 0.0269358 
-0.552762 0.0270256 -0.0476149 
0.0270256 -1.00311 -0.439982 
-0.0476149 -0.439982 -0.0116291 
-0.535141 0.0254672 -0.0494175 
0.0254672 -1.2907 -0.442016 
-0.0494175 -0.442016 0.258335 
-0.549944 0.0218113 -0.0385566 
0.0218113 -1.31698 -0.448753 
-0.0385566 -0.448753 0.299418 
0.594816 -0.0233696 -0.0398644 
-0.0233696 0.999623 -0.438034 
-0.0398644 -0.438034 -0.0269357 
0.552763 -0.0270256 -0.0476149 
-0.0270256 1.00311 -0.439982 
-0.0476149 -0.439982 0.0116292 
0.535142 -0.0254672 -0.0494175 
-0.0254672 1.2907 -0.442016 
-0.0494175 -0.442016 -0.258335 
0.549944 -0.0218113 -0.0385566 
-0.0218113 1.31698 -0.448753 
-0.0385566 -0.448753 -0.299418 
0.471377 -0.0288698 -0.0427364 
-0.0288698 0.382444 -0.563512 
-0.0427364 -0.563512 0.713682 
0.527031 -0.0294154 -0.0504869 
-0.0294154 0.36917 -0.565955 
-0.0504869 -0.565955 0.671301 
0.506527 -0.0191716 -0.0517948 
-0.0191716 -0.610262 -0.567989 
-0.0517948 -0.567989 1.67124 
0.415479 -0.018626 -0.040934 
-0.018626 -0.561901 -0.574231 
-0.040934 -0.574231 1.71393 
1.66047 -0.0672949 -0.0344293 
-0.0672949 2.18272 -0.444738 
-0.0344293 -0.444738 0.871411 
1.6256 -0.0732152 -0.0378035 
-0.0732152 2.18194 -0.446884 
-0.0378035 -0.446884 0.907063 
1.57659 -0.0618782 -0.0390812 
-0.0618782 1.82945 -0.608481 
-0.0390812 -0.608481 1.30856 
1.52019 -0.055958 -0.033638 
-0.055958 1.92267 -0.614361 
-0.033638 -0.614361 1.27174 
1.55787 -0.0714867 -0.043295 
-0.0714867 2.01218 -0.776965 
-0.043295 -0.776965 1.14455 
1.61572 -0.075338 -0.0466692 
-0.075338 1.99612 -0.77974 
-0.0466692 -0.77974 1.10276 
1.56451 -0.0559758 -0.0473172 
-0.0559758 0.838496 -0.941338 
-0.0473172 -0.941338 2.3116 
1.41054 -0.0521245 -0.041874 
-0.0521245 0.95232 -0.946588 
-0.041874 -0.946588 2.35173 
2.64722 -0.0843484 -0.02397 
-0.0843484 3.16388 -0.340039 
-0.02397 -0.340039 1.85163 
2.61238 -0.0905226 -0.0160913 
-0.0905226 3.16608 -0.341491 
-0.0160913 -0.341491 1.88427 
2.55413 -0.0743537 -0.0162129 
-0.0743537 2.69827 -0.76106 
-0.0162129 -0.76106 2.41034 
2.45448 -0.0681795 -0.0217455 
-0.0681795 2.82953 -0.765833 
-0.0217455 -0.765833 2.37872 
2.6291 -0.0880209 -0.0346308 
-0.0880209 3.42036 -0.656029 
-0.0346308 -0.656029 1.61327 
2.62119 -0.091849 -0.0267521 
-0.091849 3.41304 -0.657161 
-0.0267521 -0.657161 1.62849 
2.56179 -0.0694543 -0.0271953 
-0.0694543 3.88377 -1.07673 
-0.0271953 -1.07673 1.21717 
2.42702 -0.0656262 -0.0327279 
-0.0656262 4.03335 -1.08182 
-0.0327279 -1.08182 1.20235 
3.2841 -0.0653622 0.0203467 
-0.0653622 3.68852 0.379564 
0.0203467 0.379564 2.55224 
3.21788 -0.0736093 0.0312936 
-0.0736093 3.68929 0.381407 
0.0312936 0.381407 2.61768 
3.16868 -0.0596981 0.0321433 
-0.0596981 4.83544 0.133418 
0.0321433 0.133418 1.52073 
3.12487 -0.051451 0.0261167 
-0.051451 4.94798 0.127238 
0.0261167 0.127238 1.45201 
3.3445 -0.0699278 0.0161442 
-0.0699278 3.44012 0.380829 
0.0161442 0.380829 2.74023 
3.21378 -0.0732546 0.0270911 
-0.0732546 3.44355 0.38042 
0.0270911 0.38042 2.86752 
3.16418 -0.0550066 0.0301929 
-0.0550066 6.61532 0.132431 
0.0301929 0.132431 -0.25465 
3.16367 -0.0516798 0.0241663 
-0.0516798 6.74991 0.128503 
0.0241663 0.128503 -0.388725 
3.0391 -0.0257976 0.1321 
-0.0257976 3.37835 1.87834 
0.1321 1.87834 2.23869 
2.89395 -0.0278288 0.110954 
-0.0278288 3.37741 1.87929 
0.110954 1.87929 2.38478 
2.88265 -0.0210555 0.115653 
-0.0210555 6.71645 2.72591 
0.115653 2.72591 -0.942959 
2.96327 -0.0190244 0.141961 
-0.0190244 6.77592 2.7207 
0.141961 2.7207 -1.08305 
2.98857 -0.030833 0.13658 
-0.030833 1.36426 2.01657 
0.13658 2.01657 4.3033 
2.82425 -0.0277022 0.115434 
-0.0277022 1.3709 2.01946 
0.115434 2.01946 4.46099 
2.81683 -0.0166754 0.1182 
-0.0166754 3.78311 2.86608 
0.1182 2.86608 2.05621 
2.88579 -0.0198062 0.144507 
-0.0198062 3.86918 2.85894 
0.144507 2.85894 1.90117 
-3.24078 0.0719927 0.135582 
0.0719927 -1.51635 1.89166 
0.135582 1.89166 -4.33875 
-2.93309 0.0889253 0.13658 
0.0889253 -1.56134 1.89536 
0.13658 1.89536 -4.60145 
-2.84907 0.104976 0.144507 
0.104976 -3.96373 2.75235 
0.144507 2.75235 -2.28308 
-3.17223 0.0880436 0.137627 
0.0880436 -3.90102 2.74723 
0.137627 2.74723 -2.02263 
-3.14042 0.0736507 0.159495 
0.0736507 -3.41881 1.72239 
0.159495 1.72239 -2.53664 
-3.05134 0.0847004 0.160492 
0.0847004 -3.45182 1.7247 
0.160492 1.7247 -2.59271 
-2.93986 0.102177 0.169811 
0.102177 -7.02359 2.58169 
0.169811 2.58169 0.867571 
-3.07303 0.0911269 0.162931 
0.0911269 -6.94252 2.57795 
0.162931 2.57795 0.919673 
-3.44438 0.205825 0.0116207 
0.205825 -3.43464 0.273645 
0.0116207 0.273645 -2.97655 
-3.31993 0.214522 0.0445368 
0.214522 -3.56278 0.275157 
0.0445368 0.275157 -2.97285 
-3.15087 0.22698 0.0520172 
0.22698 -6.87222 0.043589 
0.0520172 0.043589 0.167511 
-3.07694 0.218283 0.000961213 
0.218283 -6.94757 0.0489436 
0.000961213 0.0489436 0.168935 
-3.4378 0.220779 0.0660525 
0.220779 -3.58478 0.227164 
0.0660525 0.227164 -2.833 
-3.40789 0.211336 0.0989686 
0.211336 -3.70019 0.228384 
0.0989686 0.228384 -2.7475 
-3.20665 0.216927 0.106741 
0.216927 -5.09184 -0.00318441 
0.106741 -0.00318441 -1.55708 
-3.02141 0.22637 0.055685 
0.22637 -5.18517 0.00246221 
0.055685 0.00246221 -1.649 
-2.57357 0.260347 0.045055 
0.260347 -3.38528 -0.729847 
0.045055 -0.729847 -1.88675 
-2.6431 0.263541 0.0439911 
0.263541 -3.50518 -0.733937 
0.0439911 -0.733937 -1.69731 
-2.42232 0.267158 0.0478963 
0.267158 -4.11894 -1.13673 
0.0478963 -1.13673 -1.30434 
-2.0942 0.263963 0.022179 
0.263963 -4.26432 -1.12393 
0.022179 -1.12393 -1.48707 
-2.89996 0.282499 0.0925291 
0.282499 -2.98093 -0.45763 
0.0925291 -0.45763 -1.96471 
-2.81512 0.258913 0.0914651 
0.258913 -3.10478 -0.462912 
0.0914651 -0.462912 -1.92569 
-2.56725 0.253821 0.0965618 
0.253821 -2.86886 -0.865706 
0.0965618 -0.865706 -2.40948 
-2.32792 0.277407 0.0708445 
0.277407 -3.05714 -0.851716 
0.0708445 -0.851716 -2.46053 
-1.46565 0.195486 0.0926927 
0.195486 -2.0296 -0.82245 
0.0926927 -0.82245 -1.30672 
-1.545 0.201942 0.0721401 
0.201942 -2.07369 -0.830724 
0.0721401 -0.830724 -1.18328 
-1.39182 0.19417 0.0764333 
0.19417 -1.03472 -0.980755 
0.0764333 -0.980755 -2.37543 
-1.1444 0.187714 0.0741001 
0.187714 -1.1722 -0.968676 
0.0741001 -0.968676 -2.48536 
-1.87992 0.211554 0.113967 
0.211554 -2.01937 -0.523883 
0.113967 -0.523883 -0.90268 
-1.79724 0.195123 0.0934144 
0.195123 -2.07973 -0.528251 
0.0934144 -0.528251 -0.92501 
-1.62243 0.183548 0.0938015 
0.183548 -1.89252 -0.678282 
0.0938015 -0.678282 -1.28702 
-1.47796 0.199978 0.0914683 
0.199978 -2.06329 -0.670109 
0.0914683 -0.670109 -1.26073 
-0.358751 0.0679159 0.10932 
0.0679159 -0.462038 -0.608503 
0.10932 -0.608503 -0.773406 
-0.409737 0.0765166 0.0851073 
0.0765166 -0.460618 -0.614443 
0.0851073 -0.614443 -0.723841 
-0.36737 0.0708795 0.0865055 
0.0708795 0.477307 -0.61165 
0.0865055 -0.61165 -1.70413 
-0.268697 0.0622788 0.0905119 
0.0622788 0.428066 -0.605554 
0.0905119 -0.605554 -1.75356 
-0.752793 0.078722 0.113329 
0.078722 -0.874409 -0.494833 
0.113329 -0.494833 0.0330072 
-0.69511 0.0671161 0.0891156 
0.0671161 -0.897189 -0.499397 
0.0891156 -0.499397 -0.00189595 
-0.629171 0.0613223 0.0891394 
0.0613223 -1.24751 -0.496605 
0.0891394 -0.496605 0.282484 
-0.595947 0.0729282 0.0931458 
0.0729282 -1.32165 -0.491883 
0.0931458 -0.491883 0.3234 
0.752793 -0.078722 0.113329 
-0.078722 0.87441 -0.494833 
0.113329 -0.494833 -0.0330071 
0.69511 -0.0671161 0.0891156 
-0.0671161 0.897189 -0.499397 
0.0891156 -0.499397 0.00189609 
0.629172 -0.0613223 0.0891394 
-0.0613223 1.24751 -0.496605 
0.0891394 -0.496605 -0.282484 
0.595947 -0.0729282 0.0931458 
-0.0729282 1.32165 -0.491883 
0.0931458 -0.491883 -0.3234 
0.358751 -0.0679159 0.10932 
-0.0679159 0.462038 -0.608503 
0.10932 -0.608503 0.773406 
0.409737 -0.0765166 0.0851073 
-0.0765166 0.460618 -0.614443 
0.0851073 -0.614443 0.723841 
0.36737 -0.0708795 0.0865055 
-0.0708795 -0.477306 -0.61165 
0.0865055 -0.61165 1.70413 
0.268697 -0.0622788 0.0905119 
-0.0622788 -0.428066 -0.605554 
0.0905119 -0.605554 1.75356 
1.87992 -0.211554 0.113967 
-0.211554 2.01937 -0.523883 
0.113967 -0.523883 0.90268 
1.79724 -0.195123 0.0934144 
-0.195123 2.07973 -0.528251 
0.0934144 -0.528251 0.92501 
1.62243 -0.183548 0.0938015 
-0.183548 1.89252 -0.678282 
0.0938015 -0.678282 1.28702 
1.47796 -0.199978 0.0914683 
-0.199978 2.06329 -0.670109 
0.0914683 -0.670109 1.26073 
1.46565 -0.195486 0.0926927 
-0.195486 2.0296 -0.82245 
0.0926927 -0.82245 1.30672 
1.545 -0.201942 0.0721401 
-0.201942 2.07369 -0.830724 
0.0721401 -0.830724 1.18328 
1.39182 -0.19417 0.0764333 
-0.19417 1.03472 -0.980755 
0.0764333 -0.980755 2.37543 
1.1444 -0.187714 0.0741001 
-0.187714 1.17221 -0.968676 
0.0741001 -0.968676 2.48536 
2.89996 -0.282499 0.0925291 
-0.282499 2.98093 -0.45763 
0.0925291 -0.45763 1.96471 
2.81512 -0.258913 0.0914651 
-0.258913 3.10478 -0.462912 
0.0914651 -0.462912 1.92569 
2.56725 -0.253821 0.0965618 
-0.253821 2.86886 -0.865706 
0.0965618 -0.865706 2.40948 
2.32792 -0.277407 0.0708445 
-0.277407 3.05714 -0.851716 
0.0708445 -0.851716 2.46053 
2.57357 -0.260347 0.045055 
-0.260347 3.38528 -0.729847 
0.045055 -0.729847 1.88675 
2.6431 -0.263541 0.0439911 
-0.263541 3.50518 -0.733937 
0.0439911 -0.733937 1.69731 
2.42232 -0.267158 0.0478963 
-0.267158 4.11894 -1.13673 
0.0478963 -1.13673 1.30434 
2.0942 -0.263963 0.022179 
-0.263963 4.26432 -1.12393 
0.022179 -1.12393 1.48707 
3.4378 -0.220779 0.0660525 
-0.220779 3.58478 0.227164 
0.0660525 0.227164 2.833 
3.40789 -0.211336 0.0989686 
-0.211336 3.70019 0.228384 
0.0989686 0.228384 2.7475 
3.20665 -0.216927 0.106741 
-0.216927 5.09185 -0.00318441 
0.106741 -0.00318441 1.55708 
3.02141 -0.22637 0.055685 
-0.22637 5.18517 0.00246221 
0.055685 0.00246221 1.649 
3.44438 -0.205825 0.0116207 
-0.205825 3.43464 0.273645 
0.0116207 0.273645 2.97655 
3.31993 -0.214522 0.0445368 
-0.214522 3.56278 0.275157 
0.0445368 0.275157 2.97286 
3.15087 -0.22698 0.0520172 
-0.22698 6.87222 0.043589 
0.0520172 0.043589 -0.167511 
3.07694 -0.218283 0.000961213 
-0.218283 6.94757 0.0489436 
0.000961213 0.0489436 -0.168935 
3.14042 -0.0736507 0.159495 
-0.0736507 3.41881 1.72239 
0.159495 1.72239 2.53664 
3.05134 -0.0847004 0.160492 
-0.0847004 3.45182 1.7247 
0.160492 1.7247 2.59271 
2.93986 -0.102177 0.169811 
-0.102177 7.02359 2.58169 
0.169811 2.58169 -0.867571 
3.07303 -0.0911269 0.162931 
-0.0911269 6.94252 2.57795 
0.162931 2.57795 -0.919672 
3.24078 -0.0719927 0.135582 
-0.0719927 1.51635 1.89166 
0.135582 1.89166 4.33875 
2.93309 -0.0889253 0.13658 
-0.0889253 1.56134 1.89536 
0.13658 1.89536 4.60145 
2.84907 -0.104976 0.144507 
-0.104976 3.96373 2.75235 
0.144507 2.75235 2.28308 
3.17223 -0.0880436 0.137627 
-0.0880436 3.90102 2.74723 
0.137627 2.74723 2.02263 
-3.86024 0.214811 0.0550746 
0.214811 -1.60207 1.58499 
0.0550746 1.58499 -4.48124 
-3.16018 0.198456 0.135582 
0.198456 -1.86497 1.58845 
0.135582 1.58845 -4.9184 
-2.99212 0.236068 0.137627 
0.236068 -4.3587 2.37277 
0.137627 2.37277 -2.59273 
-3.37719 0.252423 0.0677933 
0.252423 -4.42239 2.3595 
0.0677933 2.3595 -2.14397 
-3.25427 0.205553 0.178935 
0.205553 -3.37342 1.4142 
0.178935 1.4142 -3.31586 
-3.35925 0.199872 0.259442 
0.199872 -3.63768 1.42653 
0.259442 1.42653 -2.94662 
-3.18625 0.247291 0.252615 
0.247291 -7.15726 2.21084 
0.252615 2.21084 0.399955 
-2.8239 0.252972 0.182781 
0.252972 -7.17845 2.1887 
0.182781 2.1887 0.0588071 
-3.46344 0.60545 0.0976975 
0.60545 -3.08865 0.101965 
0.0976975 0.101965 -3.67475 
-3.57684 0.567142 0.111568 
0.567142 -3.66032 0.116058 
0.111568 0.116058 -2.98968 
-2.91163 0.706757 0.090645 
0.706757 -7.20303 -0.152229 
0.090645 -0.152229 -0.112184 
-2.38207 0.745065 0.107425 
0.745065 -7.0055 -0.170538 
0.107425 -0.170538 -0.839273 
-3.94383 0.59207 0.291594 
0.59207 -3.20462 0.0291706 
0.291594 0.0291706 -3.0784 
-3.7348 0.584412 0.305465 
0.584412 -3.76408 0.0199918 
0.305465 0.0199918 -2.72796 
-3.12651 0.728244 0.307813 
0.728244 -5.2919 -0.248295 
0.307813 -0.248295 -1.80844 
-2.94261 0.735901 0.324593 
0.735901 -5.06331 -0.243332 
0.324593 -0.243332 -2.22093 
-2.51499 0.664264 0.314828 
0.664264 -2.94178 -0.694614 
0.314828 -0.694614 -2.47384 
-2.68212 0.632057 0.284467 
0.632057 -3.40856 -0.711855 
0.284467 -0.711855 -1.83994 
-2.00494 0.734727 0.274307 
0.734727 -4.45533 -1.11167 
0.274307 -1.11167 -1.47035 
-1.55136 0.766934 0.327482 
0.766934 -4.32485 -1.08178 
0.327482 -1.08178 -2.0544 
-3.38449 0.663166 0.431581 
0.663166 -2.59599 -0.503551 
0.431581 -0.503551 -1.95014 
-3.0223 0.653773 0.40122 
0.653773 -3.05919 -0.507702 
0.40122 -0.507702 -1.84913 
-2.44141 0.743795 0.377969 
0.743795 -3.04062 -0.90752 
0.377969 -0.90752 -2.44859 
-2.42659 0.753188 0.431144 
0.753188 -2.96312 -0.890721 
0.431144 -0.890721 -2.5409 
-1.44975 0.468259 0.431714 
0.468259 -1.75982 -0.731312 
0.431714 -0.731312 -1.60709 
-1.4492 0.437419 0.401384 
0.437419 -1.95544 -0.743699 
0.401384 -0.743699 -1.41203 
-1.0643 0.466304 0.381225 
0.466304 -1.46224 -0.914791 
0.381225 -0.914791 -2.29013 
-0.811392 0.497144 0.439649 
0.497144 -1.5285 -0.893956 
0.439649 -0.893956 -2.47678 
-2.19564 0.450552 0.461298 
0.450552 -1.778 -0.503061 
0.461298 -0.503061 -0.843024 
-1.93502 0.447807 0.430968 
0.447807 -1.99921 -0.503756 
0.430968 -0.503756 -0.88243 
-1.6397 0.468245 0.399117 
0.468245 -1.84219 -0.674848 
0.399117 -0.674848 -1.33477 
-1.59335 0.47099 0.457541 
0.47099 -1.97183 -0.665706 
0.457541 -0.665706 -1.25149 
-0.275196 0.174174 0.455638 
0.174174 -0.40485 -0.541624 
0.455638 -0.541624 -0.916819 
-0.288812 0.152729 0.426322 
0.152729 -0.433243 -0.54687 
0.426322 -0.54687 -0.87481 
-0.1442 0.154399 0.39816 
0.154399 0.08647 -0.589521 
0.39816 -0.589521 -1.53913 
-0.0352005 0.175843 0.458196 
0.175843 0.0516193 -0.583032 
0.458196 -0.583032 -1.61328 
-0.938587 0.145601 0.457298 
0.145601 -0.772711 -0.454342 
0.457298 -0.454342 0.114433 
-0.822349 0.154876 0.427982 
0.154876 -0.847438 -0.456208 
0.427982 -0.456208 0.0729215 
-0.755844 0.155302 0.396441 
0.155302 -0.999355 -0.498859 
0.396441 -0.498859 0.158334 
-0.757862 0.146027 0.456477 
0.146027 -1.0861 -0.49575 
0.456477 -0.49575 0.247097 
0.938587 -0.145601 0.457298 
-0.145601 0.772711 -0.454342 
0.457298 -0.454342 -0.114433 
0.822349 -0.154876 0.427982 
-0.154876 0.847438 -0.456208 
0.427982 -0.456208 -0.0729214 
0.755844 -0.155302 0.396441 
-0.155302 0.999355 -0.498859 
0.396441 -0.498859 -0.158334 
0.757862 -0.146027 0.456477 
-0.146027 1.0861 -0.49575 
0.456477 -0.49575 -0.247097 
0.275196 -0.174174 0.455638 
-0.174174 0.40485 -0.541624 
0.455638 -0.541624 0.916819 
0.288812 -0.152729 0.426322 
-0.152729 0.433243 -0.54687 
0.426322 -0.54687 0.87481 
0.1442 -0.154399 0.39816 
-0.154399 -0.0864698 -0.589521 
0.39816 -0.589521 1.53914 
0.0352006 -0.175843 0.458196 
-0.175843 -0.0516192 -0.583032 
0.458196 -0.583032 1.61328 
2.19564 -0.450552 0.461298 
-0.450552 1.778 -0.503061 
0.461298 -0.503061 0.843024 
1.93502 -0.447807 0.430968 
-0.447807 1.99921 -0.503756 
0.430968 -0.503756 0.88243 
1.6397 -0.468245 0.399117 
-0.468245 1.84219 -0.674848 
0.399117 -0.674848 1.33477 
1.59335 -0.47099 0.457541 
-0.47099 1.97183 -0.665706 
0.457541 -0.665706 1.25149 
1.44975 -0.468259 0.431714 
-0.468259 1.75982 -0.731312 
0.431714 -0.731312 1.60709 
1.4492 -0.437419 0.401384 
-0.437419 1.95544 -0.743699 
0.401384 -0.743699 1.41203 
1.0643 -0.466304 0.381225 
-0.466304 1.46224 -0.914791 
0.381225 -0.914791 2.29013 
0.811392 -0.497144 0.439649 
-0.497144 1.5285 -0.893956 
0.439649 -0.893956 2.47678 
3.38449 -0.663166 0.431581 
-0.663166 2.59599 -0.503551 
0.431581 -0.503551 1.95014 
3.0223 -0.653773 0.40122 
-0.653773 3.05919 -0.507702 
0.40122 -0.507702 1.84913 
2.44141 -0.743795 0.377969 
-0.743795 3.04062 -0.90752 
0.377969 -0.90752 2.44859 
2.42659 -0.753188 0.431144 
-0.753188 2.96312 -0.890721 
0.431144 -0.890721 2.5409 
2.51499 -0.664264 0.314828 
-0.664264 2.94178 -0.694614 
0.314828 -0.694614 2.47384 
2.68212 -0.632057 0.284467 
-0.632057 3.40856 -0.711855 
0.284467 -0.711855 1.83994 
2.00494 -0.734727 0.274307 
-0.734727 4.45533 -1.11167 
0.274307 -1.11167 1.47035 
1.55136 -0.766934 0.327482 
-0.766934 4.32485 -1.08178 
0.327482 -1.08178 2.0544 
3.94383 -0.59207 0.291594 
-0.59207 3.20462 0.0291706 
0.291594 0.0291706 3.0784 
3.7348 -0.584412 0.305465 
-0.584412 3.76408 0.0199918 
0.305465 0.0199918 2.72796 
3.12651 -0.728244 0.307813 
-0.728244 5.2919 -0.248295 
0.307813 -0.248295 1.80844 
2.94261 -0.735901 0.324593 
-0.735901 5.06331 -0.243332 
0.324593 -0.243332 2.22093 
3.46344 -0.60545 0.0976975 
-0.60545 3.08866 0.101965 
0.0976975 0.101965 3.67475 
3.57685 -0.567142 0.111568 
-0.567142 3.66032 0.116058 
0.111568 0.116058 2.98968 
2.91163 -0.706757 0.090645 
-0.706757 7.20303 -0.152229 
0.090645 -0.152229 0.112184 
2.38207 -0.745065 0.107425 
-0.745065 7.0055 -0.170538 
0.107425 -0.170538 0.839273 
3.25427 -0.205553 0.178935 
-0.205553 3.37342 1.4142 
0.178935 1.4142 3.31586 
3.35925 -0.199872 0.259442 
-0.199872 3.63768 1.42653 
0.259442 1.42653 2.94662 
3.18625 -0.247291 0.252615 
-0.247291 7.15726 2.21084 
0.252615 2.21084 -0.399955 
2.8239 -0.252972 0.182781 
-0.252972 7.17845 2.1887 
0.182781 2.1887 -0.0588069 
3.86024 -0.214811 0.0550746 
-0.214811 1.60207 1.58499 
0.0550746 1.58499 4.48124 
3.16018 -0.198456 0.135582 
-0.198456 1.86497 1.58845 
0.135582 1.58845 4.9184 
2.99212 -0.236068 0.137627 
-0.236068 4.3587 2.37277 
0.137627 2.37277 2.59273 
3.37719 -0.252423 0.0677933 
-0.252423 4.42239 2.3595 
0.0677933 2.3595 2.14397 
-4.49708 0.741067 3.25555e-11 
0.741067 -1.54774 0.73188 
3.25555e-11 0.73188 -4.50277 
-3.86096 0.736091 0.0550746 
0.736091 -2.61411 0.718348 
0.0550746 0.718348 -4.07251 
-2.51562 1.11922 0.0677933 
1.11922 -5.23723 1.19522 
0.0677933 1.19522 -2.79474 
-3.23216 1.1242 -7.72718e-11 
1.1242 -4.06843 1.15914 
-7.72718e-11 1.15914 -3.247 
-3.82045 0.727535 0.328548 
0.727535 -2.30269 0.641696 
0.328548 0.641696 -4.42446 
-4.09399 0.709841 0.383623 
0.709841 -3.43788 0.605377 
0.383623 0.605377 -3.01573 
-2.70704 1.14258 0.419128 
1.14258 -7.04912 1.08225 
0.419128 1.08225 -0.791437 
-2.54025 1.16028 0.351335 
1.16028 -5.72727 1.06896 
0.351335 1.06896 -2.28007 
-3.70931 1.42167 0.328548 
1.42167 -2.02499 -0.0676903 
0.328548 -0.0676903 -4.45443 
-3.84916 1.4271 0.302385 
1.4271 -3.72541 -0.0475678 
0.302385 -0.0475678 -2.61417 
-2.01889 2.00529 0.343772 
2.00529 -6.71919 -0.142573 
0.343772 -0.142573 -1.45065 
-2.00116 1.99986 0.351335 
1.99986 -4.96241 -0.242299 
0.351335 -0.242299 -3.22516 
-4.75419 1.46458 0.810752 
1.46458 -1.85789 -0.123229 
0.810752 -0.123229 -3.57665 
-4.31474 1.45141 0.784589 
1.45141 -3.50417 -0.152314 
0.784589 -0.152314 -2.36983 
-2.38653 2.1092 0.875184 
2.1092 -5.97241 -0.247319 
0.875184 -0.247319 -1.82979 
-3.06081 2.12237 0.882746 
2.12237 -3.80551 -0.297837 
0.882746 -0.297837 -3.32242 
-2.68016 1.29556 0.810752 
1.29556 -1.97368 -0.379549 
0.810752 -0.379549 -3.21381 
-2.55523 1.29634 0.807823 
1.29634 -3.12643 -0.427312 
0.807823 -0.427312 -2.18599 
-1.45543 1.59132 0.878073 
1.59132 -4.12801 -0.577401 
0.878073 -0.577401 -2.28422 
-1.36218 1.59053 0.882746 
1.59053 -3.44782 -0.512619 
0.882746 -0.512619 -3.05766 
-4.00677 1.31979 1.06411 
1.31979 -1.6534 -0.339713 
1.06411 -0.339713 -2.20748 
-3.35318 1.32232 1.06119 
1.32232 -2.69888 -0.314797 
1.06119 -0.314797 -1.81559 
-2.27993 1.60027 1.05876 
1.60027 -3.61517 -0.464886 
1.05876 -0.464886 -1.97255 
-2.67004 1.59775 1.06343 
1.59775 -2.90382 -0.472783 
1.06343 -0.472783 -2.29379 
-1.3917 0.842405 1.06411 
0.842405 -1.38849 -0.397571 
1.06411 -0.397571 -2.0018 
-1.21762 0.844322 1.06132 
0.844322 -1.80271 -0.410377 
1.06132 -0.410377 -1.76166 
-0.705704 0.933501 1.06726 
0.933501 -1.77795 -0.45507 
1.06726 -0.45507 -2.29834 
-0.612411 0.931583 1.06343 
0.931583 -1.63784 -0.416816 
1.06343 -0.416816 -2.53174 
-2.66118 0.828914 1.1177 
0.828914 -1.17857 -0.314448 
1.1177 -0.314448 -0.942236 
-2.23918 0.824205 1.1149 
0.824205 -1.60507 -0.294483 
1.1149 -0.294483 -0.937735 
-1.71508 0.887936 1.08807 
0.887936 -2.00865 -0.339175 
1.08807 -0.339175 -1.05826 
-1.86444 0.892646 1.08424 
0.892646 -1.99461 -0.333693 
1.08424 -0.333693 -0.922942 
-0.0825989 0.296423 1.1177 
0.296423 -0.501768 -0.310686 
1.1177 -0.310686 -0.998968 
-0.00600936 0.301624 1.10924 
0.301624 -0.548555 -0.307352 
1.10924 -0.307352 -1.02877 
0.122304 0.31532 1.08873 
0.31532 -0.286675 -0.286754 
1.08873 -0.286754 -1.41896 
0.159514 0.310119 1.08424 
0.310119 -0.24863 -0.280721 
1.08424 -0.280721 -1.49422 
-1.24701 0.266301 1.11606 
0.266301 -0.407142 -0.275154 
1.11606 -0.275154 0.0708167 
-1.11653 0.258559 1.10761 
0.258559 -0.537451 -0.265094 
1.10761 -0.265094 0.0706435 
-0.943642 0.262888 1.08037 
0.262888 -0.834374 -0.244496 
1.08037 -0.244496 0.194681 
-0.991587 0.27063 1.07588 
0.27063 -0.92174 -0.245189 
1.07588 -0.245189 0.329993 
1.24701 -0.266301 1.11606 
-0.266301 0.407142 -0.275154 
1.11606 -0.275154 -0.0708165 
1.11653 -0.258559 1.10761 
-0.258559 0.537452 -0.265094 
1.10761 -0.265094 -0.0706433 
0.943642 -0.262888 1.08037 
-0.262888 0.834374 -0.244496 
1.08037 -0.244496 -0.194681 
0.991588 -0.27063 1.07588 
-0.27063 0.92174 -0.245189 
1.07588 -0.245189 -0.329993 
0.082599 -0.296423 1.1177 
-0.296423 0.501768 -0.310686 
1.1177 -0.310686 0.998968 
0.0060095 -0.301624 1.10924 
-0.301624 0.548555 -0.307352 
1.10924 -0.307352 1.02877 
-0.122304 -0.31532 1.08873 
-0.31532 0.286675 -0.286754 
1.08873 -0.286754 1.41896 
-0.159514 -0.310119 1.08424 
-0.310119 0.24863 -0.280721 
1.08424 -0.280721 1.49422 
2.66118 -0.828914 1.1177 
-0.828914 1.17857 -0.314448 
1.1177 -0.314448 0.942236 
2.23918 -0.824205 1.1149 
-0.824205 1.60507 -0.294483 
1.1149 -0.294483 0.937735 
1.71508 -0.887936 1.08807 
-0.887936 2.00865 -0.339175 
1.08807 -0.339175 1.05826 
1.86444 -0.892646 1.08424 
-0.892646 1.99461 -0.333693 
1.08424 -0.333693 0.922942 
1.3917 -0.842405 1.06411 
-0.842405 1.38849 -0.397571 
1.06411 -0.397571 2.0018 
1.21762 -0.844322 1.06132 
-0.844322 1.80271 -0.410377 
1.06132 -0.410377 1.76166 
0.705705 -0.933501 1.06726 
-0.933501 1.77795 -0.45507 
1.06726 -0.45507 2.29834 
0.612411 -0.931583 1.06343 
-0.931583 1.63784 -0.416816 
1.06343 -0.416816 2.53174 
4.00677 -1.31979 1.06411 
-1.31979 1.6534 -0.339713 
1.06411 -0.339713 2.20748 
3.35318 -1.32232 1.06119 
-1.32232 2.69888 -0.314797 
1.06119 -0.314797 1.81559 
2.27993 -1.60027 1.05876 
-1.60027 3.61517 -0.464886 
1.05876 -0.464886 1.97255 
2.67004 -1.59775 1.06343 
-1.59775 2.90382 -0.472783 
1.06343 -0.472783 2.29379 
2.68016 -1.29556 0.810752 
-1.29556 1.97368 -0.379549 
0.810752 -0.379549 3.21381 
2.55523 -1.29634 0.807823 
-1.29634 3.12643 -0.427312 
0.807823 -0.427312 2.186 
1.45543 -1.59132 0.878073 
-1.59132 4.12801 -0.577401 
0.878073 -0.577401 2.28422 
1.36218 -1.59053 0.882746 
-1.59053 3.44782 -0.512619 
0.882746 -0.512619 3.05766 
4.75419 -1.46458 0.810752 
-1.46458 1.85789 -0.123229 
0.810752 -0.123229 3.57665 
4.31474 -1.45141 0.784589 
-1.45141 3.50417 -0.152314 
0.784589 -0.152314 2.36983 
2.38653 -2.1092 0.875184 
-2.1092 5.97241 -0.247319 
0.875184 -0.247319 1.82979 
3.06081 -2.12237 0.882746 
-2.12237 3.80551 -0.297837 
0.882746 -0.297837 3.32242 
3.70931 -1.42167 0.328548 
-1.42167 2.02499 -0.0676903 
0.328548 -0.0676903 4.45443 
3.84916 -1.4271 0.302385 
-1.4271 3.72541 -0.0475678 
0.302385 -0.0475678 2.61417 
2.01889 -2.00529 0.343772 
-2.00529 6.71919 -0.142573 
0.343772 -0.142573 1.45065 
2.00116 -1.99986 0.351335 
-1.99986 4.96241 -0.242299 
0.351335 -0.242299 3.22516 
3.82045 -0.727535 0.328548 
-0.727535 2.30269 0.641696 
0.328548 0.641696 4.42446 
4.09399 -0.709841 0.383623 
-0.709841 3.43788 0.605377 
0.383623 0.605377 3.01573 
2.70704 -1.14258 0.419128 
-1.14258 7.04912 1.08225 
0.419128 1.08225 0.791437 
2.54025 -1.16028 0.351335 
-1.16028 5.72727 1.06896 
0.351335 1.06896 2.28007 
4.49708 -0.741067 3.25555e-11 
-0.741067 1.54774 0.73188 
3.25555e-11 0.73188 4.50277 
3.86096 -0.736091 0.0550746 
-0.736091 2.61411 0.718348 
0.0550746 0.718348 4.07251 
2.51562 -1.11922 0.0677933 
-1.11922 5.23723 1.19522 
0.0677933 1.19522 2.79474 
3.23216 -1.1242 -7.72718e-11 
-1.1242 4.06843 1.15914 
-7.72718e-11 1.15914 3.247 
-1.2617 -0.000328504 0.0110061 
-0.000328504 -0.342349 1.45631 
0.0110061 1.45631 -2.1936 
-1.25947 4.98979e-07 5.7821e-11 
4.98979e-07 -0.342086 1.4563 
5.7821e-11 1.4563 -2.1961 
-1.26044 -7.09204e-05 7.81751e-11 
-7.09204e-05 -1.72895 2.08257 
7.81751e-11 2.08257 -0.808265 
-1.26282 -0.000399923 0.0109724 
-0.000399923 -1.72905 2.08259 
0.0109724 2.08259 -0.805787 
-1.29587 -0.000301385 0.0104696 
-0.000301385 -1.88049 1.35574 
0.0104696 1.35574 -0.621293 
-1.28996 -6.1219e-06 -0.000536533 
-6.1219e-06 -1.88023 1.35572 
-0.000536533 1.35572 -0.627465 
-1.29092 -9.37113e-05 -0.000517782 
-9.37113e-05 -3.87873 1.98198 
-0.000517782 1.98198 1.37199 
-1.29685 -0.000388974 0.0104546 
-0.000388974 -3.8789 1.98203 
0.0104546 1.98203 1.3781 
-1.63925 -0.000843426 0.00467669 
-0.000843426 -1.9169 0.432266 
0.00467669 0.432266 -1.29315 
-1.63329 -2.09041e-05 -0.000536533 
-2.09041e-05 -1.91638 0.432247 
-0.000536533 0.432247 -1.29963 
-1.63572 -0.000179295 -0.000517782 
-0.000179295 -3.94691 0.461048 
-0.000517782 0.461048 0.733325 
-1.64206 -0.00100182 0.00467522 
-0.00100182 -3.94712 0.461073 
0.00467522 0.461073 0.739868 
-1.65279 -0.000823218 0.00365925 
-0.000823218 -2.30186 0.340242 
0.00365925 0.340242 -0.894659 
-1.64573 -2.09145e-05 -0.00155398 
-2.09145e-05 -2.30133 0.340239 
-0.00155398 0.340239 -0.902246 
-1.64815 -0.000186122 -0.00155088 
-0.000186122 -3.67619 0.369039 
-0.00155088 0.369039 0.475038 
-1.65552 -0.000988425 0.00364212 
-0.000988425 -3.67642 0.369049 
0.00364212 0.369049 0.482631 
-1.48554 -0.00097794 -0.00271893 
-0.00097794 -2.27456 -0.46141 
-0.00271893 -0.46141 -0.582818 
-1.47876 -2.44715e-05 -0.00155398 
-2.44715e-05 -2.27406 -0.461409 
-0.00155398 -0.461409 -0.590102 
-1.48159 -0.000189717 -0.00155088 
-0.000189717 -3.42411 -0.709677 
-0.00155088 -0.709677 0.562771 
-1.48878 -0.00114319 -0.00269341 
-0.00114319 -3.42422 -0.709683 
-0.00269341 -0.709683 0.570077 
-1.4762 -0.00099651 -0.00375006 
-0.00099651 -2.05596 -0.413606 
-0.00375006 -0.413606 -0.810762 
-1.47049 -2.06149e-05 -0.00258511 
-2.06149e-05 -2.05544 -0.413588 
-0.00258511 -0.413588 -0.816988 
-1.47333 -0.000180637 -0.00259846 
-0.000180637 -2.46903 -0.661857 
-0.00259846 -0.661857 -0.40056 
-1.47953 -0.00115653 -0.00374098 
-0.00115653 -2.46911 -0.661879 
-0.00374098 -0.661879 -0.394282 
-0.998864 -0.000736715 -0.0087981 
-0.000736715 -1.68357 -0.903163 
-0.0087981 -0.903163 -0.19808 
-0.993584 -1.62021e-05 -0.00258511 
-1.62021e-05 -1.68323 -0.903142 
-0.00258511 -0.903142 -0.203702 
-0.995742 -0.000138542 -0.00259846 
-0.000138542 -1.72549 -1.14292 
-0.00259846 -1.14292 -0.159278 
-1.00129 -0.000859055 -0.00875409 
-0.000859055 -1.72554 -1.14296 
-0.00875409 -1.14296 -0.153685 
-0.97177 -0.000785807 -0.00950812 
-0.000785807 -1.37867 -0.784436 
-0.00950812 -0.784436 -0.530076 
-0.968529 -7.93739e-06 -0.00329513 
-7.93739e-06 -1.37831 -0.784404 
-0.00329513 -0.784404 -0.53367 
-0.970719 -0.00011592 -0.00331852 
-0.00011592 -1.47096 -1.02418 
-0.00331852 -1.02418 -0.438836 
-0.974419 -0.000893789 -0.00947416 
-0.000893789 -1.47093 -1.02423 
-0.00947416 -1.02423 -0.435167 
-0.359524 -0.000250061 -0.0122308 
-0.000250061 -0.639556 -0.993684 
-0.0122308 -0.993684 0.00322202 
-0.356845 -8.22284e-06 -0.00329513 
-8.22284e-06 -0.639441 -0.99365 
-0.00329513 -0.99365 0.00042815 
-0.357629 -5.90493e-05 -0.00331852 
-5.90493e-05 -0.297653 -1.17004 
-0.00331852 -1.17004 -0.340577 
-0.36032 -0.000300888 -0.0121795 
-0.000300888 -0.297693 -1.17009 
-0.0121795 -1.17009 -0.337846 
-0.322945 -0.00031418 -0.0124799 
-0.00031418 -0.442825 -0.93662 
-0.0124799 -0.93662 -0.230088 
-0.32264 2.28458e-06 -0.00354425 
2.28458e-06 -0.442698 -0.936583 
-0.00354425 -0.936583 -0.23052 
-0.323466 -2.94835e-05 -0.00357089 
-2.94835e-05 -0.664939 -1.11297 
-0.00357089 -1.11297 -0.0074532 
-0.324033 -0.000345948 -0.0124319 
-0.000345948 -0.664882 -1.11303 
-0.0124319 -1.11303 -0.00694326 
0.322945 0.00031418 -0.0124799 
0.00031418 0.442825 -0.93662 
-0.0124799 -0.93662 0.230088 
0.32264 -2.28458e-06 -0.00354425 
-2.28458e-06 0.442698 -0.936583 
-0.00354425 -0.936583 0.23052 
0.323466 2.94835e-05 -0.00357089 
2.94835e-05 0.66494 -1.11297 
-0.00357089 -1.11297 0.00745334 
0.324033 0.000345948 -0.0124319 
0.000345948 0.664882 -1.11303 
-0.0124319 -1.11303 0.0069434 
0.359524 0.000250061 -0.0122308 
0.000250061 0.639556 -0.993684 
-0.0122308 -0.993684 -0.00322188 
0.356846 8.22284e-06 -0.00329513 
8.22284e-06 0.639441 -0.99365 
-0.00329513 -0.99365 -0.000428009 
0.357629 5.90493e-05 -0.00331852 
5.90493e-05 0.297653 -1.17004 
-0.00331852 -1.17004 0.340577 
0.36032 0.000300888 -0.0121795 
0.000300888 0.297693 -1.17009 
-0.0121795 -1.17009 0.337846 
0.97177 0.000785807 -0.00950812 
0.000785807 1.37867 -0.784436 
-0.00950812 -0.784436 0.530076 
0.968529 7.93739e-06 -0.00329513 
7.93739e-06 1.37831 -0.784404 
-0.00329513 -0.784404 0.53367 
0.97072 0.00011592 -0.00331852 
0.00011592 1.47096 -1.02418 
-0.00331852 -1.02418 0.438836 
0.974419 0.000893789 -0.00947416 
0.000893789 1.47093 -1.02423 
-0.00947416 -1.02423 0.435167 
0.998864 0.000736715 -0.0087981 
0.000736715 1.68357 -0.903163 
-0.0087981 -0.903163 0.19808 
0.993584 1.62021e-05 -0.00258511 
1.62021e-05 1.68323 -0.903142 
-0.00258511 -0.903142 0.203702 
0.995742 0.000138542 -0.00259846 
0.000138542 1.72549 -1.14292 
-0.00259846 -1.14292 0.159278 
1.00129 0.000859055 -0.00875409 
0.000859055 1.72554 -1.14296 
-0.00875409 -1.14296 0.153685 
1.4762 0.00099651 -0.00375006 
0.00099651 2.05596 -0.413606 
-0.00375006 -0.413606 0.810762 
1.47049 2.06149e-05 -0.00258511 
2.06149e-05 2.05544 -0.413588 
-0.00258511 -0.413588 0.816988 
1.47333 0.000180637 -0.00259846 
0.000180637 2.46903 -0.661857 
-0.00259846 -0.661857 0.40056 
1.47953 0.00115653 -0.00374098 
0.00115653 2.46911 -0.661879 
-0.00374098 -0.661879 0.394282 
1.48554 0.00097794 -0.00271893 
0.00097794 2.27456 -0.46141 
-0.00271893 -0.46141 0.582818 
1.47876 2.44715e-05 -0.00155398 
2.44715e-05 2.27406 -0.461409 
-0.00155398 -0.461409 0.590103 
1.48159 0.000189717 -0.00155088 
0.000189717 3.42411 -0.709677 
-0.00155088 -0.709677 -0.562771 
1.48878 0.00114319 -0.00269341 
0.00114319 3.42422 -0.709683 
-0.00269341 -0.709683 -0.570076 
1.65279 0.000823218 0.00365925 
0.000823218 2.30186 0.340242 
0.00365925 0.340242 0.894659 
1.64573 2.09145e-05 -0.00155398 
2.09145e-05 2.30133 0.340239 
-0.00155398 0.340239 0.902246 
1.64815 0.000186122 -0.00155088 
0.000186122 3.67619 0.369039 
-0.00155088 0.369039 -0.475038 
1.65552 0.000988425 0.00364212 
0.000988425 3.67642 0.369049 
0.00364212 0.369049 -0.48263 
1.63925 0.000843426 0.00467669 
0.000843426 1.9169 0.432266 
0.00467669 0.432266 1.29315 
1.63329 2.09041e-05 -0.000536533 
2.09041e-05 1.91638 0.432247 
-0.000536533 0.432247 1.29963 
1.63572 0.000179295 -0.000517782 
0.000179295 3.94691 0.461048 
-0.000517782 0.461048 -0.733325 
1.64206 0.00100182 0.00467522 
0.00100182 3.94712 0.461073 
0.00467522 0.461073 -0.739868 
1.29587 0.000301385 0.0104696 
0.000301385 1.88049 1.35574 
0.0104696 1.35574 0.621294 
1.28996 6.1219e-06 -0.000536533 
6.1219e-06 1.88023 1.35572 
-0.000536533 1.35572 0.627465 
1.29092 9.37113e-05 -0.000517782 
9.37113e-05 3.87873 1.98198 
-0.000517782 1.98198 -1.37199 
1.29685 0.000388974 0.0104546 
0.000388974 3.8789 1.98203 
0.0104546 1.98203 -1.3781 
1.2617 0.000328504 0.0110061 
0.000328504 0.342349 1.45631 
0.0110061 1.45631 2.19361 
1.25947 -4.98979e-07 5.7821e-11 
-4.98979e-07 0.342086 1.4563 
5.7821e-11 1.4563 2.1961 
1.26044 7.09204e-05 7.81751e-11 
7.09204e-05 1.72895 2.08257 
7.81751e-11 2.08257 0.808265 
1.26282 0.000399923 0.0109724 
0.000399923 1.72905 2.08259 
0.0109724 2.08259 0.805787 
-1.26764 -0.000716778 0.0235107 
-0.000716778 -0.346504 1.4563 
0.0235107 1.4563 -2.19536 
-1.26003 -0.00025613 0.0110061 
-0.00025613 -0.345678 1.45629 
0.0110061 1.45629 -2.2038 
-1.26111 -0.000488359 0.0109724 
-0.000488359 -1.73257 2.08284 
0.0109724 2.08284 -0.815819 
-1.26907 -0.000949007 0.0234589 
-0.000949007 -1.73298 2.0829 
0.0234589 2.0829 -0.807449 
-1.30978 -0.000677592 0.0219234 
-0.000677592 -1.88507 1.35557 
0.0219234 1.35557 -0.61465 
-1.29148 -0.000235016 0.00941874 
-0.000235016 -1.88422 1.35549 
0.00941874 1.35549 -0.633803 
-1.29268 -0.000521016 0.00944667 
-0.000521016 -3.88368 1.98204 
0.00944667 1.98204 1.36686 
-1.311 -0.000963592 0.0219332 
-0.000963592 -3.88431 1.98217 
0.0219332 1.98217 1.38581 
-1.65298 -0.00187726 0.0091547 
-0.00187726 -1.92259 0.432088 
0.0091547 0.432088 -1.28851 
-1.63464 -0.000692439 0.00362585 
-0.000692439 -1.92091 0.432032 
0.00362585 0.432032 -1.30852 
-1.63735 -0.00121693 0.0036673 
-0.00121693 -3.95239 0.460902 
0.0036673 0.460902 0.725664 
-1.65667 -0.00240175 0.00918603 
-0.00240175 -3.95329 0.460981 
0.00918603 0.460981 0.745884 
-1.66846 -0.00184145 0.00619636 
-0.00184145 -2.3077 0.339587 
0.00619636 0.339587 -0.887916 
-1.6473 -0.00066676 0.000667505 
-0.00066676 -2.30598 0.339583 
0.000667505 0.339583 -0.910798 
-1.65008 -0.00121366 0.00065626 
-0.00121366 -3.68215 0.368454 
0.00065626 0.368454 0.468157 
-1.67203 -0.00238835 0.00617499 
-0.00238835 -3.6831 0.368479 
0.00617499 0.368479 0.491063 
-1.50007 -0.00216714 -0.00726729 
-0.00216714 -2.27988 -0.462081 
-0.00726729 -0.462081 -0.576478 
-1.47994 -0.000779499 -0.00571067 
-0.000779499 -2.27821 -0.462078 
-0.00571067 -0.462078 -0.598283 
-1.4831 -0.00133566 -0.00567927 
-0.00133566 -3.42951 -0.710396 
-0.00567927 -0.710396 0.556179 
-1.50431 -0.00272331 -0.0072056 
-0.00272331 -3.43017 -0.710417 
-0.0072056 -0.710417 0.578049 
-1.48893 -0.00220809 -0.010208 
-0.00220809 -2.06134 -0.414809 
-0.010208 -0.414809 -0.806155 
-1.47213 -0.000790148 -0.00865137 
-0.000790148 -2.05965 -0.414752 
-0.00865137 -0.414752 -0.824647 
-1.47524 -0.00132788 -0.00867352 
-0.00132788 -2.47445 -0.66307 
-0.00867352 -0.66307 -0.406732 
-1.49335 -0.00274581 -0.0101999 
-0.00274581 -2.47501 -0.663145 
-0.0101999 -0.663145 -0.388066 
-1.0095 -0.00162101 -0.0205949 
-0.00162101 -1.68724 -0.904345 
-0.0205949 -0.904345 -0.193039 
-0.994243 -0.000561067 -0.0136994 
-0.000561067 -1.68609 -0.904281 
-0.0136994 -0.904281 -0.209448 
-0.996693 -0.000977904 -0.0136866 
-0.000977904 -1.72939 -1.14418 
-0.0136866 -1.14418 -0.163698 
-1.01261 -0.00203784 -0.0205243 
-0.00203784 -1.72978 -1.14429 
-0.0205243 -1.14429 -0.147389 
-0.979432 -0.00171648 -0.0225845 
-0.00171648 -1.38237 -0.786014 
-0.0225845 -0.786014 -0.527978 
-0.969936 -0.000598741 -0.015689 
-0.000598741 -1.3812 -0.785918 
-0.015689 -0.785918 -0.538637 
-0.972225 -0.000965392 -0.0157075 
-0.000965392 -1.47464 -1.02582 
-0.0157075 -1.02582 -0.442914 
-0.982968 -0.00208313 -0.0225452 
-0.00208313 -1.47479 -1.02596 
-0.0225452 -1.02596 -0.432015 
-0.364229 -0.000553726 -0.0281 
-0.000553726 -0.640863 -0.995229 
-0.0281 -0.995229 0.00595682 
-0.356728 -0.000182641 -0.0184117 
-0.000182641 -0.640455 -0.99513 
-0.0184117 -0.99513 -0.00195225 
-0.357706 -0.000357404 -0.0184129 
-0.000357404 -0.299166 -1.17167 
-0.0184129 -1.17167 -0.342264 
-0.365195 -0.000728489 -0.0280322 
-0.000728489 -0.299384 -1.17184 
-0.0280322 -1.17184 -0.334556 
-0.324595 -0.000674213 -0.0287907 
-0.000674213 -0.444129 -0.938311 
-0.0287907 -0.938311 -0.230411 
-0.323515 -0.000234147 -0.0191024 
-0.000234147 -0.443723 -0.938202 
-0.0191024 -0.938202 -0.231897 
-0.324276 -0.000342142 -0.0191136 
-0.000342142 -0.66613 -1.11475 
-0.0191136 -1.11475 -0.00872948 
-0.326087 -0.000782208 -0.0287329 
-0.000782208 -0.666051 -1.11492 
-0.0287329 -1.11492 -0.00699743 
0.324595 0.000674213 -0.0287907 
0.000674213 0.44413 -0.938311 
-0.0287907 -0.938311 0.230411 
0.323515 0.000234147 -0.0191024 
0.000234147 0.443723 -0.938202 
-0.0191024 -0.938202 0.231897 
0.324276 0.000342142 -0.0191136 
0.000342142 0.66613 -1.11475 
-0.0191136 -1.11475 0.00872962 
0.326087 0.000782208 -0.0287329 
0.000782208 0.666051 -1.11492 
-0.0287329 -1.11492 0.00699757 
0.364229 0.000553726 -0.0281 
0.000553726 0.640863 -0.995229 
-0.0281 -0.995229 -0.00595668 
0.356728 0.000182641 -0.0184117 
0.000182641 0.640455 -0.99513 
-0.0184117 -0.99513 0.00195239 
0.357706 0.000357404 -0.0184129 
0.000357404 0.299166 -1.17167 
-0.0184129 -1.17167 0.342264 
0.365196 0.000728489 -0.0280322 
0.000728489 0.299384 -1.17184 
-0.0280322 -1.17184 0.334556 
0.979432 0.00171648 -0.0225845 
0.00171648 1.38237 -0.786014 
-0.0225845 -0.786014 0.527978 
0.969936 0.000598741 -0.015689 
0.000598741 1.3812 -0.785918 
-0.015689 -0.785918 0.538637 
0.972225 0.000965392 -0.0157075 
0.000965392 1.47464 -1.02582 
-0.0157075 -1.02582 0.442914 
0.982968 0.00208313 -0.0225452 
0.00208313 1.47479 -1.02596 
-0.0225452 -1.02596 0.432016 
1.0095 0.00162101 -0.0205949 
0.00162101 1.68724 -0.904345 
-0.0205949 -0.904345 0.193039 
0.994243 0.000561067 -0.0136994 
0.000561067 1.68609 -0.904281 
-0.0136994 -0.904281 0.209448 
0.996693 0.000977904 -0.0136866 
0.000977904 1.72939 -1.14418 
-0.0136866 -1.14418 0.163698 
1.01261 0.00203784 -0.0205243 
0.00203784 1.72978 -1.14429 
-0.0205243 -1.14429 0.147389 
1.48893 0.00220809 -0.010208 
0.00220809 2.06134 -0.414809 
-0.010208 -0.414809 0.806155 
1.47213 0.000790148 -0.00865137 
0.000790148 2.05965 -0.414752 
-0.00865137 -0.414752 0.824647 
1.47524 0.00132788 -0.00867352 
0.00132788 2.47445 -0.66307 
-0.00867352 -0.66307 0.406733 
1.49335 0.00274581 -0.0101999 
0.00274581 2.47501 -0.663145 
-0.0101999 -0.663145 0.388066 
1.50007 0.00216714 -0.00726729 
0.00216714 2.27988 -0.462081 
-0.00726729 -0.462081 0.576478 
1.47994 0.000779499 -0.00571067 
0.000779499 2.27821 -0.462078 
-0.00571067 -0.462078 0.598283 
1.4831 0.00133566 -0.00567927 
0.00133566 3.42951 -0.710396 
-0.00567927 -0.710396 -0.556179 
1.50431 0.00272331 -0.0072056 
0.00272331 3.43017 -0.710417 
-0.0072056 -0.710417 -0.578049 
1.66846 0.00184145 0.00619636 
0.00184145 2.3077 0.339587 
0.00619636 0.339587 0.887916 
1.6473 0.00066676 0.000667505 
0.00066676 2.30598 0.339583 
0.000667505 0.339583 0.910798 
1.65008 0.00121366 0.00065626 
0.00121366 3.68215 0.368454 
0.00065626 0.368454 -0.468157 
1.67204 0.00238835 0.00617499 
0.00238835 3.6831 0.368479 
0.00617499 0.368479 -0.491063 
1.65298 0.00187726 0.0091547 
0.00187726 1.92259 0.432088 
0.0091547 0.432088 1.28851 
1.63464 0.000692439 0.00362585 
0.000692439 1.92091 0.432032 
0.00362585 0.432032 1.30852 
1.63735 0.00121693 0.0036673 
0.00121693 3.95239 0.460902 
0.0036673 0.460902 -0.725664 
1.65667 0.00240175 0.00918603 
0.00240175 3.95329 0.460981 
0.00918603 0.460981 -0.745884 
1.30978 0.000677592 0.0219234 
0.000677592 1.88507 1.35557 
0.0219234 1.35557 0.614651 
1.29148 0.000235016 0.00941874 
0.000235016 1.88422 1.35549 
0.00941874 1.35549 0.633803 
1.29268 0.000521016 0.00944667 
0.000521016 3.88368 1.98204 
0.00944667 1.98204 -1.36686 
1.311 0.000963592 0.0219332 
0.000963592 3.88431 1.98217 
0.0219332 1.98217 -1.38581 
1.26764 0.000716778 0.0235107 
0.000716778 0.346504 1.4563 
0.0235107 1.4563 2.19536 
1.26003 0.00025613 0.0110061 
0.00025613 0.345679 1.45629 
0.0110061 1.45629 2.2038 
1.26111 0.000488359 0.0109724 
0.000488359 1.73257 2.08284 
0.0109724 2.08284 0.815819 
1.26907 0.000949007 0.0234589 
0.000949007 1.73298 2.0829 
0.0234589 2.0829 0.80745 
-1.27998 -0.00107752 0.0387783 
-0.00107752 -0.355927 1.45592 
0.0387783 1.45592 -2.20162 
-1.26404 -0.000354414 0.0235107 
-0.000354414 -0.354494 1.45594 
0.0235107 1.45594 -2.21899 
-1.26545 -0.000804585 0.0234589 
-0.000804585 -1.74118 2.08314 
0.0234589 2.08314 -0.830901 
-1.28149 -0.00152769 0.0387685 
-0.00152769 -1.74236 2.08323 
0.0387685 2.08323 -0.813677 
-1.33318 -0.00105531 0.036247 
-0.00105531 -1.89537 1.35474 
0.036247 1.35474 -0.608977 
-1.30095 -0.000290213 0.0209794 
-0.000290213 -1.89375 1.35463 
0.0209794 1.35463 -0.642821 
-1.30262 -0.000843969 0.021048 
-0.000843969 -3.89559 1.98183 
0.021048 1.98183 1.36068 
-1.33461 -0.00160907 0.0363576 
-0.00160907 -3.89706 1.98204 
0.0363576 1.98204 1.39414 
-1.67593 -0.00287803 0.0141184 
-0.00287803 -1.93448 0.431391 
0.0141184 0.431391 -1.28678 
-1.64394 -0.00093962 0.00821074 
-0.00093962 -1.93142 0.431305 
0.00821074 0.431305 -1.32183 
-1.64738 -0.00197706 0.00830081 
-0.00197706 -3.9649 0.460361 
0.00830081 0.460361 0.715094 
-1.68021 -0.00391548 0.0142362 
-0.00391548 -3.96754 0.460495 
0.0142362 0.460495 0.75055 
-1.69302 -0.00284047 0.00960421 
-0.00284047 -2.31991 0.337744 
0.00960421 0.337744 -0.88427 
-1.65822 -0.000874243 0.00369658 
-0.000874243 -2.31667 0.337768 
0.00369658 0.337768 -0.922302 
-1.66182 -0.00196085 0.00367688 
-0.00196085 -3.69586 0.366824 
0.00367688 0.366824 0.460487 
-1.69726 -0.00392707 0.00961232 
-0.00392707 -3.69853 0.366849 
0.00961232 0.366849 0.498599 
-1.522 -0.00324925 -0.0121711 
-0.00324925 -2.29075 -0.463734 
-0.0121711 -0.463734 -0.57323 
-1.48948 -0.000960297 -0.00976707 
-0.000960297 -2.28759 -0.463721 
-0.00976707 -0.463721 -0.60891 
-1.49345 -0.00208473 -0.00970371 
-0.00208473 -3.44165 -0.712147 
-0.00970371 -0.712147 0.549118 
-1.52682 -0.00437368 -0.0120607 
-0.00437368 -3.44406 -0.71219 
-0.0120607 -0.71219 0.584901 
-1.50849 -0.00332516 -0.0164367 
-0.00332516 -2.07226 -0.417728 
-0.0164367 -0.417728 -0.805235 
-1.48203 -0.000989098 -0.0140326 
-0.000989098 -2.06904 -0.417614 
-0.0140326 -0.417614 -0.834908 
-1.48587 -0.00208431 -0.0140699 
-0.00208431 -2.48642 -0.666041 
-0.0140699 -0.666041 -0.413692 
-1.51366 -0.00442037 -0.0164268 
-0.00442037 -2.48865 -0.666184 
-0.0164268 -0.666184 -0.383673 
-1.02388 -0.00236721 -0.032497 
-0.00236721 -1.69478 -0.90697 
-0.032497 -0.90697 -0.191105 
-1.00086 -0.000600614 -0.0244195 
-0.000600614 -1.69251 -0.906865 
-0.0244195 -0.906865 -0.216396 
-1.0039 -0.0014567 -0.0243943 
-0.0014567 -1.73817 -1.14706 
-0.0243943 -1.14706 -0.167694 
-1.02733 -0.0032233 -0.0324309 
-0.0032233 -1.73983 -1.14726 
-0.0324309 -1.14726 -0.142603 
-0.991763 -0.00250816 -0.0352446 
-0.00250816 -1.38966 -0.78958 
-0.0352446 -0.78958 -0.528333 
-0.976937 -0.000700664 -0.0271671 
-0.000700664 -1.38746 -0.78942 
-0.0271671 -0.78942 -0.545368 
-0.9796 -0.00146332 -0.0271963 
-0.00146332 -1.48241 -1.02962 
-0.0271963 -1.02962 -0.447753 
-0.995773 -0.00327082 -0.0352329 
-0.00327082 -1.48371 -1.02987 
-0.0352329 -1.02987 -0.430274 
-0.369171 -0.000796725 -0.0435304 
-0.000796725 -0.643684 -0.998565 
-0.0435304 -0.998565 0.00669811 
-0.358755 -0.000148276 -0.0326826 
-0.000148276 -0.642825 -0.998414 
-0.0326826 -0.998414 -0.00457716 
-0.36003 -0.000507243 -0.0326834 
-0.000507243 -0.302813 -1.17535 
-0.0326834 -1.17535 -0.343314 
-0.370202 -0.00115569 -0.0435011 
-0.00115569 -0.303543 -1.17563 
-0.0435011 -1.17563 -0.332413 
-0.328726 -0.000962948 -0.0444556 
-0.000962948 -0.446533 -0.941991 
-0.0444556 -0.941991 -0.230898 
-0.326341 -0.000284447 -0.0336078 
-0.000284447 -0.445804 -0.941823 
-0.0336078 -0.941823 -0.234012 
-0.327118 -0.000515221 -0.0336245 
-0.000515221 -0.668338 -1.11876 
-0.0336245 -1.11876 -0.010701 
-0.33039 -0.00119372 -0.0444422 
-0.00119372 -0.668625 -1.11906 
-0.0444422 -1.11906 -0.00714228 
0.328727 0.000962948 -0.0444556 
0.000962948 0.446533 -0.941991 
-0.0444556 -0.941991 0.230898 
0.326342 0.000284447 -0.0336078 
0.000284447 0.445804 -0.941823 
-0.0336078 -0.941823 0.234012 
0.327119 0.000515221 -0.0336245 
0.000515221 0.668338 -1.11876 
-0.0336245 -1.11876 0.0107011 
0.33039 0.00119372 -0.0444422 
0.00119372 0.668625 -1.11906 
-0.0444422 -1.11906 0.00714242 
0.369171 0.000796725 -0.0435304 
0.000796725 0.643685 -0.998565 
-0.0435304 -0.998565 -0.00669797 
0.358755 0.000148276 -0.0326826 
0.000148276 0.642826 -0.998414 
-0.0326826 -0.998414 0.0045773 
0.36003 0.000507243 -0.0326834 
0.000507243 0.302813 -1.17535 
-0.0326834 -1.17535 0.343314 
0.370202 0.00115569 -0.0435011 
0.00115569 0.303543 -1.17563 
-0.0435011 -1.17563 0.332413 
0.991763 0.00250816 -0.0352446 
0.00250816 1.38967 -0.78958 
-0.0352446 -0.78958 0.528333 
0.976937 0.000700664 -0.0271671 
0.000700664 1.38746 -0.78942 
-0.0271671 -0.78942 0.545368 
0.9796 0.00146332 -0.0271963 
0.00146332 1.48241 -1.02962 
-0.0271963 -1.02962 0.447753 
0.995773 0.00327082 -0.0352329 
0.00327082 1.48371 -1.02987 
-0.0352329 -1.02987 0.430274 
1.02388 0.00236721 -0.032497 
0.00236721 1.69478 -0.90697 
-0.032497 -0.90697 0.191105 
1.00086 0.000600614 -0.0244195 
0.000600614 1.69251 -0.906865 
-0.0244195 -0.906865 0.216396 
1.0039 0.0014567 -0.0243943 
0.0014567 1.73817 -1.14706 
-0.0243943 -1.14706 0.167694 
1.02733 0.0032233 -0.0324309 
0.0032233 1.73983 -1.14726 
-0.0324309 -1.14726 0.142604 
1.50849 0.00332516 -0.0164367 
0.00332516 2.07226 -0.417728 
-0.0164367 -0.417728 0.805235 
1.48203 0.000989098 -0.0140326 
0.000989098 2.06904 -0.417614 
-0.0140326 -0.417614 0.834908 
1.48587 0.00208431 -0.0140699 
0.00208431 2.48642 -0.666041 
-0.0140699 -0.666041 0.413693 
1.51366 0.00442037 -0.0164268 
0.00442037 2.48865 -0.666184 
-0.0164268 -0.666184 0.383673 
1.522 0.00324925 -0.0121711 
0.00324925 2.29075 -0.463734 
-0.0121711 -0.463734 0.57323 
1.48948 0.000960297 -0.00976707 
0.000960297 2.28759 -0.463721 
-0.00976707 -0.463721 0.60891 
1.49345 0.00208473 -0.00970371 
0.00208473 3.44165 -0.712147 
-0.00970371 -0.712147 -0.549118 
1.52682 0.00437368 -0.0120607 
0.00437368 3.44406 -0.71219 
-0.0120607 -0.71219 -0.584901 
1.69302 0.00284047 0.00960421 
0.00284047 2.31991 0.337744 
0.00960421 0.337744 0.88427 
1.65822 0.000874243 0.00369658 
0.000874243 2.31667 0.337768 
0.00369658 0.337768 0.922303 
1.66182 0.00196085 0.00367688 
0.00196085 3.69586 0.366824 
0.00367688 0.366824 -0.460486 
1.69727 0.00392707 0.00961232 
0.00392707 3.69853 0.366849 
0.00961232 0.366849 -0.498599 
1.67593 0.00287803 0.0141184 
0.00287803 1.93448 0.431391 
0.0141184 0.431391 1.28678 
1.64394 0.00093962 0.00821074 
0.00093962 1.93142 0.431305 
0.00821074 0.431305 1.32183 
1.64738 0.00197706 0.00830081 
0.00197706 3.9649 0.460361 
0.00830081 0.460361 -0.715094 
1.68021 0.00391548 0.0142362 
0.00391548 3.96754 0.460495 
0.0142362 0.460495 -0.75055 
1.33318 0.00105531 0.036247 
0.00105531 1.89537 1.35474 
0.036247 1.35474 0.608978 
1.30095 0.000290213 0.0209794 
0.000290213 1.89375 1.35463 
0.0209794 1.35463 0.642821 
1.30262 0.000843969 0.021048 
0.000843969 3.89559 1.98183 
0.021048 1.98183 -1.36068 
1.33461 0.00160907 0.0363576 
0.00160907 3.89706 1.98204 
0.0363576 1.98204 -1.39414 
1.27998 0.00107752 0.0387783 
0.00107752 0.355927 1.45592 
0.0387783 1.45592 2.20162 
1.26404 0.000354414 0.0235107 
0.000354414 0.354494 1.45594 
0.0235107 1.45594 2.21899 
1.26545 0.000804585 0.0234589 
0.000804585 1.74118 2.08314 
0.0234589 2.08314 0.830902 
1.28149 0.00152769 0.0387685 
0.00152769 1.74236 2.08323 
0.0387685 2.08323 0.813677 
-1.30377 -0.00101553 0.057466 
-0.00101553 -0.373436 1.45409 
0.057466 1.45409 -2.21379 
-1.27389 8.06723e-05 0.0387783 
8.06723e-05 -0.371584 1.4542 
0.0387783 1.4542 -2.24552 
-1.27556 -0.00067124 0.0387685 
-0.00067124 -1.75765 2.08259 
0.0387685 2.08259 -0.857786 
-1.30405 -0.00176744 0.0576673 
-0.00176744 -1.7606 2.08261 
0.0576673 2.08261 -0.826345 
-1.36832 -0.00110603 0.0543376 
-0.00110603 -1.91394 1.35196 
0.0543376 1.35196 -0.608727 
-1.3201 0.000201299 0.0356499 
0.000201299 -1.9115 1.35187 
0.0356499 1.35187 -0.659391 
-1.32209 -0.000681351 0.035839 
-0.000681351 -3.91855 1.98026 
0.035839 1.98026 1.34965 
-1.36922 -0.00198868 0.0547378 
-0.00198868 -3.92149 1.98048 
0.0547378 1.98048 1.39972 
-1.71044 -0.00282035 0.0192868 
-0.00282035 -1.9541 0.429253 
0.0192868 0.429253 -1.29144 
-1.66311 0.000229761 0.0135213 
0.000229761 -1.94987 0.429164 
0.0135213 0.429164 -1.34301 
-1.66687 -0.00152669 0.0137177 
-0.00152669 -3.98767 0.458612 
0.0137177 0.458612 0.698562 
-1.71241 -0.0045768 0.0196285 
-0.0045768 -3.99436 0.458747 
0.0196285 0.458747 0.750793 
-1.72669 -0.00285354 0.0142511 
-0.00285354 -2.33983 0.333327 
0.0142511 0.333327 -0.889465 
-1.68016 0.00034192 0.00848562 
0.00034192 -2.33513 0.333434 
0.00848562 0.333434 -0.940687 
-1.68412 -0.00145989 0.00848597 
-0.00145989 -3.72087 0.362883 
0.00848597 0.362883 0.449009 
-1.72912 -0.00465535 0.0143968 
-0.00465535 -3.7273 0.362821 
0.0143968 0.362821 0.500441 
-1.5499 -0.00287366 -0.0170644 
-0.00287366 -2.30796 -0.467082 
-0.0170644 -0.467082 -0.578591 
-1.5082 0.000738746 -0.0132897 
0.000738746 -2.30334 -0.467067 
-0.0132897 -0.467067 -0.624921 
-1.51221 -0.00122542 -0.013187 
-0.00122542 -3.46348 -0.715644 
-0.013187 -0.715644 0.539241 
-1.55175 -0.00483783 -0.0168815 
-0.00483783 -3.4704 -0.715764 
-0.0168815 -0.715764 0.585694 
-1.53474 -0.00303574 -0.0212042 
-0.00303574 -2.08901 -0.423562 
-0.0212042 -0.423562 -0.812701 
-1.50197 0.000656928 -0.0174296 
0.000656928 -2.0844 -0.423388 
-0.0174296 -0.423388 -0.850079 
-1.50572 -0.00120193 -0.017486 
-0.00120193 -2.5073 -0.671965 
-0.017486 -0.671965 -0.423438 
-1.53722 -0.00489459 -0.0211805 
-0.00489459 -2.51377 -0.672245 
-0.0211805 -0.672245 -0.385471 
-1.03821 -0.00181575 -0.0427066 
-0.00181575 -1.70669 -0.911497 
-0.0427066 -0.911497 -0.198215 
-1.01297 0.00097864 -0.0334898 
0.00097864 -1.70318 -0.911407 
-0.0334898 -0.911407 -0.226956 
-1.01583 -0.000559986 -0.0334901 
-0.000559986 -1.75415 -1.15214 
-0.0334901 -1.15214 -0.173126 
-1.03907 -0.00335438 -0.0427343 
-0.00335438 -1.75931 -1.15246 
-0.0427343 -1.15246 -0.144729 
-1.00986 -0.00201041 -0.0449804 
-0.00201041 -1.4002 -0.79593 
-0.0449804 -0.79593 -0.533054 
-0.991469 0.000756594 -0.0357636 
0.000756594 -1.39715 -0.795773 
-0.0357636 -0.795773 -0.554491 
-0.993723 -0.000552702 -0.0358309 
-0.000552702 -1.49522 -1.03651 
-0.0358309 -1.03651 -0.454169 
-1.0112 -0.00331971 -0.045075 
-0.00331971 -1.49982 -1.03689 
-0.045075 -1.03689 -0.432087 
-0.370201 -0.000528111 -0.0555449 
-0.000528111 -0.648579 -1.00401 
-0.0555449 -1.00401 0.00103554 
-0.361511 0.00054715 -0.0440495 
0.00054715 -0.647048 -1.0039 
-0.0440495 -1.0039 -0.00918517 
-0.362736 -0.000126804 -0.0440991 
-0.000126804 -0.31006 -1.18159 
-0.0440991 -1.18159 -0.344948 
-0.370325 -0.00120206 -0.0556896 
-0.00120206 -0.312152 -1.182 
-0.0556896 -1.182 -0.335268 
-0.338235 -0.000723724 -0.0562243 
-0.000723724 -0.449442 -0.948099 
-0.0562243 -0.948099 -0.230068 
-0.333009 0.000256517 -0.0447288 
0.000256517 -0.448624 -0.947973 
-0.0447288 -0.947973 -0.236112 
-0.33348 -0.000118279 -0.0447987 
-0.000118279 -0.671198 -1.12566 
-0.0447987 -1.12566 -0.0130667 
-0.338689 -0.00109852 -0.0563892 
-0.00109852 -0.672665 -1.12609 
-0.0563892 -1.12609 -0.00639181 
0.338235 0.000723724 -0.0562243 
0.000723724 0.449442 -0.948099 
-0.0562243 -0.948099 0.230068 
0.333009 -0.000256517 -0.0447288 
-0.000256517 0.448624 -0.947973 
-0.0447288 -0.947973 0.236112 
0.33348 0.000118279 -0.0447987 
0.000118279 0.671199 -1.12566 
-0.0447987 -1.12566 0.0130669 
0.338689 0.00109852 -0.0563892 
0.00109852 0.672665 -1.12609 
-0.0563892 -1.12609 0.00639196 
0.370201 0.000528111 -0.0555449 
0.000528111 0.648579 -1.00401 
-0.0555449 -1.00401 -0.0010354 
0.361511 -0.00054715 -0.0440495 
-0.00054715 0.647048 -1.0039 
-0.0440495 -1.0039 0.00918531 
0.362736 0.000126804 -0.0440991 
0.000126804 0.310061 -1.18159 
-0.0440991 -1.18159 0.344948 
0.370325 0.00120206 -0.0556896 
0.00120206 0.312152 -1.182 
-0.0556896 -1.182 0.335268 
1.00986 0.00201041 -0.0449804 
0.00201041 1.4002 -0.79593 
-0.0449804 -0.79593 0.533054 
0.99147 -0.000756594 -0.0357636 
-0.000756594 1.39715 -0.795773 
-0.0357636 -0.795773 0.554491 
0.993723 0.000552702 -0.0358309 
0.000552702 1.49522 -1.03651 
-0.0358309 -1.03651 0.454169 
1.0112 0.00331971 -0.045075 
0.00331971 1.49982 -1.03689 
-0.045075 -1.03689 0.432087 
1.03821 0.00181575 -0.0427066 
0.00181575 1.70669 -0.911497 
-0.0427066 -0.911497 0.198215 
1.01297 -0.00097864 -0.0334898 
-0.00097864 1.70318 -0.911407 
-0.0334898 -0.911407 0.226956 
1.01583 0.000559986 -0.0334901 
0.000559986 1.75415 -1.15214 
-0.0334901 -1.15214 0.173126 
1.03907 0.00335438 -0.0427343 
0.00335438 1.75931 -1.15246 
-0.0427343 -1.15246 0.144729 
1.53474 0.00303574 -0.0212042 
0.00303574 2.08901 -0.423562 
-0.0212042 -0.423562 0.812701 
1.50197 -0.000656928 -0.0174296 
-0.000656928 2.0844 -0.423388 
-0.0174296 -0.423388 0.850079 
1.50572 0.00120193 -0.017486 
0.00120193 2.5073 -0.671965 
-0.017486 -0.671965 0.423438 
1.53722 0.00489459 -0.0211805 
0.00489459 2.51377 -0.672245 
-0.0211805 -0.672245 0.385471 
1.5499 0.00287366 -0.0170644 
0.00287366 2.30796 -0.467082 
-0.0170644 -0.467082 0.578591 
1.5082 -0.000738746 -0.0132897 
-0.000738746 2.30334 -0.467067 
-0.0132897 -0.467067 0.624921 
1.51221 0.00122542 -0.013187 
0.00122542 3.46348 -0.715644 
-0.013187 -0.715644 -0.539241 
1.55175 0.00483783 -0.0168815 
0.00483783 3.4704 -0.715764 
-0.0168815 -0.715764 -0.585694 
1.72669 0.00285354 0.0142511 
0.00285354 2.33983 0.333327 
0.0142511 0.333327 0.889466 
1.68016 -0.00034192 0.00848562 
-0.00034192 2.33513 0.333434 
0.00848562 0.333434 0.940687 
1.68412 0.00145989 0.00848597 
0.00145989 3.72087 0.362883 
0.00848597 0.362883 -0.449009 
1.72912 0.00465535 0.0143968 
0.00465535 3.7273 0.362821 
0.0143968 0.362821 -0.500441 
1.71044 0.00282035 0.0192868 
0.00282035 1.9541 0.429253 
0.0192868 0.429253 1.29144 
1.66311 -0.000229761 0.0135213 
-0.000229761 1.94987 0.429164 
0.0135213 0.429164 1.34301 
1.66687 0.00152669 0.0137177 
0.00152669 3.98767 0.458612 
0.0137177 0.458612 -0.698562 
1.71241 0.0045768 0.0196285 
0.0045768 3.99436 0.458747 
0.0196285 0.458747 -0.750793 
1.36832 0.00110603 0.0543376 
0.00110603 1.91394 1.35196 
0.0543376 1.35196 0.608728 
1.3201 -0.000201299 0.0356499 
-0.000201299 1.9115 1.35187 
0.0356499 1.35187 0.659391 
1.32209 0.000681351 0.035839 
0.000681351 3.91855 1.98026 
0.035839 1.98026 -1.34965 
1.36922 0.00198868 0.0547378 
0.00198868 3.92149 1.98048 
0.0547378 1.98048 -1.39972 
1.30377 0.00101553 0.057466 
0.00101553 0.373436 1.45409 
0.057466 1.45409 2.21379 
1.27389 -8.06723e-05 0.0387783 
-8.06723e-05 0.371585 1.4542 
0.0387783 1.4542 2.24552 
1.27556 0.00067124 0.0387685 
0.00067124 1.75765 2.08259 
0.0387685 2.08259 0.857786 
1.30405 0.00176744 0.0576673 
0.00176744 1.7606 2.08261 
0.0576673 2.08261 0.826345 
-1.3482 0.000696843 0.0788449 
0.000696843 -0.403181 1.44796 
0.0788449 1.44796 -2.23394 
-1.29408 0.00212482 0.057466 
0.00212482 -0.402377 1.44836 
0.057466 1.44836 -2.28886 
-1.29514 0.00111224 0.0576673 
0.00111224 -1.78693 2.07857 
0.0576673 2.07857 -0.90324 
-1.34297 -0.000315735 0.0796082 
-0.000315735 -1.79351 2.07829 
0.0796082 2.07829 -0.848835 
-1.41756 0.000331889 0.0760694 
0.000331889 -1.94378 1.34401 
0.0760694 1.34401 -0.623974 
-1.35225 0.00232188 0.0546905 
0.00232188 -1.94134 1.34409 
0.0546905 1.34409 -0.691732 
-1.35337 0.0011932 0.0552054 
0.0011932 -3.95948 1.9743 
0.0552054 1.9743 1.32753 
-1.41479 -0.0007968 0.0771463 
-0.0007968 -3.96494 1.97433 
0.0771463 1.97433 1.39441 
-1.76036 0.00144581 0.023445 
0.00144581 -1.98174 0.423385 
0.023445 0.423385 -1.30937 
-1.69546 0.00571594 0.0196397 
0.00571594 -1.97913 0.423426 
0.0196397 0.423426 -1.37687 
-1.69625 0.00342326 0.0200961 
0.00342326 -4.02637 0.453549 
0.0200961 0.453549 0.671144 
-1.75052 -0.000846874 0.0242589 
-0.000846874 -4.04065 0.45368 
0.0242589 0.45368 0.739699 
-1.76853 0.0013005 0.0204729 
0.0013005 -2.36716 0.32315 
0.0204729 0.32315 -0.91578 
-1.71647 0.00592815 0.0166676 
0.00592815 -2.36314 0.323571 
0.0166676 0.323571 -0.971864 
-1.71722 0.00346317 0.0167446 
0.00346317 -3.76318 0.353693 
0.0167446 0.353693 0.428934 
-1.76031 -0.00116447 0.0209074 
-0.00116447 -3.77682 0.353445 
0.0209074 0.353445 0.485662 
-1.58116 0.00305974 -0.0205753 
0.00305974 -2.33 -0.473592 
-0.0205753 -0.473592 -0.603079 
-1.53673 0.00802692 -0.0146479 
0.00802692 -2.32683 -0.473465 
-0.0146479 -0.473465 -0.65068 
-1.53633 0.00541205 -0.0145336 
0.00541205 -3.50012 -0.722208 
-0.0145336 -0.722208 0.5222 
-1.56809 0.000444871 -0.0204656 
0.000444871 -3.51589 -0.722289 
-0.0204656 -0.722289 0.569738 
-1.56719 0.00294546 -0.0213262 
0.00294546 -2.10909 -0.434594 
-0.0213262 -0.434594 -0.837968 
-1.53563 0.00790808 -0.0153988 
0.00790808 -2.10572 -0.434283 
-0.0153988 -0.434283 -0.872897 
-1.53464 0.00524728 -0.0154689 
0.00524728 -2.54072 -0.683026 
-0.0154689 -0.683026 -0.438893 
-1.55468 0.000284662 -0.0214009 
0.000284662 -2.55649 -0.683291 
-0.0214009 -0.683291 -0.403075 
-1.04615 0.00340019 -0.0463993 
0.00340019 -1.72171 -0.918344 
-0.0463993 -0.918344 -0.224906 
-1.0286 0.00726198 -0.0369012 
0.00726198 -1.71898 -0.918297 
-0.0369012 -0.918297 -0.245185 
-1.02725 0.00519612 -0.0370227 
0.00519612 -1.7815 -1.15986 
-0.0370227 -1.15986 -0.184018 
-1.03503 0.00133432 -0.0468939 
0.00133432 -1.79345 -1.16 
-0.0468939 -1.16 -0.164288 
-1.03566 0.00344145 -0.0455858 
0.00344145 -1.41103 -0.806081 
-0.0455858 -0.806081 -0.546074 
-1.01772 0.00693023 -0.0360876 
0.00693023 -1.40919 -0.805973 
-0.0360876 -0.805973 -0.565852 
-1.01552 0.00496273 -0.0362708 
0.00496273 -1.51425 -1.04753 
-0.0362708 -1.04753 -0.462989 
-1.02372 0.00147395 -0.046142 
0.00147395 -1.52667 -1.04774 
-0.046142 -1.04774 -0.442385 
-0.3607 0.00145729 -0.0568747 
0.00145729 -0.655729 -1.01137 
-0.0568747 -1.01137 -0.0182679 
-0.361281 0.00306249 -0.0466521 
0.00306249 -0.65415 -1.01142 
-0.0466521 -1.01142 -0.0192676 
-0.360834 0.00220239 -0.0468854 
0.00220239 -0.323759 -1.19032 
-0.0468854 -1.19032 -0.350106 
-0.356832 0.000597195 -0.057649 
0.000597195 -0.328061 -1.19048 
-0.057649 -1.19048 -0.349805 
-0.357865 0.001565 -0.0563303 
0.001565 -0.450941 -0.956666 
-0.0563303 -0.956666 -0.225892 
-0.347828 0.0026291 -0.0461077 
0.0026291 -0.450878 -0.956695 
-0.0461077 -0.956695 -0.235991 
-0.346504 0.00197169 -0.046355 
0.00197169 -0.673614 -1.1356 
-0.046355 -1.1356 -0.01458 
-0.352454 0.000907586 -0.0571187 
0.000907586 -0.678526 -1.13577 
-0.0571187 -1.13577 -0.00371831 
0.357865 -0.001565 -0.0563303 
-0.001565 0.450941 -0.956666 
-0.0563303 -0.956666 0.225892 
0.347829 -0.0026291 -0.0461077 
-0.0026291 0.450878 -0.956695 
-0.0461077 -0.956695 0.235992 
0.346504 -0.00197169 -0.046355 
-0.00197169 0.673614 -1.1356 
-0.046355 -1.1356 0.0145802 
0.352454 -0.000907586 -0.0571187 
-0.000907586 0.678526 -1.13577 
-0.0571187 -1.13577 0.00371845 
0.360701 -0.00145729 -0.0568747 
-0.00145729 0.65573 -1.01137 
-0.0568747 -1.01137 0.0182681 
0.361281 -0.00306249 -0.0466521 
-0.00306249 0.65415 -1.01142 
-0.0466521 -1.01142 0.0192677 
0.360834 -0.00220239 -0.0468854 
-0.00220239 0.323759 -1.19032 
-0.0468854 -1.19032 0.350106 
0.356832 -0.000597195 -0.057649 
-0.000597195 0.328061 -1.19048 
-0.057649 -1.19048 0.349805 
1.03566 -0.00344145 -0.0455858 
-0.00344145 1.41103 -0.806081 
-0.0455858 -0.806081 0.546074 
1.01772 -0.00693023 -0.0360876 
-0.00693023 1.40919 -0.805973 
-0.0360876 -0.805973 0.565852 
1.01552 -0.00496273 -0.0362708 
-0.00496273 1.51425 -1.04753 
-0.0362708 -1.04753 0.462989 
1.02372 -0.00147395 -0.046142 
-0.00147395 1.52667 -1.04774 
-0.046142 -1.04774 0.442385 
1.04615 -0.00340019 -0.0463993 
-0.00340019 1.72171 -0.918344 
-0.0463993 -0.918344 0.224906 
1.0286 -0.00726198 -0.0369012 
-0.00726198 1.71898 -0.918297 
-0.0369012 -0.918297 0.245185 
1.02725 -0.00519612 -0.0370227 
-0.00519612 1.7815 -1.15986 
-0.0370227 -1.15986 0.184018 
1.03503 -0.00133432 -0.0468939 
-0.00133432 1.79345 -1.16 
-0.0468939 -1.16 0.164288 
1.56719 -0.00294546 -0.0213262 
-0.00294546 2.10909 -0.434594 
-0.0213262 -0.434594 0.837968 
1.53563 -0.00790808 -0.0153988 
-0.00790808 2.10572 -0.434283 
-0.0153988 -0.434283 0.872897 
1.53464 -0.00524728 -0.0154689 
-0.00524728 2.54072 -0.683026 
-0.0154689 -0.683026 0.438893 
1.55468 -0.000284662 -0.0214009 
-0.000284662 2.55649 -0.683291 
-0.0214009 -0.683291 0.403075 
1.58116 -0.00305974 -0.0205753 
-0.00305974 2.33 -0.473592 
-0.0205753 -0.473592 0.603079 
1.53673 -0.00802692 -0.0146479 
-0.00802692 2.32683 -0.473465 
-0.0146479 -0.473465 0.65068 
1.53633 -0.00541205 -0.0145336 
-0.00541205 3.50012 -0.722208 
-0.0145336 -0.722208 -0.5222 
1.56809 -0.000444871 -0.0204656 
-0.000444871 3.51589 -0.722289 
-0.0204656 -0.722289 -0.569738 
1.76853 -0.0013005 0.0204729 
-0.0013005 2.36716 0.32315 
0.0204729 0.32315 0.91578 
1.71647 -0.00592815 0.0166676 
-0.00592815 2.36314 0.323571 
0.0166676 0.323571 0.971864 
1.71722 -0.00346317 0.0167446 
-0.00346317 3.76318 0.353693 
0.0167446 0.353693 -0.428934 
1.76031 0.00116447 0.0209074 
0.00116447 3.77682 0.353445 
0.0209074 0.353445 -0.485662 
1.76036 -0.00144581 0.023445 
-0.00144581 1.98174 0.423385 
0.023445 0.423385 1.30937 
1.69546 -0.00571594 0.0196397 
-0.00571594 1.97913 0.423426 
0.0196397 0.423426 1.37687 
1.69625 -0.00342326 0.0200961 
-0.00342326 4.02637 0.453549 
0.0200961 0.453549 -0.671144 
1.75052 0.000846874 0.0242589 
0.000846874 4.04065 0.45368 
0.0242589 0.45368 -0.739699 
1.41756 -0.000331889 0.0760694 
-0.000331889 1.94378 1.34401 
0.0760694 1.34401 0.623974 
1.35225 -0.00232188 0.0546905 
-0.00232188 1.94134 1.34409 
0.0546905 1.34409 0.691733 
1.35337 -0.0011932 0.0552054 
-0.0011932 3.95948 1.9743 
0.0552054 1.9743 -1.32753 
1.41479 0.0007968 0.0771463 
0.0007968 3.96494 1.97433 
0.0771463 1.97433 -1.39441 
1.3482 -0.000696843 0.0788449 
-0.000696843 0.403181 1.44796 
0.0788449 1.44796 2.23394 
1.29408 -0.00212482 0.057466 
-0.00212482 0.402377 1.44836 
0.057466 1.44836 2.28886 
1.29514 -0.00111224 0.0576673 
-0.00111224 1.78693 2.07857 
0.0576673 2.07857 0.90324 
1.34297 0.000315735 0.0796082 
0.000315735 1.79351 2.07829 
0.0796082 2.07829 0.848835 
-1.42747 0.00729817 0.100261 
0.00729817 -0.451362 1.43101 
0.100261 1.43101 -2.26513 
-1.33279 0.00880195 0.0788449 
0.00880195 -0.455888 1.43177 
0.0788449 1.43177 -2.35528 
-1.32931 0.00792085 0.0796082 
0.00792085 -1.83821 2.06385 
0.0796082 2.06385 -0.976437 
-1.40618 0.00641707 0.102185 
0.00641707 -1.8508 2.0623 
0.102185 2.0623 -0.886975 
-1.4862 0.00613236 0.0999903 
0.00613236 -1.98521 1.32358 
0.0999903 1.32358 -0.672552 
-1.40201 0.00879722 0.0785742 
0.00879722 -1.98748 1.32392 
0.0785742 1.32392 -0.754475 
-1.39733 0.00871253 0.0797534 
0.00871253 -4.02823 1.956 
0.0797534 1.956 1.28159 
-1.47131 0.00604767 0.102331 
0.00604767 -4.035 1.95486 
0.102331 1.95486 1.36235 
-1.83105 0.0186265 0.0245879 
0.0186265 -2.01134 0.408881 
0.0245879 0.408881 -1.3551 
-1.74701 0.0229506 0.0259498 
0.0229506 -2.02157 0.409107 
0.0259498 0.409107 -1.42891 
-1.73387 0.0215923 0.026866 
0.0215923 -4.0898 0.439974 
0.026866 0.439974 0.626176 
-1.78258 0.0172683 0.026608 
0.0172683 -4.11627 0.439215 
0.026608 0.439215 0.701354 
-1.82091 0.0176638 0.029324 
0.0176638 -2.3939 0.301098 
0.029324 0.301098 -0.982675 
-1.77051 0.0230918 0.0306859 
0.0230918 -2.40218 0.301868 
0.0306859 0.301868 -1.0248 
-1.75684 0.0222674 0.0310574 
0.0222674 -3.83058 0.332736 
0.0310574 0.332736 0.389922 
-1.77791 0.0168394 0.0307994 
0.0168394 -3.8527 0.331432 
0.0307994 0.331432 0.43312 
-1.60901 0.0256177 -0.0182127 
0.0256177 -2.34688 -0.485007 
-0.0182127 -0.485007 -0.668861 
-1.57733 0.030434 -0.0103623 
0.030434 -2.35657 -0.485089 
-0.0103623 -0.485089 -0.690857 
-1.55712 0.0287165 -0.0103156 
0.0287165 -3.55914 -0.733911 
-0.0103156 -0.733911 0.491504 
-1.54914 0.0239002 -0.0180337 
0.0239002 -3.58896 -0.734601 
-0.0180337 -0.734601 0.513348 
-1.61165 0.0250995 -0.00888008 
0.0250995 -2.12099 -0.453793 
-0.00888008 -0.453793 -0.892116 
-1.58667 0.0300481 -0.00102973 
0.0300481 -2.132 -0.453718 
-0.00102973 -0.453718 -0.906086 
-1.56585 0.0291015 -0.00113961 
0.0291015 -2.59146 -0.70254 
-0.00113961 -0.70254 -0.467445 
-1.55298 0.0241528 -0.00885764 
0.0241528 -2.61915 -0.703386 
-0.00885764 -0.703386 -0.452622 
-1.03612 0.0225487 -0.0323874 
0.0225487 -1.7314 -0.925982 
-0.0323874 -0.925982 -0.291949 
-1.04593 0.025997 -0.0261029 
0.025997 -1.73741 -0.926585 
-0.0261029 -0.926585 -0.276132 
-1.02756 0.024266 -0.0266326 
0.024266 -1.82599 -1.16901 
-0.0266326 -1.16901 -0.205928 
-0.987059 0.0208176 -0.0334496 
0.0208176 -1.85017 -1.16939 
-0.0334496 -1.16939 -0.222252 
-1.07891 0.0224367 -0.0236264 
0.0224367 -1.41205 -0.819316 
-0.0236264 -0.819316 -0.568519 
-1.0595 0.0253526 -0.0173419 
0.0253526 -1.4219 -0.819941 
-0.0173419 -0.819941 -0.578074 
-1.04114 0.0245974 -0.0178506 
0.0245974 -1.54054 -1.06237 
-0.0178506 -1.06237 -0.477796 
-1.02745 0.0216815 -0.0246676 
0.0216815 -1.56419 -1.06272 
-0.0246676 -1.06272 -0.467829 
-0.328718 0.0089732 -0.0324462 
0.0089732 -0.6624 -1.01719 
-0.0324462 -1.01719 -0.0656391 
-0.354301 0.0104545 -0.0286308 
0.0104545 -0.662697 -1.01816 
-0.0286308 -1.01816 -0.0397603 
-0.34662 0.00936245 -0.0293577 
0.00936245 -0.348327 -1.19851 
-0.0293577 -1.19851 -0.361811 
-0.311114 0.00788118 -0.0338831 
0.00788118 -0.357608 -1.19871 
-0.0338831 -1.19871 -0.388036 
-0.398862 0.00891388 -0.0289383 
0.00891388 -0.446602 -0.964584 
-0.0289383 -0.964584 -0.211293 
-0.374994 0.00968513 -0.0251229 
0.00968513 -0.452014 -0.965529 
-0.0251229 -0.965529 -0.22975 
-0.36782 0.00976689 -0.0258722 
0.00976689 -0.673468 -1.14587 
-0.0258722 -1.14587 -0.0154697 
-0.377576 0.00899564 -0.0303976 
0.00899564 -0.682615 -1.1461 
-0.0303976 -1.1461 0.00343301 
0.398862 -0.00891388 -0.0289383 
-0.00891388 0.446602 -0.964584 
-0.0289383 -0.964584 0.211293 
0.374994 -0.00968513 -0.0251229 
-0.00968513 0.452014 -0.965529 
-0.0251229 -0.965529 0.22975 
0.36782 -0.00976689 -0.0258722 
-0.00976689 0.673468 -1.14587 
-0.0258722 -1.14587 0.0154699 
0.377576 -0.00899564 -0.0303976 
-0.00899564 0.682615 -1.1461 
-0.0303976 -1.1461 -0.00343287 
0.328718 -0.0089732 -0.0324462 
-0.0089732 0.662401 -1.01719 
-0.0324462 -1.01719 0.0656393 
0.354301 -0.0104545 -0.0286308 
-0.0104545 0.662697 -1.01816 
-0.0286308 -1.01816 0.0397604 
0.34662 -0.00936245 -0.0293577 
-0.00936245 0.348327 -1.19851 
-0.0293577 -1.19851 0.361811 
0.311115 -0.00788118 -0.0338831 
-0.00788118 0.357608 -1.19871 
-0.0338831 -1.19871 0.388036 
1.07891 -0.0224367 -0.0236264 
-0.0224367 1.41205 -0.819316 
-0.0236264 -0.819316 0.56852 
1.0595 -0.0253526 -0.0173419 
-0.0253526 1.4219 -0.819941 
-0.0173419 -0.819941 0.578074 
1.04114 -0.0245974 -0.0178506 
-0.0245974 1.54054 -1.06237 
-0.0178506 -1.06237 0.477797 
1.02745 -0.0216815 -0.0246676 
-0.0216815 1.56419 -1.06272 
-0.0246676 -1.06272 0.467829 
1.03612 -0.0225487 -0.0323874 
-0.0225487 1.73141 -0.925982 
-0.0323874 -0.925982 0.29195 
1.04593 -0.025997 -0.0261029 
-0.025997 1.73741 -0.926585 
-0.0261029 -0.926585 0.276133 
1.02756 -0.024266 -0.0266326 
-0.024266 1.82599 -1.16901 
-0.0266326 -1.16901 0.205928 
0.987059 -0.0208176 -0.0334496 
-0.0208176 1.85017 -1.16939 
-0.0334496 -1.16939 0.222252 
1.61165 -0.0250995 -0.00888008 
-0.0250995 2.12099 -0.453793 
-0.00888008 -0.453793 0.892116 
1.58667 -0.0300481 -0.00102973 
-0.0300481 2.132 -0.453718 
-0.00102973 -0.453718 0.906086 
1.56585 -0.0291015 -0.00113961 
-0.0291015 2.59146 -0.70254 
-0.00113961 -0.70254 0.467445 
1.55298 -0.0241528 -0.00885764 
-0.0241528 2.61915 -0.703386 
-0.00885764 -0.703386 0.452622 
1.60901 -0.0256177 -0.0182127 
-0.0256177 2.34688 -0.485007 
-0.0182127 -0.485007 0.668861 
1.57733 -0.030434 -0.0103623 
-0.030434 2.35657 -0.485089 
-0.0103623 -0.485089 0.690857 
1.55712 -0.0287165 -0.0103156 
-0.0287165 3.55914 -0.733911 
-0.0103156 -0.733911 -0.491504 
1.54914 -0.0239002 -0.0180337 
-0.0239002 3.58896 -0.734601 
-0.0180337 -0.734601 -0.513348 
1.82091 -0.0176638 0.029324 
-0.0176638 2.3939 0.301098 
0.029324 0.301098 0.982675 
1.77051 -0.0230918 0.0306859 
-0.0230918 2.40218 0.301868 
0.0306859 0.301868 1.0248 
1.75684 -0.0222674 0.0310574 
-0.0222674 3.83058 0.332736 
0.0310574 0.332736 -0.389922 
1.77791 -0.0168394 0.0307994 
-0.0168394 3.8527 0.331432 
0.0307994 0.331432 -0.43312 
1.83105 -0.0186265 0.0245879 
-0.0186265 2.01134 0.408881 
0.0245879 0.408881 1.3551 
1.74701 -0.0229506 0.0259498 
-0.0229506 2.02157 0.409107 
0.0259498 0.409107 1.42891 
1.73387 -0.0215923 0.026866 
-0.0215923 4.0898 0.439974 
0.026866 0.439974 -0.626176 
1.78258 -0.0172683 0.026608 
-0.0172683 4.11627 0.439215 
0.026608 0.439215 -0.701353 
1.4862 -0.00613236 0.0999903 
-0.00613236 1.98521 1.32358 
0.0999903 1.32358 0.672553 
1.40201 -0.00879722 0.0785742 
-0.00879722 1.98748 1.32392 
0.0785742 1.32392 0.754475 
1.39733 -0.00871253 0.0797534 
-0.00871253 4.02823 1.956 
0.0797534 1.956 -1.28159 
1.47131 -0.00604767 0.102331 
-0.00604767 4.035 1.95486 
0.102331 1.95486 -1.36235 
1.42747 -0.00729817 0.100261 
-0.00729817 0.451362 1.43101 
0.100261 1.43101 2.26513 
1.33279 -0.00880195 0.0788449 
-0.00880195 0.455888 1.43177 
0.0788449 1.43177 2.35528 
1.32931 -0.00792085 0.0796082 
-0.00792085 1.83821 2.06385 
0.0796082 2.06385 0.976438 
1.40618 -0.00641707 0.102185 
-0.00641707 1.8508 2.0623 
0.102185 2.0623 0.886975 
-1.56527 0.0220626 0.114764 
0.0220626 -0.531124 1.38796 
0.114764 1.38796 -2.3088 
-1.39609 0.0256007 0.100261 
0.0256007 -0.553492 1.38906 
0.100261 1.38906 -2.45561 
-1.38046 0.0296905 0.102185 
0.0296905 -1.93218 2.01946 
0.102185 2.01946 -1.09255 
-1.52647 0.0261524 0.11653 
0.0261524 -1.93222 2.01657 
0.11653 2.01657 -0.946498 
-1.56998 0.0213998 0.124291 
0.0213998 -2.03025 1.27364 
0.124291 1.27364 -0.804958 
-1.4825 0.0247794 0.109789 
0.0247794 -2.05011 1.27397 
0.109789 1.27397 -0.872573 
-1.46098 0.0306586 0.112484 
0.0306586 -4.13944 1.90438 
0.112484 1.90438 1.19523 
-1.53637 0.027279 0.126828 
0.027279 -4.12897 1.90226 
0.126828 1.90226 1.26016 
-1.9136 0.0631267 0.022546 
0.0631267 -2.031 0.373454 
0.022546 0.373454 -1.46425 
-1.81994 0.0686049 0.0343861 
0.0686049 -2.0862 0.373906 
0.0343861 0.373906 -1.50272 
-1.76212 0.0785235 0.0367612 
0.0785235 -4.19929 0.405503 
0.0367612 0.405503 0.552549 
-1.79851 0.0730453 0.024018 
0.0730453 -4.20432 0.40475 
0.024018 0.40475 0.593978 
-1.88504 0.0636479 0.0502925 
0.0636479 -2.38999 0.251827 
0.0502925 0.251827 -1.13382 
-1.85965 0.068223 0.0621326 
0.068223 -2.44147 0.253217 
0.0621326 0.253217 -1.10774 
-1.79628 0.0784428 0.0635698 
0.0784428 -3.93426 0.284814 
0.0635698 0.284814 0.321682 
-1.77146 0.0738677 0.0508266 
0.0738677 -3.93423 0.283123 
0.0508266 0.283123 0.296838 
-1.61446 0.0848501 0.00607042 
0.0848501 -2.33857 -0.506971 
0.00607042 -0.506971 -0.813642 
-1.61834 0.0882896 0.014596 
0.0882896 -2.39835 -0.507423 
0.014596 -0.507423 -0.749979 
-1.54225 0.0982237 0.0147367 
0.0982237 -3.65253 -0.753754 
0.0147367 -0.753754 0.428112 
-1.46011 0.0947842 0.00223449 
0.0947842 -3.67087 -0.75247 
0.00223449 -0.75247 0.364308 
-1.68729 0.0878992 0.0394846 
0.0878992 -2.08312 -0.48835 
0.0394846 -0.48835 -0.996267 
-1.67353 0.087362 0.0480101 
0.087362 -2.14492 -0.489194 
0.0480101 -0.489194 -0.948215 
-1.59317 0.0964654 0.0485426 
0.0964654 -2.66283 -0.735524 
0.0485426 -0.735524 -0.510666 
-1.51942 0.0970026 0.0360404 
0.0970026 -2.68692 -0.733849 
0.0360404 -0.733849 -0.560329 
-0.990912 0.0714154 0.0264516 
0.0714154 -1.72129 -0.932229 
0.0264516 -0.932229 -0.423773 
-1.0457 0.0735823 0.0245028 
0.0735823 -1.76369 -0.934331 
0.0245028 -0.934331 -0.326587 
-0.980501 0.0803016 0.0239507 
0.0803016 -1.89764 -1.17377 
0.0239507 -1.17377 -0.257839 
-0.86628 0.0781348 0.0211138 
0.0781348 -1.91612 -1.17078 
0.0211138 -1.17078 -0.353579 
-1.16387 0.0751011 0.0516138 
0.0751011 -1.36716 -0.835248 
0.0516138 -0.835248 -0.604953 
-1.13613 0.0724823 0.049665 
0.0724823 -1.41553 -0.837272 
0.049665 -0.837272 -0.584321 
-1.06948 0.0783052 0.0490346 
0.0783052 -1.5724 -1.07671 
0.0490346 -1.07671 -0.494099 
-1.01929 0.0809239 0.0461978 
0.0809239 -1.60087 -1.07379 
0.0461978 -1.07379 -0.515827 
-0.262057 0.0266473 0.0486169 
0.0266473 -0.669979 -1.01556 
0.0486169 -1.01556 -0.148389 
-0.319147 0.0287657 0.0408452 
0.0287657 -0.681681 -1.01824 
0.0408452 -1.01824 -0.0795972 
-0.293948 0.0310896 0.0398191 
0.0310896 -0.392498 -1.19579 
0.0398191 -1.19579 -0.393979 
-0.221773 0.0289711 0.0431387 
0.0289711 -0.397168 -1.19257 
0.0431387 -1.19257 -0.461484 
-0.477502 0.0297342 0.0576249 
0.0297342 -0.416584 -0.966723 
0.0576249 -0.966723 -0.18634 
-0.434176 0.0274005 0.0498532 
0.0274005 -0.436512 -0.969105 
0.0498532 -0.969105 -0.209737 
-0.409051 0.0291915 0.048525 
0.0291915 -0.664653 -1.14665 
0.048525 -1.14665 -0.00672054 
-0.417234 0.0315252 0.0518446 
0.0315252 -0.679933 -1.14374 
0.0518446 -1.14374 0.0167413 
0.477502 -0.0297342 0.0576249 
-0.0297342 0.416584 -0.966723 
0.0576249 -0.966723 0.18634 
0.434176 -0.0274005 0.0498532 
-0.0274005 0.436512 -0.969105 
0.0498532 -0.969105 0.209737 
0.409052 -0.0291915 0.048525 
-0.0291915 0.664653 -1.14665 
0.048525 -1.14665 0.00672068 
0.417234 -0.0315252 0.0518446 
-0.0315252 0.679933 -1.14374 
0.0518446 -1.14374 -0.0167412 
0.262057 -0.0266473 0.0486169 
-0.0266473 0.669979 -1.01556 
0.0486169 -1.01556 0.14839 
0.319148 -0.0287657 0.0408452 
-0.0287657 0.681681 -1.01824 
0.0408452 -1.01824 0.0795973 
0.293948 -0.0310896 0.0398191 
-0.0310896 0.392498 -1.19579 
0.0398191 -1.19579 0.393979 
0.221773 -0.0289711 0.0431387 
-0.0289711 0.397169 -1.19257 
0.0431387 -1.19257 0.461484 
1.16387 -0.0751011 0.0516138 
-0.0751011 1.36716 -0.835248 
0.0516138 -0.835248 0.604953 
1.13613 -0.0724823 0.049665 
-0.0724823 1.41553 -0.837272 
0.049665 -0.837272 0.584321 
1.06948 -0.0783052 0.0490346 
-0.0783052 1.5724 -1.07671 
0.0490346 -1.07671 0.494099 
1.01929 -0.0809239 0.0461978 
-0.0809239 1.60087 -1.07379 
0.0461978 -1.07379 0.515827 
0.990912 -0.0714154 0.0264516 
-0.0714154 1.7213 -0.932229 
0.0264516 -0.932229 0.423773 
1.0457 -0.0735823 0.0245028 
-0.0735823 1.76369 -0.934331 
0.0245028 -0.934331 0.326587 
0.980501 -0.0803016 0.0239507 
-0.0803016 1.89764 -1.17377 
0.0239507 -1.17377 0.257839 
0.86628 -0.0781348 0.0211138 
-0.0781348 1.91612 -1.17078 
0.0211138 -1.17078 0.353579 
1.68729 -0.0878992 0.0394846 
-0.0878992 2.08312 -0.48835 
0.0394846 -0.48835 0.996267 
1.67353 -0.087362 0.0480101 
-0.087362 2.14492 -0.489194 
0.0480101 -0.489194 0.948215 
1.59317 -0.0964654 0.0485426 
-0.0964654 2.66283 -0.735524 
0.0485426 -0.735524 0.510667 
1.51942 -0.0970026 0.0360404 
-0.0970026 2.68692 -0.733849 
0.0360404 -0.733849 0.560329 
1.61446 -0.0848501 0.00607042 
-0.0848501 2.33857 -0.506971 
0.00607042 -0.506971 0.813642 
1.61834 -0.0882896 0.014596 
-0.0882896 2.39835 -0.507423 
0.014596 -0.507423 0.749979 
1.54225 -0.0982237 0.0147367 
-0.0982237 3.65253 -0.753754 
0.0147367 -0.753754 -0.428112 
1.46011 -0.0947842 0.00223449 
-0.0947842 3.67087 -0.75247 
0.00223449 -0.75247 -0.364307 
1.88504 -0.0636479 0.0502925 
-0.0636479 2.38999 0.251827 
0.0502925 0.251827 1.13382 
1.85965 -0.068223 0.0621326 
-0.068223 2.44147 0.253217 
0.0621326 0.253217 1.10774 
1.79628 -0.0784428 0.0635698 
-0.0784428 3.93426 0.284814 
0.0635698 0.284814 -0.321682 
1.77146 -0.0738677 0.0508266 
-0.0738677 3.93423 0.283123 
0.0508266 0.283123 -0.296838 
1.9136 -0.0631267 0.022546 
-0.0631267 2.031 0.373454 
0.022546 0.373454 1.46425 
1.81994 -0.0686049 0.0343861 
-0.0686049 2.0862 0.373906 
0.0343861 0.373906 1.50272 
1.76212 -0.0785235 0.0367612 
-0.0785235 4.19929 0.405503 
0.0367612 0.405503 -0.552549 
1.79851 -0.0730453 0.024018 
-0.0730453 4.20432 0.40475 
0.024018 0.40475 -0.593977 
1.56998 -0.0213998 0.124291 
-0.0213998 2.03025 1.27364 
0.124291 1.27364 0.804958 
1.4825 -0.0247794 0.109789 
-0.0247794 2.05011 1.27397 
0.109789 1.27397 0.872573 
1.46098 -0.0306586 0.112484 
-0.0306586 4.13944 1.90438 
0.112484 1.90438 -1.19523 
1.53637 -0.027279 0.126828 
-0.027279 4.12897 1.90226 
0.126828 1.90226 -1.26016 
1.56527 -0.0220626 0.114764 
-0.0220626 0.531124 1.38796 
0.114764 1.38796 2.3088 
1.39609 -0.0256007 0.100261 
-0.0256007 0.553492 1.38906 
0.100261 1.38906 2.45561 
1.38046 -0.0296905 0.102185 
-0.0296905 1.93218 2.01946 
0.102185 2.01946 1.09255 
1.52647 -0.0261524 0.11653 
-0.0261524 1.93222 2.01657 
0.11653 2.01657 0.946499 
-1.80353 0.059475 0.105556 
0.059475 -0.650124 1.28689 
0.105556 1.28689 -2.38218 
-1.51738 0.0645326 0.114764 
0.0645326 -0.717767 1.28774 
0.114764 1.28774 -2.60068 
-1.44858 0.0842448 0.11653 
0.0842448 -2.12242 1.89536 
0.11653 1.89536 -1.26483 
-1.71438 0.0791872 0.110974 
0.0791872 -2.07611 1.89166 
0.110974 1.89166 -1.04535 
-1.66096 0.0549005 0.144349 
0.0549005 -2.0703 1.16545 
0.144349 1.16545 -1.10457 
-1.62207 0.0636094 0.153557 
0.0636094 -2.13687 1.16827 
0.153557 1.16827 -1.07689 
-1.55052 0.0861817 0.153346 
0.0861817 -4.27004 1.7759 
0.153346 1.7759 0.98473 
-1.59088 0.0774729 0.147791 
0.0774729 -4.20986 1.77022 
0.147791 1.77022 0.964909 
-1.98828 0.174352 0.0300829 
0.174352 -1.99023 0.301917 
0.0300829 0.301917 -1.71373 
-1.92963 0.174097 0.0518113 
0.174097 -2.16738 0.30432 
0.0518113 0.30432 -1.59524 
-1.76252 0.21764 0.0505365 
0.21764 -4.34975 0.326355 
0.0505365 0.326355 0.420019 
-1.70699 0.217894 0.029933 
0.217894 -4.28043 0.321476 
0.029933 0.321476 0.295173 
-1.98841 0.172953 0.112095 
0.172953 -2.30196 0.169502 
0.112095 0.169502 -1.40188 
-1.99684 0.173823 0.133823 
0.173823 -2.48074 0.169686 
0.133823 0.169686 -1.21467 
-1.82695 0.219841 0.134767 
0.219841 -4.03177 0.191721 
0.134767 0.191721 0.166475 
-1.71492 0.218971 0.114164 
0.218971 -3.95302 0.189061 
0.114164 0.189061 -0.0243091 
-1.57576 0.226299 0.0898642 
0.226299 -2.22478 -0.522638 
0.0898642 -0.522638 -1.11567 
-1.66551 0.220661 0.089601 
0.220661 -2.42177 -0.52431 
0.089601 -0.52431 -0.828931 
-1.43691 0.270305 0.0861752 
0.270305 -3.77849 -0.7706 
0.0861752 -0.7706 0.299191 
-1.22895 0.275944 0.0856068 
0.275944 -3.70035 -0.76795 
0.0856068 -0.76795 0.0130841 
-1.8457 0.229371 0.172297 
0.229371 -1.94047 -0.519526 
0.172297 -0.519526 -1.13004 
-1.80327 0.2229 0.172034 
0.2229 -2.14236 -0.522994 
0.172034 -0.522994 -0.970584 
-1.58455 0.271567 0.170404 
0.271567 -2.72749 -0.769284 
0.170404 -0.769284 -0.60417 
-1.48529 0.278037 0.169835 
0.278037 -2.65863 -0.764838 
0.169835 -0.764838 -0.772295 
-0.920066 0.181202 0.17447 
0.181202 -1.6225 -0.898807 
0.17447 -0.898807 -0.656401 
-1.02287 0.175392 0.159001 
0.175392 -1.75655 -0.904116 
0.159001 -0.904116 -0.419541 
-0.844941 0.20859 0.155477 
0.20859 -2.00065 -1.1371 
0.155477 -1.1371 -0.353375 
-0.663211 0.214399 0.171586 
0.214399 -1.9534 -1.12966 
0.171586 -1.12966 -0.582358 
-1.31386 0.182854 0.226767 
0.182854 -1.25107 -0.817831 
0.226767 -0.817831 -0.634035 
-1.24034 0.177685 0.211298 
0.177685 -1.39394 -0.820901 
0.211298 -0.820901 -0.564682 
-1.08029 0.208752 0.205535 
0.208752 -1.58968 -1.05388 
0.205535 -1.05388 -0.528995 
-1.04198 0.213922 0.221645 
0.213922 -1.56077 -1.04868 
0.221645 -1.04868 -0.596213 
-0.17489 0.0679892 0.228892 
0.0679892 -0.639072 -0.963567 
0.228892 -0.963567 -0.28333 
-0.256005 0.065281 0.208301 
0.065281 -0.678594 -0.96827 
0.208301 -0.96827 -0.162692 
-0.187761 0.0766179 0.202476 
0.0766179 -0.475724 -1.14007 
0.202476 -1.14007 -0.433806 
-0.0864887 0.079326 0.224442 
0.079326 -0.456383 -1.1333 
0.224442 -1.1333 -0.554419 
-0.593842 0.0673371 0.245624 
0.0673371 -0.368025 -0.921427 
0.245624 -0.921427 -0.135424 
-0.517429 0.066003 0.225033 
0.066003 -0.421353 -0.924881 
0.225033 -0.924881 -0.15851 
-0.46792 0.0752717 0.217961 
0.0752717 -0.623038 -1.09669 
0.217961 -1.09669 -0.00633281 
-0.49285 0.0766058 0.239926 
0.0766058 -0.626752 -1.09116 
0.239926 -1.09116 0.0223102 
0.593842 -0.0673371 0.245624 
-0.0673371 0.368026 -0.921427 
0.245624 -0.921427 0.135424 
0.517429 -0.066003 0.225033 
-0.066003 0.421353 -0.924881 
0.225033 -0.924881 0.15851 
0.46792 -0.0752717 0.217961 
-0.0752717 0.623039 -1.09669 
0.217961 -1.09669 0.00633296 
0.49285 -0.0766058 0.239926 
-0.0766058 0.626752 -1.09116 
0.239926 -1.09116 -0.02231 
0.17489 -0.0679892 0.228892 
-0.0679892 0.639072 -0.963567 
0.228892 -0.963567 0.28333 
0.256005 -0.065281 0.208301 
-0.065281 0.678594 -0.96827 
0.208301 -0.96827 0.162692 
0.187761 -0.0766179 0.202476 
-0.0766179 0.475725 -1.14007 
0.202476 -1.14007 0.433806 
0.0864888 -0.079326 0.224442 
-0.079326 0.456383 -1.1333 
0.224442 -1.1333 0.55442 
1.31386 -0.182854 0.226767 
-0.182854 1.25107 -0.817831 
0.226767 -0.817831 0.634035 
1.24034 -0.177685 0.211298 
-0.177685 1.39394 -0.820901 
0.211298 -0.820901 0.564682 
1.08029 -0.208752 0.205535 
-0.208752 1.58968 -1.05388 
0.205535 -1.05388 0.528995 
1.04198 -0.213922 0.221645 
-0.213922 1.56077 -1.04868 
0.221645 -1.04868 0.596213 
0.920066 -0.181202 0.17447 
-0.181202 1.6225 -0.898807 
0.17447 -0.898807 0.656401 
1.02287 -0.175392 0.159001 
-0.175392 1.75655 -0.904116 
0.159001 -0.904116 0.419542 
0.844941 -0.20859 0.155477 
-0.20859 2.00065 -1.1371 
0.155477 -1.1371 0.353375 
0.663211 -0.214399 0.171586 
-0.214399 1.9534 -1.12966 
0.171586 -1.12966 0.582358 
1.8457 -0.229371 0.172297 
-0.229371 1.94047 -0.519526 
0.172297 -0.519526 1.13004 
1.80327 -0.2229 0.172034 
-0.2229 2.14236 -0.522994 
0.172034 -0.522994 0.970584 
1.58455 -0.271567 0.170404 
-0.271567 2.72749 -0.769284 
0.170404 -0.769284 0.60417 
1.48529 -0.278037 0.169835 
-0.278037 2.65863 -0.764838 
0.169835 -0.764838 0.772295 
1.57576 -0.226299 0.0898642 
-0.226299 2.22478 -0.522638 
0.0898642 -0.522638 1.11567 
1.66551 -0.220661 0.089601 
-0.220661 2.42177 -0.52431 
0.089601 -0.52431 0.828932 
1.43691 -0.270305 0.0861752 
-0.270305 3.77849 -0.7706 
0.0861752 -0.7706 -0.299191 
1.22895 -0.275944 0.0856068 
-0.275944 3.70035 -0.76795 
0.0856068 -0.76795 -0.013084 
1.98841 -0.172953 0.112095 
-0.172953 2.30196 0.169502 
0.112095 0.169502 1.40188 
1.99684 -0.173823 0.133823 
-0.173823 2.48074 0.169686 
0.133823 0.169686 1.21467 
1.82695 -0.219841 0.134767 
-0.219841 4.03177 0.191721 
0.134767 0.191721 -0.166475 
1.71492 -0.218971 0.114164 
-0.218971 3.95302 0.189061 
0.114164 0.189061 0.0243093 
1.98828 -0.174352 0.0300829 
-0.174352 1.99023 0.301917 
0.0300829 0.301917 1.71373 
1.92963 -0.174097 0.0518113 
-0.174097 2.16738 0.30432 
0.0518113 0.30432 1.59524 
1.76252 -0.21764 0.0505365 
-0.21764 4.34975 0.326355 
0.0505365 0.326355 -0.420019 
1.70699 -0.217894 0.029933 
-0.217894 4.28043 0.321476 
0.029933 0.321476 -0.295173 
1.66096 -0.0549005 0.144349 
-0.0549005 2.0703 1.16545 
0.144349 1.16545 1.10457 
1.62207 -0.0636094 0.153557 
-0.0636094 2.13687 1.16827 
0.153557 1.16827 1.07689 
1.55052 -0.0861817 0.153346 
-0.0861817 4.27004 1.7759 
0.153346 1.7759 -0.98473 
1.59088 -0.0774729 0.147791 
-0.0774729 4.20986 1.77022 
0.147791 1.77022 -0.964909 
1.80353 -0.059475 0.105556 
-0.059475 0.650124 1.28689 
0.105556 1.28689 2.38218 
1.51738 -0.0645326 0.114764 
-0.0645326 0.717768 1.28774 
0.114764 1.28774 2.60068 
1.44858 -0.0842448 0.11653 
-0.0842448 2.12242 1.89536 
0.11653 1.89536 1.26483 
1.71438 -0.0791872 0.110974 
-0.0791872 2.07611 1.89166 
0.110974 1.89166 1.04535 
-2.206 0.152202 0.0447995 
0.152202 -0.773338 1.05149 
0.0447995 1.05149 -2.49216 
-1.70898 0.151234 0.105556 
0.151234 -0.993202 1.05012 
0.105556 1.05012 -2.76932 
-1.57096 0.205651 0.110974 
0.205651 -2.43727 1.58845 
0.110974 1.58845 -1.46327 
-1.94466 0.206618 0.034583 
0.206618 -2.34944 1.58499 
0.034583 1.58499 -1.1774 
-1.72707 0.16105 0.151076 
0.16105 -1.97452 0.938335 
0.151076 0.938335 -1.76991 
-1.85721 0.144449 0.211833 
0.144449 -2.20775 0.94126 
0.211833 0.94126 -1.40654 
-1.68592 0.203694 0.212957 
0.203694 -4.3541 1.47959 
0.212957 1.47959 0.568517 
-1.4291 0.220295 0.136566 
0.220295 -4.25804 1.47184 
0.136566 1.47184 0.215633 
-2.02436 0.435237 0.0918102 
0.435237 -1.764 0.168113 
0.0918102 0.168113 -2.19546 
-2.06908 0.424853 0.0975665 
0.424853 -2.27984 0.173677 
0.0975665 0.173677 -1.6349 
-1.58727 0.57921 0.095099 
0.57921 -4.49028 0.16912 
0.095099 0.16912 0.0937338 
-1.38352 0.589594 0.0822288 
0.589594 -4.11556 0.159607 
0.0822288 0.159607 -0.484746 
-2.27658 0.441794 0.286254 
0.441794 -1.9289 0.0413894 
0.286254 0.0413894 -1.77835 
-2.255 0.424297 0.292011 
0.424297 -2.44687 0.0350734 
0.292011 0.0350734 -1.28195 
-1.75923 0.582604 0.301422 
0.582604 -4.08624 0.0305171 
0.301422 0.0305171 -0.13835 
-1.61788 0.600102 0.288552 
0.600102 -3.69599 0.0328826 
0.288552 0.0328826 -0.669948 
-1.52487 0.498861 0.293432 
0.498861 -1.89267 -0.483565 
0.293432 -0.483565 -1.58025 
-1.67413 0.492204 0.26978 
0.492204 -2.396 -0.489915 
0.26978 -0.489915 -0.927668 
-1.16242 0.647654 0.272865 
0.647654 -3.76433 -0.70133 
0.272865 -0.70133 -0.0710435 
-0.943282 0.654311 0.287875 
0.654311 -3.35548 -0.690902 
0.287875 -0.690902 -0.699034 
-2.14861 0.51324 0.457496 
0.51324 -1.55341 -0.49585 
0.457496 -0.49585 -1.29577 
-1.98932 0.49794 0.433844 
0.49794 -2.05075 -0.501896 
0.433844 -0.501896 -0.957735 
-1.48533 0.649311 0.436626 
0.649311 -2.81865 -0.713311 
0.436626 -0.713311 -0.693817 
-1.52065 0.664611 0.451636 
0.664611 -2.42205 -0.703186 
0.451636 -0.703186 -1.0551 
-0.86319 0.366722 0.463958 
0.366722 -1.37301 -0.755061 
0.463958 -0.755061 -0.974517 
-0.944579 0.363891 0.436017 
0.363891 -1.68771 -0.765477 
0.436017 -0.765477 -0.578437 
-0.626382 0.456332 0.438377 
0.456332 -2.0109 -0.949308 
0.438377 -0.949308 -0.573435 
-0.482816 0.459163 0.456549 
0.459163 -1.78496 -0.930946 
0.456549 -0.930946 -0.942946 
-1.5477 0.37828 0.55399 
0.37828 -0.984792 -0.700364 
0.55399 -0.700364 -0.678228 
-1.37441 0.36568 0.526049 
0.36568 -1.30295 -0.703622 
0.526049 -0.703622 -0.533367 
-1.06616 0.450175 0.521251 
0.450175 -1.62688 -0.887453 
0.521251 -0.887453 -0.517678 
-1.11369 0.462775 0.539423 
0.462775 -1.43994 -0.876249 
0.539423 -0.876249 -0.657098 
-0.0773627 0.130702 0.555201 
0.130702 -0.562415 -0.793387 
0.555201 -0.793387 -0.45735 
-0.149973 0.132662 0.528174 
0.132662 -0.657555 -0.800538 
0.528174 -0.800538 -0.289599 
-0.0431661 0.164139 0.524048 
0.164139 -0.530083 -0.930567 
0.524048 -0.930567 -0.523879 
0.0406507 0.162179 0.54163 
0.162179 -0.447525 -0.914812 
0.54163 -0.914812 -0.690253 
-0.755234 0.137372 0.582124 
0.137372 -0.264011 -0.763487 
0.582124 -0.763487 -0.0778829 
-0.635888 0.129887 0.555097 
0.129887 -0.374405 -0.767635 
0.555097 -0.767635 -0.086834 
-0.537118 0.15276 0.547969 
0.15276 -0.593022 -0.897665 
0.547969 -0.897665 0.0330121 
-0.586945 0.160245 0.565551 
0.160245 -0.564197 -0.884912 
0.565551 -0.884912 0.0540144 
0.755234 -0.137372 0.582124 
-0.137372 0.264011 -0.763487 
0.582124 -0.763487 0.077883 
0.635889 -0.129887 0.555097 
-0.129887 0.374405 -0.767635 
0.555097 -0.767635 0.0868341 
0.537118 -0.15276 0.547969 
-0.15276 0.593022 -0.897665 
0.547969 -0.897665 -0.0330119 
0.586945 -0.160245 0.565551 
-0.160245 0.564197 -0.884912 
0.565551 -0.884912 -0.0540142 
0.0773628 -0.130702 0.555201 
-0.130702 0.562416 -0.793387 
0.555201 -0.793387 0.45735 
0.149974 -0.132662 0.528174 
-0.132662 0.657555 -0.800538 
0.528174 -0.800538 0.289599 
0.0431662 -0.164139 0.524048 
-0.164139 0.530083 -0.930567 
0.524048 -0.930567 0.523879 
-0.0406505 -0.162179 0.54163 
-0.162179 0.447525 -0.914812 
0.54163 -0.914812 0.690253 
1.5477 -0.37828 0.55399 
-0.37828 0.984792 -0.700364 
0.55399 -0.700364 0.678228 
1.37441 -0.36568 0.526049 
-0.36568 1.30295 -0.703622 
0.526049 -0.703622 0.533367 
1.06616 -0.450175 0.521251 
-0.450175 1.62688 -0.887453 
0.521251 -0.887453 0.517678 
1.11369 -0.462775 0.539423 
-0.462775 1.43994 -0.876249 
0.539423 -0.876249 0.657099 
0.86319 -0.366722 0.463958 
-0.366722 1.37301 -0.755061 
0.463958 -0.755061 0.974517 
0.944579 -0.363891 0.436017 
-0.363891 1.68771 -0.765477 
0.436017 -0.765477 0.578437 
0.626382 -0.456332 0.438377 
-0.456332 2.0109 -0.949308 
0.438377 -0.949308 0.573435 
0.482816 -0.459163 0.456549 
-0.459163 1.78496 -0.930946 
0.456549 -0.930946 0.942946 
2.14861 -0.51324 0.457496 
-0.51324 1.55341 -0.49585 
0.457496 -0.49585 1.29577 
1.98932 -0.49794 0.433844 
-0.49794 2.05075 -0.501896 
0.433844 -0.501896 0.957735 
1.48533 -0.649311 0.436626 
-0.649311 2.81865 -0.713311 
0.436626 -0.713311 0.693817 
1.52065 -0.664611 0.451636 
-0.664611 2.42205 -0.703186 
0.451636 -0.703186 1.0551 
1.52487 -0.498861 0.293432 
-0.498861 1.89267 -0.483565 
0.293432 -0.483565 1.58025 
1.67413 -0.492204 0.26978 
-0.492204 2.396 -0.489915 
0.26978 -0.489915 0.927668 
1.16242 -0.647654 0.272865 
-0.647654 3.76433 -0.70133 
0.272865 -0.70133 0.0710436 
0.943282 -0.654311 0.287875 
-0.654311 3.35548 -0.690902 
0.287875 -0.690902 0.699034 
2.27658 -0.441794 0.286254 
-0.441794 1.9289 0.0413894 
0.286254 0.0413894 1.77835 
2.255 -0.424297 0.292011 
-0.424297 2.44687 0.0350734 
0.292011 0.0350734 1.28195 
1.75923 -0.582604 0.301422 
-0.582604 4.08624 0.0305171 
0.301422 0.0305171 0.13835 
1.61788 -0.600102 0.288552 
-0.600102 3.69599 0.0328826 
0.288552 0.0328826 0.669948 
2.02436 -0.435237 0.0918102 
-0.435237 1.764 0.168113 
0.0918102 0.168113 2.19546 
2.06908 -0.424853 0.0975665 
-0.424853 2.27984 0.173677 
0.0975665 0.173677 1.6349 
1.58727 -0.57921 0.095099 
-0.57921 4.49028 0.16912 
0.095099 0.16912 -0.0937336 
1.38352 -0.589594 0.0822288 
-0.589594 4.11556 0.159607 
0.0822288 0.159607 0.484746 
1.72707 -0.16105 0.151076 
-0.16105 1.97452 0.938335 
0.151076 0.938335 1.76991 
1.85721 -0.144449 0.211833 
-0.144449 2.20775 0.94126 
0.211833 0.94126 1.40654 
1.68592 -0.203694 0.212957 
-0.203694 4.3541 1.47959 
0.212957 1.47959 -0.568516 
1.4291 -0.220295 0.136566 
-0.220295 4.25804 1.47184 
0.136566 1.47184 -0.215633 
2.206 -0.152202 0.0447995 
-0.152202 0.773339 1.05149 
0.0447995 1.05149 2.49216 
1.70898 -0.151234 0.105556 
-0.151234 0.993202 1.05012 
0.105556 1.05012 2.76932 
1.57096 -0.205651 0.110974 
-0.205651 2.43727 1.58845 
0.110974 1.58845 1.46327 
1.94466 -0.206618 0.034583 
-0.206618 2.34944 1.58499 
0.034583 1.58499 1.1774 
-2.55538 0.476918 1.5642e-11 
0.476918 -0.761626 0.478909 
1.5642e-11 0.478909 -2.55032 
-2.14334 0.463749 0.0447995 
0.463749 -1.44272 0.464278 
0.0447995 0.464278 -2.28127 
-1.29935 0.727899 0.034583 
0.727899 -3.08473 0.718348 
0.034583 0.718348 -1.48325 
-1.86921 0.741067 -4.58395e-11 
0.741067 -2.23181 0.73188 
-4.58395e-11 0.73188 -1.76632 
-2.07715 0.462287 0.207599 
0.462287 -1.36007 0.433743 
0.207599 0.433743 -2.43011 
-2.25417 0.459335 0.252398 
0.459335 -2.07637 0.415222 
0.252398 0.415222 -1.5368 
-1.46045 0.724583 0.246072 
0.724583 -3.92837 0.669292 
0.246072 0.669292 -0.478517 
-1.38639 0.727535 0.211489 
0.727535 -3.10573 0.686714 
0.211489 0.686714 -1.37521 
-2.32453 0.972649 0.207599 
0.972649 -0.984649 0.0319515 
0.207599 0.0319515 -2.64322 
-2.25557 0.962219 0.193132 
0.962219 -2.2447 0.0416679 
0.193132 0.0416679 -1.45214 
-1.05226 1.41124 0.191735 
1.41124 -4.2209 0.016347 
0.191735 0.016347 -0.679251 
-1.2656 1.42167 0.211489 
1.42167 -2.82135 -0.0226721 
0.211489 -0.0226721 -1.86545 
-2.66526 0.986256 0.579782 
0.986256 -1.0484 -0.022911 
0.579782 -0.022911 -2.23875 
-2.53424 0.981113 0.565316 
0.981113 -2.298 -0.0430459 
0.565316 -0.0430459 -1.12017 
-1.33841 1.45944 0.59377 
1.45944 -3.9279 -0.0683668 
0.59377 -0.0683668 -0.686099 
-1.62249 1.46458 0.613524 
1.46458 -2.38687 -0.0775346 
0.613524 -0.0775346 -1.94305 
-1.74204 0.950935 0.579782 
0.950935 -1.00894 -0.222447 
0.579782 -0.222447 -2.17193 
-1.69972 0.941766 0.572494 
0.941766 -2.07893 -0.237481 
0.572494 -0.237481 -1.14427 
-0.801387 1.28639 0.593093 
1.28639 -3.30717 -0.343365 
0.593093 -0.343365 -0.814364 
-0.895315 1.29556 0.613524 
1.29556 -2.3046 -0.333855 
0.613524 -0.333855 -1.72301 
-2.42666 0.969642 0.877182 
0.969642 -0.895631 -0.239698 
0.877182 -0.239698 -1.60063 
-2.15204 0.973615 0.869893 
0.973615 -1.91312 -0.238621 
0.869893 -0.238621 -0.85776 
-1.30124 1.32376 0.874381 
1.32376 -2.84624 -0.344504 
0.874381 -0.344504 -0.775441 
-1.59117 1.31979 0.894812 
1.31979 -1.76646 -0.351105 
0.894812 -0.351105 -1.56528 
-0.947232 0.654669 0.877182 
0.654669 -0.755435 -0.32927 
0.877182 -0.32927 -1.46974 
-0.901342 0.647491 0.876355 
0.647491 -1.37071 -0.342783 
0.876355 -0.342783 -0.900358 
-0.39107 0.835227 0.879294 
0.835227 -1.88435 -0.440085 
0.879294 -0.440085 -0.896993 
-0.398808 0.842405 0.894812 
0.842405 -1.37258 -0.408964 
0.894812 -0.408964 -1.40103 
-1.75921 0.658787 1.03559 
0.658787 -0.626277 -0.318767 
1.03559 -0.318767 -0.786925 
-1.51426 0.666301 1.03476 
0.666301 -1.21251 -0.31068 
1.03476 -0.31068 -0.445636 
-1.06423 0.836428 1.0161 
0.836428 -1.61526 -0.407983 
1.0161 -0.407983 -0.492921 
-1.21624 0.828914 1.03162 
0.828914 -1.15319 -0.398461 
1.03162 -0.398461 -0.802975 
-0.0459531 0.233025 1.03559 
0.233025 -0.305901 -0.345004 
1.03559 -0.345004 -0.733915 
-0.0575733 0.226232 1.03597 
0.226232 -0.489679 -0.348211 
1.03597 -0.348211 -0.538517 
0.119956 0.289629 1.01831 
0.289629 -0.597889 -0.420852 
1.01831 -0.420852 -0.607837 
0.14115 0.296423 1.03162 
0.296423 -0.4125 -0.394698 
1.03162 -0.394698 -0.81442 
-0.8797 0.22585 1.08159 
0.22585 -0.20002 -0.336211 
1.08159 -0.336211 -0.006049 
-0.757036 0.232753 1.08197 
0.232753 -0.386916 -0.331489 
1.08197 -0.331489 0.0581827 
-0.635643 0.273203 1.05638 
0.273203 -0.510339 -0.404131 
1.05638 -0.404131 0.0602128 
-0.697708 0.266301 1.06969 
0.266301 -0.430685 -0.385906 
1.06969 -0.385906 0.0426235 
0.8797 -0.22585 1.08159 
-0.22585 0.200021 -0.336211 
1.08159 -0.336211 0.00604914 
0.757037 -0.232753 1.08197 
-0.232753 0.386916 -0.331489 
1.08197 -0.331489 -0.0581826 
0.635643 -0.273203 1.05638 
-0.273203 0.51034 -0.404131 
1.05638 -0.404131 -0.0602126 
0.697708 -0.266301 1.06969 
-0.266301 0.430685 -0.385906 
1.06969 -0.385906 -0.0426233 
0.0459533 -0.233025 1.03559 
-0.233025 0.305901 -0.345004 
1.03559 -0.345004 0.733916 
0.0575734 -0.226232 1.03597 
-0.226232 0.489679 -0.348211 
1.03597 -0.348211 0.538517 
-0.119956 -0.289629 1.01831 
-0.289629 0.597889 -0.420852 
1.01831 -0.420852 0.607837 
-0.14115 -0.296423 1.03162 
-0.296423 0.4125 -0.394698 
1.03162 -0.394698 0.81442 
1.75921 -0.658787 1.03559 
-0.658787 0.626277 -0.318767 
1.03559 -0.318767 0.786926 
1.51426 -0.666301 1.03476 
-0.666301 1.21251 -0.31068 
1.03476 -0.31068 0.445636 
1.06423 -0.836428 1.0161 
-0.836428 1.61526 -0.407983 
1.0161 -0.407983 0.492921 
1.21624 -0.828914 1.03162 
-0.828914 1.15319 -0.398461 
1.03162 -0.398461 0.802975 
0.947232 -0.654669 0.877182 
-0.654669 0.755435 -0.32927 
0.877182 -0.32927 1.46975 
0.901342 -0.647491 0.876355 
-0.647491 1.37071 -0.342783 
0.876355 -0.342783 0.900358 
0.391071 -0.835227 0.879294 
-0.835227 1.88435 -0.440085 
0.879294 -0.440085 0.896993 
0.398808 -0.842405 0.894812 
-0.842405 1.37258 -0.408964 
0.894812 -0.408964 1.40103 
2.42666 -0.969642 0.877182 
-0.969642 0.895632 -0.239698 
0.877182 -0.239698 1.60063 
2.15204 -0.973615 0.869893 
-0.973615 1.91312 -0.238621 
0.869893 -0.238621 0.85776 
1.30124 -1.32376 0.874381 
-1.32376 2.84624 -0.344504 
0.874381 -0.344504 0.775441 
1.59117 -1.31979 0.894812 
-1.31979 1.76647 -0.351105 
0.894812 -0.351105 1.56528 
1.74204 -0.950935 0.579782 
-0.950935 1.00894 -0.222447 
0.579782 -0.222447 2.17193 
1.69972 -0.941766 0.572494 
-0.941766 2.07893 -0.237481 
0.572494 -0.237481 1.14427 
0.801387 -1.28639 0.593093 
-1.28639 3.30717 -0.343365 
0.593093 -0.343365 0.814364 
0.895316 -1.29556 0.613524 
-1.29556 2.3046 -0.333855 
0.613524 -0.333855 1.72301 
2.66526 -0.986256 0.579782 
-0.986256 1.0484 -0.022911 
0.579782 -0.022911 2.23875 
2.53424 -0.981113 0.565316 
-0.981113 2.298 -0.0430459 
0.565316 -0.0430459 1.12017 
1.33841 -1.45944 0.59377 
-1.45944 3.9279 -0.0683668 
0.59377 -0.0683668 0.686099 
1.62249 -1.46458 0.613524 
-1.46458 2.38687 -0.0775346 
0.613524 -0.0775346 1.94305 
2.32453 -0.972649 0.207599 
-0.972649 0.984649 0.0319515 
0.207599 0.0319515 2.64322 
2.25557 -0.962219 0.193132 
-0.962219 2.2447 0.0416679 
0.193132 0.0416679 1.45214 
1.05226 -1.41124 0.191735 
-1.41124 4.2209 0.016347 
0.191735 0.016347 0.679251 
1.2656 -1.42167 0.211489 
-1.42167 2.82135 -0.0226721 
0.211489 -0.0226721 1.86545 
2.07715 -0.462287 0.207599 
-0.462287 1.36007 0.433743 
0.207599 0.433743 2.43011 
2.25417 -0.459335 0.252398 
-0.459335 2.07637 0.415222 
0.252398 0.415222 1.5368 
1.46045 -0.724583 0.246072 
-0.724583 3.92837 0.669292 
0.246072 0.669292 0.478517 
1.38639 -0.727535 0.211489 
-0.727535 3.10573 0.686714 
0.211489 0.686714 1.37522 
2.55538 -0.476918 1.5642e-11 
-0.476918 0.761626 0.478909 
1.5642e-11 0.478909 2.55032 
2.14334 -0.463749 0.0447995 
-0.463749 1.44272 0.464278 
0.0447995 0.464278 2.28127 
1.29935 -0.727899 0.034583 
-0.727899 3.08473 0.718348 
0.034583 0.718348 1.48325 
1.86921 -0.741067 -4.58395e-11 
-0.741067 2.23181 0.73188 
-4.58395e-11 0.73188 1.76632 
-0.487166 -0.000253466 0.0103632 
-0.000253466 0.0724392 0.976157 
0.0103632 0.976157 -1.05794 
-0.484827 4.525e-05 4.42689e-11 
4.525e-05 0.0726179 0.976156 
4.42689e-11 0.976156 -1.06046 
-0.485632 4.99024e-07 6.16171e-11 
4.99024e-07 -0.671148 1.4563 
6.16171e-11 1.4563 -0.315888 
-0.487993 -0.000298217 0.0103486 
-0.000298217 -0.671281 1.45631 
0.0103486 1.45631 -0.313394 
-0.519141 -0.000239847 0.00992238 
-0.000239847 -1.0532 0.893415 
0.00992238 0.893415 0.0996743 
-0.513798 4.4298e-05 -0.000440793 
4.4298e-05 -1.05301 0.893392 
-0.000440793 0.893392 0.0941433 
-0.514601 -6.12186e-06 -0.000418672 
-6.12186e-06 -2.37224 1.37354 
-0.000418672 1.37354 1.41417 
-0.519905 -0.000290267 0.00992993 
-0.000290267 -2.37239 1.37357 
0.00992993 1.37357 1.41962 
-0.834129 -0.000742017 0.00437298 
-0.000742017 -1.08958 0.33553 
0.00437298 0.33553 -0.514497 
-0.828731 8.31183e-05 -0.000440793 
8.31183e-05 -1.08919 0.335512 
-0.000440793 0.335512 -0.520281 
-0.830936 -2.0904e-05 -0.000418673 
-2.0904e-05 -2.44664 0.450066 
-0.000418673 0.450066 0.839377 
-0.836461 -0.000846039 0.00438361 
-0.000846039 -2.44698 0.450088 
0.00438361 0.450088 0.845236 
-0.846803 -0.000726499 0.0035703 
-0.000726499 -1.4522 0.212207 
0.0035703 0.212207 -0.139201 
-0.840635 8.71516e-05 -0.00124347 
8.71516e-05 -1.45179 0.212207 
-0.00124347 0.212207 -0.145775 
-0.842838 -2.09145e-05 -0.00123891 
-2.09145e-05 -2.69238 0.326761 
-0.00123891 0.326761 1.09701 
-0.849086 -0.000834565 0.00356337 
-0.000834565 -2.69271 0.326765 
0.00356337 0.326765 1.10359 
-0.845662 -0.000929531 -0.00237628 
-0.000929531 -1.5155 -0.342999 
-0.00237628 -0.342999 -0.0711529 
-0.839836 9.00683e-05 -0.00124347 
9.00683e-05 -1.51507 -0.343002 
-0.00124347 -0.343002 -0.0774154 
-0.842613 -2.44715e-05 -0.00123891 
-2.44715e-05 -2.65258 -0.474887 
-0.00123891 -0.474887 1.06288 
-0.848569 -0.00104407 -0.00235567 
-0.00104407 -2.65291 -0.474886 
-0.00235567 -0.474886 1.06916 
-0.837603 -0.000944256 -0.00316694 
-0.000944256 -1.3344 -0.413403 
-0.00316694 -0.413403 -0.260319 
-0.832699 9.13884e-05 -0.00203414 
9.13884e-05 -1.33396 -0.413388 
-0.00203414 -0.413388 -0.265663 
-0.835488 -2.06149e-05 -0.002047 
-2.06149e-05 -2.068 -0.545273 
-0.002047 -0.545273 0.471165 
-0.84057 -0.00105626 -0.00316376 
-0.00105626 -2.06831 -0.545289 
-0.00316376 -0.545289 0.476562 
-0.608927 -0.000735174 -0.00783218 
-0.000735174 -1.29576 -0.809514 
-0.00783218 -0.809514 0.183516 
-0.604576 7.1472e-05 -0.00203414 
7.1472e-05 -1.29543 -0.809502 
-0.00203414 -0.809502 0.178834 
-0.606801 -1.6202e-05 -0.002047 
-1.6202e-05 -1.83323 -1.03483 
-0.002047 -1.03483 0.718853 
-0.611217 -0.000822848 -0.00780913 
-0.000822848 -1.83346 -1.03485 
-0.00780913 -1.03485 0.723505 
-0.584981 -0.000771782 -0.00836234 
-0.000771782 -0.839898 -0.818753 
-0.00836234 -0.818753 -0.296295 
-0.582172 7.07719e-05 -0.0025643 
7.07719e-05 -0.839579 -0.81873 
-0.0025643 -0.81873 -0.299423 
-0.584417 -7.93738e-06 -0.00258729 
-7.93738e-06 -1.18767 -1.04405 
-0.00258729 -1.04405 0.0509164 
-0.587412 -0.000850491 -0.00834942 
-0.000850491 -1.18788 -1.04409 
-0.00834942 -1.04409 0.0541195 
-0.22962 -0.000261732 -0.0108715 
-0.000261732 -0.657566 -1.01387 
-0.0108715 -1.01387 0.272556 
-0.227535 2.83751e-05 -0.0025643 
2.83751e-05 -0.657436 -1.01385 
-0.0025643 -1.01385 0.270342 
-0.228369 -8.22284e-06 -0.00258729 
-8.22284e-06 -0.744752 -1.2533 
-0.00258729 -1.2533 0.358492 
-0.230425 -0.00029833 -0.0108503 
-0.00029833 -0.744847 -1.25333 
-0.0108503 -1.25333 0.360643 
-0.19724 -0.000308059 -0.0110546 
-0.000308059 -0.123908 -1.00871 
-0.0110546 -1.00871 -0.293481 
-0.196847 2.62297e-05 -0.00274739 
2.62297e-05 -0.1238 -1.00869 
-0.00274739 -1.00869 -0.293982 
-0.197704 2.28458e-06 -0.00277349 
2.28458e-06 -0.264818 -1.24813 
-0.00277349 -1.24813 -0.152107 
-0.19822 -0.000332004 -0.0110365 
-0.000332004 -0.264879 -1.24817 
-0.0110365 -1.24817 -0.151529 
0.19724 0.000308059 -0.0110546 
0.000308059 0.123908 -1.00871 
-0.0110546 -1.00871 0.293481 
0.196847 -2.62297e-05 -0.00274739 
-2.62297e-05 0.123801 -1.00869 
-0.00274739 -1.00869 0.293982 
0.197704 -2.28458e-06 -0.00277349 
-2.28458e-06 0.264818 -1.24813 
-0.00277349 -1.24813 0.152108 
0.19822 0.000332004 -0.0110365 
0.000332004 0.26488 -1.24817 
-0.0110365 -1.24817 0.15153 
0.22962 0.000261732 -0.0108715 
0.000261732 0.657566 -1.01387 
-0.0108715 -1.01387 -0.272556 
0.227535 -2.83751e-05 -0.0025643 
-2.83751e-05 0.657436 -1.01385 
-0.0025643 -1.01385 -0.270342 
0.22837 8.22284e-06 -0.00258729 
8.22284e-06 0.744752 -1.2533 
-0.00258729 -1.2533 -0.358492 
0.230425 0.00029833 -0.0108503 
0.00029833 0.744847 -1.25333 
-0.0108503 -1.25333 -0.360643 
0.584981 0.000771782 -0.00836234 
0.000771782 0.839898 -0.818753 
-0.00836234 -0.818753 0.296295 
0.582172 -7.07719e-05 -0.0025643 
-7.07719e-05 0.839579 -0.81873 
-0.0025643 -0.81873 0.299424 
0.584417 7.93738e-06 -0.00258729 
7.93738e-06 1.18767 -1.04405 
-0.00258729 -1.04405 -0.0509162 
0.587412 0.000850491 -0.00834942 
0.000850491 1.18788 -1.04409 
-0.00834942 -1.04409 -0.0541194 
0.608927 0.000735174 -0.00783218 
0.000735174 1.29576 -0.809514 
-0.00783218 -0.809514 -0.183515 
0.604576 -7.1472e-05 -0.00203414 
-7.1472e-05 1.29543 -0.809502 
-0.00203414 -0.809502 -0.178834 
0.606801 1.6202e-05 -0.002047 
1.6202e-05 1.83323 -1.03483 
-0.002047 -1.03483 -0.718853 
0.611217 0.000822848 -0.00780913 
0.000822848 1.83346 -1.03485 
-0.00780913 -1.03485 -0.723505 
0.837603 0.000944256 -0.00316694 
0.000944256 1.3344 -0.413403 
-0.00316694 -0.413403 0.260319 
0.832699 -9.13884e-05 -0.00203414 
-9.13884e-05 1.33396 -0.413388 
-0.00203414 -0.413388 0.265663 
0.835488 2.06149e-05 -0.002047 
2.06149e-05 2.068 -0.545273 
-0.002047 -0.545273 -0.471165 
0.840571 0.00105626 -0.00316376 
0.00105626 2.06831 -0.545289 
-0.00316376 -0.545289 -0.476562 
0.845662 0.000929531 -0.00237628 
0.000929531 1.5155 -0.342999 
-0.00237628 -0.342999 0.071153 
0.839836 -9.00683e-05 -0.00124347 
-9.00683e-05 1.51507 -0.343002 
-0.00124347 -0.343002 0.0774155 
0.842613 2.44715e-05 -0.00123891 
2.44715e-05 2.65258 -0.474887 
-0.00123891 -0.474887 -1.06288 
0.84857 0.00104407 -0.00235567 
0.00104407 2.65291 -0.474886 
-0.00235567 -0.474886 -1.06916 
0.846803 0.000726499 0.0035703 
0.000726499 1.4522 0.212207 
0.0035703 0.212207 0.139201 
0.840635 -8.71516e-05 -0.00124347 
-8.71516e-05 1.45179 0.212207 
-0.00124347 0.212207 0.145775 
0.842838 2.09145e-05 -0.00123891 
2.09145e-05 2.69238 0.326761 
-0.00123891 0.326761 -1.09701 
0.849086 0.000834565 0.00356337 
0.000834565 2.69271 0.326765 
0.00356337 0.326765 -1.10359 
0.834129 0.000742017 0.00437298 
0.000742017 1.08958 0.33553 
0.00437298 0.33553 0.514497 
0.828731 -8.31183e-05 -0.000440793 
-8.31183e-05 1.08919 0.335512 
-0.000440793 0.335512 0.520281 
0.830936 2.0904e-05 -0.000418673 
2.0904e-05 2.44664 0.450066 
-0.000418673 0.450066 -0.839377 
0.836462 0.000846039 0.00438361 
0.000846039 2.44698 0.450088 
0.00438361 0.450088 -0.845236 
0.519141 0.000239847 0.00992238 
0.000239847 1.0532 0.893415 
0.00992238 0.893415 -0.0996741 
0.513798 -4.4298e-05 -0.000440793 
-4.4298e-05 1.05301 0.893392 
-0.000440793 0.893392 -0.0941432 
0.514601 6.12186e-06 -0.000418672 
6.12186e-06 2.37224 1.37354 
-0.000418672 1.37354 -1.41417 
0.519905 0.000290267 0.00992993 
0.000290267 2.37239 1.37357 
0.00992993 1.37357 -1.41962 
0.487166 0.000253466 0.0103632 
0.000253466 -0.072439 0.976157 
0.0103632 0.976157 1.05794 
0.484827 -4.525e-05 4.42689e-11 
-4.525e-05 -0.0726177 0.976156 
4.42689e-11 0.976156 1.06046 
0.485632 -4.99024e-07 6.16171e-11 
-4.99024e-07 0.671148 1.4563 
6.16171e-11 1.4563 0.315889 
0.487993 0.000298217 0.0103486 
0.000298217 0.671282 1.45631 
0.0103486 1.45631 0.313394 
-0.493384 -0.000496046 0.0219682 
-0.000496046 0.0682678 0.975972 
0.0219682 0.975972 -1.05934 
-0.485419 -9.52079e-05 0.0103632 
-9.52079e-05 0.0687686 0.975973 
0.0103632 0.975973 -1.06781 
-0.48635 -0.000225844 0.0103486 
-0.000225844 -0.674693 1.45629 
0.0103486 1.45629 -0.323413 
-0.494297 -0.000626682 0.0219536 
-0.000626682 -0.675138 1.4563 
0.0219536 1.4563 -0.31502 
-0.531811 -0.000480443 0.0207051 
-0.000480443 -1.05733 0.893052 
0.0207051 0.893052 0.104687 
-0.51536 -7.95502e-05 0.00910011 
-7.95502e-05 -1.05679 0.892984 
0.00910011 0.892984 0.0876952 
-0.516363 -0.000223899 0.00915494 
-0.000223899 -2.37687 1.3733 
0.00915494 1.3733 1.40878 
-0.532651 -0.000624791 0.02076 
-0.000624791 -2.37734 1.37338 
0.02076 1.37338 1.42554 
-0.846567 -0.00149015 0.00853442 
-0.00149015 -1.09451 0.335279 
0.00853442 0.335279 -0.511009 
-0.830018 -0.00039185 0.00355071 
-0.00039185 -1.09343 0.335227 
0.00355071 0.335227 -0.528636 
-0.832461 -0.000695052 0.00360863 
-0.000695052 -2.45164 0.449842 
0.00360863 0.449842 0.832019 
-0.849214 -0.00179335 0.00859456 
-0.00179335 -2.45275 0.449906 
0.00859456 0.449906 0.849882 
-0.860563 -0.00146365 0.00629847 
-0.00146365 -1.45707 0.211474 
0.00629847 0.211474 -0.134451 
-0.842248 -0.000363131 0.00131475 
-0.000363131 -1.45591 0.211479 
0.00131475 0.211479 -0.153925 
-0.844749 -0.000678107 0.00131533 
-0.000678107 -2.69774 0.326094 
0.00131533 0.326094 1.0904 
-0.863163 -0.00177862 0.00630127 
-0.00177862 -2.69882 0.3261 
0.00630127 0.3261 1.1099 
-0.857968 -0.00185061 -0.00613164 
-0.00185061 -1.51999 -0.343653 
-0.00613164 -0.343653 -0.0667393 
-0.840841 -0.000509822 -0.00463182 
-0.000509822 -1.51875 -0.343661 
-0.00463182 -0.343661 -0.0851038 
-0.843875 -0.00084563 -0.00460371 
-0.00084563 -2.65749 -0.475568 
-0.00460371 -0.475568 1.05667 
-0.861174 -0.00218642 -0.00608242 
-0.00218642 -2.65863 -0.475568 
-0.00608242 -0.475568 1.07511 
-0.848753 -0.00188368 -0.00826843 
-0.00188368 -1.33872 -0.414587 
-0.00826843 -0.414587 -0.257218 
-0.834473 -0.000521784 -0.00676861 
-0.000521784 -1.33747 -0.414541 
-0.00676861 -0.414541 -0.272747 
-0.837474 -0.000849897 -0.00679433 
-0.000849897 -2.07262 -0.546448 
-0.00679433 -0.546448 0.4654 
-0.852085 -0.0022118 -0.00827303 
-0.0022118 -2.07371 -0.546502 
-0.00827303 -0.546502 0.4811 
-0.617297 -0.00144551 -0.0177546 
-0.00144551 -1.2989 -0.810608 
-0.0177546 -0.810608 0.186651 
-0.604956 -0.000389191 -0.0114339 
-0.000389191 -1.29795 -0.810574 
-0.0114339 -0.810574 0.173362 
-0.60738 -0.0006472 -0.0114397 
-0.0006472 -1.83687 -1.03598 
-0.0114397 -1.03598 0.7147 
-0.619745 -0.00170352 -0.0177343 
-0.00170352 -1.83769 -1.03604 
-0.0177343 -1.03604 0.727891 
-0.592007 -0.00151495 -0.0191455 
-0.00151495 -0.842744 -0.820237 
-0.0191455 -0.820237 -0.294798 
-0.58382 -0.000432569 -0.0128248 
-0.000432569 -0.841853 -0.820173 
-0.0128248 -0.820173 -0.303875 
-0.586135 -0.000663425 -0.01286 
-0.000663425 -1.19058 -1.04558 
-0.01286 -1.04558 0.0471705 
-0.59468 -0.0017458 -0.0191546 
-0.0017458 -1.19134 -1.04567 
-0.0191546 -1.04567 0.0564767 
-0.232725 -0.000512969 -0.0241642 
-0.000512969 -0.658811 -1.01529 
-0.0241642 -1.01529 0.273962 
-0.227091 -0.000122634 -0.015334 
-0.000122634 -0.658428 -1.01523 
-0.015334 -1.01523 0.267945 
-0.22805 -0.00023091 -0.0153609 
-0.00023091 -0.746391 -1.25479 
-0.0153609 -1.25479 0.356867 
-0.233552 -0.000621245 -0.0241678 
-0.000621245 -0.746714 -1.25488 
-0.0241678 -1.25488 0.362692 
-0.199424 -0.000595813 -0.0246357 
-0.000595813 -0.124769 -1.01027 
-0.0246357 -1.01027 -0.293381 
-0.198035 -0.000182152 -0.0158055 
-0.000182152 -0.124484 -1.0102 
-0.0158055 -1.0102 -0.295055 
-0.198846 -0.000251971 -0.015841 
-0.000251971 -0.265498 -1.24976 
-0.015841 -1.24976 -0.153229 
-0.200503 -0.000665632 -0.0246479 
-0.000665632 -0.265747 -1.24986 
-0.0246479 -1.24986 -0.151324 
0.199424 0.000595813 -0.0246357 
0.000595813 0.124769 -1.01027 
-0.0246357 -1.01027 0.293381 
0.198035 0.000182152 -0.0158055 
0.000182152 0.124485 -1.0102 
-0.0158055 -1.0102 0.295055 
0.198847 0.000251971 -0.015841 
0.000251971 0.265498 -1.24976 
-0.015841 -1.24976 0.15323 
0.200503 0.000665632 -0.0246479 
0.000665632 0.265747 -1.24986 
-0.0246479 -1.24986 0.151324 
0.232725 0.000512969 -0.0241642 
0.000512969 0.658812 -1.01529 
-0.0241642 -1.01529 -0.273962 
0.227091 0.000122634 -0.015334 
0.000122634 0.658429 -1.01523 
-0.015334 -1.01523 -0.267945 
0.22805 0.00023091 -0.0153609 
0.00023091 0.746391 -1.25479 
-0.0153609 -1.25479 -0.356867 
0.233552 0.000621245 -0.0241678 
0.000621245 0.746714 -1.25488 
-0.0241678 -1.25488 -0.362691 
0.592007 0.00151495 -0.0191455 
0.00151495 0.842744 -0.820237 
-0.0191455 -0.820237 0.294798 
0.583821 0.000432569 -0.0128248 
0.000432569 0.841853 -0.820173 
-0.0128248 -0.820173 0.303876 
0.586136 0.000663425 -0.01286 
0.000663425 1.19058 -1.04558 
-0.01286 -1.04558 -0.0471704 
0.594681 0.0017458 -0.0191546 
0.0017458 1.19134 -1.04567 
-0.0191546 -1.04567 -0.0564766 
0.617298 0.00144551 -0.0177546 
0.00144551 1.2989 -0.810608 
-0.0177546 -0.810608 -0.18665 
0.604956 0.000389191 -0.0114339 
0.000389191 1.29795 -0.810574 
-0.0114339 -0.810574 -0.173362 
0.607381 0.0006472 -0.0114397 
0.0006472 1.83687 -1.03598 
-0.0114397 -1.03598 -0.714699 
0.619745 0.00170352 -0.0177343 
0.00170352 1.83769 -1.03604 
-0.0177343 -1.03604 -0.727891 
0.848753 0.00188368 -0.00826843 
0.00188368 1.33872 -0.414587 
-0.00826843 -0.414587 0.257218 
0.834473 0.000521784 -0.00676861 
0.000521784 1.33747 -0.414541 
-0.00676861 -0.414541 0.272747 
0.837475 0.000849897 -0.00679433 
0.000849897 2.07262 -0.546448 
-0.00679433 -0.546448 -0.4654 
0.852086 0.0022118 -0.00827303 
0.0022118 2.07371 -0.546502 
-0.00827303 -0.546502 -0.4811 
0.857968 0.00185061 -0.00613164 
0.00185061 1.51999 -0.343653 
-0.00613164 -0.343653 0.0667394 
0.840841 0.000509822 -0.00463182 
0.000509822 1.51875 -0.343661 
-0.00463182 -0.343661 0.0851039 
0.843875 0.00084563 -0.00460371 
0.00084563 2.65749 -0.475568 
-0.00460371 -0.475568 -1.05667 
0.861174 0.00218642 -0.00608242 
0.00218642 2.65863 -0.475568 
-0.00608242 -0.475568 -1.07511 
0.860563 0.00146365 0.00629847 
0.00146365 1.45707 0.211474 
0.00629847 0.211474 0.134451 
0.842249 0.000363131 0.00131475 
0.000363131 1.45591 0.211479 
0.00131475 0.211479 0.153925 
0.844749 0.000678107 0.00131533 
0.000678107 2.69774 0.326094 
0.00131533 0.326094 -1.0904 
0.863163 0.00177862 0.00630127 
0.00177862 2.69882 0.3261 
0.00630127 0.3261 -1.1099 
0.846567 0.00149015 0.00853442 
0.00149015 1.09451 0.335279 
0.00853442 0.335279 0.511009 
0.830018 0.00039185 0.00355071 
0.00039185 1.09343 0.335227 
0.00355071 0.335227 0.528636 
0.832462 0.000695052 0.00360863 
0.000695052 2.45164 0.449842 
0.00360863 0.449842 -0.832018 
0.849215 0.00179335 0.00859456 
0.00179335 2.45275 0.449906 
0.00859456 0.449906 -0.849882 
0.531811 0.000480443 0.0207051 
0.000480443 1.05733 0.893052 
0.0207051 0.893052 -0.104687 
0.51536 7.95502e-05 0.00910011 
7.95502e-05 1.05679 0.892984 
0.00910011 0.892984 -0.0876951 
0.516363 0.000223899 0.00915494 
0.000223899 2.37688 1.3733 
0.00915494 1.3733 -1.40878 
0.532651 0.000624791 0.02076 
0.000624791 2.37734 1.37338 
0.02076 1.37338 -1.42554 
0.493384 0.000496046 0.0219682 
0.000496046 -0.0682676 0.975972 
0.0219682 0.975972 1.05934 
0.485419 9.52079e-05 0.0103632 
9.52079e-05 -0.0687685 0.975973 
0.0103632 0.975973 1.06781 
0.48635 0.000225844 0.0103486 
0.000225844 0.674693 1.45629 
0.0103486 1.45629 0.323413 
0.494297 0.000626682 0.0219536 
0.000626682 0.675138 1.4563 
0.0219536 1.4563 0.31502 
-0.506159 -0.000686177 0.0358057 
-0.000686177 0.0587687 0.975276 
0.0358057 0.975276 -1.0649 
-0.489534 -7.608e-05 0.0219682 
-7.608e-05 0.0594025 0.975293 
0.0219682 0.975293 -1.08216 
-0.490681 -0.000264319 0.0219536 
-0.000264319 -0.683348 1.45594 
0.0219536 1.45594 -0.338262 
-0.506941 -0.000874416 0.0358317 
-0.000874416 -0.684209 1.45592 
0.0358317 1.45592 -0.321142 
-0.553059 -0.000695489 0.0339512 
-0.000695489 -1.06645 0.891919 
0.0339512 0.891919 0.107221 
-0.5244 -4.48277e-05 0.0201137 
-4.48277e-05 -1.06571 0.891811 
0.0201137 0.891811 0.0778177 
-0.525676 -0.000237413 0.0202236 
-0.000237413 -2.38786 1.37246 
0.0202236 1.37246 1.40125 
-0.553893 -0.000888074 0.0341016 
-0.000888074 -2.38863 1.37257 
0.0341016 1.37257 1.43023 
-0.867169 -0.00206871 0.0130268 
-0.00206871 -1.10458 0.33447 
0.0130268 0.33447 -0.511349 
-0.838537 -0.000423193 0.007943 
-0.000423193 -1.10324 0.334393 
0.007943 0.334393 -0.54132 
-0.841345 -0.000855711 0.00805813 
-0.000855711 -2.46323 0.449132 
0.00805813 0.449132 0.821482 
-0.869573 -0.00250123 0.0131844 
-0.00250123 -2.4654 0.449221 
0.0131844 0.449221 0.851876 
-0.881947 -0.00205469 0.00999344 
-0.00205469 -1.46686 0.209582 
0.00999344 0.209582 -0.134292 
-0.852374 -0.000366732 0.00490965 
-0.000366732 -1.46532 0.209617 
0.00490965 0.209617 -0.165399 
-0.855281 -0.000811413 0.00491271 
-0.000811413 -2.71004 0.324356 
0.00491271 0.324356 1.08222 
-0.884442 -0.00249938 0.0100389 
-0.00249938 -2.71206 0.324333 
0.0100389 0.324333 1.11341 
-0.87603 -0.00246078 -0.00978921 
-0.00246078 -1.52868 -0.345179 
-0.00978921 -0.345179 -0.0668795 
-0.84901 -0.000495039 -0.00752046 
-0.000495039 -1.5271 -0.345187 
-0.00752046 -0.345187 -0.0954868 
-0.852327 -0.000979572 -0.00747098 
-0.000979572 -2.66864 -0.477133 
-0.00747098 -0.477133 1.04938 
-0.878691 -0.00294531 -0.00970895 
-0.00294531 -2.67098 -0.477145 
-0.00970895 -0.477145 1.07808 
-0.86591 -0.00252433 -0.0124286 
-0.00252433 -1.34694 -0.417285 
-0.0124286 -0.417285 -0.258746 
-0.843804 -0.000527811 -0.0101599 
-0.000527811 -1.34534 -0.417202 
-0.0101599 -0.417202 -0.282447 
-0.84703 -0.000992808 -0.0102014 
-0.000992808 -2.08295 -0.549148 
-0.0102014 -0.549148 0.458385 
-0.8688 -0.00298933 -0.0124394 
-0.00298933 -2.08519 -0.549251 
-0.0124394 -0.549251 0.482398 
-0.627841 -0.00184213 -0.0268099 
-0.00184213 -1.30487 -0.812888 
-0.0268099 -0.812888 0.185242 
-0.610047 -0.000306896 -0.019646 
-0.000306896 -1.30363 -0.812846 
-0.019646 -0.812846 0.166204 
-0.612594 -0.00068313 -0.0196628 
-0.00068313 -1.8451 -1.0384 
-0.0196628 -1.0384 0.710219 
-0.629699 -0.00221836 -0.0268358 
-0.00221836 -1.84685 -1.03849 
-0.0268358 -1.03849 0.729073 
-0.603587 -0.00193181 -0.0283575 
-0.00193181 -0.847903 -0.823372 
-0.0283575 -0.823372 -0.295982 
-0.590828 -0.000405677 -0.0211936 
-0.000405677 -0.846841 -0.823287 
-0.0211936 -0.823287 -0.309803 
-0.593141 -0.00072999 -0.0212531 
-0.00072999 -1.19691 -1.04884 
-0.0212531 -1.04884 0.0425823 
-0.605638 -0.00225612 -0.0284261 
-0.00225612 -1.19861 -1.04898 
-0.0284261 -1.04898 0.0567797 
-0.234891 -0.000641609 -0.0357366 
-0.000641609 -0.661259 -1.01813 
-0.0357366 -1.01813 0.272319 
-0.227875 -5.2633e-05 -0.0262123 
-5.2633e-05 -0.660697 -1.01807 
-0.0262123 -1.01807 0.26474 
-0.228901 -0.000215795 -0.0262663 
-0.000215795 -0.750181 -1.25783 
-0.0262663 -1.25783 0.35525 
-0.235513 -0.000804771 -0.0358329 
-0.000804771 -0.750828 -1.25796 
-0.0358329 -1.25796 0.36251 
-0.204679 -0.000730494 -0.0362243 
-0.000730494 -0.126178 -1.01342 
-0.0362243 -1.01342 -0.292974 
-0.201538 -0.000183848 -0.0266999 
-0.000183848 -0.125917 -1.01335 
-0.0266999 -1.01335 -0.296376 
-0.20227 -0.000275866 -0.0267645 
-0.000275866 -0.266828 -1.25311 
-0.0267645 -1.25311 -0.154733 
-0.205407 -0.000822512 -0.0363311 
-0.000822512 -0.267459 -1.25325 
-0.0363311 -1.25325 -0.150965 
0.20468 0.000730494 -0.0362243 
0.000730494 0.126178 -1.01342 
-0.0362243 -1.01342 0.292974 
0.201539 0.000183848 -0.0266999 
0.000183848 0.125918 -1.01335 
-0.0266999 -1.01335 0.296376 
0.20227 0.000275866 -0.0267645 
0.000275866 0.266828 -1.25311 
-0.0267645 -1.25311 0.154733 
0.205407 0.000822512 -0.0363311 
0.000822512 0.26746 -1.25325 
-0.0363311 -1.25325 0.150965 
0.234891 0.000641609 -0.0357366 
0.000641609 0.66126 -1.01813 
-0.0357366 -1.01813 -0.272319 
0.227875 5.2633e-05 -0.0262123 
5.2633e-05 0.660697 -1.01807 
-0.0262123 -1.01807 -0.26474 
0.228901 0.000215795 -0.0262663 
0.000215795 0.750181 -1.25783 
-0.0262663 -1.25783 -0.35525 
0.235514 0.000804771 -0.0358329 
0.000804771 0.750828 -1.25796 
-0.0358329 -1.25796 -0.36251 
0.603587 0.00193181 -0.0283575 
0.00193181 0.847903 -0.823372 
-0.0283575 -0.823372 0.295982 
0.590828 0.000405677 -0.0211936 
0.000405677 0.846841 -0.823287 
-0.0211936 -0.823287 0.309803 
0.593141 0.00072999 -0.0212531 
0.00072999 1.19691 -1.04884 
-0.0212531 -1.04884 -0.0425821 
0.605638 0.00225612 -0.0284261 
0.00225612 1.19861 -1.04898 
-0.0284261 -1.04898 -0.0567796 
0.627841 0.00184213 -0.0268099 
0.00184213 1.30487 -0.812888 
-0.0268099 -0.812888 -0.185242 
0.610048 0.000306896 -0.019646 
0.000306896 1.30363 -0.812846 
-0.019646 -0.812846 -0.166203 
0.612594 0.00068313 -0.0196628 
0.00068313 1.8451 -1.0384 
-0.0196628 -1.0384 -0.710219 
0.629699 0.00221836 -0.0268358 
0.00221836 1.84685 -1.03849 
-0.0268358 -1.03849 -0.729073 
0.86591 0.00252433 -0.0124286 
0.00252433 1.34694 -0.417285 
-0.0124286 -0.417285 0.258747 
0.843804 0.000527811 -0.0101599 
0.000527811 1.34534 -0.417202 
-0.0101599 -0.417202 0.282447 
0.84703 0.000992808 -0.0102014 
0.000992808 2.08295 -0.549148 
-0.0102014 -0.549148 -0.458385 
0.8688 0.00298933 -0.0124394 
0.00298933 2.08519 -0.549251 
-0.0124394 -0.549251 -0.482398 
0.87603 0.00246078 -0.00978921 
0.00246078 1.52868 -0.345179 
-0.00978921 -0.345179 0.0668797 
0.84901 0.000495039 -0.00752046 
0.000495039 1.5271 -0.345187 
-0.00752046 -0.345187 0.0954869 
0.852327 0.000979572 -0.00747098 
0.000979572 2.66864 -0.477133 
-0.00747098 -0.477133 -1.04938 
0.878691 0.00294531 -0.00970895 
0.00294531 2.67098 -0.477145 
-0.00970895 -0.477145 -1.07808 
0.881947 0.00205469 0.00999344 
0.00205469 1.46686 0.209582 
0.00999344 0.209582 0.134292 
0.852375 0.000366732 0.00490965 
0.000366732 1.46532 0.209617 
0.00490965 0.209617 0.165399 
0.855282 0.000811413 0.00491271 
0.000811413 2.71004 0.324356 
0.00491271 0.324356 -1.08222 
0.884442 0.00249938 0.0100389 
0.00249938 2.71206 0.324333 
0.0100389 0.324333 -1.11341 
0.867169 0.00206871 0.0130268 
0.00206871 1.10458 0.33447 
0.0130268 0.33447 0.51135 
0.838537 0.000423193 0.007943 
0.000423193 1.10324 0.334393 
0.007943 0.334393 0.54132 
0.841345 0.000855711 0.00805813 
0.000855711 2.46323 0.449132 
0.00805813 0.449132 -0.821482 
0.869574 0.00250123 0.0131844 
0.00250123 2.4654 0.449221 
0.0131844 0.449221 -0.851876 
0.553059 0.000695489 0.0339512 
0.000695489 1.06645 0.891919 
0.0339512 0.891919 -0.107221 
0.5244 4.48277e-05 0.0201137 
4.48277e-05 1.06571 0.891811 
0.0201137 0.891811 -0.0778175 
0.525676 0.000237413 0.0202236 
0.000237413 2.38786 1.37246 
0.0202236 1.37246 -1.40125 
0.553893 0.000888074 0.0341016 
0.000888074 2.38863 1.37257 
0.0341016 1.37257 -1.43023 
0.50616 0.000686177 0.0358057 
0.000686177 -0.0587685 0.975276 
0.0358057 0.975276 1.0649 
0.489534 7.608e-05 0.0219682 
7.608e-05 -0.0594024 0.975293 
0.0219682 0.975293 1.08216 
0.490681 0.000264319 0.0219536 
0.000264319 0.683349 1.45594 
0.0219536 1.45594 0.338263 
0.506941 0.000874416 0.0358317 
0.000874416 0.684209 1.45592 
0.0358317 1.45592 0.321142 
-0.530437 -0.000527977 0.0522449 
-0.000527977 0.0411745 0.97315 
0.0522449 0.97315 -1.07598 
-0.499407 0.000401925 0.0358057 
0.000401925 0.0412908 0.97321 
0.0358057 0.97321 -1.10713 
-0.500568 0.000283774 0.0358317 
0.000283774 -0.700335 1.4542 
0.0358317 1.4542 -0.364339 
-0.530199 -0.000646129 0.0523963 
-0.000646129 -0.701634 1.45409 
0.0523963 1.45409 -0.33341 
-0.584715 -0.000619333 0.0503823 
-0.000619333 -1.08245 0.888967 
0.0503823 0.888967 0.101924 
-0.542665 0.00043587 0.033943 
0.00043587 -1.08208 0.888847 
0.033943 0.888847 0.0595054 
-0.543925 0.000368535 0.0341484 
0.000368535 -2.40845 1.36984 
0.0341484 1.36984 1.38713 
-0.584938 -0.000686669 0.050713 
-0.000686669 -2.40927 1.3699 
0.050713 1.3699 1.42896 
-0.897722 -0.00158065 0.0175799 
-0.00158065 -1.1205 0.332313 
0.0175799 0.332313 -0.519553 
-0.855823 0.000839873 0.0130186 
0.000839873 -1.1205 0.332251 
0.0130186 0.332251 -0.561455 
-0.858192 0.000606563 0.0132311 
0.000606563 -2.4842 0.447131 
0.0132311 0.447131 0.804612 
-0.897376 -0.00181396 0.0179234 
-0.00181396 -2.48753 0.4472 
0.0179234 0.4472 0.847127 
-0.910724 -0.00162817 0.0152546 
-0.00162817 -1.48183 0.205487 
0.0152546 0.205487 -0.14522 
-0.872553 0.000923422 0.0106934 
0.000923422 -1.48138 0.205612 
0.0106934 0.205612 -0.183838 
-0.87498 0.00068301 0.0107179 
0.00068301 -2.7318 0.320492 
0.0107179 0.320492 1.069 
-0.910906 -0.00186858 0.0154102 
-0.00186858 -2.73472 0.320374 
0.0154102 0.320374 1.10785 
-0.898205 -0.00149227 -0.0125959 
-0.00149227 -1.54123 -0.348042 
-0.0125959 -0.348042 -0.0776319 
-0.864718 0.0013009 -0.00908927 
0.0013009 -1.54106 -0.348029 
-0.00908927 -0.348029 -0.111288 
-0.866983 0.00104269 -0.00903002 
0.00104269 -2.68819 -0.480009 
-0.00903002 -0.480009 1.03811 
-0.896892 -0.00175048 -0.0125087 
-0.00175048 -2.69198 -0.480036 
-0.0125087 -0.480036 1.07181 
-0.888748 -0.00158397 -0.013827 
-0.00158397 -1.35826 -0.422194 
-0.013827 -0.422194 -0.27006 
-0.86235 0.00123716 -0.0103204 
0.00123716 -1.35808 -0.422061 
-0.0103204 -0.422061 -0.296633 
-0.864423 0.000992756 -0.010381 
0.000992756 -2.10052 -0.554041 
-0.010381 -0.554041 0.44788 
-0.887752 -0.00182837 -0.0138596 
-0.00182837 -2.10425 -0.554187 
-0.0138596 -0.554187 0.474939 
-0.636965 -0.000813441 -0.0325776 
-0.000813441 -1.3131 -0.816378 
-0.0325776 -0.816378 0.17306 
-0.619068 0.00132636 -0.0247016 
0.00132636 -1.31291 -0.816356 
-0.0247016 -0.816356 0.154968 
-0.620441 0.00112748 -0.0247773 
0.00112748 -1.8594 -1.04206 
-0.0247773 -1.04206 0.702833 
-0.635311 -0.00101231 -0.0327719 
-0.00101231 -1.86231 -1.04212 
-0.0327719 -1.04212 0.720613 
-0.620684 -0.000854973 -0.0327335 
-0.000854973 -0.854316 -0.828327 
-0.0327335 -0.828327 -0.302009 
-0.605061 0.00116616 -0.0248575 
0.00116616 -0.854552 -0.828273 
-0.0248575 -0.828273 -0.317395 
-0.606121 0.00100863 -0.0249669 
0.00100863 -1.20725 -1.05398 
-0.0249669 -1.05398 0.0363661 
-0.618812 -0.0010125 -0.0329615 
-0.0010125 -1.21041 -1.05407 
-0.0329615 -1.05407 0.0522149 
-0.232326 -0.000231693 -0.0418613 
-0.000231693 -0.664816 -1.02212 
-0.0418613 -1.02212 0.263127 
-0.228318 0.000632228 -0.0322367 
0.000632228 -0.66451 -1.02214 
-0.0322367 -1.02214 0.258813 
-0.228828 0.000539104 -0.0323737 
0.000539104 -0.756982 -1.2621 
-0.0323737 -1.2621 0.351795 
-0.2318 -0.000324818 -0.0422152 
-0.000324818 -0.757922 -1.26215 
-0.0422152 -1.26215 0.355707 
-0.215654 -0.000217907 -0.041774 
-0.000217907 -0.127507 -1.01794 
-0.041774 -1.01794 -0.290854 
-0.209264 0.00042922 -0.0321494 
0.00042922 -0.127904 -1.01795 
-0.0321494 -1.01795 -0.296846 
-0.209446 0.000396953 -0.0322902 
0.000396953 -0.268613 -1.25792 
-0.0322902 -1.25792 -0.155957 
-0.214486 -0.000250175 -0.0421317 
-0.000250175 -0.269983 -1.25796 
-0.0421317 -1.25796 -0.149546 
0.215654 0.000217907 -0.041774 
0.000217907 0.127507 -1.01794 
-0.041774 -1.01794 0.290854 
0.209265 -0.00042922 -0.0321494 
-0.00042922 0.127905 -1.01795 
-0.0321494 -1.01795 0.296847 
0.209446 -0.000396953 -0.0322902 
-0.000396953 0.268613 -1.25792 
-0.0322902 -1.25792 0.155957 
0.214486 0.000250175 -0.0421317 
0.000250175 0.269983 -1.25796 
-0.0421317 -1.25796 0.149546 
0.232326 0.000231693 -0.0418613 
0.000231693 0.664816 -1.02212 
-0.0418613 -1.02212 -0.263127 
0.228318 -0.000632228 -0.0322367 
-0.000632228 0.664511 -1.02214 
-0.0322367 -1.02214 -0.258813 
0.228828 -0.000539104 -0.0323737 
-0.000539104 0.756982 -1.2621 
-0.0323737 -1.2621 -0.351795 
0.2318 0.000324818 -0.0422152 
0.000324818 0.757922 -1.26215 
-0.0422152 -1.26215 -0.355706 
0.620684 0.000854973 -0.0327335 
0.000854973 0.854316 -0.828327 
-0.0327335 -0.828327 0.302009 
0.605062 -0.00116616 -0.0248575 
-0.00116616 0.854552 -0.828273 
-0.0248575 -0.828273 0.317395 
0.606121 -0.00100863 -0.0249669 
-0.00100863 1.20725 -1.05398 
-0.0249669 -1.05398 -0.036366 
0.618812 0.0010125 -0.0329615 
0.0010125 1.21041 -1.05407 
-0.0329615 -1.05407 -0.0522147 
0.636965 0.000813441 -0.0325776 
0.000813441 1.3131 -0.816378 
-0.0325776 -0.816378 -0.17306 
0.619068 -0.00132636 -0.0247016 
-0.00132636 1.31291 -0.816356 
-0.0247016 -0.816356 -0.154968 
0.620441 -0.00112748 -0.0247773 
-0.00112748 1.8594 -1.04206 
-0.0247773 -1.04206 -0.702833 
0.635311 0.00101231 -0.0327719 
0.00101231 1.86231 -1.04212 
-0.0327719 -1.04212 -0.720613 
0.888748 0.00158397 -0.013827 
0.00158397 1.35826 -0.422194 
-0.013827 -0.422194 0.27006 
0.862351 -0.00123716 -0.0103204 
-0.00123716 1.35808 -0.422061 
-0.0103204 -0.422061 0.296633 
0.864424 -0.000992756 -0.010381 
-0.000992756 2.10052 -0.554041 
-0.010381 -0.554041 -0.44788 
0.887752 0.00182837 -0.0138596 
0.00182837 2.10425 -0.554187 
-0.0138596 -0.554187 -0.474938 
0.898205 0.00149227 -0.0125959 
0.00149227 1.54123 -0.348042 
-0.0125959 -0.348042 0.077632 
0.864718 -0.0013009 -0.00908927 
-0.0013009 1.54106 -0.348029 
-0.00908927 -0.348029 0.111288 
0.866983 -0.00104269 -0.00903002 
-0.00104269 2.68819 -0.480009 
-0.00903002 -0.480009 -1.03811 
0.896892 0.00175048 -0.0125087 
0.00175048 2.69199 -0.480036 
-0.0125087 -0.480036 -1.07181 
0.910724 0.00162817 0.0152546 
0.00162817 1.48183 0.205487 
0.0152546 0.205487 0.14522 
0.872554 -0.000923422 0.0106934 
-0.000923422 1.48138 0.205612 
0.0106934 0.205612 0.183838 
0.87498 -0.00068301 0.0107179 
-0.00068301 2.7318 0.320492 
0.0107179 0.320492 -1.069 
0.910906 0.00186858 0.0154102 
0.00186858 2.73472 0.320374 
0.0154102 0.320374 -1.10785 
0.897722 0.00158065 0.0175799 
0.00158065 1.1205 0.332313 
0.0175799 0.332313 0.519553 
0.855823 -0.000839873 0.0130186 
-0.000839873 1.1205 0.332251 
0.0130186 0.332251 0.561455 
0.858192 -0.000606563 0.0132311 
-0.000606563 2.4842 0.447131 
0.0132311 0.447131 -0.804612 
0.897376 0.00181396 0.0179234 
0.00181396 2.48753 0.4472 
0.0179234 0.4472 -0.847127 
0.584715 0.000619333 0.0503823 
0.000619333 1.08245 0.888967 
0.0503823 0.888967 -0.101923 
0.542665 -0.00043587 0.033943 
-0.00043587 1.08208 0.888847 
0.033943 0.888847 -0.0595053 
0.543925 -0.000368535 0.0341484 
-0.000368535 2.40845 1.36984 
0.0341484 1.36984 -1.38713 
0.584938 0.000686669 0.050713 
0.000686669 2.40927 1.3699 
0.050713 1.3699 -1.42896 
0.530437 0.000527977 0.0522449 
0.000527977 -0.0411743 0.97315 
0.0522449 0.97315 1.07598 
0.499408 -0.000401925 0.0358057 
-0.000401925 -0.0412907 0.97321 
0.0358057 0.97321 1.10713 
0.500569 -0.000283774 0.0358317 
-0.000283774 0.700336 1.4542 
0.0358317 1.4542 0.36434 
0.530199 0.000646129 0.0523963 
0.000646129 0.701635 1.45409 
0.0523963 1.45409 0.333411 
-0.574232 0.000766775 0.0704917 
0.000766775 0.0111187 0.96741 
0.0704917 0.96741 -1.0951 
-0.519249 0.00212583 0.0522449 
0.00212583 0.00887272 0.967531 
0.0522449 0.967531 -1.14784 
-0.519464 0.00249422 0.0523963 
0.00249422 -0.731484 1.44836 
0.0523963 1.44836 -0.407265 
-0.570698 0.00113517 0.0708836 
0.00113517 -0.732708 1.44796 
0.0708836 1.44796 -0.354807 
-0.629079 0.000496149 0.0699262 
0.000496149 -1.10725 0.881824 
0.0699262 0.881824 0.0781118 
-0.573232 0.00209571 0.0516795 
0.00209571 -1.10917 0.881721 
0.0516795 0.881721 0.0241872 
-0.573263 0.00274125 0.0520549 
0.00274125 -2.44339 1.36255 
0.0520549 1.36255 1.35845 
-0.626804 0.00114169 0.0705422 
0.00114169 -2.44305 1.36238 
0.0705422 1.36238 1.41165 
-0.9402 0.00239973 0.0214211 
0.00239973 -1.14183 0.327054 
0.0214211 0.327054 -0.543716 
-0.88454 0.00565483 0.018877 
0.00565483 -1.14781 0.327059 
0.018877 0.327059 -0.593396 
-0.883069 0.00672233 0.0192654 
0.00672233 -2.51905 0.441888 
0.0192654 0.441888 0.776366 
-0.930489 0.00346723 0.0221328 
0.00346723 -2.5221 0.441757 
0.0221328 0.441757 0.826841 
-0.946301 0.0021415 0.0230173 
0.0021415 -1.50031 0.197082 
0.0230173 0.197082 -0.179138 
-0.905222 0.00571989 0.0204732 
0.00571989 -1.50554 0.197391 
0.0204732 0.197391 -0.214983 
-0.903563 0.00691311 0.0205582 
0.00691311 -2.76641 0.31222 
0.0205582 0.31222 1.04422 
-0.938224 0.00333471 0.0234256 
0.00333471 -2.76816 0.311785 
0.0234256 0.311785 1.08063 
-0.920873 0.00446261 -0.0124899 
0.00446261 -1.55482 -0.352902 
-0.0124899 -0.352902 -0.110521 
-0.888309 0.00791596 -0.00737729 
0.00791596 -1.56144 -0.352867 
-0.00737729 -0.352867 -0.136463 
-0.884608 0.0091501 -0.00736069 
0.0091501 -2.71916 -0.484816 
-0.00736069 -0.484816 1.01755 
-0.906376 0.00569676 -0.0124599 
0.00569676 -2.72317 -0.484956 
-0.0124599 -0.484956 1.04333 
-0.917588 0.00430912 -0.00846411 
0.00430912 -1.36895 -0.430198 
-0.00846411 -0.430198 -0.299681 
-0.892602 0.00777583 -0.0033515 
0.00777583 -1.37581 -0.430077 
-0.0033515 -0.430077 -0.317807 
-0.88858 0.00911545 -0.00342081 
0.00911545 -2.1271 -0.562026 
-0.00342081 -0.562026 0.429461 
-0.903472 0.00564873 -0.00852005 
0.00564873 -2.13088 -0.562253 
-0.00852005 -0.562253 0.448133 
-0.638304 0.00458532 -0.0296108 
0.00458532 -1.32077 -0.820343 
-0.0296108 -0.820343 0.13879 
-0.630358 0.0071059 -0.0221021 
0.0071059 -1.32576 -0.820476 
-0.0221021 -0.820476 0.135838 
-0.626044 0.00806542 -0.0223331 
0.00806542 -1.88169 -1.04604 
-0.0223331 -1.04604 0.687456 
-0.625401 0.00554484 -0.030165 
0.00554484 -1.88489 -1.046 
-0.030165 -1.046 0.690009 
-0.645954 0.00467623 -0.0253698 
0.00467623 -0.858449 -0.834509 
-0.0253698 -0.834509 -0.315878 
-0.629416 0.00687366 -0.0178611 
0.00687366 -0.864577 -0.834666 
-0.0178611 -0.834666 -0.326288 
-0.624957 0.00792815 -0.0180681 
0.00792815 -1.22215 -1.06023 
-0.0180681 -1.06023 0.0268268 
-0.631752 0.00573072 -0.0258999 
0.00573072 -1.22606 -1.06017 
-0.0258999 -1.06017 0.0375276 
-0.218522 0.00187188 -0.0347249 
0.00187188 -0.66846 -1.02561 
-0.0347249 -1.02561 0.238336 
-0.225584 0.00293732 -0.0269889 
0.00293732 -0.669797 -1.02592 
-0.0269889 -1.02592 0.246735 
-0.223633 0.00326578 -0.0273217 
0.00326578 -0.767882 -1.26567 
-0.0273217 -1.26567 0.34287 
-0.214118 0.00220034 -0.0355676 
0.00220034 -0.76872 -1.26546 
-0.0355676 -1.26546 0.334192 
-0.237365 0.00212173 -0.0329431 
0.00212173 -0.127181 -1.02222 
-0.0329431 -1.02222 -0.284099 
-0.224339 0.00267726 -0.0252071 
0.00267726 -0.130179 -1.02255 
-0.0252071 -1.02255 -0.294127 
-0.222468 0.00310265 -0.0255156 
0.00310265 -0.270475 -1.2623 
-0.0255156 -1.2623 -0.155702 
-0.230601 0.00254712 -0.0337615 
0.00254712 -0.27254 -1.26206 
-0.0337615 -1.26206 -0.145504 
0.237366 -0.00212173 -0.0329431 
-0.00212173 0.127181 -1.02222 
-0.0329431 -1.02222 0.284099 
0.224339 -0.00267726 -0.0252071 
-0.00267726 0.13018 -1.02255 
-0.0252071 -1.02255 0.294127 
0.222468 -0.00310265 -0.0255156 
-0.00310265 0.270475 -1.2623 
-0.0255156 -1.2623 0.155703 
0.230601 -0.00254712 -0.0337615 
-0.00254712 0.27254 -1.26206 
-0.0337615 -1.26206 0.145504 
0.218522 -0.00187188 -0.0347249 
-0.00187188 0.66846 -1.02561 
-0.0347249 -1.02561 -0.238336 
0.225584 -0.00293732 -0.0269889 
-0.00293732 0.669797 -1.02592 
-0.0269889 -1.02592 -0.246735 
0.223634 -0.00326578 -0.0273217 
-0.00326578 0.767882 -1.26567 
-0.0273217 -1.26567 -0.34287 
0.214118 -0.00220034 -0.0355676 
-0.00220034 0.76872 -1.26546 
-0.0355676 -1.26546 -0.334191 
0.645954 -0.00467623 -0.0253698 
-0.00467623 0.85845 -0.834509 
-0.0253698 -0.834509 0.315878 
0.629416 -0.00687366 -0.0178611 
-0.00687366 0.864577 -0.834666 
-0.0178611 -0.834666 0.326288 
0.624957 -0.00792815 -0.0180681 
-0.00792815 1.22215 -1.06023 
-0.0180681 -1.06023 -0.0268266 
0.631753 -0.00573072 -0.0258999 
-0.00573072 1.22606 -1.06017 
-0.0258999 -1.06017 -0.0375275 
0.638304 -0.00458532 -0.0296108 
-0.00458532 1.32077 -0.820343 
-0.0296108 -0.820343 -0.13879 
0.630358 -0.0071059 -0.0221021 
-0.0071059 1.32576 -0.820476 
-0.0221021 -0.820476 -0.135838 
0.626044 -0.00806542 -0.0223331 
-0.00806542 1.88169 -1.04604 
-0.0223331 -1.04604 -0.687456 
0.625402 -0.00554484 -0.030165 
-0.00554484 1.88489 -1.046 
-0.030165 -1.046 -0.690009 
0.917588 -0.00430912 -0.00846411 
-0.00430912 1.36895 -0.430198 
-0.00846411 -0.430198 0.299681 
0.892602 -0.00777583 -0.0033515 
-0.00777583 1.37581 -0.430077 
-0.0033515 -0.430077 0.317808 
0.88858 -0.00911545 -0.00342081 
-0.00911545 2.1271 -0.562026 
-0.00342081 -0.562026 -0.429461 
0.903472 -0.00564873 -0.00852005 
-0.00564873 2.13088 -0.562253 
-0.00852005 -0.562253 -0.448133 
0.920873 -0.00446261 -0.0124899 
-0.00446261 1.55482 -0.352902 
-0.0124899 -0.352902 0.110521 
0.888309 -0.00791596 -0.00737729 
-0.00791596 1.56144 -0.352867 
-0.00737729 -0.352867 0.136463 
0.884609 -0.0091501 -0.00736069 
-0.0091501 2.71916 -0.484816 
-0.00736069 -0.484816 -1.01755 
0.906376 -0.00569676 -0.0124599 
-0.00569676 2.72317 -0.484956 
-0.0124599 -0.484956 -1.04333 
0.946301 -0.0021415 0.0230173 
-0.0021415 1.50031 0.197082 
0.0230173 0.197082 0.179138 
0.905223 -0.00571989 0.0204732 
-0.00571989 1.50554 0.197391 
0.0204732 0.197391 0.214983 
0.903563 -0.00691311 0.0205582 
-0.00691311 2.76641 0.31222 
0.0205582 0.31222 -1.04422 
0.938224 -0.00333471 0.0234256 
-0.00333471 2.76816 0.311785 
0.0234256 0.311785 -1.08063 
0.9402 -0.00239973 0.0214211 
-0.00239973 1.14183 0.327054 
0.0214211 0.327054 0.543716 
0.88454 -0.00565483 0.018877 
-0.00565483 1.14781 0.327059 
0.018877 0.327059 0.593396 
0.883069 -0.00672233 0.0192654 
-0.00672233 2.51905 0.441888 
0.0192654 0.441888 -0.776366 
0.930489 -0.00346723 0.0221328 
-0.00346723 2.5221 0.441757 
0.0221328 0.441757 -0.826841 
0.629079 -0.000496149 0.0699262 
-0.000496149 1.10725 0.881824 
0.0699262 0.881824 -0.0781116 
0.573233 -0.00209571 0.0516795 
-0.00209571 1.10917 0.881721 
0.0516795 0.881721 -0.024187 
0.573263 -0.00274125 0.0520549 
-0.00274125 2.44339 1.36255 
0.0520549 1.36255 -1.35845 
0.626804 -0.00114169 0.0705422 
-0.00114169 2.44306 1.36238 
0.0705422 1.36238 -1.41165 
0.574232 -0.000766775 0.0704917 
-0.000766775 -0.0111186 0.96741 
0.0704917 0.96741 1.0951 
0.519249 -0.00212583 0.0522449 
-0.00212583 -0.00887258 0.967531 
0.0522449 0.967531 1.14784 
0.519464 -0.00249422 0.0523963 
-0.00249422 0.731484 1.44836 
0.0523963 1.44836 0.407265 
0.570698 -0.00113517 0.0708836 
-0.00113517 0.732708 1.44796 
0.0708836 1.44796 0.354807 
-0.649466 0.00458335 0.087589 
0.00458335 -0.0383487 0.953153 
0.087589 0.953153 -1.12597 
-0.555615 0.00684235 0.0704917 
0.00684235 -0.0471026 0.953291 
0.0704917 0.953291 -1.21107 
-0.551516 0.00924028 0.0708836 
0.00924028 -0.787521 1.43177 
0.0708836 1.43177 -0.474749 
-0.640663 0.00698128 0.0882346 
0.00698128 -0.783286 1.43101 
0.0882346 1.43101 -0.389837 
-0.686734 0.00407537 0.091391 
0.00407537 -1.14155 0.865281 
0.091391 0.865281 0.0144995 
-0.62173 0.00658811 0.0742938 
0.00658811 -1.15017 0.865325 
0.0742938 0.865325 -0.0418897 
-0.616696 0.00960702 0.0747792 
0.00960702 -2.49875 1.34381 
0.0747792 1.34381 1.30166 
-0.680003 0.00709428 0.0921302 
0.00709428 -2.4916 1.34314 
0.0921302 1.34314 1.35781 
-0.994219 0.0150135 0.0236818 
0.0150135 -1.16526 0.314774 
0.0236818 0.314774 -0.599263 
-0.927676 0.0190961 0.0257887 
0.0190961 -1.18888 0.315052 
0.0257887 0.315052 -0.642186 
-0.913396 0.024972 0.0263697 
0.024972 -2.57433 0.42899 
0.0263697 0.42899 0.728975 
-0.963293 0.0208894 0.0245713 
0.0208894 -2.56775 0.428442 
0.0245713 0.428442 0.772297 
-0.987098 0.0145888 0.0359085 
0.0145888 -1.51476 0.18032 
0.0359085 0.18032 -0.256893 
-0.955046 0.0189797 0.0380153 
0.0189797 -1.53731 0.180888 
0.0380153 0.180888 -0.266396 
-0.939531 0.025126 0.0383064 
0.025126 -2.81634 0.294826 
0.0383064 0.294826 0.997125 
-0.958786 0.020735 0.036508 
0.020735 -2.80749 0.293988 
0.036508 0.293988 1.00753 
-0.936268 0.0225695 -0.00416191 
0.0225695 -1.56163 -0.360598 
-0.00416191 -0.360598 -0.185235 
-0.918378 0.0262033 0.00250813 
0.0262033 -1.58903 -0.36057 
0.00250813 -0.36057 -0.175723 
-0.895631 0.033071 0.00242096 
0.033071 -2.76475 -0.492131 
0.00242096 -0.492131 0.977247 
-0.891557 0.0294372 -0.00482554 
0.0294372 -2.7588 -0.492117 
-0.00482554 -0.492117 0.967222 
-0.95471 0.0228688 0.0125321 
0.0228688 -1.3676 -0.442156 
0.0125321 -0.442156 -0.36082 
-0.939714 0.0259261 0.0192021 
0.0259261 -1.39566 -0.442205 
0.0192021 -0.442205 -0.347761 
-0.916084 0.0327514 0.0191918 
0.0327514 -2.16319 -0.573766 
0.0191918 -0.573766 0.396142 
-0.908304 0.029694 0.0119453 
0.029694 -2.15808 -0.573675 
0.0119453 -0.573675 0.383253 
-0.622563 0.0204618 -0.00676749 
0.0204618 -1.32038 -0.822085 
-0.00676749 -0.822085 0.0654375 
-0.639124 0.0227434 -0.00194457 
0.0227434 -1.34178 -0.822596 
-0.00194457 -0.822596 0.10339 
-0.617893 0.0281417 -0.00245316 
0.0281417 -1.91307 -1.04663 
-0.00245316 -1.04663 0.653457 
-0.58377 0.0258602 -0.00842752 
0.0258602 -1.909 -1.04586 
-0.00842752 -1.04586 0.61526 
-0.685254 0.0213714 0.00723281 
0.0213714 -0.850382 -0.839174 
0.00723281 -0.839174 -0.341874 
-0.669478 0.0225014 0.0120557 
0.0225014 -0.873826 -0.839861 
0.0120557 -0.839861 -0.334205 
-0.64845 0.0276418 0.011723 
0.0276418 -1.24113 -1.0639 
0.011723 -1.0639 0.0120705 
-0.641109 0.0265118 0.00574863 
0.0265118 -1.24026 -1.06295 
0.00574863 -1.06295 0.00386129 
-0.185002 0.00789702 0.000292028 
0.00789702 -0.669496 -1.02361 
0.000292028 -1.02361 0.187157 
-0.213572 0.00905729 0.00270068 
0.00905729 -0.676685 -1.02456 
0.00270068 -1.02456 0.222916 
-0.204484 0.0111975 0.00205536 
0.0111975 -0.78351 -1.26212 
0.00205536 -1.26212 0.320653 
-0.171902 0.0100372 -0.00171546 
0.0100372 -0.780707 -1.26083 
-0.00171546 -1.26083 0.285268 
-0.277265 0.00906768 0.00569528 
0.00906768 -0.12098 -1.02127 
0.00569528 -1.02127 -0.269096 
-0.25289 0.00886578 0.00810393 
0.00886578 -0.130984 -1.02228 
0.00810393 -1.02228 -0.283466 
-0.24485 0.0106673 0.00752396 
0.0106673 -0.271788 -1.25985 
0.00752396 -1.25985 -0.150703 
-0.257026 0.0108692 0.00375314 
0.0108692 -0.273316 -1.25849 
0.00375314 -1.25849 -0.136999 
0.277265 -0.00906768 0.00569528 
-0.00906768 0.12098 -1.02127 
0.00569528 -1.02127 0.269096 
0.25289 -0.00886578 0.00810393 
-0.00886578 0.130984 -1.02228 
0.00810393 -1.02228 0.283467 
0.24485 -0.0106673 0.00752396 
-0.0106673 0.271789 -1.25985 
0.00752396 -1.25985 0.150703 
0.257026 -0.0108692 0.00375314 
-0.0108692 0.273316 -1.25849 
0.00375314 -1.25849 0.136999 
0.185002 -0.00789702 0.000292028 
-0.00789702 0.669496 -1.02361 
0.000292028 -1.02361 -0.187157 
0.213572 -0.00905729 0.00270068 
-0.00905729 0.676685 -1.02456 
0.00270068 -1.02456 -0.222916 
0.204484 -0.0111975 0.00205536 
-0.0111975 0.78351 -1.26212 
0.00205536 -1.26212 -0.320653 
0.171902 -0.0100372 -0.00171546 
-0.0100372 0.780707 -1.26083 
-0.00171546 -1.26083 -0.285268 
0.685254 -0.0213714 0.00723281 
-0.0213714 0.850382 -0.839174 
0.00723281 -0.839174 0.341874 
0.669478 -0.0225014 0.0120557 
-0.0225014 0.873826 -0.839861 
0.0120557 -0.839861 0.334206 
0.64845 -0.0276418 0.011723 
-0.0276418 1.24113 -1.0639 
0.011723 -1.0639 -0.0120704 
0.641109 -0.0265118 0.00574863 
-0.0265118 1.24026 -1.06295 
0.00574863 -1.06295 -0.00386114 
0.622563 -0.0204618 -0.00676749 
-0.0204618 1.32038 -0.822085 
-0.00676749 -0.822085 -0.0654373 
0.639124 -0.0227434 -0.00194457 
-0.0227434 1.34178 -0.822596 
-0.00194457 -0.822596 -0.10339 
0.617893 -0.0281417 -0.00245316 
-0.0281417 1.91307 -1.04663 
-0.00245316 -1.04663 -0.653457 
0.58377 -0.0258602 -0.00842752 
-0.0258602 1.909 -1.04586 
-0.00842752 -1.04586 -0.61526 
0.954711 -0.0228688 0.0125321 
-0.0228688 1.3676 -0.442156 
0.0125321 -0.442156 0.36082 
0.939714 -0.0259261 0.0192021 
-0.0259261 1.39566 -0.442205 
0.0192021 -0.442205 0.347761 
0.916084 -0.0327514 0.0191918 
-0.0327514 2.16319 -0.573766 
0.0191918 -0.573766 -0.396142 
0.908304 -0.029694 0.0119453 
-0.029694 2.15808 -0.573675 
0.0119453 -0.573675 -0.383253 
0.936269 -0.0225695 -0.00416191 
-0.0225695 1.56163 -0.360598 
-0.00416191 -0.360598 0.185235 
0.918378 -0.0262033 0.00250813 
-0.0262033 1.58903 -0.36057 
0.00250813 -0.36057 0.175723 
0.895631 -0.033071 0.00242096 
-0.033071 2.76475 -0.492131 
0.00242096 -0.492131 -0.977247 
0.891558 -0.0294372 -0.00482554 
-0.0294372 2.7588 -0.492117 
-0.00482554 -0.492117 -0.967222 
0.987098 -0.0145888 0.0359085 
-0.0145888 1.51476 0.18032 
0.0359085 0.18032 0.256893 
0.955046 -0.0189797 0.0380153 
-0.0189797 1.53731 0.180888 
0.0380153 0.180888 0.266396 
0.939531 -0.025126 0.0383064 
-0.025126 2.81634 0.294826 
0.0383064 0.294826 -0.997125 
0.958786 -0.020735 0.036508 
-0.020735 2.80749 0.293988 
0.036508 0.293988 -1.00753 
0.994219 -0.0150135 0.0236818 
-0.0150135 1.16527 0.314774 
0.0236818 0.314774 0.599263 
0.927677 -0.0190961 0.0257887 
-0.0190961 1.18888 0.315052 
0.0257887 0.315052 0.642186 
0.913396 -0.024972 0.0263697 
-0.024972 2.57433 0.42899 
0.0263697 0.42899 -0.728975 
0.963293 -0.0208894 0.0245713 
-0.0208894 2.56775 0.428442 
0.0245713 0.428442 -0.772297 
0.686735 -0.00407537 0.091391 
-0.00407537 1.14155 0.865281 
0.091391 0.865281 -0.0144994 
0.621731 -0.00658811 0.0742938 
-0.00658811 1.15017 0.865325 
0.0742938 0.865325 0.0418898 
0.616696 -0.00960702 0.0747792 
-0.00960702 2.49875 1.34381 
0.0747792 1.34381 -1.30166 
0.680003 -0.00709428 0.0921302 
-0.00709428 2.4916 1.34314 
0.0921302 1.34314 -1.35781 
0.649466 -0.00458335 0.087589 
-0.00458335 0.0383488 0.953153 
0.087589 0.953153 1.12597 
0.555615 -0.00684235 0.0704917 
-0.00684235 0.0471028 0.953291 
0.0704917 0.953291 1.21107 
0.551516 -0.00924028 0.0708836 
-0.00924028 0.787521 1.43177 
0.0708836 1.43177 0.47475 
0.640663 -0.00698128 0.0882346 
-0.00698128 0.783286 1.43101 
0.0882346 1.43101 0.389838 
-0.77539 0.0146294 0.0963284 
0.0146294 -0.113414 0.919904 
0.0963284 0.919904 -1.17546 
-0.618906 0.0176336 0.087589 
0.0176336 -0.13927 0.920004 
0.087589 0.920004 -1.30609 
-0.603773 0.0252838 0.0882346 
0.0252838 -0.886579 1.38906 
0.0882346 1.38906 -0.573911 
-0.752067 0.0222796 0.0975407 
0.0222796 -0.869134 1.38796 
0.0975407 1.38796 -0.443062 
-0.755143 0.0135176 0.11108 
0.0135176 -1.18253 0.8297 
0.11108 0.8297 -0.126589 
-0.696867 0.0170885 0.102341 
0.0170885 -1.20865 0.830274 
0.102341 0.830274 -0.158748 
-0.680183 0.0257413 0.102513 
0.0257413 -2.57304 1.29933 
0.102513 1.29933 1.18896 
-0.735905 0.0221704 0.111819 
0.0221704 -2.55137 1.29775 
0.111819 1.29775 1.22301 
-1.05422 0.0477688 0.0250833 
0.0477688 -1.17889 0.288942 
0.0250833 0.288942 -0.713943 
-0.990127 0.0518416 0.0346315 
0.0518416 -1.24579 0.28977 
0.0346315 0.28977 -0.711147 
-0.940439 0.0708678 0.0349544 
0.0708678 -2.65432 0.39926 
0.0349544 0.39926 0.647694 
-0.97625 0.066795 0.0259199 
0.066795 -2.61437 0.397564 
0.0259199 0.397564 0.64356 
-1.03339 0.0468138 0.0610548 
0.0468138 -1.50739 0.150322 
0.0610548 0.150322 -0.406283 
-1.02923 0.0514003 0.070603 
0.0514003 -1.57394 0.151088 
0.070603 0.151088 -0.343892 
-0.977206 0.0712942 0.0709874 
0.0712942 -2.87383 0.260578 
0.0709874 0.260578 0.903979 
-0.96005 0.0667077 0.0619528 
0.0667077 -2.82966 0.258944 
0.0619528 0.258944 0.842651 
-0.93322 0.0680102 0.0243802 
0.0680102 -1.5389 -0.36872 
0.0243802 -0.36872 -0.333728 
-0.952975 0.0696631 0.0305326 
0.0696631 -1.61891 -0.368819 
0.0305326 -0.368819 -0.233959 
-0.881716 0.092109 0.0296538 
0.092109 -2.82145 -0.500062 
0.0296538 -0.500062 0.897317 
-0.824064 0.0904561 0.0226629 
0.0904561 -2.77804 -0.499854 
0.0226629 -0.499854 0.796257 
-1.01018 0.0688053 0.0665638 
0.0688053 -1.33104 -0.453966 
0.0665638 -0.453966 -0.464627 
-1.00871 0.0696196 0.0727162 
0.0696196 -1.41301 -0.454708 
0.0727162 -0.454708 -0.384124 
-0.937925 0.0919565 0.0724809 
0.0919565 -2.20022 -0.585951 
0.0724809 -0.585951 0.332302 
-0.896798 0.0911421 0.06549 
0.0911421 -2.15926 -0.5851 
0.06549 -0.5851 0.250212 
-0.581714 0.0590332 0.0553561 
0.0590332 -1.28988 -0.810293 
0.0553561 -0.810293 -0.0711672 
-0.640232 0.0591197 0.0534166 
0.0591197 -1.35249 -0.811628 
0.0534166 -0.811628 0.0499654 
-0.576897 0.0768938 0.0521081 
0.0768938 -1.94898 -1.03109 
0.0521081 -1.03109 0.583121 
-0.490958 0.0768072 0.0528482 
0.0768072 -1.91458 -1.02898 
0.0528482 -1.02898 0.462774 
-0.75009 0.06067 0.0874491 
0.06067 -0.813844 -0.830376 
0.0874491 -0.830376 -0.378827 
-0.729061 0.0595571 0.0855096 
0.0595571 -0.879671 -0.832029 
0.0855096 -0.832029 -0.334028 
-0.669483 0.0765574 0.0845187 
0.0765574 -1.25889 -1.05149 
0.0845187 -1.05149 -0.0143825 
-0.650213 0.0776703 0.0852588 
0.0776703 -1.23116 -1.04906 
0.0852588 -1.04906 -0.0613877 
-0.127778 0.0226883 0.0854453 
0.0226883 -0.65602 -0.999847 
0.0854453 -0.999847 0.0965246 
-0.187051 0.0228564 0.0785688 
0.0228564 -0.678101 -1.00187 
0.0785688 -1.00187 0.177878 
-0.1603 0.0298298 0.0770546 
0.0298298 -0.8016 -1.23246 
0.0770546 -1.23246 0.274626 
-0.0964299 0.0296617 0.0828208 
0.0296617 -0.785951 -1.22937 
0.0828208 -1.22937 0.195107 
-0.341529 0.02439 0.097197 
0.02439 -0.106422 -0.998756 
0.097197 -0.998756 -0.239322 
-0.298574 0.0234477 0.0903205 
0.0234477 -0.132494 -1.00074 
0.0903205 -1.00074 -0.256205 
-0.277465 0.0293558 0.088769 
0.0293558 -0.270988 -1.23133 
0.088769 -1.23133 -0.13882 
-0.299574 0.0302981 0.0945351 
0.0302981 -0.264094 -1.22828 
0.0945351 -1.22828 -0.123605 
0.341529 -0.02439 0.097197 
-0.02439 0.106422 -0.998756 
0.097197 -0.998756 0.239322 
0.298574 -0.0234477 0.0903205 
-0.0234477 0.132494 -1.00074 
0.0903205 -1.00074 0.256205 
0.277465 -0.0293558 0.088769 
-0.0293558 0.270988 -1.23133 
0.088769 -1.23133 0.13882 
0.299574 -0.0302981 0.0945351 
-0.0302981 0.264095 -1.22828 
0.0945351 -1.22828 0.123605 
0.127778 -0.0226883 0.0854453 
-0.0226883 0.65602 -0.999847 
0.0854453 -0.999847 -0.0965245 
0.187051 -0.0228564 0.0785688 
-0.0228564 0.678101 -1.00187 
0.0785688 -1.00187 -0.177878 
0.1603 -0.0298298 0.0770546 
-0.0298298 0.8016 -1.23246 
0.0770546 -1.23246 -0.274626 
0.09643 -0.0296617 0.0828208 
-0.0296617 0.785951 -1.22937 
0.0828208 -1.22937 -0.195107 
0.75009 -0.06067 0.0874491 
-0.06067 0.813844 -0.830376 
0.0874491 -0.830376 0.378827 
0.729062 -0.0595571 0.0855096 
-0.0595571 0.879671 -0.832029 
0.0855096 -0.832029 0.334028 
0.669484 -0.0765574 0.0845187 
-0.0765574 1.2589 -1.05149 
0.0845187 -1.05149 0.0143826 
0.650213 -0.0776703 0.0852588 
-0.0776703 1.23116 -1.04906 
0.0852588 -1.04906 0.0613878 
0.581714 -0.0590332 0.0553561 
-0.0590332 1.28988 -0.810293 
0.0553561 -0.810293 0.0711673 
0.640232 -0.0591197 0.0534166 
-0.0591197 1.35249 -0.811628 
0.0534166 -0.811628 -0.0499652 
0.576897 -0.0768938 0.0521081 
-0.0768938 1.94898 -1.03109 
0.0521081 -1.03109 -0.583121 
0.490958 -0.0768072 0.0528482 
-0.0768072 1.91458 -1.02898 
0.0528482 -1.02898 -0.462774 
1.01018 -0.0688053 0.0665638 
-0.0688053 1.33104 -0.453966 
0.0665638 -0.453966 0.464627 
1.00871 -0.0696196 0.0727162 
-0.0696196 1.41301 -0.454708 
0.0727162 -0.454708 0.384124 
0.937925 -0.0919565 0.0724809 
-0.0919565 2.20022 -0.585951 
0.0724809 -0.585951 -0.332302 
0.896798 -0.0911421 0.06549 
-0.0911421 2.15926 -0.5851 
0.06549 -0.5851 -0.250212 
0.93322 -0.0680102 0.0243802 
-0.0680102 1.5389 -0.36872 
0.0243802 -0.36872 0.333728 
0.952975 -0.0696631 0.0305326 
-0.0696631 1.61891 -0.368819 
0.0305326 -0.368819 0.233959 
0.881716 -0.092109 0.0296538 
-0.092109 2.82145 -0.500062 
0.0296538 -0.500062 -0.897317 
0.824064 -0.0904561 0.0226629 
-0.0904561 2.77804 -0.499854 
0.0226629 -0.499854 -0.796257 
1.03339 -0.0468138 0.0610548 
-0.0468138 1.50739 0.150322 
0.0610548 0.150322 0.406283 
1.02923 -0.0514003 0.070603 
-0.0514003 1.57394 0.151088 
0.070603 0.151088 0.343893 
0.977206 -0.0712942 0.0709874 
-0.0712942 2.87383 0.260578 
0.0709874 0.260578 -0.903979 
0.96005 -0.0667077 0.0619528 
-0.0667077 2.82966 0.258944 
0.0619528 0.258944 -0.842651 
1.05422 -0.0477688 0.0250833 
-0.0477688 1.17889 0.288942 
0.0250833 0.288942 0.713943 
0.990127 -0.0518416 0.0346315 
-0.0518416 1.24579 0.28977 
0.0346315 0.28977 0.711147 
0.940439 -0.0708678 0.0349544 
-0.0708678 2.65432 0.39926 
0.0349544 0.39926 -0.647694 
0.97625 -0.066795 0.0259199 
-0.066795 2.61437 0.397564 
0.0259199 0.397564 -0.64356 
0.755143 -0.0135176 0.11108 
-0.0135176 1.18253 0.8297 
0.11108 0.8297 0.126589 
0.696867 -0.0170885 0.102341 
-0.0170885 1.20865 0.830274 
0.102341 0.830274 0.158749 
0.680183 -0.0257413 0.102513 
-0.0257413 2.57304 1.29933 
0.102513 1.29933 -1.18896 
0.735905 -0.0221704 0.111819 
-0.0221704 2.55137 1.29775 
0.111819 1.29775 -1.22301 
0.77539 -0.0146294 0.0963284 
-0.0146294 0.113414 0.919904 
0.0963284 0.919904 1.17546 
0.618906 -0.0176336 0.087589 
-0.0176336 0.13927 0.920004 
0.087589 0.920004 1.30609 
0.603773 -0.0252838 0.0882346 
-0.0252838 0.886579 1.38906 
0.0882346 1.38906 0.573911 
0.752068 -0.0222796 0.0975407 
-0.0222796 0.869134 1.38796 
0.0975407 1.38796 0.443062 
-0.971159 0.0400027 0.0837031 
0.0400027 -0.219687 0.845217 
0.0837031 0.845217 -1.25148 
-0.730249 0.0440084 0.0963284 
0.0440084 -0.283275 0.844789 
0.0963284 0.844789 -1.4288 
-0.678573 0.0647496 0.0975407 
0.0647496 -1.05614 1.28774 
0.0975407 1.28774 -0.70761 
-0.91472 0.0607439 0.0848858 
0.0607439 -0.999837 1.28689 
0.0848858 1.28689 -0.527767 
-0.822914 0.0383924 0.122563 
0.0383924 -1.21122 0.75487 
0.122563 0.75487 -0.408192 
-0.814285 0.0423685 0.135188 
0.0423685 -1.27752 0.757427 
0.135188 0.757427 -0.350519 
-0.758263 0.06438 0.133415 
0.06438 -2.65922 1.20037 
0.133415 1.20037 0.975155 
-0.770689 0.060404 0.12076 
0.060404 -2.59995 1.19655 
0.12076 1.19655 0.928311 
-1.10531 0.12536 0.0342416 
0.12536 -1.15021 0.237516 
0.0342416 0.237516 -0.929198 
-1.07228 0.126024 0.0491913 
0.126024 -1.31886 0.240042 
0.0491913 0.240042 -0.793578 
-0.940607 0.177766 0.0475158 
0.177766 -2.74736 0.336427 
0.0475158 0.336427 0.503256 
-0.922069 0.177101 0.030988 
0.177101 -2.62008 0.333014 
0.030988 0.333014 0.357438 
-1.10169 0.125169 0.116326 
0.125169 -1.42581 0.10204 
0.116326 0.10204 -0.657222 
-1.13964 0.124255 0.131276 
0.124255 -1.59755 0.101713 
0.131276 0.101713 -0.447517 
-1.00174 0.176883 0.132453 
0.176883 -2.91297 0.198098 
0.132453 0.198098 0.73 
-0.917622 0.177796 0.115925 
0.177796 -2.78483 0.197538 
0.115925 0.197538 0.517736 
-0.902659 0.166452 0.0960791 
0.166452 -1.43894 -0.367182 
0.0960791 -0.367182 -0.59104 
-0.984287 0.164366 0.0946014 
0.164366 -1.63866 -0.367642 
0.0946014 -0.367642 -0.309683 
-0.805551 0.226267 0.093163 
0.226267 -2.85714 -0.495898 
0.093163 -0.495898 0.730059 
-0.679812 0.228353 0.0916334 
0.228353 -2.70069 -0.494602 
0.0916334 -0.494602 0.447868 
-1.11198 0.170172 0.183192 
0.170172 -1.2074 -0.451456 
0.183192 -0.451456 -0.613248 
-1.10859 0.165079 0.181714 
0.165079 -1.40938 -0.453963 
0.181714 -0.453963 -0.414666 
-0.930986 0.226143 0.182322 
0.226143 -2.22396 -0.582219 
0.182322 -0.582219 0.222306 
-0.874551 0.231237 0.180793 
0.231237 -2.07349 -0.578876 
0.180793 -0.578876 0.0154072 
-0.524762 0.135938 0.182995 
0.135938 -1.18963 -0.757509 
0.182995 -0.757509 -0.283185 
-0.622575 0.133712 0.170507 
0.133712 -1.3399 -0.760394 
0.170507 -0.760394 -0.0351098 
-0.479895 0.180784 0.169681 
0.180784 -1.95227 -0.963341 
0.169681 -0.963341 0.434579 
-0.35986 0.18301 0.179617 
0.18301 -1.83052 -0.958157 
0.179617 -0.958157 0.192801 
-0.852393 0.140259 0.243548 
0.140259 -0.718855 -0.779471 
0.243548 -0.779471 -0.426333 
-0.809551 0.13548 0.231059 
0.13548 -0.870745 -0.782091 
0.231059 -0.782091 -0.317286 
-0.673635 0.180254 0.229968 
0.180254 -1.27537 -0.985038 
0.229968 -0.985038 -0.0485788 
-0.669312 0.185033 0.239904 
0.185033 -1.16553 -0.980119 
0.239904 -0.980119 -0.162736 
-0.0580441 0.0504736 0.245915 
0.0504736 -0.6087 -0.92025 
0.245915 -0.92025 -0.0351895 
-0.139715 0.0503204 0.229056 
0.0503204 -0.662028 -0.923605 
0.229056 -0.923605 0.0998086 
-0.0849603 0.0682954 0.22753 
0.0682954 -0.79854 -1.13241 
0.22753 -1.13241 0.181567 
-0.00442195 0.0684485 0.241927 
0.0684485 -0.749282 -1.12585 
0.241927 -1.12585 0.0517702 
-0.427883 0.0544036 0.266921 
0.0544036 -0.0786733 -0.920507 
0.266921 -0.920507 -0.195378 
-0.3625 0.0517886 0.250062 
0.0517886 -0.134906 -0.923353 
0.250062 -0.923353 -0.204528 
-0.316358 0.0665669 0.248028 
0.0665669 -0.277978 -1.13215 
0.248028 -1.13215 -0.107598 
-0.354639 0.0691819 0.262425 
0.0691819 -0.245921 -1.12611 
0.262425 -1.12611 -0.101374 
0.427883 -0.0544036 0.266921 
-0.0544036 0.0786734 -0.920507 
0.266921 -0.920507 0.195378 
0.3625 -0.0517886 0.250062 
-0.0517886 0.134906 -0.923353 
0.250062 -0.923353 0.204528 
0.316359 -0.0665669 0.248028 
-0.0665669 0.277978 -1.13215 
0.248028 -1.13215 0.107598 
0.354639 -0.0691819 0.262425 
-0.0691819 0.245921 -1.12611 
0.262425 -1.12611 0.101375 
0.0580442 -0.0504736 0.245915 
-0.0504736 0.608701 -0.92025 
0.245915 -0.92025 0.0351896 
0.139715 -0.0503204 0.229056 
-0.0503204 0.662028 -0.923605 
0.229056 -0.923605 -0.0998085 
0.0849604 -0.0682954 0.22753 
-0.0682954 0.79854 -1.13241 
0.22753 -1.13241 -0.181567 
0.00442209 -0.0684485 0.241927 
-0.0684485 0.749282 -1.12585 
0.241927 -1.12585 -0.0517701 
0.852394 -0.140259 0.243548 
-0.140259 0.718855 -0.779471 
0.243548 -0.779471 0.426333 
0.809551 -0.13548 0.231059 
-0.13548 0.870745 -0.782091 
0.231059 -0.782091 0.317286 
0.673635 -0.180254 0.229968 
-0.180254 1.27537 -0.985038 
0.229968 -0.985038 0.0485789 
0.669312 -0.185033 0.239904 
-0.185033 1.16553 -0.980119 
0.239904 -0.980119 0.162736 
0.524762 -0.135938 0.182995 
-0.135938 1.18963 -0.757509 
0.182995 -0.757509 0.283185 
0.622576 -0.133712 0.170507 
-0.133712 1.3399 -0.760394 
0.170507 -0.760394 0.03511 
0.479895 -0.180784 0.169681 
-0.180784 1.95227 -0.963341 
0.169681 -0.963341 -0.434579 
0.35986 -0.18301 0.179617 
-0.18301 1.83052 -0.958157 
0.179617 -0.958157 -0.192801 
1.11198 -0.170172 0.183192 
-0.170172 1.2074 -0.451456 
0.183192 -0.451456 0.613248 
1.10859 -0.165079 0.181714 
-0.165079 1.40938 -0.453963 
0.181714 -0.453963 0.414666 
0.930986 -0.226143 0.182322 
-0.226143 2.22396 -0.582219 
0.182322 -0.582219 -0.222306 
0.874552 -0.231237 0.180793 
-0.231237 2.07349 -0.578876 
0.180793 -0.578876 -0.0154071 
0.902659 -0.166452 0.0960791 
-0.166452 1.43894 -0.367182 
0.0960791 -0.367182 0.59104 
0.984287 -0.164366 0.0946014 
-0.164366 1.63866 -0.367642 
0.0946014 -0.367642 0.309684 
0.805551 -0.226267 0.093163 
-0.226267 2.85714 -0.495898 
0.093163 -0.495898 -0.730059 
0.679812 -0.228353 0.0916334 
-0.228353 2.70069 -0.494602 
0.0916334 -0.494602 -0.447867 
1.10169 -0.125169 0.116326 
-0.125169 1.42581 0.10204 
0.116326 0.10204 0.657222 
1.13964 -0.124255 0.131276 
-0.124255 1.59755 0.101713 
0.131276 0.101713 0.447517 
1.00174 -0.176883 0.132453 
-0.176883 2.91297 0.198098 
0.132453 0.198098 -0.729999 
0.917622 -0.177796 0.115925 
-0.177796 2.78483 0.197538 
0.115925 0.197538 -0.517736 
1.10531 -0.12536 0.0342416 
-0.12536 1.15021 0.237516 
0.0342416 0.237516 0.929198 
1.07228 -0.126024 0.0491913 
-0.126024 1.31886 0.240042 
0.0491913 0.240042 0.793578 
0.940607 -0.177766 0.0475158 
-0.177766 2.74736 0.336427 
0.0475158 0.336427 -0.503256 
0.92207 -0.177101 0.030988 
-0.177101 2.62008 0.333014 
0.030988 0.333014 -0.357438 
0.822914 -0.0383924 0.122563 
-0.0383924 1.21122 0.75487 
0.122563 0.75487 0.408192 
0.814285 -0.0423685 0.135188 
-0.0423685 1.27752 0.757427 
0.135188 0.757427 0.350519 
0.758263 -0.06438 0.133415 
-0.06438 2.65922 1.20037 
0.133415 1.20037 -0.975155 
0.770689 -0.060404 0.12076 
-0.060404 2.59995 1.19655 
0.12076 1.19655 -0.928311 
0.971159 -0.0400027 0.0837031 
-0.0400027 0.219687 0.845217 
0.0837031 0.845217 1.25148 
0.730249 -0.0440084 0.0963284 
-0.0440084 0.283275 0.844789 
0.0963284 0.844789 1.4288 
0.678573 -0.0647496 0.0975407 
-0.0647496 1.05614 1.28774 
0.0975407 1.28774 0.70761 
0.91472 -0.0607439 0.0848858 
-0.0607439 0.999837 1.28689 
0.0848858 1.28689 0.527767 
-1.24529 0.10494 0.0330202 
0.10494 -0.322082 0.680421 
0.0330202 0.680421 -1.36022 
-0.893779 0.101902 0.0837031 
0.101902 -0.489412 0.677983 
0.0837031 0.677983 -1.5444 
-0.775892 0.152503 0.0848858 
0.152503 -1.32733 1.05012 
0.0848858 1.05012 -0.824366 
-1.08767 0.155541 0.0274971 
0.155541 -1.20657 1.05149 
0.0274971 1.05149 -0.633345 
-0.872947 0.108024 0.116092 
0.108024 -1.1503 0.604437 
0.116092 0.604437 -0.904339 
-0.98266 0.0982803 0.166775 
0.0982803 -1.32915 0.60751 
0.166775 0.60751 -0.615775 
-0.853424 0.149952 0.162446 
0.149952 -2.66088 0.979646 
0.162446 0.979646 0.586714 
-0.696693 0.159696 0.105057 
0.159696 -2.54685 0.975502 
0.105057 0.975502 0.315955 
-1.15399 0.30255 0.071773 
0.30255 -0.981163 0.14849 
0.071773 0.14849 -1.26895 
-1.17008 0.291931 0.0784533 
0.291931 -1.38919 0.153399 
0.0784533 0.153399 -0.844844 
-0.818271 0.427602 0.0726732 
0.427602 -2.81699 0.212063 
0.0726732 0.212063 0.231148 
-0.749222 0.438221 0.0666308 
0.438221 -2.44042 0.205281 
0.0666308 0.205281 -0.214466 
-1.25903 0.301578 0.232506 
0.301578 -1.16338 0.0363554 
0.232506 0.0363554 -0.981701 
-1.30265 0.291597 0.239186 
0.291597 -1.57609 0.0326336 
0.239186 0.0326336 -0.525368 
-0.950565 0.429141 0.242037 
0.429141 -2.84757 0.0912972 
0.242037 0.0912972 0.394021 
-0.857389 0.439122 0.235994 
0.439122 -2.46731 0.093147 
0.235994 0.093147 -0.079406 
-0.893926 0.35556 0.234384 
0.35556 -1.15576 -0.316891 
0.234384 -0.316891 -0.953894 
-1.00368 0.347173 0.218939 
0.347173 -1.59218 -0.318639 
0.218939 -0.318639 -0.407725 
-0.621797 0.494257 0.217745 
0.494257 -2.77099 -0.433691 
0.217745 -0.433691 0.389208 
-0.51234 0.502644 0.23534 
0.502644 -2.34332 -0.431808 
0.23534 -0.431808 -0.14792 
-1.27963 0.359095 0.389005 
0.359095 -0.932949 -0.387767 
0.389005 -0.387767 -0.791 
-1.22297 0.352858 0.37356 
0.352858 -1.36549 -0.391384 
0.37356 -0.391384 -0.415121 
-0.855545 0.499806 0.374235 
0.499806 -2.1904 -0.506436 
0.374235 -0.506436 0.0423683 
-0.89321 0.506044 0.391831 
0.506044 -1.75946 -0.502683 
0.391831 -0.502683 -0.350912 
-0.495979 0.26903 0.393943 
0.26903 -0.937435 -0.602194 
0.393943 -0.602194 -0.57884 
-0.592875 0.263906 0.373363 
0.263906 -1.24396 -0.606797 
0.373363 -0.606797 -0.175419 
-0.334328 0.365699 0.373059 
0.365699 -1.85055 -0.770017 
0.373059 -0.770017 0.172629 
-0.241432 0.370824 0.39505 
0.370824 -1.55636 -0.761895 
0.39505 -0.761895 -0.214463 
-0.989978 0.273299 0.49423 
0.273299 -0.545906 -0.622949 
0.49423 -0.622949 -0.476369 
-0.888156 0.269584 0.47365 
0.269584 -0.848129 -0.625416 
0.47365 -0.625416 -0.275969 
-0.647884 0.367858 0.471211 
0.367858 -1.26698 -0.788636 
0.471211 -0.788636 -0.0973885 
-0.723461 0.371572 0.493201 
0.371572 -0.984223 -0.782649 
0.493201 -0.782649 -0.304569 
0.00198635 0.0977708 0.496919 
0.0977708 -0.479829 -0.718277 
0.496919 -0.718277 -0.225345 
-0.0894519 0.0960326 0.476016 
0.0960326 -0.58673 -0.722554 
0.476016 -0.722554 -0.0270058 
0.00551404 0.133122 0.473234 
0.133122 -0.745371 -0.885552 
0.473234 -0.885552 0.0366689 
0.0857603 0.13486 0.494839 
0.13486 -0.635975 -0.875672 
0.494839 -0.875672 -0.152973 
-0.52684 0.10128 0.530718 
0.10128 -0.0525608 -0.720005 
0.530718 -0.720005 -0.123788 
-0.425375 0.100245 0.509816 
0.100245 -0.159021 -0.722917 
0.509816 -0.722917 -0.118792 
-0.34971 0.131732 0.505669 
0.131732 -0.29235 -0.885915 
0.505669 -0.885915 -0.0611275 
-0.426906 0.132768 0.527274 
0.132768 -0.207564 -0.8774 
0.527274 -0.8774 -0.0687174 
0.52684 -0.10128 0.530718 
-0.10128 0.0525609 -0.720005 
0.530718 -0.720005 0.123788 
0.425375 -0.100245 0.509816 
-0.100245 0.159021 -0.722917 
0.509816 -0.722917 0.118793 
0.34971 -0.131732 0.505669 
-0.131732 0.29235 -0.885915 
0.505669 -0.885915 0.0611276 
0.426906 -0.132768 0.527274 
-0.132768 0.207565 -0.8774 
0.527274 -0.8774 0.0687175 
-0.00198621 -0.0977708 0.496919 
-0.0977708 0.479829 -0.718277 
0.496919 -0.718277 0.225345 
0.089452 -0.0960326 0.476016 
-0.0960326 0.58673 -0.722554 
0.476016 -0.722554 0.027006 
-0.0055139 -0.133122 0.473234 
-0.133122 0.745371 -0.885552 
0.473234 -0.885552 -0.0366687 
-0.0857601 -0.13486 0.494839 
-0.13486 0.635976 -0.875672 
0.494839 -0.875672 0.152973 
0.989978 -0.273299 0.49423 
-0.273299 0.545906 -0.622949 
0.49423 -0.622949 0.47637 
0.888156 -0.269584 0.47365 
-0.269584 0.848129 -0.625416 
0.47365 -0.625416 0.275969 
0.647884 -0.367858 0.471211 
-0.367858 1.26698 -0.788636 
0.471211 -0.788636 0.0973887 
0.723462 -0.371572 0.493201 
-0.371572 0.984223 -0.782649 
0.493201 -0.782649 0.304569 
0.495979 -0.26903 0.393943 
-0.26903 0.937436 -0.602194 
0.393943 -0.602194 0.57884 
0.592875 -0.263906 0.373363 
-0.263906 1.24396 -0.606797 
0.373363 -0.606797 0.175419 
0.334328 -0.365699 0.373059 
-0.365699 1.85055 -0.770017 
0.373059 -0.770017 -0.172629 
0.241432 -0.370824 0.39505 
-0.370824 1.55636 -0.761895 
0.39505 -0.761895 0.214463 
1.27963 -0.359095 0.389005 
-0.359095 0.932949 -0.387767 
0.389005 -0.387767 0.791 
1.22297 -0.352858 0.37356 
-0.352858 1.36549 -0.391384 
0.37356 -0.391384 0.415121 
0.855545 -0.499806 0.374235 
-0.499806 2.1904 -0.506436 
0.374235 -0.506436 -0.0423682 
0.89321 -0.506044 0.391831 
-0.506044 1.75946 -0.502683 
0.391831 -0.502683 0.350912 
0.893926 -0.35556 0.234384 
-0.35556 1.15576 -0.316891 
0.234384 -0.316891 0.953895 
1.00368 -0.347173 0.218939 
-0.347173 1.59218 -0.318639 
0.218939 -0.318639 0.407726 
0.621797 -0.494257 0.217745 
-0.494257 2.77099 -0.433691 
0.217745 -0.433691 -0.389208 
0.51234 -0.502644 0.23534 
-0.502644 2.34332 -0.431808 
0.23534 -0.431808 0.14792 
1.25903 -0.301578 0.232506 
-0.301578 1.16338 0.0363554 
0.232506 0.0363554 0.981701 
1.30265 -0.291597 0.239186 
-0.291597 1.57609 0.0326336 
0.239186 0.0326336 0.525369 
0.950565 -0.429141 0.242037 
-0.429141 2.84757 0.0912972 
0.242037 0.0912972 -0.394021 
0.857389 -0.439122 0.235994 
-0.439122 2.46732 0.093147 
0.235994 0.093147 0.0794061 
1.15399 -0.30255 0.071773 
-0.30255 0.981163 0.14849 
0.071773 0.14849 1.26896 
1.17008 -0.291931 0.0784533 
-0.291931 1.38919 0.153399 
0.0784533 0.153399 0.844844 
0.818272 -0.427602 0.0726732 
-0.427602 2.81699 0.212063 
0.0726732 0.212063 -0.231148 
0.749222 -0.438221 0.0666308 
-0.438221 2.44042 0.205281 
0.0666308 0.205281 0.214466 
0.872947 -0.108024 0.116092 
-0.108024 1.1503 0.604437 
0.116092 0.604437 0.904339 
0.98266 -0.0982803 0.166775 
-0.0982803 1.32915 0.60751 
0.166775 0.60751 0.615775 
0.853424 -0.149952 0.162446 
-0.149952 2.66088 0.979646 
0.162446 0.979646 -0.586713 
0.696693 -0.159696 0.105057 
-0.159696 2.54685 0.975502 
0.105057 0.975502 -0.315955 
1.24529 -0.10494 0.0330202 
-0.10494 0.322082 0.680421 
0.0330202 0.680421 1.36022 
0.893779 -0.101902 0.0837031 
-0.101902 0.489412 0.677983 
0.0837031 0.677983 1.5444 
0.775892 -0.152503 0.0848858 
-0.152503 1.32733 1.05012 
0.0848858 1.05012 0.824366 
1.08767 -0.155541 0.0274971 
-0.155541 1.20657 1.05149 
0.0274971 1.05149 0.633345 
-1.45041 0.302994 7.79439e-12 
0.302994 -0.340609 0.304408 
7.79439e-12 0.304408 -1.4104 
-1.17026 0.293164 0.0330202 
0.293164 -0.789658 0.292195 
0.0330202 0.292195 -1.24151 
-0.657814 0.467088 0.0274971 
0.467088 -1.72852 0.464278 
0.0274971 0.464278 -0.815087 
-1.04645 0.476918 -3.62046e-11 
0.476918 -1.1672 0.478909 
-3.62046e-11 0.478909 -0.987773 
-1.12194 0.290781 0.134446 
0.290781 -0.721649 0.271934 
0.134446 0.271934 -1.35783 
-1.21189 0.286475 0.167466 
0.286475 -1.19946 0.265895 
0.167466 0.265895 -0.790069 
-0.728373 0.45798 0.15577 
0.45798 -2.32062 0.437978 
0.15577 0.437978 -0.152428 
-0.713757 0.462287 0.128273 
0.462287 -1.79887 0.446436 
0.128273 0.446436 -0.688789 
-1.36772 0.64025 0.134446 
0.64025 -0.476912 0.0389457 
0.134446 0.0389457 -1.52883 
-1.2745 0.632805 0.123148 
0.632805 -1.36603 0.0470267 
0.123148 0.0470267 -0.732942 
-0.502788 0.965203 0.117344 
0.965203 -2.58822 0.0644241 
0.117344 0.0644241 -0.282464 
-0.749598 0.972649 0.128273 
0.972649 -1.51689 0.0446441 
0.128273 0.0446441 -1.10698 
-1.48654 0.642158 0.402317 
0.642158 -0.523342 -0.006194 
0.402317 -0.006194 -1.36358 
-1.44793 0.634343 0.391019 
0.634343 -1.41829 -0.0179598 
0.391019 -0.0179598 -0.507251 
-0.670816 0.978441 0.405062 
0.978441 -2.57041 -0.000562388 
0.405062 -0.000562388 -0.132242 
-0.872166 0.986256 0.415991 
0.986256 -1.4526 -0.000495611 
0.415991 -0.000495611 -1.0487 
-1.05853 0.65414 0.402317 
0.65414 -0.518314 -0.143307 
0.402317 -0.143307 -1.35363 
-1.0314 0.648754 0.392897 
0.648754 -1.37165 -0.146863 
0.392897 -0.146863 -0.527425 
-0.40542 0.945549 0.404408 
0.945549 -2.29376 -0.194998 
0.404408 -0.194998 -0.231291 
-0.539032 0.950935 0.415991 
0.950935 -1.37952 -0.200031 
0.415991 -0.200031 -1.01192 
-1.4348 0.664258 0.656494 
0.664258 -0.417175 -0.175549 
0.656494 -0.175549 -1.0785 
-1.30856 0.661035 0.647074 
0.661035 -1.24678 -0.17843 
0.647074 -0.17843 -0.37513 
-0.688555 0.966419 0.657909 
0.966419 -2.06627 -0.226565 
0.657909 -0.226565 -0.175642 
-0.919006 0.969642 0.669492 
0.969642 -1.0899 -0.232274 
0.669492 -0.232274 -0.921567 
-0.573052 0.465782 0.656494 
0.465782 -0.423915 -0.255647 
0.656494 -0.255647 -0.970674 
-0.588859 0.462706 0.652012 
0.462706 -0.990487 -0.261597 
0.652012 -0.261597 -0.388295 
-0.201698 0.651593 0.661128 
0.651593 -1.49418 -0.330727 
0.661128 -0.330727 -0.271766 
-0.224358 0.654669 0.669492 
0.654669 -0.933681 -0.321846 
0.669492 -0.321846 -0.809602 
-1.1106 0.472831 0.821266 
0.472831 -0.265118 -0.269812 
0.821266 -0.269812 -0.59192 
-0.962176 0.473637 0.816784 
0.473637 -0.806084 -0.267776 
0.816784 -0.267776 -0.199381 
-0.591329 0.659593 0.817914 
0.659593 -1.24919 -0.336906 
0.817914 -0.336906 -0.127121 
-0.762957 0.658787 0.826278 
0.658787 -0.676195 -0.336012 
0.826278 -0.336012 -0.52849 
0.00547339 0.166539 0.821266 
0.166539 -0.214768 -0.302594 
0.821266 -0.302594 -0.480015 
-0.0536774 0.163903 0.819473 
0.163903 -0.411394 -0.305189 
0.819473 -0.305189 -0.224238 
0.0817121 0.23039 0.819552 
0.23039 -0.558463 -0.374436 
0.819552 -0.374436 -0.212558 
0.127071 0.233025 0.826278 
0.233025 -0.363357 -0.362249 
0.826278 -0.362249 -0.453024 
-0.596064 0.168955 0.876504 
0.168955 -0.0407023 -0.305484 
0.876504 -0.305484 -0.0525422 
-0.484717 0.171253 0.874711 
0.171253 -0.220276 -0.304097 
0.874711 -0.304097 0.015684 
-0.371158 0.228148 0.870807 
0.228148 -0.36035 -0.373344 
0.870807 -0.373344 0.0421989 
-0.474698 0.22585 0.877533 
0.22585 -0.191085 -0.36514 
0.877533 -0.36514 -0.0235261 
0.596064 -0.168955 0.876504 
-0.168955 0.0407025 -0.305484 
0.876504 -0.305484 0.0525424 
0.484717 -0.171253 0.874711 
-0.171253 0.220276 -0.304097 
0.874711 -0.304097 -0.0156838 
0.371158 -0.228148 0.870807 
-0.228148 0.36035 -0.373344 
0.870807 -0.373344 -0.0421988 
0.474698 -0.22585 0.877533 
-0.22585 0.191085 -0.36514 
0.877533 -0.36514 0.0235262 
-0.00547325 -0.166539 0.821266 
-0.166539 0.214768 -0.302594 
0.821266 -0.302594 0.480015 
0.0536775 -0.163903 0.819473 
-0.163903 0.411394 -0.305189 
0.819473 -0.305189 0.224238 
-0.081712 -0.23039 0.819552 
-0.23039 0.558463 -0.374436 
0.819552 -0.374436 0.212558 
-0.127071 -0.233025 0.826278 
-0.233025 0.363357 -0.362249 
0.826278 -0.362249 0.453024 
1.1106 -0.472831 0.821266 
-0.472831 0.265118 -0.269812 
0.821266 -0.269812 0.59192 
0.962176 -0.473637 0.816784 
-0.473637 0.806085 -0.267776 
0.816784 -0.267776 0.199381 
0.591329 -0.659593 0.817914 
-0.659593 1.24919 -0.336906 
0.817914 -0.336906 0.127121 
0.762958 -0.658787 0.826278 
-0.658787 0.676195 -0.336012 
0.826278 -0.336012 0.52849 
0.573052 -0.465782 0.656494 
-0.465782 0.423915 -0.255647 
0.656494 -0.255647 0.970675 
0.588859 -0.462706 0.652012 
-0.462706 0.990488 -0.261597 
0.652012 -0.261597 0.388295 
0.201698 -0.651593 0.661128 
-0.651593 1.49418 -0.330727 
0.661128 -0.330727 0.271766 
0.224358 -0.654669 0.669492 
-0.654669 0.933682 -0.321846 
0.669492 -0.321846 0.809602 
1.4348 -0.664258 0.656494 
-0.664258 0.417175 -0.175549 
0.656494 -0.175549 1.0785 
1.30856 -0.661035 0.647074 
-0.661035 1.24678 -0.17843 
0.647074 -0.17843 0.37513 
0.688555 -0.966419 0.657909 
-0.966419 2.06627 -0.226565 
0.657909 -0.226565 0.175643 
0.919006 -0.969642 0.669492 
-0.969642 1.0899 -0.232274 
0.669492 -0.232274 0.921567 
1.05853 -0.65414 0.402317 
-0.65414 0.518314 -0.143307 
0.402317 -0.143307 1.35363 
1.0314 -0.648754 0.392897 
-0.648754 1.37165 -0.146863 
0.392897 -0.146863 0.527425 
0.405421 -0.945549 0.404408 
-0.945549 2.29376 -0.194998 
0.404408 -0.194998 0.231291 
0.539033 -0.950935 0.415991 
-0.950935 1.37952 -0.200031 
0.415991 -0.200031 1.01192 
1.48654 -0.642158 0.402317 
-0.642158 0.523343 -0.006194 
0.402317 -0.006194 1.36358 
1.44793 -0.634343 0.391019 
-0.634343 1.41829 -0.0179598 
0.391019 -0.0179598 0.507251 
0.670817 -0.978441 0.405062 
-0.978441 2.57041 -0.000562388 
0.405062 -0.000562388 0.132242 
0.872166 -0.986256 0.415991 
-0.986256 1.4526 -0.000495611 
0.415991 -0.000495611 1.0487 
1.36772 -0.64025 0.134446 
-0.64025 0.476912 0.0389457 
0.134446 0.0389457 1.52883 
1.2745 -0.632805 0.123148 
-0.632805 1.36603 0.0470267 
0.123148 0.0470267 0.732942 
0.502788 -0.965203 0.117344 
-0.965203 2.58822 0.0644241 
0.117344 0.0644241 0.282464 
0.749598 -0.972649 0.128273 
-0.972649 1.51689 0.0446441 
0.128273 0.0446441 1.10698 
1.12194 -0.290781 0.134446 
-0.290781 0.721649 0.271934 
0.134446 0.271934 1.35783 
1.21189 -0.286475 0.167466 
-0.286475 1.19946 0.265895 
0.167466 0.265895 0.790069 
0.728373 -0.45798 0.15577 
-0.45798 2.32062 0.437978 
0.15577 0.437978 0.152428 
0.713757 -0.462287 0.128273 
-0.462287 1.79887 0.446436 
0.128273 0.446436 0.688789 
1.45041 -0.302994 7.79439e-12 
-0.302994 0.340609 0.304408 
7.79439e-12 0.304408 1.4104 
1.17026 -0.293164 0.0330202 
-0.293164 0.789658 0.292195 
0.0330202 0.292195 1.24151 
0.657814 -0.467088 0.0274971 
-0.467088 1.72852 0.464278 
0.0274971 0.464278 0.815087 
1.04645 -0.476918 -3.62046e-11 
-0.476918 1.1672 0.478909 
-3.62046e-11 0.478909 0.987773 
-0.0724088 -0.000186242 0.00979673 
-0.000186242 0.267702 0.620792 
0.00979673 0.620792 -0.422307 
-0.0699199 5.7436e-05 3.36727e-11 
5.7436e-05 0.267792 0.62079 
3.36727e-11 0.62079 -0.424886 
-0.0705004 4.525e-05 4.63087e-11 
4.525e-05 -0.12369 0.976156 
4.63087e-11 0.976156 -0.0328239 
-0.0730096 -0.000198428 0.00978394 
-0.000198428 -0.123741 0.976157 
0.00978394 0.976157 -0.030263 
-0.102448 -0.000175981 0.00944794 
-0.000175981 -0.545306 0.555928 
0.00944794 0.555928 0.42074 
-0.0975418 5.49069e-05 -0.000348787 
5.49069e-05 -0.545219 0.555906 
-0.000348787 0.555906 0.415747 
-0.0981189 4.4298e-05 -0.000329458 
4.4298e-05 -1.40427 0.911272 
-0.000329458 0.911272 1.27538 
-0.102995 -0.00018659 0.00945448 
-0.00018659 -1.40432 0.911293 
0.00945448 0.911293 1.2803 
-0.362981 -0.000570967 0.00406719 
-0.000570967 -0.582825 0.228912 
0.00406719 0.228912 -0.082229 
-0.358023 0.000114206 -0.000348787 
0.000114206 -0.582638 0.228897 
-0.000348787 0.228897 -0.0873734 
-0.359689 8.31184e-05 -0.000329458 
8.31184e-05 -1.48553 0.353392 
-0.000329458 0.353392 0.817182 
-0.364717 -0.000602055 0.00408166 
-0.000602055 -1.48571 0.353408 
0.00408166 0.353408 0.822392 
-0.374778 -0.000561504 0.00346155 
-0.000561504 -0.882052 0.114002 
0.00346155 0.114002 0.228796 
-0.369335 0.000118803 -0.000954433 
0.000118803 -0.881845 0.114003 
-0.000954433 0.114003 0.223146 
-0.371003 8.71516e-05 -0.000950485 
8.71516e-05 -1.84477 0.238498 
-0.000950485 0.238498 1.18774 
-0.376491 -0.000593155 0.00346063 
-0.000593155 -1.84494 0.238498 
0.00346063 0.238498 1.19339 
-0.440286 -0.000734839 -0.00208402 
-0.000734839 -0.986293 -0.247499 
-0.00208402 -0.247499 0.202906 
-0.435219 0.000127633 -0.000954433 
0.000127633 -0.986053 -0.247502 
-0.000954433 -0.247502 0.197599 
-0.437394 9.00684e-05 -0.000950485 
9.00684e-05 -1.90588 -0.316711 
-0.000950485 -0.316711 1.1196 
-0.442507 -0.000772403 -0.00206843 
-0.000772403 -1.9061 -0.316708 
-0.00206843 -0.316708 1.12493 
-0.433328 -0.000745972 -0.00265611 
-0.000745972 -0.832643 -0.3472 
-0.00265611 -0.3472 0.0422988 
-0.429062 0.000128149 -0.00152652 
0.000128149 -0.832401 -0.34719 
-0.00152652 -0.34719 0.0377904 
-0.431247 9.13884e-05 -0.00153698 
9.13884e-05 -1.5385 -0.416398 
-0.00153698 -0.416398 0.746073 
-0.435591 -0.000782732 -0.00265492 
-0.000782732 -1.53871 -0.41641 
-0.00265492 -0.41641 0.750626 
-0.343906 -0.000591413 -0.00694137 
-0.000591413 -0.949175 -0.629299 
-0.00694137 -0.629299 0.357949 
-0.340285 0.000101357 -0.00152652 
0.000101357 -0.948979 -0.629292 
-0.00152652 -0.629292 0.354133 
-0.342063 7.1472e-05 -0.00153698 
7.1472e-05 -1.55352 -0.812512 
-0.00153698 -0.812512 0.96045 
-0.345687 -0.000621298 -0.00693198 
-0.000621298 -1.55369 -0.812522 
-0.00693198 -0.812522 0.964241 
-0.322845 -0.000614851 -0.00730903 
-0.000614851 -0.481269 -0.684243 
-0.00730903 -0.684243 -0.131018 
-0.320366 9.77614e-05 -0.00189419 
9.77614e-05 -0.481089 -0.684228 
-0.00189419 -0.684228 -0.133677 
-0.322155 7.07719e-05 -0.0019126 
7.07719e-05 -0.863632 -0.867448 
-0.0019126 -0.867448 0.250655 
-0.324705 -0.00064184 -0.0073076 
-0.00064184 -0.863802 -0.867466 
-0.0073076 -0.867466 0.253375 
-0.137271 -0.000215536 -0.00959954 
-0.000215536 -0.574242 -0.833392 
-0.00959954 -0.833392 0.366299 
-0.135651 4.0964e-05 -0.00189419 
4.0964e-05 -0.574158 -0.83338 
-0.00189419 -0.83338 0.364595 
-0.136326 2.83751e-05 -0.0019126 
2.83751e-05 -0.810797 -1.06257 
-0.0019126 -1.06257 0.60191 
-0.13792 -0.000228125 -0.0095967 
-0.000228125 -0.810857 -1.06258 
-0.0095967 -1.06258 0.603563 
-0.108793 -0.000243157 -0.00972322 
-0.000243157 0.0386666 -0.849486 
-0.00972322 -0.849486 -0.275087 
-0.108324 3.45936e-05 -0.00201787 
3.45936e-05 0.0387224 -0.849471 
-0.00201787 -0.849471 -0.275612 
-0.109009 2.62297e-05 -0.00203864 
2.62297e-05 -0.0420766 -1.07866 
-0.00203864 -1.07866 -0.194128 
-0.109528 -0.000251521 -0.00972274 
-0.000251521 -0.0421448 -1.07868 
-0.00972274 -1.07868 -0.193541 
0.108793 0.000243157 -0.00972322 
0.000243157 -0.0386665 -0.849486 
-0.00972322 -0.849486 0.275087 
0.108325 -3.45936e-05 -0.00201787 
-3.45936e-05 -0.0387223 -0.849471 
-0.00201787 -0.849471 0.275612 
0.109009 -2.62297e-05 -0.00203864 
-2.62297e-05 0.0420767 -1.07866 
-0.00203864 -1.07866 0.194128 
0.109528 0.000251521 -0.00972274 
0.000251521 0.0421449 -1.07868 
-0.00972274 -1.07868 0.193541 
0.137271 0.000215536 -0.00959954 
0.000215536 0.574242 -0.833392 
-0.00959954 -0.833392 -0.366299 
0.135651 -4.0964e-05 -0.00189419 
-4.0964e-05 0.574158 -0.83338 
-0.00189419 -0.83338 -0.364595 
0.136326 -2.83751e-05 -0.0019126 
-2.83751e-05 0.810798 -1.06257 
-0.0019126 -1.06257 -0.60191 
0.13792 0.000228125 -0.0095967 
0.000228125 0.810857 -1.06258 
-0.0095967 -1.06258 -0.603563 
0.322846 0.000614851 -0.00730903 
0.000614851 0.481269 -0.684243 
-0.00730903 -0.684243 0.131018 
0.320366 -9.77614e-05 -0.00189419 
-9.77614e-05 0.481089 -0.684228 
-0.00189419 -0.684228 0.133677 
0.322155 -7.07719e-05 -0.0019126 
-7.07719e-05 0.863632 -0.867448 
-0.0019126 -0.867448 -0.250655 
0.324705 0.00064184 -0.0073076 
0.00064184 0.863802 -0.867466 
-0.0073076 -0.867466 -0.253375 
0.343906 0.000591413 -0.00694137 
0.000591413 0.949175 -0.629299 
-0.00694137 -0.629299 -0.357949 
0.340285 -0.000101357 -0.00152652 
-0.000101357 0.94898 -0.629292 
-0.00152652 -0.629292 -0.354133 
0.342064 -7.1472e-05 -0.00153698 
-7.1472e-05 1.55352 -0.812512 
-0.00153698 -0.812512 -0.96045 
0.345688 0.000621298 -0.00693198 
0.000621298 1.55369 -0.812522 
-0.00693198 -0.812522 -0.964241 
0.433328 0.000745972 -0.00265611 
0.000745972 0.832644 -0.3472 
-0.00265611 -0.3472 -0.0422987 
0.429062 -0.000128149 -0.00152652 
-0.000128149 0.832401 -0.34719 
-0.00152652 -0.34719 -0.0377902 
0.431247 -9.13884e-05 -0.00153698 
-9.13884e-05 1.5385 -0.416398 
-0.00153698 -0.416398 -0.746073 
0.435591 0.000782732 -0.00265492 
0.000782732 1.53871 -0.41641 
-0.00265492 -0.41641 -0.750626 
0.440286 0.000734839 -0.00208402 
0.000734839 0.986293 -0.247499 
-0.00208402 -0.247499 -0.202906 
0.435219 -0.000127633 -0.000954433 
-0.000127633 0.986053 -0.247502 
-0.000954433 -0.247502 -0.197599 
0.437394 -9.00684e-05 -0.000950485 
-9.00684e-05 1.90588 -0.316711 
-0.000950485 -0.316711 -1.1196 
0.442507 0.000772403 -0.00206843 
0.000772403 1.9061 -0.316708 
-0.00206843 -0.316708 -1.12493 
0.374778 0.000561504 0.00346155 
0.000561504 0.882052 0.114002 
0.00346155 0.114002 -0.228796 
0.369335 -0.000118803 -0.000954433 
-0.000118803 0.881846 0.114003 
-0.000954433 0.114003 -0.223146 
0.371003 -8.71516e-05 -0.000950485 
-8.71516e-05 1.84477 0.238498 
-0.000950485 0.238498 -1.18774 
0.376491 0.000593155 0.00346063 
0.000593155 1.84494 0.238498 
0.00346063 0.238498 -1.19339 
0.362981 0.000570967 0.00406719 
0.000570967 0.582825 0.228912 
0.00406719 0.228912 0.0822291 
0.358023 -0.000114206 -0.000348787 
-0.000114206 0.582638 0.228897 
-0.000348787 0.228897 0.0873735 
0.359689 -8.31184e-05 -0.000329458 
-8.31184e-05 1.48553 0.353392 
-0.000329458 0.353392 -0.817182 
0.364717 0.000602055 0.00408166 
0.000602055 1.48571 0.353408 
0.00408166 0.353408 -0.822392 
0.102448 0.000175981 0.00944794 
0.000175981 0.545306 0.555928 
0.00944794 0.555928 -0.42074 
0.0975419 -5.49069e-05 -0.000348787 
-5.49069e-05 0.54522 0.555906 
-0.000348787 0.555906 -0.415747 
0.0981191 -4.4298e-05 -0.000329458 
-4.4298e-05 1.40427 0.911272 
-0.000329458 0.911272 -1.27538 
0.102995 0.00018659 0.00945448 
0.00018659 1.40432 0.911293 
0.00945448 0.911293 -1.2803 
0.0724089 0.000186242 0.00979673 
0.000186242 -0.267702 0.620792 
0.00979673 0.620792 0.422307 
0.06992 -5.7436e-05 3.36727e-11 
-5.7436e-05 -0.267792 0.62079 
3.36727e-11 0.62079 0.424886 
0.0705005 -4.525e-05 4.63087e-11 
-4.525e-05 0.12369 0.976156 
4.63087e-11 0.976156 0.0328241 
0.0730097 0.000198428 0.00978394 
0.000198428 0.123742 0.976157 
0.00978394 0.976157 0.0302632 
-0.078966 -0.000359939 0.0206335 
-0.000359939 0.263426 0.620575 
0.0206335 0.620575 -0.423608 
-0.0705784 -2.1826e-05 0.00979673 
-2.1826e-05 0.263643 0.620567 
0.00979673 0.620567 -0.432213 
-0.0712643 -4.01697e-05 0.00978394 
-4.01697e-05 -0.127504 0.975973 
0.00978394 0.975973 -0.04038 
-0.0796967 -0.000378282 0.0206125 
-0.000378282 -0.127621 0.975972 
0.0206125 0.975972 -0.0318308 
-0.114221 -0.000347314 0.0196709 
-0.000347314 -0.549198 0.555566 
0.0196709 0.555566 0.424271 
-0.0992173 -1.74212e-05 0.00883419 
-1.74212e-05 -0.548997 0.555499 
0.00883419 0.555499 0.409066 
-0.0999544 -2.62925e-05 0.00887965 
-2.62925e-05 -1.40866 0.910906 
0.00887965 0.910906 1.26947 
-0.114864 -0.000356185 0.0197082 
-0.000356185 -1.40875 0.910963 
0.0197082 0.910963 1.28447 
-0.374371 -0.0011094 0.00794478 
-0.0011094 -0.587254 0.22867 
0.00794478 0.22867 -0.0798645 
-0.359282 -0.000204378 0.00345344 
-0.000204378 -0.586845 0.228628 
0.00345344 0.228628 -0.095362 
-0.361135 -0.000251889 0.00350683 
-0.000251889 -1.49026 0.353149 
0.00350683 0.353149 0.809908 
-0.37635 -0.00115691 0.00800539 
-0.00115691 -1.49074 0.35319 
0.00800539 0.35319 0.825605 
-0.387036 -0.00109501 0.00634508 
-0.00109501 -0.886274 0.113371 
0.00634508 0.113371 0.23182 
-0.371034 -0.000182769 0.00185374 
-0.000182769 -0.885797 0.113378 
0.00185374 0.113378 0.215341 
-0.372923 -0.000229788 0.00185835 
-0.000229788 -1.84965 0.237898 
0.00185835 0.237898 1.18109 
-0.38901 -0.00114203 0.00635692 
-0.00114203 -1.85007 0.237891 
0.00635692 0.237891 1.19759 
-0.450862 -0.00139726 -0.00515702 
-0.00139726 -0.990111 -0.248023 
-0.00515702 -0.248023 0.205622 
-0.436135 -0.000293232 -0.00369183 
-0.000293232 -0.989571 -0.248031 
-0.00369183 -0.248031 0.190355 
-0.438478 -0.000352694 -0.0036707 
-0.000352694 -1.91034 -0.317241 
-0.0036707 -0.317241 1.11347 
-0.453209 -0.00145672 -0.00512165 
-0.00145672 -1.91093 -0.317236 
-0.00512165 -0.317236 1.12879 
-0.443229 -0.00142198 -0.00659424 
-0.00142198 -0.83622 -0.348146 
-0.00659424 -0.348146 0.0440976 
-0.430929 -0.000303708 -0.00512905 
-0.000303708 -0.835673 -0.348112 
-0.00512905 -0.348112 0.0312507 
-0.43325 -0.00036026 -0.00515035 
-0.00036026 -1.54259 -0.417321 
-0.00515035 -0.417321 0.740485 
-0.445663 -0.00147854 -0.00660129 
-0.00147854 -1.54316 -0.417358 
-0.00660129 -0.417358 0.753469 
-0.350611 -0.00110197 -0.0152341 
-0.00110197 -0.951788 -0.630133 
-0.0152341 -0.630133 0.359469 
-0.340525 -0.00022803 -0.0094143 
-0.00022803 -0.951343 -0.630115 
-0.0094143 -0.630115 0.348937 
-0.342409 -0.000275315 -0.00942741 
-0.000275315 -1.55678 -0.813354 
-0.00942741 -0.813354 0.956258 
-0.352398 -0.00114926 -0.0152399 
-0.00114926 -1.55724 -0.813379 
-0.0152399 -0.813379 0.96671 
-0.329321 -0.00114424 -0.0161083 
-0.00114424 -0.483541 -0.685382 
-0.0161083 -0.685382 -0.130068 
-0.322135 -0.000262962 -0.0102885 
-0.000262962 -0.483157 -0.685343 
-0.0102885 -0.685343 -0.137638 
-0.323953 -0.000302627 -0.0103231 
-0.000302627 -0.866134 -0.868582 
-0.0103231 -0.868582 0.247157 
-0.331207 -0.00118391 -0.0161356 
-0.00118391 -0.866625 -0.868629 
-0.0161356 -0.868629 0.254902 
-0.139267 -0.000398836 -0.0206503 
-0.000398836 -0.575296 -0.834454 
-0.0206503 -0.834454 0.366622 
-0.13505 -6.80545e-05 -0.012579 
-6.80545e-05 -0.575091 -0.834426 
-0.012579 -0.834426 0.3622 
-0.135787 -8.90272e-05 -0.0126122 
-8.90272e-05 -0.81229 -1.06364 
-0.0126122 -1.06364 0.600136 
-0.139906 -0.000419809 -0.0206857 
-0.000419809 -0.812443 -1.06368 
-0.0206857 -1.06368 0.604408 
-0.111282 -0.000443941 -0.0209335 
-0.000443941 0.0380231 -0.850658 
-0.0209335 -0.850658 -0.274682 
-0.109658 -0.000115314 -0.0128622 
-0.000115314 0.0381215 -0.850623 
-0.0128622 -0.850623 -0.276405 
-0.11031 -0.000125614 -0.0129014 
-0.000125614 -0.042608 -1.07984 
-0.0129014 -1.07984 -0.195023 
-0.111997 -0.00045424 -0.0209748 
-0.00045424 -0.0428199 -1.07988 
-0.0209748 -1.07988 -0.193124 
0.111282 0.000443941 -0.0209335 
0.000443941 -0.0380229 -0.850658 
-0.0209335 -0.850658 0.274682 
0.109658 0.000115314 -0.0128622 
0.000115314 -0.0381213 -0.850623 
-0.0128622 -0.850623 0.276405 
0.11031 0.000125614 -0.0129014 
0.000125614 0.0426082 -1.07984 
-0.0129014 -1.07984 0.195024 
0.111997 0.00045424 -0.0209748 
0.00045424 0.04282 -1.07988 
-0.0209748 -1.07988 0.193125 
0.139267 0.000398836 -0.0206503 
0.000398836 0.575296 -0.834454 
-0.0206503 -0.834454 -0.366621 
0.13505 6.80545e-05 -0.012579 
6.80545e-05 0.575091 -0.834426 
-0.012579 -0.834426 -0.3622 
0.135788 8.90272e-05 -0.0126122 
8.90272e-05 0.81229 -1.06364 
-0.0126122 -1.06364 -0.600136 
0.139906 0.000419809 -0.0206857 
0.000419809 0.812443 -1.06368 
-0.0206857 -1.06368 -0.604408 
0.329321 0.00114424 -0.0161083 
0.00114424 0.483541 -0.685382 
-0.0161083 -0.685382 0.130068 
0.322136 0.000262962 -0.0102885 
0.000262962 0.483157 -0.685343 
-0.0102885 -0.685343 0.137638 
0.323953 0.000302627 -0.0103231 
0.000302627 0.866134 -0.868582 
-0.0103231 -0.868582 -0.247157 
0.331207 0.00118391 -0.0161356 
0.00118391 0.866625 -0.868629 
-0.0161356 -0.868629 -0.254902 
0.350611 0.00110197 -0.0152341 
0.00110197 0.951789 -0.630133 
-0.0152341 -0.630133 -0.359469 
0.340525 0.00022803 -0.0094143 
0.00022803 0.951343 -0.630115 
-0.0094143 -0.630115 -0.348937 
0.342409 0.000275315 -0.00942741 
0.000275315 1.55678 -0.813354 
-0.00942741 -0.813354 -0.956258 
0.352398 0.00114926 -0.0152399 
0.00114926 1.55724 -0.813379 
-0.0152399 -0.813379 -0.96671 
0.443229 0.00142198 -0.00659424 
0.00142198 0.83622 -0.348146 
-0.00659424 -0.348146 -0.0440974 
0.430929 0.000303708 -0.00512905 
0.000303708 0.835673 -0.348112 
-0.00512905 -0.348112 -0.0312506 
0.43325 0.00036026 -0.00515035 
0.00036026 1.54259 -0.417321 
-0.00515035 -0.417321 -0.740485 
0.445663 0.00147854 -0.00660129 
0.00147854 1.54316 -0.417358 
-0.00660129 -0.417358 -0.753468 
0.450862 0.00139726 -0.00515702 
0.00139726 0.990112 -0.248023 
-0.00515702 -0.248023 -0.205622 
0.436135 0.000293232 -0.00369183 
0.000293232 0.989571 -0.248031 
-0.00369183 -0.248031 -0.190355 
0.438478 0.000352694 -0.0036707 
0.000352694 1.91034 -0.317241 
-0.0036707 -0.317241 -1.11347 
0.453209 0.00145672 -0.00512165 
0.00145672 1.91093 -0.317236 
-0.00512165 -0.317236 -1.12879 
0.387036 0.00109501 0.00634508 
0.00109501 0.886274 0.113371 
0.00634508 0.113371 -0.23182 
0.371034 0.000182769 0.00185374 
0.000182769 0.885797 0.113378 
0.00185374 0.113378 -0.215341 
0.372923 0.000229788 0.00185835 
0.000229788 1.84965 0.237898 
0.00185835 0.237898 -1.18109 
0.38901 0.00114203 0.00635692 
0.00114203 1.85007 0.237891 
0.00635692 0.237891 -1.19759 
0.374371 0.0011094 0.00794478 
0.0011094 0.587254 0.22867 
0.00794478 0.22867 0.0798647 
0.359282 0.000204378 0.00345344 
0.000204378 0.586846 0.228628 
0.00345344 0.228628 0.0953621 
0.361135 0.000251889 0.00350683 
0.000251889 1.49026 0.353149 
0.00350683 0.353149 -0.809908 
0.37635 0.00115691 0.00800539 
0.00115691 1.49074 0.35319 
0.00800539 0.35319 -0.825604 
0.114222 0.000347314 0.0196709 
0.000347314 0.549198 0.555566 
0.0196709 0.555566 -0.424271 
0.0992175 1.74212e-05 0.00883419 
1.74212e-05 0.548997 0.555499 
0.00883419 0.555499 -0.409066 
0.0999546 2.62925e-05 0.00887965 
2.62925e-05 1.40866 0.910906 
0.00887965 0.910906 -1.26947 
0.114864 0.000356185 0.0197082 
0.000356185 1.40875 0.910963 
0.0197082 0.910963 -1.28447 
0.0789661 0.000359939 0.0206335 
0.000359939 -0.263426 0.620575 
0.0206335 0.620575 0.423609 
0.0705785 2.1826e-05 0.00979673 
2.1826e-05 -0.263643 0.620567 
0.00979673 0.620567 0.432213 
0.0712644 4.01697e-05 0.00978394 
4.01697e-05 0.127504 0.975973 
0.00978394 0.975973 0.0403801 
0.0796968 0.000378282 0.0206125 
0.000378282 0.127621 0.975972 
0.0206125 0.975972 0.0318309 
-0.0921287 -0.000551296 0.0332811 
-0.000551296 0.25368 0.61991 
0.0332811 0.61991 -0.429078 
-0.074945 -9.26514e-06 0.0206335 
-9.26514e-06 0.253795 0.619892 
0.0206335 0.619892 -0.446376 
-0.075798 4.16837e-05 0.0206125 
4.16837e-05 -0.136701 0.975293 
0.0206125 0.975293 -0.055028 
-0.0929928 -0.000500347 0.0332639 
-0.000500347 -0.136712 0.975276 
0.0332639 0.975276 -0.0378223 
-0.133819 -0.000551222 0.0320074 
-0.000551222 -0.557822 0.554562 
0.0320074 0.554562 0.424113 
-0.108056 -5.42902e-06 0.0193597 
-5.42902e-06 -0.557754 0.554451 
0.0193597 0.554451 0.398284 
-0.109007 7.94302e-05 0.0194331 
7.94302e-05 -1.41882 0.909851 
0.0194331 0.909851 1.2603 
-0.134601 -0.000466363 0.0320845 
-0.000466363 -1.41872 0.909929 
0.0320845 0.909929 1.2858 
-0.39294 -0.00156994 0.0120597 
-0.00156994 -0.59638 0.227956 
0.0120597 0.227956 -0.0820398 
-0.367223 -0.000217543 0.00763355 
-0.000217543 -0.596393 0.2279 
0.00763355 0.2279 -0.107744 
-0.369307 -8.9956e-05 0.00773034 
-8.9956e-05 -1.50105 0.352433 
0.00773034 0.352433 0.799002 
-0.394892 -0.00144235 0.0121952 
-0.00144235 -1.5015 0.35248 
0.0121952 0.35248 0.825032 
-0.405833 -0.00157237 0.0102286 
-0.00157237 -0.894781 0.111836 
0.0102286 0.111836 0.229253 
-0.380571 -0.000181269 0.00580245 
-0.000181269 -0.894648 0.11187 
0.00580245 0.11187 0.203859 
-0.382703 -4.51135e-05 0.00581006 
-4.51135e-05 -1.86055 0.236402 
0.00581006 0.236402 1.17189 
-0.407909 -0.00143621 0.0102749 
-0.00143621 -1.86081 0.23636 
0.0102749 0.23636 1.19736 
-0.465967 -0.00181762 -0.00785055 
-0.00181762 -0.997456 -0.249192 
-0.00785055 -0.249192 0.20284 
-0.443303 -0.000246613 -0.00569966 
-0.000246613 -0.997387 -0.249196 
-0.00569966 -0.249196 0.180107 
-0.445689 -0.000101152 -0.0056685 
-0.000101152 -1.92023 -0.318402 
-0.0056685 -0.318402 1.10534 
-0.467842 -0.00167216 -0.00780311 
-0.00167216 -1.92086 -0.318402 
-0.00780311 -0.318402 1.12812 
-0.458329 -0.00185916 -0.00919195 
-0.00185916 -0.84295 -0.350181 
-0.00919195 -0.350181 0.040696 
-0.439727 -0.000271874 -0.00704106 
-0.000271874 -0.842876 -0.350122 
-0.00704106 -0.350122 0.0220204 
-0.442048 -0.000122664 -0.00707413 
-0.000122664 -1.55154 -0.419328 
-0.00707413 -0.419328 0.733006 
-0.460342 -0.00170995 -0.00920874 
-0.00170995 -1.55215 -0.419391 
-0.00920874 -0.419391 0.751914 
-0.358527 -0.00134208 -0.022119 
-0.00134208 -0.956598 -0.631757 
-0.022119 -0.631757 0.355603 
-0.344591 -0.000128644 -0.015681 
-0.000128644 -0.956518 -0.631738 
-0.015681 -0.631738 0.341588 
-0.346364 -1.06423e-05 -0.0157127 
-1.06423e-05 -1.5639 -0.814971 
-0.0157127 -0.814971 0.950746 
-0.359725 -0.00122407 -0.0221816 
-0.00122407 -1.56441 -0.814993 
-0.0221816 -0.814993 0.964615 
-0.339984 -0.00137871 -0.0227208 
-0.00137871 -0.487601 -0.687629 
-0.0227208 -0.687629 -0.131937 
-0.328946 -0.000196059 -0.0162827 
-0.000196059 -0.487672 -0.687585 
-0.0162827 -0.687585 -0.142903 
-0.330591 -7.46342e-05 -0.0163399 
-7.46342e-05 -0.871572 -0.870818 
-0.0163399 -0.870818 0.242641 
-0.341172 -0.00125728 -0.0228087 
-0.00125728 -0.872215 -0.870866 
-0.0228087 -0.870866 0.253866 
-0.139796 -0.000478786 -0.0293122 
-0.000478786 -0.577222 -0.836419 
-0.0293122 -0.836419 0.363317 
-0.135108 -4.31912e-06 -0.0208247 
-4.31912e-06 -0.577111 -0.836402 
-0.0208247 -0.836402 0.358518 
-0.135789 4.05276e-05 -0.0208899 
4.05276e-05 -0.815515 -1.0656 
-0.0208899 -1.0656 0.597603 
-0.140251 -0.000433939 -0.0294449 
-0.000433939 -0.815628 -1.06562 
-0.0294449 -1.06562 0.602178 
-0.116922 -0.000497819 -0.0294577 
-0.000497819 0.0369457 -0.852846 
-0.0294577 -0.852846 -0.273725 
-0.113429 -9.08214e-05 -0.0209701 
-9.08214e-05 0.0368057 -0.852824 
-0.0209701 -0.852824 -0.277078 
-0.113967 -4.22751e-05 -0.0210403 
-4.22751e-05 -0.0437689 -1.08202 
-0.0210403 -1.08202 -0.195965 
-0.117218 -0.000449272 -0.0295952 
-0.000449272 -0.0441167 -1.08205 
-0.0295952 -1.08205 -0.192366 
0.116922 0.000497819 -0.0294577 
0.000497819 -0.0369456 -0.852846 
-0.0294577 -0.852846 0.273725 
0.113429 9.08214e-05 -0.0209701 
9.08214e-05 -0.0368056 -0.852824 
-0.0209701 -0.852824 0.277078 
0.113967 4.22751e-05 -0.0210403 
4.22751e-05 0.0437691 -1.08202 
-0.0210403 -1.08202 0.195965 
0.117219 0.000449272 -0.0295952 
0.000449272 0.0441169 -1.08205 
-0.0295952 -1.08205 0.192366 
0.139796 0.000478786 -0.0293122 
0.000478786 0.577222 -0.836419 
-0.0293122 -0.836419 -0.363317 
0.135108 4.31912e-06 -0.0208247 
4.31912e-06 0.577111 -0.836402 
-0.0208247 -0.836402 -0.358518 
0.135789 -4.05276e-05 -0.0208899 
-4.05276e-05 0.815515 -1.0656 
-0.0208899 -1.0656 -0.597603 
0.140252 0.000433939 -0.0294449 
0.000433939 0.815628 -1.06562 
-0.0294449 -1.06562 -0.602178 
0.339984 0.00137871 -0.0227208 
0.00137871 0.487601 -0.687629 
-0.0227208 -0.687629 0.131937 
0.328946 0.000196059 -0.0162827 
0.000196059 0.487673 -0.687585 
-0.0162827 -0.687585 0.142903 
0.330591 7.46342e-05 -0.0163399 
7.46342e-05 0.871572 -0.870818 
-0.0163399 -0.870818 -0.242641 
0.341173 0.00125728 -0.0228087 
0.00125728 0.872215 -0.870866 
-0.0228087 -0.870866 -0.253866 
0.358527 0.00134208 -0.022119 
0.00134208 0.956598 -0.631757 
-0.022119 -0.631757 -0.355603 
0.344591 0.000128644 -0.015681 
0.000128644 0.956518 -0.631738 
-0.015681 -0.631738 -0.341588 
0.346364 1.06423e-05 -0.0157127 
1.06423e-05 1.5639 -0.814971 
-0.0157127 -0.814971 -0.950746 
0.359725 0.00122407 -0.0221816 
0.00122407 1.56441 -0.814993 
-0.0221816 -0.814993 -0.964615 
0.458329 0.00185916 -0.00919195 
0.00185916 0.84295 -0.350181 
-0.00919195 -0.350181 -0.0406958 
0.439727 0.000271874 -0.00704106 
0.000271874 0.842876 -0.350122 
-0.00704106 -0.350122 -0.0220203 
0.442048 0.000122664 -0.00707413 
0.000122664 1.55154 -0.419328 
-0.00707413 -0.419328 -0.733006 
0.460342 0.00170995 -0.00920874 
0.00170995 1.55216 -0.419391 
-0.00920874 -0.419391 -0.751914 
0.465967 0.00181762 -0.00785055 
0.00181762 0.997456 -0.249192 
-0.00785055 -0.249192 -0.20284 
0.443303 0.000246613 -0.00569966 
0.000246613 0.997387 -0.249196 
-0.00569966 -0.249196 -0.180106 
0.445689 0.000101152 -0.0056685 
0.000101152 1.92023 -0.318402 
-0.0056685 -0.318402 -1.10534 
0.467842 0.00167216 -0.00780311 
0.00167216 1.92086 -0.318402 
-0.00780311 -0.318402 -1.12812 
0.405833 0.00157237 0.0102286 
0.00157237 0.894781 0.111836 
0.0102286 0.111836 -0.229253 
0.380571 0.000181269 0.00580245 
0.000181269 0.894648 0.11187 
0.00580245 0.11187 -0.203859 
0.382704 4.51135e-05 0.00581006 
4.51135e-05 1.86055 0.236402 
0.00581006 0.236402 -1.17189 
0.407909 0.00143621 0.0102749 
0.00143621 1.86081 0.23636 
0.0102749 0.23636 -1.19736 
0.39294 0.00156994 0.0120597 
0.00156994 0.59638 0.227956 
0.0120597 0.227956 0.08204 
0.367223 0.000217543 0.00763355 
0.000217543 0.596393 0.2279 
0.00763355 0.2279 0.107745 
0.369307 8.9956e-05 0.00773034 
8.9956e-05 1.50106 0.352433 
0.00773034 0.352433 -0.799002 
0.394892 0.00144235 0.0121952 
0.00144235 1.5015 0.35248 
0.0121952 0.35248 -0.825032 
0.133819 0.000551222 0.0320074 
0.000551222 0.557822 0.554562 
0.0320074 0.554562 -0.424113 
0.108057 5.42902e-06 0.0193597 
5.42902e-06 0.557754 0.554451 
0.0193597 0.554451 -0.398283 
0.109007 -7.94302e-05 0.0194331 
-7.94302e-05 1.41882 0.909851 
0.0194331 0.909851 -1.2603 
0.134602 0.000466363 0.0320845 
0.000466363 1.41872 0.909929 
0.0320845 0.909929 -1.2858 
0.0921289 0.000551296 0.0332811 
0.000551296 -0.25368 0.61991 
0.0332811 0.61991 0.429078 
0.0749452 9.26514e-06 0.0206335 
9.26514e-06 -0.253795 0.619892 
0.0206335 0.619892 0.446377 
0.0757981 -4.16837e-05 0.0206125 
-4.16837e-05 0.136701 0.975293 
0.0206125 0.975293 0.0550282 
0.0929929 0.000500347 0.0332639 
0.000500347 0.136712 0.975276 
0.0332639 0.975276 0.0378225 
-0.116353 -0.000631445 0.0478797 
-0.000631445 0.235812 0.618167 
0.0478797 0.618167 -0.440174 
-0.085137 0.000256669 0.0332811 
0.000256669 0.235191 0.61813 
0.0332811 0.61813 -0.470771 
-0.0859849 0.000587755 0.0332639 
0.000587755 -0.154589 0.97321 
0.0332639 0.97321 -0.080142 
-0.117119 -0.000300359 0.0478875 
-0.000300359 -0.153938 0.97315 
0.0478875 0.97315 -0.0496597 
-0.162567 -0.000675767 0.0469846 
-0.000675767 -0.572868 0.55224 
0.0469846 0.55224 0.414718 
-0.125636 0.000237457 0.0323861 
0.000237457 -0.573627 0.552093 
0.0323861 0.552093 0.378547 
-0.126595 0.000664996 0.0324789 
0.000664996 -1.43729 0.907173 
0.0324789 0.907173 1.24317 
-0.163333 -0.000248227 0.0471026 
-0.000248227 -1.43635 0.907223 
0.0471026 0.907223 1.27896 
-0.419637 -0.00138981 0.01621 
-0.00138981 -0.61082 0.226209 
0.01621 0.226209 -0.0929998 
-0.383049 0.000627813 0.0124384 
0.000627813 -0.613035 0.226173 
0.0124384 0.226173 -0.127374 
-0.384677 0.00146623 0.0125895 
0.00146623 -1.52016 0.350576 
0.0125895 0.350576 0.781382 
-0.420205 -0.000551391 0.0164646 
-0.000551391 -1.5194 0.35057 
0.0164646 0.35057 0.816146 
-0.430541 -0.00146026 0.0158108 
-0.00146026 -0.90766 0.108775 
0.0158108 0.108775 0.214744 
-0.399171 0.000660826 0.0120392 
0.000660826 -0.909628 0.108871 
0.0120392 0.108871 0.185341 
-0.400783 0.00154191 0.0120584 
0.00154191 -1.87909 0.233274 
0.0120584 0.233274 1.15641 
-0.431588 -0.000579177 0.0159334 
-0.000579177 -1.87788 0.233135 
0.0159334 0.233135 1.18601 
-0.483552 -0.00109382 -0.00921288 
-0.00109382 -1.00774 -0.251197 
-0.00921288 -0.251197 0.188479 
-0.456848 0.00109616 -0.00603991 
0.00109616 -1.01032 -0.251184 
-0.00603991 -0.251184 0.164357 
-0.458021 0.00208952 -0.00601968 
0.00208952 -1.93687 -0.320368 
-0.00601968 -0.320368 1.09208 
-0.48271 -0.000100457 -0.00918403 
-0.000100457 -1.93628 -0.320394 
-0.00918403 -0.320394 1.11618 
-0.478083 -0.00115353 -0.0084273 
-0.00115353 -0.851932 -0.353519 
-0.0084273 -0.353519 0.0272049 
-0.45671 0.00104506 -0.00525434 
0.00104506 -0.854555 -0.353443 
-0.00525434 -0.353443 0.00845424 
-0.457751 0.00205154 -0.00529662 
0.00205154 -1.56625 -0.422628 
-0.00529662 -0.422628 0.721189 
-0.477411 -0.000147046 -0.00846098 
-0.000147046 -1.56564 -0.422716 
-0.00846098 -0.422716 0.740242 
-0.364176 -0.000481132 -0.025009 
-0.000481132 -0.962687 -0.63386 
-0.025009 -0.63386 0.340261 
-0.351688 0.00114224 -0.0181814 
0.00114224 -0.964743 -0.633872 
-0.0181814 -0.633872 0.329829 
-0.352093 0.00194441 -0.0182695 
0.00194441 -1.57551 -0.816923 
-0.0182695 -0.816923 0.941002 
-0.36274 0.00032104 -0.0252156 
0.00032104 -1.57508 -0.8169 
-0.0252156 -0.8169 0.951217 
-0.355548 -0.000455901 -0.0237268 
-0.000455901 -0.492438 -0.690663 
-0.0237268 -0.690663 -0.138616 
-0.342228 0.00104895 -0.0168992 
0.00104895 -0.494839 -0.690674 
-0.0168992 -0.690674 -0.149536 
-0.342517 0.00184069 -0.0169887 
0.00184069 -0.880346 -0.873724 
-0.0169887 -0.873724 0.23626 
-0.353698 0.000335834 -0.0239348 
0.000335834 -0.880307 -0.873703 
-0.0239348 -0.873703 0.247402 
-0.135449 -0.000135552 -0.0317597 
-0.000135552 -0.579576 -0.838615 
-0.0317597 -0.838615 0.352036 
-0.134482 0.000523356 -0.0234906 
0.000523356 -0.580192 -0.838683 
-0.0234906 -0.838683 0.351685 
-0.134528 0.000839898 -0.0236248 
0.000839898 -0.820647 -1.06759 
-0.0236248 -1.06759 0.592186 
-0.135053 0.00018099 -0.0320982 
0.00018099 -0.820269 -1.0675 
-0.0320982 -1.0675 0.592333 
-0.127994 -3.67442e-05 -0.0311581 
-3.67442e-05 0.035827 -0.855371 
-0.0311581 -0.855371 -0.270823 
-0.121158 0.000417831 -0.022889 
0.000417831 0.0346743 -0.855446 
-0.022889 -0.855446 -0.276505 
-0.121149 0.000710441 -0.0230163 
0.000710441 -0.0456715 -1.08435 
-0.0230163 -1.08435 -0.196169 
-0.126739 0.000255866 -0.0314897 
0.000255866 -0.0459374 -1.08425 
-0.0314897 -1.08425 -0.190313 
0.127994 3.67442e-05 -0.0311581 
3.67442e-05 -0.0358269 -0.855371 
-0.0311581 -0.855371 0.270823 
0.121159 -0.000417831 -0.022889 
-0.000417831 -0.0346741 -0.855446 
-0.022889 -0.855446 0.276505 
0.121149 -0.000710441 -0.0230163 
-0.000710441 0.0456716 -1.08435 
-0.0230163 -1.08435 0.196169 
0.126739 -0.000255866 -0.0314897 
-0.000255866 0.0459376 -1.08425 
-0.0314897 -1.08425 0.190314 
0.135449 0.000135552 -0.0317597 
0.000135552 0.579576 -0.838615 
-0.0317597 -0.838615 -0.352035 
0.134482 -0.000523356 -0.0234906 
-0.000523356 0.580192 -0.838683 
-0.0234906 -0.838683 -0.351685 
0.134528 -0.000839898 -0.0236248 
-0.000839898 0.820647 -1.06759 
-0.0236248 -1.06759 -0.592185 
0.135053 -0.00018099 -0.0320982 
-0.00018099 0.820269 -1.0675 
-0.0320982 -1.0675 -0.592332 
0.355548 0.000455901 -0.0237268 
0.000455901 0.492438 -0.690663 
-0.0237268 -0.690663 0.138616 
0.342228 -0.00104895 -0.0168992 
-0.00104895 0.494839 -0.690674 
-0.0168992 -0.690674 0.149536 
0.342517 -0.00184069 -0.0169887 
-0.00184069 0.880346 -0.873724 
-0.0169887 -0.873724 -0.23626 
0.353698 -0.000335834 -0.0239348 
-0.000335834 0.880307 -0.873703 
-0.0239348 -0.873703 -0.247402 
0.364176 0.000481132 -0.025009 
0.000481132 0.962687 -0.63386 
-0.025009 -0.63386 -0.34026 
0.351688 -0.00114224 -0.0181814 
-0.00114224 0.964743 -0.633872 
-0.0181814 -0.633872 -0.329829 
0.352093 -0.00194441 -0.0182695 
-0.00194441 1.57551 -0.816923 
-0.0182695 -0.816923 -0.941002 
0.36274 -0.00032104 -0.0252156 
-0.00032104 1.57508 -0.8169 
-0.0252156 -0.8169 -0.951217 
0.478083 0.00115353 -0.0084273 
0.00115353 0.851932 -0.353519 
-0.0084273 -0.353519 -0.0272048 
0.45671 -0.00104506 -0.00525434 
-0.00104506 0.854555 -0.353443 
-0.00525434 -0.353443 -0.0084541 
0.457751 -0.00205154 -0.00529662 
-0.00205154 1.56625 -0.422628 
-0.00529662 -0.422628 -0.721189 
0.477411 0.000147046 -0.00846098 
0.000147046 1.56564 -0.422716 
-0.00846098 -0.422716 -0.740242 
0.483552 0.00109382 -0.00921288 
0.00109382 1.00774 -0.251197 
-0.00921288 -0.251197 -0.188479 
0.456848 -0.00109616 -0.00603991 
-0.00109616 1.01032 -0.251184 
-0.00603991 -0.251184 -0.164357 
0.458021 -0.00208952 -0.00601968 
-0.00208952 1.93687 -0.320368 
-0.00601968 -0.320368 -1.09208 
0.48271 0.000100457 -0.00918403 
0.000100457 1.93628 -0.320394 
-0.00918403 -0.320394 -1.11618 
0.430541 0.00146026 0.0158108 
0.00146026 0.907661 0.108775 
0.0158108 0.108775 -0.214744 
0.399171 -0.000660826 0.0120392 
-0.000660826 0.909628 0.108871 
0.0120392 0.108871 -0.185341 
0.400783 -0.00154191 0.0120584 
-0.00154191 1.87909 0.233274 
0.0120584 0.233274 -1.15641 
0.431588 0.000579177 0.0159334 
0.000579177 1.87788 0.233135 
0.0159334 0.233135 -1.18601 
0.419637 0.00138981 0.01621 
0.00138981 0.610821 0.226209 
0.01621 0.226209 0.093 
0.383049 -0.000627813 0.0124384 
-0.000627813 0.613035 0.226173 
0.0124384 0.226173 0.127374 
0.384678 -0.00146623 0.0125895 
-0.00146623 1.52016 0.350576 
0.0125895 0.350576 -0.781382 
0.420205 0.000551391 0.0164646 
0.000551391 1.5194 0.35057 
0.0164646 0.35057 -0.816146 
0.162567 0.000675767 0.0469846 
0.000675767 0.572868 0.55224 
0.0469846 0.55224 -0.414718 
0.125636 -0.000237457 0.0323861 
-0.000237457 0.573627 0.552093 
0.0323861 0.552093 -0.378546 
0.126595 -0.000664996 0.0324789 
-0.000664996 1.43729 0.907173 
0.0324789 0.907173 -1.24317 
0.163334 0.000248227 0.0471026 
0.000248227 1.43635 0.907223 
0.0471026 0.907223 -1.27896 
0.116354 0.000631445 0.0478797 
0.000631445 -0.235812 0.618167 
0.0478797 0.618167 0.440175 
0.0851371 -0.000256669 0.0332811 
-0.000256669 -0.235191 0.61813 
0.0332811 0.61813 0.470771 
0.085985 -0.000587755 0.0332639 
-0.000587755 0.15459 0.97321 
0.0332639 0.97321 0.0801421 
0.117119 0.000300359 0.0478875 
0.000300359 0.153938 0.97315 
0.0478875 0.97315 0.0496598 
-0.158471 -0.000240331 0.0633642 
-0.000240331 0.205784 0.613877 
0.0633642 0.613877 -0.459606 
-0.105031 0.00119208 0.0478797 
0.00119208 0.202879 0.613797 
0.0478797 0.613797 -0.51014 
-0.105102 0.00235344 0.0478875 
0.00235344 -0.186915 0.967531 
0.0478875 0.967531 -0.120275 
-0.158529 0.00092103 0.0634189 
0.00092103 -0.183946 0.96741 
0.0634189 0.96741 -0.0698178 
-0.201467 -0.000375367 0.0642806 
-0.000375367 -0.596273 0.547107 
0.0642806 0.547107 0.385448 
-0.154704 0.00110386 0.0487961 
0.00110386 -0.599525 0.546972 
0.0487961 0.546972 0.341936 
-0.154821 0.00246681 0.0488593 
0.00246681 -1.46753 0.900706 
0.0488593 0.900706 1.21006 
-0.201688 0.00098759 0.0643906 
0.00098759 -1.464 0.90064 
0.0643906 0.90064 1.2534 
-0.454844 0.0008988 0.0198692 
0.0008988 -0.630522 0.222209 
0.0198692 0.222209 -0.120593 
-0.408573 0.00376082 0.0180214 
0.00376082 -0.639215 0.222273 
0.0180214 0.222273 -0.158171 
-0.407207 0.00668409 0.0182213 
0.00668409 -1.55084 0.346043 
0.0182213 0.346043 0.752089 
-0.450668 0.00382206 0.0202501 
0.00382206 -1.54519 0.345869 
0.0202501 0.345869 0.789903 
-0.459629 0.000692566 0.024165 
0.000692566 -0.923525 0.103026 
0.024165 0.103026 0.177195 
-0.428773 0.00373574 0.0223172 
0.00373574 -0.931877 0.103245 
0.0223172 0.103245 0.15469 
-0.427115 0.00676888 0.0223624 
0.00676888 -1.9068 0.227015 
0.0223624 0.227015 1.12796 
-0.456555 0.00372571 0.0243913 
0.00372571 -1.90032 0.226687 
0.0243913 0.226687 1.15092 
-0.499696 0.00300941 -0.00710333 
0.00300941 -1.0185 -0.254187 
-0.00710333 -0.254187 0.152045 
-0.476424 0.00579029 -0.00270643 
0.00579029 -1.02914 -0.25413 
-0.00270643 -0.25413 0.139415 
-0.472431 0.00930777 -0.00275497 
0.00930777 -1.96153 -0.323242 
-0.00275497 -0.323242 1.06781 
-0.490751 0.0065269 -0.00723742 
0.0065269 -1.95556 -0.323297 
-0.00723742 -0.323297 1.08016 
-0.501911 0.00300234 -0.000391976 
0.00300234 -0.859962 -0.358135 
-0.000391976 -0.358135 -0.00427842 
-0.483784 0.00569765 0.00400492 
0.00569765 -0.870776 -0.358093 
0.00400492 -0.358093 -0.0115923 
-0.479531 0.00921276 0.00397102 
0.00921276 -1.58714 -0.427205 
0.00397102 -0.427205 0.700523 
-0.492843 0.00651744 -0.000511427 
0.00651744 -1.58136 -0.427246 
-0.000511427 -0.427246 0.70805 
-0.362099 0.00346454 -0.018827 
0.00346454 -0.967188 -0.635216 
-0.018827 -0.635216 0.303492 
-0.359932 0.0053829 -0.0125768 
0.0053829 -0.975834 -0.635331 
-0.0125768 -0.635331 0.309971 
-0.355272 0.00824038 -0.0127836 
0.00824038 -1.59165 -0.817604 
-0.0127836 -0.817604 0.921131 
-0.353283 0.00632201 -0.0193766 
0.00632201 -1.58694 -0.81739 
-0.0193766 -0.81739 0.914428 
-0.377518 0.00372954 -0.0127388 
0.00372954 -0.495182 -0.693103 
-0.0127388 -0.693103 -0.153096 
-0.364245 0.00530506 -0.00648863 
0.00530506 -0.504483 -0.693297 
-0.00648863 -0.693297 -0.157067 
-0.359645 0.00806447 -0.0066168 
0.00806447 -0.892632 -0.875569 
-0.0066168 -0.875569 0.226482 
-0.367109 0.00648894 -0.0132098 
0.00648894 -0.889012 -0.875277 
-0.0132098 -0.875277 0.230325 
-0.121165 0.00138156 -0.0209086 
0.00138156 -0.580914 -0.838866 
-0.0209086 -0.838866 0.325894 
-0.130589 0.00220374 -0.0145215 
0.00220374 -0.583943 -0.839159 
-0.0145215 -0.839159 0.338347 
-0.128401 0.00335 -0.0147803 
0.00335 -0.827279 -1.06683 
-0.0147803 -1.06683 0.579496 
-0.118327 0.00252782 -0.0216546 
0.00252782 -0.824965 -1.06638 
-0.0216546 -1.06638 0.567108 
-0.148069 0.00182317 -0.0184755 
0.00182317 0.035591 -0.855994 
-0.0184755 -0.855994 -0.263706 
-0.13544 0.00215809 -0.0120885 
0.00215809 0.0316173 -0.856327 
-0.0120885 -0.856327 -0.272362 
-0.133608 0.00315103 -0.012306 
0.00315103 -0.0486364 -1.08399 
-0.012306 -1.08399 -0.193941 
-0.142698 0.00281611 -0.0191803 
0.00281611 -0.0479526 -1.08351 
-0.0191803 -1.08351 -0.185534 
0.148069 -0.00182317 -0.0184755 
-0.00182317 -0.0355909 -0.855994 
-0.0184755 -0.855994 0.263707 
0.13544 -0.00215809 -0.0120885 
-0.00215809 -0.0316172 -0.856327 
-0.0120885 -0.856327 0.272362 
0.133608 -0.00315103 -0.012306 
-0.00315103 0.0486366 -1.08399 
-0.012306 -1.08399 0.193941 
0.142698 -0.00281611 -0.0191803 
-0.00281611 0.0479528 -1.08351 
-0.0191803 -1.08351 0.185535 
0.121165 -0.00138156 -0.0209086 
-0.00138156 0.580914 -0.838866 
-0.0209086 -0.838866 -0.325894 
0.130589 -0.00220374 -0.0145215 
-0.00220374 0.583944 -0.839159 
-0.0145215 -0.839159 -0.338347 
0.128401 -0.00335 -0.0147803 
-0.00335 0.82728 -1.06683 
-0.0147803 -1.06683 -0.579496 
0.118327 -0.00252782 -0.0216546 
-0.00252782 0.824966 -1.06638 
-0.0216546 -1.06638 -0.567108 
0.377518 -0.00372954 -0.0127388 
-0.00372954 0.495182 -0.693103 
-0.0127388 -0.693103 0.153096 
0.364246 -0.00530506 -0.00648863 
-0.00530506 0.504483 -0.693297 
-0.00648863 -0.693297 0.157067 
0.359645 -0.00806447 -0.0066168 
-0.00806447 0.892632 -0.875569 
-0.0066168 -0.875569 -0.226481 
0.367109 -0.00648894 -0.0132098 
-0.00648894 0.889012 -0.875277 
-0.0132098 -0.875277 -0.230325 
0.362099 -0.00346454 -0.018827 
-0.00346454 0.967188 -0.635216 
-0.018827 -0.635216 -0.303492 
0.359932 -0.0053829 -0.0125768 
-0.0053829 0.975835 -0.635331 
-0.0125768 -0.635331 -0.309971 
0.355272 -0.00824038 -0.0127836 
-0.00824038 1.59166 -0.817604 
-0.0127836 -0.817604 -0.921131 
0.353283 -0.00632201 -0.0193766 
-0.00632201 1.58694 -0.81739 
-0.0193766 -0.81739 -0.914428 
0.501912 -0.00300234 -0.000391976 
-0.00300234 0.859962 -0.358135 
-0.000391976 -0.358135 0.00427856 
0.483784 -0.00569765 0.00400492 
-0.00569765 0.870776 -0.358093 
0.00400492 -0.358093 0.0115925 
0.479531 -0.00921276 0.00397102 
-0.00921276 1.58714 -0.427205 
0.00397102 -0.427205 -0.700523 
0.492843 -0.00651744 -0.000511427 
-0.00651744 1.58136 -0.427246 
-0.000511427 -0.427246 -0.70805 
0.499696 -0.00300941 -0.00710333 
-0.00300941 1.0185 -0.254187 
-0.00710333 -0.254187 -0.152045 
0.476424 -0.00579029 -0.00270643 
-0.00579029 1.02914 -0.25413 
-0.00270643 -0.25413 -0.139415 
0.472431 -0.00930777 -0.00275497 
-0.00930777 1.96153 -0.323242 
-0.00275497 -0.323242 -1.06781 
0.490751 -0.0065269 -0.00723742 
-0.0065269 1.95556 -0.323297 
-0.00723742 -0.323297 -1.08016 
0.45963 -0.000692566 0.024165 
-0.000692566 0.923525 0.103026 
0.024165 0.103026 -0.177195 
0.428773 -0.00373574 0.0223172 
-0.00373574 0.931877 0.103245 
0.0223172 0.103245 -0.15469 
0.427115 -0.00676888 0.0223624 
-0.00676888 1.9068 0.227015 
0.0223624 0.227015 -1.12796 
0.456555 -0.00372571 0.0243913 
-0.00372571 1.90032 0.226687 
0.0243913 0.226687 -1.15092 
0.454844 -0.0008988 0.0198692 
-0.0008988 0.630522 0.222209 
0.0198692 0.222209 0.120594 
0.408574 -0.00376082 0.0180214 
-0.00376082 0.639215 0.222273 
0.0180214 0.222273 0.158171 
0.407207 -0.00668409 0.0182213 
-0.00668409 1.55084 0.346043 
0.0182213 0.346043 -0.752089 
0.450668 -0.00382206 0.0202501 
-0.00382206 1.54519 0.345869 
0.0202501 0.345869 -0.789902 
0.201467 0.000375367 0.0642806 
0.000375367 0.596273 0.547107 
0.0642806 0.547107 -0.385447 
0.154704 -0.00110386 0.0487961 
-0.00110386 0.599525 0.546972 
0.0487961 0.546972 -0.341936 
0.154822 -0.00246681 0.0488593 
-0.00246681 1.46753 0.900706 
0.0488593 0.900706 -1.21006 
0.201688 -0.00098759 0.0643906 
-0.00098759 1.464 0.90064 
0.0643906 0.90064 -1.2534 
0.158471 0.000240331 0.0633642 
0.000240331 -0.205784 0.613877 
0.0633642 0.613877 0.459606 
0.105032 -0.00119208 0.0478797 
-0.00119208 -0.202879 0.613797 
0.0478797 0.613797 0.51014 
0.105103 -0.00235344 0.0478875 
-0.00235344 0.186915 0.967531 
0.0478875 0.967531 0.120275 
0.158529 -0.00092103 0.0634189 
-0.00092103 0.183946 0.96741 
0.0634189 0.96741 0.0698179 
-0.227981 0.00161122 0.0765515 
0.00161122 0.15858 0.603815 
0.0765515 0.603815 -0.491639 
-0.140896 0.00376927 0.0633642 
0.00376927 0.15 0.603647 
0.0633642 0.603647 -0.570143 
-0.137757 0.0069966 0.0634189 
0.0069966 -0.242871 0.953291 
0.0634189 0.953291 -0.180412 
-0.225451 0.00483855 0.0767652 
0.00483855 -0.233821 0.953153 
0.0767652 0.953153 -0.101768 
-0.249979 0.00122885 0.0820884 
0.00122885 -0.629217 0.536128 
0.0820884 0.536128 0.318156 
-0.199357 0.00354596 0.0689011 
0.00354596 -0.638505 0.536209 
0.0689011 0.536209 0.276822 
-0.196179 0.00707955 0.0687067 
0.00707955 -1.5123 0.885853 
0.0687067 0.885853 1.14744 
-0.248198 0.00476244 0.082053 
0.00476244 -1.50259 0.885466 
0.082053 0.885466 1.18974 
-0.497161 0.00885191 0.0225021 
0.00885191 -0.652752 0.213581 
0.0225021 0.213581 -0.17781 
-0.446008 0.0124072 0.0244897 
0.0124072 -0.677362 0.213951 
0.0244897 0.213951 -0.204352 
-0.435088 0.0205184 0.0245662 
0.0205184 -1.59612 0.33558 
0.0245662 0.33558 0.703489 
-0.47997 0.0169631 0.0228581 
0.0169631 -1.57703 0.33496 
0.0228581 0.33496 0.72928 
-0.49088 0.00836732 0.0374061 
0.00836732 -0.93703 0.0929378 
0.0374061 0.0929378 0.100187 
-0.471936 0.012202 0.0393936 
0.012202 -0.96146 0.0933058 
0.0393936 0.0933058 0.105673 
-0.460151 0.020564 0.0394717 
0.020564 -1.94237 0.214935 
0.0394717 0.214935 1.0748 
-0.475803 0.0167292 0.0377636 
0.0167292 -1.92198 0.214316 
0.0377636 0.214316 1.07006 
-0.508089 0.0154694 0.00289017 
0.0154694 -1.02243 -0.257569 
0.00289017 -0.257569 0.0772829 
-0.500976 0.0183324 0.00812531 
0.0183324 -1.05318 -0.257457 
0.00812531 -0.257457 0.100926 
-0.481943 0.0282676 0.00784303 
0.0282676 -1.99333 -0.326522 
0.00784303 -0.326522 1.02204 
-0.479619 0.0254046 0.00234545 
0.0254046 -1.97122 -0.326602 
0.00234545 -0.326602 0.997604 
-0.530337 0.0156313 0.022049 
0.0156313 -0.859051 -0.362662 
0.022049 -0.362662 -0.0638429 
-0.52326 0.0182319 0.0272841 
0.0182319 -0.890354 -0.362795 
0.0272841 -0.362795 -0.0396172 
-0.504014 0.0281345 0.0272475 
0.0281345 -1.61204 -0.431861 
0.0272475 -0.431861 0.662824 
-0.500905 0.0255339 0.02175 
0.0255339 -1.59062 -0.431695 
0.02175 -0.431695 0.638294 
-0.345795 0.0147645 0.00520513 
0.0147645 -0.962223 -0.631897 
0.00520513 -0.631897 0.231131 
-0.366329 0.0163825 0.00884909 
0.0163825 -0.987452 -0.632245 
0.00884909 -0.632245 0.276894 
-0.347913 0.0244801 0.00838234 
0.0244801 -1.60957 -0.812253 
0.00838234 -0.812253 0.880592 
-0.319907 0.0228621 0.00413822 
0.0228621 -1.59179 -0.811624 
0.00413822 -0.811624 0.834807 
-0.408862 0.0154798 0.0208577 
0.0154798 -0.489691 -0.690444 
0.0208577 -0.690444 -0.178334 
-0.397444 0.0164976 0.0245017 
0.0164976 -0.515985 -0.691048 
0.0245017 -0.691048 -0.163458 
-0.37993 0.0243142 0.0242912 
0.0243142 -0.907306 -0.871056 
0.0242912 -0.871056 0.210348 
-0.379389 0.0232963 0.0200471 
0.0232963 -0.891848 -0.870171 
0.0200471 -0.870171 0.194349 
-0.0916925 0.0057472 0.0145968 
0.0057472 -0.576761 -0.831031 
0.0145968 -0.831031 0.275587 
-0.120069 0.00646327 0.0163319 
0.00646327 -0.586081 -0.831757 
0.0163319 -0.831757 0.313283 
-0.111875 0.00971323 0.0158464 
0.00971323 -0.832908 -1.05575 
0.0158464 -1.05575 0.551915 
-0.0828834 0.00899716 0.0133795 
0.00899716 -0.825056 -1.0546 
0.0133795 -1.0546 0.515072 
-0.18133 0.00674741 0.0205809 
0.00674741 0.0373436 -0.848376 
0.0205809 -0.848376 -0.24888 
-0.15923 0.00673168 0.022316 
0.00673168 0.0267043 -0.849204 
0.022316 -0.849204 -0.260341 
-0.152744 0.00956016 0.0219328 
0.00956016 -0.053538 -1.0732 
0.0219328 -1.0732 -0.186585 
-0.167541 0.00957589 0.0194659 
0.00957589 -0.048891 -1.07195 
0.0194659 -1.07195 -0.176435 
0.18133 -0.00674741 0.0205809 
-0.00674741 -0.0373435 -0.848376 
0.0205809 -0.848376 0.248881 
0.15923 -0.00673168 0.022316 
-0.00673168 -0.0267041 -0.849204 
0.022316 -0.849204 0.260341 
0.152744 -0.00956016 0.0219328 
-0.00956016 0.0535381 -1.0732 
0.0219328 -1.0732 0.186585 
0.167541 -0.00957589 0.0194659 
-0.00957589 0.0488912 -1.07195 
0.0194659 -1.07195 0.176435 
0.0916927 -0.0057472 0.0145968 
-0.0057472 0.576761 -0.831031 
0.0145968 -0.831031 -0.275587 
0.120069 -0.00646327 0.0163319 
-0.00646327 0.586081 -0.831757 
0.0163319 -0.831757 -0.313282 
0.111875 -0.00971323 0.0158464 
-0.00971323 0.832908 -1.05575 
0.0158464 -1.05575 -0.551915 
0.0828836 -0.00899716 0.0133795 
-0.00899716 0.825056 -1.0546 
0.0133795 -1.0546 -0.515072 
0.408862 -0.0154798 0.0208577 
-0.0154798 0.489692 -0.690444 
0.0208577 -0.690444 0.178334 
0.397444 -0.0164976 0.0245017 
-0.0164976 0.515985 -0.691048 
0.0245017 -0.691048 0.163459 
0.37993 -0.0243142 0.0242912 
-0.0243142 0.907306 -0.871056 
0.0242912 -0.871056 -0.210348 
0.379389 -0.0232963 0.0200471 
-0.0232963 0.891848 -0.870171 
0.0200471 -0.870171 -0.194349 
0.345795 -0.0147645 0.00520513 
-0.0147645 0.962223 -0.631897 
0.00520513 -0.631897 -0.23113 
0.366329 -0.0163825 0.00884909 
-0.0163825 0.987452 -0.632245 
0.00884909 -0.632245 -0.276893 
0.347913 -0.0244801 0.00838234 
-0.0244801 1.60957 -0.812253 
0.00838234 -0.812253 -0.880592 
0.319907 -0.0228621 0.00413822 
-0.0228621 1.59179 -0.811624 
0.00413822 -0.811624 -0.834807 
0.530337 -0.0156313 0.022049 
-0.0156313 0.859051 -0.362662 
0.022049 -0.362662 0.0638431 
0.52326 -0.0182319 0.0272841 
-0.0182319 0.890354 -0.362795 
0.0272841 -0.362795 0.0396174 
0.504015 -0.0281345 0.0272475 
-0.0281345 1.61204 -0.431861 
0.0272475 -0.431861 -0.662824 
0.500905 -0.0255339 0.02175 
-0.0255339 1.59062 -0.431695 
0.02175 -0.431695 -0.638294 
0.508089 -0.0154694 0.00289017 
-0.0154694 1.02243 -0.257569 
0.00289017 -0.257569 -0.0772828 
0.500977 -0.0183324 0.00812531 
-0.0183324 1.05318 -0.257457 
0.00812531 -0.257457 -0.100926 
0.481943 -0.0282676 0.00784303 
-0.0282676 1.99333 -0.326522 
0.00784303 -0.326522 -1.02204 
0.479619 -0.0254046 0.00234545 
-0.0254046 1.97122 -0.326602 
0.00234545 -0.326602 -0.997604 
0.49088 -0.00836732 0.0374061 
-0.00836732 0.93703 0.0929378 
0.0374061 0.0929378 -0.100187 
0.471936 -0.012202 0.0393936 
-0.012202 0.96146 0.0933058 
0.0393936 0.0933058 -0.105673 
0.460151 -0.020564 0.0394717 
-0.020564 1.94237 0.214935 
0.0394717 0.214935 -1.0748 
0.475803 -0.0167292 0.0377636 
-0.0167292 1.92198 0.214316 
0.0377636 0.214316 -1.07006 
0.497161 -0.00885191 0.0225021 
-0.00885191 0.652752 0.213581 
0.0225021 0.213581 0.17781 
0.446008 -0.0124072 0.0244897 
-0.0124072 0.677362 0.213951 
0.0244897 0.213951 0.204353 
0.435088 -0.0205184 0.0245662 
-0.0205184 1.59612 0.33558 
0.0245662 0.33558 -0.703489 
0.47997 -0.0169631 0.0228581 
-0.0169631 1.57703 0.33496 
0.0228581 0.33496 -0.72928 
0.249979 -0.00122885 0.0820884 
-0.00122885 0.629217 0.536128 
0.0820884 0.536128 -0.318156 
0.199357 -0.00354596 0.0689011 
-0.00354596 0.638505 0.536209 
0.0689011 0.536209 -0.276822 
0.196179 -0.00707955 0.0687067 
-0.00707955 1.5123 0.885853 
0.0687067 0.885853 -1.14744 
0.248198 -0.00476244 0.082053 
-0.00476244 1.50259 0.885466 
0.082053 0.885466 -1.18974 
0.227981 -0.00161122 0.0765515 
-0.00161122 -0.15858 0.603815 
0.0765515 0.603815 0.491639 
0.140896 -0.00376927 0.0633642 
-0.00376927 -0.15 0.603647 
0.0633642 0.603647 0.570143 
0.137757 -0.0069966 0.0634189 
-0.0069966 0.242871 0.953291 
0.0634189 0.953291 0.180412 
0.225451 -0.00483855 0.0767652 
-0.00483855 0.233822 0.953153 
0.0767652 0.953153 0.101768 
-0.33709 0.00761822 0.0808924 
0.00761822 0.0905798 0.581031 
0.0808924 0.581031 -0.541716 
-0.201361 0.0101837 0.0765515 
0.0101837 0.0683574 0.580742 
0.0765515 0.580742 -0.655222 
-0.189903 0.0178888 0.0767652 
0.0178888 -0.335006 0.920004 
0.0767652 0.920004 -0.263317 
-0.324832 0.0153233 0.0812804 
0.0153233 -0.314318 0.919904 
0.0812804 0.919904 -0.149077 
-0.304195 0.00694142 0.096064 
0.00694142 -0.668111 0.513331 
0.096064 0.513331 0.18408 
-0.264813 0.00968111 0.091723 
0.00968111 -0.691589 0.514005 
0.091723 0.514005 0.168176 
-0.252711 0.0177756 0.0909742 
0.0177756 -1.57022 0.853267 
0.0909742 0.853267 1.0347 
-0.29336 0.0150359 0.0954894 
0.0150359 -1.54904 0.852204 
0.0954894 0.852204 1.05418 
-0.54174 0.0303208 0.0246668 
0.0303208 -0.668057 0.196117 
0.0246668 0.196117 -0.283517 
-0.497022 0.033696 0.0321368 
0.033696 -0.728498 0.197037 
0.0321368 0.197037 -0.267795 
-0.460349 0.0537912 0.0317793 
0.0537912 -1.65596 0.312764 
0.0317793 0.312764 0.622995 
-0.493445 0.050416 0.0243136 
0.050416 -1.60407 0.311446 
0.0243136 0.311446 0.604205 
-0.523548 0.0296683 0.0601615 
0.0296683 -0.932909 0.0763326 
0.0601615 0.0763326 -0.0368579 
-0.532562 0.0330479 0.0676315 
0.0330479 -0.994029 0.0767617 
0.0676315 0.0767617 0.0332762 
-0.493717 0.0535407 0.0677645 
0.0535407 -1.97763 0.192488 
0.0677645 0.192488 0.978029 
-0.477444 0.0501612 0.0602988 
0.0501612 -1.92464 0.191662 
0.0602988 0.191662 0.90877 
-0.501758 0.0460425 0.0290589 
0.0460425 -1.00208 -0.258667 
0.0290589 -0.258667 -0.0564171 
-0.527322 0.0476514 0.0331156 
0.0476514 -1.07814 -0.258499 
0.0331156 -0.258499 0.0452066 
-0.472711 0.0724982 0.0323463 
0.0724982 -2.023 -0.327419 
0.0323463 -0.327419 0.935452 
-0.432538 0.0708894 0.0274557 
0.0708894 -1.95986 -0.32738 
0.0274557 -0.32738 0.832145 
-0.568526 0.0468691 0.0706724 
0.0468691 -0.830909 -0.362248 
0.0706724 -0.362248 -0.160823 
-0.577371 0.0476442 0.0747292 
0.0476442 -0.908153 -0.362935 
0.0747292 -0.362935 -0.0747333 
-0.522767 0.0722847 0.0748136 
0.0722847 -1.63336 -0.431854 
0.0748136 -0.431854 0.595867 
-0.49557 0.0715097 0.069923 
0.0715097 -1.57233 -0.430962 
0.069923 -0.430962 0.507643 
-0.311644 0.0409065 0.0600533 
0.0409065 -0.930554 -0.614135 
0.0600533 -0.614135 0.107867 
-0.366486 0.0412922 0.0578854 
0.0412922 -0.992476 -0.61494 
0.0578854 -0.61494 0.224632 
-0.317494 0.0615199 0.0572018 
0.0615199 -1.6172 -0.788774 
0.0572018 -0.788774 0.800359 
-0.25377 0.0611342 0.0583075 
0.0611342 -1.56521 -0.787289 
0.0583075 -0.787289 0.684652 
-0.455146 0.0426107 0.092014 
0.0426107 -0.463882 -0.671659 
0.092014 -0.671659 -0.215303 
-0.44323 0.0419341 0.0898461 
0.0419341 -0.52688 -0.672977 
0.0898461 -0.672977 -0.16422 
-0.396664 0.061482 0.0896759 
0.061482 -0.921929 -0.846811 
0.0896759 -0.846811 0.184263 
-0.390095 0.0621586 0.0907816 
0.0621586 -0.874063 -0.844813 
0.0907816 -0.844813 0.129827 
-0.0462172 0.0156152 0.0895311 
0.0156152 -0.557211 -0.801121 
0.0895311 -0.801121 0.192821 
-0.0995715 0.0159237 0.0835851 
0.0159237 -0.580524 -0.802526 
0.0835851 -0.802526 0.269488 
-0.0788811 0.0239565 0.0830084 
0.0239565 -0.827874 -1.01665 
0.0830084 -1.01665 0.496147 
-0.0267193 0.023648 0.0879117 
0.023648 -0.806138 -1.01428 
0.0879117 -1.01428 0.422249 
-0.229944 0.0176202 0.101356 
0.0176202 0.0421911 -0.818143 
0.101356 -0.818143 -0.222855 
-0.194198 0.0168861 0.0954097 
0.0168861 0.0178776 -0.819671 
0.0954097 -0.819671 -0.234287 
-0.177378 0.0239559 0.0949575 
0.0239559 -0.0643475 -1.0338 
0.0949575 -1.0338 -0.168882 
-0.201912 0.0246899 0.0998609 
0.0246899 -0.0479183 -1.0313 
0.0998609 -1.0313 -0.160777 
0.229944 -0.0176202 0.101356 
-0.0176202 -0.042191 -0.818143 
0.101356 -0.818143 0.222855 
0.194198 -0.0168861 0.0954097 
-0.0168861 -0.0178774 -0.819671 
0.0954097 -0.819671 0.234287 
0.177378 -0.0239559 0.0949575 
-0.0239559 0.0643477 -1.0338 
0.0949575 -1.0338 0.168882 
0.201913 -0.0246899 0.0998609 
-0.0246899 0.0479185 -1.0313 
0.0998609 -1.0313 0.160777 
0.0462173 -0.0156152 0.0895311 
-0.0156152 0.557211 -0.801121 
0.0895311 -0.801121 -0.19282 
0.0995716 -0.0159237 0.0835851 
-0.0159237 0.580524 -0.802526 
0.0835851 -0.802526 -0.269488 
0.0788813 -0.0239565 0.0830084 
-0.0239565 0.827874 -1.01665 
0.0830084 -1.01665 -0.496147 
0.0267195 -0.023648 0.0879117 
-0.023648 0.806138 -1.01428 
0.0879117 -1.01428 -0.422249 
0.455146 -0.0426107 0.092014 
-0.0426107 0.463882 -0.671659 
0.092014 -0.671659 0.215303 
0.44323 -0.0419341 0.0898461 
-0.0419341 0.52688 -0.672977 
0.0898461 -0.672977 0.164221 
0.396664 -0.061482 0.0896759 
-0.061482 0.92193 -0.846811 
0.0896759 -0.846811 -0.184263 
0.390095 -0.0621586 0.0907816 
-0.0621586 0.874063 -0.844813 
0.0907816 -0.844813 -0.129827 
0.311644 -0.0409065 0.0600533 
-0.0409065 0.930554 -0.614135 
0.0600533 -0.614135 -0.107867 
0.366486 -0.0412922 0.0578854 
-0.0412922 0.992476 -0.61494 
0.0578854 -0.61494 -0.224631 
0.317494 -0.0615199 0.0572018 
-0.0615199 1.6172 -0.788774 
0.0572018 -0.788774 -0.800359 
0.25377 -0.0611342 0.0583075 
-0.0611342 1.56521 -0.787289 
0.0583075 -0.787289 -0.684652 
0.568526 -0.0468691 0.0706724 
-0.0468691 0.830909 -0.362248 
0.0706724 -0.362248 0.160823 
0.577371 -0.0476442 0.0747292 
-0.0476442 0.908153 -0.362935 
0.0747292 -0.362935 0.0747335 
0.522767 -0.0722847 0.0748136 
-0.0722847 1.63336 -0.431854 
0.0748136 -0.431854 -0.595867 
0.49557 -0.0715097 0.069923 
-0.0715097 1.57233 -0.430962 
0.069923 -0.430962 -0.507643 
0.501759 -0.0460425 0.0290589 
-0.0460425 1.00208 -0.258667 
0.0290589 -0.258667 0.0564173 
0.527322 -0.0476514 0.0331156 
-0.0476514 1.07814 -0.258499 
0.0331156 -0.258499 -0.0452065 
0.472712 -0.0724982 0.0323463 
-0.0724982 2.023 -0.327419 
0.0323463 -0.327419 -0.935451 
0.432538 -0.0708894 0.0274557 
-0.0708894 1.95986 -0.32738 
0.0274557 -0.32738 -0.832145 
0.523548 -0.0296683 0.0601615 
-0.0296683 0.932909 0.0763326 
0.0601615 0.0763326 0.036858 
0.532562 -0.0330479 0.0676315 
-0.0330479 0.994029 0.0767617 
0.0676315 0.0767617 -0.033276 
0.493717 -0.0535407 0.0677645 
-0.0535407 1.97763 0.192488 
0.0677645 0.192488 -0.978029 
0.477444 -0.0501612 0.0602988 
-0.0501612 1.92464 0.191662 
0.0602988 0.191662 -0.90877 
0.541741 -0.0303208 0.0246668 
-0.0303208 0.668057 0.196117 
0.0246668 0.196117 0.283518 
0.497022 -0.033696 0.0321368 
-0.033696 0.728498 0.197037 
0.0321368 0.197037 0.267795 
0.460349 -0.0537912 0.0317793 
-0.0537912 1.65596 0.312764 
0.0317793 0.312764 -0.622995 
0.493446 -0.050416 0.0243136 
-0.050416 1.60407 0.311446 
0.0243136 0.311446 -0.604205 
0.304195 -0.00694142 0.096064 
-0.00694142 0.668111 0.513331 
0.096064 0.513331 -0.18408 
0.264813 -0.00968111 0.091723 
-0.00968111 0.691589 0.514005 
0.091723 0.514005 -0.168176 
0.252711 -0.0177756 0.0909742 
-0.0177756 1.57022 0.853267 
0.0909742 0.853267 -1.0347 
0.29336 -0.0150359 0.0954894 
-0.0150359 1.54904 0.852204 
0.0954894 0.852204 -1.05418 
0.33709 -0.00761822 0.0808924 
-0.00761822 -0.0905797 0.581031 
0.0808924 0.581031 0.541716 
0.201361 -0.0101837 0.0765515 
-0.0101837 -0.0683573 0.580742 
0.0765515 0.580742 0.655223 
0.189903 -0.0178888 0.0767652 
-0.0178888 0.335006 0.920004 
0.0767652 0.920004 0.263317 
0.324832 -0.0153233 0.0812804 
-0.0153233 0.314318 0.919904 
0.0812804 0.919904 0.149077 
-0.491423 0.02465 0.0666722 
0.02465 0.00247072 0.531015 
0.0666722 0.531015 -0.61592 
-0.299517 0.0267921 0.0808924 
0.0267921 -0.049031 0.530216 
0.0808924 0.530216 -0.756325 
-0.261451 0.0447023 0.0812804 
0.0447023 -0.481368 0.844789 
0.0812804 0.844789 -0.362053 
-0.454894 0.0425603 0.0669997 
0.0425603 -0.430888 0.845217 
0.0669997 0.845217 -0.219091 
-0.356518 0.0235239 0.0998617 
0.0235239 -0.696343 0.466343 
0.0998617 0.466343 -0.0520113 
-0.357385 0.0256056 0.114082 
0.0256056 -0.75115 0.468545 
0.114082 0.468545 0.00366228 
-0.31751 0.0438868 0.111469 
0.0438868 -1.62691 0.783118 
0.111469 0.783118 0.839549 
-0.321529 0.0418051 0.0971888 
0.0418051 -1.57808 0.780545 
0.0971888 0.780545 0.794735 
-0.579798 0.0823747 0.0315453 
0.0823747 -0.649447 0.162843 
0.0315453 0.162843 -0.460025 
-0.5597 0.0819538 0.0426848 
0.0819538 -0.788 0.16507 
0.0426848 0.16507 -0.341571 
-0.462842 0.128672 0.0402937 
0.128672 -1.71991 0.265733 
0.0402937 0.265733 0.493477 
-0.461056 0.129093 0.0287814 
0.129093 -1.59293 0.263192 
0.0287814 0.263192 0.364714 
-0.567889 0.0813647 0.102158 
0.0813647 -0.874417 0.0519834 
0.102158 0.0519834 -0.246963 
-0.612758 0.0805711 0.113297 
0.0805711 -1.01636 0.0517322 
0.113297 0.0517322 -0.0601525 
-0.512986 0.127603 0.113385 
0.127603 -1.98381 0.152394 
0.113385 0.152394 0.807527 
-0.450395 0.128397 0.101872 
0.128397 -1.85882 0.152332 
0.101872 0.152332 0.619943 
-0.481011 0.111948 0.0841356 
0.111948 -0.918467 -0.248764 
0.0841356 -0.248764 -0.267115 
-0.550451 0.109865 0.0821947 
0.109865 -1.08865 -0.24853 
0.0821947 -0.24853 -0.0274917 
-0.419871 0.167245 0.0805415 
0.167245 -2.02324 -0.316961 
0.0805415 -0.316961 0.776515 
-0.338192 0.169328 0.0816301 
0.169328 -1.86291 -0.316891 
0.0816301 -0.316891 0.534508 
-0.631109 0.113643 0.161462 
0.113643 -0.741828 -0.344018 
0.161462 -0.344018 -0.293657 
-0.645607 0.110708 0.159521 
0.110708 -0.913345 -0.345848 
0.159521 -0.345848 -0.107641 
-0.51737 0.167783 0.159933 
0.167783 -1.63023 -0.414279 
0.159933 -0.414279 0.481003 
-0.482136 0.170718 0.161021 
0.170718 -1.47259 -0.412144 
0.161021 -0.412144 0.288137 
-0.271092 0.0927218 0.1593 
0.0927218 -0.837375 -0.560392 
0.1593 -0.560392 -0.0741157 
-0.356468 0.0907077 0.148902 
0.0907077 -0.97099 -0.561898 
0.148902 -0.561898 0.144877 
-0.250888 0.135813 0.148317 
0.135813 -1.58361 -0.72071 
0.148317 -0.72071 0.651912 
-0.164928 0.137827 0.158183 
0.137827 -1.45517 -0.718196 
0.158183 -0.718196 0.437516 
-0.520485 0.0954177 0.215404 
0.0954177 -0.401068 -0.613108 
0.215404 -0.613108 -0.26103 
-0.496985 0.0928723 0.205007 
0.0928723 -0.534013 -0.615151 
0.205007 -0.615151 -0.151584 
-0.3976 0.136969 0.204959 
0.136969 -0.92899 -0.773964 
0.204959 -0.773964 0.144008 
-0.405751 0.139514 0.214825 
0.139514 -0.804394 -0.770912 
0.214825 -0.770912 0.0275624 
0.00348077 0.0345854 0.216434 
0.0345854 -0.501376 -0.721676 
0.216434 -0.721676 0.0738884 
-0.069693 0.0339687 0.202524 
0.0339687 -0.551457 -0.723827 
0.202524 -0.723827 0.197143 
-0.0280281 0.0512801 0.202089 
0.0512801 -0.792161 -0.915477 
0.202089 -0.915477 0.396182 
0.0387673 0.0518968 0.215452 
0.0518968 -0.742036 -0.911691 
0.215452 -0.911691 0.279261 
-0.288545 0.0375752 0.236536 
0.0375752 0.0473855 -0.737267 
0.236536 -0.737267 -0.182847 
-0.235993 0.0364116 0.222626 
0.0364116 -0.00163901 -0.739418 
0.222626 -0.739418 -0.186375 
-0.202034 0.0520886 0.222191 
0.0520886 -0.086713 -0.931068 
0.222191 -0.931068 -0.13526 
-0.243107 0.0532521 0.235553 
0.0532521 -0.0428398 -0.927283 
0.235553 -0.927283 -0.13806 
0.288546 -0.0375752 0.236536 
-0.0375752 -0.0473853 -0.737267 
0.236536 -0.737267 0.182847 
0.235993 -0.0364116 0.222626 
-0.0364116 0.00163915 -0.739418 
0.222626 -0.739418 0.186375 
0.202034 -0.0520886 0.222191 
-0.0520886 0.0867132 -0.931068 
0.222191 -0.931068 0.13526 
0.243108 -0.0532521 0.235553 
-0.0532521 0.04284 -0.927283 
0.235553 -0.927283 0.13806 
-0.00348063 -0.0345854 0.216434 
-0.0345854 0.501377 -0.721676 
0.216434 -0.721676 -0.0738883 
0.0696931 -0.0339687 0.202524 
-0.0339687 0.551458 -0.723827 
0.202524 -0.723827 -0.197143 
0.0280282 -0.0512801 0.202089 
-0.0512801 0.792162 -0.915477 
0.202089 -0.915477 -0.396182 
-0.0387671 -0.0518968 0.215452 
-0.0518968 0.742036 -0.911691 
0.215452 -0.911691 -0.279261 
0.520485 -0.0954177 0.215404 
-0.0954177 0.401068 -0.613108 
0.215404 -0.613108 0.26103 
0.496985 -0.0928723 0.205007 
-0.0928723 0.534013 -0.615151 
0.205007 -0.615151 0.151584 
0.3976 -0.136969 0.204959 
-0.136969 0.928991 -0.773964 
0.204959 -0.773964 -0.144008 
0.405751 -0.139514 0.214825 
-0.139514 0.804394 -0.770912 
0.214825 -0.770912 -0.0275623 
0.271092 -0.0927218 0.1593 
-0.0927218 0.837375 -0.560392 
0.1593 -0.560392 0.0741159 
0.356468 -0.0907077 0.148902 
-0.0907077 0.970991 -0.561898 
0.148902 -0.561898 -0.144876 
0.250888 -0.135813 0.148317 
-0.135813 1.58361 -0.72071 
0.148317 -0.72071 -0.651911 
0.164928 -0.137827 0.158183 
-0.137827 1.45517 -0.718196 
0.158183 -0.718196 -0.437516 
0.631109 -0.113643 0.161462 
-0.113643 0.741828 -0.344018 
0.161462 -0.344018 0.293657 
0.645607 -0.110708 0.159521 
-0.110708 0.913345 -0.345848 
0.159521 -0.345848 0.107641 
0.51737 -0.167783 0.159933 
-0.167783 1.63023 -0.414279 
0.159933 -0.414279 -0.481002 
0.482136 -0.170718 0.161021 
-0.170718 1.47259 -0.412144 
0.161021 -0.412144 -0.288137 
0.481011 -0.111948 0.0841356 
-0.111948 0.918467 -0.248764 
0.0841356 -0.248764 0.267115 
0.550452 -0.109865 0.0821947 
-0.109865 1.08865 -0.24853 
0.0821947 -0.24853 0.0274919 
0.419871 -0.167245 0.0805415 
-0.167245 2.02324 -0.316961 
0.0805415 -0.316961 -0.776515 
0.338192 -0.169328 0.0816301 
-0.169328 1.86291 -0.316891 
0.0816301 -0.316891 -0.534508 
0.56789 -0.0813647 0.102158 
-0.0813647 0.874418 0.0519834 
0.102158 0.0519834 0.246963 
0.612758 -0.0805711 0.113297 
-0.0805711 1.01636 0.0517322 
0.113297 0.0517322 0.0601526 
0.512986 -0.127603 0.113385 
-0.127603 1.98381 0.152394 
0.113385 0.152394 -0.807527 
0.450395 -0.128397 0.101872 
-0.128397 1.85882 0.152332 
0.101872 0.152332 -0.619943 
0.579798 -0.0823747 0.0315453 
-0.0823747 0.649447 0.162843 
0.0315453 0.162843 0.460025 
0.5597 -0.0819538 0.0426848 
-0.0819538 0.788 0.16507 
0.0426848 0.16507 0.341571 
0.462842 -0.128672 0.0402937 
-0.128672 1.71991 0.265733 
0.0402937 0.265733 -0.493477 
0.461057 -0.129093 0.0287814 
-0.129093 1.59293 0.263192 
0.0287814 0.263192 -0.364714 
0.356518 -0.0235239 0.0998617 
-0.0235239 0.696343 0.466343 
0.0998617 0.466343 0.0520115 
0.357385 -0.0256056 0.114082 
-0.0256056 0.75115 0.468545 
0.114082 0.468545 -0.00366214 
0.31751 -0.0438868 0.111469 
-0.0438868 1.62691 0.783118 
0.111469 0.783118 -0.839549 
0.321529 -0.0418051 0.0971888 
-0.0418051 1.57808 0.780545 
0.0971888 0.780545 -0.794735 
0.491423 -0.02465 0.0666722 
-0.02465 -0.00247058 0.531015 
0.0666722 0.531015 0.615921 
0.299517 -0.0267921 0.0808924 
-0.0267921 0.0490311 0.530216 
0.0808924 0.530216 0.756325 
0.261452 -0.0447023 0.0812804 
-0.0447023 0.481368 0.844789 
0.0812804 0.844789 0.362053 
0.454894 -0.0425603 0.0669997 
-0.0425603 0.430888 0.845217 
0.0669997 0.845217 0.219091 
-0.679351 0.0670124 0.0255986 
0.0670124 -0.0814789 0.423094 
0.0255986 0.423094 -0.709466 
-0.430475 0.0642968 0.0666722 
0.0642968 -0.203532 0.42074 
0.0666722 0.42074 -0.836289 
-0.344743 0.104459 0.0669997 
0.104459 -0.689376 0.677983 
0.0669997 0.677983 -0.436177 
-0.584064 0.107175 0.0212882 
0.107175 -0.58209 0.680421 
0.0212882 0.680421 -0.304142 
-0.396509 0.068969 0.0868102 
0.068969 -0.653731 0.37183 
0.0868102 0.37183 -0.420056 
-0.476876 0.0616154 0.127884 
0.0616154 -0.785157 0.374208 
0.127884 0.374208 -0.208263 
-0.384968 0.101693 0.12348 
0.101693 -1.61439 0.631451 
0.12348 0.631451 0.529063 
-0.286657 0.109047 0.077768 
0.109047 -1.51686 0.629158 
0.077768 0.629158 0.333219 
-0.622034 0.195458 0.053879 
0.195458 -0.532656 0.105848 
0.053879 0.105848 -0.700483 
-0.624057 0.187937 0.0595674 
0.187937 -0.838395 0.109407 
0.0595674 0.109407 -0.392722 
-0.384075 0.295664 0.0550722 
0.295664 -1.74911 0.17734 
0.0550722 0.17734 0.278007 
-0.375516 0.303185 0.0487463 
0.303185 -1.43217 0.173211 
0.0487463 0.173211 -0.0474821 
-0.660568 0.194685 0.177196 
0.194685 -0.683833 0.0195203 
0.177196 0.0195203 -0.510772 
-0.715839 0.186526 0.182884 
0.186526 -0.994666 0.0172042 
0.182884 0.0172042 -0.144668 
-0.473656 0.294825 0.184263 
0.294825 -1.90156 0.0851377 
0.184263 0.0851377 0.520045 
-0.413401 0.302983 0.177937 
0.302983 -1.58717 0.0868825 
0.177937 0.0868825 0.1454 
-0.486188 0.233778 0.176514 
0.233778 -0.702837 -0.205516 
0.176514 -0.205516 -0.535245 
-0.563349 0.228001 0.164862 
0.228001 -1.04698 -0.205714 
0.164862 -0.205714 -0.113937 
-0.299216 0.350048 0.164021 
0.350048 -1.91243 -0.266135 
0.164021 -0.266135 0.48738 
-0.251764 0.355825 0.176181 
0.355825 -1.54098 -0.266364 
0.176181 -0.266364 0.0684744 
-0.72697 0.236198 0.303242 
0.236198 -0.541546 -0.2796 
0.303242 -0.2796 -0.455754 
-0.714818 0.230929 0.291589 
0.230929 -0.883523 -0.28232 
0.291589 -0.28232 -0.12593 
-0.456736 0.353404 0.29327 
0.353404 -1.57212 -0.342741 
0.29327 -0.342741 0.304582 
-0.488765 0.358673 0.305431 
0.358673 -1.19658 -0.340448 
0.305431 -0.340448 -0.0389242 
-0.257757 0.179558 0.30632 
0.179558 -0.629025 -0.432585 
0.30632 -0.432585 -0.310281 
-0.342171 0.176357 0.289426 
0.176357 -0.88447 -0.434825 
0.289426 -0.434825 0.0295784 
-0.157265 0.265795 0.290432 
0.265795 -1.43952 -0.558155 
0.290432 -0.558155 0.399719 
-0.100239 0.268996 0.307519 
0.268996 -1.16791 -0.554876 
0.307519 -0.554876 0.0710878 
-0.601893 0.18345 0.394811 
0.18345 -0.281714 -0.47381 
0.394811 -0.47381 -0.313456 
-0.542777 0.180441 0.377917 
0.180441 -0.531765 -0.476097 
0.377917 -0.476097 -0.122522 
-0.366566 0.26884 0.37897 
0.26884 -0.9197 -0.599427 
0.37897 -0.599427 0.0892026 
-0.436542 0.271848 0.396057 
0.271848 -0.64735 -0.596101 
0.396057 -0.596101 -0.113171 
0.0400372 0.0651597 0.396944 
0.0651597 -0.378657 -0.54891 
0.396944 -0.54891 -0.0874061 
-0.0438117 0.0644118 0.378947 
0.0644118 -0.472709 -0.551671 
0.378947 -0.551671 0.0904942 
0.0245368 0.0974558 0.379597 
0.0974558 -0.684942 -0.696565 
0.379597 -0.696565 0.234378 
0.0913071 0.0982037 0.397231 
0.0982037 -0.585083 -0.691429 
0.397231 -0.691429 0.0677491 
-0.349273 0.0695354 0.4282 
0.0695354 0.0465135 -0.561276 
0.4282 -0.561276 -0.123266 
-0.2704 0.0684238 0.410203 
0.0684238 -0.0423954 -0.563726 
0.410203 -0.563726 -0.113231 
-0.21198 0.0990933 0.410543 
0.0990933 -0.135723 -0.708619 
0.410543 -0.708619 -0.0783234 
-0.286448 0.100205 0.428176 
0.100205 -0.0413402 -0.703794 
0.428176 -0.703794 -0.0982385 
0.349274 -0.0695354 0.4282 
-0.0695354 -0.0465134 -0.561276 
0.4282 -0.561276 0.123267 
0.2704 -0.0684238 0.410203 
-0.0684238 0.0423956 -0.563726 
0.410203 -0.563726 0.113231 
0.21198 -0.0990933 0.410543 
-0.0990933 0.135723 -0.708619 
0.410543 -0.708619 0.0783235 
0.286448 -0.100205 0.428176 
-0.100205 0.0413404 -0.703794 
0.428176 -0.703794 0.0982387 
-0.040037 -0.0651597 0.396944 
-0.0651597 0.378658 -0.54891 
0.396944 -0.54891 0.0874062 
0.0438119 -0.0644118 0.378947 
-0.0644118 0.472709 -0.551671 
0.378947 -0.551671 -0.090494 
-0.0245367 -0.0974558 0.379597 
-0.0974558 0.684942 -0.696565 
0.379597 -0.696565 -0.234378 
-0.0913069 -0.0982037 0.397231 
-0.0982037 0.585083 -0.691429 
0.397231 -0.691429 -0.067749 
0.601893 -0.18345 0.394811 
-0.18345 0.281714 -0.47381 
0.394811 -0.47381 0.313457 
0.542777 -0.180441 0.377917 
-0.180441 0.531765 -0.476097 
0.377917 -0.476097 0.122522 
0.366566 -0.26884 0.37897 
-0.26884 0.9197 -0.599427 
0.37897 -0.599427 -0.0892024 
0.436543 -0.271848 0.396057 
-0.271848 0.64735 -0.596101 
0.396057 -0.596101 0.113171 
0.257757 -0.179558 0.30632 
-0.179558 0.629026 -0.432585 
0.30632 -0.432585 0.310281 
0.342171 -0.176357 0.289426 
-0.176357 0.88447 -0.434825 
0.289426 -0.434825 -0.0295782 
0.157265 -0.265795 0.290432 
-0.265795 1.43952 -0.558155 
0.290432 -0.558155 -0.399719 
0.100239 -0.268996 0.307519 
-0.268996 1.16791 -0.554876 
0.307519 -0.554876 -0.0710876 
0.72697 -0.236198 0.303242 
-0.236198 0.541546 -0.2796 
0.303242 -0.2796 0.455754 
0.714818 -0.230929 0.291589 
-0.230929 0.883523 -0.28232 
0.291589 -0.28232 0.12593 
0.456736 -0.353404 0.29327 
-0.353404 1.57212 -0.342741 
0.29327 -0.342741 -0.304581 
0.488765 -0.358673 0.305431 
-0.358673 1.19658 -0.340448 
0.305431 -0.340448 0.0389243 
0.486189 -0.233778 0.176514 
-0.233778 0.702838 -0.205516 
0.176514 -0.205516 0.535245 
0.563349 -0.228001 0.164862 
-0.228001 1.04698 -0.205714 
0.164862 -0.205714 0.113937 
0.299216 -0.350048 0.164021 
-0.350048 1.91243 -0.266135 
0.164021 -0.266135 -0.48738 
0.251764 -0.355825 0.176181 
-0.355825 1.54098 -0.266364 
0.176181 -0.266364 -0.0684743 
0.660568 -0.194685 0.177196 
-0.194685 0.683833 0.0195203 
0.177196 0.0195203 0.510772 
0.715839 -0.186526 0.182884 
-0.186526 0.994667 0.0172042 
0.182884 0.0172042 0.144668 
0.473656 -0.294825 0.184263 
-0.294825 1.90156 0.0851377 
0.184263 0.0851377 -0.520045 
0.413401 -0.302983 0.177937 
-0.302983 1.58717 0.0868825 
0.177937 0.0868825 -0.1454 
0.622034 -0.195458 0.053879 
-0.195458 0.532656 0.105848 
0.053879 0.105848 0.700484 
0.624057 -0.187937 0.0595674 
-0.187937 0.838395 0.109407 
0.0595674 0.109407 0.392722 
0.384076 -0.295664 0.0550722 
-0.295664 1.74911 0.17734 
0.0550722 0.17734 -0.278007 
0.375516 -0.303185 0.0487463 
-0.303185 1.43218 0.173211 
0.0487463 0.173211 0.0474822 
0.396509 -0.068969 0.0868102 
-0.068969 0.653732 0.37183 
0.0868102 0.37183 0.420056 
0.476876 -0.0616154 0.127884 
-0.0616154 0.785157 0.374208 
0.127884 0.374208 0.208263 
0.384968 -0.101693 0.12348 
-0.101693 1.61439 0.631451 
0.12348 0.631451 -0.529063 
0.286657 -0.109047 0.077768 
-0.109047 1.51686 0.629158 
0.077768 0.629158 -0.333219 
0.679351 -0.0670124 0.0255986 
-0.0670124 0.081479 0.423094 
0.0255986 0.423094 0.709466 
0.430475 -0.0642968 0.0666722 
-0.0642968 0.203532 0.42074 
0.0666722 0.42074 0.836289 
0.344743 -0.104459 0.0669997 
-0.104459 0.689376 0.677983 
0.0669997 0.677983 0.436177 
0.584064 -0.107175 0.0212882 
-0.107175 0.58209 0.680421 
0.0212882 0.680421 0.304142 
-0.794769 0.185938 3.61942e-12 
0.185938 -0.104006 0.18733 
3.61942e-12 0.18733 -0.758162 
-0.606262 0.178344 0.0255986 
0.178344 -0.403679 0.178524 
0.0255986 0.178524 -0.646995 
-0.293271 0.2954 0.0212882 
0.2954 -0.95814 0.292195 
0.0212882 0.292195 -0.405526 
-0.562702 0.302994 -2.47083e-11 
0.302994 -0.577017 0.304408 
-2.47083e-11 0.304408 -0.517217 
-0.570154 0.177132 0.0871747 
0.177132 -0.362523 0.165389 
0.0871747 0.165389 -0.724259 
-0.612897 0.173848 0.112773 
0.173848 -0.682398 0.163474 
0.112773 0.163474 -0.361642 
-0.321431 0.287497 0.101572 
0.287497 -1.34446 0.277144 
0.101572 0.277144 0.00895963 
-0.335838 0.290781 0.0802842 
0.290781 -0.998781 0.282467 
0.0802842 0.282467 -0.322318 
-0.774697 0.402208 0.0871747 
0.402208 -0.190086 0.0315131 
0.0871747 0.0315131 -0.862239 
-0.680173 0.395397 0.0798421 
0.395397 -0.81272 0.0369368 
0.0798421 0.0369368 -0.334129 
-0.193325 0.63344 0.0725507 
0.63344 -1.57976 0.0582762 
0.0725507 0.0582762 -0.0539403 
-0.413593 0.64025 0.0802842 
0.64025 -0.802987 0.0494779 
0.0802842 0.0494779 -0.610443 
-0.801406 0.400741 0.273477 
0.400741 -0.234889 -0.00159235 
0.273477 -0.00159235 -0.790728 
-0.784881 0.394331 0.266144 
0.394331 -0.865686 -0.00828569 
0.266144 -0.00828569 -0.176455 
-0.298247 0.635748 0.27097 
0.635748 -1.61151 0.0130537 
0.27097 0.0130537 0.0827301 
-0.441878 0.642158 0.278704 
0.642158 -0.827807 0.0163725 
0.278704 0.0163725 -0.557337 
-0.615762 0.422458 0.273477 
0.422458 -0.237063 -0.0895316 
0.273477 -0.0895316 -0.806588 
-0.583567 0.417338 0.265463 
0.417338 -0.875449 -0.0895157 
0.265463 -0.0895157 -0.200397 
-0.16401 0.649019 0.269214 
0.649019 -1.52723 -0.115849 
0.269214 -0.115849 0.0318265 
-0.307071 0.65414 0.278704 
0.65414 -0.793447 -0.120741 
0.278704 -0.120741 -0.558895 
-0.81182 0.427701 0.466909 
0.427701 -0.16886 -0.119234 
0.466909 -0.119234 -0.678734 
-0.748904 0.424056 0.458895 
0.424056 -0.795536 -0.122789 
0.458895 -0.122789 -0.114974 
-0.33349 0.660613 0.466217 
0.660613 -1.38929 -0.149123 
0.466217 -0.149123 0.0633619 
-0.505584 0.664258 0.475707 
0.664258 -0.621991 -0.150443 
0.475707 -0.150443 -0.531838 
-0.331258 0.306999 0.466909 
0.306999 -0.219667 -0.178233 
0.466909 -0.178233 -0.601883 
-0.352123 0.303889 0.461974 
0.303889 -0.673735 -0.180705 
0.461974 -0.180705 -0.12695 
-0.0780075 0.462672 0.468306 
0.462672 -1.0852 -0.23229 
0.468306 -0.23229 0.010398 
-0.119578 0.465782 0.475707 
0.465782 -0.597006 -0.230541 
0.475707 -0.230541 -0.436224 
-0.661516 0.313326 0.603843 
0.313326 -0.0873166 -0.196772 
0.603843 -0.196772 -0.403975 
-0.571372 0.312681 0.598908 
0.312681 -0.521836 -0.197863 
0.598908 -0.197863 -0.0596006 
-0.30683 0.472186 0.603859 
0.472186 -0.872258 -0.249448 
0.603859 -0.249448 0.0262808 
-0.451288 0.472831 0.61126 
0.472831 -0.361289 -0.24908 
0.61126 -0.24908 -0.340231 
0.020934 0.109779 0.603843 
0.109779 -0.138179 -0.224389 
0.603843 -0.224389 -0.293993 
-0.0376718 0.107576 0.60104 
0.107576 -0.305303 -0.226537 
0.60104 -0.226537 -0.0682627 
0.0611996 0.164336 0.605032 
0.164336 -0.453347 -0.286861 
0.605032 -0.286861 -0.0190908 
0.0959422 0.166539 0.61126 
0.166539 -0.285142 -0.281861 
0.61126 -0.281861 -0.222039 
-0.374906 0.115048 0.652347 
0.115048 0.0224933 -0.23025 
0.652347 -0.23025 -0.0588252 
-0.290556 0.11627 0.649544 
0.11627 -0.124904 -0.231161 
0.649544 -0.231161 0.00422271 
-0.206012 0.170177 0.6523 
0.170177 -0.226947 -0.291485 
0.6523 -0.291485 0.0217208 
-0.300887 0.168955 0.658527 
0.168955 -0.0517717 -0.287722 
0.658527 -0.287722 -0.0585789 
0.374906 -0.115048 0.652347 
-0.115048 -0.0224932 -0.23025 
0.652347 -0.23025 0.0588254 
0.290556 -0.11627 0.649544 
-0.11627 0.124905 -0.231161 
0.649544 -0.231161 -0.00422257 
0.206012 -0.170177 0.6523 
-0.170177 0.226947 -0.291485 
0.6523 -0.291485 -0.0217207 
0.300888 -0.168955 0.658527 
-0.168955 0.0517718 -0.287722 
0.658527 -0.287722 0.058579 
-0.0209339 -0.109779 0.603843 
-0.109779 0.138179 -0.224389 
0.603843 -0.224389 0.293993 
0.0376719 -0.107576 0.60104 
-0.107576 0.305304 -0.226537 
0.60104 -0.226537 0.0682629 
-0.0611995 -0.164336 0.605032 
-0.164336 0.453347 -0.286861 
0.605032 -0.286861 0.0190909 
-0.095942 -0.166539 0.61126 
-0.166539 0.285142 -0.281861 
0.61126 -0.281861 0.222039 
0.661516 -0.313326 0.603843 
-0.313326 0.0873168 -0.196772 
0.603843 -0.196772 0.403975 
0.571372 -0.312681 0.598908 
-0.312681 0.521836 -0.197863 
0.598908 -0.197863 0.0596007 
0.30683 -0.472186 0.603859 
-0.472186 0.872258 -0.249448 
0.603859 -0.249448 -0.0262807 
0.451288 -0.472831 0.61126 
-0.472831 0.361289 -0.24908 
0.61126 -0.24908 0.340231 
0.331258 -0.306999 0.466909 
-0.306999 0.219667 -0.178233 
0.466909 -0.178233 0.601883 
0.352123 -0.303889 0.461974 
-0.303889 0.673735 -0.180705 
0.461974 -0.180705 0.12695 
0.0780076 -0.462672 0.468306 
-0.462672 1.0852 -0.23229 
0.468306 -0.23229 -0.0103978 
0.119578 -0.465782 0.475707 
-0.465782 0.597007 -0.230541 
0.475707 -0.230541 0.436224 
0.81182 -0.427701 0.466909 
-0.427701 0.16886 -0.119234 
0.466909 -0.119234 0.678734 
0.748904 -0.424056 0.458895 
-0.424056 0.795536 -0.122789 
0.458895 -0.122789 0.114974 
0.33349 -0.660613 0.466217 
-0.660613 1.38929 -0.149123 
0.466217 -0.149123 -0.0633617 
0.505584 -0.664258 0.475707 
-0.664258 0.621991 -0.150443 
0.475707 -0.150443 0.531838 
0.615762 -0.422458 0.273477 
-0.422458 0.237063 -0.0895316 
0.273477 -0.0895316 0.806588 
0.583567 -0.417338 0.265463 
-0.417338 0.875449 -0.0895157 
0.265463 -0.0895157 0.200398 
0.16401 -0.649019 0.269214 
-0.649019 1.52723 -0.115849 
0.269214 -0.115849 -0.0318264 
0.307071 -0.65414 0.278704 
-0.65414 0.793447 -0.120741 
0.278704 -0.120741 0.558895 
0.801406 -0.400741 0.273477 
-0.400741 0.234889 -0.00159235 
0.273477 -0.00159235 0.790728 
0.784881 -0.394331 0.266144 
-0.394331 0.865686 -0.00828569 
0.266144 -0.00828569 0.176456 
0.298247 -0.635748 0.27097 
-0.635748 1.61151 0.0130537 
0.27097 0.0130537 -0.08273 
0.441878 -0.642158 0.278704 
-0.642158 0.827807 0.0163725 
0.278704 0.0163725 0.557337 
0.774698 -0.402208 0.0871747 
-0.402208 0.190086 0.0315131 
0.0871747 0.0315131 0.862239 
0.680173 -0.395397 0.0798421 
-0.395397 0.81272 0.0369368 
0.0798421 0.0369368 0.334129 
0.193325 -0.63344 0.0725507 
-0.63344 1.57976 0.0582762 
0.0725507 0.0582762 0.0539404 
0.413593 -0.64025 0.0802842 
-0.64025 0.802987 0.0494779 
0.0802842 0.0494779 0.610443 
0.570155 -0.177132 0.0871747 
-0.177132 0.362523 0.165389 
0.0871747 0.165389 0.724259 
0.612897 -0.173848 0.112773 
-0.173848 0.682398 0.163474 
0.112773 0.163474 0.361642 
0.321432 -0.287497 0.101572 
-0.287497 1.34446 0.277144 
0.101572 0.277144 -0.00895949 
0.335838 -0.290781 0.0802842 
-0.290781 0.998781 0.282467 
0.0802842 0.282467 0.322318 
0.794769 -0.185938 3.61942e-12 
-0.185938 0.104006 0.18733 
3.61942e-12 0.18733 0.758162 
0.606262 -0.178344 0.0255986 
-0.178344 0.403679 0.178524 
0.0255986 0.178524 0.646996 
0.293271 -0.2954 0.0212882 
-0.2954 0.95814 0.292195 
0.0212882 0.292195 0.405526 
0.562702 -0.302994 -2.47083e-11 
-0.302994 0.577017 0.304408 
-2.47083e-11 0.304408 0.517217 
0.13839 -0.00014256 0.00935049 
-0.00014256 0.342695 0.360556 
0.00935049 0.360556 -0.074649 
0.140991 4.63893e-05 2.58091e-11 
4.63893e-05 0.342735 0.360551 
2.58091e-11 0.360551 -0.0772905 
0.140586 5.7436e-05 3.47143e-11 
5.7436e-05 0.150679 0.62079 
3.47143e-11 0.62079 0.11517 
0.137926 -0.000131514 0.00933418 
-0.000131514 0.150709 0.620792 
0.00933418 0.620792 0.1178 
0.109875 -0.000130937 0.00907435 
-0.000130937 -0.251718 0.314103 
0.00907435 0.314103 0.548279 
0.11443 4.16957e-05 -0.000276147 
4.16957e-05 -0.251691 0.314084 
-0.000276147 0.314084 0.543697 
0.114034 5.49069e-05 -0.000262277 
5.49069e-05 -0.785805 0.574323 
-0.000262277 0.574323 1.07821 
0.109476 -0.000117725 0.0090719 
-0.000117725 -0.785779 0.574339 
0.0090719 0.574339 1.08274 
-0.0978424 -0.000420392 0.00382253 
-0.000420392 -0.29436 0.135913 
0.00382253 0.135913 0.157036 
-0.0932558 9.35465e-05 -0.000276147 
9.35465e-05 -0.294293 0.135903 
-0.000276147 0.135903 0.152382 
-0.0944194 0.000114206 -0.000262277 
0.000114206 -0.863667 0.247313 
-0.000262277 0.247313 0.72292 
-0.0991034 -0.000399732 0.00383458 
-0.000399732 -0.863684 0.247323 
0.00383458 0.247323 0.727621 
-0.108937 -0.000415328 0.00336556 
-0.000415328 -0.533398 0.047337 
0.00336556 0.047337 0.407168 
-0.10407 9.67909e-05 -0.000733109 
9.67909e-05 -0.533319 0.0473377 
-0.000733109 0.0473377 0.402222 
-0.105236 0.000118803 -0.000730588 
0.000118803 -1.19991 0.158748 
-0.000730588 0.158748 1.06998 
-0.110187 -0.000393316 0.00336627 
-0.000393316 -1.19991 0.158746 
0.00336627 0.158746 1.07493 
-0.197652 -0.000536026 -0.00186359 
-0.000536026 -0.65571 -0.166553 
-0.00186359 -0.166553 0.351904 
-0.193179 0.000106938 -0.000733109 
0.000106938 -0.65561 -0.166555 
-0.000733109 -0.166555 0.347331 
-0.194705 0.000127633 -0.000730588 
0.000127633 -1.30574 -0.202757 
-0.000730588 -0.202757 0.998988 
-0.199242 -0.000515331 -0.00185288 
-0.000515331 -1.30579 -0.202755 
-0.00185288 -0.202755 1.00357 
-0.191525 -0.000543904 -0.00227224 
-0.000543904 -0.520949 -0.253889 
-0.00227224 -0.253889 0.211016 
-0.187757 0.000107256 -0.00114175 
0.000107256 -0.520847 -0.253881 
-0.00114175 -0.253881 0.207147 
-0.189291 0.000128149 -0.00114914 
0.000128149 -1.05894 -0.290082 
-0.00114914 -0.290082 0.746775 
-0.193144 -0.000523011 -0.00227143 
-0.000523011 -1.05899 -0.29009 
-0.00227143 -0.29009 0.750675 
-0.178047 -0.000430703 -0.00625539 
-0.000430703 -0.703941 -0.430162 
-0.00625539 -0.430162 0.437596 
-0.174972 8.5756e-05 -0.00114175 
8.5756e-05 -0.703855 -0.430158 
-0.00114175 -0.430158 0.434435 
-0.176223 0.000101357 -0.00114914 
0.000101357 -1.19215 -0.572185 
-0.00114914 -0.572185 0.923979 
-0.179317 -0.000415103 -0.00625236 
-0.000415103 -1.1922 -0.572189 
-0.00625236 -0.572189 0.927121 
-0.159198 -0.000444252 -0.00650234 
-0.000444252 -0.268732 -0.487308 
-0.00650234 -0.487308 -0.0164617 
-0.156981 8.26291e-05 -0.0013887 
8.26291e-05 -0.268657 -0.487298 
-0.0013887 -0.487298 -0.0187537 
-0.158238 9.77614e-05 -0.00140129 
9.77614e-05 -0.57493 -0.629325 
-0.00140129 -0.629325 0.288775 
-0.16051 -0.000429119 -0.00650451 
-0.000429119 -0.574991 -0.629334 
-0.00650451 -0.629334 0.291109 
-0.0778869 -0.000158851 -0.00861802 
-0.000158851 -0.48283 -0.584128 
-0.00861802 -0.584128 0.387833 
-0.0765988 3.47882e-05 -0.0013887 
3.47882e-05 -0.48279 -0.584121 
-0.0013887 -0.584121 0.386505 
-0.0770759 4.0964e-05 -0.00140129 
4.0964e-05 -0.713245 -0.778478 
-0.00140129 -0.778478 0.617437 
-0.0783569 -0.000152675 -0.00862181 
-0.000152675 -0.713256 -0.778484 
-0.00862181 -0.778484 0.618729 
-0.0524074 -0.000173178 -0.0086977 
-0.000173178 0.111159 -0.60339 
-0.0086977 -0.60339 -0.231636 
-0.051899 2.92602e-05 -0.00146838 
2.92602e-05 0.111179 -0.603381 
-0.00146838 -0.603381 -0.232164 
-0.0523788 3.45936e-05 -0.00148246 
3.45936e-05 0.0685946 -0.797738 
-0.00148246 -0.797738 -0.1891 
-0.0529139 -0.000167845 -0.00870298 
-0.000167845 0.0685597 -0.797746 
-0.00870298 -0.797746 -0.18853 
0.0524075 0.000173178 -0.0086977 
0.000173178 -0.111159 -0.60339 
-0.0086977 -0.60339 0.231636 
0.0518991 -2.92602e-05 -0.00146838 
-2.92602e-05 -0.111178 -0.603381 
-0.00146838 -0.603381 0.232164 
0.052379 -3.45936e-05 -0.00148246 
-3.45936e-05 -0.0685945 -0.797738 
-0.00148246 -0.797738 0.1891 
0.052914 0.000167845 -0.00870298 
0.000167845 -0.0685596 -0.797746 
-0.00870298 -0.797746 0.18853 
0.0778871 0.000158851 -0.00861802 
0.000158851 0.48283 -0.584128 
-0.00861802 -0.584128 -0.387833 
0.076599 -3.47882e-05 -0.0013887 
-3.47882e-05 0.482791 -0.584121 
-0.0013887 -0.584121 -0.386505 
0.077076 -4.0964e-05 -0.00140129 
-4.0964e-05 0.713245 -0.778478 
-0.00140129 -0.778478 -0.617436 
0.078357 0.000152675 -0.00862181 
0.000152675 0.713256 -0.778484 
-0.00862181 -0.778484 -0.618729 
0.159199 0.000444252 -0.00650234 
0.000444252 0.268732 -0.487308 
-0.00650234 -0.487308 0.0164618 
0.156981 -8.26291e-05 -0.0013887 
-8.26291e-05 0.268657 -0.487298 
-0.0013887 -0.487298 0.0187538 
0.158238 -9.77614e-05 -0.00140129 
-9.77614e-05 0.57493 -0.629325 
-0.00140129 -0.629325 -0.288775 
0.16051 0.000429119 -0.00650451 
0.000429119 0.574991 -0.629334 
-0.00650451 -0.629334 -0.291109 
0.178047 0.000430703 -0.00625539 
0.000430703 0.703941 -0.430162 
-0.00625539 -0.430162 -0.437595 
0.174972 -8.5756e-05 -0.00114175 
-8.5756e-05 0.703855 -0.430158 
-0.00114175 -0.430158 -0.434435 
0.176223 -0.000101357 -0.00114914 
-0.000101357 1.19215 -0.572185 
-0.00114914 -0.572185 -0.923979 
0.179317 0.000415103 -0.00625236 
0.000415103 1.1922 -0.572189 
-0.00625236 -0.572189 -0.927121 
0.191525 0.000543904 -0.00227224 
0.000543904 0.520949 -0.253889 
-0.00227224 -0.253889 -0.211016 
0.187758 -0.000107256 -0.00114175 
-0.000107256 0.520847 -0.253881 
-0.00114175 -0.253881 -0.207147 
0.189291 -0.000128149 -0.00114914 
-0.000128149 1.05894 -0.290082 
-0.00114914 -0.290082 -0.746775 
0.193144 0.000523011 -0.00227143 
0.000523011 1.05899 -0.29009 
-0.00227143 -0.29009 -0.750675 
0.197652 0.000536026 -0.00186359 
0.000536026 0.65571 -0.166553 
-0.00186359 -0.166553 -0.351904 
0.193179 -0.000106938 -0.000733109 
-0.000106938 0.65561 -0.166555 
-0.000733109 -0.166555 -0.347331 
0.194706 -0.000127633 -0.000730588 
-0.000127633 1.30574 -0.202757 
-0.000730588 -0.202757 -0.998987 
0.199242 0.000515331 -0.00185288 
0.000515331 1.30579 -0.202755 
-0.00185288 -0.202755 -1.00357 
0.108937 0.000415328 0.00336556 
0.000415328 0.533398 0.047337 
0.00336556 0.047337 -0.407168 
0.10407 -9.67909e-05 -0.000733109 
-9.67909e-05 0.533319 0.0473377 
-0.000733109 0.0473377 -0.402222 
0.105236 -0.000118803 -0.000730588 
-0.000118803 1.19991 0.158748 
-0.000730588 0.158748 -1.06998 
0.110187 0.000393316 0.00336627 
0.000393316 1.19991 0.158746 
0.00336627 0.158746 -1.07493 
0.0978425 0.000420392 0.00382253 
0.000420392 0.29436 0.135913 
0.00382253 0.135913 -0.157035 
0.0932559 -9.35465e-05 -0.000276147 
-9.35465e-05 0.294293 0.135903 
-0.000276147 0.135903 -0.152382 
0.0944196 -0.000114206 -0.000262277 
-0.000114206 0.863667 0.247313 
-0.000262277 0.247313 -0.72292 
0.0991035 0.000399732 0.00383458 
0.000399732 0.863684 0.247323 
0.00383458 0.247323 -0.727621 
-0.109875 0.000130937 0.00907435 
0.000130937 0.251718 0.314103 
0.00907435 0.314103 -0.548278 
-0.11443 -4.16957e-05 -0.000276147 
-4.16957e-05 0.251692 0.314084 
-0.000276147 0.314084 -0.543697 
-0.114034 -5.49069e-05 -0.000262277 
-5.49069e-05 0.785805 0.574323 
-0.000262277 0.574323 -1.07821 
-0.109476 0.000117725 0.0090719 
0.000117725 0.785779 0.574339 
0.0090719 0.574339 -1.08274 
-0.13839 0.00014256 0.00935049 
0.00014256 -0.342695 0.360556 
0.00935049 0.360556 0.0746492 
-0.140991 -4.63893e-05 2.58091e-11 
-4.63893e-05 -0.342735 0.360551 
2.58091e-11 0.360551 0.0772906 
-0.140586 -5.7436e-05 3.47143e-11 
-5.7436e-05 -0.150679 0.62079 
3.47143e-11 0.62079 -0.11517 
-0.137926 0.000131514 0.00933418 
0.000131514 -0.150709 0.620792 
0.00933418 0.620792 -0.1178 
0.131582 -0.000295453 0.0195711 
-0.000295453 0.338337 0.360393 
0.0195711 0.360393 -0.075969 
0.140233 -2.09301e-05 0.00935049 
-2.09301e-05 0.338422 0.360376 
0.00935049 0.360376 -0.0847052 
0.139755 3.29025e-05 0.00933418 
3.29025e-05 0.146588 0.620567 
0.00933418 0.620567 0.107607 
0.130899 -0.00024162 0.0195363 
-0.00024162 0.146742 0.620575 
0.0195363 0.620575 0.116309 
0.098843 -0.000277575 0.0188374 
-0.000277575 -0.255589 0.313841 
0.0188374 0.313841 0.550696 
0.112661 -2.15873e-05 0.00861682 
-2.15873e-05 -0.255556 0.313784 
0.00861682 0.313784 0.536844 
0.112137 4.08342e-05 0.00864041 
4.08342e-05 -0.790028 0.573975 
0.00864041 0.573975 1.07184 
0.0982892 -0.000215154 0.0188425 
-0.000215154 -0.789888 0.574023 
0.0188425 0.574023 1.08555 
-0.108351 -0.000841257 0.00748169 
-0.000841257 -0.298588 0.135732 
0.00748169 0.135732 0.158553 
-0.0945198 -0.000149087 0.003365 
-0.000149087 -0.29852 0.135703 
0.003365 0.135703 0.144654 
-0.0958283 -3.31427e-05 0.00340308 
-3.31427e-05 -0.868216 0.247104 
0.00340308 0.247104 0.715658 
-0.109944 -0.000725312 0.00752665 
-0.000725312 -0.868137 0.247127 
0.00752665 0.247127 0.729695 
-0.119992 -0.000835272 0.00634385 
-0.000835272 -0.537362 0.0468903 
0.00634385 0.0468903 0.408969 
-0.105844 -0.00013623 0.00222716 
-0.00013623 -0.537253 0.0468963 
0.00222716 0.0468963 0.39471 
-0.107173 -1.4581e-05 0.00223038 
-1.4581e-05 -1.20442 0.158297 
0.00223038 0.158297 1.06321 
-0.121595 -0.000713623 0.00635394 
-0.000713623 -1.20427 0.158285 
0.00635394 0.158285 1.07748 
-0.206906 -0.00103004 -0.0044332 
-0.00103004 -0.659199 -0.166913 
-0.0044332 -0.166913 0.353409 
-0.194063 -0.000203374 -0.003002 
-0.000203374 -0.659079 -0.166918 
-0.003002 -0.166918 0.340446 
-0.195699 -7.37245e-05 -0.00298876 
-7.37245e-05 -1.3098 -0.203113 
-0.00298876 -0.203113 0.992801 
-0.208689 -0.000900393 -0.00441085 
-0.000900393 -1.3098 -0.203109 
-0.00441085 -0.203109 1.0058 
-0.200406 -0.00104657 -0.00536814 
-0.00104657 -0.524192 -0.254529 
-0.00536814 -0.254529 0.211901 
-0.189672 -0.000210792 -0.00393694 
-0.000210792 -0.524067 -0.254506 
-0.00393694 -0.254506 0.201042 
-0.191291 -8.0748e-05 -0.00395145 
-8.0748e-05 -1.06266 -0.290701 
-0.00395145 -0.290701 0.741254 
-0.202247 -0.000916528 -0.00537353 
-0.000916528 -1.06266 -0.290725 
-0.00537353 -0.290725 0.752206 
-0.183577 -0.000803571 -0.0133531 
-0.000803571 -0.706243 -0.430711 
-0.0133531 -0.430711 0.437999 
-0.17516 -0.000154664 -0.0079201 
-0.000154664 -0.70614 -0.430699 
-0.0079201 -0.430699 0.429479 
-0.176463 -5.17195e-05 -0.00793238 
-5.17195e-05 -1.19501 -0.572704 
-0.00793238 -0.572704 0.919651 
-0.184899 -0.000700626 -0.0133657 
-0.000700626 -1.19504 -0.572712 
-0.0133657 -0.572712 0.928115 
-0.165145 -0.000825196 -0.0138594 
-0.000825196 -0.270762 -0.488057 
-0.0138594 -0.488057 -0.0159141 
-0.158783 -0.000176661 -0.00842645 
-0.000176661 -0.2707 -0.488033 
-0.00842645 -0.488033 -0.0223385 
-0.160047 -7.72304e-05 -0.00845174 
-7.72304e-05 -0.577224 -0.630038 
-0.00845174 -0.630038 0.28545 
-0.166504 -0.000725766 -0.0138851 
-0.000725766 -0.577306 -0.630058 
-0.0138851 -0.630058 0.291989 
-0.0791871 -0.00029419 -0.0180328 
-0.00029419 -0.483717 -0.584814 
-0.0180328 -0.584814 0.387433 
-0.0759521 -4.65743e-05 -0.0105421 
-4.65743e-05 -0.483656 -0.584799 
-0.0105421 -0.584799 0.384137 
-0.076455 -5.19343e-06 -0.010569 
-5.19343e-06 -0.714483 -0.779121 
-0.010569 -0.779121 0.615467 
-0.0796725 -0.000252809 -0.0180699 
-0.000252809 -0.714463 -0.77913 
-0.0180699 -0.77913 0.618664 
-0.0549801 -0.000312912 -0.0181825 
-0.000312912 0.110562 -0.604148 
-0.0181825 -0.604148 -0.231053 
-0.0532656 -7.55496e-05 -0.0106919 
-7.55496e-05 0.110553 -0.604129 
-0.0106919 -0.604129 -0.232758 
-0.0537229 -4.00025e-05 -0.0107221 
-4.00025e-05 0.0680358 -0.798451 
-0.0107221 -0.798451 -0.189784 
-0.0554651 -0.000277365 -0.018223 
-0.000277365 0.0679591 -0.798464 
-0.018223 -0.798464 -0.187965 
0.0549802 0.000312912 -0.0181825 
0.000312912 -0.110562 -0.604148 
-0.0181825 -0.604148 0.231053 
0.0532657 7.55496e-05 -0.0106919 
7.55496e-05 -0.110552 -0.604129 
-0.0106919 -0.604129 0.232758 
0.053723 4.00025e-05 -0.0107221 
4.00025e-05 -0.0680356 -0.798451 
-0.0107221 -0.798451 0.189784 
0.0554652 0.000277365 -0.018223 
0.000277365 -0.067959 -0.798464 
-0.018223 -0.798464 0.187965 
0.0791872 0.00029419 -0.0180328 
0.00029419 0.483717 -0.584814 
-0.0180328 -0.584814 -0.387433 
0.0759522 4.65743e-05 -0.0105421 
4.65743e-05 0.483656 -0.584799 
-0.0105421 -0.584799 -0.384137 
0.0764551 5.19343e-06 -0.010569 
5.19343e-06 0.714483 -0.779121 
-0.010569 -0.779121 -0.615467 
0.0796726 0.000252809 -0.0180699 
0.000252809 0.714463 -0.77913 
-0.0180699 -0.77913 -0.618664 
0.165145 0.000825196 -0.0138594 
0.000825196 0.270762 -0.488057 
-0.0138594 -0.488057 0.0159142 
0.158783 0.000176661 -0.00842645 
0.000176661 0.2707 -0.488033 
-0.00842645 -0.488033 0.0223386 
0.160047 7.72304e-05 -0.00845174 
7.72304e-05 0.577225 -0.630038 
-0.00845174 -0.630038 -0.28545 
0.166504 0.000725766 -0.0138851 
0.000725766 0.577307 -0.630058 
-0.0138851 -0.630058 -0.291989 
0.183578 0.000803571 -0.0133531 
0.000803571 0.706243 -0.430711 
-0.0133531 -0.430711 -0.437999 
0.17516 0.000154664 -0.0079201 
0.000154664 0.70614 -0.430699 
-0.0079201 -0.430699 -0.429479 
0.176463 5.17195e-05 -0.00793238 
5.17195e-05 1.19501 -0.572704 
-0.00793238 -0.572704 -0.919651 
0.1849 0.000700626 -0.0133657 
0.000700626 1.19504 -0.572712 
-0.0133657 -0.572712 -0.928114 
0.200406 0.00104657 -0.00536814 
0.00104657 0.524192 -0.254529 
-0.00536814 -0.254529 -0.211901 
0.189672 0.000210792 -0.00393694 
0.000210792 0.524067 -0.254506 
-0.00393694 -0.254506 -0.201042 
0.191291 8.0748e-05 -0.00395145 
8.0748e-05 1.06266 -0.290701 
-0.00395145 -0.290701 -0.741254 
0.202247 0.000916528 -0.00537353 
0.000916528 1.06266 -0.290725 
-0.00537353 -0.290725 -0.752206 
0.206907 0.00103004 -0.0044332 
0.00103004 0.659199 -0.166913 
-0.0044332 -0.166913 -0.353408 
0.194063 0.000203374 -0.003002 
0.000203374 0.659079 -0.166918 
-0.003002 -0.166918 -0.340445 
0.195699 7.37245e-05 -0.00298876 
7.37245e-05 1.3098 -0.203113 
-0.00298876 -0.203113 -0.992801 
0.20869 0.000900393 -0.00441085 
0.000900393 1.3098 -0.203109 
-0.00441085 -0.203109 -1.0058 
0.119993 0.000835272 0.00634385 
0.000835272 0.537362 0.0468903 
0.00634385 0.0468903 -0.408968 
0.105844 0.00013623 0.00222716 
0.00013623 0.537253 0.0468963 
0.00222716 0.0468963 -0.39471 
0.107173 1.4581e-05 0.00223038 
1.4581e-05 1.20442 0.158297 
0.00223038 0.158297 -1.06321 
0.121595 0.000713623 0.00635394 
0.000713623 1.20427 0.158285 
0.00635394 0.158285 -1.07748 
0.108351 0.000841257 0.00748169 
0.000841257 0.298588 0.135732 
0.00748169 0.135732 -0.158553 
0.0945199 0.000149087 0.003365 
0.000149087 0.29852 0.135703 
0.003365 0.135703 -0.144653 
0.0958284 3.31427e-05 0.00340308 
3.31427e-05 0.868216 0.247104 
0.00340308 0.247104 -0.715658 
0.109944 0.000725312 0.00752665 
0.000725312 0.868138 0.247127 
0.00752665 0.247127 -0.729695 
-0.0988429 0.000277575 0.0188374 
0.000277575 0.255589 0.313841 
0.0188374 0.313841 -0.550696 
-0.112661 2.15873e-05 0.00861682 
2.15873e-05 0.255556 0.313784 
0.00861682 0.313784 -0.536844 
-0.112137 -4.08342e-05 0.00864041 
-4.08342e-05 0.790028 0.573975 
0.00864041 0.573975 -1.07184 
-0.098289 0.000215154 0.0188425 
0.000215154 0.789888 0.574023 
0.0188425 0.574023 -1.08555 
-0.131582 0.000295453 0.0195711 
0.000295453 -0.338337 0.360393 
0.0195711 0.360393 0.0759691 
-0.140233 2.09301e-05 0.00935049 
2.09301e-05 -0.338422 0.360376 
0.00935049 0.360376 0.0847053 
-0.139755 -3.29025e-05 0.00933418 
-3.29025e-05 -0.146588 0.620567 
0.00933418 0.620567 -0.107607 
-0.130899 0.00024162 0.0195363 
0.00024162 -0.146742 0.620575 
0.0195363 0.620575 -0.116309 
0.118259 -0.000529717 0.0312404 
-0.000529717 0.328451 0.359933 
0.0312404 0.359933 -0.0815614 
0.135566 -6.67062e-05 0.0195711 
-6.67062e-05 0.328424 0.359894 
0.0195711 0.359894 -0.0988421 
0.134944 0.000109054 0.0195363 
0.000109054 0.136972 0.619892 
0.0195363 0.619892 0.093233 
0.117191 -0.000353957 0.0311839 
-0.000353957 0.137493 0.61991 
0.0311839 0.61991 0.110464 
0.0807017 -0.000511994 0.0303772 
-0.000511994 -0.264225 0.313161 
0.0303772 0.313161 0.548672 
0.104036 -7.06167e-05 0.0187079 
-7.06167e-05 -0.264377 0.313065 
0.0187079 0.313065 0.52549 
0.103307 0.000126731 0.01873 
0.000126731 -0.799604 0.573064 
0.01873 0.573064 1.06144 
0.0798367 -0.000314646 0.0303776 
-0.000314646 -0.79911 0.573138 
0.0303776 0.573138 1.08442 
-0.125142 -0.00131416 0.0113168 
-0.00131416 -0.307456 0.135226 
0.0113168 0.135226 0.15512 
-0.102036 -0.000252082 0.00735218 
-0.000252082 -0.307917 0.135191 
0.00735218 0.135191 0.132476 
-0.103571 0.000166542 0.00741419 
0.000166542 -0.878315 0.246513 
0.00741419 0.246513 0.704408 
-0.127109 -0.00089554 0.0114072 
-0.00089554 -0.877622 0.246532 
0.0114072 0.246532 0.727252 
-0.136674 -0.00132549 0.0102873 
-0.00132549 -0.545511 0.0458596 
0.0102873 0.0458596 0.404708 
-0.114876 -0.000234974 0.00632277 
-0.000234974 -0.545897 0.0458836 
0.00632277 0.0458836 0.383295 
-0.116431 0.000200118 0.00632597 
0.000200118 -1.21417 0.157206 
0.00632597 0.157206 1.05313 
-0.138748 -0.000890402 0.010319 
-0.000890402 -1.21333 0.157165 
0.010319 0.157165 1.0746 
-0.219738 -0.00143688 -0.00647707 
-0.00143688 -0.666027 -0.167677 
-0.00647707 -0.167677 0.348955 
-0.200525 -0.000249639 -0.00445428 
-0.000249639 -0.66661 -0.167675 
-0.00445428 -0.167675 0.330325 
-0.202179 0.000250257 -0.00443882 
0.000250257 -1.31852 -0.20386 
-0.00443882 -0.20386 0.983887 
-0.221473 -0.00093698 -0.00645353 
-0.00093698 -1.31787 -0.203862 
-0.00645353 -0.203862 1.00253 
-0.21375 -0.00146254 -0.00696715 
-0.00146254 -0.530448 -0.25583 
-0.00696715 -0.25583 0.207388 
-0.197941 -0.000267219 -0.00494436 
-0.000267219 -0.531031 -0.255793 
-0.00494436 -0.255793 0.192162 
-0.199548 0.000233583 -0.00496505 
0.000233583 -1.07058 -0.291977 
-0.00496505 -0.291977 0.733318 
-0.215568 -0.000961734 -0.00697977 
-0.000961734 -1.06993 -0.292016 
-0.00697977 -0.292016 0.748688 
-0.189694 -0.00103386 -0.0188118 
-0.00103386 -0.710486 -0.431702 
-0.0188118 -0.431702 0.432652 
-0.178581 -0.000134853 -0.0129293 
-0.000134853 -0.710988 -0.431691 
-0.0129293 -0.431691 0.422041 
-0.179752 0.000272704 -0.0129572 
0.000272704 -1.201 -0.573594 
-0.0129572 -0.573594 0.913219 
-0.190753 -0.000626299 -0.01887 
-0.000626299 -1.20051 -0.573591 
-0.01887 -0.573591 0.923734 
-0.174813 -0.00104123 -0.0188021 
-0.00104123 -0.274521 -0.489428 
-0.0188021 -0.489428 -0.0181945 
-0.165246 -0.000172489 -0.0129195 
-0.000172489 -0.275115 -0.489407 
-0.0129195 -0.489407 -0.0271672 
-0.166349 0.000222416 -0.0129582 
0.000222416 -0.582128 -0.631309 
-0.0129582 -0.631309 0.280949 
-0.175804 -0.000646322 -0.018871 
-0.000646322 -0.581791 -0.631318 
-0.018871 -0.631318 0.290067 
-0.0788115 -0.000374073 -0.0248154 
-0.000374073 -0.485264 -0.585972 
-0.0248154 -0.585972 0.383173 
-0.075662 -2.24844e-05 -0.0170929 
-2.24844e-05 -0.485415 -0.585969 
-0.0170929 -0.585969 0.380173 
-0.0760879 0.000141708 -0.0171431 
0.000141708 -0.716964 -0.780126 
-0.0171431 -0.780126 0.612149 
-0.0792259 -0.00020988 -0.0249248 
-0.00020988 -0.716698 -0.780107 
-0.0249248 -0.780107 0.615021 
-0.0605458 -0.00035978 -0.0247413 
-0.00035978 0.109443 -0.605441 
-0.0247413 -0.605441 -0.229801 
-0.0570105 -6.74748e-05 -0.0170188 
-6.74748e-05 0.109137 -0.605437 
-0.0170188 -0.605437 -0.23303 
-0.057377 7.57548e-05 -0.0170698 
7.57548e-05 0.0667451 -0.799594 
-0.0170698 -0.799594 -0.190271 
-0.0607545 -0.000216551 -0.0248516 
-0.000216551 0.0667618 -0.799576 
-0.0248516 -0.799576 -0.186911 
0.060546 0.00035978 -0.0247413 
0.00035978 -0.109443 -0.605441 
-0.0247413 -0.605441 0.229801 
0.0570107 6.74748e-05 -0.0170188 
6.74748e-05 -0.109137 -0.605437 
-0.0170188 -0.605437 0.23303 
0.0573772 -7.57548e-05 -0.0170698 
-7.57548e-05 -0.0667449 -0.799594 
-0.0170698 -0.799594 0.190271 
0.0607547 0.000216551 -0.0248516 
0.000216551 -0.0667617 -0.799576 
-0.0248516 -0.799576 0.186911 
0.0788116 0.000374073 -0.0248154 
0.000374073 0.485265 -0.585972 
-0.0248154 -0.585972 -0.383173 
0.0756622 2.24844e-05 -0.0170929 
2.24844e-05 0.485415 -0.585969 
-0.0170929 -0.585969 -0.380173 
0.0760881 -0.000141708 -0.0171431 
-0.000141708 0.716964 -0.780126 
-0.0171431 -0.780126 -0.612149 
0.0792261 0.00020988 -0.0249248 
0.00020988 0.716698 -0.780107 
-0.0249248 -0.780107 -0.61502 
0.174814 0.00104123 -0.0188021 
0.00104123 0.274521 -0.489428 
-0.0188021 -0.489428 0.0181947 
0.165246 0.000172489 -0.0129195 
0.000172489 0.275115 -0.489407 
-0.0129195 -0.489407 0.0271674 
0.16635 -0.000222416 -0.0129582 
-0.000222416 0.582128 -0.631309 
-0.0129582 -0.631309 -0.280949 
0.175804 0.000646322 -0.018871 
0.000646322 0.581791 -0.631318 
-0.018871 -0.631318 -0.290066 
0.189694 0.00103386 -0.0188118 
0.00103386 0.710487 -0.431702 
-0.0188118 -0.431702 -0.432652 
0.178581 0.000134853 -0.0129293 
0.000134853 0.710988 -0.431691 
-0.0129293 -0.431691 -0.422041 
0.179752 -0.000272704 -0.0129572 
-0.000272704 1.201 -0.573594 
-0.0129572 -0.573594 -0.913219 
0.190753 0.000626299 -0.01887 
0.000626299 1.20051 -0.573591 
-0.01887 -0.573591 -0.923734 
0.21375 0.00146254 -0.00696715 
0.00146254 0.530448 -0.25583 
-0.00696715 -0.25583 -0.207388 
0.197941 0.000267219 -0.00494436 
0.000267219 0.531031 -0.255793 
-0.00494436 -0.255793 -0.192162 
0.199548 -0.000233583 -0.00496505 
-0.000233583 1.07058 -0.291977 
-0.00496505 -0.291977 -0.733318 
0.215568 0.000961734 -0.00697977 
0.000961734 1.06993 -0.292016 
-0.00697977 -0.292016 -0.748688 
0.219738 0.00143688 -0.00647707 
0.00143688 0.666027 -0.167677 
-0.00647707 -0.167677 -0.348955 
0.200525 0.000249639 -0.00445428 
0.000249639 0.66661 -0.167675 
-0.00445428 -0.167675 -0.330325 
0.202179 -0.000250257 -0.00443882 
-0.000250257 1.31852 -0.20386 
-0.00443882 -0.20386 -0.983887 
0.221473 0.00093698 -0.00645353 
0.00093698 1.31787 -0.203862 
-0.00645353 -0.203862 -1.00253 
0.136674 0.00132549 0.0102873 
0.00132549 0.545512 0.0458596 
0.0102873 0.0458596 -0.404707 
0.114876 0.000234974 0.00632277 
0.000234974 0.545897 0.0458836 
0.00632277 0.0458836 -0.383295 
0.116431 -0.000200118 0.00632597 
-0.000200118 1.21417 0.157206 
0.00632597 0.157206 -1.05313 
0.138748 0.000890402 0.010319 
0.000890402 1.21333 0.157165 
0.010319 0.157165 -1.0746 
0.125142 0.00131416 0.0113168 
0.00131416 0.307456 0.135226 
0.0113168 0.135226 -0.15512 
0.102037 0.000252082 0.00735218 
0.000252082 0.307918 0.135191 
0.00735218 0.135191 -0.132476 
0.103571 -0.000166542 0.00741419 
-0.000166542 0.878315 0.246513 
0.00741419 0.246513 -0.704408 
0.127109 0.00089554 0.0114072 
0.00089554 0.877622 0.246532 
0.0114072 0.246532 -0.727252 
-0.0807016 0.000511994 0.0303772 
0.000511994 0.264225 0.313161 
0.0303772 0.313161 -0.548672 
-0.104036 7.06167e-05 0.0187079 
7.06167e-05 0.264377 0.313065 
0.0187079 0.313065 -0.52549 
-0.103307 -0.000126731 0.01873 
-0.000126731 0.799604 0.573064 
0.01873 0.573064 -1.06144 
-0.0798366 0.000314646 0.0303776 
0.000314646 0.79911 0.573138 
0.0303776 0.573138 -1.08442 
-0.118258 0.000529717 0.0312404 
0.000529717 -0.328451 0.359933 
0.0312404 0.359933 0.0815616 
-0.135566 6.67062e-05 0.0195711 
6.67062e-05 -0.328424 0.359894 
0.0195711 0.359894 0.0988422 
-0.134944 -0.000109054 0.0195363 
-0.000109054 -0.136972 0.619892 
0.0195363 0.619892 -0.0932328 
-0.117191 0.000353957 0.0311839 
0.000353957 -0.137493 0.61991 
0.0311839 0.61991 -0.110464 
0.0945217 -0.000826925 0.0442677 
-0.000826925 0.310635 0.358812 
0.0442677 0.358812 -0.0928759 
0.124991 -4.2649e-05 0.0312404 
-4.2649e-05 0.310056 0.358734 
0.0312404 0.358734 -0.122766 
0.124317 0.000454008 0.0311839 
0.000454008 0.118772 0.61813 
0.0311839 0.61813 0.0691924 
0.0929591 -0.000330268 0.0441907 
-0.000330268 0.12028 0.618167 
0.0441907 0.618167 0.099042 
0.0547459 -0.000828159 0.0439753 
-0.000828159 -0.279319 0.311702 
0.0439753 0.311702 0.536855 
0.0872504 -6.44181e-05 0.0309479 
-6.44181e-05 -0.28016 0.311581 
0.0309479 0.311581 0.505191 
0.0863999 0.000474032 0.0309337 
0.000474032 -0.816668 0.570978 
0.0309337 0.570978 1.04255 
0.0534508 -0.000289708 0.0439405 
-0.000289708 -0.815235 0.571057 
0.0439405 0.571057 1.07406 
-0.148478 -0.00157111 0.0151531 
-0.00157111 -0.32168 0.134054 
0.0151531 0.134054 0.142671 
-0.116691 5.8149e-05 0.0118875 
5.8149e-05 -0.324075 0.134047 
0.0118875 0.134047 0.113278 
-0.118044 0.00130221 0.0119633 
0.00130221 -0.895758 0.245058 
0.0119633 0.245058 0.686314 
-0.150296 -0.000327041 0.0152953 
-0.000327041 -0.89306 0.245026 
0.0152953 0.245026 0.715869 
-0.157885 -0.00163504 0.0158545 
-0.00163504 -0.558084 0.043953 
0.0158545 0.043953 0.388481 
-0.13206 6.06836e-05 0.0125889 
6.06836e-05 -0.560372 0.0440192 
0.0125889 0.0440192 0.364944 
-0.133371 0.00134279 0.0125922 
0.00134279 -1.23027 0.15503 
0.0125922 0.15503 1.03615 
-0.160043 -0.000352938 0.0159242 
-0.000352938 -1.2273 0.154926 
0.0159242 0.154926 1.05985 
-0.233867 -0.00124266 -0.00702543 
-0.00124266 -0.675709 -0.168869 
-0.00702543 -0.168869 0.332886 
-0.212445 0.000440679 -0.00417553 
0.000440679 -0.678906 -0.168845 
-0.00417553 -0.168845 0.31466 
-0.213235 0.0019768 -0.00418033 
0.0019768 -1.33264 -0.205024 
-0.00418033 -0.205024 0.969184 
-0.23437 0.000293454 -0.00703855 
0.000293454 -1.32966 -0.205046 
-0.00703855 -0.205046 0.987336 
-0.230598 -0.00126626 -0.00512533 
-0.00126626 -0.539062 -0.257728 
-0.00512533 -0.257728 0.19297 
-0.213424 0.000408765 -0.00227542 
0.000408765 -0.542288 -0.257687 
-0.00227542 -0.257687 0.179022 
-0.214118 0.00194248 -0.00229753 
0.00194248 -1.08322 -0.293867 
-0.00229753 -0.293867 0.720645 
-0.231159 0.00026746 -0.00515575 
0.00026746 -1.08027 -0.293905 
-0.00515575 -0.293905 0.734743 
-0.193171 -0.000622848 -0.020175 
-0.000622848 -0.715735 -0.432727 
-0.020175 -0.432727 0.416001 
-0.184404 0.000589836 -0.0141201 
0.000589836 -0.718484 -0.432737 
-0.0141201 -0.432737 0.409983 
-0.184519 0.00185802 -0.0141878 
0.00185802 -1.21014 -0.574296 
-0.0141878 -0.574296 0.901759 
-0.192798 0.000645332 -0.0203431 
0.000645332 -1.20776 -0.574246 
-0.0203431 -0.574246 0.90765 
-0.18843 -0.000559199 -0.018123 
-0.000559199 -0.279295 -0.490929 
-0.018123 -0.490929 -0.0251794 
-0.177388 0.000553097 -0.012068 
0.000553097 -0.28223 -0.490955 
-0.012068 -0.490955 -0.0332859 
-0.177466 0.00178133 -0.0121186 
0.00178133 -0.589969 -0.632514 
-0.0121186 -0.632514 0.274531 
-0.187646 0.000669038 -0.018274 
0.000669038 -0.587946 -0.632448 
-0.018274 -0.632448 0.282687 
-0.0738826 -0.000207856 -0.0254119 
-0.000207856 -0.486854 -0.586876 
-0.0254119 -0.586876 0.371156 
-0.0745718 0.000280576 -0.0180814 
0.000280576 -0.487847 -0.586936 
-0.0180814 -0.586936 0.372839 
-0.0744909 0.000792262 -0.0181725 
0.000792262 -0.720395 -0.780523 
-0.0181725 -0.780523 0.605306 
-0.0738561 0.000303829 -0.0256639 
0.000303829 -0.71929 -0.7804 
-0.0256639 -0.7804 0.603566 
-0.0708076 -7.71307e-05 -0.02454 
-7.71307e-05 0.107923 -0.606509 
-0.02454 -0.606509 -0.226695 
-0.0643074 0.000250342 -0.0172096 
0.000250342 0.106641 -0.606581 
-0.0172096 -0.606581 -0.231913 
-0.0642639 0.000699099 -0.0172895 
0.000699099 0.0643769 -0.800168 
-0.0172895 -0.800168 -0.189693 
-0.0700239 0.000371626 -0.0247809 
0.000371626 0.0649117 -0.800033 
-0.0247809 -0.800033 -0.184468 
0.0708077 7.71307e-05 -0.02454 
7.71307e-05 -0.107923 -0.606509 
-0.02454 -0.606509 0.226695 
0.0643076 -0.000250342 -0.0172096 
-0.000250342 -0.106641 -0.606581 
-0.0172096 -0.606581 0.231914 
0.064264 -0.000699099 -0.0172895 
-0.000699099 -0.0643767 -0.800168 
-0.0172895 -0.800168 0.189693 
0.070024 -0.000371626 -0.0247809 
-0.000371626 -0.0649115 -0.800033 
-0.0247809 -0.800033 0.184468 
0.0738827 0.000207856 -0.0254119 
0.000207856 0.486854 -0.586876 
-0.0254119 -0.586876 -0.371156 
0.0745719 -0.000280576 -0.0180814 
-0.000280576 0.487847 -0.586936 
-0.0180814 -0.586936 -0.372839 
0.074491 -0.000792262 -0.0181725 
-0.000792262 0.720395 -0.780523 
-0.0181725 -0.780523 -0.605306 
0.0738562 -0.000303829 -0.0256639 
-0.000303829 0.71929 -0.7804 
-0.0256639 -0.7804 -0.603566 
0.18843 0.000559199 -0.018123 
0.000559199 0.279295 -0.490929 
-0.018123 -0.490929 0.0251795 
0.177389 -0.000553097 -0.012068 
-0.000553097 0.28223 -0.490955 
-0.012068 -0.490955 0.0332861 
0.177467 -0.00178133 -0.0121186 
-0.00178133 0.589969 -0.632514 
-0.0121186 -0.632514 -0.274531 
0.187646 -0.000669038 -0.018274 
-0.000669038 0.587946 -0.632448 
-0.018274 -0.632448 -0.282687 
0.193171 0.000622848 -0.020175 
0.000622848 0.715735 -0.432727 
-0.020175 -0.432727 -0.416001 
0.184404 -0.000589836 -0.0141201 
-0.000589836 0.718484 -0.432737 
-0.0141201 -0.432737 -0.409983 
0.184519 -0.00185802 -0.0141878 
-0.00185802 1.21014 -0.574296 
-0.0141878 -0.574296 -0.901759 
0.192799 -0.000645332 -0.0203431 
-0.000645332 1.20776 -0.574246 
-0.0203431 -0.574246 -0.90765 
0.230598 0.00126626 -0.00512533 
0.00126626 0.539062 -0.257728 
-0.00512533 -0.257728 -0.192969 
0.213424 -0.000408765 -0.00227542 
-0.000408765 0.542288 -0.257687 
-0.00227542 -0.257687 -0.179021 
0.214119 -0.00194248 -0.00229753 
-0.00194248 1.08322 -0.293867 
-0.00229753 -0.293867 -0.720645 
0.231159 -0.00026746 -0.00515575 
-0.00026746 1.08027 -0.293905 
-0.00515575 -0.293905 -0.734743 
0.233867 0.00124266 -0.00702543 
0.00124266 0.675709 -0.168869 
-0.00702543 -0.168869 -0.332886 
0.212445 -0.000440679 -0.00417553 
-0.000440679 0.678906 -0.168845 
-0.00417553 -0.168845 -0.31466 
0.213235 -0.0019768 -0.00418033 
-0.0019768 1.33264 -0.205024 
-0.00418033 -0.205024 -0.969184 
0.23437 -0.000293454 -0.00703855 
-0.000293454 1.32966 -0.205046 
-0.00703855 -0.205046 -0.987336 
0.157885 0.00163504 0.0158545 
0.00163504 0.558084 0.043953 
0.0158545 0.043953 -0.388481 
0.13206 -6.06836e-05 0.0125889 
-6.06836e-05 0.560372 0.0440192 
0.0125889 0.0440192 -0.364944 
0.133371 -0.00134279 0.0125922 
-0.00134279 1.23027 0.15503 
0.0125922 0.15503 -1.03615 
0.160043 0.000352938 0.0159242 
0.000352938 1.2273 0.154926 
0.0159242 0.154926 -1.05985 
0.148478 0.00157111 0.0151531 
0.00157111 0.321681 0.134054 
0.0151531 0.134054 -0.14267 
0.116691 -5.8149e-05 0.0118875 
-5.8149e-05 0.324075 0.134047 
0.0118875 0.134047 -0.113278 
0.118044 -0.00130221 0.0119633 
-0.00130221 0.895758 0.245058 
0.0119633 0.245058 -0.686314 
0.150296 0.000327041 0.0152953 
0.000327041 0.893061 0.245026 
0.0152953 0.245026 -0.715869 
-0.0547457 0.000828159 0.0439753 
0.000828159 0.279319 0.311702 
0.0439753 0.311702 -0.536854 
-0.0872503 6.44181e-05 0.0309479 
6.44181e-05 0.28016 0.311581 
0.0309479 0.311581 -0.50519 
-0.0863998 -0.000474032 0.0309337 
-0.000474032 0.816668 0.570978 
0.0309337 0.570978 -1.04255 
-0.0534507 0.000289708 0.0439405 
0.000289708 0.815235 0.571057 
0.0439405 0.571057 -1.07406 
-0.0945215 0.000826925 0.0442677 
0.000826925 -0.310635 0.358812 
0.0442677 0.358812 0.0928761 
-0.124991 4.2649e-05 0.0312404 
4.2649e-05 -0.310056 0.358734 
0.0312404 0.358734 0.122766 
-0.124316 -0.000454008 0.0311839 
-0.000454008 -0.118772 0.61813 
0.0311839 0.61813 -0.0691922 
-0.092959 0.000330268 0.0441907 
0.000330268 -0.12028 0.618167 
0.0441907 0.618167 -0.0990418 
0.0547828 -0.00100379 0.0573544 
-0.00100379 0.281554 0.356175 
0.0573544 0.356175 -0.112531 
0.104928 0.000235838 0.0442677 
0.000235838 0.279302 0.356034 
0.0442677 0.356034 -0.160425 
0.104709 0.00149326 0.0441907 
0.00149326 0.0870556 0.613797 
0.0441907 0.613797 0.0320407 
0.0530208 0.000253627 0.0572823 
0.000253627 0.0908197 0.613877 
0.0572823 0.613877 0.0799649 
0.020858 -0.00107196 0.0589503 
-0.00107196 -0.30281 0.308682 
0.0589503 0.308682 0.505758 
0.0602814 0.000172542 0.0458636 
0.000172542 -0.305534 0.308599 
0.0458636 0.308599 0.469058 
0.0598099 0.00148991 0.0457297 
0.00148991 -0.843833 0.566361 
0.0457297 0.566361 1.00783 
0.0193266 0.000245416 0.0588213 
0.000245416 -0.840273 0.566385 
0.0588213 0.566385 1.04475 
-0.177923 -0.000746675 0.0185475 
-0.000746675 -0.341369 0.131514 
0.0185475 0.131514 0.114276 
-0.139678 0.00157379 0.0170414 
0.00157379 -0.348992 0.131613 
0.0170414 0.131613 0.0836542 
-0.13919 0.00482359 0.0170845 
0.00482359 -0.92277 0.241662 
0.0170845 0.241662 0.656944 
-0.177589 0.00250312 0.0187128 
0.00250312 -0.914844 0.241486 
0.0187128 0.241486 0.687416 
-0.181626 -0.000925946 0.0238984 
-0.000925946 -0.574169 0.0407173 
0.0238984 0.0407173 0.350779 
-0.15848 0.00151674 0.0223924 
0.00151674 -0.581709 0.0408621 
0.0223924 0.0408621 0.335173 
-0.157761 0.00484306 0.0223904 
0.00484306 -1.25328 0.150911 
0.0223904 0.150911 1.00602 
-0.182069 0.00240036 0.0240187 
0.00240036 -1.24493 0.15069 
0.0240187 0.15069 1.02198 
-0.245534 0.000929359 -0.0041977 
0.000929359 -0.686061 -0.170315 
-0.0041977 -0.170315 0.29612 
-0.229158 0.00308246 -0.000487548 
0.00308246 -0.696364 -0.170241 
-0.000487548 -0.170241 0.290045 
-0.226341 0.00717756 -0.000572386 
0.00717756 -1.3523 -0.206463 
-0.000572386 -0.206463 0.943168 
-0.241494 0.00502445 -0.0043397 
0.00502445 -1.3429 -0.206523 
-0.0043397 -0.206523 0.94892 
-0.249739 0.000941676 0.00346701 
0.000941676 -0.547666 -0.259721 
0.00346701 -0.259721 0.161929 
-0.237029 0.00303762 0.00717716 
0.00303762 -0.558091 -0.259718 
0.00717716 -0.259718 0.159643 
-0.234075 0.00711864 0.00716338 
0.00711864 -1.10039 -0.29594 
0.00716338 -0.29594 0.698987 
-0.245581 0.0050227 0.00339607 
0.0050227 -1.09117 -0.295929 
0.00339607 -0.295929 0.701277 
-0.189473 0.00167184 -0.0131628 
0.00167184 -0.719153 -0.432507 
-0.0131628 -0.432507 0.379535 
-0.190925 0.00310502 -0.00787255 
0.00310502 -0.727993 -0.432578 
-0.00787255 -0.432578 0.389827 
-0.187378 0.00650936 -0.008024 
0.00650936 -1.22142 -0.573179 
-0.008024 -0.573179 0.879703 
-0.184716 0.00507618 -0.0135342 
0.00507618 -1.21369 -0.573009 
-0.0135342 -0.573009 0.869318 
-0.20652 0.00191042 -0.00648714 
0.00191042 -0.283145 -0.491021 
-0.00648714 -0.491021 -0.039426 
-0.196416 0.00312361 -0.00119694 
0.00312361 -0.292305 -0.491187 
-0.00119694 -0.491187 -0.0403697 
-0.193035 0.00643 -0.0012539 
0.00643 -0.60083 -0.631787 
-0.0012539 -0.631787 0.264774 
-0.200614 0.00521682 -0.0067641 
0.00521682 -0.593865 -0.631523 
-0.0067641 -0.631523 0.265389 
-0.0606086 0.000686571 -0.0139424 
0.000686571 -0.48668 -0.585469 
-0.0139424 -0.585469 0.345544 
-0.0707477 0.00127528 -0.00848579 
0.00127528 -0.490021 -0.585682 
-0.00848579 -0.585682 0.359024 
-0.0690099 0.00264312 -0.00864385 
0.00264312 -0.723497 -0.777649 
-0.00864385 -0.777649 0.590762 
-0.059114 0.00205441 -0.0144102 
0.00205441 -0.720156 -0.777287 
-0.0144102 -0.777287 0.577525 
-0.0880897 0.00106843 -0.0113164 
0.00106843 0.106182 -0.605198 
-0.0113164 -0.605198 -0.219837 
-0.0768023 0.00134738 -0.00585979 
0.00134738 0.1024 -0.605453 
-0.00585979 -0.605453 -0.227343 
-0.0754814 0.00256646 -0.00597592 
0.00256646 0.0601517 -0.797419 
-0.00597592 -0.797419 -0.186415 
-0.0847928 0.00228751 -0.0117422 
0.00228751 0.0623871 -0.797016 
-0.0117422 -0.797016 -0.179339 
0.0880898 -0.00106843 -0.0113164 
-0.00106843 -0.106182 -0.605198 
-0.0113164 -0.605198 0.219837 
0.0768024 -0.00134738 -0.00585979 
-0.00134738 -0.1024 -0.605453 
-0.00585979 -0.605453 0.227343 
0.0754816 -0.00256646 -0.00597592 
-0.00256646 -0.0601515 -0.797419 
-0.00597592 -0.797419 0.186416 
0.084793 -0.00228751 -0.0117422 
-0.00228751 -0.0623869 -0.797016 
-0.0117422 -0.797016 0.17934 
0.0606088 -0.000686571 -0.0139424 
-0.000686571 0.486681 -0.585469 
-0.0139424 -0.585469 -0.345544 
0.0707478 -0.00127528 -0.00848579 
-0.00127528 0.490021 -0.585682 
-0.00848579 -0.585682 -0.359023 
0.06901 -0.00264312 -0.00864385 
-0.00264312 0.723498 -0.777649 
-0.00864385 -0.777649 -0.590762 
0.0591142 -0.00205441 -0.0144102 
-0.00205441 0.720156 -0.777287 
-0.0144102 -0.777287 -0.577525 
0.206521 -0.00191042 -0.00648714 
-0.00191042 0.283145 -0.491021 
-0.00648714 -0.491021 0.0394262 
0.196416 -0.00312361 -0.00119694 
-0.00312361 0.292305 -0.491187 
-0.00119694 -0.491187 0.0403698 
0.193035 -0.00643 -0.0012539 
-0.00643 0.60083 -0.631787 
-0.0012539 -0.631787 -0.264774 
0.200614 -0.00521682 -0.0067641 
-0.00521682 0.593865 -0.631523 
-0.0067641 -0.631523 -0.265388 
0.189474 -0.00167184 -0.0131628 
-0.00167184 0.719153 -0.432507 
-0.0131628 -0.432507 -0.379535 
0.190925 -0.00310502 -0.00787255 
-0.00310502 0.727993 -0.432578 
-0.00787255 -0.432578 -0.389826 
0.187378 -0.00650936 -0.008024 
-0.00650936 1.22142 -0.573179 
-0.008024 -0.573179 -0.879703 
0.184716 -0.00507618 -0.0135342 
-0.00507618 1.21369 -0.573009 
-0.0135342 -0.573009 -0.869318 
0.24974 -0.000941676 0.00346701 
-0.000941676 0.547666 -0.259721 
0.00346701 -0.259721 -0.161929 
0.237029 -0.00303762 0.00717716 
-0.00303762 0.558091 -0.259718 
0.00717716 -0.259718 -0.159643 
0.234075 -0.00711864 0.00716338 
-0.00711864 1.10039 -0.29594 
0.00716338 -0.29594 -0.698987 
0.245581 -0.0050227 0.00339607 
-0.0050227 1.09117 -0.295929 
0.00339607 -0.295929 -0.701277 
0.245534 -0.000929359 -0.0041977 
-0.000929359 0.686062 -0.170315 
-0.0041977 -0.170315 -0.29612 
0.229158 -0.00308246 -0.000487548 
-0.00308246 0.696364 -0.170241 
-0.000487548 -0.170241 -0.290045 
0.226341 -0.00717756 -0.000572386 
-0.00717756 1.3523 -0.206463 
-0.000572386 -0.206463 -0.943168 
0.241494 -0.00502445 -0.0043397 
-0.00502445 1.3429 -0.206523 
-0.0043397 -0.206523 -0.94892 
0.181626 0.000925946 0.0238984 
0.000925946 0.574169 0.0407173 
0.0238984 0.0407173 -0.350779 
0.158481 -0.00151674 0.0223924 
-0.00151674 0.581709 0.0408621 
0.0223924 0.0408621 -0.335173 
0.157761 -0.00484306 0.0223904 
-0.00484306 1.25328 0.150911 
0.0223904 0.150911 -1.00602 
0.182069 -0.00240036 0.0240187 
-0.00240036 1.24493 0.15069 
0.0240187 0.15069 -1.02198 
0.177923 0.000746675 0.0185475 
0.000746675 0.341369 0.131514 
0.0185475 0.131514 -0.114275 
0.139679 -0.00157379 0.0170414 
-0.00157379 0.348992 0.131613 
0.0170414 0.131613 -0.0836541 
0.13919 -0.00482359 0.0170845 
-0.00482359 0.92277 0.241662 
0.0170845 0.241662 -0.656943 
0.177589 -0.00250312 0.0187128 
-0.00250312 0.914844 0.241486 
0.0187128 0.241486 -0.687416 
-0.0208578 0.00107196 0.0589503 
0.00107196 0.30281 0.308682 
0.0589503 0.308682 -0.505757 
-0.0602813 -0.000172542 0.0458636 
-0.000172542 0.305534 0.308599 
0.0458636 0.308599 -0.469058 
-0.0598097 -0.00148991 0.0457297 
-0.00148991 0.843833 0.566361 
0.0457297 0.566361 -1.00783 
-0.0193265 -0.000245416 0.0588213 
-0.000245416 0.840274 0.566385 
0.0588213 0.566385 -1.04475 
-0.0547827 0.00100379 0.0573544 
0.00100379 -0.281554 0.356175 
0.0573544 0.356175 0.112531 
-0.104928 -0.000235838 0.0442677 
-0.000235838 -0.279302 0.356034 
0.0442677 0.356034 0.160425 
-0.104709 -0.00149326 0.0441907 
-0.00149326 -0.0870554 0.613797 
0.0441907 0.613797 -0.0320405 
-0.0530207 -0.000253627 0.0572823 
-0.000253627 -0.0908196 0.613877 
0.0572823 0.613877 -0.0799648 
-0.00781021 -0.000400319 0.0673151 
-0.000400319 0.237659 0.350105 
0.0673151 0.350105 -0.144234 
0.0700694 0.00133282 0.0573544 
0.00133282 0.23117 0.349879 
0.0573544 0.349879 -0.215625 
0.0719561 0.00426323 0.0572823 
0.00426323 0.0348147 0.603647 
0.0572823 0.603647 -0.0211563 
-0.00821105 0.00253009 0.0673251 
0.00253009 0.0433321 0.603815 
0.0673251 0.603815 0.0504935 
-0.0195232 -0.000636335 0.073085 
-0.000636335 -0.335509 0.302455 
0.073085 0.302455 0.440646 
0.0206047 0.00117892 0.0631243 
0.00117892 -0.342761 0.302593 
0.0631243 0.302593 0.407771 
0.0222265 0.00416675 0.0626888 
0.00416675 -0.882992 0.556361 
0.0626888 0.556361 0.94638 
-0.0200263 0.00235149 0.0727316 
0.00235149 -0.874981 0.556166 
0.0727316 0.556166 0.980622 
-0.211543 0.0034323 0.0210177 
0.0034323 -0.364167 0.126243 
0.0210177 0.126243 0.0597137 
-0.171984 0.00623803 0.0227215 
0.00623803 -0.384321 0.126609 
0.0227215 0.126609 0.0403083 
-0.165141 0.0140116 0.0225803 
0.0140116 -0.960901 0.234103 
0.0225803 0.234103 0.610046 
-0.203399 0.0112058 0.0210137 
0.0112058 -0.940892 0.233619 
0.0210137 0.233619 0.628294 
-0.205358 0.0030753 0.0358093 
0.0030753 -0.589274 0.0355744 
0.0358093 0.0355744 0.278636 
-0.195141 0.00601828 0.0375132 
0.00601828 -0.60957 0.0358079 
0.0375132 0.0358079 0.288715 
-0.187623 0.0139098 0.0375043 
0.0139098 -1.28131 0.143301 
0.0375043 0.143301 0.952933 
-0.198504 0.0109669 0.0359377 
0.0109669 -1.26091 0.14295 
0.0359377 0.14295 0.943419 
-0.249675 0.00818438 0.00538673 
0.00818438 -0.690788 -0.171216 
0.00538673 -0.171216 0.22616 
-0.249007 0.0104091 0.00941703 
0.0104091 -0.717906 -0.171065 
0.00941703 -0.171065 0.25261 
-0.235897 0.0203475 0.00914586 
0.0203475 -1.3751 -0.207461 
0.00914586 -0.207461 0.896697 
-0.23376 0.0181227 0.00490588 
0.0181227 -1.35 -0.207557 
0.00490588 -0.207557 0.869454 
-0.270598 0.00835362 0.0241074 
0.00835362 -0.549896 -0.26016 
0.0241074 -0.26016 0.106191 
-0.269355 0.0103687 0.0281377 
0.0103687 -0.577356 -0.260303 
0.0281377 -0.260303 0.132408 
-0.256104 0.0202523 0.0281599 
0.0202523 -1.11979 -0.296698 
0.0281599 -0.296698 0.661589 
-0.253887 0.0182372 0.0239199 
0.0182372 -1.09527 -0.2965 
0.0239199 -0.2965 0.634853 
-0.174048 0.00846186 0.00878254 
0.00846186 -0.713738 -0.427786 
0.00878254 -0.427786 0.312441 
-0.195471 0.00972094 0.0115079 
0.00972094 -0.736861 -0.427991 
0.0115079 -0.427991 0.356988 
-0.182441 0.0179942 0.0112297 
0.0179942 -1.23049 -0.566148 
0.0112297 -0.566148 0.837581 
-0.158936 0.0167351 0.00809498 
0.0167351 -1.20958 -0.565735 
0.00809498 -0.565735 0.793171 
-0.230239 0.00906896 0.0239605 
0.00906896 -0.281584 -0.48582 
0.0239605 -0.48582 -0.0635214 
-0.223129 0.00991874 0.0266859 
0.00991874 -0.305129 -0.486283 
0.0266859 -0.486283 -0.0470869 
-0.210781 0.0179849 0.0266652 
0.0179849 -0.614062 -0.62444 
0.0266652 -0.62444 0.249498 
-0.212616 0.0171351 0.0235305 
0.0171351 -0.594504 -0.62377 
0.0235305 -0.62377 0.231775 
-0.0358169 0.00329975 0.0179736 
0.00329975 -0.48035 -0.576834 
0.0179736 -0.576834 0.299281 
-0.0618451 0.00383425 0.0192307 
0.00383425 -0.489275 -0.577331 
0.0192307 -0.577331 0.334234 
-0.0559978 0.00713612 0.0190191 
0.00713612 -0.722323 -0.765149 
0.0190191 -0.765149 0.561435 
-0.0307528 0.00660162 0.0172766 
0.00660162 -0.713637 -0.764357 
0.0172766 -0.764357 0.527504 
-0.114526 0.00414023 0.0237601 
0.00414023 0.104381 -0.596366 
0.0237601 -0.596366 -0.206741 
-0.0960074 0.00418922 0.0250171 
0.00418922 0.0950145 -0.596961 
0.0250171 -0.596961 -0.215893 
-0.0914171 0.00719603 0.0249038 
0.00719603 0.052155 -0.784779 
0.0249038 -0.784779 -0.177624 
-0.106034 0.00714704 0.0231613 
0.00714704 0.0590807 -0.78389 
0.0231613 -0.78389 -0.169933 
0.114526 -0.00414023 0.0237601 
-0.00414023 -0.104381 -0.596366 
0.0237601 -0.596366 0.206741 
0.0960075 -0.00418922 0.0250171 
-0.00418922 -0.0950144 -0.596961 
0.0250171 -0.596961 0.215893 
0.0914173 -0.00719603 0.0249038 
-0.00719603 -0.0521549 -0.784779 
0.0249038 -0.784779 0.177624 
0.106034 -0.00714704 0.0231613 
-0.00714704 -0.0590806 -0.78389 
0.0231613 -0.78389 0.169933 
0.035817 -0.00329975 0.0179736 
-0.00329975 0.48035 -0.576834 
0.0179736 -0.576834 -0.299281 
0.0618452 -0.00383425 0.0192307 
-0.00383425 0.489276 -0.577331 
0.0192307 -0.577331 -0.334234 
0.055998 -0.00713612 0.0190191 
-0.00713612 0.722323 -0.765149 
0.0190191 -0.765149 -0.561435 
0.0307529 -0.00660162 0.0172766 
-0.00660162 0.713637 -0.764357 
0.0172766 -0.764357 -0.527504 
0.23024 -0.00906896 0.0239605 
-0.00906896 0.281584 -0.48582 
0.0239605 -0.48582 0.0635215 
0.223129 -0.00991874 0.0266859 
-0.00991874 0.305129 -0.486283 
0.0266859 -0.486283 0.047087 
0.210781 -0.0179849 0.0266652 
-0.0179849 0.614062 -0.62444 
0.0266652 -0.62444 -0.249497 
0.212616 -0.0171351 0.0235305 
-0.0171351 0.594504 -0.62377 
0.0235305 -0.62377 -0.231775 
0.174048 -0.00846186 0.00878254 
-0.00846186 0.713738 -0.427786 
0.00878254 -0.427786 -0.312441 
0.195471 -0.00972094 0.0115079 
-0.00972094 0.736861 -0.427991 
0.0115079 -0.427991 -0.356987 
0.182441 -0.0179942 0.0112297 
-0.0179942 1.23049 -0.566148 
0.0112297 -0.566148 -0.837581 
0.158936 -0.0167351 0.00809498 
-0.0167351 1.20958 -0.565735 
0.00809498 -0.565735 -0.793171 
0.270598 -0.00835362 0.0241074 
-0.00835362 0.549896 -0.26016 
0.0241074 -0.26016 -0.106191 
0.269355 -0.0103687 0.0281377 
-0.0103687 0.577356 -0.260303 
0.0281377 -0.260303 -0.132408 
0.256104 -0.0202523 0.0281599 
-0.0202523 1.11979 -0.296698 
0.0281599 -0.296698 -0.661589 
0.253887 -0.0182372 0.0239199 
-0.0182372 1.09527 -0.2965 
0.0239199 -0.2965 -0.634853 
0.249675 -0.00818438 0.00538673 
-0.00818438 0.690788 -0.171216 
0.00538673 -0.171216 -0.22616 
0.249007 -0.0104091 0.00941703 
-0.0104091 0.717906 -0.171065 
0.00941703 -0.171065 -0.25261 
0.235897 -0.0203475 0.00914586 
-0.0203475 1.3751 -0.207461 
0.00914586 -0.207461 -0.896697 
0.23376 -0.0181227 0.00490588 
-0.0181227 1.35 -0.207557 
0.00490588 -0.207557 -0.869454 
0.205358 -0.0030753 0.0358093 
-0.0030753 0.589274 0.0355744 
0.0358093 0.0355744 -0.278636 
0.195141 -0.00601828 0.0375132 
-0.00601828 0.60957 0.0358079 
0.0375132 0.0358079 -0.288715 
0.187623 -0.0139098 0.0375043 
-0.0139098 1.28131 0.143301 
0.0375043 0.143301 -0.952933 
0.198504 -0.0109669 0.0359377 
-0.0109669 1.26091 0.14295 
0.0359377 0.14295 -0.943419 
0.211543 -0.0034323 0.0210177 
-0.0034323 0.364168 0.126243 
0.0210177 0.126243 -0.0597136 
0.171984 -0.00623803 0.0227215 
-0.00623803 0.384321 0.126609 
0.0227215 0.126609 -0.0403082 
0.165141 -0.0140116 0.0225803 
-0.0140116 0.960901 0.234103 
0.0225803 0.234103 -0.610046 
0.203399 -0.0112058 0.0210137 
-0.0112058 0.940892 0.233619 
0.0210137 0.233619 -0.628294 
0.0195234 0.000636335 0.073085 
0.000636335 0.335509 0.302455 
0.073085 0.302455 -0.440646 
-0.0206046 -0.00117892 0.0631243 
-0.00117892 0.342761 0.302593 
0.0631243 0.302593 -0.407771 
-0.0222263 -0.00416675 0.0626888 
-0.00416675 0.882992 0.556361 
0.0626888 0.556361 -0.94638 
0.0200265 -0.00235149 0.0727316 
-0.00235149 0.874981 0.556166 
0.0727316 0.556166 -0.980622 
0.00781035 0.000400319 0.0673151 
0.000400319 -0.237658 0.350105 
0.0673151 0.350105 0.144234 
-0.0700693 -0.00133282 0.0573544 
-0.00133282 -0.23117 0.349879 
0.0573544 0.349879 0.215625 
-0.071956 -0.00426323 0.0572823 
-0.00426323 -0.0348145 0.603647 
0.0572823 0.603647 0.0211565 
0.00821119 -0.00253009 0.0673251 
-0.00253009 -0.0433319 0.603815 
0.0673251 0.603815 -0.0504933 
-0.0998772 0.00286386 0.0684953 
0.00286386 0.177429 0.336439 
0.0684953 0.336439 -0.192103 
0.0141299 0.0046729 0.0673151 
0.0046729 0.160698 0.336112 
0.0673151 0.336112 -0.289379 
0.0219234 0.0111026 0.0673251 
0.0111026 -0.0465897 0.580742 
0.0673251 0.580742 -0.0898848 
-0.0936682 0.00929351 0.0686142 
0.00929351 -0.029055 0.581031 
0.0686142 0.581031 0.00817203 
-0.0624256 0.00241737 0.0820521 
0.00241737 -0.373547 0.289675 
0.0820521 0.289675 0.321422 
-0.0341589 0.00433528 0.0808718 
0.00433528 -0.391456 0.29033 
0.0808718 0.29033 0.311063 
-0.0262828 0.0108037 0.079899 
0.0108037 -0.931632 0.53496 
0.079899 0.53496 0.843364 
-0.0567861 0.00888584 0.0811881 
0.00888584 -0.915101 0.534266 
0.0811881 0.534266 0.857336 
-0.245213 0.0161245 0.0228023 
0.0161245 -0.381575 0.115889 
0.0228023 0.115889 -0.0337759 
-0.213327 0.0184536 0.0288045 
0.0184536 -0.429612 0.116708 
0.0288045 0.116708 -0.0176254 
-0.188845 0.0360499 0.0281811 
0.0360499 -1.00895 0.217992 
0.0281811 0.217992 0.537233 
-0.216743 0.0337208 0.0222064 
0.0337208 -0.961695 0.217053 
0.0222064 0.217053 0.517874 
-0.227981 0.0155744 0.0542371 
0.0155744 -0.590868 0.0278999 
0.0542371 0.0278999 0.158285 
-0.242675 0.0179309 0.0602392 
0.0179309 -0.639738 0.0281678 
0.0602392 0.0281678 0.221849 
-0.216843 0.0356474 0.0601675 
0.0356474 -1.30605 0.129452 
0.0601675 0.129452 0.862334 
-0.200983 0.0332909 0.0541928 
0.0332909 -1.25909 0.129064 
0.0541928 0.129064 0.799512 
-0.24228 0.0266842 0.0271901 
0.0266842 -0.67502 -0.169236 
0.0271901 -0.169236 0.109365 
-0.268619 0.0278234 0.0298167 
0.0278234 -0.738465 -0.168971 
0.0298167 -0.168971 0.199149 
-0.231339 0.0503047 0.0291358 
0.0503047 -1.39209 -0.205809 
0.0291358 -0.205809 0.815494 
-0.200727 0.0491656 0.0261051 
0.0491656 -1.33131 -0.205936 
0.0261051 -0.205936 0.724102 
-0.295621 0.0271718 0.0642928 
0.0271718 -0.531837 -0.254866 
0.0642928 -0.254866 0.0195228 
-0.309654 0.0279069 0.0669194 
0.0279069 -0.595978 -0.255384 
0.0669194 -0.255384 0.097697 
-0.27262 0.05025 0.0670221 
0.05025 -1.13387 -0.292223 
0.0670221 -0.292223 0.598551 
-0.252015 0.049515 0.0639914 
0.049515 -1.0744 -0.291566 
0.0639914 -0.291566 0.518481 
-0.14605 0.0244006 0.0539529 
0.0244006 -0.684549 -0.411368 
0.0539529 -0.411368 0.204374 
-0.194849 0.0246948 0.0515946 
0.0246948 -0.737646 -0.411811 
0.0515946 -0.411811 0.306271 
-0.161226 0.0432627 0.0511972 
0.0432627 -1.22585 -0.544228 
0.0511972 -0.544228 0.760853 
-0.11112 0.0429685 0.0530517 
0.0429685 -1.17497 -0.543452 
0.0530517 -0.543452 0.659869 
-0.261918 0.0255635 0.0826717 
0.0255635 -0.266241 -0.466961 
0.0826717 -0.466961 -0.0980647 
-0.256402 0.0253539 0.0803133 
0.0253539 -0.319547 -0.46791 
0.0803133 -0.46791 -0.0502753 
-0.224648 0.0435894 0.0804217 
0.0435894 -0.62704 -0.600327 
0.0804217 -0.600327 0.225463 
-0.222866 0.043799 0.0822762 
0.043799 -0.577857 -0.599046 
0.0822762 -0.599046 0.174499 
-0.000605284 0.00933057 0.0796399 
0.00933057 -0.458521 -0.550791 
0.0796399 -0.550791 0.226331 
-0.046417 0.00948832 0.0743264 
0.00948832 -0.479089 -0.551702 
0.0743264 -0.551702 0.292711 
-0.0321484 0.0167781 0.0741677 
0.0167781 -0.70761 -0.729876 
0.0741677 -0.729876 0.506963 
0.0112369 0.0166204 0.0789937 
0.0166204 -0.687252 -0.728508 
0.0789937 -0.728508 0.44322 
-0.150057 0.0107822 0.0903301 
0.0107822 0.101926 -0.569445 
0.0903301 -0.569445 -0.184665 
-0.121499 0.0104524 0.0850166 
0.0104524 0.0814496 -0.570508 
0.0850166 -0.570508 -0.192746 
-0.110045 0.0172858 0.0850099 
0.0172858 0.0366506 -0.748682 
0.0850099 -0.748682 -0.1594 
-0.133219 0.0176155 0.0898358 
0.0176155 0.0550591 -0.747163 
0.0898358 -0.747163 -0.154635 
0.150057 -0.0107822 0.0903301 
-0.0107822 -0.101926 -0.569445 
0.0903301 -0.569445 0.184665 
0.121499 -0.0104524 0.0850166 
-0.0104524 -0.0814495 -0.570508 
0.0850166 -0.570508 0.192746 
0.110046 -0.0172858 0.0850099 
-0.0172858 -0.0366505 -0.748682 
0.0850099 -0.748682 0.1594 
0.133219 -0.0176155 0.0898358 
-0.0176155 -0.0550589 -0.747163 
0.0898358 -0.747163 0.154635 
0.000605425 -0.00933057 0.0796399 
-0.00933057 0.458521 -0.550791 
0.0796399 -0.550791 -0.226331 
0.0464171 -0.00948832 0.0743264 
-0.00948832 0.479089 -0.551702 
0.0743264 -0.551702 -0.292711 
0.0321485 -0.0167781 0.0741677 
-0.0167781 0.70761 -0.729876 
0.0741677 -0.729876 -0.506963 
-0.0112367 -0.0166204 0.0789937 
-0.0166204 0.687252 -0.728508 
0.0789937 -0.728508 -0.44322 
0.261919 -0.0255635 0.0826717 
-0.0255635 0.266241 -0.466961 
0.0826717 -0.466961 0.0980648 
0.256402 -0.0253539 0.0803133 
-0.0253539 0.319547 -0.46791 
0.0803133 -0.46791 0.0502754 
0.224648 -0.0435894 0.0804217 
-0.0435894 0.62704 -0.600327 
0.0804217 -0.600327 -0.225463 
0.222867 -0.043799 0.0822762 
-0.043799 0.577857 -0.599046 
0.0822762 -0.599046 -0.174499 
0.14605 -0.0244006 0.0539529 
-0.0244006 0.684549 -0.411368 
0.0539529 -0.411368 -0.204374 
0.194849 -0.0246948 0.0515946 
-0.0246948 0.737646 -0.411811 
0.0515946 -0.411811 -0.306271 
0.161226 -0.0432627 0.0511972 
-0.0432627 1.22585 -0.544228 
0.0511972 -0.544228 -0.760853 
0.11112 -0.0429685 0.0530517 
-0.0429685 1.17497 -0.543452 
0.0530517 -0.543452 -0.659869 
0.295621 -0.0271718 0.0642928 
-0.0271718 0.531837 -0.254866 
0.0642928 -0.254866 -0.0195226 
0.309654 -0.0279069 0.0669194 
-0.0279069 0.595978 -0.255384 
0.0669194 -0.255384 -0.0976968 
0.27262 -0.05025 0.0670221 
-0.05025 1.13387 -0.292223 
0.0670221 -0.292223 -0.598551 
0.252015 -0.049515 0.0639914 
-0.049515 1.0744 -0.291566 
0.0639914 -0.291566 -0.518481 
0.24228 -0.0266842 0.0271901 
-0.0266842 0.67502 -0.169236 
0.0271901 -0.169236 -0.109365 
0.268619 -0.0278234 0.0298167 
-0.0278234 0.738465 -0.168971 
0.0298167 -0.168971 -0.199149 
0.231339 -0.0503047 0.0291358 
-0.0503047 1.39209 -0.205809 
0.0291358 -0.205809 -0.815494 
0.200727 -0.0491656 0.0261051 
-0.0491656 1.33131 -0.205936 
0.0261051 -0.205936 -0.724102 
0.227981 -0.0155744 0.0542371 
-0.0155744 0.590868 0.0278999 
0.0542371 0.0278999 -0.158285 
0.242675 -0.0179309 0.0602392 
-0.0179309 0.639738 0.0281678 
0.0602392 0.0281678 -0.221849 
0.216844 -0.0356474 0.0601675 
-0.0356474 1.30605 0.129452 
0.0601675 0.129452 -0.862334 
0.200983 -0.0332909 0.0541928 
-0.0332909 1.25909 0.129064 
0.0541928 0.129064 -0.799512 
0.245213 -0.0161245 0.0228023 
-0.0161245 0.381575 0.115889 
0.0228023 0.115889 0.033776 
0.213327 -0.0184536 0.0288045 
-0.0184536 0.429612 0.116708 
0.0288045 0.116708 0.0176256 
0.188845 -0.0360499 0.0281811 
-0.0360499 1.00895 0.217992 
0.0281811 0.217992 -0.537233 
0.216743 -0.0337208 0.0222064 
-0.0337208 0.961695 0.217053 
0.0222064 0.217053 -0.517874 
0.0624258 -0.00241737 0.0820521 
-0.00241737 0.373547 0.289675 
0.0820521 0.289675 -0.321422 
0.0341591 -0.00433528 0.0808718 
-0.00433528 0.391456 0.29033 
0.0808718 0.29033 -0.311063 
0.026283 -0.0108037 0.079899 
-0.0108037 0.931632 0.53496 
0.079899 0.53496 -0.843364 
0.0567862 -0.00888584 0.0811881 
-0.00888584 0.915101 0.534266 
0.0811881 0.534266 -0.857336 
0.0998773 -0.00286386 0.0684953 
-0.00286386 -0.177429 0.336439 
0.0684953 0.336439 0.192103 
-0.0141297 -0.0046729 0.0673151 
-0.0046729 -0.160698 0.336112 
0.0673151 0.336112 0.289379 
-0.0219232 -0.0111026 0.0673251 
-0.0111026 0.0465899 0.580742 
0.0673251 0.580742 0.089885 
0.0936683 -0.00929351 0.0686142 
-0.00929351 0.0290552 0.581031 
0.0686142 0.581031 -0.00817189 
-0.219963 0.0131747 0.0539945 
0.0131747 0.10398 0.306524 
0.0539945 0.306524 -0.25899 
-0.0695276 0.0142662 0.0684953 
0.0142662 0.0650914 0.30582 
0.0684953 0.30582 -0.370538 
-0.0439516 0.0284674 0.0686142 
0.0284674 -0.16626 0.530216 
0.0686142 0.530216 -0.164762 
-0.197688 0.0273759 0.0538944 
0.0273759 -0.126112 0.531015 
0.0538944 0.531015 -0.0511736 
-0.102535 0.0125708 0.0804721 
0.0125708 -0.400878 0.263206 
0.0804721 0.263206 0.128439 
-0.105412 0.0134434 0.094973 
0.0134434 -0.44236 0.264883 
0.094973 0.264883 0.172798 
-0.078868 0.02755 0.0927103 
0.02755 -0.976073 0.489279 
0.0927103 0.489279 0.679967 
-0.0802493 0.0266774 0.0779905 
0.0266774 -0.938942 0.487696 
0.0779905 0.487696 0.644217 
-0.273442 0.0476896 0.0270458 
0.0476896 -0.371702 0.096554 
0.0270458 0.096554 -0.176962 
-0.259709 0.0469967 0.0357232 
0.0469967 -0.478903 0.0982601 
0.0357232 0.0982601 -0.083494 
-0.194993 0.0853538 0.0337286 
0.0853538 -1.05609 0.185804 
0.0337286 0.185804 0.42898 
-0.200782 0.0860466 0.02476 
0.0860466 -0.948649 0.184196 
0.02476 0.184196 0.327327 
-0.256356 0.0469184 0.0842921 
0.0469184 -0.54953 0.017567 
0.0842921 0.017567 -0.0162195 
-0.299057 0.0459344 0.0929695 
0.0459344 -0.659299 0.0174273 
0.0929695 0.0174273 0.13625 
-0.232418 0.0841936 0.0928205 
0.0841936 -1.30501 0.104972 
0.0928205 0.104972 0.715322 
-0.184317 0.0851776 0.0838519 
0.0851776 -1.20057 0.105209 
0.0838519 0.105209 0.562784 
-0.227212 0.0665193 0.0681624 
0.0665193 -0.608469 -0.158625 
0.0681624 -0.158625 -0.0615526 
-0.28314 0.0649281 0.0659225 
0.0649281 -0.744361 -0.158219 
0.0659225 -0.158219 0.130267 
-0.196545 0.112988 0.0647328 
0.112988 -1.37914 -0.195291 
0.0647328 -0.195291 0.67845 
-0.14084 0.114579 0.066469 
0.114579 -1.24065 -0.195539 
0.066469 -0.195539 0.484259 
-0.333292 0.067547 0.132243 
0.067547 -0.467331 -0.235082 
0.132243 -0.235082 -0.0966102 
-0.354191 0.0654521 0.130003 
0.0654521 -0.603945 -0.236337 
0.130003 -0.236337 0.0609021 
-0.268889 0.113354 0.130474 
0.113354 -1.12616 -0.273409 
0.130474 -0.273409 0.497816 
-0.243374 0.115449 0.13221 
0.115449 -0.989104 -0.271996 
0.13221 -0.271996 0.335245 
-0.116824 0.055744 0.128819 
0.055744 -0.604432 -0.369395 
0.128819 -0.369395 0.052978 
-0.186873 0.0543481 0.119663 
0.0543481 -0.713908 -0.370182 
0.119663 -0.370182 0.232504 
-0.116645 0.0927698 0.119534 
0.0927698 -1.18044 -0.489459 
0.119534 -0.489459 0.628804 
-0.0526934 0.0941657 0.12839 
0.0941657 -1.06804 -0.48837 
0.12839 -0.48837 0.452453 
-0.302739 0.0576359 0.176442 
0.0576359 -0.224228 -0.418819 
0.176442 -0.418819 -0.14131 
-0.29064 0.0559393 0.167286 
0.0559393 -0.332564 -0.420312 
0.167286 -0.420312 -0.0450728 
-0.224024 0.0940607 0.167863 
0.0940607 -0.634515 -0.539588 
0.167863 -0.539588 0.190262 
-0.233653 0.0957573 0.176718 
0.0957573 -0.522319 -0.537794 
0.176718 -0.537794 0.0876946 
0.0342553 0.02075 0.176355 
0.02075 -0.404599 -0.489372 
0.176355 -0.489372 0.125497 
-0.0263531 0.0203225 0.164254 
0.0203225 -0.446596 -0.490742 
0.164254 -0.490742 0.228102 
0.00136419 0.0349739 0.16458 
0.0349739 -0.6603 -0.648264 
0.16458 -0.648264 0.414089 
0.05562 0.0354015 0.176365 
0.0354015 -0.617528 -0.646362 
0.176365 -0.646362 0.317061 
-0.188959 0.0230322 0.193704 
0.0230322 0.0963905 -0.505914 
0.193704 -0.505914 -0.152278 
-0.148431 0.0222876 0.181603 
0.0222876 0.0562498 -0.507444 
0.181603 -0.507444 -0.152665 
-0.125275 0.0364069 0.18209 
0.0364069 0.00671868 -0.664966 
0.18209 -0.664966 -0.126291 
-0.161616 0.0371515 0.193874 
0.0371515 0.0489669 -0.662904 
0.193874 -0.662904 -0.132198 
0.188959 -0.0230322 0.193704 
-0.0230322 -0.0963904 -0.505914 
0.193704 -0.505914 0.152278 
0.148431 -0.0222876 0.181603 
-0.0222876 -0.0562496 -0.507444 
0.181603 -0.507444 0.152666 
0.125275 -0.0364069 0.18209 
-0.0364069 -0.00671854 -0.664966 
0.18209 -0.664966 0.126291 
0.161616 -0.0371515 0.193874 
-0.0371515 -0.0489667 -0.662904 
0.193874 -0.662904 0.132198 
-0.0342552 -0.02075 0.176355 
-0.02075 0.404599 -0.489372 
0.176355 -0.489372 -0.125497 
0.0263532 -0.0203225 0.164254 
-0.0203225 0.446596 -0.490742 
0.164254 -0.490742 -0.228102 
-0.00136405 -0.0349739 0.16458 
-0.0349739 0.6603 -0.648264 
0.16458 -0.648264 -0.414089 
-0.0556199 -0.0354015 0.176365 
-0.0354015 0.617528 -0.646362 
0.176365 -0.646362 -0.317061 
0.302739 -0.0576359 0.176442 
-0.0576359 0.224228 -0.418819 
0.176442 -0.418819 0.14131 
0.290641 -0.0559393 0.167286 
-0.0559393 0.332564 -0.420312 
0.167286 -0.420312 0.0450729 
0.224025 -0.0940607 0.167863 
-0.0940607 0.634515 -0.539588 
0.167863 -0.539588 -0.190262 
0.233653 -0.0957573 0.176718 
-0.0957573 0.522319 -0.537794 
0.176718 -0.537794 -0.0876945 
0.116824 -0.055744 0.128819 
-0.055744 0.604432 -0.369395 
0.128819 -0.369395 -0.0529778 
0.186873 -0.0543481 0.119663 
-0.0543481 0.713908 -0.370182 
0.119663 -0.370182 -0.232504 
0.116646 -0.0927698 0.119534 
-0.0927698 1.18044 -0.489459 
0.119534 -0.489459 -0.628804 
0.0526935 -0.0941657 0.12839 
-0.0941657 1.06804 -0.48837 
0.12839 -0.48837 -0.452453 
0.333292 -0.067547 0.132243 
-0.067547 0.467332 -0.235082 
0.132243 -0.235082 0.0966104 
0.354191 -0.0654521 0.130003 
-0.0654521 0.603945 -0.236337 
0.130003 -0.236337 -0.060902 
0.268889 -0.113354 0.130474 
-0.113354 1.12616 -0.273409 
0.130474 -0.273409 -0.497815 
0.243375 -0.115449 0.13221 
-0.115449 0.989104 -0.271996 
0.13221 -0.271996 -0.335245 
0.227212 -0.0665193 0.0681624 
-0.0665193 0.608469 -0.158625 
0.0681624 -0.158625 0.0615528 
0.28314 -0.0649281 0.0659225 
-0.0649281 0.744361 -0.158219 
0.0659225 -0.158219 -0.130267 
0.196545 -0.112988 0.0647328 
-0.112988 1.37914 -0.195291 
0.0647328 -0.195291 -0.67845 
0.140841 -0.114579 0.066469 
-0.114579 1.24065 -0.195539 
0.066469 -0.195539 -0.484259 
0.256356 -0.0469184 0.0842921 
-0.0469184 0.54953 0.017567 
0.0842921 0.017567 0.0162196 
0.299057 -0.0459344 0.0929695 
-0.0459344 0.659299 0.0174273 
0.0929695 0.0174273 -0.13625 
0.232418 -0.0841936 0.0928205 
-0.0841936 1.30501 0.104972 
0.0928205 0.104972 -0.715322 
0.184317 -0.0851776 0.0838519 
-0.0851776 1.20057 0.105209 
0.0838519 0.105209 -0.562784 
0.273442 -0.0476896 0.0270458 
-0.0476896 0.371702 0.096554 
0.0270458 0.096554 0.176962 
0.259709 -0.0469967 0.0357232 
-0.0469967 0.478903 0.0982601 
0.0357232 0.0982601 0.0834941 
0.194993 -0.0853538 0.0337286 
-0.0853538 1.05609 0.185804 
0.0337286 0.185804 -0.428979 
0.200783 -0.0860466 0.02476 
-0.0860466 0.94865 0.184196 
0.02476 0.184196 -0.327327 
0.102535 -0.0125708 0.0804721 
-0.0125708 0.400878 0.263206 
0.0804721 0.263206 -0.128439 
0.105413 -0.0134434 0.094973 
-0.0134434 0.44236 0.264883 
0.094973 0.264883 -0.172798 
0.0788681 -0.02755 0.0927103 
-0.02755 0.976074 0.489279 
0.0927103 0.489279 -0.679967 
0.0802494 -0.0266774 0.0779905 
-0.0266774 0.938942 0.487696 
0.0779905 0.487696 -0.644217 
0.219963 -0.0131747 0.0539945 
-0.0131747 -0.10398 0.306524 
0.0539945 0.306524 0.258991 
0.0695278 -0.0142662 0.0684953 
-0.0142662 -0.0650912 0.30582 
0.0684953 0.30582 0.370538 
0.0439517 -0.0284674 0.0686142 
-0.0284674 0.166261 0.530216 
0.0686142 0.530216 0.164762 
0.197688 -0.0273759 0.0538944 
-0.0273759 0.126112 0.531015 
0.0538944 0.531015 0.0511737 
-0.349553 0.0385582 0.0201567 
0.0385582 0.0359407 0.242636 
0.0201567 0.242636 -0.337115 
-0.171548 0.0363991 0.0539945 
0.0363991 -0.0520663 0.240916 
0.0539945 0.240916 -0.427113 
-0.114479 0.0670226 0.0538944 
0.0670226 -0.323635 0.42074 
0.0538944 0.42074 -0.212613 
-0.294347 0.0691817 0.0172747 
0.0691817 -0.237393 0.423094 
0.0172747 0.423094 -0.118988 
-0.13361 0.03972 0.0643837 
0.03972 -0.371902 0.209487 
0.0643837 0.209487 -0.145216 
-0.189572 0.034779 0.0982215 
0.034779 -0.46615 0.211292 
0.0982215 0.211292 0.00499478 
-0.129686 0.0647689 0.0945961 
0.0647689 -0.962958 0.391117 
0.0945961 0.391117 0.441916 
-0.0687798 0.06971 0.0579764 
0.06971 -0.885791 0.389945 
0.0579764 0.389945 0.303843 
-0.306276 0.114617 0.0395098 
0.114617 -0.287995 0.0637907 
0.0395098 0.0637907 -0.354419 
-0.300031 0.10911 0.0447951 
0.10911 -0.514615 0.0662946 
0.0447951 0.0662946 -0.134045 
-0.146431 0.191609 0.0413656 
0.191609 -1.07175 0.126315 
0.0413656 0.126315 0.269489 
-0.161457 0.197115 0.0357885 
0.197115 -0.823396 0.123964 
0.0357885 0.123964 0.0361628 
-0.312337 0.113792 0.131662 
0.113792 -0.409466 0.00449183 
0.131662 0.00449183 -0.226888 
-0.360992 0.107993 0.136947 
0.107993 -0.639806 0.00322591 
0.136947 0.00322591 0.0521074 
-0.206278 0.190339 0.137287 
0.190339 -1.22961 0.0632465 
0.137287 0.0632465 0.487192 
-0.167327 0.196138 0.13171 
0.196138 -0.985654 0.0646647 
0.13171 0.0646647 0.204291 
-0.237295 0.138942 0.129659 
0.138942 -0.440577 -0.126705 
0.129659 -0.126705 -0.265187 
-0.287958 0.134583 0.120818 
0.134583 -0.704819 -0.126386 
0.120818 -0.126386 0.049717 
-0.117571 0.230632 0.119905 
0.230632 -1.28013 -0.159672 
0.119905 -0.159672 0.454644 
-0.0989105 0.234991 0.129316 
0.234991 -0.983546 -0.160372 
0.129316 -0.160372 0.139397 
-0.388278 0.140093 0.228259 
0.140093 -0.319839 -0.184141 
0.228259 -0.184141 -0.234942 
-0.391092 0.136305 0.219418 
0.136305 -0.582891 -0.185965 
0.219418 -0.185965 0.030923 
-0.224391 0.232735 0.220649 
0.232735 -1.06699 -0.219252 
0.220649 -0.219252 0.348324 
-0.248758 0.236523 0.23006 
0.236523 -0.767515 -0.217808 
0.23006 -0.217808 0.0732128 
-0.113686 0.107839 0.229889 
0.107839 -0.432934 -0.279404 
0.229889 -0.279404 -0.134301 
-0.17782 0.105303 0.215994 
0.105303 -0.635259 -0.280463 
0.215994 -0.280463 0.132157 
-0.0559998 0.177801 0.216828 
0.177801 -1.04534 -0.371756 
0.216828 -0.371756 0.42042 
-0.0199896 0.180337 0.231235 
0.180337 -0.821846 -0.370792 
0.231235 -0.370792 0.160915 
-0.349484 0.110211 0.301546 
0.110211 -0.14149 -0.316599 
0.301546 -0.316599 -0.189947 
-0.3129 0.108186 0.28765 
0.108186 -0.339644 -0.318362 
0.28765 -0.318362 -0.0283775 
-0.196363 0.180781 0.289188 
0.180781 -0.625245 -0.409655 
0.289188 -0.409655 0.140687 
-0.252791 0.182806 0.303595 
0.182806 -0.397149 -0.407988 
0.303595 -0.407988 -0.0309812 
0.0536675 0.0392162 0.30294 
0.0392162 -0.294406 -0.365845 
0.30294 -0.365845 -0.00619181 
-0.0132933 0.0384282 0.287564 
0.0384282 -0.370647 -0.367548 
0.287564 -0.367548 0.13701 
0.0321941 0.0652279 0.288835 
0.0652279 -0.55067 -0.48523 
0.288835 -0.48523 0.271546 
0.0847662 0.066016 0.304416 
0.066016 -0.469412 -0.483088 
0.304416 -0.483088 0.137715 
-0.22381 0.0422218 0.328867 
0.0422218 0.081876 -0.378355 
0.328867 -0.378355 -0.104996 
-0.164664 0.0416389 0.313491 
0.0416389 0.0105458 -0.380152 
0.313491 -0.380152 -0.0928125 
-0.125286 0.0680002 0.314856 
0.0680002 -0.0469067 -0.497834 
0.314856 -0.497834 -0.0747378 
-0.187519 0.0685831 0.330437 
0.0685831 0.0373013 -0.495598 
0.330437 -0.495598 -0.0967127 
0.22381 -0.0422218 0.328867 
-0.0422218 -0.0818759 -0.378355 
0.328867 -0.378355 0.104997 
0.164664 -0.0416389 0.313491 
-0.0416389 -0.0105457 -0.380152 
0.313491 -0.380152 0.0928127 
0.125286 -0.0680002 0.314856 
-0.0680002 0.0469068 -0.497834 
0.314856 -0.497834 0.0747379 
0.187519 -0.0685831 0.330437 
-0.0685831 -0.0373012 -0.495598 
0.330437 -0.495598 0.0967129 
-0.0536673 -0.0392162 0.30294 
-0.0392162 0.294406 -0.365845 
0.30294 -0.365845 0.00619195 
0.0132935 -0.0384282 0.287564 
-0.0384282 0.370647 -0.367548 
0.287564 -0.367548 -0.13701 
-0.0321939 -0.0652279 0.288835 
-0.0652279 0.55067 -0.48523 
0.288835 -0.48523 -0.271545 
-0.084766 -0.066016 0.304416 
-0.066016 0.469412 -0.483088 
0.304416 -0.483088 -0.137715 
0.349484 -0.110211 0.301546 
-0.110211 0.14149 -0.316599 
0.301546 -0.316599 0.189947 
0.3129 -0.108186 0.28765 
-0.108186 0.339644 -0.318362 
0.28765 -0.318362 0.0283776 
0.196363 -0.180781 0.289188 
-0.180781 0.625245 -0.409655 
0.289188 -0.409655 -0.140686 
0.252791 -0.182806 0.303595 
-0.182806 0.397149 -0.407988 
0.303595 -0.407988 0.0309813 
0.113686 -0.107839 0.229889 
-0.107839 0.432935 -0.279404 
0.229889 -0.279404 0.134301 
0.17782 -0.105303 0.215994 
-0.105303 0.635259 -0.280463 
0.215994 -0.280463 -0.132157 
0.056 -0.177801 0.216828 
-0.177801 1.04534 -0.371756 
0.216828 -0.371756 -0.42042 
0.0199898 -0.180337 0.231235 
-0.180337 0.821846 -0.370792 
0.231235 -0.370792 -0.160914 
0.388278 -0.140093 0.228259 
-0.140093 0.319839 -0.184141 
0.228259 -0.184141 0.234942 
0.391092 -0.136305 0.219418 
-0.136305 0.582891 -0.185965 
0.219418 -0.185965 -0.0309229 
0.224391 -0.232735 0.220649 
-0.232735 1.06699 -0.219252 
0.220649 -0.219252 -0.348324 
0.248758 -0.236523 0.23006 
-0.236523 0.767515 -0.217808 
0.23006 -0.217808 -0.0732126 
0.237295 -0.138942 0.129659 
-0.138942 0.440577 -0.126705 
0.129659 -0.126705 0.265187 
0.287958 -0.134583 0.120818 
-0.134583 0.704819 -0.126386 
0.120818 -0.126386 -0.0497169 
0.117571 -0.230632 0.119905 
-0.230632 1.28013 -0.159672 
0.119905 -0.159672 -0.454644 
0.0989107 -0.234991 0.129316 
-0.234991 0.983546 -0.160372 
0.129316 -0.160372 -0.139397 
0.312337 -0.113792 0.131662 
-0.113792 0.409466 0.00449183 
0.131662 0.00449183 0.226888 
0.360992 -0.107993 0.136947 
-0.107993 0.639806 0.00322591 
0.136947 0.00322591 -0.0521073 
0.206278 -0.190339 0.137287 
-0.190339 1.22961 0.0632465 
0.137287 0.0632465 -0.487192 
0.167328 -0.196138 0.13171 
-0.196138 0.985654 0.0646647 
0.13171 0.0646647 -0.20429 
0.306276 -0.114617 0.0395098 
-0.114617 0.287995 0.0637907 
0.0395098 0.0637907 0.35442 
0.300031 -0.10911 0.0447951 
-0.10911 0.514615 0.0662946 
0.0447951 0.0662946 0.134046 
0.146431 -0.191609 0.0413656 
-0.191609 1.07175 0.126315 
0.0413656 0.126315 -0.269489 
0.161457 -0.197115 0.0357885 
-0.197115 0.823397 0.123964 
0.0357885 0.123964 -0.0361627 
0.13361 -0.03972 0.0643837 
-0.03972 0.371902 0.209487 
0.0643837 0.209487 0.145216 
0.189572 -0.034779 0.0982215 
-0.034779 0.46615 0.211292 
0.0982215 0.211292 -0.00499464 
0.129686 -0.0647689 0.0945961 
-0.0647689 0.962958 0.391117 
0.0945961 0.391117 -0.441916 
0.06878 -0.06971 0.0579764 
-0.06971 0.885791 0.389945 
0.0579764 0.389945 -0.303843 
0.349554 -0.0385582 0.0201567 
-0.0385582 -0.0359405 0.242636 
0.0201567 0.242636 0.337115 
0.171548 -0.0363991 0.0539945 
-0.0363991 0.0520664 0.240916 
0.0539945 0.240916 0.427113 
0.114479 -0.0670226 0.0538944 
-0.0670226 0.323635 0.42074 
0.0538944 0.42074 0.212614 
0.294347 -0.0691817 0.0172747 
-0.0691817 0.237393 0.423094 
0.0172747 0.423094 0.118988 
-0.413237 0.105686 1.02805e-12 
0.105686 0.0160084 0.106645 
1.02805e-12 0.106645 -0.381792 
-0.283025 0.100261 0.0201567 
0.100261 -0.189328 0.101017 
0.0201567 0.101017 -0.306668 
-0.0981775 0.180513 0.0172747 
0.180513 -0.504098 0.178524 
0.0172747 0.178524 -0.176745 
-0.284583 0.185938 -1.6879e-11 
0.185938 -0.243025 0.18733 
-1.6879e-11 0.18733 -0.251413 
-0.25734 0.100057 0.0566615 
0.100057 -0.164338 0.092479 
0.0566615 0.092479 -0.357343 
-0.270841 0.0975144 0.0768182 
0.0975144 -0.38201 0.0923032 
0.0768182 0.0923032 -0.12617 
-0.100143 0.174589 0.0684837 
0.174589 -0.765764 0.169811 
0.0684837 0.169811 0.0868869 
-0.127426 0.177132 0.051209 
0.177132 -0.531236 0.173164 
0.051209 0.173164 -0.120359 
-0.414553 0.23215 0.0566615 
0.23215 -0.0446636 0.0198256 
0.0566615 0.0198256 -0.463982 
-0.326356 0.226997 0.0519443 
0.226997 -0.486939 0.0234585 
0.0519443 0.0234585 -0.109904 
-0.0334181 0.397055 0.0462957 
0.397055 -0.946012 0.0432739 
0.0462957 0.0432739 0.0562312 
-0.212936 0.402208 0.051209 
0.402208 -0.390858 0.0392882 
0.051209 0.0392882 -0.319404 
-0.405277 0.230331 0.185235 
0.230331 -0.0818652 -0.00231893 
0.185235 -0.00231893 -0.436057 
-0.387264 0.225374 0.180518 
0.225374 -0.530415 -0.0058616 
0.180518 -0.0058616 -0.0055196 
-0.0947379 0.395784 0.182045 
0.395784 -0.990665 0.0139539 
0.182045 0.0139539 0.162204 
-0.204125 0.400741 0.186958 
0.400741 -0.440208 0.0171437 
0.186958 0.0171437 -0.278865 
-0.338808 0.248187 0.185235 
0.248187 -0.0929443 -0.0537449 
0.185235 -0.0537449 -0.455066 
-0.297966 0.244279 0.178515 
0.244279 -0.56542 -0.0528675 
0.178515 -0.0528675 -0.0234322 
-0.036719 0.418551 0.179651 
0.418551 -0.983086 -0.0672761 
0.179651 -0.0672761 0.132986 
-0.164554 0.422458 0.186958 
0.422458 -0.427261 -0.0707956 
0.186958 -0.0707956 -0.295003 
-0.436922 0.250787 0.326532 
0.250787 -0.0422439 -0.0757262 
0.326532 -0.0757262 -0.407652 
-0.39484 0.247467 0.319812 
0.247467 -0.509022 -0.0785124 
0.319812 -0.0785124 0.0170441 
-0.135137 0.42438 0.324611 
0.42438 -0.899395 -0.092921 
0.324611 -0.092921 0.147713 
-0.263751 0.427701 0.331918 
0.427701 -0.326057 -0.0927769 
0.331918 -0.0927769 -0.29701 
-0.179306 0.182626 0.326532 
0.182626 -0.111651 -0.11301 
0.326532 -0.11301 -0.349081 
-0.189078 0.180295 0.321442 
0.180295 -0.46024 -0.114016 
0.321442 -0.114016 0.00928021 
-0.0132573 0.304668 0.325785 
0.304668 -0.743547 -0.150836 
0.325785 -0.150836 0.116767 
-0.0584209 0.306999 0.331918 
0.306999 -0.356428 -0.151776 
0.331918 -0.151776 -0.225188 
-0.376684 0.187007 0.431678 
0.187007 -0.000723584 -0.128237 
0.431678 -0.128237 -0.262629 
-0.314782 0.185719 0.426588 
0.185719 -0.336953 -0.130077 
0.426588 -0.130077 0.0116974 
-0.142855 0.312038 0.431765 
0.312038 -0.579704 -0.166897 
0.431765 -0.166897 0.0825219 
-0.256572 0.313326 0.437898 
0.313326 -0.171524 -0.167003 
0.437898 -0.167003 -0.211941 
0.0249531 0.0652568 0.431678 
0.0652568 -0.0929238 -0.146892 
0.431678 -0.146892 -0.164713 
-0.019719 0.0639101 0.427982 
0.0639101 -0.224036 -0.148527 
0.427982 -0.148527 0.0110711 
0.0440307 0.108433 0.432586 
0.108433 -0.3338 -0.195571 
0.432586 -0.195571 0.0570855 
0.0681252 0.109779 0.437898 
0.109779 -0.201197 -0.194619 
0.437898 -0.194619 -0.099612 
-0.226266 0.0698431 0.470017 
0.0698431 0.0486154 -0.152124 
0.470017 -0.152124 -0.0550333 
-0.163727 0.0701128 0.466321 
0.0701128 -0.0681057 -0.153684 
0.466321 -0.153684 -0.000851339 
-0.106593 0.115318 0.470851 
0.115318 -0.137904 -0.200728 
0.470851 -0.200728 0.0118124 
-0.183706 0.115048 0.476163 
0.115048 0.0121441 -0.199851 
0.476163 -0.199851 -0.0611215 
0.226266 -0.0698431 0.470017 
-0.0698431 -0.0486153 -0.152124 
0.470017 -0.152124 0.0550335 
0.163727 -0.0701128 0.466321 
-0.0701128 0.0681058 -0.153684 
0.466321 -0.153684 0.00085148 
0.106593 -0.115318 0.470851 
-0.115318 0.137904 -0.200728 
0.470851 -0.200728 -0.0118123 
0.183707 -0.115048 0.476163 
-0.115048 -0.0121439 -0.199851 
0.476163 -0.199851 0.0611216 
-0.024953 -0.0652568 0.431678 
-0.0652568 0.0929239 -0.146892 
0.431678 -0.146892 0.164713 
0.0197192 -0.0639101 0.427982 
-0.0639101 0.224036 -0.148527 
0.427982 -0.148527 -0.0110709 
-0.0440306 -0.108433 0.432586 
-0.108433 0.3338 -0.195571 
0.432586 -0.195571 -0.0570853 
-0.0681251 -0.109779 0.437898 
-0.109779 0.201197 -0.194619 
0.437898 -0.194619 0.0996121 
0.376684 -0.187007 0.431678 
-0.187007 0.000723724 -0.128237 
0.431678 -0.128237 0.26263 
0.314782 -0.185719 0.426588 
-0.185719 0.336953 -0.130077 
0.426588 -0.130077 -0.0116973 
0.142855 -0.312038 0.431765 
-0.312038 0.579704 -0.166897 
0.431765 -0.166897 -0.0825218 
0.256572 -0.313326 0.437898 
-0.313326 0.171524 -0.167003 
0.437898 -0.167003 0.211942 
0.179306 -0.182626 0.326532 
-0.182626 0.111651 -0.11301 
0.326532 -0.11301 0.349081 
0.189078 -0.180295 0.321442 
-0.180295 0.46024 -0.114016 
0.321442 -0.114016 -0.00928007 
0.0132574 -0.304668 0.325785 
-0.304668 0.743547 -0.150836 
0.325785 -0.150836 -0.116767 
0.0584211 -0.306999 0.331918 
-0.306999 0.356428 -0.151776 
0.331918 -0.151776 0.225188 
0.436922 -0.250787 0.326532 
-0.250787 0.0422441 -0.0757262 
0.326532 -0.0757262 0.407652 
0.394841 -0.247467 0.319812 
-0.247467 0.509022 -0.0785124 
0.319812 -0.0785124 -0.017044 
0.135137 -0.42438 0.324611 
-0.42438 0.899395 -0.092921 
0.324611 -0.092921 -0.147713 
0.263751 -0.427701 0.331918 
-0.427701 0.326057 -0.0927769 
0.331918 -0.0927769 0.297011 
0.338809 -0.248187 0.185235 
-0.248187 0.0929445 -0.0537449 
0.185235 -0.0537449 0.455066 
0.297966 -0.244279 0.178515 
-0.244279 0.56542 -0.0528675 
0.178515 -0.0528675 0.0234324 
0.0367191 -0.418551 0.179651 
-0.418551 0.983086 -0.0672761 
0.179651 -0.0672761 -0.132986 
0.164555 -0.422458 0.186958 
-0.422458 0.427261 -0.0707956 
0.186958 -0.0707956 0.295004 
0.405277 -0.230331 0.185235 
-0.230331 0.0818653 -0.00231893 
0.185235 -0.00231893 0.436057 
0.387264 -0.225374 0.180518 
-0.225374 0.530415 -0.0058616 
0.180518 -0.0058616 0.00551974 
0.094738 -0.395784 0.182045 
-0.395784 0.990665 0.0139539 
0.182045 0.0139539 -0.162204 
0.204126 -0.400741 0.186958 
-0.400741 0.440208 0.0171437 
0.186958 0.0171437 0.278865 
0.414553 -0.23215 0.0566615 
-0.23215 0.0446638 0.0198256 
0.0566615 0.0198256 0.463983 
0.326356 -0.226997 0.0519443 
-0.226997 0.486939 0.0234585 
0.0519443 0.0234585 0.109904 
0.0334183 -0.397055 0.0462957 
-0.397055 0.946012 0.0432739 
0.0462957 0.0432739 -0.0562311 
0.212937 -0.402208 0.051209 
-0.402208 0.390858 0.0392882 
0.051209 0.0392882 0.319404 
0.257341 -0.100057 0.0566615 
-0.100057 0.164338 0.092479 
0.0566615 0.092479 0.357343 
0.270841 -0.0975144 0.0768182 
-0.0975144 0.38201 0.0923032 
0.0768182 0.0923032 0.12617 
0.100144 -0.174589 0.0684837 
-0.174589 0.765764 0.169811 
0.0684837 0.169811 -0.0868867 
0.127426 -0.177132 0.051209 
-0.177132 0.531236 0.173164 
0.051209 0.173164 0.12036 
0.413237 -0.105686 1.02805e-12 
-0.105686 -0.0160082 0.106645 
1.02805e-12 0.106645 0.381793 
0.283025 -0.100261 0.0201567 
-0.100261 0.189328 0.101017 
0.0201567 0.101017 0.306668 
0.0981777 -0.180513 0.0172747 
-0.180513 0.504098 0.178524 
0.0172747 0.178524 0.176745 
0.284583 -0.185938 -1.6879e-11 
-0.185938 0.243025 0.18733 
-1.6879e-11 0.18733 0.251413 
0.23625 -9.97696e-05 0.00903394 
-9.97696e-05 0.361061 0.164288 
0.00903394 0.164288 0.103478 
0.238917 2.4658e-05 2.10885e-11 
2.4658e-05 0.361077 0.164285 
2.10885e-11 0.164285 0.100794 
0.238665 4.63893e-05 2.63468e-11 
4.63893e-05 0.277558 0.360551 
2.63468e-11 0.360551 0.184566 
0.235931 -7.80383e-05 0.00901919 
-7.80383e-05 0.277615 0.360556 
0.00901919 0.360556 0.187243 
0.208813 -8.87483e-05 0.008806 
-8.87483e-05 -0.111931 0.136524 
0.008806 0.136524 0.603907 
0.213108 2.09285e-05 -0.000227938 
2.09285e-05 -0.111925 0.136512 
-0.000227938 0.136512 0.599606 
0.212865 4.16957e-05 -0.000219982 
4.16957e-05 -0.401885 0.332779 
-0.000219982 0.332779 0.88981 
0.20855 -6.79811e-05 0.00879921 
-6.79811e-05 -0.401843 0.332791 
0.00879921 0.332791 0.894082 
0.0405011 -0.000274337 0.0036564 
-0.000274337 -0.160004 0.0587573 
0.0036564 0.0587573 0.297735 
0.044815 4.97263e-05 -0.000227938 
4.97263e-05 -0.159984 0.0587509 
-0.000227938 0.0587509 0.293401 
0.0441066 9.35465e-05 -0.000219982 
9.35465e-05 -0.472734 0.154597 
-0.000219982 0.154597 0.60686 
0.039694 -0.000230517 0.00366365 
-0.000230517 -0.472683 0.154602 
0.00366365 0.154602 0.611221 
0.0298886 -0.000272092 0.003293 
-0.000272092 -0.364054 0.00395532 
0.003293 0.00395532 0.512398 
0.0343525 5.12632e-05 -0.000591337 
5.12632e-05 -0.364028 0.00395565 
-0.000591337 0.00395565 0.507908 
0.0336427 9.67909e-05 -0.000590121 
9.67909e-05 -0.750524 0.0998021 
-0.000590121 0.0998021 0.895114 
0.0290861 -0.000226565 0.00329351 
-0.000226565 -0.750459 0.0998001 
0.00329351 0.0998001 0.899606 
-0.0643073 -0.000341673 -0.00171845 
-0.000341673 -0.492163 -0.0947363 
-0.00171845 -0.0947363 0.45141 
-0.0602442 5.7787e-05 -0.000591337 
5.7787e-05 -0.492128 -0.0947373 
-0.000591337 -0.0947373 0.447312 
-0.0611608 0.000106938 -0.000590121 
0.000106938 -0.873838 -0.114091 
-0.000590121 -0.114091 0.829939 
-0.0652958 -0.000292522 -0.00171225 
-0.000292522 -0.873808 -0.11409 
-0.00171225 -0.11409 0.834043 
-0.0587238 -0.000346444 -0.00202492 
-0.000346444 -0.368175 -0.151639 
-0.00202492 -0.151639 0.321839 
-0.0553 5.79985e-05 -0.000897806 
5.79985e-05 -0.368139 -0.151634 
-0.000897806 -0.151634 0.318379 
-0.0562207 0.000107256 -0.000902129 
0.000107256 -0.695083 -0.170988 
-0.000902129 -0.170988 0.646243 
-0.0597306 -0.000297187 -0.00202426 
-0.000297187 -0.695051 -0.170992 
-0.00202426 -0.170992 0.649721 
-0.0840008 -0.000272162 -0.00580467 
-0.000272162 -0.574328 -0.235511 
-0.00580467 -0.235511 0.491698 
-0.0812891 4.67487e-05 -0.000897806 
4.67487e-05 -0.574299 -0.235508 
-0.000897806 -0.235508 0.488957 
-0.0820351 8.5756e-05 -0.000902129 
8.5756e-05 -0.879557 -0.347265 
-0.000902129 -0.347265 0.79496 
-0.0847804 -0.000233155 -0.00580386 
-0.000233155 -0.879541 -0.347266 
-0.00580386 -0.347266 0.79769 
-0.0666007 -0.000278867 -0.00597659 
-0.000278867 -0.16771 -0.274967 
-0.00597659 -0.274967 0.0676789 
-0.0645688 4.51793e-05 -0.00106972 
4.51793e-05 -0.167686 -0.274961 
-0.00106972 -0.274961 0.0656231 
-0.0653174 8.26291e-05 -0.00107681 
8.26291e-05 -0.357672 -0.386718 
-0.00107681 -0.386718 0.256358 
-0.0674007 -0.000241417 -0.00597854 
-0.000241417 -0.357668 -0.386722 
-0.00597854 -0.386722 0.258437 
-0.0436084 -0.000101031 -0.00797535 
-0.000101031 -0.426221 -0.321943 
-0.00797535 -0.321943 0.396018 
-0.0425311 1.898e-05 -0.00106972 
1.898e-05 -0.426208 -0.321939 
-0.00106972 -0.321939 0.394927 
-0.0428151 3.47882e-05 -0.00107681 
3.47882e-05 -0.581262 -0.48354 
-0.00107681 -0.48354 0.550265 
-0.043898 -8.52223e-05 -0.0079792 
-8.52223e-05 -0.58125 -0.483542 
-0.0079792 -0.483542 0.551336 
-0.0200875 -0.000107131 -0.00802776 
-0.000107131 0.138187 -0.33578 
-0.00802776 -0.33578 -0.191911 
-0.0195656 1.61223e-05 -0.00112213 
1.61223e-05 0.138191 -0.335775 
-0.00112213 -0.335775 -0.192437 
-0.01985 2.92602e-05 -0.00112998 
2.92602e-05 0.118355 -0.497377 
-0.00112998 -0.497377 -0.172317 
-0.0203911 -9.39934e-05 -0.00803236 
-9.39934e-05 0.118346 -0.497379 
-0.00803236 -0.497379 -0.171767 
0.0200876 0.000107131 -0.00802776 
0.000107131 -0.138186 -0.33578 
-0.00802776 -0.33578 0.191911 
0.0195658 -1.61223e-05 -0.00112213 
-1.61223e-05 -0.138191 -0.335775 
-0.00112213 -0.335775 0.192437 
0.0198502 -2.92602e-05 -0.00112998 
-2.92602e-05 -0.118355 -0.497377 
-0.00112998 -0.497377 0.172317 
0.0203912 9.39934e-05 -0.00803236 
9.39934e-05 -0.118346 -0.497379 
-0.00803236 -0.497379 0.171767 
0.0436086 0.000101031 -0.00797535 
0.000101031 0.426221 -0.321943 
-0.00797535 -0.321943 -0.396017 
0.0425312 -1.898e-05 -0.00106972 
-1.898e-05 0.426208 -0.321939 
-0.00106972 -0.321939 -0.394927 
0.0428152 -3.47882e-05 -0.00107681 
-3.47882e-05 0.581262 -0.48354 
-0.00107681 -0.48354 -0.550265 
0.0438981 8.52223e-05 -0.0079792 
8.52223e-05 0.58125 -0.483542 
-0.0079792 -0.483542 -0.551336 
0.0666009 0.000278867 -0.00597659 
0.000278867 0.16771 -0.274967 
-0.00597659 -0.274967 -0.0676788 
0.064569 -4.51793e-05 -0.00106972 
-4.51793e-05 0.167686 -0.274961 
-0.00106972 -0.274961 -0.0656229 
0.0653175 -8.26291e-05 -0.00107681 
-8.26291e-05 0.357672 -0.386718 
-0.00107681 -0.386718 -0.256358 
0.0674008 0.000241417 -0.00597854 
0.000241417 0.357668 -0.386722 
-0.00597854 -0.386722 -0.258437 
0.084001 0.000272162 -0.00580467 
0.000272162 0.574328 -0.235511 
-0.00580467 -0.235511 -0.491697 
0.0812892 -4.67487e-05 -0.000897806 
-4.67487e-05 0.5743 -0.235508 
-0.000897806 -0.235508 -0.488957 
0.0820352 -8.5756e-05 -0.000902129 
-8.5756e-05 0.879557 -0.347265 
-0.000902129 -0.347265 -0.79496 
0.0847806 0.000233155 -0.00580386 
0.000233155 0.879541 -0.347266 
-0.00580386 -0.347266 -0.79769 
0.058724 0.000346444 -0.00202492 
0.000346444 0.368175 -0.151639 
-0.00202492 -0.151639 -0.321839 
0.0553002 -5.79985e-05 -0.000897806 
-5.79985e-05 0.368139 -0.151634 
-0.000897806 -0.151634 -0.318379 
0.0562209 -0.000107256 -0.000902129 
-0.000107256 0.695083 -0.170988 
-0.000902129 -0.170988 -0.646243 
0.0597307 0.000297187 -0.00202426 
0.000297187 0.695051 -0.170992 
-0.00202426 -0.170992 -0.649721 
0.0643074 0.000341673 -0.00171845 
0.000341673 0.492163 -0.0947363 
-0.00171845 -0.0947363 -0.45141 
0.0602443 -5.7787e-05 -0.000591337 
-5.7787e-05 0.492128 -0.0947373 
-0.000591337 -0.0947373 -0.447312 
0.061161 -0.000106938 -0.000590121 
-0.000106938 0.873838 -0.114091 
-0.000590121 -0.114091 -0.829938 
0.0652959 0.000292522 -0.00171225 
0.000292522 0.873808 -0.11409 
-0.00171225 -0.11409 -0.834043 
-0.0298884 0.000272092 0.003293 
0.000272092 0.364054 0.00395532 
0.003293 0.00395532 -0.512398 
-0.0343524 -5.12632e-05 -0.000591337 
-5.12632e-05 0.364028 0.00395565 
-0.000591337 0.00395565 -0.507908 
-0.0336426 -9.67909e-05 -0.000590121 
-9.67909e-05 0.750524 0.0998021 
-0.000590121 0.0998021 -0.895114 
-0.0290859 0.000226565 0.00329351 
0.000226565 0.750459 0.0998001 
0.00329351 0.0998001 -0.899606 
-0.040501 0.000274337 0.0036564 
0.000274337 0.160004 0.0587573 
0.0036564 0.0587573 -0.297735 
-0.0448148 -4.97263e-05 -0.000227938 
-4.97263e-05 0.159984 0.0587509 
-0.000227938 0.0587509 -0.293401 
-0.0441064 -9.35465e-05 -0.000219982 
-9.35465e-05 0.472734 0.154597 
-0.000219982 0.154597 -0.60686 
-0.0396938 0.000230517 0.00366365 
0.000230517 0.472683 0.154602 
0.00366365 0.154602 -0.611221 
-0.208812 8.87483e-05 0.008806 
8.87483e-05 0.111931 0.136524 
0.008806 0.136524 -0.603907 
-0.213108 -2.09285e-05 -0.000227938 
-2.09285e-05 0.111925 0.136512 
-0.000227938 0.136512 -0.599606 
-0.212864 -4.16957e-05 -0.000219982 
-4.16957e-05 0.401886 0.332779 
-0.000219982 0.332779 -0.88981 
-0.20855 6.79811e-05 0.00879921 
6.79811e-05 0.401843 0.332791 
0.00879921 0.332791 -0.894081 
-0.23625 9.97696e-05 0.00903394 
9.97696e-05 -0.361061 0.164288 
0.00903394 0.164288 -0.103478 
-0.238917 -2.4658e-05 2.10885e-11 
-2.4658e-05 -0.361077 0.164285 
2.10885e-11 0.164285 -0.100794 
-0.238665 -4.63893e-05 2.63468e-11 
-4.63893e-05 -0.277558 0.360551 
2.63468e-11 0.360551 -0.184565 
-0.235931 7.80383e-05 0.00901919 
7.80383e-05 -0.277615 0.360556 
0.00901919 0.360556 -0.187243 
0.229283 -0.000224107 0.0188058 
-0.000224107 0.356693 0.164207 
0.0188058 0.164207 0.102123 
0.238059 -3.81109e-05 0.00903394 
-3.81109e-05 0.356727 0.164193 
0.00903394 0.164193 0.0933137 
0.237765 4.3592e-05 0.00901919 
4.3592e-05 0.27331 0.360376 
0.00901919 0.360376 0.177024 
0.228754 -0.000142405 0.0187727 
-0.000142405 0.273529 0.360393 
0.0187727 0.360393 0.185817 
0.198347 -0.000204448 0.018219 
-0.000204448 -0.115879 0.136387 
0.018219 0.136387 0.605631 
0.211286 -3.67589e-05 0.00844719 
-3.67589e-05 -0.115882 0.136352 
0.00844719 0.136352 0.592696 
0.210956 4.13682e-05 0.0084543 
4.13682e-05 -0.406014 0.332535 
0.0084543 0.332535 0.883157 
0.197936 -0.00012632 0.0182078 
-0.00012632 -0.405848 0.332573 
0.0182078 0.332573 0.896011 
0.0306228 -0.000582262 0.00716747 
-0.000582262 -0.16419 0.0586568 
0.00716747 0.0586568 0.298748 
0.0435213 -0.000136909 0.00329759 
-0.000136909 -0.164211 0.0586399 
0.00329759 0.0586399 0.28587 
0.0427167 4.07876e-05 0.00331874 
4.07876e-05 -0.477127 0.154454 
0.00331874 0.154454 0.599591 
0.0295011 -0.000404565 0.00719301 
-0.000404565 -0.476866 0.154465 
0.00719301 0.154465 0.612545 
0.0196681 -0.000580986 0.00630989 
-0.000580986 -0.367976 0.00370698 
0.00630989 0.00370698 0.513489 
0.0325244 -0.000131243 0.00244001 
-0.000131243 -0.36798 0.00371016 
0.00244001 0.00371016 0.500636 
0.0317091 5.25332e-05 0.00244108 
5.25332e-05 -0.754759 0.0995241 
0.00244108 0.0995241 0.88823 
0.0185375 -0.00039721 0.00631535 
-0.00039721 -0.754453 0.0995148 
0.00631535 0.0995148 0.901096 
-0.0726719 -0.000690168 -0.00396803 
-0.000690168 -0.495547 -0.0949393 
-0.00396803 -0.0949393 0.452205 
-0.0611319 -0.000170216 -0.00257144 
-0.000170216 -0.495579 -0.0949406 
-0.00257144 -0.0949406 0.440696 
-0.0621143 4.01297e-05 -0.00256468 
4.01297e-05 -0.877589 -0.11429 
-0.00256468 -0.11429 0.823688 
-0.0738709 -0.000479822 -0.00395615 
-0.000479822 -0.877354 -0.114289 
-0.00395615 -0.114289 0.835211 
-0.0668871 -0.000699773 -0.00460073 
-0.000699773 -0.371333 -0.151995 
-0.00460073 -0.151995 0.322205 
-0.0572338 -0.000174697 -0.00320414 
-0.000174697 -0.371362 -0.151981 
-0.00320414 -0.151981 0.312581 
-0.0582054 3.59256e-05 -0.00321212 
3.59256e-05 -0.698552 -0.17133 
-0.00321212 -0.17133 0.640743 
-0.0681198 -0.00048915 -0.00460358 
-0.00048915 -0.698314 -0.171344 
-0.00460358 -0.171344 0.650419 
-0.0887852 -0.00053216 -0.0121501 
-0.00053216 -0.576502 -0.235816 
-0.0121501 -0.235816 0.491461 
-0.0814708 -0.000128566 -0.0069839 
-0.000128566 -0.576546 -0.235809 
-0.0069839 -0.235809 0.48419 
-0.0822413 4.28846e-05 -0.00699172 
4.28846e-05 -0.882098 -0.347524 
-0.00699172 -0.347524 0.790513 
-0.0896528 -0.000360709 -0.0121598 
-0.000360709 -0.881924 -0.347525 
-0.0121598 -0.347525 0.79775 
-0.0721318 -0.000541059 -0.0124369 
-0.000541059 -0.169687 -0.27538 
-0.0124369 -0.27538 0.0679924 
-0.0663611 -0.00013932 -0.00727066 
-0.00013932 -0.169748 -0.275367 
-0.00727066 -0.275367 0.0622824 
-0.0671108 2.61739e-05 -0.00728479 
2.61739e-05 -0.359855 -0.387082 
-0.00728479 -0.387082 0.25314 
-0.0730119 -0.000375565 -0.0124529 
-0.000375565 -0.359725 -0.387089 
-0.0124529 -0.387089 0.258911 
-0.044513 -0.00019657 -0.0163681 
-0.00019657 -0.427012 -0.322322 
-0.0163681 -0.322322 0.395215 
-0.0418894 -4.25409e-05 -0.00926942 
-4.25409e-05 -0.427024 -0.322313 
-0.00926942 -0.322313 0.392603 
-0.0421831 2.70545e-05 -0.00928544 
2.70545e-05 -0.582272 -0.483847 
-0.00928544 -0.483847 0.548144 
-0.0448333 -0.000126975 -0.0163929 
-0.000126975 -0.582181 -0.483846 
-0.0163929 -0.483846 0.550703 
-0.022639 -0.000201172 -0.0164385 
-0.000201172 0.137566 -0.336198 
-0.0164385 -0.336198 -0.191238 
-0.0209153 -5.58323e-05 -0.00933982 
-5.58323e-05 0.137524 -0.336187 
-0.00933982 -0.336187 -0.192919 
-0.0211868 3.63548e-06 -0.0093573 
3.63548e-06 0.117728 -0.497721 
-0.0093573 -0.497721 -0.172852 
-0.0229426 -0.000141704 -0.0164647 
-0.000141704 0.117743 -0.497722 
-0.0164647 -0.497722 -0.171111 
0.0226391 0.000201172 -0.0164385 
0.000201172 -0.137566 -0.336198 
-0.0164385 -0.336198 0.191238 
0.0209155 5.58323e-05 -0.00933982 
5.58323e-05 -0.137523 -0.336187 
-0.00933982 -0.336187 0.192919 
0.021187 -3.63548e-06 -0.0093573 
-3.63548e-06 -0.117728 -0.497721 
-0.0093573 -0.497721 0.172852 
0.0229428 0.000141704 -0.0164647 
0.000141704 -0.117743 -0.497722 
-0.0164647 -0.497722 0.171111 
0.0445131 0.00019657 -0.0163681 
0.00019657 0.427013 -0.322322 
-0.0163681 -0.322322 -0.395215 
0.0418895 4.25409e-05 -0.00926942 
4.25409e-05 0.427024 -0.322313 
-0.00926942 -0.322313 -0.392602 
0.0421833 -2.70545e-05 -0.00928544 
-2.70545e-05 0.582272 -0.483847 
-0.00928544 -0.483847 -0.548144 
0.0448334 0.000126975 -0.0163929 
0.000126975 0.582181 -0.483846 
-0.0163929 -0.483846 -0.550703 
0.072132 0.000541059 -0.0124369 
0.000541059 0.169687 -0.27538 
-0.0124369 -0.27538 -0.0679922 
0.0663612 0.00013932 -0.00727066 
0.00013932 0.169748 -0.275367 
-0.00727066 -0.275367 -0.0622822 
0.067111 -2.61739e-05 -0.00728479 
-2.61739e-05 0.359855 -0.387082 
-0.00728479 -0.387082 -0.253139 
0.0730121 0.000375565 -0.0124529 
0.000375565 0.359725 -0.387089 
-0.0124529 -0.387089 -0.258911 
0.0887853 0.00053216 -0.0121501 
0.00053216 0.576502 -0.235816 
-0.0121501 -0.235816 -0.491461 
0.0814709 0.000128566 -0.0069839 
0.000128566 0.576546 -0.235809 
-0.0069839 -0.235809 -0.48419 
0.0822415 -4.28846e-05 -0.00699172 
-4.28846e-05 0.882098 -0.347524 
-0.00699172 -0.347524 -0.790512 
0.0896529 0.000360709 -0.0121598 
0.000360709 0.881924 -0.347525 
-0.0121598 -0.347525 -0.79775 
0.0668872 0.000699773 -0.00460073 
0.000699773 0.371333 -0.151995 
-0.00460073 -0.151995 -0.322205 
0.057234 0.000174697 -0.00320414 
0.000174697 0.371362 -0.151981 
-0.00320414 -0.151981 -0.312581 
0.0582055 -3.59256e-05 -0.00321212 
-3.59256e-05 0.698553 -0.17133 
-0.00321212 -0.17133 -0.640743 
0.0681199 0.00048915 -0.00460358 
0.00048915 0.698314 -0.171344 
-0.00460358 -0.171344 -0.650419 
0.072672 0.000690168 -0.00396803 
0.000690168 0.495547 -0.0949393 
-0.00396803 -0.0949393 -0.452204 
0.061132 0.000170216 -0.00257144 
0.000170216 0.495579 -0.0949406 
-0.00257144 -0.0949406 -0.440696 
0.0621144 -4.01297e-05 -0.00256468 
-4.01297e-05 0.877589 -0.11429 
-0.00256468 -0.11429 -0.823688 
0.073871 0.000479822 -0.00395615 
0.000479822 0.877355 -0.114289 
-0.00395615 -0.114289 -0.83521 
-0.019668 0.000580986 0.00630989 
0.000580986 0.367976 0.00370698 
0.00630989 0.00370698 -0.513489 
-0.0325243 0.000131243 0.00244001 
0.000131243 0.36798 0.00371016 
0.00244001 0.00371016 -0.500636 
-0.0317089 -5.25332e-05 0.00244108 
-5.25332e-05 0.754759 0.0995241 
0.00244108 0.0995241 -0.88823 
-0.0185374 0.00039721 0.00631535 
0.00039721 0.754453 0.0995148 
0.00631535 0.0995148 -0.901096 
-0.0306226 0.000582262 0.00716747 
0.000582262 0.16419 0.0586568 
0.00716747 0.0586568 -0.298747 
-0.0435211 0.000136909 0.00329759 
0.000136909 0.164211 0.0586399 
0.00329759 0.0586399 -0.28587 
-0.0427165 -4.07876e-05 0.00331874 
-4.07876e-05 0.477128 0.154454 
0.00331874 0.154454 -0.599591 
-0.029501 0.000404565 0.00719301 
0.000404565 0.476866 0.154465 
0.00719301 0.154465 -0.612545 
-0.198347 0.000204448 0.018219 
0.000204448 0.115879 0.136387 
0.018219 0.136387 -0.605631 
-0.211286 3.67589e-05 0.00844719 
3.67589e-05 0.115882 0.136352 
0.00844719 0.136352 -0.592696 
-0.210956 -4.13682e-05 0.0084543 
-4.13682e-05 0.406014 0.332535 
0.0084543 0.332535 -0.883157 
-0.197936 0.00012632 0.0182078 
0.00012632 0.405848 0.332573 
0.0182078 0.332573 -0.896011 
-0.229283 0.000224107 0.0188058 
0.000224107 -0.356693 0.164207 
0.0188058 0.164207 -0.102123 
-0.238059 3.81109e-05 0.00903394 
3.81109e-05 -0.356727 0.164193 
0.00903394 0.164193 -0.0933135 
-0.237765 -4.3592e-05 0.00901919 
-4.3592e-05 -0.27331 0.360376 
0.00901919 0.360376 -0.177024 
-0.228754 0.000142405 0.0187727 
0.000142405 -0.273529 0.360393 
0.0187727 0.360393 -0.185817 
0.215923 -0.000437385 0.0297415 
-0.000437385 0.346838 0.163985 
0.0297415 0.163985 0.0964361 
0.23313 -0.000116753 0.0188058 
-0.000116753 0.346814 0.163955 
0.0188058 0.163955 0.0792529 
0.23273 8.63417e-05 0.0187727 
8.63417e-05 0.263548 0.359894 
0.0187727 0.359894 0.162919 
0.21501 -0.000234291 0.0296849 
-0.000234291 0.264105 0.359933 
0.0296849 0.359933 0.180081 
0.181356 -0.000410654 0.0291221 
-0.000410654 -0.124712 0.136048 
0.0291221 0.136048 0.602553 
0.202881 -0.000113514 0.0181864 
-0.000113514 -0.12482 0.135991 
0.0181864 0.135991 0.581136 
0.20239 8.06383e-05 0.0181801 
8.06383e-05 -0.415275 0.331931 
0.0181801 0.331931 0.872082 
0.180639 -0.000216502 0.0290923 
-0.000216502 -0.414841 0.331996 
0.0290923 0.331996 0.893399 
0.0151072 -0.000999331 0.0108067 
-0.000999331 -0.173071 0.0583884 
0.0108067 0.0583884 0.294661 
0.0362716 -0.000301152 0.00713481 
-0.000301152 -0.173478 0.0583707 
0.00713481 0.0583707 0.273903 
0.0352753 0.000184609 0.00716525 
0.000184609 -0.486707 0.154056 
0.00716525 0.154056 0.588128 
0.0135258 -0.00051357 0.0108537 
-0.00051357 -0.485812 0.154061 
0.0108537 0.154061 0.608983 
0.00447991 -0.00101049 0.0102233 
-0.00101049 -0.376166 0.00316388 
0.0102233 0.00316388 0.508383 
0.0238706 -0.00029575 0.00655137 
-0.00029575 -0.376545 0.00317745 
0.00655137 0.00317745 0.489371 
0.0228669 0.000203087 0.00655056 
0.000203087 -0.763782 0.098863 
0.00655056 0.098863 0.877612 
0.00283179 -0.000511648 0.010239 
-0.000511648 -0.762801 0.0988363 
0.010239 0.0988363 0.896666 
-0.0839837 -0.00106706 -0.00563687 
-0.00106706 -0.502284 -0.0953479 
-0.00563687 -0.0953479 0.446907 
-0.0671384 -0.000308424 -0.00372655 
-0.000308424 -0.502941 -0.0953433 
-0.00372655 -0.0953433 0.430719 
-0.0681599 0.000300581 -0.00372093 
0.000300581 -0.885474 -0.114696 
-0.00372093 -0.114696 0.814273 
-0.0853556 -0.000458056 -0.00562821 
-0.000458056 -0.884464 -0.1147 
-0.00562821 -0.1147 0.830459 
-0.0789416 -0.00108011 -0.00566039 
-0.00108011 -0.37758 -0.152677 
-0.00566039 -0.152677 0.317161 
-0.0650775 -0.000318437 -0.00375007 
-0.000318437 -0.378237 -0.152656 
-0.00375007 -0.152656 0.303954 
-0.0660685 0.000290202 -0.00376048 
0.000290202 -0.705823 -0.172009 
-0.00376048 -0.172009 0.632531 
-0.0803575 -0.000471471 -0.00566776 
-0.000471471 -0.704815 -0.172029 
-0.00566776 -0.172029 0.645812 
-0.0937945 -0.000766355 -0.016799 
-0.000766355 -0.580555 -0.236336 
-0.016799 -0.236336 0.485399 
-0.0845051 -0.000201137 -0.0112995 
-0.000201137 -0.581191 -0.236328 
-0.0112995 -0.236328 0.476745 
-0.0851997 0.000308009 -0.0113167 
0.000308009 -0.887252 -0.347907 
-0.0113167 -0.347907 0.783501 
-0.0946315 -0.000257209 -0.0168373 
-0.000257209 -0.886421 -0.3479 
-0.0168373 -0.3479 0.792101 
-0.0809584 -0.000761092 -0.0164594 
-0.000761092 -0.173494 -0.276089 
-0.0164594 -0.276089 0.0655011 
-0.0724872 -0.000216871 -0.0109599 
-0.000216871 -0.174167 -0.276079 
-0.0109599 -0.276079 0.0577033 
-0.0731482 0.000277143 -0.0109795 
0.000277143 -0.364469 -0.387658 
-0.0109795 -0.387658 0.248666 
-0.0817351 -0.000267079 -0.0165001 
-0.000267079 -0.363744 -0.387654 
-0.0165001 -0.387654 0.256528 
-0.0437027 -0.000281907 -0.0221038 
-0.000281907 -0.428348 -0.322918 
-0.0221038 -0.322918 0.390521 
-0.0414483 -6.19344e-05 -0.0148911 
-6.19344e-05 -0.428592 -0.322917 
-0.0148911 -0.322917 0.388511 
-0.0416914 0.000144731 -0.0149195 
0.000144731 -0.58417 -0.484221 
-0.0149195 -0.484221 0.544332 
-0.0440266 -7.52417e-05 -0.0221711 
-7.52417e-05 -0.583787 -0.484198 
-0.0221711 -0.484198 0.546285 
-0.0279528 -0.000259102 -0.0219123 
-0.000259102 0.1363 -0.336861 
-0.0219123 -0.336861 -0.189877 
-0.0245346 -7.79823e-05 -0.0146996 
-7.79823e-05 0.135992 -0.33686 
-0.0146996 -0.33686 -0.192987 
-0.0247547 0.000103733 -0.0147271 
0.000103733 0.116267 -0.498164 
-0.0147271 -0.498164 -0.173041 
-0.0281259 -7.73865e-05 -0.0219787 
-7.73865e-05 0.116473 -0.49814 
-0.0219787 -0.49814 -0.169877 
0.0279529 0.000259102 -0.0219123 
0.000259102 -0.1363 -0.336861 
-0.0219123 -0.336861 0.189877 
0.0245347 7.79823e-05 -0.0146996 
7.79823e-05 -0.135992 -0.33686 
-0.0146996 -0.33686 0.192987 
0.0247549 -0.000103733 -0.0147271 
-0.000103733 -0.116267 -0.498164 
-0.0147271 -0.498164 0.173042 
0.0281261 7.73865e-05 -0.0219787 
7.73865e-05 -0.116473 -0.49814 
-0.0219787 -0.49814 0.169877 
0.0437028 0.000281907 -0.0221038 
0.000281907 0.428348 -0.322918 
-0.0221038 -0.322918 -0.390521 
0.0414485 6.19344e-05 -0.0148911 
6.19344e-05 0.428592 -0.322917 
-0.0148911 -0.322917 -0.38851 
0.0416915 -0.000144731 -0.0149195 
-0.000144731 0.58417 -0.484221 
-0.0149195 -0.484221 -0.544332 
0.0440268 7.52417e-05 -0.0221711 
7.52417e-05 0.583788 -0.484198 
-0.0221711 -0.484198 -0.546284 
0.0809585 0.000761092 -0.0164594 
0.000761092 0.173494 -0.276089 
-0.0164594 -0.276089 -0.065501 
0.0724874 0.000216871 -0.0109599 
0.000216871 0.174167 -0.276079 
-0.0109599 -0.276079 -0.0577032 
0.0731483 -0.000277143 -0.0109795 
-0.000277143 0.364469 -0.387658 
-0.0109795 -0.387658 -0.248666 
0.0817353 0.000267079 -0.0165001 
0.000267079 0.363744 -0.387654 
-0.0165001 -0.387654 -0.256528 
0.0937946 0.000766355 -0.016799 
0.000766355 0.580556 -0.236336 
-0.016799 -0.236336 -0.485399 
0.0845053 0.000201137 -0.0112995 
0.000201137 0.581191 -0.236328 
-0.0112995 -0.236328 -0.476745 
0.0851999 -0.000308009 -0.0113167 
-0.000308009 0.887252 -0.347907 
-0.0113167 -0.347907 -0.7835 
0.0946316 0.000257209 -0.0168373 
0.000257209 0.886421 -0.3479 
-0.0168373 -0.3479 -0.792101 
0.0789417 0.00108011 -0.00566039 
0.00108011 0.37758 -0.152677 
-0.00566039 -0.152677 -0.317161 
0.0650777 0.000318437 -0.00375007 
0.000318437 0.378237 -0.152656 
-0.00375007 -0.152656 -0.303954 
0.0660686 -0.000290202 -0.00376048 
-0.000290202 0.705823 -0.172009 
-0.00376048 -0.172009 -0.632531 
0.0803576 0.000471471 -0.00566776 
0.000471471 0.704815 -0.172029 
-0.00566776 -0.172029 -0.645812 
0.0839839 0.00106706 -0.00563687 
0.00106706 0.502284 -0.0953479 
-0.00563687 -0.0953479 -0.446907 
0.0671386 0.000308424 -0.00372655 
0.000308424 0.502941 -0.0953433 
-0.00372655 -0.0953433 -0.430719 
0.06816 -0.000300581 -0.00372093 
-0.000300581 0.885474 -0.114696 
-0.00372093 -0.114696 -0.814273 
0.0853557 0.000458056 -0.00562821 
0.000458056 0.884464 -0.1147 
-0.00562821 -0.1147 -0.830459 
-0.00447977 0.00101049 0.0102233 
0.00101049 0.376166 0.00316388 
0.0102233 0.00316388 -0.508383 
-0.0238705 0.00029575 0.00655137 
0.00029575 0.376545 0.00317745 
0.00655137 0.00317745 -0.489371 
-0.0228668 -0.000203087 0.00655056 
-0.000203087 0.763782 0.098863 
0.00655056 0.098863 -0.877612 
-0.00283165 0.000511648 0.010239 
0.000511648 0.762801 0.0988363 
0.010239 0.0988363 -0.896666 
-0.0151071 0.000999331 0.0108067 
0.000999331 0.173071 0.0583884 
0.0108067 0.0583884 -0.294661 
-0.0362715 0.000301152 0.00713481 
0.000301152 0.173478 0.0583707 
0.00713481 0.0583707 -0.273903 
-0.0352751 -0.000184609 0.00716525 
-0.000184609 0.486707 0.154056 
0.00716525 0.154056 -0.588128 
-0.0135257 0.00051357 0.0108537 
0.00051357 0.485812 0.154061 
0.0108537 0.154061 -0.608983 
-0.181356 0.000410654 0.0291221 
0.000410654 0.124712 0.136048 
0.0291221 0.136048 -0.602553 
-0.20288 0.000113514 0.0181864 
0.000113514 0.12482 0.135991 
0.0181864 0.135991 -0.581136 
-0.20239 -8.06383e-05 0.0181801 
-8.06383e-05 0.415275 0.331931 
0.0181801 0.331931 -0.872082 
-0.180639 0.000216502 0.0290923 
0.000216502 0.414842 0.331996 
0.0290923 0.331996 -0.893399 
-0.215923 0.000437385 0.0297415 
0.000437385 -0.346837 0.163985 
0.0297415 0.163985 -0.0964359 
-0.23313 0.000116753 0.0188058 
0.000116753 -0.346814 0.163955 
0.0188058 0.163955 -0.0792528 
-0.23273 -8.63417e-05 0.0187727 
-8.63417e-05 -0.263548 0.359894 
0.0187727 0.359894 -0.162919 
-0.21501 0.000234291 0.0296849 
0.000234291 -0.264105 0.359933 
0.0296849 0.359933 -0.180081 
0.19277 -0.000760261 0.0415753 
-0.000760261 0.329325 0.163462 
0.0415753 0.163462 0.0850794 
0.222246 -0.000218837 0.0297415 
-0.000218837 0.328983 0.163405 
0.0297415 0.163405 0.0559444 
0.221772 0.000252777 0.0296849 
0.000252777 0.245608 0.358734 
0.0296849 0.358734 0.139794 
0.191341 -0.000288647 0.0414957 
-0.000288647 0.24691 0.358812 
0.0414957 0.358812 0.168923 
0.1576 -0.000737756 0.0415817 
-0.000737756 -0.140122 0.135365 
0.0415817 0.135365 0.589697 
0.186887 -0.00021933 0.0297479 
-0.00021933 -0.140626 0.135303 
0.0297479 0.135303 0.560913 
0.186249 0.000231074 0.0296965 
0.000231074 -0.431571 0.330632 
0.0296965 0.330632 0.852497 
0.156438 -0.000287352 0.0415073 
-0.000287352 -0.430527 0.330715 
0.0415073 0.330715 0.881263 
-0.00585174 -0.00144178 0.0143975 
-0.00144178 -0.187424 0.0578018 
0.0143975 0.0578018 0.281688 
0.0224381 -0.00036102 0.0114325 
-0.00036102 -0.189195 0.0578093 
0.0114325 0.0578093 0.255169 
0.0214364 0.000858744 0.0114579 
0.000858744 -0.502943 0.153098 
0.0114579 0.153098 0.569919 
-0.00771302 -0.000222011 0.0144614 
-0.000222011 -0.500345 0.153067 
0.0144614 0.153067 0.59647 
-0.0142529 -0.00148799 0.015595 
-0.00148799 -0.38899 0.00224605 
0.015595 0.00224605 0.491655 
0.00783446 -0.000368673 0.0126301 
-0.000368673 -0.390732 0.0022844 
0.0126301 0.0022844 0.471309 
0.00686533 0.00087453 0.0126246 
0.00087453 -0.778453 0.0975729 
0.0126246 0.0975729 0.86 
-0.0163192 -0.000244789 0.0156281 
-0.000244789 -0.775721 0.0975111 
0.0156281 0.0975111 0.880452 
-0.0958374 -0.00125591 -0.00581301 
-0.00125591 -0.511978 -0.0959169 
-0.00581301 -0.0959169 0.430281 
-0.0779461 -0.000169712 -0.00323006 
-0.000169712 -0.514765 -0.0958939 
-0.00323006 -0.0958939 0.415176 
-0.0785137 0.0014195 -0.00324269 
0.0014195 -0.897943 -0.115291 
-0.00324269 -0.115291 0.798922 
-0.0968116 0.000333301 -0.00583237 
0.000333301 -0.894677 -0.115311 
-0.00583237 -0.115311 0.813954 
-0.0935989 -0.00126509 -0.00343208 
-0.00126509 -0.386488 -0.153543 
-0.00343208 -0.153543 0.302552 
-0.0792987 -0.000185625 -0.000849129 
-0.000185625 -0.389291 -0.153523 
-0.000849129 -0.153523 0.291055 
-0.0798105 0.00139983 -0.000858374 
0.00139983 -0.717273 -0.17292 
-0.000858374 -0.17292 0.619549 
-0.0945987 0.000320366 -0.00344806 
0.000320366 -0.71404 -0.172936 
-0.00344806 -0.172936 0.631104 
-0.0960042 -0.00074931 -0.017505 
-0.00074931 -0.585563 -0.236758 
-0.017505 -0.236758 0.468423 
-0.0895291 1.89029e-05 -0.0119878 
1.89029e-05 -0.588155 -0.23676 
-0.0119878 -0.23676 0.464541 
-0.0896093 0.00136648 -0.0120279 
0.00136648 -0.894786 -0.34797 
-0.0120279 -0.34797 0.771252 
-0.0962115 0.000598271 -0.0176053 
0.000598271 -0.892005 -0.347935 
-0.0176053 -0.347935 0.775073 
-0.0928957 -0.000695085 -0.0151379 
-0.000695085 -0.178676 -0.276701 
-0.0151379 -0.276701 0.0584283 
-0.0835713 1.29774e-05 -0.00962066 
1.29774e-05 -0.181341 -0.276722 
-0.00962066 -0.276722 0.0517694 
-0.0836456 0.00132724 -0.00964176 
0.00132724 -0.371842 -0.387932 
-0.00964176 -0.387932 0.242345 
-0.0928401 0.000619182 -0.0152192 
0.000619182 -0.369284 -0.387878 
-0.0152192 -0.387878 0.24898 
-0.0387054 -0.000269875 -0.0219699 
-0.000269875 -0.429503 -0.323224 
-0.0219699 -0.323224 0.378419 
-0.0402119 3.46313e-05 -0.0152651 
3.46313e-05 -0.430522 -0.323259 
-0.0152651 -0.323259 0.380945 
-0.0401485 0.000579407 -0.0153128 
0.000579407 -0.586443 -0.483913 
-0.0153128 -0.483913 0.536803 
-0.0388416 0.000274901 -0.0221123 
0.000274901 -0.585233 -0.483825 
-0.0221123 -0.483825 0.534286 
-0.037271 -0.000169298 -0.0209911 
-0.000169298 0.134294 -0.33723 
-0.0209911 -0.33723 -0.186812 
-0.0312812 4.0546e-05 -0.0142862 
4.0546e-05 0.133162 -0.337275 
-0.0142862 -0.337275 -0.19167 
-0.0312668 0.000532736 -0.0143243 
0.000532736 0.113498 -0.497928 
-0.0143243 -0.497928 -0.17202 
-0.0369349 0.000322892 -0.0211238 
0.000322892 0.114361 -0.497831 
-0.0211238 -0.497831 -0.167215 
0.0372712 0.000169298 -0.0209911 
0.000169298 -0.134294 -0.33723 
-0.0209911 -0.33723 0.186812 
0.0312813 -4.0546e-05 -0.0142862 
-4.0546e-05 -0.133162 -0.337275 
-0.0142862 -0.337275 0.19167 
0.0312669 -0.000532736 -0.0143243 
-0.000532736 -0.113498 -0.497928 
-0.0143243 -0.497928 0.17202 
0.0369351 -0.000322892 -0.0211238 
-0.000322892 -0.114361 -0.497831 
-0.0211238 -0.497831 0.167215 
0.0387055 0.000269875 -0.0219699 
0.000269875 0.429503 -0.323224 
-0.0219699 -0.323224 -0.378419 
0.040212 -3.46313e-05 -0.0152651 
-3.46313e-05 0.430523 -0.323259 
-0.0152651 -0.323259 -0.380945 
0.0401487 -0.000579407 -0.0153128 
-0.000579407 0.586443 -0.483913 
-0.0153128 -0.483913 -0.536803 
0.0388417 -0.000274901 -0.0221123 
-0.000274901 0.585234 -0.483825 
-0.0221123 -0.483825 -0.534286 
0.0928959 0.000695085 -0.0151379 
0.000695085 0.178676 -0.276701 
-0.0151379 -0.276701 -0.0584281 
0.0835715 -1.29774e-05 -0.00962066 
-1.29774e-05 0.181342 -0.276722 
-0.00962066 -0.276722 -0.0517692 
0.0836458 -0.00132724 -0.00964176 
-0.00132724 0.371843 -0.387932 
-0.00964176 -0.387932 -0.242345 
0.0928402 -0.000619182 -0.0152192 
-0.000619182 0.369284 -0.387878 
-0.0152192 -0.387878 -0.24898 
0.0960043 0.00074931 -0.017505 
0.00074931 0.585563 -0.236758 
-0.017505 -0.236758 -0.468423 
0.0895292 -1.89029e-05 -0.0119878 
-1.89029e-05 0.588155 -0.23676 
-0.0119878 -0.23676 -0.464541 
0.0896094 -0.00136648 -0.0120279 
-0.00136648 0.894786 -0.34797 
-0.0120279 -0.34797 -0.771252 
0.0962117 -0.000598271 -0.0176053 
-0.000598271 0.892005 -0.347935 
-0.0176053 -0.347935 -0.775073 
0.093599 0.00126509 -0.00343208 
0.00126509 0.386488 -0.153543 
-0.00343208 -0.153543 -0.302552 
0.0792988 0.000185625 -0.000849129 
0.000185625 0.389291 -0.153523 
-0.000849129 -0.153523 -0.291054 
0.0798106 -0.00139983 -0.000858374 
-0.00139983 0.717273 -0.17292 
-0.000858374 -0.17292 -0.619549 
0.0945989 -0.000320366 -0.00344806 
-0.000320366 0.71404 -0.172936 
-0.00344806 -0.172936 -0.631104 
0.0958375 0.00125591 -0.00581301 
0.00125591 0.511978 -0.0959169 
-0.00581301 -0.0959169 -0.430281 
0.0779462 0.000169712 -0.00323006 
0.000169712 0.514765 -0.0958939 
-0.00323006 -0.0958939 -0.415176 
0.0785138 -0.0014195 -0.00324269 
-0.0014195 0.897943 -0.115291 
-0.00324269 -0.115291 -0.798922 
0.0968117 -0.000333301 -0.00583237 
-0.000333301 0.894677 -0.115311 
-0.00583237 -0.115311 -0.813954 
0.014253 0.00148799 0.015595 
0.00148799 0.38899 0.00224605 
0.015595 0.00224605 -0.491655 
-0.00783432 0.000368673 0.0126301 
0.000368673 0.390732 0.0022844 
0.0126301 0.0022844 -0.471309 
-0.00686519 -0.00087453 0.0126246 
-0.00087453 0.778453 0.0975729 
0.0126246 0.0975729 -0.86 
0.0163193 0.000244789 0.0156281 
0.000244789 0.775721 0.0975111 
0.0156281 0.0975111 -0.880452 
0.00585188 0.00144178 0.0143975 
0.00144178 0.187424 0.0578018 
0.0143975 0.0578018 -0.281688 
-0.0224379 0.00036102 0.0114325 
0.00036102 0.189195 0.0578093 
0.0114325 0.0578093 -0.255168 
-0.0214362 -0.000858744 0.0114579 
-0.000858744 0.502944 0.153098 
0.0114579 0.153098 -0.569919 
0.00771317 0.000222011 0.0144614 
0.000222011 0.500345 0.153067 
0.0144614 0.153067 -0.59647 
-0.1576 0.000737756 0.0415817 
0.000737756 0.140123 0.135365 
0.0415817 0.135365 -0.589697 
-0.186887 0.00021933 0.0297479 
0.00021933 0.140626 0.135303 
0.0297479 0.135303 -0.560913 
-0.186248 -0.000231074 0.0296965 
-0.000231074 0.431572 0.330632 
0.0296965 0.330632 -0.852497 
-0.156438 0.000287352 0.0415073 
0.000287352 0.430527 0.330715 
0.0415073 0.330715 -0.881263 
-0.19277 0.000760261 0.0415753 
0.000760261 -0.329325 0.163462 
0.0415753 0.163462 -0.0850793 
-0.222246 0.000218837 0.0297415 
0.000218837 -0.328983 0.163405 
0.0297415 0.163405 -0.0559442 
-0.221772 -0.000252777 0.0296849 
-0.000252777 -0.245608 0.358734 
0.0296849 0.358734 -0.139794 
-0.191341 0.000288647 0.0414957 
0.000288647 -0.24691 0.358812 
0.0414957 0.358812 -0.168923 
0.155323 -0.00111854 0.0528723 
-0.00111854 0.30131 0.162254 
0.0528723 0.162254 0.0657482 
0.202197 -0.000286854 0.0415753 
-0.000286854 0.299887 0.162159 
0.0415753 0.162159 0.0202977 
0.201931 0.000774115 0.0414957 
0.000774115 0.215467 0.356034 
0.0414957 0.356034 0.104985 
0.153561 -5.75722e-05 0.0527893 
-5.75722e-05 0.218332 0.356175 
0.0527893 0.356175 0.150489 
0.127585 -0.00113104 0.0546554 
-0.00113104 -0.163927 0.134028 
0.0546554 0.134028 0.558724 
0.161946 -0.000302817 0.0433583 
-0.000302817 -0.165621 0.13401 
0.0433583 0.13401 0.526058 
0.161435 0.000713348 0.0432012 
0.000713348 -0.457157 0.327886 
0.0432012 0.327886 0.818105 
0.126082 -0.000114873 0.0544947 
-0.000114873 -0.454764 0.327949 
0.0544947 0.327949 0.851064 
-0.0312628 -0.001508 0.017511 
-0.001508 -0.207418 0.0565931 
0.017511 0.0565931 0.253726 
0.00140199 1.63394e-05 0.0161741 
1.63394e-05 -0.213023 0.0566799 
0.0161741 0.0566799 0.226667 
0.00133206 0.00292289 0.0161553 
0.00292289 -0.527533 0.150901 
0.0161553 0.150901 0.541247 
-0.0322683 0.00139854 0.0175574 
0.00139854 -0.520759 0.15078 
0.0175574 0.15078 0.568073 
-0.0342022 -0.00162279 0.0230359 
-0.00162279 -0.405735 0.000868537 
0.0230359 0.000868537 0.454983 
-0.0159452 -3.32817e-05 0.021699 
-3.32817e-05 -0.411346 0.000952955 
0.021699 0.000952955 0.442337 
-0.0158627 0.002907 0.0216825 
0.002907 -0.799126 0.0951741 
0.0216825 0.0951741 0.830034 
-0.0356515 0.00131749 0.0230846 
0.00131749 -0.792206 0.0950559 
0.0230846 0.0950559 0.842903 
-0.104593 -0.000596231 -0.00289482 
-0.000596231 -0.522654 -0.0964368 
-0.00289482 -0.0964368 0.394372 
-0.0924944 0.000794136 0.00029092 
0.000794136 -0.531179 -0.0963741 
0.00029092 -0.0963741 0.390799 
-0.0910202 0.00465843 0.000222091 
0.00465843 -0.914745 -0.115929 
0.000222091 -0.115929 0.77289 
-0.103332 0.00326806 -0.00300317 
0.00326806 -0.905757 -0.115977 
-0.00300317 -0.115977 0.776215 
-0.109162 -0.000575644 0.00483006 
-0.000575644 -0.396134 -0.154114 
0.00483006 -0.154114 0.272421 
-0.100012 0.000775206 0.0080158 
0.000775206 -0.404723 -0.154122 
0.0080158 -0.154122 0.27186 
-0.0984569 0.00462424 0.00801758 
0.00462424 -0.732687 -0.173677 
0.00801758 -0.173677 0.598269 
-0.107806 0.00327339 0.00479232 
0.00327339 -0.723831 -0.173653 
0.00479232 -0.173653 0.598762 
-0.0914747 0.000119494 -0.0106765 
0.000119494 -0.58881 -0.236228 
-0.0106765 -0.236228 0.433136 
-0.0947944 0.00103335 -0.00605715 
0.00103335 -0.596545 -0.236261 
-0.00605715 -0.236261 0.444191 
-0.0927474 0.00432614 -0.00613964 
0.00432614 -0.903315 -0.346537 
-0.00613964 -0.346537 0.748914 
-0.0894315 0.00341228 -0.0108884 
0.00341228 -0.895555 -0.346439 
-0.0108884 -0.346439 0.737838 
-0.107757 0.000288956 -0.00403908 
0.000288956 -0.183785 -0.276152 
-0.00403908 -0.276152 0.0443933 
-0.100048 0.00107341 0.000580315 
0.00107341 -0.191637 -0.276259 
0.000580315 -0.276259 0.0445366 
-0.098116 0.00430199 0.000571571 
0.00430199 -0.38217 -0.386535 
0.000571571 -0.386535 0.233137 
-0.10502 0.00351753 -0.00417723 
0.00351753 -0.374814 -0.386364 
-0.00417723 -0.386364 0.232686 
-0.0265542 7.07111e-05 -0.0110792 
7.07111e-05 -0.428568 -0.321923 
-0.0110792 -0.321923 0.353904 
-0.0365708 0.000437982 -0.00625172 
0.000437982 -0.431631 -0.322047 
-0.00625172 -0.322047 0.366984 
-0.0355367 0.00175804 -0.00632156 
0.00175804 -0.587515 -0.481031 
-0.00632156 -0.481031 0.521834 
-0.0259431 0.00139077 -0.0113266 
0.00139077 -0.584268 -0.480812 
-0.0113266 -0.480812 0.508993 
-0.0520665 0.000332486 -0.00848271 
0.000332486 0.131379 -0.33591 
-0.00848271 -0.33591 -0.180531 
-0.0421918 0.000522167 -0.00365524 
0.000522167 0.128165 -0.336065 
-0.00365524 -0.336065 -0.187191 
-0.0414317 0.0017474 -0.00369439 
0.0017474 0.108417 -0.495049 
-0.00369439 -0.495049 -0.168203 
-0.0503871 0.00155772 -0.00869945 
0.00155772 0.111088 -0.494799 
-0.00869945 -0.494799 -0.161919 
0.0520666 -0.000332486 -0.00848271 
-0.000332486 -0.131379 -0.33591 
-0.00848271 -0.33591 0.180531 
0.042192 -0.000522167 -0.00365524 
-0.000522167 -0.128165 -0.336065 
-0.00365524 -0.336065 0.187191 
0.0414318 -0.0017474 -0.00369439 
-0.0017474 -0.108417 -0.495049 
-0.00369439 -0.495049 0.168203 
0.0503872 -0.00155772 -0.00869945 
-0.00155772 -0.111088 -0.494799 
-0.00869945 -0.494799 0.161919 
0.0265544 -7.07111e-05 -0.0110792 
-7.07111e-05 0.428568 -0.321923 
-0.0110792 -0.321923 -0.353904 
0.036571 -0.000437982 -0.00625172 
-0.000437982 0.431631 -0.322047 
-0.00625172 -0.322047 -0.366984 
0.0355368 -0.00175804 -0.00632156 
-0.00175804 0.587515 -0.481031 
-0.00632156 -0.481031 -0.521834 
0.0259432 -0.00139077 -0.0113266 
-0.00139077 0.584268 -0.480812 
-0.0113266 -0.480812 -0.508993 
0.107757 -0.000288956 -0.00403908 
-0.000288956 0.183785 -0.276152 
-0.00403908 -0.276152 -0.0443931 
0.100048 -0.00107341 0.000580315 
-0.00107341 0.191637 -0.276259 
0.000580315 -0.276259 -0.0445365 
0.0981162 -0.00430199 0.000571571 
-0.00430199 0.38217 -0.386535 
0.000571571 -0.386535 -0.233137 
0.10502 -0.00351753 -0.00417723 
-0.00351753 0.374814 -0.386364 
-0.00417723 -0.386364 -0.232686 
0.0914748 -0.000119494 -0.0106765 
-0.000119494 0.58881 -0.236228 
-0.0106765 -0.236228 -0.433136 
0.0947945 -0.00103335 -0.00605715 
-0.00103335 0.596545 -0.236261 
-0.00605715 -0.236261 -0.444191 
0.0927475 -0.00432614 -0.00613964 
-0.00432614 0.903315 -0.346537 
-0.00613964 -0.346537 -0.748914 
0.0894317 -0.00341228 -0.0108884 
-0.00341228 0.895555 -0.346439 
-0.0108884 -0.346439 -0.737838 
0.109162 0.000575644 0.00483006 
0.000575644 0.396134 -0.154114 
0.00483006 -0.154114 -0.272421 
0.100012 -0.000775206 0.0080158 
-0.000775206 0.404723 -0.154122 
0.0080158 -0.154122 -0.27186 
0.098457 -0.00462424 0.00801758 
-0.00462424 0.732687 -0.173677 
0.00801758 -0.173677 -0.598269 
0.107806 -0.00327339 0.00479232 
-0.00327339 0.723831 -0.173653 
0.00479232 -0.173653 -0.598762 
0.104593 0.000596231 -0.00289482 
0.000596231 0.522654 -0.0964368 
-0.00289482 -0.0964368 -0.394372 
0.0924945 -0.000794136 0.00029092 
-0.000794136 0.53118 -0.0963741 
0.00029092 -0.0963741 -0.390799 
0.0910203 -0.00465843 0.000222091 
-0.00465843 0.914745 -0.115929 
0.000222091 -0.115929 -0.77289 
0.103332 -0.00326806 -0.00300317 
-0.00326806 0.905758 -0.115977 
-0.00300317 -0.115977 -0.776215 
0.0342023 0.00162279 0.0230359 
0.00162279 0.405735 0.000868537 
0.0230359 0.000868537 -0.454983 
0.0159454 3.32817e-05 0.021699 
3.32817e-05 0.411346 0.000952955 
0.021699 0.000952955 -0.442336 
0.0158629 -0.002907 0.0216825 
-0.002907 0.799126 0.0951741 
0.0216825 0.0951741 -0.830034 
0.0356516 -0.00131749 0.0230846 
-0.00131749 0.792206 0.0950559 
0.0230846 0.0950559 -0.842903 
0.0312629 0.001508 0.017511 
0.001508 0.207418 0.0565931 
0.017511 0.0565931 -0.253726 
-0.00140184 -1.63394e-05 0.0161741 
-1.63394e-05 0.213023 0.0566799 
0.0161741 0.0566799 -0.226667 
-0.00133192 -0.00292289 0.0161553 
-0.00292289 0.527533 0.150901 
0.0161553 0.150901 -0.541247 
0.0322684 -0.00139854 0.0175574 
-0.00139854 0.520759 0.15078 
0.0175574 0.15078 -0.568073 
-0.127585 0.00113104 0.0546554 
0.00113104 0.163927 0.134028 
0.0546554 0.134028 -0.558724 
-0.161945 0.000302817 0.0433583 
0.000302817 0.165622 0.13401 
0.0433583 0.13401 -0.526058 
-0.161435 -0.000713348 0.0432012 
-0.000713348 0.457157 0.327886 
0.0432012 0.327886 -0.818104 
-0.126082 0.000114873 0.0544947 
0.000114873 0.454764 0.327949 
0.0544947 0.327949 -0.851063 
-0.155323 0.00111854 0.0528723 
0.00111854 -0.30131 0.162254 
0.0528723 0.162254 -0.065748 
-0.202197 0.000286854 0.0415753 
0.000286854 -0.299887 0.162159 
0.0415753 0.162159 -0.0202975 
-0.201931 -0.000774115 0.0414957 
-0.000774115 -0.215466 0.356034 
0.0414957 0.356034 -0.104984 
-0.15356 5.75722e-05 0.0527893 
5.75722e-05 -0.218332 0.356175 
0.0527893 0.356175 -0.150489 
0.0988353 -0.00116099 0.0605544 
-0.00116099 0.260131 0.159476 
0.0605544 0.159476 0.0354313 
0.168677 -6.26825e-05 0.0528723 
-6.26825e-05 0.255672 0.159333 
0.0528723 0.159333 -0.0299519 
0.169603 0.00227904 0.0527893 
0.00227904 0.167905 0.349879 
0.0527893 0.349879 0.0568894 
0.0978007 0.00118074 0.0605202 
0.00118074 0.174107 0.350105 
0.0605202 0.350105 0.122489 
0.0932815 -0.00126908 0.0659463 
-0.00126908 -0.196559 0.131355 
0.0659463 0.131355 0.497674 
0.126764 -0.00012202 0.0582642 
-0.00012202 -0.201429 0.131505 
0.0582642 0.131505 0.469062 
0.127419 0.00213601 0.0578892 
0.00213601 -0.493372 0.32205 
0.0578892 0.32205 0.760351 
0.0923004 0.000988944 0.0656201 
0.000988944 -0.487956 0.321984 
0.0656201 0.321984 0.790053 
-0.0587544 -2.93409e-05 0.019647 
-2.93409e-05 -0.23081 0.0541812 
0.019647 0.0541812 0.202419 
-0.0267922 0.00174604 0.0211199 
0.00174604 -0.246021 0.0544514 
0.0211199 0.0544514 0.185668 
-0.0232356 0.00838325 0.0209518 
0.00838325 -0.561431 0.146067 
0.0209518 0.146067 0.497521 
-0.0554878 0.00660787 0.0195519 
0.00660787 -0.544987 0.145772 
0.0195519 0.145772 0.513329 
-0.0525552 -0.000248079 0.0333807 
-0.000248079 -0.422365 -0.000996382 
0.0333807 -0.000996382 0.387774 
-0.0471519 0.00160022 0.0348536 
0.00160022 -0.437721 -0.000855486 
0.0348536 -0.000855486 0.397727 
-0.0431955 0.00826172 0.0348148 
0.00826172 -0.823973 0.09076 
0.0348148 0.09076 0.780024 
-0.0500145 0.00641342 0.0334149 
0.00641342 -0.807566 0.0905949 
0.0334149 0.0905949 0.770435 
-0.105901 0.00247633 0.0057178 
0.00247633 -0.528508 -0.0962833 
0.0057178 -0.0962833 0.329003 
-0.108537 0.00388002 0.00892291 
0.00388002 -0.550683 -0.0961566 
0.00892291 -0.0961566 0.353814 
-0.101114 0.0127478 0.00872706 
0.0127478 -0.933375 -0.116113 
0.00872706 -0.116113 0.729084 
-0.0981704 0.0113441 0.00540948 
0.0113441 -0.910933 -0.116196 
0.00540948 -0.116196 0.703698 
-0.124283 0.00258593 0.023078 
0.00258593 -0.401105 -0.153166 
0.023078 -0.153166 0.219982 
-0.126425 0.00387716 0.0262831 
0.00387716 -0.423448 -0.153263 
0.0262831 -0.153263 0.244468 
-0.118945 0.0127004 0.0263116 
0.0127004 -0.749973 -0.17322 
0.0263116 -0.17322 0.563512 
-0.116106 0.0114092 0.022994 
0.0114092 -0.727898 -0.173078 
0.022994 -0.173078 0.538598 
-0.0767714 0.00314157 0.00867809 
0.00314157 -0.583754 -0.232751 
0.00867809 -0.232751 0.370722 
-0.097679 0.00393887 0.0107765 
0.00393887 -0.60337 -0.232854 
0.0107765 -0.232854 0.411245 
-0.0901372 0.0114614 0.0106308 
0.0114614 -0.90861 -0.340908 
0.0106308 -0.340908 0.708943 
-0.0691144 0.0106641 0.00831936 
0.0106641 -0.88925 -0.340704 
0.00831936 -0.340704 0.668561 
-0.125554 0.00352029 0.0227399 
0.00352029 -0.185289 -0.272004 
0.0227399 -0.272004 0.0210391 
-0.121468 0.00410456 0.0248383 
0.00410456 -0.205038 -0.272292 
0.0248383 -0.272292 0.0367028 
-0.114362 0.0115259 0.0248765 
0.0115259 -0.394992 -0.380346 
0.0248765 -0.380346 0.219551 
-0.116508 0.0109416 0.0225651 
0.0109416 -0.376219 -0.379958 
0.0225651 -0.379958 0.202923 
-0.00527693 0.0012362 0.0168848 
0.0012362 -0.421198 -0.316081 
0.0168848 -0.316081 0.311259 
-0.0287611 0.00155897 0.0177982 
0.00155897 -0.428963 -0.31637 
0.0177982 -0.31637 0.342508 
-0.0253466 0.00453845 0.0177271 
0.00453845 -0.583501 -0.471394 
0.0177271 -0.471394 0.493632 
-0.00271909 0.00421568 0.0165637 
0.00421568 -0.575657 -0.470972 
0.0165637 -0.470972 0.46316 
-0.0732539 0.00175936 0.0222441 
0.00175936 0.127192 -0.32981 
0.0222441 -0.32981 -0.169154 
-0.0577979 0.00183209 0.0231575 
0.00183209 0.119325 -0.330168 
0.0231575 -0.330168 -0.176743 
-0.0551547 0.00467851 0.0231553 
0.00467851 0.0990508 -0.485191 
0.0231553 -0.485191 -0.159112 
-0.0688065 0.00460578 0.0219918 
0.00460578 0.106199 -0.4847 
0.0219918 -0.4847 -0.152609 
0.073254 -0.00175936 0.0222441 
-0.00175936 -0.127191 -0.32981 
0.0222441 -0.32981 0.169154 
0.057798 -0.00183209 0.0231575 
-0.00183209 -0.119325 -0.330168 
0.0231575 -0.330168 0.176743 
0.0551548 -0.00467851 0.0231553 
-0.00467851 -0.0990507 -0.485191 
0.0231553 -0.485191 0.159112 
0.0688066 -0.00460578 0.0219918 
-0.00460578 -0.106199 -0.4847 
0.0219918 -0.4847 0.152609 
0.00527707 -0.0012362 0.0168848 
-0.0012362 0.421198 -0.316081 
0.0168848 -0.316081 -0.311259 
0.0287613 -0.00155897 0.0177982 
-0.00155897 0.428964 -0.31637 
0.0177982 -0.31637 -0.342508 
0.0253467 -0.00453845 0.0177271 
-0.00453845 0.583502 -0.471394 
0.0177271 -0.471394 -0.493632 
0.00271923 -0.00421568 0.0165637 
-0.00421568 0.575657 -0.470972 
0.0165637 -0.470972 -0.46316 
0.125554 -0.00352029 0.0227399 
-0.00352029 0.185289 -0.272004 
0.0227399 -0.272004 -0.021039 
0.121468 -0.00410456 0.0248383 
-0.00410456 0.205038 -0.272292 
0.0248383 -0.272292 -0.0367027 
0.114363 -0.0115259 0.0248765 
-0.0115259 0.394992 -0.380346 
0.0248765 -0.380346 -0.21955 
0.116508 -0.0109416 0.0225651 
-0.0109416 0.376219 -0.379958 
0.0225651 -0.379958 -0.202923 
0.0767715 -0.00314157 0.00867809 
-0.00314157 0.583754 -0.232751 
0.00867809 -0.232751 -0.370722 
0.0976792 -0.00393887 0.0107765 
-0.00393887 0.60337 -0.232854 
0.0107765 -0.232854 -0.411245 
0.0901374 -0.0114614 0.0106308 
-0.0114614 0.90861 -0.340908 
0.0106308 -0.340908 -0.708943 
0.0691146 -0.0106641 0.00831936 
-0.0106641 0.88925 -0.340704 
0.00831936 -0.340704 -0.668561 
0.124283 -0.00258593 0.023078 
-0.00258593 0.401105 -0.153166 
0.023078 -0.153166 -0.219982 
0.126425 -0.00387716 0.0262831 
-0.00387716 0.423448 -0.153263 
0.0262831 -0.153263 -0.244468 
0.118945 -0.0127004 0.0263116 
-0.0127004 0.749973 -0.17322 
0.0263116 -0.17322 -0.563512 
0.116106 -0.0114092 0.022994 
-0.0114092 0.727898 -0.173078 
0.022994 -0.173078 -0.538598 
0.105901 -0.00247633 0.0057178 
-0.00247633 0.528508 -0.0962833 
0.0057178 -0.0962833 -0.329003 
0.108538 -0.00388002 0.00892291 
-0.00388002 0.550683 -0.0961566 
0.00892291 -0.0961566 -0.353814 
0.101114 -0.0127478 0.00872706 
-0.0127478 0.933376 -0.116113 
0.00872706 -0.116113 -0.729084 
0.0981706 -0.0113441 0.00540948 
-0.0113441 0.910933 -0.116196 
0.00540948 -0.116196 -0.703698 
0.0525553 0.000248079 0.0333807 
0.000248079 0.422365 -0.000996382 
0.0333807 -0.000996382 -0.387774 
0.0471521 -0.00160022 0.0348536 
-0.00160022 0.437721 -0.000855486 
0.0348536 -0.000855486 -0.397727 
0.0431957 -0.00826172 0.0348148 
-0.00826172 0.823974 0.09076 
0.0348148 0.09076 -0.780023 
0.0500146 -0.00641342 0.0334149 
-0.00641342 0.807566 0.0905949 
0.0334149 0.0905949 -0.770435 
0.0587545 2.93409e-05 0.019647 
2.93409e-05 0.23081 0.0541812 
0.019647 0.0541812 -0.202419 
0.0267924 -0.00174604 0.0211199 
-0.00174604 0.246021 0.0544514 
0.0211199 0.0544514 -0.185668 
0.0232358 -0.00838325 0.0209518 
-0.00838325 0.561431 0.146067 
0.0209518 0.146067 -0.497521 
0.055488 -0.00660787 0.0195519 
-0.00660787 0.544987 0.145772 
0.0195519 0.145772 -0.513329 
-0.0932814 0.00126908 0.0659463 
0.00126908 0.196559 0.131355 
0.0659463 0.131355 -0.497674 
-0.126764 0.00012202 0.0582642 
0.00012202 0.201429 0.131505 
0.0582642 0.131505 -0.469062 
-0.127419 -0.00213601 0.0578892 
-0.00213601 0.493373 0.32205 
0.0578892 0.32205 -0.760351 
-0.0923002 -0.000988944 0.0656201 
-0.000988944 0.487956 0.321984 
0.0656201 0.321984 -0.790053 
-0.0988352 0.00116099 0.0605544 
0.00116099 -0.26013 0.159476 
0.0605544 0.159476 -0.0354312 
-0.168677 6.26825e-05 0.0528723 
6.26825e-05 -0.255672 0.159333 
0.0528723 0.159333 0.0299521 
-0.169603 -0.00227904 0.0527893 
-0.00227904 -0.167905 0.349879 
0.0527893 0.349879 -0.0568892 
-0.0978006 -0.00118074 0.0605202 
-0.00118074 -0.174107 0.350105 
0.0605202 0.350105 -0.122489 
0.0203031 0.000124994 0.0597613 
0.000124994 0.205232 0.153184 
0.0597613 0.153184 -0.00864286 
0.117448 0.00117824 0.0605544 
0.00117824 0.193067 0.152987 
0.0605544 0.152987 -0.0936226 
0.121888 0.00625395 0.0605202 
0.00625395 0.097433 0.336112 
0.0605202 0.336112 -0.00242855 
0.0231879 0.0052007 0.0597764 
0.0052007 0.110597 0.336439 
0.0597764 0.336439 0.0831078 
0.0586372 -8.71907e-05 0.0713786 
-8.71907e-05 -0.233696 0.125918 
0.0713786 0.125918 0.391951 
0.0808309 0.00101535 0.0721717 
0.00101535 -0.246488 0.12641 
0.0721717 0.12641 0.38255 
0.0852265 0.00596056 0.0714481 
0.00596056 -0.537471 0.309535 
0.0714481 0.309535 0.669137 
0.0613459 0.00485802 0.0707043 
0.00485802 -0.525518 0.309173 
0.0707043 0.309173 0.681064 
-0.0844693 0.0056435 0.0208168 
0.0056435 -0.249652 0.049584 
0.0208168 0.049584 0.118562 
-0.0602914 0.00698898 0.0258723 
0.00698898 -0.286906 0.0501556 
0.0258723 0.0501556 0.131638 
-0.046475 0.0216292 0.0253799 
0.0216292 -0.602818 0.135913 
0.0253799 0.135913 0.433734 
-0.0696278 0.0202837 0.020325 
0.0202837 -0.564322 0.135387 
0.020325 0.135387 0.418391 
-0.0678377 0.00532833 0.0480715 
0.00532833 -0.427526 -0.00324925 
0.0480715 -0.00324925 0.279804 
-0.0842352 0.00667438 0.0531271 
0.00667438 -0.465279 -0.00307522 
0.0531271 -0.00307522 0.333955 
-0.069642 0.021269 0.0530322 
0.021269 -0.845981 0.0826821 
0.0530322 0.0826821 0.700064 
-0.0537754 0.019923 0.0479773 
0.019923 -0.808187 0.0825535 
0.0479773 0.0825535 0.646403 
-0.097242 0.0110287 0.0237309 
0.0110287 -0.51623 -0.0939663 
0.0237309 -0.0939663 0.224408 
-0.12217 0.0117038 0.0254641 
0.0117038 -0.567869 -0.093746 
0.0254641 -0.093746 0.300974 
-0.100849 0.0309831 0.0250268 
0.0309831 -0.945826 -0.114456 
0.0250268 -0.114456 0.65761 
-0.0753529 0.030308 0.023079 
0.030308 -0.89365 -0.114582 
0.023079 -0.114582 0.579938 
-0.139849 0.0113174 0.0561733 
0.0113174 -0.389434 -0.14805 
0.0561733 -0.14805 0.140218 
-0.155923 0.0117779 0.0579065 
0.0117779 -0.441398 -0.148364 
0.0579065 -0.148364 0.208257 
-0.134749 0.0309624 0.0580036 
0.0309624 -0.762965 -0.169075 
0.0580036 -0.169075 0.508649 
-0.116853 0.030502 0.0560558 
0.030502 -0.711539 -0.168666 
0.0560558 -0.168666 0.439327 
-0.0523927 0.0105857 0.0460218 
0.0105857 -0.557058 -0.222258 
0.0460218 -0.222258 0.273713 
-0.0952552 0.010781 0.0435066 
0.010781 -0.601307 -0.222491 
0.0435066 -0.222491 0.360825 
-0.0759848 0.026897 0.043329 
0.026897 -0.900476 -0.325501 
0.043329 -0.325501 0.640724 
-0.0339519 0.0267018 0.045587 
0.0267018 -0.856017 -0.325168 
0.045587 -0.325168 0.554232 
-0.146959 0.0112734 0.0712932 
0.0112734 -0.176252 -0.259427 
0.0712932 -0.259427 -0.0125258 
-0.1453 0.0112115 0.068778 
0.0112115 -0.220496 -0.260012 
0.068778 -0.260012 0.0300589 
-0.127081 0.0272265 0.0689525 
0.0272265 -0.408399 -0.363023 
0.0689525 -0.363023 0.199744 
-0.126316 0.0272884 0.0712105 
0.0272884 -0.364386 -0.362337 
0.0712105 -0.362337 0.154965 
0.0231229 0.00404493 0.0679051 
0.00404493 -0.398883 -0.300015 
0.0679051 -0.300015 0.246054 
-0.0160628 0.00413734 0.0629229 
0.00413734 -0.416239 -0.300554 
0.0629229 -0.300554 0.302595 
-0.00789517 0.0104043 0.0629511 
0.0104043 -0.566071 -0.446814 
0.0629511 -0.446814 0.444259 
0.029372 0.0103118 0.0676878 
0.0103118 -0.548628 -0.446166 
0.0676878 -0.446166 0.389549 
-0.099704 0.0049133 0.0773492 
0.0049133 0.120824 -0.312983 
0.0773492 -0.312983 -0.150827 
-0.0767036 0.00476023 0.0723671 
0.00476023 0.103676 -0.313634 
0.0723671 -0.313634 -0.156679 
-0.0701065 0.010918 0.0725076 
0.010918 0.0817911 -0.459895 
0.0725076 -0.459895 -0.141392 
-0.0907867 0.0110711 0.0772443 
0.0110711 0.0989533 -0.459135 
0.0772443 -0.459135 -0.137873 
0.0997041 -0.0049133 0.0773492 
-0.0049133 -0.120824 -0.312983 
0.0773492 -0.312983 0.150827 
0.0767038 -0.00476023 0.0723671 
-0.00476023 -0.103676 -0.313634 
0.0723671 -0.313634 0.156679 
0.0701066 -0.010918 0.0725076 
-0.010918 -0.081791 -0.459895 
0.0725076 -0.459895 0.141392 
0.0907868 -0.0110711 0.0772443 
-0.0110711 -0.0989532 -0.459135 
0.0772443 -0.459135 0.137874 
-0.0231228 -0.00404493 0.0679051 
-0.00404493 0.398884 -0.300015 
0.0679051 -0.300015 -0.246053 
0.0160629 -0.00413734 0.0629229 
-0.00413734 0.416239 -0.300554 
0.0629229 -0.300554 -0.302595 
0.00789531 -0.0104043 0.0629511 
-0.0104043 0.566071 -0.446814 
0.0629511 -0.446814 -0.444259 
-0.0293719 -0.0103118 0.0676878 
-0.0103118 0.548628 -0.446166 
0.0676878 -0.446166 -0.389549 
0.146959 -0.0112734 0.0712932 
-0.0112734 0.176252 -0.259427 
0.0712932 -0.259427 0.0125259 
0.1453 -0.0112115 0.068778 
-0.0112115 0.220496 -0.260012 
0.068778 -0.260012 -0.0300587 
0.127082 -0.0272265 0.0689525 
-0.0272265 0.408399 -0.363023 
0.0689525 -0.363023 -0.199743 
0.126316 -0.0272884 0.0712105 
-0.0272884 0.364386 -0.362337 
0.0712105 -0.362337 -0.154965 
0.0523928 -0.0105857 0.0460218 
-0.0105857 0.557058 -0.222258 
0.0460218 -0.222258 -0.273713 
0.0952554 -0.010781 0.0435066 
-0.010781 0.601307 -0.222491 
0.0435066 -0.222491 -0.360825 
0.0759849 -0.026897 0.043329 
-0.026897 0.900476 -0.325501 
0.043329 -0.325501 -0.640724 
0.033952 -0.0267018 0.045587 
-0.0267018 0.856017 -0.325168 
0.045587 -0.325168 -0.554232 
0.139849 -0.0113174 0.0561733 
-0.0113174 0.389434 -0.14805 
0.0561733 -0.14805 -0.140218 
0.155923 -0.0117779 0.0579065 
-0.0117779 0.441399 -0.148364 
0.0579065 -0.148364 -0.208257 
0.134749 -0.0309624 0.0580036 
-0.0309624 0.762965 -0.169075 
0.0580036 -0.169075 -0.508649 
0.116853 -0.030502 0.0560558 
-0.030502 0.711539 -0.168666 
0.0560558 -0.168666 -0.439327 
0.0972422 -0.0110287 0.0237309 
-0.0110287 0.516231 -0.0939663 
0.0237309 -0.0939663 -0.224408 
0.12217 -0.0117038 0.0254641 
-0.0117038 0.567869 -0.093746 
0.0254641 -0.093746 -0.300974 
0.100849 -0.0309831 0.0250268 
-0.0309831 0.945826 -0.114456 
0.0250268 -0.114456 -0.65761 
0.075353 -0.030308 0.023079 
-0.030308 0.89365 -0.114582 
0.023079 -0.114582 -0.579938 
0.0678378 -0.00532833 0.0480715 
-0.00532833 0.427526 -0.00324925 
0.0480715 -0.00324925 -0.279804 
0.0842353 -0.00667438 0.0531271 
-0.00667438 0.465279 -0.00307522 
0.0531271 -0.00307522 -0.333954 
0.0696422 -0.021269 0.0530322 
-0.021269 0.845981 0.0826821 
0.0530322 0.0826821 -0.700064 
0.0537755 -0.019923 0.0479773 
-0.019923 0.808187 0.0825535 
0.0479773 0.0825535 -0.646403 
0.0844695 -0.0056435 0.0208168 
-0.0056435 0.249652 0.049584 
0.0208168 0.049584 -0.118562 
0.0602915 -0.00698898 0.0258723 
-0.00698898 0.286906 0.0501556 
0.0258723 0.0501556 -0.131638 
0.0464751 -0.0216292 0.0253799 
-0.0216292 0.602819 0.135913 
0.0253799 0.135913 -0.433734 
0.0696279 -0.0202837 0.020325 
-0.0202837 0.564322 0.135387 
0.020325 0.135387 -0.41839 
-0.058637 8.71907e-05 0.0713786 
8.71907e-05 0.233696 0.125918 
0.0713786 0.125918 -0.391951 
-0.0808307 -0.00101535 0.0721717 
-0.00101535 0.246488 0.12641 
0.0721717 0.12641 -0.382549 
-0.0852264 -0.00596056 0.0714481 
-0.00596056 0.537471 0.309535 
0.0714481 0.309535 -0.669137 
-0.0613457 -0.00485802 0.0707043 
-0.00485802 0.525518 0.309173 
0.0707043 0.309173 -0.681064 
-0.020303 -0.000124994 0.0597613 
-0.000124994 -0.205232 0.153184 
0.0597613 0.153184 0.008643 
-0.117448 -0.00117824 0.0605544 
-0.00117824 -0.193067 0.152987 
0.0605544 0.152987 0.0936227 
-0.121888 -0.00625395 0.0605202 
-0.00625395 -0.0974329 0.336112 
0.0605202 0.336112 0.0024287 
-0.0231877 -0.0052007 0.0597764 
-0.0052007 -0.110597 0.336439 
0.0597764 0.336439 -0.0831077 
-0.075133 0.00492908 0.0454327 
0.00492908 0.140862 0.139354 
0.0454327 0.139354 -0.067551 
0.0463094 0.00540788 0.0597613 
0.00540788 0.111275 0.138963 
0.0597613 0.138963 -0.159406 
0.0609171 0.016603 0.0597764 
0.016603 -0.000102937 0.30582 
0.0597764 0.30582 -0.0626358 
-0.0632289 0.0161242 0.0452782 
0.0161242 0.0309078 0.306524 
0.0452782 0.306524 0.0304994 
0.0277652 0.00469214 0.066503 
0.00469214 -0.259893 0.114549 
0.066503 0.114549 0.230306 
0.0254783 0.00500144 0.0808317 
0.00500144 -0.290779 0.115652 
0.0808317 0.115652 0.263479 
0.0405277 0.015884 0.0793526 
0.015884 -0.576576 0.28251 
0.0793526 0.28251 0.534227 
0.0399856 0.0155747 0.0648544 
0.0155747 -0.548263 0.28172 
0.0648544 0.28172 0.506456 
-0.104266 0.0205998 0.0230097 
0.0205998 -0.244777 0.0411636 
0.0230097 0.0411636 -0.00349855 
-0.0936586 0.0199931 0.03027 
0.0199931 -0.328799 0.0422814 
0.03027 0.0422814 0.0699156 
-0.0568572 0.0511559 0.0289733 
0.0511559 -0.642049 0.115887 
0.0289733 0.115887 0.346364 
-0.0651992 0.0517627 0.0215653 
0.0517627 -0.555162 0.115068 
0.0215653 0.115068 0.267819 
-0.0847837 0.0201737 0.0697846 
0.0201737 -0.396096 -0.0054382 
0.0697846 -0.0054382 0.128338 
-0.12281 0.0194192 0.0770448 
0.0194192 -0.481398 -0.00543651 
0.0770448 -0.00543651 0.251666 
-0.0849913 0.050283 0.0768642 
0.050283 -0.846711 0.0681688 
0.0768642 0.0681688 0.57916 
-0.046073 0.0510375 0.0694563 
0.0510375 -0.762441 0.0684662 
0.0694563 0.0684662 0.455972 
-0.0836947 0.0298973 0.0549852 
0.0298973 -0.45986 -0.0863126 
0.0549852 -0.0863126 0.0774926 
-0.128444 0.0288267 0.0527042 
0.0288267 -0.569551 -0.0859828 
0.0527042 -0.0859828 0.231933 
-0.0794241 0.0685519 0.051966 
0.0685519 -0.932878 -0.107477 
0.051966 -0.107477 0.54624 
-0.0375849 0.0696225 0.0540339 
0.0696225 -0.818627 -0.107726 
0.0540339 -0.107726 0.39015 
-0.161395 0.0304224 0.108186 
0.0304224 -0.339047 -0.133847 
0.108186 -0.133847 0.0343803 
-0.182999 0.0291387 0.105905 
0.0291387 -0.449074 -0.13457 
0.105905 -0.13457 0.166011 
-0.134726 0.0687822 0.10622 
0.0687822 -0.757828 -0.156065 
0.10622 -0.156065 0.426492 
-0.113585 0.0700659 0.108288 
0.0700659 -0.644279 -0.15526 
0.108288 -0.15526 0.291802 
-0.0291492 0.025442 0.104064 
0.025442 -0.48544 -0.197476 
0.104064 -0.197476 0.141661 
-0.0860862 0.0245475 0.0957532 
0.0245475 -0.575395 -0.197902 
0.0957532 -0.197902 0.288554 
-0.046289 0.0566493 0.0957508 
0.0566493 -0.857756 -0.28991 
0.0957508 -0.28991 0.531118 
0.0050737 0.0575437 0.103975 
0.0575437 -0.764076 -0.289572 
0.103975 -0.289572 0.386075 
-0.172132 0.0264561 0.144187 
0.0264561 -0.145759 -0.230052 
0.144187 -0.230052 -0.0550364 
-0.165527 0.0254745 0.135876 
0.0254745 -0.235073 -0.231 
0.135876 -0.231 0.0276724 
-0.127714 0.0576642 0.136396 
0.0576642 -0.417557 -0.323008 
0.136396 -0.323008 0.172343 
-0.135535 0.0586459 0.14462 
0.0586459 -0.322842 -0.322148 
0.14462 -0.322148 0.0854491 
0.0488098 0.00945994 0.143412 
0.00945994 -0.347339 -0.264255 
0.143412 -0.264255 0.157945 
-0.000862641 0.0091561 0.132488 
0.0091561 -0.382026 -0.26509 
0.132488 -0.26509 0.242304 
0.0148611 0.0213038 0.132874 
0.0213038 -0.520117 -0.393438 
0.132874 -0.393438 0.364672 
0.0603093 0.0216076 0.143708 
0.0216076 -0.484861 -0.392701 
0.143708 -0.392701 0.283967 
-0.125974 0.0107236 0.158165 
0.0107236 0.110113 -0.2756 
0.158165 -0.2756 -0.124724 
-0.0939778 0.0103306 0.147242 
0.0103306 0.0765005 -0.276581 
0.147242 -0.276581 -0.123107 
-0.0807431 0.0225765 0.147774 
0.0225765 0.0512623 -0.40493 
0.147774 -0.40493 -0.111104 
-0.111586 0.0229696 0.158608 
0.0229696 0.0880313 -0.404046 
0.158608 -0.404046 -0.117029 
0.125974 -0.0107236 0.158165 
-0.0107236 -0.110113 -0.2756 
0.158165 -0.2756 0.124724 
0.0939779 -0.0103306 0.147242 
-0.0103306 -0.0765004 -0.276581 
0.147242 -0.276581 0.123107 
0.0807433 -0.0225765 0.147774 
-0.0225765 -0.0512622 -0.40493 
0.147774 -0.40493 0.111104 
0.111587 -0.0229696 0.158608 
-0.0229696 -0.0880312 -0.404046 
0.158608 -0.404046 0.117029 
-0.0488097 -0.00945994 0.143412 
-0.00945994 0.34734 -0.264255 
0.143412 -0.264255 -0.157945 
0.000862782 -0.0091561 0.132488 
-0.0091561 0.382026 -0.26509 
0.132488 -0.26509 -0.242304 
-0.014861 -0.0213038 0.132874 
-0.0213038 0.520117 -0.393438 
0.132874 -0.393438 -0.364672 
-0.0603092 -0.0216076 0.143708 
-0.0216076 0.484861 -0.392701 
0.143708 -0.392701 -0.283967 
0.172132 -0.0264561 0.144187 
-0.0264561 0.14576 -0.230052 
0.144187 -0.230052 0.0550365 
0.165527 -0.0254745 0.135876 
-0.0254745 0.235073 -0.231 
0.135876 -0.231 -0.0276722 
0.127714 -0.0576642 0.136396 
-0.0576642 0.417558 -0.323008 
0.136396 -0.323008 -0.172343 
0.135535 -0.0586459 0.14462 
-0.0586459 0.322842 -0.322148 
0.14462 -0.322148 -0.085449 
0.0291494 -0.025442 0.104064 
-0.025442 0.48544 -0.197476 
0.104064 -0.197476 -0.141661 
0.0860864 -0.0245475 0.0957532 
-0.0245475 0.575395 -0.197902 
0.0957532 -0.197902 -0.288554 
0.0462891 -0.0566493 0.0957508 
-0.0566493 0.857756 -0.28991 
0.0957508 -0.28991 -0.531118 
-0.00507356 -0.0575437 0.103975 
-0.0575437 0.764076 -0.289572 
0.103975 -0.289572 -0.386075 
0.161395 -0.0304224 0.108186 
-0.0304224 0.339047 -0.133847 
0.108186 -0.133847 -0.0343801 
0.182999 -0.0291387 0.105905 
-0.0291387 0.449074 -0.13457 
0.105905 -0.13457 -0.166011 
0.134727 -0.0687822 0.10622 
-0.0687822 0.757828 -0.156065 
0.10622 -0.156065 -0.426492 
0.113585 -0.0700659 0.108288 
-0.0700659 0.644279 -0.15526 
0.108288 -0.15526 -0.291802 
0.0836949 -0.0298973 0.0549852 
-0.0298973 0.45986 -0.0863126 
0.0549852 -0.0863126 -0.0774925 
0.128444 -0.0288267 0.0527042 
-0.0288267 0.569551 -0.0859828 
0.0527042 -0.0859828 -0.231932 
0.0794242 -0.0685519 0.051966 
-0.0685519 0.932878 -0.107477 
0.051966 -0.107477 -0.54624 
0.0375851 -0.0696225 0.0540339 
-0.0696225 0.818627 -0.107726 
0.0540339 -0.107726 -0.39015 
0.0847838 -0.0201737 0.0697846 
-0.0201737 0.396096 -0.0054382 
0.0697846 -0.0054382 -0.128338 
0.12281 -0.0194192 0.0770448 
-0.0194192 0.481398 -0.00543651 
0.0770448 -0.00543651 -0.251666 
0.0849914 -0.050283 0.0768642 
-0.050283 0.846711 0.0681688 
0.0768642 0.0681688 -0.57916 
0.0460732 -0.0510375 0.0694563 
-0.0510375 0.762441 0.0684662 
0.0694563 0.0684662 -0.455972 
0.104267 -0.0205998 0.0230097 
-0.0205998 0.244777 0.0411636 
0.0230097 0.0411636 0.00349869 
0.0936587 -0.0199931 0.03027 
-0.0199931 0.328799 0.0422814 
0.03027 0.0422814 -0.0699155 
0.0568574 -0.0511559 0.0289733 
-0.0511559 0.642049 0.115887 
0.0289733 0.115887 -0.346364 
0.0651993 -0.0517627 0.0215653 
-0.0517627 0.555162 0.115068 
0.0215653 0.115068 -0.267819 
-0.027765 -0.00469214 0.066503 
-0.00469214 0.259893 0.114549 
0.066503 0.114549 -0.230306 
-0.0254782 -0.00500144 0.0808317 
-0.00500144 0.29078 0.115652 
0.0808317 0.115652 -0.263479 
-0.0405276 -0.015884 0.0793526 
-0.015884 0.576577 0.28251 
0.0793526 0.28251 -0.534227 
-0.0399855 -0.0155747 0.0648544 
-0.0155747 0.548263 0.28172 
0.0648544 0.28172 -0.506456 
0.0751331 -0.00492908 0.0454327 
-0.00492908 -0.140862 0.139354 
0.0454327 0.139354 0.0675512 
-0.0463092 -0.00540788 0.0597613 
-0.00540788 -0.111275 0.138963 
0.0597613 0.138963 0.159407 
-0.060917 -0.016603 0.0597764 
-0.016603 0.000103078 0.30582 
0.0597764 0.30582 0.062636 
0.063229 -0.0161242 0.0452782 
-0.0161242 -0.0309077 0.306524 
0.0452782 0.306524 -0.0304992 
-0.168069 0.0169839 0.0164523 
0.0169839 0.0824218 0.109902 
0.0164523 0.109902 -0.132492 
-0.0339283 0.0156031 0.0454327 
0.0156031 0.0160458 0.109012 
0.0454327 0.109012 -0.200256 
-0.00157527 0.0393486 0.0452782 
0.0393486 -0.119835 0.240916 
0.0452782 0.240916 -0.0967289 
-0.139373 0.0407294 0.0147843 
0.0407294 -0.0519282 0.242636 
0.0147843 0.242636 -0.0268377 
0.00420183 0.0177616 0.0491505 
0.0177616 -0.237169 0.0913257 
0.0491505 0.0913257 0.0148278 
-0.0347651 0.0148673 0.0781309 
0.0148673 -0.306483 0.0925673 
0.0781309 0.0925673 0.12311 
-0.00118262 0.0377829 0.0758446 
0.0377829 -0.569758 0.224471 
0.0758446 0.224471 0.352802 
0.0384363 0.0406772 0.0453507 
0.0406772 -0.508501 0.224059 
0.0453507 0.224059 0.251926 
-0.127952 0.0520631 0.0296814 
0.0520631 -0.178335 0.0272009 
0.0296814 0.0272009 -0.147134 
-0.115624 0.0486962 0.0346376 
0.0486962 -0.354339 0.0287677 
0.0346376 0.0287677 0.0165413 
-0.0306354 0.113183 0.0325555 
0.113183 -0.654045 0.0794731 
0.0325555 0.0794731 0.231258 
-0.0523716 0.11655 0.0274256 
0.11655 -0.460886 0.0783627 
0.0274256 0.0783627 0.0598357 
-0.118844 0.0516221 0.100536 
0.0516221 -0.282258 -0.00704802 
0.100536 -0.00704802 -0.0523198 
-0.156661 0.0480815 0.105492 
0.0480815 -0.460069 -0.00758117 
0.105492 -0.00758117 0.163307 
-0.0710593 0.112112 0.10551 
0.112112 -0.788922 0.0431243 
0.10551 0.0431243 0.406559 
-0.0430991 0.115653 0.10038 
0.115653 -0.599611 0.0441138 
0.10038 0.0441138 0.189288 
-0.093646 0.0638602 0.097877 
0.0638602 -0.31805 -0.0670953 
0.097877 -0.0670953 -0.0917983 
-0.124099 0.0611605 0.0906927 
0.0611605 -0.528808 -0.0668011 
0.0906927 -0.0668011 0.149413 
-0.0294864 0.137686 0.0900876 
0.137686 -0.853388 -0.0864872 
0.0900876 -0.0864872 0.37938 
-0.021475 0.140386 0.0975829 
0.140386 -0.619352 -0.0870831 
0.0975829 -0.0870831 0.137333 
-0.193259 0.0643847 0.175746 
0.0643847 -0.219011 -0.102146 
0.175746 -0.102146 -0.0912247 
-0.197282 0.061996 0.168562 
0.061996 -0.429331 -0.103228 
0.168562 -0.103228 0.123119 
-0.104492 0.138824 0.169333 
0.138824 -0.710575 -0.122914 
0.169333 -0.122914 0.311573 
-0.120656 0.141212 0.176828 
0.141212 -0.474751 -0.122134 
0.176828 -0.122134 0.0919128 
-0.0308147 0.0499215 0.176464 
0.0499215 -0.336019 -0.147323 
0.176464 -0.147323 -0.0168574 
-0.0762814 0.0483285 0.16444 
0.0483285 -0.500222 -0.147916 
0.16444 -0.147916 0.192812 
-0.00793835 0.107102 0.16502 
0.107102 -0.743939 -0.217412 
0.16502 -0.217412 0.368186 
0.0181949 0.108695 0.177357 
0.108695 -0.564196 -0.217397 
0.177357 -0.217397 0.16231 
-0.198883 0.0511244 0.23443 
0.0511244 -0.0811978 -0.171407 
0.23443 -0.171407 -0.10361 
-0.171653 0.049844 0.222405 
0.049844 -0.243427 -0.172621 
0.222405 -0.172621 0.0313886 
-0.105923 0.109196 0.223606 
0.109196 -0.4133 -0.242117 
0.223606 -0.242117 0.135532 
-0.148659 0.110477 0.235943 
0.110477 -0.228996 -0.241481 
0.235943 -0.241481 -0.00603671 
0.0581387 0.0181448 0.235278 
0.0181448 -0.246963 -0.195371 
0.235278 -0.195371 0.0463563 
0.00677615 0.0176223 0.22163 
0.0176223 -0.309032 -0.196459 
0.22163 -0.196459 0.159788 
0.0323448 0.0392858 0.222694 
0.0392858 -0.422525 -0.291302 
0.222694 -0.291302 0.247712 
0.0745718 0.0398082 0.236512 
0.0398082 -0.357281 -0.290727 
0.236512 -0.290727 0.140242 
-0.145418 0.0197536 0.256539 
0.0197536 0.0908272 -0.20379 
0.256539 -0.20379 -0.0878766 
-0.099374 0.0194007 0.24289 
0.0194007 0.0312622 -0.205032 
0.24289 -0.205032 -0.074356 
-0.0768411 0.0415763 0.244109 
0.0415763 0.000128249 -0.299876 
0.244109 -0.299876 -0.065755 
-0.126708 0.0419292 0.257926 
0.0419292 0.0701668 -0.299146 
0.257926 -0.299146 -0.085927 
0.145419 -0.0197536 0.256539 
-0.0197536 -0.090827 -0.20379 
0.256539 -0.20379 0.0878768 
0.0993741 -0.0194007 0.24289 
-0.0194007 -0.031262 -0.205032 
0.24289 -0.205032 0.0743562 
0.0768413 -0.0415763 0.244109 
-0.0415763 -0.000128109 -0.299876 
0.244109 -0.299876 0.0657551 
0.126708 -0.0419292 0.257926 
-0.0419292 -0.0701667 -0.299146 
0.257926 -0.299146 0.0859272 
-0.0581385 -0.0181448 0.235278 
-0.0181448 0.246963 -0.195371 
0.235278 -0.195371 -0.0463562 
-0.00677601 -0.0176223 0.22163 
-0.0176223 0.309032 -0.196459 
0.22163 -0.196459 -0.159788 
-0.0323447 -0.0392858 0.222694 
-0.0392858 0.422525 -0.291302 
0.222694 -0.291302 -0.247712 
-0.0745717 -0.0398082 0.236512 
-0.0398082 0.357281 -0.290727 
0.236512 -0.290727 -0.140241 
0.198883 -0.0511244 0.23443 
-0.0511244 0.0811979 -0.171407 
0.23443 -0.171407 0.103611 
0.171654 -0.049844 0.222405 
-0.049844 0.243427 -0.172621 
0.222405 -0.172621 -0.0313885 
0.105923 -0.109196 0.223606 
-0.109196 0.4133 -0.242117 
0.223606 -0.242117 -0.135532 
0.148659 -0.110477 0.235943 
-0.110477 0.228996 -0.241481 
0.235943 -0.241481 0.00603685 
0.0308149 -0.0499215 0.176464 
-0.0499215 0.336019 -0.147323 
0.176464 -0.147323 0.0168575 
0.0762816 -0.0483285 0.16444 
-0.0483285 0.500222 -0.147916 
0.16444 -0.147916 -0.192812 
0.00793849 -0.107102 0.16502 
-0.107102 0.743939 -0.217412 
0.16502 -0.217412 -0.368186 
-0.0181947 -0.108695 0.177357 
-0.108695 0.564196 -0.217397 
0.177357 -0.217397 -0.162309 
0.193259 -0.0643847 0.175746 
-0.0643847 0.219011 -0.102146 
0.175746 -0.102146 0.0912249 
0.197282 -0.061996 0.168562 
-0.061996 0.429331 -0.103228 
0.168562 -0.103228 -0.123119 
0.104493 -0.138824 0.169333 
-0.138824 0.710575 -0.122914 
0.169333 -0.122914 -0.311573 
0.120656 -0.141212 0.176828 
-0.141212 0.474751 -0.122134 
0.176828 -0.122134 -0.0919127 
0.0936462 -0.0638602 0.097877 
-0.0638602 0.31805 -0.0670953 
0.097877 -0.0670953 0.0917984 
0.124099 -0.0611605 0.0906927 
-0.0611605 0.528808 -0.0668011 
0.0906927 -0.0668011 -0.149412 
0.0294866 -0.137686 0.0900876 
-0.137686 0.853388 -0.0864872 
0.0900876 -0.0864872 -0.37938 
0.0214751 -0.140386 0.0975829 
-0.140386 0.619352 -0.0870831 
0.0975829 -0.0870831 -0.137332 
0.118844 -0.0516221 0.100536 
-0.0516221 0.282258 -0.00704802 
0.100536 -0.00704802 0.0523199 
0.156661 -0.0480815 0.105492 
-0.0480815 0.460069 -0.00758117 
0.105492 -0.00758117 -0.163307 
0.0710594 -0.112112 0.10551 
-0.112112 0.788922 0.0431243 
0.10551 0.0431243 -0.406559 
0.0430993 -0.115653 0.10038 
-0.115653 0.599611 0.0441138 
0.10038 0.0441138 -0.189288 
0.127952 -0.0520631 0.0296814 
-0.0520631 0.178336 0.0272009 
0.0296814 0.0272009 0.147134 
0.115624 -0.0486962 0.0346376 
-0.0486962 0.354339 0.0287677 
0.0346376 0.0287677 -0.0165412 
0.0306356 -0.113183 0.0325555 
-0.113183 0.654045 0.0794731 
0.0325555 0.0794731 -0.231258 
0.0523718 -0.11655 0.0274256 
-0.11655 0.460886 0.0783627 
0.0274256 0.0783627 -0.0598355 
-0.00420169 -0.0177616 0.0491505 
-0.0177616 0.237169 0.0913257 
0.0491505 0.0913257 -0.0148277 
0.0347653 -0.0148673 0.0781309 
-0.0148673 0.306484 0.0925673 
0.0781309 0.0925673 -0.12311 
0.00118276 -0.0377829 0.0758446 
-0.0377829 0.569758 0.224471 
0.0758446 0.224471 -0.352801 
-0.0384361 -0.0406772 0.0453507 
-0.0406772 0.508502 0.224059 
0.0453507 0.224059 -0.251926 
0.168069 -0.0169839 0.0164523 
-0.0169839 -0.0824217 0.109902 
0.0164523 0.109902 0.132492 
0.0339285 -0.0156031 0.0454327 
-0.0156031 -0.0160457 0.109012 
0.0454327 0.109012 0.200257 
0.00157541 -0.0393486 0.0452782 
-0.0393486 0.119835 0.240916 
0.0452782 0.240916 0.096729 
0.139373 -0.0407294 0.0147843 
-0.0407294 0.0519283 0.242636 
0.0147843 0.242636 0.0268378 
-0.201014 0.0476154 -1.22512e-12 
0.0476154 0.066537 0.0481006 
-1.22512e-12 0.0481006 -0.175226 
-0.102895 0.0443616 0.0164523 
0.0443616 -0.0856633 0.0453715 
0.0164523 0.0453715 -0.121144 
-0.00602394 0.102432 0.0147843 
0.102432 -0.24572 0.101017 
0.0147843 0.101017 -0.0579589 
-0.137244 0.105686 -1.10877e-11 
0.105686 -0.0609026 0.106645 
-1.10877e-11 0.106645 -0.111556 
-0.0875386 0.0448863 0.0380863 
0.0448863 -0.0727831 0.040165 
0.0380863 0.040165 -0.149381 
-0.0821822 0.0433005 0.0545386 
0.0433005 -0.229854 0.0407781 
0.0545386 0.0407781 0.00233307 
0.00659532 0.0984716 0.0495284 
0.0984716 -0.427981 0.0964232 
0.0495284 0.0964232 0.111683 
-0.0231348 0.100057 0.0347441 
0.100057 -0.260998 0.0987092 
0.0347441 0.0987092 -0.0255695 
-0.207631 0.105545 0.0380863 
0.105545 0.0158816 0.00836142 
0.0380863 0.00836142 -0.237965 
-0.12098 0.102325 0.0350695 
0.102325 -0.320767 0.0106245 
0.0350695 0.0106245 0.012032 
0.0343629 0.22893 0.0316033 
0.22893 -0.564004 0.0275784 
0.0316033 0.0275784 0.0999268 
-0.106996 0.23215 0.0347441 
0.23215 -0.159678 0.0260558 
0.0347441 0.0260558 -0.163041 
-0.184954 0.104466 0.130523 
0.104466 -0.0178483 -0.00420602 
0.130523 -0.00420602 -0.226912 
-0.156558 0.10137 0.127506 
0.10137 -0.357439 -0.00575035 
0.127506 -0.00575035 0.0842821 
-0.00163335 0.227235 0.127847 
0.227235 -0.605098 0.0112036 
0.127847 0.0112036 0.177017 
-0.0844556 0.230331 0.130988 
0.230331 -0.207026 0.0134884 
0.130988 0.0134884 -0.138233 
-0.176255 0.113987 0.130523 
0.113987 -0.0329044 -0.0277783 
0.130523 -0.0277783 -0.244779 
-0.12421 0.111524 0.124847 
0.111524 -0.400896 -0.0271623 
0.124847 -0.0271623 0.0711684 
0.0172185 0.245724 0.12505 
0.245724 -0.631335 -0.0358023 
0.12505 -0.0358023 0.160178 
-0.0887446 0.248187 0.130988 
0.248187 -0.209549 -0.0379376 
0.130988 -0.0379376 -0.155644 
-0.223254 0.115068 0.236223 
0.115068 0.00819285 -0.0408859 
0.236223 -0.0408859 -0.238877 
-0.182223 0.112868 0.230548 
0.112868 -0.357723 -0.0427127 
0.230548 -0.0427127 0.086008 
-0.0414939 0.248587 0.233193 
0.248587 -0.575278 -0.0513527 
0.233193 -0.0513527 0.162834 
-0.136217 0.250787 0.239131 
0.250787 -0.144622 -0.0510452 
0.239131 -0.0510452 -0.173099 
-0.0896204 0.0844608 0.236223 
0.0844608 -0.0656344 -0.0586865 
0.236223 -0.0586865 -0.191146 
-0.0843593 0.0829858 0.231266 
0.0829858 -0.341777 -0.0593978 
0.231266 -0.0593978 0.079736 
0.0124466 0.181151 0.233722 
0.181151 -0.504297 -0.0868562 
0.233722 -0.0868562 0.14545 
-0.0284659 0.182626 0.239131 
0.182626 -0.201039 -0.088329 
0.239131 -0.088329 -0.116895 
-0.209226 0.0866575 0.317445 
0.0866575 0.0323368 -0.0681602 
0.317445 -0.0681602 -0.169511 
-0.157559 0.0856346 0.312488 
0.0856346 -0.238479 -0.0698917 
0.312488 -0.0698917 0.0496376 
-0.0623713 0.185984 0.315964 
0.185984 -0.377442 -0.0973502 
0.315964 -0.0973502 0.0934135 
-0.148474 0.187007 0.321373 
0.187007 -0.0590916 -0.0978027 
0.321373 -0.0978027 -0.138834 
0.0256704 0.0301584 0.317445 
0.0301584 -0.0718247 -0.0773615 
0.317445 -0.0773615 -0.0830196 
-0.00419225 0.0294037 0.313336 
0.0294037 -0.175363 -0.0787735 
0.313336 -0.0787735 0.050381 
0.031012 0.0645021 0.316533 
0.0645021 -0.240896 -0.1158 
0.316533 -0.1158 0.0807103 
0.0476258 0.0652568 0.321373 
0.0652568 -0.136172 -0.116459 
0.321373 -0.116459 -0.040628 
-0.136054 0.0326746 0.347582 
0.0326746 0.056605 -0.0807187 
0.347582 -0.0807187 -0.0497249 
-0.0871995 0.0326516 0.343474 
0.0326516 -0.0403098 -0.0823342 
0.343474 -0.0823342 -0.00166453 
-0.0548963 0.0698202 0.346873 
0.0698202 -0.0797631 -0.119361 
0.346873 -0.119361 0.00548553 
-0.11447 0.0698431 0.351714 
0.0698431 0.0408426 -0.119816 
0.351714 -0.119816 -0.0555468 
0.136054 -0.0326746 0.347582 
-0.0326746 -0.0566049 -0.0807187 
0.347582 -0.0807187 0.049725 
0.0871997 -0.0326516 0.343474 
-0.0326516 0.04031 -0.0823342 
0.343474 -0.0823342 0.00166467 
0.0548965 -0.0698202 0.346873 
-0.0698202 0.0797632 -0.119361 
0.346873 -0.119361 -0.00548539 
0.11447 -0.0698431 0.351714 
-0.0698431 -0.0408424 -0.119816 
0.351714 -0.119816 0.0555469 
-0.0256702 -0.0301584 0.317445 
-0.0301584 0.0718248 -0.0773615 
0.317445 -0.0773615 0.0830197 
0.0041924 -0.0294037 0.313336 
-0.0294037 0.175363 -0.0787735 
0.313336 -0.0787735 -0.0503808 
-0.0310119 -0.0645021 0.316533 
-0.0645021 0.240896 -0.1158 
0.316533 -0.1158 -0.0807102 
-0.0476257 -0.0652568 0.321373 
-0.0652568 0.136172 -0.116459 
0.321373 -0.116459 0.0406281 
0.209226 -0.0866575 0.317445 
-0.0866575 -0.0323367 -0.0681602 
0.317445 -0.0681602 0.169511 
0.157559 -0.0856346 0.312488 
-0.0856346 0.238479 -0.0698917 
0.312488 -0.0698917 -0.0496375 
0.0623714 -0.185984 0.315964 
-0.185984 0.377443 -0.0973502 
0.315964 -0.0973502 -0.0934133 
0.148475 -0.187007 0.321373 
-0.187007 0.0590917 -0.0978027 
0.321373 -0.0978027 0.138834 
0.0896205 -0.0844608 0.236223 
-0.0844608 0.0656345 -0.0586865 
0.236223 -0.0586865 0.191146 
0.0843595 -0.0829858 0.231266 
-0.0829858 0.341777 -0.0593978 
0.231266 -0.0593978 -0.0797359 
-0.0124464 -0.181151 0.233722 
-0.181151 0.504297 -0.0868562 
0.233722 -0.0868562 -0.14545 
0.028466 -0.182626 0.239131 
-0.182626 0.20104 -0.088329 
0.239131 -0.088329 0.116895 
0.223254 -0.115068 0.236223 
-0.115068 -0.0081927 -0.0408859 
0.236223 -0.0408859 0.238877 
0.182223 -0.112868 0.230548 
-0.112868 0.357723 -0.0427127 
0.230548 -0.0427127 -0.0860079 
0.041494 -0.248587 0.233193 
-0.248587 0.575278 -0.0513527 
0.233193 -0.0513527 -0.162834 
0.136218 -0.250787 0.239131 
-0.250787 0.144622 -0.0510452 
0.239131 -0.0510452 0.173099 
0.176255 -0.113987 0.130523 
-0.113987 0.0329046 -0.0277783 
0.130523 -0.0277783 0.244779 
0.12421 -0.111524 0.124847 
-0.111524 0.400896 -0.0271623 
0.124847 -0.0271623 -0.0711683 
-0.0172183 -0.245724 0.12505 
-0.245724 0.631335 -0.0358023 
0.12505 -0.0358023 -0.160178 
0.0887447 -0.248187 0.130988 
-0.248187 0.209549 -0.0379376 
0.130988 -0.0379376 0.155645 
0.184955 -0.104466 0.130523 
-0.104466 0.0178484 -0.00420602 
0.130523 -0.00420602 0.226912 
0.156558 -0.10137 0.127506 
-0.10137 0.357439 -0.00575035 
0.127506 -0.00575035 -0.084282 
0.00163349 -0.227235 0.127847 
-0.227235 0.605098 0.0112036 
0.127847 0.0112036 -0.177017 
0.0844557 -0.230331 0.130988 
-0.230331 0.207026 0.0134884 
0.130988 0.0134884 0.138233 
0.207631 -0.105545 0.0380863 
-0.105545 -0.0158815 0.00836142 
0.0380863 0.00836142 0.237966 
0.12098 -0.102325 0.0350695 
-0.102325 0.320767 0.0106245 
0.0350695 0.0106245 -0.0120319 
-0.0343628 -0.22893 0.0316033 
-0.22893 0.564004 0.0275784 
0.0316033 0.0275784 -0.0999267 
0.106996 -0.23215 0.0347441 
-0.23215 0.159678 0.0260558 
0.0347441 0.0260558 0.163041 
0.0875387 -0.0448863 0.0380863 
-0.0448863 0.0727833 0.040165 
0.0380863 0.040165 0.149381 
0.0821824 -0.0433005 0.0545386 
-0.0433005 0.229854 0.0407781 
0.0545386 0.0407781 -0.00233293 
-0.00659518 -0.0984716 0.0495284 
-0.0984716 0.427981 0.0964232 
0.0495284 0.0964232 -0.111683 
0.0231349 -0.100057 0.0347441 
-0.100057 0.260999 0.0987092 
0.0347441 0.0987092 0.0255696 
0.201014 -0.0476154 -1.22512e-12 
-0.0476154 -0.0665369 0.0481006 
-1.22512e-12 0.0481006 0.175226 
0.102895 -0.0443616 0.0164523 
-0.0443616 0.0856635 0.0453715 
0.0164523 0.0453715 0.121145 
0.00602408 -0.102432 0.0147843 
-0.102432 0.24572 0.101017 
0.0147843 0.101017 0.057959 
0.137244 -0.105686 -1.10877e-11 
-0.105686 0.0609027 0.106645 
-1.10877e-11 0.106645 0.111556 
0.27323 -4.39993e-05 0.00886391 
-4.39993e-05 0.354953 6.33344e-11 
0.00886391 6.33344e-11 0.184119 
0.275941 -7.58609e-13 1.95742e-11 
-7.58609e-13 0.354945 6.32856e-11 
1.95742e-11 6.32856e-11 0.181416 
0.275853 2.4658e-05 2.13128e-11 
2.4658e-05 0.332115 0.164285 
2.13128e-11 0.164285 0.204333 
0.273113 -1.93413e-05 0.00885795 
-1.93413e-05 0.332155 0.164288 
0.00885795 0.164288 0.207034 
0.24637 -3.80413e-05 0.00866043 
-3.80413e-05 -0.0922449 -0.00921714 
0.00866043 -0.00921714 0.658177 
0.25053 -2.54367e-12 -0.000203478 
-2.54367e-12 -0.0922506 -0.00921969 
-0.000203478 -0.00921969 0.654022 
0.250446 2.09285e-05 -0.000200929 
2.09285e-05 -0.183923 0.155065 
-0.000200929 0.155065 0.745779 
0.246276 -1.71128e-05 0.00865702 
-1.71128e-05 -0.183898 0.155071 
0.00865702 0.155071 0.749924 
0.0986952 -0.000111609 0.00357347 
-0.000111609 -0.14678 -0.00921714 
0.00357347 -0.00921714 0.400462 
0.102884 -2.9293e-12 -0.000203478 
-2.9293e-12 -0.146786 -0.00921969 
-0.000203478 -0.00921969 0.396279 
0.102642 4.97263e-05 -0.000200929 
4.97263e-05 -0.24628 0.0773038 
-0.000200929 0.0773038 0.496015 
0.0984119 -6.18831e-05 0.00357581 
-6.18831e-05 -0.246241 0.0773048 
0.00357581 0.0773048 0.500206 
0.0883279 -0.000111403 0.00325317 
-0.000111403 -0.346943 -0.0276693 
0.00325317 -0.0276693 0.610992 
0.0926039 -3.06887e-12 -0.000523772 
-3.06887e-12 -0.34695 -0.0276697 
-0.000523772 -0.0276697 0.606723 
0.0923621 5.12633e-05 -0.000523434 
5.12633e-05 -0.473104 0.0588538 
-0.000523434 0.0588538 0.733119 
0.088046 -6.01395e-05 0.0032533 
-6.01395e-05 -0.473059 0.0588526 
0.0032533 0.0588526 0.73739 
-0.00604859 -0.000136141 -0.001646 
-0.000136141 -0.476125 -0.0276693 
-0.001646 -0.0276693 0.550542 
-0.00217979 -3.07287e-12 -0.000523772 
-3.07287e-12 -0.476124 -0.0276697 
-0.000523772 -0.0276697 0.546673 
-0.0024882 5.77871e-05 -0.000523434 
5.77871e-05 -0.601462 -0.0398392 
-0.000523434 -0.0398392 0.672319 
-0.00638899 -7.83536e-05 -0.00164398 
-7.83536e-05 -0.601433 -0.039839 
-0.00164398 -0.039839 0.67619 
-0.000734851 -0.000137826 -0.00190535 
-0.000137826 -0.351371 -0.0472106 
-0.00190535 -0.0472106 0.420475 
0.00253161 -2.82994e-12 -0.000783123 
-2.82994e-12 -0.35137 -0.0472092 
-0.000783123 -0.0472092 0.417208 
0.00222187 5.79985e-05 -0.000784535 
5.79985e-05 -0.460209 -0.0593787 
-0.000784535 -0.0593787 0.526356 
-0.00108146 -7.98275e-05 -0.00190508 
-7.98275e-05 -0.460179 -0.0593803 
-0.00190508 -0.0593803 0.529629 
-0.042082 -0.000108152 -0.00558353 
-0.000108152 -0.561557 -0.0472106 
-0.00558353 -0.0472106 0.560967 
-0.0395428 -2.44998e-12 -0.000783123 
-2.44998e-12 -0.561558 -0.0472092 
-0.000783123 -0.0472092 0.558429 
-0.0397921 4.67487e-05 -0.000784535 
4.67487e-05 -0.66445 -0.143252 
-0.000784535 -0.143252 0.66157 
-0.0423479 -6.14035e-05 -0.00558336 
-6.14035e-05 -0.664429 -0.143252 
-0.00558336 -0.143252 0.664105 
-0.0253929 -0.000109729 -0.00572084 
-0.000109729 -0.154611 -0.0610424 
-0.00572084 -0.0610424 0.137333 
-0.0234466 -1.79289e-12 -0.000920433 
-1.79289e-12 -0.154611 -0.0610401 
-0.000920433 -0.0610401 0.135386 
-0.0236967 4.51793e-05 -0.000922689 
4.51793e-05 -0.21835 -0.157083 
-0.000922689 -0.157083 0.199375 
-0.0256651 -6.45498e-05 -0.00572152 
-6.45498e-05 -0.218335 -0.157084 
-0.00572152 -0.157084 0.201329 
-0.0281626 -4.07113e-05 -0.00766201 
-4.07113e-05 -0.422366 -0.0610424 
-0.00766201 -0.0610424 0.421347 
-0.0271848 -1.18709e-12 -0.000920433 
-1.18709e-12 -0.422368 -0.0610401 
-0.000920433 -0.0610401 0.42037 
-0.0272795 1.898e-05 -0.000922689 
1.898e-05 -0.476138 -0.204061 
-0.000922689 -0.204061 0.474235 
-0.0282613 -2.17313e-05 -0.00766346 
-2.17313e-05 -0.476125 -0.20406 
-0.00766346 -0.20406 0.475205 
-0.00559851 -4.15237e-05 -0.00770184 
-4.15237e-05 0.14413 -0.065958 
-0.00770184 -0.065958 -0.167714 
-0.00507045 -3.41263e-13 -0.000960265 
-3.41263e-13 0.14413 -0.0659555 
-0.000960265 -0.0659555 -0.168242 
-0.00516514 1.61223e-05 -0.000962745 
1.61223e-05 0.138429 -0.208976 
-0.000962745 -0.208976 -0.162446 
-0.00570088 -2.54015e-05 -0.00770351 
-2.54015e-05 0.13843 -0.208976 
-0.00770351 -0.208976 -0.161911 
0.00559865 4.15237e-05 -0.00770184 
4.15237e-05 -0.14413 -0.065958 
-0.00770184 -0.065958 0.167714 
0.0050706 3.41263e-13 -0.000960265 
3.41263e-13 -0.14413 -0.0659555 
-0.000960265 -0.0659555 0.168242 
0.00516528 -1.61223e-05 -0.000962745 
-1.61223e-05 -0.138429 -0.208976 
-0.000962745 -0.208976 0.162446 
0.00570103 2.54015e-05 -0.00770351 
2.54015e-05 -0.13843 -0.208976 
-0.00770351 -0.208976 0.161911 
0.0281627 4.07113e-05 -0.00766201 
4.07113e-05 0.422366 -0.0610424 
-0.00766201 -0.0610424 -0.421346 
0.0271849 1.18709e-12 -0.000920433 
1.18709e-12 0.422368 -0.0610401 
-0.000920433 -0.0610401 -0.42037 
0.0272796 -1.898e-05 -0.000922689 
-1.898e-05 0.476138 -0.204061 
-0.000922689 -0.204061 -0.474235 
0.0282614 2.17313e-05 -0.00766346 
2.17313e-05 0.476126 -0.20406 
-0.00766346 -0.20406 -0.475204 
0.0253931 0.000109729 -0.00572084 
0.000109729 0.154611 -0.0610424 
-0.00572084 -0.0610424 -0.137333 
0.0234467 1.79289e-12 -0.000920433 
1.79289e-12 0.154611 -0.0610401 
-0.000920433 -0.0610401 -0.135386 
0.0236968 -4.51793e-05 -0.000922689 
-4.51793e-05 0.21835 -0.157083 
-0.000922689 -0.157083 -0.199375 
0.0256653 6.45498e-05 -0.00572152 
6.45498e-05 0.218335 -0.157084 
-0.00572152 -0.157084 -0.201329 
0.0420822 0.000108152 -0.00558353 
0.000108152 0.561557 -0.0472106 
-0.00558353 -0.0472106 -0.560967 
0.0395429 2.44998e-12 -0.000783123 
2.44998e-12 0.561558 -0.0472092 
-0.000783123 -0.0472092 -0.558429 
0.0397923 -4.67487e-05 -0.000784535 
-4.67487e-05 0.66445 -0.143252 
-0.000784535 -0.143252 -0.66157 
0.0423481 6.14035e-05 -0.00558336 
6.14035e-05 0.664429 -0.143252 
-0.00558336 -0.143252 -0.664105 
0.000734991 0.000137826 -0.00190535 
0.000137826 0.351372 -0.0472106 
-0.00190535 -0.0472106 -0.420475 
-0.00253147 2.82994e-12 -0.000783123 
2.82994e-12 0.351371 -0.0472092 
-0.000783123 -0.0472092 -0.417207 
-0.00222173 -5.79985e-05 -0.000784535 
-5.79985e-05 0.460209 -0.0593787 
-0.000784535 -0.0593787 -0.526356 
0.0010816 7.98275e-05 -0.00190508 
7.98275e-05 0.460179 -0.0593803 
-0.00190508 -0.0593803 -0.529629 
0.00604873 0.000136141 -0.001646 
0.000136141 0.476125 -0.0276693 
-0.001646 -0.0276693 -0.550542 
0.00217993 3.07287e-12 -0.000523772 
3.07287e-12 0.476124 -0.0276697 
-0.000523772 -0.0276697 -0.546673 
0.00248834 -5.77871e-05 -0.000523434 
-5.77871e-05 0.601462 -0.0398392 
-0.000523434 -0.0398392 -0.672319 
0.00638913 7.83536e-05 -0.00164398 
7.83536e-05 0.601433 -0.039839 
-0.00164398 -0.039839 -0.67619 
-0.0883278 0.000111403 0.00325317 
0.000111403 0.346943 -0.0276693 
0.00325317 -0.0276693 -0.610992 
-0.0926038 3.06887e-12 -0.000523772 
3.06887e-12 0.34695 -0.0276697 
-0.000523772 -0.0276697 -0.606723 
-0.0923619 -5.12633e-05 -0.000523434 
-5.12633e-05 0.473104 0.0588538 
-0.000523434 0.0588538 -0.733119 
-0.0880459 6.01395e-05 0.0032533 
6.01395e-05 0.473059 0.0588526 
0.0032533 0.0588526 -0.73739 
-0.0986951 0.000111609 0.00357347 
0.000111609 0.14678 -0.00921714 
0.00357347 -0.00921714 -0.400462 
-0.102884 2.9293e-12 -0.000203478 
2.9293e-12 0.146786 -0.00921969 
-0.000203478 -0.00921969 -0.396279 
-0.102642 -4.97263e-05 -0.000200929 
-4.97263e-05 0.24628 0.0773038 
-0.000200929 0.0773038 -0.496015 
-0.0984117 6.18831e-05 0.00357581 
6.18831e-05 0.246241 0.0773048 
0.00357581 0.0773048 -0.500206 
-0.246369 3.80413e-05 0.00866043 
3.80413e-05 0.092245 -0.00921714 
0.00866043 -0.00921714 -0.658177 
-0.25053 2.54367e-12 -0.000203478 
2.54367e-12 0.0922507 -0.00921969 
-0.000203478 -0.00921969 -0.654022 
-0.250446 -2.09285e-05 -0.000200929 
-2.09285e-05 0.183923 0.155065 
-0.000200929 0.155065 -0.745778 
-0.246276 1.71128e-05 0.00865702 
1.71128e-05 0.183898 0.155071 
0.00865702 0.155071 -0.749923 
-0.27323 4.39993e-05 0.00886391 
4.39993e-05 -0.354953 6.33344e-11 
0.00886391 6.33344e-11 -0.184119 
-0.275941 7.58609e-13 1.95742e-11 
7.58609e-13 -0.354944 6.32856e-11 
1.95742e-11 6.32856e-11 -0.181416 
-0.275853 -2.4658e-05 2.13128e-11 
-2.4658e-05 -0.332115 0.164285 
2.13128e-11 0.164285 -0.204333 
-0.273113 1.93413e-05 0.00885795 
1.93413e-05 -0.332154 0.164288 
0.00885795 0.164288 -0.207033 
0.26615 -0.000110491 0.018391 
-0.000110491 0.350643 6.34025e-11 
0.018391 6.34025e-11 0.182744 
0.275015 -4.39993e-05 0.00886391 
-4.39993e-05 0.350611 6.32678e-11 
0.00886391 6.32678e-11 0.173911 
0.274914 4.23174e-05 0.00885795 
4.23174e-05 0.327808 0.164193 
0.00885795 0.164193 0.196815 
0.265947 -2.41741e-05 0.0183776 
-2.41741e-05 0.327947 0.164207 
0.0183776 0.164207 0.205643 
0.236191 -9.70668e-05 0.0178766 
-9.70668e-05 -0.0962529 -0.00923455 
0.0178766 -0.00923455 0.659599 
0.248674 -3.80413e-05 0.00834944 
-3.80413e-05 -0.0962754 -0.00924133 
0.00834944 -0.00924133 0.647138 
0.248559 3.48766e-05 0.00835027 
3.48766e-05 -0.187996 0.154952 
0.00835027 0.154952 0.738974 
0.236036 -2.41489e-05 0.0178699 
-2.41489e-05 -0.187908 0.154972 
0.0178699 0.154972 0.751409 
0.0890835 -0.000266637 0.00701052 
-0.000266637 -0.150946 -0.00923455 
0.00701052 -0.00923455 0.401287 
0.101551 -0.000111609 0.00326248 
-0.000111609 -0.151018 -0.00924133 
0.00326248 -0.00924133 0.388892 
0.101275 7.55452e-05 0.00326906 
7.55452e-05 -0.250563 0.0772402 
0.00326906 0.0772402 0.488712 
0.0886709 -7.94824e-05 0.00701855 
-7.94824e-05 -0.250378 0.077242 
0.00701855 0.077242 0.501131 
0.0784748 -0.000267885 0.0062785 
-0.000267885 -0.350864 -0.0277335 
0.0062785 -0.0277335 0.611813 
0.0907325 -0.000111403 0.00253046 
-0.000111403 -0.350937 -0.0277338 
0.00253046 -0.0277338 0.599629 
0.0904536 8.07096e-05 0.00253057 
8.07096e-05 -0.477174 0.0587477 
0.00253057 0.0587477 0.726145 
0.078059 -7.57722e-05 0.00628007 
-7.57722e-05 -0.476969 0.0587431 
0.00628007 0.0587431 0.738334 
-0.0140123 -0.000314782 -0.00374226 
-0.000314782 -0.479486 -0.0277335 
-0.00374226 -0.0277335 0.551061 
-0.00308653 -0.000136141 -0.00236872 
-0.000136141 -0.479592 -0.0277338 
-0.00236872 -0.0277338 0.540241 
-0.00341749 9.31031e-05 -0.00236671 
9.31031e-05 -0.605018 -0.0399031 
-0.00236671 -0.0399031 0.665998 
-0.0144441 -8.55378e-05 -0.00373862 
-8.55378e-05 -0.604815 -0.0399032 
-0.00373862 -0.0399032 0.676822 
-0.00857329 -0.000318102 -0.00423942 
-0.000318102 -0.354514 -0.0473224 
-0.00423942 -0.0473224 0.42065 
0.00058475 -0.000137826 -0.00286588 
-0.000137826 -0.35462 -0.0473182 
-0.00286588 -0.0473182 0.411597 
0.000257642 9.19201e-05 -0.00286837 
9.19201e-05 -0.46353 -0.0594875 
-0.00286837 -0.0594875 0.520835 
-0.00901626 -8.83564e-05 -0.00424028 
-8.83564e-05 -0.463325 -0.0594921 
-0.00424028 -0.0594921 0.529904 
-0.0465281 -0.000245856 -0.0115732 
-0.000245856 -0.563699 -0.0473224 
-0.0115732 -0.0473224 0.560479 
-0.0397325 -0.000108152 -0.00654405 
-0.000108152 -0.563812 -0.0473182 
-0.00654405 -0.0473182 0.553796 
-0.0399895 8.21921e-05 -0.00654666 
8.21921e-05 -0.666791 -0.143315 
-0.00654666 -0.143315 0.657032 
-0.0468368 -5.55112e-05 -0.0115767 
-5.55112e-05 -0.666616 -0.143314 
-0.0115767 -0.143314 0.663705 
-0.0307177 -0.000246574 -0.0117616 
-0.000246574 -0.156588 -0.0611877 
-0.0117616 -0.0611877 0.137558 
-0.025225 -0.000109729 -0.00673245 
-0.000109729 -0.156698 -0.0611817 
-0.00673245 -0.0611817 0.132175 
-0.0254753 7.49967e-05 -0.00673684 
7.49967e-05 -0.220471 -0.157179 
-0.00673684 -0.157179 0.196199 
-0.0310292 -6.18481e-05 -0.0117669 
-6.18481e-05 -0.220319 -0.157179 
-0.0117669 -0.157179 0.2016 
-0.0288991 -9.32005e-05 -0.0155752 
-9.32005e-05 -0.423125 -0.0611877 
-0.0155752 -0.0611877 0.420387 
-0.0265565 -4.07113e-05 -0.00867362 
-4.07113e-05 -0.423176 -0.0611817 
-0.00867362 -0.0611817 0.418096 
-0.0266538 3.67583e-05 -0.00867878 
3.67583e-05 -0.477004 -0.204125 
-0.00867878 -0.204125 0.47202 
-0.029013 -1.57309e-05 -0.0155836 
-1.57309e-05 -0.476919 -0.204121 
-0.0155836 -0.204121 0.474295 
-0.00811832 -9.07551e-05 -0.0156101 
-9.07551e-05 0.143489 -0.0661152 
-0.0156101 -0.0661152 -0.167008 
-0.00639904 -4.15237e-05 -0.0087085 
-4.15237e-05 0.143443 -0.0661089 
-0.0087085 -0.0661089 -0.168681 
-0.00648954 2.58975e-05 -0.00871404 
2.58975e-05 0.137755 -0.209052 
-0.00871404 -0.209052 -0.162902 
-0.00822446 -2.33339e-05 -0.0156189 
-2.33339e-05 0.137799 -0.209048 
-0.0156189 -0.209048 -0.161211 
0.00811846 9.07551e-05 -0.0156101 
9.07551e-05 -0.143489 -0.0661152 
-0.0156101 -0.0661152 0.167008 
0.00639918 4.15237e-05 -0.0087085 
4.15237e-05 -0.143443 -0.0661089 
-0.0087085 -0.0661089 0.168681 
0.00648968 -2.58975e-05 -0.00871404 
-2.58975e-05 -0.137755 -0.209052 
-0.00871404 -0.209052 0.162902 
0.0082246 2.33339e-05 -0.0156189 
2.33339e-05 -0.137799 -0.209048 
-0.0156189 -0.209048 0.161212 
0.0288992 9.32005e-05 -0.0155752 
9.32005e-05 0.423125 -0.0611877 
-0.0155752 -0.0611877 -0.420387 
0.0265566 4.07113e-05 -0.00867362 
4.07113e-05 0.423176 -0.0611817 
-0.00867362 -0.0611817 -0.418096 
0.0266539 -3.67583e-05 -0.00867878 
-3.67583e-05 0.477004 -0.204125 
-0.00867878 -0.204125 -0.47202 
0.0290132 1.57309e-05 -0.0155836 
1.57309e-05 0.476919 -0.204121 
-0.0155836 -0.204121 -0.474295 
0.0307178 0.000246574 -0.0117616 
0.000246574 0.156588 -0.0611877 
-0.0117616 -0.0611877 -0.137557 
0.0252252 0.000109729 -0.00673245 
0.000109729 0.156698 -0.0611817 
-0.00673245 -0.0611817 -0.132175 
0.0254755 -7.49967e-05 -0.00673684 
-7.49967e-05 0.220472 -0.157179 
-0.00673684 -0.157179 -0.196198 
0.0310294 6.18481e-05 -0.0117669 
6.18481e-05 0.220319 -0.157179 
-0.0117669 -0.157179 -0.2016 
0.0465282 0.000245856 -0.0115732 
0.000245856 0.563699 -0.0473224 
-0.0115732 -0.0473224 -0.560479 
0.0397327 0.000108152 -0.00654405 
0.000108152 0.563812 -0.0473182 
-0.00654405 -0.0473182 -0.553796 
0.0399896 -8.21921e-05 -0.00654666 
-8.21921e-05 0.666791 -0.143315 
-0.00654666 -0.143315 -0.657032 
0.0468369 5.55112e-05 -0.0115767 
5.55112e-05 0.666616 -0.143314 
-0.0115767 -0.143314 -0.663704 
0.00857343 0.000318102 -0.00423942 
0.000318102 0.354514 -0.0473224 
-0.00423942 -0.0473224 -0.42065 
-0.00058461 0.000137826 -0.00286588 
0.000137826 0.35462 -0.0473182 
-0.00286588 -0.0473182 -0.411597 
-0.000257502 -9.19201e-05 -0.00286837 
-9.19201e-05 0.463531 -0.0594875 
-0.00286837 -0.0594875 -0.520835 
0.0090164 8.83564e-05 -0.00424028 
8.83564e-05 0.463326 -0.0594921 
-0.00424028 -0.0594921 -0.529904 
0.0140124 0.000314782 -0.00374226 
0.000314782 0.479486 -0.0277335 
-0.00374226 -0.0277335 -0.551061 
0.00308667 0.000136141 -0.00236872 
0.000136141 0.479592 -0.0277338 
-0.00236872 -0.0277338 -0.540241 
0.00341763 -9.31031e-05 -0.00236671 
-9.31031e-05 0.605018 -0.0399031 
-0.00236671 -0.0399031 -0.665998 
0.0144442 8.55378e-05 -0.00373862 
8.55378e-05 0.604815 -0.0399032 
-0.00373862 -0.0399032 -0.676822 
-0.0784746 0.000267885 0.0062785 
0.000267885 0.350864 -0.0277335 
0.0062785 -0.0277335 -0.611813 
-0.0907324 0.000111403 0.00253046 
0.000111403 0.350938 -0.0277338 
0.00253046 -0.0277338 -0.599629 
-0.0904535 -8.07096e-05 0.00253057 
-8.07096e-05 0.477174 0.0587477 
0.00253057 0.0587477 -0.726145 
-0.0780588 7.57722e-05 0.00628007 
7.57722e-05 0.476969 0.0587431 
0.00628007 0.0587431 -0.738334 
-0.0890833 0.000266637 0.00701052 
0.000266637 0.150946 -0.00923455 
0.00701052 -0.00923455 -0.401287 
-0.101551 0.000111609 0.00326248 
0.000111609 0.151019 -0.00924133 
0.00326248 -0.00924133 -0.388892 
-0.101275 -7.55452e-05 0.00326906 
-7.55452e-05 0.250563 0.0772402 
0.00326906 0.0772402 -0.488712 
-0.0886707 7.94824e-05 0.00701855 
7.94824e-05 0.250378 0.077242 
0.00701855 0.077242 -0.501131 
-0.236191 9.70668e-05 0.0178766 
9.70668e-05 0.0962531 -0.00923455 
0.0178766 -0.00923455 -0.659599 
-0.248674 3.80413e-05 0.00834944 
3.80413e-05 0.0962756 -0.00924133 
0.00834944 -0.00924133 -0.647138 
-0.248559 -3.48766e-05 0.00835027 
-3.48766e-05 0.187996 0.154952 
0.00835027 0.154952 -0.738974 
-0.236036 2.41489e-05 0.0178699 
2.41489e-05 0.187908 0.154972 
0.0178699 0.154972 -0.751409 
-0.26615 0.000110491 0.018391 
0.000110491 -0.350643 6.34025e-11 
0.018391 6.34025e-11 -0.182744 
-0.275014 4.39993e-05 0.00886391 
4.39993e-05 -0.350611 6.32678e-11 
0.00886391 6.32678e-11 -0.173911 
-0.274914 -4.23174e-05 0.00885795 
-4.23174e-05 -0.327808 0.164193 
0.00885795 0.164193 -0.196815 
-0.265947 2.41741e-05 0.0183776 
2.41741e-05 -0.327947 0.164207 
0.0183776 0.164207 -0.205643 
0.252728 -0.000225641 0.0289228 
-0.000225641 0.340913 6.34254e-11 
0.0289228 6.34254e-11 0.177041 
0.269919 -0.000110491 0.018391 
-0.000110491 0.340814 6.32422e-11 
0.018391 6.32422e-11 0.159951 
0.269778 8.31806e-05 0.0183776 
8.31806e-05 0.318043 0.163955 
0.0183776 0.163955 0.182862 
0.252371 -3.197e-05 0.0288999 
-3.197e-05 0.318365 0.163985 
0.0288999 0.163985 0.199947 
0.219785 -0.000202741 0.028414 
-0.000202741 -0.105228 -0.00927038 
0.028414 -0.00927038 0.656125 
0.240389 -9.70668e-05 0.0178822 
-9.70668e-05 -0.105307 -0.00927773 
0.0178822 -0.00927773 0.635601 
0.240212 6.67843e-05 0.0178761 
6.67843e-05 -0.197111 0.154677 
0.0178761 0.154677 0.727582 
0.219506 -3.88898e-05 0.0283984 
-3.88898e-05 -0.196902 0.154714 
0.0283984 0.154714 0.748079 
0.0741304 -0.000511844 0.0105475 
-0.000511844 -0.159837 -0.00927038 
0.0105475 -0.00927038 0.39701 
0.0943931 -0.000266637 0.00701613 
-0.000266637 -0.160218 -0.00927773 
0.00701613 -0.00927773 0.377127 
0.0940409 0.000201627 0.00702473 
0.000201627 -0.259845 0.0770563 
0.00702473 0.0770563 0.477107 
0.0735202 -4.35802e-05 0.0105616 
-4.35802e-05 -0.259234 0.0770545 
0.0105616 0.0770545 0.497016 
0.0639535 -0.000518569 0.0101493 
-0.000518569 -0.359105 -0.0278527 
0.0101493 -0.0278527 0.606454 
0.0822523 -0.000267885 0.0066179 
-0.000267885 -0.359489 -0.0278505 
0.0066179 -0.0278505 0.588539 
0.0818982 0.000209464 0.00661696 
0.000209464 -0.485837 0.0584835 
0.00661696 0.0584835 0.715242 
0.0633207 -4.1221e-05 0.0101538 
-4.1221e-05 -0.485189 0.0584722 
0.0101538 0.0584722 0.733171 
-0.0246243 -0.000577562 -0.00524614 
-0.000577562 -0.486231 -0.0278527 
-0.00524614 -0.0278527 0.545484 
-0.00888346 -0.000314782 -0.00340286 
-0.000314782 -0.486895 -0.0278505 
-0.00340286 -0.0278505 0.530407 
-0.00923565 0.000296205 -0.00340172 
0.000296205 -0.612457 -0.0400373 
-0.00340172 -0.0400373 0.656321 
-0.0251535 3.3425e-05 -0.00524413 
3.3425e-05 -0.611613 -0.0400395 
-0.00524413 -0.0400395 0.671395 
-0.0200086 -0.000581754 -0.00507611 
-0.000581754 -0.360813 -0.0475229 
-0.00507611 -0.0475229 0.415449 
-0.00702937 -0.000318102 -0.00323283 
-0.000318102 -0.361477 -0.0475165 
-0.00323283 -0.0475165 0.403134 
-0.00737112 0.00029298 -0.00323591 
0.00029298 -0.470483 -0.0597032 
-0.00323591 -0.0597032 0.512482 
-0.0205521 2.9328e-05 -0.00507832 
2.9328e-05 -0.469639 -0.0597097 
-0.00507832 -0.0597097 0.524819 
-0.0510313 -0.000439968 -0.0158701 
-0.000439968 -0.567718 -0.0475229 
-0.0158701 -0.0475229 0.554179 
-0.0425802 -0.000245856 -0.0105667 
-0.000245856 -0.568384 -0.0475165 
-0.0105667 -0.0475165 0.546395 
-0.0428151 0.000275511 -0.0105723 
0.000275511 -0.671497 -0.143375 
-0.0105723 -0.143375 0.649742 
-0.0513557 8.13992e-05 -0.0158829 
8.13992e-05 -0.670725 -0.143369 
-0.0158829 -0.143369 0.657511 
-0.0390804 -0.000433501 -0.0153946 
-0.000433501 -0.160475 -0.0614438 
-0.0153946 -0.0614438 0.134986 
-0.0311396 -0.000246574 -0.0100912 
-0.000246574 -0.161136 -0.0614374 
-0.0100912 -0.0614374 0.127706 
-0.0313642 0.00026234 -0.0100969 
0.00026234 -0.224955 -0.157296 
-0.0100969 -0.157296 0.191749 
-0.0393829 7.54131e-05 -0.0154075 
7.54131e-05 -0.224233 -0.15729 
-0.0154075 -0.15729 0.199046 
-0.0279294 -0.000168387 -0.0208636 
-0.000168387 -0.424381 -0.0614438 
-0.0208636 -0.0614438 0.415564 
-0.0260592 -9.32005e-05 -0.0139048 
-9.32005e-05 -0.424665 -0.0614374 
-0.0139048 -0.0614374 0.413978 
-0.0261398 0.000118905 -0.0139137 
0.000118905 -0.478581 -0.204134 
-0.0139137 -0.204134 0.467974 
-0.0280535 4.37182e-05 -0.0208856 
4.37182e-05 -0.478237 -0.204119 
-0.0208856 -0.204119 0.469544 
-0.0132381 -0.000152809 -0.0206239 
-0.000152809 0.142125 -0.0663907 
-0.0206239 -0.0663907 -0.165634 
-0.00991552 -9.07551e-05 -0.0136651 
-9.07551e-05 0.14185 -0.0663848 
-0.0136651 -0.0663848 -0.168681 
-0.00999037 9.98554e-05 -0.0136734 
9.98554e-05 0.136185 -0.209081 
-0.0136734 -0.209081 -0.162941 
-0.0133092 3.78014e-05 -0.0206454 
3.78014e-05 0.136442 -0.209066 
-0.0206454 -0.209066 -0.15988 
0.0132382 0.000152809 -0.0206239 
0.000152809 -0.142125 -0.0663907 
-0.0206239 -0.0663907 0.165634 
0.00991566 9.07551e-05 -0.0136651 
9.07551e-05 -0.14185 -0.0663848 
-0.0136651 -0.0663848 0.168682 
0.00999051 -9.98554e-05 -0.0136734 
-9.98554e-05 -0.136185 -0.209081 
-0.0136734 -0.209081 0.162941 
0.0133094 -3.78014e-05 -0.0206454 
-3.78014e-05 -0.136442 -0.209066 
-0.0206454 -0.209066 0.15988 
0.0279295 0.000168387 -0.0208636 
0.000168387 0.424381 -0.0614438 
-0.0208636 -0.0614438 -0.415563 
0.0260593 9.32005e-05 -0.0139048 
9.32005e-05 0.424665 -0.0614374 
-0.0139048 -0.0614374 -0.413978 
0.0261399 -0.000118905 -0.0139137 
-0.000118905 0.478581 -0.204134 
-0.0139137 -0.204134 -0.467974 
0.0280536 -4.37182e-05 -0.0208856 
-4.37182e-05 0.478237 -0.204119 
-0.0208856 -0.204119 -0.469544 
0.0390805 0.000433501 -0.0153946 
0.000433501 0.160476 -0.0614438 
-0.0153946 -0.0614438 -0.134986 
0.0311398 0.000246574 -0.0100912 
0.000246574 0.161137 -0.0614374 
-0.0100912 -0.0614374 -0.127706 
0.0313643 -0.00026234 -0.0100969 
-0.00026234 0.224955 -0.157296 
-0.0100969 -0.157296 -0.191749 
0.039383 -7.54131e-05 -0.0154075 
-7.54131e-05 0.224233 -0.15729 
-0.0154075 -0.15729 -0.199046 
0.0510315 0.000439968 -0.0158701 
0.000439968 0.567718 -0.0475229 
-0.0158701 -0.0475229 -0.554179 
0.0425804 0.000245856 -0.0105667 
0.000245856 0.568384 -0.0475165 
-0.0105667 -0.0475165 -0.546394 
0.0428152 -0.000275511 -0.0105723 
-0.000275511 0.671498 -0.143375 
-0.0105723 -0.143375 -0.649742 
0.0513558 -8.13992e-05 -0.0158829 
-8.13992e-05 0.670725 -0.143369 
-0.0158829 -0.143369 -0.65751 
0.0200087 0.000581754 -0.00507611 
0.000581754 0.360813 -0.0475229 
-0.00507611 -0.0475229 -0.415449 
0.00702951 0.000318102 -0.00323283 
0.000318102 0.361477 -0.0475165 
-0.00323283 -0.0475165 -0.403134 
0.00737126 -0.00029298 -0.00323591 
-0.00029298 0.470483 -0.0597032 
-0.00323591 -0.0597032 -0.512482 
0.0205523 -2.9328e-05 -0.00507832 
-2.9328e-05 0.46964 -0.0597097 
-0.00507832 -0.0597097 -0.524819 
0.0246244 0.000577562 -0.00524614 
0.000577562 0.486232 -0.0278527 
-0.00524614 -0.0278527 -0.545484 
0.0088836 0.000314782 -0.00340286 
0.000314782 0.486895 -0.0278505 
-0.00340286 -0.0278505 -0.530406 
0.00923579 -0.000296205 -0.00340172 
-0.000296205 0.612457 -0.0400373 
-0.00340172 -0.0400373 -0.656321 
0.0251536 -3.3425e-05 -0.00524413 
-3.3425e-05 0.611613 -0.0400395 
-0.00524413 -0.0400395 -0.671394 
-0.0639534 0.000518569 0.0101493 
0.000518569 0.359105 -0.0278527 
0.0101493 -0.0278527 -0.606454 
-0.0822522 0.000267885 0.0066179 
0.000267885 0.359489 -0.0278505 
0.0066179 -0.0278505 -0.588539 
-0.0818981 -0.000209464 0.00661696 
-0.000209464 0.485837 0.0584835 
0.00661696 0.0584835 -0.715241 
-0.0633205 4.1221e-05 0.0101538 
4.1221e-05 0.48519 0.0584722 
0.0101538 0.0584722 -0.733171 
-0.0741303 0.000511844 0.0105475 
0.000511844 0.159838 -0.00927038 
0.0105475 -0.00927038 -0.397009 
-0.0943929 0.000266637 0.00701613 
0.000266637 0.160218 -0.00927773 
0.00701613 -0.00927773 -0.377127 
-0.0940407 -0.000201627 0.00702473 
-0.000201627 0.259845 0.0770563 
0.00702473 0.0770563 -0.477107 
-0.07352 4.35802e-05 0.0105616 
4.35802e-05 0.259234 0.0770545 
0.0105616 0.0770545 -0.497016 
-0.219785 0.000202741 0.028414 
0.000202741 0.105228 -0.00927038 
0.028414 -0.00927038 -0.656125 
-0.240389 9.70668e-05 0.0178822 
9.70668e-05 0.105307 -0.00927773 
0.0178822 -0.00927773 -0.635601 
-0.240212 -6.67843e-05 0.0178761 
-6.67843e-05 0.197111 0.154677 
0.0178761 0.154677 -0.727582 
-0.219506 3.88898e-05 0.0283984 
3.88898e-05 0.196902 0.154714 
0.0283984 0.154714 -0.748079 
-0.252728 0.000225641 0.0289228 
0.000225641 -0.340913 6.34254e-11 
0.0289228 6.34254e-11 -0.177041 
-0.269919 0.000110491 0.018391 
0.000110491 -0.340813 6.32422e-11 
0.018391 6.32422e-11 -0.159951 
-0.269778 -8.31806e-05 0.0183776 
-8.31806e-05 -0.318043 0.163955 
0.0183776 0.163955 -0.182862 
-0.252371 3.197e-05 0.0288999 
3.197e-05 -0.318365 0.163985 
0.0288999 0.163985 -0.199947 
0.229872 -0.000418733 0.0401032 
-0.000418733 0.32367 6.32656e-11 
0.0401032 6.32656e-11 0.165812 
0.258861 -0.000225641 0.0289228 
-0.000225641 0.323325 6.30997e-11 
0.0289228 6.30997e-11 0.137168 
0.258686 0.000186579 0.0288999 
0.000186579 0.300476 0.163405 
0.0288999 0.163405 0.160191 
0.229308 -6.51263e-06 0.0400713 
-6.51263e-06 0.30121 0.163462 
0.0400713 0.163462 0.188836 
0.197165 -0.000386766 0.0402183 
-0.000386766 -0.120847 -0.00931577 
0.0402183 -0.00931577 0.643035 
0.224862 -0.000202741 0.0290379 
-0.000202741 -0.121154 -0.00931368 
0.0290379 -0.00931368 0.615646 
0.224622 0.000152434 0.0290129 
0.000152434 -0.213075 0.154092 
0.0290129 0.154092 0.707807 
0.196707 -3.15909e-05 0.0401843 
-3.15909e-05 -0.212558 0.154147 
0.0401843 0.154147 0.735205 
0.0543098 -0.000891827 0.0139989 
-0.000891827 -0.174255 -0.00931577 
0.0139989 -0.00931577 0.383981 
0.0809698 -0.000511844 0.0111715 
-0.000511844 -0.175691 -0.00931368 
0.0111715 -0.00931368 0.358758 
0.0805921 0.000594731 0.0111761 
0.000594731 -0.275446 0.0765977 
0.0111761 0.0765977 0.458889 
0.0535447 0.000214748 0.014016 
0.000214748 -0.27362 0.0765831 
0.014016 0.0765831 0.484111 
0.0463957 -0.000910994 0.0153606 
-0.000910994 -0.372058 -0.0279881 
0.0153606 -0.0279881 0.589698 
0.0668449 -0.000518569 0.0125332 
-0.000518569 -0.373502 -0.0279781 
0.0125332 -0.0279781 0.570693 
0.0664793 0.000600591 0.0125299 
0.000600591 -0.499923 0.0579334 
0.0125299 0.0579334 0.697479 
0.0455628 0.000208166 0.0153698 
0.000208166 -0.498049 0.0579108 
0.0153698 0.0579108 0.716522 
-0.0353512 -0.000955187 -0.00529554 
-0.000955187 -0.495991 -0.0279881 
-0.00529554 -0.0279881 0.52873 
-0.0190691 -0.000577562 -0.0028622 
-0.000577562 -0.498466 -0.0279781 
-0.0028622 -0.0279781 0.514924 
-0.0192869 0.000930775 -0.00286803 
0.000930775 -0.624157 -0.040245 
-0.00286803 -0.040245 0.640833 
-0.0358077 0.00055315 -0.00530411 
0.00055315 -0.621413 -0.0402522 
-0.00530411 -0.0402522 0.65461 
-0.0334996 -0.00095663 -0.00276152 
-0.00095663 -0.369922 -0.0477338 
-0.00276152 -0.0477338 0.40081 
-0.0204932 -0.000581754 -0.000328181 
-0.000581754 -0.3724 -0.0477275 
-0.000328181 -0.0477275 0.390281 
-0.0206918 0.000923812 -0.000330318 
0.000923812 -0.48146 -0.0599944 
-0.000330318 -0.0599944 0.49954 
-0.0339629 0.000548936 -0.00276641 
0.000548936 -0.47873 -0.059998 
-0.00276641 -0.059998 0.510082 
-0.0526114 -0.000704979 -0.0163662 
-0.000704979 -0.572674 -0.0477338 
-0.0163662 -0.0477338 0.537153 
-0.0471315 -0.000439968 -0.0111222 
-0.000439968 -0.575072 -0.0477275 
-0.0111222 -0.0477275 0.534071 
-0.0471699 0.000866657 -0.0111349 
0.000866657 -0.678292 -0.143231 
-0.0111349 -0.143231 0.63733 
-0.0527676 0.000601646 -0.0163992 
0.000601646 -0.675759 -0.143214 
-0.0163992 -0.143214 0.640394 
-0.0500042 -0.000678292 -0.0139053 
-0.000678292 -0.165935 -0.0617002 
-0.0139053 -0.0617002 0.127807 
-0.0415436 -0.000433501 -0.00866125 
-0.000433501 -0.168324 -0.0617018 
-0.00866125 -0.0617018 0.121735 
-0.0415814 0.000849483 -0.0086661 
0.000849483 -0.232167 -0.157205 
-0.0086661 -0.157205 0.185616 
-0.0500707 0.000604692 -0.0139304 
0.000604692 -0.229731 -0.15718 
-0.0139304 -0.15718 0.19167 
-0.0229705 -0.00027264 -0.0205269 
-0.00027264 -0.42534 -0.0617002 
-0.0205269 -0.0617002 0.403524 
-0.0247446 -0.000168387 -0.0141302 
-0.000168387 -0.426337 -0.0617018 
-0.0141302 -0.0617018 0.406296 
-0.0247252 0.000360256 -0.0141442 
0.000360256 -0.480316 -0.203743 
-0.0141442 -0.203743 0.460255 
-0.0230465 0.000256003 -0.0205723 
0.000256003 -0.479235 -0.203703 
-0.0205723 -0.203703 0.457495 
-0.0219246 -0.000225682 -0.0195178 
-0.000225682 0.139837 -0.0666618 
-0.0195178 -0.0666618 -0.162698 
-0.0162936 -0.000152809 -0.0131211 
-0.000152809 0.138856 -0.0666671 
-0.0131211 -0.0666671 -0.167349 
-0.0162931 0.000337449 -0.0131313 
0.000337449 0.133205 -0.208708 
-0.0131313 -0.208708 -0.161698 
-0.0218414 0.000264576 -0.0195593 
0.000264576 0.134131 -0.208665 
-0.0195593 -0.208665 -0.157076 
0.0219247 0.000225682 -0.0195178 
0.000225682 -0.139837 -0.0666618 
-0.0195178 -0.0666618 0.162698 
0.0162938 0.000152809 -0.0131211 
0.000152809 -0.138856 -0.0666671 
-0.0131211 -0.0666671 0.167349 
0.0162933 -0.000337449 -0.0131313 
-0.000337449 -0.133205 -0.208708 
-0.0131313 -0.208708 0.161698 
0.0218415 -0.000264576 -0.0195593 
-0.000264576 -0.134131 -0.208665 
-0.0195593 -0.208665 0.157076 
0.0229706 0.00027264 -0.0205269 
0.00027264 0.42534 -0.0617002 
-0.0205269 -0.0617002 -0.403524 
0.0247447 0.000168387 -0.0141302 
0.000168387 0.426337 -0.0617018 
-0.0141302 -0.0617018 -0.406296 
0.0247253 -0.000360256 -0.0141442 
-0.000360256 0.480316 -0.203743 
-0.0141442 -0.203743 -0.460255 
0.0230467 -0.000256003 -0.0205723 
-0.000256003 0.479235 -0.203703 
-0.0205723 -0.203703 -0.457495 
0.0500044 0.000678292 -0.0139053 
0.000678292 0.165935 -0.0617002 
-0.0139053 -0.0617002 -0.127807 
0.0415438 0.000433501 -0.00866125 
0.000433501 0.168324 -0.0617018 
-0.00866125 -0.0617018 -0.121735 
0.0415815 -0.000849483 -0.0086661 
-0.000849483 0.232167 -0.157205 
-0.0086661 -0.157205 -0.185616 
0.0500708 -0.000604692 -0.0139304 
-0.000604692 0.229732 -0.15718 
-0.0139304 -0.15718 -0.191669 
0.0526116 0.000704979 -0.0163662 
0.000704979 0.572674 -0.0477338 
-0.0163662 -0.0477338 -0.537153 
0.0471317 0.000439968 -0.0111222 
0.000439968 0.575072 -0.0477275 
-0.0111222 -0.0477275 -0.534071 
0.0471701 -0.000866657 -0.0111349 
-0.000866657 0.678292 -0.143231 
-0.0111349 -0.143231 -0.637329 
0.0527678 -0.000601646 -0.0163992 
-0.000601646 0.675759 -0.143214 
-0.0163992 -0.143214 -0.640394 
0.0334997 0.00095663 -0.00276152 
0.00095663 0.369922 -0.0477338 
-0.00276152 -0.0477338 -0.40081 
0.0204934 0.000581754 -0.000328181 
0.000581754 0.3724 -0.0477275 
-0.000328181 -0.0477275 -0.390281 
0.020692 -0.000923812 -0.000330318 
-0.000923812 0.48146 -0.0599944 
-0.000330318 -0.0599944 -0.49954 
0.033963 -0.000548936 -0.00276641 
-0.000548936 0.47873 -0.059998 
-0.00276641 -0.059998 -0.510082 
0.0353513 0.000955187 -0.00529554 
0.000955187 0.495991 -0.0279881 
-0.00529554 -0.0279881 -0.52873 
0.0190693 0.000577562 -0.0028622 
0.000577562 0.498466 -0.0279781 
-0.0028622 -0.0279781 -0.514924 
0.019287 -0.000930775 -0.00286803 
-0.000930775 0.624158 -0.040245 
-0.00286803 -0.040245 -0.640833 
0.0358078 -0.00055315 -0.00530411 
-0.00055315 0.621413 -0.0402522 
-0.00530411 -0.0402522 -0.65461 
-0.0463956 0.000910994 0.0153606 
0.000910994 0.372058 -0.0279881 
0.0153606 -0.0279881 -0.589698 
-0.0668448 0.000518569 0.0125332 
0.000518569 0.373502 -0.0279781 
0.0125332 -0.0279781 -0.570692 
-0.0664792 -0.000600591 0.0125299 
-0.000600591 0.499923 0.0579334 
0.0125299 0.0579334 -0.697479 
-0.0455627 -0.000208166 0.0153698 
-0.000208166 0.498049 0.0579108 
0.0153698 0.0579108 -0.716521 
-0.0543097 0.000891827 0.0139989 
0.000891827 0.174255 -0.00931577 
0.0139989 -0.00931577 -0.383981 
-0.0809697 0.000511844 0.0111715 
0.000511844 0.175692 -0.00931368 
0.0111715 -0.00931368 -0.358757 
-0.0805919 -0.000594731 0.0111761 
-0.000594731 0.275446 0.0765977 
0.0111761 0.0765977 -0.458889 
-0.0535446 -0.000214748 0.014016 
-0.000214748 0.27362 0.0765831 
0.014016 0.0765831 -0.484111 
-0.197165 0.000386766 0.0402183 
0.000386766 0.120847 -0.00931577 
0.0402183 -0.00931577 -0.643035 
-0.224862 0.000202741 0.0290379 
0.000202741 0.121154 -0.00931368 
0.0290379 -0.00931368 -0.615646 
-0.224622 -0.000152434 0.0290129 
-0.000152434 0.213075 0.154092 
0.0290129 0.154092 -0.707807 
-0.196707 3.15909e-05 0.0401843 
3.15909e-05 0.212559 0.154147 
0.0401843 0.154147 -0.735204 
-0.229872 0.000418733 0.0401032 
0.000418733 -0.32367 6.32656e-11 
0.0401032 6.32656e-11 -0.165812 
-0.25886 0.000225641 0.0289228 
0.000225641 -0.323325 6.30997e-11 
0.0289228 6.30997e-11 -0.137168 
-0.258686 -0.000186579 0.0288999 
-0.000186579 -0.300476 0.163405 
0.0288999 0.163405 -0.160191 
-0.229307 6.51263e-06 0.0400713 
6.51263e-06 -0.30121 0.163462 
0.0400713 0.163462 -0.188836 
0.193753 -0.000710305 0.0504437 
-0.000710305 0.296183 6.26684e-11 
0.0504437 6.26684e-11 0.147056 
0.238908 -0.000418733 0.0401032 
-0.000418733 0.295021 6.26079e-11 
0.0401032 6.26079e-11 0.103063 
0.238791 0.000466894 0.0400713 
0.000466894 0.271737 0.162159 
0.0400713 0.162159 0.126465 
0.193049 0.000175322 0.0504103 
0.000175322 0.273462 0.162254 
0.0504103 0.162254 0.170481 
0.169192 -0.000676921 0.0522188 
-0.000676921 -0.144843 -0.00934124 
0.0522188 -0.00934124 0.612644 
0.20115 -0.000386766 0.0418784 
-0.000386766 -0.145943 -0.00930777 
0.0418784 -0.00930777 0.581786 
0.200935 0.000403348 0.0418129 
0.000403348 -0.237986 0.152851 
0.0418129 0.152851 0.674043 
0.168591 0.000113193 0.052152 
0.000113193 -0.236625 0.152913 
0.052152 0.152913 0.705026 
0.031044 -0.00142289 0.0169299 
-0.00142289 -0.194398 -0.00934124 
0.0169299 -0.00934124 0.356436 
0.0610991 -0.000891827 0.0156589 
-0.000891827 -0.198916 -0.00930777 
0.0156589 -0.00930777 0.330899 
0.0610007 0.00167286 0.0156446 
0.00167286 -0.298845 0.0755203 
0.0156446 0.0755203 0.430926 
0.0305001 0.0011418 0.0169364 
0.0011418 -0.293778 0.0754777 
0.0169364 0.0754777 0.456359 
0.0284394 -0.00146287 0.0223812 
-0.00146287 -0.389031 -0.0280267 
0.0223812 -0.0280267 0.553673 
0.0446722 -0.000910994 0.0211102 
-0.000910994 -0.393561 -0.027999 
0.0211102 -0.027999 0.541971 
0.0446258 0.00166288 0.0211017 
0.00166288 -0.519841 0.0568291 
0.0211017 0.0568291 0.668297 
0.0277504 0.001111 0.0223935 
0.001111 -0.514744 0.0567923 
0.0223935 0.0567923 0.680076 
-0.0424337 -0.00143664 -0.00245664 
-0.00143664 -0.506823 -0.0280267 
-0.00245664 -0.0280267 0.493208 
-0.0321965 -0.000955187 0.000454004 
-0.000955187 -0.514209 -0.027999 
0.000454004 -0.027999 0.490356 
-0.031759 0.0026032 0.000427798 
0.0026032 -0.639869 -0.040498 
0.000427798 -0.040498 0.615579 
-0.0422205 0.00212174 -0.00249604 
0.00212174 -0.632167 -0.0405131 
-0.00249604 -0.0405131 0.618338 
-0.0469087 -0.00142489 0.00513178 
-0.00142489 -0.380069 -0.0477415 
0.00513178 -0.0477415 0.370928 
-0.0393324 -0.00095663 0.00804242 
-0.00095663 -0.387459 -0.0477422 
0.00804242 -0.0477422 0.370742 
-0.0388687 0.00258923 0.00804462 
0.00258923 -0.496365 -0.0602412 
0.00804462 -0.0602412 0.479185 
-0.0466628 0.00212097 0.00512079 
0.00212097 -0.488723 -0.0602279 
0.00512079 -0.0602279 0.479337 
-0.0474784 -0.00101986 -0.0098491 
-0.00101986 -0.575834 -0.0477415 
-0.0098491 -0.0477415 0.502354 
-0.0514544 -0.000704979 -0.00556227 
-0.000704979 -0.582749 -0.0477422 
-0.00556227 -0.0477422 0.513244 
-0.0508001 0.00238431 -0.0055882 
0.00238431 -0.685858 -0.142381 
-0.0055882 -0.142381 0.615699 
-0.0469437 0.00206943 -0.00991666 
0.00206943 -0.678823 -0.142342 
-0.00991666 -0.142342 0.604808 
-0.0627899 -0.000951549 -0.00335278 
-0.000951549 -0.171717 -0.061666 
-0.00335278 -0.061666 0.113548 
-0.0563346 -0.000678292 0.000934053 
-0.000678292 -0.178621 -0.0616943 
0.000934053 -0.0616943 0.113997 
-0.0557214 0.00237319 0.000935673 
0.00237319 -0.242395 -0.156333 
0.000935673 -0.156333 0.177158 
-0.0620278 0.00209993 -0.00339279 
0.00209993 -0.235518 -0.156267 
-0.00339279 -0.156267 0.176587 
-0.0114063 -0.00039754 -0.0102115 
-0.00039754 -0.423995 -0.061666 
-0.0102115 -0.061666 0.379581 
-0.0210955 -0.00027264 -0.00568756 
-0.00027264 -0.426816 -0.0616943 
-0.00568756 -0.0616943 0.392091 
-0.0207581 0.000963859 -0.00570621 
0.000963859 -0.480681 -0.20212 
-0.00570621 -0.20212 0.445619 
-0.0112527 0.00083896 -0.0102868 
0.00083896 -0.477772 -0.202037 
-0.0102868 -0.202037 0.433205 
-0.0351709 -0.000293939 -0.00767422 
-0.000293939 0.13628 -0.0666084 
-0.00767422 -0.0666084 -0.156929 
-0.0262162 -0.000225682 -0.00315029 
-0.000225682 0.133481 -0.0666478 
-0.00315029 -0.0666478 -0.163084 
-0.0259735 0.000956041 -0.00315776 
0.000956041 0.127788 -0.207074 
-0.00315776 -0.207074 -0.157635 
-0.0346692 0.000887785 -0.00773834 
0.000887785 0.130474 -0.20698 
-0.00773834 -0.20698 -0.151625 
0.0351711 0.000293939 -0.00767422 
0.000293939 -0.136279 -0.0666084 
-0.00767422 -0.0666084 0.156929 
0.0262163 0.000225682 -0.00315029 
0.000225682 -0.133481 -0.0666478 
-0.00315029 -0.0666478 0.163085 
0.0259736 -0.000956041 -0.00315776 
-0.000956041 -0.127788 -0.207074 
-0.00315776 -0.207074 0.157635 
0.0346694 -0.000887785 -0.00773834 
-0.000887785 -0.130474 -0.20698 
-0.00773834 -0.20698 0.151625 
0.0114064 0.00039754 -0.0102115 
0.00039754 0.423995 -0.061666 
-0.0102115 -0.061666 -0.379581 
0.0210957 0.00027264 -0.00568756 
0.00027264 0.426816 -0.0616943 
-0.00568756 -0.0616943 -0.392091 
0.0207582 -0.000963859 -0.00570621 
-0.000963859 0.480681 -0.20212 
-0.00570621 -0.20212 -0.445619 
0.0112528 -0.00083896 -0.0102868 
-0.00083896 0.477772 -0.202037 
-0.0102868 -0.202037 -0.433205 
0.06279 0.000951549 -0.00335278 
0.000951549 0.171717 -0.061666 
-0.00335278 -0.061666 -0.113548 
0.0563347 0.000678292 0.000934053 
0.000678292 0.178621 -0.0616943 
0.000934053 -0.0616943 -0.113997 
0.0557216 -0.00237319 0.000935673 
-0.00237319 0.242395 -0.156333 
0.000935673 -0.156333 -0.177158 
0.062028 -0.00209993 -0.00339279 
-0.00209993 0.235518 -0.156267 
-0.00339279 -0.156267 -0.176587 
0.0474786 0.00101986 -0.0098491 
0.00101986 0.575834 -0.0477415 
-0.0098491 -0.0477415 -0.502354 
0.0514546 0.000704979 -0.00556227 
0.000704979 0.582749 -0.0477422 
-0.00556227 -0.0477422 -0.513244 
0.0508003 -0.00238431 -0.0055882 
-0.00238431 0.685858 -0.142381 
-0.0055882 -0.142381 -0.615699 
0.0469438 -0.00206943 -0.00991666 
-0.00206943 0.678823 -0.142342 
-0.00991666 -0.142342 -0.604807 
0.0469088 0.00142489 0.00513178 
0.00142489 0.380069 -0.0477415 
0.00513178 -0.0477415 -0.370928 
0.0393326 0.00095663 0.00804242 
0.00095663 0.387459 -0.0477422 
0.00804242 -0.0477422 -0.370742 
0.0388689 -0.00258923 0.00804462 
-0.00258923 0.496365 -0.0602412 
0.00804462 -0.0602412 -0.479184 
0.0466629 -0.00212097 0.00512079 
-0.00212097 0.488724 -0.0602279 
0.00512079 -0.0602279 -0.479337 
0.0424338 0.00143664 -0.00245664 
0.00143664 0.506824 -0.0280267 
-0.00245664 -0.0280267 -0.493208 
0.0321966 0.000955187 0.000454004 
0.000955187 0.514209 -0.027999 
0.000454004 -0.027999 -0.490356 
0.0317591 -0.0026032 0.000427798 
-0.0026032 0.639869 -0.040498 
0.000427798 -0.040498 -0.615579 
0.0422207 -0.00212174 -0.00249604 
-0.00212174 0.632167 -0.0405131 
-0.00249604 -0.0405131 -0.618338 
-0.0284393 0.00146287 0.0223812 
0.00146287 0.389031 -0.0280267 
0.0223812 -0.0280267 -0.553673 
-0.044672 0.000910994 0.0211102 
0.000910994 0.393562 -0.027999 
0.0211102 -0.027999 -0.541971 
-0.0446257 -0.00166288 0.0211017 
-0.00166288 0.519841 0.0568291 
0.0211017 0.0568291 -0.668296 
-0.0277502 -0.001111 0.0223935 
-0.001111 0.514744 0.0567923 
0.0223935 0.0567923 -0.680076 
-0.0310439 0.00142289 0.0169299 
0.00142289 0.194398 -0.00934124 
0.0169299 -0.00934124 -0.356435 
-0.061099 0.000891827 0.0156589 
0.000891827 0.198917 -0.00930777 
0.0156589 -0.00930777 -0.330899 
-0.0610006 -0.00167286 0.0156446 
-0.00167286 0.298845 0.0755203 
0.0156446 0.0755203 -0.430926 
-0.0305 -0.0011418 0.0169364 
-0.0011418 0.293778 0.0754777 
0.0169364 0.0754777 -0.456359 
-0.169192 0.000676921 0.0522188 
0.000676921 0.144844 -0.00934124 
0.0522188 -0.00934124 -0.612644 
-0.201149 0.000386766 0.0418784 
0.000386766 0.145944 -0.00930777 
0.0418784 -0.00930777 -0.581786 
-0.200935 -0.000403348 0.0418129 
-0.000403348 0.237986 0.152851 
0.0418129 0.152851 -0.674043 
-0.168591 -0.000113193 0.052152 
-0.000113193 0.236626 0.152913 
0.052152 0.152913 -0.705026 
-0.193753 0.000710305 0.0504437 
0.000710305 -0.296183 6.26684e-11 
0.0504437 6.26684e-11 -0.147056 
-0.238908 0.000418733 0.0401032 
0.000418733 -0.295021 6.26079e-11 
0.0401032 6.26079e-11 -0.103063 
-0.238791 -0.000466894 0.0400713 
-0.000466894 -0.271736 0.162159 
0.0400713 0.162159 -0.126464 
-0.193048 -0.000175322 0.0504103 
-0.000175322 -0.273462 0.162254 
0.0504103 0.162254 -0.170481 
0.140875 -0.00108399 0.0569624 
-0.00108399 0.25594 6.11955e-11 
0.0569624 6.11955e-11 0.118324 
0.206457 -0.000710305 0.0504437 
-0.000710305 0.252371 6.13019e-11 
0.0504437 6.13019e-11 0.0563108 
0.206726 0.00123118 0.0504103 
0.00123118 0.227819 0.159333 
0.0504103 0.159333 0.0805935 
0.140412 0.0008575 0.0569455 
0.0008575 0.232038 0.159476 
0.0569455 0.159476 0.142689 
0.138198 -0.00106708 0.0619598 
-0.00106708 -0.177413 -0.00927311 
0.0619598 -0.00927311 0.554354 
0.168719 -0.000676921 0.0554411 
-0.000676921 -0.180896 -0.00916393 
0.0554411 -0.00916393 0.527316 
0.168881 0.00112221 0.0552986 
0.00112221 -0.272972 0.150169 
0.0552986 0.150169 0.61923 
0.137768 0.000732054 0.0618338 
0.000732054 -0.269304 0.150202 
0.0618338 0.150202 0.646674 
0.00725948 -0.00202835 0.0188113 
-0.00202835 -0.218083 -0.00927311 
0.0188113 -0.00927311 0.306658 
0.0356442 -0.00142289 0.0201522 
-0.00142289 -0.230642 -0.00916393 
0.0201522 -0.00916393 0.290832 
0.036724 0.00439584 0.020083 
0.00439584 -0.33075 0.0731157 
0.020083 0.0731157 0.389861 
0.00808972 0.00379039 0.0187643 
0.00379039 -0.317588 0.0730283 
0.0187643 0.0730283 0.405333 
0.0133794 -0.00209054 0.0317587 
-0.00209054 -0.40605 -0.0276995 
0.0317587 -0.0276995 0.488506 
0.017008 -0.00146287 0.0330996 
-0.00146287 -0.418617 -0.0276413 
0.0330996 -0.0276413 0.497444 
0.018221 0.00433402 0.0330813 
0.00433402 -0.544139 0.0546383 
0.0330813 0.0546383 0.621753 
0.0139771 0.00370635 0.0317626 
0.00370635 -0.531082 0.054602 
0.0317626 0.054602 0.61294 
-0.0415237 -0.00191603 0.00546197 
-0.00191603 -0.512995 -0.0276995 
0.00546197 -0.0276995 0.429379 
-0.045357 -0.00143664 0.00826173 
-0.00143664 -0.532251 -0.0276413 
0.00826173 -0.0276413 0.452468 
-0.0429795 0.006598 0.00819177 
0.006598 -0.657354 -0.0406627 
0.00819177 -0.0406627 0.575194 
-0.0392483 0.0061186 0.00535558 
0.0061186 -0.637789 -0.040685 
0.00535558 -0.040685 0.551897 
-0.0581645 -0.00186786 0.021871 
-0.00186786 -0.386084 -0.0470647 
0.021871 -0.0470647 0.319109 
-0.0617262 -0.00142489 0.0246707 
-0.00142489 -0.405347 -0.0470891 
0.0246707 -0.0470891 0.341933 
-0.059331 0.00657377 0.0246834 
0.00657377 -0.51354 -0.0601106 
0.0246834 -0.0601106 0.44773 
-0.0557438 0.00613081 0.0218473 
0.00613081 -0.494141 -0.0600502 
0.0218473 -0.0600502 0.424745 
-0.0324753 -0.00129351 0.00789031 
-0.00129351 -0.570686 -0.0470647 
0.00789031 -0.0470647 0.441496 
-0.0526474 -0.00101986 0.00968986 
-0.00101986 -0.588082 -0.0470891 
0.00968986 -0.0470891 0.479063 
-0.0502016 0.0058888 0.009646 
0.0058888 -0.690403 -0.139701 
0.009646 -0.139701 0.578939 
-0.0301608 0.00561515 0.00777921 
0.00561515 -0.672934 -0.139635 
0.00777921 -0.139635 0.541429 
-0.0766806 -0.00115795 0.0211921 
-0.00115795 -0.174567 -0.0607029 
0.0211921 -0.0607029 0.0895818 
-0.0742113 -0.000951549 0.0229916 
-0.000951549 -0.191959 -0.0607935 
0.0229916 -0.0607935 0.104505 
-0.0719101 0.00591554 0.0230139 
0.00591554 -0.255419 -0.153406 
0.0230139 -0.153406 0.165663 
-0.0739209 0.00570914 0.0211471 
0.00570914 -0.238132 -0.153273 
0.0211471 -0.153273 0.150387 
0.00827716 -0.000506527 0.0153806 
-0.000506527 -0.415929 -0.0607029 
0.0153806 -0.0607029 0.338453 
-0.0134884 -0.00039754 0.0161329 
-0.00039754 -0.4229 -0.0607935 
0.0161329 -0.0607935 0.367189 
-0.0123768 0.00232721 0.0161199 
0.00232721 -0.476129 -0.197484 
0.0161199 -0.197484 0.419307 
0.00904756 0.00221823 0.0152892 
0.00221823 -0.469104 -0.19735 
0.0152892 -0.19735 0.390857 
-0.0532599 -0.000324618 0.0204519 
-0.000324618 0.130901 -0.0655361 
0.0204519 -0.0655361 -0.14684 
-0.0396749 -0.000293939 0.0212043 
-0.000293939 0.12394 -0.0656512 
0.0212043 -0.0656512 -0.153464 
-0.0388169 0.00238739 0.0212158 
0.00238739 0.118034 -0.202342 
0.0212158 -0.202342 -0.148417 
-0.0518858 0.00235671 0.0203851 
0.00235671 0.124876 -0.202184 
0.0203851 -0.202184 -0.14219 
0.05326 0.000324618 0.0204519 
0.000324618 -0.1309 -0.0655361 
0.0204519 -0.0655361 0.14684 
0.0396751 0.000293939 0.0212043 
0.000293939 -0.123939 -0.0656512 
0.0212043 -0.0656512 0.153464 
0.038817 -0.00238739 0.0212158 
-0.00238739 -0.118034 -0.202342 
0.0212158 -0.202342 0.148417 
0.051886 -0.00235671 0.0203851 
-0.00235671 -0.124876 -0.202184 
0.0203851 -0.202184 0.14219 
-0.00827702 0.000506527 0.0153806 
0.000506527 0.41593 -0.0607029 
0.0153806 -0.0607029 -0.338452 
0.0134885 0.00039754 0.0161329 
0.00039754 0.422901 -0.0607935 
0.0161329 -0.0607935 -0.367189 
0.012377 -0.00232721 0.0161199 
-0.00232721 0.47613 -0.197484 
0.0161199 -0.197484 -0.419307 
-0.00904741 -0.00221823 0.0152892 
-0.00221823 0.469104 -0.19735 
0.0152892 -0.19735 -0.390857 
0.0766808 0.00115795 0.0211921 
0.00115795 0.174567 -0.0607029 
0.0211921 -0.0607029 -0.0895816 
0.0742114 0.000951549 0.0229916 
0.000951549 0.191959 -0.0607935 
0.0229916 -0.0607935 -0.104505 
0.0719102 -0.00591554 0.0230139 
-0.00591554 0.255419 -0.153406 
0.0230139 -0.153406 -0.165663 
0.073921 -0.00570914 0.0211471 
-0.00570914 0.238132 -0.153273 
0.0211471 -0.153273 -0.150387 
0.0324754 0.00129351 0.00789031 
0.00129351 0.570686 -0.0470647 
0.00789031 -0.0470647 -0.441495 
0.0526475 0.00101986 0.00968986 
0.00101986 0.588082 -0.0470891 
0.00968986 -0.0470891 -0.479063 
0.0502018 -0.0058888 0.009646 
-0.0058888 0.690403 -0.139701 
0.009646 -0.139701 -0.578939 
0.0301609 -0.00561515 0.00777921 
-0.00561515 0.672934 -0.139635 
0.00777921 -0.139635 -0.541429 
0.0581646 0.00186786 0.021871 
0.00186786 0.386085 -0.0470647 
0.021871 -0.0470647 -0.319109 
0.0617264 0.00142489 0.0246707 
0.00142489 0.405347 -0.0470891 
0.0246707 -0.0470891 -0.341932 
0.0593311 -0.00657377 0.0246834 
-0.00657377 0.51354 -0.0601106 
0.0246834 -0.0601106 -0.44773 
0.055744 -0.00613081 0.0218473 
-0.00613081 0.494141 -0.0600502 
0.0218473 -0.0600502 -0.424744 
0.0415239 0.00191603 0.00546197 
0.00191603 0.512995 -0.0276995 
0.00546197 -0.0276995 -0.429379 
0.0453572 0.00143664 0.00826173 
0.00143664 0.532251 -0.0276413 
0.00826173 -0.0276413 -0.452468 
0.0429796 -0.006598 0.00819177 
-0.006598 0.657354 -0.0406627 
0.00819177 -0.0406627 -0.575193 
0.0392485 -0.0061186 0.00535558 
-0.0061186 0.637789 -0.040685 
0.00535558 -0.040685 -0.551896 
-0.0133793 0.00209054 0.0317587 
0.00209054 0.40605 -0.0276995 
0.0317587 -0.0276995 -0.488506 
-0.0170078 0.00146287 0.0330996 
0.00146287 0.418617 -0.0276413 
0.0330996 -0.0276413 -0.497444 
-0.0182208 -0.00433402 0.0330813 
-0.00433402 0.544139 0.0546383 
0.0330813 0.0546383 -0.621753 
-0.013977 -0.00370635 0.0317626 
-0.00370635 0.531083 0.054602 
0.0317626 0.054602 -0.61294 
-0.00725934 0.00202835 0.0188113 
0.00202835 0.218083 -0.00927311 
0.0188113 -0.00927311 -0.306658 
-0.035644 0.00142289 0.0201522 
0.00142289 0.230642 -0.00916393 
0.0201522 -0.00916393 -0.290832 
-0.0367238 -0.00439584 0.020083 
-0.00439584 0.33075 0.0731157 
0.020083 0.0731157 -0.389861 
-0.00808958 -0.00379039 0.0187643 
-0.00379039 0.317588 0.0730283 
0.0187643 0.0730283 -0.405333 
-0.138198 0.00106708 0.0619598 
0.00106708 0.177413 -0.00927311 
0.0619598 -0.00927311 -0.554354 
-0.168719 0.000676921 0.0554411 
0.000676921 0.180897 -0.00916393 
0.0554411 -0.00916393 -0.527316 
-0.168881 -0.00112221 0.0552986 
-0.00112221 0.272972 0.150169 
0.0552986 0.150169 -0.61923 
-0.137768 -0.000732054 0.0618338 
-0.000732054 0.269304 0.150202 
0.0618338 0.150202 -0.646674 
-0.140874 0.00108399 0.0569624 
0.00108399 -0.25594 6.11955e-11 
0.0569624 6.11955e-11 -0.118324 
-0.206457 0.000710305 0.0504437 
0.000710305 -0.252371 6.13019e-11 
0.0504437 6.13019e-11 -0.0563107 
-0.206726 -0.00123118 0.0504103 
-0.00123118 -0.227819 0.159333 
0.0504103 0.159333 -0.0805934 
-0.140412 -0.0008575 0.0569455 
-0.0008575 -0.232038 0.159476 
0.0569455 0.159476 -0.142688 
0.0702657 -0.00142812 0.055233 
-0.00142812 0.20237 5.8063e-11 
0.055233 5.8063e-11 0.0776985 
0.158606 -0.00108399 0.0569624 
-0.00108399 0.192508 5.82826e-11 
0.0569624 5.82826e-11 -0.000779191 
0.16004 0.00319673 0.0569455 
0.00319673 0.165117 0.152987 
0.0569455 0.152987 0.0251766 
0.0710952 0.0028526 0.0552304 
0.0028526 0.175386 0.153184 
0.0552304 0.153184 0.103853 
0.108412 -0.00142548 0.0655517 
-0.00142548 -0.21394 -0.00894043 
0.0655517 -0.00894043 0.455861 
0.12817 -0.00106708 0.0672811 
-0.00106708 -0.223705 -0.00869579 
0.0672811 -0.00869579 0.445869 
0.129577 0.00301648 0.0670195 
0.00301648 -0.315343 0.144291 
0.0670195 0.144291 0.5361 
0.109206 0.00265808 0.0653044 
0.00265808 -0.305859 0.144244 
0.0653044 0.144244 0.546987 
-0.0127387 -0.00246487 0.0195312 
-0.00246487 -0.237486 -0.00894043 
0.0195312 -0.00894043 0.226402 
0.00782346 -0.00202835 0.0241325 
-0.00202835 -0.269128 -0.00869579 
0.0241325 -0.00869579 0.237482 
0.0122708 0.0108087 0.0239501 
0.0108087 -0.369254 0.0680368 
0.0239501 0.0680368 0.333161 
-0.0081481 0.0103722 0.0193479 
0.0103722 -0.336949 0.0679099 
0.0193479 0.0679099 0.321275 
0.00343312 -0.00252619 0.0443752 
-0.00252619 -0.411926 -0.0264735 
0.0443752 -0.0264735 0.384671 
-0.0130047 -0.00209054 0.0489765 
-0.00209054 -0.443545 -0.026371 
0.0489765 -0.026371 0.432727 
-0.00830639 0.0106288 0.0489362 
0.0106288 -0.566876 0.0503616 
0.0489362 0.0503616 0.55136 
0.00777664 0.0101932 0.044334 
0.0101932 -0.535074 0.0503768 
0.044334 0.0503768 0.503475 
-0.0302698 -0.00213582 0.0213398 
-0.00213582 -0.501404 -0.0264735 
0.0213398 -0.0264735 0.328214 
-0.05379 -0.00191603 0.0226799 
-0.00191603 -0.546644 -0.026371 
0.0226799 -0.026371 0.396974 
-0.0468815 0.0153461 0.0225292 
0.0153461 -0.669792 -0.0403092 
0.0225292 -0.0403092 0.513213 
-0.0234581 0.0151263 0.021124 
0.0151263 -0.624065 -0.0403402 
0.021124 -0.0403402 0.444062 
-0.0670336 -0.00202255 0.0510975 
-0.00202255 -0.376405 -0.0447816 
0.0510975 -0.0447816 0.239978 
-0.0836619 -0.00186786 0.0524375 
-0.00186786 -0.421653 -0.0448668 
0.0524375 -0.0448668 0.301854 
-0.0768049 0.0153228 0.0524746 
0.0153228 -0.52785 -0.058805 
0.0524746 -0.058805 0.401195 
-0.0598793 0.0151681 0.0510694 
0.0151681 -0.482451 -0.0586483 
0.0510694 -0.0586483 0.338869 
-0.00840764 -0.00135817 0.041018 
-0.00135817 -0.544078 -0.0447816 
0.041018 -0.0447816 0.347559 
-0.0474604 -0.00129351 0.0384569 
-0.00129351 -0.583385 -0.0448668 
0.0384569 -0.0448668 0.425918 
-0.0412092 0.0132546 0.0384066 
0.0132546 -0.683268 -0.132931 
0.0384066 -0.132931 0.51955 
-0.00265971 0.01319 0.0408917 
0.01319 -0.643675 -0.132856 
0.0408917 -0.132856 0.441407 
-0.0914729 -0.00114659 0.0642791 
-0.00114659 -0.16779 -0.0576295 
0.0642791 -0.0576295 0.054336 
-0.0916519 -0.00115795 0.0617179 
-0.00115795 -0.207136 -0.0578394 
0.0617179 -0.0578394 0.0938605 
-0.0857424 0.0134003 0.0617922 
0.0134003 -0.269723 -0.145904 
0.0617922 -0.145904 0.150538 
-0.0850433 0.0134117 0.0642774 
0.0134117 -0.230124 -0.145704 
0.0642774 -0.145704 0.11024 
0.0338013 -0.000534829 0.0607126 
-0.000534829 -0.392727 -0.0576295 
0.0607126 -0.0576295 0.276015 
-0.00134366 -0.000506527 0.0559064 
-0.000506527 -0.408155 -0.0578394 
0.0559064 -0.0578394 0.326588 
0.00130506 0.00511937 0.0559344 
0.00511937 -0.459527 -0.186445 
0.0559344 -0.186445 0.375311 
0.0357521 0.00509107 0.0606691 
0.00509107 -0.444048 -0.186292 
0.0606691 -0.186292 0.325385 
-0.0746197 -0.000281495 0.069422 
-0.000281495 0.122752 -0.0621734 
0.069422 -0.0621734 -0.131044 
-0.0547546 -0.000324618 0.0646158 
-0.000324618 0.107271 -0.0624238 
0.0646158 -0.0624238 -0.135427 
-0.0526122 0.00535758 0.0646843 
0.00535758 0.100773 -0.19103 
0.0646843 -0.19103 -0.131072 
-0.0718432 0.0054007 0.069419 
0.0054007 0.116449 -0.190836 
0.069419 -0.190836 -0.127517 
0.0746198 0.000281495 0.069422 
0.000281495 -0.122752 -0.0621734 
0.069422 -0.0621734 0.131044 
0.0547548 0.000324618 0.0646158 
0.000324618 -0.10727 -0.0624238 
0.0646158 -0.0624238 0.135427 
0.0526123 -0.00535758 0.0646843 
-0.00535758 -0.100773 -0.19103 
0.0646843 -0.19103 0.131072 
0.0718434 -0.0054007 0.069419 
-0.0054007 -0.116449 -0.190836 
0.069419 -0.190836 0.127517 
-0.0338011 0.000534829 0.0607126 
0.000534829 0.392727 -0.0576295 
0.0607126 -0.0576295 -0.276015 
0.00134381 0.000506527 0.0559064 
0.000506527 0.408155 -0.0578394 
0.0559064 -0.0578394 -0.326587 
-0.00130492 -0.00511937 0.0559344 
-0.00511937 0.459527 -0.186445 
0.0559344 -0.186445 -0.37531 
-0.035752 -0.00509107 0.0606691 
-0.00509107 0.444049 -0.186292 
0.0606691 -0.186292 -0.325385 
0.091473 0.00114659 0.0642791 
0.00114659 0.167791 -0.0576295 
0.0642791 -0.0576295 -0.0543358 
0.091652 0.00115795 0.0617179 
0.00115795 0.207136 -0.0578394 
0.0617179 -0.0578394 -0.0938603 
0.0857426 -0.0134003 0.0617922 
-0.0134003 0.269723 -0.145904 
0.0617922 -0.145904 -0.150538 
0.0850434 -0.0134117 0.0642774 
-0.0134117 0.230124 -0.145704 
0.0642774 -0.145704 -0.110239 
0.00840778 0.00135817 0.041018 
0.00135817 0.544078 -0.0447816 
0.041018 -0.0447816 -0.347558 
0.0474606 0.00129351 0.0384569 
0.00129351 0.583385 -0.0448668 
0.0384569 -0.0448668 -0.425917 
0.0412093 -0.0132546 0.0384066 
-0.0132546 0.683268 -0.132931 
0.0384066 -0.132931 -0.51955 
0.00265985 -0.01319 0.0408917 
-0.01319 0.643675 -0.132856 
0.0408917 -0.132856 -0.441407 
0.0670337 0.00202255 0.0510975 
0.00202255 0.376405 -0.0447816 
0.0510975 -0.0447816 -0.239978 
0.0836621 0.00186786 0.0524375 
0.00186786 0.421653 -0.0448668 
0.0524375 -0.0448668 -0.301854 
0.076805 -0.0153228 0.0524746 
-0.0153228 0.527851 -0.058805 
0.0524746 -0.058805 -0.401194 
0.0598794 -0.0151681 0.0510694 
-0.0151681 0.482451 -0.0586483 
0.0510694 -0.0586483 -0.338869 
0.0302699 0.00213582 0.0213398 
0.00213582 0.501405 -0.0264735 
0.0213398 -0.0264735 -0.328213 
0.0537902 0.00191603 0.0226799 
0.00191603 0.546644 -0.026371 
0.0226799 -0.026371 -0.396973 
0.0468816 -0.0153461 0.0225292 
-0.0153461 0.669792 -0.0403092 
0.0225292 -0.0403092 -0.513213 
0.0234582 -0.0151263 0.021124 
-0.0151263 0.624065 -0.0403402 
0.021124 -0.0403402 -0.444062 
-0.00343298 0.00252619 0.0443752 
0.00252619 0.411926 -0.0264735 
0.0443752 -0.0264735 -0.38467 
0.0130048 0.00209054 0.0489765 
0.00209054 0.443545 -0.026371 
0.0489765 -0.026371 -0.432727 
0.00830653 -0.0106288 0.0489362 
-0.0106288 0.566876 0.0503616 
0.0489362 0.0503616 -0.55136 
-0.0077765 -0.0101932 0.044334 
-0.0101932 0.535074 0.0503768 
0.044334 0.0503768 -0.503474 
0.0127388 0.00246487 0.0195312 
0.00246487 0.237486 -0.00894043 
0.0195312 -0.00894043 -0.226402 
-0.00782332 0.00202835 0.0241325 
0.00202835 0.269128 -0.00869579 
0.0241325 -0.00869579 -0.237482 
-0.0122707 -0.0108087 0.0239501 
-0.0108087 0.369255 0.0680368 
0.0239501 0.0680368 -0.333161 
0.00814824 -0.0103722 0.0193479 
-0.0103722 0.336949 0.0679099 
0.0193479 0.0679099 -0.321275 
-0.108412 0.00142548 0.0655517 
0.00142548 0.21394 -0.00894043 
0.0655517 -0.00894043 -0.455861 
-0.12817 0.00106708 0.0672811 
0.00106708 0.223705 -0.00869579 
0.0672811 -0.00869579 -0.445869 
-0.129577 -0.00301648 0.0670195 
-0.00301648 0.315343 0.144291 
0.0670195 0.144291 -0.5361 
-0.109206 -0.00265808 0.0653044 
-0.00265808 0.305859 0.144244 
0.0653044 0.144244 -0.546987 
-0.0702655 0.00142812 0.055233 
0.00142812 -0.20237 5.8063e-11 
0.055233 5.8063e-11 -0.0776984 
-0.158606 0.00108399 0.0569624 
0.00108399 -0.192507 5.82826e-11 
0.0569624 5.82826e-11 0.000779332 
-0.16004 -0.00319673 0.0569455 
-0.00319673 -0.165117 0.152987 
0.0569455 0.152987 -0.0251765 
-0.0710951 -0.0028526 0.0552304 
-0.0028526 -0.175386 0.153184 
0.0552304 0.153184 -0.103853 
-0.0113225 -0.00155768 0.0410737 
-0.00155768 0.140086 5.21698e-11 
0.0410737 5.21698e-11 0.0248157 
0.0957793 -0.00142812 0.055233 
-0.00142812 0.115062 5.18152e-11 
0.055233 5.18152e-11 -0.0572621 
0.100518 0.00813549 0.0552304 
0.00813549 0.0822296 0.138963 
0.0552304 0.138963 -0.0291681 
-0.0075767 0.00800593 0.041009 
0.00800593 0.107813 0.139354 
0.041009 0.139354 0.0533426 
0.0836752 -0.00149296 0.0590096 
-0.00149296 -0.238739 -0.00806246 
0.0590096 -0.00806246 0.308643 
0.082536 -0.00142548 0.0731689 
-0.00142548 -0.263597 -0.00755676 
0.0731689 -0.00755676 0.33464 
0.0874027 0.00774672 0.0726606 
0.00774672 -0.353351 0.131406 
0.0726606 0.131406 0.419527 
0.0875704 0.00767924 0.0584392 
0.00767924 -0.32935 0.131292 
0.0584392 0.131292 0.395359 
-0.0248903 -0.00222973 0.0205351 
-0.00222973 -0.233975 -0.00806246 
0.0205351 -0.00806246 0.110788 
-0.0155684 -0.00246487 0.0271485 
-0.00246487 -0.306686 -0.00755676 
0.0271485 -0.00755676 0.174177 
-0.00366041 0.0247218 0.0267041 
0.0247218 -0.405735 0.0580351 
0.0267041 0.0580351 0.261318 
-0.0125843 0.0249569 0.020043 
0.0249569 -0.331686 0.0579058 
0.020043 0.0579058 0.196193 
-0.00458474 -0.00224327 0.0618659 
-0.00224327 -0.382449 -0.0234008 
0.0618659 -0.0234008 0.238956 
-0.0392804 -0.00252619 0.0684793 
-0.00252619 -0.455008 -0.0232668 
0.0684793 -0.0232668 0.346211 
-0.0270497 0.0242841 0.0684066 
0.0242841 -0.572816 0.0423251 
0.0684066 0.0423251 0.451789 
0.00761225 0.024567 0.0617455 
0.024567 -0.500297 0.0425675 
0.0617455 0.0425675 0.344607 
-0.0139775 -0.00175784 0.0476949 
-0.00175784 -0.4467 -0.0234008 
0.0476949 -0.0234008 0.186637 
-0.0518384 -0.00213582 0.0454438 
-0.00213582 -0.543578 -0.0232668 
0.0454438 -0.0232668 0.321376 
-0.0360157 0.0329243 0.0451965 
0.0329243 -0.661367 -0.0382211 
0.0451965 -0.0382211 0.423343 
0.000483134 0.0333023 0.047386 
0.0333023 -0.562545 -0.0383069 
0.047386 -0.0383069 0.288022 
-0.0777101 -0.00158298 0.0951223 
-0.00158298 -0.329456 -0.0393759 
0.0951223 -0.0393759 0.133126 
-0.0982489 -0.00202255 0.0928712 
-0.00202255 -0.42638 -0.0396003 
0.0928712 -0.0396003 0.250589 
-0.0826621 0.0329894 0.0929824 
0.0329894 -0.527855 -0.0545546 
0.0929824 -0.0545546 0.336477 
-0.0627382 0.0334289 0.0951719 
0.0334289 -0.429294 -0.054282 
0.0951719 -0.054282 0.217992 
0.0141836 -0.00104944 0.0906796 
-0.00104944 -0.473332 -0.0393759 
0.0906796 -0.0393759 0.219675 
-0.0344675 -0.00135817 0.0827918 
-0.00135817 -0.553526 -0.0396003 
0.0827918 -0.0396003 0.34852 
-0.0216206 0.0271517 0.0828046 
0.0271517 -0.647247 -0.117886 
0.0828046 -0.117886 0.429394 
0.0249101 0.0274605 0.0906729 
0.0274605 -0.565539 -0.117911 
0.0906729 -0.117911 0.301155 
-0.107179 -0.000818306 0.126694 
-0.000818306 -0.140405 -0.0505648 
0.126694 -0.0505648 0.0081102 
-0.102227 -0.00114659 0.118806 
-0.00114659 -0.220795 -0.0509769 
0.118806 -0.0509769 0.0835478 
-0.0900008 0.0276128 0.119007 
0.0276128 -0.28131 -0.129263 
0.119007 -0.129263 0.131837 
-0.0957439 0.0279411 0.126875 
0.0279411 -0.198682 -0.1291 
0.126875 -0.1291 0.0549523 
0.0557969 -0.000427112 0.125588 
-0.000427112 -0.340689 -0.0505648 
0.125588 -0.0505648 0.191775 
0.0128347 -0.000534829 0.115239 
-0.000534829 -0.371361 -0.0509769 
0.115239 -0.0509769 0.26541 
0.0179076 0.0102022 0.115398 
0.0102022 -0.418391 -0.163353 
0.115398 -0.163353 0.307367 
0.0594149 0.01031 0.125728 
0.01031 -0.387523 -0.163303 
0.125728 -0.163303 0.234992 
-0.0941444 -0.000154898 0.138887 
-0.000154898 0.110066 -0.0545167 
0.138887 -0.0545167 -0.109039 
-0.0664798 -0.000281495 0.128538 
-0.000281495 0.0791475 -0.0549846 
0.128538 -0.0549846 -0.105785 
-0.0621844 0.010818 0.128753 
0.010818 0.0714313 -0.16736 
0.128753 -0.16736 -0.102364 
-0.0896645 0.0109446 0.139082 
0.0109446 0.103674 -0.167255 
0.139082 -0.167255 -0.107126 
0.0941446 0.000154898 0.138887 
0.000154898 -0.110066 -0.0545167 
0.138887 -0.0545167 0.109039 
0.0664799 0.000281495 0.128538 
0.000281495 -0.0791473 -0.0549846 
0.128538 -0.0549846 0.105785 
0.0621846 -0.010818 0.128753 
-0.010818 -0.0714312 -0.16736 
0.128753 -0.16736 0.102364 
0.0896646 -0.0109446 0.139082 
-0.0109446 -0.103674 -0.167255 
0.139082 -0.167255 0.107126 
-0.0557967 0.000427112 0.125588 
0.000427112 0.340689 -0.0505648 
0.125588 -0.0505648 -0.191775 
-0.0128346 0.000534829 0.115239 
0.000534829 0.371361 -0.0509769 
0.115239 -0.0509769 -0.26541 
-0.0179075 -0.0102022 0.115398 
-0.0102022 0.418392 -0.163353 
0.115398 -0.163353 -0.307367 
-0.0594147 -0.01031 0.125728 
-0.01031 0.387523 -0.163303 
0.125728 -0.163303 -0.234991 
0.107179 0.000818306 0.126694 
0.000818306 0.140405 -0.0505648 
0.126694 -0.0505648 -0.00811005 
0.102227 0.00114659 0.118806 
0.00114659 0.220795 -0.0509769 
0.118806 -0.0509769 -0.0835476 
0.0900009 -0.0276128 0.119007 
-0.0276128 0.28131 -0.129263 
0.119007 -0.129263 -0.131836 
0.095744 -0.0279411 0.126875 
-0.0279411 0.198682 -0.1291 
0.126875 -0.1291 -0.0549521 
-0.0141835 0.00104944 0.0906796 
0.00104944 0.473332 -0.0393759 
0.0906796 -0.0393759 -0.219674 
0.0344677 0.00135817 0.0827918 
0.00135817 0.553526 -0.0396003 
0.0827918 -0.0396003 -0.34852 
0.0216207 -0.0271517 0.0828046 
-0.0271517 0.647247 -0.117886 
0.0828046 -0.117886 -0.429394 
-0.02491 -0.0274605 0.0906729 
-0.0274605 0.56554 -0.117911 
0.0906729 -0.117911 -0.301155 
0.0777102 0.00158298 0.0951223 
0.00158298 0.329456 -0.0393759 
0.0951223 -0.0393759 -0.133126 
0.0982491 0.00202255 0.0928712 
0.00202255 0.42638 -0.0396003 
0.0928712 -0.0396003 -0.250589 
0.0826622 -0.0329894 0.0929824 
-0.0329894 0.527855 -0.0545546 
0.0929824 -0.0545546 -0.336476 
0.0627383 -0.0334289 0.0951719 
-0.0334289 0.429294 -0.054282 
0.0951719 -0.054282 -0.217992 
0.0139777 0.00175784 0.0476949 
0.00175784 0.4467 -0.0234008 
0.0476949 -0.0234008 -0.186637 
0.0518386 0.00213582 0.0454438 
0.00213582 0.543578 -0.0232668 
0.0454438 -0.0232668 -0.321376 
0.0360158 -0.0329243 0.0451965 
-0.0329243 0.661367 -0.0382211 
0.0451965 -0.0382211 -0.423343 
-0.000482993 -0.0333023 0.047386 
-0.0333023 0.562545 -0.0383069 
0.047386 -0.0383069 -0.288022 
0.00458488 0.00224327 0.0618659 
0.00224327 0.382449 -0.0234008 
0.0618659 -0.0234008 -0.238956 
0.0392806 0.00252619 0.0684793 
0.00252619 0.455008 -0.0232668 
0.0684793 -0.0232668 -0.346211 
0.0270499 -0.0242841 0.0684066 
-0.0242841 0.572816 0.0423251 
0.0684066 0.0423251 -0.451788 
-0.00761211 -0.024567 0.0617455 
-0.024567 0.500297 0.0425675 
0.0617455 0.0425675 -0.344607 
0.0248904 0.00222973 0.0205351 
0.00222973 0.233975 -0.00806246 
0.0205351 -0.00806246 -0.110787 
0.0155686 0.00246487 0.0271485 
0.00246487 0.306687 -0.00755676 
0.0271485 -0.00755676 -0.174177 
0.00366055 -0.0247218 0.0267041 
-0.0247218 0.405735 0.0580351 
0.0267041 0.0580351 -0.261318 
0.0125844 -0.0249569 0.020043 
-0.0249569 0.331686 0.0579058 
0.020043 0.0579058 -0.196193 
-0.083675 0.00149296 0.0590096 
0.00149296 0.238739 -0.00806246 
0.0590096 -0.00806246 -0.308643 
-0.0825359 0.00142548 0.0731689 
0.00142548 0.263597 -0.00755676 
0.0731689 -0.00755676 -0.33464 
-0.0874025 -0.00774672 0.0726606 
-0.00774672 0.353351 0.131406 
0.0726606 0.131406 -0.419527 
-0.0875703 -0.00767924 0.0584392 
-0.00767924 0.329351 0.131292 
0.0584392 0.131292 -0.395359 
0.0113226 0.00155768 0.0410737 
0.00155768 -0.140086 5.21698e-11 
0.0410737 5.21698e-11 -0.0248156 
-0.0957792 0.00142812 0.055233 
0.00142812 -0.115062 5.18152e-11 
0.055233 5.18152e-11 0.0572622 
-0.100518 -0.00813549 0.0552304 
-0.00813549 -0.0822294 0.138963 
0.0552304 0.138963 0.0291682 
0.00757684 -0.00800593 0.041009 
-0.00800593 -0.107813 0.139354 
0.041009 0.139354 -0.0533424 
-0.0846058 -0.00108511 0.0143456 
-0.00108511 0.0830213 4.10262e-11 
0.0143456 4.10262e-11 -0.0315144 
0.0293588 -0.00155768 0.0410737 
-0.00155768 0.0265445 3.89672e-11 
0.0410737 3.89672e-11 -0.0890022 
0.0398108 0.01868 0.041009 
0.01868 -0.0144982 0.109012 
0.041009 0.109012 -0.0584115 
-0.0757402 0.0191525 0.0137999 
0.0191525 0.0428659 0.109902 
0.0137999 0.109902 -0.000224671 
0.0668413 -0.000539392 0.0409907 
-0.000539392 -0.215775 -0.00598062 
0.0409907 -0.00598062 0.115835 
0.0366215 -0.00149296 0.0677188 
-0.00149296 -0.271882 -0.00527088 
0.0677188 -0.00527088 0.202161 
0.0474167 0.0178544 0.0669444 
0.0178544 -0.354132 0.103741 
0.0669444 0.103741 0.273617 
0.0775148 0.018808 0.0397353 
0.018808 -0.300379 0.103922 
0.0397353 0.103922 0.189765 
-0.0392723 -0.00109262 0.0244312 
-0.00109262 -0.170694 -0.00598062 
0.0244312 -0.00598062 -0.0262202 
-0.0219213 -0.00222973 0.0292444 
-0.00222973 -0.325067 -0.00527088 
0.0292444 -0.00527088 0.110802 
0.00521962 0.0530533 0.0285482 
0.0530533 -0.419443 0.0399417 
0.0285482 0.0399417 0.178037 
-0.0158529 0.0541904 0.0236815 
0.0541904 -0.258782 0.0397969 
0.0236815 0.0397969 0.0384482 
-0.0241951 -0.00105261 0.0848744 
-0.00105261 -0.272568 -0.0171427 
0.0848744 -0.0171427 0.0605763 
-0.0532511 -0.00224327 0.0896876 
-0.00224327 -0.426672 -0.0171061 
0.0896876 -0.0171061 0.243736 
-0.0259233 0.0524747 0.0896645 
0.0524747 -0.531959 0.0281065 
0.0896645 0.0281065 0.321696 
-0.000723174 0.0536654 0.0847978 
0.0536654 -0.373556 0.0286349 
0.0847978 0.0286349 0.138093 
-0.020214 -0.000837916 0.0819403 
-0.000837916 -0.307967 -0.0171427 
0.0819403 -0.0171427 0.0210202 
-0.036486 -0.00175784 0.0755166 
-0.00175784 -0.495921 -0.0171061 
0.0755166 -0.0171061 0.225246 
-0.00622957 0.0645655 0.0753051 
0.0645655 -0.600447 -0.0311135 
0.0753051 -0.0311135 0.299515 
0.00212824 0.0654854 0.0818328 
0.0654854 -0.404208 -0.0314123 
0.0818328 -0.0314123 0.0949192 
-0.0964577 -0.00076702 0.149273 
-0.00076702 -0.21372 -0.0288227 
0.149273 -0.0288227 0.00301636 
-0.0956922 -0.00158298 0.142849 
-0.00158298 -0.401908 -0.0292553 
0.142849 -0.0292553 0.190439 
-0.065995 0.0650026 0.143107 
0.0650026 -0.493571 -0.0432627 
0.143107 -0.0432627 0.252405 
-0.0740212 0.0658186 0.149635 
0.0658186 -0.296394 -0.0430923 
0.149635 -0.0430923 0.0632541 
0.0122761 -0.000501088 0.149541 
-0.000501088 -0.326539 -0.0288227 
0.149541 -0.0288227 0.0651202 
-0.0197513 -0.00104944 0.138407 
-0.00104944 -0.473761 -0.0292553 
0.138407 -0.0292553 0.24437 
0.00220335 0.050347 0.138608 
0.050347 -0.554017 -0.0879506 
0.138608 -0.0879506 0.302671 
0.0274687 0.0508953 0.149853 
0.0508953 -0.401236 -0.0882688 
0.149853 -0.0882688 0.124625 
-0.123437 -0.000380158 0.200251 
-0.000380158 -0.0788345 -0.0370307 
0.200251 -0.0370307 -0.0468714 
-0.0968459 -0.000818306 0.189116 
-0.000818306 -0.226561 -0.0376967 
0.189116 -0.0376967 0.0742642 
-0.0756873 0.051329 0.189551 
0.051329 -0.282463 -0.0963919 
0.189551 -0.0963919 0.109008 
-0.107941 0.0517671 0.200796 
0.0517671 -0.126828 -0.0964768 
0.200796 -0.0964768 -0.0143737 
0.0610888 -0.000240915 0.200798 
-0.000240915 -0.241194 -0.0370307 
0.200798 -0.0370307 0.0852677 
0.0197795 -0.000427112 0.18801 
-0.000427112 -0.296168 -0.0376967 
0.18801 -0.0376967 0.181551 
0.0280006 0.0184723 0.188404 
0.0184723 -0.334455 -0.12023 
0.188404 -0.12023 0.211617 
0.0662173 0.0186585 0.201261 
0.0186585 -0.27841 -0.120441 
0.201261 -0.120441 0.117354 
-0.106068 -3.80948e-05 0.219517 
-3.80948e-05 0.0896083 -0.0399401 
0.219517 -0.0399401 -0.0783781 
-0.065679 -0.000154898 0.206729 
-0.000154898 0.0340714 -0.0406709 
0.206729 -0.0406709 -0.0632304 
-0.0583811 0.0196217 0.207188 
0.0196217 0.0242731 -0.123204 
0.207188 -0.123204 -0.0607301 
-0.100327 0.0197385 0.220045 
0.0197385 0.083678 -0.12335 
0.220045 -0.12335 -0.0781893 
0.106068 3.80948e-05 0.219517 
3.80948e-05 -0.0896081 -0.0399401 
0.219517 -0.0399401 0.0783782 
0.0656792 0.000154898 0.206729 
0.000154898 -0.0340713 -0.0406709 
0.206729 -0.0406709 0.0632306 
0.0583812 -0.0196217 0.207188 
-0.0196217 -0.024273 -0.123204 
0.207188 -0.123204 0.0607302 
0.100327 -0.0197385 0.220045 
-0.0197385 -0.0836779 -0.12335 
0.220045 -0.12335 0.0781894 
-0.0610886 0.000240915 0.200798 
0.000240915 0.241195 -0.0370307 
0.200798 -0.0370307 -0.0852676 
-0.0197793 0.000427112 0.18801 
0.000427112 0.296169 -0.0376967 
0.18801 -0.0376967 -0.181551 
-0.0280004 -0.0184723 0.188404 
-0.0184723 0.334455 -0.12023 
0.188404 -0.12023 -0.211616 
-0.0662172 -0.0186585 0.201261 
-0.0186585 0.27841 -0.120441 
0.201261 -0.120441 -0.117354 
0.123437 0.000380158 0.200251 
0.000380158 0.0788346 -0.0370307 
0.200251 -0.0370307 0.0468715 
0.096846 0.000818306 0.189116 
0.000818306 0.226561 -0.0376967 
0.189116 -0.0376967 -0.0742641 
0.0756875 -0.051329 0.189551 
-0.051329 0.282463 -0.0963919 
0.189551 -0.0963919 -0.109008 
0.107941 -0.0517671 0.200796 
-0.0517671 0.126828 -0.0964768 
0.200796 -0.0964768 0.0143738 
-0.012276 0.000501088 0.149541 
0.000501088 0.326539 -0.0288227 
0.149541 -0.0288227 -0.0651201 
0.0197514 0.00104944 0.138407 
0.00104944 0.473761 -0.0292553 
0.138407 -0.0292553 -0.24437 
-0.00220321 -0.050347 0.138608 
-0.050347 0.554017 -0.0879506 
0.138608 -0.0879506 -0.302671 
-0.0274686 -0.0508953 0.149853 
-0.0508953 0.401236 -0.0882688 
0.149853 -0.0882688 -0.124625 
0.0964578 0.00076702 0.149273 
0.00076702 0.21372 -0.0288227 
0.149273 -0.0288227 -0.00301622 
0.0956923 0.00158298 0.142849 
0.00158298 0.401908 -0.0292553 
0.142849 -0.0292553 -0.190439 
0.0659952 -0.0650026 0.143107 
-0.0650026 0.493571 -0.0432627 
0.143107 -0.0432627 -0.252405 
0.0740213 -0.0658186 0.149635 
-0.0658186 0.296394 -0.0430923 
0.149635 -0.0430923 -0.063254 
0.0202141 0.000837916 0.0819403 
0.000837916 0.307967 -0.0171427 
0.0819403 -0.0171427 -0.02102 
0.0364861 0.00175784 0.0755166 
0.00175784 0.495921 -0.0171061 
0.0755166 -0.0171061 -0.225246 
0.00622971 -0.0645655 0.0753051 
-0.0645655 0.600447 -0.0311135 
0.0753051 -0.0311135 -0.299515 
-0.0021281 -0.0654854 0.0818328 
-0.0654854 0.404208 -0.0314123 
0.0818328 -0.0314123 -0.094919 
0.0241953 0.00105261 0.0848744 
0.00105261 0.272568 -0.0171427 
0.0848744 -0.0171427 -0.0605762 
0.0532512 0.00224327 0.0896876 
0.00224327 0.426672 -0.0171061 
0.0896876 -0.0171061 -0.243736 
0.0259235 -0.0524747 0.0896645 
-0.0524747 0.531959 0.0281065 
0.0896645 0.0281065 -0.321696 
0.000723314 -0.0536654 0.0847978 
-0.0536654 0.373556 0.0286349 
0.0847978 0.0286349 -0.138092 
0.0392724 0.00109262 0.0244312 
0.00109262 0.170694 -0.00598062 
0.0244312 -0.00598062 0.0262203 
0.0219214 0.00222973 0.0292444 
0.00222973 0.325067 -0.00527088 
0.0292444 -0.00527088 -0.110802 
-0.00521948 -0.0530533 0.0285482 
-0.0530533 0.419443 0.0399417 
0.0285482 0.0399417 -0.178037 
0.015853 -0.0541904 0.0236815 
-0.0541904 0.258782 0.0397969 
0.0236815 0.0397969 -0.0384481 
-0.0668411 0.000539392 0.0409907 
0.000539392 0.215775 -0.00598062 
0.0409907 -0.00598062 -0.115835 
-0.0366214 0.00149296 0.0677188 
0.00149296 0.271882 -0.00527088 
0.0677188 -0.00527088 -0.202161 
-0.0474166 -0.0178544 0.0669444 
-0.0178544 0.354132 0.103741 
0.0669444 0.103741 -0.273616 
-0.0775146 -0.018808 0.0397353 
-0.018808 0.300379 0.103922 
0.0397353 0.103922 -0.189765 
0.084606 0.00108511 0.0143456 
0.00108511 -0.0830212 4.10262e-11 
0.0143456 4.10262e-11 0.0315145 
-0.0293587 0.00155768 0.0410737 
0.00155768 -0.0265444 3.89672e-11 
0.0410737 3.89672e-11 0.0890024 
-0.0398107 -0.01868 0.041009 
-0.01868 0.0144984 0.109012 
0.041009 0.109012 0.0584116 
0.0757403 -0.0191525 0.0137999 
-0.0191525 -0.0428658 0.109902 
0.0137999 0.109902 0.000224812 
-0.0999465 2.28412e-11 -3.71053e-12 
2.28412e-11 0.070455 2.58438e-11 
-3.71053e-12 2.58438e-11 -0.0775212 
-0.0115352 -0.00108511 0.0143456 
-0.00108511 -0.0621586 1.32928e-11 
0.0143456 1.32928e-11 -0.0333188 
0.0185599 0.0465303 0.0137999 
0.0465303 -0.110998 0.0453715 
0.0137999 0.0453715 -0.0145742 
-0.0807947 0.0476154 -6.8613e-12 
0.0476154 0.032371 0.0481006 
-6.8613e-12 0.0481006 -0.058589 
-0.00658436 1.00413e-11 0.0288411 
1.00413e-11 -0.058957 -0.00255101 
0.0288411 -0.00255101 -0.0414712 
0.011321 -0.000539392 0.0431867 
-0.000539392 -0.189189 -0.00143542 
0.0431867 -0.00143542 0.0708551 
0.0387824 0.0443469 0.0415253 
0.0443469 -0.250244 0.0439361 
0.0415253 0.0439361 0.104449 
0.0127607 0.0448863 0.0277255 
0.0448863 -0.116698 0.0455496 
0.0277255 0.0455496 -0.00307585 
-0.103104 3.7729e-11 0.0288411 
3.7729e-11 0.0170933 -0.00255101 
0.0288411 -0.00255101 -0.127422 
-0.00901252 -0.00109262 0.0266271 
-0.00109262 -0.280075 -0.00143542 
0.0266271 -0.00143542 0.0756559 
0.0395111 0.104452 0.0254715 
0.104452 -0.356021 0.0137825 
0.0254715 0.0137825 0.103077 
-0.0727625 0.105545 0.0277255 
0.105545 -0.0363732 0.013746 
0.0277255 0.013746 -0.104296 
-0.0761249 3.18853e-11 0.104439 
3.18853e-11 -0.0178654 -0.00660986 
0.104439 -0.00660986 -0.119442 
-0.033032 -0.00105261 0.102225 
-0.00105261 -0.314312 -0.00668791 
0.102225 -0.00668791 0.133912 
0.0153387 0.103413 0.102263 
0.103413 -0.392268 0.00852999 
0.102263 0.00852999 0.163497 
-0.0458095 0.104466 0.104517 
0.104466 -0.0767243 0.0096872 
0.104517 0.0096872 -0.0908983 
-0.0922805 3.68923e-11 0.104439 
3.68923e-11 -0.0329357 -0.00660986 
0.104439 -0.00660986 -0.13598 
-0.0258875 -0.000837916 0.0992911 
-0.000837916 -0.358644 -0.00668791 
0.0992911 -0.00668791 0.123336 
0.0187131 0.113149 0.0992982 
0.113149 -0.431981 -0.0128819 
0.0992982 -0.0128819 0.152072 
-0.0658146 0.113987 0.104517 
0.113987 -0.0879031 -0.0138851 
0.104517 -0.0138851 -0.107478 
-0.117424 3.80015e-11 0.192767 
3.80015e-11 0.00645813 -0.0109339 
0.192767 -0.0109339 -0.15023 
-0.0663776 -0.00076702 0.187619 
-0.00076702 -0.320054 -0.0118515 
0.187619 -0.0118515 0.125236 
-0.0219649 0.114301 0.188466 
0.114301 -0.389632 -0.0180455 
0.188466 -0.0180455 0.150401 
-0.0910875 0.115068 0.193685 
0.115068 -0.041524 -0.0182091 
0.193685 -0.0182091 -0.128584 
-0.0417217 2.40721e-11 0.192767 
2.40721e-11 -0.0660712 -0.0109339 
0.192767 -0.0109339 -0.106209 
-0.0221453 -0.000501088 0.187887 
-0.000501088 -0.310252 -0.0118515 
0.187887 -0.0118515 0.118396 
0.00860993 0.0839597 0.188684 
0.0839597 -0.362862 -0.0347306 
0.188684 -0.0347306 0.14025 
-0.023157 0.0844608 0.193685 
0.0844608 -0.109134 -0.0360097 
0.193685 -0.0360097 -0.0817106 
-0.125751 3.12942e-11 0.261782 
3.12942e-11 0.0318109 -0.0141112 
0.261782 -0.0141112 -0.120062 
-0.0719569 -0.000380158 0.256902 
-0.000380158 -0.213878 -0.0154359 
0.256902 -0.0154359 0.0718326 
-0.0416223 0.0862773 0.258106 
0.0862773 -0.25885 -0.038315 
0.258106 -0.038315 0.0864707 
-0.107307 0.0866575 0.263107 
0.0866575 0.00319313 -0.039187 
0.263107 -0.039187 -0.109888 
0.0279651 4.91572e-12 0.261782 
4.91572e-12 -0.072232 -0.0141112 
0.261782 -0.0141112 -0.0379134 
0.0085404 -0.000240915 0.257449 
-0.000240915 -0.161578 -0.0154359 
0.257449 -0.0154359 0.0708576 
0.0197296 0.0299175 0.258571 
0.0299175 -0.183143 -0.0471969 
0.258571 -0.0471969 0.0812325 
0.0346467 0.0301584 0.263107 
0.0301584 -0.0933573 -0.0483883 
0.263107 -0.0483883 -0.0234697 
-0.0915757 1.53433e-11 0.287612 
1.53433e-11 0.0569589 -0.01525 
0.287612 -0.01525 -0.0475636 
-0.0474833 -3.80948e-05 0.283279 
-3.80948e-05 -0.0340523 -0.0166763 
0.283279 -0.0166763 -0.000644857 
-0.0370822 0.0326365 0.284502 
0.0326365 -0.0467631 -0.0484372 
0.284502 -0.0484372 0.00166497 
-0.0850128 0.0326746 0.289038 
0.0326746 0.0526093 -0.049527 
0.289038 -0.049527 -0.0497768 
0.0915758 -1.53433e-11 0.287612 
-1.53433e-11 -0.0569588 -0.01525 
0.287612 -0.01525 0.0475638 
0.0474834 3.80948e-05 0.283279 
3.80948e-05 0.0340524 -0.0166763 
0.283279 -0.0166763 0.000644997 
0.0370824 -0.0326365 0.284502 
-0.0326365 0.0467633 -0.0484372 
0.284502 -0.0484372 -0.00166483 
0.085013 -0.0326746 0.289038 
-0.0326746 -0.0526091 -0.049527 
0.289038 -0.049527 0.0497769 
-0.0279649 -4.91572e-12 0.261782 
-4.91572e-12 0.0722322 -0.0141112 
0.261782 -0.0141112 0.0379135 
-0.00854026 0.000240915 0.257449 
0.000240915 0.161579 -0.0154359 
0.257449 -0.0154359 -0.0708575 
-0.0197295 -0.0299175 0.258571 
-0.0299175 0.183143 -0.0471969 
0.258571 -0.0471969 -0.0812324 
-0.0346465 -0.0301584 0.263107 
-0.0301584 0.0933575 -0.0483883 
0.263107 -0.0483883 0.0234698 
0.125751 -3.12942e-11 0.261782 
-3.12942e-11 -0.0318108 -0.0141112 
0.261782 -0.0141112 0.120062 
0.0719571 0.000380158 0.256902 
0.000380158 0.213878 -0.0154359 
0.256902 -0.0154359 -0.0718325 
0.0416224 -0.0862773 0.258106 
-0.0862773 0.258851 -0.038315 
0.258106 -0.038315 -0.0864706 
0.107307 -0.0866575 0.263107 
-0.0866575 -0.00319299 -0.039187 
0.263107 -0.039187 0.109889 
0.0417218 -2.40721e-11 0.192767 
-2.40721e-11 0.0660713 -0.0109339 
0.192767 -0.0109339 0.106209 
0.0221455 0.000501088 0.187887 
0.000501088 0.310253 -0.0118515 
0.187887 -0.0118515 -0.118396 
-0.00860978 -0.0839597 0.188684 
-0.0839597 0.362862 -0.0347306 
0.188684 -0.0347306 -0.14025 
0.0231572 -0.0844608 0.193685 
-0.0844608 0.109135 -0.0360097 
0.193685 -0.0360097 0.0817107 
0.117424 -3.80015e-11 0.192767 
-3.80015e-11 -0.00645799 -0.0109339 
0.192767 -0.0109339 0.15023 
0.0663777 0.00076702 0.187619 
0.00076702 0.320055 -0.0118515 
0.187619 -0.0118515 -0.125236 
0.0219651 -0.114301 0.188466 
-0.114301 0.389632 -0.0180455 
0.188466 -0.0180455 -0.150401 
0.0910876 -0.115068 0.193685 
-0.115068 0.0415242 -0.0182091 
0.193685 -0.0182091 0.128584 
0.0922806 -3.68923e-11 0.104439 
-3.68923e-11 0.0329359 -0.00660986 
0.104439 -0.00660986 0.13598 
0.0258876 0.000837916 0.0992911 
0.000837916 0.358644 -0.00668791 
0.0992911 -0.00668791 -0.123335 
-0.018713 -0.113149 0.0992982 
-0.113149 0.431981 -0.0128819 
0.0992982 -0.0128819 -0.152072 
0.0658147 -0.113987 0.104517 
-0.113987 0.0879032 -0.0138851 
0.104517 -0.0138851 0.107478 
0.0761251 -3.18853e-11 0.104439 
-3.18853e-11 0.0178656 -0.00660986 
0.104439 -0.00660986 0.119442 
0.0330321 0.00105261 0.102225 
0.00105261 0.314312 -0.00668791 
0.102225 -0.00668791 -0.133912 
-0.0153385 -0.103413 0.102263 
-0.103413 0.392268 0.00852999 
0.102263 0.00852999 -0.163497 
0.0458096 -0.104466 0.104517 
-0.104466 0.0767245 0.0096872 
0.104517 0.0096872 0.0908984 
0.103104 -3.7729e-11 0.0288411 
-3.7729e-11 -0.0170932 -0.00255101 
0.0288411 -0.00255101 0.127422 
0.00901266 0.00109262 0.0266271 
0.00109262 0.280076 -0.00143542 
0.0266271 -0.00143542 -0.0756557 
-0.039511 -0.104452 0.0254715 
-0.104452 0.356021 0.0137825 
0.0254715 0.0137825 -0.103077 
0.0727626 -0.105545 0.0277255 
-0.105545 0.0363733 0.013746 
0.0277255 0.013746 0.104297 
0.0065845 -1.00413e-11 0.0288411 
-1.00413e-11 0.0589572 -0.00255101 
0.0288411 -0.00255101 0.0414714 
-0.0113208 0.000539392 0.0431867 
0.000539392 0.189189 -0.00143542 
0.0431867 -0.00143542 -0.070855 
-0.0387823 -0.0443469 0.0415253 
-0.0443469 0.250244 0.0439361 
0.0415253 0.0439361 -0.104449 
-0.0127606 -0.0448863 0.0277255 
-0.0448863 0.116698 0.0455496 
0.0277255 0.0455496 0.00307599 
0.0999466 -2.28412e-11 -3.71053e-12 
-2.28412e-11 -0.0704549 2.58438e-11 
-3.71053e-12 2.58438e-11 0.0775214 
0.0115354 0.00108511 0.0143456 
0.00108511 0.0621588 1.32928e-11 
0.0143456 1.32928e-11 0.033319 
-0.0185598 -0.0465303 0.0137999 
-0.0465303 0.110999 0.0453715 
0.0137999 0.0453715 0.0145743 
0.0807948 -0.0476154 -6.8613e-12 
-0.0476154 -0.0323709 0.0481006 
-6.8613e-12 0.0481006 0.0585891 
METADATA
COMPONENT_NAMES
XX
XY
XZ
YX
YY
YZ
ZX
ZY
ZZ

