# vtk DataFile Version 3.0
vtk output
ASCII
DATASET UNSTRUCTURED_GRID
POINTS 400 float
0	0	0	
0.1	0	0	
0.1	0.2	0	
0	0.2	0	
0	0.2	0	
0.1	0.2	0	
0.1	0.4	0	
0	0.4	0	
0	0.4	0	
0.1	0.4	0	
0.1	0.6	0	
0	0.6	0	
0	0.6	0	
0.1	0.6	0	
0.1	0.8	0	
0	0.8	0	
0	0.8	0	
0.1	0.8	0	
0.1	1	0	
0	1	0	
0	1	0	
0.1	1	0	
0.1	1.2	0	
0	1.2	0	
0	1.2	0	
0.1	1.2	0	
0.1	1.4	0	
0	1.4	0	
0	1.4	0	
0.1	1.4	0	
0.1	1.6	0	
0	1.6	0	
0	1.6	0	
0.1	1.6	0	
0.1	1.8	0	
0	1.8	0	
0	1.8	0	
0.1	1.8	0	
0.1	2	0	
0	2	0	
0.1	0	0	
0.2	0	0	
0.2	0.2	0	
0.1	0.2	0	
0.1	0.2	0	
0.2	0.2	0	
0.2	0.4	0	
0.1	0.4	0	
0.1	0.4	0	
0.2	0.4	0	
0.2	0.6	0	
0.1	0.6	0	
0.1	0.6	0	
0.2	0.6	0	
0.2	0.8	0	
0.1	0.8	0	
0.1	0.8	0	
0.2	0.8	0	
0.2	1	0	
0.1	1	0	
0.1	1	0	
0.2	1	0	
0.2	1.2	0	
0.1	1.2	0	
0.1	1.2	0	
0.2	1.2	0	
0.2	1.4	0	
0.1	1.4	0	
0.1	1.4	0	
0.2	1.4	0	
0.2	1.6	0	
0.1	1.6	0	
0.1	1.6	0	
0.2	1.6	0	
0.2	1.8	0	
0.1	1.8	0	
0.1	1.8	0	
0.2	1.8	0	
0.2	2	0	
0.1	2	0	
0.2	0	0	
0.3	0	0	
0.3	0.2	0	
0.2	0.2	0	
0.2	0.2	0	
0.3	0.2	0	
0.3	0.4	0	
0.2	0.4	0	
0.2	0.4	0	
0.3	0.4	0	
0.3	0.6	0	
0.2	0.6	0	
0.2	0.6	0	
0.3	0.6	0	
0.3	0.8	0	
0.2	0.8	0	
0.2	0.8	0	
0.3	0.8	0	
0.3	1	0	
0.2	1	0	
0.2	1	0	
0.3	1	0	
0.3	1.2	0	
0.2	1.2	0	
0.2	1.2	0	
0.3	1.2	0	
0.3	1.4	0	
0.2	1.4	0	
0.2	1.4	0	
0.3	1.4	0	
0.3	1.6	0	
0.2	1.6	0	
0.2	1.6	0	
0.3	1.6	0	
0.3	1.8	0	
0.2	1.8	0	
0.2	1.8	0	
0.3	1.8	0	
0.3	2	0	
0.2	2	0	
0.3	0	0	
0.4	0	0	
0.4	0.2	0	
0.3	0.2	0	
0.3	0.2	0	
0.4	0.2	0	
0.4	0.4	0	
0.3	0.4	0	
0.3	0.4	0	
0.4	0.4	0	
0.4	0.6	0	
0.3	0.6	0	
0.3	0.6	0	
0.4	0.6	0	
0.4	0.8	0	
0.3	0.8	0	
0.3	0.8	0	
0.4	0.8	0	
0.4	1	0	
0.3	1	0	
0.3	1	0	
0.4	1	0	
0.4	1.2	0	
0.3	1.2	0	
0.3	1.2	0	
0.4	1.2	0	
0.4	1.4	0	
0.3	1.4	0	
0.3	1.4	0	
0.4	1.4	0	
0.4	1.6	0	
0.3	1.6	0	
0.3	1.6	0	
0.4	1.6	0	
0.4	1.8	0	
0.3	1.8	0	
0.3	1.8	0	
0.4	1.8	0	
0.4	2	0	
0.3	2	0	
0.4	0	0	
0.5	0	0	
0.5	0.2	0	
0.4	0.2	0	
0.4	0.2	0	
0.5	0.2	0	
0.5	0.4	0	
0.4	0.4	0	
0.4	0.4	0	
0.5	0.4	0	
0.5	0.6	0	
0.4	0.6	0	
0.4	0.6	0	
0.5	0.6	0	
0.5	0.8	0	
0.4	0.8	0	
0.4	0.8	0	
0.5	0.8	0	
0.5	1	0	
0.4	1	0	
0.4	1	0	
0.5	1	0	
0.5	1.2	0	
0.4	1.2	0	
0.4	1.2	0	
0.5	1.2	0	
0.5	1.4	0	
0.4	1.4	0	
0.4	1.4	0	
0.5	1.4	0	
0.5	1.6	0	
0.4	1.6	0	
0.4	1.6	0	
0.5	1.6	0	
0.5	1.8	0	
0.4	1.8	0	
0.4	1.8	0	
0.5	1.8	0	
0.5	2	0	
0.4	2	0	
0.5	0	0	
0.6	0	0	
0.6	0.2	0	
0.5	0.2	0	
0.5	0.2	0	
0.6	0.2	0	
0.6	0.4	0	
0.5	0.4	0	
0.5	0.4	0	
0.6	0.4	0	
0.6	0.6	0	
0.5	0.6	0	
0.5	0.6	0	
0.6	0.6	0	
0.6	0.8	0	
0.5	0.8	0	
0.5	0.8	0	
0.6	0.8	0	
0.6	1	0	
0.5	1	0	
0.5	1	0	
0.6	1	0	
0.6	1.2	0	
0.5	1.2	0	
0.5	1.2	0	
0.6	1.2	0	
0.6	1.4	0	
0.5	1.4	0	
0.5	1.4	0	
0.6	1.4	0	
0.6	1.6	0	
0.5	1.6	0	
0.5	1.6	0	
0.6	1.6	0	
0.6	1.8	0	
0.5	1.8	0	
0.5	1.8	0	
0.6	1.8	0	
0.6	2	0	
0.5	2	0	
0.6	0	0	
0.7	0	0	
0.7	0.2	0	
0.6	0.2	0	
0.6	0.2	0	
0.7	0.2	0	
0.7	0.4	0	
0.6	0.4	0	
0.6	0.4	0	
0.7	0.4	0	
0.7	0.6	0	
0.6	0.6	0	
0.6	0.6	0	
0.7	0.6	0	
0.7	0.8	0	
0.6	0.8	0	
0.6	0.8	0	
0.7	0.8	0	
0.7	1	0	
0.6	1	0	
0.6	1	0	
0.7	1	0	
0.7	1.2	0	
0.6	1.2	0	
0.6	1.2	0	
0.7	1.2	0	
0.7	1.4	0	
0.6	1.4	0	
0.6	1.4	0	
0.7	1.4	0	
0.7	1.6	0	
0.6	1.6	0	
0.6	1.6	0	
0.7	1.6	0	
0.7	1.8	0	
0.6	1.8	0	
0.6	1.8	0	
0.7	1.8	0	
0.7	2	0	
0.6	2	0	
0.7	0	0	
0.8	0	0	
0.8	0.2	0	
0.7	0.2	0	
0.7	0.2	0	
0.8	0.2	0	
0.8	0.4	0	
0.7	0.4	0	
0.7	0.4	0	
0.8	0.4	0	
0.8	0.6	0	
0.7	0.6	0	
0.7	0.6	0	
0.8	0.6	0	
0.8	0.8	0	
0.7	0.8	0	
0.7	0.8	0	
0.8	0.8	0	
0.8	1	0	
0.7	1	0	
0.7	1	0	
0.8	1	0	
0.8	1.2	0	
0.7	1.2	0	
0.7	1.2	0	
0.8	1.2	0	
0.8	1.4	0	
0.7	1.4	0	
0.7	1.4	0	
0.8	1.4	0	
0.8	1.6	0	
0.7	1.6	0	
0.7	1.6	0	
0.8	1.6	0	
0.8	1.8	0	
0.7	1.8	0	
0.7	1.8	0	
0.8	1.8	0	
0.8	2	0	
0.7	2	0	
0.8	0	0	
0.9	0	0	
0.9	0.2	0	
0.8	0.2	0	
0.8	0.2	0	
0.9	0.2	0	
0.9	0.4	0	
0.8	0.4	0	
0.8	0.4	0	
0.9	0.4	0	
0.9	0.6	0	
0.8	0.6	0	
0.8	0.6	0	
0.9	0.6	0	
0.9	0.8	0	
0.8	0.8	0	
0.8	0.8	0	
0.9	0.8	0	
0.9	1	0	
0.8	1	0	
0.8	1	0	
0.9	1	0	
0.9	1.2	0	
0.8	1.2	0	
0.8	1.2	0	
0.9	1.2	0	
0.9	1.4	0	
0.8	1.4	0	
0.8	1.4	0	
0.9	1.4	0	
0.9	1.6	0	
0.8	1.6	0	
0.8	1.6	0	
0.9	1.6	0	
0.9	1.8	0	
0.8	1.8	0	
0.8	1.8	0	
0.9	1.8	0	
0.9	2	0	
0.8	2	0	
0.9	0	0	
1	0	0	
1	0.2	0	
0.9	0.2	0	
0.9	0.2	0	
1	0.2	0	
1	0.4	0	
0.9	0.4	0	
0.9	0.4	0	
1	0.4	0	
1	0.6	0	
0.9	0.6	0	
0.9	0.6	0	
1	0.6	0	
1	0.8	0	
0.9	0.8	0	
0.9	0.8	0	
1	0.8	0	
1	1	0	
0.9	1	0	
0.9	1	0	
1	1	0	
1	1.2	0	
0.9	1.2	0	
0.9	1.2	0	
1	1.2	0	
1	1.4	0	
0.9	1.4	0	
0.9	1.4	0	
1	1.4	0	
1	1.6	0	
0.9	1.6	0	
0.9	1.6	0	
1	1.6	0	
1	1.8	0	
0.9	1.8	0	
0.9	1.8	0	
1	1.8	0	
1	2	0	
0.9	2	0	
CELLS 100 500
4	0	1	2	3	
4	4	5	6	7	
4	8	9	10	11	
4	12	13	14	15	
4	16	17	18	19	
4	20	21	22	23	
4	24	25	26	27	
4	28	29	30	31	
4	32	33	34	35	
4	36	37	38	39	
4	40	41	42	43	
4	44	45	46	47	
4	48	49	50	51	
4	52	53	54	55	
4	56	57	58	59	
4	60	61	62	63	
4	64	65	66	67	
4	68	69	70	71	
4	72	73	74	75	
4	76	77	78	79	
4	80	81	82	83	
4	84	85	86	87	
4	88	89	90	91	
4	92	93	94	95	
4	96	97	98	99	
4	100	101	102	103	
4	104	105	106	107	
4	108	109	110	111	
4	112	113	114	115	
4	116	117	118	119	
4	120	121	122	123	
4	124	125	126	127	
4	128	129	130	131	
4	132	133	134	135	
4	136	137	138	139	
4	140	141	142	143	
4	144	145	146	147	
4	148	149	150	151	
4	152	153	154	155	
4	156	157	158	159	
4	160	161	162	163	
4	164	165	166	167	
4	168	169	170	171	
4	172	173	174	175	
4	176	177	178	179	
4	180	181	182	183	
4	184	185	186	187	
4	188	189	190	191	
4	192	193	194	195	
4	196	197	198	199	
4	200	201	202	203	
4	204	205	206	207	
4	208	209	210	211	
4	212	213	214	215	
4	216	217	218	219	
4	220	221	222	223	
4	224	225	226	227	
4	228	229	230	231	
4	232	233	234	235	
4	236	237	238	239	
4	240	241	242	243	
4	244	245	246	247	
4	248	249	250	251	
4	252	253	254	255	
4	256	257	258	259	
4	260	261	262	263	
4	264	265	266	267	
4	268	269	270	271	
4	272	273	274	275	
4	276	277	278	279	
4	280	281	282	283	
4	284	285	286	287	
4	288	289	290	291	
4	292	293	294	295	
4	296	297	298	299	
4	300	301	302	303	
4	304	305	306	307	
4	308	309	310	311	
4	312	313	314	315	
4	316	317	318	319	
4	320	321	322	323	
4	324	325	326	327	
4	328	329	330	331	
4	332	333	334	335	
4	336	337	338	339	
4	340	341	342	343	
4	344	345	346	347	
4	348	349	350	351	
4	352	353	354	355	
4	356	357	358	359	
4	360	361	362	363	
4	364	365	366	367	
4	368	369	370	371	
4	372	373	374	375	
4	376	377	378	379	
4	380	381	382	383	
4	384	385	386	387	
4	388	389	390	391	
4	392	393	394	395	
4	396	397	398	399	
CELL_TYPES 100
9
9
9
9
9
9
9
9
9
9
9
9
9
9
9
9
9
9
9
9
9
9
9
9
9
9
9
9
9
9
9
9
9
9
9
9
9
9
9
9
9
9
9
9
9
9
9
9
9
9
9
9
9
9
9
9
9
9
9
9
9
9
9
9
9
9
9
9
9
9
9
9
9
9
9
9
9
9
9
9
9
9
9
9
9
9
9
9
9
9
9
9
9
9
9
9
9
9
9
9
CELL_DATA 100
POINT_DATA 400
SCALARS Pressure float 
LOOKUP_TABLE default
-0.00141237 -0.00141237 -0.00141237 -0.00141237 -0.00191561 -0.00191561 -0.00191561 -0.00191561 -0.00438397 -0.00438397 -0.00438397 -0.00438397 -0.00973345 -0.00973345 -0.00973345 -0.00973345 -0.0175849 -0.0175849 -0.0175849 -0.0175849 -0.0202422 -0.0202422 -0.0202422 -0.0202422 0.00498821 0.00498821 0.00498821 0.00498821 0.166675 0.166675 0.166675 0.166675 0.543134 0.543134 0.543134 0.543134 4.04226 4.04226 4.04226 4.04226 -0.00152686 -0.00152686 -0.00152686 -0.00152686 -0.00195814 -0.00195814 -0.00195814 -0.00195814 -0.00383786 -0.00383786 -0.00383786 -0.00383786 -0.0072113 -0.0072113 -0.0072113 -0.0072113 -0.0100224 -0.0100224 -0.0100224 -0.0100224 -0.00292998 -0.00292998 -0.00292998 -0.00292998 0.0415078 0.0415078 0.0415078 0.0415078 0.200281 0.200281 0.200281 0.200281 0.610331 0.610331 0.610331 0.610331 1.31441 1.31441 1.31441 1.31441 -0.00136607 -0.00136607 -0.00136607 -0.00136607 -0.00164485 -0.00164485 -0.00164485 -0.00164485 -0.00290542 -0.00290542 -0.00290542 -0.00290542 -0.00474598 -0.00474598 -0.00474598 -0.00474598 -0.00469481 -0.00469481 -0.00469481 -0.00469481 0.00588126 0.00588126 0.00588126 0.00588126 0.0502473 0.0502473 0.0502473 0.0502473 0.178804 0.178804 0.178804 0.178804 0.460848 0.460848 0.460848 0.460848 0.678931 0.678931 0.678931 0.678931 -0.000939131 -0.000939131 -0.000939131 -0.000939131 -0.00108234 -0.00108234 -0.00108234 -0.00108234 -0.00178403 -0.00178403 -0.00178403 -0.00178403 -0.00261068 -0.00261068 -0.00261068 -0.00261068 -0.00165913 -0.00165913 -0.00165913 -0.00165913 0.00706052 0.00706052 0.00706052 0.00706052 0.0384944 0.0384944 0.0384944 0.0384944 0.120143 0.120143 0.120143 0.120143 0.26769 0.26769 0.26769 0.26769 0.309213 0.309213 0.309213 0.309213 -0.000333544 -0.000333544 -0.000333544 -0.000333544 -0.00037634 -0.00037634 -0.00037634 -0.00037634 -0.000598797 -0.000598797 -0.000598797 -0.000598797 -0.000822899 -0.000822899 -0.000822899 -0.000822899 -0.000342381 -0.000342381 -0.000342381 -0.000342381 0.00297322 0.00297322 0.00297322 0.00297322 0.0142194 0.0142194 0.0142194 0.0142194 0.0419439 0.0419439 0.0419439 0.0419439 0.0867564 0.0867564 0.0867564 0.0867564 0.091224 0.091224 0.091224 0.091224 0.000333483 0.000333483 0.000333483 0.000333483 0.000376279 0.000376279 0.000376279 0.000376279 0.000598736 0.000598736 0.000598736 0.000598736 0.000822838 0.000822838 0.000822838 0.000822838 0.00034232 0.00034232 0.00034232 0.00034232 -0.00297328 -0.00297328 -0.00297328 -0.00297328 -0.0142195 -0.0142195 -0.0142195 -0.0142195 -0.0419439 -0.0419439 -0.0419439 -0.0419439 -0.0867564 -0.0867564 -0.0867564 -0.0867564 -0.091224 -0.091224 -0.091224 -0.091224 0.000939069 0.000939069 0.000939069 0.000939069 0.00108228 0.00108228 0.00108228 0.00108228 0.00178397 0.00178397 0.00178397 0.00178397 0.00261062 0.00261062 0.00261062 0.00261062 0.00165907 0.00165907 0.00165907 0.00165907 -0.00706058 -0.00706058 -0.00706058 -0.00706058 -0.0384945 -0.0384945 -0.0384945 -0.0384945 -0.120144 -0.120144 -0.120144 -0.120144 -0.26769 -0.26769 -0.26769 -0.26769 -0.309213 -0.309213 -0.309213 -0.309213 0.00136601 0.00136601 0.00136601 0.00136601 0.00164479 0.00164479 0.00164479 0.00164479 0.00290536 0.00290536 0.00290536 0.00290536 0.00474592 0.00474592 0.00474592 0.00474592 0.00469475 0.00469475 0.00469475 0.00469475 -0.00588132 -0.00588132 -0.00588132 -0.00588132 -0.0502473 -0.0502473 -0.0502473 -0.0502473 -0.178804 -0.178804 -0.178804 -0.178804 -0.460848 -0.460848 -0.460848 -0.460848 -0.678931 -0.678931 -0.678931 -0.678931 0.0015268 0.0015268 0.0015268 0.0015268 0.00195808 0.00195808 0.00195808 0.00195808 0.0038378 0.0038378 0.0038378 0.0038378 0.00721124 0.00721124 0.00721124 0.00721124 0.0100223 0.0100223 0.0100223 0.0100223 0.00292992 0.00292992 0.00292992 0.00292992 -0.0415079 -0.0415079 -0.0415079 -0.0415079 -0.200281 -0.200281 -0.200281 -0.200281 -0.610331 -0.610331 -0.610331 -0.610331 -1.31441 -1.31441 -1.31441 -1.31441 0.00141231 0.00141231 0.00141231 0.00141231 0.00191555 0.00191555 0.00191555 0.00191555 0.00438391 0.00438391 0.00438391 0.00438391 0.00973338 0.00973338 0.00973338 0.00973338 0.0175849 0.0175849 0.0175849 0.0175849 0.0202421 0.0202421 0.0202421 0.0202421 -0.00498828 -0.00498828 -0.00498828 -0.00498828 -0.166676 -0.166676 -0.166676 -0.166676 -0.543134 -0.543134 -0.543134 -0.543134 -4.04226 -4.04226 -4.04226 -4.04226 
VECTORS Velocity float 
1.41836e-14 1.14819e-14 0 
8.05138e-07 1.56576e-14 0 
-1.82174e-05 3.81874e-05 0 
1.16287e-14 -2.54357e-06 0 
1.21861e-14 -2.54357e-06 0 
-1.80077e-05 3.81874e-05 0 
-1.48574e-05 0.000101377 0 
2.50357e-14 1.60549e-06 0 
2.53286e-14 1.60549e-06 0 
-1.4176e-05 0.000101377 0 
2.98694e-05 7.50055e-05 0 
6.70743e-14 9.76427e-06 0 
6.79015e-14 9.76427e-06 0 
3.20572e-05 7.50055e-05 0 
0.00019007 -0.000331142 0 
1.52137e-13 3.08198e-05 0 
1.53983e-13 3.08198e-05 0 
0.00019544 -0.000331142 0 
0.00062059 -0.00184141 0 
2.75032e-13 9.87444e-05 0 
2.75904e-13 9.87444e-05 0 
0.000629669 -0.00184141 0 
0.00159275 -0.00591799 0 
3.24573e-13 0.000112791 0 
3.34367e-13 0.000112791 0 
0.00161495 -0.00591799 0 
0.0032903 -0.0151179 0 
-8.45024e-14 0.000828135 0 
-1.28113e-13 0.000828135 0 
0.00326617 -0.0151179 0 
0.00650011 -0.0311949 0 
-2.25911e-12 -0.00245775 0 
-2.05687e-12 -0.00245775 0 
0.00660012 -0.0311949 0 
0.00398801 -0.0564702 0 
-1.01646e-11 0.0224657 0 
-5.078e-11 0.0224657 0 
-0.00517386 -0.0564702 0 
-0.168134 5.19307e-11 0 
-2.61956e-10 1.46947e-10 0 
8.05138e-07 1.75389e-14 0 
8.30325e-08 1.76105e-14 0 
-5.55812e-05 5.07509e-05 0 
-1.82174e-05 3.81275e-05 0 
-1.80077e-05 3.81275e-05 0 
-5.52942e-05 5.07509e-05 0 
-3.43758e-05 0.000113558 0 
-1.48574e-05 0.000100109 0 
-1.4176e-05 0.000100109 0 
-3.30635e-05 0.000113558 0 
0.000143778 8.4875e-06 0 
2.98694e-05 7.08886e-05 0 
3.20572e-05 7.08886e-05 0 
0.00014708 8.4875e-06 0 
0.000735633 -0.000713029 0 
0.00019007 -0.000341442 0 
0.00019544 -0.000341442 0 
0.000741805 -0.000713029 0 
0.0022687 -0.00309935 0 
0.00062059 -0.00186296 0 
0.000629669 -0.00186296 0 
0.00227596 -0.00309935 0 
0.00550664 -0.00913339 0 
0.00159275 -0.00595079 0 
0.00161495 -0.00595079 0 
0.00551072 -0.00913339 0 
0.0110806 -0.0215671 0 
0.0032903 -0.0151797 0 
0.00326617 -0.0151797 0 
0.0110214 -0.0215671 0 
0.0169513 -0.0400611 0 
0.00650011 -0.0314521 0 
0.00660012 -0.0314521 0 
0.0167665 -0.0400611 0 
0.0128001 -0.0487783 0 
0.00398801 -0.0618943 0 
-0.00517386 -0.0618943 0 
0.0109211 -0.0487783 0 
-0.157154 1.40853e-12 0 
-0.168134 -3.52566e-12 0 
8.30325e-08 1.75394e-14 0 
-5.03371e-07 1.46451e-14 0 
-9.08644e-05 4.24411e-05 0 
-5.55812e-05 5.06709e-05 0 
-5.52942e-05 5.06709e-05 0 
-9.05448e-05 4.24411e-05 0 
-3.79128e-05 8.23858e-05 0 
-3.43758e-05 0.000113588 0 
-3.30635e-05 0.000113588 0 
-3.5833e-05 8.23858e-05 0 
0.000309681 -5.73481e-05 0 
0.000143778 8.77062e-06 0 
0.00014708 8.77062e-06 0 
0.00031439 -5.73481e-05 0 
0.00141365 -0.000806595 0 
0.000735633 -0.000712196 0 
0.000741805 -0.000712196 0 
0.00142111 -0.000806595 0 
0.00417979 -0.00312625 0 
0.0022687 -0.0030973 0 
0.00227596 -0.0030973 0 
0.00418533 -0.00312625 0 
0.0098194 -0.00872566 0 
0.00550664 -0.0091213 0 
0.00551072 -0.0091213 0 
0.00980285 -0.00872566 0 
0.0186263 -0.0194064 0 
0.0110806 -0.021547 0 
0.0110214 -0.021547 0 
0.0185167 -0.0194064 0 
0.0246035 -0.0326916 0 
0.0169513 -0.0399778 0 
0.0167665 -0.0399778 0 
0.0241688 -0.0326916 0 
-0.000107585 -0.0294429 0 
0.0128001 -0.0498529 0 
0.0109211 -0.0498529 0 
-0.000746515 -0.0294429 0 
-0.158623 2.49586e-12 0 
-0.157154 7.27479e-12 0 
-5.03371e-07 1.38456e-14 0 
-7.68284e-07 8.4469e-15 0 
-0.000114685 2.30825e-05 0 
-9.08644e-05 4.26439e-05 0 
-9.05448e-05 4.26439e-05 0 
-0.000114333 2.30825e-05 0 
-3.19509e-05 3.97301e-05 0 
-3.79128e-05 8.41148e-05 0 
-3.5833e-05 8.41148e-05 0 
-2.92852e-05 3.97301e-05 0 
0.000454369 -5.85314e-05 0 
0.000309681 -5.26648e-05 0 
0.00031439 -5.26648e-05 0 
0.000460156 -5.85314e-05 0 
0.00196126 -0.000529981 0 
0.00141365 -0.000796941 0 
0.00142111 -0.000796941 0 
0.00196976 -0.000529981 0 
0.005665 -0.0019358 0 
0.00417979 -0.00311096 0 
0.00418533 -0.00311096 0 
0.00566875 -0.0019358 0 
0.0130399 -0.00522553 0 
0.0098194 -0.00871316 0 
0.00980285 -0.00871316 0 
0.013008 -0.00522553 0 
0.0238017 -0.0111829 0 
0.0186263 -0.0194472 0 
0.0185167 -0.0194472 0 
0.0236489 -0.0111829 0 
0.0283187 -0.017588 0 
0.0246035 -0.0329839 0 
0.0241688 -0.0329839 0 
0.0278973 -0.017588 0 
-0.0104878 -0.0134638 0 
-0.000107585 -0.0298898 0 
-0.000746515 -0.0298898 0 
-0.0106514 -0.0134638 0 
-0.158426 5.11758e-13 0 
-0.158623 2.56006e-12 0 
-7.68284e-07 7.32406e-15 0 
-8.36264e-07 5.94813e-16 0 
-0.000122949 -3.0226e-07 0 
-0.000114685 2.35693e-05 0 
-0.000114333 2.35693e-05 0 
-0.000122579 -3.0226e-07 0 
-2.81685e-05 -1.8007e-06 0 
-3.19509e-05 4.28203e-05 0 
-2.92852e-05 4.28203e-05 0 
-2.52868e-05 -1.8007e-06 0 
0.000511325 -4.56578e-06 0 
0.000454369 -5.05835e-05 0 
0.000460156 -5.05835e-05 0 
0.000517507 -4.56578e-06 0 
0.00216977 -8.8405e-06 0 
0.00196126 -0.000514355 0 
0.00196976 -0.000514355 0 
0.00217864 -8.8405e-06 0 
0.00622041 -1.18717e-05 0 
0.005665 -0.00191386 0 
0.00566875 -0.00191386 0 
0.00622335 -1.18717e-05 0 
0.0142183 -6.54336e-07 0 
0.0130399 -0.00522005 0 
0.013008 -0.00522005 0 
0.0141805 -6.54336e-07 0 
0.0256093 5.58624e-05 0 
0.0238017 -0.0112739 0 
0.0236489 -0.0112739 0 
0.02544 5.58624e-05 0 
0.0292833 0.00015934 0 
0.0283187 -0.0179108 0 
0.0278973 -0.0179108 0 
0.0288842 0.00015934 0 
-0.0142041 4.62292e-05 0 
-0.0104878 -0.0136239 0 
-0.0106514 -0.0136239 0 
-0.0142658 4.62292e-05 0 
-0.158398 -3.64209e-13 0 
-0.158426 1.3329e-12 0 
-8.36264e-07 -5.94198e-16 0 
-7.68284e-07 -7.32344e-15 0 
-0.000114685 -2.35693e-05 0 
-0.000122949 3.0226e-07 0 
-0.000122579 3.0226e-07 0 
-0.000114333 -2.35693e-05 0 
-3.19509e-05 -4.28203e-05 0 
-2.81685e-05 1.8007e-06 0 
-2.52868e-05 1.8007e-06 0 
-2.92852e-05 -4.28203e-05 0 
0.000454369 5.05835e-05 0 
0.000511325 4.56578e-06 0 
0.000517507 4.56578e-06 0 
0.000460156 5.05835e-05 0 
0.00196126 0.000514355 0 
0.00216977 8.8405e-06 0 
0.00217864 8.8405e-06 0 
0.00196976 0.000514355 0 
0.005665 0.00191386 0 
0.00622041 1.18717e-05 0 
0.00622335 1.18717e-05 0 
0.00566875 0.00191386 0 
0.0130399 0.00522005 0 
0.0142183 6.54336e-07 0 
0.0141805 6.54336e-07 0 
0.013008 0.00522005 0 
0.0238017 0.0112739 0 
0.0256093 -5.58624e-05 0 
0.02544 -5.58624e-05 0 
0.0236489 0.0112739 0 
0.0283187 0.0179108 0 
0.0292833 -0.00015934 0 
0.0288842 -0.00015934 0 
0.0278973 0.0179108 0 
-0.0104878 0.0136239 0 
-0.0142041 -4.62292e-05 0 
-0.0142658 -4.62292e-05 0 
-0.0106514 0.0136239 0 
-0.158426 -1.3329e-12 0 
-0.158398 3.64209e-13 0 
-7.68284e-07 -8.44628e-15 0 
-5.03371e-07 -1.3845e-14 0 
-9.08644e-05 -4.26439e-05 0 
-0.000114685 -2.30825e-05 0 
-0.000114333 -2.30825e-05 0 
-9.05448e-05 -4.26439e-05 0 
-3.79128e-05 -8.41148e-05 0 
-3.19509e-05 -3.97301e-05 0 
-2.92852e-05 -3.97301e-05 0 
-3.5833e-05 -8.41148e-05 0 
0.000309681 5.26648e-05 0 
0.000454369 5.85314e-05 0 
0.000460156 5.85314e-05 0 
0.00031439 5.26648e-05 0 
0.00141365 0.000796941 0 
0.00196126 0.000529981 0 
0.00196976 0.000529981 0 
0.00142111 0.000796941 0 
0.00417979 0.00311096 0 
0.005665 0.0019358 0 
0.00566875 0.0019358 0 
0.00418533 0.00311096 0 
0.0098194 0.00871316 0 
0.0130399 0.00522553 0 
0.013008 0.00522553 0 
0.00980285 0.00871316 0 
0.0186263 0.0194472 0 
0.0238017 0.0111829 0 
0.0236489 0.0111829 0 
0.0185167 0.0194472 0 
0.0246035 0.0329839 0 
0.0283187 0.017588 0 
0.0278973 0.017588 0 
0.0241688 0.0329839 0 
-0.000107585 0.0298898 0 
-0.0104878 0.0134638 0 
-0.0106514 0.0134638 0 
-0.000746515 0.0298898 0 
-0.158623 -2.56006e-12 0 
-0.158426 -5.11759e-13 0 
-5.03371e-07 -1.46445e-14 0 
8.30325e-08 -1.75388e-14 0 
-5.55812e-05 -5.06709e-05 0 
-9.08644e-05 -4.24411e-05 0 
-9.05448e-05 -4.24411e-05 0 
-5.52942e-05 -5.06709e-05 0 
-3.43758e-05 -0.000113588 0 
-3.79128e-05 -8.23858e-05 0 
-3.5833e-05 -8.23858e-05 0 
-3.30635e-05 -0.000113588 0 
0.000143778 -8.77062e-06 0 
0.000309681 5.73481e-05 0 
0.00031439 5.73481e-05 0 
0.00014708 -8.77062e-06 0 
0.000735633 0.000712196 0 
0.00141365 0.000806595 0 
0.00142111 0.000806595 0 
0.000741805 0.000712196 0 
0.0022687 0.0030973 0 
0.00417979 0.00312625 0 
0.00418533 0.00312625 0 
0.00227596 0.0030973 0 
0.00550664 0.0091213 0 
0.0098194 0.00872566 0 
0.00980285 0.00872566 0 
0.00551072 0.0091213 0 
0.0110806 0.021547 0 
0.0186263 0.0194064 0 
0.0185167 0.0194064 0 
0.0110214 0.021547 0 
0.0169513 0.0399778 0 
0.0246035 0.0326916 0 
0.0241688 0.0326916 0 
0.0167665 0.0399778 0 
0.0128001 0.0498529 0 
-0.000107585 0.0294429 0 
-0.000746515 0.0294429 0 
0.0109211 0.0498529 0 
-0.157154 -7.27479e-12 0 
-0.158623 -2.49586e-12 0 
8.30325e-08 -1.76099e-14 0 
8.05138e-07 -1.75383e-14 0 
-1.82174e-05 -3.81275e-05 0 
-5.55812e-05 -5.07509e-05 0 
-5.52942e-05 -5.07509e-05 0 
-1.80077e-05 -3.81275e-05 0 
-1.48574e-05 -0.000100109 0 
-3.43758e-05 -0.000113558 0 
-3.30635e-05 -0.000113558 0 
-1.4176e-05 -0.000100109 0 
2.98694e-05 -7.08886e-05 0 
0.000143778 -8.4875e-06 0 
0.00014708 -8.4875e-06 0 
3.20572e-05 -7.08886e-05 0 
0.00019007 0.000341442 0 
0.000735633 0.000713029 0 
0.000741805 0.000713029 0 
0.00019544 0.000341442 0 
0.00062059 0.00186296 0 
0.0022687 0.00309935 0 
0.00227596 0.00309935 0 
0.000629669 0.00186296 0 
0.00159275 0.00595079 0 
0.00550664 0.00913339 0 
0.00551072 0.00913339 0 
0.00161495 0.00595079 0 
0.0032903 0.0151797 0 
0.0110806 0.0215671 0 
0.0110214 0.0215671 0 
0.00326617 0.0151797 0 
0.00650011 0.0314521 0 
0.0169513 0.0400611 0 
0.0167665 0.0400611 0 
0.00660012 0.0314521 0 
0.00398801 0.0618943 0 
0.0128001 0.0487783 0 
0.0109211 0.0487783 0 
-0.00517386 0.0618943 0 
-0.168134 3.52566e-12 0 
-0.157154 -1.40853e-12 0 
8.05138e-07 -1.56569e-14 0 
1.4183e-14 -1.14813e-14 0 
1.16281e-14 2.54357e-06 0 
-1.82174e-05 -3.81874e-05 0 
-1.80077e-05 -3.81874e-05 0 
1.21855e-14 2.54357e-06 0 
2.50351e-14 -1.60549e-06 0 
-1.48574e-05 -0.000101377 0 
-1.4176e-05 -0.000101377 0 
2.53279e-14 -1.60549e-06 0 
6.70737e-14 -9.76427e-06 0 
2.98694e-05 -7.50055e-05 0 
3.20572e-05 -7.50055e-05 0 
6.79009e-14 -9.76427e-06 0 
1.52137e-13 -3.08198e-05 0 
0.00019007 0.000331142 0 
0.00019544 0.000331142 0 
1.53982e-13 -3.08198e-05 0 
2.75032e-13 -9.87444e-05 0 
0.00062059 0.00184141 0 
0.000629669 0.00184141 0 
2.75904e-13 -9.87444e-05 0 
3.24573e-13 -0.000112791 0 
0.00159275 0.00591799 0 
0.00161495 0.00591799 0 
3.34367e-13 -0.000112791 0 
-8.4503e-14 -0.000828135 0 
0.0032903 0.0151179 0 
0.00326617 0.0151179 0 
-1.28113e-13 -0.000828135 0 
-2.25911e-12 0.00245775 0 
0.00650011 0.0311949 0 
0.00660012 0.0311949 0 
-2.05688e-12 0.00245775 0 
-1.01646e-11 -0.0224657 0 
0.00398801 0.0564702 0 
-0.00517386 0.0564702 0 
-5.078e-11 -0.0224657 0 
-2.61956e-10 -1.46947e-10 0 
-0.168134 -5.19307e-11 0 
TENSORS Stress float 
0.00156725 9.93925e-14 0 
9.93925e-14 0.00125749 0 
0 0 0 
0.0015821 -0.00013717 0 
-0.00013717 0.00124264 0 
0 0 0 
0.000754288 0.000210605 0 
0.000210605 0.00207045 0 
0 0 0 
0.00202383 0.000550958 0 
0.000550958 0.00080091 0 
0 0 0 
0.00258524 0.000550958 0 
0.000550958 0.00124598 0 
0 0 0 
0.00127925 0.000177923 0 
0.000177923 0.00255197 0 
0 0 0 
0.00141462 0.000613584 0 
0.000613584 0.0024166 0 
0 0 0 
0.00262414 0.00149908 0 
0.00149908 0.00120708 0 
0 0 0 
0.00511389 0.00149908 0 
0.00149908 0.00365406 0 
0 0 0 
0.00387472 0.000522631 0 
0.000522631 0.00489322 0 
0 0 0 
0.0056396 0.000184689 0 
0.000184689 0.00312834 0 
0 0 0 
0.00367477 0.0015343 0 
0.0015343 0.00509318 0 
0 0 0 
0.0089761 0.0015343 0 
0.0015343 0.0104908 0 
0 0 0 
0.010911 0.000165053 0 
0.000165053 0.00855592 0 
0 0 0 
0.0171291 -0.00312315 0 
-0.00312315 0.00233779 0 
0 0 0 
0.00386144 -0.00293048 0 
-0.00293048 0.0156055 0 
0 0 0 
0.0113598 -0.00293048 0 
-0.00293048 0.02381 0 
0 0 0 
0.0246687 -0.00287136 0 
-0.00287136 0.0105011 0 
0 0 0 
0.0413931 -0.0143385 0 
-0.0143385 -0.00622325 0 
0 0 0 
-0.00411504 -0.0216505 0 
-0.0216505 0.0392849 0 
0 0 0 
-0.00250857 -0.0216505 0 
-0.0216505 0.042993 0 
0 0 0 
0.043142 -0.0128383 0 
-0.0128383 -0.00265755 0 
0 0 0 
0.0797202 -0.0432771 0 
-0.0432771 -0.0392358 0 
0 0 0 
-0.0304453 -0.0720219 0 
-0.0720219 0.0709297 0 
0 0 0 
-0.0595002 -0.0720219 0 
-0.0720219 0.0495238 0 
0 0 0 
0.0525988 -0.0409887 0 
-0.0409887 -0.0625752 0 
0 0 0 
0.118378 -0.101909 0 
-0.101909 -0.128355 0 
0 0 0 
-0.157457 -0.207864 0 
-0.207864 0.14748 0 
0 0 0 
-0.323232 -0.207864 0 
-0.207864 -0.0101187 0 
0 0 0 
-0.0488663 -0.084305 0 
-0.084305 -0.284485 0 
0 0 0 
0.0215138 -0.185956 0 
-0.185956 -0.354865 0 
0 0 0 
-0.213624 -0.3832 0 
-0.3832 -0.119727 0 
0 0 0 
-0.664267 -0.3832 0 
-0.3832 -0.422 0 
0 0 0 
-0.400156 -0.196371 0 
-0.196371 -0.686111 0 
0 0 0 
-0.576156 -0.0571618 0 
-0.0571618 -0.510112 0 
0 0 0 
-2.39178 -1.54285 0 
-1.54285 1.30551 0 
0 0 0 
-6.93789 -1.54285 0 
-1.54285 -1.14664 0 
0 0 0 
-4.49226 1.30555 0 
1.30555 -3.59227 0 
0 0 0 
2.41315 -2.97102 0 
-2.97102 -10.4977 0 
0 0 0 
-13.612 -7.4708e-09 0 
-7.4708e-09 5.52749 0 
0 0 0 
0.00152333 -0.00013717 0 
-0.00013717 0.00153039 0 
0 0 0 
0.00165797 -0.000446009 0 
-0.000446009 0.00139575 0 
0 0 0 
0.000763902 -0.000105724 0 
-0.000105724 0.00228982 0 
0 0 0 
0.00087072 0.000194505 0 
0.000194505 0.002183 0 
0 0 0 
0.00131069 0.000161823 0 
0.000161823 0.00260559 0 
0 0 0 
0.00120493 -0.000127759 0 
-0.000127759 0.00271135 0 
0 0 0 
0.00173163 0.000147275 0 
0.000147275 0.00218465 0 
0 0 0 
0.00143438 0.00058079 0 
0.00058079 0.0024819 0 
0 0 0 
0.00341819 0.000489837 0 
0.000489837 0.00425754 0 
0 0 0 
0.00365438 7.84963e-05 0 
7.84963e-05 0.00402134 0 
0 0 0 
0.00687234 0.000546058 0 
0.000546058 0.000803384 0 
0 0 0 
0.00531499 0.000115431 0 
0.000115431 0.00236074 0 
0 0 0 
0.00896665 9.57956e-05 0 
9.57956e-05 0.00545596 0 
0 0 0 
0.010266 0.000447873 0 
0.000447873 0.00415664 0 
0 0 0 
0.0204738 0.00146667 0 
0.00146667 -0.00605118 0 
0 0 0 
0.0155169 -0.00322445 0 
-0.00322445 -0.0010943 0 
0 0 0 
0.0189047 -0.00297266 0 
-0.00297266 0.00114006 0 
0 0 0 
0.0230693 0.00135515 0 
0.00135515 -0.00302453 0 
0 0 0 
0.0485042 0.00337884 0 
0.00337884 -0.0284594 0 
0 0 0 
0.0366818 -0.0144003 0 
-0.0144003 -0.0166371 0 
0 0 0 
0.0305916 -0.0129001 0 
-0.0129001 -0.0247316 0 
0 0 0 
0.0404958 0.00351552 0 
0.00351552 -0.0346358 0 
0 0 0 
0.0929788 0.00576344 0 
0.00576344 -0.0871188 0 
0 0 0 
0.0679559 -0.0428211 0 
-0.0428211 -0.062096 0 
0 0 0 
0.0238552 -0.0405326 0 
-0.0405326 -0.106871 0 
0 0 0 
0.0455886 0.00597138 0 
0.00597138 -0.128604 0 
0 0 0 
0.122064 0.0155715 0 
0.0155715 -0.20508 0 
0 0 0 
0.103955 -0.0999582 0 
-0.0999582 -0.18697 0 
0 0 0 
-0.0543175 -0.082354 0 
-0.082354 -0.346244 0 
0 0 0 
-0.0420652 0.0210672 0 
0.0210672 -0.358496 0 
0 0 0 
0.00408954 0.0260304 0 
0.0260304 -0.404651 0 
0 0 0 
0.0200851 -0.173034 0 
-0.173034 -0.420647 0 
0 0 0 
-0.393328 -0.183449 0 
-0.183449 -0.827334 0 
0 0 0 
-0.442034 0.0288779 0 
0.0288779 -0.778628 0 
0 0 0 
-1.02312 0.26167 0 
0.26167 -0.197544 0 
0 0 0 
0.179619 -0.0827442 0 
-0.0827442 -1.40028 0 
0 0 0 
0.653672 1.27996 0 
1.27996 -3.28249 0 
0 0 0 
-1.52954 0.355285 0 
0.355285 -1.09928 0 
0 0 0 
-1.54444 -1.71226 0 
-1.71226 -1.08438 0 
0 0 0 
-0.826821 -2.97102 0 
-2.97102 -1.802 0 
0 0 0 
0.00148617 -0.000446009 0 
-0.000446009 0.00124596 0 
0 0 0 
0.00142246 -0.000798936 0 
-0.000798936 0.00130967 0 
0 0 0 
0.000806459 -0.000263564 0 
-0.000263564 0.00192568 0 
0 0 0 
0.000600088 -0.000116342 0 
-0.000116342 0.00213205 0 
0 0 0 
0.00087582 -0.000138376 0 
-0.000138376 0.00241388 0 
0 0 0 
0.00110096 -0.000336278 0 
-0.000336278 0.00218873 0 
0 0 0 
0.00171724 0.000260544 0 
0.000260544 0.00157246 0 
0 0 0 
0.00140139 0.000160961 0 
0.000160961 0.0018883 0 
0 0 0 
0.00263809 9.21815e-05 0 
9.21815e-05 0.00317276 0 
0 0 0 
0.00317954 0.000141586 0 
0.000141586 0.00263131 0 
0 0 0 
0.00624305 0.00240277 0 
0.00240277 -0.000432203 0 
0 0 0 
0.00595789 0.000640588 0 
0.000640588 -0.000147044 0 
0 0 0 
0.00766976 0.000542403 0 
0.000542403 0.00182221 0 
0 0 0 
0.00856176 0.00221758 0 
0.00221758 0.000930205 0 
0 0 0 
0.0177799 0.00910793 0 
0.00910793 -0.00828789 0 
0 0 0 
0.0180304 0.00179981 0 
0.00179981 -0.0085384 0 
0 0 0 
0.0175709 0.00168829 0 
0.00168829 -0.00818123 0 
0 0 0 
0.0185412 0.00892047 0 
0.00892047 -0.00915162 0 
0 0 0 
0.0406585 0.0255393 0 
0.0255393 -0.0312689 0 
0 0 0 
0.0432139 0.00424083 0 
0.00424083 -0.0338243 0 
0 0 0 
0.0316939 0.00437751 0 
0.00437751 -0.0434564 0 
0 0 0 
0.0309018 0.0257086 0 
0.0257086 -0.0426643 0 
0 0 0 
0.0735317 0.0580093 0 
0.0580093 -0.0852943 0 
0 0 0 
0.083108 0.00788575 0 
0.00788575 -0.0948706 0 
0 0 0 
0.0357575 0.00809369 0 
0.00809369 -0.136252 0 
0 0 0 
0.0281564 0.0597804 0 
0.0597804 -0.128651 0 
0 0 0 
0.0806313 0.108478 0 
0.108478 -0.181126 0 
0 0 0 
0.114897 0.0183046 0 
0.0183046 -0.215391 0 
0 0 0 
-0.016393 0.0238003 0 
0.0238003 -0.341216 0 
0 0 0 
-0.0564935 0.11583 0 
0.11583 -0.301115 0 
0 0 0 
-0.0777389 0.137774 0 
0.137774 -0.27987 0 
0 0 0 
0.0162021 0.0312969 0 
0.0312969 -0.373811 0 
0 0 0 
-0.285024 0.0341444 0 
0.0341444 -0.636672 0 
0 0 0 
-0.389609 0.168613 0 
0.168613 -0.532087 0 
0 0 0 
-0.668488 -0.0863955 0 
-0.0863955 -0.253207 0 
0 0 0 
-0.712091 0.155135 0 
0.155135 -0.209604 0 
0 0 0 
-0.637139 0.248751 0 
0.248751 -0.720723 0 
0 0 0 
-0.914075 -0.120909 0 
-0.120909 -0.443787 0 
0 0 0 
-0.5746 -1.2669 0 
-1.2669 -0.783262 0 
0 0 0 
-0.497644 -1.71226 0 
-1.71226 -0.860218 0 
0 0 0 
0.00109911 -0.000798936 0 
-0.000798936 0.000779152 0 
0 0 0 
0.000917264 -0.00105698 0 
-0.00105698 0.000960998 0 
0 0 0 
0.000694844 -0.0003122 0 
-0.0003122 0.00118342 0 
0 0 0 
0.000284431 -0.000265893 0 
-0.000265893 0.00159383 0 
0 0 0 
0.000401427 -0.000338607 0 
-0.000338607 0.00176326 0 
0 0 0 
0.000876285 -0.000423738 0 
-0.000423738 0.0012884 0 
0 0 0 
0.00122531 0.000552921 0 
0.000552921 0.00093938 0 
0 0 0 
0.0011324 0.00028064 0 
0.00028064 0.00103229 0 
0 0 0 
0.0016347 0.000161682 0 
0.000161682 0.00193336 0 
0 0 0 
0.00226307 0.000390765 0 
0.000390765 0.00130499 0 
0 0 0 
0.00388098 0.00424439 0 
0.00424439 -0.000312913 0 
0 0 0 
0.00524126 0.00248981 0 
0.00248981 -0.00167319 0 
0 0 0 
0.00549204 0.00230463 0 
0.00230463 -0.00027068 0 
0 0 0 
0.00554835 0.00399588 0 
0.00399588 -0.000326994 0 
0 0 0 
0.010357 0.0155537 0 
0.0155537 -0.00513561 0 
0 0 0 
0.0160924 0.00937123 0 
0.00937123 -0.010871 0 
0 0 0 
0.0138621 0.00918377 0 
0.00918377 -0.0105438 0 
0 0 0 
0.0109842 0.0153289 0 
0.0153289 -0.00766591 0 
0 0 0 
0.0224188 0.0426964 0 
0.0426964 -0.0191005 0 
0 0 0 
0.0387707 0.0261727 0 
0.0261727 -0.0354525 0 
0 0 0 
0.0278104 0.026342 0 
0.026342 -0.0419314 0 
0 0 0 
0.0156952 0.0430801 0 
0.0430801 -0.0298162 0 
0 0 0 
0.0371534 0.0946735 0 
0.0946735 -0.0512745 0 
0 0 0 
0.074927 0.0592128 0 
0.0592128 -0.0890481 0 
0 0 0 
0.0407389 0.0609839 0 
0.0609839 -0.117728 0 
0 0 0 
0.00537586 0.097693 0 
0.097693 -0.0823647 0 
0 0 0 
0.0301371 0.16308 0 
0.16308 -0.107126 0 
0 0 0 
0.0978768 0.109452 0 
0.109452 -0.174866 0 
0 0 0 
0.0190317 0.116804 0 
0.116804 -0.259319 0 
0 0 0 
-0.0632334 0.17289 0 
0.17289 -0.177053 0 
0 0 0 
-0.0804733 0.157984 0 
0.157984 -0.159814 0 
0 0 0 
-0.00486758 0.133089 0 
0.133089 -0.235419 0 
0 0 0 
-0.117942 0.163928 0 
0.163928 -0.417438 0 
0 0 0 
-0.261104 0.177371 0 
0.177371 -0.274276 0 
0 0 0 
-0.359091 -0.237361 0 
-0.237361 -0.176289 0 
0 0 0 
-0.592689 -0.0941162 0 
-0.0941162 0.0573089 0 
0 0 0 
-0.519529 -0.12863 0 
-0.12863 -0.0988971 0 
0 0 0 
-0.416555 -0.290875 0 
-0.290875 -0.201872 0 
0 0 0 
-0.334331 -1.0416 0 
-1.0416 -0.284095 0 
0 0 0 
-0.158017 -1.2669 0 
-1.2669 -0.460409 0 
0 0 0 
0.000472319 -0.00105698 0 
-0.00105698 0.00019477 0 
0 0 0 
0.00024604 -0.00114969 0 
-0.00114969 0.000421048 0 
0 0 0 
0.000424139 -0.000318987 0 
-0.000318987 0.000242949 0 
0 0 0 
-7.05454e-05 -0.000312075 0 
-0.000312075 0.000737634 0 
0 0 0 
-7.392e-05 -0.000423613 0 
-0.000423613 0.0008266 0 
0 0 0 
0.000518801 -0.000443975 0 
-0.000443975 0.000233879 0 
0 0 0 
0.000387245 0.000698856 0 
0.000698856 0.000365435 0 
0 0 0 
0.000496096 0.000566811 0 
0.000566811 0.000256584 0 
0 0 0 
0.000379207 0.000404654 0 
0.000404654 0.000818387 0 
0 0 0 
0.000999572 0.000520658 0 
0.000520658 0.000198022 0 
0 0 0 
0.00047077 0.00500933 0 
0.00500933 0.000726824 0 
0 0 0 
0.00291183 0.00429595 0 
0.00429595 -0.00171424 0 
0 0 0 
0.0022362 0.00404744 0 
0.00404744 -0.000590403 0 
0 0 0 
0.0016911 0.0047387 0 
0.0047387 -4.53026e-05 0 
0 0 0 
0.00034289 0.0180793 0 
0.0180793 0.00130291 0 
0 0 0 
0.00938544 0.0156989 0 
0.0156989 -0.00773964 0 
0 0 0 
0.0070721 0.0154741 0 
0.0154741 -0.00638734 0 
0 0 0 
0.00179987 0.017845 0 
0.017845 -0.00111511 0 
0 0 0 
-0.000958345 0.0491746 0 
0.0491746 0.00164311 0 
0 0 0 
0.0232946 0.0430266 0 
0.0430266 -0.0226098 0 
0 0 0 
0.0172083 0.0434102 0 
0.0434102 -0.0231548 0 
0 0 0 
-0.00163261 0.0496627 0 
0.0496627 -0.00431383 0 
0 0 0 
-0.00582326 0.107811 0 
0.107811 -0.000123185 0 
0 0 0 
0.0461381 0.0952057 0 
0.0952057 -0.0520845 0 
0 0 0 
0.0333829 0.0982251 0 
0.0982251 -0.0618218 0 
0 0 0 
-0.0167567 0.111307 0 
0.111307 -0.0116822 0 
0 0 0 
-0.0177419 0.18048 0 
0.18048 -0.0106969 0 
0 0 0 
0.0612238 0.163197 0 
0.163197 -0.0896627 0 
0 0 0 
0.042479 0.173007 0 
0.173007 -0.126367 0 
0 0 0 
-0.0578437 0.191276 0 
0.191276 -0.026044 0 
0 0 0 
-0.0343356 0.154566 0 
0.154566 -0.0495521 0 
0 0 0 
-0.00772837 0.154279 0 
0.154279 -0.0761594 0 
0 0 0 
-0.00878115 0.173667 0 
0.173667 -0.164732 0 
0 0 0 
-0.118802 0.168171 0 
0.168171 -0.0547104 0 
0 0 0 
-0.0373202 -0.283057 0 
-0.283057 -0.136193 0 
0 0 0 
-0.286865 -0.238709 0 
-0.238709 0.113352 0 
0 0 0 
-0.25161 -0.292223 0 
-0.292223 0.069162 0 
0 0 0 
-0.059812 -0.334702 0 
-0.334702 -0.122636 0 
0 0 0 
-0.146855 -0.977141 0 
-0.977141 -0.0355926 0 
0 0 0 
0.00316883 -1.0416 0 
-1.0416 -0.185617 0 
0 0 0 
-0.000245978 -0.00114969 0 
-0.00114969 -0.000420987 0 
0 0 0 
-0.000472257 -0.00105698 0 
-0.00105698 -0.000194708 0 
0 0 0 
7.06069e-05 -0.000312075 0 
-0.000312075 -0.000737572 0 
0 0 0 
-0.000424078 -0.000318987 0 
-0.000318987 -0.000242888 0 
0 0 0 
-0.00051874 -0.000443975 0 
-0.000443975 -0.000233817 0 
0 0 0 
7.39815e-05 -0.000423613 0 
-0.000423613 -0.000826539 0 
0 0 0 
-0.000496034 0.000566811 0 
0.000566811 -0.000256523 0 
0 0 0 
-0.000387183 0.000698856 0 
0.000698856 -0.000365374 0 
0 0 0 
-0.00099951 0.000520658 0 
0.000520658 -0.000197961 0 
0 0 0 
-0.000379146 0.000404654 0 
0.000404654 -0.000818325 0 
0 0 0 
-0.00291177 0.00429595 0 
0.00429595 0.0017143 0 
0 0 0 
-0.000470708 0.00500933 0 
0.00500933 -0.000726763 0 
0 0 0 
-0.00169104 0.0047387 0 
0.0047387 4.53641e-05 0 
0 0 0 
-0.00223614 0.00404744 0 
0.00404744 0.000590465 0 
0 0 0 
-0.00938537 0.0156989 0 
0.0156989 0.0077397 0 
0 0 0 
-0.000342829 0.0180793 0 
0.0180793 -0.00130285 0 
0 0 0 
-0.00179981 0.017845 0 
0.017845 0.00111517 0 
0 0 0 
-0.00707204 0.0154741 0 
0.0154741 0.0063874 0 
0 0 0 
-0.0232945 0.0430266 0 
0.0430266 0.0226099 0 
0 0 0 
0.000958407 0.0491746 0 
0.0491746 -0.00164305 0 
0 0 0 
0.00163268 0.0496627 0 
0.0496627 0.00431389 0 
0 0 0 
-0.0172083 0.0434102 0 
0.0434102 0.0231548 0 
0 0 0 
-0.046138 0.0952057 0 
0.0952057 0.0520846 0 
0 0 0 
0.00582332 0.107811 0 
0.107811 0.000123247 0 
0 0 0 
0.0167567 0.111307 0 
0.111307 0.0116822 0 
0 0 0 
-0.0333829 0.0982251 0 
0.0982251 0.0618218 0 
0 0 0 
-0.0612238 0.163197 0 
0.163197 0.0896627 0 
0 0 0 
0.017742 0.18048 0 
0.18048 0.010697 0 
0 0 0 
0.0578438 0.191276 0 
0.191276 0.0260441 0 
0 0 0 
-0.042479 0.173007 0 
0.173007 0.126367 0 
0 0 0 
0.00772843 0.154279 0 
0.154279 0.0761594 0 
0 0 0 
0.0343357 0.154566 0 
0.154566 0.0495522 0 
0 0 0 
0.118802 0.168171 0 
0.168171 0.0547104 0 
0 0 0 
0.00878121 0.173667 0 
0.173667 0.164732 0 
0 0 0 
0.286865 -0.238709 0 
-0.238709 -0.113352 0 
0 0 0 
0.0373202 -0.283057 0 
-0.283057 0.136193 0 
0 0 0 
0.0598121 -0.334702 0 
-0.334702 0.122636 0 
0 0 0 
0.25161 -0.292223 0 
-0.292223 -0.0691619 0 
0 0 0 
-0.00316877 -1.0416 0 
-1.0416 0.185617 0 
0 0 0 
0.146855 -0.977141 0 
-0.977141 0.0355927 0 
0 0 0 
-0.000917202 -0.00105698 0 
-0.00105698 -0.000960936 0 
0 0 0 
-0.00109905 -0.000798936 0 
-0.000798936 -0.000779091 0 
0 0 0 
-0.000284369 -0.000265893 0 
-0.000265893 -0.00159377 0 
0 0 0 
-0.000694783 -0.0003122 0 
-0.0003122 -0.00118336 0 
0 0 0 
-0.000876223 -0.000423738 0 
-0.000423738 -0.00128834 0 
0 0 0 
-0.000401366 -0.000338607 0 
-0.000338607 -0.0017632 0 
0 0 0 
-0.00113233 0.00028064 0 
0.00028064 -0.00103223 0 
0 0 0 
-0.00122525 0.000552921 0 
0.000552921 -0.000939319 0 
0 0 0 
-0.00226301 0.000390765 0 
0.000390765 -0.00130493 0 
0 0 0 
-0.00163464 0.000161682 0 
0.000161682 -0.0019333 0 
0 0 0 
-0.00524119 0.00248981 0 
0.00248981 0.00167325 0 
0 0 0 
-0.00388092 0.00424439 0 
0.00424439 0.000312975 0 
0 0 0 
-0.00554829 0.00399588 0 
0.00399588 0.000327056 0 
0 0 0 
-0.00549198 0.00230463 0 
0.00230463 0.000270741 0 
0 0 0 
-0.0160923 0.00937123 0 
0.00937123 0.0108711 0 
0 0 0 
-0.0103569 0.0155537 0 
0.0155537 0.00513567 0 
0 0 0 
-0.0109841 0.0153289 0 
0.0153289 0.00766597 0 
0 0 0 
-0.013862 0.00918377 0 
0.00918377 0.0105439 0 
0 0 0 
-0.0387707 0.0261727 0 
0.0261727 0.0354525 0 
0 0 0 
-0.0224187 0.0426964 0 
0.0426964 0.0191006 0 
0 0 0 
-0.0156951 0.0430801 0 
0.0430801 0.0298163 0 
0 0 0 
-0.0278103 0.026342 0 
0.026342 0.0419315 0 
0 0 0 
-0.074927 0.0592128 0 
0.0592128 0.0890481 0 
0 0 0 
-0.0371534 0.0946735 0 
0.0946735 0.0512745 0 
0 0 0 
-0.0053758 0.097693 0 
0.097693 0.0823648 0 
0 0 0 
-0.0407388 0.0609839 0 
0.0609839 0.117728 0 
0 0 0 
-0.0978768 0.109452 0 
0.109452 0.174866 0 
0 0 0 
-0.0301371 0.16308 0 
0.16308 0.107126 0 
0 0 0 
0.0632335 0.17289 0 
0.17289 0.177054 0 
0 0 0 
-0.0190316 0.116804 0 
0.116804 0.259319 0 
0 0 0 
0.00486764 0.133089 0 
0.133089 0.235419 0 
0 0 0 
0.0804733 0.157984 0 
0.157984 0.159814 0 
0 0 0 
0.261104 0.177371 0 
0.177371 0.274276 0 
0 0 0 
0.117942 0.163928 0 
0.163928 0.417438 0 
0 0 0 
0.592689 -0.0941162 0 
-0.0941162 -0.0573088 0 
0 0 0 
0.359091 -0.237361 0 
-0.237361 0.176289 0 
0 0 0 
0.416555 -0.290875 0 
-0.290875 0.201872 0 
0 0 0 
0.51953 -0.12863 0 
-0.12863 0.0988971 0 
0 0 0 
0.158017 -1.2669 0 
-1.2669 0.460409 0 
0 0 0 
0.334331 -1.0416 0 
-1.0416 0.284095 0 
0 0 0 
-0.0014224 -0.000798936 0 
-0.000798936 -0.00130961 0 
0 0 0 
-0.00148611 -0.000446009 0 
-0.000446009 -0.0012459 0 
0 0 0 
-0.000600027 -0.000116342 0 
-0.000116342 -0.00213198 0 
0 0 0 
-0.000806398 -0.000263564 0 
-0.000263564 -0.00192561 0 
0 0 0 
-0.0011009 -0.000336278 0 
-0.000336278 -0.00218867 0 
0 0 0 
-0.000875759 -0.000138376 0 
-0.000138376 -0.00241382 0 
0 0 0 
-0.00140133 0.000160961 0 
0.000160961 -0.00188824 0 
0 0 0 
-0.00171718 0.000260544 0 
0.000260544 -0.00157239 0 
0 0 0 
-0.00317947 0.000141586 0 
0.000141586 -0.00263125 0 
0 0 0 
-0.00263803 9.21815e-05 0 
9.21815e-05 -0.0031727 0 
0 0 0 
-0.00595783 0.000640588 0 
0.000640588 0.000147105 0 
0 0 0 
-0.00624299 0.00240277 0 
0.00240277 0.000432264 0 
0 0 0 
-0.0085617 0.00221758 0 
0.00221758 -0.000930144 0 
0 0 0 
-0.00766969 0.000542403 0 
0.000542403 -0.00182215 0 
0 0 0 
-0.0180303 0.00179981 0 
0.00179981 0.00853846 0 
0 0 0 
-0.0177798 0.00910793 0 
0.00910793 0.00828795 0 
0 0 0 
-0.0185412 0.00892047 0 
0.00892047 0.00915168 0 
0 0 0 
-0.0175708 0.00168829 0 
0.00168829 0.00818129 0 
0 0 0 
-0.0432138 0.00424083 0 
0.00424083 0.0338243 0 
0 0 0 
-0.0406584 0.0255393 0 
0.0255393 0.0312689 0 
0 0 0 
-0.0309017 0.0257086 0 
0.0257086 0.0426644 0 
0 0 0 
-0.0316938 0.00437751 0 
0.00437751 0.0434565 0 
0 0 0 
-0.083108 0.00788575 0 
0.00788575 0.0948706 0 
0 0 0 
-0.0735317 0.0580093 0 
0.0580093 0.0852943 0 
0 0 0 
-0.0281563 0.0597804 0 
0.0597804 0.128651 0 
0 0 0 
-0.0357575 0.00809369 0 
0.00809369 0.136252 0 
0 0 0 
-0.114897 0.0183046 0 
0.0183046 0.215391 0 
0 0 0 
-0.0806312 0.108478 0 
0.108478 0.181126 0 
0 0 0 
0.0564935 0.11583 0 
0.11583 0.301115 0 
0 0 0 
0.016393 0.0238003 0 
0.0238003 0.341216 0 
0 0 0 
-0.016202 0.0312969 0 
0.0312969 0.373811 0 
0 0 0 
0.077739 0.137774 0 
0.137774 0.27987 0 
0 0 0 
0.389609 0.168613 0 
0.168613 0.532087 0 
0 0 0 
0.285024 0.0341444 0 
0.0341444 0.636672 0 
0 0 0 
0.712091 0.155135 0 
0.155135 0.209604 0 
0 0 0 
0.668488 -0.0863955 0 
-0.0863955 0.253207 0 
0 0 0 
0.914075 -0.120909 0 
-0.120909 0.443787 0 
0 0 0 
0.637139 0.248751 0 
0.248751 0.720723 0 
0 0 0 
0.497644 -1.71226 0 
-1.71226 0.860218 0 
0 0 0 
0.5746 -1.2669 0 
-1.2669 0.783262 0 
0 0 0 
-0.00165791 -0.000446009 0 
-0.000446009 -0.00139569 0 
0 0 0 
-0.00152327 -0.00013717 0 
-0.00013717 -0.00153033 0 
0 0 0 
-0.000870658 0.000194505 0 
0.000194505 -0.00218294 0 
0 0 0 
-0.000763841 -0.000105724 0 
-0.000105724 -0.00228976 0 
0 0 0 
-0.00120487 -0.000127759 0 
-0.000127759 -0.00271129 0 
0 0 0 
-0.00131062 0.000161823 0 
0.000161823 -0.00260553 0 
0 0 0 
-0.00143432 0.00058079 0 
0.00058079 -0.00248184 0 
0 0 0 
-0.00173157 0.000147275 0 
0.000147275 -0.00218459 0 
0 0 0 
-0.00365432 7.84963e-05 0 
7.84963e-05 -0.00402128 0 
0 0 0 
-0.00341813 0.000489837 0 
0.000489837 -0.00425748 0 
0 0 0 
-0.00531493 0.000115431 0 
0.000115431 -0.00236067 0 
0 0 0 
-0.00687228 0.000546058 0 
0.000546058 -0.000803322 0 
0 0 0 
-0.0102659 0.000447873 0 
0.000447873 -0.00415658 0 
0 0 0 
-0.00896658 9.57956e-05 0 
9.57956e-05 -0.0054559 0 
0 0 0 
-0.0155168 -0.00322445 0 
-0.00322445 0.00109436 0 
0 0 0 
-0.0204737 0.00146667 0 
0.00146667 0.00605124 0 
0 0 0 
-0.0230692 0.00135515 0 
0.00135515 0.0030246 0 
0 0 0 
-0.0189046 -0.00297266 0 
-0.00297266 -0.00114 0 
0 0 0 
-0.0366818 -0.0144003 0 
-0.0144003 0.0166371 0 
0 0 0 
-0.0485041 0.00337884 0 
0.00337884 0.0284595 0 
0 0 0 
-0.0404957 0.00351552 0 
0.00351552 0.0346359 0 
0 0 0 
-0.0305915 -0.0129001 0 
-0.0129001 0.0247317 0 
0 0 0 
-0.0679559 -0.0428211 0 
-0.0428211 0.062096 0 
0 0 0 
-0.0929787 0.00576344 0 
0.00576344 0.0871189 0 
0 0 0 
-0.0455886 0.00597138 0 
0.00597138 0.128604 0 
0 0 0 
-0.0238551 -0.0405326 0 
-0.0405326 0.106871 0 
0 0 0 
-0.103955 -0.0999582 0 
-0.0999582 0.18697 0 
0 0 0 
-0.122064 0.0155715 0 
0.0155715 0.20508 0 
0 0 0 
0.0420653 0.0210672 0 
0.0210672 0.358496 0 
0 0 0 
0.0543175 -0.082354 0 
-0.082354 0.346244 0 
0 0 0 
-0.0200851 -0.173034 0 
-0.173034 0.420647 0 
0 0 0 
-0.00408948 0.0260304 0 
0.0260304 0.404651 0 
0 0 0 
0.442034 0.0288779 0 
0.0288779 0.778628 0 
0 0 0 
0.393328 -0.183449 0 
-0.183449 0.827334 0 
0 0 0 
-0.179619 -0.0827442 0 
-0.0827442 1.40028 0 
0 0 0 
1.02312 0.26167 0 
0.26167 0.197544 0 
0 0 0 
1.52954 0.355285 0 
0.355285 1.09928 0 
0 0 0 
-0.653672 1.27996 0 
1.27996 3.28249 0 
0 0 0 
0.826821 -2.97102 0 
-2.97102 1.802 0 
0 0 0 
1.54444 -1.71226 0 
-1.71226 1.08438 0 
0 0 0 
-0.00158203 -0.00013717 0 
-0.00013717 -0.00124258 0 
0 0 0 
-0.00156719 9.93925e-14 0 
9.93925e-14 -0.00125743 0 
0 0 0 
-0.00202377 0.000550958 0 
0.000550958 -0.000800848 0 
0 0 0 
-0.000754226 0.000210605 0 
0.000210605 -0.00207039 0 
0 0 0 
-0.00127919 0.000177923 0 
0.000177923 -0.00255191 0 
0 0 0 
-0.00258518 0.000550958 0 
0.000550958 -0.00124592 0 
0 0 0 
-0.00262408 0.00149908 0 
0.00149908 -0.00120702 0 
0 0 0 
-0.00141456 0.000613584 0 
0.000613584 -0.00241654 0 
0 0 0 
-0.00387466 0.000522631 0 
0.000522631 -0.00489316 0 
0 0 0 
-0.00511382 0.00149908 0 
0.00149908 -0.003654 0 
0 0 0 
-0.00367471 0.0015343 0 
0.0015343 -0.00509312 0 
0 0 0 
-0.00563954 0.000184689 0 
0.000184689 -0.00312828 0 
0 0 0 
-0.0109109 0.000165053 0 
0.000165053 -0.00855585 0 
0 0 0 
-0.00897604 0.0015343 0 
0.0015343 -0.0104907 0 
0 0 0 
-0.00386138 -0.00293048 0 
-0.00293048 -0.0156054 0 
0 0 0 
-0.017129 -0.00312315 0 
-0.00312315 -0.00233773 0 
0 0 0 
-0.0246687 -0.00287136 0 
-0.00287136 -0.0105011 0 
0 0 0 
-0.0113598 -0.00293048 0 
-0.00293048 -0.02381 0 
0 0 0 
0.0041151 -0.0216505 0 
-0.0216505 -0.0392848 0 
0 0 0 
-0.0413931 -0.0143385 0 
-0.0143385 0.00622332 0 
0 0 0 
-0.0431419 -0.0128383 0 
-0.0128383 0.00265761 0 
0 0 0 
0.00250863 -0.0216505 0 
-0.0216505 -0.0429929 0 
0 0 0 
0.0304453 -0.0720219 0 
-0.0720219 -0.0709296 0 
0 0 0 
-0.0797202 -0.0432771 0 
-0.0432771 0.0392359 0 
0 0 0 
-0.0525987 -0.0409887 0 
-0.0409887 0.0625753 0 
0 0 0 
0.0595002 -0.0720219 0 
-0.0720219 -0.0495237 0 
0 0 0 
0.157457 -0.207864 0 
-0.207864 -0.14748 0 
0 0 0 
-0.118378 -0.101909 0 
-0.101909 0.128355 0 
0 0 0 
0.0488664 -0.084305 0 
-0.084305 0.284485 0 
0 0 0 
0.323232 -0.207864 0 
-0.207864 0.0101187 0 
0 0 0 
0.213624 -0.3832 0 
-0.3832 0.119727 0 
0 0 0 
-0.0215137 -0.185956 0 
-0.185956 0.354865 0 
0 0 0 
0.400156 -0.196371 0 
-0.196371 0.686111 0 
0 0 0 
0.664268 -0.3832 0 
-0.3832 0.422 0 
0 0 0 
2.39178 -1.54285 0 
-1.54285 -1.30551 0 
0 0 0 
0.576156 -0.0571618 0 
-0.0571618 0.510112 0 
0 0 0 
4.49226 1.30555 0 
1.30555 3.59227 0 
0 0 0 
6.93789 -1.54285 0 
-1.54285 1.14664 0 
0 0 0 
13.612 -7.4708e-09 0 
-7.4708e-09 -5.52749 0 
0 0 0 
-2.41315 -2.97102 0 
-2.97102 10.4977 0 
0 0 0 
METADATA
COMPONENT_NAMES
XX
XY
XZ
YX
YY
YZ
ZX
ZY
ZZ

