# vtk DataFile Version 3.0
vtk output
ASCII
DATASET UNSTRUCTURED_GRID
POINTS 23836 float
0.110881	-0.0319284	0.263307	
0.185118	-0.0448541	0.130581	
0.0785366	-0.11627	0.176642	
0.0395065	-0.000100258	0.126114	
0.135296	0.0693292	0.185912	
0.185118	-0.0448541	0.130581	
0.110881	-0.0319284	0.263307	
0.0395065	-0.000100258	0.126114	
-0.120748	-0.291511	0.335128	
-0.138366	-0.358353	0.236796	
-0.0825799	-0.384765	0.390495	
-0.162242	-0.337279	0.406019	
0.193272	-0.26142	0.329316	
0.186731	-0.150807	0.387359	
0.314006	-0.186162	0.367048	
0.268239	-0.118327	0.326702	
-0.142648	-0.00714059	0	
-0.202717	-0.0800005	0.134359	
-0.165601	0.0438592	0.172089	
-0.259075	0.0657144	0.105374	
-0.345553	0.109975	0.5	
-0.38814	0.0365087	0.390101	
-0.332155	0.186259	0.378016	
-0.268272	0.128138	0.411267	
0.314006	-0.186162	0.367048	
0.186731	-0.150807	0.387359	
0.271058	-0.153206	0.5	
0.249091	-0.0823301	0.40832	
-0.0565919	-0.339726	0.150695	
0.0248177	-0.313374	0	
0.00964811	-0.213747	0.128268	
0.0206176	-0.395667	0.103453	
0.0651412	0.200096	0	
0.0985518	0.185902	0.12959	
-0.0606721	0.230593	0.106057	
0.0431438	0.101726	0.0953265	
0.0952672	-0.342147	0.15717	
0.00964811	-0.213747	0.128268	
0.0248177	-0.313374	0	
0.0206176	-0.395667	0.103453	
0.0519196	-0.186143	0.5	
0.0848044	-0.241311	0.380971	
0.0135874	-0.118011	0.409404	
0.110665	-0.131179	0.419604	
0.247057	0.434698	0.250499	
0.132803	0.332442	0.177	
0.234881	0.32259	0.246366	
0.14467	0.301705	0.287535	
0.0807477	0.493437	0.154224	
0.0594116	0.385605	0.105978	
0.0693948	0.36903	0.285155	
-0.0333766	0.391369	0.240112	
-0.0833333	0.3	0.5	
-0.123171	0.237068	0.386906	
-0.144981	0.358558	0.378678	
-0.0163515	0.266982	0.412579	
0.0535407	0.120642	0.5	
0.0999373	0.153076	0.5	
0.108346	0.0977259	0.5	
0.086989	0.179344	0.400327	
0.184962	0.0799289	0	
0.251686	0.10803	0.129438	
0.155737	0.108922	0.093738	
0.126165	0.019123	0.0935695	
0.0519196	-0.186143	0.5	
0.0848044	-0.241311	0.380971	
-0.0254015	-0.238675	0.394183	
0.0135874	-0.118011	0.409404	
0.163607	-0.084363	0.326696	
0.268239	-0.118327	0.326702	
0.186731	-0.150807	0.387359	
0.134803	-0.19156	0.335814	
-0.5	0	0.2	
-0.493378	0.0811073	0.146993	
-0.360873	0.0158982	0.275217	
-0.377341	0.0879068	0.111753	
0.220621	-0.0913842	0.253691	
0.163607	-0.084363	0.326696	
0.142415	-0.180509	0.253145	
0.268239	-0.118327	0.326702	
-0.3	0.0833333	0.5	
-0.259187	0.0363748	0.408672	
-0.38814	0.0365087	0.390101	
-0.268272	0.128138	0.411267	
0.0230591	-0.35567	0.355674	
0.0848044	-0.241311	0.380971	
0.0203259	-0.249482	0.251542	
-0.0254015	-0.238675	0.394183	
0.271058	-0.153206	0.5	
0.186731	-0.150807	0.387359	
0.314006	-0.186162	0.367048	
0.249979	-0.247703	0.407586	
-0.0112682	-5.37735e-05	0.248563	
0.0395065	-0.000100258	0.126114	
0.110881	-0.0319284	0.263307	
-0.0286268	-0.0663675	0.186281	
-0.142648	-0.00714059	0	
-0.165601	0.0438592	0.172089	
-0.202717	-0.0800005	0.134359	
-0.0801458	-0.0255891	0.118207	
0.0203259	-0.249482	0.251542	
-0.120748	-0.291511	0.335128	
-0.0254015	-0.238675	0.394183	
-0.0547597	-0.189651	0.263151	
-0.3	0.0833333	0.5	
-0.38814	0.0365087	0.390101	
-0.259187	0.0363748	0.408672	
-0.32522	-0.00468432	0.424344	
0.210156	-0.0147965	0	
0.251686	0.10803	0.129438	
0.185118	-0.0448541	0.130581	
0.285128	-0.0586701	0.102886	
-0.2234	-0.212186	0.369318	
-0.338135	-0.204677	0.398089	
-0.234283	-0.304583	0.2878	
-0.250192	-0.304018	0.405469	
-0.329023	-0.172142	0.292634	
-0.234283	-0.304583	0.2878	
-0.2234	-0.212186	0.369318	
-0.338135	-0.204677	0.398089	
-0.386792	-0.316847	0.301384	
-0.234283	-0.304583	0.2878	
-0.338135	-0.204677	0.398089	
-0.250192	-0.304018	0.405469	
0.142415	-0.180509	0.253145	
0.268239	-0.118327	0.326702	
0.163607	-0.084363	0.326696	
0.134803	-0.19156	0.335814	
0.332733	-0.27561	0.5	
0.295465	-0.212132	0.5	
0.314006	-0.186162	0.367048	
0.249979	-0.247703	0.407586	
-0.0411735	0.316432	0.326214	
-0.0333766	0.391369	0.240112	
-0.144981	0.358558	0.378678	
-0.0106277	0.407378	0.33212	
-0.399482	0.123001	0.5	
-0.332155	0.186259	0.378016	
-0.345553	0.109975	0.5	
-0.38814	0.0365087	0.390101	
0.185118	-0.0448541	0.130581	
0.251686	0.10803	0.129438	
0.210156	-0.0147965	0	
0.126165	0.019123	0.0935695	
-0.220621	-0.0913842	0.273465	
-0.360873	0.0158982	0.275217	
-0.323059	-0.0556697	0.363619	
-0.259249	-0.00709893	0.335751	
-0.277785	-0.415735	0.134138	
-0.193999	-0.271016	0.175767	
-0.257824	-0.4284	0.204976	
-0.16153	-0.357052	0.106281	
-0.171353	-0.469721	0.338334	
-0.138366	-0.358353	0.236796	
-0.234283	-0.304583	0.2878	
-0.162242	-0.337279	0.406019	
0.110881	-0.0319284	0.263307	
0.0395065	-0.000100258	0.126114	
0.0785366	-0.11627	0.176642	
-0.0286268	-0.0663675	0.186281	
0.112799	-0.33356	0	
0.116361	-0.190469	0.100844	
0.0952672	-0.342147	0.15717	
0.219334	-0.328412	0.103652	
0.268117	-0.201453	0.257301	
0.361187	-0.127724	0.273645	
0.314006	-0.186162	0.367048	
0.283545	-0.259908	0.324527	
-0.0411735	0.316432	0.326214	
-0.144119	0.318458	0.266738	
-0.144981	0.358558	0.378678	
-0.0333766	0.391369	0.240112	
0.0807477	0.493437	0.154224	
0.132803	0.332442	0.177	
0.0693948	0.36903	0.285155	
0.0594116	0.385605	0.105978	
1.83697e-17	0.216667	0.5	
-0.0201888	0.188065	0.366	
0.086989	0.179344	0.400327	
0.016747	0.116372	0.415368	
-0.278713	-0.14304	0	
-0.302044	-0.0506462	0	
-0.304937	-0.166182	0.150677	
-0.202717	-0.0800005	0.134359	
-0.386792	-0.316847	0.301384	
-0.234283	-0.304583	0.2878	
-0.329023	-0.172142	0.292634	
-0.338135	-0.204677	0.398089	
0.321456	-0.142755	0.153578	
0.268117	-0.201453	0.257301	
0.428104	-0.258315	0.196896	
0.361187	-0.127724	0.273645	
-0.257824	-0.4284	0.204976	
-0.277785	-0.415735	0.134138	
-0.331632	-0.374193	0.165357	
-0.193999	-0.271016	0.175767	
-0.120748	-0.291511	0.335128	
0.0203259	-0.249482	0.251542	
-0.0254015	-0.238675	0.394183	
-0.0570812	-0.3559	0.302161	
-0.18203	-0.0488646	0.5	
-0.0882569	-0.0365572	0.407331	
-0.122616	-0.0499791	0.5	
-0.134018	-0.125076	0.416643	
-0.085688	-0.137167	0.16869	
-0.146435	-0.19403	0.261638	
-0.0948276	-0.0943246	0.25421	
-0.136956	-0.0443284	0.188767	
-0.161163	0.309136	0.149427	
-0.1493	0.167608	0.126676	
-0.154067	0.200523	0.255267	
-0.265452	0.263294	0.235043	
-0.117671	-0.10197	0	
-0.085688	-0.137167	0.16869	
-0.202717	-0.0800005	0.134359	
-0.206213	-0.186333	0.106781	
-0.117671	-0.10197	0	
-0.202717	-0.0800005	0.134359	
-0.085688	-0.137167	0.16869	
-0.0801458	-0.0255891	0.118207	
0.135296	0.0693292	0.185912	
0.185118	-0.0448541	0.130581	
0.0395065	-0.000100258	0.126114	
0.126165	0.019123	0.0935695	
0.332733	-0.27561	0.5	
0.314006	-0.186162	0.367048	
0.388345	-0.314941	0.420199	
0.249979	-0.247703	0.407586	
-0.0814439	-0.125985	0.343547	
-0.0254015	-0.238675	0.394183	
-0.117884	-0.234333	0.40948	
-0.0547597	-0.189651	0.263151	
0.0651412	0.200096	0	
-0.0606721	0.230593	0.106057	
0.0985518	0.185902	0.12959	
0.0738057	0.28359	0.108069	
-0.332155	0.186259	0.378016	
-0.38814	0.0365087	0.390101	
-0.268448	0.0761744	0.322026	
-0.268272	0.128138	0.411267	
0.271058	-0.153206	0.5	
0.249439	-0.196279	0.5	
0.186731	-0.150807	0.387359	
0.249979	-0.247703	0.407586	
0.334293	-0.161532	0.5	
0.271058	-0.153206	0.5	
0.249091	-0.0823301	0.40832	
0.377058	-0.167276	0.424233	
0.321349	-0.0500942	0.355813	
0.249091	-0.0823301	0.40832	
0.314006	-0.186162	0.367048	
0.392836	-0.0823347	0.412468	
-0.295688	0.153857	0.172875	
-0.154067	0.200523	0.255267	
-0.1493	0.167608	0.126676	
-0.265452	0.263294	0.235043	
-0.152663	-6.75805e-05	0.5	
-0.122616	-0.0499791	0.5	
-0.18203	-0.0488646	0.5	
-0.0882569	-0.0365572	0.407331	
0.200132	-0.232269	0.163427	
0.193272	-0.26142	0.329316	
0.142415	-0.180509	0.253145	
0.104343	-0.277575	0.292493	
0.268117	-0.201453	0.257301	
0.268239	-0.118327	0.326702	
0.142415	-0.180509	0.253145	
0.134803	-0.19156	0.335814	
-0.323059	-0.0556697	0.363619	
-0.360873	0.0158982	0.275217	
-0.220621	-0.0913842	0.273465	
-0.372506	-0.102825	0.21502	
-0.234283	-0.304583	0.2878	
-0.138366	-0.358353	0.236796	
-0.120748	-0.291511	0.335128	
-0.162242	-0.337279	0.406019	
-0.0814439	-0.125985	0.343547	
-0.117884	-0.234333	0.40948	
-0.146435	-0.19403	0.261638	
-0.0547597	-0.189651	0.263151	
-0.220621	-0.0913842	0.273465	
-0.304937	-0.166182	0.150677	
-0.325718	-0.0135225	0.164468	
-0.202717	-0.0800005	0.134359	
0.334293	-0.161532	0.5	
0.249091	-0.0823301	0.40832	
0.345553	-0.109975	0.5	
0.377058	-0.167276	0.424233	
0.135438	-0.346064	0.384448	
0.153466	-0.356896	0.263852	
0.193272	-0.26142	0.329316	
0.23026	-0.337515	0.419392	
-0.490316	0.0979281	0.24092	
-0.360873	0.0158982	0.275217	
-0.493378	0.0811073	0.146993	
-0.377341	0.0879068	0.111753	
0.314006	-0.186162	0.367048	
0.186731	-0.150807	0.387359	
0.193272	-0.26142	0.329316	
0.249979	-0.247703	0.407586	
0.239078	0.233865	0.176769	
0.268482	0.1106	0.289732	
0.308855	0.242117	0.27439	
0.190566	0.216647	0.261668	
0.0230591	-0.35567	0.355674	
-0.0254015	-0.238675	0.394183	
0.0203259	-0.249482	0.251542	
-0.0570812	-0.3559	0.302161	
-0.249722	-0.227302	0.5	
-0.271058	-0.153206	0.5	
-0.224672	-0.181859	0.5	
-0.194749	-0.171788	0.429088	
-0.389036	0.207425	0	
-0.436811	0.243302	0.0936268	
-0.328307	0.16356	0	
-0.265951	0.256468	0.111233	
-0.304937	-0.166182	0.150677	
-0.202717	-0.0800005	0.134359	
-0.302044	-0.0506462	0	
-0.382808	-0.0894032	0.103515	
-0.332155	0.186259	0.378016	
-0.38814	0.0365087	0.390101	
-0.476132	0.152637	0.402329	
-0.358997	0.136564	0.272723	
1.83697e-17	0.216667	0.5	
0.086989	0.179344	0.400327	
-0.0201888	0.188065	0.366	
-0.0163515	0.266982	0.412579	
0.321349	-0.0500942	0.355813	
0.249091	-0.0823301	0.40832	
0.3	-0.0833333	0.5	
0.353873	0.0061299	0.416416	
0.0248177	-0.313374	0	
-0.0638367	-0.295761	0	
-0.0565919	-0.339726	0.150695	
0.00964811	-0.213747	0.128268	
-0.5	0	0.2	
-0.360873	0.0158982	0.275217	
-0.325718	-0.0135225	0.164468	
-0.377341	0.0879068	0.111753	
-0.085688	-0.137167	0.16869	
-0.237359	-0.176563	0.223722	
-0.146435	-0.19403	0.261638	
-0.136956	-0.0443284	0.188767	
0.193272	-0.26142	0.329316	
0.268239	-0.118327	0.326702	
0.314006	-0.186162	0.367048	
0.283545	-0.259908	0.324527	
-0.328307	0.16356	0	
-0.436811	0.243302	0.0936268	
-0.295688	0.153857	0.172875	
-0.265951	0.256468	0.111233	
0.321456	-0.142755	0.153578	
0.332005	0.00713037	0.169463	
0.300325	-0.0288408	0.258872	
0.40447	-0.0146922	0.243912	
-0.220621	-0.0913842	0.273465	
-0.0948276	-0.0943246	0.25421	
-0.146435	-0.19403	0.261638	
-0.136956	-0.0443284	0.188767	
-0.220621	-0.0913842	0.273465	
-0.229671	-0.108874	0.396367	
-0.2234	-0.212186	0.369318	
-0.171189	-0.143954	0.334682	
-0.302044	-0.0506462	0	
-0.278713	-0.14304	0	
-0.304937	-0.166182	0.150677	
-0.382808	-0.0894032	0.103515	
0.00964811	-0.213747	0.128268	
-0.00154855	-0.114907	0.260366	
0.0785366	-0.11627	0.176642	
-0.0286268	-0.0663675	0.186281	
-0.345553	0.109975	0.5	
-0.3	0.0833333	0.5	
-0.358926	0.0589256	0.5	
-0.38814	0.0365087	0.390101	
0.429476	-0.256028	0.291579	
0.314006	-0.186162	0.367048	
0.361187	-0.127724	0.273645	
0.283545	-0.259908	0.324527	
0.334293	-0.161532	0.5	
0.271058	-0.153206	0.5	
0.345553	-0.109975	0.5	
0.249091	-0.0823301	0.40832	
-0.193999	-0.271016	0.175767	
-0.16153	-0.357052	0.106281	
-0.277785	-0.415735	0.134138	
-0.28242	-0.274225	0.101342	
-0.0565919	-0.339726	0.150695	
0.00964811	-0.213747	0.128268	
0.0952672	-0.342147	0.15717	
0.0206176	-0.395667	0.103453	
-0.0243888	0.144613	0.165538	
-0.0606721	0.230593	0.106057	
0.0985518	0.185902	0.12959	
0.0431438	0.101726	0.0953265	
0.332733	-0.27561	0.5	
0.314006	-0.186162	0.367048	
0.295465	-0.212132	0.5	
0.377058	-0.167276	0.424233	
-0.171353	-0.469721	0.338334	
-0.0825799	-0.384765	0.390495	
-0.138366	-0.358353	0.236796	
-0.162242	-0.337279	0.406019	
-0.360873	0.0158982	0.275217	
-0.358997	0.136564	0.272723	
-0.295688	0.153857	0.172875	
-0.377341	0.0879068	0.111753	
-0.202855	-0.234529	0.5	
-0.117884	-0.234333	0.40948	
-0.2234	-0.212186	0.369318	
-0.194749	-0.171788	0.429088	
-0.235698	0.440961	0.0686036	
-0.161163	0.309136	0.149427	
-0.201912	0.369986	0	
-0.0728697	0.385983	0.102817	
0.136079	0.0773073	0.413876	
0.196702	0.0791686	0.326444	
0.259229	0.131014	0.416169	
0.179502	0.0181689	0.432699	
0.0693948	0.36903	0.285155	
0.0594116	0.385605	0.105978	
-0.00982413	0.311992	0.161153	
-0.0333766	0.391369	0.240112	
-0.00154855	-0.114907	0.260366	
-0.0547597	-0.189651	0.263151	
0.00964811	-0.213747	0.128268	
0.0592568	-0.173932	0.272176	
-0.106066	0.256066	0.5	
-0.123171	0.237068	0.386906	
-0.0833333	0.3	0.5	
-0.0612159	0.20738	0.430983	
0.256554	-0.429162	0.331268	
0.193272	-0.26142	0.329316	
0.153466	-0.356896	0.263852	
0.23026	-0.337515	0.419392	
-0.16873	0.47067	0.201799	
-0.144119	0.318458	0.266738	
-0.161163	0.309136	0.149427	
-0.0333766	0.391369	0.240112	
-0.0112682	-5.37735e-05	0.248563	
0.0661482	0.0500773	0.26338	
0.110881	-0.0319284	0.263307	
0.0170253	0.0610303	0.18852	
1.83697e-17	0.216667	0.5	
0.086989	0.179344	0.400327	
0.0557946	0.181673	0.5	
0.016747	0.116372	0.415368	
0.478516	-0.14499	0.0762896	
0.380207	-0.19708	0	
0.321456	-0.142755	0.153578	
0.389447	-0.0664451	0.106973	
-0.142648	-0.00714059	0	
-0.237047	0.0201392	0	
-0.202717	-0.0800005	0.134359	
-0.259075	0.0657144	0.105374	
0.317206	0.386498	0.299678	
0.291987	0.28448	0.40616	
0.221133	0.265326	0.342623	
0.308855	0.242117	0.27439	
0.239078	0.233865	0.176769	
0.268482	0.1106	0.289732	
0.190566	0.216647	0.261668	
0.189688	0.149534	0.191539	
-0.3	0.0833333	0.5	
-0.358926	0.0589256	0.5	
-0.38814	0.0365087	0.390101	
-0.32522	-0.00468432	0.424344	
0.199592	-0.181859	0.5	
0.212132	-0.128799	0.5	
0.249439	-0.196279	0.5	
0.186731	-0.150807	0.387359	
-0.490316	0.0979281	0.24092	
-0.5	0	0.2	
-0.493378	0.0811073	0.146993	
-0.360873	0.0158982	0.275217	
0.314006	-0.186162	0.367048	
0.249091	-0.0823301	0.40832	
0.271058	-0.153206	0.5	
0.377058	-0.167276	0.424233	
0.377032	-0.3284	0.243217	
0.268117	-0.201453	0.257301	
0.428104	-0.258315	0.196896	
0.302277	-0.248662	0.113737	
0.185118	-0.0448541	0.130581	
0.251686	0.10803	0.129438	
0.135296	0.0693292	0.185912	
0.244062	-0.0339696	0.193164	
0.0373069	0.315853	0.5	
0.0589256	0.241074	0.5	
0.0092772	0.277603	0.5	
-0.0163515	0.266982	0.412579	
0.168734	0.470668	0.201781	
0.0693948	0.36903	0.285155	
0.132803	0.332442	0.177	
0.14467	0.301705	0.287535	
0.251686	0.10803	0.129438	
0.276673	0.0689246	0.208494	
0.135296	0.0693292	0.185912	
0.244062	-0.0339696	0.193164	
0.321456	-0.142755	0.153578	
0.300325	-0.0288408	0.258872	
0.361187	-0.127724	0.273645	
0.40447	-0.0146922	0.243912	
0.0952672	-0.342147	0.15717	
0.116361	-0.190469	0.100844	
0.00964811	-0.213747	0.128268	
0.0986966	-0.244124	0.186079	
-0.202855	-0.234529	0.5	
-0.153206	-0.271058	0.5	
-0.250192	-0.304018	0.405469	
-0.117884	-0.234333	0.40948	
-0.144981	0.358558	0.378678	
-0.0333766	0.391369	0.240112	
-0.174738	0.468473	0.317184	
-0.0106277	0.407378	0.33212	
-0.1493	0.167608	0.126676	
-0.265452	0.263294	0.235043	
-0.161163	0.309136	0.149427	
-0.265951	0.256468	0.111233	
-0.295688	0.153857	0.172875	
-0.360873	0.0158982	0.275217	
-0.325718	-0.0135225	0.164468	
-0.246812	0.00918153	0.237581	
-0.220621	-0.0913842	0.273465	
-0.246812	0.00918153	0.237581	
-0.360873	0.0158982	0.275217	
-0.259249	-0.00709893	0.335751	
-0.120748	-0.291511	0.335128	
-0.0825799	-0.384765	0.390495	
-0.138366	-0.358353	0.236796	
-0.0570812	-0.3559	0.302161	
0.428104	-0.258315	0.196896	
0.268117	-0.201453	0.257301	
0.429476	-0.256028	0.291579	
0.361187	-0.127724	0.273645	
-0.331632	-0.374193	0.165357	
-0.193999	-0.271016	0.175767	
-0.277785	-0.415735	0.134138	
-0.28242	-0.274225	0.101342	
0.184962	0.0799289	0	
0.210156	-0.0147965	0	
0.251686	0.10803	0.129438	
0.126165	0.019123	0.0935695	
-0.345553	0.109975	0.5	
-0.3	0.0833333	0.5	
-0.38814	0.0365087	0.390101	
-0.268272	0.128138	0.411267	
0.435719	7.07799e-17	0.5	
0.431857	0.0465403	0.5	
0.5	0	0.4	
0.353873	0.0061299	0.416416	
0.199592	-0.181859	0.5	
0.186731	-0.150807	0.387359	
0.249439	-0.196279	0.5	
0.249979	-0.247703	0.407586	
0.0651412	0.200096	0	
-0.0606721	0.230593	0.106057	
-0.00425413	0.131001	0	
0.0431438	0.101726	0.0953265	
1.83697e-17	0.216667	0.5	
0.0557946	0.181673	0.5	
0.00279483	0.150684	0.5	
0.016747	0.116372	0.415368	
-0.295688	0.153857	0.172875	
-0.358997	0.136564	0.272723	
-0.360873	0.0158982	0.275217	
-0.246812	0.00918153	0.237581	
-0.0411735	0.316432	0.326214	
-0.144981	0.358558	0.378678	
-0.123171	0.237068	0.386906	
-0.0163515	0.266982	0.412579	
0.0819669	-0.126701	0.339809	
0.142415	-0.180509	0.253145	
0.110881	-0.0319284	0.263307	
0.163607	-0.084363	0.326696	
0.330273	-0.0125395	0.5	
0.358926	-0.0589256	0.5	
0.28483	-0.03759	0.5	
0.353873	0.0061299	0.416416	
-0.0833333	0.3	0.5	
-0.123171	0.237068	0.386906	
-0.106066	0.256066	0.5	
-0.181622	0.273954	0.42594	
0.377032	-0.3284	0.243217	
0.25314	-0.310833	0.250522	
0.268117	-0.201453	0.257301	
0.302277	-0.248662	0.113737	
-5.51091e-17	-0.216667	0.5	
-6.75805e-05	-0.152663	0.5	
0.0135874	-0.118011	0.409404	
-0.0581449	-0.152487	0.425037	
-0.0112682	-5.37735e-05	0.248563	
0.110881	-0.0319284	0.263307	
-0.00154855	-0.114907	0.260366	
-0.0286268	-0.0663675	0.186281	
0.185118	-0.0448541	0.130581	
0.285128	-0.0586701	0.102886	
0.251686	0.10803	0.129438	
0.244062	-0.0339696	0.193164	
-0.174738	0.468473	0.317184	
-0.144981	0.358558	0.378678	
-0.144119	0.318458	0.266738	
-0.0333766	0.391369	0.240112	
-0.16873	0.47067	0.201799	
-0.161163	0.309136	0.149427	
-0.0728697	0.385983	0.102817	
-0.0333766	0.391369	0.240112	
-0.00982413	0.311992	0.161153	
0.0693948	0.36903	0.285155	
0.132803	0.332442	0.177	
0.0594116	0.385605	0.105978	
0.276476	0.0535537	0	
0.332005	0.00713037	0.169463	
0.251686	0.10803	0.129438	
0.285128	-0.0586701	0.102886	
0.0785366	-0.11627	0.176642	
-0.00154855	-0.114907	0.260366	
0.00964811	-0.213747	0.128268	
0.0592568	-0.173932	0.272176	
-0.328307	0.16356	0	
-0.295688	0.153857	0.172875	
-0.436811	0.243302	0.0936268	
-0.377341	0.0879068	0.111753	
-0.247023	0.434718	0.250558	
-0.161163	0.309136	0.149427	
-0.144119	0.318458	0.266738	
-0.232102	0.339116	0.303176	
0.0535407	0.120642	0.5	
0.016747	0.116372	0.415368	
0.108346	0.0977259	0.5	
0.0614383	0.0441646	0.419518	
-0.317319	0.386405	0.201487	
-0.265452	0.263294	0.235043	
-0.161163	0.309136	0.149427	
-0.232102	0.339116	0.303176	
-0.258165	-0.428195	0.298245	
-0.171353	-0.469721	0.338334	
-0.234283	-0.304583	0.2878	
-0.162242	-0.337279	0.406019	
0.450312	-0.217299	0.354112	
0.361187	-0.127724	0.273645	
0.314006	-0.186162	0.367048	
0.377058	-0.167276	0.424233	
-0.085688	-0.137167	0.16869	
-0.00154855	-0.114907	0.260366	
0.00964811	-0.213747	0.128268	
-0.0286268	-0.0663675	0.186281	
-0.0833333	0.3	0.5	
-0.0163515	0.266982	0.412579	
-0.144981	0.358558	0.378678	
-0.063352	0.397195	0.411842	
-0.325718	-0.0135225	0.164468	
-0.360873	0.0158982	0.275217	
-0.295688	0.153857	0.172875	
-0.377341	0.0879068	0.111753	
0.28483	-0.03759	0.5	
0.3	-0.0833333	0.5	
0.249091	-0.0823301	0.40832	
0.353873	0.0061299	0.416416	
0.380516	0.0520569	0.316102	
0.353873	0.0061299	0.416416	
0.495101	0.0698189	0.427621	
0.352401	0.10935	0.404506	
-0.490316	0.0979281	0.24092	
-0.358997	0.136564	0.272723	
-0.360873	0.0158982	0.275217	
-0.377341	0.0879068	0.111753	
0.332733	-0.27561	0.5	
0.388345	-0.314941	0.420199	
0.314006	-0.186162	0.367048	
0.377058	-0.167276	0.424233	
0.0519196	-0.186143	0.5	
-0.0254015	-0.238675	0.394183	
-5.51091e-17	-0.216667	0.5	
0.0135874	-0.118011	0.409404	
-0.295688	0.153857	0.172875	
-0.265452	0.263294	0.235043	
-0.1493	0.167608	0.126676	
-0.265951	0.256468	0.111233	
0.0519196	-0.186143	0.5	
-5.51091e-17	-0.216667	0.5	
-6.75805e-05	-0.152663	0.5	
0.0135874	-0.118011	0.409404	
-0.152663	-6.75805e-05	0.5	
-0.0882569	-0.0365572	0.407331	
-0.18468	-0.0140346	0.375736	
-0.130814	0.0354375	0.417572	
-0.0977967	-0.490343	0.258774	
-0.0833019	-0.493012	0.155211	
-0.0565919	-0.339726	0.150695	
0.0153009	-0.365787	0.239317	
0.0785366	-0.11627	0.176642	
-0.00154855	-0.114907	0.260366	
0.110881	-0.0319284	0.263307	
-0.0286268	-0.0663675	0.186281	
-0.428104	0.258315	0.196896	
-0.265452	0.263294	0.235043	
-0.295688	0.153857	0.172875	
-0.265951	0.256468	0.111233	
0.106066	-0.256066	0.5	
0.0833333	-0.3	0.5	
0.0848044	-0.241311	0.380971	
0.163614	-0.249053	0.416633	
-0.325718	-0.0135225	0.164468	
-0.304937	-0.166182	0.150677	
-0.220621	-0.0913842	0.273465	
-0.372506	-0.102825	0.21502	
-0.128799	0.212132	0.5	
-0.123171	0.237068	0.386906	
-0.153206	0.153206	0.5	
-0.212186	0.200864	0.421006	
0.276476	0.0535537	0	
0.251686	0.10803	0.129438	
0.332005	0.00713037	0.169463	
0.362932	0.098224	0.109262	
-0.212132	0.128799	0.5	
-0.241074	0.0589256	0.5	
-0.256066	0.106066	0.5	
-0.268272	0.128138	0.411267	
0.136079	0.0773073	0.413876	
0.259229	0.131014	0.416169	
0.184661	0.0531453	0.5	
0.179502	0.0181689	0.432699	
0.0970926	0.279271	0.373778	
0.086989	0.179344	0.400327	
0.0589256	0.241074	0.5	
-0.0163515	0.266982	0.412579	
-5.51091e-17	-0.216667	0.5	
0.0519196	-0.186143	0.5	
0.0589256	-0.241074	0.5	
-0.0254015	-0.238675	0.394183	
0.490316	-0.0979281	0.24092	
0.389447	-0.0664451	0.106973	
0.361187	-0.127724	0.273645	
0.40447	-0.0146922	0.243912	
0.0785366	-0.11627	0.176642	
0.0395065	-0.000100258	0.126114	
0.185118	-0.0448541	0.130581	
0.0983144	-0.0718988	0.0894985	
-0.304937	-0.166182	0.150677	
-0.202717	-0.0800005	0.134359	
-0.220621	-0.0913842	0.273465	
-0.237359	-0.176563	0.223722	
0.142415	-0.180509	0.253145	
0.268117	-0.201453	0.257301	
0.220621	-0.0913842	0.253691	
0.268239	-0.118327	0.326702	
-0.220621	-0.0913842	0.273465	
-0.146435	-0.19403	0.261638	
-0.237359	-0.176563	0.223722	
-0.136956	-0.0443284	0.188767	
-0.117671	-0.10197	0	
-0.0801458	-0.0255891	0.118207	
-0.085688	-0.137167	0.16869	
-0.00334623	-0.10275	0.104947	
-0.165601	0.0438592	0.172089	
-0.0801458	-0.0255891	0.118207	
-0.142648	-0.00714059	0	
-0.0884785	0.081082	0.106964	
-0.428104	0.258315	0.196896	
-0.358997	0.136564	0.272723	
-0.265452	0.263294	0.235043	
-0.316792	0.255444	0.314661	
0.112799	-0.33356	0	
0.0952672	-0.342147	0.15717	
0.125573	-0.41396	0	
0.219334	-0.328412	0.103652	
0.0819669	-0.126701	0.339809	
0.0135874	-0.118011	0.409404	
0.0848044	-0.241311	0.380971	
0.110665	-0.131179	0.419604	
-0.268448	0.0761744	0.322026	
-0.38814	0.0365087	0.390101	
-0.332155	0.186259	0.378016	
-0.358997	0.136564	0.272723	
0.428104	-0.258315	0.196896	
0.268117	-0.201453	0.257301	
0.321456	-0.142755	0.153578	
0.302277	-0.248662	0.113737	
0.0203259	-0.249482	0.251542	
0.0848044	-0.241311	0.380971	
0.0230591	-0.35567	0.355674	
0.104343	-0.277575	0.292493	
-0.18468	-0.0140346	0.375736	
-0.0882569	-0.0365572	0.407331	
-0.18203	-0.0488646	0.5	
-0.134018	-0.125076	0.416643	
0.321456	-0.142755	0.153578	
0.361187	-0.127724	0.273645	
0.469621	-0.171627	0.160116	
0.389447	-0.0664451	0.106973	
0.220621	-0.0913842	0.253691	
0.110881	-0.0319284	0.263307	
0.142415	-0.180509	0.253145	
0.163607	-0.084363	0.326696	
-0.153206	0.153206	0.5	
-0.123171	0.237068	0.386906	
-0.128799	0.212132	0.5	
-0.0835252	0.135066	0.417682	
0.3	-0.0833333	0.5	
0.345553	-0.109975	0.5	
0.271058	-0.153206	0.5	
0.249091	-0.0823301	0.40832	
1.83697e-17	0.216667	0.5	
0.016747	0.116372	0.415368	
0.00279483	0.150684	0.5	
-0.0612159	0.20738	0.430983	
-0.0112682	-5.37735e-05	0.248563	
-0.0930725	0.0739765	0.352845	
-0.0155726	0.113982	0.279722	
-0.118181	0.0989473	0.251321	
0.0203259	-0.249482	0.251542	
0.00964811	-0.213747	0.128268	
-0.0547597	-0.189651	0.263151	
0.0592568	-0.173932	0.272176	
-0.220621	-0.0913842	0.273465	
-0.360873	0.0158982	0.275217	
-0.246812	0.00918153	0.237581	
-0.372506	-0.102825	0.21502	
-0.085688	-0.137167	0.16869	
-0.202717	-0.0800005	0.134359	
-0.237359	-0.176563	0.223722	
-0.136956	-0.0443284	0.188767	
-0.202855	-0.234529	0.5	
-0.250192	-0.304018	0.405469	
-0.2234	-0.212186	0.369318	
-0.117884	-0.234333	0.40948	
-0.117671	-0.10197	0	
-0.0925337	-0.196451	0	
-0.085688	-0.137167	0.16869	
-0.206213	-0.186333	0.106781	
0.200132	-0.232269	0.163427	
0.25314	-0.310833	0.250522	
0.193272	-0.26142	0.329316	
0.104343	-0.277575	0.292493	
0.12216	0.350601	0.5	
0.0970926	0.279271	0.373778	
0.0833333	0.3	0.5	
0.0203259	0.350518	0.403169	
-0.295688	0.153857	0.172875	
-0.265452	0.263294	0.235043	
-0.428104	0.258315	0.196896	
-0.358997	0.136564	0.272723	
0.256554	-0.429162	0.331268	
0.153466	-0.356896	0.263852	
0.135438	-0.346064	0.384448	
0.23026	-0.337515	0.419392	
0.256554	-0.429162	0.331268	
0.153466	-0.356896	0.263852	
0.193272	-0.26142	0.329316	
0.25314	-0.310833	0.250522	
-0.257824	-0.4284	0.204976	
-0.234283	-0.304583	0.2878	
-0.193999	-0.271016	0.175767	
-0.296258	-0.256529	0.211625	
-0.214341	0.273759	0	
-0.119993	0.246691	0	
-0.161163	0.309136	0.149427	
-0.1493	0.167608	0.126676	
0.276476	0.0535537	0	
0.332005	0.00713037	0.169463	
0.346509	0.0237889	0	
0.362932	0.098224	0.109262	
0.276476	0.0535537	0	
0.346509	0.0237889	0	
0.332005	0.00713037	0.169463	
0.285128	-0.0586701	0.102886	
-0.146435	-0.19403	0.261638	
-0.117884	-0.234333	0.40948	
-0.0814439	-0.125985	0.343547	
-0.171189	-0.143954	0.334682	
0.14675	0.128723	0.276074	
0.0661482	0.0500773	0.26338	
0.212089	0.020774	0.252242	
0.107111	0.0161028	0.331802	
-0.328307	0.16356	0	
-0.265951	0.256468	0.111233	
-0.295688	0.153857	0.172875	
-0.241404	0.162452	0.0887852	
0.251686	0.10803	0.129438	
0.285128	-0.0586701	0.102886	
0.332005	0.00713037	0.169463	
0.244062	-0.0339696	0.193164	
0.110881	-0.0319284	0.263307	
0.142415	-0.180509	0.253145	
0.0819669	-0.126701	0.339809	
0.0592568	-0.173932	0.272176	
-0.295688	0.153857	0.172875	
-0.358997	0.136564	0.272723	
-0.246812	0.00918153	0.237581	
-0.219759	0.108564	0.237237	
0.125573	-0.41396	0	
0.0952672	-0.342147	0.15717	
0.153329	-0.47591	0.0923815	
0.219334	-0.328412	0.103652	
0.429476	-0.256028	0.291579	
0.361187	-0.127724	0.273645	
0.268117	-0.201453	0.257301	
0.283545	-0.259908	0.324527	
-0.120748	-0.291511	0.335128	
-0.117884	-0.234333	0.40948	
-0.0254015	-0.238675	0.394183	
-0.0547597	-0.189651	0.263151	
0.168734	0.470668	0.201781	
0.132803	0.332442	0.177	
0.247057	0.434698	0.250499	
0.14467	0.301705	0.287535	
0.0203259	-0.249482	0.251542	
-0.080828	-0.269765	0.22671	
-0.120748	-0.291511	0.335128	
-0.0547597	-0.189651	0.263151	
0.0589256	0.241074	0.5	
0.086989	0.179344	0.400327	
1.83697e-17	0.216667	0.5	
-0.0163515	0.266982	0.412579	
-0.271058	-0.271058	0.5	
-0.295465	-0.212132	0.5	
-0.249722	-0.227302	0.5	
-0.250192	-0.304018	0.405469	
0.184661	0.0531453	0.5	
0.1612	0.100866	0.5	
0.212132	0.128799	0.5	
0.136079	0.0773073	0.413876	
-0.247023	0.434718	0.250558	
-0.317319	0.386405	0.201487	
-0.161163	0.309136	0.149427	
-0.232102	0.339116	0.303176	
0.314006	-0.186162	0.367048	
0.392836	-0.0823347	0.412468	
0.249091	-0.0823301	0.40832	
0.377058	-0.167276	0.424233	
0.256554	-0.429162	0.331268	
0.25314	-0.310833	0.250522	
0.193272	-0.26142	0.329316	
0.23026	-0.337515	0.419392	
-0.214341	0.273759	0	
-0.1493	0.167608	0.126676	
-0.161163	0.309136	0.149427	
-0.265951	0.256468	0.111233	
-0.389036	0.207425	0	
-0.328307	0.16356	0	
-0.436811	0.243302	0.0936268	
-0.377341	0.0879068	0.111753	
-0.0925337	-0.196451	0	
-0.117671	-0.10197	0	
-0.085688	-0.137167	0.16869	
-0.00334623	-0.10275	0.104947	
0.478516	-0.14499	0.0762896	
0.394936	-0.119803	0	
0.380207	-0.19708	0	
0.389447	-0.0664451	0.106973	
0.276476	0.0535537	0	
0.251686	0.10803	0.129438	
0.210156	-0.0147965	0	
0.285128	-0.0586701	0.102886	
0.0807477	0.493437	0.154224	
0	0.5	0.2	
0.0594116	0.385605	0.105978	
-0.0333766	0.391369	0.240112	
-0.0930725	0.0739765	0.352845	
-0.0112682	-5.37735e-05	0.248563	
-0.0155726	0.113982	0.279722	
-0.0139985	0.0766371	0.354232	
-0.476132	0.152637	0.402329	
-0.332155	0.186259	0.378016	
-0.399482	0.123001	0.5	
-0.38814	0.0365087	0.390101	
-0.0112682	-5.37735e-05	0.248563	
0.110881	-0.0319284	0.263307	
0.0395065	-0.000100258	0.126114	
0.0170253	0.0610303	0.18852	
0.14675	0.128723	0.276074	
0.107111	0.0161028	0.331802	
0.212089	0.020774	0.252242	
0.196702	0.0791686	0.326444	
0.380873	0.323938	0.152261	
0.239078	0.233865	0.176769	
0.308855	0.242117	0.27439	
0.234881	0.32259	0.246366	
0.0913842	0.220621	0.259416	
0.14467	0.301705	0.287535	
0.132803	0.332442	0.177	
-0.00163227	0.307964	0.248385	
0.135296	0.0693292	0.185912	
0.276673	0.0689246	0.208494	
0.212089	0.020774	0.252242	
0.244062	-0.0339696	0.193164	
-0.201912	0.369986	0	
-0.161163	0.309136	0.149427	
-0.138674	0.323797	0	
-0.0728697	0.385983	0.102817	
0.268482	0.1106	0.289732	
0.342141	0.162954	0.200127	
0.239078	0.233865	0.176769	
0.308855	0.242117	0.27439	
0.0848044	-0.241311	0.380971	
-0.0254015	-0.238675	0.394183	
0.0230591	-0.35567	0.355674	
0.0220588	-0.302368	0.419947	
0.0203259	-0.249482	0.251542	
-0.0254015	-0.238675	0.394183	
0.0848044	-0.241311	0.380971	
0.000455301	-0.171885	0.334296	
0.12216	0.350601	0.5	
0.0970926	0.279271	0.373778	
0.0203259	0.350518	0.403169	
0.098227	0.400612	0.372757	
0.0519196	-0.186143	0.5	
0.0967728	-0.154724	0.5	
0.128799	-0.212132	0.5	
0.110665	-0.131179	0.419604	
-0.325718	-0.0135225	0.164468	
-0.302044	-0.0506462	0	
-0.202717	-0.0800005	0.134359	
-0.382808	-0.0894032	0.103515	
-0.0977967	-0.490343	0.258774	
-0.0565919	-0.339726	0.150695	
-0.0833019	-0.493012	0.155211	
-0.138366	-0.358353	0.236796	
-0.0814439	-0.125985	0.343547	
0.000455301	-0.171885	0.334296	
-0.0254015	-0.238675	0.394183	
-0.0547597	-0.189651	0.263151	
-0.085688	-0.137167	0.16869	
0.00964811	-0.213747	0.128268	
-0.00154855	-0.114907	0.260366	
-0.0547597	-0.189651	0.263151	
-0.0112682	-5.37735e-05	0.248563	
-0.0930725	0.0739765	0.352845	
-0.0531387	-0.0402198	0.321272	
-0.0139985	0.0766371	0.354232	
0.0519196	-0.186143	0.5	
0.0848044	-0.241311	0.380971	
0.0589256	-0.241074	0.5	
-0.0254015	-0.238675	0.394183	
-0.120748	-0.291511	0.335128	
-0.146435	-0.19403	0.261638	
-0.117884	-0.234333	0.40948	
-0.0547597	-0.189651	0.263151	
-0.323059	-0.0556697	0.363619	
-0.220621	-0.0913842	0.273465	
-0.329023	-0.172142	0.292634	
-0.372506	-0.102825	0.21502	
-0.0112682	-5.37735e-05	0.248563	
-0.127176	-0.00609761	0.272433	
-0.0930725	0.0739765	0.352845	
-0.118181	0.0989473	0.251321	
-0.185212	0.0538339	0.5	
-0.259187	0.0363748	0.408672	
-0.177179	0.127748	0.396718	
-0.130814	0.0354375	0.417572	
0.200132	-0.232269	0.163427	
0.116361	-0.190469	0.100844	
0.0952672	-0.342147	0.15717	
0.0986966	-0.244124	0.186079	
0.25658	0.429146	0.33124	
0.234881	0.32259	0.246366	
0.177101	0.348186	0.395851	
0.14467	0.301705	0.287535	
-0.0638367	-0.295761	0	
-0.0565919	-0.339726	0.150695	
0.00964811	-0.213747	0.128268	
-0.0992467	-0.239425	0.125263	
0.256066	-0.106066	0.5	
0.3	-0.0833333	0.5	
0.271058	-0.153206	0.5	
0.249091	-0.0823301	0.40832	
0.220621	-0.0913842	0.253691	
0.361187	-0.127724	0.273645	
0.321456	-0.142755	0.153578	
0.300325	-0.0288408	0.258872	
-0.168043	-0.470916	0.199874	
-0.138366	-0.358353	0.236796	
-0.0565919	-0.339726	0.150695	
-0.16153	-0.357052	0.106281	
-0.0112682	-5.37735e-05	0.248563	
-0.000470172	0.0044189	0.383613	
0.0387655	-0.0479803	0.318584	
-0.0139985	0.0766371	0.354232	
0.3	-0.0833333	0.5	
0.249091	-0.0823301	0.40832	
0.321349	-0.0500942	0.355813	
0.392836	-0.0823347	0.412468	
0.0734599	0.0912867	0.346892	
0.107111	0.0161028	0.331802	
-0.000470172	0.0044189	0.383613	
-0.0139985	0.0766371	0.354232	
-0.123171	0.237068	0.386906	
-0.177179	0.127748	0.396718	
-0.153206	0.153206	0.5	
-0.212186	0.200864	0.421006	
0.128799	-0.212132	0.5	
0.106066	-0.256066	0.5	
0.0589256	-0.241074	0.5	
0.0848044	-0.241311	0.380971	
1.83697e-17	0.216667	0.5	
-0.0201888	0.188065	0.366	
0.016747	0.116372	0.415368	
-0.0612159	0.20738	0.430983	
0.361187	-0.127724	0.273645	
0.389447	-0.0664451	0.106973	
0.321456	-0.142755	0.153578	
0.40447	-0.0146922	0.243912	
-0.295688	0.153857	0.172875	
-0.1493	0.167608	0.126676	
-0.154067	0.200523	0.255267	
-0.219759	0.108564	0.237237	
-0.212132	-0.295465	0.5	
-0.202855	-0.234529	0.5	
-0.153206	-0.271058	0.5	
-0.250192	-0.304018	0.405469	
-0.0925337	-0.196451	0	
-0.0992467	-0.239425	0.125263	
-0.085688	-0.137167	0.16869	
-0.206213	-0.186333	0.106781	
-0.15347	-0.097127	0.5	
-0.18203	-0.0488646	0.5	
-0.122616	-0.0499791	0.5	
-0.134018	-0.125076	0.416643	
-0.0589256	-0.0589256	0.5	
-0.0499791	-0.122616	0.5	
-0.105887	-0.105887	0.5	
-0.0581449	-0.152487	0.425037	
-0.258165	-0.428195	0.298245	
-0.234283	-0.304583	0.2878	
-0.171353	-0.469721	0.338334	
-0.138366	-0.358353	0.236796	
0.495101	0.0698189	0.427621	
0.353873	0.0061299	0.416416	
0.431857	0.0465403	0.5	
0.352401	0.10935	0.404506	
0.221409	-0.234529	0.5	
0.199592	-0.181859	0.5	
0.249979	-0.247703	0.407586	
0.163614	-0.249053	0.416633	
0.268482	0.1106	0.289732	
0.239078	0.233865	0.176769	
0.342141	0.162954	0.200127	
0.189688	0.149534	0.191539	
0.110881	-0.0319284	0.263307	
-0.00154855	-0.114907	0.260366	
0.0819669	-0.126701	0.339809	
0.0387655	-0.0479803	0.318584	
-0.138674	0.323797	0	
-0.0728697	0.385983	0.102817	
-0.161163	0.309136	0.149427	
-0.0606721	0.230593	0.106057	
0.135296	0.0693292	0.185912	
0.251686	0.10803	0.129438	
0.185118	-0.0448541	0.130581	
0.126165	0.019123	0.0935695	
0.0985518	0.185902	0.12959	
-0.0606721	0.230593	0.106057	
-0.0243888	0.144613	0.165538	
0.0362945	0.23248	0.18345	
-0.302044	-0.0506462	0	
-0.325718	-0.0135225	0.164468	
-0.202717	-0.0800005	0.134359	
-0.259075	0.0657144	0.105374	
0.0209546	0.0362755	0	
-0.0801458	-0.0255891	0.118207	
0.0395065	-0.000100258	0.126114	
-0.0884785	0.081082	0.106964	
0.414991	0.0495125	0	
0.5	0	0.1	
0.362932	0.098224	0.109262	
0.389447	-0.0664451	0.106973	
-0.161163	0.309136	0.149427	
-0.00982413	0.311992	0.161153	
-0.0333766	0.391369	0.240112	
-0.0983525	0.249793	0.193206	
-0.5	0	0.2	
-0.325718	-0.0135225	0.164468	
-0.5	0	0.1	
-0.377341	0.0879068	0.111753	
-0.436811	0.243302	0.0936268	
-0.428104	0.258315	0.196896	
-0.295688	0.153857	0.172875	
-0.265951	0.256468	0.111233	
-0.5	0	0.1	
-0.325718	-0.0135225	0.164468	
-0.5	0	0.2	
-0.382808	-0.0894032	0.103515	
0.0785366	-0.11627	0.176642	
-0.00334623	-0.10275	0.104947	
0.00964811	-0.213747	0.128268	
-0.0286268	-0.0663675	0.186281	
-0.257824	-0.4284	0.204976	
-0.193999	-0.271016	0.175767	
-0.331632	-0.374193	0.165357	
-0.296258	-0.256529	0.211625	
-0.153206	0.153206	0.5	
-0.177179	0.127748	0.396718	
-0.123171	0.237068	0.386906	
-0.0835252	0.135066	0.417682	
0.259229	0.131014	0.416169	
0.196702	0.0791686	0.326444	
0.278485	0.0481879	0.395453	
0.179502	0.0181689	0.432699	
0.0985518	0.185902	0.12959	
0.0738057	0.28359	0.108069	
-0.0606721	0.230593	0.106057	
0.0362945	0.23248	0.18345	
0.153206	0.153206	0.5	
0.086989	0.179344	0.400327	
0.183274	0.148555	0.376377	
0.136079	0.0773073	0.413876	
-0.0243888	0.144613	0.165538	
-0.0606721	0.230593	0.106057	
-0.00425413	0.131001	0	
-0.0884785	0.081082	0.106964	
0.0943468	-0.245334	0	
0.116361	-0.190469	0.100844	
0.112799	-0.33356	0	
0.219334	-0.328412	0.103652	
0.308855	0.242117	0.27439	
0.190566	0.216647	0.261668	
0.268482	0.1106	0.289732	
0.248284	0.183853	0.331313	
-0.0589256	0.358926	0.5	
-0.0125395	0.330273	0.5	
-0.03759	0.28483	0.5	
-0.0163515	0.266982	0.412579	
0.321349	-0.0500942	0.355813	
0.353873	0.0061299	0.416416	
0.3	-0.0833333	0.5	
0.392836	-0.0823347	0.412468	
0.174678	0.468495	0.317109	
0.0693948	0.36903	0.285155	
0.168734	0.470668	0.201781	
0.14467	0.301705	0.287535	
-0.2234	-0.212186	0.369318	
-0.220621	-0.0913842	0.273465	
-0.329023	-0.172142	0.292634	
-0.229671	-0.108874	0.396367	
-0.082983	0.493066	0.348347	
-0.144981	0.358558	0.378678	
-0.174738	0.468473	0.317184	
-0.0106277	0.407378	0.33212	
0.0807477	0.493437	0.154224	
0.0693948	0.36903	0.285155	
0.0854243	0.492649	0.251403	
-0.0333766	0.391369	0.240112	
0.0952672	-0.342147	0.15717	
0.116361	-0.190469	0.100844	
0.200132	-0.232269	0.163427	
0.219334	-0.328412	0.103652	
0.439458	0.238488	0.424308	
0.320474	0.196191	0.377567	
0.450285	0.217356	0.355302	
0.352401	0.10935	0.404506	
-0.0589256	-0.0589256	0.5	
-0.105887	-0.105887	0.5	
-0.0882569	-0.0365572	0.407331	
-0.0581449	-0.152487	0.425037	
-0.1493	0.167608	0.126676	
-0.118181	0.0989473	0.251321	
-0.0243888	0.144613	0.165538	
-0.0983525	0.249793	0.193206	
0.193272	-0.26142	0.329316	
0.268117	-0.201453	0.257301	
0.268239	-0.118327	0.326702	
0.283545	-0.259908	0.324527	
0.0594116	0.385605	0.105978	
0.223568	0.323879	0.108427	
0.132803	0.332442	0.177	
0.0738057	0.28359	0.108069	
0.221133	0.265326	0.342623	
0.177101	0.348186	0.395851	
0.25658	0.429146	0.33124	
0.234881	0.32259	0.246366	
0.0248177	-0.313374	0	
-0.0565919	-0.339726	0.150695	
-0.0328721	-0.370689	0	
0.0206176	-0.395667	0.103453	
0.184661	0.0531453	0.5	
0.136079	0.0773073	0.413876	
0.212132	0.128799	0.5	
0.259229	0.131014	0.416169	
0.212132	0.128799	0.5	
0.174542	0.196962	0.5	
0.221409	0.189735	0.5	
0.220138	0.220062	0.417726	
0.429476	-0.256028	0.291579	
0.268117	-0.201453	0.257301	
0.377032	-0.3284	0.243217	
0.283545	-0.259908	0.324527	
0.0913842	0.220621	0.259416	
0.132803	0.332442	0.177	
0.0362945	0.23248	0.18345	
-0.00163227	0.307964	0.248385	
0.193272	-0.26142	0.329316	
0.314006	-0.186162	0.367048	
0.249979	-0.247703	0.407586	
0.283545	-0.259908	0.324527	
0.193272	-0.26142	0.329316	
0.23026	-0.337515	0.419392	
0.25314	-0.310833	0.250522	
0.283545	-0.259908	0.324527	
0.346509	0.0237889	0	
0.362932	0.098224	0.109262	
0.332005	0.00713037	0.169463	
0.389447	-0.0664451	0.106973	
-0.304937	-0.166182	0.150677	
-0.329023	-0.172142	0.292634	
-0.434698	-0.247057	0.249501	
-0.296258	-0.256529	0.211625	
-0.0531387	-0.0402198	0.321272	
0.0387655	-0.0479803	0.318584	
0.0135874	-0.118011	0.409404	
0.000455301	-0.171885	0.334296	
0.186731	-0.150807	0.387359	
0.249979	-0.247703	0.407586	
0.199592	-0.181859	0.5	
0.163614	-0.249053	0.416633	
0.183274	0.148555	0.376377	
0.259229	0.131014	0.416169	
0.136079	0.0773073	0.413876	
0.196702	0.0791686	0.326444	
0	0.5	0.2	
-0.0728697	0.385983	0.102817	
0.0594116	0.385605	0.105978	
-0.0333766	0.391369	0.240112	
0.314006	-0.186162	0.367048	
0.361187	-0.127724	0.273645	
0.321349	-0.0500942	0.355813	
0.392836	-0.0823347	0.412468	
-0.085688	-0.137167	0.16869	
-0.0992467	-0.239425	0.125263	
-0.0925337	-0.196451	0	
-0.00334623	-0.10275	0.104947	
-0.0112682	-5.37735e-05	0.248563	
-0.0930725	0.0739765	0.352845	
-0.127176	-0.00609761	0.272433	
-0.0531387	-0.0402198	0.321272	
0.28483	-0.03759	0.5	
0.353873	0.0061299	0.416416	
0.249091	-0.0823301	0.40832	
0.249486	-0.0108057	0.43277	
-0.152663	-6.75805e-05	0.5	
-0.18203	-0.0488646	0.5	
-0.18468	-0.0140346	0.375736	
-0.0882569	-0.0365572	0.407331	
0.3	-0.0833333	0.5	
0.345553	-0.109975	0.5	
0.249091	-0.0823301	0.40832	
0.392836	-0.0823347	0.412468	
0.0203259	-0.249482	0.251542	
-0.120748	-0.291511	0.335128	
-0.080828	-0.269765	0.22671	
-0.0570812	-0.3559	0.302161	
0.388345	-0.314941	0.420199	
0.249979	-0.247703	0.407586	
0.314006	-0.186162	0.367048	
0.283545	-0.259908	0.324527	
0.200132	-0.232269	0.163427	
0.0986966	-0.244124	0.186079	
0.153466	-0.356896	0.263852	
0.104343	-0.277575	0.292493	
0.377032	-0.3284	0.243217	
0.429476	-0.256028	0.291579	
0.428104	-0.258315	0.196896	
0.268117	-0.201453	0.257301	
-0.38814	0.0365087	0.390101	
-0.259187	0.0363748	0.408672	
-0.268448	0.0761744	0.322026	
-0.268272	0.128138	0.411267	
-0.085688	-0.137167	0.16869	
0.00964811	-0.213747	0.128268	
-0.0992467	-0.239425	0.125263	
-0.00334623	-0.10275	0.104947	
0.220621	-0.0913842	0.253691	
0.300325	-0.0288408	0.258872	
0.321456	-0.142755	0.153578	
0.244062	-0.0339696	0.193164	
0.332005	0.00713037	0.169463	
0.321456	-0.142755	0.153578	
0.389447	-0.0664451	0.106973	
0.40447	-0.0146922	0.243912	
-0.5	0	0.1	
-0.377341	0.0879068	0.111753	
-0.325718	-0.0135225	0.164468	
-0.382808	-0.0894032	0.103515	
-0.0589256	0.358926	0.5	
-0.0125395	0.330273	0.5	
-0.0163515	0.266982	0.412579	
-0.063352	0.397195	0.411842	
-0.118932	0.39861	0	
-0.201912	0.369986	0	
-0.138674	0.323797	0	
-0.0728697	0.385983	0.102817	
-0.18203	-0.0488646	0.5	
-0.18468	-0.0140346	0.375736	
-0.134018	-0.125076	0.416643	
-0.231014	-0.0285751	0.432493	
-0.277785	-0.415735	0.134138	
-0.257824	-0.4284	0.204976	
-0.217356	-0.450285	0.144698	
-0.16153	-0.357052	0.106281	
0.380873	0.323938	0.152261	
0.308855	0.242117	0.27439	
0.376757	0.328716	0.246468	
0.234881	0.32259	0.246366	
0.388345	-0.314941	0.420199	
0.314006	-0.186162	0.367048	
0.416747	-0.276265	0.362548	
0.283545	-0.259908	0.324527	
0.200132	-0.232269	0.163427	
0.153466	-0.356896	0.263852	
0.0952672	-0.342147	0.15717	
0.219334	-0.328412	0.103652	
0.200132	-0.232269	0.163427	
0.153466	-0.356896	0.263852	
0.25314	-0.310833	0.250522	
0.104343	-0.277575	0.292493	
-0.5	0	0.1	
-0.401548	-0.0423374	0	
-0.426463	0.0441363	0	
-0.377341	0.0879068	0.111753	
0.153206	-0.153206	0.5	
0.186731	-0.150807	0.387359	
0.199592	-0.181859	0.5	
0.163614	-0.249053	0.416633	
0.241074	0.0589256	0.5	
0.184661	0.0531453	0.5	
0.259229	0.131014	0.416169	
0.179502	0.0181689	0.432699	
-0.304937	-0.166182	0.150677	
-0.220621	-0.0913842	0.273465	
-0.372506	-0.102825	0.21502	
-0.237359	-0.176563	0.223722	
-0.00425413	0.131001	0	
0.0651412	0.200096	0	
-0.0295403	0.225144	0	
-0.0606721	0.230593	0.106057	
-0.0833333	0.3	0.5	
-0.144981	0.358558	0.378678	
-0.123171	0.237068	0.386906	
-0.181622	0.273954	0.42594	
0.200132	-0.232269	0.163427	
0.142415	-0.180509	0.253145	
0.193272	-0.26142	0.329316	
0.268117	-0.201453	0.257301	
0.249091	-0.0823301	0.40832	
0.392836	-0.0823347	0.412468	
0.345553	-0.109975	0.5	
0.377058	-0.167276	0.424233	
0.0785366	-0.11627	0.176642	
0.142415	-0.180509	0.253145	
0.110881	-0.0319284	0.263307	
0.0592568	-0.173932	0.272176	
-0.0254015	-0.238675	0.394183	
0.0135874	-0.118011	0.409404	
0.0848044	-0.241311	0.380971	
0.000455301	-0.171885	0.334296	
0.478516	-0.14499	0.0762896	
0.380207	-0.19708	0	
0.436811	-0.243302	0.0936268	
0.321456	-0.142755	0.153578	
0.471122	-0.167464	0.300106	
0.392836	-0.0823347	0.412468	
0.361187	-0.127724	0.273645	
0.377058	-0.167276	0.424233	
0.5	0	0.2	
0.389447	-0.0664451	0.106973	
0.332005	0.00713037	0.169463	
0.39698	0.0776459	0.202579	
0	-0.5	0.3	
-0.0825799	-0.384765	0.390495	
0.0230591	-0.35567	0.355674	
-0.0570812	-0.3559	0.302161	
0.490316	-0.0979281	0.24092	
0.469621	-0.171627	0.160116	
0.361187	-0.127724	0.273645	
0.389447	-0.0664451	0.106973	
-0.161163	0.309136	0.149427	
-0.0333766	0.391369	0.240112	
-0.144119	0.318458	0.266738	
-0.0983525	0.249793	0.193206	
-0.193999	-0.271016	0.175767	
-0.138366	-0.358353	0.236796	
-0.257824	-0.4284	0.204976	
-0.16153	-0.357052	0.106281	
0.0807477	0.493437	0.154224	
0.132803	0.332442	0.177	
0.0854243	0.492649	0.251403	
0.0693948	0.36903	0.285155	
0.108346	0.0977259	0.5	
0.016747	0.116372	0.415368	
0.136079	0.0773073	0.413876	
0.0614383	0.0441646	0.419518	
0.221133	0.265326	0.342623	
0.291987	0.28448	0.40616	
0.3168	0.386831	0.395903	
0.177101	0.348186	0.395851	
-0.181859	0.199592	0.5	
-0.128799	0.212132	0.5	
-0.153206	0.153206	0.5	
-0.212186	0.200864	0.421006	
0.321349	-0.0500942	0.355813	
0.314006	-0.186162	0.367048	
0.249091	-0.0823301	0.40832	
0.268239	-0.118327	0.326702	
0.5	0	0.4	
0.435719	7.07799e-17	0.5	
0.353873	0.0061299	0.416416	
0.392836	-0.0823347	0.412468	
0.0819669	-0.126701	0.339809	
-0.00154855	-0.114907	0.260366	
0.110881	-0.0319284	0.263307	
0.0592568	-0.173932	0.272176	
-0.161163	0.309136	0.149427	
-0.00982413	0.311992	0.161153	
-0.0728697	0.385983	0.102817	
-0.0333766	0.391369	0.240112	
0.221409	-0.234529	0.5	
0.199592	-0.181859	0.5	
0.249439	-0.196279	0.5	
0.249979	-0.247703	0.407586	
0.0589256	-0.0589256	0.5	
0.0092772	-0.0223972	0.5	
0.0953117	-0.0282381	0.401854	
-0.0182997	-0.049373	0.434403	
0.450285	0.217356	0.355302	
0.352401	0.10935	0.404506	
0.320474	0.196191	0.377567	
0.374736	0.148861	0.30011	
-0.0411735	0.316432	0.326214	
-0.144981	0.358558	0.378678	
-0.0163515	0.266982	0.412579	
-0.063352	0.397195	0.411842	
-0.323059	-0.0556697	0.363619	
-0.329023	-0.172142	0.292634	
-0.220621	-0.0913842	0.273465	
-0.229671	-0.108874	0.396367	
-0.154067	0.200523	0.255267	
-0.118181	0.0989473	0.251321	
-0.1493	0.167608	0.126676	
-0.0983525	0.249793	0.193206	
0.183274	0.148555	0.376377	
0.086989	0.179344	0.400327	
0.153206	0.153206	0.5	
0.135958	0.243685	0.430036	
0.471122	-0.167464	0.300106	
0.361187	-0.127724	0.273645	
0.450312	-0.217299	0.354112	
0.377058	-0.167276	0.424233	
0.0203259	-0.249482	0.251542	
-0.0254015	-0.238675	0.394183	
0.000455301	-0.171885	0.334296	
-0.0547597	-0.189651	0.263151	
0.416747	-0.276265	0.362548	
0.314006	-0.186162	0.367048	
0.388345	-0.314941	0.420199	
0.377058	-0.167276	0.424233	
0.200132	-0.232269	0.163427	
0.142415	-0.180509	0.253145	
0.0986966	-0.244124	0.186079	
0.104343	-0.277575	0.292493	
0.332005	0.00713037	0.169463	
0.389447	-0.0664451	0.106973	
0.5	0	0.2	
0.40447	-0.0146922	0.243912	
-0.434698	-0.247057	0.249501	
-0.329023	-0.172142	0.292634	
-0.304937	-0.166182	0.150677	
-0.372506	-0.102825	0.21502	
-0.434698	-0.247057	0.249501	
-0.429146	-0.25658	0.16876	
-0.304937	-0.166182	0.150677	
-0.296258	-0.256529	0.211625	
0.00964811	-0.213747	0.128268	
-0.00334623	-0.10275	0.104947	
-0.085688	-0.137167	0.16869	
-0.0286268	-0.0663675	0.186281	
0.0589256	0.241074	0.5	
0.0557946	0.181673	0.5	
1.83697e-17	0.216667	0.5	
0.086989	0.179344	0.400327	
0.0589256	0.241074	0.5	
0.086989	0.179344	0.400327	
0.0970926	0.279271	0.373778	
0.135958	0.243685	0.430036	
-0.325718	-0.0135225	0.164468	
-0.202717	-0.0800005	0.134359	
-0.304937	-0.166182	0.150677	
-0.382808	-0.0894032	0.103515	
0.220621	-0.0913842	0.253691	
0.142415	-0.180509	0.253145	
0.110881	-0.0319284	0.263307	
0.174775	-0.129562	0.177015	
0.358926	-0.0589256	0.5	
0.3	-0.0833333	0.5	
0.353873	0.0061299	0.416416	
0.392836	-0.0823347	0.412468	
-0.268448	0.0761744	0.322026	
-0.246812	0.00918153	0.237581	
-0.358997	0.136564	0.272723	
-0.219759	0.108564	0.237237	
-0.0833019	-0.493012	0.155211	
-0.168043	-0.470916	0.199874	
-0.0565919	-0.339726	0.150695	
-0.16153	-0.357052	0.106281	
-5.51091e-17	-0.216667	0.5	
0.0135874	-0.118011	0.409404	
-0.0254015	-0.238675	0.394183	
-0.0581449	-0.152487	0.425037	
-0.171353	-0.469721	0.338334	
-0.138366	-0.358353	0.236796	
-0.0825799	-0.384765	0.390495	
-0.0570812	-0.3559	0.302161	
0.0519196	-0.186143	0.5	
0.128799	-0.212132	0.5	
0.0848044	-0.241311	0.380971	
0.110665	-0.131179	0.419604	
0.0203259	0.350518	0.403169	
-0.0163515	0.266982	0.412579	
-0.0125395	0.330273	0.5	
-0.063352	0.397195	0.411842	
-0.119993	0.246691	0	
-0.161163	0.309136	0.149427	
-0.1493	0.167608	0.126676	
-0.0606721	0.230593	0.106057	
0.153466	-0.356896	0.263852	
0.219334	-0.328412	0.103652	
0.200132	-0.232269	0.163427	
0.25314	-0.310833	0.250522	
0.106066	-0.256066	0.5	
0.153206	-0.271058	0.5	
0.0833333	-0.3	0.5	
0.163614	-0.249053	0.416633	
-0.493315	-0.0814864	0.152319	
-0.5	0	0.1	
-0.5	0	0.2	
-0.382808	-0.0894032	0.103515	
0.0248177	-0.313374	0	
-0.0638367	-0.295761	0	
-0.0328721	-0.370689	0	
-0.0565919	-0.339726	0.150695	
-0.265452	0.263294	0.235043	
-0.144119	0.318458	0.266738	
-0.161163	0.309136	0.149427	
-0.232102	0.339116	0.303176	
0.0693948	0.36903	0.285155	
-0.0333766	0.391369	0.240112	
-0.00982413	0.311992	0.161153	
-0.00163227	0.307964	0.248385	
-0.18644	0.1823	0	
-0.1493	0.167608	0.126676	
-0.214341	0.273759	0	
-0.241404	0.162452	0.0887852	
-0.259187	0.0363748	0.408672	
-0.130814	0.0354375	0.417572	
-0.18468	-0.0140346	0.375736	
-0.177442	0.0578991	0.31733	
-0.428104	0.258315	0.196896	
-0.38078	0.324048	0.150149	
-0.265452	0.263294	0.235043	
-0.265951	0.256468	0.111233	
0	0.5	0.4	
0.0203259	0.350518	0.403169	
6.08826e-17	0.43599	0.5	
-0.063352	0.397195	0.411842	
0.174678	0.468495	0.317109	
0.168734	0.470668	0.201781	
0.247057	0.434698	0.250499	
0.14467	0.301705	0.287535	
0.0395065	-0.000100258	0.126114	
0.0431438	0.101726	0.0953265	
0.0209546	0.0362755	0	
-0.0884785	0.081082	0.106964	
0.414991	0.0495125	0	
0.362932	0.098224	0.109262	
0.346509	0.0237889	0	
0.389447	-0.0664451	0.106973	
-0.381208	0.210225	0.5	
-0.399482	0.123001	0.5	
-0.439384	0.238625	0.423358	
-0.332155	0.186259	0.378016	
-0.157073	0.0991372	0.5	
-0.0835252	0.135066	0.417682	
-0.106984	0.108603	0.5	
-0.130814	0.0354375	0.417572	
-0.360873	0.0158982	0.275217	
-0.372506	-0.102825	0.21502	
-0.323059	-0.0556697	0.363619	
-0.402728	-0.0701503	0.304716	
-0.2234	-0.212186	0.369318	
-0.229671	-0.108874	0.396367	
-0.329023	-0.172142	0.292634	
-0.306482	-0.128449	0.42688	
-0.0814439	-0.125985	0.343547	
-0.0531387	-0.0402198	0.321272	
0.0135874	-0.118011	0.409404	
0.000455301	-0.171885	0.334296	
-0.0243888	0.144613	0.165538	
-0.00425413	0.131001	0	
-0.0606721	0.230593	0.106057	
0.0431438	0.101726	0.0953265	
0.0819669	-0.126701	0.339809	
0.0848044	-0.241311	0.380971	
0.0135874	-0.118011	0.409404	
0.000455301	-0.171885	0.334296	
-0.234283	-0.304583	0.2878	
-0.250192	-0.304018	0.405469	
-0.258165	-0.428195	0.298245	
-0.162242	-0.337279	0.406019	
-0.220621	-0.0913842	0.273465	
-0.202717	-0.0800005	0.134359	
-0.325718	-0.0135225	0.164468	
-0.246812	0.00918153	0.237581	
-0.329023	-0.172142	0.292634	
-0.234283	-0.304583	0.2878	
-0.386792	-0.316847	0.301384	
-0.296258	-0.256529	0.211625	
0.5	0	0.4	
0.353873	0.0061299	0.416416	
0.380516	0.0520569	0.316102	
0.411179	-0.0301121	0.336439	
-0.434698	-0.247057	0.249501	
-0.304937	-0.166182	0.150677	
-0.429146	-0.25658	0.16876	
-0.372506	-0.102825	0.21502	
-0.470668	-0.168734	0.298219	
-0.338135	-0.204677	0.398089	
-0.329023	-0.172142	0.292634	
-0.402728	-0.0701503	0.304716	
-0.193999	-0.271016	0.175767	
-0.234283	-0.304583	0.2878	
-0.257824	-0.4284	0.204976	
-0.138366	-0.358353	0.236796	
-0.0925337	-0.196451	0	
-0.0992467	-0.239425	0.125263	
0.00964811	-0.213747	0.128268	
-0.00334623	-0.10275	0.104947	
-0.16685	0.0883447	0	
-0.1493	0.167608	0.126676	
-0.259075	0.0657144	0.105374	
-0.0884785	0.081082	0.106964	
-0.241074	0.0589256	0.5	
-0.177179	0.127748	0.396718	
-0.185212	0.0538339	0.5	
-0.259187	0.0363748	0.408672	
0.5	0	0.1	
0.493389	0.0810399	0.14715	
0.362932	0.098224	0.109262	
0.39698	0.0776459	0.202579	
0.429476	-0.256028	0.291579	
0.314006	-0.186162	0.367048	
0.450312	-0.217299	0.354112	
0.361187	-0.127724	0.273645	
0.342141	0.162954	0.200127	
0.308855	0.242117	0.27439	
0.428195	0.258165	0.201755	
0.325166	0.230418	0.10487	
0.346509	0.0237889	0	
0.389447	-0.0664451	0.106973	
0.332005	0.00713037	0.169463	
0.285128	-0.0586701	0.102886	
-0.120748	-0.291511	0.335128	
-0.234283	-0.304583	0.2878	
-0.146435	-0.19403	0.261638	
-0.080828	-0.269765	0.22671	
0.25658	0.429146	0.33124	
0.177101	0.348186	0.395851	
0.174678	0.468495	0.317109	
0.14467	0.301705	0.287535	
0.12216	0.350601	0.5	
0.177101	0.348186	0.395851	
0.0970926	0.279271	0.373778	
0.098227	0.400612	0.372757	
0.132803	0.332442	0.177	
0.0693948	0.36903	0.285155	
-0.00982413	0.311992	0.161153	
-0.00163227	0.307964	0.248385	
0.0589256	-0.241074	0.5	
0.106066	-0.256066	0.5	
0.0833333	-0.3	0.5	
0.0848044	-0.241311	0.380971	
-0.0243888	0.144613	0.165538	
-0.0155726	0.113982	0.279722	
-0.0268842	0.224117	0.253342	
-0.118181	0.0989473	0.251321	
0.317163	-0.386533	0.299742	
0.25314	-0.310833	0.250522	
0.23026	-0.337515	0.419392	
0.283545	-0.259908	0.324527	
0.212132	0.295465	0.5	
0.291987	0.28448	0.40616	
0.220138	0.220062	0.417726	
0.177101	0.348186	0.395851	
1.83697e-17	0.216667	0.5	
-0.0163515	0.266982	0.412579	
-0.0201888	0.188065	0.366	
-0.0612159	0.20738	0.430983	
0.0589256	0.241074	0.5	
0.0833333	0.3	0.5	
0.0970926	0.279271	0.373778	
-0.0163515	0.266982	0.412579	
-0.2234	-0.212186	0.369318	
-0.220621	-0.0913842	0.273465	
-0.171189	-0.143954	0.334682	
-0.237359	-0.176563	0.223722	
0.0589256	-0.0589256	0.5	
0.0135874	-0.118011	0.409404	
0.0953117	-0.0282381	0.401854	
0.110665	-0.131179	0.419604	
0	0.5	0.1	
0.0594116	0.385605	0.105978	
0	0.5	0.2	
-0.0728697	0.385983	0.102817	
0.495101	0.0698189	0.427621	
0.380516	0.0520569	0.316102	
0.5	0	0.4	
0.353873	0.0061299	0.416416	
-0.302044	-0.0506462	0	
-0.202717	-0.0800005	0.134359	
-0.237047	0.0201392	0	
-0.259075	0.0657144	0.105374	
-0.0833019	-0.493012	0.155211	
-0.16153	-0.357052	0.106281	
-0.0565919	-0.339726	0.150695	
-0.069553	-0.399585	0.0805589	
0.0833333	0.3	0.5	
0.0970926	0.279271	0.373778	
0.12216	0.350601	0.5	
0.135958	0.243685	0.430036	
-0.161163	0.309136	0.149427	
-0.265452	0.263294	0.235043	
-0.317319	0.386405	0.201487	
-0.265951	0.256468	0.111233	
-0.214341	0.273759	0	
-0.18644	0.1823	0	
-0.119993	0.246691	0	
-0.1493	0.167608	0.126676	
-0.476132	0.152637	0.402329	
-0.38814	0.0365087	0.390101	
-0.493012	0.0833019	0.344789	
-0.358997	0.136564	0.272723	
-0.153206	-0.271058	0.5	
-0.106066	-0.256066	0.5	
-0.0833333	-0.3	0.5	
-0.0611092	-0.309537	0.420103	
-0.328716	-0.376757	0.253532	
-0.234283	-0.304583	0.2878	
-0.257824	-0.4284	0.204976	
-0.296258	-0.256529	0.211625	
-0.0882569	-0.0365572	0.407331	
-0.130814	0.0354375	0.417572	
-0.0930725	0.0739765	0.352845	
-0.128371	-0.0605284	0.341709	
-0.399482	0.123001	0.5	
-0.334293	0.161532	0.5	
-0.345553	0.109975	0.5	
-0.332155	0.186259	0.378016	
0.0153159	0.363557	0	
0.0594116	0.385605	0.105978	
-0.00982413	0.311992	0.161153	
0.0738057	0.28359	0.108069	
-0.177179	0.127748	0.396718	
-0.130814	0.0354375	0.417572	
-0.259187	0.0363748	0.408672	
-0.177442	0.0578991	0.31733	
-0.152663	-6.75805e-05	0.5	
-0.216667	3.67394e-17	0.5	
-0.130814	0.0354375	0.417572	
-0.231014	-0.0285751	0.432493	
0.177101	0.348186	0.395851	
0.234881	0.32259	0.246366	
0.221133	0.265326	0.342623	
0.14467	0.301705	0.287535	
0.332005	0.00713037	0.169463	
0.40447	-0.0146922	0.243912	
0.5	0	0.2	
0.39698	0.0776459	0.202579	
0.0807477	0.493437	0.154224	
0.0854243	0.492649	0.251403	
0	0.5	0.2	
-0.0333766	0.391369	0.240112	
0.135296	0.0693292	0.185912	
0.155737	0.108922	0.093738	
0.251686	0.10803	0.129438	
0.126165	0.019123	0.0935695	
0.220621	-0.0913842	0.253691	
0.268117	-0.201453	0.257301	
0.321456	-0.142755	0.153578	
0.361187	-0.127724	0.273645	
0.212089	0.020774	0.252242	
0.0661482	0.0500773	0.26338	
0.110881	-0.0319284	0.263307	
0.107111	0.0161028	0.331802	
-0.202855	-0.234529	0.5	
-0.2234	-0.212186	0.369318	
-0.249722	-0.227302	0.5	
-0.194749	-0.171788	0.429088	
-0.193999	-0.271016	0.175767	
-0.146435	-0.19403	0.261638	
-0.234283	-0.304583	0.2878	
-0.080828	-0.269765	0.22671	
0.125573	-0.41396	0	
0.153329	-0.47591	0.0923815	
0.0952672	-0.342147	0.15717	
0.0206176	-0.395667	0.103453	
-0.153329	0.47591	0.0923815	
-0.161163	0.309136	0.149427	
-0.235698	0.440961	0.0686036	
-0.0728697	0.385983	0.102817	
0.112799	-0.33356	0	
0.125573	-0.41396	0	
0.194604	-0.371188	0	
0.219334	-0.328412	0.103652	
-0.201912	0.369986	0	
-0.273315	0.334955	0	
-0.214341	0.273759	0	
-0.265951	0.256468	0.111233	
0.416747	-0.276265	0.362548	
0.314006	-0.186162	0.367048	
0.429476	-0.256028	0.291579	
0.283545	-0.259908	0.324527	
-0.00425413	0.131001	0	
0.0431438	0.101726	0.0953265	
-0.0243888	0.144613	0.165538	
-0.0884785	0.081082	0.106964	
-0.0112682	-5.37735e-05	0.248563	
0.0387655	-0.0479803	0.318584	
0.0661482	0.0500773	0.26338	
-0.0139985	0.0766371	0.354232	
-0.0328721	-0.370689	0	
0.0206176	-0.395667	0.103453	
-0.0565919	-0.339726	0.150695	
-0.069553	-0.399585	0.0805589	
0.174542	0.196962	0.5	
0.183274	0.148555	0.376377	
0.153206	0.153206	0.5	
0.135958	0.243685	0.430036	
0.25658	0.429146	0.33124	
0.317206	0.386498	0.299678	
0.221133	0.265326	0.342623	
0.234881	0.32259	0.246366	
-0.381208	0.210225	0.5	
-0.334293	0.161532	0.5	
-0.399482	0.123001	0.5	
-0.332155	0.186259	0.378016	
-0.138674	0.323797	0	
-0.0555676	0.325574	0	
-0.0728697	0.385983	0.102817	
-0.0606721	0.230593	0.106057	
0.314006	-0.186162	0.367048	
0.268239	-0.118327	0.326702	
0.268117	-0.201453	0.257301	
0.283545	-0.259908	0.324527	
-0.0112682	-5.37735e-05	0.248563	
-0.00154855	-0.114907	0.260366	
0.110881	-0.0319284	0.263307	
0.0387655	-0.0479803	0.318584	
-0.0201888	0.188065	0.366	
-0.0163515	0.266982	0.412579	
0.086989	0.179344	0.400327	
0.0303777	0.260127	0.314563	
-0.329023	-0.172142	0.292634	
-0.229671	-0.108874	0.396367	
-0.323059	-0.0556697	0.363619	
-0.306482	-0.128449	0.42688	
-0.154067	0.200523	0.255267	
-0.1493	0.167608	0.126676	
-0.161163	0.309136	0.149427	
-0.0983525	0.249793	0.193206	
0.5	0	0.1	
0.389447	-0.0664451	0.106973	
0.5	0	0.2	
0.39698	0.0776459	0.202579	
-0.085688	-0.137167	0.16869	
-0.0992467	-0.239425	0.125263	
-0.146435	-0.19403	0.261638	
-0.206213	-0.186333	0.106781	
-0.16873	0.47067	0.201799	
-0.247023	0.434718	0.250558	
-0.161163	0.309136	0.149427	
-0.144119	0.318458	0.266738	
-0.220621	-0.0913842	0.273465	
-0.237359	-0.176563	0.223722	
-0.202717	-0.0800005	0.134359	
-0.136956	-0.0443284	0.188767	
0.380873	0.323938	0.152261	
0.308855	0.242117	0.27439	
0.239078	0.233865	0.176769	
0.325166	0.230418	0.10487	
-0.0419658	0.179631	0.5	
0.00279483	0.150684	0.5	
-0.0506005	0.12216	0.5	
-0.0835252	0.135066	0.417682	
-0.1493	0.167608	0.126676	
-0.265951	0.256468	0.111233	
-0.214341	0.273759	0	
-0.241404	0.162452	0.0887852	
-0.5	0	0.1	
-0.401548	-0.0423374	0	
-0.377341	0.0879068	0.111753	
-0.382808	-0.0894032	0.103515	
0.220621	-0.0913842	0.253691	
0.321456	-0.142755	0.153578	
0.268117	-0.201453	0.257301	
0.174775	-0.129562	0.177015	
0.110881	-0.0319284	0.263307	
-0.00154855	-0.114907	0.260366	
0.0785366	-0.11627	0.176642	
0.0592568	-0.173932	0.272176	
0.317206	0.386498	0.299678	
0.374193	0.331632	0.334643	
0.291987	0.28448	0.40616	
0.308855	0.242117	0.27439	
0.112799	-0.33356	0	
0.125573	-0.41396	0	
0.0952672	-0.342147	0.15717	
0.0206176	-0.395667	0.103453	
0.361187	-0.127724	0.273645	
0.392836	-0.0823347	0.412468	
0.314006	-0.186162	0.367048	
0.377058	-0.167276	0.424233	
-0.168043	-0.470916	0.199874	
-0.0833019	-0.493012	0.155211	
-0.0565919	-0.339726	0.150695	
-0.138366	-0.358353	0.236796	
-0.360873	0.0158982	0.275217	
-0.358997	0.136564	0.272723	
-0.268448	0.0761744	0.322026	
-0.246812	0.00918153	0.237581	
0.135296	0.0693292	0.185912	
0.212089	0.020774	0.252242	
0.14675	0.128723	0.276074	
0.0661482	0.0500773	0.26338	
0.132803	0.332442	0.177	
0.0594116	0.385605	0.105978	
0.153328	0.47591	0.0923699	
0.223568	0.323879	0.108427	
-0.142648	-0.00714059	0	
-0.202717	-0.0800005	0.134359	
-0.117671	-0.10197	0	
-0.0801458	-0.0255891	0.118207	
0.332005	0.00713037	0.169463	
0.276673	0.0689246	0.208494	
0.251686	0.10803	0.129438	
0.244062	-0.0339696	0.193164	
-0.085688	-0.137167	0.16869	
-0.206213	-0.186333	0.106781	
-0.146435	-0.19403	0.261638	
-0.237359	-0.176563	0.223722	
0.0734599	0.0912867	0.346892	
0.0661482	0.0500773	0.26338	
0.107111	0.0161028	0.331802	
-0.0139985	0.0766371	0.354232	
-0.278713	-0.14304	0	
-0.202717	-0.0800005	0.134359	
-0.304937	-0.166182	0.150677	
-0.206213	-0.186333	0.106781	
0.0589256	0.358926	0.5	
0.12216	0.350601	0.5	
0.0833333	0.3	0.5	
0.0203259	0.350518	0.403169	
0.317206	0.386498	0.299678	
0.308855	0.242117	0.27439	
0.221133	0.265326	0.342623	
0.234881	0.32259	0.246366	
0.0209546	0.0362755	0	
-0.0734441	0.0616893	0	
-0.0801458	-0.0255891	0.118207	
-0.0884785	0.081082	0.106964	
-0.329023	-0.172142	0.292634	
-0.2234	-0.212186	0.369318	
-0.234283	-0.304583	0.2878	
-0.237359	-0.176563	0.223722	
-0.302044	-0.0506462	0	
-0.344127	-0.112227	0	
-0.278713	-0.14304	0	
-0.382808	-0.0894032	0.103515	
0	-0.5	0.2	
-0.0565919	-0.339726	0.150695	
-0.0833019	-0.493012	0.155211	
0.0153009	-0.365787	0.239317	
-0.0983601	0.156434	0	
-0.00425413	0.131001	0	
-0.0606721	0.230593	0.106057	
-0.0884785	0.081082	0.106964	
0.239078	0.233865	0.176769	
0.308855	0.242117	0.27439	
0.342141	0.162954	0.200127	
0.325166	0.230418	0.10487	
-0.201912	0.369986	0	
-0.214341	0.273759	0	
-0.161163	0.309136	0.149427	
-0.265951	0.256468	0.111233	
0.3168	0.386831	0.395903	
0.221133	0.265326	0.342623	
0.317206	0.386498	0.299678	
0.291987	0.28448	0.40616	
0.124175	0.0449909	0.5	
0.152693	-0.00394448	0.5	
0.0833333	0	0.5	
0.179502	0.0181689	0.432699	
-0.389036	0.207425	0	
-0.318983	0.261743	0	
-0.436811	0.243302	0.0936268	
-0.265951	0.256468	0.111233	
0.0589256	-0.0589256	0.5	
0.0092772	-0.0223972	0.5	
0.0373069	0.0158534	0.5	
0.0953117	-0.0282381	0.401854	
0.276476	0.0535537	0	
0.184962	0.0799289	0	
0.210156	-0.0147965	0	
0.251686	0.10803	0.129438	
-0.5	0	0.2	
-0.5	0	0.1	
-0.493378	0.0811073	0.146993	
-0.377341	0.0879068	0.111753	
-0.165601	0.0438592	0.172089	
-0.259075	0.0657144	0.105374	
-0.1493	0.167608	0.126676	
-0.0884785	0.081082	0.106964	
0.5	0	0.1	
0.495293	0.0684459	0.0685965	
0.414991	0.0495125	0	
0.362932	0.098224	0.109262	
-0.5	0	0.2	
-0.325718	-0.0135225	0.164468	
-0.360873	0.0158982	0.275217	
-0.372506	-0.102825	0.21502	
0.2429	-0.437035	0.152631	
0.0952672	-0.342147	0.15717	
0.153466	-0.356896	0.263852	
0.219334	-0.328412	0.103652	
0.358926	-0.0589256	0.5	
0.3	-0.0833333	0.5	
0.28483	-0.03759	0.5	
0.353873	0.0061299	0.416416	
-0.0268842	0.224117	0.253342	
-0.118181	0.0989473	0.251321	
-0.0155726	0.113982	0.279722	
-0.103796	0.164416	0.331112	
0.0589256	0.241074	0.5	
0.0373069	0.315853	0.5	
0.0833333	0.3	0.5	
-0.0163515	0.266982	0.412579	
-0.389036	0.207425	0	
-0.328307	0.16356	0	
-0.318983	0.261743	0	
-0.265951	0.256468	0.111233	
0.0203259	-0.249482	0.251542	
0.00964811	-0.213747	0.128268	
-0.0565919	-0.339726	0.150695	
-0.080828	-0.269765	0.22671	
-0.0925337	-0.196451	0	
-0.0232782	-0.127584	0	
-0.117671	-0.10197	0	
-0.00334623	-0.10275	0.104947	
-0.185212	0.0538339	0.5	
-0.259187	0.0363748	0.408672	
-0.130814	0.0354375	0.417572	
-0.231014	-0.0285751	0.432493	
-0.0810399	-0.493389	0.35285	
-0.0825799	-0.384765	0.390495	
0	-0.5	0.3	
-0.0570812	-0.3559	0.302161	
0.249091	-0.0823301	0.40832	
0.268239	-0.118327	0.326702	
0.163607	-0.084363	0.326696	
0.262136	0.0021711	0.327033	
-0.295688	0.153857	0.172875	
-0.265951	0.256468	0.111233	
-0.1493	0.167608	0.126676	
-0.241404	0.162452	0.0887852	
-0.0295403	0.225144	0	
-0.0606721	0.230593	0.106057	
0.0651412	0.200096	0	
0.0738057	0.28359	0.108069	
0.0401436	0.291204	0	
-0.00982413	0.311992	0.161153	
-0.0606721	0.230593	0.106057	
0.0738057	0.28359	0.108069	
0.0943468	-0.245334	0	
0.201164	-0.273578	0	
0.116361	-0.190469	0.100844	
0.219334	-0.328412	0.103652	
-0.18203	-0.0488646	0.5	
-0.15347	-0.097127	0.5	
-0.229671	-0.108874	0.396367	
-0.134018	-0.125076	0.416643	
0.0853821	-0.492656	0.251348	
0.153466	-0.356896	0.263852	
0.0952672	-0.342147	0.15717	
0.0153009	-0.365787	0.239317	
0.247868	0.146306	0	
0.337634	0.115561	0	
0.300884	0.198715	0	
0.251686	0.10803	0.129438	
0.106066	0.256066	0.5	
0.0589256	0.241074	0.5	
0.0833333	0.3	0.5	
0.135958	0.243685	0.430036	
0.124175	0.0449909	0.5	
0.0953117	-0.0282381	0.401854	
0.0833333	0	0.5	
0.0614383	0.0441646	0.419518	
-0.241074	0.0589256	0.5	
-0.177179	0.127748	0.396718	
-0.259187	0.0363748	0.408672	
-0.268272	0.128138	0.411267	
0.369451	0.195502	0.5	
0.320474	0.196191	0.377567	
0.439458	0.238488	0.424308	
0.352401	0.10935	0.404506	
-0.383333	3.67394e-17	0.5	
-0.434728	9.15966e-17	0.5	
-0.38814	0.0365087	0.390101	
-0.39407	-0.0815537	0.417272	
-0.18468	-0.0140346	0.375736	
-0.0930725	0.0739765	0.352845	
-0.130814	0.0354375	0.417572	
-0.128371	-0.0605284	0.341709	
0.450312	-0.217299	0.354112	
0.429476	-0.256028	0.291579	
0.416747	-0.276265	0.362548	
0.314006	-0.186162	0.367048	
0.114055	0.374109	0	
0.223568	0.323879	0.108427	
0.0594116	0.385605	0.105978	
0.0738057	0.28359	0.108069	
0.0506005	-0.12216	0.5	
0.0135874	-0.118011	0.409404	
0.0589256	-0.0589256	0.5	
0.110665	-0.131179	0.419604	
0.0785366	-0.11627	0.176642	
0.185118	-0.0448541	0.130581	
0.110881	-0.0319284	0.263307	
0.174775	-0.129562	0.177015	
-0.328716	-0.376757	0.253532	
-0.257824	-0.4284	0.204976	
-0.331632	-0.374193	0.165357	
-0.296258	-0.256529	0.211625	
0.174542	-0.227302	0.5	
0.153206	-0.153206	0.5	
0.199592	-0.181859	0.5	
0.163614	-0.249053	0.416633	
-0.153206	0.271058	0.5	
-0.0833333	0.3	0.5	
-0.106066	0.256066	0.5	
-0.181622	0.273954	0.42594	
0.12216	0.350601	0.5	
0.0970926	0.279271	0.373778	
0.177101	0.348186	0.395851	
0.135958	0.243685	0.430036	
-0.000470172	0.0044189	0.383613	
-0.0125395	0.0302731	0.5	
0.0614383	0.0441646	0.419518	
-0.0524491	0.0544183	0.419727	
-0.428104	0.258315	0.196896	
-0.460762	0.19416	0.234059	
-0.295688	0.153857	0.172875	
-0.358997	0.136564	0.272723	
0.268482	0.1106	0.289732	
0.320474	0.196191	0.377567	
0.259229	0.131014	0.416169	
0.352401	0.10935	0.404506	
0.193272	-0.26142	0.329316	
0.25314	-0.310833	0.250522	
0.153466	-0.356896	0.263852	
0.104343	-0.277575	0.292493	
-0.0589256	-0.0589256	0.5	
-0.0581449	-0.152487	0.425037	
-0.0882569	-0.0365572	0.407331	
-0.0182997	-0.049373	0.434403	
0.110881	-0.0319284	0.263307	
0.142415	-0.180509	0.253145	
0.0785366	-0.11627	0.176642	
0.174775	-0.129562	0.177015	
-0.315029	-0.388274	0.0791933	
-0.277785	-0.415735	0.134138	
-0.16153	-0.357052	0.106281	
-0.28242	-0.274225	0.101342	
-0.38814	0.0365087	0.390101	
-0.360873	0.0158982	0.275217	
-0.493012	0.0833019	0.344789	
-0.358997	0.136564	0.272723	
0.249439	-0.196279	0.5	
0.271058	-0.153206	0.5	
0.295465	-0.212132	0.5	
0.249979	-0.247703	0.407586	
-0.0589256	-0.0589256	0.5	
-0.0499791	-0.122616	0.5	
-0.0581449	-0.152487	0.425037	
-0.0182997	-0.049373	0.434403	
-0.229671	-0.108874	0.396367	
-0.134018	-0.125076	0.416643	
-0.18468	-0.0140346	0.375736	
-0.231014	-0.0285751	0.432493	
0.220621	-0.0913842	0.253691	
0.110881	-0.0319284	0.263307	
0.212089	0.020774	0.252242	
0.244062	-0.0339696	0.193164	
0.086989	0.179344	0.400327	
-0.0163515	0.266982	0.412579	
0.0970926	0.279271	0.373778	
0.0303777	0.260127	0.314563	
-0.120748	-0.291511	0.335128	
-0.138366	-0.358353	0.236796	
-0.234283	-0.304583	0.2878	
-0.080828	-0.269765	0.22671	
0.200132	-0.232269	0.163427	
0.0952672	-0.342147	0.15717	
0.153466	-0.356896	0.263852	
0.0986966	-0.244124	0.186079	
-0.138674	0.323797	0	
-0.161163	0.309136	0.149427	
-0.119993	0.246691	0	
-0.0606721	0.230593	0.106057	
0.3168	0.386831	0.395903	
0.25658	0.429146	0.33124	
0.221133	0.265326	0.342623	
0.177101	0.348186	0.395851	
-0.0930725	0.0739765	0.352845	
-0.0882569	-0.0365572	0.407331	
-0.000470172	0.0044189	0.383613	
-0.0524491	0.0544183	0.419727	
0.0913842	0.220621	0.259416	
0.0303777	0.260127	0.314563	
0.14467	0.301705	0.287535	
-0.00163227	0.307964	0.248385	
-0.217356	-0.450285	0.144698	
-0.257824	-0.4284	0.204976	
-0.138366	-0.358353	0.236796	
-0.16153	-0.357052	0.106281	
-0.185212	0.0538339	0.5	
-0.152663	-6.75805e-05	0.5	
-0.216667	3.67394e-17	0.5	
-0.130814	0.0354375	0.417572	
0.249091	-0.0823301	0.40832	
0.353873	0.0061299	0.416416	
0.321349	-0.0500942	0.355813	
0.249486	-0.0108057	0.43277	
-0.444481	-0.228991	0.0919014	
-0.356684	-0.19351	0	
-0.304937	-0.166182	0.150677	
-0.28242	-0.274225	0.101342	
0.183274	0.148555	0.376377	
0.212132	0.128799	0.5	
0.136079	0.0773073	0.413876	
0.259229	0.131014	0.416169	
0.374193	0.331632	0.334643	
0.320474	0.196191	0.377567	
0.415735	0.277785	0.365862	
0.291987	0.28448	0.40616	
0.256554	-0.429162	0.331268	
0.317163	-0.386533	0.299742	
0.25314	-0.310833	0.250522	
0.23026	-0.337515	0.419392	
0.490316	-0.0979281	0.24092	
0.493378	-0.0811073	0.146993	
0.389447	-0.0664451	0.106973	
0.40447	-0.0146922	0.243912	
-0.193999	-0.271016	0.175767	
-0.146435	-0.19403	0.261638	
-0.0992467	-0.239425	0.125263	
-0.206213	-0.186333	0.106781	
0.321456	-0.142755	0.153578	
0.300325	-0.0288408	0.258872	
0.332005	0.00713037	0.169463	
0.244062	-0.0339696	0.193164	
0.268482	0.1106	0.289732	
0.300325	-0.0288408	0.258872	
0.380516	0.0520569	0.316102	
0.262136	0.0021711	0.327033	
0.241074	0.0589256	0.5	
0.184661	0.0531453	0.5	
0.212132	0.128799	0.5	
0.259229	0.131014	0.416169	
0.0589256	-0.358926	0.5	
0.12216	-0.350601	0.5	
0.121351	-0.418264	0.5	
0.135438	-0.346064	0.384448	
0.249091	-0.0823301	0.40832	
0.163607	-0.084363	0.326696	
0.184555	5.29963e-05	0.359326	
0.262136	0.0021711	0.327033	
0.153328	0.47591	0.0923699	
0.202324	0.378521	0	
0.235698	0.440961	0.068569	
0.223568	0.323879	0.108427	
0.124175	0.0449909	0.5	
0.0953117	-0.0282381	0.401854	
0.0614383	0.0441646	0.419518	
0.179502	0.0181689	0.432699	
-0.386792	-0.316847	0.301384	
-0.338135	-0.204677	0.398089	
-0.386476	-0.317233	0.409527	
-0.250192	-0.304018	0.405469	
-0.085688	-0.137167	0.16869	
-0.202717	-0.0800005	0.134359	
-0.206213	-0.186333	0.106781	
-0.237359	-0.176563	0.223722	
0.268482	0.1106	0.289732	
0.212089	0.020774	0.252242	
0.14675	0.128723	0.276074	
0.189688	0.149534	0.191539	
-0.193999	-0.271016	0.175767	
-0.234283	-0.304583	0.2878	
-0.138366	-0.358353	0.236796	
-0.080828	-0.269765	0.22671	
0.460762	-0.19416	0.234059	
0.321456	-0.142755	0.153578	
0.428104	-0.258315	0.196896	
0.361187	-0.127724	0.273645	
1.83697e-17	0.383333	0.5	
6.08826e-17	0.43599	0.5	
0.0465403	0.431857	0.5	
0.0203259	0.350518	0.403169	
0.199592	0.242405	0.5	
0.212132	0.295465	0.5	
0.220138	0.220062	0.417726	
0.135958	0.243685	0.430036	
-0.16685	0.0883447	0	
-0.237047	0.0201392	0	
-0.142648	-0.00714059	0	
-0.259075	0.0657144	0.105374	
0.200132	-0.232269	0.163427	
0.268117	-0.201453	0.257301	
0.193272	-0.26142	0.329316	
0.25314	-0.310833	0.250522	
-0.000470172	0.0044189	0.383613	
-0.0882569	-0.0365572	0.407331	
-0.0930725	0.0739765	0.352845	
-0.0531387	-0.0402198	0.321272	
0.128799	-0.212132	0.5	
0.0848044	-0.241311	0.380971	
0.110665	-0.131179	0.419604	
0.163614	-0.249053	0.416633	
0.0953117	-0.0282381	0.401854	
0.0614383	0.0441646	0.419518	
-0.000470172	0.0044189	0.383613	
-0.0182997	-0.049373	0.434403	
-0.00982413	0.311992	0.161153	
0.0594116	0.385605	0.105978	
0.0153159	0.363557	0	
-0.0728697	0.385983	0.102817	
0.212132	0.295465	0.5	
0.177101	0.348186	0.395851	
0.220138	0.220062	0.417726	
0.135958	0.243685	0.430036	
0.415735	0.277785	0.365862	
0.320474	0.196191	0.377567	
0.374193	0.331632	0.334643	
0.308855	0.242117	0.27439	
-0.220621	-0.0913842	0.273465	
-0.246812	0.00918153	0.237581	
-0.325718	-0.0135225	0.164468	
-0.372506	-0.102825	0.21502	
0.212132	0.128799	0.5	
0.153206	0.153206	0.5	
0.174542	0.196962	0.5	
0.183274	0.148555	0.376377	
0.268482	0.1106	0.289732	
0.189688	0.149534	0.191539	
0.342141	0.162954	0.200127	
0.276673	0.0689246	0.208494	
0.153206	-0.153206	0.5	
0.110665	-0.131179	0.419604	
0.186731	-0.150807	0.387359	
0.163614	-0.249053	0.416633	
-0.429476	0.256028	0.291579	
-0.358997	0.136564	0.272723	
-0.428104	0.258315	0.196896	
-0.316792	0.255444	0.314661	
-0.345553	0.109975	0.5	
-0.332155	0.186259	0.378016	
-0.334293	0.161532	0.5	
-0.268272	0.128138	0.411267	
0.241074	0.0589256	0.5	
0.212132	0.128799	0.5	
0.256066	0.106066	0.5	
0.259229	0.131014	0.416169	
0.0594116	0.385605	0.105978	
-0.0728697	0.385983	0.102817	
-0.00982413	0.311992	0.161153	
-0.0333766	0.391369	0.240112	
0.124175	0.0449909	0.5	
0.0833333	0	0.5	
0.0953117	-0.0282381	0.401854	
0.179502	0.0181689	0.432699	
-0.185212	0.0538339	0.5	
-0.130814	0.0354375	0.417572	
-0.216667	3.67394e-17	0.5	
-0.231014	-0.0285751	0.432493	
-0.0882569	-0.0365572	0.407331	
-0.0930725	0.0739765	0.352845	
-0.0531387	-0.0402198	0.321272	
-0.128371	-0.0605284	0.341709	
0.118934	-0.0478046	0.5	
0.104605	-0.104521	0.5	
0.0953117	-0.0282381	0.401854	
0.110665	-0.131179	0.419604	
-0.3	-0.0833333	0.5	
-0.241074	-0.0589256	0.5	
-0.256066	-0.106066	0.5	
-0.231014	-0.0285751	0.432493	
0.174678	0.468495	0.317109	
0.14467	0.301705	0.287535	
0.177101	0.348186	0.395851	
0.098227	0.400612	0.372757	
-0.0328721	-0.370689	0	
-0.0565919	-0.339726	0.150695	
-0.0638367	-0.295761	0	
-0.069553	-0.399585	0.0805589	
0.0373069	0.0158534	0.5	
-0.000470172	0.0044189	0.383613	
-0.0125395	0.0302731	0.5	
0.0614383	0.0441646	0.419518	
0.2429	-0.437035	0.152631	
0.219334	-0.328412	0.103652	
0.153466	-0.356896	0.263852	
0.25314	-0.310833	0.250522	
-0.436811	0.243302	0.0936268	
-0.38078	0.324048	0.150149	
-0.428104	0.258315	0.196896	
-0.265951	0.256468	0.111233	
-0.2429	0.437035	0.152631	
-0.161163	0.309136	0.149427	
-0.317319	0.386405	0.201487	
-0.265951	0.256468	0.111233	
0.0153159	0.363557	0	
-0.00982413	0.311992	0.161153	
0.0401436	0.291204	0	
0.0738057	0.28359	0.108069	
-0.295465	-0.212132	0.5	
-0.306482	-0.128449	0.42688	
-0.271058	-0.153206	0.5	
-0.194749	-0.171788	0.429088	
0.316847	0.386792	0.198616	
0.239078	0.233865	0.176769	
0.380873	0.323938	0.152261	
0.234881	0.32259	0.246366	
0.0401436	0.291204	0	
-0.00982413	0.311992	0.161153	
-0.0555676	0.325574	0	
-0.0606721	0.230593	0.106057	
0.0589256	-0.0589256	0.5	
0.0953117	-0.0282381	0.401854	
0.0135874	-0.118011	0.409404	
-0.0182997	-0.049373	0.434403	
0.0135874	-0.118011	0.409404	
0.0387655	-0.0479803	0.318584	
-0.0531387	-0.0402198	0.321272	
-0.0182997	-0.049373	0.434403	
0.271058	-0.153206	0.5	
0.314006	-0.186162	0.367048	
0.295465	-0.212132	0.5	
0.249979	-0.247703	0.407586	
-0.233647	0.26032	0.360484	
-0.144981	0.358558	0.378678	
-0.123171	0.237068	0.386906	
-0.144119	0.318458	0.266738	
-0.233647	0.26032	0.360484	
-0.144119	0.318458	0.266738	
-0.123171	0.237068	0.386906	
-0.0968356	0.250534	0.302469	
0.241074	0.0589256	0.5	
0.259229	0.131014	0.416169	
0.278485	0.0481879	0.395453	
0.179502	0.0181689	0.432699	
-0.323059	-0.0556697	0.363619	
-0.372506	-0.102825	0.21502	
-0.329023	-0.172142	0.292634	
-0.402728	-0.0701503	0.304716	
0.321349	-0.0500942	0.355813	
0.361187	-0.127724	0.273645	
0.314006	-0.186162	0.367048	
0.268239	-0.118327	0.326702	
-0.085688	-0.137167	0.16869	
-0.080828	-0.269765	0.22671	
0.00964811	-0.213747	0.128268	
-0.0547597	-0.189651	0.263151	
0.0248177	-0.313374	0	
0.00183684	-0.222331	0	
-0.0638367	-0.295761	0	
0.00964811	-0.213747	0.128268	
-0.0833333	0.3	0.5	
-0.12216	0.350601	0.5	
-0.144981	0.358558	0.378678	
-0.181622	0.273954	0.42594	
-0.000470172	0.0044189	0.383613	
-0.0531387	-0.0402198	0.321272	
0.0387655	-0.0479803	0.318584	
-0.0182997	-0.049373	0.434403	
-0.105887	-0.105887	0.5	
-0.134018	-0.125076	0.416643	
-0.0882569	-0.0365572	0.407331	
-0.0581449	-0.152487	0.425037	
-0.469621	0.171627	0.160116	
-0.295688	0.153857	0.172875	
-0.460762	0.19416	0.234059	
-0.358997	0.136564	0.272723	
0.193272	-0.26142	0.329316	
0.268117	-0.201453	0.257301	
0.142415	-0.180509	0.253145	
0.134803	-0.19156	0.335814	
0.220621	-0.0913842	0.253691	
0.212089	0.020774	0.252242	
0.163607	-0.084363	0.326696	
0.262136	0.0021711	0.327033	
-0.082983	0.493066	0.348347	
-0.063352	0.397195	0.411842	
-0.144981	0.358558	0.378678	
-0.0106277	0.407378	0.33212	
0.14072	-0.0839746	0	
0.0983144	-0.0718988	0.0894985	
0.116361	-0.190469	0.100844	
0.235288	-0.159577	0.0981964	
0.106066	-0.256066	0.5	
0.0848044	-0.241311	0.380971	
0.128799	-0.212132	0.5	
0.163614	-0.249053	0.416633	
0.0734599	0.0912867	0.346892	
0.086989	0.179344	0.400327	
0.183274	0.148555	0.376377	
0.136738	0.210835	0.334534	
-0.048473	-0.0328568	0	
0.0395065	-0.000100258	0.126114	
0.0209546	0.0362755	0	
-0.0801458	-0.0255891	0.118207	
-0.00154855	-0.114907	0.260366	
0.0387655	-0.0479803	0.318584	
-0.0531387	-0.0402198	0.321272	
0.000455301	-0.171885	0.334296	
-0.249722	-0.227302	0.5	
-0.295465	-0.212132	0.5	
-0.271058	-0.153206	0.5	
-0.194749	-0.171788	0.429088	
-0.154067	0.200523	0.255267	
-0.265452	0.263294	0.235043	
-0.295688	0.153857	0.172875	
-0.219759	0.108564	0.237237	
-0.317319	0.386405	0.201487	
-0.2429	0.437035	0.152631	
-0.247023	0.434718	0.250558	
-0.161163	0.309136	0.149427	
-0.0555676	0.325574	0	
-0.00982413	0.311992	0.161153	
0.0153159	0.363557	0	
-0.0728697	0.385983	0.102817	
0.380516	0.0520569	0.316102	
0.300325	-0.0288408	0.258872	
0.268482	0.1106	0.289732	
0.276673	0.0689246	0.208494	
-0.444481	-0.228991	0.0919014	
-0.304937	-0.166182	0.150677	
-0.429146	-0.25658	0.16876	
-0.28242	-0.274225	0.101342	
0.14072	-0.0839746	0	
0.185118	-0.0448541	0.130581	
0.0983144	-0.0718988	0.0894985	
0.235288	-0.159577	0.0981964	
-0.142648	-0.00714059	0	
-0.237047	0.0201392	0	
-0.211369	-0.0761151	0	
-0.202717	-0.0800005	0.134359	
0.184555	5.29963e-05	0.359326	
0.163607	-0.084363	0.326696	
0.212089	0.020774	0.252242	
0.262136	0.0021711	0.327033	
-0.157073	0.0991372	0.5	
-0.177179	0.127748	0.396718	
-0.0835252	0.135066	0.417682	
-0.130814	0.0354375	0.417572	
0.268117	-0.201453	0.257301	
0.361187	-0.127724	0.273645	
0.220621	-0.0913842	0.253691	
0.268239	-0.118327	0.326702	
-0.469621	0.171627	0.160116	
-0.436811	0.243302	0.0936268	
-0.295688	0.153857	0.172875	
-0.377341	0.0879068	0.111753	
-0.0810399	-0.493389	0.35285	
0	-0.5	0.4	
0	-0.5	0.3	
0.0212569	-0.409526	0.42172	
-0.278713	-0.14304	0	
-0.211369	-0.0761151	0	
-0.302044	-0.0506462	0	
-0.202717	-0.0800005	0.134359	
-0.295688	0.153857	0.172875	
-0.358997	0.136564	0.272723	
-0.469621	0.171627	0.160116	
-0.377341	0.0879068	0.111753	
0.373926	0.198925	0	
0.414183	0.131147	0	
0.478555	0.144862	0.0783483	
0.362932	0.098224	0.109262	
0.132803	0.332442	0.177	
0.14467	0.301705	0.287535	
0.0693948	0.36903	0.285155	
-0.00163227	0.307964	0.248385	
-0.0125395	0.0302731	0.5	
0	0.0833333	0.5	
0.0614383	0.0441646	0.419518	
-0.0524491	0.0544183	0.419727	
0.186731	-0.150807	0.387359	
0.249091	-0.0823301	0.40832	
0.314006	-0.186162	0.367048	
0.268239	-0.118327	0.326702	
0.221409	0.189735	0.5	
0.212132	0.128799	0.5	
0.220138	0.220062	0.417726	
0.259229	0.131014	0.416169	
0.0589256	-0.241074	0.5	
-0.0254015	-0.238675	0.394183	
0.0848044	-0.241311	0.380971	
0.0220588	-0.302368	0.419947	
0.490316	-0.0979281	0.24092	
0.493378	-0.0811073	0.146993	
0.469621	-0.171627	0.160116	
0.389447	-0.0664451	0.106973	
0.220621	-0.0913842	0.253691	
0.321456	-0.142755	0.153578	
0.174775	-0.129562	0.177015	
0.244062	-0.0339696	0.193164	
-0.331361	-0.272953	0	
-0.356684	-0.19351	0	
-0.444481	-0.228991	0.0919014	
-0.28242	-0.274225	0.101342	
0.295465	0.212132	0.5	
0.220138	0.220062	0.417726	
0.320474	0.196191	0.377567	
0.259229	0.131014	0.416169	
0.0135874	-0.118011	0.409404	
-0.0531387	-0.0402198	0.321272	
-0.0814439	-0.125985	0.343547	
-0.0182997	-0.049373	0.434403	
0.153206	-0.153206	0.5	
0.128799	-0.212132	0.5	
0.110665	-0.131179	0.419604	
0.163614	-0.249053	0.416633	
-0.128799	0.212132	0.5	
-0.0835252	0.135066	0.417682	
-0.123171	0.237068	0.386906	
-0.0612159	0.20738	0.430983	
-0.302044	-0.0506462	0	
-0.325718	-0.0135225	0.164468	
-0.337562	0.0547633	0	
-0.382808	-0.0894032	0.103515	
-0.0565919	-0.339726	0.150695	
0.0153009	-0.365787	0.239317	
0	-0.5	0.2	
0.0206176	-0.395667	0.103453	
-0.202855	-0.234529	0.5	
-0.249722	-0.227302	0.5	
-0.2234	-0.212186	0.369318	
-0.250192	-0.304018	0.405469	
0.114055	0.374109	0	
0.153328	0.47591	0.0923699	
0.0594116	0.385605	0.105978	
0.223568	0.323879	0.108427	
-0.325718	-0.0135225	0.164468	
-0.259075	0.0657144	0.105374	
-0.295688	0.153857	0.172875	
-0.246812	0.00918153	0.237581	
-0.168688	-0.281701	0	
-0.16153	-0.357052	0.106281	
-0.193999	-0.271016	0.175767	
-0.28242	-0.274225	0.101342	
-0.3	-0.0833333	0.5	
-0.256066	-0.106066	0.5	
-0.306482	-0.128449	0.42688	
-0.231014	-0.0285751	0.432493	
0.212132	0.128799	0.5	
0.183274	0.148555	0.376377	
0.174542	0.196962	0.5	
0.220138	0.220062	0.417726	
0.380207	-0.19708	0	
0.436811	-0.243302	0.0936268	
0.321456	-0.142755	0.153578	
0.302277	-0.248662	0.113737	
-0.146435	-0.19403	0.261638	
-0.234283	-0.304583	0.2878	
-0.2234	-0.212186	0.369318	
-0.237359	-0.176563	0.223722	
-0.165601	0.0438592	0.172089	
-0.259075	0.0657144	0.105374	
-0.202717	-0.0800005	0.134359	
-0.246812	0.00918153	0.237581	
0.114055	0.374109	0	
0.202324	0.378521	0	
0.153328	0.47591	0.0923699	
0.223568	0.323879	0.108427	
0.163607	-0.084363	0.326696	
0.268239	-0.118327	0.326702	
0.220621	-0.0913842	0.253691	
0.262136	0.0021711	0.327033	
-0.0268842	0.224117	0.253342	
-0.154067	0.200523	0.255267	
-0.118181	0.0989473	0.251321	
-0.103796	0.164416	0.331112	
0.152693	-0.00394448	0.5	
0.0953117	-0.0282381	0.401854	
0.0833333	0	0.5	
0.179502	0.0181689	0.432699	
0.121351	-0.418264	0.5	
0.135438	-0.346064	0.384448	
0.147585	-0.477722	0.416442	
0.0212569	-0.409526	0.42172	
0.185118	-0.0448541	0.130581	
0.0983144	-0.0718988	0.0894985	
0.0395065	-0.000100258	0.126114	
0.126165	0.019123	0.0935695	
0.0785366	-0.11627	0.176642	
0.00964811	-0.213747	0.128268	
0.0986966	-0.244124	0.186079	
0.0592568	-0.173932	0.272176	
0.174542	0.196962	0.5	
0.220138	0.220062	0.417726	
0.183274	0.148555	0.376377	
0.135958	0.243685	0.430036	
-0.193999	-0.271016	0.175767	
-0.16153	-0.357052	0.106281	
-0.168688	-0.281701	0	
-0.0992467	-0.239425	0.125263	
-0.436811	0.243302	0.0936268	
-0.428104	0.258315	0.196896	
-0.469621	0.171627	0.160116	
-0.295688	0.153857	0.172875	
-0.212132	0.128799	0.5	
-0.185212	0.0538339	0.5	
-0.241074	0.0589256	0.5	
-0.177179	0.127748	0.396718	
-0.18203	-0.0488646	0.5	
-0.134018	-0.125076	0.416643	
-0.229671	-0.108874	0.396367	
-0.231014	-0.0285751	0.432493	
0.0506005	-0.12216	0.5	
0.0589256	-0.0589256	0.5	
0.104605	-0.104521	0.5	
0.110665	-0.131179	0.419604	
-0.048473	-0.0328568	0	
0.0209546	0.0362755	0	
-0.0734441	0.0616893	0	
-0.0801458	-0.0255891	0.118207	
0.25658	0.429146	0.33124	
0.317206	0.386498	0.299678	
0.3168	0.386831	0.395903	
0.221133	0.265326	0.342623	
0.4284	0.257824	0.295024	
0.320474	0.196191	0.377567	
0.415735	0.277785	0.365862	
0.308855	0.242117	0.27439	
0.239078	0.233865	0.176769	
0.234881	0.32259	0.246366	
0.316847	0.386792	0.198616	
0.223568	0.323879	0.108427	
-0.157073	0.0991372	0.5	
-0.185212	0.0538339	0.5	
-0.177179	0.127748	0.396718	
-0.130814	0.0354375	0.417572	
0.0589256	-0.358926	0.5	
0.135438	-0.346064	0.384448	
0.121351	-0.418264	0.5	
0.0212569	-0.409526	0.42172	
-0.214341	0.273759	0	
-0.138674	0.323797	0	
-0.201912	0.369986	0	
-0.161163	0.309136	0.149427	
0.380516	0.0520569	0.316102	
0.268482	0.1106	0.289732	
0.374736	0.148861	0.30011	
0.276673	0.0689246	0.208494	
0.0589256	-0.0589256	0.5	
0.0953117	-0.0282381	0.401854	
0.104605	-0.104521	0.5	
0.110665	-0.131179	0.419604	
-0.469621	0.171627	0.160116	
-0.428104	0.258315	0.196896	
-0.460762	0.19416	0.234059	
-0.295688	0.153857	0.172875	
0.4284	0.257824	0.295024	
0.450285	0.217356	0.355302	
0.415735	0.277785	0.365862	
0.320474	0.196191	0.377567	
0.0819669	-0.126701	0.339809	
0.0953117	-0.0282381	0.401854	
0.163607	-0.084363	0.326696	
0.0387655	-0.0479803	0.318584	
0.12216	0.350601	0.5	
0.0203259	0.350518	0.403169	
0.0589256	0.358926	0.5	
0.098227	0.400612	0.372757	
-0.328307	0.16356	0	
-0.295688	0.153857	0.172875	
-0.377341	0.0879068	0.111753	
-0.241404	0.162452	0.0887852	
-0.2234	-0.212186	0.369318	
-0.329023	-0.172142	0.292634	
-0.220621	-0.0913842	0.273465	
-0.237359	-0.176563	0.223722	
-0.0833333	0.3	0.5	
-0.144981	0.358558	0.378678	
-0.12216	0.350601	0.5	
-0.063352	0.397195	0.411842	
-0.0638367	-0.295761	0	
-0.16153	-0.357052	0.106281	
-0.0565919	-0.339726	0.150695	
-0.0992467	-0.239425	0.125263	
-0.0882569	-0.0365572	0.407331	
-0.0814439	-0.125985	0.343547	
-0.0531387	-0.0402198	0.321272	
-0.0182997	-0.049373	0.434403	
0.268482	0.1106	0.289732	
0.259229	0.131014	0.416169	
0.278485	0.0481879	0.395453	
0.352401	0.10935	0.404506	
-0.16685	0.0883447	0	
-0.259075	0.0657144	0.105374	
-0.1493	0.167608	0.126676	
-0.241404	0.162452	0.0887852	
0.0833333	-0.3	0.5	
0.135438	-0.346064	0.384448	
0.0848044	-0.241311	0.380971	
0.163614	-0.249053	0.416633	
-0.174738	0.468473	0.317184	
-0.144119	0.318458	0.266738	
-0.0853821	0.492656	0.251348	
-0.0333766	0.391369	0.240112	
0.0734599	0.0912867	0.346892	
0.183274	0.148555	0.376377	
0.14675	0.128723	0.276074	
0.136738	0.210835	0.334534	
0.380516	0.0520569	0.316102	
0.39698	0.0776459	0.202579	
0.300325	-0.0288408	0.258872	
0.276673	0.0689246	0.208494	
0.361187	-0.127724	0.273645	
0.392836	-0.0823347	0.412468	
0.493012	-0.0833019	0.344789	
0.411179	-0.0301121	0.336439	
0.0589256	-0.241074	0.5	
0.0519196	-0.186143	0.5	
0.128799	-0.212132	0.5	
0.0848044	-0.241311	0.380971	
0.380873	0.323938	0.152261	
0.428195	0.258165	0.201755	
0.308855	0.242117	0.27439	
0.325166	0.230418	0.10487	
-0.212132	0.128799	0.5	
-0.177179	0.127748	0.396718	
-0.241074	0.0589256	0.5	
-0.268272	0.128138	0.411267	
-0.0112682	-5.37735e-05	0.248563	
-0.0531387	-0.0402198	0.321272	
-0.000470172	0.0044189	0.383613	
-0.0139985	0.0766371	0.354232	
-0.268448	0.0761744	0.322026	
-0.259187	0.0363748	0.408672	
-0.32522	-0.00468432	0.424344	
-0.259249	-0.00709893	0.335751	
0.135296	0.0693292	0.185912	
0.110881	-0.0319284	0.263307	
0.212089	0.020774	0.252242	
0.0661482	0.0500773	0.26338	
-0.444481	-0.228991	0.0919014	
-0.304937	-0.166182	0.150677	
-0.356684	-0.19351	0	
-0.382808	-0.0894032	0.103515	
0.163607	-0.084363	0.326696	
0.0387655	-0.0479803	0.318584	
0.0953117	-0.0282381	0.401854	
0.107111	0.0161028	0.331802	
-0.386792	-0.316847	0.301384	
-0.323938	-0.380873	0.347739	
-0.234283	-0.304583	0.2878	
-0.250192	-0.304018	0.405469	
0.0230591	-0.35567	0.355674	
-0.0254015	-0.238675	0.394183	
-0.0570812	-0.3559	0.302161	
-0.0611092	-0.309537	0.420103	
-0.471122	0.167464	0.300106	
-0.476132	0.152637	0.402329	
-0.493012	0.0833019	0.344789	
-0.358997	0.136564	0.272723	
-0.0243888	0.144613	0.165538	
-0.118181	0.0989473	0.251321	
-0.1493	0.167608	0.126676	
-0.0884785	0.081082	0.106964	
0.221409	-0.234529	0.5	
0.174542	-0.227302	0.5	
0.199592	-0.181859	0.5	
0.163614	-0.249053	0.416633	
0.212132	-0.128799	0.5	
0.271058	-0.153206	0.5	
0.186731	-0.150807	0.387359	
0.249091	-0.0823301	0.40832	
-0.0977967	-0.490343	0.258774	
0	-0.5	0.2	
-0.0833019	-0.493012	0.155211	
0.0153009	-0.365787	0.239317	
0.268117	-0.201453	0.257301	
0.25314	-0.310833	0.250522	
0.377032	-0.3284	0.243217	
0.283545	-0.259908	0.324527	
0.0153159	0.363557	0	
-0.0555676	0.325574	0	
0.0401436	0.291204	0	
-0.00982413	0.311992	0.161153	
0.118934	-0.0478046	0.5	
0.104605	-0.104521	0.5	
0.0589256	-0.0589256	0.5	
0.0953117	-0.0282381	0.401854	
-0.389036	0.207425	0	
-0.478516	0.14499	0.0762896	
-0.404541	0.126945	0	
-0.377341	0.0879068	0.111753	
-0.250192	-0.304018	0.405469	
-0.117884	-0.234333	0.40948	
-0.153206	-0.271058	0.5	
-0.162242	-0.337279	0.406019	
0.268482	0.1106	0.289732	
0.259229	0.131014	0.416169	
0.320474	0.196191	0.377567	
0.248284	0.183853	0.331313	
0.0943468	-0.245334	0	
0.112799	-0.33356	0	
0.201164	-0.273578	0	
0.219334	-0.328412	0.103652	
0.431857	0.0465403	0.5	
0.353873	0.0061299	0.416416	
0.358926	0.0589256	0.5	
0.352401	0.10935	0.404506	
0.0853821	-0.492656	0.251348	
0.0952672	-0.342147	0.15717	
0.0807376	-0.493438	0.154216	
0.0153009	-0.365787	0.239317	
0.082983	-0.493066	0.348347	
0.0230591	-0.35567	0.355674	
0.0212569	-0.409526	0.42172	
0.0961802	-0.403925	0.321644	
-0.229671	-0.108874	0.396367	
-0.306482	-0.128449	0.42688	
-0.256066	-0.106066	0.5	
-0.231014	-0.0285751	0.432493	
0.114055	0.374109	0	
0.189613	0.313662	0	
0.223568	0.323879	0.108427	
0.0738057	0.28359	0.108069	
-0.238488	-0.439458	0.0756919	
-0.315029	-0.388274	0.0791933	
-0.277785	-0.415735	0.134138	
-0.16153	-0.357052	0.106281	
-0.153206	-0.271058	0.5	
-0.117884	-0.234333	0.40948	
-0.106066	-0.256066	0.5	
-0.0611092	-0.309537	0.420103	
0.0807376	-0.493438	0.154216	
0.0153009	-0.365787	0.239317	
0.0952672	-0.342147	0.15717	
0.0206176	-0.395667	0.103453	
0.0519196	-0.186143	0.5	
0.0135874	-0.118011	0.409404	
0.0506005	-0.12216	0.5	
0.110665	-0.131179	0.419604	
0.316847	0.386792	0.198616	
0.380873	0.323938	0.152261	
0.376757	0.328716	0.246468	
0.234881	0.32259	0.246366	
-0.0853821	0.492656	0.251348	
-0.144119	0.318458	0.266738	
-0.16873	0.47067	0.201799	
-0.0333766	0.391369	0.240112	
-0.302044	-0.0506462	0	
-0.211369	-0.0761151	0	
-0.237047	0.0201392	0	
-0.202717	-0.0800005	0.134359	
0.220621	-0.0913842	0.253691	
0.361187	-0.127724	0.273645	
0.300325	-0.0288408	0.258872	
0.268239	-0.118327	0.326702	
0.212132	-0.128799	0.5	
0.256066	-0.106066	0.5	
0.271058	-0.153206	0.5	
0.249091	-0.0823301	0.40832	
0.124175	0.0449909	0.5	
0.0614383	0.0441646	0.419518	
0.136079	0.0773073	0.413876	
0.179502	0.0181689	0.432699	
6.08826e-17	0.43599	0.5	
0.0203259	0.350518	0.403169	
1.83697e-17	0.383333	0.5	
-0.063352	0.397195	0.411842	
-0.490316	0.0979281	0.24092	
-0.469621	0.171627	0.160116	
-0.358997	0.136564	0.272723	
-0.377341	0.0879068	0.111753	
0.174678	0.468495	0.317109	
0.0693948	0.36903	0.285155	
0.14467	0.301705	0.287535	
0.098227	0.400612	0.372757	
-0.5	0	0.2	
-0.372506	-0.102825	0.21502	
-0.360873	0.0158982	0.275217	
-0.402728	-0.0701503	0.304716	
-0.331632	-0.374193	0.165357	
-0.296258	-0.256529	0.211625	
-0.193999	-0.271016	0.175767	
-0.28242	-0.274225	0.101342	
-0.0589256	0.358926	0.5	
-0.0163515	0.266982	0.412579	
-0.0833333	0.3	0.5	
-0.063352	0.397195	0.411842	
-0.268448	0.0761744	0.322026	
-0.259187	0.0363748	0.408672	
-0.38814	0.0365087	0.390101	
-0.32522	-0.00468432	0.424344	
-0.157073	0.0991372	0.5	
-0.106984	0.108603	0.5	
-0.12216	0.0506005	0.5	
-0.130814	0.0354375	0.417572	
0.313791	-0.154465	0	
0.380207	-0.19708	0	
0.321456	-0.142755	0.153578	
0.302277	-0.248662	0.113737	
0.374193	0.331632	0.334643	
0.320474	0.196191	0.377567	
0.291987	0.28448	0.40616	
0.308855	0.242117	0.27439	
-0.185212	0.0538339	0.5	
-0.216667	3.67394e-17	0.5	
-0.259187	0.0363748	0.408672	
-0.231014	-0.0285751	0.432493	
-0.123171	0.237068	0.386906	
-0.0163515	0.266982	0.412579	
-0.0833333	0.3	0.5	
-0.0612159	0.20738	0.430983	
0.212132	-0.128799	0.5	
0.271058	-0.153206	0.5	
0.249439	-0.196279	0.5	
0.186731	-0.150807	0.387359	
0.380873	0.323938	0.152261	
0.239078	0.233865	0.176769	
0.316847	0.386792	0.198616	
0.223568	0.323879	0.108427	
0.332005	0.00713037	0.169463	
0.300325	-0.0288408	0.258872	
0.39698	0.0776459	0.202579	
0.276673	0.0689246	0.208494	
0.495101	0.0698189	0.427621	
0.493012	0.0833019	0.344789	
0.380516	0.0520569	0.316102	
0.352401	0.10935	0.404506	
-0.138674	0.323797	0	
-0.214341	0.273759	0	
-0.119993	0.246691	0	
-0.161163	0.309136	0.149427	
-0.243391	-0.436762	0.403062	
-0.258165	-0.428195	0.298245	
-0.250192	-0.304018	0.405469	
-0.162242	-0.337279	0.406019	
0.450312	-0.217299	0.354112	
0.314006	-0.186162	0.367048	
0.416747	-0.276265	0.362548	
0.377058	-0.167276	0.424233	
0.0819669	-0.126701	0.339809	
0.0135874	-0.118011	0.409404	
0.0953117	-0.0282381	0.401854	
0.0387655	-0.0479803	0.318584	
0.212132	0.295465	0.5	
0.291987	0.28448	0.40616	
0.271058	0.271058	0.5	
0.220138	0.220062	0.417726	
-0.142648	-0.00714059	0	
-0.211369	-0.0761151	0	
-0.117671	-0.10197	0	
-0.202717	-0.0800005	0.134359	
-0.0930725	0.0739765	0.352845	
-0.18468	-0.0140346	0.375736	
-0.127176	-0.00609761	0.272433	
-0.128371	-0.0605284	0.341709	
0.212089	0.020774	0.252242	
0.189688	0.149534	0.191539	
0.268482	0.1106	0.289732	
0.276673	0.0689246	0.208494	
-0.1493	0.167608	0.126676	
-0.259075	0.0657144	0.105374	
-0.165601	0.0438592	0.172089	
-0.219759	0.108564	0.237237	
0.0589256	-0.358926	0.5	
0.135438	-0.346064	0.384448	
0.0212569	-0.409526	0.42172	
0.0220588	-0.302368	0.419947	
0.0153009	-0.365787	0.239317	
0.0986966	-0.244124	0.186079	
0.0203259	-0.249482	0.251542	
0.104343	-0.277575	0.292493	
0.380873	0.323938	0.152261	
0.325166	0.230418	0.10487	
0.239078	0.233865	0.176769	
0.223568	0.323879	0.108427	
0.112799	-0.33356	0	
0.0952672	-0.342147	0.15717	
0.0248177	-0.313374	0	
0.0206176	-0.395667	0.103453	
-0.00982413	0.311992	0.161153	
-0.0333766	0.391369	0.240112	
-0.0983525	0.249793	0.193206	
-0.00163227	0.307964	0.248385	
0.0953117	-0.0282381	0.401854	
0.0135874	-0.118011	0.409404	
0.0819669	-0.126701	0.339809	
0.110665	-0.131179	0.419604	
0.0833333	-0.3	0.5	
0.0848044	-0.241311	0.380971	
0.135438	-0.346064	0.384448	
0.0220588	-0.302368	0.419947	
-0.193999	-0.271016	0.175767	
-0.146435	-0.19403	0.261638	
-0.206213	-0.186333	0.106781	
-0.237359	-0.176563	0.223722	
-0.429146	-0.25658	0.16876	
-0.304937	-0.166182	0.150677	
-0.296258	-0.256529	0.211625	
-0.28242	-0.274225	0.101342	
-0.377032	0.3284	0.243217	
-0.428104	0.258315	0.196896	
-0.265452	0.263294	0.235043	
-0.316792	0.255444	0.314661	
-0.0807376	0.493438	0.154216	
-0.16873	0.47067	0.201799	
-0.0728697	0.385983	0.102817	
-0.0333766	0.391369	0.240112	
-0.249722	-0.227302	0.5	
-0.338135	-0.204677	0.398089	
-0.2234	-0.212186	0.369318	
-0.250192	-0.304018	0.405469	
0.295465	0.212132	0.5	
0.291987	0.28448	0.40616	
0.320474	0.196191	0.377567	
0.220138	0.220062	0.417726	
-0.123171	0.237068	0.386906	
-0.144119	0.318458	0.266738	
-0.144981	0.358558	0.378678	
-0.0968356	0.250534	0.302469	
0.268482	0.1106	0.289732	
0.276673	0.0689246	0.208494	
0.300325	-0.0288408	0.258872	
0.262136	0.0021711	0.327033	
0.268482	0.1106	0.289732	
0.14675	0.128723	0.276074	
0.212089	0.020774	0.252242	
0.196702	0.0791686	0.326444	
-0.0555676	0.325574	0	
-0.00982413	0.311992	0.161153	
-0.0728697	0.385983	0.102817	
-0.0606721	0.230593	0.106057	
-0.0814439	-0.125985	0.343547	
-0.00154855	-0.114907	0.260366	
-0.0531387	-0.0402198	0.321272	
0.000455301	-0.171885	0.334296	
-0.152663	-6.75805e-05	0.5	
-0.18468	-0.0140346	0.375736	
-0.18203	-0.0488646	0.5	
-0.231014	-0.0285751	0.432493	
0.5	0	0.1	
0.493389	0.0810399	0.14715	
0.495293	0.0684459	0.0685965	
0.362932	0.098224	0.109262	
0.0833333	0	0.5	
0.0589256	-0.0589256	0.5	
0.0373069	0.0158534	0.5	
0.0953117	-0.0282381	0.401854	
0.110881	-0.0319284	0.263307	
0.212089	0.020774	0.252242	
0.184555	5.29963e-05	0.359326	
0.163607	-0.084363	0.326696	
0.418309	0.121276	0.5	
0.495101	0.0698189	0.427621	
0.431857	0.0465403	0.5	
0.352401	0.10935	0.404506	
-0.28746	0.0302731	0.5	
-0.3	0.0833333	0.5	
-0.259187	0.0363748	0.408672	
-0.32522	-0.00468432	0.424344	
-0.18468	-0.0140346	0.375736	
-0.130814	0.0354375	0.417572	
-0.259187	0.0363748	0.408672	
-0.231014	-0.0285751	0.432493	
-0.295688	0.153857	0.172875	
-0.246812	0.00918153	0.237581	
-0.259075	0.0657144	0.105374	
-0.219759	0.108564	0.237237	
-0.105887	-0.105887	0.5	
-0.122616	-0.0499791	0.5	
-0.0882569	-0.0365572	0.407331	
-0.134018	-0.125076	0.416643	
-0.0565919	-0.339726	0.150695	
-0.16153	-0.357052	0.106281	
-0.0638367	-0.295761	0	
-0.069553	-0.399585	0.0805589	
0.132803	0.332442	0.177	
0.0913842	0.220621	0.259416	
0.0362945	0.23248	0.18345	
0.143575	0.241784	0.186885	
0.0203259	-0.249482	0.251542	
0.000455301	-0.171885	0.334296	
0.0848044	-0.241311	0.380971	
0.0592568	-0.173932	0.272176	
0.221133	0.265326	0.342623	
0.220138	0.220062	0.417726	
0.291987	0.28448	0.40616	
0.177101	0.348186	0.395851	
0.0819669	-0.126701	0.339809	
0.163607	-0.084363	0.326696	
0.0953117	-0.0282381	0.401854	
0.110665	-0.131179	0.419604	
0	-0.5	0.3	
0.0230591	-0.35567	0.355674	
0.0153009	-0.365787	0.239317	
-0.0570812	-0.3559	0.302161	
-0.259075	0.0657144	0.105374	
-0.219759	0.108564	0.237237	
-0.1493	0.167608	0.126676	
-0.241404	0.162452	0.0887852	
0.0854243	0.492649	0.251403	
0.132803	0.332442	0.177	
0.168734	0.470668	0.201781	
0.0693948	0.36903	0.285155	
0.200132	-0.232269	0.163427	
0.268117	-0.201453	0.257301	
0.321456	-0.142755	0.153578	
0.174775	-0.129562	0.177015	
0.0807477	0.493437	0.154224	
0.168734	0.470668	0.201781	
0.0854243	0.492649	0.251403	
0.132803	0.332442	0.177	
-0.0814439	-0.125985	0.343547	
-0.0882569	-0.0365572	0.407331	
-0.0581449	-0.152487	0.425037	
-0.0182997	-0.049373	0.434403	
-0.258165	-0.428195	0.298245	
-0.171353	-0.469721	0.338334	
-0.194667	-0.460548	0.26567	
-0.138366	-0.358353	0.236796	
-0.202717	-0.0800005	0.134359	
-0.259075	0.0657144	0.105374	
-0.325718	-0.0135225	0.164468	
-0.246812	0.00918153	0.237581	
0.0734599	0.0912867	0.346892	
0.0525099	0.171816	0.320476	
0.086989	0.179344	0.400327	
0.136738	0.210835	0.334534	
-0.0589256	0.241074	0.5	
-0.106066	0.256066	0.5	
-0.0833333	0.3	0.5	
-0.0612159	0.20738	0.430983	
-0.329023	-0.172142	0.292634	
-0.234283	-0.304583	0.2878	
-0.296258	-0.256529	0.211625	
-0.237359	-0.176563	0.223722	
-0.152663	-6.75805e-05	0.5	
-0.130814	0.0354375	0.417572	
-0.18468	-0.0140346	0.375736	
-0.231014	-0.0285751	0.432493	
0.332733	-0.27561	0.5	
0.295465	-0.212132	0.5	
0.381208	-0.210225	0.5	
0.377058	-0.167276	0.424233	
0.0953117	-0.0282381	0.401854	
0.110665	-0.131179	0.419604	
0.163607	-0.084363	0.326696	
0.165319	-0.0685492	0.421531	
-0.144119	0.318458	0.266738	
-0.0983525	0.249793	0.193206	
-0.0333766	0.391369	0.240112	
-0.00163227	0.307964	0.248385	
-0.2234	-0.212186	0.369318	
-0.146435	-0.19403	0.261638	
-0.120748	-0.291511	0.335128	
-0.234283	-0.304583	0.2878	
0.332733	-0.27561	0.5	
0.381208	-0.210225	0.5	
0.388345	-0.314941	0.420199	
0.377058	-0.167276	0.424233	
0.174775	-0.129562	0.177015	
0.0983144	-0.0718988	0.0894985	
0.185118	-0.0448541	0.130581	
0.235288	-0.159577	0.0981964	
0.220621	-0.0913842	0.253691	
0.212089	0.020774	0.252242	
0.110881	-0.0319284	0.263307	
0.163607	-0.084363	0.326696	
0.493012	-0.0833019	0.344789	
0.361187	-0.127724	0.273645	
0.471122	-0.167464	0.300106	
0.392836	-0.0823347	0.412468	
-0.2234	-0.212186	0.369318	
-0.329023	-0.172142	0.292634	
-0.338135	-0.204677	0.398089	
-0.306482	-0.128449	0.42688	
0.153206	-0.271058	0.5	
0.135438	-0.346064	0.384448	
0.0833333	-0.3	0.5	
0.163614	-0.249053	0.416633	
-0.168688	-0.281701	0	
-0.28242	-0.274225	0.101342	
-0.193999	-0.271016	0.175767	
-0.206213	-0.186333	0.106781	
0.00279483	0.150684	0.5	
0.016747	0.116372	0.415368	
-0.0506005	0.12216	0.5	
-0.0835252	0.135066	0.417682	
-0.122616	-0.0499791	0.5	
-0.0589256	-0.0589256	0.5	
-0.105887	-0.105887	0.5	
-0.0882569	-0.0365572	0.407331	
0.201164	-0.273578	0	
0.116361	-0.190469	0.100844	
0.200132	-0.232269	0.163427	
0.235288	-0.159577	0.0981964	
-0.295465	-0.212132	0.5	
-0.338135	-0.204677	0.398089	
-0.249722	-0.227302	0.5	
-0.250192	-0.304018	0.405469	
0.116361	-0.190469	0.100844	
0.0983144	-0.0718988	0.0894985	
0.174775	-0.129562	0.177015	
0.235288	-0.159577	0.0981964	
-0.476132	0.152637	0.402329	
-0.439384	0.238625	0.423358	
-0.399482	0.123001	0.5	
-0.332155	0.186259	0.378016	
-0.193999	-0.271016	0.175767	
-0.0992467	-0.239425	0.125263	
-0.168688	-0.281701	0	
-0.206213	-0.186333	0.106781	
-0.0833019	-0.493012	0.155211	
-0.0565919	-0.339726	0.150695	
0	-0.5	0.2	
0.0206176	-0.395667	0.103453	
0.495101	0.0698189	0.427621	
0.5	0	0.4	
0.431857	0.0465403	0.5	
0.353873	0.0061299	0.416416	
-0.0125395	0.0302731	0.5	
-0.0524491	0.0544183	0.419727	
-0.000470172	0.0044189	0.383613	
-0.0182997	-0.049373	0.434403	
-0.325718	-0.0135225	0.164468	
-0.246812	0.00918153	0.237581	
-0.360873	0.0158982	0.275217	
-0.372506	-0.102825	0.21502	
0.0203259	-0.249482	0.251542	
0.0986966	-0.244124	0.186079	
0.00964811	-0.213747	0.128268	
0.0592568	-0.173932	0.272176	
-0.154067	0.200523	0.255267	
-0.262239	0.179182	0.299022	
-0.265452	0.263294	0.235043	
-0.219759	0.108564	0.237237	
0.0913842	0.220621	0.259416	
0.14675	0.128723	0.276074	
0.0632778	0.132225	0.219	
0.189688	0.149534	0.191539	
-0.0814439	-0.125985	0.343547	
-0.117884	-0.234333	0.40948	
-0.0254015	-0.238675	0.394183	
-0.0581449	-0.152487	0.425037	
0.0738057	0.28359	0.108069	
0.191432	0.204802	0.0909793	
0.223568	0.323879	0.108427	
0.143575	0.241784	0.186885	
0.118934	-0.0478046	0.5	
0.110665	-0.131179	0.419604	
0.0953117	-0.0282381	0.401854	
0.165319	-0.0685492	0.421531	
-0.085688	-0.137167	0.16869	
-0.0992467	-0.239425	0.125263	
0.00964811	-0.213747	0.128268	
-0.080828	-0.269765	0.22671	
-0.386831	-0.3168	0.104097	
-0.331361	-0.272953	0	
-0.444481	-0.228991	0.0919014	
-0.28242	-0.274225	0.101342	
0.460762	-0.19416	0.234059	
0.428104	-0.258315	0.196896	
0.429476	-0.256028	0.291579	
0.361187	-0.127724	0.273645	
0.166579	-0.322107	0.5	
0.135438	-0.346064	0.384448	
0.153206	-0.271058	0.5	
0.163614	-0.249053	0.416633	
-0.122616	-0.0499791	0.5	
-0.152663	-6.75805e-05	0.5	
-0.0833333	0	0.5	
-0.0882569	-0.0365572	0.407331	
-0.268448	0.0761744	0.322026	
-0.360873	0.0158982	0.275217	
-0.38814	0.0365087	0.390101	
-0.358997	0.136564	0.272723	
0.0373069	0.315853	0.5	
0.0092772	0.277603	0.5	
-0.0125395	0.330273	0.5	
-0.0163515	0.266982	0.412579	
0.2429	-0.437035	0.152631	
0.0952672	-0.342147	0.15717	
0.16873	-0.47067	0.201799	
0.153466	-0.356896	0.263852	
0.147585	-0.477722	0.416442	
0.0212569	-0.409526	0.42172	
0.135438	-0.346064	0.384448	
0.0961802	-0.403925	0.321644	
-0.154067	0.200523	0.255267	
-0.265452	0.263294	0.235043	
-0.233647	0.26032	0.360484	
-0.144119	0.318458	0.266738	
0.476114	0.152694	0.40246	
0.352401	0.10935	0.404506	
0.450285	0.217356	0.355302	
0.374736	0.148861	0.30011	
-0.18468	-0.0140346	0.375736	
-0.127176	-0.00609761	0.272433	
-0.220621	-0.0913842	0.273465	
-0.259249	-0.00709893	0.335751	
0.118934	-0.0478046	0.5	
0.104605	-0.104521	0.5	
0.110665	-0.131179	0.419604	
0.165319	-0.0685492	0.421531	
-0.5	0	0.4	
-0.38814	0.0365087	0.390101	
-0.434728	9.15966e-17	0.5	
-0.39407	-0.0815537	0.417272	
-0.212132	0.128799	0.5	
-0.157073	0.0991372	0.5	
-0.185212	0.0538339	0.5	
-0.177179	0.127748	0.396718	
-0.0638367	-0.295761	0	
0.00964811	-0.213747	0.128268	
0.00183684	-0.222331	0	
-0.0992467	-0.239425	0.125263	
0.132803	0.332442	0.177	
-0.00982413	0.311992	0.161153	
0.0362945	0.23248	0.18345	
-0.00163227	0.307964	0.248385	
0.0853821	-0.492656	0.251348	
0.153466	-0.356896	0.263852	
0.0153009	-0.365787	0.239317	
0.0961802	-0.403925	0.321644	
0.320474	0.196191	0.377567	
0.352401	0.10935	0.404506	
0.268482	0.1106	0.289732	
0.374736	0.148861	0.30011	
0.334293	0.262733	0.5	
0.439458	0.238488	0.424308	
0.369451	0.195502	0.5	
0.320474	0.196191	0.377567	
0.0589256	-0.241074	0.5	
-5.51091e-17	-0.216667	0.5	
-0.0254015	-0.238675	0.394183	
0.0220588	-0.302368	0.419947	
-0.0254015	-0.238675	0.394183	
-0.120748	-0.291511	0.335128	
-0.0570812	-0.3559	0.302161	
-0.0611092	-0.309537	0.420103	
0.0734599	0.0912867	0.346892	
0.14675	0.128723	0.276074	
0.0525099	0.171816	0.320476	
0.136738	0.210835	0.334534	
0.377032	-0.3284	0.243217	
0.428104	-0.258315	0.196896	
0.38078	-0.324048	0.150149	
0.302277	-0.248662	0.113737	
0.476132	-0.152637	0.402329	
0.392836	-0.0823347	0.412468	
0.471122	-0.167464	0.300106	
0.377058	-0.167276	0.424233	
-0.261345	-0.230036	0	
-0.278713	-0.14304	0	
-0.356684	-0.19351	0	
-0.304937	-0.166182	0.150677	
0.183274	0.148555	0.376377	
0.220138	0.220062	0.417726	
0.212132	0.128799	0.5	
0.259229	0.131014	0.416169	
0.0734599	0.0912867	0.346892	
0.183274	0.148555	0.376377	
0.136079	0.0773073	0.413876	
0.196702	0.0791686	0.326444	
-0.16873	0.47067	0.201799	
-0.247023	0.434718	0.250558	
-0.2429	0.437035	0.152631	
-0.161163	0.309136	0.149427	
-0.118181	0.0989473	0.251321	
-0.177442	0.0578991	0.31733	
-0.103796	0.164416	0.331112	
-0.18531	0.191876	0.339375	
0.388274	0.315029	0.420807	
0.320474	0.196191	0.377567	
0.334293	0.262733	0.5	
0.291987	0.28448	0.40616	
0.0373069	0.0158534	0.5	
0.0833333	0	0.5	
0.0953117	-0.0282381	0.401854	
0.0614383	0.0441646	0.419518	
0.278485	0.0481879	0.395453	
0.380516	0.0520569	0.316102	
0.268482	0.1106	0.289732	
0.352401	0.10935	0.404506	
0.086989	0.179344	0.400327	
0.0525099	0.171816	0.320476	
-0.0201888	0.188065	0.366	
0.0303777	0.260127	0.314563	
0.0712814	-0.153152	0	
0.00183684	-0.222331	0	
0.00964811	-0.213747	0.128268	
-0.00334623	-0.10275	0.104947	
-0.03759	-0.31517	0.5	
0.0092772	-0.322397	0.5	
-5.51091e-17	-0.383333	0.5	
-0.0611092	-0.309537	0.420103	
0.0203259	-0.249482	0.251542	
0.00964811	-0.213747	0.128268	
-0.080828	-0.269765	0.22671	
-0.0547597	-0.189651	0.263151	
0.14072	-0.0839746	0	
0.116361	-0.190469	0.100844	
0.164797	-0.177585	0	
0.235288	-0.159577	0.0981964	
-0.329023	-0.172142	0.292634	
-0.372506	-0.102825	0.21502	
-0.220621	-0.0913842	0.273465	
-0.237359	-0.176563	0.223722	
0.201164	-0.273578	0	
0.200132	-0.232269	0.163427	
0.116361	-0.190469	0.100844	
0.219334	-0.328412	0.103652	
-0.0243888	0.144613	0.165538	
-0.118181	0.0989473	0.251321	
-0.0884785	0.081082	0.106964	
-0.0742895	0.0407153	0.192583	
0.0092772	-0.322397	0.5	
0.0220588	-0.302368	0.419947	
-5.51091e-17	-0.383333	0.5	
-0.0611092	-0.309537	0.420103	
-0.16873	0.47067	0.201799	
-0.161163	0.309136	0.149427	
-0.153329	0.47591	0.0923815	
-0.0728697	0.385983	0.102817	
-0.233647	0.26032	0.360484	
-0.0968356	0.250534	0.302469	
-0.123171	0.237068	0.386906	
-0.18531	0.191876	0.339375	
0.0395065	-0.000100258	0.126114	
-0.0801458	-0.0255891	0.118207	
-0.048473	-0.0328568	0	
-0.00334623	-0.10275	0.104947	
-0.0814439	-0.125985	0.343547	
-0.0581449	-0.152487	0.425037	
0.0135874	-0.118011	0.409404	
-0.0182997	-0.049373	0.434403	
-0.0807376	0.493438	0.154216	
-0.0728697	0.385983	0.102817	
0	0.5	0.2	
-0.0333766	0.391369	0.240112	
0.0519196	-0.186143	0.5	
0.0506005	-0.12216	0.5	
0.0967728	-0.154724	0.5	
0.110665	-0.131179	0.419604	
0	-0.5	0.3	
0.0153009	-0.365787	0.239317	
0.0230591	-0.35567	0.355674	
0.0961802	-0.403925	0.321644	
0	-0.5	0.3	
0.082983	-0.493066	0.348347	
0.0230591	-0.35567	0.355674	
0.0212569	-0.409526	0.42172	
0.0535407	0.120642	0.5	
0.108346	0.0977259	0.5	
0.0589256	0.0589256	0.5	
0.0614383	0.0441646	0.419518	
-0.171353	-0.469721	0.338334	
-0.0825799	-0.384765	0.390495	
-0.0810399	-0.493389	0.35285	
-0.0570812	-0.3559	0.302161	
-0.0930725	0.0739765	0.352845	
-0.127176	-0.00609761	0.272433	
-0.18468	-0.0140346	0.375736	
-0.177442	0.0578991	0.31733	
0.469721	0.171353	0.161666	
0.362932	0.098224	0.109262	
0.342141	0.162954	0.200127	
0.325166	0.230418	0.10487	
0.439384	-0.238625	0.423358	
0.416747	-0.276265	0.362548	
0.388345	-0.314941	0.420199	
0.377058	-0.167276	0.424233	
0.31678	-0.386847	0.395869	
0.249979	-0.247703	0.407586	
0.388345	-0.314941	0.420199	
0.283545	-0.259908	0.324527	
0.12216	0.350601	0.5	
0.177101	0.348186	0.395851	
0.166579	0.322107	0.5	
0.135958	0.243685	0.430036	
0.414991	0.0495125	0	
0.346509	0.0237889	0	
0.409478	-0.032947	0	
0.389447	-0.0664451	0.106973	
0.14072	-0.0839746	0	
0.232997	-0.11062	0	
0.185118	-0.0448541	0.130581	
0.235288	-0.159577	0.0981964	
-0.220621	-0.0913842	0.273465	
-0.18468	-0.0140346	0.375736	
-0.229671	-0.108874	0.396367	
-0.128371	-0.0605284	0.341709	
-0.123171	0.237068	0.386906	
-0.144981	0.358558	0.378678	
-0.233647	0.26032	0.360484	
-0.181622	0.273954	0.42594	
-0.315029	-0.388274	0.0791933	
-0.16153	-0.357052	0.106281	
-0.263582	-0.319413	0	
-0.28242	-0.274225	0.101342	
0.0952672	-0.342147	0.15717	
0.0986966	-0.244124	0.186079	
0.0153009	-0.365787	0.239317	
0.104343	-0.277575	0.292493	
-0.212132	-0.295465	0.5	
-0.250192	-0.304018	0.405469	
-0.153206	-0.271058	0.5	
-0.162242	-0.337279	0.406019	
-0.123171	0.237068	0.386906	
-0.0163515	0.266982	0.412579	
-0.0201888	0.188065	0.366	
-0.0968356	0.250534	0.302469	
-0.000470172	0.0044189	0.383613	
-0.0531387	-0.0402198	0.321272	
-0.0930725	0.0739765	0.352845	
-0.0139985	0.0766371	0.354232	
-0.127176	-0.00609761	0.272433	
-0.0531387	-0.0402198	0.321272	
-0.0930725	0.0739765	0.352845	
-0.128371	-0.0605284	0.341709	
-0.127176	-0.00609761	0.272433	
-0.18468	-0.0140346	0.375736	
-0.177442	0.0578991	0.31733	
-0.259249	-0.00709893	0.335751	
-0.0112682	-5.37735e-05	0.248563	
-0.127176	-0.00609761	0.272433	
-0.118181	0.0989473	0.251321	
-0.0742895	0.0407153	0.192583	
0.183274	0.148555	0.376377	
0.086989	0.179344	0.400327	
0.0734599	0.0912867	0.346892	
0.136079	0.0773073	0.413876	
-0.238488	-0.439458	0.0756919	
-0.203173	-0.373024	0	
-0.315029	-0.388274	0.0791933	
-0.16153	-0.357052	0.106281	
0.0853821	-0.492656	0.251348	
0.16873	-0.47067	0.201799	
0.0952672	-0.342147	0.15717	
0.153466	-0.356896	0.263852	
-0.302044	-0.0506462	0	
-0.337562	0.0547633	0	
-0.325718	-0.0135225	0.164468	
-0.259075	0.0657144	0.105374	
0.380516	0.0520569	0.316102	
0.40447	-0.0146922	0.243912	
0.300325	-0.0288408	0.258872	
0.39698	0.0776459	0.202579	
-0.157073	0.0991372	0.5	
-0.153206	0.153206	0.5	
-0.106984	0.108603	0.5	
-0.0835252	0.135066	0.417682	
0.0913842	0.220621	0.259416	
-0.0268842	0.224117	0.253342	
0.0632778	0.132225	0.219	
0.0525099	0.171816	0.320476	
-0.318983	0.261743	0	
-0.385896	0.317937	0.065638	
-0.436811	0.243302	0.0936268	
-0.265951	0.256468	0.111233	
-0.154067	0.200523	0.255267	
-0.161163	0.309136	0.149427	
-0.265452	0.263294	0.235043	
-0.144119	0.318458	0.266738	
-0.401548	-0.0423374	0	
-0.302044	-0.0506462	0	
-0.337562	0.0547633	0	
-0.382808	-0.0894032	0.103515	
0.414991	0.0495125	0	
0.409478	-0.032947	0	
0.5	0	0.1	
0.389447	-0.0664451	0.106973	
0.0913842	0.220621	0.259416	
0.189688	0.149534	0.191539	
0.0632778	0.132225	0.219	
0.143575	0.241784	0.186885	
-0.404541	0.126945	0	
-0.328307	0.16356	0	
-0.389036	0.207425	0	
-0.377341	0.0879068	0.111753	
0.0589256	0.241074	0.5	
0.0970926	0.279271	0.373778	
0.0833333	0.3	0.5	
0.135958	0.243685	0.430036	
0.373926	0.198925	0	
0.362932	0.098224	0.109262	
0.436762	0.243391	0.0969381	
0.325166	0.230418	0.10487	
-0.0112682	-5.37735e-05	0.248563	
-0.118181	0.0989473	0.251321	
-0.0155726	0.113982	0.279722	
-0.0742895	0.0407153	0.192583	
0.0734599	0.0912867	0.346892	
0.136079	0.0773073	0.413876	
0.086989	0.179344	0.400327	
0.016747	0.116372	0.415368	
0.0712814	-0.153152	0	
-0.00334623	-0.10275	0.104947	
0.00964811	-0.213747	0.128268	
0.116361	-0.190469	0.100844	
-0.12216	0.0506005	0.5	
-0.130814	0.0354375	0.417572	
-0.106984	0.108603	0.5	
-0.0524491	0.0544183	0.419727	
-0.2429	0.437035	0.152631	
-0.317319	0.386405	0.201487	
-0.317131	0.386559	0.0881616	
-0.265951	0.256468	0.111233	
0.153206	0.153206	0.5	
0.0999373	0.153076	0.5	
0.128799	0.212132	0.5	
0.086989	0.179344	0.400327	
-0.0807376	0.493438	0.154216	
0	0.5	0.1	
0	0.5	0.2	
-0.0728697	0.385983	0.102817	
0.5	0	0.2	
0.493389	0.0810399	0.14715	
0.5	0	0.1	
0.39698	0.0776459	0.202579	
0.0589256	-0.358926	0.5	
0.0833333	-0.3	0.5	
0.12216	-0.350601	0.5	
0.135438	-0.346064	0.384448	
-0.436811	0.243302	0.0936268	
-0.478516	0.14499	0.0762896	
-0.389036	0.207425	0	
-0.377341	0.0879068	0.111753	
-0.261345	-0.230036	0	
-0.304937	-0.166182	0.150677	
-0.356684	-0.19351	0	
-0.28242	-0.274225	0.101342	
-0.000470172	0.0044189	0.383613	
0.0614383	0.0441646	0.419518	
0.0373069	0.0158534	0.5	
-0.0182997	-0.049373	0.434403	
0.476132	-0.152637	0.402329	
0.471122	-0.167464	0.300106	
0.450312	-0.217299	0.354112	
0.377058	-0.167276	0.424233	
0.135296	0.0693292	0.185912	
0.14675	0.128723	0.276074	
0.212089	0.020774	0.252242	
0.189688	0.149534	0.191539	
-0.118181	0.0989473	0.251321	
-0.219759	0.108564	0.237237	
-0.177442	0.0578991	0.31733	
-0.18531	0.191876	0.339375	
0.0395065	-0.000100258	0.126114	
0.0431438	0.101726	0.0953265	
-0.0884785	0.081082	0.106964	
0.0170253	0.0610303	0.18852	
0.0833333	-0.3	0.5	
0.153206	-0.271058	0.5	
0.166579	-0.322107	0.5	
0.135438	-0.346064	0.384448	
0.377032	-0.3284	0.243217	
0.38078	-0.324048	0.150149	
0.25314	-0.310833	0.250522	
0.302277	-0.248662	0.113737	
-0.2234	-0.212186	0.369318	
-0.171189	-0.143954	0.334682	
-0.146435	-0.19403	0.261638	
-0.237359	-0.176563	0.223722	
0.439458	0.238488	0.424308	
0.450285	0.217356	0.355302	
0.476114	0.152694	0.40246	
0.352401	0.10935	0.404506	
-0.161163	0.309136	0.149427	
-0.0728697	0.385983	0.102817	
-0.00982413	0.311992	0.161153	
-0.0606721	0.230593	0.106057	
-0.211369	-0.0761151	0	
-0.202717	-0.0800005	0.134359	
-0.278713	-0.14304	0	
-0.206213	-0.186333	0.106781	
-0.0833333	0.3	0.5	
-0.0589256	0.358926	0.5	
-0.03759	0.28483	0.5	
-0.0163515	0.266982	0.412579	
0.262733	0.334293	0.5	
0.291987	0.28448	0.40616	
0.212132	0.295465	0.5	
0.177101	0.348186	0.395851	
0.0461078	-0.0584269	0	
0.0395065	-0.000100258	0.126114	
-0.048473	-0.0328568	0	
-0.00334623	-0.10275	0.104947	
0.0395065	-0.000100258	0.126114	
0.0170253	0.0610303	0.18852	
-0.0884785	0.081082	0.106964	
-0.0742895	0.0407153	0.192583	
0.460762	-0.19416	0.234059	
0.469621	-0.171627	0.160116	
0.321456	-0.142755	0.153578	
0.361187	-0.127724	0.273645	
-0.220621	-0.0913842	0.273465	
-0.127176	-0.00609761	0.272433	
-0.18468	-0.0140346	0.375736	
-0.128371	-0.0605284	0.341709	
-0.202855	-0.234529	0.5	
-0.174825	-0.196279	0.5	
-0.117884	-0.234333	0.40948	
-0.194749	-0.171788	0.429088	
-0.450312	0.217299	0.354112	
-0.429476	0.256028	0.291579	
-0.332155	0.186259	0.378016	
-0.358997	0.136564	0.272723	
-0.0853821	0.492656	0.251348	
-0.174738	0.468473	0.317184	
-0.16873	0.47067	0.201799	
-0.144119	0.318458	0.266738	
0.0943468	-0.245334	0	
0.00183684	-0.222331	0	
0.0248177	-0.313374	0	
0.00964811	-0.213747	0.128268	
0.14467	0.301705	0.287535	
0.0303777	0.260127	0.314563	
0.0693948	0.36903	0.285155	
-0.00163227	0.307964	0.248385	
-0.0112682	-5.37735e-05	0.248563	
-0.000470172	0.0044189	0.383613	
-0.0531387	-0.0402198	0.321272	
0.0387655	-0.0479803	0.318584	
-0.383333	3.67394e-17	0.5	
-0.42216	-0.0506005	0.5	
-0.434728	9.15966e-17	0.5	
-0.39407	-0.0815537	0.417272	
0.300325	-0.0288408	0.258872	
0.40447	-0.0146922	0.243912	
0.332005	0.00713037	0.169463	
0.39698	0.0776459	0.202579	
0.380516	0.0520569	0.316102	
0.374736	0.148861	0.30011	
0.39698	0.0776459	0.202579	
0.276673	0.0689246	0.208494	
0.0465403	0.431857	0.5	
0.0203259	0.350518	0.403169	
0.0728232	0.494668	0.426459	
0.098227	0.400612	0.372757	
-0.315029	-0.388274	0.0791933	
-0.203173	-0.373024	0	
-0.263582	-0.319413	0	
-0.16153	-0.357052	0.106281	
-0.0734441	0.0616893	0	
0.0209546	0.0362755	0	
0.0431438	0.101726	0.0953265	
-0.0884785	0.081082	0.106964	
-0.490316	0.0979281	0.24092	
-0.493012	0.0833019	0.344789	
-0.360873	0.0158982	0.275217	
-0.358997	0.136564	0.272723	
-0.0419658	0.179631	0.5	
1.83697e-17	0.216667	0.5	
0.00279483	0.150684	0.5	
-0.0612159	0.20738	0.430983	
-0.0555676	0.325574	0	
-0.138674	0.323797	0	
-0.119993	0.246691	0	
-0.0606721	0.230593	0.106057	
0.199592	0.242405	0.5	
0.153206	0.271058	0.5	
0.212132	0.295465	0.5	
0.135958	0.243685	0.430036	
-0.233647	0.26032	0.360484	
-0.154067	0.200523	0.255267	
-0.144119	0.318458	0.266738	
-0.18531	0.191876	0.339375	
-0.0949082	0.168548	0.5	
-0.153206	0.153206	0.5	
-0.128799	0.212132	0.5	
-0.0835252	0.135066	0.417682	
-0.268448	0.0761744	0.322026	
-0.32522	-0.00468432	0.424344	
-0.38814	0.0365087	0.390101	
-0.259249	-0.00709893	0.335751	
0.133074	0.264097	0	
0.223568	0.323879	0.108427	
0.0738057	0.28359	0.108069	
0.191432	0.204802	0.0909793	
0.0135874	-0.118011	0.409404	
0.0387655	-0.0479803	0.318584	
0.0819669	-0.126701	0.339809	
0.000455301	-0.171885	0.334296	
-0.0833019	-0.493012	0.155211	
-0.0565919	-0.339726	0.150695	
0.0206176	-0.395667	0.103453	
-0.069553	-0.399585	0.0805589	
0.369451	0.195502	0.5	
0.476114	0.152694	0.40246	
0.418309	0.121276	0.5	
0.352401	0.10935	0.404506	
0.321456	-0.142755	0.153578	
0.285128	-0.0586701	0.102886	
0.174775	-0.129562	0.177015	
0.244062	-0.0339696	0.193164	
0.493012	0.0833019	0.344789	
0.5	0	0.4	
0.495101	0.0698189	0.427621	
0.380516	0.0520569	0.316102	
-0.233647	0.26032	0.360484	
-0.144119	0.318458	0.266738	
-0.0968356	0.250534	0.302469	
-0.18531	0.191876	0.339375	
0.0712814	-0.153152	0	
-0.0232782	-0.127584	0	
0.00183684	-0.222331	0	
-0.00334623	-0.10275	0.104947	
0.221133	0.265326	0.342623	
0.291987	0.28448	0.40616	
0.320474	0.196191	0.377567	
0.308855	0.242117	0.27439	
0.0734599	0.0912867	0.346892	
0.14675	0.128723	0.276074	
0.183274	0.148555	0.376377	
0.196702	0.0791686	0.326444	
-0.0882569	-0.0365572	0.407331	
-0.134018	-0.125076	0.416643	
-0.18468	-0.0140346	0.375736	
-0.128371	-0.0605284	0.341709	
-0.261345	-0.230036	0	
-0.278713	-0.14304	0	
-0.304937	-0.166182	0.150677	
-0.206213	-0.186333	0.106781	
-0.048473	-0.0328568	0	
-0.0801458	-0.0255891	0.118207	
-0.117671	-0.10197	0	
-0.00334623	-0.10275	0.104947	
0.450285	0.217356	0.355302	
0.320474	0.196191	0.377567	
0.4284	0.257824	0.295024	
0.374736	0.148861	0.30011	
-0.265452	0.263294	0.235043	
-0.262239	0.179182	0.299022	
-0.295688	0.153857	0.172875	
-0.219759	0.108564	0.237237	
0.0230591	-0.35567	0.355674	
0.0153009	-0.365787	0.239317	
0.0203259	-0.249482	0.251542	
0.104343	-0.277575	0.292493	
-5.51091e-17	-0.383333	0.5	
0.0212569	-0.409526	0.42172	
-0.0589256	-0.358926	0.5	
-0.0611092	-0.309537	0.420103	
-0.165601	0.0438592	0.172089	
-0.202717	-0.0800005	0.134359	
-0.0801458	-0.0255891	0.118207	
-0.136956	-0.0443284	0.188767	
0.4284	0.257824	0.295024	
0.308855	0.242117	0.27439	
0.342141	0.162954	0.200127	
0.374736	0.148861	0.30011	
0.0203259	-0.249482	0.251542	
-0.0565919	-0.339726	0.150695	
0.0153009	-0.365787	0.239317	
-0.080828	-0.269765	0.22671	
0.469621	-0.171627	0.160116	
0.478516	-0.14499	0.0762896	
0.321456	-0.142755	0.153578	
0.389447	-0.0664451	0.106973	
-0.295465	0.212132	0.5	
-0.212186	0.200864	0.421006	
-0.268272	0.128138	0.411267	
-0.3028	0.261077	0.41707	
-0.0983601	0.156434	0	
-0.0606721	0.230593	0.106057	
-0.1493	0.167608	0.126676	
-0.0884785	0.081082	0.106964	
-0.2429	0.437035	0.152631	
-0.235698	0.440961	0.0686036	
-0.153329	0.47591	0.0923815	
-0.161163	0.309136	0.149427	
-0.444481	-0.228991	0.0919014	
-0.429146	-0.25658	0.16876	
-0.386831	-0.3168	0.104097	
-0.28242	-0.274225	0.101342	
-0.268448	0.0761744	0.322026	
-0.177179	0.127748	0.396718	
-0.177442	0.0578991	0.31733	
-0.18531	0.191876	0.339375	
0.153329	-0.47591	0.0923815	
0.0952672	-0.342147	0.15717	
0.2429	-0.437035	0.152631	
0.219334	-0.328412	0.103652	
-0.1493	0.167608	0.126676	
-0.118181	0.0989473	0.251321	
-0.165601	0.0438592	0.172089	
-0.0884785	0.081082	0.106964	
0.334293	0.262733	0.5	
0.388274	0.315029	0.420807	
0.439458	0.238488	0.424308	
0.320474	0.196191	0.377567	
0.220138	0.220062	0.417726	
0.177101	0.348186	0.395851	
0.221133	0.265326	0.342623	
0.135958	0.243685	0.430036	
0.268117	-0.201453	0.257301	
0.25314	-0.310833	0.250522	
0.200132	-0.232269	0.163427	
0.302277	-0.248662	0.113737	
0.153206	0.153206	0.5	
0.086989	0.179344	0.400327	
0.128799	0.212132	0.5	
0.135958	0.243685	0.430036	
0.0589256	-0.358926	0.5	
0.0833333	-0.3	0.5	
0.135438	-0.346064	0.384448	
0.0220588	-0.302368	0.419947	
-0.468495	-0.174678	0.182891	
-0.429146	-0.25658	0.16876	
-0.304937	-0.166182	0.150677	
-0.372506	-0.102825	0.21502	
0.435719	7.07799e-17	0.5	
0.383333	0	0.5	
0.431857	0.0465403	0.5	
0.353873	0.0061299	0.416416	
0.200132	-0.232269	0.163427	
0.174775	-0.129562	0.177015	
0.321456	-0.142755	0.153578	
0.235288	-0.159577	0.0981964	
0.1612	0.100866	0.5	
0.108346	0.0977259	0.5	
0.153206	0.153206	0.5	
0.136079	0.0773073	0.413876	
0.247023	-0.434718	0.250558	
0.2429	-0.437035	0.152631	
0.153466	-0.356896	0.263852	
0.25314	-0.310833	0.250522	
-0.358997	0.136564	0.272723	
-0.262239	0.179182	0.299022	
-0.265452	0.263294	0.235043	
-0.316792	0.255444	0.314661	
-0.233647	0.26032	0.360484	
-0.144119	0.318458	0.266738	
-0.265452	0.263294	0.235043	
-0.232102	0.339116	0.303176	
-0.128799	0.212132	0.5	
-0.106066	0.256066	0.5	
-0.123171	0.237068	0.386906	
-0.181622	0.273954	0.42594	
0.295465	0.212132	0.5	
0.271058	0.153206	0.5	
0.220138	0.220062	0.417726	
0.259229	0.131014	0.416169	
-0.0411735	0.316432	0.326214	
-0.123171	0.237068	0.386906	
-0.144981	0.358558	0.378678	
-0.0968356	0.250534	0.302469	
-0.450312	0.217299	0.354112	
-0.429476	0.256028	0.291579	
-0.416747	0.276265	0.362548	
-0.332155	0.186259	0.378016	
-0.426463	0.0441363	0	
-0.495208	0.0690617	0.0692099	
-0.5	0	0.1	
-0.377341	0.0879068	0.111753	
-0.0814439	-0.125985	0.343547	
-0.117884	-0.234333	0.40948	
-0.134018	-0.125076	0.416643	
-0.171189	-0.143954	0.334682	
0.342141	0.162954	0.200127	
0.189688	0.149534	0.191539	
0.251686	0.10803	0.129438	
0.276673	0.0689246	0.208494	
0.133074	0.264097	0	
0.223568	0.323879	0.108427	
0.189613	0.313662	0	
0.0738057	0.28359	0.108069	
-0.3	-0.0833333	0.5	
-0.306482	-0.128449	0.42688	
-0.32522	-0.00468432	0.424344	
-0.231014	-0.0285751	0.432493	
0	0.5	0.1	
-0.0372406	0.417791	0	
0.0420691	0.427134	0	
0.0594116	0.385605	0.105978	
-0.000470172	0.0044189	0.383613	
0.0734599	0.0912867	0.346892	
0.0614383	0.0441646	0.419518	
0.107111	0.0161028	0.331802	
-0.0977967	-0.490343	0.258774	
0	-0.5	0.3	
0.0153009	-0.365787	0.239317	
-0.0570812	-0.3559	0.302161	
0.184555	5.29963e-05	0.359326	
0.278485	0.0481879	0.395453	
0.196702	0.0791686	0.326444	
0.179502	0.0181689	0.432699	
-0.0411735	0.316432	0.326214	
-0.144981	0.358558	0.378678	
-0.063352	0.397195	0.411842	
-0.0106277	0.407378	0.33212	
-0.3	-0.0833333	0.5	
-0.32522	-0.00468432	0.424344	
-0.309277	-0.0223972	0.5	
-0.231014	-0.0285751	0.432493	
-0.468495	-0.174678	0.182891	
-0.304937	-0.166182	0.150677	
-0.444481	-0.228991	0.0919014	
-0.382808	-0.0894032	0.103515	
-0.440961	-0.235698	0.431431	
-0.399482	-0.123001	0.5	
-0.381086	-0.210299	0.5	
-0.338135	-0.204677	0.398089	
0.14675	0.128723	0.276074	
0.190566	0.216647	0.261668	
0.268482	0.1106	0.289732	
0.189688	0.149534	0.191539	
-0.468495	-0.174678	0.182891	
-0.434698	-0.247057	0.249501	
-0.429146	-0.25658	0.16876	
-0.372506	-0.102825	0.21502	
0.330273	-0.0125395	0.5	
0.353873	0.0061299	0.416416	
0.28483	-0.03759	0.5	
0.249486	-0.0108057	0.43277	
-0.154067	0.200523	0.255267	
-0.1493	0.167608	0.126676	
-0.118181	0.0989473	0.251321	
-0.219759	0.108564	0.237237	
0.330273	-0.0125395	0.5	
0.277603	0.0092772	0.5	
0.353873	0.0061299	0.416416	
0.249486	-0.0108057	0.43277	
0.0203259	-0.249482	0.251542	
0.0848044	-0.241311	0.380971	
0.104343	-0.277575	0.292493	
0.0592568	-0.173932	0.272176	
0.31678	-0.386847	0.395869	
0.23026	-0.337515	0.419392	
0.249979	-0.247703	0.407586	
0.283545	-0.259908	0.324527	
0.132803	0.332442	0.177	
0.0738057	0.28359	0.108069	
0.223568	0.323879	0.108427	
0.143575	0.241784	0.186885	
0.166579	-0.322107	0.5	
0.12216	-0.350601	0.5	
0.0833333	-0.3	0.5	
0.135438	-0.346064	0.384448	
-0.358926	0.0589256	0.5	
-0.399482	0.123001	0.5	
-0.345553	0.109975	0.5	
-0.38814	0.0365087	0.390101	
0.295465	0.212132	0.5	
0.334293	0.262733	0.5	
0.320474	0.196191	0.377567	
0.291987	0.28448	0.40616	
-0.334293	-0.161532	0.5	
-0.338135	-0.204677	0.398089	
-0.399482	-0.123001	0.5	
-0.306482	-0.128449	0.42688	
-0.0411735	0.316432	0.326214	
-0.0201888	0.188065	0.366	
-0.0163515	0.266982	0.412579	
-0.0968356	0.250534	0.302469	
0.110665	-0.131179	0.419604	
0.163614	-0.249053	0.416633	
0.0848044	-0.241311	0.380971	
0.134803	-0.19156	0.335814	
0.201164	-0.273578	0	
0.200132	-0.232269	0.163427	
0.302277	-0.248662	0.113737	
0.235288	-0.159577	0.0981964	
0.241074	0.0589256	0.5	
0.256066	0.106066	0.5	
0.278485	0.0481879	0.395453	
0.259229	0.131014	0.416169	
0.0999373	0.153076	0.5	
0.0535407	0.120642	0.5	
0.0557946	0.181673	0.5	
0.086989	0.179344	0.400327	
0.268482	0.1106	0.289732	
0.380516	0.0520569	0.316102	
0.278485	0.0481879	0.395453	
0.262136	0.0021711	0.327033	
0.320474	0.196191	0.377567	
0.308855	0.242117	0.27439	
0.4284	0.257824	0.295024	
0.374736	0.148861	0.30011	
-0.0155726	0.113982	0.279722	
0.0632778	0.132225	0.219	
-0.0268842	0.224117	0.253342	
0.0525099	0.171816	0.320476	
0.321349	-0.0500942	0.355813	
0.392836	-0.0823347	0.412468	
0.361187	-0.127724	0.273645	
0.411179	-0.0301121	0.336439	
0.220621	-0.0913842	0.253691	
0.268117	-0.201453	0.257301	
0.142415	-0.180509	0.253145	
0.174775	-0.129562	0.177015	
0.0833333	0	0.5	
0.152693	-0.00394448	0.5	
0.118934	-0.0478046	0.5	
0.0953117	-0.0282381	0.401854	
-0.220621	-0.0913842	0.273465	
-0.229671	-0.108874	0.396367	
-0.171189	-0.143954	0.334682	
-0.128371	-0.0605284	0.341709	
0.136079	0.0773073	0.413876	
0.0614383	0.0441646	0.419518	
0.0953117	-0.0282381	0.401854	
0.179502	0.0181689	0.432699	
0.184555	5.29963e-05	0.359326	
0.212089	0.020774	0.252242	
0.110881	-0.0319284	0.263307	
0.107111	0.0161028	0.331802	
-0.337562	0.0547633	0	
-0.377341	0.0879068	0.111753	
-0.325718	-0.0135225	0.164468	
-0.259075	0.0657144	0.105374	
-0.0155726	0.113982	0.279722	
0.0734599	0.0912867	0.346892	
0.0661482	0.0500773	0.26338	
0.0525099	0.171816	0.320476	
-0.38814	0.0365087	0.390101	
-0.39407	-0.0815537	0.417272	
-0.5	0	0.4	
-0.402728	-0.0701503	0.304716	
-0.295688	0.153857	0.172875	
-0.265452	0.263294	0.235043	
-0.358997	0.136564	0.272723	
-0.262239	0.179182	0.299022	
-0.0565919	-0.339726	0.150695	
-0.138366	-0.358353	0.236796	
-0.193999	-0.271016	0.175767	
-0.16153	-0.357052	0.106281	
0.5	0	0.4	
0.495102	-0.0698146	0.4276	
0.435719	7.07799e-17	0.5	
0.392836	-0.0823347	0.412468	
0.0395065	-0.000100258	0.126114	
-0.0884785	0.081082	0.106964	
-0.0801458	-0.0255891	0.118207	
-0.0742895	0.0407153	0.192583	
0.136079	0.0773073	0.413876	
0.016747	0.116372	0.415368	
0.0734599	0.0912867	0.346892	
0.0614383	0.0441646	0.419518	
0.42216	-0.0506005	0.5	
0.435719	7.07799e-17	0.5	
0.495102	-0.0698146	0.4276	
0.392836	-0.0823347	0.412468	
-0.0372406	0.417791	0	
0.0594116	0.385605	0.105978	
0	0.5	0.1	
-0.0728697	0.385983	0.102817	
-0.332155	0.186259	0.378016	
-0.212186	0.200864	0.421006	
-0.268272	0.128138	0.411267	
-0.262239	0.179182	0.299022	
0.0203259	-0.249482	0.251542	
0.0153009	-0.365787	0.239317	
0.0230591	-0.35567	0.355674	
-0.0570812	-0.3559	0.302161	
0.321456	-0.142755	0.153578	
0.389447	-0.0664451	0.106973	
0.313791	-0.154465	0	
0.285128	-0.0586701	0.102886	
-0.153206	-0.153206	0.5	
-0.097127	-0.15347	0.5	
-0.128799	-0.212132	0.5	
-0.134018	-0.125076	0.416643	
-0.444481	-0.228991	0.0919014	
-0.356684	-0.19351	0	
-0.41072	-0.12459	0	
-0.382808	-0.0894032	0.103515	
-0.28746	0.0302731	0.5	
-0.337307	0.0158534	0.5	
-0.3	0.0833333	0.5	
-0.32522	-0.00468432	0.424344	
-0.0833333	0	0.5	
-0.0882569	-0.0365572	0.407331	
-0.152663	-6.75805e-05	0.5	
-0.130814	0.0354375	0.417572	
-0.0565919	-0.339726	0.150695	
-0.193999	-0.271016	0.175767	
-0.138366	-0.358353	0.236796	
-0.080828	-0.269765	0.22671	
0.0589256	0.358926	0.5	
0.0203259	0.350518	0.403169	
0.0465403	0.431857	0.5	
0.098227	0.400612	0.372757	
-0.2234	-0.212186	0.369318	
-0.234283	-0.304583	0.2878	
-0.120748	-0.291511	0.335128	
-0.250192	-0.304018	0.405469	
0.0373069	-0.284147	0.5	
-0.0125395	-0.269727	0.5	
-5.51091e-17	-0.216667	0.5	
0.0220588	-0.302368	0.419947	
0.369451	0.195502	0.5	
0.439458	0.238488	0.424308	
0.476114	0.152694	0.40246	
0.352401	0.10935	0.404506	
-0.181859	0.199592	0.5	
-0.128799	0.212132	0.5	
-0.212186	0.200864	0.421006	
-0.181622	0.273954	0.42594	
-0.212132	-0.128799	0.5	
-0.18203	-0.0488646	0.5	
-0.15347	-0.097127	0.5	
-0.229671	-0.108874	0.396367	
0.221409	0.189735	0.5	
0.249439	0.227985	0.5	
0.271058	0.153206	0.5	
0.220138	0.220062	0.417726	
-0.217356	-0.450285	0.144698	
-0.138366	-0.358353	0.236796	
-0.168043	-0.470916	0.199874	
-0.16153	-0.357052	0.106281	
0.186731	-0.150807	0.387359	
0.163614	-0.249053	0.416633	
0.110665	-0.131179	0.419604	
0.134803	-0.19156	0.335814	
-0.128799	0.212132	0.5	
-0.123171	0.237068	0.386906	
-0.106066	0.256066	0.5	
-0.0612159	0.20738	0.430983	
0.388274	0.315029	0.420807	
0.415735	0.277785	0.365862	
0.439458	0.238488	0.424308	
0.320474	0.196191	0.377567	
-0.18468	-0.0140346	0.375736	
-0.134018	-0.125076	0.416643	
-0.229671	-0.108874	0.396367	
-0.128371	-0.0605284	0.341709	
-0.437078	-0.242822	0.347009	
-0.329023	-0.172142	0.292634	
-0.470668	-0.168734	0.298219	
-0.338135	-0.204677	0.398089	
-0.165601	0.0438592	0.172089	
-0.118181	0.0989473	0.251321	
-0.1493	0.167608	0.126676	
-0.219759	0.108564	0.237237	
0.0952672	-0.342147	0.15717	
0.0153009	-0.365787	0.239317	
0.153466	-0.356896	0.263852	
0.104343	-0.277575	0.292493	
0.268482	0.1106	0.289732	
0.190566	0.216647	0.261668	
0.14675	0.128723	0.276074	
0.248284	0.183853	0.331313	
-0.0268842	0.224117	0.253342	
-0.0155726	0.113982	0.279722	
-0.0201888	0.188065	0.366	
-0.103796	0.164416	0.331112	
-0.233647	0.26032	0.360484	
-0.265452	0.263294	0.235043	
-0.154067	0.200523	0.255267	
-0.18531	0.191876	0.339375	
0.295465	0.212132	0.5	
0.320474	0.196191	0.377567	
0.322107	0.166579	0.5	
0.259229	0.131014	0.416169	
0.373926	0.198925	0	
0.478555	0.144862	0.0783483	
0.436762	0.243391	0.0969381	
0.362932	0.098224	0.109262	
-0.0589256	0.358926	0.5	
-0.0833333	0.3	0.5	
-0.12216	0.350601	0.5	
-0.063352	0.397195	0.411842	
-0.295688	0.153857	0.172875	
-0.1493	0.167608	0.126676	
-0.219759	0.108564	0.237237	
-0.241404	0.162452	0.0887852	
-0.105887	-0.105887	0.5	
-0.15347	-0.097127	0.5	
-0.122616	-0.0499791	0.5	
-0.134018	-0.125076	0.416643	
0.110881	-0.0319284	0.263307	
0.0387655	-0.0479803	0.318584	
0.163607	-0.084363	0.326696	
0.107111	0.0161028	0.331802	
0.5	0	0.4	
0.380516	0.0520569	0.316102	
0.493012	0.0833019	0.344789	
0.411179	-0.0301121	0.336439	
0.135296	0.0693292	0.185912	
0.189688	0.149534	0.191539	
0.212089	0.020774	0.252242	
0.276673	0.0689246	0.208494	
0.415735	0.277785	0.365862	
0.320474	0.196191	0.377567	
0.388274	0.315029	0.420807	
0.291987	0.28448	0.40616	
0.12216	0.350601	0.5	
0.0589256	0.358926	0.5	
0.121276	0.418309	0.5	
0.098227	0.400612	0.372757	
-0.444481	-0.228991	0.0919014	
-0.468495	-0.174678	0.182891	
-0.429146	-0.25658	0.16876	
-0.304937	-0.166182	0.150677	
-0.401548	-0.0423374	0	
-0.337562	0.0547633	0	
-0.426463	0.0441363	0	
-0.377341	0.0879068	0.111753	
-0.261345	-0.230036	0	
-0.304937	-0.166182	0.150677	
-0.28242	-0.274225	0.101342	
-0.206213	-0.186333	0.106781	
-0.490316	0.0979281	0.24092	
-0.493378	0.0811073	0.146993	
-0.469621	0.171627	0.160116	
-0.377341	0.0879068	0.111753	
-0.128799	0.212132	0.5	
-0.153206	0.271058	0.5	
-0.106066	0.256066	0.5	
-0.181622	0.273954	0.42594	
0.0848044	-0.241311	0.380971	
0.135438	-0.346064	0.384448	
0.0230591	-0.35567	0.355674	
0.104343	-0.277575	0.292493	
0.0203259	0.350518	0.403169	
0.0693948	0.36903	0.285155	
0.0970926	0.279271	0.373778	
0.0303777	0.260127	0.314563	
0.436811	-0.243302	0.0936268	
0.469621	-0.171627	0.160116	
0.478516	-0.14499	0.0762896	
0.321456	-0.142755	0.153578	
0.164797	-0.177585	0	
0.116361	-0.190469	0.100844	
0.201164	-0.273578	0	
0.235288	-0.159577	0.0981964	
0.121351	-0.418264	0.5	
0.12216	-0.350601	0.5	
0.196736	-0.368707	0.5	
0.135438	-0.346064	0.384448	
-0.00982413	0.311992	0.161153	
-0.161163	0.309136	0.149427	
-0.0606721	0.230593	0.106057	
-0.0983525	0.249793	0.193206	
0.132803	0.332442	0.177	
0.14467	0.301705	0.287535	
0.0913842	0.220621	0.259416	
0.143575	0.241784	0.186885	
0.361187	-0.127724	0.273645	
0.300325	-0.0288408	0.258872	
0.321349	-0.0500942	0.355813	
0.411179	-0.0301121	0.336439	
0.125573	-0.41396	0	
0.0704474	-0.495012	0.0718449	
0.153329	-0.47591	0.0923815	
0.0206176	-0.395667	0.103453	
-0.2234	-0.212186	0.369318	
-0.250192	-0.304018	0.405469	
-0.120748	-0.291511	0.335128	
-0.162242	-0.337279	0.406019	
0	-0.5	0.3	
0.0230591	-0.35567	0.355674	
0.082983	-0.493066	0.348347	
0.0961802	-0.403925	0.321644	
-0.295465	0.212132	0.5	
-0.334293	0.161532	0.5	
-0.332155	0.186259	0.378016	
-0.268272	0.128138	0.411267	
0.118934	-0.0478046	0.5	
0.0953117	-0.0282381	0.401854	
0.152693	-0.00394448	0.5	
0.165319	-0.0685492	0.421531	
0.321456	-0.142755	0.153578	
0.174775	-0.129562	0.177015	
0.285128	-0.0586701	0.102886	
0.235288	-0.159577	0.0981964	
-0.2234	-0.212186	0.369318	
-0.117884	-0.234333	0.40948	
-0.250192	-0.304018	0.405469	
-0.162242	-0.337279	0.406019	
-0.220621	-0.0913842	0.273465	
-0.229671	-0.108874	0.396367	
-0.18468	-0.0140346	0.375736	
-0.259249	-0.00709893	0.335751	
0	-0.5	0.2	
0.0153009	-0.365787	0.239317	
0.0807376	-0.493438	0.154216	
0.0206176	-0.395667	0.103453	
0.219334	-0.328412	0.103652	
0.25314	-0.310833	0.250522	
0.317319	-0.386405	0.201487	
0.302277	-0.248662	0.113737	
0.251686	0.10803	0.129438	
0.342141	0.162954	0.200127	
0.239078	0.233865	0.176769	
0.189688	0.149534	0.191539	
-0.325718	-0.0135225	0.164468	
-0.377341	0.0879068	0.111753	
-0.295688	0.153857	0.172875	
-0.259075	0.0657144	0.105374	
0.153328	0.47591	0.0923699	
0.242822	0.437078	0.152991	
0.132803	0.332442	0.177	
0.223568	0.323879	0.108427	
0.242822	0.437078	0.152991	
0.247057	0.434698	0.250499	
0.132803	0.332442	0.177	
0.234881	0.32259	0.246366	
-0.268448	0.0761744	0.322026	
-0.38814	0.0365087	0.390101	
-0.360873	0.0158982	0.275217	
-0.259249	-0.00709893	0.335751	
-0.220621	-0.0913842	0.273465	
-0.323059	-0.0556697	0.363619	
-0.229671	-0.108874	0.396367	
-0.259249	-0.00709893	0.335751	
0.0734599	0.0912867	0.346892	
0.107111	0.0161028	0.331802	
0.14675	0.128723	0.276074	
0.196702	0.0791686	0.326444	
0.0734599	0.0912867	0.346892	
0.136079	0.0773073	0.413876	
0.107111	0.0161028	0.331802	
0.196702	0.0791686	0.326444	
-0.386792	-0.316847	0.301384	
-0.386476	-0.317233	0.409527	
-0.323938	-0.380873	0.347739	
-0.250192	-0.304018	0.405469	
-0.0125395	-0.269727	0.5	
-0.0254015	-0.238675	0.394183	
-5.51091e-17	-0.216667	0.5	
0.0220588	-0.302368	0.419947	
0.0230591	-0.35567	0.355674	
0.0212569	-0.409526	0.42172	
0.135438	-0.346064	0.384448	
0.0220588	-0.302368	0.419947	
-0.268448	0.0761744	0.322026	
-0.177442	0.0578991	0.31733	
-0.262239	0.179182	0.299022	
-0.18531	0.191876	0.339375	
-0.38814	0.0365087	0.390101	
-0.32522	-0.00468432	0.424344	
-0.323059	-0.0556697	0.363619	
-0.259249	-0.00709893	0.335751	
-0.0201888	0.188065	0.366	
-0.0835252	0.135066	0.417682	
-0.103796	0.164416	0.331112	
-0.0139985	0.0766371	0.354232	
-0.117671	-0.10197	0	
-0.186407	-0.169451	0	
-0.0925337	-0.196451	0	
-0.206213	-0.186333	0.106781	
-0.157073	0.0991372	0.5	
-0.177179	0.127748	0.396718	
-0.153206	0.153206	0.5	
-0.0835252	0.135066	0.417682	
0.317233	0.386476	0.0904728	
0.261819	0.319027	0	
0.325166	0.230418	0.10487	
0.223568	0.323879	0.108427	
-0.171353	-0.469721	0.338334	
-0.0977967	-0.490343	0.258774	
-0.138366	-0.358353	0.236796	
-0.0570812	-0.3559	0.302161	
-0.154067	0.200523	0.255267	
-0.0968356	0.250534	0.302469	
-0.144119	0.318458	0.266738	
-0.18531	0.191876	0.339375	
0.0807376	-0.493438	0.154216	
0.0853821	-0.492656	0.251348	
0.16873	-0.47067	0.201799	
0.0952672	-0.342147	0.15717	
-0.381086	-0.210299	0.5	
-0.399482	-0.123001	0.5	
-0.334293	-0.161532	0.5	
-0.338135	-0.204677	0.398089	
-0.146435	-0.19403	0.261638	
-0.0992467	-0.239425	0.125263	
-0.085688	-0.137167	0.16869	
-0.080828	-0.269765	0.22671	
0.154508	-0.0938282	0.5	
0.153206	-0.153206	0.5	
0.110665	-0.131179	0.419604	
0.165319	-0.0685492	0.421531	
-0.381208	0.210225	0.5	
-0.295465	0.212132	0.5	
-0.334293	0.161532	0.5	
-0.332155	0.186259	0.378016	
-0.153206	-0.153206	0.5	
-0.134018	-0.125076	0.416643	
-0.128799	-0.212132	0.5	
-0.194749	-0.171788	0.429088	
0.439458	0.238488	0.424308	
0.415735	0.277785	0.365862	
0.450285	0.217356	0.355302	
0.320474	0.196191	0.377567	
0.0712814	-0.153152	0	
-0.00334623	-0.10275	0.104947	
0.116361	-0.190469	0.100844	
0.0983144	-0.0718988	0.0894985	
0.31678	-0.386847	0.395869	
0.388345	-0.314941	0.420199	
0.249979	-0.247703	0.407586	
0.23026	-0.337515	0.419392	
0.154508	-0.0938282	0.5	
0.212132	-0.128799	0.5	
0.153206	-0.153206	0.5	
0.165319	-0.0685492	0.421531	
0.0589256	0.358926	0.5	
0.0465403	0.431857	0.5	
0.121276	0.418309	0.5	
0.098227	0.400612	0.372757	
-0.295688	0.153857	0.172875	
-0.219759	0.108564	0.237237	
-0.259075	0.0657144	0.105374	
-0.241404	0.162452	0.0887852	
0.277603	0.0092772	0.5	
0.315853	0.0373069	0.5	
0.330273	-0.0125395	0.5	
0.353873	0.0061299	0.416416	
0.268482	0.1106	0.289732	
0.278485	0.0481879	0.395453	
0.259229	0.131014	0.416169	
0.196702	0.0791686	0.326444	
-0.0411735	0.316432	0.326214	
-0.0163515	0.266982	0.412579	
-0.123171	0.237068	0.386906	
-0.0968356	0.250534	0.302469	
-0.0125395	0.0302731	0.5	
-0.03759	-0.01517	0.5	
-0.0524491	0.0544183	0.419727	
-0.0182997	-0.049373	0.434403	
0.184555	5.29963e-05	0.359326	
0.212089	0.020774	0.252242	
0.107111	0.0161028	0.331802	
0.196702	0.0791686	0.326444	
0.0985518	0.185902	0.12959	
0.135296	0.0693292	0.185912	
0.0632778	0.132225	0.219	
0.0431438	0.101726	0.0953265	
-0.31678	0.386847	0.395869	
-0.233647	0.26032	0.360484	
-0.3028	0.261077	0.41707	
-0.316792	0.255444	0.314661	
0.174542	-0.227302	0.5	
0.128799	-0.212132	0.5	
0.153206	-0.153206	0.5	
0.163614	-0.249053	0.416633	
0.212132	-0.128799	0.5	
0.199592	-0.181859	0.5	
0.153206	-0.153206	0.5	
0.186731	-0.150807	0.387359	
-0.0112682	-5.37735e-05	0.248563	
0.0661482	0.0500773	0.26338	
-0.0155726	0.113982	0.279722	
-0.0139985	0.0766371	0.354232	
0.0203259	0.350518	0.403169	
-0.0106277	0.407378	0.33212	
0	0.5	0.4	
0.098227	0.400612	0.372757	
-0.5	0	0.2	
-0.492649	-0.0854243	0.248597	
-0.372506	-0.102825	0.21502	
-0.402728	-0.0701503	0.304716	
-0.0411735	0.316432	0.326214	
-0.0163515	0.266982	0.412579	
0.0203259	0.350518	0.403169	
-0.063352	0.397195	0.411842	
0.321349	-0.0500942	0.355813	
0.380516	0.0520569	0.316102	
0.278485	0.0481879	0.395453	
0.353873	0.0061299	0.416416	
-0.193999	-0.271016	0.175767	
-0.234283	-0.304583	0.2878	
-0.146435	-0.19403	0.261638	
-0.237359	-0.176563	0.223722	
-0.0734441	0.0616893	0	
0.0431438	0.101726	0.0953265	
-0.00425413	0.131001	0	
-0.0884785	0.081082	0.106964	
0.328092	0.270243	0	
0.317233	0.386476	0.0904728	
0.261819	0.319027	0	
0.325166	0.230418	0.10487	
0.0209546	0.0362755	0	
-0.048473	-0.0328568	0	
0.0461078	-0.0584269	0	
0.0395065	-0.000100258	0.126114	
-0.262239	0.179182	0.299022	
-0.177442	0.0578991	0.31733	
-0.219759	0.108564	0.237237	
-0.18531	0.191876	0.339375	
-0.0930725	0.0739765	0.352845	
-0.18468	-0.0140346	0.375736	
-0.130814	0.0354375	0.417572	
-0.177442	0.0578991	0.31733	
-0.0112682	-5.37735e-05	0.248563	
-0.127176	-0.00609761	0.272433	
-0.0742895	0.0407153	0.192583	
-0.0286268	-0.0663675	0.186281	
0.174738	-0.468473	0.317184	
0.135438	-0.346064	0.384448	
0.256554	-0.429162	0.331268	
0.153466	-0.356896	0.263852	
-0.0112682	-5.37735e-05	0.248563	
-0.0948276	-0.0943246	0.25421	
-0.127176	-0.00609761	0.272433	
-0.0286268	-0.0663675	0.186281	
0.186731	-0.150807	0.387359	
0.110665	-0.131179	0.419604	
0.153206	-0.153206	0.5	
0.165319	-0.0685492	0.421531	
0.278485	0.0481879	0.395453	
0.380516	0.0520569	0.316102	
0.321349	-0.0500942	0.355813	
0.262136	0.0021711	0.327033	
0.380873	0.323938	0.152261	
0.428195	0.258165	0.201755	
0.376757	0.328716	0.246468	
0.308855	0.242117	0.27439	
0.184555	5.29963e-05	0.359326	
0.136079	0.0773073	0.413876	
0.0953117	-0.0282381	0.401854	
0.179502	0.0181689	0.432699	
0.0913842	0.220621	0.259416	
0.190566	0.216647	0.261668	
0.14675	0.128723	0.276074	
0.189688	0.149534	0.191539	
-0.154067	0.200523	0.255267	
-0.161163	0.309136	0.149427	
-0.144119	0.318458	0.266738	
-0.0983525	0.249793	0.193206	
0.373926	0.198925	0	
0.300884	0.198715	0	
0.337634	0.115561	0	
0.325166	0.230418	0.10487	
0.369451	0.195502	0.5	
0.295465	0.212132	0.5	
0.334293	0.262733	0.5	
0.320474	0.196191	0.377567	
0.183274	0.148555	0.376377	
0.14675	0.128723	0.276074	
0.136738	0.210835	0.334534	
0.248284	0.183853	0.331313	
-0.0589256	-0.358926	0.5	
0.0212569	-0.409526	0.42172	
-0.0825799	-0.384765	0.390495	
-0.0611092	-0.309537	0.420103	
-0.444481	-0.228991	0.0919014	
-0.41072	-0.12459	0	
-0.477948	-0.146853	0.0840084	
-0.382808	-0.0894032	0.103515	
-0.127176	-0.00609761	0.272433	
-0.177442	0.0578991	0.31733	
-0.246812	0.00918153	0.237581	
-0.259249	-0.00709893	0.335751	
0.321456	-0.142755	0.153578	
0.332005	0.00713037	0.169463	
0.285128	-0.0586701	0.102886	
0.244062	-0.0339696	0.193164	
-0.2234	-0.212186	0.369318	
-0.120748	-0.291511	0.335128	
-0.117884	-0.234333	0.40948	
-0.162242	-0.337279	0.406019	
-0.258165	-0.428195	0.298245	
-0.243391	-0.436762	0.403062	
-0.171353	-0.469721	0.338334	
-0.162242	-0.337279	0.406019	
-0.177179	0.127748	0.396718	
-0.259187	0.0363748	0.408672	
-0.268448	0.0761744	0.322026	
-0.177442	0.0578991	0.31733	
-0.268272	0.128138	0.411267	
-0.212186	0.200864	0.421006	
-0.332155	0.186259	0.378016	
-0.3028	0.261077	0.41707	
-0.2429	0.437035	0.152631	
-0.153329	0.47591	0.0923815	
-0.16873	0.47067	0.201799	
-0.161163	0.309136	0.149427	
-0.0254015	-0.238675	0.394183	
0.000455301	-0.171885	0.334296	
-0.0814439	-0.125985	0.343547	
-0.0581449	-0.152487	0.425037	
-0.202717	-0.0800005	0.134359	
-0.085688	-0.137167	0.16869	
-0.0801458	-0.0255891	0.118207	
-0.136956	-0.0443284	0.188767	
0.388345	-0.314941	0.420199	
0.416747	-0.276265	0.362548	
0.373696	-0.332191	0.334057	
0.283545	-0.259908	0.324527	
0.201164	-0.273578	0	
0.200132	-0.232269	0.163427	
0.219334	-0.328412	0.103652	
0.302277	-0.248662	0.113737	
-0.118181	0.0989473	0.251321	
-0.154067	0.200523	0.255267	
-0.219759	0.108564	0.237237	
-0.18531	0.191876	0.339375	
-0.18468	-0.0140346	0.375736	
-0.130814	0.0354375	0.417572	
-0.0882569	-0.0365572	0.407331	
-0.128371	-0.0605284	0.341709	
0.0819669	-0.126701	0.339809	
0.0848044	-0.241311	0.380971	
0.000455301	-0.171885	0.334296	
0.0592568	-0.173932	0.272176	
-0.0411735	0.316432	0.326214	
0.0693948	0.36903	0.285155	
0.0203259	0.350518	0.403169	
0.0303777	0.260127	0.314563	
0.262733	0.334293	0.5	
0.3168	0.386831	0.395903	
0.291987	0.28448	0.40616	
0.177101	0.348186	0.395851	
0.373926	0.198925	0	
0.337634	0.115561	0	
0.362932	0.098224	0.109262	
0.325166	0.230418	0.10487	
-0.120748	-0.291511	0.335128	
-0.250192	-0.304018	0.405469	
-0.234283	-0.304583	0.2878	
-0.162242	-0.337279	0.406019	
-0.106984	0.108603	0.5	
-0.130814	0.0354375	0.417572	
-0.0835252	0.135066	0.417682	
-0.0524491	0.0544183	0.419727	
-0.127176	-0.00609761	0.272433	
-0.246812	0.00918153	0.237581	
-0.220621	-0.0913842	0.273465	
-0.259249	-0.00709893	0.335751	
-0.165601	0.0438592	0.172089	
-0.0884785	0.081082	0.106964	
-0.118181	0.0989473	0.251321	
-0.0742895	0.0407153	0.192583	
-0.0949082	0.168548	0.5	
-0.0835252	0.135066	0.417682	
-0.128799	0.212132	0.5	
-0.0612159	0.20738	0.430983	
-0.0201888	0.188065	0.366	
-0.0411735	0.316432	0.326214	
-0.0163515	0.266982	0.412579	
0.0303777	0.260127	0.314563	
0.0557946	0.181673	0.5	
0.086989	0.179344	0.400327	
0.0535407	0.120642	0.5	
0.016747	0.116372	0.415368	
-0.0565919	-0.339726	0.150695	
-0.0992467	-0.239425	0.125263	
-0.193999	-0.271016	0.175767	
-0.080828	-0.269765	0.22671	
0.268482	0.1106	0.289732	
0.352401	0.10935	0.404506	
0.380516	0.0520569	0.316102	
0.374736	0.148861	0.30011	
0.418309	0.121276	0.5	
0.431857	0.0465403	0.5	
0.358926	0.0589256	0.5	
0.352401	0.10935	0.404506	
0.00964811	-0.213747	0.128268	
-0.0992467	-0.239425	0.125263	
-0.0565919	-0.339726	0.150695	
-0.080828	-0.269765	0.22671	
0.0903521	0.10545	0	
0.158056	0.171884	0	
0.0985518	0.185902	0.12959	
0.155737	0.108922	0.093738	
0.342141	0.162954	0.200127	
0.374736	0.148861	0.30011	
0.268482	0.1106	0.289732	
0.276673	0.0689246	0.208494	
0.5	0	0.2	
0.389447	-0.0664451	0.106973	
0.493378	-0.0811073	0.146993	
0.40447	-0.0146922	0.243912	
-0.429476	0.256028	0.291579	
-0.332155	0.186259	0.378016	
-0.358997	0.136564	0.272723	
-0.316792	0.255444	0.314661	
0.153206	0.271058	0.5	
0.166579	0.322107	0.5	
0.212132	0.295465	0.5	
0.135958	0.243685	0.430036	
-0.295465	0.212132	0.5	
-0.268272	0.128138	0.411267	
-0.332155	0.186259	0.378016	
-0.3028	0.261077	0.41707	
0.460762	-0.19416	0.234059	
0.469621	-0.171627	0.160116	
0.428104	-0.258315	0.196896	
0.321456	-0.142755	0.153578	
-0.0930725	0.0739765	0.352845	
-0.103796	0.164416	0.331112	
-0.0835252	0.135066	0.417682	
-0.0139985	0.0766371	0.354232	
0.0519196	-0.186143	0.5	
-6.75805e-05	-0.152663	0.5	
0.0506005	-0.12216	0.5	
0.0135874	-0.118011	0.409404	
-0.241074	0.0589256	0.5	
-0.185212	0.0538339	0.5	
-0.216667	3.67394e-17	0.5	
-0.259187	0.0363748	0.408672	
-0.0155726	0.113982	0.279722	
0.0661482	0.0500773	0.26338	
0.0632778	0.132225	0.219	
0.0525099	0.171816	0.320476	
0.239078	0.233865	0.176769	
0.342141	0.162954	0.200127	
0.251686	0.10803	0.129438	
0.325166	0.230418	0.10487	
-0.0565919	-0.339726	0.150695	
-0.16153	-0.357052	0.106281	
-0.193999	-0.271016	0.175767	
-0.0992467	-0.239425	0.125263	
0.5	0	0.4	
0.392836	-0.0823347	0.412468	
0.353873	0.0061299	0.416416	
0.411179	-0.0301121	0.336439	
-0.0411735	0.316432	0.326214	
0.0303777	0.260127	0.314563	
-0.0201888	0.188065	0.366	
-0.0968356	0.250534	0.302469	
0.12216	0.350601	0.5	
0.121276	0.418309	0.5	
0.177101	0.348186	0.395851	
0.098227	0.400612	0.372757	
0.0712814	-0.153152	0	
0.00964811	-0.213747	0.128268	
0.00183684	-0.222331	0	
0.116361	-0.190469	0.100844	
0.328092	0.270243	0	
0.386505	0.317197	0.0688254	
0.317233	0.386476	0.0904728	
0.325166	0.230418	0.10487	
0.0728232	0.494668	0.426459	
0.0203259	0.350518	0.403169	
0	0.5	0.4	
0.098227	0.400612	0.372757	
-0.439384	0.238625	0.423358	
-0.332155	0.186259	0.378016	
-0.416747	0.276265	0.362548	
-0.3028	0.261077	0.41707	
0.016747	0.116372	0.415368	
0.0614383	0.0441646	0.419518	
0	0.0833333	0.5	
-0.0524491	0.0544183	0.419727	
-0.177179	0.127748	0.396718	
-0.103796	0.164416	0.331112	
-0.177442	0.0578991	0.31733	
-0.18531	0.191876	0.339375	
0.469721	0.171353	0.161666	
0.436762	0.243391	0.0969381	
0.362932	0.098224	0.109262	
0.325166	0.230418	0.10487	
-5.51091e-17	-0.383333	0.5	
0.0220588	-0.302368	0.419947	
0.0212569	-0.409526	0.42172	
-0.0611092	-0.309537	0.420103	
-0.0833019	-0.493012	0.155211	
-0.152694	-0.476114	0.0975404	
-0.16153	-0.357052	0.106281	
-0.069553	-0.399585	0.0805589	
-0.0833019	-0.493012	0.155211	
-0.152694	-0.476114	0.0975404	
-0.168043	-0.470916	0.199874	
-0.16153	-0.357052	0.106281	
0.0819669	-0.126701	0.339809	
0.0848044	-0.241311	0.380971	
0.0592568	-0.173932	0.272176	
0.134803	-0.19156	0.335814	
0.0734599	0.0912867	0.346892	
0.0661482	0.0500773	0.26338	
0.14675	0.128723	0.276074	
0.107111	0.0161028	0.331802	
-0.134018	-0.125076	0.416643	
-0.171189	-0.143954	0.334682	
-0.117884	-0.234333	0.40948	
-0.194749	-0.171788	0.429088	
0.0632778	0.132225	0.219	
0.189688	0.149534	0.191539	
0.0985518	0.185902	0.12959	
0.143575	0.241784	0.186885	
0.0833333	0.3	0.5	
0.12216	0.350601	0.5	
0.166579	0.322107	0.5	
0.135958	0.243685	0.430036	
-0.000470172	0.0044189	0.383613	
0.0614383	0.0441646	0.419518	
0.0953117	-0.0282381	0.401854	
0.107111	0.0161028	0.331802	
-0.146435	-0.19403	0.261638	
-0.080828	-0.269765	0.22671	
-0.085688	-0.137167	0.16869	
-0.0547597	-0.189651	0.263151	
0.436811	-0.243302	0.0936268	
0.428104	-0.258315	0.196896	
0.321456	-0.142755	0.153578	
0.302277	-0.248662	0.113737	
0.259229	0.131014	0.416169	
0.196702	0.0791686	0.326444	
0.183274	0.148555	0.376377	
0.248284	0.183853	0.331313	
0.241074	0.0589256	0.5	
0.256066	0.106066	0.5	
0.3	0.0833333	0.5	
0.278485	0.0481879	0.395453	
-0.377032	0.3284	0.243217	
-0.429476	0.256028	0.291579	
-0.428104	0.258315	0.196896	
-0.316792	0.255444	0.314661	
0.439384	-0.238625	0.423358	
0.388345	-0.314941	0.420199	
0.381208	-0.210225	0.5	
0.377058	-0.167276	0.424233	
0.0230591	-0.35567	0.355674	
0.0153009	-0.365787	0.239317	
0.104343	-0.277575	0.292493	
0.0961802	-0.403925	0.321644	
-0.0201888	0.188065	0.366	
-0.103796	0.164416	0.331112	
-0.0155726	0.113982	0.279722	
-0.0139985	0.0766371	0.354232	
-0.0833333	0.3	0.5	
-0.166579	0.322107	0.5	
-0.12216	0.350601	0.5	
-0.181622	0.273954	0.42594	
0.00183684	-0.222331	0	
0.00964811	-0.213747	0.128268	
-0.0925337	-0.196451	0	
-0.0992467	-0.239425	0.125263	
-0.118181	0.0989473	0.251321	
-0.103796	0.164416	0.331112	
-0.154067	0.200523	0.255267	
-0.18531	0.191876	0.339375	
0.0651412	0.200096	0	
0.0903521	0.10545	0	
0.0985518	0.185902	0.12959	
0.0431438	0.101726	0.0953265	
0.0230591	-0.35567	0.355674	
0.135438	-0.346064	0.384448	
0.0848044	-0.241311	0.380971	
0.0220588	-0.302368	0.419947	
0.4284	0.257824	0.295024	
0.342141	0.162954	0.200127	
0.460548	0.194667	0.23433	
0.374736	0.148861	0.30011	
-0.428104	0.258315	0.196896	
-0.38078	0.324048	0.150149	
-0.377032	0.3284	0.243217	
-0.265452	0.263294	0.235043	
0.0970926	0.279271	0.373778	
0.136738	0.210835	0.334534	
0.221133	0.265326	0.342623	
0.135958	0.243685	0.430036	
-0.468495	-0.174678	0.182891	
-0.304937	-0.166182	0.150677	
-0.382808	-0.0894032	0.103515	
-0.372506	-0.102825	0.21502	
0.221409	0.189735	0.5	
0.220138	0.220062	0.417726	
0.271058	0.153206	0.5	
0.259229	0.131014	0.416169	
0.317163	-0.386533	0.299742	
0.23026	-0.337515	0.419392	
0.31678	-0.386847	0.395869	
0.283545	-0.259908	0.324527	
0.135296	0.0693292	0.185912	
0.251686	0.10803	0.129438	
0.189688	0.149534	0.191539	
0.276673	0.0689246	0.208494	
-0.258165	-0.428195	0.298245	
-0.257824	-0.4284	0.204976	
-0.234283	-0.304583	0.2878	
-0.138366	-0.358353	0.236796	
0.0970926	0.279271	0.373778	
0.221133	0.265326	0.342623	
0.177101	0.348186	0.395851	
0.135958	0.243685	0.430036	
0.114055	0.374109	0	
0.189613	0.313662	0	
0.202324	0.378521	0	
0.223568	0.323879	0.108427	
-0.268448	0.0761744	0.322026	
-0.259187	0.0363748	0.408672	
-0.177179	0.127748	0.396718	
-0.268272	0.128138	0.411267	
0.220621	-0.0913842	0.253691	
0.268239	-0.118327	0.326702	
0.300325	-0.0288408	0.258872	
0.262136	0.0021711	0.327033	
0.239078	0.233865	0.176769	
0.325166	0.230418	0.10487	
0.251686	0.10803	0.129438	
0.191432	0.204802	0.0909793	
0.200132	-0.232269	0.163427	
0.25314	-0.310833	0.250522	
0.219334	-0.328412	0.103652	
0.302277	-0.248662	0.113737	
-0.0201888	0.188065	0.366	
-0.0155726	0.113982	0.279722	
-0.0268842	0.224117	0.253342	
0.0525099	0.171816	0.320476	
0.0903521	0.10545	0	
0.0985518	0.185902	0.12959	
0.0431438	0.101726	0.0953265	
0.155737	0.108922	0.093738	
-0.0814439	-0.125985	0.343547	
-0.134018	-0.125076	0.416643	
-0.117884	-0.234333	0.40948	
-0.0581449	-0.152487	0.425037	
-0.048473	-0.0328568	0	
-0.117671	-0.10197	0	
-0.0232782	-0.127584	0	
-0.00334623	-0.10275	0.104947	
-0.0254015	-0.238675	0.394183	
0.0230591	-0.35567	0.355674	
0.0220588	-0.302368	0.419947	
-0.0611092	-0.309537	0.420103	
-0.202855	-0.234529	0.5	
-0.249722	-0.227302	0.5	
-0.224672	-0.181859	0.5	
-0.194749	-0.171788	0.429088	
-0.323059	-0.0556697	0.363619	
-0.360873	0.0158982	0.275217	
-0.38814	0.0365087	0.390101	
-0.259249	-0.00709893	0.335751	
-0.16873	0.47067	0.201799	
-0.174738	0.468473	0.317184	
-0.247023	0.434718	0.250558	
-0.144119	0.318458	0.266738	
-0.0930725	0.0739765	0.352845	
-0.130814	0.0354375	0.417572	
-0.0882569	-0.0365572	0.407331	
-0.0524491	0.0544183	0.419727	
0.221133	0.265326	0.342623	
0.308855	0.242117	0.27439	
0.320474	0.196191	0.377567	
0.248284	0.183853	0.331313	
-0.0565919	-0.339726	0.150695	
0.0153009	-0.365787	0.239317	
-0.080828	-0.269765	0.22671	
-0.0570812	-0.3559	0.302161	
0.0819669	-0.126701	0.339809	
0.163607	-0.084363	0.326696	
0.110881	-0.0319284	0.263307	
0.0387655	-0.0479803	0.318584	
-0.247023	0.434718	0.250558	
-0.144119	0.318458	0.266738	
-0.174738	0.468473	0.317184	
-0.232102	0.339116	0.303176	
0.212132	0.295465	0.5	
0.249439	0.227985	0.5	
0.199592	0.242405	0.5	
0.220138	0.220062	0.417726	
0.0833333	-0.3	0.5	
0.0589256	-0.241074	0.5	
0.0848044	-0.241311	0.380971	
0.0220588	-0.302368	0.419947	
-0.0268842	0.224117	0.253342	
-0.0155726	0.113982	0.279722	
-0.0243888	0.144613	0.165538	
0.0632778	0.132225	0.219	
-0.416747	0.276265	0.362548	
-0.332155	0.186259	0.378016	
-0.429476	0.256028	0.291579	
-0.316792	0.255444	0.314661	
-0.0565919	-0.339726	0.150695	
-0.080828	-0.269765	0.22671	
-0.138366	-0.358353	0.236796	
-0.0570812	-0.3559	0.302161	
-0.386476	-0.317233	0.409527	
-0.338135	-0.204677	0.398089	
-0.330717	-0.276825	0.5	
-0.250192	-0.304018	0.405469	
-0.0638367	-0.295761	0	
-0.168688	-0.281701	0	
-0.16153	-0.357052	0.106281	
-0.0992467	-0.239425	0.125263	
0.0953117	-0.0282381	0.401854	
0.136079	0.0773073	0.413876	
0.184555	5.29963e-05	0.359326	
0.107111	0.0161028	0.331802	
0.166579	0.322107	0.5	
0.177101	0.348186	0.395851	
0.212132	0.295465	0.5	
0.135958	0.243685	0.430036	
-0.31678	0.386847	0.395869	
-0.233647	0.26032	0.360484	
-0.316792	0.255444	0.314661	
-0.232102	0.339116	0.303176	
-0.439384	0.238625	0.423358	
-0.381208	0.210225	0.5	
-0.332155	0.186259	0.378016	
-0.3028	0.261077	0.41707	
-0.146435	-0.19403	0.261638	
-0.193999	-0.271016	0.175767	
-0.0992467	-0.239425	0.125263	
-0.080828	-0.269765	0.22671	
0.0690566	-0.495208	0.430964	
0.082983	-0.493066	0.348347	
0.0212569	-0.409526	0.42172	
0.0961802	-0.403925	0.321644	
0.0401436	0.291204	0	
-0.0606721	0.230593	0.106057	
-0.0295403	0.225144	0	
0.0738057	0.28359	0.108069	
0.321456	-0.142755	0.153578	
0.268117	-0.201453	0.257301	
0.200132	-0.232269	0.163427	
0.302277	-0.248662	0.113737	
0.380516	0.0520569	0.316102	
0.300325	-0.0288408	0.258872	
0.321349	-0.0500942	0.355813	
0.262136	0.0021711	0.327033	
-0.323938	-0.380873	0.347739	
-0.258165	-0.428195	0.298245	
-0.234283	-0.304583	0.2878	
-0.250192	-0.304018	0.405469	
-0.174738	0.468473	0.317184	
-0.144119	0.318458	0.266738	
-0.144981	0.358558	0.378678	
-0.232102	0.339116	0.303176	
0.268482	0.1106	0.289732	
0.196702	0.0791686	0.326444	
0.259229	0.131014	0.416169	
0.248284	0.183853	0.331313	
0.0651412	0.200096	0	
0.0903521	0.10545	0	
0.158056	0.171884	0	
0.0985518	0.185902	0.12959	
0.184555	5.29963e-05	0.359326	
0.163607	-0.084363	0.326696	
0.249091	-0.0823301	0.40832	
0.165319	-0.0685492	0.421531	
0.3	0.0833333	0.5	
0.278485	0.0481879	0.395453	
0.256066	0.106066	0.5	
0.259229	0.131014	0.416169	
0.00964811	-0.213747	0.128268	
-0.00334623	-0.10275	0.104947	
0.0785366	-0.11627	0.176642	
0.116361	-0.190469	0.100844	
-0.220621	-0.0913842	0.273465	
-0.202717	-0.0800005	0.134359	
-0.246812	0.00918153	0.237581	
-0.136956	-0.0443284	0.188767	
0.428195	0.258165	0.201755	
0.342141	0.162954	0.200127	
0.4284	0.257824	0.295024	
0.308855	0.242117	0.27439	
-0.03759	-0.31517	0.5	
-5.51091e-17	-0.383333	0.5	
-0.0589256	-0.358926	0.5	
-0.0611092	-0.309537	0.420103	
0.212132	-0.128799	0.5	
0.186731	-0.150807	0.387359	
0.153206	-0.153206	0.5	
0.165319	-0.0685492	0.421531	
-0.127176	-0.00609761	0.272433	
-0.118181	0.0989473	0.251321	
-0.165601	0.0438592	0.172089	
-0.177442	0.0578991	0.31733	
0.0913842	0.220621	0.259416	
0.0632778	0.132225	0.219	
-0.0268842	0.224117	0.253342	
0.0362945	0.23248	0.18345	
-0.383333	3.67394e-17	0.5	
-0.39407	-0.0815537	0.417272	
-0.38814	0.0365087	0.390101	
-0.32522	-0.00468432	0.424344	
-0.123001	-0.399482	0.5	
-0.144862	-0.478555	0.421652	
-0.210263	-0.381228	0.5	
-0.162242	-0.337279	0.406019	
-0.0155726	0.113982	0.279722	
-0.118181	0.0989473	0.251321	
-0.0243888	0.144613	0.165538	
-0.0742895	0.0407153	0.192583	
-0.16685	0.0883447	0	
-0.0983601	0.156434	0	
-0.1493	0.167608	0.126676	
-0.0884785	0.081082	0.106964	
0.174775	-0.129562	0.177015	
0.285128	-0.0586701	0.102886	
0.185118	-0.0448541	0.130581	
0.244062	-0.0339696	0.193164	
0.342141	0.162954	0.200127	
0.39698	0.0776459	0.202579	
0.374736	0.148861	0.30011	
0.276673	0.0689246	0.208494	
-0.171353	-0.469721	0.338334	
-0.0810399	-0.493389	0.35285	
-0.0977967	-0.490343	0.258774	
-0.0570812	-0.3559	0.302161	
-0.332155	0.186259	0.378016	
-0.233647	0.26032	0.360484	
-0.212186	0.200864	0.421006	
-0.262239	0.179182	0.299022	
-0.0201888	0.188065	0.366	
0.0525099	0.171816	0.320476	
0.016747	0.116372	0.415368	
-0.0139985	0.0766371	0.354232	
-0.26105	0.203399	0	
-0.265951	0.256468	0.111233	
-0.328307	0.16356	0	
-0.241404	0.162452	0.0887852	
-0.233647	0.26032	0.360484	
-0.23026	0.337515	0.416359	
-0.31678	0.386847	0.395869	
-0.3028	0.261077	0.41707	
-0.233647	0.26032	0.360484	
-0.262239	0.179182	0.299022	
-0.265452	0.263294	0.235043	
-0.18531	0.191876	0.339375	
0.322107	0.166579	0.5	
0.320474	0.196191	0.377567	
0.369451	0.195502	0.5	
0.352401	0.10935	0.404506	
0.0848044	-0.241311	0.380971	
0.0819669	-0.126701	0.339809	
0.110665	-0.131179	0.419604	
0.134803	-0.19156	0.335814	
0.152693	-0.00394448	0.5	
0.165319	-0.0685492	0.421531	
0.0953117	-0.0282381	0.401854	
0.179502	0.0181689	0.432699	
-0.328307	0.16356	0	
-0.377341	0.0879068	0.111753	
-0.259075	0.0657144	0.105374	
-0.241404	0.162452	0.0887852	
0.325166	0.230418	0.10487	
0.223568	0.323879	0.108427	
0.231243	0.24169	0	
0.191432	0.204802	0.0909793	
0.268482	0.1106	0.289732	
0.212089	0.020774	0.252242	
0.276673	0.0689246	0.208494	
0.262136	0.0021711	0.327033	
-0.268448	0.0761744	0.322026	
-0.219759	0.108564	0.237237	
-0.262239	0.179182	0.299022	
-0.177442	0.0578991	0.31733	
-0.03759	-0.01517	0.5	
-0.0882569	-0.0365572	0.407331	
-0.0833333	0	0.5	
-0.0524491	0.0544183	0.419727	
0.460762	-0.19416	0.234059	
0.490316	-0.0979281	0.24092	
0.469621	-0.171627	0.160116	
0.361187	-0.127724	0.273645	
0.345553	-0.109975	0.5	
0.3	-0.0833333	0.5	
0.358926	-0.0589256	0.5	
0.392836	-0.0823347	0.412468	
-0.0968356	0.250534	0.302469	
-0.0983525	0.249793	0.193206	
-0.144119	0.318458	0.266738	
-0.00163227	0.307964	0.248385	
0.0785366	-0.11627	0.176642	
0.116361	-0.190469	0.100844	
-0.00334623	-0.10275	0.104947	
0.0983144	-0.0718988	0.0894985	
0.242822	0.437078	0.152991	
0.234881	0.32259	0.246366	
0.132803	0.332442	0.177	
0.223568	0.323879	0.108427	
-0.0243888	0.144613	0.165538	
-0.0268842	0.224117	0.253342	
0.0362945	0.23248	0.18345	
-0.0983525	0.249793	0.193206	
-0.434728	9.15966e-17	0.5	
-0.495012	-0.0704482	0.428155	
-0.5	0	0.4	
-0.39407	-0.0815537	0.417272	
0.221133	0.265326	0.342623	
0.136738	0.210835	0.334534	
0.220138	0.220062	0.417726	
0.135958	0.243685	0.430036	
-0.153206	-0.271058	0.5	
-0.0833333	-0.3	0.5	
-0.162242	-0.337279	0.406019	
-0.0611092	-0.309537	0.420103	
-0.437078	-0.242822	0.347009	
-0.470668	-0.168734	0.298219	
-0.47591	-0.153328	0.40763	
-0.338135	-0.204677	0.398089	
-0.168043	-0.470916	0.199874	
-0.0977967	-0.490343	0.258774	
-0.0833019	-0.493012	0.155211	
-0.138366	-0.358353	0.236796	
0.300325	-0.0288408	0.258872	
0.276673	0.0689246	0.208494	
0.212089	0.020774	0.252242	
0.262136	0.0021711	0.327033	
-0.386792	-0.316847	0.301384	
-0.434698	-0.247057	0.249501	
-0.329023	-0.172142	0.292634	
-0.296258	-0.256529	0.211625	
-0.0742895	0.0407153	0.192583	
-0.0286268	-0.0663675	0.186281	
-0.127176	-0.00609761	0.272433	
-0.136956	-0.0443284	0.188767	
0.0690566	-0.495208	0.430964	
0.0212569	-0.409526	0.42172	
0.147585	-0.477722	0.416442	
0.0961802	-0.403925	0.321644	
-0.127176	-0.00609761	0.272433	
-0.165601	0.0438592	0.172089	
-0.246812	0.00918153	0.237581	
-0.177442	0.0578991	0.31733	
0.0807376	-0.493438	0.154216	
0.0952672	-0.342147	0.15717	
0.153329	-0.47591	0.0923815	
0.0206176	-0.395667	0.103453	
0.0970926	0.279271	0.373778	
0.0525099	0.171816	0.320476	
0.086989	0.179344	0.400327	
0.0303777	0.260127	0.314563	
0.183274	0.148555	0.376377	
0.220138	0.220062	0.417726	
0.221133	0.265326	0.342623	
0.136738	0.210835	0.334534	
0.2429	-0.437035	0.152631	
0.153329	-0.47591	0.0923815	
0.16873	-0.47067	0.201799	
0.0952672	-0.342147	0.15717	
-0.0734441	0.0616893	0	
0.0209546	0.0362755	0	
-0.00425413	0.131001	0	
0.0431438	0.101726	0.0953265	
-0.0948276	-0.0943246	0.25421	
-0.127176	-0.00609761	0.272433	
-0.0286268	-0.0663675	0.186281	
-0.136956	-0.0443284	0.188767	
0.470916	0.168043	0.300126	
0.493012	0.0833019	0.344789	
0.476114	0.152694	0.40246	
0.374736	0.148861	0.30011	
-0.166579	0.322107	0.5	
-0.0833333	0.3	0.5	
-0.153206	0.271058	0.5	
-0.181622	0.273954	0.42594	
0.0461078	-0.0584269	0	
0.0395065	-0.000100258	0.126114	
0.0983144	-0.0718988	0.0894985	
0.126165	0.019123	0.0935695	
-0.493012	0.0833019	0.344789	
-0.38814	0.0365087	0.390101	
-0.5	0	0.3	
-0.360873	0.0158982	0.275217	
0.268482	0.1106	0.289732	
0.342141	0.162954	0.200127	
0.308855	0.242117	0.27439	
0.374736	0.148861	0.30011	
-0.196736	0.368707	0.5	
-0.121351	0.418264	0.5	
-0.12216	0.350601	0.5	
-0.144981	0.358558	0.378678	
-0.385896	0.317937	0.065638	
-0.38078	0.324048	0.150149	
-0.436811	0.243302	0.0936268	
-0.265951	0.256468	0.111233	
-0.144981	0.358558	0.378678	
-0.144119	0.318458	0.266738	
-0.233647	0.26032	0.360484	
-0.232102	0.339116	0.303176	
-0.358926	-0.0589256	0.5	
-0.3	-0.0833333	0.5	
-0.306482	-0.128449	0.42688	
-0.32522	-0.00468432	0.424344	
0.174542	0.196962	0.5	
0.153206	0.153206	0.5	
0.128799	0.212132	0.5	
0.135958	0.243685	0.430036	
0.190566	0.216647	0.261668	
0.136738	0.210835	0.334534	
0.14675	0.128723	0.276074	
0.248284	0.183853	0.331313	
0.321349	-0.0500942	0.355813	
0.268239	-0.118327	0.326702	
0.249091	-0.0823301	0.40832	
0.262136	0.0021711	0.327033	
-0.399482	0.123001	0.5	
-0.42216	0.0506005	0.5	
-0.495102	0.0698146	0.4276	
-0.38814	0.0365087	0.390101	
0.342141	0.162954	0.200127	
0.362932	0.098224	0.109262	
0.251686	0.10803	0.129438	
0.325166	0.230418	0.10487	
0.0401436	0.291204	0	
-0.0295403	0.225144	0	
0.0651412	0.200096	0	
0.0738057	0.28359	0.108069	
-0.00982413	0.311992	0.161153	
0.0738057	0.28359	0.108069	
0.132803	0.332442	0.177	
0.0362945	0.23248	0.18345	
0.0203259	0.350518	0.403169	
-0.063352	0.397195	0.411842	
0	0.5	0.4	
-0.0106277	0.407378	0.33212	
-0.000470172	0.0044189	0.383613	
0.0953117	-0.0282381	0.401854	
0.0387655	-0.0479803	0.318584	
0.107111	0.0161028	0.331802	
0.183274	0.148555	0.376377	
0.196702	0.0791686	0.326444	
0.14675	0.128723	0.276074	
0.248284	0.183853	0.331313	
-0.490316	0.0979281	0.24092	
-0.469621	0.171627	0.160116	
-0.460762	0.19416	0.234059	
-0.358997	0.136564	0.272723	
0.201164	-0.273578	0	
0.302277	-0.248662	0.113737	
0.245477	-0.191651	0	
0.235288	-0.159577	0.0981964	
-0.168688	-0.281701	0	
-0.263582	-0.319413	0	
-0.16153	-0.357052	0.106281	
-0.28242	-0.274225	0.101342	
0.0807477	0.493437	0.154224	
0	0.5	0.2	
0	0.5	0.1	
0.0594116	0.385605	0.105978	
-0.0506005	0.12216	0.5	
-0.0835252	0.135066	0.417682	
0.016747	0.116372	0.415368	
-0.0524491	0.0544183	0.419727	
0.184555	5.29963e-05	0.359326	
0.196702	0.0791686	0.326444	
0.136079	0.0773073	0.413876	
0.179502	0.0181689	0.432699	
0.261819	0.319027	0	
0.231243	0.24169	0	
0.325166	0.230418	0.10487	
0.223568	0.323879	0.108427	
-0.47591	-0.153328	0.40763	
-0.399482	-0.123001	0.5	
-0.338135	-0.204677	0.398089	
-0.39407	-0.0815537	0.417272	
0.14675	0.128723	0.276074	
0.196702	0.0791686	0.326444	
0.268482	0.1106	0.289732	
0.248284	0.183853	0.331313	
0.350601	0.12216	0.5	
0.369451	0.195502	0.5	
0.418309	0.121276	0.5	
0.352401	0.10935	0.404506	
0.0913842	0.220621	0.259416	
0.0632778	0.132225	0.219	
0.0985518	0.185902	0.12959	
0.143575	0.241784	0.186885	
-0.212132	-0.128799	0.5	
-0.271058	-0.153206	0.5	
-0.256066	-0.106066	0.5	
-0.229671	-0.108874	0.396367	
0	-0.5	0.3	
0	-0.5	0.4	
0.082983	-0.493066	0.348347	
0.0212569	-0.409526	0.42172	
0.322107	0.166579	0.5	
0.259229	0.131014	0.416169	
0.320474	0.196191	0.377567	
0.352401	0.10935	0.404506	
-0.265452	0.263294	0.235043	
-0.262239	0.179182	0.299022	
-0.154067	0.200523	0.255267	
-0.18531	0.191876	0.339375	
-0.123171	0.237068	0.386906	
-0.0201888	0.188065	0.366	
-0.0163515	0.266982	0.412579	
-0.0612159	0.20738	0.430983	
-0.434728	9.15966e-17	0.5	
-0.42216	-0.0506005	0.5	
-0.495012	-0.0704482	0.428155	
-0.39407	-0.0815537	0.417272	
0.271058	0.153206	0.5	
0.295465	0.212132	0.5	
0.322107	0.166579	0.5	
0.259229	0.131014	0.416169	
0.0535407	0.120642	0.5	
0.0589256	0.0589256	0.5	
0.016747	0.116372	0.415368	
0.0614383	0.0441646	0.419518	
0.373696	-0.332191	0.334057	
0.416747	-0.276265	0.362548	
0.429476	-0.256028	0.291579	
0.283545	-0.259908	0.324527	
-0.338135	-0.204677	0.398089	
-0.39407	-0.0815537	0.417272	
-0.399482	-0.123001	0.5	
-0.306482	-0.128449	0.42688	
-0.1493	0.167608	0.126676	
-0.0606721	0.230593	0.106057	
-0.0243888	0.144613	0.165538	
-0.0884785	0.081082	0.106964	
-0.436811	0.243302	0.0936268	
-0.389036	0.207425	0	
-0.385896	0.317937	0.065638	
-0.318983	0.261743	0	
-0.493437	-0.0807477	0.345776	
-0.5	0	0.4	
-0.39407	-0.0815537	0.417272	
-0.402728	-0.0701503	0.304716	
0.121351	-0.418264	0.5	
0.147585	-0.477722	0.416442	
0.0690566	-0.495208	0.430964	
0.0212569	-0.409526	0.42172	
0.320474	0.196191	0.377567	
0.291987	0.28448	0.40616	
0.221133	0.265326	0.342623	
0.220138	0.220062	0.417726	
-0.128799	0.212132	0.5	
-0.123171	0.237068	0.386906	
-0.212186	0.200864	0.421006	
-0.181622	0.273954	0.42594	
-0.318983	0.261743	0	
-0.273315	0.334955	0	
-0.385896	0.317937	0.065638	
-0.265951	0.256468	0.111233	
1.83697e-17	0.383333	0.5	
0.0203259	0.350518	0.403169	
-0.0125395	0.330273	0.5	
-0.063352	0.397195	0.411842	
0.436811	-0.243302	0.0936268	
0.428104	-0.258315	0.196896	
0.469621	-0.171627	0.160116	
0.321456	-0.142755	0.153578	
-0.0589256	0.358926	0.5	
1.83697e-17	0.383333	0.5	
-0.0125395	0.330273	0.5	
-0.063352	0.397195	0.411842	
-0.0589256	0.0589256	0.5	
-0.12216	0.0506005	0.5	
-0.106984	0.108603	0.5	
-0.0524491	0.0544183	0.419727	
-0.0411735	0.316432	0.326214	
-0.0968356	0.250534	0.302469	
-0.144119	0.318458	0.266738	
-0.00163227	0.307964	0.248385	
0.332733	-0.27561	0.5	
0.271058	-0.271058	0.5	
0.295465	-0.212132	0.5	
0.249979	-0.247703	0.407586	
0.249439	0.227985	0.5	
0.295465	0.212132	0.5	
0.271058	0.153206	0.5	
0.220138	0.220062	0.417726	
-0.229671	-0.108874	0.396367	
-0.306482	-0.128449	0.42688	
-0.2234	-0.212186	0.369318	
-0.194749	-0.171788	0.429088	
-0.276229	-0.333066	0.5	
-0.317197	-0.386505	0.431175	
-0.330717	-0.276825	0.5	
-0.250192	-0.304018	0.405469	
-0.0814439	-0.125985	0.343547	
-0.0882569	-0.0365572	0.407331	
-0.134018	-0.125076	0.416643	
-0.0581449	-0.152487	0.425037	
0.0092772	0.277603	0.5	
0.0589256	0.241074	0.5	
1.83697e-17	0.216667	0.5	
-0.0163515	0.266982	0.412579	
-0.323059	-0.0556697	0.363619	
-0.32522	-0.00468432	0.424344	
-0.306482	-0.128449	0.42688	
-0.231014	-0.0285751	0.432493	
0.31678	-0.386847	0.395869	
0.274828	-0.327002	0.5	
0.388345	-0.314941	0.420199	
0.23026	-0.337515	0.419392	
-0.0734441	0.0616893	0	
-0.142648	-0.00714059	0	
-0.0801458	-0.0255891	0.118207	
-0.0884785	0.081082	0.106964	
0.183274	0.148555	0.376377	
0.221133	0.265326	0.342623	
0.220138	0.220062	0.417726	
0.248284	0.183853	0.331313	
-0.428104	0.258315	0.196896	
-0.429476	0.256028	0.291579	
-0.460762	0.19416	0.234059	
-0.358997	0.136564	0.272723	
0.320474	0.196191	0.377567	
0.220138	0.220062	0.417726	
0.221133	0.265326	0.342623	
0.248284	0.183853	0.331313	
0.314006	-0.186162	0.367048	
0.361187	-0.127724	0.273645	
0.268117	-0.201453	0.257301	
0.268239	-0.118327	0.326702	
0.185118	-0.0448541	0.130581	
0.232997	-0.11062	0	
0.285128	-0.0586701	0.102886	
0.235288	-0.159577	0.0981964	
0.5	0	0.1	
0.493378	-0.0811073	0.146993	
0.5	0	0.2	
0.389447	-0.0664451	0.106973	
0	0.5	0.3	
-0.0333766	0.391369	0.240112	
0.0693948	0.36903	0.285155	
-0.0106277	0.407378	0.33212	
-0.386792	-0.316847	0.301384	
-0.329023	-0.172142	0.292634	
-0.437078	-0.242822	0.347009	
-0.338135	-0.204677	0.398089	
0.380516	0.0520569	0.316102	
0.321349	-0.0500942	0.355813	
0.300325	-0.0288408	0.258872	
0.411179	-0.0301121	0.336439	
0.256066	-0.106066	0.5	
0.212132	-0.128799	0.5	
0.241074	-0.0589256	0.5	
0.249091	-0.0823301	0.40832	
-0.0930725	0.0739765	0.352845	
-0.177179	0.127748	0.396718	
-0.103796	0.164416	0.331112	
-0.177442	0.0578991	0.31733	
-0.0295403	0.225144	0	
-0.0983601	0.156434	0	
-0.00425413	0.131001	0	
-0.0606721	0.230593	0.106057	
-0.202855	-0.234529	0.5	
-0.212132	-0.295465	0.5	
-0.249722	-0.227302	0.5	
-0.250192	-0.304018	0.405469	
-0.295465	0.212132	0.5	
-0.271058	0.153206	0.5	
-0.334293	0.161532	0.5	
-0.268272	0.128138	0.411267	
-0.168043	-0.470916	0.199874	
-0.217356	-0.450285	0.144698	
-0.257824	-0.4284	0.204976	
-0.138366	-0.358353	0.236796	
-0.166579	0.322107	0.5	
-0.144981	0.358558	0.378678	
-0.12216	0.350601	0.5	
-0.181622	0.273954	0.42594	
0.086989	0.179344	0.400327	
0.0525099	0.171816	0.320476	
0.0970926	0.279271	0.373778	
0.136738	0.210835	0.334534	
0.315853	0.0373069	0.5	
0.353873	0.0061299	0.416416	
0.278485	0.0481879	0.395453	
0.352401	0.10935	0.404506	
0.0395065	-0.000100258	0.126114	
0.135296	0.0693292	0.185912	
0.0431438	0.101726	0.0953265	
0.0170253	0.0610303	0.18852	
0.212132	-0.128799	0.5	
0.249091	-0.0823301	0.40832	
0.186731	-0.150807	0.387359	
0.165319	-0.0685492	0.421531	
0.184555	5.29963e-05	0.359326	
0.163607	-0.084363	0.326696	
0.0953117	-0.0282381	0.401854	
0.107111	0.0161028	0.331802	
0.121276	0.418309	0.5	
0.146853	0.477948	0.415992	
0.195502	0.369451	0.5	
0.177101	0.348186	0.395851	
0.14072	-0.0839746	0	
0.0983144	-0.0718988	0.0894985	
0.185118	-0.0448541	0.130581	
0.126165	0.019123	0.0935695	
0.321349	-0.0500942	0.355813	
0.300325	-0.0288408	0.258872	
0.361187	-0.127724	0.273645	
0.268239	-0.118327	0.326702	
0.471122	-0.167464	0.300106	
0.429476	-0.256028	0.291579	
0.450312	-0.217299	0.354112	
0.361187	-0.127724	0.273645	
-0.153206	-0.153206	0.5	
-0.15347	-0.097127	0.5	
-0.134018	-0.125076	0.416643	
-0.194749	-0.171788	0.429088	
0.470916	0.168043	0.300126	
0.476114	0.152694	0.40246	
0.450285	0.217356	0.355302	
0.374736	0.148861	0.30011	
-0.38078	0.324048	0.150149	
-0.317319	0.386405	0.201487	
-0.265452	0.263294	0.235043	
-0.265951	0.256468	0.111233	
0.0461078	-0.0584269	0	
0.115537	0.0107471	0	
0.0395065	-0.000100258	0.126114	
0.126165	0.019123	0.0935695	
0.262733	0.334293	0.5	
0.195502	0.369451	0.5	
0.228991	0.444481	0.408099	
0.177101	0.348186	0.395851	
0.112799	-0.33356	0	
0.0404524	-0.41072	0	
0.125573	-0.41396	0	
0.0206176	-0.395667	0.103453	
0.142415	-0.180509	0.253145	
0.268117	-0.201453	0.257301	
0.200132	-0.232269	0.163427	
0.174775	-0.129562	0.177015	
0.193272	-0.26142	0.329316	
0.249979	-0.247703	0.407586	
0.186731	-0.150807	0.387359	
0.163614	-0.249053	0.416633	
-0.268272	0.128138	0.411267	
-0.262239	0.179182	0.299022	
-0.212186	0.200864	0.421006	
-0.18531	0.191876	0.339375	
0.0913842	0.220621	0.259416	
0.190566	0.216647	0.261668	
0.189688	0.149534	0.191539	
0.143575	0.241784	0.186885	
-0.3	-0.0833333	0.5	
-0.309277	-0.0223972	0.5	
-0.26241	-0.01517	0.5	
-0.231014	-0.0285751	0.432493	
-0.00154855	-0.114907	0.260366	
0.0819669	-0.126701	0.339809	
0.0387655	-0.0479803	0.318584	
0.000455301	-0.171885	0.334296	
0.135296	0.0693292	0.185912	
0.0985518	0.185902	0.12959	
0.0632778	0.132225	0.219	
0.189688	0.149534	0.191539	
0.153466	-0.356896	0.263852	
0.104343	-0.277575	0.292493	
0.0153009	-0.365787	0.239317	
0.0961802	-0.403925	0.321644	
-0.31678	0.386847	0.395869	
-0.23026	0.337515	0.416359	
-0.233647	0.26032	0.360484	
-0.232102	0.339116	0.303176	
0.313791	-0.154465	0	
0.302277	-0.248662	0.113737	
0.321456	-0.142755	0.153578	
0.235288	-0.159577	0.0981964	
-0.0506005	0.12216	0.5	
0.016747	0.116372	0.415368	
0	0.0833333	0.5	
-0.0524491	0.0544183	0.419727	
0.0632778	0.132225	0.219	
0.0431438	0.101726	0.0953265	
0.135296	0.0693292	0.185912	
0.0170253	0.0610303	0.18852	
0.212132	0.295465	0.5	
0.271058	0.271058	0.5	
0.249439	0.227985	0.5	
0.220138	0.220062	0.417726	
-0.0465403	0.431857	0.5	
-0.0690566	0.495208	0.430964	
6.08826e-17	0.43599	0.5	
-0.063352	0.397195	0.411842	
0.277603	0.0092772	0.5	
0.315853	0.0373069	0.5	
0.353873	0.0061299	0.416416	
0.249486	-0.0108057	0.43277	
-0.234529	0.221409	0.5	
-0.271058	0.271058	0.5	
-0.196279	0.249439	0.5	
-0.181622	0.273954	0.42594	
0.0952672	-0.342147	0.15717	
0.153466	-0.356896	0.263852	
0.0986966	-0.244124	0.186079	
0.104343	-0.277575	0.292493	
0.369451	0.195502	0.5	
0.322107	0.166579	0.5	
0.295465	0.212132	0.5	
0.320474	0.196191	0.377567	
0.321456	-0.142755	0.153578	
0.285128	-0.0586701	0.102886	
0.313791	-0.154465	0	
0.235288	-0.159577	0.0981964	
0.135296	0.0693292	0.185912	
0.0431438	0.101726	0.0953265	
0.0985518	0.185902	0.12959	
0.155737	0.108922	0.093738	
0.228959	-0.444497	0.408094	
0.256554	-0.429162	0.331268	
0.135438	-0.346064	0.384448	
0.23026	-0.337515	0.419392	
0.177101	0.348186	0.395851	
0.14467	0.301705	0.287535	
0.0970926	0.279271	0.373778	
0.098227	0.400612	0.372757	
-0.328307	0.16356	0	
-0.259075	0.0657144	0.105374	
-0.257956	0.116321	0	
-0.241404	0.162452	0.0887852	
-0.123171	0.237068	0.386906	
-0.0835252	0.135066	0.417682	
-0.177179	0.127748	0.396718	
-0.103796	0.164416	0.331112	
-0.495102	0.0698146	0.4276	
-0.476132	0.152637	0.402329	
-0.399482	0.123001	0.5	
-0.38814	0.0365087	0.390101	
-0.119993	0.246691	0	
-0.1493	0.167608	0.126676	
-0.0983601	0.156434	0	
-0.0606721	0.230593	0.106057	
0.114055	0.374109	0	
0.133074	0.264097	0	
0.189613	0.313662	0	
0.0738057	0.28359	0.108069	
-0.106066	-0.256066	0.5	
-0.117884	-0.234333	0.40948	
-0.0589256	-0.241074	0.5	
-0.0611092	-0.309537	0.420103	
0.133074	0.264097	0	
0.0738057	0.28359	0.108069	
0.0985518	0.185902	0.12959	
0.191432	0.204802	0.0909793	
0.0373069	0.0158534	0.5	
-0.0125395	0.0302731	0.5	
0	0.0833333	0.5	
0.0614383	0.0441646	0.419518	
0.0913842	0.220621	0.259416	
0.0985518	0.185902	0.12959	
0.0632778	0.132225	0.219	
0.0362945	0.23248	0.18345	
-0.295465	0.212132	0.5	
-0.271058	0.153206	0.5	
-0.268272	0.128138	0.411267	
-0.212186	0.200864	0.421006	
0.106066	0.256066	0.5	
0.128799	0.212132	0.5	
0.0589256	0.241074	0.5	
0.135958	0.243685	0.430036	
-0.5	0	0.2	
-0.360873	0.0158982	0.275217	
-0.5	0	0.3	
-0.402728	-0.0701503	0.304716	
0.0848044	-0.241311	0.380971	
0.135438	-0.346064	0.384448	
0.193272	-0.26142	0.329316	
0.163614	-0.249053	0.416633	
-0.0201888	0.188065	0.366	
0.0303777	0.260127	0.314563	
-0.0268842	0.224117	0.253342	
-0.0968356	0.250534	0.302469	
-0.276229	-0.333066	0.5	
-0.330717	-0.276825	0.5	
-0.271058	-0.271058	0.5	
-0.250192	-0.304018	0.405469	
-0.0882569	-0.0365572	0.407331	
-0.130814	0.0354375	0.417572	
-0.0833333	0	0.5	
-0.0524491	0.0544183	0.419727	
0.0651412	0.200096	0	
0.0985518	0.185902	0.12959	
0.133074	0.264097	0	
0.0738057	0.28359	0.108069	
0.0734599	0.0912867	0.346892	
0.016747	0.116372	0.415368	
0.0525099	0.171816	0.320476	
-0.0139985	0.0766371	0.354232	
0.0373069	0.315853	0.5	
-0.0125395	0.330273	0.5	
0.0203259	0.350518	0.403169	
-0.0163515	0.266982	0.412579	
0.0209546	0.0362755	0	
0.0461078	-0.0584269	0	
0.115537	0.0107471	0	
0.0395065	-0.000100258	0.126114	
0.0952672	-0.342147	0.15717	
0.0153009	-0.365787	0.239317	
-0.0565919	-0.339726	0.150695	
0.0206176	-0.395667	0.103453	
0.186731	-0.150807	0.387359	
0.163607	-0.084363	0.326696	
0.249091	-0.0823301	0.40832	
0.268239	-0.118327	0.326702	
0.0833333	0.3	0.5	
0.166579	0.322107	0.5	
0.153206	0.271058	0.5	
0.135958	0.243685	0.430036	
-0.0411735	0.316432	0.326214	
-0.144119	0.318458	0.266738	
-0.0333766	0.391369	0.240112	
-0.00163227	0.307964	0.248385	
-0.26105	0.203399	0	
-0.318983	0.261743	0	
-0.328307	0.16356	0	
-0.265951	0.256468	0.111233	
0.414183	0.131147	0	
0.414991	0.0495125	0	
0.495293	0.0684459	0.0685965	
0.362932	0.098224	0.109262	
-0.0882569	-0.0365572	0.407331	
-0.0524491	0.0544183	0.419727	
-0.03759	-0.01517	0.5	
-0.0182997	-0.049373	0.434403	
-0.256066	-0.106066	0.5	
-0.229671	-0.108874	0.396367	
-0.271058	-0.153206	0.5	
-0.306482	-0.128449	0.42688	
-0.47591	-0.153328	0.40763	
-0.399482	-0.123001	0.5	
-0.440961	-0.235698	0.431431	
-0.338135	-0.204677	0.398089	
-0.0243888	0.144613	0.165538	
0.0362945	0.23248	0.18345	
-0.0606721	0.230593	0.106057	
-0.0983525	0.249793	0.193206	
0.153328	0.47591	0.0923699	
0.235698	0.440961	0.068569	
0.242822	0.437078	0.152991	
0.223568	0.323879	0.108427	
0.337634	0.115561	0	
0.414183	0.131147	0	
0.373926	0.198925	0	
0.362932	0.098224	0.109262	
-0.323059	-0.0556697	0.363619	
-0.306482	-0.128449	0.42688	
-0.229671	-0.108874	0.396367	
-0.231014	-0.0285751	0.432493	
-0.381208	0.210225	0.5	
-0.295465	0.212132	0.5	
-0.332155	0.186259	0.378016	
-0.3028	0.261077	0.41707	
-0.0589256	0.0589256	0.5	
-0.106984	0.108603	0.5	
-0.0506005	0.12216	0.5	
-0.0524491	0.0544183	0.419727	
0	-0.5	0.3	
0	-0.5	0.2	
-0.0977967	-0.490343	0.258774	
0.0153009	-0.365787	0.239317	
0.0953117	-0.0282381	0.401854	
0.0614383	0.0441646	0.419518	
0.136079	0.0773073	0.413876	
0.107111	0.0161028	0.331802	
-0.118181	0.0989473	0.251321	
-0.219759	0.108564	0.237237	
-0.165601	0.0438592	0.172089	
-0.177442	0.0578991	0.31733	
-0.5	0	0.3	
-0.360873	0.0158982	0.275217	
-0.38814	0.0365087	0.390101	
-0.402728	-0.0701503	0.304716	
-0.434728	9.15966e-17	0.5	
-0.42216	0.0506005	0.5	
-0.383333	3.67394e-17	0.5	
-0.38814	0.0365087	0.390101	
0.0819669	-0.126701	0.339809	
0.142415	-0.180509	0.253145	
0.163607	-0.084363	0.326696	
0.134803	-0.19156	0.335814	
0.0943468	-0.245334	0	
0.00183684	-0.222331	0	
0.00964811	-0.213747	0.128268	
0.116361	-0.190469	0.100844	
-0.0930725	0.0739765	0.352845	
-0.0155726	0.113982	0.279722	
-0.103796	0.164416	0.331112	
-0.0139985	0.0766371	0.354232	
0.0395065	-0.000100258	0.126114	
0.0170253	0.0610303	0.18852	
-0.0742895	0.0407153	0.192583	
-0.0286268	-0.0663675	0.186281	
-0.385896	0.317937	0.065638	
-0.273315	0.334955	0	
-0.317131	0.386559	0.0881616	
-0.265951	0.256468	0.111233	
-0.16685	0.0883447	0	
-0.1493	0.167608	0.126676	
-0.18644	0.1823	0	
-0.241404	0.162452	0.0887852	
-0.495102	0.0698146	0.4276	
-0.42216	0.0506005	0.5	
-0.434728	9.15966e-17	0.5	
-0.38814	0.0365087	0.390101	
-0.202717	-0.0800005	0.134359	
-0.165601	0.0438592	0.172089	
-0.246812	0.00918153	0.237581	
-0.136956	-0.0443284	0.188767	
-0.439384	0.238625	0.423358	
-0.476132	0.152637	0.402329	
-0.450312	0.217299	0.354112	
-0.332155	0.186259	0.378016	
-0.202855	-0.234529	0.5	
-0.174825	-0.196279	0.5	
-0.153206	-0.271058	0.5	
-0.117884	-0.234333	0.40948	
-0.5	0	0.4	
-0.5	0	0.3	
-0.38814	0.0365087	0.390101	
-0.402728	-0.0701503	0.304716	
-0.0589256	-0.358926	0.5	
-5.51091e-17	-0.383333	0.5	
-0.0506005	-0.42216	0.5	
0.0212569	-0.409526	0.42172	
-0.0201888	0.188065	0.366	
-0.0155726	0.113982	0.279722	
0.0525099	0.171816	0.320476	
-0.0139985	0.0766371	0.354232	
0.38078	-0.324048	0.150149	
0.317319	-0.386405	0.201487	
0.25314	-0.310833	0.250522	
0.302277	-0.248662	0.113737	
-0.0295403	0.225144	0	
0.0401436	0.291204	0	
-0.0555676	0.325574	0	
-0.0606721	0.230593	0.106057	
0.133074	0.264097	0	
0.0985518	0.185902	0.12959	
0.158056	0.171884	0	
0.191432	0.204802	0.0909793	
0.0092772	-0.0223972	0.5	
-0.03759	-0.01517	0.5	
-0.0125395	0.0302731	0.5	
-0.0182997	-0.049373	0.434403	
0.330273	-0.0125395	0.5	
0.28483	-0.03759	0.5	
0.277603	0.0092772	0.5	
0.249486	-0.0108057	0.43277	
0.115537	0.0107471	0	
0.0209546	0.0362755	0	
0.0395065	-0.000100258	0.126114	
0.126165	0.019123	0.0935695	
0.185118	-0.0448541	0.130581	
0.285128	-0.0586701	0.102886	
0.174775	-0.129562	0.177015	
0.235288	-0.159577	0.0981964	
0.0785366	-0.11627	0.176642	
0.174775	-0.129562	0.177015	
0.142415	-0.180509	0.253145	
0.0986966	-0.244124	0.186079	
0.0135874	-0.118011	0.409404	
-0.0581449	-0.152487	0.425037	
-0.0499791	-0.122616	0.5	
-0.0182997	-0.049373	0.434403	
0.184555	5.29963e-05	0.359326	
0.107111	0.0161028	0.331802	
0.136079	0.0773073	0.413876	
0.196702	0.0791686	0.326444	
-0.0833333	0	0.5	
-0.130814	0.0354375	0.417572	
-0.12216	0.0506005	0.5	
-0.0524491	0.0544183	0.419727	
-0.0243888	0.144613	0.165538	
-0.0884785	0.081082	0.106964	
0.0431438	0.101726	0.0953265	
0.0170253	0.0610303	0.18852	
0.184962	0.0799289	0	
0.251686	0.10803	0.129438	
0.247868	0.146306	0	
0.155737	0.108922	0.093738	
-0.165601	0.0438592	0.172089	
-0.259075	0.0657144	0.105374	
-0.246812	0.00918153	0.237581	
-0.219759	0.108564	0.237237	
0.0970926	0.279271	0.373778	
-0.0163515	0.266982	0.412579	
0.0203259	0.350518	0.403169	
0.0303777	0.260127	0.314563	
-0.16685	0.0883447	0	
-0.0983601	0.156434	0	
-0.18644	0.1823	0	
-0.1493	0.167608	0.126676	
-0.0977967	-0.490343	0.258774	
-0.0810399	-0.493389	0.35285	
0	-0.5	0.3	
-0.0570812	-0.3559	0.302161	
0.262733	0.334293	0.5	
0.271058	0.271058	0.5	
0.212132	0.295465	0.5	
0.291987	0.28448	0.40616	
0.0209546	0.0362755	0	
0.0431438	0.101726	0.0953265	
0.0395065	-0.000100258	0.126114	
0.126165	0.019123	0.0935695	
0.133074	0.264097	0	
0.0651412	0.200096	0	
0.158056	0.171884	0	
0.0985518	0.185902	0.12959	
-0.0155726	0.113982	0.279722	
-0.0243888	0.144613	0.165538	
0.0170253	0.0610303	0.18852	
-0.0742895	0.0407153	0.192583	
0.220138	0.220062	0.417726	
0.136738	0.210835	0.334534	
0.183274	0.148555	0.376377	
0.135958	0.243685	0.430036	
0.361187	-0.127724	0.273645	
0.40447	-0.0146922	0.243912	
0.300325	-0.0288408	0.258872	
0.411179	-0.0301121	0.336439	
0.135438	-0.346064	0.384448	
0.153466	-0.356896	0.263852	
0.174738	-0.468473	0.317184	
0.0961802	-0.403925	0.321644	
0.268482	0.1106	0.289732	
0.374736	0.148861	0.30011	
0.308855	0.242117	0.27439	
0.248284	0.183853	0.331313	
0.221133	0.265326	0.342623	
0.0970926	0.279271	0.373778	
0.177101	0.348186	0.395851	
0.14467	0.301705	0.287535	
0.184555	5.29963e-05	0.359326	
0.0953117	-0.0282381	0.401854	
0.163607	-0.084363	0.326696	
0.165319	-0.0685492	0.421531	
-0.1493	0.167608	0.126676	
-0.0606721	0.230593	0.106057	
-0.161163	0.309136	0.149427	
-0.0983525	0.249793	0.193206	
0.268482	0.1106	0.289732	
0.320474	0.196191	0.377567	
0.374736	0.148861	0.30011	
0.248284	0.183853	0.331313	
0.476132	-0.152637	0.402329	
0.493012	-0.0833019	0.344789	
0.471122	-0.167464	0.300106	
0.392836	-0.0823347	0.412468	
0.4284	0.257824	0.295024	
0.415735	0.277785	0.365862	
0.374193	0.331632	0.334643	
0.308855	0.242117	0.27439	
-0.134018	-0.125076	0.416643	
-0.171189	-0.143954	0.334682	
-0.229671	-0.108874	0.396367	
-0.128371	-0.0605284	0.341709	
-0.386792	-0.316847	0.301384	
-0.234283	-0.304583	0.2878	
-0.328716	-0.376757	0.253532	
-0.296258	-0.256529	0.211625	
0.14072	-0.0839746	0	
0.164797	-0.177585	0	
0.232997	-0.11062	0	
0.235288	-0.159577	0.0981964	
-0.0243888	0.144613	0.165538	
-0.0268842	0.224117	0.253342	
0.0632778	0.132225	0.219	
0.0362945	0.23248	0.18345	
0.476114	0.152694	0.40246	
0.495101	0.0698189	0.427621	
0.418309	0.121276	0.5	
0.352401	0.10935	0.404506	
-0.165601	0.0438592	0.172089	
-0.219759	0.108564	0.237237	
-0.246812	0.00918153	0.237581	
-0.177442	0.0578991	0.31733	
0.0203259	-0.249482	0.251542	
-0.080828	-0.269765	0.22671	
0.0153009	-0.365787	0.239317	
-0.0570812	-0.3559	0.302161	
-0.000470172	0.0044189	0.383613	
-0.0930725	0.0739765	0.352845	
-0.0524491	0.0544183	0.419727	
-0.0139985	0.0766371	0.354232	
0.31678	-0.386847	0.395869	
0.388345	-0.314941	0.420199	
0.373696	-0.332191	0.334057	
0.283545	-0.259908	0.324527	
0.0153159	0.363557	0	
0.0594116	0.385605	0.105978	
-0.0372406	0.417791	0	
-0.0728697	0.385983	0.102817	
-0.146435	-0.19403	0.261638	
-0.0948276	-0.0943246	0.25421	
-0.220621	-0.0913842	0.273465	
-0.171189	-0.143954	0.334682	
0.0461078	-0.0584269	0	
0.0983144	-0.0718988	0.0894985	
0.115537	0.0107471	0	
0.126165	0.019123	0.0935695	
0.108346	0.0977259	0.5	
0.124175	0.0449909	0.5	
0.0589256	0.0589256	0.5	
0.0614383	0.0441646	0.419518	
-0.0606721	0.230593	0.106057	
0.0738057	0.28359	0.108069	
-0.00982413	0.311992	0.161153	
0.0362945	0.23248	0.18345	
-0.0254015	-0.238675	0.394183	
-0.117884	-0.234333	0.40948	
-0.0589256	-0.241074	0.5	
-0.0581449	-0.152487	0.425037	
0.128799	0.212132	0.5	
0.086989	0.179344	0.400327	
0.0589256	0.241074	0.5	
0.135958	0.243685	0.430036	
0.128799	0.212132	0.5	
0.0557946	0.181673	0.5	
0.0589256	0.241074	0.5	
0.086989	0.179344	0.400327	
-0.0411735	0.316432	0.326214	
-0.144981	0.358558	0.378678	
-0.144119	0.318458	0.266738	
-0.0968356	0.250534	0.302469	
-0.181859	0.199592	0.5	
-0.153206	0.153206	0.5	
-0.227302	0.174542	0.5	
-0.212186	0.200864	0.421006	
0.168734	0.470668	0.201781	
0.242822	0.437078	0.152991	
0.247057	0.434698	0.250499	
0.132803	0.332442	0.177	
-0.117884	-0.234333	0.40948	
-0.171189	-0.143954	0.334682	
-0.2234	-0.212186	0.369318	
-0.194749	-0.171788	0.429088	
0.278485	0.0481879	0.395453	
0.249486	-0.0108057	0.43277	
0.241074	0.0589256	0.5	
0.179502	0.0181689	0.432699	
0.196736	-0.368707	0.5	
0.228959	-0.444497	0.408094	
0.135438	-0.346064	0.384448	
0.23026	-0.337515	0.419392	
-0.399482	0.123001	0.5	
-0.358926	0.0589256	0.5	
-0.42216	0.0506005	0.5	
-0.38814	0.0365087	0.390101	
0.221133	0.265326	0.342623	
0.183274	0.148555	0.376377	
0.136738	0.210835	0.334534	
0.248284	0.183853	0.331313	
-0.106984	0.108603	0.5	
-0.0835252	0.135066	0.417682	
-0.0506005	0.12216	0.5	
-0.0524491	0.0544183	0.419727	
0.0913842	0.220621	0.259416	
0.14467	0.301705	0.287535	
0.0970926	0.279271	0.373778	
0.136738	0.210835	0.334534	
-0.434698	-0.247057	0.249501	
-0.470668	-0.168734	0.298219	
-0.329023	-0.172142	0.292634	
-0.372506	-0.102825	0.21502	
0.0395065	-0.000100258	0.126114	
0.0431438	0.101726	0.0953265	
0.135296	0.0693292	0.185912	
0.126165	0.019123	0.0935695	
0.125573	-0.41396	0	
0.0404524	-0.41072	0	
0.0704474	-0.495012	0.0718449	
0.0206176	-0.395667	0.103453	
-0.271058	-0.271058	0.5	
-0.249722	-0.227302	0.5	
-0.212132	-0.295465	0.5	
-0.250192	-0.304018	0.405469	
-0.227302	0.174542	0.5	
-0.295465	0.212132	0.5	
-0.234529	0.221409	0.5	
-0.212186	0.200864	0.421006	
-0.220621	-0.0913842	0.273465	
-0.246812	0.00918153	0.237581	
-0.127176	-0.00609761	0.272433	
-0.136956	-0.0443284	0.188767	
-0.000470172	0.0044189	0.383613	
0.0614383	0.0441646	0.419518	
0.0734599	0.0912867	0.346892	
-0.0139985	0.0766371	0.354232	
0.428195	0.258165	0.201755	
0.460548	0.194667	0.23433	
0.4284	0.257824	0.295024	
0.342141	0.162954	0.200127	
0.495101	0.0698189	0.427621	
0.476114	0.152694	0.40246	
0.493012	0.0833019	0.344789	
0.352401	0.10935	0.404506	
-0.495102	0.0698146	0.4276	
-0.434728	9.15966e-17	0.5	
-0.5	0	0.4	
-0.38814	0.0365087	0.390101	
0.314271	-0.0501881	0	
0.389447	-0.0664451	0.106973	
0.346509	0.0237889	0	
0.285128	-0.0586701	0.102886	
0.276476	0.0535537	0	
0.337634	0.115561	0	
0.251686	0.10803	0.129438	
0.362932	0.098224	0.109262	
-0.128799	-0.212132	0.5	
-0.134018	-0.125076	0.416643	
-0.117884	-0.234333	0.40948	
-0.194749	-0.171788	0.429088	
0.0589256	-0.241074	0.5	
0.0373069	-0.284147	0.5	
-5.51091e-17	-0.216667	0.5	
0.0220588	-0.302368	0.419947	
-0.153206	-0.271058	0.5	
-0.162242	-0.337279	0.406019	
-0.117884	-0.234333	0.40948	
-0.0611092	-0.309537	0.420103	
0.0589256	-0.0589256	0.5	
0.0506005	-0.12216	0.5	
0	-0.0833333	0.5	
0.0135874	-0.118011	0.409404	
-0.3	0.0833333	0.5	
-0.337307	0.0158534	0.5	
-0.358926	0.0589256	0.5	
-0.32522	-0.00468432	0.424344	
-0.0125395	-0.269727	0.5	
-0.0589256	-0.241074	0.5	
-5.51091e-17	-0.216667	0.5	
-0.0254015	-0.238675	0.394183	
0.220621	-0.0913842	0.253691	
0.300325	-0.0288408	0.258872	
0.212089	0.020774	0.252242	
0.262136	0.0021711	0.327033	
-0.146435	-0.19403	0.261638	
-0.120748	-0.291511	0.335128	
-0.080828	-0.269765	0.22671	
-0.0547597	-0.189651	0.263151	
0.0395065	-0.000100258	0.126114	
-0.0742895	0.0407153	0.192583	
-0.0801458	-0.0255891	0.118207	
-0.0286268	-0.0663675	0.186281	
0.0970926	0.279271	0.373778	
0.0693948	0.36903	0.285155	
0.0203259	0.350518	0.403169	
0.098227	0.400612	0.372757	
0.380873	0.323938	0.152261	
0.317233	0.386476	0.0904728	
0.325166	0.230418	0.10487	
0.223568	0.323879	0.108427	
0.247868	0.146306	0	
0.155737	0.108922	0.093738	
0.251686	0.10803	0.129438	
0.191432	0.204802	0.0909793	
-0.154067	0.200523	0.255267	
-0.103796	0.164416	0.331112	
-0.0268842	0.224117	0.253342	
-0.0968356	0.250534	0.302469	
-0.0589256	-0.241074	0.5	
-0.0254015	-0.238675	0.394183	
-0.0125395	-0.269727	0.5	
-0.0611092	-0.309537	0.420103	
-0.0243888	0.144613	0.165538	
0.0985518	0.185902	0.12959	
0.0632778	0.132225	0.219	
0.0431438	0.101726	0.0953265	
-0.119993	0.246691	0	
-0.18644	0.1823	0	
-0.0983601	0.156434	0	
-0.1493	0.167608	0.126676	
0.0970926	0.279271	0.373778	
0.0303777	0.260127	0.314563	
0.0913842	0.220621	0.259416	
0.136738	0.210835	0.334534	
0.016747	0.116372	0.415368	
-0.0835252	0.135066	0.417682	
-0.0201888	0.188065	0.366	
-0.0139985	0.0766371	0.354232	
0.0785366	-0.11627	0.176642	
0.0986966	-0.244124	0.186079	
0.142415	-0.180509	0.253145	
0.0592568	-0.173932	0.272176	
0.0557946	0.181673	0.5	
0.0535407	0.120642	0.5	
0.00279483	0.150684	0.5	
0.016747	0.116372	0.415368	
0.133074	0.264097	0	
0.189613	0.313662	0	
0.223568	0.323879	0.108427	
0.191432	0.204802	0.0909793	
-0.0254015	-0.238675	0.394183	
0.0135874	-0.118011	0.409404	
0.000455301	-0.171885	0.334296	
-0.0581449	-0.152487	0.425037	
0.212132	-0.295465	0.5	
0.221409	-0.234529	0.5	
0.249979	-0.247703	0.407586	
0.163614	-0.249053	0.416633	
-0.0589256	0.241074	0.5	
-0.0833333	0.3	0.5	
-0.0163515	0.266982	0.412579	
-0.0612159	0.20738	0.430983	
0.3	0.0833333	0.5	
0.315853	0.0373069	0.5	
0.278485	0.0481879	0.395453	
0.352401	0.10935	0.404506	
0.314271	-0.0501881	0	
0.313791	-0.154465	0	
0.389447	-0.0664451	0.106973	
0.285128	-0.0586701	0.102886	
-0.0589256	-0.358926	0.5	
-0.0506005	-0.42216	0.5	
-0.0825799	-0.384765	0.390495	
0.0212569	-0.409526	0.42172	
0.0693948	0.36903	0.285155	
0.0970926	0.279271	0.373778	
0.14467	0.301705	0.287535	
0.098227	0.400612	0.372757	
0.193272	-0.26142	0.329316	
0.135438	-0.346064	0.384448	
0.0848044	-0.241311	0.380971	
0.104343	-0.277575	0.292493	
-0.234529	0.221409	0.5	
-0.212186	0.200864	0.421006	
-0.295465	0.212132	0.5	
-0.3028	0.261077	0.41707	
0.0395065	-0.000100258	0.126114	
-0.00334623	-0.10275	0.104947	
0.0785366	-0.11627	0.176642	
-0.0286268	-0.0663675	0.186281	
0.153206	-0.153206	0.5	
0.128799	-0.212132	0.5	
0.0967728	-0.154724	0.5	
0.110665	-0.131179	0.419604	
0	-0.5	0.2	
0.0853821	-0.492656	0.251348	
0.0807376	-0.493438	0.154216	
0.0153009	-0.365787	0.239317	
0.132803	0.332442	0.177	
0.234881	0.32259	0.246366	
0.239078	0.233865	0.176769	
0.223568	0.323879	0.108427	
0.249091	-0.0823301	0.40832	
0.262136	0.0021711	0.327033	
0.184555	5.29963e-05	0.359326	
0.249486	-0.0108057	0.43277	
0.317319	-0.386405	0.201487	
0.219334	-0.328412	0.103652	
0.2429	-0.437035	0.152631	
0.25314	-0.310833	0.250522	
0.184555	5.29963e-05	0.359326	
0.110881	-0.0319284	0.263307	
0.163607	-0.084363	0.326696	
0.107111	0.0161028	0.331802	
0.0970926	0.279271	0.373778	
0.14467	0.301705	0.287535	
0.221133	0.265326	0.342623	
0.136738	0.210835	0.334534	
0.0913842	0.220621	0.259416	
0.0970926	0.279271	0.373778	
0.14467	0.301705	0.287535	
0.0303777	0.260127	0.314563	
-0.332155	0.186259	0.378016	
-0.268448	0.0761744	0.322026	
-0.358997	0.136564	0.272723	
-0.262239	0.179182	0.299022	
-0.490316	0.0979281	0.24092	
-0.493012	0.0833019	0.344789	
-0.5	0	0.3	
-0.360873	0.0158982	0.275217	
0.239078	0.233865	0.176769	
0.234881	0.32259	0.246366	
0.132803	0.332442	0.177	
0.143575	0.241784	0.186885	
-0.000470172	0.0044189	0.383613	
-0.0524491	0.0544183	0.419727	
0.0614383	0.0441646	0.419518	
-0.0139985	0.0766371	0.354232	
-0.344127	-0.112227	0	
-0.41072	-0.12459	0	
-0.356684	-0.19351	0	
-0.382808	-0.0894032	0.103515	
-0.416747	0.276265	0.362548	
-0.3028	0.261077	0.41707	
-0.332155	0.186259	0.378016	
-0.316792	0.255444	0.314661	
0.108346	0.0977259	0.5	
0.136079	0.0773073	0.413876	
0.124175	0.0449909	0.5	
0.0614383	0.0441646	0.419518	
0.221133	0.265326	0.342623	
0.234881	0.32259	0.246366	
0.308855	0.242117	0.27439	
0.190566	0.216647	0.261668	
0.300884	0.198715	0	
0.325166	0.230418	0.10487	
0.231243	0.24169	0	
0.191432	0.204802	0.0909793	
-0.332155	0.186259	0.378016	
-0.268272	0.128138	0.411267	
-0.268448	0.0761744	0.322026	
-0.262239	0.179182	0.299022	
0.104343	-0.277575	0.292493	
0.0592568	-0.173932	0.272176	
0.0848044	-0.241311	0.380971	
0.134803	-0.19156	0.335814	
0.14072	-0.0839746	0	
0.232997	-0.11062	0	
0.210156	-0.0147965	0	
0.185118	-0.0448541	0.130581	
-0.358926	0.0589256	0.5	
-0.337307	0.0158534	0.5	
-0.383333	3.67394e-17	0.5	
-0.32522	-0.00468432	0.424344	
0	-0.0833333	0.5	
0.0135874	-0.118011	0.409404	
-0.0499791	-0.122616	0.5	
-0.0182997	-0.049373	0.434403	
-0.0372406	0.417791	0	
0.0153159	0.363557	0	
0.0420691	0.427134	0	
0.0594116	0.385605	0.105978	
0.247868	0.146306	0	
0.276476	0.0535537	0	
0.337634	0.115561	0	
0.251686	0.10803	0.129438	
0.239078	0.233865	0.176769	
0.223568	0.323879	0.108427	
0.325166	0.230418	0.10487	
0.191432	0.204802	0.0909793	
-0.317197	-0.386505	0.431175	
-0.276229	-0.333066	0.5	
-0.210263	-0.381228	0.5	
-0.250192	-0.304018	0.405469	
0.315853	0.0373069	0.5	
0.358926	0.0589256	0.5	
0.353873	0.0061299	0.416416	
0.352401	0.10935	0.404506	
-0.193999	-0.271016	0.175767	
-0.28242	-0.274225	0.101342	
-0.296258	-0.256529	0.211625	
-0.206213	-0.186333	0.106781	
0.201164	-0.273578	0	
0.245477	-0.191651	0	
0.164797	-0.177585	0	
0.235288	-0.159577	0.0981964	
-0.0243888	0.144613	0.165538	
-0.0606721	0.230593	0.106057	
-0.1493	0.167608	0.126676	
-0.0983525	0.249793	0.193206	
-0.490316	0.0979281	0.24092	
-0.471122	0.167464	0.300106	
-0.493012	0.0833019	0.344789	
-0.358997	0.136564	0.272723	
0.0819669	-0.126701	0.339809	
0.186731	-0.150807	0.387359	
0.163607	-0.084363	0.326696	
0.110665	-0.131179	0.419604	
0.321456	-0.142755	0.153578	
0.332005	0.00713037	0.169463	
0.389447	-0.0664451	0.106973	
0.285128	-0.0586701	0.102886	
0.0985518	0.185902	0.12959	
0.191432	0.204802	0.0909793	
0.0738057	0.28359	0.108069	
0.143575	0.241784	0.186885	
0.153329	-0.47591	0.0923815	
0.0807376	-0.493438	0.154216	
0.16873	-0.47067	0.201799	
0.0952672	-0.342147	0.15717	
-0.122616	-0.0499791	0.5	
-0.0833333	0	0.5	
-0.0589256	-0.0589256	0.5	
-0.0882569	-0.0365572	0.407331	
0.0854243	0.492649	0.251403	
0.0693948	0.36903	0.285155	
0	0.5	0.3	
-0.0333766	0.391369	0.240112	
0.490316	-0.0979281	0.24092	
0.361187	-0.127724	0.273645	
0.493012	-0.0833019	0.344789	
0.411179	-0.0301121	0.336439	
-0.12216	0.350601	0.5	
-0.144981	0.358558	0.378678	
-0.121351	0.418264	0.5	
-0.063352	0.397195	0.411842	
-0.220621	-0.0913842	0.273465	
-0.0948276	-0.0943246	0.25421	
-0.127176	-0.00609761	0.272433	
-0.128371	-0.0605284	0.341709	
-0.0268842	0.224117	0.253342	
-0.103796	0.164416	0.331112	
-0.0201888	0.188065	0.366	
-0.0968356	0.250534	0.302469	
-0.304937	-0.166182	0.150677	
-0.372506	-0.102825	0.21502	
-0.329023	-0.172142	0.292634	
-0.237359	-0.176563	0.223722	
-0.323938	-0.380873	0.347739	
-0.243391	-0.436762	0.403062	
-0.258165	-0.428195	0.298245	
-0.250192	-0.304018	0.405469	
-0.0638367	-0.295761	0	
0.00183684	-0.222331	0	
-0.0925337	-0.196451	0	
-0.0992467	-0.239425	0.125263	
0.0833333	0.3	0.5	
0.153206	0.271058	0.5	
0.106066	0.256066	0.5	
0.135958	0.243685	0.430036	
0.317163	-0.386533	0.299742	
0.256554	-0.429162	0.331268	
0.31678	-0.386847	0.395869	
0.23026	-0.337515	0.419392	
-0.243391	-0.436762	0.403062	
-0.210263	-0.381228	0.5	
-0.144862	-0.478555	0.421652	
-0.162242	-0.337279	0.406019	
0.135438	-0.346064	0.384448	
0.0230591	-0.35567	0.355674	
0.104343	-0.277575	0.292493	
0.0961802	-0.403925	0.321644	
-0.31678	0.386847	0.395869	
-0.3028	0.261077	0.41707	
-0.373696	0.332191	0.334057	
-0.316792	0.255444	0.314661	
-0.0734441	0.0616893	0	
-0.16685	0.0883447	0	
-0.142648	-0.00714059	0	
-0.0884785	0.081082	0.106964	
-0.0930725	0.0739765	0.352845	
-0.130814	0.0354375	0.417572	
-0.177179	0.127748	0.396718	
-0.177442	0.0578991	0.31733	
-0.0112682	-5.37735e-05	0.248563	
-0.0742895	0.0407153	0.192583	
0.0170253	0.0610303	0.18852	
-0.0286268	-0.0663675	0.186281	
0.429476	-0.256028	0.291579	
0.377032	-0.3284	0.243217	
0.373696	-0.332191	0.334057	
0.283545	-0.259908	0.324527	
-0.258165	-0.428195	0.298245	
-0.194667	-0.460548	0.26567	
-0.257824	-0.4284	0.204976	
-0.138366	-0.358353	0.236796	
0.470916	0.168043	0.300126	
0.374736	0.148861	0.30011	
0.460548	0.194667	0.23433	
0.39698	0.0776459	0.202579	
-0.0925337	-0.196451	0	
-0.168688	-0.281701	0	
-0.0992467	-0.239425	0.125263	
-0.206213	-0.186333	0.106781	
0.0814864	0.493315	0.347681	
0	0.5	0.3	
0.0693948	0.36903	0.285155	
-0.0106277	0.407378	0.33212	
0.0903521	0.10545	0	
0.0431438	0.101726	0.0953265	
0.0209546	0.0362755	0	
0.126165	0.019123	0.0935695	
0.300325	-0.0288408	0.258872	
0.268239	-0.118327	0.326702	
0.321349	-0.0500942	0.355813	
0.262136	0.0021711	0.327033	
0.0913842	0.220621	0.259416	
0.0632778	0.132225	0.219	
0.14675	0.128723	0.276074	
0.0525099	0.171816	0.320476	
-0.309277	-0.0223972	0.5	
-0.3	-0.0833333	0.5	
-0.358926	-0.0589256	0.5	
-0.32522	-0.00468432	0.424344	
0.121276	0.418309	0.5	
0.146853	0.477948	0.415992	
0.177101	0.348186	0.395851	
0.098227	0.400612	0.372757	
0.0970926	0.279271	0.373778	
0.0525099	0.171816	0.320476	
0.0303777	0.260127	0.314563	
0.136738	0.210835	0.334534	
-0.000470172	0.0044189	0.383613	
-0.0882569	-0.0365572	0.407331	
-0.0531387	-0.0402198	0.321272	
-0.0182997	-0.049373	0.434403	
0.478555	0.144862	0.0783483	
0.414183	0.131147	0	
0.495293	0.0684459	0.0685965	
0.362932	0.098224	0.109262	
-0.157073	0.0991372	0.5	
-0.12216	0.0506005	0.5	
-0.185212	0.0538339	0.5	
-0.130814	0.0354375	0.417572	
0.262733	0.334293	0.5	
0.228991	0.444481	0.408099	
0.3168	0.386831	0.395903	
0.177101	0.348186	0.395851	
-0.220621	-0.0913842	0.273465	
-0.171189	-0.143954	0.334682	
-0.0948276	-0.0943246	0.25421	
-0.128371	-0.0605284	0.341709	
0.121276	0.418309	0.5	
0.195502	0.369451	0.5	
0.12216	0.350601	0.5	
0.177101	0.348186	0.395851	
-0.31678	0.386847	0.395869	
-0.316792	0.255444	0.314661	
-0.373696	0.332191	0.334057	
-0.232102	0.339116	0.303176	
0.0461078	-0.0584269	0	
0.0395065	-0.000100258	0.126114	
-0.00334623	-0.10275	0.104947	
0.0983144	-0.0718988	0.0894985	
0.135438	-0.346064	0.384448	
0.0212569	-0.409526	0.42172	
0.0230591	-0.35567	0.355674	
0.0961802	-0.403925	0.321644	
0.210156	-0.0147965	0	
0.185118	-0.0448541	0.130581	
0.232997	-0.11062	0	
0.285128	-0.0586701	0.102886	
-0.0268842	0.224117	0.253342	
-0.0983525	0.249793	0.193206	
-0.0968356	0.250534	0.302469	
-0.00163227	0.307964	0.248385	
0.261819	0.319027	0	
0.231243	0.24169	0	
0.328092	0.270243	0	
0.325166	0.230418	0.10487	
0.317206	0.386498	0.299678	
0.376757	0.328716	0.246468	
0.308855	0.242117	0.27439	
0.234881	0.32259	0.246366	
0.256554	-0.429162	0.331268	
0.247023	-0.434718	0.250558	
0.153466	-0.356896	0.263852	
0.25314	-0.310833	0.250522	
-0.0243888	0.144613	0.165538	
0.0632778	0.132225	0.219	
0.0985518	0.185902	0.12959	
0.0362945	0.23248	0.18345	
-0.0125395	0.330273	0.5	
0.0092772	0.277603	0.5	
-0.03759	0.28483	0.5	
-0.0163515	0.266982	0.412579	
0.0785366	-0.11627	0.176642	
0.116361	-0.190469	0.100844	
0.174775	-0.129562	0.177015	
0.0986966	-0.244124	0.186079	
-0.0112682	-5.37735e-05	0.248563	
-0.00154855	-0.114907	0.260366	
-0.0531387	-0.0402198	0.321272	
-0.0948276	-0.0943246	0.25421	
0.0690566	-0.495208	0.430964	
0.0465403	-0.431857	0.5	
0.121351	-0.418264	0.5	
0.0212569	-0.409526	0.42172	
-0.0930725	0.0739765	0.352845	
-0.0155726	0.113982	0.279722	
-0.118181	0.0989473	0.251321	
-0.103796	0.164416	0.331112	
0.268482	0.1106	0.289732	
0.278485	0.0481879	0.395453	
0.196702	0.0791686	0.326444	
0.262136	0.0021711	0.327033	
0.0465403	0.431857	0.5	
0.0589256	0.358926	0.5	
1.83697e-17	0.383333	0.5	
0.0203259	0.350518	0.403169	
-0.106066	-0.256066	0.5	
-0.0589256	-0.241074	0.5	
-0.0833333	-0.3	0.5	
-0.0611092	-0.309537	0.420103	
0.490316	-0.0979281	0.24092	
0.40447	-0.0146922	0.243912	
0.361187	-0.127724	0.273645	
0.411179	-0.0301121	0.336439	
0.086989	0.179344	0.400327	
0.016747	0.116372	0.415368	
-0.0201888	0.188065	0.366	
0.0525099	0.171816	0.320476	
0.0853821	-0.492656	0.251348	
0.0153009	-0.365787	0.239317	
0	-0.5	0.3	
0.0961802	-0.403925	0.321644	
0.0913842	0.220621	0.259416	
-0.0268842	0.224117	0.253342	
0.0303777	0.260127	0.314563	
-0.00163227	0.307964	0.248385	
0.317131	-0.386559	0.0881616	
0.219334	-0.328412	0.103652	
0.317319	-0.386405	0.201487	
0.302277	-0.248662	0.113737	
0.0690566	-0.495208	0.430964	
0.147585	-0.477722	0.416442	
0.082983	-0.493066	0.348347	
0.0961802	-0.403925	0.321644	
0.086989	0.179344	0.400327	
0.183274	0.148555	0.376377	
0.136738	0.210835	0.334534	
0.135958	0.243685	0.430036	
-0.296258	-0.256529	0.211625	
-0.28242	-0.274225	0.101342	
-0.304937	-0.166182	0.150677	
-0.206213	-0.186333	0.106781	
0.0693948	0.36903	0.285155	
0.14467	0.301705	0.287535	
0.0970926	0.279271	0.373778	
0.0303777	0.260127	0.314563	
-0.493315	-0.0814864	0.152319	
-0.5	0	0.2	
-0.492649	-0.0854243	0.248597	
-0.372506	-0.102825	0.21502	
-0.147585	0.477722	0.416442	
-0.144981	0.358558	0.378678	
-0.082983	0.493066	0.348347	
-0.063352	0.397195	0.411842	
-0.153206	-0.271058	0.5	
-0.0833333	-0.3	0.5	
-0.109975	-0.345553	0.5	
-0.162242	-0.337279	0.406019	
-0.0930725	0.0739765	0.352845	
-0.0835252	0.135066	0.417682	
-0.177179	0.127748	0.396718	
-0.130814	0.0354375	0.417572	
-0.048473	-0.0328568	0	
-0.0734441	0.0616893	0	
-0.142648	-0.00714059	0	
-0.0801458	-0.0255891	0.118207	
0.153328	0.47591	0.0923699	
0.242822	0.437078	0.152991	
0.168734	0.470668	0.201781	
0.132803	0.332442	0.177	
0.128799	0.212132	0.5	
0.0999373	0.153076	0.5	
0.0557946	0.181673	0.5	
0.086989	0.179344	0.400327	
-0.0833333	-0.3	0.5	
-0.109975	-0.345553	0.5	
-0.162242	-0.337279	0.406019	
-0.0611092	-0.309537	0.420103	
0.0465403	0.431857	0.5	
0.0728232	0.494668	0.426459	
0.121276	0.418309	0.5	
0.098227	0.400612	0.372757	
-0.171353	-0.469721	0.338334	
-0.0977967	-0.490343	0.258774	
-0.194667	-0.460548	0.26567	
-0.138366	-0.358353	0.236796	
0.14072	-0.0839746	0	
0.185118	-0.0448541	0.130581	
0.210156	-0.0147965	0	
0.126165	0.019123	0.0935695	
-0.0112682	-5.37735e-05	0.248563	
-0.0531387	-0.0402198	0.321272	
-0.127176	-0.00609761	0.272433	
-0.0948276	-0.0943246	0.25421	
0.118934	-0.0478046	0.5	
0.0589256	-0.0589256	0.5	
0.0833333	0	0.5	
0.0953117	-0.0282381	0.401854	
0.247868	0.146306	0	
0.184962	0.0799289	0	
0.276476	0.0535537	0	
0.251686	0.10803	0.129438	
0.132803	0.332442	0.177	
-0.00982413	0.311992	0.161153	
0.0594116	0.385605	0.105978	
0.0738057	0.28359	0.108069	
0.0734599	0.0912867	0.346892	
-0.0155726	0.113982	0.279722	
0.0661482	0.0500773	0.26338	
-0.0139985	0.0766371	0.354232	
0.0589256	0.358926	0.5	
0.0833333	0.3	0.5	
0.0373069	0.315853	0.5	
0.0203259	0.350518	0.403169	
0.193272	-0.26142	0.329316	
0.249979	-0.247703	0.407586	
0.23026	-0.337515	0.419392	
0.283545	-0.259908	0.324527	
-0.191342	-0.46194	0	
-0.203173	-0.373024	0	
-0.238488	-0.439458	0.0756919	
-0.16153	-0.357052	0.106281	
-0.0930725	0.0739765	0.352845	
-0.103796	0.164416	0.331112	
-0.118181	0.0989473	0.251321	
-0.177442	0.0578991	0.31733	
-0.439384	0.238625	0.423358	
-0.450312	0.217299	0.354112	
-0.416747	0.276265	0.362548	
-0.332155	0.186259	0.378016	
-0.328307	0.16356	0	
-0.337562	0.0547633	0	
-0.257956	0.116321	0	
-0.259075	0.0657144	0.105374	
0.0589256	-0.0589256	0.5	
0.0135874	-0.118011	0.409404	
0	-0.0833333	0.5	
-0.0182997	-0.049373	0.434403	
0.0785366	-0.11627	0.176642	
0.00964811	-0.213747	0.128268	
0.116361	-0.190469	0.100844	
0.0986966	-0.244124	0.186079	
-0.153206	-0.153206	0.5	
-0.212132	-0.128799	0.5	
-0.15347	-0.097127	0.5	
-0.194749	-0.171788	0.429088	
0.385896	-0.317937	0.065638	
0.436811	-0.243302	0.0936268	
0.380207	-0.19708	0	
0.302277	-0.248662	0.113737	
0.0712814	-0.153152	0	
0.116361	-0.190469	0.100844	
0.14072	-0.0839746	0	
0.0983144	-0.0718988	0.0894985	
0.234881	0.32259	0.246366	
0.190566	0.216647	0.261668	
0.14467	0.301705	0.287535	
0.143575	0.241784	0.186885	
0.322107	0.166579	0.5	
0.350601	0.12216	0.5	
0.259229	0.131014	0.416169	
0.352401	0.10935	0.404506	
-0.0488646	-0.18203	0.5	
-0.128799	-0.212132	0.5	
-0.097127	-0.15347	0.5	
-0.0581449	-0.152487	0.425037	
0.450312	-0.217299	0.354112	
0.416747	-0.276265	0.362548	
0.439384	-0.238625	0.423358	
0.377058	-0.167276	0.424233	
-0.0488646	-0.18203	0.5	
-6.75805e-05	-0.152663	0.5	
-5.51091e-17	-0.216667	0.5	
-0.0581449	-0.152487	0.425037	
-0.241074	0.0589256	0.5	
-0.28746	0.0302731	0.5	
-0.3	0.0833333	0.5	
-0.259187	0.0363748	0.408672	
-0.490316	0.0979281	0.24092	
-0.5	0	0.3	
-0.5	0	0.2	
-0.360873	0.0158982	0.275217	
-0.123001	-0.399482	0.5	
-0.0825799	-0.384765	0.390495	
-0.144862	-0.478555	0.421652	
-0.162242	-0.337279	0.406019	
-0.381086	-0.210299	0.5	
-0.330717	-0.276825	0.5	
-0.386476	-0.317233	0.409527	
-0.338135	-0.204677	0.398089	
-0.399482	0.123001	0.5	
-0.439384	0.238625	0.423358	
-0.46194	0.191342	0.5	
-0.381208	0.210225	0.5	
0.261819	0.319027	0	
0.235698	0.440961	0.068569	
0.202324	0.378521	0	
0.223568	0.323879	0.108427	
0.249091	-0.0823301	0.40832	
0.163607	-0.084363	0.326696	
0.186731	-0.150807	0.387359	
0.165319	-0.0685492	0.421531	
0.0985518	0.185902	0.12959	
0.0362945	0.23248	0.18345	
0.0913842	0.220621	0.259416	
0.143575	0.241784	0.186885	
0.0203259	0.350518	0.403169	
0.0693948	0.36903	0.285155	
-0.0411735	0.316432	0.326214	
-0.0106277	0.407378	0.33212	
0.241074	-0.0589256	0.5	
0.249091	-0.0823301	0.40832	
0.212132	-0.128799	0.5	
0.165319	-0.0685492	0.421531	
-0.0589256	0.0589256	0.5	
-0.0833333	0	0.5	
-0.12216	0.0506005	0.5	
-0.0524491	0.0544183	0.419727	
-0.144862	-0.478555	0.421652	
-0.0825799	-0.384765	0.390495	
-0.171353	-0.469721	0.338334	
-0.162242	-0.337279	0.406019	
-0.381208	0.210225	0.5	
-0.388345	0.314941	0.420199	
-0.332733	0.27561	0.5	
-0.3028	0.261077	0.41707	
0	0.5	0.4	
6.08826e-17	0.43599	0.5	
-0.0690566	0.495208	0.430964	
-0.063352	0.397195	0.411842	
0.0614383	0.0441646	0.419518	
-0.0524491	0.0544183	0.419727	
0.016747	0.116372	0.415368	
-0.0139985	0.0766371	0.354232	
0.0943468	-0.245334	0	
0.0712814	-0.153152	0	
0.00183684	-0.222331	0	
0.116361	-0.190469	0.100844	
-0.142648	-0.00714059	0	
-0.117671	-0.10197	0	
-0.048473	-0.0328568	0	
-0.0801458	-0.0255891	0.118207	
0.118934	-0.0478046	0.5	
0.154508	-0.0938282	0.5	
0.104605	-0.104521	0.5	
0.165319	-0.0685492	0.421531	
-0.401548	-0.0423374	0	
-0.5	0	0.1	
-0.494668	-0.0728232	0.0735406	
-0.382808	-0.0894032	0.103515	
-0.358926	0.0589256	0.5	
-0.383333	3.67394e-17	0.5	
-0.38814	0.0365087	0.390101	
-0.32522	-0.00468432	0.424344	
0.350601	0.12216	0.5	
0.3	0.0833333	0.5	
0.259229	0.131014	0.416169	
0.352401	0.10935	0.404506	
-0.358997	0.136564	0.272723	
-0.262239	0.179182	0.299022	
-0.268448	0.0761744	0.322026	
-0.219759	0.108564	0.237237	
-0.332155	0.186259	0.378016	
-0.212186	0.200864	0.421006	
-0.233647	0.26032	0.360484	
-0.3028	0.261077	0.41707	
0.460548	0.194667	0.23433	
0.374736	0.148861	0.30011	
0.342141	0.162954	0.200127	
0.39698	0.0776459	0.202579	
0.174738	-0.468473	0.317184	
0.228959	-0.444497	0.408094	
0.256554	-0.429162	0.331268	
0.135438	-0.346064	0.384448	
-0.295688	0.153857	0.172875	
-0.259075	0.0657144	0.105374	
-0.377341	0.0879068	0.111753	
-0.241404	0.162452	0.0887852	
-0.0112682	-5.37735e-05	0.248563	
0.0387655	-0.0479803	0.318584	
0.110881	-0.0319284	0.263307	
0.0661482	0.0500773	0.26338	
0.377032	-0.3284	0.243217	
0.38078	-0.324048	0.150149	
0.317319	-0.386405	0.201487	
0.25314	-0.310833	0.250522	
-0.220621	-0.0913842	0.273465	
-0.127176	-0.00609761	0.272433	
-0.0948276	-0.0943246	0.25421	
-0.136956	-0.0443284	0.188767	
0.0203259	0.350518	0.403169	
-0.0163515	0.266982	0.412579	
-0.0411735	0.316432	0.326214	
0.0303777	0.260127	0.314563	
-0.193999	-0.271016	0.175767	
-0.296258	-0.256529	0.211625	
-0.234283	-0.304583	0.2878	
-0.237359	-0.176563	0.223722	
-0.358926	-0.0589256	0.5	
-0.306482	-0.128449	0.42688	
-0.39407	-0.0815537	0.417272	
-0.32522	-0.00468432	0.424344	
0.0913842	0.220621	0.259416	
0.0362945	0.23248	0.18345	
-0.0268842	0.224117	0.253342	
-0.00163227	0.307964	0.248385	
0.0212569	-0.409526	0.42172	
0.0220588	-0.302368	0.419947	
0.0230591	-0.35567	0.355674	
-0.0611092	-0.309537	0.420103	
-0.0488646	-0.18203	0.5	
-0.0254015	-0.238675	0.394183	
-0.0589256	-0.241074	0.5	
-0.0581449	-0.152487	0.425037	
-0.217356	-0.450285	0.144698	
-0.168043	-0.470916	0.199874	
-0.152694	-0.476114	0.0975404	
-0.16153	-0.357052	0.106281	
-6.75805e-05	-0.152663	0.5	
-0.0499791	-0.122616	0.5	
0	-0.0833333	0.5	
0.0135874	-0.118011	0.409404	
0.385896	-0.317937	0.065638	
0.268393	-0.334301	0	
0.317131	-0.386559	0.0881616	
0.302277	-0.248662	0.113737	
-0.0201888	0.188065	0.366	
0.0525099	0.171816	0.320476	
-0.0268842	0.224117	0.253342	
0.0303777	0.260127	0.314563	
0.12216	-0.350601	0.5	
0.166579	-0.322107	0.5	
0.196736	-0.368707	0.5	
0.135438	-0.346064	0.384448	
0.0535407	0.120642	0.5	
0.0589256	0.0589256	0.5	
0	0.0833333	0.5	
0.016747	0.116372	0.415368	
0.174678	0.468495	0.317109	
0.0854243	0.492649	0.251403	
0.168734	0.470668	0.201781	
0.0693948	0.36903	0.285155	
0.0589256	-0.358926	0.5	
0.121351	-0.418264	0.5	
0.0465403	-0.431857	0.5	
0.0212569	-0.409526	0.42172	
-0.0807376	0.493438	0.154216	
-0.0853821	0.492656	0.251348	
-0.16873	0.47067	0.201799	
-0.0333766	0.391369	0.240112	
-0.323059	-0.0556697	0.363619	
-0.231014	-0.0285751	0.432493	
-0.229671	-0.108874	0.396367	
-0.259249	-0.00709893	0.335751	
-0.328307	0.16356	0	
-0.377341	0.0879068	0.111753	
-0.337562	0.0547633	0	
-0.259075	0.0657144	0.105374	
0.380873	0.323938	0.152261	
0.316847	0.386792	0.198616	
0.317233	0.386476	0.0904728	
0.223568	0.323879	0.108427	
0.385896	-0.317937	0.065638	
0.380207	-0.19708	0	
0.314857	-0.257449	0	
0.302277	-0.248662	0.113737	
0	0.0833333	0.5	
0.0589256	0.0589256	0.5	
0.0373069	0.0158534	0.5	
0.0614383	0.0441646	0.419518	
0.163607	-0.084363	0.326696	
0.110665	-0.131179	0.419604	
0.186731	-0.150807	0.387359	
0.165319	-0.0685492	0.421531	
-0.0684459	-0.495293	0.431403	
-0.0825799	-0.384765	0.390495	
-0.0506005	-0.42216	0.5	
0.0212569	-0.409526	0.42172	
-0.229671	-0.108874	0.396367	
-0.231014	-0.0285751	0.432493	
-0.18468	-0.0140346	0.375736	
-0.259249	-0.00709893	0.335751	
-0.26105	0.203399	0	
-0.18644	0.1823	0	
-0.214341	0.273759	0	
-0.241404	0.162452	0.0887852	
0.115537	0.0107471	0	
0.0903521	0.10545	0	
0.0209546	0.0362755	0	
0.126165	0.019123	0.0935695	
0.350601	0.12216	0.5	
0.322107	0.166579	0.5	
0.369451	0.195502	0.5	
0.352401	0.10935	0.404506	
-0.243391	-0.436762	0.403062	
-0.250192	-0.304018	0.405469	
-0.210263	-0.381228	0.5	
-0.162242	-0.337279	0.406019	
-0.315029	-0.388274	0.0791933	
-0.331632	-0.374193	0.165357	
-0.277785	-0.415735	0.134138	
-0.28242	-0.274225	0.101342	
0.321349	-0.0500942	0.355813	
0.262136	0.0021711	0.327033	
0.249091	-0.0823301	0.40832	
0.249486	-0.0108057	0.43277	
-0.0112682	-5.37735e-05	0.248563	
-0.0155726	0.113982	0.279722	
0.0170253	0.0610303	0.18852	
-0.0742895	0.0407153	0.192583	
0.193272	-0.26142	0.329316	
0.153466	-0.356896	0.263852	
0.135438	-0.346064	0.384448	
0.104343	-0.277575	0.292493	
-0.295688	0.153857	0.172875	
-0.262239	0.179182	0.299022	
-0.358997	0.136564	0.272723	
-0.219759	0.108564	0.237237	
-0.196736	0.368707	0.5	
-0.12216	0.350601	0.5	
-0.166579	0.322107	0.5	
-0.144981	0.358558	0.378678	
0	0.0833333	0.5	
0.016747	0.116372	0.415368	
0.0589256	0.0589256	0.5	
0.0614383	0.0441646	0.419518	
0.0395065	-0.000100258	0.126114	
-0.0112682	-5.37735e-05	0.248563	
0.0170253	0.0610303	0.18852	
-0.0286268	-0.0663675	0.186281	
-0.304937	-0.166182	0.150677	
-0.325718	-0.0135225	0.164468	
-0.382808	-0.0894032	0.103515	
-0.372506	-0.102825	0.21502	
0.191342	0.46194	0.5	
0.195502	0.369451	0.5	
0.121276	0.418309	0.5	
0.146853	0.477948	0.415992	
-0.388345	0.314941	0.420199	
-0.439384	0.238625	0.423358	
-0.416747	0.276265	0.362548	
-0.3028	0.261077	0.41707	
-0.469621	0.171627	0.160116	
-0.478516	0.14499	0.0762896	
-0.436811	0.243302	0.0936268	
-0.377341	0.0879068	0.111753	
0.0734599	0.0912867	0.346892	
0.016747	0.116372	0.415368	
0.086989	0.179344	0.400327	
0.0525099	0.171816	0.320476	
-0.217356	-0.450285	0.144698	
-0.238488	-0.439458	0.0756919	
-0.277785	-0.415735	0.134138	
-0.16153	-0.357052	0.106281	
-0.0268842	0.224117	0.253342	
0.0525099	0.171816	0.320476	
0.0913842	0.220621	0.259416	
0.0303777	0.260127	0.314563	
-0.0825799	-0.384765	0.390495	
0.0212569	-0.409526	0.42172	
0.0230591	-0.35567	0.355674	
-0.0611092	-0.309537	0.420103	
-0.0201888	0.188065	0.366	
-0.0835252	0.135066	0.417682	
0.016747	0.116372	0.415368	
-0.0612159	0.20738	0.430983	
-0.0488646	-0.18203	0.5	
-0.0589256	-0.241074	0.5	
-0.117884	-0.234333	0.40948	
-0.0581449	-0.152487	0.425037	
-0.153206	-0.271058	0.5	
-0.109975	-0.345553	0.5	
-0.161532	-0.334293	0.5	
-0.162242	-0.337279	0.406019	
-0.0684459	-0.495293	0.431403	
-0.0506005	-0.42216	0.5	
-1.3431e-16	-0.435719	0.5	
0.0212569	-0.409526	0.42172	
0.135296	0.0693292	0.185912	
0.155737	0.108922	0.093738	
0.0985518	0.185902	0.12959	
0.189688	0.149534	0.191539	
0.193272	-0.26142	0.329316	
0.163614	-0.249053	0.416633	
0.186731	-0.150807	0.387359	
0.134803	-0.19156	0.335814	
-0.0488646	-0.18203	0.5	
-5.51091e-17	-0.216667	0.5	
-0.0254015	-0.238675	0.394183	
-0.0581449	-0.152487	0.425037	
-0.241074	0.0589256	0.5	
-0.26241	-0.01517	0.5	
-0.28746	0.0302731	0.5	
-0.259187	0.0363748	0.408672	
-0.468495	-0.174678	0.182891	
-0.444481	-0.228991	0.0919014	
-0.477948	-0.146853	0.0840084	
-0.382808	-0.0894032	0.103515	
-0.0499791	-0.122616	0.5	
0.0135874	-0.118011	0.409404	
-6.75805e-05	-0.152663	0.5	
-0.0581449	-0.152487	0.425037	
-0.358926	-0.0589256	0.5	
-0.39407	-0.0815537	0.417272	
-0.383333	3.67394e-17	0.5	
-0.32522	-0.00468432	0.424344	
0.490316	-0.0979281	0.24092	
0.471122	-0.167464	0.300106	
0.493012	-0.0833019	0.344789	
0.361187	-0.127724	0.273645	
0.153329	-0.47591	0.0923815	
0.2429	-0.437035	0.152631	
0.235698	-0.440961	0.0686036	
0.219334	-0.328412	0.103652	
-0.323059	-0.0556697	0.363619	
-0.39407	-0.0815537	0.417272	
-0.38814	0.0365087	0.390101	
-0.402728	-0.0701503	0.304716	
-0.0201888	0.188065	0.366	
-0.103796	0.164416	0.331112	
-0.123171	0.237068	0.386906	
-0.0968356	0.250534	0.302469	
0.221133	0.265326	0.342623	
0.190566	0.216647	0.261668	
0.308855	0.242117	0.27439	
0.248284	0.183853	0.331313	
0.394936	-0.119803	0	
0.314271	-0.0501881	0	
0.313791	-0.154465	0	
0.389447	-0.0664451	0.106973	
-0.0734441	0.0616893	0	
-0.00425413	0.131001	0	
-0.0983601	0.156434	0	
-0.0884785	0.081082	0.106964	
-0.233647	0.26032	0.360484	
-0.212186	0.200864	0.421006	
-0.262239	0.179182	0.299022	
-0.18531	0.191876	0.339375	
-0.168688	-0.281701	0	
-0.263582	-0.319413	0	
-0.203173	-0.373024	0	
-0.16153	-0.357052	0.106281	
0.0913842	0.220621	0.259416	
0.0525099	0.171816	0.320476	
0.14675	0.128723	0.276074	
0.136738	0.210835	0.334534	
0.0734599	0.0912867	0.346892	
0.0525099	0.171816	0.320476	
-0.0155726	0.113982	0.279722	
-0.0139985	0.0766371	0.354232	
-0.386476	-0.317233	0.409527	
-0.330717	-0.276825	0.5	
-0.317197	-0.386505	0.431175	
-0.250192	-0.304018	0.405469	
-0.261345	-0.230036	0	
-0.28242	-0.274225	0.101342	
-0.168688	-0.281701	0	
-0.206213	-0.186333	0.106781	
-0.331361	-0.272953	0	
-0.261345	-0.230036	0	
-0.356684	-0.19351	0	
-0.28242	-0.274225	0.101342	
0.277785	0.415735	0	
0.261819	0.319027	0	
0.235698	0.440961	0.068569	
0.202324	0.378521	0	
-0.450312	0.217299	0.354112	
-0.471122	0.167464	0.300106	
-0.429476	0.256028	0.291579	
-0.358997	0.136564	0.272723	
0.478555	0.144862	0.0783483	
0.469721	0.171353	0.161666	
0.436762	0.243391	0.0969381	
0.362932	0.098224	0.109262	
0.3	-0.0833333	0.5	
0.256066	-0.106066	0.5	
0.241074	-0.0589256	0.5	
0.249091	-0.0823301	0.40832	
0.242822	0.437078	0.152991	
0.316847	0.386792	0.198616	
0.234881	0.32259	0.246366	
0.223568	0.323879	0.108427	
0.308855	0.242117	0.27439	
0.234881	0.32259	0.246366	
0.239078	0.233865	0.176769	
0.190566	0.216647	0.261668	
-0.00982413	0.311992	0.161153	
-0.0606721	0.230593	0.106057	
0.0362945	0.23248	0.18345	
-0.0983525	0.249793	0.193206	
0.2429	-0.437035	0.152631	
0.16873	-0.47067	0.201799	
0.247023	-0.434718	0.250558	
0.153466	-0.356896	0.263852	
-0.38078	0.324048	0.150149	
-0.317131	0.386559	0.0881616	
-0.317319	0.386405	0.201487	
-0.265951	0.256468	0.111233	
0.239078	0.233865	0.176769	
0.132803	0.332442	0.177	
0.223568	0.323879	0.108427	
0.143575	0.241784	0.186885	
0.135296	0.0693292	0.185912	
0.0632778	0.132225	0.219	
0.14675	0.128723	0.276074	
0.189688	0.149534	0.191539	
0.0461078	-0.0584269	0	
-0.00334623	-0.10275	0.104947	
0.0712814	-0.153152	0	
0.0983144	-0.0718988	0.0894985	
-0.00982413	0.311992	0.161153	
0.0362945	0.23248	0.18345	
-0.0268842	0.224117	0.253342	
-0.0983525	0.249793	0.193206	
0.251686	0.10803	0.129438	
0.332005	0.00713037	0.169463	
0.362932	0.098224	0.109262	
0.276673	0.0689246	0.208494	
0.251686	0.10803	0.129438	
0.362932	0.098224	0.109262	
0.342141	0.162954	0.200127	
0.276673	0.0689246	0.208494	
-0.211369	-0.0761151	0	
-0.278713	-0.14304	0	
-0.186407	-0.169451	0	
-0.206213	-0.186333	0.106781	
0.239078	0.233865	0.176769	
0.223568	0.323879	0.108427	
0.191432	0.204802	0.0909793	
0.143575	0.241784	0.186885	
-0.268272	0.128138	0.411267	
-0.212186	0.200864	0.421006	
-0.177179	0.127748	0.396718	
-0.18531	0.191876	0.339375	
0.268393	-0.334301	0	
0.201164	-0.273578	0	
0.219334	-0.328412	0.103652	
0.302277	-0.248662	0.113737	
-0.26105	0.203399	0	
-0.214341	0.273759	0	
-0.265951	0.256468	0.111233	
-0.241404	0.162452	0.0887852	
0.228991	0.444481	0.408099	
0.195502	0.369451	0.5	
0.146853	0.477948	0.415992	
0.177101	0.348186	0.395851	
-0.18468	-0.0140346	0.375736	
-0.259187	0.0363748	0.408672	
-0.177442	0.0578991	0.31733	
-0.259249	-0.00709893	0.335751	
-0.157073	0.0991372	0.5	
-0.212132	0.128799	0.5	
-0.153206	0.153206	0.5	
-0.177179	0.127748	0.396718	
-0.212132	0.128799	0.5	
-0.153206	0.153206	0.5	
-0.177179	0.127748	0.396718	
-0.212186	0.200864	0.421006	
-0.0814439	-0.125985	0.343547	
-0.0948276	-0.0943246	0.25421	
-0.146435	-0.19403	0.261638	
-0.171189	-0.143954	0.334682	
-0.302044	-0.0506462	0	
-0.237047	0.0201392	0	
-0.337562	0.0547633	0	
-0.259075	0.0657144	0.105374	
0.278485	0.0481879	0.395453	
0.353873	0.0061299	0.416416	
0.380516	0.0520569	0.316102	
0.352401	0.10935	0.404506	
0.166579	-0.322107	0.5	
0.135438	-0.346064	0.384448	
0.163614	-0.249053	0.416633	
0.23026	-0.337515	0.419392	
-0.181859	0.199592	0.5	
-0.196279	0.249439	0.5	
-0.128799	0.212132	0.5	
-0.181622	0.273954	0.42594	
-0.0704474	0.495012	0.0718449	
-0.0372406	0.417791	0	
0	0.5	0.1	
-0.0728697	0.385983	0.102817	
0.3	0.0833333	0.5	
0.358926	0.0589256	0.5	
0.315853	0.0373069	0.5	
0.352401	0.10935	0.404506	
-0.114467	-0.386332	0	
-0.0638367	-0.295761	0	
-0.16153	-0.357052	0.106281	
-0.069553	-0.399585	0.0805589	
0.380516	0.0520569	0.316102	
0.300325	-0.0288408	0.258872	
0.40447	-0.0146922	0.243912	
0.411179	-0.0301121	0.336439	
-0.495208	0.0690617	0.0692099	
-0.493378	0.0811073	0.146993	
-0.5	0	0.1	
-0.377341	0.0879068	0.111753	
0.184555	5.29963e-05	0.359326	
0.165319	-0.0685492	0.421531	
0.249091	-0.0823301	0.40832	
0.249486	-0.0108057	0.43277	
0.0785366	-0.11627	0.176642	
-0.00334623	-0.10275	0.104947	
0.0395065	-0.000100258	0.126114	
0.0983144	-0.0718988	0.0894985	
-0.128799	-0.212132	0.5	
-0.0589256	-0.241074	0.5	
-0.106066	-0.256066	0.5	
-0.117884	-0.234333	0.40948	
-0.196279	0.249439	0.5	
-0.271058	0.271058	0.5	
-0.212132	0.295465	0.5	
-0.181622	0.273954	0.42594	
-0.121351	0.418264	0.5	
-0.144981	0.358558	0.378678	
-0.147585	0.477722	0.416442	
-0.063352	0.397195	0.411842	
0.195502	0.369451	0.5	
0.262733	0.334293	0.5	
0.212132	0.295465	0.5	
0.177101	0.348186	0.395851	
0.490343	0.0977967	0.241226	
0.40447	-0.0146922	0.243912	
0.380516	0.0520569	0.316102	
0.39698	0.0776459	0.202579	
0.0431438	0.101726	0.0953265	
0.155737	0.108922	0.093738	
0.135296	0.0693292	0.185912	
0.126165	0.019123	0.0935695	
0.0785366	-0.11627	0.176642	
0.174775	-0.129562	0.177015	
0.116361	-0.190469	0.100844	
0.0983144	-0.0718988	0.0894985	
0.385896	-0.317937	0.065638	
0.314857	-0.257449	0	
0.268393	-0.334301	0	
0.302277	-0.248662	0.113737	
-0.439384	0.238625	0.423358	
-0.388345	0.314941	0.420199	
-0.381208	0.210225	0.5	
-0.3028	0.261077	0.41707	
-0.271058	-0.153206	0.5	
-0.306482	-0.128449	0.42688	
-0.229671	-0.108874	0.396367	
-0.194749	-0.171788	0.429088	
-0.444481	-0.228991	0.0919014	
-0.331361	-0.272953	0	
-0.415735	-0.277785	0	
-0.356684	-0.19351	0	
0.431857	0.0465403	0.5	
0.383333	0	0.5	
0.358926	0.0589256	0.5	
0.353873	0.0061299	0.416416	
0.322107	0.166579	0.5	
0.350601	0.12216	0.5	
0.3	0.0833333	0.5	
0.259229	0.131014	0.416169	
0	0.5	0.2	
0.0854243	0.492649	0.251403	
0	0.5	0.3	
-0.0333766	0.391369	0.240112	
-0.0112682	-5.37735e-05	0.248563	
-0.00154855	-0.114907	0.260366	
-0.0948276	-0.0943246	0.25421	
-0.0286268	-0.0663675	0.186281	
0.321456	-0.142755	0.153578	
0.302277	-0.248662	0.113737	
0.200132	-0.232269	0.163427	
0.235288	-0.159577	0.0981964	
0.174678	0.468495	0.317109	
0.0814864	0.493315	0.347681	
0.0693948	0.36903	0.285155	
0.098227	0.400612	0.372757	
-0.0589256	-0.241074	0.5	
-0.0488646	-0.18203	0.5	
-5.51091e-17	-0.216667	0.5	
-0.0254015	-0.238675	0.394183	
0.320474	0.196191	0.377567	
0.259229	0.131014	0.416169	
0.220138	0.220062	0.417726	
0.248284	0.183853	0.331313	
-0.271058	0.271058	0.5	
-0.23026	0.337515	0.416359	
-0.212132	0.295465	0.5	
-0.181622	0.273954	0.42594	
0.234881	0.32259	0.246366	
0.14467	0.301705	0.287535	
0.132803	0.332442	0.177	
0.143575	0.241784	0.186885	
-0.12216	0.0506005	0.5	
-0.0833333	0	0.5	
-0.152663	-6.75805e-05	0.5	
-0.130814	0.0354375	0.417572	
-0.0506005	0.12216	0.5	
0.00279483	0.150684	0.5	
0	0.0833333	0.5	
0.016747	0.116372	0.415368	
0.0704474	-0.495012	0.0718449	
0.0807376	-0.493438	0.154216	
0.153329	-0.47591	0.0923815	
0.0206176	-0.395667	0.103453	
0.158056	0.171884	0	
0.0985518	0.185902	0.12959	
0.155737	0.108922	0.093738	
0.191432	0.204802	0.0909793	
-0.31678	0.386847	0.395869	
-0.373696	0.332191	0.334057	
-0.317163	0.386533	0.299742	
-0.232102	0.339116	0.303176	
0.268393	-0.334301	0	
0.219334	-0.328412	0.103652	
0.317131	-0.386559	0.0881616	
0.302277	-0.248662	0.113737	
-0.0125395	-0.269727	0.5	
-0.0254015	-0.238675	0.394183	
0.0220588	-0.302368	0.419947	
-0.0611092	-0.309537	0.420103	
0.196736	-0.368707	0.5	
0.121351	-0.418264	0.5	
0.228959	-0.444497	0.408094	
0.191342	-0.46194	0.5	
-0.196736	0.368707	0.5	
-0.228959	0.444497	0.408094	
-0.191342	0.46194	0.5	
-0.121351	0.418264	0.5	
-0.0589256	0.241074	0.5	
-0.0833333	0.3	0.5	
-0.03759	0.28483	0.5	
-0.0163515	0.266982	0.412579	
0.278485	0.0481879	0.395453	
0.321349	-0.0500942	0.355813	
0.353873	0.0061299	0.416416	
0.249486	-0.0108057	0.43277	
0.135438	-0.346064	0.384448	
0.193272	-0.26142	0.329316	
0.163614	-0.249053	0.416633	
0.23026	-0.337515	0.419392	
0.276476	0.0535537	0	
0.314271	-0.0501881	0	
0.346509	0.0237889	0	
0.285128	-0.0586701	0.102886	
0.278485	0.0481879	0.395453	
0.259229	0.131014	0.416169	
0.3	0.0833333	0.5	
0.352401	0.10935	0.404506	
-0.000470172	0.0044189	0.383613	
-0.0524491	0.0544183	0.419727	
-0.0882569	-0.0365572	0.407331	
-0.0182997	-0.049373	0.434403	
-0.329023	-0.172142	0.292634	
-0.296258	-0.256529	0.211625	
-0.304937	-0.166182	0.150677	
-0.237359	-0.176563	0.223722	
-0.386498	-0.317206	0.200322	
-0.296258	-0.256529	0.211625	
-0.331632	-0.374193	0.165357	
-0.28242	-0.274225	0.101342	
-0.123001	-0.399482	0.5	
-0.0506005	-0.42216	0.5	
-0.0684459	-0.495293	0.431403	
-0.0825799	-0.384765	0.390495	
0.0420691	0.427134	0	
0.114055	0.374109	0	
0.0704482	0.495012	0.0718447	
0.0594116	0.385605	0.105978	
0.245477	-0.191651	0	
0.302277	-0.248662	0.113737	
0.313791	-0.154465	0	
0.235288	-0.159577	0.0981964	
0.38078	-0.324048	0.150149	
0.317131	-0.386559	0.0881616	
0.317319	-0.386405	0.201487	
0.302277	-0.248662	0.113737	
0.377032	-0.3284	0.243217	
0.25314	-0.310833	0.250522	
0.317163	-0.386533	0.299742	
0.283545	-0.259908	0.324527	
-0.177179	0.127748	0.396718	
-0.268272	0.128138	0.411267	
-0.212132	0.128799	0.5	
-0.212186	0.200864	0.421006	
-0.0112682	-5.37735e-05	0.248563	
-0.0531387	-0.0402198	0.321272	
-0.00154855	-0.114907	0.260366	
0.0387655	-0.0479803	0.318584	
0.0833333	-0.3	0.5	
0.0373069	-0.284147	0.5	
0.0589256	-0.241074	0.5	
0.0220588	-0.302368	0.419947	
0.0704482	0.495012	0.0718447	
0	0.5	0.1	
0.0420691	0.427134	0	
0.0594116	0.385605	0.105978	
0.239078	0.233865	0.176769	
0.190566	0.216647	0.261668	
0.234881	0.32259	0.246366	
0.143575	0.241784	0.186885	
0	-0.5	0.1	
-0.0833019	-0.493012	0.155211	
0	-0.5	0.2	
0.0206176	-0.395667	0.103453	
0.154508	-0.0938282	0.5	
0.110665	-0.131179	0.419604	
0.104605	-0.104521	0.5	
0.165319	-0.0685492	0.421531	
-0.38814	0.0365087	0.390101	
-0.360873	0.0158982	0.275217	
-0.323059	-0.0556697	0.363619	
-0.402728	-0.0701503	0.304716	
-0.334293	-0.161532	0.5	
-0.399482	-0.123001	0.5	
-0.345553	-0.109975	0.5	
-0.306482	-0.128449	0.42688	
-0.28746	0.0302731	0.5	
-0.259187	0.0363748	0.408672	
-0.26241	-0.01517	0.5	
-0.32522	-0.00468432	0.424344	
-0.26241	-0.01517	0.5	
-0.241074	-0.0589256	0.5	
-0.3	-0.0833333	0.5	
-0.231014	-0.0285751	0.432493	
-0.127176	-0.00609761	0.272433	
-0.246812	0.00918153	0.237581	
-0.165601	0.0438592	0.172089	
-0.136956	-0.0443284	0.188767	
0.295465	0.212132	0.5	
0.271058	0.271058	0.5	
0.334293	0.262733	0.5	
0.291987	0.28448	0.40616	
0.136079	0.0773073	0.413876	
0.0614383	0.0441646	0.419518	
0.0734599	0.0912867	0.346892	
0.107111	0.0161028	0.331802	
-0.328716	-0.376757	0.253532	
-0.258165	-0.428195	0.298245	
-0.257824	-0.4284	0.204976	
-0.234283	-0.304583	0.2878	
0.271058	0.153206	0.5	
0.3	0.0833333	0.5	
0.256066	0.106066	0.5	
0.259229	0.131014	0.416169	
-0.329023	-0.172142	0.292634	
-0.372506	-0.102825	0.21502	
-0.470668	-0.168734	0.298219	
-0.402728	-0.0701503	0.304716	
0.305409	0.305409	0.5	
0.262733	0.334293	0.5	
0.3168	0.386831	0.395903	
0.291987	0.28448	0.40616	
0.124175	0.0449909	0.5	
0.0833333	0	0.5	
0.0589256	0.0589256	0.5	
0.0614383	0.0441646	0.419518	
0.186339	-0.0508266	0.5	
0.241074	-0.0589256	0.5	
0.212132	-0.128799	0.5	
0.165319	-0.0685492	0.421531	
0.278485	0.0481879	0.395453	
0.353873	0.0061299	0.416416	
0.315853	0.0373069	0.5	
0.249486	-0.0108057	0.43277	
-0.0833019	-0.493012	0.155211	
0.0206176	-0.395667	0.103453	
0	-0.5	0.1	
-0.069553	-0.399585	0.0805589	
-0.358926	0.0589256	0.5	
-0.383333	3.67394e-17	0.5	
-0.42216	0.0506005	0.5	
-0.38814	0.0365087	0.390101	
-0.03759	-0.01517	0.5	
-0.0589256	-0.0589256	0.5	
-0.0833333	0	0.5	
-0.0882569	-0.0365572	0.407331	
-0.177179	0.127748	0.396718	
-0.123171	0.237068	0.386906	
-0.103796	0.164416	0.331112	
-0.18531	0.191876	0.339375	
-0.256554	0.429162	0.331268	
-0.144981	0.358558	0.378678	
-0.23026	0.337515	0.416359	
-0.232102	0.339116	0.303176	
0.14072	-0.0839746	0	
0.0712814	-0.153152	0	
0.164797	-0.177585	0	
0.116361	-0.190469	0.100844	
0.0819669	-0.126701	0.339809	
0.163607	-0.084363	0.326696	
0.186731	-0.150807	0.387359	
0.134803	-0.19156	0.335814	
-0.304937	-0.166182	0.150677	
-0.206213	-0.186333	0.106781	
-0.202717	-0.0800005	0.134359	
-0.237359	-0.176563	0.223722	
-0.5	0	0.4	
-0.493437	-0.0807477	0.345776	
-0.5	0	0.3	
-0.402728	-0.0701503	0.304716	
-0.146435	-0.19403	0.261638	
-0.0948276	-0.0943246	0.25421	
-0.0814439	-0.125985	0.343547	
-0.0547597	-0.189651	0.263151	
-0.386792	-0.316847	0.301384	
-0.434698	-0.247057	0.249501	
-0.437078	-0.242822	0.347009	
-0.329023	-0.172142	0.292634	
0	0.5	0.4	
-0.0106277	0.407378	0.33212	
0.0814864	0.493315	0.347681	
0.098227	0.400612	0.372757	
-0.271058	-0.153206	0.5	
-0.229671	-0.108874	0.396367	
-0.212132	-0.128799	0.5	
-0.194749	-0.171788	0.429088	
0.3168	0.386831	0.395903	
0.317206	0.386498	0.299678	
0.374193	0.331632	0.334643	
0.291987	0.28448	0.40616	
-0.177179	0.127748	0.396718	
-0.212186	0.200864	0.421006	
-0.123171	0.237068	0.386906	
-0.18531	0.191876	0.339375	
0.135296	0.0693292	0.185912	
0.14675	0.128723	0.276074	
0.0632778	0.132225	0.219	
0.0661482	0.0500773	0.26338	
0.268482	0.1106	0.289732	
0.196702	0.0791686	0.326444	
0.212089	0.020774	0.252242	
0.262136	0.0021711	0.327033	
-0.0411735	0.316432	0.326214	
0.0693948	0.36903	0.285155	
0.0303777	0.260127	0.314563	
-0.00163227	0.307964	0.248385	
-0.0930725	0.0739765	0.352845	
-0.118181	0.0989473	0.251321	
-0.127176	-0.00609761	0.272433	
-0.177442	0.0578991	0.31733	
0.231243	0.24169	0	
0.223568	0.323879	0.108427	
0.189613	0.313662	0	
0.191432	0.204802	0.0909793	
-0.0465403	0.431857	0.5	
6.08826e-17	0.43599	0.5	
1.83697e-17	0.383333	0.5	
-0.063352	0.397195	0.411842	
-0.16873	0.47067	0.201799	
-0.153329	0.47591	0.0923815	
-0.0807376	0.493438	0.154216	
-0.0728697	0.385983	0.102817	
0.374193	0.331632	0.334643	
0.317206	0.386498	0.299678	
0.376757	0.328716	0.246468	
0.308855	0.242117	0.27439	
-0.241074	0.0589256	0.5	
-0.216667	3.67394e-17	0.5	
-0.26241	-0.01517	0.5	
-0.259187	0.0363748	0.408672	
-0.16685	0.0883447	0	
-0.257956	0.116321	0	
-0.259075	0.0657144	0.105374	
-0.241404	0.162452	0.0887852	
0.0373069	0.315853	0.5	
-0.0125395	0.330273	0.5	
1.83697e-17	0.383333	0.5	
0.0203259	0.350518	0.403169	
-0.317163	0.386533	0.299742	
-0.265452	0.263294	0.235043	
-0.317319	0.386405	0.201487	
-0.232102	0.339116	0.303176	
0.249091	-0.0823301	0.40832	
0.165319	-0.0685492	0.421531	
0.241074	-0.0589256	0.5	
0.249486	-0.0108057	0.43277	
0.5	0	0.3	
0.380516	0.0520569	0.316102	
0.490343	0.0977967	0.241226	
0.40447	-0.0146922	0.243912	
0.232997	-0.11062	0	
0.313791	-0.154465	0	
0.285128	-0.0586701	0.102886	
0.235288	-0.159577	0.0981964	
0.147585	-0.477722	0.416442	
0.135438	-0.346064	0.384448	
0.174738	-0.468473	0.317184	
0.0961802	-0.403925	0.321644	
0.0913842	0.220621	0.259416	
0.0303777	0.260127	0.314563	
0.0525099	0.171816	0.320476	
0.136738	0.210835	0.334534	
-0.315029	-0.388274	0.0791933	
-0.263582	-0.319413	0	
-0.331361	-0.272953	0	
-0.28242	-0.274225	0.101342	
0.239078	0.233865	0.176769	
0.251686	0.10803	0.129438	
0.189688	0.149534	0.191539	
0.191432	0.204802	0.0909793	
-0.0488646	-0.18203	0.5	
-0.117884	-0.234333	0.40948	
-0.128799	-0.212132	0.5	
-0.0581449	-0.152487	0.425037	
0.321349	-0.0500942	0.355813	
0.278485	0.0481879	0.395453	
0.262136	0.0021711	0.327033	
0.249486	-0.0108057	0.43277	
-0.5	0	0.2	
-0.5	0	0.3	
-0.492649	-0.0854243	0.248597	
-0.402728	-0.0701503	0.304716	
0.373696	-0.332191	0.334057	
0.377032	-0.3284	0.243217	
0.317163	-0.386533	0.299742	
0.283545	-0.259908	0.324527	
-0.161532	-0.334293	0.5	
-0.210263	-0.381228	0.5	
-0.212132	-0.295465	0.5	
-0.162242	-0.337279	0.406019	
0.380873	0.323938	0.152261	
0.317233	0.386476	0.0904728	
0.386505	0.317197	0.0688254	
0.325166	0.230418	0.10487	
-0.373696	0.332191	0.334057	
-0.3028	0.261077	0.41707	
-0.416747	0.276265	0.362548	
-0.316792	0.255444	0.314661	
-0.191342	-0.46194	0	
-0.238488	-0.439458	0.0756919	
-0.152694	-0.476114	0.0975404	
-0.16153	-0.357052	0.106281	
-0.0488646	-0.18203	0.5	
-0.0589256	-0.241074	0.5	
-0.128799	-0.212132	0.5	
-0.117884	-0.234333	0.40948	
0.358926	-0.0589256	0.5	
0.353873	0.0061299	0.416416	
0.383333	0	0.5	
0.392836	-0.0823347	0.412468	
-0.0125395	0.0302731	0.5	
-0.03759	-0.01517	0.5	
-0.0589256	0.0589256	0.5	
-0.0524491	0.0544183	0.419727	
-0.228959	0.444497	0.408094	
-0.144981	0.358558	0.378678	
-0.196736	0.368707	0.5	
-0.23026	0.337515	0.416359	
0.0854243	0.492649	0.251403	
0.0814864	0.493315	0.347681	
0	0.5	0.3	
0.0693948	0.36903	0.285155	
-0.0925337	-0.196451	0	
-0.186407	-0.169451	0	
-0.168688	-0.281701	0	
-0.206213	-0.186333	0.106781	
0.247023	-0.434718	0.250558	
0.317319	-0.386405	0.201487	
0.2429	-0.437035	0.152631	
0.25314	-0.310833	0.250522	
0.200132	-0.232269	0.163427	
0.142415	-0.180509	0.253145	
0.174775	-0.129562	0.177015	
0.0986966	-0.244124	0.186079	
0.362932	0.098224	0.109262	
0.39698	0.0776459	0.202579	
0.342141	0.162954	0.200127	
0.276673	0.0689246	0.208494	
-0.309277	-0.0223972	0.5	
-0.32522	-0.00468432	0.424344	
-0.26241	-0.01517	0.5	
-0.231014	-0.0285751	0.432493	
0.186731	-0.150807	0.387359	
0.110665	-0.131179	0.419604	
0.0819669	-0.126701	0.339809	
0.134803	-0.19156	0.335814	
0.308855	0.242117	0.27439	
0.374736	0.148861	0.30011	
0.320474	0.196191	0.377567	
0.248284	0.183853	0.331313	
-0.271058	0.271058	0.5	
-0.3028	0.261077	0.41707	
-0.23026	0.337515	0.416359	
-0.181622	0.273954	0.42594	
0.135296	0.0693292	0.185912	
0.251686	0.10803	0.129438	
0.155737	0.108922	0.093738	
0.189688	0.149534	0.191539	
0.0814864	0.493315	0.347681	
-0.0106277	0.407378	0.33212	
0.0693948	0.36903	0.285155	
0.098227	0.400612	0.372757	
0.409478	-0.032947	0	
0.495208	-0.0690617	0.0692099	
0.5	0	0.1	
0.389447	-0.0664451	0.106973	
0.478555	0.144862	0.0783483	
0.373926	0.198925	0	
0.46194	0.191342	0	
0.414183	0.131147	0	
-0.174738	0.468473	0.317184	
-0.144981	0.358558	0.378678	
-0.256554	0.429162	0.331268	
-0.232102	0.339116	0.303176	
-0.210263	-0.381228	0.5	
-0.250192	-0.304018	0.405469	
-0.212132	-0.295465	0.5	
-0.162242	-0.337279	0.406019	
-0.323938	-0.380873	0.347739	
-0.328716	-0.376757	0.253532	
-0.386792	-0.316847	0.301384	
-0.234283	-0.304583	0.2878	
-0.434698	-0.247057	0.249501	
-0.468495	-0.174678	0.182891	
-0.470668	-0.168734	0.298219	
-0.372506	-0.102825	0.21502	
0.0230591	-0.35567	0.355674	
-0.0570812	-0.3559	0.302161	
-0.0825799	-0.384765	0.390495	
-0.0611092	-0.309537	0.420103	
-0.153206	-0.153206	0.5	
-0.128799	-0.212132	0.5	
-0.174825	-0.196279	0.5	
-0.194749	-0.171788	0.429088	
0.0404524	-0.41072	0	
0.112799	-0.33356	0	
0.0248177	-0.313374	0	
0.0206176	-0.395667	0.103453	
-0.0201888	0.188065	0.366	
-0.123171	0.237068	0.386906	
-0.103796	0.164416	0.331112	
-0.0612159	0.20738	0.430983	
-0.386831	-0.3168	0.104097	
-0.331361	-0.272953	0	
-0.415735	-0.277785	0	
-0.444481	-0.228991	0.0919014	
0.271058	-0.271058	0.5	
0.212132	-0.295465	0.5	
0.221409	-0.234529	0.5	
0.249979	-0.247703	0.407586	
-0.317197	-0.386505	0.431175	
-0.210263	-0.381228	0.5	
-0.243391	-0.436762	0.403062	
-0.250192	-0.304018	0.405469	
-0.493437	-0.0807477	0.345776	
-0.39407	-0.0815537	0.417272	
-0.47591	-0.153328	0.40763	
-0.402728	-0.0701503	0.304716	
-0.259187	0.0363748	0.408672	
-0.231014	-0.0285751	0.432493	
-0.32522	-0.00468432	0.424344	
-0.259249	-0.00709893	0.335751	
0.247868	0.146306	0	
0.300884	0.198715	0	
0.231243	0.24169	0	
0.191432	0.204802	0.0909793	
-0.3	0.0833333	0.5	
-0.271058	0.153206	0.5	
-0.256066	0.106066	0.5	
-0.268272	0.128138	0.411267	
-0.0589256	-0.241074	0.5	
-0.117884	-0.234333	0.40948	
-0.0254015	-0.238675	0.394183	
-0.0611092	-0.309537	0.420103	
0.469721	0.171353	0.161666	
0.342141	0.162954	0.200127	
0.362932	0.098224	0.109262	
0.39698	0.0776459	0.202579	
-0.191342	0.46194	0	
-0.201912	0.369986	0	
-0.118932	0.39861	0	
-0.235698	0.440961	0.0686036	
-0.495208	0.0690617	0.0692099	
-0.426463	0.0441363	0	
-0.404541	0.126945	0	
-0.377341	0.0879068	0.111753	
0.278485	0.0481879	0.395453	
0.184555	5.29963e-05	0.359326	
0.196702	0.0791686	0.326444	
0.262136	0.0021711	0.327033	
0.132803	0.332442	0.177	
0.0362945	0.23248	0.18345	
0.0738057	0.28359	0.108069	
0.143575	0.241784	0.186885	
-0.0243888	0.144613	0.165538	
-0.0884785	0.081082	0.106964	
0.0170253	0.0610303	0.18852	
-0.0742895	0.0407153	0.192583	
0.3	0.0833333	0.5	
0.271058	0.153206	0.5	
0.322107	0.166579	0.5	
0.259229	0.131014	0.416169	
-0.386476	-0.317233	0.409527	
-0.440961	-0.235698	0.431431	
-0.381086	-0.210299	0.5	
-0.338135	-0.204677	0.398089	
0.0986966	-0.244124	0.186079	
0.104343	-0.277575	0.292493	
0.142415	-0.180509	0.253145	
0.0592568	-0.173932	0.272176	
0.199592	0.242405	0.5	
0.220138	0.220062	0.417726	
0.174542	0.196962	0.5	
0.135958	0.243685	0.430036	
-0.0814439	-0.125985	0.343547	
0.000455301	-0.171885	0.334296	
0.0135874	-0.118011	0.409404	
-0.0581449	-0.152487	0.425037	
-0.177179	0.127748	0.396718	
-0.0835252	0.135066	0.417682	
-0.0930725	0.0739765	0.352845	
-0.103796	0.164416	0.331112	
-0.0243888	0.144613	0.165538	
0.0431438	0.101726	0.0953265	
0.0632778	0.132225	0.219	
0.0170253	0.0610303	0.18852	
-0.46194	-0.191342	0.5	
-0.381086	-0.210299	0.5	
-0.440961	-0.235698	0.431431	
-0.399482	-0.123001	0.5	
0.0785366	-0.11627	0.176642	
0.185118	-0.0448541	0.130581	
0.174775	-0.129562	0.177015	
0.0983144	-0.0718988	0.0894985	
0.184555	5.29963e-05	0.359326	
0.249486	-0.0108057	0.43277	
0.278485	0.0481879	0.395453	
0.179502	0.0181689	0.432699	
-0.26241	-0.01517	0.5	
-0.259187	0.0363748	0.408672	
-0.216667	3.67394e-17	0.5	
-0.231014	-0.0285751	0.432493	
0.249439	-0.196279	0.5	
0.271058	-0.271058	0.5	
0.221409	-0.234529	0.5	
0.249979	-0.247703	0.407586	
-0.434698	-0.247057	0.249501	
-0.386498	-0.317206	0.200322	
-0.429146	-0.25658	0.16876	
-0.296258	-0.256529	0.211625	
0.0903521	0.10545	0	
0.155737	0.108922	0.093738	
0.0431438	0.101726	0.0953265	
0.126165	0.019123	0.0935695	
-0.0684459	-0.495293	0.431403	
-1.3431e-16	-0.435719	0.5	
0	-0.5	0.4	
0.0212569	-0.409526	0.42172	
-0.38078	0.324048	0.150149	
-0.317319	0.386405	0.201487	
-0.377032	0.3284	0.243217	
-0.265452	0.263294	0.235043	
0.418309	0.121276	0.5	
0.358926	0.0589256	0.5	
0.350601	0.12216	0.5	
0.352401	0.10935	0.404506	
-0.114467	-0.386332	0	
-0.203173	-0.373024	0	
-0.191342	-0.46194	0	
-0.16153	-0.357052	0.106281	
-0.377032	0.3284	0.243217	
-0.317319	0.386405	0.201487	
-0.317163	0.386533	0.299742	
-0.265452	0.263294	0.235043	
-0.0112682	-5.37735e-05	0.248563	
-0.0155726	0.113982	0.279722	
0.0661482	0.0500773	0.26338	
0.0170253	0.0610303	0.18852	
-0.0814439	-0.125985	0.343547	
-0.0531387	-0.0402198	0.321272	
-0.00154855	-0.114907	0.260366	
-0.0948276	-0.0943246	0.25421	
-0.234529	0.221409	0.5	
-0.196279	0.249439	0.5	
-0.212186	0.200864	0.421006	
-0.181622	0.273954	0.42594	
-0.123001	-0.399482	0.5	
-0.210263	-0.381228	0.5	
-0.161532	-0.334293	0.5	
-0.162242	-0.337279	0.406019	
0.249979	-0.247703	0.407586	
0.163614	-0.249053	0.416633	
0.193272	-0.26142	0.329316	
0.23026	-0.337515	0.419392	
0.317163	-0.386533	0.299742	
0.31678	-0.386847	0.395869	
0.373696	-0.332191	0.334057	
0.283545	-0.259908	0.324527	
-0.085688	-0.137167	0.16869	
-0.00154855	-0.114907	0.260366	
-0.0948276	-0.0943246	0.25421	
-0.0547597	-0.189651	0.263151	
-0.152663	-6.75805e-05	0.5	
-0.18203	-0.0488646	0.5	
-0.216667	3.67394e-17	0.5	
-0.231014	-0.0285751	0.432493	
0.0967728	-0.154724	0.5	
0.0506005	-0.12216	0.5	
0.104605	-0.104521	0.5	
0.110665	-0.131179	0.419604	
-0.493315	-0.0814864	0.152319	
-0.494668	-0.0728232	0.0735406	
-0.5	0	0.1	
-0.382808	-0.0894032	0.103515	
0.332005	0.00713037	0.169463	
0.39698	0.0776459	0.202579	
0.362932	0.098224	0.109262	
0.276673	0.0689246	0.208494	
-0.227302	0.174542	0.5	
-0.212132	0.128799	0.5	
-0.268272	0.128138	0.411267	
-0.212186	0.200864	0.421006	
-0.386792	-0.316847	0.301384	
-0.386498	-0.317206	0.200322	
-0.434698	-0.247057	0.249501	
-0.296258	-0.256529	0.211625	
-0.147585	0.477722	0.416442	
-0.174738	0.468473	0.317184	
-0.082983	0.493066	0.348347	
-0.144981	0.358558	0.378678	
0.228959	-0.444497	0.408094	
0.174738	-0.468473	0.317184	
0.147585	-0.477722	0.416442	
0.135438	-0.346064	0.384448	
-0.0411735	0.316432	0.326214	
-0.0268842	0.224117	0.253342	
0.0303777	0.260127	0.314563	
-0.0968356	0.250534	0.302469	
-0.0589256	0.0589256	0.5	
-0.0506005	0.12216	0.5	
0	0.0833333	0.5	
-0.0524491	0.0544183	0.419727	
-0.085688	-0.137167	0.16869	
-0.0948276	-0.0943246	0.25421	
-0.146435	-0.19403	0.261638	
-0.0547597	-0.189651	0.263151	
0.221133	0.265326	0.342623	
0.14467	0.301705	0.287535	
0.234881	0.32259	0.246366	
0.190566	0.216647	0.261668	
0.353553	0.353553	0.5	
0.388274	0.315029	0.420807	
0.305409	0.305409	0.5	
0.291987	0.28448	0.40616	
-0.0814439	-0.125985	0.343547	
-0.134018	-0.125076	0.416643	
-0.0882569	-0.0365572	0.407331	
-0.128371	-0.0605284	0.341709	
0.0953117	-0.0282381	0.401854	
0.165319	-0.0685492	0.421531	
0.184555	5.29963e-05	0.359326	
0.179502	0.0181689	0.432699	
0.268393	-0.334301	0	
0.314857	-0.257449	0	
0.201164	-0.273578	0	
0.302277	-0.248662	0.113737	
-0.295465	0.212132	0.5	
-0.227302	0.174542	0.5	
-0.271058	0.153206	0.5	
-0.212186	0.200864	0.421006	
0.200132	-0.232269	0.163427	
0.174775	-0.129562	0.177015	
0.116361	-0.190469	0.100844	
0.0986966	-0.244124	0.186079	
0.121351	-0.418264	0.5	
0.147585	-0.477722	0.416442	
0.228959	-0.444497	0.408094	
0.191342	-0.46194	0.5	
-0.228959	0.444497	0.408094	
-0.147585	0.477722	0.416442	
-0.191342	0.46194	0.5	
-0.121351	0.418264	0.5	
0.0853821	-0.492656	0.251348	
0.16873	-0.47067	0.201799	
0.153466	-0.356896	0.263852	
0.0961802	-0.403925	0.321644	
0.313791	-0.154465	0	
0.314857	-0.257449	0	
0.380207	-0.19708	0	
0.302277	-0.248662	0.113737	
0.490343	0.0977967	0.241226	
0.470916	0.168043	0.300126	
0.460548	0.194667	0.23433	
0.39698	0.0776459	0.202579	
-0.315029	-0.388274	0.0791933	
-0.331361	-0.272953	0	
-0.386831	-0.3168	0.104097	
-0.28242	-0.274225	0.101342	
-0.0835252	0.135066	0.417682	
-0.103796	0.164416	0.331112	
-0.123171	0.237068	0.386906	
-0.0612159	0.20738	0.430983	
0.016747	0.116372	0.415368	
-0.0524491	0.0544183	0.419727	
-0.0835252	0.135066	0.417682	
-0.0139985	0.0766371	0.354232	
-0.212132	0.128799	0.5	
-0.227302	0.174542	0.5	
-0.153206	0.153206	0.5	
-0.212186	0.200864	0.421006	
0.0461078	-0.0584269	0	
-0.0232782	-0.127584	0	
0.0712814	-0.153152	0	
-0.00334623	-0.10275	0.104947	
0.0913842	0.220621	0.259416	
0.14675	0.128723	0.276074	
0.190566	0.216647	0.261668	
0.136738	0.210835	0.334534	
0.212132	-0.295465	0.5	
0.174542	-0.227302	0.5	
0.221409	-0.234529	0.5	
0.163614	-0.249053	0.416633	
0.241074	-0.0589256	0.5	
0.165319	-0.0685492	0.421531	
0.186339	-0.0508266	0.5	
0.249486	-0.0108057	0.43277	
-0.274828	0.327002	0.5	
-0.332733	0.27561	0.5	
-0.353553	0.353553	0.5	
-0.3028	0.261077	0.41707	
0.386505	0.317197	0.0688254	
0.328092	0.270243	0	
0.373926	0.198925	0	
0.325166	0.230418	0.10487	
0.332733	-0.27561	0.5	
0.353553	-0.353553	0.5	
0.274828	-0.327002	0.5	
0.388345	-0.314941	0.420199	
0.166579	-0.322107	0.5	
0.163614	-0.249053	0.416633	
0.212132	-0.295465	0.5	
0.23026	-0.337515	0.419392	
-0.0243888	0.144613	0.165538	
0.0632778	0.132225	0.219	
-0.0155726	0.113982	0.279722	
0.0170253	0.0610303	0.18852	
-0.0814439	-0.125985	0.343547	
-0.0948276	-0.0943246	0.25421	
-0.171189	-0.143954	0.334682	
-0.128371	-0.0605284	0.341709	
0.142415	-0.180509	0.253145	
0.104343	-0.277575	0.292493	
0.193272	-0.26142	0.329316	
0.134803	-0.19156	0.335814	
0.164797	-0.177585	0	
0.0943468	-0.245334	0	
0.201164	-0.273578	0	
0.116361	-0.190469	0.100844	
0.221133	0.265326	0.342623	
0.136738	0.210835	0.334534	
0.190566	0.216647	0.261668	
0.248284	0.183853	0.331313	
0.261819	0.319027	0	
0.317233	0.386476	0.0904728	
0.235698	0.440961	0.068569	
0.223568	0.323879	0.108427	
0.174738	-0.468473	0.317184	
0.153466	-0.356896	0.263852	
0.16873	-0.47067	0.201799	
0.0961802	-0.403925	0.321644	
0.380516	0.0520569	0.316102	
0.353873	0.0061299	0.416416	
0.321349	-0.0500942	0.355813	
0.411179	-0.0301121	0.336439	
0.460762	-0.19416	0.234059	
0.429476	-0.256028	0.291579	
0.471122	-0.167464	0.300106	
0.361187	-0.127724	0.273645	
-0.03759	-0.01517	0.5	
-0.0589256	-0.0589256	0.5	
-0.0882569	-0.0365572	0.407331	
-0.0182997	-0.049373	0.434403	
-0.154067	0.200523	0.255267	
-0.262239	0.179182	0.299022	
-0.219759	0.108564	0.237237	
-0.18531	0.191876	0.339375	
0.14072	-0.0839746	0	
0.115537	0.0107471	0	
0.0983144	-0.0718988	0.0894985	
0.126165	0.019123	0.0935695	
-0.144862	-0.478555	0.421652	
-0.171353	-0.469721	0.338334	
-0.243391	-0.436762	0.403062	
-0.162242	-0.337279	0.406019	
0.212132	-0.295465	0.5	
0.163614	-0.249053	0.416633	
0.249979	-0.247703	0.407586	
0.23026	-0.337515	0.419392	
0	-0.5	0.2	
0	-0.5	0.3	
0.0853821	-0.492656	0.251348	
0.0153009	-0.365787	0.239317	
0.14072	-0.0839746	0	
0.210156	-0.0147965	0	
0.115537	0.0107471	0	
0.126165	0.019123	0.0935695	
0.165319	-0.0685492	0.421531	
0.249486	-0.0108057	0.43277	
0.184555	5.29963e-05	0.359326	
0.179502	0.0181689	0.432699	
0.295465	-0.212132	0.5	
0.334293	-0.161532	0.5	
0.381208	-0.210225	0.5	
0.377058	-0.167276	0.424233	
-0.276229	-0.333066	0.5	
-0.212132	-0.295465	0.5	
-0.210263	-0.381228	0.5	
-0.250192	-0.304018	0.405469	
-0.386476	-0.317233	0.409527	
-0.386792	-0.316847	0.301384	
-0.437078	-0.242822	0.347009	
-0.338135	-0.204677	0.398089	
-0.332155	0.186259	0.378016	
-0.262239	0.179182	0.299022	
-0.358997	0.136564	0.272723	
-0.316792	0.255444	0.314661	
0.0404524	-0.41072	0	
-0.0422582	-0.437473	0	
0	-0.5	0.1	
0.0206176	-0.395667	0.103453	
-0.439384	0.238625	0.423358	
-0.46194	0.191342	0.5	
-0.476132	0.152637	0.402329	
-0.399482	0.123001	0.5	
-0.268448	0.0761744	0.322026	
-0.177442	0.0578991	0.31733	
-0.259187	0.0363748	0.408672	
-0.259249	-0.00709893	0.335751	
0.0203259	-0.249482	0.251542	
0.104343	-0.277575	0.292493	
0.0986966	-0.244124	0.186079	
0.0592568	-0.173932	0.272176	
0.135438	-0.346064	0.384448	
0.104343	-0.277575	0.292493	
0.153466	-0.356896	0.263852	
0.0961802	-0.403925	0.321644	
-6.75805e-05	-0.152663	0.5	
0	-0.0833333	0.5	
0.0506005	-0.12216	0.5	
0.0135874	-0.118011	0.409404	
-0.00982413	0.311992	0.161153	
-0.0983525	0.249793	0.193206	
-0.0268842	0.224117	0.253342	
-0.00163227	0.307964	0.248385	
-0.345553	-0.109975	0.5	
-0.358926	-0.0589256	0.5	
-0.3	-0.0833333	0.5	
-0.306482	-0.128449	0.42688	
0.315853	0.0373069	0.5	
0.241074	0.0589256	0.5	
0.3	0.0833333	0.5	
0.278485	0.0481879	0.395453	
0.184962	0.0799289	0	
0.155737	0.108922	0.093738	
0.0903521	0.10545	0	
0.126165	0.019123	0.0935695	
-0.097127	-0.15347	0.5	
-0.134018	-0.125076	0.416643	
-0.105887	-0.105887	0.5	
-0.0581449	-0.152487	0.425037	
-0.146435	-0.19403	0.261638	
-0.171189	-0.143954	0.334682	
-0.220621	-0.0913842	0.273465	
-0.237359	-0.176563	0.223722	
0.276476	0.0535537	0	
0.346509	0.0237889	0	
0.337634	0.115561	0	
0.362932	0.098224	0.109262	
0.221409	0.189735	0.5	
0.271058	0.153206	0.5	
0.212132	0.128799	0.5	
0.259229	0.131014	0.416169	
0.158056	0.171884	0	
0.155737	0.108922	0.093738	
0.247868	0.146306	0	
0.191432	0.204802	0.0909793	
-0.234529	0.221409	0.5	
-0.295465	0.212132	0.5	
-0.271058	0.271058	0.5	
-0.3028	0.261077	0.41707	
0.314271	-0.0501881	0	
0.409478	-0.032947	0	
0.346509	0.0237889	0	
0.389447	-0.0664451	0.106973	
0.195502	0.369451	0.5	
0.277785	0.415735	0.5	
0.262733	0.334293	0.5	
0.228991	0.444481	0.408099	
0.469721	0.171353	0.161666	
0.362932	0.098224	0.109262	
0.493389	0.0810399	0.14715	
0.39698	0.0776459	0.202579	
0.110881	-0.0319284	0.263307	
0.0661482	0.0500773	0.26338	
0.0387655	-0.0479803	0.318584	
0.107111	0.0161028	0.331802	
0.195502	0.369451	0.5	
0.191342	0.46194	0.5	
0.228991	0.444481	0.408099	
0.146853	0.477948	0.415992	
-0.0589256	-0.0589256	0.5	
0	-0.0833333	0.5	
-0.0499791	-0.122616	0.5	
-0.0182997	-0.049373	0.434403	
-0.0801458	-0.0255891	0.118207	
-0.00334623	-0.10275	0.104947	
0.0395065	-0.000100258	0.126114	
-0.0286268	-0.0663675	0.186281	
0.193272	-0.26142	0.329316	
0.0848044	-0.241311	0.380971	
0.163614	-0.249053	0.416633	
0.134803	-0.19156	0.335814	
-0.16685	0.0883447	0	
-0.0734441	0.0616893	0	
-0.0983601	0.156434	0	
-0.0884785	0.081082	0.106964	
-0.153206	-0.271058	0.5	
-0.174825	-0.196279	0.5	
-0.128799	-0.212132	0.5	
-0.117884	-0.234333	0.40948	
-0.345553	0.109975	0.5	
-0.334293	0.161532	0.5	
-0.271058	0.153206	0.5	
-0.268272	0.128138	0.411267	
-0.0835252	0.135066	0.417682	
-0.130814	0.0354375	0.417572	
-0.0930725	0.0739765	0.352845	
-0.0524491	0.0544183	0.419727	
-0.0372406	0.417791	0	
0	0.5	0	
0	0.5	0.1	
0.0420691	0.427134	0	
0.0854243	0.492649	0.251403	
0.174678	0.468495	0.317109	
0.0814864	0.493315	0.347681	
0.0693948	0.36903	0.285155	
0.374193	0.331632	0.334643	
0.415735	0.277785	0.365862	
0.388274	0.315029	0.420807	
0.291987	0.28448	0.40616	
0.493389	0.0810399	0.14715	
0.478555	0.144862	0.0783483	
0.495293	0.0684459	0.0685965	
0.362932	0.098224	0.109262	
-0.356684	-0.19351	0	
-0.46194	-0.191342	0	
-0.444481	-0.228991	0.0919014	
-0.41072	-0.12459	0	
0.220138	0.220062	0.417726	
0.259229	0.131014	0.416169	
0.183274	0.148555	0.376377	
0.248284	0.183853	0.331313	
0.0704482	0.495012	0.0718447	
0.114055	0.374109	0	
0.153328	0.47591	0.0923699	
0.0594116	0.385605	0.105978	
0.231243	0.24169	0	
0.300884	0.198715	0	
0.328092	0.270243	0	
0.325166	0.230418	0.10487	
-0.0201888	0.188065	0.366	
-0.103796	0.164416	0.331112	
-0.0835252	0.135066	0.417682	
-0.0612159	0.20738	0.430983	
-0.144862	-0.478555	0.421652	
-0.123001	-0.399482	0.5	
-0.0684459	-0.495293	0.431403	
-0.0825799	-0.384765	0.390495	
0.196736	-0.368707	0.5	
0.135438	-0.346064	0.384448	
0.166579	-0.322107	0.5	
0.23026	-0.337515	0.419392	
-0.256554	0.429162	0.331268	
-0.144981	0.358558	0.378678	
-0.228959	0.444497	0.408094	
-0.23026	0.337515	0.416359	
-0.0825799	-0.384765	0.390495	
-0.162242	-0.337279	0.406019	
-0.109975	-0.345553	0.5	
-0.0611092	-0.309537	0.420103	
-0.114467	-0.386332	0	
-0.0638367	-0.295761	0	
-0.168688	-0.281701	0	
-0.16153	-0.357052	0.106281	
-0.468495	-0.174678	0.182891	
-0.382808	-0.0894032	0.103515	
-0.493315	-0.0814864	0.152319	
-0.372506	-0.102825	0.21502	
-0.210263	-0.381228	0.5	
-0.144862	-0.478555	0.421652	
-0.123001	-0.399482	0.5	
-0.191342	-0.46194	0.5	
0.277785	0.415735	0	
0.261819	0.319027	0	
0.317233	0.386476	0.0904728	
0.235698	0.440961	0.068569	
0.383333	0	0.5	
0.358926	-0.0589256	0.5	
0.330273	-0.0125395	0.5	
0.353873	0.0061299	0.416416	
-0.181859	0.199592	0.5	
-0.212186	0.200864	0.421006	
-0.196279	0.249439	0.5	
-0.181622	0.273954	0.42594	
-0.0589256	-0.358926	0.5	
-0.0825799	-0.384765	0.390495	
-0.109975	-0.345553	0.5	
-0.0611092	-0.309537	0.420103	
-0.271058	-0.153206	0.5	
-0.212132	-0.128799	0.5	
-0.224672	-0.181859	0.5	
-0.194749	-0.171788	0.429088	
-0.03759	-0.31517	0.5	
-0.0589256	-0.241074	0.5	
-0.0125395	-0.269727	0.5	
-0.0611092	-0.309537	0.420103	
-0.0638367	-0.295761	0	
-0.0925337	-0.196451	0	
-0.168688	-0.281701	0	
-0.0992467	-0.239425	0.125263	
-0.0232782	-0.127584	0	
0.0461078	-0.0584269	0	
-0.048473	-0.0328568	0	
-0.00334623	-0.10275	0.104947	
-0.00154855	-0.114907	0.260366	
-0.0814439	-0.125985	0.343547	
-0.0948276	-0.0943246	0.25421	
-0.0547597	-0.189651	0.263151	
-0.0499791	-0.122616	0.5	
-0.097127	-0.15347	0.5	
-0.105887	-0.105887	0.5	
-0.0581449	-0.152487	0.425037	
-0.360873	0.0158982	0.275217	
-0.246812	0.00918153	0.237581	
-0.268448	0.0761744	0.322026	
-0.259249	-0.00709893	0.335751	
-0.144981	0.358558	0.378678	
-0.23026	0.337515	0.416359	
-0.233647	0.26032	0.360484	
-0.181622	0.273954	0.42594	
0.414991	0.0495125	0	
0.5	0	0	
0.5	0	0.1	
0.409478	-0.032947	0	
0.0693948	0.36903	0.285155	
-0.0411735	0.316432	0.326214	
-0.0106277	0.407378	0.33212	
-0.00163227	0.307964	0.248385	
0.0848044	-0.241311	0.380971	
0.193272	-0.26142	0.329316	
0.104343	-0.277575	0.292493	
0.134803	-0.19156	0.335814	
-0.166579	0.322107	0.5	
-0.23026	0.337515	0.416359	
-0.144981	0.358558	0.378678	
-0.181622	0.273954	0.42594	
-0.5	0	0.4	
-0.5	0	0.3	
-0.493012	0.0833019	0.344789	
-0.38814	0.0365087	0.390101	
-0.28746	0.0302731	0.5	
-0.26241	-0.01517	0.5	
-0.309277	-0.0223972	0.5	
-0.32522	-0.00468432	0.424344	
-0.274828	0.327002	0.5	
-0.31678	0.386847	0.395869	
-0.23026	0.337515	0.416359	
-0.3028	0.261077	0.41707	
-0.0814439	-0.125985	0.343547	
-0.00154855	-0.114907	0.260366	
0.000455301	-0.171885	0.334296	
-0.0547597	-0.189651	0.263151	
0	-0.5	0.1	
0.0206176	-0.395667	0.103453	
-0.0422582	-0.437473	0	
-0.069553	-0.399585	0.0805589	
-0.345553	0.109975	0.5	
-0.271058	0.153206	0.5	
-0.3	0.0833333	0.5	
-0.268272	0.128138	0.411267	
0.5	0	0.3	
0.493012	0.0833019	0.344789	
0.490343	0.0977967	0.241226	
0.380516	0.0520569	0.316102	
-0.373696	0.332191	0.334057	
-0.388345	0.314941	0.420199	
-0.416747	0.276265	0.362548	
-0.3028	0.261077	0.41707	
-0.166579	0.322107	0.5	
-0.196736	0.368707	0.5	
-0.144981	0.358558	0.378678	
-0.23026	0.337515	0.416359	
0.14467	0.301705	0.287535	
0.190566	0.216647	0.261668	
0.221133	0.265326	0.342623	
0.136738	0.210835	0.334534	
-0.0422582	-0.437473	0	
0	-0.5	0	
0.0404524	-0.41072	0	
0	-0.5	0.1	
0.201164	-0.273578	0	
0.314857	-0.257449	0	
0.245477	-0.191651	0	
0.302277	-0.248662	0.113737	
0.0465403	-0.431857	0.5	
0.0690566	-0.495208	0.430964	
-1.3431e-16	-0.435719	0.5	
0.0212569	-0.409526	0.42172	
0.154508	-0.0938282	0.5	
0.186339	-0.0508266	0.5	
0.212132	-0.128799	0.5	
0.165319	-0.0685492	0.421531	
-0.138366	-0.358353	0.236796	
-0.080828	-0.269765	0.22671	
-0.120748	-0.291511	0.335128	
-0.0570812	-0.3559	0.302161	
0.0651412	0.200096	0	
-0.00425413	0.131001	0	
0.0903521	0.10545	0	
0.0431438	0.101726	0.0953265	
-0.381208	0.210225	0.5	
-0.388345	0.314941	0.420199	
-0.415735	0.277785	0.5	
-0.332733	0.27561	0.5	
0.381208	-0.210225	0.5	
0.332733	-0.27561	0.5	
0.388345	-0.314941	0.420199	
0.415735	-0.277785	0.5	
-0.401548	-0.0423374	0	
-0.5	0	0	
-0.5	0	0.1	
-0.426463	0.0441363	0	
-0.381086	-0.210299	0.5	
-0.295465	-0.212132	0.5	
-0.330717	-0.276825	0.5	
-0.338135	-0.204677	0.398089	
-0.381208	0.210225	0.5	
-0.332733	0.27561	0.5	
-0.295465	0.212132	0.5	
-0.3028	0.261077	0.41707	
-0.32522	-0.00468432	0.424344	
-0.231014	-0.0285751	0.432493	
-0.323059	-0.0556697	0.363619	
-0.259249	-0.00709893	0.335751	
-0.39407	-0.0815537	0.417272	
-0.306482	-0.128449	0.42688	
-0.323059	-0.0556697	0.363619	
-0.32522	-0.00468432	0.424344	
0.212089	0.020774	0.252242	
0.196702	0.0791686	0.326444	
0.184555	5.29963e-05	0.359326	
0.262136	0.0021711	0.327033	
-0.233647	0.26032	0.360484	
-0.23026	0.337515	0.416359	
-0.144981	0.358558	0.378678	
-0.232102	0.339116	0.303176	
-0.120748	-0.291511	0.335128	
-0.0254015	-0.238675	0.394183	
-0.117884	-0.234333	0.40948	
-0.0611092	-0.309537	0.420103	
0.386505	0.317197	0.0688254	
0.373926	0.198925	0	
0.436762	0.243391	0.0969381	
0.325166	0.230418	0.10487	
0.268393	-0.334301	0	
0.194604	-0.371188	0	
0.235698	-0.440961	0.0686036	
0.219334	-0.328412	0.103652	
0.166579	-0.322107	0.5	
0.153206	-0.271058	0.5	
0.212132	-0.295465	0.5	
0.163614	-0.249053	0.416633	
0.212089	0.020774	0.252242	
0.300325	-0.0288408	0.258872	
0.220621	-0.0913842	0.253691	
0.244062	-0.0339696	0.193164	
0.115537	0.0107471	0	
0.184962	0.0799289	0	
0.0903521	0.10545	0	
0.126165	0.019123	0.0935695	
0.0734599	0.0912867	0.346892	
0.0614383	0.0441646	0.419518	
0.016747	0.116372	0.415368	
-0.0139985	0.0766371	0.354232	
-0.386831	-0.3168	0.104097	
-0.386498	-0.317206	0.200322	
-0.331632	-0.374193	0.165357	
-0.28242	-0.274225	0.101342	
0.305409	0.305409	0.5	
0.271058	0.271058	0.5	
0.262733	0.334293	0.5	
0.291987	0.28448	0.40616	
-0.477948	-0.146853	0.0840084	
-0.444481	-0.228991	0.0919014	
-0.46194	-0.191342	0	
-0.41072	-0.12459	0	
-0.123001	-0.399482	0.5	
-0.109975	-0.345553	0.5	
-0.0825799	-0.384765	0.390495	
-0.162242	-0.337279	0.406019	
0.353553	0.353553	0.5	
0.305409	0.305409	0.5	
0.3168	0.386831	0.395903	
0.291987	0.28448	0.40616	
-0.0825799	-0.384765	0.390495	
-0.0570812	-0.3559	0.302161	
-0.120748	-0.291511	0.335128	
-0.0611092	-0.309537	0.420103	
0.14467	0.301705	0.287535	
0.190566	0.216647	0.261668	
0.0913842	0.220621	0.259416	
0.143575	0.241784	0.186885	
0.0985518	0.185902	0.12959	
0.189688	0.149534	0.191539	
0.155737	0.108922	0.093738	
0.191432	0.204802	0.0909793	
0.135296	0.0693292	0.185912	
0.0661482	0.0500773	0.26338	
0.0632778	0.132225	0.219	
0.0170253	0.0610303	0.18852	
0.376757	0.328716	0.246468	
0.428195	0.258165	0.201755	
0.4284	0.257824	0.295024	
0.308855	0.242117	0.27439	
-0.317131	0.386559	0.0881616	
-0.38078	0.324048	0.150149	
-0.385896	0.317937	0.065638	
-0.265951	0.256468	0.111233	
0.186339	-0.0508266	0.5	
0.249486	-0.0108057	0.43277	
0.165319	-0.0685492	0.421531	
0.179502	0.0181689	0.432699	
-0.00982413	0.311992	0.161153	
-0.0268842	0.224117	0.253342	
0.0362945	0.23248	0.18345	
-0.00163227	0.307964	0.248385	
-0.493437	-0.0807477	0.345776	
-0.5	0	0.4	
-0.495012	-0.0704482	0.428155	
-0.39407	-0.0815537	0.417272	
-0.257824	-0.4284	0.204976	
-0.194667	-0.460548	0.26567	
-0.168043	-0.470916	0.199874	
-0.138366	-0.358353	0.236796	
-0.123171	0.237068	0.386906	
-0.18531	0.191876	0.339375	
-0.212186	0.200864	0.421006	
-0.181622	0.273954	0.42594	
0.194604	-0.371188	0	
0.191342	-0.46194	0	
0.235698	-0.440961	0.0686036	
0.125573	-0.41396	0	
-0.330717	-0.276825	0.5	
-0.381086	-0.210299	0.5	
-0.386476	-0.317233	0.409527	
-0.415735	-0.277785	0.5	
-0.470668	-0.168734	0.298219	
-0.493437	-0.0807477	0.345776	
-0.47591	-0.153328	0.40763	
-0.402728	-0.0701503	0.304716	
-0.085688	-0.137167	0.16869	
-0.0948276	-0.0943246	0.25421	
-0.00154855	-0.114907	0.260366	
-0.0286268	-0.0663675	0.186281	
0.228991	0.444481	0.408099	
0.174678	0.468495	0.317109	
0.177101	0.348186	0.395851	
0.098227	0.400612	0.372757	
0.436811	-0.243302	0.0936268	
0.380207	-0.19708	0	
0.415735	-0.277785	0	
0.385896	-0.317937	0.065638	
0.228991	0.444481	0.408099	
0.177101	0.348186	0.395851	
0.146853	0.477948	0.415992	
0.098227	0.400612	0.372757	
0.276476	0.0535537	0	
0.210156	-0.0147965	0	
0.314271	-0.0501881	0	
0.285128	-0.0586701	0.102886	
0.221409	0.189735	0.5	
0.174542	0.196962	0.5	
0.199592	0.242405	0.5	
0.220138	0.220062	0.417726	
0.386505	0.317197	0.0688254	
0.328092	0.270243	0	
0.415735	0.277785	0	
0.373926	0.198925	0	
0.106066	-0.256066	0.5	
0.128799	-0.212132	0.5	
0.153206	-0.271058	0.5	
0.163614	-0.249053	0.416633	
-0.119993	0.246691	0	
-0.0295403	0.225144	0	
-0.0555676	0.325574	0	
-0.0606721	0.230593	0.106057	
0.42216	-0.0506005	0.5	
0.358926	-0.0589256	0.5	
0.383333	0	0.5	
0.392836	-0.0823347	0.412468	
-0.161532	-0.334293	0.5	
-0.212132	-0.295465	0.5	
-0.153206	-0.271058	0.5	
-0.162242	-0.337279	0.406019	
-0.0589256	0.0589256	0.5	
-0.03759	-0.01517	0.5	
-0.0833333	0	0.5	
-0.0524491	0.0544183	0.419727	
-0.153329	0.47591	0.0923815	
-0.191342	0.46194	0	
-0.118932	0.39861	0	
-0.235698	0.440961	0.0686036	
-0.212186	0.200864	0.421006	
-0.233647	0.26032	0.360484	
-0.3028	0.261077	0.41707	
-0.181622	0.273954	0.42594	
0.1612	0.100866	0.5	
0.184661	0.0531453	0.5	
0.124175	0.0449909	0.5	
0.136079	0.0773073	0.413876	
-0.12216	0.0506005	0.5	
-0.152663	-6.75805e-05	0.5	
-0.185212	0.0538339	0.5	
-0.130814	0.0354375	0.417572	
0.0728232	0.494668	0.426459	
0	0.5	0.4	
0.0814864	0.493315	0.347681	
0.098227	0.400612	0.372757	
0.0985518	0.185902	0.12959	
0.189688	0.149534	0.191539	
0.191432	0.204802	0.0909793	
0.143575	0.241784	0.186885	
0.256554	-0.429162	0.331268	
0.317163	-0.386533	0.299742	
0.247023	-0.434718	0.250558	
0.25314	-0.310833	0.250522	
-0.386498	-0.317206	0.200322	
-0.386792	-0.316847	0.301384	
-0.328716	-0.376757	0.253532	
-0.296258	-0.256529	0.211625	
-0.0882569	-0.0365572	0.407331	
-0.0531387	-0.0402198	0.321272	
-0.0814439	-0.125985	0.343547	
-0.128371	-0.0605284	0.341709	
-0.263582	-0.319413	0	
-0.168688	-0.281701	0	
-0.261345	-0.230036	0	
-0.28242	-0.274225	0.101342	
-0.085688	-0.137167	0.16869	
-0.00334623	-0.10275	0.104947	
-0.0801458	-0.0255891	0.118207	
-0.0286268	-0.0663675	0.186281	
-0.353553	0.353553	0.5	
-0.31678	0.386847	0.395869	
-0.274828	0.327002	0.5	
-0.3028	0.261077	0.41707	
0.278485	0.0481879	0.395453	
0.184555	5.29963e-05	0.359326	
0.262136	0.0021711	0.327033	
0.249486	-0.0108057	0.43277	
-0.152694	-0.476114	0.0975404	
-0.114467	-0.386332	0	
-0.191342	-0.46194	0	
-0.16153	-0.357052	0.106281	
-0.03759	0.28483	0.5	
0.0092772	0.277603	0.5	
1.83697e-17	0.216667	0.5	
-0.0163515	0.266982	0.412579	
-0.476132	0.152637	0.402329	
-0.495102	0.0698146	0.4276	
-0.493012	0.0833019	0.344789	
-0.38814	0.0365087	0.390101	
-0.165601	0.0438592	0.172089	
-0.118181	0.0989473	0.251321	
-0.127176	-0.00609761	0.272433	
-0.0742895	0.0407153	0.192583	
0.3168	0.386831	0.395903	
0.228991	0.444481	0.408099	
0.25658	0.429146	0.33124	
0.177101	0.348186	0.395851	
-0.353553	-0.353553	0	
-0.315029	-0.388274	0.0791933	
-0.263582	-0.319413	0	
-0.331361	-0.272953	0	
-0.0589256	-0.358926	0.5	
-0.0506005	-0.42216	0.5	
-0.123001	-0.399482	0.5	
-0.0825799	-0.384765	0.390495	
-0.128799	-0.212132	0.5	
-0.117884	-0.234333	0.40948	
-0.174825	-0.196279	0.5	
-0.194749	-0.171788	0.429088	
0.142415	-0.180509	0.253145	
0.0592568	-0.173932	0.272176	
0.104343	-0.277575	0.292493	
0.134803	-0.19156	0.335814	
-1.3431e-16	-0.435719	0.5	
0.0690566	-0.495208	0.430964	
0	-0.5	0.4	
0.0212569	-0.409526	0.42172	
0.0913842	0.220621	0.259416	
0.190566	0.216647	0.261668	
0.14467	0.301705	0.287535	
0.136738	0.210835	0.334534	
-0.47591	-0.153328	0.40763	
-0.440961	-0.235698	0.431431	
-0.437078	-0.242822	0.347009	
-0.338135	-0.204677	0.398089	
0.460548	0.194667	0.23433	
0.342141	0.162954	0.200127	
0.469721	0.171353	0.161666	
0.39698	0.0776459	0.202579	
-0.128799	0.212132	0.5	
-0.196279	0.249439	0.5	
-0.153206	0.271058	0.5	
-0.181622	0.273954	0.42594	
-0.277785	0.415735	0	
-0.201912	0.369986	0	
-0.235698	0.440961	0.0686036	
-0.273315	0.334955	0	
-0.256066	0.106066	0.5	
-0.271058	0.153206	0.5	
-0.212132	0.128799	0.5	
-0.268272	0.128138	0.411267	
-0.123001	-0.399482	0.5	
-0.109975	-0.345553	0.5	
-0.0589256	-0.358926	0.5	
-0.0825799	-0.384765	0.390495	
0.1612	0.100866	0.5	
0.124175	0.0449909	0.5	
0.108346	0.0977259	0.5	
0.136079	0.0773073	0.413876	
-0.105887	-0.105887	0.5	
-0.097127	-0.15347	0.5	
-0.153206	-0.153206	0.5	
-0.134018	-0.125076	0.416643	
0.469721	0.171353	0.161666	
0.478555	0.144862	0.0783483	
0.493389	0.0810399	0.14715	
0.362932	0.098224	0.109262	
-0.0268842	0.224117	0.253342	
-0.154067	0.200523	0.255267	
-0.0968356	0.250534	0.302469	
-0.0983525	0.249793	0.193206	
-0.00154855	-0.114907	0.260366	
0.0819669	-0.126701	0.339809	
0.000455301	-0.171885	0.334296	
0.0592568	-0.173932	0.272176	
-0.0835252	0.135066	0.417682	
-0.0524491	0.0544183	0.419727	
-0.0930725	0.0739765	0.352845	
-0.0139985	0.0766371	0.354232	
0.155737	0.108922	0.093738	
0.189688	0.149534	0.191539	
0.251686	0.10803	0.129438	
0.191432	0.204802	0.0909793	
-0.238488	-0.439458	0.0756919	
-0.277785	-0.415735	0	
-0.315029	-0.388274	0.0791933	
-0.203173	-0.373024	0	
0.241074	-0.0589256	0.5	
0.28483	-0.03759	0.5	
0.3	-0.0833333	0.5	
0.249091	-0.0823301	0.40832	
-0.106984	0.108603	0.5	
-0.153206	0.153206	0.5	
-0.0949082	0.168548	0.5	
-0.0835252	0.135066	0.417682	
-0.0419658	0.179631	0.5	
-0.0506005	0.12216	0.5	
-0.0949082	0.168548	0.5	
-0.0835252	0.135066	0.417682	
0.194604	-0.371188	0	
0.201164	-0.273578	0	
0.112799	-0.33356	0	
0.219334	-0.328412	0.103652	
0.495293	0.0684459	0.0685965	
0.5	0	0	
0.5	0	0.1	
0.414991	0.0495125	0	
-0.38814	0.0365087	0.390101	
-0.39407	-0.0815537	0.417272	
-0.323059	-0.0556697	0.363619	
-0.32522	-0.00468432	0.424344	
0.212132	-0.295465	0.5	
0.249979	-0.247703	0.407586	
0.271058	-0.271058	0.5	
0.23026	-0.337515	0.419392	
0.0728232	0.494668	0.426459	
0.146853	0.477948	0.415992	
0.121276	0.418309	0.5	
0.098227	0.400612	0.372757	
0.0632778	0.132225	0.219	
0.0661482	0.0500773	0.26338	
-0.0155726	0.113982	0.279722	
0.0170253	0.0610303	0.18852	
0.490316	-0.0979281	0.24092	
0.5	0	0.2	
0.493378	-0.0811073	0.146993	
0.40447	-0.0146922	0.243912	
0.193272	-0.26142	0.329316	
0.25314	-0.310833	0.250522	
0.268117	-0.201453	0.257301	
0.283545	-0.259908	0.324527	
0.245477	-0.191651	0	
0.314857	-0.257449	0	
0.313791	-0.154465	0	
0.302277	-0.248662	0.113737	
0.166579	0.322107	0.5	
0.195502	0.369451	0.5	
0.212132	0.295465	0.5	
0.177101	0.348186	0.395851	
-0.399482	-0.123001	0.5	
-0.39407	-0.0815537	0.417272	
-0.345553	-0.109975	0.5	
-0.306482	-0.128449	0.42688	
0.317206	0.386498	0.299678	
0.316847	0.386792	0.198616	
0.376757	0.328716	0.246468	
0.234881	0.32259	0.246366	
-0.229671	-0.108874	0.396367	
-0.171189	-0.143954	0.334682	
-0.134018	-0.125076	0.416643	
-0.194749	-0.171788	0.429088	
-0.383333	3.67394e-17	0.5	
-0.358926	-0.0589256	0.5	
-0.42216	-0.0506005	0.5	
-0.39407	-0.0815537	0.417272	
0.277785	0.415735	0.5	
0.262733	0.334293	0.5	
0.228991	0.444481	0.408099	
0.3168	0.386831	0.395903	
-0.353553	-0.353553	0	
-0.315029	-0.388274	0.0791933	
-0.331361	-0.272953	0	
-0.386831	-0.3168	0.104097	
0.385896	-0.317937	0.065638	
0.380207	-0.19708	0	
0.415735	-0.277785	0	
0.314857	-0.257449	0	
-0.0704474	0.495012	0.0718449	
-0.118932	0.39861	0	
-0.0372406	0.417791	0	
-0.0728697	0.385983	0.102817	
0.436811	-0.243302	0.0936268	
0.38078	-0.324048	0.150149	
0.428104	-0.258315	0.196896	
0.302277	-0.248662	0.113737	
-0.26241	-0.01517	0.5	
-0.32522	-0.00468432	0.424344	
-0.259187	0.0363748	0.408672	
-0.231014	-0.0285751	0.432493	
0.5	0	0.4	
0.495102	-0.0698146	0.4276	
0.392836	-0.0823347	0.412468	
0.411179	-0.0301121	0.336439	
0.414183	0.131147	0	
0.337634	0.115561	0	
0.414991	0.0495125	0	
0.362932	0.098224	0.109262	
-0.495208	0.0690617	0.0692099	
-0.404541	0.126945	0	
-0.478516	0.14499	0.0762896	
-0.377341	0.0879068	0.111753	
0.116361	-0.190469	0.100844	
0.174775	-0.129562	0.177015	
0.200132	-0.232269	0.163427	
0.235288	-0.159577	0.0981964	
0.158056	0.171884	0	
0.184962	0.0799289	0	
0.247868	0.146306	0	
0.155737	0.108922	0.093738	
-0.138674	0.323797	0	
-0.0555676	0.325574	0	
-0.118932	0.39861	0	
-0.0728697	0.385983	0.102817	
-0.318983	0.261743	0	
-0.214341	0.273759	0	
-0.273315	0.334955	0	
-0.265951	0.256468	0.111233	
-0.227302	0.174542	0.5	
-0.268272	0.128138	0.411267	
-0.271058	0.153206	0.5	
-0.212186	0.200864	0.421006	
0.104605	-0.104521	0.5	
0.154508	-0.0938282	0.5	
0.153206	-0.153206	0.5	
0.110665	-0.131179	0.419604	
0.450285	0.217356	0.355302	
0.4284	0.257824	0.295024	
0.470916	0.168043	0.300126	
0.374736	0.148861	0.30011	
0.388274	0.315029	0.420807	
0.334293	0.262733	0.5	
0.305409	0.305409	0.5	
0.291987	0.28448	0.40616	
0.415735	0.277785	0	
0.386505	0.317197	0.0688254	
0.373926	0.198925	0	
0.436762	0.243391	0.0969381	
-0.233647	0.26032	0.360484	
-0.262239	0.179182	0.299022	
-0.332155	0.186259	0.378016	
-0.316792	0.255444	0.314661	
-0.317197	-0.386505	0.431175	
-0.353553	-0.353553	0.5	
-0.276229	-0.333066	0.5	
-0.330717	-0.276825	0.5	
-0.224672	-0.181859	0.5	
-0.174825	-0.196279	0.5	
-0.202855	-0.234529	0.5	
-0.194749	-0.171788	0.429088	
0.174678	0.468495	0.317109	
0.25658	0.429146	0.33124	
0.228991	0.444481	0.408099	
0.177101	0.348186	0.395851	
-0.334293	-0.161532	0.5	
-0.295465	-0.212132	0.5	
-0.338135	-0.204677	0.398089	
-0.306482	-0.128449	0.42688	
0.0853821	-0.492656	0.251348	
0.174738	-0.468473	0.317184	
0.16873	-0.47067	0.201799	
0.0961802	-0.403925	0.321644	
0.0693948	0.36903	0.285155	
-0.0106277	0.407378	0.33212	
0.0203259	0.350518	0.403169	
0.098227	0.400612	0.372757	
-0.345553	-0.109975	0.5	
-0.39407	-0.0815537	0.417272	
-0.358926	-0.0589256	0.5	
-0.306482	-0.128449	0.42688	
0.212089	0.020774	0.252242	
0.276673	0.0689246	0.208494	
0.300325	-0.0288408	0.258872	
0.244062	-0.0339696	0.193164	
-0.434698	-0.247057	0.249501	
-0.470668	-0.168734	0.298219	
-0.437078	-0.242822	0.347009	
-0.329023	-0.172142	0.292634	
-0.0411735	0.316432	0.326214	
-0.0268842	0.224117	0.253342	
-0.0968356	0.250534	0.302469	
-0.00163227	0.307964	0.248385	
0.0819669	-0.126701	0.339809	
0.0592568	-0.173932	0.272176	
0.142415	-0.180509	0.253145	
0.134803	-0.19156	0.335814	
-0.257956	0.116321	0	
-0.237047	0.0201392	0	
-0.16685	0.0883447	0	
-0.259075	0.0657144	0.105374	
0.353553	-0.353553	0	
0.385896	-0.317937	0.065638	
0.268393	-0.334301	0	
0.317131	-0.386559	0.0881616	
0.0704482	0.495012	0.0718447	
0.0420691	0.427134	0	
0.0975452	0.490393	0	
0.114055	0.374109	0	
-0.388345	0.314941	0.420199	
-0.353553	0.353553	0.5	
-0.332733	0.27561	0.5	
-0.3028	0.261077	0.41707	
-0.440961	-0.235698	0.431431	
-0.47591	-0.153328	0.40763	
-0.46194	-0.191342	0.5	
-0.399482	-0.123001	0.5	
0.0203259	0.350518	0.403169	
-0.0411735	0.316432	0.326214	
-0.063352	0.397195	0.411842	
-0.0106277	0.407378	0.33212	
0.346509	0.0237889	0	
0.414991	0.0495125	0	
0.337634	0.115561	0	
0.362932	0.098224	0.109262	
0	0.0833333	0.5	
-0.0125395	0.0302731	0.5	
-0.0589256	0.0589256	0.5	
-0.0524491	0.0544183	0.419727	
-0.153206	-0.153206	0.5	
-0.15347	-0.097127	0.5	
-0.105887	-0.105887	0.5	
-0.134018	-0.125076	0.416643	
0.268393	-0.334301	0	
0.235698	-0.440961	0.0686036	
0.317131	-0.386559	0.0881616	
0.219334	-0.328412	0.103652	
-0.210263	-0.381228	0.5	
-0.243391	-0.436762	0.403062	
-0.144862	-0.478555	0.421652	
-0.191342	-0.46194	0.5	
0.493012	0.0833019	0.344789	
0.380516	0.0520569	0.316102	
0.5	0	0.3	
0.411179	-0.0301121	0.336439	
0.46194	0.191342	0	
0.373926	0.198925	0	
0.478555	0.144862	0.0783483	
0.436762	0.243391	0.0969381	
0.184661	0.0531453	0.5	
0.124175	0.0449909	0.5	
0.136079	0.0773073	0.413876	
0.179502	0.0181689	0.432699	
0.314271	-0.0501881	0	
0.232997	-0.11062	0	
0.313791	-0.154465	0	
0.285128	-0.0586701	0.102886	
-0.0333766	0.391369	0.240112	
-0.0106277	0.407378	0.33212	
-0.0411735	0.316432	0.326214	
-0.00163227	0.307964	0.248385	
-0.247023	0.434718	0.250558	
-0.174738	0.468473	0.317184	
-0.256554	0.429162	0.331268	
-0.232102	0.339116	0.303176	
0.133074	0.264097	0	
0.231243	0.24169	0	
0.189613	0.313662	0	
0.191432	0.204802	0.0909793	
-0.0801458	-0.0255891	0.118207	
-0.0286268	-0.0663675	0.186281	
-0.0742895	0.0407153	0.192583	
-0.136956	-0.0443284	0.188767	
0.242822	0.437078	0.152991	
0.316847	0.386792	0.198616	
0.247057	0.434698	0.250499	
0.234881	0.32259	0.246366	
0.315853	0.0373069	0.5	
0.383333	0	0.5	
0.330273	-0.0125395	0.5	
0.353873	0.0061299	0.416416	
-0.082983	0.493066	0.348347	
0	0.5	0.4	
-0.063352	0.397195	0.411842	
-0.0106277	0.407378	0.33212	
-0.429476	0.256028	0.291579	
-0.471122	0.167464	0.300106	
-0.460762	0.19416	0.234059	
-0.358997	0.136564	0.272723	
-0.117884	-0.234333	0.40948	
-0.162242	-0.337279	0.406019	
-0.120748	-0.291511	0.335128	
-0.0611092	-0.309537	0.420103	
0.247023	-0.434718	0.250558	
0.174738	-0.468473	0.317184	
0.256554	-0.429162	0.331268	
0.153466	-0.356896	0.263852	
-0.263582	-0.319413	0	
-0.315029	-0.388274	0.0791933	
-0.277785	-0.415735	0	
-0.203173	-0.373024	0	
-0.0698189	-0.495101	0.0723791	
0	-0.5	0.1	
-0.0422582	-0.437473	0	
-0.069553	-0.399585	0.0805589	
0.0535407	0.120642	0.5	
0	0.0833333	0.5	
0.00279483	0.150684	0.5	
0.016747	0.116372	0.415368	
0.332005	0.00713037	0.169463	
0.300325	-0.0288408	0.258872	
0.276673	0.0689246	0.208494	
0.244062	-0.0339696	0.193164	
-0.16685	0.0883447	0	
-0.18644	0.1823	0	
-0.257956	0.116321	0	
-0.241404	0.162452	0.0887852	
-0.353553	0.353553	0	
-0.385896	0.317937	0.065638	
-0.318983	0.261743	0	
-0.273315	0.334955	0	
0.5	0	0.3	
0.380516	0.0520569	0.316102	
0.40447	-0.0146922	0.243912	
0.411179	-0.0301121	0.336439	
0.409478	-0.032947	0	
0.394936	-0.119803	0	
0.495208	-0.0690617	0.0692099	
0.389447	-0.0664451	0.106973	
0.212132	-0.295465	0.5	
0.153206	-0.271058	0.5	
0.174542	-0.227302	0.5	
0.163614	-0.249053	0.416633	
-0.439384	0.238625	0.423358	
-0.388345	0.314941	0.420199	
-0.415735	0.277785	0.5	
-0.381208	0.210225	0.5	
0.388345	-0.314941	0.420199	
0.439384	-0.238625	0.423358	
0.381208	-0.210225	0.5	
0.415735	-0.277785	0.5	
-0.233647	0.26032	0.360484	
-0.265452	0.263294	0.235043	
-0.262239	0.179182	0.299022	
-0.316792	0.255444	0.314661	
-0.276229	-0.333066	0.5	
-0.277785	-0.415735	0.5	
-0.317197	-0.386505	0.431175	
-0.210263	-0.381228	0.5	
-0.0328721	-0.370689	0	
-0.0422582	-0.437473	0	
0.0206176	-0.395667	0.103453	
-0.069553	-0.399585	0.0805589	
0	-0.5	0.1	
0	-0.5	0.2	
0.0807376	-0.493438	0.154216	
0.0206176	-0.395667	0.103453	
0.118934	-0.0478046	0.5	
0.152693	-0.00394448	0.5	
0.186339	-0.0508266	0.5	
0.165319	-0.0685492	0.421531	
-0.493315	-0.0814864	0.152319	
-0.468495	-0.174678	0.182891	
-0.477948	-0.146853	0.0840084	
-0.382808	-0.0894032	0.103515	
-0.165601	0.0438592	0.172089	
-0.0801458	-0.0255891	0.118207	
-0.0884785	0.081082	0.106964	
-0.0742895	0.0407153	0.192583	
0.374193	0.331632	0.334643	
0.376757	0.328716	0.246468	
0.4284	0.257824	0.295024	
0.308855	0.242117	0.27439	
-0.385896	0.317937	0.065638	
-0.353553	0.353553	0	
-0.317131	0.386559	0.0881616	
-0.273315	0.334955	0	
0.0092772	-0.0223972	0.5	
0.0589256	-0.0589256	0.5	
0	-0.0833333	0.5	
-0.0182997	-0.049373	0.434403	
-0.381086	-0.210299	0.5	
-0.334293	-0.161532	0.5	
-0.295465	-0.212132	0.5	
-0.338135	-0.204677	0.398089	
0.31678	-0.386847	0.395869	
0.274828	-0.327002	0.5	
0.353553	-0.353553	0.5	
0.388345	-0.314941	0.420199	
-0.0801458	-0.0255891	0.118207	
-0.085688	-0.137167	0.16869	
-0.0286268	-0.0663675	0.186281	
-0.136956	-0.0443284	0.188767	
0.0203259	-0.249482	0.251542	
-0.0547597	-0.189651	0.263151	
0.000455301	-0.171885	0.334296	
0.0592568	-0.173932	0.272176	
-0.328716	-0.376757	0.253532	
-0.331632	-0.374193	0.165357	
-0.386498	-0.317206	0.200322	
-0.296258	-0.256529	0.211625	
0.152693	-0.00394448	0.5	
0.186339	-0.0508266	0.5	
0.165319	-0.0685492	0.421531	
0.179502	0.0181689	0.432699	
0.0404524	-0.41072	0	
0.0248177	-0.313374	0	
-0.0328721	-0.370689	0	
0.0206176	-0.395667	0.103453	
-0.0295403	0.225144	0	
-0.119993	0.246691	0	
-0.0983601	0.156434	0	
-0.0606721	0.230593	0.106057	
-0.174738	0.468473	0.317184	
-0.228959	0.444497	0.408094	
-0.256554	0.429162	0.331268	
-0.144981	0.358558	0.378678	
-0.317131	0.386559	0.0881616	
-0.277785	0.415735	0	
-0.235698	0.440961	0.0686036	
-0.273315	0.334955	0	
0.235698	-0.440961	0.0686036	
0.191342	-0.46194	0	
0.153329	-0.47591	0.0923815	
0.125573	-0.41396	0	
-0.0555676	0.325574	0	
0.0153159	0.363557	0	
-0.0372406	0.417791	0	
-0.0728697	0.385983	0.102817	
0.0970926	0.279271	0.373778	
0.086989	0.179344	0.400327	
0.136738	0.210835	0.334534	
0.135958	0.243685	0.430036	
0.0704474	-0.495012	0.0718449	
0.0404524	-0.41072	0	
0	-0.5	0.1	
0.0206176	-0.395667	0.103453	
0.271058	0.271058	0.5	
0.305409	0.305409	0.5	
0.334293	0.262733	0.5	
0.291987	0.28448	0.40616	
0.0401436	0.291204	0	
0.133074	0.264097	0	
0.114055	0.374109	0	
0.0738057	0.28359	0.108069	
0.0373069	-0.284147	0.5	
0.0589256	-0.358926	0.5	
0.0092772	-0.322397	0.5	
0.0220588	-0.302368	0.419947	
0.235698	0.440961	0.068569	
0.153328	0.47591	0.0923699	
0.191342	0.46194	0	
0.202324	0.378521	0	
0.28483	-0.03759	0.5	
0.249091	-0.0823301	0.40832	
0.241074	-0.0589256	0.5	
0.249486	-0.0108057	0.43277	
0.228991	0.444481	0.408099	
0.146853	0.477948	0.415992	
0.174678	0.468495	0.317109	
0.098227	0.400612	0.372757	
0.239078	0.233865	0.176769	
0.191432	0.204802	0.0909793	
0.189688	0.149534	0.191539	
0.143575	0.241784	0.186885	
0.184962	0.0799289	0	
0.115537	0.0107471	0	
0.210156	-0.0147965	0	
0.126165	0.019123	0.0935695	
-0.268448	0.0761744	0.322026	
-0.246812	0.00918153	0.237581	
-0.219759	0.108564	0.237237	
-0.177442	0.0578991	0.31733	
0.25658	0.429146	0.33124	
0.247057	0.434698	0.250499	
0.317206	0.386498	0.299678	
0.234881	0.32259	0.246366	
0.353553	-0.353553	0	
0.385896	-0.317937	0.065638	
0.314857	-0.257449	0	
0.268393	-0.334301	0	
-0.0704474	0.495012	0.0718449	
-0.153329	0.47591	0.0923815	
-0.118932	0.39861	0	
-0.0728697	0.385983	0.102817	
0.350601	0.12216	0.5	
0.358926	0.0589256	0.5	
0.3	0.0833333	0.5	
0.352401	0.10935	0.404506	
-0.2234	-0.212186	0.369318	
-0.171189	-0.143954	0.334682	
-0.229671	-0.108874	0.396367	
-0.194749	-0.171788	0.429088	
-0.265452	0.263294	0.235043	
-0.316792	0.255444	0.314661	
-0.233647	0.26032	0.360484	
-0.232102	0.339116	0.303176	
-0.0704474	0.495012	0.0718449	
0	0.5	0.1	
-0.0807376	0.493438	0.154216	
-0.0728697	0.385983	0.102817	
0.478516	-0.14499	0.0762896	
0.495208	-0.0690617	0.0692099	
0.394936	-0.119803	0	
0.389447	-0.0664451	0.106973	
-0.268448	0.0761744	0.322026	
-0.246812	0.00918153	0.237581	
-0.177442	0.0578991	0.31733	
-0.259249	-0.00709893	0.335751	
0.277785	-0.415735	0	
0.194604	-0.371188	0	
0.235698	-0.440961	0.0686036	
0.268393	-0.334301	0	
0.12216	0.350601	0.5	
0.195502	0.369451	0.5	
0.166579	0.322107	0.5	
0.177101	0.348186	0.395851	
0.469621	-0.171627	0.160116	
0.493378	-0.0811073	0.146993	
0.478516	-0.14499	0.0762896	
0.389447	-0.0664451	0.106973	
-0.440961	-0.235698	0.431431	
-0.386476	-0.317233	0.409527	
-0.381086	-0.210299	0.5	
-0.415735	-0.277785	0.5	
-0.114467	-0.386332	0	
-0.16153	-0.357052	0.106281	
-0.152694	-0.476114	0.0975404	
-0.069553	-0.399585	0.0805589	
0.460762	-0.19416	0.234059	
0.471122	-0.167464	0.300106	
0.490316	-0.0979281	0.24092	
0.361187	-0.127724	0.273645	
-0.233647	0.26032	0.360484	
-0.212186	0.200864	0.421006	
-0.18531	0.191876	0.339375	
-0.181622	0.273954	0.42594	
0.495208	-0.0690617	0.0692099	
0.5	0	0.1	
0.5	0	0	
0.409478	-0.032947	0	
0.0693948	0.36903	0.285155	
-0.0106277	0.407378	0.33212	
-0.0333766	0.391369	0.240112	
-0.00163227	0.307964	0.248385	
-0.41072	-0.12459	0	
-0.494668	-0.0728232	0.0735406	
-0.477948	-0.146853	0.0840084	
-0.382808	-0.0894032	0.103515	
0.114055	0.374109	0	
0.191342	0.46194	0	
0.153328	0.47591	0.0923699	
0.202324	0.378521	0	
-0.0690566	0.495208	0.430964	
-0.0465403	0.431857	0.5	
-0.121351	0.418264	0.5	
-0.063352	0.397195	0.411842	
-0.233647	0.26032	0.360484	
-0.18531	0.191876	0.339375	
-0.123171	0.237068	0.386906	
-0.181622	0.273954	0.42594	
0.439458	0.238488	0.424308	
0.369451	0.195502	0.5	
0.415735	0.277785	0.5	
0.334293	0.262733	0.5	
-0.0589256	0.241074	0.5	
-0.128799	0.212132	0.5	
-0.106066	0.256066	0.5	
-0.0612159	0.20738	0.430983	
-0.0411735	0.316432	0.326214	
0.0303777	0.260127	0.314563	
-0.0268842	0.224117	0.253342	
-0.00163227	0.307964	0.248385	
-0.404541	0.126945	0	
-0.337562	0.0547633	0	
-0.328307	0.16356	0	
-0.377341	0.0879068	0.111753	
0.295465	-0.212132	0.5	
0.271058	-0.271058	0.5	
0.249439	-0.196279	0.5	
0.249979	-0.247703	0.407586	
-0.123001	-0.399482	0.5	
-0.161532	-0.334293	0.5	
-0.109975	-0.345553	0.5	
-0.162242	-0.337279	0.406019	
0.216667	0	0.5	
0.241074	0.0589256	0.5	
0.249486	-0.0108057	0.43277	
0.179502	0.0181689	0.432699	
-0.0825799	-0.384765	0.390495	
-0.120748	-0.291511	0.335128	
-0.162242	-0.337279	0.406019	
-0.0611092	-0.309537	0.420103	
0.0738057	0.28359	0.108069	
0.0362945	0.23248	0.18345	
0.0985518	0.185902	0.12959	
0.143575	0.241784	0.186885	
-0.0853821	0.492656	0.251348	
-0.0333766	0.391369	0.240112	
0	0.5	0.3	
-0.0106277	0.407378	0.33212	
0.428195	0.258165	0.201755	
0.469721	0.171353	0.161666	
0.460548	0.194667	0.23433	
0.342141	0.162954	0.200127	
-0.234529	0.221409	0.5	
-0.196279	0.249439	0.5	
-0.181859	0.199592	0.5	
-0.212186	0.200864	0.421006	
0.0404524	-0.41072	0	
-0.0328721	-0.370689	0	
-0.0422582	-0.437473	0	
0.0206176	-0.395667	0.103453	
-0.460762	0.19416	0.234059	
-0.471122	0.167464	0.300106	
-0.490316	0.0979281	0.24092	
-0.358997	0.136564	0.272723	
-0.385896	0.317937	0.065638	
-0.389036	0.207425	0	
-0.415735	0.277785	0	
-0.318983	0.261743	0	
0.261819	0.319027	0	
0.189613	0.313662	0	
0.231243	0.24169	0	
0.223568	0.323879	0.108427	
-0.0807376	0.493438	0.154216	
0	0.5	0.2	
-0.0853821	0.492656	0.251348	
-0.0333766	0.391369	0.240112	
-0.317197	-0.386505	0.431175	
-0.323938	-0.380873	0.347739	
-0.386476	-0.317233	0.409527	
-0.250192	-0.304018	0.405469	
-0.388345	0.314941	0.420199	
-0.31678	0.386847	0.395869	
-0.353553	0.353553	0.5	
-0.3028	0.261077	0.41707	
-0.168043	-0.470916	0.199874	
-0.194667	-0.460548	0.26567	
-0.0977967	-0.490343	0.258774	
-0.138366	-0.358353	0.236796	
-0.186407	-0.169451	0	
-0.261345	-0.230036	0	
-0.168688	-0.281701	0	
-0.206213	-0.186333	0.106781	
0.470916	0.168043	0.300126	
0.4284	0.257824	0.295024	
0.460548	0.194667	0.23433	
0.374736	0.148861	0.30011	
-0.127176	-0.00609761	0.272433	
-0.165601	0.0438592	0.172089	
-0.0742895	0.0407153	0.192583	
-0.136956	-0.0443284	0.188767	
0.0465403	0.431857	0.5	
6.08826e-17	0.43599	0.5	
0	0.5	0.5	
0.0728232	0.494668	0.426459	
0.221409	0.189735	0.5	
0.199592	0.242405	0.5	
0.249439	0.227985	0.5	
0.220138	0.220062	0.417726	
-0.332155	0.186259	0.378016	
-0.3028	0.261077	0.41707	
-0.233647	0.26032	0.360484	
-0.316792	0.255444	0.314661	
-0.0853821	0.492656	0.251348	
0	0.5	0.3	
-0.082983	0.493066	0.348347	
-0.0106277	0.407378	0.33212	
0.0404524	-0.41072	0	
0	-0.5	0	
0.0704474	-0.495012	0.0718449	
0	-0.5	0.1	
0.216667	0	0.5	
0.249486	-0.0108057	0.43277	
0.186339	-0.0508266	0.5	
0.179502	0.0181689	0.432699	
-0.0814439	-0.125985	0.343547	
-0.171189	-0.143954	0.334682	
-0.134018	-0.125076	0.416643	
-0.128371	-0.0605284	0.341709	
-0.318983	0.261743	0	
-0.26105	0.203399	0	
-0.214341	0.273759	0	
-0.265951	0.256468	0.111233	
-0.470668	-0.168734	0.298219	
-0.372506	-0.102825	0.21502	
-0.492649	-0.0854243	0.248597	
-0.402728	-0.0701503	0.304716	
-0.401548	-0.0423374	0	
-0.5	0	0.1	
-0.5	0	0	
-0.494668	-0.0728232	0.0735406	
-0.274828	0.327002	0.5	
-0.23026	0.337515	0.416359	
-0.271058	0.271058	0.5	
-0.3028	0.261077	0.41707	
-0.123171	0.237068	0.386906	
-0.0968356	0.250534	0.302469	
-0.103796	0.164416	0.331112	
-0.18531	0.191876	0.339375	
-0.389036	0.207425	0	
-0.46194	0.191342	0	
-0.404541	0.126945	0	
-0.478516	0.14499	0.0762896	
0.268393	-0.334301	0	
0.235698	-0.440961	0.0686036	
0.277785	-0.415735	0	
0.317131	-0.386559	0.0881616	
0.000455301	-0.171885	0.334296	
-0.0547597	-0.189651	0.263151	
-0.00154855	-0.114907	0.260366	
0.0592568	-0.173932	0.272176	
-0.41072	-0.12459	0	
-0.401548	-0.0423374	0	
-0.494668	-0.0728232	0.0735406	
-0.382808	-0.0894032	0.103515	
-0.128799	-0.212132	0.5	
-0.106066	-0.256066	0.5	
-0.153206	-0.271058	0.5	
-0.117884	-0.234333	0.40948	
0.212132	0.128799	0.5	
0.271058	0.153206	0.5	
0.256066	0.106066	0.5	
0.259229	0.131014	0.416169	
-0.144119	0.318458	0.266738	
-0.0968356	0.250534	0.302469	
-0.154067	0.200523	0.255267	
-0.0983525	0.249793	0.193206	
0.2429	-0.437035	0.152631	
0.317319	-0.386405	0.201487	
0.317131	-0.386559	0.0881616	
0.219334	-0.328412	0.103652	
-0.256554	0.429162	0.331268	
-0.23026	0.337515	0.416359	
-0.31678	0.386847	0.395869	
-0.232102	0.339116	0.303176	
0.353553	0.353553	0.5	
0.305409	0.305409	0.5	
0.262733	0.334293	0.5	
0.3168	0.386831	0.395903	
0.478516	-0.14499	0.0762896	
0.380207	-0.19708	0	
0.46194	-0.191342	0	
0.436811	-0.243302	0.0936268	
0.0589256	0.358926	0.5	
0.0373069	0.315853	0.5	
1.83697e-17	0.383333	0.5	
0.0203259	0.350518	0.403169	
-0.12216	0.350601	0.5	
-0.121351	0.418264	0.5	
-0.0589256	0.358926	0.5	
-0.063352	0.397195	0.411842	
0.5	0	0.2	
0.40447	-0.0146922	0.243912	
0.490343	0.0977967	0.241226	
0.39698	0.0776459	0.202579	
-0.323938	-0.380873	0.347739	
-0.258165	-0.428195	0.298245	
-0.328716	-0.376757	0.253532	
-0.234283	-0.304583	0.2878	
0.388274	0.315029	0.420807	
0.439458	0.238488	0.424308	
0.415735	0.277785	0.5	
0.334293	0.262733	0.5	
0.5	0	0.3	
0.40447	-0.0146922	0.243912	
0.490316	-0.0979281	0.24092	
0.411179	-0.0301121	0.336439	
-0.247023	0.434718	0.250558	
-0.317163	0.386533	0.299742	
-0.317319	0.386405	0.201487	
-0.232102	0.339116	0.303176	
0.5	0	0.4	
0.493012	0.0833019	0.344789	
0.5	0	0.3	
0.411179	-0.0301121	0.336439	
0.104605	-0.104521	0.5	
0.153206	-0.153206	0.5	
0.0967728	-0.154724	0.5	
0.110665	-0.131179	0.419604	
0.242822	0.437078	0.152991	
0.317233	0.386476	0.0904728	
0.316847	0.386792	0.198616	
0.223568	0.323879	0.108427	
-0.0589256	-0.241074	0.5	
-0.03759	-0.31517	0.5	
-0.0833333	-0.3	0.5	
-0.0611092	-0.309537	0.420103	
0.0401436	0.291204	0	
0.0651412	0.200096	0	
0.133074	0.264097	0	
0.0738057	0.28359	0.108069	
-0.436811	0.243302	0.0936268	
-0.389036	0.207425	0	
-0.415735	0.277785	0	
-0.385896	0.317937	0.065638	
-0.0948276	-0.0943246	0.25421	
-0.0286268	-0.0663675	0.186281	
-0.085688	-0.137167	0.16869	
-0.136956	-0.0443284	0.188767	
0.0807477	0.493437	0.154224	
0	0.5	0.1	
0.0704482	0.495012	0.0718447	
0.0594116	0.385605	0.105978	
0.5	0	0.4	
0.5	0	0.5	
0.435719	7.07799e-17	0.5	
0.495102	-0.0698146	0.4276	
-0.0372406	0.417791	0	
0	0.5	0.1	
0	0.5	0	
-0.0704474	0.495012	0.0718449	
0.399482	-0.123001	0.5	
0.392836	-0.0823347	0.412468	
0.476132	-0.152637	0.402329	
0.377058	-0.167276	0.424233	
-0.317197	-0.386505	0.431175	
-0.243391	-0.436762	0.403062	
-0.323938	-0.380873	0.347739	
-0.250192	-0.304018	0.405469	
-0.337307	0.0158534	0.5	
-0.358926	-0.0589256	0.5	
-0.383333	3.67394e-17	0.5	
-0.32522	-0.00468432	0.424344	
-0.271058	-0.271058	0.5	
-0.212132	-0.295465	0.5	
-0.276229	-0.333066	0.5	
-0.250192	-0.304018	0.405469	
-0.426463	0.0441363	0	
-0.490393	0.0975452	0	
-0.495208	0.0690617	0.0692099	
-0.404541	0.126945	0	
-0.212132	0.295465	0.5	
-0.271058	0.271058	0.5	
-0.274828	0.327002	0.5	
-0.23026	0.337515	0.416359	
-0.23026	0.337515	0.416359	
-0.3028	0.261077	0.41707	
-0.233647	0.26032	0.360484	
-0.181622	0.273954	0.42594	
-0.309277	-0.0223972	0.5	
-0.358926	-0.0589256	0.5	
-0.337307	0.0158534	0.5	
-0.32522	-0.00468432	0.424344	
0.353873	0.0061299	0.416416	
0.392836	-0.0823347	0.412468	
0.321349	-0.0500942	0.355813	
0.411179	-0.0301121	0.336439	
-0.31678	0.386847	0.395869	
-0.388345	0.314941	0.420199	
-0.373696	0.332191	0.334057	
-0.3028	0.261077	0.41707	
-0.0506005	-0.42216	0.5	
-5.51091e-17	-0.383333	0.5	
-1.3431e-16	-0.435719	0.5	
0.0212569	-0.409526	0.42172	
0.0704482	0.495012	0.0718447	
0.0975452	0.490393	0	
0.153328	0.47591	0.0923699	
0.114055	0.374109	0	
0.490393	-0.0975452	0.5	
0.399482	-0.123001	0.5	
0.42216	-0.0506005	0.5	
0.392836	-0.0823347	0.412468	
-0.492649	-0.0854243	0.248597	
-0.470668	-0.168734	0.298219	
-0.468495	-0.174678	0.182891	
-0.372506	-0.102825	0.21502	
6.08826e-17	0.43599	0.5	
0	0.5	0.4	
0	0.5	0.5	
0.0728232	0.494668	0.426459	
0.210156	-0.0147965	0	
0.232997	-0.11062	0	
0.314271	-0.0501881	0	
0.285128	-0.0586701	0.102886	
-0.0690566	0.495208	0.430964	
-0.121351	0.418264	0.5	
-0.147585	0.477722	0.416442	
-0.063352	0.397195	0.411842	
-0.0810399	-0.493389	0.35285	
-0.171353	-0.469721	0.338334	
-0.144862	-0.478555	0.421652	
-0.0825799	-0.384765	0.390495	
-0.0419658	0.179631	0.5	
-0.0835252	0.135066	0.417682	
-0.0949082	0.168548	0.5	
-0.0612159	0.20738	0.430983	
0.380873	0.323938	0.152261	
0.436762	0.243391	0.0969381	
0.428195	0.258165	0.201755	
0.325166	0.230418	0.10487	
-0.495012	-0.0704482	0.428155	
-0.5	0	0.4	
-0.5	0	0.5	
-0.434728	9.15966e-17	0.5	
-0.0801458	-0.0255891	0.118207	
-0.0742895	0.0407153	0.192583	
-0.165601	0.0438592	0.172089	
-0.136956	-0.0443284	0.188767	
-0.0833019	-0.493012	0.155211	
0	-0.5	0.1	
-0.0698189	-0.495101	0.0723791	
-0.069553	-0.399585	0.0805589	
0	-0.5	0.5	
0	-0.5	0.4	
-1.3431e-16	-0.435719	0.5	
0.0690566	-0.495208	0.430964	
-0.5	0	0.4	
-0.5	0	0.5	
-0.434728	9.15966e-17	0.5	
-0.495102	0.0698146	0.4276	
0	0.5	0.4	
0	0.5	0.5	
-0.0690566	0.495208	0.430964	
6.08826e-17	0.43599	0.5	
0	-0.5	0.4	
-0.0684459	-0.495293	0.431403	
0	-0.5	0.5	
-1.3431e-16	-0.435719	0.5	
-0.468495	-0.174678	0.182891	
-0.493315	-0.0814864	0.152319	
-0.492649	-0.0854243	0.248597	
-0.372506	-0.102825	0.21502	
-0.147585	0.477722	0.416442	
-0.228959	0.444497	0.408094	
-0.174738	0.468473	0.317184	
-0.144981	0.358558	0.378678	
-0.334293	-0.161532	0.5	
-0.271058	-0.153206	0.5	
-0.295465	-0.212132	0.5	
-0.306482	-0.128449	0.42688	
-0.0589256	0.241074	0.5	
-0.03759	0.28483	0.5	
1.83697e-17	0.216667	0.5	
-0.0163515	0.266982	0.412579	
-0.353553	-0.353553	0.5	
-0.317197	-0.386505	0.431175	
-0.386476	-0.317233	0.409527	
-0.330717	-0.276825	0.5	
-0.0589256	0.241074	0.5	
-0.0163515	0.266982	0.412579	
1.83697e-17	0.216667	0.5	
-0.0612159	0.20738	0.430983	
0.495208	-0.0690617	0.0692099	
0.493378	-0.0811073	0.146993	
0.5	0	0.1	
0.389447	-0.0664451	0.106973	
-0.46194	0.191342	0	
-0.389036	0.207425	0	
-0.436811	0.243302	0.0936268	
-0.478516	0.14499	0.0762896	
-0.227302	0.174542	0.5	
-0.212132	0.128799	0.5	
-0.271058	0.153206	0.5	
-0.268272	0.128138	0.411267	
-0.0690566	0.495208	0.430964	
-0.082983	0.493066	0.348347	
0	0.5	0.4	
-0.063352	0.397195	0.411842	
0.495293	0.0684459	0.0685965	
0.414183	0.131147	0	
0.490393	0.0975452	0	
0.414991	0.0495125	0	
0.0092772	-0.322397	0.5	
-0.0125395	-0.269727	0.5	
0.0373069	-0.284147	0.5	
0.0220588	-0.302368	0.419947	
-0.261345	-0.230036	0	
-0.186407	-0.169451	0	
-0.278713	-0.14304	0	
-0.206213	-0.186333	0.106781	
-0.426463	0.0441363	0	
-0.337562	0.0547633	0	
-0.404541	0.126945	0	
-0.377341	0.0879068	0.111753	
0.0853821	-0.492656	0.251348	
0	-0.5	0.3	
0.082983	-0.493066	0.348347	
0.0961802	-0.403925	0.321644	
0.174738	-0.468473	0.317184	
0.247023	-0.434718	0.250558	
0.16873	-0.47067	0.201799	
0.153466	-0.356896	0.263852	
0	0.5	0.4	
0	0.5	0.3	
0.0814864	0.493315	0.347681	
-0.0106277	0.407378	0.33212	
-0.217356	-0.450285	0.144698	
-0.152694	-0.476114	0.0975404	
-0.238488	-0.439458	0.0756919	
-0.16153	-0.357052	0.106281	
0.493012	-0.0833019	0.344789	
0.392836	-0.0823347	0.412468	
0.495102	-0.0698146	0.4276	
0.411179	-0.0301121	0.336439	
0.0373069	0.0158534	0.5	
0.0589256	0.0589256	0.5	
0.0833333	0	0.5	
0.0614383	0.0441646	0.419518	
0	-0.5	0.4	
0.0690566	-0.495208	0.430964	
0.082983	-0.493066	0.348347	
0.0212569	-0.409526	0.42172	
0.5	0	0.3	
0.490343	0.0977967	0.241226	
0.5	0	0.2	
0.40447	-0.0146922	0.243912	
-0.127176	-0.00609761	0.272433	
-0.0948276	-0.0943246	0.25421	
-0.0531387	-0.0402198	0.321272	
-0.128371	-0.0605284	0.341709	
-0.495208	0.0690617	0.0692099	
-0.5	0	0.1	
-0.5	0	0	
-0.426463	0.0441363	0	
0.0903521	0.10545	0	
-0.00425413	0.131001	0	
0.0209546	0.0362755	0	
0.0431438	0.101726	0.0953265	
0.0461078	-0.0584269	0	
0.0712814	-0.153152	0	
0.14072	-0.0839746	0	
0.0983144	-0.0718988	0.0894985	
0.153206	0.271058	0.5	
0.199592	0.242405	0.5	
0.174542	0.196962	0.5	
0.135958	0.243685	0.430036	
-0.0814439	-0.125985	0.343547	
-0.0531387	-0.0402198	0.321272	
-0.0948276	-0.0943246	0.25421	
-0.128371	-0.0605284	0.341709	
-0.5	0	0.4	
-0.493012	0.0833019	0.344789	
-0.495102	0.0698146	0.4276	
-0.38814	0.0365087	0.390101	
0.0420691	0.427134	0	
0	0.5	0	
0	0.5	0.1	
0.0704482	0.495012	0.0718447	
-0.302044	-0.0506462	0	
-0.401548	-0.0423374	0	
-0.344127	-0.112227	0	
-0.382808	-0.0894032	0.103515	
0.380207	-0.19708	0	
0.46194	-0.191342	0	
0.394936	-0.119803	0	
0.478516	-0.14499	0.0762896	
0.0465403	-0.431857	0.5	
0	-0.5	0.5	
-1.3431e-16	-0.435719	0.5	
0.0690566	-0.495208	0.430964	
0	0.5	0.2	
0	0.5	0.3	
-0.0853821	0.492656	0.251348	
-0.0333766	0.391369	0.240112	
0.0461078	-0.0584269	0	
0.14072	-0.0839746	0	
0.115537	0.0107471	0	
0.0983144	-0.0718988	0.0894985	
0.394936	-0.119803	0	
0.409478	-0.032947	0	
0.314271	-0.0501881	0	
0.389447	-0.0664451	0.106973	
-0.0465403	0.431857	0.5	
-0.0690566	0.495208	0.430964	
0	0.5	0.5	
6.08826e-17	0.43599	0.5	
0.490393	-0.0975452	0.5	
0.42216	-0.0506005	0.5	
0.495102	-0.0698146	0.4276	
0.392836	-0.0823347	0.412468	
-0.168688	-0.281701	0	
-0.203173	-0.373024	0	
-0.114467	-0.386332	0	
-0.16153	-0.357052	0.106281	
0.385896	-0.317937	0.065638	
0.317131	-0.386559	0.0881616	
0.38078	-0.324048	0.150149	
0.302277	-0.248662	0.113737	
-0.18468	-0.0140346	0.375736	
-0.231014	-0.0285751	0.432493	
-0.259187	0.0363748	0.408672	
-0.259249	-0.00709893	0.335751	
-0.243391	-0.436762	0.403062	
-0.317197	-0.386505	0.431175	
-0.277785	-0.415735	0.5	
-0.210263	-0.381228	0.5	
0.261819	0.319027	0	
0.202324	0.378521	0	
0.189613	0.313662	0	
0.223568	0.323879	0.108427	
-0.478516	0.14499	0.0762896	
-0.469621	0.171627	0.160116	
-0.493378	0.0811073	0.146993	
-0.377341	0.0879068	0.111753	
0.5	0	0.3	
0.490316	-0.0979281	0.24092	
0.493012	-0.0833019	0.344789	
0.411179	-0.0301121	0.336439	
-0.0555676	0.325574	0	
-0.0372406	0.417791	0	
-0.118932	0.39861	0	
-0.0728697	0.385983	0.102817	
-0.123001	-0.399482	0.5	
-0.0975452	-0.490393	0.5	
-0.0684459	-0.495293	0.431403	
-0.0506005	-0.42216	0.5	
-0.106984	0.108603	0.5	
-0.0949082	0.168548	0.5	
-0.0506005	0.12216	0.5	
-0.0835252	0.135066	0.417682	
-0.490393	0.0975452	0.5	
-0.495102	0.0698146	0.4276	
-0.399482	0.123001	0.5	
-0.42216	0.0506005	0.5	
0.0704482	0.495012	0.0718447	
0.153328	0.47591	0.0923699	
0.0807477	0.493437	0.154224	
0.0594116	0.385605	0.105978	
0.239078	0.233865	0.176769	
0.189688	0.149534	0.191539	
0.190566	0.216647	0.261668	
0.143575	0.241784	0.186885	
0.274828	-0.327002	0.5	
0.212132	-0.295465	0.5	
0.271058	-0.271058	0.5	
0.23026	-0.337515	0.419392	
-0.114467	-0.386332	0	
-0.0328721	-0.370689	0	
-0.0638367	-0.295761	0	
-0.069553	-0.399585	0.0805589	
-0.337562	0.0547633	0	
-0.237047	0.0201392	0	
-0.257956	0.116321	0	
-0.259075	0.0657144	0.105374	
-0.227302	0.174542	0.5	
-0.234529	0.221409	0.5	
-0.181859	0.199592	0.5	
-0.212186	0.200864	0.421006	
-0.274828	0.327002	0.5	
-0.271058	0.271058	0.5	
-0.332733	0.27561	0.5	
-0.3028	0.261077	0.41707	
-0.118932	0.39861	0	
-0.0372406	0.417791	0	
-0.0975452	0.490393	0	
-0.0704474	0.495012	0.0718449	
-0.495208	0.0690617	0.0692099	
-0.478516	0.14499	0.0762896	
-0.493378	0.0811073	0.146993	
-0.377341	0.0879068	0.111753	
0.353553	0.353553	0.5	
0.3168	0.386831	0.395903	
0.388274	0.315029	0.420807	
0.291987	0.28448	0.40616	
0.394936	-0.119803	0	
0.495208	-0.0690617	0.0692099	
0.490393	-0.0975452	0	
0.409478	-0.032947	0	
-0.28746	0.0302731	0.5	
-0.309277	-0.0223972	0.5	
-0.337307	0.0158534	0.5	
-0.32522	-0.00468432	0.424344	
-0.154067	0.200523	0.255267	
-0.103796	0.164416	0.331112	
-0.0968356	0.250534	0.302469	
-0.18531	0.191876	0.339375	
1.83697e-17	0.383333	0.5	
-0.0589256	0.358926	0.5	
-0.0465403	0.431857	0.5	
-0.063352	0.397195	0.411842	
-0.490393	-0.0975452	0.5	
-0.399482	-0.123001	0.5	
-0.47591	-0.153328	0.40763	
-0.39407	-0.0815537	0.417272	
-0.399482	-0.123001	0.5	
-0.490393	-0.0975452	0.5	
-0.42216	-0.0506005	0.5	
-0.39407	-0.0815537	0.417272	
-0.0810399	-0.493389	0.35285	
-0.144862	-0.478555	0.421652	
-0.0684459	-0.495293	0.431403	
-0.0825799	-0.384765	0.390495	
0.118934	-0.0478046	0.5	
0.186339	-0.0508266	0.5	
0.154508	-0.0938282	0.5	
0.165319	-0.0685492	0.421531	
0.373926	0.198925	0	
0.328092	0.270243	0	
0.300884	0.198715	0	
0.325166	0.230418	0.10487	
0.385896	-0.317937	0.065638	
0.38078	-0.324048	0.150149	
0.436811	-0.243302	0.0936268	
0.302277	-0.248662	0.113737	
-0.495102	0.0698146	0.4276	
-0.476132	0.152637	0.402329	
-0.490393	0.0975452	0.5	
-0.399482	0.123001	0.5	
0.476132	-0.152637	0.402329	
0.46194	-0.191342	0.5	
0.399482	-0.123001	0.5	
0.377058	-0.167276	0.424233	
0.0903521	0.10545	0	
0.184962	0.0799289	0	
0.158056	0.171884	0	
0.155737	0.108922	0.093738	
0.216667	0	0.5	
0.241074	0.0589256	0.5	
0.277603	0.0092772	0.5	
0.249486	-0.0108057	0.43277	
-0.256554	0.429162	0.331268	
-0.31678	0.386847	0.395869	
-0.317163	0.386533	0.299742	
-0.232102	0.339116	0.303176	
0.414183	0.131147	0	
0.490393	0.0975452	0	
0.478555	0.144862	0.0783483	
0.495293	0.0684459	0.0685965	
0.42216	-0.0506005	0.5	
0.435719	7.07799e-17	0.5	
0.5	0	0.5	
0.495102	-0.0698146	0.4276	
-0.315029	-0.388274	0.0791933	
-0.386831	-0.3168	0.104097	
-0.331632	-0.374193	0.165357	
-0.28242	-0.274225	0.101342	
0.490343	0.0977967	0.241226	
0.460548	0.194667	0.23433	
0.469721	0.171353	0.161666	
0.39698	0.0776459	0.202579	
-0.0698189	-0.495101	0.0723791	
-0.0975452	-0.490393	0	
-0.152694	-0.476114	0.0975404	
-0.069553	-0.399585	0.0805589	
0.313791	-0.154465	0	
0.232997	-0.11062	0	
0.245477	-0.191651	0	
0.235288	-0.159577	0.0981964	
0.0420691	0.427134	0	
0.0153159	0.363557	0	
0.114055	0.374109	0	
0.0594116	0.385605	0.105978	
-0.082983	0.493066	0.348347	
0	0.5	0.3	
0	0.5	0.4	
-0.0106277	0.407378	0.33212	
0.158056	0.171884	0	
0.247868	0.146306	0	
0.231243	0.24169	0	
0.191432	0.204802	0.0909793	
-0.416747	0.276265	0.362548	
-0.429476	0.256028	0.291579	
-0.373696	0.332191	0.334057	
-0.316792	0.255444	0.314661	
0.5	0	0.4	
0.493012	-0.0833019	0.344789	
0.495102	-0.0698146	0.4276	
0.411179	-0.0301121	0.336439	
-0.147585	0.477722	0.416442	
-0.082983	0.493066	0.348347	
-0.0690566	0.495208	0.430964	
-0.063352	0.397195	0.411842	
-0.277785	0.415735	0.5	
-0.274828	0.327002	0.5	
-0.31678	0.386847	0.395869	
-0.23026	0.337515	0.416359	
0.316847	0.386792	0.198616	
0.317206	0.386498	0.299678	
0.247057	0.434698	0.250499	
0.234881	0.32259	0.246366	
-0.277785	0.415735	0.5	
-0.228959	0.444497	0.408094	
-0.196736	0.368707	0.5	
-0.23026	0.337515	0.416359	
0.0833333	-0.3	0.5	
0.0589256	-0.358926	0.5	
0.0373069	-0.284147	0.5	
0.0220588	-0.302368	0.419947	
-0.386476	-0.317233	0.409527	
-0.437078	-0.242822	0.347009	
-0.440961	-0.235698	0.431431	
-0.338135	-0.204677	0.398089	
-0.0589256	0.358926	0.5	
-0.121351	0.418264	0.5	
-0.0465403	0.431857	0.5	
-0.063352	0.397195	0.411842	
-0.5	0	0.5	
-0.434728	9.15966e-17	0.5	
-0.495102	0.0698146	0.4276	
-0.42216	0.0506005	0.5	
-0.434728	9.15966e-17	0.5	
-0.5	0	0.5	
-0.495012	-0.0704482	0.428155	
-0.42216	-0.0506005	0.5	
0.232997	-0.11062	0	
0.164797	-0.177585	0	
0.245477	-0.191651	0	
0.235288	-0.159577	0.0981964	
-0.404541	0.126945	0	
-0.490393	0.0975452	0	
-0.495208	0.0690617	0.0692099	
-0.478516	0.14499	0.0762896	
0.31678	-0.386847	0.395869	
0.277785	-0.415735	0.5	
0.274828	-0.327002	0.5	
0.23026	-0.337515	0.419392	
0.0704474	-0.495012	0.0718449	
0	-0.5	0.1	
0.0807376	-0.493438	0.154216	
0.0206176	-0.395667	0.103453	
-0.490393	-0.0975452	0.5	
-0.47591	-0.153328	0.40763	
-0.495012	-0.0704482	0.428155	
-0.39407	-0.0815537	0.417272	
-0.0975452	0.490393	0	
-0.118932	0.39861	0	
-0.0704474	0.495012	0.0718449	
-0.153329	0.47591	0.0923815	
0.216667	0	0.5	
0.184661	0.0531453	0.5	
0.241074	0.0589256	0.5	
0.179502	0.0181689	0.432699	
0.196736	-0.368707	0.5	
0.277785	-0.415735	0.5	
0.228959	-0.444497	0.408094	
0.23026	-0.337515	0.419392	
0.0712814	-0.153152	0	
0.0943468	-0.245334	0	
0.164797	-0.177585	0	
0.116361	-0.190469	0.100844	
-0.373696	0.332191	0.334057	
-0.429476	0.256028	0.291579	
-0.377032	0.3284	0.243217	
-0.316792	0.255444	0.314661	
0.478516	-0.14499	0.0762896	
0.493378	-0.0811073	0.146993	
0.495208	-0.0690617	0.0692099	
0.389447	-0.0664451	0.106973	
0.394936	-0.119803	0	
0.490393	-0.0975452	0	
0.495208	-0.0690617	0.0692099	
0.478516	-0.14499	0.0762896	
-0.114467	-0.386332	0	
-0.152694	-0.476114	0.0975404	
-0.0975452	-0.490393	0	
-0.069553	-0.399585	0.0805589	
-0.495012	-0.0704482	0.428155	
-0.42216	-0.0506005	0.5	
-0.490393	-0.0975452	0.5	
-0.39407	-0.0815537	0.417272	
-0.0465403	0.431857	0.5	
-0.0975452	0.490393	0.5	
-0.0690566	0.495208	0.430964	
-0.121351	0.418264	0.5	
0.0975452	-0.490393	0.5	
0.0690566	-0.495208	0.430964	
0.0465403	-0.431857	0.5	
0.121351	-0.418264	0.5	
0.493389	0.0810399	0.14715	
0.5	0	0.2	
0.490343	0.0977967	0.241226	
0.39698	0.0776459	0.202579	
0	-0.5	0	
-0.0422582	-0.437473	0	
-0.0698189	-0.495101	0.0723791	
0	-0.5	0.1	
0.242822	0.437078	0.152991	
0.235698	0.440961	0.068569	
0.317233	0.386476	0.0904728	
0.223568	0.323879	0.108427	
0.082983	-0.493066	0.348347	
0.147585	-0.477722	0.416442	
0.174738	-0.468473	0.317184	
0.0961802	-0.403925	0.321644	
0.268393	-0.334301	0	
0.201164	-0.273578	0	
0.194604	-0.371188	0	
0.219334	-0.328412	0.103652	
0.0975452	-0.490393	0	
0.0704474	-0.495012	0.0718449	
0.125573	-0.41396	0	
0.0404524	-0.41072	0	
-0.144862	-0.478555	0.421652	
-0.123001	-0.399482	0.5	
-0.0975452	-0.490393	0.5	
-0.0684459	-0.495293	0.431403	
0.317319	-0.386405	0.201487	
0.317163	-0.386533	0.299742	
0.377032	-0.3284	0.243217	
0.25314	-0.310833	0.250522	
0.216667	0	0.5	
0.241074	-0.0589256	0.5	
0.186339	-0.0508266	0.5	
0.249486	-0.0108057	0.43277	
-0.0499791	-0.122616	0.5	
-6.75805e-05	-0.152663	0.5	
-0.0488646	-0.18203	0.5	
-0.0581449	-0.152487	0.425037	
0.315853	0.0373069	0.5	
0.358926	0.0589256	0.5	
0.383333	0	0.5	
0.353873	0.0061299	0.416416	
-0.0506005	-0.42216	0.5	
0	-0.5	0.5	
-0.0684459	-0.495293	0.431403	
-1.3431e-16	-0.435719	0.5	
-0.277785	0.415735	0.5	
-0.196736	0.368707	0.5	
-0.274828	0.327002	0.5	
-0.23026	0.337515	0.416359	
-0.212132	0.295465	0.5	
-0.23026	0.337515	0.416359	
-0.166579	0.322107	0.5	
-0.181622	0.273954	0.42594	
-0.41072	-0.12459	0	
-0.401548	-0.0423374	0	
-0.490393	-0.0975452	0	
-0.494668	-0.0728232	0.0735406	
-0.263582	-0.319413	0	
-0.261345	-0.230036	0	
-0.331361	-0.272953	0	
-0.28242	-0.274225	0.101342	
0.317163	-0.386533	0.299742	
0.317319	-0.386405	0.201487	
0.247023	-0.434718	0.250558	
0.25314	-0.310833	0.250522	
-0.256066	-0.106066	0.5	
-0.271058	-0.153206	0.5	
-0.3	-0.0833333	0.5	
-0.306482	-0.128449	0.42688	
0.133074	0.264097	0	
0.158056	0.171884	0	
0.231243	0.24169	0	
0.191432	0.204802	0.0909793	
0.152693	-0.00394448	0.5	
0.216667	0	0.5	
0.186339	-0.0508266	0.5	
0.179502	0.0181689	0.432699	
0.3168	0.386831	0.395903	
0.374193	0.331632	0.334643	
0.388274	0.315029	0.420807	
0.291987	0.28448	0.40616	
-0.257956	0.116321	0	
-0.26105	0.203399	0	
-0.328307	0.16356	0	
-0.241404	0.162452	0.0887852	
-0.401548	-0.0423374	0	
-0.41072	-0.12459	0	
-0.344127	-0.112227	0	
-0.382808	-0.0894032	0.103515	
-0.477948	-0.146853	0.0840084	
-0.494668	-0.0728232	0.0735406	
-0.493315	-0.0814864	0.152319	
-0.382808	-0.0894032	0.103515	
-0.0807376	0.493438	0.154216	
-0.153329	0.47591	0.0923815	
-0.0704474	0.495012	0.0718449	
-0.0728697	0.385983	0.102817	
0.353553	0.353553	0	
0.277785	0.415735	0	
0.261819	0.319027	0	
0.317233	0.386476	0.0904728	
0.228959	-0.444497	0.408094	
0.31678	-0.386847	0.395869	
0.256554	-0.429162	0.331268	
0.23026	-0.337515	0.419392	
-0.0833333	-0.3	0.5	
-0.0589256	-0.358926	0.5	
-0.109975	-0.345553	0.5	
-0.0611092	-0.309537	0.420103	
0.490343	0.0977967	0.241226	
0.469721	0.171353	0.161666	
0.493389	0.0810399	0.14715	
0.39698	0.0776459	0.202579	
0.439384	-0.238625	0.423358	
0.381208	-0.210225	0.5	
0.46194	-0.191342	0.5	
0.377058	-0.167276	0.424233	
0.174542	-0.227302	0.5	
0.153206	-0.271058	0.5	
0.128799	-0.212132	0.5	
0.163614	-0.249053	0.416633	
0.184661	0.0531453	0.5	
0.152693	-0.00394448	0.5	
0.124175	0.0449909	0.5	
0.179502	0.0181689	0.432699	
-0.224672	-0.181859	0.5	
-0.212132	-0.128799	0.5	
-0.174825	-0.196279	0.5	
-0.194749	-0.171788	0.429088	
-0.490393	-0.0975452	0	
-0.477948	-0.146853	0.0840084	
-0.41072	-0.12459	0	
-0.494668	-0.0728232	0.0735406	
0.2429	-0.437035	0.152631	
0.317131	-0.386559	0.0881616	
0.235698	-0.440961	0.0686036	
0.219334	-0.328412	0.103652	
0.274828	-0.327002	0.5	
0.277785	-0.415735	0.5	
0.196736	-0.368707	0.5	
0.23026	-0.337515	0.419392	
-0.444481	-0.228991	0.0919014	
-0.415735	-0.277785	0	
-0.46194	-0.191342	0	
-0.356684	-0.19351	0	
0.153328	0.47591	0.0923699	
0.0975452	0.490393	0	
0.191342	0.46194	0	
0.114055	0.374109	0	
-0.114467	-0.386332	0	
-0.191342	-0.46194	0	
-0.0975452	-0.490393	0	
-0.152694	-0.476114	0.0975404	
0.399482	-0.123001	0.5	
0.46194	-0.191342	0.5	
0.381208	-0.210225	0.5	
0.377058	-0.167276	0.424233	
0.439384	-0.238625	0.423358	
0.46194	-0.191342	0.5	
0.476132	-0.152637	0.402329	
0.377058	-0.167276	0.424233	
0.5	0	0.2	
0.490316	-0.0979281	0.24092	
0.5	0	0.3	
0.40447	-0.0146922	0.243912	
-0.277785	0.415735	0.5	
-0.31678	0.386847	0.395869	
-0.228959	0.444497	0.408094	
-0.23026	0.337515	0.416359	
0.345553	-0.109975	0.5	
0.392836	-0.0823347	0.412468	
0.399482	-0.123001	0.5	
0.377058	-0.167276	0.424233	
-0.256554	0.429162	0.331268	
-0.228959	0.444497	0.408094	
-0.31678	0.386847	0.395869	
-0.23026	0.337515	0.416359	
0.495101	0.0698189	0.427621	
0.490393	0.0975452	0.5	
0.418309	0.121276	0.5	
0.431857	0.0465403	0.5	
0.31678	-0.386847	0.395869	
0.228959	-0.444497	0.408094	
0.277785	-0.415735	0.5	
0.23026	-0.337515	0.419392	
0.386505	0.317197	0.0688254	
0.436762	0.243391	0.0969381	
0.380873	0.323938	0.152261	
0.325166	0.230418	0.10487	
0.0704474	-0.495012	0.0718449	
0.153329	-0.47591	0.0923815	
0.0975452	-0.490393	0	
0.125573	-0.41396	0	
-0.46194	0.191342	0.5	
-0.490393	0.0975452	0.5	
-0.476132	0.152637	0.402329	
-0.399482	0.123001	0.5	
0.490393	-0.0975452	0.5	
0.399482	-0.123001	0.5	
0.476132	-0.152637	0.402329	
0.46194	-0.191342	0.5	
0.121276	0.418309	0.5	
0.0465403	0.431857	0.5	
0.0975452	0.490393	0.5	
0.0728232	0.494668	0.426459	
-0.0975452	-0.490393	0	
-0.0698189	-0.495101	0.0723791	
-0.0422582	-0.437473	0	
-0.069553	-0.399585	0.0805589	
-0.128799	0.212132	0.5	
-0.0589256	0.241074	0.5	
-0.0949082	0.168548	0.5	
-0.0612159	0.20738	0.430983	
-5.51091e-17	-0.383333	0.5	
0.0589256	-0.358926	0.5	
0.0465403	-0.431857	0.5	
0.0212569	-0.409526	0.42172	
0.128799	0.212132	0.5	
0.153206	0.271058	0.5	
0.174542	0.196962	0.5	
0.135958	0.243685	0.430036	
-0.495012	-0.0704482	0.428155	
-0.47591	-0.153328	0.40763	
-0.493437	-0.0807477	0.345776	
-0.39407	-0.0815537	0.417272	
0.439384	-0.238625	0.423358	
0.476132	-0.152637	0.402329	
0.450312	-0.217299	0.354112	
0.377058	-0.167276	0.424233	
-0.0975452	0.490393	0.5	
-0.147585	0.477722	0.416442	
-0.0690566	0.495208	0.430964	
-0.121351	0.418264	0.5	
0.121351	-0.418264	0.5	
0.0975452	-0.490393	0.5	
0.0690566	-0.495208	0.430964	
0.147585	-0.477722	0.416442	
-0.118932	0.39861	0	
-0.0975452	0.490393	0	
-0.191342	0.46194	0	
-0.153329	0.47591	0.0923815	
0.493012	-0.0833019	0.344789	
0.476132	-0.152637	0.402329	
0.495102	-0.0698146	0.4276	
0.392836	-0.0823347	0.412468	
-0.26105	0.203399	0	
-0.257956	0.116321	0	
-0.18644	0.1823	0	
-0.241404	0.162452	0.0887852	
-0.0589256	0.241074	0.5	
1.83697e-17	0.216667	0.5	
-0.0419658	0.179631	0.5	
-0.0612159	0.20738	0.430983	
-0.490393	-0.0975452	0.5	
-0.46194	-0.191342	0.5	
-0.47591	-0.153328	0.40763	
-0.399482	-0.123001	0.5	
0.191342	-0.46194	0.5	
0.228959	-0.444497	0.408094	
0.196736	-0.368707	0.5	
0.277785	-0.415735	0.5	
-0.191342	0.46194	0.5	
-0.277785	0.415735	0.5	
-0.228959	0.444497	0.408094	
-0.196736	0.368707	0.5	
0.195502	0.369451	0.5	
0.191342	0.46194	0.5	
0.277785	0.415735	0.5	
0.228991	0.444481	0.408099	
-0.0589256	0.241074	0.5	
-0.0419658	0.179631	0.5	
-0.0949082	0.168548	0.5	
-0.0612159	0.20738	0.430983	
0.373926	0.198925	0	
0.46194	0.191342	0	
0.415735	0.277785	0	
0.436762	0.243391	0.0969381	
-0.274828	0.327002	0.5	
-0.196736	0.368707	0.5	
-0.212132	0.295465	0.5	
-0.23026	0.337515	0.416359	
-0.03759	-0.31517	0.5	
-0.0589256	-0.358926	0.5	
-0.0833333	-0.3	0.5	
-0.0611092	-0.309537	0.420103	
-0.114467	-0.386332	0	
-0.0975452	-0.490393	0	
-0.0422582	-0.437473	0	
-0.069553	-0.399585	0.0805589	
-0.331361	-0.272953	0	
-0.415735	-0.277785	0	
-0.353553	-0.353553	0	
-0.386831	-0.3168	0.104097	
-0.353553	0.353553	0.5	
-0.277785	0.415735	0.5	
-0.274828	0.327002	0.5	
-0.31678	0.386847	0.395869	
0.353553	-0.353553	0.5	
0.274828	-0.327002	0.5	
0.31678	-0.386847	0.395869	
0.277785	-0.415735	0.5	
0.174678	0.468495	0.317109	
0.146853	0.477948	0.415992	
0.0814864	0.493315	0.347681	
0.098227	0.400612	0.372757	
0.353553	0.353553	0.5	
0.305409	0.305409	0.5	
0.388274	0.315029	0.420807	
0.334293	0.262733	0.5	
0.262733	0.334293	0.5	
0.277785	0.415735	0.5	
0.353553	0.353553	0.5	
0.3168	0.386831	0.395903	
-0.0833019	-0.493012	0.155211	
-0.0698189	-0.495101	0.0723791	
-0.152694	-0.476114	0.0975404	
-0.069553	-0.399585	0.0805589	
0.495101	0.0698189	0.427621	
0.418309	0.121276	0.5	
0.490393	0.0975452	0.5	
0.476114	0.152694	0.40246	
-0.153206	-0.153206	0.5	
-0.174825	-0.196279	0.5	
-0.212132	-0.128799	0.5	
-0.194749	-0.171788	0.429088	
0.399482	-0.123001	0.5	
0.345553	-0.109975	0.5	
0.358926	-0.0589256	0.5	
0.392836	-0.0823347	0.412468	
-0.166579	0.322107	0.5	
-0.212132	0.295465	0.5	
-0.196736	0.368707	0.5	
-0.23026	0.337515	0.416359	
-0.0488646	-0.18203	0.5	
-0.097127	-0.15347	0.5	
-0.0499791	-0.122616	0.5	
-0.0581449	-0.152487	0.425037	
0.277603	0.0092772	0.5	
0.28483	-0.03759	0.5	
0.216667	0	0.5	
0.249486	-0.0108057	0.43277	
0.399482	-0.123001	0.5	
0.358926	-0.0589256	0.5	
0.42216	-0.0506005	0.5	
0.392836	-0.0823347	0.412468	
0	-0.0833333	0.5	
-0.03759	-0.01517	0.5	
0.0092772	-0.0223972	0.5	
-0.0182997	-0.049373	0.434403	
-0.271058	0.271058	0.5	
-0.295465	0.212132	0.5	
-0.332733	0.27561	0.5	
-0.3028	0.261077	0.41707	
0.082983	-0.493066	0.348347	
0.174738	-0.468473	0.317184	
0.0853821	-0.492656	0.251348	
0.0961802	-0.403925	0.321644	
0.495208	-0.0690617	0.0692099	
0.5	0	0	
0.490393	-0.0975452	0	
0.409478	-0.032947	0	
0.380207	-0.19708	0	
0.415735	-0.277785	0	
0.46194	-0.191342	0	
0.436811	-0.243302	0.0936268	
-0.470668	-0.168734	0.298219	
-0.492649	-0.0854243	0.248597	
-0.493437	-0.0807477	0.345776	
-0.402728	-0.0701503	0.304716	
0.5	0	0.3	
0.493012	-0.0833019	0.344789	
0.5	0	0.4	
0.411179	-0.0301121	0.336439	
-0.401548	-0.0423374	0	
-0.5	0	0	
-0.490393	-0.0975452	0	
-0.494668	-0.0728232	0.0735406	
-1.3431e-16	-0.435719	0.5	
-5.51091e-17	-0.383333	0.5	
0.0465403	-0.431857	0.5	
0.0212569	-0.409526	0.42172	
0.196736	-0.368707	0.5	
0.212132	-0.295465	0.5	
0.274828	-0.327002	0.5	
0.23026	-0.337515	0.419392	
0.191342	-0.46194	0	
0.0975452	-0.490393	0	
0.153329	-0.47591	0.0923815	
0.125573	-0.41396	0	
-0.5	0	0.3	
-0.493437	-0.0807477	0.345776	
-0.492649	-0.0854243	0.248597	
-0.402728	-0.0701503	0.304716	
-0.03759	-0.01517	0.5	
0	-0.0833333	0.5	
-0.0589256	-0.0589256	0.5	
-0.0182997	-0.049373	0.434403	
0.381208	-0.210225	0.5	
0.334293	-0.161532	0.5	
0.399482	-0.123001	0.5	
0.377058	-0.167276	0.424233	
-0.277785	-0.415735	0.5	
-0.243391	-0.436762	0.403062	
-0.210263	-0.381228	0.5	
-0.191342	-0.46194	0.5	
0.106066	0.256066	0.5	
0.153206	0.271058	0.5	
0.128799	0.212132	0.5	
0.135958	0.243685	0.430036	
-0.247023	0.434718	0.250558	
-0.256554	0.429162	0.331268	
-0.317163	0.386533	0.299742	
-0.232102	0.339116	0.303176	
-0.317131	0.386559	0.0881616	
-0.353553	0.353553	0	
-0.277785	0.415735	0	
-0.273315	0.334955	0	
0.0975452	0.490393	0.5	
0.121276	0.418309	0.5	
0.0728232	0.494668	0.426459	
0.146853	0.477948	0.415992	
0.495293	0.0684459	0.0685965	
0.490393	0.0975452	0	
0.5	0	0	
0.414991	0.0495125	0	
0.268393	-0.334301	0	
0.277785	-0.415735	0	
0.353553	-0.353553	0	
0.317131	-0.386559	0.0881616	
0.196736	-0.368707	0.5	
0.166579	-0.322107	0.5	
0.212132	-0.295465	0.5	
0.23026	-0.337515	0.419392	
-0.271058	-0.153206	0.5	
-0.334293	-0.161532	0.5	
-0.345553	-0.109975	0.5	
-0.306482	-0.128449	0.42688	
-0.46194	-0.191342	0	
-0.490393	-0.0975452	0	
-0.477948	-0.146853	0.0840084	
-0.41072	-0.12459	0	
0.0704474	-0.495012	0.0718449	
0.0975452	-0.490393	0	
0	-0.5	0	
0.0404524	-0.41072	0	
-0.216667	3.67394e-17	0.5	
-0.18203	-0.0488646	0.5	
-0.241074	-0.0589256	0.5	
-0.231014	-0.0285751	0.432493	
-0.345553	-0.109975	0.5	
-0.3	-0.0833333	0.5	
-0.271058	-0.153206	0.5	
-0.306482	-0.128449	0.42688	
0.147585	-0.477722	0.416442	
0.121351	-0.418264	0.5	
0.0975452	-0.490393	0.5	
0.191342	-0.46194	0.5	
-0.147585	0.477722	0.416442	
-0.0975452	0.490393	0.5	
-0.191342	0.46194	0.5	
-0.121351	0.418264	0.5	
-0.315029	-0.388274	0.0791933	
-0.277785	-0.415735	0	
-0.353553	-0.353553	0	
-0.263582	-0.319413	0	
0.345553	-0.109975	0.5	
0.399482	-0.123001	0.5	
0.334293	-0.161532	0.5	
0.377058	-0.167276	0.424233	
0.418309	0.121276	0.5	
0.46194	0.191342	0.5	
0.490393	0.0975452	0.5	
0.476114	0.152694	0.40246	
-0.0372406	0.417791	0	
0	0.5	0	
-0.0975452	0.490393	0	
-0.0704474	0.495012	0.0718449	
-0.389036	0.207425	0	
-0.415735	0.277785	0	
-0.46194	0.191342	0	
-0.436811	0.243302	0.0936268	
0.369451	0.195502	0.5	
0.415735	0.277785	0.5	
0.46194	0.191342	0.5	
0.439458	0.238488	0.424308	
0.216667	0	0.5	
0.28483	-0.03759	0.5	
0.241074	-0.0589256	0.5	
0.249486	-0.0108057	0.43277	
0.0814864	0.493315	0.347681	
0.146853	0.477948	0.415992	
0.0728232	0.494668	0.426459	
0.098227	0.400612	0.372757	
-0.399482	-0.123001	0.5	
-0.358926	-0.0589256	0.5	
-0.345553	-0.109975	0.5	
-0.39407	-0.0815537	0.417272	
0.184661	0.0531453	0.5	
0.216667	0	0.5	
0.152693	-0.00394448	0.5	
0.179502	0.0181689	0.432699	
-0.238488	-0.439458	0.0756919	
-0.191342	-0.46194	0	
-0.277785	-0.415735	0	
-0.203173	-0.373024	0	
0.385896	-0.317937	0.065638	
0.415735	-0.277785	0	
0.353553	-0.353553	0	
0.314857	-0.257449	0	
-0.415735	0.277785	0	
-0.353553	0.353553	0	
-0.385896	0.317937	0.065638	
-0.318983	0.261743	0	
-0.42216	-0.0506005	0.5	
-0.358926	-0.0589256	0.5	
-0.399482	-0.123001	0.5	
-0.39407	-0.0815537	0.417272	
0.121276	0.418309	0.5	
0.0975452	0.490393	0.5	
0.191342	0.46194	0.5	
0.146853	0.477948	0.415992	
0.194604	-0.371188	0	
0.191342	-0.46194	0	
0.277785	-0.415735	0	
0.235698	-0.440961	0.0686036	
0	0.5	0.5	
-0.0975452	0.490393	0.5	
-0.0690566	0.495208	0.430964	
-0.0465403	0.431857	0.5	
0.0690566	-0.495208	0.430964	
0.0465403	-0.431857	0.5	
0	-0.5	0.5	
0.0975452	-0.490393	0.5	
0.46194	-0.191342	0	
0.490393	-0.0975452	0	
0.394936	-0.119803	0	
0.478516	-0.14499	0.0762896	
-0.386476	-0.317233	0.409527	
-0.353553	-0.353553	0.5	
-0.330717	-0.276825	0.5	
-0.415735	-0.277785	0.5	
-0.415735	0.277785	0.5	
-0.46194	0.191342	0.5	
-0.439384	0.238625	0.423358	
-0.381208	0.210225	0.5	
0.46194	-0.191342	0.5	
0.381208	-0.210225	0.5	
0.439384	-0.238625	0.423358	
0.415735	-0.277785	0.5	
-0.212132	0.295465	0.5	
-0.166579	0.322107	0.5	
-0.153206	0.271058	0.5	
-0.181622	0.273954	0.42594	
-0.388345	0.314941	0.420199	
-0.353553	0.353553	0.5	
-0.415735	0.277785	0.5	
-0.332733	0.27561	0.5	
0.332733	-0.27561	0.5	
0.353553	-0.353553	0.5	
0.388345	-0.314941	0.420199	
0.415735	-0.277785	0.5	
-0.490393	-0.0975452	0.5	
-0.495012	-0.0704482	0.428155	
-0.5	0	0.5	
-0.42216	-0.0506005	0.5	
-0.201912	0.369986	0	
-0.191342	0.46194	0	
-0.277785	0.415735	0	
-0.235698	0.440961	0.0686036	
0.490393	-0.0975452	0.5	
0.42216	-0.0506005	0.5	
0.5	0	0.5	
0.495102	-0.0698146	0.4276	
-0.495208	0.0690617	0.0692099	
-0.5	0	0	
-0.490393	0.0975452	0	
-0.426463	0.0441363	0	
0	0.5	0.5	
0.0975452	0.490393	0.5	
0.0465403	0.431857	0.5	
0.0728232	0.494668	0.426459	
-0.495102	0.0698146	0.4276	
-0.490393	0.0975452	0.5	
-0.5	0	0.5	
-0.42216	0.0506005	0.5	
-0.212132	0.295465	0.5	
-0.153206	0.271058	0.5	
-0.196279	0.249439	0.5	
-0.181622	0.273954	0.42594	
-0.26241	-0.01517	0.5	
-0.216667	3.67394e-17	0.5	
-0.241074	-0.0589256	0.5	
-0.231014	-0.0285751	0.432493	
0.388274	0.315029	0.420807	
0.415735	0.277785	0.5	
0.353553	0.353553	0.5	
0.334293	0.262733	0.5	
-0.0975452	-0.490393	0.5	
-0.123001	-0.399482	0.5	
-0.144862	-0.478555	0.421652	
-0.191342	-0.46194	0.5	
0.495101	0.0698189	0.427621	
0.5	0	0.5	
0.490393	0.0975452	0.5	
0.431857	0.0465403	0.5	
-0.46194	0.191342	0	
-0.490393	0.0975452	0	
-0.404541	0.126945	0	
-0.478516	0.14499	0.0762896	
-0.0684459	-0.495293	0.431403	
-0.0975452	-0.490393	0.5	
0	-0.5	0.5	
-0.0506005	-0.42216	0.5	
0.478555	0.144862	0.0783483	
0.46194	0.191342	0	
0.490393	0.0975452	0	
0.414183	0.131147	0	
0.0420691	0.427134	0	
0.0975452	0.490393	0	
0	0.5	0	
0.0704482	0.495012	0.0718447	
-0.0422582	-0.437473	0	
-0.0328721	-0.370689	0	
-0.114467	-0.386332	0	
-0.069553	-0.399585	0.0805589	
0.328092	0.270243	0	
0.415735	0.277785	0	
0.353553	0.353553	0	
0.386505	0.317197	0.0688254	
-0.0422582	-0.437473	0	
-0.0975452	-0.490393	0	
0	-0.5	0	
-0.0698189	-0.495101	0.0723791	
-0.277785	-0.415735	0.5	
-0.317197	-0.386505	0.431175	
-0.353553	-0.353553	0.5	
-0.276229	-0.333066	0.5	
0.235698	0.440961	0.068569	
0.191342	0.46194	0	
0.277785	0.415735	0	
0.202324	0.378521	0	
-0.415735	-0.277785	0.5	
-0.381086	-0.210299	0.5	
-0.440961	-0.235698	0.431431	
-0.46194	-0.191342	0.5	
0.268239	-0.118327	0.326702	
0.193272	-0.26142	0.329316	
0.134803	-0.19156	0.335814	
0.268117	-0.201453	0.257301	
0.268239	-0.118327	0.326702	
0.134803	-0.19156	0.335814	
0.193272	-0.26142	0.329316	
0.186731	-0.150807	0.387359	
0.389447	-0.0664451	0.106973	
0.380207	-0.19708	0	
0.313791	-0.154465	0	
0.394936	-0.119803	0	
0.389447	-0.0664451	0.106973	
0.313791	-0.154465	0	
0.380207	-0.19708	0	
0.321456	-0.142755	0.153578	
0.016747	0.116372	0.415368	
0.108346	0.0977259	0.5	
0.086989	0.179344	0.400327	
0.0535407	0.120642	0.5	
0.016747	0.116372	0.415368	
0.086989	0.179344	0.400327	
0.108346	0.0977259	0.5	
0.136079	0.0773073	0.413876	
0.39698	0.0776459	0.202579	
0.389447	-0.0664451	0.106973	
0.362932	0.098224	0.109262	
0.5	0	0.1	
0.39698	0.0776459	0.202579	
0.362932	0.098224	0.109262	
0.389447	-0.0664451	0.106973	
0.332005	0.00713037	0.169463	
0.086989	0.179344	0.400327	
0.108346	0.0977259	0.5	
0.153206	0.153206	0.5	
0.0999373	0.153076	0.5	
0.086989	0.179344	0.400327	
0.153206	0.153206	0.5	
0.108346	0.0977259	0.5	
0.136079	0.0773073	0.413876	
-0.323059	-0.0556697	0.363619	
-0.402728	-0.0701503	0.304716	
-0.306482	-0.128449	0.42688	
-0.39407	-0.0815537	0.417272	
-0.323059	-0.0556697	0.363619	
-0.306482	-0.128449	0.42688	
-0.402728	-0.0701503	0.304716	
-0.329023	-0.172142	0.292634	
-0.338135	-0.204677	0.398089	
-0.306482	-0.128449	0.42688	
-0.402728	-0.0701503	0.304716	
-0.39407	-0.0815537	0.417272	
-0.338135	-0.204677	0.398089	
-0.402728	-0.0701503	0.304716	
-0.306482	-0.128449	0.42688	
-0.329023	-0.172142	0.292634	
-0.0139985	0.0766371	0.354232	
0.0387655	-0.0479803	0.318584	
0.107111	0.0161028	0.331802	
-0.000470172	0.0044189	0.383613	
-0.0139985	0.0766371	0.354232	
0.107111	0.0161028	0.331802	
0.0387655	-0.0479803	0.318584	
0.0661482	0.0500773	0.26338	
0.0170253	0.0610303	0.18852	
0.110881	-0.0319284	0.263307	
0.135296	0.0693292	0.185912	
0.0661482	0.0500773	0.26338	
0.0170253	0.0610303	0.18852	
0.135296	0.0693292	0.185912	
0.110881	-0.0319284	0.263307	
0.0395065	-0.000100258	0.126114	
0.116361	-0.190469	0.100844	
0.112799	-0.33356	0	
0.00964811	-0.213747	0.128268	
0.0943468	-0.245334	0	
0.116361	-0.190469	0.100844	
0.00964811	-0.213747	0.128268	
0.112799	-0.33356	0	
0.0952672	-0.342147	0.15717	
0.0248177	-0.313374	0	
0.00964811	-0.213747	0.128268	
0.112799	-0.33356	0	
0.0943468	-0.245334	0	
0.0248177	-0.313374	0	
0.112799	-0.33356	0	
0.00964811	-0.213747	0.128268	
0.0952672	-0.342147	0.15717	
-0.0983525	0.249793	0.193206	
-0.118181	0.0989473	0.251321	
-0.0268842	0.224117	0.253342	
-0.154067	0.200523	0.255267	
-0.0983525	0.249793	0.193206	
-0.0268842	0.224117	0.253342	
-0.118181	0.0989473	0.251321	
-0.0243888	0.144613	0.165538	
-0.358997	0.136564	0.272723	
-0.450312	0.217299	0.354112	
-0.476132	0.152637	0.402329	
-0.332155	0.186259	0.378016	
-0.358997	0.136564	0.272723	
-0.476132	0.152637	0.402329	
-0.450312	0.217299	0.354112	
-0.471122	0.167464	0.300106	
0.377058	-0.167276	0.424233	
0.271058	-0.153206	0.5	
0.295465	-0.212132	0.5	
0.334293	-0.161532	0.5	
0.377058	-0.167276	0.424233	
0.295465	-0.212132	0.5	
0.271058	-0.153206	0.5	
0.314006	-0.186162	0.367048	
-0.259075	0.0657144	0.105374	
-0.0884785	0.081082	0.106964	
-0.142648	-0.00714059	0	
-0.16685	0.0883447	0	
-0.142648	-0.00714059	0	
-0.0884785	0.081082	0.106964	
-0.259075	0.0657144	0.105374	
-0.165601	0.0438592	0.172089	
-0.0825799	-0.384765	0.390495	
0	-0.5	0.3	
0.0212569	-0.409526	0.42172	
-0.0810399	-0.493389	0.35285	
-0.0825799	-0.384765	0.390495	
0.0212569	-0.409526	0.42172	
0	-0.5	0.3	
0.0230591	-0.35567	0.355674	
0.0373069	0.0158534	0.5	
-0.0182997	-0.049373	0.434403	
0.0953117	-0.0282381	0.401854	
0.0092772	-0.0223972	0.5	
0.0953117	-0.0282381	0.401854	
-0.0182997	-0.049373	0.434403	
0.0373069	0.0158534	0.5	
0.0614383	0.0441646	0.419518	
0.136079	0.0773073	0.413876	
0.212132	0.128799	0.5	
0.153206	0.153206	0.5	
0.1612	0.100866	0.5	
0.136079	0.0773073	0.413876	
0.153206	0.153206	0.5	
0.212132	0.128799	0.5	
0.183274	0.148555	0.376377	
-0.5	0	0.2	
-0.382808	-0.0894032	0.103515	
-0.372506	-0.102825	0.21502	
-0.493315	-0.0814864	0.152319	
-0.372506	-0.102825	0.21502	
-0.382808	-0.0894032	0.103515	
-0.5	0	0.2	
-0.325718	-0.0135225	0.164468	
0.14467	0.301705	0.287535	
0.247057	0.434698	0.250499	
0.25658	0.429146	0.33124	
0.234881	0.32259	0.246366	
0.14467	0.301705	0.287535	
0.25658	0.429146	0.33124	
0.247057	0.434698	0.250499	
0.174678	0.468495	0.317109	
-0.250192	-0.304018	0.405469	
-0.295465	-0.212132	0.5	
-0.330717	-0.276825	0.5	
-0.271058	-0.271058	0.5	
-0.250192	-0.304018	0.405469	
-0.330717	-0.276825	0.5	
-0.295465	-0.212132	0.5	
-0.338135	-0.204677	0.398089	
-0.0835252	0.135066	0.417682	
0.00279483	0.150684	0.5	
-0.0612159	0.20738	0.430983	
-0.0419658	0.179631	0.5	
-0.0835252	0.135066	0.417682	
-0.0612159	0.20738	0.430983	
0.00279483	0.150684	0.5	
0.016747	0.116372	0.415368	
0.300884	0.198715	0	
0.251686	0.10803	0.129438	
0.191432	0.204802	0.0909793	
0.247868	0.146306	0	
0.300884	0.198715	0	
0.191432	0.204802	0.0909793	
0.251686	0.10803	0.129438	
0.325166	0.230418	0.10487	
-0.382808	-0.0894032	0.103515	
-0.278713	-0.14304	0	
-0.356684	-0.19351	0	
-0.344127	-0.112227	0	
-0.382808	-0.0894032	0.103515	
-0.356684	-0.19351	0	
-0.278713	-0.14304	0	
-0.304937	-0.166182	0.150677	
-0.0810399	-0.493389	0.35285	
0.0212569	-0.409526	0.42172	
-0.0684459	-0.495293	0.431403	
0	-0.5	0.4	
-0.0684459	-0.495293	0.431403	
0.0212569	-0.409526	0.42172	
-0.0810399	-0.493389	0.35285	
-0.0825799	-0.384765	0.390495	
-0.337562	0.0547633	0	
-0.382808	-0.0894032	0.103515	
-0.377341	0.0879068	0.111753	
-0.401548	-0.0423374	0	
-0.377341	0.0879068	0.111753	
-0.382808	-0.0894032	0.103515	
-0.337562	0.0547633	0	
-0.325718	-0.0135225	0.164468	
0.0203259	0.350518	0.403169	
0.0833333	0.3	0.5	
-0.0163515	0.266982	0.412579	
0.0970926	0.279271	0.373778	
0.0203259	0.350518	0.403169	
-0.0163515	0.266982	0.412579	
0.0833333	0.3	0.5	
0.0373069	0.315853	0.5	
-0.146435	-0.19403	0.261638	
-0.117884	-0.234333	0.40948	
-0.2234	-0.212186	0.369318	
-0.120748	-0.291511	0.335128	
-0.146435	-0.19403	0.261638	
-0.2234	-0.212186	0.369318	
-0.117884	-0.234333	0.40948	
-0.171189	-0.143954	0.334682	
-0.201912	0.369986	0	
-0.235698	0.440961	0.0686036	
-0.265951	0.256468	0.111233	
-0.161163	0.309136	0.149427	
-0.2429	0.437035	0.152631	
-0.235698	0.440961	0.0686036	
-0.265951	0.256468	0.111233	
-0.317131	0.386559	0.0881616	
-0.2429	0.437035	0.152631	
-0.265951	0.256468	0.111233	
-0.235698	0.440961	0.0686036	
-0.161163	0.309136	0.149427	
-0.0106277	0.407378	0.33212	
-0.0853821	0.492656	0.251348	
-0.174738	0.468473	0.317184	
-0.082983	0.493066	0.348347	
-0.0106277	0.407378	0.33212	
-0.174738	0.468473	0.317184	
-0.0853821	0.492656	0.251348	
-0.0333766	0.391369	0.240112	
-0.306482	-0.128449	0.42688	
-0.338135	-0.204677	0.398089	
-0.194749	-0.171788	0.429088	
-0.295465	-0.212132	0.5	
-0.306482	-0.128449	0.42688	
-0.194749	-0.171788	0.429088	
-0.338135	-0.204677	0.398089	
-0.2234	-0.212186	0.369318	
-0.249722	-0.227302	0.5	
-0.194749	-0.171788	0.429088	
-0.338135	-0.204677	0.398089	
-0.295465	-0.212132	0.5	
-0.249722	-0.227302	0.5	
-0.338135	-0.204677	0.398089	
-0.194749	-0.171788	0.429088	
-0.2234	-0.212186	0.369318	
0.325166	0.230418	0.10487	
0.337634	0.115561	0	
0.251686	0.10803	0.129438	
0.300884	0.198715	0	
0.325166	0.230418	0.10487	
0.251686	0.10803	0.129438	
0.337634	0.115561	0	
0.362932	0.098224	0.109262	
-0.0182997	-0.049373	0.434403	
0.0373069	0.0158534	0.5	
-0.0125395	0.0302731	0.5	
0.0092772	-0.0223972	0.5	
-0.0182997	-0.049373	0.434403	
-0.0125395	0.0302731	0.5	
0.0373069	0.0158534	0.5	
-0.000470172	0.0044189	0.383613	
0.0387655	-0.0479803	0.318584	
-0.0182997	-0.049373	0.434403	
0.0953117	-0.0282381	0.401854	
-0.000470172	0.0044189	0.383613	
0.0953117	-0.0282381	0.401854	
-0.0182997	-0.049373	0.434403	
0.0387655	-0.0479803	0.318584	
0.0135874	-0.118011	0.409404	
-0.47591	-0.153328	0.40763	
-0.402728	-0.0701503	0.304716	
-0.338135	-0.204677	0.398089	
-0.470668	-0.168734	0.298219	
-0.338135	-0.204677	0.398089	
-0.402728	-0.0701503	0.304716	
-0.47591	-0.153328	0.40763	
-0.39407	-0.0815537	0.417272	
0.135296	0.0693292	0.185912	
0.244062	-0.0339696	0.193164	
0.110881	-0.0319284	0.263307	
0.185118	-0.0448541	0.130581	
0.110881	-0.0319284	0.263307	
0.244062	-0.0339696	0.193164	
0.135296	0.0693292	0.185912	
0.212089	0.020774	0.252242	
0.352401	0.10935	0.404506	
0.493012	0.0833019	0.344789	
0.374736	0.148861	0.30011	
0.476114	0.152694	0.40246	
0.352401	0.10935	0.404506	
0.374736	0.148861	0.30011	
0.493012	0.0833019	0.344789	
0.380516	0.0520569	0.316102	
0.174775	-0.129562	0.177015	
0.244062	-0.0339696	0.193164	
0.110881	-0.0319284	0.263307	
0.220621	-0.0913842	0.253691	
0.110881	-0.0319284	0.263307	
0.244062	-0.0339696	0.193164	
0.174775	-0.129562	0.177015	
0.185118	-0.0448541	0.130581	
-0.268272	0.128138	0.411267	
-0.241074	0.0589256	0.5	
-0.3	0.0833333	0.5	
-0.259187	0.0363748	0.408672	
-0.268272	0.128138	0.411267	
-0.3	0.0833333	0.5	
-0.241074	0.0589256	0.5	
-0.256066	0.106066	0.5	
-0.00334623	-0.10275	0.104947	
0.00183684	-0.222331	0	
-0.0925337	-0.196451	0	
-0.0232782	-0.127584	0	
-0.00334623	-0.10275	0.104947	
-0.0925337	-0.196451	0	
0.00183684	-0.222331	0	
0.00964811	-0.213747	0.128268	
0.00964811	-0.213747	0.128268	
0.0986966	-0.244124	0.186079	
-0.0565919	-0.339726	0.150695	
0.0952672	-0.342147	0.15717	
0.00964811	-0.213747	0.128268	
-0.0565919	-0.339726	0.150695	
0.0986966	-0.244124	0.186079	
0.0203259	-0.249482	0.251542	
0.0153009	-0.365787	0.239317	
-0.0565919	-0.339726	0.150695	
0.0986966	-0.244124	0.186079	
0.0952672	-0.342147	0.15717	
0.0153009	-0.365787	0.239317	
0.0986966	-0.244124	0.186079	
-0.0565919	-0.339726	0.150695	
0.0203259	-0.249482	0.251542	
-0.235698	0.440961	0.0686036	
-0.273315	0.334955	0	
-0.265951	0.256468	0.111233	
-0.317131	0.386559	0.0881616	
-0.265951	0.256468	0.111233	
-0.273315	0.334955	0	
-0.235698	0.440961	0.0686036	
-0.201912	0.369986	0	
-0.3028	0.261077	0.41707	
-0.234529	0.221409	0.5	
-0.181622	0.273954	0.42594	
-0.271058	0.271058	0.5	
-0.3028	0.261077	0.41707	
-0.181622	0.273954	0.42594	
-0.234529	0.221409	0.5	
-0.212186	0.200864	0.421006	
-0.18203	-0.0488646	0.5	
-0.231014	-0.0285751	0.432493	
-0.212132	-0.128799	0.5	
-0.241074	-0.0589256	0.5	
-0.18203	-0.0488646	0.5	
-0.212132	-0.128799	0.5	
-0.231014	-0.0285751	0.432493	
-0.229671	-0.108874	0.396367	
-0.256066	-0.106066	0.5	
-0.212132	-0.128799	0.5	
-0.231014	-0.0285751	0.432493	
-0.241074	-0.0589256	0.5	
-0.256066	-0.106066	0.5	
-0.231014	-0.0285751	0.432493	
-0.212132	-0.128799	0.5	
-0.229671	-0.108874	0.396367	
0.431857	0.0465403	0.5	
0.5	0	0.4	
0.5	0	0.5	
0.435719	7.07799e-17	0.5	
0.431857	0.0465403	0.5	
0.5	0	0.5	
0.5	0	0.4	
0.495101	0.0698189	0.427621	
0.0661482	0.0500773	0.26338	
0.0525099	0.171816	0.320476	
0.14675	0.128723	0.276074	
0.0632778	0.132225	0.219	
0.14675	0.128723	0.276074	
0.0525099	0.171816	0.320476	
0.0661482	0.0500773	0.26338	
0.0734599	0.0912867	0.346892	
0.0807477	0.493437	0.154224	
0.132803	0.332442	0.177	
0.153328	0.47591	0.0923699	
0.168734	0.470668	0.201781	
0.0807477	0.493437	0.154224	
0.153328	0.47591	0.0923699	
0.132803	0.332442	0.177	
0.0594116	0.385605	0.105978	
-0.0570812	-0.3559	0.302161	
-0.0565919	-0.339726	0.150695	
-0.0977967	-0.490343	0.258774	
-0.138366	-0.358353	0.236796	
-0.0570812	-0.3559	0.302161	
-0.0977967	-0.490343	0.258774	
-0.0565919	-0.339726	0.150695	
0.0153009	-0.365787	0.239317	
0.325166	0.230418	0.10487	
0.469721	0.171353	0.161666	
0.428195	0.258165	0.201755	
0.342141	0.162954	0.200127	
0.325166	0.230418	0.10487	
0.428195	0.258165	0.201755	
0.469721	0.171353	0.161666	
0.436762	0.243391	0.0969381	
-0.18531	0.191876	0.339375	
-0.268448	0.0761744	0.322026	
-0.268272	0.128138	0.411267	
-0.262239	0.179182	0.299022	
-0.18531	0.191876	0.339375	
-0.268272	0.128138	0.411267	
-0.268448	0.0761744	0.322026	
-0.177179	0.127748	0.396718	
0.317233	0.386476	0.0904728	
0.328092	0.270243	0	
0.353553	0.353553	0	
0.386505	0.317197	0.0688254	
0.317233	0.386476	0.0904728	
0.353553	0.353553	0	
0.328092	0.270243	0	
0.261819	0.319027	0	
0.220138	0.220062	0.417726	
0.271058	0.271058	0.5	
0.295465	0.212132	0.5	
0.291987	0.28448	0.40616	
0.220138	0.220062	0.417726	
0.295465	0.212132	0.5	
0.271058	0.271058	0.5	
0.249439	0.227985	0.5	
-0.118932	0.39861	0	
-0.235698	0.440961	0.0686036	
-0.0728697	0.385983	0.102817	
-0.153329	0.47591	0.0923815	
-0.0728697	0.385983	0.102817	
-0.235698	0.440961	0.0686036	
-0.118932	0.39861	0	
-0.201912	0.369986	0	
0.476114	0.152694	0.40246	
0.369451	0.195502	0.5	
0.46194	0.191342	0.5	
0.439458	0.238488	0.424308	
0.476114	0.152694	0.40246	
0.46194	0.191342	0.5	
0.369451	0.195502	0.5	
0.418309	0.121276	0.5	
-0.206213	-0.186333	0.106781	
-0.211369	-0.0761151	0	
-0.117671	-0.10197	0	
-0.186407	-0.169451	0	
-0.206213	-0.186333	0.106781	
-0.117671	-0.10197	0	
-0.211369	-0.0761151	0	
-0.202717	-0.0800005	0.134359	
0.0220588	-0.302368	0.419947	
-5.51091e-17	-0.383333	0.5	
0.0589256	-0.358926	0.5	
0.0092772	-0.322397	0.5	
0.0220588	-0.302368	0.419947	
0.0589256	-0.358926	0.5	
-5.51091e-17	-0.383333	0.5	
0.0212569	-0.409526	0.42172	
6.08826e-17	0.43599	0.5	
0.0728232	0.494668	0.426459	
0.0203259	0.350518	0.403169	
0	0.5	0.4	
0.0203259	0.350518	0.403169	
0.0728232	0.494668	0.426459	
6.08826e-17	0.43599	0.5	
0.0465403	0.431857	0.5	
0.249486	-0.0108057	0.43277	
0.315853	0.0373069	0.5	
0.241074	0.0589256	0.5	
0.277603	0.0092772	0.5	
0.249486	-0.0108057	0.43277	
0.241074	0.0589256	0.5	
0.315853	0.0373069	0.5	
0.278485	0.0481879	0.395453	
0.125573	-0.41396	0	
0.235698	-0.440961	0.0686036	
0.219334	-0.328412	0.103652	
0.153329	-0.47591	0.0923815	
0.125573	-0.41396	0	
0.219334	-0.328412	0.103652	
0.235698	-0.440961	0.0686036	
0.194604	-0.371188	0	
0.23026	-0.337515	0.419392	
0.388345	-0.314941	0.420199	
0.332733	-0.27561	0.5	
0.274828	-0.327002	0.5	
0.332733	-0.27561	0.5	
0.388345	-0.314941	0.420199	
0.23026	-0.337515	0.419392	
0.249979	-0.247703	0.407586	
0.332733	-0.27561	0.5	
0.271058	-0.271058	0.5	
0.23026	-0.337515	0.419392	
0.274828	-0.327002	0.5	
0.23026	-0.337515	0.419392	
0.271058	-0.271058	0.5	
0.332733	-0.27561	0.5	
0.249979	-0.247703	0.407586	
-0.296258	-0.256529	0.211625	
-0.206213	-0.186333	0.106781	
-0.237359	-0.176563	0.223722	
-0.193999	-0.271016	0.175767	
-0.237359	-0.176563	0.223722	
-0.206213	-0.186333	0.106781	
-0.296258	-0.256529	0.211625	
-0.304937	-0.166182	0.150677	
-0.0581449	-0.152487	0.425037	
-0.128799	-0.212132	0.5	
-0.134018	-0.125076	0.416643	
-0.117884	-0.234333	0.40948	
-0.0581449	-0.152487	0.425037	
-0.134018	-0.125076	0.416643	
-0.128799	-0.212132	0.5	
-0.097127	-0.15347	0.5	
-0.232102	0.339116	0.303176	
-0.373696	0.332191	0.334057	
-0.265452	0.263294	0.235043	
-0.316792	0.255444	0.314661	
-0.232102	0.339116	0.303176	
-0.265452	0.263294	0.235043	
-0.373696	0.332191	0.334057	
-0.317163	0.386533	0.299742	
-0.377032	0.3284	0.243217	
-0.265452	0.263294	0.235043	
-0.373696	0.332191	0.334057	
-0.316792	0.255444	0.314661	
-0.377032	0.3284	0.243217	
-0.373696	0.332191	0.334057	
-0.265452	0.263294	0.235043	
-0.317163	0.386533	0.299742	
-0.0611092	-0.309537	0.420103	
0.0092772	-0.322397	0.5	
-0.0125395	-0.269727	0.5	
-0.03759	-0.31517	0.5	
-0.0611092	-0.309537	0.420103	
-0.0125395	-0.269727	0.5	
0.0092772	-0.322397	0.5	
0.0220588	-0.302368	0.419947	
-0.194749	-0.171788	0.429088	
-0.15347	-0.097127	0.5	
-0.229671	-0.108874	0.396367	
-0.212132	-0.128799	0.5	
-0.194749	-0.171788	0.429088	
-0.229671	-0.108874	0.396367	
-0.15347	-0.097127	0.5	
-0.134018	-0.125076	0.416643	
0.39698	0.0776459	0.202579	
0.470916	0.168043	0.300126	
0.380516	0.0520569	0.316102	
0.490343	0.0977967	0.241226	
0.39698	0.0776459	0.202579	
0.380516	0.0520569	0.316102	
0.470916	0.168043	0.300126	
0.374736	0.148861	0.30011	
0.493012	0.0833019	0.344789	
0.380516	0.0520569	0.316102	
0.470916	0.168043	0.300126	
0.490343	0.0977967	0.241226	
0.493012	0.0833019	0.344789	
0.470916	0.168043	0.300126	
0.380516	0.0520569	0.316102	
0.374736	0.148861	0.30011	
-0.228959	0.444497	0.408094	
-0.121351	0.418264	0.5	
-0.144981	0.358558	0.378678	
-0.147585	0.477722	0.416442	
-0.144981	0.358558	0.378678	
-0.121351	0.418264	0.5	
-0.228959	0.444497	0.408094	
-0.196736	0.368707	0.5	
0.121351	-0.418264	0.5	
0.228959	-0.444497	0.408094	
0.135438	-0.346064	0.384448	
0.196736	-0.368707	0.5	
0.135438	-0.346064	0.384448	
0.228959	-0.444497	0.408094	
0.121351	-0.418264	0.5	
0.147585	-0.477722	0.416442	
0.0738057	0.28359	0.108069	
0.0153159	0.363557	0	
0.114055	0.374109	0	
0.0401436	0.291204	0	
0.0738057	0.28359	0.108069	
0.114055	0.374109	0	
0.0153159	0.363557	0	
0.0594116	0.385605	0.105978	
-0.28242	-0.274225	0.101342	
-0.386498	-0.317206	0.200322	
-0.429146	-0.25658	0.16876	
-0.386831	-0.3168	0.104097	
-0.28242	-0.274225	0.101342	
-0.429146	-0.25658	0.16876	
-0.386498	-0.317206	0.200322	
-0.296258	-0.256529	0.211625	
0.383333	0	0.5	
0.392836	-0.0823347	0.412468	
0.435719	7.07799e-17	0.5	
0.42216	-0.0506005	0.5	
0.435719	7.07799e-17	0.5	
0.392836	-0.0823347	0.412468	
0.383333	0	0.5	
0.353873	0.0061299	0.416416	
0.392836	-0.0823347	0.412468	
0.490393	-0.0975452	0.5	
0.476132	-0.152637	0.402329	
0.495102	-0.0698146	0.4276	
0.392836	-0.0823347	0.412468	
0.476132	-0.152637	0.402329	
0.490393	-0.0975452	0.5	
0.399482	-0.123001	0.5	
-0.490343	0.0977967	0.758774	
-0.34853	0.148938	0.738537	
-0.330463	0.00145141	0.818132	
-0.354135	0.0170578	0.71226	
-0.323059	-0.0556697	0.636381	
-0.354135	0.0170578	0.71226	
-0.220621	-0.0913842	0.726535	
-0.259249	-0.00709893	0.664249	
-0.106066	-0.256066	0.5	
-0.0833333	-0.3	0.5	
-0.0850635	-0.240496	0.617991	
-0.129826	-0.346552	0.613476	
-0.330463	0.00145141	0.818132	
-0.207451	-0.082142	0.862889	
-0.302044	-0.0506462	1	
-0.340074	-0.13507	0.859051	
-0.0589256	-0.358926	0.5	
-0.03759	-0.31517	0.5	
-0.129826	-0.346552	0.613476	
-0.00306262	-0.296003	0.5718	
0.0589256	-0.358926	0.5	
0.154681	-0.352429	0.61086	
0.0761744	-0.268448	0.622464	
-0.00306262	-0.296003	0.5718	
-0.3	0.0833333	0.5	
-0.38814	0.0365087	0.609899	
-0.259187	0.0363748	0.591328	
-0.268272	0.128138	0.588733	
0.0913842	0.220621	0.740584	
-0.0243888	0.144613	0.834462	
-0.0268842	0.224117	0.746658	
0.0742945	0.125166	0.760039	
-0.3	0.0833333	0.5	
-0.259187	0.0363748	0.591328	
-0.38814	0.0365087	0.609899	
-0.32522	-0.00468432	0.575656	
-0.03759	-0.31517	0.5	
-0.0833333	-0.3	0.5	
-0.129826	-0.346552	0.613476	
-0.00306262	-0.296003	0.5718	
-0.231974	-0.22452	0.832256	
-0.189073	-0.267802	0.673143	
-0.0978573	-0.216654	0.738076	
-0.220163	-0.339708	0.738499	
-0.0328721	-0.370689	1	
-0.0422582	-0.437473	1	
-0.0603308	-0.338175	0.849262	
0.0283953	-0.39231	0.890404	
0.249439	0.227985	0.5	
0.221409	0.189735	0.5	
0.271058	0.153206	0.5	
0.193696	0.165595	0.572294	
0.0913842	0.220621	0.740584	
0.0742945	0.125166	0.760039	
0.157976	0.137423	0.708763	
0.217923	0.147902	0.790128	
-0.330463	0.00145141	0.818132	
-0.34853	0.148938	0.738537	
-0.490343	0.0977967	0.758774	
-0.3732	0.0934614	0.886553	
-0.0188603	-0.349288	0.644317	
-0.114558	-0.356703	0.732324	
0.0203259	-0.249482	0.748458	
-0.00577358	-0.254916	0.661058	
0.0785366	-0.11627	0.823358	
0.100041	-0.0381212	0.736861	
0.0819669	-0.126701	0.660191	
-0.00154855	-0.114907	0.739634	
-0.302044	-0.0506462	1	
-0.207451	-0.082142	0.862889	
-0.330463	0.00145141	0.818132	
-0.261224	0.0578819	0.892654	
-0.0589256	-0.358926	0.5	
-0.0188603	-0.349288	0.644317	
-0.129826	-0.346552	0.613476	
0.0212569	-0.409526	0.586364	
0.0913842	0.220621	0.740584	
0.140223	0.195959	0.866253	
0.180554	0.223326	0.725764	
0.0669598	0.264617	0.818251	
-0.0589256	-0.358926	0.5	
-0.129826	-0.346552	0.613476	
-0.0506005	-0.42216	0.5	
0.0212569	-0.409526	0.586364	
0.470916	-0.168043	0.699874	
0.346453	-0.0782039	0.737808	
0.311042	-0.160939	0.648474	
0.327694	-0.196387	0.7647	
0.0819669	-0.126701	0.660191	
0.100041	-0.0381212	0.736861	
0.0785366	-0.11627	0.823358	
0.142999	-0.18326	0.747043	
0.0913842	0.220621	0.740584	
0.180554	0.223326	0.725764	
0.133662	0.297003	0.732987	
0.0669598	0.264617	0.818251	
0.161285	-0.0150511	0.638026	
0.275364	-0.0865903	0.678068	
0.204037	0.0208987	0.737245	
0.163343	-0.0947766	0.678001	
-0.437078	-0.242822	0.847009	
-0.337623	-0.15776	0.722835	
-0.340074	-0.13507	0.859051	
-0.288147	-0.263663	0.736531	
0.0248177	-0.313374	1	
0.00964811	-0.213747	0.871732	
0.11106	-0.333093	0.843975	
0.0283953	-0.39231	0.890404	
0.0913842	0.220621	0.740584	
-0.0243888	0.144613	0.834462	
0.0742945	0.125166	0.760039	
0.0669598	0.264617	0.818251	
0.100041	-0.0381212	0.736861	
0.189747	-0.143359	0.830553	
0.220621	-0.0913842	0.746309	
0.111146	-0.0163362	0.82287	
0.299946	-0.0112682	0.640667	
0.161285	-0.0150511	0.638026	
0.251946	-0.0814223	0.593798	
0.275364	-0.0865903	0.678068	
-0.106066	-0.256066	0.5	
-0.153206	-0.271058	0.5	
-0.0833333	-0.3	0.5	
-0.129826	-0.346552	0.613476	
0.435719	7.07799e-17	0.5	
0.350518	0.0203259	0.577676	
0.385774	-0.0819641	0.609834	
0.41725	0.0179908	0.649594	
-0.340074	-0.13507	0.859051	
-0.288147	-0.263663	0.736531	
-0.337623	-0.15776	0.722835	
-0.270142	-0.144141	0.791801	
0.374193	0.331632	0.834643	
0.307884	0.246632	0.880034	
0.241126	0.246812	0.788674	
0.322027	0.213397	0.712919	
-0.0930725	0.0739765	0.647155	
-0.0882569	-0.0365572	0.592669	
-0.18468	-0.0140346	0.624264	
-0.130814	0.0354375	0.582428	
0.0734599	0.0912867	0.653108	
0.19713	0.0957524	0.613371	
0.161285	-0.0150511	0.638026	
0.0882618	0.0365592	0.582606	
0.19713	0.0957524	0.613371	
0.120479	0.115187	0.58227	
0.200864	0.212078	0.638362	
0.193696	0.165595	0.572294	
0.0819669	-0.126701	0.660191	
0.142999	-0.18326	0.747043	
0.0785366	-0.11627	0.823358	
-0.00154855	-0.114907	0.739634	
-0.332133	0.18678	0.621599	
-0.345553	0.109975	0.5	
-0.268272	0.128138	0.588733	
-0.395918	0.121742	0.65735	
-0.437078	-0.242822	0.847009	
-0.288147	-0.263663	0.736531	
-0.340074	-0.13507	0.859051	
-0.317305	-0.233685	0.899359	
0.204037	0.0208987	0.737245	
0.275364	-0.0865903	0.678068	
0.161285	-0.0150511	0.638026	
0.237957	0.0412258	0.662892	
0.0761744	-0.268448	0.622464	
-0.00306262	-0.296003	0.5718	
0.154681	-0.352429	0.61086	
0.0212569	-0.409526	0.586364	
0.470916	-0.168043	0.699874	
0.311042	-0.160939	0.648474	
0.346453	-0.0782039	0.737808	
0.385774	-0.0819641	0.609834	
0.0203259	-0.249482	0.748458	
-0.114558	-0.356703	0.732324	
-0.0978573	-0.216654	0.738076	
-0.00577358	-0.254916	0.661058	
0.193272	-0.26142	0.670684	
0.142999	-0.18326	0.747043	
0.233778	-0.237115	0.8353	
0.22816	-0.174755	0.697122	
0.0589256	-0.358926	0.5	
0.154681	-0.352429	0.61086	
-0.00306262	-0.296003	0.5718	
0.0212569	-0.409526	0.586364	
-0.302044	-0.0506462	1	
-0.330463	0.00145141	0.818132	
-0.340074	-0.13507	0.859051	
-0.398507	-0.0483311	0.885387	
-0.0978573	-0.216654	0.738076	
-0.114558	-0.356703	0.732324	
-0.0850635	-0.240496	0.617991	
-0.00577358	-0.254916	0.661058	
-0.106066	-0.256066	0.5	
-0.0850635	-0.240496	0.617991	
-0.153206	-0.271058	0.5	
-0.129826	-0.346552	0.613476	
0.161285	-0.0150511	0.638026	
0.19713	0.0957524	0.613371	
0.0734599	0.0912867	0.653108	
0.117798	0.0518077	0.724107	
0.0913842	0.220621	0.740584	
0.140223	0.195959	0.866253	
0.0742945	0.125166	0.760039	
0.217923	0.147902	0.790128	
-0.0814439	-0.125985	0.656453	
-0.0978573	-0.216654	0.738076	
-0.00577358	-0.254916	0.661058	
0.000308877	-0.122536	0.656981	
-0.340074	-0.13507	0.859051	
-0.317305	-0.233685	0.899359	
-0.288147	-0.263663	0.736531	
-0.270142	-0.144141	0.791801	
0.161285	-0.0150511	0.638026	
0.0882618	0.0365592	0.582606	
0.19713	0.0957524	0.613371	
0.165404	0.026433	0.57138	
-0.0243888	0.144613	0.834462	
-0.0983601	0.156434	1	
-0.0748341	0.245459	0.898908	
-0.0884799	0.0810843	0.89303	
-0.0243888	0.144613	0.834462	
0.0913842	0.220621	0.740584	
-0.0268842	0.224117	0.746658	
0.0669598	0.264617	0.818251	
-0.154067	0.200523	0.744733	
-0.1493	0.167608	0.873324	
-0.161164	0.309138	0.850572	
-0.265307	0.263707	0.765082	
0.200864	0.212078	0.638362	
0.157976	0.137423	0.708763	
0.094036	0.192335	0.606134	
0.120479	0.115187	0.58227	
-0.216667	3.67394e-17	0.5	
-0.259187	0.0363748	0.591328	
-0.18468	-0.0140346	0.624264	
-0.130814	0.0354375	0.582428	
0.0248177	-0.313374	1	
0.0943468	-0.245334	1	
0.11106	-0.333093	0.843975	
0.00964811	-0.213747	0.871732	
0.220621	-0.0913842	0.746309	
0.142999	-0.18326	0.747043	
0.100041	-0.0381212	0.736861	
0.163343	-0.0947766	0.678001	
-0.436762	0.243391	0.903062	
-0.389036	0.207425	1	
-0.328307	0.16356	1	
-0.272957	0.274415	0.886959	
-0.268448	0.0761744	0.677974	
-0.354135	0.0170578	0.71226	
-0.22856	0.0108682	0.750263	
-0.222068	0.116218	0.765206	
-0.00425413	0.131001	1	
-0.0983601	0.156434	1	
-0.0243888	0.144613	0.834462	
-0.0884799	0.0810843	0.89303	
-0.0983601	0.156434	1	
-0.00425413	0.131001	1	
-0.0243888	0.144613	0.834462	
-0.0748341	0.245459	0.898908	
-0.231974	-0.22452	0.832256	
-0.0978573	-0.216654	0.738076	
-0.182538	-0.337413	0.833302	
-0.220163	-0.339708	0.738499	
0.0589256	-0.358926	0.5	
0.0761744	-0.268448	0.622464	
0.0833333	-0.3	0.5	
-0.00306262	-0.296003	0.5718	
-0.0850635	-0.240496	0.617991	
-0.129826	-0.346552	0.613476	
-0.0833333	-0.3	0.5	
-0.00306262	-0.296003	0.5718	
-0.122616	-0.0499791	0.5	
-0.152663	-6.75805e-05	0.5	
-0.18203	-0.0488646	0.5	
-0.0882569	-0.0365572	0.592669	
-0.354135	0.0170578	0.71226	
-0.22856	0.0108682	0.750263	
-0.220621	-0.0913842	0.726535	
-0.259249	-0.00709893	0.664249	
0.431857	0.0465403	0.5	
0.350518	0.0203259	0.577676	
0.435719	7.07799e-17	0.5	
0.41725	0.0179908	0.649594	
-0.268448	0.0761744	0.677974	
-0.34853	0.148938	0.738537	
-0.354135	0.0170578	0.71226	
-0.222068	0.116218	0.765206	
-0.153206	-0.271058	0.5	
-0.0850635	-0.240496	0.617991	
-0.106066	-0.256066	0.5	
-0.174064	-0.226232	0.58962	
-0.0188603	-0.349288	0.644317	
-0.0850635	-0.240496	0.617991	
-0.114558	-0.356703	0.732324	
-0.00577358	-0.254916	0.661058	
-0.0589256	-0.358926	0.5	
-0.03759	-0.31517	0.5	
-0.0833333	-0.3	0.5	
-0.129826	-0.346552	0.613476	
0.200864	0.212078	0.638362	
0.120479	0.115187	0.58227	
0.094036	0.192335	0.606134	
0.193696	0.165595	0.572294	
6.08826e-17	0.43599	0.5	
0.0465403	0.431857	0.5	
0	0.5	0.6	
0.0203259	0.350518	0.595017	
0.220621	-0.0913842	0.746309	
0.204037	0.0208987	0.737245	
0.275364	-0.0865903	0.678068	
0.163343	-0.0947766	0.678001	
0.200864	0.212078	0.638362	
0.19713	0.0957524	0.613371	
0.157976	0.137423	0.708763	
0.120479	0.115187	0.58227	
0.220621	-0.0913842	0.746309	
0.22816	-0.174755	0.697122	
0.327694	-0.196387	0.7647	
0.189747	-0.143359	0.830553	
0.249439	0.227985	0.5	
0.271058	0.153206	0.5	
0.295465	0.212132	0.5	
0.193696	0.165595	0.572294	
-0.38814	0.0365087	0.609899	
-0.268272	0.128138	0.588733	
-0.345553	0.109975	0.5	
-0.395918	0.121742	0.65735	
0.0785366	-0.11627	0.823358	
-0.00154855	-0.114907	0.739634	
0.00964811	-0.213747	0.871732	
-0.028625	-0.0663675	0.813721	
-0.437078	-0.242822	0.847009	
-0.434698	-0.247057	0.749501	
-0.337623	-0.15776	0.722835	
-0.288147	-0.263663	0.736531	
0.374193	0.331632	0.834643	
0.241126	0.246812	0.788674	
0.376757	0.328716	0.746468	
0.322027	0.213397	0.712919	
-0.26105	0.203399	1	
-0.1493	0.167608	0.873324	
-0.28117	0.160675	0.841981	
-0.272957	0.274415	0.886959	
0.0913842	0.220621	0.740584	
0.217923	0.147902	0.790128	
0.157976	0.137423	0.708763	
0.180554	0.223326	0.725764	
0.271058	0.153206	0.5	
0.283872	0.123177	0.588485	
0.295465	0.212132	0.5	
0.193696	0.165595	0.572294	
0.0248177	-0.313374	1	
-0.0603308	-0.338175	0.849262	
0.00964811	-0.213747	0.871732	
0.0283953	-0.39231	0.890404	
-0.18468	-0.0140346	0.624264	
-0.0882569	-0.0365572	0.592669	
-0.0930725	0.0739765	0.647155	
-0.127176	-0.00609761	0.727567	
0.300884	0.198715	1	
0.376293	0.169886	0.910318	
0.226887	0.111044	0.884387	
0.22997	0.198341	0.863468	
-0.00425413	0.131001	1	
0.0333325	0.222426	0.893441	
-0.0243888	0.144613	0.834462	
-0.0748341	0.245459	0.898908	
0.11106	-0.333093	0.843975	
0.00964811	-0.213747	0.871732	
0.0943468	-0.245334	1	
0.129352	-0.205365	0.887641	
-0.316847	0.386792	0.801384	
-0.161164	0.309138	0.850572	
-0.265307	0.263707	0.765082	
-0.23213	0.339095	0.696865	
-0.345553	0.109975	0.5	
-0.358926	0.0589256	0.5	
-0.3	0.0833333	0.5	
-0.38814	0.0365087	0.609899	
-0.220621	-0.0913842	0.726535	
-0.354135	0.0170578	0.71226	
-0.323059	-0.0556697	0.636381	
-0.387166	-0.0714815	0.763327	
-0.216667	3.67394e-17	0.5	
-0.185212	0.0538339	0.5	
-0.259187	0.0363748	0.591328	
-0.130814	0.0354375	0.582428	
-0.0589256	-0.358926	0.5	
-0.129826	-0.346552	0.613476	
-0.0188603	-0.349288	0.644317	
-0.00306262	-0.296003	0.5718	
0.25658	-0.429146	0.66876	
0.193272	-0.26142	0.670684	
0.317206	-0.386498	0.700322	
0.237843	-0.32244	0.584415	
0.317206	-0.386498	0.700322	
0.193272	-0.26142	0.670684	
0.292602	-0.250468	0.688523	
0.237843	-0.32244	0.584415	
-0.358926	0.0589256	0.5	
-0.3	0.0833333	0.5	
-0.38814	0.0365087	0.609899	
-0.32522	-0.00468432	0.575656	
0.140223	0.195959	0.866253	
0.0742945	0.125166	0.760039	
0.0333325	0.222426	0.893441	
0.0669598	0.264617	0.818251	
-0.0814439	-0.125985	0.656453	
-0.174064	-0.226232	0.58962	
-0.158586	-0.105655	0.59825	
-0.0814439	-0.125985	0.575026	
0.11106	-0.333093	0.843975	
0.00964811	-0.213747	0.871732	
0.0203259	-0.249482	0.748458	
-0.050212	-0.252969	0.810638	
-0.0422582	-0.437473	1	
-0.0684459	-0.495293	0.931403	
-0.0603308	-0.338175	0.849262	
0.0283953	-0.39231	0.890404	
0.142999	-0.18326	0.747043	
-0.00154855	-0.114907	0.739634	
0.0819669	-0.126701	0.660191	
0.0780409	-0.210867	0.691426	
-0.189073	-0.267802	0.673143	
-0.231974	-0.22452	0.832256	
-0.0978573	-0.216654	0.738076	
-0.173622	-0.15656	0.786805	
0.0785366	-0.11627	0.823358	
0.189747	-0.143359	0.830553	
0.100041	-0.0381212	0.736861	
0.111146	-0.0163362	0.82287	
0.214973	-0.334693	0.892974	
0.335277	-0.219266	0.871103	
0.233778	-0.237115	0.8353	
0.237523	-0.1744	0.906763	
0.140223	0.195959	0.866253	
0.133662	0.297003	0.732987	
0.180554	0.223326	0.725764	
0.0669598	0.264617	0.818251	
-0.18644	0.1823	1	
-0.1493	0.167608	0.873324	
-0.26105	0.203399	1	
-0.272957	0.274415	0.886959	
-0.493389	0.0810399	0.85285	
-0.330463	0.00145141	0.818132	
-0.490343	0.0977967	0.758774	
-0.3732	0.0934614	0.886553	
0.0209546	0.0362755	1	
0.067514	0.114479	0.890799	
0.0395279	-8.66572e-05	0.873882	
-0.0884799	0.0810843	0.89303	
-0.0112682	-5.37735e-05	0.751437	
0.0739457	-0.0375145	0.646536	
-0.0531387	-0.0402198	0.678728	
0.0370897	0.0247951	0.688096	
-0.114467	-0.386332	1	
-0.0328721	-0.370689	1	
-0.0422582	-0.437473	1	
-0.0603308	-0.338175	0.849262	
-0.152663	-6.75805e-05	0.5	
-0.18468	-0.0140346	0.624264	
-0.0882569	-0.0365572	0.592669	
-0.130814	0.0354375	0.582428	
-0.0698189	-0.495101	0.572379	
-0.129826	-0.346552	0.613476	
-0.0188603	-0.349288	0.644317	
0.0212569	-0.409526	0.586364	
-0.161164	0.309138	0.850572	
-0.265307	0.263707	0.765082	
-0.1493	0.167608	0.873324	
-0.272957	0.274415	0.886959	
0.376757	0.328716	0.746468	
0.241126	0.246812	0.788674	
0.216396	0.318788	0.694105	
0.322027	0.213397	0.712919	
0.193272	-0.26142	0.670684	
0.154681	-0.352429	0.61086	
0.25658	-0.429146	0.66876	
0.200775	-0.327859	0.767733	
0.317206	-0.386498	0.700322	
0.193272	-0.26142	0.670684	
0.25658	-0.429146	0.66876	
0.200775	-0.327859	0.767733	
-0.3	0.0833333	0.5	
-0.345553	0.109975	0.5	
-0.38814	0.0365087	0.609899	
-0.268272	0.128138	0.588733	
0.299946	-0.0112682	0.640667	
0.161285	-0.0150511	0.638026	
0.275364	-0.0865903	0.678068	
0.237957	0.0412258	0.662892	
0.450285	-0.217356	0.644698	
0.311042	-0.160939	0.648474	
0.470916	-0.168043	0.699874	
0.385774	-0.0819641	0.609834	
-0.201912	0.369986	1	
-0.161164	0.309138	0.850572	
-0.235698	0.440961	0.931431	
-0.0728697	0.385983	0.897183	
0.00964811	-0.213747	0.871732	
-0.00154855	-0.114907	0.739634	
-0.085688	-0.137167	0.83131	
-0.028625	-0.0663675	0.813721	
-0.330463	0.00145141	0.818132	
-0.354135	0.0170578	0.71226	
-0.34853	0.148938	0.738537	
-0.222068	0.116218	0.765206	
0.4284	-0.257824	0.704976	
0.470916	-0.168043	0.699874	
0.450285	-0.217356	0.644698	
0.311042	-0.160939	0.648474	
0.241126	0.246812	0.788674	
0.140223	0.195959	0.866253	
0.130793	0.331529	0.821778	
0.180554	0.223326	0.725764	
0.0333325	0.222426	0.893441	
0.0742945	0.125166	0.760039	
-0.0243888	0.144613	0.834462	
0.0669598	0.264617	0.818251	
0.450285	-0.217356	0.644698	
0.311042	-0.160939	0.648474	
0.385774	-0.0819641	0.609834	
0.351409	-0.224603	0.596537	
-0.0814439	-0.125985	0.656453	
-0.00154855	-0.114907	0.739634	
-0.0978573	-0.216654	0.738076	
0.000308877	-0.122536	0.656981	
-0.154067	0.200523	0.744733	
-0.28117	0.160675	0.841981	
-0.1493	0.167608	0.873324	
-0.265307	0.263707	0.765082	
0.140223	0.195959	0.866253	
0.217923	0.147902	0.790128	
0.0913842	0.220621	0.740584	
0.180554	0.223326	0.725764	
0.193272	-0.26142	0.670684	
0.22816	-0.174755	0.697122	
0.233778	-0.237115	0.8353	
0.294198	-0.285672	0.778149	
0.199592	-0.181859	0.5	
0.249439	-0.196279	0.5	
0.212132	-0.128799	0.5	
0.186731	-0.150807	0.612641	
0.249439	0.227985	0.5	
0.295465	0.212132	0.5	
0.300272	0.248641	0.604822	
0.193696	0.165595	0.572294	
-0.0112682	-5.37735e-05	0.751437	
0.0739457	-0.0375145	0.646536	
-0.00154855	-0.114907	0.739634	
-0.0531387	-0.0402198	0.678728	
0.140223	0.195959	0.866253	
0.067514	0.114479	0.890799	
0.0333325	0.222426	0.893441	
0.0742945	0.125166	0.760039	
0.0203259	-0.249482	0.748458	
-0.00154855	-0.114907	0.739634	
0.00964811	-0.213747	0.871732	
0.0762998	-0.205219	0.804763	
0.130793	0.331529	0.821778	
0.180554	0.223326	0.725764	
0.140223	0.195959	0.866253	
0.133662	0.297003	0.732987	
0.0557946	0.181673	0.5	
1.83697e-17	0.216667	0.5	
0.00279483	0.150684	0.5	
0.016747	0.116372	0.584632	
0.0761744	-0.268448	0.622464	
0.0883483	-0.356203	0.717872	
-0.0188603	-0.349288	0.644317	
0.0212569	-0.409526	0.586364	
-0.174825	-0.196279	0.5	
-0.212132	-0.128799	0.5	
-0.224672	-0.181859	0.5	
-0.174064	-0.226232	0.58962	
-0.220621	-0.0913842	0.726535	
-0.245786	-0.164168	0.624683	
-0.167637	-0.166421	0.687024	
-0.270142	-0.144141	0.791801	
-0.0603308	-0.338175	0.849262	
0.00964811	-0.213747	0.871732	
0.11106	-0.333093	0.843975	
-0.050212	-0.252969	0.810638	
0.4284	0.257824	0.795024	
0.307884	0.246632	0.880034	
0.374193	0.331632	0.834643	
0.322027	0.213397	0.712919	
-0.0698189	-0.495101	0.572379	
-0.0506005	-0.42216	0.5	
-0.129826	-0.346552	0.613476	
0.0212569	-0.409526	0.586364	
-0.316847	0.386792	0.801384	
-0.247057	0.434698	0.749501	
-0.161164	0.309138	0.850572	
-0.23213	0.339095	0.696865	
0.25658	-0.429146	0.66876	
0.154681	-0.352429	0.61086	
0.193272	-0.26142	0.670684	
0.237843	-0.32244	0.584415	
0.0557946	0.181673	0.5	
1.83697e-17	0.216667	0.5	
0.016747	0.116372	0.584632	
0.0271287	0.256687	0.590103	
-0.330463	0.00145141	0.818132	
-0.22856	0.0108682	0.750263	
-0.354135	0.0170578	0.71226	
-0.222068	0.116218	0.765206	
0.331011	0.147461	0.830703	
0.307884	0.246632	0.880034	
0.4284	0.257824	0.795024	
0.322027	0.213397	0.712919	
-0.247057	0.434698	0.749501	
-0.144118	0.318457	0.733262	
-0.161164	0.309138	0.850572	
-0.23213	0.339095	0.696865	
0.299946	-0.0112682	0.640667	
0.251946	-0.0814223	0.593798	
0.161285	-0.0150511	0.638026	
0.24433	0.0230591	0.580906	
-0.249722	-0.227302	0.5	
-0.271058	-0.271058	0.5	
-0.212132	-0.295465	0.5	
-0.174064	-0.226232	0.58962	
0.100041	-0.0381212	0.736861	
0.142999	-0.18326	0.747043	
0.0819669	-0.126701	0.660191	
0.163343	-0.0947766	0.678001	
0.200864	0.212078	0.638362	
0.300272	0.248641	0.604822	
0.322027	0.213397	0.712919	
0.274515	0.174272	0.655082	
0.00964811	-0.213747	0.871732	
-0.00334546	-0.102756	0.895053	
-0.085688	-0.137167	0.83131	
-0.144759	-0.143126	0.912403	
-0.437078	-0.242822	0.847009	
-0.386792	-0.316847	0.801384	
-0.288147	-0.263663	0.736531	
-0.317305	-0.233685	0.899359	
0.19713	0.0957524	0.613371	
0.117798	0.0518077	0.724107	
0.161285	-0.0150511	0.638026	
0.237957	0.0412258	0.662892	
-0.0930725	0.0739765	0.647155	
-0.127176	-0.00609761	0.727567	
-0.0882569	-0.0365572	0.592669	
-0.0531387	-0.0402198	0.678728	
-0.119993	0.246691	1	
-0.1493	0.167608	0.873324	
-0.161164	0.309138	0.850572	
-0.0748341	0.245459	0.898908	
0.376757	0.328716	0.746468	
0.216396	0.318788	0.694105	
0.241126	0.246812	0.788674	
0.224036	0.344788	0.789803	
-0.256066	0.106066	0.5	
-0.241074	0.0589256	0.5	
-0.212132	0.128799	0.5	
-0.268272	0.128138	0.588733	
0.199592	-0.181859	0.5	
0.221409	-0.234529	0.5	
0.26032	-0.233647	0.595602	
0.163252	-0.248876	0.586706	
0.016747	0.116372	0.584632	
0.0271287	0.256687	0.590103	
1.83697e-17	0.216667	0.5	
-0.0595377	0.207843	0.570115	
-0.152663	-6.75805e-05	0.5	
-0.216667	3.67394e-17	0.5	
-0.18468	-0.0140346	0.624264	
-0.130814	0.0354375	0.582428	
-0.153206	0.153206	0.5	
-0.123171	0.237068	0.613094	
-0.128799	0.212132	0.5	
-0.212186	0.200864	0.578994	
-0.1493	0.167608	0.873324	
-0.265307	0.263707	0.765082	
-0.28117	0.160675	0.841981	
-0.272957	0.274415	0.886959	
-0.328307	0.16356	1	
-0.28117	0.160675	0.841981	
-0.436762	0.243391	0.903062	
-0.272957	0.274415	0.886959	
0.241126	0.246812	0.788674	
0.180554	0.223326	0.725764	
0.130793	0.331529	0.821778	
0.133662	0.297003	0.732987	
-0.0112682	-5.37735e-05	0.751437	
0.100041	-0.0381212	0.736861	
0.0739457	-0.0375145	0.646536	
0.0370897	0.0247951	0.688096	
-0.0638367	-0.295761	1	
0.0248177	-0.313374	1	
-0.0603308	-0.338175	0.849262	
0.00964811	-0.213747	0.871732	
-0.0882569	-0.0365572	0.592669	
-0.127176	-0.00609761	0.727567	
-0.18468	-0.0140346	0.624264	
-0.14162	-0.0686737	0.672454	
-0.493389	0.0810399	0.85285	
-0.5	0	0.8	
-0.490343	0.0977967	0.758774	
-0.330463	0.00145141	0.818132	
-0.0112682	-5.37735e-05	0.751437	
-0.0155726	0.113982	0.720278	
-0.0930725	0.0739765	0.647155	
-0.118181	0.0989473	0.748679	
0.0203259	-0.249482	0.748458	
-0.114558	-0.356703	0.732324	
-0.0188603	-0.349288	0.644317	
-0.0103711	-0.392711	0.762225	
0.295465	0.212132	0.5	
0.283872	0.123177	0.588485	
0.300272	0.248641	0.604822	
0.193696	0.165595	0.572294	
0.0203259	-0.249482	0.748458	
0.00964811	-0.213747	0.871732	
-0.00154855	-0.114907	0.739634	
-0.050212	-0.252969	0.810638	
-0.28117	0.160675	0.841981	
-0.265307	0.263707	0.765082	
-0.428195	0.258165	0.798245	
-0.272957	0.274415	0.886959	
0.161285	-0.0150511	0.638026	
0.24433	0.0230591	0.580906	
0.251946	-0.0814223	0.593798	
0.190149	-0.0438256	0.575538	
0.0557946	0.181673	0.5	
0.016747	0.116372	0.584632	
0.094036	0.192335	0.606134	
0.0271287	0.256687	0.590103	
-0.1493	0.167608	0.873324	
-0.165601	0.0438592	0.827911	
-0.0884799	0.0810843	0.89303	
-0.185651	-0.000811148	0.912479	
-0.085688	-0.137167	0.83131	
-0.00154855	-0.114907	0.739634	
0.00964811	-0.213747	0.871732	
-0.050212	-0.252969	0.810638	
0.200864	0.212078	0.638362	
0.322027	0.213397	0.712919	
0.216396	0.318788	0.694105	
0.180554	0.223326	0.725764	
-0.389036	0.207425	1	
-0.436762	0.243391	0.903062	
-0.328307	0.16356	1	
-0.3732	0.0934614	0.886553	
-0.0201888	0.188065	0.634	
0.0271287	0.256687	0.590103	
0.016747	0.116372	0.584632	
-0.0595377	0.207843	0.570115	
-0.153206	0.153206	0.5	
-0.128799	0.212132	0.5	
-0.123171	0.237068	0.613094	
-0.0835252	0.135066	0.582318	
1.83697e-17	0.216667	0.5	
0.00279483	0.150684	0.5	
0.016747	0.116372	0.584632	
-0.0595377	0.207843	0.570115	
-0.0112682	-5.37735e-05	0.751437	
0.100041	-0.0381212	0.736861	
-0.00154855	-0.114907	0.739634	
0.0739457	-0.0375145	0.646536	
0.193272	-0.26142	0.670684	
0.186731	-0.150807	0.612641	
0.100353	-0.184453	0.588762	
0.0780409	-0.210867	0.691426	
0.186731	-0.150807	0.612641	
0.193272	-0.26142	0.670684	
0.100353	-0.184453	0.588762	
0.163252	-0.248876	0.586706	
0.435719	7.07799e-17	0.5	
0.42216	-0.0506005	0.5	
0.385774	-0.0819641	0.609834	
0.350518	0.0203259	0.577676	
0.0333325	0.222426	0.893441	
0.067514	0.114479	0.890799	
-0.0243888	0.144613	0.834462	
0.0742945	0.125166	0.760039	
0.247868	0.146306	1	
0.226887	0.111044	0.884387	
0.300884	0.198715	1	
0.376293	0.169886	0.910318	
-0.214341	0.273759	1	
-0.161164	0.309138	0.850572	
-0.119993	0.246691	1	
-0.1493	0.167608	0.873324	
-0.490343	0.0977967	0.758774	
-0.330463	0.00145141	0.818132	
-0.5	0	0.8	
-0.354135	0.0170578	0.71226	
-0.0112682	-5.37735e-05	0.751437	
-0.0930725	0.0739765	0.647155	
-0.127176	-0.00609761	0.727567	
-0.118181	0.0989473	0.748679	
-0.235698	0.440961	0.931431	
-0.161164	0.309138	0.850572	
-0.201912	0.369986	1	
-0.272957	0.274415	0.886959	
0.200864	0.212078	0.638362	
0.322027	0.213397	0.712919	
0.180554	0.223326	0.725764	
0.274515	0.174272	0.655082	
0.470916	-0.168043	0.699874	
0.311042	-0.160939	0.648474	
0.4284	-0.257824	0.704976	
0.327694	-0.196387	0.7647	
-0.0814439	-0.125985	0.656453	
-0.0850635	-0.240496	0.617991	
-0.174064	-0.226232	0.58962	
-0.0814439	-0.125985	0.575026	
-0.16685	0.0883447	1	
-0.1493	0.167608	0.873324	
-0.0884799	0.0810843	0.89303	
-0.185651	-0.000811148	0.912479	
-0.207451	-0.082142	0.862889	
-0.22856	0.0108682	0.750263	
-0.220621	-0.0913842	0.726535	
-0.270142	-0.144141	0.791801	
-0.330463	0.00145141	0.818132	
-0.34853	0.148938	0.738537	
-0.28117	0.160675	0.841981	
-0.222068	0.116218	0.765206	
-0.177179	0.127748	0.603282	
-0.259187	0.0363748	0.591328	
-0.185212	0.0538339	0.5	
-0.130814	0.0354375	0.582428	
-0.00154855	-0.114907	0.739634	
-0.0531387	-0.0402198	0.678728	
0.0739457	-0.0375145	0.646536	
0.000308877	-0.122536	0.656981	
-0.220621	-0.0913842	0.726535	
-0.323059	-0.0556697	0.636381	
-0.337623	-0.15776	0.722835	
-0.387166	-0.0714815	0.763327	
0.220621	-0.0913842	0.746309	
0.204037	0.0208987	0.737245	
0.100041	-0.0381212	0.736861	
0.111146	-0.0163362	0.82287	
-0.436762	0.243391	0.903062	
-0.28117	0.160675	0.841981	
-0.328307	0.16356	1	
-0.3732	0.0934614	0.886553	
0.226887	0.111044	0.884387	
0.388745	0.0776039	0.89546	
0.331011	0.147461	0.830703	
0.376293	0.169886	0.910318	
-0.153206	-0.153206	0.5	
-0.158586	-0.105655	0.59825	
-0.174064	-0.226232	0.58962	
-0.0814439	-0.125985	0.575026	
-0.153206	-0.153206	0.5	
-0.128799	-0.212132	0.5	
-0.097127	-0.15347	0.5	
-0.0814439	-0.125985	0.575026	
-0.212132	-0.128799	0.5	
-0.245786	-0.164168	0.624683	
-0.224672	-0.181859	0.5	
-0.174064	-0.226232	0.58962	
0.0761744	-0.268448	0.622464	
0.154681	-0.352429	0.61086	
0.0883483	-0.356203	0.717872	
0.0212569	-0.409526	0.586364	
-0.216667	3.67394e-17	0.5	
-0.18468	-0.0140346	0.624264	
-0.259187	0.0363748	0.591328	
-0.244257	-0.0838675	0.585674	
-0.214341	0.273759	1	
-0.161164	0.309138	0.850572	
-0.1493	0.167608	0.873324	
-0.272957	0.274415	0.886959	
-0.428195	0.258165	0.798245	
-0.265307	0.263707	0.765082	
-0.28117	0.160675	0.841981	
-0.34853	0.148938	0.738537	
-0.0978573	-0.216654	0.738076	
-0.114558	-0.356703	0.732324	
0.0203259	-0.249482	0.748458	
-0.050212	-0.252969	0.810638	
-0.0112682	-5.37735e-05	0.751437	
-0.0930725	0.0739765	0.647155	
-0.0155726	0.113982	0.720278	
-0.0139985	0.0766371	0.645768	
0.249439	-0.196279	0.5	
0.186731	-0.150807	0.612641	
0.199592	-0.181859	0.5	
0.26032	-0.233647	0.595602	
0.193272	-0.26142	0.670684	
0.233778	-0.237115	0.8353	
0.142999	-0.18326	0.747043	
0.200775	-0.327859	0.767733	
-0.0930725	0.0739765	0.647155	
-0.0112682	-5.37735e-05	0.751437	
-0.0531387	-0.0402198	0.678728	
-0.0139985	0.0766371	0.645768	
0.0734599	0.0912867	0.653108	
0.0882618	0.0365592	0.582606	
0.161285	-0.0150511	0.638026	
0.0739457	-0.0375145	0.646536	
-0.207451	-0.082142	0.862889	
-0.261224	0.0578819	0.892654	
-0.302044	-0.0506462	1	
-0.185651	-0.000811148	0.912479	
-0.18203	-0.0488646	0.5	
-0.122616	-0.0499791	0.5	
-0.0882569	-0.0365572	0.592669	
-0.158586	-0.105655	0.59825	
0.0734599	0.0912867	0.653108	
0.19713	0.0957524	0.613371	
0.0882618	0.0365592	0.582606	
0.120479	0.115187	0.58227	
0.374193	-0.331632	0.665357	
0.26032	-0.233647	0.595602	
0.292602	-0.250468	0.688523	
0.351409	-0.224603	0.596537	
0.299946	-0.0112682	0.640667	
0.357913	0.0406281	0.72441	
0.366719	0.098872	0.62645	
0.237957	0.0412258	0.662892	
-0.201912	0.369986	1	
-0.138674	0.323797	1	
-0.161164	0.309138	0.850572	
-0.0728697	0.385983	0.897183	
-0.114558	-0.356703	0.732324	
-0.182538	-0.337413	0.833302	
-0.0978573	-0.216654	0.738076	
-0.220163	-0.339708	0.738499	
0.14072	-0.0839746	1	
0.0982493	-0.0719344	0.910531	
0.183683	-0.0446088	0.866852	
0.237523	-0.1744	0.906763	
0.4284	0.257824	0.795024	
0.374193	0.331632	0.834643	
0.376757	0.328716	0.746468	
0.322027	0.213397	0.712919	
0.374193	-0.331632	0.665357	
0.26032	-0.233647	0.595602	
0.351409	-0.224603	0.596537	
0.237843	-0.32244	0.584415	
-0.212132	-0.295465	0.5	
-0.202855	-0.234529	0.5	
-0.249722	-0.227302	0.5	
-0.174064	-0.226232	0.58962	
0.299946	-0.0112682	0.640667	
0.24433	0.0230591	0.580906	
0.283872	0.123177	0.588485	
0.350518	0.0203259	0.577676	
0.0913842	0.220621	0.740584	
0.0742945	0.125166	0.760039	
0.140223	0.195959	0.866253	
0.0669598	0.264617	0.818251	
-0.153206	0.153206	0.5	
-0.177179	0.127748	0.603282	
-0.123171	0.237068	0.613094	
-0.212186	0.200864	0.578994	
0.241126	0.246812	0.788674	
0.307884	0.246632	0.880034	
0.331011	0.147461	0.830703	
0.322027	0.213397	0.712919	
-0.154067	0.200523	0.744733	
-0.0268842	0.224117	0.746658	
-0.0243888	0.144613	0.834462	
-0.118181	0.0989473	0.748679	
0.299946	-0.0112682	0.640667	
0.366719	0.098872	0.62645	
0.283872	0.123177	0.588485	
0.237957	0.0412258	0.662892	
0.399482	-0.123001	0.5	
0.351409	-0.224603	0.596537	
0.385774	-0.0819641	0.609834	
0.313135	-0.131023	0.572624	
0.220621	-0.0913842	0.746309	
0.327694	-0.196387	0.7647	
0.22816	-0.174755	0.697122	
0.275364	-0.0865903	0.678068	
0.220621	-0.0913842	0.746309	
0.255127	-0.0374614	0.810965	
0.204037	0.0208987	0.737245	
0.111146	-0.0163362	0.82287	
-0.268448	0.0761744	0.677974	
-0.259187	0.0363748	0.591328	
-0.38814	0.0365087	0.609899	
-0.268272	0.128138	0.588733	
-0.469721	0.171353	0.838334	
-0.428195	0.258165	0.798245	
-0.28117	0.160675	0.841981	
-0.34853	0.148938	0.738537	
0.299946	-0.0112682	0.640667	
0.283872	0.123177	0.588485	
0.24433	0.0230591	0.580906	
0.237957	0.0412258	0.662892	
0.0395279	-8.66572e-05	0.873882	
-0.0801278	-0.0255813	0.881784	
0.0209546	0.0362755	1	
-0.0884799	0.0810843	0.89303	
0.0999373	0.153076	0.5	
0.016747	0.116372	0.584632	
0.0535407	0.120642	0.5	
0.120479	0.115187	0.58227	
-0.0188603	-0.349288	0.644317	
0.0883483	-0.356203	0.717872	
0	-0.5	0.7	
0.0212569	-0.409526	0.586364	
-0.0684459	-0.495293	0.931403	
-0.114467	-0.386332	1	
-0.0422582	-0.437473	1	
-0.0603308	-0.338175	0.849262	
0.251946	-0.0814223	0.593798	
0.275364	-0.0865903	0.678068	
0.161285	-0.0150511	0.638026	
0.163343	-0.0947766	0.678001	
-0.168734	0.470668	0.798219	
-0.161164	0.309138	0.850572	
-0.144118	0.318457	0.733262	
-0.0413818	0.388755	0.761338	
0.0203259	-0.249482	0.748458	
0.0780409	-0.210867	0.691426	
-0.00577358	-0.254916	0.661058	
0.000308877	-0.122536	0.656981	
-0.0499791	-0.122616	0.5	
-6.75805e-05	-0.152663	0.5	
0.0324597	-0.0934166	0.587598	
-0.0814439	-0.125985	0.575026	
-0.0603308	-0.338175	0.849262	
-0.182538	-0.337413	0.833302	
-0.114467	-0.386332	1	
-0.123319	-0.239698	0.888651	
0.00964811	-0.213747	0.871732	
-0.00334546	-0.102756	0.895053	
0.0785366	-0.11627	0.823358	
-0.028625	-0.0663675	0.813721	
-0.189073	-0.267802	0.673143	
-0.167637	-0.166421	0.687024	
-0.288147	-0.263663	0.736531	
-0.173622	-0.15656	0.786805	
-0.288147	-0.263663	0.736531	
-0.317305	-0.233685	0.899359	
-0.231974	-0.22452	0.832256	
-0.270142	-0.144141	0.791801	
0.183683	-0.0446088	0.866852	
0.0982493	-0.0719344	0.910531	
0.189747	-0.143359	0.830553	
0.237523	-0.1744	0.906763	
-0.152663	-6.75805e-05	0.5	
-0.18468	-0.0140346	0.624264	
-0.18203	-0.0488646	0.5	
-0.0882569	-0.0365572	0.592669	
-0.231974	-0.22452	0.832256	
-0.182538	-0.337413	0.833302	
-0.0978573	-0.216654	0.738076	
-0.123319	-0.239698	0.888651	
0.0819669	-0.126701	0.660191	
0.142999	-0.18326	0.747043	
0.186731	-0.150807	0.612641	
0.163343	-0.0947766	0.678001	
0.140223	0.195959	0.866253	
0.226887	0.111044	0.884387	
0.158056	0.171884	1	
0.156034	0.0430169	0.909981	
-0.328307	0.16356	1	
-0.389036	0.207425	1	
-0.318983	0.261743	1	
-0.272957	0.274415	0.886959	
-0.153206	0.153206	0.5	
-0.123171	0.237068	0.613094	
-0.177179	0.127748	0.603282	
-0.0835252	0.135066	0.582318	
-0.323938	-0.380873	0.847739	
-0.231974	-0.22452	0.832256	
-0.288147	-0.263663	0.736531	
-0.317305	-0.233685	0.899359	
-0.0930725	0.0739765	0.647155	
-0.0112682	-5.37735e-05	0.751437	
-0.127176	-0.00609761	0.727567	
-0.0531387	-0.0402198	0.678728	
-0.249722	-0.227302	0.5	
-0.303215	-0.24986	0.599065	
-0.271058	-0.271058	0.5	
-0.174064	-0.226232	0.58962	
0.204037	0.0208987	0.737245	
0.285541	-0.0139074	0.728509	
0.275364	-0.0865903	0.678068	
0.237957	0.0412258	0.662892	
0.0203259	-0.249482	0.748458	
-0.00154855	-0.114907	0.739634	
0.0780409	-0.210867	0.691426	
0.000308877	-0.122536	0.656981	
0.189747	-0.143359	0.830553	
0.0982493	-0.0719344	0.910531	
0.129352	-0.205365	0.887641	
0.237523	-0.1744	0.906763	
-0.28117	0.160675	0.841981	
-0.1493	0.167608	0.873324	
-0.257956	0.116321	1	
-0.261224	0.0578819	0.892654	
0.140223	0.195959	0.866253	
0.158056	0.171884	1	
0.067514	0.114479	0.890799	
0.156034	0.0430169	0.909981	
0.00964811	-0.213747	0.871732	
-0.00154855	-0.114907	0.739634	
0.0785366	-0.11627	0.823358	
0.0762998	-0.205219	0.804763	
0.300884	0.198715	1	
0.307884	0.246632	0.880034	
0.376293	0.169886	0.910318	
0.22997	0.198341	0.863468	
0.204037	0.0208987	0.737245	
0.265971	0.0656026	0.794392	
0.135395	0.0692853	0.814132	
0.255127	-0.0374614	0.810965	
-0.00425413	0.131001	1	
0.067514	0.114479	0.890799	
0.0209546	0.0362755	1	
-0.0884799	0.0810843	0.89303	
-0.330463	0.00145141	0.818132	
-0.22856	0.0108682	0.750263	
-0.207451	-0.082142	0.862889	
-0.270142	-0.144141	0.791801	
-5.51091e-17	-0.216667	0.5	
-0.0589256	-0.241074	0.5	
-0.0125395	-0.269727	0.5	
-0.00306262	-0.296003	0.5718	
-5.51091e-17	-0.216667	0.5	
0.00796883	-0.184656	0.604274	
-0.0589256	-0.241074	0.5	
-0.00306262	-0.296003	0.5718	
0.435719	7.07799e-17	0.5	
0.383333	0	0.5	
0.42216	-0.0506005	0.5	
0.350518	0.0203259	0.577676	
-0.0243888	0.144613	0.834462	
-0.1493	0.167608	0.873324	
-0.154067	0.200523	0.744733	
-0.118181	0.0989473	0.748679	
0.106066	-0.256066	0.5	
0.0589256	-0.241074	0.5	
0.0761744	-0.268448	0.622464	
0.100353	-0.184453	0.588762	
-0.220621	-0.0913842	0.726535	
-0.337623	-0.15776	0.722835	
-0.245786	-0.164168	0.624683	
-0.270142	-0.144141	0.791801	
-0.189073	-0.267802	0.673143	
-0.0850635	-0.240496	0.617991	
-0.0978573	-0.216654	0.738076	
-0.114558	-0.356703	0.732324	
0.256066	0.106066	0.5	
0.19713	0.0957524	0.613371	
0.241074	0.0589256	0.5	
0.283872	0.123177	0.588485	
-0.0411735	0.316432	0.673786	
-0.0268842	0.224117	0.746658	
-0.0413818	0.388755	0.761338	
-0.0985684	0.251065	0.805476	
-0.302044	-0.0506462	1	
-0.340074	-0.13507	0.859051	
-0.207451	-0.082142	0.862889	
-0.250033	-0.160772	0.906432	
0.220621	-0.0913842	0.746309	
0.327694	-0.196387	0.7647	
0.294742	-0.119382	0.854292	
0.189747	-0.143359	0.830553	
-0.168734	0.470668	0.798219	
-0.161164	0.309138	0.850572	
-0.0413818	0.388755	0.761338	
-0.0728697	0.385983	0.897183	
0.0761744	-0.268448	0.622464	
-0.0188603	-0.349288	0.644317	
-0.00306262	-0.296003	0.5718	
0.0212569	-0.409526	0.586364	
0.337634	0.115561	1	
0.388745	0.0776039	0.89546	
0.226887	0.111044	0.884387	
0.376293	0.169886	0.910318	
0.327694	-0.196387	0.7647	
0.22816	-0.174755	0.697122	
0.233778	-0.237115	0.8353	
0.189747	-0.143359	0.830553	
-0.18468	-0.0140346	0.624264	
-0.130814	0.0354375	0.582428	
-0.259187	0.0363748	0.591328	
-0.177442	0.0578991	0.68267	
0.0589256	-0.358926	0.5	
0.0833333	-0.3	0.5	
0.0761744	-0.268448	0.622464	
0.154681	-0.352429	0.61086	
0.0203259	-0.249482	0.748458	
0.00964811	-0.213747	0.871732	
0.11106	-0.333093	0.843975	
0.0762998	-0.205219	0.804763	
0.11106	-0.333093	0.843975	
0.00964811	-0.213747	0.871732	
-0.0603308	-0.338175	0.849262	
0.0283953	-0.39231	0.890404	
-0.0589256	-0.241074	0.5	
-0.106066	-0.256066	0.5	
-0.0833333	-0.3	0.5	
-0.0850635	-0.240496	0.617991	
-0.436762	0.243391	0.903062	
-0.28117	0.160675	0.841981	
-0.428195	0.258165	0.798245	
-0.272957	0.274415	0.886959	
-0.330463	0.00145141	0.818132	
-0.3732	0.0934614	0.886553	
-0.493389	0.0810399	0.85285	
-0.398507	-0.0483311	0.885387	
0.186731	-0.150807	0.612641	
0.142999	-0.18326	0.747043	
0.0819669	-0.126701	0.660191	
0.0780409	-0.210867	0.691426	
0.193272	-0.26142	0.670684	
0.292602	-0.250468	0.688523	
0.22816	-0.174755	0.697122	
0.294198	-0.285672	0.778149	
-0.0814439	-0.125985	0.656453	
-0.00577358	-0.254916	0.661058	
0.00796883	-0.184656	0.604274	
0.000308877	-0.122536	0.656981	
-0.189073	-0.267802	0.673143	
-0.114558	-0.356703	0.732324	
-0.0978573	-0.216654	0.738076	
-0.220163	-0.339708	0.738499	
-0.128799	-0.212132	0.5	
-0.0488646	-0.18203	0.5	
-0.097127	-0.15347	0.5	
-0.0814439	-0.125985	0.575026	
0.232997	-0.11062	1	
0.294742	-0.119382	0.854292	
0.183683	-0.0446088	0.866852	
0.259967	0.0147254	0.905038	
-0.469721	0.171353	0.838334	
-0.34853	0.148938	0.738537	
-0.28117	0.160675	0.841981	
-0.3732	0.0934614	0.886553	
0.199592	0.242405	0.5	
0.221409	0.189735	0.5	
0.249439	0.227985	0.5	
0.193696	0.165595	0.572294	
0.300884	0.198715	1	
0.226887	0.111044	0.884387	
0.247868	0.146306	1	
0.22997	0.198341	0.863468	
0.11106	-0.333093	0.843975	
0.0883483	-0.356203	0.717872	
0.0854243	-0.492649	0.748597	
-0.0103711	-0.392711	0.762225	
0.100353	-0.184453	0.588762	
0.163252	-0.248876	0.586706	
0.193272	-0.26142	0.670684	
0.0780409	-0.210867	0.691426	
-0.1493	0.167608	0.873324	
-0.261224	0.0578819	0.892654	
-0.165601	0.0438592	0.827911	
-0.185651	-0.000811148	0.912479	
-0.437078	-0.242822	0.847009	
-0.386792	-0.316847	0.801384	
-0.434698	-0.247057	0.749501	
-0.288147	-0.263663	0.736531	
-0.0882569	-0.0365572	0.592669	
-0.0531387	-0.0402198	0.678728	
-0.127176	-0.00609761	0.727567	
-0.14162	-0.0686737	0.672454	
-0.0833019	-0.493012	0.655211	
-0.0188603	-0.349288	0.644317	
-0.0698189	-0.495101	0.572379	
-0.129826	-0.346552	0.613476	
0.153206	-0.271058	0.5	
0.106066	-0.256066	0.5	
0.0833333	-0.3	0.5	
0.163252	-0.248876	0.586706	
0.19713	0.0957524	0.613371	
0.157976	0.137423	0.708763	
0.117798	0.0518077	0.724107	
0.237957	0.0412258	0.662892	
-0.153206	-0.153206	0.5	
-0.158586	-0.105655	0.59825	
-0.212132	-0.128799	0.5	
-0.174064	-0.226232	0.58962	
0.193272	-0.26142	0.670684	
0.142999	-0.18326	0.747043	
0.186731	-0.150807	0.612641	
0.0780409	-0.210867	0.691426	
0.271058	-0.153206	0.5	
0.251946	-0.0814223	0.593798	
0.186731	-0.150807	0.612641	
0.313135	-0.131023	0.572624	
-0.345553	0.109975	0.5	
-0.332133	0.18678	0.621599	
-0.399482	0.123001	0.5	
-0.395918	0.121742	0.65735	
0.0999373	0.153076	0.5	
0.0557946	0.181673	0.5	
0.0535407	0.120642	0.5	
0.016747	0.116372	0.584632	
-0.0978573	-0.216654	0.738076	
-0.123319	-0.239698	0.888651	
-0.182538	-0.337413	0.833302	
-0.050212	-0.252969	0.810638	
6.08826e-17	0.43599	0.5	
0.0203259	0.350518	0.595017	
0	0.5	0.6	
-0.0634498	0.397211	0.588093	
-0.16685	0.0883447	1	
-0.261224	0.0578819	0.892654	
-0.1493	0.167608	0.873324	
-0.185651	-0.000811148	0.912479	
-0.0188603	-0.349288	0.644317	
-0.114558	-0.356703	0.732324	
-0.0850635	-0.240496	0.617991	
-0.129826	-0.346552	0.613476	
-0.217356	-0.450285	0.644698	
-0.114558	-0.356703	0.732324	
-0.129826	-0.346552	0.613476	
-0.220163	-0.339708	0.738499	
-0.0268842	0.224117	0.746658	
-0.0411735	0.316432	0.673786	
-0.0968356	0.250534	0.697531	
-0.0985684	0.251065	0.805476	
0.299946	-0.0112682	0.640667	
0.283872	0.123177	0.588485	
0.366719	0.098872	0.62645	
0.350518	0.0203259	0.577676	
0.106066	-0.256066	0.5	
0.0761744	-0.268448	0.622464	
0.0833333	-0.3	0.5	
0.163252	-0.248876	0.586706	
0.4284	-0.257824	0.704976	
0.311042	-0.160939	0.648474	
0.450285	-0.217356	0.644698	
0.351409	-0.224603	0.596537	
0.220621	-0.0913842	0.746309	
0.346453	-0.0782039	0.737808	
0.327694	-0.196387	0.7647	
0.275364	-0.0865903	0.678068	
0.199592	-0.181859	0.5	
0.26032	-0.233647	0.595602	
0.186731	-0.150807	0.612641	
0.163252	-0.248876	0.586706	
-0.153206	-0.153206	0.5	
-0.212132	-0.128799	0.5	
-0.174825	-0.196279	0.5	
-0.174064	-0.226232	0.58962	
0.0395279	-8.66572e-05	0.873882	
-0.0884799	0.0810843	0.89303	
0.067514	0.114479	0.890799	
0.0209079	0.0660845	0.809865	
0.153206	-0.153206	0.5	
0.199592	-0.181859	0.5	
0.186731	-0.150807	0.612641	
0.163252	-0.248876	0.586706	
0.0883483	-0.356203	0.717872	
0.154681	-0.352429	0.61086	
0.0814864	-0.493315	0.652319	
0.0212569	-0.409526	0.586364	
-0.0978573	-0.216654	0.738076	
-0.182538	-0.337413	0.833302	
-0.114558	-0.356703	0.732324	
-0.050212	-0.252969	0.810638	
0.374193	-0.331632	0.665357	
0.292602	-0.250468	0.688523	
0.26032	-0.233647	0.595602	
0.237843	-0.32244	0.584415	
0.331011	0.147461	0.830703	
0.226887	0.111044	0.884387	
0.376293	0.169886	0.910318	
0.22997	0.198341	0.863468	
-0.0589256	-0.241074	0.5	
0.00796883	-0.184656	0.604274	
-0.0850635	-0.240496	0.617991	
-0.00306262	-0.296003	0.5718	
0.0734599	0.0912867	0.653108	
0.0739457	-0.0375145	0.646536	
0.161285	-0.0150511	0.638026	
0.117798	0.0518077	0.724107	
-0.302044	-0.0506462	1	
-0.261224	0.0578819	0.892654	
-0.330463	0.00145141	0.818132	
-0.398507	-0.0483311	0.885387	
-0.201912	0.369986	1	
-0.118932	0.39861	1	
-0.138674	0.323797	1	
-0.0728697	0.385983	0.897183	
-0.085688	-0.137167	0.83131	
-0.00334546	-0.102756	0.895053	
0.00964811	-0.213747	0.871732	
-0.028625	-0.0663675	0.813721	
-0.271058	-0.153206	0.5	
-0.249722	-0.227302	0.5	
-0.224672	-0.181859	0.5	
-0.245786	-0.164168	0.624683	
-0.0833019	-0.493012	0.655211	
-0.114558	-0.356703	0.732324	
-0.0188603	-0.349288	0.644317	
-0.129826	-0.346552	0.613476	
0.183683	-0.0446088	0.866852	
0.265971	0.0656026	0.794392	
0.135395	0.0692853	0.814132	
0.156034	0.0430169	0.909981	
0.435719	7.07799e-17	0.5	
0.385774	-0.0819641	0.609834	
0.5	0	0.6	
0.41725	0.0179908	0.649594	
0.0589256	-0.358926	0.5	
0.12216	-0.350601	0.5	
0.0833333	-0.3	0.5	
0.154681	-0.352429	0.61086	
0.125573	-0.41396	1	
0.11106	-0.333093	0.843975	
0.112799	-0.33356	1	
0.214973	-0.334693	0.892974	
0.11106	-0.333093	0.843975	
0.129352	-0.205365	0.887641	
0.112799	-0.33356	1	
0.214973	-0.334693	0.892974	
0.346509	0.0237889	1	
0.388259	-0.0686204	0.893717	
0.332026	0.00704946	0.830563	
0.388745	0.0776039	0.89546	
-0.153206	0.153206	0.5	
-0.128799	0.212132	0.5	
-0.181859	0.199592	0.5	
-0.212186	0.200864	0.578994	
-0.18644	0.1823	1	
-0.214341	0.273759	1	
-0.1493	0.167608	0.873324	
-0.272957	0.274415	0.886959	
-0.0243888	0.144613	0.834462	
-0.0268842	0.224117	0.746658	
-0.154067	0.200523	0.744733	
-0.0985684	0.251065	0.805476	
0.153328	-0.47591	0.90763	
0.11106	-0.333093	0.843975	
0.125573	-0.41396	1	
0.214973	-0.334693	0.892974	
-0.249722	-0.227302	0.5	
-0.224672	-0.181859	0.5	
-0.245786	-0.164168	0.624683	
-0.174064	-0.226232	0.58962	
-0.288147	-0.263663	0.736531	
-0.173622	-0.15656	0.786805	
-0.167637	-0.166421	0.687024	
-0.270142	-0.144141	0.791801	
0.186731	-0.150807	0.612641	
0.0819669	-0.126701	0.660191	
0.100353	-0.184453	0.588762	
0.0780409	-0.210867	0.691426	
-0.153206	-0.153206	0.5	
-0.174064	-0.226232	0.58962	
-0.128799	-0.212132	0.5	
-0.0814439	-0.125985	0.575026	
-0.5	0	0.8	
-0.330463	0.00145141	0.818132	
-0.493389	0.0810399	0.85285	
-0.398507	-0.0483311	0.885387	
-0.0243888	0.144613	0.834462	
0.0333325	0.222426	0.893441	
-0.0268842	0.224117	0.746658	
-0.0985684	0.251065	0.805476	
-0.00154855	-0.114907	0.739634	
0.0780409	-0.210867	0.691426	
0.142999	-0.18326	0.747043	
0.0762998	-0.205219	0.804763	
0.164797	-0.177585	1	
0.129352	-0.205365	0.887641	
0.0982493	-0.0719344	0.910531	
0.237523	-0.1744	0.906763	
-0.259187	0.0363748	0.591328	
-0.130814	0.0354375	0.582428	
-0.177179	0.127748	0.603282	
-0.177442	0.0578991	0.68267	
0.130793	0.331529	0.821778	
0.133662	0.297003	0.732987	
0.140223	0.195959	0.866253	
0.0669598	0.264617	0.818251	
0.322027	0.213397	0.712919	
0.379144	0.136793	0.743369	
0.366719	0.098872	0.62645	
0.354508	0.178976	0.587224	
0.0807477	-0.493437	0.845776	
0.11106	-0.333093	0.843975	
0.0854243	-0.492649	0.748597	
-0.0103711	-0.392711	0.762225	
0.0785366	-0.11627	0.823358	
-0.00334546	-0.102756	0.895053	
0.129352	-0.205365	0.887641	
0.0982493	-0.0719344	0.910531	
-0.144862	-0.478555	0.921652	
-0.114467	-0.386332	1	
-0.0603308	-0.338175	0.849262	
-0.182538	-0.337413	0.833302	
0.256066	-0.106066	0.5	
0.212132	-0.128799	0.5	
0.271058	-0.153206	0.5	
0.251946	-0.0814223	0.593798	
0.19713	0.0957524	0.613371	
0.157976	0.137423	0.708763	
0.0734599	0.0912867	0.653108	
0.117798	0.0518077	0.724107	
-0.0243888	0.144613	0.834462	
-0.154067	0.200523	0.744733	
-0.1493	0.167608	0.873324	
-0.0985684	0.251065	0.805476	
-0.161164	0.309138	0.850572	
-0.144118	0.318457	0.733262	
-0.265307	0.263707	0.765082	
-0.23213	0.339095	0.696865	
0.0807477	-0.493437	0.845776	
0.11106	-0.333093	0.843975	
-0.0103711	-0.392711	0.762225	
0.0283953	-0.39231	0.890404	
-0.241074	0.0589256	0.5	
-0.185212	0.0538339	0.5	
-0.177179	0.127748	0.603282	
-0.259187	0.0363748	0.591328	
0.125362	-0.0795966	0.584968	
0.0882618	0.0365592	0.582606	
0.118934	-0.0478046	0.5	
0.0466381	-0.023308	0.56503	
-0.106984	0.108603	0.5	
-0.0835252	0.135066	0.582318	
-0.157073	0.0991372	0.5	
-0.130814	0.0354375	0.582428	
0.0712814	-0.153152	1	
0.129352	-0.205365	0.887641	
-0.00334546	-0.102756	0.895053	
0.0982493	-0.0719344	0.910531	
-0.168688	-0.281701	1	
-0.182538	-0.337413	0.833302	
-0.203173	-0.373024	1	
-0.235677	-0.292728	0.906663	
0.268691	0.110688	0.710369	
0.366719	0.098872	0.62645	
0.357913	0.0406281	0.72441	
0.237957	0.0412258	0.662892	
0.0712814	-0.153152	1	
0.129352	-0.205365	0.887641	
0.00964811	-0.213747	0.871732	
-0.00334546	-0.102756	0.895053	
-0.189073	-0.267802	0.673143	
-0.288147	-0.263663	0.736531	
-0.231974	-0.22452	0.832256	
-0.173622	-0.15656	0.786805	
0.135395	0.0692853	0.814132	
0.0742945	0.125166	0.760039	
0.140223	0.195959	0.866253	
0.217923	0.147902	0.790128	
-0.0268842	0.224117	0.746658	
0.0333325	0.222426	0.893441	
-0.00982413	0.311992	0.838847	
-0.0985684	0.251065	0.805476	
0.221409	-0.234529	0.5	
0.249439	-0.196279	0.5	
0.199592	-0.181859	0.5	
0.26032	-0.233647	0.595602	
0.332026	0.00704946	0.830563	
0.331011	0.147461	0.830703	
0.265971	0.0656026	0.794392	
0.259967	0.0147254	0.905038	
0.183683	-0.0446088	0.866852	
0.220621	-0.0913842	0.746309	
0.189747	-0.143359	0.830553	
0.111146	-0.0163362	0.82287	
0.300272	0.248641	0.604822	
0.186731	0.273457	0.579435	
0.249439	0.227985	0.5	
0.193696	0.165595	0.572294	
0.0785366	-0.11627	0.823358	
-0.00154855	-0.114907	0.739634	
0.142999	-0.18326	0.747043	
0.0762998	-0.205219	0.804763	
0.226887	0.111044	0.884387	
0.388745	0.0776039	0.89546	
0.337634	0.115561	1	
0.259967	0.0147254	0.905038	
0.200864	0.212078	0.638362	
0.186731	0.273457	0.579435	
0.300272	0.248641	0.604822	
0.193696	0.165595	0.572294	
-0.436762	0.243391	0.903062	
-0.318983	0.261743	1	
-0.389036	0.207425	1	
-0.272957	0.274415	0.886959	
-0.439458	0.238488	0.575692	
-0.399482	0.123001	0.5	
-0.381208	0.210225	0.5	
-0.332133	0.18678	0.621599	
0.299946	-0.0112682	0.640667	
0.24433	0.0230591	0.580906	
0.161285	-0.0150511	0.638026	
0.237957	0.0412258	0.662892	
-0.217356	-0.450285	0.644698	
-0.129826	-0.346552	0.613476	
-0.2318	-0.328499	0.599609	
-0.220163	-0.339708	0.738499	
-0.216667	3.67394e-17	0.5	
-0.259187	0.0363748	0.591328	
-0.26241	-0.01517	0.5	
-0.244257	-0.0838675	0.585674	
0.226887	0.111044	0.884387	
0.265971	0.0656026	0.794392	
0.331011	0.147461	0.830703	
0.259967	0.0147254	0.905038	
-0.165601	0.0438592	0.827911	
-0.22856	0.0108682	0.750263	
-0.207451	-0.082142	0.862889	
-0.261224	0.0578819	0.892654	
0.193272	-0.26142	0.670684	
0.233778	-0.237115	0.8353	
0.200775	-0.327859	0.767733	
0.294198	-0.285672	0.778149	
0.241074	0.0589256	0.5	
0.256066	0.106066	0.5	
0.212132	0.128799	0.5	
0.19713	0.0957524	0.613371	
0.314857	-0.257449	1	
0.335277	-0.219266	0.871103	
0.214973	-0.334693	0.892974	
0.237523	-0.1744	0.906763	
-0.469721	0.171353	0.838334	
-0.28117	0.160675	0.841981	
-0.436762	0.243391	0.903062	
-0.3732	0.0934614	0.886553	
0.493012	-0.0833019	0.655211	
0.385774	-0.0819641	0.609834	
0.346453	-0.0782039	0.737808	
0.41725	0.0179908	0.649594	
0.164797	-0.177585	1	
0.0982493	-0.0719344	0.910531	
0.14072	-0.0839746	1	
0.237523	-0.1744	0.906763	
-0.0925337	-0.196451	1	
-0.00334546	-0.102756	0.895053	
0.00964811	-0.213747	0.871732	
-0.144759	-0.143126	0.912403	
0.233778	-0.237115	0.8353	
0.335277	-0.219266	0.871103	
0.214973	-0.334693	0.892974	
0.294198	-0.285672	0.778149	
-0.00425413	0.131001	1	
-0.0243888	0.144613	0.834462	
0.067514	0.114479	0.890799	
-0.0884799	0.0810843	0.89303	
-0.0188603	-0.349288	0.644317	
-0.114558	-0.356703	0.732324	
-0.0833019	-0.493012	0.655211	
-0.0103711	-0.392711	0.762225	
0.415735	0.277785	0.865862	
0.307884	0.246632	0.880034	
0.450285	0.217356	0.855302	
0.376293	0.169886	0.910318	
-0.0589256	-0.358926	0.5	
-0.00306262	-0.296003	0.5718	
-0.0188603	-0.349288	0.644317	
0.0212569	-0.409526	0.586364	
0.094036	0.192335	0.606134	
0.016747	0.116372	0.584632	
-0.0201888	0.188065	0.634	
0.0271287	0.256687	0.590103	
-0.0268842	0.224117	0.746658	
-0.0155726	0.113982	0.720278	
-0.0243888	0.144613	0.834462	
-0.118181	0.0989473	0.748679	
-0.0978573	-0.216654	0.738076	
-0.00154855	-0.114907	0.739634	
-0.085688	-0.137167	0.83131	
-0.050212	-0.252969	0.810638	
-0.0850635	-0.240496	0.617991	
-0.0814439	-0.125985	0.656453	
-0.0978573	-0.216654	0.738076	
-0.00577358	-0.254916	0.661058	
0.317233	-0.386476	0.909527	
0.214973	-0.334693	0.892974	
0.386505	-0.317197	0.931175	
0.335277	-0.219266	0.871103	
0.186731	-0.150807	0.612641	
0.142999	-0.18326	0.747043	
0.193272	-0.26142	0.670684	
0.22816	-0.174755	0.697122	
-0.0411735	0.316432	0.673786	
-0.0268842	0.224117	0.746658	
0.0518787	0.327869	0.739172	
-0.0413818	0.388755	0.761338	
0.0203259	-0.249482	0.748458	
-0.114558	-0.356703	0.732324	
-0.0103711	-0.392711	0.762225	
-0.050212	-0.252969	0.810638	
-0.469721	0.171353	0.838334	
-0.428195	0.258165	0.798245	
-0.436762	0.243391	0.903062	
-0.28117	0.160675	0.841981	
0.129352	-0.205365	0.887641	
0.214973	-0.334693	0.892974	
0.233778	-0.237115	0.8353	
0.237523	-0.1744	0.906763	
-0.16685	0.0883447	1	
-0.257956	0.116321	1	
-0.1493	0.167608	0.873324	
-0.261224	0.0578819	0.892654	
0.380873	0.323938	0.652261	
0.300272	0.248641	0.604822	
0.322027	0.213397	0.712919	
0.252165	0.322355	0.613309	
0.0535407	0.120642	0.5	
0.0882618	0.0365592	0.582606	
0.0589256	0.0589256	0.5	
0.120479	0.115187	0.58227	
0.332026	0.00704946	0.830563	
0.388259	-0.0686204	0.893717	
0.346509	0.0237889	1	
0.259967	0.0147254	0.905038	
0.183683	-0.0446088	0.866852	
0.135395	0.0692853	0.814132	
0.265971	0.0656026	0.794392	
0.255127	-0.0374614	0.810965	
-0.429146	-0.25658	0.66876	
-0.303215	-0.24986	0.599065	
-0.337623	-0.15776	0.722835	
-0.288147	-0.263663	0.736531	
-0.0112682	-5.37735e-05	0.751437	
-0.028625	-0.0663675	0.813721	
0.100041	-0.0381212	0.736861	
0.111146	-0.0163362	0.82287	
0.217923	0.147902	0.790128	
0.180554	0.223326	0.725764	
0.322027	0.213397	0.712919	
0.274515	0.174272	0.655082	
-0.085688	-0.137167	0.83131	
-0.123319	-0.239698	0.888651	
0.00964811	-0.213747	0.871732	
-0.144759	-0.143126	0.912403	
-0.345553	0.109975	0.5	
-0.334293	0.161532	0.5	
-0.399482	0.123001	0.5	
-0.332133	0.18678	0.621599	
-0.323938	-0.380873	0.847739	
-0.288147	-0.263663	0.736531	
-0.386792	-0.316847	0.801384	
-0.317305	-0.233685	0.899359	
0.00964811	-0.213747	0.871732	
0.129352	-0.205365	0.887641	
0.0785366	-0.11627	0.823358	
-0.00334546	-0.102756	0.895053	
-0.0814439	-0.125985	0.656453	
-0.158586	-0.105655	0.59825	
-0.174064	-0.226232	0.58962	
-0.167637	-0.166421	0.687024	
0.152693	-0.00394448	0.5	
0.0833333	0	0.5	
0.118934	-0.0478046	0.5	
0.0882618	0.0365592	0.582606	
-0.0810399	-0.493389	0.85285	
-0.144862	-0.478555	0.921652	
-0.0684459	-0.495293	0.931403	
-0.0603308	-0.338175	0.849262	
-0.214341	0.273759	1	
-0.119993	0.246691	1	
-0.18644	0.1823	1	
-0.1493	0.167608	0.873324	
-0.0328721	-0.370689	1	
-0.0603308	-0.338175	0.849262	
0.0248177	-0.313374	1	
0.0283953	-0.39231	0.890404	
-0.380873	0.323938	0.847739	
-0.428195	0.258165	0.798245	
-0.265307	0.263707	0.765082	
-0.272957	0.274415	0.886959	
0.0819669	-0.126701	0.660191	
-0.00154855	-0.114907	0.739634	
0.100041	-0.0381212	0.736861	
0.0739457	-0.0375145	0.646536	
-0.18203	-0.0488646	0.5	
-0.0882569	-0.0365572	0.592669	
-0.18468	-0.0140346	0.624264	
-0.158586	-0.105655	0.59825	
-0.3	-0.0833333	0.5	
-0.271058	-0.153206	0.5	
-0.256066	-0.106066	0.5	
-0.244257	-0.0838675	0.585674	
0.154508	-0.0938282	0.5	
0.125362	-0.0795966	0.584968	
0.186731	-0.150807	0.612641	
0.190149	-0.0438256	0.575538	
0.118934	-0.0478046	0.5	
0.0882618	0.0365592	0.582606	
0.125362	-0.0795966	0.584968	
0.165404	0.026433	0.57138	
-0.0589256	-0.241074	0.5	
-0.0850635	-0.240496	0.617991	
-0.0833333	-0.3	0.5	
-0.00306262	-0.296003	0.5718	
0.232997	-0.11062	1	
0.183683	-0.0446088	0.866852	
0.294742	-0.119382	0.854292	
0.237523	-0.1744	0.906763	
0.0506005	-0.12216	0.5	
0.0324597	-0.0934166	0.587598	
0.00796883	-0.184656	0.604274	
0.100353	-0.184453	0.588762	
0.337634	0.115561	1	
0.226887	0.111044	0.884387	
0.247868	0.146306	1	
0.376293	0.169886	0.910318	
0.380873	0.323938	0.652261	
0.322027	0.213397	0.712919	
0.216396	0.318788	0.694105	
0.252165	0.322355	0.613309	
-0.0589256	-0.241074	0.5	
-0.03759	-0.31517	0.5	
-0.0125395	-0.269727	0.5	
-0.00306262	-0.296003	0.5718	
0.094036	0.192335	0.606134	
0.157976	0.137423	0.708763	
0.0734599	0.0912867	0.653108	
0.120479	0.115187	0.58227	
0.094036	0.192335	0.606134	
0.016747	0.116372	0.584632	
0.0999373	0.153076	0.5	
0.120479	0.115187	0.58227	
0.346509	0.0237889	1	
0.388745	0.0776039	0.89546	
0.332026	0.00704946	0.830563	
0.259967	0.0147254	0.905038	
-0.00982413	0.311992	0.838847	
-0.0413818	0.388755	0.761338	
-0.0268842	0.224117	0.746658	
-0.0985684	0.251065	0.805476	
-0.399482	0.123001	0.5	
-0.334293	0.161532	0.5	
-0.381208	0.210225	0.5	
-0.332133	0.18678	0.621599	
-0.189073	-0.267802	0.673143	
-0.245786	-0.164168	0.624683	
-0.288147	-0.263663	0.736531	
-0.167637	-0.166421	0.687024	
-0.28117	0.160675	0.841981	
-0.34853	0.148938	0.738537	
-0.330463	0.00145141	0.818132	
-0.3732	0.0934614	0.886553	
-0.231974	-0.22452	0.832256	
-0.123319	-0.239698	0.888651	
-0.0978573	-0.216654	0.738076	
-0.173622	-0.15656	0.786805	
0.5	0	0.6	
0.431857	0.0465403	0.5	
0.435719	7.07799e-17	0.5	
0.41725	0.0179908	0.649594	
-0.144118	0.318457	0.733262	
-0.0968356	0.250534	0.697531	
-0.0411735	0.316432	0.673786	
-0.0985684	0.251065	0.805476	
-0.0589256	-0.358926	0.5	
-0.123001	-0.399482	0.5	
-0.0506005	-0.42216	0.5	
-0.129826	-0.346552	0.613476	
-0.154067	0.200523	0.744733	
-0.161164	0.309138	0.850572	
-0.1493	0.167608	0.873324	
-0.0985684	0.251065	0.805476	
0.220621	-0.0913842	0.746309	
0.346453	-0.0782039	0.737808	
0.294742	-0.119382	0.854292	
0.327694	-0.196387	0.7647	
0.153206	-0.153206	0.5	
0.174542	-0.227302	0.5	
0.199592	-0.181859	0.5	
0.163252	-0.248876	0.586706	
-0.0850635	-0.240496	0.617991	
0.00796883	-0.184656	0.604274	
-0.0814439	-0.125985	0.656453	
-0.00577358	-0.254916	0.661058	
-0.0243888	0.144613	0.834462	
0.0333325	0.222426	0.893441	
-0.00425413	0.131001	1	
0.067514	0.114479	0.890799	
0.100041	-0.0381212	0.736861	
-0.028625	-0.0663675	0.813721	
0.0785366	-0.11627	0.823358	
0.111146	-0.0163362	0.82287	
0.435719	7.07799e-17	0.5	
0.42216	-0.0506005	0.5	
0.5	0	0.6	
0.385774	-0.0819641	0.609834	
0.314857	-0.257449	1	
0.386505	-0.317197	0.931175	
0.214973	-0.334693	0.892974	
0.335277	-0.219266	0.871103	
0.00796883	-0.184656	0.604274	
0.0324597	-0.0934166	0.587598	
-6.75805e-05	-0.152663	0.5	
-0.0814439	-0.125985	0.575026	
-0.144862	-0.478555	0.921652	
-0.243391	-0.436762	0.903062	
-0.203173	-0.373024	1	
-0.182538	-0.337413	0.833302	
0.0203259	-0.249482	0.748458	
0.0883483	-0.356203	0.717872	
0.11106	-0.333093	0.843975	
-0.0103711	-0.392711	0.762225	
0.0814864	-0.493315	0.652319	
0	-0.5	0.7	
0.0883483	-0.356203	0.717872	
0.0212569	-0.409526	0.586364	
-0.235698	0.440961	0.931431	
-0.161164	0.309138	0.850572	
-0.153328	0.47591	0.90763	
-0.0728697	0.385983	0.897183	
-0.0734441	0.0616893	1	
0.0209546	0.0362755	1	
-0.0801278	-0.0255813	0.881784	
-0.0884799	0.0810843	0.89303	
0.380207	-0.19708	1	
0.394936	-0.119803	1	
0.478555	-0.144862	0.921652	
0.335277	-0.219266	0.871103	
-0.189073	-0.267802	0.673143	
-0.0850635	-0.240496	0.617991	
-0.114558	-0.356703	0.732324	
-0.129826	-0.346552	0.613476	
-0.345553	0.109975	0.5	
-0.399482	0.123001	0.5	
-0.38814	0.0365087	0.609899	
-0.395918	0.121742	0.65735	
-0.168734	0.470668	0.798219	
-0.161164	0.309138	0.850572	
-0.247057	0.434698	0.749501	
-0.144118	0.318457	0.733262	
-0.0638367	-0.295761	1	
0.00964811	-0.213747	0.871732	
-0.0603308	-0.338175	0.849262	
-0.123319	-0.239698	0.888651	
0.106066	-0.256066	0.5	
0.100353	-0.184453	0.588762	
0.0761744	-0.268448	0.622464	
0.163252	-0.248876	0.586706	
0.0203259	-0.249482	0.748458	
-0.00154855	-0.114907	0.739634	
-0.0978573	-0.216654	0.738076	
-0.050212	-0.252969	0.810638	
-0.0506005	0.12216	0.5	
0.00279483	0.150684	0.5	
-0.0419658	0.179631	0.5	
-0.0835252	0.135066	0.582318	
0.232997	-0.11062	1	
0.14072	-0.0839746	1	
0.183683	-0.0446088	0.866852	
0.237523	-0.1744	0.906763	
0.0882618	0.0365592	0.582606	
0.120479	0.115187	0.58227	
0.19713	0.0957524	0.613371	
0.165404	0.026433	0.57138	
0.094036	0.192335	0.606134	
0.128799	0.212132	0.5	
0.106333	0.267511	0.579786	
0.193696	0.165595	0.572294	
-0.241074	0.0589256	0.5	
-0.259187	0.0363748	0.591328	
-0.177179	0.127748	0.603282	
-0.268272	0.128138	0.588733	
-0.207451	-0.082142	0.862889	
-0.22856	0.0108682	0.750263	
-0.330463	0.00145141	0.818132	
-0.261224	0.0578819	0.892654	
0.125362	-0.0795966	0.584968	
0.0324597	-0.0934166	0.587598	
0.104605	-0.104521	0.5	
0.100353	-0.184453	0.588762	
-0.106066	0.256066	0.5	
-0.123171	0.237068	0.613094	
-0.0559694	0.29198	0.588124	
-0.181622	0.273954	0.57406	
0.0833333	0	0.5	
0.118934	-0.0478046	0.5	
0.0882618	0.0365592	0.582606	
0.0466381	-0.023308	0.56503	
-0.358926	-0.0589256	0.5	
-0.323059	-0.0556697	0.636381	
-0.3	-0.0833333	0.5	
-0.32522	-0.00468432	0.575656	
-0.273315	0.334955	1	
-0.317233	0.386476	0.909527	
-0.201912	0.369986	1	
-0.272957	0.274415	0.886959	
0.135395	0.0692853	0.814132	
0.265971	0.0656026	0.794392	
0.226887	0.111044	0.884387	
0.156034	0.0430169	0.909981	
0.4284	-0.257824	0.704976	
0.292602	-0.250468	0.688523	
0.311042	-0.160939	0.648474	
0.351409	-0.224603	0.596537	
-0.323938	-0.380873	0.847739	
-0.231974	-0.22452	0.832256	
-0.317305	-0.233685	0.899359	
-0.235677	-0.292728	0.906663	
-0.144862	-0.478555	0.921652	
-0.203173	-0.373024	1	
-0.114467	-0.386332	1	
-0.182538	-0.337413	0.833302	
-0.18203	-0.0488646	0.5	
-0.152663	-6.75805e-05	0.5	
-0.216667	3.67394e-17	0.5	
-0.18468	-0.0140346	0.624264	
0.268691	0.110688	0.710369	
0.283872	0.123177	0.588485	
0.366719	0.098872	0.62645	
0.237957	0.0412258	0.662892	
0.331011	0.147461	0.830703	
0.388745	0.0776039	0.89546	
0.226887	0.111044	0.884387	
0.259967	0.0147254	0.905038	
-0.0328721	-0.370689	1	
-0.0638367	-0.295761	1	
0.0248177	-0.313374	1	
-0.0603308	-0.338175	0.849262	
-0.201912	0.369986	1	
-0.235698	0.440961	0.931431	
-0.153328	0.47591	0.90763	
-0.0728697	0.385983	0.897183	
-0.0155726	0.113982	0.720278	
-0.118181	0.0989473	0.748679	
-0.0268842	0.224117	0.746658	
-0.103796	0.164416	0.668888	
-0.00425413	0.131001	1	
-0.0295403	0.225144	1	
0.0333325	0.222426	0.893441	
-0.0748341	0.245459	0.898908	
0.268691	0.110688	0.710369	
0.217923	0.147902	0.790128	
0.322027	0.213397	0.712919	
0.274515	0.174272	0.655082	
0.4284	-0.257824	0.704976	
0.327694	-0.196387	0.7647	
0.311042	-0.160939	0.648474	
0.292602	-0.250468	0.688523	
0.220621	-0.0913842	0.746309	
0.275364	-0.0865903	0.678068	
0.204037	0.0208987	0.737245	
0.285541	-0.0139074	0.728509	
-0.16685	0.0883447	1	
-0.257956	0.116321	1	
-0.18644	0.1823	1	
-0.1493	0.167608	0.873324	
-0.0814439	-0.125985	0.656453	
-0.0882569	-0.0365572	0.592669	
-0.0531387	-0.0402198	0.678728	
-0.0220267	-0.0501213	0.56323	
0.186731	0.273457	0.579435	
0.106333	0.267511	0.579786	
0.128799	0.212132	0.5	
0.193696	0.165595	0.572294	
-0.00982413	0.311992	0.838847	
-0.161164	0.309138	0.850572	
-0.0413818	0.388755	0.761338	
-0.0985684	0.251065	0.805476	
0.331011	0.147461	0.830703	
0.332026	0.00704946	0.830563	
0.388745	0.0776039	0.89546	
0.259967	0.0147254	0.905038	
-0.106066	0.256066	0.5	
-0.0559694	0.29198	0.588124	
-0.0833333	0.3	0.5	
-0.181622	0.273954	0.57406	
0.399482	-0.123001	0.5	
0.334293	-0.161532	0.5	
0.381208	-0.210225	0.5	
0.313135	-0.131023	0.572624	
0.100041	-0.0381212	0.736861	
-0.00154855	-0.114907	0.739634	
0.0785366	-0.11627	0.823358	
-0.028625	-0.0663675	0.813721	
0.0819669	-0.126701	0.660191	
-0.00154855	-0.114907	0.739634	
0.0739457	-0.0375145	0.646536	
0.000308877	-0.122536	0.656981	
-0.0499791	-0.122616	0.5	
-0.0814439	-0.125985	0.575026	
0.0324597	-0.0934166	0.587598	
-0.0220267	-0.0501213	0.56323	
-0.268448	0.0761744	0.677974	
-0.268272	0.128138	0.588733	
-0.38814	0.0365087	0.609899	
-0.395918	0.121742	0.65735	
-0.0833019	-0.493012	0.655211	
-0.0698189	-0.495101	0.572379	
-0.0188603	-0.349288	0.644317	
0.0212569	-0.409526	0.586364	
-0.323059	-0.0556697	0.636381	
-0.245786	-0.164168	0.624683	
-0.220621	-0.0913842	0.726535	
-0.337623	-0.15776	0.722835	
-0.220621	-0.0913842	0.726535	
-0.158586	-0.105655	0.59825	
-0.244257	-0.0838675	0.585674	
-0.14162	-0.0686737	0.672454	
-0.0882569	-0.0365572	0.592669	
-0.0814439	-0.125985	0.656453	
-0.0814439	-0.125985	0.575026	
-0.0220267	-0.0501213	0.56323	
0.256066	-0.106066	0.5	
0.251946	-0.0814223	0.593798	
0.271058	-0.153206	0.5	
0.313135	-0.131023	0.572624	
0.112799	-0.33356	1	
0.0248177	-0.313374	1	
0.0943468	-0.245334	1	
0.11106	-0.333093	0.843975	
0.0092772	0.277603	0.5	
0.0203259	0.350518	0.595017	
-0.0125395	0.330273	0.5	
-0.0559694	0.29198	0.588124	
0.212132	-0.128799	0.5	
0.186731	-0.150807	0.612641	
0.271058	-0.153206	0.5	
0.251946	-0.0814223	0.593798	
-0.271058	-0.271058	0.5	
-0.212132	-0.295465	0.5	
-0.174064	-0.226232	0.58962	
-0.2318	-0.328499	0.599609	
0.233778	-0.237115	0.8353	
0.142999	-0.18326	0.747043	
0.111962	-0.272347	0.754919	
0.0762998	-0.205219	0.804763	
0.220621	-0.0913842	0.746309	
0.183683	-0.0446088	0.866852	
0.255127	-0.0374614	0.810965	
0.111146	-0.0163362	0.82287	
0.199592	0.242405	0.5	
0.249439	0.227985	0.5	
0.186731	0.273457	0.579435	
0.193696	0.165595	0.572294	
-0.428195	0.258165	0.798245	
-0.265307	0.263707	0.765082	
-0.34853	0.148938	0.738537	
-0.317726	0.256883	0.685229	
0	-0.5	0.7	
0.0883483	-0.356203	0.717872	
-0.0188603	-0.349288	0.644317	
-0.0103711	-0.392711	0.762225	
0.0761744	-0.268448	0.622464	
0.00796883	-0.184656	0.604274	
0.0589256	-0.241074	0.5	
-0.00306262	-0.296003	0.5718	
0.311042	-0.160939	0.648474	
0.186731	-0.150807	0.612641	
0.251946	-0.0814223	0.593798	
0.313135	-0.131023	0.572624	
-0.123001	-0.399482	0.5	
-0.0698189	-0.495101	0.572379	
-0.0506005	-0.42216	0.5	
-0.129826	-0.346552	0.613476	
-0.3	-0.0833333	0.5	
-0.358926	-0.0589256	0.5	
-0.345553	-0.109975	0.5	
-0.323059	-0.0556697	0.636381	
-0.323938	-0.380873	0.847739	
-0.182538	-0.337413	0.833302	
-0.231974	-0.22452	0.832256	
-0.235677	-0.292728	0.906663	
-0.0589256	-0.241074	0.5	
-0.128799	-0.212132	0.5	
-0.106066	-0.256066	0.5	
-0.0850635	-0.240496	0.617991	
0.241126	0.246812	0.788674	
0.307884	0.246632	0.880034	
0.374193	0.331632	0.834643	
0.224036	0.344788	0.789803	
0.0324597	-0.0934166	0.587598	
0.000308877	-0.122536	0.656981	
-0.000470172	0.0044189	0.616387	
-0.0220267	-0.0501213	0.56323	
0.376757	0.328716	0.746468	
0.216396	0.318788	0.694105	
0.316847	0.386792	0.698616	
0.322027	0.213397	0.712919	
0.366719	0.098872	0.62645	
0.41725	0.0179908	0.649594	
0.493389	0.0810399	0.64715	
0.379144	0.136793	0.743369	
0.0401436	0.291204	1	
-0.00982413	0.311992	0.838847	
0.0333325	0.222426	0.893441	
-0.0748341	0.245459	0.898908	
-0.000470172	0.0044189	0.616387	
-0.0882569	-0.0365572	0.592669	
-0.0930725	0.0739765	0.647155	
-0.0524491	0.0544183	0.580273	
-0.118181	0.0989473	0.748679	
-0.234639	0.167846	0.67167	
-0.103796	0.164416	0.668888	
-0.177442	0.0578991	0.68267	
-0.316847	0.386792	0.801384	
-0.265307	0.263707	0.765082	
-0.161164	0.309138	0.850572	
-0.272957	0.274415	0.886959	
-0.0684459	-0.495293	0.931403	
-0.0810399	-0.493389	0.85285	
-0.0603308	-0.338175	0.849262	
0.0283953	-0.39231	0.890404	
-0.0112682	-5.37735e-05	0.751437	
0.117798	0.0518077	0.724107	
0.100041	-0.0381212	0.736861	
0.0370897	0.0247951	0.688096	
0.125573	-0.41396	1	
0.11106	-0.333093	0.843975	
0.153328	-0.47591	0.90763	
0.0283953	-0.39231	0.890404	
-0.00982413	0.311992	0.838847	
0.0518787	0.327869	0.739172	
-0.0268842	0.224117	0.746658	
-0.0413818	0.388755	0.761338	
1.83697e-17	0.383333	0.5	
0.0465403	0.431857	0.5	
6.08826e-17	0.43599	0.5	
0.0203259	0.350518	0.595017	
0.0999373	0.153076	0.5	
0.094036	0.192335	0.606134	
0.0557946	0.181673	0.5	
0.016747	0.116372	0.584632	
-0.106066	0.256066	0.5	
-0.0833333	0.3	0.5	
-0.153206	0.271058	0.5	
-0.181622	0.273954	0.57406	
-0.152663	-6.75805e-05	0.5	
-0.185212	0.0538339	0.5	
-0.216667	3.67394e-17	0.5	
-0.130814	0.0354375	0.582428	
0.313791	-0.154465	1	
0.294742	-0.119382	0.854292	
0.388259	-0.0686204	0.893717	
0.335277	-0.219266	0.871103	
0.299946	-0.0112682	0.640667	
0.346453	-0.0782039	0.737808	
0.385774	-0.0819641	0.609834	
0.41725	0.0179908	0.649594	
-0.0411735	0.316432	0.673786	
-0.0413818	0.388755	0.761338	
-0.144118	0.318457	0.733262	
-0.0985684	0.251065	0.805476	
-0.337623	-0.15776	0.722835	
-0.303215	-0.24986	0.599065	
-0.429146	-0.25658	0.66876	
-0.350407	-0.154201	0.605376	
0.25658	-0.429146	0.66876	
0.154681	-0.352429	0.61086	
0.174678	-0.468495	0.682891	
0.200775	-0.327859	0.767733	
-0.0930725	0.0739765	0.647155	
-0.0882569	-0.0365572	0.592669	
-0.000470172	0.0044189	0.616387	
-0.0531387	-0.0402198	0.678728	
-0.0488646	-0.18203	0.5	
-0.0850635	-0.240496	0.617991	
0.00796883	-0.184656	0.604274	
-0.0814439	-0.125985	0.575026	
0.107888	0.321356	0.639747	
0.0518787	0.327869	0.739172	
0.0203259	0.350518	0.595017	
0.0297419	0.247817	0.680143	
0.233778	-0.237115	0.8353	
0.129352	-0.205365	0.887641	
0.142999	-0.18326	0.747043	
0.0762998	-0.205219	0.804763	
-0.242822	0.437078	0.847009	
-0.316847	0.386792	0.801384	
-0.247057	0.434698	0.749501	
-0.161164	0.309138	0.850572	
0.094036	0.192335	0.606134	
0.106333	0.267511	0.579786	
0.186731	0.273457	0.579435	
0.193696	0.165595	0.572294	
0.0739457	-0.0375145	0.646536	
0.117798	0.0518077	0.724107	
0.0734599	0.0912867	0.653108	
0.0370897	0.0247951	0.688096	
-0.0112682	-5.37735e-05	0.751437	
0.100041	-0.0381212	0.736861	
0.117798	0.0518077	0.724107	
0.0209079	0.0660845	0.809865	
0.0506005	-0.12216	0.5	
0.00796883	-0.184656	0.604274	
0.0519196	-0.186143	0.5	
0.100353	-0.184453	0.588762	
0.174678	-0.468495	0.682891	
0.154681	-0.352429	0.61086	
0.0883483	-0.356203	0.717872	
0.200775	-0.327859	0.767733	
-0.128799	-0.212132	0.5	
-0.174064	-0.226232	0.58962	
-0.0850635	-0.240496	0.617991	
-0.0814439	-0.125985	0.575026	
0.0589256	-0.241074	0.5	
0.00796883	-0.184656	0.604274	
0.0761744	-0.268448	0.622464	
0.100353	-0.184453	0.588762	
-0.189073	-0.267802	0.673143	
-0.0978573	-0.216654	0.738076	
-0.167637	-0.166421	0.687024	
-0.173622	-0.15656	0.786805	
-0.0188603	-0.349288	0.644317	
-0.129826	-0.346552	0.613476	
-0.0850635	-0.240496	0.617991	
-0.00306262	-0.296003	0.5718	
-0.334293	0.161532	0.5	
-0.332133	0.18678	0.621599	
-0.345553	0.109975	0.5	
-0.268272	0.128138	0.588733	
-0.168688	-0.281701	1	
-0.114467	-0.386332	1	
-0.182538	-0.337413	0.833302	
-0.123319	-0.239698	0.888651	
0.112799	-0.33356	1	
0.11106	-0.333093	0.843975	
0.125573	-0.41396	1	
0.0283953	-0.39231	0.890404	
0.0153159	0.363557	1	
0.060105	0.382127	0.896284	
-0.00982413	0.311992	0.838847	
-0.0728697	0.385983	0.897183	
0.0203259	0.350518	0.595017	
0.0518787	0.327869	0.739172	
-0.0411735	0.316432	0.673786	
0.0297419	0.247817	0.680143	
-0.0112682	-5.37735e-05	0.751437	
-0.00154855	-0.114907	0.739634	
0.100041	-0.0381212	0.736861	
-0.028625	-0.0663675	0.813721	
0.200864	0.212078	0.638362	
0.157976	0.137423	0.708763	
0.19713	0.0957524	0.613371	
0.274515	0.174272	0.655082	
0.183683	-0.0446088	0.866852	
0.265971	0.0656026	0.794392	
0.156034	0.0430169	0.909981	
0.259967	0.0147254	0.905038	
-0.0684459	-0.495293	0.931403	
-0.144862	-0.478555	0.921652	
-0.114467	-0.386332	1	
-0.0603308	-0.338175	0.849262	
-0.201912	0.369986	1	
-0.153328	0.47591	0.90763	
-0.118932	0.39861	1	
-0.0728697	0.385983	0.897183	
0.311042	-0.160939	0.648474	
0.22816	-0.174755	0.697122	
0.327694	-0.196387	0.7647	
0.275364	-0.0865903	0.678068	
-0.268448	0.0761744	0.677974	
-0.32522	-0.00468432	0.575656	
-0.259187	0.0363748	0.591328	
-0.259249	-0.00709893	0.664249	
0.212132	0.128799	0.5	
0.19713	0.0957524	0.613371	
0.256066	0.106066	0.5	
0.283872	0.123177	0.588485	
-0.380873	0.323938	0.847739	
-0.436762	0.243391	0.903062	
-0.428195	0.258165	0.798245	
-0.272957	0.274415	0.886959	
-0.00982413	0.311992	0.838847	
-0.0413818	0.388755	0.761338	
-0.161164	0.309138	0.850572	
-0.0728697	0.385983	0.897183	
0	0.5	0.6	
0.0140521	0.397008	0.681004	
0.0203259	0.350518	0.595017	
0.0967579	0.384129	0.574883	
-0.5	0	0.8	
-0.354135	0.0170578	0.71226	
-0.330463	0.00145141	0.818132	
-0.387166	-0.0714815	0.763327	
0.5	0	0.7	
0.493012	-0.0833019	0.655211	
0.346453	-0.0782039	0.737808	
0.41725	0.0179908	0.649594	
0.0203259	-0.249482	0.748458	
0.11106	-0.333093	0.843975	
0.0883483	-0.356203	0.717872	
0.111962	-0.272347	0.754919	
-6.75805e-05	-0.152663	0.5	
0.00796883	-0.184656	0.604274	
0.0506005	-0.12216	0.5	
0.0324597	-0.0934166	0.587598	
-0.1493	0.167608	0.873324	
-0.0748341	0.245459	0.898908	
-0.0983601	0.156434	1	
-0.0884799	0.0810843	0.89303	
-0.0603308	-0.338175	0.849262	
-0.114558	-0.356703	0.732324	
-0.171353	-0.469721	0.838334	
-0.182538	-0.337413	0.833302	
-0.18203	-0.0488646	0.5	
-0.18468	-0.0140346	0.624264	
-0.216667	3.67394e-17	0.5	
-0.244257	-0.0838675	0.585674	
0.495293	0.0684459	0.568597	
0.418309	0.121276	0.5	
0.431857	0.0465403	0.5	
0.366719	0.098872	0.62645	
0.469721	0.171353	0.661666	
0.366719	0.098872	0.62645	
0.379144	0.136793	0.743369	
0.354508	0.178976	0.587224	
-0.0850635	-0.240496	0.617991	
-0.0814439	-0.125985	0.656453	
-0.174064	-0.226232	0.58962	
-0.167637	-0.166421	0.687024	
0.311042	-0.160939	0.648474	
0.26032	-0.233647	0.595602	
0.186731	-0.150807	0.612641	
0.313135	-0.131023	0.572624	
0.199592	-0.181859	0.5	
0.174542	-0.227302	0.5	
0.221409	-0.234529	0.5	
0.163252	-0.248876	0.586706	
0.470916	-0.168043	0.699874	
0.346453	-0.0782039	0.737808	
0.493012	-0.0833019	0.655211	
0.385774	-0.0819641	0.609834	
0.394936	-0.119803	1	
0.388259	-0.0686204	0.893717	
0.478555	-0.144862	0.921652	
0.335277	-0.219266	0.871103	
0.331011	0.147461	0.830703	
0.322027	0.213397	0.712919	
0.268691	0.110688	0.710369	
0.217923	0.147902	0.790128	
-0.26105	0.203399	1	
-0.28117	0.160675	0.841981	
-0.328307	0.16356	1	
-0.272957	0.274415	0.886959	
0.212132	-0.128799	0.5	
0.154508	-0.0938282	0.5	
0.186731	-0.150807	0.612641	
0.190149	-0.0438256	0.575538	
0.067514	0.114479	0.890799	
-0.0884799	0.0810843	0.89303	
-0.0243888	0.144613	0.834462	
0.0209079	0.0660845	0.809865	
-0.242822	0.437078	0.847009	
-0.161164	0.309138	0.850572	
-0.235698	0.440961	0.931431	
-0.272957	0.274415	0.886959	
-0.0977967	-0.490343	0.758774	
-0.171353	-0.469721	0.838334	
-0.0603308	-0.338175	0.849262	
-0.114558	-0.356703	0.732324	
-0.217356	-0.450285	0.644698	
-0.114558	-0.356703	0.732324	
-0.168043	-0.470916	0.699874	
-0.129826	-0.346552	0.613476	
-0.000470172	0.0044189	0.616387	
0.000308877	-0.122536	0.656981	
-0.0531387	-0.0402198	0.678728	
-0.0220267	-0.0501213	0.56323	
0.5	0	0.7	
0.41725	0.0179908	0.649594	
0.346453	-0.0782039	0.737808	
0.410213	-0.0392212	0.798574	
-0.220621	-0.0913842	0.726535	
-0.158586	-0.105655	0.59825	
-0.245786	-0.164168	0.624683	
-0.244257	-0.0838675	0.585674	
-0.123171	0.237068	0.613094	
-0.144118	0.318457	0.733262	
-0.233647	0.26032	0.639516	
-0.0968356	0.250534	0.697531	
0.346453	-0.0782039	0.737808	
0.327694	-0.196387	0.7647	
0.470916	-0.168043	0.699874	
0.383529	-0.130684	0.812713	
-0.0638367	-0.295761	1	
-0.0603308	-0.338175	0.849262	
-0.114467	-0.386332	1	
-0.123319	-0.239698	0.888651	
-0.123171	0.237068	0.613094	
-0.144987	0.358562	0.621326	
-0.233647	0.26032	0.639516	
-0.144118	0.318457	0.733262	
-0.128799	-0.212132	0.5	
-0.0850635	-0.240496	0.617991	
-0.0488646	-0.18203	0.5	
-0.0814439	-0.125985	0.575026	
0.094036	0.192335	0.606134	
0.157976	0.137423	0.708763	
0.200864	0.212078	0.638362	
0.12725	0.243321	0.66402	
-0.00982413	0.311992	0.838847	
0.0333325	0.222426	0.893441	
-0.0268842	0.224117	0.746658	
0.0669598	0.264617	0.818251	
-0.157073	0.0991372	0.5	
-0.0835252	0.135066	0.582318	
-0.177179	0.127748	0.603282	
-0.130814	0.0354375	0.582428	
0.220621	-0.0913842	0.746309	
0.100041	-0.0381212	0.736861	
0.204037	0.0208987	0.737245	
0.163343	-0.0947766	0.678001	
-0.048473	-0.0328568	1	
0.0209546	0.0362755	1	
0.0395279	-8.66572e-05	0.873882	
-0.0801278	-0.0255813	0.881784	
-0.18644	0.1823	1	
-0.26105	0.203399	1	
-0.214341	0.273759	1	
-0.272957	0.274415	0.886959	
-0.0814439	-0.125985	0.656453	
0.000308877	-0.122536	0.656981	
-0.0814439	-0.125985	0.575026	
-0.0220267	-0.0501213	0.56323	
-0.171353	-0.469721	0.838334	
-0.0810399	-0.493389	0.85285	
-0.0977967	-0.490343	0.758774	
-0.0603308	-0.338175	0.849262	
-0.144862	-0.478555	0.921652	
-0.0603308	-0.338175	0.849262	
-0.171353	-0.469721	0.838334	
-0.182538	-0.337413	0.833302	
-0.0638367	-0.295761	1	
0.00183684	-0.222331	1	
0.0248177	-0.313374	1	
0.00964811	-0.213747	0.871732	
-0.28117	0.160675	0.841981	
-0.1493	0.167608	0.873324	
-0.165601	0.0438592	0.827911	
-0.222068	0.116218	0.765206	
0.152693	-0.00394448	0.5	
0.0882618	0.0365592	0.582606	
0.118934	-0.0478046	0.5	
0.165404	0.026433	0.57138	
0.0734599	0.0912867	0.653108	
0.157976	0.137423	0.708763	
0.094036	0.192335	0.606134	
0.0615573	0.169949	0.68043	
0.161285	-0.0150511	0.638026	
0.204037	0.0208987	0.737245	
0.100041	-0.0381212	0.736861	
0.163343	-0.0947766	0.678001	
-0.154067	0.200523	0.744733	
-0.123171	0.237068	0.613094	
-0.103796	0.164416	0.668888	
-0.234639	0.167846	0.67167	
0.232997	-0.11062	1	
0.314271	-0.0501881	1	
0.294742	-0.119382	0.854292	
0.259967	0.0147254	0.905038	
0.204037	0.0208987	0.737245	
0.117798	0.0518077	0.724107	
0.157976	0.137423	0.708763	
0.237957	0.0412258	0.662892	
-0.220621	-0.0913842	0.726535	
-0.387166	-0.0714815	0.763327	
-0.337623	-0.15776	0.722835	
-0.270142	-0.144141	0.791801	
0.0395279	-8.66572e-05	0.873882	
0.067514	0.114479	0.890799	
0.115537	0.0107471	1	
0.156034	0.0430169	0.909981	
-0.189073	-0.267802	0.673143	
-0.231974	-0.22452	0.832256	
-0.288147	-0.263663	0.736531	
-0.220163	-0.339708	0.738499	
-0.0243888	0.144613	0.834462	
-0.0748341	0.245459	0.898908	
-0.1493	0.167608	0.873324	
-0.0884799	0.0810843	0.89303	
-0.235698	0.440961	0.931431	
-0.201912	0.369986	1	
-0.317233	0.386476	0.909527	
-0.272957	0.274415	0.886959	
0.0833333	-0.3	0.5	
0.166579	-0.322107	0.5	
0.153206	-0.271058	0.5	
0.163252	-0.248876	0.586706	
0.299946	-0.0112682	0.640667	
0.357913	0.0406281	0.72441	
0.346453	-0.0782039	0.737808	
0.41725	0.0179908	0.649594	
0.233778	-0.237115	0.8353	
0.22816	-0.174755	0.697122	
0.142999	-0.18326	0.747043	
0.189747	-0.143359	0.830553	
-0.323059	-0.0556697	0.636381	
-0.220621	-0.0913842	0.726535	
-0.245786	-0.164168	0.624683	
-0.244257	-0.0838675	0.585674	
0.214973	-0.334693	0.892974	
0.335277	-0.219266	0.871103	
0.380873	-0.323938	0.847739	
0.294198	-0.285672	0.778149	
0.357913	0.0406281	0.72441	
0.41725	0.0179908	0.649594	
0.366719	0.098872	0.62645	
0.379144	0.136793	0.743369	
-0.41072	-0.12459	1	
-0.356684	-0.19351	1	
-0.440961	-0.235698	0.931431	
-0.340074	-0.13507	0.859051	
-0.490343	0.0977967	0.758774	
-0.34853	0.148938	0.738537	
-0.469721	0.171353	0.838334	
-0.3732	0.0934614	0.886553	
-0.0983601	0.156434	1	
-0.0295403	0.225144	1	
-0.00425413	0.131001	1	
-0.0748341	0.245459	0.898908	
-0.154067	0.200523	0.744733	
-0.1493	0.167608	0.873324	
-0.28117	0.160675	0.841981	
-0.222068	0.116218	0.765206	
-0.330463	0.00145141	0.818132	
-0.28117	0.160675	0.841981	
-0.261224	0.0578819	0.892654	
-0.222068	0.116218	0.765206	
0.201164	-0.273578	1	
0.112799	-0.33356	1	
0.129352	-0.205365	0.887641	
0.214973	-0.334693	0.892974	
0.0401436	0.291204	1	
-0.0555676	0.325574	1	
-0.00982413	0.311992	0.838847	
-0.0748341	0.245459	0.898908	
-0.38814	0.0365087	0.609899	
-0.259187	0.0363748	0.591328	
-0.268448	0.0761744	0.677974	
-0.32522	-0.00468432	0.575656	
-0.0555676	0.325574	1	
0.0153159	0.363557	1	
-0.00982413	0.311992	0.838847	
-0.0728697	0.385983	0.897183	
0.366719	0.098872	0.62645	
0.283872	0.123177	0.588485	
0.350601	0.12216	0.5	
0.350518	0.0203259	0.577676	
0.0739457	-0.0375145	0.646536	
-0.0531387	-0.0402198	0.678728	
-0.000470172	0.0044189	0.616387	
0.000308877	-0.122536	0.656981	
0.0833333	-0.3	0.5	
0.106066	-0.256066	0.5	
0.0589256	-0.241074	0.5	
0.0761744	-0.268448	0.622464	
0.251946	-0.0814223	0.593798	
0.321349	-0.0500942	0.566645	
0.275364	-0.0865903	0.678068	
0.313135	-0.131023	0.572624	
-0.0814439	-0.125985	0.656453	
-0.0531387	-0.0402198	0.678728	
0.000308877	-0.122536	0.656981	
-0.0220267	-0.0501213	0.56323	
-0.265307	0.263707	0.765082	
-0.222068	0.116218	0.765206	
-0.34853	0.148938	0.738537	
-0.234639	0.167846	0.67167	
-0.154067	0.200523	0.744733	
-0.0268842	0.224117	0.746658	
-0.118181	0.0989473	0.748679	
-0.103796	0.164416	0.668888	
0.316847	0.386792	0.698616	
0.216396	0.318788	0.694105	
0.376757	0.328716	0.746468	
0.224036	0.344788	0.789803	
-0.0243888	0.144613	0.834462	
-0.0748341	0.245459	0.898908	
0.0333325	0.222426	0.893441	
-0.0985684	0.251065	0.805476	
0.108346	0.0977259	0.5	
0.0535407	0.120642	0.5	
0.0589256	0.0589256	0.5	
0.120479	0.115187	0.58227	
0.194604	-0.371188	1	
0.125573	-0.41396	1	
0.112799	-0.33356	1	
0.214973	-0.334693	0.892974	
-0.144118	0.318457	0.733262	
-0.0413818	0.388755	0.761338	
-0.161164	0.309138	0.850572	
-0.0985684	0.251065	0.805476	
-0.0977967	-0.490343	0.758774	
-0.114558	-0.356703	0.732324	
-0.0603308	-0.338175	0.849262	
-0.0103711	-0.392711	0.762225	
-0.168688	-0.281701	1	
-0.114467	-0.386332	1	
-0.203173	-0.373024	1	
-0.182538	-0.337413	0.833302	
0.322027	0.213397	0.712919	
0.217923	0.147902	0.790128	
0.241126	0.246812	0.788674	
0.180554	0.223326	0.725764	
-0.249722	-0.227302	0.5	
-0.202855	-0.234529	0.5	
-0.224672	-0.181859	0.5	
-0.174064	-0.226232	0.58962	
0.135395	0.0692853	0.814132	
0.204037	0.0208987	0.737245	
0.157976	0.137423	0.708763	
0.217923	0.147902	0.790128	
0.313791	-0.154465	1	
0.394936	-0.119803	1	
0.380207	-0.19708	1	
0.335277	-0.219266	0.871103	
-0.157073	0.0991372	0.5	
-0.177179	0.127748	0.603282	
-0.185212	0.0538339	0.5	
-0.130814	0.0354375	0.582428	
0.117798	0.0518077	0.724107	
0.0209079	0.0660845	0.809865	
0.100041	-0.0381212	0.736861	
0.111146	-0.0163362	0.82287	
0.311042	-0.160939	0.648474	
0.251946	-0.0814223	0.593798	
0.186731	-0.150807	0.612641	
0.275364	-0.0865903	0.678068	
0.153206	0.153206	0.5	
0.094036	0.192335	0.606134	
0.0999373	0.153076	0.5	
0.120479	0.115187	0.58227	
-0.271058	-0.271058	0.5	
-0.174064	-0.226232	0.58962	
-0.303215	-0.24986	0.599065	
-0.2318	-0.328499	0.599609	
-0.154067	0.200523	0.744733	
-0.233647	0.26032	0.639516	
-0.123171	0.237068	0.613094	
-0.234639	0.167846	0.67167	
-0.123171	0.237068	0.613094	
-0.212186	0.200864	0.578994	
-0.177179	0.127748	0.603282	
-0.234639	0.167846	0.67167	
0.358926	0.0589256	0.5	
0.350601	0.12216	0.5	
0.283872	0.123177	0.588485	
0.350518	0.0203259	0.577676	
-0.5	0	0.7	
-0.38814	0.0365087	0.609899	
-0.354135	0.0170578	0.71226	
-0.402816	-0.0523896	0.590168	
-0.12216	0.350601	0.5	
-0.0833333	0.3	0.5	
-0.0559694	0.29198	0.588124	
-0.181622	0.273954	0.57406	
-0.048473	-0.0328568	1	
-0.0734441	0.0616893	1	
0.0209546	0.0362755	1	
-0.0801278	-0.0255813	0.881784	
-0.185212	0.0538339	0.5	
-0.212132	0.128799	0.5	
-0.241074	0.0589256	0.5	
-0.177179	0.127748	0.603282	
-0.0603308	-0.338175	0.849262	
-0.0103711	-0.392711	0.762225	
0.11106	-0.333093	0.843975	
0.0283953	-0.39231	0.890404	
-0.0112682	-5.37735e-05	0.751437	
0.0209079	0.0660845	0.809865	
0.117798	0.0518077	0.724107	
0.0370897	0.0247951	0.688096	
0.0153159	0.363557	1	
0.0401436	0.291204	1	
-0.00982413	0.311992	0.838847	
0.060105	0.382127	0.896284	
0.316847	0.386792	0.698616	
0.216396	0.318788	0.694105	
0.380873	0.323938	0.652261	
0.322027	0.213397	0.712919	
0.241126	0.246812	0.788674	
0.216396	0.318788	0.694105	
0.322027	0.213397	0.712919	
0.180554	0.223326	0.725764	
0.0324597	-0.0934166	0.587598	
0.0739457	-0.0375145	0.646536	
-0.000470172	0.0044189	0.616387	
0.000308877	-0.122536	0.656981	
-0.154067	0.200523	0.744733	
-0.123171	0.237068	0.613094	
-0.233647	0.26032	0.639516	
-0.0968356	0.250534	0.697531	
0.19713	0.0957524	0.613371	
0.0734599	0.0912867	0.653108	
0.157976	0.137423	0.708763	
0.120479	0.115187	0.58227	
-6.75805e-05	-0.152663	0.5	
0.0519196	-0.186143	0.5	
0.0506005	-0.12216	0.5	
0.00796883	-0.184656	0.604274	
0.233778	-0.237115	0.8353	
0.111962	-0.272347	0.754919	
0.129352	-0.205365	0.887641	
0.0762998	-0.205219	0.804763	
0.193272	-0.26142	0.670684	
0.200775	-0.327859	0.767733	
0.142999	-0.18326	0.747043	
0.111962	-0.272347	0.754919	
-0.212132	-0.128799	0.5	
-0.158586	-0.105655	0.59825	
-0.245786	-0.164168	0.624683	
-0.174064	-0.226232	0.58962	
-0.241074	0.0589256	0.5	
-0.177179	0.127748	0.603282	
-0.212132	0.128799	0.5	
-0.268272	0.128138	0.588733	
0.374193	-0.331632	0.665357	
0.351409	-0.224603	0.596537	
0.388274	-0.315029	0.579193	
0.237843	-0.32244	0.584415	
0.450285	0.217356	0.855302	
0.307884	0.246632	0.880034	
0.331011	0.147461	0.830703	
0.376293	0.169886	0.910318	
-0.0810399	-0.493389	0.85285	
-0.0977967	-0.490343	0.758774	
-0.0603308	-0.338175	0.849262	
-0.0103711	-0.392711	0.762225	
6.08826e-17	0.43599	0.5	
1.83697e-17	0.383333	0.5	
0.0203259	0.350518	0.595017	
-0.0634498	0.397211	0.588093	
0.313791	-0.154465	1	
0.388259	-0.0686204	0.893717	
0.394936	-0.119803	1	
0.335277	-0.219266	0.871103	
-0.0488646	-0.18203	0.5	
-0.0850635	-0.240496	0.617991	
-0.0589256	-0.241074	0.5	
0.00796883	-0.184656	0.604274	
-0.0925337	-0.196451	1	
0.00964811	-0.213747	0.871732	
-0.123319	-0.239698	0.888651	
-0.144759	-0.143126	0.912403	
-0.1493	0.167608	0.873324	
-0.118181	0.0989473	0.748679	
-0.0243888	0.144613	0.834462	
-0.0884799	0.0810843	0.89303	
0.469721	0.171353	0.661666	
0.379144	0.136793	0.743369	
0.322027	0.213397	0.712919	
0.354508	0.178976	0.587224	
-0.138674	0.323797	1	
-0.214341	0.273759	1	
-0.201912	0.369986	1	
-0.161164	0.309138	0.850572	
0.142999	-0.18326	0.747043	
0.22816	-0.174755	0.697122	
0.186731	-0.150807	0.612641	
0.163343	-0.0947766	0.678001	
0.115537	0.0107471	1	
0.0395279	-8.66572e-05	0.873882	
0.0209546	0.0362755	1	
0.067514	0.114479	0.890799	
-0.426463	0.0441363	1	
-0.5	0	0.9	
-0.495293	0.0684459	0.931403	
-0.3732	0.0934614	0.886553	
-0.337623	-0.15776	0.722835	
-0.303215	-0.24986	0.599065	
-0.245786	-0.164168	0.624683	
-0.288147	-0.263663	0.736531	
-5.51091e-17	-0.216667	0.5	
0.0589256	-0.241074	0.5	
0.00796883	-0.184656	0.604274	
-0.00306262	-0.296003	0.5718	
-0.0243888	0.144613	0.834462	
-0.0268842	0.224117	0.746658	
0.0333325	0.222426	0.893441	
0.0669598	0.264617	0.818251	
0.140223	0.195959	0.866253	
0.20334	0.284476	0.892831	
0.158056	0.171884	1	
0.22997	0.198341	0.863468	
-0.201912	0.369986	1	
-0.161164	0.309138	0.850572	
-0.214341	0.273759	1	
-0.272957	0.274415	0.886959	
-0.168688	-0.281701	1	
-0.123319	-0.239698	0.888651	
-0.182538	-0.337413	0.833302	
-0.235677	-0.292728	0.906663	
0.161285	-0.0150511	0.638026	
0.251946	-0.0814223	0.593798	
0.163343	-0.0947766	0.678001	
0.190149	-0.0438256	0.575538	
0.271058	-0.271058	0.5	
0.332733	-0.27561	0.5	
0.26032	-0.233647	0.595602	
0.237843	-0.32244	0.584415	
-0.00982413	0.311992	0.838847	
0.0333325	0.222426	0.893441	
-0.0748341	0.245459	0.898908	
-0.0985684	0.251065	0.805476	
0.337634	0.115561	1	
0.247868	0.146306	1	
0.300884	0.198715	1	
0.376293	0.169886	0.910318	
-0.217356	-0.450285	0.644698	
-0.168043	-0.470916	0.699874	
-0.114558	-0.356703	0.732324	
-0.220163	-0.339708	0.738499	
-0.0188603	-0.349288	0.644317	
0.0203259	-0.249482	0.748458	
0.0883483	-0.356203	0.717872	
-0.00577358	-0.254916	0.661058	
0.0883483	-0.356203	0.717872	
0.154681	-0.352429	0.61086	
0.193272	-0.26142	0.670684	
0.200775	-0.327859	0.767733	
0.226887	0.111044	0.884387	
0.156034	0.0430169	0.909981	
0.265971	0.0656026	0.794392	
0.259967	0.0147254	0.905038	
-0.123171	0.237068	0.613094	
-0.0835252	0.135066	0.582318	
-0.128799	0.212132	0.5	
-0.0595377	0.207843	0.570115	
0.300272	0.248641	0.604822	
0.193696	0.165595	0.572294	
0.283872	0.123177	0.588485	
0.274515	0.174272	0.655082	
-0.0882569	-0.0365572	0.592669	
-0.158586	-0.105655	0.59825	
-0.122616	-0.0499791	0.5	
-0.0814439	-0.125985	0.575026	
-0.330463	0.00145141	0.818132	
-0.261224	0.0578819	0.892654	
-0.3732	0.0934614	0.886553	
-0.398507	-0.0483311	0.885387	
-0.3	-0.0833333	0.5	
-0.323059	-0.0556697	0.636381	
-0.350407	-0.154201	0.605376	
-0.244257	-0.0838675	0.585674	
-0.0499791	-0.122616	0.5	
-6.75805e-05	-0.152663	0.5	
0	-0.0833333	0.5	
0.0324597	-0.0934166	0.587598	
0.0903521	0.10545	1	
0.067514	0.114479	0.890799	
0.158056	0.171884	1	
0.156034	0.0430169	0.909981	
0.331011	0.147461	0.830703	
0.376293	0.169886	0.910318	
0.307884	0.246632	0.880034	
0.22997	0.198341	0.863468	
-0.123171	0.237068	0.613094	
-0.177179	0.127748	0.603282	
-0.103796	0.164416	0.668888	
-0.234639	0.167846	0.67167	
0.233778	-0.237115	0.8353	
0.11106	-0.333093	0.843975	
0.129352	-0.205365	0.887641	
0.111962	-0.272347	0.754919	
0.0535407	0.120642	0.5	
0.016747	0.116372	0.584632	
0.0882618	0.0365592	0.582606	
0.120479	0.115187	0.58227	
0.135395	0.0692853	0.814132	
0.157976	0.137423	0.708763	
0.0742945	0.125166	0.760039	
0.217923	0.147902	0.790128	
0.399482	-0.123001	0.5	
0.381208	-0.210225	0.5	
0.439458	-0.238488	0.575692	
0.351409	-0.224603	0.596537	
-0.154067	0.200523	0.744733	
-0.103796	0.164416	0.668888	
-0.118181	0.0989473	0.748679	
-0.234639	0.167846	0.67167	
0.0248177	-0.313374	1	
0.11106	-0.333093	0.843975	
0.112799	-0.33356	1	
0.0283953	-0.39231	0.890404	
0.331011	0.147461	0.830703	
0.322027	0.213397	0.712919	
0.4284	0.257824	0.795024	
0.379144	0.136793	0.743369	
0.268691	0.110688	0.710369	
0.157976	0.137423	0.708763	
0.204037	0.0208987	0.737245	
0.217923	0.147902	0.790128	
0.094036	0.192335	0.606134	
0.186731	0.273457	0.579435	
0.200864	0.212078	0.638362	
0.193696	0.165595	0.572294	
0.0153159	0.363557	1	
0.0401436	0.291204	1	
-0.0555676	0.325574	1	
-0.00982413	0.311992	0.838847	
-0.490343	0.0977967	0.758774	
-0.34853	0.148938	0.738537	
-0.354135	0.0170578	0.71226	
-0.395918	0.121742	0.65735	
0.385774	-0.0819641	0.609834	
0.351409	-0.224603	0.596537	
0.311042	-0.160939	0.648474	
0.313135	-0.131023	0.572624	
0.241126	0.246812	0.788674	
0.322027	0.213397	0.712919	
0.331011	0.147461	0.830703	
0.217923	0.147902	0.790128	
-0.106984	0.108603	0.5	
-0.157073	0.0991372	0.5	
-0.12216	0.0506005	0.5	
-0.130814	0.0354375	0.582428	
-0.171353	-0.469721	0.838334	
-0.144862	-0.478555	0.921652	
-0.0810399	-0.493389	0.85285	
-0.0603308	-0.338175	0.849262	
0.0373069	0.315853	0.5	
-0.0125395	0.330273	0.5	
0.0092772	0.277603	0.5	
0.0203259	0.350518	0.595017	
0.0913842	0.220621	0.740584	
0.0742945	0.125166	0.760039	
-0.0268842	0.224117	0.746658	
0.0615573	0.169949	0.68043	
-0.3	0.0833333	0.5	
-0.28746	0.0302731	0.5	
-0.259187	0.0363748	0.591328	
-0.32522	-0.00468432	0.575656	
0.154508	-0.0938282	0.5	
0.153206	-0.153206	0.5	
0.186731	-0.150807	0.612641	
0.125362	-0.0795966	0.584968	
-0.330463	0.00145141	0.818132	
-0.261224	0.0578819	0.892654	
-0.22856	0.0108682	0.750263	
-0.222068	0.116218	0.765206	
0.0203259	-0.249482	0.748458	
-0.0188603	-0.349288	0.644317	
0.0883483	-0.356203	0.717872	
-0.0103711	-0.392711	0.762225	
0.478555	-0.144862	0.921652	
0.335277	-0.219266	0.871103	
0.388259	-0.0686204	0.893717	
0.383529	-0.130684	0.812713	
0.168734	-0.470668	0.798219	
0.0854243	-0.492649	0.748597	
0.11106	-0.333093	0.843975	
0.0883483	-0.356203	0.717872	
0.346453	-0.0782039	0.737808	
0.41725	0.0179908	0.649594	
0.357913	0.0406281	0.72441	
0.410213	-0.0392212	0.798574	
-0.153206	-0.271058	0.5	
-0.129826	-0.346552	0.613476	
-0.0850635	-0.240496	0.617991	
-0.174064	-0.226232	0.58962	
-0.161164	0.309138	0.850572	
-0.0728697	0.385983	0.897183	
-0.138674	0.323797	1	
-0.0748341	0.245459	0.898908	
0.128799	0.212132	0.5	
0.0999373	0.153076	0.5	
0.153206	0.153206	0.5	
0.094036	0.192335	0.606134	
0.428195	0.258165	0.701755	
0.322027	0.213397	0.712919	
0.300272	0.248641	0.604822	
0.354508	0.178976	0.587224	
0.311042	-0.160939	0.648474	
0.327694	-0.196387	0.7647	
0.346453	-0.0782039	0.737808	
0.275364	-0.0865903	0.678068	
-0.450285	0.217356	0.644698	
-0.332133	0.18678	0.621599	
-0.4284	0.257824	0.704976	
-0.395918	0.121742	0.65735	
0.161285	-0.0150511	0.638026	
0.117798	0.0518077	0.724107	
0.204037	0.0208987	0.737245	
0.237957	0.0412258	0.662892	
0	0.5	0.8	
0	0.5	0.9	
-0.0728697	0.385983	0.897183	
0.0504561	0.409775	0.7991	
-0.12216	0.350601	0.5	
-0.0559694	0.29198	0.588124	
-0.144987	0.358562	0.621326	
-0.181622	0.273954	0.57406	
0.268691	0.110688	0.710369	
0.19713	0.0957524	0.613371	
0.157976	0.137423	0.708763	
0.274515	0.174272	0.655082	
-0.0243888	0.144613	0.834462	
-0.0884799	0.0810843	0.89303	
-0.118181	0.0989473	0.748679	
-0.07036	0.0449888	0.808499	
0.241126	0.246812	0.788674	
0.217923	0.147902	0.790128	
0.140223	0.195959	0.866253	
0.180554	0.223326	0.725764	
-0.18468	-0.0140346	0.624264	
-0.244257	-0.0838675	0.585674	
-0.158586	-0.105655	0.59825	
-0.14162	-0.0686737	0.672454	
0.268691	0.110688	0.710369	
0.379144	0.136793	0.743369	
0.366719	0.098872	0.62645	
0.274515	0.174272	0.655082	
0.00183684	-0.222331	1	
0.00964811	-0.213747	0.871732	
-0.0638367	-0.295761	1	
-0.123319	-0.239698	0.888651	
-0.138674	0.323797	1	
-0.119993	0.246691	1	
-0.214341	0.273759	1	
-0.161164	0.309138	0.850572	
0	0.5	0.8	
-0.0728697	0.385983	0.897183	
-0.0413818	0.388755	0.761338	
0.0504561	0.409775	0.7991	
-0.207451	-0.082142	0.862889	
-0.340074	-0.13507	0.859051	
-0.330463	0.00145141	0.818132	
-0.270142	-0.144141	0.791801	
0.200864	0.212078	0.638362	
0.180554	0.223326	0.725764	
0.157976	0.137423	0.708763	
0.274515	0.174272	0.655082	
0.201164	-0.273578	1	
0.314857	-0.257449	1	
0.214973	-0.334693	0.892974	
0.237523	-0.1744	0.906763	
-0.168734	0.470668	0.798219	
-0.0413818	0.388755	0.761338	
-0.144118	0.318457	0.733262	
-0.0839841	0.399109	0.679035	
0.327694	-0.196387	0.7647	
0.233778	-0.237115	0.8353	
0.22816	-0.174755	0.697122	
0.294198	-0.285672	0.778149	
0.142999	-0.18326	0.747043	
0.200775	-0.327859	0.767733	
0.233778	-0.237115	0.8353	
0.111962	-0.272347	0.754919	
0.112799	-0.33356	1	
0.11106	-0.333093	0.843975	
0.0943468	-0.245334	1	
0.129352	-0.205365	0.887641	
-0.165601	0.0438592	0.827911	
-0.1493	0.167608	0.873324	
-0.28117	0.160675	0.841981	
-0.261224	0.0578819	0.892654	
0.300272	0.248641	0.604822	
0.200864	0.212078	0.638362	
0.193696	0.165595	0.572294	
0.274515	0.174272	0.655082	
0.399482	-0.123001	0.5	
0.381208	-0.210225	0.5	
0.351409	-0.224603	0.596537	
0.313135	-0.131023	0.572624	
-0.337562	0.0547633	1	
-0.3732	0.0934614	0.886553	
-0.261224	0.0578819	0.892654	
-0.398507	-0.0483311	0.885387	
0.276476	0.0535537	1	
0.226887	0.111044	0.884387	
0.337634	0.115561	1	
0.259967	0.0147254	0.905038	
0.271058	-0.153206	0.5	
0.212132	-0.128799	0.5	
0.249439	-0.196279	0.5	
0.186731	-0.150807	0.612641	
-0.165601	0.0438592	0.827911	
-0.261224	0.0578819	0.892654	
-0.207451	-0.082142	0.862889	
-0.185651	-0.000811148	0.912479	
-0.109975	-0.345553	0.5	
-0.0589256	-0.358926	0.5	
-0.0833333	-0.3	0.5	
-0.129826	-0.346552	0.613476	
-0.0499791	-0.122616	0.5	
0.0324597	-0.0934166	0.587598	
0	-0.0833333	0.5	
-0.0220267	-0.0501213	0.56323	
0.249439	0.227985	0.5	
0.300272	0.248641	0.604822	
0.271058	0.271058	0.5	
0.186731	0.273457	0.579435	
-0.302044	-0.0506462	1	
-0.337562	0.0547633	1	
-0.261224	0.0578819	0.892654	
-0.398507	-0.0483311	0.885387	
0.146853	-0.477948	0.584008	
0.0814864	-0.493315	0.652319	
0.154681	-0.352429	0.61086	
0.0212569	-0.409526	0.586364	
-0.429146	-0.25658	0.66876	
-0.386498	-0.317206	0.700322	
-0.303215	-0.24986	0.599065	
-0.288147	-0.263663	0.736531	
0.241126	0.246812	0.788674	
0.130793	0.331529	0.821778	
0.140223	0.195959	0.866253	
0.20334	0.284476	0.892831	
-0.331632	-0.374193	0.665357	
-0.303215	-0.24986	0.599065	
-0.288147	-0.263663	0.736531	
-0.2318	-0.328499	0.599609	
0.060105	0.382127	0.896284	
-0.0728697	0.385983	0.897183	
0	0.5	0.9	
0.0504561	0.409775	0.7991	
0.201164	-0.273578	1	
0.214973	-0.334693	0.892974	
0.129352	-0.205365	0.887641	
0.237523	-0.1744	0.906763	
-0.144987	0.358562	0.621326	
-0.144118	0.318457	0.733262	
-0.123171	0.237068	0.613094	
-0.0968356	0.250534	0.697531	
0.212132	-0.128799	0.5	
0.186731	-0.150807	0.612641	
0.251946	-0.0814223	0.593798	
0.190149	-0.0438256	0.575538	
-0.28117	0.160675	0.841981	
-0.165601	0.0438592	0.827911	
-0.261224	0.0578819	0.892654	
-0.222068	0.116218	0.765206	
-0.0930725	0.0739765	0.647155	
-0.18468	-0.0140346	0.624264	
-0.127176	-0.00609761	0.727567	
-0.177442	0.0578991	0.68267	
-0.345553	-0.109975	0.5	
-0.3	-0.0833333	0.5	
-0.323059	-0.0556697	0.636381	
-0.350407	-0.154201	0.605376	
-0.5	0	0.7	
-0.402816	-0.0523896	0.590168	
-0.354135	0.0170578	0.71226	
-0.398806	-0.103684	0.671654	
-0.323059	-0.0556697	0.636381	
-0.220621	-0.0913842	0.726535	
-0.244257	-0.0838675	0.585674	
-0.259249	-0.00709893	0.664249	
0.294742	-0.119382	0.854292	
0.327694	-0.196387	0.7647	
0.233778	-0.237115	0.8353	
0.189747	-0.143359	0.830553	
-0.5	0	0.9	
-0.3732	0.0934614	0.886553	
-0.426463	0.0441363	1	
-0.398507	-0.0483311	0.885387	
-0.0112682	-5.37735e-05	0.751437	
0.100041	-0.0381212	0.736861	
0.0209079	0.0660845	0.809865	
0.111146	-0.0163362	0.82287	
-0.123001	-0.399482	0.5	
-0.210263	-0.381228	0.5	
-0.238488	-0.439458	0.575692	
-0.129826	-0.346552	0.613476	
-5.51091e-17	-0.216667	0.5	
-0.0488646	-0.18203	0.5	
-0.0589256	-0.241074	0.5	
0.00796883	-0.184656	0.604274	
0.153206	-0.153206	0.5	
0.186731	-0.150807	0.612641	
0.100353	-0.184453	0.588762	
0.163252	-0.248876	0.586706	
0.0401436	0.291204	1	
0.0333325	0.222426	0.893441	
-0.00982413	0.311992	0.838847	
0.105325	0.289243	0.907921	
0.265971	0.0656026	0.794392	
0.259967	0.0147254	0.905038	
0.183683	-0.0446088	0.866852	
0.255127	-0.0374614	0.810965	
-0.328307	0.16356	1	
-0.26105	0.203399	1	
-0.257956	0.116321	1	
-0.28117	0.160675	0.841981	
0.157976	0.137423	0.708763	
0.204037	0.0208987	0.737245	
0.135395	0.0692853	0.814132	
0.117798	0.0518077	0.724107	
-0.0243888	0.144613	0.834462	
-0.0155726	0.113982	0.720278	
-0.0268842	0.224117	0.746658	
0.0742945	0.125166	0.760039	
0.0833333	-0.3	0.5	
0.0761744	-0.268448	0.622464	
0.154681	-0.352429	0.61086	
0.163252	-0.248876	0.586706	
-0.0112682	-5.37735e-05	0.751437	
0.0395279	-8.66572e-05	0.873882	
-0.028625	-0.0663675	0.813721	
0.111146	-0.0163362	0.82287	
0.0401436	0.291204	1	
-0.00982413	0.311992	0.838847	
0.060105	0.382127	0.896284	
0.105325	0.289243	0.907921	
-0.168043	-0.470916	0.699874	
-0.114558	-0.356703	0.732324	
-0.0833019	-0.493012	0.655211	
-0.129826	-0.346552	0.613476	
0.380207	-0.19708	1	
0.478555	-0.144862	0.921652	
0.436762	-0.243391	0.903062	
0.335277	-0.219266	0.871103	
0.0807477	-0.493437	0.845776	
0.168734	-0.470668	0.798219	
0.0854243	-0.492649	0.748597	
0.11106	-0.333093	0.843975	
0.299946	-0.0112682	0.640667	
0.385774	-0.0819641	0.609834	
0.346453	-0.0782039	0.737808	
0.275364	-0.0865903	0.678068	
-0.119993	0.246691	1	
-0.161164	0.309138	0.850572	
-0.138674	0.323797	1	
-0.0748341	0.245459	0.898908	
-0.41072	-0.12459	1	
-0.440961	-0.235698	0.931431	
-0.47591	-0.153328	0.90763	
-0.340074	-0.13507	0.859051	
-0.242822	0.437078	0.847009	
-0.235698	0.440961	0.931431	
-0.317233	0.386476	0.909527	
-0.272957	0.274415	0.886959	
-0.0810399	-0.493389	0.85285	
-0.0103711	-0.392711	0.762225	
-0.0603308	-0.338175	0.849262	
0.0283953	-0.39231	0.890404	
0.128799	0.212132	0.5	
0.106066	0.256066	0.5	
0.0589256	0.241074	0.5	
0.106333	0.267511	0.579786	
0.193272	-0.26142	0.670684	
0.0883483	-0.356203	0.717872	
0.0761744	-0.268448	0.622464	
0.154681	-0.352429	0.61086	
0.268691	0.110688	0.710369	
0.204037	0.0208987	0.737245	
0.157976	0.137423	0.708763	
0.237957	0.0412258	0.662892	
-0.154067	0.200523	0.744733	
-0.28117	0.160675	0.841981	
-0.265307	0.263707	0.765082	
-0.222068	0.116218	0.765206	
0.200864	0.212078	0.638362	
0.186731	0.273457	0.579435	
0.094036	0.192335	0.606134	
0.106333	0.267511	0.579786	
-0.0506005	0.12216	0.5	
0.016747	0.116372	0.584632	
0.00279483	0.150684	0.5	
-0.0835252	0.135066	0.582318	
0.193272	-0.26142	0.670684	
0.0761744	-0.268448	0.622464	
0.0883483	-0.356203	0.717872	
0.111962	-0.272347	0.754919	
0.0761744	-0.268448	0.622464	
0.0883483	-0.356203	0.717872	
0.0203259	-0.249482	0.748458	
-0.00577358	-0.254916	0.661058	
-0.476114	0.152694	0.59754	
-0.399482	0.123001	0.5	
-0.439458	0.238488	0.575692	
-0.332133	0.18678	0.621599	
-0.103796	0.164416	0.668888	
-0.234639	0.167846	0.67167	
-0.177179	0.127748	0.603282	
-0.177442	0.0578991	0.68267	
0.25658	0.429146	0.83124	
0.224036	0.344788	0.789803	
0.20334	0.284476	0.892831	
0.158987	0.372754	0.909796	
-0.222068	0.116218	0.765206	
-0.234639	0.167846	0.67167	
-0.118181	0.0989473	0.748679	
-0.177442	0.0578991	0.68267	
0.146853	-0.477948	0.584008	
0.154681	-0.352429	0.61086	
0.121351	-0.418264	0.5	
0.0212569	-0.409526	0.586364	
0.0761744	-0.268448	0.622464	
0.163252	-0.248876	0.586706	
0.100353	-0.184453	0.588762	
0.0780409	-0.210867	0.691426	
0.299946	-0.0112682	0.640667	
0.275364	-0.0865903	0.678068	
0.285541	-0.0139074	0.728509	
0.237957	0.0412258	0.662892	
0.184962	0.0799289	1	
0.158056	0.171884	1	
0.226887	0.111044	0.884387	
0.156034	0.0430169	0.909981	
-0.233647	0.26032	0.639516	
-0.265307	0.263707	0.765082	
-0.154067	0.200523	0.744733	
-0.144118	0.318457	0.733262	
-0.399482	0.123001	0.5	
-0.332133	0.18678	0.621599	
-0.476114	0.152694	0.59754	
-0.395918	0.121742	0.65735	
-0.152663	-6.75805e-05	0.5	
-0.122616	-0.0499791	0.5	
-0.0833333	0	0.5	
-0.0882569	-0.0365572	0.592669	
0.135395	0.0692853	0.814132	
0.067514	0.114479	0.890799	
0.140223	0.195959	0.866253	
0.0742945	0.125166	0.760039	
-0.153206	-0.153206	0.5	
-0.105887	-0.105887	0.5	
-0.15347	-0.097127	0.5	
-0.0814439	-0.125985	0.575026	
0.3168	0.386831	0.895903	
0.307884	0.246632	0.880034	
0.20334	0.284476	0.892831	
0.224036	0.344788	0.789803	
-0.478555	0.144862	0.921652	
-0.389036	0.207425	1	
-0.404541	0.126945	1	
-0.3732	0.0934614	0.886553	
0.153206	0.153206	0.5	
0.094036	0.192335	0.606134	
0.120479	0.115187	0.58227	
0.193696	0.165595	0.572294	
-0.189073	-0.267802	0.673143	
-0.245786	-0.164168	0.624683	
-0.303215	-0.24986	0.599065	
-0.288147	-0.263663	0.736531	
0.314271	-0.0501881	1	
0.388259	-0.0686204	0.893717	
0.294742	-0.119382	0.854292	
0.259967	0.0147254	0.905038	
-0.0814439	-0.125985	0.656453	
0.00796883	-0.184656	0.604274	
-0.0850635	-0.240496	0.617991	
-0.0814439	-0.125985	0.575026	
-0.344127	-0.112227	1	
-0.340074	-0.13507	0.859051	
-0.302044	-0.0506462	1	
-0.250033	-0.160772	0.906432	
-0.376757	0.328716	0.753532	
-0.265307	0.263707	0.765082	
-0.428195	0.258165	0.798245	
-0.317726	0.256883	0.685229	
-0.3	-0.0833333	0.5	
-0.350407	-0.154201	0.605376	
-0.271058	-0.153206	0.5	
-0.244257	-0.0838675	0.585674	
-0.0201888	0.188065	0.634	
0.0271287	0.256687	0.590103	
-0.0559694	0.29198	0.588124	
0.0297419	0.247817	0.680143	
0.0734599	0.0912867	0.653108	
0.0882618	0.0365592	0.582606	
0.0739457	-0.0375145	0.646536	
0.0370897	0.0247951	0.688096	
0.322027	0.213397	0.712919	
0.354508	0.178976	0.587224	
0.366719	0.098872	0.62645	
0.274515	0.174272	0.655082	
-0.153206	-0.271058	0.5	
-0.161532	-0.334293	0.5	
-0.129826	-0.346552	0.613476	
-0.2318	-0.328499	0.599609	
-0.38814	0.0365087	0.609899	
-0.32522	-0.00468432	0.575656	
-0.268448	0.0761744	0.677974	
-0.259249	-0.00709893	0.664249	
-0.157073	0.0991372	0.5	
-0.212132	0.128799	0.5	
-0.185212	0.0538339	0.5	
-0.177179	0.127748	0.603282	
-0.0978573	-0.216654	0.738076	
-0.00154855	-0.114907	0.739634	
-0.0814439	-0.125985	0.656453	
-0.0948276	-0.0943246	0.74579	
0.317233	-0.386476	0.909527	
0.380873	-0.323938	0.847739	
0.214973	-0.334693	0.892974	
0.335277	-0.219266	0.871103	
-0.216667	3.67394e-17	0.5	
-0.26241	-0.01517	0.5	
-0.241074	-0.0589256	0.5	
-0.244257	-0.0838675	0.585674	
-0.0555676	0.325574	1	
-0.0728697	0.385983	0.897183	
-0.00982413	0.311992	0.838847	
-0.0748341	0.245459	0.898908	
-0.0411735	0.316432	0.673786	
0.0518787	0.327869	0.739172	
0.0203259	0.350518	0.595017	
0.0140521	0.397008	0.681004	
-0.220621	-0.0913842	0.726535	
-0.167637	-0.166421	0.687024	
-0.158586	-0.105655	0.59825	
-0.14162	-0.0686737	0.672454	
0.0203259	0.350518	0.595017	
0.0518787	0.327869	0.739172	
0.107888	0.321356	0.639747	
0.0140521	0.397008	0.681004	
0.152693	-0.00394448	0.5	
0.165404	0.026433	0.57138	
0.118934	-0.0478046	0.5	
0.190149	-0.0438256	0.575538	
-0.0188603	-0.349288	0.644317	
0.0883483	-0.356203	0.717872	
0.0761744	-0.268448	0.622464	
-0.00577358	-0.254916	0.661058	
-0.048473	-0.0328568	1	
-0.0801278	-0.0255813	0.881784	
0.0395279	-8.66572e-05	0.873882	
-0.00334546	-0.102756	0.895053	
-0.03759	-0.31517	0.5	
-0.0589256	-0.241074	0.5	
-0.0833333	-0.3	0.5	
-0.00306262	-0.296003	0.5718	
-0.0268842	0.224117	0.746658	
0.0742945	0.125166	0.760039	
-0.0155726	0.113982	0.720278	
0.0615573	0.169949	0.68043	
0.186731	-0.150807	0.612641	
0.125362	-0.0795966	0.584968	
0.153206	-0.153206	0.5	
0.100353	-0.184453	0.588762	
-0.0112682	-5.37735e-05	0.751437	
0.0370897	0.0247951	0.688096	
-0.0531387	-0.0402198	0.678728	
-0.0139985	0.0766371	0.645768	
-0.231974	-0.22452	0.832256	
-0.173622	-0.15656	0.786805	
-0.288147	-0.263663	0.736531	
-0.270142	-0.144141	0.791801	
-0.0112682	-5.37735e-05	0.751437	
-0.118181	0.0989473	0.748679	
-0.127176	-0.00609761	0.727567	
-0.07036	0.0449888	0.808499	
0.316847	0.386792	0.698616	
0.380873	0.323938	0.652261	
0.216396	0.318788	0.694105	
0.252165	0.322355	0.613309	
0.476114	-0.152694	0.59754	
0.385774	-0.0819641	0.609834	
0.399482	-0.123001	0.5	
0.351409	-0.224603	0.596537	
-0.00425413	0.131001	1	
0.0209546	0.0362755	1	
-0.0734441	0.0616893	1	
-0.0884799	0.0810843	0.89303	
0.450285	-0.217356	0.644698	
0.385774	-0.0819641	0.609834	
0.476114	-0.152694	0.59754	
0.351409	-0.224603	0.596537	
0.0712814	-0.153152	1	
0.00964811	-0.213747	0.871732	
0.00183684	-0.222331	1	
-0.00334546	-0.102756	0.895053	
-0.128799	-0.212132	0.5	
-0.106066	-0.256066	0.5	
-0.0850635	-0.240496	0.617991	
-0.174064	-0.226232	0.58962	
-0.0814439	-0.125985	0.575026	
0.000308877	-0.122536	0.656981	
0.0324597	-0.0934166	0.587598	
-0.0220267	-0.0501213	0.56323	
0.220621	-0.0913842	0.746309	
0.294742	-0.119382	0.854292	
0.346453	-0.0782039	0.737808	
0.255127	-0.0374614	0.810965	
0.221409	-0.234529	0.5	
0.212132	-0.295465	0.5	
0.26032	-0.233647	0.595602	
0.163252	-0.248876	0.586706	
-0.168734	0.470668	0.798219	
-0.242822	0.437078	0.847009	
-0.247057	0.434698	0.749501	
-0.161164	0.309138	0.850572	
-0.18468	-0.0140346	0.624264	
-0.14162	-0.0686737	0.672454	
-0.22856	0.0108682	0.750263	
-0.259249	-0.00709893	0.664249	
-0.242822	0.437078	0.847009	
-0.316847	0.386792	0.801384	
-0.161164	0.309138	0.850572	
-0.272957	0.274415	0.886959	
-0.0807477	0.493437	0.845776	
-0.0413818	0.388755	0.761338	
0	0.5	0.8	
-0.0728697	0.385983	0.897183	
-0.127176	-0.00609761	0.727567	
-0.22856	0.0108682	0.750263	
-0.18468	-0.0140346	0.624264	
-0.14162	-0.0686737	0.672454	
-0.331632	-0.374193	0.665357	
-0.2318	-0.328499	0.599609	
-0.288147	-0.263663	0.736531	
-0.220163	-0.339708	0.738499	
-0.117671	-0.10197	1	
-0.0801278	-0.0255813	0.881784	
-0.00334546	-0.102756	0.895053	
-0.144759	-0.143126	0.912403	
-0.268448	0.0761744	0.677974	
-0.332133	0.18678	0.621599	
-0.268272	0.128138	0.588733	
-0.395918	0.121742	0.65735	
0.5	0	0.9	
0.388259	-0.0686204	0.893717	
0.388745	0.0776039	0.89546	
0.410213	-0.0392212	0.798574	
0.202324	0.378521	1	
0.3168	0.386831	0.895903	
0.261819	0.319027	1	
0.158987	0.372754	0.909796	
0.158056	0.171884	1	
0.226887	0.111044	0.884387	
0.140223	0.195959	0.866253	
0.22997	0.198341	0.863468	
-0.0112682	-5.37735e-05	0.751437	
-0.0155726	0.113982	0.720278	
-0.118181	0.0989473	0.748679	
-0.07036	0.0449888	0.808499	
-0.153328	0.47591	0.90763	
-0.161164	0.309138	0.850572	
-0.168734	0.470668	0.798219	
-0.0728697	0.385983	0.897183	
0.4284	-0.257824	0.704976	
0.415735	-0.277785	0.634138	
0.292602	-0.250468	0.688523	
0.351409	-0.224603	0.596537	
0.153206	0.153206	0.5	
0.128799	0.212132	0.5	
0.094036	0.192335	0.606134	
0.193696	0.165595	0.572294	
0.5	0	0.9	
0.388259	-0.0686204	0.893717	
0.409478	-0.032947	1	
0.388745	0.0776039	0.89546	
-0.0925337	-0.196451	1	
-0.0232782	-0.127584	1	
-0.00334546	-0.102756	0.895053	
-0.144759	-0.143126	0.912403	
-0.437078	-0.242822	0.847009	
-0.470668	-0.168734	0.798219	
-0.340074	-0.13507	0.859051	
-0.337623	-0.15776	0.722835	
0.0651412	0.200096	1	
0.140223	0.195959	0.866253	
0.158056	0.171884	1	
0.067514	0.114479	0.890799	
-0.345553	-0.109975	0.5	
-0.323059	-0.0556697	0.636381	
-0.358926	-0.0589256	0.5	
-0.402816	-0.0523896	0.590168	
-0.0930725	0.0739765	0.647155	
-0.0531387	-0.0402198	0.678728	
-0.000470172	0.0044189	0.616387	
-0.0139985	0.0766371	0.645768	
0.186731	-0.150807	0.612641	
0.275364	-0.0865903	0.678068	
0.251946	-0.0814223	0.593798	
0.163343	-0.0947766	0.678001	
-0.220621	-0.0913842	0.726535	
-0.245786	-0.164168	0.624683	
-0.158586	-0.105655	0.59825	
-0.167637	-0.166421	0.687024	
-0.154067	0.200523	0.744733	
-0.233647	0.26032	0.639516	
-0.144118	0.318457	0.733262	
-0.0968356	0.250534	0.697531	
-0.233647	0.26032	0.639516	
-0.144987	0.358562	0.621326	
-0.123171	0.237068	0.613094	
-0.181622	0.273954	0.57406	
0.5	0	0.9	
0.388745	0.0776039	0.89546	
0.409933	0.0569559	0.803804	
0.410213	-0.0392212	0.798574	
0	-0.5	0.7	
-0.0188603	-0.349288	0.644317	
-0.0833019	-0.493012	0.655211	
-0.0103711	-0.392711	0.762225	
0.231243	0.24169	1	
0.158056	0.171884	1	
0.20334	0.284476	0.892831	
0.22997	0.198341	0.863468	
0.0203259	0.350518	0.595017	
0.0271287	0.256687	0.590103	
0.0373069	0.315853	0.5	
0.106333	0.267511	0.579786	
0.0203259	-0.249482	0.748458	
0.0761744	-0.268448	0.622464	
-0.00577358	-0.254916	0.661058	
0.0780409	-0.210867	0.691426	
0.0833333	-0.3	0.5	
0.12216	-0.350601	0.5	
0.166579	-0.322107	0.5	
0.154681	-0.352429	0.61086	
0.268691	0.110688	0.710369	
0.157976	0.137423	0.708763	
0.19713	0.0957524	0.613371	
0.237957	0.0412258	0.662892	
-0.211369	-0.0761151	1	
-0.207451	-0.082142	0.862889	
-0.302044	-0.0506462	1	
-0.185651	-0.000811148	0.912479	
0.5	0	0.7	
0.346453	-0.0782039	0.737808	
0.490343	-0.0977967	0.758774	
0.410213	-0.0392212	0.798574	
-0.273315	0.334955	1	
-0.201912	0.369986	1	
-0.214341	0.273759	1	
-0.272957	0.274415	0.886959	
-0.161164	0.309138	0.850572	
-0.154067	0.200523	0.744733	
-0.265307	0.263707	0.765082	
-0.144118	0.318457	0.733262	
0.00964811	-0.213747	0.871732	
0.129352	-0.205365	0.887641	
0.11106	-0.333093	0.843975	
0.0762998	-0.205219	0.804763	
0.0506005	-0.12216	0.5	
0.0519196	-0.186143	0.5	
0.0967728	-0.154724	0.5	
0.100353	-0.184453	0.588762	
-0.085688	-0.137167	0.83131	
-0.00154855	-0.114907	0.739634	
-0.0978573	-0.216654	0.738076	
-0.0948276	-0.0943246	0.74579	
-0.302044	-0.0506462	1	
-0.207451	-0.082142	0.862889	
-0.211369	-0.0761151	1	
-0.250033	-0.160772	0.906432	
-0.28117	0.160675	0.841981	
-0.34853	0.148938	0.738537	
-0.265307	0.263707	0.765082	
-0.222068	0.116218	0.765206	
-0.323938	-0.380873	0.847739	
-0.328716	-0.376757	0.753532	
-0.288147	-0.263663	0.736531	
-0.220163	-0.339708	0.738499	
-0.189073	-0.267802	0.673143	
-0.288147	-0.263663	0.736531	
-0.303215	-0.24986	0.599065	
-0.2318	-0.328499	0.599609	
-0.0884799	0.0810843	0.89303	
0.0209079	0.0660845	0.809865	
0.0395279	-8.66572e-05	0.873882	
-0.07036	0.0449888	0.808499	
-0.12216	0.0506005	0.5	
-0.106984	0.108603	0.5	
-0.130814	0.0354375	0.582428	
-0.0524491	0.0544183	0.580273	
-0.0589256	-0.241074	0.5	
-0.0488646	-0.18203	0.5	
-0.128799	-0.212132	0.5	
-0.0850635	-0.240496	0.617991	
-0.437078	-0.242822	0.847009	
-0.434698	-0.247057	0.749501	
-0.470668	-0.168734	0.798219	
-0.337623	-0.15776	0.722835	
0.327694	-0.196387	0.7647	
0.22816	-0.174755	0.697122	
0.292602	-0.250468	0.688523	
0.294198	-0.285672	0.778149	
-0.257956	0.116321	1	
-0.328307	0.16356	1	
-0.28117	0.160675	0.841981	
-0.261224	0.0578819	0.892654	
0.0519196	-0.186143	0.5	
0.00796883	-0.184656	0.604274	
0.0589256	-0.241074	0.5	
0.100353	-0.184453	0.588762	
-0.153206	0.153206	0.5	
-0.157073	0.0991372	0.5	
-0.106984	0.108603	0.5	
-0.0835252	0.135066	0.582318	
-0.386505	0.317197	0.931175	
-0.318983	0.261743	1	
-0.436762	0.243391	0.903062	
-0.272957	0.274415	0.886959	
0.233778	-0.237115	0.8353	
0.142999	-0.18326	0.747043	
0.129352	-0.205365	0.887641	
0.189747	-0.143359	0.830553	
-0.323059	-0.0556697	0.636381	
-0.244257	-0.0838675	0.585674	
-0.3	-0.0833333	0.5	
-0.32522	-0.00468432	0.575656	
-0.469721	0.171353	0.838334	
-0.460548	0.194667	0.76567	
-0.428195	0.258165	0.798245	
-0.34853	0.148938	0.738537	
0.331011	0.147461	0.830703	
0.388745	0.0776039	0.89546	
0.470916	0.168043	0.800126	
0.376293	0.169886	0.910318	
-0.00577358	-0.254916	0.661058	
0.0780409	-0.210867	0.691426	
0.00796883	-0.184656	0.604274	
0.000308877	-0.122536	0.656981	
0.168734	-0.470668	0.798219	
0.0883483	-0.356203	0.717872	
0.11106	-0.333093	0.843975	
0.200775	-0.327859	0.767733	
0.366719	0.098872	0.62645	
0.379144	0.136793	0.743369	
0.322027	0.213397	0.712919	
0.274515	0.174272	0.655082	
-0.168734	0.470668	0.798219	
-0.0413818	0.388755	0.761338	
-0.0807477	0.493437	0.845776	
-0.0728697	0.385983	0.897183	
-0.165601	0.0438592	0.827911	
-0.118181	0.0989473	0.748679	
-0.1493	0.167608	0.873324	
-0.0884799	0.0810843	0.89303	
0.118934	-0.0478046	0.5	
0.165404	0.026433	0.57138	
0.125362	-0.0795966	0.584968	
0.190149	-0.0438256	0.575538	
0.0203259	-0.249482	0.748458	
0.11106	-0.333093	0.843975	
0.111962	-0.272347	0.754919	
0.0762998	-0.205219	0.804763	
-0.271058	-0.153206	0.5	
-0.224672	-0.181859	0.5	
-0.212132	-0.128799	0.5	
-0.245786	-0.164168	0.624683	
0.346453	-0.0782039	0.737808	
0.385774	-0.0819641	0.609834	
0.311042	-0.160939	0.648474	
0.275364	-0.0865903	0.678068	
-0.000470172	0.0044189	0.616387	
-0.0531387	-0.0402198	0.678728	
0.0739457	-0.0375145	0.646536	
0.0370897	0.0247951	0.688096	
-0.328307	0.16356	1	
-0.3732	0.0934614	0.886553	
-0.28117	0.160675	0.841981	
-0.261224	0.0578819	0.892654	
0.241074	-0.0589256	0.5	
0.212132	-0.128799	0.5	
0.256066	-0.106066	0.5	
0.251946	-0.0814223	0.593798	
-0.38814	0.0365087	0.609899	
-0.493012	0.0833019	0.655211	
-0.354135	0.0170578	0.71226	
-0.395918	0.121742	0.65735	
-0.0807477	0.493437	0.845776	
0	0.5	0.8	
0	0.5	0.9	
-0.0728697	0.385983	0.897183	
0	0.5	0.6	
0.0704482	0.495012	0.571845	
0.0140521	0.397008	0.681004	
0.0967579	0.384129	0.574883	
-0.323059	-0.0556697	0.636381	
-0.32522	-0.00468432	0.575656	
-0.358926	-0.0589256	0.5	
-0.402816	-0.0523896	0.590168	
-0.048473	-0.0328568	1	
0.0395279	-8.66572e-05	0.873882	
0.0461078	-0.0584269	1	
-0.00334546	-0.102756	0.895053	
0.153206	-0.153206	0.5	
0.212132	-0.128799	0.5	
0.154508	-0.0938282	0.5	
0.186731	-0.150807	0.612641	
0.174542	0.196962	0.5	
0.186731	0.273457	0.579435	
0.128799	0.212132	0.5	
0.193696	0.165595	0.572294	
0.294742	-0.119382	0.854292	
0.388259	-0.0686204	0.893717	
0.332026	0.00704946	0.830563	
0.259967	0.0147254	0.905038	
0.0203259	-0.249482	0.748458	
0.0780409	-0.210867	0.691426	
-0.00154855	-0.114907	0.739634	
0.0762998	-0.205219	0.804763	
-0.288147	-0.263663	0.736531	
-0.2318	-0.328499	0.599609	
-0.189073	-0.267802	0.673143	
-0.220163	-0.339708	0.738499	
0.0651412	0.200096	1	
0.0333325	0.222426	0.893441	
0.140223	0.195959	0.866253	
0.067514	0.114479	0.890799	
-0.268272	0.128138	0.588733	
-0.212186	0.200864	0.578994	
-0.295465	0.212132	0.5	
-0.302751	0.261742	0.582968	
-0.428195	0.258165	0.798245	
-0.34853	0.148938	0.738537	
-0.4284	0.257824	0.704976	
-0.317726	0.256883	0.685229	
0.460548	-0.194667	0.76567	
0.470916	-0.168043	0.699874	
0.327694	-0.196387	0.7647	
0.383529	-0.130684	0.812713	
-0.245786	-0.164168	0.624683	
-0.303215	-0.24986	0.599065	
-0.337623	-0.15776	0.722835	
-0.350407	-0.154201	0.605376	
-0.490343	0.0977967	0.758774	
-0.354135	0.0170578	0.71226	
-0.493012	0.0833019	0.655211	
-0.395918	0.121742	0.65735	
0.490343	-0.0977967	0.758774	
0.5	0	0.7	
0.493012	-0.0833019	0.655211	
0.346453	-0.0782039	0.737808	
0.42216	-0.0506005	0.5	
0.383333	0	0.5	
0.358926	-0.0589256	0.5	
0.321349	-0.0500942	0.566645	
0.376757	0.328716	0.746468	
0.316847	0.386792	0.698616	
0.380873	0.323938	0.652261	
0.322027	0.213397	0.712919	
0.0248177	-0.313374	1	
0.00183684	-0.222331	1	
0.0943468	-0.245334	1	
0.00964811	-0.213747	0.871732	
0.241074	0.0589256	0.5	
0.283872	0.123177	0.588485	
0.19713	0.0957524	0.613371	
0.24433	0.0230591	0.580906	
-0.117671	-0.10197	1	
-0.0801278	-0.0255813	0.881784	
-0.048473	-0.0328568	1	
-0.00334546	-0.102756	0.895053	
-0.153206	-0.271058	0.5	
-0.212132	-0.295465	0.5	
-0.161532	-0.334293	0.5	
-0.2318	-0.328499	0.599609	
0.251946	-0.0814223	0.593798	
0.299946	-0.0112682	0.640667	
0.275364	-0.0865903	0.678068	
0.321349	-0.0500942	0.566645	
-0.085688	-0.137167	0.83131	
-0.0978573	-0.216654	0.738076	
-0.123319	-0.239698	0.888651	
-0.173622	-0.15656	0.786805	
0	0.5	0.9	
0.0420691	0.427134	1	
-0.0372406	0.417791	1	
0.060105	0.382127	0.896284	
-0.332133	0.18678	0.621599	
-0.34853	0.148938	0.738537	
-0.4284	0.257824	0.704976	
-0.395918	0.121742	0.65735	
0.157976	0.137423	0.708763	
0.094036	0.192335	0.606134	
0.0615573	0.169949	0.68043	
0.12725	0.243321	0.66402	
-0.123171	0.237068	0.613094	
-0.233647	0.26032	0.639516	
-0.212186	0.200864	0.578994	
-0.234639	0.167846	0.67167	
-0.5	0	0.9	
-0.493389	0.0810399	0.85285	
-0.3732	0.0934614	0.886553	
-0.398507	-0.0483311	0.885387	
-0.153206	0.153206	0.5	
-0.0949082	0.168548	0.5	
-0.128799	0.212132	0.5	
-0.0835252	0.135066	0.582318	
-0.0201888	0.188065	0.634	
-0.0559694	0.29198	0.588124	
-0.0411735	0.316432	0.673786	
0.0297419	0.247817	0.680143	
0.3	0.0833333	0.5	
0.358926	0.0589256	0.5	
0.350601	0.12216	0.5	
0.283872	0.123177	0.588485	
0.107888	0.321356	0.639747	
0.0203259	0.350518	0.595017	
0.0271287	0.256687	0.590103	
0.0297419	0.247817	0.680143	
-0.03759	0.28483	0.5	
0.0092772	0.277603	0.5	
-0.0125395	0.330273	0.5	
-0.0559694	0.29198	0.588124	
-0.114558	-0.356703	0.732324	
-0.182538	-0.337413	0.833302	
-0.0603308	-0.338175	0.849262	
-0.050212	-0.252969	0.810638	
0.0712814	-0.153152	1	
0.00183684	-0.222331	1	
-0.0232782	-0.127584	1	
-0.00334546	-0.102756	0.895053	
-0.356684	-0.19351	1	
-0.41072	-0.12459	1	
-0.344127	-0.112227	1	
-0.340074	-0.13507	0.859051	
0.153206	-0.153206	0.5	
0.100353	-0.184453	0.588762	
0.128799	-0.212132	0.5	
0.163252	-0.248876	0.586706	
0.275364	-0.0865903	0.678068	
0.321349	-0.0500942	0.566645	
0.385774	-0.0819641	0.609834	
0.313135	-0.131023	0.572624	
-0.26105	0.203399	1	
-0.328307	0.16356	1	
-0.318983	0.261743	1	
-0.272957	0.274415	0.886959	
0	-0.5	0.7	
-0.0833019	-0.493012	0.655211	
-0.0188603	-0.349288	0.644317	
0.0212569	-0.409526	0.586364	
-0.277785	-0.415735	0.634138	
-0.2318	-0.328499	0.599609	
-0.331632	-0.374193	0.665357	
-0.220163	-0.339708	0.738499	
-0.0201888	0.188065	0.634	
-0.0559694	0.29198	0.588124	
-0.123171	0.237068	0.613094	
-0.0968356	0.250534	0.697531	
-0.295465	-0.212132	0.5	
-0.249722	-0.227302	0.5	
-0.271058	-0.153206	0.5	
-0.245786	-0.164168	0.624683	
-0.302044	-0.0506462	1	
-0.340074	-0.13507	0.859051	
-0.344127	-0.112227	1	
-0.398507	-0.0483311	0.885387	
0.251946	-0.0814223	0.593798	
0.186731	-0.150807	0.612641	
0.163343	-0.0947766	0.678001	
0.190149	-0.0438256	0.575538	
0.0833333	-0.3	0.5	
0.154681	-0.352429	0.61086	
0.166579	-0.322107	0.5	
0.163252	-0.248876	0.586706	
0.233778	-0.237115	0.8353	
0.129352	-0.205365	0.887641	
0.11106	-0.333093	0.843975	
0.214973	-0.334693	0.892974	
0.415735	-0.277785	0.634138	
0.4284	-0.257824	0.704976	
0.450285	-0.217356	0.644698	
0.351409	-0.224603	0.596537	
0.3168	0.386831	0.895903	
0.20334	0.284476	0.892831	
0.261819	0.319027	1	
0.158987	0.372754	0.909796	
-0.415735	0.277785	0.634138	
-0.4284	0.257824	0.704976	
-0.450285	0.217356	0.644698	
-0.332133	0.18678	0.621599	
-0.265307	0.263707	0.765082	
-0.144118	0.318457	0.733262	
-0.233647	0.26032	0.639516	
-0.23213	0.339095	0.696865	
0.216396	0.318788	0.694105	
0.186731	0.273457	0.579435	
0.200864	0.212078	0.638362	
0.12725	0.243321	0.66402	
-0.106066	0.256066	0.5	
-0.0559694	0.29198	0.588124	
-0.123171	0.237068	0.613094	
-0.0595377	0.207843	0.570115	
0.241126	0.246812	0.788674	
0.20334	0.284476	0.892831	
0.307884	0.246632	0.880034	
0.224036	0.344788	0.789803	
0.469721	0.171353	0.661666	
0.322027	0.213397	0.712919	
0.428195	0.258165	0.701755	
0.354508	0.178976	0.587224	
0.108346	0.0977259	0.5	
0.0589256	0.0589256	0.5	
0.0882618	0.0365592	0.582606	
0.120479	0.115187	0.58227	
-0.0201888	0.188065	0.634	
-0.0411735	0.316432	0.673786	
-0.0559694	0.29198	0.588124	
-0.0968356	0.250534	0.697531	
-0.241074	-0.0589256	0.5	
-0.18203	-0.0488646	0.5	
-0.216667	3.67394e-17	0.5	
-0.244257	-0.0838675	0.585674	
0.311042	-0.160939	0.648474	
0.186731	-0.150807	0.612641	
0.22816	-0.174755	0.697122	
0.275364	-0.0865903	0.678068	
0.247868	0.146306	1	
0.226887	0.111044	0.884387	
0.158056	0.171884	1	
0.22997	0.198341	0.863468	
0.200864	0.212078	0.638362	
0.106333	0.267511	0.579786	
0.094036	0.192335	0.606134	
0.12725	0.243321	0.66402	
0.409478	-0.032947	1	
0.388259	-0.0686204	0.893717	
0.346509	0.0237889	1	
0.388745	0.0776039	0.89546	
-0.154067	0.200523	0.744733	
-0.118181	0.0989473	0.748679	
-0.222068	0.116218	0.765206	
-0.234639	0.167846	0.67167	
0.12216	0.350601	0.5	
0.106333	0.267511	0.579786	
0.166579	0.322107	0.5	
0.178778	0.36803	0.594641	
0.0903521	0.10545	1	
0.115537	0.0107471	1	
0.0209546	0.0362755	1	
0.067514	0.114479	0.890799	
0.0761744	-0.268448	0.622464	
0.193272	-0.26142	0.670684	
0.163252	-0.248876	0.586706	
0.0780409	-0.210867	0.691426	
0.331011	0.147461	0.830703	
0.268691	0.110688	0.710369	
0.322027	0.213397	0.712919	
0.379144	0.136793	0.743369	
0.0785366	-0.11627	0.823358	
0.183683	-0.0446088	0.866852	
0.189747	-0.143359	0.830553	
0.111146	-0.0163362	0.82287	
0.469721	0.171353	0.661666	
0.366719	0.098872	0.62645	
0.493389	0.0810399	0.64715	
0.379144	0.136793	0.743369	
-0.0524491	0.0544183	0.580273	
-0.0220267	-0.0501213	0.56323	
-0.0125395	0.0302731	0.5	
0.0195373	0.0477919	0.562256	
-0.168688	-0.281701	1	
-0.0638367	-0.295761	1	
-0.114467	-0.386332	1	
-0.123319	-0.239698	0.888651	
0.0092772	0.277603	0.5	
0.0271287	0.256687	0.590103	
0.0203259	0.350518	0.595017	
-0.0559694	0.29198	0.588124	
-0.106066	0.256066	0.5	
-0.128799	0.212132	0.5	
-0.123171	0.237068	0.613094	
-0.181622	0.273954	0.57406	
0.11106	-0.333093	0.843975	
0.233778	-0.237115	0.8353	
0.200775	-0.327859	0.767733	
0.111962	-0.272347	0.754919	
-0.18203	-0.0488646	0.5	
-0.15347	-0.097127	0.5	
-0.122616	-0.0499791	0.5	
-0.158586	-0.105655	0.59825	
0.0814864	-0.493315	0.652319	
0.0883483	-0.356203	0.717872	
0.174678	-0.468495	0.682891	
0.154681	-0.352429	0.61086	
-0.242822	0.437078	0.847009	
-0.153328	0.47591	0.90763	
-0.235698	0.440961	0.931431	
-0.161164	0.309138	0.850572	
-0.0328721	-0.370689	1	
-0.114467	-0.386332	1	
-0.0638367	-0.295761	1	
-0.0603308	-0.338175	0.849262	
-0.0112682	-5.37735e-05	0.751437	
-0.07036	0.0449888	0.808499	
-0.127176	-0.00609761	0.727567	
-0.028625	-0.0663675	0.813721	
0.3	0.0833333	0.5	
0.283872	0.123177	0.588485	
0.24433	0.0230591	0.580906	
0.350518	0.0203259	0.577676	
-0.478555	0.144862	0.921652	
-0.436762	0.243391	0.903062	
-0.389036	0.207425	1	
-0.3732	0.0934614	0.886553	
-0.153206	-0.271058	0.5	
-0.129826	-0.346552	0.613476	
-0.174064	-0.226232	0.58962	
-0.2318	-0.328499	0.599609	
-6.75805e-05	-0.152663	0.5	
-0.0488646	-0.18203	0.5	
0.00796883	-0.184656	0.604274	
-0.0814439	-0.125985	0.575026	
0.100041	-0.0381212	0.736861	
0.204037	0.0208987	0.737245	
0.161285	-0.0150511	0.638026	
0.117798	0.0518077	0.724107	
-0.358926	0.0589256	0.5	
-0.345553	0.109975	0.5	
-0.399482	0.123001	0.5	
-0.38814	0.0365087	0.609899	
-0.165601	0.0438592	0.827911	
-0.1493	0.167608	0.873324	
-0.118181	0.0989473	0.748679	
-0.222068	0.116218	0.765206	
0.383333	0	0.5	
0.435719	7.07799e-17	0.5	
0.431857	0.0465403	0.5	
0.350518	0.0203259	0.577676	
-0.0801278	-0.0255813	0.881784	
-0.144759	-0.143126	0.912403	
-0.117671	-0.10197	1	
-0.185651	-0.000811148	0.912479	
-0.41072	-0.12459	1	
-0.344127	-0.112227	1	
-0.340074	-0.13507	0.859051	
-0.398507	-0.0483311	0.885387	
0	0.5	0.9	
0.060105	0.382127	0.896284	
-0.0372406	0.417791	1	
-0.0728697	0.385983	0.897183	
-0.154067	0.200523	0.744733	
-0.222068	0.116218	0.765206	
-0.265307	0.263707	0.765082	
-0.234639	0.167846	0.67167	
0.317233	-0.386476	0.909527	
0.214973	-0.334693	0.892974	
0.380873	-0.323938	0.847739	
0.294198	-0.285672	0.778149	
0.358926	0.0589256	0.5	
0.283872	0.123177	0.588485	
0.3	0.0833333	0.5	
0.350518	0.0203259	0.577676	
0.115537	0.0107471	1	
0.067514	0.114479	0.890799	
0.0903521	0.10545	1	
0.156034	0.0430169	0.909981	
0.232997	-0.11062	1	
0.164797	-0.177585	1	
0.14072	-0.0839746	1	
0.237523	-0.1744	0.906763	
-0.295465	-0.212132	0.5	
-0.245786	-0.164168	0.624683	
-0.271058	-0.153206	0.5	
-0.350407	-0.154201	0.605376	
0.470916	0.168043	0.800126	
0.388745	0.0776039	0.89546	
0.331011	0.147461	0.830703	
0.409933	0.0569559	0.803804	
-0.249722	-0.227302	0.5	
-0.245786	-0.164168	0.624683	
-0.303215	-0.24986	0.599065	
-0.174064	-0.226232	0.58962	
0.0373069	-0.284147	0.5	
0.0761744	-0.268448	0.622464	
0.0589256	-0.241074	0.5	
-0.00306262	-0.296003	0.5718	
-0.152663	-6.75805e-05	0.5	
-0.0882569	-0.0365572	0.592669	
-0.0833333	0	0.5	
-0.130814	0.0354375	0.582428	
-0.265307	0.263707	0.765082	
-0.234639	0.167846	0.67167	
-0.34853	0.148938	0.738537	
-0.317726	0.256883	0.685229	
-0.0978573	-0.216654	0.738076	
-0.085688	-0.137167	0.83131	
-0.123319	-0.239698	0.888651	
-0.050212	-0.252969	0.810638	
-0.106066	0.256066	0.5	
-0.123171	0.237068	0.613094	
-0.128799	0.212132	0.5	
-0.0595377	0.207843	0.570115	
-0.0419658	0.179631	0.5	
0.00279483	0.150684	0.5	
1.83697e-17	0.216667	0.5	
-0.0595377	0.207843	0.570115	
-0.18203	-0.0488646	0.5	
-0.158586	-0.105655	0.59825	
-0.18468	-0.0140346	0.624264	
-0.244257	-0.0838675	0.585674	
0.161285	-0.0150511	0.638026	
0.0882618	0.0365592	0.582606	
0.125362	-0.0795966	0.584968	
0.0739457	-0.0375145	0.646536	
0	-0.5	0.8	
-0.0103711	-0.392711	0.762225	
-0.0810399	-0.493389	0.85285	
0.0283953	-0.39231	0.890404	
-0.3	0.0833333	0.5	
-0.337307	0.0158534	0.5	
-0.28746	0.0302731	0.5	
-0.32522	-0.00468432	0.575656	
-0.0801278	-0.0255813	0.881784	
-0.0884799	0.0810843	0.89303	
0.0395279	-8.66572e-05	0.873882	
-0.07036	0.0449888	0.808499	
-0.154067	0.200523	0.744733	
-0.118181	0.0989473	0.748679	
-0.1493	0.167608	0.873324	
-0.222068	0.116218	0.765206	
0.193272	-0.26142	0.670684	
0.0780409	-0.210867	0.691426	
0.0761744	-0.268448	0.622464	
0.111962	-0.272347	0.754919	
-0.332133	0.18678	0.621599	
-0.4284	0.257824	0.704976	
-0.34853	0.148938	0.738537	
-0.317726	0.256883	0.685229	
0.0395279	-8.66572e-05	0.873882	
0.0785366	-0.11627	0.823358	
-0.028625	-0.0663675	0.813721	
0.111146	-0.0163362	0.82287	
-0.245786	-0.164168	0.624683	
-0.337623	-0.15776	0.722835	
-0.323059	-0.0556697	0.636381	
-0.350407	-0.154201	0.605376	
0.265971	0.0656026	0.794392	
0.379144	0.136793	0.743369	
0.331011	0.147461	0.830703	
0.409933	0.0569559	0.803804	
0.125362	-0.0795966	0.584968	
0.0882618	0.0365592	0.582606	
0.161285	-0.0150511	0.638026	
0.165404	0.026433	0.57138	
-0.493389	0.0810399	0.85285	
-0.490343	0.0977967	0.758774	
-0.469721	0.171353	0.838334	
-0.3732	0.0934614	0.886553	
-0.123001	-0.399482	0.5	
-0.152694	-0.476114	0.59754	
-0.0698189	-0.495101	0.572379	
-0.129826	-0.346552	0.613476	
0.271058	0.271058	0.5	
0.300272	0.248641	0.604822	
0.305409	0.305409	0.5	
0.252165	0.322355	0.613309	
-0.0925337	-0.196451	1	
0.00964811	-0.213747	0.871732	
0.00183684	-0.222331	1	
-0.123319	-0.239698	0.888651	
-0.278713	-0.14304	1	
-0.344127	-0.112227	1	
-0.302044	-0.0506462	1	
-0.250033	-0.160772	0.906432	
-0.22856	0.0108682	0.750263	
-0.261224	0.0578819	0.892654	
-0.165601	0.0438592	0.827911	
-0.222068	0.116218	0.765206	
0.0092772	-0.322397	0.5	
0.0589256	-0.358926	0.5	
-0.00306262	-0.296003	0.5718	
0.0212569	-0.409526	0.586364	
0.385774	-0.0819641	0.609834	
0.275364	-0.0865903	0.678068	
0.299946	-0.0112682	0.640667	
0.321349	-0.0500942	0.566645	
-0.203173	-0.373024	1	
-0.182538	-0.337413	0.833302	
-0.243391	-0.436762	0.903062	
-0.235677	-0.292728	0.906663	
0.314271	-0.0501881	1	
0.313791	-0.154465	1	
0.294742	-0.119382	0.854292	
0.388259	-0.0686204	0.893717	
0.128799	-0.212132	0.5	
0.100353	-0.184453	0.588762	
0.106066	-0.256066	0.5	
0.163252	-0.248876	0.586706	
0.316847	-0.386792	0.801384	
0.214973	-0.334693	0.892974	
0.317233	-0.386476	0.909527	
0.294198	-0.285672	0.778149	
0.201164	-0.273578	1	
0.112799	-0.33356	1	
0.0943468	-0.245334	1	
0.129352	-0.205365	0.887641	
0.117798	0.0518077	0.724107	
0.0209079	0.0660845	0.809865	
0.0742945	0.125166	0.760039	
0.0370897	0.0247951	0.688096	
-0.118181	0.0989473	0.748679	
-0.0884799	0.0810843	0.89303	
-0.165601	0.0438592	0.827911	
-0.07036	0.0449888	0.808499	
0.357913	0.0406281	0.72441	
0.379144	0.136793	0.743369	
0.265971	0.0656026	0.794392	
0.409933	0.0569559	0.803804	
0.212132	0.128799	0.5	
0.1612	0.100866	0.5	
0.184661	0.0531453	0.5	
0.19713	0.0957524	0.613371	
0.153206	-0.153206	0.5	
0.128799	-0.212132	0.5	
0.174542	-0.227302	0.5	
0.163252	-0.248876	0.586706	
-0.03759	-0.01517	0.5	
-0.0125395	0.0302731	0.5	
-0.0524491	0.0544183	0.580273	
-0.0220267	-0.0501213	0.56323	
0.135395	0.0692853	0.814132	
0.140223	0.195959	0.866253	
0.226887	0.111044	0.884387	
0.217923	0.147902	0.790128	
0.161285	-0.0150511	0.638026	
0.0739457	-0.0375145	0.646536	
0.100041	-0.0381212	0.736861	
0.117798	0.0518077	0.724107	
0.0704482	0.495012	0.571845	
0.0807477	0.493437	0.654224	
0.0140521	0.397008	0.681004	
0.0967579	0.384129	0.574883	
-0.18468	-0.0140346	0.624264	
-0.0930725	0.0739765	0.647155	
-0.130814	0.0354375	0.582428	
-0.177442	0.0578991	0.68267	
-0.181859	0.199592	0.5	
-0.212186	0.200864	0.578994	
-0.128799	0.212132	0.5	
-0.181622	0.273954	0.57406	
-0.426463	0.0441363	1	
-0.3732	0.0934614	0.886553	
-0.337562	0.0547633	1	
-0.398507	-0.0483311	0.885387	
-0.309277	-0.0223972	0.5	
-0.3	-0.0833333	0.5	
-0.244257	-0.0838675	0.585674	
-0.32522	-0.00468432	0.575656	
-0.174678	0.468495	0.682891	
-0.168734	0.470668	0.798219	
-0.144118	0.318457	0.733262	
-0.0839841	0.399109	0.679035	
0.300272	0.248641	0.604822	
0.283872	0.123177	0.588485	
0.295465	0.212132	0.5	
0.354508	0.178976	0.587224	
-0.5	0	0.9	
-0.5	0	0.8	
-0.493389	0.0810399	0.85285	
-0.398507	-0.0483311	0.885387	
0.060105	0.382127	0.896284	
-0.00982413	0.311992	0.838847	
-0.0728697	0.385983	0.897183	
0.0504561	0.409775	0.7991	
-0.332133	0.18678	0.621599	
-0.212186	0.200864	0.578994	
-0.268272	0.128138	0.588733	
-0.302751	0.261742	0.582968	
0.0819669	-0.126701	0.660191	
0.0780409	-0.210867	0.691426	
-0.00154855	-0.114907	0.739634	
0.000308877	-0.122536	0.656981	
0.314271	-0.0501881	1	
0.346509	0.0237889	1	
0.388259	-0.0686204	0.893717	
0.259967	0.0147254	0.905038	
-0.207451	-0.082142	0.862889	
-0.220621	-0.0913842	0.726535	
-0.22856	0.0108682	0.750263	
-0.138777	-0.0448954	0.811721	
-0.268448	0.0761744	0.677974	
-0.259187	0.0363748	0.591328	
-0.177179	0.127748	0.603282	
-0.177442	0.0578991	0.68267	
-0.161532	-0.334293	0.5	
-0.210263	-0.381228	0.5	
-0.123001	-0.399482	0.5	
-0.129826	-0.346552	0.613476	
0	0.5	0.6	
-0.0634498	0.397211	0.588093	
0.0203259	0.350518	0.595017	
0.0140521	0.397008	0.681004	
0.305409	0.305409	0.5	
0.300272	0.248641	0.604822	
0.386505	0.317197	0.568825	
0.252165	0.322355	0.613309	
0.0882618	0.0365592	0.582606	
0.125362	-0.0795966	0.584968	
0.0739457	-0.0375145	0.646536	
0.0466381	-0.023308	0.56503	
0.450285	0.217356	0.855302	
0.4284	0.257824	0.795024	
0.470916	0.168043	0.800126	
0.331011	0.147461	0.830703	
0.299946	-0.0112682	0.640667	
0.346453	-0.0782039	0.737808	
0.357913	0.0406281	0.72441	
0.285541	-0.0139074	0.728509	
0.388274	-0.315029	0.579193	
0.332733	-0.27561	0.5	
0.274828	-0.327002	0.5	
0.237843	-0.32244	0.584415	
0.184962	0.0799289	1	
0.0903521	0.10545	1	
0.158056	0.171884	1	
0.156034	0.0430169	0.909981	
0.332026	0.00704946	0.830563	
0.388745	0.0776039	0.89546	
0.388259	-0.0686204	0.893717	
0.410213	-0.0392212	0.798574	
0.3168	0.386831	0.895903	
0.25658	0.429146	0.83124	
0.20334	0.284476	0.892831	
0.158987	0.372754	0.909796	
-0.189073	-0.267802	0.673143	
-0.2318	-0.328499	0.599609	
-0.129826	-0.346552	0.613476	
-0.220163	-0.339708	0.738499	
0.3168	0.386831	0.895903	
0.20334	0.284476	0.892831	
0.25658	0.429146	0.83124	
0.224036	0.344788	0.789803	
-0.0112682	-5.37735e-05	0.751437	
-0.127176	-0.00609761	0.727567	
-0.0948276	-0.0943246	0.74579	
-0.028625	-0.0663675	0.813721	
0.490343	0.0977967	0.741226	
0.41725	0.0179908	0.649594	
0.357913	0.0406281	0.72441	
0.379144	0.136793	0.743369	
-0.154067	0.200523	0.744733	
-0.103796	0.164416	0.668888	
-0.123171	0.237068	0.613094	
-0.0968356	0.250534	0.697531	
0.414991	0.0495125	1	
0.5	0	0.9	
0.409478	-0.032947	1	
0.388745	0.0776039	0.89546	
0.12216	0.350601	0.5	
0.106333	0.267511	0.579786	
0.178778	0.36803	0.594641	
0.0967579	0.384129	0.574883	
-0.309277	-0.0223972	0.5	
-0.3	-0.0833333	0.5	
-0.26241	-0.01517	0.5	
-0.244257	-0.0838675	0.585674	
-0.0201888	0.188065	0.634	
-0.0155726	0.113982	0.720278	
-0.0268842	0.224117	0.746658	
-0.103796	0.164416	0.668888	
0.107888	0.321356	0.639747	
0.186731	0.273457	0.579435	
0.216396	0.318788	0.694105	
0.12725	0.243321	0.66402	
0.016747	0.116372	0.584632	
0.0615573	0.169949	0.68043	
-0.0201888	0.188065	0.634	
-0.0139985	0.0766371	0.645768	
0.186731	-0.150807	0.612641	
0.26032	-0.233647	0.595602	
0.311042	-0.160939	0.648474	
0.22816	-0.174755	0.697122	
0.0092772	-0.0223972	0.5	
-0.0125395	0.0302731	0.5	
-0.0220267	-0.0501213	0.56323	
0.0195373	0.0477919	0.562256	
0.135395	0.0692853	0.814132	
0.204037	0.0208987	0.737245	
0.217923	0.147902	0.790128	
0.265971	0.0656026	0.794392	
0.168734	-0.470668	0.798219	
0.174678	-0.468495	0.682891	
0.0883483	-0.356203	0.717872	
0.200775	-0.327859	0.767733	
0.450285	0.217356	0.855302	
0.331011	0.147461	0.830703	
0.470916	0.168043	0.800126	
0.376293	0.169886	0.910318	
-0.309277	-0.0223972	0.5	
-0.244257	-0.0838675	0.585674	
-0.26241	-0.01517	0.5	
-0.32522	-0.00468432	0.575656	
0.232997	-0.11062	1	
0.294742	-0.119382	0.854292	
0.313791	-0.154465	1	
0.237523	-0.1744	0.906763	
0.0943468	-0.245334	1	
0.00964811	-0.213747	0.871732	
0.0712814	-0.153152	1	
0.129352	-0.205365	0.887641	
-0.0531387	-0.0402198	0.678728	
0.0370897	0.0247951	0.688096	
-0.000470172	0.0044189	0.616387	
-0.0139985	0.0766371	0.645768	
-0.295465	0.212132	0.5	
-0.332133	0.18678	0.621599	
-0.334293	0.161532	0.5	
-0.268272	0.128138	0.588733	
0.470916	-0.168043	0.699874	
0.490343	-0.0977967	0.758774	
0.493012	-0.0833019	0.655211	
0.346453	-0.0782039	0.737808	
-0.0268842	0.224117	0.746658	
-0.0155726	0.113982	0.720278	
-0.0201888	0.188065	0.634	
0.0615573	0.169949	0.68043	
0.19713	0.0957524	0.613371	
0.283872	0.123177	0.588485	
0.268691	0.110688	0.710369	
0.237957	0.0412258	0.662892	
0.212132	0.295465	0.5	
0.186731	0.273457	0.579435	
0.271058	0.271058	0.5	
0.252165	0.322355	0.613309	
0.3	0.0833333	0.5	
0.256066	0.106066	0.5	
0.241074	0.0589256	0.5	
0.283872	0.123177	0.588485	
-0.154067	0.200523	0.744733	
-0.265307	0.263707	0.765082	
-0.233647	0.26032	0.639516	
-0.234639	0.167846	0.67167	
-0.106066	0.256066	0.5	
-0.153206	0.271058	0.5	
-0.128799	0.212132	0.5	
-0.181622	0.273954	0.57406	
-0.0850635	-0.240496	0.617991	
-0.0978573	-0.216654	0.738076	
-0.0814439	-0.125985	0.656453	
-0.167637	-0.166421	0.687024	
-0.245786	-0.164168	0.624683	
-0.158586	-0.105655	0.59825	
-0.212132	-0.128799	0.5	
-0.244257	-0.0838675	0.585674	
0.439458	-0.238488	0.575692	
0.476114	-0.152694	0.59754	
0.399482	-0.123001	0.5	
0.351409	-0.224603	0.596537	
-0.429146	-0.25658	0.66876	
-0.337623	-0.15776	0.722835	
-0.434698	-0.247057	0.749501	
-0.288147	-0.263663	0.736531	
0.247057	-0.434698	0.749501	
0.25658	-0.429146	0.66876	
0.174678	-0.468495	0.682891	
0.200775	-0.327859	0.767733	
-0.440961	-0.235698	0.931431	
-0.340074	-0.13507	0.859051	
-0.356684	-0.19351	1	
-0.317305	-0.233685	0.899359	
0.490343	0.0977967	0.741226	
0.493389	0.0810399	0.64715	
0.41725	0.0179908	0.649594	
0.379144	0.136793	0.743369	
0.220621	-0.0913842	0.746309	
0.142999	-0.18326	0.747043	
0.22816	-0.174755	0.697122	
0.189747	-0.143359	0.830553	
-0.0125395	0.330273	0.5	
-0.0559694	0.29198	0.588124	
0.0203259	0.350518	0.595017	
-0.0634498	0.397211	0.588093	
-0.26241	-0.01517	0.5	
-0.244257	-0.0838675	0.585674	
-0.259187	0.0363748	0.591328	
-0.32522	-0.00468432	0.575656	
-0.0603308	-0.338175	0.849262	
-0.123319	-0.239698	0.888651	
0.00964811	-0.213747	0.871732	
-0.050212	-0.252969	0.810638	
-0.345553	-0.109975	0.5	
-0.271058	-0.153206	0.5	
-0.3	-0.0833333	0.5	
-0.350407	-0.154201	0.605376	
0.241074	-0.0589256	0.5	
0.251946	-0.0814223	0.593798	
0.28483	-0.03759	0.5	
0.24433	0.0230591	0.580906	
0.164797	-0.177585	1	
0.129352	-0.205365	0.887641	
0.0712814	-0.153152	1	
0.0982493	-0.0719344	0.910531	
0.332026	0.00704946	0.830563	
0.409933	0.0569559	0.803804	
0.388745	0.0776039	0.89546	
0.410213	-0.0392212	0.798574	
-0.0555676	0.325574	1	
-0.138674	0.323797	1	
-0.0728697	0.385983	0.897183	
-0.0748341	0.245459	0.898908	
0.0833333	0.3	0.5	
0.0203259	0.350518	0.595017	
0.0373069	0.315853	0.5	
0.106333	0.267511	0.579786	
0.3168	0.386831	0.895903	
0.307884	0.246632	0.880034	
0.261819	0.319027	1	
0.20334	0.284476	0.892831	
-0.0413818	0.388755	0.761338	
-0.0728697	0.385983	0.897183	
-0.00982413	0.311992	0.838847	
0.0504561	0.409775	0.7991	
-0.389036	0.207425	1	
-0.328307	0.16356	1	
-0.404541	0.126945	1	
-0.3732	0.0934614	0.886553	
-0.0268842	0.224117	0.746658	
0.0518787	0.327869	0.739172	
0.0913842	0.220621	0.740584	
0.0297419	0.247817	0.680143	
0.251946	-0.0814223	0.593798	
0.24433	0.0230591	0.580906	
0.241074	-0.0589256	0.5	
0.190149	-0.0438256	0.575538	
0.3	0.0833333	0.5	
0.24433	0.0230591	0.580906	
0.315853	0.0373069	0.5	
0.350518	0.0203259	0.577676	
-0.165601	0.0438592	0.827911	
-0.207451	-0.082142	0.862889	
-0.22856	0.0108682	0.750263	
-0.138777	-0.0448954	0.811721	
0.271058	-0.271058	0.5	
0.274828	-0.327002	0.5	
0.332733	-0.27561	0.5	
0.237843	-0.32244	0.584415	
-0.38814	0.0365087	0.609899	
-0.268448	0.0761744	0.677974	
-0.354135	0.0170578	0.71226	
-0.259249	-0.00709893	0.664249	
-0.153206	0.153206	0.5	
-0.177179	0.127748	0.603282	
-0.157073	0.0991372	0.5	
-0.0835252	0.135066	0.582318	
-0.28117	0.160675	0.841981	
-0.3732	0.0934614	0.886553	
-0.330463	0.00145141	0.818132	
-0.261224	0.0578819	0.892654	
-0.109975	-0.345553	0.5	
-0.0833333	-0.3	0.5	
-0.153206	-0.271058	0.5	
-0.129826	-0.346552	0.613476	
0.200864	0.212078	0.638362	
0.186731	0.273457	0.579435	
0.106333	0.267511	0.579786	
0.12725	0.243321	0.66402	
0.332026	0.00704946	0.830563	
0.346453	-0.0782039	0.737808	
0.294742	-0.119382	0.854292	
0.255127	-0.0374614	0.810965	
-0.344127	-0.112227	1	
-0.278713	-0.14304	1	
-0.356684	-0.19351	1	
-0.250033	-0.160772	0.906432	
-0.127176	-0.00609761	0.727567	
-0.028625	-0.0663675	0.813721	
-0.07036	0.0449888	0.808499	
-0.138777	-0.0448954	0.811721	
0.436762	0.243391	0.596938	
0.428195	0.258165	0.701755	
0.300272	0.248641	0.604822	
0.354508	0.178976	0.587224	
-0.0155726	0.113982	0.720278	
0.0742945	0.125166	0.760039	
0.0209079	0.0660845	0.809865	
0.0370897	0.0247951	0.688096	
0.232997	-0.11062	1	
0.183683	-0.0446088	0.866852	
0.210156	-0.0147965	1	
0.259967	0.0147254	0.905038	
-0.0201888	0.188065	0.634	
-0.103796	0.164416	0.668888	
-0.0835252	0.135066	0.582318	
-0.0139985	0.0766371	0.645768	
-0.154067	0.200523	0.744733	
-0.144118	0.318457	0.733262	
-0.161164	0.309138	0.850572	
-0.0985684	0.251065	0.805476	
0.0324597	-0.0934166	0.587598	
-0.0814439	-0.125985	0.575026	
0.00796883	-0.184656	0.604274	
0.000308877	-0.122536	0.656981	
0.330273	-0.0125395	0.5	
0.350518	0.0203259	0.577676	
0.277603	0.0092772	0.5	
0.321349	-0.0500942	0.566645	
-0.330463	0.00145141	0.818132	
-0.398507	-0.0483311	0.885387	
-0.5	0	0.8	
-0.387166	-0.0714815	0.763327	
-0.3168	0.386831	0.604097	
-0.302751	0.261742	0.582968	
-0.233647	0.26032	0.639516	
-0.317726	0.256883	0.685229	
-0.117671	-0.10197	1	
-0.00334546	-0.102756	0.895053	
-0.0232782	-0.127584	1	
-0.144759	-0.143126	0.912403	
-0.271058	-0.153206	0.5	
-0.350407	-0.154201	0.605376	
-0.245786	-0.164168	0.624683	
-0.244257	-0.0838675	0.585674	
0.212132	-0.295465	0.5	
0.271058	-0.271058	0.5	
0.221409	-0.234529	0.5	
0.26032	-0.233647	0.595602	
-0.0977967	-0.490343	0.758774	
-0.0833019	-0.493012	0.655211	
-0.114558	-0.356703	0.732324	
-0.0103711	-0.392711	0.762225	
0.415735	0.277785	0.865862	
0.374193	0.331632	0.834643	
0.4284	0.257824	0.795024	
0.307884	0.246632	0.880034	
0.271058	0.271058	0.5	
0.186731	0.273457	0.579435	
0.300272	0.248641	0.604822	
0.252165	0.322355	0.613309	
0.140223	0.195959	0.866253	
0.0333325	0.222426	0.893441	
0.0651412	0.200096	1	
0.105325	0.289243	0.907921	
-0.142648	-0.00714059	1	
-0.0801278	-0.0255813	0.881784	
-0.117671	-0.10197	1	
-0.185651	-0.000811148	0.912479	
-0.238488	-0.439458	0.575692	
-0.129826	-0.346552	0.613476	
-0.210263	-0.381228	0.5	
-0.2318	-0.328499	0.599609	
-0.332133	0.18678	0.621599	
-0.268272	0.128138	0.588733	
-0.295465	0.212132	0.5	
-0.302751	0.261742	0.582968	
-0.186407	-0.169451	1	
-0.250033	-0.160772	0.906432	
-0.123319	-0.239698	0.888651	
-0.235677	-0.292728	0.906663	
0.317233	-0.386476	0.909527	
0.386505	-0.317197	0.931175	
0.380873	-0.323938	0.847739	
0.335277	-0.219266	0.871103	
0.268691	0.110688	0.710369	
0.217923	0.147902	0.790128	
0.204037	0.0208987	0.737245	
0.265971	0.0656026	0.794392	
-0.0411735	0.316432	0.673786	
0.0271287	0.256687	0.590103	
0.0203259	0.350518	0.595017	
0.0297419	0.247817	0.680143	
-0.381208	0.210225	0.5	
-0.334293	0.161532	0.5	
-0.295465	0.212132	0.5	
-0.332133	0.18678	0.621599	
-0.153206	-0.153206	0.5	
-0.15347	-0.097127	0.5	
-0.158586	-0.105655	0.59825	
-0.0814439	-0.125985	0.575026	
-0.177179	0.127748	0.603282	
-0.259187	0.0363748	0.591328	
-0.268448	0.0761744	0.677974	
-0.268272	0.128138	0.588733	
-0.268448	0.0761744	0.677974	
-0.332133	0.18678	0.621599	
-0.34853	0.148938	0.738537	
-0.234639	0.167846	0.67167	
-0.18468	-0.0140346	0.624264	
-0.22856	0.0108682	0.750263	
-0.127176	-0.00609761	0.727567	
-0.177442	0.0578991	0.68267	
-0.295465	-0.212132	0.5	
-0.249722	-0.227302	0.5	
-0.245786	-0.164168	0.624683	
-0.303215	-0.24986	0.599065	
0.313791	-0.154465	1	
0.232997	-0.11062	1	
0.314271	-0.0501881	1	
0.294742	-0.119382	0.854292	
0.135395	0.0692853	0.814132	
0.0209079	0.0660845	0.809865	
0.117798	0.0518077	0.724107	
0.111146	-0.0163362	0.82287	
-0.152694	-0.476114	0.59754	
-0.0833019	-0.493012	0.655211	
-0.0698189	-0.495101	0.572379	
-0.129826	-0.346552	0.613476	
-0.345553	-0.109975	0.5	
-0.334293	-0.161532	0.5	
-0.271058	-0.153206	0.5	
-0.350407	-0.154201	0.605376	
0.19713	0.0957524	0.613371	
0.120479	0.115187	0.58227	
0.1612	0.100866	0.5	
0.165404	0.026433	0.57138	
-0.220621	-0.0913842	0.726535	
-0.22856	0.0108682	0.750263	
-0.14162	-0.0686737	0.672454	
-0.259249	-0.00709893	0.664249	
-0.048473	-0.0328568	1	
0.0209546	0.0362755	1	
0.0461078	-0.0584269	1	
0.0395279	-8.66572e-05	0.873882	
-0.0411735	0.316432	0.673786	
-0.0559694	0.29198	0.588124	
0.0271287	0.256687	0.590103	
0.0297419	0.247817	0.680143	
0.242822	-0.437078	0.847009	
0.200775	-0.327859	0.767733	
0.11106	-0.333093	0.843975	
0.214973	-0.334693	0.892974	
-0.295465	-0.212132	0.5	
-0.271058	-0.153206	0.5	
-0.334293	-0.161532	0.5	
-0.350407	-0.154201	0.605376	
0.247868	0.146306	1	
0.158056	0.171884	1	
0.231243	0.24169	1	
0.22997	0.198341	0.863468	
0.5	0	0.6	
0.495293	0.0684459	0.568597	
0.431857	0.0465403	0.5	
0.41725	0.0179908	0.649594	
0.350601	0.12216	0.5	
0.366719	0.098872	0.62645	
0.418309	0.121276	0.5	
0.354508	0.178976	0.587224	
0.300884	0.198715	1	
0.231243	0.24169	1	
0.307884	0.246632	0.880034	
0.22997	0.198341	0.863468	
0.202324	0.378521	1	
0.228991	0.444481	0.908099	
0.3168	0.386831	0.895903	
0.158987	0.372754	0.909796	
-0.109975	-0.345553	0.5	
-0.123001	-0.399482	0.5	
-0.0589256	-0.358926	0.5	
-0.129826	-0.346552	0.613476	
0.174678	0.468495	0.817109	
0.130793	0.331529	0.821778	
0.060105	0.382127	0.896284	
0.0504561	0.409775	0.7991	
0.0557946	0.181673	0.5	
0.094036	0.192335	0.606134	
0.0589256	0.241074	0.5	
0.0271287	0.256687	0.590103	
0.328092	0.270243	1	
0.261819	0.319027	1	
0.388274	0.315029	0.920807	
0.307884	0.246632	0.880034	
-0.0835252	0.135066	0.582318	
-0.130814	0.0354375	0.582428	
-0.106984	0.108603	0.5	
-0.0524491	0.0544183	0.580273	
0.366719	0.098872	0.62645	
0.299946	-0.0112682	0.640667	
0.350518	0.0203259	0.577676	
0.41725	0.0179908	0.649594	
-0.399482	0.123001	0.5	
-0.476114	0.152694	0.59754	
-0.38814	0.0365087	0.609899	
-0.395918	0.121742	0.65735	
0.199592	-0.181859	0.5	
0.212132	-0.128799	0.5	
0.153206	-0.153206	0.5	
0.186731	-0.150807	0.612641	
-0.0112682	-5.37735e-05	0.751437	
0.0209079	0.0660845	0.809865	
0.0395279	-8.66572e-05	0.873882	
0.111146	-0.0163362	0.82287	
0.311042	-0.160939	0.648474	
0.275364	-0.0865903	0.678068	
0.385774	-0.0819641	0.609834	
0.313135	-0.131023	0.572624	
0.0519196	-0.186143	0.5	
-5.51091e-17	-0.216667	0.5	
0.0589256	-0.241074	0.5	
0.00796883	-0.184656	0.604274	
0.28483	-0.03759	0.5	
0.24433	0.0230591	0.580906	
0.251946	-0.0814223	0.593798	
0.321349	-0.0500942	0.566645	
0.166579	0.322107	0.5	
0.106333	0.267511	0.579786	
0.186731	0.273457	0.579435	
0.178778	0.36803	0.594641	
-0.153206	-0.271058	0.5	
-0.161532	-0.334293	0.5	
-0.109975	-0.345553	0.5	
-0.129826	-0.346552	0.613476	
0.106066	-0.256066	0.5	
0.128799	-0.212132	0.5	
0.0589256	-0.241074	0.5	
0.100353	-0.184453	0.588762	
0.184661	0.0531453	0.5	
0.241074	0.0589256	0.5	
0.212132	0.128799	0.5	
0.19713	0.0957524	0.613371	
-0.0411735	0.316432	0.673786	
-0.0201888	0.188065	0.634	
0.0297419	0.247817	0.680143	
-0.0968356	0.250534	0.697531	
0.300884	0.198715	1	
0.247868	0.146306	1	
0.231243	0.24169	1	
0.22997	0.198341	0.863468	
0.268691	0.110688	0.710369	
0.331011	0.147461	0.830703	
0.217923	0.147902	0.790128	
0.265971	0.0656026	0.794392	
-0.415735	0.277785	0.634138	
-0.332133	0.18678	0.621599	
-0.439458	0.238488	0.575692	
-0.302751	0.261742	0.582968	
-0.241074	0.0589256	0.5	
-0.216667	3.67394e-17	0.5	
-0.185212	0.0538339	0.5	
-0.259187	0.0363748	0.591328	
0.268691	0.110688	0.710369	
0.331011	0.147461	0.830703	
0.265971	0.0656026	0.794392	
0.379144	0.136793	0.743369	
-0.153328	0.47591	0.90763	
-0.242822	0.437078	0.847009	
-0.168734	0.470668	0.798219	
-0.161164	0.309138	0.850572	
-0.331632	-0.374193	0.665357	
-0.303215	-0.24986	0.599065	
-0.386498	-0.317206	0.700322	
-0.288147	-0.263663	0.736531	
-0.153206	-0.271058	0.5	
-0.174064	-0.226232	0.58962	
-0.212132	-0.295465	0.5	
-0.2318	-0.328499	0.599609	
-0.0603308	-0.338175	0.849262	
-0.0103711	-0.392711	0.762225	
-0.114558	-0.356703	0.732324	
-0.050212	-0.252969	0.810638	
0.0271287	0.256687	0.590103	
0.094036	0.192335	0.606134	
0.106333	0.267511	0.579786	
0.12725	0.243321	0.66402	
0.133074	0.264097	1	
0.158056	0.171884	1	
0.140223	0.195959	0.866253	
0.20334	0.284476	0.892831	
0.0785366	-0.11627	0.823358	
0.129352	-0.205365	0.887641	
0.189747	-0.143359	0.830553	
0.0982493	-0.0719344	0.910531	
-0.0949082	0.168548	0.5	
-0.128799	0.212132	0.5	
-0.0835252	0.135066	0.582318	
-0.0595377	0.207843	0.570115	
-0.436762	0.243391	0.903062	
-0.318983	0.261743	1	
-0.386505	0.317197	0.931175	
-0.389036	0.207425	1	
0.174678	0.468495	0.817109	
0.060105	0.382127	0.896284	
0.130793	0.331529	0.821778	
0.158987	0.372754	0.909796	
-0.490343	0.0977967	0.758774	
-0.5	0	0.8	
-0.5	0	0.7	
-0.354135	0.0170578	0.71226	
0.268691	0.110688	0.710369	
0.357913	0.0406281	0.72441	
0.366719	0.098872	0.62645	
0.379144	0.136793	0.743369	
0.0589256	0.241074	0.5	
0.0271287	0.256687	0.590103	
0.094036	0.192335	0.606134	
0.106333	0.267511	0.579786	
-0.0930725	0.0739765	0.647155	
-0.0835252	0.135066	0.582318	
-0.103796	0.164416	0.668888	
-0.0139985	0.0766371	0.645768	
-0.0589256	0.358926	0.5	
-0.0559694	0.29198	0.588124	
-0.0125395	0.330273	0.5	
-0.0634498	0.397211	0.588093	
-0.276229	-0.333066	0.5	
-0.271058	-0.271058	0.5	
-0.330717	-0.276825	0.5	
-0.303215	-0.24986	0.599065	
-0.0948276	-0.0943246	0.74579	
-0.028625	-0.0663675	0.813721	
-0.127176	-0.00609761	0.727567	
-0.138777	-0.0448954	0.811721	
0.317206	0.386498	0.799678	
0.316847	0.386792	0.698616	
0.376757	0.328716	0.746468	
0.224036	0.344788	0.789803	
0.299946	-0.0112682	0.640667	
0.285541	-0.0139074	0.728509	
0.357913	0.0406281	0.72441	
0.237957	0.0412258	0.662892	
0.128799	0.212132	0.5	
0.0589256	0.241074	0.5	
0.094036	0.192335	0.606134	
0.106333	0.267511	0.579786	
-0.332133	0.18678	0.621599	
-0.268448	0.0761744	0.677974	
-0.34853	0.148938	0.738537	
-0.395918	0.121742	0.65735	
0.388259	-0.0686204	0.893717	
0.335277	-0.219266	0.871103	
0.294742	-0.119382	0.854292	
0.383529	-0.130684	0.812713	
0.184661	0.0531453	0.5	
0.241074	0.0589256	0.5	
0.19713	0.0957524	0.613371	
0.24433	0.0230591	0.580906	
0.0734599	0.0912867	0.653108	
0.0615573	0.169949	0.68043	
0.016747	0.116372	0.584632	
-0.0139985	0.0766371	0.645768	
0.469721	-0.171353	0.838334	
0.335277	-0.219266	0.871103	
0.478555	-0.144862	0.921652	
0.383529	-0.130684	0.812713	
0.1612	0.100866	0.5	
0.120479	0.115187	0.58227	
0.19713	0.0957524	0.613371	
0.193696	0.165595	0.572294	
-0.0882569	-0.0365572	0.592669	
-0.130814	0.0354375	0.582428	
-0.0930725	0.0739765	0.647155	
-0.0524491	0.0544183	0.580273	
0.0373069	0.315853	0.5	
0.0203259	0.350518	0.595017	
0.0092772	0.277603	0.5	
0.0271287	0.256687	0.590103	
0.332026	0.00704946	0.830563	
0.294742	-0.119382	0.854292	
0.346453	-0.0782039	0.737808	
0.383529	-0.130684	0.812713	
-0.144987	0.358562	0.621326	
-0.0559694	0.29198	0.588124	
-0.12216	0.350601	0.5	
-0.0634498	0.397211	0.588093	
-6.75805e-05	-0.152663	0.5	
-0.0499791	-0.122616	0.5	
-0.0488646	-0.18203	0.5	
-0.0814439	-0.125985	0.575026	
-0.345553	-0.109975	0.5	
-0.350407	-0.154201	0.605376	
-0.323059	-0.0556697	0.636381	
-0.402816	-0.0523896	0.590168	
0.277603	0.0092772	0.5	
0.350518	0.0203259	0.577676	
0.24433	0.0230591	0.580906	
0.321349	-0.0500942	0.566645	
0.186731	-0.150807	0.612641	
0.22816	-0.174755	0.697122	
0.275364	-0.0865903	0.678068	
0.163343	-0.0947766	0.678001	
0.495101	-0.0698189	0.572379	
0.5	0	0.6	
0.42216	-0.0506005	0.5	
0.385774	-0.0819641	0.609834	
0.268691	0.110688	0.710369	
0.366719	0.098872	0.62645	
0.283872	0.123177	0.588485	
0.274515	0.174272	0.655082	
-0.210263	-0.381228	0.5	
-0.129826	-0.346552	0.613476	
-0.161532	-0.334293	0.5	
-0.2318	-0.328499	0.599609	
0.268393	-0.334301	1	
0.201164	-0.273578	1	
0.314857	-0.257449	1	
0.214973	-0.334693	0.892974	
0.0913842	0.220621	0.740584	
0.0518787	0.327869	0.739172	
-0.0268842	0.224117	0.746658	
0.0669598	0.264617	0.818251	
-0.0112682	-5.37735e-05	0.751437	
0.0209079	0.0660845	0.809865	
-0.07036	0.0449888	0.808499	
-0.028625	-0.0663675	0.813721	
-0.0155726	0.113982	0.720278	
-0.103796	0.164416	0.668888	
-0.0201888	0.188065	0.634	
-0.0139985	0.0766371	0.645768	
-0.4284	0.257824	0.704976	
-0.332133	0.18678	0.621599	
-0.415735	0.277785	0.634138	
-0.317726	0.256883	0.685229	
-0.490343	0.0977967	0.758774	
-0.460548	0.194667	0.76567	
-0.469721	0.171353	0.838334	
-0.34853	0.148938	0.738537	
-0.5	0	0.7	
-0.354135	0.0170578	0.71226	
-0.5	0	0.8	
-0.387166	-0.0714815	0.763327	
-0.12216	0.350601	0.5	
-0.166579	0.322107	0.5	
-0.0833333	0.3	0.5	
-0.181622	0.273954	0.57406	
0.242822	-0.437078	0.847009	
0.11106	-0.333093	0.843975	
0.153328	-0.47591	0.90763	
0.214973	-0.334693	0.892974	
0.373926	0.198925	1	
0.328092	0.270243	1	
0.439458	0.238488	0.924308	
0.376293	0.169886	0.910318	
0.174542	0.196962	0.5	
0.199592	0.242405	0.5	
0.186731	0.273457	0.579435	
0.193696	0.165595	0.572294	
-0.493437	-0.0807477	0.845776	
-0.398507	-0.0483311	0.885387	
-0.340074	-0.13507	0.859051	
-0.387166	-0.0714815	0.763327	
0.332026	0.00704946	0.830563	
0.294742	-0.119382	0.854292	
0.259967	0.0147254	0.905038	
0.255127	-0.0374614	0.810965	
-0.085688	-0.137167	0.83131	
-0.00334546	-0.102756	0.895053	
-0.0801278	-0.0255813	0.881784	
-0.144759	-0.143126	0.912403	
0.268691	0.110688	0.710369	
0.265971	0.0656026	0.794392	
0.357913	0.0406281	0.72441	
0.379144	0.136793	0.743369	
-0.5	0	0.7	
-0.38814	0.0365087	0.609899	
-0.493012	0.0833019	0.655211	
-0.354135	0.0170578	0.71226	
0.0712814	-0.153152	1	
0.0943468	-0.245334	1	
0.00183684	-0.222331	1	
0.00964811	-0.213747	0.871732	
-0.117671	-0.10197	1	
-0.048473	-0.0328568	1	
-0.0232782	-0.127584	1	
-0.00334546	-0.102756	0.895053	
0.0734599	0.0912867	0.653108	
0.0742945	0.125166	0.760039	
-0.0155726	0.113982	0.720278	
0.0370897	0.0247951	0.688096	
0.366719	0.098872	0.62645	
0.357913	0.0406281	0.72441	
0.299946	-0.0112682	0.640667	
0.41725	0.0179908	0.649594	
0.184661	0.0531453	0.5	
0.19713	0.0957524	0.613371	
0.1612	0.100866	0.5	
0.165404	0.026433	0.57138	
-0.0112682	-5.37735e-05	0.751437	
-0.0155726	0.113982	0.720278	
0.0370897	0.0247951	0.688096	
-0.0139985	0.0766371	0.645768	
-0.0684459	-0.495293	0.931403	
0	-0.5	0.9	
-0.0810399	-0.493389	0.85285	
0.0283953	-0.39231	0.890404	
0.0203259	0.350518	0.595017	
0.106333	0.267511	0.579786	
0.0833333	0.3	0.5	
0.0967579	0.384129	0.574883	
0.470916	0.168043	0.800126	
0.331011	0.147461	0.830703	
0.4284	0.257824	0.795024	
0.379144	0.136793	0.743369	
-0.276229	-0.333066	0.5	
-0.330717	-0.276825	0.5	
-0.315029	-0.388274	0.579193	
-0.303215	-0.24986	0.599065	
0.1612	0.100866	0.5	
0.19713	0.0957524	0.613371	
0.212132	0.128799	0.5	
0.193696	0.165595	0.572294	
0.418309	0.121276	0.5	
0.495293	0.0684459	0.568597	
0.478555	0.144862	0.578348	
0.366719	0.098872	0.62645	
-0.344127	-0.112227	1	
-0.356684	-0.19351	1	
-0.340074	-0.13507	0.859051	
-0.250033	-0.160772	0.906432	
-0.167637	-0.166421	0.687024	
-0.173622	-0.15656	0.786805	
-0.220621	-0.0913842	0.726535	
-0.270142	-0.144141	0.791801	
-0.439458	0.238488	0.575692	
-0.332133	0.18678	0.621599	
-0.381208	0.210225	0.5	
-0.302751	0.261742	0.582968	
-0.295465	-0.212132	0.5	
-0.303215	-0.24986	0.599065	
-0.245786	-0.164168	0.624683	
-0.350407	-0.154201	0.605376	
0.200864	0.212078	0.638362	
0.19713	0.0957524	0.613371	
0.193696	0.165595	0.572294	
0.274515	0.174272	0.655082	
-0.0201888	0.188065	0.634	
0.016747	0.116372	0.584632	
0.094036	0.192335	0.606134	
0.0615573	0.169949	0.68043	
-0.174678	0.468495	0.682891	
-0.168734	0.470668	0.798219	
-0.247057	0.434698	0.749501	
-0.144118	0.318457	0.733262	
-0.3168	0.386831	0.604097	
-0.317726	0.256883	0.685229	
-0.233647	0.26032	0.639516	
-0.23213	0.339095	0.696865	
-0.383333	3.67394e-17	0.5	
-0.38814	0.0365087	0.609899	
-0.434728	9.15966e-17	0.5	
-0.402816	-0.0523896	0.590168	
0.0734599	0.0912867	0.653108	
0.0882618	0.0365592	0.582606	
-0.000470172	0.0044189	0.616387	
0.0195373	0.0477919	0.562256	
0.154508	-0.0938282	0.5	
0.104605	-0.104521	0.5	
0.153206	-0.153206	0.5	
0.125362	-0.0795966	0.584968	
-0.217356	-0.450285	0.644698	
-0.257824	-0.4284	0.704976	
-0.168043	-0.470916	0.699874	
-0.220163	-0.339708	0.738499	
0.184661	0.0531453	0.5	
0.24433	0.0230591	0.580906	
0.19713	0.0957524	0.613371	
0.165404	0.026433	0.57138	
-0.41072	-0.12459	1	
-0.340074	-0.13507	0.859051	
-0.47591	-0.153328	0.90763	
-0.398507	-0.0483311	0.885387	
-0.123001	-0.399482	0.5	
-0.238488	-0.439458	0.575692	
-0.152694	-0.476114	0.59754	
-0.129826	-0.346552	0.613476	
-0.247057	0.434698	0.749501	
-0.174678	0.468495	0.682891	
-0.144118	0.318457	0.733262	
-0.23213	0.339095	0.696865	
-0.0155726	0.113982	0.720278	
-0.0201888	0.188065	0.634	
0.0615573	0.169949	0.68043	
-0.0139985	0.0766371	0.645768	
-0.376757	0.328716	0.753532	
-0.380873	0.323938	0.847739	
-0.428195	0.258165	0.798245	
-0.265307	0.263707	0.765082	
-0.194667	-0.460548	0.76567	
-0.171353	-0.469721	0.838334	
-0.114558	-0.356703	0.732324	
-0.182538	-0.337413	0.833302	
-0.0112682	-5.37735e-05	0.751437	
0.0395279	-8.66572e-05	0.873882	
0.0209079	0.0660845	0.809865	
-0.028625	-0.0663675	0.813721	
-0.217356	-0.450285	0.644698	
-0.129826	-0.346552	0.613476	
-0.238488	-0.439458	0.575692	
-0.2318	-0.328499	0.599609	
-0.123171	0.237068	0.613094	
-0.0559694	0.29198	0.588124	
-0.0201888	0.188065	0.634	
-0.0595377	0.207843	0.570115	
0.183683	-0.0446088	0.866852	
0.259967	0.0147254	0.905038	
0.294742	-0.119382	0.854292	
0.255127	-0.0374614	0.810965	
0.193272	-0.26142	0.670684	
0.0883483	-0.356203	0.717872	
0.200775	-0.327859	0.767733	
0.111962	-0.272347	0.754919	
0.268691	0.110688	0.710369	
0.283872	0.123177	0.588485	
0.19713	0.0957524	0.613371	
0.274515	0.174272	0.655082	
1.83697e-17	0.383333	0.5	
-0.0125395	0.330273	0.5	
0.0203259	0.350518	0.595017	
-0.0634498	0.397211	0.588093	
-0.144987	0.358562	0.621326	
-0.144118	0.318457	0.733262	
-0.174678	0.468495	0.682891	
-0.23213	0.339095	0.696865	
-0.16685	0.0883447	1	
-0.1493	0.167608	0.873324	
-0.0983601	0.156434	1	
-0.0884799	0.0810843	0.89303	
0.0819669	-0.126701	0.660191	
0.0324597	-0.0934166	0.587598	
0.125362	-0.0795966	0.584968	
0.100353	-0.184453	0.588762	
0.268691	0.110688	0.710369	
0.322027	0.213397	0.712919	
0.379144	0.136793	0.743369	
0.274515	0.174272	0.655082	
-0.3168	0.386831	0.604097	
-0.23026	0.337515	0.583641	
-0.233647	0.26032	0.639516	
-0.302751	0.261742	0.582968	
-0.323059	-0.0556697	0.636381	
-0.354135	0.0170578	0.71226	
-0.402816	-0.0523896	0.590168	
-0.398806	-0.103684	0.671654	
0.125362	-0.0795966	0.584968	
0.163343	-0.0947766	0.678001	
0.186731	-0.150807	0.612641	
0.190149	-0.0438256	0.575538	
-0.256066	-0.106066	0.5	
-0.271058	-0.153206	0.5	
-0.212132	-0.128799	0.5	
-0.244257	-0.0838675	0.585674	
-0.00982413	0.311992	0.838847	
-0.0728697	0.385983	0.897183	
-0.161164	0.309138	0.850572	
-0.0748341	0.245459	0.898908	
0.204037	0.0208987	0.737245	
0.117798	0.0518077	0.724107	
0.100041	-0.0381212	0.736861	
0.111146	-0.0163362	0.82287	
0.0819669	-0.126701	0.660191	
0.125362	-0.0795966	0.584968	
0.186731	-0.150807	0.612641	
0.100353	-0.184453	0.588762	
0.210156	-0.0147965	1	
0.156034	0.0430169	0.909981	
0.183683	-0.0446088	0.866852	
0.0982493	-0.0719344	0.910531	
0.129352	-0.205365	0.887641	
0.111962	-0.272347	0.754919	
0.11106	-0.333093	0.843975	
0.0762998	-0.205219	0.804763	
0.470916	-0.168043	0.699874	
0.4284	-0.257824	0.704976	
0.460548	-0.194667	0.76567	
0.327694	-0.196387	0.7647	
0.0373069	-0.284147	0.5	
0.0833333	-0.3	0.5	
0.0761744	-0.268448	0.622464	
-0.00306262	-0.296003	0.5718	
-0.237047	0.0201392	1	
-0.302044	-0.0506462	1	
-0.261224	0.0578819	0.892654	
-0.185651	-0.000811148	0.912479	
-0.340074	-0.13507	0.859051	
-0.387166	-0.0714815	0.763327	
-0.330463	0.00145141	0.818132	
-0.270142	-0.144141	0.791801	
0.19713	0.0957524	0.613371	
0.283872	0.123177	0.588485	
0.212132	0.128799	0.5	
0.193696	0.165595	0.572294	
-0.323059	-0.0556697	0.636381	
-0.354135	0.0170578	0.71226	
-0.38814	0.0365087	0.609899	
-0.402816	-0.0523896	0.590168	
-0.340074	-0.13507	0.859051	
-0.337623	-0.15776	0.722835	
-0.470668	-0.168734	0.798219	
-0.387166	-0.0714815	0.763327	
0.331011	0.147461	0.830703	
0.332026	0.00704946	0.830563	
0.265971	0.0656026	0.794392	
0.409933	0.0569559	0.803804	
-0.429146	-0.25658	0.66876	
-0.434698	-0.247057	0.749501	
-0.386498	-0.317206	0.700322	
-0.288147	-0.263663	0.736531	
0.322107	0.166579	0.5	
0.295465	0.212132	0.5	
0.271058	0.153206	0.5	
0.283872	0.123177	0.588485	
0.450285	-0.217356	0.644698	
0.470916	-0.168043	0.699874	
0.476114	-0.152694	0.59754	
0.385774	-0.0819641	0.609834	
0.153328	-0.47591	0.90763	
0.11106	-0.333093	0.843975	
0.0807477	-0.493437	0.845776	
0.0283953	-0.39231	0.890404	
0.328092	0.270243	1	
0.307884	0.246632	0.880034	
0.439458	0.238488	0.924308	
0.376293	0.169886	0.910318	
0.168734	-0.470668	0.798219	
0.247057	-0.434698	0.749501	
0.174678	-0.468495	0.682891	
0.200775	-0.327859	0.767733	
-0.174678	0.468495	0.682891	
-0.144118	0.318457	0.733262	
-0.144987	0.358562	0.621326	
-0.0839841	0.399109	0.679035	
-0.268448	0.0761744	0.677974	
-0.38814	0.0365087	0.609899	
-0.354135	0.0170578	0.71226	
-0.395918	0.121742	0.65735	
0.0833333	-0.3	0.5	
0.0589256	-0.241074	0.5	
0.0373069	-0.284147	0.5	
0.0761744	-0.268448	0.622464	
-0.0411735	0.316432	0.673786	
0.0518787	0.327869	0.739172	
-0.0268842	0.224117	0.746658	
0.0297419	0.247817	0.680143	
0.1612	0.100866	0.5	
0.120479	0.115187	0.58227	
0.124175	0.0449909	0.5	
0.165404	0.026433	0.57138	
0.115537	0.0107471	1	
0.0395279	-8.66572e-05	0.873882	
0.156034	0.0430169	0.909981	
0.0982493	-0.0719344	0.910531	
0.0807477	0.493437	0.654224	
0.0140521	0.397008	0.681004	
0.0967579	0.384129	0.574883	
0.119314	0.388497	0.707486	
-0.331361	-0.272953	1	
-0.386476	-0.317233	0.909527	
-0.317305	-0.233685	0.899359	
-0.235677	-0.292728	0.906663	
-0.399482	0.123001	0.5	
-0.495101	0.0698189	0.572379	
-0.42216	0.0506005	0.5	
-0.38814	0.0365087	0.609899	
0.295465	-0.212132	0.5	
0.249439	-0.196279	0.5	
0.26032	-0.233647	0.595602	
0.313135	-0.131023	0.572624	
0	0.5	0.6	
0.0704482	0.495012	0.571845	
0.0807477	0.493437	0.654224	
0.0140521	0.397008	0.681004	
-0.5	0	0.7	
-0.493012	0.0833019	0.655211	
-0.490343	0.0977967	0.758774	
-0.354135	0.0170578	0.71226	
-0.153206	0.271058	0.5	
-0.0833333	0.3	0.5	
-0.166579	0.322107	0.5	
-0.181622	0.273954	0.57406	
-0.0268842	0.224117	0.746658	
0.0518787	0.327869	0.739172	
-0.00982413	0.311992	0.838847	
0.0669598	0.264617	0.818251	
-0.233647	0.26032	0.639516	
-0.144118	0.318457	0.733262	
-0.144987	0.358562	0.621326	
-0.23213	0.339095	0.696865	
-0.5	0	0.7	
-0.493315	-0.0814864	0.652319	
-0.402816	-0.0523896	0.590168	
-0.398806	-0.103684	0.671654	
-0.189073	-0.267802	0.673143	
-0.129826	-0.346552	0.613476	
-0.114558	-0.356703	0.732324	
-0.220163	-0.339708	0.738499	
0.212132	0.295465	0.5	
0.199592	0.242405	0.5	
0.249439	0.227985	0.5	
0.186731	0.273457	0.579435	
0.153206	0.271058	0.5	
0.174542	0.196962	0.5	
0.199592	0.242405	0.5	
0.186731	0.273457	0.579435	
0.124175	0.0449909	0.5	
0.0833333	0	0.5	
0.152693	-0.00394448	0.5	
0.0882618	0.0365592	0.582606	
-0.18203	-0.0488646	0.5	
-0.15347	-0.097127	0.5	
-0.158586	-0.105655	0.59825	
-0.244257	-0.0838675	0.585674	
-0.354135	0.0170578	0.71226	
-0.387166	-0.0714815	0.763327	
-0.5	0	0.7	
-0.398806	-0.103684	0.671654	
0.5	0	0.7	
0.357913	0.0406281	0.72441	
0.41725	0.0179908	0.649594	
0.410213	-0.0392212	0.798574	
-0.0243888	0.144613	0.834462	
-0.118181	0.0989473	0.748679	
-0.0155726	0.113982	0.720278	
-0.07036	0.0449888	0.808499	
0.0092772	-0.0223972	0.5	
-0.0125395	0.0302731	0.5	
-0.03759	-0.01517	0.5	
-0.0220267	-0.0501213	0.56323	
-0.189073	-0.267802	0.673143	
-0.0978573	-0.216654	0.738076	
-0.0850635	-0.240496	0.617991	
-0.167637	-0.166421	0.687024	
0.357913	0.0406281	0.72441	
0.285541	-0.0139074	0.728509	
0.268691	0.110688	0.710369	
0.237957	0.0412258	0.662892	
0.42216	-0.0506005	0.5	
0.358926	-0.0589256	0.5	
0.385774	-0.0819641	0.609834	
0.321349	-0.0500942	0.566645	
-0.196736	0.368707	0.5	
-0.12216	0.350601	0.5	
-0.121351	0.418264	0.5	
-0.144987	0.358562	0.621326	
0.0903521	0.10545	1	
0.0651412	0.200096	1	
0.158056	0.171884	1	
0.067514	0.114479	0.890799	
-0.177179	0.127748	0.603282	
-0.0930725	0.0739765	0.647155	
-0.103796	0.164416	0.668888	
-0.177442	0.0578991	0.68267	
0.174678	0.468495	0.817109	
0.060105	0.382127	0.896284	
0.0814864	0.493315	0.847681	
0.0504561	0.409775	0.7991	
-0.0506005	0.12216	0.5	
0.016747	0.116372	0.584632	
-0.0835252	0.135066	0.582318	
-0.0524491	0.0544183	0.580273	
0.125573	-0.41396	1	
0.153328	-0.47591	0.90763	
0.0704482	-0.495012	0.928155	
0.0283953	-0.39231	0.890404	
0.193272	-0.26142	0.670684	
0.26032	-0.233647	0.595602	
0.186731	-0.150807	0.612641	
0.22816	-0.174755	0.697122	
-0.0268842	0.224117	0.746658	
-0.0201888	0.188065	0.634	
0.0297419	0.247817	0.680143	
0.0615573	0.169949	0.68043	
0.0395279	-8.66572e-05	0.873882	
-0.07036	0.0449888	0.808499	
0.0209079	0.0660845	0.809865	
-0.028625	-0.0663675	0.813721	
-0.0734441	0.0616893	1	
-0.0801278	-0.0255813	0.881784	
-0.142648	-0.00714059	1	
-0.0884799	0.0810843	0.89303	
0.245477	-0.191651	1	
0.314857	-0.257449	1	
0.201164	-0.273578	1	
0.237523	-0.1744	0.906763	
-0.0925337	-0.196451	1	
0.00183684	-0.222331	1	
-0.0638367	-0.295761	1	
-0.123319	-0.239698	0.888651	
-0.128799	0.212132	0.5	
-0.212186	0.200864	0.578994	
-0.123171	0.237068	0.613094	
-0.181622	0.273954	0.57406	
-0.212132	-0.128799	0.5	
-0.158586	-0.105655	0.59825	
-0.15347	-0.097127	0.5	
-0.244257	-0.0838675	0.585674	
0.174678	0.468495	0.817109	
0.224036	0.344788	0.789803	
0.130793	0.331529	0.821778	
0.119314	0.388497	0.707486	
-0.271058	-0.271058	0.5	
-0.303215	-0.24986	0.599065	
-0.276229	-0.333066	0.5	
-0.2318	-0.328499	0.599609	
0.140223	0.195959	0.866253	
0.217923	0.147902	0.790128	
0.241126	0.246812	0.788674	
0.22997	0.198341	0.863468	
-0.0506005	-0.42216	0.5	
-5.51091e-17	-0.383333	0.5	
-0.0589256	-0.358926	0.5	
0.0212569	-0.409526	0.586364	
-0.127176	-0.00609761	0.727567	
-0.22856	0.0108682	0.750263	
-0.118181	0.0989473	0.748679	
-0.177442	0.0578991	0.68267	
-0.331361	-0.272953	1	
-0.317197	-0.386505	0.931175	
-0.386476	-0.317233	0.909527	
-0.235677	-0.292728	0.906663	
0.294742	-0.119382	0.854292	
0.335277	-0.219266	0.871103	
0.313791	-0.154465	1	
0.237523	-0.1744	0.906763	
-0.220621	-0.0913842	0.726535	
-0.22856	0.0108682	0.750263	
-0.127176	-0.00609761	0.727567	
-0.14162	-0.0686737	0.672454	
0.388274	-0.315029	0.579193	
0.3168	-0.386831	0.604097	
0.374193	-0.331632	0.665357	
0.237843	-0.32244	0.584415	
1.83697e-17	0.383333	0.5	
-0.0589256	0.358926	0.5	
-0.0125395	0.330273	0.5	
-0.0634498	0.397211	0.588093	
-0.161164	0.309138	0.850572	
-0.00982413	0.311992	0.838847	
-0.0748341	0.245459	0.898908	
-0.0985684	0.251065	0.805476	
0.262733	0.334293	0.5	
0.271058	0.271058	0.5	
0.305409	0.305409	0.5	
0.252165	0.322355	0.613309	
-0.12216	0.0506005	0.5	
-0.0589256	0.0589256	0.5	
-0.106984	0.108603	0.5	
-0.0524491	0.0544183	0.580273	
0.146853	0.477948	0.915992	
0.060105	0.382127	0.896284	
0.0814864	0.493315	0.847681	
0.158987	0.372754	0.909796	
0.14072	-0.0839746	1	
0.164797	-0.177585	1	
0.0712814	-0.153152	1	
0.0982493	-0.0719344	0.910531	
0.271058	0.153206	0.5	
0.212132	0.128799	0.5	
0.256066	0.106066	0.5	
0.283872	0.123177	0.588485	
-0.263582	-0.319413	1	
-0.317197	-0.386505	0.931175	
-0.331361	-0.272953	1	
-0.235677	-0.292728	0.906663	
-0.189073	-0.267802	0.673143	
-0.303215	-0.24986	0.599065	
-0.245786	-0.164168	0.624683	
-0.174064	-0.226232	0.58962	
-0.142648	-0.00714059	1	
-0.0884799	0.0810843	0.89303	
-0.0801278	-0.0255813	0.881784	
-0.185651	-0.000811148	0.912479	
0.316847	-0.386792	0.801384	
0.317233	-0.386476	0.909527	
0.380873	-0.323938	0.847739	
0.294198	-0.285672	0.778149	
-0.271058	0.153206	0.5	
-0.295465	0.212132	0.5	
-0.334293	0.161532	0.5	
-0.268272	0.128138	0.588733	
0.414991	0.0495125	1	
0.409478	-0.032947	1	
0.346509	0.0237889	1	
0.388745	0.0776039	0.89546	
0.242822	-0.437078	0.847009	
0.168734	-0.470668	0.798219	
0.11106	-0.333093	0.843975	
0.200775	-0.327859	0.767733	
0.469721	0.171353	0.661666	
0.428195	0.258165	0.701755	
0.322027	0.213397	0.712919	
0.379144	0.136793	0.743369	
0.0203259	0.350518	0.595017	
0.0140521	0.397008	0.681004	
0.107888	0.321356	0.639747	
0.0967579	0.384129	0.574883	
0.216396	0.318788	0.694105	
0.186731	0.273457	0.579435	
0.107888	0.321356	0.639747	
0.178778	0.36803	0.594641	
-0.207451	-0.082142	0.862889	
-0.144759	-0.143126	0.912403	
-0.0801278	-0.0255813	0.881784	
-0.185651	-0.000811148	0.912479	
0.0461078	-0.0584269	1	
0.0395279	-8.66572e-05	0.873882	
0.115537	0.0107471	1	
0.0982493	-0.0719344	0.910531	
0.380873	0.323938	0.652261	
0.300272	0.248641	0.604822	
0.428195	0.258165	0.701755	
0.322027	0.213397	0.712919	
0.0999373	0.153076	0.5	
0.128799	0.212132	0.5	
0.0557946	0.181673	0.5	
0.094036	0.192335	0.606134	
0.11106	-0.333093	0.843975	
0.200775	-0.327859	0.767733	
0.233778	-0.237115	0.8353	
0.214973	-0.334693	0.892974	
0.0734599	0.0912867	0.653108	
-0.000470172	0.0044189	0.616387	
0.0882618	0.0365592	0.582606	
0.0370897	0.0247951	0.688096	
0.133074	0.264097	1	
0.140223	0.195959	0.866253	
0.0651412	0.200096	1	
0.105325	0.289243	0.907921	
0.0651412	0.200096	1	
-0.00425413	0.131001	1	
0.0333325	0.222426	0.893441	
0.067514	0.114479	0.890799	
-0.4284	0.257824	0.704976	
-0.376757	0.328716	0.753532	
-0.428195	0.258165	0.798245	
-0.317726	0.256883	0.685229	
0.0092772	-0.322397	0.5	
-5.51091e-17	-0.383333	0.5	
0.0589256	-0.358926	0.5	
0.0212569	-0.409526	0.586364	
0.0401436	0.291204	1	
0.0333325	0.222426	0.893441	
-0.0295403	0.225144	1	
-0.0748341	0.245459	0.898908	
-0.18468	-0.0140346	0.624264	
-0.22856	0.0108682	0.750263	
-0.177442	0.0578991	0.68267	
-0.259249	-0.00709893	0.664249	
-0.34853	0.148938	0.738537	
-0.234639	0.167846	0.67167	
-0.332133	0.18678	0.621599	
-0.317726	0.256883	0.685229	
0.115537	0.0107471	1	
0.156034	0.0430169	0.909981	
0.210156	-0.0147965	1	
0.0982493	-0.0719344	0.910531	
0.183683	-0.0446088	0.866852	
0.189747	-0.143359	0.830553	
0.294742	-0.119382	0.854292	
0.237523	-0.1744	0.906763	
-0.0833333	0	0.5	
-0.130814	0.0354375	0.582428	
-0.0882569	-0.0365572	0.592669	
-0.0524491	0.0544183	0.580273	
-0.12216	0.350601	0.5	
-0.144987	0.358562	0.621326	
-0.166579	0.322107	0.5	
-0.181622	0.273954	0.57406	
-0.5	0	0.7	
-0.5	0	0.6	
-0.38814	0.0365087	0.609899	
-0.402816	-0.0523896	0.590168	
-0.233647	0.26032	0.639516	
-0.23026	0.337515	0.583641	
-0.3168	0.386831	0.604097	
-0.23213	0.339095	0.696865	
-0.0243888	0.144613	0.834462	
0.0742945	0.125166	0.760039	
0.067514	0.114479	0.890799	
0.0209079	0.0660845	0.809865	
-0.177179	0.127748	0.603282	
-0.0835252	0.135066	0.582318	
-0.123171	0.237068	0.613094	
-0.103796	0.164416	0.668888	
-0.0882569	-0.0365572	0.592669	
-0.000470172	0.0044189	0.616387	
-0.0531387	-0.0402198	0.678728	
-0.0220267	-0.0501213	0.56323	
-0.0243888	0.144613	0.834462	
-0.1493	0.167608	0.873324	
-0.0748341	0.245459	0.898908	
-0.0985684	0.251065	0.805476	
0.0734599	0.0912867	0.653108	
-0.000470172	0.0044189	0.616387	
-0.0139985	0.0766371	0.645768	
0.0195373	0.0477919	0.562256	
-0.152694	-0.476114	0.59754	
-0.168043	-0.470916	0.699874	
-0.0833019	-0.493012	0.655211	
-0.129826	-0.346552	0.613476	
-0.495101	0.0698189	0.572379	
-0.399482	0.123001	0.5	
-0.476114	0.152694	0.59754	
-0.38814	0.0365087	0.609899	
0.256066	-0.106066	0.5	
0.3	-0.0833333	0.5	
0.251946	-0.0814223	0.593798	
0.313135	-0.131023	0.572624	
-0.271058	0.153206	0.5	
-0.295465	0.212132	0.5	
-0.268272	0.128138	0.588733	
-0.212186	0.200864	0.578994	
0.094036	0.192335	0.606134	
0.0271287	0.256687	0.590103	
-0.0201888	0.188065	0.634	
0.0297419	0.247817	0.680143	
0.388274	0.315029	0.920807	
0.261819	0.319027	1	
0.3168	0.386831	0.895903	
0.307884	0.246632	0.880034	
0.276476	0.0535537	1	
0.247868	0.146306	1	
0.337634	0.115561	1	
0.226887	0.111044	0.884387	
0.200775	-0.327859	0.767733	
0.214973	-0.334693	0.892974	
0.316847	-0.386792	0.801384	
0.294198	-0.285672	0.778149	
-0.0506005	0.12216	0.5	
0	0.0833333	0.5	
0.016747	0.116372	0.584632	
-0.0524491	0.0544183	0.580273	
0.5	0	0.7	
0.409933	0.0569559	0.803804	
0.357913	0.0406281	0.72441	
0.410213	-0.0392212	0.798574	
0	-0.5	0.7	
0	-0.5	0.6	
-0.0833019	-0.493012	0.655211	
0.0212569	-0.409526	0.586364	
-0.271058	0.271058	0.5	
-0.234529	0.221409	0.5	
-0.196279	0.249439	0.5	
-0.181622	0.273954	0.57406	
0.135395	0.0692853	0.814132	
0.067514	0.114479	0.890799	
0.0395279	-8.66572e-05	0.873882	
0.156034	0.0430169	0.909981	
0.0734599	0.0912867	0.653108	
0.117798	0.0518077	0.724107	
0.0742945	0.125166	0.760039	
0.0370897	0.0247951	0.688096	
-0.152694	-0.476114	0.59754	
-0.217356	-0.450285	0.644698	
-0.168043	-0.470916	0.699874	
-0.129826	-0.346552	0.613476	
-0.495293	0.0684459	0.931403	
-0.5	0	0.9	
-0.493389	0.0810399	0.85285	
-0.3732	0.0934614	0.886553	
0.241126	0.246812	0.788674	
0.217923	0.147902	0.790128	
0.331011	0.147461	0.830703	
0.22997	0.198341	0.863468	
0.332026	0.00704946	0.830563	
0.383529	-0.130684	0.812713	
0.346453	-0.0782039	0.737808	
0.410213	-0.0392212	0.798574	
-0.0589256	0.358926	0.5	
-0.12216	0.350601	0.5	
-0.0559694	0.29198	0.588124	
-0.0634498	0.397211	0.588093	
-0.323938	-0.380873	0.847739	
-0.328716	-0.376757	0.753532	
-0.386792	-0.316847	0.801384	
-0.288147	-0.263663	0.736531	
-0.117671	-0.10197	1	
-0.144759	-0.143126	0.912403	
-0.211369	-0.0761151	1	
-0.185651	-0.000811148	0.912479	
0.174678	0.468495	0.817109	
0.0814864	0.493315	0.847681	
0.060105	0.382127	0.896284	
0.158987	0.372754	0.909796	
0.094036	0.192335	0.606134	
0.016747	0.116372	0.584632	
0.0734599	0.0912867	0.653108	
0.0615573	0.169949	0.68043	
0.0271287	0.256687	0.590103	
0.0297419	0.247817	0.680143	
0.094036	0.192335	0.606134	
0.12725	0.243321	0.66402	
0.186731	-0.150807	0.612641	
0.26032	-0.233647	0.595602	
0.193272	-0.26142	0.670684	
0.163252	-0.248876	0.586706	
-0.0465403	0.431857	0.5	
6.08826e-17	0.43599	0.5	
-0.0728232	0.494668	0.573541	
-0.0634498	0.397211	0.588093	
-0.268448	0.0761744	0.677974	
-0.268272	0.128138	0.588733	
-0.332133	0.18678	0.621599	
-0.234639	0.167846	0.67167	
-0.097127	-0.15347	0.5	
-0.105887	-0.105887	0.5	
-0.153206	-0.153206	0.5	
-0.0814439	-0.125985	0.575026	
0.0589256	-0.0589256	0.5	
0.104605	-0.104521	0.5	
0.125362	-0.0795966	0.584968	
0.0324597	-0.0934166	0.587598	
0.174542	0.196962	0.5	
0.221409	0.189735	0.5	
0.199592	0.242405	0.5	
0.193696	0.165595	0.572294	
0.212132	-0.128799	0.5	
0.251946	-0.0814223	0.593798	
0.241074	-0.0589256	0.5	
0.190149	-0.0438256	0.575538	
0.128799	0.212132	0.5	
0.0589256	0.241074	0.5	
0.0557946	0.181673	0.5	
0.094036	0.192335	0.606134	
0.210156	-0.0147965	1	
0.183683	-0.0446088	0.866852	
0.14072	-0.0839746	1	
0.0982493	-0.0719344	0.910531	
-0.0125395	-0.269727	0.5	
0.0373069	-0.284147	0.5	
-5.51091e-17	-0.216667	0.5	
-0.00306262	-0.296003	0.5718	
0.107888	0.321356	0.639747	
0.0967579	0.384129	0.574883	
0.0140521	0.397008	0.681004	
0.119314	0.388497	0.707486	
-0.450285	0.217356	0.644698	
-0.476114	0.152694	0.59754	
-0.439458	0.238488	0.575692	
-0.332133	0.18678	0.621599	
0.0814864	-0.493315	0.652319	
0	-0.5	0.7	
0.0854243	-0.492649	0.748597	
0.0883483	-0.356203	0.717872	
0.094036	0.192335	0.606134	
0.0734599	0.0912867	0.653108	
0.016747	0.116372	0.584632	
0.120479	0.115187	0.58227	
0.277603	0.0092772	0.5	
0.315853	0.0373069	0.5	
0.24433	0.0230591	0.580906	
0.350518	0.0203259	0.577676	
0.0209546	0.0362755	1	
0.115537	0.0107471	1	
0.0461078	-0.0584269	1	
0.0395279	-8.66572e-05	0.873882	
0.490343	-0.0977967	0.758774	
0.346453	-0.0782039	0.737808	
0.470916	-0.168043	0.699874	
0.383529	-0.130684	0.812713	
-0.434728	9.15966e-17	0.5	
-0.38814	0.0365087	0.609899	
-0.5	0	0.6	
-0.402816	-0.0523896	0.590168	
-0.337623	-0.15776	0.722835	
-0.387166	-0.0714815	0.763327	
-0.323059	-0.0556697	0.636381	
-0.398806	-0.103684	0.671654	
-0.202855	-0.234529	0.5	
-0.174825	-0.196279	0.5	
-0.224672	-0.181859	0.5	
-0.174064	-0.226232	0.58962	
-0.42216	0.0506005	0.5	
-0.434728	9.15966e-17	0.5	
-0.383333	3.67394e-17	0.5	
-0.38814	0.0365087	0.609899	
0.470916	0.168043	0.800126	
0.331011	0.147461	0.830703	
0.379144	0.136793	0.743369	
0.409933	0.0569559	0.803804	
-0.259187	0.0363748	0.591328	
-0.32522	-0.00468432	0.575656	
-0.244257	-0.0838675	0.585674	
-0.259249	-0.00709893	0.664249	
0.135395	0.0692853	0.814132	
0.217923	0.147902	0.790128	
0.226887	0.111044	0.884387	
0.265971	0.0656026	0.794392	
0.241126	0.246812	0.788674	
0.20334	0.284476	0.892831	
0.140223	0.195959	0.866253	
0.22997	0.198341	0.863468	
-0.0589256	-0.0589256	0.5	
-0.0882569	-0.0365572	0.592669	
-0.0814439	-0.125985	0.575026	
-0.0220267	-0.0501213	0.56323	
-0.468495	-0.174678	0.682891	
-0.337623	-0.15776	0.722835	
-0.429146	-0.25658	0.66876	
-0.350407	-0.154201	0.605376	
-0.0854243	0.492649	0.748597	
-0.0413818	0.388755	0.761338	
-0.168734	0.470668	0.798219	
-0.0839841	0.399109	0.679035	
0.0589256	-0.0589256	0.5	
0.0506005	-0.12216	0.5	
0.104605	-0.104521	0.5	
0.0324597	-0.0934166	0.587598	
-0.144862	-0.478555	0.921652	
-0.171353	-0.469721	0.838334	
-0.243391	-0.436762	0.903062	
-0.182538	-0.337413	0.833302	
-0.434728	9.15966e-17	0.5	
-0.42216	0.0506005	0.5	
-0.495101	0.0698189	0.572379	
-0.38814	0.0365087	0.609899	
-0.330717	-0.276825	0.5	
-0.381086	-0.210299	0.5	
-0.386831	-0.3168	0.604097	
-0.303215	-0.24986	0.599065	
0.135395	0.0692853	0.814132	
0.117798	0.0518077	0.724107	
0.204037	0.0208987	0.737245	
0.111146	-0.0163362	0.82287	
0.295465	-0.212132	0.5	
0.271058	-0.153206	0.5	
0.249439	-0.196279	0.5	
0.313135	-0.131023	0.572624	
-0.470668	-0.168734	0.798219	
-0.493437	-0.0807477	0.845776	
-0.340074	-0.13507	0.859051	
-0.387166	-0.0714815	0.763327	
0.0807477	-0.493437	0.845776	
-0.0103711	-0.392711	0.762225	
0	-0.5	0.8	
0.0283953	-0.39231	0.890404	
0.0651412	0.200096	1	
0.133074	0.264097	1	
0.158056	0.171884	1	
0.140223	0.195959	0.866253	
-0.0188603	-0.349288	0.644317	
-0.00306262	-0.296003	0.5718	
-0.0850635	-0.240496	0.617991	
-0.00577358	-0.254916	0.661058	
-0.295465	0.212132	0.5	
-0.381208	0.210225	0.5	
-0.332133	0.18678	0.621599	
-0.302751	0.261742	0.582968	
0.0092772	-0.322397	0.5	
0.0589256	-0.358926	0.5	
0.0373069	-0.284147	0.5	
-0.00306262	-0.296003	0.5718	
0.1612	0.100866	0.5	
0.108346	0.0977259	0.5	
0.124175	0.0449909	0.5	
0.120479	0.115187	0.58227	
-0.476114	0.152694	0.59754	
-0.332133	0.18678	0.621599	
-0.450285	0.217356	0.644698	
-0.395918	0.121742	0.65735	
-0.0112682	-5.37735e-05	0.751437	
-0.0155726	0.113982	0.720278	
0.0209079	0.0660845	0.809865	
0.0370897	0.0247951	0.688096	
-0.470668	-0.168734	0.798219	
-0.387166	-0.0714815	0.763327	
-0.337623	-0.15776	0.722835	
-0.398806	-0.103684	0.671654	
-0.0930725	0.0739765	0.647155	
-0.103796	0.164416	0.668888	
-0.0155726	0.113982	0.720278	
-0.0139985	0.0766371	0.645768	
0.357913	0.0406281	0.72441	
0.265971	0.0656026	0.794392	
0.332026	0.00704946	0.830563	
0.409933	0.0569559	0.803804	
-0.106984	0.108603	0.5	
-0.0589256	0.0589256	0.5	
-0.0506005	0.12216	0.5	
-0.0524491	0.0544183	0.580273	
0.469721	-0.171353	0.838334	
0.436762	-0.243391	0.903062	
0.478555	-0.144862	0.921652	
0.335277	-0.219266	0.871103	
0.129352	-0.205365	0.887641	
0.189747	-0.143359	0.830553	
0.142999	-0.18326	0.747043	
0.0762998	-0.205219	0.804763	
-0.356684	-0.19351	1	
-0.317305	-0.233685	0.899359	
-0.340074	-0.13507	0.859051	
-0.250033	-0.160772	0.906432	
0.0913842	0.220621	0.740584	
0.157976	0.137423	0.708763	
0.0615573	0.169949	0.68043	
0.12725	0.243321	0.66402	
0.232997	-0.11062	1	
0.14072	-0.0839746	1	
0.210156	-0.0147965	1	
0.183683	-0.0446088	0.866852	
-0.220621	-0.0913842	0.726535	
-0.127176	-0.00609761	0.727567	
-0.0948276	-0.0943246	0.74579	
-0.14162	-0.0686737	0.672454	
-0.000470172	0.0044189	0.616387	
0.0739457	-0.0375145	0.646536	
0.0882618	0.0365592	0.582606	
0.0370897	0.0247951	0.688096	
0.277603	0.0092772	0.5	
0.330273	-0.0125395	0.5	
0.315853	0.0373069	0.5	
0.350518	0.0203259	0.577676	
0.350601	0.12216	0.5	
0.283872	0.123177	0.588485	
0.366719	0.098872	0.62645	
0.354508	0.178976	0.587224	
-0.0977967	-0.490343	0.758774	
-0.194667	-0.460548	0.76567	
-0.171353	-0.469721	0.838334	
-0.114558	-0.356703	0.732324	
0.0518787	0.327869	0.739172	
0.0504561	0.409775	0.7991	
-0.00982413	0.311992	0.838847	
0.0669598	0.264617	0.818251	
-0.123319	-0.239698	0.888651	
-0.250033	-0.160772	0.906432	
-0.231974	-0.22452	0.832256	
-0.235677	-0.292728	0.906663	
0.161285	-0.0150511	0.638026	
0.100041	-0.0381212	0.736861	
0.0739457	-0.0375145	0.646536	
0.163343	-0.0947766	0.678001	
-0.0833333	0	0.5	
-0.12216	0.0506005	0.5	
-0.130814	0.0354375	0.582428	
-0.0524491	0.0544183	0.580273	
0.249439	0.227985	0.5	
0.271058	0.271058	0.5	
0.212132	0.295465	0.5	
0.186731	0.273457	0.579435	
-0.119993	0.246691	1	
-0.0983601	0.156434	1	
-0.1493	0.167608	0.873324	
-0.0748341	0.245459	0.898908	
-0.182538	-0.337413	0.833302	
-0.123319	-0.239698	0.888651	
-0.0603308	-0.338175	0.849262	
-0.050212	-0.252969	0.810638	
-0.257824	-0.4284	0.704976	
-0.277785	-0.415735	0.634138	
-0.331632	-0.374193	0.665357	
-0.220163	-0.339708	0.738499	
0.0854243	-0.492649	0.748597	
0.0883483	-0.356203	0.717872	
0	-0.5	0.7	
-0.0103711	-0.392711	0.762225	
-0.165601	0.0438592	0.827911	
-0.118181	0.0989473	0.748679	
-0.127176	-0.00609761	0.727567	
-0.22856	0.0108682	0.750263	
-0.450285	0.217356	0.644698	
-0.4284	0.257824	0.704976	
-0.470916	0.168043	0.699874	
-0.395918	0.121742	0.65735	
-0.261345	-0.230036	1	
-0.250033	-0.160772	0.906432	
-0.186407	-0.169451	1	
-0.235677	-0.292728	0.906663	
0.174678	0.468495	0.817109	
0.130793	0.331529	0.821778	
0.0504561	0.409775	0.7991	
0.119314	0.388497	0.707486	
-0.220621	-0.0913842	0.726535	
-0.0948276	-0.0943246	0.74579	
-0.127176	-0.00609761	0.727567	
-0.138777	-0.0448954	0.811721	
0.0807477	-0.493437	0.845776	
0.153328	-0.47591	0.90763	
0.168734	-0.470668	0.798219	
0.11106	-0.333093	0.843975	
0.376757	-0.328716	0.753532	
0.327694	-0.196387	0.7647	
0.4284	-0.257824	0.704976	
0.292602	-0.250468	0.688523	
0.3168	0.386831	0.895903	
0.228991	0.444481	0.908099	
0.25658	0.429146	0.83124	
0.158987	0.372754	0.909796	
-0.0983601	0.156434	1	
-0.16685	0.0883447	1	
-0.18644	0.1823	1	
-0.1493	0.167608	0.873324	
0.241074	-0.0589256	0.5	
0.256066	-0.106066	0.5	
0.3	-0.0833333	0.5	
0.251946	-0.0814223	0.593798	
0.186731	-0.150807	0.612641	
0.125362	-0.0795966	0.584968	
0.0819669	-0.126701	0.660191	
0.163343	-0.0947766	0.678001	
-0.0850635	-0.240496	0.617991	
-0.00306262	-0.296003	0.5718	
0.00796883	-0.184656	0.604274	
-0.00577358	-0.254916	0.661058	
-0.144987	0.358562	0.621326	
-0.0559694	0.29198	0.588124	
-0.123171	0.237068	0.613094	
-0.181622	0.273954	0.57406	
-0.302044	-0.0506462	1	
-0.211369	-0.0761151	1	
-0.278713	-0.14304	1	
-0.250033	-0.160772	0.906432	
-0.142648	-0.00714059	1	
-0.16685	0.0883447	1	
-0.0884799	0.0810843	0.89303	
-0.185651	-0.000811148	0.912479	
0.146853	-0.477948	0.584008	
0.121351	-0.418264	0.5	
0.0728232	-0.494668	0.573541	
0.0212569	-0.409526	0.586364	
0.115537	0.0107471	1	
0.210156	-0.0147965	1	
0.14072	-0.0839746	1	
0.0982493	-0.0719344	0.910531	
0.146853	-0.477948	0.584008	
0.0814864	-0.493315	0.652319	
0.174678	-0.468495	0.682891	
0.154681	-0.352429	0.61086	
0.385774	-0.0819641	0.609834	
0.350518	0.0203259	0.577676	
0.299946	-0.0112682	0.640667	
0.41725	0.0179908	0.649594	
0.26032	-0.233647	0.595602	
0.351409	-0.224603	0.596537	
0.295465	-0.212132	0.5	
0.313135	-0.131023	0.572624	
-0.358926	0.0589256	0.5	
-0.399482	0.123001	0.5	
-0.42216	0.0506005	0.5	
-0.38814	0.0365087	0.609899	
0.0819669	-0.126701	0.660191	
0.0739457	-0.0375145	0.646536	
0.100041	-0.0381212	0.736861	
0.163343	-0.0947766	0.678001	
0.332026	0.00704946	0.830563	
0.388259	-0.0686204	0.893717	
0.294742	-0.119382	0.854292	
0.383529	-0.130684	0.812713	
-0.0801278	-0.0255813	0.881784	
-0.07036	0.0449888	0.808499	
0.0395279	-8.66572e-05	0.873882	
-0.028625	-0.0663675	0.813721	
-0.0930725	0.0739765	0.647155	
-0.000470172	0.0044189	0.616387	
-0.0524491	0.0544183	0.580273	
-0.0139985	0.0766371	0.645768	
-0.128799	-0.212132	0.5	
-0.153206	-0.153206	0.5	
-0.174825	-0.196279	0.5	
-0.174064	-0.226232	0.58962	
-0.0372406	0.417791	1	
0.060105	0.382127	0.896284	
0.0153159	0.363557	1	
-0.0728697	0.385983	0.897183	
0.133074	0.264097	1	
0.231243	0.24169	1	
0.158056	0.171884	1	
0.20334	0.284476	0.892831	
-0.268448	0.0761744	0.677974	
-0.354135	0.0170578	0.71226	
-0.34853	0.148938	0.738537	
-0.395918	0.121742	0.65735	
0.322107	0.166579	0.5	
0.295465	0.212132	0.5	
0.283872	0.123177	0.588485	
0.354508	0.178976	0.587224	
0.268691	0.110688	0.710369	
0.285541	-0.0139074	0.728509	
0.204037	0.0208987	0.737245	
0.237957	0.0412258	0.662892	
-0.434728	9.15966e-17	0.5	
-0.495101	0.0698189	0.572379	
-0.5	0	0.6	
-0.38814	0.0365087	0.609899	
-0.181859	0.199592	0.5	
-0.227302	0.174542	0.5	
-0.153206	0.153206	0.5	
-0.212186	0.200864	0.578994	
-0.0499791	-0.122616	0.5	
-0.0589256	-0.0589256	0.5	
-0.0814439	-0.125985	0.575026	
-0.0220267	-0.0501213	0.56323	
-0.358926	0.0589256	0.5	
-0.337307	0.0158534	0.5	
-0.3	0.0833333	0.5	
-0.32522	-0.00468432	0.575656	
-0.186407	-0.169451	1	
-0.123319	-0.239698	0.888651	
-0.250033	-0.160772	0.906432	
-0.144759	-0.143126	0.912403	
0.00796883	-0.184656	0.604274	
0.0324597	-0.0934166	0.587598	
0.0819669	-0.126701	0.660191	
0.100353	-0.184453	0.588762	
-0.0268842	0.224117	0.746658	
0.0297419	0.247817	0.680143	
-0.0201888	0.188065	0.634	
-0.0968356	0.250534	0.697531	
-0.468495	-0.174678	0.682891	
-0.337623	-0.15776	0.722835	
-0.350407	-0.154201	0.605376	
-0.398806	-0.103684	0.671654	
-0.106984	0.108603	0.5	
-0.0506005	0.12216	0.5	
-0.0835252	0.135066	0.582318	
-0.0524491	0.0544183	0.580273	
0.317233	0.386476	0.590473	
0.305409	0.305409	0.5	
0.386505	0.317197	0.568825	
0.252165	0.322355	0.613309	
0.00796883	-0.184656	0.604274	
0.100353	-0.184453	0.588762	
0.0819669	-0.126701	0.660191	
0.0780409	-0.210867	0.691426	
-0.234529	0.221409	0.5	
-0.295465	0.212132	0.5	
-0.227302	0.174542	0.5	
-0.212186	0.200864	0.578994	
-0.0411735	0.316432	0.673786	
-0.144118	0.318457	0.733262	
-0.144987	0.358562	0.621326	
-0.0968356	0.250534	0.697531	
-0.0814439	-0.125985	0.656453	
0.00796883	-0.184656	0.604274	
-0.0814439	-0.125985	0.575026	
0.000308877	-0.122536	0.656981	
0.0785366	-0.11627	0.823358	
-0.00334546	-0.102756	0.895053	
0.0395279	-8.66572e-05	0.873882	
-0.028625	-0.0663675	0.813721	
0.094036	0.192335	0.606134	
0.0297419	0.247817	0.680143	
-0.0201888	0.188065	0.634	
0.0615573	0.169949	0.68043	
0.0297419	0.247817	0.680143	
0.12725	0.243321	0.66402	
0.107888	0.321356	0.639747	
0.133662	0.297003	0.732987	
-0.154067	0.200523	0.744733	
-0.0268842	0.224117	0.746658	
-0.103796	0.164416	0.668888	
-0.0968356	0.250534	0.697531	
-0.295465	0.212132	0.5	
-0.212186	0.200864	0.578994	
-0.234529	0.221409	0.5	
-0.302751	0.261742	0.582968	
-0.271058	-0.153206	0.5	
-0.245786	-0.164168	0.624683	
-0.212132	-0.128799	0.5	
-0.244257	-0.0838675	0.585674	
0	-0.5	0.9	
0	-0.5	0.8	
-0.0810399	-0.493389	0.85285	
0.0283953	-0.39231	0.890404	
0.0819669	-0.126701	0.660191	
0.00796883	-0.184656	0.604274	
0.0780409	-0.210867	0.691426	
0.000308877	-0.122536	0.656981	
0.261819	0.319027	1	
0.307884	0.246632	0.880034	
0.231243	0.24169	1	
0.20334	0.284476	0.892831	
0.277603	0.0092772	0.5	
0.24433	0.0230591	0.580906	
0.28483	-0.03759	0.5	
0.321349	-0.0500942	0.566645	
0.418309	0.121276	0.5	
0.366719	0.098872	0.62645	
0.478555	0.144862	0.578348	
0.354508	0.178976	0.587224	
-0.189073	-0.267802	0.673143	
-0.0850635	-0.240496	0.617991	
-0.174064	-0.226232	0.58962	
-0.167637	-0.166421	0.687024	
-0.119993	0.246691	1	
-0.0983601	0.156434	1	
-0.18644	0.1823	1	
-0.1493	0.167608	0.873324	
0.133074	0.264097	1	
0.20334	0.284476	0.892831	
0.140223	0.195959	0.866253	
0.105325	0.289243	0.907921	
0.0913842	0.220621	0.740584	
-0.0268842	0.224117	0.746658	
0.0297419	0.247817	0.680143	
0.0615573	0.169949	0.68043	
-0.401548	-0.0423374	1	
-0.426463	0.0441363	1	
-0.337562	0.0547633	1	
-0.398507	-0.0483311	0.885387	
0.476114	0.152694	0.90246	
0.470916	0.168043	0.800126	
0.388745	0.0776039	0.89546	
0.376293	0.169886	0.910318	
-0.444481	-0.228991	0.591901	
-0.303215	-0.24986	0.599065	
-0.381086	-0.210299	0.5	
-0.350407	-0.154201	0.605376	
0.153328	-0.47591	0.90763	
0.242822	-0.437078	0.847009	
0.168734	-0.470668	0.798219	
0.11106	-0.333093	0.843975	
-0.332133	0.18678	0.621599	
-0.302751	0.261742	0.582968	
-0.415735	0.277785	0.634138	
-0.317726	0.256883	0.685229	
0.241126	0.246812	0.788674	
0.133662	0.297003	0.732987	
0.130793	0.331529	0.821778	
0.224036	0.344788	0.789803	
-0.268448	0.0761744	0.677974	
-0.34853	0.148938	0.738537	
-0.222068	0.116218	0.765206	
-0.234639	0.167846	0.67167	
-0.268272	0.128138	0.588733	
-0.212186	0.200864	0.578994	
-0.332133	0.18678	0.621599	
-0.234639	0.167846	0.67167	
0.26032	-0.233647	0.595602	
0.292602	-0.250468	0.688523	
0.193272	-0.26142	0.670684	
0.237843	-0.32244	0.584415	
-0.177179	0.127748	0.603282	
-0.130814	0.0354375	0.582428	
-0.0930725	0.0739765	0.647155	
-0.177442	0.0578991	0.68267	
-0.383333	3.67394e-17	0.5	
-0.337307	0.0158534	0.5	
-0.358926	0.0589256	0.5	
-0.32522	-0.00468432	0.575656	
-0.0201888	0.188065	0.634	
-0.0835252	0.135066	0.582318	
0.016747	0.116372	0.584632	
-0.0139985	0.0766371	0.645768	
-0.444481	-0.228991	0.591901	
-0.381086	-0.210299	0.5	
-0.399482	-0.123001	0.5	
-0.350407	-0.154201	0.605376	
-0.0112682	-5.37735e-05	0.751437	
-0.0531387	-0.0402198	0.678728	
-0.00154855	-0.114907	0.739634	
-0.0948276	-0.0943246	0.74579	
0.0557946	0.181673	0.5	
0.00279483	0.150684	0.5	
0.0535407	0.120642	0.5	
0.016747	0.116372	0.584632	
0.124175	0.0449909	0.5	
0.0882618	0.0365592	0.582606	
0.152693	-0.00394448	0.5	
0.165404	0.026433	0.57138	
-0.245786	-0.164168	0.624683	
-0.174064	-0.226232	0.58962	
-0.158586	-0.105655	0.59825	
-0.167637	-0.166421	0.687024	
-0.18203	-0.0488646	0.5	
-0.212132	-0.128799	0.5	
-0.15347	-0.097127	0.5	
-0.244257	-0.0838675	0.585674	
0.19713	0.0957524	0.613371	
0.24433	0.0230591	0.580906	
0.283872	0.123177	0.588485	
0.237957	0.0412258	0.662892	
0.130793	0.331529	0.821778	
-0.00982413	0.311992	0.838847	
0.0504561	0.409775	0.7991	
0.0669598	0.264617	0.818251	
0.193272	-0.26142	0.670684	
0.154681	-0.352429	0.61086	
0.0761744	-0.268448	0.622464	
0.163252	-0.248876	0.586706	
0.0785366	-0.11627	0.823358	
0.189747	-0.143359	0.830553	
0.183683	-0.0446088	0.866852	
0.0982493	-0.0719344	0.910531	
0.283872	0.123177	0.588485	
0.193696	0.165595	0.572294	
0.19713	0.0957524	0.613371	
0.274515	0.174272	0.655082	
0.374193	-0.331632	0.665357	
0.292602	-0.250468	0.688523	
0.415735	-0.277785	0.634138	
0.351409	-0.224603	0.596537	
-0.259187	0.0363748	0.591328	
-0.244257	-0.0838675	0.585674	
-0.18468	-0.0140346	0.624264	
-0.259249	-0.00709893	0.664249	
0.231243	0.24169	1	
0.20334	0.284476	0.892831	
0.307884	0.246632	0.880034	
0.22997	0.198341	0.863468	
0.241126	0.246812	0.788674	
0.331011	0.147461	0.830703	
0.307884	0.246632	0.880034	
0.22997	0.198341	0.863468	
-0.242822	0.437078	0.847009	
-0.317233	0.386476	0.909527	
-0.316847	0.386792	0.801384	
-0.272957	0.274415	0.886959	
0.311042	-0.160939	0.648474	
0.251946	-0.0814223	0.593798	
0.275364	-0.0865903	0.678068	
0.313135	-0.131023	0.572624	
-0.15347	-0.097127	0.5	
-0.212132	-0.128799	0.5	
-0.153206	-0.153206	0.5	
-0.158586	-0.105655	0.59825	
-0.085688	-0.137167	0.83131	
-0.0801278	-0.0255813	0.881784	
-0.138777	-0.0448954	0.811721	
-0.144759	-0.143126	0.912403	
-0.0112682	-5.37735e-05	0.751437	
-0.127176	-0.00609761	0.727567	
-0.0531387	-0.0402198	0.678728	
-0.0948276	-0.0943246	0.74579	
-0.0372406	0.417791	1	
0.0420691	0.427134	1	
0.0153159	0.363557	1	
0.060105	0.382127	0.896284	
0.388274	0.315029	0.920807	
0.439458	0.238488	0.924308	
0.328092	0.270243	1	
0.307884	0.246632	0.880034	
0.200864	0.212078	0.638362	
0.180554	0.223326	0.725764	
0.216396	0.318788	0.694105	
0.12725	0.243321	0.66402	
0.100041	-0.0381212	0.736861	
0.117798	0.0518077	0.724107	
0.0739457	-0.0375145	0.646536	
0.0370897	0.0247951	0.688096	
0.216396	0.318788	0.694105	
0.224036	0.344788	0.789803	
0.247057	0.434698	0.750499	
0.119314	0.388497	0.707486	
0.0395279	-8.66572e-05	0.873882	
0.067514	0.114479	0.890799	
0.135395	0.0692853	0.814132	
0.0209079	0.0660845	0.809865	
-0.22856	0.0108682	0.750263	
-0.222068	0.116218	0.765206	
-0.118181	0.0989473	0.748679	
-0.177442	0.0578991	0.68267	
0.135395	0.0692853	0.814132	
0.156034	0.0430169	0.909981	
0.0395279	-8.66572e-05	0.873882	
0.111146	-0.0163362	0.82287	
-0.207451	-0.082142	0.862889	
-0.138777	-0.0448954	0.811721	
-0.0801278	-0.0255813	0.881784	
-0.144759	-0.143126	0.912403	
-0.0589256	-0.0589256	0.5	
-0.0833333	0	0.5	
-0.122616	-0.0499791	0.5	
-0.0882569	-0.0365572	0.592669	
0.212132	0.295465	0.5	
0.271058	0.271058	0.5	
0.262733	0.334293	0.5	
0.252165	0.322355	0.613309	
0.200864	0.212078	0.638362	
0.186731	0.273457	0.579435	
0.216396	0.318788	0.694105	
0.252165	0.322355	0.613309	
-0.386505	0.317197	0.931175	
-0.436762	0.243391	0.903062	
-0.380873	0.323938	0.847739	
-0.272957	0.274415	0.886959	
-0.211369	-0.0761151	1	
-0.144759	-0.143126	0.912403	
-0.207451	-0.082142	0.862889	
-0.185651	-0.000811148	0.912479	
0.107888	0.321356	0.639747	
0.0271287	0.256687	0.590103	
0.0203259	0.350518	0.595017	
0.106333	0.267511	0.579786	
0.495293	0.0684459	0.568597	
0.493389	0.0810399	0.64715	
0.366719	0.098872	0.62645	
0.41725	0.0179908	0.649594	
-0.0422582	-0.437473	1	
0	-0.5	0.9	
-0.0684459	-0.495293	0.931403	
0.0283953	-0.39231	0.890404	
-0.233647	0.26032	0.639516	
-0.332133	0.18678	0.621599	
-0.212186	0.200864	0.578994	
-0.234639	0.167846	0.67167	
0.174678	0.468495	0.817109	
0.247057	0.434698	0.750499	
0.224036	0.344788	0.789803	
0.119314	0.388497	0.707486	
0.247057	-0.434698	0.749501	
0.317206	-0.386498	0.700322	
0.25658	-0.429146	0.66876	
0.200775	-0.327859	0.767733	
-0.26241	-0.01517	0.5	
-0.3	-0.0833333	0.5	
-0.241074	-0.0589256	0.5	
-0.244257	-0.0838675	0.585674	
0.0401436	0.291204	1	
-0.0295403	0.225144	1	
-0.0555676	0.325574	1	
-0.0748341	0.245459	0.898908	
0.0557946	0.181673	0.5	
0.0589256	0.241074	0.5	
1.83697e-17	0.216667	0.5	
0.0271287	0.256687	0.590103	
0.0465403	-0.431857	0.5	
0.121351	-0.418264	0.5	
0.0589256	-0.358926	0.5	
0.0212569	-0.409526	0.586364	
-0.0833333	0.3	0.5	
-0.0589256	0.358926	0.5	
-0.12216	0.350601	0.5	
-0.0559694	0.29198	0.588124	
-0.444481	-0.228991	0.591901	
-0.429146	-0.25658	0.66876	
-0.303215	-0.24986	0.599065	
-0.350407	-0.154201	0.605376	
0.00964811	-0.213747	0.871732	
-0.123319	-0.239698	0.888651	
-0.085688	-0.137167	0.83131	
-0.050212	-0.252969	0.810638	
-0.493437	-0.0807477	0.845776	
-0.47591	-0.153328	0.90763	
-0.340074	-0.13507	0.859051	
-0.398507	-0.0483311	0.885387	
-0.3168	0.386831	0.604097	
-0.374193	0.331632	0.665357	
-0.302751	0.261742	0.582968	
-0.317726	0.256883	0.685229	
0.251946	-0.0814223	0.593798	
0.24433	0.0230591	0.580906	
0.299946	-0.0112682	0.640667	
0.321349	-0.0500942	0.566645	
-0.309277	-0.0223972	0.5	
-0.358926	-0.0589256	0.5	
-0.3	-0.0833333	0.5	
-0.32522	-0.00468432	0.575656	
-0.374193	0.331632	0.665357	
-0.317726	0.256883	0.685229	
-0.3168	0.386831	0.604097	
-0.23213	0.339095	0.696865	
0.0785366	-0.11627	0.823358	
0.129352	-0.205365	0.887641	
0.00964811	-0.213747	0.871732	
0.0762998	-0.205219	0.804763	
0.153206	0.271058	0.5	
0.128799	0.212132	0.5	
0.186731	0.273457	0.579435	
0.106333	0.267511	0.579786	
-0.0201888	0.188065	0.634	
-0.103796	0.164416	0.668888	
-0.0268842	0.224117	0.746658	
-0.0968356	0.250534	0.697531	
-0.0814439	-0.125985	0.656453	
-0.0978573	-0.216654	0.738076	
-0.0948276	-0.0943246	0.74579	
-0.167637	-0.166421	0.687024	
0.220621	-0.0913842	0.746309	
0.22816	-0.174755	0.697122	
0.142999	-0.18326	0.747043	
0.163343	-0.0947766	0.678001	
0.376757	-0.328716	0.753532	
0.327694	-0.196387	0.7647	
0.292602	-0.250468	0.688523	
0.294198	-0.285672	0.778149	
0.19713	0.0957524	0.613371	
0.237957	0.0412258	0.662892	
0.161285	-0.0150511	0.638026	
0.165404	0.026433	0.57138	
-0.121351	0.418264	0.5	
-0.144987	0.358562	0.621326	
-0.12216	0.350601	0.5	
-0.0634498	0.397211	0.588093	
-0.0734441	0.0616893	1	
-0.142648	-0.00714059	1	
-0.16685	0.0883447	1	
-0.0884799	0.0810843	0.89303	
-0.303215	-0.24986	0.599065	
-0.174064	-0.226232	0.58962	
-0.189073	-0.267802	0.673143	
-0.2318	-0.328499	0.599609	
-0.12216	0.0506005	0.5	
-0.157073	0.0991372	0.5	
-0.185212	0.0538339	0.5	
-0.130814	0.0354375	0.582428	
0.124175	0.0449909	0.5	
0.120479	0.115187	0.58227	
0.0882618	0.0365592	0.582606	
0.165404	0.026433	0.57138	
0.0734599	0.0912867	0.653108	
-0.0155726	0.113982	0.720278	
0.0615573	0.169949	0.68043	
-0.0139985	0.0766371	0.645768	
0.12216	0.350601	0.5	
0.0833333	0.3	0.5	
0.106333	0.267511	0.579786	
0.0967579	0.384129	0.574883	
0.161285	-0.0150511	0.638026	
0.163343	-0.0947766	0.678001	
0.125362	-0.0795966	0.584968	
0.190149	-0.0438256	0.575538	
0.0819669	-0.126701	0.660191	
0.125362	-0.0795966	0.584968	
0.0739457	-0.0375145	0.646536	
0.163343	-0.0947766	0.678001	
0.0461078	-0.0584269	1	
-0.00334546	-0.102756	0.895053	
0.0395279	-8.66572e-05	0.873882	
0.0982493	-0.0719344	0.910531	
-0.127176	-0.00609761	0.727567	
-0.22856	0.0108682	0.750263	
-0.220621	-0.0913842	0.726535	
-0.138777	-0.0448954	0.811721	
0.295465	-0.212132	0.5	
0.271058	-0.271058	0.5	
0.332733	-0.27561	0.5	
0.26032	-0.233647	0.595602	
0.112799	-0.33356	1	
0.125573	-0.41396	1	
0.0404524	-0.41072	1	
0.0283953	-0.39231	0.890404	
-0.118181	0.0989473	0.748679	
-0.103796	0.164416	0.668888	
-0.0930725	0.0739765	0.647155	
-0.177442	0.0578991	0.68267	
-0.0930725	0.0739765	0.647155	
-0.118181	0.0989473	0.748679	
-0.0155726	0.113982	0.720278	
-0.103796	0.164416	0.668888	
-0.439458	0.238488	0.575692	
-0.415735	0.277785	0.634138	
-0.450285	0.217356	0.644698	
-0.332133	0.18678	0.621599	
-0.152694	-0.476114	0.59754	
-0.238488	-0.439458	0.575692	
-0.217356	-0.450285	0.644698	
-0.129826	-0.346552	0.613476	
-0.0814864	0.493315	0.652319	
-0.0634498	0.397211	0.588093	
0	0.5	0.6	
0.0140521	0.397008	0.681004	
-0.177179	0.127748	0.603282	
-0.0835252	0.135066	0.582318	
-0.0930725	0.0739765	0.647155	
-0.130814	0.0354375	0.582428	
0.157976	0.137423	0.708763	
0.180554	0.223326	0.725764	
0.200864	0.212078	0.638362	
0.12725	0.243321	0.66402	
0.277603	0.0092772	0.5	
0.216667	0	0.5	
0.28483	-0.03759	0.5	
0.24433	0.0230591	0.580906	
0.241074	0.0589256	0.5	
0.277603	0.0092772	0.5	
0.315853	0.0373069	0.5	
0.24433	0.0230591	0.580906	
0.153328	0.47591	0.59237	
0.0967579	0.384129	0.574883	
0.178778	0.36803	0.594641	
0.119314	0.388497	0.707486	
0.130793	0.331529	0.821778	
0.0504561	0.409775	0.7991	
0.0518787	0.327869	0.739172	
0.0669598	0.264617	0.818251	
-0.00982413	0.311992	0.838847	
0.130793	0.331529	0.821778	
0.060105	0.382127	0.896284	
0.0669598	0.264617	0.818251	
0.386505	0.317197	0.568825	
0.300272	0.248641	0.604822	
0.334293	0.262733	0.5	
0.354508	0.178976	0.587224	
0.130793	0.331529	0.821778	
-0.00982413	0.311992	0.838847	
0.060105	0.382127	0.896284	
0.0504561	0.409775	0.7991	
-0.0833019	-0.493012	0.655211	
0	-0.5	0.6	
-0.0698189	-0.495101	0.572379	
0.0212569	-0.409526	0.586364	
-0.315029	-0.388274	0.579193	
-0.276229	-0.333066	0.5	
-0.303215	-0.24986	0.599065	
-0.2318	-0.328499	0.599609	
0.161285	-0.0150511	0.638026	
0.0739457	-0.0375145	0.646536	
0.125362	-0.0795966	0.584968	
0.163343	-0.0947766	0.678001	
-0.142648	-0.00714059	1	
-0.0734441	0.0616893	1	
-0.048473	-0.0328568	1	
-0.0801278	-0.0255813	0.881784	
0.0742945	0.125166	0.760039	
0.117798	0.0518077	0.724107	
0.135395	0.0692853	0.814132	
0.0209079	0.0660845	0.809865	
-0.168688	-0.281701	1	
-0.186407	-0.169451	1	
-0.123319	-0.239698	0.888651	
-0.235677	-0.292728	0.906663	
-0.0850635	-0.240496	0.617991	
-0.129826	-0.346552	0.613476	
-0.189073	-0.267802	0.673143	
-0.174064	-0.226232	0.58962	
0.220621	-0.0913842	0.746309	
0.346453	-0.0782039	0.737808	
0.285541	-0.0139074	0.728509	
0.255127	-0.0374614	0.810965	
0.212132	0.295465	0.5	
0.178778	0.36803	0.594641	
0.186731	0.273457	0.579435	
0.252165	0.322355	0.613309	
0.0373069	0.315853	0.5	
0.0833333	0.3	0.5	
0.0589256	0.358926	0.5	
0.0203259	0.350518	0.595017	
0.0589256	-0.0589256	0.5	
0.125362	-0.0795966	0.584968	
0.118934	-0.0478046	0.5	
0.0466381	-0.023308	0.56503	
-0.383333	3.67394e-17	0.5	
-0.358926	0.0589256	0.5	
-0.38814	0.0365087	0.609899	
-0.32522	-0.00468432	0.575656	
0.294742	-0.119382	0.854292	
0.220621	-0.0913842	0.746309	
0.189747	-0.143359	0.830553	
0.255127	-0.0374614	0.810965	
-0.28746	0.0302731	0.5	
-0.241074	0.0589256	0.5	
-0.3	0.0833333	0.5	
-0.259187	0.0363748	0.591328	
0.233778	-0.237115	0.8353	
0.214973	-0.334693	0.892974	
0.200775	-0.327859	0.767733	
0.294198	-0.285672	0.778149	
0.0589256	-0.0589256	0.5	
0.0324597	-0.0934166	0.587598	
0.125362	-0.0795966	0.584968	
0.0466381	-0.023308	0.56503	
-0.323938	-0.380873	0.847739	
-0.182538	-0.337413	0.833302	
-0.258165	-0.428195	0.798245	
-0.220163	-0.339708	0.738499	
0.125573	-0.41396	1	
0.0704482	-0.495012	0.928155	
0.0404524	-0.41072	1	
0.0283953	-0.39231	0.890404	
0.164797	-0.177585	1	
0.201164	-0.273578	1	
0.129352	-0.205365	0.887641	
0.237523	-0.1744	0.906763	
0.146853	-0.477948	0.584008	
0.0728232	-0.494668	0.573541	
0.0814864	-0.493315	0.652319	
0.0212569	-0.409526	0.586364	
0.346453	-0.0782039	0.737808	
0.332026	0.00704946	0.830563	
0.357913	0.0406281	0.72441	
0.285541	-0.0139074	0.728509	
0.107888	0.321356	0.639747	
0.106333	0.267511	0.579786	
0.0203259	0.350518	0.595017	
0.0967579	0.384129	0.574883	
0.439458	0.238488	0.924308	
0.307884	0.246632	0.880034	
0.415735	0.277785	0.865862	
0.376293	0.169886	0.910318	
-0.220621	-0.0913842	0.726535	
-0.207451	-0.082142	0.862889	
-0.173622	-0.15656	0.786805	
-0.138777	-0.0448954	0.811721	
-0.0411735	0.316432	0.673786	
0.0203259	0.350518	0.595017	
0.0271287	0.256687	0.590103	
-0.0559694	0.29198	0.588124	
-0.0243888	0.144613	0.834462	
-0.0155726	0.113982	0.720278	
0.0209079	0.0660845	0.809865	
-0.07036	0.0449888	0.808499	
-0.18468	-0.0140346	0.624264	
-0.177442	0.0578991	0.68267	
-0.259187	0.0363748	0.591328	
-0.259249	-0.00709893	0.664249	
-0.440961	-0.235698	0.931431	
-0.437078	-0.242822	0.847009	
-0.340074	-0.13507	0.859051	
-0.317305	-0.233685	0.899359	
0.174678	0.468495	0.817109	
0.130793	0.331529	0.821778	
0.224036	0.344788	0.789803	
0.158987	0.372754	0.909796	
-0.0814439	-0.125985	0.656453	
-0.158586	-0.105655	0.59825	
-0.0882569	-0.0365572	0.592669	
-0.0814439	-0.125985	0.575026	
0.294742	-0.119382	0.854292	
0.327694	-0.196387	0.7647	
0.346453	-0.0782039	0.737808	
0.383529	-0.130684	0.812713	
0.0373069	0.315853	0.5	
0.0092772	0.277603	0.5	
0.0589256	0.241074	0.5	
0.0271287	0.256687	0.590103	
0.374193	-0.331632	0.665357	
0.4284	-0.257824	0.704976	
0.415735	-0.277785	0.634138	
0.292602	-0.250468	0.688523	
0.470916	0.168043	0.800126	
0.493012	0.0833019	0.844789	
0.388745	0.0776039	0.89546	
0.409933	0.0569559	0.803804	
-0.000470172	0.0044189	0.616387	
-0.0220267	-0.0501213	0.56323	
-0.0524491	0.0544183	0.580273	
0.0195373	0.0477919	0.562256	
0.3	0.0833333	0.5	
0.283872	0.123177	0.588485	
0.241074	0.0589256	0.5	
0.24433	0.0230591	0.580906	
0.0092772	-0.0223972	0.5	
-0.0220267	-0.0501213	0.56323	
0.0466381	-0.023308	0.56503	
0.0195373	0.0477919	0.562256	
0.204037	0.0208987	0.737245	
0.268691	0.110688	0.710369	
0.265971	0.0656026	0.794392	
0.285541	-0.0139074	0.728509	
-0.233647	0.26032	0.639516	
-0.212186	0.200864	0.578994	
-0.332133	0.18678	0.621599	
-0.302751	0.261742	0.582968	
-0.142648	-0.00714059	1	
-0.048473	-0.0328568	1	
-0.117671	-0.10197	1	
-0.0801278	-0.0255813	0.881784	
0.332026	0.00704946	0.830563	
0.388259	-0.0686204	0.893717	
0.383529	-0.130684	0.812713	
0.410213	-0.0392212	0.798574	
0.380873	0.323938	0.652261	
0.436762	0.243391	0.596938	
0.428195	0.258165	0.701755	
0.300272	0.248641	0.604822	
-0.142648	-0.00714059	1	
-0.117671	-0.10197	1	
-0.211369	-0.0761151	1	
-0.185651	-0.000811148	0.912479	
0.174678	0.468495	0.817109	
0.224036	0.344788	0.789803	
0.25658	0.429146	0.83124	
0.158987	0.372754	0.909796	
-0.220621	-0.0913842	0.726535	
-0.173622	-0.15656	0.786805	
-0.0948276	-0.0943246	0.74579	
-0.138777	-0.0448954	0.811721	
0.0734599	0.0912867	0.653108	
0.0742945	0.125166	0.760039	
0.157976	0.137423	0.708763	
0.0615573	0.169949	0.68043	
-0.4284	0.257824	0.704976	
-0.34853	0.148938	0.738537	
-0.470916	0.168043	0.699874	
-0.395918	0.121742	0.65735	
-0.118181	0.0989473	0.748679	
-0.22856	0.0108682	0.750263	
-0.165601	0.0438592	0.827911	
-0.222068	0.116218	0.765206	
0.5	0	0.9	
0.414991	0.0495125	1	
0.495101	0.0698189	0.927621	
0.388745	0.0776039	0.89546	
0.0913842	0.220621	0.740584	
0.180554	0.223326	0.725764	
0.157976	0.137423	0.708763	
0.12725	0.243321	0.66402	
-0.381208	0.210225	0.5	
-0.332733	0.27561	0.5	
-0.388274	0.315029	0.579193	
-0.302751	0.261742	0.582968	
-0.03759	0.28483	0.5	
-0.0589256	0.241074	0.5	
1.83697e-17	0.216667	0.5	
-0.0595377	0.207843	0.570115	
0.212132	-0.295465	0.5	
0.26032	-0.233647	0.595602	
0.163252	-0.248876	0.586706	
0.237843	-0.32244	0.584415	
-0.0833333	0	0.5	
-0.0589256	0.0589256	0.5	
-0.12216	0.0506005	0.5	
-0.0524491	0.0544183	0.580273	
0.107888	0.321356	0.639747	
0.178778	0.36803	0.594641	
0.106333	0.267511	0.579786	
0.0967579	0.384129	0.574883	
-0.245786	-0.164168	0.624683	
-0.350407	-0.154201	0.605376	
-0.323059	-0.0556697	0.636381	
-0.244257	-0.0838675	0.585674	
-0.470668	-0.168734	0.798219	
-0.337623	-0.15776	0.722835	
-0.468495	-0.174678	0.682891	
-0.398806	-0.103684	0.671654	
0.0807477	-0.493437	0.845776	
0.0854243	-0.492649	0.748597	
0	-0.5	0.8	
-0.0103711	-0.392711	0.762225	
0.242822	0.437078	0.652991	
0.178778	0.36803	0.594641	
0.216396	0.318788	0.694105	
0.119314	0.388497	0.707486	
0.108346	0.0977259	0.5	
0.0882618	0.0365592	0.582606	
0.124175	0.0449909	0.5	
0.120479	0.115187	0.58227	
0.0761744	-0.268448	0.622464	
0.100353	-0.184453	0.588762	
0.00796883	-0.184656	0.604274	
0.0780409	-0.210867	0.691426	
0.332026	0.00704946	0.830563	
0.331011	0.147461	0.830703	
0.388745	0.0776039	0.89546	
0.409933	0.0569559	0.803804	
0.153206	0.271058	0.5	
0.106066	0.256066	0.5	
0.128799	0.212132	0.5	
0.106333	0.267511	0.579786	
-0.194667	-0.460548	0.76567	
-0.182538	-0.337413	0.833302	
-0.114558	-0.356703	0.732324	
-0.220163	-0.339708	0.738499	
0.125362	-0.0795966	0.584968	
0.165404	0.026433	0.57138	
0.161285	-0.0150511	0.638026	
0.190149	-0.0438256	0.575538	
0.295465	0.212132	0.5	
0.271058	0.271058	0.5	
0.249439	0.227985	0.5	
0.300272	0.248641	0.604822	
0.130793	0.331529	0.821778	
0.20334	0.284476	0.892831	
0.241126	0.246812	0.788674	
0.224036	0.344788	0.789803	
0.357913	0.0406281	0.72441	
0.265971	0.0656026	0.794392	
0.268691	0.110688	0.710369	
0.285541	-0.0139074	0.728509	
0.241126	0.246812	0.788674	
0.216396	0.318788	0.694105	
0.180554	0.223326	0.725764	
0.133662	0.297003	0.732987	
-0.0814864	0.493315	0.652319	
-0.0634498	0.397211	0.588093	
0.0140521	0.397008	0.681004	
-0.0839841	0.399109	0.679035	
-6.75805e-05	-0.152663	0.5	
0.0506005	-0.12216	0.5	
0	-0.0833333	0.5	
0.0324597	-0.0934166	0.587598	
0.0465403	0.431857	0.5	
0.0203259	0.350518	0.595017	
1.83697e-17	0.383333	0.5	
0.0967579	0.384129	0.574883	
0.157976	0.137423	0.708763	
0.135395	0.0692853	0.814132	
0.0742945	0.125166	0.760039	
0.117798	0.0518077	0.724107	
-0.381208	0.210225	0.5	
-0.46194	0.191342	0.5	
-0.399482	0.123001	0.5	
-0.439458	0.238488	0.575692	
0.439458	-0.238488	0.575692	
0.381208	-0.210225	0.5	
0.399482	-0.123001	0.5	
0.46194	-0.191342	0.5	
-0.380873	0.323938	0.847739	
-0.265307	0.263707	0.765082	
-0.316847	0.386792	0.801384	
-0.272957	0.274415	0.886959	
0.174678	0.468495	0.817109	
0.146853	0.477948	0.915992	
0.0814864	0.493315	0.847681	
0.158987	0.372754	0.909796	
0.25658	-0.429146	0.66876	
0.317206	-0.386498	0.700322	
0.3168	-0.386831	0.604097	
0.237843	-0.32244	0.584415	
0.295465	-0.212132	0.5	
0.26032	-0.233647	0.595602	
0.332733	-0.27561	0.5	
0.351409	-0.224603	0.596537	
-0.0948276	-0.0943246	0.74579	
-0.167637	-0.166421	0.687024	
-0.220621	-0.0913842	0.726535	
-0.14162	-0.0686737	0.672454	
0.490343	0.0977967	0.741226	
0.469721	0.171353	0.661666	
0.493389	0.0810399	0.64715	
0.379144	0.136793	0.743369	
0.067514	0.114479	0.890799	
0.0742945	0.125166	0.760039	
0.135395	0.0692853	0.814132	
0.0209079	0.0660845	0.809865	
0.216667	0	0.5	
0.241074	-0.0589256	0.5	
0.24433	0.0230591	0.580906	
0.190149	-0.0438256	0.575538	
-0.0155726	0.113982	0.720278	
0.0742945	0.125166	0.760039	
0.0734599	0.0912867	0.653108	
0.0615573	0.169949	0.68043	
0.183683	-0.0446088	0.866852	
0.189747	-0.143359	0.830553	
0.220621	-0.0913842	0.746309	
0.255127	-0.0374614	0.810965	
0.476114	0.152694	0.90246	
0.450285	0.217356	0.855302	
0.470916	0.168043	0.800126	
0.376293	0.169886	0.910318	
-0.173622	-0.15656	0.786805	
-0.250033	-0.160772	0.906432	
-0.231974	-0.22452	0.832256	
-0.144759	-0.143126	0.912403	
-0.0413818	0.388755	0.761338	
0.0140521	0.397008	0.681004	
0	0.5	0.7	
0.0504561	0.409775	0.7991	
-0.0589256	-0.0589256	0.5	
-0.0833333	0	0.5	
-0.0882569	-0.0365572	0.592669	
-0.0220267	-0.0501213	0.56323	
0.469721	0.171353	0.661666	
0.428195	0.258165	0.701755	
0.436762	0.243391	0.596938	
0.354508	0.178976	0.587224	
0.186731	0.273457	0.579435	
0.106333	0.267511	0.579786	
0.107888	0.321356	0.639747	
0.178778	0.36803	0.594641	
-0.000470172	0.0044189	0.616387	
0.0370897	0.0247951	0.688096	
0.0734599	0.0912867	0.653108	
-0.0139985	0.0766371	0.645768	
0.0518787	0.327869	0.739172	
0.0297419	0.247817	0.680143	
0.107888	0.321356	0.639747	
0.133662	0.297003	0.732987	
-0.28746	0.0302731	0.5	
-0.26241	-0.01517	0.5	
-0.241074	0.0589256	0.5	
-0.259187	0.0363748	0.591328	
0.184962	0.0799289	1	
0.158056	0.171884	1	
0.247868	0.146306	1	
0.226887	0.111044	0.884387	
-0.0155726	0.113982	0.720278	
0.0742945	0.125166	0.760039	
-0.0243888	0.144613	0.834462	
0.0209079	0.0660845	0.809865	
0.450285	-0.217356	0.644698	
0.476114	-0.152694	0.59754	
0.439458	-0.238488	0.575692	
0.351409	-0.224603	0.596537	
0.161285	-0.0150511	0.638026	
0.237957	0.0412258	0.662892	
0.24433	0.0230591	0.580906	
0.165404	0.026433	0.57138	
-0.123319	-0.239698	0.888651	
-0.173622	-0.15656	0.786805	
-0.231974	-0.22452	0.832256	
-0.144759	-0.143126	0.912403	
0.0734599	0.0912867	0.653108	
0.157976	0.137423	0.708763	
0.0742945	0.125166	0.760039	
0.117798	0.0518077	0.724107	
-0.0488646	-0.18203	0.5	
-5.51091e-17	-0.216667	0.5	
-6.75805e-05	-0.152663	0.5	
0.00796883	-0.184656	0.604274	
-0.337562	0.0547633	1	
-0.302044	-0.0506462	1	
-0.401548	-0.0423374	1	
-0.398507	-0.0483311	0.885387	
0.220621	-0.0913842	0.746309	
0.275364	-0.0865903	0.678068	
0.22816	-0.174755	0.697122	
0.163343	-0.0947766	0.678001	
0.490343	0.0977967	0.741226	
0.357913	0.0406281	0.72441	
0.5	0	0.7	
0.409933	0.0569559	0.803804	
-0.207451	-0.082142	0.862889	
-0.250033	-0.160772	0.906432	
-0.173622	-0.15656	0.786805	
-0.144759	-0.143126	0.912403	
-0.168043	-0.470916	0.699874	
-0.0977967	-0.490343	0.758774	
-0.0833019	-0.493012	0.655211	
-0.114558	-0.356703	0.732324	
-0.388274	0.315029	0.579193	
-0.415735	0.277785	0.634138	
-0.439458	0.238488	0.575692	
-0.302751	0.261742	0.582968	
0.346453	-0.0782039	0.737808	
0.299946	-0.0112682	0.640667	
0.275364	-0.0865903	0.678068	
0.285541	-0.0139074	0.728509	
0.299946	-0.0112682	0.640667	
0.350518	0.0203259	0.577676	
0.385774	-0.0819641	0.609834	
0.321349	-0.0500942	0.566645	
0.0465403	-0.431857	0.5	
0.0728232	-0.494668	0.573541	
0.121351	-0.418264	0.5	
0.0212569	-0.409526	0.586364	
-0.12216	0.350601	0.5	
-0.196736	0.368707	0.5	
-0.166579	0.322107	0.5	
-0.144987	0.358562	0.621326	
0.108346	0.0977259	0.5	
0.0999373	0.153076	0.5	
0.0535407	0.120642	0.5	
0.120479	0.115187	0.58227	
-0.161164	0.309138	0.850572	
-0.0748341	0.245459	0.898908	
-0.1493	0.167608	0.873324	
-0.0985684	0.251065	0.805476	
0.232997	-0.11062	1	
0.210156	-0.0147965	1	
0.314271	-0.0501881	1	
0.259967	0.0147254	0.905038	
-0.470668	-0.168734	0.798219	
-0.493437	-0.0807477	0.845776	
-0.47591	-0.153328	0.90763	
-0.340074	-0.13507	0.859051	
0.196736	-0.368707	0.5	
0.12216	-0.350601	0.5	
0.121351	-0.418264	0.5	
0.154681	-0.352429	0.61086	
0.380207	-0.19708	1	
0.436762	-0.243391	0.903062	
0.386505	-0.317197	0.931175	
0.335277	-0.219266	0.871103	
-0.0882569	-0.0365572	0.592669	
-0.0524491	0.0544183	0.580273	
-0.000470172	0.0044189	0.616387	
-0.0220267	-0.0501213	0.56323	
-0.123171	0.237068	0.613094	
-0.103796	0.164416	0.668888	
-0.0201888	0.188065	0.634	
-0.0968356	0.250534	0.697531	
0.490343	0.0977967	0.741226	
0.5	0	0.7	
0.357913	0.0406281	0.72441	
0.41725	0.0179908	0.649594	
0.0882618	0.0365592	0.582606	
0.016747	0.116372	0.584632	
0.0734599	0.0912867	0.653108	
0.120479	0.115187	0.58227	
0.327694	-0.196387	0.7647	
0.22816	-0.174755	0.697122	
0.311042	-0.160939	0.648474	
0.292602	-0.250468	0.688523	
0.328092	0.270243	1	
0.231243	0.24169	1	
0.261819	0.319027	1	
0.307884	0.246632	0.880034	
-0.00425413	0.131001	1	
-0.0734441	0.0616893	1	
-0.0983601	0.156434	1	
-0.0884799	0.0810843	0.89303	
0.216396	0.318788	0.694105	
0.178778	0.36803	0.594641	
0.107888	0.321356	0.639747	
0.119314	0.388497	0.707486	
-0.5	0	0.7	
-0.493315	-0.0814864	0.652319	
-0.5	0	0.6	
-0.402816	-0.0523896	0.590168	
0.0913842	0.220621	0.740584	
0.12725	0.243321	0.66402	
0.0297419	0.247817	0.680143	
0.133662	0.297003	0.732987	
0.380207	-0.19708	1	
0.386505	-0.317197	0.931175	
0.314857	-0.257449	1	
0.335277	-0.219266	0.871103	
0.156034	0.0430169	0.909981	
0.0982493	-0.0719344	0.910531	
0.0395279	-8.66572e-05	0.873882	
0.111146	-0.0163362	0.82287	
0.233778	-0.237115	0.8353	
0.327694	-0.196387	0.7647	
0.294742	-0.119382	0.854292	
0.335277	-0.219266	0.871103	
0.193272	-0.26142	0.670684	
0.142999	-0.18326	0.747043	
0.0780409	-0.210867	0.691426	
0.111962	-0.272347	0.754919	
-0.0112682	-5.37735e-05	0.751437	
-0.0948276	-0.0943246	0.74579	
-0.00154855	-0.114907	0.739634	
-0.028625	-0.0663675	0.813721	
-0.233647	0.26032	0.639516	
-0.234639	0.167846	0.67167	
-0.265307	0.263707	0.765082	
-0.317726	0.256883	0.685229	
-0.495293	0.0684459	0.931403	
-0.404541	0.126945	1	
-0.426463	0.0441363	1	
-0.3732	0.0934614	0.886553	
0.226887	0.111044	0.884387	
0.217923	0.147902	0.790128	
0.331011	0.147461	0.830703	
0.265971	0.0656026	0.794392	
0.016747	0.116372	0.584632	
-0.0835252	0.135066	0.582318	
-0.0201888	0.188065	0.634	
-0.0595377	0.207843	0.570115	
0.153328	0.47591	0.59237	
0.0807477	0.493437	0.654224	
0.0967579	0.384129	0.574883	
0.119314	0.388497	0.707486	
0.242822	0.437078	0.652991	
0.216396	0.318788	0.694105	
0.247057	0.434698	0.750499	
0.119314	0.388497	0.707486	
-0.0698189	-0.495101	0.572379	
-1.3431e-16	-0.435719	0.5	
-0.0506005	-0.42216	0.5	
0.0212569	-0.409526	0.586364	
-0.374193	0.331632	0.665357	
-0.3168	0.386831	0.604097	
-0.317206	0.386498	0.700322	
-0.23213	0.339095	0.696865	
0.0761744	-0.268448	0.622464	
-0.00306262	-0.296003	0.5718	
-0.0188603	-0.349288	0.644317	
-0.00577358	-0.254916	0.661058	
0.0461078	-0.0584269	1	
0.0712814	-0.153152	1	
-0.00334546	-0.102756	0.895053	
0.0982493	-0.0719344	0.910531	
0.200864	0.212078	0.638362	
0.300272	0.248641	0.604822	
0.186731	0.273457	0.579435	
0.252165	0.322355	0.613309	
0.212132	-0.128799	0.5	
0.186339	-0.0508266	0.5	
0.154508	-0.0938282	0.5	
0.190149	-0.0438256	0.575538	
-0.00982413	0.311992	0.838847	
0.060105	0.382127	0.896284	
0.105325	0.289243	0.907921	
0.0669598	0.264617	0.818251	
-0.128799	-0.212132	0.5	
-0.153206	-0.271058	0.5	
-0.106066	-0.256066	0.5	
-0.174064	-0.226232	0.58962	
-0.153206	0.153206	0.5	
-0.212132	0.128799	0.5	
-0.177179	0.127748	0.603282	
-0.212186	0.200864	0.578994	
-0.316847	0.386792	0.801384	
-0.265307	0.263707	0.765082	
-0.317206	0.386498	0.700322	
-0.23213	0.339095	0.696865	
0.178778	0.36803	0.594641	
0.0967579	0.384129	0.574883	
0.107888	0.321356	0.639747	
0.119314	0.388497	0.707486	
0.154508	-0.0938282	0.5	
0.118934	-0.0478046	0.5	
0.125362	-0.0795966	0.584968	
0.190149	-0.0438256	0.575538	
-0.0243888	0.144613	0.834462	
0.0209079	0.0660845	0.809865	
-0.0884799	0.0810843	0.89303	
-0.07036	0.0449888	0.808499	
-0.153206	0.153206	0.5	
-0.212132	0.128799	0.5	
-0.157073	0.0991372	0.5	
-0.177179	0.127748	0.603282	
-0.0112682	-5.37735e-05	0.751437	
0.0209079	0.0660845	0.809865	
-0.0155726	0.113982	0.720278	
-0.07036	0.0449888	0.808499	
0.220621	-0.0913842	0.746309	
0.346453	-0.0782039	0.737808	
0.275364	-0.0865903	0.678068	
0.285541	-0.0139074	0.728509	
0.104605	-0.104521	0.5	
0.118934	-0.0478046	0.5	
0.0589256	-0.0589256	0.5	
0.125362	-0.0795966	0.584968	
0.262733	0.334293	0.5	
0.235698	0.440961	0.568569	
0.178778	0.36803	0.594641	
0.252165	0.322355	0.613309	
-0.470916	0.168043	0.699874	
-0.34853	0.148938	0.738537	
-0.490343	0.0977967	0.758774	
-0.395918	0.121742	0.65735	
6.08826e-17	0.43599	0.5	
0	0.5	0.6	
-0.0728232	0.494668	0.573541	
-0.0634498	0.397211	0.588093	
0.388274	-0.315029	0.579193	
0.274828	-0.327002	0.5	
0.3168	-0.386831	0.604097	
0.237843	-0.32244	0.584415	
0.262733	0.334293	0.5	
0.178778	0.36803	0.594641	
0.212132	0.295465	0.5	
0.252165	0.322355	0.613309	
0.0395279	-8.66572e-05	0.873882	
-0.00334546	-0.102756	0.895053	
0.0785366	-0.11627	0.823358	
0.0982493	-0.0719344	0.910531	
-5.51091e-17	-0.216667	0.5	
0.0519196	-0.186143	0.5	
-6.75805e-05	-0.152663	0.5	
0.00796883	-0.184656	0.604274	
0.1612	0.100866	0.5	
0.153206	0.153206	0.5	
0.120479	0.115187	0.58227	
0.193696	0.165595	0.572294	
-0.196279	0.249439	0.5	
-0.181859	0.199592	0.5	
-0.128799	0.212132	0.5	
-0.181622	0.273954	0.57406	
-0.0499791	-0.122616	0.5	
-0.0589256	-0.0589256	0.5	
-0.105887	-0.105887	0.5	
-0.0814439	-0.125985	0.575026	
0.130793	0.331529	0.821778	
0.140223	0.195959	0.866253	
0.105325	0.289243	0.907921	
0.0669598	0.264617	0.818251	
0.0589256	0.358926	0.5	
0.0465403	0.431857	0.5	
1.83697e-17	0.383333	0.5	
0.0967579	0.384129	0.574883	
0.0903521	0.10545	1	
0.0209546	0.0362755	1	
-0.00425413	0.131001	1	
0.067514	0.114479	0.890799	
-0.401548	-0.0423374	1	
-0.5	0	0.9	
-0.426463	0.0441363	1	
-0.398507	-0.0483311	0.885387	
0.26032	-0.233647	0.595602	
0.311042	-0.160939	0.648474	
0.22816	-0.174755	0.697122	
0.292602	-0.250468	0.688523	
-0.0882569	-0.0365572	0.592669	
-0.158586	-0.105655	0.59825	
-0.0814439	-0.125985	0.656453	
-0.14162	-0.0686737	0.672454	
0.130793	0.331529	0.821778	
0.140223	0.195959	0.866253	
0.20334	0.284476	0.892831	
0.105325	0.289243	0.907921	
0.305409	0.305409	0.5	
0.271058	0.271058	0.5	
0.334293	0.262733	0.5	
0.300272	0.248641	0.604822	
-0.144987	0.358562	0.621326	
-0.0411735	0.316432	0.673786	
-0.0559694	0.29198	0.588124	
-0.0634498	0.397211	0.588093	
0.0589256	0.358926	0.5	
1.83697e-17	0.383333	0.5	
0.0203259	0.350518	0.595017	
0.0967579	0.384129	0.574883	
0.314857	-0.257449	1	
0.313791	-0.154465	1	
0.335277	-0.219266	0.871103	
0.237523	-0.1744	0.906763	
-0.477948	-0.146853	0.584008	
-0.350407	-0.154201	0.605376	
-0.399482	-0.123001	0.5	
-0.402816	-0.0523896	0.590168	
0	0.5	0.9	
-0.0372406	0.417791	1	
-0.0704482	0.495012	0.928155	
-0.0728697	0.385983	0.897183	
-0.444481	-0.228991	0.591901	
-0.399482	-0.123001	0.5	
-0.477948	-0.146853	0.584008	
-0.350407	-0.154201	0.605376	
-0.0201888	0.188065	0.634	
-0.0559694	0.29198	0.588124	
0.0271287	0.256687	0.590103	
-0.0595377	0.207843	0.570115	
-0.28746	0.0302731	0.5	
-0.26241	-0.01517	0.5	
-0.259187	0.0363748	0.591328	
-0.32522	-0.00468432	0.575656	
-0.273315	0.334955	1	
-0.318983	0.261743	1	
-0.386505	0.317197	0.931175	
-0.272957	0.274415	0.886959	
-0.315029	-0.388274	0.579193	
-0.303215	-0.24986	0.599065	
-0.331632	-0.374193	0.665357	
-0.2318	-0.328499	0.599609	
-0.386831	-0.3168	0.604097	
-0.381086	-0.210299	0.5	
-0.444481	-0.228991	0.591901	
-0.303215	-0.24986	0.599065	
0.0785366	-0.11627	0.823358	
0.142999	-0.18326	0.747043	
0.189747	-0.143359	0.830553	
0.0762998	-0.205219	0.804763	
0.19713	0.0957524	0.613371	
0.24433	0.0230591	0.580906	
0.237957	0.0412258	0.662892	
0.165404	0.026433	0.57138	
-0.146853	0.477948	0.584008	
-0.144987	0.358562	0.621326	
-0.121351	0.418264	0.5	
-0.0634498	0.397211	0.588093	
0.300272	0.248641	0.604822	
0.354508	0.178976	0.587224	
0.322027	0.213397	0.712919	
0.274515	0.174272	0.655082	
0.0814864	0.493315	0.847681	
0.060105	0.382127	0.896284	
0	0.5	0.9	
0.0504561	0.409775	0.7991	
0.314857	-0.257449	1	
0.245477	-0.191651	1	
0.313791	-0.154465	1	
0.237523	-0.1744	0.906763	
-0.196279	0.249439	0.5	
-0.212132	0.295465	0.5	
-0.271058	0.271058	0.5	
-0.181622	0.273954	0.57406	
-0.152663	-6.75805e-05	0.5	
-0.0833333	0	0.5	
-0.12216	0.0506005	0.5	
-0.130814	0.0354375	0.582428	
0.153206	0.153206	0.5	
0.174542	0.196962	0.5	
0.128799	0.212132	0.5	
0.193696	0.165595	0.572294	
-0.268448	0.0761744	0.677974	
-0.177179	0.127748	0.603282	
-0.234639	0.167846	0.67167	
-0.177442	0.0578991	0.68267	
0.3168	0.386831	0.895903	
0.277785	0.415735	1	
0.202324	0.378521	1	
0.261819	0.319027	1	
-0.212132	0.128799	0.5	
-0.268272	0.128138	0.588733	
-0.177179	0.127748	0.603282	
-0.212186	0.200864	0.578994	
-0.388274	0.315029	0.579193	
-0.439458	0.238488	0.575692	
-0.381208	0.210225	0.5	
-0.302751	0.261742	0.582968	
0.388274	0.315029	0.920807	
0.415735	0.277785	0.865862	
0.439458	0.238488	0.924308	
0.307884	0.246632	0.880034	
-0.00154855	-0.114907	0.739634	
-0.0814439	-0.125985	0.656453	
-0.0531387	-0.0402198	0.678728	
0.000308877	-0.122536	0.656981	
-0.220621	-0.0913842	0.726535	
-0.167637	-0.166421	0.687024	
-0.0948276	-0.0943246	0.74579	
-0.173622	-0.15656	0.786805	
0.242822	-0.437078	0.847009	
0.316847	-0.386792	0.801384	
0.200775	-0.327859	0.767733	
0.214973	-0.334693	0.892974	
-0.127176	-0.00609761	0.727567	
-0.118181	0.0989473	0.748679	
-0.0930725	0.0739765	0.647155	
-0.177442	0.0578991	0.68267	
0.314271	-0.0501881	1	
0.394936	-0.119803	1	
0.313791	-0.154465	1	
0.388259	-0.0686204	0.893717	
-0.0977967	-0.490343	0.758774	
0	-0.5	0.7	
-0.0833019	-0.493012	0.655211	
-0.0103711	-0.392711	0.762225	
-0.244257	-0.0838675	0.585674	
-0.32522	-0.00468432	0.575656	
-0.323059	-0.0556697	0.636381	
-0.259249	-0.00709893	0.664249	
-0.212132	0.295465	0.5	
-0.23026	0.337515	0.583641	
-0.271058	0.271058	0.5	
-0.181622	0.273954	0.57406	
-0.210263	-0.381228	0.5	
-0.123001	-0.399482	0.5	
-0.238488	-0.439458	0.575692	
-0.191342	-0.46194	0.5	
0.135395	0.0692853	0.814132	
0.0395279	-8.66572e-05	0.873882	
0.0209079	0.0660845	0.809865	
0.111146	-0.0163362	0.82287	
0.262733	0.334293	0.5	
0.195502	0.369451	0.5	
0.212132	0.295465	0.5	
0.178778	0.36803	0.594641	
0	0.0833333	0.5	
0.00279483	0.150684	0.5	
-0.0506005	0.12216	0.5	
0.016747	0.116372	0.584632	
-0.386476	-0.317233	0.909527	
-0.323938	-0.380873	0.847739	
-0.317305	-0.233685	0.899359	
-0.235677	-0.292728	0.906663	
-0.085688	-0.137167	0.83131	
-0.173622	-0.15656	0.786805	
-0.123319	-0.239698	0.888651	
-0.144759	-0.143126	0.912403	
-0.212132	-0.295465	0.5	
-0.153206	-0.271058	0.5	
-0.202855	-0.234529	0.5	
-0.174064	-0.226232	0.58962	
-0.121351	0.418264	0.5	
-0.191342	0.46194	0.5	
-0.196736	0.368707	0.5	
-0.228991	0.444481	0.591901	
0.121351	-0.418264	0.5	
0.196736	-0.368707	0.5	
0.228991	-0.444481	0.591901	
0.191342	-0.46194	0.5	
-0.0589256	-0.0589256	0.5	
-0.03759	-0.01517	0.5	
-0.0833333	0	0.5	
-0.0220267	-0.0501213	0.56323	
-0.085688	-0.137167	0.83131	
-0.173622	-0.15656	0.786805	
-0.207451	-0.082142	0.862889	
-0.138777	-0.0448954	0.811721	
-0.237047	0.0201392	1	
-0.211369	-0.0761151	1	
-0.302044	-0.0506462	1	
-0.185651	-0.000811148	0.912479	
-0.263582	-0.319413	1	
-0.203173	-0.373024	1	
-0.317197	-0.386505	0.931175	
-0.235677	-0.292728	0.906663	
-0.323938	-0.380873	0.847739	
-0.258165	-0.428195	0.798245	
-0.328716	-0.376757	0.753532	
-0.220163	-0.339708	0.738499	
0.153206	0.271058	0.5	
0.128799	0.212132	0.5	
0.174542	0.196962	0.5	
0.186731	0.273457	0.579435	
-0.273315	0.334955	1	
-0.386505	0.317197	0.931175	
-0.317233	0.386476	0.909527	
-0.272957	0.274415	0.886959	
0.0589256	0.358926	0.5	
0.0203259	0.350518	0.595017	
0.0833333	0.3	0.5	
0.0967579	0.384129	0.574883	
-0.317206	0.386498	0.700322	
-0.316847	0.386792	0.801384	
-0.376757	0.328716	0.753532	
-0.265307	0.263707	0.765082	
0.317206	-0.386498	0.700322	
0.200775	-0.327859	0.767733	
0.316847	-0.386792	0.801384	
0.294198	-0.285672	0.778149	
0.409478	-0.032947	1	
0.5	0	0.9	
0.495293	-0.0684459	0.931403	
0.388259	-0.0686204	0.893717	
-0.123319	-0.239698	0.888651	
-0.231974	-0.22452	0.832256	
-0.250033	-0.160772	0.906432	
-0.144759	-0.143126	0.912403	
-0.18468	-0.0140346	0.624264	
-0.158586	-0.105655	0.59825	
-0.0882569	-0.0365572	0.592669	
-0.14162	-0.0686737	0.672454	
-0.000470172	0.0044189	0.616387	
0.0882618	0.0365592	0.582606	
0.0739457	-0.0375145	0.646536	
0.0466381	-0.023308	0.56503	
-0.383333	3.67394e-17	0.5	
-0.358926	0.0589256	0.5	
-0.42216	0.0506005	0.5	
-0.38814	0.0365087	0.609899	
-0.211369	-0.0761151	1	
-0.250033	-0.160772	0.906432	
-0.207451	-0.082142	0.862889	
-0.144759	-0.143126	0.912403	
0.0420691	0.427134	1	
0	0.5	0.9	
0.0728232	0.494668	0.926459	
0.060105	0.382127	0.896284	
-0.469721	0.171353	0.838334	
-0.436762	0.243391	0.903062	
-0.478555	0.144862	0.921652	
-0.3732	0.0934614	0.886553	
-0.189073	-0.267802	0.673143	
-0.174064	-0.226232	0.58962	
-0.129826	-0.346552	0.613476	
-0.2318	-0.328499	0.599609	
0.133662	0.297003	0.732987	
0.224036	0.344788	0.789803	
0.216396	0.318788	0.694105	
0.119314	0.388497	0.707486	
0.241074	-0.0589256	0.5	
0.28483	-0.03759	0.5	
0.216667	0	0.5	
0.24433	0.0230591	0.580906	
-0.207451	-0.082142	0.862889	
-0.173622	-0.15656	0.786805	
-0.250033	-0.160772	0.906432	
-0.270142	-0.144141	0.791801	
-0.323938	-0.380873	0.847739	
-0.386792	-0.316847	0.801384	
-0.386476	-0.317233	0.909527	
-0.317305	-0.233685	0.899359	
0.311042	-0.160939	0.648474	
0.351409	-0.224603	0.596537	
0.26032	-0.233647	0.595602	
0.313135	-0.131023	0.572624	
0.0913842	0.220621	0.740584	
0.157976	0.137423	0.708763	
0.0742945	0.125166	0.760039	
0.0615573	0.169949	0.68043	
0.130793	0.331529	0.821778	
0.224036	0.344788	0.789803	
0.133662	0.297003	0.732987	
0.119314	0.388497	0.707486	
-0.428195	0.258165	0.798245	
-0.460548	0.194667	0.76567	
-0.4284	0.257824	0.704976	
-0.34853	0.148938	0.738537	
-0.0948276	-0.0943246	0.74579	
-0.167637	-0.166421	0.687024	
-0.0978573	-0.216654	0.738076	
-0.173622	-0.15656	0.786805	
-0.085688	-0.137167	0.83131	
-0.0948276	-0.0943246	0.74579	
-0.0978573	-0.216654	0.738076	
-0.173622	-0.15656	0.786805	
0.168734	-0.470668	0.798219	
0.174678	-0.468495	0.682891	
0.0854243	-0.492649	0.748597	
0.0883483	-0.356203	0.717872	
-5.51091e-17	-0.216667	0.5	
0.0373069	-0.284147	0.5	
0.0589256	-0.241074	0.5	
-0.00306262	-0.296003	0.5718	
0.332026	0.00704946	0.830563	
0.285541	-0.0139074	0.728509	
0.346453	-0.0782039	0.737808	
0.255127	-0.0374614	0.810965	
0.241126	0.246812	0.788674	
0.216396	0.318788	0.694105	
0.133662	0.297003	0.732987	
0.224036	0.344788	0.789803	
0.221409	-0.234529	0.5	
0.174542	-0.227302	0.5	
0.212132	-0.295465	0.5	
0.163252	-0.248876	0.586706	
-0.243391	-0.436762	0.903062	
-0.317197	-0.386505	0.931175	
-0.203173	-0.373024	1	
-0.235677	-0.292728	0.906663	
-0.00154855	-0.114907	0.739634	
-0.0531387	-0.0402198	0.678728	
-0.0814439	-0.125985	0.656453	
-0.0948276	-0.0943246	0.74579	
-0.168043	-0.470916	0.699874	
-0.194667	-0.460548	0.76567	
-0.114558	-0.356703	0.732324	
-0.220163	-0.339708	0.738499	
-0.207451	-0.082142	0.862889	
-0.0801278	-0.0255813	0.881784	
-0.138777	-0.0448954	0.811721	
-0.185651	-0.000811148	0.912479	
-0.330717	-0.276825	0.5	
-0.386831	-0.3168	0.604097	
-0.315029	-0.388274	0.579193	
-0.303215	-0.24986	0.599065	
-0.268448	0.0761744	0.677974	
-0.177179	0.127748	0.603282	
-0.268272	0.128138	0.588733	
-0.234639	0.167846	0.67167	
0.124175	0.0449909	0.5	
0.108346	0.0977259	0.5	
0.0589256	0.0589256	0.5	
0.0882618	0.0365592	0.582606	
-0.000470172	0.0044189	0.616387	
0.0739457	-0.0375145	0.646536	
0.0324597	-0.0934166	0.587598	
0.0466381	-0.023308	0.56503	
0.186731	0.273457	0.579435	
0.178778	0.36803	0.594641	
0.216396	0.318788	0.694105	
0.252165	0.322355	0.613309	
0.184962	0.0799289	1	
0.156034	0.0430169	0.909981	
0.226887	0.111044	0.884387	
0.259967	0.0147254	0.905038	
0.469721	0.171353	0.661666	
0.460548	0.194667	0.73433	
0.428195	0.258165	0.701755	
0.379144	0.136793	0.743369	
0.262733	0.334293	0.5	
0.235698	0.440961	0.568569	
0.195502	0.369451	0.5	
0.178778	0.36803	0.594641	
-0.437078	-0.242822	0.847009	
-0.47591	-0.153328	0.90763	
-0.440961	-0.235698	0.931431	
-0.340074	-0.13507	0.859051	
0.0203259	0.350518	0.595017	
-0.0634498	0.397211	0.588093	
-0.0411735	0.316432	0.673786	
0.0140521	0.397008	0.681004	
-0.25658	0.429146	0.66876	
-0.23026	0.337515	0.583641	
-0.144987	0.358562	0.621326	
-0.23213	0.339095	0.696865	
0.271058	0.153206	0.5	
0.212132	0.128799	0.5	
0.283872	0.123177	0.588485	
0.193696	0.165595	0.572294	
-0.241074	0.0589256	0.5	
-0.26241	-0.01517	0.5	
-0.216667	3.67394e-17	0.5	
-0.259187	0.0363748	0.591328	
0.305409	0.305409	0.5	
0.334293	0.262733	0.5	
0.386505	0.317197	0.568825	
0.300272	0.248641	0.604822	
0.493389	0.0810399	0.64715	
0.478555	0.144862	0.578348	
0.495293	0.0684459	0.568597	
0.366719	0.098872	0.62645	
-0.493437	-0.0807477	0.845776	
-0.5	0	0.8	
-0.398507	-0.0483311	0.885387	
-0.387166	-0.0714815	0.763327	
0.166579	0.322107	0.5	
0.153206	0.271058	0.5	
0.186731	0.273457	0.579435	
0.106333	0.267511	0.579786	
0.5	0	0.9	
0.388745	0.0776039	0.89546	
0.493012	0.0833019	0.844789	
0.409933	0.0569559	0.803804	
0	0.5	0.8	
-0.0413818	0.388755	0.761338	
0	0.5	0.7	
0.0504561	0.409775	0.7991	
-0.374193	0.331632	0.665357	
-0.415735	0.277785	0.634138	
-0.302751	0.261742	0.582968	
-0.317726	0.256883	0.685229	
0.24433	0.0230591	0.580906	
0.350518	0.0203259	0.577676	
0.299946	-0.0112682	0.640667	
0.321349	-0.0500942	0.566645	
0.0651412	0.200096	1	
0.0903521	0.10545	1	
-0.00425413	0.131001	1	
0.067514	0.114479	0.890799	
0.346453	-0.0782039	0.737808	
0.357913	0.0406281	0.72441	
0.332026	0.00704946	0.830563	
0.410213	-0.0392212	0.798574	
0.107888	0.321356	0.639747	
0.106333	0.267511	0.579786	
0.186731	0.273457	0.579435	
0.12725	0.243321	0.66402	
0.294742	-0.119382	0.854292	
0.189747	-0.143359	0.830553	
0.183683	-0.0446088	0.866852	
0.255127	-0.0374614	0.810965	
0.0734599	0.0912867	0.653108	
-0.0139985	0.0766371	0.645768	
0.016747	0.116372	0.584632	
0.0195373	0.0477919	0.562256	
0.376757	-0.328716	0.753532	
0.292602	-0.250468	0.688523	
0.317206	-0.386498	0.700322	
0.294198	-0.285672	0.778149	
-0.376757	0.328716	0.753532	
-0.316847	0.386792	0.801384	
-0.380873	0.323938	0.847739	
-0.265307	0.263707	0.765082	
0.166579	0.322107	0.5	
0.186731	0.273457	0.579435	
0.212132	0.295465	0.5	
0.178778	0.36803	0.594641	
-0.0125395	0.330273	0.5	
0.0373069	0.315853	0.5	
1.83697e-17	0.383333	0.5	
0.0203259	0.350518	0.595017	
-0.381086	-0.210299	0.5	
-0.330717	-0.276825	0.5	
-0.386831	-0.3168	0.604097	
-0.415735	-0.277785	0.5	
6.08826e-17	0.43599	0.5	
-0.0465403	0.431857	0.5	
1.83697e-17	0.383333	0.5	
-0.0634498	0.397211	0.588093	
-0.277785	-0.415735	0.634138	
-0.217356	-0.450285	0.644698	
-0.238488	-0.439458	0.575692	
-0.2318	-0.328499	0.599609	
0.300884	0.198715	1	
0.231243	0.24169	1	
0.328092	0.270243	1	
0.307884	0.246632	0.880034	
-0.168688	-0.281701	1	
-0.261345	-0.230036	1	
-0.186407	-0.169451	1	
-0.235677	-0.292728	0.906663	
0.125362	-0.0795966	0.584968	
0.0324597	-0.0934166	0.587598	
0.0819669	-0.126701	0.660191	
0.0739457	-0.0375145	0.646536	
-0.153328	0.47591	0.90763	
-0.168734	0.470668	0.798219	
-0.0807477	0.493437	0.845776	
-0.0728697	0.385983	0.897183	
-0.323938	-0.380873	0.847739	
-0.243391	-0.436762	0.903062	
-0.182538	-0.337413	0.833302	
-0.235677	-0.292728	0.906663	
0.0785366	-0.11627	0.823358	
0.189747	-0.143359	0.830553	
0.129352	-0.205365	0.887641	
0.0762998	-0.205219	0.804763	
0.174678	-0.468495	0.682891	
0.0814864	-0.493315	0.652319	
0.0854243	-0.492649	0.748597	
0.0883483	-0.356203	0.717872	
0.226887	0.111044	0.884387	
0.331011	0.147461	0.830703	
0.217923	0.147902	0.790128	
0.22997	0.198341	0.863468	
-0.323059	-0.0556697	0.636381	
-0.387166	-0.0714815	0.763327	
-0.354135	0.0170578	0.71226	
-0.398806	-0.103684	0.671654	
0.114055	0.374109	1	
0.0420691	0.427134	1	
0.0728232	0.494668	0.926459	
0.060105	0.382127	0.896284	
-0.0411735	0.316432	0.673786	
0.0297419	0.247817	0.680143	
-0.0268842	0.224117	0.746658	
-0.0968356	0.250534	0.697531	
0.330273	-0.0125395	0.5	
0.277603	0.0092772	0.5	
0.28483	-0.03759	0.5	
0.321349	-0.0500942	0.566645	
0.271058	-0.271058	0.5	
0.26032	-0.233647	0.595602	
0.212132	-0.295465	0.5	
0.237843	-0.32244	0.584415	
-0.00425413	0.131001	1	
-0.0295403	0.225144	1	
0.0651412	0.200096	1	
0.0333325	0.222426	0.893441	
-0.085688	-0.137167	0.83131	
-0.138777	-0.0448954	0.811721	
-0.207451	-0.082142	0.862889	
-0.144759	-0.143126	0.912403	
0.493389	-0.0810399	0.85285	
0.388259	-0.0686204	0.893717	
0.5	0	0.9	
0.410213	-0.0392212	0.798574	
-0.328716	-0.376757	0.753532	
-0.331632	-0.374193	0.665357	
-0.288147	-0.263663	0.736531	
-0.220163	-0.339708	0.738499	
0.428195	-0.258165	0.798245	
0.335277	-0.219266	0.871103	
0.327694	-0.196387	0.7647	
0.294198	-0.285672	0.778149	
0.436762	0.243391	0.596938	
0.334293	0.262733	0.5	
0.369451	0.195502	0.5	
0.354508	0.178976	0.587224	
-0.0422582	-0.437473	1	
0.0404524	-0.41072	1	
0	-0.5	0.9	
0.0283953	-0.39231	0.890404	
-0.0589256	0.0589256	0.5	
-0.03759	-0.01517	0.5	
-0.0125395	0.0302731	0.5	
-0.0524491	0.0544183	0.580273	
0.0734599	0.0912867	0.653108	
0.016747	0.116372	0.584632	
0.0882618	0.0365592	0.582606	
0.0195373	0.0477919	0.562256	
0.166579	-0.322107	0.5	
0.212132	-0.295465	0.5	
0.163252	-0.248876	0.586706	
0.237843	-0.32244	0.584415	
-0.220621	-0.0913842	0.726535	
-0.173622	-0.15656	0.786805	
-0.207451	-0.082142	0.862889	
-0.270142	-0.144141	0.791801	
-0.228991	0.444481	0.591901	
-0.196736	0.368707	0.5	
-0.144987	0.358562	0.621326	
-0.23026	0.337515	0.583641	
-0.268448	0.0761744	0.677974	
-0.259187	0.0363748	0.591328	
-0.177442	0.0578991	0.68267	
-0.259249	-0.00709893	0.664249	
0.193272	-0.26142	0.670684	
0.26032	-0.233647	0.595602	
0.22816	-0.174755	0.697122	
0.292602	-0.250468	0.688523	
-0.256066	0.106066	0.5	
-0.271058	0.153206	0.5	
-0.3	0.0833333	0.5	
-0.268272	0.128138	0.588733	
-0.0814439	-0.125985	0.656453	
-0.0531387	-0.0402198	0.678728	
-0.0882569	-0.0365572	0.592669	
-0.14162	-0.0686737	0.672454	
-0.123171	0.237068	0.613094	
-0.0201888	0.188065	0.634	
-0.103796	0.164416	0.668888	
-0.0595377	0.207843	0.570115	
-0.23026	0.337515	0.583641	
-0.302751	0.261742	0.582968	
-0.271058	0.271058	0.5	
-0.181622	0.273954	0.57406	
-0.356684	-0.19351	1	
-0.331361	-0.272953	1	
-0.440961	-0.235698	0.931431	
-0.317305	-0.233685	0.899359	
0.0373069	-0.284147	0.5	
0.0589256	-0.358926	0.5	
0.0833333	-0.3	0.5	
-0.00306262	-0.296003	0.5718	
-0.25658	0.429146	0.66876	
-0.144987	0.358562	0.621326	
-0.174678	0.468495	0.682891	
-0.23213	0.339095	0.696865	
0.12216	0.350601	0.5	
0.0833333	0.3	0.5	
0.166579	0.322107	0.5	
0.106333	0.267511	0.579786	
-0.323059	-0.0556697	0.636381	
-0.350407	-0.154201	0.605376	
-0.337623	-0.15776	0.722835	
-0.398806	-0.103684	0.671654	
0.00796883	-0.184656	0.604274	
-0.00306262	-0.296003	0.5718	
0.0761744	-0.268448	0.622464	
-0.00577358	-0.254916	0.661058	
-0.0807477	0.493437	0.845776	
-0.168734	0.470668	0.798219	
-0.0854243	0.492649	0.748597	
-0.0413818	0.388755	0.761338	
-0.386476	-0.317233	0.909527	
-0.317197	-0.386505	0.931175	
-0.323938	-0.380873	0.847739	
-0.235677	-0.292728	0.906663	
0.249439	-0.196279	0.5	
0.221409	-0.234529	0.5	
0.271058	-0.271058	0.5	
0.26032	-0.233647	0.595602	
-0.144987	0.358562	0.621326	
-0.144118	0.318457	0.733262	
-0.0411735	0.316432	0.673786	
-0.0839841	0.399109	0.679035	
-0.0930725	0.0739765	0.647155	
-0.0835252	0.135066	0.582318	
-0.177179	0.127748	0.603282	
-0.103796	0.164416	0.668888	
0.130793	0.331529	0.821778	
0.105325	0.289243	0.907921	
0.060105	0.382127	0.896284	
0.0669598	0.264617	0.818251	
-0.334293	-0.161532	0.5	
-0.399482	-0.123001	0.5	
-0.381086	-0.210299	0.5	
-0.350407	-0.154201	0.605376	
-0.00982413	0.311992	0.838847	
0.105325	0.289243	0.907921	
0.0333325	0.222426	0.893441	
0.0669598	0.264617	0.818251	
0.212132	-0.128799	0.5	
0.241074	-0.0589256	0.5	
0.186339	-0.0508266	0.5	
0.190149	-0.0438256	0.575538	
-0.0155726	0.113982	0.720278	
0.0734599	0.0912867	0.653108	
0.0370897	0.0247951	0.688096	
-0.0139985	0.0766371	0.645768	
0.0913842	0.220621	0.740584	
0.0297419	0.247817	0.680143	
0.0518787	0.327869	0.739172	
0.133662	0.297003	0.732987	
0.0203259	0.350518	0.595017	
-0.0559694	0.29198	0.588124	
-0.0411735	0.316432	0.673786	
-0.0634498	0.397211	0.588093	
0.476114	0.152694	0.90246	
0.470916	0.168043	0.800126	
0.493012	0.0833019	0.844789	
0.388745	0.0776039	0.89546	
-0.386498	-0.317206	0.700322	
-0.386831	-0.3168	0.604097	
-0.429146	-0.25658	0.66876	
-0.303215	-0.24986	0.599065	
-0.231974	-0.22452	0.832256	
-0.250033	-0.160772	0.906432	
-0.173622	-0.15656	0.786805	
-0.270142	-0.144141	0.791801	
-0.330717	-0.276825	0.5	
-0.295465	-0.212132	0.5	
-0.381086	-0.210299	0.5	
-0.303215	-0.24986	0.599065	
0.00796883	-0.184656	0.604274	
-0.00577358	-0.254916	0.661058	
0.0761744	-0.268448	0.622464	
0.0780409	-0.210867	0.691426	
0.0819669	-0.126701	0.660191	
0.0739457	-0.0375145	0.646536	
0.0324597	-0.0934166	0.587598	
0.000308877	-0.122536	0.656981	
-0.331632	-0.374193	0.665357	
-0.386831	-0.3168	0.604097	
-0.386498	-0.317206	0.700322	
-0.303215	-0.24986	0.599065	
0.330273	-0.0125395	0.5	
0.383333	0	0.5	
0.350518	0.0203259	0.577676	
0.321349	-0.0500942	0.566645	
-0.174678	0.468495	0.682891	
-0.0854243	0.492649	0.748597	
-0.168734	0.470668	0.798219	
-0.0839841	0.399109	0.679035	
-0.271058	-0.271058	0.5	
-0.276229	-0.333066	0.5	
-0.212132	-0.295465	0.5	
-0.2318	-0.328499	0.599609	
0.135395	0.0692853	0.814132	
0.183683	-0.0446088	0.866852	
0.156034	0.0430169	0.909981	
0.111146	-0.0163362	0.82287	
-0.161532	-0.334293	0.5	
-0.123001	-0.399482	0.5	
-0.109975	-0.345553	0.5	
-0.129826	-0.346552	0.613476	
-0.189073	-0.267802	0.673143	
-0.174064	-0.226232	0.58962	
-0.245786	-0.164168	0.624683	
-0.167637	-0.166421	0.687024	
-0.212132	0.128799	0.5	
-0.227302	0.174542	0.5	
-0.268272	0.128138	0.588733	
-0.212186	0.200864	0.578994	
0.495101	-0.0698189	0.572379	
0.42216	-0.0506005	0.5	
0.399482	-0.123001	0.5	
0.385774	-0.0819641	0.609834	
0.261819	0.319027	1	
0.328092	0.270243	1	
0.388274	0.315029	0.920807	
0.353553	0.353553	1	
0.436762	0.243391	0.596938	
0.386505	0.317197	0.568825	
0.334293	0.262733	0.5	
0.354508	0.178976	0.587224	
0.183683	-0.0446088	0.866852	
0.0785366	-0.11627	0.823358	
0.0982493	-0.0719344	0.910531	
0.111146	-0.0163362	0.82287	
-0.234529	0.221409	0.5	
-0.212186	0.200864	0.578994	
-0.196279	0.249439	0.5	
-0.181622	0.273954	0.57406	
-0.0555676	0.325574	1	
-0.119993	0.246691	1	
-0.138674	0.323797	1	
-0.0748341	0.245459	0.898908	
0.0395279	-8.66572e-05	0.873882	
0.0982493	-0.0719344	0.910531	
0.0785366	-0.11627	0.823358	
0.111146	-0.0163362	0.82287	
-0.268448	0.0761744	0.677974	
-0.22856	0.0108682	0.750263	
-0.354135	0.0170578	0.71226	
-0.259249	-0.00709893	0.664249	
-0.470668	-0.168734	0.798219	
-0.434698	-0.247057	0.749501	
-0.468495	-0.174678	0.682891	
-0.337623	-0.15776	0.722835	
-0.123171	0.237068	0.613094	
-0.103796	0.164416	0.668888	
-0.0835252	0.135066	0.582318	
-0.0595377	0.207843	0.570115	
0.330273	-0.0125395	0.5	
0.358926	-0.0589256	0.5	
0.383333	0	0.5	
0.321349	-0.0500942	0.566645	
0.314857	-0.257449	1	
0.313791	-0.154465	1	
0.380207	-0.19708	1	
0.335277	-0.219266	0.871103	
0.317206	-0.386498	0.700322	
0.376757	-0.328716	0.753532	
0.374193	-0.331632	0.665357	
0.292602	-0.250468	0.688523	
-0.237047	0.0201392	1	
-0.302044	-0.0506462	1	
-0.337562	0.0547633	1	
-0.261224	0.0578819	0.892654	
-0.0506005	0.12216	0.5	
-0.0589256	0.0589256	0.5	
0	0.0833333	0.5	
-0.0524491	0.0544183	0.580273	
0.228991	-0.444481	0.591901	
0.154681	-0.352429	0.61086	
0.25658	-0.429146	0.66876	
0.237843	-0.32244	0.584415	
0.107888	0.321356	0.639747	
0.12725	0.243321	0.66402	
0.216396	0.318788	0.694105	
0.133662	0.297003	0.732987	
-0.271058	0.153206	0.5	
-0.227302	0.174542	0.5	
-0.295465	0.212132	0.5	
-0.212186	0.200864	0.578994	
-0.0589256	0.358926	0.5	
-0.03759	0.28483	0.5	
-0.0125395	0.330273	0.5	
-0.0559694	0.29198	0.588124	
0.478555	0.144862	0.578348	
0.366719	0.098872	0.62645	
0.469721	0.171353	0.661666	
0.354508	0.178976	0.587224	
0.140223	0.195959	0.866253	
0.226887	0.111044	0.884387	
0.217923	0.147902	0.790128	
0.22997	0.198341	0.863468	
0.153206	0.271058	0.5	
0.0833333	0.3	0.5	
0.106066	0.256066	0.5	
0.106333	0.267511	0.579786	
0.490343	0.0977967	0.741226	
0.379144	0.136793	0.743369	
0.357913	0.0406281	0.72441	
0.409933	0.0569559	0.803804	
-0.0925337	-0.196451	1	
-0.117671	-0.10197	1	
-0.0232782	-0.127584	1	
-0.144759	-0.143126	0.912403	
0.428195	-0.258165	0.798245	
0.4284	-0.257824	0.704976	
0.376757	-0.328716	0.753532	
0.327694	-0.196387	0.7647	
-0.383333	3.67394e-17	0.5	
-0.32522	-0.00468432	0.575656	
-0.38814	0.0365087	0.609899	
-0.402816	-0.0523896	0.590168	
-0.41072	-0.12459	1	
-0.47591	-0.153328	0.90763	
-0.495012	-0.0704482	0.928155	
-0.398507	-0.0483311	0.885387	
0.0819669	-0.126701	0.660191	
0.0324597	-0.0934166	0.587598	
0.00796883	-0.184656	0.604274	
0.000308877	-0.122536	0.656981	
0.376757	-0.328716	0.753532	
0.4284	-0.257824	0.704976	
0.374193	-0.331632	0.665357	
0.292602	-0.250468	0.688523	
-0.085688	-0.137167	0.83131	
-0.207451	-0.082142	0.862889	
-0.173622	-0.15656	0.786805	
-0.144759	-0.143126	0.912403	
0.202324	0.378521	1	
0.228991	0.444481	0.908099	
0.277785	0.415735	1	
0.3168	0.386831	0.895903	
-0.0698189	-0.495101	0.572379	
0	-0.5	0.6	
-1.3431e-16	-0.435719	0.5	
0.0212569	-0.409526	0.586364	
0.5	0	0.9	
0.409933	0.0569559	0.803804	
0.5	0	0.8	
0.410213	-0.0392212	0.798574	
0.166579	-0.322107	0.5	
0.163252	-0.248876	0.586706	
0.154681	-0.352429	0.61086	
0.237843	-0.32244	0.584415	
-0.386476	-0.317233	0.909527	
-0.440961	-0.235698	0.931431	
-0.331361	-0.272953	1	
-0.317305	-0.233685	0.899359	
0.228991	-0.444481	0.591901	
0.146853	-0.477948	0.584008	
0.121351	-0.418264	0.5	
0.191342	-0.46194	0.5	
-0.191342	0.46194	0.5	
-0.121351	0.418264	0.5	
-0.146853	0.477948	0.584008	
-0.228991	0.444481	0.591901	
-0.399482	-0.123001	0.5	
-0.350407	-0.154201	0.605376	
-0.345553	-0.109975	0.5	
-0.402816	-0.0523896	0.590168	
0.0324597	-0.0934166	0.587598	
0.0739457	-0.0375145	0.646536	
0.125362	-0.0795966	0.584968	
0.0466381	-0.023308	0.56503	
-0.0814864	0.493315	0.652319	
0	0.5	0.6	
0	0.5	0.7	
0.0140521	0.397008	0.681004	
-0.0232782	-0.127584	1	
0.0461078	-0.0584269	1	
0.0712814	-0.153152	1	
-0.00334546	-0.102756	0.895053	
0.5	0	0.6	
0.385774	-0.0819641	0.609834	
0.493012	-0.0833019	0.655211	
0.41725	0.0179908	0.649594	
-0.153206	0.153206	0.5	
-0.227302	0.174542	0.5	
-0.212132	0.128799	0.5	
-0.212186	0.200864	0.578994	
-0.0835252	0.135066	0.582318	
-0.0524491	0.0544183	0.580273	
0.016747	0.116372	0.584632	
-0.0139985	0.0766371	0.645768	
0.247057	-0.434698	0.749501	
0.316847	-0.386792	0.801384	
0.317206	-0.386498	0.700322	
0.200775	-0.327859	0.767733	
0.415735	0.277785	1	
0.439458	0.238488	0.924308	
0.373926	0.198925	1	
0.328092	0.270243	1	
0.300272	0.248641	0.604822	
0.283872	0.123177	0.588485	
0.354508	0.178976	0.587224	
0.274515	0.174272	0.655082	
0.154508	-0.0938282	0.5	
0.186339	-0.0508266	0.5	
0.118934	-0.0478046	0.5	
0.190149	-0.0438256	0.575538	
-0.315029	-0.388274	0.579193	
-0.210263	-0.381228	0.5	
-0.276229	-0.333066	0.5	
-0.2318	-0.328499	0.599609	
0.428195	0.258165	0.701755	
0.4284	0.257824	0.795024	
0.376757	0.328716	0.746468	
0.322027	0.213397	0.712919	
0.153206	-0.271058	0.5	
0.166579	-0.322107	0.5	
0.212132	-0.295465	0.5	
0.163252	-0.248876	0.586706	
0.0404524	-0.41072	1	
0.0248177	-0.313374	1	
0.112799	-0.33356	1	
0.0283953	-0.39231	0.890404	
-0.276229	-0.333066	0.5	
-0.353553	-0.353553	0.5	
-0.315029	-0.388274	0.579193	
-0.330717	-0.276825	0.5	
0.20334	0.284476	0.892831	
0.224036	0.344788	0.789803	
0.130793	0.331529	0.821778	
0.158987	0.372754	0.909796	
0.317233	0.386476	0.590473	
0.262733	0.334293	0.5	
0.305409	0.305409	0.5	
0.252165	0.322355	0.613309	
0.235698	-0.440961	0.931431	
0.242822	-0.437078	0.847009	
0.153328	-0.47591	0.90763	
0.214973	-0.334693	0.892974	
-0.241074	-0.0589256	0.5	
-0.256066	-0.106066	0.5	
-0.212132	-0.128799	0.5	
-0.244257	-0.0838675	0.585674	
-0.144987	0.358562	0.621326	
-0.0634498	0.397211	0.588093	
-0.146853	0.477948	0.584008	
-0.0839841	0.399109	0.679035	
0.166579	0.322107	0.5	
0.0833333	0.3	0.5	
0.153206	0.271058	0.5	
0.106333	0.267511	0.579786	
0.409478	-0.032947	1	
0.314271	-0.0501881	1	
0.346509	0.0237889	1	
0.388259	-0.0686204	0.893717	
-0.0810399	-0.493389	0.85285	
0	-0.5	0.8	
-0.0977967	-0.490343	0.758774	
-0.0103711	-0.392711	0.762225	
-0.144118	0.318457	0.733262	
-0.0413818	0.388755	0.761338	
-0.0411735	0.316432	0.673786	
-0.0839841	0.399109	0.679035	
0.3	-0.0833333	0.5	
0.28483	-0.03759	0.5	
0.241074	-0.0589256	0.5	
0.251946	-0.0814223	0.593798	
0.369451	0.195502	0.5	
0.418309	0.121276	0.5	
0.46194	0.191342	0.5	
0.354508	0.178976	0.587224	
0.332026	0.00704946	0.830563	
0.265971	0.0656026	0.794392	
0.357913	0.0406281	0.72441	
0.285541	-0.0139074	0.728509	
0.0854243	0.492649	0.751403	
0	0.5	0.7	
0.0140521	0.397008	0.681004	
0.0504561	0.409775	0.7991	
0.11106	-0.333093	0.843975	
0.200775	-0.327859	0.767733	
0.0883483	-0.356203	0.717872	
0.111962	-0.272347	0.754919	
-0.490343	0.0977967	0.758774	
-0.470916	0.168043	0.699874	
-0.460548	0.194667	0.76567	
-0.34853	0.148938	0.738537	
0.283872	0.123177	0.588485	
0.366719	0.098872	0.62645	
0.354508	0.178976	0.587224	
0.274515	0.174272	0.655082	
0.0814864	-0.493315	0.652319	
0	-0.5	0.6	
0	-0.5	0.7	
0.0212569	-0.409526	0.586364	
0.294742	-0.119382	0.854292	
0.189747	-0.143359	0.830553	
0.233778	-0.237115	0.8353	
0.237523	-0.1744	0.906763	
0.128799	-0.212132	0.5	
0.106066	-0.256066	0.5	
0.153206	-0.271058	0.5	
0.163252	-0.248876	0.586706	
0.353553	-0.353553	0.5	
0.388274	-0.315029	0.579193	
0.332733	-0.27561	0.5	
0.274828	-0.327002	0.5	
-0.207451	-0.082142	0.862889	
-0.250033	-0.160772	0.906432	
-0.340074	-0.13507	0.859051	
-0.270142	-0.144141	0.791801	
-0.337623	-0.15776	0.722835	
-0.387166	-0.0714815	0.763327	
-0.340074	-0.13507	0.859051	
-0.270142	-0.144141	0.791801	
0.0395279	-8.66572e-05	0.873882	
-0.00334546	-0.102756	0.895053	
-0.0801278	-0.0255813	0.881784	
-0.028625	-0.0663675	0.813721	
0.0297419	0.247817	0.680143	
0.0615573	0.169949	0.68043	
0.094036	0.192335	0.606134	
0.12725	0.243321	0.66402	
-0.295465	0.212132	0.5	
-0.234529	0.221409	0.5	
-0.271058	0.271058	0.5	
-0.302751	0.261742	0.582968	
-0.16685	0.0883447	1	
-0.237047	0.0201392	1	
-0.261224	0.0578819	0.892654	
-0.185651	-0.000811148	0.912479	
-0.127176	-0.00609761	0.727567	
-0.118181	0.0989473	0.748679	
-0.165601	0.0438592	0.827911	
-0.07036	0.0449888	0.808499	
0.346453	-0.0782039	0.737808	
0.383529	-0.130684	0.812713	
0.490343	-0.0977967	0.758774	
0.410213	-0.0392212	0.798574	
-0.353553	0.353553	0.5	
-0.332733	0.27561	0.5	
-0.274828	0.327002	0.5	
-0.302751	0.261742	0.582968	
-0.476114	0.152694	0.59754	
-0.495101	0.0698189	0.572379	
-0.38814	0.0365087	0.609899	
-0.395918	0.121742	0.65735	
-0.350407	-0.154201	0.605376	
-0.402816	-0.0523896	0.590168	
-0.477948	-0.146853	0.584008	
-0.398806	-0.103684	0.671654	
-0.268448	0.0761744	0.677974	
-0.234639	0.167846	0.67167	
-0.222068	0.116218	0.765206	
-0.177442	0.0578991	0.68267	
-0.0801278	-0.0255813	0.881784	
-0.0884799	0.0810843	0.89303	
-0.165601	0.0438592	0.827911	
-0.185651	-0.000811148	0.912479	
0.3	-0.0833333	0.5	
0.28483	-0.03759	0.5	
0.251946	-0.0814223	0.593798	
0.321349	-0.0500942	0.566645	
0.184962	0.0799289	1	
0.226887	0.111044	0.884387	
0.276476	0.0535537	1	
0.259967	0.0147254	0.905038	
-0.386792	-0.316847	0.801384	
-0.386498	-0.317206	0.700322	
-0.434698	-0.247057	0.749501	
-0.288147	-0.263663	0.736531	
0.428195	-0.258165	0.798245	
0.327694	-0.196387	0.7647	
0.335277	-0.219266	0.871103	
0.383529	-0.130684	0.812713	
0.460548	-0.194667	0.76567	
0.490343	-0.0977967	0.758774	
0.470916	-0.168043	0.699874	
0.383529	-0.130684	0.812713	
0.174678	0.468495	0.817109	
0.0504561	0.409775	0.7991	
0.0854243	0.492649	0.751403	
0.119314	0.388497	0.707486	
-0.439458	0.238488	0.575692	
-0.46194	0.191342	0.5	
-0.399482	0.123001	0.5	
-0.476114	0.152694	0.59754	
0.439458	-0.238488	0.575692	
0.399482	-0.123001	0.5	
0.476114	-0.152694	0.59754	
0.46194	-0.191342	0.5	
0.334293	0.262733	0.5	
0.300272	0.248641	0.604822	
0.295465	0.212132	0.5	
0.354508	0.178976	0.587224	
0.183683	-0.0446088	0.866852	
0.0982493	-0.0719344	0.910531	
0.156034	0.0430169	0.909981	
0.111146	-0.0163362	0.82287	
0.194604	-0.371188	1	
0.268393	-0.334301	1	
0.235698	-0.440961	0.931431	
0.214973	-0.334693	0.892974	
-0.0930725	0.0739765	0.647155	
-0.130814	0.0354375	0.582428	
-0.0835252	0.135066	0.582318	
-0.0524491	0.0544183	0.580273	
-0.207451	-0.082142	0.862889	
-0.138777	-0.0448954	0.811721	
-0.165601	0.0438592	0.827911	
-0.185651	-0.000811148	0.912479	
-0.233647	0.26032	0.639516	
-0.332133	0.18678	0.621599	
-0.234639	0.167846	0.67167	
-0.317726	0.256883	0.685229	
-0.334293	0.161532	0.5	
-0.345553	0.109975	0.5	
-0.271058	0.153206	0.5	
-0.268272	0.128138	0.588733	
-0.0801278	-0.0255813	0.881784	
-0.07036	0.0449888	0.808499	
-0.028625	-0.0663675	0.813721	
-0.138777	-0.0448954	0.811721	
0.271058	0.271058	0.5	
0.295465	0.212132	0.5	
0.334293	0.262733	0.5	
0.300272	0.248641	0.604822	
-0.492649	-0.0854243	0.748597	
-0.5	0	0.7	
-0.387166	-0.0714815	0.763327	
-0.398806	-0.103684	0.671654	
-0.0422582	-0.437473	1	
-0.0328721	-0.370689	1	
0.0404524	-0.41072	1	
0.0283953	-0.39231	0.890404	
-0.468495	-0.174678	0.682891	
-0.434698	-0.247057	0.749501	
-0.429146	-0.25658	0.66876	
-0.337623	-0.15776	0.722835	
-0.0734441	0.0616893	1	
-0.16685	0.0883447	1	
-0.0983601	0.156434	1	
-0.0884799	0.0810843	0.89303	
-1.3431e-16	-0.435719	0.5	
0.0728232	-0.494668	0.573541	
0.0465403	-0.431857	0.5	
0.0212569	-0.409526	0.586364	
0.153328	0.47591	0.59237	
0.178778	0.36803	0.594641	
0.168734	0.470668	0.701781	
0.119314	0.388497	0.707486	
0.220621	-0.0913842	0.746309	
0.285541	-0.0139074	0.728509	
0.204037	0.0208987	0.737245	
0.255127	-0.0374614	0.810965	
-0.0814439	-0.125985	0.656453	
-0.167637	-0.166421	0.687024	
-0.0948276	-0.0943246	0.74579	
-0.14162	-0.0686737	0.672454	
0	0.5	0.7	
0.0140521	0.397008	0.681004	
-0.0413818	0.388755	0.761338	
-0.0839841	0.399109	0.679035	
0.3	0.0833333	0.5	
0.241074	0.0589256	0.5	
0.315853	0.0373069	0.5	
0.24433	0.0230591	0.580906	
0.470916	-0.168043	0.699874	
0.493012	-0.0833019	0.655211	
0.476114	-0.152694	0.59754	
0.385774	-0.0819641	0.609834	
0.0519196	-0.186143	0.5	
0.0589256	-0.241074	0.5	
0.128799	-0.212132	0.5	
0.100353	-0.184453	0.588762	
0.428195	-0.258165	0.798245	
0.327694	-0.196387	0.7647	
0.376757	-0.328716	0.753532	
0.294198	-0.285672	0.778149	
0.0728232	0.494668	0.926459	
0.146853	0.477948	0.915992	
0.114055	0.374109	1	
0.060105	0.382127	0.896284	
0.345553	-0.109975	0.5	
0.385774	-0.0819641	0.609834	
0.358926	-0.0589256	0.5	
0.321349	-0.0500942	0.566645	
-0.493012	0.0833019	0.655211	
-0.38814	0.0365087	0.609899	
-0.495101	0.0698189	0.572379	
-0.395918	0.121742	0.65735	
-0.0835252	0.135066	0.582318	
-0.103796	0.164416	0.668888	
-0.0201888	0.188065	0.634	
-0.0595377	0.207843	0.570115	
-0.41072	-0.12459	1	
-0.401548	-0.0423374	1	
-0.344127	-0.112227	1	
-0.398507	-0.0483311	0.885387	
-0.00154855	-0.114907	0.739634	
-0.0948276	-0.0943246	0.74579	
-0.085688	-0.137167	0.83131	
-0.028625	-0.0663675	0.813721	
-0.434728	9.15966e-17	0.5	
-0.5	0	0.6	
-0.494668	-0.0728232	0.573541	
-0.402816	-0.0523896	0.590168	
0.184661	0.0531453	0.5	
0.1612	0.100866	0.5	
0.124175	0.0449909	0.5	
0.165404	0.026433	0.57138	
-0.196279	0.249439	0.5	
-0.212186	0.200864	0.578994	
-0.181859	0.199592	0.5	
-0.181622	0.273954	0.57406	
-0.000470172	0.0044189	0.616387	
0.0466381	-0.023308	0.56503	
0.0324597	-0.0934166	0.587598	
-0.0220267	-0.0501213	0.56323	
0.191342	0.46194	0.5	
0.121276	0.418309	0.5	
0.195502	0.369451	0.5	
0.178778	0.36803	0.594641	
-0.228991	0.444481	0.591901	
-0.144987	0.358562	0.621326	
-0.25658	0.429146	0.66876	
-0.23026	0.337515	0.583641	
-0.28746	0.0302731	0.5	
-0.309277	-0.0223972	0.5	
-0.26241	-0.01517	0.5	
-0.32522	-0.00468432	0.575656	
-0.5	0	0.7	
-0.5	0	0.6	
-0.493012	0.0833019	0.655211	
-0.38814	0.0365087	0.609899	
0.345553	-0.109975	0.5	
0.385774	-0.0819641	0.609834	
0.321349	-0.0500942	0.566645	
0.313135	-0.131023	0.572624	
-0.256066	-0.106066	0.5	
-0.241074	-0.0589256	0.5	
-0.3	-0.0833333	0.5	
-0.244257	-0.0838675	0.585674	
0.0967728	-0.154724	0.5	
0.128799	-0.212132	0.5	
0.153206	-0.153206	0.5	
0.100353	-0.184453	0.588762	
-0.358926	-0.0589256	0.5	
-0.32522	-0.00468432	0.575656	
-0.383333	3.67394e-17	0.5	
-0.402816	-0.0523896	0.590168	
-0.340074	-0.13507	0.859051	
-0.398507	-0.0483311	0.885387	
-0.330463	0.00145141	0.818132	
-0.387166	-0.0714815	0.763327	
0.436762	0.243391	0.596938	
0.300272	0.248641	0.604822	
0.386505	0.317197	0.568825	
0.354508	0.178976	0.587224	
0.345553	-0.109975	0.5	
0.399482	-0.123001	0.5	
0.385774	-0.0819641	0.609834	
0.313135	-0.131023	0.572624	
-0.444481	-0.228991	0.591901	
-0.468495	-0.174678	0.682891	
-0.429146	-0.25658	0.66876	
-0.350407	-0.154201	0.605376	
0.0814864	0.493315	0.847681	
0	0.5	0.9	
0	0.5	0.8	
0.0504561	0.409775	0.7991	
-0.048473	-0.0328568	1	
0.0461078	-0.0584269	1	
-0.0232782	-0.127584	1	
-0.00334546	-0.102756	0.895053	
-0.404541	0.126945	1	
-0.495293	0.0684459	0.931403	
-0.478555	0.144862	0.921652	
-0.3732	0.0934614	0.886553	
0.271058	0.153206	0.5	
0.221409	0.189735	0.5	
0.212132	0.128799	0.5	
0.193696	0.165595	0.572294	
0.5	0	0.8	
0.409933	0.0569559	0.803804	
0.5	0	0.7	
0.410213	-0.0392212	0.798574	
-0.233647	0.26032	0.639516	
-0.23026	0.337515	0.583641	
-0.144987	0.358562	0.621326	
-0.181622	0.273954	0.57406	
-0.168043	-0.470916	0.699874	
-0.257824	-0.4284	0.704976	
-0.194667	-0.460548	0.76567	
-0.220163	-0.339708	0.738499	
0.0854243	0.492649	0.751403	
0.0504561	0.409775	0.7991	
0.0140521	0.397008	0.681004	
0.119314	0.388497	0.707486	
0.0704482	-0.495012	0.928155	
0.153328	-0.47591	0.90763	
0.0807477	-0.493437	0.845776	
0.0283953	-0.39231	0.890404	
-0.3	0.0833333	0.5	
-0.271058	0.153206	0.5	
-0.345553	0.109975	0.5	
-0.268272	0.128138	0.588733	
0.3	-0.0833333	0.5	
0.321349	-0.0500942	0.566645	
0.251946	-0.0814223	0.593798	
0.313135	-0.131023	0.572624	
0.276476	0.0535537	1	
0.184962	0.0799289	1	
0.247868	0.146306	1	
0.226887	0.111044	0.884387	
-0.295465	0.212132	0.5	
-0.332733	0.27561	0.5	
-0.381208	0.210225	0.5	
-0.302751	0.261742	0.582968	
0.262733	0.334293	0.5	
0.317233	0.386476	0.590473	
0.235698	0.440961	0.568569	
0.252165	0.322355	0.613309	
0.3168	0.386831	0.895903	
0.25658	0.429146	0.83124	
0.317206	0.386498	0.799678	
0.224036	0.344788	0.789803	
-0.144987	0.358562	0.621326	
-0.23026	0.337515	0.583641	
-0.166579	0.322107	0.5	
-0.181622	0.273954	0.57406	
-0.165601	0.0438592	0.827911	
-0.22856	0.0108682	0.750263	
-0.127176	-0.00609761	0.727567	
-0.138777	-0.0448954	0.811721	
0.261819	0.319027	1	
0.388274	0.315029	0.920807	
0.3168	0.386831	0.895903	
0.353553	0.353553	1	
0.374193	-0.331632	0.665357	
0.415735	-0.277785	0.634138	
0.388274	-0.315029	0.579193	
0.351409	-0.224603	0.596537	
0.201164	-0.273578	1	
0.194604	-0.371188	1	
0.112799	-0.33356	1	
0.214973	-0.334693	0.892974	
-0.0372406	0.417791	1	
0	0.5	0.9	
0	0.5	1	
0.0420691	0.427134	1	
0.107888	0.321356	0.639747	
0.0140521	0.397008	0.681004	
0.0518787	0.327869	0.739172	
0.119314	0.388497	0.707486	
-0.374193	0.331632	0.665357	
-0.415735	0.277785	0.634138	
-0.388274	0.315029	0.579193	
-0.302751	0.261742	0.582968	
0	-0.5	1	
-0.0422582	-0.437473	1	
0.0404524	-0.41072	1	
0	-0.5	0.9	
0.414183	0.131147	1	
0.495101	0.0698189	0.927621	
0.414991	0.0495125	1	
0.388745	0.0776039	0.89546	
0.0466381	-0.023308	0.56503	
-0.0220267	-0.0501213	0.56323	
-0.000470172	0.0044189	0.616387	
0.0195373	0.0477919	0.562256	
0.5	0	0.9	
0.409478	-0.032947	1	
0.5	0	1	
0.414991	0.0495125	1	
-0.323938	-0.380873	0.847739	
-0.317197	-0.386505	0.931175	
-0.243391	-0.436762	0.903062	
-0.235677	-0.292728	0.906663	
-0.16685	0.0883447	1	
-0.237047	0.0201392	1	
-0.257956	0.116321	1	
-0.261224	0.0578819	0.892654	
-0.166579	0.322107	0.5	
-0.144987	0.358562	0.621326	
-0.196736	0.368707	0.5	
-0.23026	0.337515	0.583641	
0.332733	-0.27561	0.5	
0.415735	-0.277785	0.5	
0.381208	-0.210225	0.5	
0.351409	-0.224603	0.596537	
-0.144987	0.358562	0.621326	
-0.23026	0.337515	0.583641	
-0.233647	0.26032	0.639516	
-0.23213	0.339095	0.696865	
0.345553	-0.109975	0.5	
0.334293	-0.161532	0.5	
0.399482	-0.123001	0.5	
0.313135	-0.131023	0.572624	
-0.00982413	0.311992	0.838847	
0.0518787	0.327869	0.739172	
-0.0413818	0.388755	0.761338	
0.0504561	0.409775	0.7991	
-0.274828	0.327002	0.5	
-0.23026	0.337515	0.583641	
-0.3168	0.386831	0.604097	
-0.302751	0.261742	0.582968	
-0.241074	-0.0589256	0.5	
-0.212132	-0.128799	0.5	
-0.18203	-0.0488646	0.5	
-0.244257	-0.0838675	0.585674	
-0.5	0	1	
-0.426463	0.0441363	1	
-0.401548	-0.0423374	1	
-0.5	0	0.9	
0.164797	-0.177585	1	
0.245477	-0.191651	1	
0.201164	-0.273578	1	
0.237523	-0.1744	0.906763	
0.183683	-0.0446088	0.866852	
0.156034	0.0430169	0.909981	
0.210156	-0.0147965	1	
0.259967	0.0147254	0.905038	
-0.158586	-0.105655	0.59825	
-0.167637	-0.166421	0.687024	
-0.0814439	-0.125985	0.656453	
-0.14162	-0.0686737	0.672454	
0.114055	0.374109	1	
0.060105	0.382127	0.896284	
0.146853	0.477948	0.915992	
0.158987	0.372754	0.909796	
-0.4284	0.257824	0.704976	
-0.460548	0.194667	0.76567	
-0.470916	0.168043	0.699874	
-0.34853	0.148938	0.738537	
0.317233	-0.386476	0.909527	
0.235698	-0.440961	0.931431	
0.268393	-0.334301	1	
0.214973	-0.334693	0.892974	
-0.470668	-0.168734	0.798219	
-0.47591	-0.153328	0.90763	
-0.437078	-0.242822	0.847009	
-0.340074	-0.13507	0.859051	
0.495101	-0.0698189	0.572379	
0.399482	-0.123001	0.5	
0.476114	-0.152694	0.59754	
0.385774	-0.0819641	0.609834	
-0.085688	-0.137167	0.83131	
-0.0801278	-0.0255813	0.881784	
-0.00334546	-0.102756	0.895053	
-0.028625	-0.0663675	0.813721	
-0.302044	-0.0506462	1	
-0.344127	-0.112227	1	
-0.401548	-0.0423374	1	
-0.398507	-0.0483311	0.885387	
-0.388274	0.315029	0.579193	
-0.381208	0.210225	0.5	
-0.415735	0.277785	0.5	
-0.332733	0.27561	0.5	
0.201164	-0.273578	1	
0.0943468	-0.245334	1	
0.164797	-0.177585	1	
0.129352	-0.205365	0.887641	
0.5	0	0.6	
0.495101	-0.0698189	0.572379	
0.493012	-0.0833019	0.655211	
0.385774	-0.0819641	0.609834	
0.0589256	0.241074	0.5	
0.0092772	0.277603	0.5	
1.83697e-17	0.216667	0.5	
0.0271287	0.256687	0.590103	
-0.468495	-0.174678	0.682891	
-0.350407	-0.154201	0.605376	
-0.477948	-0.146853	0.584008	
-0.398806	-0.103684	0.671654	
0.196736	-0.368707	0.5	
0.154681	-0.352429	0.61086	
0.228991	-0.444481	0.591901	
0.237843	-0.32244	0.584415	
-0.123171	0.237068	0.613094	
-0.212186	0.200864	0.578994	
-0.233647	0.26032	0.639516	
-0.181622	0.273954	0.57406	
-0.233647	0.26032	0.639516	
-0.212186	0.200864	0.578994	
-0.302751	0.261742	0.582968	
-0.181622	0.273954	0.57406	
0.315853	0.0373069	0.5	
0.358926	0.0589256	0.5	
0.3	0.0833333	0.5	
0.350518	0.0203259	0.577676	
-0.191342	-0.46194	0.5	
-0.123001	-0.399482	0.5	
-0.238488	-0.439458	0.575692	
-0.152694	-0.476114	0.59754	
0.428195	-0.258165	0.798245	
0.335277	-0.219266	0.871103	
0.469721	-0.171353	0.838334	
0.383529	-0.130684	0.812713	
0.242822	0.437078	0.652991	
0.247057	0.434698	0.750499	
0.168734	0.470668	0.701781	
0.119314	0.388497	0.707486	
0.26032	-0.233647	0.595602	
0.193272	-0.26142	0.670684	
0.163252	-0.248876	0.586706	
0.237843	-0.32244	0.584415	
0.268393	-0.334301	1	
0.353553	-0.353553	1	
0.317233	-0.386476	0.909527	
0.386505	-0.317197	0.931175	
-0.315029	-0.388274	0.579193	
-0.386831	-0.3168	0.604097	
-0.331632	-0.374193	0.665357	
-0.303215	-0.24986	0.599065	
-0.12216	0.0506005	0.5	
-0.185212	0.0538339	0.5	
-0.152663	-6.75805e-05	0.5	
-0.130814	0.0354375	0.582428	
0.016747	0.116372	0.584632	
-0.0524491	0.0544183	0.580273	
0	0.0833333	0.5	
0.0195373	0.0477919	0.562256	
0.194604	-0.371188	1	
0.235698	-0.440961	0.931431	
0.191342	-0.46194	1	
0.125573	-0.41396	1	
-0.165601	0.0438592	0.827911	
-0.127176	-0.00609761	0.727567	
-0.07036	0.0449888	0.808499	
-0.138777	-0.0448954	0.811721	
0.311042	-0.160939	0.648474	
0.292602	-0.250468	0.688523	
0.26032	-0.233647	0.595602	
0.351409	-0.224603	0.596537	
-0.386831	-0.3168	0.604097	
-0.444481	-0.228991	0.591901	
-0.429146	-0.25658	0.66876	
-0.303215	-0.24986	0.599065	
0.130793	0.331529	0.821778	
0.0518787	0.327869	0.739172	
0.0504561	0.409775	0.7991	
0.119314	0.388497	0.707486	
-0.0833333	0	0.5	
-0.03759	-0.01517	0.5	
-0.0589256	0.0589256	0.5	
-0.0524491	0.0544183	0.580273	
-0.434728	9.15966e-17	0.5	
-0.494668	-0.0728232	0.573541	
-0.42216	-0.0506005	0.5	
-0.402816	-0.0523896	0.590168	
-0.085688	-0.137167	0.83131	
-0.0948276	-0.0943246	0.74579	
-0.173622	-0.15656	0.786805	
-0.138777	-0.0448954	0.811721	
-0.0411735	0.316432	0.673786	
0.0140521	0.397008	0.681004	
-0.0634498	0.397211	0.588093	
-0.0839841	0.399109	0.679035	
-0.212132	-0.295465	0.5	
-0.210263	-0.381228	0.5	
-0.161532	-0.334293	0.5	
-0.2318	-0.328499	0.599609	
0.415735	-0.277785	1	
0.386505	-0.317197	0.931175	
0.380207	-0.19708	1	
0.436762	-0.243391	0.903062	
-0.231974	-0.22452	0.832256	
-0.182538	-0.337413	0.833302	
-0.123319	-0.239698	0.888651	
-0.235677	-0.292728	0.906663	
-0.144987	0.358562	0.621326	
-0.0411735	0.316432	0.673786	
-0.0634498	0.397211	0.588093	
-0.0839841	0.399109	0.679035	
0.383333	0	0.5	
0.431857	0.0465403	0.5	
0.358926	0.0589256	0.5	
0.350518	0.0203259	0.577676	
0.3	0.0833333	0.5	
0.271058	0.153206	0.5	
0.256066	0.106066	0.5	
0.283872	0.123177	0.588485	
0.216396	0.318788	0.694105	
0.12725	0.243321	0.66402	
0.180554	0.223326	0.725764	
0.133662	0.297003	0.732987	
0.0589256	0.0589256	0.5	
0.0535407	0.120642	0.5	
0	0.0833333	0.5	
0.0195373	0.0477919	0.562256	
0.174678	0.468495	0.817109	
0.168734	0.470668	0.701781	
0.247057	0.434698	0.750499	
0.119314	0.388497	0.707486	
0.478555	0.144862	0.578348	
0.46194	0.191342	0.5	
0.418309	0.121276	0.5	
0.354508	0.178976	0.587224	
-0.243391	-0.436762	0.903062	
-0.258165	-0.428195	0.798245	
-0.323938	-0.380873	0.847739	
-0.182538	-0.337413	0.833302	
-0.440961	-0.235698	0.931431	
-0.415735	-0.277785	1	
-0.386476	-0.317233	0.909527	
-0.331361	-0.272953	1	
0.195502	0.369451	0.5	
0.166579	0.322107	0.5	
0.212132	0.295465	0.5	
0.178778	0.36803	0.594641	
0.174542	-0.227302	0.5	
0.153206	-0.271058	0.5	
0.212132	-0.295465	0.5	
0.163252	-0.248876	0.586706	
0.242822	0.437078	0.652991	
0.168734	0.470668	0.701781	
0.178778	0.36803	0.594641	
0.119314	0.388497	0.707486	
0.233778	-0.237115	0.8353	
0.335277	-0.219266	0.871103	
0.294742	-0.119382	0.854292	
0.237523	-0.1744	0.906763	
-0.256066	0.106066	0.5	
-0.212132	0.128799	0.5	
-0.271058	0.153206	0.5	
-0.268272	0.128138	0.588733	
0.414183	0.131147	1	
0.476114	0.152694	0.90246	
0.495101	0.0698189	0.927621	
0.388745	0.0776039	0.89546	
0.470916	0.168043	0.800126	
0.4284	0.257824	0.795024	
0.460548	0.194667	0.73433	
0.379144	0.136793	0.743369	
0.0967728	-0.154724	0.5	
0.0519196	-0.186143	0.5	
0.128799	-0.212132	0.5	
0.100353	-0.184453	0.588762	
0.0589256	0.241074	0.5	
0.106066	0.256066	0.5	
0.0833333	0.3	0.5	
0.106333	0.267511	0.579786	
-0.0499791	-0.122616	0.5	
0	-0.0833333	0.5	
-0.0589256	-0.0589256	0.5	
-0.0220267	-0.0501213	0.56323	
-0.154067	0.200523	0.744733	
-0.0268842	0.224117	0.746658	
-0.0968356	0.250534	0.697531	
-0.0985684	0.251065	0.805476	
-0.3168	0.386831	0.604097	
-0.353553	0.353553	0.5	
-0.274828	0.327002	0.5	
-0.302751	0.261742	0.582968	
0.242822	-0.437078	0.847009	
0.247057	-0.434698	0.749501	
0.168734	-0.470668	0.798219	
0.200775	-0.327859	0.767733	
-0.153206	0.271058	0.5	
-0.196279	0.249439	0.5	
-0.128799	0.212132	0.5	
-0.181622	0.273954	0.57406	
0.152693	-0.00394448	0.5	
0.118934	-0.0478046	0.5	
0.186339	-0.0508266	0.5	
0.190149	-0.0438256	0.575538	
0.247057	0.434698	0.750499	
0.216396	0.318788	0.694105	
0.316847	0.386792	0.698616	
0.224036	0.344788	0.789803	
0.107888	0.321356	0.639747	
0.133662	0.297003	0.732987	
0.216396	0.318788	0.694105	
0.119314	0.388497	0.707486	
0.0589256	0.0589256	0.5	
0.0833333	0	0.5	
0.124175	0.0449909	0.5	
0.0882618	0.0365592	0.582606	
-0.0930725	0.0739765	0.647155	
-0.0524491	0.0544183	0.580273	
-0.0835252	0.135066	0.582318	
-0.0139985	0.0766371	0.645768	
-0.0411735	0.316432	0.673786	
-0.0413818	0.388755	0.761338	
0.0518787	0.327869	0.739172	
0.0140521	0.397008	0.681004	
0.415735	0.277785	1	
0.388274	0.315029	0.920807	
0.439458	0.238488	0.924308	
0.328092	0.270243	1	
-0.238488	-0.439458	0.575692	
-0.210263	-0.381228	0.5	
-0.315029	-0.388274	0.579193	
-0.2318	-0.328499	0.599609	
-0.0328721	-0.370689	1	
0.0248177	-0.313374	1	
0.0404524	-0.41072	1	
0.0283953	-0.39231	0.890404	
0.0854243	0.492649	0.751403	
0.0140521	0.397008	0.681004	
0.0807477	0.493437	0.654224	
0.119314	0.388497	0.707486	
-0.194667	-0.460548	0.76567	
-0.258165	-0.428195	0.798245	
-0.182538	-0.337413	0.833302	
-0.220163	-0.339708	0.738499	
0.428195	-0.258165	0.798245	
0.380873	-0.323938	0.847739	
0.335277	-0.219266	0.871103	
0.294198	-0.285672	0.778149	
-0.153206	0.153206	0.5	
-0.106984	0.108603	0.5	
-0.0949082	0.168548	0.5	
-0.0835252	0.135066	0.582318	
0.161285	-0.0150511	0.638026	
0.165404	0.026433	0.57138	
0.24433	0.0230591	0.580906	
0.190149	-0.0438256	0.575538	
-0.0506005	0.12216	0.5	
-0.0419658	0.179631	0.5	
-0.0949082	0.168548	0.5	
-0.0835252	0.135066	0.582318	
0.436762	0.243391	0.596938	
0.415735	0.277785	0.5	
0.369451	0.195502	0.5	
0.334293	0.262733	0.5	
0.12216	0.350601	0.5	
0.178778	0.36803	0.594641	
0.121276	0.418309	0.5	
0.0967579	0.384129	0.574883	
0.469721	0.171353	0.661666	
0.478555	0.144862	0.578348	
0.493389	0.0810399	0.64715	
0.366719	0.098872	0.62645	
-0.295465	-0.212132	0.5	
-0.271058	-0.271058	0.5	
-0.249722	-0.227302	0.5	
-0.303215	-0.24986	0.599065	
0.439458	0.238488	0.924308	
0.415735	0.277785	0.865862	
0.450285	0.217356	0.855302	
0.376293	0.169886	0.910318	
-0.353553	-0.353553	1	
-0.386476	-0.317233	0.909527	
-0.331361	-0.272953	1	
-0.317197	-0.386505	0.931175	
0.154681	-0.352429	0.61086	
0.163252	-0.248876	0.586706	
0.193272	-0.26142	0.670684	
0.237843	-0.32244	0.584415	
-0.415735	-0.277785	1	
-0.440961	-0.235698	0.931431	
-0.356684	-0.19351	1	
-0.331361	-0.272953	1	
-0.0814864	0.493315	0.652319	
-0.146853	0.477948	0.584008	
-0.0634498	0.397211	0.588093	
-0.0839841	0.399109	0.679035	
-0.401548	-0.0423374	1	
-0.495012	-0.0704482	0.928155	
-0.5	0	0.9	
-0.398507	-0.0483311	0.885387	
-0.0814864	0.493315	0.652319	
0.0140521	0.397008	0.681004	
0	0.5	0.7	
-0.0839841	0.399109	0.679035	
0.476114	0.152694	0.90246	
0.388745	0.0776039	0.89546	
0.414183	0.131147	1	
0.376293	0.169886	0.910318	
-0.271058	0.153206	0.5	
-0.268272	0.128138	0.588733	
-0.227302	0.174542	0.5	
-0.212186	0.200864	0.578994	
-0.401548	-0.0423374	1	
-0.41072	-0.12459	1	
-0.495012	-0.0704482	0.928155	
-0.398507	-0.0483311	0.885387	
-0.415735	-0.277785	0.5	
-0.386831	-0.3168	0.604097	
-0.381086	-0.210299	0.5	
-0.444481	-0.228991	0.591901	
-0.331361	-0.272953	1	
-0.263582	-0.319413	1	
-0.353553	-0.353553	1	
-0.317197	-0.386505	0.931175	
0.322107	0.166579	0.5	
0.283872	0.123177	0.588485	
0.350601	0.12216	0.5	
0.354508	0.178976	0.587224	
-0.118932	0.39861	1	
-0.0704482	0.495012	0.928155	
-0.0372406	0.417791	1	
-0.0728697	0.385983	0.897183	
-0.353553	0.353553	1	
-0.273315	0.334955	1	
-0.386505	0.317197	0.931175	
-0.317233	0.386476	0.909527	
0	-0.0833333	0.5	
0.0466381	-0.023308	0.56503	
0.0092772	-0.0223972	0.5	
-0.0220267	-0.0501213	0.56323	
0.332026	0.00704946	0.830563	
0.259967	0.0147254	0.905038	
0.265971	0.0656026	0.794392	
0.255127	-0.0374614	0.810965	
-0.492649	-0.0854243	0.748597	
-0.493315	-0.0814864	0.652319	
-0.5	0	0.7	
-0.398806	-0.103684	0.671654	
-0.165601	0.0438592	0.827911	
-0.0884799	0.0810843	0.89303	
-0.0801278	-0.0255813	0.881784	
-0.07036	0.0449888	0.808499	
0.0535407	0.120642	0.5	
0.016747	0.116372	0.584632	
0	0.0833333	0.5	
0.0195373	0.0477919	0.562256	
-0.276229	-0.333066	0.5	
-0.315029	-0.388274	0.579193	
-0.277785	-0.415735	0.5	
-0.210263	-0.381228	0.5	
-0.174678	0.468495	0.682891	
-0.144987	0.358562	0.621326	
-0.146853	0.477948	0.584008	
-0.0839841	0.399109	0.679035	
-0.331361	-0.272953	1	
-0.317305	-0.233685	0.899359	
-0.261345	-0.230036	1	
-0.235677	-0.292728	0.906663	
-0.0555676	0.325574	1	
-0.138674	0.323797	1	
-0.118932	0.39861	1	
-0.0728697	0.385983	0.897183	
0.415735	-0.277785	1	
0.386505	-0.317197	0.931175	
0.314857	-0.257449	1	
0.380207	-0.19708	1	
0.0092772	-0.0223972	0.5	
0.0373069	0.0158534	0.5	
-0.0125395	0.0302731	0.5	
0.0195373	0.0477919	0.562256	
0.345553	-0.109975	0.5	
0.399482	-0.123001	0.5	
0.358926	-0.0589256	0.5	
0.385774	-0.0819641	0.609834	
0.428195	-0.258165	0.798245	
0.460548	-0.194667	0.76567	
0.4284	-0.257824	0.704976	
0.327694	-0.196387	0.7647	
-0.085688	-0.137167	0.83131	
-0.0801278	-0.0255813	0.881784	
-0.028625	-0.0663675	0.813721	
-0.138777	-0.0448954	0.811721	
0.0140521	0.397008	0.681004	
0.0504561	0.409775	0.7991	
0.0518787	0.327869	0.739172	
0.119314	0.388497	0.707486	
-1.3431e-16	-0.435719	0.5	
0	-0.5	0.6	
0.0728232	-0.494668	0.573541	
0.0212569	-0.409526	0.586364	
0.42216	-0.0506005	0.5	
0.358926	-0.0589256	0.5	
0.399482	-0.123001	0.5	
0.385774	-0.0819641	0.609834	
-0.0125395	0.0302731	0.5	
0	0.0833333	0.5	
-0.0524491	0.0544183	0.580273	
0.0195373	0.0477919	0.562256	
0.12216	-0.350601	0.5	
0.196736	-0.368707	0.5	
0.166579	-0.322107	0.5	
0.154681	-0.352429	0.61086	
-0.353553	0.353553	1	
-0.273315	0.334955	1	
-0.318983	0.261743	1	
-0.386505	0.317197	0.931175	
-0.317305	-0.233685	0.899359	
-0.250033	-0.160772	0.906432	
-0.261345	-0.230036	1	
-0.235677	-0.292728	0.906663	
0.241126	0.246812	0.788674	
0.307884	0.246632	0.880034	
0.20334	0.284476	0.892831	
0.22997	0.198341	0.863468	
0.460548	-0.194667	0.76567	
0.327694	-0.196387	0.7647	
0.428195	-0.258165	0.798245	
0.383529	-0.130684	0.812713	
0.228991	-0.444481	0.591901	
0.174678	-0.468495	0.682891	
0.25658	-0.429146	0.66876	
0.154681	-0.352429	0.61086	
-0.477948	-0.146853	0.584008	
-0.468495	-0.174678	0.682891	
-0.444481	-0.228991	0.591901	
-0.350407	-0.154201	0.605376	
0.195502	0.369451	0.5	
0.121276	0.418309	0.5	
0.12216	0.350601	0.5	
0.178778	0.36803	0.594641	
0.0807477	-0.493437	0.845776	
0	-0.5	0.8	
0	-0.5	0.9	
0.0283953	-0.39231	0.890404	
0.414183	0.131147	1	
0.388745	0.0776039	0.89546	
0.337634	0.115561	1	
0.376293	0.169886	0.910318	
-0.194667	-0.460548	0.76567	
-0.0977967	-0.490343	0.758774	
-0.168043	-0.470916	0.699874	
-0.114558	-0.356703	0.732324	
-0.492649	-0.0854243	0.748597	
-0.5	0	0.7	
-0.5	0	0.8	
-0.387166	-0.0714815	0.763327	
0.0324597	-0.0934166	0.587598	
0.0466381	-0.023308	0.56503	
0	-0.0833333	0.5	
-0.0220267	-0.0501213	0.56323	
0.204037	0.0208987	0.737245	
0.285541	-0.0139074	0.728509	
0.265971	0.0656026	0.794392	
0.255127	-0.0374614	0.810965	
-0.0589256	0.0589256	0.5	
-0.0125395	0.0302731	0.5	
0	0.0833333	0.5	
-0.0524491	0.0544183	0.580273	
0.108346	0.0977259	0.5	
0.153206	0.153206	0.5	
0.0999373	0.153076	0.5	
0.120479	0.115187	0.58227	
0.394936	-0.119803	1	
0.409478	-0.032947	1	
0.495293	-0.0684459	0.931403	
0.388259	-0.0686204	0.893717	
-0.106066	0.256066	0.5	
-0.128799	0.212132	0.5	
-0.0589256	0.241074	0.5	
-0.0595377	0.207843	0.570115	
-0.386498	-0.317206	0.700322	
-0.328716	-0.376757	0.753532	
-0.331632	-0.374193	0.665357	
-0.288147	-0.263663	0.736531	
-0.42216	-0.0506005	0.5	
-0.383333	3.67394e-17	0.5	
-0.434728	9.15966e-17	0.5	
-0.402816	-0.0523896	0.590168	
0.376757	0.328716	0.746468	
0.380873	0.323938	0.652261	
0.428195	0.258165	0.701755	
0.322027	0.213397	0.712919	
-0.165601	0.0438592	0.827911	
-0.138777	-0.0448954	0.811721	
-0.0801278	-0.0255813	0.881784	
-0.185651	-0.000811148	0.912479	
0.191342	0.46194	0.5	
0.153328	0.47591	0.59237	
0.121276	0.418309	0.5	
0.178778	0.36803	0.594641	
0.0401436	0.291204	1	
0.0651412	0.200096	1	
0.0333325	0.222426	0.893441	
0.105325	0.289243	0.907921	
0.216396	0.318788	0.694105	
0.178778	0.36803	0.594641	
0.242822	0.437078	0.652991	
0.252165	0.322355	0.613309	
0.353553	-0.353553	1	
0.268393	-0.334301	1	
0.314857	-0.257449	1	
0.386505	-0.317197	0.931175	
-0.247057	0.434698	0.749501	
-0.25658	0.429146	0.66876	
-0.174678	0.468495	0.682891	
-0.23213	0.339095	0.696865	
-5.51091e-17	-0.383333	0.5	
-0.0506005	-0.42216	0.5	
-1.3431e-16	-0.435719	0.5	
0.0212569	-0.409526	0.586364	
0.0704482	-0.495012	0.928155	
0	-0.5	0.9	
0.0404524	-0.41072	1	
0.0283953	-0.39231	0.890404	
0.164797	-0.177585	1	
0.0943468	-0.245334	1	
0.0712814	-0.153152	1	
0.129352	-0.205365	0.887641	
0.233778	-0.237115	0.8353	
0.189747	-0.143359	0.830553	
0.129352	-0.205365	0.887641	
0.237523	-0.1744	0.906763	
0.104605	-0.104521	0.5	
0.154508	-0.0938282	0.5	
0.118934	-0.0478046	0.5	
0.125362	-0.0795966	0.584968	
0.0589256	-0.0589256	0.5	
0.118934	-0.0478046	0.5	
0.0833333	0	0.5	
0.0466381	-0.023308	0.56503	
-0.353553	0.353553	0.5	
-0.388274	0.315029	0.579193	
-0.332733	0.27561	0.5	
-0.302751	0.261742	0.582968	
0.0913842	0.220621	0.740584	
0.133662	0.297003	0.732987	
0.0518787	0.327869	0.739172	
0.0669598	0.264617	0.818251	
0.184962	0.0799289	1	
0.210156	-0.0147965	1	
0.156034	0.0430169	0.909981	
0.259967	0.0147254	0.905038	
0	0.0833333	0.5	
0.0535407	0.120642	0.5	
0.00279483	0.150684	0.5	
0.016747	0.116372	0.584632	
0.350601	0.12216	0.5	
0.418309	0.121276	0.5	
0.369451	0.195502	0.5	
0.354508	0.178976	0.587224	
0.414991	0.0495125	1	
0.5	0	1	
0.5	0	0.9	
0.495101	0.0698189	0.927621	
-0.243391	-0.436762	0.903062	
-0.191342	-0.46194	1	
-0.144862	-0.478555	0.921652	
-0.203173	-0.373024	1	
-0.399482	-0.123001	0.5	
-0.345553	-0.109975	0.5	
-0.358926	-0.0589256	0.5	
-0.402816	-0.0523896	0.590168	
0.1612	0.100866	0.5	
0.153206	0.153206	0.5	
0.108346	0.0977259	0.5	
0.120479	0.115187	0.58227	
-0.214341	0.273759	1	
-0.26105	0.203399	1	
-0.318983	0.261743	1	
-0.272957	0.274415	0.886959	
0.386505	0.317197	0.568825	
0.415735	0.277785	0.5	
0.436762	0.243391	0.596938	
0.334293	0.262733	0.5	
-0.440961	-0.235698	0.931431	
-0.356684	-0.19351	1	
-0.41072	-0.12459	1	
-0.46194	-0.191342	1	
-0.0854243	0.492649	0.748597	
0	0.5	0.7	
-0.0413818	0.388755	0.761338	
-0.0839841	0.399109	0.679035	
-0.399482	-0.123001	0.5	
-0.42216	-0.0506005	0.5	
-0.494668	-0.0728232	0.573541	
-0.402816	-0.0523896	0.590168	
0.242822	-0.437078	0.847009	
0.316847	-0.386792	0.801384	
0.247057	-0.434698	0.749501	
0.200775	-0.327859	0.767733	
0.0913842	0.220621	0.740584	
0.0615573	0.169949	0.68043	
0.0297419	0.247817	0.680143	
0.12725	0.243321	0.66402	
-0.233647	0.26032	0.639516	
-0.317726	0.256883	0.685229	
-0.265307	0.263707	0.765082	
-0.23213	0.339095	0.696865	
-0.439458	0.238488	0.575692	
-0.381208	0.210225	0.5	
-0.415735	0.277785	0.5	
-0.388274	0.315029	0.579193	
0.369451	0.195502	0.5	
0.334293	0.262733	0.5	
0.295465	0.212132	0.5	
0.354508	0.178976	0.587224	
-0.316847	0.386792	0.801384	
-0.317206	0.386498	0.700322	
-0.247057	0.434698	0.749501	
-0.23213	0.339095	0.696865	
0.327694	-0.196387	0.7647	
0.335277	-0.219266	0.871103	
0.233778	-0.237115	0.8353	
0.294198	-0.285672	0.778149	
0.1612	0.100866	0.5	
0.212132	0.128799	0.5	
0.153206	0.153206	0.5	
0.193696	0.165595	0.572294	
0.265971	0.0656026	0.794392	
0.285541	-0.0139074	0.728509	
0.332026	0.00704946	0.830563	
0.255127	-0.0374614	0.810965	
0.5	0	0.9	
0.495101	0.0698189	0.927621	
0.493012	0.0833019	0.844789	
0.388745	0.0776039	0.89546	
-0.317233	0.386476	0.909527	
-0.380873	0.323938	0.847739	
-0.316847	0.386792	0.801384	
-0.272957	0.274415	0.886959	
0.332733	-0.27561	0.5	
0.388274	-0.315029	0.579193	
0.415735	-0.277785	0.5	
0.351409	-0.224603	0.596537	
0.0854243	0.492649	0.751403	
0	0.5	0.8	
0	0.5	0.7	
0.0504561	0.409775	0.7991	
0	0.5	0.7	
0	0.5	0.6	
0.0807477	0.493437	0.654224	
0.0140521	0.397008	0.681004	
-0.165601	0.0438592	0.827911	
-0.07036	0.0449888	0.808499	
-0.0801278	-0.0255813	0.881784	
-0.138777	-0.0448954	0.811721	
-0.03759	-0.31517	0.5	
0.0092772	-0.322397	0.5	
-0.0125395	-0.269727	0.5	
-0.00306262	-0.296003	0.5718	
0.189613	0.313662	1	
0.158987	0.372754	0.909796	
0.20334	0.284476	0.892831	
0.105325	0.289243	0.907921	
-0.386476	-0.317233	0.909527	
-0.386792	-0.316847	0.801384	
-0.437078	-0.242822	0.847009	
-0.317305	-0.233685	0.899359	
0.495293	-0.0684459	0.931403	
0.478555	-0.144862	0.921652	
0.394936	-0.119803	1	
0.388259	-0.0686204	0.893717	
0.0506005	-0.12216	0.5	
0.0589256	-0.0589256	0.5	
0	-0.0833333	0.5	
0.0324597	-0.0934166	0.587598	
0.235698	0.440961	0.568569	
0.191342	0.46194	0.5	
0.195502	0.369451	0.5	
0.178778	0.36803	0.594641	
0.0401436	0.291204	1	
0.060105	0.382127	0.896284	
0.114055	0.374109	1	
0.105325	0.289243	0.907921	
-0.330717	-0.276825	0.5	
-0.353553	-0.353553	0.5	
-0.315029	-0.388274	0.579193	
-0.386831	-0.3168	0.604097	
-0.228991	0.444481	0.591901	
-0.174678	0.468495	0.682891	
-0.25658	0.429146	0.66876	
-0.144987	0.358562	0.621326	
0.3168	-0.386831	0.604097	
0.388274	-0.315029	0.579193	
0.353553	-0.353553	0.5	
0.274828	-0.327002	0.5	
0.0728232	0.494668	0.926459	
0.0420691	0.427134	1	
0.114055	0.374109	1	
0.0975452	0.490393	1	
-0.268448	0.0761744	0.677974	
-0.222068	0.116218	0.765206	
-0.22856	0.0108682	0.750263	
-0.177442	0.0578991	0.68267	
-0.0555676	0.325574	1	
-0.0372406	0.417791	1	
0.0153159	0.363557	1	
-0.0728697	0.385983	0.897183	
0.130793	0.331529	0.821778	
0.133662	0.297003	0.732987	
0.0518787	0.327869	0.739172	
0.119314	0.388497	0.707486	
-0.177179	0.127748	0.603282	
-0.212186	0.200864	0.578994	
-0.268272	0.128138	0.588733	
-0.234639	0.167846	0.67167	
-0.345553	-0.109975	0.5	
-0.399482	-0.123001	0.5	
-0.334293	-0.161532	0.5	
-0.350407	-0.154201	0.605376	
0.295465	-0.212132	0.5	
0.332733	-0.27561	0.5	
0.381208	-0.210225	0.5	
0.351409	-0.224603	0.596537	
-0.186407	-0.169451	1	
-0.250033	-0.160772	0.906432	
-0.211369	-0.0761151	1	
-0.144759	-0.143126	0.912403	
-0.273315	0.334955	1	
-0.214341	0.273759	1	
-0.318983	0.261743	1	
-0.272957	0.274415	0.886959	
0.153328	-0.47591	0.90763	
0.191342	-0.46194	1	
0.235698	-0.440961	0.931431	
0.125573	-0.41396	1	
-0.119993	0.246691	1	
-0.0295403	0.225144	1	
-0.0983601	0.156434	1	
-0.0748341	0.245459	0.898908	
-0.477948	-0.146853	0.584008	
-0.399482	-0.123001	0.5	
-0.494668	-0.0728232	0.573541	
-0.402816	-0.0523896	0.590168	
0.0333325	0.222426	0.893441	
0.105325	0.289243	0.907921	
0.140223	0.195959	0.866253	
0.0669598	0.264617	0.818251	
-0.328716	-0.376757	0.753532	
-0.257824	-0.4284	0.704976	
-0.331632	-0.374193	0.665357	
-0.220163	-0.339708	0.738499	
0.121276	0.418309	0.5	
0.178778	0.36803	0.594641	
0.153328	0.47591	0.59237	
0.0967579	0.384129	0.574883	
0	-0.0833333	0.5	
0.0324597	-0.0934166	0.587598	
0.0589256	-0.0589256	0.5	
0.0466381	-0.023308	0.56503	
-0.153328	0.47591	0.90763	
-0.0704482	0.495012	0.928155	
-0.118932	0.39861	1	
-0.0728697	0.385983	0.897183	
-0.085688	-0.137167	0.83131	
-0.028625	-0.0663675	0.813721	
-0.0948276	-0.0943246	0.74579	
-0.138777	-0.0448954	0.811721	
-0.0807477	0.493437	0.845776	
0	0.5	0.9	
-0.0704482	0.495012	0.928155	
-0.0728697	0.385983	0.897183	
0.0728232	0.494668	0.926459	
0	0.5	0.9	
0.0814864	0.493315	0.847681	
0.060105	0.382127	0.896284	
-0.233647	0.26032	0.639516	
-0.302751	0.261742	0.582968	
-0.332133	0.18678	0.621599	
-0.317726	0.256883	0.685229	
0.0807477	0.493437	0.654224	
0.0854243	0.492649	0.751403	
0	0.5	0.7	
0.0140521	0.397008	0.681004	
0.3168	0.386831	0.895903	
0.374193	0.331632	0.834643	
0.388274	0.315029	0.920807	
0.307884	0.246632	0.880034	
-0.153206	-0.271058	0.5	
-0.174825	-0.196279	0.5	
-0.202855	-0.234529	0.5	
-0.174064	-0.226232	0.58962	
0.0589256	0.0589256	0.5	
0.0373069	0.0158534	0.5	
0.0833333	0	0.5	
0.0882618	0.0365592	0.582606	
0	-0.0833333	0.5	
0.0589256	-0.0589256	0.5	
0.0092772	-0.0223972	0.5	
0.0466381	-0.023308	0.56503	
0.5	0	0.9	
0.493012	0.0833019	0.844789	
0.5	0	0.8	
0.409933	0.0569559	0.803804	
0.386505	0.317197	0.568825	
0.436762	0.243391	0.596938	
0.380873	0.323938	0.652261	
0.300272	0.248641	0.604822	
-0.495012	-0.0704482	0.928155	
-0.5	0	1	
-0.401548	-0.0423374	1	
-0.5	0	0.9	
0.5	0	1	
0.495293	-0.0684459	0.931403	
0.409478	-0.032947	1	
0.5	0	0.9	
-0.331361	-0.272953	1	
-0.261345	-0.230036	1	
-0.263582	-0.319413	1	
-0.235677	-0.292728	0.906663	
0.0704482	0.495012	0.571845	
0.0465403	0.431857	0.5	
0.121276	0.418309	0.5	
0.0967579	0.384129	0.574883	
-0.212132	-0.295465	0.5	
-0.276229	-0.333066	0.5	
-0.210263	-0.381228	0.5	
-0.2318	-0.328499	0.599609	
-0.5	0	0.9	
-0.493437	-0.0807477	0.845776	
-0.5	0	0.8	
-0.398507	-0.0483311	0.885387	
-0.196279	0.249439	0.5	
-0.234529	0.221409	0.5	
-0.181859	0.199592	0.5	
-0.212186	0.200864	0.578994	
0.322107	0.166579	0.5	
0.3	0.0833333	0.5	
0.350601	0.12216	0.5	
0.283872	0.123177	0.588485	
0.295465	-0.212132	0.5	
0.249439	-0.196279	0.5	
0.271058	-0.271058	0.5	
0.26032	-0.233647	0.595602	
0.277785	-0.415735	1	
0.317233	-0.386476	0.909527	
0.235698	-0.440961	0.931431	
0.268393	-0.334301	1	
0.174678	0.468495	0.817109	
0.25658	0.429146	0.83124	
0.228991	0.444481	0.908099	
0.158987	0.372754	0.909796	
0.228991	-0.444481	0.591901	
0.277785	-0.415735	0.5	
0.196736	-0.368707	0.5	
0.237843	-0.32244	0.584415	
-0.337562	0.0547633	1	
-0.426463	0.0441363	1	
-0.404541	0.126945	1	
-0.3732	0.0934614	0.886553	
-0.271058	-0.271058	0.5	
-0.295465	-0.212132	0.5	
-0.330717	-0.276825	0.5	
-0.303215	-0.24986	0.599065	
0.242822	-0.437078	0.847009	
0.317233	-0.386476	0.909527	
0.316847	-0.386792	0.801384	
0.214973	-0.334693	0.892974	
-0.47591	-0.153328	0.90763	
-0.440961	-0.235698	0.931431	
-0.41072	-0.12459	1	
-0.46194	-0.191342	1	
0.146853	-0.477948	0.584008	
0.174678	-0.468495	0.682891	
0.228991	-0.444481	0.591901	
0.154681	-0.352429	0.61086	
-0.0854243	0.492649	0.748597	
0	0.5	0.8	
-0.0807477	0.493437	0.845776	
-0.0413818	0.388755	0.761338	
0.428195	-0.258165	0.798245	
0.436762	-0.243391	0.903062	
0.469721	-0.171353	0.838334	
0.335277	-0.219266	0.871103	
0.0728232	-0.494668	0.573541	
0	-0.5	0.5	
-1.3431e-16	-0.435719	0.5	
0.0465403	-0.431857	0.5	
0.24433	0.0230591	0.580906	
0.165404	0.026433	0.57138	
0.216667	0	0.5	
0.190149	-0.0438256	0.575538	
0.46194	0.191342	0.5	
0.436762	0.243391	0.596938	
0.369451	0.195502	0.5	
0.354508	0.178976	0.587224	
0.153328	0.47591	0.59237	
0.168734	0.470668	0.701781	
0.0807477	0.493437	0.654224	
0.119314	0.388497	0.707486	
-0.337562	0.0547633	1	
-0.404541	0.126945	1	
-0.328307	0.16356	1	
-0.3732	0.0934614	0.886553	
0.381208	-0.210225	0.5	
0.415735	-0.277785	0.5	
0.439458	-0.238488	0.575692	
0.351409	-0.224603	0.596537	
6.08826e-17	0.43599	0.5	
0	0.5	0.5	
-0.0465403	0.431857	0.5	
-0.0728232	0.494668	0.573541	
0.277785	-0.415735	1	
0.235698	-0.440961	0.931431	
0.194604	-0.371188	1	
0.268393	-0.334301	1	
-0.277785	-0.415735	0.634138	
-0.315029	-0.388274	0.579193	
-0.331632	-0.374193	0.665357	
-0.2318	-0.328499	0.599609	
0	-0.5	0.9	
0.0404524	-0.41072	1	
0	-0.5	1	
0.0704482	-0.495012	0.928155	
0.495293	-0.0684459	0.931403	
0.5	0	0.9	
0.493389	-0.0810399	0.85285	
0.388259	-0.0686204	0.893717	
0.294742	-0.119382	0.854292	
0.335277	-0.219266	0.871103	
0.327694	-0.196387	0.7647	
0.383529	-0.130684	0.812713	
0.316847	0.386792	0.698616	
0.216396	0.318788	0.694105	
0.242822	0.437078	0.652991	
0.252165	0.322355	0.613309	
-0.3168	0.386831	0.604097	
-0.388274	0.315029	0.579193	
-0.353553	0.353553	0.5	
-0.302751	0.261742	0.582968	
0.0518787	0.327869	0.739172	
0.0140521	0.397008	0.681004	
-0.0413818	0.388755	0.761338	
0.0504561	0.409775	0.7991	
0.295465	-0.212132	0.5	
0.334293	-0.161532	0.5	
0.271058	-0.153206	0.5	
0.313135	-0.131023	0.572624	
0.414991	0.0495125	1	
0.337634	0.115561	1	
0.414183	0.131147	1	
0.388745	0.0776039	0.89546	
-0.318983	0.261743	1	
-0.415735	0.277785	1	
-0.386505	0.317197	0.931175	
-0.389036	0.207425	1	
0.493389	-0.0810399	0.85285	
0.383529	-0.130684	0.812713	
0.388259	-0.0686204	0.893717	
0.410213	-0.0392212	0.798574	
-0.389036	0.207425	1	
-0.46194	0.191342	1	
-0.478555	0.144862	0.921652	
-0.404541	0.126945	1	
0.46194	-0.191342	1	
0.380207	-0.19708	1	
0.478555	-0.144862	0.921652	
0.436762	-0.243391	0.903062	
-0.238488	-0.439458	0.575692	
-0.277785	-0.415735	0.5	
-0.315029	-0.388274	0.579193	
-0.210263	-0.381228	0.5	
-0.271058	0.271058	0.5	
-0.23026	0.337515	0.583641	
-0.274828	0.327002	0.5	
-0.302751	0.261742	0.582968	
0.153328	0.47591	0.59237	
0.242822	0.437078	0.652991	
0.168734	0.470668	0.701781	
0.178778	0.36803	0.594641	
-0.476114	0.152694	0.59754	
-0.493012	0.0833019	0.655211	
-0.495101	0.0698189	0.572379	
-0.395918	0.121742	0.65735	
-0.097127	-0.15347	0.5	
-0.0488646	-0.18203	0.5	
-0.0499791	-0.122616	0.5	
-0.0814439	-0.125985	0.575026	
0.0833333	0	0.5	
0.0882618	0.0365592	0.582606	
0.0373069	0.0158534	0.5	
0.0466381	-0.023308	0.56503	
-0.25658	0.429146	0.66876	
-0.3168	0.386831	0.604097	
-0.23026	0.337515	0.583641	
-0.23213	0.339095	0.696865	
-0.194667	-0.460548	0.76567	
-0.258165	-0.428195	0.798245	
-0.171353	-0.469721	0.838334	
-0.182538	-0.337413	0.833302	
0	0.5	0.8	
-0.0854243	0.492649	0.748597	
0	0.5	0.7	
-0.0413818	0.388755	0.761338	
0.493389	-0.0810399	0.85285	
0.5	0	0.9	
0.5	0	0.8	
0.410213	-0.0392212	0.798574	
0.337634	0.115561	1	
0.414991	0.0495125	1	
0.346509	0.0237889	1	
0.388745	0.0776039	0.89546	
0.0153159	0.363557	1	
0.114055	0.374109	1	
0.0401436	0.291204	1	
0.060105	0.382127	0.896284	
0.357913	0.0406281	0.72441	
0.409933	0.0569559	0.803804	
0.332026	0.00704946	0.830563	
0.410213	-0.0392212	0.798574	
0.216667	0	0.5	
0.165404	0.026433	0.57138	
0.152693	-0.00394448	0.5	
0.190149	-0.0438256	0.575538	
0.0373069	0.315853	0.5	
0.0589256	0.358926	0.5	
1.83697e-17	0.383333	0.5	
0.0203259	0.350518	0.595017	
-0.171353	-0.469721	0.838334	
-0.258165	-0.428195	0.798245	
-0.243391	-0.436762	0.903062	
-0.182538	-0.337413	0.833302	
-0.121351	0.418264	0.5	
-0.12216	0.350601	0.5	
-0.0589256	0.358926	0.5	
-0.0634498	0.397211	0.588093	
0.322107	0.166579	0.5	
0.271058	0.153206	0.5	
0.3	0.0833333	0.5	
0.283872	0.123177	0.588485	
-0.0814439	-0.125985	0.656453	
-0.0948276	-0.0943246	0.74579	
-0.0531387	-0.0402198	0.678728	
-0.14162	-0.0686737	0.672454	
-0.493437	-0.0807477	0.845776	
-0.492649	-0.0854243	0.748597	
-0.5	0	0.8	
-0.387166	-0.0714815	0.763327	
-0.231974	-0.22452	0.832256	
-0.250033	-0.160772	0.906432	
-0.317305	-0.233685	0.899359	
-0.235677	-0.292728	0.906663	
-0.386498	-0.317206	0.700322	
-0.386792	-0.316847	0.801384	
-0.328716	-0.376757	0.753532	
-0.288147	-0.263663	0.736531	
-0.154067	0.200523	0.744733	
-0.0968356	0.250534	0.697531	
-0.144118	0.318457	0.733262	
-0.0985684	0.251065	0.805476	
-0.493315	-0.0814864	0.652319	
-0.477948	-0.146853	0.584008	
-0.402816	-0.0523896	0.590168	
-0.398806	-0.103684	0.671654	
-0.383333	3.67394e-17	0.5	
-0.358926	-0.0589256	0.5	
-0.337307	0.0158534	0.5	
-0.32522	-0.00468432	0.575656	
-0.186407	-0.169451	1	
-0.0925337	-0.196451	1	
-0.123319	-0.239698	0.888651	
-0.144759	-0.143126	0.912403	
0.0814864	0.493315	0.847681	
0.146853	0.477948	0.915992	
0.0728232	0.494668	0.926459	
0.060105	0.382127	0.896284	
-0.309277	-0.0223972	0.5	
-0.337307	0.0158534	0.5	
-0.358926	-0.0589256	0.5	
-0.32522	-0.00468432	0.575656	
-0.404541	0.126945	1	
-0.490393	0.0975452	1	
-0.495293	0.0684459	0.931403	
-0.426463	0.0441363	1	
0.0882618	0.0365592	0.582606	
0.0466381	-0.023308	0.56503	
-0.000470172	0.0044189	0.616387	
0.0195373	0.0477919	0.562256	
-0.3168	0.386831	0.604097	
-0.374193	0.331632	0.665357	
-0.388274	0.315029	0.579193	
-0.302751	0.261742	0.582968	
-0.121351	0.418264	0.5	
-0.0465403	0.431857	0.5	
-0.0728232	0.494668	0.573541	
-0.0634498	0.397211	0.588093	
0.0092772	-0.0223972	0.5	
0.0466381	-0.023308	0.56503	
0.0373069	0.0158534	0.5	
0.0195373	0.0477919	0.562256	
-0.114467	-0.386332	1	
-0.144862	-0.478555	0.921652	
-0.191342	-0.46194	1	
-0.203173	-0.373024	1	
-0.317197	-0.386505	0.931175	
-0.277785	-0.415735	1	
-0.243391	-0.436762	0.903062	
-0.203173	-0.373024	1	
0.184661	0.0531453	0.5	
0.216667	0	0.5	
0.24433	0.0230591	0.580906	
0.165404	0.026433	0.57138	
-0.0949082	0.168548	0.5	
-0.0835252	0.135066	0.582318	
-0.0419658	0.179631	0.5	
-0.0595377	0.207843	0.570115	
0.196736	-0.368707	0.5	
0.277785	-0.415735	0.5	
0.274828	-0.327002	0.5	
0.237843	-0.32244	0.584415	
0.247057	0.434698	0.750499	
0.242822	0.437078	0.652991	
0.316847	0.386792	0.698616	
0.216396	0.318788	0.694105	
0.166579	-0.322107	0.5	
0.154681	-0.352429	0.61086	
0.196736	-0.368707	0.5	
0.237843	-0.32244	0.584415	
-0.478555	0.144862	0.921652	
-0.495293	0.0684459	0.931403	
-0.493389	0.0810399	0.85285	
-0.3732	0.0934614	0.886553	
-0.277785	-0.415735	1	
-0.317197	-0.386505	0.931175	
-0.263582	-0.319413	1	
-0.203173	-0.373024	1	
-0.233647	0.26032	0.639516	
-0.302751	0.261742	0.582968	
-0.23026	0.337515	0.583641	
-0.181622	0.273954	0.57406	
-0.274828	0.327002	0.5	
-0.271058	0.271058	0.5	
-0.212132	0.295465	0.5	
-0.23026	0.337515	0.583641	
0.12216	0.350601	0.5	
0.0589256	0.358926	0.5	
0.0833333	0.3	0.5	
0.0967579	0.384129	0.574883	
0.46194	0.191342	0.5	
0.478555	0.144862	0.578348	
0.436762	0.243391	0.596938	
0.354508	0.178976	0.587224	
-0.470916	0.168043	0.699874	
-0.490343	0.0977967	0.758774	
-0.493012	0.0833019	0.655211	
-0.395918	0.121742	0.65735	
0.184962	0.0799289	1	
0.115537	0.0107471	1	
0.0903521	0.10545	1	
0.156034	0.0430169	0.909981	
-0.5	0	0.6	
-0.5	0	0.5	
-0.434728	9.15966e-17	0.5	
-0.494668	-0.0728232	0.573541	
-0.0925337	-0.196451	1	
-0.168688	-0.281701	1	
-0.186407	-0.169451	1	
-0.123319	-0.239698	0.888651	
-0.436762	0.243391	0.903062	
-0.386505	0.317197	0.931175	
-0.415735	0.277785	1	
-0.389036	0.207425	1	
-0.0728232	0.494668	0.573541	
6.08826e-17	0.43599	0.5	
0	0.5	0.5	
0	0.5	0.6	
-0.0422582	-0.437473	1	
-0.114467	-0.386332	1	
-0.0684459	-0.495293	0.931403	
-0.0975452	-0.490393	1	
0	-0.5	0.6	
0	-0.5	0.5	
-1.3431e-16	-0.435719	0.5	
0.0728232	-0.494668	0.573541	
0.490343	0.0977967	0.741226	
0.493389	0.0810399	0.64715	
0.5	0	0.7	
0.41725	0.0179908	0.649594	
0.191342	0.46194	0.5	
0.235698	0.440961	0.568569	
0.153328	0.47591	0.59237	
0.178778	0.36803	0.594641	
0.414183	0.131147	1	
0.373926	0.198925	1	
0.46194	0.191342	1	
0.376293	0.169886	0.910318	
0.5	0	0.8	
0.490343	0.0977967	0.741226	
0.5	0	0.7	
0.409933	0.0569559	0.803804	
0.256066	-0.106066	0.5	
0.271058	-0.153206	0.5	
0.3	-0.0833333	0.5	
0.313135	-0.131023	0.572624	
-0.0555676	0.325574	1	
-0.0295403	0.225144	1	
-0.119993	0.246691	1	
-0.0748341	0.245459	0.898908	
-0.174678	0.468495	0.682891	
-0.146853	0.477948	0.584008	
-0.0814864	0.493315	0.652319	
-0.0839841	0.399109	0.679035	
-0.127176	-0.00609761	0.727567	
-0.0531387	-0.0402198	0.678728	
-0.0948276	-0.0943246	0.74579	
-0.14162	-0.0686737	0.672454	
0.0975452	0.490393	1	
0.114055	0.374109	1	
0.0728232	0.494668	0.926459	
0.146853	0.477948	0.915992	
-0.478555	0.144862	0.921652	
-0.436762	0.243391	0.903062	
-0.46194	0.191342	1	
-0.389036	0.207425	1	
-0.495101	0.0698189	0.572379	
-0.5	0	0.5	
-0.434728	9.15966e-17	0.5	
-0.5	0	0.6	
-0.174678	0.468495	0.682891	
-0.228991	0.444481	0.591901	
-0.146853	0.477948	0.584008	
-0.144987	0.358562	0.621326	
-0.271058	0.153206	0.5	
-0.212132	0.128799	0.5	
-0.227302	0.174542	0.5	
-0.268272	0.128138	0.588733	
0.373926	0.198925	1	
0.337634	0.115561	1	
0.300884	0.198715	1	
0.376293	0.169886	0.910318	
-0.0704482	0.495012	0.928155	
0	0.5	0.9	
0	0.5	1	
-0.0372406	0.417791	1	
0.0651412	0.200096	1	
-0.0295403	0.225144	1	
0.0401436	0.291204	1	
0.0333325	0.222426	0.893441	
0.380873	-0.323938	0.847739	
0.428195	-0.258165	0.798245	
0.376757	-0.328716	0.753532	
0.294198	-0.285672	0.778149	
-0.0698189	-0.495101	0.572379	
0	-0.5	0.5	
-1.3431e-16	-0.435719	0.5	
0	-0.5	0.6	
0.0589256	0.0589256	0.5	
0.0373069	0.0158534	0.5	
0.0882618	0.0365592	0.582606	
0.0195373	0.0477919	0.562256	
-0.03759	0.28483	0.5	
-0.0589256	0.358926	0.5	
-0.0833333	0.3	0.5	
-0.0559694	0.29198	0.588124	
0.133074	0.264097	1	
0.189613	0.313662	1	
0.231243	0.24169	1	
0.20334	0.284476	0.892831	
0.247057	0.434698	0.750499	
0.316847	0.386792	0.698616	
0.317206	0.386498	0.799678	
0.224036	0.344788	0.789803	
0.189613	0.313662	1	
0.114055	0.374109	1	
0.158987	0.372754	0.909796	
0.105325	0.289243	0.907921	
0.153328	0.47591	0.59237	
0.0807477	0.493437	0.654224	
0.0704482	0.495012	0.571845	
0.0967579	0.384129	0.574883	
-0.426463	0.0441363	1	
-0.5	0	1	
-0.495293	0.0684459	0.931403	
-0.5	0	0.9	
-0.469721	0.171353	0.838334	
-0.478555	0.144862	0.921652	
-0.493389	0.0810399	0.85285	
-0.3732	0.0934614	0.886553	
-0.168688	-0.281701	1	
-0.0925337	-0.196451	1	
-0.0638367	-0.295761	1	
-0.123319	-0.239698	0.888651	
0.478555	0.144862	0.578348	
0.469721	0.171353	0.661666	
0.436762	0.243391	0.596938	
0.354508	0.178976	0.587224	
0.184661	0.0531453	0.5	
0.216667	0	0.5	
0.241074	0.0589256	0.5	
0.24433	0.0230591	0.580906	
-0.493012	0.0833019	0.655211	
-0.5	0	0.6	
-0.495101	0.0698189	0.572379	
-0.38814	0.0365087	0.609899	
0.174678	0.468495	0.817109	
0.0854243	0.492649	0.751403	
0.168734	0.470668	0.701781	
0.119314	0.388497	0.707486	
0.130793	0.331529	0.821778	
0.0518787	0.327869	0.739172	
0.133662	0.297003	0.732987	
0.0669598	0.264617	0.818251	
0.0461078	-0.0584269	1	
0.14072	-0.0839746	1	
0.0712814	-0.153152	1	
0.0982493	-0.0719344	0.910531	
0.470916	0.168043	0.800126	
0.379144	0.136793	0.743369	
0.490343	0.0977967	0.741226	
0.409933	0.0569559	0.803804	
0.478555	-0.144862	0.921652	
0.380207	-0.19708	1	
0.46194	-0.191342	1	
0.394936	-0.119803	1	
0.374193	0.331632	0.834643	
0.415735	0.277785	0.865862	
0.388274	0.315029	0.920807	
0.307884	0.246632	0.880034	
0.189613	0.313662	1	
0.261819	0.319027	1	
0.231243	0.24169	1	
0.20334	0.284476	0.892831	
0.3168	-0.386831	0.604097	
0.228991	-0.444481	0.591901	
0.25658	-0.429146	0.66876	
0.237843	-0.32244	0.584415	
0.14072	-0.0839746	1	
0.0461078	-0.0584269	1	
0.115537	0.0107471	1	
0.0982493	-0.0719344	0.910531	
0.0373069	0.0158534	0.5	
0.0466381	-0.023308	0.56503	
0.0882618	0.0365592	0.582606	
0.0195373	0.0477919	0.562256	
0.315853	0.0373069	0.5	
0.330273	-0.0125395	0.5	
0.383333	0	0.5	
0.350518	0.0203259	0.577676	
0.46194	0.191342	1	
0.476114	0.152694	0.90246	
0.414183	0.131147	1	
0.376293	0.169886	0.910318	
0.314271	-0.0501881	1	
0.409478	-0.032947	1	
0.394936	-0.119803	1	
0.388259	-0.0686204	0.893717	
0.0092772	-0.322397	0.5	
0.0373069	-0.284147	0.5	
-0.0125395	-0.269727	0.5	
-0.00306262	-0.296003	0.5718	
0.189613	0.313662	1	
0.20334	0.284476	0.892831	
0.133074	0.264097	1	
0.105325	0.289243	0.907921	
-0.470668	-0.168734	0.798219	
-0.492649	-0.0854243	0.748597	
-0.493437	-0.0807477	0.845776	
-0.387166	-0.0714815	0.763327	
-0.186407	-0.169451	1	
-0.278713	-0.14304	1	
-0.211369	-0.0761151	1	
-0.250033	-0.160772	0.906432	
0.317233	0.386476	0.590473	
0.380873	0.323938	0.652261	
0.316847	0.386792	0.698616	
0.252165	0.322355	0.613309	
0.201164	-0.273578	1	
0.268393	-0.334301	1	
0.194604	-0.371188	1	
0.214973	-0.334693	0.892974	
0.439458	-0.238488	0.575692	
0.415735	-0.277785	0.5	
0.388274	-0.315029	0.579193	
0.351409	-0.224603	0.596537	
-0.0854243	0.492649	0.748597	
-0.0814864	0.493315	0.652319	
0	0.5	0.7	
-0.0839841	0.399109	0.679035	
0.174678	0.468495	0.817109	
0.247057	0.434698	0.750499	
0.25658	0.429146	0.83124	
0.224036	0.344788	0.789803	
0.184962	0.0799289	1	
0.276476	0.0535537	1	
0.210156	-0.0147965	1	
0.259967	0.0147254	0.905038	
0.274828	-0.327002	0.5	
0.277785	-0.415735	0.5	
0.3168	-0.386831	0.604097	
0.237843	-0.32244	0.584415	
0.493389	-0.0810399	0.85285	
0.490343	-0.0977967	0.758774	
0.383529	-0.130684	0.812713	
0.410213	-0.0392212	0.798574	
-0.0728232	0.494668	0.573541	
-0.146853	0.477948	0.584008	
-0.121351	0.418264	0.5	
-0.0634498	0.397211	0.588093	
0.235698	0.440961	0.568569	
0.242822	0.437078	0.652991	
0.178778	0.36803	0.594641	
0.252165	0.322355	0.613309	
-0.337562	0.0547633	1	
-0.257956	0.116321	1	
-0.237047	0.0201392	1	
-0.261224	0.0578819	0.892654	
0.142999	-0.18326	0.747043	
0.0780409	-0.210867	0.691426	
0.111962	-0.272347	0.754919	
0.0762998	-0.205219	0.804763	
-0.323059	-0.0556697	0.636381	
-0.402816	-0.0523896	0.590168	
-0.350407	-0.154201	0.605376	
-0.398806	-0.103684	0.671654	
-0.268448	0.0761744	0.677974	
-0.177442	0.0578991	0.68267	
-0.22856	0.0108682	0.750263	
-0.259249	-0.00709893	0.664249	
0.317233	0.386476	0.590473	
0.277785	0.415735	0.5	
0.262733	0.334293	0.5	
0.235698	0.440961	0.568569	
-0.0814864	0.493315	0.652319	
-0.0728232	0.494668	0.573541	
0	0.5	0.6	
-0.0634498	0.397211	0.588093	
-0.38814	0.0365087	0.609899	
-0.32522	-0.00468432	0.575656	
-0.323059	-0.0556697	0.636381	
-0.402816	-0.0523896	0.590168	
-0.0372406	0.417791	1	
-0.0555676	0.325574	1	
-0.118932	0.39861	1	
-0.0728697	0.385983	0.897183	
0.060105	0.382127	0.896284	
0.158987	0.372754	0.909796	
0.114055	0.374109	1	
0.105325	0.289243	0.907921	
-0.0506005	0.12216	0.5	
-0.0949082	0.168548	0.5	
-0.106984	0.108603	0.5	
-0.0835252	0.135066	0.582318	
-0.0506005	-0.42216	0.5	
-0.123001	-0.399482	0.5	
-0.0975452	-0.490393	0.5	
-0.0698189	-0.495101	0.572379	
0.399482	-0.123001	0.5	
0.42216	-0.0506005	0.5	
0.495101	-0.0698189	0.572379	
0.490393	-0.0975452	0.5	
-0.42216	0.0506005	0.5	
-0.399482	0.123001	0.5	
-0.490393	0.0975452	0.5	
-0.495101	0.0698189	0.572379	
-0.42216	-0.0506005	0.5	
-0.358926	-0.0589256	0.5	
-0.383333	3.67394e-17	0.5	
-0.402816	-0.0523896	0.590168	
0.0518787	0.327869	0.739172	
0.133662	0.297003	0.732987	
0.107888	0.321356	0.639747	
0.119314	0.388497	0.707486	
0.0854243	-0.492649	0.748597	
0	-0.5	0.7	
0	-0.5	0.8	
-0.0103711	-0.392711	0.762225	
-0.28746	0.0302731	0.5	
-0.337307	0.0158534	0.5	
-0.309277	-0.0223972	0.5	
-0.32522	-0.00468432	0.575656	
0	-0.5	0.8	
0	-0.5	0.7	
-0.0977967	-0.490343	0.758774	
-0.0103711	-0.392711	0.762225	
-0.234529	0.221409	0.5	
-0.227302	0.174542	0.5	
-0.181859	0.199592	0.5	
-0.212186	0.200864	0.578994	
-0.386505	0.317197	0.931175	
-0.380873	0.323938	0.847739	
-0.317233	0.386476	0.909527	
-0.272957	0.274415	0.886959	
0.394936	-0.119803	1	
0.490393	-0.0975452	1	
0.495293	-0.0684459	0.931403	
0.409478	-0.032947	1	
-0.118932	0.39861	1	
-0.0704482	0.495012	0.928155	
-0.0975452	0.490393	1	
-0.0372406	0.417791	1	
0.241074	0.0589256	0.5	
0.216667	0	0.5	
0.277603	0.0092772	0.5	
0.24433	0.0230591	0.580906	
0.0420691	0.427134	1	
0	0.5	0.9	
0	0.5	1	
0.0728232	0.494668	0.926459	
-0.440961	-0.235698	0.931431	
-0.386476	-0.317233	0.909527	
-0.437078	-0.242822	0.847009	
-0.317305	-0.233685	0.899359	
0.174678	0.468495	0.817109	
0.0814864	0.493315	0.847681	
0.0854243	0.492649	0.751403	
0.0504561	0.409775	0.7991	
0.0203259	-0.249482	0.748458	
0.111962	-0.272347	0.754919	
0.0780409	-0.210867	0.691426	
0.0762998	-0.205219	0.804763	
-0.490393	-0.0975452	0.5	
-0.399482	-0.123001	0.5	
-0.42216	-0.0506005	0.5	
-0.494668	-0.0728232	0.573541	
0.46194	0.191342	1	
0.373926	0.198925	1	
0.439458	0.238488	0.924308	
0.376293	0.169886	0.910318	
0.235698	0.440961	0.568569	
0.277785	0.415735	0.5	
0.262733	0.334293	0.5	
0.195502	0.369451	0.5	
0.3168	-0.386831	0.604097	
0.277785	-0.415735	0.5	
0.228991	-0.444481	0.591901	
0.237843	-0.32244	0.584415	
-0.271058	0.271058	0.5	
-0.274828	0.327002	0.5	
-0.332733	0.27561	0.5	
-0.302751	0.261742	0.582968	
-0.0465403	0.431857	0.5	
-0.0589256	0.358926	0.5	
1.83697e-17	0.383333	0.5	
-0.0634498	0.397211	0.588093	
0.386505	0.317197	0.568825	
0.353553	0.353553	0.5	
0.305409	0.305409	0.5	
0.317233	0.386476	0.590473	
0.346509	0.0237889	1	
0.314271	-0.0501881	1	
0.276476	0.0535537	1	
0.259967	0.0147254	0.905038	
-0.152694	-0.476114	0.59754	
-0.0975452	-0.490393	0.5	
-0.123001	-0.399482	0.5	
-0.0698189	-0.495101	0.572379	
-0.495101	0.0698189	0.572379	
-0.399482	0.123001	0.5	
-0.490393	0.0975452	0.5	
-0.476114	0.152694	0.59754	
0.495101	-0.0698189	0.572379	
0.399482	-0.123001	0.5	
0.490393	-0.0975452	0.5	
0.476114	-0.152694	0.59754	
-0.42216	-0.0506005	0.5	
-0.434728	9.15966e-17	0.5	
-0.5	0	0.5	
-0.494668	-0.0728232	0.573541	
0.490343	0.0977967	0.741226	
0.460548	0.194667	0.73433	
0.469721	0.171353	0.661666	
0.379144	0.136793	0.743369	
0.376757	-0.328716	0.753532	
0.317206	-0.386498	0.700322	
0.316847	-0.386792	0.801384	
0.294198	-0.285672	0.778149	
0.469721	-0.171353	0.838334	
0.460548	-0.194667	0.76567	
0.428195	-0.258165	0.798245	
0.383529	-0.130684	0.812713	
0.0704482	0.495012	0.571845	
0.121276	0.418309	0.5	
0.153328	0.47591	0.59237	
0.0967579	0.384129	0.574883	
-0.25658	0.429146	0.66876	
-0.317206	0.386498	0.700322	
-0.3168	0.386831	0.604097	
-0.23213	0.339095	0.696865	
-0.261345	-0.230036	1	
-0.331361	-0.272953	1	
-0.356684	-0.19351	1	
-0.317305	-0.233685	0.899359	
-0.374193	0.331632	0.665357	
-0.4284	0.257824	0.704976	
-0.415735	0.277785	0.634138	
-0.317726	0.256883	0.685229	
0.114055	0.374109	1	
0.191342	0.46194	1	
0.202324	0.378521	1	
0.158987	0.372754	0.909796	
0.195502	0.369451	0.5	
0.12216	0.350601	0.5	
0.166579	0.322107	0.5	
0.178778	0.36803	0.594641	
0.130793	0.331529	0.821778	
0.158987	0.372754	0.909796	
0.060105	0.382127	0.896284	
0.105325	0.289243	0.907921	
0.114055	0.374109	1	
0.146853	0.477948	0.915992	
0.191342	0.46194	1	
0.158987	0.372754	0.909796	
0.0401436	0.291204	1	
0.133074	0.264097	1	
0.0651412	0.200096	1	
0.105325	0.289243	0.907921	
0.016747	0.116372	0.584632	
-0.0139985	0.0766371	0.645768	
-0.0524491	0.0544183	0.580273	
0.0195373	0.0477919	0.562256	
0.232997	-0.11062	1	
0.313791	-0.154465	1	
0.245477	-0.191651	1	
0.237523	-0.1744	0.906763	
-0.0411735	0.316432	0.673786	
-0.0413818	0.388755	0.761338	
0.0140521	0.397008	0.681004	
-0.0839841	0.399109	0.679035	
-0.097127	-0.15347	0.5	
-0.0499791	-0.122616	0.5	
-0.105887	-0.105887	0.5	
-0.0814439	-0.125985	0.575026	
-0.0422582	-0.437473	1	
0	-0.5	1	
-0.0684459	-0.495293	0.931403	
0	-0.5	0.9	
-0.238488	-0.439458	0.575692	
-0.315029	-0.388274	0.579193	
-0.277785	-0.415735	0.634138	
-0.2318	-0.328499	0.599609	
-0.16685	0.0883447	1	
-0.142648	-0.00714059	1	
-0.237047	0.0201392	1	
-0.185651	-0.000811148	0.912479	
0.186339	-0.0508266	0.5	
0.216667	0	0.5	
0.152693	-0.00394448	0.5	
0.190149	-0.0438256	0.575538	
-0.0975452	-0.490393	1	
-0.114467	-0.386332	1	
-0.0684459	-0.495293	0.931403	
-0.144862	-0.478555	0.921652	
-0.0524491	0.0544183	0.580273	
-0.0139985	0.0766371	0.645768	
-0.000470172	0.0044189	0.616387	
0.0195373	0.0477919	0.562256	
-0.277785	0.415735	0.5	
-0.3168	0.386831	0.604097	
-0.274828	0.327002	0.5	
-0.23026	0.337515	0.583641	
0.450285	-0.217356	0.644698	
0.439458	-0.238488	0.575692	
0.415735	-0.277785	0.634138	
0.351409	-0.224603	0.596537	
-0.196736	0.368707	0.5	
-0.228991	0.444481	0.591901	
-0.277785	0.415735	0.5	
-0.23026	0.337515	0.583641	
-0.478555	0.144862	0.921652	
-0.404541	0.126945	1	
-0.490393	0.0975452	1	
-0.495293	0.0684459	0.931403	
0.490393	0.0975452	1	
0.495101	0.0698189	0.927621	
0.414991	0.0495125	1	
0.414183	0.131147	1	
-0.5	0	0.5	
-0.434728	9.15966e-17	0.5	
-0.42216	0.0506005	0.5	
-0.495101	0.0698189	0.572379	
-0.121351	0.418264	0.5	
-0.0589256	0.358926	0.5	
-0.0465403	0.431857	0.5	
-0.0634498	0.397211	0.588093	
0.495293	-0.0684459	0.931403	
0.493389	-0.0810399	0.85285	
0.478555	-0.144862	0.921652	
0.388259	-0.0686204	0.893717	
-1.3431e-16	-0.435719	0.5	
-0.0506005	-0.42216	0.5	
0	-0.5	0.5	
-0.0698189	-0.495101	0.572379	
0.490393	-0.0975452	1	
0.495293	-0.0684459	0.931403	
0.478555	-0.144862	0.921652	
0.394936	-0.119803	1	
0.153206	-0.271058	0.5	
0.174542	-0.227302	0.5	
0.128799	-0.212132	0.5	
0.163252	-0.248876	0.586706	
-0.399482	-0.123001	0.5	
-0.358926	-0.0589256	0.5	
-0.42216	-0.0506005	0.5	
-0.402816	-0.0523896	0.590168	
0.212132	0.295465	0.5	
0.153206	0.271058	0.5	
0.199592	0.242405	0.5	
0.186731	0.273457	0.579435	
0.245477	-0.191651	1	
0.164797	-0.177585	1	
0.232997	-0.11062	1	
0.237523	-0.1744	0.906763	
0.295465	0.212132	0.5	
0.322107	0.166579	0.5	
0.369451	0.195502	0.5	
0.354508	0.178976	0.587224	
0.180554	0.223326	0.725764	
0.12725	0.243321	0.66402	
0.0913842	0.220621	0.740584	
0.133662	0.297003	0.732987	
0.189613	0.313662	1	
0.133074	0.264097	1	
0.114055	0.374109	1	
0.105325	0.289243	0.907921	
0.469721	-0.171353	0.838334	
0.493389	-0.0810399	0.85285	
0.490343	-0.0977967	0.758774	
0.383529	-0.130684	0.812713	
-0.399482	-0.123001	0.5	
-0.490393	-0.0975452	0.5	
-0.477948	-0.146853	0.584008	
-0.494668	-0.0728232	0.573541	
-0.0704482	0.495012	0.928155	
-0.0975452	0.490393	1	
-0.153328	0.47591	0.90763	
-0.118932	0.39861	1	
0.0589256	-0.358926	0.5	
-5.51091e-17	-0.383333	0.5	
0.0465403	-0.431857	0.5	
0.0212569	-0.409526	0.586364	
-0.128799	-0.212132	0.5	
-0.174825	-0.196279	0.5	
-0.153206	-0.271058	0.5	
-0.174064	-0.226232	0.58962	
-0.493315	-0.0814864	0.652319	
-0.477948	-0.146853	0.584008	
-0.494668	-0.0728232	0.573541	
-0.402816	-0.0523896	0.590168	
0.228991	0.444481	0.908099	
0.146853	0.477948	0.915992	
0.174678	0.468495	0.817109	
0.158987	0.372754	0.909796	
-0.4284	0.257824	0.704976	
-0.374193	0.331632	0.665357	
-0.376757	0.328716	0.753532	
-0.317726	0.256883	0.685229	
0.202324	0.378521	1	
0.191342	0.46194	1	
0.228991	0.444481	0.908099	
0.158987	0.372754	0.909796	
0.114055	0.374109	1	
0.0153159	0.363557	1	
0.0420691	0.427134	1	
0.060105	0.382127	0.896284	
0.0704482	-0.495012	0.928155	
0.0807477	-0.493437	0.845776	
0	-0.5	0.9	
0.0283953	-0.39231	0.890404	
0.20334	0.284476	0.892831	
0.158987	0.372754	0.909796	
0.130793	0.331529	0.821778	
0.105325	0.289243	0.907921	
-0.0814864	0.493315	0.652319	
-0.146853	0.477948	0.584008	
-0.0728232	0.494668	0.573541	
-0.0634498	0.397211	0.588093	
0.0975452	-0.490393	1	
0.0404524	-0.41072	1	
0.125573	-0.41396	1	
0.0704482	-0.495012	0.928155	
0.439458	0.238488	0.924308	
0.476114	0.152694	0.90246	
0.46194	0.191342	1	
0.376293	0.169886	0.910318	
0.262733	0.334293	0.5	
0.305409	0.305409	0.5	
0.353553	0.353553	0.5	
0.317233	0.386476	0.590473	
0.115537	0.0107471	1	
0.184962	0.0799289	1	
0.210156	-0.0147965	1	
0.156034	0.0430169	0.909981	
0.373926	0.198925	1	
0.414183	0.131147	1	
0.337634	0.115561	1	
0.376293	0.169886	0.910318	
0.5	0	0.7	
0.490343	-0.0977967	0.758774	
0.5	0	0.8	
0.410213	-0.0392212	0.798574	
0.316847	0.386792	0.698616	
0.242822	0.437078	0.652991	
0.317233	0.386476	0.590473	
0.252165	0.322355	0.613309	
-0.121351	0.418264	0.5	
-0.0465403	0.431857	0.5	
-0.0975452	0.490393	0.5	
-0.0728232	0.494668	0.573541	
0.0975452	-0.490393	0.5	
0.0465403	-0.431857	0.5	
0.0728232	-0.494668	0.573541	
0.121351	-0.418264	0.5	
0.235698	0.440961	0.568569	
0.317233	0.386476	0.590473	
0.242822	0.437078	0.652991	
0.252165	0.322355	0.613309	
0.414183	0.131147	1	
0.490393	0.0975452	1	
0.495101	0.0698189	0.927621	
0.476114	0.152694	0.90246	
-0.493437	-0.0807477	0.845776	
-0.495012	-0.0704482	0.928155	
-0.47591	-0.153328	0.90763	
-0.398507	-0.0483311	0.885387	
-0.196736	0.368707	0.5	
-0.277785	0.415735	0.5	
-0.274828	0.327002	0.5	
-0.23026	0.337515	0.583641	
-0.166579	0.322107	0.5	
-0.23026	0.337515	0.583641	
-0.212132	0.295465	0.5	
-0.181622	0.273954	0.57406	
0.210156	-0.0147965	1	
0.276476	0.0535537	1	
0.314271	-0.0501881	1	
0.259967	0.0147254	0.905038	
0.495293	0.0684459	0.568597	
0.5	0	0.6	
0.493389	0.0810399	0.64715	
0.41725	0.0179908	0.649594	
-0.263582	-0.319413	1	
-0.168688	-0.281701	1	
-0.203173	-0.373024	1	
-0.235677	-0.292728	0.906663	
-0.194667	-0.460548	0.76567	
-0.257824	-0.4284	0.704976	
-0.258165	-0.428195	0.798245	
-0.220163	-0.339708	0.738499	
-0.211369	-0.0761151	1	
-0.117671	-0.10197	1	
-0.186407	-0.169451	1	
-0.144759	-0.143126	0.912403	
0.212132	-0.295465	0.5	
0.166579	-0.322107	0.5	
0.196736	-0.368707	0.5	
0.237843	-0.32244	0.584415	
-0.258165	-0.428195	0.798245	
-0.257824	-0.4284	0.704976	
-0.328716	-0.376757	0.753532	
-0.220163	-0.339708	0.738499	
0.216667	0	0.5	
0.186339	-0.0508266	0.5	
0.241074	-0.0589256	0.5	
0.190149	-0.0438256	0.575538	
-0.401548	-0.0423374	1	
-0.41072	-0.12459	1	
-0.490393	-0.0975452	1	
-0.495012	-0.0704482	0.928155	
-0.153328	0.47591	0.90763	
-0.0807477	0.493437	0.845776	
-0.0704482	0.495012	0.928155	
-0.0728697	0.385983	0.897183	
-0.237047	0.0201392	1	
-0.142648	-0.00714059	1	
-0.211369	-0.0761151	1	
-0.185651	-0.000811148	0.912479	
0.212132	0.128799	0.5	
0.221409	0.189735	0.5	
0.174542	0.196962	0.5	
0.193696	0.165595	0.572294	
0.3	-0.0833333	0.5	
0.345553	-0.109975	0.5	
0.321349	-0.0500942	0.566645	
0.313135	-0.131023	0.572624	
-0.0949082	0.168548	0.5	
-0.0589256	0.241074	0.5	
-0.128799	0.212132	0.5	
-0.0595377	0.207843	0.570115	
0.3168	0.386831	0.895903	
0.277785	0.415735	1	
0.261819	0.319027	1	
0.353553	0.353553	1	
0.242822	-0.437078	0.847009	
0.235698	-0.440961	0.931431	
0.317233	-0.386476	0.909527	
0.214973	-0.334693	0.892974	
-1.3431e-16	-0.435719	0.5	
0.0465403	-0.431857	0.5	
-5.51091e-17	-0.383333	0.5	
0.0212569	-0.409526	0.586364	
0.428195	-0.258165	0.798245	
0.380873	-0.323938	0.847739	
0.436762	-0.243391	0.903062	
0.335277	-0.219266	0.871103	
0.5	0	0.7	
0.5	0	0.6	
0.493012	-0.0833019	0.655211	
0.41725	0.0179908	0.649594	
0.0728232	-0.494668	0.573541	
0	-0.5	0.6	
0.0814864	-0.493315	0.652319	
0.0212569	-0.409526	0.586364	
-0.41072	-0.12459	1	
-0.490393	-0.0975452	1	
-0.495012	-0.0704482	0.928155	
-0.47591	-0.153328	0.90763	
0.476114	-0.152694	0.59754	
0.493012	-0.0833019	0.655211	
0.495101	-0.0698189	0.572379	
0.385774	-0.0819641	0.609834	
0.0975452	0.490393	0.5	
0.0704482	0.495012	0.571845	
0.0465403	0.431857	0.5	
0.121276	0.418309	0.5	
0.470916	0.168043	0.800126	
0.490343	0.0977967	0.741226	
0.493012	0.0833019	0.844789	
0.409933	0.0569559	0.803804	
-0.277785	0.415735	0.5	
-0.228991	0.444481	0.591901	
-0.3168	0.386831	0.604097	
-0.23026	0.337515	0.583641	
-0.3168	0.386831	0.604097	
-0.228991	0.444481	0.591901	
-0.25658	0.429146	0.66876	
-0.23026	0.337515	0.583641	
0.196736	-0.368707	0.5	
0.274828	-0.327002	0.5	
0.212132	-0.295465	0.5	
0.237843	-0.32244	0.584415	
0.133074	0.264097	1	
0.0401436	0.291204	1	
0.114055	0.374109	1	
0.105325	0.289243	0.907921	
-0.493315	-0.0814864	0.652319	
-0.468495	-0.174678	0.682891	
-0.477948	-0.146853	0.584008	
-0.398806	-0.103684	0.671654	
0.228991	0.444481	0.908099	
0.191342	0.46194	1	
0.146853	0.477948	0.915992	
0.158987	0.372754	0.909796	
-0.493315	-0.0814864	0.652319	
-0.494668	-0.0728232	0.573541	
-0.5	0	0.6	
-0.402816	-0.0523896	0.590168	
-0.0589256	0.241074	0.5	
-0.0949082	0.168548	0.5	
-0.0419658	0.179631	0.5	
-0.0595377	0.207843	0.570115	
0.386505	-0.317197	0.931175	
0.436762	-0.243391	0.903062	
0.380873	-0.323938	0.847739	
0.335277	-0.219266	0.871103	
0.125573	-0.41396	1	
0.153328	-0.47591	0.90763	
0.0975452	-0.490393	1	
0.0704482	-0.495012	0.928155	
0.369451	0.195502	0.5	
0.46194	0.191342	0.5	
0.415735	0.277785	0.5	
0.436762	0.243391	0.596938	
-0.399482	0.123001	0.5	
-0.46194	0.191342	0.5	
-0.490393	0.0975452	0.5	
-0.476114	0.152694	0.59754	
0.399482	-0.123001	0.5	
0.490393	-0.0975452	0.5	
0.476114	-0.152694	0.59754	
0.46194	-0.191342	0.5	
-0.0814864	0.493315	0.652319	
-0.0854243	0.492649	0.748597	
-0.174678	0.468495	0.682891	
-0.0839841	0.399109	0.679035	
0.490393	0.0975452	0.5	
0.495293	0.0684459	0.568597	
0.418309	0.121276	0.5	
0.431857	0.0465403	0.5	
0.271058	-0.271058	0.5	
0.212132	-0.295465	0.5	
0.274828	-0.327002	0.5	
0.237843	-0.32244	0.584415	
0.146853	0.477948	0.915992	
0.0975452	0.490393	1	
0.114055	0.374109	1	
0.191342	0.46194	1	
-0.191342	0.46194	1	
-0.153328	0.47591	0.90763	
-0.0975452	0.490393	1	
-0.118932	0.39861	1	
0.469721	-0.171353	0.838334	
0.490343	-0.0977967	0.758774	
0.460548	-0.194667	0.76567	
0.383529	-0.130684	0.812713	
1.83697e-17	0.216667	0.5	
-0.0589256	0.241074	0.5	
-0.0419658	0.179631	0.5	
-0.0595377	0.207843	0.570115	
-0.278713	-0.14304	1	
-0.186407	-0.169451	1	
-0.261345	-0.230036	1	
-0.250033	-0.160772	0.906432	
0.476114	0.152694	0.90246	
0.493012	0.0833019	0.844789	
0.495101	0.0698189	0.927621	
0.388745	0.0776039	0.89546	
0.196736	-0.368707	0.5	
0.228991	-0.444481	0.591901	
0.191342	-0.46194	0.5	
0.277785	-0.415735	0.5	
-0.196736	0.368707	0.5	
-0.191342	0.46194	0.5	
-0.277785	0.415735	0.5	
-0.228991	0.444481	0.591901	
0.184661	0.0531453	0.5	
0.152693	-0.00394448	0.5	
0.216667	0	0.5	
0.165404	0.026433	0.57138	
0.358926	-0.0589256	0.5	
0.330273	-0.0125395	0.5	
0.28483	-0.03759	0.5	
0.321349	-0.0500942	0.566645	
0.369451	0.195502	0.5	
0.322107	0.166579	0.5	
0.350601	0.12216	0.5	
0.354508	0.178976	0.587224	
-0.492649	-0.0854243	0.748597	
-0.468495	-0.174678	0.682891	
-0.493315	-0.0814864	0.652319	
-0.398806	-0.103684	0.671654	
0.242822	0.437078	0.652991	
0.153328	0.47591	0.59237	
0.235698	0.440961	0.568569	
0.178778	0.36803	0.594641	
-0.196736	0.368707	0.5	
-0.274828	0.327002	0.5	
-0.212132	0.295465	0.5	
-0.23026	0.337515	0.583641	
0.0854243	0.492649	0.751403	
0.0807477	0.493437	0.654224	
0.168734	0.470668	0.701781	
0.119314	0.388497	0.707486	
-0.0975452	-0.490393	0.5	
-0.123001	-0.399482	0.5	
-0.191342	-0.46194	0.5	
-0.152694	-0.476114	0.59754	
0.212132	0.128799	0.5	
0.174542	0.196962	0.5	
0.153206	0.153206	0.5	
0.193696	0.165595	0.572294	
0.470916	0.168043	0.800126	
0.460548	0.194667	0.73433	
0.490343	0.0977967	0.741226	
0.379144	0.136793	0.743369	
-0.261345	-0.230036	1	
-0.168688	-0.281701	1	
-0.263582	-0.319413	1	
-0.235677	-0.292728	0.906663	
0.0589256	0.358926	0.5	
0.121276	0.418309	0.5	
0.0465403	0.431857	0.5	
0.0967579	0.384129	0.574883	
-0.274828	0.327002	0.5	
-0.277785	0.415735	0.5	
-0.353553	0.353553	0.5	
-0.3168	0.386831	0.604097	
0.274828	-0.327002	0.5	
0.353553	-0.353553	0.5	
0.3168	-0.386831	0.604097	
0.277785	-0.415735	0.5	
0.345553	-0.109975	0.5	
0.3	-0.0833333	0.5	
0.271058	-0.153206	0.5	
0.313135	-0.131023	0.572624	
-0.415735	-0.277785	1	
-0.386476	-0.317233	0.909527	
-0.331361	-0.272953	1	
-0.353553	-0.353553	1	
0.0589256	-0.0589256	0.5	
0.0373069	0.0158534	0.5	
0.0092772	-0.0223972	0.5	
0.0466381	-0.023308	0.56503	
0.124175	0.0449909	0.5	
0.152693	-0.00394448	0.5	
0.184661	0.0531453	0.5	
0.165404	0.026433	0.57138	
-0.495012	-0.0704482	0.928155	
-0.493437	-0.0807477	0.845776	
-0.5	0	0.9	
-0.398507	-0.0483311	0.885387	
-0.386831	-0.3168	0.604097	
-0.330717	-0.276825	0.5	
-0.353553	-0.353553	0.5	
-0.415735	-0.277785	0.5	
-0.212132	0.295465	0.5	
-0.166579	0.322107	0.5	
-0.196736	0.368707	0.5	
-0.23026	0.337515	0.583641	
-0.476114	0.152694	0.59754	
-0.450285	0.217356	0.644698	
-0.470916	0.168043	0.699874	
-0.395918	0.121742	0.65735	
0.380207	-0.19708	1	
0.46194	-0.191342	1	
0.415735	-0.277785	1	
0.436762	-0.243391	0.903062	
0.376757	-0.328716	0.753532	
0.316847	-0.386792	0.801384	
0.380873	-0.323938	0.847739	
0.294198	-0.285672	0.778149	
0.345553	-0.109975	0.5	
0.271058	-0.153206	0.5	
0.334293	-0.161532	0.5	
0.313135	-0.131023	0.572624	
-0.490393	-0.0975452	0.5	
-0.477948	-0.146853	0.584008	
-0.46194	-0.191342	0.5	
-0.399482	-0.123001	0.5	
0.0975452	-0.490393	0.5	
0.0728232	-0.494668	0.573541	
0.146853	-0.477948	0.584008	
0.121351	-0.418264	0.5	
-0.0975452	0.490393	0.5	
-0.121351	0.418264	0.5	
-0.0728232	0.494668	0.573541	
-0.146853	0.477948	0.584008	
0.166579	0.322107	0.5	
0.153206	0.271058	0.5	
0.212132	0.295465	0.5	
0.186731	0.273457	0.579435	
-0.271058	0.271058	0.5	
-0.332733	0.27561	0.5	
-0.295465	0.212132	0.5	
-0.302751	0.261742	0.582968	
0.383333	0	0.5	
0.358926	0.0589256	0.5	
0.315853	0.0373069	0.5	
0.350518	0.0203259	0.577676	
0.490393	0.0975452	1	
0.414183	0.131147	1	
0.46194	0.191342	1	
0.476114	0.152694	0.90246	
0.388274	-0.315029	0.579193	
0.415735	-0.277785	0.634138	
0.439458	-0.238488	0.575692	
0.351409	-0.224603	0.596537	
0.0704482	0.495012	0.571845	
0.0975452	0.490393	0.5	
0.153328	0.47591	0.59237	
0.121276	0.418309	0.5	
-0.277785	-0.415735	1	
-0.191342	-0.46194	1	
-0.243391	-0.436762	0.903062	
-0.203173	-0.373024	1	
0	-0.0833333	0.5	
0.0092772	-0.0223972	0.5	
-0.03759	-0.01517	0.5	
-0.0220267	-0.0501213	0.56323	
0.490393	-0.0975452	1	
0.5	0	1	
0.495293	-0.0684459	0.931403	
0.409478	-0.032947	1	
0.317233	-0.386476	0.909527	
0.277785	-0.415735	1	
0.353553	-0.353553	1	
0.268393	-0.334301	1	
-0.353553	0.353553	1	
-0.273315	0.334955	1	
-0.317233	0.386476	0.909527	
-0.277785	0.415735	1	
0.493012	0.0833019	0.844789	
0.490343	0.0977967	0.741226	
0.5	0	0.8	
0.409933	0.0569559	0.803804	
0.114055	0.374109	1	
0.202324	0.378521	1	
0.189613	0.313662	1	
0.158987	0.372754	0.909796	
0.191342	-0.46194	1	
0.153328	-0.47591	0.90763	
0.0975452	-0.490393	1	
0.125573	-0.41396	1	
-0.0125395	0.0302731	0.5	
0.0373069	0.0158534	0.5	
0	0.0833333	0.5	
0.0195373	0.0477919	0.562256	
0.450285	0.217356	0.855302	
0.476114	0.152694	0.90246	
0.439458	0.238488	0.924308	
0.376293	0.169886	0.910318	
-0.46194	-0.191342	1	
-0.440961	-0.235698	0.931431	
-0.356684	-0.19351	1	
-0.415735	-0.277785	1	
0.0589256	-0.0589256	0.5	
0.0833333	0	0.5	
0.0373069	0.0158534	0.5	
0.0466381	-0.023308	0.56503	
-0.41072	-0.12459	1	
-0.490393	-0.0975452	1	
-0.47591	-0.153328	0.90763	
-0.46194	-0.191342	1	
-0.247057	0.434698	0.749501	
-0.317206	0.386498	0.700322	
-0.25658	0.429146	0.66876	
-0.23213	0.339095	0.696865	
-0.0589256	-0.0589256	0.5	
0	-0.0833333	0.5	
-0.03759	-0.01517	0.5	
-0.0220267	-0.0501213	0.56323	
0.46194	0.191342	1	
0.439458	0.238488	0.924308	
0.373926	0.198925	1	
0.415735	0.277785	1	
-0.5	0	1	
-0.401548	-0.0423374	1	
-0.490393	-0.0975452	1	
-0.495012	-0.0704482	0.928155	
0	0.5	0.8	
0.0854243	0.492649	0.751403	
0.0814864	0.493315	0.847681	
0.0504561	0.409775	0.7991	
-0.470916	0.168043	0.699874	
-0.493012	0.0833019	0.655211	
-0.476114	0.152694	0.59754	
-0.395918	0.121742	0.65735	
0.5	0	0.7	
0.493389	0.0810399	0.64715	
0.5	0	0.6	
0.41725	0.0179908	0.649594	
0.25658	0.429146	0.83124	
0.247057	0.434698	0.750499	
0.317206	0.386498	0.799678	
0.224036	0.344788	0.789803	
0.121351	-0.418264	0.5	
0.146853	-0.477948	0.584008	
0.0975452	-0.490393	0.5	
0.191342	-0.46194	0.5	
-0.121351	0.418264	0.5	
-0.0975452	0.490393	0.5	
-0.191342	0.46194	0.5	
-0.146853	0.477948	0.584008	
0.12216	0.350601	0.5	
0.121276	0.418309	0.5	
0.0589256	0.358926	0.5	
0.0967579	0.384129	0.574883	
0.3	-0.0833333	0.5	
0.345553	-0.109975	0.5	
0.358926	-0.0589256	0.5	
0.321349	-0.0500942	0.566645	
0.0404524	-0.41072	1	
0.0975452	-0.490393	1	
0	-0.5	1	
0.0704482	-0.495012	0.928155	
0.0975452	0.490393	0.5	
0.191342	0.46194	0.5	
0.153328	0.47591	0.59237	
0.121276	0.418309	0.5	
-0.46194	0.191342	1	
-0.436762	0.243391	0.903062	
-0.415735	0.277785	1	
-0.389036	0.207425	1	
0.493389	-0.0810399	0.85285	
0.5	0	0.8	
0.490343	-0.0977967	0.758774	
0.410213	-0.0392212	0.798574	
-0.46194	-0.191342	0.5	
-0.415735	-0.277785	0.5	
-0.381086	-0.210299	0.5	
-0.444481	-0.228991	0.591901	
-0.186407	-0.169451	1	
-0.117671	-0.10197	1	
-0.0925337	-0.196451	1	
-0.144759	-0.143126	0.912403	
0.495293	0.0684459	0.568597	
0.478555	0.144862	0.578348	
0.490393	0.0975452	0.5	
0.418309	0.121276	0.5	
-0.144862	-0.478555	0.921652	
-0.0975452	-0.490393	1	
-0.114467	-0.386332	1	
-0.191342	-0.46194	1	
-0.0465403	0.431857	0.5	
0	0.5	0.5	
-0.0975452	0.490393	0.5	
-0.0728232	0.494668	0.573541	
0.0728232	-0.494668	0.573541	
0	-0.5	0.5	
0.0465403	-0.431857	0.5	
0.0975452	-0.490393	0.5	
-0.0704482	0.495012	0.928155	
0	0.5	1	
-0.0975452	0.490393	1	
-0.0372406	0.417791	1	
0.386505	0.317197	0.568825	
0.305409	0.305409	0.5	
0.353553	0.353553	0.5	
0.334293	0.262733	0.5	
0.386505	-0.317197	0.931175	
0.314857	-0.257449	1	
0.353553	-0.353553	1	
0.415735	-0.277785	1	
0.3	-0.0833333	0.5	
0.358926	-0.0589256	0.5	
0.28483	-0.03759	0.5	
0.321349	-0.0500942	0.566645	
0.0589256	0.0589256	0.5	
0	0.0833333	0.5	
0.0373069	0.0158534	0.5	
0.0195373	0.0477919	0.562256	
0.202324	0.378521	1	
0.228991	0.444481	0.908099	
0.191342	0.46194	1	
0.277785	0.415735	1	
0.495101	0.0698189	0.927621	
0.414991	0.0495125	1	
0.5	0	1	
0.490393	0.0975452	1	
0.262733	0.334293	0.5	
0.353553	0.353553	0.5	
0.277785	0.415735	0.5	
0.317233	0.386476	0.590473	
-0.353553	0.353553	1	
-0.318983	0.261743	1	
-0.415735	0.277785	1	
-0.386505	0.317197	0.931175	
-0.263582	-0.319413	1	
-0.353553	-0.353553	1	
-0.317197	-0.386505	0.931175	
-0.277785	-0.415735	1	
-0.5	0	0.5	
-0.490393	-0.0975452	0.5	
-0.42216	-0.0506005	0.5	
-0.494668	-0.0728232	0.573541	
0.490393	-0.0975452	1	
0.478555	-0.144862	0.921652	
0.46194	-0.191342	1	
0.394936	-0.119803	1	
-0.153206	0.271058	0.5	
-0.166579	0.322107	0.5	
-0.212132	0.295465	0.5	
-0.181622	0.273954	0.57406	
0.191342	-0.46194	1	
0.235698	-0.440961	0.931431	
0.194604	-0.371188	1	
0.277785	-0.415735	1	
0.42216	-0.0506005	0.5	
0.5	0	0.5	
0.495101	-0.0698189	0.572379	
0.490393	-0.0975452	0.5	
-0.381208	0.210225	0.5	
-0.415735	0.277785	0.5	
-0.46194	0.191342	0.5	
-0.439458	0.238488	0.575692	
0.439458	-0.238488	0.575692	
0.381208	-0.210225	0.5	
0.46194	-0.191342	0.5	
0.415735	-0.277785	0.5	
-0.415735	0.277785	0.5	
-0.353553	0.353553	0.5	
-0.388274	0.315029	0.579193	
-0.332733	0.27561	0.5	
0.353553	-0.353553	0.5	
0.332733	-0.27561	0.5	
0.388274	-0.315029	0.579193	
0.415735	-0.277785	0.5	
-0.495293	0.0684459	0.931403	
-0.490393	0.0975452	1	
-0.5	0	1	
-0.426463	0.0441363	1	
-0.235698	0.440961	0.931431	
-0.191342	0.46194	1	
-0.277785	0.415735	1	
-0.201912	0.369986	1	
-0.0506005	-0.42216	0.5	
-0.0975452	-0.490393	0.5	
0	-0.5	0.5	
-0.0698189	-0.495101	0.572379	
-0.153206	0.271058	0.5	
-0.212132	0.295465	0.5	
-0.196279	0.249439	0.5	
-0.181622	0.273954	0.57406	
-0.490393	0.0975452	0.5	
-0.5	0	0.5	
-0.42216	0.0506005	0.5	
-0.495101	0.0698189	0.572379	
0.191342	0.46194	0.5	
0.277785	0.415735	0.5	
0.235698	0.440961	0.568569	
0.195502	0.369451	0.5	
0.0704482	0.495012	0.571845	
0	0.5	0.5	
0.0975452	0.490393	0.5	
0.0465403	0.431857	0.5	
-0.404541	0.126945	1	
-0.46194	0.191342	1	
-0.478555	0.144862	0.921652	
-0.490393	0.0975452	1	
0.328092	0.270243	1	
0.415735	0.277785	1	
0.388274	0.315029	0.920807	
0.353553	0.353553	1	
-0.315029	-0.388274	0.579193	
-0.277785	-0.415735	0.5	
-0.353553	-0.353553	0.5	
-0.276229	-0.333066	0.5	
0.0728232	0.494668	0.926459	
0	0.5	1	
0.0420691	0.427134	1	
0.0975452	0.490393	1	
0.495293	0.0684459	0.568597	
0.490393	0.0975452	0.5	
0.5	0	0.5	
0.431857	0.0465403	0.5	
-0.210263	-0.381228	0.5	
-0.238488	-0.439458	0.575692	
-0.277785	-0.415735	0.5	
-0.191342	-0.46194	0.5	
-0.0422582	-0.437473	1	
-0.0684459	-0.495293	0.931403	
0	-0.5	1	
-0.0975452	-0.490393	1	
0.353553	0.353553	0.5	
0.415735	0.277785	0.5	
0.386505	0.317197	0.568825	
0.334293	0.262733	0.5	
0.46194	0.191342	0.5	
0.490393	0.0975452	0.5	
0.478555	0.144862	0.578348	
0.418309	0.121276	0.5	
0.189747	-0.143359	0.830553	
0.100041	-0.0381212	0.736861	
0.142999	-0.18326	0.747043	
0.0785366	-0.11627	0.823358	
0.189747	-0.143359	0.830553	
0.142999	-0.18326	0.747043	
0.100041	-0.0381212	0.736861	
0.220621	-0.0913842	0.746309	
-0.1493	0.167608	0.873324	
-0.26105	0.203399	1	
-0.257956	0.116321	1	
-0.18644	0.1823	1	
-0.1493	0.167608	0.873324	
-0.257956	0.116321	1	
-0.26105	0.203399	1	
-0.28117	0.160675	0.841981	
-0.270142	-0.144141	0.791801	
-0.245786	-0.164168	0.624683	
-0.288147	-0.263663	0.736531	
-0.337623	-0.15776	0.722835	
-0.270142	-0.144141	0.791801	
-0.288147	-0.263663	0.736531	
-0.245786	-0.164168	0.624683	
-0.167637	-0.166421	0.687024	
0.000308877	-0.122536	0.656981	
0.0203259	-0.249482	0.748458	
-0.0978573	-0.216654	0.738076	
-0.00577358	-0.254916	0.661058	
0.000308877	-0.122536	0.656981	
-0.0978573	-0.216654	0.738076	
0.0203259	-0.249482	0.748458	
-0.00154855	-0.114907	0.739634	
0.322027	0.213397	0.712919	
0.252165	0.322355	0.613309	
0.200864	0.212078	0.638362	
0.216396	0.318788	0.694105	
0.200864	0.212078	0.638362	
0.252165	0.322355	0.613309	
0.322027	0.213397	0.712919	
0.300272	0.248641	0.604822	
0.100353	-0.184453	0.588762	
0.0506005	-0.12216	0.5	
0.104605	-0.104521	0.5	
0.0967728	-0.154724	0.5	
0.100353	-0.184453	0.588762	
0.104605	-0.104521	0.5	
0.0506005	-0.12216	0.5	
0.0324597	-0.0934166	0.587598	
0.307884	0.246632	0.880034	
0.450285	0.217356	0.855302	
0.4284	0.257824	0.795024	
0.415735	0.277785	0.865862	
0.307884	0.246632	0.880034	
0.4284	0.257824	0.795024	
0.450285	0.217356	0.855302	
0.331011	0.147461	0.830703	
0.274515	0.174272	0.655082	
0.217923	0.147902	0.790128	
0.157976	0.137423	0.708763	
0.268691	0.110688	0.710369	
0.274515	0.174272	0.655082	
0.157976	0.137423	0.708763	
0.217923	0.147902	0.790128	
0.180554	0.223326	0.725764	
-0.270142	-0.144141	0.791801	
-0.22856	0.0108682	0.750263	
-0.387166	-0.0714815	0.763327	
-0.330463	0.00145141	0.818132	
-0.270142	-0.144141	0.791801	
-0.387166	-0.0714815	0.763327	
-0.22856	0.0108682	0.750263	
-0.220621	-0.0913842	0.726535	
-0.354135	0.0170578	0.71226	
-0.387166	-0.0714815	0.763327	
-0.22856	0.0108682	0.750263	
-0.330463	0.00145141	0.818132	
-0.354135	0.0170578	0.71226	
-0.22856	0.0108682	0.750263	
-0.387166	-0.0714815	0.763327	
-0.220621	-0.0913842	0.726535	
0.313135	-0.131023	0.572624	
0.381208	-0.210225	0.5	
0.295465	-0.212132	0.5	
0.334293	-0.161532	0.5	
0.313135	-0.131023	0.572624	
0.295465	-0.212132	0.5	
0.381208	-0.210225	0.5	
0.351409	-0.224603	0.596537	
0.0589256	-0.358926	0.5	
0.154681	-0.352429	0.61086	
0.121351	-0.418264	0.5	
0.12216	-0.350601	0.5	
0.121351	-0.418264	0.5	
0.154681	-0.352429	0.61086	
0.0589256	-0.358926	0.5	
0.0212569	-0.409526	0.586364	
0.100353	-0.184453	0.588762	
0.104605	-0.104521	0.5	
0.153206	-0.153206	0.5	
0.0967728	-0.154724	0.5	
0.100353	-0.184453	0.588762	
0.153206	-0.153206	0.5	
0.104605	-0.104521	0.5	
0.125362	-0.0795966	0.584968	
-0.0595377	0.207843	0.570115	
0.00279483	0.150684	0.5	
-0.0835252	0.135066	0.582318	
-0.0419658	0.179631	0.5	
-0.0595377	0.207843	0.570115	
-0.0835252	0.135066	0.582318	
0.00279483	0.150684	0.5	
0.016747	0.116372	0.584632	
-0.0814439	-0.125985	0.575026	
-0.122616	-0.0499791	0.5	
-0.0589256	-0.0589256	0.5	
-0.105887	-0.105887	0.5	
-0.0814439	-0.125985	0.575026	
-0.0589256	-0.0589256	0.5	
-0.122616	-0.0499791	0.5	
-0.0882569	-0.0365572	0.592669	
-0.0103711	-0.392711	0.762225	
-0.050212	-0.252969	0.810638	
0.11106	-0.333093	0.843975	
0.0203259	-0.249482	0.748458	
0.11106	-0.333093	0.843975	
-0.050212	-0.252969	0.810638	
-0.0103711	-0.392711	0.762225	
-0.0603308	-0.338175	0.849262	
0.5	0	0.6	
0.42216	-0.0506005	0.5	
0.5	0	0.5	
0.495101	-0.0698189	0.572379	
0.5	0	0.5	
0.42216	-0.0506005	0.5	
0.5	0	0.6	
0.435719	7.07799e-17	0.5	
0.224036	0.344788	0.789803	
0.374193	0.331632	0.834643	
0.376757	0.328716	0.746468	
0.317206	0.386498	0.799678	
0.224036	0.344788	0.789803	
0.376757	0.328716	0.746468	
0.374193	0.331632	0.834643	
0.241126	0.246812	0.788674	
0.255127	-0.0374614	0.810965	
0.111146	-0.0163362	0.82287	
0.135395	0.0692853	0.814132	
0.204037	0.0208987	0.737245	
0.135395	0.0692853	0.814132	
0.111146	-0.0163362	0.82287	
0.255127	-0.0374614	0.810965	
0.183683	-0.0446088	0.866852	
0.351409	-0.224603	0.596537	
0.237843	-0.32244	0.584415	
0.332733	-0.27561	0.5	
0.388274	-0.315029	0.579193	
0.332733	-0.27561	0.5	
0.237843	-0.32244	0.584415	
0.351409	-0.224603	0.596537	
0.26032	-0.233647	0.595602	
0.41725	0.0179908	0.649594	
0.431857	0.0465403	0.5	
0.366719	0.098872	0.62645	
0.495293	0.0684459	0.568597	
0.41725	0.0179908	0.649594	
0.366719	0.098872	0.62645	
0.431857	0.0465403	0.5	
0.350518	0.0203259	0.577676	
-0.220163	-0.339708	0.738499	
-0.231974	-0.22452	0.832256	
-0.323938	-0.380873	0.847739	
-0.182538	-0.337413	0.833302	
-0.220163	-0.339708	0.738499	
-0.323938	-0.380873	0.847739	
-0.231974	-0.22452	0.832256	
-0.288147	-0.263663	0.736531	
0.431857	0.0465403	0.5	
0.350518	0.0203259	0.577676	
0.418309	0.121276	0.5	
0.358926	0.0589256	0.5	
0.431857	0.0465403	0.5	
0.418309	0.121276	0.5	
0.350518	0.0203259	0.577676	
0.366719	0.098872	0.62645	
0.350601	0.12216	0.5	
0.418309	0.121276	0.5	
0.350518	0.0203259	0.577676	
0.358926	0.0589256	0.5	
0.350601	0.12216	0.5	
0.350518	0.0203259	0.577676	
0.418309	0.121276	0.5	
0.366719	0.098872	0.62645	
0.0195373	0.0477919	0.562256	
0.0535407	0.120642	0.5	
0.0882618	0.0365592	0.582606	
0.0589256	0.0589256	0.5	
0.0195373	0.0477919	0.562256	
0.0882618	0.0365592	0.582606	
0.0535407	0.120642	0.5	
0.016747	0.116372	0.584632	
0.374193	0.331632	0.834643	
0.224036	0.344788	0.789803	
0.3168	0.386831	0.895903	
0.317206	0.386498	0.799678	
0.3168	0.386831	0.895903	
0.224036	0.344788	0.789803	
0.374193	0.331632	0.834643	
0.307884	0.246632	0.880034	
0.156034	0.0430169	0.909981	
0.140223	0.195959	0.866253	
0.135395	0.0692853	0.814132	
0.067514	0.114479	0.890799	
0.156034	0.0430169	0.909981	
0.135395	0.0692853	0.814132	
0.140223	0.195959	0.866253	
0.226887	0.111044	0.884387	
-0.317233	0.386476	0.909527	
-0.201912	0.369986	1	
-0.277785	0.415735	1	
-0.273315	0.334955	1	
-0.277785	0.415735	1	
-0.201912	0.369986	1	
-0.317233	0.386476	0.909527	
-0.235698	0.440961	0.931431	
0.431857	0.0465403	0.5	
0.5	0	0.6	
0.5	0	0.5	
0.495293	0.0684459	0.568597	
0.431857	0.0465403	0.5	
0.5	0	0.5	
0.5	0	0.6	
0.435719	7.07799e-17	0.5	
0.268393	-0.334301	1	
0.386505	-0.317197	0.931175	
0.214973	-0.334693	0.892974	
0.314857	-0.257449	1	
0.214973	-0.334693	0.892974	
0.386505	-0.317197	0.931175	
0.268393	-0.334301	1	
0.317233	-0.386476	0.909527	
-0.220163	-0.339708	0.738499	
-0.277785	-0.415735	0.634138	
-0.217356	-0.450285	0.644698	
-0.257824	-0.4284	0.704976	
-0.220163	-0.339708	0.738499	
-0.217356	-0.450285	0.644698	
-0.277785	-0.415735	0.634138	
-0.2318	-0.328499	0.599609	
-0.268272	0.128138	0.588733	
-0.241074	0.0589256	0.5	
-0.3	0.0833333	0.5	
-0.256066	0.106066	0.5	
-0.268272	0.128138	0.588733	
-0.3	0.0833333	0.5	
-0.241074	0.0589256	0.5	
-0.259187	0.0363748	0.591328	
0.0967579	0.384129	0.574883	
0	0.5	0.6	
0.0465403	0.431857	0.5	
0.0203259	0.350518	0.595017	
0.0967579	0.384129	0.574883	
0.0465403	0.431857	0.5	
0	0.5	0.6	
0.0704482	0.495012	0.571845	
-0.0589256	-0.358926	0.5	
0.0212569	-0.409526	0.586364	
-0.03759	-0.31517	0.5	
-0.00306262	-0.296003	0.5718	
-0.0589256	-0.358926	0.5	
-0.03759	-0.31517	0.5	
0.0212569	-0.409526	0.586364	
-5.51091e-17	-0.383333	0.5	
0.0092772	-0.322397	0.5	
-0.03759	-0.31517	0.5	
0.0212569	-0.409526	0.586364	
-0.00306262	-0.296003	0.5718	
0.0092772	-0.322397	0.5	
0.0212569	-0.409526	0.586364	
-0.03759	-0.31517	0.5	
-5.51091e-17	-0.383333	0.5	
0.111962	-0.272347	0.754919	
0.0761744	-0.268448	0.622464	
0.0203259	-0.249482	0.748458	
0.0780409	-0.210867	0.691426	
0.111962	-0.272347	0.754919	
0.0203259	-0.249482	0.748458	
0.0761744	-0.268448	0.622464	
0.0883483	-0.356203	0.717872	
0.337634	0.115561	1	
0.259967	0.0147254	0.905038	
0.346509	0.0237889	1	
0.276476	0.0535537	1	
0.346509	0.0237889	1	
0.259967	0.0147254	0.905038	
0.337634	0.115561	1	
0.388745	0.0776039	0.89546	
-0.00334546	-0.102756	0.895053	
0.00183684	-0.222331	1	
-0.0925337	-0.196451	1	
0.00964811	-0.213747	0.871732	
-0.00334546	-0.102756	0.895053	
-0.0925337	-0.196451	1	
0.00183684	-0.222331	1	
-0.0232782	-0.127584	1	
-0.302751	0.261742	0.582968	
-0.234529	0.221409	0.5	
-0.181622	0.273954	0.57406	
-0.212186	0.200864	0.578994	
-0.302751	0.261742	0.582968	
-0.181622	0.273954	0.57406	
-0.234529	0.221409	0.5	
-0.271058	0.271058	0.5	
0.261819	0.319027	1	
0.158987	0.372754	0.909796	
0.189613	0.313662	1	
0.202324	0.378521	1	
0.189613	0.313662	1	
0.158987	0.372754	0.909796	
0.261819	0.319027	1	
0.20334	0.284476	0.892831	
0.12725	0.243321	0.66402	
0.0271287	0.256687	0.590103	
0.107888	0.321356	0.639747	
0.106333	0.267511	0.579786	
0.12725	0.243321	0.66402	
0.107888	0.321356	0.639747	
0.0271287	0.256687	0.590103	
0.0297419	0.247817	0.680143	
-0.261224	0.0578819	0.892654	
-0.328307	0.16356	1	
-0.337562	0.0547633	1	
-0.257956	0.116321	1	
-0.261224	0.0578819	0.892654	
-0.337562	0.0547633	1	
-0.328307	0.16356	1	
-0.3732	0.0934614	0.886553	
-0.259249	-0.00709893	0.664249	
-0.38814	0.0365087	0.609899	
-0.323059	-0.0556697	0.636381	
-0.354135	0.0170578	0.71226	
-0.259249	-0.00709893	0.664249	
-0.323059	-0.0556697	0.636381	
-0.38814	0.0365087	0.609899	
-0.32522	-0.00468432	0.575656	
-0.0814439	-0.125985	0.575026	
-0.15347	-0.097127	0.5	
-0.122616	-0.0499791	0.5	
-0.105887	-0.105887	0.5	
-0.0814439	-0.125985	0.575026	
-0.122616	-0.0499791	0.5	
-0.15347	-0.097127	0.5	
-0.158586	-0.105655	0.59825	
0.0465403	0.431857	0.5	
0	0.5	0.6	
0	0.5	0.5	
6.08826e-17	0.43599	0.5	
0.0465403	0.431857	0.5	
0	0.5	0.5	
0	0.5	0.6	
0.0704482	0.495012	0.571845	
0.350518	0.0203259	0.577676	
0.42216	-0.0506005	0.5	
0.321349	-0.0500942	0.566645	
0.383333	0	0.5	
0.350518	0.0203259	0.577676	
0.321349	-0.0500942	0.566645	
0.42216	-0.0506005	0.5	
0.385774	-0.0819641	0.609834	
0.237843	-0.32244	0.584415	
0.374193	-0.331632	0.665357	
0.317206	-0.386498	0.700322	
0.3168	-0.386831	0.604097	
0.237843	-0.32244	0.584415	
0.317206	-0.386498	0.700322	
0.374193	-0.331632	0.665357	
0.292602	-0.250468	0.688523	
-0.14162	-0.0686737	0.672454	
-0.259249	-0.00709893	0.664249	
-0.244257	-0.0838675	0.585674	
-0.220621	-0.0913842	0.726535	
-0.244257	-0.0838675	0.585674	
-0.259249	-0.00709893	0.664249	
-0.14162	-0.0686737	0.672454	
-0.18468	-0.0140346	0.624264	
0.294198	-0.285672	0.778149	
0.193272	-0.26142	0.670684	
0.317206	-0.386498	0.700322	
0.200775	-0.327859	0.767733	
0.294198	-0.285672	0.778149	
0.317206	-0.386498	0.700322	
0.193272	-0.26142	0.670684	
0.292602	-0.250468	0.688523	
0.0373069	0.315853	0.5	
0.106333	0.267511	0.579786	
0.0589256	0.241074	0.5	
0.0833333	0.3	0.5	
0.0589256	0.241074	0.5	
0.106333	0.267511	0.579786	
0.0373069	0.315853	0.5	
0.0271287	0.256687	0.590103	
0.313135	-0.131023	0.572624	
0.249439	-0.196279	0.5	
0.186731	-0.150807	0.612641	
0.271058	-0.153206	0.5	
0.313135	-0.131023	0.572624	
0.186731	-0.150807	0.612641	
0.249439	-0.196279	0.5	
0.26032	-0.233647	0.595602	
-0.350407	-0.154201	0.605376	
-0.295465	-0.212132	0.5	
-0.381086	-0.210299	0.5	
-0.334293	-0.161532	0.5	
-0.350407	-0.154201	0.605376	
-0.381086	-0.210299	0.5	
-0.295465	-0.212132	0.5	
-0.303215	-0.24986	0.599065	
0.376293	0.169886	0.910318	
0.328092	0.270243	1	
0.300884	0.198715	1	
0.373926	0.198925	1	
0.376293	0.169886	0.910318	
0.300884	0.198715	1	
0.328092	0.270243	1	
0.307884	0.246632	0.880034	
-0.201912	0.369986	1	
-0.153328	0.47591	0.90763	
-0.191342	0.46194	1	
-0.118932	0.39861	1	
-0.201912	0.369986	1	
-0.191342	0.46194	1	
-0.153328	0.47591	0.90763	
-0.235698	0.440961	0.931431	
-0.0559694	0.29198	0.588124	
-0.0968356	0.250534	0.697531	
-0.144987	0.358562	0.621326	
-0.123171	0.237068	0.613094	
-0.144987	0.358562	0.621326	
-0.0968356	0.250534	0.697531	
-0.0559694	0.29198	0.588124	
-0.0411735	0.316432	0.673786	
-0.23213	0.339095	0.696865	
-0.374193	0.331632	0.665357	
-0.265307	0.263707	0.765082	
-0.317206	0.386498	0.700322	
-0.23213	0.339095	0.696865	
-0.265307	0.263707	0.765082	
-0.374193	0.331632	0.665357	
-0.317726	0.256883	0.685229	
-0.376757	0.328716	0.753532	
-0.265307	0.263707	0.765082	
-0.374193	0.331632	0.665357	
-0.317206	0.386498	0.700322	
-0.376757	0.328716	0.753532	
-0.374193	0.331632	0.665357	
-0.265307	0.263707	0.765082	
-0.317726	0.256883	0.685229	
-0.0595377	0.207843	0.570115	
-0.0559694	0.29198	0.588124	
1.83697e-17	0.216667	0.5	
-0.03759	0.28483	0.5	
-0.0595377	0.207843	0.570115	
1.83697e-17	0.216667	0.5	
-0.0559694	0.29198	0.588124	
0.0271287	0.256687	0.590103	
0.0092772	0.277603	0.5	
1.83697e-17	0.216667	0.5	
-0.0559694	0.29198	0.588124	
-0.03759	0.28483	0.5	
0.0092772	0.277603	0.5	
-0.0559694	0.29198	0.588124	
1.83697e-17	0.216667	0.5	
0.0271287	0.256687	0.590103	
0.125573	-0.41396	1	
0.235698	-0.440961	0.931431	
0.214973	-0.334693	0.892974	
0.194604	-0.371188	1	
0.125573	-0.41396	1	
0.214973	-0.334693	0.892974	
0.235698	-0.440961	0.931431	
0.153328	-0.47591	0.90763	
0.121351	-0.418264	0.5	
0.228991	-0.444481	0.591901	
0.154681	-0.352429	0.61086	
0.146853	-0.477948	0.584008	
0.121351	-0.418264	0.5	
0.154681	-0.352429	0.61086	
0.228991	-0.444481	0.591901	
0.196736	-0.368707	0.5	
-0.121351	0.418264	0.5	
-0.228991	0.444481	0.591901	
-0.144987	0.358562	0.621326	
-0.146853	0.477948	0.584008	
-0.144987	0.358562	0.621326	
-0.228991	0.444481	0.591901	
-0.121351	0.418264	0.5	
-0.196736	0.368707	0.5	
-0.444481	-0.228991	0.591901	
-0.399482	-0.123001	0.5	
-0.46194	-0.191342	0.5	
-0.477948	-0.146853	0.584008	
-0.46194	-0.191342	0.5	
-0.399482	-0.123001	0.5	
-0.444481	-0.228991	0.591901	
-0.381086	-0.210299	0.5	
-0.250033	-0.160772	0.906432	
-0.356684	-0.19351	1	
-0.261345	-0.230036	1	
-0.278713	-0.14304	1	
-0.250033	-0.160772	0.906432	
-0.261345	-0.230036	1	
-0.356684	-0.19351	1	
-0.317305	-0.233685	0.899359	
-0.270142	-0.144141	0.791801	
-0.317305	-0.233685	0.899359	
-0.250033	-0.160772	0.906432	
-0.340074	-0.13507	0.859051	
-0.270142	-0.144141	0.791801	
-0.250033	-0.160772	0.906432	
-0.317305	-0.233685	0.899359	
-0.231974	-0.22452	0.832256	
-0.398806	-0.103684	0.671654	
-0.470668	-0.168734	0.798219	
-0.492649	-0.0854243	0.748597	
-0.468495	-0.174678	0.682891	
-0.398806	-0.103684	0.671654	
-0.492649	-0.0854243	0.748597	
-0.470668	-0.168734	0.798219	
-0.387166	-0.0714815	0.763327	
-0.0220267	-0.0501213	0.56323	
-0.0833333	0	0.5	
-0.0524491	0.0544183	0.580273	
-0.03759	-0.01517	0.5	
-0.0220267	-0.0501213	0.56323	
-0.0524491	0.0544183	0.580273	
-0.0833333	0	0.5	
-0.0882569	-0.0365572	0.592669	
-0.106066	0.256066	0.5	
-0.0595377	0.207843	0.570115	
-0.0833333	0.3	0.5	
-0.0559694	0.29198	0.588124	
-0.106066	0.256066	0.5	
-0.0833333	0.3	0.5	
-0.0595377	0.207843	0.570115	
-0.0589256	0.241074	0.5	
-0.03759	0.28483	0.5	
-0.0833333	0.3	0.5	
-0.0595377	0.207843	0.570115	
-0.0559694	0.29198	0.588124	
-0.03759	0.28483	0.5	
-0.0595377	0.207843	0.570115	
-0.0833333	0.3	0.5	
-0.0589256	0.241074	0.5	
0.379144	0.136793	0.743369	
0.428195	0.258165	0.701755	
0.4284	0.257824	0.795024	
0.460548	0.194667	0.73433	
0.379144	0.136793	0.743369	
0.4284	0.257824	0.795024	
0.428195	0.258165	0.701755	
0.322027	0.213397	0.712919	
0.386505	0.317197	0.568825	
0.252165	0.322355	0.613309	
0.380873	0.323938	0.652261	
0.317233	0.386476	0.590473	
0.380873	0.323938	0.652261	
0.252165	0.322355	0.613309	
0.386505	0.317197	0.568825	
0.300272	0.248641	0.604822	
0.478555	-0.144862	0.921652	
0.383529	-0.130684	0.812713	
0.493389	-0.0810399	0.85285	
0.469721	-0.171353	0.838334	
0.493389	-0.0810399	0.85285	
0.383529	-0.130684	0.812713	
0.478555	-0.144862	0.921652	
0.388259	-0.0686204	0.893717	
CELLS 5959 29795
4	0	1	2	3	
4	4	5	6	7	
4	8	9	10	11	
4	12	13	14	15	
4	16	17	18	19	
4	20	21	22	23	
4	24	25	26	27	
4	28	29	30	31	
4	32	33	34	35	
4	36	37	38	39	
4	40	41	42	43	
4	44	45	46	47	
4	48	49	50	51	
4	52	53	54	55	
4	56	57	58	59	
4	60	61	62	63	
4	64	65	66	67	
4	68	69	70	71	
4	72	73	74	75	
4	76	77	78	79	
4	80	81	82	83	
4	84	85	86	87	
4	88	89	90	91	
4	92	93	94	95	
4	96	97	98	99	
4	100	101	102	103	
4	104	105	106	107	
4	108	109	110	111	
4	112	113	114	115	
4	116	117	118	119	
4	120	121	122	123	
4	124	125	126	127	
4	128	129	130	131	
4	132	133	134	135	
4	136	137	138	139	
4	140	141	142	143	
4	144	145	146	147	
4	148	149	150	151	
4	152	153	154	155	
4	156	157	158	159	
4	160	161	162	163	
4	164	165	166	167	
4	168	169	170	171	
4	172	173	174	175	
4	176	177	178	179	
4	180	181	182	183	
4	184	185	186	187	
4	188	189	190	191	
4	192	193	194	195	
4	196	197	198	199	
4	200	201	202	203	
4	204	205	206	207	
4	208	209	210	211	
4	212	213	214	215	
4	216	217	218	219	
4	220	221	222	223	
4	224	225	226	227	
4	228	229	230	231	
4	232	233	234	235	
4	236	237	238	239	
4	240	241	242	243	
4	244	245	246	247	
4	248	249	250	251	
4	252	253	254	255	
4	256	257	258	259	
4	260	261	262	263	
4	264	265	266	267	
4	268	269	270	271	
4	272	273	274	275	
4	276	277	278	279	
4	280	281	282	283	
4	284	285	286	287	
4	288	289	290	291	
4	292	293	294	295	
4	296	297	298	299	
4	300	301	302	303	
4	304	305	306	307	
4	308	309	310	311	
4	312	313	314	315	
4	316	317	318	319	
4	320	321	322	323	
4	324	325	326	327	
4	328	329	330	331	
4	332	333	334	335	
4	336	337	338	339	
4	340	341	342	343	
4	344	345	346	347	
4	348	349	350	351	
4	352	353	354	355	
4	356	357	358	359	
4	360	361	362	363	
4	364	365	366	367	
4	368	369	370	371	
4	372	373	374	375	
4	376	377	378	379	
4	380	381	382	383	
4	384	385	386	387	
4	388	389	390	391	
4	392	393	394	395	
4	396	397	398	399	
4	400	401	402	403	
4	404	405	406	407	
4	408	409	410	411	
4	412	413	414	415	
4	416	417	418	419	
4	420	421	422	423	
4	424	425	426	427	
4	428	429	430	431	
4	432	433	434	435	
4	436	437	438	439	
4	440	441	442	443	
4	444	445	446	447	
4	448	449	450	451	
4	452	453	454	455	
4	456	457	458	459	
4	460	461	462	463	
4	464	465	466	467	
4	468	469	470	471	
4	472	473	474	475	
4	476	477	478	479	
4	480	481	482	483	
4	484	485	486	487	
4	488	489	490	491	
4	492	493	494	495	
4	496	497	498	499	
4	500	501	502	503	
4	504	505	506	507	
4	508	509	510	511	
4	512	513	514	515	
4	516	517	518	519	
4	520	521	522	523	
4	524	525	526	527	
4	528	529	530	531	
4	532	533	534	535	
4	536	537	538	539	
4	540	541	542	543	
4	544	545	546	547	
4	548	549	550	551	
4	552	553	554	555	
4	556	557	558	559	
4	560	561	562	563	
4	564	565	566	567	
4	568	569	570	571	
4	572	573	574	575	
4	576	577	578	579	
4	580	581	582	583	
4	584	585	586	587	
4	588	589	590	591	
4	592	593	594	595	
4	596	597	598	599	
4	600	601	602	603	
4	604	605	606	607	
4	608	609	610	611	
4	612	613	614	615	
4	616	617	618	619	
4	620	621	622	623	
4	624	625	626	627	
4	628	629	630	631	
4	632	633	634	635	
4	636	637	638	639	
4	640	641	642	643	
4	644	645	646	647	
4	648	649	650	651	
4	652	653	654	655	
4	656	657	658	659	
4	660	661	662	663	
4	664	665	666	667	
4	668	669	670	671	
4	672	673	674	675	
4	676	677	678	679	
4	680	681	682	683	
4	684	685	686	687	
4	688	689	690	691	
4	692	693	694	695	
4	696	697	698	699	
4	700	701	702	703	
4	704	705	706	707	
4	708	709	710	711	
4	712	713	714	715	
4	716	717	718	719	
4	720	721	722	723	
4	724	725	726	727	
4	728	729	730	731	
4	732	733	734	735	
4	736	737	738	739	
4	740	741	742	743	
4	744	745	746	747	
4	748	749	750	751	
4	752	753	754	755	
4	756	757	758	759	
4	760	761	762	763	
4	764	765	766	767	
4	768	769	770	771	
4	772	773	774	775	
4	776	777	778	779	
4	780	781	782	783	
4	784	785	786	787	
4	788	789	790	791	
4	792	793	794	795	
4	796	797	798	799	
4	800	801	802	803	
4	804	805	806	807	
4	808	809	810	811	
4	812	813	814	815	
4	816	817	818	819	
4	820	821	822	823	
4	824	825	826	827	
4	828	829	830	831	
4	832	833	834	835	
4	836	837	838	839	
4	840	841	842	843	
4	844	845	846	847	
4	848	849	850	851	
4	852	853	854	855	
4	856	857	858	859	
4	860	861	862	863	
4	864	865	866	867	
4	868	869	870	871	
4	872	873	874	875	
4	876	877	878	879	
4	880	881	882	883	
4	884	885	886	887	
4	888	889	890	891	
4	892	893	894	895	
4	896	897	898	899	
4	900	901	902	903	
4	904	905	906	907	
4	908	909	910	911	
4	912	913	914	915	
4	916	917	918	919	
4	920	921	922	923	
4	924	925	926	927	
4	928	929	930	931	
4	932	933	934	935	
4	936	937	938	939	
4	940	941	942	943	
4	944	945	946	947	
4	948	949	950	951	
4	952	953	954	955	
4	956	957	958	959	
4	960	961	962	963	
4	964	965	966	967	
4	968	969	970	971	
4	972	973	974	975	
4	976	977	978	979	
4	980	981	982	983	
4	984	985	986	987	
4	988	989	990	991	
4	992	993	994	995	
4	996	997	998	999	
4	1000	1001	1002	1003	
4	1004	1005	1006	1007	
4	1008	1009	1010	1011	
4	1012	1013	1014	1015	
4	1016	1017	1018	1019	
4	1020	1021	1022	1023	
4	1024	1025	1026	1027	
4	1028	1029	1030	1031	
4	1032	1033	1034	1035	
4	1036	1037	1038	1039	
4	1040	1041	1042	1043	
4	1044	1045	1046	1047	
4	1048	1049	1050	1051	
4	1052	1053	1054	1055	
4	1056	1057	1058	1059	
4	1060	1061	1062	1063	
4	1064	1065	1066	1067	
4	1068	1069	1070	1071	
4	1072	1073	1074	1075	
4	1076	1077	1078	1079	
4	1080	1081	1082	1083	
4	1084	1085	1086	1087	
4	1088	1089	1090	1091	
4	1092	1093	1094	1095	
4	1096	1097	1098	1099	
4	1100	1101	1102	1103	
4	1104	1105	1106	1107	
4	1108	1109	1110	1111	
4	1112	1113	1114	1115	
4	1116	1117	1118	1119	
4	1120	1121	1122	1123	
4	1124	1125	1126	1127	
4	1128	1129	1130	1131	
4	1132	1133	1134	1135	
4	1136	1137	1138	1139	
4	1140	1141	1142	1143	
4	1144	1145	1146	1147	
4	1148	1149	1150	1151	
4	1152	1153	1154	1155	
4	1156	1157	1158	1159	
4	1160	1161	1162	1163	
4	1164	1165	1166	1167	
4	1168	1169	1170	1171	
4	1172	1173	1174	1175	
4	1176	1177	1178	1179	
4	1180	1181	1182	1183	
4	1184	1185	1186	1187	
4	1188	1189	1190	1191	
4	1192	1193	1194	1195	
4	1196	1197	1198	1199	
4	1200	1201	1202	1203	
4	1204	1205	1206	1207	
4	1208	1209	1210	1211	
4	1212	1213	1214	1215	
4	1216	1217	1218	1219	
4	1220	1221	1222	1223	
4	1224	1225	1226	1227	
4	1228	1229	1230	1231	
4	1232	1233	1234	1235	
4	1236	1237	1238	1239	
4	1240	1241	1242	1243	
4	1244	1245	1246	1247	
4	1248	1249	1250	1251	
4	1252	1253	1254	1255	
4	1256	1257	1258	1259	
4	1260	1261	1262	1263	
4	1264	1265	1266	1267	
4	1268	1269	1270	1271	
4	1272	1273	1274	1275	
4	1276	1277	1278	1279	
4	1280	1281	1282	1283	
4	1284	1285	1286	1287	
4	1288	1289	1290	1291	
4	1292	1293	1294	1295	
4	1296	1297	1298	1299	
4	1300	1301	1302	1303	
4	1304	1305	1306	1307	
4	1308	1309	1310	1311	
4	1312	1313	1314	1315	
4	1316	1317	1318	1319	
4	1320	1321	1322	1323	
4	1324	1325	1326	1327	
4	1328	1329	1330	1331	
4	1332	1333	1334	1335	
4	1336	1337	1338	1339	
4	1340	1341	1342	1343	
4	1344	1345	1346	1347	
4	1348	1349	1350	1351	
4	1352	1353	1354	1355	
4	1356	1357	1358	1359	
4	1360	1361	1362	1363	
4	1364	1365	1366	1367	
4	1368	1369	1370	1371	
4	1372	1373	1374	1375	
4	1376	1377	1378	1379	
4	1380	1381	1382	1383	
4	1384	1385	1386	1387	
4	1388	1389	1390	1391	
4	1392	1393	1394	1395	
4	1396	1397	1398	1399	
4	1400	1401	1402	1403	
4	1404	1405	1406	1407	
4	1408	1409	1410	1411	
4	1412	1413	1414	1415	
4	1416	1417	1418	1419	
4	1420	1421	1422	1423	
4	1424	1425	1426	1427	
4	1428	1429	1430	1431	
4	1432	1433	1434	1435	
4	1436	1437	1438	1439	
4	1440	1441	1442	1443	
4	1444	1445	1446	1447	
4	1448	1449	1450	1451	
4	1452	1453	1454	1455	
4	1456	1457	1458	1459	
4	1460	1461	1462	1463	
4	1464	1465	1466	1467	
4	1468	1469	1470	1471	
4	1472	1473	1474	1475	
4	1476	1477	1478	1479	
4	1480	1481	1482	1483	
4	1484	1485	1486	1487	
4	1488	1489	1490	1491	
4	1492	1493	1494	1495	
4	1496	1497	1498	1499	
4	1500	1501	1502	1503	
4	1504	1505	1506	1507	
4	1508	1509	1510	1511	
4	1512	1513	1514	1515	
4	1516	1517	1518	1519	
4	1520	1521	1522	1523	
4	1524	1525	1526	1527	
4	1528	1529	1530	1531	
4	1532	1533	1534	1535	
4	1536	1537	1538	1539	
4	1540	1541	1542	1543	
4	1544	1545	1546	1547	
4	1548	1549	1550	1551	
4	1552	1553	1554	1555	
4	1556	1557	1558	1559	
4	1560	1561	1562	1563	
4	1564	1565	1566	1567	
4	1568	1569	1570	1571	
4	1572	1573	1574	1575	
4	1576	1577	1578	1579	
4	1580	1581	1582	1583	
4	1584	1585	1586	1587	
4	1588	1589	1590	1591	
4	1592	1593	1594	1595	
4	1596	1597	1598	1599	
4	1600	1601	1602	1603	
4	1604	1605	1606	1607	
4	1608	1609	1610	1611	
4	1612	1613	1614	1615	
4	1616	1617	1618	1619	
4	1620	1621	1622	1623	
4	1624	1625	1626	1627	
4	1628	1629	1630	1631	
4	1632	1633	1634	1635	
4	1636	1637	1638	1639	
4	1640	1641	1642	1643	
4	1644	1645	1646	1647	
4	1648	1649	1650	1651	
4	1652	1653	1654	1655	
4	1656	1657	1658	1659	
4	1660	1661	1662	1663	
4	1664	1665	1666	1667	
4	1668	1669	1670	1671	
4	1672	1673	1674	1675	
4	1676	1677	1678	1679	
4	1680	1681	1682	1683	
4	1684	1685	1686	1687	
4	1688	1689	1690	1691	
4	1692	1693	1694	1695	
4	1696	1697	1698	1699	
4	1700	1701	1702	1703	
4	1704	1705	1706	1707	
4	1708	1709	1710	1711	
4	1712	1713	1714	1715	
4	1716	1717	1718	1719	
4	1720	1721	1722	1723	
4	1724	1725	1726	1727	
4	1728	1729	1730	1731	
4	1732	1733	1734	1735	
4	1736	1737	1738	1739	
4	1740	1741	1742	1743	
4	1744	1745	1746	1747	
4	1748	1749	1750	1751	
4	1752	1753	1754	1755	
4	1756	1757	1758	1759	
4	1760	1761	1762	1763	
4	1764	1765	1766	1767	
4	1768	1769	1770	1771	
4	1772	1773	1774	1775	
4	1776	1777	1778	1779	
4	1780	1781	1782	1783	
4	1784	1785	1786	1787	
4	1788	1789	1790	1791	
4	1792	1793	1794	1795	
4	1796	1797	1798	1799	
4	1800	1801	1802	1803	
4	1804	1805	1806	1807	
4	1808	1809	1810	1811	
4	1812	1813	1814	1815	
4	1816	1817	1818	1819	
4	1820	1821	1822	1823	
4	1824	1825	1826	1827	
4	1828	1829	1830	1831	
4	1832	1833	1834	1835	
4	1836	1837	1838	1839	
4	1840	1841	1842	1843	
4	1844	1845	1846	1847	
4	1848	1849	1850	1851	
4	1852	1853	1854	1855	
4	1856	1857	1858	1859	
4	1860	1861	1862	1863	
4	1864	1865	1866	1867	
4	1868	1869	1870	1871	
4	1872	1873	1874	1875	
4	1876	1877	1878	1879	
4	1880	1881	1882	1883	
4	1884	1885	1886	1887	
4	1888	1889	1890	1891	
4	1892	1893	1894	1895	
4	1896	1897	1898	1899	
4	1900	1901	1902	1903	
4	1904	1905	1906	1907	
4	1908	1909	1910	1911	
4	1912	1913	1914	1915	
4	1916	1917	1918	1919	
4	1920	1921	1922	1923	
4	1924	1925	1926	1927	
4	1928	1929	1930	1931	
4	1932	1933	1934	1935	
4	1936	1937	1938	1939	
4	1940	1941	1942	1943	
4	1944	1945	1946	1947	
4	1948	1949	1950	1951	
4	1952	1953	1954	1955	
4	1956	1957	1958	1959	
4	1960	1961	1962	1963	
4	1964	1965	1966	1967	
4	1968	1969	1970	1971	
4	1972	1973	1974	1975	
4	1976	1977	1978	1979	
4	1980	1981	1982	1983	
4	1984	1985	1986	1987	
4	1988	1989	1990	1991	
4	1992	1993	1994	1995	
4	1996	1997	1998	1999	
4	2000	2001	2002	2003	
4	2004	2005	2006	2007	
4	2008	2009	2010	2011	
4	2012	2013	2014	2015	
4	2016	2017	2018	2019	
4	2020	2021	2022	2023	
4	2024	2025	2026	2027	
4	2028	2029	2030	2031	
4	2032	2033	2034	2035	
4	2036	2037	2038	2039	
4	2040	2041	2042	2043	
4	2044	2045	2046	2047	
4	2048	2049	2050	2051	
4	2052	2053	2054	2055	
4	2056	2057	2058	2059	
4	2060	2061	2062	2063	
4	2064	2065	2066	2067	
4	2068	2069	2070	2071	
4	2072	2073	2074	2075	
4	2076	2077	2078	2079	
4	2080	2081	2082	2083	
4	2084	2085	2086	2087	
4	2088	2089	2090	2091	
4	2092	2093	2094	2095	
4	2096	2097	2098	2099	
4	2100	2101	2102	2103	
4	2104	2105	2106	2107	
4	2108	2109	2110	2111	
4	2112	2113	2114	2115	
4	2116	2117	2118	2119	
4	2120	2121	2122	2123	
4	2124	2125	2126	2127	
4	2128	2129	2130	2131	
4	2132	2133	2134	2135	
4	2136	2137	2138	2139	
4	2140	2141	2142	2143	
4	2144	2145	2146	2147	
4	2148	2149	2150	2151	
4	2152	2153	2154	2155	
4	2156	2157	2158	2159	
4	2160	2161	2162	2163	
4	2164	2165	2166	2167	
4	2168	2169	2170	2171	
4	2172	2173	2174	2175	
4	2176	2177	2178	2179	
4	2180	2181	2182	2183	
4	2184	2185	2186	2187	
4	2188	2189	2190	2191	
4	2192	2193	2194	2195	
4	2196	2197	2198	2199	
4	2200	2201	2202	2203	
4	2204	2205	2206	2207	
4	2208	2209	2210	2211	
4	2212	2213	2214	2215	
4	2216	2217	2218	2219	
4	2220	2221	2222	2223	
4	2224	2225	2226	2227	
4	2228	2229	2230	2231	
4	2232	2233	2234	2235	
4	2236	2237	2238	2239	
4	2240	2241	2242	2243	
4	2244	2245	2246	2247	
4	2248	2249	2250	2251	
4	2252	2253	2254	2255	
4	2256	2257	2258	2259	
4	2260	2261	2262	2263	
4	2264	2265	2266	2267	
4	2268	2269	2270	2271	
4	2272	2273	2274	2275	
4	2276	2277	2278	2279	
4	2280	2281	2282	2283	
4	2284	2285	2286	2287	
4	2288	2289	2290	2291	
4	2292	2293	2294	2295	
4	2296	2297	2298	2299	
4	2300	2301	2302	2303	
4	2304	2305	2306	2307	
4	2308	2309	2310	2311	
4	2312	2313	2314	2315	
4	2316	2317	2318	2319	
4	2320	2321	2322	2323	
4	2324	2325	2326	2327	
4	2328	2329	2330	2331	
4	2332	2333	2334	2335	
4	2336	2337	2338	2339	
4	2340	2341	2342	2343	
4	2344	2345	2346	2347	
4	2348	2349	2350	2351	
4	2352	2353	2354	2355	
4	2356	2357	2358	2359	
4	2360	2361	2362	2363	
4	2364	2365	2366	2367	
4	2368	2369	2370	2371	
4	2372	2373	2374	2375	
4	2376	2377	2378	2379	
4	2380	2381	2382	2383	
4	2384	2385	2386	2387	
4	2388	2389	2390	2391	
4	2392	2393	2394	2395	
4	2396	2397	2398	2399	
4	2400	2401	2402	2403	
4	2404	2405	2406	2407	
4	2408	2409	2410	2411	
4	2412	2413	2414	2415	
4	2416	2417	2418	2419	
4	2420	2421	2422	2423	
4	2424	2425	2426	2427	
4	2428	2429	2430	2431	
4	2432	2433	2434	2435	
4	2436	2437	2438	2439	
4	2440	2441	2442	2443	
4	2444	2445	2446	2447	
4	2448	2449	2450	2451	
4	2452	2453	2454	2455	
4	2456	2457	2458	2459	
4	2460	2461	2462	2463	
4	2464	2465	2466	2467	
4	2468	2469	2470	2471	
4	2472	2473	2474	2475	
4	2476	2477	2478	2479	
4	2480	2481	2482	2483	
4	2484	2485	2486	2487	
4	2488	2489	2490	2491	
4	2492	2493	2494	2495	
4	2496	2497	2498	2499	
4	2500	2501	2502	2503	
4	2504	2505	2506	2507	
4	2508	2509	2510	2511	
4	2512	2513	2514	2515	
4	2516	2517	2518	2519	
4	2520	2521	2522	2523	
4	2524	2525	2526	2527	
4	2528	2529	2530	2531	
4	2532	2533	2534	2535	
4	2536	2537	2538	2539	
4	2540	2541	2542	2543	
4	2544	2545	2546	2547	
4	2548	2549	2550	2551	
4	2552	2553	2554	2555	
4	2556	2557	2558	2559	
4	2560	2561	2562	2563	
4	2564	2565	2566	2567	
4	2568	2569	2570	2571	
4	2572	2573	2574	2575	
4	2576	2577	2578	2579	
4	2580	2581	2582	2583	
4	2584	2585	2586	2587	
4	2588	2589	2590	2591	
4	2592	2593	2594	2595	
4	2596	2597	2598	2599	
4	2600	2601	2602	2603	
4	2604	2605	2606	2607	
4	2608	2609	2610	2611	
4	2612	2613	2614	2615	
4	2616	2617	2618	2619	
4	2620	2621	2622	2623	
4	2624	2625	2626	2627	
4	2628	2629	2630	2631	
4	2632	2633	2634	2635	
4	2636	2637	2638	2639	
4	2640	2641	2642	2643	
4	2644	2645	2646	2647	
4	2648	2649	2650	2651	
4	2652	2653	2654	2655	
4	2656	2657	2658	2659	
4	2660	2661	2662	2663	
4	2664	2665	2666	2667	
4	2668	2669	2670	2671	
4	2672	2673	2674	2675	
4	2676	2677	2678	2679	
4	2680	2681	2682	2683	
4	2684	2685	2686	2687	
4	2688	2689	2690	2691	
4	2692	2693	2694	2695	
4	2696	2697	2698	2699	
4	2700	2701	2702	2703	
4	2704	2705	2706	2707	
4	2708	2709	2710	2711	
4	2712	2713	2714	2715	
4	2716	2717	2718	2719	
4	2720	2721	2722	2723	
4	2724	2725	2726	2727	
4	2728	2729	2730	2731	
4	2732	2733	2734	2735	
4	2736	2737	2738	2739	
4	2740	2741	2742	2743	
4	2744	2745	2746	2747	
4	2748	2749	2750	2751	
4	2752	2753	2754	2755	
4	2756	2757	2758	2759	
4	2760	2761	2762	2763	
4	2764	2765	2766	2767	
4	2768	2769	2770	2771	
4	2772	2773	2774	2775	
4	2776	2777	2778	2779	
4	2780	2781	2782	2783	
4	2784	2785	2786	2787	
4	2788	2789	2790	2791	
4	2792	2793	2794	2795	
4	2796	2797	2798	2799	
4	2800	2801	2802	2803	
4	2804	2805	2806	2807	
4	2808	2809	2810	2811	
4	2812	2813	2814	2815	
4	2816	2817	2818	2819	
4	2820	2821	2822	2823	
4	2824	2825	2826	2827	
4	2828	2829	2830	2831	
4	2832	2833	2834	2835	
4	2836	2837	2838	2839	
4	2840	2841	2842	2843	
4	2844	2845	2846	2847	
4	2848	2849	2850	2851	
4	2852	2853	2854	2855	
4	2856	2857	2858	2859	
4	2860	2861	2862	2863	
4	2864	2865	2866	2867	
4	2868	2869	2870	2871	
4	2872	2873	2874	2875	
4	2876	2877	2878	2879	
4	2880	2881	2882	2883	
4	2884	2885	2886	2887	
4	2888	2889	2890	2891	
4	2892	2893	2894	2895	
4	2896	2897	2898	2899	
4	2900	2901	2902	2903	
4	2904	2905	2906	2907	
4	2908	2909	2910	2911	
4	2912	2913	2914	2915	
4	2916	2917	2918	2919	
4	2920	2921	2922	2923	
4	2924	2925	2926	2927	
4	2928	2929	2930	2931	
4	2932	2933	2934	2935	
4	2936	2937	2938	2939	
4	2940	2941	2942	2943	
4	2944	2945	2946	2947	
4	2948	2949	2950	2951	
4	2952	2953	2954	2955	
4	2956	2957	2958	2959	
4	2960	2961	2962	2963	
4	2964	2965	2966	2967	
4	2968	2969	2970	2971	
4	2972	2973	2974	2975	
4	2976	2977	2978	2979	
4	2980	2981	2982	2983	
4	2984	2985	2986	2987	
4	2988	2989	2990	2991	
4	2992	2993	2994	2995	
4	2996	2997	2998	2999	
4	3000	3001	3002	3003	
4	3004	3005	3006	3007	
4	3008	3009	3010	3011	
4	3012	3013	3014	3015	
4	3016	3017	3018	3019	
4	3020	3021	3022	3023	
4	3024	3025	3026	3027	
4	3028	3029	3030	3031	
4	3032	3033	3034	3035	
4	3036	3037	3038	3039	
4	3040	3041	3042	3043	
4	3044	3045	3046	3047	
4	3048	3049	3050	3051	
4	3052	3053	3054	3055	
4	3056	3057	3058	3059	
4	3060	3061	3062	3063	
4	3064	3065	3066	3067	
4	3068	3069	3070	3071	
4	3072	3073	3074	3075	
4	3076	3077	3078	3079	
4	3080	3081	3082	3083	
4	3084	3085	3086	3087	
4	3088	3089	3090	3091	
4	3092	3093	3094	3095	
4	3096	3097	3098	3099	
4	3100	3101	3102	3103	
4	3104	3105	3106	3107	
4	3108	3109	3110	3111	
4	3112	3113	3114	3115	
4	3116	3117	3118	3119	
4	3120	3121	3122	3123	
4	3124	3125	3126	3127	
4	3128	3129	3130	3131	
4	3132	3133	3134	3135	
4	3136	3137	3138	3139	
4	3140	3141	3142	3143	
4	3144	3145	3146	3147	
4	3148	3149	3150	3151	
4	3152	3153	3154	3155	
4	3156	3157	3158	3159	
4	3160	3161	3162	3163	
4	3164	3165	3166	3167	
4	3168	3169	3170	3171	
4	3172	3173	3174	3175	
4	3176	3177	3178	3179	
4	3180	3181	3182	3183	
4	3184	3185	3186	3187	
4	3188	3189	3190	3191	
4	3192	3193	3194	3195	
4	3196	3197	3198	3199	
4	3200	3201	3202	3203	
4	3204	3205	3206	3207	
4	3208	3209	3210	3211	
4	3212	3213	3214	3215	
4	3216	3217	3218	3219	
4	3220	3221	3222	3223	
4	3224	3225	3226	3227	
4	3228	3229	3230	3231	
4	3232	3233	3234	3235	
4	3236	3237	3238	3239	
4	3240	3241	3242	3243	
4	3244	3245	3246	3247	
4	3248	3249	3250	3251	
4	3252	3253	3254	3255	
4	3256	3257	3258	3259	
4	3260	3261	3262	3263	
4	3264	3265	3266	3267	
4	3268	3269	3270	3271	
4	3272	3273	3274	3275	
4	3276	3277	3278	3279	
4	3280	3281	3282	3283	
4	3284	3285	3286	3287	
4	3288	3289	3290	3291	
4	3292	3293	3294	3295	
4	3296	3297	3298	3299	
4	3300	3301	3302	3303	
4	3304	3305	3306	3307	
4	3308	3309	3310	3311	
4	3312	3313	3314	3315	
4	3316	3317	3318	3319	
4	3320	3321	3322	3323	
4	3324	3325	3326	3327	
4	3328	3329	3330	3331	
4	3332	3333	3334	3335	
4	3336	3337	3338	3339	
4	3340	3341	3342	3343	
4	3344	3345	3346	3347	
4	3348	3349	3350	3351	
4	3352	3353	3354	3355	
4	3356	3357	3358	3359	
4	3360	3361	3362	3363	
4	3364	3365	3366	3367	
4	3368	3369	3370	3371	
4	3372	3373	3374	3375	
4	3376	3377	3378	3379	
4	3380	3381	3382	3383	
4	3384	3385	3386	3387	
4	3388	3389	3390	3391	
4	3392	3393	3394	3395	
4	3396	3397	3398	3399	
4	3400	3401	3402	3403	
4	3404	3405	3406	3407	
4	3408	3409	3410	3411	
4	3412	3413	3414	3415	
4	3416	3417	3418	3419	
4	3420	3421	3422	3423	
4	3424	3425	3426	3427	
4	3428	3429	3430	3431	
4	3432	3433	3434	3435	
4	3436	3437	3438	3439	
4	3440	3441	3442	3443	
4	3444	3445	3446	3447	
4	3448	3449	3450	3451	
4	3452	3453	3454	3455	
4	3456	3457	3458	3459	
4	3460	3461	3462	3463	
4	3464	3465	3466	3467	
4	3468	3469	3470	3471	
4	3472	3473	3474	3475	
4	3476	3477	3478	3479	
4	3480	3481	3482	3483	
4	3484	3485	3486	3487	
4	3488	3489	3490	3491	
4	3492	3493	3494	3495	
4	3496	3497	3498	3499	
4	3500	3501	3502	3503	
4	3504	3505	3506	3507	
4	3508	3509	3510	3511	
4	3512	3513	3514	3515	
4	3516	3517	3518	3519	
4	3520	3521	3522	3523	
4	3524	3525	3526	3527	
4	3528	3529	3530	3531	
4	3532	3533	3534	3535	
4	3536	3537	3538	3539	
4	3540	3541	3542	3543	
4	3544	3545	3546	3547	
4	3548	3549	3550	3551	
4	3552	3553	3554	3555	
4	3556	3557	3558	3559	
4	3560	3561	3562	3563	
4	3564	3565	3566	3567	
4	3568	3569	3570	3571	
4	3572	3573	3574	3575	
4	3576	3577	3578	3579	
4	3580	3581	3582	3583	
4	3584	3585	3586	3587	
4	3588	3589	3590	3591	
4	3592	3593	3594	3595	
4	3596	3597	3598	3599	
4	3600	3601	3602	3603	
4	3604	3605	3606	3607	
4	3608	3609	3610	3611	
4	3612	3613	3614	3615	
4	3616	3617	3618	3619	
4	3620	3621	3622	3623	
4	3624	3625	3626	3627	
4	3628	3629	3630	3631	
4	3632	3633	3634	3635	
4	3636	3637	3638	3639	
4	3640	3641	3642	3643	
4	3644	3645	3646	3647	
4	3648	3649	3650	3651	
4	3652	3653	3654	3655	
4	3656	3657	3658	3659	
4	3660	3661	3662	3663	
4	3664	3665	3666	3667	
4	3668	3669	3670	3671	
4	3672	3673	3674	3675	
4	3676	3677	3678	3679	
4	3680	3681	3682	3683	
4	3684	3685	3686	3687	
4	3688	3689	3690	3691	
4	3692	3693	3694	3695	
4	3696	3697	3698	3699	
4	3700	3701	3702	3703	
4	3704	3705	3706	3707	
4	3708	3709	3710	3711	
4	3712	3713	3714	3715	
4	3716	3717	3718	3719	
4	3720	3721	3722	3723	
4	3724	3725	3726	3727	
4	3728	3729	3730	3731	
4	3732	3733	3734	3735	
4	3736	3737	3738	3739	
4	3740	3741	3742	3743	
4	3744	3745	3746	3747	
4	3748	3749	3750	3751	
4	3752	3753	3754	3755	
4	3756	3757	3758	3759	
4	3760	3761	3762	3763	
4	3764	3765	3766	3767	
4	3768	3769	3770	3771	
4	3772	3773	3774	3775	
4	3776	3777	3778	3779	
4	3780	3781	3782	3783	
4	3784	3785	3786	3787	
4	3788	3789	3790	3791	
4	3792	3793	3794	3795	
4	3796	3797	3798	3799	
4	3800	3801	3802	3803	
4	3804	3805	3806	3807	
4	3808	3809	3810	3811	
4	3812	3813	3814	3815	
4	3816	3817	3818	3819	
4	3820	3821	3822	3823	
4	3824	3825	3826	3827	
4	3828	3829	3830	3831	
4	3832	3833	3834	3835	
4	3836	3837	3838	3839	
4	3840	3841	3842	3843	
4	3844	3845	3846	3847	
4	3848	3849	3850	3851	
4	3852	3853	3854	3855	
4	3856	3857	3858	3859	
4	3860	3861	3862	3863	
4	3864	3865	3866	3867	
4	3868	3869	3870	3871	
4	3872	3873	3874	3875	
4	3876	3877	3878	3879	
4	3880	3881	3882	3883	
4	3884	3885	3886	3887	
4	3888	3889	3890	3891	
4	3892	3893	3894	3895	
4	3896	3897	3898	3899	
4	3900	3901	3902	3903	
4	3904	3905	3906	3907	
4	3908	3909	3910	3911	
4	3912	3913	3914	3915	
4	3916	3917	3918	3919	
4	3920	3921	3922	3923	
4	3924	3925	3926	3927	
4	3928	3929	3930	3931	
4	3932	3933	3934	3935	
4	3936	3937	3938	3939	
4	3940	3941	3942	3943	
4	3944	3945	3946	3947	
4	3948	3949	3950	3951	
4	3952	3953	3954	3955	
4	3956	3957	3958	3959	
4	3960	3961	3962	3963	
4	3964	3965	3966	3967	
4	3968	3969	3970	3971	
4	3972	3973	3974	3975	
4	3976	3977	3978	3979	
4	3980	3981	3982	3983	
4	3984	3985	3986	3987	
4	3988	3989	3990	3991	
4	3992	3993	3994	3995	
4	3996	3997	3998	3999	
4	4000	4001	4002	4003	
4	4004	4005	4006	4007	
4	4008	4009	4010	4011	
4	4012	4013	4014	4015	
4	4016	4017	4018	4019	
4	4020	4021	4022	4023	
4	4024	4025	4026	4027	
4	4028	4029	4030	4031	
4	4032	4033	4034	4035	
4	4036	4037	4038	4039	
4	4040	4041	4042	4043	
4	4044	4045	4046	4047	
4	4048	4049	4050	4051	
4	4052	4053	4054	4055	
4	4056	4057	4058	4059	
4	4060	4061	4062	4063	
4	4064	4065	4066	4067	
4	4068	4069	4070	4071	
4	4072	4073	4074	4075	
4	4076	4077	4078	4079	
4	4080	4081	4082	4083	
4	4084	4085	4086	4087	
4	4088	4089	4090	4091	
4	4092	4093	4094	4095	
4	4096	4097	4098	4099	
4	4100	4101	4102	4103	
4	4104	4105	4106	4107	
4	4108	4109	4110	4111	
4	4112	4113	4114	4115	
4	4116	4117	4118	4119	
4	4120	4121	4122	4123	
4	4124	4125	4126	4127	
4	4128	4129	4130	4131	
4	4132	4133	4134	4135	
4	4136	4137	4138	4139	
4	4140	4141	4142	4143	
4	4144	4145	4146	4147	
4	4148	4149	4150	4151	
4	4152	4153	4154	4155	
4	4156	4157	4158	4159	
4	4160	4161	4162	4163	
4	4164	4165	4166	4167	
4	4168	4169	4170	4171	
4	4172	4173	4174	4175	
4	4176	4177	4178	4179	
4	4180	4181	4182	4183	
4	4184	4185	4186	4187	
4	4188	4189	4190	4191	
4	4192	4193	4194	4195	
4	4196	4197	4198	4199	
4	4200	4201	4202	4203	
4	4204	4205	4206	4207	
4	4208	4209	4210	4211	
4	4212	4213	4214	4215	
4	4216	4217	4218	4219	
4	4220	4221	4222	4223	
4	4224	4225	4226	4227	
4	4228	4229	4230	4231	
4	4232	4233	4234	4235	
4	4236	4237	4238	4239	
4	4240	4241	4242	4243	
4	4244	4245	4246	4247	
4	4248	4249	4250	4251	
4	4252	4253	4254	4255	
4	4256	4257	4258	4259	
4	4260	4261	4262	4263	
4	4264	4265	4266	4267	
4	4268	4269	4270	4271	
4	4272	4273	4274	4275	
4	4276	4277	4278	4279	
4	4280	4281	4282	4283	
4	4284	4285	4286	4287	
4	4288	4289	4290	4291	
4	4292	4293	4294	4295	
4	4296	4297	4298	4299	
4	4300	4301	4302	4303	
4	4304	4305	4306	4307	
4	4308	4309	4310	4311	
4	4312	4313	4314	4315	
4	4316	4317	4318	4319	
4	4320	4321	4322	4323	
4	4324	4325	4326	4327	
4	4328	4329	4330	4331	
4	4332	4333	4334	4335	
4	4336	4337	4338	4339	
4	4340	4341	4342	4343	
4	4344	4345	4346	4347	
4	4348	4349	4350	4351	
4	4352	4353	4354	4355	
4	4356	4357	4358	4359	
4	4360	4361	4362	4363	
4	4364	4365	4366	4367	
4	4368	4369	4370	4371	
4	4372	4373	4374	4375	
4	4376	4377	4378	4379	
4	4380	4381	4382	4383	
4	4384	4385	4386	4387	
4	4388	4389	4390	4391	
4	4392	4393	4394	4395	
4	4396	4397	4398	4399	
4	4400	4401	4402	4403	
4	4404	4405	4406	4407	
4	4408	4409	4410	4411	
4	4412	4413	4414	4415	
4	4416	4417	4418	4419	
4	4420	4421	4422	4423	
4	4424	4425	4426	4427	
4	4428	4429	4430	4431	
4	4432	4433	4434	4435	
4	4436	4437	4438	4439	
4	4440	4441	4442	4443	
4	4444	4445	4446	4447	
4	4448	4449	4450	4451	
4	4452	4453	4454	4455	
4	4456	4457	4458	4459	
4	4460	4461	4462	4463	
4	4464	4465	4466	4467	
4	4468	4469	4470	4471	
4	4472	4473	4474	4475	
4	4476	4477	4478	4479	
4	4480	4481	4482	4483	
4	4484	4485	4486	4487	
4	4488	4489	4490	4491	
4	4492	4493	4494	4495	
4	4496	4497	4498	4499	
4	4500	4501	4502	4503	
4	4504	4505	4506	4507	
4	4508	4509	4510	4511	
4	4512	4513	4514	4515	
4	4516	4517	4518	4519	
4	4520	4521	4522	4523	
4	4524	4525	4526	4527	
4	4528	4529	4530	4531	
4	4532	4533	4534	4535	
4	4536	4537	4538	4539	
4	4540	4541	4542	4543	
4	4544	4545	4546	4547	
4	4548	4549	4550	4551	
4	4552	4553	4554	4555	
4	4556	4557	4558	4559	
4	4560	4561	4562	4563	
4	4564	4565	4566	4567	
4	4568	4569	4570	4571	
4	4572	4573	4574	4575	
4	4576	4577	4578	4579	
4	4580	4581	4582	4583	
4	4584	4585	4586	4587	
4	4588	4589	4590	4591	
4	4592	4593	4594	4595	
4	4596	4597	4598	4599	
4	4600	4601	4602	4603	
4	4604	4605	4606	4607	
4	4608	4609	4610	4611	
4	4612	4613	4614	4615	
4	4616	4617	4618	4619	
4	4620	4621	4622	4623	
4	4624	4625	4626	4627	
4	4628	4629	4630	4631	
4	4632	4633	4634	4635	
4	4636	4637	4638	4639	
4	4640	4641	4642	4643	
4	4644	4645	4646	4647	
4	4648	4649	4650	4651	
4	4652	4653	4654	4655	
4	4656	4657	4658	4659	
4	4660	4661	4662	4663	
4	4664	4665	4666	4667	
4	4668	4669	4670	4671	
4	4672	4673	4674	4675	
4	4676	4677	4678	4679	
4	4680	4681	4682	4683	
4	4684	4685	4686	4687	
4	4688	4689	4690	4691	
4	4692	4693	4694	4695	
4	4696	4697	4698	4699	
4	4700	4701	4702	4703	
4	4704	4705	4706	4707	
4	4708	4709	4710	4711	
4	4712	4713	4714	4715	
4	4716	4717	4718	4719	
4	4720	4721	4722	4723	
4	4724	4725	4726	4727	
4	4728	4729	4730	4731	
4	4732	4733	4734	4735	
4	4736	4737	4738	4739	
4	4740	4741	4742	4743	
4	4744	4745	4746	4747	
4	4748	4749	4750	4751	
4	4752	4753	4754	4755	
4	4756	4757	4758	4759	
4	4760	4761	4762	4763	
4	4764	4765	4766	4767	
4	4768	4769	4770	4771	
4	4772	4773	4774	4775	
4	4776	4777	4778	4779	
4	4780	4781	4782	4783	
4	4784	4785	4786	4787	
4	4788	4789	4790	4791	
4	4792	4793	4794	4795	
4	4796	4797	4798	4799	
4	4800	4801	4802	4803	
4	4804	4805	4806	4807	
4	4808	4809	4810	4811	
4	4812	4813	4814	4815	
4	4816	4817	4818	4819	
4	4820	4821	4822	4823	
4	4824	4825	4826	4827	
4	4828	4829	4830	4831	
4	4832	4833	4834	4835	
4	4836	4837	4838	4839	
4	4840	4841	4842	4843	
4	4844	4845	4846	4847	
4	4848	4849	4850	4851	
4	4852	4853	4854	4855	
4	4856	4857	4858	4859	
4	4860	4861	4862	4863	
4	4864	4865	4866	4867	
4	4868	4869	4870	4871	
4	4872	4873	4874	4875	
4	4876	4877	4878	4879	
4	4880	4881	4882	4883	
4	4884	4885	4886	4887	
4	4888	4889	4890	4891	
4	4892	4893	4894	4895	
4	4896	4897	4898	4899	
4	4900	4901	4902	4903	
4	4904	4905	4906	4907	
4	4908	4909	4910	4911	
4	4912	4913	4914	4915	
4	4916	4917	4918	4919	
4	4920	4921	4922	4923	
4	4924	4925	4926	4927	
4	4928	4929	4930	4931	
4	4932	4933	4934	4935	
4	4936	4937	4938	4939	
4	4940	4941	4942	4943	
4	4944	4945	4946	4947	
4	4948	4949	4950	4951	
4	4952	4953	4954	4955	
4	4956	4957	4958	4959	
4	4960	4961	4962	4963	
4	4964	4965	4966	4967	
4	4968	4969	4970	4971	
4	4972	4973	4974	4975	
4	4976	4977	4978	4979	
4	4980	4981	4982	4983	
4	4984	4985	4986	4987	
4	4988	4989	4990	4991	
4	4992	4993	4994	4995	
4	4996	4997	4998	4999	
4	5000	5001	5002	5003	
4	5004	5005	5006	5007	
4	5008	5009	5010	5011	
4	5012	5013	5014	5015	
4	5016	5017	5018	5019	
4	5020	5021	5022	5023	
4	5024	5025	5026	5027	
4	5028	5029	5030	5031	
4	5032	5033	5034	5035	
4	5036	5037	5038	5039	
4	5040	5041	5042	5043	
4	5044	5045	5046	5047	
4	5048	5049	5050	5051	
4	5052	5053	5054	5055	
4	5056	5057	5058	5059	
4	5060	5061	5062	5063	
4	5064	5065	5066	5067	
4	5068	5069	5070	5071	
4	5072	5073	5074	5075	
4	5076	5077	5078	5079	
4	5080	5081	5082	5083	
4	5084	5085	5086	5087	
4	5088	5089	5090	5091	
4	5092	5093	5094	5095	
4	5096	5097	5098	5099	
4	5100	5101	5102	5103	
4	5104	5105	5106	5107	
4	5108	5109	5110	5111	
4	5112	5113	5114	5115	
4	5116	5117	5118	5119	
4	5120	5121	5122	5123	
4	5124	5125	5126	5127	
4	5128	5129	5130	5131	
4	5132	5133	5134	5135	
4	5136	5137	5138	5139	
4	5140	5141	5142	5143	
4	5144	5145	5146	5147	
4	5148	5149	5150	5151	
4	5152	5153	5154	5155	
4	5156	5157	5158	5159	
4	5160	5161	5162	5163	
4	5164	5165	5166	5167	
4	5168	5169	5170	5171	
4	5172	5173	5174	5175	
4	5176	5177	5178	5179	
4	5180	5181	5182	5183	
4	5184	5185	5186	5187	
4	5188	5189	5190	5191	
4	5192	5193	5194	5195	
4	5196	5197	5198	5199	
4	5200	5201	5202	5203	
4	5204	5205	5206	5207	
4	5208	5209	5210	5211	
4	5212	5213	5214	5215	
4	5216	5217	5218	5219	
4	5220	5221	5222	5223	
4	5224	5225	5226	5227	
4	5228	5229	5230	5231	
4	5232	5233	5234	5235	
4	5236	5237	5238	5239	
4	5240	5241	5242	5243	
4	5244	5245	5246	5247	
4	5248	5249	5250	5251	
4	5252	5253	5254	5255	
4	5256	5257	5258	5259	
4	5260	5261	5262	5263	
4	5264	5265	5266	5267	
4	5268	5269	5270	5271	
4	5272	5273	5274	5275	
4	5276	5277	5278	5279	
4	5280	5281	5282	5283	
4	5284	5285	5286	5287	
4	5288	5289	5290	5291	
4	5292	5293	5294	5295	
4	5296	5297	5298	5299	
4	5300	5301	5302	5303	
4	5304	5305	5306	5307	
4	5308	5309	5310	5311	
4	5312	5313	5314	5315	
4	5316	5317	5318	5319	
4	5320	5321	5322	5323	
4	5324	5325	5326	5327	
4	5328	5329	5330	5331	
4	5332	5333	5334	5335	
4	5336	5337	5338	5339	
4	5340	5341	5342	5343	
4	5344	5345	5346	5347	
4	5348	5349	5350	5351	
4	5352	5353	5354	5355	
4	5356	5357	5358	5359	
4	5360	5361	5362	5363	
4	5364	5365	5366	5367	
4	5368	5369	5370	5371	
4	5372	5373	5374	5375	
4	5376	5377	5378	5379	
4	5380	5381	5382	5383	
4	5384	5385	5386	5387	
4	5388	5389	5390	5391	
4	5392	5393	5394	5395	
4	5396	5397	5398	5399	
4	5400	5401	5402	5403	
4	5404	5405	5406	5407	
4	5408	5409	5410	5411	
4	5412	5413	5414	5415	
4	5416	5417	5418	5419	
4	5420	5421	5422	5423	
4	5424	5425	5426	5427	
4	5428	5429	5430	5431	
4	5432	5433	5434	5435	
4	5436	5437	5438	5439	
4	5440	5441	5442	5443	
4	5444	5445	5446	5447	
4	5448	5449	5450	5451	
4	5452	5453	5454	5455	
4	5456	5457	5458	5459	
4	5460	5461	5462	5463	
4	5464	5465	5466	5467	
4	5468	5469	5470	5471	
4	5472	5473	5474	5475	
4	5476	5477	5478	5479	
4	5480	5481	5482	5483	
4	5484	5485	5486	5487	
4	5488	5489	5490	5491	
4	5492	5493	5494	5495	
4	5496	5497	5498	5499	
4	5500	5501	5502	5503	
4	5504	5505	5506	5507	
4	5508	5509	5510	5511	
4	5512	5513	5514	5515	
4	5516	5517	5518	5519	
4	5520	5521	5522	5523	
4	5524	5525	5526	5527	
4	5528	5529	5530	5531	
4	5532	5533	5534	5535	
4	5536	5537	5538	5539	
4	5540	5541	5542	5543	
4	5544	5545	5546	5547	
4	5548	5549	5550	5551	
4	5552	5553	5554	5555	
4	5556	5557	5558	5559	
4	5560	5561	5562	5563	
4	5564	5565	5566	5567	
4	5568	5569	5570	5571	
4	5572	5573	5574	5575	
4	5576	5577	5578	5579	
4	5580	5581	5582	5583	
4	5584	5585	5586	5587	
4	5588	5589	5590	5591	
4	5592	5593	5594	5595	
4	5596	5597	5598	5599	
4	5600	5601	5602	5603	
4	5604	5605	5606	5607	
4	5608	5609	5610	5611	
4	5612	5613	5614	5615	
4	5616	5617	5618	5619	
4	5620	5621	5622	5623	
4	5624	5625	5626	5627	
4	5628	5629	5630	5631	
4	5632	5633	5634	5635	
4	5636	5637	5638	5639	
4	5640	5641	5642	5643	
4	5644	5645	5646	5647	
4	5648	5649	5650	5651	
4	5652	5653	5654	5655	
4	5656	5657	5658	5659	
4	5660	5661	5662	5663	
4	5664	5665	5666	5667	
4	5668	5669	5670	5671	
4	5672	5673	5674	5675	
4	5676	5677	5678	5679	
4	5680	5681	5682	5683	
4	5684	5685	5686	5687	
4	5688	5689	5690	5691	
4	5692	5693	5694	5695	
4	5696	5697	5698	5699	
4	5700	5701	5702	5703	
4	5704	5705	5706	5707	
4	5708	5709	5710	5711	
4	5712	5713	5714	5715	
4	5716	5717	5718	5719	
4	5720	5721	5722	5723	
4	5724	5725	5726	5727	
4	5728	5729	5730	5731	
4	5732	5733	5734	5735	
4	5736	5737	5738	5739	
4	5740	5741	5742	5743	
4	5744	5745	5746	5747	
4	5748	5749	5750	5751	
4	5752	5753	5754	5755	
4	5756	5757	5758	5759	
4	5760	5761	5762	5763	
4	5764	5765	5766	5767	
4	5768	5769	5770	5771	
4	5772	5773	5774	5775	
4	5776	5777	5778	5779	
4	5780	5781	5782	5783	
4	5784	5785	5786	5787	
4	5788	5789	5790	5791	
4	5792	5793	5794	5795	
4	5796	5797	5798	5799	
4	5800	5801	5802	5803	
4	5804	5805	5806	5807	
4	5808	5809	5810	5811	
4	5812	5813	5814	5815	
4	5816	5817	5818	5819	
4	5820	5821	5822	5823	
4	5824	5825	5826	5827	
4	5828	5829	5830	5831	
4	5832	5833	5834	5835	
4	5836	5837	5838	5839	
4	5840	5841	5842	5843	
4	5844	5845	5846	5847	
4	5848	5849	5850	5851	
4	5852	5853	5854	5855	
4	5856	5857	5858	5859	
4	5860	5861	5862	5863	
4	5864	5865	5866	5867	
4	5868	5869	5870	5871	
4	5872	5873	5874	5875	
4	5876	5877	5878	5879	
4	5880	5881	5882	5883	
4	5884	5885	5886	5887	
4	5888	5889	5890	5891	
4	5892	5893	5894	5895	
4	5896	5897	5898	5899	
4	5900	5901	5902	5903	
4	5904	5905	5906	5907	
4	5908	5909	5910	5911	
4	5912	5913	5914	5915	
4	5916	5917	5918	5919	
4	5920	5921	5922	5923	
4	5924	5925	5926	5927	
4	5928	5929	5930	5931	
4	5932	5933	5934	5935	
4	5936	5937	5938	5939	
4	5940	5941	5942	5943	
4	5944	5945	5946	5947	
4	5948	5949	5950	5951	
4	5952	5953	5954	5955	
4	5956	5957	5958	5959	
4	5960	5961	5962	5963	
4	5964	5965	5966	5967	
4	5968	5969	5970	5971	
4	5972	5973	5974	5975	
4	5976	5977	5978	5979	
4	5980	5981	5982	5983	
4	5984	5985	5986	5987	
4	5988	5989	5990	5991	
4	5992	5993	5994	5995	
4	5996	5997	5998	5999	
4	6000	6001	6002	6003	
4	6004	6005	6006	6007	
4	6008	6009	6010	6011	
4	6012	6013	6014	6015	
4	6016	6017	6018	6019	
4	6020	6021	6022	6023	
4	6024	6025	6026	6027	
4	6028	6029	6030	6031	
4	6032	6033	6034	6035	
4	6036	6037	6038	6039	
4	6040	6041	6042	6043	
4	6044	6045	6046	6047	
4	6048	6049	6050	6051	
4	6052	6053	6054	6055	
4	6056	6057	6058	6059	
4	6060	6061	6062	6063	
4	6064	6065	6066	6067	
4	6068	6069	6070	6071	
4	6072	6073	6074	6075	
4	6076	6077	6078	6079	
4	6080	6081	6082	6083	
4	6084	6085	6086	6087	
4	6088	6089	6090	6091	
4	6092	6093	6094	6095	
4	6096	6097	6098	6099	
4	6100	6101	6102	6103	
4	6104	6105	6106	6107	
4	6108	6109	6110	6111	
4	6112	6113	6114	6115	
4	6116	6117	6118	6119	
4	6120	6121	6122	6123	
4	6124	6125	6126	6127	
4	6128	6129	6130	6131	
4	6132	6133	6134	6135	
4	6136	6137	6138	6139	
4	6140	6141	6142	6143	
4	6144	6145	6146	6147	
4	6148	6149	6150	6151	
4	6152	6153	6154	6155	
4	6156	6157	6158	6159	
4	6160	6161	6162	6163	
4	6164	6165	6166	6167	
4	6168	6169	6170	6171	
4	6172	6173	6174	6175	
4	6176	6177	6178	6179	
4	6180	6181	6182	6183	
4	6184	6185	6186	6187	
4	6188	6189	6190	6191	
4	6192	6193	6194	6195	
4	6196	6197	6198	6199	
4	6200	6201	6202	6203	
4	6204	6205	6206	6207	
4	6208	6209	6210	6211	
4	6212	6213	6214	6215	
4	6216	6217	6218	6219	
4	6220	6221	6222	6223	
4	6224	6225	6226	6227	
4	6228	6229	6230	6231	
4	6232	6233	6234	6235	
4	6236	6237	6238	6239	
4	6240	6241	6242	6243	
4	6244	6245	6246	6247	
4	6248	6249	6250	6251	
4	6252	6253	6254	6255	
4	6256	6257	6258	6259	
4	6260	6261	6262	6263	
4	6264	6265	6266	6267	
4	6268	6269	6270	6271	
4	6272	6273	6274	6275	
4	6276	6277	6278	6279	
4	6280	6281	6282	6283	
4	6284	6285	6286	6287	
4	6288	6289	6290	6291	
4	6292	6293	6294	6295	
4	6296	6297	6298	6299	
4	6300	6301	6302	6303	
4	6304	6305	6306	6307	
4	6308	6309	6310	6311	
4	6312	6313	6314	6315	
4	6316	6317	6318	6319	
4	6320	6321	6322	6323	
4	6324	6325	6326	6327	
4	6328	6329	6330	6331	
4	6332	6333	6334	6335	
4	6336	6337	6338	6339	
4	6340	6341	6342	6343	
4	6344	6345	6346	6347	
4	6348	6349	6350	6351	
4	6352	6353	6354	6355	
4	6356	6357	6358	6359	
4	6360	6361	6362	6363	
4	6364	6365	6366	6367	
4	6368	6369	6370	6371	
4	6372	6373	6374	6375	
4	6376	6377	6378	6379	
4	6380	6381	6382	6383	
4	6384	6385	6386	6387	
4	6388	6389	6390	6391	
4	6392	6393	6394	6395	
4	6396	6397	6398	6399	
4	6400	6401	6402	6403	
4	6404	6405	6406	6407	
4	6408	6409	6410	6411	
4	6412	6413	6414	6415	
4	6416	6417	6418	6419	
4	6420	6421	6422	6423	
4	6424	6425	6426	6427	
4	6428	6429	6430	6431	
4	6432	6433	6434	6435	
4	6436	6437	6438	6439	
4	6440	6441	6442	6443	
4	6444	6445	6446	6447	
4	6448	6449	6450	6451	
4	6452	6453	6454	6455	
4	6456	6457	6458	6459	
4	6460	6461	6462	6463	
4	6464	6465	6466	6467	
4	6468	6469	6470	6471	
4	6472	6473	6474	6475	
4	6476	6477	6478	6479	
4	6480	6481	6482	6483	
4	6484	6485	6486	6487	
4	6488	6489	6490	6491	
4	6492	6493	6494	6495	
4	6496	6497	6498	6499	
4	6500	6501	6502	6503	
4	6504	6505	6506	6507	
4	6508	6509	6510	6511	
4	6512	6513	6514	6515	
4	6516	6517	6518	6519	
4	6520	6521	6522	6523	
4	6524	6525	6526	6527	
4	6528	6529	6530	6531	
4	6532	6533	6534	6535	
4	6536	6537	6538	6539	
4	6540	6541	6542	6543	
4	6544	6545	6546	6547	
4	6548	6549	6550	6551	
4	6552	6553	6554	6555	
4	6556	6557	6558	6559	
4	6560	6561	6562	6563	
4	6564	6565	6566	6567	
4	6568	6569	6570	6571	
4	6572	6573	6574	6575	
4	6576	6577	6578	6579	
4	6580	6581	6582	6583	
4	6584	6585	6586	6587	
4	6588	6589	6590	6591	
4	6592	6593	6594	6595	
4	6596	6597	6598	6599	
4	6600	6601	6602	6603	
4	6604	6605	6606	6607	
4	6608	6609	6610	6611	
4	6612	6613	6614	6615	
4	6616	6617	6618	6619	
4	6620	6621	6622	6623	
4	6624	6625	6626	6627	
4	6628	6629	6630	6631	
4	6632	6633	6634	6635	
4	6636	6637	6638	6639	
4	6640	6641	6642	6643	
4	6644	6645	6646	6647	
4	6648	6649	6650	6651	
4	6652	6653	6654	6655	
4	6656	6657	6658	6659	
4	6660	6661	6662	6663	
4	6664	6665	6666	6667	
4	6668	6669	6670	6671	
4	6672	6673	6674	6675	
4	6676	6677	6678	6679	
4	6680	6681	6682	6683	
4	6684	6685	6686	6687	
4	6688	6689	6690	6691	
4	6692	6693	6694	6695	
4	6696	6697	6698	6699	
4	6700	6701	6702	6703	
4	6704	6705	6706	6707	
4	6708	6709	6710	6711	
4	6712	6713	6714	6715	
4	6716	6717	6718	6719	
4	6720	6721	6722	6723	
4	6724	6725	6726	6727	
4	6728	6729	6730	6731	
4	6732	6733	6734	6735	
4	6736	6737	6738	6739	
4	6740	6741	6742	6743	
4	6744	6745	6746	6747	
4	6748	6749	6750	6751	
4	6752	6753	6754	6755	
4	6756	6757	6758	6759	
4	6760	6761	6762	6763	
4	6764	6765	6766	6767	
4	6768	6769	6770	6771	
4	6772	6773	6774	6775	
4	6776	6777	6778	6779	
4	6780	6781	6782	6783	
4	6784	6785	6786	6787	
4	6788	6789	6790	6791	
4	6792	6793	6794	6795	
4	6796	6797	6798	6799	
4	6800	6801	6802	6803	
4	6804	6805	6806	6807	
4	6808	6809	6810	6811	
4	6812	6813	6814	6815	
4	6816	6817	6818	6819	
4	6820	6821	6822	6823	
4	6824	6825	6826	6827	
4	6828	6829	6830	6831	
4	6832	6833	6834	6835	
4	6836	6837	6838	6839	
4	6840	6841	6842	6843	
4	6844	6845	6846	6847	
4	6848	6849	6850	6851	
4	6852	6853	6854	6855	
4	6856	6857	6858	6859	
4	6860	6861	6862	6863	
4	6864	6865	6866	6867	
4	6868	6869	6870	6871	
4	6872	6873	6874	6875	
4	6876	6877	6878	6879	
4	6880	6881	6882	6883	
4	6884	6885	6886	6887	
4	6888	6889	6890	6891	
4	6892	6893	6894	6895	
4	6896	6897	6898	6899	
4	6900	6901	6902	6903	
4	6904	6905	6906	6907	
4	6908	6909	6910	6911	
4	6912	6913	6914	6915	
4	6916	6917	6918	6919	
4	6920	6921	6922	6923	
4	6924	6925	6926	6927	
4	6928	6929	6930	6931	
4	6932	6933	6934	6935	
4	6936	6937	6938	6939	
4	6940	6941	6942	6943	
4	6944	6945	6946	6947	
4	6948	6949	6950	6951	
4	6952	6953	6954	6955	
4	6956	6957	6958	6959	
4	6960	6961	6962	6963	
4	6964	6965	6966	6967	
4	6968	6969	6970	6971	
4	6972	6973	6974	6975	
4	6976	6977	6978	6979	
4	6980	6981	6982	6983	
4	6984	6985	6986	6987	
4	6988	6989	6990	6991	
4	6992	6993	6994	6995	
4	6996	6997	6998	6999	
4	7000	7001	7002	7003	
4	7004	7005	7006	7007	
4	7008	7009	7010	7011	
4	7012	7013	7014	7015	
4	7016	7017	7018	7019	
4	7020	7021	7022	7023	
4	7024	7025	7026	7027	
4	7028	7029	7030	7031	
4	7032	7033	7034	7035	
4	7036	7037	7038	7039	
4	7040	7041	7042	7043	
4	7044	7045	7046	7047	
4	7048	7049	7050	7051	
4	7052	7053	7054	7055	
4	7056	7057	7058	7059	
4	7060	7061	7062	7063	
4	7064	7065	7066	7067	
4	7068	7069	7070	7071	
4	7072	7073	7074	7075	
4	7076	7077	7078	7079	
4	7080	7081	7082	7083	
4	7084	7085	7086	7087	
4	7088	7089	7090	7091	
4	7092	7093	7094	7095	
4	7096	7097	7098	7099	
4	7100	7101	7102	7103	
4	7104	7105	7106	7107	
4	7108	7109	7110	7111	
4	7112	7113	7114	7115	
4	7116	7117	7118	7119	
4	7120	7121	7122	7123	
4	7124	7125	7126	7127	
4	7128	7129	7130	7131	
4	7132	7133	7134	7135	
4	7136	7137	7138	7139	
4	7140	7141	7142	7143	
4	7144	7145	7146	7147	
4	7148	7149	7150	7151	
4	7152	7153	7154	7155	
4	7156	7157	7158	7159	
4	7160	7161	7162	7163	
4	7164	7165	7166	7167	
4	7168	7169	7170	7171	
4	7172	7173	7174	7175	
4	7176	7177	7178	7179	
4	7180	7181	7182	7183	
4	7184	7185	7186	7187	
4	7188	7189	7190	7191	
4	7192	7193	7194	7195	
4	7196	7197	7198	7199	
4	7200	7201	7202	7203	
4	7204	7205	7206	7207	
4	7208	7209	7210	7211	
4	7212	7213	7214	7215	
4	7216	7217	7218	7219	
4	7220	7221	7222	7223	
4	7224	7225	7226	7227	
4	7228	7229	7230	7231	
4	7232	7233	7234	7235	
4	7236	7237	7238	7239	
4	7240	7241	7242	7243	
4	7244	7245	7246	7247	
4	7248	7249	7250	7251	
4	7252	7253	7254	7255	
4	7256	7257	7258	7259	
4	7260	7261	7262	7263	
4	7264	7265	7266	7267	
4	7268	7269	7270	7271	
4	7272	7273	7274	7275	
4	7276	7277	7278	7279	
4	7280	7281	7282	7283	
4	7284	7285	7286	7287	
4	7288	7289	7290	7291	
4	7292	7293	7294	7295	
4	7296	7297	7298	7299	
4	7300	7301	7302	7303	
4	7304	7305	7306	7307	
4	7308	7309	7310	7311	
4	7312	7313	7314	7315	
4	7316	7317	7318	7319	
4	7320	7321	7322	7323	
4	7324	7325	7326	7327	
4	7328	7329	7330	7331	
4	7332	7333	7334	7335	
4	7336	7337	7338	7339	
4	7340	7341	7342	7343	
4	7344	7345	7346	7347	
4	7348	7349	7350	7351	
4	7352	7353	7354	7355	
4	7356	7357	7358	7359	
4	7360	7361	7362	7363	
4	7364	7365	7366	7367	
4	7368	7369	7370	7371	
4	7372	7373	7374	7375	
4	7376	7377	7378	7379	
4	7380	7381	7382	7383	
4	7384	7385	7386	7387	
4	7388	7389	7390	7391	
4	7392	7393	7394	7395	
4	7396	7397	7398	7399	
4	7400	7401	7402	7403	
4	7404	7405	7406	7407	
4	7408	7409	7410	7411	
4	7412	7413	7414	7415	
4	7416	7417	7418	7419	
4	7420	7421	7422	7423	
4	7424	7425	7426	7427	
4	7428	7429	7430	7431	
4	7432	7433	7434	7435	
4	7436	7437	7438	7439	
4	7440	7441	7442	7443	
4	7444	7445	7446	7447	
4	7448	7449	7450	7451	
4	7452	7453	7454	7455	
4	7456	7457	7458	7459	
4	7460	7461	7462	7463	
4	7464	7465	7466	7467	
4	7468	7469	7470	7471	
4	7472	7473	7474	7475	
4	7476	7477	7478	7479	
4	7480	7481	7482	7483	
4	7484	7485	7486	7487	
4	7488	7489	7490	7491	
4	7492	7493	7494	7495	
4	7496	7497	7498	7499	
4	7500	7501	7502	7503	
4	7504	7505	7506	7507	
4	7508	7509	7510	7511	
4	7512	7513	7514	7515	
4	7516	7517	7518	7519	
4	7520	7521	7522	7523	
4	7524	7525	7526	7527	
4	7528	7529	7530	7531	
4	7532	7533	7534	7535	
4	7536	7537	7538	7539	
4	7540	7541	7542	7543	
4	7544	7545	7546	7547	
4	7548	7549	7550	7551	
4	7552	7553	7554	7555	
4	7556	7557	7558	7559	
4	7560	7561	7562	7563	
4	7564	7565	7566	7567	
4	7568	7569	7570	7571	
4	7572	7573	7574	7575	
4	7576	7577	7578	7579	
4	7580	7581	7582	7583	
4	7584	7585	7586	7587	
4	7588	7589	7590	7591	
4	7592	7593	7594	7595	
4	7596	7597	7598	7599	
4	7600	7601	7602	7603	
4	7604	7605	7606	7607	
4	7608	7609	7610	7611	
4	7612	7613	7614	7615	
4	7616	7617	7618	7619	
4	7620	7621	7622	7623	
4	7624	7625	7626	7627	
4	7628	7629	7630	7631	
4	7632	7633	7634	7635	
4	7636	7637	7638	7639	
4	7640	7641	7642	7643	
4	7644	7645	7646	7647	
4	7648	7649	7650	7651	
4	7652	7653	7654	7655	
4	7656	7657	7658	7659	
4	7660	7661	7662	7663	
4	7664	7665	7666	7667	
4	7668	7669	7670	7671	
4	7672	7673	7674	7675	
4	7676	7677	7678	7679	
4	7680	7681	7682	7683	
4	7684	7685	7686	7687	
4	7688	7689	7690	7691	
4	7692	7693	7694	7695	
4	7696	7697	7698	7699	
4	7700	7701	7702	7703	
4	7704	7705	7706	7707	
4	7708	7709	7710	7711	
4	7712	7713	7714	7715	
4	7716	7717	7718	7719	
4	7720	7721	7722	7723	
4	7724	7725	7726	7727	
4	7728	7729	7730	7731	
4	7732	7733	7734	7735	
4	7736	7737	7738	7739	
4	7740	7741	7742	7743	
4	7744	7745	7746	7747	
4	7748	7749	7750	7751	
4	7752	7753	7754	7755	
4	7756	7757	7758	7759	
4	7760	7761	7762	7763	
4	7764	7765	7766	7767	
4	7768	7769	7770	7771	
4	7772	7773	7774	7775	
4	7776	7777	7778	7779	
4	7780	7781	7782	7783	
4	7784	7785	7786	7787	
4	7788	7789	7790	7791	
4	7792	7793	7794	7795	
4	7796	7797	7798	7799	
4	7800	7801	7802	7803	
4	7804	7805	7806	7807	
4	7808	7809	7810	7811	
4	7812	7813	7814	7815	
4	7816	7817	7818	7819	
4	7820	7821	7822	7823	
4	7824	7825	7826	7827	
4	7828	7829	7830	7831	
4	7832	7833	7834	7835	
4	7836	7837	7838	7839	
4	7840	7841	7842	7843	
4	7844	7845	7846	7847	
4	7848	7849	7850	7851	
4	7852	7853	7854	7855	
4	7856	7857	7858	7859	
4	7860	7861	7862	7863	
4	7864	7865	7866	7867	
4	7868	7869	7870	7871	
4	7872	7873	7874	7875	
4	7876	7877	7878	7879	
4	7880	7881	7882	7883	
4	7884	7885	7886	7887	
4	7888	7889	7890	7891	
4	7892	7893	7894	7895	
4	7896	7897	7898	7899	
4	7900	7901	7902	7903	
4	7904	7905	7906	7907	
4	7908	7909	7910	7911	
4	7912	7913	7914	7915	
4	7916	7917	7918	7919	
4	7920	7921	7922	7923	
4	7924	7925	7926	7927	
4	7928	7929	7930	7931	
4	7932	7933	7934	7935	
4	7936	7937	7938	7939	
4	7940	7941	7942	7943	
4	7944	7945	7946	7947	
4	7948	7949	7950	7951	
4	7952	7953	7954	7955	
4	7956	7957	7958	7959	
4	7960	7961	7962	7963	
4	7964	7965	7966	7967	
4	7968	7969	7970	7971	
4	7972	7973	7974	7975	
4	7976	7977	7978	7979	
4	7980	7981	7982	7983	
4	7984	7985	7986	7987	
4	7988	7989	7990	7991	
4	7992	7993	7994	7995	
4	7996	7997	7998	7999	
4	8000	8001	8002	8003	
4	8004	8005	8006	8007	
4	8008	8009	8010	8011	
4	8012	8013	8014	8015	
4	8016	8017	8018	8019	
4	8020	8021	8022	8023	
4	8024	8025	8026	8027	
4	8028	8029	8030	8031	
4	8032	8033	8034	8035	
4	8036	8037	8038	8039	
4	8040	8041	8042	8043	
4	8044	8045	8046	8047	
4	8048	8049	8050	8051	
4	8052	8053	8054	8055	
4	8056	8057	8058	8059	
4	8060	8061	8062	8063	
4	8064	8065	8066	8067	
4	8068	8069	8070	8071	
4	8072	8073	8074	8075	
4	8076	8077	8078	8079	
4	8080	8081	8082	8083	
4	8084	8085	8086	8087	
4	8088	8089	8090	8091	
4	8092	8093	8094	8095	
4	8096	8097	8098	8099	
4	8100	8101	8102	8103	
4	8104	8105	8106	8107	
4	8108	8109	8110	8111	
4	8112	8113	8114	8115	
4	8116	8117	8118	8119	
4	8120	8121	8122	8123	
4	8124	8125	8126	8127	
4	8128	8129	8130	8131	
4	8132	8133	8134	8135	
4	8136	8137	8138	8139	
4	8140	8141	8142	8143	
4	8144	8145	8146	8147	
4	8148	8149	8150	8151	
4	8152	8153	8154	8155	
4	8156	8157	8158	8159	
4	8160	8161	8162	8163	
4	8164	8165	8166	8167	
4	8168	8169	8170	8171	
4	8172	8173	8174	8175	
4	8176	8177	8178	8179	
4	8180	8181	8182	8183	
4	8184	8185	8186	8187	
4	8188	8189	8190	8191	
4	8192	8193	8194	8195	
4	8196	8197	8198	8199	
4	8200	8201	8202	8203	
4	8204	8205	8206	8207	
4	8208	8209	8210	8211	
4	8212	8213	8214	8215	
4	8216	8217	8218	8219	
4	8220	8221	8222	8223	
4	8224	8225	8226	8227	
4	8228	8229	8230	8231	
4	8232	8233	8234	8235	
4	8236	8237	8238	8239	
4	8240	8241	8242	8243	
4	8244	8245	8246	8247	
4	8248	8249	8250	8251	
4	8252	8253	8254	8255	
4	8256	8257	8258	8259	
4	8260	8261	8262	8263	
4	8264	8265	8266	8267	
4	8268	8269	8270	8271	
4	8272	8273	8274	8275	
4	8276	8277	8278	8279	
4	8280	8281	8282	8283	
4	8284	8285	8286	8287	
4	8288	8289	8290	8291	
4	8292	8293	8294	8295	
4	8296	8297	8298	8299	
4	8300	8301	8302	8303	
4	8304	8305	8306	8307	
4	8308	8309	8310	8311	
4	8312	8313	8314	8315	
4	8316	8317	8318	8319	
4	8320	8321	8322	8323	
4	8324	8325	8326	8327	
4	8328	8329	8330	8331	
4	8332	8333	8334	8335	
4	8336	8337	8338	8339	
4	8340	8341	8342	8343	
4	8344	8345	8346	8347	
4	8348	8349	8350	8351	
4	8352	8353	8354	8355	
4	8356	8357	8358	8359	
4	8360	8361	8362	8363	
4	8364	8365	8366	8367	
4	8368	8369	8370	8371	
4	8372	8373	8374	8375	
4	8376	8377	8378	8379	
4	8380	8381	8382	8383	
4	8384	8385	8386	8387	
4	8388	8389	8390	8391	
4	8392	8393	8394	8395	
4	8396	8397	8398	8399	
4	8400	8401	8402	8403	
4	8404	8405	8406	8407	
4	8408	8409	8410	8411	
4	8412	8413	8414	8415	
4	8416	8417	8418	8419	
4	8420	8421	8422	8423	
4	8424	8425	8426	8427	
4	8428	8429	8430	8431	
4	8432	8433	8434	8435	
4	8436	8437	8438	8439	
4	8440	8441	8442	8443	
4	8444	8445	8446	8447	
4	8448	8449	8450	8451	
4	8452	8453	8454	8455	
4	8456	8457	8458	8459	
4	8460	8461	8462	8463	
4	8464	8465	8466	8467	
4	8468	8469	8470	8471	
4	8472	8473	8474	8475	
4	8476	8477	8478	8479	
4	8480	8481	8482	8483	
4	8484	8485	8486	8487	
4	8488	8489	8490	8491	
4	8492	8493	8494	8495	
4	8496	8497	8498	8499	
4	8500	8501	8502	8503	
4	8504	8505	8506	8507	
4	8508	8509	8510	8511	
4	8512	8513	8514	8515	
4	8516	8517	8518	8519	
4	8520	8521	8522	8523	
4	8524	8525	8526	8527	
4	8528	8529	8530	8531	
4	8532	8533	8534	8535	
4	8536	8537	8538	8539	
4	8540	8541	8542	8543	
4	8544	8545	8546	8547	
4	8548	8549	8550	8551	
4	8552	8553	8554	8555	
4	8556	8557	8558	8559	
4	8560	8561	8562	8563	
4	8564	8565	8566	8567	
4	8568	8569	8570	8571	
4	8572	8573	8574	8575	
4	8576	8577	8578	8579	
4	8580	8581	8582	8583	
4	8584	8585	8586	8587	
4	8588	8589	8590	8591	
4	8592	8593	8594	8595	
4	8596	8597	8598	8599	
4	8600	8601	8602	8603	
4	8604	8605	8606	8607	
4	8608	8609	8610	8611	
4	8612	8613	8614	8615	
4	8616	8617	8618	8619	
4	8620	8621	8622	8623	
4	8624	8625	8626	8627	
4	8628	8629	8630	8631	
4	8632	8633	8634	8635	
4	8636	8637	8638	8639	
4	8640	8641	8642	8643	
4	8644	8645	8646	8647	
4	8648	8649	8650	8651	
4	8652	8653	8654	8655	
4	8656	8657	8658	8659	
4	8660	8661	8662	8663	
4	8664	8665	8666	8667	
4	8668	8669	8670	8671	
4	8672	8673	8674	8675	
4	8676	8677	8678	8679	
4	8680	8681	8682	8683	
4	8684	8685	8686	8687	
4	8688	8689	8690	8691	
4	8692	8693	8694	8695	
4	8696	8697	8698	8699	
4	8700	8701	8702	8703	
4	8704	8705	8706	8707	
4	8708	8709	8710	8711	
4	8712	8713	8714	8715	
4	8716	8717	8718	8719	
4	8720	8721	8722	8723	
4	8724	8725	8726	8727	
4	8728	8729	8730	8731	
4	8732	8733	8734	8735	
4	8736	8737	8738	8739	
4	8740	8741	8742	8743	
4	8744	8745	8746	8747	
4	8748	8749	8750	8751	
4	8752	8753	8754	8755	
4	8756	8757	8758	8759	
4	8760	8761	8762	8763	
4	8764	8765	8766	8767	
4	8768	8769	8770	8771	
4	8772	8773	8774	8775	
4	8776	8777	8778	8779	
4	8780	8781	8782	8783	
4	8784	8785	8786	8787	
4	8788	8789	8790	8791	
4	8792	8793	8794	8795	
4	8796	8797	8798	8799	
4	8800	8801	8802	8803	
4	8804	8805	8806	8807	
4	8808	8809	8810	8811	
4	8812	8813	8814	8815	
4	8816	8817	8818	8819	
4	8820	8821	8822	8823	
4	8824	8825	8826	8827	
4	8828	8829	8830	8831	
4	8832	8833	8834	8835	
4	8836	8837	8838	8839	
4	8840	8841	8842	8843	
4	8844	8845	8846	8847	
4	8848	8849	8850	8851	
4	8852	8853	8854	8855	
4	8856	8857	8858	8859	
4	8860	8861	8862	8863	
4	8864	8865	8866	8867	
4	8868	8869	8870	8871	
4	8872	8873	8874	8875	
4	8876	8877	8878	8879	
4	8880	8881	8882	8883	
4	8884	8885	8886	8887	
4	8888	8889	8890	8891	
4	8892	8893	8894	8895	
4	8896	8897	8898	8899	
4	8900	8901	8902	8903	
4	8904	8905	8906	8907	
4	8908	8909	8910	8911	
4	8912	8913	8914	8915	
4	8916	8917	8918	8919	
4	8920	8921	8922	8923	
4	8924	8925	8926	8927	
4	8928	8929	8930	8931	
4	8932	8933	8934	8935	
4	8936	8937	8938	8939	
4	8940	8941	8942	8943	
4	8944	8945	8946	8947	
4	8948	8949	8950	8951	
4	8952	8953	8954	8955	
4	8956	8957	8958	8959	
4	8960	8961	8962	8963	
4	8964	8965	8966	8967	
4	8968	8969	8970	8971	
4	8972	8973	8974	8975	
4	8976	8977	8978	8979	
4	8980	8981	8982	8983	
4	8984	8985	8986	8987	
4	8988	8989	8990	8991	
4	8992	8993	8994	8995	
4	8996	8997	8998	8999	
4	9000	9001	9002	9003	
4	9004	9005	9006	9007	
4	9008	9009	9010	9011	
4	9012	9013	9014	9015	
4	9016	9017	9018	9019	
4	9020	9021	9022	9023	
4	9024	9025	9026	9027	
4	9028	9029	9030	9031	
4	9032	9033	9034	9035	
4	9036	9037	9038	9039	
4	9040	9041	9042	9043	
4	9044	9045	9046	9047	
4	9048	9049	9050	9051	
4	9052	9053	9054	9055	
4	9056	9057	9058	9059	
4	9060	9061	9062	9063	
4	9064	9065	9066	9067	
4	9068	9069	9070	9071	
4	9072	9073	9074	9075	
4	9076	9077	9078	9079	
4	9080	9081	9082	9083	
4	9084	9085	9086	9087	
4	9088	9089	9090	9091	
4	9092	9093	9094	9095	
4	9096	9097	9098	9099	
4	9100	9101	9102	9103	
4	9104	9105	9106	9107	
4	9108	9109	9110	9111	
4	9112	9113	9114	9115	
4	9116	9117	9118	9119	
4	9120	9121	9122	9123	
4	9124	9125	9126	9127	
4	9128	9129	9130	9131	
4	9132	9133	9134	9135	
4	9136	9137	9138	9139	
4	9140	9141	9142	9143	
4	9144	9145	9146	9147	
4	9148	9149	9150	9151	
4	9152	9153	9154	9155	
4	9156	9157	9158	9159	
4	9160	9161	9162	9163	
4	9164	9165	9166	9167	
4	9168	9169	9170	9171	
4	9172	9173	9174	9175	
4	9176	9177	9178	9179	
4	9180	9181	9182	9183	
4	9184	9185	9186	9187	
4	9188	9189	9190	9191	
4	9192	9193	9194	9195	
4	9196	9197	9198	9199	
4	9200	9201	9202	9203	
4	9204	9205	9206	9207	
4	9208	9209	9210	9211	
4	9212	9213	9214	9215	
4	9216	9217	9218	9219	
4	9220	9221	9222	9223	
4	9224	9225	9226	9227	
4	9228	9229	9230	9231	
4	9232	9233	9234	9235	
4	9236	9237	9238	9239	
4	9240	9241	9242	9243	
4	9244	9245	9246	9247	
4	9248	9249	9250	9251	
4	9252	9253	9254	9255	
4	9256	9257	9258	9259	
4	9260	9261	9262	9263	
4	9264	9265	9266	9267	
4	9268	9269	9270	9271	
4	9272	9273	9274	9275	
4	9276	9277	9278	9279	
4	9280	9281	9282	9283	
4	9284	9285	9286	9287	
4	9288	9289	9290	9291	
4	9292	9293	9294	9295	
4	9296	9297	9298	9299	
4	9300	9301	9302	9303	
4	9304	9305	9306	9307	
4	9308	9309	9310	9311	
4	9312	9313	9314	9315	
4	9316	9317	9318	9319	
4	9320	9321	9322	9323	
4	9324	9325	9326	9327	
4	9328	9329	9330	9331	
4	9332	9333	9334	9335	
4	9336	9337	9338	9339	
4	9340	9341	9342	9343	
4	9344	9345	9346	9347	
4	9348	9349	9350	9351	
4	9352	9353	9354	9355	
4	9356	9357	9358	9359	
4	9360	9361	9362	9363	
4	9364	9365	9366	9367	
4	9368	9369	9370	9371	
4	9372	9373	9374	9375	
4	9376	9377	9378	9379	
4	9380	9381	9382	9383	
4	9384	9385	9386	9387	
4	9388	9389	9390	9391	
4	9392	9393	9394	9395	
4	9396	9397	9398	9399	
4	9400	9401	9402	9403	
4	9404	9405	9406	9407	
4	9408	9409	9410	9411	
4	9412	9413	9414	9415	
4	9416	9417	9418	9419	
4	9420	9421	9422	9423	
4	9424	9425	9426	9427	
4	9428	9429	9430	9431	
4	9432	9433	9434	9435	
4	9436	9437	9438	9439	
4	9440	9441	9442	9443	
4	9444	9445	9446	9447	
4	9448	9449	9450	9451	
4	9452	9453	9454	9455	
4	9456	9457	9458	9459	
4	9460	9461	9462	9463	
4	9464	9465	9466	9467	
4	9468	9469	9470	9471	
4	9472	9473	9474	9475	
4	9476	9477	9478	9479	
4	9480	9481	9482	9483	
4	9484	9485	9486	9487	
4	9488	9489	9490	9491	
4	9492	9493	9494	9495	
4	9496	9497	9498	9499	
4	9500	9501	9502	9503	
4	9504	9505	9506	9507	
4	9508	9509	9510	9511	
4	9512	9513	9514	9515	
4	9516	9517	9518	9519	
4	9520	9521	9522	9523	
4	9524	9525	9526	9527	
4	9528	9529	9530	9531	
4	9532	9533	9534	9535	
4	9536	9537	9538	9539	
4	9540	9541	9542	9543	
4	9544	9545	9546	9547	
4	9548	9549	9550	9551	
4	9552	9553	9554	9555	
4	9556	9557	9558	9559	
4	9560	9561	9562	9563	
4	9564	9565	9566	9567	
4	9568	9569	9570	9571	
4	9572	9573	9574	9575	
4	9576	9577	9578	9579	
4	9580	9581	9582	9583	
4	9584	9585	9586	9587	
4	9588	9589	9590	9591	
4	9592	9593	9594	9595	
4	9596	9597	9598	9599	
4	9600	9601	9602	9603	
4	9604	9605	9606	9607	
4	9608	9609	9610	9611	
4	9612	9613	9614	9615	
4	9616	9617	9618	9619	
4	9620	9621	9622	9623	
4	9624	9625	9626	9627	
4	9628	9629	9630	9631	
4	9632	9633	9634	9635	
4	9636	9637	9638	9639	
4	9640	9641	9642	9643	
4	9644	9645	9646	9647	
4	9648	9649	9650	9651	
4	9652	9653	9654	9655	
4	9656	9657	9658	9659	
4	9660	9661	9662	9663	
4	9664	9665	9666	9667	
4	9668	9669	9670	9671	
4	9672	9673	9674	9675	
4	9676	9677	9678	9679	
4	9680	9681	9682	9683	
4	9684	9685	9686	9687	
4	9688	9689	9690	9691	
4	9692	9693	9694	9695	
4	9696	9697	9698	9699	
4	9700	9701	9702	9703	
4	9704	9705	9706	9707	
4	9708	9709	9710	9711	
4	9712	9713	9714	9715	
4	9716	9717	9718	9719	
4	9720	9721	9722	9723	
4	9724	9725	9726	9727	
4	9728	9729	9730	9731	
4	9732	9733	9734	9735	
4	9736	9737	9738	9739	
4	9740	9741	9742	9743	
4	9744	9745	9746	9747	
4	9748	9749	9750	9751	
4	9752	9753	9754	9755	
4	9756	9757	9758	9759	
4	9760	9761	9762	9763	
4	9764	9765	9766	9767	
4	9768	9769	9770	9771	
4	9772	9773	9774	9775	
4	9776	9777	9778	9779	
4	9780	9781	9782	9783	
4	9784	9785	9786	9787	
4	9788	9789	9790	9791	
4	9792	9793	9794	9795	
4	9796	9797	9798	9799	
4	9800	9801	9802	9803	
4	9804	9805	9806	9807	
4	9808	9809	9810	9811	
4	9812	9813	9814	9815	
4	9816	9817	9818	9819	
4	9820	9821	9822	9823	
4	9824	9825	9826	9827	
4	9828	9829	9830	9831	
4	9832	9833	9834	9835	
4	9836	9837	9838	9839	
4	9840	9841	9842	9843	
4	9844	9845	9846	9847	
4	9848	9849	9850	9851	
4	9852	9853	9854	9855	
4	9856	9857	9858	9859	
4	9860	9861	9862	9863	
4	9864	9865	9866	9867	
4	9868	9869	9870	9871	
4	9872	9873	9874	9875	
4	9876	9877	9878	9879	
4	9880	9881	9882	9883	
4	9884	9885	9886	9887	
4	9888	9889	9890	9891	
4	9892	9893	9894	9895	
4	9896	9897	9898	9899	
4	9900	9901	9902	9903	
4	9904	9905	9906	9907	
4	9908	9909	9910	9911	
4	9912	9913	9914	9915	
4	9916	9917	9918	9919	
4	9920	9921	9922	9923	
4	9924	9925	9926	9927	
4	9928	9929	9930	9931	
4	9932	9933	9934	9935	
4	9936	9937	9938	9939	
4	9940	9941	9942	9943	
4	9944	9945	9946	9947	
4	9948	9949	9950	9951	
4	9952	9953	9954	9955	
4	9956	9957	9958	9959	
4	9960	9961	9962	9963	
4	9964	9965	9966	9967	
4	9968	9969	9970	9971	
4	9972	9973	9974	9975	
4	9976	9977	9978	9979	
4	9980	9981	9982	9983	
4	9984	9985	9986	9987	
4	9988	9989	9990	9991	
4	9992	9993	9994	9995	
4	9996	9997	9998	9999	
4	10000	10001	10002	10003	
4	10004	10005	10006	10007	
4	10008	10009	10010	10011	
4	10012	10013	10014	10015	
4	10016	10017	10018	10019	
4	10020	10021	10022	10023	
4	10024	10025	10026	10027	
4	10028	10029	10030	10031	
4	10032	10033	10034	10035	
4	10036	10037	10038	10039	
4	10040	10041	10042	10043	
4	10044	10045	10046	10047	
4	10048	10049	10050	10051	
4	10052	10053	10054	10055	
4	10056	10057	10058	10059	
4	10060	10061	10062	10063	
4	10064	10065	10066	10067	
4	10068	10069	10070	10071	
4	10072	10073	10074	10075	
4	10076	10077	10078	10079	
4	10080	10081	10082	10083	
4	10084	10085	10086	10087	
4	10088	10089	10090	10091	
4	10092	10093	10094	10095	
4	10096	10097	10098	10099	
4	10100	10101	10102	10103	
4	10104	10105	10106	10107	
4	10108	10109	10110	10111	
4	10112	10113	10114	10115	
4	10116	10117	10118	10119	
4	10120	10121	10122	10123	
4	10124	10125	10126	10127	
4	10128	10129	10130	10131	
4	10132	10133	10134	10135	
4	10136	10137	10138	10139	
4	10140	10141	10142	10143	
4	10144	10145	10146	10147	
4	10148	10149	10150	10151	
4	10152	10153	10154	10155	
4	10156	10157	10158	10159	
4	10160	10161	10162	10163	
4	10164	10165	10166	10167	
4	10168	10169	10170	10171	
4	10172	10173	10174	10175	
4	10176	10177	10178	10179	
4	10180	10181	10182	10183	
4	10184	10185	10186	10187	
4	10188	10189	10190	10191	
4	10192	10193	10194	10195	
4	10196	10197	10198	10199	
4	10200	10201	10202	10203	
4	10204	10205	10206	10207	
4	10208	10209	10210	10211	
4	10212	10213	10214	10215	
4	10216	10217	10218	10219	
4	10220	10221	10222	10223	
4	10224	10225	10226	10227	
4	10228	10229	10230	10231	
4	10232	10233	10234	10235	
4	10236	10237	10238	10239	
4	10240	10241	10242	10243	
4	10244	10245	10246	10247	
4	10248	10249	10250	10251	
4	10252	10253	10254	10255	
4	10256	10257	10258	10259	
4	10260	10261	10262	10263	
4	10264	10265	10266	10267	
4	10268	10269	10270	10271	
4	10272	10273	10274	10275	
4	10276	10277	10278	10279	
4	10280	10281	10282	10283	
4	10284	10285	10286	10287	
4	10288	10289	10290	10291	
4	10292	10293	10294	10295	
4	10296	10297	10298	10299	
4	10300	10301	10302	10303	
4	10304	10305	10306	10307	
4	10308	10309	10310	10311	
4	10312	10313	10314	10315	
4	10316	10317	10318	10319	
4	10320	10321	10322	10323	
4	10324	10325	10326	10327	
4	10328	10329	10330	10331	
4	10332	10333	10334	10335	
4	10336	10337	10338	10339	
4	10340	10341	10342	10343	
4	10344	10345	10346	10347	
4	10348	10349	10350	10351	
4	10352	10353	10354	10355	
4	10356	10357	10358	10359	
4	10360	10361	10362	10363	
4	10364	10365	10366	10367	
4	10368	10369	10370	10371	
4	10372	10373	10374	10375	
4	10376	10377	10378	10379	
4	10380	10381	10382	10383	
4	10384	10385	10386	10387	
4	10388	10389	10390	10391	
4	10392	10393	10394	10395	
4	10396	10397	10398	10399	
4	10400	10401	10402	10403	
4	10404	10405	10406	10407	
4	10408	10409	10410	10411	
4	10412	10413	10414	10415	
4	10416	10417	10418	10419	
4	10420	10421	10422	10423	
4	10424	10425	10426	10427	
4	10428	10429	10430	10431	
4	10432	10433	10434	10435	
4	10436	10437	10438	10439	
4	10440	10441	10442	10443	
4	10444	10445	10446	10447	
4	10448	10449	10450	10451	
4	10452	10453	10454	10455	
4	10456	10457	10458	10459	
4	10460	10461	10462	10463	
4	10464	10465	10466	10467	
4	10468	10469	10470	10471	
4	10472	10473	10474	10475	
4	10476	10477	10478	10479	
4	10480	10481	10482	10483	
4	10484	10485	10486	10487	
4	10488	10489	10490	10491	
4	10492	10493	10494	10495	
4	10496	10497	10498	10499	
4	10500	10501	10502	10503	
4	10504	10505	10506	10507	
4	10508	10509	10510	10511	
4	10512	10513	10514	10515	
4	10516	10517	10518	10519	
4	10520	10521	10522	10523	
4	10524	10525	10526	10527	
4	10528	10529	10530	10531	
4	10532	10533	10534	10535	
4	10536	10537	10538	10539	
4	10540	10541	10542	10543	
4	10544	10545	10546	10547	
4	10548	10549	10550	10551	
4	10552	10553	10554	10555	
4	10556	10557	10558	10559	
4	10560	10561	10562	10563	
4	10564	10565	10566	10567	
4	10568	10569	10570	10571	
4	10572	10573	10574	10575	
4	10576	10577	10578	10579	
4	10580	10581	10582	10583	
4	10584	10585	10586	10587	
4	10588	10589	10590	10591	
4	10592	10593	10594	10595	
4	10596	10597	10598	10599	
4	10600	10601	10602	10603	
4	10604	10605	10606	10607	
4	10608	10609	10610	10611	
4	10612	10613	10614	10615	
4	10616	10617	10618	10619	
4	10620	10621	10622	10623	
4	10624	10625	10626	10627	
4	10628	10629	10630	10631	
4	10632	10633	10634	10635	
4	10636	10637	10638	10639	
4	10640	10641	10642	10643	
4	10644	10645	10646	10647	
4	10648	10649	10650	10651	
4	10652	10653	10654	10655	
4	10656	10657	10658	10659	
4	10660	10661	10662	10663	
4	10664	10665	10666	10667	
4	10668	10669	10670	10671	
4	10672	10673	10674	10675	
4	10676	10677	10678	10679	
4	10680	10681	10682	10683	
4	10684	10685	10686	10687	
4	10688	10689	10690	10691	
4	10692	10693	10694	10695	
4	10696	10697	10698	10699	
4	10700	10701	10702	10703	
4	10704	10705	10706	10707	
4	10708	10709	10710	10711	
4	10712	10713	10714	10715	
4	10716	10717	10718	10719	
4	10720	10721	10722	10723	
4	10724	10725	10726	10727	
4	10728	10729	10730	10731	
4	10732	10733	10734	10735	
4	10736	10737	10738	10739	
4	10740	10741	10742	10743	
4	10744	10745	10746	10747	
4	10748	10749	10750	10751	
4	10752	10753	10754	10755	
4	10756	10757	10758	10759	
4	10760	10761	10762	10763	
4	10764	10765	10766	10767	
4	10768	10769	10770	10771	
4	10772	10773	10774	10775	
4	10776	10777	10778	10779	
4	10780	10781	10782	10783	
4	10784	10785	10786	10787	
4	10788	10789	10790	10791	
4	10792	10793	10794	10795	
4	10796	10797	10798	10799	
4	10800	10801	10802	10803	
4	10804	10805	10806	10807	
4	10808	10809	10810	10811	
4	10812	10813	10814	10815	
4	10816	10817	10818	10819	
4	10820	10821	10822	10823	
4	10824	10825	10826	10827	
4	10828	10829	10830	10831	
4	10832	10833	10834	10835	
4	10836	10837	10838	10839	
4	10840	10841	10842	10843	
4	10844	10845	10846	10847	
4	10848	10849	10850	10851	
4	10852	10853	10854	10855	
4	10856	10857	10858	10859	
4	10860	10861	10862	10863	
4	10864	10865	10866	10867	
4	10868	10869	10870	10871	
4	10872	10873	10874	10875	
4	10876	10877	10878	10879	
4	10880	10881	10882	10883	
4	10884	10885	10886	10887	
4	10888	10889	10890	10891	
4	10892	10893	10894	10895	
4	10896	10897	10898	10899	
4	10900	10901	10902	10903	
4	10904	10905	10906	10907	
4	10908	10909	10910	10911	
4	10912	10913	10914	10915	
4	10916	10917	10918	10919	
4	10920	10921	10922	10923	
4	10924	10925	10926	10927	
4	10928	10929	10930	10931	
4	10932	10933	10934	10935	
4	10936	10937	10938	10939	
4	10940	10941	10942	10943	
4	10944	10945	10946	10947	
4	10948	10949	10950	10951	
4	10952	10953	10954	10955	
4	10956	10957	10958	10959	
4	10960	10961	10962	10963	
4	10964	10965	10966	10967	
4	10968	10969	10970	10971	
4	10972	10973	10974	10975	
4	10976	10977	10978	10979	
4	10980	10981	10982	10983	
4	10984	10985	10986	10987	
4	10988	10989	10990	10991	
4	10992	10993	10994	10995	
4	10996	10997	10998	10999	
4	11000	11001	11002	11003	
4	11004	11005	11006	11007	
4	11008	11009	11010	11011	
4	11012	11013	11014	11015	
4	11016	11017	11018	11019	
4	11020	11021	11022	11023	
4	11024	11025	11026	11027	
4	11028	11029	11030	11031	
4	11032	11033	11034	11035	
4	11036	11037	11038	11039	
4	11040	11041	11042	11043	
4	11044	11045	11046	11047	
4	11048	11049	11050	11051	
4	11052	11053	11054	11055	
4	11056	11057	11058	11059	
4	11060	11061	11062	11063	
4	11064	11065	11066	11067	
4	11068	11069	11070	11071	
4	11072	11073	11074	11075	
4	11076	11077	11078	11079	
4	11080	11081	11082	11083	
4	11084	11085	11086	11087	
4	11088	11089	11090	11091	
4	11092	11093	11094	11095	
4	11096	11097	11098	11099	
4	11100	11101	11102	11103	
4	11104	11105	11106	11107	
4	11108	11109	11110	11111	
4	11112	11113	11114	11115	
4	11116	11117	11118	11119	
4	11120	11121	11122	11123	
4	11124	11125	11126	11127	
4	11128	11129	11130	11131	
4	11132	11133	11134	11135	
4	11136	11137	11138	11139	
4	11140	11141	11142	11143	
4	11144	11145	11146	11147	
4	11148	11149	11150	11151	
4	11152	11153	11154	11155	
4	11156	11157	11158	11159	
4	11160	11161	11162	11163	
4	11164	11165	11166	11167	
4	11168	11169	11170	11171	
4	11172	11173	11174	11175	
4	11176	11177	11178	11179	
4	11180	11181	11182	11183	
4	11184	11185	11186	11187	
4	11188	11189	11190	11191	
4	11192	11193	11194	11195	
4	11196	11197	11198	11199	
4	11200	11201	11202	11203	
4	11204	11205	11206	11207	
4	11208	11209	11210	11211	
4	11212	11213	11214	11215	
4	11216	11217	11218	11219	
4	11220	11221	11222	11223	
4	11224	11225	11226	11227	
4	11228	11229	11230	11231	
4	11232	11233	11234	11235	
4	11236	11237	11238	11239	
4	11240	11241	11242	11243	
4	11244	11245	11246	11247	
4	11248	11249	11250	11251	
4	11252	11253	11254	11255	
4	11256	11257	11258	11259	
4	11260	11261	11262	11263	
4	11264	11265	11266	11267	
4	11268	11269	11270	11271	
4	11272	11273	11274	11275	
4	11276	11277	11278	11279	
4	11280	11281	11282	11283	
4	11284	11285	11286	11287	
4	11288	11289	11290	11291	
4	11292	11293	11294	11295	
4	11296	11297	11298	11299	
4	11300	11301	11302	11303	
4	11304	11305	11306	11307	
4	11308	11309	11310	11311	
4	11312	11313	11314	11315	
4	11316	11317	11318	11319	
4	11320	11321	11322	11323	
4	11324	11325	11326	11327	
4	11328	11329	11330	11331	
4	11332	11333	11334	11335	
4	11336	11337	11338	11339	
4	11340	11341	11342	11343	
4	11344	11345	11346	11347	
4	11348	11349	11350	11351	
4	11352	11353	11354	11355	
4	11356	11357	11358	11359	
4	11360	11361	11362	11363	
4	11364	11365	11366	11367	
4	11368	11369	11370	11371	
4	11372	11373	11374	11375	
4	11376	11377	11378	11379	
4	11380	11381	11382	11383	
4	11384	11385	11386	11387	
4	11388	11389	11390	11391	
4	11392	11393	11394	11395	
4	11396	11397	11398	11399	
4	11400	11401	11402	11403	
4	11404	11405	11406	11407	
4	11408	11409	11410	11411	
4	11412	11413	11414	11415	
4	11416	11417	11418	11419	
4	11420	11421	11422	11423	
4	11424	11425	11426	11427	
4	11428	11429	11430	11431	
4	11432	11433	11434	11435	
4	11436	11437	11438	11439	
4	11440	11441	11442	11443	
4	11444	11445	11446	11447	
4	11448	11449	11450	11451	
4	11452	11453	11454	11455	
4	11456	11457	11458	11459	
4	11460	11461	11462	11463	
4	11464	11465	11466	11467	
4	11468	11469	11470	11471	
4	11472	11473	11474	11475	
4	11476	11477	11478	11479	
4	11480	11481	11482	11483	
4	11484	11485	11486	11487	
4	11488	11489	11490	11491	
4	11492	11493	11494	11495	
4	11496	11497	11498	11499	
4	11500	11501	11502	11503	
4	11504	11505	11506	11507	
4	11508	11509	11510	11511	
4	11512	11513	11514	11515	
4	11516	11517	11518	11519	
4	11520	11521	11522	11523	
4	11524	11525	11526	11527	
4	11528	11529	11530	11531	
4	11532	11533	11534	11535	
4	11536	11537	11538	11539	
4	11540	11541	11542	11543	
4	11544	11545	11546	11547	
4	11548	11549	11550	11551	
4	11552	11553	11554	11555	
4	11556	11557	11558	11559	
4	11560	11561	11562	11563	
4	11564	11565	11566	11567	
4	11568	11569	11570	11571	
4	11572	11573	11574	11575	
4	11576	11577	11578	11579	
4	11580	11581	11582	11583	
4	11584	11585	11586	11587	
4	11588	11589	11590	11591	
4	11592	11593	11594	11595	
4	11596	11597	11598	11599	
4	11600	11601	11602	11603	
4	11604	11605	11606	11607	
4	11608	11609	11610	11611	
4	11612	11613	11614	11615	
4	11616	11617	11618	11619	
4	11620	11621	11622	11623	
4	11624	11625	11626	11627	
4	11628	11629	11630	11631	
4	11632	11633	11634	11635	
4	11636	11637	11638	11639	
4	11640	11641	11642	11643	
4	11644	11645	11646	11647	
4	11648	11649	11650	11651	
4	11652	11653	11654	11655	
4	11656	11657	11658	11659	
4	11660	11661	11662	11663	
4	11664	11665	11666	11667	
4	11668	11669	11670	11671	
4	11672	11673	11674	11675	
4	11676	11677	11678	11679	
4	11680	11681	11682	11683	
4	11684	11685	11686	11687	
4	11688	11689	11690	11691	
4	11692	11693	11694	11695	
4	11696	11697	11698	11699	
4	11700	11701	11702	11703	
4	11704	11705	11706	11707	
4	11708	11709	11710	11711	
4	11712	11713	11714	11715	
4	11716	11717	11718	11719	
4	11720	11721	11722	11723	
4	11724	11725	11726	11727	
4	11728	11729	11730	11731	
4	11732	11733	11734	11735	
4	11736	11737	11738	11739	
4	11740	11741	11742	11743	
4	11744	11745	11746	11747	
4	11748	11749	11750	11751	
4	11752	11753	11754	11755	
4	11756	11757	11758	11759	
4	11760	11761	11762	11763	
4	11764	11765	11766	11767	
4	11768	11769	11770	11771	
4	11772	11773	11774	11775	
4	11776	11777	11778	11779	
4	11780	11781	11782	11783	
4	11784	11785	11786	11787	
4	11788	11789	11790	11791	
4	11792	11793	11794	11795	
4	11796	11797	11798	11799	
4	11800	11801	11802	11803	
4	11804	11805	11806	11807	
4	11808	11809	11810	11811	
4	11812	11813	11814	11815	
4	11816	11817	11818	11819	
4	11820	11821	11822	11823	
4	11824	11825	11826	11827	
4	11828	11829	11830	11831	
4	11832	11833	11834	11835	
4	11836	11837	11838	11839	
4	11840	11841	11842	11843	
4	11844	11845	11846	11847	
4	11848	11849	11850	11851	
4	11852	11853	11854	11855	
4	11856	11857	11858	11859	
4	11860	11861	11862	11863	
4	11864	11865	11866	11867	
4	11868	11869	11870	11871	
4	11872	11873	11874	11875	
4	11876	11877	11878	11879	
4	11880	11881	11882	11883	
4	11884	11885	11886	11887	
4	11888	11889	11890	11891	
4	11892	11893	11894	11895	
4	11896	11897	11898	11899	
4	11900	11901	11902	11903	
4	11904	11905	11906	11907	
4	11908	11909	11910	11911	
4	11912	11913	11914	11915	
4	11916	11917	11918	11919	
4	11920	11921	11922	11923	
4	11924	11925	11926	11927	
4	11928	11929	11930	11931	
4	11932	11933	11934	11935	
4	11936	11937	11938	11939	
4	11940	11941	11942	11943	
4	11944	11945	11946	11947	
4	11948	11949	11950	11951	
4	11952	11953	11954	11955	
4	11956	11957	11958	11959	
4	11960	11961	11962	11963	
4	11964	11965	11966	11967	
4	11968	11969	11970	11971	
4	11972	11973	11974	11975	
4	11976	11977	11978	11979	
4	11980	11981	11982	11983	
4	11984	11985	11986	11987	
4	11988	11989	11990	11991	
4	11992	11993	11994	11995	
4	11996	11997	11998	11999	
4	12000	12001	12002	12003	
4	12004	12005	12006	12007	
4	12008	12009	12010	12011	
4	12012	12013	12014	12015	
4	12016	12017	12018	12019	
4	12020	12021	12022	12023	
4	12024	12025	12026	12027	
4	12028	12029	12030	12031	
4	12032	12033	12034	12035	
4	12036	12037	12038	12039	
4	12040	12041	12042	12043	
4	12044	12045	12046	12047	
4	12048	12049	12050	12051	
4	12052	12053	12054	12055	
4	12056	12057	12058	12059	
4	12060	12061	12062	12063	
4	12064	12065	12066	12067	
4	12068	12069	12070	12071	
4	12072	12073	12074	12075	
4	12076	12077	12078	12079	
4	12080	12081	12082	12083	
4	12084	12085	12086	12087	
4	12088	12089	12090	12091	
4	12092	12093	12094	12095	
4	12096	12097	12098	12099	
4	12100	12101	12102	12103	
4	12104	12105	12106	12107	
4	12108	12109	12110	12111	
4	12112	12113	12114	12115	
4	12116	12117	12118	12119	
4	12120	12121	12122	12123	
4	12124	12125	12126	12127	
4	12128	12129	12130	12131	
4	12132	12133	12134	12135	
4	12136	12137	12138	12139	
4	12140	12141	12142	12143	
4	12144	12145	12146	12147	
4	12148	12149	12150	12151	
4	12152	12153	12154	12155	
4	12156	12157	12158	12159	
4	12160	12161	12162	12163	
4	12164	12165	12166	12167	
4	12168	12169	12170	12171	
4	12172	12173	12174	12175	
4	12176	12177	12178	12179	
4	12180	12181	12182	12183	
4	12184	12185	12186	12187	
4	12188	12189	12190	12191	
4	12192	12193	12194	12195	
4	12196	12197	12198	12199	
4	12200	12201	12202	12203	
4	12204	12205	12206	12207	
4	12208	12209	12210	12211	
4	12212	12213	12214	12215	
4	12216	12217	12218	12219	
4	12220	12221	12222	12223	
4	12224	12225	12226	12227	
4	12228	12229	12230	12231	
4	12232	12233	12234	12235	
4	12236	12237	12238	12239	
4	12240	12241	12242	12243	
4	12244	12245	12246	12247	
4	12248	12249	12250	12251	
4	12252	12253	12254	12255	
4	12256	12257	12258	12259	
4	12260	12261	12262	12263	
4	12264	12265	12266	12267	
4	12268	12269	12270	12271	
4	12272	12273	12274	12275	
4	12276	12277	12278	12279	
4	12280	12281	12282	12283	
4	12284	12285	12286	12287	
4	12288	12289	12290	12291	
4	12292	12293	12294	12295	
4	12296	12297	12298	12299	
4	12300	12301	12302	12303	
4	12304	12305	12306	12307	
4	12308	12309	12310	12311	
4	12312	12313	12314	12315	
4	12316	12317	12318	12319	
4	12320	12321	12322	12323	
4	12324	12325	12326	12327	
4	12328	12329	12330	12331	
4	12332	12333	12334	12335	
4	12336	12337	12338	12339	
4	12340	12341	12342	12343	
4	12344	12345	12346	12347	
4	12348	12349	12350	12351	
4	12352	12353	12354	12355	
4	12356	12357	12358	12359	
4	12360	12361	12362	12363	
4	12364	12365	12366	12367	
4	12368	12369	12370	12371	
4	12372	12373	12374	12375	
4	12376	12377	12378	12379	
4	12380	12381	12382	12383	
4	12384	12385	12386	12387	
4	12388	12389	12390	12391	
4	12392	12393	12394	12395	
4	12396	12397	12398	12399	
4	12400	12401	12402	12403	
4	12404	12405	12406	12407	
4	12408	12409	12410	12411	
4	12412	12413	12414	12415	
4	12416	12417	12418	12419	
4	12420	12421	12422	12423	
4	12424	12425	12426	12427	
4	12428	12429	12430	12431	
4	12432	12433	12434	12435	
4	12436	12437	12438	12439	
4	12440	12441	12442	12443	
4	12444	12445	12446	12447	
4	12448	12449	12450	12451	
4	12452	12453	12454	12455	
4	12456	12457	12458	12459	
4	12460	12461	12462	12463	
4	12464	12465	12466	12467	
4	12468	12469	12470	12471	
4	12472	12473	12474	12475	
4	12476	12477	12478	12479	
4	12480	12481	12482	12483	
4	12484	12485	12486	12487	
4	12488	12489	12490	12491	
4	12492	12493	12494	12495	
4	12496	12497	12498	12499	
4	12500	12501	12502	12503	
4	12504	12505	12506	12507	
4	12508	12509	12510	12511	
4	12512	12513	12514	12515	
4	12516	12517	12518	12519	
4	12520	12521	12522	12523	
4	12524	12525	12526	12527	
4	12528	12529	12530	12531	
4	12532	12533	12534	12535	
4	12536	12537	12538	12539	
4	12540	12541	12542	12543	
4	12544	12545	12546	12547	
4	12548	12549	12550	12551	
4	12552	12553	12554	12555	
4	12556	12557	12558	12559	
4	12560	12561	12562	12563	
4	12564	12565	12566	12567	
4	12568	12569	12570	12571	
4	12572	12573	12574	12575	
4	12576	12577	12578	12579	
4	12580	12581	12582	12583	
4	12584	12585	12586	12587	
4	12588	12589	12590	12591	
4	12592	12593	12594	12595	
4	12596	12597	12598	12599	
4	12600	12601	12602	12603	
4	12604	12605	12606	12607	
4	12608	12609	12610	12611	
4	12612	12613	12614	12615	
4	12616	12617	12618	12619	
4	12620	12621	12622	12623	
4	12624	12625	12626	12627	
4	12628	12629	12630	12631	
4	12632	12633	12634	12635	
4	12636	12637	12638	12639	
4	12640	12641	12642	12643	
4	12644	12645	12646	12647	
4	12648	12649	12650	12651	
4	12652	12653	12654	12655	
4	12656	12657	12658	12659	
4	12660	12661	12662	12663	
4	12664	12665	12666	12667	
4	12668	12669	12670	12671	
4	12672	12673	12674	12675	
4	12676	12677	12678	12679	
4	12680	12681	12682	12683	
4	12684	12685	12686	12687	
4	12688	12689	12690	12691	
4	12692	12693	12694	12695	
4	12696	12697	12698	12699	
4	12700	12701	12702	12703	
4	12704	12705	12706	12707	
4	12708	12709	12710	12711	
4	12712	12713	12714	12715	
4	12716	12717	12718	12719	
4	12720	12721	12722	12723	
4	12724	12725	12726	12727	
4	12728	12729	12730	12731	
4	12732	12733	12734	12735	
4	12736	12737	12738	12739	
4	12740	12741	12742	12743	
4	12744	12745	12746	12747	
4	12748	12749	12750	12751	
4	12752	12753	12754	12755	
4	12756	12757	12758	12759	
4	12760	12761	12762	12763	
4	12764	12765	12766	12767	
4	12768	12769	12770	12771	
4	12772	12773	12774	12775	
4	12776	12777	12778	12779	
4	12780	12781	12782	12783	
4	12784	12785	12786	12787	
4	12788	12789	12790	12791	
4	12792	12793	12794	12795	
4	12796	12797	12798	12799	
4	12800	12801	12802	12803	
4	12804	12805	12806	12807	
4	12808	12809	12810	12811	
4	12812	12813	12814	12815	
4	12816	12817	12818	12819	
4	12820	12821	12822	12823	
4	12824	12825	12826	12827	
4	12828	12829	12830	12831	
4	12832	12833	12834	12835	
4	12836	12837	12838	12839	
4	12840	12841	12842	12843	
4	12844	12845	12846	12847	
4	12848	12849	12850	12851	
4	12852	12853	12854	12855	
4	12856	12857	12858	12859	
4	12860	12861	12862	12863	
4	12864	12865	12866	12867	
4	12868	12869	12870	12871	
4	12872	12873	12874	12875	
4	12876	12877	12878	12879	
4	12880	12881	12882	12883	
4	12884	12885	12886	12887	
4	12888	12889	12890	12891	
4	12892	12893	12894	12895	
4	12896	12897	12898	12899	
4	12900	12901	12902	12903	
4	12904	12905	12906	12907	
4	12908	12909	12910	12911	
4	12912	12913	12914	12915	
4	12916	12917	12918	12919	
4	12920	12921	12922	12923	
4	12924	12925	12926	12927	
4	12928	12929	12930	12931	
4	12932	12933	12934	12935	
4	12936	12937	12938	12939	
4	12940	12941	12942	12943	
4	12944	12945	12946	12947	
4	12948	12949	12950	12951	
4	12952	12953	12954	12955	
4	12956	12957	12958	12959	
4	12960	12961	12962	12963	
4	12964	12965	12966	12967	
4	12968	12969	12970	12971	
4	12972	12973	12974	12975	
4	12976	12977	12978	12979	
4	12980	12981	12982	12983	
4	12984	12985	12986	12987	
4	12988	12989	12990	12991	
4	12992	12993	12994	12995	
4	12996	12997	12998	12999	
4	13000	13001	13002	13003	
4	13004	13005	13006	13007	
4	13008	13009	13010	13011	
4	13012	13013	13014	13015	
4	13016	13017	13018	13019	
4	13020	13021	13022	13023	
4	13024	13025	13026	13027	
4	13028	13029	13030	13031	
4	13032	13033	13034	13035	
4	13036	13037	13038	13039	
4	13040	13041	13042	13043	
4	13044	13045	13046	13047	
4	13048	13049	13050	13051	
4	13052	13053	13054	13055	
4	13056	13057	13058	13059	
4	13060	13061	13062	13063	
4	13064	13065	13066	13067	
4	13068	13069	13070	13071	
4	13072	13073	13074	13075	
4	13076	13077	13078	13079	
4	13080	13081	13082	13083	
4	13084	13085	13086	13087	
4	13088	13089	13090	13091	
4	13092	13093	13094	13095	
4	13096	13097	13098	13099	
4	13100	13101	13102	13103	
4	13104	13105	13106	13107	
4	13108	13109	13110	13111	
4	13112	13113	13114	13115	
4	13116	13117	13118	13119	
4	13120	13121	13122	13123	
4	13124	13125	13126	13127	
4	13128	13129	13130	13131	
4	13132	13133	13134	13135	
4	13136	13137	13138	13139	
4	13140	13141	13142	13143	
4	13144	13145	13146	13147	
4	13148	13149	13150	13151	
4	13152	13153	13154	13155	
4	13156	13157	13158	13159	
4	13160	13161	13162	13163	
4	13164	13165	13166	13167	
4	13168	13169	13170	13171	
4	13172	13173	13174	13175	
4	13176	13177	13178	13179	
4	13180	13181	13182	13183	
4	13184	13185	13186	13187	
4	13188	13189	13190	13191	
4	13192	13193	13194	13195	
4	13196	13197	13198	13199	
4	13200	13201	13202	13203	
4	13204	13205	13206	13207	
4	13208	13209	13210	13211	
4	13212	13213	13214	13215	
4	13216	13217	13218	13219	
4	13220	13221	13222	13223	
4	13224	13225	13226	13227	
4	13228	13229	13230	13231	
4	13232	13233	13234	13235	
4	13236	13237	13238	13239	
4	13240	13241	13242	13243	
4	13244	13245	13246	13247	
4	13248	13249	13250	13251	
4	13252	13253	13254	13255	
4	13256	13257	13258	13259	
4	13260	13261	13262	13263	
4	13264	13265	13266	13267	
4	13268	13269	13270	13271	
4	13272	13273	13274	13275	
4	13276	13277	13278	13279	
4	13280	13281	13282	13283	
4	13284	13285	13286	13287	
4	13288	13289	13290	13291	
4	13292	13293	13294	13295	
4	13296	13297	13298	13299	
4	13300	13301	13302	13303	
4	13304	13305	13306	13307	
4	13308	13309	13310	13311	
4	13312	13313	13314	13315	
4	13316	13317	13318	13319	
4	13320	13321	13322	13323	
4	13324	13325	13326	13327	
4	13328	13329	13330	13331	
4	13332	13333	13334	13335	
4	13336	13337	13338	13339	
4	13340	13341	13342	13343	
4	13344	13345	13346	13347	
4	13348	13349	13350	13351	
4	13352	13353	13354	13355	
4	13356	13357	13358	13359	
4	13360	13361	13362	13363	
4	13364	13365	13366	13367	
4	13368	13369	13370	13371	
4	13372	13373	13374	13375	
4	13376	13377	13378	13379	
4	13380	13381	13382	13383	
4	13384	13385	13386	13387	
4	13388	13389	13390	13391	
4	13392	13393	13394	13395	
4	13396	13397	13398	13399	
4	13400	13401	13402	13403	
4	13404	13405	13406	13407	
4	13408	13409	13410	13411	
4	13412	13413	13414	13415	
4	13416	13417	13418	13419	
4	13420	13421	13422	13423	
4	13424	13425	13426	13427	
4	13428	13429	13430	13431	
4	13432	13433	13434	13435	
4	13436	13437	13438	13439	
4	13440	13441	13442	13443	
4	13444	13445	13446	13447	
4	13448	13449	13450	13451	
4	13452	13453	13454	13455	
4	13456	13457	13458	13459	
4	13460	13461	13462	13463	
4	13464	13465	13466	13467	
4	13468	13469	13470	13471	
4	13472	13473	13474	13475	
4	13476	13477	13478	13479	
4	13480	13481	13482	13483	
4	13484	13485	13486	13487	
4	13488	13489	13490	13491	
4	13492	13493	13494	13495	
4	13496	13497	13498	13499	
4	13500	13501	13502	13503	
4	13504	13505	13506	13507	
4	13508	13509	13510	13511	
4	13512	13513	13514	13515	
4	13516	13517	13518	13519	
4	13520	13521	13522	13523	
4	13524	13525	13526	13527	
4	13528	13529	13530	13531	
4	13532	13533	13534	13535	
4	13536	13537	13538	13539	
4	13540	13541	13542	13543	
4	13544	13545	13546	13547	
4	13548	13549	13550	13551	
4	13552	13553	13554	13555	
4	13556	13557	13558	13559	
4	13560	13561	13562	13563	
4	13564	13565	13566	13567	
4	13568	13569	13570	13571	
4	13572	13573	13574	13575	
4	13576	13577	13578	13579	
4	13580	13581	13582	13583	
4	13584	13585	13586	13587	
4	13588	13589	13590	13591	
4	13592	13593	13594	13595	
4	13596	13597	13598	13599	
4	13600	13601	13602	13603	
4	13604	13605	13606	13607	
4	13608	13609	13610	13611	
4	13612	13613	13614	13615	
4	13616	13617	13618	13619	
4	13620	13621	13622	13623	
4	13624	13625	13626	13627	
4	13628	13629	13630	13631	
4	13632	13633	13634	13635	
4	13636	13637	13638	13639	
4	13640	13641	13642	13643	
4	13644	13645	13646	13647	
4	13648	13649	13650	13651	
4	13652	13653	13654	13655	
4	13656	13657	13658	13659	
4	13660	13661	13662	13663	
4	13664	13665	13666	13667	
4	13668	13669	13670	13671	
4	13672	13673	13674	13675	
4	13676	13677	13678	13679	
4	13680	13681	13682	13683	
4	13684	13685	13686	13687	
4	13688	13689	13690	13691	
4	13692	13693	13694	13695	
4	13696	13697	13698	13699	
4	13700	13701	13702	13703	
4	13704	13705	13706	13707	
4	13708	13709	13710	13711	
4	13712	13713	13714	13715	
4	13716	13717	13718	13719	
4	13720	13721	13722	13723	
4	13724	13725	13726	13727	
4	13728	13729	13730	13731	
4	13732	13733	13734	13735	
4	13736	13737	13738	13739	
4	13740	13741	13742	13743	
4	13744	13745	13746	13747	
4	13748	13749	13750	13751	
4	13752	13753	13754	13755	
4	13756	13757	13758	13759	
4	13760	13761	13762	13763	
4	13764	13765	13766	13767	
4	13768	13769	13770	13771	
4	13772	13773	13774	13775	
4	13776	13777	13778	13779	
4	13780	13781	13782	13783	
4	13784	13785	13786	13787	
4	13788	13789	13790	13791	
4	13792	13793	13794	13795	
4	13796	13797	13798	13799	
4	13800	13801	13802	13803	
4	13804	13805	13806	13807	
4	13808	13809	13810	13811	
4	13812	13813	13814	13815	
4	13816	13817	13818	13819	
4	13820	13821	13822	13823	
4	13824	13825	13826	13827	
4	13828	13829	13830	13831	
4	13832	13833	13834	13835	
4	13836	13837	13838	13839	
4	13840	13841	13842	13843	
4	13844	13845	13846	13847	
4	13848	13849	13850	13851	
4	13852	13853	13854	13855	
4	13856	13857	13858	13859	
4	13860	13861	13862	13863	
4	13864	13865	13866	13867	
4	13868	13869	13870	13871	
4	13872	13873	13874	13875	
4	13876	13877	13878	13879	
4	13880	13881	13882	13883	
4	13884	13885	13886	13887	
4	13888	13889	13890	13891	
4	13892	13893	13894	13895	
4	13896	13897	13898	13899	
4	13900	13901	13902	13903	
4	13904	13905	13906	13907	
4	13908	13909	13910	13911	
4	13912	13913	13914	13915	
4	13916	13917	13918	13919	
4	13920	13921	13922	13923	
4	13924	13925	13926	13927	
4	13928	13929	13930	13931	
4	13932	13933	13934	13935	
4	13936	13937	13938	13939	
4	13940	13941	13942	13943	
4	13944	13945	13946	13947	
4	13948	13949	13950	13951	
4	13952	13953	13954	13955	
4	13956	13957	13958	13959	
4	13960	13961	13962	13963	
4	13964	13965	13966	13967	
4	13968	13969	13970	13971	
4	13972	13973	13974	13975	
4	13976	13977	13978	13979	
4	13980	13981	13982	13983	
4	13984	13985	13986	13987	
4	13988	13989	13990	13991	
4	13992	13993	13994	13995	
4	13996	13997	13998	13999	
4	14000	14001	14002	14003	
4	14004	14005	14006	14007	
4	14008	14009	14010	14011	
4	14012	14013	14014	14015	
4	14016	14017	14018	14019	
4	14020	14021	14022	14023	
4	14024	14025	14026	14027	
4	14028	14029	14030	14031	
4	14032	14033	14034	14035	
4	14036	14037	14038	14039	
4	14040	14041	14042	14043	
4	14044	14045	14046	14047	
4	14048	14049	14050	14051	
4	14052	14053	14054	14055	
4	14056	14057	14058	14059	
4	14060	14061	14062	14063	
4	14064	14065	14066	14067	
4	14068	14069	14070	14071	
4	14072	14073	14074	14075	
4	14076	14077	14078	14079	
4	14080	14081	14082	14083	
4	14084	14085	14086	14087	
4	14088	14089	14090	14091	
4	14092	14093	14094	14095	
4	14096	14097	14098	14099	
4	14100	14101	14102	14103	
4	14104	14105	14106	14107	
4	14108	14109	14110	14111	
4	14112	14113	14114	14115	
4	14116	14117	14118	14119	
4	14120	14121	14122	14123	
4	14124	14125	14126	14127	
4	14128	14129	14130	14131	
4	14132	14133	14134	14135	
4	14136	14137	14138	14139	
4	14140	14141	14142	14143	
4	14144	14145	14146	14147	
4	14148	14149	14150	14151	
4	14152	14153	14154	14155	
4	14156	14157	14158	14159	
4	14160	14161	14162	14163	
4	14164	14165	14166	14167	
4	14168	14169	14170	14171	
4	14172	14173	14174	14175	
4	14176	14177	14178	14179	
4	14180	14181	14182	14183	
4	14184	14185	14186	14187	
4	14188	14189	14190	14191	
4	14192	14193	14194	14195	
4	14196	14197	14198	14199	
4	14200	14201	14202	14203	
4	14204	14205	14206	14207	
4	14208	14209	14210	14211	
4	14212	14213	14214	14215	
4	14216	14217	14218	14219	
4	14220	14221	14222	14223	
4	14224	14225	14226	14227	
4	14228	14229	14230	14231	
4	14232	14233	14234	14235	
4	14236	14237	14238	14239	
4	14240	14241	14242	14243	
4	14244	14245	14246	14247	
4	14248	14249	14250	14251	
4	14252	14253	14254	14255	
4	14256	14257	14258	14259	
4	14260	14261	14262	14263	
4	14264	14265	14266	14267	
4	14268	14269	14270	14271	
4	14272	14273	14274	14275	
4	14276	14277	14278	14279	
4	14280	14281	14282	14283	
4	14284	14285	14286	14287	
4	14288	14289	14290	14291	
4	14292	14293	14294	14295	
4	14296	14297	14298	14299	
4	14300	14301	14302	14303	
4	14304	14305	14306	14307	
4	14308	14309	14310	14311	
4	14312	14313	14314	14315	
4	14316	14317	14318	14319	
4	14320	14321	14322	14323	
4	14324	14325	14326	14327	
4	14328	14329	14330	14331	
4	14332	14333	14334	14335	
4	14336	14337	14338	14339	
4	14340	14341	14342	14343	
4	14344	14345	14346	14347	
4	14348	14349	14350	14351	
4	14352	14353	14354	14355	
4	14356	14357	14358	14359	
4	14360	14361	14362	14363	
4	14364	14365	14366	14367	
4	14368	14369	14370	14371	
4	14372	14373	14374	14375	
4	14376	14377	14378	14379	
4	14380	14381	14382	14383	
4	14384	14385	14386	14387	
4	14388	14389	14390	14391	
4	14392	14393	14394	14395	
4	14396	14397	14398	14399	
4	14400	14401	14402	14403	
4	14404	14405	14406	14407	
4	14408	14409	14410	14411	
4	14412	14413	14414	14415	
4	14416	14417	14418	14419	
4	14420	14421	14422	14423	
4	14424	14425	14426	14427	
4	14428	14429	14430	14431	
4	14432	14433	14434	14435	
4	14436	14437	14438	14439	
4	14440	14441	14442	14443	
4	14444	14445	14446	14447	
4	14448	14449	14450	14451	
4	14452	14453	14454	14455	
4	14456	14457	14458	14459	
4	14460	14461	14462	14463	
4	14464	14465	14466	14467	
4	14468	14469	14470	14471	
4	14472	14473	14474	14475	
4	14476	14477	14478	14479	
4	14480	14481	14482	14483	
4	14484	14485	14486	14487	
4	14488	14489	14490	14491	
4	14492	14493	14494	14495	
4	14496	14497	14498	14499	
4	14500	14501	14502	14503	
4	14504	14505	14506	14507	
4	14508	14509	14510	14511	
4	14512	14513	14514	14515	
4	14516	14517	14518	14519	
4	14520	14521	14522	14523	
4	14524	14525	14526	14527	
4	14528	14529	14530	14531	
4	14532	14533	14534	14535	
4	14536	14537	14538	14539	
4	14540	14541	14542	14543	
4	14544	14545	14546	14547	
4	14548	14549	14550	14551	
4	14552	14553	14554	14555	
4	14556	14557	14558	14559	
4	14560	14561	14562	14563	
4	14564	14565	14566	14567	
4	14568	14569	14570	14571	
4	14572	14573	14574	14575	
4	14576	14577	14578	14579	
4	14580	14581	14582	14583	
4	14584	14585	14586	14587	
4	14588	14589	14590	14591	
4	14592	14593	14594	14595	
4	14596	14597	14598	14599	
4	14600	14601	14602	14603	
4	14604	14605	14606	14607	
4	14608	14609	14610	14611	
4	14612	14613	14614	14615	
4	14616	14617	14618	14619	
4	14620	14621	14622	14623	
4	14624	14625	14626	14627	
4	14628	14629	14630	14631	
4	14632	14633	14634	14635	
4	14636	14637	14638	14639	
4	14640	14641	14642	14643	
4	14644	14645	14646	14647	
4	14648	14649	14650	14651	
4	14652	14653	14654	14655	
4	14656	14657	14658	14659	
4	14660	14661	14662	14663	
4	14664	14665	14666	14667	
4	14668	14669	14670	14671	
4	14672	14673	14674	14675	
4	14676	14677	14678	14679	
4	14680	14681	14682	14683	
4	14684	14685	14686	14687	
4	14688	14689	14690	14691	
4	14692	14693	14694	14695	
4	14696	14697	14698	14699	
4	14700	14701	14702	14703	
4	14704	14705	14706	14707	
4	14708	14709	14710	14711	
4	14712	14713	14714	14715	
4	14716	14717	14718	14719	
4	14720	14721	14722	14723	
4	14724	14725	14726	14727	
4	14728	14729	14730	14731	
4	14732	14733	14734	14735	
4	14736	14737	14738	14739	
4	14740	14741	14742	14743	
4	14744	14745	14746	14747	
4	14748	14749	14750	14751	
4	14752	14753	14754	14755	
4	14756	14757	14758	14759	
4	14760	14761	14762	14763	
4	14764	14765	14766	14767	
4	14768	14769	14770	14771	
4	14772	14773	14774	14775	
4	14776	14777	14778	14779	
4	14780	14781	14782	14783	
4	14784	14785	14786	14787	
4	14788	14789	14790	14791	
4	14792	14793	14794	14795	
4	14796	14797	14798	14799	
4	14800	14801	14802	14803	
4	14804	14805	14806	14807	
4	14808	14809	14810	14811	
4	14812	14813	14814	14815	
4	14816	14817	14818	14819	
4	14820	14821	14822	14823	
4	14824	14825	14826	14827	
4	14828	14829	14830	14831	
4	14832	14833	14834	14835	
4	14836	14837	14838	14839	
4	14840	14841	14842	14843	
4	14844	14845	14846	14847	
4	14848	14849	14850	14851	
4	14852	14853	14854	14855	
4	14856	14857	14858	14859	
4	14860	14861	14862	14863	
4	14864	14865	14866	14867	
4	14868	14869	14870	14871	
4	14872	14873	14874	14875	
4	14876	14877	14878	14879	
4	14880	14881	14882	14883	
4	14884	14885	14886	14887	
4	14888	14889	14890	14891	
4	14892	14893	14894	14895	
4	14896	14897	14898	14899	
4	14900	14901	14902	14903	
4	14904	14905	14906	14907	
4	14908	14909	14910	14911	
4	14912	14913	14914	14915	
4	14916	14917	14918	14919	
4	14920	14921	14922	14923	
4	14924	14925	14926	14927	
4	14928	14929	14930	14931	
4	14932	14933	14934	14935	
4	14936	14937	14938	14939	
4	14940	14941	14942	14943	
4	14944	14945	14946	14947	
4	14948	14949	14950	14951	
4	14952	14953	14954	14955	
4	14956	14957	14958	14959	
4	14960	14961	14962	14963	
4	14964	14965	14966	14967	
4	14968	14969	14970	14971	
4	14972	14973	14974	14975	
4	14976	14977	14978	14979	
4	14980	14981	14982	14983	
4	14984	14985	14986	14987	
4	14988	14989	14990	14991	
4	14992	14993	14994	14995	
4	14996	14997	14998	14999	
4	15000	15001	15002	15003	
4	15004	15005	15006	15007	
4	15008	15009	15010	15011	
4	15012	15013	15014	15015	
4	15016	15017	15018	15019	
4	15020	15021	15022	15023	
4	15024	15025	15026	15027	
4	15028	15029	15030	15031	
4	15032	15033	15034	15035	
4	15036	15037	15038	15039	
4	15040	15041	15042	15043	
4	15044	15045	15046	15047	
4	15048	15049	15050	15051	
4	15052	15053	15054	15055	
4	15056	15057	15058	15059	
4	15060	15061	15062	15063	
4	15064	15065	15066	15067	
4	15068	15069	15070	15071	
4	15072	15073	15074	15075	
4	15076	15077	15078	15079	
4	15080	15081	15082	15083	
4	15084	15085	15086	15087	
4	15088	15089	15090	15091	
4	15092	15093	15094	15095	
4	15096	15097	15098	15099	
4	15100	15101	15102	15103	
4	15104	15105	15106	15107	
4	15108	15109	15110	15111	
4	15112	15113	15114	15115	
4	15116	15117	15118	15119	
4	15120	15121	15122	15123	
4	15124	15125	15126	15127	
4	15128	15129	15130	15131	
4	15132	15133	15134	15135	
4	15136	15137	15138	15139	
4	15140	15141	15142	15143	
4	15144	15145	15146	15147	
4	15148	15149	15150	15151	
4	15152	15153	15154	15155	
4	15156	15157	15158	15159	
4	15160	15161	15162	15163	
4	15164	15165	15166	15167	
4	15168	15169	15170	15171	
4	15172	15173	15174	15175	
4	15176	15177	15178	15179	
4	15180	15181	15182	15183	
4	15184	15185	15186	15187	
4	15188	15189	15190	15191	
4	15192	15193	15194	15195	
4	15196	15197	15198	15199	
4	15200	15201	15202	15203	
4	15204	15205	15206	15207	
4	15208	15209	15210	15211	
4	15212	15213	15214	15215	
4	15216	15217	15218	15219	
4	15220	15221	15222	15223	
4	15224	15225	15226	15227	
4	15228	15229	15230	15231	
4	15232	15233	15234	15235	
4	15236	15237	15238	15239	
4	15240	15241	15242	15243	
4	15244	15245	15246	15247	
4	15248	15249	15250	15251	
4	15252	15253	15254	15255	
4	15256	15257	15258	15259	
4	15260	15261	15262	15263	
4	15264	15265	15266	15267	
4	15268	15269	15270	15271	
4	15272	15273	15274	15275	
4	15276	15277	15278	15279	
4	15280	15281	15282	15283	
4	15284	15285	15286	15287	
4	15288	15289	15290	15291	
4	15292	15293	15294	15295	
4	15296	15297	15298	15299	
4	15300	15301	15302	15303	
4	15304	15305	15306	15307	
4	15308	15309	15310	15311	
4	15312	15313	15314	15315	
4	15316	15317	15318	15319	
4	15320	15321	15322	15323	
4	15324	15325	15326	15327	
4	15328	15329	15330	15331	
4	15332	15333	15334	15335	
4	15336	15337	15338	15339	
4	15340	15341	15342	15343	
4	15344	15345	15346	15347	
4	15348	15349	15350	15351	
4	15352	15353	15354	15355	
4	15356	15357	15358	15359	
4	15360	15361	15362	15363	
4	15364	15365	15366	15367	
4	15368	15369	15370	15371	
4	15372	15373	15374	15375	
4	15376	15377	15378	15379	
4	15380	15381	15382	15383	
4	15384	15385	15386	15387	
4	15388	15389	15390	15391	
4	15392	15393	15394	15395	
4	15396	15397	15398	15399	
4	15400	15401	15402	15403	
4	15404	15405	15406	15407	
4	15408	15409	15410	15411	
4	15412	15413	15414	15415	
4	15416	15417	15418	15419	
4	15420	15421	15422	15423	
4	15424	15425	15426	15427	
4	15428	15429	15430	15431	
4	15432	15433	15434	15435	
4	15436	15437	15438	15439	
4	15440	15441	15442	15443	
4	15444	15445	15446	15447	
4	15448	15449	15450	15451	
4	15452	15453	15454	15455	
4	15456	15457	15458	15459	
4	15460	15461	15462	15463	
4	15464	15465	15466	15467	
4	15468	15469	15470	15471	
4	15472	15473	15474	15475	
4	15476	15477	15478	15479	
4	15480	15481	15482	15483	
4	15484	15485	15486	15487	
4	15488	15489	15490	15491	
4	15492	15493	15494	15495	
4	15496	15497	15498	15499	
4	15500	15501	15502	15503	
4	15504	15505	15506	15507	
4	15508	15509	15510	15511	
4	15512	15513	15514	15515	
4	15516	15517	15518	15519	
4	15520	15521	15522	15523	
4	15524	15525	15526	15527	
4	15528	15529	15530	15531	
4	15532	15533	15534	15535	
4	15536	15537	15538	15539	
4	15540	15541	15542	15543	
4	15544	15545	15546	15547	
4	15548	15549	15550	15551	
4	15552	15553	15554	15555	
4	15556	15557	15558	15559	
4	15560	15561	15562	15563	
4	15564	15565	15566	15567	
4	15568	15569	15570	15571	
4	15572	15573	15574	15575	
4	15576	15577	15578	15579	
4	15580	15581	15582	15583	
4	15584	15585	15586	15587	
4	15588	15589	15590	15591	
4	15592	15593	15594	15595	
4	15596	15597	15598	15599	
4	15600	15601	15602	15603	
4	15604	15605	15606	15607	
4	15608	15609	15610	15611	
4	15612	15613	15614	15615	
4	15616	15617	15618	15619	
4	15620	15621	15622	15623	
4	15624	15625	15626	15627	
4	15628	15629	15630	15631	
4	15632	15633	15634	15635	
4	15636	15637	15638	15639	
4	15640	15641	15642	15643	
4	15644	15645	15646	15647	
4	15648	15649	15650	15651	
4	15652	15653	15654	15655	
4	15656	15657	15658	15659	
4	15660	15661	15662	15663	
4	15664	15665	15666	15667	
4	15668	15669	15670	15671	
4	15672	15673	15674	15675	
4	15676	15677	15678	15679	
4	15680	15681	15682	15683	
4	15684	15685	15686	15687	
4	15688	15689	15690	15691	
4	15692	15693	15694	15695	
4	15696	15697	15698	15699	
4	15700	15701	15702	15703	
4	15704	15705	15706	15707	
4	15708	15709	15710	15711	
4	15712	15713	15714	15715	
4	15716	15717	15718	15719	
4	15720	15721	15722	15723	
4	15724	15725	15726	15727	
4	15728	15729	15730	15731	
4	15732	15733	15734	15735	
4	15736	15737	15738	15739	
4	15740	15741	15742	15743	
4	15744	15745	15746	15747	
4	15748	15749	15750	15751	
4	15752	15753	15754	15755	
4	15756	15757	15758	15759	
4	15760	15761	15762	15763	
4	15764	15765	15766	15767	
4	15768	15769	15770	15771	
4	15772	15773	15774	15775	
4	15776	15777	15778	15779	
4	15780	15781	15782	15783	
4	15784	15785	15786	15787	
4	15788	15789	15790	15791	
4	15792	15793	15794	15795	
4	15796	15797	15798	15799	
4	15800	15801	15802	15803	
4	15804	15805	15806	15807	
4	15808	15809	15810	15811	
4	15812	15813	15814	15815	
4	15816	15817	15818	15819	
4	15820	15821	15822	15823	
4	15824	15825	15826	15827	
4	15828	15829	15830	15831	
4	15832	15833	15834	15835	
4	15836	15837	15838	15839	
4	15840	15841	15842	15843	
4	15844	15845	15846	15847	
4	15848	15849	15850	15851	
4	15852	15853	15854	15855	
4	15856	15857	15858	15859	
4	15860	15861	15862	15863	
4	15864	15865	15866	15867	
4	15868	15869	15870	15871	
4	15872	15873	15874	15875	
4	15876	15877	15878	15879	
4	15880	15881	15882	15883	
4	15884	15885	15886	15887	
4	15888	15889	15890	15891	
4	15892	15893	15894	15895	
4	15896	15897	15898	15899	
4	15900	15901	15902	15903	
4	15904	15905	15906	15907	
4	15908	15909	15910	15911	
4	15912	15913	15914	15915	
4	15916	15917	15918	15919	
4	15920	15921	15922	15923	
4	15924	15925	15926	15927	
4	15928	15929	15930	15931	
4	15932	15933	15934	15935	
4	15936	15937	15938	15939	
4	15940	15941	15942	15943	
4	15944	15945	15946	15947	
4	15948	15949	15950	15951	
4	15952	15953	15954	15955	
4	15956	15957	15958	15959	
4	15960	15961	15962	15963	
4	15964	15965	15966	15967	
4	15968	15969	15970	15971	
4	15972	15973	15974	15975	
4	15976	15977	15978	15979	
4	15980	15981	15982	15983	
4	15984	15985	15986	15987	
4	15988	15989	15990	15991	
4	15992	15993	15994	15995	
4	15996	15997	15998	15999	
4	16000	16001	16002	16003	
4	16004	16005	16006	16007	
4	16008	16009	16010	16011	
4	16012	16013	16014	16015	
4	16016	16017	16018	16019	
4	16020	16021	16022	16023	
4	16024	16025	16026	16027	
4	16028	16029	16030	16031	
4	16032	16033	16034	16035	
4	16036	16037	16038	16039	
4	16040	16041	16042	16043	
4	16044	16045	16046	16047	
4	16048	16049	16050	16051	
4	16052	16053	16054	16055	
4	16056	16057	16058	16059	
4	16060	16061	16062	16063	
4	16064	16065	16066	16067	
4	16068	16069	16070	16071	
4	16072	16073	16074	16075	
4	16076	16077	16078	16079	
4	16080	16081	16082	16083	
4	16084	16085	16086	16087	
4	16088	16089	16090	16091	
4	16092	16093	16094	16095	
4	16096	16097	16098	16099	
4	16100	16101	16102	16103	
4	16104	16105	16106	16107	
4	16108	16109	16110	16111	
4	16112	16113	16114	16115	
4	16116	16117	16118	16119	
4	16120	16121	16122	16123	
4	16124	16125	16126	16127	
4	16128	16129	16130	16131	
4	16132	16133	16134	16135	
4	16136	16137	16138	16139	
4	16140	16141	16142	16143	
4	16144	16145	16146	16147	
4	16148	16149	16150	16151	
4	16152	16153	16154	16155	
4	16156	16157	16158	16159	
4	16160	16161	16162	16163	
4	16164	16165	16166	16167	
4	16168	16169	16170	16171	
4	16172	16173	16174	16175	
4	16176	16177	16178	16179	
4	16180	16181	16182	16183	
4	16184	16185	16186	16187	
4	16188	16189	16190	16191	
4	16192	16193	16194	16195	
4	16196	16197	16198	16199	
4	16200	16201	16202	16203	
4	16204	16205	16206	16207	
4	16208	16209	16210	16211	
4	16212	16213	16214	16215	
4	16216	16217	16218	16219	
4	16220	16221	16222	16223	
4	16224	16225	16226	16227	
4	16228	16229	16230	16231	
4	16232	16233	16234	16235	
4	16236	16237	16238	16239	
4	16240	16241	16242	16243	
4	16244	16245	16246	16247	
4	16248	16249	16250	16251	
4	16252	16253	16254	16255	
4	16256	16257	16258	16259	
4	16260	16261	16262	16263	
4	16264	16265	16266	16267	
4	16268	16269	16270	16271	
4	16272	16273	16274	16275	
4	16276	16277	16278	16279	
4	16280	16281	16282	16283	
4	16284	16285	16286	16287	
4	16288	16289	16290	16291	
4	16292	16293	16294	16295	
4	16296	16297	16298	16299	
4	16300	16301	16302	16303	
4	16304	16305	16306	16307	
4	16308	16309	16310	16311	
4	16312	16313	16314	16315	
4	16316	16317	16318	16319	
4	16320	16321	16322	16323	
4	16324	16325	16326	16327	
4	16328	16329	16330	16331	
4	16332	16333	16334	16335	
4	16336	16337	16338	16339	
4	16340	16341	16342	16343	
4	16344	16345	16346	16347	
4	16348	16349	16350	16351	
4	16352	16353	16354	16355	
4	16356	16357	16358	16359	
4	16360	16361	16362	16363	
4	16364	16365	16366	16367	
4	16368	16369	16370	16371	
4	16372	16373	16374	16375	
4	16376	16377	16378	16379	
4	16380	16381	16382	16383	
4	16384	16385	16386	16387	
4	16388	16389	16390	16391	
4	16392	16393	16394	16395	
4	16396	16397	16398	16399	
4	16400	16401	16402	16403	
4	16404	16405	16406	16407	
4	16408	16409	16410	16411	
4	16412	16413	16414	16415	
4	16416	16417	16418	16419	
4	16420	16421	16422	16423	
4	16424	16425	16426	16427	
4	16428	16429	16430	16431	
4	16432	16433	16434	16435	
4	16436	16437	16438	16439	
4	16440	16441	16442	16443	
4	16444	16445	16446	16447	
4	16448	16449	16450	16451	
4	16452	16453	16454	16455	
4	16456	16457	16458	16459	
4	16460	16461	16462	16463	
4	16464	16465	16466	16467	
4	16468	16469	16470	16471	
4	16472	16473	16474	16475	
4	16476	16477	16478	16479	
4	16480	16481	16482	16483	
4	16484	16485	16486	16487	
4	16488	16489	16490	16491	
4	16492	16493	16494	16495	
4	16496	16497	16498	16499	
4	16500	16501	16502	16503	
4	16504	16505	16506	16507	
4	16508	16509	16510	16511	
4	16512	16513	16514	16515	
4	16516	16517	16518	16519	
4	16520	16521	16522	16523	
4	16524	16525	16526	16527	
4	16528	16529	16530	16531	
4	16532	16533	16534	16535	
4	16536	16537	16538	16539	
4	16540	16541	16542	16543	
4	16544	16545	16546	16547	
4	16548	16549	16550	16551	
4	16552	16553	16554	16555	
4	16556	16557	16558	16559	
4	16560	16561	16562	16563	
4	16564	16565	16566	16567	
4	16568	16569	16570	16571	
4	16572	16573	16574	16575	
4	16576	16577	16578	16579	
4	16580	16581	16582	16583	
4	16584	16585	16586	16587	
4	16588	16589	16590	16591	
4	16592	16593	16594	16595	
4	16596	16597	16598	16599	
4	16600	16601	16602	16603	
4	16604	16605	16606	16607	
4	16608	16609	16610	16611	
4	16612	16613	16614	16615	
4	16616	16617	16618	16619	
4	16620	16621	16622	16623	
4	16624	16625	16626	16627	
4	16628	16629	16630	16631	
4	16632	16633	16634	16635	
4	16636	16637	16638	16639	
4	16640	16641	16642	16643	
4	16644	16645	16646	16647	
4	16648	16649	16650	16651	
4	16652	16653	16654	16655	
4	16656	16657	16658	16659	
4	16660	16661	16662	16663	
4	16664	16665	16666	16667	
4	16668	16669	16670	16671	
4	16672	16673	16674	16675	
4	16676	16677	16678	16679	
4	16680	16681	16682	16683	
4	16684	16685	16686	16687	
4	16688	16689	16690	16691	
4	16692	16693	16694	16695	
4	16696	16697	16698	16699	
4	16700	16701	16702	16703	
4	16704	16705	16706	16707	
4	16708	16709	16710	16711	
4	16712	16713	16714	16715	
4	16716	16717	16718	16719	
4	16720	16721	16722	16723	
4	16724	16725	16726	16727	
4	16728	16729	16730	16731	
4	16732	16733	16734	16735	
4	16736	16737	16738	16739	
4	16740	16741	16742	16743	
4	16744	16745	16746	16747	
4	16748	16749	16750	16751	
4	16752	16753	16754	16755	
4	16756	16757	16758	16759	
4	16760	16761	16762	16763	
4	16764	16765	16766	16767	
4	16768	16769	16770	16771	
4	16772	16773	16774	16775	
4	16776	16777	16778	16779	
4	16780	16781	16782	16783	
4	16784	16785	16786	16787	
4	16788	16789	16790	16791	
4	16792	16793	16794	16795	
4	16796	16797	16798	16799	
4	16800	16801	16802	16803	
4	16804	16805	16806	16807	
4	16808	16809	16810	16811	
4	16812	16813	16814	16815	
4	16816	16817	16818	16819	
4	16820	16821	16822	16823	
4	16824	16825	16826	16827	
4	16828	16829	16830	16831	
4	16832	16833	16834	16835	
4	16836	16837	16838	16839	
4	16840	16841	16842	16843	
4	16844	16845	16846	16847	
4	16848	16849	16850	16851	
4	16852	16853	16854	16855	
4	16856	16857	16858	16859	
4	16860	16861	16862	16863	
4	16864	16865	16866	16867	
4	16868	16869	16870	16871	
4	16872	16873	16874	16875	
4	16876	16877	16878	16879	
4	16880	16881	16882	16883	
4	16884	16885	16886	16887	
4	16888	16889	16890	16891	
4	16892	16893	16894	16895	
4	16896	16897	16898	16899	
4	16900	16901	16902	16903	
4	16904	16905	16906	16907	
4	16908	16909	16910	16911	
4	16912	16913	16914	16915	
4	16916	16917	16918	16919	
4	16920	16921	16922	16923	
4	16924	16925	16926	16927	
4	16928	16929	16930	16931	
4	16932	16933	16934	16935	
4	16936	16937	16938	16939	
4	16940	16941	16942	16943	
4	16944	16945	16946	16947	
4	16948	16949	16950	16951	
4	16952	16953	16954	16955	
4	16956	16957	16958	16959	
4	16960	16961	16962	16963	
4	16964	16965	16966	16967	
4	16968	16969	16970	16971	
4	16972	16973	16974	16975	
4	16976	16977	16978	16979	
4	16980	16981	16982	16983	
4	16984	16985	16986	16987	
4	16988	16989	16990	16991	
4	16992	16993	16994	16995	
4	16996	16997	16998	16999	
4	17000	17001	17002	17003	
4	17004	17005	17006	17007	
4	17008	17009	17010	17011	
4	17012	17013	17014	17015	
4	17016	17017	17018	17019	
4	17020	17021	17022	17023	
4	17024	17025	17026	17027	
4	17028	17029	17030	17031	
4	17032	17033	17034	17035	
4	17036	17037	17038	17039	
4	17040	17041	17042	17043	
4	17044	17045	17046	17047	
4	17048	17049	17050	17051	
4	17052	17053	17054	17055	
4	17056	17057	17058	17059	
4	17060	17061	17062	17063	
4	17064	17065	17066	17067	
4	17068	17069	17070	17071	
4	17072	17073	17074	17075	
4	17076	17077	17078	17079	
4	17080	17081	17082	17083	
4	17084	17085	17086	17087	
4	17088	17089	17090	17091	
4	17092	17093	17094	17095	
4	17096	17097	17098	17099	
4	17100	17101	17102	17103	
4	17104	17105	17106	17107	
4	17108	17109	17110	17111	
4	17112	17113	17114	17115	
4	17116	17117	17118	17119	
4	17120	17121	17122	17123	
4	17124	17125	17126	17127	
4	17128	17129	17130	17131	
4	17132	17133	17134	17135	
4	17136	17137	17138	17139	
4	17140	17141	17142	17143	
4	17144	17145	17146	17147	
4	17148	17149	17150	17151	
4	17152	17153	17154	17155	
4	17156	17157	17158	17159	
4	17160	17161	17162	17163	
4	17164	17165	17166	17167	
4	17168	17169	17170	17171	
4	17172	17173	17174	17175	
4	17176	17177	17178	17179	
4	17180	17181	17182	17183	
4	17184	17185	17186	17187	
4	17188	17189	17190	17191	
4	17192	17193	17194	17195	
4	17196	17197	17198	17199	
4	17200	17201	17202	17203	
4	17204	17205	17206	17207	
4	17208	17209	17210	17211	
4	17212	17213	17214	17215	
4	17216	17217	17218	17219	
4	17220	17221	17222	17223	
4	17224	17225	17226	17227	
4	17228	17229	17230	17231	
4	17232	17233	17234	17235	
4	17236	17237	17238	17239	
4	17240	17241	17242	17243	
4	17244	17245	17246	17247	
4	17248	17249	17250	17251	
4	17252	17253	17254	17255	
4	17256	17257	17258	17259	
4	17260	17261	17262	17263	
4	17264	17265	17266	17267	
4	17268	17269	17270	17271	
4	17272	17273	17274	17275	
4	17276	17277	17278	17279	
4	17280	17281	17282	17283	
4	17284	17285	17286	17287	
4	17288	17289	17290	17291	
4	17292	17293	17294	17295	
4	17296	17297	17298	17299	
4	17300	17301	17302	17303	
4	17304	17305	17306	17307	
4	17308	17309	17310	17311	
4	17312	17313	17314	17315	
4	17316	17317	17318	17319	
4	17320	17321	17322	17323	
4	17324	17325	17326	17327	
4	17328	17329	17330	17331	
4	17332	17333	17334	17335	
4	17336	17337	17338	17339	
4	17340	17341	17342	17343	
4	17344	17345	17346	17347	
4	17348	17349	17350	17351	
4	17352	17353	17354	17355	
4	17356	17357	17358	17359	
4	17360	17361	17362	17363	
4	17364	17365	17366	17367	
4	17368	17369	17370	17371	
4	17372	17373	17374	17375	
4	17376	17377	17378	17379	
4	17380	17381	17382	17383	
4	17384	17385	17386	17387	
4	17388	17389	17390	17391	
4	17392	17393	17394	17395	
4	17396	17397	17398	17399	
4	17400	17401	17402	17403	
4	17404	17405	17406	17407	
4	17408	17409	17410	17411	
4	17412	17413	17414	17415	
4	17416	17417	17418	17419	
4	17420	17421	17422	17423	
4	17424	17425	17426	17427	
4	17428	17429	17430	17431	
4	17432	17433	17434	17435	
4	17436	17437	17438	17439	
4	17440	17441	17442	17443	
4	17444	17445	17446	17447	
4	17448	17449	17450	17451	
4	17452	17453	17454	17455	
4	17456	17457	17458	17459	
4	17460	17461	17462	17463	
4	17464	17465	17466	17467	
4	17468	17469	17470	17471	
4	17472	17473	17474	17475	
4	17476	17477	17478	17479	
4	17480	17481	17482	17483	
4	17484	17485	17486	17487	
4	17488	17489	17490	17491	
4	17492	17493	17494	17495	
4	17496	17497	17498	17499	
4	17500	17501	17502	17503	
4	17504	17505	17506	17507	
4	17508	17509	17510	17511	
4	17512	17513	17514	17515	
4	17516	17517	17518	17519	
4	17520	17521	17522	17523	
4	17524	17525	17526	17527	
4	17528	17529	17530	17531	
4	17532	17533	17534	17535	
4	17536	17537	17538	17539	
4	17540	17541	17542	17543	
4	17544	17545	17546	17547	
4	17548	17549	17550	17551	
4	17552	17553	17554	17555	
4	17556	17557	17558	17559	
4	17560	17561	17562	17563	
4	17564	17565	17566	17567	
4	17568	17569	17570	17571	
4	17572	17573	17574	17575	
4	17576	17577	17578	17579	
4	17580	17581	17582	17583	
4	17584	17585	17586	17587	
4	17588	17589	17590	17591	
4	17592	17593	17594	17595	
4	17596	17597	17598	17599	
4	17600	17601	17602	17603	
4	17604	17605	17606	17607	
4	17608	17609	17610	17611	
4	17612	17613	17614	17615	
4	17616	17617	17618	17619	
4	17620	17621	17622	17623	
4	17624	17625	17626	17627	
4	17628	17629	17630	17631	
4	17632	17633	17634	17635	
4	17636	17637	17638	17639	
4	17640	17641	17642	17643	
4	17644	17645	17646	17647	
4	17648	17649	17650	17651	
4	17652	17653	17654	17655	
4	17656	17657	17658	17659	
4	17660	17661	17662	17663	
4	17664	17665	17666	17667	
4	17668	17669	17670	17671	
4	17672	17673	17674	17675	
4	17676	17677	17678	17679	
4	17680	17681	17682	17683	
4	17684	17685	17686	17687	
4	17688	17689	17690	17691	
4	17692	17693	17694	17695	
4	17696	17697	17698	17699	
4	17700	17701	17702	17703	
4	17704	17705	17706	17707	
4	17708	17709	17710	17711	
4	17712	17713	17714	17715	
4	17716	17717	17718	17719	
4	17720	17721	17722	17723	
4	17724	17725	17726	17727	
4	17728	17729	17730	17731	
4	17732	17733	17734	17735	
4	17736	17737	17738	17739	
4	17740	17741	17742	17743	
4	17744	17745	17746	17747	
4	17748	17749	17750	17751	
4	17752	17753	17754	17755	
4	17756	17757	17758	17759	
4	17760	17761	17762	17763	
4	17764	17765	17766	17767	
4	17768	17769	17770	17771	
4	17772	17773	17774	17775	
4	17776	17777	17778	17779	
4	17780	17781	17782	17783	
4	17784	17785	17786	17787	
4	17788	17789	17790	17791	
4	17792	17793	17794	17795	
4	17796	17797	17798	17799	
4	17800	17801	17802	17803	
4	17804	17805	17806	17807	
4	17808	17809	17810	17811	
4	17812	17813	17814	17815	
4	17816	17817	17818	17819	
4	17820	17821	17822	17823	
4	17824	17825	17826	17827	
4	17828	17829	17830	17831	
4	17832	17833	17834	17835	
4	17836	17837	17838	17839	
4	17840	17841	17842	17843	
4	17844	17845	17846	17847	
4	17848	17849	17850	17851	
4	17852	17853	17854	17855	
4	17856	17857	17858	17859	
4	17860	17861	17862	17863	
4	17864	17865	17866	17867	
4	17868	17869	17870	17871	
4	17872	17873	17874	17875	
4	17876	17877	17878	17879	
4	17880	17881	17882	17883	
4	17884	17885	17886	17887	
4	17888	17889	17890	17891	
4	17892	17893	17894	17895	
4	17896	17897	17898	17899	
4	17900	17901	17902	17903	
4	17904	17905	17906	17907	
4	17908	17909	17910	17911	
4	17912	17913	17914	17915	
4	17916	17917	17918	17919	
4	17920	17921	17922	17923	
4	17924	17925	17926	17927	
4	17928	17929	17930	17931	
4	17932	17933	17934	17935	
4	17936	17937	17938	17939	
4	17940	17941	17942	17943	
4	17944	17945	17946	17947	
4	17948	17949	17950	17951	
4	17952	17953	17954	17955	
4	17956	17957	17958	17959	
4	17960	17961	17962	17963	
4	17964	17965	17966	17967	
4	17968	17969	17970	17971	
4	17972	17973	17974	17975	
4	17976	17977	17978	17979	
4	17980	17981	17982	17983	
4	17984	17985	17986	17987	
4	17988	17989	17990	17991	
4	17992	17993	17994	17995	
4	17996	17997	17998	17999	
4	18000	18001	18002	18003	
4	18004	18005	18006	18007	
4	18008	18009	18010	18011	
4	18012	18013	18014	18015	
4	18016	18017	18018	18019	
4	18020	18021	18022	18023	
4	18024	18025	18026	18027	
4	18028	18029	18030	18031	
4	18032	18033	18034	18035	
4	18036	18037	18038	18039	
4	18040	18041	18042	18043	
4	18044	18045	18046	18047	
4	18048	18049	18050	18051	
4	18052	18053	18054	18055	
4	18056	18057	18058	18059	
4	18060	18061	18062	18063	
4	18064	18065	18066	18067	
4	18068	18069	18070	18071	
4	18072	18073	18074	18075	
4	18076	18077	18078	18079	
4	18080	18081	18082	18083	
4	18084	18085	18086	18087	
4	18088	18089	18090	18091	
4	18092	18093	18094	18095	
4	18096	18097	18098	18099	
4	18100	18101	18102	18103	
4	18104	18105	18106	18107	
4	18108	18109	18110	18111	
4	18112	18113	18114	18115	
4	18116	18117	18118	18119	
4	18120	18121	18122	18123	
4	18124	18125	18126	18127	
4	18128	18129	18130	18131	
4	18132	18133	18134	18135	
4	18136	18137	18138	18139	
4	18140	18141	18142	18143	
4	18144	18145	18146	18147	
4	18148	18149	18150	18151	
4	18152	18153	18154	18155	
4	18156	18157	18158	18159	
4	18160	18161	18162	18163	
4	18164	18165	18166	18167	
4	18168	18169	18170	18171	
4	18172	18173	18174	18175	
4	18176	18177	18178	18179	
4	18180	18181	18182	18183	
4	18184	18185	18186	18187	
4	18188	18189	18190	18191	
4	18192	18193	18194	18195	
4	18196	18197	18198	18199	
4	18200	18201	18202	18203	
4	18204	18205	18206	18207	
4	18208	18209	18210	18211	
4	18212	18213	18214	18215	
4	18216	18217	18218	18219	
4	18220	18221	18222	18223	
4	18224	18225	18226	18227	
4	18228	18229	18230	18231	
4	18232	18233	18234	18235	
4	18236	18237	18238	18239	
4	18240	18241	18242	18243	
4	18244	18245	18246	18247	
4	18248	18249	18250	18251	
4	18252	18253	18254	18255	
4	18256	18257	18258	18259	
4	18260	18261	18262	18263	
4	18264	18265	18266	18267	
4	18268	18269	18270	18271	
4	18272	18273	18274	18275	
4	18276	18277	18278	18279	
4	18280	18281	18282	18283	
4	18284	18285	18286	18287	
4	18288	18289	18290	18291	
4	18292	18293	18294	18295	
4	18296	18297	18298	18299	
4	18300	18301	18302	18303	
4	18304	18305	18306	18307	
4	18308	18309	18310	18311	
4	18312	18313	18314	18315	
4	18316	18317	18318	18319	
4	18320	18321	18322	18323	
4	18324	18325	18326	18327	
4	18328	18329	18330	18331	
4	18332	18333	18334	18335	
4	18336	18337	18338	18339	
4	18340	18341	18342	18343	
4	18344	18345	18346	18347	
4	18348	18349	18350	18351	
4	18352	18353	18354	18355	
4	18356	18357	18358	18359	
4	18360	18361	18362	18363	
4	18364	18365	18366	18367	
4	18368	18369	18370	18371	
4	18372	18373	18374	18375	
4	18376	18377	18378	18379	
4	18380	18381	18382	18383	
4	18384	18385	18386	18387	
4	18388	18389	18390	18391	
4	18392	18393	18394	18395	
4	18396	18397	18398	18399	
4	18400	18401	18402	18403	
4	18404	18405	18406	18407	
4	18408	18409	18410	18411	
4	18412	18413	18414	18415	
4	18416	18417	18418	18419	
4	18420	18421	18422	18423	
4	18424	18425	18426	18427	
4	18428	18429	18430	18431	
4	18432	18433	18434	18435	
4	18436	18437	18438	18439	
4	18440	18441	18442	18443	
4	18444	18445	18446	18447	
4	18448	18449	18450	18451	
4	18452	18453	18454	18455	
4	18456	18457	18458	18459	
4	18460	18461	18462	18463	
4	18464	18465	18466	18467	
4	18468	18469	18470	18471	
4	18472	18473	18474	18475	
4	18476	18477	18478	18479	
4	18480	18481	18482	18483	
4	18484	18485	18486	18487	
4	18488	18489	18490	18491	
4	18492	18493	18494	18495	
4	18496	18497	18498	18499	
4	18500	18501	18502	18503	
4	18504	18505	18506	18507	
4	18508	18509	18510	18511	
4	18512	18513	18514	18515	
4	18516	18517	18518	18519	
4	18520	18521	18522	18523	
4	18524	18525	18526	18527	
4	18528	18529	18530	18531	
4	18532	18533	18534	18535	
4	18536	18537	18538	18539	
4	18540	18541	18542	18543	
4	18544	18545	18546	18547	
4	18548	18549	18550	18551	
4	18552	18553	18554	18555	
4	18556	18557	18558	18559	
4	18560	18561	18562	18563	
4	18564	18565	18566	18567	
4	18568	18569	18570	18571	
4	18572	18573	18574	18575	
4	18576	18577	18578	18579	
4	18580	18581	18582	18583	
4	18584	18585	18586	18587	
4	18588	18589	18590	18591	
4	18592	18593	18594	18595	
4	18596	18597	18598	18599	
4	18600	18601	18602	18603	
4	18604	18605	18606	18607	
4	18608	18609	18610	18611	
4	18612	18613	18614	18615	
4	18616	18617	18618	18619	
4	18620	18621	18622	18623	
4	18624	18625	18626	18627	
4	18628	18629	18630	18631	
4	18632	18633	18634	18635	
4	18636	18637	18638	18639	
4	18640	18641	18642	18643	
4	18644	18645	18646	18647	
4	18648	18649	18650	18651	
4	18652	18653	18654	18655	
4	18656	18657	18658	18659	
4	18660	18661	18662	18663	
4	18664	18665	18666	18667	
4	18668	18669	18670	18671	
4	18672	18673	18674	18675	
4	18676	18677	18678	18679	
4	18680	18681	18682	18683	
4	18684	18685	18686	18687	
4	18688	18689	18690	18691	
4	18692	18693	18694	18695	
4	18696	18697	18698	18699	
4	18700	18701	18702	18703	
4	18704	18705	18706	18707	
4	18708	18709	18710	18711	
4	18712	18713	18714	18715	
4	18716	18717	18718	18719	
4	18720	18721	18722	18723	
4	18724	18725	18726	18727	
4	18728	18729	18730	18731	
4	18732	18733	18734	18735	
4	18736	18737	18738	18739	
4	18740	18741	18742	18743	
4	18744	18745	18746	18747	
4	18748	18749	18750	18751	
4	18752	18753	18754	18755	
4	18756	18757	18758	18759	
4	18760	18761	18762	18763	
4	18764	18765	18766	18767	
4	18768	18769	18770	18771	
4	18772	18773	18774	18775	
4	18776	18777	18778	18779	
4	18780	18781	18782	18783	
4	18784	18785	18786	18787	
4	18788	18789	18790	18791	
4	18792	18793	18794	18795	
4	18796	18797	18798	18799	
4	18800	18801	18802	18803	
4	18804	18805	18806	18807	
4	18808	18809	18810	18811	
4	18812	18813	18814	18815	
4	18816	18817	18818	18819	
4	18820	18821	18822	18823	
4	18824	18825	18826	18827	
4	18828	18829	18830	18831	
4	18832	18833	18834	18835	
4	18836	18837	18838	18839	
4	18840	18841	18842	18843	
4	18844	18845	18846	18847	
4	18848	18849	18850	18851	
4	18852	18853	18854	18855	
4	18856	18857	18858	18859	
4	18860	18861	18862	18863	
4	18864	18865	18866	18867	
4	18868	18869	18870	18871	
4	18872	18873	18874	18875	
4	18876	18877	18878	18879	
4	18880	18881	18882	18883	
4	18884	18885	18886	18887	
4	18888	18889	18890	18891	
4	18892	18893	18894	18895	
4	18896	18897	18898	18899	
4	18900	18901	18902	18903	
4	18904	18905	18906	18907	
4	18908	18909	18910	18911	
4	18912	18913	18914	18915	
4	18916	18917	18918	18919	
4	18920	18921	18922	18923	
4	18924	18925	18926	18927	
4	18928	18929	18930	18931	
4	18932	18933	18934	18935	
4	18936	18937	18938	18939	
4	18940	18941	18942	18943	
4	18944	18945	18946	18947	
4	18948	18949	18950	18951	
4	18952	18953	18954	18955	
4	18956	18957	18958	18959	
4	18960	18961	18962	18963	
4	18964	18965	18966	18967	
4	18968	18969	18970	18971	
4	18972	18973	18974	18975	
4	18976	18977	18978	18979	
4	18980	18981	18982	18983	
4	18984	18985	18986	18987	
4	18988	18989	18990	18991	
4	18992	18993	18994	18995	
4	18996	18997	18998	18999	
4	19000	19001	19002	19003	
4	19004	19005	19006	19007	
4	19008	19009	19010	19011	
4	19012	19013	19014	19015	
4	19016	19017	19018	19019	
4	19020	19021	19022	19023	
4	19024	19025	19026	19027	
4	19028	19029	19030	19031	
4	19032	19033	19034	19035	
4	19036	19037	19038	19039	
4	19040	19041	19042	19043	
4	19044	19045	19046	19047	
4	19048	19049	19050	19051	
4	19052	19053	19054	19055	
4	19056	19057	19058	19059	
4	19060	19061	19062	19063	
4	19064	19065	19066	19067	
4	19068	19069	19070	19071	
4	19072	19073	19074	19075	
4	19076	19077	19078	19079	
4	19080	19081	19082	19083	
4	19084	19085	19086	19087	
4	19088	19089	19090	19091	
4	19092	19093	19094	19095	
4	19096	19097	19098	19099	
4	19100	19101	19102	19103	
4	19104	19105	19106	19107	
4	19108	19109	19110	19111	
4	19112	19113	19114	19115	
4	19116	19117	19118	19119	
4	19120	19121	19122	19123	
4	19124	19125	19126	19127	
4	19128	19129	19130	19131	
4	19132	19133	19134	19135	
4	19136	19137	19138	19139	
4	19140	19141	19142	19143	
4	19144	19145	19146	19147	
4	19148	19149	19150	19151	
4	19152	19153	19154	19155	
4	19156	19157	19158	19159	
4	19160	19161	19162	19163	
4	19164	19165	19166	19167	
4	19168	19169	19170	19171	
4	19172	19173	19174	19175	
4	19176	19177	19178	19179	
4	19180	19181	19182	19183	
4	19184	19185	19186	19187	
4	19188	19189	19190	19191	
4	19192	19193	19194	19195	
4	19196	19197	19198	19199	
4	19200	19201	19202	19203	
4	19204	19205	19206	19207	
4	19208	19209	19210	19211	
4	19212	19213	19214	19215	
4	19216	19217	19218	19219	
4	19220	19221	19222	19223	
4	19224	19225	19226	19227	
4	19228	19229	19230	19231	
4	19232	19233	19234	19235	
4	19236	19237	19238	19239	
4	19240	19241	19242	19243	
4	19244	19245	19246	19247	
4	19248	19249	19250	19251	
4	19252	19253	19254	19255	
4	19256	19257	19258	19259	
4	19260	19261	19262	19263	
4	19264	19265	19266	19267	
4	19268	19269	19270	19271	
4	19272	19273	19274	19275	
4	19276	19277	19278	19279	
4	19280	19281	19282	19283	
4	19284	19285	19286	19287	
4	19288	19289	19290	19291	
4	19292	19293	19294	19295	
4	19296	19297	19298	19299	
4	19300	19301	19302	19303	
4	19304	19305	19306	19307	
4	19308	19309	19310	19311	
4	19312	19313	19314	19315	
4	19316	19317	19318	19319	
4	19320	19321	19322	19323	
4	19324	19325	19326	19327	
4	19328	19329	19330	19331	
4	19332	19333	19334	19335	
4	19336	19337	19338	19339	
4	19340	19341	19342	19343	
4	19344	19345	19346	19347	
4	19348	19349	19350	19351	
4	19352	19353	19354	19355	
4	19356	19357	19358	19359	
4	19360	19361	19362	19363	
4	19364	19365	19366	19367	
4	19368	19369	19370	19371	
4	19372	19373	19374	19375	
4	19376	19377	19378	19379	
4	19380	19381	19382	19383	
4	19384	19385	19386	19387	
4	19388	19389	19390	19391	
4	19392	19393	19394	19395	
4	19396	19397	19398	19399	
4	19400	19401	19402	19403	
4	19404	19405	19406	19407	
4	19408	19409	19410	19411	
4	19412	19413	19414	19415	
4	19416	19417	19418	19419	
4	19420	19421	19422	19423	
4	19424	19425	19426	19427	
4	19428	19429	19430	19431	
4	19432	19433	19434	19435	
4	19436	19437	19438	19439	
4	19440	19441	19442	19443	
4	19444	19445	19446	19447	
4	19448	19449	19450	19451	
4	19452	19453	19454	19455	
4	19456	19457	19458	19459	
4	19460	19461	19462	19463	
4	19464	19465	19466	19467	
4	19468	19469	19470	19471	
4	19472	19473	19474	19475	
4	19476	19477	19478	19479	
4	19480	19481	19482	19483	
4	19484	19485	19486	19487	
4	19488	19489	19490	19491	
4	19492	19493	19494	19495	
4	19496	19497	19498	19499	
4	19500	19501	19502	19503	
4	19504	19505	19506	19507	
4	19508	19509	19510	19511	
4	19512	19513	19514	19515	
4	19516	19517	19518	19519	
4	19520	19521	19522	19523	
4	19524	19525	19526	19527	
4	19528	19529	19530	19531	
4	19532	19533	19534	19535	
4	19536	19537	19538	19539	
4	19540	19541	19542	19543	
4	19544	19545	19546	19547	
4	19548	19549	19550	19551	
4	19552	19553	19554	19555	
4	19556	19557	19558	19559	
4	19560	19561	19562	19563	
4	19564	19565	19566	19567	
4	19568	19569	19570	19571	
4	19572	19573	19574	19575	
4	19576	19577	19578	19579	
4	19580	19581	19582	19583	
4	19584	19585	19586	19587	
4	19588	19589	19590	19591	
4	19592	19593	19594	19595	
4	19596	19597	19598	19599	
4	19600	19601	19602	19603	
4	19604	19605	19606	19607	
4	19608	19609	19610	19611	
4	19612	19613	19614	19615	
4	19616	19617	19618	19619	
4	19620	19621	19622	19623	
4	19624	19625	19626	19627	
4	19628	19629	19630	19631	
4	19632	19633	19634	19635	
4	19636	19637	19638	19639	
4	19640	19641	19642	19643	
4	19644	19645	19646	19647	
4	19648	19649	19650	19651	
4	19652	19653	19654	19655	
4	19656	19657	19658	19659	
4	19660	19661	19662	19663	
4	19664	19665	19666	19667	
4	19668	19669	19670	19671	
4	19672	19673	19674	19675	
4	19676	19677	19678	19679	
4	19680	19681	19682	19683	
4	19684	19685	19686	19687	
4	19688	19689	19690	19691	
4	19692	19693	19694	19695	
4	19696	19697	19698	19699	
4	19700	19701	19702	19703	
4	19704	19705	19706	19707	
4	19708	19709	19710	19711	
4	19712	19713	19714	19715	
4	19716	19717	19718	19719	
4	19720	19721	19722	19723	
4	19724	19725	19726	19727	
4	19728	19729	19730	19731	
4	19732	19733	19734	19735	
4	19736	19737	19738	19739	
4	19740	19741	19742	19743	
4	19744	19745	19746	19747	
4	19748	19749	19750	19751	
4	19752	19753	19754	19755	
4	19756	19757	19758	19759	
4	19760	19761	19762	19763	
4	19764	19765	19766	19767	
4	19768	19769	19770	19771	
4	19772	19773	19774	19775	
4	19776	19777	19778	19779	
4	19780	19781	19782	19783	
4	19784	19785	19786	19787	
4	19788	19789	19790	19791	
4	19792	19793	19794	19795	
4	19796	19797	19798	19799	
4	19800	19801	19802	19803	
4	19804	19805	19806	19807	
4	19808	19809	19810	19811	
4	19812	19813	19814	19815	
4	19816	19817	19818	19819	
4	19820	19821	19822	19823	
4	19824	19825	19826	19827	
4	19828	19829	19830	19831	
4	19832	19833	19834	19835	
4	19836	19837	19838	19839	
4	19840	19841	19842	19843	
4	19844	19845	19846	19847	
4	19848	19849	19850	19851	
4	19852	19853	19854	19855	
4	19856	19857	19858	19859	
4	19860	19861	19862	19863	
4	19864	19865	19866	19867	
4	19868	19869	19870	19871	
4	19872	19873	19874	19875	
4	19876	19877	19878	19879	
4	19880	19881	19882	19883	
4	19884	19885	19886	19887	
4	19888	19889	19890	19891	
4	19892	19893	19894	19895	
4	19896	19897	19898	19899	
4	19900	19901	19902	19903	
4	19904	19905	19906	19907	
4	19908	19909	19910	19911	
4	19912	19913	19914	19915	
4	19916	19917	19918	19919	
4	19920	19921	19922	19923	
4	19924	19925	19926	19927	
4	19928	19929	19930	19931	
4	19932	19933	19934	19935	
4	19936	19937	19938	19939	
4	19940	19941	19942	19943	
4	19944	19945	19946	19947	
4	19948	19949	19950	19951	
4	19952	19953	19954	19955	
4	19956	19957	19958	19959	
4	19960	19961	19962	19963	
4	19964	19965	19966	19967	
4	19968	19969	19970	19971	
4	19972	19973	19974	19975	
4	19976	19977	19978	19979	
4	19980	19981	19982	19983	
4	19984	19985	19986	19987	
4	19988	19989	19990	19991	
4	19992	19993	19994	19995	
4	19996	19997	19998	19999	
4	20000	20001	20002	20003	
4	20004	20005	20006	20007	
4	20008	20009	20010	20011	
4	20012	20013	20014	20015	
4	20016	20017	20018	20019	
4	20020	20021	20022	20023	
4	20024	20025	20026	20027	
4	20028	20029	20030	20031	
4	20032	20033	20034	20035	
4	20036	20037	20038	20039	
4	20040	20041	20042	20043	
4	20044	20045	20046	20047	
4	20048	20049	20050	20051	
4	20052	20053	20054	20055	
4	20056	20057	20058	20059	
4	20060	20061	20062	20063	
4	20064	20065	20066	20067	
4	20068	20069	20070	20071	
4	20072	20073	20074	20075	
4	20076	20077	20078	20079	
4	20080	20081	20082	20083	
4	20084	20085	20086	20087	
4	20088	20089	20090	20091	
4	20092	20093	20094	20095	
4	20096	20097	20098	20099	
4	20100	20101	20102	20103	
4	20104	20105	20106	20107	
4	20108	20109	20110	20111	
4	20112	20113	20114	20115	
4	20116	20117	20118	20119	
4	20120	20121	20122	20123	
4	20124	20125	20126	20127	
4	20128	20129	20130	20131	
4	20132	20133	20134	20135	
4	20136	20137	20138	20139	
4	20140	20141	20142	20143	
4	20144	20145	20146	20147	
4	20148	20149	20150	20151	
4	20152	20153	20154	20155	
4	20156	20157	20158	20159	
4	20160	20161	20162	20163	
4	20164	20165	20166	20167	
4	20168	20169	20170	20171	
4	20172	20173	20174	20175	
4	20176	20177	20178	20179	
4	20180	20181	20182	20183	
4	20184	20185	20186	20187	
4	20188	20189	20190	20191	
4	20192	20193	20194	20195	
4	20196	20197	20198	20199	
4	20200	20201	20202	20203	
4	20204	20205	20206	20207	
4	20208	20209	20210	20211	
4	20212	20213	20214	20215	
4	20216	20217	20218	20219	
4	20220	20221	20222	20223	
4	20224	20225	20226	20227	
4	20228	20229	20230	20231	
4	20232	20233	20234	20235	
4	20236	20237	20238	20239	
4	20240	20241	20242	20243	
4	20244	20245	20246	20247	
4	20248	20249	20250	20251	
4	20252	20253	20254	20255	
4	20256	20257	20258	20259	
4	20260	20261	20262	20263	
4	20264	20265	20266	20267	
4	20268	20269	20270	20271	
4	20272	20273	20274	20275	
4	20276	20277	20278	20279	
4	20280	20281	20282	20283	
4	20284	20285	20286	20287	
4	20288	20289	20290	20291	
4	20292	20293	20294	20295	
4	20296	20297	20298	20299	
4	20300	20301	20302	20303	
4	20304	20305	20306	20307	
4	20308	20309	20310	20311	
4	20312	20313	20314	20315	
4	20316	20317	20318	20319	
4	20320	20321	20322	20323	
4	20324	20325	20326	20327	
4	20328	20329	20330	20331	
4	20332	20333	20334	20335	
4	20336	20337	20338	20339	
4	20340	20341	20342	20343	
4	20344	20345	20346	20347	
4	20348	20349	20350	20351	
4	20352	20353	20354	20355	
4	20356	20357	20358	20359	
4	20360	20361	20362	20363	
4	20364	20365	20366	20367	
4	20368	20369	20370	20371	
4	20372	20373	20374	20375	
4	20376	20377	20378	20379	
4	20380	20381	20382	20383	
4	20384	20385	20386	20387	
4	20388	20389	20390	20391	
4	20392	20393	20394	20395	
4	20396	20397	20398	20399	
4	20400	20401	20402	20403	
4	20404	20405	20406	20407	
4	20408	20409	20410	20411	
4	20412	20413	20414	20415	
4	20416	20417	20418	20419	
4	20420	20421	20422	20423	
4	20424	20425	20426	20427	
4	20428	20429	20430	20431	
4	20432	20433	20434	20435	
4	20436	20437	20438	20439	
4	20440	20441	20442	20443	
4	20444	20445	20446	20447	
4	20448	20449	20450	20451	
4	20452	20453	20454	20455	
4	20456	20457	20458	20459	
4	20460	20461	20462	20463	
4	20464	20465	20466	20467	
4	20468	20469	20470	20471	
4	20472	20473	20474	20475	
4	20476	20477	20478	20479	
4	20480	20481	20482	20483	
4	20484	20485	20486	20487	
4	20488	20489	20490	20491	
4	20492	20493	20494	20495	
4	20496	20497	20498	20499	
4	20500	20501	20502	20503	
4	20504	20505	20506	20507	
4	20508	20509	20510	20511	
4	20512	20513	20514	20515	
4	20516	20517	20518	20519	
4	20520	20521	20522	20523	
4	20524	20525	20526	20527	
4	20528	20529	20530	20531	
4	20532	20533	20534	20535	
4	20536	20537	20538	20539	
4	20540	20541	20542	20543	
4	20544	20545	20546	20547	
4	20548	20549	20550	20551	
4	20552	20553	20554	20555	
4	20556	20557	20558	20559	
4	20560	20561	20562	20563	
4	20564	20565	20566	20567	
4	20568	20569	20570	20571	
4	20572	20573	20574	20575	
4	20576	20577	20578	20579	
4	20580	20581	20582	20583	
4	20584	20585	20586	20587	
4	20588	20589	20590	20591	
4	20592	20593	20594	20595	
4	20596	20597	20598	20599	
4	20600	20601	20602	20603	
4	20604	20605	20606	20607	
4	20608	20609	20610	20611	
4	20612	20613	20614	20615	
4	20616	20617	20618	20619	
4	20620	20621	20622	20623	
4	20624	20625	20626	20627	
4	20628	20629	20630	20631	
4	20632	20633	20634	20635	
4	20636	20637	20638	20639	
4	20640	20641	20642	20643	
4	20644	20645	20646	20647	
4	20648	20649	20650	20651	
4	20652	20653	20654	20655	
4	20656	20657	20658	20659	
4	20660	20661	20662	20663	
4	20664	20665	20666	20667	
4	20668	20669	20670	20671	
4	20672	20673	20674	20675	
4	20676	20677	20678	20679	
4	20680	20681	20682	20683	
4	20684	20685	20686	20687	
4	20688	20689	20690	20691	
4	20692	20693	20694	20695	
4	20696	20697	20698	20699	
4	20700	20701	20702	20703	
4	20704	20705	20706	20707	
4	20708	20709	20710	20711	
4	20712	20713	20714	20715	
4	20716	20717	20718	20719	
4	20720	20721	20722	20723	
4	20724	20725	20726	20727	
4	20728	20729	20730	20731	
4	20732	20733	20734	20735	
4	20736	20737	20738	20739	
4	20740	20741	20742	20743	
4	20744	20745	20746	20747	
4	20748	20749	20750	20751	
4	20752	20753	20754	20755	
4	20756	20757	20758	20759	
4	20760	20761	20762	20763	
4	20764	20765	20766	20767	
4	20768	20769	20770	20771	
4	20772	20773	20774	20775	
4	20776	20777	20778	20779	
4	20780	20781	20782	20783	
4	20784	20785	20786	20787	
4	20788	20789	20790	20791	
4	20792	20793	20794	20795	
4	20796	20797	20798	20799	
4	20800	20801	20802	20803	
4	20804	20805	20806	20807	
4	20808	20809	20810	20811	
4	20812	20813	20814	20815	
4	20816	20817	20818	20819	
4	20820	20821	20822	20823	
4	20824	20825	20826	20827	
4	20828	20829	20830	20831	
4	20832	20833	20834	20835	
4	20836	20837	20838	20839	
4	20840	20841	20842	20843	
4	20844	20845	20846	20847	
4	20848	20849	20850	20851	
4	20852	20853	20854	20855	
4	20856	20857	20858	20859	
4	20860	20861	20862	20863	
4	20864	20865	20866	20867	
4	20868	20869	20870	20871	
4	20872	20873	20874	20875	
4	20876	20877	20878	20879	
4	20880	20881	20882	20883	
4	20884	20885	20886	20887	
4	20888	20889	20890	20891	
4	20892	20893	20894	20895	
4	20896	20897	20898	20899	
4	20900	20901	20902	20903	
4	20904	20905	20906	20907	
4	20908	20909	20910	20911	
4	20912	20913	20914	20915	
4	20916	20917	20918	20919	
4	20920	20921	20922	20923	
4	20924	20925	20926	20927	
4	20928	20929	20930	20931	
4	20932	20933	20934	20935	
4	20936	20937	20938	20939	
4	20940	20941	20942	20943	
4	20944	20945	20946	20947	
4	20948	20949	20950	20951	
4	20952	20953	20954	20955	
4	20956	20957	20958	20959	
4	20960	20961	20962	20963	
4	20964	20965	20966	20967	
4	20968	20969	20970	20971	
4	20972	20973	20974	20975	
4	20976	20977	20978	20979	
4	20980	20981	20982	20983	
4	20984	20985	20986	20987	
4	20988	20989	20990	20991	
4	20992	20993	20994	20995	
4	20996	20997	20998	20999	
4	21000	21001	21002	21003	
4	21004	21005	21006	21007	
4	21008	21009	21010	21011	
4	21012	21013	21014	21015	
4	21016	21017	21018	21019	
4	21020	21021	21022	21023	
4	21024	21025	21026	21027	
4	21028	21029	21030	21031	
4	21032	21033	21034	21035	
4	21036	21037	21038	21039	
4	21040	21041	21042	21043	
4	21044	21045	21046	21047	
4	21048	21049	21050	21051	
4	21052	21053	21054	21055	
4	21056	21057	21058	21059	
4	21060	21061	21062	21063	
4	21064	21065	21066	21067	
4	21068	21069	21070	21071	
4	21072	21073	21074	21075	
4	21076	21077	21078	21079	
4	21080	21081	21082	21083	
4	21084	21085	21086	21087	
4	21088	21089	21090	21091	
4	21092	21093	21094	21095	
4	21096	21097	21098	21099	
4	21100	21101	21102	21103	
4	21104	21105	21106	21107	
4	21108	21109	21110	21111	
4	21112	21113	21114	21115	
4	21116	21117	21118	21119	
4	21120	21121	21122	21123	
4	21124	21125	21126	21127	
4	21128	21129	21130	21131	
4	21132	21133	21134	21135	
4	21136	21137	21138	21139	
4	21140	21141	21142	21143	
4	21144	21145	21146	21147	
4	21148	21149	21150	21151	
4	21152	21153	21154	21155	
4	21156	21157	21158	21159	
4	21160	21161	21162	21163	
4	21164	21165	21166	21167	
4	21168	21169	21170	21171	
4	21172	21173	21174	21175	
4	21176	21177	21178	21179	
4	21180	21181	21182	21183	
4	21184	21185	21186	21187	
4	21188	21189	21190	21191	
4	21192	21193	21194	21195	
4	21196	21197	21198	21199	
4	21200	21201	21202	21203	
4	21204	21205	21206	21207	
4	21208	21209	21210	21211	
4	21212	21213	21214	21215	
4	21216	21217	21218	21219	
4	21220	21221	21222	21223	
4	21224	21225	21226	21227	
4	21228	21229	21230	21231	
4	21232	21233	21234	21235	
4	21236	21237	21238	21239	
4	21240	21241	21242	21243	
4	21244	21245	21246	21247	
4	21248	21249	21250	21251	
4	21252	21253	21254	21255	
4	21256	21257	21258	21259	
4	21260	21261	21262	21263	
4	21264	21265	21266	21267	
4	21268	21269	21270	21271	
4	21272	21273	21274	21275	
4	21276	21277	21278	21279	
4	21280	21281	21282	21283	
4	21284	21285	21286	21287	
4	21288	21289	21290	21291	
4	21292	21293	21294	21295	
4	21296	21297	21298	21299	
4	21300	21301	21302	21303	
4	21304	21305	21306	21307	
4	21308	21309	21310	21311	
4	21312	21313	21314	21315	
4	21316	21317	21318	21319	
4	21320	21321	21322	21323	
4	21324	21325	21326	21327	
4	21328	21329	21330	21331	
4	21332	21333	21334	21335	
4	21336	21337	21338	21339	
4	21340	21341	21342	21343	
4	21344	21345	21346	21347	
4	21348	21349	21350	21351	
4	21352	21353	21354	21355	
4	21356	21357	21358	21359	
4	21360	21361	21362	21363	
4	21364	21365	21366	21367	
4	21368	21369	21370	21371	
4	21372	21373	21374	21375	
4	21376	21377	21378	21379	
4	21380	21381	21382	21383	
4	21384	21385	21386	21387	
4	21388	21389	21390	21391	
4	21392	21393	21394	21395	
4	21396	21397	21398	21399	
4	21400	21401	21402	21403	
4	21404	21405	21406	21407	
4	21408	21409	21410	21411	
4	21412	21413	21414	21415	
4	21416	21417	21418	21419	
4	21420	21421	21422	21423	
4	21424	21425	21426	21427	
4	21428	21429	21430	21431	
4	21432	21433	21434	21435	
4	21436	21437	21438	21439	
4	21440	21441	21442	21443	
4	21444	21445	21446	21447	
4	21448	21449	21450	21451	
4	21452	21453	21454	21455	
4	21456	21457	21458	21459	
4	21460	21461	21462	21463	
4	21464	21465	21466	21467	
4	21468	21469	21470	21471	
4	21472	21473	21474	21475	
4	21476	21477	21478	21479	
4	21480	21481	21482	21483	
4	21484	21485	21486	21487	
4	21488	21489	21490	21491	
4	21492	21493	21494	21495	
4	21496	21497	21498	21499	
4	21500	21501	21502	21503	
4	21504	21505	21506	21507	
4	21508	21509	21510	21511	
4	21512	21513	21514	21515	
4	21516	21517	21518	21519	
4	21520	21521	21522	21523	
4	21524	21525	21526	21527	
4	21528	21529	21530	21531	
4	21532	21533	21534	21535	
4	21536	21537	21538	21539	
4	21540	21541	21542	21543	
4	21544	21545	21546	21547	
4	21548	21549	21550	21551	
4	21552	21553	21554	21555	
4	21556	21557	21558	21559	
4	21560	21561	21562	21563	
4	21564	21565	21566	21567	
4	21568	21569	21570	21571	
4	21572	21573	21574	21575	
4	21576	21577	21578	21579	
4	21580	21581	21582	21583	
4	21584	21585	21586	21587	
4	21588	21589	21590	21591	
4	21592	21593	21594	21595	
4	21596	21597	21598	21599	
4	21600	21601	21602	21603	
4	21604	21605	21606	21607	
4	21608	21609	21610	21611	
4	21612	21613	21614	21615	
4	21616	21617	21618	21619	
4	21620	21621	21622	21623	
4	21624	21625	21626	21627	
4	21628	21629	21630	21631	
4	21632	21633	21634	21635	
4	21636	21637	21638	21639	
4	21640	21641	21642	21643	
4	21644	21645	21646	21647	
4	21648	21649	21650	21651	
4	21652	21653	21654	21655	
4	21656	21657	21658	21659	
4	21660	21661	21662	21663	
4	21664	21665	21666	21667	
4	21668	21669	21670	21671	
4	21672	21673	21674	21675	
4	21676	21677	21678	21679	
4	21680	21681	21682	21683	
4	21684	21685	21686	21687	
4	21688	21689	21690	21691	
4	21692	21693	21694	21695	
4	21696	21697	21698	21699	
4	21700	21701	21702	21703	
4	21704	21705	21706	21707	
4	21708	21709	21710	21711	
4	21712	21713	21714	21715	
4	21716	21717	21718	21719	
4	21720	21721	21722	21723	
4	21724	21725	21726	21727	
4	21728	21729	21730	21731	
4	21732	21733	21734	21735	
4	21736	21737	21738	21739	
4	21740	21741	21742	21743	
4	21744	21745	21746	21747	
4	21748	21749	21750	21751	
4	21752	21753	21754	21755	
4	21756	21757	21758	21759	
4	21760	21761	21762	21763	
4	21764	21765	21766	21767	
4	21768	21769	21770	21771	
4	21772	21773	21774	21775	
4	21776	21777	21778	21779	
4	21780	21781	21782	21783	
4	21784	21785	21786	21787	
4	21788	21789	21790	21791	
4	21792	21793	21794	21795	
4	21796	21797	21798	21799	
4	21800	21801	21802	21803	
4	21804	21805	21806	21807	
4	21808	21809	21810	21811	
4	21812	21813	21814	21815	
4	21816	21817	21818	21819	
4	21820	21821	21822	21823	
4	21824	21825	21826	21827	
4	21828	21829	21830	21831	
4	21832	21833	21834	21835	
4	21836	21837	21838	21839	
4	21840	21841	21842	21843	
4	21844	21845	21846	21847	
4	21848	21849	21850	21851	
4	21852	21853	21854	21855	
4	21856	21857	21858	21859	
4	21860	21861	21862	21863	
4	21864	21865	21866	21867	
4	21868	21869	21870	21871	
4	21872	21873	21874	21875	
4	21876	21877	21878	21879	
4	21880	21881	21882	21883	
4	21884	21885	21886	21887	
4	21888	21889	21890	21891	
4	21892	21893	21894	21895	
4	21896	21897	21898	21899	
4	21900	21901	21902	21903	
4	21904	21905	21906	21907	
4	21908	21909	21910	21911	
4	21912	21913	21914	21915	
4	21916	21917	21918	21919	
4	21920	21921	21922	21923	
4	21924	21925	21926	21927	
4	21928	21929	21930	21931	
4	21932	21933	21934	21935	
4	21936	21937	21938	21939	
4	21940	21941	21942	21943	
4	21944	21945	21946	21947	
4	21948	21949	21950	21951	
4	21952	21953	21954	21955	
4	21956	21957	21958	21959	
4	21960	21961	21962	21963	
4	21964	21965	21966	21967	
4	21968	21969	21970	21971	
4	21972	21973	21974	21975	
4	21976	21977	21978	21979	
4	21980	21981	21982	21983	
4	21984	21985	21986	21987	
4	21988	21989	21990	21991	
4	21992	21993	21994	21995	
4	21996	21997	21998	21999	
4	22000	22001	22002	22003	
4	22004	22005	22006	22007	
4	22008	22009	22010	22011	
4	22012	22013	22014	22015	
4	22016	22017	22018	22019	
4	22020	22021	22022	22023	
4	22024	22025	22026	22027	
4	22028	22029	22030	22031	
4	22032	22033	22034	22035	
4	22036	22037	22038	22039	
4	22040	22041	22042	22043	
4	22044	22045	22046	22047	
4	22048	22049	22050	22051	
4	22052	22053	22054	22055	
4	22056	22057	22058	22059	
4	22060	22061	22062	22063	
4	22064	22065	22066	22067	
4	22068	22069	22070	22071	
4	22072	22073	22074	22075	
4	22076	22077	22078	22079	
4	22080	22081	22082	22083	
4	22084	22085	22086	22087	
4	22088	22089	22090	22091	
4	22092	22093	22094	22095	
4	22096	22097	22098	22099	
4	22100	22101	22102	22103	
4	22104	22105	22106	22107	
4	22108	22109	22110	22111	
4	22112	22113	22114	22115	
4	22116	22117	22118	22119	
4	22120	22121	22122	22123	
4	22124	22125	22126	22127	
4	22128	22129	22130	22131	
4	22132	22133	22134	22135	
4	22136	22137	22138	22139	
4	22140	22141	22142	22143	
4	22144	22145	22146	22147	
4	22148	22149	22150	22151	
4	22152	22153	22154	22155	
4	22156	22157	22158	22159	
4	22160	22161	22162	22163	
4	22164	22165	22166	22167	
4	22168	22169	22170	22171	
4	22172	22173	22174	22175	
4	22176	22177	22178	22179	
4	22180	22181	22182	22183	
4	22184	22185	22186	22187	
4	22188	22189	22190	22191	
4	22192	22193	22194	22195	
4	22196	22197	22198	22199	
4	22200	22201	22202	22203	
4	22204	22205	22206	22207	
4	22208	22209	22210	22211	
4	22212	22213	22214	22215	
4	22216	22217	22218	22219	
4	22220	22221	22222	22223	
4	22224	22225	22226	22227	
4	22228	22229	22230	22231	
4	22232	22233	22234	22235	
4	22236	22237	22238	22239	
4	22240	22241	22242	22243	
4	22244	22245	22246	22247	
4	22248	22249	22250	22251	
4	22252	22253	22254	22255	
4	22256	22257	22258	22259	
4	22260	22261	22262	22263	
4	22264	22265	22266	22267	
4	22268	22269	22270	22271	
4	22272	22273	22274	22275	
4	22276	22277	22278	22279	
4	22280	22281	22282	22283	
4	22284	22285	22286	22287	
4	22288	22289	22290	22291	
4	22292	22293	22294	22295	
4	22296	22297	22298	22299	
4	22300	22301	22302	22303	
4	22304	22305	22306	22307	
4	22308	22309	22310	22311	
4	22312	22313	22314	22315	
4	22316	22317	22318	22319	
4	22320	22321	22322	22323	
4	22324	22325	22326	22327	
4	22328	22329	22330	22331	
4	22332	22333	22334	22335	
4	22336	22337	22338	22339	
4	22340	22341	22342	22343	
4	22344	22345	22346	22347	
4	22348	22349	22350	22351	
4	22352	22353	22354	22355	
4	22356	22357	22358	22359	
4	22360	22361	22362	22363	
4	22364	22365	22366	22367	
4	22368	22369	22370	22371	
4	22372	22373	22374	22375	
4	22376	22377	22378	22379	
4	22380	22381	22382	22383	
4	22384	22385	22386	22387	
4	22388	22389	22390	22391	
4	22392	22393	22394	22395	
4	22396	22397	22398	22399	
4	22400	22401	22402	22403	
4	22404	22405	22406	22407	
4	22408	22409	22410	22411	
4	22412	22413	22414	22415	
4	22416	22417	22418	22419	
4	22420	22421	22422	22423	
4	22424	22425	22426	22427	
4	22428	22429	22430	22431	
4	22432	22433	22434	22435	
4	22436	22437	22438	22439	
4	22440	22441	22442	22443	
4	22444	22445	22446	22447	
4	22448	22449	22450	22451	
4	22452	22453	22454	22455	
4	22456	22457	22458	22459	
4	22460	22461	22462	22463	
4	22464	22465	22466	22467	
4	22468	22469	22470	22471	
4	22472	22473	22474	22475	
4	22476	22477	22478	22479	
4	22480	22481	22482	22483	
4	22484	22485	22486	22487	
4	22488	22489	22490	22491	
4	22492	22493	22494	22495	
4	22496	22497	22498	22499	
4	22500	22501	22502	22503	
4	22504	22505	22506	22507	
4	22508	22509	22510	22511	
4	22512	22513	22514	22515	
4	22516	22517	22518	22519	
4	22520	22521	22522	22523	
4	22524	22525	22526	22527	
4	22528	22529	22530	22531	
4	22532	22533	22534	22535	
4	22536	22537	22538	22539	
4	22540	22541	22542	22543	
4	22544	22545	22546	22547	
4	22548	22549	22550	22551	
4	22552	22553	22554	22555	
4	22556	22557	22558	22559	
4	22560	22561	22562	22563	
4	22564	22565	22566	22567	
4	22568	22569	22570	22571	
4	22572	22573	22574	22575	
4	22576	22577	22578	22579	
4	22580	22581	22582	22583	
4	22584	22585	22586	22587	
4	22588	22589	22590	22591	
4	22592	22593	22594	22595	
4	22596	22597	22598	22599	
4	22600	22601	22602	22603	
4	22604	22605	22606	22607	
4	22608	22609	22610	22611	
4	22612	22613	22614	22615	
4	22616	22617	22618	22619	
4	22620	22621	22622	22623	
4	22624	22625	22626	22627	
4	22628	22629	22630	22631	
4	22632	22633	22634	22635	
4	22636	22637	22638	22639	
4	22640	22641	22642	22643	
4	22644	22645	22646	22647	
4	22648	22649	22650	22651	
4	22652	22653	22654	22655	
4	22656	22657	22658	22659	
4	22660	22661	22662	22663	
4	22664	22665	22666	22667	
4	22668	22669	22670	22671	
4	22672	22673	22674	22675	
4	22676	22677	22678	22679	
4	22680	22681	22682	22683	
4	22684	22685	22686	22687	
4	22688	22689	22690	22691	
4	22692	22693	22694	22695	
4	22696	22697	22698	22699	
4	22700	22701	22702	22703	
4	22704	22705	22706	22707	
4	22708	22709	22710	22711	
4	22712	22713	22714	22715	
4	22716	22717	22718	22719	
4	22720	22721	22722	22723	
4	22724	22725	22726	22727	
4	22728	22729	22730	22731	
4	22732	22733	22734	22735	
4	22736	22737	22738	22739	
4	22740	22741	22742	22743	
4	22744	22745	22746	22747	
4	22748	22749	22750	22751	
4	22752	22753	22754	22755	
4	22756	22757	22758	22759	
4	22760	22761	22762	22763	
4	22764	22765	22766	22767	
4	22768	22769	22770	22771	
4	22772	22773	22774	22775	
4	22776	22777	22778	22779	
4	22780	22781	22782	22783	
4	22784	22785	22786	22787	
4	22788	22789	22790	22791	
4	22792	22793	22794	22795	
4	22796	22797	22798	22799	
4	22800	22801	22802	22803	
4	22804	22805	22806	22807	
4	22808	22809	22810	22811	
4	22812	22813	22814	22815	
4	22816	22817	22818	22819	
4	22820	22821	22822	22823	
4	22824	22825	22826	22827	
4	22828	22829	22830	22831	
4	22832	22833	22834	22835	
4	22836	22837	22838	22839	
4	22840	22841	22842	22843	
4	22844	22845	22846	22847	
4	22848	22849	22850	22851	
4	22852	22853	22854	22855	
4	22856	22857	22858	22859	
4	22860	22861	22862	22863	
4	22864	22865	22866	22867	
4	22868	22869	22870	22871	
4	22872	22873	22874	22875	
4	22876	22877	22878	22879	
4	22880	22881	22882	22883	
4	22884	22885	22886	22887	
4	22888	22889	22890	22891	
4	22892	22893	22894	22895	
4	22896	22897	22898	22899	
4	22900	22901	22902	22903	
4	22904	22905	22906	22907	
4	22908	22909	22910	22911	
4	22912	22913	22914	22915	
4	22916	22917	22918	22919	
4	22920	22921	22922	22923	
4	22924	22925	22926	22927	
4	22928	22929	22930	22931	
4	22932	22933	22934	22935	
4	22936	22937	22938	22939	
4	22940	22941	22942	22943	
4	22944	22945	22946	22947	
4	22948	22949	22950	22951	
4	22952	22953	22954	22955	
4	22956	22957	22958	22959	
4	22960	22961	22962	22963	
4	22964	22965	22966	22967	
4	22968	22969	22970	22971	
4	22972	22973	22974	22975	
4	22976	22977	22978	22979	
4	22980	22981	22982	22983	
4	22984	22985	22986	22987	
4	22988	22989	22990	22991	
4	22992	22993	22994	22995	
4	22996	22997	22998	22999	
4	23000	23001	23002	23003	
4	23004	23005	23006	23007	
4	23008	23009	23010	23011	
4	23012	23013	23014	23015	
4	23016	23017	23018	23019	
4	23020	23021	23022	23023	
4	23024	23025	23026	23027	
4	23028	23029	23030	23031	
4	23032	23033	23034	23035	
4	23036	23037	23038	23039	
4	23040	23041	23042	23043	
4	23044	23045	23046	23047	
4	23048	23049	23050	23051	
4	23052	23053	23054	23055	
4	23056	23057	23058	23059	
4	23060	23061	23062	23063	
4	23064	23065	23066	23067	
4	23068	23069	23070	23071	
4	23072	23073	23074	23075	
4	23076	23077	23078	23079	
4	23080	23081	23082	23083	
4	23084	23085	23086	23087	
4	23088	23089	23090	23091	
4	23092	23093	23094	23095	
4	23096	23097	23098	23099	
4	23100	23101	23102	23103	
4	23104	23105	23106	23107	
4	23108	23109	23110	23111	
4	23112	23113	23114	23115	
4	23116	23117	23118	23119	
4	23120	23121	23122	23123	
4	23124	23125	23126	23127	
4	23128	23129	23130	23131	
4	23132	23133	23134	23135	
4	23136	23137	23138	23139	
4	23140	23141	23142	23143	
4	23144	23145	23146	23147	
4	23148	23149	23150	23151	
4	23152	23153	23154	23155	
4	23156	23157	23158	23159	
4	23160	23161	23162	23163	
4	23164	23165	23166	23167	
4	23168	23169	23170	23171	
4	23172	23173	23174	23175	
4	23176	23177	23178	23179	
4	23180	23181	23182	23183	
4	23184	23185	23186	23187	
4	23188	23189	23190	23191	
4	23192	23193	23194	23195	
4	23196	23197	23198	23199	
4	23200	23201	23202	23203	
4	23204	23205	23206	23207	
4	23208	23209	23210	23211	
4	23212	23213	23214	23215	
4	23216	23217	23218	23219	
4	23220	23221	23222	23223	
4	23224	23225	23226	23227	
4	23228	23229	23230	23231	
4	23232	23233	23234	23235	
4	23236	23237	23238	23239	
4	23240	23241	23242	23243	
4	23244	23245	23246	23247	
4	23248	23249	23250	23251	
4	23252	23253	23254	23255	
4	23256	23257	23258	23259	
4	23260	23261	23262	23263	
4	23264	23265	23266	23267	
4	23268	23269	23270	23271	
4	23272	23273	23274	23275	
4	23276	23277	23278	23279	
4	23280	23281	23282	23283	
4	23284	23285	23286	23287	
4	23288	23289	23290	23291	
4	23292	23293	23294	23295	
4	23296	23297	23298	23299	
4	23300	23301	23302	23303	
4	23304	23305	23306	23307	
4	23308	23309	23310	23311	
4	23312	23313	23314	23315	
4	23316	23317	23318	23319	
4	23320	23321	23322	23323	
4	23324	23325	23326	23327	
4	23328	23329	23330	23331	
4	23332	23333	23334	23335	
4	23336	23337	23338	23339	
4	23340	23341	23342	23343	
4	23344	23345	23346	23347	
4	23348	23349	23350	23351	
4	23352	23353	23354	23355	
4	23356	23357	23358	23359	
4	23360	23361	23362	23363	
4	23364	23365	23366	23367	
4	23368	23369	23370	23371	
4	23372	23373	23374	23375	
4	23376	23377	23378	23379	
4	23380	23381	23382	23383	
4	23384	23385	23386	23387	
4	23388	23389	23390	23391	
4	23392	23393	23394	23395	
4	23396	23397	23398	23399	
4	23400	23401	23402	23403	
4	23404	23405	23406	23407	
4	23408	23409	23410	23411	
4	23412	23413	23414	23415	
4	23416	23417	23418	23419	
4	23420	23421	23422	23423	
4	23424	23425	23426	23427	
4	23428	23429	23430	23431	
4	23432	23433	23434	23435	
4	23436	23437	23438	23439	
4	23440	23441	23442	23443	
4	23444	23445	23446	23447	
4	23448	23449	23450	23451	
4	23452	23453	23454	23455	
4	23456	23457	23458	23459	
4	23460	23461	23462	23463	
4	23464	23465	23466	23467	
4	23468	23469	23470	23471	
4	23472	23473	23474	23475	
4	23476	23477	23478	23479	
4	23480	23481	23482	23483	
4	23484	23485	23486	23487	
4	23488	23489	23490	23491	
4	23492	23493	23494	23495	
4	23496	23497	23498	23499	
4	23500	23501	23502	23503	
4	23504	23505	23506	23507	
4	23508	23509	23510	23511	
4	23512	23513	23514	23515	
4	23516	23517	23518	23519	
4	23520	23521	23522	23523	
4	23524	23525	23526	23527	
4	23528	23529	23530	23531	
4	23532	23533	23534	23535	
4	23536	23537	23538	23539	
4	23540	23541	23542	23543	
4	23544	23545	23546	23547	
4	23548	23549	23550	23551	
4	23552	23553	23554	23555	
4	23556	23557	23558	23559	
4	23560	23561	23562	23563	
4	23564	23565	23566	23567	
4	23568	23569	23570	23571	
4	23572	23573	23574	23575	
4	23576	23577	23578	23579	
4	23580	23581	23582	23583	
4	23584	23585	23586	23587	
4	23588	23589	23590	23591	
4	23592	23593	23594	23595	
4	23596	23597	23598	23599	
4	23600	23601	23602	23603	
4	23604	23605	23606	23607	
4	23608	23609	23610	23611	
4	23612	23613	23614	23615	
4	23616	23617	23618	23619	
4	23620	23621	23622	23623	
4	23624	23625	23626	23627	
4	23628	23629	23630	23631	
4	23632	23633	23634	23635	
4	23636	23637	23638	23639	
4	23640	23641	23642	23643	
4	23644	23645	23646	23647	
4	23648	23649	23650	23651	
4	23652	23653	23654	23655	
4	23656	23657	23658	23659	
4	23660	23661	23662	23663	
4	23664	23665	23666	23667	
4	23668	23669	23670	23671	
4	23672	23673	23674	23675	
4	23676	23677	23678	23679	
4	23680	23681	23682	23683	
4	23684	23685	23686	23687	
4	23688	23689	23690	23691	
4	23692	23693	23694	23695	
4	23696	23697	23698	23699	
4	23700	23701	23702	23703	
4	23704	23705	23706	23707	
4	23708	23709	23710	23711	
4	23712	23713	23714	23715	
4	23716	23717	23718	23719	
4	23720	23721	23722	23723	
4	23724	23725	23726	23727	
4	23728	23729	23730	23731	
4	23732	23733	23734	23735	
4	23736	23737	23738	23739	
4	23740	23741	23742	23743	
4	23744	23745	23746	23747	
4	23748	23749	23750	23751	
4	23752	23753	23754	23755	
4	23756	23757	23758	23759	
4	23760	23761	23762	23763	
4	23764	23765	23766	23767	
4	23768	23769	23770	23771	
4	23772	23773	23774	23775	
4	23776	23777	23778	23779	
4	23780	23781	23782	23783	
4	23784	23785	23786	23787	
4	23788	23789	23790	23791	
4	23792	23793	23794	23795	
4	23796	23797	23798	23799	
4	23800	23801	23802	23803	
4	23804	23805	23806	23807	
4	23808	23809	23810	23811	
4	23812	23813	23814	23815	
4	23816	23817	23818	23819	
4	23820	23821	23822	23823	
4	23824	23825	23826	23827	
4	23828	23829	23830	23831	
4	23832	23833	23834	23835	
CELL_TYPES 5959
10
10
10
10
10
10
10
10
10
10
10
10
10
10
10
10
10
10
10
10
10
10
10
10
10
10
10
10
10
10
10
10
10
10
10
10
10
10
10
10
10
10
10
10
10
10
10
10
10
10
10
10
10
10
10
10
10
10
10
10
10
10
10
10
10
10
10
10
10
10
10
10
10
10
10
10
10
10
10
10
10
10
10
10
10
10
10
10
10
10
10
10
10
10
10
10
10
10
10
10
10
10
10
10
10
10
10
10
10
10
10
10
10
10
10
10
10
10
10
10
10
10
10
10
10
10
10
10
10
10
10
10
10
10
10
10
10
10
10
10
10
10
10
10
10
10
10
10
10
10
10
10
10
10
10
10
10
10
10
10
10
10
10
10
10
10
10
10
10
10
10
10
10
10
10
10
10
10
10
10
10
10
10
10
10
10
10
10
10
10
10
10
10
10
10
10
10
10
10
10
10
10
10
10
10
10
10
10
10
10
10
10
10
10
10
10
10
10
10
10
10
10
10
10
10
10
10
10
10
10
10
10
10
10
10
10
10
10
10
10
10
10
10
10
10
10
10
10
10
10
10
10
10
10
10
10
10
10
10
10
10
10
10
10
10
10
10
10
10
10
10
10
10
10
10
10
10
10
10
10
10
10
10
10
10
10
10
10
10
10
10
10
10
10
10
10
10
10
10
10
10
10
10
10
10
10
10
10
10
10
10
10
10
10
10
10
10
10
10
10
10
10
10
10
10
10
10
10
10
10
10
10
10
10
10
10
10
10
10
10
10
10
10
10
10
10
10
10
10
10
10
10
10
10
10
10
10
10
10
10
10
10
10
10
10
10
10
10
10
10
10
10
10
10
10
10
10
10
10
10
10
10
10
10
10
10
10
10
10
10
10
10
10
10
10
10
10
10
10
10
10
10
10
10
10
10
10
10
10
10
10
10
10
10
10
10
10
10
10
10
10
10
10
10
10
10
10
10
10
10
10
10
10
10
10
10
10
10
10
10
10
10
10
10
10
10
10
10
10
10
10
10
10
10
10
10
10
10
10
10
10
10
10
10
10
10
10
10
10
10
10
10
10
10
10
10
10
10
10
10
10
10
10
10
10
10
10
10
10
10
10
10
10
10
10
10
10
10
10
10
10
10
10
10
10
10
10
10
10
10
10
10
10
10
10
10
10
10
10
10
10
10
10
10
10
10
10
10
10
10
10
10
10
10
10
10
10
10
10
10
10
10
10
10
10
10
10
10
10
10
10
10
10
10
10
10
10
10
10
10
10
10
10
10
10
10
10
10
10
10
10
10
10
10
10
10
10
10
10
10
10
10
10
10
10
10
10
10
10
10
10
10
10
10
10
10
10
10
10
10
10
10
10
10
10
10
10
10
10
10
10
10
10
10
10
10
10
10
10
10
10
10
10
10
10
10
10
10
10
10
10
10
10
10
10
10
10
10
10
10
10
10
10
10
10
10
10
10
10
10
10
10
10
10
10
10
10
10
10
10
10
10
10
10
10
10
10
10
10
10
10
10
10
10
10
10
10
10
10
10
10
10
10
10
10
10
10
10
10
10
10
10
10
10
10
10
10
10
10
10
10
10
10
10
10
10
10
10
10
10
10
10
10
10
10
10
10
10
10
10
10
10
10
10
10
10
10
10
10
10
10
10
10
10
10
10
10
10
10
10
10
10
10
10
10
10
10
10
10
10
10
10
10
10
10
10
10
10
10
10
10
10
10
10
10
10
10
10
10
10
10
10
10
10
10
10
10
10
10
10
10
10
10
10
10
10
10
10
10
10
10
10
10
10
10
10
10
10
10
10
10
10
10
10
10
10
10
10
10
10
10
10
10
10
10
10
10
10
10
10
10
10
10
10
10
10
10
10
10
10
10
10
10
10
10
10
10
10
10
10
10
10
10
10
10
10
10
10
10
10
10
10
10
10
10
10
10
10
10
10
10
10
10
10
10
10
10
10
10
10
10
10
10
10
10
10
10
10
10
10
10
10
10
10
10
10
10
10
10
10
10
10
10
10
10
10
10
10
10
10
10
10
10
10
10
10
10
10
10
10
10
10
10
10
10
10
10
10
10
10
10
10
10
10
10
10
10
10
10
10
10
10
10
10
10
10
10
10
10
10
10
10
10
10
10
10
10
10
10
10
10
10
10
10
10
10
10
10
10
10
10
10
10
10
10
10
10
10
10
10
10
10
10
10
10
10
10
10
10
10
10
10
10
10
10
10
10
10
10
10
10
10
10
10
10
10
10
10
10
10
10
10
10
10
10
10
10
10
10
10
10
10
10
10
10
10
10
10
10
10
10
10
10
10
10
10
10
10
10
10
10
10
10
10
10
10
10
10
10
10
10
10
10
10
10
10
10
10
10
10
10
10
10
10
10
10
10
10
10
10
10
10
10
10
10
10
10
10
10
10
10
10
10
10
10
10
10
10
10
10
10
10
10
10
10
10
10
10
10
10
10
10
10
10
10
10
10
10
10
10
10
10
10
10
10
10
10
10
10
10
10
10
10
10
10
10
10
10
10
10
10
10
10
10
10
10
10
10
10
10
10
10
10
10
10
10
10
10
10
10
10
10
10
10
10
10
10
10
10
10
10
10
10
10
10
10
10
10
10
10
10
10
10
10
10
10
10
10
10
10
10
10
10
10
10
10
10
10
10
10
10
10
10
10
10
10
10
10
10
10
10
10
10
10
10
10
10
10
10
10
10
10
10
10
10
10
10
10
10
10
10
10
10
10
10
10
10
10
10
10
10
10
10
10
10
10
10
10
10
10
10
10
10
10
10
10
10
10
10
10
10
10
10
10
10
10
10
10
10
10
10
10
10
10
10
10
10
10
10
10
10
10
10
10
10
10
10
10
10
10
10
10
10
10
10
10
10
10
10
10
10
10
10
10
10
10
10
10
10
10
10
10
10
10
10
10
10
10
10
10
10
10
10
10
10
10
10
10
10
10
10
10
10
10
10
10
10
10
10
10
10
10
10
10
10
10
10
10
10
10
10
10
10
10
10
10
10
10
10
10
10
10
10
10
10
10
10
10
10
10
10
10
10
10
10
10
10
10
10
10
10
10
10
10
10
10
10
10
10
10
10
10
10
10
10
10
10
10
10
10
10
10
10
10
10
10
10
10
10
10
10
10
10
10
10
10
10
10
10
10
10
10
10
10
10
10
10
10
10
10
10
10
10
10
10
10
10
10
10
10
10
10
10
10
10
10
10
10
10
10
10
10
10
10
10
10
10
10
10
10
10
10
10
10
10
10
10
10
10
10
10
10
10
10
10
10
10
10
10
10
10
10
10
10
10
10
10
10
10
10
10
10
10
10
10
10
10
10
10
10
10
10
10
10
10
10
10
10
10
10
10
10
10
10
10
10
10
10
10
10
10
10
10
10
10
10
10
10
10
10
10
10
10
10
10
10
10
10
10
10
10
10
10
10
10
10
10
10
10
10
10
10
10
10
10
10
10
10
10
10
10
10
10
10
10
10
10
10
10
10
10
10
10
10
10
10
10
10
10
10
10
10
10
10
10
10
10
10
10
10
10
10
10
10
10
10
10
10
10
10
10
10
10
10
10
10
10
10
10
10
10
10
10
10
10
10
10
10
10
10
10
10
10
10
10
10
10
10
10
10
10
10
10
10
10
10
10
10
10
10
10
10
10
10
10
10
10
10
10
10
10
10
10
10
10
10
10
10
10
10
10
10
10
10
10
10
10
10
10
10
10
10
10
10
10
10
10
10
10
10
10
10
10
10
10
10
10
10
10
10
10
10
10
10
10
10
10
10
10
10
10
10
10
10
10
10
10
10
10
10
10
10
10
10
10
10
10
10
10
10
10
10
10
10
10
10
10
10
10
10
10
10
10
10
10
10
10
10
10
10
10
10
10
10
10
10
10
10
10
10
10
10
10
10
10
10
10
10
10
10
10
10
10
10
10
10
10
10
10
10
10
10
10
10
10
10
10
10
10
10
10
10
10
10
10
10
10
10
10
10
10
10
10
10
10
10
10
10
10
10
10
10
10
10
10
10
10
10
10
10
10
10
10
10
10
10
10
10
10
10
10
10
10
10
10
10
10
10
10
10
10
10
10
10
10
10
10
10
10
10
10
10
10
10
10
10
10
10
10
10
10
10
10
10
10
10
10
10
10
10
10
10
10
10
10
10
10
10
10
10
10
10
10
10
10
10
10
10
10
10
10
10
10
10
10
10
10
10
10
10
10
10
10
10
10
10
10
10
10
10
10
10
10
10
10
10
10
10
10
10
10
10
10
10
10
10
10
10
10
10
10
10
10
10
10
10
10
10
10
10
10
10
10
10
10
10
10
10
10
10
10
10
10
10
10
10
10
10
10
10
10
10
10
10
10
10
10
10
10
10
10
10
10
10
10
10
10
10
10
10
10
10
10
10
10
10
10
10
10
10
10
10
10
10
10
10
10
10
10
10
10
10
10
10
10
10
10
10
10
10
10
10
10
10
10
10
10
10
10
10
10
10
10
10
10
10
10
10
10
10
10
10
10
10
10
10
10
10
10
10
10
10
10
10
10
10
10
10
10
10
10
10
10
10
10
10
10
10
10
10
10
10
10
10
10
10
10
10
10
10
10
10
10
10
10
10
10
10
10
10
10
10
10
10
10
10
10
10
10
10
10
10
10
10
10
10
10
10
10
10
10
10
10
10
10
10
10
10
10
10
10
10
10
10
10
10
10
10
10
10
10
10
10
10
10
10
10
10
10
10
10
10
10
10
10
10
10
10
10
10
10
10
10
10
10
10
10
10
10
10
10
10
10
10
10
10
10
10
10
10
10
10
10
10
10
10
10
10
10
10
10
10
10
10
10
10
10
10
10
10
10
10
10
10
10
10
10
10
10
10
10
10
10
10
10
10
10
10
10
10
10
10
10
10
10
10
10
10
10
10
10
10
10
10
10
10
10
10
10
10
10
10
10
10
10
10
10
10
10
10
10
10
10
10
10
10
10
10
10
10
10
10
10
10
10
10
10
10
10
10
10
10
10
10
10
10
10
10
10
10
10
10
10
10
10
10
10
10
10
10
10
10
10
10
10
10
10
10
10
10
10
10
10
10
10
10
10
10
10
10
10
10
10
10
10
10
10
10
10
10
10
10
10
10
10
10
10
10
10
10
10
10
10
10
10
10
10
10
10
10
10
10
10
10
10
10
10
10
10
10
10
10
10
10
10
10
10
10
10
10
10
10
10
10
10
10
10
10
10
10
10
10
10
10
10
10
10
10
10
10
10
10
10
10
10
10
10
10
10
10
10
10
10
10
10
10
10
10
10
10
10
10
10
10
10
10
10
10
10
10
10
10
10
10
10
10
10
10
10
10
10
10
10
10
10
10
10
10
10
10
10
10
10
10
10
10
10
10
10
10
10
10
10
10
10
10
10
10
10
10
10
10
10
10
10
10
10
10
10
10
10
10
10
10
10
10
10
10
10
10
10
10
10
10
10
10
10
10
10
10
10
10
10
10
10
10
10
10
10
10
10
10
10
10
10
10
10
10
10
10
10
10
10
10
10
10
10
10
10
10
10
10
10
10
10
10
10
10
10
10
10
10
10
10
10
10
10
10
10
10
10
10
10
10
10
10
10
10
10
10
10
10
10
10
10
10
10
10
10
10
10
10
10
10
10
10
10
10
10
10
10
10
10
10
10
10
10
10
10
10
10
10
10
10
10
10
10
10
10
10
10
10
10
10
10
10
10
10
10
10
10
10
10
10
10
10
10
10
10
10
10
10
10
10
10
10
10
10
10
10
10
10
10
10
10
10
10
10
10
10
10
10
10
10
10
10
10
10
10
10
10
10
10
10
10
10
10
10
10
10
10
10
10
10
10
10
10
10
10
10
10
10
10
10
10
10
10
10
10
10
10
10
10
10
10
10
10
10
10
10
10
10
10
10
10
10
10
10
10
10
10
10
10
10
10
10
10
10
10
10
10
10
10
10
10
10
10
10
10
10
10
10
10
10
10
10
10
10
10
10
10
10
10
10
10
10
10
10
10
10
10
10
10
10
10
10
10
10
10
10
10
10
10
10
10
10
10
10
10
10
10
10
10
10
10
10
10
10
10
10
10
10
10
10
10
10
10
10
10
10
10
10
10
10
10
10
10
10
10
10
10
10
10
10
10
10
10
10
10
10
10
10
10
10
10
10
10
10
10
10
10
10
10
10
10
10
10
10
10
10
10
10
10
10
10
10
10
10
10
10
10
10
10
10
10
10
10
10
10
10
10
10
10
10
10
10
10
10
10
10
10
10
10
10
10
10
10
10
10
10
10
10
10
10
10
10
10
10
10
10
10
10
10
10
10
10
10
10
10
10
10
10
10
10
10
10
10
10
10
10
10
10
10
10
10
10
10
10
10
10
10
10
10
10
10
10
10
10
10
10
10
10
10
10
10
10
10
10
10
10
10
10
10
10
10
10
10
10
10
10
10
10
10
10
10
10
10
10
10
10
10
10
10
10
10
10
10
10
10
10
10
10
10
10
10
10
10
10
10
10
10
10
10
10
10
10
10
10
10
10
10
10
10
10
10
10
10
10
10
10
10
10
10
10
10
10
10
10
10
10
10
10
10
10
10
10
10
10
10
10
10
10
10
10
10
10
10
10
10
10
10
10
10
10
10
10
10
10
10
10
10
10
10
10
10
10
10
10
10
10
10
10
10
10
10
10
10
10
10
10
10
10
10
10
10
10
10
10
10
10
10
10
10
10
10
10
10
10
10
10
10
10
10
10
10
10
10
10
10
10
10
10
10
10
10
10
10
10
10
10
10
10
10
10
10
10
10
10
10
10
10
10
10
10
10
10
10
10
10
10
10
10
10
10
10
10
10
10
10
10
10
10
10
10
10
10
10
10
10
10
10
10
10
10
10
10
10
10
10
10
10
10
10
10
10
10
10
10
10
10
10
10
10
10
10
10
10
10
10
10
10
10
10
10
10
10
10
10
10
10
10
10
10
10
10
10
10
10
10
10
10
10
10
10
10
10
10
10
10
10
10
10
10
10
10
10
10
10
10
10
10
10
10
10
10
10
10
10
10
10
10
10
10
10
10
10
10
10
10
10
10
10
10
10
10
10
10
10
10
10
10
10
10
10
10
10
10
10
10
10
10
10
10
10
10
10
10
10
10
10
10
10
10
10
10
10
10
10
10
10
10
10
10
10
10
10
10
10
10
10
10
10
10
10
10
10
10
10
10
10
10
10
10
10
10
10
10
10
10
10
10
10
10
10
10
10
10
10
10
10
10
10
10
10
10
10
10
10
10
10
10
10
10
10
10
10
10
10
10
10
10
10
10
10
10
10
10
10
10
10
10
10
10
10
10
10
10
10
10
10
10
10
10
10
10
10
10
10
10
10
10
10
10
10
10
10
10
10
10
10
10
10
10
10
10
10
10
10
10
10
10
10
10
10
10
10
10
10
10
10
10
10
10
10
10
10
10
10
10
10
10
10
10
10
10
10
10
10
10
10
10
10
10
10
10
10
10
10
10
10
10
10
10
10
10
10
10
10
10
10
10
10
10
10
10
10
10
10
10
10
10
10
10
10
10
10
10
10
10
10
10
10
10
10
10
10
10
10
10
10
10
10
10
10
10
10
10
10
10
10
10
10
10
10
10
10
10
10
10
10
10
10
10
10
10
10
10
10
10
10
10
10
10
10
10
10
10
10
10
10
10
10
10
10
10
10
10
10
10
10
10
10
10
10
10
10
10
10
10
10
10
10
10
10
10
10
10
10
10
10
10
10
10
10
10
10
10
10
10
10
10
10
10
10
10
10
10
10
10
10
10
10
10
10
10
10
10
10
10
10
10
10
10
10
10
10
10
10
10
10
10
10
10
10
10
10
10
10
10
10
10
10
10
10
10
10
10
10
10
10
10
10
10
10
10
10
10
10
10
10
10
10
10
10
10
10
10
10
10
10
10
10
10
10
10
10
10
10
10
10
10
10
10
10
10
10
10
10
10
10
10
10
10
10
10
10
10
10
10
10
10
10
10
10
10
10
10
10
10
10
10
10
10
10
10
10
10
10
10
10
10
10
10
10
10
10
10
10
10
10
10
10
10
10
10
10
10
10
10
10
10
10
10
10
10
10
10
10
10
10
10
10
10
10
10
10
10
10
10
10
10
10
10
10
10
10
10
10
10
10
10
10
10
10
10
10
10
10
10
10
10
10
10
10
10
10
10
10
10
10
10
10
10
10
10
10
10
10
10
10
10
10
10
10
10
10
10
10
10
10
10
10
10
10
10
10
10
10
10
10
10
10
10
10
10
10
10
10
10
10
10
10
10
10
10
10
10
10
10
10
10
10
10
10
10
10
10
10
10
10
10
10
10
10
10
10
10
10
10
10
10
10
10
10
10
10
10
10
10
10
10
10
10
10
10
10
10
10
10
10
10
10
10
10
10
10
10
10
10
10
10
10
10
10
10
10
10
10
10
10
10
10
10
10
10
10
10
10
10
10
10
10
10
10
10
10
10
10
10
10
10
10
10
10
10
10
10
10
10
10
10
10
10
10
10
10
10
10
10
10
10
10
10
10
10
10
10
10
10
10
10
10
10
10
10
10
10
10
10
10
10
10
10
10
10
10
10
10
10
10
10
10
10
10
10
10
10
10
10
10
10
10
10
10
10
10
10
10
10
10
10
10
10
10
10
10
10
10
10
10
10
10
10
10
10
10
10
10
10
10
10
10
10
10
10
10
10
10
10
10
10
10
10
10
10
10
10
10
10
10
10
10
10
10
10
10
10
10
10
10
10
10
10
10
10
10
10
10
10
10
10
10
10
10
10
10
10
10
10
10
10
10
10
10
10
10
10
10
10
10
10
10
10
10
10
10
10
10
10
10
10
10
10
10
10
10
10
10
10
10
10
10
10
10
10
10
10
10
10
10
10
10
10
10
10
10
10
10
10
10
10
10
10
10
10
10
10
10
10
10
10
10
10
10
10
10
10
10
10
10
10
10
10
10
10
10
10
10
10
10
10
10
10
10
10
10
10
10
10
10
10
10
10
10
10
10
10
10
10
10
10
10
10
10
10
10
10
10
10
10
10
10
10
10
10
10
10
10
10
10
10
10
10
10
10
10
10
10
10
10
10
10
10
10
10
10
10
10
10
10
10
10
10
10
10
10
10
10
10
10
10
10
10
10
10
10
10
10
10
10
10
10
10
10
10
10
10
10
10
10
10
10
10
10
10
10
10
10
10
10
10
10
10
10
10
10
10
10
10
10
10
10
10
10
10
10
10
10
10
10
10
10
10
10
10
10
10
10
10
10
10
10
10
10
10
10
10
10
10
10
10
10
10
10
10
10
10
10
10
10
10
10
10
10
10
10
10
10
10
10
10
10
10
10
10
10
10
10
10
10
10
10
10
10
10
10
10
10
10
10
10
10
10
10
10
10
10
10
10
10
10
10
10
10
10
10
10
10
10
10
10
10
10
10
10
10
10
10
10
10
10
10
10
10
10
10
10
10
10
10
10
10
10
10
10
10
10
10
10
10
10
10
10
10
10
10
10
10
10
10
10
10
10
10
10
10
10
10
10
10
10
10
10
10
10
10
10
10
10
10
10
10
10
10
10
10
10
10
10
10
10
10
10
10
10
10
10
10
10
10
10
10
10
10
10
10
10
10
10
10
10
10
10
10
10
10
10
10
10
10
10
10
10
10
10
10
10
10
10
10
10
10
10
10
10
10
10
10
10
10
10
10
10
10
10
10
10
10
10
10
10
10
10
10
10
10
10
10
10
10
10
10
10
10
10
10
10
10
10
10
10
10
10
10
10
10
10
10
10
10
10
10
10
10
10
10
10
10
10
10
10
10
10
10
10
10
10
10
10
10
10
10
10
10
10
10
10
10
10
10
10
10
10
10
10
10
10
10
10
10
10
10
10
10
10
10
10
10
10
10
10
10
10
10
10
10
10
10
10
10
10
10
10
10
10
10
10
10
10
10
10
10
10
10
10
10
10
10
10
10
10
10
10
10
10
10
10
10
10
10
10
10
10
10
10
10
10
10
10
10
10
10
10
10
10
10
10
10
10
10
10
10
10
10
10
10
10
10
10
10
10
10
10
10
10
10
10
10
10
10
10
10
10
10
10
10
10
10
10
10
10
10
10
10
10
10
10
10
10
10
10
10
10
10
10
10
10
10
10
10
10
10
10
10
10
10
10
10
10
10
10
10
10
10
10
10
10
10
10
10
10
10
10
10
10
10
10
10
10
10
10
10
10
10
10
10
10
10
10
10
10
10
10
10
10
10
10
10
10
10
10
10
10
10
10
10
10
10
10
10
10
10
10
10
10
10
10
10
10
10
10
10
10
10
10
10
10
10
10
10
10
10
10
10
10
10
10
10
10
10
10
10
10
10
10
10
10
10
10
10
10
10
10
10
10
10
10
10
10
10
10
10
10
10
10
10
10
10
10
10
10
10
10
10
10
10
10
10
10
10
10
10
10
10
10
10
10
10
10
10
10
10
10
10
10
10
10
10
10
10
10
10
10
10
10
10
10
10
10
10
10
10
10
10
10
10
10
10
10
10
10
10
10
10
10
10
10
10
10
10
10
10
10
10
10
10
10
10
10
10
10
10
10
10
10
10
10
10
10
10
10
10
10
10
10
10
10
10
10
10
10
10
10
10
10
10
10
10
10
10
10
10
10
10
10
10
10
10
10
10
10
10
10
10
10
10
10
10
10
10
10
10
10
10
10
10
10
10
10
10
10
10
10
10
10
10
10
10
10
10
10
10
10
10
10
10
10
10
10
10
10
10
10
10
10
10
10
10
10
10
10
10
10
10
10
10
10
10
10
10
10
10
10
10
10
10
10
10
10
10
10
10
10
10
10
10
10
10
10
10
10
10
10
10
10
10
10
10
10
10
10
10
10
10
10
10
10
10
10
10
10
10
10
10
10
10
10
10
10
10
10
10
10
10
10
10
10
10
10
10
10
10
10
10
10
10
10
10
10
10
10
10
10
10
10
10
10
10
10
10
10
10
10
10
10
10
10
10
10
10
10
10
10
10
10
10
10
10
10
10
10
10
10
10
10
10
10
10
10
10
10
10
10
10
10
10
10
10
10
10
10
10
10
10
10
10
10
10
10
10
10
10
10
10
10
10
10
10
10
10
10
10
10
10
10
10
10
10
10
10
10
10
10
10
10
10
10
10
10
10
10
10
10
10
10
10
10
10
10
10
10
10
10
10
10
10
10
10
10
10
10
10
10
10
10
10
10
10
10
10
10
10
10
10
10
10
10
10
10
10
10
10
10
10
10
10
10
10
10
10
10
10
10
10
10
10
10
10
10
10
10
10
10
10
10
10
10
10
10
10
10
10
10
10
10
10
10
10
10
10
10
10
10
10
10
10
10
10
10
10
10
10
10
10
10
10
10
10
10
10
10
10
10
10
10
10
10
10
10
10
10
10
10
10
10
10
10
10
10
10
10
10
10
10
10
10
10
10
10
10
10
10
10
10
10
10
10
10
10
10
10
10
10
10
10
10
10
10
10
10
10
10
10
10
10
10
10
10
10
10
10
10
10
10
10
10
10
10
10
10
10
10
10
10
10
10
10
10
10
10
10
10
10
10
10
10
10
10
10
10
10
10
10
10
10
10
10
10
10
10
10
10
10
10
10
10
10
10
10
10
10
10
10
10
10
10
10
10
10
10
10
10
10
10
10
10
10
10
10
10
10
10
10
10
10
10
10
10
10
10
10
10
10
10
10
10
10
10
10
10
10
10
10
10
10
10
10
10
10
10
10
10
10
10
10
10
10
10
10
10
10
10
10
10
10
10
10
10
10
10
10
10
10
10
10
10
10
10
10
10
10
10
10
10
10
10
10
10
10
10
10
10
10
10
10
10
10
10
10
10
10
10
10
10
10
10
10
10
10
10
10
10
10
10
10
10
10
10
10
10
10
10
10
10
10
10
10
10
10
10
10
10
10
10
10
10
10
10
10
10
10
10
10
10
10
10
10
10
10
10
10
10
10
10
10
10
10
10
10
10
10
10
10
10
10
10
10
10
10
10
10
10
10
10
10
10
10
10
10
10
10
10
10
10
10
10
10
10
10
10
10
10
10
10
10
10
10
10
10
10
10
10
10
10
10
10
10
10
10
10
10
10
10
10
10
10
10
10
10
10
10
10
10
10
10
10
10
10
10
10
10
10
10
10
10
10
10
10
10
10
10
10
10
10
10
10
10
10
10
10
10
10
10
10
10
10
10
10
10
10
10
10
10
10
10
10
10
10
10
10
10
10
10
10
10
10
10
10
10
10
10
10
10
10
10
10
10
10
10
10
10
10
10
10
10
10
10
10
10
10
10
10
10
10
10
10
10
10
10
10
10
10
10
10
10
10
10
10
10
10
10
10
10
10
10
10
10
10
10
10
10
10
10
10
10
10
10
10
10
10
10
10
10
10
10
10
10
10
10
10
10
10
10
10
10
10
10
10
10
10
10
10
10
10
10
10
10
10
10
10
10
10
10
10
10
10
10
10
10
10
10
10
10
10
10
10
10
10
10
10
10
10
10
10
10
10
10
10
10
10
10
10
10
10
10
10
10
10
10
10
10
10
10
10
10
10
10
10
10
10
10
10
10
10
10
10
10
10
10
10
10
10
10
10
10
10
10
10
10
10
10
10
10
10
10
10
10
10
10
10
10
10
10
10
10
10
10
10
10
10
10
10
10
10
10
10
10
10
10
10
10
10
10
10
10
10
10
10
10
10
10
10
10
10
10
10
10
10
10
10
10
10
10
10
10
10
10
10
10
10
10
10
10
10
10
10
10
10
10
10
10
10
10
10
10
10
10
10
10
10
10
10
10
10
10
10
10
10
10
10
10
10
10
10
10
10
10
10
10
10
10
10
10
10
10
10
10
10
10
10
10
10
10
10
10
10
10
10
10
10
10
10
10
10
10
10
10
10
10
10
10
10
10
10
10
10
10
10
10
10
10
10
10
10
10
10
10
10
10
10
10
10
10
10
10
10
10
10
10
10
10
10
10
10
10
10
10
10
10
10
10
10
10
10
10
10
10
10
10
10
10
10
10
10
10
10
10
10
10
10
10
10
10
10
10
10
10
10
10
10
10
10
10
10
10
10
10
10
10
10
10
10
10
10
10
10
10
10
10
10
10
10
10
10
10
10
10
10
10
10
10
10
10
10
10
10
10
10
10
10
10
10
10
10
10
10
10
10
10
10
10
10
10
10
10
10
10
10
10
10
10
10
10
10
10
10
10
10
10
10
10
10
10
10
10
10
10
10
10
10
10
10
10
10
10
10
10
10
10
10
10
10
10
10
10
10
10
10
10
10
10
10
10
10
10
10
10
10
10
10
10
10
10
10
10
10
10
10
10
10
10
10
10
10
10
10
10
10
10
10
10
10
10
10
10
10
10
10
10
10
10
10
10
10
10
10
10
10
10
CELL_DATA 5959
POINT_DATA 23836
SCALARS Pressure float 
LOOKUP_TABLE default
9.76752 9.76752 9.76752 9.76752 9.77036 9.77036 9.77036 9.77036 9.49313 9.49313 9.49313 9.49313 9.209 9.209 9.209 9.209 9.84276 9.84276 9.84276 9.84276 9.4126 9.4126 9.4126 9.4126 9.68836 9.68836 9.68836 9.68836 9.83219 9.83219 9.83219 9.83219 9.88452 9.88452 9.88452 9.88452 9.82959 9.82959 9.82959 9.82959 10.1349 10.1349 10.1349 10.1349 9.64285 9.64285 9.64285 9.64285 9.68175 9.68175 9.68175 9.68175 9.03135 9.03135 9.03135 9.03135 11.3482 11.3482 11.3482 11.3482 9.88481 9.88481 9.88481 9.88481 9.99961 9.99961 9.99961 9.99961 9.59389 9.59389 9.59389 9.59389 9.71905 9.71905 9.71905 9.71905 9.46611 9.46611 9.46611 9.46611 9.00204 9.00204 9.00204 9.00204 9.09556 9.09556 9.09556 9.09556 8.45598 8.45598 8.45598 8.45598 9.74367 9.74367 9.74367 9.74367 9.8539 9.8539 9.8539 9.8539 9.49342 9.49342 9.49342 9.49342 8.14803 8.14803 8.14803 8.14803 9.85611 9.85611 9.85611 9.85611 9.15619 9.15619 9.15619 9.15619 9.4007 9.4007 9.4007 9.4007 9.34536 9.34536 9.34536 9.34536 9.51464 9.51464 9.51464 9.51464 9.72226 9.72226 9.72226 9.72226 9.51353 9.51353 9.51353 9.51353 10.1154 10.1154 10.1154 10.1154 9.87834 9.87834 9.87834 9.87834 9.45518 9.45518 9.45518 9.45518 9.75614 9.75614 9.75614 9.75614 9.50617 9.50617 9.50617 9.50617 9.75433 9.75433 9.75433 9.75433 9.8496 9.8496 9.8496 9.8496 9.47278 9.47278 9.47278 9.47278 9.52449 9.52449 9.52449 9.52449 9.73946 9.73946 9.73946 9.73946 10.3936 10.3936 10.3936 10.3936 9.88048 9.88048 9.88048 9.88048 9.48621 9.48621 9.48621 9.48621 9.66194 9.66194 9.66194 9.66194 9.72319 9.72319 9.72319 9.72319 9.51473 9.51473 9.51473 9.51473 10.7598 10.7598 10.7598 10.7598 9.70581 9.70581 9.70581 9.70581 9.69766 9.69766 9.69766 9.69766 9.84475 9.84475 9.84475 9.84475 9.85445 9.85445 9.85445 9.85445 9.82168 9.82168 9.82168 9.82168 9.46435 9.46435 9.46435 9.46435 9.73317 9.73317 9.73317 9.73317 9.86425 9.86425 9.86425 9.86425 9.40956 9.40956 9.40956 9.40956 6.38807 6.38807 6.38807 6.38807 11.2121 11.2121 11.2121 11.2121 9.244 9.244 9.244 9.244 9.67316 9.67316 9.67316 9.67316 11.2347 11.2347 11.2347 11.2347 9.60514 9.60514 9.60514 9.60514 9.53222 9.53222 9.53222 9.53222 9.55259 9.55259 9.55259 9.55259 9.42425 9.42425 9.42425 9.42425 9.60763 9.60763 9.60763 9.60763 9.72964 9.72964 9.72964 9.72964 10.7268 10.7268 10.7268 10.7268 9.42368 9.42368 9.42368 9.42368 9.68633 9.68633 9.68633 9.68633 9.2348 9.2348 9.2348 9.2348 9.59159 9.59159 9.59159 9.59159 9.2399 9.2399 9.2399 9.2399 3.04916 3.04916 3.04916 3.04916 9.92084 9.92084 9.92084 9.92084 9.82505 9.82505 9.82505 9.82505 9.66765 9.66765 9.66765 9.66765 9.08841 9.08841 9.08841 9.08841 8.15358 8.15358 8.15358 8.15358 9.89131 9.89131 9.89131 9.89131 9.71972 9.71972 9.71972 9.71972 9.71368 9.71368 9.71368 9.71368 9.26228 9.26228 9.26228 9.26228 9.85701 9.85701 9.85701 9.85701 9.68272 9.68272 9.68272 9.68272 9.65833 9.65833 9.65833 9.65833 9.20002 9.20002 9.20002 9.20002 9.90416 9.90416 9.90416 9.90416 9.74569 9.74569 9.74569 9.74569 10.9248 10.9248 10.9248 10.9248 9.47326 9.47326 9.47326 9.47326 11.7741 11.7741 11.7741 11.7741 9.80537 9.80537 9.80537 9.80537 9.79932 9.79932 9.79932 9.79932 9.82388 9.82388 9.82388 9.82388 10.4101 10.4101 10.4101 10.4101 9.58625 9.58625 9.58625 9.58625 9.64553 9.64553 9.64553 9.64553 7.71668 7.71668 7.71668 7.71668 9.87324 9.87324 9.87324 9.87324 9.67937 9.67937 9.67937 9.67937 9.67774 9.67774 9.67774 9.67774 9.72685 9.72685 9.72685 9.72685 10.9288 10.9288 10.9288 10.9288 9.42232 9.42232 9.42232 9.42232 9.67549 9.67549 9.67549 9.67549 9.69929 9.69929 9.69929 9.69929 11.0237 11.0237 11.0237 11.0237 9.87525 9.87525 9.87525 9.87525 9.91522 9.91522 9.91522 9.91522 9.44245 9.44245 9.44245 9.44245 9.67582 9.67582 9.67582 9.67582 6.64751 6.64751 6.64751 6.64751 4.09328 4.09328 4.09328 4.09328 9.64376 9.64376 9.64376 9.64376 10.2048 10.2048 10.2048 10.2048 9.67614 9.67614 9.67614 9.67614 9.78588 9.78588 9.78588 9.78588 3.50529 3.50529 3.50529 3.50529 9.66505 9.66505 9.66505 9.66505 9.74598 9.74598 9.74598 9.74598 9.61476 9.61476 9.61476 9.61476 9.79276 9.79276 9.79276 9.79276 6.98315 6.98315 6.98315 6.98315 9.54935 9.54935 9.54935 9.54935 9.76976 9.76976 9.76976 9.76976 9.65578 9.65578 9.65578 9.65578 9.61737 9.61737 9.61737 9.61737 9.36832 9.36832 9.36832 9.36832 9.60134 9.60134 9.60134 9.60134 9.7688 9.7688 9.7688 9.7688 9.91645 9.91645 9.91645 9.91645 10.6667 10.6667 10.6667 10.6667 9.70251 9.70251 9.70251 9.70251 5.91291 5.91291 5.91291 5.91291 9.92649 9.92649 9.92649 9.92649 11.5474 11.5474 11.5474 11.5474 9.57453 9.57453 9.57453 9.57453 9.56433 9.56433 9.56433 9.56433 9.62043 9.62043 9.62043 9.62043 3.63753 3.63753 3.63753 3.63753 10.9899 10.9899 10.9899 10.9899 9.63632 9.63632 9.63632 9.63632 11.4482 11.4482 11.4482 11.4482 9.70483 9.70483 9.70483 9.70483 9.82333 9.82333 9.82333 9.82333 9.52241 9.52241 9.52241 9.52241 9.72488 9.72488 9.72488 9.72488 9.72644 9.72644 9.72644 9.72644 9.84273 9.84273 9.84273 9.84273 9.74444 9.74444 9.74444 9.74444 9.84906 9.84906 9.84906 9.84906 9.63194 9.63194 9.63194 9.63194 11.2547 11.2547 11.2547 11.2547 9.65298 9.65298 9.65298 9.65298 9.53819 9.53819 9.53819 9.53819 9.67382 9.67382 9.67382 9.67382 9.74834 9.74834 9.74834 9.74834 8.87942 8.87942 8.87942 8.87942 9.72327 9.72327 9.72327 9.72327 6.70638 6.70638 6.70638 6.70638 9.62477 9.62477 9.62477 9.62477 9.62868 9.62868 9.62868 9.62868 9.72789 9.72789 9.72789 9.72789 10.2578 10.2578 10.2578 10.2578 9.75841 9.75841 9.75841 9.75841 12.0214 12.0214 12.0214 12.0214 10.1561 10.1561 10.1561 10.1561 9.66797 9.66797 9.66797 9.66797 9.71879 9.71879 9.71879 9.71879 9.71766 9.71766 9.71766 9.71766 10.3177 10.3177 10.3177 10.3177 9.6714 9.6714 9.6714 9.6714 6.79394 6.79394 6.79394 6.79394 9.84375 9.84375 9.84375 9.84375 12.3839 12.3839 12.3839 12.3839 10.047 10.047 10.047 10.047 9.04119 9.04119 9.04119 9.04119 10.7666 10.7666 10.7666 10.7666 9.65579 9.65579 9.65579 9.65579 9.82368 9.82368 9.82368 9.82368 9.72315 9.72315 9.72315 9.72315 9.6074 9.6074 9.6074 9.6074 9.68815 9.68815 9.68815 9.68815 9.8722 9.8722 9.8722 9.8722 9.87173 9.87173 9.87173 9.87173 9.60405 9.60405 9.60405 9.60405 9.90671 9.90671 9.90671 9.90671 9.79522 9.79522 9.79522 9.79522 9.35548 9.35548 9.35548 9.35548 9.73098 9.73098 9.73098 9.73098 9.34702 9.34702 9.34702 9.34702 10.3583 10.3583 10.3583 10.3583 9.74936 9.74936 9.74936 9.74936 9.61302 9.61302 9.61302 9.61302 9.4545 9.4545 9.4545 9.4545 11.8345 11.8345 11.8345 11.8345 11.1845 11.1845 11.1845 11.1845 9.63074 9.63074 9.63074 9.63074 9.65265 9.65265 9.65265 9.65265 9.57525 9.57525 9.57525 9.57525 9.73468 9.73468 9.73468 9.73468 8.73974 8.73974 8.73974 8.73974 9.89183 9.89183 9.89183 9.89183 9.68521 9.68521 9.68521 9.68521 9.59282 9.59282 9.59282 9.59282 9.65835 9.65835 9.65835 9.65835 9.59512 9.59512 9.59512 9.59512 9.55525 9.55525 9.55525 9.55525 9.68362 9.68362 9.68362 9.68362 9.89397 9.89397 9.89397 9.89397 9.9048 9.9048 9.9048 9.9048 9.91391 9.91391 9.91391 9.91391 9.63063 9.63063 9.63063 9.63063 9.65936 9.65936 9.65936 9.65936 9.86545 9.86545 9.86545 9.86545 9.7783 9.7783 9.7783 9.7783 9.58043 9.58043 9.58043 9.58043 9.61605 9.61605 9.61605 9.61605 9.85454 9.85454 9.85454 9.85454 9.60449 9.60449 9.60449 9.60449 9.71852 9.71852 9.71852 9.71852 9.65205 9.65205 9.65205 9.65205 9.55153 9.55153 9.55153 9.55153 8.53771 8.53771 8.53771 8.53771 5.24614 5.24614 5.24614 5.24614 11.778 11.778 11.778 11.778 9.65212 9.65212 9.65212 9.65212 9.47524 9.47524 9.47524 9.47524 9.45261 9.45261 9.45261 9.45261 9.83638 9.83638 9.83638 9.83638 9.92606 9.92606 9.92606 9.92606 9.91091 9.91091 9.91091 9.91091 9.924 9.924 9.924 9.924 9.92099 9.92099 9.92099 9.92099 9.7323 9.7323 9.7323 9.7323 9.67222 9.67222 9.67222 9.67222 9.67431 9.67431 9.67431 9.67431 9.73803 9.73803 9.73803 9.73803 9.70922 9.70922 9.70922 9.70922 9.66649 9.66649 9.66649 9.66649 9.59447 9.59447 9.59447 9.59447 9.69543 9.69543 9.69543 9.69543 9.909 9.909 9.909 9.909 9.64154 9.64154 9.64154 9.64154 9.57012 9.57012 9.57012 9.57012 9.54337 9.54337 9.54337 9.54337 9.4469 9.4469 9.4469 9.4469 11.8294 11.8294 11.8294 11.8294 9.83759 9.83759 9.83759 9.83759 9.65939 9.65939 9.65939 9.65939 9.74438 9.74438 9.74438 9.74438 9.74511 9.74511 9.74511 9.74511 9.6099 9.6099 9.6099 9.6099 10.1574 10.1574 10.1574 10.1574 9.51869 9.51869 9.51869 9.51869 9.61111 9.61111 9.61111 9.61111 9.64253 9.64253 9.64253 9.64253 10.1109 10.1109 10.1109 10.1109 9.77263 9.77263 9.77263 9.77263 9.58505 9.58505 9.58505 9.58505 9.83563 9.83563 9.83563 9.83563 12.5503 12.5503 12.5503 12.5503 9.59003 9.59003 9.59003 9.59003 9.72291 9.72291 9.72291 9.72291 9.6061 9.6061 9.6061 9.6061 10.1608 10.1608 10.1608 10.1608 9.79349 9.79349 9.79349 9.79349 8.44971 8.44971 8.44971 8.44971 12.3997 12.3997 12.3997 12.3997 10.5242 10.5242 10.5242 10.5242 9.68797 9.68797 9.68797 9.68797 9.70883 9.70883 9.70883 9.70883 4.83492 4.83492 4.83492 4.83492 9.83659 9.83659 9.83659 9.83659 11.1819 11.1819 11.1819 11.1819 11.9373 11.9373 11.9373 11.9373 9.55853 9.55853 9.55853 9.55853 9.57652 9.57652 9.57652 9.57652 5.28629 5.28629 5.28629 5.28629 9.70246 9.70246 9.70246 9.70246 9.71391 9.71391 9.71391 9.71391 9.8548 9.8548 9.8548 9.8548 9.80717 9.80717 9.80717 9.80717 9.80133 9.80133 9.80133 9.80133 9.84621 9.84621 9.84621 9.84621 9.88528 9.88528 9.88528 9.88528 9.8704 9.8704 9.8704 9.8704 9.70304 9.70304 9.70304 9.70304 9.76861 9.76861 9.76861 9.76861 9.7729 9.7729 9.7729 9.7729 9.777 9.777 9.777 9.777 9.79036 9.79036 9.79036 9.79036 9.69255 9.69255 9.69255 9.69255 9.82541 9.82541 9.82541 9.82541 9.34063 9.34063 9.34063 9.34063 9.83049 9.83049 9.83049 9.83049 10.1848 10.1848 10.1848 10.1848 9.86552 9.86552 9.86552 9.86552 9.90726 9.90726 9.90726 9.90726 9.65129 9.65129 9.65129 9.65129 3.3343 3.3343 3.3343 3.3343 8.89836 8.89836 8.89836 8.89836 9.60525 9.60525 9.60525 9.60525 9.40184 9.40184 9.40184 9.40184 9.49382 9.49382 9.49382 9.49382 9.59791 9.59791 9.59791 9.59791 9.80709 9.80709 9.80709 9.80709 9.76395 9.76395 9.76395 9.76395 11.1789 11.1789 11.1789 11.1789 9.73451 9.73451 9.73451 9.73451 9.40232 9.40232 9.40232 9.40232 9.83235 9.83235 9.83235 9.83235 9.52919 9.52919 9.52919 9.52919 9.90813 9.90813 9.90813 9.90813 11.1876 11.1876 11.1876 11.1876 3.33969 3.33969 3.33969 3.33969 9.5607 9.5607 9.5607 9.5607 9.68406 9.68406 9.68406 9.68406 9.33725 9.33725 9.33725 9.33725 9.32997 9.32997 9.32997 9.32997 9.84512 9.84512 9.84512 9.84512 9.65057 9.65057 9.65057 9.65057 9.57121 9.57121 9.57121 9.57121 7.95418 7.95418 7.95418 7.95418 9.32737 9.32737 9.32737 9.32737 9.76145 9.76145 9.76145 9.76145 9.48992 9.48992 9.48992 9.48992 9.85637 9.85637 9.85637 9.85637 9.63922 9.63922 9.63922 9.63922 7.69929 7.69929 7.69929 7.69929 10.5608 10.5608 10.5608 10.5608 11.1239 11.1239 11.1239 11.1239 9.46706 9.46706 9.46706 9.46706 9.5588 9.5588 9.5588 9.5588 9.66183 9.66183 9.66183 9.66183 9.59703 9.59703 9.59703 9.59703 9.16996 9.16996 9.16996 9.16996 9.81729 9.81729 9.81729 9.81729 9.6815 9.6815 9.6815 9.6815 9.73595 9.73595 9.73595 9.73595 9.83204 9.83204 9.83204 9.83204 6.24747 6.24747 6.24747 6.24747 9.96944 9.96944 9.96944 9.96944 10.3923 10.3923 10.3923 10.3923 9.7879 9.7879 9.7879 9.7879 9.60442 9.60442 9.60442 9.60442 9.40055 9.40055 9.40055 9.40055 9.71938 9.71938 9.71938 9.71938 9.60956 9.60956 9.60956 9.60956 9.91715 9.91715 9.91715 9.91715 6.26768 6.26768 6.26768 6.26768 11.5493 11.5493 11.5493 11.5493 9.60784 9.60784 9.60784 9.60784 9.96907 9.96907 9.96907 9.96907 10.0663 10.0663 10.0663 10.0663 9.54869 9.54869 9.54869 9.54869 9.83852 9.83852 9.83852 9.83852 9.68515 9.68515 9.68515 9.68515 9.7471 9.7471 9.7471 9.7471 9.87146 9.87146 9.87146 9.87146 9.61 9.61 9.61 9.61 9.74101 9.74101 9.74101 9.74101 9.37332 9.37332 9.37332 9.37332 9.70385 9.70385 9.70385 9.70385 9.65731 9.65731 9.65731 9.65731 9.69997 9.69997 9.69997 9.69997 9.6678 9.6678 9.6678 9.6678 10.1746 10.1746 10.1746 10.1746 9.40426 9.40426 9.40426 9.40426 2.72711 2.72711 2.72711 2.72711 9.24744 9.24744 9.24744 9.24744 9.52967 9.52967 9.52967 9.52967 9.61054 9.61054 9.61054 9.61054 9.74847 9.74847 9.74847 9.74847 2.82605 2.82605 2.82605 2.82605 6.93919 6.93919 6.93919 6.93919 9.65452 9.65452 9.65452 9.65452 9.20425 9.20425 9.20425 9.20425 9.53103 9.53103 9.53103 9.53103 9.70687 9.70687 9.70687 9.70687 9.06285 9.06285 9.06285 9.06285 9.54278 9.54278 9.54278 9.54278 9.65375 9.65375 9.65375 9.65375 9.58935 9.58935 9.58935 9.58935 9.62501 9.62501 9.62501 9.62501 9.72641 9.72641 9.72641 9.72641 9.65962 9.65962 9.65962 9.65962 9.68394 9.68394 9.68394 9.68394 9.79769 9.79769 9.79769 9.79769 11.6405 11.6405 11.6405 11.6405 10.3846 10.3846 10.3846 10.3846 9.79559 9.79559 9.79559 9.79559 9.70769 9.70769 9.70769 9.70769 8.08322 8.08322 8.08322 8.08322 9.62066 9.62066 9.62066 9.62066 9.75574 9.75574 9.75574 9.75574 10.0669 10.0669 10.0669 10.0669 9.50378 9.50378 9.50378 9.50378 11.0453 11.0453 11.0453 11.0453 8.2015 8.2015 8.2015 8.2015 9.83868 9.83868 9.83868 9.83868 9.66885 9.66885 9.66885 9.66885 12.6725 12.6725 12.6725 12.6725 9.79763 9.79763 9.79763 9.79763 9.96491 9.96491 9.96491 9.96491 9.56188 9.56188 9.56188 9.56188 9.61798 9.61798 9.61798 9.61798 9.91672 9.91672 9.91672 9.91672 9.74856 9.74856 9.74856 9.74856 9.73271 9.73271 9.73271 9.73271 9.45743 9.45743 9.45743 9.45743 9.6008 9.6008 9.6008 9.6008 9.89128 9.89128 9.89128 9.89128 9.92342 9.92342 9.92342 9.92342 9.88662 9.88662 9.88662 9.88662 10.7908 10.7908 10.7908 10.7908 9.53331 9.53331 9.53331 9.53331 9.21161 9.21161 9.21161 9.21161 9.68591 9.68591 9.68591 9.68591 9.86622 9.86622 9.86622 9.86622 9.68968 9.68968 9.68968 9.68968 9.44007 9.44007 9.44007 9.44007 9.70577 9.70577 9.70577 9.70577 9.54451 9.54451 9.54451 9.54451 9.73849 9.73849 9.73849 9.73849 9.69433 9.69433 9.69433 9.69433 9.53156 9.53156 9.53156 9.53156 9.67196 9.67196 9.67196 9.67196 9.86654 9.86654 9.86654 9.86654 9.87544 9.87544 9.87544 9.87544 9.86164 9.86164 9.86164 9.86164 9.80399 9.80399 9.80399 9.80399 9.60531 9.60531 9.60531 9.60531 9.70059 9.70059 9.70059 9.70059 9.86123 9.86123 9.86123 9.86123 9.51654 9.51654 9.51654 9.51654 9.45587 9.45587 9.45587 9.45587 9.49013 9.49013 9.49013 9.49013 9.637 9.637 9.637 9.637 12.7449 12.7449 12.7449 12.7449 9.70502 9.70502 9.70502 9.70502 9.4451 9.4451 9.4451 9.4451 8.86921 8.86921 8.86921 8.86921 8.9512 8.9512 8.9512 8.9512 7.44431 7.44431 7.44431 7.44431 9.56276 9.56276 9.56276 9.56276 10.1479 10.1479 10.1479 10.1479 9.81628 9.81628 9.81628 9.81628 9.69096 9.69096 9.69096 9.69096 9.9126 9.9126 9.9126 9.9126 9.79472 9.79472 9.79472 9.79472 11.2956 11.2956 11.2956 11.2956 9.73373 9.73373 9.73373 9.73373 9.96011 9.96011 9.96011 9.96011 9.59914 9.59914 9.59914 9.59914 13.0153 13.0153 13.0153 13.0153 9.61894 9.61894 9.61894 9.61894 9.78954 9.78954 9.78954 9.78954 10.7018 10.7018 10.7018 10.7018 9.85523 9.85523 9.85523 9.85523 10.0134 10.0134 10.0134 10.0134 10.878 10.878 10.878 10.878 9.50467 9.50467 9.50467 9.50467 9.70009 9.70009 9.70009 9.70009 9.66282 9.66282 9.66282 9.66282 9.81856 9.81856 9.81856 9.81856 9.58934 9.58934 9.58934 9.58934 9.64097 9.64097 9.64097 9.64097 4.83804 4.83804 4.83804 4.83804 9.58872 9.58872 9.58872 9.58872 9.85686 9.85686 9.85686 9.85686 9.8463 9.8463 9.8463 9.8463 9.96579 9.96579 9.96579 9.96579 9.97388 9.97388 9.97388 9.97388 9.42212 9.42212 9.42212 9.42212 9.884 9.884 9.884 9.884 9.60964 9.60964 9.60964 9.60964 9.85944 9.85944 9.85944 9.85944 6.90596 6.90596 6.90596 6.90596 9.59791 9.59791 9.59791 9.59791 10.1983 10.1983 10.1983 10.1983 9.91246 9.91246 9.91246 9.91246 9.20557 9.20557 9.20557 9.20557 9.71175 9.71175 9.71175 9.71175 9.73551 9.73551 9.73551 9.73551 9.2364 9.2364 9.2364 9.2364 9.75838 9.75838 9.75838 9.75838 9.76417 9.76417 9.76417 9.76417 9.78673 9.78673 9.78673 9.78673 9.66229 9.66229 9.66229 9.66229 9.71765 9.71765 9.71765 9.71765 9.7319 9.7319 9.7319 9.7319 11.0853 11.0853 11.0853 11.0853 9.87106 9.87106 9.87106 9.87106 9.86865 9.86865 9.86865 9.86865 9.68563 9.68563 9.68563 9.68563 9.71326 9.71326 9.71326 9.71326 9.51497 9.51497 9.51497 9.51497 9.91854 9.91854 9.91854 9.91854 9.82278 9.82278 9.82278 9.82278 9.714 9.714 9.714 9.714 9.54689 9.54689 9.54689 9.54689 9.71751 9.71751 9.71751 9.71751 9.83929 9.83929 9.83929 9.83929 9.90595 9.90595 9.90595 9.90595 9.74649 9.74649 9.74649 9.74649 9.7456 9.7456 9.7456 9.7456 9.67166 9.67166 9.67166 9.67166 9.83703 9.83703 9.83703 9.83703 10.7938 10.7938 10.7938 10.7938 9.6024 9.6024 9.6024 9.6024 9.92914 9.92914 9.92914 9.92914 9.6387 9.6387 9.6387 9.6387 9.9693 9.9693 9.9693 9.9693 9.72419 9.72419 9.72419 9.72419 9.92432 9.92432 9.92432 9.92432 9.70366 9.70366 9.70366 9.70366 9.9045 9.9045 9.9045 9.9045 9.32624 9.32624 9.32624 9.32624 11.7941 11.7941 11.7941 11.7941 9.91344 9.91344 9.91344 9.91344 4.63568 4.63568 4.63568 4.63568 9.96931 9.96931 9.96931 9.96931 9.79087 9.79087 9.79087 9.79087 9.82374 9.82374 9.82374 9.82374 9.89429 9.89429 9.89429 9.89429 9.68354 9.68354 9.68354 9.68354 9.7477 9.7477 9.7477 9.7477 4.15587 4.15587 4.15587 4.15587 9.66997 9.66997 9.66997 9.66997 2.97905 2.97905 2.97905 2.97905 9.96664 9.96664 9.96664 9.96664 9.72214 9.72214 9.72214 9.72214 9.96393 9.96393 9.96393 9.96393 9.53357 9.53357 9.53357 9.53357 9.53639 9.53639 9.53639 9.53639 9.47719 9.47719 9.47719 9.47719 9.80468 9.80468 9.80468 9.80468 9.91714 9.91714 9.91714 9.91714 9.85113 9.85113 9.85113 9.85113 9.90954 9.90954 9.90954 9.90954 10.5618 10.5618 10.5618 10.5618 9.62732 9.62732 9.62732 9.62732 9.96373 9.96373 9.96373 9.96373 13.4628 13.4628 13.4628 13.4628 10.9774 10.9774 10.9774 10.9774 9.11388 9.11388 9.11388 9.11388 9.89723 9.89723 9.89723 9.89723 10.4545 10.4545 10.4545 10.4545 9.64501 9.64501 9.64501 9.64501 9.54842 9.54842 9.54842 9.54842 9.86333 9.86333 9.86333 9.86333 11.2542 11.2542 11.2542 11.2542 9.74195 9.74195 9.74195 9.74195 9.64186 9.64186 9.64186 9.64186 3.39739 3.39739 3.39739 3.39739 12.4286 12.4286 12.4286 12.4286 9.84754 9.84754 9.84754 9.84754 8.54431 8.54431 8.54431 8.54431 9.66455 9.66455 9.66455 9.66455 9.37413 9.37413 9.37413 9.37413 9.62861 9.62861 9.62861 9.62861 9.74139 9.74139 9.74139 9.74139 9.72207 9.72207 9.72207 9.72207 9.83857 9.83857 9.83857 9.83857 9.63641 9.63641 9.63641 9.63641 4.25598 4.25598 4.25598 4.25598 10.1491 10.1491 10.1491 10.1491 9.78374 9.78374 9.78374 9.78374 9.71811 9.71811 9.71811 9.71811 9.33253 9.33253 9.33253 9.33253 9.55826 9.55826 9.55826 9.55826 9.67467 9.67467 9.67467 9.67467 9.90649 9.90649 9.90649 9.90649 9.34843 9.34843 9.34843 9.34843 9.15344 9.15344 9.15344 9.15344 9.60148 9.60148 9.60148 9.60148 9.7284 9.7284 9.7284 9.7284 11.9038 11.9038 11.9038 11.9038 8.02933 8.02933 8.02933 8.02933 9.86155 9.86155 9.86155 9.86155 10.1599 10.1599 10.1599 10.1599 9.38831 9.38831 9.38831 9.38831 9.50338 9.50338 9.50338 9.50338 9.71316 9.71316 9.71316 9.71316 9.74331 9.74331 9.74331 9.74331 9.73137 9.73137 9.73137 9.73137 9.49339 9.49339 9.49339 9.49339 11.7883 11.7883 11.7883 11.7883 10.8661 10.8661 10.8661 10.8661 9.4629 9.4629 9.4629 9.4629 9.89732 9.89732 9.89732 9.89732 9.99365 9.99365 9.99365 9.99365 9.34365 9.34365 9.34365 9.34365 9.78731 9.78731 9.78731 9.78731 9.61373 9.61373 9.61373 9.61373 9.62606 9.62606 9.62606 9.62606 9.6731 9.6731 9.6731 9.6731 10.9268 10.9268 10.9268 10.9268 6.178 6.178 6.178 6.178 9.97014 9.97014 9.97014 9.97014 9.61236 9.61236 9.61236 9.61236 9.37307 9.37307 9.37307 9.37307 9.22178 9.22178 9.22178 9.22178 9.41651 9.41651 9.41651 9.41651 9.84679 9.84679 9.84679 9.84679 8.26423 8.26423 8.26423 8.26423 9.50141 9.50141 9.50141 9.50141 9.63566 9.63566 9.63566 9.63566 5.43489 5.43489 5.43489 5.43489 9.71131 9.71131 9.71131 9.71131 9.31738 9.31738 9.31738 9.31738 9.57802 9.57802 9.57802 9.57802 10.5672 10.5672 10.5672 10.5672 13.2014 13.2014 13.2014 13.2014 9.77315 9.77315 9.77315 9.77315 10.5639 10.5639 10.5639 10.5639 10.0487 10.0487 10.0487 10.0487 9.71 9.71 9.71 9.71 10.9168 10.9168 10.9168 10.9168 13.0078 13.0078 13.0078 13.0078 9.56653 9.56653 9.56653 9.56653 9.92086 9.92086 9.92086 9.92086 6.35678 6.35678 6.35678 6.35678 9.69231 9.69231 9.69231 9.69231 9.79455 9.79455 9.79455 9.79455 9.75519 9.75519 9.75519 9.75519 9.90497 9.90497 9.90497 9.90497 7.64335 7.64335 7.64335 7.64335 9.71735 9.71735 9.71735 9.71735 9.90895 9.90895 9.90895 9.90895 9.08286 9.08286 9.08286 9.08286 10.1421 10.1421 10.1421 10.1421 8.04912 8.04912 8.04912 8.04912 9.18727 9.18727 9.18727 9.18727 9.46331 9.46331 9.46331 9.46331 9.87817 9.87817 9.87817 9.87817 9.60687 9.60687 9.60687 9.60687 9.51144 9.51144 9.51144 9.51144 9.7008 9.7008 9.7008 9.7008 9.96364 9.96364 9.96364 9.96364 10.981 10.981 10.981 10.981 9.32098 9.32098 9.32098 9.32098 10.3777 10.3777 10.3777 10.3777 9.67653 9.67653 9.67653 9.67653 9.41889 9.41889 9.41889 9.41889 9.60653 9.60653 9.60653 9.60653 9.52439 9.52439 9.52439 9.52439 9.88689 9.88689 9.88689 9.88689 10.194 10.194 10.194 10.194 9.54445 9.54445 9.54445 9.54445 9.91765 9.91765 9.91765 9.91765 9.58819 9.58819 9.58819 9.58819 2.47989 2.47989 2.47989 2.47989 9.62966 9.62966 9.62966 9.62966 9.69419 9.69419 9.69419 9.69419 9.90059 9.90059 9.90059 9.90059 9.51123 9.51123 9.51123 9.51123 9.79877 9.79877 9.79877 9.79877 9.88084 9.88084 9.88084 9.88084 9.96171 9.96171 9.96171 9.96171 9.54245 9.54245 9.54245 9.54245 10.2088 10.2088 10.2088 10.2088 9.60246 9.60246 9.60246 9.60246 9.78862 9.78862 9.78862 9.78862 9.51862 9.51862 9.51862 9.51862 9.95984 9.95984 9.95984 9.95984 9.73827 9.73827 9.73827 9.73827 9.93095 9.93095 9.93095 9.93095 9.60596 9.60596 9.60596 9.60596 6.68088 6.68088 6.68088 6.68088 9.38754 9.38754 9.38754 9.38754 6.31185 6.31185 6.31185 6.31185 8.33403 8.33403 8.33403 8.33403 9.75854 9.75854 9.75854 9.75854 9.72822 9.72822 9.72822 9.72822 9.92573 9.92573 9.92573 9.92573 8.28129 8.28129 8.28129 8.28129 9.95159 9.95159 9.95159 9.95159 8.82181 8.82181 8.82181 8.82181 10.3537 10.3537 10.3537 10.3537 9.90665 9.90665 9.90665 9.90665 9.73097 9.73097 9.73097 9.73097 6.21265 6.21265 6.21265 6.21265 9.87472 9.87472 9.87472 9.87472 9.71868 9.71868 9.71868 9.71868 9.84352 9.84352 9.84352 9.84352 11.4022 11.4022 11.4022 11.4022 6.42565 6.42565 6.42565 6.42565 9.85526 9.85526 9.85526 9.85526 9.67551 9.67551 9.67551 9.67551 9.80232 9.80232 9.80232 9.80232 9.92397 9.92397 9.92397 9.92397 9.50545 9.50545 9.50545 9.50545 9.59504 9.59504 9.59504 9.59504 10.9481 10.9481 10.9481 10.9481 9.671 9.671 9.671 9.671 9.85068 9.85068 9.85068 9.85068 9.70614 9.70614 9.70614 9.70614 8.14068 8.14068 8.14068 8.14068 9.83404 9.83404 9.83404 9.83404 9.74819 9.74819 9.74819 9.74819 12.16 12.16 12.16 12.16 10.088 10.088 10.088 10.088 11.681 11.681 11.681 11.681 9.95955 9.95955 9.95955 9.95955 9.51715 9.51715 9.51715 9.51715 9.47565 9.47565 9.47565 9.47565 9.71665 9.71665 9.71665 9.71665 10.8242 10.8242 10.8242 10.8242 10.4742 10.4742 10.4742 10.4742 9.96338 9.96338 9.96338 9.96338 9.60517 9.60517 9.60517 9.60517 11.0614 11.0614 11.0614 11.0614 9.70733 9.70733 9.70733 9.70733 9.58083 9.58083 9.58083 9.58083 9.69476 9.69476 9.69476 9.69476 9.32868 9.32868 9.32868 9.32868 9.86606 9.86606 9.86606 9.86606 9.63949 9.63949 9.63949 9.63949 10.2067 10.2067 10.2067 10.2067 9.84064 9.84064 9.84064 9.84064 9.59177 9.59177 9.59177 9.59177 9.55078 9.55078 9.55078 9.55078 9.8771 9.8771 9.8771 9.8771 9.888 9.888 9.888 9.888 9.56822 9.56822 9.56822 9.56822 9.67277 9.67277 9.67277 9.67277 9.62085 9.62085 9.62085 9.62085 9.51965 9.51965 9.51965 9.51965 12.3026 12.3026 12.3026 12.3026 9.71994 9.71994 9.71994 9.71994 11.3014 11.3014 11.3014 11.3014 9.60864 9.60864 9.60864 9.60864 8.65001 8.65001 8.65001 8.65001 9.71838 9.71838 9.71838 9.71838 9.86191 9.86191 9.86191 9.86191 9.75234 9.75234 9.75234 9.75234 9.56984 9.56984 9.56984 9.56984 8.81654 8.81654 8.81654 8.81654 9.45372 9.45372 9.45372 9.45372 9.7712 9.7712 9.7712 9.7712 3.21448 3.21448 3.21448 3.21448 8.9363 8.9363 8.9363 8.9363 9.63912 9.63912 9.63912 9.63912 9.60399 9.60399 9.60399 9.60399 9.95961 9.95961 9.95961 9.95961 11.7389 11.7389 11.7389 11.7389 9.92267 9.92267 9.92267 9.92267 9.26213 9.26213 9.26213 9.26213 9.31994 9.31994 9.31994 9.31994 9.96309 9.96309 9.96309 9.96309 10.0623 10.0623 10.0623 10.0623 9.68496 9.68496 9.68496 9.68496 9.30415 9.30415 9.30415 9.30415 9.56074 9.56074 9.56074 9.56074 9.91731 9.91731 9.91731 9.91731 9.8506 9.8506 9.8506 9.8506 10.5046 10.5046 10.5046 10.5046 9.75523 9.75523 9.75523 9.75523 10.9857 10.9857 10.9857 10.9857 9.65936 9.65936 9.65936 9.65936 9.60161 9.60161 9.60161 9.60161 9.95984 9.95984 9.95984 9.95984 9.61244 9.61244 9.61244 9.61244 13.2814 13.2814 13.2814 13.2814 10.5708 10.5708 10.5708 10.5708 10.308 10.308 10.308 10.308 9.68126 9.68126 9.68126 9.68126 9.53582 9.53582 9.53582 9.53582 9.57444 9.57444 9.57444 9.57444 9.72482 9.72482 9.72482 9.72482 8.12794 8.12794 8.12794 8.12794 8.79908 8.79908 8.79908 8.79908 11.2403 11.2403 11.2403 11.2403 9.90681 9.90681 9.90681 9.90681 9.3936 9.3936 9.3936 9.3936 10.8136 10.8136 10.8136 10.8136 8.8218 8.8218 8.8218 8.8218 4.44548 4.44548 4.44548 4.44548 9.75393 9.75393 9.75393 9.75393 9.68915 9.68915 9.68915 9.68915 9.48346 9.48346 9.48346 9.48346 9.96731 9.96731 9.96731 9.96731 9.5562 9.5562 9.5562 9.5562 9.4589 9.4589 9.4589 9.4589 9.47646 9.47646 9.47646 9.47646 7.45242 7.45242 7.45242 7.45242 9.96109 9.96109 9.96109 9.96109 9.80063 9.80063 9.80063 9.80063 9.66091 9.66091 9.66091 9.66091 9.78906 9.78906 9.78906 9.78906 8.65811 8.65811 8.65811 8.65811 9.58802 9.58802 9.58802 9.58802 9.78922 9.78922 9.78922 9.78922 9.90965 9.90965 9.90965 9.90965 9.69122 9.69122 9.69122 9.69122 9.80716 9.80716 9.80716 9.80716 8.68328 8.68328 8.68328 8.68328 9.68011 9.68011 9.68011 9.68011 9.75884 9.75884 9.75884 9.75884 9.60016 9.60016 9.60016 9.60016 9.72892 9.72892 9.72892 9.72892 8.95517 8.95517 8.95517 8.95517 8.60787 8.60787 8.60787 8.60787 9.50907 9.50907 9.50907 9.50907 9.51231 9.51231 9.51231 9.51231 9.50317 9.50317 9.50317 9.50317 9.84682 9.84682 9.84682 9.84682 9.74483 9.74483 9.74483 9.74483 10.6988 10.6988 10.6988 10.6988 9.84497 9.84497 9.84497 9.84497 5.66384 5.66384 5.66384 5.66384 9.68871 9.68871 9.68871 9.68871 9.88122 9.88122 9.88122 9.88122 5.64223 5.64223 5.64223 5.64223 9.34927 9.34927 9.34927 9.34927 9.72516 9.72516 9.72516 9.72516 10.6949 10.6949 10.6949 10.6949 9.87798 9.87798 9.87798 9.87798 9.71023 9.71023 9.71023 9.71023 9.55307 9.55307 9.55307 9.55307 9.32143 9.32143 9.32143 9.32143 9.88304 9.88304 9.88304 9.88304 9.56895 9.56895 9.56895 9.56895 9.80852 9.80852 9.80852 9.80852 9.64265 9.64265 9.64265 9.64265 9.73307 9.73307 9.73307 9.73307 9.69565 9.69565 9.69565 9.69565 9.74649 9.74649 9.74649 9.74649 9.54603 9.54603 9.54603 9.54603 9.77363 9.77363 9.77363 9.77363 9.58473 9.58473 9.58473 9.58473 12.8957 12.8957 12.8957 12.8957 9.54828 9.54828 9.54828 9.54828 10.4695 10.4695 10.4695 10.4695 10.8706 10.8706 10.8706 10.8706 9.89753 9.89753 9.89753 9.89753 9.6454 9.6454 9.6454 9.6454 9.57595 9.57595 9.57595 9.57595 10.1266 10.1266 10.1266 10.1266 9.842 9.842 9.842 9.842 9.5988 9.5988 9.5988 9.5988 9.50965 9.50965 9.50965 9.50965 9.36077 9.36077 9.36077 9.36077 10.8391 10.8391 10.8391 10.8391 9.85723 9.85723 9.85723 9.85723 10.8103 10.8103 10.8103 10.8103 11.9227 11.9227 11.9227 11.9227 9.87343 9.87343 9.87343 9.87343 7.84133 7.84133 7.84133 7.84133 9.84906 9.84906 9.84906 9.84906 9.76049 9.76049 9.76049 9.76049 9.84596 9.84596 9.84596 9.84596 9.76199 9.76199 9.76199 9.76199 9.6414 9.6414 9.6414 9.6414 8.07139 8.07139 8.07139 8.07139 9.59371 9.59371 9.59371 9.59371 9.67183 9.67183 9.67183 9.67183 9.65411 9.65411 9.65411 9.65411 9.68556 9.68556 9.68556 9.68556 9.50627 9.50627 9.50627 9.50627 9.82397 9.82397 9.82397 9.82397 10.3133 10.3133 10.3133 10.3133 9.77307 9.77307 9.77307 9.77307 9.87846 9.87846 9.87846 9.87846 9.6165 9.6165 9.6165 9.6165 9.6193 9.6193 9.6193 9.6193 12.1172 12.1172 12.1172 12.1172 9.40544 9.40544 9.40544 9.40544 3.45753 3.45753 3.45753 3.45753 9.70228 9.70228 9.70228 9.70228 9.5259 9.5259 9.5259 9.5259 9.57651 9.57651 9.57651 9.57651 9.62416 9.62416 9.62416 9.62416 9.46963 9.46963 9.46963 9.46963 11.0997 11.0997 11.0997 11.0997 9.45876 9.45876 9.45876 9.45876 11.8996 11.8996 11.8996 11.8996 9.91407 9.91407 9.91407 9.91407 9.7434 9.7434 9.7434 9.7434 9.59794 9.59794 9.59794 9.59794 9.55036 9.55036 9.55036 9.55036 9.99151 9.99151 9.99151 9.99151 6.80367 6.80367 6.80367 6.80367 9.23663 9.23663 9.23663 9.23663 9.64227 9.64227 9.64227 9.64227 9.73515 9.73515 9.73515 9.73515 9.74915 9.74915 9.74915 9.74915 9.96285 9.96285 9.96285 9.96285 8.66207 8.66207 8.66207 8.66207 9.71157 9.71157 9.71157 9.71157 9.69398 9.69398 9.69398 9.69398 9.55377 9.55377 9.55377 9.55377 9.69129 9.69129 9.69129 9.69129 7.76445 7.76445 7.76445 7.76445 9.33117 9.33117 9.33117 9.33117 9.42847 9.42847 9.42847 9.42847 9.92425 9.92425 9.92425 9.92425 2.75204 2.75204 2.75204 2.75204 9.64997 9.64997 9.64997 9.64997 9.92752 9.92752 9.92752 9.92752 9.53441 9.53441 9.53441 9.53441 9.84836 9.84836 9.84836 9.84836 9.78659 9.78659 9.78659 9.78659 5.21152 5.21152 5.21152 5.21152 9.78912 9.78912 9.78912 9.78912 9.17515 9.17515 9.17515 9.17515 9.88904 9.88904 9.88904 9.88904 9.92162 9.92162 9.92162 9.92162 9.73688 9.73688 9.73688 9.73688 11.3311 11.3311 11.3311 11.3311 9.59595 9.59595 9.59595 9.59595 9.41502 9.41502 9.41502 9.41502 11.4609 11.4609 11.4609 11.4609 9.46462 9.46462 9.46462 9.46462 9.72717 9.72717 9.72717 9.72717 9.78979 9.78979 9.78979 9.78979 9.71601 9.71601 9.71601 9.71601 9.64505 9.64505 9.64505 9.64505 10.477 10.477 10.477 10.477 9.96742 9.96742 9.96742 9.96742 9.91944 9.91944 9.91944 9.91944 9.7107 9.7107 9.7107 9.7107 9.4023 9.4023 9.4023 9.4023 9.8826 9.8826 9.8826 9.8826 9.66223 9.66223 9.66223 9.66223 8.95829 8.95829 8.95829 8.95829 9.81859 9.81859 9.81859 9.81859 9.80013 9.80013 9.80013 9.80013 9.62464 9.62464 9.62464 9.62464 9.44915 9.44915 9.44915 9.44915 9.7304 9.7304 9.7304 9.7304 9.53162 9.53162 9.53162 9.53162 9.89203 9.89203 9.89203 9.89203 9.64698 9.64698 9.64698 9.64698 9.90659 9.90659 9.90659 9.90659 9.5779 9.5779 9.5779 9.5779 11.527 11.527 11.527 11.527 9.58386 9.58386 9.58386 9.58386 9.89311 9.89311 9.89311 9.89311 9.59083 9.59083 9.59083 9.59083 9.97318 9.97318 9.97318 9.97318 9.91707 9.91707 9.91707 9.91707 9.7217 9.7217 9.7217 9.7217 9.96891 9.96891 9.96891 9.96891 10.405 10.405 10.405 10.405 9.87504 9.87504 9.87504 9.87504 9.72738 9.72738 9.72738 9.72738 9.8919 9.8919 9.8919 9.8919 9.87573 9.87573 9.87573 9.87573 10.8398 10.8398 10.8398 10.8398 9.78429 9.78429 9.78429 9.78429 12.5996 12.5996 12.5996 12.5996 9.79588 9.79588 9.79588 9.79588 9.73892 9.73892 9.73892 9.73892 11.7192 11.7192 11.7192 11.7192 9.88477 9.88477 9.88477 9.88477 9.90721 9.90721 9.90721 9.90721 8.07766 8.07766 8.07766 8.07766 9.60764 9.60764 9.60764 9.60764 9.68833 9.68833 9.68833 9.68833 9.65518 9.65518 9.65518 9.65518 9.82838 9.82838 9.82838 9.82838 12.3596 12.3596 12.3596 12.3596 9.70792 9.70792 9.70792 9.70792 9.55295 9.55295 9.55295 9.55295 9.74328 9.74328 9.74328 9.74328 9.80876 9.80876 9.80876 9.80876 9.92074 9.92074 9.92074 9.92074 3.69961 3.69961 3.69961 3.69961 10.5988 10.5988 10.5988 10.5988 9.92464 9.92464 9.92464 9.92464 9.80005 9.80005 9.80005 9.80005 9.6911 9.6911 9.6911 9.6911 9.64992 9.64992 9.64992 9.64992 5.83504 5.83504 5.83504 5.83504 9.53005 9.53005 9.53005 9.53005 9.59338 9.59338 9.59338 9.59338 9.96298 9.96298 9.96298 9.96298 9.56951 9.56951 9.56951 9.56951 9.59668 9.59668 9.59668 9.59668 11.1771 11.1771 11.1771 11.1771 9.64953 9.64953 9.64953 9.64953 9.63383 9.63383 9.63383 9.63383 9.54231 9.54231 9.54231 9.54231 9.92812 9.92812 9.92812 9.92812 9.9321 9.9321 9.9321 9.9321 9.54829 9.54829 9.54829 9.54829 11.8827 11.8827 11.8827 11.8827 9.96955 9.96955 9.96955 9.96955 4.50407 4.50407 4.50407 4.50407 9.32558 9.32558 9.32558 9.32558 12.0438 12.0438 12.0438 12.0438 9.57692 9.57692 9.57692 9.57692 9.87313 9.87313 9.87313 9.87313 9.68487 9.68487 9.68487 9.68487 9.803 9.803 9.803 9.803 9.92413 9.92413 9.92413 9.92413 9.76299 9.76299 9.76299 9.76299 9.34648 9.34648 9.34648 9.34648 9.44168 9.44168 9.44168 9.44168 9.96472 9.96472 9.96472 9.96472 9.23495 9.23495 9.23495 9.23495 9.83282 9.83282 9.83282 9.83282 10.1458 10.1458 10.1458 10.1458 9.89948 9.89948 9.89948 9.89948 9.9265 9.9265 9.9265 9.9265 9.62086 9.62086 9.62086 9.62086 9.61503 9.61503 9.61503 9.61503 9.62976 9.62976 9.62976 9.62976 8.60146 8.60146 8.60146 8.60146 9.78226 9.78226 9.78226 9.78226 9.59689 9.59689 9.59689 9.59689 9.6017 9.6017 9.6017 9.6017 9.8106 9.8106 9.8106 9.8106 8.8563 8.8563 8.8563 8.8563 9.87715 9.87715 9.87715 9.87715 9.81101 9.81101 9.81101 9.81101 9.83065 9.83065 9.83065 9.83065 9.44309 9.44309 9.44309 9.44309 9.79717 9.79717 9.79717 9.79717 9.77107 9.77107 9.77107 9.77107 9.82914 9.82914 9.82914 9.82914 9.18531 9.18531 9.18531 9.18531 9.67256 9.67256 9.67256 9.67256 8.64159 8.64159 8.64159 8.64159 7.76042 7.76042 7.76042 7.76042 9.73266 9.73266 9.73266 9.73266 10.6853 10.6853 10.6853 10.6853 9.74413 9.74413 9.74413 9.74413 11.7075 11.7075 11.7075 11.7075 9.61977 9.61977 9.61977 9.61977 9.54831 9.54831 9.54831 9.54831 9.63007 9.63007 9.63007 9.63007 10.2785 10.2785 10.2785 10.2785 7.4601 7.4601 7.4601 7.4601 9.36811 9.36811 9.36811 9.36811 9.55353 9.55353 9.55353 9.55353 9.88511 9.88511 9.88511 9.88511 9.29862 9.29862 9.29862 9.29862 9.71317 9.71317 9.71317 9.71317 9.92269 9.92269 9.92269 9.92269 8.42025 8.42025 8.42025 8.42025 9.92463 9.92463 9.92463 9.92463 9.54577 9.54577 9.54577 9.54577 9.53566 9.53566 9.53566 9.53566 9.25245 9.25245 9.25245 9.25245 9.57079 9.57079 9.57079 9.57079 5.28853 5.28853 5.28853 5.28853 9.79337 9.79337 9.79337 9.79337 9.9714 9.9714 9.9714 9.9714 9.55851 9.55851 9.55851 9.55851 9.6701 9.6701 9.6701 9.6701 5.03433 5.03433 5.03433 5.03433 9.67663 9.67663 9.67663 9.67663 5.24048 5.24048 5.24048 5.24048 9.57247 9.57247 9.57247 9.57247 9.50591 9.50591 9.50591 9.50591 9.78505 9.78505 9.78505 9.78505 11.6496 11.6496 11.6496 11.6496 11.155 11.155 11.155 11.155 10.5575 10.5575 10.5575 10.5575 10.1402 10.1402 10.1402 10.1402 9.6916 9.6916 9.6916 9.6916 9.61221 9.61221 9.61221 9.61221 9.85443 9.85443 9.85443 9.85443 9.45413 9.45413 9.45413 9.45413 11.2738 11.2738 11.2738 11.2738 9.5516 9.5516 9.5516 9.5516 9.54401 9.54401 9.54401 9.54401 9.68141 9.68141 9.68141 9.68141 9.3169 9.3169 9.3169 9.3169 9.60309 9.60309 9.60309 9.60309 11.7886 11.7886 11.7886 11.7886 9.61888 9.61888 9.61888 9.61888 9.98875 9.98875 9.98875 9.98875 9.68928 9.68928 9.68928 9.68928 9.84008 9.84008 9.84008 9.84008 9.69525 9.69525 9.69525 9.69525 9.38723 9.38723 9.38723 9.38723 9.62263 9.62263 9.62263 9.62263 9.72817 9.72817 9.72817 9.72817 9.80558 9.80558 9.80558 9.80558 9.8185 9.8185 9.8185 9.8185 9.88716 9.88716 9.88716 9.88716 9.87316 9.87316 9.87316 9.87316 9.87476 9.87476 9.87476 9.87476 9.33246 9.33246 9.33246 9.33246 9.51071 9.51071 9.51071 9.51071 9.86332 9.86332 9.86332 9.86332 12.3637 12.3637 12.3637 12.3637 9.92573 9.92573 9.92573 9.92573 3.1275 3.1275 3.1275 3.1275 11.2995 11.2995 11.2995 11.2995 9.65654 9.65654 9.65654 9.65654 9.73234 9.73234 9.73234 9.73234 9.23196 9.23196 9.23196 9.23196 2.85809 2.85809 2.85809 2.85809 9.88083 9.88083 9.88083 9.88083 5.41844 5.41844 5.41844 5.41844 11.6818 11.6818 11.6818 11.6818 3.18589 3.18589 3.18589 3.18589 9.72864 9.72864 9.72864 9.72864 9.07435 9.07435 9.07435 9.07435 11.2992 11.2992 11.2992 11.2992 9.67984 9.67984 9.67984 9.67984 9.44311 9.44311 9.44311 9.44311 9.52434 9.52434 9.52434 9.52434 9.72198 9.72198 9.72198 9.72198 9.57971 9.57971 9.57971 9.57971 9.59995 9.59995 9.59995 9.59995 9.71284 9.71284 9.71284 9.71284 9.39493 9.39493 9.39493 9.39493 10.3773 10.3773 10.3773 10.3773 9.89139 9.89139 9.89139 9.89139 10.5817 10.5817 10.5817 10.5817 9.74607 9.74607 9.74607 9.74607 11.3807 11.3807 11.3807 11.3807 9.71453 9.71453 9.71453 9.71453 9.41631 9.41631 9.41631 9.41631 9.69802 9.69802 9.69802 9.69802 9.32683 9.32683 9.32683 9.32683 11.056 11.056 11.056 11.056 9.75862 9.75862 9.75862 9.75862 9.97588 9.97588 9.97588 9.97588 9.84354 9.84354 9.84354 9.84354 9.74194 9.74194 9.74194 9.74194 11.5719 11.5719 11.5719 11.5719 9.1172 9.1172 9.1172 9.1172 9.45183 9.45183 9.45183 9.45183 9.81799 9.81799 9.81799 9.81799 9.92501 9.92501 9.92501 9.92501 10.2288 10.2288 10.2288 10.2288 9.76864 9.76864 9.76864 9.76864 9.63567 9.63567 9.63567 9.63567 9.55515 9.55515 9.55515 9.55515 9.89618 9.89618 9.89618 9.89618 9.09358 9.09358 9.09358 9.09358 9.55363 9.55363 9.55363 9.55363 10.5272 10.5272 10.5272 10.5272 10.7473 10.7473 10.7473 10.7473 9.78166 9.78166 9.78166 9.78166 8.85441 8.85441 8.85441 8.85441 9.44702 9.44702 9.44702 9.44702 9.7287 9.7287 9.7287 9.7287 9.75055 9.75055 9.75055 9.75055 9.70336 9.70336 9.70336 9.70336 9.78341 9.78341 9.78341 9.78341 9.79854 9.79854 9.79854 9.79854 9.67923 9.67923 9.67923 9.67923 9.25162 9.25162 9.25162 9.25162 9.23556 9.23556 9.23556 9.23556 9.63634 9.63634 9.63634 9.63634 9.51697 9.51697 9.51697 9.51697 9.50198 9.50198 9.50198 9.50198 5.90269 5.90269 5.90269 5.90269 9.25875 9.25875 9.25875 9.25875 9.61541 9.61541 9.61541 9.61541 9.53337 9.53337 9.53337 9.53337 9.67394 9.67394 9.67394 9.67394 9.96383 9.96383 9.96383 9.96383 11.0783 11.0783 11.0783 11.0783 9.88031 9.88031 9.88031 9.88031 9.54894 9.54894 9.54894 9.54894 9.61547 9.61547 9.61547 9.61547 9.70088 9.70088 9.70088 9.70088 10.3179 10.3179 10.3179 10.3179 9.7504 9.7504 9.7504 9.7504 11.8856 11.8856 11.8856 11.8856 10.763 10.763 10.763 10.763 8.18477 8.18477 8.18477 8.18477 9.65993 9.65993 9.65993 9.65993 9.8964 9.8964 9.8964 9.8964 9.31564 9.31564 9.31564 9.31564 12.4546 12.4546 12.4546 12.4546 10.8286 10.8286 10.8286 10.8286 9.75992 9.75992 9.75992 9.75992 2.98219 2.98219 2.98219 2.98219 9.76724 9.76724 9.76724 9.76724 9.57343 9.57343 9.57343 9.57343 5.59663 5.59663 5.59663 5.59663 9.74215 9.74215 9.74215 9.74215 9.78519 9.78519 9.78519 9.78519 9.43313 9.43313 9.43313 9.43313 3.76814 3.76814 3.76814 3.76814 4.75609 4.75609 4.75609 4.75609 9.73325 9.73325 9.73325 9.73325 9.60591 9.60591 9.60591 9.60591 9.6269 9.6269 9.6269 9.6269 8.52633 8.52633 8.52633 8.52633 9.0484 9.0484 9.0484 9.0484 9.57193 9.57193 9.57193 9.57193 9.92939 9.92939 9.92939 9.92939 9.92657 9.92657 9.92657 9.92657 9.95579 9.95579 9.95579 9.95579 9.48564 9.48564 9.48564 9.48564 9.56467 9.56467 9.56467 9.56467 9.72701 9.72701 9.72701 9.72701 9.51349 9.51349 9.51349 9.51349 9.72253 9.72253 9.72253 9.72253 10.2126 10.2126 10.2126 10.2126 9.28649 9.28649 9.28649 9.28649 9.63561 9.63561 9.63561 9.63561 9.91173 9.91173 9.91173 9.91173 9.62655 9.62655 9.62655 9.62655 9.6562 9.6562 9.6562 9.6562 9.9781 9.9781 9.9781 9.9781 10.8916 10.8916 10.8916 10.8916 9.28894 9.28894 9.28894 9.28894 8.57434 8.57434 8.57434 8.57434 9.88591 9.88591 9.88591 9.88591 9.68145 9.68145 9.68145 9.68145 9.73519 9.73519 9.73519 9.73519 8.93133 8.93133 8.93133 8.93133 9.63219 9.63219 9.63219 9.63219 9.84219 9.84219 9.84219 9.84219 8.30844 8.30844 8.30844 8.30844 9.75771 9.75771 9.75771 9.75771 9.61699 9.61699 9.61699 9.61699 9.78721 9.78721 9.78721 9.78721 9.37144 9.37144 9.37144 9.37144 9.84014 9.84014 9.84014 9.84014 9.64079 9.64079 9.64079 9.64079 9.76112 9.76112 9.76112 9.76112 9.65996 9.65996 9.65996 9.65996 9.37685 9.37685 9.37685 9.37685 9.66731 9.66731 9.66731 9.66731 9.92396 9.92396 9.92396 9.92396 9.53053 9.53053 9.53053 9.53053 10.4905 10.4905 10.4905 10.4905 9.71521 9.71521 9.71521 9.71521 9.77642 9.77642 9.77642 9.77642 11.8254 11.8254 11.8254 11.8254 9.77326 9.77326 9.77326 9.77326 10.7456 10.7456 10.7456 10.7456 9.7344 9.7344 9.7344 9.7344 9.42275 9.42275 9.42275 9.42275 10.8062 10.8062 10.8062 10.8062 9.77155 9.77155 9.77155 9.77155 9.92672 9.92672 9.92672 9.92672 9.62621 9.62621 9.62621 9.62621 9.73262 9.73262 9.73262 9.73262 9.4525 9.4525 9.4525 9.4525 11.6901 11.6901 11.6901 11.6901 8.35239 8.35239 8.35239 8.35239 9.71491 9.71491 9.71491 9.71491 9.47526 9.47526 9.47526 9.47526 11.3447 11.3447 11.3447 11.3447 11.6371 11.6371 11.6371 11.6371 9.69884 9.69884 9.69884 9.69884 9.7664 9.7664 9.7664 9.7664 9.79152 9.79152 9.79152 9.79152 9.44709 9.44709 9.44709 9.44709 9.35914 9.35914 9.35914 9.35914 10.1569 10.1569 10.1569 10.1569 9.92277 9.92277 9.92277 9.92277 9.89842 9.89842 9.89842 9.89842 9.56275 9.56275 9.56275 9.56275 9.59881 9.59881 9.59881 9.59881 9.20404 9.20404 9.20404 9.20404 9.52676 9.52676 9.52676 9.52676 9.82559 9.82559 9.82559 9.82559 8.26879 8.26879 8.26879 8.26879 9.83001 9.83001 9.83001 9.83001 9.78391 9.78391 9.78391 9.78391 9.70479 9.70479 9.70479 9.70479 9.59253 9.59253 9.59253 9.59253 9.5253 9.5253 9.5253 9.5253 9.71861 9.71861 9.71861 9.71861 12.2125 12.2125 12.2125 12.2125 9.13885 9.13885 9.13885 9.13885 9.68149 9.68149 9.68149 9.68149 9.78239 9.78239 9.78239 9.78239 9.21883 9.21883 9.21883 9.21883 12.3121 12.3121 12.3121 12.3121 9.57732 9.57732 9.57732 9.57732 9.90308 9.90308 9.90308 9.90308 9.6029 9.6029 9.6029 9.6029 9.86667 9.86667 9.86667 9.86667 11.9056 11.9056 11.9056 11.9056 9.90476 9.90476 9.90476 9.90476 9.5493 9.5493 9.5493 9.5493 9.92429 9.92429 9.92429 9.92429 9.6213 9.6213 9.6213 9.6213 9.60357 9.60357 9.60357 9.60357 9.65271 9.65271 9.65271 9.65271 9.38216 9.38216 9.38216 9.38216 9.74948 9.74948 9.74948 9.74948 6.07466 6.07466 6.07466 6.07466 9.29351 9.29351 9.29351 9.29351 9.75714 9.75714 9.75714 9.75714 9.59827 9.59827 9.59827 9.59827 9.38617 9.38617 9.38617 9.38617 9.97839 9.97839 9.97839 9.97839 9.43854 9.43854 9.43854 9.43854 9.55822 9.55822 9.55822 9.55822 9.82446 9.82446 9.82446 9.82446 9.74907 9.74907 9.74907 9.74907 9.64047 9.64047 9.64047 9.64047 9.88534 9.88534 9.88534 9.88534 9.50767 9.50767 9.50767 9.50767 9.96694 9.96694 9.96694 9.96694 8.77153 8.77153 8.77153 8.77153 3.52548 3.52548 3.52548 3.52548 9.07277 9.07277 9.07277 9.07277 9.59319 9.59319 9.59319 9.59319 9.67495 9.67495 9.67495 9.67495 9.22635 9.22635 9.22635 9.22635 9.56629 9.56629 9.56629 9.56629 9.74447 9.74447 9.74447 9.74447 9.55819 9.55819 9.55819 9.55819 3.41528 3.41528 3.41528 3.41528 7.53908 7.53908 7.53908 7.53908 9.71137 9.71137 9.71137 9.71137 9.5116 9.5116 9.5116 9.5116 9.60816 9.60816 9.60816 9.60816 9.49911 9.49911 9.49911 9.49911 9.89932 9.89932 9.89932 9.89932 9.82688 9.82688 9.82688 9.82688 10.3983 10.3983 10.3983 10.3983 9.55178 9.55178 9.55178 9.55178 9.75213 9.75213 9.75213 9.75213 9.70444 9.70444 9.70444 9.70444 9.59108 9.59108 9.59108 9.59108 9.92719 9.92719 9.92719 9.92719 9.76303 9.76303 9.76303 9.76303 9.3387 9.3387 9.3387 9.3387 9.56689 9.56689 9.56689 9.56689 9.50949 9.50949 9.50949 9.50949 9.31081 9.31081 9.31081 9.31081 9.96256 9.96256 9.96256 9.96256 9.4382 9.4382 9.4382 9.4382 9.63236 9.63236 9.63236 9.63236 9.81944 9.81944 9.81944 9.81944 9.71193 9.71193 9.71193 9.71193 9.61807 9.61807 9.61807 9.61807 3.13023 3.13023 3.13023 3.13023 9.67368 9.67368 9.67368 9.67368 9.73467 9.73467 9.73467 9.73467 9.71026 9.71026 9.71026 9.71026 8.54794 8.54794 8.54794 8.54794 9.87514 9.87514 9.87514 9.87514 9.73572 9.73572 9.73572 9.73572 9.92196 9.92196 9.92196 9.92196 9.80833 9.80833 9.80833 9.80833 9.63886 9.63886 9.63886 9.63886 9.51405 9.51405 9.51405 9.51405 9.23169 9.23169 9.23169 9.23169 9.63075 9.63075 9.63075 9.63075 9.91728 9.91728 9.91728 9.91728 9.29272 9.29272 9.29272 9.29272 9.26671 9.26671 9.26671 9.26671 10.2295 10.2295 10.2295 10.2295 9.62778 9.62778 9.62778 9.62778 10.5383 10.5383 10.5383 10.5383 9.8769 9.8769 9.8769 9.8769 9.86637 9.86637 9.86637 9.86637 9.65228 9.65228 9.65228 9.65228 9.56399 9.56399 9.56399 9.56399 7.29672 7.29672 7.29672 7.29672 9.64239 9.64239 9.64239 9.64239 11.5364 11.5364 11.5364 11.5364 9.56492 9.56492 9.56492 9.56492 9.83723 9.83723 9.83723 9.83723 9.74931 9.74931 9.74931 9.74931 9.70437 9.70437 9.70437 9.70437 9.76965 9.76965 9.76965 9.76965 8.79433 8.79433 8.79433 8.79433 11.0331 11.0331 11.0331 11.0331 9.65856 9.65856 9.65856 9.65856 9.64326 9.64326 9.64326 9.64326 9.66882 9.66882 9.66882 9.66882 9.56596 9.56596 9.56596 9.56596 9.72536 9.72536 9.72536 9.72536 9.6548 9.6548 9.6548 9.6548 9.66827 9.66827 9.66827 9.66827 9.80104 9.80104 9.80104 9.80104 9.39749 9.39749 9.39749 9.39749 9.66065 9.66065 9.66065 9.66065 9.75547 9.75547 9.75547 9.75547 9.96665 9.96665 9.96665 9.96665 9.71919 9.71919 9.71919 9.71919 9.49091 9.49091 9.49091 9.49091 13.0353 13.0353 13.0353 13.0353 9.90058 9.90058 9.90058 9.90058 9.56715 9.56715 9.56715 9.56715 9.56416 9.56416 9.56416 9.56416 10.1108 10.1108 10.1108 10.1108 9.84004 9.84004 9.84004 9.84004 9.50625 9.50625 9.50625 9.50625 7.84153 7.84153 7.84153 7.84153 4.62806 4.62806 4.62806 4.62806 9.461 9.461 9.461 9.461 9.27931 9.27931 9.27931 9.27931 9.83053 9.83053 9.83053 9.83053 9.80069 9.80069 9.80069 9.80069 9.97092 9.97092 9.97092 9.97092 9.73273 9.73273 9.73273 9.73273 9.35131 9.35131 9.35131 9.35131 9.47355 9.47355 9.47355 9.47355 9.50153 9.50153 9.50153 9.50153 9.61904 9.61904 9.61904 9.61904 9.90588 9.90588 9.90588 9.90588 9.92387 9.92387 9.92387 9.92387 9.795 9.795 9.795 9.795 10.1655 10.1655 10.1655 10.1655 10.1989 10.1989 10.1989 10.1989 9.92241 9.92241 9.92241 9.92241 9.86191 9.86191 9.86191 9.86191 9.4676 9.4676 9.4676 9.4676 10.232 10.232 10.232 10.232 9.7265 9.7265 9.7265 9.7265 12.5941 12.5941 12.5941 12.5941 9.5387 9.5387 9.5387 9.5387 9.53434 9.53434 9.53434 9.53434 9.61956 9.61956 9.61956 9.61956 9.28338 9.28338 9.28338 9.28338 9.90672 9.90672 9.90672 9.90672 10.9341 10.9341 10.9341 10.9341 11.7091 11.7091 11.7091 11.7091 9.42047 9.42047 9.42047 9.42047 9.62182 9.62182 9.62182 9.62182 9.81741 9.81741 9.81741 9.81741 9.9506 9.9506 9.9506 9.9506 9.34725 9.34725 9.34725 9.34725 9.81694 9.81694 9.81694 9.81694 9.37436 9.37436 9.37436 9.37436 7.88436 7.88436 7.88436 7.88436 9.93433 9.93433 9.93433 9.93433 7.33157 7.33157 7.33157 7.33157 9.76067 9.76067 9.76067 9.76067 6.70061 6.70061 6.70061 6.70061 11.9002 11.9002 11.9002 11.9002 9.55546 9.55546 9.55546 9.55546 10.2157 10.2157 10.2157 10.2157 2.58913 2.58913 2.58913 2.58913 9.08758 9.08758 9.08758 9.08758 10.0453 10.0453 10.0453 10.0453 10.0083 10.0083 10.0083 10.0083 4.30311 4.30311 4.30311 4.30311 8.69722 8.69722 8.69722 8.69722 9.63304 9.63304 9.63304 9.63304 9.92503 9.92503 9.92503 9.92503 9.5125 9.5125 9.5125 9.5125 9.59309 9.59309 9.59309 9.59309 9.50004 9.50004 9.50004 9.50004 9.45105 9.45105 9.45105 9.45105 9.8617 9.8617 9.8617 9.8617 9.79621 9.79621 9.79621 9.79621 9.55201 9.55201 9.55201 9.55201 9.56257 9.56257 9.56257 9.56257 9.45411 9.45411 9.45411 9.45411 12.5015 12.5015 12.5015 12.5015 9.78465 9.78465 9.78465 9.78465 9.97212 9.97212 9.97212 9.97212 4.44611 4.44611 4.44611 4.44611 11.1145 11.1145 11.1145 11.1145 9.67212 9.67212 9.67212 9.67212 10.241 10.241 10.241 10.241 9.27534 9.27534 9.27534 9.27534 8.4167 8.4167 8.4167 8.4167 9.8048 9.8048 9.8048 9.8048 10.004 10.004 10.004 10.004 9.88951 9.88951 9.88951 9.88951 9.99243 9.99243 9.99243 9.99243 9.89833 9.89833 9.89833 9.89833 9.62599 9.62599 9.62599 9.62599 9.52028 9.52028 9.52028 9.52028 10.1749 10.1749 10.1749 10.1749 9.56002 9.56002 9.56002 9.56002 9.73323 9.73323 9.73323 9.73323 9.92533 9.92533 9.92533 9.92533 10.0708 10.0708 10.0708 10.0708 9.97121 9.97121 9.97121 9.97121 9.65605 9.65605 9.65605 9.65605 8.49655 8.49655 8.49655 8.49655 9.32714 9.32714 9.32714 9.32714 9.68871 9.68871 9.68871 9.68871 2.97201 2.97201 2.97201 2.97201 9.76437 9.76437 9.76437 9.76437 9.75308 9.75308 9.75308 9.75308 9.5253 9.5253 9.5253 9.5253 9.39872 9.39872 9.39872 9.39872 9.85453 9.85453 9.85453 9.85453 10.9714 10.9714 10.9714 10.9714 9.78318 9.78318 9.78318 9.78318 2.5532 2.5532 2.5532 2.5532 9.58081 9.58081 9.58081 9.58081 5.36903 5.36903 5.36903 5.36903 3.421 3.421 3.421 3.421 9.66324 9.66324 9.66324 9.66324 10.6912 10.6912 10.6912 10.6912 9.86448 9.86448 9.86448 9.86448 9.82548 9.82548 9.82548 9.82548 9.64441 9.64441 9.64441 9.64441 9.49734 9.49734 9.49734 9.49734 9.92627 9.92627 9.92627 9.92627 9.494 9.494 9.494 9.494 9.66675 9.66675 9.66675 9.66675 9.92514 9.92514 9.92514 9.92514 9.97121 9.97121 9.97121 9.97121 10.3145 10.3145 10.3145 10.3145 9.86756 9.86756 9.86756 9.86756 3.84676 3.84676 3.84676 3.84676 9.73701 9.73701 9.73701 9.73701 7.42406 7.42406 7.42406 7.42406 12.6813 12.6813 12.6813 12.6813 9.49197 9.49197 9.49197 9.49197 9.60494 9.60494 9.60494 9.60494 9.40374 9.40374 9.40374 9.40374 12.3389 12.3389 12.3389 12.3389 9.69991 9.69991 9.69991 9.69991 9.91352 9.91352 9.91352 9.91352 9.56174 9.56174 9.56174 9.56174 5.26025 5.26025 5.26025 5.26025 9.95573 9.95573 9.95573 9.95573 9.76724 9.76724 9.76724 9.76724 9.86894 9.86894 9.86894 9.86894 13.2954 13.2954 13.2954 13.2954 9.6604 9.6604 9.6604 9.6604 9.97652 9.97652 9.97652 9.97652 9.93901 9.93901 9.93901 9.93901 8.19408 8.19408 8.19408 8.19408 11.3427 11.3427 11.3427 11.3427 9.82785 9.82785 9.82785 9.82785 9.76618 9.76618 9.76618 9.76618 9.84542 9.84542 9.84542 9.84542 9.97717 9.97717 9.97717 9.97717 9.24502 9.24502 9.24502 9.24502 10.4453 10.4453 10.4453 10.4453 11.8198 11.8198 11.8198 11.8198 9.56943 9.56943 9.56943 9.56943 9.81676 9.81676 9.81676 9.81676 9.65796 9.65796 9.65796 9.65796 9.5045 9.5045 9.5045 9.5045 10.9964 10.9964 10.9964 10.9964 9.73995 9.73995 9.73995 9.73995 9.91936 9.91936 9.91936 9.91936 9.66619 9.66619 9.66619 9.66619 9.78214 9.78214 9.78214 9.78214 9.89658 9.89658 9.89658 9.89658 9.91931 9.91931 9.91931 9.91931 9.79254 9.79254 9.79254 9.79254 9.75956 9.75956 9.75956 9.75956 9.66922 9.66922 9.66922 9.66922 4.2422 4.2422 4.2422 4.2422 9.44052 9.44052 9.44052 9.44052 10.4391 10.4391 10.4391 10.4391 9.79328 9.79328 9.79328 9.79328 9.7317 9.7317 9.7317 9.7317 9.96896 9.96896 9.96896 9.96896 9.91781 9.91781 9.91781 9.91781 2.49052 2.49052 2.49052 2.49052 3.17725 3.17725 3.17725 3.17725 9.92558 9.92558 9.92558 9.92558 9.82339 9.82339 9.82339 9.82339 9.7237 9.7237 9.7237 9.7237 10.1413 10.1413 10.1413 10.1413 9.63339 9.63339 9.63339 9.63339 10.8171 10.8171 10.8171 10.8171 9.81682 9.81682 9.81682 9.81682 9.92326 9.92326 9.92326 9.92326 9.76687 9.76687 9.76687 9.76687 8.96197 8.96197 8.96197 8.96197 9.967 9.967 9.967 9.967 9.50573 9.50573 9.50573 9.50573 10.9906 10.9906 10.9906 10.9906 9.89613 9.89613 9.89613 9.89613 9.96052 9.96052 9.96052 9.96052 9.73364 9.73364 9.73364 9.73364 8.58974 8.58974 8.58974 8.58974 9.55545 9.55545 9.55545 9.55545 9.49338 9.49338 9.49338 9.49338 9.58173 9.58173 9.58173 9.58173 9.47619 9.47619 9.47619 9.47619 9.95838 9.95838 9.95838 9.95838 9.79549 9.79549 9.79549 9.79549 9.47194 9.47194 9.47194 9.47194 9.63155 9.63155 9.63155 9.63155 9.44111 9.44111 9.44111 9.44111 9.44591 9.44591 9.44591 9.44591 9.55571 9.55571 9.55571 9.55571 9.97204 9.97204 9.97204 9.97204 9.72904 9.72904 9.72904 9.72904 9.80888 9.80888 9.80888 9.80888 9.61204 9.61204 9.61204 9.61204 9.54662 9.54662 9.54662 9.54662 9.3633 9.3633 9.3633 9.3633 9.30832 9.30832 9.30832 9.30832 9.92722 9.92722 9.92722 9.92722 9.62905 9.62905 9.62905 9.62905 9.93966 9.93966 9.93966 9.93966 12.1842 12.1842 12.1842 12.1842 9.79226 9.79226 9.79226 9.79226 10.0219 10.0219 10.0219 10.0219 11.4619 11.4619 11.4619 11.4619 12.3811 12.3811 12.3811 12.3811 9.40814 9.40814 9.40814 9.40814 3.29683 3.29683 3.29683 3.29683 9.69547 9.69547 9.69547 9.69547 9.22362 9.22362 9.22362 9.22362 9.04581 9.04581 9.04581 9.04581 9.75291 9.75291 9.75291 9.75291 11.3193 11.3193 11.3193 11.3193 9.38577 9.38577 9.38577 9.38577 10.621 10.621 10.621 10.621 9.6048 9.6048 9.6048 9.6048 9.58745 9.58745 9.58745 9.58745 9.83706 9.83706 9.83706 9.83706 9.93531 9.93531 9.93531 9.93531 4.63973 4.63973 4.63973 4.63973 3.17505 3.17505 3.17505 3.17505 9.64845 9.64845 9.64845 9.64845 9.45231 9.45231 9.45231 9.45231 9.64172 9.64172 9.64172 9.64172 9.64334 9.64334 9.64334 9.64334 9.62317 9.62317 9.62317 9.62317 9.91027 9.91027 9.91027 9.91027 9.90964 9.90964 9.90964 9.90964 9.01765 9.01765 9.01765 9.01765 2.28295 2.28295 2.28295 2.28295 9.69364 9.69364 9.69364 9.69364 12.0359 12.0359 12.0359 12.0359 2.77115 2.77115 2.77115 2.77115 4.2841 4.2841 4.2841 4.2841 9.66702 9.66702 9.66702 9.66702 9.58201 9.58201 9.58201 9.58201 9.79818 9.79818 9.79818 9.79818 9.37957 9.37957 9.37957 9.37957 9.83079 9.83079 9.83079 9.83079 9.88138 9.88138 9.88138 9.88138 9.54087 9.54087 9.54087 9.54087 6.41189 6.41189 6.41189 6.41189 9.78981 9.78981 9.78981 9.78981 9.96735 9.96735 9.96735 9.96735 9.47781 9.47781 9.47781 9.47781 9.64184 9.64184 9.64184 9.64184 9.68229 9.68229 9.68229 9.68229 10.9893 10.9893 10.9893 10.9893 9.93017 9.93017 9.93017 9.93017 9.85805 9.85805 9.85805 9.85805 5.95832 5.95832 5.95832 5.95832 9.41954 9.41954 9.41954 9.41954 7.64555 7.64555 7.64555 7.64555 9.91272 9.91272 9.91272 9.91272 10.6204 10.6204 10.6204 10.6204 9.41682 9.41682 9.41682 9.41682 9.20673 9.20673 9.20673 9.20673 6.39104 6.39104 6.39104 6.39104 9.80778 9.80778 9.80778 9.80778 12.1514 12.1514 12.1514 12.1514 9.65226 9.65226 9.65226 9.65226 9.71647 9.71647 9.71647 9.71647 9.68926 9.68926 9.68926 9.68926 9.72353 9.72353 9.72353 9.72353 9.81839 9.81839 9.81839 9.81839 9.38259 9.38259 9.38259 9.38259 9.58767 9.58767 9.58767 9.58767 9.43482 9.43482 9.43482 9.43482 9.50148 9.50148 9.50148 9.50148 9.68769 9.68769 9.68769 9.68769 8.59032 8.59032 8.59032 8.59032 9.97758 9.97758 9.97758 9.97758 9.54021 9.54021 9.54021 9.54021 10.6178 10.6178 10.6178 10.6178 9.59229 9.59229 9.59229 9.59229 9.92261 9.92261 9.92261 9.92261 9.59232 9.59232 9.59232 9.59232 9.64785 9.64785 9.64785 9.64785 9.96138 9.96138 9.96138 9.96138 2.83457 2.83457 2.83457 2.83457 10.2654 10.2654 10.2654 10.2654 9.9785 9.9785 9.9785 9.9785 9.96711 9.96711 9.96711 9.96711 9.84186 9.84186 9.84186 9.84186 9.93218 9.93218 9.93218 9.93218 7.24133 7.24133 7.24133 7.24133 9.76964 9.76964 9.76964 9.76964 9.97571 9.97571 9.97571 9.97571 9.79244 9.79244 9.79244 9.79244 9.54116 9.54116 9.54116 9.54116 9.44459 9.44459 9.44459 9.44459 9.80318 9.80318 9.80318 9.80318 9.81895 9.81895 9.81895 9.81895 9.75498 9.75498 9.75498 9.75498 12.7525 12.7525 12.7525 12.7525 9.55313 9.55313 9.55313 9.55313 9.57644 9.57644 9.57644 9.57644 9.89581 9.89581 9.89581 9.89581 9.58361 9.58361 9.58361 9.58361 9.59862 9.59862 9.59862 9.59862 9.61272 9.61272 9.61272 9.61272 9.63439 9.63439 9.63439 9.63439 9.96729 9.96729 9.96729 9.96729 13.1523 13.1523 13.1523 13.1523 9.45737 9.45737 9.45737 9.45737 9.81513 9.81513 9.81513 9.81513 9.44565 9.44565 9.44565 9.44565 9.45511 9.45511 9.45511 9.45511 9.96707 9.96707 9.96707 9.96707 9.80834 9.80834 9.80834 9.80834 9.75784 9.75784 9.75784 9.75784 9.50155 9.50155 9.50155 9.50155 9.5874 9.5874 9.5874 9.5874 9.59143 9.59143 9.59143 9.59143 9.92552 9.92552 9.92552 9.92552 9.47774 9.47774 9.47774 9.47774 9.9382 9.9382 9.9382 9.9382 9.48491 9.48491 9.48491 9.48491 9.61127 9.61127 9.61127 9.61127 3.10639 3.10639 3.10639 3.10639 9.81811 9.81811 9.81811 9.81811 9.37295 9.37295 9.37295 9.37295 8.85879 8.85879 8.85879 8.85879 9.90539 9.90539 9.90539 9.90539 11.3123 11.3123 11.3123 11.3123 9.81273 9.81273 9.81273 9.81273 9.64752 9.64752 9.64752 9.64752 10.3677 10.3677 10.3677 10.3677 9.37565 9.37565 9.37565 9.37565 9.89505 9.89505 9.89505 9.89505 9.22442 9.22442 9.22442 9.22442 9.90902 9.90902 9.90902 9.90902 9.59044 9.59044 9.59044 9.59044 9.97487 9.97487 9.97487 9.97487 9.53756 9.53756 9.53756 9.53756 9.54338 9.54338 9.54338 9.54338 9.75364 9.75364 9.75364 9.75364 3.10406 3.10406 3.10406 3.10406 9.76824 9.76824 9.76824 9.76824 9.71128 9.71128 9.71128 9.71128 9.82816 9.82816 9.82816 9.82816 9.69616 9.69616 9.69616 9.69616 9.51993 9.51993 9.51993 9.51993 10.7931 10.7931 10.7931 10.7931 12.6509 12.6509 12.6509 12.6509 9.59131 9.59131 9.59131 9.59131 9.95643 9.95643 9.95643 9.95643 9.51851 9.51851 9.51851 9.51851 9.67618 9.67618 9.67618 9.67618 9.81006 9.81006 9.81006 9.81006 9.47834 9.47834 9.47834 9.47834 9.4234 9.4234 9.4234 9.4234 9.78621 9.78621 9.78621 9.78621 9.5505 9.5505 9.5505 9.5505 9.66628 9.66628 9.66628 9.66628 9.64055 9.64055 9.64055 9.64055 12.5516 12.5516 12.5516 12.5516 9.69585 9.69585 9.69585 9.69585 9.95922 9.95922 9.95922 9.95922 9.76037 9.76037 9.76037 9.76037 12.2012 12.2012 12.2012 12.2012 10.0701 10.0701 10.0701 10.0701 9.86051 9.86051 9.86051 9.86051 9.53629 9.53629 9.53629 9.53629 9.92893 9.92893 9.92893 9.92893 9.74017 9.74017 9.74017 9.74017 12.1834 12.1834 12.1834 12.1834 9.96875 9.96875 9.96875 9.96875 9.79214 9.79214 9.79214 9.79214 9.69717 9.69717 9.69717 9.69717 3.87417 3.87417 3.87417 3.87417 9.60157 9.60157 9.60157 9.60157 9.93042 9.93042 9.93042 9.93042 9.76157 9.76157 9.76157 9.76157 9.5873 9.5873 9.5873 9.5873 9.96421 9.96421 9.96421 9.96421 7.98682 7.98682 7.98682 7.98682 9.78195 9.78195 9.78195 9.78195 11.4932 11.4932 11.4932 11.4932 9.89566 9.89566 9.89566 9.89566 9.93078 9.93078 9.93078 9.93078 9.61355 9.61355 9.61355 9.61355 10.4215 10.4215 10.4215 10.4215 12.079 12.079 12.079 12.079 9.72641 9.72641 9.72641 9.72641 11.7952 11.7952 11.7952 11.7952 4.30565 4.30565 4.30565 4.30565 9.56554 9.56554 9.56554 9.56554 9.83687 9.83687 9.83687 9.83687 10.0044 10.0044 10.0044 10.0044 10.0447 10.0447 10.0447 10.0447 9.94121 9.94121 9.94121 9.94121 9.57565 9.57565 9.57565 9.57565 9.71383 9.71383 9.71383 9.71383 9.47856 9.47856 9.47856 9.47856 11.6969 11.6969 11.6969 11.6969 11.8159 11.8159 11.8159 11.8159 9.6928 9.6928 9.6928 9.6928 9.86541 9.86541 9.86541 9.86541 9.59902 9.59902 9.59902 9.59902 9.25743 9.25743 9.25743 9.25743 9.97445 9.97445 9.97445 9.97445 9.95855 9.95855 9.95855 9.95855 11.3647 11.3647 11.3647 11.3647 9.89077 9.89077 9.89077 9.89077 6.94727 6.94727 6.94727 6.94727 11.2315 11.2315 11.2315 11.2315 9.67327 9.67327 9.67327 9.67327 9.25059 9.25059 9.25059 9.25059 9.65069 9.65069 9.65069 9.65069 9.60789 9.60789 9.60789 9.60789 9.82892 9.82892 9.82892 9.82892 9.69642 9.69642 9.69642 9.69642 9.66124 9.66124 9.66124 9.66124 9.68831 9.68831 9.68831 9.68831 8.68626 8.68626 8.68626 8.68626 9.63687 9.63687 9.63687 9.63687 8.90539 8.90539 8.90539 8.90539 9.60634 9.60634 9.60634 9.60634 8.32327 8.32327 8.32327 8.32327 10.107 10.107 10.107 10.107 9.79894 9.79894 9.79894 9.79894 11.8868 11.8868 11.8868 11.8868 9.89439 9.89439 9.89439 9.89439 9.58829 9.58829 9.58829 9.58829 10.7361 10.7361 10.7361 10.7361 12.2066 12.2066 12.2066 12.2066 9.57072 9.57072 9.57072 9.57072 10.711 10.711 10.711 10.711 9.65235 9.65235 9.65235 9.65235 9.51597 9.51597 9.51597 9.51597 9.90952 9.90952 9.90952 9.90952 9.79842 9.79842 9.79842 9.79842 9.93166 9.93166 9.93166 9.93166 4.94221 4.94221 4.94221 4.94221 9.65715 9.65715 9.65715 9.65715 9.66436 9.66436 9.66436 9.66436 9.83453 9.83453 9.83453 9.83453 9.97434 9.97434 9.97434 9.97434 9.96894 9.96894 9.96894 9.96894 10.6791 10.6791 10.6791 10.6791 9.74261 9.74261 9.74261 9.74261 9.81796 9.81796 9.81796 9.81796 9.6434 9.6434 9.6434 9.6434 9.72192 9.72192 9.72192 9.72192 9.44027 9.44027 9.44027 9.44027 9.62528 9.62528 9.62528 9.62528 10.5244 10.5244 10.5244 10.5244 9.52142 9.52142 9.52142 9.52142 9.77073 9.77073 9.77073 9.77073 9.76044 9.76044 9.76044 9.76044 10.0417 10.0417 10.0417 10.0417 9.74551 9.74551 9.74551 9.74551 9.83883 9.83883 9.83883 9.83883 9.83323 9.83323 9.83323 9.83323 9.81262 9.81262 9.81262 9.81262 9.61857 9.61857 9.61857 9.61857 9.1227 9.1227 9.1227 9.1227 9.92758 9.92758 9.92758 9.92758 12.0792 12.0792 12.0792 12.0792 11.4908 11.4908 11.4908 11.4908 9.94613 9.94613 9.94613 9.94613 9.78628 9.78628 9.78628 9.78628 9.05587 9.05587 9.05587 9.05587 9.75661 9.75661 9.75661 9.75661 4.06449 4.06449 4.06449 4.06449 9.83411 9.83411 9.83411 9.83411 10.7946 10.7946 10.7946 10.7946 7.7347 7.7347 7.7347 7.7347 9.58686 9.58686 9.58686 9.58686 9.83349 9.83349 9.83349 9.83349 9.1163 9.1163 9.1163 9.1163 9.57657 9.57657 9.57657 9.57657 9.47693 9.47693 9.47693 9.47693 9.97492 9.97492 9.97492 9.97492 9.96603 9.96603 9.96603 9.96603 9.40178 9.40178 9.40178 9.40178 9.97588 9.97588 9.97588 9.97588 9.62499 9.62499 9.62499 9.62499 9.7223 9.7223 9.7223 9.7223 9.76711 9.76711 9.76711 9.76711 9.91045 9.91045 9.91045 9.91045 9.9783 9.9783 9.9783 9.9783 9.97939 9.97939 9.97939 9.97939 9.49006 9.49006 9.49006 9.49006 9.84253 9.84253 9.84253 9.84253 14.4227 14.4227 14.4227 14.4227 9.73124 9.73124 9.73124 9.73124 9.57814 9.57814 9.57814 9.57814 9.75507 9.75507 9.75507 9.75507 9.62952 9.62952 9.62952 9.62952 9.79005 9.79005 9.79005 9.79005 9.72802 9.72802 9.72802 9.72802 9.71031 9.71031 9.71031 9.71031 9.93424 9.93424 9.93424 9.93424 9.72633 9.72633 9.72633 9.72633 9.78728 9.78728 9.78728 9.78728 9.76062 9.76062 9.76062 9.76062 9.9692 9.9692 9.9692 9.9692 9.79047 9.79047 9.79047 9.79047 9.49067 9.49067 9.49067 9.49067 9.92097 9.92097 9.92097 9.92097 9.92051 9.92051 9.92051 9.92051 9.91114 9.91114 9.91114 9.91114 9.52121 9.52121 9.52121 9.52121 11.7395 11.7395 11.7395 11.7395 7.11163 7.11163 7.11163 7.11163 9.59862 9.59862 9.59862 9.59862 9.97338 9.97338 9.97338 9.97338 8.87974 8.87974 8.87974 8.87974 9.40768 9.40768 9.40768 9.40768 3.36441 3.36441 3.36441 3.36441 9.89427 9.89427 9.89427 9.89427 6.23922 6.23922 6.23922 6.23922 9.92355 9.92355 9.92355 9.92355 9.46427 9.46427 9.46427 9.46427 9.83076 9.83076 9.83076 9.83076 9.75705 9.75705 9.75705 9.75705 9.83779 9.83779 9.83779 9.83779 12.38 12.38 12.38 12.38 4.10031 4.10031 4.10031 4.10031 9.70555 9.70555 9.70555 9.70555 10.968 10.968 10.968 10.968 9.62098 9.62098 9.62098 9.62098 9.84594 9.84594 9.84594 9.84594 9.81194 9.81194 9.81194 9.81194 9.93215 9.93215 9.93215 9.93215 9.85344 9.85344 9.85344 9.85344 8.83994 8.83994 8.83994 8.83994 9.97498 9.97498 9.97498 9.97498 10.6757 10.6757 10.6757 10.6757 11.477 11.477 11.477 11.477 9.58164 9.58164 9.58164 9.58164 9.7103 9.7103 9.7103 9.7103 9.8004 9.8004 9.8004 9.8004 9.46348 9.46348 9.46348 9.46348 11.6197 11.6197 11.6197 11.6197 9.15654 9.15654 9.15654 9.15654 8.38429 8.38429 8.38429 8.38429 9.66823 9.66823 9.66823 9.66823 11.9151 11.9151 11.9151 11.9151 11.7221 11.7221 11.7221 11.7221 9.84348 9.84348 9.84348 9.84348 9.876 9.876 9.876 9.876 9.43051 9.43051 9.43051 9.43051 9.86966 9.86966 9.86966 9.86966 7.59711 7.59711 7.59711 7.59711 9.94881 9.94881 9.94881 9.94881 9.91355 9.91355 9.91355 9.91355 3.91249 3.91249 3.91249 3.91249 8.76864 8.76864 8.76864 8.76864 9.54172 9.54172 9.54172 9.54172 9.96826 9.96826 9.96826 9.96826 9.75551 9.75551 9.75551 9.75551 9.239 9.239 9.239 9.239 9.62363 9.62363 9.62363 9.62363 9.72348 9.72348 9.72348 9.72348 9.92748 9.92748 9.92748 9.92748 9.93943 9.93943 9.93943 9.93943 9.90912 9.90912 9.90912 9.90912 9.79265 9.79265 9.79265 9.79265 9.57063 9.57063 9.57063 9.57063 8.5454 8.5454 8.5454 8.5454 9.57917 9.57917 9.57917 9.57917 2.55613 2.55613 2.55613 2.55613 9.89348 9.89348 9.89348 9.89348 9.67093 9.67093 9.67093 9.67093 9.79111 9.79111 9.79111 9.79111 11.3156 11.3156 11.3156 11.3156 9.36634 9.36634 9.36634 9.36634 10.8663 10.8663 10.8663 10.8663 5.44406 5.44406 5.44406 5.44406 3.95838 3.95838 3.95838 3.95838 9.6942 9.6942 9.6942 9.6942 11.2382 11.2382 11.2382 11.2382 10.1202 10.1202 10.1202 10.1202 9.56798 9.56798 9.56798 9.56798 12.8619 12.8619 12.8619 12.8619 9.58857 9.58857 9.58857 9.58857 9.90557 9.90557 9.90557 9.90557 12.6119 12.6119 12.6119 12.6119 12.7248 12.7248 12.7248 12.7248 7.30429 7.30429 7.30429 7.30429 9.83615 9.83615 9.83615 9.83615 11.2506 11.2506 11.2506 11.2506 5.67293 5.67293 5.67293 5.67293 9.23495 9.23495 9.23495 9.23495 9.57124 9.57124 9.57124 9.57124 9.9724 9.9724 9.9724 9.9724 9.69675 9.69675 9.69675 9.69675 9.78053 9.78053 9.78053 9.78053 9.42619 9.42619 9.42619 9.42619 9.56364 9.56364 9.56364 9.56364 9.54097 9.54097 9.54097 9.54097 9.36333 9.36333 9.36333 9.36333 7.40803 7.40803 7.40803 7.40803 9.57048 9.57048 9.57048 9.57048 9.25044 9.25044 9.25044 9.25044 9.72562 9.72562 9.72562 9.72562 9.48385 9.48385 9.48385 9.48385 9.40956 9.40956 9.40956 9.40956 9.72379 9.72379 9.72379 9.72379 9.9181 9.9181 9.9181 9.9181 11.1543 11.1543 11.1543 11.1543 9.78465 9.78465 9.78465 9.78465 9.47441 9.47441 9.47441 9.47441 4.18908 4.18908 4.18908 4.18908 9.92953 9.92953 9.92953 9.92953 3.6564 3.6564 3.6564 3.6564 9.55073 9.55073 9.55073 9.55073 9.47588 9.47588 9.47588 9.47588 9.56402 9.56402 9.56402 9.56402 9.93119 9.93119 9.93119 9.93119 9.55737 9.55737 9.55737 9.55737 9.66415 9.66415 9.66415 9.66415 9.93496 9.93496 9.93496 9.93496 9.761 9.761 9.761 9.761 11.6546 11.6546 11.6546 11.6546 8.71994 8.71994 8.71994 8.71994 9.56152 9.56152 9.56152 9.56152 9.49187 9.49187 9.49187 9.49187 11.0576 11.0576 11.0576 11.0576 9.84629 9.84629 9.84629 9.84629 9.50938 9.50938 9.50938 9.50938 9.88349 9.88349 9.88349 9.88349 12.1218 12.1218 12.1218 12.1218 8.2904 8.2904 8.2904 8.2904 4.06869 4.06869 4.06869 4.06869 9.77055 9.77055 9.77055 9.77055 9.47741 9.47741 9.47741 9.47741 9.96804 9.96804 9.96804 9.96804 9.64233 9.64233 9.64233 9.64233 9.72877 9.72877 9.72877 9.72877 9.70863 9.70863 9.70863 9.70863 5.42548 5.42548 5.42548 5.42548 9.55398 9.55398 9.55398 9.55398 9.45032 9.45032 9.45032 9.45032 8.97153 8.97153 8.97153 8.97153 9.78904 9.78904 9.78904 9.78904 9.44974 9.44974 9.44974 9.44974 9.89145 9.89145 9.89145 9.89145 9.97726 9.97726 9.97726 9.97726 9.51597 9.51597 9.51597 9.51597 10.5701 10.5701 10.5701 10.5701 9.49279 9.49279 9.49279 9.49279 9.62025 9.62025 9.62025 9.62025 9.16437 9.16437 9.16437 9.16437 2.68406 2.68406 2.68406 2.68406 9.97559 9.97559 9.97559 9.97559 9.30504 9.30504 9.30504 9.30504 9.93036 9.93036 9.93036 9.93036 3.90457 3.90457 3.90457 3.90457 9.81035 9.81035 9.81035 9.81035 9.55885 9.55885 9.55885 9.55885 8.18006 8.18006 8.18006 8.18006 9.97425 9.97425 9.97425 9.97425 12.6549 12.6549 12.6549 12.6549 9.134 9.134 9.134 9.134 9.7476 9.7476 9.7476 9.7476 9.98022 9.98022 9.98022 9.98022 9.93329 9.93329 9.93329 9.93329 9.53521 9.53521 9.53521 9.53521 9.74058 9.74058 9.74058 9.74058 9.79388 9.79388 9.79388 9.79388 12.7592 12.7592 12.7592 12.7592 9.83554 9.83554 9.83554 9.83554 9.59123 9.59123 9.59123 9.59123 5.39765 5.39765 5.39765 5.39765 9.89352 9.89352 9.89352 9.89352 9.68944 9.68944 9.68944 9.68944 9.79102 9.79102 9.79102 9.79102 10.016 10.016 10.016 10.016 9.79243 9.79243 9.79243 9.79243 9.23333 9.23333 9.23333 9.23333 6.67144 6.67144 6.67144 6.67144 3.52709 3.52709 3.52709 3.52709 9.64818 9.64818 9.64818 9.64818 9.9028 9.9028 9.9028 9.9028 9.66795 9.66795 9.66795 9.66795 9.6581 9.6581 9.6581 9.6581 11.0028 11.0028 11.0028 11.0028 9.9721 9.9721 9.9721 9.9721 9.59042 9.59042 9.59042 9.59042 9.68069 9.68069 9.68069 9.68069 9.66397 9.66397 9.66397 9.66397 5.33068 5.33068 5.33068 5.33068 10.2348 10.2348 10.2348 10.2348 8.85985 8.85985 8.85985 8.85985 9.39782 9.39782 9.39782 9.39782 9.71705 9.71705 9.71705 9.71705 12.2033 12.2033 12.2033 12.2033 11.2283 11.2283 11.2283 11.2283 9.83806 9.83806 9.83806 9.83806 9.73195 9.73195 9.73195 9.73195 6.39896 6.39896 6.39896 6.39896 9.59886 9.59886 9.59886 9.59886 9.56918 9.56918 9.56918 9.56918 9.6585 9.6585 9.6585 9.6585 9.33879 9.33879 9.33879 9.33879 11.8034 11.8034 11.8034 11.8034 9.70354 9.70354 9.70354 9.70354 9.62266 9.62266 9.62266 9.62266 9.97065 9.97065 9.97065 9.97065 10.1459 10.1459 10.1459 10.1459 9.95345 9.95345 9.95345 9.95345 9.96733 9.96733 9.96733 9.96733 2.88016 2.88016 2.88016 2.88016 9.76205 9.76205 9.76205 9.76205 9.89035 9.89035 9.89035 9.89035 9.78325 9.78325 9.78325 9.78325 9.57578 9.57578 9.57578 9.57578 9.96661 9.96661 9.96661 9.96661 9.60702 9.60702 9.60702 9.60702 9.88903 9.88903 9.88903 9.88903 9.59885 9.59885 9.59885 9.59885 10.033 10.033 10.033 10.033 2.97771 2.97771 2.97771 2.97771 9.96791 9.96791 9.96791 9.96791 9.62369 9.62369 9.62369 9.62369 3.33169 3.33169 3.33169 3.33169 10.1222 10.1222 10.1222 10.1222 10.2032 10.2032 10.2032 10.2032 9.94112 9.94112 9.94112 9.94112 10.2691 10.2691 10.2691 10.2691 10.1633 10.1633 10.1633 10.1633 9.72634 9.72634 9.72634 9.72634 9.68441 9.68441 9.68441 9.68441 9.45177 9.45177 9.45177 9.45177 9.97162 9.97162 9.97162 9.97162 9.18518 9.18518 9.18518 9.18518 9.90593 9.90593 9.90593 9.90593 9.57908 9.57908 9.57908 9.57908 9.50836 9.50836 9.50836 9.50836 9.56749 9.56749 9.56749 9.56749 6.97403 6.97403 6.97403 6.97403 9.50973 9.50973 9.50973 9.50973 9.9383 9.9383 9.9383 9.9383 9.64401 9.64401 9.64401 9.64401 8.68511 8.68511 8.68511 8.68511 9.58038 9.58038 9.58038 9.58038 9.96857 9.96857 9.96857 9.96857 9.91727 9.91727 9.91727 9.91727 10.7781 10.7781 10.7781 10.7781 10.9886 10.9886 10.9886 10.9886 9.58067 9.58067 9.58067 9.58067 9.40338 9.40338 9.40338 9.40338 9.92594 9.92594 9.92594 9.92594 9.96715 9.96715 9.96715 9.96715 9.42581 9.42581 9.42581 9.42581 9.57689 9.57689 9.57689 9.57689 9.40752 9.40752 9.40752 9.40752 12.0246 12.0246 12.0246 12.0246 9.66588 9.66588 9.66588 9.66588 11.7148 11.7148 11.7148 11.7148 4.19094 4.19094 4.19094 4.19094 9.94009 9.94009 9.94009 9.94009 10.9953 10.9953 10.9953 10.9953 9.667 9.667 9.667 9.667 9.97035 9.97035 9.97035 9.97035 5.10488 5.10488 5.10488 5.10488 9.92814 9.92814 9.92814 9.92814 5.3794 5.3794 5.3794 5.3794 9.97347 9.97347 9.97347 9.97347 10.1924 10.1924 10.1924 10.1924 9.77012 9.77012 9.77012 9.77012 9.65831 9.65831 9.65831 9.65831 9.98015 9.98015 9.98015 9.98015 11.7329 11.7329 11.7329 11.7329 9.82617 9.82617 9.82617 9.82617 9.90934 9.90934 9.90934 9.90934 9.96743 9.96743 9.96743 9.96743 5.30342 5.30342 5.30342 5.30342 11.545 11.545 11.545 11.545 10.2238 10.2238 10.2238 10.2238 9.97298 9.97298 9.97298 9.97298 9.49934 9.49934 9.49934 9.49934 9.65707 9.65707 9.65707 9.65707 9.86082 9.86082 9.86082 9.86082 9.97348 9.97348 9.97348 9.97348 9.08678 9.08678 9.08678 9.08678 9.89846 9.89846 9.89846 9.89846 9.9794 9.9794 9.9794 9.9794 9.72236 9.72236 9.72236 9.72236 9.74966 9.74966 9.74966 9.74966 10.084 10.084 10.084 10.084 9.66792 9.66792 9.66792 9.66792 9.51309 9.51309 9.51309 9.51309 9.97282 9.97282 9.97282 9.97282 9.7496 9.7496 9.7496 9.7496 9.99894 9.99894 9.99894 9.99894 9.94211 9.94211 9.94211 9.94211 4.47455 4.47455 4.47455 4.47455 5.46855 5.46855 5.46855 5.46855 10.064 10.064 10.064 10.064 2.76091 2.76091 2.76091 2.76091 3.23576 3.23576 3.23576 3.23576 9.97002 9.97002 9.97002 9.97002 9.96797 9.96797 9.96797 9.96797 9.59793 9.59793 9.59793 9.59793 11.1764 11.1764 11.1764 11.1764 9.43262 9.43262 9.43262 9.43262 9.61804 9.61804 9.61804 9.61804 9.97177 9.97177 9.97177 9.97177 9.51509 9.51509 9.51509 9.51509 9.46141 9.46141 9.46141 9.46141 9.84691 9.84691 9.84691 9.84691 9.53286 9.53286 9.53286 9.53286 2.43035 2.43035 2.43035 2.43035 9.55275 9.55275 9.55275 9.55275 9.626 9.626 9.626 9.626 9.8826 9.8826 9.8826 9.8826 12.2978 12.2978 12.2978 12.2978 9.50945 9.50945 9.50945 9.50945 9.69748 9.69748 9.69748 9.69748 10.1452 10.1452 10.1452 10.1452 9.39587 9.39587 9.39587 9.39587 9.97019 9.97019 9.97019 9.97019 9.97083 9.97083 9.97083 9.97083 9.80989 9.80989 9.80989 9.80989 11.8522 11.8522 11.8522 11.8522 9.5591 9.5591 9.5591 9.5591 9.96888 9.96888 9.96888 9.96888 9.99155 9.99155 9.99155 9.99155 10.2628 10.2628 10.2628 10.2628 9.97189 9.97189 9.97189 9.97189 10.9604 10.9604 10.9604 10.9604 10.6834 10.6834 10.6834 10.6834 8.40551 8.40551 8.40551 8.40551 9.36461 9.36461 9.36461 9.36461 9.47927 9.47927 9.47927 9.47927 9.40431 9.40431 9.40431 9.40431 9.47677 9.47677 9.47677 9.47677 9.90427 9.90427 9.90427 9.90427 9.93529 9.93529 9.93529 9.93529 11.5999 11.5999 11.5999 11.5999 9.631 9.631 9.631 9.631 9.96966 9.96966 9.96966 9.96966 9.80328 9.80328 9.80328 9.80328 9.77642 9.77642 9.77642 9.77642 11.6523 11.6523 11.6523 11.6523 9.93278 9.93278 9.93278 9.93278 10.1551 10.1551 10.1551 10.1551 9.89757 9.89757 9.89757 9.89757 9.74095 9.74095 9.74095 9.74095 9.55877 9.55877 9.55877 9.55877 9.82924 9.82924 9.82924 9.82924 9.71527 9.71527 9.71527 9.71527 9.57727 9.57727 9.57727 9.57727 9.8448 9.8448 9.8448 9.8448 10.1022 10.1022 10.1022 10.1022 9.67099 9.67099 9.67099 9.67099 9.62391 9.62391 9.62391 9.62391 9.62097 9.62097 9.62097 9.62097 9.10837 9.10837 9.10837 9.10837 9.97553 9.97553 9.97553 9.97553 10.1302 10.1302 10.1302 10.1302 9.46382 9.46382 9.46382 9.46382 9.71601 9.71601 9.71601 9.71601 9.77442 9.77442 9.77442 9.77442 9.93993 9.93993 9.93993 9.93993 9.71498 9.71498 9.71498 9.71498 9.97429 9.97429 9.97429 9.97429 2.92278 2.92278 2.92278 2.92278 9.97666 9.97666 9.97666 9.97666 12.5962 12.5962 12.5962 12.5962 9.9725 9.9725 9.9725 9.9725 11.5128 11.5128 11.5128 11.5128 11.8135 11.8135 11.8135 11.8135 4.56291 4.56291 4.56291 4.56291 9.93879 9.93879 9.93879 9.93879 8.04934 8.04934 8.04934 8.04934 11.0274 11.0274 11.0274 11.0274 11.2556 11.2556 11.2556 11.2556 9.43495 9.43495 9.43495 9.43495 9.78547 9.78547 9.78547 9.78547 9.50726 9.50726 9.50726 9.50726 9.58375 9.58375 9.58375 9.58375 9.74201 9.74201 9.74201 9.74201 9.97928 9.97928 9.97928 9.97928 9.80951 9.80951 9.80951 9.80951 9.90112 9.90112 9.90112 9.90112 9.28048 9.28048 9.28048 9.28048 9.92102 9.92102 9.92102 9.92102 3.65076 3.65076 3.65076 3.65076 9.61341 9.61341 9.61341 9.61341 9.72518 9.72518 9.72518 9.72518 9.69998 9.69998 9.69998 9.69998 9.97459 9.97459 9.97459 9.97459 10.8554 10.8554 10.8554 10.8554 6.62265 6.62265 6.62265 6.62265 9.60077 9.60077 9.60077 9.60077 9.65519 9.65519 9.65519 9.65519 9.51145 9.51145 9.51145 9.51145 9.76274 9.76274 9.76274 9.76274 9.69501 9.69501 9.69501 9.69501 4.08675 4.08675 4.08675 4.08675 9.98144 9.98144 9.98144 9.98144 14.562 14.562 14.562 14.562 11.0053 11.0053 11.0053 11.0053 10.9854 10.9854 10.9854 10.9854 12.0907 12.0907 12.0907 12.0907 9.80904 9.80904 9.80904 9.80904 9.64484 9.64484 9.64484 9.64484 9.67152 9.67152 9.67152 9.67152 10.1872 10.1872 10.1872 10.1872 9.8266 9.8266 9.8266 9.8266 9.93939 9.93939 9.93939 9.93939 6.34733 6.34733 6.34733 6.34733 11.8312 11.8312 11.8312 11.8312 11.2307 11.2307 11.2307 11.2307 9.97924 9.97924 9.97924 9.97924 9.94596 9.94596 9.94596 9.94596 9.54111 9.54111 9.54111 9.54111 8.35425 8.35425 8.35425 8.35425 9.75438 9.75438 9.75438 9.75438 9.69688 9.69688 9.69688 9.69688 9.66173 9.66173 9.66173 9.66173 9.5237 9.5237 9.5237 9.5237 9.97074 9.97074 9.97074 9.97074 10.9833 10.9833 10.9833 10.9833 10.587 10.587 10.587 10.587 9.57356 9.57356 9.57356 9.57356 9.82148 9.82148 9.82148 9.82148 11.6741 11.6741 11.6741 11.6741 10.0502 10.0502 10.0502 10.0502 9.93108 9.93108 9.93108 9.93108 9.97293 9.97293 9.97293 9.97293 9.93776 9.93776 9.93776 9.93776 9.79209 9.79209 9.79209 9.79209 7.86666 7.86666 7.86666 7.86666 9.50822 9.50822 9.50822 9.50822 9.97932 9.97932 9.97932 9.97932 9.89802 9.89802 9.89802 9.89802 9.79104 9.79104 9.79104 9.79104 9.9693 9.9693 9.9693 9.9693 9.98331 9.98331 9.98331 9.98331 9.98215 9.98215 9.98215 9.98215 6.2665 6.2665 6.2665 6.2665 11.8927 11.8927 11.8927 11.8927 9.52251 9.52251 9.52251 9.52251 9.96364 9.96364 9.96364 9.96364 9.94051 9.94051 9.94051 9.94051 9.33853 9.33853 9.33853 9.33853 10.32 10.32 10.32 10.32 3.23561 3.23561 3.23561 3.23561 9.69188 9.69188 9.69188 9.69188 10.9419 10.9419 10.9419 10.9419 9.59107 9.59107 9.59107 9.59107 9.69486 9.69486 9.69486 9.69486 11.3772 11.3772 11.3772 11.3772 9.63744 9.63744 9.63744 9.63744 9.56918 9.56918 9.56918 9.56918 9.6972 9.6972 9.6972 9.6972 9.688 9.688 9.688 9.688 9.97246 9.97246 9.97246 9.97246 9.94052 9.94052 9.94052 9.94052 9.97503 9.97503 9.97503 9.97503 9.81974 9.81974 9.81974 9.81974 9.91188 9.91188 9.91188 9.91188 9.15905 9.15905 9.15905 9.15905 9.97845 9.97845 9.97845 9.97845 4.79665 4.79665 4.79665 4.79665 12.3729 12.3729 12.3729 12.3729 9.89659 9.89659 9.89659 9.89659 9.94933 9.94933 9.94933 9.94933 9.44024 9.44024 9.44024 9.44024 9.93963 9.93963 9.93963 9.93963 10.7603 10.7603 10.7603 10.7603 9.97303 9.97303 9.97303 9.97303 9.4393 9.4393 9.4393 9.4393 9.57841 9.57841 9.57841 9.57841 9.97306 9.97306 9.97306 9.97306 9.78477 9.78477 9.78477 9.78477 9.66155 9.66155 9.66155 9.66155 3.68666 3.68666 3.68666 3.68666 9.3959 9.3959 9.3959 9.3959 9.51546 9.51546 9.51546 9.51546 9.6871 9.6871 9.6871 9.6871 9.54013 9.54013 9.54013 9.54013 9.97566 9.97566 9.97566 9.97566 9.90048 9.90048 9.90048 9.90048 11.7556 11.7556 11.7556 11.7556 9.71337 9.71337 9.71337 9.71337 9.97305 9.97305 9.97305 9.97305 9.97419 9.97419 9.97419 9.97419 9.50111 9.50111 9.50111 9.50111 9.93569 9.93569 9.93569 9.93569 4.05619 4.05619 4.05619 4.05619 9.96439 9.96439 9.96439 9.96439 10.0568 10.0568 10.0568 10.0568 9.51272 9.51272 9.51272 9.51272 10.1077 10.1077 10.1077 10.1077 9.93591 9.93591 9.93591 9.93591 9.79501 9.79501 9.79501 9.79501 11.1154 11.1154 11.1154 11.1154 9.79556 9.79556 9.79556 9.79556 9.80289 9.80289 9.80289 9.80289 9.49511 9.49511 9.49511 9.49511 9.94341 9.94341 9.94341 9.94341 4.03811 4.03811 4.03811 4.03811 10.9419 10.9419 10.9419 10.9419 9.92676 9.92676 9.92676 9.92676 9.78724 9.78724 9.78724 9.78724 9.53268 9.53268 9.53268 9.53268 9.64663 9.64663 9.64663 9.64663 10.8165 10.8165 10.8165 10.8165 9.97687 9.97687 9.97687 9.97687 9.9734 9.9734 9.9734 9.9734 9.59979 9.59979 9.59979 9.59979 9.94671 9.94671 9.94671 9.94671 9.93864 9.93864 9.93864 9.93864 9.97683 9.97683 9.97683 9.97683 9.7665 9.7665 9.7665 9.7665 9.89515 9.89515 9.89515 9.89515 11.6145 11.6145 11.6145 11.6145 9.97201 9.97201 9.97201 9.97201 3.39507 3.39507 3.39507 3.39507 9.94154 9.94154 9.94154 9.94154 6.87037 6.87037 6.87037 6.87037 9.70722 9.70722 9.70722 9.70722 9.73246 9.73246 9.73246 9.73246 9.97032 9.97032 9.97032 9.97032 9.55956 9.55956 9.55956 9.55956 9.53776 9.53776 9.53776 9.53776 9.97466 9.97466 9.97466 9.97466 9.89525 9.89525 9.89525 9.89525 12.3174 12.3174 12.3174 12.3174 9.36937 9.36937 9.36937 9.36937 9.56005 9.56005 9.56005 9.56005 9.84109 9.84109 9.84109 9.84109 9.90036 9.90036 9.90036 9.90036 9.44462 9.44462 9.44462 9.44462 9.97655 9.97655 9.97655 9.97655 10.6972 10.6972 10.6972 10.6972 9.81197 9.81197 9.81197 9.81197 9.97875 9.97875 9.97875 9.97875 9.8779 9.8779 9.8779 9.8779 9.62144 9.62144 9.62144 9.62144 8.66309 8.66309 8.66309 8.66309 9.93907 9.93907 9.93907 9.93907 9.54799 9.54799 9.54799 9.54799 9.89765 9.89765 9.89765 9.89765 9.97052 9.97052 9.97052 9.97052 9.65971 9.65971 9.65971 9.65971 9.77571 9.77571 9.77571 9.77571 10.2447 10.2447 10.2447 10.2447 12.4419 12.4419 12.4419 12.4419 9.47208 9.47208 9.47208 9.47208 9.97823 9.97823 9.97823 9.97823 3.82648 3.82648 3.82648 3.82648 10.6667 10.6667 10.6667 10.6667 8.68241 8.68241 8.68241 8.68241 9.63121 9.63121 9.63121 9.63121 9.78857 9.78857 9.78857 9.78857 9.55202 9.55202 9.55202 9.55202 9.69718 9.69718 9.69718 9.69718 2.89862 2.89862 2.89862 2.89862 9.9766 9.9766 9.9766 9.9766 9.56727 9.56727 9.56727 9.56727 9.98103 9.98103 9.98103 9.98103 9.97674 9.97674 9.97674 9.97674 9.65474 9.65474 9.65474 9.65474 9.55411 9.55411 9.55411 9.55411 9.77899 9.77899 9.77899 9.77899 9.57718 9.57718 9.57718 9.57718 9.97259 9.97259 9.97259 9.97259 9.54118 9.54118 9.54118 9.54118 9.72207 9.72207 9.72207 9.72207 10.0689 10.0689 10.0689 10.0689 2.98627 2.98627 2.98627 2.98627 9.17771 9.17771 9.17771 9.17771 9.52976 9.52976 9.52976 9.52976 9.94037 9.94037 9.94037 9.94037 10.3635 10.3635 10.3635 10.3635 9.58657 9.58657 9.58657 9.58657 9.98118 9.98118 9.98118 9.98118 9.58326 9.58326 9.58326 9.58326 9.93844 9.93844 9.93844 9.93844 11.0383 11.0383 11.0383 11.0383 9.41182 9.41182 9.41182 9.41182 9.97328 9.97328 9.97328 9.97328 9.94029 9.94029 9.94029 9.94029 9.62134 9.62134 9.62134 9.62134 9.93715 9.93715 9.93715 9.93715 13.3262 13.3262 13.3262 13.3262 13.8536 13.8536 13.8536 13.8536 9.60479 9.60479 9.60479 9.60479 9.7861 9.7861 9.7861 9.7861 9.50205 9.50205 9.50205 9.50205 10.1507 10.1507 10.1507 10.1507 9.94022 9.94022 9.94022 9.94022 4.08221 4.08221 4.08221 4.08221 10.7298 10.7298 10.7298 10.7298 9.64312 9.64312 9.64312 9.64312 9.54288 9.54288 9.54288 9.54288 10.1858 10.1858 10.1858 10.1858 9.55545 9.55545 9.55545 9.55545 9.56429 9.56429 9.56429 9.56429 9.38038 9.38038 9.38038 9.38038 11.891 11.891 11.891 11.891 9.79478 9.79478 9.79478 9.79478 2.9583 2.9583 2.9583 2.9583 9.9724 9.9724 9.9724 9.9724 9.93346 9.93346 9.93346 9.93346 9.74157 9.74157 9.74157 9.74157 9.84342 9.84342 9.84342 9.84342 10.0083 10.0083 10.0083 10.0083 9.93947 9.93947 9.93947 9.93947 9.91015 9.91015 9.91015 9.91015 9.65082 9.65082 9.65082 9.65082 3.29031 3.29031 3.29031 3.29031 11.8134 11.8134 11.8134 11.8134 9.97465 9.97465 9.97465 9.97465 11.5024 11.5024 11.5024 11.5024 9.36029 9.36029 9.36029 9.36029 3.47681 3.47681 3.47681 3.47681 9.28294 9.28294 9.28294 9.28294 9.68084 9.68084 9.68084 9.68084 11.2192 11.2192 11.2192 11.2192 9.93561 9.93561 9.93561 9.93561 10.0639 10.0639 10.0639 10.0639 9.61412 9.61412 9.61412 9.61412 9.91274 9.91274 9.91274 9.91274 9.97639 9.97639 9.97639 9.97639 9.60408 9.60408 9.60408 9.60408 9.67132 9.67132 9.67132 9.67132 11.1638 11.1638 11.1638 11.1638 9.78711 9.78711 9.78711 9.78711 9.99083 9.99083 9.99083 9.99083 9.7792 9.7792 9.7792 9.7792 9.8542 9.8542 9.8542 9.8542 9.78247 9.78247 9.78247 9.78247 9.94367 9.94367 9.94367 9.94367 9.86767 9.86767 9.86767 9.86767 9.80495 9.80495 9.80495 9.80495 9.68329 9.68329 9.68329 9.68329 9.666 9.666 9.666 9.666 11.4442 11.4442 11.4442 11.4442 4.20388 4.20388 4.20388 4.20388 10.0516 10.0516 10.0516 10.0516 9.21499 9.21499 9.21499 9.21499 9.83756 9.83756 9.83756 9.83756 9.93585 9.93585 9.93585 9.93585 6.6711 6.6711 6.6711 6.6711 9.57584 9.57584 9.57584 9.57584 9.97654 9.97654 9.97654 9.97654 2.84916 2.84916 2.84916 2.84916 9.97161 9.97161 9.97161 9.97161 9.97887 9.97887 9.97887 9.97887 9.50087 9.50087 9.50087 9.50087 9.56883 9.56883 9.56883 9.56883 9.37202 9.37202 9.37202 9.37202 9.84035 9.84035 9.84035 9.84035 9.47861 9.47861 9.47861 9.47861 5.34155 5.34155 5.34155 5.34155 9.56437 9.56437 9.56437 9.56437 9.59223 9.59223 9.59223 9.59223 9.7344 9.7344 9.7344 9.7344 9.94021 9.94021 9.94021 9.94021 9.97056 9.97056 9.97056 9.97056 9.97218 9.97218 9.97218 9.97218 3.94943 3.94943 3.94943 3.94943 9.70329 9.70329 9.70329 9.70329 9.52845 9.52845 9.52845 9.52845 9.94257 9.94257 9.94257 9.94257 9.97812 9.97812 9.97812 9.97812 9.97767 9.97767 9.97767 9.97767 9.99667 9.99667 9.99667 9.99667 9.58505 9.58505 9.58505 9.58505 9.97239 9.97239 9.97239 9.97239 9.97721 9.97721 9.97721 9.97721 9.8951 9.8951 9.8951 9.8951 9.82261 9.82261 9.82261 9.82261 9.97765 9.97765 9.97765 9.97765 9.84273 9.84273 9.84273 9.84273 9.0612 9.0612 9.0612 9.0612 9.9301 9.9301 9.9301 9.9301 9.98116 9.98116 9.98116 9.98116 9.80421 9.80421 9.80421 9.80421 9.53406 9.53406 9.53406 9.53406 9.98266 9.98266 9.98266 9.98266 10.1479 10.1479 10.1479 10.1479 11.0358 11.0358 11.0358 11.0358 10.1316 10.1316 10.1316 10.1316 9.84405 9.84405 9.84405 9.84405 9.73458 9.73458 9.73458 9.73458 11.5114 11.5114 11.5114 11.5114 9.97514 9.97514 9.97514 9.97514 9.97631 9.97631 9.97631 9.97631 2.99157 2.99157 2.99157 2.99157 11.6086 11.6086 11.6086 11.6086 9.9743 9.9743 9.9743 9.9743 9.84308 9.84308 9.84308 9.84308 9.73246 9.73246 9.73246 9.73246 9.97257 9.97257 9.97257 9.97257 3.0413 3.0413 3.0413 3.0413 9.5665 9.5665 9.5665 9.5665 12.4659 12.4659 12.4659 12.4659 9.89685 9.89685 9.89685 9.89685 10.0815 10.0815 10.0815 10.0815 9.67484 9.67484 9.67484 9.67484 11.468 11.468 11.468 11.468 9.98017 9.98017 9.98017 9.98017 9.83389 9.83389 9.83389 9.83389 9.88174 9.88174 9.88174 9.88174 9.95943 9.95943 9.95943 9.95943 9.9738 9.9738 9.9738 9.9738 3.8568 3.8568 3.8568 3.8568 9.4813 9.4813 9.4813 9.4813 9.94514 9.94514 9.94514 9.94514 10.1537 10.1537 10.1537 10.1537 9.83763 9.83763 9.83763 9.83763 9.66963 9.66963 9.66963 9.66963 9.89889 9.89889 9.89889 9.89889 9.97807 9.97807 9.97807 9.97807 9.9826 9.9826 9.9826 9.9826 9.43907 9.43907 9.43907 9.43907 9.98424 9.98424 9.98424 9.98424 9.45219 9.45219 9.45219 9.45219 9.47766 9.47766 9.47766 9.47766 9.60987 9.60987 9.60987 9.60987 9.86099 9.86099 9.86099 9.86099 9.59372 9.59372 9.59372 9.59372 9.87066 9.87066 9.87066 9.87066 3.3473 3.3473 3.3473 3.3473 9.68304 9.68304 9.68304 9.68304 10.8167 10.8167 10.8167 10.8167 10.1702 10.1702 10.1702 10.1702 10.1859 10.1859 10.1859 10.1859 9.98011 9.98011 9.98011 9.98011 9.94137 9.94137 9.94137 9.94137 9.87499 9.87499 9.87499 9.87499 9.84486 9.84486 9.84486 9.84486 9.81488 9.81488 9.81488 9.81488 9.93511 9.93511 9.93511 9.93511 12.3783 12.3783 12.3783 12.3783 9.80315 9.80315 9.80315 9.80315 9.97734 9.97734 9.97734 9.97734 9.5025 9.5025 9.5025 9.5025 9.8484 9.8484 9.8484 9.8484 9.93765 9.93765 9.93765 9.93765 9.93193 9.93193 9.93193 9.93193 9.85609 9.85609 9.85609 9.85609 9.75015 9.75015 9.75015 9.75015 9.9526 9.9526 9.9526 9.9526 9.69024 9.69024 9.69024 9.69024 9.93998 9.93998 9.93998 9.93998 9.85088 9.85088 9.85088 9.85088 9.42564 9.42564 9.42564 9.42564 9.97903 9.97903 9.97903 9.97903 9.97539 9.97539 9.97539 9.97539 9.95002 9.95002 9.95002 9.95002 9.58657 9.58657 9.58657 9.58657 11.8967 11.8967 11.8967 11.8967 11.1114 11.1114 11.1114 11.1114 4.43249 4.43249 4.43249 4.43249 10.1001 10.1001 10.1001 10.1001 10.0606 10.0606 10.0606 10.0606 10.722 10.722 10.722 10.722 9.97179 9.97179 9.97179 9.97179 9.98208 9.98208 9.98208 9.98208 9.56247 9.56247 9.56247 9.56247 12.2629 12.2629 12.2629 12.2629 9.98336 9.98336 9.98336 9.98336 12.0774 12.0774 12.0774 12.0774 9.50419 9.50419 9.50419 9.50419 9.97761 9.97761 9.97761 9.97761 9.98139 9.98139 9.98139 9.98139 9.84597 9.84597 9.84597 9.84597 9.84306 9.84306 9.84306 9.84306 9.98053 9.98053 9.98053 9.98053 9.53336 9.53336 9.53336 9.53336 13.0461 13.0461 13.0461 13.0461 9.71294 9.71294 9.71294 9.71294 9.93294 9.93294 9.93294 9.93294 4.16504 4.16504 4.16504 4.16504 11.0683 11.0683 11.0683 11.0683 2.96432 2.96432 2.96432 2.96432 9.93734 9.93734 9.93734 9.93734 9.84249 9.84249 9.84249 9.84249 9.97084 9.97084 9.97084 9.97084 9.97853 9.97853 9.97853 9.97853 9.97666 9.97666 9.97666 9.97666 9.97617 9.97617 9.97617 9.97617 10.0305 10.0305 10.0305 10.0305 9.86189 9.86189 9.86189 9.86189 9.59055 9.59055 9.59055 9.59055 9.7613 9.7613 9.7613 9.7613 10.3117 10.3117 10.3117 10.3117 9.66101 9.66101 9.66101 9.66101 10.0795 10.0795 10.0795 10.0795 9.75208 9.75208 9.75208 9.75208 9.84108 9.84108 9.84108 9.84108 9.93625 9.93625 9.93625 9.93625 9.97268 9.97268 9.97268 9.97268 9.91217 9.91217 9.91217 9.91217 10.144 10.144 10.144 10.144 9.94428 9.94428 9.94428 9.94428 12.8644 12.8644 12.8644 12.8644 11.4021 11.4021 11.4021 11.4021 4.23386 4.23386 4.23386 4.23386 9.68204 9.68204 9.68204 9.68204 9.73649 9.73649 9.73649 9.73649 9.70375 9.70375 9.70375 9.70375 9.8748 9.8748 9.8748 9.8748 9.97928 9.97928 9.97928 9.97928 9.63511 9.63511 9.63511 9.63511 9.98258 9.98258 9.98258 9.98258 12.7492 12.7492 12.7492 12.7492 9.91162 9.91162 9.91162 9.91162 9.88438 9.88438 9.88438 9.88438 9.88184 9.88184 9.88184 9.88184 10.0609 10.0609 10.0609 10.0609 12.1755 12.1755 12.1755 12.1755 9.98177 9.98177 9.98177 9.98177 11.1361 11.1361 11.1361 11.1361 4.17441 4.17441 4.17441 4.17441 9.98125 9.98125 9.98125 9.98125 9.97632 9.97632 9.97632 9.97632 9.94451 9.94451 9.94451 9.94451 9.98281 9.98281 9.98281 9.98281 9.58851 9.58851 9.58851 9.58851 10.1748 10.1748 10.1748 10.1748 10.0797 10.0797 10.0797 10.0797 9.8589 9.8589 9.8589 9.8589 9.95092 9.95092 9.95092 9.95092 2.88222 2.88222 2.88222 2.88222 10.7577 10.7577 10.7577 10.7577 11.105 11.105 11.105 11.105 11.2188 11.2188 11.2188 11.2188 3.26582 3.26582 3.26582 3.26582 11.1174 11.1174 11.1174 11.1174 3.16742 3.16742 3.16742 3.16742 11.9004 11.9004 11.9004 11.9004 9.49301 9.49301 9.49301 9.49301 9.9801 9.9801 9.9801 9.9801 9.98324 9.98324 9.98324 9.98324 9.51181 9.51181 9.51181 9.51181 9.3886 9.3886 9.3886 9.3886 9.97834 9.97834 9.97834 9.97834 11.3204 11.3204 11.3204 11.3204 11.0618 11.0618 11.0618 11.0618 9.98262 9.98262 9.98262 9.98262 9.51286 9.51286 9.51286 9.51286 3.93286 3.93286 3.93286 3.93286 10.3081 10.3081 10.3081 10.3081 9.98253 9.98253 9.98253 9.98253 13.6117 13.6117 13.6117 13.6117 9.54251 9.54251 9.54251 9.54251 9.98181 9.98181 9.98181 9.98181 10.0021 10.0021 10.0021 10.0021 9.98337 9.98337 9.98337 9.98337 9.98299 9.98299 9.98299 9.98299 10.8013 10.8013 10.8013 10.8013 11.4668 11.4668 11.4668 11.4668 9.97884 9.97884 9.97884 9.97884 9.98411 9.98411 9.98411 9.98411 12.7918 12.7918 12.7918 12.7918 12.5737 12.5737 12.5737 12.5737 9.93663 9.93663 9.93663 9.93663 9.77006 9.77006 9.77006 9.77006 9.98168 9.98168 9.98168 9.98168 10.9377 10.9377 10.9377 10.9377 9.94188 9.94188 9.94188 9.94188 9.98043 9.98043 9.98043 9.98043 9.98066 9.98066 9.98066 9.98066 10.0857 10.0857 10.0857 10.0857 3.26049 3.26049 3.26049 3.26049 9.58807 9.58807 9.58807 9.58807 10.7377 10.7377 10.7377 10.7377 11.881 11.881 11.881 11.881 9.98346 9.98346 9.98346 9.98346 9.98523 9.98523 9.98523 9.98523 9.987 9.987 9.987 9.987 11.0911 11.0911 11.0911 11.0911 10.0201 10.0201 10.0201 10.0201 9.98599 9.98599 9.98599 9.98599 9.76238 9.76238 9.76238 9.76238 9.88408 9.88408 9.88408 9.88408 9.98259 9.98259 9.98259 9.98259 10.1016 10.1016 10.1016 10.1016 10.0358 10.0358 10.0358 10.0358 10.0271 10.0271 10.0271 10.0271 11.9333 11.9333 11.9333 11.9333 9.98721 9.98721 9.98721 9.98721 10.2802 10.2802 10.2802 10.2802 9.96914 9.96914 9.96914 9.96914 9.98816 9.98816 9.98816 9.98816 9.95153 9.95153 9.95153 9.95153 9.98021 9.98021 9.98021 9.98021 9.98892 9.98892 9.98892 9.98892 9.97337 9.97337 9.97337 9.97337 4.43482 4.43482 4.43482 4.43482 4.21928 4.21928 4.21928 4.21928 10.1227 10.1227 10.1227 10.1227 9.98896 9.98896 9.98896 9.98896 10.0486 10.0486 10.0486 10.0486 9.98411 9.98411 9.98411 9.98411 10.0179 10.0179 10.0179 10.0179 9.9847 9.9847 9.9847 9.9847 9.98329 9.98329 9.98329 9.98329 9.98434 9.98434 9.98434 9.98434 9.98666 9.98666 9.98666 9.98666 9.9829 9.9829 9.9829 9.9829 10.0567 10.0567 10.0567 10.0567 9.98557 9.98557 9.98557 9.98557 9.98704 9.98704 9.98704 9.98704 9.37436 9.37436 9.37436 9.37436 9.52931 9.52931 9.52931 9.52931 9.96195 9.96195 9.96195 9.96195 9.91504 9.91504 9.91504 9.91504 10.7854 10.7854 10.7854 10.7854 10.184 10.184 10.184 10.184 9.81925 9.81925 9.81925 9.81925 9.77625 9.77625 9.77625 9.77625 11.8753 11.8753 11.8753 11.8753 11.1299 11.1299 11.1299 11.1299 9.54208 9.54208 9.54208 9.54208 9.4121 9.4121 9.4121 9.4121 9.37755 9.37755 9.37755 9.37755 9.49229 9.49229 9.49229 9.49229 9.81478 9.81478 9.81478 9.81478 9.56395 9.56395 9.56395 9.56395 9.71209 9.71209 9.71209 9.71209 9.75412 9.75412 9.75412 9.75412 9.92045 9.92045 9.92045 9.92045 9.84906 9.84906 9.84906 9.84906 9.96115 9.96115 9.96115 9.96115 9.88322 9.88322 9.88322 9.88322 9.70544 9.70544 9.70544 9.70544 9.70123 9.70123 9.70123 9.70123 9.53951 9.53951 9.53951 9.53951 9.48611 9.48611 9.48611 9.48611 11.7929 11.7929 11.7929 11.7929 10.2334 10.2334 10.2334 10.2334 9.92027 9.92027 9.92027 9.92027 9.86517 9.86517 9.86517 9.86517 9.38574 9.38574 9.38574 9.38574 9.20871 9.20871 9.20871 9.20871 5.77313 5.77313 5.77313 5.77313 8.07683 8.07683 8.07683 8.07683 12.7457 12.7457 12.7457 12.7457 9.63637 9.63637 9.63637 9.63637 9.73049 9.73049 9.73049 9.73049 9.71527 9.71527 9.71527 9.71527 9.55267 9.55267 9.55267 9.55267 9.55824 9.55824 9.55824 9.55824 11.6437 11.6437 11.6437 11.6437 10.4676 10.4676 10.4676 10.4676 10.9405 10.9405 10.9405 10.9405 10.3895 10.3895 10.3895 10.3895 9.92045 9.92045 9.92045 9.92045 9.86807 9.86807 9.86807 9.86807 9.96828 9.96828 9.96828 9.96828 9.91627 9.91627 9.91627 9.91627 9.52188 9.52188 9.52188 9.52188 9.45914 9.45914 9.45914 9.45914 9.92269 9.92269 9.92269 9.92269 9.83996 9.83996 9.83996 9.83996 8.21256 8.21256 8.21256 8.21256 5.5768 5.5768 5.5768 5.5768 9.2007 9.2007 9.2007 9.2007 9.20621 9.20621 9.20621 9.20621 9.86987 9.86987 9.86987 9.86987 9.84246 9.84246 9.84246 9.84246 9.81081 9.81081 9.81081 9.81081 9.54984 9.54984 9.54984 9.54984 9.54241 9.54241 9.54241 9.54241 8.78139 8.78139 8.78139 8.78139 9.45926 9.45926 9.45926 9.45926 6.01022 6.01022 6.01022 6.01022 7.96182 7.96182 7.96182 7.96182 9.90321 9.90321 9.90321 9.90321 9.85272 9.85272 9.85272 9.85272 3.25602 3.25602 3.25602 3.25602 5.14507 5.14507 5.14507 5.14507 8.81999 8.81999 8.81999 8.81999 9.59491 9.59491 9.59491 9.59491 9.61227 9.61227 9.61227 9.61227 9.72569 9.72569 9.72569 9.72569 9.73706 9.73706 9.73706 9.73706 9.73685 9.73685 9.73685 9.73685 9.60773 9.60773 9.60773 9.60773 9.49326 9.49326 9.49326 9.49326 9.70573 9.70573 9.70573 9.70573 9.72277 9.72277 9.72277 9.72277 8.98652 8.98652 8.98652 8.98652 13.218 13.218 13.218 13.218 9.9622 9.9622 9.9622 9.9622 9.92198 9.92198 9.92198 9.92198 9.75938 9.75938 9.75938 9.75938 9.74478 9.74478 9.74478 9.74478 9.71534 9.71534 9.71534 9.71534 9.66219 9.66219 9.66219 9.66219 9.89348 9.89348 9.89348 9.89348 9.93175 9.93175 9.93175 9.93175 6.3984 6.3984 6.3984 6.3984 7.7197 7.7197 7.7197 7.7197 13.0684 13.0684 13.0684 13.0684 10.856 10.856 10.856 10.856 13.3089 13.3089 13.3089 13.3089 10.8894 10.8894 10.8894 10.8894 10.0854 10.0854 10.0854 10.0854 9.93036 9.93036 9.93036 9.93036 9.69266 9.69266 9.69266 9.69266 9.61511 9.61511 9.61511 9.61511 9.75797 9.75797 9.75797 9.75797 9.79109 9.79109 9.79109 9.79109 9.62812 9.62812 9.62812 9.62812 9.61949 9.61949 9.61949 9.61949 9.74022 9.74022 9.74022 9.74022 9.78905 9.78905 9.78905 9.78905 9.39115 9.39115 9.39115 9.39115 9.15405 9.15405 9.15405 9.15405 9.94274 9.94274 9.94274 9.94274 9.97356 9.97356 9.97356 9.97356 7.59846 7.59846 7.59846 7.59846 2.30306 2.30306 2.30306 2.30306 9.89252 9.89252 9.89252 9.89252 9.93467 9.93467 9.93467 9.93467 9.96469 9.96469 9.96469 9.96469 9.94309 9.94309 9.94309 9.94309 9.96472 9.96472 9.96472 9.96472 9.91516 9.91516 9.91516 9.91516 3.34022 3.34022 3.34022 3.34022 7.61285 7.61285 7.61285 7.61285 9.58907 9.58907 9.58907 9.58907 9.74349 9.74349 9.74349 9.74349 3.0479 3.0479 3.0479 3.0479 5.85053 5.85053 5.85053 5.85053 9.89446 9.89446 9.89446 9.89446 9.93045 9.93045 9.93045 9.93045 10.0607 10.0607 10.0607 10.0607 9.56022 9.56022 9.56022 9.56022 11.6328 11.6328 11.6328 11.6328 10.0829 10.0829 10.0829 10.0829 9.70137 9.70137 9.70137 9.70137 9.72635 9.72635 9.72635 9.72635 9.8516 9.8516 9.8516 9.8516 11.1488 11.1488 11.1488 11.1488 9.52859 9.52859 9.52859 9.52859 9.49342 9.49342 9.49342 9.49342 9.50757 9.50757 9.50757 9.50757 9.52029 9.52029 9.52029 9.52029 2.83003 2.83003 2.83003 2.83003 4.71297 4.71297 4.71297 4.71297 9.89127 9.89127 9.89127 9.89127 10.1151 10.1151 10.1151 10.1151 9.59768 9.59768 9.59768 9.59768 9.60896 9.60896 9.60896 9.60896 9.52276 9.52276 9.52276 9.52276 9.50786 9.50786 9.50786 9.50786 9.66525 9.66525 9.66525 9.66525 9.82281 9.82281 9.82281 9.82281 9.81079 9.81079 9.81079 9.81079 9.73017 9.73017 9.73017 9.73017 9.96798 9.96798 9.96798 9.96798 9.92114 9.92114 9.92114 9.92114 9.77155 9.77155 9.77155 9.77155 9.72269 9.72269 9.72269 9.72269 11.2935 11.2935 11.2935 11.2935 10.2153 10.2153 10.2153 10.2153 9.75316 9.75316 9.75316 9.75316 9.85886 9.85886 9.85886 9.85886 -9.67436 -9.67436 -9.67436 -9.67436 -9.50467 -9.50467 -9.50467 -9.50467 -11.4001 -11.4001 -11.4001 -11.4001 -9.87343 -9.87343 -9.87343 -9.87343 -6.88635 -6.88635 -6.88635 -6.88635 -8.6985 -8.6985 -8.6985 -8.6985 -8.94311 -8.94311 -8.94311 -8.94311 -9.76719 -9.76719 -9.76719 -9.76719 -8.09181 -8.09181 -8.09181 -8.09181 -7.19281 -7.19281 -7.19281 -7.19281 -9.74085 -9.74085 -9.74085 -9.74085 -9.91603 -9.91603 -9.91603 -9.91603 -3.06096 -3.06096 -3.06096 -3.06096 -9.73339 -9.73339 -9.73339 -9.73339 -9.68501 -9.68501 -9.68501 -9.68501 -9.42917 -9.42917 -9.42917 -9.42917 -9.75314 -9.75314 -9.75314 -9.75314 -9.90439 -9.90439 -9.90439 -9.90439 -9.87877 -9.87877 -9.87877 -9.87877 -9.71533 -9.71533 -9.71533 -9.71533 -10.5437 -10.5437 -10.5437 -10.5437 -9.62041 -9.62041 -9.62041 -9.62041 -9.70994 -9.70994 -9.70994 -9.70994 -9.63057 -9.63057 -9.63057 -9.63057 -9.59982 -9.59982 -9.59982 -9.59982 -9.66635 -9.66635 -9.66635 -9.66635 -9.89156 -9.89156 -9.89156 -9.89156 -9.80676 -9.80676 -9.80676 -9.80676 -9.7979 -9.7979 -9.7979 -9.7979 -9.35352 -9.35352 -9.35352 -9.35352 -11.3893 -11.3893 -11.3893 -11.3893 -9.6582 -9.6582 -9.6582 -9.6582 -9.63478 -9.63478 -9.63478 -9.63478 -9.69433 -9.69433 -9.69433 -9.69433 -9.63786 -9.63786 -9.63786 -9.63786 -9.95807 -9.95807 -9.95807 -9.95807 -10.0249 -10.0249 -10.0249 -10.0249 -9.69509 -9.69509 -9.69509 -9.69509 -9.58319 -9.58319 -9.58319 -9.58319 -9.74706 -9.74706 -9.74706 -9.74706 -9.52644 -9.52644 -9.52644 -9.52644 -9.55695 -9.55695 -9.55695 -9.55695 -9.64053 -9.64053 -9.64053 -9.64053 -9.66707 -9.66707 -9.66707 -9.66707 -9.5837 -9.5837 -9.5837 -9.5837 -8.74186 -8.74186 -8.74186 -8.74186 -9.88308 -9.88308 -9.88308 -9.88308 -9.56291 -9.56291 -9.56291 -9.56291 -11.307 -11.307 -11.307 -11.307 -9.82545 -9.82545 -9.82545 -9.82545 -9.76962 -9.76962 -9.76962 -9.76962 -9.68465 -9.68465 -9.68465 -9.68465 -9.72288 -9.72288 -9.72288 -9.72288 -10.0397 -10.0397 -10.0397 -10.0397 -10.0103 -10.0103 -10.0103 -10.0103 -9.78461 -9.78461 -9.78461 -9.78461 -9.74465 -9.74465 -9.74465 -9.74465 -9.43325 -9.43325 -9.43325 -9.43325 -9.67256 -9.67256 -9.67256 -9.67256 -9.96317 -9.96317 -9.96317 -9.96317 -9.70265 -9.70265 -9.70265 -9.70265 -9.79904 -9.79904 -9.79904 -9.79904 -9.61522 -9.61522 -9.61522 -9.61522 -10.0422 -10.0422 -10.0422 -10.0422 -10.0312 -10.0312 -10.0312 -10.0312 -9.67706 -9.67706 -9.67706 -9.67706 -6.66105 -6.66105 -6.66105 -6.66105 -8.74158 -8.74158 -8.74158 -8.74158 -11.5008 -11.5008 -11.5008 -11.5008 -9.70712 -9.70712 -9.70712 -9.70712 -9.82137 -9.82137 -9.82137 -9.82137 -9.57994 -9.57994 -9.57994 -9.57994 -9.43952 -9.43952 -9.43952 -9.43952 -9.39959 -9.39959 -9.39959 -9.39959 -8.04059 -8.04059 -8.04059 -8.04059 -9.76816 -9.76816 -9.76816 -9.76816 -9.89701 -9.89701 -9.89701 -9.89701 -9.65252 -9.65252 -9.65252 -9.65252 -9.43905 -9.43905 -9.43905 -9.43905 -9.70301 -9.70301 -9.70301 -9.70301 -3.46297 -3.46297 -3.46297 -3.46297 -9.44815 -9.44815 -9.44815 -9.44815 -9.82117 -9.82117 -9.82117 -9.82117 -9.62015 -9.62015 -9.62015 -9.62015 -9.63411 -9.63411 -9.63411 -9.63411 -9.89604 -9.89604 -9.89604 -9.89604 -9.63487 -9.63487 -9.63487 -9.63487 -7.22427 -7.22427 -7.22427 -7.22427 -9.90214 -9.90214 -9.90214 -9.90214 -9.84793 -9.84793 -9.84793 -9.84793 -9.90591 -9.90591 -9.90591 -9.90591 -9.9929 -9.9929 -9.9929 -9.9929 -9.93692 -9.93692 -9.93692 -9.93692 -9.6794 -9.6794 -9.6794 -9.6794 -10.8709 -10.8709 -10.8709 -10.8709 -9.574 -9.574 -9.574 -9.574 -10.294 -10.294 -10.294 -10.294 -8.66974 -8.66974 -8.66974 -8.66974 -9.48061 -9.48061 -9.48061 -9.48061 -9.46046 -9.46046 -9.46046 -9.46046 -6.57907 -6.57907 -6.57907 -6.57907 -9.82811 -9.82811 -9.82811 -9.82811 -9.57486 -9.57486 -9.57486 -9.57486 -9.79578 -9.79578 -9.79578 -9.79578 -9.76852 -9.76852 -9.76852 -9.76852 -9.65728 -9.65728 -9.65728 -9.65728 -9.71928 -9.71928 -9.71928 -9.71928 -9.81445 -9.81445 -9.81445 -9.81445 -9.85958 -9.85958 -9.85958 -9.85958 -9.71268 -9.71268 -9.71268 -9.71268 -10.0024 -10.0024 -10.0024 -10.0024 -9.73239 -9.73239 -9.73239 -9.73239 -10.0501 -10.0501 -10.0501 -10.0501 -9.5739 -9.5739 -9.5739 -9.5739 -9.97021 -9.97021 -9.97021 -9.97021 -10.2413 -10.2413 -10.2413 -10.2413 -9.61632 -9.61632 -9.61632 -9.61632 -9.80408 -9.80408 -9.80408 -9.80408 -9.59321 -9.59321 -9.59321 -9.59321 -9.58142 -9.58142 -9.58142 -9.58142 -9.5776 -9.5776 -9.5776 -9.5776 -10.6534 -10.6534 -10.6534 -10.6534 -9.54746 -9.54746 -9.54746 -9.54746 -9.65515 -9.65515 -9.65515 -9.65515 -9.80283 -9.80283 -9.80283 -9.80283 -9.82392 -9.82392 -9.82392 -9.82392 -9.66032 -9.66032 -9.66032 -9.66032 -9.60179 -9.60179 -9.60179 -9.60179 -9.75664 -9.75664 -9.75664 -9.75664 -9.842 -9.842 -9.842 -9.842 -9.63034 -9.63034 -9.63034 -9.63034 -9.61356 -9.61356 -9.61356 -9.61356 -9.72117 -9.72117 -9.72117 -9.72117 -9.73702 -9.73702 -9.73702 -9.73702 -9.55477 -9.55477 -9.55477 -9.55477 -4.14137 -4.14137 -4.14137 -4.14137 -6.07332 -6.07332 -6.07332 -6.07332 -9.70081 -9.70081 -9.70081 -9.70081 -9.8766 -9.8766 -9.8766 -9.8766 -9.78595 -9.78595 -9.78595 -9.78595 -9.74877 -9.74877 -9.74877 -9.74877 -11.855 -11.855 -11.855 -11.855 -9.24174 -9.24174 -9.24174 -9.24174 -3.78439 -3.78439 -3.78439 -3.78439 -9.61039 -9.61039 -9.61039 -9.61039 -9.82385 -9.82385 -9.82385 -9.82385 -9.71955 -9.71955 -9.71955 -9.71955 -9.76044 -9.76044 -9.76044 -9.76044 -9.68767 -9.68767 -9.68767 -9.68767 -9.46784 -9.46784 -9.46784 -9.46784 -10.4271 -10.4271 -10.4271 -10.4271 -9.6748 -9.6748 -9.6748 -9.6748 -9.73656 -9.73656 -9.73656 -9.73656 -9.67367 -9.67367 -9.67367 -9.67367 -9.42344 -9.42344 -9.42344 -9.42344 -3.64674 -3.64674 -3.64674 -3.64674 -9.68396 -9.68396 -9.68396 -9.68396 -9.10046 -9.10046 -9.10046 -9.10046 -9.92724 -9.92724 -9.92724 -9.92724 -9.73267 -9.73267 -9.73267 -9.73267 -9.67899 -9.67899 -9.67899 -9.67899 -9.54489 -9.54489 -9.54489 -9.54489 -9.93257 -9.93257 -9.93257 -9.93257 -9.63412 -9.63412 -9.63412 -9.63412 -12.4474 -12.4474 -12.4474 -12.4474 -5.6024 -5.6024 -5.6024 -5.6024 -9.6536 -9.6536 -9.6536 -9.6536 -11.2597 -11.2597 -11.2597 -11.2597 -6.8416 -6.8416 -6.8416 -6.8416 -9.80515 -9.80515 -9.80515 -9.80515 -9.84382 -9.84382 -9.84382 -9.84382 -9.63956 -9.63956 -9.63956 -9.63956 -9.67418 -9.67418 -9.67418 -9.67418 -9.95501 -9.95501 -9.95501 -9.95501 -9.99389 -9.99389 -9.99389 -9.99389 -9.68436 -9.68436 -9.68436 -9.68436 -9.69358 -9.69358 -9.69358 -9.69358 -9.64918 -9.64918 -9.64918 -9.64918 -8.76861 -8.76861 -8.76861 -8.76861 -9.79245 -9.79245 -9.79245 -9.79245 -9.73431 -9.73431 -9.73431 -9.73431 -9.35726 -9.35726 -9.35726 -9.35726 -10.1188 -10.1188 -10.1188 -10.1188 -9.93521 -9.93521 -9.93521 -9.93521 -9.80224 -9.80224 -9.80224 -9.80224 -9.66231 -9.66231 -9.66231 -9.66231 -9.81346 -9.81346 -9.81346 -9.81346 -9.67648 -9.67648 -9.67648 -9.67648 -9.47605 -9.47605 -9.47605 -9.47605 -11.4281 -11.4281 -11.4281 -11.4281 -9.75879 -9.75879 -9.75879 -9.75879 -9.22002 -9.22002 -9.22002 -9.22002 -9.42067 -9.42067 -9.42067 -9.42067 -9.7249 -9.7249 -9.7249 -9.7249 -9.88145 -9.88145 -9.88145 -9.88145 -10.019 -10.019 -10.019 -10.019 -9.9562 -9.9562 -9.9562 -9.9562 -9.68348 -9.68348 -9.68348 -9.68348 -9.72948 -9.72948 -9.72948 -9.72948 -9.80056 -9.80056 -9.80056 -9.80056 -9.58653 -9.58653 -9.58653 -9.58653 -9.59803 -9.59803 -9.59803 -9.59803 -9.7762 -9.7762 -9.7762 -9.7762 -10.0316 -10.0316 -10.0316 -10.0316 -9.69037 -9.69037 -9.69037 -9.69037 -9.68174 -9.68174 -9.68174 -9.68174 -10.0955 -10.0955 -10.0955 -10.0955 -9.60145 -9.60145 -9.60145 -9.60145 -9.62181 -9.62181 -9.62181 -9.62181 -9.77925 -9.77925 -9.77925 -9.77925 -9.84527 -9.84527 -9.84527 -9.84527 -9.84237 -9.84237 -9.84237 -9.84237 -9.84081 -9.84081 -9.84081 -9.84081 -12.647 -12.647 -12.647 -12.647 -6.2433 -6.2433 -6.2433 -6.2433 -9.52738 -9.52738 -9.52738 -9.52738 -8.83707 -8.83707 -8.83707 -8.83707 -9.87626 -9.87626 -9.87626 -9.87626 -9.69362 -9.69362 -9.69362 -9.69362 -9.6184 -9.6184 -9.6184 -9.6184 -9.73088 -9.73088 -9.73088 -9.73088 -6.35541 -6.35541 -6.35541 -6.35541 -9.73397 -9.73397 -9.73397 -9.73397 -9.66646 -9.66646 -9.66646 -9.66646 -9.78996 -9.78996 -9.78996 -9.78996 -9.97467 -9.97467 -9.97467 -9.97467 -10.8205 -10.8205 -10.8205 -10.8205 -9.97034 -9.97034 -9.97034 -9.97034 -9.65755 -9.65755 -9.65755 -9.65755 -9.3762 -9.3762 -9.3762 -9.3762 -9.93435 -9.93435 -9.93435 -9.93435 -9.63636 -9.63636 -9.63636 -9.63636 -10.0331 -10.0331 -10.0331 -10.0331 -9.64945 -9.64945 -9.64945 -9.64945 -8.93179 -8.93179 -8.93179 -8.93179 -3.40388 -3.40388 -3.40388 -3.40388 -8.97649 -8.97649 -8.97649 -8.97649 -9.79227 -9.79227 -9.79227 -9.79227 -8.48295 -8.48295 -8.48295 -8.48295 -9.70448 -9.70448 -9.70448 -9.70448 -9.73967 -9.73967 -9.73967 -9.73967 -9.34041 -9.34041 -9.34041 -9.34041 -9.76864 -9.76864 -9.76864 -9.76864 -9.66716 -9.66716 -9.66716 -9.66716 -9.78707 -9.78707 -9.78707 -9.78707 -9.1536 -9.1536 -9.1536 -9.1536 -9.71874 -9.71874 -9.71874 -9.71874 -9.11945 -9.11945 -9.11945 -9.11945 -10.0428 -10.0428 -10.0428 -10.0428 -10.935 -10.935 -10.935 -10.935 -9.45351 -9.45351 -9.45351 -9.45351 -9.83021 -9.83021 -9.83021 -9.83021 -9.65578 -9.65578 -9.65578 -9.65578 -9.70397 -9.70397 -9.70397 -9.70397 -9.7509 -9.7509 -9.7509 -9.7509 -10.6859 -10.6859 -10.6859 -10.6859 -9.8277 -9.8277 -9.8277 -9.8277 -9.89958 -9.89958 -9.89958 -9.89958 -9.50482 -9.50482 -9.50482 -9.50482 -9.72887 -9.72887 -9.72887 -9.72887 -9.92952 -9.92952 -9.92952 -9.92952 -10.6617 -10.6617 -10.6617 -10.6617 -9.76871 -9.76871 -9.76871 -9.76871 -9.83163 -9.83163 -9.83163 -9.83163 -9.99406 -9.99406 -9.99406 -9.99406 -9.94857 -9.94857 -9.94857 -9.94857 -9.89183 -9.89183 -9.89183 -9.89183 -9.74849 -9.74849 -9.74849 -9.74849 -9.72544 -9.72544 -9.72544 -9.72544 -6.44695 -6.44695 -6.44695 -6.44695 -9.64264 -9.64264 -9.64264 -9.64264 -9.64534 -9.64534 -9.64534 -9.64534 -9.93167 -9.93167 -9.93167 -9.93167 -9.93436 -9.93436 -9.93436 -9.93436 -10.006 -10.006 -10.006 -10.006 -9.80542 -9.80542 -9.80542 -9.80542 -9.87789 -9.87789 -9.87789 -9.87789 -9.76822 -9.76822 -9.76822 -9.76822 -10.0796 -10.0796 -10.0796 -10.0796 -9.74696 -9.74696 -9.74696 -9.74696 -3.11744 -3.11744 -3.11744 -3.11744 -7.47261 -7.47261 -7.47261 -7.47261 -10.9714 -10.9714 -10.9714 -10.9714 -9.79265 -9.79265 -9.79265 -9.79265 -10.7651 -10.7651 -10.7651 -10.7651 -9.69685 -9.69685 -9.69685 -9.69685 -9.6078 -9.6078 -9.6078 -9.6078 -11.5706 -11.5706 -11.5706 -11.5706 -9.7137 -9.7137 -9.7137 -9.7137 -9.90366 -9.90366 -9.90366 -9.90366 -9.71049 -9.71049 -9.71049 -9.71049 -9.74361 -9.74361 -9.74361 -9.74361 -8.93635 -8.93635 -8.93635 -8.93635 -9.89673 -9.89673 -9.89673 -9.89673 -9.73399 -9.73399 -9.73399 -9.73399 -9.77015 -9.77015 -9.77015 -9.77015 -8.90667 -8.90667 -8.90667 -8.90667 -9.81475 -9.81475 -9.81475 -9.81475 -9.83607 -9.83607 -9.83607 -9.83607 -12.3853 -12.3853 -12.3853 -12.3853 -9.76295 -9.76295 -9.76295 -9.76295 -9.7815 -9.7815 -9.7815 -9.7815 -9.79811 -9.79811 -9.79811 -9.79811 -9.45521 -9.45521 -9.45521 -9.45521 -9.54717 -9.54717 -9.54717 -9.54717 -9.6516 -9.6516 -9.6516 -9.6516 -11.735 -11.735 -11.735 -11.735 -9.94891 -9.94891 -9.94891 -9.94891 -9.75559 -9.75559 -9.75559 -9.75559 -2.99155 -2.99155 -2.99155 -2.99155 -10.0249 -10.0249 -10.0249 -10.0249 -9.67158 -9.67158 -9.67158 -9.67158 -9.06721 -9.06721 -9.06721 -9.06721 -9.92028 -9.92028 -9.92028 -9.92028 -9.66545 -9.66545 -9.66545 -9.66545 -9.76102 -9.76102 -9.76102 -9.76102 -9.54127 -9.54127 -9.54127 -9.54127 -12.9131 -12.9131 -12.9131 -12.9131 -9.64143 -9.64143 -9.64143 -9.64143 -7.95394 -7.95394 -7.95394 -7.95394 -9.5055 -9.5055 -9.5055 -9.5055 -9.88496 -9.88496 -9.88496 -9.88496 -10.2835 -10.2835 -10.2835 -10.2835 -11.069 -11.069 -11.069 -11.069 -9.77272 -9.77272 -9.77272 -9.77272 -9.60032 -9.60032 -9.60032 -9.60032 -10.0183 -10.0183 -10.0183 -10.0183 -9.20838 -9.20838 -9.20838 -9.20838 -9.59202 -9.59202 -9.59202 -9.59202 -9.66629 -9.66629 -9.66629 -9.66629 -9.43436 -9.43436 -9.43436 -9.43436 -9.87083 -9.87083 -9.87083 -9.87083 -9.60353 -9.60353 -9.60353 -9.60353 -9.6314 -9.6314 -9.6314 -9.6314 -8.17834 -8.17834 -8.17834 -8.17834 -4.08703 -4.08703 -4.08703 -4.08703 -9.9251 -9.9251 -9.9251 -9.9251 -6.51569 -6.51569 -6.51569 -6.51569 -9.64085 -9.64085 -9.64085 -9.64085 -9.66843 -9.66843 -9.66843 -9.66843 -9.44849 -9.44849 -9.44849 -9.44849 -9.8462 -9.8462 -9.8462 -9.8462 -8.74286 -8.74286 -8.74286 -8.74286 -9.78092 -9.78092 -9.78092 -9.78092 -9.9216 -9.9216 -9.9216 -9.9216 -9.94507 -9.94507 -9.94507 -9.94507 -9.90423 -9.90423 -9.90423 -9.90423 -4.56243 -4.56243 -4.56243 -4.56243 -9.50415 -9.50415 -9.50415 -9.50415 -9.86857 -9.86857 -9.86857 -9.86857 -9.60252 -9.60252 -9.60252 -9.60252 -11.9523 -11.9523 -11.9523 -11.9523 -9.93719 -9.93719 -9.93719 -9.93719 -9.89205 -9.89205 -9.89205 -9.89205 -9.88943 -9.88943 -9.88943 -9.88943 -2.79241 -2.79241 -2.79241 -2.79241 -9.99718 -9.99718 -9.99718 -9.99718 -9.78179 -9.78179 -9.78179 -9.78179 -9.78356 -9.78356 -9.78356 -9.78356 -5.5657 -5.5657 -5.5657 -5.5657 -9.64593 -9.64593 -9.64593 -9.64593 -9.4904 -9.4904 -9.4904 -9.4904 -9.32246 -9.32246 -9.32246 -9.32246 -9.73931 -9.73931 -9.73931 -9.73931 -9.82558 -9.82558 -9.82558 -9.82558 -9.74262 -9.74262 -9.74262 -9.74262 -10.0174 -10.0174 -10.0174 -10.0174 -10.1155 -10.1155 -10.1155 -10.1155 -9.77464 -9.77464 -9.77464 -9.77464 -9.64313 -9.64313 -9.64313 -9.64313 -9.70102 -9.70102 -9.70102 -9.70102 -9.93504 -9.93504 -9.93504 -9.93504 -9.80643 -9.80643 -9.80643 -9.80643 -13.0316 -13.0316 -13.0316 -13.0316 -9.75442 -9.75442 -9.75442 -9.75442 -9.8058 -9.8058 -9.8058 -9.8058 -9.62017 -9.62017 -9.62017 -9.62017 -9.75311 -9.75311 -9.75311 -9.75311 -9.94844 -9.94844 -9.94844 -9.94844 -10.1955 -10.1955 -10.1955 -10.1955 -10.8213 -10.8213 -10.8213 -10.8213 -10.0411 -10.0411 -10.0411 -10.0411 -9.9262 -9.9262 -9.9262 -9.9262 -9.41219 -9.41219 -9.41219 -9.41219 -10.0238 -10.0238 -10.0238 -10.0238 -9.61426 -9.61426 -9.61426 -9.61426 -9.79985 -9.79985 -9.79985 -9.79985 -9.80981 -9.80981 -9.80981 -9.80981 -3.13798 -3.13798 -3.13798 -3.13798 -9.79645 -9.79645 -9.79645 -9.79645 -9.83133 -9.83133 -9.83133 -9.83133 -7.53479 -7.53479 -7.53479 -7.53479 -9.76561 -9.76561 -9.76561 -9.76561 -9.91396 -9.91396 -9.91396 -9.91396 -8.29123 -8.29123 -8.29123 -8.29123 -9.79027 -9.79027 -9.79027 -9.79027 -9.95385 -9.95385 -9.95385 -9.95385 -9.47843 -9.47843 -9.47843 -9.47843 -9.62233 -9.62233 -9.62233 -9.62233 -7.50912 -7.50912 -7.50912 -7.50912 -9.83736 -9.83736 -9.83736 -9.83736 -9.85928 -9.85928 -9.85928 -9.85928 -9.70335 -9.70335 -9.70335 -9.70335 -11.7216 -11.7216 -11.7216 -11.7216 -9.84166 -9.84166 -9.84166 -9.84166 -9.7648 -9.7648 -9.7648 -9.7648 -9.52974 -9.52974 -9.52974 -9.52974 -10.0669 -10.0669 -10.0669 -10.0669 -10.0208 -10.0208 -10.0208 -10.0208 -9.75637 -9.75637 -9.75637 -9.75637 -10.0171 -10.0171 -10.0171 -10.0171 -9.64517 -9.64517 -9.64517 -9.64517 -9.77572 -9.77572 -9.77572 -9.77572 -7.76895 -7.76895 -7.76895 -7.76895 -10.2613 -10.2613 -10.2613 -10.2613 -9.77179 -9.77179 -9.77179 -9.77179 -9.77838 -9.77838 -9.77838 -9.77838 -9.61918 -9.61918 -9.61918 -9.61918 -9.76131 -9.76131 -9.76131 -9.76131 -9.36923 -9.36923 -9.36923 -9.36923 -9.69268 -9.69268 -9.69268 -9.69268 -9.62061 -9.62061 -9.62061 -9.62061 -9.73283 -9.73283 -9.73283 -9.73283 -9.87543 -9.87543 -9.87543 -9.87543 -10.0457 -10.0457 -10.0457 -10.0457 -9.48664 -9.48664 -9.48664 -9.48664 -10.7291 -10.7291 -10.7291 -10.7291 -9.89217 -9.89217 -9.89217 -9.89217 -9.82641 -9.82641 -9.82641 -9.82641 -9.66778 -9.66778 -9.66778 -9.66778 -9.80957 -9.80957 -9.80957 -9.80957 -9.63792 -9.63792 -9.63792 -9.63792 -9.90288 -9.90288 -9.90288 -9.90288 -10.6747 -10.6747 -10.6747 -10.6747 -9.7338 -9.7338 -9.7338 -9.7338 -9.91438 -9.91438 -9.91438 -9.91438 -9.60812 -9.60812 -9.60812 -9.60812 -11.882 -11.882 -11.882 -11.882 -9.76339 -9.76339 -9.76339 -9.76339 -10.0833 -10.0833 -10.0833 -10.0833 -9.94946 -9.94946 -9.94946 -9.94946 -9.7258 -9.7258 -9.7258 -9.7258 -9.86124 -9.86124 -9.86124 -9.86124 -10.3168 -10.3168 -10.3168 -10.3168 -12.2796 -12.2796 -12.2796 -12.2796 -10.3102 -10.3102 -10.3102 -10.3102 -10.4652 -10.4652 -10.4652 -10.4652 -7.32738 -7.32738 -7.32738 -7.32738 -9.94981 -9.94981 -9.94981 -9.94981 -10.3661 -10.3661 -10.3661 -10.3661 -9.98233 -9.98233 -9.98233 -9.98233 -9.54599 -9.54599 -9.54599 -9.54599 -3.38445 -3.38445 -3.38445 -3.38445 -9.7472 -9.7472 -9.7472 -9.7472 -10.2881 -10.2881 -10.2881 -10.2881 -9.89077 -9.89077 -9.89077 -9.89077 -9.69583 -9.69583 -9.69583 -9.69583 -10.2418 -10.2418 -10.2418 -10.2418 -9.43875 -9.43875 -9.43875 -9.43875 -9.7432 -9.7432 -9.7432 -9.7432 -9.77404 -9.77404 -9.77404 -9.77404 -9.81754 -9.81754 -9.81754 -9.81754 -9.66946 -9.66946 -9.66946 -9.66946 -10.728 -10.728 -10.728 -10.728 -9.81123 -9.81123 -9.81123 -9.81123 -9.64971 -9.64971 -9.64971 -9.64971 -3.42807 -3.42807 -3.42807 -3.42807 -9.46625 -9.46625 -9.46625 -9.46625 -10.0075 -10.0075 -10.0075 -10.0075 -9.82126 -9.82126 -9.82126 -9.82126 -9.97879 -9.97879 -9.97879 -9.97879 -9.82506 -9.82506 -9.82506 -9.82506 -10.2947 -10.2947 -10.2947 -10.2947 -9.77921 -9.77921 -9.77921 -9.77921 -9.6157 -9.6157 -9.6157 -9.6157 -9.61473 -9.61473 -9.61473 -9.61473 -9.77896 -9.77896 -9.77896 -9.77896 -10.0873 -10.0873 -10.0873 -10.0873 -9.83913 -9.83913 -9.83913 -9.83913 -9.25452 -9.25452 -9.25452 -9.25452 -9.87452 -9.87452 -9.87452 -9.87452 -9.69449 -9.69449 -9.69449 -9.69449 -9.91276 -9.91276 -9.91276 -9.91276 -9.49772 -9.49772 -9.49772 -9.49772 -9.78096 -9.78096 -9.78096 -9.78096 -11.1305 -11.1305 -11.1305 -11.1305 -10.0438 -10.0438 -10.0438 -10.0438 -9.88848 -9.88848 -9.88848 -9.88848 -8.73585 -8.73585 -8.73585 -8.73585 -9.12336 -9.12336 -9.12336 -9.12336 -9.81457 -9.81457 -9.81457 -9.81457 -10.2844 -10.2844 -10.2844 -10.2844 -9.40765 -9.40765 -9.40765 -9.40765 -10.6526 -10.6526 -10.6526 -10.6526 -6.51769 -6.51769 -6.51769 -6.51769 -9.80712 -9.80712 -9.80712 -9.80712 -9.86965 -9.86965 -9.86965 -9.86965 -9.48107 -9.48107 -9.48107 -9.48107 -9.77493 -9.77493 -9.77493 -9.77493 -9.84815 -9.84815 -9.84815 -9.84815 -11.4335 -11.4335 -11.4335 -11.4335 -9.40666 -9.40666 -9.40666 -9.40666 -9.8614 -9.8614 -9.8614 -9.8614 -9.99057 -9.99057 -9.99057 -9.99057 -9.79942 -9.79942 -9.79942 -9.79942 -9.73036 -9.73036 -9.73036 -9.73036 -10.0597 -10.0597 -10.0597 -10.0597 -9.72504 -9.72504 -9.72504 -9.72504 -9.58004 -9.58004 -9.58004 -9.58004 -9.65558 -9.65558 -9.65558 -9.65558 -10.0729 -10.0729 -10.0729 -10.0729 -9.70234 -9.70234 -9.70234 -9.70234 -8.69484 -8.69484 -8.69484 -8.69484 -9.74728 -9.74728 -9.74728 -9.74728 -9.83478 -9.83478 -9.83478 -9.83478 -10.5057 -10.5057 -10.5057 -10.5057 -10.2331 -10.2331 -10.2331 -10.2331 -9.80236 -9.80236 -9.80236 -9.80236 -9.74925 -9.74925 -9.74925 -9.74925 -10.3239 -10.3239 -10.3239 -10.3239 -9.49736 -9.49736 -9.49736 -9.49736 -9.24079 -9.24079 -9.24079 -9.24079 -9.70599 -9.70599 -9.70599 -9.70599 -9.87088 -9.87088 -9.87088 -9.87088 -9.76164 -9.76164 -9.76164 -9.76164 -11.8464 -11.8464 -11.8464 -11.8464 -9.98687 -9.98687 -9.98687 -9.98687 -5.56769 -5.56769 -5.56769 -5.56769 -9.01665 -9.01665 -9.01665 -9.01665 -7.7241 -7.7241 -7.7241 -7.7241 -9.7265 -9.7265 -9.7265 -9.7265 -9.8236 -9.8236 -9.8236 -9.8236 -5.1907 -5.1907 -5.1907 -5.1907 -9.63464 -9.63464 -9.63464 -9.63464 -9.61697 -9.61697 -9.61697 -9.61697 -8.80349 -8.80349 -8.80349 -8.80349 -9.56039 -9.56039 -9.56039 -9.56039 -10.0051 -10.0051 -10.0051 -10.0051 -10.83 -10.83 -10.83 -10.83 -9.74682 -9.74682 -9.74682 -9.74682 -12.2659 -12.2659 -12.2659 -12.2659 -9.72622 -9.72622 -9.72622 -9.72622 -9.21898 -9.21898 -9.21898 -9.21898 -9.53341 -9.53341 -9.53341 -9.53341 -9.51299 -9.51299 -9.51299 -9.51299 -9.93329 -9.93329 -9.93329 -9.93329 -9.17724 -9.17724 -9.17724 -9.17724 -9.59245 -9.59245 -9.59245 -9.59245 -9.74498 -9.74498 -9.74498 -9.74498 -9.76424 -9.76424 -9.76424 -9.76424 -9.81068 -9.81068 -9.81068 -9.81068 -9.78192 -9.78192 -9.78192 -9.78192 -9.63826 -9.63826 -9.63826 -9.63826 -10.2638 -10.2638 -10.2638 -10.2638 -10.8161 -10.8161 -10.8161 -10.8161 -12.8473 -12.8473 -12.8473 -12.8473 -11.8866 -11.8866 -11.8866 -11.8866 -9.86694 -9.86694 -9.86694 -9.86694 -9.29556 -9.29556 -9.29556 -9.29556 -9.70988 -9.70988 -9.70988 -9.70988 -9.58195 -9.58195 -9.58195 -9.58195 -9.55644 -9.55644 -9.55644 -9.55644 -9.46252 -9.46252 -9.46252 -9.46252 -10.2031 -10.2031 -10.2031 -10.2031 -9.40185 -9.40185 -9.40185 -9.40185 -9.76691 -9.76691 -9.76691 -9.76691 -9.70667 -9.70667 -9.70667 -9.70667 -9.3272 -9.3272 -9.3272 -9.3272 -9.63716 -9.63716 -9.63716 -9.63716 -9.78576 -9.78576 -9.78576 -9.78576 -10.8278 -10.8278 -10.8278 -10.8278 -9.57504 -9.57504 -9.57504 -9.57504 -9.6304 -9.6304 -9.6304 -9.6304 -9.87523 -9.87523 -9.87523 -9.87523 -9.49589 -9.49589 -9.49589 -9.49589 -9.43487 -9.43487 -9.43487 -9.43487 -10.5425 -10.5425 -10.5425 -10.5425 -9.90132 -9.90132 -9.90132 -9.90132 -9.94105 -9.94105 -9.94105 -9.94105 -9.86657 -9.86657 -9.86657 -9.86657 -9.41066 -9.41066 -9.41066 -9.41066 -9.77828 -9.77828 -9.77828 -9.77828 -9.36463 -9.36463 -9.36463 -9.36463 -9.89839 -9.89839 -9.89839 -9.89839 -9.81692 -9.81692 -9.81692 -9.81692 -9.82246 -9.82246 -9.82246 -9.82246 -9.50469 -9.50469 -9.50469 -9.50469 -8.61141 -8.61141 -8.61141 -8.61141 -11.6448 -11.6448 -11.6448 -11.6448 -9.76052 -9.76052 -9.76052 -9.76052 -9.77459 -9.77459 -9.77459 -9.77459 -9.52482 -9.52482 -9.52482 -9.52482 -9.67439 -9.67439 -9.67439 -9.67439 -9.56314 -9.56314 -9.56314 -9.56314 -9.6608 -9.6608 -9.6608 -9.6608 -10.5318 -10.5318 -10.5318 -10.5318 -10.0224 -10.0224 -10.0224 -10.0224 -9.73856 -9.73856 -9.73856 -9.73856 -10.9032 -10.9032 -10.9032 -10.9032 -9.95622 -9.95622 -9.95622 -9.95622 -9.73077 -9.73077 -9.73077 -9.73077 -9.98716 -9.98716 -9.98716 -9.98716 -8.88372 -8.88372 -8.88372 -8.88372 -3.52164 -3.52164 -3.52164 -3.52164 -9.55802 -9.55802 -9.55802 -9.55802 -9.79979 -9.79979 -9.79979 -9.79979 -9.65791 -9.65791 -9.65791 -9.65791 -9.93395 -9.93395 -9.93395 -9.93395 -10.457 -10.457 -10.457 -10.457 -9.91578 -9.91578 -9.91578 -9.91578 -9.7698 -9.7698 -9.7698 -9.7698 -9.69034 -9.69034 -9.69034 -9.69034 -9.56029 -9.56029 -9.56029 -9.56029 -9.5604 -9.5604 -9.5604 -9.5604 -9.59074 -9.59074 -9.59074 -9.59074 -9.56086 -9.56086 -9.56086 -9.56086 -9.4296 -9.4296 -9.4296 -9.4296 -9.66369 -9.66369 -9.66369 -9.66369 -9.95339 -9.95339 -9.95339 -9.95339 -9.35143 -9.35143 -9.35143 -9.35143 -11.2324 -11.2324 -11.2324 -11.2324 -9.5616 -9.5616 -9.5616 -9.5616 -9.79852 -9.79852 -9.79852 -9.79852 -10.2597 -10.2597 -10.2597 -10.2597 -9.72439 -9.72439 -9.72439 -9.72439 -10.0754 -10.0754 -10.0754 -10.0754 -9.95851 -9.95851 -9.95851 -9.95851 -10.2072 -10.2072 -10.2072 -10.2072 -9.72646 -9.72646 -9.72646 -9.72646 -9.75146 -9.75146 -9.75146 -9.75146 -10.0823 -10.0823 -10.0823 -10.0823 -9.84581 -9.84581 -9.84581 -9.84581 -10.889 -10.889 -10.889 -10.889 -9.78544 -9.78544 -9.78544 -9.78544 -9.72833 -9.72833 -9.72833 -9.72833 -9.47519 -9.47519 -9.47519 -9.47519 -9.98958 -9.98958 -9.98958 -9.98958 -9.81738 -9.81738 -9.81738 -9.81738 -9.55567 -9.55567 -9.55567 -9.55567 -10.0491 -10.0491 -10.0491 -10.0491 -9.66068 -9.66068 -9.66068 -9.66068 -9.93076 -9.93076 -9.93076 -9.93076 -9.80142 -9.80142 -9.80142 -9.80142 -12.4337 -12.4337 -12.4337 -12.4337 -9.55138 -9.55138 -9.55138 -9.55138 -9.72628 -9.72628 -9.72628 -9.72628 -9.22883 -9.22883 -9.22883 -9.22883 -9.76576 -9.76576 -9.76576 -9.76576 -9.52714 -9.52714 -9.52714 -9.52714 -9.86296 -9.86296 -9.86296 -9.86296 -9.69314 -9.69314 -9.69314 -9.69314 -10.0885 -10.0885 -10.0885 -10.0885 -9.78597 -9.78597 -9.78597 -9.78597 -9.79155 -9.79155 -9.79155 -9.79155 -9.95254 -9.95254 -9.95254 -9.95254 -9.96595 -9.96595 -9.96595 -9.96595 -8.75545 -8.75545 -8.75545 -8.75545 -9.94813 -9.94813 -9.94813 -9.94813 -9.45282 -9.45282 -9.45282 -9.45282 -9.85844 -9.85844 -9.85844 -9.85844 -12.3623 -12.3623 -12.3623 -12.3623 -9.42494 -9.42494 -9.42494 -9.42494 -10.0208 -10.0208 -10.0208 -10.0208 -9.68557 -9.68557 -9.68557 -9.68557 -9.66625 -9.66625 -9.66625 -9.66625 -9.62941 -9.62941 -9.62941 -9.62941 -9.8551 -9.8551 -9.8551 -9.8551 -12.0444 -12.0444 -12.0444 -12.0444 -9.94154 -9.94154 -9.94154 -9.94154 -9.69233 -9.69233 -9.69233 -9.69233 -9.67228 -9.67228 -9.67228 -9.67228 -9.94233 -9.94233 -9.94233 -9.94233 -9.65308 -9.65308 -9.65308 -9.65308 -3.34286 -3.34286 -3.34286 -3.34286 -9.74305 -9.74305 -9.74305 -9.74305 -9.94394 -9.94394 -9.94394 -9.94394 -10.8402 -10.8402 -10.8402 -10.8402 -9.81068 -9.81068 -9.81068 -9.81068 -9.36656 -9.36656 -9.36656 -9.36656 -11.5537 -11.5537 -11.5537 -11.5537 -8.9238 -8.9238 -8.9238 -8.9238 -9.21665 -9.21665 -9.21665 -9.21665 -9.47463 -9.47463 -9.47463 -9.47463 -11.3357 -11.3357 -11.3357 -11.3357 -9.33343 -9.33343 -9.33343 -9.33343 -10.4669 -10.4669 -10.4669 -10.4669 -10.1008 -10.1008 -10.1008 -10.1008 -12.3239 -12.3239 -12.3239 -12.3239 -9.77769 -9.77769 -9.77769 -9.77769 -9.77532 -9.77532 -9.77532 -9.77532 -9.95572 -9.95572 -9.95572 -9.95572 -9.53503 -9.53503 -9.53503 -9.53503 -9.50526 -9.50526 -9.50526 -9.50526 -9.34746 -9.34746 -9.34746 -9.34746 -9.38803 -9.38803 -9.38803 -9.38803 -9.8046 -9.8046 -9.8046 -9.8046 -11.1013 -11.1013 -11.1013 -11.1013 -9.75186 -9.75186 -9.75186 -9.75186 -9.69583 -9.69583 -9.69583 -9.69583 -8.93446 -8.93446 -8.93446 -8.93446 -11.3755 -11.3755 -11.3755 -11.3755 -9.55122 -9.55122 -9.55122 -9.55122 -9.76374 -9.76374 -9.76374 -9.76374 -9.69879 -9.69879 -9.69879 -9.69879 -10.4995 -10.4995 -10.4995 -10.4995 -9.90831 -9.90831 -9.90831 -9.90831 -10.9791 -10.9791 -10.9791 -10.9791 -10.0044 -10.0044 -10.0044 -10.0044 -9.86601 -9.86601 -9.86601 -9.86601 -9.57973 -9.57973 -9.57973 -9.57973 -9.97298 -9.97298 -9.97298 -9.97298 -9.69583 -9.69583 -9.69583 -9.69583 -10.0748 -10.0748 -10.0748 -10.0748 -9.79044 -9.79044 -9.79044 -9.79044 -9.30925 -9.30925 -9.30925 -9.30925 -7.27859 -7.27859 -7.27859 -7.27859 -9.83504 -9.83504 -9.83504 -9.83504 -9.956 -9.956 -9.956 -9.956 -9.92955 -9.92955 -9.92955 -9.92955 -9.8965 -9.8965 -9.8965 -9.8965 -9.57229 -9.57229 -9.57229 -9.57229 -10.2223 -10.2223 -10.2223 -10.2223 -9.85552 -9.85552 -9.85552 -9.85552 -9.93034 -9.93034 -9.93034 -9.93034 -9.59418 -9.59418 -9.59418 -9.59418 -9.35273 -9.35273 -9.35273 -9.35273 -9.49541 -9.49541 -9.49541 -9.49541 -9.89895 -9.89895 -9.89895 -9.89895 -10.366 -10.366 -10.366 -10.366 -9.06143 -9.06143 -9.06143 -9.06143 -10.2363 -10.2363 -10.2363 -10.2363 -9.86884 -9.86884 -9.86884 -9.86884 -9.52769 -9.52769 -9.52769 -9.52769 -11.7362 -11.7362 -11.7362 -11.7362 -10.0839 -10.0839 -10.0839 -10.0839 -9.80019 -9.80019 -9.80019 -9.80019 -9.27438 -9.27438 -9.27438 -9.27438 -9.79579 -9.79579 -9.79579 -9.79579 -10.2098 -10.2098 -10.2098 -10.2098 -9.75857 -9.75857 -9.75857 -9.75857 -9.91265 -9.91265 -9.91265 -9.91265 -9.603 -9.603 -9.603 -9.603 -9.94982 -9.94982 -9.94982 -9.94982 -9.6911 -9.6911 -9.6911 -9.6911 -9.65138 -9.65138 -9.65138 -9.65138 -8.72102 -8.72102 -8.72102 -8.72102 -10.0124 -10.0124 -10.0124 -10.0124 -9.5517 -9.5517 -9.5517 -9.5517 -9.52815 -9.52815 -9.52815 -9.52815 -9.68134 -9.68134 -9.68134 -9.68134 -11.2559 -11.2559 -11.2559 -11.2559 -9.75284 -9.75284 -9.75284 -9.75284 -3.65531 -3.65531 -3.65531 -3.65531 -9.63511 -9.63511 -9.63511 -9.63511 -5.45935 -5.45935 -5.45935 -5.45935 -10.3753 -10.3753 -10.3753 -10.3753 -9.76069 -9.76069 -9.76069 -9.76069 -9.59044 -9.59044 -9.59044 -9.59044 -9.79331 -9.79331 -9.79331 -9.79331 -9.6722 -9.6722 -9.6722 -9.6722 -9.528 -9.528 -9.528 -9.528 -9.09571 -9.09571 -9.09571 -9.09571 -9.89046 -9.89046 -9.89046 -9.89046 -11.9892 -11.9892 -11.9892 -11.9892 -9.57684 -9.57684 -9.57684 -9.57684 -9.46577 -9.46577 -9.46577 -9.46577 -9.65116 -9.65116 -9.65116 -9.65116 -9.64586 -9.64586 -9.64586 -9.64586 -9.75399 -9.75399 -9.75399 -9.75399 -10.0815 -10.0815 -10.0815 -10.0815 -9.41564 -9.41564 -9.41564 -9.41564 -9.88361 -9.88361 -9.88361 -9.88361 -9.76141 -9.76141 -9.76141 -9.76141 -9.48669 -9.48669 -9.48669 -9.48669 -9.57406 -9.57406 -9.57406 -9.57406 -10.0409 -10.0409 -10.0409 -10.0409 -9.97231 -9.97231 -9.97231 -9.97231 -9.72802 -9.72802 -9.72802 -9.72802 -9.80488 -9.80488 -9.80488 -9.80488 -9.57927 -9.57927 -9.57927 -9.57927 -9.94674 -9.94674 -9.94674 -9.94674 -9.63527 -9.63527 -9.63527 -9.63527 -9.6461 -9.6461 -9.6461 -9.6461 -9.68795 -9.68795 -9.68795 -9.68795 -9.9677 -9.9677 -9.9677 -9.9677 -9.84465 -9.84465 -9.84465 -9.84465 -8.93811 -8.93811 -8.93811 -8.93811 -10.1726 -10.1726 -10.1726 -10.1726 -9.89929 -9.89929 -9.89929 -9.89929 -10.0381 -10.0381 -10.0381 -10.0381 -4.17459 -4.17459 -4.17459 -4.17459 -9.90761 -9.90761 -9.90761 -9.90761 -13.1048 -13.1048 -13.1048 -13.1048 -10.5342 -10.5342 -10.5342 -10.5342 -6.66063 -6.66063 -6.66063 -6.66063 -9.96503 -9.96503 -9.96503 -9.96503 -9.60726 -9.60726 -9.60726 -9.60726 -9.60237 -9.60237 -9.60237 -9.60237 -9.78876 -9.78876 -9.78876 -9.78876 -9.40454 -9.40454 -9.40454 -9.40454 -9.80645 -9.80645 -9.80645 -9.80645 -9.91849 -9.91849 -9.91849 -9.91849 -9.51745 -9.51745 -9.51745 -9.51745 -9.87579 -9.87579 -9.87579 -9.87579 -9.84627 -9.84627 -9.84627 -9.84627 -9.73777 -9.73777 -9.73777 -9.73777 -9.90989 -9.90989 -9.90989 -9.90989 -9.48336 -9.48336 -9.48336 -9.48336 -9.16331 -9.16331 -9.16331 -9.16331 -9.75928 -9.75928 -9.75928 -9.75928 -9.78412 -9.78412 -9.78412 -9.78412 -9.80134 -9.80134 -9.80134 -9.80134 -9.85564 -9.85564 -9.85564 -9.85564 -11.5438 -11.5438 -11.5438 -11.5438 -9.09017 -9.09017 -9.09017 -9.09017 -9.93497 -9.93497 -9.93497 -9.93497 -9.84411 -9.84411 -9.84411 -9.84411 -9.99699 -9.99699 -9.99699 -9.99699 -9.78215 -9.78215 -9.78215 -9.78215 -9.77904 -9.77904 -9.77904 -9.77904 -9.77992 -9.77992 -9.77992 -9.77992 -9.858 -9.858 -9.858 -9.858 -9.93971 -9.93971 -9.93971 -9.93971 -9.53122 -9.53122 -9.53122 -9.53122 -9.76923 -9.76923 -9.76923 -9.76923 -9.71656 -9.71656 -9.71656 -9.71656 -9.315 -9.315 -9.315 -9.315 -9.96442 -9.96442 -9.96442 -9.96442 -9.77695 -9.77695 -9.77695 -9.77695 -9.76489 -9.76489 -9.76489 -9.76489 -9.76578 -9.76578 -9.76578 -9.76578 -12.3065 -12.3065 -12.3065 -12.3065 -9.44652 -9.44652 -9.44652 -9.44652 -9.67494 -9.67494 -9.67494 -9.67494 -9.69403 -9.69403 -9.69403 -9.69403 -9.71331 -9.71331 -9.71331 -9.71331 -10.8634 -10.8634 -10.8634 -10.8634 -9.65147 -9.65147 -9.65147 -9.65147 -9.48871 -9.48871 -9.48871 -9.48871 -9.82525 -9.82525 -9.82525 -9.82525 -9.55422 -9.55422 -9.55422 -9.55422 -9.79055 -9.79055 -9.79055 -9.79055 -9.72502 -9.72502 -9.72502 -9.72502 -9.70459 -9.70459 -9.70459 -9.70459 -9.58946 -9.58946 -9.58946 -9.58946 -9.50589 -9.50589 -9.50589 -9.50589 -10.0529 -10.0529 -10.0529 -10.0529 -9.63819 -9.63819 -9.63819 -9.63819 -9.77467 -9.77467 -9.77467 -9.77467 -12.0519 -12.0519 -12.0519 -12.0519 -9.86136 -9.86136 -9.86136 -9.86136 -11.94 -11.94 -11.94 -11.94 -9.79552 -9.79552 -9.79552 -9.79552 -9.8075 -9.8075 -9.8075 -9.8075 -9.57303 -9.57303 -9.57303 -9.57303 -9.23944 -9.23944 -9.23944 -9.23944 -9.91787 -9.91787 -9.91787 -9.91787 -9.51272 -9.51272 -9.51272 -9.51272 -9.95215 -9.95215 -9.95215 -9.95215 -9.63168 -9.63168 -9.63168 -9.63168 -11.19 -11.19 -11.19 -11.19 -9.16063 -9.16063 -9.16063 -9.16063 -9.87071 -9.87071 -9.87071 -9.87071 -9.54486 -9.54486 -9.54486 -9.54486 -10.5279 -10.5279 -10.5279 -10.5279 -9.64643 -9.64643 -9.64643 -9.64643 -11.9453 -11.9453 -11.9453 -11.9453 -9.5985 -9.5985 -9.5985 -9.5985 -9.77727 -9.77727 -9.77727 -9.77727 -6.07503 -6.07503 -6.07503 -6.07503 -9.91492 -9.91492 -9.91492 -9.91492 -9.57325 -9.57325 -9.57325 -9.57325 -9.64708 -9.64708 -9.64708 -9.64708 -9.61621 -9.61621 -9.61621 -9.61621 -11.0858 -11.0858 -11.0858 -11.0858 -9.31285 -9.31285 -9.31285 -9.31285 -10.0501 -10.0501 -10.0501 -10.0501 -3.9671 -3.9671 -3.9671 -3.9671 -9.72381 -9.72381 -9.72381 -9.72381 -10.0177 -10.0177 -10.0177 -10.0177 -9.52952 -9.52952 -9.52952 -9.52952 -9.67918 -9.67918 -9.67918 -9.67918 -9.81365 -9.81365 -9.81365 -9.81365 -9.45391 -9.45391 -9.45391 -9.45391 -9.82943 -9.82943 -9.82943 -9.82943 -10.106 -10.106 -10.106 -10.106 -9.75837 -9.75837 -9.75837 -9.75837 -10.0505 -10.0505 -10.0505 -10.0505 -9.33951 -9.33951 -9.33951 -9.33951 -9.75664 -9.75664 -9.75664 -9.75664 -9.7026 -9.7026 -9.7026 -9.7026 -6.25567 -6.25567 -6.25567 -6.25567 -9.71241 -9.71241 -9.71241 -9.71241 -9.59897 -9.59897 -9.59897 -9.59897 -9.75164 -9.75164 -9.75164 -9.75164 -9.73813 -9.73813 -9.73813 -9.73813 -9.69702 -9.69702 -9.69702 -9.69702 -9.55942 -9.55942 -9.55942 -9.55942 -10.0525 -10.0525 -10.0525 -10.0525 -9.50563 -9.50563 -9.50563 -9.50563 -9.79459 -9.79459 -9.79459 -9.79459 -9.83442 -9.83442 -9.83442 -9.83442 -9.95547 -9.95547 -9.95547 -9.95547 -9.79441 -9.79441 -9.79441 -9.79441 -9.77412 -9.77412 -9.77412 -9.77412 -9.51707 -9.51707 -9.51707 -9.51707 -8.28428 -8.28428 -8.28428 -8.28428 -9.80276 -9.80276 -9.80276 -9.80276 -10.088 -10.088 -10.088 -10.088 -9.71437 -9.71437 -9.71437 -9.71437 -10.0376 -10.0376 -10.0376 -10.0376 -10.3471 -10.3471 -10.3471 -10.3471 -9.83521 -9.83521 -9.83521 -9.83521 -9.70659 -9.70659 -9.70659 -9.70659 -9.34973 -9.34973 -9.34973 -9.34973 -9.5999 -9.5999 -9.5999 -9.5999 -9.494 -9.494 -9.494 -9.494 -9.74956 -9.74956 -9.74956 -9.74956 -9.60892 -9.60892 -9.60892 -9.60892 -9.98542 -9.98542 -9.98542 -9.98542 -8.5227 -8.5227 -8.5227 -8.5227 -9.53372 -9.53372 -9.53372 -9.53372 -11.5756 -11.5756 -11.5756 -11.5756 -9.66864 -9.66864 -9.66864 -9.66864 -10.0469 -10.0469 -10.0469 -10.0469 -9.61572 -9.61572 -9.61572 -9.61572 -9.96312 -9.96312 -9.96312 -9.96312 -9.6141 -9.6141 -9.6141 -9.6141 -9.84397 -9.84397 -9.84397 -9.84397 -11.4421 -11.4421 -11.4421 -11.4421 -9.7624 -9.7624 -9.7624 -9.7624 -10.0351 -10.0351 -10.0351 -10.0351 -9.64246 -9.64246 -9.64246 -9.64246 -9.62079 -9.62079 -9.62079 -9.62079 -9.44084 -9.44084 -9.44084 -9.44084 -9.90973 -9.90973 -9.90973 -9.90973 -10.8982 -10.8982 -10.8982 -10.8982 -11.886 -11.886 -11.886 -11.886 -9.66572 -9.66572 -9.66572 -9.66572 -9.56241 -9.56241 -9.56241 -9.56241 -9.97587 -9.97587 -9.97587 -9.97587 -11.0842 -11.0842 -11.0842 -11.0842 -11.5695 -11.5695 -11.5695 -11.5695 -9.8077 -9.8077 -9.8077 -9.8077 -9.79786 -9.79786 -9.79786 -9.79786 -8.21933 -8.21933 -8.21933 -8.21933 -9.67525 -9.67525 -9.67525 -9.67525 -9.7628 -9.7628 -9.7628 -9.7628 -9.55668 -9.55668 -9.55668 -9.55668 -9.70419 -9.70419 -9.70419 -9.70419 -9.53749 -9.53749 -9.53749 -9.53749 -9.73604 -9.73604 -9.73604 -9.73604 -9.85844 -9.85844 -9.85844 -9.85844 -10.3216 -10.3216 -10.3216 -10.3216 -9.77137 -9.77137 -9.77137 -9.77137 -5.11193 -5.11193 -5.11193 -5.11193 -9.53629 -9.53629 -9.53629 -9.53629 -9.77716 -9.77716 -9.77716 -9.77716 -9.8785 -9.8785 -9.8785 -9.8785 -12.5697 -12.5697 -12.5697 -12.5697 -9.63871 -9.63871 -9.63871 -9.63871 -9.7671 -9.7671 -9.7671 -9.7671 -9.5593 -9.5593 -9.5593 -9.5593 -8.53797 -8.53797 -8.53797 -8.53797 -10.0796 -10.0796 -10.0796 -10.0796 -11.7517 -11.7517 -11.7517 -11.7517 -5.47262 -5.47262 -5.47262 -5.47262 -9.85933 -9.85933 -9.85933 -9.85933 -9.72944 -9.72944 -9.72944 -9.72944 -9.47064 -9.47064 -9.47064 -9.47064 -10.0118 -10.0118 -10.0118 -10.0118 -8.92894 -8.92894 -8.92894 -8.92894 -9.62688 -9.62688 -9.62688 -9.62688 -9.66146 -9.66146 -9.66146 -9.66146 -9.3141 -9.3141 -9.3141 -9.3141 -9.53435 -9.53435 -9.53435 -9.53435 -9.56561 -9.56561 -9.56561 -9.56561 -11.1485 -11.1485 -11.1485 -11.1485 -9.53717 -9.53717 -9.53717 -9.53717 -10.0804 -10.0804 -10.0804 -10.0804 -9.02568 -9.02568 -9.02568 -9.02568 -10.0809 -10.0809 -10.0809 -10.0809 -11.0612 -11.0612 -11.0612 -11.0612 -8.85066 -8.85066 -8.85066 -8.85066 -9.80559 -9.80559 -9.80559 -9.80559 -9.82507 -9.82507 -9.82507 -9.82507 -9.6438 -9.6438 -9.6438 -9.6438 -9.46245 -9.46245 -9.46245 -9.46245 -9.55866 -9.55866 -9.55866 -9.55866 -9.78697 -9.78697 -9.78697 -9.78697 -12.0581 -12.0581 -12.0581 -12.0581 -9.7273 -9.7273 -9.7273 -9.7273 -11.5692 -11.5692 -11.5692 -11.5692 -9.04756 -9.04756 -9.04756 -9.04756 -3.3653 -3.3653 -3.3653 -3.3653 -9.72428 -9.72428 -9.72428 -9.72428 -10.1093 -10.1093 -10.1093 -10.1093 -9.96248 -9.96248 -9.96248 -9.96248 -8.36105 -8.36105 -8.36105 -8.36105 -9.92678 -9.92678 -9.92678 -9.92678 -9.95559 -9.95559 -9.95559 -9.95559 -9.36381 -9.36381 -9.36381 -9.36381 -9.5869 -9.5869 -9.5869 -9.5869 -9.63202 -9.63202 -9.63202 -9.63202 -4.77655 -4.77655 -4.77655 -4.77655 -9.94028 -9.94028 -9.94028 -9.94028 -9.61659 -9.61659 -9.61659 -9.61659 -10.7886 -10.7886 -10.7886 -10.7886 -9.83821 -9.83821 -9.83821 -9.83821 -9.62019 -9.62019 -9.62019 -9.62019 -9.80734 -9.80734 -9.80734 -9.80734 -9.61771 -9.61771 -9.61771 -9.61771 -9.69852 -9.69852 -9.69852 -9.69852 -9.35828 -9.35828 -9.35828 -9.35828 -9.17945 -9.17945 -9.17945 -9.17945 -9.75526 -9.75526 -9.75526 -9.75526 -9.56315 -9.56315 -9.56315 -9.56315 -11.1551 -11.1551 -11.1551 -11.1551 -9.42544 -9.42544 -9.42544 -9.42544 -11.9455 -11.9455 -11.9455 -11.9455 -9.42887 -9.42887 -9.42887 -9.42887 -10.0016 -10.0016 -10.0016 -10.0016 -9.4123 -9.4123 -9.4123 -9.4123 -9.90825 -9.90825 -9.90825 -9.90825 -9.71294 -9.71294 -9.71294 -9.71294 -10.5167 -10.5167 -10.5167 -10.5167 -10.1057 -10.1057 -10.1057 -10.1057 -9.84424 -9.84424 -9.84424 -9.84424 -9.6282 -9.6282 -9.6282 -9.6282 -9.87446 -9.87446 -9.87446 -9.87446 -9.61292 -9.61292 -9.61292 -9.61292 -7.46253 -7.46253 -7.46253 -7.46253 -10.0627 -10.0627 -10.0627 -10.0627 -7.84814 -7.84814 -7.84814 -7.84814 -10.3613 -10.3613 -10.3613 -10.3613 -9.71845 -9.71845 -9.71845 -9.71845 -11.268 -11.268 -11.268 -11.268 -9.5435 -9.5435 -9.5435 -9.5435 -9.75642 -9.75642 -9.75642 -9.75642 -9.9774 -9.9774 -9.9774 -9.9774 -9.81425 -9.81425 -9.81425 -9.81425 -8.51163 -8.51163 -8.51163 -8.51163 -9.76797 -9.76797 -9.76797 -9.76797 -9.11291 -9.11291 -9.11291 -9.11291 -10.8577 -10.8577 -10.8577 -10.8577 -9.6752 -9.6752 -9.6752 -9.6752 -11.1609 -11.1609 -11.1609 -11.1609 -9.79382 -9.79382 -9.79382 -9.79382 -11.4202 -11.4202 -11.4202 -11.4202 -10.0523 -10.0523 -10.0523 -10.0523 -9.91829 -9.91829 -9.91829 -9.91829 -9.79282 -9.79282 -9.79282 -9.79282 -9.70099 -9.70099 -9.70099 -9.70099 -9.76835 -9.76835 -9.76835 -9.76835 -8.71879 -8.71879 -8.71879 -8.71879 -10.0897 -10.0897 -10.0897 -10.0897 -10.069 -10.069 -10.069 -10.069 -8.89838 -8.89838 -8.89838 -8.89838 -9.73671 -9.73671 -9.73671 -9.73671 -8.21057 -8.21057 -8.21057 -8.21057 -6.10992 -6.10992 -6.10992 -6.10992 -11.4386 -11.4386 -11.4386 -11.4386 -9.54233 -9.54233 -9.54233 -9.54233 -9.8174 -9.8174 -9.8174 -9.8174 -11.3189 -11.3189 -11.3189 -11.3189 -12.1322 -12.1322 -12.1322 -12.1322 -9.85389 -9.85389 -9.85389 -9.85389 -9.68266 -9.68266 -9.68266 -9.68266 -9.74436 -9.74436 -9.74436 -9.74436 -3.01843 -3.01843 -3.01843 -3.01843 -9.92358 -9.92358 -9.92358 -9.92358 -9.74485 -9.74485 -9.74485 -9.74485 -9.62503 -9.62503 -9.62503 -9.62503 -9.52719 -9.52719 -9.52719 -9.52719 -9.88335 -9.88335 -9.88335 -9.88335 -9.45528 -9.45528 -9.45528 -9.45528 -9.68256 -9.68256 -9.68256 -9.68256 -10.1306 -10.1306 -10.1306 -10.1306 -9.74131 -9.74131 -9.74131 -9.74131 -9.80347 -9.80347 -9.80347 -9.80347 -10.4343 -10.4343 -10.4343 -10.4343 -10.0452 -10.0452 -10.0452 -10.0452 -10.0621 -10.0621 -10.0621 -10.0621 -9.82329 -9.82329 -9.82329 -9.82329 -6.39747 -6.39747 -6.39747 -6.39747 -9.58251 -9.58251 -9.58251 -9.58251 -9.78269 -9.78269 -9.78269 -9.78269 -9.95277 -9.95277 -9.95277 -9.95277 -11.1338 -11.1338 -11.1338 -11.1338 -9.7409 -9.7409 -9.7409 -9.7409 -10.0846 -10.0846 -10.0846 -10.0846 -9.81374 -9.81374 -9.81374 -9.81374 -9.87386 -9.87386 -9.87386 -9.87386 -9.67381 -9.67381 -9.67381 -9.67381 -11.9386 -11.9386 -11.9386 -11.9386 -3.70255 -3.70255 -3.70255 -3.70255 -5.87893 -5.87893 -5.87893 -5.87893 -9.84838 -9.84838 -9.84838 -9.84838 -9.89002 -9.89002 -9.89002 -9.89002 -9.50471 -9.50471 -9.50471 -9.50471 -9.68447 -9.68447 -9.68447 -9.68447 -5.50501 -5.50501 -5.50501 -5.50501 -9.92038 -9.92038 -9.92038 -9.92038 -6.68966 -6.68966 -6.68966 -6.68966 -9.62607 -9.62607 -9.62607 -9.62607 -9.45058 -9.45058 -9.45058 -9.45058 -9.75675 -9.75675 -9.75675 -9.75675 -9.77569 -9.77569 -9.77569 -9.77569 -8.32194 -8.32194 -8.32194 -8.32194 -9.67773 -9.67773 -9.67773 -9.67773 -9.96214 -9.96214 -9.96214 -9.96214 -9.78343 -9.78343 -9.78343 -9.78343 -9.91557 -9.91557 -9.91557 -9.91557 -10.1841 -10.1841 -10.1841 -10.1841 -9.53057 -9.53057 -9.53057 -9.53057 -9.7253 -9.7253 -9.7253 -9.7253 -10.0393 -10.0393 -10.0393 -10.0393 -9.72228 -9.72228 -9.72228 -9.72228 -9.70502 -9.70502 -9.70502 -9.70502 -10.0356 -10.0356 -10.0356 -10.0356 -10.1134 -10.1134 -10.1134 -10.1134 -9.76286 -9.76286 -9.76286 -9.76286 -9.78895 -9.78895 -9.78895 -9.78895 -9.51656 -9.51656 -9.51656 -9.51656 -9.77883 -9.77883 -9.77883 -9.77883 -9.80475 -9.80475 -9.80475 -9.80475 -9.58573 -9.58573 -9.58573 -9.58573 -9.68344 -9.68344 -9.68344 -9.68344 -9.83945 -9.83945 -9.83945 -9.83945 -9.68967 -9.68967 -9.68967 -9.68967 -4.03294 -4.03294 -4.03294 -4.03294 -9.74871 -9.74871 -9.74871 -9.74871 -9.67953 -9.67953 -9.67953 -9.67953 -9.67583 -9.67583 -9.67583 -9.67583 -9.05076 -9.05076 -9.05076 -9.05076 -4.73746 -4.73746 -4.73746 -4.73746 -9.75142 -9.75142 -9.75142 -9.75142 -9.64999 -9.64999 -9.64999 -9.64999 -9.7487 -9.7487 -9.7487 -9.7487 -5.89932 -5.89932 -5.89932 -5.89932 -9.99078 -9.99078 -9.99078 -9.99078 -10.0499 -10.0499 -10.0499 -10.0499 -9.80459 -9.80459 -9.80459 -9.80459 -10.5462 -10.5462 -10.5462 -10.5462 -9.57821 -9.57821 -9.57821 -9.57821 -9.69652 -9.69652 -9.69652 -9.69652 -9.43699 -9.43699 -9.43699 -9.43699 -7.96008 -7.96008 -7.96008 -7.96008 -12.5813 -12.5813 -12.5813 -12.5813 -9.53711 -9.53711 -9.53711 -9.53711 -11.6455 -11.6455 -11.6455 -11.6455 -9.66109 -9.66109 -9.66109 -9.66109 -10.0179 -10.0179 -10.0179 -10.0179 -9.80974 -9.80974 -9.80974 -9.80974 -9.60474 -9.60474 -9.60474 -9.60474 -9.59201 -9.59201 -9.59201 -9.59201 -9.82928 -9.82928 -9.82928 -9.82928 -9.57111 -9.57111 -9.57111 -9.57111 -9.66293 -9.66293 -9.66293 -9.66293 -8.4304 -8.4304 -8.4304 -8.4304 -8.0918 -8.0918 -8.0918 -8.0918 -9.86722 -9.86722 -9.86722 -9.86722 -12.4494 -12.4494 -12.4494 -12.4494 -6.9212 -6.9212 -6.9212 -6.9212 -10.0629 -10.0629 -10.0629 -10.0629 -9.725 -9.725 -9.725 -9.725 -9.96493 -9.96493 -9.96493 -9.96493 -6.8432 -6.8432 -6.8432 -6.8432 -9.79431 -9.79431 -9.79431 -9.79431 -9.73953 -9.73953 -9.73953 -9.73953 -9.96804 -9.96804 -9.96804 -9.96804 -9.69117 -9.69117 -9.69117 -9.69117 -9.61081 -9.61081 -9.61081 -9.61081 -5.10782 -5.10782 -5.10782 -5.10782 -9.82635 -9.82635 -9.82635 -9.82635 -11.6186 -11.6186 -11.6186 -11.6186 -9.32351 -9.32351 -9.32351 -9.32351 -11.1325 -11.1325 -11.1325 -11.1325 -9.84307 -9.84307 -9.84307 -9.84307 -12.2694 -12.2694 -12.2694 -12.2694 -8.96471 -8.96471 -8.96471 -8.96471 -9.73497 -9.73497 -9.73497 -9.73497 -10.0547 -10.0547 -10.0547 -10.0547 -9.81071 -9.81071 -9.81071 -9.81071 -9.65133 -9.65133 -9.65133 -9.65133 -9.8072 -9.8072 -9.8072 -9.8072 -10.0441 -10.0441 -10.0441 -10.0441 -9.75378 -9.75378 -9.75378 -9.75378 -9.69403 -9.69403 -9.69403 -9.69403 -10.0747 -10.0747 -10.0747 -10.0747 -4.78244 -4.78244 -4.78244 -4.78244 -9.6909 -9.6909 -9.6909 -9.6909 -9.47601 -9.47601 -9.47601 -9.47601 -10.0855 -10.0855 -10.0855 -10.0855 -9.67822 -9.67822 -9.67822 -9.67822 -4.00939 -4.00939 -4.00939 -4.00939 -9.56391 -9.56391 -9.56391 -9.56391 -9.74278 -9.74278 -9.74278 -9.74278 -8.75482 -8.75482 -8.75482 -8.75482 -10.0074 -10.0074 -10.0074 -10.0074 -10.0807 -10.0807 -10.0807 -10.0807 -9.75404 -9.75404 -9.75404 -9.75404 -8.35011 -8.35011 -8.35011 -8.35011 -9.9945 -9.9945 -9.9945 -9.9945 -9.7695 -9.7695 -9.7695 -9.7695 -9.68912 -9.68912 -9.68912 -9.68912 -8.98 -8.98 -8.98 -8.98 -10.8014 -10.8014 -10.8014 -10.8014 -11.3862 -11.3862 -11.3862 -11.3862 -9.45745 -9.45745 -9.45745 -9.45745 -9.49534 -9.49534 -9.49534 -9.49534 -9.66353 -9.66353 -9.66353 -9.66353 -7.41266 -7.41266 -7.41266 -7.41266 -10.0135 -10.0135 -10.0135 -10.0135 -9.80935 -9.80935 -9.80935 -9.80935 -9.74678 -9.74678 -9.74678 -9.74678 -11.7806 -11.7806 -11.7806 -11.7806 -10.1634 -10.1634 -10.1634 -10.1634 -9.71272 -9.71272 -9.71272 -9.71272 -10.0935 -10.0935 -10.0935 -10.0935 -9.14715 -9.14715 -9.14715 -9.14715 -9.76389 -9.76389 -9.76389 -9.76389 -11.7599 -11.7599 -11.7599 -11.7599 -10.0327 -10.0327 -10.0327 -10.0327 -9.70692 -9.70692 -9.70692 -9.70692 -10.1153 -10.1153 -10.1153 -10.1153 -9.93048 -9.93048 -9.93048 -9.93048 -9.76257 -9.76257 -9.76257 -9.76257 -11.1205 -11.1205 -11.1205 -11.1205 -9.74386 -9.74386 -9.74386 -9.74386 -9.81068 -9.81068 -9.81068 -9.81068 -9.82265 -9.82265 -9.82265 -9.82265 -10.5291 -10.5291 -10.5291 -10.5291 -9.40913 -9.40913 -9.40913 -9.40913 -9.58472 -9.58472 -9.58472 -9.58472 -4.76944 -4.76944 -4.76944 -4.76944 -9.86958 -9.86958 -9.86958 -9.86958 -9.39778 -9.39778 -9.39778 -9.39778 -11.7204 -11.7204 -11.7204 -11.7204 -7.8442 -7.8442 -7.8442 -7.8442 -9.85332 -9.85332 -9.85332 -9.85332 -11.1985 -11.1985 -11.1985 -11.1985 -12.2246 -12.2246 -12.2246 -12.2246 -12.6547 -12.6547 -12.6547 -12.6547 -9.37977 -9.37977 -9.37977 -9.37977 -10.0333 -10.0333 -10.0333 -10.0333 -9.73771 -9.73771 -9.73771 -9.73771 -9.65282 -9.65282 -9.65282 -9.65282 -11.7076 -11.7076 -11.7076 -11.7076 -9.68163 -9.68163 -9.68163 -9.68163 -9.75029 -9.75029 -9.75029 -9.75029 -9.57031 -9.57031 -9.57031 -9.57031 -8.33467 -8.33467 -8.33467 -8.33467 -9.6613 -9.6613 -9.6613 -9.6613 -9.3412 -9.3412 -9.3412 -9.3412 -10.0033 -10.0033 -10.0033 -10.0033 -9.90561 -9.90561 -9.90561 -9.90561 -11.8219 -11.8219 -11.8219 -11.8219 -9.79415 -9.79415 -9.79415 -9.79415 -9.76912 -9.76912 -9.76912 -9.76912 -9.59838 -9.59838 -9.59838 -9.59838 -9.51746 -9.51746 -9.51746 -9.51746 -9.15091 -9.15091 -9.15091 -9.15091 -9.52571 -9.52571 -9.52571 -9.52571 -7.14501 -7.14501 -7.14501 -7.14501 -11.4357 -11.4357 -11.4357 -11.4357 -9.80201 -9.80201 -9.80201 -9.80201 -9.63408 -9.63408 -9.63408 -9.63408 -9.61988 -9.61988 -9.61988 -9.61988 -11.2478 -11.2478 -11.2478 -11.2478 -9.54534 -9.54534 -9.54534 -9.54534 -9.77733 -9.77733 -9.77733 -9.77733 -10.1009 -10.1009 -10.1009 -10.1009 -9.50363 -9.50363 -9.50363 -9.50363 -9.76681 -9.76681 -9.76681 -9.76681 -10.0163 -10.0163 -10.0163 -10.0163 -9.77024 -9.77024 -9.77024 -9.77024 -5.95418 -5.95418 -5.95418 -5.95418 -9.74752 -9.74752 -9.74752 -9.74752 -9.37884 -9.37884 -9.37884 -9.37884 -11.2625 -11.2625 -11.2625 -11.2625 -9.62329 -9.62329 -9.62329 -9.62329 -7.42795 -7.42795 -7.42795 -7.42795 -9.72741 -9.72741 -9.72741 -9.72741 -9.73453 -9.73453 -9.73453 -9.73453 -9.4184 -9.4184 -9.4184 -9.4184 -10.0548 -10.0548 -10.0548 -10.0548 -9.95027 -9.95027 -9.95027 -9.95027 -9.67604 -9.67604 -9.67604 -9.67604 -9.84712 -9.84712 -9.84712 -9.84712 -9.92995 -9.92995 -9.92995 -9.92995 -9.563 -9.563 -9.563 -9.563 -9.64389 -9.64389 -9.64389 -9.64389 -9.58723 -9.58723 -9.58723 -9.58723 -12.1195 -12.1195 -12.1195 -12.1195 -9.76891 -9.76891 -9.76891 -9.76891 -9.83233 -9.83233 -9.83233 -9.83233 -5.38388 -5.38388 -5.38388 -5.38388 -9.76226 -9.76226 -9.76226 -9.76226 -9.81842 -9.81842 -9.81842 -9.81842 -9.94029 -9.94029 -9.94029 -9.94029 -9.64887 -9.64887 -9.64887 -9.64887 -9.6512 -9.6512 -9.6512 -9.6512 -10.0793 -10.0793 -10.0793 -10.0793 -10.1138 -10.1138 -10.1138 -10.1138 -9.66214 -9.66214 -9.66214 -9.66214 -9.29909 -9.29909 -9.29909 -9.29909 -10.8793 -10.8793 -10.8793 -10.8793 -9.72963 -9.72963 -9.72963 -9.72963 -9.76813 -9.76813 -9.76813 -9.76813 -9.54958 -9.54958 -9.54958 -9.54958 -9.70634 -9.70634 -9.70634 -9.70634 -10.0355 -10.0355 -10.0355 -10.0355 -9.80635 -9.80635 -9.80635 -9.80635 -9.71597 -9.71597 -9.71597 -9.71597 -9.91374 -9.91374 -9.91374 -9.91374 -9.74602 -9.74602 -9.74602 -9.74602 -9.79989 -9.79989 -9.79989 -9.79989 -9.42501 -9.42501 -9.42501 -9.42501 -9.60219 -9.60219 -9.60219 -9.60219 -10.0625 -10.0625 -10.0625 -10.0625 -9.6352 -9.6352 -9.6352 -9.6352 -9.60293 -9.60293 -9.60293 -9.60293 -10.4563 -10.4563 -10.4563 -10.4563 -9.23006 -9.23006 -9.23006 -9.23006 -12.0042 -12.0042 -12.0042 -12.0042 -9.55308 -9.55308 -9.55308 -9.55308 -10.198 -10.198 -10.198 -10.198 -9.76871 -9.76871 -9.76871 -9.76871 -9.78547 -9.78547 -9.78547 -9.78547 -9.62009 -9.62009 -9.62009 -9.62009 -9.88861 -9.88861 -9.88861 -9.88861 -9.67026 -9.67026 -9.67026 -9.67026 -9.69595 -9.69595 -9.69595 -9.69595 -9.86869 -9.86869 -9.86869 -9.86869 -9.6563 -9.6563 -9.6563 -9.6563 -9.51481 -9.51481 -9.51481 -9.51481 -9.86666 -9.86666 -9.86666 -9.86666 -9.65534 -9.65534 -9.65534 -9.65534 -9.25727 -9.25727 -9.25727 -9.25727 -7.44631 -7.44631 -7.44631 -7.44631 -9.57653 -9.57653 -9.57653 -9.57653 -10.0541 -10.0541 -10.0541 -10.0541 -9.95631 -9.95631 -9.95631 -9.95631 -9.58962 -9.58962 -9.58962 -9.58962 -9.3404 -9.3404 -9.3404 -9.3404 -9.40652 -9.40652 -9.40652 -9.40652 -10.0747 -10.0747 -10.0747 -10.0747 -13.2485 -13.2485 -13.2485 -13.2485 -9.85216 -9.85216 -9.85216 -9.85216 -9.79062 -9.79062 -9.79062 -9.79062 -9.49944 -9.49944 -9.49944 -9.49944 -10.0256 -10.0256 -10.0256 -10.0256 -9.79538 -9.79538 -9.79538 -9.79538 -9.60373 -9.60373 -9.60373 -9.60373 -6.20433 -6.20433 -6.20433 -6.20433 -10.0512 -10.0512 -10.0512 -10.0512 -9.70797 -9.70797 -9.70797 -9.70797 -8.83768 -8.83768 -8.83768 -8.83768 -9.30385 -9.30385 -9.30385 -9.30385 -9.68873 -9.68873 -9.68873 -9.68873 -9.73853 -9.73853 -9.73853 -9.73853 -9.58024 -9.58024 -9.58024 -9.58024 -11.5689 -11.5689 -11.5689 -11.5689 -9.73716 -9.73716 -9.73716 -9.73716 -9.77625 -9.77625 -9.77625 -9.77625 -9.79331 -9.79331 -9.79331 -9.79331 -9.63529 -9.63529 -9.63529 -9.63529 -9.54949 -9.54949 -9.54949 -9.54949 -9.57322 -9.57322 -9.57322 -9.57322 -4.90516 -4.90516 -4.90516 -4.90516 -9.53773 -9.53773 -9.53773 -9.53773 -10.8488 -10.8488 -10.8488 -10.8488 -10.0597 -10.0597 -10.0597 -10.0597 -9.55708 -9.55708 -9.55708 -9.55708 -9.77939 -9.77939 -9.77939 -9.77939 -9.92539 -9.92539 -9.92539 -9.92539 -7.71519 -7.71519 -7.71519 -7.71519 -9.48467 -9.48467 -9.48467 -9.48467 -9.5566 -9.5566 -9.5566 -9.5566 -13.1049 -13.1049 -13.1049 -13.1049 -9.71563 -9.71563 -9.71563 -9.71563 -9.60018 -9.60018 -9.60018 -9.60018 -9.56349 -9.56349 -9.56349 -9.56349 -9.53088 -9.53088 -9.53088 -9.53088 -4.04015 -4.04015 -4.04015 -4.04015 -4.00965 -4.00965 -4.00965 -4.00965 -12.1009 -12.1009 -12.1009 -12.1009 -10.8465 -10.8465 -10.8465 -10.8465 -9.53326 -9.53326 -9.53326 -9.53326 -9.61288 -9.61288 -9.61288 -9.61288 -9.81398 -9.81398 -9.81398 -9.81398 -2.41844 -2.41844 -2.41844 -2.41844 -9.48717 -9.48717 -9.48717 -9.48717 -9.57529 -9.57529 -9.57529 -9.57529 -8.99102 -8.99102 -8.99102 -8.99102 -10.2161 -10.2161 -10.2161 -10.2161 -10.1021 -10.1021 -10.1021 -10.1021 -9.84078 -9.84078 -9.84078 -9.84078 -9.75636 -9.75636 -9.75636 -9.75636 -10.1386 -10.1386 -10.1386 -10.1386 -9.77918 -9.77918 -9.77918 -9.77918 -9.02886 -9.02886 -9.02886 -9.02886 -9.59195 -9.59195 -9.59195 -9.59195 -9.88828 -9.88828 -9.88828 -9.88828 -10.0836 -10.0836 -10.0836 -10.0836 -10.0561 -10.0561 -10.0561 -10.0561 -10.0668 -10.0668 -10.0668 -10.0668 -7.91788 -7.91788 -7.91788 -7.91788 -11.3797 -11.3797 -11.3797 -11.3797 -9.68696 -9.68696 -9.68696 -9.68696 -10.8268 -10.8268 -10.8268 -10.8268 -9.77593 -9.77593 -9.77593 -9.77593 -11.2511 -11.2511 -11.2511 -11.2511 -9.71265 -9.71265 -9.71265 -9.71265 -9.77979 -9.77979 -9.77979 -9.77979 -9.88161 -9.88161 -9.88161 -9.88161 -9.63488 -9.63488 -9.63488 -9.63488 -9.64649 -9.64649 -9.64649 -9.64649 -7.23054 -7.23054 -7.23054 -7.23054 -9.81958 -9.81958 -9.81958 -9.81958 -11.1029 -11.1029 -11.1029 -11.1029 -12.014 -12.014 -12.014 -12.014 -9.78856 -9.78856 -9.78856 -9.78856 -10.1218 -10.1218 -10.1218 -10.1218 -12.7048 -12.7048 -12.7048 -12.7048 -9.85216 -9.85216 -9.85216 -9.85216 -9.0943 -9.0943 -9.0943 -9.0943 -10.0571 -10.0571 -10.0571 -10.0571 -9.72683 -9.72683 -9.72683 -9.72683 -11.1895 -11.1895 -11.1895 -11.1895 -9.9483 -9.9483 -9.9483 -9.9483 -9.73109 -9.73109 -9.73109 -9.73109 -9.61609 -9.61609 -9.61609 -9.61609 -9.59956 -9.59956 -9.59956 -9.59956 -9.85798 -9.85798 -9.85798 -9.85798 -9.94802 -9.94802 -9.94802 -9.94802 -10.0845 -10.0845 -10.0845 -10.0845 -9.60082 -9.60082 -9.60082 -9.60082 -11.6245 -11.6245 -11.6245 -11.6245 -9.77538 -9.77538 -9.77538 -9.77538 -9.46109 -9.46109 -9.46109 -9.46109 -10.0278 -10.0278 -10.0278 -10.0278 -10.0635 -10.0635 -10.0635 -10.0635 -9.62882 -9.62882 -9.62882 -9.62882 -5.60633 -5.60633 -5.60633 -5.60633 -10.0508 -10.0508 -10.0508 -10.0508 -9.58575 -9.58575 -9.58575 -9.58575 -9.36755 -9.36755 -9.36755 -9.36755 -10.0911 -10.0911 -10.0911 -10.0911 -9.86646 -9.86646 -9.86646 -9.86646 -9.80243 -9.80243 -9.80243 -9.80243 -10.2328 -10.2328 -10.2328 -10.2328 -9.40491 -9.40491 -9.40491 -9.40491 -9.44485 -9.44485 -9.44485 -9.44485 -9.87777 -9.87777 -9.87777 -9.87777 -9.56467 -9.56467 -9.56467 -9.56467 -8.97667 -8.97667 -8.97667 -8.97667 -9.85597 -9.85597 -9.85597 -9.85597 -9.66709 -9.66709 -9.66709 -9.66709 -9.74546 -9.74546 -9.74546 -9.74546 -9.76322 -9.76322 -9.76322 -9.76322 -11.8183 -11.8183 -11.8183 -11.8183 -7.51712 -7.51712 -7.51712 -7.51712 -10.0115 -10.0115 -10.0115 -10.0115 -9.8041 -9.8041 -9.8041 -9.8041 -10.0661 -10.0661 -10.0661 -10.0661 -9.70813 -9.70813 -9.70813 -9.70813 -11.0095 -11.0095 -11.0095 -11.0095 -9.64053 -9.64053 -9.64053 -9.64053 -9.58797 -9.58797 -9.58797 -9.58797 -3.44933 -3.44933 -3.44933 -3.44933 -9.93182 -9.93182 -9.93182 -9.93182 -9.69794 -9.69794 -9.69794 -9.69794 -9.71503 -9.71503 -9.71503 -9.71503 -9.76781 -9.76781 -9.76781 -9.76781 -9.7276 -9.7276 -9.7276 -9.7276 -9.72582 -9.72582 -9.72582 -9.72582 -10.2775 -10.2775 -10.2775 -10.2775 -9.66324 -9.66324 -9.66324 -9.66324 -10.0905 -10.0905 -10.0905 -10.0905 -9.7794 -9.7794 -9.7794 -9.7794 -9.86705 -9.86705 -9.86705 -9.86705 -9.85932 -9.85932 -9.85932 -9.85932 -8.75526 -8.75526 -8.75526 -8.75526 -9.73982 -9.73982 -9.73982 -9.73982 -9.50786 -9.50786 -9.50786 -9.50786 -11.9413 -11.9413 -11.9413 -11.9413 -11.2932 -11.2932 -11.2932 -11.2932 -2.93204 -2.93204 -2.93204 -2.93204 -11.8275 -11.8275 -11.8275 -11.8275 -12.5581 -12.5581 -12.5581 -12.5581 -10.053 -10.053 -10.053 -10.053 -3.25908 -3.25908 -3.25908 -3.25908 -9.43925 -9.43925 -9.43925 -9.43925 -9.71398 -9.71398 -9.71398 -9.71398 -9.55535 -9.55535 -9.55535 -9.55535 -9.8042 -9.8042 -9.8042 -9.8042 -5.5164 -5.5164 -5.5164 -5.5164 -10.0934 -10.0934 -10.0934 -10.0934 -9.64444 -9.64444 -9.64444 -9.64444 -9.55763 -9.55763 -9.55763 -9.55763 -9.6275 -9.6275 -9.6275 -9.6275 -3.33394 -3.33394 -3.33394 -3.33394 -11.0628 -11.0628 -11.0628 -11.0628 -9.71143 -9.71143 -9.71143 -9.71143 -8.50973 -8.50973 -8.50973 -8.50973 -9.81287 -9.81287 -9.81287 -9.81287 -9.81888 -9.81888 -9.81888 -9.81888 -9.75631 -9.75631 -9.75631 -9.75631 -9.55367 -9.55367 -9.55367 -9.55367 -9.63765 -9.63765 -9.63765 -9.63765 -11.8702 -11.8702 -11.8702 -11.8702 -9.75952 -9.75952 -9.75952 -9.75952 -9.88224 -9.88224 -9.88224 -9.88224 -9.83578 -9.83578 -9.83578 -9.83578 -9.78703 -9.78703 -9.78703 -9.78703 -6.72084 -6.72084 -6.72084 -6.72084 -9.7287 -9.7287 -9.7287 -9.7287 -9.74274 -9.74274 -9.74274 -9.74274 -10.0671 -10.0671 -10.0671 -10.0671 -9.6154 -9.6154 -9.6154 -9.6154 -10.4945 -10.4945 -10.4945 -10.4945 -3.33473 -3.33473 -3.33473 -3.33473 -11.2319 -11.2319 -11.2319 -11.2319 -9.60803 -9.60803 -9.60803 -9.60803 -9.7591 -9.7591 -9.7591 -9.7591 -9.61384 -9.61384 -9.61384 -9.61384 -9.7258 -9.7258 -9.7258 -9.7258 -9.72464 -9.72464 -9.72464 -9.72464 -11.9089 -11.9089 -11.9089 -11.9089 -9.77044 -9.77044 -9.77044 -9.77044 -9.84588 -9.84588 -9.84588 -9.84588 -9.85344 -9.85344 -9.85344 -9.85344 -9.59444 -9.59444 -9.59444 -9.59444 -10.0758 -10.0758 -10.0758 -10.0758 -9.65006 -9.65006 -9.65006 -9.65006 -9.23123 -9.23123 -9.23123 -9.23123 -2.63043 -2.63043 -2.63043 -2.63043 -9.82579 -9.82579 -9.82579 -9.82579 -9.64459 -9.64459 -9.64459 -9.64459 -9.76366 -9.76366 -9.76366 -9.76366 -9.88314 -9.88314 -9.88314 -9.88314 -9.91983 -9.91983 -9.91983 -9.91983 -10.9549 -10.9549 -10.9549 -10.9549 -4.4465 -4.4465 -4.4465 -4.4465 -10.0493 -10.0493 -10.0493 -10.0493 -9.79608 -9.79608 -9.79608 -9.79608 -9.48951 -9.48951 -9.48951 -9.48951 -9.57977 -9.57977 -9.57977 -9.57977 -9.77752 -9.77752 -9.77752 -9.77752 -9.59425 -9.59425 -9.59425 -9.59425 -10.0083 -10.0083 -10.0083 -10.0083 -9.68695 -9.68695 -9.68695 -9.68695 -9.76716 -9.76716 -9.76716 -9.76716 -9.7495 -9.7495 -9.7495 -9.7495 -9.63731 -9.63731 -9.63731 -9.63731 -9.77764 -9.77764 -9.77764 -9.77764 -10.0706 -10.0706 -10.0706 -10.0706 -14.0844 -14.0844 -14.0844 -14.0844 -9.77301 -9.77301 -9.77301 -9.77301 -9.64203 -9.64203 -9.64203 -9.64203 -9.87882 -9.87882 -9.87882 -9.87882 -10.0604 -10.0604 -10.0604 -10.0604 -10.0883 -10.0883 -10.0883 -10.0883 -9.76959 -9.76959 -9.76959 -9.76959 -10.1186 -10.1186 -10.1186 -10.1186 -9.63611 -9.63611 -9.63611 -9.63611 -9.33349 -9.33349 -9.33349 -9.33349 -9.41718 -9.41718 -9.41718 -9.41718 -11.3311 -11.3311 -11.3311 -11.3311 -9.87328 -9.87328 -9.87328 -9.87328 -9.75321 -9.75321 -9.75321 -9.75321 -9.90702 -9.90702 -9.90702 -9.90702 -9.38615 -9.38615 -9.38615 -9.38615 -3.86784 -3.86784 -3.86784 -3.86784 -9.91722 -9.91722 -9.91722 -9.91722 -10.0083 -10.0083 -10.0083 -10.0083 -9.4113 -9.4113 -9.4113 -9.4113 -10.722 -10.722 -10.722 -10.722 -9.65396 -9.65396 -9.65396 -9.65396 -9.69346 -9.69346 -9.69346 -9.69346 -3.36058 -3.36058 -3.36058 -3.36058 -10.4895 -10.4895 -10.4895 -10.4895 -2.60176 -2.60176 -2.60176 -2.60176 -10.006 -10.006 -10.006 -10.006 -10.1694 -10.1694 -10.1694 -10.1694 -9.41886 -9.41886 -9.41886 -9.41886 -9.53515 -9.53515 -9.53515 -9.53515 -10.6603 -10.6603 -10.6603 -10.6603 -9.62506 -9.62506 -9.62506 -9.62506 -9.85316 -9.85316 -9.85316 -9.85316 -3.25086 -3.25086 -3.25086 -3.25086 -9.50023 -9.50023 -9.50023 -9.50023 -9.94675 -9.94675 -9.94675 -9.94675 -9.9127 -9.9127 -9.9127 -9.9127 -9.60616 -9.60616 -9.60616 -9.60616 -9.46787 -9.46787 -9.46787 -9.46787 -9.59038 -9.59038 -9.59038 -9.59038 -6.45508 -6.45508 -6.45508 -6.45508 -9.35435 -9.35435 -9.35435 -9.35435 -9.76012 -9.76012 -9.76012 -9.76012 -9.75491 -9.75491 -9.75491 -9.75491 -9.93866 -9.93866 -9.93866 -9.93866 -5.24235 -5.24235 -5.24235 -5.24235 -9.87322 -9.87322 -9.87322 -9.87322 -9.87396 -9.87396 -9.87396 -9.87396 -10.0731 -10.0731 -10.0731 -10.0731 -9.9477 -9.9477 -9.9477 -9.9477 -9.68021 -9.68021 -9.68021 -9.68021 -9.94375 -9.94375 -9.94375 -9.94375 -9.77928 -9.77928 -9.77928 -9.77928 -9.78125 -9.78125 -9.78125 -9.78125 -9.7457 -9.7457 -9.7457 -9.7457 -9.60233 -9.60233 -9.60233 -9.60233 -9.69272 -9.69272 -9.69272 -9.69272 -9.74414 -9.74414 -9.74414 -9.74414 -9.41548 -9.41548 -9.41548 -9.41548 -9.47683 -9.47683 -9.47683 -9.47683 -9.86897 -9.86897 -9.86897 -9.86897 -2.50013 -2.50013 -2.50013 -2.50013 -9.70162 -9.70162 -9.70162 -9.70162 -9.94942 -9.94942 -9.94942 -9.94942 -9.80814 -9.80814 -9.80814 -9.80814 -11.1489 -11.1489 -11.1489 -11.1489 -10.8626 -10.8626 -10.8626 -10.8626 -9.17834 -9.17834 -9.17834 -9.17834 -11.462 -11.462 -11.462 -11.462 -9.54789 -9.54789 -9.54789 -9.54789 -9.73879 -9.73879 -9.73879 -9.73879 -9.647 -9.647 -9.647 -9.647 -9.90374 -9.90374 -9.90374 -9.90374 -9.56972 -9.56972 -9.56972 -9.56972 -9.49526 -9.49526 -9.49526 -9.49526 -9.44988 -9.44988 -9.44988 -9.44988 -9.89274 -9.89274 -9.89274 -9.89274 -9.7875 -9.7875 -9.7875 -9.7875 -9.7547 -9.7547 -9.7547 -9.7547 -9.23029 -9.23029 -9.23029 -9.23029 -11.4053 -11.4053 -11.4053 -11.4053 -9.91384 -9.91384 -9.91384 -9.91384 -9.82053 -9.82053 -9.82053 -9.82053 -9.96143 -9.96143 -9.96143 -9.96143 -9.78305 -9.78305 -9.78305 -9.78305 -9.61482 -9.61482 -9.61482 -9.61482 -9.68478 -9.68478 -9.68478 -9.68478 -9.64335 -9.64335 -9.64335 -9.64335 -9.90614 -9.90614 -9.90614 -9.90614 -9.69423 -9.69423 -9.69423 -9.69423 -9.92113 -9.92113 -9.92113 -9.92113 -9.90717 -9.90717 -9.90717 -9.90717 -12.214 -12.214 -12.214 -12.214 -11.2238 -11.2238 -11.2238 -11.2238 -9.06737 -9.06737 -9.06737 -9.06737 -9.77194 -9.77194 -9.77194 -9.77194 -10.0154 -10.0154 -10.0154 -10.0154 -8.83115 -8.83115 -8.83115 -8.83115 -9.54277 -9.54277 -9.54277 -9.54277 -9.79453 -9.79453 -9.79453 -9.79453 -9.42377 -9.42377 -9.42377 -9.42377 -9.65198 -9.65198 -9.65198 -9.65198 -9.56955 -9.56955 -9.56955 -9.56955 -5.85851 -5.85851 -5.85851 -5.85851 -10.0762 -10.0762 -10.0762 -10.0762 -11.8869 -11.8869 -11.8869 -11.8869 -10.7888 -10.7888 -10.7888 -10.7888 -11.1683 -11.1683 -11.1683 -11.1683 -9.65257 -9.65257 -9.65257 -9.65257 -9.86352 -9.86352 -9.86352 -9.86352 -9.76595 -9.76595 -9.76595 -9.76595 -9.50794 -9.50794 -9.50794 -9.50794 -8.93925 -8.93925 -8.93925 -8.93925 -3.08027 -3.08027 -3.08027 -3.08027 -9.41981 -9.41981 -9.41981 -9.41981 -9.87034 -9.87034 -9.87034 -9.87034 -9.05599 -9.05599 -9.05599 -9.05599 -9.63849 -9.63849 -9.63849 -9.63849 -9.61187 -9.61187 -9.61187 -9.61187 -9.58225 -9.58225 -9.58225 -9.58225 -9.68196 -9.68196 -9.68196 -9.68196 -9.85959 -9.85959 -9.85959 -9.85959 -10.0327 -10.0327 -10.0327 -10.0327 -10.1074 -10.1074 -10.1074 -10.1074 -9.10401 -9.10401 -9.10401 -9.10401 -11.2319 -11.2319 -11.2319 -11.2319 -10.6934 -10.6934 -10.6934 -10.6934 -9.71308 -9.71308 -9.71308 -9.71308 -11.4648 -11.4648 -11.4648 -11.4648 -9.96063 -9.96063 -9.96063 -9.96063 -9.63206 -9.63206 -9.63206 -9.63206 -10.0625 -10.0625 -10.0625 -10.0625 -9.73369 -9.73369 -9.73369 -9.73369 -10.5778 -10.5778 -10.5778 -10.5778 -9.94812 -9.94812 -9.94812 -9.94812 -9.83028 -9.83028 -9.83028 -9.83028 -9.75701 -9.75701 -9.75701 -9.75701 -9.66618 -9.66618 -9.66618 -9.66618 -9.69404 -9.69404 -9.69404 -9.69404 -9.47855 -9.47855 -9.47855 -9.47855 -9.74009 -9.74009 -9.74009 -9.74009 -9.68724 -9.68724 -9.68724 -9.68724 -4.08629 -4.08629 -4.08629 -4.08629 -3.45936 -3.45936 -3.45936 -3.45936 -9.76146 -9.76146 -9.76146 -9.76146 -9.75065 -9.75065 -9.75065 -9.75065 -9.75151 -9.75151 -9.75151 -9.75151 -9.74967 -9.74967 -9.74967 -9.74967 -9.74442 -9.74442 -9.74442 -9.74442 -9.60304 -9.60304 -9.60304 -9.60304 -9.78917 -9.78917 -9.78917 -9.78917 -9.72916 -9.72916 -9.72916 -9.72916 -10.0967 -10.0967 -10.0967 -10.0967 -9.78931 -9.78931 -9.78931 -9.78931 -10.0111 -10.0111 -10.0111 -10.0111 -9.60335 -9.60335 -9.60335 -9.60335 -9.66746 -9.66746 -9.66746 -9.66746 -9.35026 -9.35026 -9.35026 -9.35026 -3.88987 -3.88987 -3.88987 -3.88987 -10.1837 -10.1837 -10.1837 -10.1837 -6.90252 -6.90252 -6.90252 -6.90252 -9.81991 -9.81991 -9.81991 -9.81991 -4.22952 -4.22952 -4.22952 -4.22952 -9.70794 -9.70794 -9.70794 -9.70794 -9.47647 -9.47647 -9.47647 -9.47647 -9.72384 -9.72384 -9.72384 -9.72384 -9.83617 -9.83617 -9.83617 -9.83617 -10.039 -10.039 -10.039 -10.039 -9.7064 -9.7064 -9.7064 -9.7064 -9.56081 -9.56081 -9.56081 -9.56081 -9.28246 -9.28246 -9.28246 -9.28246 -9.77076 -9.77076 -9.77076 -9.77076 -9.80376 -9.80376 -9.80376 -9.80376 -8.46686 -8.46686 -8.46686 -8.46686 -9.8154 -9.8154 -9.8154 -9.8154 -9.60663 -9.60663 -9.60663 -9.60663 -9.76837 -9.76837 -9.76837 -9.76837 -9.73571 -9.73571 -9.73571 -9.73571 -9.87119 -9.87119 -9.87119 -9.87119 -9.7178 -9.7178 -9.7178 -9.7178 -3.72809 -3.72809 -3.72809 -3.72809 -9.54155 -9.54155 -9.54155 -9.54155 -9.74181 -9.74181 -9.74181 -9.74181 -8.25886 -8.25886 -8.25886 -8.25886 -8.97796 -8.97796 -8.97796 -8.97796 -6.73909 -6.73909 -6.73909 -6.73909 -9.65786 -9.65786 -9.65786 -9.65786 -9.31271 -9.31271 -9.31271 -9.31271 -10.0999 -10.0999 -10.0999 -10.0999 -9.73196 -9.73196 -9.73196 -9.73196 -9.6284 -9.6284 -9.6284 -9.6284 -10.112 -10.112 -10.112 -10.112 -9.7422 -9.7422 -9.7422 -9.7422 -9.75672 -9.75672 -9.75672 -9.75672 -9.78208 -9.78208 -9.78208 -9.78208 -9.56934 -9.56934 -9.56934 -9.56934 -9.75448 -9.75448 -9.75448 -9.75448 -9.7955 -9.7955 -9.7955 -9.7955 -9.56271 -9.56271 -9.56271 -9.56271 -9.90718 -9.90718 -9.90718 -9.90718 -5.65328 -5.65328 -5.65328 -5.65328 -8.74951 -8.74951 -8.74951 -8.74951 -12.0238 -12.0238 -12.0238 -12.0238 -9.49621 -9.49621 -9.49621 -9.49621 -9.1205 -9.1205 -9.1205 -9.1205 -9.63957 -9.63957 -9.63957 -9.63957 -9.68366 -9.68366 -9.68366 -9.68366 -9.52261 -9.52261 -9.52261 -9.52261 -10.9794 -10.9794 -10.9794 -10.9794 -9.53537 -9.53537 -9.53537 -9.53537 -9.75013 -9.75013 -9.75013 -9.75013 -13.491 -13.491 -13.491 -13.491 -9.68046 -9.68046 -9.68046 -9.68046 -9.95658 -9.95658 -9.95658 -9.95658 -5.13429 -5.13429 -5.13429 -5.13429 -9.73195 -9.73195 -9.73195 -9.73195 -9.61492 -9.61492 -9.61492 -9.61492 -9.60375 -9.60375 -9.60375 -9.60375 -9.52597 -9.52597 -9.52597 -9.52597 -11.8697 -11.8697 -11.8697 -11.8697 -10.6089 -10.6089 -10.6089 -10.6089 -9.79717 -9.79717 -9.79717 -9.79717 -10.1098 -10.1098 -10.1098 -10.1098 -9.96648 -9.96648 -9.96648 -9.96648 -9.73223 -9.73223 -9.73223 -9.73223 -9.75737 -9.75737 -9.75737 -9.75737 -9.68202 -9.68202 -9.68202 -9.68202 -9.6849 -9.6849 -9.6849 -9.6849 -9.66962 -9.66962 -9.66962 -9.66962 -9.5685 -9.5685 -9.5685 -9.5685 -9.86725 -9.86725 -9.86725 -9.86725 -8.91637 -8.91637 -8.91637 -8.91637 -9.78053 -9.78053 -9.78053 -9.78053 -9.79684 -9.79684 -9.79684 -9.79684 -9.763 -9.763 -9.763 -9.763 -9.86495 -9.86495 -9.86495 -9.86495 -9.64841 -9.64841 -9.64841 -9.64841 -8.22934 -8.22934 -8.22934 -8.22934 -9.6721 -9.6721 -9.6721 -9.6721 -9.45951 -9.45951 -9.45951 -9.45951 -9.69395 -9.69395 -9.69395 -9.69395 -9.44773 -9.44773 -9.44773 -9.44773 -4.08429 -4.08429 -4.08429 -4.08429 -10.0718 -10.0718 -10.0718 -10.0718 -9.80858 -9.80858 -9.80858 -9.80858 -9.77552 -9.77552 -9.77552 -9.77552 -10.078 -10.078 -10.078 -10.078 -9.85807 -9.85807 -9.85807 -9.85807 -9.74886 -9.74886 -9.74886 -9.74886 -11.8086 -11.8086 -11.8086 -11.8086 -9.95172 -9.95172 -9.95172 -9.95172 -9.55562 -9.55562 -9.55562 -9.55562 -9.61012 -9.61012 -9.61012 -9.61012 -9.89596 -9.89596 -9.89596 -9.89596 -9.59976 -9.59976 -9.59976 -9.59976 -9.79997 -9.79997 -9.79997 -9.79997 -9.68855 -9.68855 -9.68855 -9.68855 -8.91485 -8.91485 -8.91485 -8.91485 -9.80964 -9.80964 -9.80964 -9.80964 -10.4435 -10.4435 -10.4435 -10.4435 -11.3095 -11.3095 -11.3095 -11.3095 -9.8521 -9.8521 -9.8521 -9.8521 -10.0784 -10.0784 -10.0784 -10.0784 -9.74043 -9.74043 -9.74043 -9.74043 -10.3158 -10.3158 -10.3158 -10.3158 -9.77438 -9.77438 -9.77438 -9.77438 -9.39859 -9.39859 -9.39859 -9.39859 -9.62778 -9.62778 -9.62778 -9.62778 -9.54414 -9.54414 -9.54414 -9.54414 -10.1194 -10.1194 -10.1194 -10.1194 -9.39415 -9.39415 -9.39415 -9.39415 -9.94837 -9.94837 -9.94837 -9.94837 -10.1075 -10.1075 -10.1075 -10.1075 -9.50972 -9.50972 -9.50972 -9.50972 -9.55673 -9.55673 -9.55673 -9.55673 -9.66958 -9.66958 -9.66958 -9.66958 -9.85836 -9.85836 -9.85836 -9.85836 -9.94062 -9.94062 -9.94062 -9.94062 -9.76968 -9.76968 -9.76968 -9.76968 -9.59829 -9.59829 -9.59829 -9.59829 -9.78903 -9.78903 -9.78903 -9.78903 -9.41996 -9.41996 -9.41996 -9.41996 -9.83157 -9.83157 -9.83157 -9.83157 -9.77926 -9.77926 -9.77926 -9.77926 -10.0433 -10.0433 -10.0433 -10.0433 -9.64653 -9.64653 -9.64653 -9.64653 -9.59224 -9.59224 -9.59224 -9.59224 -9.95329 -9.95329 -9.95329 -9.95329 -9.47861 -9.47861 -9.47861 -9.47861 -9.39956 -9.39956 -9.39956 -9.39956 -10.0936 -10.0936 -10.0936 -10.0936 -9.30494 -9.30494 -9.30494 -9.30494 -12.0404 -12.0404 -12.0404 -12.0404 -9.8314 -9.8314 -9.8314 -9.8314 -12.4753 -12.4753 -12.4753 -12.4753 -7.16843 -7.16843 -7.16843 -7.16843 -9.58823 -9.58823 -9.58823 -9.58823 -9.63606 -9.63606 -9.63606 -9.63606 -10.9127 -10.9127 -10.9127 -10.9127 -9.90078 -9.90078 -9.90078 -9.90078 -11.7756 -11.7756 -11.7756 -11.7756 -9.80276 -9.80276 -9.80276 -9.80276 -9.64612 -9.64612 -9.64612 -9.64612 -11.885 -11.885 -11.885 -11.885 -9.76577 -9.76577 -9.76577 -9.76577 -9.6123 -9.6123 -9.6123 -9.6123 -9.75361 -9.75361 -9.75361 -9.75361 -9.69638 -9.69638 -9.69638 -9.69638 -10.6039 -10.6039 -10.6039 -10.6039 -9.94039 -9.94039 -9.94039 -9.94039 -12.1438 -12.1438 -12.1438 -12.1438 -10.3316 -10.3316 -10.3316 -10.3316 -3.39372 -3.39372 -3.39372 -3.39372 -12.0798 -12.0798 -12.0798 -12.0798 -9.80975 -9.80975 -9.80975 -9.80975 -11.4272 -11.4272 -11.4272 -11.4272 -10.1008 -10.1008 -10.1008 -10.1008 -9.84824 -9.84824 -9.84824 -9.84824 -9.61942 -9.61942 -9.61942 -9.61942 -10.0779 -10.0779 -10.0779 -10.0779 -9.83568 -9.83568 -9.83568 -9.83568 -11.3063 -11.3063 -11.3063 -11.3063 -9.50536 -9.50536 -9.50536 -9.50536 -8.9384 -8.9384 -8.9384 -8.9384 -9.90654 -9.90654 -9.90654 -9.90654 -9.83741 -9.83741 -9.83741 -9.83741 -9.79423 -9.79423 -9.79423 -9.79423 -9.80264 -9.80264 -9.80264 -9.80264 -8.84437 -8.84437 -8.84437 -8.84437 -5.20544 -5.20544 -5.20544 -5.20544 -9.84575 -9.84575 -9.84575 -9.84575 -9.45354 -9.45354 -9.45354 -9.45354 -9.77338 -9.77338 -9.77338 -9.77338 -9.8073 -9.8073 -9.8073 -9.8073 -10.2567 -10.2567 -10.2567 -10.2567 -9.85098 -9.85098 -9.85098 -9.85098 -9.47025 -9.47025 -9.47025 -9.47025 -9.78095 -9.78095 -9.78095 -9.78095 -10.0632 -10.0632 -10.0632 -10.0632 -4.09261 -4.09261 -4.09261 -4.09261 -11.967 -11.967 -11.967 -11.967 -3.6251 -3.6251 -3.6251 -3.6251 -9.54033 -9.54033 -9.54033 -9.54033 -9.7858 -9.7858 -9.7858 -9.7858 -8.67899 -8.67899 -8.67899 -8.67899 -9.90093 -9.90093 -9.90093 -9.90093 -9.76794 -9.76794 -9.76794 -9.76794 -9.70121 -9.70121 -9.70121 -9.70121 -9.77502 -9.77502 -9.77502 -9.77502 -9.73059 -9.73059 -9.73059 -9.73059 -9.78931 -9.78931 -9.78931 -9.78931 -9.95157 -9.95157 -9.95157 -9.95157 -9.55648 -9.55648 -9.55648 -9.55648 -9.50206 -9.50206 -9.50206 -9.50206 -8.38882 -8.38882 -8.38882 -8.38882 -9.96632 -9.96632 -9.96632 -9.96632 -9.88764 -9.88764 -9.88764 -9.88764 -11.0709 -11.0709 -11.0709 -11.0709 -11.7965 -11.7965 -11.7965 -11.7965 -9.79353 -9.79353 -9.79353 -9.79353 -9.8744 -9.8744 -9.8744 -9.8744 -3.83958 -3.83958 -3.83958 -3.83958 -9.9924 -9.9924 -9.9924 -9.9924 -10.0298 -10.0298 -10.0298 -10.0298 -3.33265 -3.33265 -3.33265 -3.33265 -9.83541 -9.83541 -9.83541 -9.83541 -10.1124 -10.1124 -10.1124 -10.1124 -9.85753 -9.85753 -9.85753 -9.85753 -9.66665 -9.66665 -9.66665 -9.66665 -4.42197 -4.42197 -4.42197 -4.42197 -9.77558 -9.77558 -9.77558 -9.77558 -8.92662 -8.92662 -8.92662 -8.92662 -9.62519 -9.62519 -9.62519 -9.62519 -9.63279 -9.63279 -9.63279 -9.63279 -9.80286 -9.80286 -9.80286 -9.80286 -9.8955 -9.8955 -9.8955 -9.8955 -10.1244 -10.1244 -10.1244 -10.1244 -9.15139 -9.15139 -9.15139 -9.15139 -11.2438 -11.2438 -11.2438 -11.2438 -10.0114 -10.0114 -10.0114 -10.0114 -9.7829 -9.7829 -9.7829 -9.7829 -9.77331 -9.77331 -9.77331 -9.77331 -9.35953 -9.35953 -9.35953 -9.35953 -9.60079 -9.60079 -9.60079 -9.60079 -4.50562 -4.50562 -4.50562 -4.50562 -9.80893 -9.80893 -9.80893 -9.80893 -9.75077 -9.75077 -9.75077 -9.75077 -9.53323 -9.53323 -9.53323 -9.53323 -9.67052 -9.67052 -9.67052 -9.67052 -9.64589 -9.64589 -9.64589 -9.64589 -9.63012 -9.63012 -9.63012 -9.63012 -9.76887 -9.76887 -9.76887 -9.76887 -9.73152 -9.73152 -9.73152 -9.73152 -9.61308 -9.61308 -9.61308 -9.61308 -2.93505 -2.93505 -2.93505 -2.93505 -9.69885 -9.69885 -9.69885 -9.69885 -9.63519 -9.63519 -9.63519 -9.63519 -3.55327 -3.55327 -3.55327 -3.55327 -9.78058 -9.78058 -9.78058 -9.78058 -9.72095 -9.72095 -9.72095 -9.72095 -9.61985 -9.61985 -9.61985 -9.61985 -9.90364 -9.90364 -9.90364 -9.90364 -9.71647 -9.71647 -9.71647 -9.71647 -9.23483 -9.23483 -9.23483 -9.23483 -12.1412 -12.1412 -12.1412 -12.1412 -9.20838 -9.20838 -9.20838 -9.20838 -9.58435 -9.58435 -9.58435 -9.58435 -10.025 -10.025 -10.025 -10.025 -9.62354 -9.62354 -9.62354 -9.62354 -10.1014 -10.1014 -10.1014 -10.1014 -9.75377 -9.75377 -9.75377 -9.75377 -9.34209 -9.34209 -9.34209 -9.34209 -9.63995 -9.63995 -9.63995 -9.63995 -8.57836 -8.57836 -8.57836 -8.57836 -4.33185 -4.33185 -4.33185 -4.33185 -9.83861 -9.83861 -9.83861 -9.83861 -9.70909 -9.70909 -9.70909 -9.70909 -9.71559 -9.71559 -9.71559 -9.71559 -10.6426 -10.6426 -10.6426 -10.6426 -9.77931 -9.77931 -9.77931 -9.77931 -9.65116 -9.65116 -9.65116 -9.65116 -9.55873 -9.55873 -9.55873 -9.55873 -7.83754 -7.83754 -7.83754 -7.83754 -10.1013 -10.1013 -10.1013 -10.1013 -9.66752 -9.66752 -9.66752 -9.66752 -9.46038 -9.46038 -9.46038 -9.46038 -9.84752 -9.84752 -9.84752 -9.84752 -10.1704 -10.1704 -10.1704 -10.1704 -9.62562 -9.62562 -9.62562 -9.62562 -9.67961 -9.67961 -9.67961 -9.67961 -9.82929 -9.82929 -9.82929 -9.82929 -3.79504 -3.79504 -3.79504 -3.79504 -10.0102 -10.0102 -10.0102 -10.0102 -11.1955 -11.1955 -11.1955 -11.1955 -9.66083 -9.66083 -9.66083 -9.66083 -9.93508 -9.93508 -9.93508 -9.93508 -9.99616 -9.99616 -9.99616 -9.99616 -9.6817 -9.6817 -9.6817 -9.6817 -9.76059 -9.76059 -9.76059 -9.76059 -9.77693 -9.77693 -9.77693 -9.77693 -9.85257 -9.85257 -9.85257 -9.85257 -9.60213 -9.60213 -9.60213 -9.60213 -9.81051 -9.81051 -9.81051 -9.81051 -9.47105 -9.47105 -9.47105 -9.47105 -9.84213 -9.84213 -9.84213 -9.84213 -9.47556 -9.47556 -9.47556 -9.47556 -2.95017 -2.95017 -2.95017 -2.95017 -8.16343 -8.16343 -8.16343 -8.16343 -10.0849 -10.0849 -10.0849 -10.0849 -9.88802 -9.88802 -9.88802 -9.88802 -9.76855 -9.76855 -9.76855 -9.76855 -9.56046 -9.56046 -9.56046 -9.56046 -9.69847 -9.69847 -9.69847 -9.69847 -10.0964 -10.0964 -10.0964 -10.0964 -9.82705 -9.82705 -9.82705 -9.82705 -4.30795 -4.30795 -4.30795 -4.30795 -9.55097 -9.55097 -9.55097 -9.55097 -10.4564 -10.4564 -10.4564 -10.4564 -9.73412 -9.73412 -9.73412 -9.73412 -9.84191 -9.84191 -9.84191 -9.84191 -9.52477 -9.52477 -9.52477 -9.52477 -9.62142 -9.62142 -9.62142 -9.62142 -12.7291 -12.7291 -12.7291 -12.7291 -9.74563 -9.74563 -9.74563 -9.74563 -9.29781 -9.29781 -9.29781 -9.29781 -8.9884 -8.9884 -8.9884 -8.9884 -9.85866 -9.85866 -9.85866 -9.85866 -2.49956 -2.49956 -2.49956 -2.49956 -9.5884 -9.5884 -9.5884 -9.5884 -11.4353 -11.4353 -11.4353 -11.4353 -9.51458 -9.51458 -9.51458 -9.51458 -9.53328 -9.53328 -9.53328 -9.53328 -9.68963 -9.68963 -9.68963 -9.68963 -9.77588 -9.77588 -9.77588 -9.77588 -3.9468 -3.9468 -3.9468 -3.9468 -9.5207 -9.5207 -9.5207 -9.5207 -9.75116 -9.75116 -9.75116 -9.75116 -9.81306 -9.81306 -9.81306 -9.81306 -10.3253 -10.3253 -10.3253 -10.3253 -9.86855 -9.86855 -9.86855 -9.86855 -12.8083 -12.8083 -12.8083 -12.8083 -9.62596 -9.62596 -9.62596 -9.62596 -9.65182 -9.65182 -9.65182 -9.65182 -8.96811 -8.96811 -8.96811 -8.96811 -9.75415 -9.75415 -9.75415 -9.75415 -9.66049 -9.66049 -9.66049 -9.66049 -9.77849 -9.77849 -9.77849 -9.77849 -10.8671 -10.8671 -10.8671 -10.8671 -9.282 -9.282 -9.282 -9.282 -9.68538 -9.68538 -9.68538 -9.68538 -9.64621 -9.64621 -9.64621 -9.64621 -5.83203 -5.83203 -5.83203 -5.83203 -9.63567 -9.63567 -9.63567 -9.63567 -11.0686 -11.0686 -11.0686 -11.0686 -9.91648 -9.91648 -9.91648 -9.91648 -10.7695 -10.7695 -10.7695 -10.7695 -9.14992 -9.14992 -9.14992 -9.14992 -6.50332 -6.50332 -6.50332 -6.50332 -9.96103 -9.96103 -9.96103 -9.96103 -9.7409 -9.7409 -9.7409 -9.7409 -9.72817 -9.72817 -9.72817 -9.72817 -9.91345 -9.91345 -9.91345 -9.91345 -5.39218 -5.39218 -5.39218 -5.39218 -10.0887 -10.0887 -10.0887 -10.0887 -9.92082 -9.92082 -9.92082 -9.92082 -9.47583 -9.47583 -9.47583 -9.47583 -9.62053 -9.62053 -9.62053 -9.62053 -9.67984 -9.67984 -9.67984 -9.67984 -3.41046 -3.41046 -3.41046 -3.41046 -9.94013 -9.94013 -9.94013 -9.94013 -9.53487 -9.53487 -9.53487 -9.53487 -10.0674 -10.0674 -10.0674 -10.0674 -11.8848 -11.8848 -11.8848 -11.8848 -9.72308 -9.72308 -9.72308 -9.72308 -9.42277 -9.42277 -9.42277 -9.42277 -2.96326 -2.96326 -2.96326 -2.96326 -3.702 -3.702 -3.702 -3.702 -9.75314 -9.75314 -9.75314 -9.75314 -9.86331 -9.86331 -9.86331 -9.86331 -12.8531 -12.8531 -12.8531 -12.8531 -9.65015 -9.65015 -9.65015 -9.65015 -10.1077 -10.1077 -10.1077 -10.1077 -9.63641 -9.63641 -9.63641 -9.63641 -8.53916 -8.53916 -8.53916 -8.53916 -9.77604 -9.77604 -9.77604 -9.77604 -10.143 -10.143 -10.143 -10.143 -9.52146 -9.52146 -9.52146 -9.52146 -9.87692 -9.87692 -9.87692 -9.87692 -9.71569 -9.71569 -9.71569 -9.71569 -9.65238 -9.65238 -9.65238 -9.65238 -9.71409 -9.71409 -9.71409 -9.71409 -9.34215 -9.34215 -9.34215 -9.34215 -9.77619 -9.77619 -9.77619 -9.77619 -9.97873 -9.97873 -9.97873 -9.97873 -9.8865 -9.8865 -9.8865 -9.8865 -10.304 -10.304 -10.304 -10.304 -10.0271 -10.0271 -10.0271 -10.0271 -9.47666 -9.47666 -9.47666 -9.47666 -10.1114 -10.1114 -10.1114 -10.1114 -9.49973 -9.49973 -9.49973 -9.49973 -3.06268 -3.06268 -3.06268 -3.06268 -9.98218 -9.98218 -9.98218 -9.98218 -9.62534 -9.62534 -9.62534 -9.62534 -9.74154 -9.74154 -9.74154 -9.74154 -9.26548 -9.26548 -9.26548 -9.26548 -11.1743 -11.1743 -11.1743 -11.1743 -9.9121 -9.9121 -9.9121 -9.9121 -9.61235 -9.61235 -9.61235 -9.61235 -11.1371 -11.1371 -11.1371 -11.1371 -9.94895 -9.94895 -9.94895 -9.94895 -10.3301 -10.3301 -10.3301 -10.3301 -9.77911 -9.77911 -9.77911 -9.77911 -9.7507 -9.7507 -9.7507 -9.7507 -9.75999 -9.75999 -9.75999 -9.75999 -12.8396 -12.8396 -12.8396 -12.8396 -9.76555 -9.76555 -9.76555 -9.76555 -12.7246 -12.7246 -12.7246 -12.7246 -9.95187 -9.95187 -9.95187 -9.95187 -9.68691 -9.68691 -9.68691 -9.68691 -9.62388 -9.62388 -9.62388 -9.62388 -6.33353 -6.33353 -6.33353 -6.33353 -10.1116 -10.1116 -10.1116 -10.1116 -9.65329 -9.65329 -9.65329 -9.65329 -9.62395 -9.62395 -9.62395 -9.62395 -9.65364 -9.65364 -9.65364 -9.65364 -9.61508 -9.61508 -9.61508 -9.61508 -9.42596 -9.42596 -9.42596 -9.42596 -9.62948 -9.62948 -9.62948 -9.62948 -9.8067 -9.8067 -9.8067 -9.8067 -12.3864 -12.3864 -12.3864 -12.3864 -10.1808 -10.1808 -10.1808 -10.1808 -9.83767 -9.83767 -9.83767 -9.83767 -9.66892 -9.66892 -9.66892 -9.66892 -9.92965 -9.92965 -9.92965 -9.92965 -9.53256 -9.53256 -9.53256 -9.53256 -5.42995 -5.42995 -5.42995 -5.42995 -10.0584 -10.0584 -10.0584 -10.0584 -9.81002 -9.81002 -9.81002 -9.81002 -9.68279 -9.68279 -9.68279 -9.68279 -10.2387 -10.2387 -10.2387 -10.2387 -9.72056 -9.72056 -9.72056 -9.72056 -9.69934 -9.69934 -9.69934 -9.69934 -9.65539 -9.65539 -9.65539 -9.65539 -9.94347 -9.94347 -9.94347 -9.94347 -6.70104 -6.70104 -6.70104 -6.70104 -10.0531 -10.0531 -10.0531 -10.0531 -9.61837 -9.61837 -9.61837 -9.61837 -9.73211 -9.73211 -9.73211 -9.73211 -9.64636 -9.64636 -9.64636 -9.64636 -9.66056 -9.66056 -9.66056 -9.66056 -10.0413 -10.0413 -10.0413 -10.0413 -9.90726 -9.90726 -9.90726 -9.90726 -10.5752 -10.5752 -10.5752 -10.5752 -9.93899 -9.93899 -9.93899 -9.93899 -9.84221 -9.84221 -9.84221 -9.84221 -10.271 -10.271 -10.271 -10.271 -9.89564 -9.89564 -9.89564 -9.89564 -9.27784 -9.27784 -9.27784 -9.27784 -11.5991 -11.5991 -11.5991 -11.5991 -9.88843 -9.88843 -9.88843 -9.88843 -11.5923 -11.5923 -11.5923 -11.5923 -9.54259 -9.54259 -9.54259 -9.54259 -9.93641 -9.93641 -9.93641 -9.93641 -9.6181 -9.6181 -9.6181 -9.6181 -10.1087 -10.1087 -10.1087 -10.1087 -9.80885 -9.80885 -9.80885 -9.80885 -9.60751 -9.60751 -9.60751 -9.60751 -9.7065 -9.7065 -9.7065 -9.7065 -9.66196 -9.66196 -9.66196 -9.66196 -9.55633 -9.55633 -9.55633 -9.55633 -3.91511 -3.91511 -3.91511 -3.91511 -9.7183 -9.7183 -9.7183 -9.7183 -12.4942 -12.4942 -12.4942 -12.4942 -9.67773 -9.67773 -9.67773 -9.67773 -9.81938 -9.81938 -9.81938 -9.81938 -9.71431 -9.71431 -9.71431 -9.71431 -9.65775 -9.65775 -9.65775 -9.65775 -9.90527 -9.90527 -9.90527 -9.90527 -9.94597 -9.94597 -9.94597 -9.94597 -9.79097 -9.79097 -9.79097 -9.79097 -9.74902 -9.74902 -9.74902 -9.74902 -11.2981 -11.2981 -11.2981 -11.2981 -5.51631 -5.51631 -5.51631 -5.51631 -9.35338 -9.35338 -9.35338 -9.35338 -10.0691 -10.0691 -10.0691 -10.0691 -9.74638 -9.74638 -9.74638 -9.74638 -2.65278 -2.65278 -2.65278 -2.65278 -9.57629 -9.57629 -9.57629 -9.57629 -9.91851 -9.91851 -9.91851 -9.91851 -13.5486 -13.5486 -13.5486 -13.5486 -12.399 -12.399 -12.399 -12.399 -7.60772 -7.60772 -7.60772 -7.60772 -9.73162 -9.73162 -9.73162 -9.73162 -9.48514 -9.48514 -9.48514 -9.48514 -10.2737 -10.2737 -10.2737 -10.2737 -9.67237 -9.67237 -9.67237 -9.67237 -9.73839 -9.73839 -9.73839 -9.73839 -10.1098 -10.1098 -10.1098 -10.1098 -9.78556 -9.78556 -9.78556 -9.78556 -3.81414 -3.81414 -3.81414 -3.81414 -9.65723 -9.65723 -9.65723 -9.65723 -9.59023 -9.59023 -9.59023 -9.59023 -9.58423 -9.58423 -9.58423 -9.58423 -9.63842 -9.63842 -9.63842 -9.63842 -9.76653 -9.76653 -9.76653 -9.76653 -12.3749 -12.3749 -12.3749 -12.3749 -9.25544 -9.25544 -9.25544 -9.25544 -10.069 -10.069 -10.069 -10.069 -10.7301 -10.7301 -10.7301 -10.7301 -9.69152 -9.69152 -9.69152 -9.69152 -9.72292 -9.72292 -9.72292 -9.72292 -9.86426 -9.86426 -9.86426 -9.86426 -9.77764 -9.77764 -9.77764 -9.77764 -9.73301 -9.73301 -9.73301 -9.73301 -9.67596 -9.67596 -9.67596 -9.67596 -9.94217 -9.94217 -9.94217 -9.94217 -9.77914 -9.77914 -9.77914 -9.77914 -9.52408 -9.52408 -9.52408 -9.52408 -9.74239 -9.74239 -9.74239 -9.74239 -9.77304 -9.77304 -9.77304 -9.77304 -9.82579 -9.82579 -9.82579 -9.82579 -7.77469 -7.77469 -7.77469 -7.77469 -9.78741 -9.78741 -9.78741 -9.78741 -9.7704 -9.7704 -9.7704 -9.7704 -10.0709 -10.0709 -10.0709 -10.0709 -10.1882 -10.1882 -10.1882 -10.1882 -10.0133 -10.0133 -10.0133 -10.0133 -9.44492 -9.44492 -9.44492 -9.44492 -10.5334 -10.5334 -10.5334 -10.5334 -9.69293 -9.69293 -9.69293 -9.69293 -9.59102 -9.59102 -9.59102 -9.59102 -12.7863 -12.7863 -12.7863 -12.7863 -9.77811 -9.77811 -9.77811 -9.77811 -10.0565 -10.0565 -10.0565 -10.0565 -10.0233 -10.0233 -10.0233 -10.0233 -9.62022 -9.62022 -9.62022 -9.62022 -9.84053 -9.84053 -9.84053 -9.84053 -9.58998 -9.58998 -9.58998 -9.58998 -9.77621 -9.77621 -9.77621 -9.77621 -9.74605 -9.74605 -9.74605 -9.74605 -9.76255 -9.76255 -9.76255 -9.76255 -9.91347 -9.91347 -9.91347 -9.91347 -9.94996 -9.94996 -9.94996 -9.94996 -10.0383 -10.0383 -10.0383 -10.0383 -10.0728 -10.0728 -10.0728 -10.0728 -9.6468 -9.6468 -9.6468 -9.6468 -3.90513 -3.90513 -3.90513 -3.90513 -9.62735 -9.62735 -9.62735 -9.62735 -9.80977 -9.80977 -9.80977 -9.80977 -8.81036 -8.81036 -8.81036 -8.81036 -8.04483 -8.04483 -8.04483 -8.04483 -3.62845 -3.62845 -3.62845 -3.62845 -9.90548 -9.90548 -9.90548 -9.90548 -9.74179 -9.74179 -9.74179 -9.74179 -9.57572 -9.57572 -9.57572 -9.57572 -8.84098 -8.84098 -8.84098 -8.84098 -9.70573 -9.70573 -9.70573 -9.70573 -9.61108 -9.61108 -9.61108 -9.61108 -11.1607 -11.1607 -11.1607 -11.1607 -8.95782 -8.95782 -8.95782 -8.95782 -9.72599 -9.72599 -9.72599 -9.72599 -9.80818 -9.80818 -9.80818 -9.80818 -9.70557 -9.70557 -9.70557 -9.70557 -9.67285 -9.67285 -9.67285 -9.67285 -9.63733 -9.63733 -9.63733 -9.63733 -4.67484 -4.67484 -4.67484 -4.67484 -9.86861 -9.86861 -9.86861 -9.86861 -9.77811 -9.77811 -9.77811 -9.77811 -9.42247 -9.42247 -9.42247 -9.42247 -10.9359 -10.9359 -10.9359 -10.9359 -9.70762 -9.70762 -9.70762 -9.70762 -9.81278 -9.81278 -9.81278 -9.81278 -9.4731 -9.4731 -9.4731 -9.4731 -11.2821 -11.2821 -11.2821 -11.2821 -12.2374 -12.2374 -12.2374 -12.2374 -9.49922 -9.49922 -9.49922 -9.49922 -12.0153 -12.0153 -12.0153 -12.0153 -9.63732 -9.63732 -9.63732 -9.63732 -9.95452 -9.95452 -9.95452 -9.95452 -9.73939 -9.73939 -9.73939 -9.73939 -9.70872 -9.70872 -9.70872 -9.70872 -11.2019 -11.2019 -11.2019 -11.2019 -3.94705 -3.94705 -3.94705 -3.94705 -9.48791 -9.48791 -9.48791 -9.48791 -9.83467 -9.83467 -9.83467 -9.83467 -14.6425 -14.6425 -14.6425 -14.6425 -9.76796 -9.76796 -9.76796 -9.76796 -9.67892 -9.67892 -9.67892 -9.67892 -12.127 -12.127 -12.127 -12.127 -14.3318 -14.3318 -14.3318 -14.3318 -11.9646 -11.9646 -11.9646 -11.9646 -9.70889 -9.70889 -9.70889 -9.70889 -9.94056 -9.94056 -9.94056 -9.94056 -9.68562 -9.68562 -9.68562 -9.68562 -4.10708 -4.10708 -4.10708 -4.10708 -11.1283 -11.1283 -11.1283 -11.1283 -9.61743 -9.61743 -9.61743 -9.61743 -9.59872 -9.59872 -9.59872 -9.59872 -13.1922 -13.1922 -13.1922 -13.1922 -10.1911 -10.1911 -10.1911 -10.1911 -9.52176 -9.52176 -9.52176 -9.52176 -9.69445 -9.69445 -9.69445 -9.69445 -9.73201 -9.73201 -9.73201 -9.73201 -9.95191 -9.95191 -9.95191 -9.95191 -9.58553 -9.58553 -9.58553 -9.58553 -9.68463 -9.68463 -9.68463 -9.68463 -9.7197 -9.7197 -9.7197 -9.7197 -11.875 -11.875 -11.875 -11.875 -9.54915 -9.54915 -9.54915 -9.54915 -11.2689 -11.2689 -11.2689 -11.2689 -10.1819 -10.1819 -10.1819 -10.1819 -10.1777 -10.1777 -10.1777 -10.1777 -9.66767 -9.66767 -9.66767 -9.66767 -6.06777 -6.06777 -6.06777 -6.06777 -9.75987 -9.75987 -9.75987 -9.75987 -9.70753 -9.70753 -9.70753 -9.70753 -9.40629 -9.40629 -9.40629 -9.40629 -9.74522 -9.74522 -9.74522 -9.74522 -9.63181 -9.63181 -9.63181 -9.63181 -9.82956 -9.82956 -9.82956 -9.82956 -9.55464 -9.55464 -9.55464 -9.55464 -9.76492 -9.76492 -9.76492 -9.76492 -6.3727 -6.3727 -6.3727 -6.3727 -9.85421 -9.85421 -9.85421 -9.85421 -9.93188 -9.93188 -9.93188 -9.93188 -9.73909 -9.73909 -9.73909 -9.73909 -10.4903 -10.4903 -10.4903 -10.4903 -9.83352 -9.83352 -9.83352 -9.83352 -9.70039 -9.70039 -9.70039 -9.70039 -5.68882 -5.68882 -5.68882 -5.68882 -9.80249 -9.80249 -9.80249 -9.80249 -9.54105 -9.54105 -9.54105 -9.54105 -9.90937 -9.90937 -9.90937 -9.90937 -10.1633 -10.1633 -10.1633 -10.1633 -10.1129 -10.1129 -10.1129 -10.1129 -9.65721 -9.65721 -9.65721 -9.65721 -9.93697 -9.93697 -9.93697 -9.93697 -9.95177 -9.95177 -9.95177 -9.95177 -9.74075 -9.74075 -9.74075 -9.74075 -2.70998 -2.70998 -2.70998 -2.70998 -10.926 -10.926 -10.926 -10.926 -9.63718 -9.63718 -9.63718 -9.63718 -9.88147 -9.88147 -9.88147 -9.88147 -9.56836 -9.56836 -9.56836 -9.56836 -9.66276 -9.66276 -9.66276 -9.66276 -11.0485 -11.0485 -11.0485 -11.0485 -6.4861 -6.4861 -6.4861 -6.4861 -10.8313 -10.8313 -10.8313 -10.8313 -9.72449 -9.72449 -9.72449 -9.72449 -9.91558 -9.91558 -9.91558 -9.91558 -9.82491 -9.82491 -9.82491 -9.82491 -9.69694 -9.69694 -9.69694 -9.69694 -9.6301 -9.6301 -9.6301 -9.6301 -9.70663 -9.70663 -9.70663 -9.70663 -10.3031 -10.3031 -10.3031 -10.3031 -9.76401 -9.76401 -9.76401 -9.76401 -9.91789 -9.91789 -9.91789 -9.91789 -9.62737 -9.62737 -9.62737 -9.62737 -9.61639 -9.61639 -9.61639 -9.61639 -8.07741 -8.07741 -8.07741 -8.07741 -9.69588 -9.69588 -9.69588 -9.69588 -5.09601 -5.09601 -5.09601 -5.09601 -11.7693 -11.7693 -11.7693 -11.7693 -9.8541 -9.8541 -9.8541 -9.8541 -12.4941 -12.4941 -12.4941 -12.4941 -9.56637 -9.56637 -9.56637 -9.56637 -11.1053 -11.1053 -11.1053 -11.1053 -9.56595 -9.56595 -9.56595 -9.56595 -9.91853 -9.91853 -9.91853 -9.91853 -9.91281 -9.91281 -9.91281 -9.91281 -10.0451 -10.0451 -10.0451 -10.0451 -9.4897 -9.4897 -9.4897 -9.4897 -9.75122 -9.75122 -9.75122 -9.75122 -9.6413 -9.6413 -9.6413 -9.6413 -11.5223 -11.5223 -11.5223 -11.5223 -9.8103 -9.8103 -9.8103 -9.8103 -10.0745 -10.0745 -10.0745 -10.0745 -9.84247 -9.84247 -9.84247 -9.84247 -10.9815 -10.9815 -10.9815 -10.9815 -12.1908 -12.1908 -12.1908 -12.1908 -9.86394 -9.86394 -9.86394 -9.86394 -9.65801 -9.65801 -9.65801 -9.65801 -10.0703 -10.0703 -10.0703 -10.0703 -11.9673 -11.9673 -11.9673 -11.9673 -10.3482 -10.3482 -10.3482 -10.3482 -9.72458 -9.72458 -9.72458 -9.72458 -9.72708 -9.72708 -9.72708 -9.72708 -10.9305 -10.9305 -10.9305 -10.9305 -12.078 -12.078 -12.078 -12.078 -9.95134 -9.95134 -9.95134 -9.95134 -10.0611 -10.0611 -10.0611 -10.0611 -9.74479 -9.74479 -9.74479 -9.74479 -9.57795 -9.57795 -9.57795 -9.57795 -9.90122 -9.90122 -9.90122 -9.90122 -9.68404 -9.68404 -9.68404 -9.68404 -9.64385 -9.64385 -9.64385 -9.64385 -9.60193 -9.60193 -9.60193 -9.60193 -10.0182 -10.0182 -10.0182 -10.0182 -11.1103 -11.1103 -11.1103 -11.1103 -9.61455 -9.61455 -9.61455 -9.61455 -9.71858 -9.71858 -9.71858 -9.71858 -12.3154 -12.3154 -12.3154 -12.3154 -9.78194 -9.78194 -9.78194 -9.78194 -9.77352 -9.77352 -9.77352 -9.77352 -9.75578 -9.75578 -9.75578 -9.75578 -9.95827 -9.95827 -9.95827 -9.95827 -9.65173 -9.65173 -9.65173 -9.65173 -9.39592 -9.39592 -9.39592 -9.39592 -9.88478 -9.88478 -9.88478 -9.88478 -3.43468 -3.43468 -3.43468 -3.43468 -9.90626 -9.90626 -9.90626 -9.90626 -9.75231 -9.75231 -9.75231 -9.75231 -9.80182 -9.80182 -9.80182 -9.80182 -12.2383 -12.2383 -12.2383 -12.2383 -10.0068 -10.0068 -10.0068 -10.0068 -9.9596 -9.9596 -9.9596 -9.9596 -10.0001 -10.0001 -10.0001 -10.0001 -9.67708 -9.67708 -9.67708 -9.67708 -9.88203 -9.88203 -9.88203 -9.88203 -9.75049 -9.75049 -9.75049 -9.75049 -9.61684 -9.61684 -9.61684 -9.61684 -9.94264 -9.94264 -9.94264 -9.94264 -9.61764 -9.61764 -9.61764 -9.61764 -9.21244 -9.21244 -9.21244 -9.21244 -10.906 -10.906 -10.906 -10.906 -10.8791 -10.8791 -10.8791 -10.8791 -10.057 -10.057 -10.057 -10.057 -9.9558 -9.9558 -9.9558 -9.9558 -9.70856 -9.70856 -9.70856 -9.70856 -10.0839 -10.0839 -10.0839 -10.0839 -9.76801 -9.76801 -9.76801 -9.76801 -9.8927 -9.8927 -9.8927 -9.8927 -9.54264 -9.54264 -9.54264 -9.54264 -9.93466 -9.93466 -9.93466 -9.93466 -8.02423 -8.02423 -8.02423 -8.02423 -9.79538 -9.79538 -9.79538 -9.79538 -9.81606 -9.81606 -9.81606 -9.81606 -9.77881 -9.77881 -9.77881 -9.77881 -9.7722 -9.7722 -9.7722 -9.7722 -9.24525 -9.24525 -9.24525 -9.24525 -9.54361 -9.54361 -9.54361 -9.54361 -9.76612 -9.76612 -9.76612 -9.76612 -3.25555 -3.25555 -3.25555 -3.25555 -6.13945 -6.13945 -6.13945 -6.13945 -3.94244 -3.94244 -3.94244 -3.94244 -9.73706 -9.73706 -9.73706 -9.73706 -9.67923 -9.67923 -9.67923 -9.67923 -9.73499 -9.73499 -9.73499 -9.73499 -9.73167 -9.73167 -9.73167 -9.73167 -9.98665 -9.98665 -9.98665 -9.98665 -10.0268 -10.0268 -10.0268 -10.0268 -10.8044 -10.8044 -10.8044 -10.8044 -9.75932 -9.75932 -9.75932 -9.75932 -2.95534 -2.95534 -2.95534 -2.95534 -11.3127 -11.3127 -11.3127 -11.3127 -4.53918 -4.53918 -4.53918 -4.53918 -9.71089 -9.71089 -9.71089 -9.71089 -9.75331 -9.75331 -9.75331 -9.75331 -9.87075 -9.87075 -9.87075 -9.87075 -9.95187 -9.95187 -9.95187 -9.95187 -12.0774 -12.0774 -12.0774 -12.0774 -9.75914 -9.75914 -9.75914 -9.75914 -9.71084 -9.71084 -9.71084 -9.71084 -9.6863 -9.6863 -9.6863 -9.6863 -9.68892 -9.68892 -9.68892 -9.68892 -9.74318 -9.74318 -9.74318 -9.74318 -9.98959 -9.98959 -9.98959 -9.98959 -9.84047 -9.84047 -9.84047 -9.84047 -9.99871 -9.99871 -9.99871 -9.99871 -9.51772 -9.51772 -9.51772 -9.51772 -9.95513 -9.95513 -9.95513 -9.95513 -9.83898 -9.83898 -9.83898 -9.83898 -9.99614 -9.99614 -9.99614 -9.99614 -9.73914 -9.73914 -9.73914 -9.73914 -9.60626 -9.60626 -9.60626 -9.60626 -9.72619 -9.72619 -9.72619 -9.72619 -9.76297 -9.76297 -9.76297 -9.76297 -9.75404 -9.75404 -9.75404 -9.75404 -9.55014 -9.55014 -9.55014 -9.55014 -9.82251 -9.82251 -9.82251 -9.82251 -9.59546 -9.59546 -9.59546 -9.59546 -13.7864 -13.7864 -13.7864 -13.7864 -9.95425 -9.95425 -9.95425 -9.95425 -9.7463 -9.7463 -9.7463 -9.7463 -9.74003 -9.74003 -9.74003 -9.74003 -9.72851 -9.72851 -9.72851 -9.72851 -9.7204 -9.7204 -9.7204 -9.7204 -9.90524 -9.90524 -9.90524 -9.90524 -11.0699 -11.0699 -11.0699 -11.0699 -9.67646 -9.67646 -9.67646 -9.67646 -9.5547 -9.5547 -9.5547 -9.5547 -11.353 -11.353 -11.353 -11.353 -6.71749 -6.71749 -6.71749 -6.71749 -9.57053 -9.57053 -9.57053 -9.57053 -9.70319 -9.70319 -9.70319 -9.70319 -9.6395 -9.6395 -9.6395 -9.6395 -9.73404 -9.73404 -9.73404 -9.73404 -9.94861 -9.94861 -9.94861 -9.94861 -9.96241 -9.96241 -9.96241 -9.96241 -9.70293 -9.70293 -9.70293 -9.70293 -11.564 -11.564 -11.564 -11.564 -4.0878 -4.0878 -4.0878 -4.0878 -9.73479 -9.73479 -9.73479 -9.73479 -11.0465 -11.0465 -11.0465 -11.0465 -12.6849 -12.6849 -12.6849 -12.6849 -9.80341 -9.80341 -9.80341 -9.80341 -9.67697 -9.67697 -9.67697 -9.67697 -9.86572 -9.86572 -9.86572 -9.86572 -9.61683 -9.61683 -9.61683 -9.61683 -9.62199 -9.62199 -9.62199 -9.62199 -9.61755 -9.61755 -9.61755 -9.61755 -3.04459 -3.04459 -3.04459 -3.04459 -10.0514 -10.0514 -10.0514 -10.0514 -9.76526 -9.76526 -9.76526 -9.76526 -3.1246 -3.1246 -3.1246 -3.1246 -9.72932 -9.72932 -9.72932 -9.72932 -9.25368 -9.25368 -9.25368 -9.25368 -9.72665 -9.72665 -9.72665 -9.72665 -9.83277 -9.83277 -9.83277 -9.83277 -4.81479 -4.81479 -4.81479 -4.81479 -9.75452 -9.75452 -9.75452 -9.75452 -9.71203 -9.71203 -9.71203 -9.71203 -10.4262 -10.4262 -10.4262 -10.4262 -11.1605 -11.1605 -11.1605 -11.1605 -10.0563 -10.0563 -10.0563 -10.0563 -9.56523 -9.56523 -9.56523 -9.56523 -10.2224 -10.2224 -10.2224 -10.2224 -9.77302 -9.77302 -9.77302 -9.77302 -9.74533 -9.74533 -9.74533 -9.74533 -9.36139 -9.36139 -9.36139 -9.36139 -11.5247 -11.5247 -11.5247 -11.5247 -11.5993 -11.5993 -11.5993 -11.5993 -9.85121 -9.85121 -9.85121 -9.85121 -9.58361 -9.58361 -9.58361 -9.58361 -10.1078 -10.1078 -10.1078 -10.1078 -10.0058 -10.0058 -10.0058 -10.0058 -10.0711 -10.0711 -10.0711 -10.0711 -9.70889 -9.70889 -9.70889 -9.70889 -10.0397 -10.0397 -10.0397 -10.0397 -9.73005 -9.73005 -9.73005 -9.73005 -9.78805 -9.78805 -9.78805 -9.78805 -9.57483 -9.57483 -9.57483 -9.57483 -9.85704 -9.85704 -9.85704 -9.85704 -9.90264 -9.90264 -9.90264 -9.90264 -9.6425 -9.6425 -9.6425 -9.6425 -12.4566 -12.4566 -12.4566 -12.4566 -10.0784 -10.0784 -10.0784 -10.0784 -9.52968 -9.52968 -9.52968 -9.52968 -9.83328 -9.83328 -9.83328 -9.83328 -9.70554 -9.70554 -9.70554 -9.70554 -9.7089 -9.7089 -9.7089 -9.7089 -10.0106 -10.0106 -10.0106 -10.0106 -9.76215 -9.76215 -9.76215 -9.76215 -6.73504 -6.73504 -6.73504 -6.73504 -9.92484 -9.92484 -9.92484 -9.92484 -9.725 -9.725 -9.725 -9.725 -10.086 -10.086 -10.086 -10.086 -9.68627 -9.68627 -9.68627 -9.68627 -9.81246 -9.81246 -9.81246 -9.81246 -6.80218 -6.80218 -6.80218 -6.80218 -3.68367 -3.68367 -3.68367 -3.68367 -10.0037 -10.0037 -10.0037 -10.0037 -9.6493 -9.6493 -9.6493 -9.6493 -9.92383 -9.92383 -9.92383 -9.92383 -9.67721 -9.67721 -9.67721 -9.67721 -9.71652 -9.71652 -9.71652 -9.71652 -9.76528 -9.76528 -9.76528 -9.76528 -10.0645 -10.0645 -10.0645 -10.0645 -9.67466 -9.67466 -9.67466 -9.67466 -11.8502 -11.8502 -11.8502 -11.8502 -9.54611 -9.54611 -9.54611 -9.54611 -9.64107 -9.64107 -9.64107 -9.64107 -9.71733 -9.71733 -9.71733 -9.71733 -10.1163 -10.1163 -10.1163 -10.1163 -9.6637 -9.6637 -9.6637 -9.6637 -9.75786 -9.75786 -9.75786 -9.75786 -9.75339 -9.75339 -9.75339 -9.75339 -10.0033 -10.0033 -10.0033 -10.0033 -9.69046 -9.69046 -9.69046 -9.69046 -10.1173 -10.1173 -10.1173 -10.1173 -7.53565 -7.53565 -7.53565 -7.53565 -3.2258 -3.2258 -3.2258 -3.2258 -9.74237 -9.74237 -9.74237 -9.74237 -9.95818 -9.95818 -9.95818 -9.95818 -3.54204 -3.54204 -3.54204 -3.54204 -9.99238 -9.99238 -9.99238 -9.99238 -9.67424 -9.67424 -9.67424 -9.67424 -10.0602 -10.0602 -10.0602 -10.0602 -9.55981 -9.55981 -9.55981 -9.55981 -9.94963 -9.94963 -9.94963 -9.94963 -9.79043 -9.79043 -9.79043 -9.79043 -9.57407 -9.57407 -9.57407 -9.57407 -9.69369 -9.69369 -9.69369 -9.69369 -10.0845 -10.0845 -10.0845 -10.0845 -9.8069 -9.8069 -9.8069 -9.8069 -9.69928 -9.69928 -9.69928 -9.69928 -9.77982 -9.77982 -9.77982 -9.77982 -9.6603 -9.6603 -9.6603 -9.6603 -10.07 -10.07 -10.07 -10.07 -9.65743 -9.65743 -9.65743 -9.65743 -9.33756 -9.33756 -9.33756 -9.33756 -9.49872 -9.49872 -9.49872 -9.49872 -10.0114 -10.0114 -10.0114 -10.0114 -9.68614 -9.68614 -9.68614 -9.68614 -9.65949 -9.65949 -9.65949 -9.65949 -9.95004 -9.95004 -9.95004 -9.95004 -9.86179 -9.86179 -9.86179 -9.86179 -11.0822 -11.0822 -11.0822 -11.0822 -10.2292 -10.2292 -10.2292 -10.2292 -10.0929 -10.0929 -10.0929 -10.0929 -10.2277 -10.2277 -10.2277 -10.2277 -11.6277 -11.6277 -11.6277 -11.6277 -9.61301 -9.61301 -9.61301 -9.61301 -9.63171 -9.63171 -9.63171 -9.63171 -2.92992 -2.92992 -2.92992 -2.92992 -9.6343 -9.6343 -9.6343 -9.6343 -3.0539 -3.0539 -3.0539 -3.0539 -9.7746 -9.7746 -9.7746 -9.7746 -9.73361 -9.73361 -9.73361 -9.73361 -9.73252 -9.73252 -9.73252 -9.73252 -4.11668 -4.11668 -4.11668 -4.11668 -9.7237 -9.7237 -9.7237 -9.7237 -9.77142 -9.77142 -9.77142 -9.77142 -9.70266 -9.70266 -9.70266 -9.70266 -9.63602 -9.63602 -9.63602 -9.63602 -10.0466 -10.0466 -10.0466 -10.0466 -9.77513 -9.77513 -9.77513 -9.77513 -10.2268 -10.2268 -10.2268 -10.2268 -9.79733 -9.79733 -9.79733 -9.79733 -11.6489 -11.6489 -11.6489 -11.6489 -12.6762 -12.6762 -12.6762 -12.6762 -10.0236 -10.0236 -10.0236 -10.0236 -10.079 -10.079 -10.079 -10.079 -10.0114 -10.0114 -10.0114 -10.0114 -9.95606 -9.95606 -9.95606 -9.95606 -9.91817 -9.91817 -9.91817 -9.91817 -10.174 -10.174 -10.174 -10.174 -9.61625 -9.61625 -9.61625 -9.61625 -9.63749 -9.63749 -9.63749 -9.63749 -9.70847 -9.70847 -9.70847 -9.70847 -9.87196 -9.87196 -9.87196 -9.87196 -9.54036 -9.54036 -9.54036 -9.54036 -9.94892 -9.94892 -9.94892 -9.94892 -9.4991 -9.4991 -9.4991 -9.4991 -9.91142 -9.91142 -9.91142 -9.91142 -10.7866 -10.7866 -10.7866 -10.7866 -9.86308 -9.86308 -9.86308 -9.86308 -9.78537 -9.78537 -9.78537 -9.78537 -10.0501 -10.0501 -10.0501 -10.0501 -9.41904 -9.41904 -9.41904 -9.41904 -10.062 -10.062 -10.062 -10.062 -9.49897 -9.49897 -9.49897 -9.49897 -11.2894 -11.2894 -11.2894 -11.2894 -9.70791 -9.70791 -9.70791 -9.70791 -9.60036 -9.60036 -9.60036 -9.60036 -10.113 -10.113 -10.113 -10.113 -12.0468 -12.0468 -12.0468 -12.0468 -9.70441 -9.70441 -9.70441 -9.70441 -8.78668 -8.78668 -8.78668 -8.78668 -9.9034 -9.9034 -9.9034 -9.9034 -9.71574 -9.71574 -9.71574 -9.71574 -9.93366 -9.93366 -9.93366 -9.93366 -9.68785 -9.68785 -9.68785 -9.68785 -9.7267 -9.7267 -9.7267 -9.7267 -10.2471 -10.2471 -10.2471 -10.2471 -10.9276 -10.9276 -10.9276 -10.9276 -9.76919 -9.76919 -9.76919 -9.76919 -10.0488 -10.0488 -10.0488 -10.0488 -9.69951 -9.69951 -9.69951 -9.69951 -4.03713 -4.03713 -4.03713 -4.03713 -11.0962 -11.0962 -11.0962 -11.0962 -4.39814 -4.39814 -4.39814 -4.39814 -10.0624 -10.0624 -10.0624 -10.0624 -11.004 -11.004 -11.004 -11.004 -9.59893 -9.59893 -9.59893 -9.59893 -10.0546 -10.0546 -10.0546 -10.0546 -9.71817 -9.71817 -9.71817 -9.71817 -9.91097 -9.91097 -9.91097 -9.91097 -9.71133 -9.71133 -9.71133 -9.71133 -11.9486 -11.9486 -11.9486 -11.9486 -3.20985 -3.20985 -3.20985 -3.20985 -9.69771 -9.69771 -9.69771 -9.69771 -9.76667 -9.76667 -9.76667 -9.76667 -9.55046 -9.55046 -9.55046 -9.55046 -9.73227 -9.73227 -9.73227 -9.73227 -9.96729 -9.96729 -9.96729 -9.96729 -9.77553 -9.77553 -9.77553 -9.77553 -9.86449 -9.86449 -9.86449 -9.86449 -9.74186 -9.74186 -9.74186 -9.74186 -9.72574 -9.72574 -9.72574 -9.72574 -9.68877 -9.68877 -9.68877 -9.68877 -10.2245 -10.2245 -10.2245 -10.2245 -10.1104 -10.1104 -10.1104 -10.1104 -9.91458 -9.91458 -9.91458 -9.91458 -9.63969 -9.63969 -9.63969 -9.63969 -9.57045 -9.57045 -9.57045 -9.57045 -9.87984 -9.87984 -9.87984 -9.87984 -10.0019 -10.0019 -10.0019 -10.0019 -9.59204 -9.59204 -9.59204 -9.59204 -9.69567 -9.69567 -9.69567 -9.69567 -9.76207 -9.76207 -9.76207 -9.76207 -10.1054 -10.1054 -10.1054 -10.1054 -10.6978 -10.6978 -10.6978 -10.6978 -10.078 -10.078 -10.078 -10.078 -9.558 -9.558 -9.558 -9.558 -9.99091 -9.99091 -9.99091 -9.99091 -9.6245 -9.6245 -9.6245 -9.6245 -10.1158 -10.1158 -10.1158 -10.1158 -10.6814 -10.6814 -10.6814 -10.6814 -9.60749 -9.60749 -9.60749 -9.60749 -12.5803 -12.5803 -12.5803 -12.5803 -9.72992 -9.72992 -9.72992 -9.72992 -9.77729 -9.77729 -9.77729 -9.77729 -10.1072 -10.1072 -10.1072 -10.1072 -2.91348 -2.91348 -2.91348 -2.91348 -9.90081 -9.90081 -9.90081 -9.90081 -12.9079 -12.9079 -12.9079 -12.9079 -9.76802 -9.76802 -9.76802 -9.76802 -9.77595 -9.77595 -9.77595 -9.77595 -11.6188 -11.6188 -11.6188 -11.6188 -9.75138 -9.75138 -9.75138 -9.75138 -9.58841 -9.58841 -9.58841 -9.58841 -9.6854 -9.6854 -9.6854 -9.6854 -9.70742 -9.70742 -9.70742 -9.70742 -9.73252 -9.73252 -9.73252 -9.73252 -10.1118 -10.1118 -10.1118 -10.1118 -9.69303 -9.69303 -9.69303 -9.69303 -9.82544 -9.82544 -9.82544 -9.82544 -9.73429 -9.73429 -9.73429 -9.73429 -11.167 -11.167 -11.167 -11.167 -10.054 -10.054 -10.054 -10.054 -9.51589 -9.51589 -9.51589 -9.51589 -9.67993 -9.67993 -9.67993 -9.67993 -9.60445 -9.60445 -9.60445 -9.60445 -12.3161 -12.3161 -12.3161 -12.3161 -9.75944 -9.75944 -9.75944 -9.75944 -9.70709 -9.70709 -9.70709 -9.70709 -10.0555 -10.0555 -10.0555 -10.0555 -10.058 -10.058 -10.058 -10.058 -9.93845 -9.93845 -9.93845 -9.93845 -9.56023 -9.56023 -9.56023 -9.56023 -10.051 -10.051 -10.051 -10.051 -11.3817 -11.3817 -11.3817 -11.3817 -9.72251 -9.72251 -9.72251 -9.72251 -9.75038 -9.75038 -9.75038 -9.75038 -9.68645 -9.68645 -9.68645 -9.68645 -13.5272 -13.5272 -13.5272 -13.5272 -10.0635 -10.0635 -10.0635 -10.0635 -9.77573 -9.77573 -9.77573 -9.77573 -9.93689 -9.93689 -9.93689 -9.93689 -9.9516 -9.9516 -9.9516 -9.9516 -12.3041 -12.3041 -12.3041 -12.3041 -3.23605 -3.23605 -3.23605 -3.23605 -10.6144 -10.6144 -10.6144 -10.6144 -9.55231 -9.55231 -9.55231 -9.55231 -9.74348 -9.74348 -9.74348 -9.74348 -11.1742 -11.1742 -11.1742 -11.1742 -9.55741 -9.55741 -9.55741 -9.55741 -9.97375 -9.97375 -9.97375 -9.97375 -3.12494 -3.12494 -3.12494 -3.12494 -9.6382 -9.6382 -9.6382 -9.6382 -9.98513 -9.98513 -9.98513 -9.98513 -10.7753 -10.7753 -10.7753 -10.7753 -9.9871 -9.9871 -9.9871 -9.9871 -9.93722 -9.93722 -9.93722 -9.93722 -12.8652 -12.8652 -12.8652 -12.8652 -9.72533 -9.72533 -9.72533 -9.72533 -3.31245 -3.31245 -3.31245 -3.31245 -11.2728 -11.2728 -11.2728 -11.2728 -9.77536 -9.77536 -9.77536 -9.77536 -10.013 -10.013 -10.013 -10.013 -11.1339 -11.1339 -11.1339 -11.1339 -9.61071 -9.61071 -9.61071 -9.61071 -9.73412 -9.73412 -9.73412 -9.73412 -9.68869 -9.68869 -9.68869 -9.68869 -11.7339 -11.7339 -11.7339 -11.7339 -9.9853 -9.9853 -9.9853 -9.9853 -9.96819 -9.96819 -9.96819 -9.96819 -9.84992 -9.84992 -9.84992 -9.84992 -11.4821 -11.4821 -11.4821 -11.4821 -11.9523 -11.9523 -11.9523 -11.9523 -3.76484 -3.76484 -3.76484 -3.76484 -9.72577 -9.72577 -9.72577 -9.72577 -9.6631 -9.6631 -9.6631 -9.6631 -9.93713 -9.93713 -9.93713 -9.93713 -9.73678 -9.73678 -9.73678 -9.73678 -3.51398 -3.51398 -3.51398 -3.51398 -9.69782 -9.69782 -9.69782 -9.69782 -9.72486 -9.72486 -9.72486 -9.72486 -9.74794 -9.74794 -9.74794 -9.74794 -9.68847 -9.68847 -9.68847 -9.68847 -9.93388 -9.93388 -9.93388 -9.93388 -9.72806 -9.72806 -9.72806 -9.72806 -2.90323 -2.90323 -2.90323 -2.90323 -9.77157 -9.77157 -9.77157 -9.77157 -9.72743 -9.72743 -9.72743 -9.72743 -3.41838 -3.41838 -3.41838 -3.41838 -9.72503 -9.72503 -9.72503 -9.72503 -9.59813 -9.59813 -9.59813 -9.59813 -3.9408 -3.9408 -3.9408 -3.9408 -9.71649 -9.71649 -9.71649 -9.71649 -9.71037 -9.71037 -9.71037 -9.71037 -9.69699 -9.69699 -9.69699 -9.69699 -9.51095 -9.51095 -9.51095 -9.51095 -9.54946 -9.54946 -9.54946 -9.54946 -9.68695 -9.68695 -9.68695 -9.68695 -10.0278 -10.0278 -10.0278 -10.0278 -9.89897 -9.89897 -9.89897 -9.89897 -10.9475 -10.9475 -10.9475 -10.9475 -11.7165 -11.7165 -11.7165 -11.7165 -9.70772 -9.70772 -9.70772 -9.70772 -9.95611 -9.95611 -9.95611 -9.95611 -9.72034 -9.72034 -9.72034 -9.72034 -9.6863 -9.6863 -9.6863 -9.6863 -10.0165 -10.0165 -10.0165 -10.0165 -10.1152 -10.1152 -10.1152 -10.1152 -9.91168 -9.91168 -9.91168 -9.91168 -9.73002 -9.73002 -9.73002 -9.73002 -9.92282 -9.92282 -9.92282 -9.92282 -9.89343 -9.89343 -9.89343 -9.89343 -9.70078 -9.70078 -9.70078 -9.70078 -10.2383 -10.2383 -10.2383 -10.2383 -9.72292 -9.72292 -9.72292 -9.72292 -2.72761 -2.72761 -2.72761 -2.72761 -3.53855 -3.53855 -3.53855 -3.53855 -9.72632 -9.72632 -9.72632 -9.72632 -9.70096 -9.70096 -9.70096 -9.70096 -10.0365 -10.0365 -10.0365 -10.0365 -9.71077 -9.71077 -9.71077 -9.71077 -9.73295 -9.73295 -9.73295 -9.73295 -9.98512 -9.98512 -9.98512 -9.98512 -9.72175 -9.72175 -9.72175 -9.72175 -11.7485 -11.7485 -11.7485 -11.7485 -9.72579 -9.72579 -9.72579 -9.72579 -10.0375 -10.0375 -10.0375 -10.0375 -10.0964 -10.0964 -10.0964 -10.0964 -9.91066 -9.91066 -9.91066 -9.91066 -10.0307 -10.0307 -10.0307 -10.0307 -10.0361 -10.0361 -10.0361 -10.0361 -9.68693 -9.68693 -9.68693 -9.68693 -9.69371 -9.69371 -9.69371 -9.69371 -10.0724 -10.0724 -10.0724 -10.0724 -4.39914 -4.39914 -4.39914 -4.39914 -10.0525 -10.0525 -10.0525 -10.0525 -10.0552 -10.0552 -10.0552 -10.0552 -10.184 -10.184 -10.184 -10.184 -9.72199 -9.72199 -9.72199 -9.72199 -9.7305 -9.7305 -9.7305 -9.7305 -10.1589 -10.1589 -10.1589 -10.1589 -9.71134 -9.71134 -9.71134 -9.71134 -10.0896 -10.0896 -10.0896 -10.0896 -9.93174 -9.93174 -9.93174 -9.93174 -9.69119 -9.69119 -9.69119 -9.69119 -10.087 -10.087 -10.087 -10.087 -9.95377 -9.95377 -9.95377 -9.95377 -9.79528 -9.79528 -9.79528 -9.79528 -9.76831 -9.76831 -9.76831 -9.76831 -10.0809 -10.0809 -10.0809 -10.0809 -9.9616 -9.9616 -9.9616 -9.9616 -9.62098 -9.62098 -9.62098 -9.62098 -9.50676 -9.50676 -9.50676 -9.50676 -9.75879 -9.75879 -9.75879 -9.75879 -9.63393 -9.63393 -9.63393 -9.63393 -9.40941 -9.40941 -9.40941 -9.40941 -9.27316 -9.27316 -9.27316 -9.27316 -11.3565 -11.3565 -11.3565 -11.3565 -10.6912 -10.6912 -10.6912 -10.6912 -9.76053 -9.76053 -9.76053 -9.76053 -9.75266 -9.75266 -9.75266 -9.75266 -9.59035 -9.59035 -9.59035 -9.59035 -9.50548 -9.50548 -9.50548 -9.50548 -9.66198 -9.66198 -9.66198 -9.66198 -9.6618 -9.6618 -9.6618 -9.6618 -9.59025 -9.59025 -9.59025 -9.59025 -9.63306 -9.63306 -9.63306 -9.63306 -11.2622 -11.2622 -11.2622 -11.2622 -10.7442 -10.7442 -10.7442 -10.7442 -11.0311 -11.0311 -11.0311 -11.0311 -10.4188 -10.4188 -10.4188 -10.4188 -12.0348 -12.0348 -12.0348 -12.0348 -11.332 -11.332 -11.332 -11.332 -10.9324 -10.9324 -10.9324 -10.9324 -10.3834 -10.3834 -10.3834 -10.3834 -12.0568 -12.0568 -12.0568 -12.0568 -11.4492 -11.4492 -11.4492 -11.4492 -9.71465 -9.71465 -9.71465 -9.71465 -9.73828 -9.73828 -9.73828 -9.73828 -9.96538 -9.96538 -9.96538 -9.96538 -10.1283 -10.1283 -10.1283 -10.1283 -9.68859 -9.68859 -9.68859 -9.68859 -9.666 -9.666 -9.666 -9.666 -9.80141 -9.80141 -9.80141 -9.80141 -9.84297 -9.84297 -9.84297 -9.84297 -9.59298 -9.59298 -9.59298 -9.59298 -9.63127 -9.63127 -9.63127 -9.63127 -9.68304 -9.68304 -9.68304 -9.68304 -9.89074 -9.89074 -9.89074 -9.89074 -9.7386 -9.7386 -9.7386 -9.7386 -9.67623 -9.67623 -9.67623 -9.67623 -11.21 -11.21 -11.21 -11.21 -9.93165 -9.93165 -9.93165 -9.93165 -10.3824 -10.3824 -10.3824 -10.3824 -10.0925 -10.0925 -10.0925 -10.0925 -10.5041 -10.5041 -10.5041 -10.5041 -10.3986 -10.3986 -10.3986 -10.3986 -9.72604 -9.72604 -9.72604 -9.72604 -9.74875 -9.74875 -9.74875 -9.74875 -9.91583 -9.91583 -9.91583 -9.91583 -9.90712 -9.90712 -9.90712 -9.90712 -9.75833 -9.75833 -9.75833 -9.75833 -9.70365 -9.70365 -9.70365 -9.70365 -10.0026 -10.0026 -10.0026 -10.0026 -10.158 -10.158 -10.158 -10.158 -9.84249 -9.84249 -9.84249 -9.84249 -9.76401 -9.76401 -9.76401 -9.76401 -9.50651 -9.50651 -9.50651 -9.50651 -9.57878 -9.57878 -9.57878 -9.57878 -13.2568 -13.2568 -13.2568 -13.2568 -9.00002 -9.00002 -9.00002 -9.00002 -9.74165 -9.74165 -9.74165 -9.74165 -9.98654 -9.98654 -9.98654 -9.98654 -6.83589 -6.83589 -6.83589 -6.83589 -5.79922 -5.79922 -5.79922 -5.79922 -6.01633 -6.01633 -6.01633 -6.01633 -4.55456 -4.55456 -4.55456 -4.55456 -9.65616 -9.65616 -9.65616 -9.65616 -9.66393 -9.66393 -9.66393 -9.66393 -10.0762 -10.0762 -10.0762 -10.0762 -9.95235 -9.95235 -9.95235 -9.95235 -10.0524 -10.0524 -10.0524 -10.0524 -10.1122 -10.1122 -10.1122 -10.1122 -7.76315 -7.76315 -7.76315 -7.76315 -6.42675 -6.42675 -6.42675 -6.42675 -9.93222 -9.93222 -9.93222 -9.93222 -9.94185 -9.94185 -9.94185 -9.94185 -9.24323 -9.24323 -9.24323 -9.24323 -9.57221 -9.57221 -9.57221 -9.57221 -10.0752 -10.0752 -10.0752 -10.0752 -9.93897 -9.93897 -9.93897 -9.93897 -9.17723 -9.17723 -9.17723 -9.17723 -9.56619 -9.56619 -9.56619 -9.56619 -11.4316 -11.4316 -11.4316 -11.4316 -10.9447 -10.9447 -10.9447 -10.9447 -10.2681 -10.2681 -10.2681 -10.2681 -10.1784 -10.1784 -10.1784 -10.1784 -9.44366 -9.44366 -9.44366 -9.44366 -8.91418 -8.91418 -8.91418 -8.91418 -9.656 -9.656 -9.656 -9.656 -9.43136 -9.43136 -9.43136 -9.43136 -9.61186 -9.61186 -9.61186 -9.61186 -9.48732 -9.48732 -9.48732 -9.48732 -9.64094 -9.64094 -9.64094 -9.64094 -9.55223 -9.55223 -9.55223 -9.55223 -5.3421 -5.3421 -5.3421 -5.3421 -7.24165 -7.24165 -7.24165 -7.24165 -7.47772 -7.47772 -7.47772 -7.47772 -8.77627 -8.77627 -8.77627 -8.77627 -11.0011 -11.0011 -11.0011 -11.0011 -10.5186 -10.5186 -10.5186 -10.5186 -9.93386 -9.93386 -9.93386 -9.93386 -9.91407 -9.91407 -9.91407 -9.91407 -9.76508 -9.76508 -9.76508 -9.76508 -9.69644 -9.69644 -9.69644 -9.69644 -9.79668 -9.79668 -9.79668 -9.79668 -9.62998 -9.62998 -9.62998 -9.62998 -9.53952 -9.53952 -9.53952 -9.53952 -9.56399 -9.56399 -9.56399 -9.56399 -9.56052 -9.56052 -9.56052 -9.56052 -9.54252 -9.54252 -9.54252 -9.54252 -7.39415 -7.39415 -7.39415 -7.39415 -9.67569 -9.67569 -9.67569 -9.67569 -3.6859 -3.6859 -3.6859 -3.6859 -6.19648 -6.19648 -6.19648 -6.19648 -9.8425 -9.8425 -9.8425 -9.8425 -9.78332 -9.78332 -9.78332 -9.78332 -9.82248 -9.82248 -9.82248 -9.82248 -9.9124 -9.9124 -9.9124 -9.9124 -9.79389 -9.79389 -9.79389 -9.79389 -9.92945 -9.92945 -9.92945 -9.92945 -9.94629 -9.94629 -9.94629 -9.94629 -10.0222 -10.0222 -10.0222 -10.0222 -10.0577 -10.0577 -10.0577 -10.0577 -9.92022 -9.92022 -9.92022 -9.92022 -9.84566 -9.84566 -9.84566 -9.84566 -9.83682 -9.83682 -9.83682 -9.83682 -9.62678 -9.62678 -9.62678 -9.62678 -9.60216 -9.60216 -9.60216 -9.60216 -5.86179 -5.86179 -5.86179 -5.86179 -8.72365 -8.72365 -8.72365 -8.72365 -11.459 -11.459 -11.459 -11.459 -13.8632 -13.8632 -13.8632 -13.8632 -7.23789 -7.23789 -7.23789 -7.23789 -5.58616 -5.58616 -5.58616 -5.58616 -9.64773 -9.64773 -9.64773 -9.64773 -9.64189 -9.64189 -9.64189 -9.64189 -9.50734 -9.50734 -9.50734 -9.50734 -9.40288 -9.40288 -9.40288 -9.40288 -9.75097 -9.75097 -9.75097 -9.75097 -9.76452 -9.76452 -9.76452 -9.76452 
VECTORS Velocity float 
0.00390569 -0.00179348 0.0734633 
0.0024123 -0.00101382 0.0743258 
0.00172866 -0.00324628 0.076769 
0.000447363 -0.000177194 0.0828827 
0.0030938 0.00155151 0.0748036 
0.00247941 -0.00104842 0.0745185 
0.00397425 -0.00178324 0.0730379 
0.000242944 -0.000114353 0.0828763 
0.000411407 0.00296918 0.056676 
-0.000150118 -0.00474077 0.0413791 
0.0133882 0.0100921 0.0402002 
0.00296776 0.0115163 0.0281476 
0.0086614 0.000442064 0.0780952 
-0.00558005 -0.0303668 0.100475 
-0.00555186 0.00445556 0.0534969 
-0.0082309 -0.0110146 0.0634218 
6.51501e-05 -8.11907e-05 0.0799809 
-0.00260654 -0.00105268 0.0721111 
-0.0035686 0.000851479 0.0753287 
-0.00205492 0.000296136 0.0656065 
-0.00403049 -0.0129477 0.000291938 
0.00813936 -0.0494928 0.057704 
0.0175598 0.0158113 0.0197261 
0.0136454 0.0107353 0.0637218 
-0.0262687 0.00568589 0.0715366 
-0.016314 -0.0133417 0.108551 
-0.0227283 -0.0431409 0.0718488 
0.023569 -0.0215571 0.0275214 
-0.000653196 -0.00158805 0.0510238 
0.000147365 2.99597e-05 0.0544939 
-7.52613e-05 -0.00173321 0.0753085 
-0.00014156 -0.000945368 0.0370977 
-2.36336e-05 -9.67943e-05 0.0725141 
0.00112803 0.00219193 0.0716401 
-0.0011141 0.00229943 0.0700358 
0.000475115 0.00165766 0.0809836 
0.000374725 -0.0016321 0.047547 
-8.38468e-05 -0.00176911 0.0754381 
0.000115717 0.000150036 0.0548158 
-0.000120341 -0.00101381 0.0368744 
-0.0102574 -0.00174698 -0.0132392 
0.0161375 -0.0442865 0.064501 
-0.00606078 0.0158337 0.0273834 
0.0168251 -0.00904121 0.0289545 
-0.000126586 -0.00109333 0.000828465 
0.0004917 0.00117001 0.0462619 
0.000102141 -0.000969234 0.0340949 
-7.98251e-05 -0.000758964 0.0531156 
-7.79776e-05 -0.000479478 0.000523238 
0.00039872 0.000794303 0.0358376 
-0.00173643 0.000170273 0.0434777 
-0.000654248 0.000567541 0.0390642 
0.0504237 -0.000139974 0.0614134 
-0.0247921 0.0223801 0.0499029 
0.00459724 -0.0309621 0.034908 
0.0533765 0.0176266 0.12106 
-0.00137511 0.000684797 0 
2.27219e-05 0.0013115 0 
-0.000369965 -0.00328198 0 
0.0173886 0.023282 0.00993041 
-0.000105957 5.5376e-05 0.0729119 
0.00240829 0.00120772 0.0634071 
0.00129424 0.00097779 0.07351 
0.00125549 0.000319427 0.0800968 
-0.00768963 -0.00646974 0.002351 
-0.000667422 -0.0153514 0.0807901 
-0.0139926 -0.0601913 0.0861119 
0.006584 -0.00577853 0.00554633 
0.0153556 -0.00473594 0.0597708 
-0.000332685 -0.00940625 0.0729688 
0.0110242 -0.0239924 0.0741507 
0.00826299 -0.0126583 0.0726125 
0.000336131 0.000200597 0.000360494 
0.000140562 -2.15646e-05 -3.20567e-05 
-0.000743684 -0.000297833 0.0482609 
-3.5218e-06 -0.00101467 0.039986 
0.00648119 -0.00385068 0.0669432 
0.0112475 -0.00661391 0.064834 
0.00397093 -0.0072148 0.0692927 
0.00672255 -0.00614805 0.0698433 
-0.0207593 -0.0849784 0.0957074 
-0.0073245 -0.0194848 0.117968 
0.0498086 0.0177991 0.0932365 
-0.0172681 -0.0134804 0.025766 
-0.00597702 0.00322939 0.0878078 
-0.0122048 -0.0183251 0.0662083 
-0.00154433 -0.00380819 0.0507695 
0.000591913 -0.0310878 0.115425 
-0.0653054 -0.02001 0.146439 
0.0419942 -0.0267268 0.116109 
-0.0373972 -0.000138393 0.0198418 
-0.00386188 -0.009315 0.114975 
-0.000511779 -0.00019547 0.0768347 
0.000583626 -8.75464e-05 0.0827481 
0.00292558 -0.00168317 0.0725138 
-0.000995289 -0.00201919 0.0796955 
6.60399e-05 2.48772e-05 0.0801397 
-0.0035128 0.000594009 0.0747059 
-0.00275627 -0.00127863 0.0723781 
-0.00164785 -0.000331141 0.081949 
-0.00017869 -0.00622379 0.071943 
-0.000570543 -0.00352933 0.0660971 
0.00336285 -0.0268577 0.0774474 
-0.00338467 -0.00677916 0.068387 
0.0121557 -0.0464732 0.180297 
0.111403 -0.0053488 0.0542795 
-0.0824232 -0.00946886 0.127743 
-0.00864124 -0.0337376 0.155965 
-3.43462e-05 -1.56416e-05 0.0717816 
0.00198768 0.00106109 0.0640655 
0.00212189 -0.000749421 0.0742279 
0.00152433 -0.000679816 0.0602463 
0.00588204 0.0202829 0.108917 
0.0334331 -0.0123408 0.0247123 
0.000203765 0.000764597 0.0377474 
0.00514943 0.0241863 0.0574942 
0.0018858 -0.0033368 0.0404022 
-0.00348875 0.0102553 0.0470422 
0.0149766 -0.00364038 0.0855284 
0.0170718 -0.000895924 0.0382016 
-0.00433532 -0.00215091 -0.00523827 
-0.00255609 0.00253996 0.0466922 
0.0171873 0.00400155 0.0370846 
0.015703 0.014151 0.0454855 
0.00397315 -0.00645576 0.0698351 
0.00893589 -0.00346844 0.0722693 
0.00933651 -0.0120684 0.0604971 
0.0105168 -0.0130713 0.0725877 
-0.00451832 0.0335197 -0.0358826 
-0.0332146 0.0198134 0.0362384 
-0.0206989 -0.0243678 0.0685261 
-0.0523719 -0.0066697 0.136003 
0.00522869 -0.00468985 0.0700982 
0.000771931 0.000583657 0.0399336 
0.00972253 -0.00258111 0.0207468 
0.00238165 -0.00480337 0.0425383 
0.000209365 0.00966619 -0.017966 
0.0122198 0.000637655 0.0234993 
7.37414e-05 -0.00397993 0.00532533 
0.0119953 -0.0375449 0.0520606 
0.00209522 -0.000945793 0.0735875 
0.00218672 0.00154738 0.0642005 
-0.000128138 -9.39918e-05 0.0724331 
0.00148449 -8.52365e-05 0.0795368 
-0.0136255 0.00276496 0.0659959 
0.0112466 -0.00804641 0.0559576 
-0.00193637 0.00743432 0.0775239 
-0.0141518 0.005738 0.0807984 
0.000160353 -0.00028146 0.000792278 
-0.000681423 -7.7287e-05 0.054471 
0.000363827 -0.000120595 0.00109779 
-0.000455328 -0.000106457 0.037042 
0.000299813 0.00243539 -0.00263216 
0.000933116 -0.00101335 0.0410102 
-0.00170076 0.00359128 0.04061 
0.00136989 0.00819145 0.0352862 
0.00358175 -0.00151951 0.0728727 
0.000419538 -0.000209297 0.0828182 
0.00177875 -0.00349747 0.0768086 
-0.00127171 -0.0020886 0.0795452 
7.60285e-06 0.000115344 0.046687 
0.000899483 -0.00157151 0.073528 
-1.65927e-05 -0.00114919 0.0478439 
8.50095e-05 -0.000542429 0.0371121 
0.00256492 -0.00192777 0.0595699 
-0.000288684 0.00286862 0.034939 
-0.0108651 -0.00309256 0.0461685 
-0.00637983 -0.00368628 0.0466718 
0.00765135 0.00145663 0.0613736 
0.00128817 -0.000566078 0.0506659 
-0.000489894 -0.00897139 0.0369903 
0.00255245 0.0022696 0.0365001 
4.96731e-05 -0.000460858 0.00227563 
-0.000256641 0.000972475 0.0459487 
-0.00181107 0.000737636 0.0411021 
0.000369363 0.000427662 0.0362812 
-0.0014698 0.0456243 0.013624 
0.00409733 0.0300125 0.0598897 
-0.00271372 0.0055947 0.0484309 
-0.00437119 -0.00838456 0.0186464 
9.85053e-05 -9.07668e-05 0.0552013 
-0.000122343 -0.000225972 0.0567209 
-0.00122481 -0.000762196 0.0491143 
-0.00136272 -0.000556946 0.0735016 
-0.000141592 0.00194087 -0.00210762 
0.00192345 0.00289524 0.0462886 
0.00137419 -0.00453 0.0448538 
0.0135572 0.00422818 0.0378918 
0.000734566 -0.00124087 0.0476374 
-0.000673099 -0.00271593 0.0551269 
-0.00135651 0.0013621 0.00178822 
-0.000606637 -0.000113062 0.0387532 
0.00027223 -0.000174352 0.000917298 
4.70742e-05 -3.01564e-05 0.000158396 
-1.39455e-06 1.11866e-05 0.000305557 
-0.000452462 -0.000343839 0.0554403 
0.0111798 -0.000771498 0.0556215 
-0.00711531 -0.00831263 0.0759476 
0.00356697 -0.0230034 0.095269 
0.00491838 0.00414716 0.0575054 
-0.00776596 -0.00464253 -0.00605029 
0.0260024 0.00724102 0.026376 
0.00712137 0.0010945 -0.00467451 
-0.0130193 -0.00457347 0.0284092 
-0.00160197 -0.00352381 0.0753588 
-0.00515651 -0.00609255 0.0680285 
-0.00406401 -0.0045435 0.0724277 
-0.00358077 -0.00127345 0.0755539 
-0.000591818 -0.000236687 0.0483886 
-0.00167649 0.00235254 0.0721269 
-0.00389105 0.00487878 0.0700906 
-0.00179088 0.000999303 0.0448484 
-4.86769e-06 0.000148776 0.0790688 
-0.0020034 -0.00308151 0.0775081 
-0.00238043 -0.00113499 0.0712966 
-0.00123744 -0.00148187 0.063547 
0.000103992 2.89413e-05 0.0796433 
-0.0029861 -0.000992858 0.0723701 
-0.0018384 -0.00292123 0.0755961 
-0.00148264 -0.000748259 0.081898 
0.0028335 0.0016458 0.0748038 
0.00275601 -0.00154735 0.074289 
0.00038339 1.84061e-06 0.0829722 
0.00130032 5.40197e-05 0.079159 
-0.00701715 0.00364586 0.00272386 
-0.0155511 -0.017465 0.0626322 
0.0126157 -0.00707896 -0.0274085 
-0.0548906 0.0318064 0.08248 
-0.00610906 -0.0129748 0.0495472 
0.00292056 -0.027849 0.0724293 
-0.00931036 -0.0134208 0.0598639 
-0.00146755 -0.00796675 0.0755001 
3.44097e-05 -9.01879e-05 0.0719301 
-0.000792651 0.00222179 0.0697576 
0.000917764 0.00223067 0.0721338 
0.000258705 0.00175308 0.0597207 
0.0167069 0.000698246 0.0225461 
0.00907355 -0.0420305 0.0564827 
-0.0151871 0.00407137 0.0804946 
0.00601341 0.0107191 0.0611791 
-0.0132804 -0.0319515 0.208863 
-0.00285076 0.000234047 0.269602 
0.0414206 -0.0727103 0.0842602 
-0.0517138 0.0688183 0.102932 
0.00194811 0.00389956 -0.0192034 
-0.0112678 -0.00158945 -0.00872142 
-0.0139343 0.00476255 0.0691977 
-0.000850754 -0.00743566 0.0213122 
-0.00168017 0.0198276 0.0723249 
-0.00407631 0.0142619 0.0807023 
-0.0118783 -0.0134525 0.0300467 
-0.0119702 0.0106357 0.0226855 
-0.000864067 -2.89254e-05 0.0518018 
-0.00389594 0.00485637 0.069982 
-0.00191778 0.00238962 0.0716595 
-0.00183259 0.00115799 0.0454198 
-0.0048562 -0.00630552 0 
0.00292009 0.000463749 0 
-0.0138233 -0.0054473 0 
0.0393423 0.00810425 0.0190407 
0.000774491 -0.00287566 0.0566037 
0.00271679 -0.000993824 0.0651603 
0.00494105 -0.00734122 0.0714563 
0.00308974 -0.0030787 0.0632841 
-0.00453839 -0.0012058 0.0566261 
0.00398351 -0.00559569 0.0655467 
0.0049401 -0.00605476 0.071319 
0.0133191 -0.0119665 0.0775741 
0.0035222 0.00862625 0.0662694 
0.000764743 0.00134347 0.0532289 
-0.00969133 -0.00302687 0.0717458 
0.000143671 0.000573423 0.0384022 
-0.00366015 0.00480539 0.0440066 
0.00237335 -0.00197978 0.0370071 
-0.00016509 0.00302148 0.0595253 
-0.000141853 0.00903612 0.0360331 
-0.0093095 -0.0155289 0.0569013 
-0.0137801 -0.0115088 0.071365 
-0.00388189 -0.00388479 0.0719139 
0.00233834 -0.0104604 0.0655127 
-0.00523538 -0.00214973 0.0708976 
-0.000570982 -0.000591083 0.0496885 
-0.00213384 0.000922502 0.0542837 
-0.00344603 -0.00169397 0.0729946 
0.00130006 -0.000846306 -0.00074893 
-0.0162417 0.0116408 0.0497653 
0.00230649 0.0105146 -0.00298656 
0.000105365 -0.00623153 0.0148464 
-0.0042156 0.00689487 0.0245752 
-0.00213624 -0.00178952 0.033817 
0.00529428 0.0090675 0.0750046 
0.002908 0.016303 0.0331156 
-0.000110583 -0.000102872 0.000375597 
2.72595e-05 -0.000794124 0.0492768 
0.000167174 -1.51035e-05 -5.14546e-05 
-0.000511347 -0.000451524 0.0387714 
-0.0442524 -0.0332132 0.0343056 
0.0236903 -0.00575573 0.112958 
0.0124148 0.0103774 0.0832477 
-0.00933505 0.00640682 0.11042 
0.000832236 0.00155622 0.0502126 
0.00178308 0.0036296 0.0638044 
-0.0016025 0.000402646 0.0396311 
0.00228658 0.00237357 0.0665028 
-0.000766018 -0.00380823 0.0777503 
-0.000573375 -0.021449 0.109066 
-0.00498557 -0.00942667 0.0683695 
0.0121263 0.0115983 0.04903 
-0.00866666 0.0155789 0.249638 
0.0164579 -0.00659669 0.129006 
-0.00608636 0.0155128 0.234878 
-0.0157058 -0.102035 0.231625 
-0.000294799 0.000160447 0.0203894 
-0.000368868 8.07272e-05 0.00243581 
-0.000202263 0.000163931 0.0424579 
0.000297684 0.000126322 0.0431601 
-0.00141849 -0.00113653 0.0494255 
-0.00125748 -0.00081861 0.0739502 
5.84831e-05 5.61739e-05 0.0565198 
-0.00127099 -0.000163963 0.0375103 
0.00712521 -0.00498404 0.0314432 
0.0126609 -0.0126737 0.0374669 
0.00213368 -0.000810761 -0.0133736 
-0.00142235 -0.00148676 0.0448624 
0.012264 0.0572707 0.0718451 
-0.0259711 0.00279357 0.0211902 
0.000605458 0.0279223 0.0487593 
0.00976094 0.0612799 0.134296 
0.010798 0.0233975 0.0488936 
0.0458314 0.0246195 0.0447949 
-0.0190524 0.0280912 0.133602 
-0.0163606 0.0239999 0.155119 
-0.000287565 9.27796e-05 0.0554942 
-7.5985e-05 -0.000124892 0.0578924 
-0.000387883 -0.00173151 0.0503129 
0.000293762 -0.00169542 0.0745471 
0.00127441 -0.000527844 0.00261574 
-0.00134311 -0.000159189 0.0475036 
-0.00180573 0.000397948 0.0559625 
-0.000466523 -0.000300938 0.038132 
-0.00166327 -0.00317653 0.0752849 
-0.00354389 -0.0033078 0.0629941 
-0.00482301 -0.00568438 0.0674785 
-0.00395902 -0.00204119 0.0763041 
-0.000526026 -0.0023152 0.0744213 
0.00242618 -0.0103841 0.0683772 
-0.00651073 -0.00484609 0.0555496 
-0.0074416 0.00512951 0.0485554 
0.000205608 -0.000141781 0.0420989 
0.000329509 -0.000296342 0.0019952 
-0.00131317 0.000521896 0.0529246 
-0.000608256 0.000398386 0.0434734 
0.00068267 -0.000240221 0.0482586 
0.00141961 -0.000855175 0.0517177 
0.00205127 0.000449161 0.0606918 
0.000148738 0.000517125 0.0339807 
-0.00710251 -0.00377659 0.0677721 
-0.00502438 -0.00420644 0.0713726 
-0.00447289 -0.00829395 0.0698471 
-0.00453461 -0.000244403 0.0741282 
-0.0110706 0.00520038 0.05429 
-0.00854176 -0.0186877 0.0762579 
0.00449982 -0.02166 0.0970276 
-0.0153756 -0.00819846 0.0693282 
-0.000198653 -0.000480478 0.0573814 
0.000123892 -0.000272396 0.0552976 
-0.00113871 -0.000286166 0.0481449 
-0.00112169 0.000246098 0.0368832 
0.000468546 -0.00449435 0.0739915 
-0.000492635 -0.00453659 0.0737854 
0.00146103 -0.00333578 0.0766175 
-0.000810207 -0.00205302 0.0797924 
0.0119617 0.0403814 0 
-0.0022049 -0.0532017 0 
0.0163485 -0.0383102 0 
0.0456847 -0.0327207 0.163759 
0.000546558 0.00136552 -0.00342628 
-0.0109439 -0.00425487 0.0432847 
-0.000852392 0.00282845 0.0379334 
-0.00579882 -0.00311024 0.0451117 
0.000116387 -0.0100993 0 
0.00134106 -0.00971669 0 
0.00639473 0.0139448 0 
-0.022369 0.0264993 0.0413821 
-0.00030951 -0.000135951 0.0542334 
-0.000540072 0.000310517 0.0373393 
-0.000125707 -0.000393966 0.000880036 
0.000335455 -0.000711693 0.0365445 
-0.00128432 -0.000972649 0.0514264 
3.04694e-05 -0.00555084 0.0748545 
0.000783828 -0.00123076 0.04786 
-0.000106579 0.00175633 0.03736 
-0.000941018 0.00333545 0.0767632 
-0.000434018 0.00169811 0.070029 
0.00139132 0.00267832 0.0718255 
7.22182e-05 0.0017051 0.0809068 
0.00278081 0.0078739 -0.00535797 
-0.0291855 0.00184737 0.0413593 
-0.017815 0.00316483 0.0141023 
-0.000990501 -0.00768664 0.00348143 
-0.000741998 -0.00275855 -0.00100383 
0.00971096 0.0116726 0.0262064 
-0.000694613 -0.00413469 0.0482559 
0.00330218 0.0112329 0.0260598 
8.76789e-06 -0.000289315 0.0511893 
9.95504e-05 -1.5043e-05 0.0412371 
-0.00301687 -0.00052272 0.0519154 
-0.00118786 -0.000642687 0.0362605 
-0.0133854 0.0189352 0.270639 
-0.0802009 -0.00456086 0.0512093 
0.00352199 -0.00240082 0.109469 
-0.020731 -0.0258493 0.154701 
8.94002e-05 2.21295e-05 0.00104995 
1.65923e-05 6.79135e-05 0.0496473 
-1.80927e-05 7.92817e-05 0.0259257 
-0.000513249 6.92768e-05 0.0370134 
0.0101389 -0.000342723 0.0263576 
0.0145713 0.010121 0.0719084 
0.0145119 0.0230127 0.0743922 
0.0312575 -0.00677271 0.0173874 
-0.00182933 0.000114244 0.0443619 
0.000567842 0.000808322 0.0352955 
0.000297209 0.0025527 0.0565796 
-0.000606918 0.000591684 0.0386672 
-2.64521e-05 -0.00672106 0.0699579 
-0.00224371 -0.00834419 0.0703271 
-2.35584e-05 -0.00241315 0.0774735 
0.00189075 -0.00842939 0.0690855 
-0.013163 -0.00235008 -0.0191868 
-0.0166229 -0.00648571 0.0469666 
0.0253946 0.00866501 0.00454211 
0.0165998 0.0384588 0.087319 
0.00118787 -0.0019962 -0.00236279 
4.10241e-05 0.00925623 0.0640958 
-0.000181603 -0.00051983 0.0376382 
9.94022e-08 0.0143235 0.0274469 
8.04183e-05 -0.00134547 0.00151613 
-3.4275e-05 0.000284853 0.0498105 
-0.000454082 0.00178609 0.0502388 
0.00105119 0.000118064 0.0379821 
-0.00114312 -0.000923864 0.0780725 
0.00167074 0.00169004 0.0729492 
0.00235093 -0.000557581 0.0708933 
0.000950262 0.000778142 0.0803456 
-0.0093296 0.0128849 -0.00275173 
0.0173282 0.0452989 0.0594171 
-0.0119818 -0.00827745 -0.012673 
0.00315579 -0.00793532 0.0126075 
6.70916e-05 5.92616e-05 0.000904822 
-0.000199337 0.000302698 0.0250624 
9.99923e-05 -0.00048033 0.0477945 
0.000485684 -8.77804e-05 0.0352059 
-0.000238826 -0.000179516 0.080465 
-5.73596e-05 0.00032704 0.0688257 
-0.00237886 -0.0010849 0.0718252 
-0.00203288 0.000661043 0.0653123 
0.00241932 0.00395071 -0.00261853 
-0.0109729 -0.014795 0.035032 
-0.00466691 -0.00969795 0.0583718 
-0.00149398 0.00583765 0.0415614 
-8.55448e-05 0.000474112 0.0527489 
0.00369459 0.0030107 0.0620546 
0.00244858 0.00407958 0.0641921 
0.00322482 0.00332442 0.067657 
0.0113725 -0.0297947 0.189449 
0.0408225 -0.0175349 0.113328 
0.047937 -0.0501066 -0.0313959 
0.0227665 -0.00496276 0.202289 
-0.000322102 0.00434296 0.227729 
0.00517477 -0.0327462 0.137109 
-0.00428567 0.0171511 0.253504 
0.0322553 -0.0961086 0.0889376 
-4.34876e-06 -0.000142052 0.000543426 
4.98106e-05 0.000551748 -6.46444e-05 
3.60467e-06 7.09294e-05 -0.000182262 
0.000625785 -0.00112176 0.0496918 
-0.00597114 -0.0204591 0.0399466 
0.00912357 -0.0102648 0.0716247 
-0.0313927 -0.0120435 0.0264022 
-0.0172514 0.0166493 -0.00158085 
-0.000106603 -0.000540884 0.000838195 
-0.0007074 -0.001118 0.0559945 
-0.000439441 -0.00016374 0.000298966 
0.000106774 -0.000103217 0.0368206 
0.0024573 -0.000868976 0.073729 
0.00149976 0.000268689 0.0641236 
0.0032552 0.00200274 0.0758719 
0.00420686 -0.000508766 0.0667082 
0.0260681 -0.0112086 0.237884 
-0.0113026 0.0186433 0.148886 
0.00762055 -0.0028647 0.238428 
0.00701633 0.0875861 0.227696 
-0.000419362 -0.000336196 0.00124714 
-0.00220226 0.00032848 0.0415647 
0.000179155 0.000895638 0.0460638 
-9.84239e-06 0.000608347 0.052 
0.00213092 0.000646356 0.0637451 
0.00324074 0.000193754 0.0616588 
0.00377039 0.00178582 0.0757891 
0.00334891 -0.000634311 0.0670557 
0.000693675 -0.00102657 0.0475672 
0.00225731 0.00226017 0.0622235 
-0.000551914 -0.000244913 0.0389787 
-0.000404615 0.000209925 0.033857 
0.000628618 -0.000407578 0.048631 
0.000535914 -0.00266773 0.0719417 
0.000850115 -0.00332625 0.0741994 
0.000600018 -0.0041266 0.0662334 
-0.04145 0.0325829 0.272237 
-0.0665863 0.0263487 0.16003 
0.0982837 0.0731679 0.0275058 
-0.0860694 -0.0286669 0.0661724 
0.00434697 -0.00394862 0.0301671 
-3.83581e-05 0.000373901 0.0413069 
-0.000743821 0.000523363 -0.00169681 
0.00652567 -0.00377858 0.0348966 
-0.00280466 0.0024123 0.0731024 
-0.000999827 0.000831669 0.0441533 
-0.000745331 0.000971466 0.0486277 
-0.000395775 0.000524128 0.0429045 
-0.00218471 -0.00209881 0.053079 
-0.001855 0.000322457 0.0507276 
-0.00172507 0.000648882 0.054893 
-0.00364505 0.000272859 0.0711629 
-0.00897231 0.00217853 0.0692945 
-0.00643527 0.000610917 0.0698479 
0.00328618 -0.00312178 0.0547422 
-0.0114868 0.000758685 0.0774447 
0.00200168 -5.678e-05 0.0595521 
0.0145695 0.00728705 0.0419675 
-0.00361535 -4.61908e-05 0.0338544 
0.00520697 0.00276236 0.0545074 
3.90964e-05 0.000279849 0.000978715 
-0.00343315 -0.000972846 0.0565363 
0.000434421 -0.000888576 -0.00142154 
-0.00160631 -0.000604115 0.0387226 
-0.00089395 0.000367782 0.000680001 
0.000465935 -0.000783039 0.0550238 
-0.000303848 0.000614712 0.000523061 
0.000330559 -0.000702999 0.0365386 
2.51823e-05 0.000174949 0.0727957 
-0.000167477 -0.000168027 0.0723638 
0.00234265 0.00112822 0.0635784 
0.00104913 0.000160709 0.0801101 
0.0333131 0.000711813 -0.030367 
0.0117482 -0.0425955 0.0209654 
-0.0110317 -0.0372397 0.121654 
0.0101592 0.0031101 0.0506936 
0.00379533 0.00597477 -0.00377656 
0.00900865 -0.00677806 -0.00923944 
0.0111654 -0.00643568 -0.0228102 
-0.0705874 0.00188716 0.0873501 
0.0143073 -0.0122861 0.278822 
0.041354 -0.0899161 0.0525677 
-0.0176313 0.0196747 0.259015 
-0.0361742 0.0606031 0.136432 
-6.57264e-05 -8.77257e-05 0.0725505 
-0.000997826 0.00262432 0.0696764 
4.16542e-05 -0.00012437 0.0801076 
0.000436331 0.00110888 0.0814295 
0.0017533 0.00885319 0 
-0.00370799 -2.11768e-05 0 
-0.00287216 -0.00222335 0 
-0.00154518 -0.00847282 0.00932185 
-0.00227146 0.00204403 0.0507489 
-0.000405542 -7.1887e-05 0.0420341 
-0.000959725 -0.00371638 0.0527045 
-0.00479237 -0.00123405 0.072439 
0.00384937 0.00385416 0.0708581 
0.0149171 -0.0233754 0.0372783 
0.00687808 0.016788 0.0578529 
0.0152037 0.0157093 0.11168 
0.00492795 -0.00770614 0.0601961 
0.00563994 -0.00920392 0.071806 
0.00253385 0.00209716 0.0696383 
0.00995325 -0.00974606 0.0603814 
-0.0126648 0.00517054 0.217717 
-0.0130616 0.0167501 0.099076 
0.0105715 -0.000343061 0.240973 
-0.0770858 -0.0023309 0.172036 
0.0217749 0.00545749 -0.0259265 
-0.00668648 0.00612883 0.0999644 
-0.0123122 -0.00321058 0.000960932 
-0.0506134 -0.0322794 0.0757937 
-0.000619043 4.1929e-05 0.000632217 
-0.000288816 -0.000364453 0.0358679 
-0.000477537 -0.00133859 0.0568556 
0.00018967 -0.000248962 0.0358853 
-0.00450738 -0.0144255 -0.00894786 
-0.00241479 0.00538547 -0.00733533 
0.00708385 0.00600737 0.0285375 
-0.00172193 -0.0145598 0.027697 
-3.97749e-05 0.000411793 0.0775122 
0.00224615 -0.00194532 0.0720584 
-0.000570759 -0.00392912 0.0734606 
-0.00081495 -0.00191521 0.0798456 
0.0027359 -0.000873896 0.0740536 
0.000817239 -0.000407431 0.0604608 
0.00177943 0.0009348 0.0641066 
0.00363064 -0.000682949 0.066131 
0.000241878 -0.00103734 -0.00138551 
0.00312134 -0.00730328 0.0341729 
0.000867416 -0.000930711 0.0505263 
0.000862489 0.00195429 0.0390971 
-0.000328544 -0.000166434 0.00172635 
-0.000393305 0.000673583 0.0498823 
-0.000123634 0.000318293 0.035713 
0.000575267 0.000949379 0.0380391 
0.000150514 0.00226822 0.057581 
-0.00162351 0.000507194 0.0429995 
-0.000450111 0.00112025 0.045623 
0.00030045 0.000511882 0.0355922 
-0.000226683 0.000410976 0.0598195 
0.00182351 -0.000515626 0.051426 
0.00154231 0.000614227 0.0634315 
0.00146535 -0.000442325 0.0602808 
0.00181248 -0.00303078 0.0766296 
7.48767e-05 -0.00537993 0.0721747 
-7.41494e-05 -0.00339804 0.0758855 
0.00176565 -0.00822031 0.069195 
0.000238443 -0.000170489 0.042006 
-0.00112143 0.000427335 0.0534122 
0.000271905 -0.000269057 0.00183289 
-0.000480234 9.85323e-05 0.0382433 
-6.32246e-05 -0.000967984 0.00102896 
-0.00113228 0.00235963 0.0507215 
4.37104e-05 -0.000565266 0.0495409 
0.000115708 -0.00277557 0.0298196 
0.0320024 -0.00679965 0.0102301 
-0.00430797 -0.00391106 0.0656404 
0.00677351 -0.00983915 -0.0319281 
-0.0459347 -0.0343194 0.050382 
0.000765133 -0.000228958 0.00183095 
-0.000805425 0.000100909 0.0433295 
-0.00236974 0.00163646 0.050013 
0.000603865 -0.00201962 0.0318261 
0.000294492 -0.00422743 0.000623769 
0.00208473 -0.00273523 -0.0013867 
-0.00121857 0.00326291 0.041359 
-0.00200288 0.0155504 0.0320018 
-0.000436939 -0.0017268 -0.00514703 
-0.0020301 0.0034937 0.0383728 
-0.00810173 -0.00125679 0.0362197 
-0.00434989 0.00131793 0.0103414 
-0.00181094 -0.00309093 0.0754109 
-0.000339136 -0.00484789 0.0741307 
0.000360942 -0.00415831 0.0739928 
-0.000781019 -0.00229504 0.0794803 
0.0759305 -0.0224659 0.0979815 
0.0611236 0.0061406 0.16587 
-0.0198699 -0.00675825 -0.0201404 
-0.0340627 -0.0169142 0.0255673 
-0.00179216 0.000619448 0.0550586 
-0.00131205 -0.000559086 0.0487886 
-0.00184561 0.000111122 0.0533451 
-0.000337033 -0.000397525 0.0376805 
-0.00580925 0.0121398 0.251363 
0.00165534 0.0427964 0.140742 
0.0757015 0.0681745 0.0105184 
-0.0679009 -0.0309145 0.173885 
-0.00444744 -0.00342921 0.0441279 
-0.0214596 -0.00893896 0.0792351 
-0.0097482 -0.00602455 -0.026979 
-0.00913333 -0.0148936 0.0407803 
0.00122353 -0.00062087 -0.000117035 
6.91463e-05 -0.000834717 0.0410915 
-7.70144e-05 -0.00123299 0.0505539 
-0.00101516 0.000227496 0.0377084 
-0.00188094 -0.00334495 0.00239721 
0.00126099 -0.00330193 -0.00219461 
-0.0266207 0.0130275 0.0309832 
-0.0046808 -0.0122903 0.00440231 
-0.00602322 0.00249501 0.00145967 
-0.00168093 -0.073117 0.111583 
0.00489547 -0.0363181 0.0384969 
-0.00425731 0.0247533 -0.0246373 
-0.00117505 0.00041836 0.0522205 
-0.000668921 0.000603406 0.0446059 
-0.00326666 0.00272673 0.0723973 
-0.000609224 0.000703996 0.0431728 
-0.00522541 0.00442486 0 
-0.00587054 -0.00412025 0 
-0.00352162 0.00373834 0 
0.00984781 -0.00192311 0.010304 
-0.0056548 -0.00801337 -0.0179795 
0.0318461 0.00399958 0.0480863 
-0.028543 0.000318132 0.0375867 
0.000533577 -0.0033237 0.0334216 
0.000133578 0.000963185 0.00206102 
-9.02257e-05 0.00016831 0.000501897 
-0.000365407 -0.00244708 0.0519112 
0.000389431 -0.000549863 0.0474743 
0.00224774 -0.00377869 0.0767098 
-0.000976254 -0.00403749 0.0732456 
0.00306215 -0.00173896 0.0725037 
-0.000971521 -0.00195712 0.0797626 
0.000339444 -0.000300593 0.0023873 
-0.000557732 0.000950624 0.0434839 
-0.00107907 0.0007918 0.0530547 
-0.000702612 0.000381389 0.0433576 
0.0209126 0.000316976 -0.0134158 
-0.0335677 -0.00500553 0.000669471 
-0.0394043 -0.0282 0.115805 
0.0674101 0.0289299 0.0494983 
-0.00166064 -0.000422991 0.0545183 
-0.00105506 0.000419368 0.0493543 
-0.00329498 -0.00206636 0.0733017 
-0.00138405 0.000663087 0.040182 
-0.0663719 -0.0117691 0.151216 
-0.0486593 0.0105618 -0.0223376 
-0.0401202 0.0356917 0.178721 
-0.000175643 -0.00511678 0.213682 
2.06795e-05 0.000151489 0.0602542 
0.00142948 0.000730837 0.0632226 
0.00159264 -0.00021174 0.0513952 
0.000285153 7.3155e-05 0.0404191 
0.0135528 0.0290499 0 
-0.00593307 -0.0373645 0 
0.0160069 -0.0103184 0 
-0.0328557 0.0459805 0.0428237 
0.0098015 0.00998302 0.0239349 
0.0266062 0.0275971 0.0747766 
-0.00119396 -0.00688983 -0.0161867 
0.0276544 -0.0151614 0.0188933 
-0.00124377 -0.0176158 0.0801244 
0.0321101 0.0228654 0.015491 
-0.0436794 0.0515263 0.0825151 
-0.033936 0.0428757 0.133989 
-0.0403147 -0.0654712 0 
0.0422137 0.0307559 0 
-0.0490044 -0.0440667 0 
0.02892 -0.0480301 0.217718 
-0.000398925 0.0005642 0.00042249 
0.000616097 -0.000260524 0.0349775 
-0.00021354 0.000479615 0.039305 
0.000104087 0.000902936 0.0336405 
0.00157961 -0.00332248 0.0768222 
0.000350245 -0.000259395 0.0829328 
0.00293859 -0.000993423 0.0742556 
0.000871254 -0.00105995 0.0798986 
0.000838697 0.000628084 0.0505895 
-0.00303982 -0.00138641 0.071648 
-0.00671468 -0.00342663 0.070043 
-0.00222803 -0.00239542 0.0609832 
0.0050443 -0.00719967 0.0703814 
-0.000411606 -0.000970065 0.0575331 
0.00632696 -0.00521311 0.0680041 
0.00396911 -0.00503063 0.0660158 
-0.00704855 -0.00319637 0.0674764 
-0.00354637 -0.00724494 0.0686777 
-0.0013759 -0.00156851 0.0628052 
-0.00566485 -0.00236692 0.075924 
0.000250215 0.000226245 0.0801719 
-0.00150177 -0.000624872 0.0817278 
-0.0018646 -0.00309604 0.0755959 
-0.000196892 -0.00176135 0.0815588 
-0.00361043 0.000614541 0.0744809 
-0.00153513 -0.000440399 0.0817919 
0.000152555 6.94734e-05 0.0806451 
-0.00132719 0.00088604 0.0802192 
-0.000290008 0.000217881 0.000801499 
0.000676947 0.000465008 0.0397801 
-0.00130625 4.11772e-05 0.0443984 
0.00343762 -0.000729656 0.0339185 
-2.78004e-06 0.000107213 0.0468487 
-2.71119e-05 -0.00109816 0.0466734 
-0.000108673 0.000507665 0.024369 
0.00044145 -0.000485154 0.0365573 
0.00430754 -0.00767828 0.0594877 
-0.000987326 0.00998308 0.0262848 
0.00536752 -0.0377245 0.0649816 
0.0138974 -0.0112305 0.0278295 
-0.0032697 -0.00352627 0.0719777 
0.0126073 -0.0169156 0.0580785 
0.0068397 -0.00500885 0.0277911 
-0.00189687 -0.000584801 0.0340517 
-0.000156355 0.00024258 0.00208096 
-2.28799e-05 -0.00189467 0.0537487 
-0.000114391 -0.000909575 0.0479261 
0.000198147 -0.000242507 0.0363881 
0.00511745 -0.010654 0.0712625 
-0.0039677 -0.00975229 0.0757711 
-0.0167214 -0.000596471 0.0685222 
0.000745168 -0.00421286 0.0644018 
-0.0215183 -0.00151595 0.0445167 
0.0158117 0.00336133 0.0353403 
-0.00104578 -0.0023287 -0.0120681 
-0.0126889 -0.00771604 0.0266961 
0.000890448 -0.000592634 0.0478195 
-0.000240719 0.000258045 0.0385044 
-0.00064771 0.000111009 0.000978553 
0.000594754 -0.000302002 0.0352703 
0.00647798 -0.00280678 0.0680112 
0.00411388 -0.00247551 0.070307 
0.00360499 -0.00782176 0.0690965 
0.0115089 -0.00720715 0.0639273 
-0.048113 0.0297381 0.045775 
-0.0382662 0.0191373 0.142225 
-0.0600439 0.0123165 0.0634487 
0.0231191 -0.00472834 -0.0484408 
0.0141279 0.0285661 0 
0.00213237 0.0114713 0 
-0.0051147 -0.0134631 0 
-0.0129345 0.0256492 0.0483166 
0.0012382 0.023921 -0.000833758 
-0.00327612 -0.00384886 0.0197162 
-0.00154855 -0.00779876 -0.00736339 
0.00746936 0.0262848 0.038191 
0.0021291 -0.00152936 0.0779722 
-0.0015312 0.00128127 0.0635954 
-0.00239831 0.00316393 0.0688876 
-0.00615697 0.00514024 0.0700772 
8.02949e-05 -0.00798394 0.0721194 
0.000309497 -0.00320648 0.0739373 
-0.00121375 -0.00824238 0.0702381 
0.00109729 -0.0084929 0.0692175 
-0.00791434 -0.00422832 0.0717982 
-0.00135747 0.00340496 0.0534626 
-0.00630184 -0.00229459 0.0711068 
0.00267243 0.00462017 0.0411986 
-0.00213565 -0.00222299 0.0754713 
-0.00289097 -0.00136723 0.0720027 
-0.00357853 -0.00447054 0.0629907 
-0.0043081 -0.00102236 0.0764462 
-0.0145553 0.0253291 0.2283 
0.0347504 0.0538859 0.0552075 
-0.0049852 -0.00298789 0.122398 
-0.0674646 -0.0111638 0.0828334 
3.99325e-05 0.000185445 0.0790338 
2.46924e-05 8.26734e-05 0.0724069 
-0.00162288 -0.00286409 0.0775073 
-0.0015857 -0.00167906 0.0635421 
0.00152452 -0.00312193 0.0592274 
-0.00191327 0.00134012 0.0373575 
0.00215441 -0.000116264 0.0590033 
0.00277099 -0.00332561 0.064295 
-0.00172615 -0.0433104 -0.0367764 
-0.0120701 0.0163674 0.0721311 
-0.0434131 -0.0213752 0.0403737 
-0.0350681 0.0183024 0.16178 
-0.00225447 0.0019227 0.0533713 
0.000900819 0.00166608 0.0441665 
0.00084424 -0.00147775 0.00190037 
-0.000769031 -0.000726919 0.0399933 
0.00350087 -0.00193207 0.00157454 
0.00232758 -0.000805914 0.0413979 
-0.00253264 0.00746409 0.0294596 
-0.00383054 0.0148317 0.0218099 
-0.00139448 0.00349153 -0.00287624 
-0.000313932 0.00148024 0.0381612 
0.0018206 0.00449739 0.0641374 
-0.000470332 -0.00037424 0.0371315 
-0.000185013 0.00081935 0.00162954 
-0.000477264 0.000676549 0.0403209 
-0.00123523 -0.00202354 0.0547917 
-0.000197249 -0.000911017 0.0385082 
0.000433816 -8.8652e-05 0.0477841 
6.83774e-05 -5.51278e-05 0.0625643 
-0.00068377 0.00121993 0.0485156 
-0.00186096 0.00127355 0.0722446 
0.000420337 -0.000106053 0.0613727 
0.0011546 -3.356e-05 0.0503069 
2.88691e-05 -0.000142557 0.0463967 
0.000431514 0.000510916 0.0401254 
0.000247237 -2.16623e-05 0.0612923 
-0.000139035 -0.000141339 0.0469175 
0.00138969 -0.000100774 0.0500641 
0.00116158 -0.00048261 0.0595681 
-0.00150633 -0.00291544 0.0773266 
-0.0163433 -0.0170996 0.0727672 
-0.0105495 -0.0150258 0.0524681 
-0.0150799 -0.00977234 0.0686046 
0.00657721 0.0066335 0.0679521 
0.00126749 0.00171417 0.0712716 
0.0101827 0.000685483 0.0689403 
0.00300368 0.000415067 0.0621061 
0.000274823 -0.000300123 0.0427366 
-0.000505181 0.000787261 0.0431945 
-0.00162302 0.000626284 0.0512585 
-0.0012949 0.000639035 0.0597659 
0.00211566 -0.000227643 0.0636751 
0.00102797 -0.000298838 0.0599221 
0.00172855 0.000169977 0.051575 
0.00296323 -0.000162438 0.0675601 
0.00280628 -0.0010692 0.0700981 
0.00687421 -0.00757227 0.0692424 
0.00365256 -0.0092973 0.0628176 
0.00259238 -0.00864002 0.0701041 
-0.00250229 0.00119502 0.0518182 
-0.000998319 -0.00166933 0.044257 
-0.00412327 -0.000597205 0.0709763 
-0.00499052 0.0028505 0.0671067 
3.31609e-05 -0.000101735 0.0231095 
-0.000231182 -0.000135877 0.0486495 
1.51416e-05 5.65418e-05 0.0011573 
-1.53473e-05 -0.000454276 0.0369105 
-0.00347042 0.000179986 -0.00224282 
-0.000413837 -0.00170181 0.0389986 
0.00029956 -0.00168382 0.0573113 
-0.00553881 -0.000296732 0.0443336 
0.00241093 0.00381999 0.0580972 
-0.00689146 -0.0115253 0.0537339 
0.00212414 -0.0318886 0.0841888 
-0.000422304 -0.00789944 0.0749952 
-0.000395934 0.000444378 0.00033819 
0.000244028 0.000713404 0.0466871 
0.000497276 -0.000317343 0.000688308 
-0.000168645 -0.000796652 0.0529545 
0.0024017 -0.00713648 0.0710866 
-0.00102239 -0.00500812 0.064209 
-0.00229844 -0.00233906 0.0664389 
-0.00287545 -0.0119894 0.07023 
-0.0500586 0.0616146 0.0951546 
0.0339632 -0.0129944 -0.0718212 
-0.017282 0.0729915 0.0982363 
0.00964542 0.0342559 0.200804 
0.00440911 0.0456163 0.122827 
0.0385098 -0.00616613 0.158826 
0.00459274 -0.000860157 0.224995 
0.0502483 0.0199555 -0.0347757 
0.00797181 -0.0149081 0 
0.00268333 -0.00773935 0 
-0.0046882 0.0107044 0 
0.00391601 0.0286365 0.0165721 
0.000141569 -0.00030305 -0.000129835 
0.000239149 7.28903e-05 0.000950261 
-0.00095697 0.000852222 0.0517052 
-0.000605975 -0.00134553 0.0303134 
-0.0243791 -0.0228689 0.0257728 
0.00575481 0.0256131 0.029421 
-0.00404837 0.00895637 0.0784984 
-0.00934513 0.00526438 -0.00558292 
0.000863837 -0.00143697 -0.00358701 
-0.000986864 -0.00259485 0.0397646 
-0.000156755 0.00977127 0.0640524 
0.000467851 0.0133595 0.0285791 
-1.87997e-06 -6.95085e-05 0.0466758 
-0.00148379 0.00149612 0.0732937 
-0.000584945 0.000950651 0.0486675 
-0.000897971 0.000609458 0.0427835 
-0.000255105 0.000131087 0.0203423 
-0.000138311 0.000115799 0.0423253 
-0.000229463 -2.13581e-05 0.0023406 
-0.000104247 -0.000484497 0.0381096 
8.6724e-05 0.000268523 0.0732383 
-1.61978e-05 0.000433768 0.0791079 
-0.00174742 -0.00316608 0.0759792 
-0.000167501 -0.00194852 0.0823305 
0.000462311 -0.000320625 0.000743778 
-4.19787e-05 0.000217284 0.028869 
0.000115786 1.65059e-05 0.0249472 
2.34149e-05 0.000480992 0.035493 
-0.000262949 0.000190371 0.0604859 
0.00148529 0.00105495 0.0632282 
0.000399296 -4.58282e-05 0.0724868 
0.00157182 -0.000965672 0.0601845 
0.000312394 -0.000403096 3.18295e-05 
0.000418694 -9.31158e-05 0.00021385 
-0.000980832 0.000689922 0.0376941 
-0.000492206 0.000513053 0.0387978 
-8.23517e-05 -0.00310292 0.0610322 
0.000635233 0.00426505 0.080912 
-0.00146555 0.00648375 0.068669 
9.06586e-05 -0.00610755 0.0676939 
-0.00566162 0.00183947 -0.0121433 
0.00716431 -0.00543167 0.0314454 
-0.00633076 0.0012743 -0.00818319 
0.0235768 -0.0214823 0.0358422 
-0.000671129 -0.000209066 0.0773528 
0.00303707 -0.00163885 0.0718123 
0.000486034 -7.25057e-05 0.0828379 
0.000225561 0.00169156 0.0795869 
0.00538152 0.00749615 0.068646 
0.005851 0.00358501 0.059243 
0.0078806 -0.00189809 0.0712599 
0.0115361 0.00435133 0.0624961 
-0.000916719 -8.09086e-05 0.0012522 
0.00204819 0.00172489 0.0529205 
-0.00048214 1.33799e-05 0.0385842 
0.000234957 0.000215846 0.0352097 
0.00202919 0.006709 0.0690658 
0.000437711 -7.80536e-05 0.0543759 
0.000125467 0.000201698 0.0462481 
-0.00271011 0.00440886 0.0606232 
0.00418986 0.00108942 0.0757877 
0.00311608 0.000820509 0.0617004 
0.00678084 0.000892739 0.0690552 
0.00292555 -0.00102432 0.0669497 
0.000406986 -0.000516779 0.0274158 
-0.000885808 0.000673335 0.0476553 
0.000203285 2.92323e-06 0.045711 
-2.36587e-05 0.000617172 0.0365388 
0.000186685 0.00151095 0.0626646 
0.000171257 0.000271287 0.0398993 
0.00235394 0.000878411 0.0528277 
-0.00164169 0.00247959 0.0383967 
-0.0170143 -0.0709006 0.051911 
0.0114708 -0.0225895 0.116594 
-0.00877925 0.0379646 0.0979302 
-0.0121746 0.00885163 0.14441 
-0.00191679 -0.00209256 0.074915 
0.000315699 -0.033552 0.080568 
-0.00364965 -0.0178097 0.0753491 
0.00241258 -0.0201536 0.0597885 
-0.0081822 -0.00564873 0.0111673 
-0.00873501 0.0185554 0.07844 
-0.0433971 -0.0245196 0.0923862 
-0.0115756 -0.0204142 0.0110134 
-0.0206131 -0.00852282 0 
-0.00942958 -0.00918297 0 
0.0157607 0.00461117 0 
0.0463357 0.00345795 0.017817 
-0.00199694 -2.87045e-06 0.0536637 
0.000126208 0.000162494 0.0561822 
-0.00210999 -0.000891592 0.0739009 
-0.000567814 -0.000115445 0.0375906 
0.000139669 0.000586891 0.00157564 
-0.000306189 -0.00173591 0.0523385 
-0.000194529 -0.000246229 0.000736286 
0.000319123 0.000346791 0.0405017 
-0.00786431 -0.00880656 0.0546306 
0.00188156 -0.0144869 0.0597621 
0.00107621 -0.0251025 0.0607179 
-0.00118088 -0.00828675 0.0784367 
-0.0021063 -0.00261932 0.0758683 
0.000635661 -0.00347669 0.0751553 
-0.000854174 -0.00587427 0.0723079 
-0.00135918 -0.00800268 0.0692466 
-0.00416189 0.00333888 0.0797749 
0.00457382 -0.00454699 0.05891 
0.00252112 -0.00323934 0.0730994 
0.0035384 -0.00097769 0.0746576 
0.0208228 -0.0234946 -0.0356538 
-0.00832467 -0.0195348 0.0724673 
-0.0234887 -0.044799 0.032017 
-0.0218623 -0.0268767 0.15716 
8.31683e-05 0.00195796 0.0631784 
-0.00607649 -0.00342904 0.069895 
-0.0127735 -0.0118996 0.0729339 
0.00061494 -0.0109715 0.0670011 
0.000580599 0.00583688 0.0574767 
-0.00770183 -0.00242137 0.0738707 
0.00351024 -0.00105884 0.0457168 
0.000714785 0.00114701 0.0402049 
0.00152565 -0.000970569 0.077988 
-0.00493287 0.000850775 0.0692846 
-0.00137125 0.00114949 0.0626215 
-0.00529222 0.00433803 0.070141 
-0.00583427 -0.00119669 -0.00265942 
-0.0510246 -0.0138479 0.0789608 
-0.0132515 0.0170133 0.0459385 
-0.00617277 0.00685881 0.0162481 
0.00164427 -0.00210645 0.0585466 
0.000398633 -0.00325462 0.072516 
0.000648187 -0.00041069 0.0485041 
0.000661287 -0.00367723 0.0660744 
-0.00204036 -0.00387884 -0.00343668 
-0.00093694 0.000673422 0.0364831 
0.000196312 -0.0118949 0.0303836 
0.000176809 -0.00159296 0.0542387 
-0.000138614 -7.30578e-05 0.0574602 
-4.00768e-05 -0.00164319 0.0517152 
-0.00026247 -0.00238653 0.0737627 
-0.000364797 -0.00219375 0.0662127 
0.0159382 -0.00875574 0 
0.0144738 0.0294009 0 
-0.0152226 -0.0378658 0 
-0.00679953 0.0506088 0.0408077 
0.00380352 -0.00267916 0.0700443 
-8.9434e-05 0.000614378 0.0413258 
0.000431045 -0.00110928 0.0467966 
0.00257229 0.000986434 0.0612427 
0.000271892 0.000860784 0.000979489 
0.000207634 -0.00081357 0.0401206 
-4.67671e-05 -0.00127661 0.052165 
0.00016455 -5.82447e-05 0.0367026 
-0.00249051 0.00437455 0.0709805 
0.0017018 -0.00498707 0.0870058 
-0.0038489 0.00262868 0.0801459 
0.00154692 -0.00682699 0.0754954 
-0.00209109 0.0447628 0.0718748 
0.0453229 0.0190864 0.0739555 
-0.0019297 0.012965 0.0839388 
-0.0572808 0.00926752 0.0236971 
0.00161618 -0.0088587 0.0540095 
-0.014898 0.00437619 0.0656147 
-0.0107527 -0.00871313 0.0997222 
0.00936264 -0.0126292 0.0744111 
-0.0377508 -0.0536538 0.0708271 
-0.00238701 0.0621478 0.0622577 
-0.0416641 0.0625467 0.140344 
-0.0351535 0.0226352 0.167559 
0.0396491 0.0183407 0 
-0.0049901 0.0112787 0 
-0.0322804 -0.0185838 0 
-0.00844893 -0.0473377 0.0751246 
-0.000406976 0.0475608 0.0213583 
0.00646094 0.027025 0.0655752 
-0.00541204 -0.0101276 0.0113142 
0.0148705 0.0195884 0.0386646 
-0.000402773 -3.65055e-05 0.0391769 
0.000845082 0.000247402 0.0337611 
0.00093985 -0.00049725 0.0475867 
-1.21416e-05 0.000668141 0.0345286 
-0.000138159 0.000487045 0.0532784 
-0.00116952 0.00224432 0.0706022 
-0.00505714 0.00422821 0.0683711 
-0.0054709 0.00206653 0.0682539 
0.020553 0.0548185 0.146336 
-0.0153778 -0.00653444 0.254172 
-0.0315696 0.0348653 0.191095 
0.0228949 0.0642644 -0.030826 
9.70806e-05 -4.37634e-05 0.0719881 
-0.000859093 -0.00240641 0.0660627 
-0.00168051 -0.00288344 0.0774898 
-0.00136194 -0.0015373 0.0638046 
-0.0041384 -0.00344618 0 
0.000215526 0.000674043 0 
0.00144444 0.0054243 0 
-0.00989285 -0.0184904 0.0130704 
0.00965412 0.00234556 0 
-0.0132694 0.000847239 0 
-0.00747218 0.0044216 0 
0.00755169 -0.00707356 0.00145126 
-0.000549938 -8.33949e-05 -0.00036096 
-0.00157298 0.00220891 0.0413899 
0.000983244 0.00118579 -0.00243512 
0.000633115 0.00138484 0.0397273 
0.0126817 0.00500875 -0.0253038 
-0.0655797 -0.0255514 0.0753619 
0.00154826 0.000325161 -0.00300425 
0.00508273 -0.020877 0.0433152 
-0.00715528 0.0293533 0.266448 
0.0165724 0.0168154 0.302628 
-0.0464696 0.019064 0.11793 
0.0748311 0.0173077 0.0921908 
0.00214525 0.00152444 0.0617043 
0.000703448 0.00224414 0.0522162 
-0.0012842 -9.35658e-05 0.040979 
0.0045657 0.00304817 0.0690569 
0.00218193 -0.00239649 0.0729171 
-0.000533192 -0.00370871 0.0730077 
0.00414358 -0.00417207 0.058542 
-0.00192902 -0.000236723 0.0702668 
4.75859e-05 -0.000130618 0.0458484 
-8.94137e-05 0.000561162 0.0366077 
-0.000779839 0.000797632 0.0484971 
-0.000772034 0.0016317 0.0704249 
0.00320265 0.00181529 0.0758569 
0.00185141 0.00115011 0.0641351 
0.0022992 -0.00124078 0.0737296 
0.00135634 0.000161043 0.0794359 
0.000722501 0.0024372 0.0720329 
0.000154284 0.0019495 0.0698186 
-0.00076957 0.00344481 0.0766761 
-0.000136538 0.00408254 0.0679969 
0.000199036 0.00023381 0.0568862 
-0.00208814 0.000173648 0.0545158 
-0.00238433 -0.000945644 0.0726485 
-0.00178964 -0.000246013 0.0650239 
0.00010304 -6.36166e-05 0.0856773 
-0.000974136 -0.000254607 0.0816029 
0.00049018 -0.000132206 0.0830558 
-0.00144151 0.0012128 0.0804027 
-9.99988e-05 9.21966e-05 0.0270825 
0.000271796 -0.0002119 0.00136721 
-0.000259988 0.000605602 0.0413563 
0.0004521 -0.000432325 0.035882 
-0.000344446 0.000416902 0.0489613 
-0.000950873 0.00223327 0.0565711 
0.00141952 0.00220057 0.0395997 
-0.00119361 0.00225919 0.0655918 
0.000192007 -0.000153191 0.00264774 
0.000109002 9.55843e-05 0.055672 
-0.00029631 4.44056e-05 0.00144527 
-0.000947798 -0.00101529 0.0387181 
6.98097e-05 0.000212588 0.00162727 
0.000769477 0.000385366 0.00185189 
-0.000984158 -0.000230462 0.0534601 
-0.00100563 -9.88754e-05 0.0437335 
-0.000125832 3.11783e-05 0.00144857 
-0.00032993 0.000129641 0.0556235 
0.000167174 -0.000151264 0.00242426 
-0.000818287 0.000806571 0.0366442 
0.00140664 -0.00325624 0.0766452 
-9.69942e-05 -0.00173698 0.0811468 
0.000272344 -0.00480788 0.0738386 
-0.000771703 -0.00205957 0.0797937 
0.000965123 -0.000653423 0.00127997 
-0.00199535 -0.00045339 0.0549982 
0.00105244 -4.86369e-05 0.000649328 
-0.00121608 0.000292984 0.038822 
-0.060852 0.0433646 0.0520963 
-0.0191685 0.0252396 0.0790247 
-0.00139981 0.0132103 0.0955655 
-0.016513 -0.00172598 0.00457115 
-0.00758556 0.00470918 0.0426298 
0.00918812 0.00701363 0.0603845 
0.0363299 -0.0185862 0.098371 
0.042146 -0.00133484 0.0430709 
0.000488894 0.00252063 0.0720371 
2.68114e-05 0.00119708 0.0598087 
-0.000131718 0.00206374 0.0698499 
0.000169227 0.00386339 0.0677532 
0.0278313 0.0420247 0.0307864 
0.0233348 0.00503695 0.0503102 
0.0368731 0.0192658 0.0793548 
0.000428826 0.0115327 0.0190524 
-0.000764908 0.00329604 0.0766652 
-0.000737078 0.00236093 0.0692715 
2.11875e-05 -0.000286125 0.0805713 
-0.000991799 0.00129706 0.0806024 
-5.38828e-05 -0.000163249 0.0651503 
0.000899905 -0.00106841 0.0738712 
-0.000256145 7.28385e-06 0.0463655 
0.000557288 -0.000676453 0.0374648 
-0.00400179 -0.0052542 0.0401969 
0.00437676 0.00403121 0.0665341 
0.00163549 0.00554246 0.0634768 
-0.000867619 0.00657166 0.0651479 
0.009845 -0.0227307 0.141868 
0.00213792 -0.00897756 0.238292 
4.3367e-05 -0.00438839 0.221019 
0.0331671 0.071638 0.241646 
0.00433189 0.01304 0.0780065 
-0.00999864 0.0343151 0.132728 
-0.0139737 0.0362994 0.114406 
-0.0494804 0.0192706 -0.0209362 
-0.00068799 -0.00073264 -0.0018902 
-0.00241199 -9.94234e-05 0.0418376 
0.000152048 0.000175182 0.000800841 
-0.000830161 -0.000757607 0.0529277 
0.00533173 -0.0163081 0.0838447 
-0.0119438 -0.00169397 0.0687702 
0.0117187 0.00376675 0.0466501 
-0.00866531 -0.0113861 0.0741398 
-0.00212789 0.00182058 -0.000734181 
0.00936658 -0.00441306 0.0297887 
-0.003751 0.000727329 -0.00142595 
0.00724017 -0.0033353 0.0345397 
0.000599826 0.000681843 -0.000581515 
-0.00201919 -0.000871768 0.0445358 
-0.000300796 -0.000334918 0.000296272 
-0.000338729 -1.40975e-05 0.0397521 
-0.000762767 -0.0015276 0.0482593 
0.00225524 -0.00350097 0.0736008 
0.001763 -0.00194386 0.0585367 
-0.0011474 0.00123545 0.0370384 
0.00209108 -0.000829544 -0.0105666 
-0.0117925 -0.00027218 0.0303296 
0.00209604 -0.000481356 -0.00274856 
-0.0102109 -0.00312459 0.0253298 
0.0289447 0.0209786 -0.000522431 
-0.00537457 -0.00733979 -0.0110123 
0.0191847 0.0206804 0.0644184 
-0.0101269 0.000815405 0.0217671 
-0.00123494 0.00207869 0.0712381 
-0.00564664 0.003894 0.0738409 
-0.00116068 0.00314031 0.076502 
-0.000927985 0.0049282 0.0655418 
0.000313702 -0.00327709 0.0743674 
-0.000473054 -0.00203763 0.0520863 
0.000556746 -0.00567748 0.0685219 
-0.00549637 0.000570164 0.0484081 
0.000368109 0.000134484 0.0370049 
-0.00074358 0.000311955 0.0372342 
-5.04971e-05 0.00121043 0.0447615 
0.000639433 0.00153997 0.0600644 
-0.000862184 -0.00731031 0.0582379 
-0.0016256 -0.0149218 0.0304432 
-0.0010078 -0.0037637 -0.00541307 
0.00108208 0.00303891 0.0352167 
-0.000363563 -0.00054319 0.0559217 
-6.3999e-05 -0.00104366 0.0495151 
-0.000133494 -3.7399e-05 0.0411553 
0.000392229 -0.000475447 0.0357583 
0.00584587 -0.00893035 -0.00645166 
0.0144126 -0.00104044 0.0485149 
-0.000181415 0.0466043 -0.0128071 
0.0142937 0.026246 0.0669958 
0.00749917 0.0440641 0.161607 
0.0141159 0.00693681 0.234985 
0.00820176 0.00858207 0.244463 
-0.014381 -0.0126354 0.226091 
-0.00095497 -0.00137087 -0.000867557 
-0.00183319 -0.0012472 0.0572003 
0.00043129 -0.000363403 0.00037729 
-0.00338387 0.00122123 0.0420925 
0.00260742 0.00677336 0.0687825 
-0.000964189 -0.000362803 0.0470389 
0.000586389 0.00429542 0.0688515 
-0.00195227 0.00382903 0.0606367 
0.000792776 0.00371918 0.0779747 
-0.0117596 -0.0148791 0.0498345 
-0.0145751 0.0104679 0.0882721 
-0.00637913 0.000764394 0.0458577 
0.00033917 0.00661223 0.071773 
-0.00214546 0.0138473 0.0371013 
0.00119997 -0.00133565 0.0275557 
-0.00499843 0.00172669 0.0469782 
0.000118308 -1.92992e-06 0.0455571 
0.000318143 0.000309408 0.0410637 
0.00110261 -0.000115796 0.0507922 
0.000347542 -0.000192904 0.0359078 
-0.00187456 -0.0012749 0.050288 
0.000883675 0.000223103 0.0430544 
0.00100796 0.000552775 0.00114921 
7.33986e-05 -0.00071126 0.0374562 
-0.000602075 0.00457008 0.0746219 
-0.00331015 0.0091632 0.0759847 
0.00211411 0.00428102 0.0500399 
0.000696673 -0.0153506 0.0535277 
0.0181814 -0.0596158 0.0948886 
-0.0156079 0.0305514 0.129089 
0.0193224 -0.0175551 0.257337 
0.032075 0.0325919 0.117531 
0.00843976 0.0330059 0.0885164 
0.00904222 0.0234365 0.0844128 
0.0209427 -0.000548655 0.00883892 
0.0168656 0.00846727 0.0623866 
-0.000161374 -0.000270383 0.00103672 
-7.39879e-06 0.000394098 0.0364841 
-0.000814062 0.000486517 0.0374389 
0.000592422 0.00109421 0.0372775 
-0.00734261 -0.000710334 0.0318319 
-0.00142042 0.000784651 0.0398978 
-0.00619033 0.0118779 0.0699721 
-0.00845469 0.0119575 0.0251159 
-0.00170427 -0.00313756 0.0759781 
-0.000900151 -0.002668 0.0668528 
0.000128314 0.000243246 0.0730746 
-0.000380567 -0.00208625 0.0823454 
-0.00258455 -0.00140722 0.0785861 
0.000641056 0.00210524 0.0631572 
-0.00519454 0.000227652 0.0686578 
0.00348319 -0.00195798 0.07134 
0.010298 0.0214065 0.22617 
-0.0461152 -0.0169087 0.148795 
0.0516305 0.0551226 0.0530294 
0.0375518 0.00699417 0.141827 
-0.00125344 -0.00670106 -0.00412106 
-0.00446613 -0.0028651 -0.00837255 
-0.0291093 0.000891513 0.0397412 
0.0244534 0.0031116 0.031792 
-0.0192078 0.0456415 -0.00771429 
-0.0215608 0.0144699 -0.0346008 
0.0176745 0.0189662 0.0840654 
0.00934128 0.00868137 0.0782238 
-0.000757554 -0.00799776 0.0722708 
0.000869884 -0.00104748 0.0615706 
-0.0008023 -0.00497456 0.064354 
0.00511666 -0.00195571 0.0577394 
-0.0202593 0.00356802 -0.0277383 
-0.0145882 0.00979794 0.0873668 
-0.0109773 -0.00834709 0.057373 
-0.00681162 0.00145137 0.0476641 
0.00199381 -0.00247403 0.0591497 
0.000968388 -0.00432773 0.0670116 
-0.000931983 0.00175559 0.0398372 
-0.000286503 -0.00368422 0.0636462 
0.000133182 0.000185377 0.000498995 
-0.00041039 -0.000566189 -0.000343411 
0.000152405 0.00020929 -0.000103263 
-0.0025573 -0.00126277 0.0569388 
0.00911747 -0.0251139 0.0855495 
-0.0147539 -0.00941477 0.117326 
-0.0116966 -0.0025708 0.0650859 
0.00794575 -0.00628866 0.0297041 
-0.00223995 -0.00397459 0.0760505 
0.00102595 -0.00291607 0.0725498 
-0.000611526 -0.0017159 0.0670936 
-0.000750844 -0.0029901 0.0822139 
0.0044265 -0.00278156 0.0696015 
0.00332033 -0.000312563 0.0597497 
-0.000707428 0.000493644 0.048763 
0.0037341 -0.00131621 0.0671823 
0.00145932 -0.000680207 0.0517646 
0.000735504 -0.000590309 0.0483018 
0.000604605 -1.72719e-06 0.0340136 
0.000304601 0.000987226 0.0341579 
0.000420785 5.98163e-05 0.00168601 
-8.96325e-05 -0.00119529 0.0390747 
-0.000557682 1.18997e-05 0.0554721 
-0.000679819 0.00115932 0.0368758 
0.0348178 -0.045296 0.13236 
0.00877375 -0.00191044 0.253162 
0.0111463 0.0568587 0.203851 
0.0271707 -0.073707 -0.0584747 
8.27939e-05 -8.58562e-05 0.0277284 
0.00012869 -5.32336e-05 0.0276585 
1.0824e-05 0.000313499 0.0458695 
0.000104199 2.49659e-05 0.0360736 
-0.00511138 0.00630735 -0.0141938 
-0.0220939 -0.00285428 0.0549921 
-0.00411966 -0.0237742 0.0221537 
-0.0353049 0.0101058 0.0494108 
0.000186686 -0.00011103 0.000263431 
1.30516e-06 -4.26335e-06 0.000189305 
-4.81735e-05 2.74518e-05 -3.52257e-06 
-0.000133864 -0.000205434 0.0378337 
0.000571583 3.5333e-05 0.000197231 
-0.00170499 0.000269687 0.0391228 
-0.000364502 0.000102889 0.00109638 
0.000822884 -0.000179702 0.0352047 
-0.000452522 0.00279723 -0.00807797 
-0.0258576 -0.00197178 0.0435531 
0.00502145 0.00100137 -0.00472271 
-0.00785185 -0.00308125 0.0458818 
0.00133779 -0.00151651 0.0589687 
0.000264625 -0.000687941 0.0405456 
0.000536736 -0.0007879 0.048011 
-0.000873473 -0.000585004 0.0359504 
0.00123042 -0.00387184 0.0605579 
-4.84857e-06 0.00166291 0.0387825 
0.00190988 -0.000408328 0.0376464 
-0.00125711 -0.00147451 0.0639769 
-0.00045269 -0.000468953 0.0011023 
-0.000307264 0.000316118 0.032959 
8.3039e-05 0.000286303 0.0240798 
0.000160208 0.000395386 0.038712 
0.0400491 -0.0410819 0.187758 
0.00566777 -0.0737637 0.0520211 
0.025393 -0.00543315 0.270223 
0.0373802 0.0526082 0.114619 
0.0275581 -0.0104252 -0.00258271 
0.0120755 0.0106151 -0.0220922 
0.0165185 0.0129448 0.075944 
0.0180706 -0.0204888 0.0412313 
-0.00134458 -0.000871594 0.0475677 
-0.00353181 -0.00111112 0.0744949 
-0.000111152 0.00110034 0.0411224 
-0.00224379 -0.00220479 0.061034 
6.2151e-05 0.00021631 0.0803257 
8.0533e-05 0.00012985 0.0725995 
-0.000130098 -0.000175743 0.0695486 
-0.000785219 0.00191187 0.0690471 
0.0177683 0.0180648 -0.00726371 
0.00292448 -0.0159429 0.0362397 
-0.00470766 -0.0021016 0.0875686 
-0.028355 -0.0429157 0.0663381 
0.000774263 -0.00228436 0.0540051 
0.00539237 -0.0077371 0.0707159 
0.00255217 -0.00137318 0.0677334 
0.00114824 -0.00205084 0.0573813 
-0.012336 0.0210439 0.0765202 
-0.00599804 0.0237409 0.0293512 
0.00783563 0.00556187 -0.00510718 
-0.00335624 -0.0118621 -0.00294614 
0.00134313 -0.00401159 0.0770369 
0.00532967 -0.00768301 0.0695912 
0.00315911 -0.00194857 0.0700002 
0.00258133 -0.00761524 0.0701273 
-0.000599884 -0.0417238 0.0875803 
-0.00721321 -0.0138518 0.00582554 
0.00625242 -0.0233988 0.0786709 
-0.00101336 -0.0183755 0.0587703 
-0.000101881 -0.000135266 0.000528983 
-0.000104163 -2.25308e-05 0.0242607 
5.99197e-05 -0.000315894 0.000508894 
2.57721e-05 9.91995e-05 0.0491792 
0.00430872 -0.00142388 0.000735106 
-0.00892755 0.00859077 0.020023 
-0.00302497 0.00276411 0.038318 
-0.00383019 0.00246606 0.00921714 
0.00102377 0.000408533 0.00244639 
0.000594385 0.000844009 0.0356776 
0.000108069 -0.000420987 0.0520953 
0.000277753 -0.000307197 0.0326853 
-0.0012099 -0.00121361 -0.00714977 
0.00730396 0.0109271 0.0422469 
0.00093178 0.0135175 0.0644891 
0.006197 -0.00243711 0.0539765 
0.000339919 0.000654091 0.000470022 
-7.50308e-05 -0.000165559 0.000463231 
-0.000643195 0.000780982 0.0382472 
0.000508518 -0.000664966 0.0361106 
-0.000697424 0.00165052 0.0487225 
0.00149379 0.000381893 0.0396375 
-0.000212135 0.00016781 0.0498496 
-0.00154419 0.00324708 0.0653527 
-0.000674223 -0.000904743 0.0541897 
2.4266e-05 -0.000485294 0.0398295 
-0.000170125 0.000303549 0.00191466 
0.000115613 -0.000280225 0.0362606 
0.00054586 -0.000238359 0.000995816 
-0.000925471 0.000915589 0.0474667 
-0.0002601 -0.000213949 0.000770712 
-0.0019519 0.000647887 0.041488 
0.0115162 -0.00842796 -0.0261474 
-0.0111332 -0.0139063 0.0526341 
-0.000347225 0.00507762 0.0182333 
-0.0374353 -0.0235115 0.065614 
-0.00685249 -0.0152392 0.062362 
-0.0131798 -0.0236399 0.0362854 
-0.00223143 -0.00444541 -0.0133895 
0.00706672 -0.013702 0.0309737 
-0.000966003 0.00379653 0.244137 
-0.0227821 -0.0259789 0.200864 
-0.010137 0.031221 0.210667 
-0.0298236 0.0181377 0.174265 
0.00573376 0.0141954 0.0673347 
-0.0233409 -0.00898055 0.0379502 
0.00741073 0.00696965 0.0729067 
0.0012663 -0.0012603 0.061909 
0.0087306 -0.00624432 -0.0256064 
0.00503514 0.00583971 -0.00105813 
-0.0648862 0.00166409 0.0861563 
-0.00656571 0.0221903 0.0349266 
0.00460194 -0.00638382 0.0612369 
-0.000732724 -0.00257382 0.0716535 
0.00285712 -0.00143076 0.072443 
0.00167026 -0.0107548 0.0682828 
-0.000661299 0.000603798 0.0491319 
-0.000486557 0.00211504 0.0564786 
-0.000308793 0.00016066 0.0357916 
0.000957701 0.0011576 0.0385172 
0.0102395 0.00145968 0.243094 
0.0299591 -0.00930322 0.29236 
0.00396605 -0.00494072 0.225906 
-0.0756257 0.0750161 0.14184 
-0.0581734 0.0329963 0.1558 
-0.0198133 0.030164 0.282579 
-0.0785001 0.000814746 0.0067555 
0.0624973 0.0426298 0.152895 
0.00123099 0.00260674 -0.00373737 
-0.00866156 -0.00698724 0.0265133 
-0.0113903 -0.0027268 0.0311482 
-0.00211078 -0.00122499 0.0313634 
0.0096045 -0.00225984 0.0774406 
0.025725 -0.0131127 -0.00498003 
0.0119917 0.00306507 0.148339 
0.00421293 -0.0109089 0.0396595 
-9.36009e-07 0.0128377 0.0623599 
0.00751251 0.000902641 0.0443531 
-0.0126118 -0.00289159 0.0767887 
-0.00841723 -0.0109353 0.0710935 
-0.00445865 0.00413461 0.0668434 
-0.00555148 0.00472643 0.0734853 
-0.00140113 0.00256659 0.0704868 
-0.00109362 0.00392786 0.0658437 
0.0137317 0.0259765 0.101239 
0.0258262 0.00621235 0.0035403 
0.0583479 0.029715 0.0829023 
0.0196619 0.0174035 0.101001 
0.00210376 -0.000953325 0.0016215 
-0.00079819 0.00359368 0.0317596 
-0.000758715 -0.00226333 -0.000472789 
-0.00587019 0.00193227 0.0142436 
-0.00225059 -0.00510451 0.0750756 
0.00468051 -0.0264027 0.0692832 
0.00169743 -0.0166984 0.0629556 
-0.00420675 -0.00640133 0.0699805 
0.00166329 -0.00165497 0.000393541 
-0.0219854 0.00488651 0.0342868 
-0.000152261 -0.00276977 -0.00338609 
-0.00541891 -0.0051355 0.00442981 
0.000131875 -0.00208029 0.0576358 
0.00516694 -0.00569174 0.0713851 
0.000242099 -0.00414003 0.0663134 
0.00165591 -0.00407664 0.0651677 
0.00135407 -0.000219631 0.0525825 
0.000858627 0.000377877 0.0352593 
-0.000750455 0.000326171 0.00196224 
0.000197259 0.000162778 0.0321978 
0.000361442 9.70973e-05 0.000921537 
0.00112782 0.000311187 0.0419934 
-0.00199978 -0.00129261 0.0512073 
-8.01882e-05 0.000948173 0.0390989 
0.000513693 0.000383419 0.00142778 
3.26414e-06 0.000163896 0.00119909 
-0.0012937 -0.000958636 0.049878 
0.000185494 -0.000793543 0.0374782 
0.000387939 -0.00519057 0.0736193 
-0.000179641 -0.00169925 0.08147 
-0.00171376 -0.0030052 0.0754283 
-0.000768244 -0.00185643 0.0796357 
-0.000536635 0.0120979 0 
-0.00349408 -0.0157924 0 
-0.00124354 0.00733748 0 
-0.00157769 0.0593851 0.0465301 
-0.0207562 0.0389818 0.00399377 
0.0184534 0.0185507 0.0613699 
-1.05488e-05 0.0204158 0.0788585 
0.020912 -0.0212788 0.0548558 
-0.00170426 0.000672937 0.0541775 
-0.0049843 -0.00111737 0.0733555 
-0.00071142 -0.00139183 0.0496689 
0.00141573 1.9505e-05 0.0379523 
0.00618757 -0.00245048 0.0680478 
0.0036739 -0.0070383 0.0691366 
0.00582321 -0.00451163 0.0700947 
0.00293983 -0.00281471 0.0717554 
-0.042133 0.0319587 0.075567 
-0.0201302 0.0633779 0.110197 
-0.0335114 -0.00337808 0.168709 
0.000276648 0.00941651 -0.0640176 
-0.00775407 -0.00175162 0.0676575 
-0.00813197 0.000250637 0.0720005 
0.00548743 -0.00346996 0.042573 
-0.00575192 0.00304485 0.0673033 
-0.000955797 0.000180994 0.00140046 
-0.000933571 -0.000348352 0.00133217 
0.00105009 -0.000198896 0.0518633 
0.000944751 -0.000441117 0.03747 
-0.000630219 -0.0436382 0.0197686 
1.58327e-05 0.0118619 0.0212772 
-0.00446312 -0.0614679 0.0761723 
0.00876611 -0.00545886 0.021549 
-0.000692771 0.00035019 -0.00561418 
-0.00149767 -0.00200468 0.0433919 
0.0104275 0.00891544 0.0318443 
0.00558323 0.00378485 0.0508929 
-0.00790845 0.00158574 -0.0154762 
0.0297062 0.0019292 -0.00218366 
0.0101995 -0.0475606 0.0745929 
0.0108677 -0.00789388 0.0428973 
-0.0267706 -0.014121 0.101446 
0.01024 0.023492 0.161397 
0.0147606 -0.041735 0.225767 
0.040005 -0.0404132 0.0231714 
0.000239432 -5.75089e-05 0.0619012 
-0.00114963 0.00160032 0.0502601 
-0.00165773 0.00182916 0.071365 
-0.000920677 0.00166263 0.0686202 
0.000354252 -2.97208e-06 0.0404085 
-0.000236023 -0.000712205 0.0343496 
0.00111882 -0.00261359 0.0593758 
0.000728762 0.000167018 0.0367797 
0.00478289 -0.0140868 0 
0.0440364 0.0296564 0 
-0.0459323 -0.0297386 0 
0.061558 0.0520235 0.0770222 
-8.58828e-06 0.000104691 -0.000285454 
5.67219e-06 -6.91438e-05 0.000595678 
2.07668e-06 -2.53146e-05 0.00103863 
-0.000318032 0.000424937 0.0378087 
-2.77805e-05 -0.000136496 0.0561237 
-0.000107801 -0.000160036 0.0580393 
-0.000146342 0.000134284 0.0416651 
-3.00734e-05 -0.0013288 0.0486339 
-0.00161007 0.000653721 0.0454057 
-0.00124834 -0.000174903 0.0508881 
0.00022157 0.00160164 0.0460525 
-0.000400053 -0.00235667 0.0328131 
-0.00195777 0.000787176 0.0450811 
-0.000266798 -0.000331632 0.037795 
0.000221066 0.00187906 0.0557163 
-0.000220759 0.00294354 0.0615715 
-3.18901e-05 -8.52239e-05 0.064594 
-0.00115373 0.00160921 0.0719321 
0.000144838 -0.000509402 0.0482785 
-0.00101493 0.000732533 0.0596488 
-0.0403823 -0.0139372 0.0982718 
-0.0172266 0.00652445 0.00721415 
-0.0189043 -0.00104824 0.0525807 
-0.0135336 0.00541187 0.0615574 
-8.73966e-07 -0.000382284 0.00101313 
2.99671e-05 -0.00022934 -9.86126e-05 
-0.000983613 0.000965192 0.0438853 
-0.000225522 0.000457634 0.0445889 
-0.00265381 0.0100022 -0.023464 
0.00235724 -0.0589761 0.0823578 
0.00312489 3.54555e-05 0.00114553 
0.0171862 -0.00342306 0.0370629 
-0.00051277 0.000228716 -0.00167843 
0.00011391 -4.86793e-05 0.000800183 
0.000627186 -0.0002864 0.000718418 
-0.000941424 -0.00144605 0.0530357 
0.000430775 -6.82419e-05 0.0829152 
0.00048374 0.0010836 0.0807163 
1.13544e-05 0.000107579 0.085097 
-0.00134656 0.00107017 0.0808299 
-0.000265434 8.50267e-05 0.0274915 
7.76728e-05 0.000797562 0.0404538 
0.000329704 2.66604e-05 0.0463804 
0.000486614 -0.000918168 0.0359826 
-0.000560438 0.00278314 -0.000831077 
-0.00229223 0.000726441 -0.00266969 
0.000197392 -0.000824665 0.0014622 
0.010635 0.00326749 0.0132477 
-0.00675684 -0.00101244 -0.0055058 
-0.00491291 0.0154419 0.0357983 
0.00553904 -0.00558603 -0.0120571 
0.00566094 -0.00367708 0.0189317 
0.0013467 0.000950287 0.0547555 
-0.00108143 -0.0012735 0.0345614 
0.00357797 0.00915054 0.0665475 
0.00360694 0.00318932 0.0303284 
0.0252817 -0.0180395 0.100155 
-0.0164156 -0.0197152 0.0649852 
0.00233614 0.00283252 0.038432 
0.0117344 -0.000962998 0.0536712 
0.00212839 -0.00844842 0.055507 
-0.00278275 0.00893224 0.0732611 
-0.001531 0.00917019 0.0457595 
0.00344969 -0.0204398 0.0555944 
-0.000627898 0.00301742 0.0766217 
-4.31878e-05 -5.35137e-05 0.0799996 
-0.000766378 0.00234945 0.0696946 
0.000231856 0.0012943 0.0812188 
0.00687865 -0.00409381 0.0553629 
0.00270805 -0.0313146 0.0653473 
0.00315388 -0.00650045 0.0282225 
-0.00231824 -0.0146819 0.0607958 
-0.000171806 0.000838541 0.0437964 
0.0041422 0.0214538 0.0404163 
-0.00246275 -0.00522163 -0.00307183 
-0.00138388 0.0142268 0.0334025 
-0.00792711 -0.000405665 0.0697061 
-0.00224903 -0.0019256 0.0700449 
0.000487084 -0.000870948 0.0560533 
-0.0064113 0.00107908 0.0695539 
0.00214947 0.00142502 0.0446331 
0.00258469 -0.000295654 0.0463132 
0.00198044 0.00082494 -0.00226353 
-0.000453006 -0.00103152 0.0385542 
-0.0107122 0.00467635 -0.00955827 
-0.0109857 -0.00475088 0.0633972 
-0.00154886 -0.00360983 0.0430072 
-0.00783433 0.00277199 0.0305866 
0.000168986 6.48118e-05 0.00107882 
-0.00122467 -0.000780684 0.0506205 
5.582e-05 0.000181023 0.00106696 
-0.000381362 0.000283007 0.03927 
-0.00236419 0.00123141 -0.00192576 
0.0106819 0.00124688 0.0281325 
0.00109171 0.000687953 0.0421199 
0.00151031 0.00493543 0.0313079 
-0.00119864 -0.00218055 0.0544231 
-0.000419025 0.000757416 0.0402049 
-9.70542e-05 0.00107998 0.00165153 
-1.20453e-05 -0.000139485 0.0396784 
-0.000150745 -5.5824e-05 0.072768 
-0.000716736 -0.00252377 0.0672483 
0.000464112 -0.00266479 0.072457 
-0.000553459 -0.00225115 0.0820799 
-0.000320144 -4.84184e-05 0.0749413 
-0.00139904 0.00192233 0.0705995 
-0.00248646 0.000339413 0.0661086 
-0.00127979 0.00119427 0.0806474 
-0.0164883 -0.0236889 0.0333723 
-0.00169343 0.0448899 0.0206784 
-0.00293267 0.0152977 -0.023927 
-0.0622857 -0.0542632 0.124406 
-0.000518372 0.000581803 0.00117551 
-0.000306129 0.000294341 -8.84724e-06 
0.000713019 -0.000380825 0.0415727 
0.00105761 -0.000395859 0.0324702 
-0.00140392 -0.000839027 0.000283037 
-0.0061733 -0.00207641 0.0365237 
-0.000771483 -0.00172572 -0.00501849 
-0.00149946 0.00350664 0.0381501 
0.000175224 0.00066972 0.0397384 
-0.00051452 0.00128466 0.0370466 
-0.000282481 0.000135824 0.000994829 
0.000422637 0.00013232 0.0340427 
-2.74136e-05 4.18355e-06 0.0465031 
0.000330813 2.88008e-05 0.0350524 
0.00121171 -0.000327682 0.0509882 
0.00120568 -0.000417531 0.0597936 
-0.00468396 0.00156417 0.0660556 
0.000908377 0.00360913 0.0461975 
-0.00243889 -0.00754548 0.0707492 
-0.0011295 -0.00551963 0.0635227 
0.00111222 -5.94996e-05 9.05623e-05 
-0.00092689 -0.0136987 0.0246888 
-0.000224512 0.00546753 -0.00126622 
-0.00245253 -0.00466872 0.0523954 
-0.00945391 -0.00193567 0.00434604 
0.00732745 -0.0163691 0.0193302 
-0.0111153 -0.00739213 0.0675474 
-0.00888206 -0.00450372 0.0241062 
-0.000797904 0.00102617 0.0454728 
-0.00181043 0.00102222 0.0443451 
0.00033903 0.00187759 0.0565486 
-0.000208277 0.00304729 0.0608807 
-0.0286368 -0.0197425 0 
0.0249197 0.00176683 0 
-0.0282774 0.00553289 0 
-0.0435357 -0.0393667 0.122587 
-0.000798933 0.00393745 0.0768923 
-0.000961522 0.00486508 0.0682793 
-0.00119822 0.00882421 0.0694363 
-0.00459339 0.0033884 0.0713437 
0.000727136 -0.00110798 -0.00110188 
0.000815644 -0.00151304 0.0356164 
-0.00313764 0.0122496 0.035923 
-0.00386467 0.00325921 0.0426685 
0.0209602 -0.0720112 0.097799 
-0.062109 0.0231124 0.0342919 
0.0141394 -0.0540242 0.158711 
0.0109111 -0.016774 0.00763307 
0.0141564 0.0605123 0.0845664 
0.0107614 0.0695256 0.142897 
0.000293205 0.0230576 0.0454163 
0.0252785 0.0118396 0.00977048 
-0.0336383 0.042078 0.114086 
-0.0518765 0.00882859 0.109768 
-0.00925943 0.0127204 -0.0208083 
-0.00706292 0.0150377 0.226959 
0.00147062 -0.00395021 0.0816517 
-0.00806136 -0.00608898 0.0645069 
-0.0103772 -0.010016 0.0727115 
-0.00242982 -0.00241166 0.0586495 
-0.0393116 0.0480672 0.0317121 
-0.000177994 0.0135707 0.0540083 
-0.0184482 0.00447425 0.0646517 
0.0166247 -0.0123107 0.00614722 
1.75636e-05 -2.04852e-06 0.000617923 
-0.000462968 0.000360937 0.0373432 
-3.58925e-05 -1.49101e-05 0.00125348 
-8.5563e-05 0.000447416 0.0365265 
-0.0016477 -0.00821559 -0.00868479 
-0.00436878 -0.00232988 0.0409208 
-0.00197503 0.000199554 -0.00203692 
-0.0197988 -0.000729588 0.0568333 
0.000602105 0.000225455 0.057472 
-0.00226072 -0.00146381 0.0726394 
-9.99354e-05 0.000463811 0.06853 
-0.00197733 0.000546752 0.06504 
-6.4853e-05 -0.000664074 0.00188299 
0.000418495 -0.000295065 0.0372225 
7.17156e-05 0.00033069 0.0513757 
-5.69378e-05 -8.12801e-05 0.0319456 
-0.0252849 -0.00969326 0.00138008 
-0.0216629 0.00588925 0.0787376 
0.00223325 -0.0347321 -0.0256159 
0.0260447 0.0104753 0.064415 
-0.000991337 0.000903247 0.0495801 
-0.000973779 0.0007867 0.0430712 
0.000171037 0.000162671 0.00197805 
-0.000439167 0.000539924 0.0435957 
0.000141852 -0.000415271 0.0483783 
-3.17221e-05 -3.0011e-06 0.064692 
-9.53831e-05 -3.07638e-05 0.0625971 
-0.00121555 0.00153252 0.0716015 
-0.000597713 -0.00489688 -0.00670169 
0.00971441 -0.00320297 0.0333092 
-0.00224045 -0.00234109 -0.000597537 
0.00243822 -0.000329899 0.0392109 
-0.0532756 0.0134117 0 
-0.00364674 -0.0118517 0 
0.0579043 -0.0133353 0 
0.0641478 0.00650347 0.086088 
-5.87255e-05 0.000103258 0.000386736 
-0.000235718 0.00148655 0.040996 
-0.000652605 0.000681526 0.000865019 
0.000567418 -0.00166048 0.0393887 
0.0213152 0.0124355 0.0540463 
-0.000709356 -0.00171962 0.0275268 
-0.00116305 -0.00488118 0.0603692 
-0.00326388 -0.00394328 0.0594548 
-0.00244062 -0.00140564 0 
0.00388894 0.00272169 0 
0.000798072 -0.000683333 0 
0.0077798 0.00663133 0.0159501 
0.00016603 -5.87206e-05 0.0422871 
-0.000173836 0.000606901 0.0364208 
-0.000423135 0.00159832 0.0565042 
-0.000270486 0.00144864 0.0596959 
-0.0162578 0.0123166 0.0466351 
-0.0139327 0.00450989 0.0161716 
-0.0317673 -0.00957158 0.0794486 
-0.0139641 0.00417722 0.0669557 
0.0108465 0.00199938 -0.0150703 
-0.0191184 -0.000779225 0.0102553 
-0.00387589 -0.000263517 0.00497406 
-0.0537588 -0.00675321 0.0618366 
-0.00349837 -0.0122807 0.033553 
0.00265476 0.000802025 0.0326234 
-0.000740122 -0.00748648 0.0580391 
0.00253288 -0.00130786 0.052341 
0.00312594 -0.000242375 0.0527331 
-0.000180502 -0.000121058 0.0331093 
-0.00208433 0.000350252 0.00182613 
0.000457941 -0.000514377 0.03266 
-0.00013736 1.06043e-05 0.00021502 
0.000105738 -1.21819e-05 0.000817898 
0.000560378 -4.73475e-05 0.000122625 
-0.000625412 -0.000223487 0.0390155 
0.00266999 0.0015479 0.0759302 
0.00131728 0.00104312 0.0735106 
0.00239678 0.00110926 0.0634147 
0.00124635 0.000413406 0.0800821 
0.00345099 -0.00224158 0.071561 
-0.000889166 -0.00290911 0.0552404 
0.000685489 -0.00116838 0.0468629 
-0.00014562 0.000183736 0.0393046 
0.0128615 0.00068936 0.0672305 
0.00037298 0.00146145 0.0725411 
0.00313485 -0.000767693 0.0707435 
0.00156835 0.000416043 0.0630137 
-0.0173075 -0.000786678 0.286746 
0.00566388 0.0173508 0.0853015 
0.0111699 -0.00684626 0.282066 
-0.0263856 -0.0297722 0.135973 
-0.00116803 -0.00209824 0.0529028 
-0.00333636 -0.00427103 0.0714446 
-0.000977177 0.000394921 0.0466772 
-0.000972745 -0.00356208 0.0636472 
9.38831e-05 -0.000243513 0.0229251 
2.43371e-05 4.09502e-05 0.00149305 
-0.000251587 -9.76446e-05 0.0481294 
4.5844e-06 -0.000338918 0.0359934 
0.000311064 0.000253813 0.000468119 
-0.00106901 -0.000646068 0.0500793 
0.00151914 -0.000561415 0.00141195 
-0.00113667 0.000649574 0.0366565 
0.000275262 -0.000186046 0.0470721 
9.50721e-05 8.76887e-05 0.0245013 
-4.0348e-05 0.000108965 0.0273092 
-6.74202e-05 -9.65015e-05 0.0361256 
0.00024084 -0.000384072 0.0276607 
0.000230474 -3.48483e-05 0.022957 
-0.000388266 0.000196998 0.0469414 
-0.000771895 3.53096e-05 0.0427568 
-0.00010003 0.000906169 -0.00650065 
-0.0180748 -0.00354048 0.045507 
0.00534894 0.000499544 -0.00518355 
-0.00769078 -0.0016526 0.0465601 
0.000117972 -0.000149878 0.0808806 
0.000276825 0.00126459 0.0809707 
-0.000809582 0.00312787 0.0759456 
-0.00108502 0.00118406 0.0804044 
0.00174354 0.00106883 0.0780146 
-0.00309857 -0.00282747 0.0741937 
0.000260904 0.000583376 0.0722519 
-0.00282581 0.00167853 0.0757567 
8.16178e-06 -0.000201944 0.0404567 
0.000122859 -0.000307283 0.0356562 
-0.000323496 -0.00078907 0.0503319 
4.61759e-05 0.00010792 0.032204 
0.0221375 0.0270961 0.261901 
0.0162409 0.0409491 0.0662777 
0.026016 0.0587442 0.177284 
0.0617484 -0.0650453 0.0497999 
-0.000449369 -0.000886696 -0.00125418 
-0.00076015 0.000750784 0.000611223 
-4.38004e-05 -0.00386005 0.0531142 
0.000133666 -0.001435 0.0341915 
-0.00182794 -0.00150832 0 
0.0016765 0.00141402 0 
-0.00413178 -0.00240521 0 
0.0137852 0.0113343 0.00995383 
0.00023293 0.000109188 0.0461441 
-0.000238178 6.45733e-05 0.0505227 
-0.000132337 0.00113269 0.0365986 
-0.00047533 0.00036477 0.0707419 
-0.00750611 -0.00304856 0.0547145 
3.38497e-05 -0.00306227 0.0667659 
-0.000594296 -0.00174142 0.0514236 
-0.00484917 -0.00304509 0.0502699 
0.000869167 0.00025358 0.0776144 
2.84298e-05 -0.00302733 0.0734328 
0.00236353 -0.00276612 0.0721474 
-0.00263908 -0.000169159 0.0711581 
0.00272445 0.030638 0.0510911 
-0.00106336 0.0274691 0.110972 
-0.00626393 0.0272704 0.0424301 
-0.00377344 0.00832633 0.0810833 
-0.000187244 0.00232606 0.03995 
-0.00786328 -0.0156326 0.0687694 
0.00445662 0.0224825 0.0709258 
0.0107086 -0.00213482 0.0506433 
-0.00385487 0.00499921 0.0672687 
-0.00166447 0.00241832 0.071061 
-0.000641315 -6.2673e-05 0.0505602 
-0.0014417 0.00299611 0.0641598 
-6.70196e-06 -7.80097e-05 0.000659012 
0.000869783 0.0005363 0.0356067 
-0.000248042 -7.41409e-05 0.00155639 
0.000423436 0.000280481 0.0331278 
-0.00224784 -0.00377842 0.0769483 
-0.000259793 -0.00238716 0.0662856 
-0.0038849 -0.00537219 0.0667755 
-0.00118012 -0.000932049 0.0640982 
-0.000157754 -0.000218434 0.000669542 
-0.000504955 -0.000581315 0.000508681 
-0.000340338 0.00144534 0.0507676 
0.000107702 -0.000458247 0.0502702 
-0.0059843 -0.00184604 0.0670608 
-0.00278247 -0.00366416 0.0630809 
-0.00312316 -0.00158356 0.0719477 
-0.00528287 -0.00172903 0.0759097 
-0.000387658 -8.08399e-05 0.00218241 
2.05647e-05 0.00100895 0.0364412 
0.000907734 0.00114952 0.0526643 
0.000146999 0.000241261 0.03325 
0.00107941 0.00310836 0 
-0.000525676 -0.00218222 0 
0.000272008 -0.00270023 0 
-0.0114092 0.00559484 0.00690675 
-0.000601829 0.00125715 0.0725076 
-0.00125674 0.000786207 0.0429373 
-0.000386941 -0.000406024 0.0479385 
-0.000605688 0.00102104 0.0595755 
-0.000249526 0.000221979 0.00165037 
0.000108213 -0.000348392 0.0320661 
-0.000326204 0.000532704 0.0391364 
7.82058e-05 -0.000505894 0.0368501 
0.0055891 -0.00260994 0.069012 
-0.00132653 -0.000401283 0.049013 
-0.000529697 -0.0035473 0.0551525 
0.004582 -0.00281102 0.0717982 
0.00335875 -0.00152671 0.072502 
-0.000516488 -0.00466823 0.0718809 
0.00150236 -0.00360885 0.077712 
0.00243567 -0.00791185 0.0680788 
0.00148169 -0.000830133 0.000799637 
0.00118604 0.00158635 -0.000170015 
-0.00907321 -0.00606383 0.0275838 
-0.00187825 0.000788129 0.0412706 
-5.33817e-06 -5.34957e-05 0.0470823 
-9.0505e-05 0.000425839 0.024326 
2.74737e-05 -0.00104055 0.0461433 
-0.000296506 -0.000650298 0.035594 
-0.00194886 0.000352394 0.0481777 
-0.00824726 0.0120626 0.0197632 
-0.00736921 -0.000628319 0.0356266 
-0.0050226 0.00461768 -0.00103147 
0.00045679 0.000750428 0.000686571 
-0.000506241 0.000440418 0.001186 
-0.0004752 -0.00144733 0.052569 
0.000408358 -0.000113873 0.0403306 
-9.09351e-05 -0.00349442 0.0524136 
0.00704166 -0.00655429 0.0396706 
-0.00380533 -0.00306817 0.0722185 
-0.0112134 0.00457304 0.0744734 
0.0032645 0.00195253 0.0750687 
0.00687415 0.00076614 0.0690768 
0.00630905 0.00570498 0.0677773 
0.00328356 0.00198195 0.0712514 
-0.000257713 0.00106308 0.0453746 
0.000709655 -1.8529e-05 0.0370773 
0.000309577 -0.000916695 0.00163735 
-0.00109668 0.000576574 0.0368684 
4.43041e-05 9.93077e-05 0.0799125 
-0.00277041 -0.0011103 0.0719021 
8.54052e-05 -0.000225374 0.0791383 
-0.00140833 -0.000429447 0.0824776 
0.00097678 -0.000130631 0.051755 
0.00293965 -8.52218e-05 0.0611343 
0.00194013 0.000768872 0.0632419 
0.00366491 -0.000266708 0.0675635 
-0.00285713 -0.00403413 0.076663 
-0.00105376 -0.000801668 0.063858 
-0.00377695 -0.00538511 0.0670514 
-0.00263659 -0.00251112 0.0616967 
0.00103508 -0.00312717 0.0549429 
0.00107107 0.0044088 0.0743054 
-0.000210304 -0.00422018 0.0627039 
-0.00803368 -0.00314536 0.0777527 
0.000118774 -7.38581e-05 0.0552236 
-0.00172738 -0.000858534 0.0727283 
-0.00122958 -0.000771003 0.0497952 
-0.00129601 -0.000892022 0.0627126 
-0.0622312 -0.0197574 0 
0.0706004 0.00057413 0 
-0.080782 -0.0147746 0 
-0.0101439 -0.034931 0.224359 
-0.00184472 4.29104e-05 -0.000393698 
-0.000959042 0.00132732 0.0401981 
0.000706937 -0.00420371 0.0556913 
0.000407156 -0.00116193 0.0342315 
0.000518798 -9.4152e-05 0.0852447 
2.73209e-05 -7.48494e-05 0.0827425 
-0.00143607 -5.39695e-05 0.0820523 
-0.0012742 0.00106983 0.0802531 
0.00405806 0.000690835 0.0456793 
0.00136611 -0.00335296 0.0719305 
0.00124939 0.00229468 0.0457807 
-0.00304267 -0.00273983 0.059788 
-8.34015e-05 -0.000220193 0.0571745 
4.78834e-05 0.000105917 0.0430475 
-0.000245628 -6.78193e-05 0.0556609 
-0.000827693 -4.50968e-05 0.0366312 
-0.000176378 0.00101844 0.000873394 
0.000182448 -0.00199592 0.0524373 
0.000427843 0.000787251 0.000955175 
-0.00011154 -0.00113823 0.0470337 
0.000100125 -7.44843e-05 0.0753018 
9.46121e-05 -4.21295e-05 0.0805299 
-0.000694535 0.0024595 0.0692365 
-0.00125465 0.00104543 0.0809115 
0.00130539 0.00110041 0.0518638 
-0.000500118 0.00109405 0.0377828 
3.27118e-05 0.000891643 0.0406314 
0.000504387 0.000200059 0.032572 
0.000209753 -0.000829813 0.027601 
-0.000373578 -0.000240322 0.046781 
-0.000226325 0.00105471 0.0476527 
-0.000815195 0.000665973 0.0430378 
0.0021579 -0.0014789 -0.0100584 
-0.00756417 -0.0146807 0.0614685 
0.00360084 0.00688999 -0.00511174 
-0.0104113 -0.0150652 0.036108 
0.00179235 -0.00354645 0 
0.00237444 -0.000298668 0 
-0.00855883 -5.66751e-05 0 
0.0199146 -0.000331771 0.00616402 
-2.42669e-05 0.000237853 0.0205582 
0.000333548 4.25267e-05 0.0290562 
-0.00115154 -0.000271537 0.00162783 
0.000451996 0.000302241 0.0435846 
-0.0478688 0.0302535 0.147535 
-0.00157755 0.0207381 0.275762 
0.0211549 -0.00153881 0.218407 
-0.0827345 0.013405 -0.00942874 
-0.000314063 0.000104036 0.0604314 
0.000137085 -2.98201e-05 0.0728959 
0.000111379 -9.76682e-05 0.0728829 
0.00177683 0.000894698 0.062483 
-2.52188e-05 -0.000308872 0.000778725 
2.22673e-05 0.000272723 0.000653949 
3.51599e-06 4.30628e-05 -3.63403e-05 
-0.000248196 -0.0005139 0.0397348 
-0.00394899 0.000543589 0.0748644 
-0.00125214 0.000425463 0.0661146 
-0.00130483 0.00248712 0.070723 
-0.00226937 0.00101854 0.0806191 
0.000507408 -0.000418888 0.000997625 
-5.98442e-05 -0.000259383 -0.000111673 
-0.000236784 0.000183664 0.027031 
-0.000289299 0.000661689 0.0416835 
0.00187496 -0.000420295 0.00309146 
-0.0031081 0.000350934 0.0556535 
-0.000454514 0.000297638 0.0493626 
0.000120478 0.000830097 0.0393375 
-0.000402834 0.000189794 0.00148906 
0.000392034 -0.000918954 0.0487887 
0.000563036 -0.000283056 0.0381045 
-0.000389676 -0.000685737 0.0367012 
-0.0247981 0.0179206 0.101979 
-0.0114465 0.0279471 0.158777 
-0.01091 -0.0120553 0.264495 
-0.0480797 0.0144545 0.139 
0.000659395 0.00914662 0.06994 
-0.00530586 0.00446812 0.0709002 
-0.00199032 0.00248175 0.0684588 
-0.00673117 0.0101534 0.062004 
-0.0147311 0.0170126 0.143856 
0.0473807 -0.000410674 0.269396 
-0.00867515 -0.0207229 0.16612 
-0.0209369 0.075829 0.187263 
0.00018756 0.000306275 0.0207879 
-0.000346755 -3.08533e-05 0.0422167 
0.000222535 -4.25264e-05 0.0290537 
-8.20578e-06 0.000179057 0.0430245 
-0.000659865 -0.00796498 0.0707462 
0.00037022 -0.00325062 0.0724275 
0.000917828 0.00110454 0.0517561 
-0.000926042 -0.00500273 0.0646056 
-4.10494e-05 -3.23122e-05 0.0730472 
2.08009e-05 8.04174e-06 0.08043 
-0.000113521 4.27911e-05 0.0789228 
9.35629e-05 -0.00142982 0.0826975 
0.01474 -0.00232839 -0.00593352 
-0.0727758 -0.00466986 0.120646 
0.00501034 -0.000856172 -0.0195331 
-0.0586814 0.00111891 0.0869966 
0.000242673 0.0016121 -0.00305631 
0.011006 0.0102853 0.0339505 
-0.00530028 -0.00259676 0.00397749 
0.00569549 0.00339131 0.0497201 
0.0132605 0.000549488 0.0642386 
-0.000903005 -0.00392276 0.0654905 
0.0145638 -0.0116498 0.0635172 
0.0145452 0.0119372 0.0713991 
-0.00237487 0.000700639 0.0523924 
-0.000480596 0.000617034 0.0431841 
-0.00154061 0.00191334 0.0723632 
-0.00101582 0.000751632 0.0593227 
-0.00050653 -8.42149e-05 0.0698552 
-0.00060878 0.00186177 0.0691774 
-5.24752e-07 0.000159564 0.0722848 
0.000495812 0.00190689 0.0598056 
0.000293944 -0.00010365 0.0579913 
-0.000597488 0.00210543 0.0559602 
-0.00033121 0.00194865 0.0694114 
-5.25835e-05 0.00158693 0.0594907 
5.50151e-06 0.000263219 0.0657533 
-2.33193e-05 -0.000399902 0.0492623 
7.38173e-05 -0.000386887 0.0733435 
0.000936499 -0.00144684 0.0371633 
-0.00229028 0.00603015 -0.0190006 
0.00020404 -0.0101692 -0.0104144 
-0.0284767 -0.0173765 0.071894 
-0.00835087 -0.0225426 0.0375729 
-0.000272411 0.000869192 0.00151831 
9.16884e-05 0.000845357 0.0387862 
-3.34948e-05 -0.002137 0.0484603 
-0.00130479 -0.00110262 0.0470947 
0.00010201 -4.41963e-05 0.0592797 
-0.000260026 0.000105679 0.044503 
-0.000249651 -5.40464e-05 0.0440006 
0.00121747 0.000533042 0.0628727 
0.0132845 -0.0072521 0 
-0.010034 0.0134066 0 
-0.0204828 -0.00599221 0 
0.0369259 0.00357009 0.0325028 
0.00216609 -0.0253271 -0.0424962 
-0.0271358 0.00985125 0.0779144 
-0.0415967 -0.0161114 0.0208947 
-0.0378792 0.00379153 0.102142 
-0.0488767 -0.0597187 0.0403593 
0.0058126 0.0539759 0.0482507 
-0.0488813 -0.0401295 0.0906727 
0.024961 0.0161792 0.0717956 
0.00819782 0.00261392 -0.00804669 
-0.0201259 -0.00231383 0.026921 
0.00446287 0.00202747 -0.0099302 
-0.0123282 -0.00840306 0.0251616 
0.0492271 -0.000122542 0.00463151 
0.00472711 -0.00446348 -0.0140142 
0.0233585 0.00286405 0.0774434 
0.00747872 0.0229767 0.0538053 
-0.0171575 0.00329335 0.0448071 
0.00134965 -0.00122203 0.0568558 
-0.00319373 0.000872193 0.0355208 
-0.00162365 -0.00261049 0.0563928 
0.000350112 0.000576091 -0.00133037 
0.000500094 0.00099105 0.00346227 
-0.000536242 -0.000989324 -0.00137323 
-0.010355 -0.00443807 0.0320002 
2.03689e-06 8.6474e-05 0.0348997 
0.000787411 -0.000168629 0.0372552 
-0.000624131 0.000503761 0.0369902 
-0.000203426 0.00118447 0.0600649 
0.0166389 -3.69393e-05 -0.0172472 
-0.0266263 0.0227171 0.0585436 
-0.0106912 0.0240258 0.00819474 
0.00697288 -0.00834326 0.00863076 
0.00162602 -0.00332443 0.0767983 
0.00229897 -0.00120402 0.0741912 
0.00430565 -0.00149362 0.0733416 
0.00301484 -0.00378745 0.0706902 
0.000107283 -7.98855e-05 0.000281538 
-0.000248975 0.000179195 0.000617043 
3.20638e-05 -2.32898e-05 -3.58993e-05 
2.89089e-05 -7.40706e-05 0.0395942 
0.00252245 -0.00198643 0.212704 
-0.000535843 -0.0322593 0.172611 
-0.0024168 -0.000733326 0.258589 
0.105327 0.0640546 0.164422 
-0.0432639 -0.0221667 0 
0.0569108 0.0159818 0 
-0.00895664 0.00540116 0 
-0.0618089 -0.0470157 0.0726758 
-0.00549706 -0.00853531 -0.0185685 
-0.0187405 -0.0131693 0.0673405 
0.00344114 -0.0139654 0.0320535 
0.0294779 -0.00109375 0.0613475 
0.00713504 -0.0112411 0.114725 
0.00935938 -0.0220724 0.235991 
-0.0511253 -0.0243601 0.108774 
0.0448874 -0.0423538 0.0851113 
0.00011712 0.000513771 0.000168761 
0.000346812 9.40518e-05 -2.29069e-07 
-0.00181599 -0.000284647 0.0557381 
-0.000102576 -0.00088727 0.0393922 
0.00972434 0.00306302 0.0752822 
-0.0140078 0.00791178 0.0450263 
-0.0111411 0.0120584 0.0673479 
-0.0167996 -0.0181713 0.0195858 
0.00339494 -0.000251338 0.0588977 
0.000834595 0.00176521 0.0383679 
-0.000787529 0.00219299 0.0390801 
-0.00171111 -0.00342916 0.0636601 
0.0311964 0.0624934 0.0425986 
-0.0147553 -0.00452205 -0.000241029 
0.0285088 -0.0117837 0.0727602 
0.0376624 0.0422789 0.101663 
0.00460122 -0.00304217 0.0718736 
0.00417943 -0.00676447 0.0681159 
0.000948321 -0.0033624 0.0766675 
0.00324659 -0.00318502 0.0713093 
0.000562049 2.96922e-05 0.000864209 
0.000380166 -0.000371031 0.000813601 
-0.000608791 -0.00048599 0.0375353 
-0.000468574 0.000279276 0.0364079 
0.0106007 -0.00533789 0.0356918 
-0.00014592 -0.000112328 0.0526264 
-0.00151035 -0.000614017 -0.00264199 
0.000433102 -0.00272252 0.0421236 
0.0100682 0.00587252 0.23422 
0.00359049 -0.0242936 0.163175 
-0.0130883 0.0190084 0.126772 
-0.0785338 0.0385069 0.143636 
0.0138635 0.0171976 0.0381775 
-0.0151683 -0.0217572 -0.0307698 
0.00199599 -0.00939442 -0.034216 
0.0382028 0.0889646 0.137395 
-0.0260818 -0.0193959 0.0699999 
-0.0147988 -0.0205907 0.0299344 
-0.0199165 0.00375638 0.047517 
-0.0274377 0.00745326 0.0439281 
0.00511829 -0.00373154 0.0689888 
0.00850612 -0.00153924 0.0687029 
0.00656296 0.00115169 0.0682037 
0.00237324 -0.00139014 0.0699117 
-0.0106269 0.0370813 0.0257048 
-0.0011727 0.0212996 0.128654 
-0.00151269 0.00327702 0.0753277 
-0.00736601 0.0140988 0.073818 
0.00164166 0.00341131 0.0605337 
-0.000454191 -4.44563e-05 0.0390023 
-0.00240138 0.00353902 0.0425501 
-0.00127384 -0.00625805 0.0687262 
0.00093825 -0.00183707 0.0588112 
0.000728989 -0.000830852 0.0483555 
0.000697782 -0.0011365 0.0418013 
0.000134888 -0.00327855 0.0663318 
8.26402e-05 -0.000271761 0.0463262 
-0.000893931 0.000959471 0.0482314 
0.000177162 7.10365e-05 0.0622756 
-0.000638684 0.00169998 0.0696198 
0.000828881 0.00601564 -0.00800204 
-0.00123943 0.00695445 -0.00372955 
-0.00256815 -0.0221301 0.0578391 
-0.000117859 -0.02057 0.0282369 
0.00131938 0.000787984 0.0480115 
0.0153295 0.0187465 0.0592927 
0.0133898 -0.0149719 0.112773 
0.0295611 -0.0263035 0.0918759 
8.92466e-05 0.00702376 0.0685852 
-0.00419593 0.0110051 0.0691927 
0.00218485 -0.00144288 0.054629 
-0.00131687 0.00484092 0.0610777 
1.67987e-05 0.000200932 -2.4686e-05 
-0.000342052 0.000335853 0.000756702 
0.000127466 -0.000446614 0.0400394 
0.000180151 -0.000372744 0.0373669 
0.00537443 -0.00435632 0 
0.00099196 -0.00448582 0 
-0.00932985 0.00363068 0 
-0.00584942 -0.00121684 0.00719069 
0.0391028 0.0183441 0.0430734 
-0.0171887 0.0241306 0.156731 
0.015526 0.0301756 0.0548862 
0.0113688 -0.00327598 0.143863 
-4.08895e-05 -2.36758e-05 0.00157262 
-4.00799e-05 -3.15794e-05 0.0309837 
-0.000333547 -9.83535e-05 0.0494874 
-0.000172262 -0.000166737 0.0371323 
-0.00896964 0.0220242 0.0907595 
0.0211744 0.0694457 0.0501273 
0.0502605 0.00686457 0.0134543 
-0.0234261 0.0129783 0.0810046 
0.00480993 0.00289082 -0.000659611 
-0.017485 -0.00160842 0.0421524 
0.00020378 0.00188043 -0.00434153 
-0.0158292 -0.0110198 0.0311079 
0.000321989 -0.000344461 -0.00108145 
-5.94197e-05 -0.001039 0.00128121 
-0.00100631 -0.000460923 0.0380401 
0.00120442 0.0109431 0.0259798 
-0.000107839 0.000187574 0.000216696 
-0.000105325 -6.81908e-05 -7.44998e-06 
0.000461116 0.000110003 0.0354395 
0.000110858 0.000772266 0.033383 
-0.000918803 -0.00183645 0.053066 
-0.00373697 -0.00502186 0.0695883 
-0.000727718 -0.00215653 0.0661941 
-0.00101203 -0.00125687 0.0625395 
0.000461182 -0.00051579 0.0488757 
0.00255438 -0.000442678 0.0587875 
0.00143082 0.000122678 0.0520055 
0.0036029 -0.00084801 0.0675678 
0.00497573 -0.00554308 0.0608507 
0.00349842 0.00247165 0.0623437 
-0.00267698 -0.00162121 0.0477754 
0.00614016 0.000370249 0.0757189 
0.00418661 -0.0149836 0 
0.0022963 -0.00889428 0 
-0.0137069 0.0288323 0 
0.0256793 0.0342456 0.0516378 
-0.00684514 0.0116502 0 
-0.0029973 -0.012537 0 
0.0043287 -0.0210571 0 
-0.0213366 0.0383895 0.0237945 
0.0262592 0.00780459 0.0689163 
0.00311137 -0.0108128 0.0513466 
0.0188608 -0.0034545 0.0573812 
0.015099 0.00432234 0.0804213 
-0.000334525 0.000473612 0.00125084 
0.000184473 -0.000205171 0.0236708 
-0.000150333 -4.9352e-05 -0.000332008 
0.0003371 -0.000302796 0.0366516 
0.014447 -0.00518272 -0.00997679 
-0.0321751 -0.00196529 0.0615917 
-0.0571618 -0.0119735 0.064392 
0.0261777 0.000827335 -0.00110871 
-0.00477941 -0.00386968 -0.00650605 
0.0188983 0.00490163 0.0387981 
-0.000609552 -0.00167623 -0.0217176 
0.0202893 0.0181149 0.0509382 
-0.00267339 -0.00391367 0.0770266 
-0.00198227 -0.000943419 0.0715083 
-0.00139878 -0.000954402 0.0636099 
-0.0029928 -0.00268485 0.0613456 
0.0057835 0.00149123 0.064792 
0.00635539 0.00134475 0.0688739 
0.00636565 0.00721932 0.0691907 
0.00324574 0.00217959 0.0676975 
-0.000326613 -0.00197715 0.0528423 
-0.00247323 0.00134403 0.0422089 
-0.000854336 0.000829079 0.0393253 
0.00145724 -0.00432919 0.0678612 
-3.67691e-05 -0.000337279 -0.000576481 
0.000860334 -0.000187312 0.0498175 
-0.000290943 -0.000672343 0.000646697 
-0.00127182 0.000494075 0.0382796 
0.00087634 -0.0547365 0 
-0.00850342 0.00745631 0 
-0.0145572 0.019522 0 
0.00713968 -0.0575627 0.100239 
7.65908e-05 -0.00902739 0.272567 
0.00217513 -0.0430817 0.177613 
-0.00842623 -0.00719227 0.189115 
0.104611 -0.0412607 0.0310978 
-4.59875e-05 -0.000202891 0.0749858 
0.000107868 0.000205251 0.0686267 
-0.000105811 -0.000112893 0.0807474 
-0.00226505 0.000635555 0.0650635 
0.00128618 -0.00245441 0.0574197 
0.00105094 -0.00199357 0.0565642 
0.00210467 -0.000999645 0.063234 
-0.00178878 0.00159997 0.0355598 
0.0139872 0.00132983 0.104686 
0.0158932 0.00190441 0.0676016 
0.00705968 -0.0146178 0.0554065 
-0.000750293 0.010008 0.0708906 
0.0554483 0.0132687 0.0693955 
-0.0022223 -0.0256304 0.0308177 
0.00465712 -0.0525568 0.039758 
0.0480857 0.0120453 0.115557 
-0.0590919 0.0288242 0.0389444 
-0.0136103 -0.00887928 0.0970875 
0.00557566 -0.0159815 0.122522 
-0.0133063 0.00791299 0.1821 
-0.000521491 0.00145448 0.0568057 
-0.000121402 0.000595618 0.0367599 
0.00020728 8.64617e-05 0.0416785 
-0.000192851 0.000289102 0.0365015 
0.0340992 -0.105889 0.113247 
-0.000340264 0.0057635 -0.0164338 
0.00831342 -0.0306082 0.165916 
0.0380509 0.0200437 0.0880868 
-0.00275215 -0.00149103 -0.0036373 
-0.0133437 8.5371e-05 0.0423963 
0.000281753 -0.00273031 0.000604581 
0.000468859 0.00303763 0.0401695 
-0.00550645 -0.00189984 0.0721845 
-0.00517278 0.000898049 0.0707592 
-0.00138861 0.000198821 0.0541424 
7.53388e-05 8.87693e-05 0.0412904 
-0.00603157 0.0525959 0.137744 
0.0222412 0.0342697 0.146091 
0.00459457 0.00107149 0.280455 
0.0425413 0.0604351 0.00205468 
0.0027814 0.00207634 0.0607266 
0.00395452 0.00286713 0.0692825 
-0.00186056 -0.000286541 0.0412373 
0.0031198 -5.94649e-05 0.0611574 
0.0679875 -0.0567152 0.08505 
0.0284349 -0.00889976 0.00124015 
-0.000177389 -0.0149107 0.10136 
0.0191281 -0.0143747 0.143037 
0.000136937 0.000218559 -0.0018571 
0.00110006 -0.000307416 0.0402449 
-0.000576621 0.000299071 0.000496601 
0.0029996 -0.000603092 0.0334525 
0.000197569 -0.000900656 -0.0206738 
0.00767955 0.00232798 0.0473387 
0.00345339 0.00119634 -0.00382781 
0.029399 0.00616171 0.0576967 
0.0140252 -0.0387361 0 
-0.0141226 0.0298361 0 
-0.0155242 -0.00490893 0 
0.0151799 0.0699941 0.044116 
-0.000676634 0.000462264 0.0368505 
-0.000253497 0.000392478 0.0364206 
-0.000139624 0.00164137 0.0566701 
0.000602509 0.0010931 0.0372512 
0.00696186 -0.00413905 -0.00482104 
-0.0275042 -0.00389479 0.0130599 
-0.0339172 -0.00814695 0.0529763 
0.031575 0.0019837 -0.00190991 
0.00737907 -0.00653994 -0.00415077 
0.025904 0.0121778 -0.0230836 
-0.0430354 -0.0110482 0.0317947 
-0.0677046 -0.0115432 0.0786938 
0.0201624 0.00538389 0.0547752 
0.000966615 -0.00237949 0.0633479 
0.000885624 -0.00097729 0.0733969 
-0.00486164 -0.000870823 0.055186 
-0.00380336 -0.00139333 -0.0112888 
0.00601754 0.00312279 -0.0102015 
-0.0235361 0.017053 0.0455077 
0.0106918 -0.00508674 0.0241924 
-0.00113129 0.0838533 0 
-0.0210884 0.038987 0 
-0.0235947 -0.0705609 0 
-0.0528194 0.044069 0.17146 
5.50747e-05 0.00677253 -0.000848533 
-0.00177738 -0.00489773 0.0553334 
-0.00142575 -0.00991505 0.020455 
-0.00707421 -0.0075469 0.0211641 
-4.57871e-05 -2.234e-06 0.0410562 
-0.000125956 -0.00114154 0.048889 
-7.02651e-05 -0.000363592 0.058682 
-0.000112313 -5.62933e-05 0.0324739 
-0.012822 0.00194506 0.253466 
-0.00729522 -0.0172057 0.118472 
0.0234542 -0.00177338 0.285475 
-0.067061 -0.05053 0.0410049 
-0.00010372 9.56555e-05 0.000961506 
-3.11164e-05 -0.000597273 0.0358887 
0.000171788 -0.000109049 0.0387491 
0.000492823 4.19622e-05 0.0355713 
5.94577e-05 0.000107043 0.000878523 
9.60987e-07 -2.75124e-06 -0.000157531 
0.000121542 0.000191774 0.000759639 
-0.000543971 9.04836e-05 0.0448788 
-0.000507503 -0.00136977 0.000934128 
0.000719866 0.00108473 0.0497291 
-0.00145775 -0.000423838 0.0015468 
0.000298507 0.00195257 0.0445936 
8.19374e-05 -0.000433667 0.0433153 
-0.000516576 0.00206619 0.0555099 
0.000307066 -9.99521e-05 0.0582594 
-3.59223e-05 0.001569 0.0590638 
0.0789743 -0.0181673 0.117595 
-0.00567688 0.0207312 -0.063251 
0.0555103 -0.0484116 0.0897286 
-0.0249571 -0.0439772 0.24795 
-5.19574e-05 -0.00100829 0.000446664 
0.000629997 0.00199995 0.0540518 
-0.000898349 -0.000275331 0.00109371 
0.000546482 0.000259994 0.03504 
6.67636e-05 0.000123011 0.0590063 
-0.000418879 0.00189364 0.0550904 
0.000172629 -0.000256211 0.0515713 
-0.000760561 0.00141829 0.0692815 
-0.0426645 0.0507357 0.0968788 
-0.0375029 -0.0150223 0.0810629 
0.0321992 0.0451208 0.0100104 
-0.033701 0.0370997 0.135105 
-0.00700982 0.0143369 0.0387145 
-0.00769504 0.0029883 0.0842842 
0.00637184 -0.00206564 0.081967 
0.0101962 0.0256268 0.0815609 
-0.040582 -0.0185143 0.0990612 
-0.0213779 -0.0178636 -0.0374888 
-0.0390648 0.0113594 0.0820468 
-0.0318771 0.00812793 0.195925 
-0.00565825 -0.0104881 0.072223 
0.00790212 -0.0123815 0.0256833 
-0.00355772 -0.00356302 0.0890511 
-0.00146823 0.000136151 0.0421745 
-0.003237 -0.0113217 0.0732869 
0.00221636 -0.00302648 0.0466268 
-0.0100165 0.00629926 0.0747867 
-0.00198562 0.00781066 0.0627459 
0.0269524 -0.0461502 0.0577196 
-0.0159805 -0.010558 0.0438561 
0.0423885 -0.014731 0.0963978 
0.0553613 0.0274474 0.0418619 
0.00134261 0.00708188 0.060015 
0.000189197 -9.97836e-05 0.0382683 
0.00208966 -1.86728e-05 0.0425947 
0.00236405 0.00341471 0.0307343 
-0.00254408 0.00613564 0.062487 
0.000292271 0.000722035 0.0364504 
-0.0132603 0.00135332 0.0437911 
0.002012 -0.00104809 0.0624077 
-0.00145861 -0.00305283 0.075256 
-0.00141167 -0.00535077 0.0647417 
0.000410268 -0.00269021 0.0728946 
-0.00143836 -0.0085092 0.071499 
-9.30699e-05 0.000301968 0.0558232 
9.90494e-05 -0.000259332 0.0711603 
-0.000112798 0.00042749 0.058616 
0.00015722 -0.00251643 0.0734211 
0.00205203 -0.000561317 -0.0046491 
-0.00687679 -0.00711033 -0.0173489 
0.00760819 -0.00713525 0.0322048 
-0.016189 -0.0269646 0.062782 
0.00330933 0.00285441 0.103518 
0.00203751 -0.000861575 0.0666919 
-0.0117901 0.00386752 0.0746008 
0.0152348 0.023602 0.110807 
-0.00629283 0.00261283 -0.0163713 
-0.015395 -0.0220206 0.023576 
0.0280619 0.0237629 0.0416581 
-0.0106355 -0.00172993 0.0248499 
-0.000191439 0.000336918 0.000521944 
-0.00159436 -0.000226103 0.0553932 
0.000491277 -3.40677e-05 0.000162775 
9.91055e-05 -0.000860334 0.0391398 
0.0070846 -0.00510212 0.0709412 
-0.00247485 -0.00166753 0.057488 
0.00309023 -0.0053484 0.0685778 
0.0103008 -0.0116202 0.0785276 
0.00622978 -0.00269363 0.069414 
0.00655482 0.00138586 0.0681289 
0.0116075 -0.00761367 0.063522 
0.0112524 0.00327094 0.06852 
-0.00162647 0.0032772 -0.00100862 
0.0122051 -0.0144189 0.0286063 
0.0114527 0.00211574 0.0286099 
0.00242733 -0.00755696 0.0364029 
-0.000140957 0.000130318 0.077826 
0.000707211 -0.000883329 0.0810211 
0.000929814 -0.00194385 0.0713799 
0.0018855 -0.00168299 0.0627473 
-0.0173222 0.00479869 -0.0369866 
-0.00289055 -0.0214197 0.0427795 
0.038493 0.00329912 0.0272972 
0.0761593 0.0168275 0.15057 
0.00396814 0.00444127 0.0490108 
0.0107326 0.0127281 0.0447215 
0.0296554 0.0250363 0.072496 
0.0104919 0.0111381 0.0718041 
-0.000272156 -0.000179536 0.0844042 
0.000279342 -0.000195528 0.0830989 
0.00031485 0.000222659 0.0849445 
-0.0010335 -0.000445929 0.0821523 
-0.000192468 -0.00570999 0.0713136 
1.91574e-05 0.00541089 0.0762857 
-0.00126384 0.00562174 0.0745269 
-0.000812212 -0.00779057 0.0527188 
-0.0197134 0.0204881 0.259265 
0.00773349 0.0178372 0.190321 
-0.00689969 -0.0139447 0.154463 
0.0292622 -0.0944974 0.184517 
-0.00369006 0.00355628 0.0694887 
0.000148294 0.00159352 0.0464749 
-0.00100559 0.00146646 0.0524105 
-0.00497458 0.00167342 0.0687025 
-9.01506e-05 -5.75157e-05 0.00080408 
5.77833e-05 4.09461e-05 0.000280888 
7.18988e-05 5.00358e-05 0.000171399 
-0.000838668 -0.000186701 0.0508103 
-0.000160136 4.07603e-05 0.0508589 
-0.000107844 0.00158891 0.0557783 
-0.000122261 -0.000179242 0.0428577 
-0.000347578 0.00063611 0.035982 
7.33915e-05 -0.00362995 0.0482443 
0.00377119 0.000894644 0.0619598 
0.00309284 0.000167541 0.0618839 
0.00269982 0.00125071 0.0586427 
0.000408196 -0.000311701 0.00151781 
-0.000308362 0.000296072 0.0496886 
0.000279579 -0.000565817 0.00125003 
-0.000957572 0.000187569 0.0371538 
-5.79161e-05 0.00011066 0.0776263 
0.00198224 -0.00100002 0.073571 
0.000877589 -0.000952236 0.0807862 
0.00176288 -0.0016513 0.0630259 
-0.000116702 -2.19818e-05 0.0801779 
-3.12817e-06 4.83765e-05 0.0692173 
-5.58833e-06 -5.99278e-05 0.0705195 
-0.00231933 -0.000908654 0.0715371 
0.0157312 0.00126648 0.0610543 
0.00972614 -0.000814807 0.0534349 
0.00935445 0.000531705 0.0720902 
0.0141815 -0.00188832 0.0777526 
-0.00131357 0.00873868 -0.00668302 
-0.0338255 0.0387754 0.0513007 
-0.0107002 -0.000507121 0.0331815 
0.00314127 -0.00811076 0.0195321 
0.000233563 -0.00516409 0.0553369 
-0.00587627 0.00345946 0.0385486 
0.00829321 -0.004902 0.0722033 
0.00160447 -0.00196155 0.0638304 
-0.000530701 -0.00097629 0.000968936 
-0.000247665 -0.00103975 0.00139843 
0.000214246 0.00101509 0.0543483 
-0.000273961 0.000738934 0.0384592 
0.000830168 -6.77245e-05 -0.000614526 
-0.00086423 7.05032e-05 -0.000554186 
0.000504914 -4.11905e-05 0.00456454 
-0.00112461 0.00600502 0.0184055 
0.000393502 0.000103038 0.0557041 
-0.0001818 -6.25287e-05 0.0704875 
0.000142002 5.65134e-05 0.0572116 
-0.00200202 -0.000959366 0.0724185 
-0.00229962 0.000280957 0.0534285 
-0.000520556 -0.000849078 0.0393232 
0.00102783 -7.40721e-05 0.00187096 
-0.000487886 0.00021002 0.0380348 
0.000182772 -0.000199371 0.0260797 
2.37445e-05 -7.07538e-06 0.0215981 
0.000179813 -1.08563e-05 0.000526669 
-0.000373958 -0.000115438 0.0407141 
0.000654373 0.00084745 0.0440159 
-0.000133216 0.000986997 0.0505273 
-0.00302302 0.00051364 0.0445437 
-0.00169674 0.00373086 0.0631483 
-0.00773698 -0.0301313 0.273546 
-0.00911116 -0.0470337 0.148772 
-0.0776893 -0.0189647 0.0970803 
0.0965366 -0.0415776 0.0638026 
-0.00533491 -0.031499 0.101356 
0.0114964 -0.00228181 0.0351845 
-0.0254434 -0.0033799 0.0682212 
0.00392279 -0.00597443 0.0542067 
0.00758792 -0.00531616 0.26545 
0.00498337 0.0418752 0.131112 
-0.0109661 0.00828531 0.229304 
-0.0424567 0.0812805 -0.00558673 
-0.0495735 -0.0444994 0.133453 
0.057886 -0.0286715 0.113529 
-0.0341576 -0.01876 0.0279563 
-0.0227847 -0.0387764 0.169757 
6.40773e-05 0.000254441 -0.000219407 
-1.78652e-05 -6.3846e-05 -6.574e-05 
-2.02895e-05 -0.000109364 0.000584671 
0.000317012 -2.53234e-05 0.0362421 
0.00561134 -0.00300777 0.0682225 
-0.00128482 -2.02881e-05 0.0497704 
0.00362904 -0.0027667 0.0718683 
0.00335132 -0.000503815 0.0672307 
0.000334589 -6.31506e-05 0.0244117 
-0.000198914 -0.000384244 0.0316165 
-0.000996842 0.000284546 0.00144999 
0.000604006 -0.000287911 0.0370231 
-0.0758195 0.0130006 0.125545 
-0.0488826 0.0101072 0.180144 
-0.0113638 0.00312921 0.0155429 
0.0334225 0.0511951 0.054744 
-0.00133944 0.00788614 0.0465453 
0.00385208 0.00221854 0.0815113 
-0.000759544 -0.00670117 0.0525062 
0.00817907 0.0225099 0.0672315 
0.0664643 -0.0493063 0.089712 
0.0605471 -0.0062993 0.0855926 
0.00658445 -0.0100422 -0.0542425 
0.0271137 0.0175967 0.199256 
-0.0425448 -0.0154621 0.0256446 
-0.00399639 0.0317676 0.0296519 
-0.0262616 0.0130028 0.0777818 
0.003413 0.0313462 0.0223434 
-0.000208357 3.85457e-05 0.0567122 
-0.00168431 -5.20525e-06 0.0528415 
0.000204882 8.83163e-05 0.0499938 
-0.000558923 -0.00038073 0.0368335 
-8.7111e-05 -0.00115945 0.0522131 
-0.000476715 -0.00144724 0.0465189 
9.6769e-05 0.000346674 0.00112627 
-3.18239e-05 0.000199307 0.0348126 
-0.0151547 0.00201081 0.265419 
0.00912855 -0.00246374 0.254343 
0.00369365 0.0096403 0.139921 
0.020969 0.0697603 -0.0339655 
-0.000100161 9.42033e-05 0.0352604 
-0.000173197 0.000119663 0.00152802 
-0.000620384 0.000496814 0.0370556 
0.000800961 -0.000143385 0.0368974 
-0.00159253 -0.000844456 0.0552032 
-0.002192 0.000578971 0.0635025 
-0.00174718 0.00190422 0.0530102 
-0.00494532 -0.00130105 0.0701048 
-0.000136681 -0.000250792 0.0517815 
5.21991e-05 -0.000283755 0.0371543 
-0.000844135 -0.00120556 0.0526177 
-5.55812e-05 -0.000115247 0.0368932 
-0.0207931 0.0554321 0.0288041 
-0.034354 -0.0169811 -0.0358328 
0.000202557 0.00654551 0.0259024 
-0.0104229 0.0525568 0.148753 
-0.00490591 0.0584947 0.167879 
0.0392596 0.0686166 0.01052 
0.00695411 -0.00921623 0.257649 
0.00260854 -0.00296954 0.194611 
-4.64676e-05 -7.74204e-05 0.024049 
-9.90698e-05 -0.000162262 0.001186 
0.000231923 -0.000101467 0.0482436 
6.01055e-05 -0.000468077 0.0366937 
-0.00724236 -0.00706155 0.0729896 
0.00131236 0.00331214 0.0461238 
0.00135729 -0.00313838 0.0717874 
-0.00310394 -0.00220811 0.059049 
-0.00408943 0.00078818 0.0749413 
-0.00181961 7.87968e-05 0.0657607 
-0.00226116 -0.00112053 0.0723587 
-0.00565616 0.00057357 0.0663604 
0.00041399 0.000196548 0.0359204 
0.000156125 -0.000145409 0.0236834 
-0.000491026 0.00079281 0.00144876 
0.00042816 -0.000469298 0.0363065 
0.0125099 -0.00681833 0.0635287 
0.00478325 -0.00483421 0.0654934 
0.00652382 -0.00394824 0.0674754 
0.0113123 0.00555266 0.0713781 
-6.8158e-05 0.00711481 0.0681271 
-0.00581997 0.00522441 0.0680419 
-0.00397446 0.00664092 0.0715332 
-0.00895948 0.00990855 0.0668365 
0.0111587 0.00236048 -0.00899339 
-0.0299642 -0.00818476 0.0479008 
-0.0147459 -0.00132285 0.00460682 
0.0177455 -0.000699288 0.00756163 
0.00277915 -0.0105833 -0.0080878 
-0.0125915 0.0123072 0.0358919 
0.0024422 -0.00746808 -0.0130425 
-0.0174401 0.0238058 0.0272562 
0.00294456 -0.00128483 0.0740487 
0.000798672 -0.00101242 0.0799144 
0.000307768 -7.99215e-05 0.0830505 
0.00124451 -6.11346e-05 0.0792588 
0.00153746 -0.00362467 0.0771715 
-4.84889e-05 -0.00256945 0.0730591 
0.0010662 -0.00444159 0.0673441 
0.00206098 -0.00867039 0.0725185 
0.0283021 0.00921111 0.23467 
0.0186211 0.00142037 0.158118 
0.00735063 0.0617096 0.0870005 
0.0588007 -0.0509066 0.0834138 
-0.000807022 -0.00137884 0.0526999 
-3.96846e-06 -0.000241846 0.0375051 
-0.000139463 -2.93261e-05 0.0513257 
-0.000701122 -0.00207856 0.0671456 
1.03652e-05 7.64975e-06 0.000431355 
0.000229797 0.000475277 0.000340628 
-0.000122661 -0.000270063 0.00031208 
-0.000369562 -0.000259851 0.055531 
0.00270076 0.0336493 0 
-0.00929102 -0.00141572 0 
-0.0104305 -0.000121643 0 
-0.000766732 0.0215958 0.0527919 
-0.0107325 0.0107949 -0.0162085 
0.00922349 -0.0327678 0.0313395 
-0.0281782 -0.0192418 0.0694641 
-0.0450457 0.0168196 0.0430985 
0.00401353 0.00387435 0 
-0.00689693 0.00542318 0 
0.00182052 0.00062368 0 
0.0101998 -0.0103624 0.00404641 
-1.56177e-05 -5.35404e-05 0.0840098 
0.000259276 0.000177831 0.0849765 
-4.08171e-05 6.6441e-05 0.0825793 
-0.00126924 -0.000527016 0.0826204 
-0.000400413 0.000280971 -0.00123464 
-0.00121226 0.0008529 0.000838507 
0.002114 -0.00148901 -0.00489247 
-0.00262497 -0.00849552 0.0542163 
0.00314914 0.000284482 -0.00289103 
-0.0141708 0.00143621 0.0386429 
9.48429e-05 -0.000109599 -0.00200817 
-0.00178137 0.00101303 0.0406279 
0.000819135 0.000982367 0.0530908 
0.000738766 0.00014084 0.0347311 
-0.000334822 -0.00030111 0.00128925 
0.000161258 0.000174643 0.0347606 
0.00168963 0.00323872 -0.00137739 
0.0083925 -0.010669 -0.0186754 
-0.0329882 0.0379782 0.0588549 
-0.000170596 -0.00187122 0.0151193 
-0.0276035 0.0276547 0.00503206 
-0.00750927 0.00652309 0.0490717 
0.0014908 -0.00630854 -0.0162697 
-0.0119485 0.0167036 0.0429665 
-8.16284e-05 -4.80437e-05 0.0476021 
9.55419e-05 3.38427e-05 0.0459406 
0.000196797 -0.000354214 0.0273723 
-0.000544513 0.000589657 0.0468593 
-0.00278764 -0.00544684 0.0402052 
0.00204124 0.00214444 0.0648108 
-0.00443415 -0.00287658 0.0285222 
0.00500783 0.00289413 0.0655231 
-0.0179779 0.0163651 -0.000462388 
-0.0252413 0.0242633 0.0699475 
0.00802288 -0.00927208 -0.0144528 
0.0114176 -0.008511 0.0160108 
0.000134024 0.00030645 0.000554522 
0.000123688 0.000266928 0.000251526 
9.71408e-06 3.04665e-05 0.000175399 
-0.00117689 -0.000263673 0.0554397 
-0.000245662 0.000298117 0.00409563 
0.0007199 -0.00121701 -0.00150728 
-0.00038583 0.000655849 0.00069805 
-0.00639048 0.00301958 0.0262616 
0.00740063 -0.00314279 0.0576933 
-0.0200696 0.00792177 0.0496701 
0.019903 -0.0101319 0.0571571 
-0.00423661 0.00101609 0.0705658 
0.0043844 0.00842145 -0.00624645 
-0.0447618 -0.0434361 0.130591 
-0.0105685 -0.0197919 0.0485764 
-0.0158414 -0.0092051 -0.016459 
0.000162025 -0.000262118 0.042072 
-0.00147835 0.000648283 0.051048 
-0.000378671 -2.09801e-05 0.0391493 
-0.00124957 0.000572255 0.0608069 
0.000250051 -0.00288542 0.0709219 
0.00432509 0.00053167 0.0461319 
-0.00678616 -0.00518272 0.0737463 
-0.00246647 -0.00258172 0.0585246 
0.0137339 -0.0101267 0.0268685 
0.00414321 -0.00781811 0.00325062 
-0.0110112 -0.00364131 -0.0280373 
0.0253875 -0.0104944 0.0735535 
-2.39616e-05 -0.000335529 0.0574898 
0.000103812 -0.000146816 0.0376911 
-7.56611e-05 -0.00139741 0.0508129 
-0.000556031 -0.00191609 0.0670337 
0.0161748 0.007073 0.0632232 
-0.00544059 -0.00667661 0.0387823 
0.00138875 -0.00151059 0.0788741 
0.0175986 0.0272065 0.0890327 
0.00307933 0.00275706 0.0634162 
-0.000902571 0.00605576 0.04122 
0.0135633 -0.0210619 0.0960766 
-0.0163166 -0.0154492 0.038969 
-0.000252163 0.000243056 0.0754015 
-0.00206415 -1.4064e-05 0.0647313 
-0.00162987 0.00208676 0.071296 
-0.00105123 0.000647632 0.0602804 
-0.038167 -0.0106373 0.010965 
-0.00293832 0.0258915 0.0473456 
-0.00309656 -0.00772699 0.0833264 
0.0367519 0.014534 0.0710403 
0.000362196 0.000787565 -0.000972471 
0.00117192 -0.00122171 0.0503287 
-0.000238552 -0.000534193 0.000941434 
0.00105593 -0.000907902 0.0382937 
0.0104177 0.00865808 0.0504532 
0.0152654 0.0165194 0.0689756 
0.00752457 0.00618994 0.0692527 
0.00885593 0.0134396 0.0702951 
-0.00393525 -0.00320274 0.044152 
0.000496375 -0.000259006 0.0331248 
0.00325239 0.000731391 0.0614904 
0.00491739 0.000561586 0.0610313 
-0.000623849 0.00293351 0.0401722 
-0.0122777 0.00899199 0.0246205 
0.00326251 0.00119929 -0.00205272 
-0.00381704 0.00305245 0.0293236 
-0.0205016 -0.0137048 0 
0.00991964 0.00128649 0 
0.0144391 0.00789838 0 
-0.00350822 -0.046139 0.065913 
-0.000208559 -0.000253463 0.000113711 
-9.12306e-05 0.000101053 0.000183545 
0.000163794 0.00145281 0.0375176 
-0.000144893 6.24356e-05 0.0344621 
0.0215797 0.068373 -0.0131214 
-0.0157306 0.0211927 0.0959772 
-0.0112956 -0.0191618 -0.0204928 
-0.0145057 -0.00304459 0.104223 
-0.00196577 -0.000499889 0.0683953 
0.00463238 0.00407815 0.0761679 
0.00153447 -0.00125637 0.0917402 
0.00133734 -0.00550481 0.0754056 
-0.00606759 0.00243778 0.0619705 
-0.0250026 -0.00915726 0.117533 
-0.0009417 -0.020405 0.142284 
-0.0165597 0.0159432 0.0777185 
0.00309066 0.00174037 0.0756202 
0.00397284 -0.000920845 0.0706789 
0.00805874 0.00115554 0.0676198 
0.00228343 0.00170592 0.0723666 
5.07266e-05 8.65872e-06 0.00132698 
-0.000158252 -1.32598e-05 0.0497589 
-0.000115452 -6.51376e-05 0.0309637 
-0.000335993 -0.000236972 0.0368298 
0.0134614 -0.00886412 0.0553992 
-0.00451687 0.00193159 0.0723799 
-0.0126201 0.00601887 0.0507433 
0.0020082 -0.00100716 0.061672 
0.00221986 -0.00148742 0.00277126 
-0.00276158 -0.00111963 -0.000821862 
-0.000299206 0.00266895 0.0431832 
0.00474336 0.0130319 0.0314742 
0.000128344 0.0123065 0.0880957 
0.00181671 -0.0304587 0.105206 
0.00471503 -0.00306077 0.035225 
0.0255105 0.0165158 0.118062 
0.000185552 0.000761227 0.000612871 
-0.000237861 -0.00108212 -0.00298947 
-0.000127722 -0.000537809 -0.000708623 
0.00251037 -0.00215776 0.0371973 
-0.00080057 0.00313693 0.0764991 
-0.0048683 0.0041309 0.0733886 
-0.00185307 0.00214367 0.071135 
-0.00126297 0.00100177 0.0798203 
-0.00790882 0.00317046 0.251294 
0.00453632 0.00167991 0.213269 
-0.00314271 -0.00186132 0.266764 
0.106042 0.065223 0.158896 
0.00108666 -0.0618953 0.0641036 
-0.0360588 -0.0473553 0.0581187 
0.0103403 -0.0418204 0.168753 
0.024595 0.0350206 -0.0213388 
-0.00047506 5.45817e-05 0.000873079 
-0.00060701 6.05818e-05 0.000413781 
-0.000205276 2.42408e-05 0.000427501 
0.00114208 0.000416127 0.0480885 
-0.000935126 -0.00214121 0.0568229 
0.0017335 -0.0003075 0.0357723 
-0.000309678 0.000401654 0.00064171 
-0.00364728 0.00121061 0.0426698 
2.91235e-05 -0.000173992 0.0431787 
-0.000205241 -0.000122693 0.0514481 
1.48e-05 0.000142374 0.0590462 
-0.000198946 0.00180689 0.0546497 
-0.00501228 -0.0191835 0 
0.00430094 -0.0154243 0 
-0.0209096 0.0189758 0 
-0.0195675 0.0389583 0.0401284 
-0.000148642 -0.000226071 0.0209364 
-0.000249833 -0.000118374 0.000500099 
8.55263e-05 -6.74259e-05 0.0254585 
-6.89186e-05 -0.000334773 0.0384683 
-0.0153901 0.00632713 0.0592912 
-0.0170905 0.00340936 0.0897646 
-0.0387713 0.058683 0.0714895 
0.015403 0.0239054 0.0123393 
0.00662151 -0.00422979 0.0613327 
-0.00717802 0.0207075 0.0825118 
-0.0193337 -0.000523266 0.0373542 
-0.00315987 0.0065122 0.0666044 
0.00055692 9.89779e-05 0.0657915 
-0.00029885 0.000266857 0.0463766 
-3.26255e-05 -0.00036889 0.0492031 
0.000274965 -0.00123215 0.0370809 
-0.0219191 0.0281101 -0.032126 
-0.0320668 -0.0469625 0.115135 
-0.0467138 -0.0181615 0.0226009 
0.00815733 -0.0303351 0.0477087 
-1.98247e-05 0.000515962 0.00150244 
-0.000430813 -0.00162435 0.0485098 
0.000214616 7.27978e-05 0.000896839 
-0.000878282 -0.000674294 0.0464845 
0.00799861 -0.0129516 -0.00928134 
-0.0111635 0.0184722 0.0613386 
-0.00883367 0.0209254 0.0307924 
-0.00693825 0.000904243 0.0314674 
-0.0144421 -0.0336615 0.0519316 
0.0172911 0.00729523 0.0613837 
0.00371798 0.00997568 0.00365298 
-0.0532927 0.0420817 0.0731889 
0.000243836 -0.000460274 0.0357307 
0.000444164 -8.49126e-05 0.0418637 
0.000565404 0.00044473 0.0363411 
-0.000684958 0.000984775 0.060159 
-0.00020666 0.000141662 -6.73655e-05 
0.000152654 -0.000143735 0.000916437 
-2.59572e-05 1.30059e-05 9.76705e-05 
0.000198922 -0.000388185 0.0377697 
-0.0287581 0.0188296 -0.0028049 
-0.0565565 0.0295918 0.105741 
0.00845542 -0.017268 -0.0109232 
0.0729498 -0.0258529 0.0446409 
-2.49357e-05 0.000135012 0.0011591 
-0.000396603 -0.0015342 0.0458678 
-4.14174e-05 -0.000844669 0.0481906 
-7.20038e-05 0.000360148 0.0355756 
0.00419511 -0.00497433 -0.00997777 
-0.0120958 0.0203601 0.0216488 
-0.00146508 0.00258009 -0.00308013 
0.00923062 -0.00844962 0.0287598 
0.000523865 -0.000510281 0.000114979 
-2.45072e-05 2.83947e-05 0.000554139 
-9.51083e-05 9.9343e-05 0.000808076 
-0.000423553 -0.000211195 0.0356282 
0.000941027 0.000324288 0.000657061 
0.000102394 -0.00153748 0.0505822 
-2.89681e-05 0.000688987 0.000656181 
0.0010949 -0.000589804 0.0382816 
0.000369191 -9.92628e-06 0.0574541 
5.42593e-06 -0.000114772 0.0704557 
-2.24015e-05 7.32016e-05 0.0689941 
-0.00230235 -0.000870644 0.0720156 
0.00813396 -0.00453678 0.0707135 
-0.00642838 0.00318542 0.0403572 
0.00530512 0.00203318 0.0615013 
0.00231629 -0.00192593 0.062937 
0.0070942 -0.0211884 0 
0.00753724 0.0176609 0 
-0.0229297 -0.0136311 0 
0.0114153 -0.00682538 0.048864 
0.000754815 -0.00243104 -0.012826 
-0.0279479 -0.0197775 0.0607695 
0.00523147 0.00293341 0.0245475 
0.0186695 0.00420507 0.00670867 
-0.00518775 -0.00926061 -0.0157955 
0.00639179 -0.0441165 0.103802 
0.000325769 -0.0709891 0.00262287 
0.0241375 0.0162172 0.066392 
-0.000257821 -0.000718473 0.000748023 
4.98871e-05 1.36602e-05 0.000294951 
0.000215936 -0.00108369 0.0400699 
-0.000651093 0.000595474 0.0387404 
-0.00118719 0.000733309 -0.00175527 
-0.00111557 0.000516931 0.0421411 
0.00168565 -0.000134663 0.053432 
-0.0103837 -0.00983036 0.0238135 
0.000828711 -0.00204568 0.00183434 
-0.0019025 0.00263997 0.0391811 
0.0028432 0.000152834 0.050906 
0.00178769 0.00270548 0.0339598 
8.66329e-05 0.000639568 0.00125172 
-0.000633315 -0.000258576 0.0383933 
-0.000780663 -0.00115086 0.054321 
-3.89518e-05 -0.000220052 0.0356945 
0.0430363 -0.0574964 0.0966902 
0.0165622 0.0375364 0.218561 
0.0498513 -0.00403496 0.128785 
0.0120296 -0.0387248 -0.035118 
-0.0143118 0.00267603 0.0534655 
-0.0245489 -0.0225174 0.14403 
0.0504914 -0.0030692 0.0441504 
0.00060546 -0.0243921 0.151568 
-0.00171467 0.00452677 0 
-0.00284622 0.00287274 0 
0.00112916 -0.00155787 0 
0.00816348 -0.0135285 0.0065374 
-6.88827e-06 7.89664e-05 0.0467974 
-0.000399196 0.00025803 0.0249778 
0.000811812 -0.000701754 0.0466811 
3.30229e-05 -0.000718557 0.036564 
0.00371587 0.00425313 0.000364661 
-0.015628 -0.00314589 0.040442 
-0.0175354 -0.0119629 0.0325935 
0.0024148 0.00541216 0.0423997 
-0.0166122 -0.0503823 -0.0508641 
-0.0576947 -0.0358328 0.0369037 
-0.0341608 0.0283993 0.171987 
-0.0441108 0.0306403 0.108978 
-0.0483642 0.00277487 0.0182371 
0.0681765 0.0309551 0.142979 
0.0870972 0.0207679 0.091497 
-0.0384988 0.0399956 0.0224262 
0.0157647 -0.0422908 0.153039 
-0.0147054 -0.0162123 0.196582 
0.00214872 0.0137906 0.267226 
0.0051983 -0.0770415 0.03942 
-0.000688082 0.000434736 0.00125388 
0.00044469 -0.000373866 0.0533148 
6.67148e-05 0.00105214 0.00110279 
0.000781446 -0.000408241 0.0358918 
0.00104777 -0.000707579 0.0509125 
0.00237176 0.000365302 0.0616903 
0.000691851 -0.000612221 0.0333055 
0.00310156 -7.14526e-05 0.0613803 
0.00339264 -0.000365786 -0.00738899 
0.00333911 0.00244512 -0.00169516 
-0.00674552 -0.00514294 0.0393423 
-0.0189932 -0.0144589 0.0348704 
7.81297e-05 2.2332e-05 0.0459433 
-2.48682e-05 -1.04743e-05 0.0476264 
-6.16595e-05 0.000259773 0.0633836 
-0.000547938 0.000587257 0.0467635 
-0.00304111 -0.000700348 -0.0145823 
-0.000878059 -0.00409928 -0.00161125 
0.00382553 0.0199797 0.0390713 
-0.00229236 0.0157869 0.034422 
0.00469416 -0.000831047 -0.00170993 
-0.0166873 -0.00168599 0.0324983 
-0.000400044 -0.00205835 -0.00130438 
-0.00571485 0.000922213 0.00912837 
0.00387929 -0.00864265 0.0505778 
-0.00410604 0.00845205 0.0494187 
-0.0140974 0.0214538 0.0636382 
2.39298e-05 -0.00156423 0.0750014 
-0.0013886 -0.0591794 0.13363 
-0.0170022 -0.0133974 -0.0484332 
-0.0415591 -0.039171 0.0971948 
-0.00287393 -0.00955923 0.220014 
-5.90993e-05 4.18639e-05 0.0801134 
0.000130531 6.49213e-05 0.0706454 
4.48824e-05 -0.000145457 0.0791713 
-0.00246581 -0.00103851 0.0713536 
0.00199262 0.00693656 0.0581912 
-0.0124968 -6.31939e-05 0.0420882 
-0.00602043 -0.00087675 0.074389 
-0.00565062 -0.00579645 0.0575345 
0.00684648 0.000154012 0.0697501 
0.00305263 0.00294701 0.0672696 
0.00401391 0.00167939 0.0627779 
0.00216415 0.00118058 0.0618325 
-0.00140379 0.00211869 0.0708275 
-0.00145861 0.000554034 0.0659313 
-0.00387833 0.000880009 0.074757 
-0.00496964 0.00191888 0.0662778 
-0.039045 0.0471112 0.0875921 
-0.0316321 -0.0242272 0.00399181 
0.0298967 0.0428441 0.0381098 
-0.0443822 0.0389659 0.164595 
-0.000632978 -0.000564759 0.048122 
0.00171068 -0.00292576 0.0662986 
-0.000862393 -0.00812193 0.0716999 
-0.00162489 -0.00565622 0.0652897 
0.00111423 0.000590664 0.00164569 
-0.000551526 0.000798434 0.0343525 
-0.000368649 0.000159181 0.0527088 
0.000561735 -0.000495481 0.0358925 
0.000212004 9.37012e-05 0.0468709 
-0.000139261 -0.00115952 0.0460475 
0.000441959 -0.000269595 0.0559283 
-0.000569162 -0.000834504 0.0358785 
0.00014157 0.00204184 0.0554715 
-0.000232093 -0.000103312 0.0393581 
0.000176824 0.00459477 0.0661036 
-0.000340002 0.00297119 0.060151 
-0.0135596 0.0205798 0.0624825 
-0.00719639 0.01061 0.0538968 
0.00391493 -0.00756343 0.0513598 
0.00794012 -0.0102541 0.00509418 
-0.0674964 0.00705626 0.091903 
0.0183011 -0.0467781 0.0747266 
0.00465389 0.0305843 0.00849921 
-0.056592 -0.0082231 0.149748 
-0.000822031 -0.00133518 0.0530858 
-0.00301083 -0.00540899 0.0716013 
-0.00152997 -0.000787205 0.0610167 
-0.0022765 -0.00261509 0.0606529 
0.000245027 -8.99508e-05 0.0014405 
-0.00107917 -0.000560959 0.0496913 
-0.000441861 -0.000600439 0.0371514 
-0.000340885 7.48239e-05 0.0368562 
-0.000168636 0.00030995 0.000279846 
0.000536412 0.000263315 0.000701363 
-0.000487387 6.01509e-05 0.0446794 
0.00132017 -0.000726269 0.0324261 
-8.48539e-05 -0.000277519 4.26797e-05 
-0.000533831 -0.000191302 0.00102651 
-1.42848e-05 0.000454505 0.0366295 
0.00065272 0.000877297 0.037943 
0.0247679 0.0131429 0.185093 
0.0442351 -0.0139087 0.0222745 
0.00587008 -1.0756e-05 0.115302 
0.00136093 0.0486028 0.0508431 
-0.0575329 0.0083848 0.115242 
0.00753792 -0.05453 0.0194581 
-0.023274 0.00695257 0.0314468 
-0.0493546 0.0090392 0.167053 
-0.00589455 0.00394447 0.0706473 
-0.000580795 -0.00216089 0.0509254 
0.00900969 -0.0138153 0.0411621 
-0.00315285 0.00818298 0.0645171 
0.00288902 0.00116672 0.0634281 
0.00239321 0.00243385 0.0569263 
0.0043621 -0.0016768 0.0615905 
0.00821183 -0.001795 0.0721318 
0.00640894 0.00278342 0.0653017 
0.0067945 0.00543145 0.0686918 
0.00510672 0.000885656 0.0685292 
0.0130708 0.00466861 0.0678707 
-0.000190764 -0.000118349 0.0502526 
-0.000178587 0.00177018 0.056004 
-0.000125384 0.00061247 0.0368902 
-0.000486719 0.00143902 0.0701151 
-0.00106566 -0.00704493 0.0559403 
-0.00199733 -0.00324178 0.0736485 
-0.000863314 0.0054355 0.0734987 
-0.000594234 -0.00949593 0.0544223 
-0.00469009 -0.00593365 -0.0246389 
-0.0284856 -0.000988847 0.0489796 
5.52911e-05 0.00362214 -0.0051242 
-0.0407089 0.00664612 0.062337 
-1.26334e-05 2.89041e-06 0.00100882 
-7.09175e-06 9.82592e-05 -1.79082e-05 
1.13366e-05 -0.000117518 -0.000210504 
4.62359e-05 0.000279891 0.0417297 
-0.0470379 0.0147238 0.125341 
-0.0365127 0.0455092 0.113344 
-0.0109749 0.0106326 0.280452 
-0.0463519 -0.0167891 -0.0693975 
0.000337815 -0.00256717 0.0680946 
0.0094398 0.00037703 0.0713945 
0.0167547 0.0022699 0.0574615 
0.00814423 -0.00273551 0.0583737 
0.0055265 -0.00181073 -0.00592094 
0.00507183 -0.00386332 -0.0042999 
0.00305566 -0.000927504 -0.0010689 
-0.0200773 -0.00618594 0.023603 
0.0114794 -0.00680727 0.265848 
0.0120987 -0.0321883 0.196473 
-0.0898882 -0.0421962 0.0978162 
0.0107651 0.00544815 0.181966 
-0.0268854 -0.002641 0.0507659 
-0.00815235 -0.0214285 -0.0134649 
-0.054299 0.0112773 0.116496 
-0.0497909 0.0130991 0.0835447 
-0.00124102 0.000548012 0.0528661 
-0.00557387 0.000484399 0.0697031 
-0.00183302 -0.000368717 0.0633192 
-0.00471056 0.00232289 0.0674166 
-0.00764584 -0.00172185 -0.0117529 
0.00395459 -0.00735551 -0.00778445 
0.0307124 0.0277916 0.043896 
-0.0127404 -0.0131591 0.0136125 
-4.39033e-05 -0.00107139 0.0497777 
-0.000229715 -0.00011586 0.0372687 
-0.000108537 -0.00075739 0.0587874 
-8.2399e-05 0.000282443 0.0323469 
-0.000478752 -1.46922e-05 0.0471852 
0.00202681 0.00602912 0.0689864 
0.000538781 0.00404021 0.0690926 
0.00152589 0.00256705 0.0613524 
0.000504904 -0.00424631 0.0760094 
-0.000220985 -0.0149223 0.0630211 
-0.00231438 -0.0232669 0.0694165 
0.00423782 -0.00624122 0.0670251 
-0.0015833 -0.0141919 0.0667181 
0.00620727 -0.0138973 0.151826 
-0.0219885 -0.0137283 0.0404134 
0.00455632 -0.0330268 0.0104797 
0.00588106 -0.00422578 0.0577306 
0.0157649 -0.00716343 0.061408 
-0.0179158 0.00465754 0.0462521 
0.0144249 -0.0108234 0.0232348 
0.00265187 0.00253393 -0.00352792 
-0.00216395 0.0048115 0.0599938 
-0.00139913 -0.000846767 0.049019 
0.00189062 0.00119108 0.0521173 
-0.00180624 0.000176589 0.0647935 
-0.00431727 0.00252756 0.0664659 
-0.00163478 0.00193241 0.0713324 
-0.000908328 0.000302001 0.0604273 
-0.000432064 0.000395756 0.0010394 
-0.000909086 0.000657003 0.0474508 
0.000489504 -0.000531892 -0.000125107 
-0.00210278 0.000903175 0.0417372 
0.00162307 -0.00173105 0.0580357 
0.000437953 -0.00267475 0.0535592 
0.000145245 -0.000629371 0.0489213 
0.00296684 -0.00306893 0.0726608 
0.000506579 -0.000128299 0.000899157 
0.000270045 -6.99423e-05 0.000131942 
-0.000352225 9.60288e-05 0.000904718 
-0.000898352 0.000834927 0.0475009 
-0.0136855 -0.007183 0.0340725 
0.0205078 0.0110489 0.0684927 
-0.00568325 -0.00739706 0.00333612 
0.0284234 0.0325171 0.0987157 
-0.000663808 0.000304325 -0.0007196 
0.000483373 -0.000273722 -0.00110594 
3.98271e-05 -1.12376e-05 0.000262758 
0.0012466 0.00172349 0.0394301 
-0.00269803 -5.47835e-05 0.0724576 
-0.0017967 0.00019917 0.0648618 
-0.00188858 -0.000873314 0.0548155 
-0.00534644 -0.00049552 0.0678802 
0.00281399 0.0055275 0.0521674 
0.00123448 0.0106663 0.0616796 
0.0108957 0.018218 0.0493393 
0.0126313 0.0119694 0.0685055 
0.0255823 0.00906889 0 
-0.0286753 0.00530209 0 
0.0224626 -0.00590999 0 
0.0328494 0.0409456 0.0725751 
0.00200768 0.00245714 0.0463551 
0.00265473 -0.000480899 0.04613 
-0.000457166 -0.0013976 0.0377897 
-0.00386456 -0.00403539 0.0610992 
-0.0032227 -0.00529926 -0.0191834 
-0.00235105 -0.00529468 0.0268135 
-0.0257313 0.000158798 0.0574221 
-0.0422232 0.00563141 0.0416907 
0.000154574 -0.000652924 0 
0.00176771 0.004026 0 
0.00231562 -0.00439416 0 
-0.00379619 0.00156889 0.00163644 
-0.0153156 0.00527661 0.0423335 
0.0108162 -0.0132696 0.029282 
0.0135033 -0.00653927 0.0643703 
0.0150921 -0.00792061 0.0201007 
-0.000556128 -0.000774903 0.049479 
-0.000538756 0.00495172 0.0657709 
0.000215313 -0.00118918 0.0394833 
0.00174628 0.00457198 0.0613744 
-0.00429789 0.000438116 0.0849879 
-0.00997999 -0.0133803 0.0707101 
-0.00298163 0.00518282 0.0646259 
0.00572058 0.0091281 0.0451001 
-0.000598571 -0.0018942 0.000351794 
0.00253937 -0.00140123 -0.00419996 
-0.00156995 -0.00127184 0.0018652 
-0.00465361 -0.000686366 0.00335123 
0.00288561 -0.00306066 0.070374 
0.00176446 -0.0015751 0.0808188 
0.00239498 -0.0010312 0.0736975 
-3.85996e-05 -0.000464766 0.0629259 
0.00673633 -0.00323822 0.068819 
0.00638218 0.00287735 0.0681863 
0.00433106 -0.00218616 0.0691282 
0.0116826 -0.00711062 0.0633688 
0.00109789 0.00165889 0.000947746 
-0.00246947 0.001221 0.0353527 
0.0033862 -0.0015308 -0.000503695 
-0.00789353 0.00920423 0.0225511 
0.0205985 -0.0115108 0.107481 
0.00157674 -0.000127866 0.0305504 
0.0187596 0.00175823 0.0291697 
0.011408 -0.00575871 0.0423328 
0.0320102 0.022133 0.011977 
-0.0182737 0.00710424 0.0562395 
-0.0140014 -0.0109367 -0.0262704 
0.0377011 0.0395903 0.0890428 
0.000251886 -0.000217689 0.0524312 
-0.000302304 -0.000116337 0.0368191 
-0.0010131 -0.00124692 0.0518771 
-0.00124817 -0.00134963 0.0632802 
-0.00494997 0.000143673 -0.0126587 
0.00738818 -0.0147716 0.0332337 
-0.00503677 -0.00315464 -0.00642889 
-0.00516225 0.00283827 0.0233565 
0.00447076 -0.0198542 0 
0.0231976 0.0149401 0 
-0.00816011 -0.0162691 0 
0.0275862 0.0420791 0.0411218 
-2.04331e-05 0.000589406 0.0508546 
0.000795096 -0.00207034 0.0717001 
0.000982436 -0.00190192 0.0571891 
0.000833035 -0.00113568 0.0617846 
0.0929414 -0.0193731 0.164783 
0.0196001 0.0259902 0.0349729 
0.0863046 -0.0255241 0.227988 
-0.0650281 0.0634329 -0.0283221 
0.000623994 -0.00200664 0.0713852 
0.00177709 -0.00161205 0.0810932 
0.00260121 -0.00287997 0.0703688 
0.000333905 -0.000671297 0.0626471 
-0.00115283 -0.00246721 -0.000432972 
-0.000170838 0.00349881 -0.00241264 
-0.00199102 -0.00100346 -0.00125746 
0.00832983 0.000551358 0.0179595 
-0.00107504 -0.00147366 0.0527964 
-0.000766269 -0.00221001 0.0662492 
0.000170404 0.000202483 0.052251 
-0.00113843 -0.00155403 0.0628238 
0.000679275 -6.47723e-05 0.00119122 
-0.000544321 0.000169006 0.0517912 
0.000546291 -0.000879608 0.00148497 
-0.000661696 -0.000250567 0.0358358 
0.00403025 0.0025254 -0.0050532 
0.00238854 0.00374673 -0.00107656 
-0.00383379 -0.00175561 0.00168204 
-0.0359379 -0.0138387 0.0532854 
0.0205379 -0.0294374 0.253911 
0.044449 -0.0432509 0.0754162 
-0.00489794 -0.00118771 0.111551 
0.00488258 0.0314511 0.170395 
-0.00218103 0.000160004 0.0531739 
-0.00453421 0.000496185 0.072076 
-0.00139015 0.000693427 0.0520182 
-0.000140174 0.000881207 0.0400327 
-3.54267e-06 -0.00697755 0.0696395 
0.000556711 -0.00422189 0.0671037 
-2.46715e-05 -0.00306513 0.0721147 
0.00201566 -0.00834262 0.073104 
-0.00505363 0.00454304 0.0692515 
-0.00126832 0.00243559 0.0612591 
0.00269997 -0.0027435 0.0468011 
-0.00680688 0.00576316 0.0685144 
0.0019898 0.00745188 0.067628 
0.00745793 0.00576775 0.0687214 
0.00317999 0.00456944 0.0730404 
0.00209747 0.00268557 0.0689573 
-0.00687307 -0.00201266 0.0437263 
-0.0175129 -0.0101192 0.0596332 
0.0113296 -0.0505636 0.0831872 
-0.00291402 -0.0163147 0.0174529 
0.000251144 0.00130283 0.0601958 
0.000515537 0.00121699 0.061889 
-0.00012265 -0.000127711 0.0368141 
0.00148347 0.00252777 0.0613982 
-0.00493174 0.00128865 -0.0150852 
0.0120897 -0.00849286 0.0288533 
-0.024306 0.0122766 0.0395463 
0.0137163 -0.0100216 0.020127 
-0.00207394 -0.0038194 0.0761056 
-0.000498673 -0.00235505 0.0668073 
0.000374969 -0.00243942 0.0728057 
-0.000708732 -0.00480565 0.0639256 
5.76793e-05 5.98841e-05 -0.000243091 
0.000324558 -6.5497e-05 0.0243702 
-0.000307916 4.31599e-05 0.00109982 
0.000279546 -0.00011066 0.0376934 
0.000107022 0.000211898 -0.000257238 
9.51011e-05 0.000182296 0.00114217 
9.03653e-06 1.56007e-05 0.000501779 
-0.00124984 -0.00135724 0.0371993 
-0.0087269 -0.0136125 -0.0152524 
-0.0143207 0.00779973 -0.0282132 
0.0256861 0.0078218 0.0561653 
0.0428063 0.0632176 0.136551 
-0.00567034 0.0147333 0 
-0.0137444 0.0084587 0 
0.0240951 0.00505282 0 
0.0463729 -0.0166132 0.0361808 
0.000683975 -0.00665586 0.07468 
-1.77972e-05 0.00349154 0.0522506 
0.00663498 -0.0104352 0.0520419 
0.00170085 -0.00367624 0.0367823 
0.00309725 -0.0379075 0.221199 
0.0102088 -0.00688521 0.26554 
0.00464561 -0.0357769 0.235797 
0.0271719 0.115914 0.224742 
-0.000666134 0.000254097 0.000994804 
0.000840056 -0.00103791 0.0495841 
-0.000324453 7.37851e-05 0.000260357 
0.000399893 -7.0767e-05 0.0386239 
-0.000441808 0.00154243 -0.0148585 
-0.0163075 0.0182205 0.0285011 
-0.00971107 0.00582063 0.0370528 
-0.00442161 0.000751265 0.0312632 
-0.00809993 0.00642252 0.0720452 
7.21722e-05 0.00127658 0.0450167 
0.00300668 -0.00762697 0.0618129 
-0.00256296 0.000215968 0.0505675 
0.00116174 -0.00238033 -0.00184356 
-0.0105641 -0.00797797 0.0205224 
0.00202667 0.0026376 0.00117138 
-0.00151955 -5.11428e-05 0.0277981 
-0.021849 0.000155436 0.0625991 
-0.00289315 -0.00201304 0.0638754 
-0.00658743 -0.00137123 0.0678173 
-0.0194402 0.00260501 0.0763594 
-0.000478256 0.0161135 -0.0043903 
0.00712094 0.011225 -0.00427261 
0.00727331 -0.0196126 0.0226126 
0.00781108 -0.0208195 0.0155492 
-0.00789625 -0.00113521 -0.0183897 
0.0346773 -0.000993893 0.0522224 
-0.00166989 0.00156401 -0.000207265 
0.016019 0.0138143 0.0355022 
0.00291538 0.0330516 0 
-0.0059948 -0.00994629 0 
0.00180194 -0.0323062 0 
-0.0173656 0.0647955 0.0560346 
6.06828e-05 0.00062133 0.0587291 
-0.000116721 -0.00282206 0.0728496 
0.000364584 3.71411e-05 0.0715243 
-0.000790635 -0.00230609 0.0661776 
-8.39116e-06 0.00104057 0.0471997 
-4.46741e-05 0.00182565 0.056455 
-0.000384515 0.00410354 0.0693588 
-0.000188027 0.00315415 0.0591583 
-0.000216741 0.00057982 0.00152727 
-0.00158287 -0.000244346 0.0384857 
0.000413016 -0.000333748 0.0474019 
-0.00242963 0.0019019 0.029648 
-0.0163896 4.43083e-05 0.0402382 
-0.00944856 -0.00933907 0.0313713 
0.00444926 0.00447519 0.0683259 
-0.000888521 -0.00134579 0.0284567 
-0.00295224 -0.00228058 0.00415761 
0.00489347 0.00150159 -0.00589016 
0.00718752 0.0015645 -0.00450806 
-0.0203947 -0.00136693 0.0208721 
-0.0342835 0.00509717 0.179758 
-0.0129623 -0.0407994 0.117108 
0.0274387 -0.103866 0.0340957 
0.0123422 -0.0113884 0.229222 
0.00816599 -0.0182859 0.099693 
0.00317507 -0.00615264 0.0499768 
0.0033782 0.00422649 0.057229 
0.0261694 0.00610317 0.0927832 
0.00746636 0.00687264 0.0531496 
0.00691644 0.00772394 0.0708721 
0.00205508 0.0108106 0.0618764 
0.0109615 0.0134371 0.0676576 
1.19771e-06 4.38817e-06 0.000310479 
2.84228e-05 4.22826e-05 0.000346412 
1.51703e-05 1.85694e-05 -0.000269004 
-7.75183e-06 -0.000949583 0.0376702 
0.00108546 0.000605583 -0.00275982 
-0.00355943 0.00669561 0.0127384 
-0.000633627 0.000256832 0.0074351 
-0.00197538 0.00123342 0.00663856 
0.000107417 -0.000101405 0.0480964 
-0.000235352 3.93769e-06 0.055582 
0.000293804 0.000133065 0.0322537 
-0.000843842 -0.000470701 0.0473875 
0.040626 0.0150258 0.0798195 
0.010694 0.0466335 0.16281 
-0.0105898 0.0636939 0.141954 
-0.0473315 0.0209623 0.0480636 
-0.00235678 0.00235119 0.0497078 
0.0200256 0.0209147 0.0663562 
0.00785634 0.00514188 0.0303803 
0.0136179 0.00749061 0.0666865 
0.000292529 0.000131606 0.000430492 
7.76209e-05 3.43333e-05 0.000246411 
7.68967e-05 3.50424e-05 1.25224e-05 
-0.0010752 0.000171301 0.0509547 
-0.00225355 0.00330283 0.0664961 
-0.00914085 0.00468814 0.0599709 
-0.00988528 0.0104887 0.0655496 
-0.014552 0.0143337 0.0765215 
0.00391945 0.00144429 -0.0155005 
-0.0273747 -0.00523083 0.0455268 
0.00816616 0.00675024 0.000190483 
-0.028171 -0.0137655 0.031787 
-0.0587672 0.0150326 0.231357 
-0.0544282 0.0137018 0.11082 
-0.0240602 0.00221327 0.0392017 
-0.0135675 -0.0491216 0.0563979 
0.0132828 -0.019385 0.0932203 
-0.01113 -0.000866263 0.0415658 
-5.1272e-05 0.00311707 0.0586714 
-0.0123801 -0.0127134 0.0402221 
0.00505032 0.0212817 0.0505533 
0.00491104 0.00984023 0.0607803 
-0.00227118 0.0177137 0.0613267 
-0.00624038 0.0140896 0.0753545 
0.000134908 0.000134618 0.0777633 
0.0001069 0.000165127 0.0721424 
0.000130031 -0.00307044 0.0720203 
-0.000133192 -0.00198147 0.0821773 
-0.0127145 -0.0116253 0.244741 
-0.0179651 0.00343427 0.264414 
-0.0396233 0.0391243 0.119301 
0.125998 0.0104374 0.185403 
0.000126329 -0.0076687 0.0704976 
0.000634493 -0.00307939 0.0721157 
-0.000869828 -0.00488592 0.0642832 
-0.00156862 -0.00831421 0.07192 
7.07468e-05 -0.000396499 0.0784038 
0.000727569 -0.00187317 0.0712611 
-0.00010111 1.78327e-05 0.0679715 
0.00162663 -0.00106761 0.0620696 
0.00250252 -0.00171129 0.0458126 
0.000502682 0.000225095 0.0408831 
-0.00363474 -0.00101183 0.0745105 
-0.00417166 -0.000543494 0.0612243 
-0.000112004 1.06647e-05 0.0482728 
0.00094809 -0.00173744 0.0577565 
0.001017 -0.00173579 0.0736581 
0.000210993 -0.000480972 0.0371638 
-0.000537277 0.00340851 0.0767781 
-0.00437596 0.00374408 0.0706669 
-0.00144336 0.00115576 0.0808619 
-0.00204385 0.00095777 0.0776241 
0.00110593 0.00863743 0.284601 
-0.051354 -0.00445707 0.170305 
0.0172937 0.0393672 0.182119 
0.0659565 0.00173162 0.120557 
-3.28293e-05 -0.000202927 0.00148568 
-0.000356686 5.61278e-05 0.0496761 
-0.000224071 -0.00011706 0.000719232 
-0.000941846 0.000915545 0.0365217 
-0.0153987 -0.0103606 0.0780084 
0.00731897 0.00712141 0.0589135 
-0.00972005 0.00630929 0.0745119 
-0.0152945 0.01126 0.0828902 
0.000238936 -0.000228768 0.0828847 
-0.00130475 -0.000553408 0.0817078 
1.08929e-05 -4.14759e-05 0.0850904 
-6.05184e-05 -0.00154613 0.0813747 
-0.00729292 -0.00585458 0.0488996 
-0.00355557 -0.00638024 0.00776784 
0.00144566 0.00473632 0.0462409 
0.0198365 0.0298892 0.0795376 
-0.000104811 -0.000188653 3.976e-05 
0.000100454 0.00035271 0.0369432 
-0.000212452 -4.18141e-05 0.000505786 
0.000564026 0.000812143 0.0375962 
-0.00341157 0.00352679 0 
-0.00374015 0.00165869 0 
0.00253487 -0.000801937 0 
0.0244902 -0.010213 0.00832036 
0.00296272 0.00246096 0.00234892 
-0.00140165 2.31292e-05 0.0467638 
-0.00285169 0.00187628 0.0548555 
-0.00335435 0.00268695 0.0299422 
0.00333792 -0.00341124 0.00119751 
0.00102077 -0.00271505 -0.00188689 
-0.00631797 0.0118603 0.05564 
-0.00504736 0.0135011 0.0289024 
0.00594558 -0.00520571 0 
0.0156613 0.0154738 0 
-0.0278353 -0.015317 0 
-0.0220654 -0.0443197 0.0503602 
-0.00420007 -0.00328614 -0.0011957 
0.012964 0.0116204 0.0269095 
-0.000858143 -0.00151178 0.000207498 
0.00599641 0.00427951 0.048838 
-0.000337626 0.00197082 0.0536472 
-0.00520857 -0.00163594 0.0712927 
-0.0145523 0.00122767 0.0487409 
-0.012681 0.00521519 0.06029 
0.000150357 -4.56618e-05 0.000863201 
-5.52444e-05 0.000537662 0.0408598 
0.000643106 0.000646599 0.0394085 
0.000404061 -0.000150903 0.0348922 
0.000487216 0.000634853 -0.0014376 
0.000494729 0.000883763 0.00228735 
-0.00144573 -0.00222164 -0.00102794 
-0.00492356 -0.00370232 0.00333647 
-0.00295868 0.00960794 -0.0118961 
-0.0117517 0.00907749 0.0738248 
-0.0115188 -0.00139009 -0.0120328 
-0.00584316 0.00101423 0.0470503 
-0.00780018 0.00045151 -0.0105408 
0.00143065 -0.00660856 0.0388601 
0.0114489 -0.0035647 -0.00468415 
0.0286544 -0.0339757 0.049343 
0.000108614 -0.000109807 0.0278288 
0.000281919 -0.000147358 0.0465374 
-0.000184478 3.73134e-06 0.029168 
0.000113282 -0.000246202 0.0351657 
0.000223388 7.25144e-05 0.0781298 
-1.51887e-05 -0.000111722 0.065423 
0.00216418 -0.000958939 0.0739711 
0.00107867 -0.00147831 0.061892 
-0.00602287 -0.0020869 0.0772198 
-0.0219691 -0.000256937 0.0506435 
-0.0171777 -0.0115021 0.0602092 
-0.011784 -0.00466976 0.055456 
-0.00700658 0.00437509 0.0880405 
0.0128113 -0.00843787 0.0267291 
-0.00263499 -0.0137025 0.0730125 
-0.0287327 -0.0433716 0.0667373 
-0.000167749 -7.15346e-05 0.000742631 
0.000311919 -0.000322488 0.0376942 
-6.55281e-05 1.95046e-05 0.0288755 
-0.000211163 0.000183849 0.0364308 
0.000384008 -0.00042621 0.0467089 
0.000908852 -0.00422586 0.0671544 
-0.00120233 -0.00127329 0.0481633 
-0.000712207 -0.00391552 0.0636271 
-0.000268207 0.0527132 0.0608957 
0.00139057 0.0439482 0.118697 
-0.0271862 0.0465947 0.0611668 
-0.00435909 -0.01275 -0.0473038 
-0.00266118 0.0118698 0.0524158 
0.0144943 0.0239411 0.0996415 
-0.00844713 0.0253445 0.0576801 
0.00399015 0.00510563 0.0669802 
0.0073159 0.000105492 0.0991486 
0.00659525 0.0122326 0.0774544 
0.00761107 -0.0133882 0.0564651 
-0.00298692 -0.0137907 0.0710254 
-0.00689155 0.000662873 0.0673287 
0.00424936 -0.00170477 0.0722119 
0.00165527 0.00156936 0.0637849 
-0.00473341 -0.0004352 0.0552177 
0.00140959 -0.00181081 0.0601001 
-0.0206698 0.000393087 0.0597246 
-0.0111957 -0.000282742 0.0612719 
-0.0247978 0.00240674 0.0805196 
0.000350385 -0.000710492 0.0781708 
-0.00409267 -0.000101104 0.0692949 
-0.00389208 0.00354687 0.0700118 
-0.00207141 0.000808925 0.0779005 
0.0413936 0.0296284 0.0747075 
0.0253529 0.0164094 0.0462228 
-0.012481 -0.00195124 0.045938 
-0.00469755 0.00159587 0.0237812 
-2.11841e-06 7.02724e-05 -6.00612e-05 
0.000253863 0.000113449 0.0257674 
-0.000231096 -0.000204278 0.000853181 
0.000407067 -9.32061e-05 0.0378708 
-0.000995226 -0.000284566 0.00117454 
-1.88535e-05 -0.000277689 0.000596056 
0.000913407 -0.00137302 0.0494592 
-9.80889e-05 0.000919706 0.038419 
-0.000171087 -0.000183368 0.0572647 
0.000304362 -4.20059e-05 0.0491752 
-0.00174921 0.000115044 0.0532006 
-0.00142071 0.000217843 0.0647522 
-0.00255288 -0.00162415 0.0425714 
-0.000337404 0.00141015 0.0330899 
0.00177419 -0.000946097 0.0630337 
0.000562224 -0.000151912 0.0326046 
0.00700987 0.000115882 0 
-0.00781912 0.0120618 0 
0.00241816 -0.00940251 0 
-0.0111981 0.0194866 0.0162457 
0.00270247 0.00708492 0.0675256 
-0.00230947 0.00810133 0.0694905 
0.00212054 0.0043013 0.0723784 
0.00277228 0.0111896 0.0666447 
0.000332486 2.83119e-05 0.0292158 
0.000129856 -0.000329918 -4.15882e-05 
-0.000575816 -0.000159338 0.000920726 
0.000228213 0.000200617 0.0445149 
-0.00489948 0.0028641 0.072489 
0.000152589 0.00157391 0.0462949 
-0.00110996 0.000869695 0.0447181 
-0.000938382 -3.47429e-05 0.0509145 
0.000272513 -0.000140762 0.0319886 
-0.000485314 0.000165676 0.0569705 
-8.86231e-05 5.68337e-06 0.0503483 
-0.000208009 -0.000532764 0.0365029 
0.00011753 -0.000356774 0.0276759 
-0.000225995 -0.000310317 0.0292914 
0.000521351 0.0002857 0.000987425 
7.98761e-05 -0.000170537 0.035397 
0.00222078 0.00681006 0.0672073 
0.00340568 0.00200191 0.0681984 
0.00332206 0.00659874 0.0741155 
0.000634221 0.00152467 0.0634564 
0.000153777 -0.000146176 0.025727 
-4.69372e-05 0.000260005 0.0421138 
-0.000226159 -0.000242225 0.0206969 
-0.0002227 -0.000149054 0.0378582 
-0.0199542 0.0335446 0.0168223 
-0.0310523 0.0171268 0.112603 
-0.0379781 0.00398305 0.0199226 
0.0482526 -0.0143847 0.0152178 
-9.22268e-05 6.32088e-05 0.0252881 
0.00010192 -0.000211703 0.0411971 
-2.16874e-05 0.000113022 0.000727286 
-0.00013868 0.000516462 0.0345766 
0.000386184 -0.000872738 0.0777471 
-0.00395233 0.00365247 0.0701766 
-0.00141145 0.00373598 0.0692813 
-0.00190908 0.000694387 0.0780135 
-0.000355685 0.00302475 0.0621952 
0.00372288 -0.000232621 0.0328105 
0.0125744 0.0210474 0.0333173 
-0.00775615 -0.0126679 0.0332502 
0.000311059 0.000122248 0.0774722 
0.000129254 -0.00211742 0.0817914 
-0.000237705 -0.00313267 0.0726638 
0.000776111 -0.00212222 0.0720455 
0.00035932 -0.00300325 -0.00688887 
0.0139042 0.00402453 0.0267279 
-0.00734623 -0.0100897 -0.0194952 
0.0443771 -0.017945 0.0656977 
-6.06601e-05 -4.14916e-05 0.000991951 
-7.89611e-05 -5.38125e-05 0.000446886 
0.000201425 0.000137118 -0.00047545 
-0.000790023 0.000570128 0.0450881 
0.0169742 0.0117931 0 
-0.0106669 -0.0106375 0 
0.0132014 -0.000135042 0 
0.0407978 0.0331432 0.0488939 
-0.000135709 -1.10292e-05 0.000115328 
1.99068e-05 1.61784e-06 0.000370609 
-2.78076e-05 -2.25995e-06 0.000623178 
-9.07164e-05 0.000439352 0.0368876 
2.26949e-05 -0.000278194 0.000605306 
4.39994e-06 -5.39346e-05 -0.000378975 
7.21998e-06 -8.85026e-05 0.000505934 
0.000207893 0.000442935 0.0334221 
-0.0131536 0.0108197 0 
-0.0099636 0.00187205 0 
0.0122687 -0.0105272 0 
-0.0513061 0.0338889 0.0467951 
-3.67391e-05 0.000692102 0.000919235 
0.000301493 0.000155948 0.000135266 
-0.000334995 -9.32182e-05 0.0208446 
-0.000227427 -0.00115906 0.0392839 
-8.31455e-06 -0.000265966 0.0474289 
-0.000815276 -0.000225265 0.0482068 
0.000437201 7.07092e-05 0.03223 
-0.000410737 -0.000498037 0.0362412 
0.00408404 -0.00760931 0.108188 
-0.0483636 -0.044545 0.0962095 
-0.0347037 -0.00995387 0.224935 
0.0193083 0.036983 0.189277 
0.000272972 0.000634615 -0.00148661 
-8.34612e-05 -0.000105569 0.0040589 
-0.000785293 -0.00194554 -0.000606825 
-0.00128735 0.00159218 0.00837226 
0.00295576 0.00165218 0.0742051 
0.00672065 0.00637567 0.0692542 
0.00646005 0.00114287 0.0688575 
0.00287432 0.00243251 0.0681038 
-0.00508772 0.00446872 0.0699511 
-0.00406054 0.00264059 0.0695966 
-0.0124748 0.00426307 0.0638641 
-0.00927461 0.0103698 0.0699173 
0.000432015 -2.93016e-05 0.0829034 
0.000337235 0.00128432 0.0806619 
-0.00135373 0.00113174 0.0808117 
0.000257641 0.00161882 0.0791632 
-0.01427 0.00433131 0 
0.00817343 0.00524785 0 
-0.00739566 0.000159801 0 
0.00625498 0.00252485 0.0310619 
-0.000190408 0.000189986 0.000202533 
0.000246942 -0.000214736 -3.34856e-05 
-0.000625899 -0.00019101 0.0356445 
0.000118622 -0.00104811 0.0374566 
-0.000101285 -0.00466345 0.0788392 
-0.0102925 -0.00994871 0.07278 
-0.00592293 -0.0059849 0.0678959 
-0.0021987 -0.00227441 0.0589699 
5.65518e-05 9.73696e-05 -0.00344879 
8.45579e-05 -0.000383926 0.00271484 
0.00173071 -0.00407789 -0.000628389 
-0.0051864 -0.00064477 0.0169157 
-0.00175222 0.000696375 0.048967 
-0.000168585 -0.00116391 0.0367461 
0.00036609 0.00210463 0.0565635 
-0.000523063 0.00350505 0.0701969 
-6.25079e-05 2.18734e-05 0.0708551 
-0.00223929 -0.00114256 0.0718524 
0.000609724 0.000282884 0.0560812 
-0.00113036 -0.00123781 0.0629055 
0.0315095 -0.0163947 0.143116 
0.0118701 -0.030286 0.142685 
-0.00392786 -0.00636318 0.245671 
0.0392968 0.0712063 0.209036 
-0.0148275 0.0100162 -0.0259327 
0.00621799 -0.0268252 0.076976 
-0.00825198 -0.0291269 0.014223 
0.00531629 -0.0202413 0.0270614 
0.000109301 -5.28248e-05 0.0837493 
0.000338025 -0.000388636 0.0831182 
-0.000210609 4.29081e-05 0.0846954 
1.32441e-05 -0.0014653 0.0814557 
0.000549588 4.91381e-05 0.0831357 
0.000450951 0.00137426 0.079021 
-0.00165783 0.00123985 0.0806472 
-0.00189782 0.000858299 0.0780451 
-0.000359987 -2.09371e-05 -0.000118652 
0.000331323 -0.000247574 0.000149932 
0.000593179 -0.00032786 0.0488811 
-0.00105814 0.000386997 0.0383108 
-0.0121126 -0.0045094 0.0722681 
-0.00315367 -0.000119129 0.0687913 
-0.0176775 -0.000843443 0.0514759 
-0.00731527 -0.00391135 0.0579088 
-0.0137254 0.00193029 0.287885 
-0.01761 -0.0176496 0.248518 
-0.0876335 0.0352165 0.0196152 
-0.00228057 -0.0557531 0.16478 
0.000297301 0.00165683 -0.00358892 
-0.0004385 0.00142555 0.000181613 
0.007579 -0.00283033 0.0318305 
0.00200632 -0.00283353 0.040245 
0.00054511 0.000143165 0.000446005 
0.000286142 8.16953e-05 -0.00103716 
-0.000324526 -9.02166e-05 0.000702767 
0.000530537 -0.00134215 0.0508106 
-0.000125426 0.000386446 0.0650642 
9.15812e-05 -0.000208586 0.071229 
-9.55447e-05 0.000328787 0.0558784 
0.00019582 -0.00272214 0.0732498 
-0.00329966 0.00151247 0.0497881 
-0.0043763 0.00714094 0.073945 
-0.000865607 -0.000472631 0.0448733 
0.000799405 0.00311267 0.0636746 
7.75939e-05 0.00128353 0.0694659 
0.000449394 -0.00240513 0.0964429 
0.00388654 0.00354948 0.0725816 
-0.00530249 0.00361072 0.0747899 
0.023125 -0.00468829 0 
-0.0125103 0.016989 0 
-0.00464371 0.00935168 0 
0.0314176 -0.00384381 0.0265984 
0.00173056 -0.000351733 0.0627673 
0.000411161 0.000788667 0.0333109 
0.00112221 -0.000628197 0.0510439 
0.000592257 -0.000714323 0.0328576 
-0.00288469 -0.00218854 0.0397663 
-0.00230191 -0.000613942 0.0304595 
0.00142876 -7.47069e-05 0.0325398 
0.00308844 -0.000169483 0.0638863 
-0.00267958 -0.00548893 0.00254331 
-0.0184266 -0.0482024 0.0619443 
0.00468524 0.00895916 -0.0167796 
-0.0113882 -0.00291883 0.0290244 
-0.00052748 -0.000260519 0.000854216 
0.000289801 0.000124538 0.0258236 
-9.73463e-05 -0.000180891 0.029163 
0.000468026 -0.000113265 0.0374535 
-7.85652e-05 -1.97273e-05 0.082928 
0.00038777 -0.000157931 0.0845542 
-9.02856e-05 0.00112809 0.0809782 
-0.00107981 0.00109245 0.0807756 
-0.000631466 0.000497697 -0.000607122 
-0.000313148 -0.000213574 -0.00328485 
0.00251458 -0.00307241 0.0512454 
0.00159063 -0.00186423 0.0414962 
0.00960382 -0.00787522 0 
0.00227902 0.0169198 0 
0.00517558 -0.0113649 0 
-0.00829201 0.0392462 0.0211496 
-0.000364395 -0.000292092 0.0509184 
6.02387e-05 -9.31463e-05 0.0463662 
0.00021428 0.000206023 0.0624092 
-0.000256843 0.00100697 0.0700292 
0.00306839 0.00515177 0.272174 
0.0314819 -0.0105644 0.0871342 
-0.0187396 -0.0304911 0.15147 
0.0964658 -0.057177 0.0263003 
-0.00262501 -0.00358286 0.069222 
-0.00460859 0.00363995 0.0673979 
-0.00147969 -0.00106028 0.0490445 
-0.00810481 0.00443206 0.0796171 
0.0138122 -1.66829e-05 0 
-0.0145933 0.00702909 0 
-0.00720651 -0.00376787 0 
-0.038919 0.0223264 0.0296649 
-0.0117285 -0.0177112 0.0759732 
0.0124137 0.00486224 0.11625 
0.031114 -0.0148312 0.0611989 
-0.0279171 0.00992341 0.094994 
-0.000255211 6.16399e-05 0.0575262 
0.000806104 0.000648304 0.0368991 
0.000119851 0.00133742 0.0602065 
0.000619394 0.000985681 0.0618485 
0.00226428 0.00420284 0.0459972 
-0.00356182 0.00761258 0.0708869 
-0.00028337 -0.00810749 0.054809 
0.000528441 -0.0153558 0.0574014 
-6.27193e-05 -0.000589543 0.00157244 
4.21175e-05 0.000144954 0.0514598 
-0.000335363 -0.000226019 0.035654 
-4.53134e-05 -3.15215e-05 0.032028 
0.00579472 -0.00120611 -0.00443271 
0.000140947 -0.00113444 0.00106297 
0.000193735 -0.000589477 -0.0012574 
-0.0117141 -0.0113716 0.0136599 
0.000873568 -0.00122556 0.0491552 
0.00121701 -0.000454911 0.0594209 
0.00293591 -0.00215183 0.0721267 
0.00318412 -0.00082658 0.0671671 
-0.000140328 0.00144896 -0.00240826 
-3.95483e-05 0.000498805 -0.00015359 
9.27628e-05 -0.00196326 -0.00424551 
-0.00459643 -0.00451564 0.0397124 
-0.00560324 -0.0106528 0.0738584 
0.00186063 -0.00297277 0.0467532 
-0.00543064 0.00792721 0.064319 
-0.0106264 0.00746185 0.080878 
4.3312e-05 -7.77183e-05 0.0776614 
6.3678e-05 4.64542e-05 0.0804997 
3.45319e-05 1.32273e-05 0.0720752 
-6.56189e-05 -0.00146896 0.0825518 
-0.00453757 -0.00623719 0.0692125 
-0.0184288 -0.0104653 0.0482102 
-0.0176988 0.00293363 0.0464419 
0.00433004 0.00073651 0.0258856 
0.00693161 0.00686131 0.0519679 
0.00950357 0.00723607 0.0714103 
0.0119037 0.0147206 0.0628027 
0.00962212 0.00449849 0.064977 
0.00878092 0.00276932 0.0335839 
-0.0127063 -0.0109515 0.0274841 
-0.0140922 -0.00174883 0.0465821 
-0.00634114 -0.00225393 0.0571169 
0.000136473 0.000214944 0.0476459 
-0.000159365 1.26352e-05 0.0552023 
-0.00105172 -0.000555017 0.0484853 
-0.000745168 -0.00115112 0.0631831 
7.63981e-05 5.5052e-05 0.0843337 
-0.00127363 -0.000633997 0.0819289 
-3.76099e-05 -6.00959e-05 0.0795925 
-0.000224317 -0.00147753 0.0818436 
-0.000561451 0.00107862 -0.0049292 
-0.00741578 -0.000901074 0.0318952 
0.000909693 0.00258823 0.000841462 
-0.00368875 -0.00258539 0.0302958 
0.00106438 0.0019058 0.0474976 
-0.000134918 0.00186815 0.0584631 
-0.00220876 0.00135422 0.0511527 
-0.00545885 0.00163536 0.0681983 
-0.00358484 0.00641937 0.0637848 
-7.09048e-05 -0.002437 0.0482564 
-4.68225e-05 -0.0120498 0.0717946 
-0.00388974 -0.00476655 0.0641967 
0.00839487 0.0606942 0.0787298 
-0.0139933 0.0446024 -0.0240992 
0.0425875 0.0261635 0.10334 
0.0230322 0.00193831 0.201385 
-0.00330811 0.000753229 0.074706 
-0.00277572 -0.0008174 0.0725672 
-0.00170971 -0.000899916 0.0817423 
-0.00420281 -0.0012955 0.0762015 
-0.00153482 -0.000779115 -0.000933581 
-0.00233632 0.00221687 0.039125 
0.000854353 0.0018618 0.040704 
-0.00214178 -0.000916089 0.0297914 
0.00125856 -0.0058032 0.0731639 
-0.000630274 -0.000910631 0.0495086 
0.000230767 -0.00136191 0.0478719 
-0.000421565 -0.00423989 0.0654543 
-0.000364367 -0.000231274 0.00115006 
-0.000203007 -0.000149952 0.00107398 
0.000234282 -0.000294983 0.0476965 
0.000578857 -0.000106339 0.0351629 
0.0716035 -0.00718489 0.123521 
0.0538214 -6.9436e-05 0.166266 
-0.0229917 0.110406 0.0690539 
0.035498 -0.0668981 0.0535502 
0.000121074 4.77163e-05 0.0752931 
-0.000714885 0.00216317 0.0693932 
-0.00186549 0.00195 0.0704422 
-0.00131982 0.00130621 0.0804032 
-0.000267882 -0.000118323 0.000383986 
-0.000128957 -6.01496e-05 0.000500572 
-0.000100465 -4.69117e-05 0.000395081 
0.000528382 -0.000393557 0.0506948 
1.56214e-05 -8.822e-05 0.00112373 
0.000164755 -0.000271235 0.000387744 
-0.000184228 0.000294334 -0.000277753 
-0.000112807 -0.000199158 0.0376949 
-0.00744817 -0.00674872 0.0653211 
-0.0166822 0.0216725 0.0663009 
-0.0111306 0.00123207 0.0639296 
-0.0103633 0.0147767 0.07307 
0.000709146 0.000922528 0.00108165 
-0.00149844 -0.000331289 0.0491805 
0.00102664 -0.000130082 0.00112666 
-0.000446754 -0.00108081 0.0369325 
-0.00192172 0.00222752 0.0712335 
-0.00479136 0.00404753 0.0732195 
-0.00344321 0.000603014 0.0744878 
-0.00126967 0.000994884 0.0799131 
0.00142938 -0.00282542 0.00188736 
5.47519e-05 0.001213 -0.000399853 
0.00247323 0.00174119 -0.00475264 
-0.0184151 -0.000271934 0.0223926 
0.00247828 -0.0107087 0.162336 
0.010192 -0.0358068 -0.00860091 
-0.000289619 -0.0217935 0.0732551 
0.0258482 0.00311394 0.0948117 
1.25982e-05 -0.00160787 0.0550144 
-0.000741836 -0.000513847 0.0373562 
0.00207312 -0.00193135 0.0584838 
0.000275432 -0.000351231 0.0355336 
0.0559305 0.0268102 0.0812929 
-0.014138 0.0232928 -0.057302 
0.0599783 -0.00164704 0.0830455 
0.040229 -0.00458325 0.139253 
-0.0705778 0.0492745 0.119071 
-0.0739586 0.0143499 0.112271 
0.0249549 -0.00476607 -0.102988 
-0.017659 -0.00134414 0.221138 
0.00059669 -3.19506e-05 0.000179321 
0.000259481 -0.000539014 0.00061677 
-0.00107728 0.000171641 0.0510084 
-0.000854437 0.000589699 0.0396541 
0.00837572 -0.00493542 0 
-0.0503144 -0.00976519 0 
0.0178982 -0.00555382 0 
-0.0655943 0.00998699 0.0931718 
0.000663478 -0.00227098 0.0581295 
0.00156219 -0.00237373 0.0729393 
0.0015857 -0.00047137 0.0487185 
0.00106531 -0.000953949 0.0606719 
-0.00489134 0.00274747 0 
-0.00607218 -0.00378347 0 
0.00342697 0.0083935 0 
0.0182422 0.00831525 0.0119185 
1.45845e-05 0.000247222 0.000356227 
9.01554e-06 -0.000159557 0.000695304 
0.000115105 -9.39763e-05 0.0387904 
0.000425354 0.000517856 0.0359947 
0.0019497 0.00124668 0.038367 
0.00244933 0.00205238 0.0602549 
-0.00279075 -0.00138499 0.0455551 
0.0033527 0.000104455 0.0348593 
0.00238034 -0.00693704 0.0551007 
-0.00274607 9.89079e-06 0.0513449 
0.000261169 0.00127296 0.0456677 
-0.00128525 -0.00376826 0.0315933 
-0.04588 -0.021861 0.033716 
0.000439139 -0.0204382 -0.0459264 
-0.0307392 0.0115934 0.0754269 
-0.0439631 -0.0152925 0.159891 
-0.0387092 -0.00704725 0.157667 
-0.0354221 0.0414351 0.0987533 
-0.0061952 0.00928842 0.228683 
-0.0296757 0.0647793 -0.0105558 
0.01262 0.00816181 0.0650809 
-0.00444458 0.00365646 0.0666049 
0.00989092 -0.0136506 0.0385051 
-0.00417886 0.0067453 0.0683447 
-0.000173519 -0.000288644 -0.000559602 
-0.000359218 -0.000741727 0.00343893 
0.000352073 0.000625615 -0.000138479 
0.00684938 0.00140213 0.025581 
5.08718e-05 0.000267118 0.0241251 
9.73662e-05 -0.000275568 -1.40765e-05 
-0.000252944 -0.000357614 0.000723862 
0.000133763 0.000420733 0.0392631 
-0.00158451 -0.00591063 0.0483168 
-0.0311697 -0.0243131 0.0742235 
-0.0207053 -0.0185656 0.0465106 
-0.00999461 -0.0129622 0.0720024 
0.000620246 0.000667049 0.0412766 
0.00234095 0.00253661 0.0692174 
0.00154628 0.000745897 0.0622941 
0.00268995 0.000239444 0.0610872 
-1.92317e-05 0.000232241 0.0578539 
0.000502674 0.000429231 0.0364786 
-4.43223e-07 -0.000203174 0.0419972 
4.83166e-07 0.00116535 0.0597788 
-0.0107156 0.107721 0.106993 
0.0192208 0.0184022 0.000852223 
-0.00866452 0.0154336 0.175161 
-0.0540863 -0.0137304 0.128601 
-0.000228902 0.000334204 0.000600166 
0.00014579 0.00013109 0.0273761 
0.00016194 -9.06351e-05 0.02378 
-0.000121448 5.57776e-05 0.0368211 
-0.0105257 -0.0142781 0.099692 
-0.000689983 -0.000150783 0.0549933 
-0.0250029 -0.0131491 0.0757355 
-0.00294626 0.00687001 0.0598418 
0.000912863 0.000199751 0.000542267 
-0.000436224 -0.000400408 0.000320307 
-0.00116556 -0.000597468 0.0487184 
0.00273193 0.00354529 0.0505282 
0.0116148 0.00515786 0.0530355 
0.0316029 -0.0163644 0.0936111 
0.0170719 0.00844415 0.0591359 
0.0252525 -0.00208496 0.041605 
0.00246528 -0.00982063 0.0702035 
0.0269846 0.00661168 0.015368 
0.0139348 -0.0124406 0.037249 
-0.00788382 -0.0104683 0.0456961 
-0.0295167 0.0421094 0.176937 
0.0481596 -0.00568177 0.186894 
0.0104385 0.000538542 0.296835 
-0.0980076 0.0411399 0.0803308 
-0.000311048 0.000702718 0.000980693 
0.000477321 -0.000501873 0.0501261 
-3.58415e-05 0.000448036 0.00122908 
-0.000388932 -0.000637272 0.0368559 
-0.000351844 0.000360377 -0.000965021 
0.000216507 0.00376783 0.00193639 
-0.00316987 -0.000425845 -0.00230861 
0.00524541 -0.00235654 0.00487118 
0.00691973 0.00644559 0.0715233 
0.00259205 0.00509234 0.0654784 
0.00486011 0.00209431 0.0631591 
0.00282586 0.00265965 0.0662789 
0.000131709 -0.000276632 4.90298e-05 
0.000108586 -0.000240914 0.000537964 
9.75527e-06 -3.85152e-05 0.000701716 
-0.000305555 0.000606891 0.0397413 
-0.0160809 0.000316515 0.261589 
-0.0957721 -0.00919495 0.121286 
0.0323351 0.0107308 0.254607 
0.0609889 0.00637423 0.148051 
-0.0046263 0.00488039 0.0686504 
-0.00123542 0.00207838 0.0703422 
-0.00583444 0.00530799 0.07207 
-0.00542394 0.00209777 0.0681536 
-0.033873 -0.000901289 0.255393 
0.0230082 0.00284442 0.271608 
-0.0912359 -0.00905004 0.123757 
0.0832559 0.00869574 0.151512 
-0.00305691 -0.00689746 0.0706512 
0.00182958 -0.0140899 0.0706884 
1.50955e-05 -0.0035573 0.0654021 
0.00356919 -0.0129279 0.0710598 
-0.00340471 0.0107443 -0.0120951 
-0.00173168 0.0176106 0.0358748 
-0.013887 0.0131793 0.0746619 
-0.00574691 -0.000512985 0.0488075 
-0.000390979 0.00152084 0.0455993 
0.00116088 0.00166843 0.060041 
-0.00129012 -0.000192428 0.0364875 
0.00179678 0.00216416 0.0619805 
0.0136182 -0.00542073 0 
0.00120399 0.00389265 0 
-0.0112315 0.00352439 0 
-0.0283313 0.00885538 0.0208276 
0.0188875 -0.0286174 0 
-0.013039 0.0265579 0 
-0.000674484 -0.00785759 0 
0.028464 -0.0252289 0.073441 
-0.032886 -0.0153983 0.00733947 
0.00410348 -0.0103793 -0.0327714 
-0.0268057 0.00340078 0.0579106 
-0.0185855 0.00393479 0.0812487 
-0.00962597 0.00301836 0.00574242 
0.0227554 -0.0097498 0.0242613 
-0.0133353 0.010527 -0.011976 
0.0293152 -0.00909181 0.0222627 
0.00211446 -0.0014585 0.0771872 
0.000159512 0.0275935 0.0697141 
0.00688461 0.0231437 0.0896314 
-0.000191247 0.00350774 0.0608665 
0.00852289 -0.0327473 0.0463328 
0.0325935 -0.00556466 0.103974 
0.0169162 -0.0107519 0.0434837 
0.0147183 -0.00810857 0.0716758 
-2.9532e-05 0.00032907 0.0499736 
0.000956704 -0.00176713 0.0579358 
0.000284619 -0.000573107 0.037234 
0.00073933 -0.00139943 0.0616983 
0.0240754 -0.0167095 0.0535078 
-0.00575398 0.0291011 -0.0183722 
0.0329594 -0.0751536 0.149778 
-0.00269296 0.0233779 -0.00944035 
0.000560584 0.0016875 0 
-0.00559561 -0.0022656 0 
-0.00508894 -0.00423902 0 
0.0209885 0.0260037 0.00935173 
0.00134172 0.00314134 0.0576396 
-0.0134336 -0.00342271 0.0478204 
0.0136722 -0.0146382 0.0843641 
0.0123132 0.00033414 0.0760645 
-0.0110055 0.0027565 0.037261 
-0.000783064 0.00176057 0.0394861 
0.000391075 -0.00143526 -0.000473153 
-0.00270933 -0.00153847 0.0297706 
0.00136797 0.00454258 0.0669019 
0.00266945 0.00393298 0.0728197 
-0.00320549 0.00927274 0.0707103 
0.00212714 0.0110356 0.0641289 
-0.00537157 0.0118412 0.071255 
-0.00814839 0.0163584 0.0340118 
-0.00332881 -0.00159259 0.0322126 
-0.00599585 -0.00146637 0.0281843 
0.00514064 -0.00362453 0.0679371 
0.00167482 -0.00404567 0.0576566 
0.00416444 -0.00670135 0.0703453 
0.00290565 -0.00250402 0.0698576 
-0.0209416 -0.00226399 0 
0.0215752 0.00429322 0 
0.00864696 0.0118626 0 
-0.0440145 -0.0106863 0.0361457 
-0.006826 -0.00184893 0.0720862 
-0.0151032 -0.0112888 0.0660502 
-0.00876242 -0.0136333 0.0696131 
-0.0178896 -0.0067677 0.0514386 
0.00952905 0.000750349 0.0253759 
-0.0325833 -0.0292635 0.0632137 
-0.028014 -0.00870923 0.0601319 
0.0103952 0.0192376 0.00206105 
0.0142336 0.00111278 0.0551989 
0.0107468 0.0011589 0.0696007 
0.00225699 -0.00170861 0.0701807 
0.00322333 4.95972e-05 0.0611601 
-9.94197e-05 0.000244168 0.0479055 
-0.000537739 9.38393e-05 0.0383836 
-0.00154419 -0.000426001 0.0546859 
-0.00163156 2.18109e-05 0.0648231 
-0.00212772 0.00733288 0.0705239 
0.00327588 -0.00167021 0.0595453 
2.51585e-05 0.00153507 0.074835 
0.00530358 0.00758885 0.0587338 
0.0179597 0.00505597 0.0510617 
0.0164878 0.00959995 0.0364628 
0.00625763 -0.00647327 -0.0173574 
-0.00038188 0.00449377 0.0399165 
-0.00195709 0.00136565 0.0522092 
0.000495939 0.00185268 0.0451277 
-0.000391029 -0.00119783 0.0387738 
-3.27411e-05 0.00197488 0.0588308 
1.98846e-06 -0.00122702 0.0512072 
0.000280872 -0.000809736 0.0403461 
-0.000670009 -0.00120652 0.0533096 
0.000107992 -7.41765e-05 0.036834 
0.00154084 0.00120212 -0.000471659 
0.00135425 -0.000888679 -0.00384656 
-0.00143539 0.00152495 0.000924743 
-0.0104099 0.0105414 0.0190842 
0.000692512 -5.38467e-06 0.0830609 
-0.00139399 0.00117628 0.0804104 
-0.00136352 -0.000477536 0.081591 
-0.00206959 0.000863547 0.0782955 
-0.00539176 0.00138585 0.0187333 
-0.0061427 -0.0113681 0.0522305 
0.00137866 0.00219773 0.0594786 
-0.0205963 -0.0194661 0.0646218 
0.00738161 0.000497848 -0.00493991 
0.00113896 0.000197646 -0.000424204 
0.00338991 -0.00188369 -0.00485579 
-0.023979 0.0118588 0.0202135 
-0.000202843 -8.85957e-05 0.0267839 
0.000130821 0.000385328 0.0373563 
-5.73992e-05 1.69215e-06 0.000615991 
-0.000368656 4.23992e-05 0.036536 
0.0292511 0.00137189 0.0135986 
0.00547781 0.0122433 0.151763 
0.00534215 0.0148452 0.0677861 
0.0055067 0.00301341 0.0520919 
9.98997e-05 -0.0115309 0.0738067 
-0.00024286 -0.00128867 0.0448878 
-0.00341427 0.00551889 0.066989 
0.00348986 0.001202 0.0532547 
0.0010231 -0.000507434 0.0472212 
0.000278689 -0.000345144 0.0350334 
-0.000241798 -7.87898e-05 0.0466034 
0.00132218 -0.000563445 0.0598161 
-0.0194027 -0.00876806 0 
0.0314043 0.00187505 0 
-0.0301397 -0.000697157 0 
-0.0553747 -0.0416168 0.0708645 
-0.000329649 -0.00080638 0.00128583 
-0.000472369 0.000175405 0.0315929 
7.09552e-05 0.000271494 0.0243238 
3.88039e-06 0.000317489 0.0367511 
0.000697502 -0.00563016 0.24858 
0.000598761 0.0130502 0.230534 
-0.00364804 -0.0235775 0.173931 
0.0440429 0.00430157 0.236228 
0.0365329 0.00445699 -0.0015413 
0.0250574 -0.00337277 0.0698008 
-0.0122923 0.00235821 -0.0154697 
0.00651276 -0.00890914 0.0271592 
-0.00115233 -0.000556503 0.0513062 
0.000459213 -0.00178609 0.0531214 
0.000342784 -0.00111784 0.0406662 
-3.61351e-05 -0.00239631 0.0663913 
-0.0194646 -0.0236801 0.0395568 
-0.0444486 -0.0406003 0.112509 
0.0228449 -0.00476033 -0.0334642 
-0.0125354 -0.011979 0.0156539 
0.00587382 0.0158714 0.101274 
0.000516575 0.00178466 0.0372344 
-0.0163296 0.001621 0.0573513 
0.00513277 0.02195 0.0537116 
-0.000272687 0.013227 0.241312 
0.00900682 -0.00705965 0.238179 
0.0199024 -0.0189941 0.136418 
-0.0435431 0.00306446 0.247738 
0.00306569 -0.000372379 -0.00224948 
0.0016635 0.00290734 -0.00299148 
0.000182406 -0.00205049 -4.93312e-05 
-0.00740892 -0.00828406 0.015475 
-0.0104985 -0.0014234 0.271913 
-0.0485418 -0.0302944 0.184274 
-0.00400792 0.0234634 0.181522 
-0.0376587 -0.060288 0.0754754 
0.00157068 -0.0210915 0 
0.00282691 0.0231454 0 
-0.000322898 0.00484177 0 
-0.0399271 -0.034451 0.0450304 
0.00436441 0.00863099 0.242039 
0.0117064 0.00863681 0.233501 
-0.00952557 0.0216597 0.128635 
-0.0147227 -0.0117711 0.254966 
-0.00011953 8.21046e-06 -5.89043e-05 
0.000375454 -0.00014969 0.0402982 
5.35419e-06 0.000195646 0.000253422 
0.000241572 -0.000289503 0.0373955 
0.0187106 -0.0137932 0.0922337 
0.0331676 -0.00437573 0.13454 
0.00898712 -0.0362617 0.0155353 
0.0187666 -0.0173584 0.0685029 
-0.0419721 -0.0107049 0.00473005 
-0.0297023 0.0124483 0.0846702 
0.00730466 -0.0122582 -0.00499707 
0.0119277 0.0265432 0.0314641 
-0.00253918 0.00383901 -0.000796919 
-6.1143e-05 -4.25021e-05 0.00198755 
-0.000397327 0.000984653 -0.00583403 
-0.00813064 -0.0014349 0.025588 
-0.017863 0.00177988 0.0484318 
-0.010256 -0.0162561 0.0293945 
-0.0335394 -0.0201002 0.0689983 
-0.00327479 -0.000532514 0.0508685 
-0.000361783 -0.00143291 -0.00117161 
0.00316383 0.000968854 0.040977 
-0.0045077 0.000691988 5.49639e-05 
0.0111411 0.0023541 0.0245264 
-0.00351507 0.00063825 0.0742854 
-0.00472863 0.00489536 0.0727872 
-0.00196256 0.00131534 0.0717647 
-0.00557889 0.00273338 0.0669951 
-0.000285319 -0.00154459 0.0452451 
-0.00103441 -0.00124047 0.0479515 
-0.00108821 0.000839284 0.0382128 
0.000268262 -0.00164754 0.0672432 
0.00157697 0.00461064 0.0623759 
0.00437207 0.00349305 0.0659511 
0.0116158 0.00563174 0.0720737 
-0.000450566 0.0078546 0.0672737 
-0.00149236 0.00732053 0.0721653 
-0.000211463 0.00175252 0.0673312 
-0.000685179 0.0150381 0.0552886 
-0.00679979 0.0098244 0.0621611 
-0.000821355 -0.00478128 0.0666283 
0.00356311 -0.000969296 0.0434209 
-0.00545872 0.00441184 0.0683445 
-0.00827985 0.00420065 0.0803321 
-0.0383741 0.0218982 0.0243585 
-0.0203339 0.00358229 0.0462606 
-0.000103876 0.0178597 -0.038882 
-0.0184827 0.00854201 0.119004 
9.37161e-05 -1.61985e-05 0.0258616 
-0.000306163 0.000187247 0.000221306 
0.000221549 0.000485149 0.000830852 
-7.84532e-05 -0.000714305 0.0414282 
0.0382087 -0.0154578 0 
0.0264163 0.0109044 0 
-0.04176 -0.00276165 0 
0.0387388 -0.0390027 0.0815001 
-0.00200125 0.000685474 0.0532372 
-0.0017927 0.00195521 0.0711873 
-0.00379943 0.00198285 0.0681319 
-0.00113915 0.000750357 0.0591641 
-0.00437775 0.00331702 0 
-0.00124611 0.000973503 0 
0.00271362 0.00736374 0 
-0.0121524 -0.0282609 0.00393932 
0.00367979 -0.00142463 0.0716947 
-0.0042039 -0.000702483 0.0721345 
0.00800041 -0.00471131 0.055312 
0.00181063 0.00178621 0.061945 
0.000402359 0.00325991 -0.00169458 
-0.00769403 -0.00489879 0.0386234 
0.00355483 -0.000338678 0.000297757 
-0.00732548 0.000562464 0.0309094 
0.00441973 0.00172966 0.0751076 
0.00216686 0.00329984 0.0673411 
0.00708782 0.000571358 0.0694627 
0.00257812 0.000343606 0.0621497 
0.0108962 -0.00131866 -0.00840703 
-0.0320477 -8.48341e-05 0.0470585 
0.00973055 -0.00244341 -0.0165555 
-0.0236138 -0.00557831 0.0347608 
0.00427147 0.00613587 0 
-0.00221866 -0.00300146 0 
0.00569864 0.00869784 0 
-0.0168194 -0.0219508 0.0184992 
3.04272e-05 -3.88594e-05 0.00045476 
-0.000150721 0.000329633 0.000356959 
0.000179678 -0.000336535 0.000648192 
-0.000208606 -0.0001862 0.0508066 
-7.66235e-06 0.00010677 0.0333922 
-0.000344044 3.02746e-05 0.048764 
0.000248563 -2.65955e-05 0.0242163 
-0.000381198 0.000357392 0.0377121 
0.000152347 -0.000162489 0.0467449 
-0.000967378 -0.000391262 0.0488801 
-0.000451213 -0.000478825 0.0363963 
-0.000979599 -0.000868869 0.0638474 
-4.0813e-05 -0.000151113 5.61286e-05 
-3.59753e-07 9.61038e-06 0.000196255 
-2.18098e-07 1.88339e-05 0.000351686 
-0.000507174 -0.000360215 0.0392892 
-0.0741553 -0.00188668 0 
-0.0440787 -0.0219076 0 
0.0557545 -0.0151783 0 
-0.0464967 -0.0437709 0.170546 
-0.00459346 -0.00530239 0.0829839 
-0.00907462 0.0167614 0.0309557 
-0.0221556 -0.00643406 0.0719251 
0.000682875 -0.00352504 0.0654458 
-0.0197474 -0.023953 0.0910575 
-0.00404783 0.000679827 0.0432172 
-0.00941271 0.0101827 0.0615627 
0.000833921 0.014824 0.0745269 
0.000136332 0.000282661 0.000490606 
4.71299e-05 0.000117062 -0.000103866 
1.95988e-05 1.20911e-05 0.000474006 
-0.00042826 -0.000741275 0.0493754 
-5.92048e-05 2.88888e-05 0.0679141 
0.000510249 -0.00193157 0.0719067 
-0.00028794 0.000774425 0.0511001 
0.0013889 -0.00112805 0.0616435 
0.00457824 -0.000189885 0 
-0.00285035 -0.000247819 0 
0.00427066 -0.000752417 0 
-0.0198585 0.00933679 0.00784119 
0.000399539 0.00226819 0.0566697 
-0.000713733 0.0004724 0.0488925 
-0.00139995 0.00259845 0.0695629 
-0.00168389 0.00320758 0.0649382 
0.000185701 0.000308407 0.0462478 
0.000654412 0.000248903 0.0544963 
0.00163394 0.00578073 0.0695557 
0.00147755 0.00296442 0.0613105 
-0.00395976 0.000793673 0.034498 
0.00566287 -0.000341283 0.0666114 
-0.00106796 0.00708504 0.0654665 
-0.0065787 0.00338538 0.0325475 
-0.000131311 -0.000475975 0.0237167 
0.000204564 0.000282104 -6.0946e-05 
0.000668703 -0.000118805 0.000957384 
-0.00084247 -6.92436e-05 0.0365724 
-0.0198908 0.0160451 0.114631 
-0.00546138 0.0153115 0.0608271 
0.0012233 0.0079797 0.0466847 
0.007822 0.017015 0.0185085 
0.00208924 0.000180543 0.00156636 
-0.00141555 0.00883069 0.0574761 
-0.00438962 -0.000828646 -0.0043454 
-0.00440622 0.00176175 0.0297577 
0.035744 0.0154007 0.0180569 
-0.00367777 0.0132643 -0.0332913 
0.017072 -0.00336198 0.0390498 
0.0261201 0.000244084 0.0970678 
-0.00279872 -0.000573916 -0.00475321 
-0.0238767 0.0117895 0.0433473 
0.0070474 -0.00941382 -0.010092 
0.00908864 -0.00663915 0.00781415 
0.00232059 -0.000608371 0.0484015 
0.00119152 -0.00244044 0.0727169 
0.00128684 -0.000935761 0.0597415 
0.00108202 -0.000736514 0.0612853 
-0.0111874 6.75393e-05 0.119204 
-0.0120894 0.0066068 0.0899312 
-0.00783914 0.019176 0.059756 
-0.00348788 0.0382105 0.0124118 
-0.00625996 -0.00272965 0.066627 
-0.0145787 -0.00602628 0.0588163 
-0.0238391 -0.0041262 0.0569376 
-0.0193009 0.010366 0.0844302 
8.82918e-05 -0.000112853 0.000351791 
-0.000486878 -0.00117424 0.0472005 
-0.000133907 0.000212193 0.000405842 
-5.94547e-05 0.000319011 0.0354492 
0.000221098 -0.000508384 0.0360481 
0.000259602 -0.000392341 0.0347728 
-8.54567e-05 0.000203112 0.000975734 
-0.000232728 -0.000964733 0.0377203 
0.0010823 0.0011459 0.0628837 
0.00200247 0.000590463 0.0410775 
0.00118117 0.00216028 0.0522707 
0.00131004 0.00231189 0.0689722 
-0.00176258 -0.00134057 0.0552758 
0.000706121 -0.000538958 0.0385581 
-0.00184512 0.00201747 0.0531581 
-0.00292318 0.000946488 0.06448 
0.000561494 -0.000904874 0.00143012 
0.000843241 -2.59641e-05 0.000506461 
-0.00119003 0.000412427 0.04643 
-0.000530302 0.00105236 0.0361889 
0.000164232 0.000465903 0.000853245 
-0.000172085 -0.000468184 0.000774848 
0.00064033 0.000582708 0.0463838 
0.000230223 -0.000728446 0.0341727 
-0.0107924 -0.0125004 0.0743646 
0.0124712 -0.00280837 0.067805 
-0.000481984 0.00161473 0.0467391 
-0.00702128 -0.0029521 0.0874577 
-0.00485993 -0.00328088 0.0570871 
-0.0101938 0.0137286 0.0861555 
-0.0148676 -0.00570855 0.0601915 
-0.0170204 0.00477605 0.0825392 
0.0024512 0.0038695 0.0572211 
-0.000156951 -0.00235579 0.0606803 
0.00952538 0.00870459 0.0694743 
0.0116784 0.00729358 0.0606976 
-0.00439746 0.00174899 0.0579878 
0.00200626 0.00524038 0.0360665 
-0.00420253 -0.00183465 0.0613678 
0.0233225 0.00716083 0.0588996 
0.00308764 -0.00314587 0.0033942 
0.00150924 -0.00153349 -0.00549978 
0.00118064 -0.00120342 0.00217202 
-0.000679447 0.0161746 0.0274225 
0.000639772 0.0121299 0.262589 
0.0288907 -0.101494 0.0419725 
0.00264807 -0.041333 0.159074 
-0.0101355 -0.00256018 0.182017 
-0.011642 0.0127466 0.0722367 
0.00523561 0.027293 0.0461859 
-0.0472817 0.0059654 0.00854958 
-0.00798561 0.020004 0.153269 
-0.0019586 -0.00449502 0.0655864 
-0.0168919 0.00990624 0.0654555 
0.00257461 -0.00176782 0.0668648 
-0.0105414 0.0154684 0.0731864 
0.0343354 -0.0148074 0.0564401 
0.0168846 0.00214696 0.118037 
0.00119379 0.0145888 0.0824155 
-0.0315708 0.0100585 0.0998965 
-0.000890973 0.0156309 0.0501406 
-0.00608398 0.00967593 0.0326204 
-0.00824125 0.0149386 0.0613271 
0.00517816 -0.0125435 0.0592568 
-0.000191912 -0.000120935 0.0793353 
-5.61403e-05 -9.4108e-05 0.066522 
6.01709e-05 4.7561e-05 0.0723817 
-0.00128875 -0.00140199 0.0631854 
0.0205067 0.0143172 -0.0144755 
-0.0498917 0.0260183 0.0853478 
-0.0161705 0.0346835 0.0115616 
-0.0166999 0.00227475 0.0211992 
-0.000129111 9.08339e-05 0.000630325 
-1.53822e-05 1.64291e-06 0.0287784 
0.000338906 4.6826e-05 0.0348437 
-0.000158252 0.00020948 0.0359082 
0.00160868 -0.000429049 -0.00277878 
0.000239355 -0.000241159 0.000413416 
0.000434591 0.00141787 0.0410422 
0.0024213 0.00273789 0.0494544 
-0.0049789 0.00335831 0.0683352 
-0.00448983 0.00680426 0.0649023 
-0.00250354 -0.00780318 0.0496557 
-0.00697676 0.011082 0.078685 
0.000187896 4.73836e-05 0.000380317 
-0.000112633 -3.22428e-05 0.000638205 
0.000160137 4.03665e-05 0.00032795 
-0.000306271 -0.00091227 0.0497172 
-0.00502179 0.00361778 0 
0.000190738 0.0078695 0 
0.00273389 -0.00684608 0 
0.00425998 -0.0057166 0.00878164 
-0.00378437 -0.00575847 0.0662775 
-0.000453407 -0.00204157 0.0669593 
-0.00209203 -0.00440109 0.0761593 
-0.000646527 -0.00426395 0.0641066 
-0.00608117 -0.0090282 -0.0104924 
0.00657809 -0.0262967 -0.0076074 
0.0190431 -0.00870186 0.0272254 
0.0215056 -0.00578051 0.039051 
-0.00819394 0.005099 0 
0.0200962 -0.00174392 0 
-0.00380794 0.00710637 0 
0.0193836 0.00208137 0.0255364 
-0.0364018 -0.0464995 0.088187 
-0.0216746 -0.0113215 -0.0541371 
-0.0670931 -0.0240431 0.126015 
-0.0217489 -0.0280263 0.186143 
-0.000355627 0.000443061 -0.00524496 
-0.000484306 0.00086655 0.000730849 
0.000217652 -0.000423907 -0.00135975 
-0.0063696 -0.000544547 0.0260078 
0.000150495 0.000224252 0.0778519 
-0.00017144 -0.00190335 0.0819515 
0.00111091 -0.00236658 0.0720105 
0.00072334 -0.00117617 0.0802456 
0.00850642 -0.0154177 -0.0140982 
-0.00448045 -0.018895 -0.0137421 
-0.0288834 0.0466721 0.0771486 
-0.00661068 0.0313788 0.0365007 
-0.0071382 0.00532148 0 
0.00377534 -0.00481485 0 
0.00603832 -0.00555371 0 
0.0235711 -0.0328021 0.0187191 
-0.007675 -0.00819816 0 
0.00939263 0.00262602 0 
0.00296441 0.00609372 0 
-0.0114233 -0.0166875 0.0147964 
-0.00195797 0.000978284 0.0522622 
-0.00403692 0.00204741 0.0681754 
-0.00189582 0.000329417 0.0642479 
-0.0010127 0.000524882 0.0597477 
0.00836857 0.00456934 0.284358 
-0.000683068 -0.0140128 0.216481 
-0.00268562 -0.00283367 0.223112 
-0.100187 -0.0098461 0.136991 
0.00287917 0.00250858 0.0702981 
0.0128839 -0.0147003 0.0761423 
-0.00157903 0.00758864 0.0502208 
0.017356 0.00766853 0.0691113 
0.00213779 -0.00121523 0.0769899 
0.0132781 0.0236116 0.0991843 
0.00550494 0.0136856 0.0613972 
-0.00477571 0.00339374 0.0538036 
0.0188437 -0.00127912 0.268132 
0.0132272 0.0441023 0.254701 
0.0521319 -0.112576 0.0488483 
0.00246972 0.0664227 0.187314 
0.0197988 0.000618916 0.0542604 
0.00564931 0.000459887 0.0755521 
0.00489397 0.000770626 0.0570341 
0.010452 0.00479428 0.0638377 
0.000884967 0.00246516 0.0718207 
0.00282154 0.00200469 0.0754194 
0.00164857 0.00421686 0.0742239 
0.000255175 0.0010863 0.0804383 
-0.00552047 -0.0108374 -0.0150649 
0.0109892 -0.011135 0.0651201 
0.0165429 -0.00957525 0.0425513 
0.00692331 0.00150719 0.0364016 
0.00233607 -0.00178917 0.212076 
0.0324951 -0.00541188 0.132876 
0.0039176 -0.01626 0.216548 
0.0975901 0.0458355 0.101461 
0.00384834 -0.0449047 0.145736 
0.00686021 0.00732084 0.263854 
0.0311448 -0.0330299 0.175318 
0.0232971 -0.0767441 0.0134654 
0.000745548 0.00128566 0.0789917 
9.54866e-05 0.00195737 0.0742249 
-0.00141814 0.00528354 0.0694295 
-2.55772e-05 -0.00308632 0.0673893 
-0.00934671 -0.0151921 0.0606996 
-0.00249466 -0.0041146 0.0367413 
0.0100395 -0.00899199 -0.0037598 
-0.0103672 -0.00703193 0.0270738 
0.000200072 -0.00151555 0.00202015 
-7.40402e-05 0.000122618 -0.000364484 
-0.000133175 0.00130957 0.0404745 
0.00112024 0.00305011 0.0317052 
0.00966687 -0.004225 0.0694646 
0.0129108 0.00361023 0.162112 
-0.00394624 -0.0118822 0.0982725 
0.00994254 -0.0297336 0.0266157 
0.00821806 0.0266303 0.0710262 
-0.00403472 -0.00834161 0.0344044 
0.00195107 -0.013866 0.107772 
-0.023183 -0.00709742 0.10528 
-0.0011508 -0.00218808 0.0522463 
-0.00129357 1.98192e-05 0.0469062 
-0.00317262 -0.00383933 0.0727136 
-0.00130666 -0.00370382 0.0603654 
-0.000264474 -6.24585e-05 0.0828785 
0.000220152 0.00120835 0.0811041 
0.000234841 8.31024e-05 0.0802883 
-0.00116251 0.00106348 0.0807052 
-3.97057e-05 -0.000260983 0.0251755 
8.59437e-05 0.000564751 0.000979587 
0.000107765 9.80097e-05 0.0289799 
0.000187831 -0.000249117 0.034598 
-2.3153e-05 0.000124217 0.0843969 
-0.00012098 -6.98156e-05 0.084498 
3.1187e-05 -9.68933e-05 0.0836039 
0.000425653 -0.000232588 0.083519 
-0.00326925 0.00407465 0.0651163 
-0.0109954 0.00502993 0.0674168 
-0.00656213 0.00287959 0.0640445 
-0.00753174 0.00889289 0.0733969 
0.0065194 0.00372076 0.0561475 
-0.0230893 -0.00243146 0.0469174 
-0.00564055 -0.00140836 0.0344281 
-0.0152138 0.00638684 0.057783 
-8.83351e-05 0.000241275 0.0767356 
-0.00436418 -0.000860744 0.0705177 
-0.00183413 0.000647315 0.078124 
-0.000868665 -0.00201735 0.0795049 
-0.00100192 -0.00162841 9.53023e-05 
-0.00563293 0.0095772 0.0318465 
0.00322781 -0.00173478 0.000965913 
0.000790467 0.000290984 0.0389739 
0.000118237 0.000534654 0.0769776 
-0.00383371 -0.00402016 0.0713755 
-0.00457351 -0.00147411 0.0699542 
-0.00068181 -0.00167332 0.079803 
0.0474698 -0.0280579 0.0887495 
0.0181667 -0.00852759 0.0258808 
0.0295639 -0.0396245 0.0374216 
-0.00583273 -0.0188607 0.017746 
0.0115153 -0.00647501 0.100777 
-0.0195899 -0.0070048 0.0466234 
0.00016104 0.00503081 0.0759485 
0.0184746 0.00254428 0.0748053 
0.000273179 -0.000377199 2.51183e-05 
-0.000113916 0.000155905 0.000134505 
-0.000197244 0.000266711 0.000571012 
-0.000842098 0.00130275 0.0381459 
0.0173924 -0.00566782 0.0496371 
0.00732634 0.00338802 0.0244338 
-0.0306805 0.00406933 0.0586551 
0.0234259 -0.00165316 0.00781982 
0.00298068 0.00596585 0.0677582 
0.00281184 0.00566904 0.0655523 
0.00731759 0.00535753 0.0693598 
0.00231983 0.00318479 0.0681052 
-0.00536459 0.00407142 0.0685472 
0.000554853 0.000497569 0.0497204 
-0.000927572 0.00110073 0.0504166 
-0.00132186 0.00276118 0.0643638 
-0.000180031 -8.91873e-05 0.0255833 
0.000242665 0.000101457 0.0429716 
-0.000133574 0.00010405 0.0452236 
0.000297868 0.000434932 0.0337433 
0.0109343 -0.0021771 0 
-0.0176501 0.00154811 0 
-0.00259575 -0.00611925 0 
-0.0182543 0.00567661 0.0355382 
0.0202166 0.0189151 0.0822854 
0.00373134 0.00539724 0.0600796 
0.0124922 0.00746863 0.0724803 
0.00192103 0.00477994 0.0761389 
0.0418806 0.0359267 0.0881109 
-0.0282309 0.0200613 0.0470819 
0.0137127 0.01487 0.0121993 
0.0358321 0.0303618 0.126524 
-0.000150175 -0.000307031 0.000992635 
1.4455e-05 0.00013125 0.0243566 
8.15772e-05 5.21808e-05 -0.000164394 
4.45674e-05 0.000279535 0.0372154 
-0.00898822 -0.000760308 0.0654498 
-0.0138537 0.00122305 0.0630392 
-0.00526432 0.00062395 0.0737432 
-0.0141114 0.00102022 0.0749222 
0.00131088 -0.00161249 0.0484537 
0.00159277 0.000308525 0.0519761 
0.00135236 -0.000538662 0.0591283 
0.00254662 -0.000173714 0.0680034 
-0.0213079 0.0196469 0.113265 
0.00423713 8.8939e-05 0.0497591 
-0.0131163 -0.000356167 0.0903987 
0.00889148 0.0140804 0.019698 
0.00250479 -0.0012344 0.00352385 
-0.0003182 0.000227433 -0.00506196 
0.00425661 -0.0020127 0.000433584 
-0.00873101 0.010258 0.0249457 
-0.0219717 0.0126811 0.055154 
-0.0201297 -0.000959851 0.0727795 
-0.0031938 0.00161477 0.0755721 
-0.013869 -0.000701752 0.0612496 
-0.000592094 0.0187622 0.0649304 
0.0518936 0.0228374 0.167618 
0.00228055 -0.00601668 0.00457928 
0.0248381 -0.00910182 0.0564543 
0.000180386 8.12379e-05 8.0871e-05 
-0.000186241 -7.6093e-05 0.000450229 
0.000130355 6.25861e-05 0.000324559 
-0.000564734 2.98184e-06 0.051154 
0.00367985 -0.0378537 0.0683378 
-0.00153793 -0.0150766 0.0619048 
-0.00695716 -0.000306855 0.0482148 
-0.000324529 -0.0176396 0.0313232 
-0.00279823 -0.000853126 0.0723196 
-0.00163572 -0.00268752 0.0755038 
-0.00165356 -0.000854504 0.0819343 
-0.00438296 -0.00137578 0.0762222 
-0.00021072 -0.000198194 -0.00338366 
-0.000490189 -0.000579744 -0.00277454 
0.000376502 0.000433304 0.00264559 
-0.00867266 0.00148512 0.0386831 
-9.01651e-05 4.04608e-05 0.0488217 
0.000958307 -0.00152155 0.0589085 
0.000149144 -0.000541064 0.0357172 
5.93103e-06 -0.000615594 0.0370242 
-0.00695291 0.00672759 0.0720343 
-0.00410969 0.00505714 0.0687425 
-0.00589641 0.0016604 0.0680443 
-0.00803757 0.00859781 0.0682277 
-0.0208688 -0.00333281 0.039377 
0.00469904 0.00308539 0.0376637 
0.0161283 0.00473924 0.0417933 
-0.0071302 -0.0024656 0.056235 
0.00610258 -0.00788595 0.0564959 
0.0023959 -0.0222736 0.062077 
-0.00187281 -0.0126223 0.0601867 
0.00256192 -0.00842224 0.0733688 
0.00797902 0.00125602 0.0745498 
-0.00237833 0.000750279 0.0388193 
-0.0181936 -0.0220974 0.0881888 
-0.00119575 0.0140102 0.0793755 
0.00716582 0.00477248 -0.00399493 
0.0016951 0.00200869 -0.0139652 
-0.0157106 -0.0280122 0.0366793 
0.00227445 -0.0170231 0.0311865 
-0.000261816 2.80554e-06 0.0257878 
0.000273087 -0.000136582 0.044365 
0.000421121 0.000110132 0.0400913 
-0.000108966 0.000524064 0.0344914 
-0.00642546 0.00265846 0.0561459 
0.00255987 0.0216044 0.0500802 
-0.00321709 0.00165192 0.0510856 
4.04289e-06 0.0140782 0.0252823 
0.00682744 -0.00390706 -0.015769 
0.00956629 0.00858605 0.0334182 
-0.00925969 0.00229679 0.021483 
0.0240884 -0.0287436 0.0579998 
-0.0119938 -0.00110813 0.0687424 
-0.00688033 0.00117784 0.0712928 
-0.00739659 -0.0019125 0.0679283 
-0.0105991 0.00136203 0.0714428 
-0.00401569 0.000440773 0.0753937 
-0.00133537 0.00107862 0.0803963 
-0.00435728 0.00369369 0.0707662 
-0.00217495 0.0011908 0.0775126 
0.006996 0.00462666 -0.0180094 
-0.0249802 0.00628982 0.037917 
-0.0116448 0.00288031 0.00410857 
-0.00202651 0.0256934 0.0249507 
-0.00221993 0.0300471 0.0605574 
0.00412848 -0.00672384 0.0837138 
0.00763388 0.030322 0.0955668 
-0.00502143 0.00523672 0.0814516 
-0.00188242 0.00254102 -0.00941955 
0.0131339 0.0333722 0.0352472 
-0.00264664 -0.0123979 -0.010589 
-0.00427173 -0.00968303 0.0292732 
0.000126452 -0.000893344 0.0514474 
-0.000369472 -0.00308212 0.0662431 
-0.00149559 -0.000960125 0.0532905 
-0.000107673 -0.00404388 0.0643208 
0.00170564 0.00457313 0.0643803 
-0.0117201 -0.0129518 0.0406149 
-0.00542403 -0.00525525 0.0397697 
-0.000239254 -0.0012272 0.0289103 
0.00916069 0.00142414 0 
0.00230714 0.00740503 0 
-0.0130343 -0.012209 0 
-0.0224673 -0.0104003 0.0191784 
-0.000546934 -0.00303565 0.0738828 
-0.0007353 -0.00219904 0.0661844 
0.000180681 -0.0010047 0.0515924 
2.74114e-05 -0.00448725 0.0635245 
-7.26826e-06 -4.03463e-05 0.0796496 
-0.000101237 -0.000148651 0.0690847 
0.00116313 0.00220376 0.071531 
0.00122829 0.00109265 0.0739244 
-0.000321593 0.000268267 0.0385563 
-0.00216049 -0.000175695 0.0322044 
0.000949642 0.000912742 0.0631625 
0.00298573 0.000618652 0.062481 
-0.000143065 4.82037e-08 0.000462469 
0.000185945 0.000423535 0.0360023 
-0.000153109 -5.79041e-05 -1.7218e-05 
0.000447481 0.000528461 0.0330347 
-0.000617752 -0.000288381 -0.00215449 
0.0098743 -0.00161345 0.0372511 
0.000672625 -0.00114855 0.0399216 
0.00366854 0.000651025 0.0339411 
0.0171355 -0.0416995 0 
0.0173228 0.0636516 0 
-0.00272126 -0.0676497 0 
0.0566285 -0.0395191 0.144447 
0.0668486 0.0194591 0.0904324 
0.00302699 0.0100183 0.0655375 
0.000895912 -0.00395458 0.00404648 
0.021412 -0.0120104 0.0532599 
-5.83362e-07 2.71952e-05 -0.000464866 
-6.34698e-05 -0.000129483 6.3952e-06 
-0.000200099 -0.000453375 0.000759799 
0.000428495 -0.000486423 0.049458 
-0.00103166 -0.000289357 0.0577816 
-0.0119132 0.0191384 0.0551728 
-0.00533368 0.0089892 0.0324151 
0.00915064 -0.017086 0.0659046 
0.00824722 -0.00425163 0 
0.00740341 -0.00329748 0 
-0.000269715 0.00549608 0 
-0.0177676 0.0171713 0.00757254 
-0.0547535 -0.0290448 0 
0.0577556 0.0161068 0 
-0.0702837 -0.0132743 0 
-0.0519111 -0.0352277 0.199807 
-0.000932341 0.00426703 0.0692417 
0.00186828 8.24675e-05 0.0744609 
0.0022387 0.00418754 0.0739358 
0.00378108 0.00995424 0.0596134 
0.000484669 0.00165655 0.0516918 
0.00119818 0.000308329 0.0405374 
0.0020666 0.0019368 0.0637357 
-0.000495016 -0.000460345 0.0345544 
0.00105847 -0.00143267 0.0513082 
0.000449318 0.000854108 0.0377724 
-0.00135486 -0.00104416 0.0532706 
-0.0013283 -0.00353261 0.0668092 
-0.0107788 -0.00170861 -0.0234331 
-0.00846688 0.0114813 0.0351935 
-0.0251514 0.00352137 0.081675 
-0.00571292 0.00304486 0.0311347 
0.00487084 0.0110483 0.0765027 
-0.00164771 0.01037 0.0778941 
-0.00586103 0.0140436 0.0684383 
0.00506117 0.00885028 0.0632833 
0.00400987 -0.00784544 -0.00242764 
0.00363587 0.000730063 -0.011843 
-0.00164685 -0.0101628 0.0158522 
-0.0153839 -0.0017656 0.0277856 
0.000148066 0.000145292 0.0773744 
0.00024723 -0.00295157 0.0723596 
-4.90084e-05 8.78354e-06 0.0719775 
0.000619965 -0.0019448 0.0715813 
-3.20584e-05 -0.000273657 0.0250335 
-0.000111959 -8.24537e-05 -0.000272193 
0.000100973 0.000265524 0.00101089 
0.000159266 -8.29956e-05 0.034994 
-0.0107215 -5.1055e-05 -0.0104092 
0.000879275 -0.0268488 0.0579529 
0.00126107 -0.00155244 -0.00122663 
-0.00977418 -0.00591989 0.0267924 
0.00103998 0.0075234 -0.0132697 
0.0111692 -0.00232756 0.035273 
-0.00155558 0.00397485 -0.00466006 
0.0180794 -0.00806149 0.0314907 
-0.0110543 -0.0162391 0.0099048 
-0.00888625 -0.0241128 0.0994543 
-0.0100192 -0.0761385 0.0790377 
0.0218467 -0.0170494 0.106478 
-0.0169113 0.0232371 0.064423 
-0.0115004 0.0118949 0.0658528 
-0.0112158 -0.00214586 0.0589625 
-0.00998154 0.0119068 0.0759146 
0.000615477 -0.000553049 0.00101755 
-0.000162543 -0.00081258 0.000784403 
0.000420669 0.00105707 0.0411106 
-0.000426488 0.000517256 0.0345953 
-0.0217011 0.0974357 0.120026 
0.0163108 -0.00594664 0.177588 
-0.022786 0.0554444 0.00982951 
0.0454879 -0.0255947 0.146464 
0.000755384 -0.000686035 0.00140003 
0.000583951 0.000271202 0.000314587 
-0.000762974 0.000197664 0.0375909 
-0.000516824 -0.000218522 0.0323225 
-5.59181e-06 1.20579e-05 0.000838149 
5.43004e-05 -1.61164e-05 -0.000182861 
-0.000148777 4.35494e-05 0.000453128 
1.82486e-05 -0.000475668 0.0381737 
0.00570656 -0.0124327 0.0563272 
0.00274278 -0.0129861 0.0607848 
0.00145469 -0.0103342 0.0699653 
0.0132132 -0.0115257 0.068349 
0.000507507 0.000897975 0.0594725 
0.00224707 0.00109626 0.0727448 
0.0107992 0.0117343 0.0677947 
-0.000938457 -0.00355129 0.0615857 
-0.0305209 -0.0282808 0.0231467 
-0.0127725 -0.00728108 0.0684579 
-0.032289 -0.00646318 0.0784575 
-0.0275035 -0.0470602 0.141163 
0.00119476 0.00415376 0.0748982 
0.00337359 0.00240532 0.0681446 
0.00112196 0.00245459 0.0712769 
0.00220349 0.0036685 0.0628284 
-0.00798535 0.0103883 0 
0.00109879 0.00951753 0 
0.0172446 -0.000717028 0 
0.0217127 -0.0567398 0.029925 
-0.0194108 -0.00852451 0.117342 
-0.0350924 -0.00961916 0.0898005 
-0.0123389 0.00885642 0.0462527 
0.00948349 0.00254561 0.0425626 
-0.00423632 -0.00653233 0.0671364 
-0.00119029 -0.00591223 0.0654824 
-0.00160266 -0.00240172 0.0746749 
-0.00203871 -0.00792277 0.0698156 
3.0198e-05 -0.00011387 0.00118424 
-0.000512866 -0.000278912 0.00170648 
4.28411e-05 -0.000345117 0.0481759 
0.00062325 -0.000338828 0.0366529 
0.00487397 0.0263303 0.0838889 
0.0136499 0.0058937 0.057852 
0.0125747 0.0197173 0.0800827 
-0.00424632 -0.00045615 0.0769204 
0.0351732 -0.047515 0 
-0.00917821 0.0408928 0 
0.0103676 -0.0553554 0 
0.0165637 -0.031709 0.227146 
5.47322e-05 7.30342e-05 0.000541126 
0.000132684 0.000184469 -0.000445945 
0.000220641 0.00030209 0.000363978 
0.000903374 -0.000566771 0.0319691 
2.32488e-05 -0.000708841 -0.00148502 
-0.00157856 -0.00158223 -0.00101205 
0.00252246 -0.000892476 -0.00223599 
-0.00459772 -0.00140607 0.00340868 
-0.00601887 0.00385901 0.0554838 
0.00109467 -0.00129958 0.0481585 
-0.00203835 -0.00285261 0.06897 
-0.00461671 0.00330381 0.0288274 
0.000743123 0.0105104 0.0501146 
-0.00752428 0.00872541 0.0608127 
-0.00151714 0.00491773 0.0709217 
0.000388243 -0.000819421 0.0589164 
0.00247631 0.00856175 0 
-0.00683445 -0.00236774 0 
0.00489302 0.0136586 0 
-0.0404722 -0.0628746 0.0303226 
0.000297746 1.29712e-05 0.0713628 
1.60583e-05 -0.00280651 0.072554 
-0.00033124 0.000128322 0.0720759 
-0.000711414 -0.00227124 0.0664869 
-0.00513094 0.00568218 0.0684172 
-0.00949982 0.0117936 0.0671684 
-0.00427464 0.00383816 0.0701616 
-0.0103674 0.0100404 0.0727652 
4.1639e-05 1.89532e-05 0.0725267 
-7.5118e-05 -0.000257598 0.0795136 
0.00107193 0.00230307 0.0712761 
0.000317919 0.00138807 0.080938 
-0.0111014 0.0163323 0.0766533 
-0.0309829 0.0180282 0.0256193 
-0.0058682 -0.0297373 0.0805419 
-0.00926162 2.20501e-05 0.128922 
-0.000417707 0.000637917 5.35043e-05 
-0.000283898 0.000338731 0.0398 
0.000651507 0.000271481 0.000515478 
-0.00159912 -0.000225361 0.0302679 
0.000118689 0.000158911 0.000557473 
-3.93659e-05 -5.19003e-05 -0.000276452 
-5.61861e-06 -9.12633e-06 0.000155654 
5.76399e-05 0.000184157 0.044861 
-0.00767506 0.00109963 0.060878 
0.0090386 0.0150548 0.0795973 
0.00158388 -0.0116184 0.0716901 
0.0372012 -0.00949247 0.0761873 
0.0004516 0.000759178 0.00081746 
-0.001046 -0.000581232 0.0504263 
5.40264e-05 -0.000182867 0.036435 
-0.000682527 -5.1705e-05 0.0391239 
0.00581426 -0.00753319 0.2843 
-0.00239875 -0.00682153 0.21573 
-0.0290383 0.0392243 0.119655 
-0.0435359 0.0892723 -0.0221502 
0.00391718 -0.00552746 -0.00497076 
-0.00569144 0.017566 0.0386651 
-0.00180438 0.000779307 -0.00579226 
-0.00585863 0.00406554 0.0454775 
0.00473292 0.0022007 0.0751396 
0.00130225 0.000699158 0.0635157 
0.00229917 0.00296971 0.0673748 
0.00282917 -0.000124613 0.0622076 
-0.000123712 0.000712496 -0.000570581 
5.73132e-05 -0.000630532 0.000439394 
-0.000767811 0.00177444 0.040962 
-0.00025855 0.000529924 0.0401792 
-0.0107949 -0.000435092 0.065649 
0.00820416 -0.0101505 0.065349 
-0.0180739 -0.0260344 0.0218565 
0.041032 -0.0110865 0.0776855 
0.000162333 -0.000123392 0.0365187 
6.41232e-05 0.000101256 0.0415218 
-6.81717e-05 -0.000110217 0.0235931 
0.000352662 0.000170867 0.0350531 
-0.0114571 -0.0028861 0.0685139 
-0.0170615 -0.00534034 0.0860259 
-0.0216933 0.0146777 0.0521525 
0.00904251 0.00963308 0.0742556 
0.00648431 -0.00296859 0.067494 
0.0039208 -0.00189287 0.0643741 
0.00248606 -6.18275e-05 0.0611907 
0.0108823 0.00342846 0.0705229 
0.000642233 0.00113385 0.0514086 
-0.000822502 -0.000102215 0.0349293 
0.00181748 0.00123162 0.0637337 
0.0015385 0.00127892 0.0619124 
0.000636109 -0.00158798 0.0590012 
0.000592698 -0.000177273 0.0358195 
9.42994e-05 -0.000596474 0.0357091 
-0.000314629 -0.000965317 0.0369627 
-0.000701833 0.0160394 0.0580444 
-0.000244331 0.001747 0.0661703 
-0.00148358 0.00727191 0.0723082 
0.00240103 0.0110066 0.0643357 
1.39949e-05 -0.000152529 0.0795132 
0.00100689 0.00243862 0.0716651 
0.000391416 0.00128493 0.0805901 
0.00134604 0.00110166 0.0740973 
-0.00586931 -0.00894249 0.0547093 
-0.0239856 -0.0170461 0.0508664 
-0.0265575 -0.0314338 0.0687973 
0.000873567 0.000940892 0.00286195 
7.02215e-07 -3.38481e-05 0.0843458 
-0.000157261 0.000158682 0.0792837 
5.28749e-05 3.7364e-05 0.080562 
1.03389e-05 -0.00156789 0.0821401 
0.0253971 -0.0712873 0.08672 
-0.0173014 0.056354 0.101977 
-0.00289063 0.00598262 0.161413 
0.0128084 -0.0071291 0.127307 
-0.0125204 0.0268744 0.255276 
-0.00418689 0.0241463 0.250345 
-0.0148696 0.00979235 0.25126 
-0.012472 -0.105184 0.217164 
0.00668368 0.00786673 0.0801671 
-0.00151628 0.00134577 0.0415552 
0.0107148 -0.00245694 0.0663407 
-0.00930541 -0.00194277 0.0905689 
-0.00031447 -0.000141898 0.000694245 
0.000279171 0.000123778 -0.00105211 
-0.000279408 -0.00012819 0.000196621 
0.000575004 -0.00152065 0.050606 
0.00378009 0.000794781 0.0515502 
0.00564335 0.0124988 0.01243 
0.015422 0.00132163 0.0669227 
0.0245233 -0.0269292 0.0848945 
-0.00637016 -0.00573808 0.0706007 
-0.000334912 0.00302869 0.0267438 
-0.0132733 -0.00135447 0.0511624 
-0.000362943 0.00618358 0.071312 
-0.00101249 -0.00163728 0.0475398 
-0.000270214 -0.00118564 0.0472451 
-9.46864e-05 -0.00376986 0.066876 
0.00200733 -0.000102058 0.0530821 
0.00565516 -0.00541344 0.058354 
0.00868836 -0.00530617 0.0559947 
0.00173748 -0.00153934 0.0726697 
-0.00290841 -0.000265558 0.0709012 
-4.45849e-05 -1.9196e-05 0.000412741 
0.00118883 -0.00288987 0.0503791 
-0.000751005 0.00127647 -0.00121945 
9.01356e-05 -0.00263238 0.0297426 
0.0126903 -0.0405621 0.146011 
0.0224516 0.0151403 0.242823 
0.0104978 -0.00611449 0.241561 
-0.02474 -0.0199944 0.231448 
-0.0533315 -0.0010705 0.128303 
-0.0438918 -0.0427809 0.114491 
-0.0181746 -0.0169064 -0.0374578 
-0.0186981 -0.0200968 0.22677 
-0.0012069 0.00891493 0.0694265 
-0.000992099 0.00523674 0.0683334 
-0.000779989 0.00355386 0.0765988 
0.00211278 0.00399888 0.0731878 
-0.00118932 -0.0002477 -0.00552745 
0.013033 -0.000300314 0.0366217 
-0.00277733 -0.00071485 -0.00217667 
0.00401997 0.000362486 0.0342883 
-0.00101478 -0.00194336 0.0502126 
-0.00044286 -0.00261983 0.066732 
0.00111699 6.5433e-05 0.0405247 
0.00206585 2.40411e-05 0.0503835 
-0.00807267 -0.00972397 -0.0208165 
0.0251279 0.00668993 0.0385028 
-0.0135926 -0.00909083 -0.0117401 
0.0389052 0.0317145 0.0492906 
-9.86068e-05 0.000239764 0.058258 
0.000107899 -0.000168865 0.0521118 
-0.000431786 -0.00116979 0.0375152 
-0.000315835 -0.00133645 0.0672461 
-0.0147245 -0.000118174 0.0479121 
-0.00286324 0.000856353 0.0295268 
0.0179396 -0.000838869 0.050957 
0.00142165 0.00114742 0.0627688 
0.0172529 0.0109825 -0.0382827 
0.00022972 -0.00993402 -0.00078375 
0.0245511 -0.0371537 0.0337335 
0.0244031 -0.0442699 0.127308 
0.00176414 -0.00818474 -0.00967488 
0.00413634 -0.01099 0.0616811 
0.00496572 0.00139324 0.0353232 
-0.000651455 -0.00459923 0.0326867 
-0.00775191 0.00305542 -0.0146099 
-0.0110377 0.00789854 -0.00839819 
0.0180789 -0.000365137 0.0354321 
0.0328246 -0.00253562 0.0326026 
-0.00451122 -0.00520309 0.0701409 
-0.000544661 -0.00105942 0.0540534 
7.96195e-05 -0.00249262 0.0646625 
-0.00092476 -0.00387349 0.0634058 
-0.000657608 0.00186783 -0.00490116 
0.00104088 -0.00354759 -0.00100954 
-0.00269705 0.0081968 0.0239533 
-0.0036293 0.00340862 0.0268153 
0.000193594 -0.00025121 0.0585463 
-0.000745748 0.00181799 0.0692367 
-0.000304789 4.11437e-05 0.0701339 
0.000303597 0.00175575 0.0593494 
-1.88505e-05 -0.000561094 0.0479617 
0.000296339 -0.00252017 0.0522395 
0.00170346 -0.00182378 0.0588104 
0.000101062 0.000137298 0.0370195 
-0.00544383 -0.00385587 0.0465645 
0.00338725 0.000104874 0.0591706 
0.00173096 0.0052248 0.0760109 
0.00812207 0.000590898 0.0746927 
-0.0022469 -0.000492379 0.000270591 
-0.00237253 -0.00190174 0.000698241 
0.000644618 0.00327398 0.0410487 
0.00382077 0.0119899 0.0301412 
-0.000207144 0.000880222 -0.0015157 
0.000379588 0.00163125 0.0518594 
0.00376734 -0.0108999 0.0317794 
-0.00109096 -0.00389497 0.0298246 
0.00515697 0.00163511 0.0598265 
0.0187324 0.00807248 0.0674185 
-0.00465936 0.0114969 0.0779472 
-0.00367965 0.00829867 0.0684805 
-6.58962e-05 6.05407e-06 0.0720413 
-6.72041e-05 3.40416e-05 0.079888 
4.16214e-05 -2.46862e-05 0.0690557 
0.00114093 0.00203119 0.0712611 
0.0147999 0.00623982 0.054977 
0.00802314 -0.0127754 0.0557237 
0.0272102 0.00101443 0.0687992 
0.0157553 -0.0039969 0.0254426 
-0.00577364 -0.0309161 0.036343 
0.0317 -0.0715312 0.154877 
-0.00433327 0.0264145 -0.0270447 
-0.00581086 0.0335473 0.000677212 
-0.000713371 -0.00351675 0.0728517 
0.000536366 -0.00231088 0.0817529 
0.00206408 -0.00356014 0.0772423 
0.000448405 -0.00184752 0.0720486 
-0.00686289 -0.00232707 0.0667432 
-0.00275667 -0.00138447 0.0722248 
-0.00650968 0.00171197 0.068898 
-0.00501302 -0.00157563 0.0754865 
0.000546782 7.57573e-05 0.000379315 
0.000111985 0.0014862 0.0403096 
-0.000828132 -4.3479e-06 -0.000158487 
-0.00209592 0.000973701 0.0379456 
-0.0189309 -0.00262498 0.239837 
-0.0324899 0.0378006 0.144364 
0.00749497 0.0140255 0.147296 
0.115994 0.00457331 0.133588 
0.0072304 -0.0533457 0.0492272 
0.0309644 -0.0588729 0.157565 
0.0268863 -0.0475821 0.0499187 
0.00785579 0.0304811 -0.0500471 
-0.00536715 -0.000666194 0.0697983 
-0.00399327 0.00417062 0.0707956 
-0.00344395 0.00133327 0.0783554 
-0.0111063 0.00197 0.0607553 
0.00249845 0.00621152 0.0671311 
0.00143305 0.00595138 0.073055 
-0.00143693 0.0077107 0.0693759 
0.000255798 0.00377871 0.0692547 
0.0565523 0.0199372 0.0965797 
0.00810393 0.0679311 0.0185018 
0.0178973 -0.0546615 0.0513746 
0.0568504 -0.00771863 0.153587 
-0.0010475 -0.00167855 -0.00112228 
0.00244855 -0.00160365 -6.42562e-05 
-0.001998 0.00025971 -0.00117368 
-0.00284088 0.00895789 0.00820043 
-0.0007909 0.00439145 0.0700719 
-0.00403669 0.00380305 0.0703318 
-0.000754734 0.0038844 0.0771129 
-0.00219568 0.0003912 0.0776479 
-2.86634e-06 -8.3974e-05 0.0753665 
4.11972e-05 9.77157e-05 0.0754334 
-0.00173431 0.00192608 0.0701072 
-0.0012049 0.00103612 0.0805576 
0.00304694 -0.00287092 0.0710821 
0.000450343 -0.000323009 0.0607023 
0.00271576 -0.000982138 0.0735988 
0.00389357 -0.000649166 0.0663489 
0.000151007 0.000593715 0.0391001 
0.000478371 -0.00030656 0.0323707 
-0.00154067 0.000720153 0.0321156 
0.00209255 -0.000921488 0.0630351 
0.000894602 -0.000266419 -0.00202892 
-0.000346903 8.63223e-05 -0.000367425 
0.000257821 -6.07466e-05 0.000504684 
0.00349885 0.00355496 0.0489597 
0.0241137 0.00432859 0.0356677 
0.00288113 -0.00697435 0.0773314 
0.00313815 0.00858037 0.128376 
0.0028143 0.00290945 0.052621 
0.0013254 0.0210052 0.0530006 
0.00322212 0.0189578 0.0628298 
-0.00317555 -0.0108097 0.0357792 
-0.00108533 -0.0140471 0.0589587 
7.82948e-05 0.000100097 0.0504633 
-0.00087597 0.000496023 0.0426655 
0.000311152 5.52715e-05 0.0429542 
-0.000858256 0.000338606 0.0600624 
0.00736569 -0.0178928 0.0698514 
-0.0054516 -0.0088697 0.0275706 
-0.0032299 0.00334463 -0.0206308 
0.0208237 -0.0297625 0.0442818 
0.00586648 -0.0105958 0.0758164 
0.000296979 0.00747144 0.0590319 
-0.00211816 0.00367756 0.0346466 
-0.00559209 0.00230095 0.0854725 
0.00237615 0.00764479 0.00550916 
-0.0191447 0.0082592 0.035853 
0.00789286 -0.00550063 -0.0137778 
-0.0132039 -0.0152982 0.0187451 
0.00587877 -0.0136762 0.0593713 
0.00291969 -0.00335916 0.0544332 
0.0175177 -0.0206927 0.0404889 
0.0116741 -0.0160174 0.0708412 
-0.00189639 -0.00486517 -0.0134659 
0.0137859 0.000928485 0.0238291 
-0.0188261 -0.000132587 0.0318723 
0.0224512 0.000388171 0.0251231 
0.000484666 -0.000622434 0.0431574 
-0.00143957 -0.000581295 0.039283 
-0.00153181 0.000736425 0.0646951 
-0.000557154 0.00118644 0.0601924 
0.000545367 0.000354952 0.0351225 
0.000184271 0.000547934 0.0362089 
-8.01982e-05 -7.94022e-05 0.0491082 
0.000437353 0.000562952 0.062146 
0.00276647 0.00134212 0.0645619 
0.00846744 0.0014981 0.0688669 
0.00187612 0.0004524 0.0612143 
0.00873949 0.000133624 0.0677391 
-0.00481469 -0.00200712 0.0653172 
-0.00720311 0.00408114 0.0659556 
-0.00366666 0.00478253 0.0660343 
-0.0106331 0.00431445 0.0660757 
0.0495685 0.00221672 0.266786 
0.0389966 0.051412 -0.00377448 
0.0575322 -0.0108506 0.136288 
0.00338987 -0.0652806 0.0834317 
-6.90238e-05 -0.000238139 -0.000177203 
0.000242751 0.00084942 0.000766503 
-4.26868e-05 -9.36917e-05 0.00053544 
-0.000342407 0.00018602 0.0373416 
-0.00376649 -0.0177945 0 
0.00497722 0.0266239 0 
-0.00599319 0.0145927 0 
-0.0272415 0.0472507 0.051037 
-0.00351458 0.00594545 0.067666 
-1.5918e-05 0.0033009 0.0640334 
-0.00160823 -0.0011573 0.0491381 
0.00267093 0.005266 0.0620448 
0.00149578 -0.00338502 0.076875 
0.000936736 -0.00221652 0.072014 
0.000104144 -0.0018999 0.0819188 
0.000870828 -0.00118304 0.0802291 
-0.00017861 -0.000141781 0.0011694 
0.000757142 -0.000240318 0.0340689 
2.21696e-06 0.000822213 0.0457977 
6.20676e-05 0.000491896 0.035482 
-0.000792316 0.00379993 0.0763167 
-0.00109514 0.00784224 0.068906 
0.000364571 0.00387272 0.0689471 
-0.00161811 0.00370049 0.0657889 
0.0017822 -0.000280825 0.00180105 
-0.00263583 -9.56091e-05 -0.00457385 
0.000939941 0.00242258 0.00147434 
0.00989564 0.0086327 0.0169069 
-0.00928914 -0.0179987 0.072482 
0.0185085 0.0132399 0.0577827 
0.0117976 -0.00263579 0.143383 
0.0309756 -0.00387724 0.1032 
-0.0260569 0.00205753 -0.0192219 
0.0366917 -0.00449902 0.0119629 
-0.0141363 0.0194626 0.0333623 
0.0575699 0.00923138 0.0868724 
0.00128018 -0.00287076 0.000424319 
6.47368e-05 -3.6938e-05 0.00331583 
0.000145326 -0.000435624 -0.00329194 
0.00127277 0.00482748 0.0171635 
0.000286859 -8.1102e-05 0.000393454 
0.000535809 -0.000147635 0.000402116 
-0.000329572 7.69038e-05 0.000954181 
0.000286743 0.00040318 0.0406067 
0.00436811 -0.00123551 0.0610539 
0.00160049 -0.000114449 0.0621034 
0.00728098 0.00073702 0.0694305 
0.00906838 0.000764776 0.0667661 
-0.000586293 -0.000500581 0.000456895 
7.68035e-05 -0.000332606 0.000571587 
0.0030826 0.000913548 0.0431903 
0.00027765 0.000100514 0.0381246 
-0.00196414 0.00069117 0.0782528 
-0.000415335 -0.00231703 0.0791181 
-0.00528561 -0.000442976 0.0713851 
-0.00391497 -0.00132547 0.0755881 
-0.00153373 -0.000885974 -0.00152951 
-0.00184959 0.0157333 0.0167017 
-0.00634081 -0.00129165 -0.0019409 
-0.00210925 0.00190512 0.0261092 
-0.00641572 0.000689575 0.0680383 
-0.00297242 0.000753275 0.075292 
-0.0093834 -0.00063384 0.0706985 
-0.0115008 0.00244007 0.0652939 
-0.00066174 -0.000335719 0.000701618 
0.00059026 0.00029734 0.0486084 
-0.000971186 9.80306e-05 0.00124504 
0.000677049 -0.000344797 0.0361808 
-0.00470896 0.0164855 0.0673201 
0.00585414 0.0115063 0.0636752 
0.00761842 0.0135089 0.052444 
-0.00985305 0.0187573 0.0696441 
0.0162969 0.0315814 0.0826048 
-0.00385621 4.20376e-05 0.120337 
-0.00095491 -0.0170239 0.0807065 
0.0258134 0.00991046 0.0720422 
5.75619e-05 1.32531e-05 0.000843205 
0.000165188 6.8761e-05 0.000312246 
0.000123634 5.3527e-05 9.21791e-05 
-0.000444226 -0.000248851 0.0496445 
-0.000132078 1.18627e-05 0.0829509 
4.27502e-05 -0.000171092 0.0844127 
1.75692e-05 5.4872e-06 0.0801144 
0.000357317 0.00121945 0.081261 
-0.00392992 -0.00399077 0.071464 
-0.00567512 -0.000606022 0.0708887 
-0.000102862 -0.00227408 0.0793331 
-0.00366964 -0.00130996 0.0757189 
-0.000186232 0.000740351 0.000146808 
0.000567044 -0.00220503 0.000538132 
8.89378e-05 -0.000584435 -0.00469179 
-0.00147324 -0.00138414 0.0294795 
0.0157534 -0.00836627 0 
0.0247298 0.002652 0 
-0.0342593 -0.0184369 0 
-0.0660075 -0.0438194 0.0477538 
0.000103266 -6.10352e-05 0.0842709 
0.000556642 -0.000176855 0.082931 
0.00077693 -0.000983933 0.0799282 
0.000949207 -2.42688e-05 0.0793873 
-0.00154216 -0.000531458 -0.0016302 
0.00795931 -0.00409323 0.035542 
-0.00011241 -0.00016124 0.00128186 
0.00109677 -0.000797422 0.051204 
-0.000936149 1.41503e-05 0.063801 
0.00109092 0.000767647 0.0387289 
-0.00222701 0.00203729 0.0391001 
-0.00266036 0.000114067 0.0303952 
-0.00226332 0.00383857 0 
0.00208702 0.000433694 0 
0.000700394 -0.00177166 0 
0.00144921 -0.00738383 0.00946104 
-3.44289e-05 -4.70248e-05 -0.00019743 
0.000106648 0.00015614 -4.65424e-05 
8.79415e-05 0.000114061 0.000884661 
8.13218e-05 -0.00023136 0.0446975 
0.00690944 -0.0110837 0.0320273 
-0.00314724 0.00146432 0.0505373 
-0.00172006 -0.0108029 0.0602556 
-0.000773422 -0.00347237 0.0310835 
0.029206 0.0651083 0.101932 
-0.00962998 0.0818551 0.0917813 
0.0124409 -0.0131395 -0.0627705 
0.00343082 0.0153649 0.242378 
-0.0038864 0.0192779 0.236578 
0.0215 0.0387757 0.183236 
0.0507759 -0.0308815 0.156757 
0.0745831 -0.0164329 0.0374079 
0.00298663 0.00120509 0.0661131 
0.00851199 0.00849461 0.0726413 
0.00861448 0.0120384 0.0656486 
0.00601049 0.00325045 0.0756264 
0.00246443 0.0133257 0.0706054 
0.00070869 -0.00434335 0.0580058 
0.0114001 0.00934936 0.0709198 
0.0140016 -0.000192742 0.0768143 
-0.0109534 -0.0036189 -0.00468396 
-0.00338706 0.00122063 -0.000427717 
-0.00461265 -0.000589273 -0.00825228 
0.0377894 -0.0138073 0.0336315 
0.000661482 0.000575174 0.039493 
9.80014e-05 6.70085e-05 0.040115 
0.00147415 0.00101154 0.0638689 
0.0003375 5.53681e-05 0.0351943 
0.000198231 -0.000207387 0.0584385 
-4.90185e-05 0.000199198 0.0703647 
-0.000150436 0.000144746 0.0722162 
0.000190493 0.00164129 0.0593692 
-0.000775111 0.00210595 0.0562971 
0.000108765 0.00146386 0.0587775 
0.00100365 0.0018572 0.0471783 
-0.000265119 0.0030472 0.0695861 
-0.00153348 -0.022299 0.0814432 
0.00901273 -0.0153446 0.0385395 
0.0028122 -0.00411991 -0.0236076 
-0.00119278 -0.00898389 0.0387688 
-0.0146841 0.000200785 0.10279 
-0.0148531 -0.0021382 0.0634914 
0.00381103 0.0108131 0.071658 
-0.00314862 -0.00357354 0.055743 
0.0164054 0.0168457 0.0748039 
0.00825254 0.00507819 0.062714 
0.00745506 0.0074191 0.0672511 
0.0024412 0.00506238 0.0732847 
-0.000155113 -0.000551905 0.000599829 
2.50818e-05 6.31736e-05 0.000216834 
6.59399e-05 0.000212168 1.52782e-05 
-3.22475e-05 -0.000668713 0.0393904 
0.000116731 0.000140008 0.0500106 
0.000556419 -0.00100896 0.0372549 
-8.57811e-05 0.000181233 0.0551406 
0.00071589 -0.000687186 0.0620786 
-0.000511368 -0.000589169 0.0526615 
-0.000237556 0.000258253 0.0292508 
0.000525392 -0.000627014 0.0372023 
-0.000153424 0.00017995 0.0365459 
0.000274336 -2.22984e-05 0.000261418 
-4.55594e-05 3.70312e-06 0.000509577 
1.72269e-05 -1.40022e-06 0.000420568 
-0.000554761 0.000537679 0.0373878 
-0.00672716 -0.0023563 -0.0123214 
-0.0024862 0.0033307 0.011125 
-0.00732852 -0.0131062 0.0468113 
0.0257632 -0.0466386 0.0701135 
0.0112419 0.00397758 0.0555056 
0.0153606 0.00695548 0.0750663 
0.00688942 0.00408699 0.0249434 
0.0269684 -0.00478779 0.0207222 
-0.000162422 4.21875e-05 0.0291179 
0.000262714 0.000366109 0.0501917 
0.000609854 -0.000115705 0.0345281 
-0.000139873 0.000318981 0.0354613 
-0.00564191 -0.00135249 -0.00742397 
-0.00873933 -0.00215074 -0.00917147 
0.0169592 0.00636823 0.0210212 
0.00915783 0.00998073 0.0172586 
0.0104279 0.00354626 0.0705282 
0.0155741 0.00431583 0.0681304 
0.00256494 0.0051785 0.0629331 
-0.00239198 0.0101653 0.0683178 
-0.00333927 -0.00358363 0 
0.00492223 0.00532082 0 
-0.00451799 0.00804407 0 
-0.00786992 -0.0263907 0.00583739 
0.00220343 0.0062433 0.0666536 
0.00206099 0.00529866 0.0750539 
0.000693891 0.00192583 0.0706976 
0.00159794 0.00284206 0.0630735 
0.00563838 -0.0284164 0 
0.0208912 -0.0240096 0 
-0.0175425 0.0204221 0 
-0.00300838 -0.0507109 0.124748 
0.000524897 4.38617e-05 0.00410737 
-0.000898434 -7.50754e-05 -0.00193067 
0.000773636 6.4647e-05 0.00142104 
-0.00154276 0.00422529 0.0191492 
0.00182806 0.0122247 -0.00981134 
-0.0235576 0.0168657 0.0681541 
-0.0187145 0.00479358 0.0472564 
-0.00780727 -0.0297382 0.0221514 
0.0075477 -0.00389257 0.046462 
-0.00184055 0.00378513 0.0603641 
-0.00543815 0.00398116 0.0697814 
-0.0127352 0.00742351 0.0770882 
-0.00093391 -0.00495894 0.0426767 
-0.00787231 0.0312724 0.0612007 
0.0220943 0.047163 0.11384 
0.00640031 0.0311789 0.0464895 
-0.00154008 -0.0025894 -0.000558677 
-0.00723141 0.000703498 -0.00500355 
-0.00633235 -0.00321381 -0.00775798 
0.028052 0.0139208 0.0223544 
-0.0484751 0.0174199 0 
-0.0445348 -0.00914116 0 
0.0426095 0.0111871 0 
-0.0321809 0.0481736 0.128502 
0.00632562 -0.00263307 -0.0397223 
-0.024738 -0.0498487 -0.00554628 
-0.00103143 0.005372 0.0845248 
-0.023463 -0.0363003 0.0962221 
-0.000609668 -0.000903019 0.00197832 
-0.000260615 -0.000225074 -0.00260767 
-0.000466545 -0.00058905 -0.000674314 
-0.00367794 0.000131727 0.0399129 
0.0242319 -0.0117776 0.0217659 
0.000266113 0.0277173 0.0230905 
-0.00427989 -0.00130265 -0.0268634 
0.0160079 0.00465582 0.0416404 
-0.00248356 0.00157736 0.0705888 
-0.000777554 0.00161762 0.0693863 
-0.000442295 0.00371197 0.0769393 
-0.00108086 0.00192338 0.0803668 
-0.00028969 -0.000367998 0.000645967 
-0.000308872 0.000328096 0.0209574 
0.000116874 -0.000110994 1.00526e-05 
-0.000218427 0.000103237 0.0296837 
-0.00376533 0.000294458 -0.000320863 
-0.00149363 -0.00130165 5.05551e-05 
0.0176034 0.00927088 0.0242154 
0.00190634 0.00311173 0.031384 
-0.00436001 -0.00367141 -0.00222257 
0.00170766 -0.0015921 -0.00303641 
0.000824708 -0.000379843 -0.00196207 
-0.00706469 0.0133057 0.0179038 
-0.0379352 0.0152562 0.0383306 
-0.0260248 -0.0162873 0.039273 
0.0066543 -0.0120569 0.07426 
-0.00114437 -0.015719 0.144954 
-0.0872214 -0.0165371 0.141019 
-0.0154533 0.00956566 0.0359789 
-0.0258068 -0.00453788 0.169599 
-0.0024587 -0.0333902 0.101109 
0.000141868 0.000121451 0.0291244 
-0.000194931 -0.000293477 0.0235353 
-0.000238641 8.52227e-05 0.00075929 
0.0001951 -9.06835e-05 0.0432205 
0.00946964 -0.0523202 0.106509 
-0.0282701 -0.0215543 0.121628 
-0.00628039 -0.0408397 0.254204 
0.0538341 -0.0233692 -0.0382193 
3.461e-05 8.33437e-05 0.000303548 
-0.00018889 -0.000375828 0.000727811 
5.80879e-05 0.000119699 -9.94064e-05 
4.37332e-05 -0.000658621 0.0495417 
0.0356562 -0.0416002 0.121907 
0.023145 -0.0496654 0.123773 
0.00118122 0.00403633 0.250044 
-0.00738384 -0.028528 -0.117606 
0.0268394 -0.0259577 0 
-0.00106136 0.0141037 0 
-0.0171152 0.0163523 0 
0.0442482 -0.0478229 0.0567155 
0.0069385 0.000920638 0.0627341 
-0.00220369 0.0063155 0.0671943 
-0.000316497 0.00117481 0.0473965 
0.000195354 0.00272553 0.0641307 
0.0563529 -0.0262689 0 
-0.059477 0.0304117 0 
-0.0606723 0.0222527 0 
-0.0390589 0.0367024 0.189995 
0.0160301 0.0136343 0.248524 
-0.016553 0.00424923 0.175959 
-0.00369719 0.0188905 0.141729 
-0.034121 -0.00828312 0.207074 
-0.0060913 -0.0299546 0.0578711 
0.0293285 -0.0127249 0.0428791 
-0.000425259 -0.00079972 0.115936 
-0.0125563 -0.0382066 0.143263 
-0.00614451 -0.00736628 -0.00450044 
-0.00225895 -0.00350845 -0.0104252 
0.000783407 -0.0035395 0.00176384 
0.0139009 0.0290232 0.0267793 
-0.00770056 -0.00949929 0.0598231 
0.01384 0.015589 0.0419062 
-0.011131 -0.0149479 0.0228692 
-0.00188392 -0.00334529 0.0256064 
0.00588817 0.0103087 0.273717 
-0.0313771 0.0337031 0.149746 
-0.00575359 0.0424366 0.152339 
0.0283559 0.0557311 0.179787 
0.000453985 0.0245692 0.0785984 
0.00644716 0.0245023 0.176369 
-0.0085128 0.0259117 -0.00155031 
-0.02976 0.00727729 0.130496 
0.00141712 -0.0053511 -0.0098303 
0.00396085 0.000995826 -0.000919005 
0.00224065 -0.00257413 -0.00774015 
-0.00466134 0.0148177 0.0299686 
1.98251e-05 0.000195964 0.0826038 
-3.82357e-05 -0.000206321 0.0802699 
-0.00141394 -0.00026655 0.0820302 
-0.00127284 0.000956255 0.0803257 
0.0161285 0.0277913 0.0885077 
0.00068835 -0.00920091 0.0743966 
-0.00417147 0.000767596 0.117631 
-0.00154704 0.00813602 0.0710982 
-0.00018985 -0.000370889 0.000687015 
9.85497e-05 0.000194024 -1.44832e-05 
-0.000148787 -0.0002921 0.000211366 
0.000758225 0.000352851 0.0386831 
-0.0260201 0.0049527 0.0458239 
-0.00478395 0.00112226 0.120182 
0.000721022 -0.00885785 0.0737002 
-0.00131381 0.00734397 0.0711437 
-0.010942 -0.00336678 0.0471851 
-0.000655421 0.00250777 0.0352142 
0.00216482 -0.00177461 0.0572299 
-0.00115293 -0.0017814 0.0653219 
0.00203523 -0.000796903 0.0743573 
5.43789e-05 -0.000212486 0.0652452 
0.00156694 -0.000372465 0.0600095 
0.00110022 -0.0013655 0.0615085 
-6.35217e-06 -7.77995e-05 0.00039052 
-1.9418e-06 -2.37826e-05 7.50925e-05 
6.43438e-06 7.88063e-05 0.000581445 
0.000238918 0.000157133 0.0358635 
0.000382173 0.0011564 0.000980542 
0.00121702 0.00224014 0.040242 
-0.00365073 -0.00131616 0.0447775 
0.000185284 -0.00510043 0.0346188 
-0.000986523 -0.000598658 0.00255546 
0.00331113 0.000442538 0.0432663 
-0.00162794 -0.00167095 -0.00277458 
0.0124954 0.00270401 0.0258792 
-0.00519547 -0.00209963 0.0438363 
0.00093198 0.00531086 0.0737193 
0.00579905 -0.000213861 0.0662019 
-0.0102576 0.00344844 0.0298916 
-0.0145759 0.00621892 0 
-0.0162573 -0.0332711 0 
0.00405944 0.0291437 0 
0.0584941 0.0178821 0.0476987 
-0.00655237 0.00482414 0.0515532 
-0.0138393 0.0166089 0.0523534 
-0.00848204 0.014441 0.0643397 
-0.0114147 6.94233e-05 0.0617839 
-0.000219634 -6.09209e-07 0.0697005 
0.000147507 -1.30832e-06 0.0754099 
7.59094e-06 7.89984e-05 0.0806526 
-0.000672283 0.00195154 0.0686053 
-0.014175 -0.00519068 0.256739 
0.00465456 0.0263601 0.116592 
-0.0161137 -0.0238439 0.223231 
0.0417417 0.0978097 0.00450838 
0.0422646 -0.000405496 0 
0.0388718 0.014834 0 
-0.0430633 0.00674513 0 
0.0412091 0.0279168 0.103018 
1.98426e-05 3.05096e-06 0.000264086 
-0.000164388 7.23501e-05 -0.000107747 
-0.000278319 0.000151128 0.000427705 
0.000680331 0.000176775 0.0406528 
-0.0120345 -0.00975126 -0.00778574 
0.0104688 -0.00185845 0.031817 
-0.00193591 0.00109041 -0.0157484 
-0.0229622 -0.0372036 0.0580948 
0.00854915 0.0166584 0.0530935 
0.00452004 0.0124473 0.0599557 
-0.00363921 0.014568 0.070897 
0.0104298 0.0107779 0.0696443 
-0.0145854 -0.0314652 0.190781 
-0.0246414 -0.00620982 0.118058 
0.0136672 -0.0124035 0.117937 
-0.0274878 -0.0414549 0.0116376 
0.000527083 -0.000186821 0.0826208 
0.0028254 0.00185029 0.0750455 
0.000258942 0.0013688 0.080903 
0.000262228 0.00157162 0.0791569 
0.00494582 -0.0561137 0.0380864 
0.0115143 0.0155362 0.064857 
0.00403003 -0.0442353 0.086765 
0.0410248 -0.00298896 0.0173603 
0.0134303 -0.00120872 0.0514243 
0.0117736 -0.00820902 0.0580297 
-0.00688677 0.0039901 0.0416005 
0.000584988 0.00218088 0.0611066 
0.00137471 -0.00117601 0.000902932 
-0.00274149 0.000984345 0.00051477 
0.00206483 0.00259421 -0.00326068 
-0.00177011 -0.00479478 0.00563323 
-0.000239565 0.00020999 0.0782159 
0.000896901 -0.00113491 0.0799778 
0.00236175 -0.000891307 0.0737093 
0.00132058 -0.000389664 0.0793338 
-0.000866063 0.00622643 0.0617395 
0.00462637 0.000811329 0.0625778 
-0.00421557 0.00194044 0.0396394 
0.00325834 -0.000987211 0.0618471 
0.000599889 0.00133921 -0.000539921 
-0.000563942 -0.00133457 0.0012969 
-0.000159418 -7.35007e-05 -0.00280454 
-0.00166509 0.000148549 0.0354181 
-0.0169739 -0.0228611 0.0325562 
0.0153977 -0.000216216 -0.0333813 
-0.0259309 -0.0254206 0.0110374 
-0.0578062 -0.0515068 0.168268 
-0.00022254 0.000507815 0.00155384 
0.00034724 -0.000773064 -0.00319198 
-0.000317193 0.000795399 -0.000631743 
-0.00273097 -0.00122812 0.0269383 
0.000222677 -0.000322093 0.00019583 
0.00023678 -8.53831e-05 0.000602287 
-0.00103941 0.000988456 0.0437375 
-0.000426787 0.000554554 0.0442822 
-0.000323982 -0.000294605 0.0841444 
4.84255e-05 4.8658e-06 0.0812348 
0.000728509 -7.05459e-05 0.0830074 
0.00124757 0.000104581 0.0794048 
0.00039887 -0.00305901 0.00342868 
0.00210647 0.0052385 -0.00414225 
0.00171013 0.00146804 -0.00300884 
0.000427109 -0.00946558 0.00988946 
-0.000264112 -0.000378158 0.047397 
-4.61229e-05 0.000143706 0.029515 
-8.96698e-06 1.54833e-05 0.0243095 
-1.15109e-06 -0.000191206 0.0352206 
0.00336527 -0.00717114 0.071145 
0.00257899 -0.00295374 0.0559838 
0.00100939 -0.000584054 0.0577948 
0.00220395 -0.00361789 0.0715209 
0.00233822 0.0086891 0.0697874 
0.0011457 0.0186276 0.130677 
0.020679 -0.0394366 0.089102 
0.0188392 0.0125307 0.124364 
0.0100965 0.0184306 0.0753731 
0.00589716 0.00177077 0.056744 
-0.00301717 0.0117246 0.122774 
-0.0135148 0.0070364 0.0862276 
0.00237112 0.00586984 0.0676186 
0.00309421 0.00386067 0.0636824 
0.00265567 0.00330048 0.0682477 
0.00156739 0.00186156 0.0621853 
0.00641223 0.027435 0.147519 
0.0150385 -0.0110264 0.294356 
0.0306587 -0.00134736 0.221588 
-0.140135 0.0564161 0.11508 
0.00147129 -0.00397013 0.0749204 
0.000603637 -0.00590449 0.0545639 
-0.00166957 0.00436071 0.0717816 
-0.000279779 -0.00918033 0.056166 
0.00286419 0.00260753 0.0748452 
0.000918198 0.00181651 0.0723423 
0.00138943 0.00453386 0.0742644 
0.00406384 0.00252367 0.0679548 
-0.00120869 0.000193994 0.0379026 
-0.0021065 0.000610309 0.0679135 
0.00167677 -0.000833895 0.0485381 
-0.0042709 0.001589 0.0296259 
0.00234452 0.00227645 -0.0178419 
0.000721493 -0.0143905 0.0276399 
0.00470598 -0.0196957 0.0669111 
-0.000467078 -0.00671841 0.0338917 
-3.41295e-05 6.9226e-05 0.0461083 
7.76241e-05 -0.000622085 0.0373302 
0.000844557 -0.000612726 0.0471618 
0.00110471 -0.000843877 0.061486 
0.0244867 0.00825165 -0.035379 
-0.0108675 -0.022465 0.0395044 
0.01831 -0.0389772 0.0226111 
-0.00949912 -0.0458224 0.111732 
0.00170795 0.00388372 0.073419 
0.000172461 0.00133633 0.0809679 
0.00282843 0.00185804 0.0750275 
0.00050339 0.00156756 0.0792016 
0.0208802 -0.0434799 0.162076 
0.00699507 -0.00913944 0.154424 
0.0225509 0.013455 0.240789 
-0.0423467 -0.0151965 0.19492 
-0.000682815 0.00527097 -0.00588587 
-0.00208678 0.00456379 -0.00476139 
-0.00517996 0.00387799 -0.00458781 
0.0145883 -0.0371007 0.0259902 
0.0151619 0.00164287 0.273167 
-0.0379853 -0.010187 0.260598 
-0.0741854 -0.00816755 0.112391 
0.0833193 0.00975509 0.156344 
-0.00861566 0.0104327 0.273238 
0.0145031 -0.0131583 0.152966 
0.00831051 0.00807146 0.217564 
-0.0459548 -0.106445 0.144791 
0.000433455 -0.00106114 0.047744 
-0.000586817 0.00114119 0.0398932 
0.000931101 -0.0043895 0.0675833 
-0.000729594 -0.00276437 0.0629831 
0.0168099 -0.00349779 0 
0.000687066 0.00799028 0 
-0.0242148 0.0030237 0 
-0.0210223 0.00652372 0.0382066 
0.00106422 -0.000555974 0.0475048 
0.00140715 -0.000791448 0.0597826 
-0.000311943 4.00368e-05 0.0462943 
0.00123763 -0.000828198 0.061422 
0.00289041 0.00165855 0.0755499 
0.000470781 0.0013009 0.0805937 
0.00100313 0.00286544 0.0718508 
0.00106802 0.00100605 0.0740674 
0.000937666 -0.00108365 -0.00761251 
0.0017577 8.36564e-05 0.00319278 
-0.00272389 0.00784016 0.0297983 
-0.000701365 0.0100588 0.017704 
0.000588873 -0.0137787 0.0173781 
-0.0033167 -0.0013089 0.0586091 
-0.0108411 -0.00538624 0.0676035 
-0.00878045 -0.00402691 0.0241299 
0.000691485 -0.000261028 0.0432386 
-0.00162505 0.000392947 0.064723 
-1.23284e-05 -0.000139261 0.0608067 
-0.000838805 0.00101449 0.0599673 
-0.0250665 0.0221335 0.088023 
-0.00250213 0.0133268 0.00479881 
-0.0297498 0.0157414 0.0784631 
-0.0126171 0.0145186 0.0643748 
-0.000204112 0.00362029 -0.00267048 
-0.00189102 0.00268295 -0.00385327 
-0.000440096 -0.00173234 -0.0017813 
0.016214 -0.0186657 0.0264147 
0.000232737 -0.00055596 0.0629185 
-0.00173485 0.00213628 0.0706383 
-4.6831e-05 -6.92196e-06 0.075489 
-0.000635169 0.00187398 0.0685364 
0.000191608 -0.000485546 0.0357897 
-0.00011355 0.000282889 0.0580555 
6.79709e-06 -8.27048e-05 0.0421698 
-0.000333547 0.000969242 0.0599251 
-0.0187223 0.020426 -0.0406162 
-0.0296187 0.000754029 0.0113546 
0.0345808 -0.0295986 0.0380087 
0.0720519 -0.0332427 0.169099 
-0.000182113 -5.70265e-05 0.0578587 
-0.000105047 0.00159813 0.0596973 
0.000906384 0.00205124 0.0721871 
0.000974516 0.000705695 0.0620042 
0.0158966 0.00780263 0.221163 
0.00373665 0.0101386 0.271318 
-0.00431873 -0.0266157 0.148809 
-0.0849339 -0.0678038 0.0921879 
0.00216897 0.00616373 0.0666746 
0.000717805 0.0024072 0.0717259 
0.00208193 0.00489446 0.0739336 
-0.000251415 0.00421423 0.068561 
0.0513928 0.00927955 0.153451 
0.0365325 0.0400677 0.0947439 
0.0238712 0.0438006 -0.0226246 
0.0078408 0.0173729 0.218674 
-0.00828999 -0.0141132 0 
0.0360123 -0.0076857 0 
-0.0424979 0.00308244 0 
0.074166 0.0186139 0.0427339 
-0.00136777 0.000621098 -0.00122473 
0.00281428 -0.00144383 0.0519124 
-0.000821228 0.000308765 -0.00226806 
0.00418838 0.000637591 0.0367601 
-0.00365103 -0.0146817 0.0817102 
-0.0117933 0.0229114 0.0425888 
0.0114207 0.00381061 0.0623285 
0.0270973 0.0112163 0.0658406 
-0.00280011 0.0150186 0.068116 
-0.000321735 0.0118033 0.0769213 
0.000768795 0.00750355 0.0672486 
-0.00024294 0.00743891 0.0636126 
-0.0193511 0.00360273 0 
-0.0107293 0.00938698 0 
0.0234561 0.00558229 0 
0.0207487 0.00715559 0.0517961 
0.0150216 0.0117673 0.0683734 
-0.00139655 -0.0045966 0.0101026 
0.0648031 -0.0163374 0.0481748 
0.0275786 -0.0048477 0.0879374 
0.000100765 -3.69471e-05 0.072257 
0.000967764 0.00196834 0.0721218 
-0.000384152 -0.000209216 0.0583898 
0.000103123 0.00180984 0.0591092 
0.00206566 0.00373184 0.0573648 
-0.00405178 -0.0123846 0.0419993 
0.00552579 0.0227619 0.0525306 
-0.00149545 -0.0150816 0.0672214 
0.000543352 -0.00688364 0.262313 
0.0154852 -0.0070616 0.279037 
-0.0468161 -0.0780901 0.0769433 
0.0279486 0.0541671 0.14122 
-1.07628e-05 7.67673e-05 0.0843939 
5.26166e-05 -0.000156307 0.083684 
4.21884e-05 4.34877e-05 0.0813219 
0.000402974 -0.000163829 0.0834564 
6.57708e-05 -0.000774439 0.0482403 
-0.000454091 -0.00169041 0.0453497 
-0.000125546 -0.0013451 0.0511489 
-8.5152e-05 0.000504882 0.0362053 
0.013266 -0.0295326 0.079104 
0.0174371 -0.0116185 0.0661593 
0.00203669 -0.000984928 0.0500479 
-0.00208386 -0.00300227 0.0669626 
-0.00652886 0.0107751 0 
-0.000793352 -0.00550728 0 
0.0220095 -0.0230929 0 
0.0427578 -0.0371542 0.0438569 
0.00609415 0.000859733 0.0612312 
0.0017715 0.00115327 0.048859 
0.00043575 -0.00114324 0.0394454 
-0.00173655 0.00269737 0.062148 
-0.000163573 0.000176508 0.0508999 
0.00022738 -0.000164947 0.029088 
6.79978e-05 -2.66737e-05 0.0430776 
-0.000512478 0.000347942 0.0419434 
-4.44845e-05 -0.000180601 0.022218 
5.98102e-05 0.000211524 0.0271783 
0.000357268 8.15714e-06 0.00067114 
-0.000437638 0.000167194 0.0403984 
0.052034 0.0328506 0.0369138 
0.0217003 -0.0437091 0.107232 
0.029075 0.0105021 0.21745 
0.0186439 0.0331012 0.14636 
-0.0185596 0.00101452 -0.0195767 
0.0129083 -0.0205891 0.10068 
0.0187574 -0.0249959 0.0069124 
-0.00163772 0.000370947 0.0483853 
-0.000261216 0.00127204 -0.00010818 
-0.000539856 0.00044767 -0.000349705 
-0.00126943 -0.0017424 -0.00216236 
0.0052173 0.00335469 0.00956294 
-0.000783023 0.00418248 0.0764055 
0.000786128 0.00367515 0.0688831 
-0.00111194 0.00219087 0.0687143 
-0.00161781 0.00371387 0.065792 
3.97724e-05 -2.93679e-05 0.00124505 
-0.000131799 6.00013e-05 -0.000372226 
0.000117063 -4.92784e-05 -7.31915e-05 
0.000316623 -2.68759e-05 0.036578 
0.000237084 -1.51753e-05 0.0440694 
-0.000200538 -5.45034e-05 0.0219876 
-0.000104638 -4.84655e-05 0.0263849 
0.000256977 0.000131641 0.0395141 
-0.0037345 0.0076617 0.0857294 
0.0257304 -0.0056734 0.0513581 
-0.000826278 -0.00476625 0.0577445 
-0.0633542 0.0400497 0.0774207 
-0.0113173 0.00185079 -0.015475 
0.0389477 -0.001515 -0.000926276 
0.0151307 0.00707404 0.0503024 
0.0237533 -0.00125709 0.0511976 
0.02592 -0.0250073 0 
-0.0180137 0.0172812 0 
-0.0125563 0.00146469 0 
0.0443594 -0.0479706 0.0579164 
6.9343e-05 -6.84765e-06 0.000314067 
-9.21721e-05 9.10203e-06 0.000104145 
0.000277737 -2.74266e-05 0.000417922 
-0.000184905 0.000114967 0.0487315 
-0.014114 -0.000659736 0.0594054 
-0.0237084 -0.013049 0.0646627 
-0.00586333 -0.00650278 0.0264672 
0.00248101 0.0048765 0.0578222 
-0.0046869 0.00363924 0.0712659 
-0.0053199 0.00358849 0.0681038 
-0.00360496 0.000466964 0.0740537 
-0.0108881 0.0030165 0.0658282 
-0.000828961 -0.000961597 -0.00192234 
-0.00122042 -0.000902137 0.0523591 
0.0136441 -0.00133278 0.0443181 
0.00230784 0.00288601 0.0364269 
-0.00524275 -0.00911904 0 
-0.0127469 -0.0150189 0 
0.0304425 0.00141606 0 
0.0441571 0.00935736 0.0578972 
0.00861808 -0.0111684 0.0547453 
0.00357244 -0.00680275 0.075277 
0.0103812 -0.00781689 0.0618555 
0.0108677 -0.0124377 0.069353 
-0.000347384 0.000471755 0.0654311 
-0.000329439 -8.09676e-05 0.0715083 
0.000564653 -0.00286197 0.0726635 
0.000862851 -0.00187133 0.0719067 
-0.00053871 -0.00165977 0.0581194 
-0.00197871 0.0048156 0.071948 
-0.00767604 0.0105421 0.0573208 
0.00143288 -0.00342581 0.0624663 
0.000417956 -6.39305e-05 0.0830638 
0.000420586 0.00158024 0.0792199 
-0.00162868 0.000872313 0.0779906 
-0.00109367 -0.00216198 0.079583 
0.000315102 0.000174433 0.000428452 
-0.000235391 -0.000223686 0.0234487 
-0.000228577 0.000126048 0.000374804 
0.000271971 -0.000693672 0.0440677 
-0.000110769 0.000371404 0.0756434 
-0.00152026 0.00173677 0.0707977 
5.11979e-05 -0.00011588 0.0648627 
-0.00126115 0.000624115 0.0601761 
-0.00936867 0.000669214 -0.0128142 
-0.00720063 0.00224399 -0.00368657 
-0.00121726 0.00675923 -0.000239448 
0.0444176 -0.0155972 0.0389801 
-0.00254255 -0.000995046 0.0727395 
-0.00355277 0.00105671 0.0745331 
-0.00649275 0.000186457 0.0670163 
-0.00430583 -0.00114458 0.0761302 
0.0004827 0.00137219 -0.00332492 
-0.00140929 -0.00330719 -0.000664131 
-0.000322895 -0.00096867 0.00297732 
0.00752509 0.00471298 0.0196257 
-0.00314743 0.00157435 0.276319 
0.0190386 -0.00231211 0.221403 
-0.0481628 0.0205275 0.148868 
-0.107845 0.0154019 0.0256883 
-0.00120155 0.000840849 -0.00840493 
-0.00311383 0.000681644 -0.0020364 
0.0163466 -0.00414784 0.0438232 
0.00355888 0.00314736 0.0373284 
0.0311284 0.00795597 0 
0.0202186 0.038309 0 
-0.0387152 -0.0325371 0 
0.012729 0.0569194 0.0811835 
0.000653033 0.0118451 0.052754 
-0.00146926 0.00421705 0.0694444 
0.00319897 0.00935594 0.0621554 
0.000352861 -0.000193113 0.0590747 
-0.00015055 -7.85571e-06 3.72577e-05 
0.000132885 0.000192582 0.000605044 
-0.000189923 -0.000430825 0.0355857 
-0.000247658 -0.00107213 0.037835 
-0.000127993 0.000133618 0.069906 
7.26697e-05 -0.000125287 0.059276 
0.000215649 -0.000395295 0.0517068 
-0.000819125 0.00167728 0.0690209 
1.25063e-05 -0.000409276 0.0584123 
0.000729661 0.00202398 0.0722465 
0.000175208 8.02182e-05 0.0686599 
0.000890111 0.0010837 0.0613994 
0.00282472 -0.00299924 0.250197 
0.00619954 0.00302225 0.227843 
0.00165676 -0.0162415 0.283505 
0.0265464 0.105259 0.182726 
-0.0429495 -0.00246645 0.244111 
-0.0140544 0.00839727 0.22084 
0.000747348 0.00602672 0.258813 
0.115719 0.011079 0.185054 
0.000175619 3.46595e-05 0.0812126 
-0.00039016 4.08159e-05 0.0849502 
0.000665229 -9.3381e-05 0.0828886 
0.001204 9.93292e-05 0.0794927 
0.00227569 -0.0017398 0.0741346 
0.00149799 0.000125067 0.0601123 
0.00214061 -0.00297153 0.0714473 
0.000766882 -0.000496884 0.061742 
0.00209935 -0.0037613 0.0770021 
0.00279576 -0.00271664 0.0707487 
0.00378503 -0.00685163 0.0683093 
0.000436944 -0.00460351 0.0677943 
-0.00980156 -0.00201161 0.0484034 
-0.00272147 -0.0167455 0.00527164 
-0.00274578 0.0125431 -0.00985684 
0.0322093 0.0671844 0.0835803 
0.013932 0.00227728 0.0519737 
-0.00214288 -0.00258498 0.0567268 
0.000616874 0.00326989 0.0341116 
0.0221484 0.00921128 0.0648774 
0.0323765 -0.0120505 0.0262998 
0.0117263 0.000416638 0.00729252 
-0.0138528 -0.0106741 -0.0338769 
0.0550287 -0.00883379 0.107072 
-0.000715358 0.00323803 0.0760519 
-0.0016023 0.00120015 0.080567 
0.000476245 0.00122041 0.0808625 
0.000289681 0.00171693 0.0789292 
-9.89091e-05 5.08822e-05 0.0728984 
0.00187838 0.000928237 0.062174 
-0.000207773 -0.000230328 0.0599638 
0.00136146 0.00119271 0.07432 
-0.00445729 0.00101773 0.0743485 
-0.00120538 0.000215344 0.0655546 
-0.00615007 9.62223e-06 0.0675709 
-0.00496588 0.00205288 0.0665495 
-0.0222872 -0.00548367 0.0376178 
0.00108591 0.0254651 0.154872 
-0.00447609 -0.00946443 0.115179 
-0.0110067 0.0122205 0.0648478 
-4.91916e-05 -3.80309e-05 0.075555 
4.35392e-05 1.61298e-05 0.0752614 
0.00017875 -7.93854e-05 0.0653652 
-0.00175553 0.00186278 0.0700208 
0.000208684 -2.22427e-05 0.000190208 
-0.000661086 9.3876e-05 -0.0020666 
-0.00077136 6.67939e-05 0.000261246 
0.00383036 0.00337339 0.0509793 
-0.00310288 0.038982 0 
-0.0105913 -0.029117 0 
0.00461386 -0.0302068 0 
-0.0235525 -0.0424229 0.0863858 
1.7959e-05 1.38551e-05 0.0851831 
0.000524427 0.00127357 0.0808554 
0.000372959 -2.40426e-05 0.0825574 
0.000994879 6.43804e-05 0.0795336 
-0.000240234 -0.000254342 0.0589026 
2.97579e-05 -2.25183e-05 0.0720263 
0.000139008 -4.70249e-05 0.0688243 
0.000937483 0.00207835 0.0717288 
-0.000666388 0.00442844 0.0705442 
-0.00100314 0.0038537 0.0760661 
0.000433574 0.00138812 0.0786865 
-0.0019252 0.000665326 0.0782032 
0.0321078 -0.00309618 0.155728 
0.00462116 0.0142438 0.0513559 
0.00473188 0.0343549 0.0713436 
0.0404778 -0.00370453 0.11011 
-0.000176507 0.00387768 0.0380312 
0.000391603 -0.000257277 0.0338689 
0.000192334 0.000183325 0.0629143 
-0.00390946 0.00214552 0.0340727 
-0.00596642 0.00844839 0.036709 
0.000816807 0.000146117 0.0390532 
-0.00109401 3.02587e-05 -0.00246335 
-0.00411018 0.00189548 0.0290441 
0.000473621 0.00130897 0.0638089 
-0.00599871 -0.00144688 0.0301283 
-0.002069 0.000617465 0.0393589 
-0.000887323 0.00450297 0.0646666 
0.00787424 -0.0111155 0.0648895 
-0.00520186 -0.00148929 0.064014 
-0.0053237 -0.0173019 0.0241565 
0.000269544 0.000242378 0.0513599 
0.0144389 0.00474821 0.0540323 
-0.00339795 -0.00344148 0.0352602 
0.0099232 -0.00488953 0.0610516 
0.0150558 -0.00642932 0.0283487 
-0.0013395 0.002215 0.0713122 
-0.000873127 0.00228045 0.068687 
-0.00126015 0.000747053 0.0501825 
-0.00169332 0.00334948 0.0640119 
0.00374271 -0.000358446 0.0625897 
-0.0133682 0.00321129 0.0431062 
-0.00364157 -0.000571577 0.0303729 
-0.00346611 0.00391325 0.064598 
0.000264279 0.00119688 -0.00320909 
0.000263302 0.000988418 0.00103333 
-0.000233219 -0.00102914 0.00227056 
-0.00241594 0.00654904 0.0170162 
-0.000465674 0.000578555 -0.00091802 
-0.000101776 7.68472e-05 -0.00132526 
0.000483943 -0.000603218 0.000909447 
-0.00259551 -2.99325e-06 0.0374177 
-0.0199315 -0.0270709 0.0418176 
-0.0125797 -0.011292 0.0736642 
-0.02081 -0.0182878 0.0670843 
-0.00633596 0.00268141 0.0470869 
-0.000215318 -0.00146346 0.00118495 
0.0019971 0.00228555 0.0423169 
-7.75091e-05 0.000669012 5.35415e-05 
0.000288725 -0.00127072 0.0389484 
0.000179215 -0.000158572 0.0786256 
4.99857e-05 4.13054e-05 0.0681769 
-4.6761e-05 1.25413e-05 0.0651889 
0.00114427 -0.00124512 0.0613794 
-0.00104891 0.00328142 0.0760844 
-0.000797536 0.00790375 0.0686003 
0.00137574 0.00497855 0.0737264 
0.0004213 0.00396114 0.0689705 
0.000913381 -0.000434112 -0.00266683 
0.00075682 -0.00118816 -0.000840608 
0.00200069 0.000282585 -0.00335446 
-0.00995861 -0.0113363 0.0186463 
-0.0034025 0.000225575 0.0731941 
-0.00434048 0.00241905 0.0660694 
-0.00852428 -0.000316546 0.0696536 
-0.0110065 0.00315589 0.068482 
0.0016112 -0.00778699 0.0730546 
0.00257137 -0.00539422 0.0660218 
-0.00282838 0.000946985 0.0473995 
0.000826359 -0.000898757 0.0552177 
0.0101836 -0.0139649 0.10488 
-1.00379e-05 0.00227453 0.0499476 
0.027679 -0.0264213 0.0837879 
-0.00968562 -0.0100121 0.0693022 
0.000945679 0.000759672 -0.00578609 
-0.000312957 -0.000447116 -0.00435983 
0.000243121 0.000302108 0.00193673 
-0.0120419 0.0051269 0.0410704 
9.03111e-05 0.000239864 0.0424 
0.000121183 0.000583595 0.036712 
-7.85407e-05 -0.00025458 0.0273249 
-0.000510972 0.000194226 0.0360406 
-0.0035016 -0.0076212 0.0697016 
-0.00483481 -0.0048207 0.0713408 
-0.00799051 -0.00250606 0.0679138 
-0.0124288 -0.0107813 0.0659349 
-0.000229109 -0.000191878 0.0837974 
0.00094047 -0.000662748 0.080047 
1.56902e-05 -2.84752e-05 0.0812655 
0.00118156 3.10231e-05 0.0797343 
0.0148459 0.0148337 0 
0.000312164 0.0082143 0 
-0.0228083 -0.0113702 0 
-0.0294781 -0.0493672 0.0540745 
0.000328791 0.00238069 0.0695736 
-0.00033052 0.00128803 0.0593188 
-0.000874822 0.0023035 0.0562282 
0.000249061 0.00336503 0.068862 
0.0317016 -0.0316286 0.085795 
-0.0129789 -0.00423228 0.0607162 
0.0249479 -0.0410068 0.0418954 
-0.0256564 -0.0353618 0.01517 
0.038281 -0.0104007 0.00359829 
0.0132888 0.0251371 0.0740629 
-0.0233663 0.00929846 -0.0286617 
0.041025 0.0147399 0.0784103 
0.0160433 -0.00299842 0 
-0.00219383 0.00887602 0 
-0.000425597 0.0142045 0 
-0.000271587 0.0107192 0.0342091 
0.00743628 0.00204203 0.0628796 
0.00615375 -0.00849699 0.0425262 
-0.00198164 -0.00122769 0.0467403 
-0.00157352 0.00654173 0.0675284 
0.00154349 0.00174099 0.247453 
-0.0174247 0.013269 0.161528 
0.00328682 -0.00364313 0.228223 
-0.0170604 0.0355229 0.237109 
-0.000357488 0.000161517 0.000357935 
-0.000248 0.000111518 0.000364366 
0.000206207 -9.64442e-05 0.000508632 
0.000530712 0.000448796 0.0468633 
-0.0420858 0.00165387 0.0806829 
-0.0052405 -0.0117979 0.0635053 
-0.00410333 -0.00188538 0.105425 
-0.0314111 -0.0394939 0.13391 
-0.0120788 -0.027067 0.134028 
0.0288688 -0.0300082 0.13912 
0.0735317 -0.0184811 0.0956734 
0.0694579 0.0216419 -0.00474039 
0.00203349 -0.00609763 -0.00664135 
0.00328169 -0.00315801 -0.00698009 
-0.00718573 0.0119847 0.0286144 
-0.00242223 0.0152301 0.0176091 
-0.00641644 0.0160949 0 
0.0174842 -0.0264003 0 
0.00154348 0.0174389 0 
0.0250722 -0.0324259 0.0533186 
0.000814385 0.00259888 0.0733935 
0.0149151 0.0104992 0.0906472 
0.0232679 0.00258015 0.0741007 
-0.00499727 0.0101804 0.073184 
0.00289834 0.00772061 -0.0174016 
-0.0042633 0.00452051 0.00722685 
-0.00485285 -0.00299826 -0.0075328 
0.0242459 -0.0422141 0.0705515 
0.00309918 0.00860179 0.0682272 
-0.0018499 -0.00482339 0.0561579 
-0.00321836 0.00386939 0.0606353 
0.0100991 0.00886922 0.072445 
-2.64803e-05 -0.000521317 0.000968496 
-3.37633e-05 0.000553897 -0.000785325 
0.00150732 0.00113182 0.0418185 
-0.000136923 0.000704817 0.0391972 
0.000473542 -0.000164926 0.0825671 
0.000265831 0.00139056 0.0809018 
0.00270802 0.00169136 0.0749968 
0.00122194 0.000160664 0.079435 
-0.00024654 -5.24677e-05 0.0237524 
-4.08746e-05 0.000160503 0.029638 
-2.01902e-05 -0.00029823 0.000280229 
-6.43144e-05 -0.000110491 0.0357872 
0.00239778 0.0620134 0.148437 
-0.0105918 -0.01495 0.246273 
-0.0156284 0.0809621 0.138312 
0.0578049 -0.00597571 -0.0864749 
-0.00619412 -0.00280264 0.220211 
0.0265051 -0.00360315 0.174052 
8.97135e-05 0.00282145 0.251609 
0.00687475 0.0219657 0.235263 
-0.00841514 -0.00211873 0.0677293 
-0.009003 0.00197201 0.0705224 
-0.00741869 -0.00155933 0.0700365 
-0.0030483 -0.00176755 0.0741995 
-0.0113286 -0.0166539 0.102984 
-0.0337526 -0.0278041 0.0889177 
0.00493666 0.00926492 0.0465335 
0.0170314 -0.0140865 0.0748907 
0.000172384 -0.000338222 0.000329864 
0.000146757 -0.000288158 -4.42083e-05 
-0.000296765 0.000582641 2.95426e-06 
-0.000366434 0.000956269 0.0403999 
0.000138054 -0.000533835 -0.00107825 
-0.000439972 0.00207904 -0.00349449 
-0.00059937 0.00225286 0.00587066 
-0.00614665 -0.015384 0.020115 
-0.00334638 -0.00580734 -0.00648636 
0.00391819 0.00277706 0.0023309 
-0.00143938 -0.00248612 -0.00178981 
0.0226374 -0.00051302 0.0313889 
-0.000172873 -3.0151e-05 0.0529826 
0.000823271 -0.000200344 0.0353046 
-1.97311e-05 -9.16461e-05 0.0466186 
0.000816534 -0.00050754 0.0599223 
0.000195671 0.000300884 0.0606163 
4.70445e-05 -0.000103008 0.0442607 
0.00088832 0.000659764 0.0630369 
0.000584351 1.87528e-05 0.0402979 
-0.0673736 0.0114292 0.0929876 
-0.00674718 -0.0788941 0.0160908 
-0.026087 -0.00340462 0.0771323 
-0.0622212 -0.0114931 0.150251 
-0.00310508 -0.0156871 0.171529 
0.00272173 0.00600099 0.238149 
0.0235654 -0.00798865 0.167234 
-0.0511037 -0.00687446 0.206465 
-0.0427314 0.0213512 0.0131747 
0.0112482 0.0261151 0.0364459 
-0.013509 0.00496565 0.0761187 
0.048763 -0.0108579 0.0599371 
-0.0150159 0.0169826 0 
0.0209999 -0.0212238 0 
-0.00466532 0.0206922 0 
-0.0200346 0.0541432 0.0644636 
-0.0129153 -0.0217434 0.207113 
-0.00220786 0.00154124 0.219057 
0.0123038 -0.0110609 0.131163 
0.0581088 0.0119829 0.204538 
-0.00310802 0.00280946 0.254495 
0.0369525 -0.0264113 0.176742 
-0.000221423 -0.044206 0.147599 
0.0291283 -0.0763731 0.0121191 
0.00609209 -0.00168938 0.069307 
0.00251281 -0.000175997 0.0610359 
0.00728004 0.000702547 0.0691698 
0.0104369 3.61871e-06 0.0669312 
-0.00498239 -0.00226394 0.0690893 
-0.00227304 -0.00238571 0.0662715 
-0.00180368 -0.00596926 0.0654596 
-0.00234291 -0.0122896 0.0678233 
0.000576356 -0.00010527 0.0829678 
-0.00209958 0.000867034 0.0783047 
-0.00135724 -0.00052379 0.0815373 
-0.000701444 -0.00204568 0.0792962 
-0.0119882 0.00144883 0.0797819 
0.000206261 -0.000766569 0.0377128 
-0.019205 -0.0193838 0.0829917 
-0.014688 -0.00901679 0.0121643 
0.000972796 -0.000325371 0.00129408 
-1.3787e-06 -0.00106516 0.000728298 
0.000348734 0.00117403 0.0347312 
-0.00055989 0.00052422 0.0359277 
-0.000213042 -0.000167972 0.0597532 
0.00166809 0.00123351 0.074288 
0.00179264 0.000820562 0.0625053 
0.000433757 0.00123208 0.0619013 
-0.00382466 0.00530353 0.0685024 
-0.0129748 0.00959578 0.0661687 
0.00275294 0.00759491 0.0681573 
-0.00257211 0.0084606 0.0662818 
0.0501992 -0.0314944 0.162549 
-0.00706241 -0.064229 0.0588793 
0.0326855 -0.0228805 0.270892 
0.0382075 0.0235076 0.108897 
-0.000525607 0.0033962 0.0765811 
0.00094079 0.00254987 0.0719749 
0.00164222 0.00420717 0.0742615 
0.000273213 0.00111379 0.080341 
3.63638e-05 -0.000130957 0.0631666 
6.63438e-05 -3.58078e-05 0.0650115 
-6.5002e-05 4.06759e-05 0.0755067 
-0.00150845 0.00178288 0.0702663 
-0.00342119 0.00768643 0.0669097 
-0.00596715 0.0124229 0.0685648 
0.00430997 0.00479562 0.0640223 
0.00738807 0.00909956 0.0673336 
-0.00122884 -0.0194184 0.0374073 
0.00132386 0.00501496 0.0259502 
-0.00100065 0.0318624 0.0511703 
0.00122996 -0.016666 0.0624313 
0.00176118 -0.0037885 0.0765469 
0.000641553 -0.00357688 0.0682078 
0.00406607 -0.00681003 0.0686902 
0.0022904 -0.00859392 0.071736 
0.00222873 0.00344995 0 
0.00222458 -0.00461601 0 
0.0050294 0.00239659 0 
-0.0142797 -0.017187 0.00679414 
0.000144286 0.000349282 0.0579998 
6.1744e-05 -0.000164704 0.0420862 
0.000376538 0.000334486 0.0363908 
0.000431874 0.000731983 0.0616518 
-0.00142403 -0.0458738 0.0787988 
-0.00490182 -0.00435446 0.0191254 
-0.00189619 -0.0200895 0.0638113 
0.00384093 -0.00923219 0.0222951 
0.0173343 0.0464866 0.178542 
0.00729808 0.0311999 0.275575 
-0.0618948 0.0157824 0.0995836 
0.068242 0.0182559 0.0997823 
0.0275901 0.0340089 0.0524127 
0.0457095 0.0127224 0.131537 
0.0321737 0.0434063 0.187366 
0.0109986 0.0334754 -0.0333905 
-0.00963773 -0.0548259 0.125427 
-0.0071262 -0.0402242 0.227403 
0.0265534 -0.00490292 0.127078 
-0.0338711 -0.0226188 -0.0468231 
-0.000120335 -5.9419e-05 0.0532322 
1.17568e-05 0.000270037 0.0470217 
0.000746655 -0.000190589 0.0352621 
0.000749791 -0.000492834 0.0598247 
0.0132876 0.0234708 0.016821 
-0.0111491 -0.000320795 -0.0338667 
0.0125238 0.0222548 0.0349393 
0.0169669 0.0159667 0.0824118 
0.00121419 -0.00245075 0.040879 
-0.0140348 0.00179922 0.0734672 
0.00144007 -0.00220774 0.0499597 
-0.0100549 -0.00841455 0.0264076 
0.0108875 0.00123016 0.0633576 
-0.00777679 0.0135144 0.0431793 
-0.00324405 -0.00793045 0.0795414 
0.00067231 -0.00336152 0.062386 
-0.0127729 0.0120743 0.288591 
-0.00806804 0.0135755 0.21509 
0.0590544 -0.00859293 0.141246 
0.0818192 -0.0564661 -0.0216906 
0.000507023 -0.000135932 0.0827474 
-0.000143976 -0.00164916 0.0813629 
0.00155174 -0.00328147 0.0767682 
-0.000931678 -0.00210141 0.0794344 
0.0245453 -0.0113237 0 
0.0124901 0.0104739 0 
-0.0175605 0.0053922 0 
0.0583365 -0.0314901 0.040113 
0.000239794 2.1298e-05 0.000309854 
0.000191377 1.72901e-05 0.000319328 
0.000204931 1.76687e-05 0.000133547 
-0.00111879 -9.34889e-05 0.0479675 
0.00028581 0.000795398 0.0456245 
0.000828654 -0.000249021 0.0353075 
0.000702898 0.00128854 0.0520744 
0.000131619 0.000486255 0.034821 
0.019499 0.00836292 0.0710605 
0.00872799 0.00112785 0.0857963 
0.0244613 -0.00312315 0.0548891 
0.043053 0.00290262 0.0924631 
-9.39862e-05 -4.37885e-05 0.000208997 
7.64017e-05 -0.000226207 0.0364951 
-0.000262268 0.000178292 0.000345623 
0.000567456 -0.000369733 0.0356965 
0.0117383 -0.000700613 0.0508676 
0.00356423 -0.000844847 0.0723223 
0.00779296 -0.00276973 0.0579243 
0.00229165 0.000606581 0.0613668 
-0.00117445 -0.000404643 0.0588912 
0.00147723 0.00105804 0.0485124 
0.00685424 -0.0128446 0.0700763 
0.00719851 0.00893824 0.0771649 
0.0021127 0.00707842 0.067657 
-0.00274727 0.00558151 0.0631019 
-0.000136648 -0.00338758 0.0544519 
-0.00353664 0.0127644 0.0700397 
0.0102402 -0.000526347 0.0386978 
-0.00732036 -0.00415471 0.0653052 
0.0012928 -0.000944519 0.0381595 
0.00382222 0.00374517 0.0604633 
9.88107e-06 6.74721e-05 -0.000284842 
-2.61865e-05 -0.000580439 -0.00202424 
-4.92161e-05 -0.000375323 0.00114712 
0.00182473 -0.00248293 0.0500875 
0.000143871 0.00163292 0.0519328 
0.00151601 9.98841e-05 0.0361152 
0.000641213 0.000471201 0.0456282 
0.000645022 0.00222793 0.0628373 
0.00347002 -0.0129507 0.11311 
0.0167808 -0.0247577 0.0971367 
-0.0145185 -0.0327333 0.104672 
-0.00211825 -0.0104004 0.0595309 
-0.000173668 -1.93004e-05 0.0434436 
0.00011842 4.63619e-05 0.0240831 
4.18417e-05 0.000102691 0.0324456 
-0.000404206 1.57314e-05 0.0355487 
-0.0032788 0.00223493 -0.00611023 
0.0184721 -0.00628211 0.0322604 
0.0106939 0.00194483 0.0363825 
0.00475258 -0.00148921 0.0352517 
0.00742298 -0.00716152 -0.0179214 
0.00397468 0.005627 0.0143905 
0.00122656 -0.005057 -0.00392184 
-0.0311096 -0.0216881 0.0626062 
0.00073685 -0.00495613 0.0567141 
0.000123982 -0.000960602 0.0342741 
-0.00179249 0.00248602 0.0395282 
0.00223756 0.00174646 0.066941 
0.000235832 0.000113369 0.0433302 
0.000812728 0.000615697 0.0344692 
-9.3032e-05 -0.000244793 0.0496364 
1.46572e-05 0.000474981 0.0621249 
0.01932 0.000771159 0.028097 
0.00586911 0.0146174 0.0675469 
-0.0126729 -0.00426709 0.0714538 
0.00366329 -0.000274147 0.0612654 
-0.00124582 -0.000872475 0.0672372 
0.00226379 -0.00985876 0.069703 
0.00243219 -0.0147833 0.06318 
0.0133468 -0.0129586 0.0704533 
-7.06174e-06 -1.89252e-05 0.0777326 
2.84196e-05 6.7645e-05 0.0659056 
-0.000163776 3.54003e-05 0.0719361 
0.00212937 -0.000980509 0.0738916 
0.0155169 -0.0186685 0.156902 
-0.00180518 0.000611296 0.221782 
0.0254572 0.0132758 0.160773 
0.0567004 0.0163796 0.170591 
0.0103939 0.0382986 0.0279272 
-0.00824496 0.0217244 0.0393768 
0.0231263 -0.0123039 -0.0390292 
-0.00768969 0.0729985 0.137936 
4.44485e-05 -6.43599e-05 0.0278225 
0.000106031 0.000219305 0.0423932 
-2.00635e-05 -0.000107619 0.0237691 
-0.000188713 0.000410562 0.0359389 
-4.93329e-05 -4.14981e-05 0.0594517 
4.17988e-06 9.6854e-05 0.0606002 
-0.000324874 -1.76539e-05 0.0450126 
0.00148081 0.000670101 0.062077 
0.00077626 0.00103437 0.050915 
2.20344e-05 -0.000207951 0.0361014 
-0.000435729 -2.13172e-05 0.0349971 
0.00127602 0.00133324 0.0623093 
-0.00192581 -0.00295092 -0.00640725 
-0.00337047 -0.00385959 -0.00298742 
-0.00776519 -0.000123496 -0.00189882 
0.0125286 0.0271635 0.0225149 
-0.0377287 -0.0298845 0.244244 
-0.0410215 -0.0346641 0.108798 
-0.031585 0.0226845 0.129879 
0.00168498 -0.0517747 -0.0545166 
-0.000650843 -0.00145856 0.0523371 
-0.000330417 -3.78749e-05 0.0367407 
-0.00038954 -0.000228053 0.0387437 
-0.00184717 -0.00185219 0.0631076 
-0.000156611 0.000123665 0.0509538 
-0.000117441 5.93424e-05 0.0550184 
0.000307987 -6.24815e-05 0.0683365 
0.000894114 -0.00083632 0.0611555 
-0.000581466 0.00358621 0.076988 
-0.00117988 0.00218242 0.0689629 
-0.0017223 0.00156114 0.0707504 
-0.00148666 0.00397814 0.0647852 
0.000155758 0.000541704 0.00100104 
0.000295316 0.0010907 0.000429177 
-0.000140485 -0.000496421 -0.000722022 
7.96651e-05 -0.00189003 0.0379663 
0.00424472 -0.00272311 0.0477427 
0.0218844 -0.025751 0.0780865 
0.0126425 -0.00859766 0.0611029 
0.0102375 -0.0164022 0.0387616 
0.000944201 -0.00168713 0.0479359 
0.00154348 0.000618869 0.0519087 
-0.000395877 -7.66799e-05 0.0348748 
0.00181258 -0.000505091 0.0597778 
0.00118285 0.00247649 0.0719579 
0.000711038 0.0010925 0.0619774 
0.000103493 0.00137273 0.0596936 
0.00133874 0.00260641 0.0610888 
0.000165942 4.48336e-05 0.000242413 
-8.77269e-05 -1.92419e-05 0.000231116 
0.000166982 4.62018e-05 0.000331517 
-0.000541202 -8.72204e-05 0.0495607 
-0.029144 -0.0151324 0 
0.0255322 0.00688122 0 
0.0196306 0.0154411 0 
0.0697469 0.0281058 0.0820062 
-0.000308226 -0.000422986 0.000321788 
-0.00272916 -0.00250106 0.0447969 
0.000263586 0.000786736 0.000774127 
0.00106207 0.00137448 0.0398229 
0.000292319 -0.000443139 0.000531638 
-0.00135675 0.00240951 0.0396538 
0.000510499 0.000380785 -0.00348967 
-0.00238837 0.00386812 0.0302429 
0.000844759 -0.00204804 0.000781811 
0.00380201 -0.011168 0.0221571 
-0.000925574 8.80015e-05 -0.0159277 
0.0190874 -0.00716707 0.0333076 
-0.0148698 -0.00406202 0.0684499 
-0.00326961 -0.0038988 0.0708663 
-0.00397945 -0.00113304 0.0691383 
-0.00622114 -0.00453078 0.0599978 
-0.00144388 0.00755755 0.071539 
-0.00821539 0.00911169 0.0624746 
0.0018394 0.0154441 0.0572343 
-0.00533596 0.00903093 0.0683495 
-0.0017447 -0.000688864 0.0474497 
-0.000354751 0.000957993 0.0403929 
0.00109134 -0.00028026 0.0446369 
-0.00224933 -0.00189131 0.0618387 
-0.00200342 0.00144896 0.00193198 
-0.00179639 0.00118432 -0.00472622 
-0.000558897 0.000439302 0.002511 
0.00261274 0.00520423 0.0243788 
-8.78736e-06 0.000341391 0.058465 
-6.79966e-05 -0.000104378 0.0719711 
-0.00012257 3.02606e-05 0.0721901 
-0.000493252 -0.00214182 0.065958 
-0.0353319 0.0227057 0 
0.0409561 -0.0309408 0 
-0.00126699 0.0208705 0 
0.0624852 -0.0487239 0.0369687 
-0.00261398 -0.00183943 0.00328341 
-0.00105416 -0.000741193 2.04274e-05 
-0.000216192 -0.000151208 -0.00171807 
0.00571644 0.0111388 0.0216201 
-0.000839378 -0.000258185 -0.000464626 
-0.000607193 -0.00258181 -0.00259605 
0.00402238 -0.00242479 -0.00243004 
-0.00603741 0.00994073 0.0132218 
-0.00745654 0.00976698 0.0397906 
-0.0130896 0.00723609 0.0590226 
-0.00243924 -0.00859068 0.0703118 
-0.00327495 0.0049262 0.0277204 
-0.00471596 -4.64444e-05 -0.00271433 
0.0145031 -0.00841986 0.0288411 
-0.00312153 0.00270164 -0.00163428 
0.00701602 -0.00399582 0.0336597 
-0.000104095 4.24134e-06 0.0823906 
0.000188472 2.94206e-05 0.0752375 
4.08024e-05 -0.000198819 0.0800484 
-0.00128191 0.0010923 0.0807775 
0.00282604 0.00387313 0.052391 
-0.00777553 0.000322363 0.0280323 
-0.0161189 0.0120009 0.0466535 
-0.0143788 0.00374098 0.0653479 
-0.000220036 -4.89841e-05 0.0763917 
-0.00188355 0.000532833 0.0779916 
0.000240312 0.00144431 0.0792244 
-0.000870583 -0.00188699 0.0795813 
-0.000632768 -0.000872711 -0.000525043 
4.82429e-05 7.3483e-05 0.000842974 
-9.31662e-05 -0.000114402 0.00155163 
-0.00154009 -0.000875644 0.0398561 
-0.000716816 0.000364872 -0.000692404 
0.000404883 -0.0002062 7.54796e-05 
0.00060551 -0.000308141 0.000802863 
6.09513e-05 0.00071629 0.0400382 
-3.42783e-05 -0.00018845 -0.000149952 
-0.00123892 -0.000446387 0.0307732 
0.000137381 -8.68743e-05 0.000458952 
0.00010133 0.000461918 0.0329746 
-7.32585e-05 -0.000223035 0.0726789 
0.000478876 0.000625647 0.0531548 
-0.000867644 -0.00235761 0.0659395 
-0.00139699 -0.00124446 0.0630466 
-0.00187392 0.000100728 -0.00144712 
0.000793776 0.00024168 0.000929019 
-0.00375691 -0.00141116 0.0448785 
-0.000957694 -0.00441496 0.0352532 
-7.57853e-05 -1.54621e-05 0.0795229 
0.000429702 0.00119385 0.080667 
-0.000104524 -9.78603e-05 0.08493 
0.00116864 0.000260499 0.0799338 
0.00324686 0.000208604 0.0597517 
0.00561683 0.00340037 0.0607373 
0.00160104 0.00552627 0.0699405 
0.00904066 -0.000193122 0.0742776 
0.00259729 0.00713024 0.0679733 
0.00182709 0.0032778 0.0717963 
0.00715308 0.00688668 0.0687747 
0.0032239 0.0113044 0.0652152 
0.00499761 -0.00744653 0.258814 
-0.0259554 0.0148683 0.173589 
0.0171512 0.0235425 0.153579 
0.0430368 0.0397447 0.197136 
0.00320031 0.00292133 -0.00503031 
-0.00110367 0.00196555 -0.00374252 
-0.00521663 -0.00775216 0.014945 
-0.010462 -0.00872096 0.0157833 
-0.00315107 0.00804773 0.0674141 
0.00485808 0.020378 0.0641194 
-0.0115553 0.0151973 0.0676877 
0.0111298 0.00674873 0.067461 
0.0067511 0.000679935 0.117056 
0.027354 0.00531547 0.0571037 
-0.0051897 0.000592062 0.0440506 
0.0250191 0.0246236 0.135902 
0.000153212 3.1034e-05 0.00012332 
-4.33877e-05 -8.5586e-05 0.0220172 
-5.35112e-05 0.00027293 0.00043476 
-0.000371722 -0.000154231 0.0410232 
-4.87873e-05 0.00221078 0 
0.00115865 -0.00159888 0 
0.00172936 0.00261372 0 
0.00501773 -0.0107442 0.00172073 
-0.000460276 0.00105662 0.00045236 
0.000852154 0.00245844 -0.0044658 
0.00252354 -0.00335484 0.00152931 
0.00328084 -0.0103912 0.013585 
-0.0103837 -0.00343278 0.0695948 
-0.0124561 -0.0102541 0.0652347 
-0.00220945 -0.00419684 0.0700222 
-0.0101355 -0.00560614 0.0576857 
-0.00261352 0.00115983 0 
-0.000823179 0.00554019 0 
0.00266831 -0.00312175 0 
0.00466631 -0.00959861 0.00386361 
-0.00237093 -0.00173508 -0.00260267 
0.00443524 -0.00301508 0.0329944 
0.000979744 0.000459816 -0.000999345 
0.000651405 -0.00382283 0.0321942 
1.22395e-05 -9.90049e-06 0.084182 
0.000529748 -0.000304467 0.0825583 
-0.000125304 -0.00172457 0.0815139 
0.000928887 -0.00100236 0.0802392 
-0.0131 -0.000476869 0.0288981 
-0.0200861 0.0224515 0.043018 
-0.0137192 0.0160273 0.067422 
-9.98926e-05 0.000235683 0.023731 
-0.000140357 -2.50136e-05 0.0718995 
0.00194726 -0.000764666 0.0744215 
0.000147759 -6.07645e-05 0.0655458 
0.00157846 -0.000538101 0.059681 
-0.00124158 0.00871626 0.0707427 
-0.00247247 0.00182235 0.063323 
-0.000942429 0.00749674 0.0664043 
0.00263649 0.0052447 0.062398 
8.8755e-05 -6.92112e-05 0.0294326 
0.000347524 0.000231679 0.0503387 
-0.000137129 -0.000133927 0.0250372 
0.000121348 6.71079e-05 0.0339303 
-7.45106e-05 0.000366468 0.000601181 
-0.00118479 0.00024322 0.00103704 
-0.0017423 -0.000783161 0.0394742 
0.00206076 -0.000253533 0.0352482 
-0.000317978 0.00122511 -0.00114844 
0.000456915 -0.000684319 0.000289733 
-0.000119436 0.000549218 0.0388266 
6.73876e-05 0.00136635 0.0360491 
-0.000298799 0.0034911 0.0764794 
0.00213939 0.0042712 0.0743108 
0.000446911 0.00237781 0.072131 
-0.000348797 0.00463564 0.0683889 
-0.00181276 -0.00925001 0.248983 
0.00302282 0.00310947 0.256672 
-0.00288834 -0.0138978 0.21452 
0.0431396 0.0839428 0.232674 
0.00191547 -0.00387941 0.0770121 
0.000657851 -0.002412 0.071192 
0.00244572 -0.00277175 0.0707551 
0.000744756 -0.00449696 0.0677843 
-0.000906198 -0.000506041 0.0773708 
-0.000709733 -0.00279072 0.0737624 
0.00154688 0.000406148 0.0700273 
-0.00431857 -0.00483448 0.071061 
0.000270986 -0.00215571 -0.00302486 
4.54297e-05 -0.00411548 -0.00374577 
-0.00381933 -0.00447386 -0.00206046 
-0.0105325 0.0238353 0.0187223 
-0.00330474 0.00228068 0.0589476 
0.00097639 0.00358145 0.0700756 
-0.00477893 0.00499956 0.0715895 
-0.0098423 0.00847465 0.0596797 
0.0028594 0.00548919 0.0653477 
0.0121496 -0.0136833 0.0742968 
0.0153797 0.0088754 0.0666833 
0.0109982 -0.00509618 0.0717798 
0.0254678 0.0612527 0 
-0.0312517 -0.0505593 0 
-0.0130927 -0.0693008 0 
-0.0205402 -0.0493168 0.166766 
-0.0354254 0.0495649 0 
0.0605637 -0.0535747 0 
0.0576934 -0.0129276 0 
0.0468128 -0.0100857 0.205863 
0.00113474 -0.000316617 0.000258649 
0.000393942 -0.000222991 0.0337842 
-0.000762462 0.00211354 0.0391235 
-0.00368771 0.0037932 0.0307693 
0.00608886 0.02001 0.0429807 
0.00344852 0.00228862 0.0149702 
-0.00697259 0.0185859 0.0630812 
0.00140129 0.0120322 0.0723498 
-0.000367101 -0.00115566 0.000232411 
0.000580036 0.000390164 0.0480792 
-0.000578104 0.000274837 0.000823732 
-0.00213728 0.00297949 0.0307139 
-2.17917e-05 0.00786475 0.0659871 
0.00168325 0.00687336 0.0716543 
-0.00475503 0.0114381 0.069449 
0.000580773 0.00239102 0.0636466 
5.77503e-05 3.07357e-05 0.000551271 
0.000141597 -0.000318094 0.0358878 
-3.48059e-05 -8.68801e-05 0.00117309 
-0.000152431 -0.000509171 0.0375164 
-0.00132164 -0.000323551 -0.00219912 
-0.0019274 -0.000464182 -0.00256707 
0.00109604 0.000257397 0.000911579 
-0.00295042 0.00421811 0.0232054 
0.0204205 0.0317688 0.0173615 
0.0234688 0.0106838 0.0924398 
0.00963447 0.0124779 0.0708164 
0.0316545 0.00529694 0.0936873 
-0.000515561 -0.000618743 0.0379236 
-0.000283136 -5.89023e-05 0.0364942 
-0.000987141 -0.000589775 0.0488119 
-0.00158321 -0.00131384 0.0638998 
-0.00341956 -0.00189885 0.0455831 
0.00178717 -0.00240178 0.0498135 
-0.00936986 0.00306245 0.0662756 
-0.00227123 0.0130462 0.072352 
-7.35712e-06 6.8088e-05 -0.000468444 
1.34893e-05 -0.000108878 0.00124392 
2.93188e-06 -4.69314e-05 -0.000290888 
-8.50365e-05 0.00099759 0.0406442 
0.00216126 0.00175492 -0.00689939 
0.00588986 -0.00280144 0.0275558 
0.0011582 0.00102362 0.00200832 
0.0085535 -0.00869912 0.0231905 
-0.00974159 0.00960907 0 
0.00125819 0.00127237 0 
-0.0030641 0.00500659 0 
0.000904837 -0.00121105 0.0139606 
0.00264871 0.00155792 0.0542289 
-0.00641719 0.00624677 0.0334393 
-0.0319364 0.0243206 0.0533181 
0.00498043 -0.00545513 0.0196695 
-3.64706e-05 -7.75434e-05 0.0841179 
-6.09499e-05 0.000106247 0.0826176 
9.84061e-06 7.61284e-05 0.0799258 
-0.00126809 -0.000505313 0.082593 
0.000104583 -3.63923e-05 0.000687214 
3.64014e-05 -1.35548e-05 0.000178289 
6.06857e-05 -2.57168e-05 8.32897e-05 
-0.000271138 -7.84818e-05 0.0471121 
0.0107157 -0.00522121 0 
-0.00339207 0.00424814 0 
-0.0162687 0.00300356 0 
0.0270779 0.0200379 0.0206175 
0.0190909 -0.00453699 0.0349395 
-0.0187695 0.00238046 -0.0233193 
-0.0191076 0.00689976 -0.0267813 
0.0902577 0.0251462 0.128311 
-0.00137502 0.00425959 -0.00185149 
-0.000796784 0.00120931 -0.00204157 
-0.000591062 0.00584072 -0.00522059 
-0.00567402 -0.0174875 0.0162053 
0.00043708 -9.44567e-05 -0.0015149 
1.83641e-07 -1.58362e-05 0.00058569 
-8.16264e-05 2.80033e-05 -0.000101738 
0.00113026 0.000927348 0.0404511 
-0.00014372 -0.000163922 0.0779586 
0.00217559 -0.00091247 0.0733298 
-0.00018373 8.84877e-07 0.0723099 
0.00133982 -5.3428e-05 0.079766 
-0.000976007 -0.000616502 0.0770623 
0.000957308 -0.000371009 0.0689603 
-0.00377179 -0.000605345 0.0698955 
-0.00429507 -0.00477587 0.0713765 
0.0273071 -0.013194 0 
-0.0200999 0.0191258 0 
-0.0228036 0.000236248 0 
-0.064936 0.0221592 0.0745232 
-7.55551e-05 -8.59155e-06 0.0597122 
0.000138527 0.000145329 0.073376 
1.70868e-05 6.04253e-05 0.0605732 
0.00149967 0.000685772 0.0616932 
0.00115188 0.00112174 0.0460262 
-0.00128391 0.00251109 0.0569789 
-6.2222e-05 -0.00047022 0.03647 
1.77352e-05 0.00189303 0.0594502 
0.00194776 -0.000577886 0.0599082 
-0.00123411 0.00559128 0.0684569 
-0.00321129 0.00416708 0.0756655 
0.00199791 -0.00543157 0.0685654 
-0.00681977 -0.0285804 0.119092 
-0.0119662 0.0218413 0.193243 
0.00417132 0.0146654 0.229366 
-0.0626286 -0.0765577 0.0639178 
0.00235064 0.00338234 0.0755817 
-0.0199155 0.0102314 0.0876191 
0.00503575 0.0253787 0.0230299 
-0.0050269 0.00109375 0.0477385 
-0.000301538 0.000195155 0.000366546 
0.000142288 -2.12947e-05 0.025771 
-0.000101222 -0.000114699 0.000147767 
0.000397903 0.000127065 0.0371457 
-0.00509915 0.00552112 0.0520867 
-0.00885359 0.011398 0.0647366 
-0.0046056 0.00326768 0.0718676 
-0.0101139 0.00432177 0.0615859 
0.00045172 0.000615555 -0.00544988 
-0.00115989 -0.00205414 -0.000808282 
-0.000559753 -0.000990608 -0.000367981 
0.0110659 0.00603206 0.0265733 
0.000231918 -5.14778e-05 0.0434419 
0.000229089 0.000141293 0.0487556 
-0.000151714 -0.000119684 0.0609586 
-0.00135133 0.000175417 0.0647922 
-0.037962 0.0535857 0.103636 
-0.00446353 0.0073628 -0.0551817 
0.000936872 0.0622446 0.0881813 
0.00681665 0.0454202 0.180255 
0.00176794 -0.00361814 0.0773237 
8.73524e-05 -0.00272039 0.0731442 
0.00054614 -0.00242259 0.0715455 
0.000956601 -0.00474069 0.0672628 
-0.0358956 -0.0635477 0 
-0.0429238 -0.086922 0 
0.0346358 0.0762708 0 
-0.0258486 -0.0440114 0.222764 
2.45231e-05 0.000670343 0.00033001 
0.000406075 0.000121824 0.000554614 
3.63079e-05 -0.000535079 0.0250074 
-0.000674277 -0.000673024 0.0371735 
8.00045e-05 -0.000133736 0.0775776 
0.000898576 -0.00216032 0.0715441 
-0.000121377 0.000190166 0.0777561 
0.000845525 -0.000767764 0.0806616 
-0.00127797 -0.0022952 0.0349305 
0.00394337 0.0032485 0.0660129 
0.000529929 -6.49369e-05 0.0538457 
0.00178865 0.00303708 0.0628685 
-0.0079296 0.0112144 -0.0145819 
-0.00283883 -0.0034631 -0.0071965 
-0.0197305 0.0121115 0.0606138 
0.00324863 -0.026842 0.0307569 
0.00609492 -0.00185151 0 
-0.0100599 0.000764086 0 
0.00338918 -0.00268441 0 
-0.0155652 -0.0101215 0.00702385 
0.00037176 0.000586625 0.00198372 
-0.000638612 -0.00108977 -0.000842885 
5.40066e-06 8.89937e-05 -0.00248639 
-0.0034503 -0.002019 0.00655708 
0.0044866 0.00344657 0 
0.00327025 0.00344157 0 
0.00241132 -0.00157049 0 
-0.0205477 -0.0170977 0.00339408 
-0.0286869 -0.0326192 0.14289 
0.00815 0.00938609 0.264319 
0.0130431 -0.0277061 0.190315 
-0.0774414 -0.0561193 0.0696747 
-8.15106e-05 -0.000824291 0.000253511 
4.02672e-05 0.00040721 0.000673686 
7.77517e-05 0.000786279 3.57242e-05 
0.00100362 -0.00165073 0.0496852 
-0.00279757 -0.00622242 -0.00698622 
0.0134286 0.0165848 0.0225454 
-0.000802992 -0.00396734 -0.0095699 
0.00284476 0.00684278 0.023394 
-0.00481947 -0.00490178 -0.0073808 
-0.000557427 0.00415349 0.00500755 
0.00278526 -0.00357525 -0.00120489 
0.00953851 -0.000746848 0.0087322 
-0.000224387 -6.52644e-05 0 
-0.00108673 9.16948e-05 -0.00030201 
0.000641459 -0.00043438 0 
-0.000265075 0.000873936 0 
-0.000149058 -3.3158e-05 0.0293962 
0.000188781 6.68971e-05 0.000720362 
0.000190936 -4.27021e-06 0.0235545 
-5.13517e-05 2.63055e-05 0.0351288 
0.0128698 0.00136407 0.0591873 
0.00970423 -0.0124295 0.0591368 
0.0202252 -0.0348675 0.0889168 
0.0185091 -0.00555856 0.0184575 
0.000881354 0.00204509 0.0705748 
-5.55622e-06 0.00409493 0.0686206 
0.00208648 0.00638571 0.0674209 
0.0015706 0.0024494 0.0618959 
-0.0100892 -0.0188778 0.0720457 
-0.00612096 -0.000900279 0.0428916 
0.00350702 -0.000974379 0.074082 
0.00363533 -0.00618323 0.0369325 
0.0085129 0.0348378 -0.0108439 
0.0448889 -0.000999666 0.0776392 
-0.0105879 -0.0235464 -0.00849596 
0.0257736 -0.0132581 0.0406418 
0.0450761 -0.0235568 0 
0.0497999 -0.0037413 0 
-0.0577907 0.00663517 0 
0.0613449 -0.0408623 0.127251 
-0.000747998 -0.00164835 -0.00992229 
0.00900024 0.00916752 0.0248694 
-0.00148988 0.000502764 0.000560329 
0.0037762 0.00566215 0.0233033 
0.000573371 0.0131193 -0.00555248 
-0.0020032 0.00425337 -0.00516641 
-0.000277253 0.000251108 -0.00173624 
0.0273742 -0.0164903 0.0255391 
0.00174455 0.00215064 -0.000869313 
0.00114357 -0.00306061 0.00132974 
0.000321541 0.000377422 -0.00291924 
0.00545863 -0.0112042 0.0216796 
-0.0059751 -0.0316354 0.0998996 
0.0131135 -0.0283933 0.107247 
-0.0109601 -0.020977 0.0101982 
-0.00246103 -0.012971 0.066159 
-0.000194883 0.000370674 0.0653256 
0.000136636 -5.16139e-05 0.0776019 
-9.37611e-06 8.97125e-05 0.0719266 
0.000711732 -0.00195436 0.0717051 
1.13941e-05 7.67909e-05 0.0798328 
6.30809e-05 -0.000102172 0.0791591 
-2.01594e-05 -8.30401e-05 0.0842071 
-0.00134105 -0.0004853 0.0825854 
-0.00598568 0.00574731 0 
0.00158575 -0.00335025 0 
0.0017041 0.000910969 0 
0.0143196 -0.00670341 0.0110773 
8.83872e-05 -0.000473139 0.0325049 
-0.000275947 0.000532681 0.000736769 
0.000120141 0.000409072 3.55232e-05 
4.78456e-05 -0.000596337 0.0372061 
0.0496802 -0.027194 0.109415 
0.0582144 0.0121789 0.118934 
0.0285195 -0.0335191 -0.0331953 
0.0233723 -0.00615466 0.200819 
-0.0252374 -0.00102448 -0.0256844 
-0.0224637 -0.0190287 -0.00986128 
-0.00670811 0.009352 0.0610478 
0.0190872 -0.0264139 0.0603787 
0.00536938 -0.00189664 0.0399441 
0.00053801 0.00398551 0.0591552 
-0.0049851 -0.00148297 0.0655354 
-0.00993766 0.00253833 0.0706836 
0.0338364 0.021639 0.0254251 
0.0159941 -0.00458544 0.145521 
-0.00323714 -0.0170367 0.0830697 
0.0157289 -0.0110024 0.052873 
-2.49309e-05 -1.47842e-05 0.000737123 
-0.00120465 -0.000254177 0.0309154 
0.000219943 0.000605346 0.039423 
0.000208556 0.00019478 0.0325782 
-0.0021284 -0.00104447 0.000490925 
-0.000928091 -0.000300983 -0.00585399 
0.00156254 0.000697213 0.00237272 
-0.000125043 0.0056813 0.0293669 
-0.00187462 0.000709576 0.0521007 
-0.00211875 0.00110533 0.0646863 
-2.86261e-05 0.000159561 0.0390498 
-0.00144085 0.000342626 0.0603978 
0.000937289 -0.000199916 0.0784221 
-0.0034548 -0.000632375 0.0723001 
0.00284675 -0.00214763 0.0708395 
0.00109058 0.000623935 0.0727844 
0.000154223 0.000150597 2.04238e-06 
-0.00016317 -0.000159725 5.03666e-05 
0.000168957 0.000160703 0.000577263 
-0.000445344 -0.000224448 0.0357828 
-0.00988269 -0.00343959 0.0677986 
-0.00612334 -0.00054282 0.0695484 
-0.00406231 -0.00404934 0.0709619 
-0.00349551 -0.00158342 0.0758976 
-0.00203347 -0.016103 0.105287 
0.00621334 0.0173103 0.138496 
0.00840588 -0.00514756 0.0680824 
-0.0136633 0.0154417 0.0725703 
-0.00158081 -0.001051 0.0526104 
0.000508827 -0.00109619 0.0384729 
0.000118463 -0.00106188 0.0442353 
-0.00221145 -0.00231913 0.0616921 
0.0437927 0.0531968 0.0794423 
-0.0453568 0.0219204 0.0298562 
0.0200121 0.00285028 0.00974991 
0.0436222 0.0484065 0.161331 
0.00152324 0.00636724 0.0661738 
-8.78647e-05 0.00406447 0.0672668 
-0.000462017 0.00739029 0.0715106 
-0.00153961 0.00497237 0.0633515 
0.00599615 0.025891 0.0103052 
-0.00850941 0.018597 0.177193 
-0.0114641 0.0300494 0.0696934 
0.0182413 0.00879859 0.145907 
-0.00838642 0.0172452 -0.0466333 
0.0276691 -0.0901307 0.146195 
0.0144157 -0.018794 0.0563324 
-0.0140443 -0.00529726 -0.0454226 
-6.64794e-05 2.74134e-05 -3.53664e-05 
-0.000124139 4.76125e-05 0.000283499 
-1.3654e-05 2.77228e-06 0.000271988 
0.000118245 -0.000543069 0.0375215 
-0.00455678 -0.00506837 0 
0.00344466 -0.00823291 0 
0.0029347 0.018454 0 
0.00234744 0.0213944 0.0220889 
-0.00044251 -8.84544e-05 0.000288574 
0.000305556 9.81226e-06 0.0250666 
-4.71907e-05 -0.000422275 0.000546132 
7.39174e-05 0.000556897 0.0373197 
-0.00387457 0.0159174 0.0628418 
0.00150176 0.0118842 0.0626111 
0.00138947 0.00568978 0.0736877 
-0.000527492 0.0136269 0.071584 
-0.00459154 0.000174945 0 
0.0126717 -0.00602786 0 
0.00618902 -0.0012182 0 
-0.0250465 0.0105427 0.00864177 
0.0216691 0.021442 0 
-0.0260831 -0.00651723 0 
-0.0109531 -0.0269977 0 
-0.0128949 -0.0423075 0.0480371 
9.61069e-05 -1.92702e-05 -0.00125279 
-0.000219 5.35232e-05 0.000966645 
-6.10687e-05 1.56525e-05 0.000126667 
-0.00282702 -0.000544149 0.0424788 
-0.0181982 0.0131602 0 
0.0155053 -0.00167139 0 
0.0185114 -0.00204869 0 
-0.0388501 0.0179356 0.0209162 
-0.000347369 -9.09977e-05 -6.35416e-05 
0.000199135 5.28389e-05 0.000188257 
0.000232785 6.32617e-05 0.00055714 
0.000888807 0.000249982 0.0384868 
-0.00701413 0.0134316 0.0863745 
-0.0376513 0.023769 0.0856803 
-0.0149259 0.00524464 0.0537104 
-0.0141766 -0.0114069 0.0921523 
-0.000109036 -0.000376257 0.0430161 
-0.000993968 0.000137155 0.0382277 
2.46551e-06 0.000347772 0.0484239 
-0.000905512 3.32749e-05 0.0654144 
0.000122112 -0.000120456 0.00091251 
-0.00017191 0.000168757 0.000134483 
0.00013722 -0.00013483 0.000111838 
0.000202872 0.000209842 0.0363618 
0.000248174 -0.000208601 0.000612923 
-0.000268584 -0.000227536 0.0251501 
-6.85053e-05 4.52484e-07 0.031236 
-0.000152663 -0.000127331 0.0362933 
0.014381 -0.0524366 0.139858 
-0.0128595 -0.0333313 0.109331 
0.00616066 -0.00542393 0.255652 
-0.0891013 -0.0195581 0.0466589 
0.00965227 -0.0107302 0.0657543 
0.0148398 -0.00903589 0.026844 
0.0217959 -0.0392008 0.0938217 
0.0181485 -0.00532083 0.0140324 
-0.00147267 -0.0100429 -0.0171124 
0.0140975 0.0215063 0.0366648 
-0.00327849 -0.0113428 -0.000814293 
0.0110776 0.0316371 0.0327729 
-0.012534 -0.00315127 0.0585274 
-0.0415294 0.014185 0.0659541 
-0.0263874 -0.00101564 0.0542725 
-0.0152751 -0.00281112 0.0923753 
0.000201413 -5.31129e-05 0.0505921 
-0.000267975 9.31121e-06 0.0648956 
0.000165056 -0.000101758 0.0480681 
-0.00106104 0.00055653 0.059794 
8.31788e-06 4.24163e-05 0.0809014 
2.9812e-05 4.79156e-05 0.079555 
-0.000129084 -3.96889e-05 0.0848666 
0.00112796 0.000176836 0.0799669 
-0.00303566 -0.0024024 0 
-0.000665222 0.00141751 0 
0.00440112 0.00329339 0 
-0.00538149 -0.015275 0.012749 
-0.00332447 -0.00550572 -0.0146765 
0.00532704 0.0395555 0.0394598 
-0.00923279 -0.014995 -0.0147083 
-0.00235363 0.0177458 0.034458 
8.83945e-05 -6.32113e-05 0.000248556 
-0.000258212 0.000200512 0.000228268 
0.000101148 -7.06726e-05 0.000384188 
-0.000224876 5.53189e-05 0.0367758 
-0.00534065 0.0178238 0.0689941 
0.00872487 -0.00541817 0.0832692 
0.0213565 0.0189919 0.0589385 
0.0398089 0.00430699 0.121427 
-0.000158714 -0.000775303 0.0771829 
-0.000881918 0.00396249 0.0699306 
0.000474462 0.00164521 0.0790544 
-0.00188345 0.000533483 0.0779909 
0.00375732 0.000730637 0.0595563 
-0.00167163 0.000507817 0.0378678 
-0.00648946 0.0108046 0.0468522 
0.00035925 -0.00468757 0.0636101 
-0.00203803 0.00124878 0.0512897 
-0.000455048 0.00166424 0.0573389 
-0.000125715 -0.000859919 0.0412885 
-0.00502639 0.0019187 0.069734 
-0.00027492 0.00335579 0 
-0.00113165 -0.00132684 0 
-3.57194e-05 -0.0035044 0 
-0.00220374 -0.0065775 0.0135078 
-0.0163666 -0.0532564 0.0603398 
0.00312853 -0.0155979 -0.0225615 
-0.02838 -0.0349393 0.062187 
-0.0232125 -0.030786 0.14089 
0.000405579 -0.000190168 0.0830161 
-0.000229487 -0.000101259 0.0763022 
0.000286416 0.00163276 0.0794322 
-0.000936616 -0.00212787 0.0793834 
-0.00116067 -0.000441539 0.0494981 
-0.00143286 4.80558e-05 0.0542706 
0.000114126 -0.000253966 0.0368534 
-0.000811734 5.72573e-05 0.0396401 
-0.000582635 -0.000274677 0 
0.000672485 0.000542457 0 
0.00016266 0.000443765 0 
0.000192796 0.000375695 -0.00093837 
0.000459866 0.000704069 -0.000286203 
0.000882581 0.00148662 -0.00267046 
0.00064383 0.000874735 0.00133854 
0.00686219 -0.00136749 0.0169624 
-1.31917e-05 -3.0019e-05 9.75545e-06 
0.00013021 0.000308527 7.64775e-05 
-0.000117157 -0.000211191 0.000869879 
-0.000393576 -0.000621168 0.0392355 
0.00490613 0.000277183 0.0555303 
-0.000724953 -0.00581824 0.0321499 
0.00602046 0.0210063 0.0390494 
0.00183974 0.0146185 0.0640734 
7.68045e-05 -4.38197e-05 1.82478e-05 
-8.88906e-05 4.59262e-05 -0.000270254 
-9.86948e-05 6.08006e-05 0.000210223 
0.000111387 -0.000353375 0.0378795 
-0.00140863 0.00676616 0.0711885 
0.00429414 0.0122307 0.0653519 
0.00196778 0.00798966 0.0663733 
-0.00285456 0.0109547 0.0688862 
0.0331163 0.023858 0.0219574 
-0.0177742 0.019919 0.0509039 
-0.000805715 0.00844632 0.0801185 
0.0211647 0.0271244 0.120173 
0.0130148 0.0241319 0.0548126 
-0.00985027 0.00902569 0.0247145 
-0.0118917 -0.0137242 0.0347814 
0.00971816 0.0338171 0.02338 
-0.00914683 -0.00179483 -0.0336251 
0.00163401 -0.0162992 -0.0128298 
-0.0133414 -0.0310559 0.0832333 
-0.000568646 -0.0129127 0.0319431 
-0.0100697 0.0101744 0 
0.00487604 -0.00867569 0 
0.00594493 -0.0009804 0 
-0.0121004 0.0185907 0.0109631 
-0.00482522 -0.00845343 -0.0107196 
0.00345851 -0.000523714 0.00396453 
-0.00770155 -0.00605237 -0.00577933 
0.0131059 0.0274743 0.024879 
0.00305748 0.0015836 0.0752678 
0.00119132 0.0010653 0.0737237 
0.000997918 0.00263479 0.0721351 
0.0029838 0.00285179 0.0672523 
-6.68583e-05 0.00646408 0.0757077 
0.0226512 0.00658569 0.111575 
0.0196854 -0.0211072 0.0984681 
0.0177822 -0.0156107 0.0658827 
-0.0109655 0.0230603 -0.0282704 
-0.000833995 -0.0170416 0.0580085 
0.0300855 -0.0954443 0.126785 
-0.0132808 -0.00736523 -0.0451876 
-0.0139231 -0.0253715 0.127845 
0.0205554 0.0172742 0.240625 
0.00813208 0.00739154 0.248376 
-0.100497 -0.0636794 0.123374 
-5.06908e-05 0.000123701 2.85016e-06 
-7.00948e-05 0.000123142 0.00100521 
7.44909e-05 -0.000174153 -0.00016361 
-0.000137014 0.000244735 0.0371774 
-0.0117583 0.00672927 -0.0122772 
0.0154945 0.00743304 0.0348666 
-0.0106254 0.00192222 -0.00705215 
0.000863408 -0.0104213 0.0180999 
0.0461281 0.053615 0.0901108 
0.006769 0.00187482 -0.0573934 
0.060112 0.0208555 0.0933597 
0.0280014 0.0184883 0.219165 
-0.000130138 -0.000423174 0.00151553 
-9.13404e-05 -0.000403604 -0.00139635 
0.000210164 0.000799352 0.000228767 
-0.000775478 0.00212904 0.0364113 
0.00012729 6.30632e-05 0.000859434 
0.000100716 4.6489e-05 0.000342615 
-0.000123719 -5.4831e-05 -0.000195631 
0.000289065 -0.000108157 0.0372454 
0.00798349 0.0126676 0.0740704 
0.016983 0.0156398 0.0373577 
0.0185811 -8.02048e-05 0.0627174 
-0.00227546 -0.000580045 0.0215677 
-0.00238894 0.0239837 0.0518199 
-0.0129639 0.00708127 0.0607507 
-0.00823223 0.0106097 0.0654453 
0.00135886 0.00435538 0.073606 
-0.000536501 -0.000569023 0.0651768 
0.00659254 0.00327597 0.0685012 
-0.0079864 -0.00170644 0.0335879 
0.00133131 0.00355376 0.0702822 
-0.000244588 0.000205928 0.0290549 
0.000315483 -0.000234255 0.0538529 
2.22838e-05 7.83537e-06 0.0470383 
0.000357441 0.000109244 0.0347068 
-3.38379e-05 5.69177e-05 0.0825318 
0.00011359 1.15571e-05 0.0804433 
8.77293e-06 -0.000137552 0.075431 
-0.00113831 0.00110908 0.0807715 
0.00207849 -0.00845546 0.0755108 
-0.000474937 0.0114338 0.119042 
0.00468619 0.00175451 0.0574179 
-0.0129124 0.00694621 0.0851915 
-0.000285269 -0.000467937 0.0526189 
6.37342e-05 -1.44609e-05 0.0297842 
0.000172749 0.000188854 0.0257442 
0.000124476 -0.000277737 0.036511 
0.0032882 0.00511587 0.0687381 
0.00222654 0.0141398 0.0641576 
0.00794363 0.00541631 0.0691141 
0.00706044 0.0110438 0.0666002 
0.00226497 0.00013929 0.0585636 
0.00270039 0.011876 0.0562586 
-0.000597327 0.00382626 0.0721182 
-0.000199359 -0.00296474 0.0631233 
-0.000611351 -0.002153 -0.00301382 
0.00309143 -0.00291488 -0.000238334 
-0.00505319 0.00179574 -0.00494815 
0.0134258 0.0185879 0.0219992 
0.000175402 -0.000201099 0.0470838 
-0.000600841 -0.000695274 0.0366126 
-7.22351e-05 0.000100021 0.052954 
-0.000784226 -0.000574268 0.063503 
0.000166939 0.000108339 0.0241757 
-0.000241395 -0.000200261 0.0474746 
0.000168539 -2.79556e-05 0.0326209 
-2.66531e-05 -0.000348522 0.0356659 
-0.000255643 -0.000115635 -0.000172624 
0.000182807 -6.57085e-07 0.0296569 
-0.00020255 0.00029145 0.000601007 
0.00018843 0.00012283 0.0236437 
7.20516e-05 -3.08789e-05 -0.00193672 
-0.000421289 -0.000873097 0.000324449 
7.07835e-05 0.000184127 0.000336265 
0.00187698 0.000598089 0.0378085 
-8.29449e-05 0.00020411 0.000156922 
-1.89851e-05 5.63228e-05 0.000170505 
0.00015867 -0.000312082 0.000798057 
0.000213355 0.000155908 0.0413985 
-0.00011257 0.0218535 0 
-0.00617487 -0.0201977 0 
0.00878601 0.0142811 0 
0.04331 0.0650026 0.0794791 
-0.000253845 -6.94414e-05 0.000146918 
2.59683e-05 2.73645e-05 0.000425759 
0.000866967 0.000246245 0.0345853 
2.00246e-05 -2.67157e-06 0.0357925 
0.000262455 0.000776748 0.0401972 
0.000761912 -0.00146128 0.0344755 
0.00063013 0.00146267 0.0508566 
0.00099293 0.00207096 0.0666838 
5.46237e-05 0.00211128 0.0569321 
-0.00111088 0.00213478 0.0683852 
0.000450675 0.00374962 0.0690916 
-0.00142845 0.00358516 0.0651645 
-0.000133578 -5.91777e-05 0.000403048 
3.27263e-05 1.46191e-05 -7.1577e-05 
0.000202321 9.40374e-05 0.000380586 
-0.000159535 0.000156184 0.0392015 
-5.18106e-05 -5.07995e-05 0.00036904 
0.000183275 0.000180072 8.67946e-05 
-7.24773e-05 -7.10446e-05 0.000584599 
-0.000711288 0.000375562 0.0441255 
0.00157091 0.000693632 0.0518825 
-0.000410958 0.0014351 0.045632 
-0.000161403 -9.62419e-05 0.035594 
0.000717899 0.00190025 0.0628691 
0.00287144 0.00173726 0.0746348 
0.00199832 0.00425891 0.0740462 
0.00673678 0.00583046 0.0680648 
0.00315882 0.00292034 0.0682762 
-6.68807e-06 0.000151182 0.0836304 
-2.93498e-06 -0.00182679 0.0819585 
-4.71634e-05 0.000126891 0.077834 
0.000812808 -0.0010632 0.080342 
-0.000250711 0.00112719 0.0573107 
-0.000937409 0.00400921 0.069164 
-0.000454999 0.00722158 0.0709923 
-0.000404143 0.00372215 0.0649967 
0.00211265 0.000572058 0.063156 
0.00112945 -0.000289662 0.0515483 
-0.000213446 1.76382e-05 0.0405674 
0.0027463 0.000184338 0.0608077 
0.00203891 0.000560354 0.0632106 
0.000164391 0.000121953 0.0401872 
2.49077e-05 0.000972061 0.0400803 
0.00263669 -4.84033e-06 0.061278 
0.000144741 -0.000100389 0.0711589 
0.0002213 7.38977e-05 0.0559173 
-0.000131337 -0.000144414 0.0666093 
-0.00122359 -0.00114203 0.062731 
0.00114191 0.00109513 0.0516393 
-5.4365e-05 -0.000942966 0.0362436 
0.000867487 0.00140293 0.0614442 
0.00101729 0.00267162 0.0622093 
0.0229035 0.0263003 0.060398 
-0.0117054 0.0140327 0.147987 
-0.0184959 0.0301705 0.0682008 
-0.0146158 0.00604754 0.0869002 
-0.000230248 0.000244935 0.0249447 
0.000186788 -0.0004363 0.0498978 
-0.000122813 -0.000527809 0.0352987 
0.000490743 -8.84676e-05 0.0369976 
0.000131893 -7.96654e-05 0.0504937 
-0.000142952 4.16458e-05 0.0473036 
-0.000931383 0.000583811 0.0423289 
-0.000869857 0.000452096 0.060288 
0.00157652 0.00115097 -0.00250488 
0.00148395 0.00405516 -0.00407153 
-0.00402705 0.0030773 -0.00260438 
0.00113516 -0.00862537 0.013727 
-0.0252969 0.00135622 0.0567865 
-0.0355603 -0.0110938 0.0917529 
-0.0089969 0.00572701 0.05712 
-0.0154887 0.00304763 0.0842186 
0.0208427 -0.0244042 0 
-0.00540937 0.0375363 0 
-0.0188261 0.0322228 0 
-0.0395651 0.065698 0.120266 
-0.00212221 0.0565821 0.117616 
-0.0346683 0.0454358 0.131522 
-0.0259018 0.0506102 -0.0177221 
-0.00881246 0.018871 0.230656 
-0.00596555 -0.00916631 0.0596994 
-0.00361676 -0.00402087 0.070063 
-0.00484022 -0.00721063 0.0720211 
-0.0128423 -0.0111825 0.0662768 
0.000157099 -9.2196e-05 0.0577249 
-0.000370207 0.000219931 0.0686065 
0.000467711 -0.000222299 0.0493068 
-0.00167931 0.000560029 0.0645685 
-0.005341 -0.0145008 0.114078 
-0.0322166 -0.0100057 0.116852 
0.000787155 -0.00569101 0.0262815 
-0.00134724 -0.0263857 0.0155761 
-0.00133559 0.00611722 -0.00131602 
-0.00722921 0.00414587 0.00685042 
0.0310594 0.0476449 0.0992409 
-0.0119862 0.0158005 0.0352873 
0.0150032 0.000460404 0.276043 
-0.000481011 0.015527 0.207451 
-0.029836 -0.000698375 0.159182 
-0.0700628 -0.0950866 0.102526 
0.000120046 -0.000134326 1.13867e-05 
-0.000224673 -7.05527e-05 0.0270059 
0.000123342 0.000241824 0.000428207 
-0.000468536 -7.92695e-05 0.0366865 
-0.0290519 -0.0721414 0.164921 
-0.0515925 -0.0511814 0.128736 
-0.0190164 -0.0133177 0.231484 
0.0172109 0.00459818 -0.140907 
9.07426e-05 9.71208e-05 0.032497 
-0.000516937 -0.000820672 0.0590886 
-0.000332392 7.16935e-05 0.0371935 
0.000264012 -0.000207496 0.0324946 
-0.0049135 -0.000782833 0.0440516 
0.00262582 0.00026539 0.0639875 
0.000753267 0.000182294 0.0315819 
-0.00437534 0.00210834 0.0339902 
2.54538e-06 6.92042e-05 -0.000219689 
-4.61114e-06 -4.754e-05 -8.85869e-05 
1.97361e-05 0.000169416 0.000592091 
0.000301655 -0.000298615 0.039679 
0.023046 0.00297179 0.0552525 
0.0172486 0.00856331 0.0146486 
0.0190184 0.00375298 0.0689443 
0.0462299 -0.00222924 0.094514 
0.00159173 -0.00333285 0.0768098 
-1.45203e-05 -0.00172992 0.0814851 
0.000403011 -9.79041e-05 0.0826532 
0.000785872 -0.00119628 0.0802145 
-0.0324804 0.012168 0 
0.0437727 -0.0159716 0 
0.00607305 0.0168733 0 
-0.0634808 -0.0201958 0.0475071 
0.00427833 0.00864553 0.219088 
0.0252083 -0.0342325 0.199277 
-0.0024857 -0.026569 0.105535 
-0.0576247 -0.0755509 0.0739043 
-3.46748e-05 0.00392804 -0.00769496 
0.0072091 -0.00845882 0.0260662 
-0.000434897 0.00525805 -0.00642834 
0.013359 -0.0133889 0.0228973 
-0.000182594 0.00766409 0 
-0.00421661 -0.00166219 0 
0.00158682 -0.0107066 0 
0.00741583 -0.0109916 0.0170671 
0.000260597 4.84628e-05 0.000450818 
-0.000272986 -4.23214e-05 0.0340341 
-0.00197228 -0.00167467 0.03942 
0.000563535 -0.000229896 0.0326671 
0.000326276 0.00122999 0.0807437 
0.00126635 0.00102169 0.0740574 
0.00279782 0.00177313 0.075262 
0.0012332 0.000256535 0.0796018 
0.00143909 -0.00364222 0.077199 
0.00258629 -0.00318334 0.0703238 
0.000951941 -0.00190954 0.0717911 
0.000901398 -0.00108731 0.0800789 
0.000157779 -0.000130817 0.000476321 
-9.68944e-05 2.40468e-05 0.0312475 
0.000144608 0.000227617 0.0252581 
-0.000105633 -0.000168331 0.036399 
-0.00375002 -0.00220801 -0.00242221 
-0.00131727 -0.00246428 -0.000170095 
0.0024811 0.00637499 -0.00119416 
0.0156462 0.00271322 0.0165265 
0.062083 -0.0497963 0.0822018 
-0.00219229 0.00376056 0.039493 
-0.0516308 -0.00945309 0.0551302 
0.0310965 -0.0491676 0.140252 
-0.000380209 0.000258213 0.000885966 
-3.91819e-05 -7.84005e-05 0.0247628 
0.000169824 0.000195224 -0.000215526 
-0.000271187 -0.000363388 0.0316774 
0.0599944 0.0348218 0 
-0.0597608 -0.0188255 0 
-0.0538739 -0.0314534 0 
-0.0644223 -0.0149314 0.156474 
0.0021069 0.0188048 0 
0.00405455 -0.00274155 0 
0.00697157 -0.00573107 0 
-0.0499372 0.00728092 0.0280317 
2.65145e-05 -2.28176e-06 -0.000198146 
-0.000246185 2.11859e-05 0.000604469 
-6.50414e-05 5.59726e-06 0.000388513 
0.000509554 0.000315773 0.0393546 
-0.000113034 0.000503934 0.0773058 
-0.000399835 -0.00427175 0.0739228 
-0.00339375 -0.00378035 0.0709974 
-0.000897998 -0.00210142 0.0795675 
0.00140322 0.000167354 0.0477015 
-0.000429809 0.000114885 0.0372292 
0.000580551 -0.00284174 0.0588161 
0.00122876 -0.00139677 0.0614103 
0.00115268 0.00296273 -0.000703074 
0.00105822 0.00139722 0.000440717 
-0.00583441 -0.00388721 0.0416887 
-0.00697057 -0.00673428 0.0225171 
0.026758 -0.0498205 0 
-0.0191761 0.0395704 0 
0.0183155 -0.0525506 0 
0.0177163 -0.0613943 0.193645 
-0.0340248 -0.00200127 0.0264717 
-0.0016964 0.0300919 0.0740045 
-0.00520117 0.0166626 0.159667 
-0.00743849 0.0052665 0.0645949 
0.0356648 -0.0734139 0.10491 
0.000897381 0.0115062 -0.063417 
-0.00877195 -0.0484294 0.0637734 
-0.0290657 -0.0329445 0.14065 
0.000260927 -0.00130312 0.035306 
0.000622583 -0.000610132 0.0528428 
-2.33232e-05 0.00143952 0.0451507 
0.00160579 0.0032927 0.063457 
-0.0050461 -0.0112844 0 
0.0137626 0.00377129 0 
-0.00588416 -0.00429496 0 
0.011696 0.000111127 0.00621702 
0.00395626 0.00482208 0 
-0.00536343 0.00616985 0 
0.00498336 -0.0164912 0 
0.00304069 -0.0231182 0.0210266 
0.000194497 4.68662e-05 -0.000155814 
-8.26698e-05 -1.97419e-05 4.83875e-05 
-0.000154624 -4.45962e-05 0.000858067 
-0.000294537 -0.000155891 0.0366238 
5.80255e-05 -8.30737e-07 0.068479 
0.0010939 0.00205318 0.0719148 
0.00113461 0.00110309 0.0741447 
0.000921881 0.00118601 0.0617709 
-0.000927843 -0.000890536 -0.0018099 
0.000648336 0.000623354 -0.000669864 
0.000487558 0.000468369 0.00021229 
0.000271019 -0.0039938 0.0320592 
-7.66735e-05 2.59882e-05 0.0242059 
-0.000206179 -0.000308401 0.0359075 
-0.000129716 6.00224e-05 0.00056618 
0.000294118 2.019e-05 0.0375887 
0.0289057 -0.0231503 0.258917 
-0.00186972 -0.0685208 0.0848197 
-0.0060689 -0.00542824 0.165667 
0.0349954 0.0125914 0.120473 
0.000437561 -0.000260956 0 
-0.00078212 0.000127869 0 
-2.57333e-05 -0.00144297 0.000156957 
-2.88171e-05 0.000815557 0 
-0.000967425 0.00120387 0 
0.000198105 0.000877489 8.73254e-06 
0.000402921 -0.000813784 0 
0.00135586 0.000453582 0 
0.0027755 0.0160837 0.105286 
0.0218848 -0.0080598 0.184727 
-0.00374255 -0.00764165 0.235825 
0.0477209 0.0610973 0.149851 
0.0174078 -0.0440591 0.0971156 
-0.00192608 0.0393468 0.0730981 
-0.00518956 0.00157747 0.123258 
0.0192957 0.00782428 0.155277 
-0.00087718 0.0206409 0.0128657 
0.00567475 0.00555639 0.0785569 
0.023075 0.0258937 0.0914451 
-0.00826404 0.00903811 0.0350209 
0.000192523 -0.00018479 0.061469 
-0.000192042 7.5209e-06 0.0531265 
-6.07477e-05 -7.15543e-05 0.0468198 
0.000981705 -0.000356369 0.0595209 
0.000564988 -0.0313949 0.0945833 
0.0135708 0.0119156 0.0415637 
0.00650461 -0.0541852 0.0526788 
-0.0303541 -0.00458119 0.0425026 
-0.0114317 -0.0101644 0.124352 
0.0104265 -0.0168867 0.102499 
0.0646465 0.0278587 0.0418347 
0.0300516 0.0106157 0.15108 
0.000549154 -0.000282514 0.0455385 
-0.000136492 -0.000392194 0.0382437 
-0.00150117 -0.000715242 0.047521 
-0.00195268 -0.0018812 0.0611912 
0.000175869 -0.00015161 0.000127921 
-0.000677857 -0.000360865 0.0384275 
6.33123e-05 0.000107121 0.000304799 
-8.27044e-05 0.000148989 0.036674 
-0.000394622 -0.00351383 -0.00398444 
-0.00274495 0.000808632 0.00203056 
0.00262972 -0.00414663 -0.00221286 
0.00838137 0.014913 0.0160334 
0.000138042 -2.42624e-05 0.0236136 
-0.000356219 0.000114231 0.0361477 
0.000113187 0.000215154 0.000796736 
-0.000336044 0.000301918 0.0361662 
-1.61425e-05 0.000108334 0.0552638 
0.00044973 -0.000879278 0.0371639 
-0.000233471 -7.42558e-05 0.0464964 
0.000658462 -0.000656992 0.0618146 
1.73811e-05 1.70769e-05 -6.82672e-06 
5.49887e-05 5.39111e-05 0.000408718 
-4.05637e-05 -4.00603e-05 0.000786112 
-0.000133195 -0.000686413 0.0375634 
0.000545605 -0.00011121 5.39186e-05 
0.000496457 8.01411e-06 0.0360375 
0.000741639 0.000258085 -0.000284603 
-0.00321263 0.000826161 0.0422012 
-0.0443763 0.0210334 0.0699645 
0.0495237 -0.00373894 0.0484783 
-0.00412345 0.0695747 0.109324 
-0.000748126 0.0624786 0.158663 
8.24408e-05 -0.00298384 0.0764454 
-0.000927323 0.00378991 0.072994 
-0.000177209 -0.00355685 0.0731326 
-0.000333892 0.00329129 0.0744808 
-0.0229329 0.0116447 0.174164 
0.00731908 0.0147717 0.240709 
-0.00268666 -0.016374 0.181541 
-0.0579376 -0.0162239 0.178375 
-0.000109066 -3.96816e-05 2.71258e-05 
-0.000146991 0.000185117 0.000497842 
0.000144523 -4.7814e-05 0.0236593 
-0.000139371 6.08708e-05 0.0371961 
0.000177906 0.00103624 0.0514645 
0.00232034 0.0026246 0.0644177 
0.000479137 -0.000342328 0.0358118 
0.00149424 0.00239229 0.062931 
-0.000147943 1.24106e-05 -5.55927e-05 
-1.36422e-05 1.14442e-06 0.000810748 
0.000117597 -9.86497e-06 0.000408351 
-0.000137116 -0.000496238 0.0363225 
0.000180262 -0.00338129 -0.000923051 
0.00839447 -0.0196857 0.0193948 
0.000352103 0.00257127 -0.00666363 
0.0158918 -0.00932633 0.0211917 
0.0100887 -8.8086e-06 0.0575968 
-0.00151592 -0.000733634 0.0535357 
0.00749936 0.00830576 0.070647 
0.00508369 0.00512116 0.0301385 
0.00703324 -0.00293912 0 
-0.0104398 0.000705055 0 
-0.00794469 0.00191163 0 
0.0156372 0.00393729 0.0149614 
0.0107127 -0.00747922 0.264591 
-0.0935247 -0.0473604 0.0772792 
0.00800549 0.0145198 0.281236 
0.0105798 0.00698188 0.194166 
0.0152324 -0.0115215 0.238671 
-0.0228409 0.00538135 0.084773 
0.00178444 0.0254572 0.153675 
-0.105413 0.064558 0.0624656 
-0.00594079 -0.00114858 0.0716943 
-0.00854742 0.000680339 0.0681301 
-0.00361921 0.00111427 0.0745527 
-0.00378585 -0.000845052 0.0756802 
-0.0221927 0.00455064 0 
-0.0238695 -0.00940322 0 
0.0325727 -0.000126673 0 
-0.0454734 -0.0225017 0.0707462 
0.000550289 -0.00207023 0.0287447 
-0.0173365 -0.0140329 0.0575343 
-0.00271862 0.000684484 0.059263 
-0.00511596 0.00591566 0.0660876 
6.92305e-05 -5.05733e-05 0.000256545 
-0.000229311 0.000167333 -0.000457906 
0.000157836 -0.000115107 0.000165151 
-0.00077962 0.00171938 0.0412539 
-0.0174854 0.0343955 0 
0.0144322 -0.029846 0 
0.0159252 0.00735573 0 
-0.0430439 0.0429333 0.0318306 
0.00149074 0.000871724 0.0421219 
-0.0001048 0.000141596 0.0398495 
-0.000173072 0.00158572 -0.00197489 
0.0020228 0.0038439 0.0311889 
8.98075e-05 0.00804333 -0.00585704 
0.00282496 -0.00147186 0.00339103 
0.000351723 0.0023931 -0.0105685 
-0.0118268 -0.0262201 0.0282514 
0.0547844 -0.00341879 0 
-0.0430396 2.68868e-05 0 
-0.0344947 -0.00887447 0 
-0.0618072 -0.0320021 0.113262 
0.00228656 -0.012678 0 
0.00604923 0.00494582 0 
0.00319791 -0.00902426 0 
0.00663815 0.00720937 0.0104507 
0.0468334 -0.0348576 0.0898327 
-0.0423276 0.00475578 0.12352 
-0.0283858 -0.0182445 0.239108 
0.0276729 -0.00150686 0.160418 
-0.000731916 -0.000393863 0.00121333 
0.000573446 -0.000212853 0.0359069 
-0.000573734 0.000567963 0.000310509 
0.000419172 -0.000412031 0.0324833 
0.0308995 -0.0246341 0 
0.0315768 -6.21116e-05 0 
-0.0340564 0.0127521 0 
0.0580857 -0.0202637 0.0995713 
0.00991623 0.00775191 0.248309 
0.0352218 0.0445057 0.127601 
0.0650436 0.00125731 0.171713 
0.0376397 0.0186601 -0.0843394 
-0.0248006 0.0171271 0.0735302 
-0.0220432 0.0151623 0.0813566 
-0.0118358 0.0145285 0.0634985 
-0.00787869 0.00937952 0.0774249 
-0.000930848 0.00410085 -0.00108708 
-0.00281413 -0.00778148 0.0261868 
0.00108703 -0.016844 0.0198874 
-0.000733164 -0.00428123 0.0305054 
6.58375e-05 4.69239e-06 0.0782123 
0.000118739 -6.99503e-07 0.0774617 
-0.000249123 -2.48072e-05 0.0682813 
0.000806545 -0.00191135 0.0711263 
0.013292 -0.00733533 0.0539259 
0.015385 -0.00780289 0.0611775 
0.00941134 -0.0203866 0.070378 
0.00590704 -0.0141327 0.070107 
-0.000843697 1.28497e-05 0.0498584 
-0.00113551 -0.00113792 0.0625832 
-0.00240996 -0.00180955 0.0727351 
-0.00263882 -0.00211858 0.0602731 
2.21728e-06 -2.72792e-05 6.48261e-05 
-9.63217e-05 0.00118504 -0.00169124 
0.000135037 -0.00166136 0.000677985 
0.00263088 0.00381661 0.031446 
-0.00671367 -0.00768668 0.0673031 
-0.00323353 -0.00475643 0.0723497 
-0.00481726 -0.0097222 0.0639363 
-0.0015768 -0.00792601 0.0688355 
0.000695891 -0.00100864 0.00142178 
-4.37753e-05 6.69843e-05 0.000371223 
6.08173e-06 -3.56892e-05 -0.00348919 
0.00331449 0.000878604 0.0433471 
0.00131396 -0.000545855 -0.00160189 
-0.00181759 -0.00543477 0.0361184 
0.00229362 0.00383794 -0.00114413 
-0.00885785 -0.010134 0.0255762 
0.0297915 -0.0533511 0.125886 
0.00676273 -0.00980274 -0.0157468 
-0.0102657 -0.0618981 0.102506 
-0.0161354 -0.0393942 0.186213 
0.00201037 -0.00193322 -0.00261541 
0.00154179 -0.00148469 0.00141269 
1.32043e-05 -1.37578e-05 0.00174584 
-0.00720846 -0.00209681 0.0231637 
-0.019975 0.0352716 0.0665394 
-0.010899 0.00664414 0.155048 
-0.0359491 -0.00271773 0.0763884 
-0.0119643 0.0111614 0.0708303 
0.0031813 0.00185668 0.0750287 
0.00630823 0.00525867 0.0669608 
0.00164227 0.00435155 0.0739096 
0.00280163 0.00215077 0.0723465 
0.00403581 0.00144871 0.0662145 
0.0138806 0.00578667 0.0682341 
0.00622458 -3.96672e-05 0.0665166 
0.0105895 -0.000186663 0.0703486 
0.00376027 0.000931437 0.0758386 
-0.00618625 -0.00255862 0.0404806 
0.00133707 0.00788728 0.0796451 
-0.00214576 0.0028115 0.0606813 
-0.00272869 0.00507305 0.055835 
-0.0049624 0.00313471 0.071916 
-0.00529147 -0.0030649 0.0699891 
-0.0108161 0.00455632 0.0601644 
-0.000186033 -0.000110336 0.0494184 
0.000321745 0.000699258 0.0359191 
0.000101461 0.000109047 0.0420092 
0.000425834 0.000328835 0.0619449 
0.015909 0.00895909 0 
0.00616324 0.00661157 0 
-0.00155908 -0.0154372 0 
-0.0111374 -0.0426533 0.0173049 
-6.64257e-05 -2.65812e-05 0.000792604 
-0.000179275 -4.67719e-05 0.000127832 
0.000100017 2.45607e-05 5.21817e-05 
-0.000442704 0.000305617 0.0368448 
0.000696933 -0.000677267 -0.000831864 
0.000438214 -0.000422842 8.03826e-05 
-0.000272657 0.000265419 0.000416882 
-0.00285602 0.000440965 0.0405002 
-0.0185646 -0.0347325 0.11255 
-0.0238316 -0.0164744 0.150119 
0.0191395 -0.00494059 0.279774 
-0.09393 -0.0213399 0.0791623 
-0.000685054 8.60488e-05 0.0758941 
5.2354e-05 8.79197e-05 0.0610437 
-0.00168655 0.000258294 0.0643069 
-0.000856705 0.000881839 0.0600654 
0.00295872 0.00593094 0.218333 
0.00631998 0.00507399 0.24817 
0.0071965 -0.0271931 0.134824 
-0.0416587 -0.0902872 0.111784 
4.61483e-06 -4.34169e-06 0.000224048 
0.000290885 -0.000611076 0.0446066 
-0.000585101 0.00070265 0.000274489 
0.000484402 -0.00218374 0.0316143 
0.00580121 0.0019798 0.0696771 
0.0178848 -0.0211113 0.00442328 
0.0543831 0.0434299 0.0479886 
0.0464892 0.0358459 0.107525 
0.000643636 0.000540974 0.000402494 
-0.00265704 -0.00187435 0.0399491 
8.1794e-05 -0.000202261 0.000444399 
-0.000106103 0.000563592 0.0343108 
9.67697e-05 -0.000150953 0.0652936 
-0.000689594 0.000405975 0.0470347 
0.00152811 -0.000392882 0.0598995 
0.00111647 -0.00122229 0.0613084 
0.00186491 -0.00133299 -0.0106412 
-0.0110323 0.00914617 0.0344963 
0.00260961 -0.00107295 -0.00127368 
-0.00552539 0.00311112 0.0291626 
0.00272343 0.00595384 0.066232 
-0.00325073 0.0111936 0.0692505 
0.00439967 0.0153144 0.0641522 
0.00504062 0.0100885 0.066306 
-0.000247621 -0.000235882 0.000806556 
-0.000116235 2.18955e-06 0.0290055 
0.000300679 -5.20594e-05 0.0248007 
-4.58237e-05 7.04383e-05 0.0358323 
0.00101301 0.00176703 0.0522897 
0.00119681 0.00124135 0.0628199 
0.00203992 0.00229583 0.0683808 
0.00119228 0.000882459 0.0611919 
0.00329243 -0.00432092 0.00320843 
-0.0195812 -0.0231942 0.0534354 
-0.033327 -0.000426853 -0.0171783 
-0.00266713 -0.0166852 0.0329374 
-0.00543988 0.0157426 0.0789968 
0.0135976 -0.0114586 0.0986423 
0.0114175 -0.00251021 0.0600867 
0.0361995 0.00381061 0.136737 
3.35168e-05 -0.000389473 0.00133006 
2.60101e-05 -0.000302242 6.34016e-05 
1.4277e-05 -0.000165902 -0.000155249 
0.00110278 0.00286285 0.0317879 
-8.41625e-05 -8.80103e-05 0.00107857 
8.04353e-05 7.46954e-05 0.000465259 
0.00086836 0.000840681 -0.000424312 
-0.00180246 -0.000748242 0.0409983 
-0.00623014 -0.00629764 0 
-0.0104704 -0.0111081 0 
0.00322689 0.00997158 0 
0.00760149 0.0267987 0.0166728 
-4.02805e-05 4.47105e-05 0.000338728 
0.000312821 -0.000298159 0.000984774 
-0.000150991 0.000146543 -0.000281638 
0.000435641 2.72451e-05 0.0348636 
-0.000954506 0.000458713 0.000600267 
0.0117221 -0.00566377 0.0254389 
-0.00145773 0.00227245 -0.00166113 
0.00487492 -0.00182236 0.0312653 
2.36958e-05 -1.63815e-05 -0.000228666 
1.47023e-06 4.71586e-06 0.000200818 
6.38763e-05 -1.7161e-05 0.000396237 
5.52109e-05 0.000194137 0.0375712 
0.0132292 -0.00151149 0 
0.0124219 -0.00298568 0 
-0.0232708 0.00835324 0 
-0.0366787 -0.031178 0.0481191 
-0.038462 0.0316325 0.0626261 
-0.0368809 0.00959172 0.160702 
-0.0557189 0.0170629 0.0806901 
-0.0012382 0.00106927 -0.0453658 
0.00088146 0.00504337 0.235782 
-0.00842327 0.0153482 0.245953 
0.0211523 -0.0227819 0.106251 
0.084507 -0.0829241 0.0730265 
-0.00093051 0.00439909 -0.0064294 
0.00319199 -0.0134828 0.0234667 
-0.00530859 0.00669615 -0.00755014 
-0.0011994 -0.0141454 0.0149024 
0.000550407 -4.71648e-05 -0.000255305 
-0.000764376 6.15634e-05 -0.000774919 
0.000653004 -5.24214e-05 0.000711359 
-0.00348344 -0.00144933 0.0450315 
-3.78625e-05 -1.47836e-05 0.07281 
-0.000129266 -0.000100744 0.0666528 
3.26064e-05 0.00034399 0.0533242 
-0.00105962 -0.00135782 0.0626649 
5.29321e-07 -1.24039e-06 0.000312669 
-0.000331141 -0.000226592 3.69002e-05 
-1.74219e-06 -2.43614e-06 0.000242946 
0.000443778 0.000561688 0.0363919 
0.000495903 -0.00102516 0.0588842 
0.00378117 -0.00691841 0.0702964 
0.00225467 -0.00354961 0.0714053 
0.00108641 -0.00359465 0.0667114 
0.000832548 0.000305299 0.0393779 
0.000716234 -0.000626108 0.0323784 
0.000285877 0.000340558 0.0391086 
0.00143074 -4.04586e-05 0.0630141 
0.0397221 -0.00647367 0.297118 
0.0205574 -0.000197348 0.192742 
-0.0105284 0.00371873 0.263829 
-0.117575 0.0476994 0.0699593 
0.0230184 -0.0261211 0.0751719 
0.0148772 -0.0174777 0.0406184 
-0.000187836 -0.0015924 0.0492098 
0.0110927 -0.01456 0.0728673 
0.00214894 -0.00192924 0.03909 
-0.00246383 -0.00155869 0.0287713 
-0.0125669 0.00305684 0.0430419 
-0.006809 0.00540243 0.0665414 
0.0328568 -0.0421838 0.0832617 
0.033914 -0.0051977 0.0607953 
-0.0283423 -0.0324652 -0.00627216 
0.0144072 -0.0379192 0.109537 
0.00312771 0.00162485 0.0758968 
0.00193755 0.00109091 0.0633005 
0.00115911 0.00104479 0.0734513 
0.00276364 0.0025641 0.0668608 
0.000386026 0.00162577 -0.00137756 
-0.00329095 -0.00528769 0.035557 
-0.00491404 -0.00284612 0.0444928 
-0.00570066 -0.00681701 0.0260332 
4.15002e-05 -0.000249452 0.0297667 
-0.000130386 0.000156587 9.22995e-05 
0.000177079 0.000191026 0.000456218 
-4.70648e-05 -0.000283075 0.0355835 
0.00017993 -0.000208079 0.000400234 
8.60909e-05 8.63046e-05 0.0261586 
-0.000156516 -0.000147095 -0.000387206 
0.000129464 8.85379e-05 0.0217737 
0.00243286 0.00221959 0.000542403 
-0.000142365 -0.00902916 0.0275507 
0.000130716 0.00304777 -0.000832775 
-0.00265344 -0.0049869 0.0286982 
0.00135081 -0.0137741 -0.0225711 
-0.00463781 0.0313595 0.0575592 
-0.000773533 0.0396523 0.00643488 
-0.00788015 0.0115394 0.0470171 
-0.000432494 0.00042621 -0.00205104 
0.000296927 -0.000309632 -0.000646466 
0.000273902 -0.000264881 0.00190748 
0.000435665 0.00293076 0.0429653 
0.000216624 -0.000460507 0.000744228 
0.000163732 -0.000352874 0.000116482 
-0.00012794 0.000268686 -0.000744995 
-0.000283969 0.00119255 0.0394262 
0.00025808 0.00915709 0.079989 
0.0029387 0.000133176 0.0423604 
0.0145414 0.0164686 0.0268768 
0.0254762 0.0138464 0.111095 
0.0030518 -0.0364313 0.151011 
-0.0396309 -0.00124354 0.179164 
-0.0113489 -0.00332451 0.222805 
-0.0483526 -0.0314857 0.145767 
-0.000108318 0.000174466 0.0297924 
-2.57548e-05 -0.000169754 0.0472661 
0.000146743 -0.000347507 0.0561092 
-0.000211315 -0.000406806 0.035245 
0.0180214 0.0189672 0.0515156 
-0.0292635 0.0084799 0.0597914 
-0.0141604 0.00785782 0.061163 
0.00372876 0.03246 0.0443483 
9.84517e-05 -0.000155916 -9.57414e-05 
-3.80452e-05 -6.33739e-05 0.02479 
-7.19074e-05 9.08469e-05 -0.000380475 
-9.73199e-05 0.000186387 0.000725583 
-0.0269482 0.0333719 0.137992 
0.0164428 0.032504 0.174802 
0.00737412 0.00334397 0.262526 
-0.0537194 0.0481013 0.0897454 
0.00273442 -0.00262546 -0.00349082 
-0.00524985 0.00145189 -0.00154144 
0.000834315 -0.00260514 -0.00313726 
-0.000520792 0.0189693 0.0206792 
-0.000659652 0.000288455 0.00173367 
0.00900686 0.00926269 0.0187611 
-0.00304647 0.000354496 -0.00435413 
0.0034277 0.00334002 0.0302211 
-0.0291328 -0.0161203 0.111134 
-0.0464245 0.0106445 0.104908 
-0.00372275 0.00333715 0.185715 
-0.0152014 -9.56527e-05 0.0490457 
-4.22632e-05 0.000333095 0.0595055 
-8.18506e-05 -0.000164083 0.0440312 
2.16016e-05 -0.000278776 0.049582 
0.00025682 0.000673324 0.06161 
-0.012628 -0.0369361 0 
0.0082518 0.0303496 0 
-0.0173812 0.00413237 0 
0.0371707 0.0131271 0.0353459 
0.0702754 -0.0449523 0.0802547 
-0.0163366 -0.00281425 0.0294638 
-0.00836914 -0.0302944 0.106239 
0.0234658 -0.00992359 0.114292 
-0.000565624 -7.05993e-05 0.00110746 
0.000237104 0.000522044 0.0394057 
0.00100533 0.000309105 0.0401582 
0.000590928 -0.000453637 0.0323092 
-0.000151308 -0.000294224 -6.63914e-05 
0.000138292 0.000223165 0.0261678 
4.23845e-05 0.000220213 0.0286283 
-0.000395761 0.000150055 0.000731902 
-0.000330561 -4.15921e-06 0.000721071 
-1.23239e-05 0.000349324 0.0243439 
8.11845e-05 -0.00018398 0.0262195 
1.88271e-05 -0.000117631 0.0378604 
0.0228303 -0.0143255 0.0868705 
0.023735 0.00346753 0.061768 
0.0115099 0.00466262 0.0574765 
0.0101337 0.000839302 0.0769177 
0.000876097 0.00174686 0.0470573 
-0.000169988 0.00321817 0.0691492 
0.000299067 0.00161266 0.059052 
0.00125129 0.00237547 0.0613611 
-0.00068487 0.00365025 0.0761253 
-0.00145961 0.00125916 0.0806875 
-1.15127e-05 0.00146422 0.0786594 
-0.00189685 0.000796183 0.0781686 
0.00598392 -0.0094501 0 
-0.0141755 0.0264047 0 
-0.00309552 -0.00078529 0 
-0.0339585 0.0285189 0.0442518 
0.00313356 -0.00352923 -0.00203091 
-0.00195319 -0.000286011 -0.0024042 
-0.00470155 -0.00106593 -0.00394685 
0.00925545 -0.00064956 0.00953442 
0.000986537 -0.00342945 0.0683296 
0.000928641 -0.00646063 0.0671621 
0.00463339 -0.00602124 0.0695183 
0.00258779 -0.0100391 0.0700344 
-0.000815217 -0.0110344 0.261904 
-6.07184e-05 -0.00851103 0.192811 
-0.00762609 0.00433982 0.271421 
0.107434 -0.0423109 0.0294508 
0.000987376 -0.00637536 0.057429 
0.00532336 -0.0185844 0.0590171 
-0.00742628 0.00519772 0.0373238 
-0.00486421 -0.0137787 0.0235975 
-0.0225496 0.0254475 0.055828 
-0.00536155 0.00319913 0.0304232 
-0.00248849 -0.0012564 0.0505719 
-0.00954193 0.0147817 0.0650027 
-0.000810515 0.00334397 0.0760983 
0.000202662 0.00138205 0.0811609 
0.00171942 0.00390183 0.0733249 
0.000478582 0.00153106 0.0788088 
0.000675752 -0.000423031 0 
-0.00107315 4.57536e-05 0 
-0.000178372 0.000335454 -0.000788185 
-0.00101259 0.000859285 0 
0.00135016 -0.00346532 0.0768939 
0.00294577 -0.000876221 0.0739687 
0.00277058 -0.00326266 0.0704243 
0.000977264 -0.0010257 0.0799457 
0.0142675 0.000818372 0.0333258 
0.051185 0.00200008 0.117445 
0.0264054 -0.0118595 0.117687 
0.0230689 -0.00857943 0.0212116 
-0.0307221 -0.0135753 0.265478 
-0.0332567 -0.0266497 0.125175 
-0.0334796 -0.00930204 0.131353 
-0.06715 0.0581333 0.0664854 
0.0133418 0.00252613 0.216467 
-0.00458055 0.018079 0.124284 
0.0104978 0.00258015 0.244455 
-0.0859653 0.0665533 0.151845 
-0.000196389 0.000289388 0.00038637 
1.62871e-05 -2.2215e-05 6.08252e-05 
-4.13136e-05 6.57418e-05 0.000334394 
0.000610546 -0.000671207 0.0386739 
-4.07283e-05 -0.000157578 0.0797217 
0.00145843 0.00110915 0.0740552 
0.000304539 0.00127823 0.0807444 
0.00122799 0.000378702 0.0796027 
0.00231579 -0.00222889 -0.00368112 
-0.000671989 0.000243784 -0.00103574 
0.000658795 0.000727614 0.000416379 
-0.00229199 0.0135854 0.0157512 
-3.50218e-05 -3.41015e-05 1.34839e-05 
-0.000229581 -0.000222415 0.000240523 
-1.15624e-05 -1.06613e-05 8.46715e-05 
0.000223197 7.3968e-05 0.0446549 
0.0152201 0.00778634 0 
-0.00375776 -0.00246897 0 
0.00616816 -0.00370778 0 
-0.0397426 -0.0249821 0.0132485 
-9.64093e-05 4.86878e-05 0.0329077 
0.000102933 -1.20127e-05 0.0256784 
6.03451e-05 0.000241055 0.00126012 
-6.32937e-06 -0.000136587 0.036079 
0.000141807 0.000137731 -2.22731e-05 
-0.000205567 -0.000199704 0.000223988 
2.19998e-06 2.05231e-06 0.000352636 
0.000184724 -0.000357557 0.0448404 
-0.000647682 -0.000762484 0.0784113 
-0.0005452 0.00402675 0.0690977 
0.00202274 0.00123928 0.0740554 
0.00047677 0.00129996 0.0789869 
-0.00379544 -0.00598505 0.0589088 
0.00109842 0.0015841 0.0710939 
-0.0013893 -0.00334843 0.0729987 
-0.00350874 -0.00461978 0.0715141 
0.0230735 0.0266613 0.310837 
-0.00663173 -0.0101226 0.256515 
-0.00612049 0.0134064 0.174115 
-0.0577868 -0.0996323 0.0615437 
0.00083004 -0.00271608 0 
0.000162918 -0.000866636 0 
-0.000130369 -0.000422664 0 
-0.00660421 0.0127796 0.00291877 
-9.87719e-05 0.0161189 0.114469 
0.0218664 0.0142318 0.134902 
0.00360248 0.00947067 0.0746549 
-0.0146544 0.0308091 -0.00882469 
0.00193728 0.00186164 0.00022264 
-0.00128288 -0.00123465 -0.00346439 
0.000658291 0.000633404 0.00153142 
-0.0051554 0.00149811 0.0405182 
-0.00158877 -0.00320663 0.0771575 
-0.00106385 -0.00505908 0.0712074 
-0.00417547 -0.00413088 0.0721385 
-0.00136763 -0.00813234 0.069365 
0.0262503 0.00836558 0 
0.0131694 0.0176944 0 
-0.0344628 -0.00510627 0 
-0.0715893 -0.0148935 0.0425713 
0.006719 -0.00375281 0 
-0.00343301 0.00144207 0 
-0.0102374 -0.00331483 0 
0.0244225 -0.00695318 0.000575381 
2.73384e-06 -5.65664e-05 -0.000180982 
1.10152e-06 -3.45075e-05 -0.000174941 
1.07865e-05 -7.27778e-05 0.000595649 
0.000236223 0.000307165 0.0376172 
0.00143329 -0.000147831 0.051187 
0.000829279 -0.000814185 0.0331818 
0.000500517 0.000190708 0.0397673 
0.00185999 0.000304698 0.0616986 
-0.00264846 0.0125754 0.236471 
-0.000457607 0.0502392 0.136337 
0.0439464 0.05787 -0.027868 
-0.00323235 0.0097633 0.212425 
0.000229951 -0.000334832 1.70545e-05 
-0.000115894 0.000168612 0.000194859 
-4.22785e-05 6.1403e-05 0.000227138 
0.000362719 -0.000593939 0.0387742 
0.000340405 -2.90142e-05 -0.00537521 
-0.00173504 -0.000451955 8.31868e-06 
0.00144129 0.000408668 0.00151049 
0.00637084 -0.00183561 0.0272978 
0.00170596 0.000668973 -0.00162313 
0.000534777 0.000317098 0.0051314 
-0.000836447 -0.000377833 -0.00182122 
-0.00594006 0.00352967 0.0200168 
0.000442094 0.00894866 0.0755536 
0.00144124 0.00639986 0.0652809 
-0.000933298 0.0127824 0.0786674 
0.00330066 0.00692853 0.0625809 
0.0235335 -0.043135 0 
-0.00470123 0.0611298 0 
0.00421388 -0.0476419 0 
0.035761 -0.0659214 0.128713 
-0.00169654 -0.00320704 0.0760677 
-0.00400445 -0.00450503 0.0723125 
-0.00515356 -0.00664822 0.0672468 
-0.00176289 -0.00731184 0.0687794 
-7.76534e-06 -0.00662492 0.0565535 
0.00196706 -0.00173203 0.053087 
0.000508607 -5.90912e-05 0.0342089 
0.00330783 0.00435947 0.0663677 
0.00192476 0.00272043 -0.00215193 
-5.28511e-06 0.00147879 0.00149388 
-0.00193428 -0.0023918 0.000183361 
-0.0082828 -0.00920126 0.0084072 
-0.00569133 -0.005113 0.0597181 
-0.0127735 -0.011076 0.0274902 
0.0115156 0.00427549 0.0382335 
-0.00659505 -0.00218884 0.0564032 
-0.0170876 0.00295846 0.0326706 
0.0156659 -0.00173416 0.024238 
0.0173315 -0.00284947 0.0598791 
0.0220311 0.00253499 0.0251492 
0.000108063 0.000135553 0.0251366 
-4.3396e-05 0.000133973 0.0313299 
0.000342533 -6.79749e-05 0.0503959 
-0.000201836 -0.000413765 0.0360672 
0.0304785 -0.00938446 0.182235 
-0.0154928 -0.000718397 0.227149 
0.0118095 0.0111989 0.131603 
0.0146586 0.0303219 0.206433 
0.00124723 -0.00214677 0.0586257 
0.00247668 -0.00293615 0.0713998 
0.000710008 -0.00224431 0.0709119 
0.000781013 -0.00410519 0.066744 
0.000163514 -0.000693741 0.000520024 
-0.000244901 -0.00010739 0.00033774 
-0.000589087 -0.000195176 -0.00185618 
0.000637577 0.000250866 0.000334338 
0.000659237 0.000249703 -0.000755037 
0.000389791 0.000167271 0.000383093 
-0.000568287 -0.00023194 -5.43842e-05 
0.00143777 0.000590367 0.000422049 
-0.000359455 -0.000620616 0.000570023 
0.00103651 -0.000112951 -8.24497e-05 
-0.00133695 0.00107278 0.0393713 
-0.00237851 0.00107258 0.0287107 
3.35047e-05 -0.00028952 0.047181 
-6.37394e-05 -1.45935e-06 0.0312008 
-9.72194e-05 -7.26483e-05 0.0251311 
-7.05096e-05 -0.000111474 0.0359587 
6.56468e-05 -0.00018866 0.000236955 
-1.55719e-05 1.08869e-05 -0.000359292 
6.31924e-05 -0.000168146 0.00034856 
8.2838e-05 0.000173655 0.0333025 
-0.000266879 0.00029658 0.000556598 
0.000237757 -0.000172487 0.0247186 
-7.92463e-05 -0.000115927 0.00034058 
0.000324615 0.000140234 0.036568 
-0.00293435 0.0228749 0.0306671 
-0.0109977 0.0114399 0.0690104 
-0.0258458 0.0210491 0.0778223 
-0.00593302 0.017763 0.0162536 
-0.00816191 -0.0113589 0.0467718 
0.0162157 -0.0328083 0.0698891 
0.00494989 -0.00639848 0.0112613 
0.00150833 -0.00772353 0.0746593 
0.00248846 0.0212945 0.158377 
0.00348554 -0.00763377 0.238352 
-0.023882 0.00965284 0.175629 
-0.0114245 0.0501951 0.195145 
-9.00462e-07 3.99816e-05 0.0836711 
0.000133409 8.78575e-05 0.0807089 
-8.41136e-06 -1.45991e-05 0.077832 
-6.76545e-05 -0.00163278 0.0819811 
0.00178799 0.00685923 0.0675859 
0.00557433 0.00957006 0.0686088 
0.00362436 0.00277796 0.0660617 
0.010366 0.00767118 0.0695791 
-0.00661555 0.0201712 0.14863 
0.00106159 0.00138398 0.21031 
0.00072645 0.00742009 0.271148 
0.0993554 0.0600704 0.136899 
0.0132979 0.015183 0.0425993 
0.0113458 -0.00440188 -0.0306604 
-0.015338 -0.0185702 -0.0320163 
0.0950087 0.0463454 0.150784 
-0.00456273 -0.000855652 0 
0.00123034 0.00387111 0 
-0.00955194 0.011071 0 
0.0254977 -0.0313733 0.00625449 
0.000208073 -1.55202e-06 0.000614611 
7.32843e-05 -0.000104713 0.024914 
-0.000200425 0.000226078 0.0261602 
-4.61903e-05 0.000141898 0.0336245 
0.00237437 -0.000110341 0 
-0.00192231 0.000572036 0 
0.000291077 -0.00032257 0 
0.000865323 -0.00240289 -0.00133681 
0.0323399 -0.0118161 -0.0321575 
-0.0112202 0.0560501 0.154956 
0.018657 0.0405845 0.0321664 
-0.00553116 0.0213183 0.0185899 
-0.000923642 0.00370158 0.0760394 
0.00193274 0.00392211 0.0734565 
-0.000815973 0.00477969 0.070041 
0.000502617 0.00123818 0.078815 
-0.00397106 -0.00726311 0.056042 
-0.003785 -0.00483436 0.0720451 
-0.015109 -0.0122928 0.0677355 
-0.00634609 -0.00326531 0.0535778 
0.00384082 -0.00674204 0.0705123 
0.00233168 -0.00164441 0.0620092 
0.00627485 -0.00353108 0.0685799 
0.0100558 -0.0106403 0.0757642 
-0.000124752 -0.000217491 0.0682147 
-4.92966e-05 2.31953e-05 0.0653303 
-2.81515e-05 0.000520967 0.0507904 
0.000387843 -0.00141707 0.0717695 
0.00429011 -0.000311928 0.0730022 
0.0113015 0.00725588 0.0746965 
0.00237706 0.00260933 0.0613716 
0.00209925 0.00505206 0.0724997 
-0.000161936 9.04115e-05 0.0294271 
0.000157737 0.000198299 0.00029535 
0.00028845 -0.000456607 0.000461404 
-0.000243013 7.65529e-05 0.0356709 
-0.000172842 -0.000209161 -0.00281557 
-0.00121693 0.00147977 0.0393642 
0.000478339 -3.73596e-05 0.000677826 
-0.00214748 0.00114348 0.0284338 
-0.00169203 -0.00428721 0.0439792 
-0.0192654 -0.000357344 0.0758 
4.1325e-05 0.0125091 0.0716715 
-0.00680486 0.00122205 0.0300538 
-0.000126636 -0.000254654 0.000174795 
-0.000446124 -0.000845901 0.00131758 
6.13235e-05 8.21595e-05 -0.00064859 
-0.000333323 5.3557e-05 0.035733 
0.0276305 0.0304026 0.263669 
0.030309 0.048005 0.112357 
0.0574482 0.00545492 -0.0238917 
-0.000132731 0.0377308 0.141929 
-0.00489314 0.00411079 0.0689247 
-0.00489673 0.00311568 0.0635149 
-0.00378477 0.00350128 0.0656784 
-0.00944059 0.00820428 0.071991 
-9.17652e-05 -0.000120131 0.077721 
7.54426e-05 0.000215818 0.0811032 
0.000885142 -0.000879107 0.080163 
0.00115636 -8.40194e-05 0.0798448 
0.00129876 -0.000650498 -0.00300102 
-0.000228095 0.000238409 0.00457382 
-0.00471391 0.00198841 -0.00125129 
0.00134212 0.00383716 0.0148885 
-0.00837036 0.0910309 0.0969566 
0.0270458 0.000681985 0.135843 
0.000865727 0.00470956 0.115612 
-0.0145729 0.027421 -0.00846438 
-9.41328e-05 -8.09673e-06 0.000108882 
7.08181e-05 6.09133e-06 0.000580873 
-0.000529667 -4.55587e-05 -0.000114488 
-0.000178964 0.000167084 0.0485734 
-5.22839e-05 -0.000196916 0.0778598 
-0.000126456 3.59704e-05 0.0722924 
0.000100588 3.3885e-05 0.0809341 
0.00114118 6.06308e-05 0.0800142 
0.0190343 0.0106315 0.0139014 
0.0470976 -0.00135928 0.0943087 
0.0192416 0.00281014 0.0518822 
0.0197714 -0.00435476 0.0343023 
0.00208244 0.004033 0 
-0.000232571 -0.0015707 0 
0.00460784 -0.00434318 0 
-0.00457188 0.00271393 -0.000409554 
0.0124021 -0.016894 0 
-0.00315049 0.029256 0 
0.0104971 -0.0144222 0 
-0.0139289 0.0400996 0.035066 
0.000113861 -0.000170943 -0.00462441 
-0.00187622 0.0027643 0.0049362 
-0.00220203 0.0032407 0.000862686 
0.0133903 -0.00769499 0.0181076 
0.0113502 0.00130554 0.0424745 
0.00178721 0.00306571 0.0604714 
0.00023248 -0.00165184 0.0372495 
0.00274631 -0.00228455 0.0340499 
-5.91432e-05 0.000166556 0.0299186 
0.000127332 -6.14976e-05 0.0213345 
-1.68588e-07 -0.000183671 0.000450153 
-3.16621e-05 -4.24507e-05 0.0351622 
-2.26145e-05 -0.000132128 -0.00130366 
6.27829e-05 0.00014802 5.40845e-05 
-9.60697e-05 -0.000207514 0.00022659 
-0.000515291 6.41327e-05 0.000201185 
-0.00540541 0.00292962 0.0736867 
-0.0151813 0.000795891 0.0584833 
-0.0271612 -0.00581133 0.0875256 
-0.0149232 0.00300519 0.0832654 
-0.00219194 -0.00768093 0.0710636 
0.000976571 -0.00630311 0.0658254 
0.000934948 -0.00316041 0.067543 
0.00280295 -0.0106505 0.0707241 
-0.00580195 0.0102404 0.0431633 
-0.0021285 -0.00119994 0.068249 
-0.000426107 -0.00156846 0.0375335 
-0.00326704 0.00268097 0.0285664 
-0.00456208 -0.0105007 0 
0.00293119 0.0148632 0 
-0.00786401 0.000924295 0 
0.00246415 0.0253349 0.0213381 
0.000229025 0.00198296 0.0565492 
-0.000305518 0.0044839 0.0641762 
-0.000899339 0.00649542 0.0716224 
2.24971e-05 0.00311254 0.0610646 
-0.0208061 -0.0157073 0 
0.0140466 0.00475079 0 
0.00286188 0.0166797 0 
0.0192336 0.0543993 0.0448448 
-0.0138202 0.00764698 0.257861 
0.0405951 -0.00729707 0.151328 
-0.00981792 -0.0241363 0.157737 
0.0252414 -0.0723842 0.0507211 
-0.000199432 8.20031e-05 0.073159 
0.00121738 0.00103322 0.0737399 
2.89717e-06 1.30246e-05 0.0797037 
0.00132483 0.00019653 0.0798312 
-0.000467257 -0.00291909 -0.00191969 
-0.0302329 -0.0146393 0.0274591 
0.00893174 -0.00173439 -0.011535 
-0.0125987 -0.0046335 0.0147556 
-0.00485133 -0.00605839 0.0685863 
-0.0117849 -0.0106323 0.0703729 
-0.00671009 -0.00442805 0.0670532 
0.00104295 -0.000629588 0.064493 
0.000288151 4.62956e-05 0.0615017 
-1.35292e-05 0.000100005 0.046698 
2.58235e-05 -1.98649e-05 0.0439947 
0.000418614 0.000125146 0.0396003 
0.00585932 -0.0142721 0.266105 
-0.0379736 0.048837 0.1279 
-0.00241433 0.05113 0.146901 
-0.0161669 0.0552516 -0.0598239 
7.42668e-05 4.5394e-05 0.0684735 
0.00114239 0.000773928 0.0747213 
-0.000312077 7.89133e-05 0.0599723 
0.000833465 0.00117502 0.0614042 
-0.00589171 -0.00372794 0.316504 
0.0537124 -0.00254396 0.129878 
0.0399457 -0.0308588 0.121273 
0.0413432 -0.0193301 -0.093417 
0.000277703 4.19088e-05 0.0535277 
-0.00025638 -8.11119e-05 0.0294785 
9.00163e-05 -7.88657e-05 0.0467541 
0.000329159 -0.000197101 0.0346602 
0.00100356 0.00164411 0 
-0.00128159 -0.000579502 0 
0.00119483 -2.26584e-05 0 
0.000507782 0.000359078 -0.00128315 
-0.000337972 0.000515769 0.000467853 
0.000953486 -0.000321662 0.0411717 
-0.000383444 0.000215341 0.000431043 
0.000753628 -0.000364768 0.0324284 
0.00384724 -0.00237524 0.0702401 
0.00139698 -0.000208539 0.0728847 
-0.00373853 -0.000188393 0.0723289 
0.000806252 0.00192531 0.0632017 
8.112e-05 0.0017234 -0.0010331 
-0.000161838 8.56982e-05 0.000838774 
-0.000165852 5.44543e-05 -0.000530827 
-8.80165e-05 -5.76603e-07 -0.00150983 
0.0318288 0.0631862 0 
0.0227343 0.0685797 0 
-0.0266466 -0.0801877 0 
0.0182101 0.0672025 0.173423 
-0.00136083 -0.000645661 0.0816884 
-0.000147262 -0.00167046 0.0813482 
0.000434132 -0.000100564 0.0829146 
-0.000735632 -0.00197616 0.0791979 
-0.0018344 0.00736386 0.0803188 
0.0178688 -0.0201712 0.0554786 
0.0249883 0.0127271 0.0787775 
0.0133126 -0.0133976 0.0777692 
3.66512e-05 7.05313e-05 0.0752218 
-2.43729e-05 7.00548e-06 0.0825713 
-2.36861e-05 -5.34023e-05 0.0755422 
-0.00110942 0.00102995 0.0806845 
-0.0451095 0.0357802 0.134163 
-0.00599697 -0.00611905 0.272902 
-0.0522831 0.0087216 0.128907 
-0.0613404 -0.0044102 -0.054658 
-0.0202806 -0.0164534 0 
0.000257022 0.0010419 0 
0.00934055 0.0187218 0 
0.0441549 0.0102411 0.0409157 
-0.00532365 0.0010773 0.0216206 
0.0048645 0.00294932 0.0333496 
-3.63998e-05 -0.00250107 0.0567504 
0.0170217 -0.0166459 0.0576189 
1.10237e-05 0.000138324 0.0274058 
7.93202e-07 -3.38444e-05 -8.09123e-05 
-1.19197e-06 5.16329e-05 0.000202595 
-3.97187e-05 0.000132084 0.0240967 
0.000468383 -0.000131288 0.00147225 
-0.00066035 0.000184025 -0.00180918 
-0.000786286 0.000209768 0.00017039 
-0.0033833 -0.00150771 0.0424659 
-0.000714688 0.00100431 0.00303466 
-0.000526077 0.000625479 -0.0029813 
-0.00160008 0.00192495 -0.00803456 
-0.00521992 -0.00911401 0.0255025 
-2.71052e-05 0.000131701 0.000173712 
3.86853e-05 -0.000168217 0.000144229 
9.32543e-06 -2.22745e-05 0.000397622 
-0.000166581 0.000201463 0.0409856 
-0.000457327 4.50876e-05 0.0316621 
0.00021374 -5.70048e-05 -3.89228e-05 
-5.30111e-05 -0.000276163 0.000735491 
-9.70038e-05 -2.11889e-05 0.0246398 
-0.00544536 0.0215555 0.146423 
-0.00206819 0.0299235 0.0771226 
0.024685 0.0252813 0.0732788 
-0.0072597 0.00250757 0.0717753 
0.00043299 -0.000334122 0.000231403 
-0.000524094 0.000418539 0.0364427 
0.000399674 0.000102856 0.000575779 
-0.000752059 0.000309755 0.0369821 
0.000201932 5.09557e-05 0.0507096 
0.000110636 7.35794e-05 0.0430673 
-0.00016842 -0.000207785 0.0252112 
0.000275754 0.000383081 0.0332024 
0.0110013 0.0192346 0.0545689 
-0.0117098 0.0105443 0.0674788 
-0.00756886 0.0128575 0.0239821 
0.00100503 0.0270043 0.0307707 
-0.00126089 -0.000775248 -0.00183163 
-0.00175838 -0.00173324 -0.00184895 
0.00139737 -0.000714851 -0.00153116 
0.0111466 0.00809065 0.0139026 
0.000116014 -0.00304897 -0.0179794 
-0.0145353 0.00927768 0.0326527 
0.00289667 0.00517951 -0.00624844 
0.00746193 0.0143997 0.0269326 
0.000226027 -0.000337973 0.0030574 
1.23434e-07 -0.00644743 0.024313 
-0.0016318 0.00152257 -0.00592461 
-0.000742225 -0.010989 0.0144809 
0.0108761 0.0189971 0.0470251 
-0.00348357 0.00342012 0.00517032 
0.00520587 0.00535348 -0.00616279 
0.0537672 0.0239705 0.0893566 
-0.000218432 0.000341106 0.0332436 
-0.000129134 -0.000254147 0.0589695 
0.000200342 -0.000329626 0.0523238 
-0.000285382 -0.000520734 0.0365599 
-0.000147578 0.00035839 0.000372883 
2.96966e-06 -0.000315809 0.0369022 
5.44031e-05 0.000268511 0.000313657 
-0.000255593 0.000257579 0.0393195 
0.000261775 0.00104003 0 
-0.00106586 -0.000998019 -0.00018559 
-0.000316539 -0.000633289 0 
0.000230223 0.000330711 0 
-0.000125412 9.39921e-05 -0.000314385 
0.00017499 0.000112048 0.0296961 
0.000236739 -0.000159376 9.6005e-05 
-0.000175317 9.68302e-05 0.000512996 
-0.0438946 -0.00649251 0.137061 
-0.0230809 0.0270929 0.107714 
-0.0133721 -0.00747711 0.237987 
-0.0569666 0.00549067 0.112675 
0.00514466 0.0265454 0.283917 
-0.0063715 0.0142703 0.184696 
-0.00511577 -0.00793313 0.246344 
-0.057482 -0.0986786 0.063224 
0.024785 0.00513666 0.0252993 
0.0200626 0.027512 0.0339052 
0.00716485 -0.0202885 -0.0388732 
0.043714 0.0524305 0.14487 
0.026042 -0.0270864 0.165189 
-0.0252202 -0.0221457 0.167423 
0.00182222 0.00600443 0.24636 
-0.0266711 -0.0649307 0.156299 
-0.020267 -0.0155484 0.223158 
0.00662456 -0.0191057 0.145923 
-0.0135652 -0.00658519 0.256845 
0.12406 0.00911819 0.15312 
6.38936e-05 0.000209789 0.0582381 
-0.000109576 -0.000252885 0.0726407 
0.000114749 0.000235025 0.0530947 
-0.000525623 -0.00192245 0.0657549 
0.000101148 5.88526e-05 0.0807755 
-2.24968e-05 1.90373e-05 0.0836834 
-2.00996e-05 0.000132565 0.0844386 
-5.91907e-05 -0.00163308 0.0817965 
-0.00106133 -0.00277857 0.0710414 
-0.00611219 -0.00664409 0.0623618 
-0.00316205 -0.00492674 0.0722471 
-0.000143999 -0.0113338 0.0696592 
-0.00471727 -0.00171166 0 
-0.00139059 -0.00335126 0 
0.0023111 0.00149433 0 
-0.00445423 -0.00448839 -0.000885134 
0.00672148 -0.00291089 0.0513241 
-0.0072462 0.000849684 0.0690593 
-0.00939227 -0.00265063 0.0741661 
-0.0120272 -0.000423235 0.084334 
0.000318723 -0.0121032 0.011499 
0.0113234 -0.0129154 0.021809 
0.00256986 -0.0127045 0.0800164 
-0.0202196 -0.0402934 0.0763933 
0.000109314 -0.000154328 0.0276513 
2.6137e-05 5.91996e-05 8.14203e-05 
2.87486e-05 -5.675e-05 0.000455594 
0.000209576 1.33032e-05 0.0297601 
-0.00715108 -0.00202783 0.0431302 
0.0032756 7.9689e-06 0.0744145 
0.00296799 -0.00794691 0.0368539 
-0.00198263 0.00367423 0.0624382 
0.00282848 -0.0151628 0.0618382 
0.0113772 0.00554104 0.0738005 
5.84673e-06 -0.00426742 0.0602065 
0.0123201 -0.00960917 0.0769383 
-0.00781696 0.00107236 -0.00566757 
0.00387112 -0.0138186 0.0247171 
0.00816828 -0.0109645 0.00835887 
-0.0264944 -0.0429244 0.079611 
0.000106347 0.00126772 -0.00138228 
0.000146446 0.00174573 0.00237124 
5.16589e-05 0.000615807 -4.33223e-05 
0.00461058 -0.00797822 0.0314952 
-0.00180581 0.00444952 0.256707 
-0.0126236 0.00743277 0.248687 
0.00887722 -0.000748695 0.257805 
0.0447674 -0.00633868 0.229778 
-0.0065406 0.00678971 -0.00624084 
-0.00649715 0.00750046 -0.0217528 
0.00547121 -0.0221937 0.0312352 
0.0199152 -0.0242755 0.0433119 
-0.00417935 -0.00762261 0.0593759 
0.00115452 -0.00190707 0.0691752 
-0.00225942 -0.0124525 0.0597748 
-0.00278568 -0.0109043 0.073031 
2.44943e-05 -0.000119554 0.000474688 
0.000331609 -4.6346e-05 0.0358424 
-8.5406e-05 6.77747e-05 0.0208935 
-0.000145131 0.00015361 0.0323298 
0.00274227 -0.00309271 0 
0.00156676 0.0142105 0 
-0.00476973 -0.0179645 0 
0.0324982 0.00156527 0.0345603 
-5.59692e-05 0.000700408 0.000590092 
3.05814e-05 -0.00046226 -0.000876529 
-2.18465e-05 0.000267041 0.000186103 
-0.00174528 -0.00203298 0.039673 
-0.000616237 -0.000770351 0.00170467 
0.000303081 0.000381694 -0.000717426 
0.000239107 0.000326416 0.00051994 
0.00530898 0.000610002 0.0180563 
-0.00218392 0.00054392 -0.0012663 
0.000919642 0.00800436 -0.0112842 
0.000901934 -0.015097 0.019972 
-0.00824753 -0.014777 0.0227741 
0.00229574 -0.00376706 0.0515726 
0.00268697 0.0043964 0.0656795 
0.00402498 -0.00388767 0.0637989 
0.00653796 0.00580169 0.078611 
1.91703e-05 -9.8565e-05 0.0213373 
-7.48985e-06 1.06635e-05 -7.94395e-05 
-2.59496e-05 -0.00013543 0.030329 
-8.08072e-06 4.64999e-05 0.000144715 
0.000230676 -9.08455e-05 0.0503205 
-0.000145495 0.000133355 0.0314791 
0.000235095 -0.000207835 0.0558302 
-1.53268e-05 -0.0003865 0.0360759 
0.000270769 -0.00409518 -0.00234796 
-5.59946e-05 -0.00217073 -0.00500707 
0.00539161 -0.00487908 -0.00410253 
-0.0121949 0.0272947 0.0199308 
0.00271505 -0.000658194 0 
-0.00417872 0.00686643 0 
0.00131065 -0.0033191 0 
0.0141485 -0.0214107 0.00473794 
0.000528386 0.00156184 0.0390688 
-0.00159 -0.00684411 0.0685281 
0.000363275 0.00100962 0.0596509 
0.00557366 0.00104601 0.0526098 
3.30615e-05 1.40065e-05 0.0725463 
0.000118756 -4.90225e-05 0.0801094 
-8.91073e-05 1.21648e-05 0.0793992 
0.000247751 0.00106949 0.0812446 
-0.00124258 0.00271401 0 
0.000569469 0.00201956 -0.00118559 
-4.02126e-05 -0.000951698 0 
0.0021746 0.00107048 0 
-0.000613573 0.000363865 0 
0.000520178 -0.000889263 0 
0.00127243 -0.000467099 -0.000248878 
0.000270542 0.00122478 0 
-0.00018261 0.000141074 0.032873 
-3.10343e-05 -3.36226e-05 4.25753e-05 
-3.9726e-05 9.21325e-06 0.000463791 
-0.0001754 -9.22134e-05 0.0245059 
-0.0105224 -0.00188506 0 
0.0070179 0.00240433 0 
0.00154936 0.00443451 0 
0.00909635 -0.0039413 0.0149081 
-0.0174005 -0.00744818 0 
-0.0121372 -0.0145964 0 
0.0174753 -0.00254097 0 
0.0543317 0.0170974 0.0213502 
-0.00429913 0.008474 0.152791 
-0.0410486 0.00631658 0.124902 
0.0099542 0.0248757 0.0827 
-0.0163672 -0.00238558 0.0659763 
0.0325733 0.0188756 0.0110318 
-0.00560487 0.0279195 0.0341019 
0.00119151 0.0167929 0.073871 
0.00498895 0.0227722 0.157289 
0.00699612 0.00106091 0.0702295 
0.0117809 0.0027449 0.0580436 
0.0169582 0.000230035 0.065667 
0.0143488 -0.00154163 0.0760447 
0.00482301 -0.0194853 0.0735084 
0.000599569 -0.0170601 0.0254215 
-0.00478635 -0.00809962 0.0177092 
-0.000419464 -0.00423359 0.0320184 
0.00109533 -0.0050883 0.0466037 
0.00795822 -0.019125 0.100245 
-0.0195649 -0.025822 0.0363877 
0.0406545 0.00986529 0.105766 
8.41645e-05 -0.000577693 0.000383352 
-8.98741e-05 0.000350425 0.0260709 
0.000221463 -4.46128e-07 0.000323238 
-0.000320525 0.00037282 0.0342553 
-0.000283238 -3.64815e-05 0.0249604 
0.000152908 6.07215e-05 0.0276228 
0.000265163 -0.000117662 0.000585626 
-0.000239254 -9.49894e-05 0.0357388 
0.000308091 -0.0593983 0 
0.0254144 0.05045 0 
0.0148187 0.0671961 0 
0.0361338 0.0339894 0.210419 
0.00623739 3.36594e-05 0.0691009 
0.00449443 -0.00024075 0.0611769 
0.00488036 -0.00216992 0.0692247 
0.00377082 -0.00107818 0.066852 
4.12451e-05 -3.5739e-05 0.0809898 
-0.000100647 -1.63837e-05 0.0732466 
2.63143e-05 8.71535e-05 0.0796055 
0.00112104 0.000178705 0.0799201 
0.00287574 0.00311851 0.0559168 
-0.0283798 -0.0219211 0.0805553 
0.00632713 -0.014329 0.0343432 
0.00102216 -0.0129464 0.0701669 
-0.000110099 0.000114433 -5.48566e-05 
2.86692e-05 -2.99318e-05 0.000228475 
5.51931e-05 -5.7566e-05 0.00034739 
-0.000321415 -0.000343219 0.0369861 
0.00531524 0.00638004 0 
-0.0127549 -0.0126822 0 
0.00232084 -0.00221524 0 
-0.0164012 -0.018204 0.0436349 
-6.65966e-05 0.000160632 -6.3239e-05 
5.20378e-05 -8.93704e-05 0.000659584 
4.25562e-05 -0.000121628 -0.000280031 
-0.000152999 -0.000111104 0.0246655 
-0.00688702 -0.000271311 -0.0153889 
0.00384588 0.00629953 -0.00528159 
0.018981 0.0104961 0.0287399 
0.00202281 0.00547832 0.0284099 
0.00312088 0.00380052 -0.00360241 
-0.00205294 -0.00252372 1.76367e-05 
0.000644548 -0.000962479 0.0024813 
-0.00937716 -0.0101634 0.0100595 
0.0115022 0.0137666 0.038913 
0.0021715 0.00514433 0.0570249 
0.00337555 -0.0025355 0.0603381 
0.0265341 -0.000250612 0.0761977 
0.000637679 0.00136995 0.056457 
0.00353181 0.00336907 0.0651951 
0.00268045 0.0058823 0.0675468 
0.00131898 0.00236575 0.0606129 
0.0011827 0.00230689 0.07191 
0.00266885 0.00303219 0.0671137 
0.00140922 0.00108616 0.0740206 
0.000534156 0.000654571 0.0618704 
0.00320088 0.00185996 0.075008 
0.00222354 0.00155706 0.0732425 
0.00206812 0.00424005 0.0735645 
0.000314926 0.00137472 0.0791225 
-0.000321974 0.000441358 0.000680053 
-3.26392e-06 4.4542e-06 3.83737e-05 
-7.13652e-05 9.84857e-05 -0.000889782 
-0.00136658 0.00106809 0.0384367 
-0.000151975 -0.000146058 0.000412031 
0.000152455 0.000153576 0.000168585 
-1.00175e-05 -6.11349e-06 0.000316952 
2.66342e-05 -0.000278674 0.0439644 
0.00856842 -0.00144148 -0.0121547 
0.0803999 0.0342043 0.100287 
0.00932111 -0.00393261 0.0116528 
0.0207452 -0.0173588 0.0327855 
0.000105616 0.00157236 0.0565757 
-0.000803625 0.00677071 0.0717245 
-0.000865869 0.00484287 0.068379 
-1.15821e-07 0.00304738 0.0610408 
1.58464e-05 -0.000457362 0.00187294 
-6.17048e-05 0.00050997 0.00241268 
0.000109624 -0.000854134 -0.00468249 
0.00617697 0.0103994 0.0167506 
0.000172642 -9.57549e-05 0.000391917 
-1.59284e-06 1.19902e-05 -0.000322303 
-0.00024783 0.000108344 0.000272751 
0.000485267 0.000193236 0.0406407 
-0.0428288 -0.0156889 0.0425919 
-0.0180716 0.0106832 0.0803531 
-0.00843652 0.0107436 0.165199 
-0.0109023 -0.0178802 0.109541 
2.81217e-06 -0.000161139 0.0275809 
3.76318e-05 0.000252026 -0.000230392 
0.000366437 -0.000154738 0.00030723 
-2.08996e-05 -3.48923e-05 0.024017 
-0.0013146 -0.00115912 0 
-0.00149085 6.28587e-06 0 
-0.00011082 -0.000588271 -0.00186973 
0.000678499 0.000519336 0 
-5.59037e-05 0.000220823 1.9576e-05 
-0.000233874 0.000876755 0.00103731 
0.000139033 -0.000314008 -0.00482294 
0.00193485 0.00516763 0.0290247 
-0.00195098 -0.00377153 0.0757733 
-0.00380953 -0.00429154 0.0719941 
-0.000281807 -0.00411356 0.0736176 
-0.000764366 -0.0019019 0.0791874 
-0.00031727 -0.000567179 -0.00463372 
7.09135e-06 -0.000149953 0.00370922 
-0.0017074 -0.00344651 0.0162432 
-0.00501666 -0.00322217 0.0180244 
9.95976e-05 0.000150379 0.000154951 
0.00018673 -0.000109896 0.024991 
-7.29608e-05 -0.000118199 -0.000297332 
-0.000115528 -0.000142651 0.000547052 
0.00715425 0.00180501 -0.00261138 
-0.00763465 -0.00468022 0.0146243 
0.00104993 0.000109769 -0.00322416 
-0.0112725 -0.00521249 0.0163312 
0.000246156 -3.27194e-05 0.061121 
0.000338162 -3.66473e-05 0.0724255 
-0.000368605 9.418e-06 0.0536878 
0.00108661 -0.000535585 0.0593945 
0.00950872 0.00753837 0.246762 
0.0123435 0.00954526 0.228609 
0.0062336 -0.00105902 0.258024 
-0.0211608 -0.0153113 0.236252 
-5.1091e-05 0.000296972 0.000562317 
0.000212717 6.48472e-05 0.025107 
-0.000222946 -4.56457e-05 -0.000182404 
8.16201e-05 -6.37576e-06 0.0262633 
-0.0431312 0.00115083 0 
0.0565662 0.00410778 0 
0.044472 0.0295179 0 
0.068315 0.0224846 0.167224 
5.96427e-05 -0.000140414 0.062597 
-0.000181723 0.000205154 0.0700315 
0.000176551 -0.000443009 0.0518904 
-0.000698961 0.00163625 0.06863 
0.0279086 -0.0021886 0 
-0.0163264 0.00975033 0 
-0.0263813 -0.00915794 0 
-0.037844 0.0206295 0.0443757 
0.00419205 -0.0142949 0 
9.01891e-05 0.0123785 0 
-0.00967327 0.0131854 0 
-0.00915096 0.0403635 0.0355763 
0.0274128 -0.0421722 0.0957544 
-0.00742999 0.00187999 0.290671 
0.0296761 -0.0142036 0.151919 
0.0746102 -0.0362377 0.0180545 
0.000193791 8.19389e-05 6.67428e-05 
-0.000139259 -5.06598e-05 -0.000358032 
-0.000177139 0.000281611 0.0287782 
-0.00011353 -6.75574e-05 0.000698358 
5.986e-05 -0.0108626 0.167066 
0.00895151 -0.00907207 0.0624189 
0.0281543 -0.0182691 0.0521075 
-0.0140765 -0.032991 0.120894 
-0.00154125 0.000853625 0 
0.0014785 -0.00170044 0 
0.00122272 -0.00242414 0 
0.00966811 0.00762376 0.00582872 
0.000795827 -0.00158028 0 
-0.00250893 0.00131171 0 
0.00114749 0.00264356 0 
0.00484194 -0.0113483 -0.00151773 
-0.00138398 4.88691e-05 -0.00648164 
-0.000233331 1.10088e-05 -0.000777092 
0.00271933 -0.000206398 0.000155255 
-0.0109273 -0.00684775 0.0256824 
0.00155752 0.00244932 0.0716339 
0.00283462 0.0026555 0.067791 
0.000484789 0.000781939 0.0616411 
0.00134919 0.00312766 0.061929 
-0.000387248 -0.000254735 -0.00111484 
2.78342e-05 1.18876e-05 0.000559466 
0.000471055 0.000328344 -2.32831e-05 
0.000147637 0.00135384 0.0367542 
-0.000143749 0.000148157 -0.000121853 
0.00028563 -0.000294189 0.000605869 
-0.000163353 0.000168538 0.000182377 
0.000237011 -0.000677476 0.0389378 
0.021227 0.00489495 0.049966 
0.00371996 4.3421e-05 0.0741151 
-0.0114058 -0.00218113 0.0554562 
-0.00828428 -0.00206386 0.0545489 
3.6819e-06 0.000289275 0.0291261 
-0.000169516 -8.03564e-05 0.0533791 
-4.93235e-05 -0.000235089 0.0473724 
-0.000215084 -0.000343594 0.0355858 
-0.00196044 -0.00308587 0.0756488 
-0.000144174 -0.00165439 0.0814821 
-0.00146013 -0.000550745 0.0816715 
-0.00061474 -0.00210849 0.0791009 
-0.00197727 0.00296338 -0.00611083 
0.00130813 -0.000152374 -0.0019347 
-0.00321788 0.000312952 0.00178514 
0.0103682 -0.0145855 0.0191135 
0.0152844 -0.00722933 0.102066 
0.0278216 -0.00258 0.0498999 
0.012322 0.00203325 0.0778791 
0.0372156 0.00150325 0.104756 
3.30866e-05 -0.000134755 0.000283988 
-0.000152547 0.000166468 0.0331511 
0.000274148 -0.000169437 0.00038704 
-0.000179137 0.000346615 0.0369976 
-0.00693273 -0.0127371 0.217741 
-1.1963e-05 0.00346977 0.256026 
-0.00583101 0.0202883 0.164334 
0.0378678 0.0795146 0.201235 
-0.000244979 -0.000844789 -0.00379757 
3.52389e-06 0.000125429 -0.00202341 
-7.08603e-05 -0.000425516 0.00222488 
0.00643055 -0.00748023 0.0281366 
-0.00459106 0.001088 0.0760233 
-0.0042461 0.00347208 0.0705278 
-0.00496045 -0.000439758 0.0705718 
-0.00163494 0.000868806 0.0772669 
0.00317757 -0.00216693 0.00167982 
-0.000255968 0.00034961 -0.00473517 
-0.000776229 0.000375898 0.00362176 
0.00135001 -0.00729032 0.0141268 
0.000240022 4.557e-05 -0.000177828 
0.000209459 -0.00029919 0.000616417 
-0.000343704 -9.04889e-05 0.0291946 
-9.33348e-05 -8.09327e-06 0.0249727 
0.011687 0.00405953 0 
-0.00300781 0.00139865 0 
-0.00715211 -0.00239335 0 
0.0101264 0.0132633 0.0204453 
-0.0623275 0.0152829 0.144131 
-0.0496483 0.00445167 0.00860935 
-0.0382041 -0.000206272 0.247472 
-0.00918828 -0.0501265 0.166488 
0.00429724 -0.00564025 0.0694868 
0.00233961 -0.00931055 0.0698742 
0.000206659 -0.00670325 0.0674191 
0.0100717 -0.0114846 0.0678291 
-0.000173978 0.00195857 -0.00115671 
-0.00115516 -0.00181257 -0.00315382 
0.000314891 -0.00140164 -0.000970349 
-0.00264529 0.0134727 0.0175541 
0.00207426 0.0068223 0.0678292 
0.00363679 0.00288705 0.065043 
-0.00114557 -0.00190936 0.055333 
0.0100531 0.00727051 0.0734138 
-0.00145189 0.00341439 -0.00066801 
-0.000127049 0.000371943 -0.00320197 
6.01765e-05 -0.000192674 0.00222572 
0.00416598 -0.00262144 0.0120437 
-0.000234203 0.000183392 0.000710711 
0.000240172 0.000487141 0.0394123 
-0.000142354 0.000268553 0.000913392 
7.8644e-05 -0.000459829 0.0324577 
-0.0233203 0.00263598 0.143432 
0.000308979 0.00358348 0.233578 
-0.0177125 -0.0210768 0.072685 
-0.0661226 -0.0838192 0.0719976 
0.000145699 -0.000186067 -0.000276916 
-0.000327446 0.000307695 0.0263435 
0.000295027 0.000422383 0.000752565 
-6.05466e-05 5.86108e-05 0.0232952 
-0.00871717 -0.0231113 0 
0.0149423 0.00931176 0 
-0.0059278 0.0189701 0 
0.0211341 0.0682078 0.060667 
-0.0135601 -0.00644931 0 
-0.00108542 -0.00675503 0 
0.00845412 0.00201326 0 
0.0245965 0.0224405 0.0206293 
-9.75981e-05 0.00303224 0 
4.35513e-06 -0.00426278 0 
0.00177347 -0.00331739 0 
0.0074269 0.00497884 0.00140414 
0.0118208 0.00637264 0 
-0.000648383 0.00202547 0 
-0.0107453 -0.00880869 0 
-0.0287206 -0.0264559 0.0257133 
-5.05688e-05 0.00015216 0.000471413 
-2.58185e-05 0.000114884 -0.00016076 
2.70335e-05 -0.000148635 0.000474233 
0.00042704 0.000159866 0.0411199 
-3.68463e-05 0.00825824 0.0696404 
-0.00481081 0.00389055 0.0670165 
-0.000707201 0.00738746 0.064522 
-0.00312109 0.00209412 0.0660305 
-0.00275943 -0.00238296 0.0696387 
0.00381162 -0.00763642 0.0592401 
0.00102498 -0.0112921 0.0598558 
0.00299964 -0.0095153 0.0708499 
-0.00451803 -0.00127246 0.0214799 
0.018533 -0.0189244 0.0589474 
-0.000343842 -0.000231474 0.0578307 
0.0039559 -0.0106118 0.0728892 
0.00154518 0.00134355 0.0742241 
0.00246898 0.00262489 0.0668719 
0.00174527 0.000742712 0.0625007 
0.000700333 0.00101057 0.062037 
0.000184805 -0.000123695 -1.18775e-05 
-5.4332e-05 2.6451e-05 -0.000297184 
-0.00015705 0.000122597 0.000540169 
-0.000131348 -0.000143556 0.0262084 
0.0348896 0.034027 0.139494 
-0.00574205 0.002068 0.24543 
0.00124357 0.0533496 0.146339 
0.0343449 0.0324866 -0.0859033 
0.00269432 -0.00966898 0 
-0.00517279 0.00950819 0 
-0.00577378 -0.00517093 0 
-0.0120873 0.0221212 0.0132672 
0.0010725 0.00306237 0 
0.000624323 -0.000355316 0 
0.000873174 -0.00345306 0 
-0.0127305 0.00594186 0.00366404 
5.02501e-05 0.000355243 0.0278604 
-1.56618e-05 -0.000566704 0.0495261 
5.57924e-05 -2.17184e-05 0.0471934 
-2.36923e-05 -0.000428734 0.0355282 
-2.29998e-06 3.34447e-05 -0.000172456 
-5.33158e-06 7.75281e-05 0.000144689 
2.86597e-06 -4.1675e-05 0.000371298 
0.000245939 -0.000233904 0.0276525 
0.0405213 -0.0246894 0.0525237 
0.0197641 0.0254436 0.0335356 
-0.00332472 0.0181672 0.0807308 
0.0170849 0.0139399 0.133036 
-0.00403205 0.0615267 0.0667839 
-0.0135871 0.0342126 0.177626 
-0.0247437 0.0546231 0.0794147 
-0.00816167 -0.00294279 -0.0456441 
-0.000284322 0.000194261 -0.00161805 
-0.000897094 0.0021438 -0.00271274 
0.00225875 0.000728955 -0.00195518 
-0.0103382 -0.0079773 0.0128146 
0.00227848 0.00450018 0.0737344 
0.00232479 0.000908688 0.073704 
-0.000648661 0.00411628 0.069145 
0.000368749 0.00143627 0.0791684 
4.71636e-06 8.38455e-05 0.000187153 
-2.72551e-05 -0.00025799 0.000216177 
-9.70632e-06 -0.000131519 -0.000150092 
-0.000331399 0.0011002 0.0338767 
-0.000216186 0.00326786 0.0668003 
0.000933487 0.00197923 0.0325484 
-0.00113795 -0.00707481 0.0579463 
-0.0021893 0.00180111 0.0468703 
0.000215528 -0.000188753 0.0558112 
-9.39326e-05 8.47689e-05 0.0314677 
6.67826e-05 -0.000199156 0.0468694 
-8.08055e-05 -0.000324308 0.0360725 
0.00889868 0.00402049 0 
-0.00142331 0.0131838 0 
0.00225358 -0.013673 0 
0.00798253 -0.0184498 0.0120813 
-0.00442974 -0.00522973 -0.0193503 
0.00623612 0.0225319 0.0274826 
-0.00723887 0.00355719 0.00386426 
0.0104069 0.0105481 0.0355893 
1.86094e-05 -1.791e-05 0.000258545 
0.000125542 -0.000121861 -0.00020498 
-6.5469e-05 6.39381e-05 0.000837008 
0.000371877 -2.73175e-05 0.0355109 
-0.00395971 -0.022005 0.0681164 
-0.017746 -0.0111938 0.0702826 
-0.0260538 -0.0266358 0.0387484 
-0.0189795 -0.0378351 0.114803 
0.0213906 -0.00694864 0 
0.015726 0.00994701 0 
-0.0285273 -0.00388477 0 
0.0487125 0.0338711 0.045181 
-0.000920604 0.000608162 0.000240293 
0.00120454 0.00021937 -5.94883e-05 
0.000500443 -0.00036189 -0.00106928 
0.000981724 -0.000644002 -0.000120138 
0.000105325 -0.000116204 -0.000326309 
0.000142011 -0.00012276 0.000425325 
-9.44578e-05 5.49601e-06 0.0249646 
-0.000151107 0.000155964 0.000193878 
-2.36533e-05 -0.000459492 0.000612812 
1.13487e-05 1.91348e-06 0.0251653 
-0.000245335 2.05115e-05 -0.00014356 
0.00028086 -3.47867e-05 0.0314223 
-0.000165403 0.000215268 0.000699482 
0.000290436 -4.03892e-05 0.028594 
-0.000232102 -3.50522e-05 0.0270179 
-8.84268e-05 2.16307e-05 0.0356431 
-1.37526e-05 -3.61036e-05 0.000637944 
2.72097e-05 4.51467e-05 -0.000254914 
-4.04924e-05 -6.44855e-05 0.000275875 
-0.000112126 -0.000502785 0.0376991 
-0.0379231 0.00968275 0.248773 
-0.00299681 0.00533175 0.184972 
-0.0254124 -0.0364745 0.118636 
-0.0649904 0.0360038 0.0956634 
0.0023286 -0.0058408 0.00256658 
0.000983608 -0.000295534 -0.00416271 
-0.0189925 0.0139318 0.0159968 
-0.00556276 0.00453968 0.0284439 
-7.54426e-05 -8.95427e-05 0.0222816 
9.8778e-05 -7.24546e-05 0.0442109 
-0.000165296 0.000125022 0.027657 
0.000191578 0.000210836 0.0390646 
0.000143601 0.000273143 0.000418826 
-2.38733e-05 -0.000159966 0.0260857 
-0.000133409 -8.68109e-05 0.00012133 
5.99496e-05 -0.000437081 0.0386412 
0.00117038 -0.0017875 0.0715038 
0.00244577 -0.00216657 0.0716492 
0.000820663 -0.0027516 0.0580116 
0.000347704 -0.00120453 0.0617374 
1.90715e-05 -0.000134254 0.0687613 
-4.54522e-05 0.000116769 0.0729133 
-0.000118549 -5.5827e-05 0.0600897 
0.00105906 0.000968809 0.0744692 
1.87106e-05 4.05975e-05 0.0460358 
-0.000253631 0.000418921 0.0511227 
0.00023025 -0.000321416 0.0281647 
-8.51839e-05 0.000451749 0.035445 
0.000266912 -8.9241e-05 0.0296309 
-0.000353971 8.09433e-05 0.0470677 
-5.97617e-05 -0.000194036 0.0236798 
-0.000351143 0.000285825 0.0416779 
-0.0127862 -0.000233914 0.23063 
0.0479015 0.0648655 -0.0498538 
0.0214983 0.0233328 0.100717 
0.00525627 0.0191105 0.234056 
-0.00453424 0.00384143 0 
-0.000337806 -0.00317132 0 
0.0110314 -0.008857 0 
0.0139295 -0.0189534 0.0180899 
0.000263721 -0.00079908 -0.00239807 
-0.000409485 0.000893905 0.000243693 
0.000317096 -0.000648656 0.00024838 
-0.00230256 0.00125297 0.0294126 
0.00758658 0.00128834 -0.0116636 
-0.000495966 0.00254041 0.00250527 
0.00865922 -0.000300964 -0.00519952 
-0.0280119 -0.0116139 0.0265892 
-5.17228e-05 8.79781e-05 -0.000320235 
-9.04636e-05 0.000110921 0.000480939 
0.000143566 5.51562e-05 0.026223 
7.38602e-05 -0.0001106 9.29526e-05 
0.0128196 -0.00382486 0.0707393 
-0.00287022 0.00729213 0.063292 
0.0121748 -0.000362914 0.0425734 
0.00564404 -0.00355196 0.0314093 
0.00187974 -0.000403729 -0.00512149 
0.001727 0.000602927 0 
-0.00413408 -0.00318202 0 
-0.00367598 -0.00138986 0 
-0.0129314 0.014474 0.243195 
-0.00592144 0.0168108 0.22312 
-0.0133993 0.0213221 0.261887 
-0.0123992 -0.111752 0.222671 
-0.000858896 0.000470176 0.00210987 
0.00046378 -0.000217532 0.000287374 
-0.000318844 2.69834e-05 -0.00500806 
-0.000476856 -0.00599852 0.0195624 
-0.00595105 -0.00283611 -0.0336152 
0.0219347 -0.0103004 0.00552594 
0.0182064 -0.0144428 0.0383079 
0.027194 0.000942028 0.0643046 
-0.000564669 -0.00014468 0.00116551 
-0.000240068 -7.16659e-05 -0.00147721 
0.000323708 8.99349e-05 0.000690483 
-0.00156293 0.000615388 0.0276253 
-0.00429773 -0.00300738 0.0444398 
0.000878615 -0.00489369 0.0386173 
-0.0083421 -0.0147959 0.0605779 
-0.0124159 -0.00573917 0.0250469 
-0.016094 0.00914681 -0.0239719 
0.00988545 0.0204536 0.0318211 
0.00617448 0.0339988 0.000449848 
0.020526 0.00407077 0.0702448 
0.00593023 0.000648411 0.069817 
0.00298442 0.000235985 0.061558 
0.00455636 -0.000598917 0.0606408 
0.00331337 -0.000964351 0.0665778 
-5.91031e-05 0.000115857 0.00135839 
-0.000497263 0.00109399 -0.000444053 
-5.54417e-06 3.4189e-05 -0.00219483 
0.00284098 0.000435061 0.0413601 
0.00309317 0.000637342 0.0684069 
-0.000589622 0.0129668 0.0709001 
0.00233849 0.00897233 0.0644715 
-0.00058796 0.00194266 0.0640441 
0.00767605 -0.01119 0.0595579 
0.00014694 -0.00904958 0.069768 
0.00350656 -0.0059232 0.0720671 
0.010622 -0.0112616 0.0658517 
3.14456e-05 -6.59898e-05 0.0613753 
-3.37645e-05 0.000102676 0.0686818 
-0.000296784 3.765e-05 0.0757477 
-0.00180033 0.000428444 0.0640272 
0.000135106 0.000124945 -0.000269683 
0.000131074 0.000152103 0.000443156 
6.37044e-05 -0.000154754 0.0250666 
-0.000234343 -0.000227839 0.000214029 
-0.000232663 0.000125165 0.000517761 
0.000127547 0.000112405 0.023718 
-0.000167226 -6.75184e-05 4.93671e-05 
8.97987e-05 0.000179848 0.0364667 
0.00107184 0.00203401 9.25456e-05 
-0.00480909 0.000269332 -0.00591302 
0.00245028 -0.00160378 0.000772162 
0.0162347 -0.00898924 0.0167076 
-0.000218824 0.00053945 -0.00053529 
-7.53009e-05 0.000180873 -0.000106679 
0.000177913 -0.000444595 0.000532939 
-0.000651321 0.000866052 -0.000395788 
-0.0027843 -0.0233877 0.0849233 
0.00449325 0.00211288 0.0742068 
0.0094818 -0.0172458 0.0415657 
0.000877219 -0.00734925 0.0333229 
3.43501e-06 0.000171589 0.0468085 
-0.00021616 0.000165889 0.0275913 
7.67711e-05 -5.34945e-05 0.0442153 
0.000330506 9.67226e-05 0.0391801 
-0.00300734 -0.0367296 0.155228 
0.00255992 0.00426909 0.277359 
0.0332253 -0.0302875 0.0986178 
0.058568 -0.0673142 0.00768998 
-0.00949961 -0.00756296 0 
0.00766247 -0.000666624 0 
0.00672166 0.00127355 0 
-0.0264734 -0.0228801 0.0133266 
-0.00018706 -3.79997e-05 0.0247573 
0.000292945 0.000313895 0.000528791 
0.000147943 -2.70296e-05 0.000200799 
-0.000500062 -0.00021506 0.0362892 
0.00049536 -0.000903626 0.000408569 
0.000213167 -0.000107228 0.000512551 
-0.000247887 0.000181748 -0.00219936 
0.000141577 -7.10732e-05 0.000336388 
-0.000762244 -0.00045229 -0.000952952 
-0.00379281 -0.00216355 0.0393903 
0.00191368 0.000684173 0.000784615 
-0.00429989 0.000691926 0.0317791 
8.56569e-05 -0.000172914 -0.000378592 
0.000116417 0.000170666 0.0260073 
6.44247e-05 -0.000186757 0.00038046 
-0.000147048 0.000324362 0.000327087 
0.0027701 -0.00203244 0.00141933 
-0.00312156 0.000767095 -0.0105916 
0.0088118 0.00480798 0.0134013 
0.0221433 -0.0061626 0.0188173 
-0.000178499 -1.12251e-06 0.0534388 
0.000191524 6.66527e-05 0.0656385 
-5.03257e-05 0.000219371 0.0472403 
0.000925225 -0.000609183 0.0592026 
0.000583492 0.00242271 0.0358319 
0.00175085 -0.00563295 0.0406403 
0.0050176 -0.00429494 0.068324 
-0.00169148 0.00320001 0.0615862 
-0.00020986 -0.000103636 0.000263158 
0.000569479 0.00026482 0.00061461 
-6.75318e-05 -1.38464e-05 -0.00149462 
-0.000397174 -0.00165542 0.0288371 
0.00014303 0.000160913 0.058154 
-0.000301708 -0.000116429 0.0495957 
0.000160087 -0.000154689 0.042149 
0.000406158 0.00057057 0.0617662 
-0.00136699 -0.000458516 0.0815785 
-0.000747548 -0.00211822 0.0791328 
-0.0021032 0.000829415 0.0782619 
-0.00382901 -0.0013956 0.0755833 
7.66211e-05 -5.15018e-05 0.000151876 
-6.71066e-06 6.88838e-06 0.0004406 
-0.000149858 0.000101938 -6.63413e-05 
0.000314722 -0.000291478 0.0349933 
0.00331863 -0.00845432 0.200313 
-0.0226965 0.000530269 0.124209 
-0.00604896 -0.00525044 0.234821 
-0.101157 -0.0091023 0.139166 
-0.00213276 0.00377738 -0.000802154 
-0.0056975 0.00147101 -0.00403465 
0.0137771 -0.0170117 0.0289374 
0.00324356 -0.00609231 0.0339467 
0.000262873 0.000533498 0.000295959 
-6.05742e-05 -0.000146152 0.000249925 
-0.000116026 -0.000263322 0.00025095 
0.000281855 6.44161e-05 0.0381821 
-0.0110767 -0.00501713 0.0767762 
0.00676783 0.0203486 0.0359577 
0.00253497 0.00019932 0.0555833 
0.017994 0.00147673 0.0550302 
-0.000197373 -8.55925e-05 0.000714283 
-0.000565314 -0.000274077 -0.000296292 
0.000806064 0.000375871 -0.000786248 
-0.000391093 0.000694539 0.0383744 
2.29885e-05 -0.000236449 0.0291276 
-0.000331683 2.18e-05 0.00053882 
-4.66191e-05 0.000173093 -6.62845e-05 
-7.54854e-06 -0.000101151 0.0261622 
4.34182e-05 6.484e-05 -0.000130582 
0.000128351 -0.000269508 0.000504548 
-9.4732e-05 8.16772e-05 0.0208654 
-0.000238372 0.000281827 0.0326753 
-0.00748075 0.00112975 0 
0.00500893 -0.015875 0 
-0.00526706 0.00849231 0 
0.00332473 -0.023754 0.019318 
0.000240393 -0.000345382 0.051989 
0.00381482 -0.000171403 0.0596621 
0.00283777 0.000475567 0.0613292 
0.00400973 -0.000623807 0.067328 
-0.000345427 9.11235e-05 0.0760837 
-2.50774e-05 -2.04383e-05 0.0649474 
0.00015165 0.000110411 0.0611355 
-0.00102172 0.000763678 0.0597727 
3.76283e-05 -0.000233051 -9.0395e-05 
-0.000347043 -0.000315326 0.000668233 
-0.000109303 0.00036382 0.0293834 
8.11043e-06 7.11843e-05 0.023551 
0.00221773 0.000362042 0.000811086 
-0.00464766 -0.00163399 0.0394496 
0.00060535 0.000672924 0.0347284 
-0.00405801 0.00118054 0.0315353 
-4.81453e-05 -0.000214316 0.0297021 
2.29384e-05 0.000306073 0.0295038 
0.000259209 -0.000113854 0.000719021 
9.05612e-05 2.99142e-05 0.0346053 
-0.00959519 0.0285246 0.154547 
0.014837 0.025922 0.0915837 
0.0066467 0.00177496 0.231406 
0.0912914 0.0499893 0.0873533 
0.000127651 0.00017721 -0.000288835 
0.000730068 0.00106363 -0.000621314 
-0.000195206 -0.000307071 -0.000300165 
-0.000286008 0.00112833 -0.000251571 
0.000188153 0.000349806 -0.0013962 
-0.000242815 -0.000317473 -0.000952667 
8.40103e-05 -0.000603715 0.000349458 
0.000508421 0.000761655 2.06196e-06 
0.00383212 -0.00578314 0.0649628 
-0.000926682 0.00117567 0.0408094 
0.000450033 0.00285091 0.0624554 
0.00515112 -0.000588128 0.032859 
-0.00135557 -0.00171281 0 
0.000865107 0.000806072 0 
-0.00175247 0.000649369 -0.00332985 
-0.00130285 -0.00254216 0 
-4.35929e-05 -0.000397418 0.0410796 
-9.8729e-05 0.000193629 0.0211732 
0.000179757 -0.000226927 0.0354143 
-0.000108142 9.15394e-05 0.0321966 
-0.00015285 -1.24222e-05 -5.02677e-05 
0.000121497 9.87419e-06 0.000233747 
7.13174e-05 5.79602e-06 0.000473858 
-0.000117509 -0.000397018 0.0360701 
-0.00431787 0.00235948 0 
0.00410832 -0.00281363 0 
0.0051915 0.00132624 0 
0.00939242 -0.0109017 0.00330294 
-4.22445e-05 0.000197613 0.000391698 
8.83764e-06 6.17842e-06 0.00045874 
4.56003e-05 -0.000191161 -0.000170796 
-0.000303829 0.000268907 0.0367821 
-0.00388157 0.000807427 0.0746563 
-0.0013387 -0.000676046 0.0816806 
-0.00141481 0.00114682 0.0802431 
-0.00210764 0.000936221 0.0780491 
0.000547879 -0.000754145 0.000824065 
-0.000243467 0.000327641 0.000756903 
-0.000236155 0.000329676 -0.00104726 
-0.00215214 0.00119476 0.0381838 
-0.000162923 -0.000182497 0.000401029 
-0.000111384 -0.000102374 -0.000236762 
0.000163432 0.00016021 0.000119266 
-1.48497e-06 5.69379e-05 0.0235761 
0.00314502 0.00562729 0.271968 
-0.0383872 0.0194698 0.157231 
0.0163489 0.0335336 0.1436 
0.0132225 0.071707 0.142935 
-0.0103062 -0.00188969 0 
0.00638994 -0.00303575 0 
0.0102354 0.00233545 0 
0.00267347 -0.00397755 0.0176148 
0.000847064 0.000944414 -0.00205164 
0.00140604 -0.000416447 -0.00044724 
-0.00050743 -0.000558 0.00103479 
-0.000845457 -0.000738895 -0.00305977 
-0.00149013 -0.000435675 0.0815864 
-0.00178778 -0.00330503 0.0759181 
-0.000731393 -0.00204699 0.0789621 
-0.00383619 -0.00141458 0.0756301 
0.000506962 -0.009552 0.0717463 
-0.000384258 -0.00888539 0.0701143 
-0.00122996 -0.012112 0.0663157 
0.000838868 -0.00760065 0.0694291 
0.000105638 -0.000107159 0.000429368 
3.90953e-05 -3.92204e-05 0.000243805 
0.000138741 -0.000142936 0.000138262 
2.37811e-05 6.75251e-05 0.0384961 
-0.00175254 -0.00184857 -0.0120203 
0.00789796 -0.00891385 -0.0107976 
0.0126901 -0.00249093 0.0250116 
0.0227266 0.00623055 0.0279327 
-9.69297e-05 0.00019995 0.0297005 
0.000109776 -0.000464796 0.0564407 
2.66871e-05 -9.96582e-05 0.0414485 
-0.000154004 -0.000287591 0.0347909 
-7.88707e-05 0.000184399 0.0698296 
0.000172534 -0.00017438 0.0629783 
6.17856e-05 1.54027e-05 0.0757069 
-0.000794606 0.00166818 0.0681372 
0.00192747 0.000964387 0.00117236 
0.000395016 5.32043e-05 -0.00543413 
-0.000929067 -0.000426541 0.000939904 
-0.00079452 -0.00520474 0.0254438 
-0.000174317 -0.000110099 -0.00013117 
9.96999e-05 7.77141e-05 -0.000326461 
0.000201404 0.000111558 0.000577717 
-8.95297e-05 2.20703e-05 0.0232463 
0.000119499 6.09775e-05 0.000352977 
0.000159387 5.91913e-05 -0.000364172 
-0.000284511 -0.000112281 0.000400309 
0.000119243 -0.000319658 0.0237823 
3.6953e-06 0.000334194 0.0511623 
-0.000142431 -6.20403e-06 0.043129 
-4.87455e-06 -0.000237026 0.0271846 
-0.000244456 0.000321904 0.0354369 
-0.00718465 0.00562002 0.0765311 
0.0109396 0.0321425 0.0479624 
0.00916184 0.0120338 0.071031 
0.0314335 -0.00652281 0.0608877 
-0.000108876 -7.92897e-05 0.000180174 
-5.4162e-05 0.000129055 0.0298614 
7.55831e-05 -8.34756e-05 0.00020092 
-0.000128055 5.4503e-05 0.035687 
-0.0111504 -0.0110777 0 
0.00552447 0.00658927 0 
-0.00255759 0.00449831 0 
-0.0183702 -0.0205606 0.0387892 
0.000164214 3.5247e-05 0.0585978 
-0.000151401 -7.0511e-06 0.0582256 
-0.000226469 -0.000384165 0.0365641 
0.000178857 0.00133446 0.0588124 
0.00340427 0.0036797 0.234128 
-0.0192697 0.0072506 0.16373 
-0.00338219 -0.0105945 0.254197 
-0.050529 0.0268382 0.242264 
9.7046e-05 -3.44639e-05 -0.000281114 
-0.000187863 5.86493e-05 0.000848302 
-1.79626e-05 1.42822e-05 -0.000245929 
-4.62981e-05 0.000197444 0.0240486 
0.0257272 0.0215851 0.259436 
0.0167094 0.0415535 -0.0266054 
0.046498 0.0356316 0.125881 
0.041167 -0.00890152 0.144362 
0.000771731 -0.000231965 -0.00428497 
-0.000737782 0.000366341 -0.00328505 
4.29068e-06 -7.15868e-05 0.00356517 
-0.00588336 -0.00348862 0.0177463 
0.000774962 0.0013683 0.0523461 
0.000863585 0.000926378 0.0601325 
0.0024787 0.0027508 0.0688124 
0.00151055 0.00265014 0.0622105 
-0.000110208 -2.07765e-05 0.0730296 
0.000123777 4.44995e-05 0.0810745 
-6.32316e-05 4.94015e-06 0.0721762 
0.00104729 0.000100189 0.0801325 
-0.00900672 -0.00319281 0.0694896 
-0.00783216 -0.000729067 0.0708008 
-0.00454705 0.00385857 0.0652121 
-0.0122153 0.00461599 0.066189 
-0.000207655 0.000138794 -0.000436223 
0.000532142 -0.000368127 0.000187812 
-0.000121564 8.61256e-05 0.000108706 
-0.000307605 -0.000699029 0.0347572 
-7.27759e-06 0.000268839 -9.88844e-05 
0.000317299 0.000131953 0.000476719 
5.67607e-05 -0.000352507 0.03148 
-2.71141e-05 -1.81625e-05 0.025244 
-0.000416908 -0.000179206 0.00029178 
-7.26246e-05 0.00020336 0.000397895 
0.00027513 -4.1033e-05 0.0285614 
0.000275516 -0.000198202 0.0364953 
0.00250935 0.0240836 0 
-0.00317406 -0.0069026 0 
-0.00121171 -0.00125583 0 
-0.0340031 -0.0688998 0.0486149 
-0.00434275 -0.00205925 0.109289 
-0.00895151 -0.0168124 0.061575 
-0.000870054 -0.0255719 0.0676974 
-0.0265214 -0.0333952 0.122897 
-0.000324634 0.00110352 0.0435373 
0.00329595 -0.000884233 0.0360136 
0.00318501 -0.00548202 0.0570454 
-0.00126931 -0.004552 0.0322845 
1.30658e-05 1.69456e-06 -7.35019e-05 
-6.18089e-05 -8.76089e-06 0.000423887 
-7.07512e-05 -5.98554e-06 7.1607e-05 
-0.00031234 -0.000177379 0.0367809 
0.000105901 -0.00026728 0.000301369 
-0.000262593 -0.000417405 0.000280918 
0.000200637 0.000347141 0.0295301 
3.50782e-05 0.000487207 0.0355247 
-0.00988811 0.000690882 0.0744654 
-0.00729707 -0.00076732 0.0708652 
-0.0162001 -0.000319111 0.058766 
-0.0121824 0.0019677 0.0832089 
-0.000203076 0.000104108 -0.000191745 
0.000240301 -0.000143032 0.0278108 
-0.000157992 -0.000231538 0.000511441 
4.85706e-05 -1.55179e-05 0.0250705 
-0.0045265 -0.00497103 0 
-0.00707442 0.00393344 0 
0.00563947 -0.00131458 0 
0.0153746 -0.00606775 0.00876692 
-8.74393e-05 -0.000282252 0.000602079 
3.44927e-05 0.000124715 -9.20669e-05 
3.56109e-06 2.8332e-05 0.000158588 
-4.49698e-05 0.000146553 0.036074 
-3.96648e-05 9.12501e-05 -0.000562813 
6.97158e-05 -1.433e-05 -0.00166116 
-0.00133536 -0.000705122 -0.000951546 
4.27759e-05 -9.71039e-05 0.000583305 
9.51024e-05 0.00010214 0.0325829 
-0.00038139 0.000117129 0.0374894 
-6.02937e-05 0.000153842 0.000472109 
1.89017e-05 -0.00012416 0.0321913 
-0.000135537 -0.00042405 -0.000187723 
-0.000126803 -0.000247613 -0.00152434 
0.000175949 0.000496799 0.000729308 
-0.000311354 0.000861111 0.0374409 
0.0116026 -0.0226763 0.0731191 
-0.00527922 0.00579921 0.151046 
-0.0154319 0.0141803 0.0774753 
-0.0139241 -0.0203735 0.114607 
-9.27174e-06 -0.00013361 9.94901e-05 
-4.78509e-06 -6.89551e-05 0.000181916 
3.53731e-06 5.09741e-05 -7.60122e-05 
0.000362144 6.88329e-05 0.0301973 
-0.00517272 -0.00114689 0.0434779 
0.00111467 -0.00389014 0.0405555 
0.00177022 0.00170773 0.0388708 
-0.00146267 0.0019738 0.0609358 
1.89787e-05 0.000154922 0.0244692 
3.97572e-05 -0.000196518 0.000351228 
-9.55602e-05 4.33735e-06 0.000114646 
0.000144274 0.000244419 0.0367273 
0.000280708 0.00025519 0.0359808 
-0.000110361 -8.29173e-05 2.26825e-05 
-0.000241989 0.000239811 0.000925609 
8.03335e-06 0.000120068 0.0239359 
-0.000589042 -0.000229446 -0.000427958 
0.000866511 0.00134066 -0.000943966 
0.00549574 0.00895531 -0.0072805 
0.0117574 -0.0276818 0.0179598 
0.0167331 -0.0129656 0.0880241 
-0.00857845 0.0200602 0.0902227 
-0.0392611 0.00261362 0.061889 
-0.0222145 -0.033002 0.0936159 
0.00089768 -0.000523652 -0.00175319 
0.00221137 0.000546859 0 
-0.000840154 -0.000512084 0 
0.000796978 0.000264375 0 
0.0233104 0.00979139 0 
-0.0363022 -0.00902415 0 
0.00566825 -0.00561982 0 
0.0100362 0.0293359 0.0347517 
0.00208624 0.00362345 0.0717778 
2.49101e-05 0.00992727 0.0766831 
0.000226435 0.0103107 0.0680499 
-0.000436258 0.000612301 0.0630948 
0.000239029 -0.000155625 0.0258351 
-0.000306785 0.000137159 0.0491881 
-3.04792e-05 -8.68228e-05 0.0428746 
-0.000486035 0.00017001 0.0369025 
-0.016622 0.022891 0.13158 
-0.0147138 0.0473267 0.113462 
0.0155344 0.0183689 0.260154 
-0.0789332 0.0137511 0.0987384 
0.00124039 -0.00341035 0 
-0.000652392 0.000460546 0 
0.00335844 -0.00834423 0 
-0.00954849 0.0177747 0.00322581 
0.0556708 -0.00231959 0.0646782 
0.0533183 -0.0284816 0.0770091 
0.0650286 5.8401e-06 0.184813 
0.0163612 0.0018777 -0.0471657 
0.0139856 0.00699689 0.042524 
0.00247606 -0.00137338 0.0590458 
0.00120466 0.0279825 0.0147589 
0.0271903 -0.00536553 0.0771919 
0.000117922 0.00119061 0.0596964 
-0.000197581 0.00376187 0.0682744 
0.000759401 0.00289175 0.0714921 
0.00185173 0.00225 0.0616644 
0.000643966 -0.000133758 6.5452e-05 
0.000361075 -0.000304931 0.0384938 
0.00035855 0.000741811 0.00123604 
0.000728695 -0.00088574 0.0334363 
1.30528e-05 -1.56878e-05 0.000166279 
-5.37377e-05 0.00014124 0.000497562 
2.92329e-05 -6.95695e-05 -0.000158653 
-0.000365327 0.000746037 0.0404679 
0.00677648 -0.00434509 0.270046 
-0.00371258 -0.0127108 0.2464 
-0.0035758 0.000350127 0.240943 
-0.000312737 0.0388281 0.219403 
-8.65759e-06 0.000155222 0.0297852 
0.000129034 -0.000160275 0.0413324 
0.000118144 -5.71521e-06 0.0216177 
-0.000266424 -0.000233756 0.0346063 
-5.90283e-05 -0.000188925 4.336e-05 
4.84661e-05 0.000114631 -0.00040182 
-1.49763e-05 1.16709e-05 0.000550114 
-0.00010024 -0.000313369 0.0393138 
-6.69761e-05 0.000338107 0.000369379 
-0.000220821 -2.03481e-05 0.0207043 
0.000289471 4.22997e-05 -0.000317445 
-0.000166654 -4.68466e-05 0.0295681 
-0.000112003 2.5512e-06 0.0289395 
2.94598e-05 2.7492e-06 0.0416462 
5.22277e-05 0.000255211 0.0506415 
0.000132045 0.000165825 0.0345639 
-0.000370605 -3.01145e-05 -0.000211375 
-0.000411157 -3.59073e-05 0.000380812 
0.00021697 1.73545e-05 0.000191729 
0.00102902 -1.11718e-05 0.0383398 
0.000228467 -0.000287956 -0.00429547 
3.40782e-05 1.13801e-05 0.00334612 
-0.000298743 0.000248705 -0.00376304 
0.0009327 0.0123394 0.0239429 
0.000897019 0.000848146 -0.00163714 
-0.000189594 -0.000125295 0.00169904 
-0.0013518 -0.00160109 -0.00562889 
0.00825437 -0.00250541 0.018954 
-0.000155538 4.82525e-05 2.32147e-05 
-0.000100268 2.72187e-05 -9.90549e-05 
0.000687814 -0.000191833 0.000529352 
0.00043344 0.000145022 0.0407081 
-0.000204298 -0.000193986 0.0670793 
0.000269807 0.000234903 0.0477847 
0.000122751 8.57511e-05 0.0530895 
-0.00108031 -0.00107359 0.06255 
0.00014343 -0.00031844 0.000229435 
-0.000462048 0.000954064 0.000240022 
9.46121e-05 -0.000260315 0.000837106 
-0.000610548 0.000241697 0.0294828 
-0.00591414 -0.00116409 0.0717857 
-0.00368771 0.00172401 0.0749679 
-0.00198924 0.000534044 0.0778417 
-0.0037115 -0.000980297 0.0758303 
-0.00119098 0.00569608 0 
-0.00235362 0.00505687 0 
0.000606191 -0.00231954 0 
0.00461381 -0.00187644 -0.0063356 
0.00785754 0.0113409 0.247317 
0.00895342 -0.00435419 0.24815 
0.016728 0.0151245 0.234437 
-0.0215404 -0.0178709 0.246744 
0.0127697 0.00965016 0.0324061 
0.0198085 -0.00903451 0.0512242 
0.0112323 -0.0105329 0.0768222 
0.00444602 0.000902256 0.0259902 
0.000274167 2.27741e-05 -0.000223667 
0.000568098 5.16859e-05 0.00165023 
-0.00017183 -1.82475e-05 -0.00172812 
0.00113376 -0.000762428 0.0336302 
-5.74818e-05 -0.000205023 0.0301866 
-1.27298e-05 -9.01274e-07 0.000110871 
0.000106107 7.51242e-06 2.48123e-05 
-3.01156e-05 -2.1322e-06 0.000156992 
0.0347323 0.00762914 0.0337159 
0.0930608 -0.00973094 0.139654 
-0.0162839 0.0272936 -0.0309407 
0.0335449 -0.00792361 0.0178126 
-0.00322337 -0.00506477 0.0561925 
-0.0163793 -0.0148023 0.0675257 
-0.0163442 -0.0186508 0.0403794 
-0.0057385 -0.000771895 0.0537265 
0.000314267 -7.11404e-05 0.029507 
2.05305e-05 6.06451e-05 0.0510606 
-0.000179265 6.26623e-05 0.047443 
-0.000743774 0.000283771 0.0412568 
-0.00111223 0.00111726 -0.000982748 
0.000715949 0.00089416 0.0393976 
-4.75778e-05 0.000414495 0.00047718 
0.00141989 0.00273903 0.0308529 
-0.000349356 0.00021278 0.033098 
5.9493e-07 -8.12595e-06 0.000330004 
3.5505e-06 -4.84951e-05 4.08013e-05 
4.62089e-06 -6.31153e-05 -2.84712e-06 
-0.0113385 -0.00616231 -0.0242185 
0.00432815 -0.0144592 0.0516513 
0.0212979 -0.0317312 0.00309556 
0.0242062 -0.0140989 0.0561784 
-0.0111953 0.00533698 0.0752333 
0.00450359 0.00544382 0.0635632 
-0.0147666 0.0177816 0.0656401 
-0.0152563 0.010991 0.0774614 
-7.14696e-05 4.91733e-05 0.0209126 
0.000213676 -0.000142333 -0.000340338 
-0.000203036 0.000100386 0.0257745 
-0.000241384 -0.000303257 0.000456693 
9.24571e-05 -5.84335e-05 0.0250111 
-0.000170301 -9.36883e-05 0.000505967 
-8.75601e-05 -7.01066e-05 -0.000337231 
0.00016688 0.000113327 9.0232e-05 
-0.000374223 -0.0125054 0.0630205 
-0.00313282 -0.00919804 0.0703327 
-0.000367277 -0.00439145 0.0696842 
0.00220804 -0.00749092 0.0690177 
-2.80177e-05 0.000168418 0.0244726 
5.27665e-05 -0.000410592 0.032368 
-0.000284793 7.3623e-05 0.000806505 
3.22456e-05 -3.83518e-05 0.0359662 
-0.02678 0.00115115 0 
0.022946 -0.0157359 0 
-0.0217248 0.0202765 0 
-0.0849542 0.0219557 0.100787 
0.000752679 0.0221392 0 
-0.0187509 0.0304161 0 
0.0081321 -0.0171494 0 
-0.0283297 0.0798727 0.0839572 
-0.00149328 -0.00128375 0.0506574 
-0.00309241 0.00528465 0.0659729 
-0.00516893 0.00356966 0.0681898 
-0.000674453 0.00425492 0.063833 
-0.000145926 -9.91358e-05 0.000517853 
-8.61996e-05 -5.85805e-05 0.000219509 
4.98805e-05 3.39071e-05 -8.98055e-05 
0.000234874 -0.00037169 0.0366672 
-0.000558641 0.0027742 -0.000534742 
0.000325551 -0.0141227 0.0189161 
-6.93372e-05 0.00357599 -0.00266752 
-2.799e-05 -0.00694098 0.0282977 
0.00218927 0.000445411 0 
0.00211597 0.00165705 0 
0.00291451 0.00137103 0 
-0.00352798 -0.00139629 -0.00307612 
5.30147e-05 0.0001709 0.000503049 
0.00013133 -0.000138968 0.0246008 
8.24816e-05 0.000163336 -0.000389846 
-0.000137764 -0.00030525 0.00028024 
-0.0103779 -0.0308996 0.112349 
0.0017201 0.00759521 0.232457 
0.0162403 -0.0440991 0.148253 
-0.0564679 -0.0613809 0.0598149 
0.0014208 0.00292321 0 
-0.0113071 0.0120372 0 
0.0116707 -0.0189516 0 
0.0219649 -0.0179669 0.0287573 
-0.000527228 0.00103309 0.00089803 
-0.00125133 -0.000851615 0.0338725 
0.000640303 0.000329498 0.000526984 
0.000417847 -0.000989551 0.0329031 
-0.000442719 0.00032759 -0.000973838 
-0.000419048 0.000307694 -0.000578524 
0.000419103 -0.00030704 0.000478535 
1.33437e-05 0.00272073 0.0414699 
-0.000169397 0.000272651 0.000379611 
0.000268778 -0.000475402 -0.00146817 
0.00024799 -0.000377371 -0.000115062 
0.00108573 0.000413478 0.000165889 
0.00108876 2.50376e-05 0.00102797 
-0.000433681 0.000589804 0.0337055 
3.10458e-05 0.000768755 0.000138579 
-0.00181861 0.00204255 0.030063 
-8.43006e-05 -5.80208e-05 -0.00044708 
-4.71657e-07 -1.4433e-07 0.000844785 
0.000303471 0.000208729 0.000958632 
-0.00116407 -0.00126874 0.0297403 
-3.76393e-05 0.000448684 -0.00044927 
0.000138371 -0.00164947 -0.00205767 
5.18836e-05 -0.000618485 0.00121985 
-0.00347532 0.00352776 0.0326917 
-0.008501 0.00781508 0 
0.0137827 -0.011613 0 
0.00825404 0.00608622 0 
0.0196651 -0.0253969 0.0153645 
-8.9495e-05 6.09789e-05 0.000310892 
0.000168415 -0.000114451 1.77001e-05 
-0.000210829 0.000143419 0.000268209 
0.000224788 0.000222657 0.0360131 
0.0153577 -0.0368004 0.159197 
-0.0176057 -0.00808594 0.240709 
0.0236983 0.00707899 0.129063 
0.100591 0.0161401 0.074867 
0.000162182 3.47104e-05 0.0585424 
-1.04355e-05 0.00019999 0.0727472 
-0.000104086 -1.96783e-05 0.0582832 
3.27392e-05 0.00137227 0.0585766 
-0.000118322 -0.00019262 0.000503535 
-0.000251856 7.373e-05 0.0207111 
9.7078e-05 0.000163182 -0.000530813 
-9.62906e-06 -2.49157e-05 0.000252291 
-0.00414056 -0.00445917 0.0722884 
-0.000679383 -0.00193403 0.0789893 
-0.00161235 -0.0033272 0.0759171 
-0.00354274 -0.0013026 0.0756628 
1.44716e-05 -1.92922e-06 8.66806e-05 
7.44453e-05 -1.00403e-05 0.000457756 
0.000165592 -1.14372e-05 -9.5508e-05 
-0.000438185 6.05435e-05 0.0373213 
0.000112148 0.0015985 0.00163747 
-6.30635e-05 -0.000898875 0.00022963 
2.23321e-05 1.5936e-05 -0.000911109 
-6.7843e-06 -9.67e-05 -0.00195591 
6.29944e-05 0.00025305 0.0274452 
-2.53962e-05 -1.79806e-06 0.00011943 
1.6659e-05 1.17946e-06 8.23516e-06 
-0.000155305 -1.09957e-05 5.41164e-05 
0.00351479 -0.000438852 -0.00409531 
-0.00749065 0.00928942 0.0132894 
0.00261659 0.000962291 -0.00311141 
-0.000523337 0.00185498 0.00627676 
0.000462187 -0.000285033 -0.00262645 
0.00062203 -0.000389368 -0.00305936 
-1.06221e-05 -3.26368e-05 0.00329527 
-0.00200406 0.00934098 0.0212594 
0.00294271 0.00663695 0.235228 
0.00283182 0.0254162 0.164155 
0.0305548 0.0083047 0.14017 
0.056816 0.0194354 0.179829 
0.0242239 0.0147884 0 
0.00779849 0.0356788 0 
-0.0227821 -0.0375334 0 
0.0180952 0.0526846 0.0776197 
-0.000213961 0.000158278 0.0244827 
8.52128e-05 -0.000118977 -4.76706e-05 
-0.000149749 -0.000178172 0.00051266 
-5.33347e-05 4.00067e-05 0.0263975 
-0.00132804 -0.007559 0 
0.0219755 -0.0169225 0 
-0.0258184 0.014164 0 
0.011369 -0.0470329 0.0427001 
0.00443207 -0.0386238 -0.00302853 
0.0115017 -0.0188224 0.0601396 
0.00157711 -0.00711501 0.082724 
0.00462241 -0.0328417 0.108285 
0.0087981 -0.00494011 0.259559 
0.0096328 0.0251362 0.135269 
0.00209732 0.00173927 0.232834 
0.0464925 0.0280785 0.233647 
-0.0342272 0.00808388 0.0952715 
-0.00734756 0.0232717 0.0237559 
-0.00142582 0.0119112 0.0716132 
-0.00189572 0.000232545 0.026122 
-0.000665038 -0.000719862 0.00188236 
0.000473484 0.000517839 -0.00151084 
-0.000617235 -0.000655252 0.00133456 
0.00596346 -5.51713e-05 0.0188507 
0.00468268 0.000763272 0 
0.00122037 0.0237311 0 
-0.00292155 -0.00968745 0 
0.000188239 0.0248441 0.0398323 
-0.000124523 2.26086e-05 0.000263491 
-0.000115654 2.87097e-05 -0.000127885 
0.000341357 -8.54303e-05 0.000410943 
-2.86093e-05 0.000459047 0.0366807 
0.00478972 -0.00103097 0 
0.00479947 8.51428e-05 0 
0.000384175 0.000414926 0 
-0.0168076 0.00897685 0.00243414 
-0.000125446 0.000461014 0.000474416 
-7.64525e-05 0.000301915 -0.000809189 
0.000103375 -0.000391203 0.000201328 
-9.93206e-05 0.00132552 0.0394074 
-0.0016295 -0.00201425 -0.000731251 
0.000381947 -2.79637e-05 0.000979728 
0.000207108 -1.51631e-05 0.000403015 
-0.00167166 0.000122388 1.17927e-05 
0.000312258 -6.0448e-05 0.0726079 
8.56966e-05 -3.53668e-05 0.0654565 
-0.000284304 -3.59109e-05 0.0537811 
0.00113434 -0.000480352 0.0589946 
-0.000485909 -0.000767586 -0.000639256 
0.00127806 0.000330809 -0.00197605 
-0.00014675 0.00343099 -0.00260818 
0.0133105 -0.011143 0.0174621 
0.00141138 -0.00039249 0.00117242 
-0.00151213 0.000372178 0.000763878 
0.0020639 -0.00040364 -0.00540379 
0.00390497 0.00421397 0.0220289 
0.00489786 0.00150269 -0.0054179 
-0.0173057 0.0105032 0.0163318 
-0.000271099 -0.00665789 -0.00680609 
-0.000554432 0.0305462 0.0259312 
-6.61478e-06 1.66725e-05 0.000289888 
6.45104e-05 -8.7121e-05 0.000168376 
-0.000221261 0.000314508 4.54643e-05 
0.000177588 0.000107281 0.034768 
-2.33845e-05 0.000330284 -0.00069545 
8.81544e-06 -0.000124509 0.000789479 
-2.01271e-05 0.000284275 0.000532179 
0.000452595 0.000424944 -0.000441493 
-0.00156782 -0.000767388 0.0815202 
-0.00194359 0.000699673 0.0778323 
-0.00378261 0.00111366 0.0750187 
-0.00387102 -0.00125782 0.0758278 
-4.06113e-05 8.71191e-06 0.000435997 
-0.000178034 1.86683e-05 0.000405879 
-0.000125342 6.80153e-06 -0.000203251 
-1.9704e-05 -0.000289556 0.0327148 
0.00023973 1.66346e-05 0.000506692 
-0.000353323 -2.45168e-05 0.000944511 
0.000840901 0.00132061 -0.00180366 
-0.00122339 -8.48895e-05 -0.000489345 
-8.73536e-06 -0.000124509 0.00108181 
1.99443e-05 0.000284275 0.000426218 
0.00163872 0.000424944 -0.00183844 
-8.94428e-05 -0.00127487 -0.000191862 
0.000381947 2.65029e-05 0.00291241 
0.000207108 1.4371e-05 0.00094613 
-0.00012648 -8.77631e-06 -0.00216358 
-0.0016295 -0.00095059 -0.00102389 
-0.000353323 2.42979e-05 -0.000321659 
0.00109067 -7.50051e-05 0.000100628 
0.00023973 -1.64861e-05 -1.17556e-05 
0.000840901 0.000924186 -0.000509537 
-8.43831e-06 2.39081e-05 0.00050683 
-1.12158e-05 3.69731e-05 0.00032803 
1.6824e-05 -6.41761e-05 8.77552e-05 
-0.000116382 0.00105891 0.0392272 
0.00156234 0.000656234 -0.00080234 
-0.00165137 -0.000635621 -0.00219858 
-0.000312215 -0.000225345 0.00510799 
0.00354001 -0.00219546 0.0171874 
-0.0264622 -0.00797612 0 
0.0179973 -0.00364588 0 
0.0147936 0.00424523 0 
0.0488038 -0.00538184 0.0412706 
0.00514392 0.0146597 0.0963434 
-0.00864005 -0.0148648 0.239841 
-0.00994461 0.0297404 0.155903 
0.0499847 0.0686943 0.154057 
0.00038157 -0.0004419 0.00154225 
-0.000559183 0.000595912 -0.00104177 
0.000544419 -0.000514662 -0.000530176 
-0.00142069 0.000366016 -0.00258323 
0.027611 0.0308551 0.0451427 
0.0356393 0.0530383 0.19742 
0.0114278 0.0539478 0.0895267 
0.00351227 0.0224042 -0.0328886 
-4.63724e-06 -7.13743e-05 -5.82364e-05 
4.75635e-06 6.71978e-05 2.21607e-05 
-1.08998e-05 -8.31089e-05 0.000392363 
-0.000322871 -2.03996e-05 0.0358022 
-9.47609e-05 -0.000194592 -0.000368545 
-0.000171553 0.000106477 0.0207707 
0.000184392 0.000406843 0.000394783 
-7.86979e-05 -0.00022109 0.000374001 
-0.00727441 8.10554e-05 0.222664 
0.011545 0.0541151 0.157258 
0.0327832 0.031261 0.108862 
0.00782435 0.0307107 -0.0989203 
-0.000484649 -7.12346e-05 -0.00262385 
2.95314e-05 3.67142e-05 0.00260578 
-0.000897995 -6.79979e-05 -2.70133e-05 
0.00976142 -0.00615127 0.0205506 
0.000133541 -0.000194478 0.000478763 
7.67884e-05 7.10673e-05 0.0223234 
-0.000109454 -0.00012264 -5.48779e-05 
0.000187718 0.000115771 0.0272865 
0.000213285 -0.00596442 0.262751 
0.0168992 -0.00331907 0.259485 
0.00574786 0.00714215 0.22595 
-0.0640137 0.00833413 0.245431 
0.000268795 0.000233363 0.0478734 
-0.000207644 -0.000195684 0.0669555 
0.000166165 0.000118262 0.0557819 
-0.00114159 -0.00112297 0.0625297 
8.55649e-05 0.000149473 0.0247929 
-0.000238075 8.83685e-05 0.0488979 
0.000124463 -6.89388e-05 0.0262577 
-0.000332396 2.16398e-05 0.0367049 
0.000315271 2.49903e-05 0.000820471 
-0.000121858 -1.0931e-05 0.000280769 
0.000252985 2.53305e-05 -0.00182261 
-0.00345426 0.00163551 0.0303928 
-8.6974e-05 -3.64601e-05 -0.00074573 
0.000184383 8.33951e-05 0.00036799 
0.000412725 0.000189983 0.000165595 
-0.00105138 0.000350924 0.0390041 
0.000328818 -2.69745e-05 -0.000619356 
0.000266736 -2.18816e-05 0.000746432 
-0.00205028 0.000168194 -0.00157205 
0.000523846 -0.00401231 0.0359051 
4.25101e-05 -1.46122e-05 -0.000114823 
-0.00011794 3.97096e-05 0.000347951 
5.89751e-05 -3.08317e-05 0.000214416 
9.40588e-05 -0.000191591 0.0375459 
0.00565466 -0.00188714 5.1376e-05 
-0.0126414 0.0119664 0.0212583 
-0.00187484 -0.000740407 -0.00443611 
-0.00516362 0.00491884 0.0279825 
0.00447396 -0.0119467 0.242777 
-0.0168225 -0.03855 0.12023 
-0.0369088 -0.000793204 0.129413 
-0.0774287 -0.00555331 0.00899189 
-0.00145872 -8.91096e-05 -0.001569 
-5.08318e-05 2.81631e-05 -0.00241706 
-0.00163454 -0.000161638 0.00291014 
0.000660353 0.00435395 0.0177561 
-2.0123e-06 2.03776e-05 0.000248763 
4.38691e-05 -0.000444242 0.000548443 
1.24204e-05 -0.000125776 0.000189825 
-0.000392197 0.000747301 0.0340211 
-0.0041506 -0.000830439 0.0694299 
-0.00300876 -0.00571789 0.0720365 
0.000779344 0.000435311 0.0692338 
-0.00625231 -0.00205979 0.057178 
5.36254e-06 7.72764e-05 -3.8619e-05 
2.39362e-06 3.44931e-05 0.00028904 
-1.08586e-06 -1.56477e-05 -2.40709e-05 
-0.000291301 -0.000161776 0.0246724 
-8.29922e-05 -1.4115e-05 0.0795417 
6.84069e-05 -5.11607e-05 0.0802005 
9.9363e-05 -2.54451e-05 0.0846422 
0.000243171 0.00112574 0.0809262 
1.01442e-05 -1.73214e-05 0.0835789 
1.45439e-05 -1.71214e-05 0.0778771 
-0.000144192 7.62751e-05 0.0776059 
0.000829667 -0.000914664 0.0804456 
0.0262612 4.12701e-05 0.100714 
-0.015781 -0.000925902 0.239571 
-0.0270005 0.00367779 0.250749 
0.125966 -0.0577148 0.0588367 
-0.00493225 -0.0057296 0.0546864 
0.00269806 0.00366105 0.0736658 
-0.00343929 -0.00543678 0.0728803 
-0.00620671 -0.00357501 0.0543714 
5.06708e-05 0.000520324 -0.000886006 
-1.65812e-05 -0.000141324 0.000457866 
0.000100986 0.00054077 -0.00464501 
0.00648455 -0.00814003 0.0318505 
-0.000102233 0.000240361 0.0240801 
-1.95458e-05 1.38387e-06 -2.79048e-05 
2.9838e-05 -2.11257e-06 0.000219213 
7.68383e-05 -5.44026e-06 9.25187e-06 
-0.000204733 -0.000111437 0.0575477 
0.000261514 -0.000195081 0.0321142 
-0.000226628 0.000129669 0.0436019 
-0.000318308 -0.000113657 0.0355704 
-2.89693e-05 -1.58481e-05 0.0248276 
-0.000202739 0.000213768 -0.000270894 
0.000318674 -0.00031199 0.0292674 
0.000246911 0.000169235 0.000477255 
-0.000856437 -0.00197056 0 
0.00074657 0.000757068 0 
-0.000963288 -0.00153068 0 
0.000433865 0.000572713 -0.00214611 
2.79543e-05 2.40446e-06 0.000116632 
-6.85733e-05 -5.89826e-06 0.000717918 
0.000469911 4.04188e-05 3.93656e-05 
0.00043228 6.42711e-05 0.0386747 
-8.36424e-05 8.99557e-06 0.083721 
-7.27129e-05 5.67243e-05 0.0775702 
6.80493e-05 6.16647e-05 0.0812136 
0.000847821 -0.000920769 0.0802735 
3.76754e-06 0.000200942 0.0295155 
-2.17246e-05 -8.95666e-05 0.029661 
0.000181694 -8.62651e-05 0.0539244 
0.000160274 -4.27758e-05 0.033998 
-0.000213604 -0.000259023 0 
0.000603722 0.00165259 -0.00143359 
-0.000739299 -0.000860983 0 
-0.000605319 -5.86282e-05 0 
0.0039586 -0.00243922 -0.00333885 
-0.00109691 0.00171679 0.000476974 
0.000120151 -5.73763e-05 0.00124219 
-0.0112056 0.00895403 0.00889474 
-5.13019e-05 -0.000327684 0.0531591 
0.000176828 3.05033e-05 0.0259348 
-2.9268e-05 7.36047e-05 0.0330751 
-0.000156499 -0.000214054 0.0356007 
3.32007e-05 3.19724e-05 8.47135e-05 
0.000174065 0.000166661 0.000523585 
-0.000133749 -0.000131073 -0.00015394 
-0.000475037 -5.15325e-06 0.0374975 
-0.0291464 -0.00038988 0.0511951 
-0.0497785 0.00914843 0.0866555 
-0.0349449 -0.00173194 0.107873 
-0.0076856 -0.000547944 0.0835917 
-0.000535805 0.000363794 0.000240952 
-4.71134e-05 6.99035e-05 -0.00130711 
4.43729e-05 -4.79923e-05 0.000605906 
0.000177368 -0.000725211 -0.00147839 
-0.000103616 1.42022e-05 0.0290949 
7.51093e-05 -3.46067e-05 0.024029 
8.13436e-05 6.39925e-06 0.0416433 
0.000107434 0.000141064 0.0342408 
5.21877e-05 0.000226528 -0.000272164 
2.8311e-05 7.65943e-05 0.00035582 
-1.48614e-05 -7.40937e-05 0.000181753 
-0.000314347 -0.000711076 0.039148 
2.62211e-05 4.05552e-05 0.00171421 
-4.38283e-05 -0.00039658 -0.000590138 
6.82785e-05 0.000978184 -0.00157425 
-0.000890892 0.00283204 0.0299988 
-6.42409e-05 0.000300893 0.0513774 
-5.09057e-05 -9.0622e-05 0.0274482 
7.98349e-05 -4.92152e-05 0.0284158 
-8.98861e-05 0.000209774 0.0348164 
-0.000670745 0.00114525 0 
-9.31772e-05 0.000927634 0 
-0.000842039 -0.00141519 -0.000780343 
-0.000508427 -0.00222222 0 
0.00543346 0.00392842 0 
-0.0043303 0.0019947 0 
0.00313438 -0.00298321 0 
-0.0125281 0.00456214 -0.000793885 
0.00207456 -0.000225058 0 
-0.000332616 -0.000992578 -0.00421201 
-0.00426161 0.00143595 0 
-0.0032732 9.49018e-05 0 
0.0001853 -4.2239e-05 9.27421e-05 
-0.000203609 5.23203e-05 0.000488806 
3.69938e-05 -5.94313e-06 0.000267449 
-0.000454579 0.000161104 0.0370822 
0.000187834 0.000765082 0.0524786 
0.00279739 0.00344821 0.0687006 
0.00282645 0.00311769 0.062355 
0.00124312 0.00260253 0.0622464 
0.0224466 -0.0213087 0 
-0.00471073 0.0201861 0 
-0.0229818 0.00652778 0 
-0.0157592 0.0464761 0.0398551 
0.000224549 -4.89864e-05 0.0328288 
-0.000104924 5.89966e-05 0.0411122 
-0.000287558 -0.000327251 0.0590171 
8.96358e-05 -0.000302427 0.0323078 
0.000292107 -0.000122117 0.0494169 
-0.00012135 0.000300856 0.0690687 
5.41514e-05 -4.74604e-05 0.0611428 
-0.00175372 0.000319021 0.0638288 
-0.00599664 -0.00741874 0.22233 
0.00200482 -0.00538624 0.248933 
-0.000792875 0.000253215 0.24833 
0.000500874 0.0426342 0.248391 
-0.00236149 0.001098 0 
0.0186149 -0.00987601 0 
0.011769 0.0132245 0 
0.0120025 -0.0359491 0.0211892 
-9.20407e-05 9.30252e-05 0.0287826 
-0.00024794 0.000193771 0.0272144 
0.000224196 -9.02008e-05 4.66999e-05 
0.000191847 3.41854e-05 0.000475575 
3.20261e-05 0.000163263 0.000377229 
-3.68759e-05 -0.000159506 0.000154904 
-4.80224e-06 -1.60281e-05 0.000118323 
0.000288831 -0.000445625 0.0387231 
0.000288966 -0.000579476 -0.00714271 
0.000167483 -0.000135635 0.000875303 
3.71627e-05 -8.53503e-05 -0.00118977 
-0.00515368 -0.00420504 0.0157097 
0.000112433 -7.56328e-05 0.0296195 
0.000123541 0.000212412 0.000575517 
-8.93506e-05 0.000193803 0.000175229 
0.000184267 -0.000231937 0.0298795 
-0.00747602 -0.00655907 0.253099 
0.00738537 -0.00318945 0.256243 
-0.00443874 0.010322 0.226534 
0.0584877 0.0125281 0.24897 
-0.00406178 0.00409921 0.0687352 
-0.0115304 0.0126649 0.0665836 
-0.0042556 0.00697563 0.0648993 
-0.00970109 0.00879681 0.0770001 
-0.00968813 -0.00696173 0 
0.00235705 6.15098e-05 0 
-0.00540425 0.0311806 0 
0.0294545 -0.0791304 0.0271775 
0.000353738 -0.00183709 -0.00239716 
-0.00268854 0.000283008 -0.00193297 
-0.000453198 0.000440652 -0.00054925 
0.00472524 0.00965775 0.00863975 
-0.00825734 0.000838495 0 
-0.00376414 -0.00192894 0 
0.00305138 0.00247921 0 
0.0144163 0.0101826 0.0024039 
-0.000929332 0.000246259 0.00372723 
-0.000971151 0.000190009 -0.00216911 
0.000316229 -8.98156e-05 -0.00181044 
0.0105376 0.00406076 0.0153403 
-0.00333295 0.00231533 0 
-0.00784701 0.00191082 0 
0.0011447 -0.00277963 0 
0.0212566 -0.0115477 0.00282329 
-2.76201e-05 3.19724e-05 0.0259835 
-8.64342e-05 -1.92976e-05 0.0252995 
0.00015838 0.000164314 0.0431808 
0.000151025 0.000164101 0.0328468 
2.94865e-05 4.33114e-05 2.17332e-05 
-0.000108159 -0.000159392 -0.000112555 
2.57949e-05 4.68519e-05 0.000582127 
-0.000441704 -2.9153e-05 0.0374499 
0.000112659 0.000451231 -0.000596058 
-0.000206222 -0.000932774 -8.07689e-05 
-0.000105016 -0.000350014 0.00133042 
9.16885e-05 0.00155373 -0.00301855 
-0.000541776 0.00165496 -0.000128358 
9.51757e-05 -0.00100655 -0.000293831 
0.00157396 0.000868898 -0.000523835 
0.00190548 4.48286e-05 0.00146519 
4.99948e-05 -4.71375e-06 0.0796814 
-4.20965e-05 1.20026e-05 0.0730366 
-5.98485e-05 -0.000101917 0.0690752 
0.00116401 0.00107379 0.0738561 
0.0281434 -0.00308373 0.11373 
0.0213208 -0.0216425 0.139796 
-0.00295145 0.00848616 0.276797 
0.0914865 0.0161802 0.149196 
0.000337738 0.000236745 -0.00155132 
-0.00111528 -0.000784904 -0.00160867 
0.000593937 0.000418499 0.00193637 
-0.000377436 -0.00365041 0.028734 
0.000125839 7.09817e-05 0.0222686 
3.54616e-05 -0.000149893 -0.000148187 
-4.1902e-05 0.000196989 -3.59982e-05 
1.39761e-05 -9.95216e-05 0.000371208 
0.00214327 0.00083303 0 
0.000868139 0.000894513 0 
-0.00135914 -0.00112031 0 
0.000623347 4.15463e-05 -0.00181255 
4.34281e-05 -5.70356e-05 0.000438756 
0.000196458 -0.000206365 0.000286976 
-0.000212226 0.00021175 5.74616e-05 
-0.000150436 0.000171807 0.036632 
8.55836e-05 -0.000297362 0.000239259 
-7.76396e-05 0.000223663 0.000312486 
-3.35854e-06 1.11519e-05 -3.44572e-06 
6.99953e-05 -4.24596e-05 0.033286 
7.38862e-05 -1.94515e-05 -0.000146483 
2.02837e-05 -8.05253e-06 -0.000173558 
-0.000189517 5.33057e-05 0.000543505 
-7.29553e-05 8.80125e-05 0.0327964 
-0.000266172 0.000141523 0.0471061 
4.57626e-05 -0.00019389 0.0654389 
-4.33925e-05 8.94425e-05 0.0552532 
0.000912124 -0.000888553 0.0608498 
6.7948e-05 -7.67854e-05 0.0239975 
0.000136857 9.56125e-05 0.0426454 
-0.000150392 2.72415e-05 0.0359095 
-0.000324768 0.000498056 0.0354127 
0.000238196 1.99042e-05 -0.00196811 
0.000271853 2.27167e-05 0.00182402 
0.000335126 2.8004e-05 -0.00158 
0.000640218 -0.00299812 0.034538 
0.00025899 0.00021509 0.0689503 
-0.000127008 -5.21408e-05 0.0598043 
-0.000203457 -0.000201336 0.0499983 
0.000617889 0.000955942 0.0608027 
0.000504161 0.00055667 -0.00244257 
-0.00031284 -0.000450484 -0.000738685 
-0.000206048 -0.00025959 0.000309873 
0.00318577 -0.000282669 0.0319306 
-0.000128515 -0.00143412 -0.00158313 
0.000132805 0.00177867 -8.53133e-05 
-0.000198657 -0.00186749 -0.00447424 
-0.00496916 0.00493244 0.0287812 
-0.00027514 -2.20235e-05 -0.00332783 
0.000214279 4.24943e-06 0.00366916 
-0.00011523 -2.06958e-05 -0.000435699 
0.00916387 -0.00361657 0.0184124 
0.000242302 0.00371308 -0.00196596 
-0.000426548 0.000658391 0.00214296 
-0.00106117 -0.00296916 -0.00114074 
-0.00182487 -0.00946851 0.00704939 
0.00015178 -0.000104394 0.000322503 
2.18483e-05 -1.51042e-05 0.000209346 
5.34027e-06 -3.58178e-06 -0.000181607 
0.000203174 -0.000156465 0.0350826 
0.00128193 0.00184379 -0.00362413 
0.000831453 -0.000325348 -0.0013408 
-0.00271548 0.00156664 -0.000259634 
-0.00380507 -0.00841042 0.00751333 
-0.0284988 0.0132835 0.173215 
-0.0203041 0.0365939 0.192794 
0.00108072 0.0166089 0.239647 
-0.0533388 -0.0166857 0.182202 
0.00239112 -0.00359123 -0.00178316 
7.05173e-05 -4.72025e-05 0.0036495 
-0.000266801 0.000350844 -0.00294549 
0.00545653 -0.00232003 0.0107436 
0.000871468 -0.00868649 0 
-0.0081942 0.00907826 0 
-0.0107733 -0.000435792 0 
0.0366718 -0.0253785 0.0117582 
0.00190885 0.000695275 0 
-0.00297382 -0.00134785 0 
0.000520202 0.00239902 -0.00400179 
-0.00398783 -0.000752935 0 
-0.00179145 0.000857855 0 
0.00101763 -0.000237559 0 
-0.000344654 -0.000579089 -0.00162285 
-0.00164815 3.40749e-05 0 
2.47955e-05 -7.80553e-05 0.0654974 
0.00011232 -1.0669e-05 0.0683939 
-5.92417e-05 0.000154908 0.055361 
0.00094712 -0.00102265 0.0605815 
-0.000237658 -3.41426e-07 0.0263388 
-2.68747e-05 -0.000106879 -0.000177873 
-1.46683e-05 -0.000109249 0.000454205 
2.95814e-05 0.00013277 3.19936e-05 
0.000577693 -0.000271997 0.00227217 
0.000410696 -0.00203251 -0.00373575 
0.000506613 0.00306557 0.000278799 
-0.0019036 0.00659301 0.0120488 
0.000237912 1.82612e-05 4.98732e-05 
0.000176602 1.4864e-05 0.000170911 
-4.68292e-05 3.53699e-07 0.0003941 
-0.000455147 -6.39815e-05 0.0358069 
0.000685363 -0.00268152 -0.00391759 
-0.00011227 0.000566757 -0.000746584 
-4.72182e-05 0.000230326 -0.000226452 
0.00147811 0.00949597 0.0119469 
0.000194094 4.63102e-05 -0.000124238 
-4.76898e-05 0.000129 0.0288819 
0.000102591 1.81636e-05 0.000239446 
-0.000276638 -6.7072e-05 0.000228622 
0.0129391 -0.00179746 0 
-0.0153587 0.0191119 0 
0.00944008 -0.0109597 0 
0.0630457 -0.0186019 0.0359144 
4.7092e-05 -6.09364e-05 -0.00078965 
-0.00129146 -0.00119958 -0.002516 
0.0010061 -0.000626285 -0.000874378 
0.000468137 0.00829804 0.00934693 
0.000200157 -9.50838e-05 0.0777504 
1.63742e-07 0.000216736 0.0657672 
-1.74028e-05 -8.8217e-05 0.0682926 
0.000365516 -0.00173462 0.0708834 
-0.000110257 -0.000154496 0.000372382 
9.76969e-05 0.000137631 -0.000414856 
-6.47716e-05 -9.45212e-05 0.000653476 
0.000968715 -5.36711e-05 0.0315647 
4.10241e-05 0.000170401 0.000318137 
1.85691e-05 9.05689e-05 -0.00013404 
-2.20261e-05 -0.000108949 0.000190409 
-0.00047015 5.57268e-06 0.0357124 
0.000281322 -6.59598e-06 0.0296945 
2.95742e-05 0.000130642 -5.46828e-05 
1.54934e-05 0.000105041 0.000367645 
-6.52467e-05 -0.000284215 0.000164035 
0.000266811 -1.46921e-05 0.0329997 
-0.000334718 -0.000105685 0.00053955 
-0.00025024 0.000140562 0.000409132 
0.000229752 5.04347e-06 0.0322549 
-0.000407063 -0.00037877 0.0015773 
0.00185956 0.00197938 0.000526775 
-0.00328671 -0.00280098 -0.00197528 
0.00980372 0.00996807 0.00727258 
0.00105662 0.000453028 0 
-0.000891108 -0.00049092 0 
0.000568878 0.000700251 -0.00116427 
0.00122842 0.00106757 0 
0.000490433 0.000795933 0 
-0.00108731 -0.000940884 -0.00152869 
-0.000940899 -0.000635408 0 
-0.000325256 -0.00182613 0 
7.88346e-06 -1.47263e-05 -0.000408222 
5.79961e-06 -0.000154926 0.00052868 
4.7973e-07 -3.31081e-05 0.000160481 
0.00026674 0.000343634 0.033459 
-2.9713e-07 2.08474e-08 0.000128108 
7.86652e-06 -8.18395e-05 0.0211246 
-9.77997e-05 6.86188e-06 -9.15268e-05 
2.45079e-05 -1.71954e-06 9.9219e-05 
0.000130283 -8.60777e-05 0.000127394 
-7.44182e-05 5.2837e-05 0.000271976 
-0.000177025 0.000122088 0.000308714 
0.000217738 -0.000235761 0.0357962 
0.00063679 0.000156666 0.000423566 
-0.00214356 -0.000497191 -0.00280357 
0.000865717 0.000243422 -0.000813854 
-0.00236817 0.001794 0.0250292 
-7.62822e-05 8.15773e-05 0.0250102 
8.8567e-05 -0.00036977 0.0499577 
4.39924e-05 9.18978e-05 0.0279146 
-0.000162202 -0.000321086 0.034837 
-0.000170331 0.000170646 -0.000156136 
-0.000131515 -0.000178937 0.000180818 
4.06876e-05 -9.71962e-05 0.0237816 
6.87163e-05 -0.000150996 0.0299035 
0.00026452 -4.34651e-05 -0.000676592 
-0.000187696 -0.000392036 -0.000130114 
-3.9484e-05 -1.86804e-06 0.00051107 
-0.00103903 0.000254421 -0.00144959 
-0.000154692 -0.000150156 0.000353485 
-5.49722e-05 -5.33661e-05 9.99608e-05 
0.000100696 9.77892e-05 -3.59179e-05 
0.000220766 8.8458e-05 0.0360209 
0.0669461 0.0286136 0 
0.0642366 0.038925 0 
-0.0708483 -0.0338651 0 
0.0678576 0.0111717 0.204159 
0.000594266 0.00499018 0 
-0.00222224 0.000136017 0 
0.000481716 0.0010363 0 
-0.0120388 -0.0107214 0.000715211 
-0.000508733 0.00158483 0.265511 
-0.0210599 -0.0197754 0.116897 
-0.0393814 0.0062716 0.0955481 
-0.0811658 -0.026117 0.0901052 
0.000384675 -0.00420312 0 
0.000251459 0.00172553 0 
-0.00126614 0.000200074 -0.00226137 
0.00134932 -0.0019132 0 
-0.000865856 0.00528439 0 
-0.0061564 0.00372037 0 
0.000876011 -0.00389394 0 
0.000926987 -0.014356 0.00222853 
-0.0154162 -0.0299648 0.0198045 
0.0030565 -0.0116544 0.0257095 
-0.0270441 0.00873025 -0.0277696 
-0.00293885 -0.0569931 0.101775 
-0.000100731 -5.87146e-05 0.0245114 
-0.00024289 -0.000216218 0.0326281 
8.4184e-05 0.000159304 0.00016107 
-4.41246e-05 0.000221989 0.0006228 
-4.58803e-05 6.33322e-05 0.0293489 
-8.06693e-05 -0.00012366 0.0475456 
0.000160584 -2.32566e-05 0.0245896 
-8.99145e-05 -0.000173254 0.0349722 
-6.39406e-05 -4.4041e-05 0.000494853 
-0.00017747 -0.00012193 -7.04068e-05 
0.000476328 0.000327305 -1.94166e-05 
1.39554e-05 0.000330341 0.0366942 
-0.00926468 -0.00620977 0 
0.0146943 -0.024901 0 
-0.0107974 0.0311661 0 
-0.00998004 0.0129137 0.027561 
-4.84115e-06 -2.8982e-05 0.0585966 
0.000270187 0.000225754 0.068949 
-0.000303157 -0.000296963 0.0499536 
0.000651119 0.000987958 0.0608295 
-0.00584191 -0.00677192 0 
0.0100466 0.0065624 0 
-0.00816049 0.00392096 0 
0.0354414 0.00369565 0.0107514 
-0.000913474 0.000892695 0.000507215 
-0.00103018 0.000937777 0.00285285 
-0.000586852 0.00062629 -0.00141978 
-0.000846344 -0.00536216 0.0167398 
4.94472e-05 9.71493e-05 0.0612377 
-3.57788e-05 -0.000174539 0.0508129 
0.000213956 -6.04472e-05 0.0430524 
-0.000733655 0.000696228 0.0595832 
0.00012567 -0.000131459 0.0325483 
-4.0148e-05 0.000121219 0.024443 
-0.000128177 2.1109e-05 0.0435538 
-0.000205037 -0.000112713 0.034978 
-2.19947e-05 9.25862e-05 0.000126062 
1.82109e-05 -9.17927e-05 0.000336959 
1.93075e-05 -8.83272e-05 9.49966e-05 
0.000198517 0.00040768 0.0367275 
-5.19716e-05 -1.28834e-05 -7.76796e-05 
0.00014223 3.71813e-05 0.000405053 
-1.72385e-05 -2.3266e-06 0.000169015 
-0.000291646 -0.000305665 0.0366293 
-0.000142563 0.000123391 0.000185703 
0.000125564 -9.4033e-05 0.000261858 
-1.84903e-05 0.000148785 0.0292884 
0.000112557 -9.85104e-05 -0.000178266 
-0.00102732 -0.000753806 -0.00194225 
0.00213935 0.00144412 0.000745522 
0.00182951 0.00133113 0.00316241 
0.000891923 0.00379077 0.0122638 
0.0442223 0.0176453 0 
0.0323789 0.0186051 0 
-0.0459028 -0.0301386 0 
0.0737945 0.02545 0.176133 
1.64574e-05 -6.31395e-05 -1.61956e-05 
5.81667e-05 -0.000207018 0.000232753 
-2.21646e-05 9.61791e-05 0.000222013 
-0.000135783 0.000193421 0.0329456 
-0.000976228 -0.000309129 6.8093e-06 
0.000832346 -2.72086e-05 -8.91819e-05 
0.00140874 0.000787391 0.000479081 
-0.00193817 -0.00228653 -0.000924569 
0.00640603 0.00131859 0.226721 
0.0181755 0.0326482 0.106761 
0.0306842 -0.00611146 0.128604 
0.0856507 0.0386012 0.0646847 
0.00292703 -0.00273425 0 
-0.00131279 0.00602843 0 
-0.00381127 0.00606908 0 
0.0300178 -0.0135957 0.0021402 
0.00323438 0.00937938 0.244778 
-0.0112084 -0.000304283 0.144637 
0.0147948 0.0105282 0.224217 
-0.0501523 -0.0945146 0.198755 
-3.05735e-05 0.000133509 -4.3557e-05 
4.94258e-05 -0.000218138 4.00856e-05 
-0.00013561 1.23029e-05 0.0246984 
-1.96535e-05 0.000110495 0.000296703 
9.52731e-05 6.05503e-05 0.000310782 
-0.000226465 -0.000153489 0.000149913 
-6.83209e-05 -5.01575e-05 0.000403289 
0.000169478 0.000132207 0.0364185 
0.000425481 0.000838193 0 
0.00259243 -0.00503387 0 
0.00355562 -0.00259281 0 
-0.00715855 0.0165755 0.00321552 
3.35089e-07 -3.99054e-06 6.20016e-05 
-0.000101793 0.000181384 0.000166938 
8.38629e-05 -0.000170289 0.000246865 
-0.000286827 -8.8141e-05 0.0319818 
6.21891e-05 -2.02673e-05 -5.31108e-05 
0.000158058 -3.93359e-05 0.000326087 
-0.000109168 3.88521e-05 0.000217236 
-4.08254e-05 0.000283436 0.0366168 
-0.00010203 -7.72503e-05 0.0336995 
0.0002461 -7.8827e-05 0.000166115 
-0.000170324 4.43699e-05 0.000290457 
-1.8851e-05 7.67061e-06 -7.7704e-05 
0.00252778 0.000300989 0 
-0.00103241 0.000494103 0 
-0.00128933 -0.00057518 0 
0.00240484 -0.00181661 1.72333e-05 
-0.000562362 -0.00126504 -0.000506536 
-0.000150918 -0.000199474 -0.00241745 
0.000714434 0.00163971 0.000112628 
0.000376668 -0.000798896 0.0033986 
-1.28213e-05 -0.000129658 0.000161852 
5.06831e-05 0.000512542 6.58235e-06 
2.07725e-06 2.10066e-05 0.000480254 
-0.000181066 0.000779772 0.0339375 
0.00189508 0.00107804 -0.00471657 
-0.00159416 -0.000976864 0.00186717 
0.000870369 0.000518691 -0.00145901 
-0.00503048 -0.00583645 0.00963946 
0.00259126 0.00350279 0.00483325 
-0.00329817 0.0209607 0.023349 
0.000750774 -0.00825616 -0.0105789 
-0.00260486 -0.00123503 -0.00198997 
-4.55826e-05 -0.00011622 0.00225953 
-0.000179454 -5.72787e-05 -0.00161416 
-0.000885794 -0.0006615 0.00197769 
-0.00202671 -0.00478375 0.0101308 
0.00148329 -0.000103374 -0.00118114 
-0.000924099 0.00104805 0 
-0.000223228 -0.000537244 0 
0.00199054 -0.000547957 0 
0.000657201 0.000396916 0.000943816 
0.000291876 0.000260568 -0.00210984 
-0.0016067 -0.000944858 -0.00307269 
0.00212211 0.00372703 0.0119983 
-0.000148578 0.00021543 7.36186e-05 
-6.74281e-05 9.31765e-05 0.000293167 
-3.57479e-05 4.66384e-05 0.000311635 
0.00025784 -0.000308053 0.0345118 
-6.32522e-05 -1.09006e-05 0.000162032 
0.000394266 9.99526e-05 0.000536578 
-0.000214644 -5.38257e-05 -0.000263611 
2.48129e-05 -0.000315684 0.0235999 
4.25178e-05 0.000140162 0 
0.000124457 0.000410279 0 
-0.000201729 -0.000607003 -0.00070105 
-0.000407684 -0.000165323 0 
-0.000161865 -0.000533598 0 
0.00107538 0.00112357 0 
0.00031068 0.000975769 -0.000584993 
-0.000242686 -0.000800027 0 
0.000507107 0.0008445 0 
3.87519e-05 0.002302 0 
0.000173549 -0.00126017 0 
-7.72373e-05 0.00137251 -0.00236112 
0.000146118 -9.57469e-05 0.000149734 
5.95631e-05 -2.24673e-05 -0.0001843 
-0.000120501 3.32163e-05 0.0209336 
-0.000183643 0.000299663 0.0325225 
-0.00777351 0.00279281 0 
0.00883091 0.00379379 0 
-0.00486548 -0.00155843 0 
0.00670399 0.0207863 0.0196413 
-0.00301088 0.0241471 0 
-0.0185284 0.0112157 0 
0.0136391 -0.03074 0 
-0.0235367 0.0558985 0.0447875 
0.0368083 -0.0189282 0.141659 
0.0413657 -0.0471428 0.10494 
-0.0196607 0.00659464 0.273522 
0.0836273 0.00352755 -0.00994041 
7.04909e-05 -0.000318116 -0.000361556 
0.000214792 -0.000970329 -0.001125 
0.000111483 -0.000361525 0.00272611 
0.000849168 0.0103536 0.012195 
-0.000208758 -0.000543164 -0.000691977 
0.00106073 0.00251644 -9.61768e-05 
0.000325559 0.000875592 0.00150232 
-0.00137173 -0.00322536 0.00413245 
-0.000750849 -0.00016608 -8.48091e-05 
0.00150235 0.000366509 0.00183306 
0.000386844 5.9166e-05 -0.00124013 
0.00117054 -0.00042403 -0.00111496 
-0.000370301 -0.00100202 -0.00081369 
0.000335803 6.89945e-05 0.000218915 
-0.000604308 -0.000111879 -0.000991295 
-0.000672175 -0.000142784 -0.000210704 
2.13238e-05 9.08459e-05 0.0287446 
-0.00015392 -3.4653e-05 0.000455948 
3.54975e-05 1.2472e-05 6.45375e-05 
5.24582e-05 7.44135e-06 -0.000320869 
-0.000496642 -0.00194169 0.00349678 
-0.000165715 -0.000798235 -0.00159136 
3.87611e-05 0.000169767 6.14368e-05 
-0.0017093 0.0117355 0.0130912 
-6.06206e-06 -0.000142486 0.0509635 
7.75416e-05 0.000127026 0.06138 
-0.000137314 -8.87332e-05 0.0650488 
-0.000820519 0.000738624 0.0591666 
0.00762146 0.0164755 0 
-0.000898632 0.0141154 0 
-0.00234284 -0.0184183 0 
0.0177867 0.0517531 0.0373603 
0.000131149 -0.000432339 0 
7.55556e-05 -0.000249073 0 
-0.000124518 0.000365254 -0.000519543 
-0.000536807 0.000762973 0 
-7.8429e-05 -4.19212e-05 0 
0.000265546 0.00013192 -0.000345554 
0.000463535 0.000187969 0 
-0.000346234 -0.000185066 0 
0.000464366 0.000248209 0 
0.000301641 0.000161231 0 
-0.000179978 -7.29391e-05 -0.000802407 
-0.00101292 0.000417471 0 
-0.000296812 0.00091267 0 
0.000182863 -9.77424e-05 0 
-0.000128875 6.88849e-05 0 
6.46697e-05 -2.69504e-06 -0.00109911 
0.010303 0.00676082 0 
-0.00649464 -0.00337687 0 
-0.00995618 -0.0118192 0 
0.0172234 0.0396836 0.0141691 
-2.75482e-06 8.55491e-05 0.025822 
-5.67928e-05 0.000114184 0.000155508 
7.46912e-05 -0.000125873 0.000271819 
-1.0614e-05 6.16391e-06 -0.000268462 
0.00534091 -0.00150944 0 
0.00731343 0.010914 0 
-0.00449532 -0.00596584 0 
-0.0158015 -0.0216055 0.0128305 
-0.0272195 -0.00548996 0.218874 
0.00361407 0.00966246 0.141962 
0.0185187 0.00877979 0.128438 
0.10145 0.0157965 0.0727001 
0.000243777 -8.98059e-05 0.0329332 
-8.263e-05 0.000142924 0.000725636 
-0.000135421 4.62575e-05 0.020968 
2.81831e-05 -1.75093e-05 0.0318682 
6.14841e-05 1.72221e-05 0.0245983 
6.51192e-05 -8.23728e-05 8.29753e-05 
-0.000127377 0.000140574 0.000401472 
4.40503e-05 -3.89842e-05 -0.000403008 
-0.000332574 -0.000272936 0 
0.00109059 0.000895027 0 
-0.00124123 0.00042967 0 
-0.000590257 -0.000493428 0.000301502 
-0.00102184 -0.000838603 0 
0.000715328 1.27706e-05 0 
0.00162741 0.00131759 -0.000601503 
-0.0010615 -0.000871147 0 
0.000975676 -0.000241624 0.00048132 
-0.000519359 2.82258e-05 -0.00466875 
-0.0011001 0.000323911 0.00171969 
-0.00545279 -0.00190191 0.0202052 
-0.000823994 0.00196197 0 
0.00179621 0.00116911 0 
7.23419e-05 -0.0024058 -0.00279012 
0.00239676 0.00244388 0 
0.00132994 0.00103498 0 
-0.000808049 0.000663149 0 
1.82799e-05 -1.50019e-05 0 
0.00137033 -0.00108796 -0.00122469 
-2.05558e-05 8.23639e-07 0.000312297 
-0.000145042 3.48009e-05 -7.96616e-05 
0.000251473 -6.37669e-05 0.000408232 
-2.56719e-05 -0.000353954 0.0327447 
-0.000148954 0.000603029 -0.00071374 
0.000198788 -0.000772822 -0.000267223 
-0.000222445 0.00105882 0.000668504 
0.000264623 -0.00130163 -0.00125607 
-0.00390245 -0.0183764 0.115758 
0.00937128 0.0228299 0.239518 
0.0059427 -0.029975 0.152938 
-0.070115 -0.0682264 0.138455 
0.0101304 -0.0152426 0 
0.00239004 0.00570823 0 
-0.00744834 0.00903764 0 
-0.0195066 0.025598 0.0217302 
-0.00405619 0.0046936 0 
-0.0057284 -0.0118319 0 
0.00706075 0.00971193 0 
-0.013746 -0.0144504 0.0145406 
0.000473485 0.00147515 0 
0.0014143 -0.00151572 0 
0.000654043 0.00180338 0 
-0.0122408 -0.00956745 -0.000834497 
-0.00422695 0.00116734 0.246485 
-0.00508707 -0.0104728 0.233887 
0.0196607 -0.00130652 0.126785 
0.108175 0.0243673 0.173219 
0.00335254 -0.00453417 0 
-0.00854764 0.0107744 0 
-0.00165029 -0.00608011 0 
-0.0117598 0.0151746 0.0164615 
0.0108878 0.0162265 0.135701 
-0.00146125 -0.000288457 0.218408 
0.0021415 0.0060497 0.268984 
0.0266525 0.098701 0.168985 
0.00857114 -0.00913459 0 
0.0133714 0.00444936 0 
-0.0302934 0.0163295 0 
0.080095 -0.0373725 0.0454353 
0.000199455 5.50018e-05 0.000568064 
0.000725744 0.000193268 -0.000763033 
0.000300095 8.50455e-05 0.00179952 
-0.00361052 -0.000245267 0.025894 
2.09893e-07 1.75785e-05 -5.24006e-05 
-1.14358e-05 -0.00015425 0.000129379 
2.52946e-05 0.000165354 0.000310272 
0.0001962 -6.013e-05 0.0302678 
1.54366e-06 -0.000104322 0.0245191 
7.36477e-05 0.000119225 0.000351171 
-4.92336e-05 -9.61763e-05 7.69488e-05 
-5.26474e-06 5.00688e-06 -0.000281102 
-8.01306e-05 0.000307954 6.75118e-05 
3.10852e-05 -0.000106271 0.000746591 
3.77656e-05 -0.000136315 0.000484984 
-8.00815e-05 0.00368168 0.0294229 
-5.49211e-05 -0.000654694 0.00209338 
1.42798e-05 0.000170224 -0.00114307 
3.98428e-05 0.000474952 -0.000313692 
-0.00207174 0.0040036 0.029669 
-0.00017486 3.92397e-05 0.0332007 
1.29145e-05 -0.000173569 0.000167015 
-1.86393e-05 0.00012685 0.000245519 
2.01938e-06 -4.55896e-06 -6.27361e-05 
-0.00292155 -0.00684918 0 
0.00122037 0.0197355 0 
-0.0103673 -0.00571065 0 
0.00375739 0.0265095 0.0266886 
-0.0068813 -0.00816669 0 
0.00760218 0.0139926 0 
-0.0102489 -0.00486252 0 
0.00856609 0.0233341 0.0131592 
-5.53245e-05 -2.10208e-05 0.000160526 
0.000119526 2.85284e-05 0.000292749 
-5.07279e-05 -9.99942e-06 -0.000204101 
5.47404e-05 -0.00017122 0.0235577 
3.64832e-05 -0.000435566 -1.73385e-05 
2.1001e-05 -0.000207041 -0.00090366 
1.33718e-05 -0.000152757 -0.000147223 
0.000561698 0.00390696 0.0321841 
0.00067103 -0.00490145 0.281441 
-0.000504559 0.0372869 0.101748 
0.0226481 0.0245668 0.105486 
0.0357613 0.0828045 0.11655 
-0.000884459 0.00135732 0 
0.000372972 -0.0021992 0 
0.00282977 0.00174241 0 
0.00192017 -0.00442123 0.000368885 
0.000298367 -0.00015948 0 
-0.000337393 0.000166458 -0.000509201 
0.000127047 -0.000162188 0 
-4.02658e-05 2.15225e-05 0 
-0.0228414 0.0140094 0 
0.0389469 -0.0315798 0 
0.0323942 -0.000693316 0 
0.080239 -0.0256086 0.0928097 
-0.000121842 -9.04325e-05 -0.000416809 
-2.68914e-05 -4.21662e-05 -0.00174953 
-0.000653035 -0.000437398 0.0012958 
-0.000581326 -0.00128785 0.0295816 
-4.09067e-05 -4.86086e-05 -0.000425643 
0.000171154 0.00015647 0.000453108 
-5.7194e-05 -4.60204e-05 2.59701e-05 
-4.85639e-05 -0.000120678 0.0231751 
4.79241e-06 1.23279e-05 0.000789134 
0.000297861 0.000573003 -0.000941964 
0.000686295 -0.000179929 -0.00156485 
-0.000428164 8.91548e-05 -0.000384161 
-8.03227e-06 2.63434e-05 -0.000183355 
1.76031e-05 -0.00013527 0.000144325 
-1.16065e-05 0.000198194 0.00026685 
0.00013372 -0.00011622 0.0277071 
-8.71424e-06 -1.91419e-05 0.0248117 
0.00013163 0.000102504 0.000156305 
-0.000101568 -9.4437e-05 0.00031369 
-2.98172e-05 -1.2258e-05 -0.00034568 
-0.00729091 -0.0101153 0 
0.00607825 -0.00617038 0 
0.00739029 0.0129846 0 
0.0093041 0.0261707 0.0127355 
-0.00101432 -0.00614881 0 
0.00716641 -0.00354883 0 
-0.00986862 0.0107203 0 
0.017068 0.00184343 0.0129298 
-3.01552e-05 8.83894e-05 0.000111758 
2.68833e-05 -0.000128969 0.000409201 
6.01373e-06 1.66531e-05 -0.000369965 
-4.51011e-05 1.16008e-05 0.0246425 
-0.000100575 -4.82657e-06 -0.000187065 
-0.000116704 -1.22212e-05 2.6769e-05 
0.000270555 1.57484e-05 0.000401401 
-6.07323e-05 -0.000108211 0.0301369 
-0.0421563 0.00574771 0 
0.0424959 -0.0236793 0 
-0.0332835 0.0335747 0 
-0.0745031 0.0234836 0.0899582 
0.00732269 0.000743758 0 
-0.00330339 0.013074 0 
0.00943987 -0.0122156 0 
-0.0154891 0.0203051 0.020451 
-0.000633862 -0.000201769 -0.000315987 
-0.000638453 -0.00046145 0 
0.00048137 0.000146022 0 
0.00051363 0.000155808 0 
0.000544396 0.00015876 0.000212503 
-0.000721751 -0.000218941 0 
-0.000662743 -0.000201041 0 
0.00206078 0.000419227 0 
-2.66658e-05 2.36725e-05 -4.56202e-05 
-0.000191405 0.000149062 0.000204594 
0.000225497 -0.000192737 0.00019583 
-0.00010842 -0.000134458 0.0294084 
-0.00143984 0.00130657 0 
-0.00144909 -0.000786614 0 
0.000598568 -0.00206586 0 
0.00755007 0.000646122 0.00461819 
-3.86543e-05 -0.00083286 0 
-0.000132014 0.000435193 0 
-0.000448664 0.00147905 0 
0.000533422 -0.00170482 -0.00064761 
-6.62896e-05 0.000136525 0.0275258 
-0.000151851 -1.00572e-05 0.000180419 
0.000200898 2.56539e-05 0.000216085 
-1.84478e-05 -4.17443e-06 -8.68244e-05 
-0.000130634 -2.69038e-05 0.0204835 
-5.84237e-05 -0.000100347 0.00016945 
6.80547e-05 0.000139645 0.000233185 
4.46659e-05 7.20212e-05 -0.000218402 
0.00140419 -0.00088816 0 
-0.000269016 0.000503294 0 
-0.000105935 0.00019819 0 
0.00022426 -0.000385141 -0.000512245 
0.0345714 -0.00800934 0.112774 
-0.0178905 -0.0074746 0.271336 
0.0164413 0.0115724 0.140243 
0.095204 0.0380672 0.11287 
0.00225182 -0.000551781 0.00523005 
0.00017964 -1.00357e-05 -0.00394904 
-0.00200773 0.00046689 -0.00144053 
-0.0104664 -0.00373532 0.0152231 
-0.00685887 -0.0152053 0 
0.0109954 0.0147422 0 
-0.00345885 0.00634517 0 
0.00305125 0.0251376 0.0205268 
0.000455607 -0.0071478 0 
0.00798123 0.00643505 0 
-0.00857486 -0.00694043 0 
0.0386599 0.00444297 0.00894596 
0.00010182 -4.66724e-05 -0.000215813 
-0.00028038 0.000137532 0.000343419 
0.000149762 -8.26661e-05 7.28489e-05 
-5.76428e-05 -4.71528e-05 0.0261196 
-2.07187e-06 1.87174e-07 -4.6918e-05 
-0.000188876 -0.000242528 0.000214233 
0.000225222 0.000261495 0.000223855 
0.000107241 -0.000164974 0.0316572 
0.000241951 0.000297254 4.21493e-05 
-0.000233032 -0.000265713 0.000315536 
2.75134e-05 3.02999e-05 -5.58035e-05 
-0.000170313 1.60463e-05 0.0296588 
0.00648879 -0.00849473 0 
0.00855761 0.0108907 0 
-0.00443259 -0.011372 0 
0.00510432 0.0300813 0.0162515 
-0.000110522 0.000273651 0 
0.000481638 -0.000146103 0 
-9.51727e-05 2.88703e-05 0 
-0.000187039 8.14882e-05 -0.000827517 
0.000137577 -7.20874e-05 0.0277879 
0.000198394 0.000104815 3.08762e-05 
-0.000344879 -0.000198338 0.000351723 
0.000106884 6.16429e-05 -0.000113387 
-0.000162173 -1.59727e-05 0 
-0.00121463 -0.000119631 0 
0.000672695 7.29205e-05 -0.000228978 
0.000617165 0.000957365 0 
-0.00139852 -0.000159516 -0.000747951 
-0.000382353 -0.00127642 0 
0.00024606 2.42348e-05 0 
0.00109039 0.000107394 0 
5.6471e-05 0.00018367 2.28978e-05 
-3.92506e-05 -0.000177713 0.000444471 
0.000183151 6.12361e-05 0.0295396 
-2.98134e-05 -7.96765e-05 -0.000171133 
0.000228195 -0.000332446 -0.00129657 
-0.000170543 0.000207807 0 
-0.00062363 -0.00115132 0 
-0.000416069 0.000506981 0 
-9.26007e-05 -0.000173244 0 
-0.000357016 -0.00066793 0 
0.000151914 0.000293618 -0.000141816 
-3.96313e-05 0.000926669 0 
0.000119302 0.000223198 0 
5.6256e-05 -0.00015986 0 
-0.000262957 -0.00053959 -0.000718052 
0.000459504 0.000859672 0 
-0.00972642 -0.0371612 0 
0.00283232 0.0409602 0 
-0.0292079 -0.0377208 0 
-0.0330425 -0.0638706 0.121964 
0.00118097 0.00143881 4.32434e-06 
-0.00105236 -0.00128231 0 
-0.000765444 -0.000932696 0 
0.00129329 0.00109357 0 
0.00259698 -0.000943677 0 
-0.00133498 -0.00162667 0 
-0.000318733 -0.000397373 -0.000189806 
0.000989684 0.00120593 0 
0.00012656 -0.00128498 0 
-6.32767e-05 0.000594991 -0.00017219 
-4.46129e-05 0.000452963 0 
-0.00146426 -8.54654e-05 0 
-6.40946e-05 0.000269897 0.0265076 
-0.000290187 -0.000147615 0.000188317 
0.000214931 0.000122778 0.000198388 
3.8268e-05 2.03608e-05 -2.35981e-06 
-0.000105516 -0.00107132 0 
0.00129019 0.000278476 0 
-2.49163e-05 -0.00025298 0 
9.34623e-05 0.000769331 -0.000647467 
2.98568e-06 -6.43689e-06 -0.000124666 
1.18346e-05 0.000166966 0.000158779 
-2.21357e-05 -0.00015801 0.000226383 
-0.000157927 -1.19099e-05 0.0247454 
-0.00104854 0.000103272 0 
0.00117109 -0.000115343 0 
0.000648879 0.00300221 0 
-0.000961433 0.000141607 -0.00187421 
-5.63738e-05 -0.000103653 -0.00168969 
0.000110898 0.00112597 0 
-5.74124e-05 -0.000582918 0 
-0.00298675 -0.000102176 0 
-0.00377343 -0.026497 0.109584 
-0.0238644 -0.0288184 0.0927725 
0.00136467 0.00415831 0.233383 
-0.0491309 -0.0673171 0.0375814 
0.00883499 -0.00624888 0.249061 
-0.0398871 -0.00277126 0.155887 
-0.0334822 0.0252506 0.0873608 
-0.07216 0.0363653 0.00949538 
-0.000527525 0.00066571 -0.000479795 
0.000345388 -0.000420856 0 
-0.00098543 0.00120075 0 
0.00202165 0.000675107 0 
-0.000357392 0.000108414 0 
-0.000101975 -0.000437196 0 
0.000294335 -0.000110378 -0.000656867 
-9.88338e-05 2.99809e-05 0 
7.89583e-05 -0.000803973 8.2774e-06 
2.15767e-05 -0.000219072 0 
-0.000168104 0.00170678 0 
0.00135602 -0.00110084 0 
-5.0242e-05 -0.00016227 3.08703e-05 
6.31126e-05 0.000251311 0.000397889 
-0.000143731 -0.000159719 0.0260019 
3.09776e-06 -1.23169e-05 -0.000207225 
0.000168681 -4.39728e-05 -0.000922533 
-0.000684985 6.74651e-05 0 
0.00146709 -0.000144496 0 
-0.000711327 -0.00251713 0 
-3.22025e-05 8.01756e-05 -0.000245443 
6.2805e-05 -0.000206692 3.28881e-06 
-4.20042e-05 0.000181303 0.00040464 
8.30599e-05 -9.6852e-05 0.0219211 
-2.40536e-05 0.00012448 0.0240921 
-0.000141473 1.83791e-05 0.000163718 
0.000201302 -1.44726e-05 0.000197186 
-5.92715e-05 2.28825e-06 -0.000130727 
-0.000132534 0.00010351 0.0212254 
-0.000157059 -5.08381e-05 0.0414801 
0.000168783 -6.02631e-05 0.0328309 
9.2131e-05 -0.000117815 0.0316294 
-7.47921e-06 0.000106609 0.0252067 
-0.00020671 0.00027029 0.000333929 
0.000143403 -0.000172713 3.67049e-05 
0.000114923 -0.000150857 -0.000196273 
-7.6165e-05 -2.97301e-05 0.0211777 
0.000187082 -2.02189e-05 6.56115e-05 
-0.000189023 9.69837e-06 0.000326376 
5.38569e-05 1.60107e-06 -0.000252701 
0.000837012 -0.000686918 0 
-0.0010065 0.000733342 -0.0020478 
-0.000133876 0.000109869 0 
-0.00136944 -0.0024495 0 
0.000143592 -8.53284e-05 -0.000215422 
0.000215317 -0.000110649 0.000111518 
-0.000277374 0.000158287 0.000251845 
-0.000133486 0.000129324 0.0238901 
-0.000155966 0.000291792 0 
-0.000382991 -0.000116064 0 
-0.000180218 0.000269912 -0.000902893 
0.000161691 -0.000302502 0 
0.00167414 -0.00691141 0.065664 
-0.00337158 -0.00623181 0.0779117 
0.0153023 -0.0127253 0.0758951 
-0.00200901 0.000148211 0.0564248 
-0.016296 -0.0197779 0.0668174 
0.0230766 -0.00366507 0.075482 
0.00932556 -0.000544828 0.0770131 
0.00816532 -0.0216909 0.0917483 
1.81689e-05 0.000205727 0.0351704 
4.40809e-05 6.48268e-05 0.0255 
0.000198988 4.04597e-05 0.046956 
-3.19228e-05 5.25051e-05 0.0285858 
0.000498901 -9.21942e-05 0.0351787 
-6.57234e-05 0.000126807 0.0468906 
-0.000421127 0.00032543 0.0254704 
0.000823281 -0.000752849 0.0462771 
-0.0041934 -0.0112121 0.0344086 
0.00938097 -0.00444321 -0.0039985 
-0.00326328 0.0244362 0.0201887 
0.0123238 -0.00193648 -0.00426004 
-0.0117908 -0.0161435 0.0340908 
0.0152868 0.0254049 0.0324193 
-0.00531258 -0.00176994 -0.0172458 
0.00967417 0.00360485 0.0317829 
0.000846753 -0.00024148 0.0325666 
4.12251e-05 0.000405285 0.0359116 
0.000959566 -0.00056882 0.0412728 
-0.000581973 0.000637206 0.00142571 
0.000854505 -0.000304812 0.0325583 
0.000695744 -0.000196095 0.0406573 
-3.66801e-05 0.00129558 0.0361233 
0.00081725 -0.00121587 0.0514005 
0.016302 0.0393758 0.025045 
0.0011112 -0.0130318 0 
0.00949113 0.0117747 0 
0.00183332 -0.0106069 0 
0.0169569 0.016293 0.0470894 
0.0168707 0.0234977 -0.00239565 
-0.00371674 -0.00757127 -0.010547 
0.00818912 0.00728791 0.0298709 
0.0125187 0.01418 0.0717948 
0.00602095 -0.000198194 0.0369135 
0.00191496 0.0175725 0.0410041 
0.00910364 0.0151087 0.0241608 
0.00396565 0.0131001 0.0651516 
0.0100029 0.0120414 0.0516956 
0.00275048 0.00396244 0.0312955 
9.71406e-06 -0.00451309 0.0386819 
0.0143019 -0.00348594 0.0214849 
0.0128518 0.011684 0.0427448 
0.000420228 0.00261576 0.0393458 
0.00809608 0.0157819 0.0218454 
0.0160147 -0.00457196 0.0236648 
-0.004837 0.0140029 0.0316939 
0.0149573 0.00271666 0.0463352 
0.00146393 -0.00193176 0.0469054 
0.0034501 -0.0157935 0.0784872 
-0.00351565 0.0082742 0.0737673 
-0.0128458 0.00206446 0.065861 
-0.000944821 -0.00270593 0.0925913 
-0.00683386 -0.00453928 0.0820022 
-0.00272279 -0.00310435 0.0639574 
-0.00220428 0.00195849 0.0720336 
0.00196862 0.00483209 0.0692301 
0.000386295 0.00124855 0.0798127 
0.0030751 -0.00109241 0.0716431 
0.00386619 0.00195211 0.0747536 
0.00173986 0.00157812 0.0729631 
8.5128e-05 0.0017879 0.0793866 
0.00330822 0.00174394 0.0748964 
0.00335742 -0.00186754 0.0722507 
0.000398104 7.34905e-05 0.0828896 
0.000541275 -0.00177318 0.0723474 
0.000235447 0.000322341 0.0480442 
3.76649e-05 -0.00231068 0.0742162 
-0.000304119 6.89347e-05 0.064543 
0.00101163 -0.00234554 0.0717439 
0.000464708 -0.00242565 0.0739577 
-0.000129091 0.000433397 0.0482742 
-0.000156429 -0.00125164 0.0490657 
0.000334367 0.000157221 0.0552147 
-0.000348741 -0.00193984 0.0747235 
0.000252771 0.000328289 0.0480137 
-0.000264133 -0.000192759 0.0645672 
0.000282683 -0.000142461 0.0547991 
0.000257269 2.40798e-05 0.0476092 
-0.000256151 -0.00164937 0.0751394 
0.000150813 -0.00133493 0.0474044 
-0.00206288 0.00143048 0.0673666 
-0.00427504 0.00767383 0.071572 
-0.000652574 0.00906562 0.0682007 
-0.00544849 0.00317221 0.0679696 
-0.00166463 0.00421279 0.0663165 
-0.00133471 0.0076667 0.0684052 
-0.00456618 0.0047589 0.0727568 
-0.000621664 0.0033557 0.0760224 
0.00063151 -0.00356854 0.0380378 
-0.000276375 0.00364421 -0.000472806 
-1.21932e-05 0.00200302 -0.00462801 
0.00924065 -0.00588355 0.0275618 
0.002687 -0.00189277 0.0351995 
-0.000428759 -0.000973276 -0.00329324 
0.000475281 0.00118383 -0.00062543 
0.000239692 0.000543557 0.00186305 
-0.01193 -0.00600826 0.000659164 
-0.00281403 -0.00268922 0 
0.00262054 0.00473426 0 
0.00380009 0.00368476 0 
0.0289985 0.0103053 -0.0354086 
-0.020942 0.00118283 0.0189345 
-0.0254142 -0.0132936 0.0204162 
-0.04973 -0.012181 0.0804911 
-0.00295141 0.00032697 0.0658859 
-0.00106846 0.00115291 0.0810973 
0.000217989 2.86518e-06 0.0803675 
-2.8695e-05 -1.85214e-05 0.074917 
0.000177003 -4.76445e-05 0.0803073 
-0.00157785 0.00095524 0.0808987 
-0.00217778 0.000423925 0.065928 
-0.00358977 0.000688977 0.074622 
0.00875035 0.0100539 0.0352813 
-0.000617715 -0.00290713 0.000947933 
0.00151162 0.0160859 0.0318254 
0.00168161 -0.0031177 -0.00555233 
0.0143597 0.0101166 0.0386584 
-0.00225141 0.0268196 0.0425671 
0.0003797 -0.0165159 -0.0148919 
-0.00453856 0.0176028 0.0688566 
0.00420522 0.00923814 0.245408 
0.0152031 0.0445448 0.202487 
-0.0968963 -0.00993447 -0.012625 
0.0171537 0.0356393 0.267273 
-0.0368911 0.0439849 0.0336996 
0.00916393 0.0250836 0.176976 
-0.0441098 -0.0209878 0.227701 
-0.038907 -0.0334521 0.102326 
0.0176272 0.0369055 0.0231687 
-0.00256622 0.0118682 0 
0.00403099 0.00443862 0 
-0.00282807 -0.010762 0 
-0.000954717 -0.0255933 -0.0496751 
0.0230793 0.0402791 0.0453803 
0.00609105 0.0533188 0.0467356 
0.0377512 0.053451 0.144143 
-0.000320163 0.000938866 0.00170058 
0.000177268 -0.000366267 0.0371727 
-0.000556251 0.000234492 0.0398606 
0.000129136 0.000318195 -0.000222941 
-0.000639465 0.000306292 0.0397497 
-1.39092e-05 -0.000143816 0.0356776 
6.41338e-05 0.000566753 0.00308705 
-0.00137619 -0.000186074 0.0554781 
-0.00167734 -0.00358403 0.053627 
0.00069057 0.000665726 0.000594725 
-0.000320583 -0.000142282 -0.00110527 
-0.0004225 -0.00127548 0.034318 
-0.00138268 -0.00306188 0.0528655 
-2.8358e-05 1.56618e-05 -0.000169872 
0.000164414 -9.26856e-05 0.00113723 
-0.000176358 0.000108761 -0.00197629 
0.0333192 0.0327444 0.117669 
0.0511232 -0.00736045 0 
-0.0621989 0.00441089 0 
0.0300977 0.0062244 0 
0.03234 0.00467207 0.103473 
-0.0143951 0.0117318 -0.0434421 
0.0244533 0.00605105 0.0336889 
0.0244911 0.0160491 0.0247259 
-0.0181444 0.0141629 0.0117606 
0.00199228 -0.00818812 -0.00504401 
-4.86931e-05 0.0328877 0.0257845 
0.00394396 -0.00310187 -0.00502118 
-0.00717925 0.00333127 0.023714 
-0.002439 0.034136 0.0233087 
-0.00976637 -0.00077293 -0.017372 
0.00915117 -0.0144695 0.0348699 
-0.00054439 -0.00041 0.0441994 
0.00163903 0.000948323 0.0628772 
0.000559303 0.00109894 0.0617108 
-9.10558e-05 -0.000186499 0.0591302 
-1.46767e-05 6.04045e-05 0.0432853 
0.000794632 0.000570834 0.0620033 
0.000978643 0.000606823 0.0637846 
0.000569482 0.000693982 0.0349164 
-0.000747879 -9.52148e-05 0.0363495 
-0.000253092 -5.55894e-05 0.0558569 
0.000127689 0.000137085 0.0322481 
7.04726e-06 0.000125498 0.0430552 
-0.000718931 4.67382e-05 0.0364549 
0.000300913 0.00014166 0.0321561 
-0.000336468 -7.40116e-05 0.0558873 
-0.000791681 -0.000452009 0.0477558 
0.00418929 -0.000328266 0.0013412 
-0.00581427 0.00994377 0.0160377 
0.00313745 -0.000192347 -0.00334159 
0.000483796 -3.88362e-05 0.00023017 
-0.00238816 -0.00248186 -0.0198997 
0.00899833 0.0203102 0.0361922 
-0.00239368 -0.00491163 -0.00775138 
0.0135133 0.0148677 0.0388078 
-0.000593748 4.85229e-05 0.0492386 
0.00014685 -0.00051001 0.03721 
-0.00043548 0.000948169 0.0385166 
0.000149951 -0.000560452 0.032309 
-0.000524928 -1.71778e-06 0.038635 
3.69553e-05 0.000330375 0.0376159 
-0.000194561 0.000316826 0.0481952 
-0.00146421 -0.000508203 0.0545139 
0.0143962 -0.0299084 0.107838 
-0.0736182 0.0134705 0.155471 
0.000245756 0.00299663 0.154278 
-0.0203331 0.0215827 0.0380076 
-0.0517739 -0.0811862 0.0669076 
0.0289124 0.0401874 0.163288 
-0.0178061 0.0181315 0.212469 
0.00519509 0.00566589 0.258423 
-0.00546579 -0.0127398 0.0648429 
-0.0118737 -0.00424804 0.0862675 
-0.0140189 0.00153162 0.0950091 
-0.00184425 0.00992872 0.0583024 
0.00171272 -0.0105547 0.0528365 
-0.0131996 -0.000372224 0.102235 
-0.0231873 -0.0035721 0.0887429 
-0.0103038 -0.0185005 0.0669232 
-4.67204e-05 0.000112837 0.0257345 
0.00019034 -0.00011767 0.00152269 
-0.000289892 0.000137135 0.0445412 
-0.000153146 0.000314938 0.0489643 
-0.000233193 -0.000147312 0.000843599 
0.000100445 7.6827e-05 0.00087972 
-0.000353757 -0.000240221 0.0453235 
0.000331915 0.00021869 -0.000363048 
-0.000277796 -0.000253207 0.00121334 
-7.44982e-05 0.0011412 0.0443358 
-2.03856e-05 -0.000413222 0.00150599 
0.000491248 -0.000106725 0.0494355 
0.00194641 -0.00170895 0.0339242 
0.000253621 6.72523e-05 0.000385403 
0.000560202 0.000152149 -0.000633716 
-0.000137028 -3.44504e-05 -0.000985487 
0.00166271 -0.00198549 0.0343904 
0.000247618 0.000374253 -0.000798306 
0.000587448 7.83024e-05 0.000241545 
0.000551406 -0.000607133 0.0385627 
-0.0112838 -0.0553527 0.00848381 
0.00910104 -0.0166035 0.0187089 
0.0433838 0.00773629 0.177489 
0.0687594 -0.00702506 0.110801 
0.0400719 -0.0349566 0.0223289 
0.00107459 -0.0295436 0.159566 
0.0297356 0.00675001 0.0290959 
-0.00705295 0.00763778 0.122548 
0.0459982 -0.00957938 0.267223 
-0.0878695 -0.0231399 0.153253 
0.0623939 0.00734563 -0.0327984 
0.0917102 -0.0168546 0.196901 
0.0294646 0.00747449 0.223419 
0.0529136 -0.0113455 -0.00297435 
-0.0193142 -0.0158222 0.184298 
-0.0106016 0.00182336 0.113861 
0.000523223 0.000641767 0.0346108 
-0.000317994 3.35962e-05 0.0446332 
0.000681551 0.000109085 0.0639214 
0.000171468 0.000379002 0.0431125 
4.75253e-05 0.000448622 0.0352148 
0.000810419 0.000535955 0.0640359 
0.000150681 -5.73982e-05 0.0438293 
0.000425423 6.90871e-05 0.040053 
0.0463013 0.0868566 0.203263 
-0.0202981 -0.0237867 0.242863 
-0.0149647 -0.029092 0.246357 
0.00266012 0.0164631 0.263565 
0.00817123 0.0348 0.15237 
0.0223638 -0.00330276 0.275874 
-0.0145057 0.00513802 0.267549 
-0.00675628 -0.0213601 0.0976614 
0.00287744 -0.00225653 0.0466059 
-0.0102759 0.031728 0.160188 
-0.0312656 0.00282419 0.0591886 
0.000449363 -0.00225194 0.110701 
-0.0202044 0.00711764 0.0801324 
-0.0127141 0.0280713 0.126341 
-0.000511989 -0.000633801 0.0718783 
-0.000141597 0.0281778 0.0169512 
0.000116302 -0.000997457 -0.00793191 
0.00228478 0.00615432 0.0313456 
0.00626887 0.0038832 0.0242571 
-0.000397352 -0.000286072 -6.77252e-05 
0.0100101 0.00583387 0.0210348 
0.0013739 0.00037166 0.0368321 
-0.00393734 4.6408e-05 -0.00723753 
0.0103061 0.0106692 0.0173462 
0.00277987 0.00183045 0.0752931 
0.00503269 -0.000666818 0.0673126 
0.00428428 -0.00225438 0.072617 
0.00267513 -0.000722499 0.0740535 
0.00549098 -0.000647381 0.0709493 
0.0044513 -0.00192657 0.0684244 
0.00270912 0.00224767 0.0750661 
0.00660937 0.000513662 0.067683 
-0.00965034 -0.00926194 0.0257737 
0.00176319 -0.00185671 0.00206918 
-0.00157768 -0.000756535 0.030048 
-0.000451504 -0.00158507 -0.00628339 
-0.0103112 -0.0133397 0.0351873 
-0.000624417 -0.00131417 0.0304717 
-0.00286324 0.00170152 -0.00183946 
-0.00503856 -0.00561607 0.038387 
0.0029632 -0.00341479 0.0710011 
0.00380497 -0.000179296 0.0681295 
0.00626101 -0.00355022 0.0715912 
0.00577148 -0.0025581 0.0676578 
0.00445389 -0.00216176 0.0732841 
0.00474142 -0.000673835 0.0673748 
0.0027304 -0.00344643 0.0711046 
0.00265569 -0.000805187 0.0734046 
0.00103149 0.0287218 -0.0289812 
-0.0407254 -0.0475329 0.0824161 
-0.00695038 -0.0634139 0.0566376 
-0.0293709 -0.0405703 0.177434 
-0.0123876 -0.0171134 0.0497171 
0.00117658 -0.0297932 0 
-0.0166433 -0.0036866 0 
0.00734292 0.0169253 0 
7.33027e-05 -0.00142864 0.083144 
-8.7508e-05 -8.59769e-06 0.0715693 
-4.07596e-05 -4.97562e-05 0.072676 
5.80553e-05 4.74005e-05 0.0804784 
-0.000104405 -0.00196924 0.0826205 
-0.000100641 0.000127182 0.0728186 
8.4107e-05 0.000100423 0.0717079 
0.000110784 -0.00287623 0.072031 
0.00201766 -0.00455298 0.0747346 
0.00212915 -0.00341631 0.0675575 
-0.00230454 -0.00190455 0.0515714 
-0.00067085 -0.000470086 0.0476513 
0.000483328 -0.00353531 0.0735208 
-0.000139053 -0.000959234 0.0522356 
0.000899297 -0.00434628 0.0673534 
-0.000386462 -0.00677977 0.0691474 
-0.000738736 -0.00226062 0.0473112 
0.000515904 -0.00154037 0.0518116 
0.00085077 -0.00325655 0.0675439 
-0.000478471 -0.000593159 0.0476244 
-7.32483e-05 -0.00185442 0.0474664 
-0.000511056 -0.00475942 0.0679162 
0.000909287 -0.000847327 0.0514381 
-0.000123452 -0.00546231 0.0714521 
8.70334e-05 0.000277485 0.000837819 
-8.06067e-05 -0.000293957 0.022935 
-8.04319e-05 -0.000611064 0.045377 
1.61189e-05 -7.84479e-05 -0.000268653 
-0.000360275 -0.00110743 0.0445786 
-4.33724e-05 -0.000240809 0.023054 
0.000368356 0.00113744 0.00128468 
-0.000365447 0.000290072 0.0263443 
0.0759146 -0.0058958 0.000906899 
0.00439637 -0.0348908 0.289685 
-0.0707687 -0.0449253 0.128252 
0.0510825 -0.0359557 0.136946 
0.0644144 -0.0394678 0.0537944 
-0.0520435 -0.0360298 0.118153 
0.0244427 -0.0147229 0.261194 
-0.00561766 0.00854285 0.167423 
-0.00385511 -0.0315774 0 
-0.0506019 0.0495104 0.038203 
0.00950898 -0.016584 0 
-0.0190704 0.0359965 0 
-0.0117791 -0.000676365 -0.0233204 
0.00278388 -0.0111636 -0.0104512 
-0.0399873 0.0324562 0.0585145 
-0.0268552 -0.0173369 0.0724555 
0.00232438 0.0109408 0 
0.0183469 -0.0379206 0 
-0.0540806 0.0380338 0.0627589 
-0.0207499 0.0400512 0 
0.00439549 0.00900306 0.000646343 
-0.0443142 0.057694 0.0443146 
0.0054643 -0.0280781 -0.00237078 
-0.0232827 -0.0360948 0.0853427 
0.00254695 -0.000481584 0 
-0.00166263 0.0015985 -0.00389111 
0.000124012 -0.000898875 0 
0.00186218 1.5936e-05 0 
-0.000444981 0.00156184 -0.00155992 
6e-05 -0.000855156 0.000664023 
-3.41171e-05 0.000486257 0.000967913 
2.31704e-06 -3.30238e-05 -0.000774172 
0.00197533 0.000478546 0.0726642 
0.00360175 0.0100066 0.0619089 
0.00689837 0.00626168 0.0668328 
0.0022085 0.00410807 0.0744104 
0.00912548 0.010295 0.0679997 
0.00550688 0.00838646 0.0606826 
9.42737e-05 -0.000945202 0.0725485 
0.00236745 0.00240767 0.0590279 
-0.000131117 2.61693e-05 0.000554094 
-0.000165417 -0.000118645 0.0478693 
1.06805e-05 -2.91569e-06 1.80054e-05 
5.30884e-05 -1.35637e-05 1.46831e-05 
-0.00102464 0.000384557 0.00125105 
-0.000606851 -0.000128844 0.000668686 
0.000934705 -0.000471853 0.0469714 
0.000612039 0.000630942 0.0366009 
0.00157059 0.000160082 0.0485663 
-0.000528735 -0.00215628 0.0527422 
0.000497451 0.00160875 0.000768175 
0.000237766 -6.2024e-05 0.0407661 
0.00165641 0.000354671 0.049585 
0.000564291 0.00174809 0.0016889 
-0.00056632 -0.00216133 0.0514592 
-0.00021114 -0.0012377 0.047603 
0.000848709 -0.000372685 0.0351256 
-0.000502152 0.000187337 0.000656027 
-0.00013735 0.000783966 0.000460876 
0.000104342 0.000213537 0.0401529 
6.67917e-05 0.000122281 0.0349601 
-0.000155768 0.000327945 7.92884e-05 
0.000109708 -0.000256806 0.000739641 
4.11203e-05 -9.22555e-05 0.000154078 
-0.00471207 0.0146184 0.0767108 
-0.0124259 -0.00591034 0.0600155 
0.00568631 0.0161622 0.0766127 
0.00326578 -0.00407902 0.0678518 
-0.00652175 0.0135035 0.078754 
0.00107418 0.0110574 0.0779163 
-0.014128 -0.0088725 0.0586369 
-0.0105654 0.0263082 0.0704369 
-0.000177517 0.000146827 0.000769666 
0.000114564 8.68196e-05 0.0254068 
-1.88958e-05 3.26883e-05 -0.000314853 
0.000131476 -0.000125405 -0.000182568 
-6.88248e-05 0.000241176 0.000613898 
-0.000116675 -5.26118e-05 -0.000174979 
5.6189e-05 6.77362e-05 0.0255093 
0.000175679 7.43181e-05 0.0290019 
-0.00559568 -0.0111775 0.234373 
-0.0379971 -0.0363892 0.089648 
-0.0560928 -0.00157615 0.129086 
-0.0144105 -0.0114659 -0.0554919 
-0.0380777 -0.00882119 0.198393 
-0.0216462 0.00503885 0.171553 
0.00333138 -0.012569 0.148113 
0.020954 0.0102522 0.240824 
0.000213746 -6.66029e-05 0.0283187 
-0.000197896 0.000257566 0.00107584 
0.000471289 -0.000241361 0.0369585 
-0.000156274 0.000284735 0.000356842 
0.000384083 -0.000202447 0.0372417 
-0.000715778 0.000435358 0.00106043 
0.000380203 -0.000126253 0.0282439 
5.38017e-05 0.000308127 0.0262625 
0.000193439 -0.000465349 -0.000320438 
0.00151511 -0.000457104 -0.000715404 
4.59121e-05 -7.85743e-05 0.000442872 
3.78416e-05 -0.000142278 -0.000896945 
0.00119886 -0.000641095 -0.000655388 
-0.000542917 -0.000224669 0 
0.00155256 -0.000180008 0 
-0.00033965 -0.00131622 0 
-0.00126122 -0.00137533 0.0631702 
0.000155329 6.3644e-05 0.0709198 
-0.000215775 -0.000142863 0.0793977 
-0.000108356 -0.000145661 0.0665099 
-0.00110857 -0.00157505 0.0633249 
-0.000225482 -7.26391e-05 0.0793314 
-5.62841e-05 0.000113315 0.0709284 
-0.00228296 -0.00108686 0.0711652 
-0.0515258 0.0352343 0.221423 
0.0212184 0.0221831 0.128316 
-0.0157854 0.0113988 0.145475 
-0.00221266 -0.019647 0.276478 
-0.0036783 0.028243 0.251303 
-0.034894 0.0475291 0.0963858 
-0.0100221 0.0555414 0.0767164 
-0.00853994 0.0229535 -0.0427957 
0.0034612 -0.00465948 0.00466867 
-0.00794505 0.00505063 -0.00924924 
0.0016447 -0.0381583 0.0579105 
-0.00334609 0.00180662 -0.0028145 
-0.0278345 -0.0715428 0.0804644 
0.00752728 0.0155757 -0.0263288 
0.0113913 0.00477431 -0.00105906 
0.00406424 0.0116275 -0.00722262 
0.109315 0.0285333 0.191387 
-0.0381645 -0.010257 0.252689 
0.0181419 -0.00372656 0.155474 
-0.0098698 -0.0164218 0.237229 
0.0340476 0.0113234 0.152457 
0.0514867 -0.0104511 0.158386 
0.00430082 0.00239353 0.27759 
0.00750747 -0.0672618 0.0568369 
0.000425127 -0.000440307 0.024035 
-0.000422562 0.000212052 -9.45244e-06 
0.000618063 0.000578451 0.0372892 
-0.000352117 -0.000498655 0.000906895 
0.000193182 3.26445e-05 0.0240639 
2.71596e-05 0.000104467 0.0366632 
0.000170078 -0.000196794 0.000249882 
3.49359e-05 0.000168478 0.0273578 
-0.0194978 0.0124084 0.024262 
0.00412014 -0.00209561 -0.00365959 
0.00350719 0.00104143 0.000131701 
0.0110297 0.0017022 -0.00675386 
-0.000185783 -0.000356539 -0.0013621 
0.0161514 -0.00702406 -0.0148582 
0.0110138 0.0246941 0.0378499 
-0.0708413 0.0389977 0.0771647 
0.00411883 0.00163172 0 
-0.0227937 0.00373706 0 
-0.0217462 0.0102033 0.0248437 
0.0204936 0.00766835 0 
0.0302019 0.0319086 0.0544788 
-0.0494038 0.0245179 0.0218337 
-0.0259128 -0.0150292 -0.0219047 
-0.0266861 0.0531771 0.11628 
-0.000210774 -0.000507686 0.0389057 
-0.00171707 -0.00135026 0.0626024 
-0.00259295 -0.00245546 0.0617553 
-0.000612856 -0.00134033 0.0522146 
-0.00217219 -0.00217808 0.0611454 
-0.00181038 -0.000970373 0.0637834 
-0.000512564 -0.00114424 0.0383063 
-0.000494998 -0.000109152 0.048168 
0.0080174 -0.0152779 0.00247237 
-0.0577817 -0.0147896 0.0245529 
-0.0194775 -0.0109678 0.0520319 
-0.0230139 -0.020864 0.0702145 
-0.00511197 -0.00321914 -0.00609024 
-0.0462442 -0.0160177 0.0633775 
-0.0270176 -0.0145598 0.0169307 
0.0141797 -0.00400529 -0.0224271 
0.000881023 -0.00225768 0.0322806 
0.00125327 -0.00127387 -0.00121243 
-0.00190875 0.00117078 0.0465184 
0.00276886 -0.00300978 0.0333655 
0.00133852 -0.00298518 0.0314187 
-7.79911e-05 0.000130542 0.0449708 
-0.000536358 -0.00050744 4.58168e-05 
-0.000214678 0.000369304 0.000393034 
-0.00107656 0.00115439 -0.000285041 
0.000110319 -0.000435434 0.0449302 
0.000200909 -0.000619562 -0.000237314 
0.00221125 -0.00156235 0.0329952 
0.0003625 0.000350997 0.00018542 
-0.000319502 -0.000308887 -8.77152e-05 
5.15694e-05 -0.000411916 0.0447637 
-0.00012896 -0.000123003 0.000230309 
0.128716 0.0105369 0.164746 
-0.0295259 0.0048424 0.279337 
-0.01808 -0.0118901 0.252072 
-0.0160289 -0.0106899 0.227839 
0.0777563 0.00746316 0.100601 
0.0121124 -0.0109299 0.289639 
-0.0134082 0.00405165 0.298728 
-0.0400241 -0.00446802 0.174459 
-0.000927768 -0.0711676 0.167779 
-0.0422913 -0.00323448 -0.0514124 
0.0151496 -0.0136242 0.0764404 
-0.0228572 -0.0458805 0.0408992 
-0.0376834 -0.0590042 0.121648 
0.0146347 -0.0269798 0.0728686 
-0.00857416 -0.00735722 -0.00757326 
-0.0318458 -0.0181175 0.0341727 
1.66351e-05 -0.0004074 0.0327654 
-0.000222505 0.000231945 -0.000205995 
-0.00127333 -0.00128269 0.0383926 
0.000420221 7.62749e-05 0.000553156 
0.00118039 0.00104961 0.033455 
-0.00247229 -0.00277937 0.037573 
-0.000392895 -1.18696e-06 0.000183631 
-0.00212829 -0.00137388 0.029806 
0.000133325 -0.000474763 -0.000573208 
-0.0016491 -0.00181823 0.0384278 
7.66211e-06 -4.57315e-06 -0.000556626 
-4.79067e-05 0.000135276 0.00102032 
0.000767055 -9.211e-05 -0.000500346 
0.00355598 0.00171609 3.25023e-05 
-0.0067477 -0.00466047 0.0377401 
-0.00292014 -0.00270779 0.0299978 
-0.00237488 -0.000155183 -0.00202738 
0.00188682 0.00177084 -0.000681024 
0.00448829 -0.0052641 0.0161916 
0.00137424 0.00146041 -0.000542962 
0.00183634 -0.00664241 0.0107984 
0.00326884 0.00133901 0.00035269 
0.000350541 -0.00025323 0.00117535 
-0.00331485 0.00225285 -0.0024567 
-0.000480421 -0.00220744 -0.00240126 
0.0028739 0.000194971 -9.72659e-05 
-0.0106395 0.0108134 0.0162566 
0.000431923 -0.0022507 -0.00188227 
-0.0082461 0.00651423 0.0192981 
0.00281228 0.00151655 -0.00183294 
0.000491936 -0.00305764 -0.00239249 
-0.000808878 -0.00193298 -0.00144293 
0.000246722 0.0011181 0.059509 
-0.000101937 -0.000167886 0.0429927 
-0.000360466 -0.000287435 0.0359757 
0.000283741 0.000196697 0.0585326 
-7.17391e-05 0.000744668 0.0599344 
-0.000359245 -3.58174e-05 0.0356605 
0.000319177 0.000121746 0.0426861 
-0.000263664 0.000637862 0.0362275 
-0.000416089 -0.000385554 0.0376515 
2.2373e-05 -3.17484e-05 9.52493e-05 
6.53595e-06 -8.83259e-06 0.000660067 
-8.84624e-05 0.000125481 -0.000450808 
-0.000305899 0.000114919 0.0371273 
0.000486913 -0.000232716 0.000592469 
0.000149048 -0.000164604 0.000145471 
-0.000692035 -0.000429031 0.0381825 
-0.0211031 -0.0160366 0 
-0.0276194 -0.00713578 0.026306 
0.00521321 0.0150264 0 
0.0130318 0.0171993 0 
-0.00804409 -0.00349162 -0.0196868 
0.0206634 0.0335948 0.0696075 
-0.0670906 -0.0102188 0.00618501 
-0.056547 0.00955752 0.0990277 
-0.00228053 0.00925924 0.0123351 
-0.000752821 -0.00300864 -0.00405587 
0.000300965 0.00143398 -0.000915336 
8.11613e-05 0.000353497 0.000117533 
-0.00529544 0.00913315 0.00874722 
0.000995414 0.00130329 -0.000325447 
-0.000613367 -0.0016368 -0.00186703 
0.00183175 0.000256266 -0.0020626 
-0.00198028 0.00166435 0.000658376 
-0.000539375 0.00230418 0.040512 
0.0048943 -0.00144928 0.0569371 
0.00108218 0.000741932 0.0520273 
0.000215347 -0.00575198 0.0738482 
-0.00696148 0.00623963 0.0595796 
0.0129293 0.000745007 0.0653511 
0.01289 -0.00419623 0.0794413 
2.99365e-05 0.0389728 -0.0139954 
-0.0452616 0.0283335 -0.0125426 
-0.0135835 -0.0194532 0.124116 
-0.00343725 -0.0319481 0.0586473 
0.00437756 0.000886837 0.0551196 
0.00182681 0.000493289 0.074121 
-0.0081702 -0.00165207 0.0574586 
0.00182041 0.000735328 0.0444979 
-0.0474039 -0.0315402 0.116767 
-0.0443298 -0.00725245 0.225755 
-0.0344148 -0.0151368 -0.0935305 
0.00121457 0.00802809 0.237065 
0.122313 -0.0688054 0.11908 
-0.0199718 0.00613296 -0.0373906 
-0.0547003 0.0607438 0.0885563 
0.0457475 -0.00719888 0.190367 
0.0214893 0.0883191 0.0955688 
-0.0491416 -0.0230337 0.0928435 
0.0118592 0.0234067 0.118457 
0.0177906 0.0139927 0.0256668 
-0.0044341 -0.00809053 0.068699 
0.00184311 -0.00284692 0.0778627 
8.70817e-05 -0.00839635 0.0707345 
-0.00122261 -0.00674835 0.07398 
-0.00550467 0.0511518 0.176521 
0.0824479 0.0120195 0.131732 
-0.112516 0.00121077 0.0518747 
0.00791398 0.0349085 0.159875 
-0.0330794 -0.00270561 0.222988 
-0.054784 0.00238639 0.120098 
-0.0421664 -0.0188569 -0.100671 
0.00198401 0.00860717 0.241005 
0.00252305 0.00336281 0.057049 
0.00223323 -0.00250847 0.0553777 
0.00455797 0.00696867 0.0751291 
-0.000701003 -0.00257547 0.0327906 
-0.000452889 -0.0104945 0.0414505 
-0.000207583 -0.00771003 0.0236417 
-0.00116979 0.00360687 0.0463633 
0.000786239 0.000497868 0.034303 
0.0188592 0.024536 0.233501 
0.00545894 0.00895859 0.242039 
0.00554507 -0.00422533 0.128635 
-0.0307982 -0.105448 0.222915 
-0.00329366 -0.0079215 0.0688411 
-0.00543474 -0.00562945 0.074602 
-0.0105674 -0.00821971 0.0696541 
-0.00162909 -0.00286346 0.0678972 
0.00228476 0.000765369 0.0556257 
0.00136171 0.000558268 0.0415381 
-0.000613179 0.000445278 0.00137683 
0.0011328 -9.46025e-05 0.035925 
-0.00471927 0.00156802 0.065796 
-0.0044905 -0.00279382 0.0416413 
0.00292643 0.00832997 0.0717903 
-0.00257489 0.011485 0.0819072 
-0.00161474 0.00362562 0.0809988 
-0.00258027 0.00152016 0.0729651 
-0.00513764 0.0071663 0.061726 
0.00198106 0.00427755 0.0772341 
-0.0090816 -0.000823132 0.0560304 
0.0022675 9.07121e-05 0.0748208 
0.00540578 0.000281669 0.0550042 
0.000174308 0.00137776 0.0657293 
-0.0423919 -0.0373752 0.0764012 
-0.00506352 -0.0180124 0.0728764 
-0.0559547 0.01632 0.0335607 
0.0406277 -0.0370074 0.0494658 
-0.00300803 -0.00638028 0.0691494 
-0.00189026 -0.00175428 0.0668563 
-0.00327453 -0.005239 0.0645 
-0.000852832 -0.00314534 0.0635142 
-0.0163407 -0.0369106 0.00531755 
-0.0258375 0.000199317 0.049078 
0.0198647 -0.0130838 -0.0270181 
-0.025129 -0.0131916 0.0823368 
0.00274424 0.000529855 -0.00299865 
-0.00113668 -0.00221341 0.0481753 
0.00443737 0.000660949 0.045789 
0.000296588 0.00150192 0.0395008 
-0.00523908 0.00713138 0.064311 
-0.0023434 0.00241817 0.0722551 
-0.00152143 0.00367445 0.07873 
-0.00795585 0.00787298 0.0709441 
-0.00255703 -0.00621336 0.0693266 
-0.0046763 -0.00507571 0.0650717 
-0.0025431 -0.00282627 0.056691 
0.000320228 -0.00338935 0.0628592 
-0.013481 -0.00534176 0.0562463 
-0.0135843 0.00882826 0.0698071 
-0.00967445 0.00123426 0.0721664 
-0.00843123 0.00403496 0.0607268 
-0.000228893 -1.37742e-05 -7.58907e-05 
-0.000808384 0.000541607 0.042688 
0.00291705 0.00160715 0.0434369 
-0.00215086 0.000345241 0.0405518 
0.000872501 -0.0106125 0.055721 
0.000136183 0.000504043 0.0762121 
-0.000845942 0.00421701 0.0478523 
-0.000137912 0.000883321 0.035715 
-0.00308754 -0.00743484 0.0676223 
0.00101993 -0.00337338 0.0785293 
-0.00252875 -0.00746365 0.0750297 
-0.00128511 -0.00262306 0.0666225 
-0.00463487 0.00230865 0.0740569 
-0.00355895 0.00373429 0.0715071 
-0.00764528 0.00363462 0.0673 
-0.00224116 0.000156535 0.0796635 
-0.0109749 -0.0159117 0.0911385 
-0.0360979 0.0152081 0.0514227 
-0.0157247 -0.0056104 0.075168 
-1.73753e-05 -0.0060806 0.0682908 
0.00471618 0.0130926 0 
0.0318441 -0.0165295 0 
-0.041248 0.0054996 0 
-0.0118474 0.00675429 0.0399722 
0.00914663 -0.00358525 -0.0128046 
0.0357401 0.00991756 0.089375 
0.0113334 -0.0163204 0.0464304 
0.0120106 0.00290126 0.0225064 
0.00337336 0.000346483 0.0413351 
-0.00285227 0.00221391 0.0432402 
-0.00087642 0.000752834 0.043184 
0.0038414 0.00119215 0.0583137 
0.000463291 0.000697131 0.000330857 
-0.000698193 -0.000707918 0.0326581 
-0.00161332 -0.00192872 0.0503709 
-0.000323809 -0.00114296 0.0398433 
0.00333044 0.00486492 0.0645746 
-0.0308017 -0.00887177 0.0477163 
0.0266913 0.000947627 0.0411315 
0.00574795 -0.000667364 0.032069 
0.00350382 -0.00306355 0.058866 
-0.0227613 -0.0119371 0.0477309 
-0.010913 0.00447064 0.0546099 
0.0134294 0.00391049 0.0313702 
-0.0221807 -0.0262084 0.0489668 
-0.0326887 -0.0281633 0.036161 
0.00323006 0.00116189 0.116902 
-0.0133506 -0.0346421 0.103314 
-0.00545861 0.00733666 0.0640413 
-0.00803775 0.00784639 0.0684525 
-0.00133432 0.0035532 0.0802045 
0.00235284 0.00416024 0.0758387 
-0.0172939 -0.00652456 0.0326282 
0.00488574 0.00860292 -0.00643325 
-0.0204139 -0.00323233 0.0650795 
0.000527065 0.0133571 0.0261868 
-0.000408167 -0.000392995 -0.000222826 
0.000898052 0.000833984 0.0389239 
0.000743125 0.00084742 0.044313 
0.000516531 0.000954169 0.034058 
-0.00784367 -0.00224606 0.0696796 
-0.00952916 0.00252999 0.0661916 
-0.0176374 0.00183947 0.0609259 
-0.0169191 0.000516077 0.0738511 
-0.00614828 0.0360713 0.0965214 
-0.00596936 -0.0347536 0.151985 
0.0365946 0.0368136 0.00489211 
0.0314616 -0.0696398 0.0508573 
-0.00164329 0.00289541 -0.00240239 
0.00249362 -0.00187842 0.0427364 
-0.00083036 -0.000435532 0.0499301 
0.0100235 -0.00997593 0.0296712 
0.000806781 0.00697818 0.0697033 
-0.00125971 -0.00179033 0.0506393 
0.000387189 0.00634829 0.069284 
-0.00151559 0.0139168 0.0732843 
-0.00114712 0.0016815 0.0705613 
-0.00938933 0.00884044 0.0667373 
-0.00196994 0.00153579 0.0490933 
-0.00311097 0.00568884 0.0715313 
0.0557552 -0.0463907 0.0996196 
0.0192377 0.00671237 0.00355313 
0.0548194 -0.0236545 0.16436 
-0.0477884 -0.0390907 0.0310545 
-0.00755776 -0.00142487 0.0604809 
0.00391044 -9.14562e-05 0.0533494 
0.0017523 0.0012419 0.0438084 
-0.00030151 0.000309703 0.0325509 
0.00403256 0.00575904 0.0663592 
-0.00380173 -0.0124392 0.051195 
-5.58571e-05 0.0183667 0.0723072 
-0.005724 0.0179965 0.077117 
-0.0077902 0.0207996 -0.015988 
-0.0112694 -0.00585017 0.0968312 
0.0283902 -0.00524943 -0.0169379 
0.00502071 -0.0185151 0.0818895 
-0.0102266 0.00458368 0.0543788 
-0.0140367 -0.00692267 0.0443638 
0.00107865 -0.00331815 0.0596653 
-0.0040729 -0.00350396 0.0739623 
-0.00247786 -0.00723107 0.0688726 
-0.000859323 -0.00165386 0.0701903 
-0.00432558 -0.00638017 0.0750644 
-0.00524962 -0.00256244 0.0669216 
0.00860268 0.0120585 0.0569347 
0.00147619 0.00931306 0.0750924 
-0.00401552 0.0166364 0.0700174 
0.00391451 0.00922247 0.0569666 
0.000963382 0.000427161 0.0435145 
0.000575489 0.000908544 0.0336954 
0.000600065 0.00150901 0.0397671 
0.00245666 0.00143122 0.0596808 
-0.0120717 -0.00030058 0.05586 
0.0153652 0.00978055 0.0300821 
-0.020658 -0.0160019 0.0503093 
-0.0177837 0.00158687 0.0235908 
0.00217383 -0.0035508 0.0791 
-0.0041002 0.00664866 0.075493 
-3.29118e-05 0.000694034 0.068363 
8.52494e-05 -0.000320569 0.0823142 
2.26993e-05 -0.00403511 0.0793312 
-0.00300109 -0.00726334 0.0676628 
0.000772158 -0.00809103 0.0703389 
1.79214e-06 -0.0022083 0.0651644 
0.00454158 -0.00531122 0.0708427 
0.00171482 -0.00264112 0.0740422 
0.000775246 0.000120396 0.0474369 
0.0028733 -0.000777095 0.0428135 
-0.017725 -0.023967 0.110517 
-0.0109164 -0.0135456 0.0620707 
-0.0231711 -0.00998771 0.059441 
-0.018799 -0.00879627 0.0355431 
0.0571869 0.00751887 0.0318618 
0.0592683 -0.00707797 0.111069 
0.0256075 -0.00716911 0.0616058 
-0.004338 0.00584662 0.00109307 
0.00230505 -0.0113553 0.0538017 
0.00420264 -0.010452 0.0631483 
-0.0020078 0.00472654 0.0495594 
-0.000930843 0.00225052 0.0757095 
-0.00736543 0.0032096 0.0679536 
-0.00502327 0.00765648 0.0707875 
-0.0045672 0.00259553 0.0720389 
-0.010353 0.00701748 0.065387 
0.00301021 -0.00151938 0.00104316 
-0.00717893 0.00459596 0.0206821 
-0.00948452 0.00558755 0.0420744 
0.00158949 -0.000579522 0.0388025 
0.00999204 0.0060322 0.0702972 
-0.000213237 0.00523828 0.0575774 
0.00906548 -0.00361785 0.0716792 
0.00699391 -0.00523875 0.0662508 
-0.000480872 0.00645571 0.0773503 
-0.00274609 0.00704711 0.07317 
0.000843294 -0.00393509 0.0813909 
-0.000441079 -0.000799972 0.0828439 
-0.003015 0.00714217 0.0727163 
-0.000690678 0.00648742 0.0778568 
0.00116271 -0.00403671 0.0817008 
-0.000326049 0.00115692 0.0688018 
0.00187475 0.00173948 0.0563351 
0.00128759 0.00384451 0.075263 
0.0010113 0.00170142 0.0382289 
0.00200565 0.000271484 0.0328726 
0.0472685 -0.0282582 0.159006 
0.0365238 0.018478 0.0492869 
0.0572163 0.00291307 0.140877 
0.01554 0.0118478 0.210033 
0.0272277 0.0442151 0.0668739 
0.00391576 -0.0380158 0.0157492 
-0.0813379 0.00188231 0.0934785 
-0.0693253 0.0100371 0.159761 
-0.00294287 -0.001896 0 
0.000111914 0.00656646 0 
0.0149675 0.00352052 0 
-0.0303395 -0.00523039 0.0173986 
-0.00201057 0.00535759 0.0566586 
0.00882941 -0.000534913 0.0729598 
0.00953933 -0.000995961 0.0699286 
0.0139496 -0.00197419 0.0761663 
0.000200389 0.0071277 -0.0238109 
0.0373429 0.00989392 0.0914194 
0.00258463 -0.00249677 -0.0114833 
0.0167158 0.00291327 0.0293036 
0.00723507 0.00402675 0.0700411 
-0.00383215 -0.000468126 0.0405342 
-0.00050028 0.00480282 0.0545702 
0.00947718 -0.00318967 0.0696732 
0.00378167 -0.00570508 0.0808749 
0.0254354 -0.00177578 -0.00400919 
-0.0237317 0.0152724 -0.0220592 
0.0863455 -0.0254274 0.17737 
-0.016296 -0.00588205 0.0744226 
-0.00717095 0.00994629 0.0788588 
-0.000810839 -9.57324e-05 0.0390011 
0.000678339 0.0169108 0.0805101 
-0.0668466 -0.0363832 0.141962 
-0.0358967 0.000475251 0.218874 
-0.0667818 0.00181085 0.128438 
0.0302599 -0.000448311 -0.178361 
-0.00212197 0.00139152 0.123948 
-0.0327463 -0.037477 0.0212036 
-0.0366387 -0.00863574 0.056869 
-0.0147653 -0.0273109 0.116908 
0.00181192 -0.00344893 -0.0032756 
0.0130824 -0.00620366 -0.00511362 
-0.00112026 -0.00988079 -0.0194037 
-0.000406434 0.0594383 0.0714087 
-0.00841916 0.0036295 0.0685958 
-0.00738438 -0.0022028 0.0702738 
-0.0104285 0.00402414 0.0671634 
-0.0111645 0.00763385 0.0627212 
-0.0168028 -0.0210585 0.103309 
-0.00755426 -0.015443 0.0577989 
-0.0110303 -0.0129816 0.0589267 
-0.0182016 -0.0104474 0.0463209 
-0.00692456 0.00459064 0.0707643 
-0.00422425 0.00622871 0.0652927 
0.00196162 -5.70536e-05 0.04323 
-0.00413809 0.00291304 0.069639 
0.0080819 0.00878243 0.248524 
-0.00236014 -0.0231039 0.141729 
0.0260894 -0.00299256 0.175959 
-0.00499435 -0.0599004 0.184729 
-0.0198053 0.034072 0.0613437 
-0.00192462 -0.00149675 0.0625162 
0.00128199 0.00968843 0.00704594 
-0.00693779 0.011506 0.0167349 
-0.00122527 0.00276129 0.0790326 
0.000208081 0.00598843 0.0771688 
-0.000110218 0.00240739 0.0751526 
0.000911784 0.00223433 0.0833579 
0.00053719 3.71727e-05 -0.000724696 
-3.85699e-05 8.66895e-05 -0.0015044 
-0.00170755 0.000650323 0.0433637 
-0.0019315 0.000200442 0.0404472 
-0.000435873 -0.000675983 -0.000955946 
-0.00168784 -0.00134451 0.051116 
0.000277466 0.0003765 0.000970554 
0.000850348 0.000138938 0.0408999 
-0.00793395 0.00652243 0.0506163 
0.00137884 -0.000728564 0.0742245 
0.00292368 -0.00226827 0.0537093 
0.000900762 -0.000377878 0.0376544 
-0.00507561 -0.00592675 0.0693942 
-0.00194906 -0.00370932 0.066445 
-0.00936641 -0.00757284 0.0718472 
-0.00482381 -0.00616297 0.0650254 
0.0350125 -0.0513836 0.0987119 
0.010752 -0.00460212 -0.0523792 
0.0627173 -0.0164851 0.138962 
-0.0189064 -0.0367128 0.205338 
0.000873189 -0.0106039 0.0557599 
0.000277076 0.00345248 0.0491623 
0.00013576 0.000566253 0.0763585 
-0.000163372 0.00106286 0.0355308 
0.0153689 -0.00124197 0.0425038 
-0.0103012 -0.000761024 0.0472366 
-0.000522703 -0.00470108 0.060776 
0.00775068 0.000244783 0.0794128 
0.00865404 0.00547329 0.0434283 
0.00106672 0.000513649 0.0305259 
0.000126583 -0.000381906 0.0690951 
-0.00230954 -0.00132191 0.0580813 
-0.00012759 0.00580739 0.080337 
0.000289749 -2.2077e-05 0.071947 
0.000681888 -0.00340455 0.0799526 
-0.000292704 0.000934068 0.0676378 
-0.0016844 0.00433633 0.0494495 
-0.000635348 0.00156609 0.0748798 
0.00390732 -0.00960537 0.0643393 
0.00056425 0.000323045 0.069392 
-0.00051636 0.000290548 0.000718751 
0.00280011 -0.00235972 0.0480973 
0.00127519 -1.82798e-05 0.041962 
4.00597e-05 0.0021899 0.0304911 
-0.0124507 -0.0406748 0 
-0.0162349 0.0395311 0 
0.00383033 0.0543619 0 
-0.045935 0.0304577 0.163617 
0.0130435 0.00380295 0.0706182 
-5.03363e-05 -0.00187769 0.0561423 
-0.00521554 -0.00470343 0.0676594 
-0.0022064 -0.00263458 0.0404906 
0.0363313 0.00833176 0.0349265 
-0.0258031 0.00846321 -0.0258121 
0.097789 0.00536465 0.13958 
-0.00851533 -0.00414072 -0.0231672 
-0.0462651 -0.0346305 0.10853 
-0.0444511 0.0112904 -0.022729 
0.000541506 -0.0173421 0.0845684 
-0.0170008 -0.0254583 0.184883 
-0.00118385 0.00277874 -0.0034716 
0.000300002 -0.010263 0.0633722 
-0.000241216 0.00401379 0.00102951 
0.00307667 -0.0157796 0.0304027 
-0.00142626 0.00412573 -0.00580557 
0.00067406 -0.00984422 0.0682741 
0.0027653 0.00194349 0.0446044 
0.00579129 -0.0169516 0.0405262 
-0.0387288 0.019598 0.113094 
-0.00625787 0.032511 0.188267 
-0.0520687 0.0461968 -0.0311224 
-0.021333 0.00732474 0.203479 
-0.000978373 -0.00145798 0.0696593 
-0.00333339 -0.00506782 0.078117 
0.000612024 -0.000781842 0.0719695 
-0.000589343 -0.00470898 0.0640057 
-0.00110254 0.0114208 0.0334482 
0.0579901 0.0372881 0.135111 
0.0109239 0.0175362 0.0513497 
-0.00161206 0.00333974 0.000782718 
0.000108028 0.000653807 0.0495537 
0.000162455 0.00280643 0.0741757 
-0.00148534 0.00758569 0.0683213 
0.000576052 0.00509821 0.06866 
-0.000680855 -0.00563601 0.0205431 
0.000919377 0.00078356 -0.000916402 
-0.000226683 0.0014947 0.049279 
0.000685522 -0.000151031 0.0354019 
-0.00682692 0.00632332 0.0713876 
0.00239111 0.00497491 0.0733235 
-0.00717843 0.00881594 0.06194 
-0.00556749 0.0116198 0.0669613 
0.00125799 0.000451809 0.064561 
0.000312319 0.00225156 0.0558369 
0.00857901 0.00615227 0.0693419 
0.00495535 0.00518243 0.0715221 
-0.00122909 0.0025385 0.078876 
-0.00410442 0.00386428 0.0698475 
-0.00398289 0.00216436 0.0760643 
-0.0021946 0.000465105 0.0804884 
-0.000293603 -0.00139974 0.0356674 
-0.000754444 0.000789804 0.032779 
-0.00201978 0.00141901 0.0510805 
0.0009553 0.000585742 0.0613329 
-0.00208422 -0.00183738 0.0674076 
-0.00161459 -0.00392214 0.0563495 
-0.00291857 -0.0049917 0.0632454 
-0.00109177 -0.00325691 0.064217 
-0.00829854 0.0086809 0.0637764 
0.00228857 -0.00183395 0.074726 
-0.0092605 0.00813305 0.0498873 
0.00156295 -0.00121636 0.0380832 
-0.000258094 -2.88985e-05 8.80502e-05 
0.00170818 0.00112694 0.0554296 
-0.000315049 -0.000158045 0.000948546 
0.00168091 0.000298157 0.0370483 
0.00114614 0.00168448 0.0834034 
0.000166837 0.000316858 0.0814469 
0.000370417 -0.00015578 0.085056 
-0.000128518 0.000366806 0.0829779 
0.0015248 0.000822308 0.0743323 
0.00179585 -0.00341874 0.0799356 
0.000934457 -0.00168897 0.0785655 
0.00228101 0.00071485 0.0777886 
-0.000926129 -0.0130529 0.0350088 
-0.000835496 -0.0131528 0.0414081 
-0.000284904 -0.0112017 0.0255874 
-0.000957344 0.00877917 0.0439419 
0.00202663 0.00996385 -0.0230708 
0.0333697 -0.00373552 0.0401604 
-0.0303011 -0.00269906 0.0451009 
-0.00123627 0.0012899 0.0342306 
-0.00590499 -0.0111861 -0.0250933 
-0.00756909 0.0143932 0.0461524 
-0.0126279 -0.0213956 0.0666107 
-0.0161372 -0.027247 0.0434408 
0.000872008 -0.00106018 0.0476248 
0.00193319 -0.000832237 0.0420102 
0.00272411 -0.00228013 0.0748777 
0.000380163 -0.000169049 0.0372694 
0.00100949 0.000404747 0.000488348 
-0.00401589 -0.00274109 0.0518462 
0.00174575 0.00135537 0.0418266 
0.000786766 0.00126802 0.0416374 
-0.00319278 -0.00485555 0.0642797 
0.00167846 -0.00842177 0.0297187 
0.00092995 -0.00239569 -0.00629908 
-0.000801037 0.000366516 0.0418817 
0.000728875 0.000191779 0.000794299 
-0.00319312 -0.00421862 0.0629508 
0.000589486 -0.00275089 -0.00366212 
0.000287639 -0.000959763 0.0385936 
-0.0122387 0.0449879 0.0209713 
-0.0349086 -0.000564151 -0.0301367 
0.0139576 0.0337257 0.120834 
-0.0088373 -0.00180539 0.0512858 
-0.0122778 -0.00695482 0.086552 
-0.0269098 0.00331827 0.0577563 
-0.00551323 -0.00528213 0.067705 
-0.0168015 0.00666998 0.0737702 
-0.00107904 0.00064704 -0.00327294 
0.00775782 0.000595064 0.0423672 
-0.00195971 -0.00100882 0.000479607 
0.00655336 -0.00431383 0.0243614 
-0.00351132 0.0065587 0.0272754 
0.0013821 -0.00178577 0.0464279 
0.000206003 -0.00051599 -0.00010157 
0.000344139 0.000850297 0.035873 
-0.000133611 0.00227659 0.0755735 
0.000242194 0.00586749 0.077199 
0.00211683 0.00293297 0.0779001 
0.000931374 0.0024197 0.0828488 
0.00450144 0.000664907 0.0551966 
0.00158145 0.000278436 0.0542591 
-0.00026599 0.000935328 0.0417241 
0.00664881 -0.000681367 0.0694111 
0.00060724 0.00143713 0.0014803 
-0.00083681 -0.00176098 0.000161933 
-2.15699e-05 -0.000438145 -0.0039363 
0.00669853 0.0016331 0.0429843 
-0.0022786 -0.00171765 0.0497034 
-0.00226514 -0.0028833 0.0707284 
-0.000217143 -0.00136307 0.0462973 
-0.00323881 -0.00422575 0.0627622 
0.00023708 -0.000528292 0.0730115 
-0.00244277 -0.00581066 0.0756023 
0.000979205 -0.00291009 0.0787338 
-0.0013112 -0.00440542 0.0659599 
-0.00695565 0.00313632 -0.00314987 
0.0107921 -0.000642882 0.0422878 
0.0109524 -0.00620222 0.0242776 
0.00646903 0.000101234 0.0160184 
0.00453409 0.00795634 0.0604786 
-0.000250121 0.00352046 0.075886 
0.0097163 0.0149961 0.0702992 
-0.00401949 0.0027139 0.0625233 
0.00486107 -0.00539954 0.0703851 
0.00150255 -0.000268234 0.053162 
0.00141352 -0.00222209 0.0730348 
0.0037164 -0.00161717 0.0442073 
-0.000821691 -0.00177883 0.0669702 
-0.00380067 -0.00342856 0.0664422 
-0.0036921 -0.00649092 0.069723 
-0.00436339 -0.0051432 0.0640217 
-0.00196698 0.000293495 0.0688018 
-0.0029937 0.00522224 0.0729501 
-0.00219335 0.00229647 0.0466152 
0.00215159 -0.00159099 0.0297039 
0.00388338 -0.00255898 0.227729 
0.0130686 -0.0182204 0.253504 
-0.00625868 0.0276132 0.137109 
-0.0340901 0.0941194 0.0928811 
0.0159382 -4.79524e-05 0.25395 
0.0527255 -0.000351446 0.165489 
0.0784482 0.0452921 -0.00200655 
-0.0447522 -0.0555511 0.193009 
0.00123751 0.00376556 0.0806617 
-0.000281272 -0.00624063 0.0745694 
-0.000242217 0.00383423 0.0740799 
0.00317938 -0.00291286 0.0752992 
-0.00101671 -0.0014074 0.0697271 
-5.72935e-05 -0.000198626 0.0809188 
0.000617832 -0.000775113 0.0719796 
-0.00293914 -0.00537674 0.0777184 
-0.00122608 0.007806 0.0675671 
0.000251492 0.00715417 0.0759456 
-0.000150419 0.00246116 0.074443 
-0.0022254 0.00446591 0.0722812 
-0.000587792 -0.00100312 0.0472553 
-0.003146 -0.00400927 0.0623553 
-0.00178884 -0.00397621 0.0698405 
-0.00172325 -0.0021916 0.054058 
0.00800251 0.00537013 0 
-2.81667e-05 -0.00378917 0 
0.00429662 0.00245228 0 
-0.000814341 -0.000649224 -0.00132015 
0.0150086 -0.00109324 0.0975484 
-0.00117398 0.00573935 0.032474 
-0.00769466 -0.00956941 0.0684204 
0.0158343 -0.0219754 0.0582697 
-0.00594722 0.00740292 0.224217 
-0.0122193 0.0536438 0.144637 
0.00121443 0.0111881 0.244778 
0.0898484 -0.0114744 0.223285 
0.00931584 0.00273553 0.0676557 
0.00331814 0.0115259 0.0732396 
0.0110851 0.0120224 0.0726243 
-0.000201465 -0.000266166 0.0634783 
-0.000235426 0.00108572 0.0494884 
0.00165237 0.00410411 0.0759234 
-0.00252465 0.00113111 0.0484226 
0.00167283 0.00463382 0.0689436 
0.000435929 0.000157133 5.56208e-05 
-0.000862764 -0.000547535 0.0339089 
9.23491e-05 0.000165107 0.000411534 
-0.00016854 -0.00142318 0.0382681 
0.0021317 0.011202 -0.0202167 
0.000570012 0.00513552 0.000165037 
-0.0166318 -0.00603618 0.0418359 
-0.0124881 -0.0351257 0.0412251 
-0.000226482 0.000141493 0.000702574 
3.72016e-05 0.000284493 -0.000249965 
0.00106786 -0.00143735 0.0489577 
0.0013872 0.0014236 0.0286397 
-0.00323789 0.00982711 -0.00579975 
-0.00406349 -0.00881186 0.0249684 
-0.000343226 -0.00967615 0.0650544 
0.00576048 -0.0248974 0.0333084 
0.0133884 0.0270081 -0.0235787 
0.00600899 -0.0382348 0.0288976 
0.00390375 0.0178303 -0.021527 
-0.00595752 -0.102283 0.139733 
0.00391125 0.000186826 0.0550609 
0.0080549 -0.000128685 0.0717958 
0.00135399 -0.000976369 0.0572978 
0.00748904 0.000848786 0.0671513 
-0.00101687 -0.000948743 0.043856 
-0.000935076 -0.000417508 0.0345819 
5.73317e-05 0.00014427 0.000424094 
0.00014975 -0.00163922 0.0369265 
0.00032492 0.000416842 0.000614708 
0.000502881 0.000823206 0.047004 
0.00158847 -0.00289779 0.0489048 
0.000565665 0.00298448 0.0280154 
-0.00351013 -0.000308625 0.10156 
-0.0103626 -0.0128934 0.070311 
-0.029701 -0.00126432 0.0404324 
-0.0522286 -0.00452594 0.105833 
0.00180131 0.0194086 0.246273 
-0.0243678 -0.0101857 0.148437 
0.000984086 -0.0182462 0.138312 
0.0449352 -0.0361092 0.189868 
-0.00226302 -0.00114196 0.0706834 
-0.00697514 0.00844163 0.0730543 
-0.00642098 0.00846812 0.0627459 
-0.00962186 0.00812839 0.0638778 
0.00411682 -0.000174621 0.101559 
0.0268703 0.00291781 0.0674261 
-0.00265563 -0.00370182 0.0242619 
0.00337369 -0.0100351 0.0616517 
-0.000433415 0.00190012 0.0751337 
0.000571536 0.000671327 0.083587 
0.00221499 0.00327757 0.078272 
-0.000393332 -0.000671876 0.0762645 
-0.000149419 -0.000294254 0.000321 
-0.000171358 1.19095e-05 8.69713e-05 
0.000208973 0.000580164 0.0375254 
0.00101993 0.000999017 0.0343131 
-0.0166922 -0.00345112 0.0494498 
0.00163516 -0.00348053 0.065119 
-0.0107128 0.000845735 0.0540894 
-0.0248035 0.0022464 0.0722488 
-0.00100509 -6.07036e-05 0.063957 
0.0129694 -0.00188561 0.062016 
-0.0154588 0.000114253 0.0639944 
-0.00110163 -0.00112022 0.0744319 
-0.00469897 0.00967712 0.0617888 
0.00078843 -0.00176859 0.0734007 
0.00234276 -0.0035121 0.0493507 
0.000394905 0.00113566 0.0668145 
0.000751202 -0.000544455 0.0015021 
-0.000523624 0.00162603 0.0406018 
-0.00217201 -0.00114261 0.0507017 
-0.000465449 0.000206298 0.030555 
-0.0165363 0.0100781 0 
0.00714693 0.0379818 0 
-0.0141117 -0.0295544 0 
0.035455 -0.043732 0.042949 
-0.00191487 -0.00856186 0.300677 
0.0167794 -0.0226891 0.265591 
0.0530777 -0.00622127 0.113936 
-0.0853998 -0.0209353 0.0882635 
0.00868743 0.0190534 -0.00428499 
-0.0115361 -0.0503224 0.107236 
0.00913823 -0.0889426 0.0521303 
-0.024661 -0.0183804 0.0476078 
-0.00804621 0.00208841 -0.00638912 
0.0233228 -0.00428086 -0.00813388 
0.0341829 -0.000141605 0.0578596 
0.00382431 0.0049136 0.0237064 
0.0388785 -0.0354264 0.180163 
0.0500361 -0.013011 -0.021807 
0.066488 0.0104709 0.150928 
0.000734191 0.0065062 0.213384 
0.00313823 -0.0026704 0.0738702 
0.00162988 -0.000545353 0.0427787 
0.00212183 -0.00108883 0.0539826 
0.000358491 -0.000138285 0.0376273 
-0.00862636 0.00393653 0.0439342 
0.00282219 -0.00133861 0.0541614 
0.00185182 -0.000391364 -0.000287416 
0.000573139 0.000340215 0.0377101 
-0.00180698 -0.00195965 0.0497011 
-0.00378652 -0.00221731 0.064766 
-1.5782e-05 -0.00267253 0.044899 
-0.00218033 -0.00110985 0.0551985 
-0.00381961 0.000183256 0.0811584 
-0.00420762 0.00282116 0.0727179 
0.00748874 -0.00180602 0.0725874 
0.00341598 -0.00132578 0.0765188 
-0.00244497 -0.0116968 0.0564703 
-0.000859275 -0.0126633 0.0542085 
0.00173808 0.00577235 0.0499023 
0.00102593 0.00223205 0.0765634 
-0.004589 -0.003647 0.0364951 
0.00630947 0.000465496 0.0792224 
0.0155887 -0.000167341 0.048868 
0.00838586 0.00541721 0.0619562 
-1.3791e-05 -0.000145802 2.35072e-05 
-7.96741e-07 2.00082e-05 0.000164931 
-4.06385e-05 -0.000289384 0.000876197 
0.00111183 0.0013158 0.0560813 
-0.00160264 0.00167055 0.0809028 
0.00179967 -0.00345748 0.0711354 
0.00183228 -0.00242248 0.0651337 
0.00617255 -0.00571616 0.0720484 
0.00184619 0.00958533 0.0747235 
-0.00290717 -0.000260911 0.0436766 
-0.00449972 -0.00347482 0.0582644 
0.00101807 0.000749687 0.0377263 
0.0667013 -0.00351115 0.125433 
-0.0114954 -0.0737902 0.0200382 
0.0261862 0.0326964 0.0707741 
0.03013 -0.0122121 0.168512 
-0.00114876 0.00738814 0.0673521 
-0.000190701 0.00273477 0.0743169 
0.000257486 0.00697049 0.0765732 
0.0012332 0.00519098 0.06827 
0.00205209 -0.00106356 0.0549921 
0.00164647 -0.000891696 0.0420607 
0.000127666 0.000134405 0.000908645 
0.000395892 -0.000436895 0.0366857 
-0.0151059 -0.0036873 0.0319252 
-0.0579234 -0.00606916 0.10957 
-0.0205045 -0.00229424 0.0747255 
-0.0161529 -0.00785555 0.0260541 
0.00136549 -0.0165371 -0.00285249 
-0.0128809 -0.005075 0.0160272 
-0.00239639 -0.0113497 0.0458585 
0.0203234 -0.0568901 0.0830992 
0.000929432 -0.0011949 0.0732495 
0.00375599 -0.00082308 0.0769314 
0.000622435 -3.95553e-05 0.081612 
-0.000394272 0.000780815 0.0775973 
0.00209954 0.0023242 0.0787753 
8.07147e-07 0.0058596 0.0773827 
4.75427e-05 0.00293848 0.0745059 
0.00137339 0.00569582 0.0679438 
-0.00807043 -0.00469659 0.0819093 
0.00512606 0.000288107 0.0444048 
0.000657092 0.00670132 0.0423137 
-0.00619614 -0.00394717 0.0668116 
-0.00670769 0.00424824 0.0211586 
0.00293891 -0.00145742 0.00036435 
-0.00954852 0.00562599 0.0425798 
0.000357156 -0.00104338 0.0384222 
0.00155097 -0.0263056 0.0543243 
-0.013981 -0.0442606 0.106842 
0.00907883 -0.0124351 -0.00492026 
-0.00971836 -0.0226713 0.0507633 
0.047026 -0.0293331 0.0448869 
0.0601418 -0.0136068 0.0636772 
0.0397881 -0.0210019 0.145089 
-0.023912 0.00391668 -0.0474562 
0.000573385 -0.0265251 -0.00244766 
0.00238093 0.00884372 -0.0111384 
0.00229791 0.00129352 0.0203107 
-0.00528415 -0.0359643 0.0455581 
0.000553025 -0.00122999 0.081512 
-0.00291383 0.00253281 0.0742855 
-0.00128871 0.00270111 0.0753705 
0.00405752 -0.000971418 0.0692177 
-0.0103084 -0.00215745 0.0814399 
-0.0281879 0.0179583 0.0902853 
-0.0122828 0.0209947 0.0597604 
0.00324576 0.00790002 0.0537104 
-0.0174064 0.0211238 0.0937797 
0.00747111 -0.0149065 0.0961322 
-0.0472189 0.0414556 0.0331719 
-0.0194227 -0.00085325 0.116566 
0.00979103 0.00680071 -0.020611 
0.000795974 -0.00419352 -0.0122198 
0.00620749 -0.0135972 0.050076 
0.0490788 -0.0116181 0.0897851 
0.000562897 -0.000749804 0.072585 
-3.47194e-05 -0.000196675 0.08062 
0.000562776 -0.00280227 0.0790775 
-0.0028413 -0.00534872 0.0763435 
0.0102147 0.00595676 0.0605897 
-0.000739063 -0.000678705 0.0690223 
0.0101743 0.00646018 0.0443737 
7.2612e-05 -0.000123793 0.0299215 
-0.00638268 0.0100871 0.0469069 
0.00199571 -0.00472802 0.0478046 
-0.00485039 0.0108788 0.061399 
0.00122319 -0.00212507 0.0750285 
-0.000474104 0.000768414 0.000370762 
0.00243539 2.1947e-05 0.0567873 
-0.00101484 -3.96491e-05 7.85277e-05 
0.00166953 0.000405214 0.0509988 
-0.00183065 0.00188415 0.0810433 
0.00180767 -0.0024203 0.0639087 
0.00673251 -0.0028614 0.0699661 
0.0055155 -0.00510705 0.0720714 
0.000157878 -0.00040943 -0.000250501 
0.00130805 -0.00167441 0.0466922 
-0.00334781 0.00629974 0.0268145 
-0.000229894 1.63232e-05 0.0380093 
-0.0138704 -0.00364311 0.0880663 
0.0149648 -0.00116845 0.0368392 
-0.00992547 -0.00338942 0.0697285 
0.00516066 -0.00541957 0.066156 
-0.000918461 -0.000581841 -0.000105015 
0.00870385 0.00157916 0.0436218 
-0.00115395 -5.69763e-05 0.00123603 
7.42926e-06 0.00161406 0.0390906 
0.00248443 0.0153031 0.0466231 
0.00363742 0.000354231 0.0519625 
0.043118 0.0211914 0.106515 
0.0125387 0.0186558 0.0265436 
-0.00691361 0.00458593 0.0739443 
0.00145068 -0.000780537 0.0731509 
0.000958172 -0.00051177 0.0817195 
-0.000761241 0.000370112 0.0776942 
0.00307533 -7.09371e-05 0.0712558 
0.00799782 0.000309308 0.0733471 
0.00765853 0.00392939 0.0704541 
0.00245081 0.00320134 0.0608301 
0.00268341 0.000520256 0.0551396 
0.00262374 0.000249631 0.0423006 
0.00236271 -0.000890392 0.053744 
0.00456527 -0.00138608 0.0696317 
0.0113632 -0.0191749 0.045363 
0.0588847 0.0179645 0.0832956 
0.00966653 0.00282455 -0.00250733 
0.0107585 -0.0128835 0.0166926 
0.00190199 0.00673759 0.0707473 
0.00196404 -0.00488211 0.077504 
-0.00189906 -0.00877139 0.0774159 
-0.00101476 -0.00076318 0.0610322 
0.00944457 0.00334522 0.0756791 
-0.00482046 -0.00363928 0.0622321 
-0.000359099 -0.000722837 0.0421094 
0.000423472 -0.00257342 0.0381056 
-0.00827217 0.00438232 0.0687526 
-0.00820145 -0.000869641 0.0694657 
-0.00389138 0.0013022 0.0719523 
-0.00264659 0.000196466 0.0791878 
0.00159355 -0.000182563 -0.000635857 
0.00195212 -0.000934977 0.0548736 
-0.00744946 0.00324854 0.0438643 
-0.000286543 0.000125601 0.038341 
-0.00149874 -0.00083708 0.0699849 
0.000342193 0.000235399 0.0344319 
-0.00103247 -0.000693208 0.0431025 
0.00118613 0.000612198 0.0293421 
0.049779 0.042713 0.0543355 
0.00688773 0.0163448 0.0523244 
0.0409644 0.0487801 0.140984 
0.0153367 -0.0124017 -0.00552162 
0.00485522 0.00361983 0 
-0.00250988 -0.00424942 0 
-0.00682874 -0.00426979 0 
0.0497593 0.0243173 0.00995948 
0.0165291 0.0511925 0.187658 
-0.0430258 0.0413858 0.050321 
0.00869316 0.0256808 0.250725 
0.0403292 -0.00683944 0.149038 
0.0105722 -0.00477764 0.0889687 
0.0156776 0.00142895 -0.0047974 
0.000442786 -0.00400901 0.0437451 
0.0232188 -0.00483198 0.0644654 
0.0779446 -0.00278532 0.0951788 
0.0184678 -0.00446777 0.0276257 
0.0489348 0.000948038 0.121481 
0.00424962 -0.0233923 0.0662792 
-0.00600555 0.0082395 0.0466349 
0.00168925 -0.00206471 0.0475894 
0.00101437 -0.000799702 0.0750656 
0.0006987 -0.000471709 0.0372393 
-0.0015013 0.00106289 0.000533086 
0.00118469 -0.00193412 0.0428927 
0.00383012 -0.00167882 0.0551158 
0.00115869 0.000648701 0.0408562 
0.0016308 0.00643786 0.0694061 
0.00121208 0.00269936 0.0510097 
-0.0014177 0.00699513 0.0694901 
0.00085847 0.00489187 0.0664509 
6.72802e-05 -0.0041843 0.084044 
0.000641274 0.00230291 0.0627653 
0.000851057 -0.00685179 0.0709173 
-0.00044673 0.00522225 0.0691315 
0.0442606 -0.0231194 0.270502 
-0.0650857 0.0895909 0.0372626 
0.00195427 0.00981255 0.276417 
0.0400237 -0.03763 0.130938 
-0.00402385 -0.000355254 0.0580656 
-0.00112387 0.00227187 0.0531234 
-0.0058948 0.00793625 0.0731634 
-0.000544902 0.000525381 0.0398968 
-0.00301645 0.00357957 0.0609023 
0.00381224 -0.00356586 0.0833003 
0.000879918 0.00206273 0.0765211 
-0.00416443 0.00086655 0.0750216 
-0.0016605 0.00646401 0.0657993 
0.0237341 0.00302679 0.0510069 
-0.00818208 -0.00371052 0.0451403 
0.0116118 0.000943113 0.0712576 
0.00284063 0.000529107 0.0737418 
-0.000132277 0.000606876 0.0665181 
-0.00947047 -0.00147003 0.0569004 
-0.000641899 0.000689654 0.0768562 
0.00678686 0.00272967 -0.006221 
-0.000346563 -0.00218855 -0.00160651 
-0.0188762 -0.00439573 0.0243138 
0.0135578 0.0120108 0.0313697 
0.00263645 -0.00328016 0.0589242 
-0.0289565 -0.0117506 0.0502095 
0.021166 0.00630668 0.0314027 
-0.0121917 -0.00915892 0.0303694 
0.00697503 -0.00424148 -0.00955113 
0.0112948 -0.00201223 0.0705751 
0.00649546 -0.00399437 0.0447289 
0.0100135 0.00428304 0.0203384 
-0.000985965 0.00635143 0.0843214 
0.00209849 -0.000468112 0.0484329 
0.0092286 0.00880172 0.0496277 
-0.0146633 0.00302014 0.0760366 
-0.0030957 0.0078182 0.0290882 
-0.00305933 0.0103269 0.0462888 
-5.18743e-05 -0.00352747 0.0447947 
0.000371633 0.000290601 0.0348516 
-0.00109218 0.000164087 0.0424068 
0.00118053 0.00211245 0.0375855 
0.00128491 0.00341105 0.076413 
0.00161162 0.000226055 0.0319368 
0.00649737 -0.0037739 0.0764699 
0.00078634 -0.000234612 0.0824039 
-0.00158397 0.00138248 0.0755976 
0.00111121 -0.00106835 0.0625556 
0.000237546 -0.000321717 -0.000431958 
-9.8478e-05 0.000132539 0.000304049 
6.01128e-05 -8.73038e-05 0.000774435 
0.000400178 -0.000970407 0.0388888 
-0.0270657 0.0215091 -0.0281815 
0.0423793 -0.0263328 0.0880936 
0.015894 0.00639076 0.0194425 
0.0251965 -0.0317624 0.0577913 
-0.0173053 -0.01859 0.116592 
0.000335732 0.0121123 0.256739 
-0.0112977 0.00761336 0.223231 
0.0803326 -0.0289577 0.236108 
-0.00826935 -0.0214181 0.116196 
-0.013856 0.0016623 0.129876 
0.000622469 0.07075 0.00704433 
0.00806808 0.00193534 0.135419 
-0.00297149 -0.00679426 0.0674881 
-0.00332656 -0.00653972 0.0774248 
-0.00140759 -0.00178807 0.06903 
-0.000626924 -0.00311865 0.0647203 
0.0423031 -0.0629652 0.140453 
0.00418383 -0.062612 0.0587 
0.0369218 0.0548341 0.0769311 
0.0353948 -0.0228213 0.165089 
-0.00197865 -0.0018853 0.0501093 
-0.000793779 -0.000691089 0.0326203 
-0.000983503 -0.00112712 0.0439612 
-3.30911e-05 -0.00128349 0.0394562 
0.00746817 -0.00697542 0.0692174 
0.00133157 -0.00771355 0.0697503 
0.000148154 -0.00297886 0.078129 
0.00479487 -0.0055982 0.0734128 
-0.00913102 0.0149074 0.0873383 
0.0270685 0.0135534 0.04439 
0.00396439 0.00329487 0.0626978 
-0.0254975 -0.00152056 0.0791209 
0.00116393 0.00616199 -0.0155129 
0.0151329 0.0137553 0.0122808 
0.00244576 -0.0275293 0.0287471 
0.00816736 -0.00426979 0.0321252 
-0.00970224 0.00706208 0.0701194 
0.00499723 -0.00356503 0.0433985 
-0.002764 0.00850703 0.0680088 
-0.00584071 0.00281636 0.0630316 
-0.00647308 0.00336768 0.0674497 
-0.00341484 0.000880419 0.0677153 
-0.0089068 -0.000639001 0.0700107 
-0.00333264 0.000207524 0.0797616 
0.0117015 0.00119734 0.0637599 
0.0175031 0.0082923 0.118286 
-0.00753592 0.0248783 0.0848121 
-0.00688775 0.00655995 0.029538 
-0.000497775 0.000102845 0.000503936 
-0.000262663 -0.000120347 0.000366361 
0.00303661 -0.000557858 0.0557594 
0.000683827 0.000339668 0.0397923 
-0.0194217 0.0111334 0.0970164 
0.023964 0.00534549 0.0464227 
-0.0336174 0.00579269 0.110903 
-0.0207798 0.00726572 0.0713004 
0.000353007 -5.59975e-05 0.0855038 
-0.000195551 -0.000315753 0.0836622 
0.00104298 0.00180846 0.0837126 
-0.000104025 0.000198011 0.0822053 
-0.00558217 -0.00427981 -0.00541808 
0.0107832 0.00741449 0.0264623 
0.0127358 0.0116658 -0.0113678 
-0.0146667 -0.0105545 0.033854 
-0.0039705 -0.0144959 0.0640273 
0.0122163 0.00983463 0.0490135 
9.64324e-05 0.009724 -0.00679703 
7.58863e-05 -0.0258261 0.0402415 
0.000849302 0.00384676 -0.00349023 
-0.00229379 -0.0126901 0.0360645 
-0.000805349 -0.00911872 0.0225998 
0.000311484 0.00499419 0.0489718 
-0.0263875 0.000232193 0.0646802 
-0.0034587 -0.00280588 0.0760057 
-0.0206913 0.00480448 0.0509007 
-0.00382395 0.011721 0.0570517 
-0.000355384 0.000806651 0.000536591 
0.00107545 -0.00209788 0.0481289 
0.000781244 -0.000909592 0.0476804 
-0.00080189 -0.00060814 0.0368901 
-0.00159021 0.00579029 0.0746895 
-0.00417312 0.00931005 0.0700248 
-0.00132271 0.016679 0.0705545 
0.000542559 0.0173519 0.0544846 
0.00611221 -0.00533205 -0.00529295 
0.00417222 0.000537753 -0.0183848 
-0.00903266 -0.0261111 0.0467572 
-0.00124574 0.00454804 0.0311846 
0.00122002 0.00103508 0.0492949 
0.00214493 0.00148061 0.03967 
-0.00359261 -0.00583393 0.0324095 
0.000175263 0.000768694 0.0657348 
-0.000554983 0.00300365 0.0749487 
0.000495264 0.000315052 0.0836401 
-0.00116942 0.00280564 0.079008 
0.0013299 0.00203998 0.0833954 
0.00286783 0.00500559 0.069149 
0.0107107 0.010172 0.0822444 
-0.00611343 -0.00559565 0.0390748 
0.00607249 0.00406261 0.0711105 
0.000442324 0.00145949 0.040409 
0.000416273 0.000617741 0.0340714 
0.00248502 0.00160443 0.0542079 
0.00271742 0.00199459 0.0591632 
-0.00155756 0.00104054 0.0757448 
0.000436244 -0.000250634 0.0825389 
-0.00292038 0.00246974 0.0691648 
0.00110079 -0.000527585 0.0623114 
-0.00279057 0.00777161 -0.0038925 
0.0325552 -0.0039154 0.042391 
0.00712098 0.00138668 -0.00704112 
-0.0215494 -0.00137004 0.0243373 
0.00251458 0.0020566 0.0557994 
0.000808077 0.000349692 0.0387853 
0.00272321 0.00543028 0.0737911 
0.000124956 0.000948944 0.0652208 
-0.00850247 0.00942244 0.0606736 
-0.00670645 0.00434711 0.0769474 
-0.0119077 0.0189109 0.064106 
-0.0110772 0.00712042 0.0639583 
-0.00148787 -0.00118896 0.0703968 
-0.000337015 -0.000546534 0.0678156 
0.00634261 0.00628859 0.0692435 
0.00117864 0.000139122 0.0790945 
-0.0107787 0.00570943 0.0426836 
-0.00920232 0.00234121 0.0234672 
-0.0100276 0.00465904 0.030557 
0.00494946 0.00250445 0.0346724 
0.0613105 -0.0440972 0.0524116 
0.000613136 -0.012948 0.0969942 
0.0204752 -0.0256914 0.0800653 
0.0162081 0.00106437 0.00636687 
-0.000381412 -0.000445763 0.00132015 
0.00196161 0.00178461 0.0556184 
0.00059466 0.000805554 0.037457 
0.000755016 0.000774437 0.0343134 
0.000491806 -0.0032366 0.0644726 
0.0027288 0.00131368 0.0828849 
0.00622064 -0.0011184 0.0678844 
-0.00125992 0.0012911 0.0731226 
-0.0102507 -0.00629214 0.246845 
-0.0860146 -0.023602 -0.0188644 
-0.035861 -0.0299022 0.146195 
0.0672163 0.00595814 0.191977 
-0.00769582 -0.00154483 0.0689592 
-0.00178914 -0.000803222 0.0649085 
-0.00985746 0.0020118 0.0671192 
-0.0163018 0.000261147 0.0729022 
-0.00142223 0.0117601 0.0698799 
0.00030364 0.00315486 0.073566 
-0.00469221 0.0131428 0.0672239 
0.000312329 0.00633974 0.0633202 
-0.00297325 0.00250656 0.069127 
5.69889e-05 8.24789e-05 0.0835697 
0.00014318 0.000380959 0.0696478 
0.00114574 -0.000611602 0.061349 
0.00432686 -0.00257174 0.0552433 
0.00241804 -0.000229961 0.0730069 
-0.00944704 0.00495224 0.0604559 
-0.000346013 -0.000570997 0.0661515 
-0.00140681 -0.00188815 0.0706692 
0.00622986 0.00714683 0.0687995 
-0.000742714 -0.000826698 0.0809097 
0.00119921 5.11501e-05 0.0792145 
-0.000469537 0.00239609 0.0747983 
0.000457418 0.0060773 0.0773158 
-0.00109236 0.00283453 0.0790794 
-0.00224009 0.00479943 0.0718165 
0.00848945 0.00567621 0.044749 
-0.00129365 -0.00128994 0.0336651 
0.000349188 0.000514169 0.029179 
-0.00152851 -0.00139865 0.0589352 
-0.00825109 -0.000694568 0.0709237 
-0.00431367 -0.0013162 0.0643029 
-0.00436606 -0.00131922 0.0783863 
-0.00377847 0.000530431 0.0667087 
0.000249263 0.0053824 0.0771496 
0.000967553 3.67065e-05 0.0821537 
0.000905149 0.00294521 0.0813195 
-0.00121013 -0.000293691 0.0836757 
0.00240406 0.000250177 0.0550079 
0.0074214 -0.00160011 0.0737365 
0.00451751 0.000851589 0.0732834 
0.00234081 0.00384579 0.0601188 
0.0192523 0.0206415 0.147599 
-0.0228852 0.0098016 0.176742 
0.00352992 -0.0169805 0.254495 
-0.0232152 0.0497695 0.213222 
0.00153926 0.0609055 0.10382 
-0.00205667 0.0414356 -0.0529009 
-0.0305957 0.0516659 0.135301 
-0.00237178 0.0248675 0.244065 
-0.0142802 0.00673173 0 
0.0556352 -0.00835328 0 
-0.0151546 -0.0105012 0 
0.0592418 -0.00233252 0.0832085 
0.000766286 -0.00305795 0.0786022 
0.00113855 -0.00119656 0.073426 
0.00563641 -0.00630921 0.06792 
0.00630058 -0.0052558 0.0746951 
0.000402693 -0.0178938 -0.00858313 
0.0307489 0.0112108 0.00359369 
0.0181506 0.0656728 0.137306 
-0.0213064 0.0113217 0.0243994 
0.00908086 0.00433634 0.0734018 
-0.00237441 -0.000608216 0.0440601 
0.00125115 0.00678079 0.0684951 
0.00193734 0.00162714 0.0595281 
0.00641265 -0.00446218 0.0580018 
-0.00106672 0.0115185 0.0735054 
0.00337756 0.00983036 0.0752136 
-0.00176307 -0.00533978 0.0424066 
0.0187075 0.00754453 -0.0122679 
-0.0191759 -0.0214708 0.0700236 
-0.0054554 0.0391605 -0.0277492 
-0.0299575 -0.0117732 0.127081 
-0.0023558 -0.00320449 0.0593966 
0.000640545 -0.010065 0.0729985 
-0.00128331 0.00235827 0.040094 
0.00236291 -0.00428327 0.0630072 
-0.0106153 -0.00262663 0.0573903 
0.00424271 0.00167052 0.0445044 
0.0022691 0.000864245 0.0745265 
-0.000913711 -0.00130144 0.0602408 
-0.00535268 0.00266088 0.071457 
-0.000856534 0.00304453 0.042378 
-0.00166835 0.00104754 0.0544027 
-0.00358135 0.00153003 0.0706459 
0.000350763 0.000385306 0.000320655 
0.000711007 -0.00112574 0.0479776 
8.14406e-05 -0.00164906 0.0367989 
-0.000328238 -0.000589898 0.0338545 
0.0118038 0.0145588 0.107776 
-0.010433 -0.0208788 0.0644129 
-0.0062068 -0.0100155 0.152033 
0.0190764 -0.0470425 0.0431557 
0.0101194 0.00307618 0.0455033 
-0.000824926 -0.000216249 0.0342307 
0.000854615 0.000168545 0.0704072 
-0.000435848 0.00012552 0.0290872 
0.00021545 0.000160375 0.0409228 
-0.00384928 0.00613017 0.0654293 
-0.00148447 0.000919753 0.0521819 
-0.00397558 0.00315974 0.0717011 
0.0208646 -0.00135001 0.0575147 
0.0172998 -0.00894523 0.0107747 
0.040307 0.00956619 0.0997714 
0.015745 -0.0041485 0.0613278 
0.0542351 -0.0464417 0.0712311 
0.0594916 -0.0204231 0.0685823 
0.0251282 0.0243433 0.132985 
-0.0458848 0.00885124 -0.0622535 
-0.00167143 0.00771734 0.0679185 
0.000368985 0.00252191 0.0739038 
0.000365308 0.000435068 0.0499198 
-0.00179136 0.00455321 0.0719415 
-0.00111768 0.00134005 0.0484129 
-0.000383203 0.0038249 0.0759422 
0.00103212 0.00179238 0.049584 
0.000269122 -0.00123355 0.0358527 
-0.0277808 0.0164059 0 
0.0225139 0.00218097 0 
-0.0267024 -0.00156491 0 
-0.0490959 0.0470938 0.119735 
-7.419e-05 3.19014e-06 0.000211826 
0.00130173 -7.39755e-05 0.0549445 
-0.000233802 -0.000188785 0.00060024 
0.00144298 -0.000344146 0.0372781 
0.00108343 0.000200467 0.0545357 
0.000871135 0.00112026 0.0375765 
0.00100351 0.000342304 0.000642618 
0.000392047 -0.00115151 0.0334203 
-0.0153422 0.0171743 0.0724733 
-0.00530074 0.00506924 0.0734922 
-0.0107942 0.0117034 0.0569889 
-0.00569741 0.00817095 0.0682733 
0.00144526 -0.00325498 0.0727426 
0.00311543 0.00065223 0.0420167 
-0.00100538 0.00544539 0.0749882 
-0.00191261 0.00125287 0.025166 
0.0033306 0.00587121 0.0570864 
0.00125368 0.0265675 0.0697491 
0.00021458 0.0292176 0.0493078 
-0.000649279 0.000372125 0.0572068 
0.00240811 -0.00205584 0.0549327 
-0.00150111 -0.000750142 0.0423845 
0.00473315 0.00636764 0.0763769 
0.000299431 -0.00104377 0.0319437 
0.00107118 0.00238342 0 
-0.0125367 0.00250371 0 
-0.00147977 0.00563758 0 
0.0351814 -0.00267093 0.00934219 
0.00933916 -0.00407985 0.0652382 
-0.00333597 0.00153005 0.0562679 
-0.00209623 0.000874139 0.0765305 
0.00133023 0.000394303 0.0668318 
-0.00102753 0.000124641 0.000439802 
0.00207549 0.000202075 0.0394332 
0.00279669 -0.000573034 0.0555658 
0.000587321 -3.9332e-05 0.0374076 
0.00505516 0.0145019 0.24815 
0.00471835 0.00894665 0.247317 
0.0203711 0.0267764 0.234437 
-0.0330093 -0.109756 0.216097 
0.00955177 0.00592583 0.0450189 
-0.000697947 -0.000811862 0.0676386 
0.00992462 0.00556786 0.0597762 
-0.00251327 -0.000842409 0.0575412 
-0.000188207 0.00273379 0.04831 
0.00175378 0.000884185 0.045115 
0.000456176 -0.00172528 0.000103191 
0.000416409 0.000622559 0.0369946 
-0.0186897 0.0203795 0.0702493 
-0.0284538 0.00296423 0.0915078 
-0.00709674 -0.00343591 0.0805061 
0.0095772 0.00858808 0.0431268 
0.00106922 -0.000410881 0.0732769 
0.000408536 0.000483029 0.0661624 
0.00369857 -0.000734087 0.0774568 
-0.000497966 4.52643e-05 0.0773759 
-0.000101021 0.000150625 0.000341211 
-4.53751e-05 6.64982e-05 2.48941e-06 
-0.000105368 0.000154154 -2.88045e-05 
-0.000414718 -6.99027e-05 0.0378965 
-0.0104356 -0.00334848 0.0506708 
-0.00257928 -0.00089805 0.0714045 
0.0093408 0.000707023 0.0724368 
0.00858364 0.0043117 0.0599173 
0.00247659 0.000106441 -0.00972761 
-0.0125475 -0.0200203 0.0671741 
-0.000666765 0.00614492 -0.0167784 
-0.0118293 -0.00479938 0.0373874 
-0.0467748 -0.0355375 0 
-0.00683142 0.0128299 0 
0.0401572 0.0319174 0 
-0.058195 -0.0466757 0.0812312 
-0.0143436 -0.0093149 0.0560637 
-0.00568659 -0.0114009 0.0683068 
-0.00660291 -0.00205268 0.0683461 
-0.0142149 0.00208357 0.0657917 
0.0452112 0.0412377 0.0903921 
0.0184804 0.0192812 -0.0400981 
0.0240234 0.0679117 0.109242 
0.0268824 0.0132406 0.217067 
-0.00567404 0.0063141 0.0748318 
-0.00597561 0.00530782 0.0664035 
-0.015643 0.0159244 0.08612 
-0.0103437 0.00652774 0.0601878 
0.0606215 0.0289701 0.0324024 
-0.0570172 -0.00432883 0.0531016 
0.0121409 0.0258798 0.0949234 
0.00141512 0.00135475 0.0410308 
-0.00277749 0.00133191 -0.00102784 
-0.00945171 0.00112157 0.0275166 
-0.00147038 -0.00756722 -0.0154664 
9.77096e-05 0.0155409 0.0317902 
-0.000963886 0.000321958 0 
-0.00345567 -0.00317079 0 
-1.15159e-05 0.00563602 0 
0.01684 0.00760898 0.0105247 
0.00332121 0.00617345 0.072111 
3.62922e-05 0.000762154 0.0647657 
0.000579307 0.000174475 0.0404309 
0.000910774 0.00431827 0.0685552 
0.00164956 -0.00338391 -0.0049996 
0.000522868 0.056153 0.0767253 
-0.00113235 -0.0118224 -0.022573 
-0.013129 0.00920224 0.0348019 
-0.00705466 0.00393695 0.0743355 
0.000262145 0.000196233 0.0662232 
0.00151244 -0.000489785 0.0733275 
-0.000787439 0.000240833 0.0773072 
-0.0195995 -0.00432607 0.0760735 
-2.61493e-05 0.0016648 0.0369782 
-0.00439086 0.0044888 0.0806448 
-0.00970146 -0.0105876 0.0350521 
-0.000918103 -0.00186183 -0.00443257 
-0.000948348 -0.000281286 0.0415962 
-0.0043519 -0.0101687 0.0337479 
0.00226721 0.000564821 0.0341929 
0.00232122 -0.00929183 0.0702524 
-0.00545521 -0.00500391 0.0648243 
0.000486597 -0.0067663 0.0648337 
0.00431866 -0.00363728 0.0600585 
0.002215 -0.00538428 0.0983976 
-0.015287 0.00184107 0.0563293 
0.0209458 0.0348917 0.0348333 
0.0270121 0.0292159 0.104104 
-0.0124277 0.00833285 -0.005302 
0.0512428 0.027894 0.106215 
0.0367496 0.00874754 0.0139162 
-0.0679583 -0.0280676 0.0497835 
0.00128282 9.30244e-05 0.00275687 
0.00936923 0.000516889 0.0429532 
-0.00281732 0.000792551 -0.00397899 
0.00701546 0.00134594 0.0175792 
-0.00891979 0.00459801 0.0725067 
0.000188741 -0.00273753 0.0473684 
0.00154455 0.00141268 0.040692 
-0.00452546 0.000323793 0.0648544 
-0.0140569 0.0232846 0.250004 
0.0203314 -0.017755 0.120327 
-0.0259613 0.0552872 0.0926472 
-0.0303799 -0.0303531 0.119811 
0.0183647 0.0292437 0.115758 
-0.00656156 0.0407634 0.152938 
-0.00538451 0.00150616 0.239518 
0.0843112 0.00648295 0.198378 
-9.64199e-05 0.000295475 0.0851506 
0.00104355 -0.000430576 0.0827939 
-0.000220447 -0.000372084 0.0813557 
-0.000215479 -0.00168042 0.0817108 
-0.0449266 0.0291029 0.188308 
-0.0257656 -0.00196054 0.272474 
-0.00711601 0.086732 0.0427329 
-0.0344513 -0.0466133 0.116429 
0.00502331 -0.00214671 0.044112 
0.0109096 0.0061385 0.0270155 
6.26824e-05 3.59659e-05 -0.000547876 
0.0106513 -0.0162665 0.0328285 
0.00406965 0.00584574 0.0729572 
-0.00042805 0.000425077 0.0395225 
-0.00298281 0.000922316 0.0452619 
0.00260648 0.00483504 0.0689487 
0.00521772 -0.00241034 -0.00849793 
0.00424563 -0.00220318 0.0423847 
0.0167586 -0.00693234 0.0724624 
0.00474384 -0.014007 0.0452589 
-0.00130273 -0.000776265 0.043421 
-0.00149338 -0.000911676 0.068787 
0.00144149 0.000787819 0.0305594 
-0.00127846 -0.0013305 0.0583636 
-0.0455928 0.0517221 0.113826 
0.0595909 0.0459608 0.0360872 
-0.0243599 0.00410554 0.0461939 
-0.0477682 0.0515273 0.183026 
-8.90016e-05 -0.000931151 0.0652515 
0.00916764 0.00814662 0.0718921 
-0.00471668 -0.00365484 0.0447604 
-0.0051199 -0.00283601 0.0708231 
-0.0082762 -0.00113689 0.0588474 
0.000479926 0.00104797 0.0672218 
0.0044208 0.000873691 0.0511404 
-0.000370558 -0.000569994 0.0350076 
-0.00547465 0.00961268 0.0290351 
-0.00463712 0.0101191 0.0295167 
-0.00480251 0.0119552 0.0459577 
0.00266684 -0.00135596 0.0348238 
0.00178359 0.00287676 0.0778748 
0.000409606 0.000557081 0.0834483 
-0.000401859 0.0027025 0.0753844 
0.00119308 0.00223199 0.0829517 
-0.021499 0.0157435 0.129006 
0.0028902 -0.00925244 0.249638 
0.00552153 0.00561944 0.234878 
-0.0549951 0.0779945 0.0820589 
0.000783921 -0.00595058 -0.00898915 
-0.0031229 0.00111996 0.0434012 
-0.0115124 -0.00331648 0.0641457 
-0.00794593 -0.0109834 0.0396736 
-0.00173591 0.000852887 0.0756851 
-0.00576146 -0.00168818 0.0646952 
-0.00333361 -0.00177642 0.0782151 
0.000515168 0.000256965 0.0788785 
0.00828856 0.000961458 0.00251836 
0.0166432 -0.00852626 0.0326781 
-0.00710014 0.000300843 -0.00862284 
0.00979827 -7.86423e-05 0.0288399 
0.0088738 -0.0115904 0 
-0.00922938 0.0106063 0 
0.00909174 -0.0031044 0 
0.0202619 -0.0261014 0.0337875 
0.00275909 -0.00725685 0.0269467 
-0.00115784 0.00324161 0.0438245 
0.00388682 -0.00931794 0.047888 
4.6033e-05 5.87722e-05 0.0332426 
-0.00164815 0.00324038 0.0466936 
0.000320852 0.000108537 0.0719647 
0.00415841 -0.00931717 0.0462686 
4.8339e-05 5.62066e-05 0.034137 
0.00961784 0.00089329 0.0493004 
5.95349e-05 -0.000197539 0.0349069 
-0.00382203 -0.000127617 0.0496776 
2.32696e-05 -0.000122451 0.0340697 
0.0102293 -0.0312048 0.210667 
0.0229693 0.0255449 0.200864 
0.001087 -0.0045191 0.244137 
0.0290052 -0.0174547 0.175055 
-0.00861231 0.00891911 0.0640423 
-0.00790055 0.00991348 0.0469328 
0.0021487 -0.00175102 0.0750085 
0.00204966 -0.00153773 0.0373315 
0.000963436 -0.00373089 0.0791327 
0.00139805 -0.00758964 0.0696288 
0.00550495 -0.00628758 0.0680331 
0.00132714 -0.00270998 0.0652069 
-0.0004053 0.00152094 -0.00102869 
-0.00053155 0.0018086 0.0467529 
0.00185485 -0.00548433 0.0232671 
0.000648899 -0.000342437 0.0342518 
-0.00045191 0.00157391 0.287245 
0.00687788 0.0271213 0.277278 
-0.0569734 0.0535641 0.0356509 
0.0572932 -0.0215099 0.138982 
2.28164e-05 0.000344882 0.0431064 
0.00572183 0.00375173 0.0710695 
0.00861618 0.00785149 0.0789283 
0.000660846 0.0020247 0.0577141 
-0.0279721 0.0200155 0.0782282 
-0.00776908 0.0095186 0.0561313 
-0.018503 0.0189443 0.0557531 
0.0014723 0.00521416 0.0654716 
0.058982 0.0457799 0.0646827 
0.046574 0.0109237 0.215272 
0.0663583 0.0254488 0.0733378 
-0.0305798 -0.0157401 -0.0776193 
0.000184695 0.000743776 0.000649765 
0.000893141 -0.000351122 0.0549858 
-0.000318432 0.00114568 0.000824162 
0.00101659 -0.00085248 0.0329033 
0.000599411 -0.00353293 0.0793615 
-1.3442e-05 -0.00106634 0.0722374 
0.000813894 -0.00680894 0.0694664 
0.0019432 -0.00358096 0.0654326 
-0.00123518 0.00794802 0.0742657 
-0.00405235 0.0101024 0.066321 
-0.00590162 0.00517745 0.0708 
-0.00178748 0.00443601 0.0732516 
0.00681023 -0.00764733 0.066968 
-0.000504362 0.00049621 0.0695932 
0.000667753 0.000308792 0.0836879 
0.000836278 -0.00042866 0.0613484 
0.0343064 0.00559795 0.0825931 
0.0148895 -0.00744227 0.0174556 
0.0178359 -0.0122703 0.0462476 
0.0143755 -0.00288586 0.066916 
-0.000593008 -0.000880721 0.0465083 
-0.00171002 -0.00239584 0.0543343 
-0.00178553 -0.00404815 0.0702274 
-0.000814369 -0.00349752 0.0643725 
0.00287759 -0.00162782 0.0427397 
-0.00021323 -0.000232144 0.0310177 
0.00702069 0.00433039 0.0288762 
0.00936182 0.000472549 0.022271 
-0.000128119 0.00010407 -0.00021876 
0.000298794 0.00223324 0.0482447 
0.000133071 -0.000341554 0.000705487 
0.000657341 0.00035986 0.0369543 
-0.00158228 0.00321794 0.079751 
0.000283596 0.000384605 0.0839499 
-0.000564966 0.000403739 0.0711544 
0.00103286 -0.000163958 0.0816512 
0.000322142 0.00070451 -0.00124046 
-0.00223487 -0.00586371 0.0326562 
0.000826884 0.000535917 0.0508759 
0.000273161 0.00190523 0.0380817 
-0.0119748 -0.0155963 0 
-0.00249286 0.020626 0 
0.0128098 0.0143995 0 
-0.00557183 0.0140575 0.0678412 
-0.0141764 -0.0116726 0.0542548 
-0.00783146 -0.011666 0.0718942 
-0.00277002 -0.000915585 0.055628 
-0.00576177 -0.000399115 0.0679356 
0.00176339 -0.00361869 0.0798234 
0.00431017 -0.00578661 0.0672021 
0.002019 -0.00109844 0.0720956 
0.00158498 -0.00388884 0.065065 
0.000825866 -0.00234589 0.0451055 
0.00170966 0.0003788 0.0490105 
0.00175959 -0.000488677 0.0434278 
0.000942479 0.00256533 0.0312605 
-0.000102408 -0.000471297 -0.000111682 
-0.000155481 0.00176519 0.0479763 
0.000471493 0.00159959 0.036626 
0.000424889 0.000543287 0.0337537 
0.0213762 0.0254559 0.037563 
0.00332236 -0.0188806 -0.0264381 
0.00325473 -0.0433426 0.0203942 
0.0669223 0.0535124 0.126266 
-0.000516211 -0.00932505 0.00536669 
0.0224286 0.0220495 0.0749662 
0.00733247 0.00668704 -0.0165826 
0.0646531 -0.0260862 0.109789 
-0.00519382 0.00576564 -0.0123188 
0.00361055 -0.0167958 0.0363843 
0.00770949 0.00127429 -0.0053088 
-0.00352354 0.0028704 0.0194244 
0.00350129 -0.00682944 0.0759406 
-0.000273131 0.000547918 0.0712096 
-3.62962e-05 0.000622205 0.0839659 
0.00100887 7.81152e-05 0.0816958 
-0.00558483 -0.0084002 0.0526581 
0.00213087 0.00290278 0.0349461 
-0.00329983 -0.00681362 0.0284558 
-0.000964907 -0.001211 0.040511 
-0.00211219 -0.0016459 0.0618427 
0.00249891 0.00752987 0.0484714 
0.00270239 -0.00162872 0.0507778 
-0.00729174 0.00440936 0.0773101 
0.00338974 -0.00671197 0.0764128 
-2.25586e-06 0.000301049 0.070636 
-0.000486591 0.00145608 0.0737564 
-0.000216272 0.000779367 0.0842446 
0.000747908 -0.00110674 0.0636582 
0.000737264 -0.0005067 0.040627 
0.00245215 0.00270732 0.051425 
0.00421631 0.00596555 0.0743137 
-0.00285133 -0.00254908 0.0773794 
-0.00287601 -0.00592509 0.0757135 
-0.00150434 -0.00123614 0.070851 
-0.00584544 -0.0026936 0.0667404 
0.000751886 -0.00661889 0.0710791 
0.000540838 -0.00116818 0.0727804 
-0.000313816 -0.00222469 0.0568726 
0.0010213 -0.00341403 0.0645065 
-0.00104358 -0.0019733 0.243094 
0.0123414 0.00207765 0.225906 
-0.0122849 0.00822462 0.29236 
0.0795578 -0.0501857 0.134065 
-0.00230443 0.00034795 0.0518511 
-0.000574493 -0.00027657 0.044161 
-0.00387009 -0.00142911 0.0645396 
-0.00112479 -0.000281455 0.0673675 
-0.00207118 0.000720516 0.075536 
-0.00675437 0.00297596 0.066718 
-0.00255951 0.00339658 0.0705106 
-0.0030007 0.000690656 0.0801831 
0.0654441 0.0228457 0.0520405 
-0.0494551 0.0280223 0.117268 
0.0363312 0.0194292 0.243276 
-0.0216264 -0.0319695 0.173864 
-0.00143002 0.00293052 0.0787429 
-0.000405699 0.00576575 0.0763539 
-0.00560277 0.00679794 0.0688019 
-0.0017136 0.00512504 0.072428 
-0.000751186 5.66968e-05 0.0685481 
-0.00126516 0.000111199 0.0351332 
0.0109246 0.00277571 0.0450296 
0.00166421 0.00024714 0.0671905 
-0.000473311 0.00134311 0.0989599 
-0.0228852 0.0128881 0.122446 
0.0477959 0.0108151 0.0467948 
-0.0122078 -0.00951213 0.177975 
0.00497943 -0.000899494 0.00029196 
-0.00925749 0.00511431 0.0298602 
-0.00674252 0.00398953 0.0221953 
0.00154742 0.000300181 0.0368021 
0.000467382 0.000658793 0.000487026 
0.00166144 -0.00204213 -0.00198983 
0.000557923 -0.00290212 -0.00107647 
-0.0118357 -0.002953 0.0133189 
-0.0130414 0.00526507 0.0918247 
-0.0394008 0.00672464 0.0882256 
-0.0234291 -0.00849757 0.0526778 
-0.016023 0.00370195 0.0724938 
0.000234031 0.00234587 -0.00252788 
0.00137366 -0.00749042 0.0283594 
0.000336243 -0.0176481 0.0248213 
0.00019305 0.000499191 0.0368819 
0.0555767 0.00129393 0.146922 
0.033187 0.0600513 0.144089 
0.0374249 -0.00275253 0.252807 
0.0350954 -0.0894432 0.00977579 
-0.00104642 0.000589893 0.06822 
-0.00454108 -0.00207912 0.0636532 
-0.00168742 -0.00192102 0.044181 
-6.64877e-05 0.00138477 0.0670788 
0.00404969 -0.000843205 0.0771621 
0.00817777 -0.000438584 0.0694122 
0.00199782 0.00134105 0.0741643 
0.000514871 0.000375996 0.066799 
-0.00407732 -0.00137834 0.058778 
-0.00102077 0.00334101 0.0525974 
-0.000816364 0.000793123 0.0383896 
0.000214523 4.22178e-05 0.0318091 
-0.0202187 0.0355733 0 
0.0111655 0.00276644 0 
0.00808167 -0.0380423 0 
-0.0105708 -0.0158454 0.0561391 
0.00637673 -0.00420719 0.0304333 
-0.00157611 0.000532615 0.0329969 
-7.64595e-05 -0.000555267 0.0357099 
0.00110681 -0.00097495 0.0610852 
0.000496064 7.2501e-05 0.000447413 
0.000496276 -0.000344537 0.0554585 
-0.000485995 0.000802758 0.000189257 
0.00145274 -0.000409622 0.0376299 
-0.00136766 -0.000612419 -0.00350539 
0.0145405 -0.00804859 0.0320984 
-0.00314532 -0.000926106 0.0524244 
0.00686511 -0.00103087 0.0293969 
0.00717724 -0.00718774 0.0657835 
-1.84665e-05 0.000675945 0.0839282 
0.0073941 -0.0047523 0.0749422 
0.000954335 -0.0010336 0.0621793 
-0.00315202 -0.00850883 0.0710922 
0.000712462 0.00148474 0.0837161 
0.000752744 0.00193404 0.0749305 
-0.00119889 -0.000730012 0.0763958 
-0.00112148 0.00129241 0.0515915 
-0.000103554 0.000993233 0.0329479 
-0.00173511 -0.000545226 0.034403 
-0.000305117 0.00125915 0.0303342 
-0.000771899 0.00583448 0.0794395 
0.000992222 -0.00338888 0.0790708 
0.000534804 -0.000177063 0.0817489 
3.58257e-05 -0.000353295 0.0825507 
-0.00401205 -0.00318316 0.0570919 
-0.00254101 6.77387e-05 0.0424835 
-0.00458502 -0.00331089 -0.00298629 
0.00133461 0.000459761 0.038332 
0.000419337 -1.7947e-06 -0.000395831 
-0.000115273 -0.000165407 0.0341416 
-0.000133533 -0.000213502 0.000216983 
-0.00100073 -0.000126194 0.0280286 
-0.0301365 -0.0243231 0.149815 
-0.0176819 -0.029364 0.192216 
-0.00776543 -0.0205257 0.0577464 
0.0370123 -0.0498732 0.00169201 
0.00154834 -0.018949 0.0467282 
-0.0107399 -0.0173588 0.0163372 
-0.00239275 -0.0209374 0.0593197 
0.0103919 -0.0362092 0.0809405 
0.00105305 -0.00931197 0.0710454 
0.000950325 -0.00543305 0.0702097 
0.00087835 -0.00341697 0.0796377 
0.00542331 -0.00413106 0.0727573 
0.00376841 0.00772488 0.0683511 
0.00109017 0.00733161 0.0760257 
0.00244316 0.00254562 0.0783822 
0.000782065 0.00478376 0.0686966 
0.00193085 0.0169854 0.0673635 
0.0122636 0.0136619 0.0516967 
0.00247299 0.00766909 0.0751151 
-0.00780727 0.0179344 0.0733821 
-0.000570031 0.00110816 -0.00061459 
-0.000436502 0.00108215 0.034225 
0.000341916 -0.000427018 0.000111621 
0.000392794 -0.000725291 0.033607 
-0.0175165 0.0133665 0.0926682 
-0.00543422 0.0075704 0.0634803 
-0.00423258 0.00306589 0.073324 
0.00139394 0.00612971 0.0688854 
-0.00217509 -0.0022735 0.062938 
0.000864518 -0.0119598 0.0735816 
0.000168707 -0.00413551 0.0560722 
-0.00156026 0.00437043 0.0389599 
-0.00278299 0.00916043 0.0736921 
0.00271393 -0.000667638 0.0450644 
0.000847209 -0.000556749 0.0378776 
-0.000696985 0.00569481 0.0690036 
6.11141e-05 0.000145288 0.000480762 
-0.00011309 -0.000226517 0.00041406 
3.38671e-05 5.8195e-05 -0.000420843 
0.00134152 -0.000226535 0.0556187 
-0.00054326 0.00109499 0.0707765 
-0.000338499 -0.00182438 0.0354377 
-0.00198153 0.00199216 0.0516813 
0.000926932 0.000134772 0.0608377 
-0.0074484 0.00418442 0.0731413 
-0.00950561 0.00460802 0.0599057 
0.00211093 -0.000172353 0.0737607 
-0.000179769 -0.000276883 0.066379 
0.000209956 0.000553508 -0.00383422 
0.016137 0.00536456 0.0425113 
0.0010322 -0.00394785 0.0406436 
0.00590549 0.00872052 0.0386592 
-0.00952596 -0.00349404 -0.00801041 
0.0342363 0.0307586 0.0559474 
0.0205087 0.0169586 0.0191365 
-0.0101042 -0.00590354 -0.000401242 
-0.00353851 -0.000130429 0.0515972 
0.000386074 -0.000408163 0.0362409 
0.0091979 0.000744285 0.0458096 
0.00131941 0.000292085 0.0669495 
-0.00218556 0.000952023 0.0757069 
-0.00394163 -0.00195706 0.0784125 
-0.00479398 -0.00142284 0.0643929 
-0.00465072 0.001316 0.0667306 
0.000612749 0.00124288 -0.00368203 
-0.0168691 -0.00415946 0.0337544 
-0.0021541 0.00181908 0.0441348 
0.00234585 -0.000171507 0.0426172 
0.00122587 -6.48838e-05 0.0802583 
0.00168856 0.00183729 0.0836092 
-0.00345865 0.00133565 0.0743851 
-0.00242221 0.000643528 0.0800476 
-0.00646019 -0.00341745 0.0649945 
-0.00576962 -0.00470636 0.0678504 
0.0063874 0.00125963 0.0402909 
0.00177049 -0.00564732 0.0657821 
0.00186387 0.00313689 0.0789632 
8.34716e-05 0.000886087 0.0663363 
0.000542227 0.00141187 0.0749602 
-0.000673751 -0.000341806 0.0759373 
-0.000296663 0.00140931 0 
-0.00327975 -0.0021757 0 
0.00242837 0.00167247 0 
-0.00984594 -0.00678616 0.0153593 
-0.000231041 -0.000630171 0.000463267 
0.000610703 0.000839768 0.0373966 
-3.78729e-05 8.81355e-05 1.26001e-05 
0.000693604 0.000869937 0.034675 
0.000494462 0.00152324 0.0738864 
-7.08425e-05 0.000378886 0.0706454 
-0.00196893 0.00351755 0.0797717 
-0.000129703 0.000535629 0.0842002 
0.0146573 0.0112542 0.0452414 
0.0125548 0.0177755 0.0525638 
0.0229574 0.0220174 0.109279 
0.0119215 0.0145883 0.0789546 
-0.0158253 0.00616405 0 
0.0250873 -0.00392817 0 
-0.00598238 -0.00511957 0 
0.0391265 -0.000588583 0.0361959 
-0.000174572 3.77829e-05 -6.32317e-05 
-0.000131102 3.02214e-05 0.000118849 
8.00413e-05 -1.9088e-05 -0.000129928 
0.0004918 0.000109706 0.0493616 
-0.00814321 0.0106545 0.0469972 
-0.00560449 0.0105281 0.060578 
-0.00817882 0.00890177 0.0623814 
0.00256043 -0.0027825 0.0746321 
0.000327744 -0.0109336 0.0414868 
-0.000934735 0.00335839 0.0473922 
0.0020545 -0.0110221 0.0567462 
-0.00148161 0.00171607 0.0347005 
-0.000412044 0.000312758 -0.000452366 
4.01331e-05 0.000143731 0.00106143 
0.00167757 -0.000891942 0.0420401 
0.000666252 -0.000456256 0.0363173 
-0.00436155 0.00447189 0.0583255 
-0.000241788 0.00297049 0.077679 
-0.00304474 0.00243541 0.0742821 
0.00358119 -0.000339297 0.064788 
-0.00167226 0.00082704 -0.0135867 
-0.0106908 -0.00136431 0.0299483 
0.0275756 -0.00160161 0.048173 
0.0186651 0.0126336 0.0364764 
0.016101 -0.0355161 0 
-0.010302 0.0372161 0 
0.0164297 0.00710381 0 
-0.00959938 -0.0320633 0.0475535 
-0.00122849 0.0114092 -0.00442023 
-0.0117229 0.00241934 0.0231797 
-0.0404412 0.0439147 0.070809 
-0.00616507 0.00399235 0.0226448 
0.0100031 -0.00331938 -0.00449277 
0.030071 0.00271511 0.0421682 
-0.0044406 -0.000980448 0.0336847 
-0.0103837 0.00615949 0.016073 
-0.0426835 0.047691 0.124628 
-0.0278274 0.0189864 -0.0274806 
-0.0514214 -1.35347e-05 0.113446 
-0.0254385 0.0268234 0.228306 
0.00929579 -0.00399705 0.0650164 
-0.00222743 0.000738632 0.0774918 
-0.00299967 0.0014354 0.0556727 
0.00122689 -0.000634074 0.0603915 
0.00750563 -0.00638948 -0.0183609 
0.00622068 -0.014996 0.0334714 
-0.000941273 0.0318979 0.0447935 
-0.0111516 0.019513 0.035617 
0.0121254 0.0043354 0.0446948 
-0.00146201 -0.000713962 0.0699315 
0.0117704 0.0063376 0.059898 
-0.00163887 -0.000743064 0.0298517 
0.00474407 -0.000494058 -0.00167368 
0.0055079 -0.00539437 0.043071 
-0.00484205 0.00410965 0.0432091 
0.00375802 0.0108237 0.0364876 
-0.0176294 0.0153208 0.145923 
-0.0147084 -0.00312744 0.223158 
-0.00477159 -0.0125211 0.256845 
-0.0171172 0.0328216 0.259565 
-0.0233193 -0.0185846 0.0485769 
-0.00782361 -0.00809412 0.0769099 
0.00504811 -0.000560855 0.0545078 
-0.0149765 -0.0128711 0.0407138 
-0.0256332 -0.036212 0.047344 
0.00607041 0.00896984 0.0232702 
0.00250048 -0.00272898 -0.00921262 
-0.0140389 -0.0114419 0.0357738 
0.00949717 0.000768989 0.0460711 
0.000234661 0.000132467 0.0352742 
-0.00383247 -0.000154587 0.0513415 
0.00136029 0.000307128 0.0671029 
0.000395655 -0.00275894 0.0559892 
-3.29364e-05 -0.00351381 0.0389736 
0.000138503 -0.0046844 0.0735013 
0.000591623 -0.00360618 0.0644607 
0.00344958 0.00227606 0 
-0.00148474 -0.00111475 0 
0.00182867 0.000882069 0 
-0.0151418 -0.0110347 0.00968607 
-0.000389234 0.000926447 0.0700955 
-0.00317933 0.00486323 0.0936341 
-0.00990479 -0.00840699 0.0406993 
0.0205379 0.019809 0.0786679 
0.00289201 -0.00017976 0.054344 
0.00174115 -0.000467129 0.041139 
0.00248515 0.000971266 0.0546679 
0.000765521 0.000168043 0.0370408 
0.0013394 0.00223186 0.0551212 
-0.000723195 0.0010209 0.065067 
0.0046098 0.00559199 0.0721519 
0.00476041 0.00413899 0.0717306 
-0.00330257 -9.54083e-05 -0.00664273 
-0.00217428 0.00567505 -0.00182288 
0.000902483 0.00188064 0.000139081 
0.0176759 -0.00177581 0.0242724 
0.000535349 0.000837826 0.046376 
0.00180486 -0.00514977 0.0665902 
-0.00342518 -0.00265032 0.0618941 
0.00273028 -0.00546595 0.0628858 
-0.0170342 -0.00698693 0 
0.00368142 0.00570463 0 
0.00200531 -0.00270585 0 
-0.00856176 -0.0134692 0.0237256 
0.0045391 -0.00580789 0.0682136 
0.000811518 4.39055e-05 0.0492829 
0.00163491 -0.00185904 0.0730356 
0.00185314 -0.0032779 0.0641441 
-0.00444134 0.00232763 0.0728081 
-0.0013426 -0.00101729 0.0470572 
-0.00263979 0.00180103 0.0538114 
-0.000503534 0.00187388 0.0406814 
-0.00984016 0.0236266 0.172611 
0.00316717 0.00169895 0.212704 
0.00437576 -0.00625168 0.258589 
-0.0993314 -0.0509764 0.159498 
-8.87764e-05 0.0221999 0.0678026 
-0.00612203 0.0314819 0.0541705 
0.0102888 0.00820575 0.0487813 
-0.00361237 0.0221841 0.0772491 
0.000600122 -0.00326761 0.0789898 
0.000324008 -0.000140634 0.072568 
-0.000266295 0.00565373 0.0800767 
0.000364369 -8.81689e-05 0.080923 
-0.00434216 0.00119289 0.0751581 
0.00182991 0.00174559 0.0829371 
-0.000826554 0.00369759 0.0793943 
-0.00208681 0.000817835 0.0803293 
0.00141573 -0.00331896 0.00161997 
-0.0022703 -0.0051805 -0.00122234 
0.00215783 0.00279258 7.84824e-05 
0.0150144 -0.00574069 0.0237708 
0.00591515 -0.00501465 0.0329725 
-0.00106532 0.000439405 -0.000678216 
0.000228193 -0.000164763 0.0349932 
-0.000861724 0.00130052 0.0323116 
0.00248275 0.0320205 0.0335658 
0.00252445 -0.0244413 0.0452832 
-0.000994701 0.00144136 -0.0149503 
-0.00328779 0.00116707 0.0262546 
-0.000176317 -0.000118643 0.000528524 
0.000643478 0.00131948 -0.00147748 
-0.00284307 -0.0044709 0.0268196 
0.00126727 0.00137275 0.0366294 
2.37307e-05 0.00572825 0.07256 
0.00179496 0.00104587 0.0464536 
-0.000691017 0.0022664 0.0459281 
0.000484348 0.000785944 0.0382452 
7.87198e-05 8.72828e-05 -0.000501176 
-0.00219257 0.00138705 0.00247299 
0.00539173 -0.000248147 0.0454696 
0.00566394 -0.00997454 0.0271113 
-0.000934117 0.000377518 0.000449031 
0.000663599 0.000475616 0.0478128 
-2.95992e-05 -0.00095946 -0.000739396 
0.000957045 -0.000379764 0.0351188 
-0.00333074 0.00311855 0.0790483 
-0.000874739 0.0022723 0.0817776 
0.00107038 -0.00141573 0.0847903 
0.000374662 0.000513345 0.0827694 
0.00980288 -0.000592294 0.027722 
0.00993365 -0.00103155 0.0328943 
-0.00423443 -0.0017864 -0.00350828 
-0.00328342 -0.000922474 0.0324287 
0.00603992 -0.00680849 0.0602454 
-0.00421468 0.00504387 0.0803141 
-0.000850917 -0.000690117 0.03791 
-0.00854976 -0.010232 0.0411779 
-0.000535057 0.000762025 0.0101277 
0.00170682 -0.00832139 -0.0206977 
-0.0195871 0.0306617 0.0597296 
-0.0069282 0.0172721 0.0183058 
-0.000229282 -1.34186e-05 0.000229281 
0.00107845 -0.00210457 0.0481135 
0.000136634 0.00072739 0.000251498 
0.000594308 0.000458131 0.0480401 
-0.00206519 -0.0110486 0.0565077 
0.00102123 0.00185071 0.0753975 
0.000786118 0.00448753 0.0508698 
-0.00087198 0.000789922 0.0660797 
0.000472151 0.00988331 0.0156459 
-0.0239941 0.0410629 0.0626685 
0.0291554 0.026118 0.0532491 
-0.0520573 -0.0270448 0.0928897 
-0.0022247 0.00761659 0.0682422 
0.00193741 0.0101421 0.0744524 
0.00326638 0.00607891 0.0692673 
0.000561446 0.00407595 0.0690863 
-0.000461813 0.00340865 0 
0.00121858 0.00183448 0 
-0.000780837 -0.0039677 0 
0.0105611 -0.00840965 0.008009 
0.00916141 -0.00436687 0.0636493 
0.00726341 -0.00443591 0.0756703 
-0.0025849 0.00165493 0.0773264 
0.00149535 -0.000802708 0.0614648 
0.0256017 0.0136442 0.0318952 
-0.0091823 -0.00781567 0.0312651 
-0.0408646 -0.0224255 0.0474933 
-0.00462682 -0.000133141 0.0216806 
-0.00134228 -0.0471271 0.0261746 
-0.0620722 0.000884953 0.0792237 
0.0101306 -0.00247064 0.0414183 
-0.0608986 0.0040955 0.145779 
0.0538931 0.0617081 0.0414237 
0.054674 0.0406756 0.0923556 
-0.00610893 -0.0545278 0.0488606 
-0.0256813 -0.0163852 0.0701187 
0.00220367 0.000520045 0.0749815 
0.00781583 -6.64956e-05 0.0714765 
0.00393094 0.000363037 0.0540286 
0.000681343 0.000293165 0.065561 
-0.00567277 0.00251775 0.0373325 
0.0170907 -0.0255961 0.0376442 
0.00872504 0.00868734 -0.0173062 
-0.0273196 0.0276242 0.0296612 
0.0176664 -0.00757357 0.0155545 
0.0108138 -0.0021348 0.0853068 
-0.0558906 -0.0234571 0.0527248 
0.0587309 0.0390589 0.0637229 
0.0474732 -0.02387 0.0193573 
-0.00176879 -0.0310258 -0.0387391 
0.0298049 0.03456 0.0794951 
0.0586219 0.020689 0.148484 
-0.0415553 -0.0108647 0.151117 
-0.00575683 -0.0649856 -0.0075852 
0.0107732 -0.0354725 0.156907 
-0.00588268 -0.0134686 0.193382 
-0.00513336 0.00855354 0.0249405 
0.00207931 -0.00571574 -0.00294636 
-0.00492919 0.0099235 0.0296954 
0.00120802 -0.00211468 0.036973 
-0.00335247 -0.00185911 0.0785386 
-0.00567136 -0.0015027 0.0639572 
-0.000715162 -0.000436304 0.0678425 
0.000745038 0.000165554 0.0791709 
-0.00482996 0.002427 -0.00656725 
0.00490233 -0.000269034 0.0426188 
0.0125441 0.000582508 0.0508021 
0.0103176 -0.000142149 0.0220814 
0.0011257 0.00115604 0.000693704 
0.000916688 0.000782626 0.0560949 
-9.87184e-05 -1.02156e-05 0.0347159 
0.000147658 -0.000565798 0.0401179 
-0.00071775 0.00347231 -0.00371772 
-0.00131816 -0.00982108 0.0297051 
-0.000904925 -0.0110571 0.0357677 
-0.000609367 0.00639551 0.0360528 
0.00141207 -0.00587626 0 
-0.00738415 0.00136785 0 
0.0205261 -0.00519435 0 
0.0356131 0.00148555 0.0434043 
-0.00356684 -0.00411339 0.0604227 
0.00536451 0.00155095 0.064673 
0.0135358 0.011423 0.0442908 
-0.0160997 -9.16927e-05 0.0792404 
-0.00229886 -0.00169567 0.0443428 
0.00157646 -0.000869526 0.0354084 
-0.00158306 0.000687851 0.0683968 
0.000481978 0.000946877 0.0670161 
-0.0020094 -0.0126777 0.04003 
-0.00384887 -0.0118166 0.0550294 
-0.000916685 -0.0127816 0.05374 
0.00351763 0.00598074 0.0519327 
-0.00130175 0.00466287 0.0282714 
0.000751681 -0.00101146 0.000179043 
-0.000986111 -0.00146031 -0.000453208 
-0.000552264 0.00177908 0.0352661 
0.00251016 -0.00291129 0.0702549 
0.00551951 -0.00472073 0.0726051 
-0.000853341 -0.0103524 0.0714147 
0.00680917 -0.0108781 0.0631939 
-0.000293608 0.00753846 0.0785605 
-0.000986841 0.0100274 0.0673596 
0.000820941 -0.000440128 0.0722412 
-0.000423452 0.000250938 0.0683928 
-0.00474634 -0.00348081 0.0641477 
-0.00727605 -0.00346929 0.0702506 
0.00553036 0.000593391 0.0396459 
0.0034895 -0.00520788 0.0580359 
0.00149394 -0.000851031 -0.00443 
0.000310293 0.00123202 0.0398947 
0.00708054 0.001515 0.0498428 
0.00451182 0.00162674 0.0416959 
-0.00824763 0.00470571 0.0681045 
-0.00830831 -0.000460775 0.0657416 
-0.00881749 0.00178309 0.0709854 
-0.00455187 -0.00126358 0.0641073 
-0.00788885 0.00500669 0.0721132 
-0.0100772 0.00550157 0.0588312 
-0.00825893 0.00843965 0.0620489 
0.00282891 -0.00162983 0.0756118 
0.00380962 0.00122843 0.0381954 
-0.0124862 -0.00316337 0.0639425 
-0.00384827 -0.00106643 0.0772257 
-0.0147655 -0.0255428 0.0898018 
0.000243799 -0.000466997 0.118514 
-0.0136384 0.0192765 0.0274919 
-0.087634 0.0405717 0.107752 
-0.0237665 -0.0319013 0.162134 
0.000759508 -0.00285198 0.0563547 
0.000681262 -0.000528569 0.0480327 
-0.00131438 -0.0035739 0.0379451 
0.00204181 -0.00291225 0.0652073 
-0.000695774 -0.00100892 0.0442911 
-0.00225582 0.000970314 0.0517968 
0.00128288 0.000241562 0.0345468 
-0.00147343 -0.000817327 0.0677316 
-0.00113473 -0.0138007 0.00331027 
-0.0571252 -0.0163893 0.0733974 
-0.0641995 -0.00992624 0.011065 
0.0839712 0.0368209 0.0497188 
-0.00758995 -0.00517602 0 
0.00302079 0.00356677 0 
-0.00568884 -0.00974501 0 
0.0319236 0.00974732 0.00575285 
-0.0018641 0.00100517 0.0744117 
0.00124629 0.00479923 0.0757592 
-0.00245086 0.00379526 0.079909 
0.000883536 0.00206722 0.0829714 
-0.000966545 0.00683276 0.0544095 
-0.00157975 0.00361903 0.0788406 
-0.000139545 -0.00756606 0.0702013 
0.00168024 0.00250489 0.0619685 
0.00213809 -0.00719815 -0.0159114 
-0.00799803 0.00118296 0.0104308 
0.0199567 -0.016206 0.0725012 
-0.0265629 -0.0619726 0.0946601 
0.0163407 -0.00308385 0.0764135 
0.00470631 -0.0024719 0.058291 
-0.0186754 0.0320916 0.0597069 
-0.0130499 0.0130471 0.0209541 
0.0061355 0.0072456 -0.0129042 
-0.00280436 0.000359852 -0.0189657 
-0.0126743 -0.0202208 0.0674012 
-0.0106617 -0.0223456 0.0441222 
-0.00386793 -0.00862157 0.067378 
0.00203003 0.00707932 0.0682722 
0.014918 0.00808363 0.0743392 
-0.00533108 -0.00348383 0.0418969 
0.00433918 0.00098972 0.0845932 
0.0234644 0.0187299 0.0463972 
0.0215764 0.00270783 0.0502432 
0.0136643 0.00634671 0.0649183 
-0.0137509 -0.00881533 0.0689908 
0.00726749 0.0100987 0.0293888 
-0.00137943 0.00546724 0.00120951 
-0.0236461 -0.0408372 0.106737 
-0.0173188 -0.000200701 -0.011303 
0.00631761 -0.0212545 0.0844854 
0.00833266 0.0260206 -0.0197186 
0.00819035 -0.00169078 0.0424755 
0.00404365 -0.0119918 0.04457 
0.00189811 -0.0120053 0.0534244 
0.00409554 -0.0111249 0.0622969 
-0.00175078 0.00553366 0.050392 
-0.00377289 -0.00675062 0.29148 
0.0347328 0.0334601 0.0979263 
-0.00696617 0.0290634 0.256583 
-0.0543294 -0.0331316 0.105579 
-0.00173059 0.0695388 0.0722985 
-0.021693 0.0281034 0.141326 
0.0439879 0.0560154 0.0800849 
-0.0249646 -0.0393655 -0.0224145 
-0.0368109 -0.0451749 0.106113 
-0.00282436 -0.0600717 0.0925507 
0.0281512 -0.0119829 0.207975 
-0.00600127 -0.00813852 -0.0645091 
0.000349489 0.000811153 0.0549845 
-0.00646985 0.00516449 0.0714593 
-0.00128169 0.00416196 0.0608483 
-0.00333872 0.00462307 0.0722872 
-0.0066119 0.00295759 0.0669685 
-0.00230843 0.000863278 0.0756141 
-0.00458297 0.000539744 0.0672259 
-0.00289414 0.000666447 0.0803242 
-0.00475461 0.0069562 0.257711 
0.0123653 -0.0143889 0.274472 
-0.0361733 0.100638 0.0990978 
-0.0163576 -0.0619201 0.167617 
0.000315128 -0.00029412 -0.000387942 
0.00238333 -0.000203649 0.0433051 
0.000412695 -0.000917744 0.0404093 
-0.00378109 0.000976689 0.0334123 
0.00222775 -0.00159619 -0.00213743 
0.0042068 0.000581491 0.0463116 
-0.0035331 -0.00366053 0.0612213 
-0.000105208 0.000120689 0.0366445 
0.0326059 -0.0244439 0.0692643 
-0.0482758 0.053973 0.0219002 
0.0410262 0.0670251 0.140334 
0.0366912 0.0354765 0.186558 
0.015376 -0.00473305 0.0594379 
0.00856619 0.0293317 0.0961773 
-0.0234962 0.00967346 0.0427564 
0.00253002 0.00233897 0.0407025 
-0.00114825 0.00478858 -0.0054264 
-0.00540071 0.00792057 -0.00428337 
0.000382354 -0.000684014 0.0033813 
-0.00350911 -0.0159358 0.0217506 
-0.0115949 -0.0470456 0 
-0.0221596 -0.0389679 0 
0.0121049 0.0238655 0 
-0.00638593 -0.0359758 0.20889 
0.000552047 0.000246763 0.000711577 
0.000452824 0.00115279 0.038084 
0.00121915 0.000878725 0.0565423 
0.000150259 0.000123849 0.0393009 
-0.0316883 0.0151633 0 
0.0287505 -0.0153284 0 
-0.00873477 -0.0077567 0 
-0.00239637 0.0581069 0.0687977 
-0.00114816 -0.00133772 0.0500609 
-0.000456409 -0.00135061 0.0340151 
-2.13798e-05 0.000422391 0.000108769 
-0.000594255 -0.000455114 0.0311095 
0.015215 -0.010641 0.0557113 
0.000846586 0.0171934 0.0290074 
-0.00436228 -0.0118749 0.122307 
-0.00774072 -0.0493745 0.118429 
-0.000604972 -5.671e-05 -8.94628e-05 
0.00159727 0.00118851 0.041756 
9.64887e-05 -0.000227582 -0.000146009 
0.00191039 0.000740663 0.0419207 
0.00787269 0.00814577 0.0360432 
0.00713326 0.00442201 0.0289306 
0.00145489 1.00027e-05 -0.00454047 
-0.00135727 0.000180131 0.0335074 
0.000330794 0.0110151 0.0579582 
0.000467964 -0.00479105 0.0578255 
0.000753963 -0.000239123 0.072409 
-0.0007611 0.000282425 0.0673129 
-0.0159526 0.0159664 0.11692 
-0.00991228 -0.0202037 0.0561624 
-0.00390026 0.000601351 0.0529556 
-0.0328008 0.0239712 0.093663 
0.00305994 -0.00427725 0.0683617 
0.0155368 -0.0107465 0.0758208 
0.00957103 -0.0118878 0.0677297 
0.00985834 -0.00562755 0.0609316 
-3.05431e-05 -0.000289997 0.000689597 
0.00154452 -0.00101375 0.0415821 
0.00145437 -0.000800807 0.0481515 
0.000733225 -0.000148038 0.0363456 
-4.69939e-06 -0.000107094 -0.000573959 
-0.000171701 2.02708e-05 -3.10064e-05 
0.00063811 0.000502844 0.049926 
0.000524453 0.000373518 0.0351013 
-0.00147604 -0.000876207 0.0812069 
-0.00153593 -0.000743051 0.0708886 
-0.00131834 0.000614764 0.0740177 
0.000819184 0.000285534 0.0758627 
0.00190528 -0.00545065 0.0224828 
-0.000637864 0.00204654 0.047104 
-0.00030758 0.00120387 -0.00093679 
-0.000280764 -0.000355737 0.0352097 
5.25429e-05 -0.00326626 0.0546249 
-0.000901005 -0.00336642 0.0563315 
0.00047537 -0.00615363 0.0740761 
-0.000452485 -0.00151656 0.0383228 
-0.00214671 0.0487403 0 
0.0147125 -0.0108512 0 
0.00519936 -0.00663411 0 
0.00285693 0.0521812 0.0793211 
0.00269999 0.000355427 -0.00224856 
-0.0293129 -0.0399583 0.04601 
0.0163271 0.00372978 -0.0184183 
-0.00253138 0.00292 0.0266281 
0.00701945 -0.00536797 0 
-0.0545744 -0.0158135 0 
0.0440721 0.0227276 0 
0.0591024 0.0421622 0.0738483 
-0.00346874 0.00483741 0 
-0.00579082 0.007799 0 
0.00341862 -0.000753986 0 
0.00910777 -0.00531143 -3.61306e-06 
0.00872926 -0.0052569 0.0477422 
-0.00200033 0.00148312 0.0547904 
5.37835e-05 0.000343766 0.0352892 
-0.00140059 0.00132268 0.0330028 
0.00234284 -0.0109622 0.0948863 
-0.000385016 -0.00111227 0.0435483 
0.00918083 -0.0113852 0.0442257 
0.0122584 0.00811404 0.0251858 
-0.00123831 -0.000936325 0.0580272 
-0.00130035 0.000456286 0.037874 
0.0012961 -0.000516672 0.0479214 
0.000792195 -0.00668771 0.0658724 
0.00116265 0.00150961 0.0417568 
-0.0203268 -0.0053748 0.0345187 
0.00124139 0.00391068 -0.00109307 
-0.00778119 -0.00012474 0.0257696 
5.41173e-05 0.00147911 0.000292511 
0.00242047 -0.0107949 0.0261398 
0.00157465 0.0020023 0.00084444 
-0.00174683 0.000229155 0.0394715 
-0.00611769 0.013243 0.0591217 
-0.0147135 0.00156388 0.0667411 
-0.0137592 -0.00422263 0.10702 
0.00109587 -0.0123757 0.0731743 
-0.00679733 0.0093207 -0.0025328 
0.0177488 0.0351346 0.0751431 
-0.0080473 0.0303888 0.0507268 
0.00748416 0.00170408 0.0115769 
0.0124764 0.00381506 0.0559114 
-0.00196387 -0.00479966 0.0450781 
0.013377 0.0106213 0.0911389 
0.000952177 -0.017819 0.0769901 
-0.00172549 0.0012184 0.0546081 
-0.000267478 0.0013613 0.0678292 
-0.00506996 0.00539793 0.0707009 
-0.00236814 0.00431483 0.0726978 
-2.90675e-05 -1.89601e-05 -0.000167955 
0.000182728 0.000121224 0.000667545 
1.43551e-05 9.80577e-06 -1.48215e-06 
0.000767464 -0.000445998 0.0481106 
-0.0361206 -0.0109634 0.0304028 
0.0133579 0.0384937 0.0285037 
-0.00766851 0.0100323 0.119276 
-0.0627481 -0.0484929 0.161405 
0.0117001 0.00500429 0.0758965 
-0.00771398 -0.00185139 0.0665933 
-0.00283139 -0.0016406 0.0606797 
0.00348893 4.59354e-05 0.0785711 
0.00215258 8.61318e-05 0.0804923 
-0.00243352 0.000599024 0.0742068 
-0.00426676 -0.00185142 0.071468 
-0.000600773 -0.00100728 0.0823637 
-0.000666159 -0.00585134 -0.0178543 
0.0125387 0.0339412 0.0393963 
0.00217503 0.00658004 -0.00317638 
-0.012046 0.0141496 0.0441111 
0.000482137 -0.00237697 -0.00275466 
0.00417234 -0.00927609 0.0320837 
0.00260929 0.00236714 0.0449585 
-0.00177042 0.00165159 0.0393462 
0.0577828 0.0112452 0.0630537 
0.061852 -0.0103701 0.123434 
-0.0034837 -0.00237141 0.0511748 
0.000208426 0.0562579 0.00895648 
0.0561842 0.0536009 0.0452929 
-0.017317 0.0145617 0.056428 
-0.00777995 0.0233443 0.093306 
-0.017967 0.0156853 0.0318909 
0.0030722 0.00660076 0.0709884 
0.00706195 0.00399339 0.0669527 
0.0109945 0.0090532 0.075744 
0.00592742 0.0027028 0.0691869 
-0.014955 -0.0155096 0.0781831 
-0.0261966 -0.0234291 0.0314476 
-0.00788836 0.0280106 0.0779393 
-0.015096 0.00838272 0.136856 
-0.00306039 -0.00170173 -0.00419881 
-0.00929725 -0.000106201 0.048354 
0.000294017 0.00154655 -0.0203233 
-0.0296792 -0.00319987 0.0576276 
-0.0059343 -0.0110469 0.0506373 
-0.00416645 -0.0100987 0.0339942 
0.00321584 0.00651723 0.0385807 
0.000745399 0.000338371 0.0671441 
0.00400816 -0.0100446 0.0484389 
-0.0012366 0.00372546 0.0436485 
0.00274037 -0.00718814 0.0262155 
-0.000662215 0.000101853 0.0341092 
0.000569651 0.0102799 0.044378 
-0.000343242 0.000189313 0.0366659 
-0.000165058 -0.00378713 0.055206 
3.14176e-05 -1.91283e-05 0.0348243 
0.0138979 0.0131122 0.0922618 
-0.0019003 -0.00691472 0.0462768 
-0.00456674 0.00084029 0.0702367 
-8.33189e-05 -0.0174458 0.0724217 
-0.00017859 -0.000987031 0.0816072 
0.00105949 0.00420302 0.0752807 
-0.00155152 0.000855206 0.0739927 
0.0011081 0.00252891 0.0832757 
-0.0118569 -0.0181862 0.0935647 
-0.012859 -0.0105567 0.0635177 
-0.0107694 -0.0135856 0.0651886 
0.00738599 -0.004057 0.0775071 
-0.00207124 0.000489405 0.0759932 
-0.00532249 -0.00106438 0.0643141 
0.00079398 -6.80764e-05 0.0785277 
0.000701717 0.000357562 0.066378 
0.000121546 0.000424359 -0.000361522 
0.000483431 0.00130712 -0.000541609 
-0.00277757 -0.00615547 0.0346448 
0.000949823 0.000166923 0.0493376 
-0.00587545 0.00947235 0.0290277 
0.0041987 -0.00476593 -0.00246353 
-0.00506304 0.0100756 0.0298898 
0.00123199 -0.00158798 0.0357718 
0.00668304 0.00202469 0.0562539 
-0.00138304 0.00741362 0.0693583 
0.00343362 -0.00233193 0.0418731 
-0.00722925 0.00591409 0.0606372 
0.00643586 -0.00387579 0.05977 
0.000691512 0.0173771 0.142298 
0.0275634 0.0106285 0.123222 
0.0178632 -0.0181754 0.078913 
0.0229816 -0.0377846 -0.0221341 
-0.0207523 -0.0207647 0.0844412 
0.0184788 0.00668017 -0.0213855 
-0.0280997 -0.011337 0.124796 
0.000147226 0.000213325 -0.000191074 
1.11117e-05 8.43814e-06 0.000289676 
-0.000126773 -0.000200843 0.000845304 
0.000746834 -0.000355935 0.0363973 
0.000302889 -0.00283668 0.0563653 
-0.000535685 -0.00218719 0.0364667 
0.00112942 -0.000754786 0.0482405 
0.000113838 -0.000220853 0.0339907 
-0.00310451 0.0189773 -0.0237183 
0.0014894 0.00600889 0.0402707 
0.00351124 0.0202455 0.0787029 
0.0103605 0.0102014 0.0364878 
-0.00212303 -0.000227555 0.00112628 
0.00112153 0.000273651 0.0517695 
0.00436421 0.000337158 0.0550411 
-0.000127715 -6.54295e-05 0.0374721 
-0.000409953 -0.000815234 0.000417822 
-0.00201387 -0.00248811 -0.00221162 
0.00136743 -0.00105915 0.0498694 
0.00757742 0.00111464 0.0279326 
-0.000258758 0.00573676 0.0716783 
-0.000257789 0.0020161 0.0467297 
0.00172997 0.0010976 0.0463663 
-0.0018747 0.00412283 0.058502 
0.00022072 0.00473728 -0.0135946 
0.00111863 0.0273194 0.0338198 
0.0072158 0.00168714 -0.0110111 
0.00137374 -0.0264109 0.0419604 
0.00133019 -0.00102167 0.0719625 
-6.85484e-06 0.00065429 0.0681718 
-0.00406302 0.00680581 0.0753427 
4.74606e-05 -0.000435642 0.0824926 
0.00100246 0.00204875 0.050852 
-0.00021697 0.00122798 0.0411495 
-0.000157241 -0.000468312 -0.000240211 
0.000491849 0.000785945 0.0384156 
-0.000215517 -0.0128461 -0.0370325 
0.0357386 0.0053845 0.0596942 
0.0360002 -0.0240409 0.0119269 
0.0364462 0.00658505 0.102731 
-0.00169374 4.2633e-05 -0.00350835 
-0.0114288 0.00701071 -0.00804804 
-0.00277727 0.00691677 0.000752668 
0.0255986 0.00556774 0.0260862 
-0.00298644 -0.000536588 -0.000175191 
0.00666847 0.00451849 0.0263762 
0.000333376 3.86653e-06 0.0352378 
0.00859405 0.000624481 0.0166552 
0.00964217 0.0080833 0.0566941 
0.0197211 0.0199371 0.0545154 
0.0139102 0.00525773 0.0905217 
0.0105756 0.0144225 0.0802491 
0.00966251 0.00383617 0.0371993 
0.0281544 0.0150568 0.108187 
-0.00105833 0.0202245 0.118538 
0.0091387 0.00791605 0.0270671 
0.0145769 0.0121508 0.266764 
0.00367839 0.00261922 0.213269 
0.0160309 0.00463349 0.251294 
-0.110166 -0.0705051 0.149537 
-0.00162928 0.00263425 -0.00122409 
0.000718664 -0.0011241 0.0474346 
-0.00064473 -0.000545523 0.000158094 
0.00804189 -0.00800423 0.0277252 
0.00775736 -0.00338422 0.0302012 
7.77e-05 0.000467303 0.0347071 
-0.00129311 0.00053371 -0.00122223 
-0.00145713 0.000523129 0.0338561 
-0.00175323 -0.000481329 0.0423311 
0.00283519 -0.00181136 0.041213 
-0.0033644 -0.00231441 0.0633036 
-0.00515303 -0.00309012 0.0680937 
-0.00780336 0.0082661 0.0513445 
0.00274685 -0.00415072 0.0526261 
-0.00808 0.00705181 0.0441011 
0.000696836 -0.00142793 0.0361779 
-0.00782637 0.0310014 0.0301316 
-0.0132226 -0.0173936 -0.0246441 
-0.0170707 0.0756727 0.120788 
-0.020552 -0.0158603 -0.00799154 
-0.000575601 -0.000313245 0.0816473 
0.00128311 -0.000354441 0.0828433 
0.000745029 -0.00287567 0.078419 
-1.511e-05 -0.00190939 0.0811305 
0.000205806 -2.46098e-05 -6.90727e-05 
0.000246287 9.98793e-05 0.0478062 
-8.42465e-05 3.29806e-05 1.73509e-05 
0.000392816 -0.000788561 0.037442 
-0.000472348 4.05071e-05 0.000923676 
-3.09491e-05 -0.000386238 -6.28721e-05 
0.00115698 0.00241189 0.0504277 
-0.000791377 0.000324276 0.0416375 
0.00259684 0.00144588 -0.00191112 
-0.00327406 -0.00262451 0.0406083 
0.00142144 0.0031573 0.000939138 
-0.00626074 -0.0113925 0.0298589 
-0.00775783 -0.00726896 0.109975 
0.00604627 -0.00416537 0.0521827 
-0.00307901 -0.0032118 0.0729425 
-0.0132952 -0.0236282 0.0927939 
0.000948171 -0.000508478 0.000536509 
0.00613793 0.000235845 0.0284585 
-0.000376599 -0.0012958 0.0495319 
-0.00213326 -0.000202509 0.0294028 
0.0090125 -9.22043e-05 0.0755539 
0.0218979 0.0190557 0.0527927 
0.00379673 0.0274978 0.0946094 
0.0170914 0.00395305 0.0400395 
0.00770091 -0.000776316 0.0772141 
-0.00157699 0.00342986 0.0476559 
0.0103767 0.00736177 0.0647326 
4.13475e-05 -0.00522895 0.0694042 
-7.46292e-05 -0.000416872 0.0474396 
0.00021614 0.0017046 0.0395021 
0.00170791 -0.000787592 -0.00235077 
-0.000857169 0.000134369 0.0305131 
-0.00180101 -0.0114556 0.0563664 
0.000324152 0.0044458 0.0480859 
-0.002066 -0.010784 0.0337111 
-0.000854129 0.00111538 0.0674899 
0.00553729 0.000547234 0.0790303 
-0.00270485 0.0107168 0.0207938 
0.0101048 0.0150793 0.076257 
0.000667729 -0.0020264 0.0396635 
0.0244285 0.000117178 -0.012149 
0.0164304 0.0553203 0.0730404 
-0.0050823 0.000850087 -0.00489906 
-2.08991e-05 0.00448887 0.0317644 
-0.0160684 -0.00963679 0.0627849 
-0.00718998 -0.021966 0.0745713 
-0.0234655 -0.00788102 0.0873704 
-0.00939426 -0.000939351 0.065524 
-0.000150357 -0.00184626 0.0574904 
-1.91375e-05 -0.000642219 0.0717076 
0.00117208 -0.00748515 0.071614 
-0.00118044 -0.00351669 0.0639067 
0.00254855 -0.0087591 -0.0058788 
0.0100929 0.000138679 0.0340978 
0.0338908 -0.0401397 0.0525954 
-0.00130405 0.00687248 0.0198864 
-0.00829717 0.00402464 0.068778 
-0.00358572 0.00206926 0.0719095 
-0.00792582 -0.00252463 0.0696007 
-0.0106052 0.00617575 0.0632472 
-0.00137334 -0.00090445 0.0808254 
0.00018683 0.000832999 0.0813127 
0.00136389 0.000516247 0.0865425 
-0.000335094 0.000157531 0.0852295 
-0.0103725 0.0105652 0.0616079 
-0.0109984 0.00908054 0.0491253 
-0.00895842 0.0116959 0.045938 
0.00547745 -0.00471913 0.0420866 
0.00387543 0.00576774 0.0518914 
0.000567875 0.00250757 0.0636042 
-0.00395299 0.00218134 0.0200122 
-0.0125282 -0.0266419 0.0662902 
-0.000215006 6.35785e-05 0.000456924 
0.000267726 -7.31262e-05 -0.000158466 
-0.000119543 4.07642e-05 0.000621939 
0.000362937 0.00103682 0.0499998 
-0.000167225 -0.000540972 -0.000565127 
0.000354987 0.000549271 0.0508081 
-0.000100726 6.71252e-05 -0.000247303 
0.000904166 0.00141442 0.0384524 
-0.00236183 -0.0117946 0.0565782 
0.000144421 -0.0100186 0.0678962 
0.00039231 -0.0122338 0.053308 
0.0010613 0.00230486 0.0764574 
0.00124616 -0.000622422 0.0554289 
0.00110173 -0.001693 0.0726102 
0.00469034 -0.00145754 0.0780276 
0.00622477 -0.0026553 0.0662844 
-0.00556554 -0.00320491 -0.0150953 
0.0331162 0.00750021 0.0467683 
-0.000301481 -0.00137676 -0.00241934 
-0.00347491 0.00121198 0.0111374 
-0.000843539 -0.00873459 0.0539688 
-0.0128566 -0.0069696 0.0709866 
-0.0153321 -0.0138873 0.0536093 
-0.00442307 -0.0111601 0.0634482 
-0.0121788 -0.000980207 0.0578567 
-0.0104265 -0.0013337 0.0712575 
-0.000126478 0.00305442 0.071298 
-0.00865975 0.00303564 0.0605453 
0.00533712 -0.00407619 0.0655087 
0.010374 -0.0118366 0.080896 
0.0150212 -0.0151967 0.0665449 
0.0101458 -0.00507175 0.0761663 
0.00976118 -0.00460275 0.0643545 
0.0108707 -0.00320678 0.0525143 
-0.00351039 0.0022377 0.056514 
0.00114464 0.00119491 0.067082 
-0.00840113 -0.000184623 0.0698586 
-0.00894083 -0.00242481 0.0695039 
-0.00697479 -0.0105835 0.0690036 
-0.00968785 -0.000106948 0.0633824 
0.0047799 0.00101707 0.0756486 
0.00157891 -0.00134439 0.038353 
-4.89189e-05 0.00121534 0.0427671 
0.00268399 0.0020045 0.059677 
-0.000892929 1.11182e-05 0.0851009 
-0.000328473 0.000743797 0.0810496 
0.00540899 0.000487502 0.0804938 
0.00100613 0.000127025 0.0787614 
0.00124669 -0.00265784 0.0584829 
0.00295933 0.00425357 0.0560747 
0.000377315 -0.00095391 0.0393904 
-0.000381895 -0.00182685 0.0321249 
0.00189589 -0.00398635 0.0793345 
0.000123791 0.000826592 0.068217 
0.00145154 -0.000590108 0.0720066 
-5.79662e-05 -0.000357647 0.0824579 
0.000255698 -0.00140171 4.81105e-05 
-0.00265022 0.00383084 0.0283578 
0.0011478 0.000155311 -0.000567333 
-0.000689779 0.00107257 0.0370645 
0.0190378 0.0231694 0 
0.0130656 -0.00347028 0 
-0.0321844 -0.029494 0 
-0.0577948 -0.0459472 0.0839387 
0.00134817 -0.00131654 0.0830188 
0.000691184 0.00374088 0.0482281 
-0.00119607 -0.00482211 0.047667 
0.00845832 0.000858917 0.0324139 
-0.00102653 -0.000259671 0.052789 
-0.00503594 0.00813235 0.0667334 
-0.00564 0.00628381 0.0711297 
-0.00294681 0.00186488 0.0693668 
0.0033262 -0.012366 0.0725012 
0.00859214 0.00912724 0.0676365 
-0.00185515 0.0138381 0.0701343 
0.0220871 -0.00485216 0.0741108 
-0.00121009 7.80776e-05 0.0347524 
-7.50173e-05 0.00102895 0.0329738 
0.000369958 0.000204735 -0.00014879 
-0.000646757 0.000680227 0.029462 
0.000859971 -0.00120492 0.0477458 
0.00736228 0.0044453 0.0297857 
0.00848542 0.00997552 0.0417316 
-0.00114088 -0.00174227 0.0305741 
-0.0085812 -0.00492768 0.0280187 
-0.00959699 -0.00643089 0.0349142 
0.00261798 0.00211222 -0.00260117 
0.00342995 0.00352718 0.041897 
0.000165048 0.000746837 0.0012009 
0.000531338 0.000735744 0.0401771 
-0.000177653 -8.48697e-05 -0.000148762 
0.00139775 -0.000459035 0.0373141 
-0.00429056 0.00844441 0.0717015 
-0.00131346 0.0107273 0.0670078 
-0.00114671 0.00781288 0.0765827 
0.000778871 -0.000896595 0.0706617 
0.00605842 -0.00477422 0.0685084 
0.0011209 -0.00199548 0.0720352 
0.0007761 -0.000824187 0.0549791 
0.00624894 -0.00233673 0.066896 
0.00425104 0.00185833 0.0542301 
0.00157668 -0.000298022 0.0547656 
0.00142605 -0.000179655 0.0646283 
0.00474399 -0.00271401 0.0688653 
0.00791949 -0.0105503 0.048899 
0.00577148 -0.0119811 0.0465374 
-0.000799084 0.00102291 0.0724702 
-0.00227348 0.00327866 0.034203 
0.00139425 0.0118054 0.0578348 
-0.000346472 0.0118902 0.0497343 
-0.000854846 -0.00559788 0.0574711 
-0.000931715 -7.87014e-05 0.0680081 
-0.0496233 0.00305336 0.0439854 
0.0266219 0.0216496 0.145633 
0.0139474 -0.00449528 0.0512361 
0.000727402 0.0232883 0.15379 
-0.00297851 0.0118518 0.0518544 
-0.00105652 0.011275 0.043805 
0.00182618 -0.00520315 0.0554583 
0.000861281 -0.00095682 0.0341389 
0.0162072 0.0211797 0.0251652 
-0.00231013 0.00518387 0.0658251 
-0.0184992 -2.81012e-05 -0.0223205 
0.0405195 0.0382095 0.116725 
0.0123879 -0.000221268 0.0746078 
-0.0097431 -0.00714251 0.0802717 
0.00157013 -0.00431723 0.100546 
0.000719364 -0.0118024 0.0595036 
0.0378053 0.0056302 0 
-0.0238223 -0.0117238 0 
0.0291232 0.0123701 0 
0.0481172 0.048736 0.178749 
-0.0135895 -0.00679726 0.080042 
0.00427876 -0.0327007 0.104439 
-0.00830247 -0.00433542 0.0669345 
0.0107967 -0.0091272 0.0127751 
0.000388071 0.00429709 0.0535578 
-0.00464976 -0.00243369 0.078021 
-0.000458986 0.00274474 0.0632396 
-0.00646472 -0.0245057 0.0639299 
0.00038633 -0.000136002 0.0442632 
0.00634994 -0.00383901 0.0699367 
-0.000504036 0.00236794 0.0416973 
0.00429661 -0.00613175 0.066739 
0.00669334 -0.00670946 0.0691928 
0.000909987 -0.00698085 0.0697184 
0.00407004 -0.00717423 0.0734471 
0.0090835 -0.0105216 0.0679411 
-8.37563e-05 -1.21483e-05 -0.000308615 
-0.00171872 0.00160102 0.0403904 
0.00187972 -0.000690441 0.00108247 
-0.000497156 0.000261078 0.0307518 
0.0014439 -0.00347002 0.0799806 
0.000248848 8.31012e-05 0.0671051 
-0.000910087 -2.23323e-05 0.071832 
0.00205998 -0.00439741 0.0653312 
-0.00196223 -0.000351874 0 
-0.00341754 0.000664676 0 
0.00606137 0.00535698 0 
-0.00230185 -0.000446431 0.00984619 
0.00452148 -0.0104808 0.0288774 
0.00374412 -0.010323 0.0264243 
0.00483162 -0.0124211 0.047414 
-0.000475388 0.00419026 0.0331009 
0.000790748 -0.000900715 0.0478064 
-0.0020954 -0.00145575 0.0384863 
0.00186822 -0.00157789 0.0471768 
0.00199711 -0.00431309 0.0652617 
-0.000729791 -0.00116715 0.000290627 
-0.000288676 0.00047518 0.0427201 
0.00111585 0.00282754 0.0503689 
-0.00044623 0.000548278 0.0367796 
-0.00620712 -0.0102064 0.0512723 
-0.00379684 -0.0104034 0.0348205 
-0.00408979 -0.00897471 0.0278508 
0.00312121 0.00571247 0.0365842 
-0.00158764 -0.000584784 0.0432525 
-0.00369014 -0.00533834 0.0663498 
-0.00213671 -0.00131779 0.0497613 
-0.00198398 -0.00286731 0.0655478 
-0.0247625 0.0135433 0.250345 
-0.0126763 0.0139108 0.255276 
-0.0149561 0.0270485 0.25126 
0.107935 -0.0369787 0.20962 
-0.00308075 -0.00156683 0.0765052 
-0.00779716 -0.00194252 0.0698886 
-0.00886086 -0.00850377 0.069385 
-0.0042851 -0.00303679 0.0673955 
0.0104627 -0.00554001 0.0460645 
0.00929948 -0.00252654 0.0317883 
0.00871176 -0.00385375 0.0262352 
-0.00283202 0.000920383 0.0327459 
-0.00134093 -0.00136512 -0.00124278 
0.0340035 -0.041533 0.0621903 
-0.00651787 0.0142139 -0.0199976 
0.00287379 -0.00114531 0.0155308 
-0.00437548 -0.00222826 0.0715517 
-0.000155025 -0.00133237 0.0819609 
-0.00286261 0.00116526 0.0746027 
-0.00294452 0.000677417 0.0801876 
0.0157551 0.000386487 0.0569519 
-0.0182854 -0.00289538 0.0503778 
-0.000135817 0.0315652 0.0929008 
-0.00757887 -0.00518894 0.0557356 
-0.0228938 -0.00806435 -0.00370666 
-0.0188869 -0.0448071 0.0919619 
-0.00331352 0.0108269 -0.0195447 
-0.0146894 -0.0126379 0.0222116 
-0.0336757 -0.0406028 0.106393 
-0.0214977 -0.0232054 0.152277 
-0.0356598 0.0082279 0.0582263 
0.0323118 -0.0359537 0.0090362 
-0.000479082 -0.00559571 0.0546546 
0.00552313 0.00849088 0.0776668 
0.0197332 -0.00815601 0.0901493 
0.00459156 -0.00789186 0.0749023 
0.0366198 0.00975073 0.082414 
-0.00105545 -0.0165123 0.148494 
0.0276687 -0.0323408 0.0651166 
0.00245413 -0.0150519 0.0741586 
0.0298185 0.0634802 -0.00400364 
0.0115083 0.00368883 -0.0652915 
-0.0116766 -0.0377261 0.111038 
0.0163187 0.0596716 0.13275 
0.00719739 0.0016823 -0.00927733 
-0.0160307 0.00330571 0.0499277 
0.00465928 0.000835853 0.057514 
-0.0196768 -0.00612085 0.0419652 
0.00121469 0.0201237 -0.0133536 
-0.0303273 -0.00570719 0.0194145 
-0.0569891 -0.0202903 0.101329 
0.0535754 0.0365972 0.0168609 
-0.00213881 -0.00134734 0.0798523 
-0.00311984 0.00247782 0.0782732 
-0.000235432 0.000818288 0.0800763 
0.000798906 0.000589353 0.0873545 
0.00970307 -0.000354344 0 
-0.00338741 -0.0334014 0 
0.0118652 -0.000825328 0 
0.00341193 -0.020095 0.05258 
0.000339483 0.00145733 0.0498485 
0.000743971 0.00185556 0.0361399 
-0.000326083 0.00162166 0.0481889 
0.000434743 0.000396426 0.0345915 
0.00103318 7.20495e-05 0.0812636 
-0.00150127 -0.00230549 0.0814063 
-0.00316863 -0.00140044 0.0712474 
0.000416606 0.000258911 0.0746234 
0.0013131 0.0107662 0.0436059 
0.00231867 0.0112022 0.0592774 
-0.00120518 -0.00449022 0.056165 
-0.000658935 -9.4745e-05 0.0365802 
-0.000887639 0.00157826 -0.000386832 
0.00163403 0.00446033 0.0414994 
0.000552287 -0.00289481 0.000346632 
0.00277581 -0.00176754 0.0422057 
-0.00222086 -0.00216748 0.0476587 
-0.00022757 0.00213874 0.0437348 
0.000144206 7.42619e-05 0.0450205 
-0.00348235 -0.00258708 0.0661156 
0.00910618 -0.0112621 0.067268 
0.0187831 0.000937927 0.0756824 
0.00563784 -0.0231944 0.107474 
-0.00929496 0.00469633 0.0519903 
0.002071 -0.0114684 0.0694461 
0.0145835 -0.00198698 0.0767035 
0.0100982 0.008998 0.0723298 
-0.00115127 -0.00630356 0.0633616 
-0.017307 -0.0135118 0.0519429 
0.00433414 -0.000973089 0.0527417 
-0.00841487 -0.00838373 0.0784308 
-0.0153325 -0.0130584 0.040882 
-0.00768843 -0.00482591 0 
0.00086441 0.00525752 0 
-0.00807185 -0.0114054 0 
0.0208233 0.0443392 0.0192183 
-0.00307166 0.00148457 0.0543026 
-0.00186007 0.00446378 0.0609111 
-0.000806179 0.00156122 0.0683467 
-0.00160418 0.00410448 0.0724651 
-0.00408977 -0.000573534 0.0588007 
0.000135598 -0.00089291 0.0395766 
-0.00661955 0.00947932 0.07344 
-0.00204585 0.0037652 0.0603279 
0.030314 0.0756117 0.11992 
0.0518756 0.0281006 0.0221527 
-0.0286611 -0.00512305 0.100489 
-0.00180042 0.0363894 0.158267 
0.0131969 0.0200805 -0.0213865 
0.0178402 -0.0218626 0.0968262 
-0.0220545 -0.0679876 -0.0126695 
0.0164241 0.00404641 0.104609 
-0.001727 0.00456943 -0.00515584 
0.0114708 -0.00475254 0.0228138 
0.000676668 0.00246385 -0.0143777 
0.00834448 -0.0155299 0.0398743 
-8.51428e-05 0.000170884 -5.66873e-05 
-0.000341851 -0.000675618 0.0345555 
-0.000648836 -0.000481052 0.0437482 
-0.000128575 -3.17378e-05 0.0276929 
0.000198278 -7.94973e-05 -0.000534043 
-0.000144078 -0.000134156 0.000619431 
0.000477994 0.00177773 0.0500715 
-8.53222e-05 0.000366996 0.0363224 
0.00224532 0.00332115 -0.0138092 
-0.00187945 0.0652019 0.00124931 
0.00501368 0.043874 0.0894033 
-0.0215925 -0.0108057 0.0652282 
0.0087538 -0.00549453 0.0474156 
0.000469704 0.00132781 0.0352489 
0.00759013 -0.00404868 0.0304084 
-0.00123207 0.00177682 0.0330473 
0.0155398 0.0294915 -0.0265659 
-0.00315416 0.0220706 0.0798125 
-0.0193579 0.0510806 -0.00502932 
-0.0114119 0.0114172 0.103204 
-0.00370825 -0.0083997 0.0717389 
0.00112244 0.00173665 0.0749305 
0.000340887 0.000882466 0.0662924 
-0.00106863 -0.000665978 0.0759359 
0.00129092 -0.00164412 0.0726122 
0.00574177 -0.00479301 0.0755265 
0.00101052 -0.0027976 0.079084 
0.000635248 -7.62322e-05 0.0820324 
-0.000520924 0.000585397 -0.00302588 
-0.00109842 0.000888989 0.0315796 
0.00271166 -0.00111086 0.0380449 
0.0105735 -0.00121077 0.0238273 
-0.00534846 0.0118721 0.0456793 
-0.00724898 0.0110238 0.0474281 
-0.00525101 0.00935342 0.0289006 
0.00351314 -0.00610063 0.0449425 
-0.00514199 0.00531503 0.0721565 
-0.00252517 0.0057646 0.071081 
-0.0141343 0.0188368 0.0708087 
-0.0117063 0.0072272 0.0658408 
0.00422529 0.0010919 0.0783233 
-0.000149523 -0.000784056 0.0865749 
0.00170146 0.00181879 0.0811252 
0.000297171 0.00122474 0.0819831 
-0.00473937 0.00122164 0.0256673 
0.000590794 -0.000695346 5.38639e-05 
0.000673287 -0.000512227 -0.00126194 
0.000105462 0.000469732 0.0378156 
-0.00242327 0.00164471 0.0386384 
-0.017316 -0.00132849 0.0471714 
-0.0120865 0.00432727 0.088582 
0.00293441 -0.00201612 0.0385555 
0.00294373 0.0724946 0.112272 
0.0357045 0.0549506 0.14322 
-0.00288163 0.0343222 -0.0573544 
-0.00337597 0.0154725 0.239873 
0.000708245 -0.00325025 0.0793329 
0.00045364 -0.00723966 0.0690418 
0.000141572 -0.000677218 0.0722105 
-0.000896544 -0.00386234 0.065829 
-0.0011452 -0.00147064 0.0703244 
0.000105518 0.000989145 0.0473671 
0.00623864 0.00598836 0.0708553 
-0.00138133 -0.00118202 0.057682 
-0.00572057 0.00642306 0.0291805 
0.00405222 -0.00110905 0.0452673 
-0.00773822 0.0076454 0.0475906 
0.00108545 -0.000241993 0.0363458 
-0.00474893 -0.00919906 0.0512394 
0.000733043 0.000217435 0.0666621 
0.00175537 0.00447227 0.0389232 
-0.000829512 -0.0011897 0.040697 
-0.0112518 -0.00380235 0.0471845 
-0.0264999 7.52198e-05 0.0648604 
-0.00919268 0.0182862 0.0582903 
-0.020584 -0.00356017 0.0348742 
0.0500736 -0.0236933 0.0261351 
0.0238939 0.0176673 -0.0327618 
0.0222262 -0.0447948 0.123306 
-0.0239268 -0.0359818 0.0722161 
-0.000786787 -0.00307097 0.0568627 
0.000551427 -0.00033799 0.0725195 
0.00109306 -9.75184e-05 0.0672086 
0.000966653 -0.00416067 0.0647142 
0.0137275 0.00415312 0.0442083 
0.0146245 0.00700385 0.0577162 
0.0124168 0.00775731 0.0435758 
-0.00665744 -0.0021203 0.0339612 
-0.000143061 -0.00158743 -0.00413852 
-0.000677216 0.000452439 -0.000690451 
-0.00213255 -0.000456034 0.0413549 
0.00119828 -0.0016363 0.0322376 
-0.00322159 0.00416214 0.0701369 
0.00159649 0.00652203 0.0677892 
0.00400036 -0.00613121 0.0424766 
-0.00139116 0.0137059 0.0852877 
0.000540263 0.00143126 0.0396761 
0.00399302 -0.00864973 0.0390799 
-0.00372274 -0.00383626 0.0611544 
-0.00155784 0.00154044 0.0377047 
-0.000527599 -0.000388732 0.0676536 
0.000503232 -0.000250115 0.0790904 
-0.00503561 -0.000876677 0.0637418 
0.000480889 0.00045659 0.0663067 
0.0277364 -0.0151045 0.0796145 
0.00258834 -0.0310154 0.0310579 
0.0427436 0.0134578 0.0244404 
-0.0028541 -0.0352707 0.0254294 
0.0171605 0.00273946 0.0657141 
0.019202 -0.0245701 0.16479 
0.0127476 -0.0200511 0.0309418 
0.0109687 -0.00753635 0.057896 
-0.0303241 -0.0197997 0.0447217 
0.0236015 0.0223331 0.0284402 
-0.000918113 0.000751848 -0.0179893 
0.00681968 0.000311264 0.0209842 
0.00306387 -0.00013044 0.0522002 
0.00171421 0.00199035 0.0669761 
0.000461786 -0.000122556 0.0377808 
-0.000930511 -0.00100377 0.0349644 
-0.0127615 -0.0695306 0.0509817 
0.0164878 -0.0152338 0.0776138 
-0.0193618 0.00802029 0.0244768 
0.0284802 0.00189804 0.0782029 
-0.00498783 0.00611334 0 
0.00722841 0.0152421 0 
-0.00621934 -0.0247319 0 
-0.00121378 -0.0375393 0.0392883 
0.00449829 0.00481514 0.0761058 
-0.000660686 0.000170495 0.0816575 
0.00598844 0.00618256 0.0679515 
0.00183597 -0.000639987 0.0792309 
-0.000539542 -0.00102687 0.0434523 
0.00080738 0.000417323 0.0293268 
-0.00095769 -0.000715766 0.0336882 
-0.00151887 -0.000996776 0.058885 
0.0194549 -0.0160524 0.083802 
0.024831 -0.0173767 0.0750377 
0.014806 -0.0133814 0.0651396 
0.00184671 -0.00755453 0.0784465 
-0.00325616 0.000841996 0.0530277 
-0.000190619 0.000892299 0.046988 
-0.000575531 0.00298186 0.0711486 
-0.00185028 0.00398878 0.0599824 
-0.00107442 0.0115033 -0.00533219 
0.00940076 0.0062244 0.0480388 
0.0254003 0.0221722 0.0496614 
-0.00272565 -0.00937534 0.0100781 
-0.00280313 -0.00142627 0.076687 
-0.00890055 -0.00798164 0.0682101 
-0.00353711 -0.00532715 0.0751324 
-0.0045548 -0.00332297 0.0675359 
-0.000119383 -0.00022415 0.00085662 
-0.00170388 0.00161593 -0.0017598 
0.000182483 0.00109293 -0.00104919 
0.00888025 0.000961858 0.00892752 
0.00513995 -0.00240537 0.0690931 
0.00932381 -0.0135903 0.0697979 
0.00493182 -0.00697655 0.0715211 
0.0126772 -0.00719691 0.0716873 
-0.00017954 -0.0115298 0.0560958 
0.00059931 0.00499607 0.0467023 
0.00192191 -0.0115058 0.0465602 
0.00123991 0.00144977 0.034386 
-0.00159772 -0.00134398 0.0436505 
0.000930216 -0.00101316 0.0370515 
-7.23907e-05 -0.000281792 0.0009155 
0.000474051 0.000230913 0.0312856 
-0.00606997 -0.00138431 0.0655325 
-0.00788945 -0.0105874 0.0700878 
-0.00829006 -0.00271811 0.0690312 
-0.00407719 -0.00233754 0.0678588 
-0.0467614 -0.0250365 0.0332533 
-0.0218328 0.00120097 0.123516 
0.00300234 -0.00244766 0.118721 
-0.0173136 -0.00492154 0.14849 
0.000663948 0.0119267 0.0426619 
0.00159497 0.0117436 0.0572536 
-0.00136641 0.0122535 0.0498995 
-0.000319149 -0.00579628 0.0578124 
-0.000612022 -0.000925316 -0.000179728 
0.00201103 0.00211559 0.0399169 
-0.00215446 0.00394547 0.0534005 
-0.00279466 0.00413915 0.0284106 
0.00110694 -0.0218877 0.0278252 
0.0138012 0.00648457 0.0118284 
0.00730025 0.00316229 0.0462832 
0.0125178 0.000177572 0.0342993 
-0.00225941 -0.00150301 0.0498321 
0.00020377 -0.00243333 0.0413679 
-0.00086232 -0.00119993 0.0438939 
-0.00397768 -0.00231594 0.0671616 
0.0025022 -0.00304136 0 
0.00223639 -0.00418226 0 
-0.000832998 0.000531174 0 
-0.00539253 0.0134164 0.00634003 
0.000116816 -4.23915e-05 0.000511076 
0.000302281 -6.97213e-05 -0.000348254 
-3.92034e-05 1.51026e-05 -0.000208134 
-3.94101e-05 0.000483496 0.0499635 
0.00749488 -0.0218566 0.221199 
-0.000354418 -0.00868494 0.235797 
-0.00110351 -0.040383 0.26554 
0.0259463 0.0907913 0.132387 
-0.0045268 -0.00771243 0.0686311 
-0.00354287 -0.00574762 0.0739187 
0.00293221 -0.00943901 0.070774 
-0.00371074 -0.0117437 0.0666587 
-0.00716509 0.031967 0.196614 
-0.00480736 0.00805156 0.264409 
0.089378 0.046941 0.0988265 
-0.0094481 0.00164684 0.18111 
0.0132781 -0.00167711 -0.0166446 
-0.0138171 0.0240431 0.0344098 
-0.0541588 0.0489917 0.118917 
-0.00783791 0.0054018 -0.0125846 
0.00336474 0.000782688 0.0555437 
0.000970239 -0.000452692 0.0635058 
0.00786463 0.000159832 0.0719788 
0.00607956 -0.00122505 0.0677326 
0.0018295 0.0115413 0.0717496 
-0.00397198 -0.00445765 0.063078 
0.00243115 0.000285101 0.0461675 
0.000846572 -0.000240863 0.0380822 
0.000465972 7.07164e-05 -0.000645459 
-0.000794922 0.000453191 0.0340765 
-0.000430189 0.000480769 0.0345367 
-0.00131524 0.000363646 0.029764 
-4.81363e-05 -0.000223343 -0.000152409 
0.0007206 -3.98019e-05 0.00107303 
-0.000292003 0.0020538 0.0479358 
0.00145039 0.000376962 0.0435004 
-0.00110025 -0.00130806 0.0475764 
0.00601345 -0.00226069 0.035462 
0.000272976 0.00150061 0.0487349 
-0.00215321 0.000676566 0.0267612 
0.0498838 -0.0321655 0.0513124 
-0.0169392 -0.0192528 0.0361307 
-0.00866262 0.0381154 0.0650133 
0.0434526 -0.0420512 0.109165 
0.00134354 -0.00238566 0.0475647 
0.000176113 0.000100926 0.0352944 
-0.00368726 0.00979761 0.0454745 
0.000313824 0.00102712 0.0681657 
-0.0190433 -0.00860178 0 
0.0147895 0.0181036 0 
-0.010691 -0.00666281 0 
-0.0500912 -0.0513131 0.0745868 
-0.00592436 -0.00338811 -0.00220561 
0.00194057 -0.000939517 0.0399578 
0.0168068 0.00281907 0.0385169 
0.0128432 -0.00084115 0.0225725 
0.00569099 0.00414183 0.0484008 
0.000633013 0.00353338 0.0391064 
-0.00193129 -0.00377538 0.0458766 
-0.00273432 -0.00351558 0.0678496 
-0.00037452 -0.000120547 -0.00222491 
-0.00327551 -0.0010844 0.0277473 
0.000137335 -0.000313867 0.00180848 
-0.00248512 0.00391067 0.0232641 
-0.0161181 0.00278935 0.0583316 
-0.000556549 -0.00348929 0.0660309 
-0.00747293 -0.00179567 0.0731295 
-0.0164882 0.000454694 0.0669381 
5.70162e-05 0.000154591 0.000164005 
-5.52567e-05 0.000110743 -0.000743264 
-0.000290668 -0.00129167 0.0348722 
-0.000114558 -0.0003826 0.0296369 
-3.67452e-06 0.0106786 -0.002505 
-0.0339123 0.0092328 0.072851 
-0.00584838 0.0076863 0.0287925 
0.0121426 0.00690815 0.0403604 
-0.00512737 -0.00352709 0.0628392 
-0.00969499 -0.00882347 0.0710229 
-0.014942 -0.00635251 0.0714366 
0.00591786 -0.0113548 0.0684034 
0.000599848 -0.00310103 0.0790835 
0.000892817 -0.00025937 0.0833866 
0.00518981 -0.00446647 0.0728636 
0.00201856 -0.00110271 0.0804408 
-0.00166279 -0.00147944 0.0503516 
-0.00344633 -0.00368077 0.0661588 
-0.00115923 -0.00224383 0.0686015 
-0.00437483 -0.00477957 0.0633447 
0.0213654 -0.00341128 0.0572209 
0.0356385 0.00763417 0.0670728 
0.0180737 0.0148567 0.036499 
0.00333483 0.00409227 0.054925 
-0.00339725 -0.00229986 0.0677308 
-0.00123098 0.000968858 0.0295559 
0.0101059 0.0061514 0.0396627 
0.00465987 -0.00264543 0.0566378 
0.000154676 -0.0100051 0.0696389 
0.000645923 0.00183911 0.0753369 
-0.00164166 -0.0109894 0.0564952 
-0.00131113 0.000838425 0.0658998 
-0.00525661 0.0119345 0.0444813 
-0.00561335 0.0114269 0.0604275 
-0.00766626 0.0107498 0.0460379 
0.00374288 -0.00595586 0.0499488 
0.000207122 0.000523221 -8.86798e-05 
-5.37527e-05 -0.000964024 0.0345731 
-0.000652216 -0.00149775 0.0364932 
-1.16557e-05 -0.000679139 0.0296792 
0.00489787 0.0020666 0.0741019 
-0.00049348 -0.000194322 0.0444329 
0.0034372 -0.000441824 0.0553884 
0.00264657 0.00231399 0.059619 
-0.0109378 -0.00520312 0.0826197 
-0.0051526 -0.00590415 0.0635738 
-0.0101265 -0.018643 0.0696787 
-0.00227804 -0.00148644 0.0772946 
0.00676112 -0.0104837 0.0492737 
0.0076608 -0.00838382 0.0321846 
-0.000784566 0.00327169 0.0346335 
0.00152895 0.000302808 0.0614685 
0.00103339 -0.000514371 -4.69745e-05 
-0.000131208 -0.000615585 0.0368756 
-0.000326743 -0.000394179 0.0479177 
-0.00327291 0.00238146 0.0305131 
0.000858389 0.00106176 0.0390713 
-0.00284373 0.00103975 0.0516445 
-0.00119382 0.00416243 0.0702884 
0.000308459 0.000199303 0.0306807 
-0.00354532 0.00321646 0.074378 
-0.00184199 0.00255122 0.0390398 
-0.000996206 0.00252328 0.0533528 
-0.0023309 0.00327354 0.060363 
0.00388958 -0.0111991 0.0456845 
-0.00149288 0.00420535 0.0484997 
0.0039672 -0.0104629 0.0632599 
0.000456949 0.00119192 0.0706864 
0.00309356 0.00012657 0.0782119 
0.00130933 -0.000784485 0.0729629 
0.00362993 -0.00287005 0.0551934 
0.000446174 0.000204957 0.066015 
0.0209149 0.00703149 0.0653972 
-0.0023821 0.00159186 0.101089 
0.00865365 -0.0179828 0.145721 
0.0102877 -0.0127177 0.0626662 
0.000753853 -0.00713588 -0.00750922 
-0.0031426 -0.00458497 -0.00125677 
0.00882849 0.012608 0.0179076 
0.0174844 0.00783844 0.0177953 
-0.0102499 0.00231547 0.0490558 
0.00125098 -0.000512878 0.037824 
-0.000119549 0.000376205 0.0668793 
0.00146176 1.65688e-05 0.0350922 
0.0116247 0.00208372 0.0592449 
-0.00167916 0.00100967 0.0677202 
0.0116982 0.00333919 0.0459128 
0.000847663 -0.000731209 0.0662038 
-0.00214615 0.0414806 0.196582 
-0.0278379 0.0570351 0.153039 
0.000150583 -0.00313245 0.267226 
0.0112591 0.0434616 0.040884 
0.00362284 -0.00068148 0.0774462 
0.000668179 -4.36313e-05 0.0667152 
0.00240805 0.00142697 0.0738792 
-0.000478738 0.000401759 0.0768271 
0.0127276 0.00687294 0 
0.000774112 -0.000977722 0 
0.00711645 0.00313633 0 
-0.0778831 -0.0245566 0.0254375 
-0.0322166 0.00147526 -0.0412523 
0.0336377 -0.0262988 0.0790366 
-0.0228728 -0.0482238 0.0256002 
0.0160929 -0.0580062 0.134017 
0.0229583 0.026476 0.252419 
0.0673424 0.00494611 0.00102378 
0.0406117 0.0373081 0.143005 
-0.0588634 0.0347065 0.12878 
-0.0119062 -0.00300156 0.0573121 
-0.0123217 0.000346751 0.0482177 
0.000635402 0.00113802 0.0672731 
0.00409557 0.00240433 0.0359286 
0.00633164 0.00289027 -0.0124837 
0.00331109 0.00372523 -0.00110348 
0.00544591 -0.00617911 0.0310126 
0.00529539 -0.0165163 0.0308219 
0.000300174 0.000923021 -0.000482744 
0.00176613 0.00115866 0.000379475 
-0.0106004 -0.00385409 0.0305761 
-0.00102369 0.000273021 0.0382498 
-0.00227638 -0.00174503 0.0497122 
-7.99955e-05 -0.00188937 0.0464113 
-0.00201528 -0.00254161 0.0704568 
-0.000482667 -0.00048091 0.0463838 
0.000652033 0.00132475 -0.00500168 
-0.0126761 -0.0112209 0.0417003 
0.000601713 0.00295378 0.0423128 
-0.00633904 -0.0145761 0.035115 
-0.00056641 -0.000509899 0.0369094 
-0.000248716 -0.000401048 0.0353754 
-0.000241836 0.000302519 -0.0004564 
0.000398068 -0.00142812 0.0285334 
0.00699254 -0.0089721 0.0493185 
-0.0011748 0.00209808 0.0355551 
-0.000528893 -4.98632e-05 0.0707058 
0.00147868 -0.000847888 0.0608626 
-0.00235641 0.00716934 0.0257787 
-0.000421974 0.00187095 0.0469871 
0.00593318 -0.000260645 0.0744337 
0.000970372 -0.00316429 0.0756161 
-0.0077767 0.0607052 0.0236535 
-0.00564113 0.042443 0.0792051 
-0.0165253 -0.0259194 0.0689095 
-0.0295497 -0.00651565 0.0282917 
0.00136859 -0.000786755 0.0555988 
0.00480255 -0.00156345 0.0779798 
0.000562705 0.000447499 0.0657692 
0.00584737 -0.0022721 0.0663224 
-0.00092736 -0.00155622 0.0540322 
0.0181103 -0.0029147 0.0512845 
0.00590138 5.23161e-05 0.0759726 
0.0146107 -0.00617656 0.062077 
-0.00137637 0.0129136 -0.0101662 
0.00382464 -0.0226919 0.0508262 
-0.0139382 -0.0630367 0.133842 
-0.00245506 0.0156661 -0.0345294 
0.00110858 0.00528701 -0.0017994 
-0.0129679 -0.00892383 0.035889 
-0.00140411 0.000182455 0.0571074 
-0.00403173 -0.00697222 0.0309039 
-0.00243822 -0.0103184 0.0737066 
0.0047859 0.0104011 0.0554611 
0.0257551 -0.00608042 0.0857225 
0.0154398 -0.00432022 0.0813797 
-0.00190612 0.00169268 0.0551519 
-0.00223094 0.00237796 0.0416624 
-0.00162923 0.000717504 0.0523375 
-0.0022685 0.00194401 0.0710738 
0.00247847 0.000738016 -0.000596108 
0.000396245 0.000639217 0.038265 
-0.00742914 -0.000633075 0.0245833 
0.00115784 0.000406878 0.0332703 
0.00161056 -0.000205897 0.0801757 
-0.00293379 0.0012595 0.0746697 
0.000323486 -0.00185096 0.0818143 
-0.0032446 0.000819557 0.0797956 
-0.000540681 0.00205911 -0.00302048 
0.000433072 0.00139093 -0.00111891 
0.00271739 -0.000860856 0.00121062 
-0.00623405 -0.0101583 0.0106049 
-0.0120459 0.0266939 0 
0.0219439 -0.018569 0 
-0.0222543 0.0178688 0 
-0.00884507 0.0772666 0.0874509 
-0.0685892 0.0345251 0.104893 
0.00065028 0.0314659 0.0994948 
-0.0478029 0.000871889 0.024186 
-0.0197806 0.0312578 0.123519 
0.000604662 0.0100156 0.0577954 
0.000629396 -0.000118076 0.072089 
7.59076e-05 -0.00361162 0.0577616 
0.000577132 0.00145409 0.0574286 
-0.00452678 -0.000191742 0.0640883 
-0.00014252 -0.000301392 0.065961 
-0.00243318 0.000146704 0.0759625 
-0.00409211 0.00115129 0.0663111 
-0.00983323 0.00568021 0.0423926 
-0.00934792 0.00709849 0.0500482 
-0.0101125 0.00507591 0.0588883 
0.00505029 -0.00237782 0.0547214 
-0.00882024 -0.00729214 0.068158 
-0.00829629 -0.0012122 0.0700871 
-0.00321471 -0.00226962 0.0774148 
-0.00585546 -0.00290013 0.0698387 
0.000888079 -0.00339783 0.0794219 
0.000968187 -0.0055425 0.0700588 
0.00107539 -0.0096381 0.0711776 
-0.00278935 -0.00499991 0.0735274 
0.0247597 0.00563107 0.01732 
0.0269365 0.0111662 0.0755944 
0.0053712 -0.0255552 0.0339409 
-0.0272126 -0.0097494 0.0660681 
0.000758409 6.58849e-05 0.0799132 
-0.00013436 0.000445923 0.0851151 
0.00134565 0.00215022 0.083127 
-0.00229715 0.000463635 0.0802929 
0.00171218 0.00963499 0.0604036 
-0.000445748 -0.00340854 0.0562467 
-0.000251416 0.000365299 0.036828 
0.000341566 0.00149826 0.0573157 
0.00173195 0.0043081 -0.000122622 
-0.00253326 -0.00142163 0.0420293 
-0.000558346 0.00172128 -0.00063511 
-0.00761262 -0.0151606 0.0312975 
0.00535348 -0.0028881 0.0246955 
-0.000107122 0.000328115 0.0007876 
-0.00146709 0.000764398 -0.00139731 
-0.000646423 0.000463254 0.0317481 
-0.000173318 -4.45995e-05 0.000149777 
0.000119573 3.14883e-05 5.78924e-05 
0.000199667 5.60962e-05 0.000885091 
0.000137397 0.00124441 0.0477078 
0.0018929 -0.00932281 0.0900023 
0.0110084 -0.0130578 0.044234 
-0.00198419 0.000713774 0.0420994 
-0.00764874 -0.00368699 0.0645664 
-0.005169 0.0101174 0.0611568 
0.00286295 -0.00354338 0.0482535 
-0.00482593 0.0107421 0.0452949 
0.000650445 0.000690653 0.0679681 
-0.00515584 -0.00150996 0.0255624 
-0.000440391 -0.000239391 0.000372422 
0.00181692 0.000664898 -0.00132798 
0.000621145 1.19005e-05 0.0431163 
0.000290706 0.000189986 0.000479998 
-7.81763e-05 -5.60839e-05 0.000340087 
-0.00010277 -6.09601e-05 -0.000752589 
0.000452659 -0.000279206 0.0368568 
-0.000214513 -0.000629556 2.26538e-06 
0.000727912 0.00168556 0.0353087 
0.000572231 0.00128923 0.0498368 
0.000285224 0.000588663 0.0349849 
-0.036019 0.0180389 0 
0.00489087 0.0182918 0 
0.0308666 -0.00949161 0 
0.0177585 -0.0548384 0.0367531 
-0.0065082 -0.00443067 0.0650489 
0.000965018 0.000275228 0.0373686 
0.0117091 0.0072948 0.0715156 
0.00314533 -0.0134758 0.03388 
-0.00608363 -0.00566485 0.0666628 
-0.00754964 1.12453e-05 0.0682745 
-0.00873231 -0.00777414 0.0693869 
-0.0103717 -9.61079e-05 0.0645037 
0.00519766 -0.00435913 0.0695101 
0.00242203 -0.00120757 0.0532692 
0.0010045 -0.00202673 0.0459912 
0.00556481 -0.00188831 0.0677515 
-0.0266573 -0.0289546 0.127734 
-0.0119646 0.0126815 0.118244 
-0.0327345 -0.0165596 0.032458 
-0.00454078 0.0255598 0.0326926 
0.00257885 0.00317534 -0.00501462 
-0.00439182 0.0107521 0.0306869 
0.00359899 -0.00165075 -0.0128409 
0.00585576 -0.00452712 0.0252751 
-0.00735249 -0.00125358 0.0614038 
0.00331421 0.00811133 0.0667097 
0.00458206 -0.00200334 0.0414076 
-0.00373635 0.00298814 0.0616559 
-0.0014394 0.014262 0.0792781 
0.00747464 -0.00849062 0.0475221 
0.00115772 0.00545788 0.0642405 
-0.00518583 0.0173141 0.0819809 
0.00156312 0.00143399 -0.00153344 
0.00133288 -0.000237609 -0.000542927 
0.000375488 -0.00199641 -0.00215537 
-0.00915632 -0.00145635 0.017153 
0.0125356 -0.0119017 0.0676595 
0.00529934 -0.0090771 0.0758807 
0.0200518 -0.0224152 0.0661522 
0.0123842 0.000677641 0.0601602 
-0.000182772 -6.28082e-05 9.2303e-05 
-0.000771678 -0.000831091 0.0286624 
-0.000621268 -0.00106926 0.0472953 
-0.000267934 -0.000257461 0.0310546 
0.0060875 -0.00328356 0.0689692 
0.00541393 -0.00762099 0.0681179 
0.00810403 -0.00504452 0.0724784 
0.0139456 -0.00451491 0.0648786 
-0.00165606 0.00885937 -0.0119974 
0.011215 -0.0126184 0.0302187 
-0.00396356 0.01121 -0.0102526 
0.0166145 -0.0252095 0.030084 
0.00399376 0.0133738 0.0657268 
-0.0150276 -0.00185047 0.0725781 
-0.020159 0.0236614 0.0666203 
-0.00183957 0.0100727 0.0646226 
-0.00606609 5.41695e-06 0.0806911 
-0.00736074 -0.00505244 0.0687643 
-0.00470482 -0.000356115 0.0596246 
-0.0162394 0.00343771 0.0743883 
0.0089531 0.00395659 0.0705533 
0.00784359 0.00606256 0.0675094 
-0.00107383 -0.000369995 0.0687137 
0.000278519 -0.000226088 0.0797764 
-0.0023695 0.0062629 0.0587772 
0.00107176 -0.00129188 0.0428531 
0.00709488 -0.00552438 0.0729764 
0.00253662 0.000800206 0.0490745 
0.00671259 0.000208412 -0.00155303 
-0.00802563 0.00259551 0.0260712 
-0.00248561 -0.00186708 -0.00761375 
-0.00633425 0.00944238 0.0204215 
0.010029 -0.00990675 0 
0.00191856 -0.00997132 0 
-0.0230125 -0.00187654 0 
-0.0334044 0.0152098 0.0375755 
-0.00289433 -0.00199968 0.0775275 
-0.000135231 -0.000283699 0.0808509 
-0.00129131 -0.00174174 0.0709262 
-0.00277438 -0.00515498 0.0761185 
0.00770132 0.00564227 0 
-0.00104946 -0.000590936 0 
-9.95045e-05 0.00145619 0 
0.0082511 0.0102526 0.00904259 
0.000462924 0.000426799 -3.92753e-05 
-0.000215288 -0.000508077 0.0350761 
-0.000659779 -0.00110807 0.0470825 
-0.00069019 -0.000992743 0.0298782 
0.00434857 -0.00289825 -0.0038163 
-0.00898616 0.00463199 0.0251399 
-0.00974184 0.0044176 0.0284391 
0.00270597 -0.000599341 0.0369946 
-0.0481964 -0.0516016 0.0654853 
-0.0124917 0.01521 0.0551133 
-0.0118253 -0.0196244 0.0190859 
-0.0493152 -0.0456387 0.122776 
0.0030315 -0.00619042 0.0737433 
-0.00856445 0.00843834 0.0942759 
-0.0197653 -0.008893 0.0601665 
0.00296077 0.00233625 0.0230271 
0.0106501 -0.00164041 0.0536988 
-0.000791586 6.27697e-05 0.0354146 
-0.00321941 0.000343689 0.0551588 
0.00162212 0.000436752 0.0676911 
0.00212174 0.00382901 0.0501677 
-0.00163539 0.0290648 0.0517351 
0.004894 0.0401074 0.072246 
0.0118528 -0.00304343 0.0137163 
-0.0113419 -0.00365994 0.0424129 
0.00465492 0.00235399 0.0457382 
-0.0119021 -0.00285471 0.0559575 
0.000435399 -0.00175423 0.0608648 
0.000167956 -0.000197194 0.000210727 
0.00101299 -0.000280658 0.0430384 
-0.00033202 -0.000263962 0.000680882 
-0.00172552 0.000941457 0.031105 
0.0118944 -0.0331446 -0.00497519 
-0.0144813 -0.00272791 0.0594024 
-0.0142579 0.029678 -0.0109223 
0.00171408 -0.0134042 0.0769372 
-0.0105746 -0.0369035 0.055587 
0.00547739 -0.032548 0.107244 
-0.00740457 -0.0214999 0.110118 
-0.00161374 -0.00962992 0.0642511 
-2.66689e-05 0.0137073 0.0584627 
0.0212797 0.00764065 0.0625477 
0.0103913 -0.0106874 0.0765294 
0.000110725 -0.000440966 0.0820887 
0.00321901 -0.00157301 0.0408819 
0.0109563 -0.00127234 0.0161716 
0.00486006 0.00796956 0.0355 
0.010769 -0.00451936 0.0597055 
0.0127311 -0.0128371 0.0152151 
-0.00857959 0.00513956 -0.0298062 
-0.0208831 -0.00883986 0.0124967 
0.0177311 -0.02439 0.0756323 
-0.0306208 0.0155926 0.0618381 
-0.0128693 -0.00784919 0.115999 
0.0136035 0.0177511 0.0762782 
0.0278916 -0.0100385 0.0950543 
0.00540513 0.0102296 0 
-0.00368532 -0.0325718 0 
-0.00224112 0.0329065 0 
0.0210769 -0.0658283 0.0562897 
0.00686776 0.012745 0.0694064 
-0.000700856 0.00439706 0.074368 
0.00702829 0.00706723 0.0644545 
0.00285113 0.00564143 0.0748884 
0.000423427 -0.000610075 -0.000168876 
-0.00021708 0.000574141 5.26607e-05 
-0.000527133 -0.000235071 0.0345299 
-0.000696788 0.00103282 0.0331478 
0.0397141 -0.0117847 0.155887 
0.00648604 -0.00974617 0.249061 
0.0122829 -0.0376609 0.0873608 
0.0672201 -0.0144671 -0.0639788 
-0.00186172 0.0103971 0.0512478 
0.000236425 -0.000288727 0.0349103 
0.000866277 -0.00388633 0.0557827 
-0.000426025 0.000892069 0.0684331 
-0.00304301 0.00172171 0.0681155 
0.00312467 -0.00825326 0.0588029 
0.00655548 0.0157419 0.07086 
-0.0012089 0.00429078 0.0385379 
0.0107134 0.000133168 0.0730417 
0.00990598 0.00991632 0.0682842 
0.0185749 0.0201286 0.0572407 
0.0124737 0.00529688 0.0638419 
0.00667061 0.0146614 0.0686612 
0.00261839 -0.00733069 0.0580168 
0.0112554 0.00430301 0.0544302 
-0.000468037 0.00400233 0.0425872 
0.00225614 0.00875913 -0.00581695 
-0.0135038 -0.0097816 0.0216219 
0.00965434 0.0101958 -0.00943367 
-0.0275189 -0.00812387 0.0198879 
0.00613503 -0.00815623 0.0756014 
0.00293363 -0.00135514 0.0421285 
0.00585201 0.00270994 0.0880504 
-0.00953748 0.0212219 0.0802684 
-0.00185479 -0.00129978 0.0833692 
0.00064121 0.000495184 0.0840527 
0.000986103 0.000607282 0.0850955 
0.000359938 -0.000193808 0.0834201 
-0.00448663 -0.00463099 0.240709 
-0.0135129 0.0267364 0.159197 
-0.0345275 -0.000508498 0.129063 
-0.0276508 0.0141953 0.231063 
0.00359261 -0.0105366 0.0719503 
-0.00331949 -0.00562852 0.0731346 
-0.00190563 -0.00319419 0.0695487 
-0.0025563 -0.0118458 0.0643359 
-0.0383834 0.0159909 0.0913289 
-0.000434758 0.00731814 0.0155643 
-0.0353726 0.0551874 0.0391697 
-0.0287966 0.00576057 0.053827 
0.00280909 0.00163753 0.073712 
0.00208799 0.000573412 0.0777525 
5.83089e-05 -0.00217302 0.0794817 
-0.00298025 0.000241479 0.079319 
0.0022536 0.00202979 0.0539484 
0.00268196 0.00491796 0.0715844 
0.00242117 0.000705445 0.0432909 
0.00188773 0.00274051 0.0580536 
-0.000569969 0.00063562 0.0810609 
0.00513557 -0.00459593 0.0720909 
0.00505814 -0.000870817 0.070004 
0.00198069 -0.000832475 0.0812417 
-0.00176751 -0.002845 -0.00220068 
2.73435e-05 -0.00070916 0.00150098 
-0.000404948 0.00425297 0.0419516 
0.00312098 0.0110014 0.0308623 
-0.00363411 0.00150189 -0.00411929 
0.0095646 -0.00734893 0.0204883 
-0.00268393 0.000785798 -0.00454539 
0.010656 -0.000321682 0.0158448 
-0.000370321 0.00555325 0.0765198 
6.40796e-05 0.00224691 0.0801929 
-0.00339991 0.00325 0.0782619 
1.78948e-05 0.00026278 0.0851853 
-0.000998253 0.00212907 -0.000212616 
0.00461488 -0.00385353 0.0211216 
-0.000225632 0.00220708 -0.00422546 
0.00620679 -0.00170337 0.0159345 
0.00257186 -0.00827574 0.0744015 
0.00016318 0.00286348 0.0754214 
0.000436635 -0.00995613 0.0691052 
-0.000214977 0.00182885 0.0846738 
0.0242659 0.0171136 0.0499503 
-0.0287774 0.0140604 -0.0355444 
0.011828 0.00402532 0.0129306 
0.0943597 -0.0259574 0.18436 
-0.0162034 0.000284572 0.00907387 
-0.00849323 0.0106501 0.0462278 
0.012013 -0.0196568 0.0719922 
0.00252382 -0.0379144 0.092963 
-0.00533424 0.00301917 0.070388 
-0.00208394 0.00159139 0.0546202 
-0.00217445 -0.0017054 0.0490122 
-0.00408068 0.00165508 0.0657735 
0.00330213 -0.0251854 0.271084 
-0.015797 -0.0458198 0.180393 
0.0665518 -0.00333204 0.101509 
-0.0770597 -0.0200245 0.0960351 
-0.000203813 -9.17777e-05 0.000271126 
-2.75123e-05 -1.2906e-05 -7.62238e-05 
3.24508e-05 1.65437e-05 0.000378131 
0.000845843 -0.000624689 0.0475107 
0.0182017 -0.000279508 0.0592926 
0.00886449 0.00476932 0.0555537 
0.0100149 -0.000572514 0.0784143 
0.0174793 -0.00192405 0.0764504 
-0.000449295 0.000993471 -9.60213e-05 
0.000581933 -0.000384119 0.000715593 
0.000239167 -0.000359889 0.0478985 
0.00124201 -0.00146766 0.037351 
-1.13357e-05 0.000392039 -0.000214724 
-0.000348538 -0.0011798 0.0357709 
-0.000147282 7.03804e-05 0.000589218 
7.28693e-05 -0.000947321 0.0340381 
0.00210166 0.000233037 0.0718309 
0.00938792 0.00072184 0.0748752 
0.0195024 -0.000964355 0.0552549 
0.00944432 0.00291235 0.0625815 
-0.00231441 0.000426227 -0.00254222 
-0.00308849 -0.0135049 0.0325154 
-0.000892831 0.000806468 0.0416856 
0.0012425 -0.00107588 0.0335956 
-0.00517179 -0.00428152 0.0781063 
0.00140115 0.00121622 0.0841244 
0.00105709 6.82086e-05 0.0834797 
-0.000825831 -0.00059318 0.076358 
0.0137133 -0.00121711 0.0743969 
-0.0169648 0.000287408 0.0322905 
-0.0128115 0.00061144 0.060911 
0.000968125 0.00634953 0.026116 
0.00030976 7.34813e-05 -0.000285457 
-0.000733357 0.0001041 0.0347043 
-0.000414451 1.56991e-05 0.03492 
-0.00111029 -0.000403033 0.0285492 
0.00781741 0.00644999 0.0264508 
-0.00751917 -0.00236728 -0.00185087 
0.00829656 0.00641942 0.0318315 
-0.000548118 0.00102906 0.0320844 
0.00645508 0.00613808 0.070061 
-0.000450756 -0.000440435 0.0678971 
-0.00126626 -0.00137196 0.0697707 
-0.00172663 -0.00131472 0.0583686 
-0.000617736 0.000698786 0.0809451 
0.00103862 -0.00413078 0.0715045 
0.00470058 -0.00417331 0.0719597 
0.00228668 -0.00108558 0.0810665 
8.89966e-05 0.000139413 -0.000347369 
0.000597074 -0.000120159 0.0475997 
-7.15657e-05 -9.47913e-05 0.000130074 
0.000839707 -0.00100648 0.0348833 
-0.00347203 0.000729624 -0.000862941 
0.00107972 -0.000731653 -0.00123455 
0.00578709 0.0011534 0.0377098 
0.0106476 0.000308098 0.0205244 
-0.0436459 -0.0391247 0.114628 
-0.0583217 -0.00481729 0.0931595 
-0.00899969 -0.0170507 -0.0619837 
-0.0326766 -0.0255925 0.207825 
-0.00271964 -0.000538082 -0.000441117 
7.60897e-05 -0.000448892 0.0347375 
0.00879694 0.000900171 0.0307543 
-0.000227506 -1.91617e-06 0.0349289 
-0.00281191 -0.00763998 0.0699872 
-0.00106643 -0.00603955 0.0774031 
0.000899687 0.000642121 0.0849277 
-0.00233336 -0.000787485 0.076168 
-0.000153845 0.000112566 0.000164307 
-5.65817e-05 -0.000251979 0.000233518 
0.00206958 0.000746026 0.0437628 
-0.000678842 0.000540657 0.041926 
0.00447545 0.00862941 0.0700017 
-0.00174277 -0.00234849 0.0710487 
0.00649598 0.00782999 0.0674886 
-0.0011026 -0.0015127 0.081928 
0.0216525 -0.0216872 -0.00885765 
-0.0323388 -0.012167 0.135661 
-0.0154084 -0.0425996 0.0215416 
-0.0264149 -0.000597182 0.0332358 
-0.0042277 0.0113664 0.0587371 
-0.00914869 -0.0122164 0.0805914 
-0.00537216 -0.00358415 0.100538 
0.00527157 0.0148435 0.0710405 
-0.015064 0.0226728 0.07606 
-0.000613007 -0.00176317 0.0657837 
-0.0106903 0.00192031 0.0580638 
-0.0172145 0.00998425 0.0663299 
0.0134646 -0.000565661 0.0674258 
0.00324504 0.022115 0.0849589 
0.0180726 0.0192589 0.0593779 
0.00970957 0.00973713 0.0689405 
0.00417712 -0.0119808 0.070817 
0.00511959 0.0122455 0.0663992 
0.00170775 0.00185781 0.0478932 
0.003099 -0.00868254 0.0679049 
0.00836887 0.0172738 0.0767194 
-0.0112086 0.00935582 0.0227463 
0.0100172 -0.0146961 0.0775901 
0.0201895 0.0383516 0.0697813 
0.000535447 -0.000310221 -0.000493442 
-0.0010324 -0.000485095 0.0340003 
-0.000866317 0.000409313 0.0286186 
-0.000607095 0.000461549 0.0297366 
0.00218209 -0.000763382 -0.000492634 
-0.00371117 -0.00296878 0.0579151 
-0.00346121 -0.00148486 -0.00187406 
7.492e-05 -0.00142448 0.0367741 
0.00752123 0.00783383 0.0499287 
0.00677574 0.00783998 0.0694702 
0.000170188 5.19347e-05 0.0474566 
-0.00151368 -0.00193426 0.0580887 
0.00722476 0.038513 0.12081 
0.0148906 -0.0260332 0.121964 
0.0249211 0.00563237 0.218291 
0.0595698 -0.0509195 0.0446372 
-0.00173474 0.00628951 0.0692247 
-0.00079509 0.0138738 0.0760908 
-0.00124723 0.0162041 0.0754239 
-0.00328177 0.0102431 0.065976 
0.00603314 0.000881649 0 
0.000165749 -0.00163762 0 
-0.00973885 -0.00145428 0 
0.000944533 -0.0066441 0.0181578 
-0.0038646 -0.00159855 0.0695102 
-0.00760431 -0.00904851 0.0687903 
-0.0134442 -0.0108859 0.0621288 
-0.0137147 0.00152309 0.0649519 
-0.00910774 -0.00332339 0.0685405 
0.00324459 0.00126645 0.0739553 
-0.0103607 -0.00266582 0.0568232 
-0.000675471 0.00134736 0.0774974 
-0.000310049 -0.00112333 0.00115152 
0.00123984 -0.0005441 0.0482929 
0.000117752 -0.000234259 0.000223014 
-0.000742341 0.000540833 0.0294706 
-0.0057661 0.00836698 0.0251711 
-0.00531182 0.00947431 0.0292086 
-0.00778961 0.00970157 0.0469802 
0.000777053 -0.00265905 0.0363531 
0.00116713 -0.0021954 0.0452729 
0.00444571 -0.0027538 0.0733622 
0.00171286 -0.000498398 0.0426455 
0.00116793 0.000129971 0.0494379 
-5.42763e-05 0.00144259 0.0749034 
-0.000532869 0.000645294 0.0693763 
1.67329e-05 0.00255667 0.0490564 
-0.00195157 0.00455157 0.0720919 
0.00900295 -0.00196916 0 
0.00420817 -0.00790825 0 
-0.00373191 0.000299513 0 
-0.0301038 0.0297696 0.0116305 
0.00195664 0.00297774 0.0796954 
0.000764558 0.00581515 0.0743833 
0.00476526 0.00944833 0.0693032 
0.00467754 0.00505829 0.0747563 
-0.0101618 -0.00272456 0.0567434 
0.00281645 0.00138366 0.0738705 
-0.00865446 -0.00341547 0.0695214 
-0.00114891 -0.00116615 0.0605929 
0.00271468 -0.0013048 0.0528289 
0.00176838 0.000460888 0.0420894 
0.00195843 -0.00219972 0.0444854 
0.00426226 -0.00128764 0.0696292 
0.000629849 0.000503436 -0.000889517 
-0.000234749 -0.000319647 -5.38863e-05 
-0.000835129 -0.000921012 0.0397737 
0.000595812 -0.000580928 0.0331138 
-0.00323562 -0.00526652 0.0703595 
0.00170377 0.00155402 0.0331531 
-0.0144803 -0.00896207 0.0550907 
-0.00215487 -0.0192599 0.0313876 
0.0011172 -0.000498427 0.0828089 
-0.000105226 -0.00149393 0.0813793 
-0.000360703 0.000193923 0.0855209 
0.00200999 -0.000946309 0.0808895 
0.000244281 0.00306141 -0.00730371 
0.00692775 0.0097036 -0.0191863 
-0.0113033 -0.00469134 0.0269687 
-0.0425885 0.0159504 0.0648817 
-0.0269321 0.0131932 0 
0.00508751 0.0028183 0 
0.0129982 -0.00880359 0 
0.00609199 0.0550507 0.0635038 
0.000124761 -0.00027708 0.000370563 
-6.17062e-05 0.000139089 -0.000387134 
0.000216332 -0.000476981 0.000297298 
-0.00103066 0.00116493 0.0415488 
0.000953444 0.00127144 0.0390495 
0.00171029 0.003068 0.0724337 
0.0029413 0.00114835 0.0412541 
-0.00192359 -0.00036295 0.0295577 
-0.00946446 0.00449458 0.0596913 
-0.00937107 0.00527456 0.0429162 
0.00399028 -0.00145696 0.0535728 
-0.000219769 -0.00106487 0.0666784 
-0.0153231 0.00616822 -0.0230863 
0.0283841 0.0347276 0.0827298 
0.0119378 0.0261677 0.00643604 
-0.0167764 0.013873 0.028618 
0.00794452 -0.012271 0 
-0.00672786 -3.34931e-05 0 
-0.00216893 0.00963401 0 
0.0102995 -0.0207935 0.0167224 
-0.00041936 -0.000828255 -0.001178 
-0.00579031 0.00569868 0.0315034 
0.00184991 -0.00144434 -0.000713838 
0.000605154 0.000121476 0.0369015 
-0.00136552 0.00134072 0.0532469 
-0.00538971 0.00546835 0.0709978 
-0.000178534 0.00107827 0.0690888 
-0.00277777 0.00233822 0.069854 
-0.02567 -0.00744216 0.0590745 
0.0450315 -0.0053593 0.0591953 
0.0203369 -0.0655707 0.128632 
0.0039559 -0.042984 0.162095 
-7.40434e-05 -0.000160955 0.000166573 
-7.25176e-05 -0.000130882 -0.000249489 
-1.513e-05 -4.07139e-05 0.000154703 
0.000519472 0.000682615 0.0399081 
-0.000575649 -0.000282001 0.0439748 
-6.24418e-05 -0.000149379 0.0336516 
-0.000889539 -4.15612e-06 -3.45266e-05 
0.000421326 6.85396e-05 0.0279358 
0.000733531 0.0204087 0.0711708 
-0.00265427 0.00932419 0.0706132 
-0.000635196 0.0302488 0.0539366 
7.03098e-05 0.00683688 0.0548126 
0.000382826 -0.000509108 0.000889818 
0.00131163 0.000444088 0.0431184 
-0.000772625 0.00251512 0.0470394 
-0.00106359 0.00067619 0.0380324 
0.00801062 0.00565689 0.0347671 
-0.0016392 0.000919404 0.0287199 
0.00331133 -0.00463211 0.0380758 
0.00639586 -0.0027629 0.0593696 
0.000408115 0.000232759 0.000940611 
-0.000376542 -0.00116277 0.0358764 
-6.59921e-06 0.000274947 -0.000142372 
0.000130782 -0.000889719 0.0337468 
0.00352174 -0.000830424 0.0767624 
0.00582455 -0.00494792 0.0753481 
0.00127812 -0.00147886 0.0734204 
0.000433281 0.000130841 0.0815237 
0.0108636 0.00223154 -0.0106274 
-0.0128232 -0.00429033 0.0240253 
-0.00230696 0.0080541 0.0269173 
-0.0256772 -0.00329465 0.0232987 
-0.00072396 0.00773694 0.0688915 
0.000127905 -8.69172e-05 0.0496902 
-0.0016607 0.00299935 0.0600812 
-0.00192701 0.00562685 0.0717727 
-0.036214 0.0261817 0.165189 
0.0050129 0.00636163 0.24636 
0.0173088 0.0371204 0.167423 
-0.0313258 0.0608881 0.0153689 
0.000117343 0.00134957 0.0513015 
0.00497721 -0.0139615 0.0354808 
0.00252802 -0.00260324 0.0409105 
-0.000996744 -0.00293142 0.0695973 
0.00142513 -0.00031181 0.0960694 
-0.00786242 -0.00608174 0.078646 
0.0126305 -0.00275937 0.07741 
0.00631226 0.00226528 0.0775154 
-0.00830751 0.00221717 0.0428135 
0.000348252 0.000588975 0.0380327 
0.00327916 4.48107e-05 0.0542692 
-0.000285275 -6.95907e-05 0.0657509 
-0.0101795 -0.0299773 0 
0.0204713 0.0325083 0 
0.0119192 -0.00323292 0 
-0.0599415 -0.0155496 0.0626754 
-0.0112222 0.00938672 0.0368346 
0.00522641 -0.00188665 -0.00218668 
0.000258857 0.000915579 0.0570707 
-0.00425103 0.00711896 0.026773 
8.92379e-06 7.25336e-07 -2.30921e-05 
-4.40745e-05 -3.58243e-06 0.000573276 
-0.00013294 -1.08055e-05 0.000113097 
0.000144293 -0.000611101 0.0338268 
-0.00657589 -0.00343085 0.00328179 
0.00137243 -0.00285247 -0.00587656 
0.00112255 0.00902687 0.0378325 
0.0161395 0.0230018 0.015613 
0.0288297 -0.018436 0.0793921 
-0.0202669 -0.0332959 0.157689 
-0.0604411 -0.036319 0.103661 
-0.0391431 -0.000507029 0.0152731 
-0.000673179 -0.00175153 0.0812616 
0.000349371 0.00114449 0.0863677 
0.00191704 -0.00258482 0.0804223 
-1.95963e-05 -0.000442279 0.0839143 
-0.0236232 0.0431523 0 
-0.0165616 0.0463136 0 
0.0172942 -0.0441013 0 
-0.033893 0.0642175 0.185994 
-0.00479985 0.0031916 0.268877 
-0.0294907 0.0692944 0.0924066 
-0.0362638 0.0230303 0.167772 
-0.0176089 -0.0900228 0.161214 
-0.0015763 0.000513501 0.0555428 
0.00146661 -0.000739086 0.0354997 
-0.00290437 -0.000730954 0.0518694 
-0.000584185 0.00124168 0.0676171 
0.000346307 0.0082856 0.0690825 
-0.00385983 0.00990102 0.0671763 
-0.00173503 0.00853915 0.0742039 
-0.00193806 0.00459287 0.0725615 
-0.0032956 0.00346124 0.0390936 
-0.00131076 -0.0154345 0.0370801 
-0.000729387 -0.0086244 0.063504 
0.000599442 -0.000395645 0.0305828 
0.00300814 0.00813814 0.071913 
1.9071e-05 -9.86597e-05 0.0720997 
-0.000687826 -0.00199549 0.0696743 
-0.000126476 -0.000921314 0.0809815 
0.0241473 -0.110085 0.0686334 
-0.0522859 -0.000784126 0.167653 
-0.0717155 0.0074791 0.123646 
-0.035122 0.0679206 0.053824 
0.000289486 8.64213e-05 -0.000438227 
-0.000281217 -0.000137233 0.0409638 
-2.55601e-05 -0.000536439 -0.00233675 
-0.0028547 0.000301575 0.0325982 
3.7508e-05 -3.05031e-06 -8.81219e-05 
0.000280606 -0.00024241 -0.000594915 
0.000491475 0.00120505 0.0386345 
-0.000558676 0.000284323 0.0304999 
-0.0209466 0.00970309 0.102666 
-0.0218388 0.00136499 0.0543114 
0.00189019 -0.00200621 0.0307793 
-0.00786213 -0.0041185 0.00361664 
0.000392405 -0.000292348 -0.00158606 
-0.00383648 0.00377642 0.0549843 
0.00143494 -0.000505778 -0.00355372 
-0.00267626 0.00389403 0.0285216 
6.17049e-07 1.59356e-05 6.37116e-05 
-2.2578e-05 -0.00016406 0.000587162 
3.23237e-05 9.47019e-05 -0.00181688 
0.00183491 -0.00187586 0.0491391 
-0.10021 0.00520097 0 
0.0919153 -0.00798812 0 
0.0830958 -0.0218157 0 
0.016432 -0.0352757 0.201655 
-0.000625201 0.000608929 -0.000144624 
-0.000473999 0.00045762 -0.000609656 
0.000633254 -0.000617671 3.52294e-05 
0.00242851 -0.000956641 0.0424067 
0.000512925 -0.0127343 0.0533818 
0.000311772 -0.0106919 0.0679294 
0.00323491 -0.0106477 0.0623064 
0.000807539 0.00332388 0.0764129 
-0.0543958 0.0640642 0.0665068 
0.0336016 -0.0138254 0.0648475 
-0.0075413 -0.0327588 0.0369524 
-0.0509867 0.0339 0.103305 
-0.00400311 -0.00337751 0.0760369 
0.000413053 0.000999341 0.0852759 
-0.00210295 -0.00158814 0.0808556 
0.00116537 -0.000829076 0.08436 
0.0236522 -0.0122966 0 
0.0149631 -0.0275701 0 
-0.0274567 0.0231989 0 
0.00953177 -0.0496389 0.082469 
-0.0177181 -0.00678272 0.0705074 
-0.00761382 -0.0120512 0.0960599 
-0.00311609 0.00099096 0.0471833 
-0.00160512 -0.0376161 0.120154 
0.00232955 0.00370707 0.0782505 
0.00417882 0.00702401 0.0690456 
-0.000444386 3.20093e-06 0.06736 
0.00499013 0.00403885 0.0713281 
0.00192331 -0.00546542 -0.00238913 
-0.00117907 0.00966879 0.0258543 
-0.00142866 0.0100737 0.029916 
0.000594838 -0.00121585 0.0370218 
-0.00632269 0.000197784 0.0302184 
-0.000420489 0.00144409 0.0415294 
0.00121847 -0.00281801 0.000575419 
-0.00272685 0.00517413 0.0236621 
-0.0106306 -0.00696548 0.0697422 
-0.0159218 -0.0173268 0.0625848 
-0.00456967 -0.0106256 0.0621855 
-0.00616757 -0.0088455 0.0704075 
0.0407359 0.0132551 0.0762306 
0.00028806 0.0105033 0.0786053 
-4.73607e-05 -0.0127509 0.13467 
-0.00179114 -0.0186831 0.0806077 
-0.000893846 0.000258132 -0.000175771 
0.000147597 -6.91606e-05 0.000416377 
0.0021566 -0.00037007 0.0380062 
0.000493566 0.000767968 0.0333674 
0.0142909 -0.00674055 0 
-0.0144361 -0.000734851 0 
0.0074446 0.00333346 0 
0.0379395 -0.0240385 0.0308482 
-0.00276807 -0.0360914 0.063546 
-0.0183349 -0.0155898 0.0983593 
-0.00232495 0.0054363 0.0766541 
0.00936983 -0.0149066 0.0760095 
0.00837261 0.0171849 0 
0.0345453 0.0046892 0 
-0.034462 -0.0203765 0 
0.0331426 0.0253833 0.0404461 
0.0215489 0.0132862 0.0504685 
0.0171971 -0.00261851 0.102744 
0.00799553 -0.0288914 0.111291 
-0.00319905 -0.0133009 0.0723402 
0.0100043 1.61743e-05 0.21452 
0.0214123 -0.0110139 0.256672 
0.00694376 0.00782585 0.248983 
-0.0971878 -0.0109323 0.155613 
-4.94568e-05 0.00153485 0.0429643 
0.000479985 0.000931874 0.0392634 
0.000864335 0.00176008 0.0491481 
0.000542654 0.0036263 0.0694565 
0.00256557 -0.00717231 0.0734679 
-0.000158958 -0.00964355 0.068343 
-0.000791573 -0.00613368 0.0766992 
0.000815734 0.000967683 0.0862622 
-0.0108477 -0.00422603 0.0338349 
-0.00985333 -0.00310696 0.0276678 
-0.0114588 -0.00360878 0.0441247 
0.00578263 0.00105944 0.0409536 
-0.0739203 0.0302457 0.114995 
-0.0128961 0.0282218 -0.0412796 
-0.060576 -0.00396327 0.082884 
-0.024002 -0.0128486 0.173025 
-0.0099197 -0.00521783 0.0709281 
0.0127951 -0.0278339 0.0834499 
0.0190496 -0.0119405 0.0400925 
0.00463689 -0.0117892 0.0281171 
-0.00923155 0.00789962 0.0506502 
-0.0102415 0.0074056 0.041735 
-0.00939556 0.00729858 0.0295952 
0.0029027 -0.00191538 0.0387757 
-0.000104845 0.00586803 -0.00368882 
-0.00538837 0.00206047 -0.00394357 
-0.00326196 -0.0128368 0.0611587 
6.34e-05 -0.0186367 0.0354009 
0.00135368 0.000501728 -0.000759525 
-0.000997274 -0.011578 0.0225441 
-0.000507278 0.000690672 0.00125493 
0.000128411 -0.00147123 0.0333137 
0.00378375 -0.0284191 0.0585129 
-0.0227995 -0.0113309 0.0886876 
0.00601023 -0.00916089 0.058542 
0.00415858 -0.00619324 0.0700701 
-0.0345366 0.0208947 0.190321 
0.000326214 0.00558188 0.259265 
-0.0285133 0.055784 0.154463 
-0.0469625 0.0167852 0.0279759 
-0.0105604 -0.000501229 0.0578689 
0.00318659 -0.000152154 0.0439868 
-0.0105372 -0.0022589 0.0435078 
0.00160991 -0.000557299 0.0339005 
-0.0157229 -0.00194352 0.0605974 
-0.0208319 0.0251726 0.0839815 
-0.00767445 0.0161674 0.0607004 
-0.0211367 0.00209646 0.0259793 
-0.00462523 0.0105532 -0.0226515 
0.00509212 -0.0108918 0.0285754 
-0.0111452 -7.12813e-06 -0.00355511 
-0.0166251 -0.0490842 0.0932823 
-0.00233768 0.000575103 0.0525723 
-0.00208737 0.00201387 0.0713405 
0.000314499 0.00243235 0.0474062 
0.00100599 -0.00115615 0.0342607 
0.000308062 0.000552945 -0.000337758 
-0.000359922 -0.000739683 0.00325684 
-0.000303585 -0.000534122 3.18605e-06 
0.00530587 0.00292108 0.0136428 
-0.00260428 -0.00327071 -0.000166177 
0.000251022 0.000302548 0.047003 
0.00539054 0.00746029 0.0300358 
-0.000322945 0.00104307 0.0320742 
-0.000480407 -0.000851583 -0.00019955 
0.000383046 0.000784606 0.00338659 
0.000439236 0.000743847 -0.000879714 
-0.00627674 -0.00235083 0.0254751 
-0.000125093 -0.00166966 0.0442473 
0.00328325 0.00109441 0.0485927 
-0.00161939 0.0059808 0.0544642 
0.00196354 0.00382439 0.0302064 
0.00176595 0.00346307 0.0393464 
-0.0061331 0.0304946 0.08753 
-0.00710104 0.00462245 0.0921456 
-0.0178436 -0.0128926 0.0654662 
0.0160412 -0.00824185 0.00213276 
-0.0551896 -0.025569 0.109539 
0.018556 0.00599779 0.0440274 
-0.00835268 -0.0411579 0.0614103 
-0.00148429 -0.00199782 0.0494354 
-0.000707113 -0.00045481 0.0461455 
3.24144e-05 -0.000497965 0.0348979 
-0.000957867 -0.00123659 0.030416 
-0.00212825 0.00138345 -0.000920502 
0.00347455 -0.0016348 0.0363858 
-0.0019831 -0.000339934 0.000902833 
0.0110955 -0.00152609 0.0228884 
-0.00884224 -0.00715343 -0.0145139 
0.01077 0.00951965 0.00482967 
0.0310601 0.0286334 0.0510157 
-0.00159919 0.00034324 0.0123136 
-0.00102676 -0.0343743 0.0724793 
-0.00257109 0.00108347 0.0713258 
-0.0219499 -0.0114653 0.0874194 
0.00878936 -0.00107668 0.0572481 
0.0173243 -0.0078915 0 
-0.0416571 -0.00745714 0 
0.0313993 -0.000455862 0 
0.0760296 -0.0231062 0.0844833 
0.00728331 0.00391613 0.0560946 
-0.0013399 0.0226077 0.0874989 
-0.0050229 0.0025984 0.0710412 
-0.00649367 0.00124473 0.0596891 
0.00974883 0.00658965 0.0581995 
-0.000622646 -0.00138855 0.0683781 
0.00740926 0.00761044 0.0680533 
-0.00229912 -0.00240725 0.0596097 
-0.0349878 0.0122127 0.107613 
-0.00172336 -0.00861598 0.0478478 
-0.0150429 -0.0276168 0.0437021 
-0.00955379 -0.00328153 0.0630075 
0.00885527 0.000860931 0.0310471 
8.85172e-05 -0.00162906 0.0348054 
0.0102049 0.00178618 0.0478504 
-0.000260052 -0.000604702 0.0347685 
0.00535706 -0.0052532 0.068567 
0.00886563 -0.00645068 0.0748249 
0.00663725 -0.00262823 0.0674417 
0.0059027 -0.00680839 0.0663163 
0.00233409 0.00227639 -0.00159441 
7.22898e-05 0.0162841 0.0382218 
-0.0143848 0.00561076 -0.00829545 
0.00032565 0.0015744 0.0249368 
0.00450465 0.00519477 0.0756685 
0.00509286 0.00198132 0.0769716 
0.00167977 0.00256525 0.0802342 
-0.000208153 -0.000508593 0.0842325 
-0.00186305 0.0113865 0.0673135 
-0.00394212 -0.00493417 0.063638 
-0.00959931 -0.00547341 0.0644412 
-0.00703369 0.0160815 0.0755095 
-0.0017623 -0.000611282 0.0424892 
-0.00153033 -0.00113223 0.0667041 
0.00146763 -0.00171572 0.0372999 
0.000816657 -2.25099e-05 0.0310361 
-0.00160263 0.0024025 0.0788573 
-0.0017639 0.000792431 0.0758018 
-0.0033721 0.00343157 0.069901 
-0.00250097 0.000458216 0.0804705 
-0.00204137 0.000130417 0.000155543 
0.00741619 0.00522011 0.0273094 
-0.00118685 0.00240359 0.000882939 
0.000454771 -0.00094654 0.0312793 
-0.056709 0.0481276 0.0786982 
-0.0120686 -0.0384079 0.181511 
-0.00489047 0.0252953 0.258059 
0.0158109 0.0407277 0.157286 
-0.0054122 -0.0123418 0.0508844 
-0.00299051 -0.0132486 0.0561369 
-0.00279893 -0.0136406 0.0347703 
-0.000477934 0.00429813 0.0657698 
0.00507707 -0.0188241 0.264756 
0.0221421 -0.0507666 0.118056 
0.0124081 0.0330196 0.120259 
-0.0395878 -0.012616 0.120342 
-0.00178155 0.0163869 -0.0462829 
0.0414262 0.0184588 0.0356111 
0.0380517 -0.0117192 0.0717145 
0.0494404 0.0202503 0.160634 
-8.21096e-06 0.0010232 0.0469926 
-0.00139393 0.00223379 0.0529919 
-0.00247719 0.00149401 0.0381281 
-0.00165242 0.0035462 0.0608538 
-0.000547464 -0.000700784 0 
0.00526884 0.00403147 0 
-0.00771713 -0.0029717 0 
0.0238765 0.0159279 0.0242026 
0.000935853 0.00315784 -0.000234771 
0.00584666 -0.00134774 0.0432052 
-0.00276544 0.000387767 -0.000140001 
0.00606973 -0.0073593 0.0274132 
0.000169732 7.41499e-05 0.000165508 
-0.000292466 -0.000128127 -0.000321232 
-5.85333e-05 -2.58508e-05 -8.52079e-05 
0.000492852 -0.000325668 0.0475976 
-0.00176688 -0.0131327 0.0406157 
-0.00316155 -0.012976 0.0329921 
-0.00299546 -0.013554 0.056485 
0.00230389 0.0082004 0.0487459 
0.000546678 -0.000534388 0.0795239 
0.00185713 -0.0011308 0.0807964 
0.00483695 0.000578407 0.0720599 
0.00109891 0.00251696 0.0828481 
-0.0132073 0.0843602 0.112124 
0.010777 0.0235408 0.00265889 
-0.026932 0.00692653 0.130701 
0.0167606 -0.00099133 0.13492 
-6.3148e-05 0.00103925 -0.000528921 
0.00233148 -0.000436099 -6.51245e-05 
-0.00486863 0.000704949 0.0218151 
-0.000651229 0.000677375 0.0377453 
0.0594357 -0.0613716 0.0838072 
-0.0237427 0.00388152 -0.00677357 
0.0425152 -0.0431282 0.139392 
-0.0455717 0.00869941 0.0331994 
0.0118484 -0.00631998 -0.0132833 
0.00215838 0.00359599 0.000772217 
-0.0204421 0.0404162 0.0513537 
0.00842305 -0.000621853 0.00765798 
-0.00190034 0.00220573 0.0726309 
-0.0115872 -0.00225825 0.0690001 
-0.0105841 -0.000117315 0.0575054 
-0.00177716 -0.000315171 0.070793 
-0.0187448 0.0299497 0 
0.000368331 0.00826202 0 
0.0118635 -0.0265482 0 
-0.0291221 0.0220351 0.0740713 
0.00356613 -0.000883903 0.0766154 
0.00146325 -0.00112668 0.0732061 
0.00570263 -0.00543893 0.0753096 
0.00676571 -0.0028818 0.0669732 
0.0567696 -0.00835328 0 
-0.0105275 0.00673173 0 
-0.0265303 0.0207475 0 
0.0566956 -0.00460129 0.0745383 
0.00142585 0.00124671 0.0842916 
-0.000867986 -0.000667087 0.0763438 
-0.00515897 -0.0042318 0.0777733 
-0.00111337 0.000634786 0.0771899 
-0.0070752 -0.00269476 0.0270491 
-0.00979095 -0.00312712 0.0451522 
0.00250729 0.000454908 0.040975 
0.000301293 0.00119309 0.0329018 
-0.000789017 -0.00281485 -0.000541999 
3.35513e-05 9.67729e-05 0.0369231 
0.00099307 0.00842683 0.0278138 
-0.000595607 0.000269374 0.0353965 
0.00683317 -0.00412216 0.0691347 
0.00623035 -0.00322109 0.0676922 
-0.000344166 0.00219187 0.0460123 
0.00496996 -0.00848569 0.0673514 
0.00010755 -0.00045427 -0.00021685 
-0.00111492 0.000310278 0.0342463 
0.000194065 -6.43421e-05 0.000446544 
-0.000557846 0.000845875 0.0290981 
0.0196954 0.0346222 0.0634539 
0.0191909 0.00540642 -0.0282746 
0.0110567 0.0384891 0.0598093 
-0.00244646 0.0406293 0.20682 
0.00547945 0.00167997 0.078609 
-0.000827075 0.000352423 0.0821489 
0.00474766 0.00461192 0.0761388 
0.00151803 -0.000394587 0.0790371 
0.0106933 -0.00529112 0.0629301 
0.00808737 -0.00862842 0.0650994 
0.00835251 -0.00581926 0.0740751 
-0.000986548 0.00149006 0.063817 
-0.0632856 0.0199605 0.071701 
-0.0134215 0.0221554 0.158953 
-0.0528982 0.040877 0.0783015 
0.0160689 -0.0227629 -0.0624793 
0.000164346 -0.000303657 0.000184017 
-0.000482841 0.000533992 0.0330075 
-0.000927262 -0.000330657 0.0440486 
-0.00111479 -0.000165903 0.0291724 
-0.0430793 -0.00826296 0.219182 
0.0132555 0.0410994 0.093232 
-0.0497116 -0.027119 0.0541672 
0.0247785 0.00420775 0.150277 
0.00339507 0.0182307 0.244848 
0.0678674 0.0111883 0.0137735 
0.0221209 0.0470507 0.172992 
-0.000860251 0.010522 0.202271 
0.0125049 -0.00356281 -0.0160772 
-0.023722 0.00409684 0.0657734 
-0.034105 -0.00217493 0.000729069 
-0.00788374 0.00776187 0.0275475 
0.00407832 0.00243339 0.0435569 
-0.00215491 -0.00367647 0.0731608 
-0.000637053 -0.00130296 0.0390499 
-0.00407559 -0.000453571 0.034306 
0.00416316 0.00666966 0.0683175 
0.00220885 0.00346822 0.0786515 
-0.000282805 0.000395793 0.0669988 
0.000585253 0.00456105 0.0680832 
-0.00826374 0.00904184 -0.00459677 
0.0350438 -0.0157127 0.086351 
0.0389594 0.00973858 0.00381669 
-0.0112074 -0.0313774 0.031313 
-0.0120403 0.00908453 0 
-0.00735369 0.0139692 0 
-0.00190548 -0.017379 0 
0.015119 -0.0528863 0.022519 
0.000389988 -0.00779587 -0.0222258 
0.0133384 0.031197 0.0411194 
0.0283781 -0.001893 0.0594098 
0.0408167 -0.000358943 0.0654883 
-0.0166393 -0.00290843 0.0433194 
0.0358773 0.0015432 0.0539163 
-0.00229613 -0.00254626 0.0290545 
0.00899669 -0.000519502 0.0722142 
2.11879e-05 8.00859e-06 -8.66032e-05 
0.000285545 0.00119437 0.0354249 
-0.0001093 -0.000598368 0.000252486 
0.000478468 0.000940251 0.0344896 
0.00787962 0.0266904 0.173931 
0.00398766 -0.00802574 0.230534 
0.00498138 0.00737328 0.24858 
-0.0407201 -0.00059602 0.233391 
0.000661578 0.00048343 0.0836664 
0.000628211 -0.000429651 0.0820797 
-0.000275911 0.000161776 0.0855801 
0.00229786 -0.000969482 0.0813764 
0.00535262 -0.00561444 0.0686043 
0.0063858 -0.0055679 0.0751719 
0.00139073 -0.00170558 0.0721035 
0.00621919 -0.00255358 0.0675077 
-0.00906126 -0.00161956 0.0658277 
-0.00592246 0.0122234 0.0713099 
-0.00123259 0.00791202 0.0634053 
-0.00176638 0.0032184 0.0602865 
-0.00971693 0.000830888 0.0370086 
0.000393834 -0.000374655 -0.00248464 
0.00128075 -0.000108164 0.0406664 
-0.00395738 -0.000183506 0.0330135 
-0.000180479 0.000409882 0.0850861 
-0.00123305 0.0028457 0.0793887 
0.00142024 0.00200127 0.0828983 
-0.00212869 0.000546727 0.0803342 
-0.00551328 0.00884349 0.0754833 
-0.0025851 -0.00173594 0.0376286 
-0.00184583 -0.00947122 0.065704 
-0.0103343 -0.00436543 0.0268814 
-0.00291028 0.000221284 0.0658148 
-9.67319e-05 -0.000589323 0.0328292 
-0.00177144 -0.000482932 0.043597 
-0.000658852 -8.32814e-05 0.0294663 
0.000918034 -0.000247494 0.0328047 
0.0253595 -0.000765346 0.0431397 
-0.0119432 0.00359057 0.0496995 
-0.0146059 0.00520096 0.0167929 
3.98114e-06 9.79464e-06 9.452e-05 
1.02893e-06 -1.99618e-05 0.000428535 
2.52833e-05 8.40346e-05 0.000208061 
0.000881231 0.000149796 0.0372035 
2.0857e-05 0.00317878 -0.00234917 
0.000886657 -7.06322e-05 -0.000979513 
-0.00222304 0.0016561 -0.00162278 
-0.00749534 -0.00873578 0.0164251 
0.0336591 0.0285332 0.00147214 
0.0165802 0.0165288 0.0708088 
0.00622021 0.00493228 -0.0122182 
5.41141e-05 0.015752 0.0606576 
-0.00317043 -0.00881387 0.0700636 
0.00134122 0.00196254 0.0754697 
-0.000342022 -0.010054 0.0688362 
-0.000623188 0.000903365 0.0670621 
-0.0118272 -0.00651954 0.0534126 
-0.0128864 -0.00490999 0.0429203 
-0.0129229 -0.00413076 0.0560669 
0.00218611 0.000864294 0.0608933 
0.00840789 -0.000306184 0.0697297 
0.000278668 0.000213131 0.0663963 
0.00424176 -0.000788472 0.0772682 
0.00630397 -0.00256586 0.0663705 
-0.00886666 0.00780838 0.277808 
0.0290384 -0.0343291 0.137808 
0.000963029 0.0162455 0.233845 
0.020725 -0.0861364 -0.0591268 
0.0305385 -0.0109543 0.0317802 
-0.0106576 -0.00309427 0.0662111 
-0.00723245 -0.0101441 0.095773 
0.00818304 -0.0319083 0.0956192 
-0.00349325 -0.00550786 0.0257398 
0.00201037 0.00258 0.0362192 
0.000674001 0.00136935 -0.0015155 
-0.000937994 -0.00151712 0.0412136 
0.0119829 -0.000796797 0.0545425 
0.0112697 -0.00324223 0.0468864 
-0.00452259 -0.00025851 0.0548562 
-0.00161312 -0.000573039 0.0346228 
-0.0434971 -0.0203563 0.0160087 
-0.0194617 0.0332986 0.058315 
0.00604401 -0.033249 -0.0349458 
-0.0615041 0.0259389 0.151531 
0.000105915 -0.000170257 -3.37065e-05 
-0.00114598 0.000935618 0.0333683 
-0.00026779 0.00010654 -0.000808523 
-0.000104172 -0.000172639 0.0303011 
0.00744812 -0.0112705 0.0492835 
0.00406179 -0.0125534 0.0459723 
0.00459684 -0.0112979 0.062081 
-7.80502e-05 0.00287637 0.0711598 
-0.00349835 -0.00168301 0.0706247 
-0.000480004 -0.00177873 0.0823727 
-0.00299685 -0.00474994 0.0737145 
-0.000454191 -0.000426323 0.0731473 
0.00529193 -0.00461977 0.0727305 
0.000714621 -7.71363e-05 0.0830347 
0.00400318 -0.000585083 0.077121 
0.00211813 -0.00125831 0.0802691 
0.000194893 0.00099287 0.0463573 
0.000472298 -4.96553e-06 0.032403 
-0.0050357 -0.000434715 0.0662629 
-0.000112874 8.69512e-05 0.0293499 
0.00225222 -0.0174879 0 
-0.00120355 0.00956727 0 
0.00342087 0.0218084 0 
-0.0283243 -0.0424745 0.0354211 
-0.0186166 0.0233048 0.216548 
-0.0296369 0.00158752 0.132876 
0.00262928 0.00400746 0.212076 
-0.0859194 -0.050205 0.0919558 
0.000690922 -0.0311138 0.247771 
-0.00854204 0.0159814 0.27131 
-0.0564162 0.0974068 0.0527608 
-0.00840208 -0.0744187 0.191456 
-0.00394269 -0.00214559 0.0783296 
-0.000926014 -0.00152793 0.0703133 
-0.000834132 -0.000229783 0.0677159 
-0.00443653 -0.00337584 0.065443 
-0.00590399 0.000710197 0.0497739 
0.00472864 0.000149846 0.0651358 
-0.00324815 0.00163927 0.0747948 
-0.00284313 -0.000362659 0.0725809 
-0.00121301 0.00398573 -0.00477673 
-0.00159883 -0.00571388 -0.000934053 
0.00401234 0.00399402 0.0357038 
0.0117276 0.0156476 0.0240448 
0.0271197 0.00172171 0.0500349 
-0.00569745 -0.00412699 0.0545927 
0.00841061 0.00204444 0.0364629 
0.0135769 -0.00883757 0.0603661 
0.0103685 0.000603004 0.271553 
0.00385533 -0.0226787 0.181791 
0.0490088 0.0298836 0.183873 
0.0376577 0.0601312 0.0778793 
-0.00755287 0.00193338 0.0260943 
0.000797096 -0.000611451 0.0366566 
-0.00974653 0.00241003 0.0503575 
0.000762801 -0.000922306 0.0336635 
-0.00713177 -0.00634004 0.27541 
0.0210317 -0.049841 0.152663 
0.0710936 -0.0696893 0.0057414 
-0.0244316 0.0140861 0.201348 
-0.000450466 -0.000274026 -0.00267993 
0.000407982 -1.1025e-06 0.000829109 
-0.000510391 0.0014059 0.0485556 
-0.00238179 0.00126776 0.0291765 
0.022367 0.00350147 0.0578422 
-0.00270511 -0.00662167 0.0599746 
0.0648038 -0.0178372 0.0508657 
0.00435082 -0.00300526 0.00710816 
-2.26802e-06 -2.78014e-05 -0.000380213 
2.65115e-06 3.24978e-05 4.83929e-05 
-6.31136e-06 -7.73648e-05 0.000483256 
0.000612618 0.000726148 0.0333421 
-3.36368e-05 -0.000339778 0.0362464 
-0.000101522 -0.00209288 0.0565666 
-0.00036615 -0.000199707 0.0346728 
3.68831e-05 -0.00175282 0.0297269 
-0.00236427 0.00704006 0.00359354 
-0.0500186 -0.0235298 0.168952 
-0.000161371 -0.0169722 0.0646399 
-0.0230473 0.00913182 0.0566341 
-0.00284929 0.00727383 0.0581241 
-0.00891454 0.0181281 0.068186 
0.000358044 0.0032465 0.0759117 
0.00366274 0.00220829 0.0599001 
0.012563 -0.00279421 0.0532305 
0.0123307 -0.000845245 0.0462336 
-0.00276524 0.0012502 0.0359078 
0.000845473 0.000988271 0.0676015 
0.00318331 0.00176919 0.0741071 
0.00765219 0.00246202 0.0689514 
0.00781821 -0.000681242 0.0706382 
0.00511372 0.00162553 0.077501 
0.00302993 -0.00261684 0.0755321 
0.0222224 -0.00102969 0.0730252 
0.0230827 -0.0141047 0.0557828 
0.0141465 0.00076244 0.0624253 
-0.0024747 0.000759074 0 
0.00483608 0.000977713 0 
0.00572809 0.00211864 0 
-0.0192591 -0.0105291 0.00378454 
-0.00174267 0.00897204 -0.0216369 
-0.00730451 0.0132578 0.0356355 
0.00322407 0.0223434 0.0753906 
0.00119535 0.0081771 0.0417192 
-8.95459e-05 0.00493899 0.00442718 
0.0257472 0.0191901 0.042332 
-0.00126629 -0.00570642 -0.01834 
0.00670723 0.0158388 0.0429554 
0.0205042 0.011843 0.0735697 
0.0130078 -0.0124607 0.0093048 
0.0130448 -0.00583141 0.0684568 
0.0345175 -0.0128617 0.101504 
-6.34572e-06 -2.28004e-05 -0.000363963 
0.000170193 -0.000316961 0.000446215 
-9.35839e-05 0.000230649 0.000320114 
-0.000665113 -0.00033424 0.0437668 
-0.00498795 -0.000174834 0.0719852 
0.00046772 -0.00212891 0.0497385 
0.00123279 0.000298198 0.0500941 
-0.00531502 0.000265012 0.0651235 
8.61313e-05 0.00148437 -0.00288115 
-0.00150689 0.000507352 0.00113069 
-0.0127329 -0.000937871 -0.00814838 
0.024551 -0.0164587 0.0241412 
0.00883144 0.00365001 0.0700744 
0.00487153 0.00471323 0.0757737 
0.0075303 0.00620228 0.0668921 
0.000560648 -0.000156699 0.0804617 
-0.00201337 0.00033164 0.0517325 
-0.000168626 0.000414229 0.0338565 
-0.000608861 -0.000390065 0.0341473 
-0.00137041 -0.000440403 0.0296848 
0.000704264 0.000790999 7.59125e-05 
-0.000229458 -0.000485408 0.000194956 
-0.000351412 -0.000303558 0.0469778 
-0.00106137 -0.00138961 0.0318041 
-0.00154092 -0.0108948 0.0668962 
-0.00245841 -0.0181832 0.039897 
0.00609345 -0.00753659 0.0171534 
0.00147831 0.000502076 0.0335984 
0.000438101 0.000293153 0.00023681 
-0.00069215 -0.00126271 0.0473937 
-9.66853e-05 0.000178801 -0.000156548 
-0.000681393 -0.000605124 0.0289339 
0.000255667 -0.000553659 0.0794681 
0.00539512 0.0011044 0.0716745 
0.00451516 0.00422769 0.074134 
0.000784063 0.00206532 0.0832215 
-0.0021254 0.000437178 -0.00018112 
0.00702298 0.00287322 0.0294672 
0.00243166 0.000440376 0.0467487 
-0.00132723 0.000907949 0.0319402 
0.00583748 -0.00857314 0.0707433 
0.0137905 -0.0129909 0.0664883 
0.0104565 -0.00471871 0.0703821 
-0.000885608 -0.0064457 0.0673041 
0.0101914 -0.00141964 0.0295513 
-0.00519543 0.00243263 -0.00188436 
0.0102937 -0.0018911 0.0327009 
-0.00143518 0.00113338 0.0345636 
-0.00777257 -0.00705472 -0.0100398 
0.0104923 0.0175706 0.058249 
-0.00431522 0.00945569 0.00453351 
0.0226785 0.0074242 0.0236998 
0.00451633 -0.00199526 0.294356 
0.0161729 -0.0398778 0.147519 
0.00448558 0.0209542 0.221588 
0.0559581 -0.0763359 -0.0191126 
0.00117654 -0.0181075 0.05639 
0.000938109 -0.00191701 0.0693696 
0.00053927 -0.00787753 0.0732662 
0.00663855 -0.0106452 0.0631375 
0.00133819 0.0051798 0.0472006 
-0.0113529 0.0220279 0.0648147 
0.000847549 0.0034159 0.0428169 
-0.0082295 -0.00357199 0.0748283 
0.00164381 0.00381726 0.038056 
-0.00317654 -0.0171398 0.0627101 
-0.0012524 -0.0210425 0.0501462 
0.000860781 0.0134463 0.0624878 
-0.0111983 0.015426 0.112815 
0.0115979 0.00550143 0.0979866 
0.0228567 0.00752692 0.0433751 
-0.0015725 0.00448965 0.0643751 
-0.0031161 -0.0331886 0.283027 
0.00389535 0.0278694 0.277525 
-0.0306956 -0.0698456 0.168442 
0.0295425 0.0730759 0.156964 
-0.00487868 -0.00178525 0.0777758 
-0.00848921 -0.000593721 0.0710945 
-0.00371503 -0.00464524 0.0661533 
-0.00358872 -0.00125368 0.0643121 
-0.00011306 9.47083e-05 0.000428112 
0.000317385 -3.43017e-05 -0.00152464 
0.0015792 6.47749e-05 0.0433852 
-0.00024586 -0.000252498 0.0387716 
-2.3754e-05 0.000211916 -0.0001305 
-0.000327885 -0.000285813 0.043692 
-4.13982e-05 0.000208648 0.000279984 
-0.000442366 -0.000198246 0.0273312 
-0.0191348 0.00558969 0.280897 
0.0821551 -0.0809411 -0.00875347 
0.0113597 -0.00227874 0.250698 
-0.0137092 0.00392507 0.214598 
0.00929646 -0.00440846 0.064477 
-0.00281829 0.00157932 0.0554665 
0.0101386 -0.00467898 0.0463731 
0.00113498 -0.00107619 0.0600133 
0.00416384 -0.00938764 0.0637504 
-0.000890899 0.00171692 0.0743196 
0.00349254 -0.00708403 0.0756172 
-1.89547e-05 3.82089e-05 0.0700755 
-0.00632518 -0.00489818 0.0780361 
0.00590208 0.00184215 0.0787663 
0.000834175 -0.000426763 0.0928562 
-0.00100378 0.00566879 0.0778524 
-0.0352501 -0.0157471 0.0179765 
-0.018069 0.00487569 0.0390207 
0.00341421 -0.0132173 -0.0326295 
-0.0257098 0.0021361 0.0960538 
2.71084e-05 0.000155607 -0.00124562 
-2.00376e-05 -0.000119742 0.00102961 
-3.24544e-05 -0.000105983 -0.000360564 
0.00200846 -0.00156993 0.0468587 
0.000555264 -0.00834933 0.0742816 
0.000889808 -0.00103961 0.0681263 
0.00123388 -0.0191288 0.0577985 
-0.00245737 -0.0114306 0.0643443 
-0.0172658 -0.0125588 0.056868 
0.00169769 -0.00508018 0.0700392 
-0.00332063 -0.00214796 0.0701863 
-0.0117273 0.00710675 0.0681227 
-0.0039726 0.0629607 0.108544 
-0.0146786 0.0379048 0.151399 
0.0380075 0.0476872 0.0925986 
0.00599838 0.000263079 -0.0597449 
-0.00371346 0.0278726 0 
0.0142298 -0.0162855 0 
-0.00845306 0.00768034 0 
-0.0288718 0.0330091 0.0750305 
0.0112102 -0.0072943 0.0675662 
0.000676674 -0.00105685 0.0428382 
-0.00489752 0.00671185 0.0673388 
0.0030868 -0.00372809 0.071824 
-0.0557167 0.0145834 0 
0.0423135 0.0232868 0 
0.0745685 0.0036964 0 
0.0473926 0.037882 0.170389 
0.00230733 0.0145185 0.0627752 
0.0026695 0.00608251 0.0725415 
0.0118335 0.018358 0.0580604 
0.0187023 0.0060231 0.0730642 
0.0222993 0.0279825 0.0948018 
0.035959 0.0142388 0.0554601 
-0.00697371 0.0592009 0.0541345 
-0.00107532 0.0021435 0.0404991 
-0.000411038 0.00113507 -0.000868539 
-0.000940808 0.000151796 -0.000289055 
0.00131821 -0.0011645 0.00107287 
0.00560497 0.00132571 0.00982199 
0.000649253 0.000226269 -0.00376344 
-0.00285198 -4.68416e-05 0.043614 
0.000179431 -0.000473014 -0.00142728 
-0.0026137 0.00119459 0.0403424 
-4.81578e-05 -2.50467e-05 0.000162959 
-0.00016313 -6.96591e-05 -0.000677436 
0.000498361 0.000236403 0.000159116 
-6.16855e-05 -0.000679684 0.0379822 
0.00113915 0.000537748 -0.00123382 
0.00148621 0.00151844 0.0435072 
-0.00692392 -0.00374469 0.0329349 
-0.000262777 -0.000477747 0.0349394 
-0.00108587 -0.000315575 -0.000543713 
2.81857e-05 7.53332e-05 -0.00372723 
0.00546841 0.00236074 0.0285639 
0.000722289 0.00200872 0.0335063 
-0.00605423 0.00481629 0.0680202 
-0.00547988 0.00647378 0.0715836 
-0.0047301 0.00849577 0.067602 
-0.00401244 0.00137168 0.0687739 
-0.0146028 0.0256069 0.211405 
-0.0254112 -0.0120223 0.12816 
0.0182829 0.0202188 0.107917 
-0.025395 0.0463715 0.0146927 
0.0367118 -0.014128 0.232634 
0.0386105 -0.0798116 0.0537525 
0.0330867 0.0495683 0.130644 
0.0102076 0.00310112 0.1806 
0.000345785 0.00145231 0.0500905 
-0.000257114 -2.15517e-05 0.0657377 
0.00111 0.00314294 0.0757473 
0.000824089 0.00480849 0.0676221 
-0.00719435 0.00551813 0 
-0.0134743 0.00782719 0 
-0.00285214 -0.0066347 0 
0.00982502 -0.0010769 0.0263867 
-0.0460976 -0.0326972 0.135376 
-0.0147006 -0.0595023 -0.00154461 
-0.0311758 -0.014046 0.258932 
-0.0431696 0.0423988 0.13273 
0.00661505 -0.00762268 0.0664861 
-0.000176084 0.0010067 0.0708288 
0.00423014 -0.00753365 0.0745477 
0.000267183 0.000865405 0.0830883 
-0.00203963 -4.5129e-05 0.0514113 
-0.000988399 0.000520636 0.0291464 
-0.000813772 -0.000451414 0.0330649 
-0.000758014 0.000311347 0.030377 
-0.00198657 0.0132758 0.0502838 
-0.00376501 0.0124611 0.0456225 
0.000241978 -0.00272957 0.0351635 
-0.000318858 -0.000329483 0.0691469 
0.0482639 -0.0107719 0.136865 
0.00688331 0.040077 0.127085 
0.0383061 -0.00322069 0.236386 
0.0315438 -0.0318522 0.00941903 
-0.00116437 -0.00196055 -0.000192051 
-0.000257598 -0.000833952 0.0350409 
0.00428741 0.00658699 0.0292991 
0.000427002 0.000431933 0.0471781 
-0.00096699 -0.00156418 0.036552 
0.000562797 -0.000851874 0.0338549 
0.000320567 -0.00278606 0.0561573 
-0.000431527 -0.00075448 0.030203 
-0.00784841 0.00662554 0.0228775 
-0.0113781 0.00630044 0.0418639 
-0.00955382 0.00545094 0.0284723 
0.00215315 -0.00380808 0.0367984 
7.78257e-05 -0.00830019 0.0720683 
0.000750649 -0.000260759 0.0561973 
-0.00264794 -0.00796791 0.0685251 
0.000571507 -0.0128004 0.0705125 
-0.0103663 0.000295927 0.0767878 
-0.0404685 -0.0301696 0.116165 
-0.0525292 -0.0412758 0.0668547 
-0.0380191 0.0169665 0.0183654 
-0.0364263 0.0272432 0.186918 
-0.0687183 0.0190254 0.117822 
-0.0153658 -0.00460144 0.262202 
0.0919284 0.011932 0.11356 
0.00366923 -0.00121152 0.0768335 
0.00222633 0.00175111 0.0742045 
0.00853125 0.000271492 0.0694115 
0.00472384 0.000966075 0.078342 
0.0260063 -0.00524935 0 
-0.0231073 -0.00653658 0 
-0.00291913 -0.00124683 0 
0.0236154 -0.013823 0.0319671 
-0.0132023 0.00402303 0.0679365 
0.0104087 0.0135752 0.0737766 
0.00228996 -0.000991723 0.0498141 
0.00765544 0.00194564 0.0876494 
0.0158078 -0.0352304 0.0110236 
0.0517436 -0.0267838 0.0877455 
-0.0203757 -0.0147846 -0.014605 
0.0161023 -0.00269202 0.0219511 
0.00161902 -0.00101756 0.0549961 
-0.000426965 0.00058727 0.038118 
0.00381474 0.00135538 0.0537967 
0.00208762 0.000105073 0.0654028 
3.78089e-05 -0.0148246 0 
-0.00120251 -0.0110878 0 
0.018847 -0.0111459 0 
-0.0439831 0.0317684 0.0197926 
-0.0123683 0.00278945 0.0986725 
-0.0183912 0.0151659 0.115475 
-0.01648 -0.00340562 0.0592822 
-0.010465 0.000332547 0.0440351 
-0.00207582 0.000522575 0.0521154 
-0.00258644 -0.000592946 0.0482573 
-0.00205349 0.00139844 0.0548053 
-0.00394659 0.000886198 0.0664944 
-0.0128019 -0.00487407 0.0445982 
-0.011924 -0.00648323 0.0532065 
-0.0123899 -0.00595965 0.0337955 
0.00269504 0.000538954 0.0589962 
0.00597893 0.000216861 0.0731809 
0.000534054 0.00264676 0.0822758 
0.00196786 -0.00120517 0.0808907 
0.00411195 0.00157337 0.0780515 
0.000611227 -0.00174217 -0.00884823 
-0.00391208 -0.000292816 0.00166489 
0.0160963 0.000844239 0.0364479 
0.0119612 -0.00280136 0.0203954 
0.00036713 -0.00442966 0.0709138 
-0.00309291 -0.00495234 0.073631 
-0.000370255 -0.00177491 0.0820583 
-0.000378347 0.000162421 0.0739861 
0.00962713 -0.00293619 0.0644265 
-0.00272464 -0.000318775 0.0769477 
0.00951183 -0.000411963 0.0701218 
0.00103083 0.000407629 0.0664261 
0.00412211 -0.0159705 0.0479445 
0.0105861 -0.0155163 0.062169 
0.00613729 -0.00960904 0.0344333 
-0.00726514 0.0121608 0.0621784 
0.00481319 -0.00389959 0.070151 
0.00113355 -0.00152632 0.0488448 
0.000817983 -0.000741291 0.048509 
0.00205526 -0.00395832 0.0635119 
-0.00252325 -0.0161926 0.0424964 
0.00449366 0.00179755 0.0274803 
0.00216564 0.0218961 0.0358392 
-0.000629215 0.00771511 0.0660678 
0.0220049 -0.0102689 0.238758 
0.038967 0.0259709 0.118992 
-0.000710807 -0.0102893 0.295942 
0.00828391 -0.0523887 0.132941 
0.00218423 6.89164e-06 0.0545983 
0.000848653 0.000185218 0.0313111 
-0.000943196 0.000110844 0.00147334 
0.00121076 -0.000385455 0.0373922 
0.00567178 0.0115031 -0.0153991 
-0.0165561 0.00955642 0.042428 
-0.0108985 0.00978595 0.0656204 
-0.00666924 -0.00153067 0.0349047 
-0.00429556 -0.00481961 0.0758546 
0.00125479 0.000711941 0.0850531 
-0.00125403 -0.00598625 0.0768538 
-0.00195887 -0.000806511 0.0767966 
-0.0384313 0.0421589 0.0436462 
-0.0283657 -0.0261972 0.036902 
-0.023243 0.028442 0.0820664 
0.0413587 0.0127527 0.069384 
-0.014358 -0.021472 0.174802 
0.0378507 -0.0166844 0.137992 
0.00500198 0.00877758 0.262526 
0.052821 -0.0545878 0.0868951 
0.000548609 0.000705353 0.000265795 
-0.00170151 -0.0010046 0.000106658 
-0.00189108 -0.000401345 0.0425023 
-0.000268597 -0.000308162 0.0369651 
-8.18737e-05 9.46367e-05 -0.000322011 
7.09175e-05 -7.56417e-05 0.000422466 
-3.56066e-05 6.44183e-05 0.000387374 
-0.000317219 -0.000632934 0.0335217 
0.0341821 0.046508 0.0937784 
0.0110509 0.0257463 0.105662 
0.0251748 0.002322 0.064188 
-0.0137577 0.024966 0.00428915 
-0.000299578 -0.00208835 0.0695495 
3.22179e-05 -7.01975e-05 0.0718448 
0.00264628 0.00817439 0.0724282 
0.000519024 0.00154218 0.0574711 
-0.00625211 -5.38285e-05 0.0766386 
0.00211395 4.15272e-05 0.0854058 
-0.0055828 -0.00276473 0.0761743 
-0.00127955 0.000430901 0.0775441 
0.00256099 0.00307766 -0.00905558 
-0.00225779 -0.0133053 0.0284045 
0.0027024 0.00646263 -0.0081824 
-0.0018226 -0.0214852 0.0218783 
-0.00125643 0.0050143 0.00325596 
-0.00220429 -0.00801599 0.0640584 
-0.0670409 -0.0191196 0.0910173 
-0.0207612 0.0117987 0.0543584 
-0.00717451 -0.00659898 0.0680624 
-0.000297621 -0.000537486 0.0609203 
0.000547596 0.000322919 0.0664313 
-0.000636618 -0.00161819 0.0415603 
3.07496e-05 3.1554e-05 6.8673e-05 
-7.04728e-06 -1.00539e-05 -0.000223696 
6.81814e-05 6.63504e-05 -0.000114079 
-0.000266072 0.000379035 0.0328802 
-0.00487457 -0.0032092 0.0631379 
-0.00363685 -0.00405164 0.0664094 
-0.0088725 -0.000766654 0.0707764 
-0.00410817 -0.00147478 0.0638855 
-0.0105453 0.0115874 0.0652319 
0.00865265 -0.0361065 0.117069 
0.0170856 -0.00114402 0.102608 
-0.00375302 -0.0075425 0.0663719 
0.00800542 -0.00552883 0 
0.00384047 -0.00664183 0 
-0.0191204 0.00195695 0 
-0.0209809 -0.00147741 0.0251539 
0.011185 0.0231724 0.00372151 
-0.00861258 0.0108266 -0.00883853 
0.0491062 0.0132504 0.0564375 
0.0129236 -0.00286181 0.0138547 
0.0218383 -0.0170552 0.0528556 
0.0197645 0.00452742 0.0872325 
0.0113535 0.00188276 0.0683625 
-0.00790515 -0.00941571 0.0728699 
0.00843444 0.00139605 0.0630669 
-0.0116637 -0.00127493 0.0425572 
0.000818428 -0.000118565 0.0419131 
-0.00211894 -0.00557865 0.069393 
0.0221644 -0.000654529 0.0596561 
0.00770952 0.000912259 0.0746525 
0.00239785 -9.97541e-05 0.0698908 
0.0140826 -0.0023375 0.0636322 
-0.0565904 -0.000305947 0.135148 
-0.0378529 0.00687056 0.23726 
0.00721769 0.0406667 0.108951 
-0.0390202 -0.0413059 -0.00576734 
0.0111194 -0.0051159 0.0458117 
0.0101937 -0.00468966 0.0632659 
0.0117206 -0.00253755 0.0526137 
-0.00419271 0.00201739 0.0572789 
-0.00351738 -0.00231048 0.077306 
8.27633e-05 -0.00127989 0.0816328 
-0.00512794 -0.00238706 0.0725801 
-0.00250872 0.000563302 0.079869 
0.00203918 -0.000457909 -0.00135034 
0.000661635 -0.000189432 0.00277993 
-0.000750284 0.000203472 -0.00225919 
-0.00977319 -0.00229734 0.0181209 
0.00990054 -0.00440242 0 
-0.000763736 -0.00336056 0 
-0.0107363 0.00623825 0 
-0.0152678 0.0173999 0.0176173 
-0.0310107 -0.0201143 0.0533018 
-0.0114863 -0.0118748 0.0285826 
0.00152064 -0.0173257 -0.01058 
-0.0121237 0.00991957 0.021707 
0.00956777 0.00302859 0.0717322 
0.00860401 -0.00260109 0.0714961 
0.0151165 0.00424823 0.0627714 
0.0124705 -0.000559775 0.0730014 
-0.000876681 -0.000947053 0.0795904 
0.00142958 0.00151678 0.0800397 
0.00248785 -0.00229621 0.0794346 
-0.000263746 4.58355e-05 0.0891871 
-0.00731958 0.00805236 0.0713846 
-0.00969355 -0.0202748 0.107131 
0.00586441 -0.0328277 0.10859 
-0.00128898 -0.0097344 0.0638708 
0.000170207 -9.056e-05 -8.12957e-06 
-0.00104589 0.00157306 0.0371087 
-0.000436738 0.00144016 0.0475147 
-0.00034589 0.000233679 0.0327585 
-0.0173185 0.00126382 0 
-0.00846631 0.00653709 0 
0.0137566 -0.00144893 0 
-0.0427576 0.01554 0.0372293 
0.0104635 0.00658515 0.0576206 
0.00773155 0.00793798 0.0668336 
0.00918278 0.00914242 0.0490337 
-0.00340991 -0.00271409 0.0614224 
-0.00106715 -0.00253799 0.00070346 
-0.00074726 -0.000469826 -0.00140008 
0.00386449 0.00256782 0.00252362 
0.00734892 0.00421969 0.0138127 
-0.00707043 0.00362688 0.00677274 
0.004853 0.0140828 0.0282869 
-0.0035883 -0.00136069 -0.00751148 
0.0123069 -0.00335267 0.00389368 
0.00988433 0.0070592 0.0436007 
0.00972066 0.00895236 0.0505812 
-0.00295938 -0.00244139 0.0336427 
-0.00322947 -0.00257477 0.0589132 
0.00172414 0.00584678 0.0240344 
0.000619864 -0.00156578 -0.00146946 
0.000239255 -0.00159539 0.001416 
-0.000767478 0.000987294 0.0310061 
-0.00426077 0.011323 0 
0.0161644 0.0136057 0 
-0.00510652 0.00056271 0 
-0.0334622 -0.035428 0.0114402 
2.59874e-05 0.000387707 0.000543693 
-0.000691992 -0.00143528 0.0457151 
-0.000123699 -0.00086722 0.0361545 
-3.31434e-05 -0.00116059 0.0295618 
-0.0203785 -0.00495264 -0.0271307 
-0.00913237 -0.0210955 0.0110824 
0.020905 -0.029124 0.0426975 
0.0446738 -0.0546216 0.141441 
0.00795768 0.0068646 0.0279702 
0.00851701 0.00868156 0.0334396 
-0.00348035 -0.00361626 -0.00354603 
-0.00353163 -0.00231573 0.033363 
0.00824647 -0.00326777 0.02288 
-0.00733305 -0.00901186 0.0332686 
-0.00631246 0.00457105 -0.0164857 
-0.0247513 0.0257446 0.0577494 
0.00827942 0.0184208 0.0419864 
0.00450603 -0.000747268 0.0987744 
0.032101 0.0145356 0.0797681 
0.00646273 -0.00284618 0.0270219 
0.000964623 0.00242848 -0.00376741 
0.00456931 -0.00459316 -0.00652492 
-0.0191323 0.0205271 0.0325419 
-0.00595098 0.0092979 0.0252992 
-0.00578793 -0.0160689 0.263854 
-0.00584999 0.0358883 0.145736 
-0.0352463 0.0204588 0.175318 
-0.0204131 0.087909 0.00843099 
0.00080311 4.89442e-05 0.0797875 
-0.00015139 -0.00174012 0.081564 
-0.000201848 0.00046786 0.0852546 
-0.00232276 0.00046146 0.0802009 
0.00847513 0.0071801 0.0381835 
-0.00688981 -0.00272059 0.0732848 
0.00573333 -0.0203133 0.0343786 
0.00706514 -0.00567093 0.0373513 
-0.0218997 -0.0182325 0 
0.0111798 0.0310636 0 
0.0161189 0.0145636 0 
0.0192682 0.0757221 0.0919929 
-0.014082 -0.015825 0.217592 
-0.0439661 0.0103227 0.144367 
-0.0338435 -0.0472807 0.041663 
0.0160182 -0.030368 0.140563 
-0.0125392 0.00793216 -0.0086774 
-0.0218184 -0.00582532 0.0599939 
-0.0244076 0.0576441 0.0810912 
0.0101106 0.00863395 0.00623368 
0.0104021 0.00340623 0 
-0.000738235 -0.00177666 0 
-0.0106303 0.00355852 0 
-0.0211959 -0.00426803 0.00938158 
0.000609646 -0.0112105 0 
-0.031432 -0.0119461 0 
0.0206914 0.0115835 0 
-0.0159667 0.0158787 0.0323543 
-0.00690494 -0.00662841 0 
-0.00901625 0.00852823 0 
0.000998229 -0.0209414 0 
-0.0129603 0.000129913 0.0394329 
-0.00382274 -0.0104435 0.069838 
0.00268257 -0.0165632 0.0735978 
0.00389163 -0.0139088 0.0738594 
-0.0033242 -0.00642826 0.0642248 
0.0102052 0.00702977 0.0441222 
0.0105335 0.00664099 0.0588535 
0.0092541 0.00878591 0.0491756 
-0.00364451 -0.00245151 0.0585022 
-0.00449392 -0.00285237 0.0614628 
0.00015827 0.000440924 0.0454777 
-0.00388067 -0.00380356 0.066675 
-0.00432035 -0.00108287 0.0638184 
0.00129055 -0.00445976 -0.00488912 
-0.0107978 0.00244605 0.0353602 
-0.00130812 -0.00800468 -0.0132312 
-0.0179418 0.00841059 0.0313454 
0.0564959 0.0322091 0 
0.0645768 0.0149317 0 
-0.0604994 -0.0200696 0 
0.0648122 0.0318004 0.208924 
-0.0031606 -0.00201323 0.0639297 
-0.00123494 -0.000433049 0.0428941 
-0.00393167 -0.0011307 0.065138 
0.000836449 0.000427676 0.0330977 
0.000133561 5.97339e-05 -3.16997e-05 
-0.000108628 -4.78653e-05 -2.34374e-05 
-6.45617e-05 -3.12806e-05 0.000180339 
0.000596947 -0.000509832 0.0475955 
0.000911932 -0.00044949 0.000695024 
-0.0121052 -0.00508569 0.032494 
0.00240982 0.00174954 -0.000824952 
-0.000603493 0.000341971 0.0393625 
0.0380172 -0.0430074 0.146735 
0.031419 -0.00632058 0.200702 
-0.000912138 -0.0567196 0.090351 
-0.0144156 -0.0230538 -0.0636394 
0.000490913 0.00220811 0.0479172 
2.62159e-05 0.000848015 0.0381746 
0.000514678 0.000880159 0.0448075 
0.000537674 0.00433982 0.068917 
0.0258478 -0.0257975 0.0974439 
-0.0134527 -0.0208642 0.0428146 
0.00368669 -0.00616649 0.0622459 
-0.0128599 -0.00887719 0.0576871 
0.00565458 0.010186 0.0575733 
0.00724842 0.00842655 0.068652 
-0.0018862 -0.00289827 0.0710113 
-0.000539104 -0.000289642 0.0480594 
-0.00166362 0.00319606 0.0795183 
-0.000843287 0.000551084 0.0705336 
-0.0033646 0.002681 0.0694743 
0.00132391 -0.000150605 0.0824325 
-0.00733064 -0.00582802 -0.0176694 
0.0121129 -0.00326013 0.00257796 
0.0238383 -0.00815747 0.0406926 
0.0010282 -0.0294993 0.0264059 
0.00159515 -0.00280898 -0.000657397 
-0.00501911 0.00684045 0.0319329 
-0.00166118 -0.00105811 -0.00219279 
-0.00376907 0.00478895 0.0241961 
-0.000273844 -0.000553176 0.000574336 
-0.000123559 -0.000242919 0.0363085 
-0.00059822 -0.00152602 0.0456104 
5.21719e-05 0.000182552 0.0299815 
0.000110854 0.00112257 -8.57883e-05 
-2.72827e-05 -0.000276279 -0.000386491 
-5.88983e-05 -0.000596436 0.000734684 
-0.000538069 0.00103602 0.052001 
-0.00331126 -0.00305691 0.0652409 
0.00137358 0.00117744 0.0478811 
0.00792759 0.00704421 0.0435668 
-0.000538321 0.00118919 0.0299461 
0.0601125 -0.0676134 0.05718 
0.0327075 -0.0373173 0.100745 
-0.0292399 -0.00683526 0.0394209 
0.00043868 0.0107861 0.0568115 
0.00105414 -0.000772861 0.0594164 
0.00552792 -0.00913175 0.0335801 
0.0136265 -0.0190714 0.056411 
-0.0104668 0.0159036 0.068235 
-0.0374219 0.0428909 0.118391 
-0.029483 -0.029976 0.138376 
-0.0322368 0.018149 0.246086 
0.00544128 0.0469181 -0.044254 
0.00343925 0.00301332 0 
-0.0206044 -0.0111111 0 
-0.006693 0.017643 0 
-0.0127494 -0.0385871 0.0382782 
0.00455766 0.00425224 0.0741785 
3.93215e-05 0.00259044 0.0825807 
0.00647068 0.000403923 0.0726085 
0.003942 0.0014936 0.0782803 
-9.27411e-05 8.96152e-05 -0.000612811 
0.000115007 -0.000111677 -0.000266541 
-7.30515e-06 7.61274e-06 0.000992255 
-0.000362148 -0.000148762 0.0312091 
-0.00513536 6.02282e-05 0.0756602 
-0.00567243 -0.000163094 0.0634618 
0.00367029 0.00234271 0.0521565 
-0.0130786 0.000569722 0.0743211 
-0.0319762 0.00811201 -0.0142908 
0.0408905 -0.021789 -0.0141056 
-0.0175765 -0.0306924 0.0799568 
-0.00194983 -0.0240794 0.0758824 
-0.00769066 -0.00160037 0.0330424 
0.00318817 0.0035818 0.0721504 
-0.000182814 0.00184687 0.0405778 
-0.00233365 0.0048834 0.0269698 
-0.000530788 0.000533318 0.0350439 
-0.000736577 0.000113026 0.0332792 
-0.00130786 0.000931658 0.0550802 
-0.00130525 0.000814704 0.030455 
-0.00183504 -0.0184909 -0.0339651 
-0.0242598 0.0206798 0.0376177 
-0.0203674 -0.00559628 0.0258072 
-0.0626505 0.0440833 0.132295 
0.00085491 -0.00163662 0.0599359 
-0.00941489 -0.024653 0.0516919 
0.00588571 0.00896485 0.0438898 
0.00190427 0.0145509 0.0708209 
0.000119553 -7.99806e-05 -0.000334122 
-0.00165373 0.000716844 0.0329311 
0.000520521 -0.000107307 -0.000381249 
-0.000446426 0.000380505 0.0305862 
-0.0107653 -0.0140685 -0.0120531 
-0.0250195 -0.00829652 0.0267232 
-0.00988749 -0.0258708 0.0519671 
-0.034015 -0.0661759 0.116087 
-0.0144851 -0.000261417 0.0713237 
-0.00593897 -0.0146022 0.0109385 
-0.00415855 -0.0015408 0.0524057 
-0.026536 0.0257532 0.0854131 
0.0175315 0.016343 0.261453 
0.0085207 0.0515836 0.107041 
0.00748138 -0.021803 0.276818 
0.0209332 -0.071428 0.101862 
-0.00258372 0.00033842 0.0533967 
-0.0023921 0.000649278 0.0552694 
-0.001543 0.000235476 0.0459053 
-0.000519782 5.05607e-05 0.0310532 
-0.00392785 0.00802095 0.00614891 
-0.0533999 0.0214517 0.109301 
0.00621893 0.00600903 -0.00463698 
0.00185136 0.0164835 0.0295008 
-0.00196151 -0.00123692 0 
-0.00224086 -0.00187743 0 
-0.000102416 0.0014567 0 
0.0160787 0.00176868 0.00545949 
-0.00382178 -0.00288385 0.0160361 
-0.00453275 -0.00161665 0.00374338 
-0.0120796 -0.0429645 0.0804802 
-0.0177222 0.000149238 0.040738 
-0.0170764 -0.00266862 0.275441 
0.0439038 0.00679829 0.1303 
-0.0808621 0.0260587 0.137002 
0.0259194 -0.0336663 0.146854 
-0.0140984 0.0192953 0.0721567 
-0.00307702 0.00620636 0.0702822 
-0.00294939 -0.000872118 0.0669845 
-0.0137649 0.0101388 0.0662216 
-0.00244075 0.000774003 -0.00357186 
-0.000463537 0.000838826 0.00178162 
0.0014558 -0.00263004 0.000959835 
0.0133466 -0.00668642 0.018818 
-0.00709879 -0.0049905 0.073354 
0.00908342 0.0137205 0.0347118 
0.00870064 0.00152656 0.0589443 
0.00801752 -0.0110955 0.0600586 
-0.00193746 0.00197492 -0.0199423 
-0.0108022 -0.0114789 0.0279 
-4.94871e-05 0.00165237 0.00382489 
0.009319 -0.0202049 0.0302119 
0.00688775 -0.00789319 0.0260186 
0.00779457 -0.0108906 0.0483345 
0.00918688 -0.00734121 0.0335864 
-0.00211124 0.0026552 0.0339068 
-0.00196289 -0.00681692 0.0684519 
0.000533079 -0.00439293 0.0563427 
-0.000164945 -0.00712558 0.0720429 
-0.000650876 -0.003453 0.062966 
0.000520615 3.81177e-05 0.0792328 
-4.22882e-05 -0.00126248 0.0815194 
0.00185691 -0.00106586 0.0807595 
0.00128493 0.00212985 0.0828089 
0.00139097 -0.00539381 0.0733983 
0.00867104 -0.00999325 0.0621992 
0.000277626 -0.0116027 0.0488571 
-0.000775653 0.0010972 0.061106 
0.00289216 0.000532851 -0.00205486 
-0.0124343 -0.000468859 0.0362464 
0.00086639 0.00019344 -0.00553112 
-0.00449394 -0.000470379 0.0328345 
0.000157011 0.000595887 0.00101731 
-2.60603e-05 -0.000114837 -0.000351883 
-1.00484e-05 -5.03118e-05 -0.000204976 
0.000337537 0.000661816 0.0401997 
3.68326e-05 -0.000585241 -0.000530132 
-0.00322176 0.000722188 0.0540296 
0.00114921 -0.000138697 -0.000733758 
0.000385156 -0.00121123 0.0376078 
0.00466292 -0.0121625 0 
0.00771697 0.000798782 0 
0.00201538 -0.00745037 0 
0.0267259 0.0633639 0.0208125 
-0.000170369 0.000410598 0.000118724 
0.000123351 0.000750456 0.047384 
0.000271807 -0.000797685 4.86554e-07 
-0.000528752 0.00119656 0.0332288 
0.00915705 0.0058678 0.0283614 
0.00903881 0.00708661 0.0294013 
-0.00431611 -0.00383007 -0.0028219 
-0.00154401 -0.00182746 0.0283943 
-0.00344483 -0.0318899 0.262601 
-0.00622447 0.0159332 0.26465 
-0.0345468 0.108994 0.0842128 
-0.0157545 -0.0831022 0.171665 
-0.000423242 0.00025021 0.000155124 
0.000516986 0.000226408 0.0323713 
0.00189756 0.000223114 0.0443297 
0.00153909 -0.000436183 0.0355004 
-0.0029769 -0.000326043 0.0519894 
-0.00135757 0.000679442 0.0553382 
-0.000143784 0.00039246 0.0670709 
-0.00399846 0.00110873 0.0664012 
0.0019842 0.00323029 0.0784263 
0.000285909 0.000558726 0.0834116 
0.000862471 0.000468068 0.0843266 
-0.000330476 -0.000641535 0.0763407 
-0.00388031 -0.00291391 0.0651093 
-0.00618219 -0.00261206 0.0662781 
-0.000704742 0.00266541 0.0475341 
0.00354135 0.00247918 0.0312101 
0.000599968 -0.00174689 0.00145609 
-0.00735884 0.00760704 0.0366948 
0.000972557 2.63339e-05 -0.000757436 
8.91582e-05 0.00111868 0.0536587 
0.00280799 -0.00803847 0.074075 
0.00357188 -0.0107231 0.0622035 
-0.000158046 -0.0105384 0.0674829 
0.000602335 0.00328813 0.0774703 
-0.0039072 -0.0046244 0.0748113 
-0.00173471 -0.00202279 0.0801231 
-0.000648075 -0.00607261 0.0765828 
0.000479704 0.000573095 0.086265 
-0.000267085 -0.000901382 0.0645721 
-0.00443335 -0.0079373 0.0714048 
-0.000883176 -0.00398573 0.070708 
0.00157641 0.00343151 0.0766044 
0.00785107 0.00930868 0.0438128 
0.0016164 0.00136128 0.042767 
0.00227984 0.0055684 0.0971866 
0.0126863 -0.000624599 0.0273574 
0.000477167 0.017408 -0.0173269 
-0.0312195 -0.0242804 0.0559458 
0.00584973 -0.00774487 -0.00494627 
-0.0149127 0.00261804 0.018966 
4.30094e-05 -0.00347161 0.0824939 
0.000876072 -0.00754167 0.071634 
0.000623679 0.00307484 0.0751186 
-0.000447955 0.00516261 0.0709382 
0.000207218 -1.6337e-05 7.44463e-05 
-0.000204157 2.08582e-05 -0.000460238 
-0.000104818 2.53184e-06 0.000427992 
0.00033019 0.000311851 0.0343888 
0.0432927 0.00602815 0.111752 
0.0143698 -0.0219989 0.0672287 
0.0552862 -0.011096 0.0830388 
-0.00555295 0.0637687 0.00161463 
0.000203723 0.00041482 0.000234087 
-0.00140679 -0.000757588 0.043976 
0.000116315 -0.000418232 0.000471981 
0.000113175 -3.37605e-05 0.031572 
0.00534401 0.00140815 0.000645872 
-0.00208349 0.0093783 -0.00627651 
0.00131577 0.0100377 -0.0115364 
-0.0167102 -0.0357561 0.036028 
-0.0190996 0.0103672 -0.0484882 
-0.0188372 -0.0357789 0.0286035 
-0.00418162 -0.0321483 0.0508495 
-0.0178163 -0.0840964 0.174009 
-0.00158783 0.0012625 -0.00227735 
0.000185064 -0.00165998 -0.000601604 
-0.00215949 -0.00173136 -0.00307215 
0.0124729 0.0129762 0.01916 
-0.0114044 -0.00347072 0.0435108 
-0.0107626 -0.00412021 0.0325586 
0.00575537 0.00149205 0.0427028 
-0.000348747 -0.00136729 0.0615283 
0.0119442 0.00688694 0.0728873 
0.00479689 0.00371731 0.0694385 
0.00689254 0.00446375 0.0698556 
0.000357485 0.00247651 0.0622465 
0.0081699 -0.00308844 -0.0146249 
-0.0188695 0.000484984 0.0352684 
0.0108408 -0.00787969 -0.00857223 
-0.032461 0.00252559 0.0325346 
-0.0584996 0.0150732 0.0628706 
-0.013629 -0.015568 0.0531654 
-0.0213796 -0.00309557 0.10047 
-0.00633669 0.0128228 0.0067133 
0.001661 -0.000800111 0.1016 
-0.0211078 -0.0249462 0.0594384 
-0.0129699 -0.0332554 0.106933 
0.016863 -0.00310264 0.0808467 
0.00747464 -0.0221129 0.0560597 
-0.00396118 -0.00925027 0.0190218 
-0.0122709 -0.018628 0.0505619 
-0.00346702 -0.0100654 0.0703101 
-0.000382225 -0.000171272 -0.00109383 
0.000361995 0.000164622 0.000551159 
0.000411601 0.000189823 9.66562e-05 
-0.000490374 0.00111228 0.0479311 
-0.00180756 0.00780427 -0.00922669 
-0.00493697 -0.00150225 0.0339892 
-0.00379369 0.0107881 0.0613158 
0.00182702 0.00524967 0.0316358 
-0.0486831 0.000776673 0.00339502 
-0.0228824 0.000284848 0.0788369 
-0.00595033 0.00204335 -0.0163991 
-0.0102788 -0.0102699 0.0578805 
-0.00572943 -0.00839456 0.0348748 
0.028486 0.00436114 0.0620818 
0.00490838 0.0106906 0.119939 
0.0294104 0.0427806 0.1197 
0.00754488 2.71518e-05 0 
0.00525455 -0.000631304 0 
-0.00226249 0.00692593 0 
-0.0152165 0.0109118 0.00904638 
0.000855235 -0.000481146 -0.00167116 
-0.000225455 0.000148699 0.000906327 
-0.000431192 0.000176353 -0.000568611 
0.000534638 -0.00189405 0.0310206 
-0.00773805 0.00309845 -0.00524729 
-0.0629771 0.0205462 0.0850902 
-0.0173717 0.00168437 0.0472131 
-0.0216198 -0.0110951 0.0160247 
-0.00600281 -0.00196605 0.0238833 
0.00127244 0.000268997 0.0438653 
0.00129786 0.000555535 -0.00137165 
0.00038208 0.000895848 0.0330703 
-3.42534e-05 0.00245311 -0.00292125 
0.00451138 -0.000952325 -0.00136974 
0.000889866 0.000512522 -0.000248007 
-0.00727009 -0.00853067 0.0151996 
-1.8943e-05 0.000298025 0.000345149 
0.000434482 -0.00107049 -0.00123367 
-0.000196447 0.00194672 0.0473275 
0.00106028 0.0025256 0.028001 
0.00135327 -0.00480195 0.07258 
0.000360535 -0.0129309 0.0504273 
-0.00321003 -0.00970707 0.0621344 
-0.000760405 0.000984714 0.0625283 
2.29213e-05 3.28095e-05 0.000123332 
2.92607e-05 3.25833e-05 -0.000814241 
-0.000240988 -0.000325889 0.000694709 
0.000493091 -0.00010188 0.0430465 
-9.00059e-05 -0.000189366 -0.000410262 
-0.000129777 -0.000271114 -0.000315368 
-0.000303679 0.000694967 0.0413718 
0.000664345 0.00119872 0.038082 
0.000603103 0.000252071 0.0792467 
-0.000127757 0.000205017 0.0855092 
-0.000227994 -0.00170531 0.0813693 
0.00135894 0.00227604 0.0829615 
-0.000453762 0.00305139 -0.00283255 
0.00280815 -0.0110323 0.0297438 
-0.000883034 0.00120678 -0.0100329 
0.000600057 -0.0145482 0.023719 
-0.00450384 -0.00160213 0.0552719 
-0.0291122 -0.0251427 0.0948787 
0.00900889 -0.0277362 0.0581652 
0.000420072 -0.0346312 0.0579979 
-0.00233725 0.000359099 0.0762713 
-0.00014725 -8.47838e-05 0.0663756 
-0.00122964 0.00109153 0.056444 
-0.00407216 0.000876248 0.0657712 
-0.00264889 -0.000123941 0.0569102 
0.00286541 -0.000662979 0.0443837 
-0.001823 0.00109929 0.0381005 
-0.00295743 0.00364445 0.0612695 
-0.00556421 -0.00220193 0.0608123 
0.00746157 -0.00332739 0.0694485 
-0.0138065 -0.0122625 0.0680644 
0.00693246 -0.00983956 0.0684582 
-0.000790348 0.0417846 0.100426 
0.0102161 0.0306742 0.258695 
0.0267314 0.023408 0.12752 
-0.0488846 0.0314193 -0.0543735 
-0.00282842 0.00882945 0.029044 
0.00143415 -0.00167443 0.0488572 
-0.00117838 -0.000869105 -0.00185396 
0.00314768 0.00432176 0.0282606 
-0.00680833 0.00524507 0.0729512 
0.00192225 -0.00131844 0.0731348 
-0.00496288 0.0071665 0.0733984 
0.000640847 -0.00112318 0.0829664 
-0.00463782 0.00671132 0.0655845 
0.00844573 -0.0131055 0.0374685 
-0.00565331 -0.00139488 0.0374514 
-0.0177756 0.0213695 0.0296253 
-0.00191013 -2.62411e-05 0.066413 
0.00275256 -0.00329537 0.0379635 
0.000776965 0.000598143 0.0309307 
0.00388793 -0.00326732 0.05681 
0.00369868 -0.00266191 -0.0207274 
0.00466766 0.00944405 0.027712 
-0.00822209 0.0179224 0.069952 
-0.0205068 0.0281539 0.0440356 
-0.0115646 -0.00964154 0.0721298 
0.00213542 0.00815621 0.0623207 
-0.0142516 -0.0143818 0.0372132 
-0.00525709 -0.00868403 0.0277852 
-0.0118753 0.00724554 0.0214915 
-0.0103926 0.00851765 0.0716843 
-0.0190555 0.0282677 0.0772588 
-0.020027 0.00589704 0.0213333 
0.00955891 -0.0145011 0 
-0.0186922 0.0108333 0 
0.00283112 0.0220444 0 
0.00441709 0.0120287 0.0474517 
-6.18821e-06 -0.00255991 0.0565902 
-2.89203e-05 0.001401 0.0351568 
0.00204311 -0.00108838 0.0479203 
1.63444e-06 -0.00102847 0.0680364 
-0.00897031 -0.00137032 0.0691057 
-0.00438117 -0.00198524 0.0708142 
-0.00284185 0.00200896 0.0725732 
-0.00297224 0.000308029 0.0808322 
0.00168024 0.00677848 0.0511755 
0.00504608 0.00714446 0.0173393 
-0.0440037 0.0261483 0.0883853 
-0.0293485 0.0146321 0.0526515 
0.00902349 -0.00109908 0.0712041 
0.00102162 0.000578282 0.0786876 
-0.0022444 0.000596211 0.0760315 
0.000144014 -0.000372876 0.0825537 
-0.00083391 0.00204924 0.0690717 
-0.00188198 0.00380635 0.0598415 
-4.40789e-05 0.00105249 0.0487837 
-0.00162141 0.00418473 0.0725644 
-0.000165851 -0.000317578 -0.000425624 
0.000294269 0.00057192 0.000640014 
-6.31181e-07 7.0895e-06 -0.000114842 
0.000594312 0.00116929 0.0387275 
-0.00917058 0.0138858 0.237929 
0.0344941 0.00463098 0.162248 
0.086291 0.0172944 0.0121038 
-0.00204971 0.0104405 0.216362 
-0.0104949 0.0012701 0.0664704 
-0.0111849 -0.000546276 0.0567939 
0.0010948 0.000237408 0.0663487 
5.77372e-07 -0.000435721 0.0775521 
0.00104197 7.21735e-05 0.0428492 
0.0024562 -0.00136236 0.0383581 
0.00332572 0.00148932 0.0550549 
0.00259967 0.00170729 0.059805 
-0.0256728 -0.0121833 0.0467894 
0.0252233 0.0194457 0.0558419 
-0.00384862 -0.0715829 0.0831174 
-0.0123982 -0.0680879 0.129536 
-0.00678233 -0.00796113 0.0773673 
0.00398185 0.00192245 0.0552991 
-0.0136406 0.000846899 0.0573968 
-0.0202726 -0.00867413 0.040899 
0.00192573 0.000712807 0.0437186 
0.000281176 0.000676952 0.0417183 
-0.000764644 -0.000371355 0.000275611 
0.000953671 -0.000979654 0.0364719 
-0.00084205 0.000421735 0.0440168 
-0.00220083 -0.00072514 0.0519029 
-0.00220424 -0.000888791 0.0654618 
-0.00218916 0.000523607 0.0295588 
-0.000478223 0.000671192 -0.000801844 
0.000236906 -0.000344195 -0.000211281 
0.00010105 -0.000148114 -0.000157823 
-0.00205872 0.000839323 0.0376551 
-0.0285708 -0.0107266 0 
0.0301437 0.000621085 0 
0.0245475 -0.00863506 0 
0.0444829 -0.0202153 0.0884707 
0.0004993 0.00124119 -0.000562738 
-0.000375796 -0.000997007 0.00292154 
0.000109625 0.000356292 -0.00345445 
0.00361956 -0.00224654 0.0208315 
0.00015747 -0.000516673 -0.000161099 
7.69675e-05 0.000586802 0.0476981 
-2.32443e-08 0.00013651 -0.000110493 
-0.000444187 0.00132139 0.0343956 
0.0075547 0.00339809 0.0277079 
-0.00173599 0.000211673 0.0338416 
-0.0024448 -0.000258818 -0.00139609 
0.000597469 -0.000211781 0.0284019 
-0.000142585 -6.42666e-05 0.000332724 
-0.000128758 -5.90807e-05 9.04878e-05 
0.000282234 0.000130281 -4.22499e-05 
-0.000169289 -1.72078e-05 0.0382207 
-0.0012892 -0.000203514 -0.00241126 
0.00130786 -0.00115365 0.048955 
-0.00272729 0.00836044 0.0291258 
-0.00449814 0.00196871 0.029641 
-0.00102909 0.00666756 0.0756957 
-0.00763304 0.0127828 0.0524186 
0.00180572 -0.00426715 0.0579568 
-0.00669565 0.0128239 0.0231921 
0.0472764 0.00305843 0.174164 
0.0238654 0.0462164 0.181541 
-0.000926529 0.0117066 0.240709 
0.0515032 0.0133124 -0.055111 
-0.0013662 -0.00791629 0.0673417 
0.00328863 0.00187525 0.0545059 
-0.00107949 -0.0106531 0.0711832 
-0.00145001 -0.0123874 0.0743996 
-0.00615452 -0.0062518 -0.00424266 
-0.00950218 -0.00842791 0.0200362 
0.00806678 0.0102256 -0.00544692 
-0.00491392 -0.00492802 0.0206207 
0.00549154 0.000599027 0.0800389 
-0.0012612 -0.000118789 0.0849491 
0.00119672 0.000141499 0.0791529 
0.000846436 -0.000401664 0.0817894 
0.00113587 -0.0016846 -0.00199062 
0.0029956 0.00256494 0.0361345 
0.00818221 0.0113895 0.0259461 
0.00190125 0.000959912 0.0312916 
-0.00533303 -0.00488603 0.0243744 
0.00212139 0.00151523 -0.000735981 
-0.000175544 0.000473099 0.0345141 
-0.000698288 -0.0011762 0.0409852 
0.0106953 0.00304539 -0.00417075 
0.00562977 0.000384419 -0.00876716 
0.00321346 -0.00161226 -0.000897211 
-0.0393634 0.0157278 0.0370109 
0.0597389 0.00842427 0.107503 
0.042236 -0.00531672 0.256959 
0.0168435 -0.0428381 0.145892 
0.0289811 0.0576328 -0.0736212 
-0.00276446 0.000221924 -0.00157274 
-0.00404528 0.000362059 -0.00611547 
0.00245944 -0.00017559 -0.000833937 
0.00662801 0.00738752 0.0366934 
-4.5265e-05 -0.00060289 0.000731004 
3.93909e-05 0.000607885 -0.00121583 
-4.58025e-06 5.41471e-05 -0.000728026 
-0.00173605 0.00229638 0.05274 
0.0358391 0.0193174 0 
-0.0201641 -0.00156028 0 
-0.0189132 0.00787082 0 
0.0622178 0.037557 0.0440772 
0.00103771 -0.00633608 0.0726984 
-0.000718519 -0.00423994 0.0547165 
-0.000470575 -0.00255075 0.0566893 
-0.000341503 -0.00392531 0.0637889 
0.00193964 0.0122293 0.0610132 
0.00403743 -0.00133853 0.0472875 
-0.0017067 0.0090037 0.0282851 
0.001108 0.00394867 0.0297979 
-0.000924673 0.0038405 0.00494986 
0.00280638 0.00018632 -0.00223491 
-0.00807617 -0.00814662 0.0243832 
-0.00324868 -0.00591975 0.0274373 
0.0042821 -0.00485936 0.0568901 
-0.00906614 -0.00973889 0.039141 
-0.000916056 -0.000306505 0.041906 
0.00409245 0.000539422 0.0299097 
0.00128273 0.0235982 0.146011 
0.00975667 -0.00279838 0.241561 
0.0319151 -0.030934 0.242823 
-0.0557566 0.112976 0.118492 
-0.0244465 0.0216524 0.100714 
0.00942797 -0.0166521 0.250749 
-0.00495695 0.00106255 0.239571 
-0.0532236 0.0978849 0.117474 
-0.0125799 0.012244 0 
0.0186448 -0.00356179 0 
-0.0172414 0.00624459 0 
0.052275 -0.00578169 0.026228 
0.00731614 -0.0106317 -0.0192051 
0.0046192 0.00625839 -0.00645948 
0.0131226 0.0310982 0.0413743 
0.0287213 0.00279351 0.0635703 
-0.00309857 -0.00257793 0.0561476 
0.00132281 -0.00197747 0.0382436 
-0.00272589 0.00243526 -0.0028884 
-0.00307718 -0.00240417 0.0324058 
0.000599298 -0.000114537 -0.000505951 
0.000993133 0.00115706 0.0479878 
0.00659511 0.000635688 0.0274344 
-0.00254761 -0.00124448 0.0321041 
0.000821803 -0.0034999 0.0793921 
0.00463036 -0.00444333 0.0722904 
0.000952165 -0.00482321 0.072343 
0.00224375 -0.00067672 0.0805809 
0.00238693 0.00715922 0.250197 
0.00194266 0.0228152 0.283505 
0.00560166 -0.00229205 0.227843 
-0.0280345 -0.10399 0.185409 
0.00757592 -8.71474e-05 0.0743366 
0.00133438 0.00605226 0.0627941 
0.00573851 0.0119153 0.0641077 
0.013081 0.0110041 0.0772172 
0.00105684 0.00158547 0.0513945 
-0.00708772 -0.00287493 0.0647773 
-0.00230131 0.000565896 0.0627529 
-0.0086567 0.00199105 0.0755052 
-0.00828362 0.0134887 -0.018451 
0.0105423 -0.0208296 0.0509709 
0.0218831 -0.0170625 -0.00436614 
0.0478132 -0.0445409 0.136857 
0.00169921 -0.00177465 0 
-0.00085003 0.00108181 0 
-0.00243581 -0.00125191 0 
0.00163766 0.00458974 0.00905152 
0.0044268 0.00485318 0.07573 
0.00352267 0.0083507 0.0692711 
0.00645431 0.00706204 0.0664845 
-0.000630818 -0.000358535 0.0835969 
0.0156254 -0.0166488 0.053083 
0.00660976 -0.00535234 0.0530763 
0.00944908 -0.0145113 0.0661189 
0.0121444 -0.00170084 0.0625255 
-0.000638729 3.0295e-06 0.000656865 
-6.06295e-05 -0.000869942 0.0362604 
6.15646e-05 0.000558489 -8.2036e-05 
5.20921e-05 -0.000968245 0.029122 
0.00951349 0.0010147 -0.0155071 
0.00492359 0.0104955 0.0490717 
0.0020319 -0.00490619 0.0117818 
-0.0305233 0.0481384 0.0723794 
0.00125985 -0.00413648 0.0243504 
-0.000795843 0.00176618 -0.000481664 
0.00084595 9.89774e-06 -0.000379013 
-0.000158121 -0.000800615 0.034422 
-0.00677586 -0.00707 0.0729946 
0.0113274 0.00720656 0.103856 
-0.0127556 0.0142113 0.100871 
-0.0016593 0.00451029 0.0640756 
-0.00268691 -0.00672589 0.0754888 
0.00475735 -0.0189817 0.0629263 
-0.00113058 -0.0146729 0.0729814 
-0.00153678 -0.0125086 0.0619228 
-9.166e-05 0.000235015 0.085544 
0.00159899 -0.000890245 0.0807467 
-9.63724e-05 -0.00166203 0.0815333 
0.0012474 0.00227484 0.0828025 
-0.00327824 0.00291516 0.0793218 
0.00101965 -0.000901424 0.0847602 
-0.00524097 0.0011457 0.0770294 
0.000369577 0.00050583 0.0827228 
0.0107755 -0.00829307 0.0532287 
0.0102117 -0.00874645 0.0329031 
0.00906978 -0.0105999 0.0497137 
-0.00124689 0.00187401 0.0595198 
-0.00480301 -0.00890845 0.0688954 
-0.00143869 -0.0100943 0.0681015 
-0.00308161 -0.0118544 0.0558183 
0.00172432 0.00105849 0.0687831 
0.0819827 0.0144991 0.145725 
0.0229746 0.00548448 0.172589 
0.0236165 -0.0116478 0.0273864 
0.00852185 0.0370875 0.0988251 
0.0186971 0.0289324 -0.000469734 
-0.000657375 0.0315776 0.0698212 
0.029716 0.00202279 -0.0243997 
0.011998 0.00692418 0.062348 
0.000293118 0.000366318 0.000778895 
-0.000992716 -0.000282165 0.0300586 
-0.00100973 -0.00227806 0.0452022 
0.00083768 0.000935264 0.0315646 
-0.0223728 -0.037625 -0.0012937 
-0.020301 -0.00996627 0.0672998 
0.0109926 -0.0138087 -0.0261534 
-0.00852741 0.00027568 0.0697993 
-0.0018199 -0.00122089 0.0693641 
-0.00361411 -0.00303346 0.0664253 
-0.00182019 -0.00335082 0.050136 
-0.00151118 -0.00118195 0.058067 
0.0377049 0.0261106 0 
-0.0166763 -0.0245151 0 
-0.0242447 -0.0112586 0 
-0.018901 -0.0625372 0.0820215 
0.00420264 -0.00190215 0.0710024 
0.0111302 0.00233875 0.0718675 
0.00541563 -0.00520303 0.0719736 
0.0129247 -0.0027619 0.0645158 
-0.00380428 -0.0040876 0.0257703 
-0.000733942 0.000166781 -9.54988e-05 
0.00184405 0.00155836 -0.000502197 
-0.00073447 -0.00129994 0.0406805 
-0.00217337 0.00198053 0.055544 
-0.00150328 0.00158313 0.0330463 
0.00880596 -0.00556517 0.0463877 
0.00119667 -0.00105615 0.0600767 
0.012362 0.00284489 0.0696466 
0.00863106 -0.00325363 0.071362 
0.00419179 0.000275717 0.0717153 
0.0118286 0.00643748 0.0655706 
-0.000142196 -0.000121968 -0.000640929 
-0.000248183 -0.000196519 -0.00165962 
0.00326481 0.00313245 0.00373394 
-0.00116053 -0.0120387 0.0188808 
-0.0165401 0.0499729 0.123773 
-0.0293176 0.0393012 0.121907 
0.00827238 -0.00527894 0.250044 
-0.000464749 0.0192006 -0.122107 
0.00139007 -0.000843891 0.0477546 
-0.000245571 -0.00258544 0.0566265 
0.000569367 -0.000625596 0.067662 
0.00176539 -0.00355549 0.0647953 
-0.0138686 0.00203462 0 
0.0187863 0.0127485 0 
-0.00538766 0.000893189 0 
0.02103 0.0240981 0.0402694 
0.00183625 -0.0147481 0 
-0.0252681 0.0261711 0 
0.0163953 -0.01688 0 
-0.042589 0.0465935 0.0555143 
-2.32389e-05 0.000317396 -0.000697903 
-4.50342e-05 -0.000622099 0.0364762 
-6.80327e-05 -0.00034811 0.000263846 
-0.000467829 -0.000185553 0.0307388 
0.00676882 -0.00390582 0.0740161 
0.00720501 -0.00716124 0.0658621 
0.00403093 -0.00670964 0.0737652 
0.000210425 -4.54878e-05 0.0840266 
0.0228276 -0.0245555 0 
-0.00400024 -0.0159442 0 
-0.00239506 0.0250937 0 
0.0076087 -0.0461926 0.0787849 
-0.00747434 -0.00908983 0.0312032 
0.00349322 0.00403416 -0.0018615 
-0.00815236 -0.00840813 0.0274165 
0.0015589 0.00164099 0.0401415 
-0.00207797 -0.0100744 0.0710039 
-0.0234595 -0.00837421 0.0577765 
-0.00828391 0.029676 0.0918397 
0.0123726 -0.00919721 0.146768 
-0.00610243 -8.99833e-06 0.0787197 
0.000744842 0.000990458 0.0819873 
0.00148891 0.000121803 0.0838222 
-0.000717829 0.000289983 0.0771399 
5.68734e-05 5.56912e-05 0.000285186 
-0.000199588 -0.000195661 -0.000616659 
0.000240383 0.000236035 8.41455e-05 
-0.000199878 0.00024953 0.0299314 
-0.0387462 -0.0152008 0 
-0.0419818 -0.00032422 0 
0.0425718 -0.00610446 0 
-0.0401956 -0.0264499 0.103266 
0.0102388 0.000277528 0.0293055 
0.0101209 -0.000966478 0.0318289 
0.0118827 0.0010442 0.0469745 
-0.00145476 0.000599163 0.0346235 
0.000317907 -0.000330083 0.000121906 
0.000613612 -6.29707e-05 0.000683694 
-0.00100155 0.00213769 0.0472424 
-0.000837854 0.000703162 0.0378403 
0.000652694 -0.000966069 -0.00241901 
0.000773264 -0.000981816 -4.80918e-06 
0.00241386 7.07175e-05 0.0372345 
0.000302879 0.00074451 0.0308814 
0.00436005 0.0225657 0.0818134 
-0.00240644 0.00567044 0.0436511 
0.017399 -0.00159284 0.0498352 
0.0205509 0.00958634 0.0250764 
-0.000628085 0.00421035 0.0437244 
-0.0109444 0.020489 0.0617038 
0.00293461 0.00551176 0.048802 
0.00240446 0.0155108 0.0131254 
0.00282769 0.000871546 0.0733363 
-0.000447919 -0.000531297 0.0762008 
0.000915424 0.000792516 0.0844912 
-0.000874688 0.000373926 0.0771387 
0.00288831 -0.00236992 0.0805457 
-0.000755898 0.000798603 0.0864281 
0.00474472 -0.000204449 0.0782715 
0.00113474 -0.000648031 0.0820499 
0.00087767 -0.0016031 0.00132689 
0.00945192 0.00197622 0.0336776 
-0.00228593 -0.00270942 -0.000462067 
0.00327999 0.000114681 0.0386007 
0.00557307 -0.00075509 0 
-0.0165547 -0.00350948 0 
0.0176835 0.00900054 0 
-0.0352338 -0.0392189 0.0367363 
-0.000382695 0.00142659 0.0477686 
-0.00136252 0.00156521 0.0371875 
-0.00161018 0.00143137 0.0523255 
3.72339e-05 0.000231614 0.0328705 
0.00356201 0.0109842 0.048624 
0.0101281 0.00527111 0.11006 
0.0157529 0.00602315 0.0737024 
0.00372 0.00270072 0.0762387 
0.00448899 0.0102677 0.0579748 
-0.000696324 -0.00315718 0.0705009 
0.00324218 0.00960531 0.0710383 
0.000650088 0.00111435 0.057332 
0.00248942 0.00854296 0.070232 
0.000669035 0.00706912 0.0778491 
0.000126093 6.43301e-05 0.0727905 
0.000274702 -0.00157667 0.0818039 
-0.000383716 -0.000526809 -0.00047878 
-1.29138e-06 -1.51508e-06 0.000405416 
6.61273e-05 9.09336e-05 0.000313527 
-0.00107434 0.000279406 0.030366 
-0.00185468 0.00385531 0.276478 
0.00540485 -0.0664383 0.128316 
0.0446756 -0.0527858 0.145475 
-0.00399074 -0.00937983 -0.123719 
0.000444745 0.0110832 0.0580931 
0.00132713 -0.000537226 0.072112 
-0.00148605 0.0100854 0.0678528 
-0.000284223 0.000313653 0.0674909 
0.0211176 0.000589063 0.0633383 
0.00701644 -0.00159386 0.0736232 
0.016004 5.37231e-05 0.0617406 
0.017103 -0.00130948 0.0795045 
0.00193442 0.00155607 0.0367071 
-0.00428528 -0.00756021 0.0756207 
-0.0108199 -0.00185227 0.0442539 
-0.00274519 0.00429857 0.0319728 
0.00605587 0.000642136 0.0780297 
0.00148941 0.000708182 0.0791212 
0.00847129 -0.000181442 0.0701064 
-1.769e-05 -0.00148078 0.0829854 
-0.0013613 0.00189951 0.0765362 
-0.00264724 0.00240758 0.0696564 
-0.00191079 -0.000190257 0.0559884 
0.00029893 -0.00055659 0.0607656 
-0.0609556 0.0174856 0.0481362 
0.000885973 0.0030279 0.00853566 
-0.0166387 -0.0103909 0.072715 
-0.0267656 0.00286746 0.0885847 
-0.00407744 -0.00527684 -0.0240285 
-0.00998684 0.00141878 0.0316288 
0.00898487 0.00733448 -0.0110067 
0.0226136 0.0365228 0.0673661 
0.00430533 0.000258095 -0.00712801 
0.00363379 -0.000592743 -0.0167397 
-0.0192765 0.00449209 0.0533845 
-0.0157916 -0.00532722 0.0386577 
-0.00456844 0.0197059 0.0663978 
-0.0014763 0.0155368 0.0273605 
-0.00246775 -0.00215635 -0.0171758 
0.00231719 0.00625604 0.0330698 
0.00101806 -0.00288422 0.078653 
-0.00292348 -0.00514144 0.0744088 
-7.60615e-05 -0.000325115 0.0820784 
-0.000370114 -0.00163524 0.0810426 
0.0303256 -0.014712 0.0799878 
0.00499684 -0.0136558 0.00599158 
0.0217582 -0.0232611 0.0897676 
0.0131477 -0.0163371 0.0646509 
-0.0244472 -0.00113671 0.0570751 
-0.00824301 -0.00417391 0.118155 
0.00484528 -0.00373199 0.0478666 
-0.0246137 -0.0222854 0.129911 
0.00129751 -0.0032907 0.0798324 
0.00130276 -0.000527088 0.0720719 
0.000558083 -0.000250845 0.0675508 
0.0019848 -0.00434001 0.0651524 
0.00572587 0.000933204 0.0538924 
0.00117142 0.0100691 0.105925 
-0.00583899 0.00662489 0.0722385 
0.0175868 0.0333091 0.0995669 
-0.000129742 -7.02934e-06 -0.00315112 
0.000393769 -6.31e-05 0.00291079 
-0.00175244 0.00045503 0.00077237 
-0.00380381 -0.00355799 0.0230775 
0.00097281 -0.00354738 -0.00352909 
0.000636376 0.001398 -0.00159632 
0.00299354 -0.00307536 -0.00589317 
-0.0174843 0.0189218 0.0319082 
-0.0311017 0.00911596 -0.0145806 
-0.0345425 -0.0320006 -0.00619268 
0.0271093 -0.031032 0.107974 
0.00755056 -0.00506522 0.0258167 
-0.0367562 -0.0395991 0.0947816 
-0.0516055 -0.00878979 0.153339 
-0.0222216 -0.0438824 -0.0223136 
-0.00631728 -0.0183776 0.220169 
-0.00148235 -0.019778 0.0478138 
0.0050906 -0.0291552 0.0787241 
-0.00100827 -0.0249813 0.060964 
-0.00246702 -0.0126615 0.0781469 
-0.000168767 0.00036127 -0.000376471 
0.00317288 0.00452941 0.0312361 
-0.00110842 -0.00135748 -0.000162608 
0.000310207 -8.51472e-05 0.0339782 
0.0122307 0.0030367 0.0588818 
0.0113738 0.00586705 0.0582465 
0.012668 0.00451924 0.0457016 
-0.00289016 -0.000805402 0.0683502 
-0.00112114 0.00106841 0.0383966 
-0.00033461 0.000610824 0.032595 
0.000152541 -0.000375353 1.26292e-05 
-0.00060723 0.000202869 0.0306958 
-0.0218741 -0.0103529 -0.0378408 
-0.0191349 0.0409419 0.0215662 
0.0102538 0.0204351 0.0431219 
0.0046819 0.0450878 0.11665 
0.000723478 -0.000588166 3.40772e-05 
-3.22334e-05 0.000218354 0.0286509 
0.00051873 0.00125959 0.0481118 
-0.000883421 -0.000820206 0.0306649 
-0.00103577 8.68892e-05 0.00375354 
0.0013886 -0.000116487 -0.000282271 
-0.00227129 0.000190535 -8.71455e-05 
0.00267045 -0.00651827 0.0200782 
-0.0153247 0.0132649 0.152966 
0.00829828 -0.0111573 0.273238 
-0.00874778 -0.00942137 0.217564 
0.0452753 0.104902 0.144357 
-0.00335758 -0.00189139 0.0778283 
0.000139472 -0.000448947 0.0810865 
-0.000374159 0.000256679 0.0852659 
0.000685807 0.000478394 0.0786993 
-0.00114478 -0.00312293 0.0633621 
-0.00396892 -0.00246306 0.0700229 
-0.00365889 -0.00586092 0.0728592 
0.00108895 0.00191255 0.074983 
-6.64701e-05 6.24744e-05 -0.00346143 
0.00250674 -0.00102305 0.000294786 
0.000328059 -0.000166194 0.00319516 
-0.00347387 -0.00184391 0.0231171 
4.63626e-06 -5.77756e-05 -0.000725916 
-3.39721e-05 -0.000373063 0.000504458 
1.07556e-05 0.000180452 0.000217161 
0.000520045 -0.000156691 0.037314 
-0.00170484 -0.00285956 0.0501648 
-0.00345013 -0.00234601 0.0673537 
-0.00121701 -0.000701526 0.0437175 
-0.00158069 -0.00147682 0.0579525 
-0.0029016 0.00102959 0.053208 
-0.000324183 -0.000254944 0.0313945 
-0.000979469 -0.000829054 0.046542 
-0.000998412 0.000294561 0.0288427 
-0.0343824 0.0237109 0.0364791 
-0.0150202 -0.0281657 -0.0382484 
-0.0343759 0.0389334 0.138085 
0.00546053 0.023734 0.0353577 
0.000372331 -0.000380436 0.00013426 
-6.48524e-05 6.9292e-05 0.000342142 
-0.000110719 0.000113481 2.6269e-06 
-0.000449329 0.000460993 0.0379209 
-0.00577278 -0.00434436 0.076319 
-0.000593291 -0.00124808 0.076586 
-0.00835801 -0.00348625 0.0684054 
-0.0011934 0.00173058 0.077719 
0.00015739 -0.000431724 0.000474939 
0.000165818 0.000550799 -0.00012338 
-0.000561268 -0.000177975 0.0362258 
-0.000614881 -0.00098136 0.0310873 
-0.0134803 -0.019915 0.0493653 
0.000527916 -0.00386368 0.0287873 
-0.00193603 -0.000557861 0.0564776 
-0.00511179 -0.0122346 0.065023 
0.00072641 -0.0249376 0.0773962 
-0.000835206 -0.0137321 0.0715199 
-0.00243028 -0.019238 0.0528169 
-0.00249605 -0.00608256 0.0678539 
-0.0164784 0.0399823 0.0892849 
0.00173085 -0.00888587 0.121592 
-0.00168189 -0.00967032 0.0700073 
-0.0176073 -0.0114022 0.125252 
0.00114363 -0.00464285 -0.00587246 
0.00566117 -0.00226476 -0.00306525 
0.00233715 -0.00493401 -0.00574904 
-0.0137159 0.0316938 0.0224028 
0.0145204 0.00298632 0.0655247 
-0.00748096 -0.0107514 0.0692297 
-0.0241188 0.00766535 0.0345894 
0.000457742 -0.0121337 0.0721751 
0.00633839 -0.00433158 0 
-0.00614384 -0.00568531 0 
0.00567503 0.00361598 0 
0.0166158 0.0220266 0.0032998 
0.022797 -0.0220509 0.000657795 
-0.00734489 0.00657697 -0.0157537 
-0.000125235 0.00108936 0.0283457 
0.0181158 -0.0180455 0.0666011 
0.00425975 0.0131735 0.228609 
0.00380709 0.0118452 0.246762 
-0.00449656 0.0251274 0.258024 
-0.0216987 -0.127776 0.208724 
0.00843379 0.0118704 -0.0162093 
-0.0411779 0.0149137 0.0912252 
-0.0183672 -0.0479687 -0.00341703 
-0.0287407 0.00717153 0.0447767 
-0.0157979 -0.00319376 0 
0.00664152 -0.0121475 0 
-0.0106339 -0.00281431 0 
0.000196954 -0.0244925 0.0378653 
0.0084917 -0.0014463 0.0702588 
-0.00201951 0.000882109 0.0773869 
0.00728172 -0.00313332 0.0743779 
0.000152787 -0.000380139 0.08248 
0.00385928 -0.000503084 0.238179 
-0.00143334 -0.00037493 0.241312 
0.0167563 0.0204166 0.136418 
-0.0183855 0.029454 0.257303 
0.00903181 0.00510375 0.0535779 
0.0149343 0.0110336 0.0315406 
0.00158935 0.00294544 0.0412505 
-0.00235494 0.00103003 0.024603 
0.000142015 0.000566693 0.0033984 
0.00178098 0.00407593 -0.00243669 
-0.00050904 -0.00138675 -0.00260028 
-0.00692682 -0.00515173 0.0190574 
0.00118418 9.54108e-05 -0.00119009 
-0.000536036 -4.26059e-05 0.000706068 
-0.000758624 -6.53761e-05 -0.000457754 
0.00362791 -0.00191329 0.0457271 
-0.021952 -0.0310456 0.0488369 
0.00131867 -0.00123683 0.0599115 
0.00864289 0.0138478 0.0246972 
-0.0101589 -0.015749 0.034395 
-0.0191206 -0.00173026 0.280978 
0.0260796 -0.00347167 0.250192 
-0.109446 0.0221263 0.109016 
0.0745983 0.00744316 0.138236 
0.00138914 0.00165053 0.0801092 
0.0048575 0.000582514 0.0769605 
0.00246499 -0.00219961 0.079395 
-0.000225158 -0.000107151 0.089216 
-0.000272647 -0.000186383 0.000915084 
0.000595765 -0.000848451 0.0470599 
0.000598805 -0.000181283 -0.00136158 
-0.000470117 -0.000192163 0.0305532 
0.000253983 -0.000629007 -0.000314279 
-0.0331879 0.00210001 0.0526243 
0.00919127 0.000180261 -0.0164761 
-0.0179524 -0.0076344 0.0381154 
-0.00118856 0.00107564 0.0425802 
-0.000195386 -0.000565992 0.0380676 
-0.0030174 -0.0071332 0.0609655 
-0.00307684 -0.00515733 0.0270108 
-0.00665988 0.00512565 0.261887 
-0.0121682 0.00956654 0.22312 
-0.0132356 0.0158935 0.243195 
0.105776 -0.0171391 0.226471 
0.0125615 0.0140885 0 
0.00566071 0.0074912 0 
-0.0303037 -0.000351164 0 
-0.0454325 -0.00650119 0.0584096 
0.000492634 0.000459373 0.000179813 
-0.00183408 -0.000786509 0.0442163 
2.70572e-05 -2.86552e-05 0.0316678 
-0.000581727 6.06238e-05 0.0290699 
0.0282269 0.00898944 0.126824 
0.0127568 0.00346578 0.181118 
0.0281312 -0.0312324 0.0551774 
0.0168675 -0.00994233 0.0638123 
-0.00445991 -0.00231302 0.077786 
-0.00387995 -0.00316777 0.0659685 
-0.00150234 -0.000666253 0.0674834 
-0.00420711 -0.001194 0.0643996 
-0.0025862 -0.00261981 0.0489986 
-0.000377373 0.000192483 0.0471245 
-0.00114557 -0.00177351 0.0702249 
-0.00107178 -0.000967594 0.0577401 
-0.0387088 -0.0506671 0.0473646 
-0.0218162 0.0109276 0.075579 
0.0134849 0.00499506 -0.00497057 
-0.0410572 -0.0505229 0.112277 
0.00237052 -0.00110263 0.000277076 
0.00043874 0.000960707 0.039856 
0.000385783 0.00270327 0.000196495 
-0.0106098 -0.00352759 0.0263057 
-6.67708e-06 -0.000516857 -1.86478e-05 
-0.000199092 -0.000652117 0.0364501 
0.00035592 -2.92552e-05 0.000423278 
-0.00235474 0.00169961 0.0297404 
0.0193998 -0.0182025 0 
-0.0175555 0.000990512 0 
-0.0149894 0.00325363 0 
0.0361885 -0.0185696 0.0414108 
0.000110364 -3.369e-05 0.00044854 
3.17268e-06 8.46549e-07 7.20499e-05 
7.02455e-05 -4.6801e-05 -0.00054096 
0.000544752 0.000702584 0.037127 
0.00181315 -0.00693236 -0.000776557 
0.00712174 -0.00267916 -0.00373489 
0.0093007 -0.000586588 -0.0123036 
-0.045424 0.0173952 0.0410504 
0.000963386 0.00077076 -0.00160496 
-0.000136758 0.0141221 -0.00833979 
0.000458222 0.00202414 -0.00568774 
-0.0283549 -0.0165053 0.0309165 
-0.00342304 -0.00213345 0.0776089 
-0.00526747 -0.00256187 0.0719444 
-0.00816322 -0.00154379 0.0690648 
-0.0024044 0.00104309 0.0795909 
0.0702948 0.0279245 0.126772 
0.0742908 0.0628703 0.163175 
0.00471932 -0.0196967 0.23422 
-0.0133728 -0.0305293 -0.159201 
-0.000326429 8.62634e-06 0.000219554 
-0.000504201 0.000119875 0.000458791 
0.0018711 0.000416301 0.0439683 
0.000967507 -0.000544203 0.0360575 
-8.48353e-05 -0.000360778 0.000182712 
0.000427471 0.00132347 0.0358901 
1.81173e-05 -0.000201081 -8.99751e-05 
0.000292634 0.000804848 0.0338795 
0.00371856 0.00898182 0.0691229 
0.00548182 0.0106288 0.0569491 
0.00721904 0.00778384 0.0662458 
-0.00176817 -0.00264394 0.0732216 
-0.00732715 -0.0244185 0.077611 
-0.00789651 0.00682106 0.129508 
-0.0160986 0.039386 0.076779 
-0.00323326 0.0142846 0.0780532 
-0.0389485 0.00165526 -0.000689908 
0.0106482 -0.0022433 -0.0159915 
-0.015707 -0.00631966 0.0497328 
-0.0228505 0.0015533 0.0518162 
-0.00590645 -6.36448e-05 0.254197 
0.0270206 -0.0265933 0.16373 
-0.0106172 -0.00361251 0.234128 
-0.00574201 0.0239055 0.245152 
-0.00542851 -0.00124848 0 
-0.00443915 0.00637148 0 
0.00110415 0.0047351 0 
-0.00213876 -0.0139298 0.00199796 
-0.0015944 -0.00217045 -0.00698682 
-0.0032172 0.00453924 0.0261261 
0.000723806 -0.00544147 -0.00100172 
-0.00340649 0.00885504 0.0221007 
0.000634804 -0.000570914 0.0808969 
9.45397e-05 -0.00392992 0.0713873 
-0.00048316 -0.00185764 0.07992 
-0.000377579 0.000543707 0.0770685 
0.00173137 0.00158021 -0.000898693 
-0.000389656 -0.000716151 0.0372844 
4.93247e-05 -0.00105648 0.0416141 
-0.00331137 -0.00363645 0.0293476 
0.000536308 0.0008125 0.0598058 
0.00812256 -0.0113714 0.0583786 
0.00159596 -0.00542094 0.0737041 
-0.000947969 0.0031039 0.0649549 
-0.000280951 0.000988174 0.0461961 
-0.00481165 -0.000704705 0.0652753 
-0.00308087 -0.00036031 0.0516633 
0.000264172 0.000181587 0.0298328 
0.0171397 -0.0176496 0 
-0.0231885 0.0240214 0 
0.00986547 -0.000732701 0 
-0.0421879 0.0462149 0.0568393 
8.6435e-06 3.98182e-05 0.000276275 
7.58287e-05 0.000110295 -0.000925803 
-3.31484e-05 -2.04114e-05 0.000794333 
-0.000692704 0.000800706 0.0317499 
-0.000112424 0.00107344 0.0701733 
-0.00288516 0.00221794 0.0701136 
-0.00532773 0.00572291 0.067927 
-0.00211121 0.00445724 0.0720527 
-0.00648303 -0.00392705 0.0314587 
-0.000442415 -0.000112345 0.0351605 
0.00151989 0.00142406 0.0434995 
-0.000794095 -0.000864204 0.0604032 
-0.0035601 -0.00712697 0.0707161 
-0.0119114 -0.00721003 0.0696187 
-0.00429223 -0.0134717 0.063296 
-0.00731025 -0.00893854 0.0702506 
0.00954428 -0.00419084 0.0629122 
0.00684564 -0.00358304 0.0737871 
0.00926203 -0.000715336 0.0688446 
-0.00228594 0.00067447 0.079626 
0.0131814 0.00392268 0.0700227 
0.00473697 0.000502228 0.0714197 
0.00387962 0.00456002 0.0734814 
0.0106472 0.00466381 0.0647839 
0.0106233 0.00587453 0.115257 
0.015608 -0.012723 0.0673485 
0.0154667 0.00598826 0.0746846 
0.00339092 0.00241923 0.0743026 
-0.0236901 -0.00692301 0.284358 
-0.00638188 -0.00681977 0.223112 
-0.00316781 -0.00651002 0.216481 
0.0937209 0.0174298 0.145615 
-0.00849469 -0.00371481 -0.0129141 
0.0150404 0.00270578 0.0570189 
0.00451459 0.0225724 0.0328788 
0.013434 -0.00485423 0.0128509 
-0.000550885 0.000144077 0.000980429 
6.7476e-05 -9.42719e-06 -0.000425207 
9.15408e-05 -1.93299e-05 -0.000334085 
-0.000629554 0.000297021 0.0414562 
2.66831e-06 -0.00364219 0.0529164 
-0.000133528 0.000673619 0.0298909 
-0.000445425 -0.00264435 0.0568028 
-0.000796522 -0.00469437 0.0655285 
0.000558969 0.00010887 0.0664335 
-0.000634798 -0.000343921 0.0609679 
0.00218257 0.00219596 0.0540197 
-0.000438077 -0.00135051 0.0415253 
-0.00680329 0.000509802 0.0494693 
-0.00250031 0.00178357 0.0753315 
0.00273832 -7.57215e-05 0.0616962 
-0.0103503 0.00605081 0.0613093 
-0.0307901 0.01262 0.0262698 
0.0136589 0.0103843 -0.0332963 
-0.0104853 -0.00120865 0.00628653 
-0.051107 0.00723073 0.106985 
0.0191385 -0.00608446 0.240789 
0.0237767 0.0282629 0.154424 
-0.0195166 0.0474765 0.162076 
-0.0188892 0.0594015 0.103166 
-0.00474716 0.00952714 0.0615325 
-0.00411723 0.0074494 0.0741375 
0.0011529 -0.00170901 0.0727522 
8.88991e-05 0.00115499 0.0675259 
0.00268271 0.00100437 0.0395106 
-0.000663903 0.00116627 0.0658156 
0.00101602 0.00128608 0.0493895 
-0.000331658 0.0039252 0.0692049 
-9.72317e-05 6.90824e-05 -0.000122373 
-0.000166197 6.81241e-05 -0.00171496 
0.000104417 -5.92248e-05 0.00058241 
0.000736105 -0.00247371 0.0323512 
-9.10813e-05 -0.000492426 3.7224e-05 
0.00288562 -0.00267576 0.0454709 
-0.000220216 0.000825354 0.000685788 
0.000366051 0.00118106 0.0368918 
0.0042764 -0.000719345 0.0777266 
0.0053332 -0.00436529 0.0721709 
0.00680854 -0.000555038 0.070806 
0.00941655 2.10526e-06 0.0716818 
-0.00025238 -0.00031824 -0.00218453 
-0.000254019 -0.00063997 0.00100845 
0.00096559 0.0019803 0.000705388 
-0.000981005 0.000384741 0.0229986 
-0.0089227 -0.00800784 0.046967 
-0.000479758 -0.000543299 0.0606476 
-0.00774779 -0.00763526 0.0670403 
-0.000402692 -0.000310591 0.0421195 
0.000189967 0.000203053 0.00059235 
-0.000770721 -0.00199528 0.0457533 
-0.00014433 -0.000736186 0.0295004 
0.000805568 0.00103752 0.031316 
0.0104792 0.00383389 0.0696322 
0.0047357 0.00425009 0.0736564 
0.00677572 0.000377209 0.0717435 
0.00381337 0.00168248 0.0784164 
0.000101974 2.56924e-05 8.88825e-07 
-0.000136749 -2.81005e-05 -0.000512892 
-0.000108574 -2.96147e-05 0.00018101 
0.000114808 0.00085579 0.0476834 
-9.09155e-05 -2.10249e-05 0.000844005 
0.00129713 0.000492922 0.0391334 
0.00118511 0.00148632 -0.00148588 
0.00231716 0.000555351 0.0399008 
0.000219095 -0.000202578 0.00151288 
4.15747e-05 2.22145e-05 -0.00130674 
0.000144339 -8.09744e-05 -0.000382407 
-0.00042701 -0.000725772 0.0308573 
-0.0049352 0.00777648 0.0722048 
-0.00769248 0.005207 0.071228 
-0.00843311 0.00866045 0.0625252 
0.00268969 -0.00225212 0.0766116 
-0.0140716 -0.0177386 0 
0.00133139 0.03006 0 
-0.00424702 -0.0145571 0 
-0.0417101 -0.0676922 0.104291 
-0.0181155 0.0249985 0.0719595 
-0.00894258 0.00584727 0.0280808 
-0.00638314 0.00641754 0.0569909 
-0.0124415 0.00931558 0.0666108 
-0.0196837 0.0303278 0.053129 
-0.00463809 0.01786 0.157275 
0.00777883 0.0400456 0.0519266 
-0.0075759 0.0171001 0.0802221 
-0.00390021 0.00585447 0.0278621 
-0.00367937 -0.0172343 0.0594784 
0.00617642 0.00554704 0.0787968 
0.00280297 0.0344392 0.0550199 
-0.0127591 -0.00373076 0.0550431 
-0.0100254 -0.00367526 0.0688897 
-0.0119617 -0.00618176 0.0536031 
0.00179484 0.000360234 0.0628981 
-0.00652268 0.000498378 0.0768584 
-0.00723887 0.00313844 0.0725484 
0.00175254 0.00130615 0.0829905 
-0.00107406 -0.000124497 0.0774692 
-0.000172064 0.0032064 -0.00308691 
0.00375172 0.00200507 -0.00116875 
-0.000783367 -0.000519654 -0.00113106 
0.00811867 -0.0131896 0.0166055 
0.00582879 0.000262852 0.0775785 
0.00877668 -0.000760635 0.0695975 
0.00658526 -0.00345029 0.0737575 
0.000317723 -0.000925013 0.0836474 
0.000633377 5.46386e-06 -0.00696652 
0.000376845 0.000123448 0.0011381 
-0.00292064 -0.000746998 0.000398807 
0.00936191 -0.00414885 0.0272346 
0.00513565 -0.0237552 0.039309 
0.0426428 0.0125059 0.0969775 
-0.00412295 -0.00295092 0.0982985 
0.0116142 1.42085e-06 0.0219109 
0.0477067 -0.00192893 0.0997378 
0.00282359 0.0034193 0.00600127 
0.067671 -0.00476433 0.054944 
-0.00639502 0.0368743 0.0241508 
-0.0165444 0.0264734 0 
0.0058568 -0.0170581 0 
-0.00118958 -0.0166707 0 
-0.02801 0.0325442 0.0544128 
-0.004026 0.00532011 0.0596227 
0.00223634 -2.03833e-05 0.0601787 
-0.00322813 0.00195089 0.0735698 
-0.0105956 0.00646586 0.0625221 
-0.00151661 -0.00137157 0.0529722 
-0.000104661 2.2261e-05 0.0342377 
-0.00209195 0.000785284 0.0551205 
-0.00136239 0.00150105 0.0313836 
0.00105424 0.000358031 0.0838622 
0.00195998 -0.00069636 0.0810326 
-0.000193863 0.000267396 0.0854812 
0.00094574 0.00204285 0.082549 
-0.00117561 -0.00172102 0.0533941 
-0.0101943 0.0131986 0.107418 
-0.0338719 0.0259521 0.0882874 
0.01544 0.0063708 0.0673273 
0.0240592 -0.0181239 0.179164 
0.0202086 0.0205382 0.151011 
-0.00559046 0.0069644 0.222805 
0.0829825 0.0235413 0.14226 
0.000496289 0.00867432 0.0285486 
-0.000194101 0.000123149 0.0369867 
0.00129417 0.0103658 0.0438169 
-0.00147835 5.82419e-05 0.0346597 
0.00588386 0.0123697 0.0564125 
0.00925652 0.00999296 0.0491505 
0.0078072 0.01034 0.0671288 
-0.00165563 -0.00403037 0.0510714 
-0.000951094 0.00736561 0.0753188 
-0.00135792 0.00235363 0.0544996 
0.000977325 -0.000280701 0.0379123 
-0.00376476 0.00555468 0.0270042 
-0.0112834 -0.01102 -0.0238061 
0.02817 -0.0118784 0.012913 
0.0351985 0.000535998 0.084504 
0.00596721 -0.000190065 0.00537748 
-0.00224534 -0.0013689 0.0627394 
-0.00631715 0.000801778 0.0660615 
-0.00895287 -0.00144134 0.0699742 
-0.0122095 -0.000416316 0.0702896 
-0.00448511 -0.00125805 0.00382293 
0.0031706 0.00556765 -0.006669 
0.00196265 0.000930677 -0.00167539 
-0.0226977 0.00126965 0.0324298 
-0.00168098 -0.00204509 0.247453 
-0.00314599 0.00297086 0.228223 
0.0173193 -0.0129328 0.161528 
0.0165958 -0.035453 0.237966 
0.0207505 0.0108673 -0.0302561 
-0.0175391 -0.0171699 0.0312491 
0.00560345 0.00382517 -0.0197852 
-0.0497176 -0.072695 0.134467 
-0.0137958 0.0113985 0.131163 
0.00671947 0.00334791 0.219057 
0.0157317 0.0222965 0.207113 
-0.052609 -0.00498142 0.202846 
-0.00731506 -0.00689043 0.0668271 
0.000700392 0.000215695 0.0663699 
-0.00031731 -0.000571215 0.0607708 
-0.00106062 -0.000600188 0.0756798 
0.00401201 0.0239142 0.0450633 
-0.00185302 -0.00130461 0.0329381 
-0.00560237 0.00542792 0.0599826 
-0.00892214 0.0124677 0.0362141 
-0.00057713 -0.00768071 0.0680536 
-0.000835975 -0.0138777 0.0744475 
0.00218851 -0.0174999 0.0728402 
0.000582335 -0.00647078 0.0637241 
0.00184936 -0.0010751 -0.00194967 
0.0010318 0.000966083 0.0415903 
-0.0102311 -0.00356109 0.0282177 
-0.00350537 -0.0044885 0.0270348 
-0.00193652 -0.00755463 -0.0175124 
0.00544789 0.00363344 -0.00647493 
0.00343113 -0.00584931 0.0087195 
-0.0262333 0.0404583 0.0682815 
-0.00348748 0.000776557 -0.00353596 
0.00326422 0.00494227 0.00416465 
-0.000487057 -0.00297503 -0.000868846 
0.00772884 0.012443 0.0210661 
0.00299737 0.0262643 0.0480154 
-0.0143937 0.0136367 0.0385294 
-0.00745473 0.00181232 0.0560229 
-0.00156708 0.013685 0.0774579 
-0.000357832 -0.00348762 0.251609 
-0.0257371 0.00342193 0.174052 
0.00626048 0.00234005 0.220211 
-0.00677615 -0.0222696 0.236921 
-0.00809134 -0.000432188 0.064857 
0.00132515 -0.000661806 0.0457333 
-0.00434264 0.00694992 0.0361837 
0.00366491 -0.00429097 0.065628 
-0.000548388 0.00558111 0.0569545 
0.00947307 0.0217755 0.04275 
0.00341672 0.00249224 0.0271164 
-0.00265259 0.00237171 0.0589547 
-0.00105535 0.00265136 0.0793431 
0.000469785 0.00035693 0.0835414 
4.43389e-05 0.000154899 0.0850235 
0.00114676 0.00226 0.0829462 
-0.00691022 -0.0187774 0.0503506 
0.00171244 -0.0149226 0.0746918 
0.00364728 -0.0235608 0.0610841 
-0.00544177 -0.00697643 0.0608767 
0.00355577 -0.0138642 0.0716344 
-0.00783139 -0.00838783 0.0616661 
0.00930609 0.00205416 0.0633668 
-0.00168804 0.000190915 0.057691 
0.00685911 -0.00577486 0.0707193 
-0.00286472 -0.0086641 0.0680038 
0.0135201 -0.00952431 0.0683021 
0.000432952 -0.00868775 0.0647584 
-0.0588498 0.00844503 0.140853 
0.0089577 -0.013823 0.216961 
0.0122547 -0.0128561 0.288847 
-0.0814853 0.0571122 -0.0217273 
-0.034624 0.0449397 0.0598823 
-0.00263362 0.0465011 0.168225 
-0.00279703 0.0499281 0.0444495 
0.0190498 -0.0237651 -0.0141215 
-4.81806e-05 3.93054e-06 -0.000368492 
9.28413e-05 -7.57392e-06 -0.000142973 
0.000239031 -1.95e-05 0.000626617 
0.000184096 0.000532682 0.0342542 
-0.00353661 0.00454427 0.0591257 
-0.000825201 0.0224759 0.045462 
-0.00844097 0.0165858 0.0687694 
0.00362797 0.00510885 0.0588202 
0.00696323 0.00642193 0.0306203 
-0.00146637 -0.000917162 0.0341203 
0.00851764 0.00746734 0.0500108 
-0.00144066 0.000913828 0.0470083 
-0.0147867 -0.00610601 0.280312 
-0.102118 0.0528711 0.113157 
0.0103939 -0.0272209 0.25228 
0.0455887 -0.0539587 0.149965 
-0.00505934 -0.000112044 -0.00543427 
0.00878982 0.0114456 0.0221574 
-0.000700588 -0.00111547 -0.00509802 
0.00614265 0.00226232 0.0122881 
0.000558382 -0.00455507 0.0773654 
0.00993451 0.0109377 0.0613345 
0.0163284 0.0037892 0.0895984 
0.0109121 0.0136385 0.0792121 
-0.00551444 0.0104149 0.060077 
-0.00477256 0.00774054 0.0726005 
-0.00840277 0.00864421 0.0622801 
0.00254141 -0.00222469 0.0760723 
0.00479038 0.0100193 0.0590382 
-4.2624e-05 -0.000394969 0.0468659 
-0.00109981 -0.00224747 0.0705515 
0.000532008 0.00113743 0.0567258 
-0.00381139 -0.00787148 0.0684293 
0.00139583 -0.00836991 0.0720777 
0.00188662 -0.0122454 0.0689563 
-0.00516322 -0.0126397 0.0656099 
-0.0112439 0.00102951 0.0339717 
-0.0102556 0.00193726 0.0264854 
-0.0129469 0.00165291 0.0499095 
0.0039744 -0.00159975 0.0323939 
5.26971e-05 7.5449e-05 -0.00132637 
-0.000253425 0.000218632 -0.000774398 
-0.000366382 -0.000175955 0.0340054 
-0.000419873 -0.000351857 0.0289137 
0.00671818 0.000826043 -0.0113043 
-0.0313921 -0.000497434 0.0327453 
0.00769069 0.00624792 -0.00845556 
-0.0123678 0.00367265 0.0269451 
-0.000164597 -7.63316e-05 -0.00022542 
9.1471e-05 4.37496e-05 0.000216495 
-0.000130395 -5.24484e-05 0.00037164 
9.95867e-05 0.00111161 0.0471874 
-0.00976086 -0.0025858 0.0364537 
-0.0180596 0.00628611 0.0320839 
0.00262807 -0.00230908 -0.00624389 
-0.00494882 0.00142427 0.033976 
-0.0019425 -0.0014808 0.0507613 
-0.00216709 -0.00130229 0.0546986 
-0.000575917 -0.00223152 0.0450968 
-0.000600415 3.53568e-05 0.0298791 
0.00657249 0.000252 0.0640286 
-0.00238906 0.00135847 0.0441126 
0.0079335 -0.00332993 0.0685445 
0.00394014 -0.00551939 0.0656867 
-0.00564217 -0.0131507 0.067274 
0.00324735 -0.0190703 0.149756 
-0.0406323 0.0048381 0.017539 
-0.000413611 -0.00942853 0.0753287 
0.0217839 -0.00779405 0.0859917 
0.00382025 -0.000888498 0.0405783 
-0.00413598 -0.00469939 0.0755247 
-0.00118238 -0.0215181 0.033844 
0.0172688 -0.0123441 0.0478576 
0.00806294 -0.00110046 0.028692 
-0.00299726 -0.00371798 0.0531847 
0.0157719 -0.00572949 0.0663594 
-0.0255281 -0.00783559 0.160773 
0.00675856 0.0033977 0.221782 
-0.0162251 0.0174446 0.156902 
-0.0527144 -0.00633519 0.169473 
0.00170745 -0.0288071 0.0465972 
0.000206825 -0.0068629 0.0291501 
-0.000723277 0.0168291 0.0395229 
-0.00167701 0.0130253 0.0669577 
0.000363341 -8.33617e-05 0.000978817 
0.000213687 0.0030117 -0.000902179 
0.00120482 0.00234533 -0.00204274 
-0.00675059 0.00212066 0.00858507 
0.00147954 8.11571e-05 0.0801773 
0.00043122 -0.000751037 0.0716352 
0.00114265 0.0040883 0.0762366 
0.00465106 0.00516277 0.0734378 
-0.00338617 -0.00128868 0 
-0.00664688 -0.00394624 0 
-7.0905e-05 0.00402782 0 
0.0217219 0.0120525 -0.000373734 
-0.00303813 0.00400541 -0.00959174 
0.03596 0.00645234 0.0448129 
-0.00732395 -0.00134515 -0.0111171 
-0.00387841 -2.46345e-05 0.0082492 
-0.00254137 0.0143575 0.0928078 
0.0221622 0.0197896 0.147053 
0.0145858 0.0318582 0.0369359 
0.0122739 0.015528 0.0617609 
-0.00567194 -0.0201018 0 
-0.00597553 0.0159532 0 
-9.78088e-05 0.00366219 0 
0.0585599 0.00816193 0.0294668 
-0.0188541 -0.00229705 0.0475497 
-0.0311534 0.0030533 0.0895979 
0.0139042 -0.00836392 0.0730233 
-0.0198132 0.00799387 0.0673156 
-0.000421644 -0.00104528 0.0457142 
-0.000723365 -0.00272766 0.0569219 
0.00048086 -0.00217124 0.0301568 
-0.00127109 -0.00259824 0.0653408 
-0.0099838 -0.00568708 0.0630986 
0.00991133 -0.0229749 0.0317598 
0.0207452 0.0125533 0.0775727 
-0.0194559 -0.00650477 0.062578 
-0.00141354 0.00286433 0.0790611 
-0.00351642 0.00282361 0.0696491 
-0.00176672 0.000595319 0.075727 
0.000839735 -6.03594e-05 0.0823528 
0.0188281 0.00120369 0.0672958 
-0.0108611 -0.0416667 0.113714 
-0.0256123 -0.0286159 0.0565285 
0.0160798 0.00249864 0.0770029 
-0.00373219 -0.00195677 0.000955288 
0.0100512 -0.00101962 0.037908 
-0.00422862 0.00202514 -0.00156888 
0.0154232 -0.000848073 0.0185791 
0.0314457 -0.00836287 0.111397 
0.0235584 -0.00717128 0.0780729 
0.0401173 -0.000752845 0.039239 
0.014605 -0.00334924 0.0839473 
0.00761407 0.00772079 0.0503705 
1.81193e-05 0.000332453 0.0470101 
-0.00122315 -0.00116833 0.0346424 
-0.00153045 -0.00194824 0.0579089 
-0.00195374 -0.00236116 0.0497546 
-0.00147756 -0.000540753 0.0437631 
-0.000167178 -0.000235132 0.0338518 
-0.00155511 -0.00188453 0.0584637 
5.44187e-06 3.33831e-06 0.000718916 
-0.000137675 -9.32056e-05 -0.000722387 
0.000115587 7.85019e-05 0.000107368 
0.000824155 -0.000548735 0.0365984 
0.00595139 0.01136 0.0426103 
-0.00975371 -0.0121857 0.0634747 
-0.0032967 -0.00826004 0.0660923 
0.00356969 0.000746387 0.0421246 
-0.00893054 -0.0202742 0 
0.00907471 0.0237098 0 
0.0114256 0.0135338 0 
0.0481691 0.0579108 0.0702996 
0.00187841 0.00299978 0.0784564 
0.0009362 0.000689591 0.0843374 
0.00417448 0.00202718 0.0788405 
-0.000460498 -0.000606793 0.0765442 
0.00091146 -0.000505339 0.0796014 
0.00545803 0.00118317 0.0716778 
0.00070302 -0.000338279 0.070605 
0.00466214 0.00511325 0.0740513 
-0.00176949 0.0100861 0.0300315 
-0.000622331 0.00987658 0.0261672 
0.00020415 0.0119867 0.0430226 
0.00230685 -0.00163125 0.0356638 
-0.000732515 -0.00120602 -0.000915671 
-6.11759e-05 -0.000198322 0.00035292 
0.00417863 0.003706 0.0270222 
-0.000754403 -3.82854e-05 0.0333107 
-0.0101375 -0.00872834 0.085302 
-0.00498722 -0.00381859 0.0624575 
0.00176622 0.0122445 0.0440863 
-0.00995559 -0.00494401 0.0688142 
-0.00384122 0.00219792 0.0722943 
-0.00345436 0.000847174 0.069483 
0.00603506 -0.000749171 0.0703714 
0.00359142 -0.00112986 0.0776765 
-0.000888752 0.00234295 0.0374156 
-0.000808128 -0.000790495 0.0304362 
2.98051e-05 -0.000678238 0.000650243 
0.000403586 0.00171442 0.0307132 
-0.000100512 0.000437853 0.0850892 
-0.000277258 -0.000710736 0.0813607 
-0.00296014 -0.0018477 0.0774917 
-0.00028162 -0.00153855 0.081518 
0.00944379 0.00115276 0.0701806 
0.00594251 -0.00421086 0.0675822 
0.00659074 -0.00439196 0.0733135 
0.0130957 -0.00287892 0.0672291 
-0.00343907 -0.00171665 0.0772625 
0.000535045 0.000134684 0.0794123 
2.89614e-05 0.000450052 0.0852741 
-0.00253633 0.000335085 0.0800588 
0.00231944 0.000840101 0.0731729 
0.00414255 0.00152315 0.0793552 
0.00106457 0.000612016 0.0846251 
-0.000404817 -3.55877e-05 0.0759915 
-0.0154868 -0.0131164 0 
-0.0282807 -0.00857935 0 
0.0264367 0.0212232 0 
-0.0546616 -0.0264122 0.082166 
0.00419297 0.0179343 0 
0.0177595 0.0205477 0 
-0.0106132 -0.0226924 0 
0.0139266 0.0490328 0.0759313 
-0.00477523 0.0057477 0.101262 
-0.0037429 0.0287288 0.0970498 
-0.0021646 0.00134951 0.0239513 
0.0100033 0.0132442 0.0330929 
-6.27372e-05 -0.000107011 -0.000876962 
-6.63125e-05 -9.04168e-05 0.000357251 
9.98092e-05 0.000143068 -0.00014277 
0.000416095 -0.000606916 0.036564 
-0.00895738 -0.00272998 0.0691122 
-0.000390249 -0.00104385 0.0761022 
0.00309333 0.000696687 0.0735725 
-0.000793564 0.000931534 0.0774038 
0.00543625 0.00231682 0.040741 
0.0241966 -0.0183977 0.121023 
0.0385697 0.00720295 0.115214 
0.0117888 -0.00926054 0.0529093 
-0.00219031 -0.00247699 -0.0115368 
-0.00175997 -0.00133016 -0.00470406 
0.0135117 0.0107177 0.0362855 
0.00732078 0.00414445 0.029012 
0.000680424 -0.00362605 0.0214619 
-0.0012548 0.000584219 3.71746e-05 
0.000495756 0.000595948 -3.81511e-05 
0.000660399 -0.000630606 0.0342086 
0.000964467 0.0059194 0.0775334 
-0.0284653 -0.00209661 0.0365331 
0.00161359 -0.0112923 0.128118 
-0.00156609 -0.0100603 0.0771221 
3.55109e-05 0.000189302 0.000393982 
-0.000237311 -0.000235875 0.00024944 
-0.000721916 -0.000408473 0.0302629 
0.000592132 0.000902017 0.0312846 
-9.55418e-06 -8.62655e-06 -0.000147322 
-0.000209601 -0.000137866 0.00060683 
-9.09862e-05 -7.87149e-05 -0.00114618 
7.50827e-05 -0.00117301 0.0384249 
0.00383349 -0.000489675 0.238671 
0.00358445 -0.0700063 0.153675 
0.0144191 -0.0410914 0.084773 
0.0622909 -0.00109194 -0.0728705 
0.000819573 0.0117734 0.0575579 
-0.00159568 0.0103226 0.0673076 
-0.00158701 0.0126625 0.0501139 
-0.000245015 -0.000121158 0.0682452 
-0.0264135 0.0668968 0 
0.0346281 -0.0620323 0 
0.0184973 -0.0643594 0 
0.0175564 -0.0699477 0.214114 
-0.0172904 0.00120954 0 
-0.013561 0.00423352 0 
0.0105451 -0.0153045 0 
0.0381679 -0.0206924 0.0225273 
-0.0599899 0.0268603 0 
-0.0617963 0.0479752 0 
0.056666 -0.0479534 0 
-0.0420962 -0.00893679 0.199404 
0.000920503 0.00382256 -0.0113883 
0.00157781 0.00132957 -0.000754913 
-0.0181916 -0.00459931 0.0332036 
-0.0100592 0.000818432 0.0268155 
0.000232115 0.00239602 0.0744229 
7.87264e-05 0.000407105 0.0666009 
0.00195846 0.00309504 0.0789845 
0.00115694 0.00480859 0.0674179 
0.000335827 0.000108096 0.000281082 
-0.000710379 6.22037e-05 -0.000666299 
0.000654961 0.000403393 0.0440987 
0.00148047 0.000258902 0.0326324 
0.00471829 0.000264191 -0.00258169 
0.00299934 -0.00267712 -0.00148233 
-0.0143283 0.00837453 0.0283146 
-0.00676512 0.00372971 0.0325061 
-0.0383494 -0.04277 0.0424634 
-0.0208467 -0.000517691 0.13845 
-0.00439 -0.00608036 0.100913 
-0.00301336 -0.0201308 0.14524 
-0.00489303 -0.00196092 0.258814 
-0.0311892 -0.0129395 0.153579 
0.0130334 -0.0213698 0.173589 
-0.0205453 -0.0051471 0.195876 
-0.00117447 -0.000526408 -0.000855687 
-0.00415603 0.00301899 0.0317209 
0.0023033 0.00163861 -0.00229984 
0.000173471 0.00411281 0.0311268 
-0.00165189 0.00352762 0.0798214 
-0.000375126 0.000602596 0.0704528 
0.000251966 0.00151997 0.0738457 
-0.00200674 0.00457632 0.0715226 
-0.0427418 0.0340153 0.0488965 
-0.0497075 0.0107812 0.0620487 
-0.0449639 0.0310161 0.167366 
0.0155846 -0.00432914 -0.00863327 
-0.00255687 -0.0182741 0.0605233 
0.00673627 -0.0108221 0.0625047 
0.00165851 -0.0078906 0.0718447 
0.00599356 -0.00797382 0.0694168 
0.0074167 0.0123705 0.0632041 
0.00630403 0.00729199 0.0717052 
0.00324368 0.00514779 0.072362 
0.0136736 0.00879802 0.0701573 
-0.00648347 0.00422233 0.0679786 
-0.00567963 0.0107664 0.0694174 
-0.00543231 0.0064644 0.0715482 
-0.0108161 0.00527651 0.0666664 
-0.000311855 0.000518021 0.000862123 
0.000889945 0.00114621 0.0389743 
0.00212919 -3.06196e-05 0.0393251 
-0.00134773 0.000582558 0.0306751 
-0.0153354 -0.000662883 0.0491202 
-0.025061 0.00700587 0.0700405 
-0.0140041 -0.00507402 0.0545266 
-0.0183827 -0.00592783 0.036573 
-0.000567567 -0.00629423 -0.0102077 
-0.00078265 0.0124445 0.0223593 
0.000243977 0.0025912 -0.005695 
-0.0115515 0.00876792 0.0268369 
-0.00313994 0.00333391 0.0784461 
-0.00580294 0.00102456 0.075666 
-0.00702218 0.00418616 0.0718743 
0.000658222 7.58336e-05 0.0849559 
-0.0128827 -0.00679931 0.0577676 
0.00452225 -0.0118668 0.149961 
0.00334589 -0.00984354 0.0722239 
-0.0195521 -0.0287651 0.0117805 
-0.00111602 0.000924653 0 
-8.96842e-05 -0.00094844 0 
-0.000444132 -0.00171768 0 
-0.00156999 0.00968496 0.00154218 
0.00750648 0.0033811 -0.0155988 
-0.00844723 -0.00145615 0.0314972 
0.0280306 0.00997372 0.0313658 
-0.00605856 -0.00198358 0.0217819 
-0.00164661 0.000622011 0.0606662 
-0.000186646 -0.00539598 0.0743777 
-0.00230264 -0.0118086 0.0563806 
-9.0539e-05 0.00402602 0.0670752 
-0.00436097 0.0125739 -0.0277852 
0.0321249 0.00555004 -0.00172266 
0.010856 0.00489621 0.0610621 
0.0138563 -0.00536263 0.0574901 
-0.0110919 -0.00277864 0.0461615 
-0.0113265 0.00884263 0.0695285 
-0.00474842 0.00725332 0.0311612 
-0.0191463 0.00450393 0.0263291 
-0.00699892 0.00548566 0.0588004 
-0.00504358 0.00465289 0.0366062 
0.0117317 -0.00650813 0.063573 
-0.015754 0.00985908 0.060695 
0.00241232 -0.00268104 0.0824164 
2.557e-05 1.45096e-05 0.0832833 
-0.000178471 0.000870677 0.0848995 
0.000895777 -0.000347492 0.081881 
0.00731056 0.00101841 0.0712922 
0.00927371 -0.00195127 0.0715248 
0.00907234 0.00236808 0.0701596 
0.00408222 0.00245286 0.0768509 
0.0551144 -0.0226834 0 
0.0520997 -0.0338531 0 
-0.0539545 0.0359624 0 
0.0552574 -0.0235729 0.185079 
0.00367613 -0.0129438 0.0475122 
0.00335609 -0.0103961 0.0263395 
0.00275709 -0.0111682 0.0310881 
-0.00153892 0.00403099 0.0338141 
0.00493384 -0.00460362 0.0732529 
0.00916282 -0.0118622 0.0667428 
0.00550857 -0.006224 0.0534166 
0.0108077 -0.00525127 0.0624746 
0.0036123 -0.00332259 0.0608088 
0.00490367 -0.00552822 0.0736337 
-0.00137071 -0.00395644 0.0718992 
0.0103665 -0.00920449 0.0608305 
-0.000378641 -0.000483053 -0.00524573 
0.000499798 0.000885785 -0.00050042 
0.00105265 0.00186613 -0.00106992 
-0.0109089 -0.00656933 0.0266779 
-0.00300499 0.0012991 -0.00130358 
0.00109966 -0.000396817 -0.00230406 
-0.000713377 0.000225222 0.00263431 
0.00273239 -0.00572806 0.0182604 
0.00298453 -0.00402713 -0.00090106 
-0.0126852 0.0177709 0.0263813 
0.00652813 -0.00106178 -0.00548245 
-0.00251519 0.00723052 0.0378669 
0.0330301 -0.024634 0.0544885 
0.00638753 -0.00690423 0.0341898 
-0.00288222 -0.00118166 0.0551204 
-0.00422396 0.00391534 0.020242 
-0.0102283 -0.0161592 0.0729327 
-0.00464431 -0.00390883 0.0640278 
-0.0113361 -0.00839457 0.0803752 
-0.0102273 -0.0048467 0.0683588 
-0.000969155 -0.0112605 0.246485 
-0.028698 0.00577762 0.126785 
0.0156631 -0.0154705 0.233887 
-0.112916 0.0366076 0.14772 
-0.0315006 0.025611 0.155474 
0.00371204 -0.00563517 0.237229 
0.00528113 -0.0175351 0.252689 
-0.107568 0.0380225 0.139798 
-0.000748328 -0.00327707 -0.00458533 
0.00799469 0.00837382 0.014317 
0.00230016 0.00573772 0.012184 
0.00187259 0.00199249 0.0331245 
-0.000673974 -0.000907128 0.0456551 
-0.000114575 0.000347154 0.0297711 
-3.43613e-05 -0.00326606 0.0529181 
-0.000783284 -0.00468107 0.065659 
0.000199959 -0.00189854 0.056946 
-0.00147719 -0.00199605 0.0456862 
0.000294381 -1.06827e-05 0.0365119 
-0.000958556 -0.00255946 0.065302 
-0.0035435 -0.000753594 -0.00579046 
0.0403113 0.0188797 0.0302042 
0.00305372 -0.00206358 -0.00078384 
0.0124674 -0.0180208 0.0235323 
-0.00059277 -0.00156511 0.0459149 
-0.00015288 -0.00221605 0.0566958 
-0.000335712 -0.000641572 0.0359955 
0.00027633 -0.00151704 0.029934 
-0.00411903 0.000324885 0.0011374 
0.000678045 -4.86048e-05 0.000188708 
-0.00588589 0.000410899 -0.00248814 
0.00569464 -0.0119459 0.0180484 
0.00353317 0.00475952 -0.0191127 
0.00562769 0.00732331 0.00206039 
-0.0184654 -0.0241699 0.0447048 
-0.00787555 -0.0188096 0.0357165 
-0.00911602 0.00398514 0.0476572 
0.0118598 -0.00641368 0.0651546 
-0.00349938 0.00349321 0.0356644 
-0.0156515 0.00963474 0.0593492 
-0.00562269 -9.89444e-05 0.0757611 
-0.00309857 0.00233173 0.0782044 
-0.00211532 -0.00120427 0.080096 
0.000789338 0.000672275 0.0874035 
-0.00316374 -0.00449053 0.0738532 
-0.00518391 -0.00246876 0.0721564 
-0.0036083 -0.00220131 0.0778904 
0.000751544 -0.00133704 0.0812587 
-0.00690201 -0.0101941 0.0514777 
-0.00854869 -0.00808649 0.0674336 
0.00134053 0.000579299 0.0661849 
0.00105648 -0.00053365 0.0415778 
0.0079786 0.00516802 0.0729267 
-0.0111751 -0.0249195 0.0383767 
0.00322281 0.0018243 0.0645468 
0.01583 4.70519e-05 0.0971146 
-0.00648692 0.00200843 0.0692808 
-0.00157257 -0.000337055 0.0507096 
-0.00580896 -1.62249e-06 0.0637982 
-0.00420449 0.000802114 0.0646634 
-0.0158858 0.0557951 0.0492318 
-0.00081957 -0.000313243 -0.00408229 
-0.00796603 0.0451103 0.0878967 
0.0178246 0.00592859 0.0434274 
0.00416269 0.00641075 0.229366 
0.0329402 0.0116041 0.193243 
0.0165743 0.0384969 0.119092 
0.0489172 0.00980862 0.0750184 
0.0216214 -0.0176545 0.0382605 
-0.00351386 0.00245529 -0.024924 
-0.01078 0.0225617 -0.0301302 
0.0761909 -0.0457323 0.147635 
-0.0573407 -0.00870133 0.121148 
-0.0491046 0.0309451 0.108436 
-0.0302061 0.0277678 -0.0337075 
-0.0214494 0.00846343 0.201138 
-0.000491218 0.000273438 0.0567866 
-0.00660295 0.00365614 0.0685736 
-0.00290689 0.00213491 0.0698828 
-0.00389346 0.00104325 0.06593 
-0.000687833 -0.00950388 0.264319 
0.0356597 0.0320846 0.14289 
-0.00790844 0.0264393 0.190315 
0.0759571 0.0643886 0.070251 
-0.00148863 0.0021665 0.0517339 
6.25541e-05 0.000892662 0.0316824 
-0.00134322 0.000937977 0.0386533 
-0.00121516 -0.00021603 0.031976 
0.0542286 -0.0371947 0.0561047 
-0.0129927 -0.0235098 0.0698598 
-0.00581579 0.0120994 -0.00519498 
0.0512298 -0.0365396 0.119333 
-0.000702039 -0.000509243 0.000762222 
0.00118333 0.0012885 0.0380136 
-5.50521e-06 2.55672e-05 -0.000172949 
0.00110092 0.000462662 0.0320187 
0.00351753 -0.0103957 0.0262999 
-0.00237935 0.00443663 -0.00363206 
0.0029867 -0.0113658 0.0322411 
-0.000717893 0.00392544 0.0342677 
0.00753132 -0.00745597 0.0670049 
0.00757041 -0.00909416 0.0497434 
-0.00104628 0.000412751 0.0699287 
0.000763641 -0.000628258 0.0602598 
-0.000280658 -3.43513e-05 -0.00377066 
-0.000820813 -0.000178015 -0.0010636 
0.00233058 0.000498882 0.0038636 
0.00412284 -0.00591911 0.017739 
-0.000954625 -0.000115601 0.0494622 
-0.00327709 8.50072e-05 0.049463 
-0.000532143 -0.000302882 0.0501098 
-0.00445207 -9.18017e-05 0.0651911 
0.00659568 0.00339358 0.0429254 
0.00965557 0.00510185 0.0666777 
0.0442866 -0.000417294 0.111913 
0.00739227 0.0317688 0.000520948 
7.56266e-05 0.000489219 -0.000638551 
-0.000324151 -0.000821383 0.0344115 
-8.8495e-06 -1.98878e-05 -0.000382538 
-0.000513613 -0.000141016 0.0280278 
0.00812801 0.00271318 0.0681158 
0.00273994 0.00151557 0.0735214 
0.00377129 0.00382988 0.0706326 
0.00499869 0.00157804 0.0786238 
0.00172856 -0.0034426 0.0503613 
0.00354789 0.0170598 0.118947 
0.00731006 -0.0298775 0.118517 
-0.0225483 -0.00959253 0.12132 
0.00103579 -0.00353598 0.0783154 
0.000760697 -0.0049358 0.0729592 
-0.000357362 -0.00177539 0.0808407 
0.00216525 -0.000627238 0.0810627 
0.0236005 -0.00485006 0.0575391 
0.013803 -0.00138534 0.0615107 
0.0340344 0.00355363 0.0896288 
0.0164414 -0.00152634 0.0796204 
-0.000274577 -0.000230042 -0.000519441 
0.000113855 0.000181408 -0.000156369 
0.000437323 0.000313919 0.0443336 
0.000680796 0.000344265 0.0343181 
-1.17226e-05 0.000100824 0.000865794 
-0.000562529 -0.00117056 0.0451317 
-0.000908647 -0.000666236 0.0299983 
-0.00026723 -0.000599519 0.0295975 
0.00733619 0.00919691 0.0566937 
0.0130804 0.0169679 0.0301596 
-0.0134603 -0.0126302 0.0417112 
-0.00120926 0.00323359 0.0235448 
-0.00329523 0.000995467 0.0552456 
8.92457e-05 0.00183113 0.0392695 
-0.000907101 -0.000129753 0.0461567 
-0.000651453 0.000260325 0.030742 
0.00744762 0.0144255 0.237884 
0.0125784 0.00444337 0.238428 
0.0267116 -0.018483 0.148886 
0.0226094 -0.0951632 0.153648 
-0.000595549 -0.000827094 -0.000802696 
0.000438924 0.00057476 -0.000197768 
-0.000667585 -0.00100584 -0.00268432 
0.00649311 0.00151102 0.0391241 
0.000140809 -2.56688e-05 0.000674924 
0.000314195 6.36779e-05 -0.000161421 
-0.000953592 -0.000401032 0.0329177 
-0.000671152 0.000248641 0.0285452 
-0.000156108 0.0033613 0.114257 
-0.00270439 -0.00941448 0.181934 
-0.0421666 0.0438369 0.0747849 
0.00102738 0.0145736 0.158436 
-0.00691307 0.0651709 0.0734592 
0.0125525 -0.011006 -0.0413173 
-0.0532365 0.0451368 0.10652 
-0.037879 0.0256224 0.181286 
0.00470541 -0.0178848 0.278604 
-0.0208202 -0.0526022 0.160034 
0.0489601 -0.0110171 0.138553 
0.0116091 0.0438779 0.175104 
-0.00955095 -0.00120189 0.0700411 
-0.00428962 -0.00260739 0.0633173 
-0.00498164 -0.00207182 0.0630125 
-0.00503778 0.00250838 0.0655416 
0.00514329 0.0160812 0.0843037 
-0.0121756 0.00316534 0.146737 
-0.0341965 -0.0198193 0.0240162 
-0.0153313 0.0102539 0.0538081 
-0.00582336 -4.42243e-05 0.0757544 
-0.00203791 -0.00122704 0.0799555 
-0.00468828 -0.00366338 0.0748257 
0.000854459 0.000657407 0.0876553 
-0.00204513 -0.000207535 0.0528795 
-0.000578808 0.000105535 0.0330916 
-0.000829161 0.000428321 0.0315896 
-0.00117304 -0.000227007 0.0289329 
0.000736222 -0.00101492 0.00110189 
0.000749923 -0.0011824 -0.00477487 
0.000369407 -0.000494125 0.00115297 
0.00667148 0.000490877 0.0318223 
-0.0066477 0.000348995 0.0760257 
-0.00597653 -0.00315968 0.0751204 
-0.00913603 -0.00308937 0.0682118 
-0.000452063 0.000175288 0.0791536 
0.00015945 -0.000114355 0.000638102 
-0.000989966 -4.23157e-05 0.029782 
0.000206862 0.000309931 -6.90486e-05 
-0.000362154 -0.00122584 0.0301875 
0.00902601 0.00359773 0.0690042 
0.00484379 0.00431558 0.0717642 
0.0056392 0.00483905 0.0747105 
0.00395685 0.00107312 0.0775287 
-0.00190873 -0.00541059 0.0548799 
-0.00380951 -0.005148 0.0746234 
-0.0118226 -0.00863308 0.0707476 
-0.00527806 -0.0107557 0.0632448 
0.000523554 -0.00164169 0.000436231 
-0.00238148 0.00095547 0.0385948 
0.0016091 0.000375456 3.65217e-05 
-0.00165182 0.00370271 0.0241099 
0.00621065 -0.00394471 0.0734316 
0.00869162 -0.000221314 0.0700753 
0.00370651 -0.000928789 0.0766176 
0.00730442 -0.00351314 0.0675043 
-0.000976636 -0.000688036 0.000169335 
0.0058387 0.0016336 0.0291931 
-0.000661371 -0.000736076 -0.00138836 
-0.000278278 0.0004452 0.0333545 
-0.00228743 -0.00704652 0.0686375 
-0.00363108 -0.00450432 0.0652223 
-0.0111183 -0.0106556 0.0714005 
-0.00863203 -0.00665271 0.0703238 
-0.000513689 -0.0130739 -0.00560204 
0.000267707 -0.000282638 -0.00170162 
0.0018858 -0.00428604 -0.0049967 
-0.0274546 0.016373 0.0253476 
-0.00333502 0.0171082 0.239841 
-0.0175792 -0.0511679 0.0963434 
-0.00793735 -0.0861057 0.155903 
-0.021746 0.00108855 -0.107205 
0.0159885 -0.0877805 0.104406 
-0.00659137 7.72988e-07 0.119692 
-0.0326797 0.00292967 0.126978 
0.0187439 -0.0301593 0.00922132 
-0.0489764 0.00534033 0 
-0.0421374 0.0239502 0 
0.0574556 -0.00742563 0 
-0.0591517 0.0397298 0.125652 
0.00728973 0.00605097 0.0523128 
0.00146884 0.00933874 0.00590375 
0.00778558 0.0178906 0.0576018 
0.0113904 0.00582914 0.021067 
-0.0246208 0.0356306 0.0783652 
-0.0270138 -0.000298494 0.0244393 
0.0250836 -0.0340305 0.0650286 
0.0207342 -0.00888426 0.0771054 
-9.15676e-05 0.000478799 0.00151513 
-0.00114175 -0.000726545 0.0416672 
0.000490563 -0.00035076 -0.00283638 
-0.00120829 -0.00259813 0.0269002 
-4.3235e-05 -4.03145e-06 0.000102065 
-0.000174192 -1.73709e-05 0.000687327 
-0.000179836 -1.39626e-05 -0.000262135 
0.000639559 0.000418006 0.0362825 
-0.000689229 -5.14922e-05 -0.0027066 
0.000652652 0.00977451 0.0206248 
-0.000878645 0.0042939 0.0380358 
0.000768039 0.00155205 0.0298389 
-0.00576039 0.000397633 -0.0147469 
0.0293202 0.0254086 0.0441073 
0.00187418 -0.00442704 -0.00937618 
-0.00266037 -0.00271097 0.0154737 
0.00147513 0.0212363 0.0925037 
-0.0163916 0.0155484 0.0316759 
0.00203951 0.0260019 0.0491531 
-0.00260979 0.0142908 0.0753513 
-0.00216616 5.03039e-05 0.0518899 
-0.000919126 -0.000339921 0.0440443 
-9.17617e-05 8.05854e-05 0.0329882 
-0.0014543 0.000222604 0.0293075 
-0.01658 0.0299978 0 
0.0201551 -0.0112084 0 
-0.0223407 -0.00839638 0 
-0.0125415 0.00538584 0.0478622 
-0.000598673 -0.000648033 -6.27117e-05 
0.00128049 0.00212495 0.0379118 
-0.000526622 -3.0614e-05 0.0411692 
0.00102681 0.000347069 0.0322836 
0.00337568 0.0089173 0.0263004 
-0.0161087 -0.00197358 0.0241216 
-0.0116602 0.00249852 0.0535327 
-0.0247482 -0.00171832 0.0230651 
0.058051 2.19635e-05 0.171553 
0.0414962 0.0351413 0.148113 
0.00471127 -0.000960132 0.240824 
0.0450237 0.0266058 -0.0849516 
-0.00101257 -0.00131224 0.0452003 
-0.000542284 -0.000507274 0.0456276 
-0.00189711 -0.00192733 0.0507671 
-0.000864994 -0.00108407 0.0300208 
-0.0015502 0.00113123 0.0513321 
-0.00504651 -0.00138267 0.0626632 
-0.00444292 -0.0012908 0.062908 
-0.00455034 8.80626e-05 0.0644873 
-0.000677883 -0.00265888 0.0501815 
-0.00137045 0.00172639 0.0425218 
-0.00405226 -0.0018925 0.0647505 
-0.00248163 -0.000798447 0.0551462 
-0.000274751 -0.00148438 -0.00254351 
-0.00864123 0.0147682 0.0285552 
0.000442148 0.0034844 0.0380711 
-0.00378651 0.00296802 0.0300703 
0.00722829 0.0151116 0 
0.0137106 0.0105829 0 
-0.00622174 -0.0271942 0 
-0.00390195 -0.0340848 0.032027 
-0.00275645 -0.0077563 -0.0374883 
0.0155756 0.0509252 0.104861 
0.0161839 0.0659447 0.00335577 
0.0134963 -0.0253936 0.0695659 
-0.00871503 -0.00669575 0.0663192 
-0.00322678 -0.00249025 0.0783612 
-0.00259318 -0.0050271 0.0743256 
-0.00555348 -0.00251573 0.0709755 
5.03164e-05 -0.000968919 0 
-0.00049271 0.000551902 0 
0.000345085 -0.000273159 0 
0.000903639 -0.000352748 -0.000277523 
0.00059336 0.00041919 -0.000398054 
-0.000406561 0.000686923 0 
-0.000711633 0.000415403 0 
-1.82675e-05 -0.000271139 0 
-0.000307041 0.00028774 -1.29594e-05 
0.00145361 -0.000802229 0.0417324 
-0.000196934 0.000131186 0.000439885 
0.000937111 -0.000612696 0.0358591 
0.000113565 -2.61182e-05 0.000144192 
-8.57963e-05 3.46537e-06 -0.000823892 
2.88622e-05 2.40157e-06 0.000433956 
-0.000651383 -0.000306729 0.0305167 
0.00126485 0.000889495 5.04166e-05 
0.000450432 0.000318716 0.0039913 
-0.000429836 -0.000302863 -0.00120553 
-0.00271332 -0.00616985 0.0188752 
0.0275517 -0.00495199 0.0343232 
0.0742511 -0.00376142 0.123798 
-0.014382 -0.0125798 -0.0221592 
0.0211164 0.00682001 -0.00224534 
0.00302382 0.00508782 0.071982 
0.00967293 0.00914865 0.0684186 
0.0127008 0.00325713 0.0717728 
0.0127024 0.00514311 0.0636775 
0.000143613 -0.000488581 0.000979667 
-0.000139814 0.000443507 -0.00153135 
-0.000210351 0.00080317 0.00013781 
0.00118012 0.00134572 0.0304864 
-0.000149499 -0.000399624 0.0818827 
-0.00274919 -0.00494973 0.0742922 
-0.00314056 -0.00180589 0.0775638 
-0.000323871 -0.00159491 0.0814236 
-0.0583144 -0.00200701 0.0703271 
-0.0485936 -0.0326615 0.0711267 
-0.0568304 0.00429634 0.171043 
-0.00959318 -0.00714158 -0.0400048 
0.00276331 -0.00337215 0.0728254 
-0.00349831 -0.0068317 0.0749395 
-0.00212029 -0.00222506 0.0603037 
-0.00568398 -0.00987756 0.059191 
-0.00198907 0.000867228 0.0753135 
-0.00233244 0.00306403 0.0697614 
-0.00700529 0.00303605 0.0674902 
-0.0043877 0.000232188 0.0664792 
3.16699e-05 -7.1416e-05 -0.000254983 
-6.89936e-05 0.000172161 -0.000103697 
-2.0106e-05 4.55976e-05 0.000151608 
-0.000295673 -0.000133974 0.0272031 
0.00413271 0.00439833 0.0709166 
-0.000159402 -0.000887801 0.0605171 
0.00133024 0.0022299 0.054551 
0.000273481 -0.00028749 0.0760441 
-0.00133321 -0.00111311 0.0371896 
0.000486827 0.0022906 0.0351389 
0.000136571 8.03948e-05 0.00111562 
0.000524858 -0.000950767 0.0297392 
-0.0217362 -0.0441842 0.0882911 
-0.050848 -0.00411387 0.0956776 
-0.0383006 -0.00843748 -0.0277759 
-0.0338823 -0.0339988 0.196663 
-0.00129132 0.00271644 0.000725476 
-0.0011028 0.00222442 0.00355936 
0.000406153 -0.000756975 -0.00322806 
0.00788253 -0.00668025 0.0165402 
-0.0305526 0.0243879 0.0758886 
-0.00754361 0.00234755 0.0610662 
0.0142629 0.00444712 0.0407277 
0.0101191 0.0219262 0.00835267 
0.00602292 0.00270411 0.102982 
0.0043514 0.00311878 0.0772755 
0.00656825 0.0109775 0.0580204 
-0.0048296 0.00522461 0.0716803 
-0.00416353 -0.0016942 0.052374 
0.00686736 -0.0124627 0.0736822 
0.00750357 0.00164746 0.0614714 
-0.00433572 -0.000754072 0.055669 
0.00124137 -0.00632874 0.248376 
-0.00379183 -0.0145651 0.240625 
0.0210475 0.0249305 0.127845 
0.0967025 0.0705756 0.123519 
0.00931453 0.00348385 0.0700478 
0.00817917 0.00676084 0.0662862 
0.0109431 0.00611838 0.0578318 
-0.00192403 -0.000241512 0.0705548 
0.000733357 -0.00502815 0.0719779 
-0.00239618 -0.0048812 0.0739611 
0.00110249 -0.00359472 0.0786847 
-0.000630013 -0.00127364 0.081196 
0.000302443 0.000586844 0.00197947 
-0.000674829 -0.00154571 -0.000903915 
0.000186264 0.000522977 -0.00118259 
0.00335454 0.00228042 0.0105547 
-0.0158402 -0.0042831 0.0501509 
-0.0235981 0.00145449 0.0822253 
-0.0361082 0.0059466 0.0775391 
-0.0217642 -0.00106715 0.0224974 
-0.000313301 0.000165265 0.0660742 
0.00441274 0.00467443 0.0710656 
0.00191175 0.0028175 0.0547559 
3.7144e-05 -0.000551064 0.0761425 
-0.00154222 -0.004019 0.0589135 
-0.0108272 -0.00936668 0.0673387 
-0.00376119 -0.00499282 0.0750652 
-0.00435544 -0.00182466 0.0703013 
-0.00426084 5.45614e-06 0 
-0.00176713 0.0194081 0 
0.00377733 -0.0158692 0 
0.000939227 0.0552671 0.0457395 
-0.0130383 0.00131434 0.0477499 
-0.013011 -0.00201871 0.0563855 
-0.0127295 -0.00126354 0.0335557 
0.00564187 0.00139147 0.037372 
-0.00780964 0.00370315 0.0660912 
-0.00742198 0.00426028 0.0657521 
-0.00408028 0.008568 0.0697331 
-0.0120195 0.00752349 0.0668404 
0.000220218 0.000498097 -0.000110905 
0.000891146 0.000965616 0.0475171 
-3.96909e-05 -0.00030837 0.000339505 
0.000160894 0.000200512 0.0287236 
0.00212485 0.000657966 0.0730928 
-0.000718151 -0.00094322 0.0610368 
0.00480016 0.00447537 0.070452 
-0.000292316 -0.000429591 0.0753305 
0.000315098 -6.5336e-05 -0.00162 
0.000500949 -0.00015192 0.0015762 
-0.00181906 0.0004936 -0.000707071 
-0.00161059 -0.001468 0.0416349 
-0.000448342 -0.000684363 -0.000237512 
-0.000698031 -0.000957731 0.00123276 
-0.00085789 -0.00146194 -0.00272128 
-0.00704314 0.00102418 0.0169406 
0.00209931 -0.00375436 0.0494991 
-0.00546293 -0.000492638 0.0760462 
-0.00628331 -0.00293672 0.0652415 
-0.00527508 0.000364787 0.0644134 
-0.0145305 -0.00156369 0.106434 
0.0156576 -0.00232735 0.12935 
0.0422837 -0.0265716 0.00896303 
0.0131755 -0.0270209 0.121989 
-0.000374038 0.00333495 -0.00304142 
0.000905123 0.00180119 -0.00355727 
0.0046433 0.00639048 -0.00369085 
0.0100607 -0.0265525 0.0201112 
-0.00106317 0.00113356 0 
0.00311488 -0.00211838 0 
-0.00266458 0.00191229 0 
0.000970805 0.0048128 0.0121181 
0.00300161 -0.00242742 0 
-0.00116034 -0.00462961 0 
0.00330513 -0.00214629 0 
-0.0171072 0.00491317 0.00681235 
0.00165953 -0.000922417 0.0487151 
0.000204707 -0.000437103 0.0669158 
0.0010426 -0.00132858 0.0734669 
0.00204955 -0.00389108 0.0641059 
0.0102784 -0.0032148 0.0634496 
0.00986222 0.000207489 0.0692899 
0.012335 -0.00224617 0.0526299 
0.000327209 -0.000302182 0.0678841 
1.67833e-05 -7.98731e-05 0.000269755 
7.64627e-06 -5.53047e-05 0.000506888 
1.40561e-06 3.42487e-05 -0.000808465 
0.000882503 0.000656759 0.0438148 
-0.00307323 0.00308572 0 
-0.00344942 -0.000636933 0 
0.0035407 0.000828025 0 
0.00487729 -0.00416245 0.00467424 
0.00525773 -0.00263947 0.0254539 
-0.00171608 0.000777408 -0.00163695 
0.000208423 -0.00043077 0.000482273 
-0.000803991 0.000358683 0.0312027 
-0.0597632 -0.0268197 0.0377442 
-0.00731378 0.0216791 0.104766 
0.00961055 0.00996496 0.129157 
-0.0328309 -0.00791615 0.147064 
0.00967274 -0.0081587 0.0676365 
0.011766 -0.00958024 0.060338 
0.000700766 -0.0278226 0.0552387 
0.00107101 -0.00331143 0.0737409 
-0.00195141 0.000642932 6.39402e-05 
-0.00032986 0.000232425 0.000579965 
0.00230097 0.000746992 0.0473517 
0.00577264 0.000792076 0.0266778 
0.0161972 0.0179362 0.0498491 
0.0117549 0.0056313 0.0479823 
0.000572008 -0.00247026 0.0634742 
-0.000778852 -0.00740139 0.0100438 
-0.00119509 -0.000423781 0.0357564 
0.00116875 0.00587187 0.074345 
0.008454 0.00265781 0.0541005 
0.00436861 0.000794606 0.0421862 
0.00767982 0.00706684 0.0279631 
0.00946399 0.00927506 0.0496387 
0.00761267 0.00853957 0.030922 
-0.00221781 -0.00309673 0.0339432 
-0.00045267 0.00560361 0.0761074 
-0.00321829 0.00326791 0.0787711 
-0.00414415 0.00658245 0.07193 
0.000214226 0.000509084 0.0850312 
-0.00332439 0.00570803 0.0399829 
-0.000962123 0.0114749 0.018301 
0.00497612 0.00517359 0.050308 
0.00347007 -0.000287533 0.028993 
-0.000221357 0.00269833 0.00376188 
-0.000102752 0.00125254 0.000794189 
-0.000117257 0.00142936 -0.00240806 
-0.00581097 -0.0107075 0.0211329 
-0.0031337 -0.00718232 0.0687046 
-0.00428546 -0.00609345 0.0642684 
7.94984e-05 -0.0147955 0.070793 
5.69567e-05 0.000236038 0.0575654 
0.00751501 -0.00676614 0.0282338 
-0.00187616 0.00252459 -0.00268824 
0.00783179 -0.00843456 0.0347369 
-0.00229461 0.00425962 0.0301961 
0.000412752 -0.000178312 0.0789159 
0.000777708 -2.83189e-06 0.0816844 
-0.000384613 0.000326776 0.0851968 
-0.00242769 0.000780754 0.0807868 
-0.00132537 0.0012741 0.0524107 
-0.000946793 0.00106028 0.039366 
-0.00232734 0.00177367 0.0556558 
-0.000357937 0.00062448 0.0323604 
-0.00991431 -0.000618889 0.0650456 
-0.00411332 0.00805042 0.0703388 
-0.00369701 0.012271 0.06938 
-0.00271561 0.00332414 0.0609214 
0.000313268 -0.000969381 0.0801248 
0.00418723 0.00439498 0.0733823 
0.000658133 0.005075 0.0763557 
0.0011064 0.00238535 0.0833026 
-0.00491041 0.0060085 0.0676048 
0.00143654 -0.0034239 0.0783302 
0.002251 -0.000861422 0.0364833 
-0.00700405 7.53447e-05 0.0311222 
0.00500453 0.000460723 -0.00306205 
-0.0114252 0.00130002 0.0295105 
-0.010058 0.000336805 0.0271203 
0.00367106 0.00115737 0.0366106 
-0.00145173 -0.00066646 0.0671119 
-0.00411541 -0.0029437 0.0667265 
-0.000906925 -0.000684635 0.044917 
-0.00398548 -0.00144973 0.0638808 
0.00836556 0.0071936 0.033579 
0.00812669 -0.0103224 0.0277962 
-0.00451416 -0.0190652 0.053104 
-0.00907807 -0.0359406 0.0251575 
0.000848465 -0.000437904 -0.00506041 
0.00165694 -0.001123 0.00178363 
0.00777196 0.00724107 0.0172552 
0.00132365 0.00195959 0.0296111 
-0.00038333 0.000646236 -0.00299919 
-0.000829978 0.00392344 0.0381207 
0.000346237 -5.48261e-05 0.000980483 
0.000440256 0.00056961 0.0302165 
0.00460015 0.00717792 -0.011131 
0.00931479 0.00683116 -0.0069433 
-0.00279317 -0.00128812 0.00412805 
-0.0154853 -0.0295512 0.0292483 
-0.000685799 -0.000660333 -0.000521017 
0.000884876 0.000850648 -0.00160287 
-0.0004491 -0.000432222 -7.35689e-06 
0.000425333 0.00420331 0.0310731 
0.0106725 0.0235069 0.0909034 
-0.00927181 -0.000480977 0.131748 
-0.00757392 -0.026241 0.0772297 
-0.00200768 0.0214563 0.0770729 
0.0025826 -0.00320901 0.080517 
0.00328084 -0.00602172 0.0747864 
-0.00051371 0.000175621 0.0842798 
0.00133651 -0.000148842 0.0821639 
-0.00717486 -0.0113184 0.110976 
0.0101021 -0.00199178 0.0585013 
0.00589678 0.0308164 0.105711 
0.0151903 0.0420534 0.017891 
-0.00104189 -0.00168933 0 
0.00353014 -0.00316614 0 
0.00124196 -0.00280204 0 
-0.0314285 -0.00019347 0.00156901 
-3.65625e-05 -0.00215582 0.0567382 
0.000130853 0.00104237 0.0371961 
0.000130888 0.000629443 0.0570214 
-0.000716821 -0.0034988 0.0647056 
0.0685023 -0.0117622 0 
0.0633054 -0.0332131 0 
-0.0521316 0.018907 0 
0.029762 0.0070923 0.265345 
0.0352894 -0.0451877 0.13062 
0.00259738 -0.0561583 0.118733 
0.0268175 -0.0514322 -0.0184012 
0.00824155 -0.0195548 0.231105 
0.000462444 -0.000635353 -0.00038012 
0.000493989 0.000577386 0.0428806 
-2.54265e-05 5.70936e-06 0.000207873 
0.000119539 0.00234853 0.0303341 
0.000402966 0.00594533 0.00934438 
0.0128437 0.00768062 0.0192241 
0.00836681 0.00863776 0.0497004 
-7.72897e-05 0.00274518 0.0380043 
-0.00740233 0.00600676 -0.00882886 
-0.000266402 -0.00416468 -0.00839732 
0.000521814 0.0103911 0.0246213 
-0.011636 0.00220637 0.026728 
0.000825884 -0.00325064 0.0784071 
0.000312881 -0.00165616 0.0808406 
0.000941081 -0.000392529 0.0831149 
0.00186374 -0.000930455 0.0809918 
0.0183631 -0.0325594 0 
0.0050631 -0.0372848 0 
-0.0207135 0.0243002 0 
0.0419384 -0.0660349 0.120376 
0.000278385 0.000641565 0.0798802 
9.8184e-06 -0.00178382 0.0809937 
0.000470229 -0.00461838 0.072347 
0.00214439 -0.000657018 0.0811018 
-0.00897289 0.00454013 0.0689188 
0.00287475 -0.00240225 0.0508895 
-0.007956 -2.72354e-05 0.0656565 
-0.00452046 -0.00134732 0.0639921 
0.00165386 0.00605722 0 
-0.000618023 0.012749 0 
0.00605011 -0.00568824 0 
-0.00208654 -0.00914674 0.00564557 
-0.00151828 -0.00273588 0.00158443 
-0.000156124 -0.0101836 -0.0121479 
-0.00470348 0.011123 0.01569 
-0.000696498 0.030678 0.0249006 
0.000655001 5.22447e-05 -0.00116866 
-0.000552831 0.00117435 0.0401379 
-7.12825e-05 -0.00050738 0.00168314 
-0.00170927 0.00414805 0.024927 
0.00236988 0.000963583 0.000104491 
-0.00279976 -0.000957346 -0.00169184 
-0.00112276 -0.000574641 -0.00267487 
-0.00502606 0.0102683 0.0174805 
0.00161526 0.00168767 -0.00126778 
-0.000633959 8.38197e-05 -0.00302593 
-0.00186192 0.00102899 -0.00203217 
0.00563775 -0.0177114 0.0206178 
0.00934249 -0.00699814 -0.0112989 
-0.00471168 0.0114681 0.0135578 
0.00631829 0.0192401 0.0096223 
-0.00988514 0.0315354 0.0530215 
-6.55844e-05 0.000223566 0.0851273 
0.000638697 0.000205751 0.0833751 
-0.0013326 0.0032379 0.0796666 
0.000440502 -0.000261062 0.0817423 
-0.0017714 0.0234496 0 
0.00906874 -2.61476e-05 0 
0.00377347 -0.0122075 0 
0.000629704 0.0515734 0.0416556 
0.023937 0.00119931 -0.0324014 
-0.01526 -0.0241169 0.0368355 
-0.0188149 -0.019882 -0.0028442 
-0.06919 -0.0668817 0.163466 
-0.000149659 -0.0171042 0.207451 
-0.0148892 -0.000861471 0.276043 
0.0305419 0.000746372 0.159182 
0.0697578 0.0928953 0.102974 
0.00996362 -0.00403223 0 
-0.00617973 -0.0033366 0 
0.00474003 0.00126265 0 
-0.00309963 0.00943335 -0.0011912 
-0.00174104 -0.00287175 0.0466829 
-0.000407137 -0.00175516 0.0700473 
0.000403106 0.000551712 0.0564248 
-0.00124937 -0.00357337 0.0642336 
0.00227024 0.0140971 0 
0.0127278 -0.0417174 0 
-0.0176136 0.0351921 0 
0.0183625 0.026445 0.0345766 
0.00441916 0.00503204 0.0759348 
0.00174638 0.0026793 0.0800706 
0.000504453 0.00623193 0.0763695 
-0.000242078 -0.000586255 0.0843831 
-0.0113829 0.00148651 0.0346136 
0.00530747 -0.00176828 -0.00262285 
-0.0102095 0.00177678 0.0265007 
0.00376261 -0.000881965 0.0328276 
0.01677 -0.0065071 0.0783964 
0.0125054 0.00668645 0.050589 
-0.00352505 0.0114855 0.0749379 
0.00332794 -0.000270876 0.0430986 
-0.0095299 -0.00180856 0.0367415 
0.0170198 0.0111014 0.036363 
0.00473829 0.00632465 0.0571139 
0.0123217 0.00475415 0.0630482 
-0.00131837 -0.00320178 0.0457743 
-0.000895269 -0.00112269 0.0709697 
0.000207693 -0.00027161 0.0468811 
0.000288948 0.000761101 0.0566094 
-0.00326662 -0.0105728 0 
0.0199244 0.0155236 0 
0.00375429 -0.0145667 0 
0.0366932 0.0428473 0.0582104 
-0.0137897 0.0122779 0.0099155 
0.00120531 -0.00276876 0.0789958 
-0.0203862 0.00787114 0.096673 
-0.0126867 0.0159205 0.035247 
0.0356279 0.029351 0.0532596 
0.0360899 0.0475453 0.063385 
0.0200116 0.0316481 0.154722 
-0.0169753 0.00590785 -0.0298645 
0.00928361 -0.00654515 0.0319364 
0.0117412 -0.00644104 0.0463555 
-0.00468775 0.00244687 0.0328906 
0.000409833 -0.000468465 0.060863 
0.00412553 -0.00136108 -0.00967874 
-0.00884743 -0.00268931 0.0228355 
0.00840716 0.00426877 -0.00540843 
-0.0144074 -0.0132004 0.0211007 
0.000480437 -0.000934387 -4.45784e-05 
-0.000718127 0.00549912 0.0288081 
0.000617851 -0.000664402 -0.0010229 
-0.000389896 0.000854204 0.0342903 
3.6284e-06 0.00167642 -0.00193811 
0.00243508 0.00326058 -0.00177853 
0.00186178 -0.00391687 -0.000859746 
-0.00585268 0.000421884 0.0120929 
0.000462057 -0.0198235 0.0448032 
-0.0109208 -0.0452645 0.122853 
-0.0104228 -0.0517133 0.120019 
-0.0196666 -0.0119758 0.0271716 
-0.00184938 0.00987367 0.265237 
0.00395265 -0.00745062 0.274303 
0.0924169 0.051397 0.0806287 
-0.0122733 -0.00168701 0.192065 
-0.00820994 0.00646434 0.0267491 
-0.00965966 0.00714377 0.0330505 
0.00319941 -0.00196999 -0.00328979 
0.00348775 -0.000881946 0.035517 
0.00528015 0.000699755 -0.0193785 
-0.0187303 -0.0145418 0.0459225 
0.00438527 0.00216394 -0.00708873 
-0.00776756 -0.0154894 0.0361666 
0.00179777 -0.00255931 -9.81289e-06 
-0.0033422 0.00593303 -0.00242194 
0.00361083 -0.00138788 -0.00240014 
-0.0177918 0.0012021 0.020862 
-0.00182636 0.00393208 0.0793494 
-0.00501786 0.0059007 0.0680421 
-0.00383703 0.00170738 0.0699401 
-0.00150486 0.00478006 0.0721511 
-0.018833 -0.00263807 0.0446691 
-0.0342371 0.00673109 0.0817628 
-0.0139232 0.00113601 0.0838328 
-0.0316489 -0.000908731 0.0200829 
1.70303e-05 -0.00457498 -0.0092269 
-0.00438807 0.0105312 0.0242995 
0.00173967 -0.00656737 -0.00800039 
-0.00965906 0.0117742 0.021208 
0.0187263 -0.000577525 0.0525824 
0.0133887 -0.00103306 0.0143681 
0.00338876 -0.00268656 0.0377029 
0.00828473 -0.00377275 0.0642244 
-1.65851e-05 0.000114586 0.000153015 
-0.000212111 -0.00110385 0.035757 
-0.000316244 0.000380211 0.000312883 
2.76273e-05 -0.000703546 0.0285777 
0.0103498 -0.00890895 0.0332064 
0.0106761 -0.00818824 0.0531279 
0.0118135 -0.00712383 0.0464349 
-0.00106694 0.00174805 0.0590904 
-0.00407248 -0.0101814 0.219088 
0.00212501 0.0259926 0.105535 
-0.0250951 0.0340688 0.199277 
0.054712 0.0744327 0.0729005 
0.00525076 0.00335105 0 
-0.0127467 -0.00246796 0 
0.00533116 0.0105567 0 
-0.00989884 -0.00172513 0.00551395 
-0.00365977 -0.0311358 0.183236 
-0.00253334 0.0136162 0.236578 
-0.030512 0.0249342 0.156757 
-0.0462185 -0.0774579 0.152322 
0.0048179 0.00610739 0.0653067 
0.0202649 -0.0239618 0.0674768 
0.00806784 -0.00732864 0.06843 
0.0108887 -0.00255022 0.0667631 
-0.00486548 -0.00497279 -0.00189173 
0.00174613 0.00326056 0.00500415 
0.00556066 0.00801161 0.0270402 
0.00816411 0.00827856 0.0303676 
0.00356563 -0.0691666 0.107338 
-0.046556 0.00472734 0.0500004 
0.0458913 -0.0217055 0.0712402 
0.00152547 -0.0634837 0.162788 
0.00119976 0.00234013 -0.000118353 
0.00372813 0.00217134 -0.00244451 
-0.00244871 -0.00624156 -0.00123178 
-0.0156906 -0.00284495 0.0164528 
-7.68483e-06 4.0391e-05 -0.000430277 
7.45054e-05 -9.33635e-05 -0.000263357 
0.000171945 -0.000284443 0.000417957 
-0.00034527 -9.85682e-05 0.0334419 
0.0040621 0.003863 0.0776367 
-0.00330602 0.00705378 0.0542947 
0.00335577 -0.00703456 0.0767827 
-0.00328776 0.002814 0.0632706 
0.00865155 0.00199784 0.0702794 
0.011058 0.00806081 0.0679496 
0.00601385 0.00649236 0.0733911 
0.00489703 0.00361882 0.0723484 
0.000204584 -0.000231023 -0.000111017 
-0.000211931 -0.000188146 0.000602647 
-0.000763666 0.000884704 0.0377873 
-0.000539827 0.000714342 0.0323172 
0.00640525 0.00237173 0.0737643 
0.00554128 -0.00476402 0.0721531 
0.00332708 -0.00583096 0.056807 
0.0109596 -0.00529264 0.0621957 
0.0130842 -0.00112979 0.0529601 
0.0107399 -0.0027286 0.0304584 
0.0114808 -0.00390444 0.0465792 
-0.00278358 -0.000597291 0.0363021 
-9.15733e-05 1.30977e-05 0.000365686 
0.00109708 -0.000109092 -0.00071715 
-0.000816132 8.31784e-05 0.000688527 
-0.000677977 -0.00080626 0.0367229 
0.0270155 -0.00866481 0.0828521 
0.00192858 -0.0199251 0.135772 
-0.013305 -0.0229153 0.0647855 
0.0216317 0.00119126 0.0848545 
0.0078629 0.0477849 0.0634286 
-0.0015519 -0.0103761 -0.0625479 
-0.0355567 0.0732649 0.104874 
0.0265059 0.0319187 0.139763 
0.000235935 0.000484107 0 
-0.000108725 -0.000590521 0 
-0.000108986 0.000830888 -8.82048e-05 
-0.000142765 -7.79185e-05 0 
-0.00337814 -0.00160137 0.0772312 
4.07432e-05 0.00027815 0.0852498 
-0.000309416 -0.00169417 0.081664 
-0.00222271 0.000645951 0.0798712 
0.00195484 -0.000948105 0 
-0.00125458 -0.00553865 0 
0.000216779 0.00457834 0 
-0.00235026 0.0085684 0.00901488 
-0.00302972 0.0168904 0 
0.00470388 -0.00739748 0 
-0.00456584 -0.00311606 0 
-0.00104188 0.0172199 0.021207 
-0.000712479 -0.000489321 -0.000493083 
0.000973038 0.000596411 0.000455084 
-0.000222335 -0.000231784 0.0346004 
0.000715883 0.00075455 0.0407501 
0.00205111 0.00289084 0.0787214 
0.0044605 0.00425597 0.0707894 
-0.000285213 0.000770513 0.066847 
-0.000259609 -0.00022211 0.0753642 
-0.00942627 -0.026847 0.146336 
0.0248052 -0.0220162 0.191095 
-0.00184662 0.00295723 0.254172 
0.064102 -0.00906576 0.173408 
-0.000974789 -0.000529539 0 
-0.000517982 0.000696523 0 
0.0011316 -0.000692796 0 
0.000205036 -0.000673723 0.000146569 
0.000930165 -7.14712e-05 0 
-0.000818694 0.000759358 0 
-1.7372e-05 0.00133067 -0.000119719 
8.69464e-05 -0.000984482 0 
0.000870687 -0.0379065 0.127601 
0.00545223 0.00723923 0.248309 
-0.0119545 0.0196988 0.171713 
-0.0539462 -0.0754838 0.138576 
0.00207213 0.00271476 0.0785515 
0.00461381 0.00462841 0.0701922 
0.0022256 0.000641613 0.0735783 
0.00476619 0.00155153 0.0788516 
-0.0104995 0.000914381 0.0660714 
-0.00945852 -0.00290111 0.0681972 
-0.0116991 -0.00166395 0.0561594 
0.000188306 0.000388383 0.0782571 
-0.00748214 -0.00910371 0.0311286 
-0.00673954 -0.00961258 0.0287185 
0.00341213 0.00394004 -0.00185011 
0.00164945 0.00174006 0.0400342 
-0.000220362 0.000158815 0.000126902 
-0.000209625 0.000152009 -1.38592e-05 
0.000238126 -0.000173484 0.000132026 
0.000851387 -0.000458814 0.0325025 
-0.0235634 0.0249072 0.10494 
-0.0245998 -0.0073126 0.141659 
0.013958 0.00168021 0.273522 
-0.0592092 0.0748897 0.0882046 
-0.00342389 0.00442954 0.0244526 
-0.00014035 0.00034929 -6.29376e-06 
0.000817489 -0.00163889 -0.000631667 
6.77761e-05 -0.000248019 0.0356253 
0.0422623 0.0336896 0.0655874 
0.0059706 0.0253736 0.15743 
0.0760934 0.0140125 0.0935557 
-0.0163425 0.00411014 -0.050593 
-1.59244e-05 -1.56149e-05 0.000321576 
0.000140264 0.00013602 1.88694e-05 
-0.000201958 -0.000195851 -1.8047e-05 
0.000453213 0.000673707 0.0428162 
0.000742749 -0.000459855 0.000888872 
-0.000312445 -7.00459e-05 0.0387664 
-0.000410588 0.000331213 -0.000228869 
-0.000162952 0.000869966 0.0306586 
0.00624651 -0.000429619 0.0317083 
-0.00113458 0.000516518 2.49231e-05 
-0.000572404 0.000416602 -0.00106859 
0.000358732 -0.00042477 0.0340597 
0.000141713 0.000286034 0.0663791 
0.00245733 0.00282219 0.0550692 
-0.000266282 -0.000703681 0.0607385 
-0.000698186 -0.000754157 0.0756468 
0.0181822 -0.00261744 0.0505955 
0.0188421 0.012966 0.0364948 
-0.00392849 0.00164399 0.0286693 
0.00894087 0.002184 0.0661114 
0.00857879 -0.00179158 0.121915 
0.0210313 0.0237641 0.0591871 
0.0100017 -0.0068397 0.0627646 
0.0425923 -0.0176811 0.126414 
-0.0313489 0.00101093 0 
-0.032144 0.0244197 0 
0.0327367 -0.0122042 0 
-0.0574632 0.020834 0.100765 
-0.008544 -0.00311771 0.0703498 
-0.0010008 -0.000844293 0.0609267 
0.00270394 0.00107006 0.0729232 
-0.000446614 -0.000995168 0.0756687 
0.00104538 0.0052194 0.0247905 
-0.000393935 -0.000699267 0.000115436 
-0.00075434 -0.00069284 -0.000897434 
6.84125e-05 -0.000276584 0.0360629 
-3.37217e-05 -7.15144e-05 -9.69005e-05 
0.000214997 0.000453967 0.000645572 
-5.46979e-05 -9.24276e-05 -0.000487491 
0.000673374 0.000325336 0.0372925 
0.00452881 -0.00773109 0.0719265 
0.00558722 -0.00623624 0.129556 
0.00342543 -0.0234857 0.000498597 
-0.00862422 -0.0151639 0.0409711 
-0.000669724 -0.000159638 0.055358 
-0.00127046 -0.00061782 0.0300105 
-0.000721281 0.00270922 0.0388875 
0.000509377 0.00158239 0.0305263 
-0.0233787 -0.0167836 0.140243 
-0.00248171 0.0122705 0.271336 
-0.0423947 0.00669547 0.112774 
-0.083091 0.00407377 0.113751 
0.00227693 0.00118326 0.0730114 
0.00440784 0.00385745 0.0708855 
1.4254e-05 -0.000328932 0.0600641 
0.00353239 0.00199016 0.0595558 
-4.60872e-05 4.64187e-05 0.000862232 
-2.89077e-05 2.94317e-05 4.16476e-06 
-3.59246e-05 3.69926e-05 -0.000702455 
0.0005478 0.000471159 0.0344013 
0.0090035 -0.000352433 0.0459165 
0.0186584 -0.00223357 0.00790891 
0.0285313 0.0207646 0.0935999 
0.00972739 0.00732518 0.03184 
-0.00435275 -0.00803778 0.0694863 
-0.0104404 -0.00826059 0.069582 
-0.00343032 -0.00450683 0.0732937 
-0.00426945 -0.0117497 0.0647663 
-0.000815027 -0.00226836 0.0451717 
-0.00136176 -0.000179515 0.0298722 
-0.000988341 -0.000762496 0.0552299 
0.0011131 0.00119594 0.0310232 
0.000146324 0.000287062 0.000323006 
0.000171621 0.00033695 -9.64218e-06 
-0.000167484 -0.000328656 -0.000248609 
-0.000306465 -0.000112409 0.0395117 
0.00590423 0.00655776 0.0744553 
0.0113576 0.00838466 0.068371 
0.0043939 0.00619113 0.0701984 
0.00495877 0.00357035 0.071672 
0.00177332 0.0036227 0.0780124 
0.00471578 0.00530564 0.0750496 
0.00482491 0.0077825 0.0700709 
0.00568573 0.00382978 0.0712692 
-2.67486e-06 1.81893e-07 -0.00017595 
0.00019712 5.62974e-05 -0.000725272 
6.09935e-05 1.30912e-05 0.000625851 
0.00183857 -0.000329162 0.043925 
0.00163871 0.0113335 0.167234 
-0.00113042 0.00281631 0.238149 
0.0151159 0.0316974 0.171529 
0.00279487 0.034962 0.220235 
-0.0019409 0.000204505 0.0517417 
-0.00547335 -0.000138781 0.0635096 
-0.00175602 0.000721589 0.049328 
-0.00480217 0.000362601 0.0662472 
-0.00186988 -0.00290133 0.0506451 
-0.000783237 0.00309907 0.0405978 
-0.0018494 -0.000703696 0.0549461 
-0.000451688 -0.000330343 0.0299233 
0.00719496 0.000657353 0.271148 
0.00771413 0.0027925 0.21031 
0.00850152 -0.020902 0.14863 
-0.102624 -0.0650732 0.125012 
0.000973967 0.00204972 -0.000815809 
0.000340917 -0.000622057 -2.50616e-05 
-0.00288577 -0.00480732 0.0272339 
-0.00124433 -0.000964343 0.0403572 
0.00229524 0.00424603 0.0757419 
0.000167656 -0.00200167 0.0729822 
0.00293784 0.00672864 0.0609001 
0.0039562 0.00505232 0.0737516 
-2.90936e-05 -0.000777325 -0.00105436 
0.000350254 0.000510405 -0.000440115 
-0.0011082 -0.000478672 0.0413362 
4.48764e-05 -0.000486276 0.0325844 
0.00257415 0.000931336 0.0734103 
0.000769127 0.000508597 0.0843279 
0.00424769 0.00157015 0.0793682 
-0.000588967 0.000294016 0.0770473 
-0.00127911 -0.00102001 -0.00137823 
-3.32558e-05 0.00183698 -0.00145906 
0.00303238 -0.00163581 -0.00296413 
-0.0185876 -0.00898956 0.0241489 
0.0148682 0.00920379 0.0563214 
0.0144192 -0.028754 0.0718223 
-0.00610675 -0.0113719 0.0765045 
0.00246404 -0.00784527 0.0737962 
0.00140771 -0.0174102 0 
-0.00813037 -0.014571 0 
0.0132553 0.0141251 0 
0.031987 0.0422911 0.0274884 
0.0143172 -0.00504201 0.123236 
0.0140511 -0.00907759 0.0670259 
-0.00688105 -0.0222276 0.0501762 
0.0364085 -0.0142081 0.123221 
-0.00420776 0.0257632 0.0855833 
-0.00223389 0.0162807 -0.00142135 
-0.00208999 0.00499275 0.0393719 
0.00512929 0.0117544 0.0397989 
0.00864039 0.00382422 0.072512 
0.000814914 0.000229726 0.0789319 
-0.00100485 -0.00039276 0.0677104 
0.00107083 -0.000595758 0.0665056 
-0.000186002 0.000271985 -0.00162255 
-2.05185e-05 5.04553e-05 0.000136411 
0.00058966 -0.00118558 0.000157381 
0.000946785 0.000633654 0.0302914 
-0.000705922 0.000230852 0.00197809 
-0.00423664 -0.00296805 -0.00533099 
-0.00191261 -0.00486499 -0.00306745 
0.00130414 0.00675137 0.00813929 
-4.50329e-05 9.41085e-05 0.000486067 
6.85477e-05 -0.000149738 -0.000461061 
-4.59085e-05 0.000104913 0.000109906 
0.000464021 0.000176304 0.0430951 
0.00682929 0.0242005 0.0834685 
-0.0113829 0.0175102 0.0392808 
-0.00875284 -0.00455249 0.0705777 
0.00110747 0.00379182 0.0327898 
0.0011684 -0.00371682 -0.00100041 
-0.000710591 0.0179564 0.0203759 
0.00457799 0.00724257 0.0239327 
0.00149615 0.0040787 0.0294827 
0.0396117 -0.0447737 0.0680348 
-0.00275196 -0.0608143 0.11365 
-0.0021965 -0.00212294 -0.0417357 
-0.00109617 -0.044954 0.208046 
0.0240943 0.0287534 0.11255 
-0.00514463 -0.00196571 0.279774 
0.0281366 -0.00603911 0.150119 
0.0950984 0.0482247 0.0855419 
-0.0108587 0.0025365 -0.00308095 
-0.00164427 -0.00608451 -0.000823456 
-0.0125243 -0.0106639 -0.021422 
0.0494964 0.0294487 0.0492221 
0.000135693 -0.00047539 0.00278222 
-9.5321e-05 0.000234663 -0.00392573 
0.000252524 -0.00117654 -0.000616654 
0.00657409 0.00958688 0.0216676 
-0.000194495 0.000204626 -0.000329815 
-0.00035313 -0.00033598 0.000740217 
0.000861469 0.000333147 0.032464 
0.000978097 -0.000375132 0.0364516 
0.0219972 0.0285608 -0.0374946 
-0.0109806 0.0363902 0.0229419 
-0.0663733 0.0294796 0.121021 
-0.0195131 -0.00699589 0.0621107 
0.000462563 -0.000197438 0.000480097 
-0.00123238 -0.000401726 0.0331075 
8.28439e-05 6.10525e-05 -1.16149e-05 
-0.00055227 0.000158173 0.0281257 
1.66302e-05 -0.000195803 -0.000310666 
-0.000380871 -1.84528e-05 0.0369062 
-3.91315e-06 0.00020253 0.000939075 
0.000442923 -0.00104756 0.0297656 
0.000863213 -0.000465449 0.000449697 
0.00113119 -0.00238118 -0.00167552 
-0.0115663 0.0056509 0.0252236 
-0.0046641 0.00165214 0.03018 
-0.0249462 0.00131357 0.131398 
0.0182424 0.00412841 0.130523 
-0.0072889 -0.00670879 0.0886405 
0.000463542 -0.0221525 0.149447 
0.00343302 0.00854402 0.0690672 
0.00439248 0.00504236 0.0758159 
0.000677126 0.00617584 0.0767304 
-0.000499289 -0.000508997 0.0840856 
-0.000568941 0.00020841 0.0478236 
-0.000196487 -0.000257253 0.0486074 
-0.00384436 0.000250976 0.0520806 
-0.000358618 0.000134283 0.0288281 
0.00750331 0.00409098 0.0409177 
-0.000954813 -0.00137861 0.0563348 
-0.0248882 0.0262815 0.0775097 
-0.00825175 -0.0100851 0.0786945 
-0.000869102 0.000750397 0.0564884 
-0.00250581 0.0027111 0.0697904 
-0.00278076 0.00102133 0.0760069 
-0.00397362 0.000331819 0.0661737 
0.0048708 0.00153092 0.0556766 
-0.00103748 0.00976286 0.0784873 
-0.00194354 0.0107143 0.0375936 
0.0138231 0.0282794 0.0882312 
-0.000570342 0.000721223 0.000759807 
0.00222115 -0.000316337 0.0399209 
0.000422652 -0.000651201 -0.000913137 
-0.000326637 4.44862e-05 0.0303856 
2.84523e-05 2.64271e-05 0.000165506 
0.000257473 0.000250342 0.000112802 
2.23777e-06 4.07087e-06 -0.000233453 
0.000390506 -7.35785e-07 0.0424914 
-0.012398 -0.0119065 -0.0201623 
-0.019626 0.0788756 0.120182 
-0.00967247 0.0289716 0.0328686 
0.00608454 -0.00583751 -0.0245769 
-0.00122106 -0.00455978 0.24817 
0.00149759 -0.0210189 0.218333 
0.00484629 0.0226205 0.134824 
0.0361085 0.0816735 0.112657 
0.00146897 0.002861 0 
-0.000841242 0.00139528 0 
-0.00177798 0.00185603 -0.00283948 
0.000423594 -0.000934455 0 
-0.00770091 -0.00460475 0 
-0.0156417 -0.00834306 0 
-0.000979625 0.0143667 0 
0.0140741 0.0366803 0.0157093 
0.00137353 -0.000769231 0.00107629 
0.000403224 -0.000233544 -8.57734e-05 
0.000664396 -0.00047813 -0.00499594 
-0.000904212 -0.00656377 0.0189379 
0.0102001 0.0069451 0.0434153 
0.00965275 0.00934939 0.0497657 
0.00816581 0.00710862 0.0272734 
-0.00298163 -0.00312908 0.0352536 
-0.00676839 -0.0125676 0.0511504 
-0.0106867 -0.00956927 0.0468157 
-0.0097978 -0.0110197 0.0651085 
0.00257844 0.00441064 0.0447046 
0.00156177 0.0053141 0.0269885 
0.0116668 -0.0232596 0.0567332 
-0.00645411 0.0115636 0.0563114 
0.0088255 -0.00741919 0.0679792 
0.000177488 4.0267e-05 -0.000360053 
-4.29635e-05 -1.54887e-06 0.000747431 
7.62334e-06 1.7297e-06 -1.54498e-05 
0.000284014 -0.000631347 0.0337354 
0.000493855 0.000288244 0.000783616 
-0.000238111 -0.000543282 -0.000509988 
0.000784822 0.000899542 0.0376545 
0.000344721 0.000600717 0.0397454 
-0.00202024 0.00358455 0.0792554 
-0.00333912 0.00195488 0.0700483 
-0.000487824 0.000778974 0.0703066 
-0.0016376 0.00472981 0.0721255 
-0.000771173 -0.000206359 -1.23041e-05 
0.00117796 0.000321373 -0.00151275 
-0.000695714 -0.00019097 0.00118277 
0.00354156 -0.000984255 0.0429064 
-0.000691586 -0.0011131 0.0684816 
-0.00224866 -0.000402424 0.0437507 
-0.00396485 -0.00283173 0.0665022 
-0.00110814 -0.00135276 0.0582941 
-0.00594112 -0.00736924 0.0686525 
0.00193378 -0.000383392 0.0325115 
-0.0021435 3.72597e-05 0.060721 
-0.00422114 -0.00551797 0.0289701 
0.00334651 0.0131322 0.0394059 
0.00163201 0.0102732 0.0260842 
-0.00107864 -0.00502144 -0.00271156 
-0.000345593 -0.00311268 0.035673 
-0.002242 -0.00935974 0.0693527 
0.000376611 -0.0139407 0.074368 
-0.000398144 -0.00761972 0.0678762 
-0.00108802 -0.00641323 0.0639025 
0.00143176 -0.00506054 0.244111 
-0.0307638 0.0251408 0.258813 
-0.0122915 0.014067 0.22084 
0.0630078 -0.0982262 0.170374 
0.0321056 -0.0437717 0.0815606 
0.0129419 -0.0270647 0.187485 
0.0105226 -0.0561595 0.072038 
0.00626185 -0.0127368 -0.0341704 
0.000688208 0.00759383 0.0768514 
-0.000892713 0.0104624 0.0669979 
0.00301835 0.00950569 0.0693715 
-0.000295322 -0.0012316 0.0745198 
0.00185874 0.00292756 0.07855 
0.00416874 0.00190019 0.0789681 
0.00251552 0.000444453 0.0735354 
-0.000469094 -0.000189989 0.0761604 
-5.81014e-05 4.71107e-05 -3.53474e-05 
-0.000958012 0.000152699 0.0335621 
0.000615013 0.000149247 0.00040799 
-0.00078195 -0.000197423 0.0285436 
0.000221705 0.000193741 -0.00015811 
0.000609902 0.000456775 -0.00100736 
-0.00171153 -0.00207647 0.0399933 
0.000397776 -0.00101421 0.0331832 
0.00018106 -5.58084e-05 0.000150171 
-0.000930227 0.000896168 0.0318263 
-0.000411557 0.000994063 0.0389194 
0.000303776 0.000860272 0.0307568 
0.0020955 -0.000946995 0.00215629 
0.00256904 -0.00399955 0.00057452 
-0.0053278 -0.00375942 -0.00653231 
0.010143 0.001483 0.00914401 
-0.00105919 -0.00948459 0.0223341 
-0.000472202 -0.0110834 0.0317598 
0.00122161 0.00583787 -0.00239188 
0.00108397 0.00260652 0.0346928 
-0.0213883 0.0222499 0.106251 
0.0137836 -0.00954988 0.245953 
0.00535515 -0.00153657 0.235782 
-0.0758104 0.0827791 0.0698512 
-0.00900451 -0.00873365 0.0326532 
-0.00391291 0.0170548 0.0373065 
0.0341202 0.0141404 0.0790686 
0.0255732 0.0354263 0.107137 
-0.0436914 0.00146227 -0.0327589 
-0.023656 -0.0472616 0.0308194 
0.0139179 -0.0434609 0.148448 
0.012451 -0.0245122 0.0388662 
0.00767959 0.0039575 0.0702443 
0.00408989 0.00318071 0.0701406 
0.00333485 0.000170863 0.072027 
0.00258982 0.00334126 0.0609094 
0.00211505 -0.00423972 -0.00655323 
0.00511167 -0.00721821 -0.00750515 
-0.00109534 0.0141984 0.022133 
0.00100416 0.0156385 0.0150666 
0.0055071 -0.00358447 0.0745802 
0.0306349 0.00266407 0.0858209 
0.0135637 -0.000393629 0.0594717 
0.0161702 -0.00360962 0.0826965 
-0.0039811 -0.00380009 0.071781 
0.0178775 -0.0072159 0.0809773 
-0.0046406 0.0130567 0.0762869 
0.0038251 -0.00114707 0.0416869 
0.0177273 -0.00398506 0 
-0.0083492 -0.0308633 0 
0.0130255 0.0377846 0 
-0.0362077 -0.0111104 0.0365192 
0.0107117 0.00249492 0.0540551 
-0.0050698 -0.00237282 0.0749933 
-0.0190354 -0.0060667 0.0497967 
0.0159981 0.00725418 0.0573242 
0.0231303 -0.0149363 0.0706741 
-0.0113329 -0.0179697 0.0494218 
0.0165647 -0.00837179 0.0584573 
-0.00270642 -0.0329489 0.047047 
0.027727 0.0328066 -0.00597526 
-0.03338 0.00602879 0.0608734 
-0.0334155 0.0415627 0.0823283 
-0.0169406 0.0374803 0.10912 
-0.0114779 -0.00375303 0.0342618 
-0.00940943 -0.0043089 0.0273361 
0.00407851 0.00050783 -0.00216849 
0.00283491 -0.000379936 0.0342409 
-0.019936 0.0169774 0.239647 
0.00815288 -0.022655 0.192794 
0.0188694 0.00607794 0.173215 
0.0278824 0.00664309 0.198211 
0.000116506 -0.00308469 -0.000536135 
0.00171005 0.00940121 0.0249739 
-0.00339143 -0.00232463 -0.000231 
0.00380747 0.00429361 0.0276347 
0.00277954 0.000127319 0 
0.0197925 -0.0118704 0 
-0.0216497 0.000576517 0 
0.0058537 0.0237317 0.0286755 
-0.00291471 -0.0147942 0.0675467 
-0.0105099 -0.00361689 0.0238167 
-0.00107185 0.00291118 0.0410145 
-0.00325395 -0.0047538 0.0266507 
0.0080561 0.0410815 0.0502387 
-0.00543453 0.0115865 0.157438 
0.0166266 0.0138988 0.0694272 
-0.00683526 0.0219269 0.0786395 
6.45156e-05 1.84419e-05 -0.000356938 
-5.21222e-06 -4.02675e-06 0.000597719 
-3.45843e-05 -8.24741e-06 -0.000176111 
-0.000494839 -0.000422053 0.0365223 
-7.25212e-05 7.10448e-05 -0.000130502 
2.44103e-06 -2.81915e-06 -2.70004e-05 
2.03502e-05 -1.91423e-05 9.48555e-05 
0.00046759 0.000157632 0.0402978 
0.00723269 0.000261648 0.216467 
0.00389061 0.00401691 0.244455 
0.0204717 -0.00812937 0.124284 
0.0776382 -0.0563075 0.140477 
-0.00211987 0.00859895 0.0301517 
0.000774778 -0.00145016 0.0482929 
-0.00903074 -0.000211283 0.064832 
-0.0030408 0.00370213 0.028931 
0.00247625 0.000967937 0.0521225 
0.00566513 -0.0040092 0.0312848 
0.0234053 -0.0248501 0.0560861 
0.0111753 -0.0157856 0.0669636 
-0.00158741 -0.00248844 0.0454431 
0.000266344 0.000301405 0.0570178 
0.000184021 0.000668087 0.0370053 
-0.000792138 -0.0031912 0.0648042 
-3.98621e-05 0.00206848 0 
0.00311239 -0.00279714 0 
0.00172831 -0.00244903 0 
-0.0110797 0.0125087 0.00327921 
0.000266211 -0.00203076 0.0573025 
9.58416e-05 0.000827332 0.0573956 
-0.000129078 -0.000734459 0.0719054 
-0.000697358 -0.00390903 0.0638762 
-0.00477652 0.00960037 0 
-0.007399 -0.0152444 0 
-0.00167393 0.0125657 0 
-0.0218979 -0.024935 0.0181686 
0.000322531 -0.00747954 0.0701158 
0.0017384 0.0020764 0.0627115 
0.00133416 0.00289135 0.0768472 
-0.00096495 0.00627294 0.0717521 
-0.00166579 -0.00738086 0.0699121 
0.00209174 -0.0138778 0.0718342 
-0.00112343 0.000107837 0.0541693 
-0.00247378 -0.000620534 0.0561024 
-0.00262382 0.0104099 0.106065 
-0.0134336 -0.00149527 0.12925 
-0.0014448 -0.0035631 0.0649722 
-0.018286 0.0404691 0.015269 
1.49716e-05 -9.09236e-05 -0.000640489 
-2.75433e-05 0.000140565 0.000643656 
3.81598e-05 -0.000145318 9.77167e-05 
-0.000636274 -0.000140118 0.0326065 
0.000345995 -0.000490234 0.00254506 
-0.000365026 0.000518055 -0.00146256 
0.000359651 -0.000510913 0.000744699 
-0.00547948 0.00115415 0.0235894 
0.00159363 0.00206423 0.0540109 
0.00044296 -0.000369074 0.0599183 
0.00315861 0.00387733 0.0721103 
0.00333657 0.00218272 0.0581875 
0.0126971 -0.0137017 0 
-0.019667 -0.00491715 0 
0.017434 -0.00375708 0 
-0.0522942 0.0141835 0.0294611 
0.0054152 0.030057 0.0594324 
0.00297392 0.0175667 0.0759208 
-0.00288435 0.0160892 0.0793314 
-0.00513083 0.0107288 0.0670644 
-0.00804862 0.0074667 0.0540901 
0.0107273 -0.00910991 0.0707771 
0.00987449 -0.0120145 0.0538782 
-0.00724167 0.0081944 0.0608312 
0.00036641 -0.000381471 0.00119883 
-0.000442092 0.000460655 -0.00207293 
0.000413559 -0.000430825 0.00177945 
-0.00675714 0.000116973 0.0257167 
0.0279401 0.000711171 0.255649 
0.0407069 0.0220669 0.134641 
0.0413744 0.030387 0.126007 
-0.00287823 -0.0756925 0.112783 
-0.000491798 -0.000135521 -0.000839866 
-0.000329186 -8.50416e-05 0.000551572 
0.000283152 7.84124e-05 0.000559426 
-0.00150161 0.000540935 0.02822 
-0.0193739 -0.00852857 0 
0.0254811 0.0212371 0 
-0.00647307 -0.0202982 0 
-0.0204615 -0.0504748 0.0523843 
-0.00340712 -0.00180815 0.0774638 
-0.00176567 0.000993175 0.0758819 
0.000543787 0.000299484 0.0792696 
-0.00260401 0.000193305 0.0799819 
-0.00101118 -0.00171705 0 
0.0111671 -0.00708361 0 
-0.00636141 0.00262613 0 
-0.0240034 -0.00329015 0.00162397 
-0.000502934 -0.0115554 0.0703988 
0.0147927 0.00661362 0.120582 
0.00101972 0.0149143 0.0966628 
0.013244 0.0221624 0.0727818 
1.79008e-06 -0.0490344 0.135061 
0.0022277 -0.0125591 0.236075 
-0.0418735 -0.0575458 -0.0256472 
0.00446579 -0.0113946 0.215138 
-0.0010256 0.000518321 -0.00258522 
-0.0060062 -0.00186547 -0.00216273 
-0.00415576 -0.00219581 -0.00230726 
0.0209487 -0.00614227 0.017284 
0.0095034 0.00946947 0.0320937 
0.00985929 0.00647709 0.0270704 
-0.00593386 -0.00422075 -0.00140319 
0.00188014 0.00275755 0.00485623 
-0.00377636 0.00238584 -0.00529363 
-0.00180988 -0.000699658 -0.00249157 
0.00378595 -0.00477003 0.00218642 
0.0128389 -0.00477788 0.0165944 
-0.00185915 0.000572049 0.0757904 
-0.00122992 0.00292171 0.0789637 
0.000585038 -0.000152162 0.0824565 
-0.00231649 0.000689065 0.0805279 
-0.0235046 -0.0275585 0.310357 
0.00561681 -0.0132678 0.175363 
0.00636543 0.00888731 0.256457 
0.0577706 0.098828 0.0624658 
-0.00277801 0.0132895 0.0503225 
-0.00505053 0.0113451 0.0602196 
-0.00526826 0.0122902 0.0454465 
0.00122011 -0.00135679 0.0678022 
-0.000139769 0.000266552 0.0850287 
0.000563681 -0.000152522 0.0821027 
-0.0012395 0.0028147 0.0793864 
-0.0022584 0.000873978 0.0804897 
0.00882188 0.0025594 0.0732995 
0.0115256 -0.00154151 0.0703344 
-0.00754775 0.00570121 0.0552613 
0.01505 -0.000153676 0.0838835 
-0.0001954 0.000431883 0.000859245 
-0.000245759 0.000530018 -0.000141284 
0.000122746 -0.000271865 -0.000592289 
-0.000454529 -0.000708771 0.0405527 
0.0235322 -0.0257213 0.0818554 
0.0114747 -0.0132307 0.0696705 
0.00454076 -0.0201938 0.0302983 
0.00719165 -0.0183452 0.0196721 
-0.0124362 0.000562582 0.237987 
0.0101732 -0.0369715 0.107714 
0.0166762 0.0151008 0.137061 
0.0645083 -0.0577176 0.108929 
0.00916199 -0.00690234 0.0327124 
0.011726 -0.00620418 0.0464345 
0.00969181 -0.00446313 0.0262843 
-0.00457765 0.00184318 0.0322475 
-0.000745935 -0.000729868 -0.00189008 
-0.000974818 -0.000939931 0.000317604 
0.000782763 0.000754239 -0.000357434 
0.00478522 0.00146017 0.0421666 
-0.0104254 0.00152648 0.0661675 
-0.0118348 -0.000924923 0.0562425 
-0.0129596 0.00165427 0.0484915 
0.00122984 1.0272e-05 0.0669756 
0.00190461 -0.0612014 0 
-0.0206889 0.0430079 0 
-0.0026028 0.0468372 0 
-0.0334797 0.0653239 0.12715 
-0.00188146 0.00159555 -0.00829329 
0.00118525 -0.00719396 0.023518 
-0.000629346 -0.000190527 0.00209236 
0.00134746 -0.0112297 0.0225671 
0.00549398 0.00523525 0.0492536 
-0.0058103 -0.00158151 0.0756555 
-0.00474654 0.00498871 0.0397438 
-0.00169155 -0.00204885 0.0559597 
-0.0122011 -0.0104158 0.131603 
0.014941 0.000596659 0.227149 
-0.0304766 0.0096257 0.182235 
-0.0129172 -0.0315477 0.208055 
-0.0151588 0.0117906 0.141868 
0.00895509 0.00109889 0.221019 
0.00562502 0.000521394 0.238292 
-0.0906706 -0.00133651 0.150766 
-0.000910324 0.000814405 -0.00606124 
0.0062234 0.00631645 0.0253898 
-0.000285897 -0.00148706 0.00187467 
0.00365408 0.00130738 0.0133227 
-0.00131067 -0.000982677 0.0696788 
-0.000716175 -0.000391348 0.0678919 
-0.00413686 -0.00367384 0.0655201 
-0.00108806 -0.00101595 0.0582815 
-0.0312124 0.0253444 0 
0.0172967 -0.0214178 0 
0.00237159 -0.0168639 0 
0.0252458 0.0150836 0.0315722 
0.000363082 0.000555647 -4.37968e-05 
0.000204139 0.00041229 0.0319184 
0.000413055 0.000820694 0.0467264 
-0.000382035 -5.8593e-05 0.0289483 
-0.00409975 -0.00811447 0.0693164 
-0.00532424 -0.00490517 0.075196 
-0.00173186 -0.00591482 0.0767486 
-0.00074083 -0.000765464 0.0774676 
-0.000202839 -0.000278296 -3.98132e-05 
0.000166172 0.000228359 -0.000552498 
0.000211347 0.000289628 0.000578067 
0.000848677 0.000968691 0.039364 
-0.0615089 -0.0139273 0.0978357 
-0.0527501 0.00841525 0.152121 
-0.0111949 0.0428665 0.0445235 
-0.0126625 -0.040737 0.0262548 
-0.0046674 -0.0013295 0.0256863 
0.00175677 0.000737383 -0.000683335 
-0.000120227 -0.000620454 -0.000419368 
-0.000132816 0.000838219 0.0320256 
-0.00627201 0.00510383 0.0593788 
0.00130506 -0.00494572 0.03831 
-0.000876417 0.0185742 0.0421073 
0.00133026 0.00784106 0.0609754 
-0.000770366 -0.0010631 0.0015642 
1.7212e-05 2.6817e-05 -0.00049468 
0.000661183 0.00090265 0.000123826 
0.00404522 0.00198716 0.0389755 
0.00188456 0.00285584 0.0786642 
0.00233097 0.000561982 0.0735145 
0.00477061 0.00425156 0.0698032 
-0.000285515 -0.000189957 0.0759457 
0.000469858 0.00500525 0.025968 
0.00114324 -0.000834559 -0.0026779 
-0.00142901 0.00105208 0.00361457 
0.00159174 -0.00104731 -0.000289264 
-0.00261034 0.00121117 -0.00143923 
-0.000123325 -0.00010852 -0.00010048 
0.000299534 -0.00106538 -0.000655472 
0.00138022 -0.0148074 0.0171001 
5.98928e-05 7.20618e-05 -0.00099666 
-0.000380334 0.000217288 0.0291443 
0.000101955 -6.74418e-05 -0.00019513 
-0.000394422 -3.6748e-05 0.0299428 
-0.0116606 -0.00253282 0.000421673 
-0.0175021 -0.051075 0.101621 
0.00758869 -0.00701629 0.00361716 
0.00897853 -0.019678 0.0407181 
0.00195108 0.00133153 -0.00080827 
-0.000415315 -0.000114186 0.000360726 
-0.00435648 -0.0039658 0.0253775 
-0.000669694 -1.27357e-05 0.0340958 
0.000527702 0.000166543 -0.00196883 
0.000403815 0.00015898 -0.000192616 
-0.000303452 0.00108615 0.000870296 
-0.000774795 -0.000306342 0.000315058 
0.000350479 0.000141278 2.98617e-05 
-0.000732609 -0.000812362 0.000295542 
-0.000381011 -0.000143682 -0.000445088 
-0.000293365 -0.000108692 -0.000423471 
0.00472536 0.00373568 -0.0173978 
-0.0139019 0.00668169 0.0207323 
0.00118227 -0.00254478 -0.00253344 
-0.00552906 -0.0203774 0.0379872 
0.00207316 -0.0158625 0.0676711 
0.0147073 -0.00714813 0.0670827 
0.0124615 -0.0124961 0.00319176 
0.0325661 -0.0107853 0.11056 
-0.000892007 -7.31756e-05 -0.00210494 
-0.000474771 -3.89477e-05 -0.00236697 
-0.000574812 -4.71546e-05 0.00125167 
0.00198883 0.00439815 0.0377428 
-0.00082121 -0.00613326 0.0767256 
0.00214626 -0.00322861 0.0797603 
0.00282819 -0.00723986 0.0734558 
0.000560701 0.000972722 0.0864842 
-0.00335968 0.00777084 -0.00631772 
0.0146998 -0.014028 0.0305908 
-0.000851869 0.00462082 -0.00190649 
0.00606093 -0.00473426 0.0280782 
0.0231578 -0.00913846 0.175629 
-0.00358119 0.0070296 0.238352 
-0.001968 -0.0218719 0.158377 
0.011563 -0.0503624 0.195839 
-0.00591366 0.00680045 0.0119758 
-0.0186257 0.0322959 0.0721511 
0.00308816 0.00923764 0.0489703 
0.000677887 0.00333127 0.0796009 
-0.000140432 -9.64214e-05 -5.57862e-05 
0.000101206 6.9343e-05 0.00034815 
-6.84948e-05 -4.72821e-05 0.000508558 
-9.9735e-05 -0.000176183 0.0384329 
0.00238855 0.00224884 0.00481052 
-0.00600083 -0.00301632 -0.00185514 
0.0114838 0.00466039 0.0270709 
0.009782 0.00693672 0.0288631 
0.0176739 -0.00879677 0.0566562 
0.00788359 -0.00425398 0.0588991 
0.0214084 0.00388639 0.00583047 
0.00848066 -0.00918798 0.0661744 
0.00459162 0.00172313 0 
0.0032378 -0.00356109 0 
0.00340976 0.0017638 0 
-0.0313247 3.09688e-05 0.00499864 
0.00400203 0.000730668 -0.00483393 
0.00838599 0.00149517 -0.00685536 
-0.00184756 0.00110613 0.00297946 
-0.0113587 -0.0167972 0.0202168 
9.42696e-05 -0.000128613 -0.00116329 
1.51066e-05 -2.03222e-05 -0.00064073 
7.28867e-05 -0.000100508 0.000786038 
0.0014132 -0.000944693 0.0397081 
-0.0288668 -0.0421592 0 
-0.00204664 0.0542211 0 
-0.0108492 -0.0664929 0 
-0.0400277 -0.0428246 0.18557 
0.00166648 -0.0122813 0.0309126 
0.000791664 -0.0132603 0.0539805 
0.00351677 -0.0125648 0.0455879 
-0.000165887 0.00431457 0.0379528 
0.00370757 0.00387411 0 
-0.000704659 -0.00159599 0 
0.000625114 0.000909665 -0.00335496 
0.000659924 -0.00100295 0 
-0.000271198 -0.00102804 0.0464699 
-0.00121576 -0.000866208 0.0296934 
-0.00100431 -0.00128356 0.0451515 
0.000184045 -0.000294904 0.0300739 
-0.00282279 -0.00400657 -0.0111822 
-0.00716608 -0.00198152 -0.00308747 
5.02556e-05 -0.00266026 -0.000753453 
0.0157248 0.0293284 0.0305361 
5.51785e-05 2.75329e-05 -0.000398541 
-2.89223e-05 -1.14447e-05 -9.15374e-05 
0.000130977 5.28505e-05 0.000311712 
-0.000324645 0.000159117 0.032824 
0.0171751 -0.0274433 0 
-0.0144299 -0.00208865 0 
-0.0162303 0.0319073 0 
0.0496899 -0.0154562 0.0351661 
-0.00509795 0.0038344 0.0266026 
-0.0106636 0.0132117 0.0210116 
0.000804876 -0.00254011 -0.010074 
-0.00403352 0.00264586 0.0323356 
-0.0058235 0.00477939 0 
0.00422686 -0.0160041 0 
-0.0036533 0.0139291 0 
0.00666059 0.02313 0.0303623 
0.0112468 -0.00123273 0.0311657 
0.0129981 -0.00288725 0.0526142 
0.0121857 -0.000690009 0.0465092 
-0.00274572 0.00157417 0.0360654 
0.000302496 -2.35037e-05 -0.000270662 
8.33908e-05 -5.69669e-06 -0.000123558 
-4.34647e-05 -4.80395e-06 0.00055045 
-0.000168875 0.000324549 0.0361008 
-0.000108994 -0.000595726 0.0486042 
-0.000278327 -0.000400959 0.0362715 
-0.00384348 0.00080033 0.0615699 
-0.00334411 0.00301633 0.0292709 
-0.0124784 -0.0392205 0.146339 
-0.00221533 0.00407677 0.24543 
-0.0431206 -0.032466 0.139494 
-0.021686 -0.0424234 -0.0706674 
-0.00144193 -0.00119738 0 
-3.39073e-05 0.00157811 0 
-0.000702433 0.000274246 0 
0.000929278 -0.00169925 0.00177765 
-0.00297809 0.000187553 0.0503594 
-0.0050458 0.000168974 0.0637291 
-0.000740452 -0.000417025 0.0498029 
-0.00483949 -0.000274982 0.064404 
0.000539105 0.000103118 1.87767e-05 
0.000257478 -0.00052373 0.00112096 
0.000793655 0.000437485 0.034961 
8.48686e-05 0.000271951 0.0291359 
-0.00037813 0.00233733 0.0453639 
-0.00109313 0.000699562 0.038225 
0.00133266 0.000621099 0.0442738 
-0.00167748 0.00308926 0.0615377 
0.00013069 0.000318088 0.000986339 
-7.19801e-05 -0.000106664 -0.00115656 
-1.91908e-05 -2.47322e-05 -0.000341521 
-0.000183914 0.00101554 0.0403442 
0.0124382 -0.001404 0.0579682 
-0.000139541 0.0182954 0.0332258 
0.0153414 0.00277884 0.0101244 
0.0102566 -0.0100816 0.0635342 
-0.00054144 -4.44169e-05 -4.61111e-05 
0.00144379 0.000118441 -0.000738078 
-0.00107695 -8.8347e-05 0.00360728 
0.00353466 -0.00284002 0.020021 
-0.00169082 0.000439088 0.0551353 
-0.00216659 0.00167266 0.0710821 
-0.00154489 0.00253969 0.052447 
0.000359315 1.76371e-05 0.0599054 
-0.047298 -0.00862408 0 
0.0432021 -0.00308175 0 
-0.0449552 -0.0361162 0 
-0.0717094 -0.016279 0.170407 
0.000850489 0.000192215 0 
0.000341414 3.7375e-05 -0.00138718 
-0.00196231 0.00136977 0 
-0.000365062 0.00091097 0 
0.00276481 0.00136508 0.0743207 
-6.00551e-06 -0.000235501 0.0597558 
0.000922751 0.000338585 0.0444134 
0.0033179 0.00204699 0.0586363 
0.000345511 0.000693251 0.0426008 
0.000888499 -0.000596902 0.0384868 
0.00197958 0.000273299 0.0411558 
0.00332628 0.00139714 0.0596358 
0.00013613 0.000136822 0.0852084 
0.000387255 0.000459773 0.0832913 
0.000852665 0.000458536 0.0840547 
0.00101238 0.00221621 0.0827434 
0.00692908 -0.0169033 0.0668412 
-0.00611641 -0.0117266 0.0655573 
-0.0133385 -0.0150423 0.0590769 
-0.00377504 -0.00671431 0.0672318 
-0.0536295 0.00253069 0.129878 
0.005718 0.00305556 0.316504 
-0.0404312 0.030493 0.121273 
-0.0410547 0.0191218 -0.0939417 
-0.00851019 0.00384604 0.0729815 
-0.0104106 0.00116839 0.0666857 
0.0013552 -6.94442e-05 0.0669742 
-0.000212718 -0.000255431 0.0774182 
0.00639112 -8.8292e-05 0.0718671 
0.00528012 -0.00428992 0.0723119 
0.0044669 -0.000791099 0.0772963 
0.00142199 -0.00129644 0.0804492 
-0.000434006 -0.000989466 0.0473219 
-0.000889208 -0.000261743 0.0306777 
0.000659907 -1.68696e-05 0.000616502 
-0.000594602 0.000362777 0.0293216 
0.00951474 -0.0109362 0 
-0.00125539 -0.00385016 0 
0.0045406 0.000789861 0 
-0.0256101 0.03108 0.00617352 
-0.000904359 0.00484534 -0.00586295 
0.000577001 7.34918e-05 -0.00293913 
-0.0104142 0.00677233 0.0323154 
-0.00529108 0.00651695 0.0241554 
-0.00305172 -0.00609772 0.0240066 
-0.0133168 -0.0130798 0.0212715 
0.000872648 0.00103379 -0.0103674 
-0.00122133 -0.00547417 0.0279812 
0.00751658 0.00105814 0.0658143 
0.00459179 -0.00611558 0.0682085 
0.00689485 -0.00399313 0.0663297 
0.0139936 -0.00527237 0.0670949 
0.000858475 0.000491974 0.0840243 
0.000422112 -0.000316191 0.0819647 
0.00380284 -0.000775343 0.0768981 
-0.000578451 0.00079436 0.0771446 
-0.00633107 -0.0533679 0.14346 
0.00163286 -0.0250135 0.256901 
-0.0510129 -0.0303251 -0.0205947 
0.0320433 -0.024059 0.136875 
0.00912047 0.00364447 0.0716843 
-0.0011938 -0.000356979 0.0680685 
0.0114615 0.00270709 0.0592873 
0.000942809 -0.000540146 0.0667192 
7.02773e-05 -0.000102415 0.000128118 
4.92184e-05 -7.15925e-05 -0.000104184 
-2.65861e-05 3.86713e-05 5.71387e-05 
-0.000953617 0.000558658 0.0374493 
0.000152511 -9.08013e-05 0.000440213 
-0.00054772 0.00117568 0.0383157 
-0.000954053 0.000856298 0.0321292 
-0.000567705 0.000499571 0.0308535 
3.23824e-06 6.64483e-06 -3.55081e-05 
-0.00013035 -0.000358793 0.000612048 
4.15188e-05 6.53333e-05 -0.000633032 
-0.000283453 -6.42785e-05 0.0305342 
-0.000299763 -5.51863e-05 0.000470882 
-0.000287356 -0.000724705 0.029629 
0.0001974 -0.000175302 8.85394e-05 
0.00126454 0.000943943 0.0307964 
-7.80113e-05 -0.000108881 -0.00115344 
4.02018e-06 9.20863e-06 8.71176e-07 
0.000673234 -0.000464432 0.000177015 
6.35681e-05 0.000151799 -8.69963e-05 
0.000198465 0.000458264 1.65836e-05 
0.000337668 -0.000499676 -0.00024588 
0.000144174 0.000389213 0.00092876 
-2.62697e-05 -7.28083e-05 -0.000200004 
-0.00677005 0.0244843 -0.0202008 
0.0485783 -0.0203141 0.0738933 
0.0251933 0.0136418 0.0153657 
0.0133854 -0.0117889 0.0112078 
-0.00166665 0.000633681 0.0756918 
0.000869167 -5.619e-06 0.0822236 
0.00042867 -0.000120022 0.0788379 
-0.00251067 0.000721417 0.0804784 
0.00471609 -0.0100786 0.0304053 
0.00496052 -0.00982709 0.028197 
-0.00121029 0.00429962 -0.00284208 
-0.000903784 0.00366015 0.0316172 
-0.000297848 0.00214807 0.0584599 
-0.00416913 -0.00418433 0.0332365 
0.00539458 -0.00191176 0.0229861 
-0.0182066 0.0153543 0.0574077 
0.00238725 0.00141153 0.0741003 
0.0043665 0.000919975 0.0786028 
0.0037142 -0.000543776 0.0767764 
-0.00042402 0.000660303 0.0771866 
-0.0124112 0.00313923 0.0725595 
-0.0126914 -0.00144652 0.0433253 
0.00363784 -0.00962418 0.0792848 
-0.00632394 0.00404595 0.0294038 
0.000652534 -0.000585684 0 
0.0204242 0.0168322 0 
-0.00921709 -0.0190884 0 
-0.0442526 -0.00870597 0.0414447 
0.000783048 0.000426164 0.0843337 
0.00213837 -0.000946994 0.0808812 
0.00098779 0.00226464 0.0822967 
0.00404386 0.00153852 0.0780523 
0.0215514 0.0153094 0 
0.0228793 0.00619262 0 
-0.037082 -0.00919047 0 
0.0798739 0.0290911 0.103769 
0.00020406 -0.000218578 -3.3716e-05 
0.00198201 -6.84362e-05 0.000783861 
-0.000816826 -0.000835182 0.0365841 
-0.00419831 -0.00233608 0.0303951 
-0.00101513 -0.00990944 0.0244912 
-0.00109312 -0.0125207 0.0420563 
-0.000947293 -0.0111457 0.0313112 
0.00252552 0.00360411 0.0320828 
0.000358018 -0.000744606 -0.000151415 
8.8995e-05 -0.000199695 0.000527876 
-4.72445e-05 0.00011675 -0.000696097 
-0.00139727 0.000558396 0.0392461 
-0.00324746 0.00333588 0.0786495 
-0.00693667 0.00417656 0.0717695 
-0.00420695 0.00687904 0.0720935 
0.000301859 0.000169457 0.0850131 
-0.00769322 0.00639191 -0.00584165 
0.0013732 0.00131396 -0.0048517 
-0.00068519 0.00370035 -0.00235219 
0.0122127 -0.0305144 0.0212615 
-0.000697483 -0.000839666 -0.00593422 
0.000861906 0.00493457 0.0155756 
0.000325138 -4.221e-05 0.00238492 
0.00386593 0.00345513 0.0282456 
-0.00602875 0.00235849 0.0680109 
-0.0060994 -0.000285868 0.0642405 
-0.00840476 0.000680285 0.0710366 
-0.0045819 0.000522811 0.0657621 
0.0051322 0.00803377 0.0567346 
0.0167445 0.0131683 0.0756 
0.0026581 0.00452221 0.0717874 
0.00903722 0.00528893 0.058854 
-0.000298771 7.24494e-05 0.00174577 
-0.000591147 0.00358219 0.0366822 
-0.000822218 -0.0014822 0.0364549 
-0.00228632 0.00309597 0.0300477 
-0.00836412 0.025804 0.157737 
-0.0402146 0.0299199 0.151328 
-0.00729308 -0.0161326 0.257861 
-0.0768427 0.0378817 0.119547 
-0.00023623 -0.000851442 0.00156888 
-0.000379936 -0.00145325 0.000844742 
0.000100069 0.000250891 -0.00286239 
0.00273926 -0.00166092 0.0214934 
-0.00299691 0.00873133 0 
0.0107934 0.00748359 0 
-0.0148376 -0.00507246 0 
-0.0197839 0.00977272 0.0221764 
0.000274899 -0.000238565 0.000209527 
0.000445511 0.000827953 0.0391246 
0.000315326 0.000428403 0.000667418 
-0.000887456 0.000872423 0.0305207 
-3.77498e-05 -6.03905e-05 -0.000454518 
-0.00108646 -0.00172735 -0.000679085 
0.00276892 0.00640344 0.0379545 
-0.000181847 0.000274153 0.0361585 
-0.0234019 -0.0119728 -0.0354168 
0.0222166 -0.0194763 0.0170235 
0.017974 -0.0232537 0.0441668 
0.0489872 -0.0455647 0.141814 
0.00278127 -0.00144661 -0.00148124 
-0.00645602 0.00769459 0.0350096 
-0.00368245 0.000898195 -0.0047373 
-0.00182478 0.00589398 0.0256479 
0.00759647 -0.0118143 0.0279956 
0.0124916 -0.0122927 0.0673509 
-0.00481002 -0.01825 0.0522218 
0.000613364 -0.0269596 0.0325401 
-0.0106392 -0.00313216 0.0267016 
-0.0115864 -0.00244444 0.0342664 
-0.012569 -0.00349795 0.0449277 
0.00489381 0.00224308 0.0325961 
0.000481986 0.0050208 0.0762092 
0.0045949 0.00510171 0.0747086 
0.00193722 0.0035056 0.0785922 
0.00092233 0.00192592 0.0824653 
-0.00340673 0.000272791 0.00290048 
0.00126859 -0.0011229 -0.000879035 
0.00195325 -0.00238538 -0.00432608 
-0.0117458 -0.00419488 0.019477 
0.00121575 -8.64223e-05 0 
0.000382056 -0.00118859 0 
0.00455677 -0.00123536 0 
-0.00990702 0.00582377 0.00446103 
0.00456906 0.00603041 0.246309 
0.0062867 -0.0130419 0.185237 
-0.00512532 -0.0269498 0.283592 
0.0572958 0.0973622 0.0649383 
-0.0058666 0.0254238 0.143556 
0.0209848 -0.0141259 0.140852 
0.0201762 -0.0710271 0.023658 
0.00333485 -0.0267307 0.142475 
0.000782446 -0.000765155 0 
0.00101251 7.16718e-05 0 
-0.00124101 -0.00241883 0 
-0.00125132 0.00105155 -4.00836e-05 
0.0019739 -0.0012572 -0.00639778 
0.00186235 0.0066864 0.0228451 
-0.000112646 0.000175897 0.00258334 
0.00135628 0.0120436 0.0149564 
0.00749793 0.00458144 0.256707 
0.00135128 0.00259208 0.257805 
0.0199742 -0.00148652 0.248687 
-0.0399999 0.00279608 0.22557 
-9.89343e-05 -0.00117936 0.00163448 
-0.000153415 -0.0018288 -0.00272455 
-0.000107195 -0.00127783 0.000572304 
-0.00420432 0.00941132 0.0337794 
-0.00260916 -0.0119332 -0.00361725 
0.0253889 -0.00710485 0.0432649 
0.0258992 -0.0524417 0.0946839 
-0.00995136 -0.0142106 0.01964 
-0.00755913 0.0195163 0 
0.021156 -0.0149257 0 
0.00207359 -0.028258 0 
0.040755 -0.0499959 0.0721345 
0.0176215 -0.01237 0 
-0.0213206 0.000835331 0 
-0.026424 0.0200822 0 
-0.0581447 0.0309969 0.0619104 
-0.0527705 -0.0346401 0.0948007 
-0.026328 -0.0107652 0.223025 
-0.0591013 -0.00973497 0.0915785 
-0.01199 -0.00672078 -0.0458163 
0.00184803 0.000275758 0.0439653 
0.000593515 8.80753e-05 0.0318789 
0.0025391 0.000300235 0.0543663 
0.00150574 -0.000331966 0.0365285 
-0.0107641 0.00289763 -0.00729164 
0.0313724 -0.00405289 0.0346431 
-0.00675407 0.00414224 -0.0047832 
0.0221357 -0.00562948 0.0192861 
0.00927324 -0.00400849 -0.0080998 
0.00418249 0.00465495 -0.0222047 
-0.00036016 -0.0244108 0.0389584 
0.00526111 -0.00385367 0.0361637 
-0.000135066 -3.05726e-05 -0.00588276 
0.00146 -0.00295367 0.001098 
0.000289738 -0.000561461 0.000687814 
-0.00845199 0.00372868 0.0239819 
2.72329e-05 -2.23404e-06 3.47812e-05 
6.99382e-06 -5.73737e-07 -0.000176565 
0.000150365 -1.23352e-05 8.12498e-05 
-0.000180315 -0.000265014 0.0290466 
-0.00159495 -0.00228214 0.0798432 
0.00220295 -0.00316055 0.0795157 
-0.000749527 -0.0060741 0.0769856 
0.000387926 0.000805264 0.0863838 
-0.00565279 0.00247406 0.027368 
0.000213621 -1.48817e-05 -9.58836e-06 
0.00110193 -0.000993629 -0.000919193 
0.000802765 0.000142944 0.0365742 
0.0214747 -0.0154924 0.1279 
-0.000826133 -0.00124088 0.266105 
0.00194411 -0.0384325 0.146901 
-0.0330118 -0.0763971 0.178396 
-0.000209959 0.000161988 -0.000180208 
-0.000473472 0.000237471 0.0291462 
0.000250196 -0.00013688 0.000587309 
-0.000200587 -0.000409821 0.0299209 
-0.000338347 0.0106577 0.0822798 
-0.0128354 0.0145833 0.0214576 
-0.00161747 0.0113099 0.00998317 
0.0183541 0.0419102 0.0771182 
-0.000514386 0.000263697 -0.000547831 
0.000722531 -0.00037245 0.000828278 
0.000310465 -0.000155017 0.000211838 
0.000424992 -0.000448026 0.0314936 
0.000178982 -0.000578665 0.000118165 
-0.000190945 -0.000374616 0.0294959 
0.00186444 0.00203536 0.0356452 
0.00144099 0.000203495 0.0305702 
2.99456e-05 4.42392e-06 -0.00025518 
1.37617e-05 4.73255e-06 0.000152654 
4.32396e-05 8.24839e-06 -0.00018243 
-7.35381e-05 0.000380541 0.0339033 
0.00550738 0.0196343 0 
-0.00165384 -0.0146993 0 
-0.00381112 0.00276791 0 
-0.0315681 0.000375827 0.0357229 
-0.00985518 -0.0841246 0.0521631 
-0.00181414 -0.0527732 0.107443 
-0.0134974 0.0225578 0.0789562 
0.0092381 -0.000587128 0.0130539 
0.012254 0.00272786 0.0586204 
0.00967436 0.00391776 0.0705256 
0.0110989 0.0062675 0.0576971 
-0.00239888 -0.000788248 0.0701523 
-0.0174024 0.00254824 0 
0.0121606 0.0146451 0 
0.0174591 0.00750143 0 
-0.0544836 -0.0174464 0.0213173 
-0.00236655 0.00267613 0.000405398 
0.00117553 -0.000230506 -0.000784157 
-0.00262503 -0.00213265 -0.00315923 
0.0027834 0.0168371 0.0162522 
4.94962e-05 -3.49134e-05 -0.00021686 
-7.86089e-05 5.52086e-05 -0.000143851 
9.07542e-06 -6.30008e-06 0.000166573 
-0.000273135 -4.04097e-05 0.0294238 
-0.0080427 0.00977878 0.00716613 
-0.0048227 0.0162466 0.0248695 
0.00538676 -0.00277975 -0.00307445 
0.0249488 0.0406984 0.0788649 
0.0039314 -0.000937509 0.0772223 
0.00931575 -0.000990189 0.0695773 
0.00665069 0.00042441 0.0728501 
0.00403441 0.00184839 0.0780877 
0.00227257 0.00576728 0.0305884 
0.000713403 -0.000721492 0.000127804 
0.000754996 -0.000844896 -0.00190209 
-0.000765491 0.000922064 0.00356723 
-0.000975328 -0.00126501 0.000696992 
-0.00111342 -0.00144371 0.000814243 
-0.000585715 -0.000851961 -0.00381092 
0.00969826 0.00576785 0.0140478 
0.00852121 -0.0106184 0.0481754 
0.00558586 -0.0110801 0.0291334 
0.00571588 -0.0122814 0.0461388 
-0.00274286 0.00405103 0.0358596 
-0.0005577 0.0105083 0.0294894 
0.000145347 -0.00494492 -0.00332711 
4.2082e-05 0.00213585 0.00569782 
0.000326136 0.00943576 0.0263816 
0.0075313 0.00761172 0.0554749 
0.00371028 0.000981836 0.0400762 
-0.000998928 -0.00438653 0.0595535 
0.00122763 0.00276496 0.0274338 
0.000689696 0.00086982 0.00162587 
-0.00031363 -0.000421451 0.000448205 
-0.000355538 -0.000455115 -0.000530007 
-0.00537524 -0.000761739 0.0177857 
-5.98144e-06 -0.00192104 0.00558355 
-9.33132e-05 -0.0081736 0.0236447 
0.000710368 -0.0111188 0.0312114 
-0.000376289 0.00427644 -0.00376279 
0.0101956 0.00170459 0.0261603 
-0.00464651 -0.000170379 -0.00360483 
0.0110841 0.00131659 0.0305322 
-0.00335394 0.000552986 0.0328576 
0.0341494 -0.0117557 0.138038 
-0.00415998 -0.0144054 0.159671 
-0.00148378 0.000135303 0.112883 
0.00331746 0.021159 0.175379 
-0.00530342 0.000408138 -0.00191532 
0.0112569 -0.00104843 0.0316741 
0.00237641 5.34094e-05 0.00596582 
0.0104179 0.000462194 0.0294374 
5.44571e-05 -4.32571e-05 0.000489045 
1.48307e-05 -1.15743e-05 0.000116162 
-0.00019558 0.000140001 -0.000488871 
0.000442442 0.000205307 0.0398163 
-0.008996 0.00398146 0.0719166 
-0.0111004 0.000802649 0.066152 
-0.0115585 0.00468719 0.0589102 
0.00267107 0.000178116 0.0687815 
0.000482865 -0.00213617 0.00141651 
-0.00199946 0.014252 0.0205448 
0.00151409 -0.00717664 -0.0130882 
0.0076928 0.0166518 0.0207618 
-0.00141614 0.00131292 0 
-0.00440277 0.000761487 0 
0.000357076 0.00263665 0 
0.0134142 -0.00423106 0.000956593 
0.00717881 0.00776073 0.0181684 
-0.00138113 0.0178996 0.0261521 
-0.0046974 0.0192252 0.0731079 
0.00232708 0.00426452 0.0287737 
-0.0172052 -0.000833685 0 
0.0103084 0.00787414 0 
-0.00297178 -0.00244644 0 
0.0269745 0.00453183 0.00188589 
-0.000674989 -0.0038365 0.05638 
-0.000696328 -0.00259145 0.0549075 
0.000359547 -0.00147206 0.0372599 
0.000144544 0.000709222 0.0294165 
0.00636667 -0.00664385 -0.00633355 
-0.00581996 0.0230134 0.031346 
0.00674058 -0.00764939 -0.0219414 
-0.0200546 0.0238188 0.0433085 
0.00962028 -0.00920425 0 
-0.00771194 0.0113422 0 
0.00188374 -3.78927e-05 0 
0.0490602 -0.012827 0.0322541 
-0.00221192 2.10012e-05 0.00594474 
-0.00953684 0.000913558 0.0269922 
-0.0119737 -0.00034559 0.0333167 
0.00491541 0.000110025 -0.00244996 
0.00843122 -0.00843978 0.0663401 
0.0108618 -0.00817628 0.0533534 
0.00895311 -0.0104502 0.0486476 
-0.00118792 0.0011824 0.0618558 
-0.00207775 6.91468e-05 0.0757732 
0.00108516 0.000573552 0.0788902 
0.00895184 -0.000715682 0.0715557 
0.000718853 0.000165708 0.0662794 
0.0180154 0.0201513 0.0509085 
0.0123988 0.0161033 0.0768307 
0.00844901 0.00269711 0.0559887 
0.0111854 0.00244879 0.0583324 
0.00332343 0.00758151 0.0373155 
-1.62287e-05 0.000201037 0.0365425 
-0.00170753 -0.00218509 -0.00112902 
0.000500717 0.000265259 0.0309121 
-0.000334896 -0.000697299 9.50288e-05 
7.60448e-05 0.00017131 0.000155455 
0.00010067 0.000182168 -0.000402967 
-0.000595157 0.000605825 0.0391652 
-0.00140463 0.00151454 -0.000905745 
0.000323238 -9.82018e-05 0.00010328 
0.00360029 -0.00457361 0.0256235 
-0.000396539 -0.000282924 0.0325197 
3.99879e-05 -8.28553e-05 0.000220731 
-4.98191e-05 0.000102856 -0.000286243 
4.45922e-05 -8.87256e-05 0.000357856 
0.0008095 0.00054018 0.0431282 
-0.000220828 0.000969811 -0.00196644 
0.000373477 -0.00040724 -0.000683529 
-0.00217277 0.00117017 -0.00142368 
0.0103517 -0.00893722 0.0169181 
0.00210226 0.00284756 0.0783351 
0.000870953 0.000404903 0.084305 
0.000327085 0.000501536 0.0834121 
0.000896922 0.0023842 0.0823594 
-0.0132741 -0.00202053 0.0559103 
-0.0123402 -0.00382195 0.0426488 
-0.0125673 -0.0012567 0.0339627 
0.00568099 0.00137536 0.0371156 
-0.000546897 -0.00206974 -0.00118881 
0.00117039 -0.00271449 0 
2.77876e-05 0.00097738 0 
-0.00217181 -0.00111643 0 
0.00800116 -0.0112179 0.0488297 
0.00484122 -0.0114525 0.0622864 
0.00754295 -0.00866787 0.0659111 
-0.00112185 0.00280297 0.0719573 
-6.66292e-05 -0.00071812 0.000968492 
7.72135e-05 0.000199486 -0.00479579 
4.80125e-05 0.000829094 0.00111136 
0.00619385 -0.00638304 0.0217329 
0.0257713 -0.0178655 0.149746 
-0.0135309 0.0206052 0.273717 
-0.011398 -0.0280789 0.152339 
0.0429922 -0.10347 0.0761923 
-0.000535739 0.00113836 0.0011548 
-0.00643275 -0.00536157 0.0242839 
0.0014596 0.0013703 -0.00969186 
-0.00332801 -0.00662157 0.0256508 
-0.0048483 0.00804058 -0.00920761 
0.00309671 -0.0110491 0.0230888 
-0.00287196 0.00605009 -0.00816745 
0.00241852 -0.0224847 0.0226841 
0.0593103 -0.0159981 0.0462369 
0.00766783 0.0149737 0.162413 
-0.0191181 0.0203748 0.0890811 
0.0126749 0.0247796 0.104256 
-0.00651651 0.00973185 0.0660439 
0.00131601 0.0118713 0.169664 
-0.0254845 0.0150582 0.0515798 
0.00591093 0.0364443 0.119687 
-0.023149 -0.0150884 0.231484 
0.0174047 0.000203405 0.128736 
-0.0354859 0.000821742 0.164921 
0.0754496 0.059185 0.113013 
-0.000185962 8.70067e-05 0.000235961 
0.000657998 -3.39595e-05 -0.000166415 
6.99672e-05 -6.53372e-05 -0.00131159 
0.000394334 -0.000153595 0.000658761 
1.45392e-05 0.000141989 0.000515325 
-0.00146941 0.00142487 0.0324666 
0.000384105 -0.000424745 -0.000111821 
-0.000392115 8.14189e-05 0.0307809 
-0.000884779 0.00041243 -0.00187978 
0.000236156 -0.000114322 0.0014269 
0.00149603 -0.00068138 -0.000307355 
0.000571858 0.000649247 0.0294738 
-0.00387696 -0.00930277 0.118899 
0.0011173 -0.00851673 0.0669004 
-0.0171452 -0.0116039 0.126585 
0.0143863 -0.0319065 0.00870808 
0.00184961 -0.00564014 0.0261866 
-0.00153031 -0.00170157 0.0035018 
0.00152687 0.00169253 -0.00337256 
0.000879021 0.000855919 0.00081393 
0.00149293 -0.00142155 -0.00264058 
-9.4163e-05 0.00014697 -0.00171736 
0.00181614 -0.0019129 0.00282305 
-0.012643 -0.00165567 0.0242021 
-0.000486788 0.000892384 0 
-3.13035e-05 -0.00173885 0 
0.00134581 -0.00313556 0 
-0.00246625 0.0107087 -0.00362179 
0.00488271 0.0103014 0.0181205 
-0.0426249 -0.000761862 0.0974848 
0.0145929 0.0851204 0.0884471 
0.00540469 0.0534246 0.130711 
0.00757122 -0.0108033 0.0284031 
-0.0028424 0.0051626 -0.00149049 
-0.00041097 -0.00317008 0.00482717 
0.00382318 -0.0105882 0.0263663 
0.00415544 -0.00120274 0.0766112 
0.00643077 0.000745861 0.0733889 
0.00187816 -0.00121204 0.0805011 
0.00407155 0.00143517 0.0783555 
0.0122059 0.00594205 0.0505729 
0.00290399 -0.00468391 0.0462312 
0.0174 -0.00261991 0.0762501 
0.014762 0.00601688 0.0145509 
-0.000904704 0.00139936 -0.000563089 
-0.000677956 0.00118795 -0.00284476 
-0.000522827 0.000672366 0.00204532 
-0.00612758 -0.00233751 0.0216659 
-0.000416457 -0.00202172 0.0450806 
0.0011453 -0.00179925 0.055211 
-0.00074717 3.08628e-05 0.0288939 
0.000693076 0.000880085 0.0319318 
-0.0304923 0.0118438 0.151919 
0.0134031 0.00179019 0.290671 
-0.0265041 0.0376647 0.0957544 
-0.0686058 0.045093 0.0133199 
0.00123107 0.00445611 -0.000730829 
0.00555929 0.00118765 -0.00760401 
0.00659925 0.00143799 -0.00470812 
-0.0308494 -0.0144516 0.0245402 
0.00205187 0.00344069 0.0785924 
0.00448777 0.00480008 0.0757553 
0.00585104 0.0041902 0.0707686 
0.00352617 0.00171336 0.0782545 
-0.0056755 0.00448978 0.0676533 
0.00621232 0.00337693 0.039203 
-0.0134466 0.0150333 0.0386208 
-0.00269005 0.00291344 0.0281438 
0.00350672 -0.0187794 0 
-0.00472059 0.014004 0 
0.00187916 0.000688685 0 
0.00455047 -0.0222427 0.0336758 
0.00139348 0.0018659 0.00359599 
-0.000634354 -0.000970837 0.00130586 
0.00580091 -0.00069592 0.0257284 
-0.00136191 -0.00182783 -0.00341272 
0.00177843 0.00103931 0.0551572 
-0.000480083 0.00270836 0.0386227 
0.00216741 0.000754278 0.0663019 
-0.000204272 -0.000645924 0.0408279 
-0.00940966 0.000906538 0.0220834 
-0.00684366 0.00624821 0.0689617 
-0.0127259 0.01435 0.0368733 
-0.00276905 0.0028124 0.0287474 
0.0744351 0.00859016 0 
-0.0686706 -0.0196704 0 
0.0498651 0.0390896 0 
0.0507371 0.0242378 0.126353 
-0.014498 0.0334529 0 
0.0198238 -0.0340007 0 
-0.0113459 -0.00305192 0 
0.0152189 0.00107767 0.0494175 
-0.00349088 0.00766395 0.0423996 
-0.00475162 -0.00328397 0.0724152 
-0.0035212 -0.00596102 0.0652257 
-0.000681446 -0.00238265 0.0546547 
0.0336849 0.0574297 0 
-0.0375038 -0.0874209 0 
0.036353 0.0837945 0 
0.0267377 0.0663636 0.187904 
-0.000514461 0.000240795 0.000588665 
0.000647378 -0.000303458 -0.000831112 
-0.000463305 0.000219131 0.000987582 
0.000996981 3.51958e-05 0.0298838 
0.000718332 0.000884763 -0.00027865 
-0.000480462 -0.00024998 -0.00047963 
-0.000106986 0.00129381 -9.09189e-05 
-0.000516857 -0.000244049 0.00383493 
0.000119343 -9.86818e-05 -0.000810248 
-5.67509e-05 3.73979e-05 -0.000150247 
-2.92712e-05 3.68301e-05 0.00090844 
0.0005819 0.000674626 0.0378033 
-0.000707031 0.00101352 0.00109214 
0.00109743 -0.00185562 0.0034305 
-0.00109428 0.00183724 -0.00318399 
-0.00258667 -0.00519719 0.0259251 
0.00016816 -0.0118682 0 
-0.00574776 -0.0044925 0 
0.000169506 0.00478865 0 
-0.00349443 0.016564 0.00538845 
0.0028682 0.00134948 0.231406 
-0.0180218 -0.0188272 0.0915837 
0.011206 -0.0286755 0.154547 
-0.0938779 -0.0551009 0.0717433 
-0.00265549 -0.000474688 -0.00114742 
6.0779e-05 -0.00348043 -0.000247577 
0.00154005 0.00908462 0.0181815 
0.00301409 0.00229597 0.0285723 
-0.0015393 0.00243863 0.052307 
0.000190694 0.000467193 0.0325599 
-0.00184881 0.000737628 0.0558509 
4.58823e-05 -0.000157676 0.0603526 
0.00904539 0.0233147 0 
0.00611324 -0.0190894 0 
-0.0151709 -0.00941264 0 
-0.0199954 -0.0666107 0.0611188 
0.00462756 0.00155515 0.0235029 
-0.00176485 -0.000750664 -0.000805573 
6.523e-05 0.000628127 -0.000181415 
0.00038719 -0.000473182 0.0326738 
4.70341e-05 -0.000102058 4.29628e-05 
-2.92865e-05 2.62352e-05 0.000482357 
5.12167e-05 -7.20802e-05 -0.000486077 
0.000124342 9.29059e-05 0.0316039 
0.00653969 0.00749472 0 
0.0178849 0.00167223 0 
-0.0187656 -0.0037446 0 
-0.0441902 0.0173226 0.018733 
0.017199 -0.0138382 0 
-0.0128926 0.0126363 0 
0.00952177 -0.00639172 0 
0.0556935 -0.0388074 0.0646141 
0.0289361 0.0825029 0 
-0.0208215 -0.0670677 0 
-0.0300402 -0.0623472 0 
-0.0299485 -0.0664875 0.16869 
0.00509421 -0.00526177 0.069667 
0.000244982 -0.00850747 0.0685636 
0.00303142 -0.00772463 0.0642108 
0.00207806 -0.00279834 0.0648794 
-0.00118456 0.000176809 -0.00183267 
0.00194062 -0.00295749 -0.00602641 
0.00303389 -0.000247888 0.00171755 
-0.0104669 0.0144573 0.0189674 
4.9386e-05 2.3668e-05 -0.000246134 
-8.11528e-05 -3.73173e-05 6.08851e-05 
7.93049e-05 3.53016e-05 0.0001949 
-0.000450836 0.000202557 0.038367 
0.0171757 0.0194907 0.072685 
-0.00167485 -0.00475427 0.233578 
0.024593 -0.00290132 0.143432 
0.065781 0.081228 0.0714916 
0.00370132 0.00381825 0 
0.0113998 0.00140557 0 
-0.000811445 -0.00337954 0 
-0.0338116 0.00021821 0.00579639 
0.000197428 -4.734e-06 -0.000169165 
-0.00107982 0.00157612 0.0383248 
-0.000499281 2.605e-05 0.00113553 
-0.000604422 1.05982e-05 0.0299327 
0.00385197 0.00495299 0.0495175 
-0.00185993 -0.00223336 0.0565131 
-0.00391071 0.0052399 0.0392458 
0.00240569 0.0013021 0.029899 
0.0157981 0.0135821 0 
0.020481 -0.00153907 0 
-0.0328567 -0.0100927 0 
0.071265 0.0276676 0.0594778 
0.000439534 -1.26353e-05 0.0585961 
-0.0208898 0.017816 0.0609505 
0.00439393 0.000876194 0.0229091 
-0.00378747 0.00845091 0.0762881 
-0.0037644 0.00213008 0.0673958 
-0.00114078 -6.80866e-05 0.033812 
0.00361755 -0.00448261 0.057561 
0.000287441 0.00342991 0.0400366 
-0.000724144 0.00125763 0.00348605 
0.000650165 -0.00108199 -0.00217579 
0.000865428 -0.00128563 0.000231901 
0.00308982 0.00531968 0.0269567 
0.000502269 0.00197609 -0.00217955 
8.425e-05 0.000363685 -0.0014616 
-0.000670808 0.000473948 -0.00121319 
0.0014935 -0.0141915 0.0131802 
-0.000571287 -0.0126291 0.0404208 
0.000909336 -0.0134477 0.0550352 
0.00164982 -0.0124614 0.0303637 
-0.000294477 0.00461465 0.0369846 
-0.000746717 -0.000658811 -0.000194877 
0.00312926 0.00243097 0.0362209 
0.000587552 -0.000652387 -0.00255119 
0.00263436 0.00110718 0.0313877 
-0.000553241 -9.12052e-05 0.000219564 
-5.15264e-05 -0.000229264 0.000165889 
0.00120946 0.00157393 0.0375673 
0.000950425 0.000223231 0.032055 
-0.000208876 0.000115699 0.000468298 
0.000535719 -0.000168608 -0.000228633 
-0.000983922 0.000934788 0.0318926 
0.000294045 0.00070962 0.0305328 
0.00480128 -0.00923785 0 
-0.00224126 0.0097038 0 
0.00531531 0.00446293 0 
0.0113212 -0.0235032 0.0138323 
-0.00720881 0.00652526 0.0331784 
-0.0153373 0.00616941 0.0111673 
-0.060176 -0.0123557 0.10579 
-0.0260973 -0.00876079 0.0366057 
-0.000844479 0.000861727 0 
-0.000847891 -0.00441399 0 
-0.00161753 0.00370406 0 
0.0121193 -0.00762733 0.00460742 
-9.7353e-05 -0.00236252 -0.000922403 
0.000211746 0.00199047 0 
-0.000425901 -0.0012324 0 
0.000672499 -0.00141962 0 
0.00117361 -0.0044124 0.00459745 
0.000327173 0.00913591 0.00733028 
-0.00497996 -0.00248563 -0.0110766 
0.0129995 0.00684742 0.0143398 
0.000430899 -0.00169174 0.000248 
-0.000257811 0.00148715 -0.00527438 
-0.000367124 0.001346 0.000817766 
0.00332532 0.00506815 0.026487 
-0.0497609 -0.0122026 0.158826 
-0.0284329 -0.0352252 0.122827 
0.00159441 -0.00122203 0.224995 
-0.0514689 -0.00684014 -0.0803462 
-3.85455e-05 5.33572e-05 -0.000408878 
8.8761e-05 -0.000159686 -0.000159958 
6.70013e-07 1.96019e-06 9.35013e-05 
-0.000551779 0.000229886 0.0276823 
-0.00158162 0.00140362 0.00369838 
0.00171427 -0.00156661 -0.00294154 
-0.00547809 -0.00174451 0.0257407 
0.00082945 -0.00085207 0.000794238 
0.00105335 -0.0227781 0.00855466 
-0.0104337 -0.024673 0.0942852 
-0.00445363 -0.00131521 0.0755667 
0.00562798 -0.0168486 0.0409223 
-0.00159815 -0.00315303 0.00523097 
0.00609281 0.00231859 -0.000350157 
-0.0137456 -0.00461291 0.0324784 
-0.00965165 -0.00613097 0.0267586 
-0.00108594 -0.000879257 0.000961214 
-0.00117398 -0.00164805 -0.00493674 
-0.00656456 0.00943983 0.0202095 
-0.00310524 0.00278523 0.027073 
-0.00635357 -0.000912459 0.0337892 
0.000332183 0.00080149 -0.00121124 
0.000993401 0.00035159 -0.000356192 
0.00159011 0.000101954 0.0318688 
-0.00159642 -0.00091806 -0.00272283 
0.000146284 0.00642145 0.037233 
0.000490583 -0.00153973 0.00146215 
-0.00349204 0.00313732 0.0300264 
-0.00272248 -0.00175319 -0.00146302 
-0.000211765 -0.000583451 0.0339346 
0.0065256 0.00268676 0.0220382 
0.000339419 0.001282 0.0291257 
-0.0218941 -0.0227713 0.0998021 
-0.0457668 -0.064562 -0.0488688 
0.01234 0.000294381 0.231175 
-0.00358711 -0.0202022 0.236383 
-0.0116035 -0.00212968 0.0358779 
-0.0106167 -0.00253003 0.0280807 
0.00387423 0.00153896 -0.00403875 
0.00478041 0.000891466 0.0314429 
0.000380013 -0.000606005 -0.000451434 
-0.000893604 0.00135001 -0.000405549 
-0.000260379 0.000469925 -0.00106724 
-0.000417224 0.000664473 0.000478557 
-0.00840192 -0.00805192 0.0275392 
-0.00703719 -0.011581 0.0297507 
-0.00319211 -0.00111774 0.00508651 
0.00370188 0.00504149 -0.00109906 
-0.000556205 -0.00538707 -0.0050968 
0.0260881 0.000254657 0.0386601 
-0.00211973 0.00523381 -0.00667102 
0.00434732 -0.00446194 0.0253128 
-0.00181875 0.0118688 0.031755 
0.000137706 -0.00478332 -0.00323669 
-0.0007656 0.0112079 0.0299618 
-0.000179959 -0.00290076 0.0340113 
0.00125377 0.00141051 0.00325103 
-0.00168109 0.00570643 0.0244168 
-0.00108781 -0.00106802 0.000802635 
-0.000871698 -0.000997361 -0.00264848 
-0.0185123 -0.0473322 0.152521 
0.0731098 -0.00194943 0.140685 
0.000441957 -0.0227589 0.291754 
-0.0362243 -0.0514455 0.129994 
-0.00237209 0.000138883 0.0523595 
-0.000131525 -0.000196302 0.0659538 
-0.00458495 -0.000751798 0.0640597 
-0.00410407 0.00103948 0.066359 
-4.44726e-05 0.000517478 -0.000277177 
-3.97252e-05 0.000342685 -0.0031315 
3.23586e-05 -0.000270444 0.00276051 
-0.0017336 -0.00399957 0.0291442 
0.00367896 -0.000760158 0.0768058 
0.000630486 -0.000509197 0.0820922 
0.00060134 0.000817566 0.0838815 
0.00239889 -0.00097124 0.0808436 
0.0161442 -0.0145104 -0.0449961 
0.00240788 0.0268351 0.0161583 
0.00845243 0.0341319 0.0382753 
0.0101062 0.0760013 0.16102 
0.001246 0.00199036 0 
0.000676825 0.000404016 -0.00222272 
-0.00112524 -0.000267408 0 
-8.91102e-05 0.0004516 0 
0.00120263 -3.1132e-05 -0.0010799 
-0.00532535 0.00546726 0.0258616 
0.00199653 -0.000676064 -0.00926266 
-0.00668078 0.00291482 0.0292334 
-0.00668518 -0.00515967 0.0268334 
6.3836e-07 0.000777783 0.0336392 
-0.0083655 -0.00770135 0.0477552 
-0.000168885 -0.00128041 0.0404581 
-0.0023049 0.013465 0.0499522 
-0.00417005 0.0127684 0.0450879 
-0.00398876 0.0124833 0.0294658 
0.00102493 -0.00375379 0.0369244 
0.00339843 -0.000336484 0.00512595 
-0.00422727 0.00471931 -0.000301828 
0.00934327 -0.0109543 0.0325968 
0.0094845 -0.00660668 0.0273266 
-0.0126902 -0.039759 0.263565 
-0.00573747 0.000376488 0.242863 
0.000110151 -0.0105323 0.246357 
0.037028 0.10683 0.190942 
-0.00883736 0.00314807 0 
-0.0068528 0.0149473 0 
0.00777687 -0.0117007 0 
0.0203726 -0.034541 0.0240451 
-0.000156919 -0.000307912 0.000253078 
-5.87309e-07 -1.23502e-06 -0.000122864 
0.000126381 0.000248344 0.000329072 
0.00066341 0.00108585 0.0386468 
0.00198252 0.0034555 0.0787491 
0.000943188 0.000335663 0.0842035 
0.00114053 0.00209719 0.0819906 
0.00378124 0.00169826 0.0782911 
0.00224648 0.00243481 0.0387253 
-0.000341442 -0.000570567 0.0280149 
0.000450103 -0.000457307 0.0569389 
0.00216678 -1.28875e-05 0.0296593 
-0.000176984 -0.00211438 -0.00187303 
0.000227053 0.00184885 -0.00105032 
0.00201038 0.00165006 -0.00293438 
0.00170411 -0.0155873 0.0202502 
-0.00289589 0.00973395 0 
0.00611814 -0.00908007 0 
-0.00182973 0.00701137 0 
0.0139094 -0.0246066 0.0224763 
0.011634 0.0319859 0.282116 
0.0129939 0.0546106 0.149853 
-0.0789307 0.0368241 0.0384285 
0.0290907 0.0384322 0.150278 
0.000304754 -0.00154845 0 
-0.000562721 0.00247616 0 
-0.0066042 0.00055653 0 
0.002244 -0.00342344 0.00649463 
-0.000913642 0.00307561 0.00507001 
-0.00805972 0.00825832 0.0260961 
-0.0125157 0.00742244 0.0310084 
0.00557803 -0.00373096 -0.000946188 
0.00105201 0.000619023 0.0350374 
-0.000538619 -0.000390016 0.0608564 
-0.00908567 -0.00731462 0.0473999 
-0.000154039 -0.000937489 0.0412259 
-0.00250849 -0.00194768 0.0482304 
0.000146405 -0.000545862 0.0348564 
-0.000112496 -0.000513783 0.0467212 
-0.00109555 -0.00135716 0.0581111 
7.02421e-05 -2.91782e-05 -0.000107335 
1.66474e-05 0.00115725 0.0386005 
0.000205621 -0.00048681 0.000351221 
-0.00068311 0.000810087 0.0308853 
0.000675488 0.000174991 -0.00598549 
0.00174405 0.00088469 0.00153534 
-0.000872172 -0.000389545 0.00130736 
0.000410093 -0.00647281 0.0233106 
0.000434668 -0.00100546 -0.00117947 
-3.09027e-05 -0.000208753 0.00594032 
-0.000925007 0.00236084 -0.00211167 
-0.00388554 -0.00208214 0.0124906 
0.000400403 -0.00349927 0 
0.0016452 -0.000344787 0 
-0.0016638 0.00140549 0 
-0.00335528 0.0022932 0.00105071 
-0.000218686 -1.77751e-05 0.000356359 
9.69154e-05 7.87739e-06 9.7519e-05 
-5.02949e-05 -4.08803e-06 -7.9061e-05 
0.000182023 0.000524819 0.0336257 
0.00735057 0.0027401 0.0244906 
-0.000381836 -0.000738007 0.0333491 
0.0096925 0.00390696 0.046311 
0.000184509 -0.000263974 0.0278092 
1.50557e-05 -1.87773e-05 -0.000415995 
-0.000244235 0.000106791 0.000946329 
0.000514842 -0.000206341 -0.00144428 
-0.00136932 -0.000571238 0.0417447 
1.29904e-05 -0.000150952 -0.000111538 
5.11443e-05 -0.000594308 0.000663261 
-5.36411e-05 0.000623322 0.000409239 
0.000178674 -0.00108042 0.0369306 
0.0282494 -0.0358067 0.0124773 
0.0108722 -0.0238936 0.142654 
0.0129385 -0.0612595 0.113351 
-0.00963942 -0.0332308 0.142645 
-0.00744929 -5.66542e-05 0.071647 
-0.00633332 0.000302502 0.063207 
-0.00431638 -0.000953275 0.0641986 
-0.00434269 0.000225421 0.0661595 
-0.0326171 0.0292341 0.0986178 
0.00622559 -0.00233672 0.277359 
0.00562174 0.0363405 0.155228 
-0.0521489 0.068576 0.00450387 
0.00195295 0.00447542 0 
-0.00269935 -0.00972411 0 
-0.00213966 0.00181677 0 
-0.0153462 -0.0058581 0.00750613 
0.0117369 -0.00237268 0.0322826 
0.01176 -0.000904701 0.0323075 
-0.00393424 0.000318201 -0.00250993 
-0.00391104 -0.000116322 0.0334309 
-0.00656503 0.00326795 0 
0.0353433 0.0102699 0 
-0.0143477 -0.00682701 0 
-0.0152552 -0.0388369 0.0311285 
-0.000725285 0.000743025 -0.00153442 
0.000131133 -0.000133181 0.000502206 
0.0003773 -0.000386917 0.000722791 
-0.0012621 -0.000690506 0.038692 
0.0115238 -0.0144158 0 
-0.0226677 0.00274926 0 
0.00435011 -0.00748496 0 
-0.0345582 0.00558641 0.0305903 
-0.000616914 0.000838045 0.00138244 
0.00052799 -0.00073545 0.000718674 
0.000389193 -0.000523496 -0.00141556 
0.00253953 -0.00116515 0.0392934 
0.00379284 -0.000568826 0.0765754 
0.0042823 0.00127547 0.0786034 
0.000705623 0.000459491 0.0841778 
-0.000531611 0.000493917 0.0775926 
-0.000103667 -0.00039846 -0.00100975 
0.00108283 0.00025717 0.000697271 
0.00120865 0.00024178 -5.2737e-05 
-0.000132303 -0.000382714 0.00230276 
0.00207554 0.0112093 0.0578025 
0.00320041 0.00952344 0.0709272 
-0.000587274 -0.000959924 0.0723282 
0.000261554 0.00125207 0.0575182 
9.81308e-05 0.00354267 0.0402357 
-0.00126198 0.0104943 0.0168592 
-0.00231936 -0.00360984 -0.00288446 
0.00178125 0.0165362 0.0295574 
0.000768804 -0.00340022 0.00535396 
0.00806335 -0.00710708 0.0262843 
0.0125591 -0.00664015 0.0317783 
-0.00535899 0.00270424 0.000125682 
9.43444e-06 7.02781e-06 0.000203655 
0.000169866 6.56838e-05 -0.00126014 
-0.000496863 -0.000236358 0.000104688 
0.00128039 0.00182386 0.0274934 
-0.00354276 -0.0144374 0 
-0.00071426 -0.00336938 0 
0.0035061 0.0109513 0 
-0.00415447 -0.029442 0.0377668 
-0.000750284 0.000596928 -0.00092693 
0.000172665 0.000817309 -0.00018992 
0.000756049 -0.00589868 0.0304116 
0.000485387 0.000837026 0.0340078 
0.00785522 -0.00833392 0.0653114 
0.00511472 -0.011202 0.0625099 
0.00438285 -0.00780519 0.0738451 
-0.0017391 0.00214795 0.0730519 
-0.0015999 0.00303616 0.0528224 
-0.00280702 0.00200988 0.0699812 
-0.000554838 0.000104479 0.0696406 
0.000714088 -0.000208962 0.0604753 
-0.000338756 -0.00182978 0 
-0.00293097 -0.00221751 0 
-0.00419369 -0.0014039 0 
0.00303708 0.0132471 0.00250715 
0.0733344 -0.0303664 0 
-0.0777144 0.027715 0 
0.0597462 -0.0187447 0 
0.0592588 -0.0249787 0.188634 
0.0048029 -0.000264089 -0.00587601 
-0.00112038 -0.00210113 0.000161136 
-0.00246755 0.00157305 0.000746809 
-0.0163862 0.00893323 0.016618 
-0.00258114 -0.00555927 0.069911 
-0.00184976 -0.00211618 0.0561152 
0.000434469 -0.00351647 0.0541962 
-0.000266967 -0.00448318 0.0629373 
0.00927726 0.00302664 0.0712079 
0.00985007 -0.000168789 0.0698121 
0.000169505 0.000612627 0.0793854 
0.000684495 -0.000207114 0.0671025 
-0.00304783 0.0164541 0 
0.0142645 -0.00445905 0 
0.0045715 -0.0105878 0 
-0.00244787 0.0224696 0.0122693 
0.000259436 -0.000884386 0 
-0.00130335 0.00350665 0 
-0.00162774 -0.000915089 0 
0.00156907 -0.00345535 0.00352113 
0.00523737 0.00347949 0.0303887 
-0.000105157 0.00149877 0.00448041 
0.000196103 -0.00279498 -0.00167499 
8.50945e-05 -0.00121282 -0.00228016 
0.00184783 -0.000668764 -0.00288403 
-0.00172617 0.000597264 0.00346613 
0.00109318 -0.000490255 0.000952581 
-0.00427603 -0.00328432 0.0271893 
0.00761844 0.0182143 0 
0.0113273 0.00191222 0 
-0.0113615 -0.0195809 0 
-0.0157185 -0.0311582 0.0274832 
0.00900351 -0.000391131 0 
-0.000601267 -0.00712934 0 
0.00388596 0.00686604 0 
-0.0225188 -0.0148506 0.00342287 
-0.00893426 0.010861 0.0470453 
-0.0103318 0.00924982 0.0501864 
-0.0106762 0.00817874 0.0303796 
0.00454683 -0.00368061 0.0389853 
-7.58366e-06 3.00793e-05 -0.00046333 
-0.000890506 0.00122894 0.00141255 
0.00134806 -0.00188899 -0.00144503 
-0.000268017 -0.00126879 -0.000822162 
0.00532712 0.00370902 -0.00028674 
-0.0112428 -0.00873227 0.0328983 
-0.0105352 -0.00439546 0.0271208 
-0.00355736 0.000224177 0.00502316 
6.12184e-05 -0.000801431 -9.55891e-05 
-0.000705219 -4.86736e-06 0.00116567 
-0.000186448 -0.000621489 0.0365007 
-0.00229951 0.00262425 0.0305753 
0.00781689 -0.0027442 -0.0043962 
0.00110326 -0.000176408 -0.00013033 
0.000282098 -0.000462545 -0.00178493 
-0.0202714 -0.0113705 0.0161001 
4.86891e-05 3.16802e-05 -0.000296347 
0.000119907 8.37418e-05 0.000362645 
-7.24469e-05 -4.94752e-05 -5.13918e-06 
-0.000390526 5.84632e-05 0.0383817 
-0.00339504 -0.00732338 0.0691919 
-0.00487808 -0.0136017 0.0654846 
0.00135036 -0.0138111 0.0675578 
-0.00516759 -0.00711527 0.0674959 
-0.00224491 0.00570775 0.0566722 
-0.00402733 0.000429946 0.0348951 
0.000665712 -0.000727943 0.0419348 
0.00188047 0.00418455 0.0308179 
-0.000205431 -0.00029053 -0.000351403 
0.000210411 -0.00118621 -0.000304786 
0.000220345 0.000341401 -0.000225622 
-0.000724254 -0.00105545 -0.000607989 
-0.00685364 -0.00421944 0 
-0.00205194 0.00513378 0 
0.00450527 0.00607651 0 
0.0142847 -0.00534391 0.0070305 
-0.000299969 -0.000205714 0.000640747 
-4.63336e-06 -2.78538e-06 0.000839079 
0.000113039 7.74415e-05 -0.000408026 
0.00176702 0.00142075 0.0282539 
-0.000200997 0.00111688 0.0399484 
-0.00103655 0.000492992 0.0321731 
-0.00244958 0.00123111 0.0513514 
0.000531546 0.00145578 0.030695 
0.0324122 0.0700795 0 
-0.0246667 -0.0763764 0 
-0.0309408 -0.0628373 0 
-0.0322966 -0.0562482 0.229168 
-0.00427247 -0.000533407 0.0641318 
-0.00604005 -0.00039565 0.0622865 
-0.0017035 0.000290822 0.0525768 
-0.0043889 0.000602589 0.0663408 
2.61422e-05 -0.000227265 0.000696371 
-1.49919e-05 5.40861e-05 -0.000842016 
-1.56956e-06 2.91972e-05 4.84861e-05 
-0.00056932 -0.000483986 0.0328682 
-0.00012671 -0.000124685 -0.000416688 
1.02315e-05 1.01653e-05 0.000201972 
0.000104337 0.000102741 0.000466489 
0.000799849 -0.000476958 0.0357543 
-9.5196e-05 0.00118656 -0.000171999 
0.000747923 0.00110172 -0.000892857 
-0.00194479 -0.000368368 -0.00199731 
0.00587205 -0.00032046 0.00791701 
0.000334576 -2.87926e-05 1.53704e-05 
-9.75625e-05 8.39593e-06 -3.8371e-05 
0.000114875 -9.88575e-06 0.000633703 
-5.2852e-06 -0.000246077 0.0295025 
-0.000587764 4.77741e-05 0.000925792 
-0.000485469 3.94594e-05 -4.42941e-05 
0.00186306 -0.000151431 -0.00121734 
0.00206326 0.00385258 0.0363727 
0.00398868 -0.000717986 0.0767038 
0.00217928 -0.000602593 0.0805127 
0.000737803 0.000463944 0.0842132 
0.00402833 0.00128556 0.0783464 
-0.0170643 -0.0102349 0.227839 
-0.00800511 -2.51271e-05 0.279337 
-0.00396472 -0.00816784 0.252072 
-0.0147753 0.0408344 0.253347 
0.00541546 0.0101789 0.0426995 
-0.000119664 -0.000756626 0.0307806 
0.00042809 -0.000653161 0.0469895 
1.85384e-05 0.00111577 0.0573327 
-2.93378e-05 4.28653e-05 -0.000410034 
-2.35533e-05 3.47754e-05 0.000161637 
0.000116567 -0.000171128 0.000526545 
0.000637694 0.000583836 0.0338109 
-0.000475164 -0.000146356 -0.000337393 
-0.00155907 0.000443238 -0.000583631 
0.00632323 -0.00293359 0.0314972 
0.000581047 0.000652355 0.0334668 
-0.0135398 0.0314929 0 
0.0190622 -0.0207671 0 
0.00377902 -0.0348681 0 
0.0238381 -0.0480568 0.0752448 
-0.0011617 0.00214133 -0.00165476 
0.000868378 -0.00183278 -0.000213729 
-0.00117378 -0.00317788 -0.000186541 
-0.00152202 0.00128843 0.00142594 
0.00118924 0.0124039 0.0588707 
0.000784287 -0.00188922 0.0371994 
0.00265263 0.0111344 0.0371462 
0.000914532 0.00036614 0.0574262 
-0.000591523 -0.00152153 -0.00177827 
0.000380075 -0.000328228 0.00114662 
0.00132709 -0.00134723 -0.00112836 
-0.00132756 0.00132615 0.000578856 
-0.000317796 -2.69875e-05 -0.00498795 
-0.00243224 -0.00118681 0.00029799 
0.000599913 0.000259813 0.00121838 
0.00333044 0.00549702 0.0227392 
-0.000831199 -0.000808526 0.000952882 
0.000431903 0.000409873 -0.000751832 
0.000387264 0.000397513 7.73541e-05 
0.00138612 -0.000279148 -0.000945104 
-0.00037574 -0.00735865 -0.00122794 
0.000731465 0.0115787 0.0255605 
0.00336151 0.0150021 0.0378721 
0.00102553 0.00334544 0.00485216 
0.00984605 0.00292112 0.0699409 
0.0069066 -0.00411822 0.0661194 
0.00874492 0.000950132 0.071209 
0.013268 -0.00554896 0.0663316 
-0.00312804 0.0126455 0.0505651 
-0.00123586 0.0106302 0.0288011 
-0.000743151 0.0119556 0.0430485 
0.00130264 -0.00194934 0.0359523 
-0.000910335 -0.00180894 0.0441444 
-0.000930552 -0.00128907 0.0544185 
0.00117522 -0.00235401 0.0562316 
0.00104202 0.00165726 0.0309435 
0.0241932 -0.0305065 0.0700538 
0.000876364 -0.0222303 0.152114 
-0.0100593 -0.0186023 0.0617674 
-0.000131003 -0.00888837 0.0713298 
0.009293 -0.0016208 0 
0.00427136 -0.00348215 0 
-0.00223258 0.0033645 0 
-0.0126589 0.0134061 0.00500862 
0.00744144 -0.000143811 0 
-0.00697524 -0.00618538 0 
-0.00453622 -0.00396358 0 
0.0234443 0.0109717 0.00721584 
-0.00843577 -0.00686863 0.0657885 
0.000412722 -0.000514144 0.0611159 
-0.00954841 -0.00410603 0.0693345 
6.89127e-05 -0.000502962 0.0761722 
-0.00620666 0.00891357 0.0253391 
-0.00871929 0.0108654 0.0473544 
-0.00854675 0.00832196 0.0319297 
0.00158038 -0.00381024 0.0357565 
0.00220855 0.00102433 -0.00265115 
-0.00206466 -0.000986576 0.00357106 
0.00103982 0.000423682 0.000960716 
-0.00076702 -0.00516436 0.0236985 
-0.00479781 0.0115869 0.0605342 
-0.00100094 0.0110471 0.0669957 
-0.003621 0.00869452 0.0723468 
-0.000364158 -0.00164824 0.0700608 
0.00208881 0.00206291 -0.00260982 
0.00126468 -0.000960242 -0.00145854 
-0.000217504 0.000234162 -0.000847668 
-0.00854136 -0.0117976 0.0143605 
0.000200374 -0.000391444 0.0716937 
0.000521618 0.00123961 0.0573535 
-0.000626808 -0.0016868 0.0697569 
-0.00110119 -0.00427524 0.0637309 
-0.000107318 7.8761e-05 -4.57567e-05 
0.000339631 -0.000249098 0.000112433 
-0.000184085 0.000132643 0.000425258 
0.000743794 -0.000872156 0.0325391 
-0.00159682 -0.00428888 -0.00790136 
0.00328172 0.00642675 0.0124535 
-0.000793725 -0.00283241 -0.00457992 
0.00794915 0.00728769 0.0142649 
0.00224382 -0.0582708 0.084762 
0.013528 -0.0229897 -0.033981 
0.0404925 -0.0409625 0.108237 
0.0330088 -0.0239185 0.196799 
0.000791855 -0.00159264 -0.000439906 
-0.000494853 -0.000289998 -0.000392134 
-0.00181939 0.00627645 0.0299018 
0.000380622 0.00018532 0.0338344 
0.00199859 0.00347713 0.0787438 
0.000799615 0.00208022 0.0820033 
0.00459175 0.00483389 0.0751399 
0.00358838 0.00159109 0.0783205 
7.18623e-06 3.00741e-07 -2.4138e-05 
0.000215919 1.95218e-05 0.000346521 
-4.13869e-06 -5.86787e-06 -0.000568173 
0.000247048 -0.000184968 0.0337176 
-0.000146984 6.76224e-06 -0.000509189 
-0.000203645 1.86243e-05 0.000349388 
6.00486e-05 -3.37442e-06 0.000138295 
-0.000536243 -0.00049257 0.0357846 
-0.0102863 0.00925525 0.0776024 
-0.0196614 0.00910572 0.051291 
-0.0118842 -0.0101667 0.0338878 
-0.00429268 -0.000957769 0.02307 
0.0010825 -8.73282e-05 -0.000774761 
-0.000280349 2.55382e-05 -0.000514262 
-0.000434493 3.28955e-05 0.00083864 
0.00218201 0.00110656 0.0360091 
-0.000121669 0.000109105 0.000391514 
3.89197e-05 -3.97392e-05 3.47651e-05 
2.77529e-05 -1.78039e-05 -0.000323541 
-0.000609772 -0.000469745 0.0335456 
-0.00425614 -0.014525 0.148868 
-0.0115941 0.0109437 0.221403 
-0.000161787 0.00900262 0.276319 
0.0965546 -0.0224276 0.205373 
0.040237 0.0251088 0.12023 
0.00397715 -0.0019716 0.242777 
0.0504356 0.00205872 0.129413 
0.0411862 0.025561 -0.0679047 
-0.0211926 -0.0311472 0.1436 
0.0334979 -0.0131909 0.157231 
-0.00631169 0.00782347 0.271968 
0.070213 -0.040421 0.145818 
-9.73899e-06 0.000116095 -3.33406e-05 
-1.50413e-06 1.79302e-05 -4.33155e-05 
2.62976e-07 -3.13484e-06 6.31616e-05 
-0.000119823 5.25482e-05 0.028486 
-0.0012493 0.00189698 -0.00422363 
0.00192038 -0.00269841 -0.00581996 
0.000333343 -0.000511853 0.00144915 
0.0128782 0.00271262 0.0330987 
-8.64521e-05 0.00122105 -0.00171743 
6.79268e-05 -0.000959399 0.00446736 
-0.00620332 -0.00282702 0.0345671 
-0.000162392 0.00229363 -0.00201862 
-5.72412e-05 -0.000832362 0.00436648 
6.72513e-05 0.000977921 -0.00190422 
0.0059043 -0.00299659 0.0330454 
0.00016494 0.00239844 -0.00196391 
-0.00926106 -0.00713207 0.026365 
-0.0104316 -0.00911809 0.0475763 
-0.00832584 -0.008365 0.0309156 
0.00317706 0.000521732 0.040162 
0.00200495 -0.00150902 -0.000335891 
-0.00017406 0.00163723 0.00329075 
0.000457651 -0.0039915 -0.0048212 
0.00692287 0.00718121 0.00976101 
0.00341343 -0.0144986 0 
-0.00580173 0.00288623 0 
-0.00471189 0.0136048 0 
0.00663895 -0.0284813 0.0241363 
2.44204e-06 -3.00443e-05 -0.00012111 
2.17528e-05 -0.000267624 4.36196e-05 
-2.85456e-06 3.51196e-05 0.000755953 
0.000461064 0.000798318 0.0319847 
0.00305117 0.0111591 0.2464 
-0.00721471 0.00321814 0.270046 
0.00353955 -0.00098924 0.240943 
0.000206353 -0.0383685 0.220587 
0.00112709 -0.0139444 0 
-0.00909185 0.00378398 0 
-0.00511711 0.00214068 0 
0.0287842 0.0125972 0.0244469 
0.0323012 0.00940758 0.13158 
0.00555285 0.00619493 0.260154 
0.0250494 -0.023994 0.113462 
0.0736223 -0.0425599 0.0894904 
0.00168164 0.000976945 0.00359388 
-0.00177049 -0.00105947 -0.00293208 
-0.000895255 -0.000614994 0.000701919 
0.00494414 -0.00286964 0.0259975 
0.000133348 -4.97333e-05 0.000585493 
-8.2839e-05 4.66028e-05 0.000252751 
-0.000174374 6.30492e-05 -0.000843529 
-0.000140609 -0.00097738 0.0298979 
-0.000400694 0.000450833 -0.00117345 
0.00111813 0.00164848 -0.00338653 
-0.0017176 0.000597691 -0.000267293 
-0.00146753 -0.0111911 0.0111162 
-0.0124905 0.00252131 0.0491975 
-0.00980854 0.00127607 0.0271181 
-0.0105943 0.00282295 0.0283037 
0.00337684 -0.000212547 0.0364175 
-0.0098665 -0.010073 0 
-0.0171853 -0.000362724 0 
0.0318049 0.021365 0 
-0.0747035 -0.0366751 0.0704827 
-3.0895e-05 -2.09359e-05 0.000121979 
-2.25927e-05 -1.55168e-05 -0.00032385 
-9.61321e-05 -6.50624e-05 0.00054182 
-0.000584617 0.000646034 0.0323358 
0.000946723 -0.00199762 -0.00316044 
0.000419725 -0.00105015 0.00127814 
-0.00552297 0.000583608 0.0256355 
-0.000951854 0.00199078 0.00346528 
0.00218162 0.000921749 -0.00146753 
-0.00117651 -0.000610869 0.00660065 
-0.00170849 -0.000656649 -0.00217959 
0.00555953 -0.0030348 0.0137029 
-2.86185e-05 -2.44666e-06 -1.32663e-05 
0.000199107 1.8061e-05 0.000346508 
6.4212e-05 3.38645e-06 -0.000484888 
-0.000579053 -0.000228017 0.0364605 
5.27905e-05 9.69118e-05 0.000465068 
-2.44589e-05 -2.56889e-05 -0.000807098 
-1.44554e-05 -4.20764e-05 0.000351172 
-0.000668657 0.000870839 0.0316862 
-0.000570867 -0.000960763 -0.00246032 
-0.000865806 -0.000681558 0 
0.00112129 0.00196071 0 
0.00088466 0.00175184 0 
-0.0713831 -0.00440481 0.104311 
-0.0157302 0.00390371 0.0111585 
-0.0536847 0.00803135 0.0403154 
-0.0128762 -0.0223678 0.0384222 
-0.00381892 0.000652374 -0.00120683 
0.0024542 -0.000564528 0.000324718 
-0.00164654 -0.00121414 0.000131644 
0.00515391 -0.00212026 0.00294918 
6.16797e-05 4.22048e-05 -0.0046512 
2.71381e-05 -1.34239e-05 0.000530217 
0.00174173 -0.000452542 0.00108906 
0.00286825 0.00189056 0.0280211 
-0.0128037 0.00285952 0.0489577 
-0.011602 0.0039118 0.0271741 
-0.0123131 0.00601909 0.0422559 
0.00465972 -0.00160208 0.0391406 
0.00126101 0.000527057 0.000452681 
-0.00174477 -0.00203473 -0.00319393 
-0.000187297 0.000964501 -8.56734e-05 
0.00836335 0.00162989 0.00629867 
0.000643425 4.94536e-06 0 
0.00074412 0.000653669 0 
0.000227415 0.000477873 0 
-0.000238244 -0.00130342 -0.0013924 
0.00287091 -0.00190411 0.0048998 
-0.00282329 0.00576931 -0.00111407 
0.0046222 -0.0123181 0.0287406 
0.00679939 -0.00965094 0.0276328 
-0.00124595 0.000963296 0.000846688 
-0.001148 0.000798235 -0.00459375 
-0.00130455 0.00102271 0.00173533 
0.00419057 -0.0125942 0.0193448 
-0.00239061 -0.000169258 -0.00199537 
0.00317796 -0.00567271 0.0314324 
0.00089308 6.32313e-05 0.0043139 
-0.00110291 -7.80875e-05 -0.00169848 
-1.19438e-05 -5.40621e-05 -0.000643446 
1.94147e-05 0.000160996 0.000603898 
-1.2359e-06 -2.76606e-06 -8.36786e-05 
-0.000277565 0.00034507 0.0334633 
-0.00219155 0.00145421 0.0553391 
-0.000588824 0.00117156 0.0328029 
-0.00080575 0.000751383 0.0384728 
-0.000968159 3.37964e-06 0.0305875 
-0.0011868 -0.00152528 0.00152334 
0.000595153 0.0042333 0.039216 
-0.00220713 -0.00017622 -0.00258816 
0.00228111 0.00954909 0.0272978 
0.000243749 0.000182636 0.00164362 
-0.000946889 -0.000901051 -0.00158666 
0.00131248 0.00155863 -0.00555766 
-0.00833491 0.00250438 0.0188686 
0.000393326 -0.00104343 0.0563112 
0.00214855 0.00279542 0.038717 
-0.0020796 -0.00128734 0.0368037 
-0.000205464 -0.0011824 0.0279395 
-0.00717738 -0.00108927 0 
-0.0134188 0.00199242 0 
-0.00987127 -0.01203 0 
0.0855733 0.0223202 0.011978 
0.0109979 0.00221301 0.0302208 
0.012708 0.00407554 0.0453482 
0.0098268 0.00336031 0.0247414 
-0.00334893 -0.00159984 0.032792 
-0.00660628 0.0103516 0.0289057 
-0.00303827 -0.000476905 0.00599147 
0.00121422 -0.00414366 0.00120037 
-0.00621545 0.0048132 0.0229697 
0.000279757 -6.23093e-05 2.14851e-05 
-0.000789747 0.000230531 0.0309624 
-0.000578267 0.000179025 0.0332217 
-0.00118069 -0.000244319 0.0289531 
-0.00911407 0.00429244 0.0250767 
-0.00243403 0.00173625 0.00515175 
0.00611673 -0.0011337 -0.00237183 
-0.0115941 0.00213345 0.0270108 
-0.000580629 -0.00168887 0.00349597 
0.0034255 -0.00391656 0.0262281 
0.000402727 0.000913939 0.000595602 
0.000598486 0.00170222 -0.00315084 
0.000454698 -0.000301688 5.12287e-05 
-0.000331182 0.000225881 0.000149026 
-0.000614292 0.000371816 -0.0011537 
-0.000450203 -0.000107361 -0.000637762 
-0.0213527 0.0314567 0.00301772 
-0.00514807 0.0149742 0.0515208 
0.0113892 0.00631757 -0.024079 
-0.0244171 0.0138847 0.0556671 
-0.000385133 0.000145356 -0.00175305 
-0.0018681 0.000829564 3.66429e-05 
0.000442026 -0.000151101 0.0030907 
0.000973288 0.00183734 0.0108637 
0.000683978 0.00267064 -0.00486883 
-0.000541177 -0.00221148 0.00204654 
0.000724379 0.00297489 -0.00246844 
-0.00634233 0.00371281 0.0229799 
0.00413963 0.00231213 0 
1.72977e-05 -0.00492549 0 
-0.00227215 -0.000209325 0 
0.0173124 0.00450242 0.00240155 
0.0383121 -0.00133082 0.113078 
0.063016 0.0428695 -0.0142954 
0.0259211 -0.000139252 0.263054 
0.0221586 -0.0242503 0.153595 
0.000855307 -0.00260003 -0.000569893 
1.42342e-05 -0.00350032 -0.00233783 
0.000261082 0.0145088 0.0186434 
0.000673295 0.00716485 0.0273278 
6.32255e-05 -2.73674e-05 0.000119158 
-2.26077e-05 2.08142e-05 0.000302292 
-2.99052e-06 6.46781e-06 0.000156155 
0.00044009 0.000721338 0.0372511 
9.24253e-05 7.95384e-06 0.000282195 
-0.000297156 -2.55723e-05 -0.000174857 
-8.18727e-05 -7.04571e-06 0.000830644 
-0.000468012 -0.000252711 0.0365229 
-7.45859e-06 -9.14275e-05 -5.97144e-05 
3.88278e-06 4.75952e-05 -0.00019843 
-9.47268e-06 -0.000116116 9.09243e-05 
-0.000179828 5.69921e-05 0.0292194 
0.0125859 0.00421513 0.0446982 
0.0123278 0.00113875 0.0290947 
0.0132203 0.00157705 0.0468907 
-0.00431822 -0.000941432 0.0359044 
0.000885934 0.0136593 0.0424593 
0.00407239 0.0131877 0.0364488 
0.00202922 0.013955 0.0579492 
-0.000463713 -0.00476526 0.0394335 
-0.000373468 0.000839105 0.0467418 
3.04986e-05 0.000235738 0.0287465 
-0.0029453 -0.000294983 0.0517399 
-0.00104493 -0.000151249 0.0304607 
-0.0272549 -6.58949e-05 -0.000201132 
-0.0172138 -0.00225009 0.0178706 
0.00422155 -0.000966873 -0.0098052 
-0.0221104 -0.00338567 0.0417308 
-0.0047534 -0.00912511 0.232457 
0.011769 0.0240621 0.112349 
-0.00628095 0.0433055 0.148253 
0.0611567 0.0348396 0.0759136 
-6.04406e-05 2.65009e-05 0.000129617 
4.12186e-06 -6.75765e-06 0.00031462 
0.000174287 -7.23885e-05 -0.000637053 
0.000429648 0.000622476 0.0372462 
0.00616043 -0.00717166 0 
0.00386727 -0.00879751 0 
-0.00637518 0.0112974 0 
-0.0207325 0.0103736 0.0129002 
0.00426588 -0.00212506 0 
0.0108078 -0.0122342 0 
-0.00640286 0.0139095 0 
0.0189816 -0.00811615 0.0386992 
0.0049842 0.00790864 0.0555672 
0.00326899 0.00486923 0.0758373 
-0.000920143 -0.00347816 0.0746425 
0.00856293 0.00528377 0.0569082 
-5.82919e-06 8.89673e-05 -0.000393552 
2.60908e-06 -2.9335e-05 -3.83523e-05 
-1.79597e-05 0.000207074 0.000158759 
8.70403e-05 -0.000585217 0.0372257 
0.00220852 0.00185495 0.0540947 
-0.000684033 0.000271903 0.0608483 
9.18711e-05 -0.000341718 0.0349371 
-0.000401213 -0.00124129 0.0411996 
6.44776e-05 -6.69284e-05 -0.000808555 
9.02017e-05 -9.30988e-05 -0.00016285 
-5.36423e-05 5.54947e-05 0.000332669 
-0.00108269 0.000493394 0.0383769 
0.00462376 -0.00566872 0.0702716 
0.00333452 -0.0073884 0.0676782 
0.00107533 1.64726e-05 0.0484533 
0.00136446 -0.00347836 0.062528 
0.00179768 -0.00155903 0.00073437 
0.000531921 -0.00256561 -0.00582708 
-0.00810424 -0.00594985 0.0208688 
-0.00213113 -0.00378348 0.0238231 
-0.0264627 -0.00143058 0.14017 
-0.00932397 -0.0152108 0.164155 
0.00812789 -0.000520942 0.235228 
-0.0594135 -0.0114531 0.178081 
-0.00676586 -0.00813442 0.0659804 
-0.00406205 -0.0091545 0.0702531 
0.000406839 0.00125022 0.0667509 
-0.00129238 0.000112768 0.0760007 
5.4925e-05 -1.37937e-05 0.000170601 
0.000168513 -3.58379e-05 -0.000309394 
-0.000152751 3.79236e-05 -0.000418215 
-0.000563664 -0.000545059 0.0359617 
0.00435035 0.00512958 0.259559 
0.00580492 -0.00658262 0.232834 
-0.0139402 -0.00737394 0.135269 
-0.046734 -0.0108936 0.230622 
-0.0117569 0.00232391 0.0289611 
-0.00284602 0.000851836 0.00463423 
0.00630473 9.40722e-05 -0.00178859 
-0.0113794 0.000279933 0.0259297 
0.0736613 0.0316531 0.030812 
0.0227769 -0.00378215 0.149686 
-0.0165121 -0.00379471 0.136754 
0.0220628 0.0189244 0.149787 
0.000754289 0.000805499 0.00184207 
0.000705394 0.000737932 0.00121494 
-0.000561533 -0.000602609 -0.00146896 
-0.00605475 -4.07027e-05 0.0187591 
-0.00430673 -0.00870856 -0.00749702 
-0.00098653 0.000304967 0.000165461 
9.69423e-05 0.000732827 0.000349032 
-0.00995279 0.020347 0.0131521 
0.00313529 0.00718071 0.291646 
0.0532809 -0.0611973 0.114512 
0.00762111 0.0318101 0.257493 
0.00755292 0.0485344 0.170917 
-0.00105072 -0.0138549 0.0334851 
0.000857388 0.00726475 -0.000456359 
-0.00220161 -0.00268353 0.00508017 
-0.00388811 -0.0111138 0.0283465 
-0.000848236 0.000561455 0.000888362 
0.00162397 -0.00122874 0.00368824 
-0.00175903 0.0013022 -0.00298828 
-0.000764161 -0.00582394 0.0269531 
0.0215576 0.0112388 -0.026853 
-0.029805 0.00501141 0.0368008 
-0.0908707 0.00451363 0.12783 
-0.0202456 -0.00190085 -0.00857723 
0.000469091 0.00803843 -0.00894586 
0.0154601 -0.0127562 0.0179847 
-0.00415634 -0.00229479 -0.00645376 
-0.00130751 -0.0380527 0.0294944 
-0.00369579 0.00196753 0 
-0.00273263 0.00669584 0 
0.000285393 -0.00047844 0 
0.00542457 -0.0210425 0.00407066 
0.000254719 -0.000175365 -0.000287674 
-0.000431122 0.000282761 -0.00219521 
-0.000234878 0.000166208 0.00112495 
-0.000974824 0.00310564 0.0391728 
-0.00582653 -0.000941524 0.000674531 
0.00404536 -0.0118323 0.0192983 
0.00154869 0.00772483 -0.0193725 
-0.00813212 -0.0232486 0.0354663 
-8.14172e-06 -8.15812e-06 -0.000571288 
-4.1436e-05 -0.000192506 9.02956e-05 
4.26188e-05 0.00018108 0.000243096 
0.000579558 -4.59185e-05 0.0366633 
-0.000500821 -0.00345035 0.00502421 
0.00433181 0.00482092 -0.000831558 
-0.00981849 -0.0093144 0.0297578 
-0.00638268 -0.010232 0.0285369 
-0.000203419 0.00785703 0.0840283 
-0.0130299 0.0150446 0.0599875 
-0.00556753 0.0387068 -0.00271491 
-0.00726458 0.036803 0.108264 
0.0257873 -0.0139145 0 
-0.0219945 0.0167425 0 
0.00085214 0.00729813 0 
-0.0121192 0.0476122 0.0427065 
-0.0286804 0.00560458 0 
0.0127454 0.00287751 0 
0.023377 -0.00431751 0 
0.0393859 0.014731 0.0426817 
-0.000435589 0.00134453 -0.0035323 
-0.00068176 0.00172139 -0.00103549 
0.000839825 -0.00200256 -0.00010786 
0.000591109 -0.00231686 0.00711116 
-7.21434e-05 -0.000283343 -0.000299573 
-3.57259e-05 -7.32753e-05 0.00139744 
-0.00017307 -0.000634592 0.000322165 
-0.000350136 0.00417602 0.0236515 
0.0088103 0.00377416 0.0703129 
0.00617231 0.00109478 0.0776236 
0.00498684 0.004639 0.0756869 
0.000546836 -5.74166e-05 0.080654 
-8.3844e-06 0.00011452 0.00138816 
8.38651e-06 -0.000114549 0.000452883 
-0.000947645 0.000272407 -0.000867076 
2.19654e-05 -0.000300019 -0.000843459 
-0.00356676 -0.00964095 0.0695179 
-0.00658996 -0.0117676 0.0513414 
-0.00728598 -0.00850399 0.0648708 
-3.39976e-05 0.00222854 0.0685707 
0.0013332 0.00175863 -0.00408388 
0.000331682 0.0004731 -0.000153784 
-0.0013276 -0.00175071 0.00407973 
-0.00548576 0.000840122 0.0241814 
-9.85915e-05 -7.21823e-06 -0.00153343 
0.0016707 0.000344086 -0.00103739 
-0.000608612 -4.45586e-05 0.00136606 
0.000944846 6.91756e-05 0.000844111 
0.000116394 -0.0102982 0.0221268 
-0.0023964 -0.0141987 0.0346442 
2.50112e-05 0.00647775 -0.00165134 
-0.000631005 -0.00266269 0.00497942 
0.000635925 4.65584e-05 0.00165145 
-0.000564715 -4.13448e-05 0.000304057 
-0.000834445 -0.00194341 -0.00197501 
0.00146948 0.000107586 -0.000399875 
-0.000109267 0.000923168 0.00152117 
-1.86482e-05 0.000477047 -0.00157851 
-8.07592e-05 0.000705445 0.000991215 
0.00257816 -0.00109886 0.0234592 
0.000429366 -0.000116077 -0.0026162 
-0.00195126 0.000869278 -0.000995664 
0.00102116 -0.000476627 0.00133937 
-0.000757241 -0.000111795 0.00379447 
0.011017 0.00473897 0.0257531 
0.0116181 0.0044105 0.0280217 
0.00687012 0.00223904 0.00507825 
-0.00630149 -0.00200423 0.024223 
-3.07727e-06 3.11621e-05 4.79143e-05 
-2.17339e-05 0.000220089 2.64742e-05 
-2.24736e-06 2.27579e-05 0.000412811 
-0.000143584 2.88604e-05 0.0289549 
-0.012257 0.00792768 0 
0.0240296 0.0186099 0 
-0.0170826 -0.0276124 0 
-0.0113672 -0.00462756 0.0121862 
-0.00207821 0.0137248 0.0495687 
-0.00168617 0.0111514 0.0676215 
-0.00497023 0.0116267 0.0605473 
0.00042433 -0.00172534 0.0688857 
0.000694874 0.000192007 -0.000532877 
-0.000610348 -4.86291e-05 -0.00480725 
-0.000831407 -0.000239012 0.00104539 
-0.0042213 0.00199498 0.026072 
0.00548181 -0.000249182 0.072429 
0.000652372 -0.00070143 0.0708469 
0.00391634 0.0060387 0.0742294 
0.00795888 0.003612 0.0594073 
0.00135489 -0.000229607 0.00430867 
0.00428895 0.00685464 0.0371728 
-0.00116491 0.000254567 -0.000338216 
-0.0017997 0.000368901 -0.00195891 
-0.000428232 -0.000978552 0.000554337 
-0.000766132 -0.00210549 -0.0031705 
0.00057953 0.00172135 0.00390788 
-0.00263808 0.00417457 0.0222466 
5.38783e-05 0.000767906 -0.000511128 
-8.03702e-06 -0.000114549 0.000178729 
-0.00154876 0.000272407 -0.00111668 
8.03501e-06 0.00011452 0.00155434 
-0.000295034 -4.12473e-05 0.00405984 
0.00193393 0.000764186 -0.00140058 
-0.000499235 -0.000221399 -0.000870253 
-0.00148812 0.00242588 0.013816 
-0.0335345 -0.0311454 0.108862 
-0.0125336 -0.0537482 0.157258 
0.00657503 1.81848e-05 0.222664 
-0.00488417 -0.0299001 -0.098319 
0.0112117 0.00568288 0.0277003 
0.0133034 0.00386355 0.0449985 
0.012247 0.00675195 0.0444546 
-0.00549061 -0.000953088 0.0315532 
0.000977929 6.92387e-05 -0.00192429 
0.00246443 0.000174485 -0.00187338 
-0.00095612 -6.76946e-05 0.00425861 
-0.00293388 0.00526287 0.0297785 
0.00291258 0.00949126 0.0696963 
-0.000727221 0.0103978 0.0671569 
0.00176893 0.0118534 0.0572636 
-0.0002292 -0.00113142 0.0736187 
-4.04504e-05 -5.05181e-05 -0.000553657 
0.000166026 0.000224385 0.000492498 
-4.29483e-05 -6.26733e-05 0.000356182 
4.75846e-05 0.000711275 0.0304431 
-0.00134702 9.45107e-05 0.000659809 
-0.000564715 3.96219e-05 -0.000377314 
-0.000834445 -0.00171566 3.12968e-05 
0.000635925 -4.46182e-05 1.76044e-05 
0.0340499 0.0302123 0.102413 
0.0205535 0.0241338 0.249851 
0.0636031 0.00947585 -0.00581008 
0.00777684 0.0348511 0.153595 
0.00988582 -0.0179892 0.245671 
-0.0201448 0.0285806 0.142685 
-0.0242202 -0.00709659 0.143116 
-0.0784606 -0.00433307 0.0894971 
0.00695349 0.0117547 0.0575036 
0.00742767 0.0112416 0.0414503 
0.0094053 0.00982126 0.0495558 
-0.00269913 -0.00290632 0.0484644 
-0.000181208 0.000124386 0.000139773 
0.000146959 -0.000101209 0.000588702 
-0.00011343 7.79405e-05 -7.93194e-05 
-0.000387286 -0.000153567 0.0297745 
0.00688819 0.01196 0.0431776 
0.00528698 0.0113184 0.0366958 
-0.00167284 -0.00261149 0.0302569 
-0.000690889 -0.000310163 0.0575766 
-0.00176821 0.000384796 -0.00271155 
-0.00228381 0.000588182 0.00561523 
0.00018281 -5.29522e-05 -0.00103647 
0.0128977 0.00437492 0.0118724 
-0.00460357 0.00387446 0.0268316 
9.67337e-05 0.00140663 0.00464074 
-8.30952e-05 -0.00120831 -0.00238276 
-0.000203726 -0.00296244 -0.00170867 
-5.53047e-05 -0.000191046 0.000249679 
-2.58778e-06 -6.86874e-05 -0.000633142 
7.74897e-06 3.82399e-05 8.88225e-05 
0.000735304 0.000357553 0.0371089 
-0.00690315 -0.0121523 0.0509085 
-0.00399003 -0.0100668 0.0701257 
-0.00302904 -0.0128459 0.0552165 
0.000826273 0.00314863 0.0680265 
-0.00103575 0.00234355 -0.000916102 
0.000572606 -0.00103316 0.00418432 
0.00168148 -0.00394463 -0.000474675 
0.000458917 0.000457516 0.00761136 
0.0586708 -0.0274883 0 
-0.056604 0.0181286 0 
-0.0567798 0.034179 0 
-0.0683351 0.0185174 0.188132 
2.56526e-05 8.67694e-05 0.00147431 
-3.7405e-05 -0.000212477 -0.00165071 
-9.87719e-05 -0.000465063 -0.00491626 
-0.00756304 0.00778133 0.0331226 
-0.000581826 0.000153443 0.000359154 
-4.19112e-05 1.11817e-05 6.16601e-07 
0.00075627 -0.000201401 -8.34271e-05 
0.00108625 0.00016378 0.0300645 
-0.000681369 -0.00120876 0.0459455 
0.000658389 -0.00317354 0.0535835 
-0.000731631 -0.00136637 0.0543976 
-0.00202813 -0.00474566 0.0643627 
0.0028978 -0.00284157 0.0797563 
0.00687882 -0.00389918 0.0741855 
0.00401629 -0.00673289 0.0737795 
0.000246562 -7.64958e-05 0.084137 
0.0001128 -5.12976e-05 0.00011966 
0.000378082 0.000702591 0.0316045 
-8.53902e-05 0.000314218 0.000317282 
-0.000665281 -0.000101562 0.0290795 
-0.00703813 0.0010506 -0.000543991 
0.0101642 -0.00380802 0.0268585 
0.00276785 -0.00229087 0.00494336 
0.0125563 -0.00173922 0.0304502 
0.000102369 -0.000124537 0.00045063 
4.99687e-05 -7.05228e-05 -0.000226123 
-8.06731e-06 2.08279e-07 -0.000475764 
-0.000499273 -0.000272175 0.0333154 
0.00785477 0.0105518 0.0424053 
0.00794493 0.00871745 0.0307976 
0.00940856 0.00983336 0.0499044 
-0.00320204 -0.00217662 0.0457182 
-0.0023319 -0.00157296 0.000778968 
0.00024385 0.000225024 -0.00167219 
-0.000640694 -0.00050568 0.00214552 
-0.000548193 -0.00237063 0.0145653 
0.00689036 -0.00390225 0.0741789 
0.00293878 -0.00285302 0.0798166 
0.00571643 -8.46463e-05 0.077112 
0.000257486 -7.87157e-05 0.0840228 
0.0168034 0.0150873 0.226278 
0.0298101 -0.00864041 0.151476 
0.0725452 0.0221539 0.0297189 
0.0164907 0.0303255 0.148963 
-0.0033724 -0.0272101 0.200313 
1.18393e-05 -0.0134187 0.234821 
0.0176587 0.0128485 0.124209 
0.0842429 0.0466349 0.142928 
0.00300261 0.000269065 0.00206648 
-0.00368335 -0.000791577 -0.00367756 
0.00744611 0.00176031 0.0241748 
0.000131457 0.00129416 0.0292101 
0.014129 -0.0023533 0.0537132 
0.0115587 -0.00116394 0.0312068 
0.0113542 -0.00342105 0.0308382 
-0.00359883 0.000920165 0.0343975 
-0.00839247 0.00169466 0.262751 
-0.00103119 0.00454411 0.22595 
-0.00551539 -0.00477487 0.259485 
-0.00901739 0.0267469 0.257294 
0.00573488 0.0100294 0.0421569 
0.000472207 -0.000557451 0.0473432 
0.00509526 0.0102756 0.0578933 
-0.000136793 0.00107949 0.0571951 
1.92494e-05 -7.51783e-05 -8.64969e-05 
5.87581e-06 -2.00776e-05 0.000141706 
-2.81602e-05 0.000109049 7.20697e-05 
0.000254405 -0.000594264 0.0366148 
-0.00884416 -0.00812779 0.0646512 
-0.0119722 -0.00593791 0.0541178 
-0.0101397 -0.00399196 0.0684786 
0.00170212 0.000580702 0.0635307 
0.000110732 -0.000106754 -0.00345232 
0.000426448 -0.000419929 0.00191543 
5.43968e-05 -5.4124e-05 0.00121012 
-0.000926761 0.00713106 0.0256912 
0.00835153 -0.0110917 0.048999 
0.00709109 -0.00817391 0.0258051 
0.00553873 -0.0095727 0.0300202 
-0.00238615 0.00254832 0.0331253 
0.000612881 0.000911846 -0.000136198 
-0.001122 -0.00181732 -0.00274509 
0.000677279 0.000981793 -0.000673849 
0.00462013 0.00287704 0.00842579 
0.000447239 3.6641e-05 0.000275511 
0.000324132 3.3654e-05 -0.00183709 
1.68602e-05 -1.06428e-06 0.000712068 
-0.00366868 0.0013006 0.0304692 
-0.000143312 6.11776e-05 0.000596642 
-6.80061e-06 3.5636e-06 -2.5168e-05 
6.41063e-05 -2.77079e-05 -0.000239203 
-0.000482226 -4.36014e-05 0.0299565 
0.00992835 0.00275538 0.0702545 
0.0127484 0.00210219 0.0587775 
0.0103446 -0.000831409 0.0692878 
-0.000536743 0.000785696 0.0686788 
0.000190286 -0.00143914 0.00029134 
-0.00120229 0.00411927 -0.00331048 
-2.68557e-05 -0.00122995 0.00121394 
0.00205242 -0.0124412 0.0111421 
2.5446e-05 3.81609e-05 -0.000136226 
0.000475402 -3.42607e-05 0.00070936 
-0.00124613 -0.000177693 0.0308564 
-0.000493459 -0.000169144 0.029275 
-0.00059287 0.000250711 -0.000698195 
0.000684784 -0.00231699 -0.0021188 
-0.00107598 -0.00157136 -0.00260741 
-0.00958894 0.00863992 0.0137415 
-0.00213569 -0.00256385 -0.015042 
-0.000898967 -0.00154914 -0.00138592 
-0.0015626 0.00955029 0.016346 
0.000903114 0.0179885 0.0296838 
-0.0140153 0.00224311 0.0476696 
-0.0115219 0.00473922 0.059232 
-0.0112115 0.00166206 0.0666609 
0.00268126 -0.000665538 0.0676174 
-0.00524225 0.00540162 0.0703568 
-0.00387463 0.0103771 0.0700533 
-0.00187065 0.0041949 0.0614126 
-0.00208127 0.00419975 0.0709975 
-0.0198459 -0.0173701 0.0798247 
-0.0168489 -0.0162434 0.038756 
0.0046054 -0.0109259 0.00767942 
-0.000460283 -0.00486007 0.0243386 
0.0103532 -0.00157292 0.0753508 
0.0152499 -0.000387127 0.0596189 
0.010753 0.00175029 0.0698375 
0.0151077 -0.00318864 0.0826779 
-0.000938445 0.000682544 -0.00177966 
0.000754137 -0.00052759 0.00085409 
-0.00192393 0.00052239 -0.00106585 
-0.0012914 0.000832267 0.000499333 
0.000941503 4.82452e-05 0.00269973 
-0.000344309 -4.80735e-06 -0.00245027 
0.000331725 3.09618e-05 -0.000640259 
-0.00805831 0.00597368 0.0168413 
-0.0340472 0.0299634 0.0491197 
-0.017172 -0.0113924 0.133739 
0.00793738 -0.0310854 0.0830715 
-0.0240711 -0.0131975 0.038111 
-0.000986269 0.0110279 0.0293994 
-0.00283639 0.0137318 0.0508309 
-0.0031028 0.0111982 0.0301363 
0.000786682 -0.00254866 0.0345601 
-8.45511e-05 0.0001865 0.0372302 
3.45747e-05 0.000315025 0.0306633 
0.00341043 0.00762431 0.0356341 
0.000492379 0.0014348 0.0574937 
-0.00309445 0.00321732 0 
0.00398157 -0.00215789 0 
-0.0049726 -0.00385486 0 
0.0117814 -0.00605668 -3.76798e-05 
-0.000444161 0.00326365 0 
2.37689e-05 -0.00149837 0 
0.00137596 -0.00127822 0 
-0.000154 0.00202606 -0.000386649 
-0.000851586 0.000317034 0 
-0.00318125 -0.000379154 0 
-0.000572471 -0.000403215 -0.00190526 
0.00143478 0.000470652 0 
0.00273931 -1.17097e-06 0 
0.00461647 -0.00183532 0 
-0.0022033 0.000468872 0 
0.000529128 0.000718959 -0.00399562 
0.0288683 0.00818801 0 
-0.0179851 -0.0140856 0 
-0.0225229 0.00293797 0 
-0.0517968 -0.0250843 0.0579917 
0.000701716 -0.0042852 0.056919 
-0.00238928 -0.00136588 0.0547226 
0.00516465 0.00366676 0.0542507 
0.00197841 0.00540423 0.0296062 
0.000160037 1.37723e-05 0.000485241 
7.37935e-06 6.35044e-07 0.000283583 
-0.000108673 -9.35205e-06 -0.000304341 
0.000401883 0.000405862 0.0364221 
0.00974027 0.0073144 0.253099 
0.00579471 -0.00623203 0.226534 
0.00345992 0.00652191 0.256243 
-0.0501148 -0.00705782 0.245177 
-0.000110633 1.0925e-05 -0.00020455 
7.51245e-06 -7.41858e-07 -6.19452e-05 
-0.000251726 2.4858e-05 0.000459798 
0.000450705 -9.92028e-05 0.0364759 
-0.00218543 0.00415258 0.248933 
0.00609863 0.00672506 0.22233 
0.000351821 -0.000724651 0.24833 
-0.000572622 -0.0422215 0.249803 
-0.00015996 -0.000158924 -2.74553e-05 
0.000100212 9.58851e-05 0.000288195 
4.13742e-05 4.46192e-05 -0.000251754 
0.000350016 -0.000464148 0.0355092 
0.0129041 -0.00270419 0.0313685 
0.0026393 -0.00108724 0.00543997 
-0.00659518 -0.000450161 -0.000616851 
0.0139562 7.34791e-06 0.0307798 
-0.00261196 0.0127295 0.0308703 
6.97193e-05 -0.00689746 -0.00146363 
-0.000994928 0.00298695 0.00498216 
-0.000211333 0.0129587 0.0285923 
-0.0283073 0.0273635 0.139796 
-0.0381131 0.00130291 0.11373 
-0.00788301 -0.00525195 0.276797 
-0.0861574 0.0276246 0.0916706 
0.00322929 0.00440735 0.0263757 
-0.00282919 0.000207135 -0.00165325 
0.0013315 -9.74835e-05 0.00392013 
-0.000941122 6.89029e-05 -0.0018734 
0.000104071 -0.000151558 0.000221694 
-3.33045e-05 4.30922e-05 -0.000412041 
-0.000134422 0.000203685 0.000213491 
0.000396672 0.00029265 0.0338464 
-3.02325e-05 5.82765e-06 0.000562765 
-0.000178581 4.92872e-05 -0.000370111 
0.000132262 -3.51718e-05 -5.68465e-05 
6.36483e-05 -0.000351441 0.0295149 
-0.000342656 0.00778068 0.0690433 
-0.00154919 0.00358288 0.0606388 
-0.00376787 0.0101985 0.0709514 
-0.00214888 0.00431496 0.0705277 
-0.000859312 0.000429932 0 
0.00221895 -3.90008e-05 0 
0.0010651 -0.000504204 0 
0.00025957 -0.000609158 -0.00172158 
0.00299747 0.0015725 0.00196741 
0.0081312 0.00467429 0.0279077 
-0.00264035 -0.00182608 -0.00192568 
-0.000834728 -0.00137753 0.0276371 
-1.46293e-05 -0.000220511 -0.00165877 
0.00155575 0.000658969 0 
-0.00297822 -0.00125017 0 
-0.00120038 -0.00109808 0 
-0.000886535 -0.00054548 0.000973824 
0.00152871 0.000855198 -0.00424122 
-0.000143602 -0.000150849 -0.00171689 
-0.00291572 -0.00552458 0.0143564 
-0.0187041 0.0096018 0 
0.00250337 -0.00101823 0 
-0.0115934 -0.0130254 0 
-0.0123911 0.0355559 0.021047 
0.00408477 -0.0289101 0 
-5.16505e-05 -0.00415115 0 
0.00888706 0.00407959 0 
-0.0259117 0.0744778 0.0222683 
0.00049091 -0.000593485 0.0022313 
0.00056338 -0.000588324 0.000402873 
0.000834638 0.000760744 -0.00177828 
-0.000763911 0.000841324 -0.00156016 
0.0133138 0.0013542 0.0462619 
0.0130089 -0.00150679 0.0530981 
0.012758 0.00212066 0.0587162 
-0.00100658 -0.00103489 0.0664858 
-0.000270814 5.07008e-05 -0.00047547 
0.000890135 -0.000208831 -0.000510842 
-0.00017773 0.000292298 0.000821995 
0.000166592 -5.96925e-05 -0.00110869 
-0.000162361 -0.000660203 -0.000746266 
0.000419648 -0.00186175 -0.00314844 
0.000150218 0.000522393 0.00165953 
0.000145698 0.000725955 -0.000793427 
3.04259e-05 2.83337e-05 -0.00118516 
0.000615721 0.000409395 -0.000872953 
1.06393e-05 3.96688e-05 -8.82785e-05 
-0.000185669 -0.000678167 0.00169514 
0.0020261 -0.000261944 0 
0.00170803 -0.00058621 0 
-0.000920882 0.000333916 0 
-0.000111507 0.00107616 -0.0022332 
3.37883e-05 -0.000164693 0.000637751 
2.85397e-05 -7.09477e-05 -0.00024432 
-8.31389e-05 0.000399506 -0.00150336 
0.000884036 0.000930366 0.031118 
-0.000106965 -0.000103653 0.000155658 
0.000527786 0.000511868 2.84768e-05 
-0.000277406 -0.000268924 0.00020251 
-1.68225e-05 0.000222102 0.0305641 
5.76706e-05 0.000109843 -0.000109622 
8.30428e-05 0.000159108 -0.000143357 
-2.64857e-05 -2.42235e-05 0.000454743 
-0.000393439 7.45163e-05 0.0307786 
0.00190774 -0.000625144 -0.000615086 
-0.000597913 -0.00237947 -0.00333999 
0.000381527 -0.000788835 -0.00220166 
0.00703692 0.00556545 0.0104157 
-7.90287e-05 -5.47735e-05 -0.00162841 
-0.000549176 -0.00038709 0.00182614 
0.00106402 0.000748865 -0.00127115 
0.000908411 0.00395399 0.0276385 
-0.00995295 -0.00845082 0.0470212 
-0.00856069 -0.00616628 0.0263639 
-0.0106345 -0.0058179 0.0335603 
0.00208796 0.00182191 0.0344118 
0.000306562 0.0003955 0.000272726 
0.000208527 0.000309633 -0.000735253 
-0.000566904 -0.000649884 -0.0023519 
-0.00352143 0.0001301 0.0305807 
0.00535359 0.0129671 0.0372004 
0.00244485 0.0070471 0.00584318 
0.00440249 0.0107032 0.0264324 
-0.00148567 -0.00460946 0.0275688 
0.00618984 -0.00201121 0 
0.00316749 0.00264727 0 
-0.00167737 0.0021704 0 
-0.0138268 -0.000256116 0.00572812 
-0.000904103 -0.00228969 0.0440489 
0.000210216 0.000517397 0.0306738 
0.000292604 0.000194185 0.0372791 
-3.27894e-05 0.000353741 0.0574916 
0.00249772 0.010464 0.038478 
-0.000759671 -0.00399629 -0.00272302 
0.00121029 0.00363307 0.00238237 
0.000615213 -0.000351021 0.0307885 
0.00209526 0.0131535 0.0570146 
0.00563197 0.0118534 0.0570612 
0.00372307 0.0108164 0.0696774 
-0.000664873 -0.00157965 0.0599445 
0.00638851 0.0178071 0.020169 
0.00612067 0.0115766 0.06252 
-0.0223667 0.0233819 0.100667 
-0.00213647 0.0327196 0.125809 
0.0108514 -0.00544176 0.0641889 
0.0121772 -0.00661838 0.0451065 
0.0107629 -0.00817595 0.0532792 
-0.0011702 0.00113894 0.0614792 
-0.00272368 0.00375691 0.0676625 
-0.0013825 -0.00107065 0.0329968 
0.000764318 0.00327864 0.0390775 
-0.00403054 0.00334957 0.0281474 
0.00501033 0.00288193 0 
-0.00244183 -0.00032037 0 
-0.00813208 0.00511414 0 
0.0180472 0.00355443 -0.00382326 
-0.00312844 -0.00368271 0.0227787 
-0.00136787 9.40682e-05 0.00412859 
0.00138732 -9.54056e-05 -0.00129907 
0.00263644 -0.000181307 -0.00242139 
-0.000912851 0.000728481 -0.00257521 
0.00119654 -0.000744324 -0.00129223 
7.77718e-05 -0.000185013 0.00294512 
0.00208172 -0.0088245 0.0143621 
-0.00777225 0.00342202 0.0715727 
-0.00659135 -0.000184768 0.0763472 
-0.0105053 0.000959904 0.0665419 
-0.000580147 0.000580737 0.0788913 
0.00449312 -0.0107709 0 
-0.0160226 0.000514323 0 
0.0107758 -0.00603928 0 
-0.0384423 0.00870499 0.0182807 
-0.000676883 6.46768e-05 0.00401565 
-0.00348463 -0.00643997 0.0342237 
0.000674487 -0.000133354 -0.000619772 
0.00118731 -0.000226599 -0.00149075 
-0.0270965 0.0211706 0.0941319 
0.0024679 0.00763965 0.0509723 
-0.00156519 0.00470698 0.113288 
0.00381546 0.0356745 0.134535 
-0.000157417 -0.00380519 -0.00201654 
0.00112601 0.00295862 -0.00118534 
0.00034134 -0.000540308 0.00209276 
0.00181511 0.010198 0.00734294 
4.16828e-06 1.04757e-05 9.65695e-05 
0.000243258 0.000367679 -0.00165457 
0.000327908 0.000559189 -0.00032861 
0.0029641 0.00292778 0.0124828 
0.00267605 -0.00134584 -0.000549206 
7.88519e-05 0.00045908 -0.000760771 
-0.00143087 -0.00179062 -0.00346185 
0.00380276 0.00935819 0.00712448 
-0.000254624 -0.00137535 -0.00211276 
-0.00507228 0.00399511 0.0274152 
0.000251336 0.00150051 0.00360352 
-0.000317797 -0.00147124 -3.10419e-05 
0.00269093 0.00100239 0.00479159 
-0.00622756 0.000440707 -0.00218539 
0.012938 0.000315004 0.0288704 
0.010289 0.00220463 0.0260717 
-0.00178882 -0.000286956 0 
0.00303637 0.00134959 0 
0.00388704 0.000443146 0 
-0.000445323 -0.00221488 -0.00360329 
0.00821132 -0.00912112 0 
0.00132831 0.00397489 0 
0.00937588 0.00224706 0 
-0.0331449 0.0190884 0.00490654 
6.87977e-06 2.3192e-05 -0.000159141 
1.86178e-06 7.47445e-06 -1.92749e-05 
-7.78652e-06 -3.84372e-05 -6.188e-05 
-0.000390093 0.000293662 0.0331068 
-0.000804256 0.00205137 0 
-0.000586672 0.00257444 0 
-0.000928683 8.74548e-05 0 
0.00115854 -0.00181868 -0.00193763 
-0.000168227 -0.0011535 0.00399632 
0.000229122 0.00110937 -0.000539146 
0.000294878 0.00153254 -0.00180694 
0.00587086 -0.00436928 0.0314303 
-0.023714 -0.0302244 0.106761 
0.00219151 -0.000123673 0.226721 
-0.0225429 0.000482225 0.128604 
-0.0865405 -0.0402907 0.0587083 
0.00397223 0.0124537 0 
-0.00866031 -0.0153133 0 
-0.00279536 0.0123566 0 
-0.012862 -0.0305051 0.0228962 
0.00307113 0.0370403 0.15147 
-0.0308245 0.0216419 0.0871342 
0.00384116 0.00511199 0.272174 
-0.0485707 0.0774957 0.0572611 
0.0107886 -0.00821141 0.0536349 
0.00812253 -0.00825392 0.0655641 
0.0107411 -0.00513467 0.0630797 
-0.0010449 0.000938661 0.0631418 
0.012903 0.0041889 0 
-0.0036758 -0.00552389 0 
-0.010373 -0.00342838 0 
0.00970882 -0.0045393 0.00801278 
-0.00468738 -0.00443558 0.0650686 
-0.00549986 -0.00606395 0.0681902 
-0.00342803 -0.00728076 0.0694792 
-0.000364624 -0.00132004 0.056318 
0.007 0.0110383 0.0423433 
0.00578631 0.0113741 0.0569763 
0.00490618 0.0121131 0.0371871 
-0.00141573 -6.5893e-05 0.0572402 
-1.06553e-05 -4.98656e-05 -0.000171927 
2.95902e-05 0.000137043 0.000451643 
-8.64063e-05 -0.000304072 0.000407769 
-0.00036503 0.000107707 0.0304968 
0.000421528 0.000131822 -0.00103935 
-5.22003e-05 0.000242842 0.000121634 
0.000138828 -0.000604408 0.00022183 
4.98541e-05 -0.000292689 -0.000915842 
0.00125667 0.000280656 -0.000122639 
-0.00129706 -0.000214553 0.00375657 
0.0012168 0.000232123 -0.00203362 
-0.00388863 0.00546316 0.0297202 
0.0118846 -0.0074167 0 
-0.00111097 -0.0171389 0 
-0.0123658 0.0302083 0 
0.0237408 -0.0653868 0.0428356 
0.0170552 0.000938752 0.128907 
-0.0106921 -0.0078752 0.272902 
0.00320006 -0.0358333 0.134163 
0.0894782 0.0211219 0.14281 
8.09625e-05 -0.000468604 0.00326254 
-5.54713e-05 0.000343138 -0.00287904 
-5.77813e-05 0.000282706 -0.000820001 
-0.00352101 -0.00779702 0.0149932 
0.000140284 -5.06483e-05 -0.000345854 
-0.000339863 0.000137914 6.14158e-05 
3.3441e-05 -2.22571e-05 0.000437469 
-0.000261227 -0.000434254 0.0291283 
-0.0002707 -0.000372386 -0.000373099 
0.000109595 0.000152467 0.000406541 
0.000106396 0.000148777 0.000508664 
-0.00109164 4.00481e-05 0.0301751 
0.00454283 0.00788986 0.0259618 
0.00155189 0.00231222 0.00274137 
-0.00219862 -0.0035748 -0.00347677 
-0.00069615 0.00117198 0.0307408 
0.00280984 0.0129226 0.0374281 
0.000788508 0.0135471 0.0432253 
8.49007e-05 0.011371 0.0259474 
0.00115208 -0.0041301 0.0359535 
5.74473e-05 8.95129e-06 -0.000476248 
-4.70024e-06 -2.42993e-06 0.000212479 
-1.22986e-05 1.03298e-07 -0.000104477 
-0.000116756 0.000497313 0.033826 
-0.000292677 -0.000339932 0.0471332 
0.000193289 0.000484745 0.0308803 
-0.00095693 -0.00237419 0.0441221 
2.70675e-05 0.000454211 0.0572535 
0.000832969 0.000216293 0.00350006 
0.000149672 1.50238e-05 -0.00243425 
-0.000532718 -0.000125923 -0.000644478 
-0.00748246 0.00332555 0.0143669 
0.00111909 -0.00269417 0.00478634 
0.00054151 -0.0137173 0.0301289 
0.00264589 -0.0102096 0.026432 
0.000340965 0.00629583 -0.00193616 
8.91576e-05 -0.000205024 6.30072e-06 
-1.72079e-05 3.44369e-05 -8.47954e-05 
5.74608e-05 -0.000141319 -0.000145444 
0.000161663 0.000490492 0.0270812 
-0.00366013 -0.0013148 0 
-0.00189145 -0.00060435 0 
0.00119245 -0.000267589 0 
0.000837218 0.000533467 -0.00405444 
0.00595351 0.000874834 0.0776025 
0.00873365 0.00370224 0.0703624 
0.00959325 -8.23684e-05 0.0692688 
0.000800377 0.000189458 0.0805897 
0.0110336 0.00538739 0.0279957 
0.0111273 0.00395836 0.0236232 
0.0134972 0.0047573 0.0461649 
-0.00551427 -0.0020112 0.0289423 
-2.54055e-05 -0.00025727 0.000457201 
-2.43076e-06 -2.46152e-05 0.000220014 
2.61827e-05 0.00026514 8.03917e-05 
-0.000303283 -0.000454681 0.0295998 
5.77032e-05 -3.75792e-05 0.00326863 
0.000565108 -0.000384151 -0.000177065 
0.000121163 -8.30328e-05 -0.00137211 
-0.00243054 0.00561812 0.0214035 
-0.00112982 -0.00124127 0 
-0.00108407 0.000135179 0 
0.000745506 0.000301997 0 
-0.000481333 -0.000499065 -0.000877053 
-0.000784031 -0.000651634 0 
0.00110098 0.000807763 0 
0.00173466 0.000735969 -0.00223421 
0.000977677 0.00233242 0 
-0.00168396 0.00108385 -0.0043472 
-0.000347806 0.000222965 -0.000981889 
-0.000941213 0.000643247 0.00108941 
0.00123144 0.00766629 0.01966 
0.00381627 0.00400518 0.0230993 
-0.000380739 0.00207171 0.00398729 
0.000331734 -0.00142254 0.000717876 
0.000402764 -0.00207499 -0.00294048 
1.62602e-05 -6.16505e-05 0.000189822 
-2.43982e-05 8.89855e-05 -0.00036682 
4.40848e-05 -0.000189162 1.86167e-06 
0.000505581 0.000681968 0.0317008 
0.00639758 -0.00383774 0 
0.000974778 -0.00528258 0 
-0.000931286 0.00392286 0 
-0.001211 0.0153532 0.00202802 
0.0244346 -0.00893442 -0.0264716 
-0.00349534 0.0125357 0.0266801 
0.0141749 0.0296774 0.0191893 
0.000839507 0.0554529 0.101177 
0.0107155 -0.0003317 0.0697991 
0.0127879 0.00216027 0.0588535 
0.0130997 -0.00238691 0.0523862 
-0.000983779 0.000142743 0.0678855 
-3.6984e-05 0.000929443 -0.00261443 
3.12809e-05 -0.000212498 -0.00125652 
-8.41663e-05 0.00102845 0.000619998 
0.00443127 -0.000227694 0.0181408 
-0.00674615 -0.00964886 0.0309327 
-0.00690506 -0.011517 0.0524453 
-0.00527065 -0.0102066 0.0274313 
0.000465767 0.00250535 0.0405516 
-7.93921e-05 4.03827e-05 -0.000162742 
0.000193252 -9.83233e-05 0.000319521 
-0.000199176 0.000101499 0.000146267 
0.00111428 -0.000324572 0.0321442 
-0.00900814 -0.00349412 0.068068 
-0.00546425 -0.00481775 0.0756197 
-0.00795176 -0.00737393 0.0651608 
-0.000625665 -0.000717755 0.0775252 
-0.00905398 -0.0233832 0 
-0.0101093 0.00479914 0 
0.0112488 0.0179313 0 
-0.0124117 -0.0316251 0.023941 
-0.000184468 0.000134439 1.52833e-06 
0.000179727 -0.000131087 0.000222735 
-7.63846e-05 5.56998e-05 -6.72133e-05 
0.00100291 -0.000580787 0.0326069 
-0.0170535 -0.00121335 0 
0.0167879 0.00983398 0 
-0.0141599 -0.014244 0 
-0.054294 -0.0176597 0.0429505 
-0.0147378 -2.99619e-05 0.0331988 
-0.0109848 -0.00244437 0.0277803 
-0.00279798 -0.0011278 0.00489373 
0.00669774 -0.000338098 -0.00162657 
-6.61231e-05 -1.38541e-05 -0.000154946 
8.17839e-06 2.06551e-06 -1.60301e-05 
4.0543e-05 1.15415e-05 -0.000209662 
0.000240791 -0.000401421 0.0336445 
-0.010607 0.000968871 0.066249 
-0.00675963 -0.000115189 0.0766479 
-0.00927316 -0.00306594 0.067927 
-0.000227573 0.000486538 0.0790017 
0.00148266 -0.00934573 0.161607 
0.00839217 0.0120419 0.244463 
0.0204849 0.00816547 0.234985 
-0.0450071 -0.118809 0.195052 
-0.00756303 -0.0266112 0.0342849 
0.0102914 0.0292456 -0.027127 
0.00279969 -0.0904284 0.142654 
0.00243728 -0.0099658 -0.00873751 
0.00299136 0.00226339 0 
-0.0048627 -0.00289821 0 
0.00798113 -0.00106387 0 
-0.00765482 -0.0292291 0.0173946 
-0.00121175 0.00123799 -0.0081402 
0.00071374 -0.000761657 0.00587978 
0.00694033 0.00660471 0.0326199 
-0.000306286 7.73762e-05 0.0058156 
-4.42862e-05 -2.85331e-05 0.000111591 
1.45316e-05 1.05053e-05 7.07613e-05 
-6.83875e-05 -4.97701e-05 -0.000364104 
-0.000317042 0.000348425 0.0322865 
0.0035061 0.00897359 0 
0.0114543 0.00537302 0 
-0.00354276 -0.0146035 0 
-0.00775068 -0.031635 0.0231559 
4.23999e-05 6.66795e-05 0.000263138 
-0.000167194 -0.000227375 0.000373631 
1.21475e-05 2.86e-06 -0.000569281 
-0.000421 0.000759017 0.0314425 
-5.76548e-05 -0.000687282 0.000730165 
-6.87793e-06 -8.19893e-05 -0.00404188 
-1.13321e-05 -0.000135086 0.000340659 
0.00389492 0.00188762 0.0256763 
-0.000959838 -8.87225e-05 -0.00175402 
0.00081073 5.19382e-05 -0.00114006 
0.00226989 0.000188848 0.00175811 
0.00231484 -0.00274264 0.0191771 
-0.00387659 -0.00395964 0.0252541 
0.000340626 -0.00187999 0.00401225 
-0.000307166 0.00132863 0.000374692 
-0.000466195 0.00229908 -0.00250826 
0.000233172 0.00111941 -0.00217447 
0.000172467 0.000600044 0.00257382 
-9.34176e-05 -0.000307708 -0.00171173 
0.00319114 -0.00603157 0.0185164 
-0.000845538 0.000606722 0 
-0.000202819 -0.000891121 -0.000104149 
0.000578863 -0.0015905 0 
0.000133936 0.000596094 0 
-6.4983e-05 0.000223672 0.00045763 
7.25603e-06 -2.85848e-05 3.21295e-05 
3.64732e-05 -0.000125349 -0.000261278 
-0.00021451 0.000280137 0.0288122 
-0.00201655 -0.00116423 -0.00451128 
-0.000394495 -0.000201393 -0.00167338 
0.00155204 0.000945151 0.00199913 
0.00531803 0.00644834 0.00976827 
0.000754421 0.000580072 0.00212252 
0.000414743 0.000206154 -0.00179561 
9.62488e-05 0.00013922 0.00198444 
0.00277836 0.00542429 0.0101721 
0.00935863 0.00893929 0 
0.0119755 0.0057647 0 
-0.00792348 -0.0180052 0 
-0.0132123 -0.0266955 0.0190002 
0.00570823 0.0118445 0.0569891 
0.00229043 0.0129169 0.0579849 
0.00464318 0.0131091 0.0368297 
-0.000989101 -0.00115763 0.0581763 
0.000290192 -0.00106981 0.000582336 
-0.000427063 0.00165421 5.11838e-05 
0.000298012 -0.00157209 -0.00478897 
-0.00150371 -0.00414604 0.0237024 
-0.000471783 0.000184234 -0.000287765 
0.000636738 -0.000255157 0.000117239 
4.28985e-05 -1.67873e-05 2.46974e-05 
-0.000327088 0.000597553 0.0291851 
3.94605e-05 -0.000310769 0.00179138 
-7.41235e-05 0.00057647 -0.00342842 
6.00642e-05 -0.000890924 -0.000912218 
-0.00404132 -0.00834641 0.0186981 
-0.00622279 -0.0056396 0 
0.0087336 0.0138374 0 
0.00717882 0.00301349 0 
-0.019046 -0.0497251 0.0119956 
2.12977e-05 2.73311e-05 0.000211407 
-0.000222138 -0.000310049 -0.00079125 
0.000109298 0.000148157 0.000638101 
-0.000421779 0.000353467 0.0312791 
0.00415312 -0.00343875 0.0236725 
-0.00238465 -0.000486719 -0.00244833 
0.00195427 0.000357973 0.00398295 
-0.00125843 -0.000291291 0.000372088 
-0.000483936 -0.00133557 0 
-0.000610386 0.00114195 0 
-0.000442358 0.000827593 0 
0.000584686 -0.0011415 -0.000933847 
0.000508427 -0.000185818 0 
3.20929e-06 1.05796e-05 0 
-0.000129268 -0.000426138 0 
0.00020164 0.000572259 -0.00111638 
0.000165269 -0.00017452 0 
-3.18387e-06 -1.04958e-05 0 
4.69713e-05 0.000132135 0.000274182 
2.16223e-06 7.1279e-06 0 
0.000221279 6.20201e-05 0.000694332 
0.000414834 0.000115453 0.00109867 
0.000164219 4.25196e-05 -0.000356535 
-0.00353131 -0.000275331 0.0265251 
0.00197109 -0.0014049 0 
-0.00117883 0.00204917 -0.0026142 
-0.00234046 0.000501832 0 
-0.00263128 0.00203124 0 
0.0263142 -0.009818 0 
0.00699826 -0.025511 0 
-0.0251966 0.0244626 0 
0.0166325 -0.0474045 0.0532476 
0.000516169 2.18053e-05 -0.00596414 
0.000408572 -0.000303376 0.00599939 
0.00334761 0.0122108 0.0374924 
-0.000248874 -7.30604e-05 0.00496686 
0.00121037 0.000228608 0.00524706 
-0.00229647 -0.000487218 -0.00793034 
8.64205e-05 -0.000136521 0.00616292 
-0.00194472 0.0100735 0.0312529 
1.19409e-05 6.41298e-05 -0.000293465 
-0.00013368 -0.000484359 0.000602156 
6.31345e-05 0.00020824 -4.87345e-05 
-0.000401259 1.01212e-05 0.030604 
0.000585064 -0.015181 0 
-0.00490713 -0.0104061 0 
0.00206668 0.0215342 0 
-0.0170303 -0.0708155 0.039267 
-0.0120003 -0.00599124 0.053515 
-0.00894884 -0.00795742 0.0660305 
-0.0105059 -0.00883556 0.0462632 
0.0017032 0.000414711 0.0619033 
-1.26145e-05 8.16513e-05 -0.000504639 
-3.06659e-06 1.04874e-06 0.000222286 
1.87449e-05 -7.9039e-05 -2.6128e-05 
-0.000569904 -0.000405605 0.032385 
-0.000866231 -6.22521e-05 0 
-0.000226505 -0.000108443 -0.000435438 
0.000148499 7.93743e-05 0 
0.000174642 9.33481e-05 0 
0.00116429 -0.000127693 0 
-0.000576097 -0.00030793 0 
-0.000422984 -0.000226089 0 
0.000557953 0.00028083 -0.000600126 
0.0088931 0.01019 0 
0.00253518 0.00299431 0 
-0.00924456 0.00112797 0 
-0.0223086 -0.00848284 0.00359484 
3.82121e-05 -0.0138239 0.099076 
-0.00499006 0.00432403 0.217717 
0.00353077 0.0129298 0.240973 
0.0620323 -0.0938934 0.160428 
-0.000765106 0.00244109 0 
0.000322616 -0.00308124 0 
0.00158441 0.00427057 0 
-0.000592236 -0.0106646 0.00603539 
-0.00013341 0.000480926 0.00116508 
-0.000214891 0.000797908 0.000329937 
-5.88839e-05 0.000217607 0.00015915 
0.000609151 -0.00433035 0.0240437 
0.000545408 -0.000249552 0.00166657 
0.00322692 -0.0013854 0.000699318 
0.00118352 -0.000486684 -0.00189889 
-0.00696831 0.00461825 0.0053815 
-0.00619334 -0.010562 0 
-0.00517178 0.00165821 0 
0.00341333 0.00600983 0 
0.0149278 0.0222526 0.0128513 
-0.00103184 0.000272128 0.000590184 
0.00054705 -0.000140906 0.000442477 
-0.000127345 3.52388e-05 0.000443752 
0.00304309 -0.000408574 0.028885 
0.000616102 -0.000186892 0 
0.000427354 -0.000329192 0 
-0.000309459 9.38734e-05 0 
-0.000141018 6.10805e-05 -0.000728521 
0.0166295 -0.0379229 0.137744 
0.0185022 0.0138773 0.280455 
-0.0119259 -0.0117881 0.146091 
-0.0649605 -0.0860375 0.12177 
3.4882e-05 -0.000109604 4.21573e-05 
5.26936e-05 -0.000198883 -0.000234459 
-0.000171518 0.000626843 0.000579511 
0.000182094 0.000333566 0.0312044 
-0.0103428 -0.00954331 0.0472357 
-0.00738646 -0.0116702 0.0522168 
-0.00826177 -0.0101856 0.0305399 
0.00263991 0.00309011 0.0422231 
0.00429813 0.00215563 0 
-0.00683757 -0.00515587 0 
0.00524382 0.00235249 0 
0.0101543 0.00470935 0.0134176 
0.00113913 -0.000362426 0 
-0.00103049 -0.000845697 0 
0.000294582 0.000241757 0 
0.00062181 0.000520451 0.000339097 
3.84139e-05 -0.000239279 0 
0.000485397 0.000398355 0 
-0.000550447 -0.000449297 -8.16826e-05 
0.000200861 0.000164843 0 
0.00923182 0.0149214 0 
-0.00859472 -0.00712076 0 
0.0146245 -0.00409591 0 
-0.0160085 -0.00549628 0.00273211 
0.000973493 -0.000958889 0.00541894 
-0.000141407 -0.00014966 -0.0076753 
-0.00556869 -0.00474664 0.027292 
-0.00075598 0.00115535 0.00558276 
0.0214446 -0.00828551 0.147535 
-0.0302337 0.0113435 0.218407 
-0.00516481 0.00853002 0.275762 
0.0950018 -0.0486976 0.170193 
0.004136 -0.00129209 0 
-0.00121407 -0.00370124 0 
0.00329569 0.000193986 0 
-0.0128855 0.00771014 -0.00231087 
4.32592e-06 4.37705e-05 -0.000776426 
3.25875e-06 -6.69259e-05 0.000177994 
-1.70609e-05 0.000222027 4.83413e-05 
0.000561901 0.00073162 0.0319574 
-0.000853065 0.00106574 -0.000720713 
-0.000477501 0.00139939 0 
0.000708027 -0.000862734 0 
0.000763736 -0.000930615 0 
0.00468214 0.0120458 0 
0.00308743 -0.0047553 0 
-0.00582714 -0.00881988 0 
0.0126053 0.0146688 0.0151102 
0.000125783 0.000194122 -0.00457194 
-0.000667822 -0.001662 -0.000827676 
0.000176174 0.000496687 0.00253406 
-0.00185331 0.00369184 0.0215532 
0.00632904 -0.00318364 0.0272481 
-0.000496924 -0.000649757 0.00548795 
0.000724229 0.00164325 0.00565245 
-0.000195263 -0.000762963 -0.00779604 
-6.90627e-05 -6.63823e-05 0.000125207 
-0.000172656 -0.000167524 0.000118891 
-2.54411e-05 -2.57017e-05 -0.000108266 
0.000293988 0.000577583 0.0302977 
-0.0171019 -0.000360613 0 
-0.00104876 -0.0131915 0 
0.00839648 -0.00087962 0 
0.0331858 0.0232488 -0.00365659 
-9.7652e-05 0.000321915 0 
7.15631e-05 -0.000185459 -0.000511708 
-4.97945e-05 0.00016415 0 
0.000505948 -0.000458738 0 
-0.000528623 -0.000122452 -0.000254748 
0.00126066 0.00026076 -0.00123365 
0.000991902 0.000239408 0.00104585 
0.000765948 0.000795039 -0.000932833 
0.000666125 0.000150425 -9.26069e-05 
-0.00102379 -0.000114227 -0.000839061 
-0.000434169 -7.71957e-05 -0.00116753 
-0.00101446 -0.000246002 0.00113736 
0.0195747 -0.0399628 0 
-0.0198536 0.0387867 0 
-0.0191218 0.049752 0 
-0.0368104 0.0661803 0.169193 
-0.00870469 0.00886365 0 
0.0302176 -0.0161119 0 
-0.0130913 -0.00479496 0 
-0.0802608 0.0371721 0.0452071 
0.0505213 -0.00612557 0.0955481 
0.0254209 0.009467 0.116897 
-0.00825975 -0.0226753 0.265511 
0.0505525 0.0633611 0.075344 
-0.000433131 0.000900039 0.00637277 
0.00685416 0.00161107 0.025205 
0.000293866 -0.0013907 0.00509467 
-7.08275e-05 0.000941263 -0.00854579 
0.000905052 0.00139512 -0.000682026 
-0.000521855 -0.000901007 0.00182944 
-0.00046102 -0.000683147 -6.16219e-05 
0.00505345 0.00537144 0.00858417 
-0.000242418 7.2934e-05 -0.000884469 
-0.000900176 0.000191739 0.000537256 
0.000972399 -0.000196193 -0.00110845 
0.000691112 -0.000661196 -0.000402402 
0.00138417 -0.00058885 0.00553858 
-0.000712596 0.000529911 0.00546587 
-0.000564766 9.7849e-05 -0.00748337 
-0.00319692 -0.00658196 0.0284639 
-0.00699538 -0.0190068 0.135701 
0.0130278 -0.00415314 0.268984 
0.0265552 -0.000665569 0.218408 
-0.0593186 -0.0911328 0.169805 
7.40275e-06 0.00144406 0.00454621 
-0.000130637 0.000368293 0.00562813 
-0.00012277 -0.00304302 -0.00596636 
0.011827 0.000134438 0.034048 
0.000339596 1.52686e-05 -0.00765206 
0.00079887 0.000844656 0.00549119 
-0.00125373 -0.000838255 0.0055382 
0.00467499 -0.00578349 0.0272762 
0.000671062 0.000348628 0.0058705 
-0.00605409 0.00579637 0.0264382 
0.00120724 0.00129062 -0.00871019 
-0.000911403 -0.00093691 0.00548831 
1.21972e-05 -0.000153672 -0.0001358 
7.21115e-06 -5.21645e-05 0.000189166 
7.66042e-07 9.99689e-07 6.56519e-05 
-3.85906e-05 0.000367417 0.0286891 
0.00361583 0.0128408 0.0362123 
0.00591908 0.0107258 0.0250988 
0.00633863 0.0125311 0.0428348 
-0.000185488 -0.00437722 0.0317585 
-0.00183604 -0.000419751 0.00519601 
0.000590641 -2.10113e-05 -0.00758092 
0.00110742 0.000484269 0.00561754 
0.00193036 -0.00611965 0.0259413 
-0.000667316 0.000436894 0.271318 
-0.0143175 -0.00648232 0.221163 
0.00622461 0.0279486 0.148809 
0.0503665 0.0934129 0.168735 
6.83463e-06 -1.86627e-05 3.55596e-05 
9.58015e-05 -0.000218025 -0.000149282 
-0.000101657 0.000234054 0.00011824 
-0.000353208 0.000116229 0.0270113 
0.000145852 9.51525e-05 0.00494081 
-0.000248172 -1.91174e-06 -0.006259 
-0.0120858 -0.00655759 0.036266 
0.000212632 -4.2584e-05 0.00476895 
0.0277768 -0.0265684 0.113344 
0.0153131 -0.000188146 0.125341 
-0.0317782 0.0101173 0.280452 
0.0900692 -0.0256707 0.113849 
-0.00669064 -0.00191265 0.0272367 
0.000443019 -0.000960309 0.00574542 
-1.43769e-05 -0.000605898 -0.00750495 
-0.000373309 0.00168399 0.00520811 
-7.73527e-05 -4.66819e-05 -0.000537511 
0.000583148 0.000389512 0.00124425 
0.000100659 9.32691e-05 -0.00173019 
0.00141077 0.00175445 0.0283489 
-0.00742356 -0.031529 0.105486 
0.00632693 -0.0395508 0.101748 
0.0206411 0.00334974 0.281441 
-0.0660314 -0.07288 0.112678 
-0.00016469 -3.56638e-05 0.00511608 
-0.000420279 0.00128749 -0.0074589 
0.0101771 0.00401774 0.0287118 
0.000286702 -0.000908474 0.00553745 
0.000123701 0.000367232 0.005888 
-0.0123714 0.000551281 0.0353306 
2.97596e-05 0.000880769 0.00429098 
0.000110234 -0.00270725 -0.00576043 
-7.54083e-05 6.1626e-06 -5.08685e-05 
0.000133806 -1.07988e-05 0.000129355 
-0.000203282 1.6742e-05 -0.00010008 
0.0001812 -7.49113e-05 0.0293358 
2.70789e-05 0.000111125 -9.09088e-05 
-7.66877e-05 -0.000325902 0.000481555 
8.29782e-05 0.000480197 -0.00307467 
-0.00213496 0.00428399 0.0240858 
5.81214e-05 -0.000712453 0.00192694 
8.58497e-05 -0.00105235 -0.000590752 
6.93359e-06 -8.49921e-05 -0.00117563 
0.00165459 0.0023747 0.0208893 
6.13708e-05 -4.56637e-05 -0.000218031 
3.01178e-05 -1.7149e-05 0.000286001 
0.000141042 -9.69104e-05 9.9082e-05 
-0.000464118 0.000183044 0.0295718 
0.00120327 0.000599364 0 
0.000360644 0.000110852 -4.85381e-05 
-0.00039021 -0.000118369 0 
-0.000674682 -0.000204663 0 
-0.00158163 -0.00043654 0 
0.000629696 0.000191016 0 
0.000371401 0.000112663 0 
-0.000254127 -8.23338e-05 -0.000175373 
0.00262936 0.00148258 0 
-0.00861574 -0.00684942 0 
0.0059899 0.00376689 0 
0.0128129 0.00702809 0.0148926 
0.0186782 -0.0654813 0 
-0.0237177 0.0677477 0 
0.0352259 -0.0583135 0 
0.010764 -0.0545446 0.201744 
-0.000251458 -0.0112907 0.0323637 
-0.00107606 7.34224e-06 0.00417374 
-0.000558296 0.000104194 0.00586266 
0.00304717 0.000138081 -0.0059679 
-0.00125956 0.000382084 0 
-8.37725e-05 2.54121e-05 0 
0.00113472 -0.000368434 -0.000917209 
0.000711021 -4.66092e-05 0 
0.000706524 0.00104789 0.00537041 
0.000141705 0.000704341 -0.0086112 
-0.000668416 -0.00156451 0.00615583 
-0.00577569 0.00223025 0.0248572 
2.13633e-06 4.96993e-05 -0.000152349 
3.78225e-06 4.33685e-05 -1.3008e-05 
2.07051e-05 0.000172464 0.000302447 
-3.24177e-05 -0.000400968 0.0295757 
0.000466171 -0.000872146 0 
0.000217737 -0.000407357 0 
-0.000425525 0.0013651 0 
-0.000274868 0.000508877 9.89104e-05 
-0.00805468 -0.0074558 0.0652761 
-0.00526652 -0.00464552 0.075488 
-0.00406371 -0.00863992 0.0690774 
-0.000683729 -0.000762135 0.0776011 
-0.000149472 0.000699145 -9.0696e-05 
-2.68301e-05 0.000115876 8.58987e-05 
0.000141261 -0.00060666 -0.000488706 
-0.00024085 0.00025486 -0.00110874 
-0.0016097 0.000290057 -0.0061735 
-8.63177e-05 0.000188986 0.00506989 
-0.00143691 -0.012099 0.0361697 
0.00046242 2.64861e-05 0.00519314 
-0.00048007 -0.000558006 0 
0.000319146 3.14331e-05 0 
0.000928929 9.14915e-05 0 
-0.00057543 -5.99591e-05 -0.000131203 
0.00169144 0.000188873 -0.000890132 
-0.000429185 -4.22711e-05 0 
0.00061825 0.00136177 0 
-0.00124498 -0.00012262 0 
-0.00339269 -0.000159839 -0.00641991 
0.000426515 -0.000113772 0.00573737 
0.00166298 4.18606e-05 0.00449062 
0.000717252 0.0105365 0.0311084 
-0.000791159 0.00471527 -0.00431357 
-0.00232147 -0.00418613 0 
0.000623533 -0.000122469 0 
-0.00227572 -0.00357688 0 
0.000198042 -0.000104709 -0.00627513 
0.0105126 -0.00891034 0.03606 
-0.000225793 -9.46262e-06 0.00481786 
-2.46058e-05 0.000243448 0.00495864 
-0.0101843 -0.0193143 0.158777 
0.0308682 -0.0227879 0.101979 
-0.00814392 0.0155896 0.264495 
0.0327077 -0.0835749 0.0976094 
0.0221572 0.0140007 0.109331 
0.00146857 0.0365804 0.139858 
-0.00577463 -0.0220469 0.255652 
0.0541827 0.086682 0.116037 
0.0043651 0.00636417 0.0269461 
-0.00118801 0.000855981 -0.00762056 
0.00108399 -0.000724309 0.00499705 
-0.000592483 0.000145298 0.00591053 
-8.45266e-05 0.0026066 -0.00630154 
0.0104585 -0.000287028 0.0311729 
-0.000167786 9.088e-08 0.00613966 
-9.71344e-06 -0.00102812 0.00406101 
-0.00165652 -0.00088988 0 
0.000503972 -0.000413599 0 
0.000371804 -0.000305131 0 
-0.00117307 0.00088259 -0.00232748 
4.88549e-05 -0.000198058 0.00467135 
-0.0104075 0.00757485 0.034204 
-0.000149409 -0.000470844 0.00523717 
0.000337646 0.000752632 -0.00618781 
-0.0079657 -0.00986127 0.0328013 
0.000212751 4.71141e-05 0.00489932 
-0.000123773 -0.000200708 -0.00667977 
-9.24917e-06 0.000231301 0.00494343 
2.78555e-05 -0.000282822 0 
-9.41918e-05 0.000956345 0 
0.00171302 -5.8424e-05 0 
5.88049e-05 -0.000396512 -0.000789089 
-0.000296567 -0.000410793 0.0053549 
-0.000183783 -0.00130443 -0.00659921 
4.48712e-06 0.000551974 0.00507458 
0.0107395 -0.00215626 0.0333256 
0.0317036 0.0351048 0 
-0.00614187 -0.0408841 0 
0.010239 0.0375726 0 
0.027722 0.0612694 0.119818 
-0.000178842 8.93977e-05 0.0046464 
0.000440094 -4.13402e-05 -0.00694672 
0.00565367 -0.0110133 0.0314068 
-0.000324212 3.48057e-05 0.00522684 
-0.00119318 -0.00174697 0 
6.99671e-05 0.000710388 0 
-3.27177e-05 -0.000185554 -0.000528502 
0.000134469 0.00136528 0 
-6.34355e-05 -0.000995526 0 
0.000135085 0.000252726 0 
0.000407554 0.000762479 0 
-0.000267384 -0.000503993 -5.58629e-05 
0.000107208 0.000216518 -0.000237305 
0.000775963 0.000963524 0 
-0.000163025 -0.000304999 0 
-0.000478573 -0.000895348 0 
0.000785815 0.000957519 0 
0.00105061 0.00128017 0 
-0.00120904 -0.00147219 2.15244e-05 
-0.00131868 -0.00113879 0 
0.000680375 0.00082904 0 
-0.001904 0.0011515 0 
0.000690782 0.00086015 -0.000385809 
-0.00110612 -0.00134781 0 
9.40675e-05 0.00294702 -0.00661537 
-4.55519e-05 -0.00171592 0.00416272 
0.00019794 0.000219605 0.0059451 
-0.00922849 -0.000348547 0.0283444 
-8.45291e-06 0.00019286 -0.00495754 
-0.000932234 -0.000697917 0.00501403 
0.000936989 0.000326065 0.00438959 
-0.00394645 0.00697949 0.0299455 
-0.000747805 0.00282231 0 
0.00211225 -0.000208039 0 
-0.00093147 9.17417e-05 0 
-0.00147569 0.000158247 -0.000472217 
0.0235744 0.0273563 0.0927725 
0.00287054 0.0274947 0.109584 
-0.00149769 -0.00471031 0.233383 
0.046873 0.0634258 0.0356149 
-9.65786e-05 -0.000980579 0 
9.21685e-05 0.000935803 0 
0.00296484 -0.00015634 0 
4.23233e-05 2.77804e-06 -0.00153877 
0.000943954 -0.000504554 0 
0.000197008 -0.000105303 0 
-0.000462858 0.000220032 -0.000687473 
-0.00115048 -0.00107001 0 
0.000787608 -9.92304e-05 -0.000797654 
-0.000862855 8.49838e-05 0 
-0.00126559 0.00012465 0 
0.00103259 -0.00106978 0 
-0.00950659 0.00153894 0.0291133 
-0.000103729 -0.000886264 0.00514195 
0.000239775 0.00154064 -0.00708693 
0.000345338 0.000572986 0.00534154 
0.0081463 0.0047011 0.0290636 
-0.000590667 0.000477615 0.00506864 
-0.000806623 0.00132906 -0.00724728 
0.000476174 -0.000837033 0.00537636 
0.000329322 -0.000210753 -0.00151818 
-0.00110317 0.000905349 0 
0.00129811 -0.00106534 0 
0.00126929 0.00322806 0 
0.00378361 -0.000205235 -0.00668837 
-0.000386531 -0.000105523 0.00573655 
-0.000748621 0.00888209 0.027846 
-0.00201804 8.94691e-05 0.00436616 
-0.000164459 0.00166656 -1.07104e-05 
0.000283223 -0.00287561 0 
9.11607e-05 -0.00092557 0 
-0.00157155 0.00295463 0 
0.000363622 -6.0562e-05 0 
0.000282349 -0.000137077 -0.000385389 
-0.000460403 0.000246091 0 
-0.000184101 9.84039e-05 0 
0.00151425 -0.007672 0.0248246 
-0.00399605 0.000193331 -0.00675216 
8.88836e-05 0.000160492 0.0057069 
0.00244398 -0.000117785 0.00414502 
0.00051613 -0.000628906 0 
-0.000337616 0.000411386 0 
0.000157077 -0.00024262 -0.000928882 
-0.00173 -0.00100367 0 
-1.50345e-05 4.95622e-05 0 
9.75013e-05 -0.000321419 0 
3.31954e-05 -0.000146723 -0.000352289 
-0.000305255 0.000890515 0 
-0.00359096 0.0024592 0.0712298 
-0.00405051 0.0034396 0.0747332 
-0.00639621 0.00676675 0.0687851 
-0.00107914 0.00305342 0.0783045 
-0.00253132 0.00238844 0.0727657 
-0.00509429 0.00707073 0.0708153 
-0.0063146 0.00463429 0.0718335 
-0.00752187 0.00309438 0.0679513 
0.002951 -0.00203642 0.0742682 
-0.00941089 0.00818733 0.0502426 
-0.00991445 0.00585351 0.0593534 
-0.00812707 0.00857659 0.0620884 
0.00266413 -0.000657993 0.074541 
-0.0100299 0.00516169 0.0595139 
-0.00930423 0.00642364 0.0501922 
0.00496635 -0.00216968 0.0541624 
0.00379951 0.00161004 0.0584066 
-0.00180621 0.00742931 0.0751127 
-0.00234537 0.000109822 0.0430563 
-0.00277501 -0.00106088 0.0407885 
0.00403965 -0.00189047 0.052362 
-0.00373959 -0.00639029 0.0424441 
-0.00182742 0.0130863 0.0827652 
0.0100911 0.0129662 0.0806648 
0.0017567 0.0161763 0.0588168 
-0.00270417 0.00811549 0.0704823 
0.00493477 0.00545736 0.0721815 
-0.00213344 0.0133723 0.0684247 
0.000119837 0.0074221 0.0654795 
0.00467867 0.0095541 0.0691836 
-0.00129892 0.0110837 0.0681234 
0.000184317 0.00383679 0.0746633 
0.00814496 -0.00768766 0.0427907 
0.00572573 0.00805016 0.0386375 
-3.27438e-05 0.00854683 0.0925584 
-0.0061263 0.00741689 0.0384818 
0.0120559 0.000804938 0.10406 
-0.00337183 0.0231939 0.0251733 
0.00378352 -0.00816663 0.0403296 
0.0164333 0.00467975 0.0559972 
-0.0277998 0.0286684 0.00992165 
0.00893969 -0.00192454 0 
0.00559192 0.00148042 0 
-0.00359151 0.000200494 0 
-0.0168485 0.026208 0.0167445 
0.00268355 0.00640063 -0.00663392 
0.000599838 0.00334521 -0.00903386 
0.0144874 -0.0256932 0.0413216 
-0.000460855 -0.000459366 0.0341704 
3.36683e-07 -7.58453e-06 0.000213695 
2.39207e-05 -4.25939e-05 1.57838e-05 
-5.49419e-05 0.00010687 -0.000312504 
-0.00112059 -0.000543865 0.0346772 
9.83635e-05 -0.000212205 0.000277746 
0.00038958 7.26668e-05 -0.000139434 
-0.000687819 -0.00038232 0.0437985 
0.00031609 -0.00733376 0.0660487 
-0.00560064 -0.00250043 0.0661246 
-0.00856715 -0.00953891 0.0729323 
-0.00394237 -0.00296208 0.0621312 
-0.000689296 -0.00823711 0.0740395 
-0.00928517 -0.00969202 0.0723126 
-0.00549995 -0.00209333 0.0612531 
-0.0049733 -0.00336971 0.0643532 
0.0031744 0.00104119 0.0598275 
0.00516702 -0.00244052 0.0752958 
0.00342061 0.00121784 0.0397983 
0.00269154 0.00139177 0.0547143 
0.00321087 0.00192252 0.0595782 
0.000580582 -0.00393558 0.0410832 
0.00752185 0.00186423 0.0742214 
0.00651185 0.00418391 0.0721422 
0.00145221 -0.000542046 0.0543255 
0.000488949 -0.000339601 0.0399915 
0.00720856 -0.000739986 0.0760036 
0.00375791 0.000533581 0.0526957 
0.00208138 -0.00262007 0.0559022 
0.00950712 0.00301013 0.0740829 
-0.00351721 -0.00453289 0.0417526 
0.010138 0.0039071 0.0713751 
0.0582228 -0.0174188 0.00685758 
-0.0173527 0.00236104 0 
0.00105629 0.00964105 0 
-0.00545809 0.0123671 0 
0.00652042 0.0149177 0.0369866 
0.0317364 0.00152148 -0.00791935 
-0.00231963 -0.00316519 -0.00527296 
0.00960101 0.00869715 0.0210596 
0.0017519 -0.012528 0 
0.00820759 -0.0267599 0.0169398 
0.00373311 0.0169181 0 
-0.00330565 0.0113862 0 
-0.00242855 0.00914928 -0.0154901 
0.00887289 -0.0104813 0.0361646 
0.0207808 -0.0280043 0.00296882 
0.00737331 -0.0186492 0.0497425 
-0.0237885 0.0428771 0.0293034 
0.00307402 -0.0146583 0 
-0.0168693 0.0203391 0 
-0.00565032 -0.0129957 0 
-0.024803 0.0215794 0.0528286 
-0.0211903 0.0254454 -0.000820031 
0.00594346 -0.00718893 -0.0109053 
-0.00549263 0.0107031 0.0267626 
-0.00176244 -0.0404142 0.0289895 
0.000770449 0.00728613 -0.00594774 
0.0165898 -0.0160743 0.0123482 
-0.00338349 0.00223483 -0.00520746 
0.00168161 -0.0397749 0.0257077 
0.00356156 -0.00473368 0.0269085 
0.0122928 -0.001045 -0.0185602 
-0.00799708 0.0104606 0.0331657 
-0.00084893 0.00746965 0.00590771 
-0.00241588 0.000297555 0 
-0.00507996 -0.00223683 0 
0.00407608 0.000598692 0 
0.00643914 -0.00486439 0.0179918 
-0.02789 -0.0092289 0.0108937 
-0.00568666 0.0213938 -0.0220486 
-0.0188688 -0.0341818 0.0682424 
0.000843764 0.00224237 0.0381433 
-0.0013666 0.00540509 0.0695698 
0.00142491 0.000919346 0.0479936 
-0.000982908 0.00565781 0.0717684 
0.000954471 0.00164644 0.0481293 
0.000352988 0.00355334 0.0694542 
-0.0001786 0.00308825 0.0380915 
-0.000168341 0.00117032 0.0494491 
-0.00010508 -0.00149766 0.00141971 
0.000663974 -0.00109178 0.000599675 
0.000114474 0.00163155 -0.000969151 
2.37515e-05 0.000338521 -0.00105788 
-0.00214058 0.000165629 0 
-0.000611097 -0.00192066 0 
0.0024188 0.000143022 0.00158891 
0.00126104 -9.95092e-06 0 
-8.11742e-05 -0.000352275 0.0310068 
6.55392e-05 -6.09531e-05 0.000470995 
-0.000171578 0.000171407 0.00114214 
-0.000174975 0.000166298 -0.000541524 
-0.00146537 -0.000222952 0.0308594 
-9.83832e-05 0.000181773 0.00171854 
0.000396312 -0.00010106 0.00020205 
-0.000653799 -0.000747916 0.0502495 
-0.00458594 0.00107041 0.0677843 
-0.00278846 7.41163e-05 0.0797987 
-0.00337461 -0.00206872 0.0775723 
-0.00832023 -0.000377714 0.06943 
-0.00316513 -0.00149101 0.0775091 
-0.00276471 0.000850518 0.0797379 
-0.00536655 0.000437911 0.0679053 
-0.00208299 0.000766578 0.0757759 
0.0140044 -0.00285427 0.0230347 
0.0212108 -0.0237091 0.0378929 
-0.000988655 0.00184739 -0.00141686 
-0.00763857 0.00665134 -0.0132885 
-0.0060781 -0.00527348 -0.00936893 
-0.0124249 -0.0445784 0.0562557 
0.0437379 0.0209178 0.0212171 
0.0623213 -0.0229009 0.0884821 
0.0086808 0.00270541 0.0291437 
0.00883703 0.00553315 -0.000882045 
0.0144012 0.0101238 0.0361406 
-0.00605261 -0.00196121 -0.00953389 
0.00907468 0.00134178 0.0315306 
0.0120802 0.0111243 0.0432471 
0.010448 0.00634263 -0.0103406 
0.0248977 0.0116057 0.0707456 
0.00174818 0.0006015 0.0325922 
0.00182856 0.00194277 0.0564384 
-0.00116641 -0.000660941 0.000905085 
0.00111485 0.00126745 0.0380206 
0.000207136 -0.000878351 0.0336252 
-0.000470775 -8.41994e-05 0.000376884 
0.00320129 0.00368134 0.0558034 
6.25314e-05 -0.000923307 0.0390846 
-0.00273977 -0.0308668 0 
0.0345858 0.061799 0.058786 
-0.0184534 -0.029603 0 
0.0362863 0.0413956 0 
0.00406792 -0.00306543 -0.0106893 
-0.00911669 0.0114841 -0.0151441 
0.0301187 0.0180886 0.0699655 
0.018588 0.0146429 0.0382776 
-0.000842222 0.0113752 0 
-0.0230315 -0.0344098 0 
0.0288955 0.0534149 0.0650724 
0.0325475 0.03747 0 
-0.0138712 0.00388543 0.00584263 
0.0345617 0.0357244 0.0785096 
-0.00843748 0.00249587 -0.0282955 
0.0172169 0.0119568 0.0390512 
0.0575733 0.0322777 0.144927 
-0.0219489 0.0221353 -0.038739 
0.0455179 -0.00911649 0.0794838 
0.0190498 0.0503602 0.0235268 
0.0277844 0.0590029 0.115945 
0.0372261 -0.00433552 0.0738685 
0.00894062 0.00956782 -0.0226567 
-0.00767851 0.0297429 0.0403033 
0.000121622 -0.000117355 0.000506271 
-0.000108663 4.07921e-05 0.030858 
4.23383e-05 -4.03632e-05 -0.00063777 
9.78972e-06 -9.1637e-06 -0.000429033 
0.000427522 0.000203853 -8.8385e-05 
0.000242947 1.43452e-05 0.0309698 
-0.000350021 -6.56443e-05 0.000381662 
-0.00120949 -0.00146254 0.0339179 
0.00075576 0.000378526 0.0791272 
-0.000989483 -0.00181511 0.0706418 
-0.00352234 -0.00179513 0.0781421 
-1.34037e-05 -0.000293118 0.0807451 
0.000759723 0.000205343 0.079108 
-0.00339736 -0.00197496 0.0787179 
-0.00107532 -0.00117836 0.0703611 
-0.000642093 -0.00035098 0.0677821 
0.00418866 -0.00473707 -0.00287679 
-0.00597174 0.00938139 0.0297334 
-0.00147068 0.00284335 0.00471704 
-0.00699733 0.00790055 0.0246167 
0.000984963 0.000783947 0.00372994 
-0.000264088 0.00548647 0.02896 
-0.00108171 -0.000767708 -0.00152675 
-0.00183631 -0.00126331 -0.00149092 
0.000617335 0.000764119 -0.000731431 
-4.42257e-05 0.000643099 0.000747671 
4.06034e-05 -0.000590426 0.000316123 
-4.58262e-05 0.000666373 -0.000977293 
-0.000667841 0.00164187 0 
-0.00106639 0.000165629 0 
0.000687973 0.000143022 -0.000404001 
0.000969961 -9.95092e-06 0 
0.00900916 -0.0048291 0.0265598 
-0.00421077 -0.000140142 -0.00170582 
-0.00344378 -0.000161887 0.0346527 
0.0107268 -0.00484089 0.0336432 
-0.000465939 0.000204829 0.034131 
0.000837179 0.000328279 0.000292384 
0.00438605 -0.00525781 0.0247243 
-0.00183448 0.00177653 -0.000816463 
8.56334e-05 -0.00282655 0.0307236 
0.000143607 -6.92104e-05 -0.000668184 
0.000285247 -0.000147259 -0.000801106 
6.09598e-05 -4.30158e-05 0.000449457 
-1.74044e-05 -0.00140162 0.0318876 
0.00059819 0.000228285 -0.000266649 
0.00147779 0.000402223 0.000632944 
-0.000648072 -0.0104914 0.0204003 
0.0148048 0.0197933 0.0506114 
0.0180679 0.00364125 0 
-0.000828739 0.0306161 0 
-0.00785443 -0.0172217 0 
-0.00168385 -0.0271824 -0.0317803 
0.00794262 0.0638988 0.0565288 
0.0458149 0.0471723 0.0842579 
0.0345569 0.0454999 0.179763 
0.0173417 0.00314097 0.0346725 
-0.00121716 0.00569223 -0.0241824 
0.016813 -0.0262756 -0.00840785 
-0.00469761 0.0653434 0.0807512 
0.0119465 0.00723248 0.0192861 
-0.000983956 -0.00454819 -0.000848257 
0.00661971 -0.000344042 -0.00249186 
-0.000548329 -0.0016794 -0.00523784 
-0.0418143 -0.0333991 0.135289 
0.0361935 -0.0790733 -0.00271026 
-0.0346877 -0.00246397 0.24659 
-0.000932076 0.0179728 0.217118 
-0.0297829 -0.03862 0.147296 
-0.0325724 0.0186878 0.239837 
-0.0230011 -0.0299952 -0.0711761 
0.0286627 -0.0723602 0.144364 
-0.00598006 -0.00277334 0.272196 
-0.0244674 0.00469609 0.268264 
0.0201983 -0.092427 -0.0372409 
-0.000421588 0.027521 0.220805 
-0.00523774 0.00479639 0.264414 
0.00772541 -0.0820791 -0.0457723 
-0.03847 0.0300836 0.244741 
0.00723712 -0.0370933 0.119301 
-0.00135808 0.00284648 0.061446 
-0.000133122 0.0090966 0.0688753 
-0.000382296 0.00795774 0.0688478 
-0.00562097 0.0106779 0.0708012 
-0.00470695 0.00355001 0.0577979 
-0.00363302 0.00891374 0.0723609 
0.00466148 0.00799566 0.071678 
0.00546035 -0.0032024 0.045301 
0.0127116 0.00442901 0.0461807 
4.08823e-06 -0.0015734 0.0662601 
0.012793 0.0016997 0.0465191 
0.0120454 0.00235363 0.0585715 
0.0131385 0.00217251 0.046944 
0.000925701 -4.15122e-07 0.0674265 
0.0122222 0.00381627 0.0455847 
-0.00369781 -0.00148886 0.0346539 
-0.000321477 0.00260034 0.0850746 
0.000510678 -0.0102572 0.0684696 
-0.00198864 -0.00909973 0.0696064 
0.000211501 0.00225937 0.075625 
0.000839875 0.000500131 0.0866572 
-0.00313687 -0.00790777 0.0688274 
-9.88266e-05 -0.00944441 0.0678961 
-0.000870141 -0.00580939 0.0766699 
-0.0644908 0.0404511 0.0533232 
-0.0244676 0.0138128 0.261747 
0.0509507 0.0350196 0.116604 
0.00570408 -0.00839066 0.170136 
-0.0755614 0.00662233 0.000124824 
0.0690821 0.0442748 0.127534 
-0.00433967 0.0336599 0.289686 
-0.0515588 0.0356854 0.137001 
0.00655954 0.00819255 0.0318978 
0.000212909 -0.000361473 0.030928 
0.00557851 0.0107504 0.0419561 
0.00589079 0.00818661 0.0261018 
0.00531144 0.010381 0.0424698 
-0.000316459 -0.000364584 0.0308748 
0.00546478 0.00862881 0.031137 
0.000963913 -0.00173029 0.0462035 
-0.0137431 -0.00749042 0.0529558 
0.0315161 -0.0284378 0.107684 
0.008099 0.016889 0.0563325 
0.000582389 -0.0057679 0.0600049 
-0.00381673 -0.00522259 0.059809 
0.0133137 0.00467117 0.0617062 
0.00762341 -0.0266065 0.0902246 
-0.00357107 -0.0136926 0.0728688 
0.00138478 -0.00233318 0.0663405 
-0.0109108 0.00654258 0.0433306 
-0.0129295 0.00352151 0.048512 
-0.0109216 0.00508333 0.0590014 
0.00138992 -1.74106e-05 0.0666112 
-0.0129311 0.00327181 0.0484843 
-0.0117458 0.00455962 0.0442708 
0.00407862 -0.0012602 0.0373625 
0.00814041 0.00191347 0.0863927 
-0.0125535 0.00355691 0.0709416 
-0.00715522 -0.00879702 0.0730101 
0.0050121 -0.00173131 0.0489524 
0.0189827 -0.00715764 0.0908906 
0.000351541 -0.017226 0.0760949 
-0.0318371 0.0165193 0.0628983 
-0.00496656 -0.0112897 0.11699 
-0.00277227 0.0131285 0.00497084 
0.00294051 0.000896507 0 
-0.000716518 -0.00538192 0 
0.00475159 -0.00165895 0 
0.00928733 -0.00277819 0.023514 
-0.00827332 -0.00377034 -0.00710681 
0.00624876 0.00552722 0.000229314 
0.0282437 0.0225953 0.0250495 
0.002178 -0.00196199 0 
0.000944846 0.00108159 -0.00199099 
-0.000608612 -0.000560552 0 
0.0016707 -0.00133969 0 
0.00256936 -0.002535 0.00057446 
-0.00104184 7.37635e-05 -0.000200017 
0.0017691 -0.000125254 -0.000709717 
-0.00121956 8.63463e-05 -0.00281279 
0.0298702 0.0202319 0.1376 
0.0138292 -0.0318625 -0.0568073 
-0.000358507 0.0128036 0.188315 
0.0704579 -0.0358889 0.0284479 
0.0227598 -0.000131197 0.133538 
0.0380794 -0.04293 0.139045 
-0.00188933 0.0148233 -0.0263944 
0.0329049 -0.0224047 0.00272317 
0.000160372 -0.00850135 0.0213342 
0.000611315 0.00058779 0.000905053 
0.000384231 0.000367822 0.00326766 
-0.000370522 -0.000355505 -0.00180922 
0.00528886 -0.0211794 0.0388299 
-8.28688e-05 0.00575089 -0.00328072 
0.00388885 0.00489644 -0.00245714 
0.00228551 0.000323025 0.0434866 
0.0165454 0.00752274 0.0591294 
0.0153944 -0.00609692 0.0769322 
0.020623 0.000908635 0.0676311 
0.00960691 0.00337863 0.0713902 
0.0390784 -0.00554415 0.0726246 
0.0188723 -0.00527079 0.0802324 
0.0018601 0.0103032 0.0524365 
0.0184677 0.0038634 0.0532831 
0.00054678 0.00106339 0.0306458 
-0.00350041 -0.00311816 0.0615985 
0.00277547 -0.00108184 2.38317e-06 
-0.00124867 6.99684e-05 0.0390689 
-0.000255246 0.000179399 0.0286357 
0.00121213 -0.00372053 -0.00489884 
-0.000186715 -0.00154328 0.0676728 
0.00201055 -0.000570451 0.0445982 
-0.0037643 0.00110612 0.269396 
-0.00133214 0.0162805 -0.110125 
0.059161 -0.0712255 0.143856 
0.0759341 -0.0293109 0.16612 
0.043275 -0.0539667 0.128064 
0.0568566 -0.00061879 -0.0328704 
0.00965452 -0.0320376 0.274957 
0.0110063 -0.0334417 0.133038 
0.044801 -0.00613675 -0.0514001 
0.0398058 0.0414862 0.244494 
-0.0713441 0.0144744 0.130508 
0.0505046 0.0443635 0.129149 
0.0448765 0.033126 0.0144522 
-0.0312621 0.0264412 0.127374 
0.0313551 0.0107742 0.197845 
0.0229767 -0.0124786 0.111599 
-0.0273219 -0.001708 0.0151205 
-0.0124483 -0.0050832 0 
0.0125823 0.00886305 0 
0.00612636 0.00849493 0 
-0.0108539 0.007773 0.0333782 
0.00718197 0.00166008 -0.0135883 
-0.0327943 -0.00464093 1.25106e-05 
-0.0231036 0.00487583 0.0521605 
-0.00150298 -0.00138683 0.0301786 
0.00912131 0.00637716 0.027346 
0.010561 0.0066771 0.0442385 
0.00915223 0.00576696 0.0279781 
0.000204756 0.000635768 0.0292043 
0.00949967 0.00481144 0.0446036 
0.00718187 0.00421835 0.0285071 
-0.00205889 1.13506e-05 0.0323492 
-0.00412586 0.00973631 0.0293795 
0.000832836 -0.00612167 -0.00226187 
-0.00154908 0.00269238 0.00514853 
-0.00266764 0.0119662 0.0287873 
-0.00481457 0.00323345 0.0292303 
-0.00149367 -0.000537362 0.00406606 
0.00154309 0.000610845 -0.00210041 
0.00222228 0.000921537 -0.00144783 
-0.0111779 5.26211e-05 0.0622857 
0.00125484 -0.00873759 0.0731577 
-0.00374239 0.0174534 0.0278138 
0.00879219 -0.00862293 0.0778102 
-0.00405534 0.014866 0.0316199 
0.00370818 -0.00652414 0.0669488 
-0.015199 -0.00431126 0.0734247 
-0.00581439 -0.0031809 0.0670773 
-0.000685835 0.0029024 0.0302919 
0.000381163 0.000684127 0.000270155 
0.000522139 -8.59526e-06 0.0432857 
0.000399803 -0.000281661 0.000226525 
0.000206309 0.00213939 0.0313209 
0.00192164 -0.00117539 0.0448689 
-0.00129217 0.00154888 -0.0010786 
-0.00308707 0.00317277 0.0319487 
-0.000361942 -0.000350196 0.000124332 
0.000241029 0.000545131 0.0429561 
0.000279095 0.000268224 0.000268052 
0.000301348 0.000290858 3.89709e-05 
0.00123091 -0.00123902 -0.000518435 
-0.00015757 0.000547801 -0.000275773 
-2.69862e-06 0.000653293 0.0436126 
-0.00243189 0.00167483 0.0316712 
-0.0206126 -0.093713 -0.0515225 
-0.0449261 -0.0453705 0.168064 
-0.000940993 -0.0354364 0.117866 
-0.023122 0.0283974 0.254605 
-0.0649146 -0.0480891 0.0145149 
-0.0138519 -0.0797872 0.121796 
-0.00751818 -0.0333839 0.125722 
0.028215 -0.0238491 0.130204 
-0.00245311 -0.0073654 0.256026 
-0.00402969 -0.0436394 0.164334 
-0.0582693 -0.0170105 0.154046 
-0.00258961 0.00211598 0.217741 
-0.0178845 -0.0107535 0.275518 
-0.0422481 -0.0134979 0.133809 
-0.0107171 -0.0526512 0.17128 
0.0524319 -0.058999 0.0876254 
0.00385959 -0.0102838 0.0265692 
-0.00130487 0.00445898 -0.00268303 
-0.00131268 0.0037003 0.0329716 
0.00498139 -0.0104108 0.0298411 
0.00157833 -0.00374468 0.0249543 
0.00088946 -0.000711643 0.0335658 
-0.000663834 -0.000949263 -0.000416753 
-0.000504829 0.0020252 -0.000504689 
-0.00142205 0.00291617 -0.00189758 
-0.00241811 -0.0010231 -0.00226428 
0.006187 -0.00337164 0.0136367 
0.001588 0.00169718 -0.00130753 
0.00297793 0.000680993 0.000562631 
0.00229946 -0.00456669 0.00793098 
-0.000690374 -4.73763e-05 0.000766937 
-0.0024299 0.00246899 -0.00262389 
-0.000124159 -0.00232709 -0.00181443 
0.00261667 0.000552675 -0.00131336 
-0.00118089 0.00448098 0.0131841 
-0.00234665 -0.00124658 -0.000607695 
0.0019603 0.00499089 0.00853214 
0.000685297 0.000573897 0.0010297 
-0.00274995 -0.00151949 0.000167756 
0.00216786 -0.00109339 -0.00102519 
4.11782e-05 -0.000166792 -0.00109985 
0.000954945 0.00064618 0.000831385 
-3.32411e-05 7.33026e-05 -0.000147627 
0.000144967 -0.000412825 -0.000928579 
-0.000588078 -0.000624961 0 
0.000144825 0.000273161 0 
0.00102785 0.000248122 -2.34795e-05 
-8.34268e-05 0.00128489 0 
0.00239824 0.000458443 0.0592839 
-0.0121251 -0.00589945 0.0335089 
-0.0109952 -0.00820759 0.0476176 
-0.0118625 -0.00640385 0.0533084 
-5.12281e-05 0.000198666 0.0608073 
-0.0100261 -0.00834742 0.0473234 
-0.0099379 -0.00625157 0.0328912 
0.00198783 0.00192139 0.0346569 
0.00327591 0.00208128 0.0584012 
-0.000310712 8.57715e-05 0.0351573 
6.35355e-05 -0.000341826 0.0606186 
0.000931326 0.000427183 0.043548 
0.00339067 0.00215561 0.0585598 
0.000239913 0.000107575 0.059881 
-0.000558309 -0.000319563 0.0355324 
0.00173696 0.00185976 0.0545162 
-0.000490993 -0.00191299 0.0261418 
-0.000114247 0.000411114 0.000890395 
7.58265e-05 -0.000295467 0.000594131 
0.000149538 -0.000547733 -0.000660894 
-0.00250049 -0.00272815 0.0288218 
0.000269938 -0.000116554 0.000249518 
0.000883526 0.000641661 -0.000291187 
-0.000343144 -0.000791362 0.0365951 
-0.0042832 -0.0981881 0.151809 
-0.0397734 0.0296407 0.170192 
-0.0502838 0.0802415 0.0644983 
-0.00563007 -0.00271622 0.27724 
-0.0396785 -0.0123269 0.1499 
-0.00840176 0.0432356 0.106014 
-0.0636236 -0.00596033 0.112106 
-0.0310842 -0.0331505 0.0249802 
-0.0173465 -0.00629947 -0.0528774 
0.0240368 -0.024905 0.117384 
-0.07877 -0.0231676 -0.0105203 
-0.0374914 -0.0238492 0.139094 
0.0347178 -0.00986079 0 
-0.0484109 0.0147777 0 
-0.0386264 -0.0490692 0.0681823 
-0.0150518 -0.00660309 0 
-0.0279743 -0.00522281 0.26329 
-0.033586 -0.00405817 0.137468 
-0.022404 -0.079536 -0.0373979 
-0.0367982 -0.0175236 0.141826 
-0.00305191 0.0195203 0.235825 
-0.0227247 -0.00421114 -0.0999851 
-0.0583646 -0.0526378 0.184727 
-0.0169913 -0.0540404 0.105286 
0.000539389 -0.000757341 0.0307972 
0.000321557 -0.000631397 -0.000124264 
-0.000248404 0.000488304 0.000917027 
-0.000196836 0.000386423 -3.69003e-05 
0.000666321 -0.00044908 0.0313308 
-0.000555561 -0.000266234 0.000572064 
0.000611223 8.56225e-05 -0.000398992 
0.00157667 -0.000865888 0.0375338 
0.000608795 -0.000623616 -0.00127807 
0.00155299 0.0121039 0.0231222 
0.00295095 -0.00287965 0.00435233 
-0.000896661 0.000833271 -0.00439687 
-0.00214571 -0.00363393 -0.00583688 
0.0111659 0.0134758 0.041706 
-0.00348199 -0.00191166 -0.0179906 
0.019915 0.0103872 0.045198 
6.81451e-06 8.74746e-05 -0.00065924 
-0.000262993 0.000256304 0.0305416 
-3.25559e-05 -0.000163961 0.00040882 
9.49384e-06 5.13861e-05 -0.000157773 
-0.000177014 -5.79342e-05 0.000133447 
-0.000376742 7.81349e-05 0.0306648 
0.000369967 0.000262934 -0.00054132 
-0.00105559 0.00027473 0.0334593 
TENSORS Stress float 
-9.74472 0.00261475 -0.0190229 
0.00261475 -9.71337 0.0109036 
-0.0190229 0.0109036 -9.84446 
-9.73344 -0.00229344 -0.0287364 
-0.00229344 -9.71929 0.00914758 
-0.0287364 0.00914758 -9.84983 
-9.72427 -0.0039763 -0.041332 
-0.0039763 -9.71674 -0.0168155 
-0.041332 -0.0168155 -9.86155 
-9.71085 -0.00194432 -0.0472037 
-0.00194432 -9.72555 0.0126342 
-0.0472037 0.0126342 -9.86615 
-9.71376 0.000625247 -0.0212001 
0.000625247 -9.72532 0.0295597 
-0.0212001 0.0295597 -9.87201 
-9.73304 0.00403657 -0.0340191 
0.00403657 -9.71923 -0.00904631 
-0.0340191 -0.00904631 -9.85882 
-9.74308 0.0105866 -0.0288647 
0.0105866 -9.70557 -0.0170036 
-0.0288647 -0.0170036 -9.86244 
-9.71756 -0.0117345 -0.0484683 
-0.0117345 -9.72023 -0.00297001 
-0.0484683 -0.00297001 -9.8733 
-9.28449 -0.0549501 0.274934 
-0.0549501 -9.56083 0.330455 
0.274934 0.330455 -9.63407 
-9.33605 -0.0593588 0.127122 
-0.0593588 -9.54658 0.39841 
0.127122 0.39841 -9.59677 
-9.40765 -0.0511387 0.4477 
-0.0511387 -9.56976 0.398457 
0.4477 0.398457 -9.50199 
-9.05648 -0.255235 0.274713 
-0.255235 -9.52245 0.247962 
0.274713 0.247962 -9.90047 
-9.33224 0.0299919 -0.397521 
0.0299919 -9.60192 0.0797773 
-0.397521 0.0797773 -8.69285 
-9.42645 0.231536 -0.670386 
0.231536 -9.68266 -0.388623 
-0.670386 -0.388623 -8.5179 
-9.15853 0.186556 -0.464605 
0.186556 -9.62631 0.158025 
-0.464605 0.158025 -8.84217 
-9.35117 -0.173026 0.551623 
-0.173026 -9.18663 -0.310697 
0.551623 -0.310697 -9.08921 
-9.83884 -0.00114315 0.0895967 
-0.00114315 -9.82067 0.00466734 
0.0895967 0.00466734 -9.86878 
-9.84999 0.0037999 0.0601622 
0.0037999 -9.83856 -0.023149 
0.0601622 -0.023149 -9.83974 
-9.86431 0.00940262 0.0685989 
0.00940262 -9.82137 0.00486867 
0.0685989 0.00486867 -9.84261 
-9.84269 0.00346448 0.0785915 
0.00346448 -9.8259 0.00253549 
0.0785915 0.00253549 -9.85971 
-9.0798 -0.0580618 -0.00267771 
-0.0580618 -8.81981 -1.09693 
-0.00267771 -1.09693 -10.3382 
-10.1465 0.106949 0.340107 
0.106949 -8.68077 0.0321176 
0.340107 0.0321176 -9.41047 
-8.97274 -0.403663 0.262998 
-0.403663 -9.39264 -0.788505 
0.262998 -0.788505 -9.87241 
-9.34279 0.866681 0.239381 
0.866681 -8.78936 -0.138942 
0.239381 -0.138942 -10.1056 
-9.61973 0.715949 -0.68358 
0.715949 -10.2821 -1.12711 
-0.68358 -1.12711 -9.16324 
-9.54456 0.311277 -0.485216 
0.311277 -10.2366 -1.1369 
-0.485216 -1.1369 -9.28395 
-9.895 0.629228 -0.623765 
0.629228 -9.38122 -1.64766 
-0.623765 -1.64766 -9.78885 
-8.60396 0.986196 -0.814473 
0.986196 -9.54454 0.132331 
-0.814473 0.132331 -10.9166 
-9.82976 -0.048659 -0.0392671 
-0.048659 -9.86601 0.178088 
-0.0392671 0.178088 -9.8008 
-9.83786 0.0148023 -0.017821 
0.0148023 -9.82948 0.224073 
-0.017821 0.224073 -9.82923 
-9.8332 -0.0113256 -0.0286867 
-0.0113256 -9.83844 0.200062 
-0.0286867 0.200062 -9.82492 
-9.8776 -0.00418766 -0.00232275 
-0.00418766 -9.84688 0.161558 
-0.00232275 0.161558 -9.77209 
-9.85837 -0.00564493 -0.0196142 
-0.00564493 -9.87341 -0.0835088 
-0.0196142 -0.0835088 -9.92179 
-9.89473 0.00158574 -0.00662036 
0.00158574 -9.89494 -0.0879042 
-0.00662036 -0.0879042 -9.86389 
-9.84884 -0.000818338 -0.00651699 
-0.000818338 -9.89628 -0.0785298 
-0.00651699 -0.0785298 -9.90843 
-9.86529 0.00114359 -0.00976296 
0.00114359 -9.88468 -0.0835571 
-0.00976296 -0.0835571 -9.9036 
-9.82605 0.0570024 -0.000400911 
0.0570024 -9.85672 0.186574 
-0.000400911 0.186574 -9.80601 
-9.82734 0.00560797 -0.0168756 
0.00560797 -9.83995 0.206408 
-0.0168756 0.206408 -9.82149 
-9.82364 -0.0121418 -0.0197369 
-0.0121418 -9.83004 0.220833 
-0.0197369 0.220833 -9.83509 
-9.87047 0.000271175 -0.0475482 
0.000271175 -9.83419 0.165527 
-0.0475482 0.165527 -9.78412 
-9.36809 -0.0639473 -0.153237 
-0.0639473 -9.52008 -0.364227 
-0.153237 -0.364227 -11.5164 
-9.78804 -0.141542 -0.194413 
-0.141542 -9.7089 0.0684152 
-0.194413 0.0684152 -10.9076 
-10.0856 -0.246966 0.0320928 
-0.246966 -9.61726 -0.490871 
0.0320928 -0.490871 -10.7017 
-9.217 -0.39687 0.0424534 
-0.39687 -9.75975 -0.111629 
0.0424534 -0.111629 -11.4278 
-9.63603 -0.00321499 -0.179174 
-0.00321499 -9.64478 -0.321262 
-0.179174 -0.321262 -9.64775 
-9.62683 -0.0054661 -0.126493 
-0.0054661 -9.60052 -0.274372 
-0.126493 -0.274372 -9.70121 
-9.64524 -0.0112349 -0.155856 
-0.0112349 -9.63634 -0.295871 
-0.155856 -0.295871 -9.64699 
-9.67604 -0.0363491 -0.111644 
-0.0363491 -9.72269 -0.325638 
-0.111644 -0.325638 -9.52983 
-9.68948 0.00382661 -0.0518832 
0.00382661 -9.69769 -0.317944 
-0.0518832 -0.317944 -9.65809 
-9.706 0.0101451 -0.0547169 
0.0101451 -9.65738 -0.309099 
-0.0547169 -0.309099 -9.68188 
-9.73194 0.00813288 -0.0566999 
0.00813288 -9.69343 -0.319415 
-0.0566999 -0.319415 -9.6199 
-9.67805 -0.0155936 -0.0316445 
-0.0155936 -9.71306 -0.33333 
-0.0316445 -0.33333 -9.65415 
-8.3257 0.491556 1.6485 
0.491556 -9.43545 -0.143219 
1.6485 -0.143219 -9.33289 
-7.49444 0.590265 0.907176 
0.590265 -10.2773 0.119351 
0.907176 0.119351 -9.32227 
-7.94353 0.467392 0.95663 
0.467392 -9.76768 0.0184414 
0.95663 0.0184414 -9.38284 
-8.36568 -0.147946 0.457117 
-0.147946 -10.1238 0.0256388 
0.457117 0.0256388 -8.60456 
-10.8086 -0.49921 -0.173923 
-0.49921 -10.9045 0.0856906 
-0.173923 0.0856906 -12.3315 
-10.8931 0.273893 -0.198525 
0.273893 -11.4225 -0.233456 
-0.198525 -0.233456 -11.7291 
-11.4784 0.0292862 -0.19597 
0.0292862 -10.899 -0.0447646 
-0.19597 -0.0447646 -11.6673 
-11.1932 0.176279 -0.514641 
0.176279 -11.2335 -0.273841 
-0.514641 -0.273841 -11.6179 
-9.88488 0.00631744 -0.0988486 
0.00631744 -9.85556 -0.0444937 
-0.0988486 -0.0444937 -9.91399 
-9.87946 -0.0100307 -0.0809751 
-0.0100307 -9.88092 -0.0307198 
-0.0809751 -0.0307198 -9.89405 
-9.88641 -0.00243649 -0.0963947 
-0.00243649 -9.8766 -0.0262202 
-0.0963947 -0.0262202 -9.89142 
-9.88283 -0.00218528 -0.0942323 
-0.00218528 -9.87176 -0.037303 
-0.0942323 -0.037303 -9.89985 
-10.1893 0.448033 0.208809 
0.448033 -8.8961 -1.4143 
0.208809 -1.4143 -10.9134 
-9.87818 0.676248 -0.288514 
0.676248 -9.7763 -0.415101 
-0.288514 -0.415101 -10.3443 
-10.0688 0.614205 0.00692294 
0.614205 -9.31122 -0.511411 
0.00692294 -0.511411 -10.6188 
-9.71361 0.0291059 -0.333351 
0.0291059 -9.57505 -0.45954 
-0.333351 -0.45954 -10.7102 
-9.44712 -0.0558102 -0.0651977 
-0.0558102 -9.42394 -0.126087 
-0.0651977 -0.126087 -9.91061 
-9.96787 0.235516 0.00990302 
0.235516 -9.54965 -0.413162 
0.00990302 -0.413162 -9.26414 
-10.1818 -0.214857 0.619748 
-0.214857 -8.92567 -0.721942 
0.619748 -0.721942 -9.67418 
-9.67085 0.131079 0.169797 
0.131079 -9.72124 -0.326583 
0.169797 -0.326583 -9.38957 
-9.72361 -0.00764526 0.347539 
-0.00764526 -9.72524 -0.0223169 
0.347539 -0.0223169 -9.7083 
-9.74521 0.00804177 0.379983 
0.00804177 -9.69938 -0.0307945 
0.379983 -0.0307945 -9.71255 
-9.75339 -0.0055589 0.306559 
-0.0055589 -9.77201 -0.0182435 
0.306559 -0.0182435 -9.63174 
-9.67859 -0.0429859 0.293807 
-0.0429859 -9.65493 -0.0307806 
0.293807 -0.0307806 -9.82363 
-9.53908 0.238547 -0.152916 
0.238547 -9.29409 0.0963306 
-0.152916 0.0963306 -9.56515 
-9.44855 -0.0126105 0.135289 
-0.0126105 -9.4154 -0.0896025 
0.135289 -0.0896025 -9.53438 
-9.50742 0.0277842 0.110436 
0.0277842 -9.45148 -0.0425501 
0.110436 -0.0425501 -9.43942 
-9.62412 0.0471953 0.119073 
0.0471953 -9.42785 -0.180777 
0.119073 -0.180777 -9.34635 
-11.6571 -0.177795 -1.89323 
-0.177795 -7.51998 -4.15671 
-1.89323 -4.15671 -7.82901 
-9.58408 -0.309772 -0.309559 
-0.309772 -9.8557 -1.43061 
-0.309559 -1.43061 -7.56634 
-9.81936 -1.49808 0.715294 
-1.49808 -10.2699 -1.43545 
0.715294 -1.43545 -6.91683 
-7.07136 0.383379 1.67081 
0.383379 -7.94488 -0.208763 
1.67081 -0.208763 -11.9899 
-9.30397 0.0368958 -0.468775 
0.0368958 -9.48996 -0.118438 
-0.468775 -0.118438 -8.49275 
-9.25891 0.10305 -0.488044 
0.10305 -9.48427 -0.170456 
-0.488044 -0.170456 -8.54349 
-9.3432 0.150051 -0.210526 
0.150051 -9.42894 -0.266029 
-0.210526 -0.266029 -8.51454 
-9.39247 0.146215 -0.464123 
0.146215 -9.68471 -0.23054 
-0.464123 -0.23054 -8.2095 
-10.0671 0.207253 -2.33505 
0.207253 -8.92786 -0.340917 
-2.33505 -0.340917 -6.37297 
-10.3459 0.171926 -0.4876 
0.171926 -8.77788 -0.225091 
-0.4876 -0.225091 -6.24415 
-8.2823 -0.159369 -0.934747 
-0.159369 -8.06321 -1.24423 
-0.934747 -1.24423 -9.02244 
-10.0674 -0.217356 -0.807567 
-0.217356 -8.54864 -0.0820733 
-0.807567 -0.0820733 -6.75191 
-9.73866 0.0321121 -0.0474597 
0.0321121 -9.66873 0.0166837 
-0.0474597 0.0166837 -9.82363 
-9.68495 -0.0115191 -0.00353599 
-0.0115191 -9.6855 0.00223873 
-0.00353599 0.00223873 -9.86058 
-9.68592 -0.0155559 -0.0246685 
-0.0155559 -9.68209 0.0138011 
-0.0246685 0.0138011 -9.86301 
-9.68081 0.00226937 -0.0239638 
0.00226937 -9.69156 -0.00716242 
-0.0239638 -0.00716242 -9.85865 
-9.83777 -0.00760867 0.0600153 
-0.00760867 -9.82626 0.0104827 
0.0600153 0.0104827 -9.89766 
-9.84098 -0.00614543 0.054802 
-0.00614543 -9.8357 0.00146481 
0.054802 0.00146481 -9.88502 
-9.84967 -0.000464555 0.0515155 
-0.000464555 -9.8451 -0.0253306 
0.0515155 -0.0253306 -9.86692 
-9.84122 0.00392849 0.0643037 
0.00392849 -9.83261 -0.00687559 
0.0643037 -0.00687559 -9.88786 
-9.46734 0.0136157 0.0989433 
0.0136157 -9.77097 -0.1307 
0.0989433 -0.1307 -9.24195 
-9.37264 -0.0127789 0.314775 
-0.0127789 -9.80623 0.0226977 
0.314775 0.0226977 -9.30139 
-9.5788 -0.419599 0.0275079 
-0.419599 -9.66533 -0.391847 
0.0275079 -0.391847 -9.23614 
-9.33087 -0.144646 -0.0487119 
-0.144646 -9.48119 -0.135876 
-0.0487119 -0.135876 -9.66821 
-11.0036 0.592143 1.16246 
0.592143 -7.7552 -1.58361 
1.16246 -1.58361 -5.68528 
-10.7264 0.326165 0.137302 
0.326165 -7.29932 -2.08327 
0.137302 -2.08327 -6.41834 
-10.5254 0.350841 1.00738 
0.350841 -7.72683 -1.7607 
1.00738 -1.7607 -6.19191 
-11.3994 1.77075 -0.51242 
1.77075 -7.53067 -0.635275 
-0.51242 -0.635275 -5.51401 
-9.861 0.00228369 -0.122445 
0.00228369 -9.82887 -0.00139597 
-0.122445 -0.00139597 -9.87847 
-9.85842 -0.000344647 -0.12791 
-0.000344647 -9.8319 -0.00828386 
-0.12791 -0.00828386 -9.87802 
-9.87611 -0.0033629 -0.125643 
-0.0033629 -9.85701 -0.0175094 
-0.125643 -0.0175094 -9.83523 
-9.85209 -0.000558749 -0.117441 
-0.000558749 -9.86017 -0.0182707 
-0.117441 -0.0182707 -9.85607 
-10.4075 0.652551 1.01995 
0.652551 -9.08871 1.13876 
1.01995 1.13876 -7.9724 
-9.37795 0.448699 0.959422 
0.448699 -9.24183 0.449182 
0.959422 0.449182 -8.84879 
-9.17333 -0.0280022 0.491986 
-0.0280022 -9.38604 0.667874 
0.491986 0.667874 -8.9092 
-9.95912 0.635319 0.83518 
0.635319 -9.33321 0.768695 
0.83518 0.768695 -8.17623 
-9.53061 0.00711818 0.445569 
0.00711818 -9.56599 0.145169 
0.445569 0.145169 -9.10551 
-9.32436 0.0531822 0.574988 
0.0531822 -9.72286 0.297659 
0.574988 0.297659 -9.15489 
-9.55315 -0.148056 0.873185 
-0.148056 -9.53794 0.202169 
0.873185 0.202169 -9.11102 
-9.14537 0.0821453 0.61779 
0.0821453 -9.71175 0.30692 
0.61779 0.30692 -9.34499 
-9.3343 0.145958 0.437885 
0.145958 -9.34698 0.385304 
0.437885 0.385304 -9.3548 
-9.37723 -0.0103394 0.478795 
-0.0103394 -9.35758 0.381223 
0.478795 0.381223 -9.30126 
-9.32781 0.00135764 0.518274 
0.00135764 -9.40777 0.228651 
0.518274 0.228651 -9.30049 
-9.2246 0.271575 0.437157 
0.271575 -9.72864 0.300132 
0.437157 0.300132 -9.08283 
-9.58954 0.035944 0.118987 
0.035944 -9.38535 -0.0845412 
0.118987 -0.0845412 -9.56904 
-9.51864 0.0864377 0.116444 
0.0864377 -9.53914 -0.223253 
0.116444 -0.223253 -9.48615 
-9.39601 0.0266812 0.139005 
0.0266812 -9.56759 -0.268184 
0.139005 -0.268184 -9.58033 
-9.74736 0.0542724 0.135485 
0.0542724 -9.64007 -0.219581 
0.135485 -0.219581 -9.1565 
-8.34832 0.945238 -1.2224 
0.945238 -11.061 -0.151964 
-1.2224 -0.151964 -9.75749 
-8.71024 -1.60084 -2.23757 
-1.60084 -9.17673 0.211895 
-2.23757 0.211895 -11.2798 
-9.1239 -0.797868 -1.46839 
-0.797868 -10.2625 0.723435 
-1.46839 0.723435 -9.78038 
-8.94344 0.124335 -1.65687 
0.124335 -9.9972 0.992198 
-1.65687 0.992198 -10.2261 
-9.84113 0.0264969 0.486137 
0.0264969 -9.42677 -0.58775 
0.486137 -0.58775 -9.27269 
-9.26381 -0.100924 -0.0730772 
-0.100924 -9.65618 -0.479737 
-0.0730772 -0.479737 -9.62061 
-9.34752 0.00835463 0.444288 
0.00835463 -9.42045 -0.397659 
0.444288 -0.397659 -9.77262 
-9.86419 -0.0628999 0.536787 
-0.0628999 -9.49039 -0.474385 
0.536787 -0.474385 -9.18601 
-9.93453 -0.302897 0.348077 
-0.302897 -9.51313 -0.0598628 
0.348077 -0.0598628 -10.8986 
-9.77279 -0.109652 -0.195603 
-0.109652 -9.84523 -0.120241 
-0.195603 -0.120241 -10.7282 
-10.199 -0.201136 0.110765 
-0.201136 -9.44385 -0.693151 
0.110765 -0.693151 -10.7034 
-9.93966 -0.278623 0.426922 
-0.278623 -9.83019 0.000877501 
0.426922 0.000877501 -10.5764 
-9.88308 -0.0163405 -0.102297 
-0.0163405 -9.87847 -0.0241694 
-0.102297 -0.0241694 -9.87347 
-9.89584 0.000930028 -0.0949741 
0.000930028 -9.83319 -0.0190951 
-0.0949741 -0.0190951 -9.90601 
-9.8749 0.000356102 -0.0936 
0.000356102 -9.85065 -0.019189 
-0.0936 -0.019189 -9.90948 
-9.87846 0.00457301 -0.101005 
0.00457301 -9.85549 -0.0107113 
-0.101005 -0.0107113 -9.90108 
-9.76493 -0.0463356 0.0658394 
-0.0463356 -9.5796 0.0871484 
0.0658394 0.0871484 -9.02101 
-9.70144 0.0849506 0.127881 
0.0849506 -9.64505 0.303368 
0.127881 0.303368 -9.01904 
-9.91374 -0.0742009 0.112126 
-0.0742009 -9.5694 0.0871882 
0.112126 0.0871882 -8.88239 
-10.063 -0.000426731 -0.277684 
-0.000426731 -9.30892 0.466772 
-0.277684 0.466772 -8.99361 
-9.72352 0.0119509 0.130165 
0.0119509 -9.72565 0.313396 
0.130165 0.313396 -9.81926 
-9.78385 -0.0513491 0.139353 
-0.0513491 -9.72691 0.262635 
0.139353 0.262635 -9.75767 
-9.74566 -0.0149016 0.233852 
-0.0149016 -9.82849 0.246704 
0.233852 0.246704 -9.69428 
-9.75892 0.0113038 0.185129 
0.0113038 -9.773 0.24351 
0.185129 0.24351 -9.73651 
-9.43537 0.0086588 0.118746 
0.0086588 -9.48171 0.317361 
0.118746 0.317361 -9.60144 
-9.39099 -0.0561823 0.162637 
-0.0561823 -9.52534 0.387571 
0.162637 0.387571 -9.6022 
-9.47502 -0.00591444 0.124048 
-0.00591444 -9.40133 0.335155 
0.124048 0.335155 -9.64217 
-9.46617 0.0148703 0.157463 
0.0148703 -9.41995 0.370184 
0.157463 0.370184 -9.63241 
-9.68589 0.00402863 -0.0150668 
0.00402863 -9.69867 0.0261053 
-0.0150668 0.0261053 -9.87842 
-9.69871 -0.00039302 -0.00486448 
-0.00039302 -9.70503 0.0203876 
-0.00486448 0.0203876 -9.85925 
-9.69196 -0.0061807 -0.0214903 
-0.0061807 -9.69175 -0.0155139 
-0.0214903 -0.0155139 -9.87927 
-9.70094 0.00309782 -0.0414269 
0.00309782 -9.69189 -0.00640591 
-0.0414269 -0.00640591 -9.87015 
-9.86598 0.00440395 -0.0942604 
0.00440395 -9.8095 0.211722 
-0.0942604 0.211722 -9.8733 
-9.85144 0.0159924 -0.109887 
0.0159924 -9.85641 0.162102 
-0.109887 0.162102 -9.84094 
-9.837 0.00448078 -0.0987843 
0.00448078 -9.94075 0.19964 
-0.0987843 0.19964 -9.77104 
-9.85366 0.00982717 -0.0826039 
0.00982717 -9.87035 0.183631 
-0.0826039 0.183631 -9.82478 
-9.80627 -0.103261 -0.405783 
-0.103261 -9.23738 0.12149 
-0.405783 0.12149 -9.3747 
-9.40494 0.0828574 -0.328261 
0.0828574 -9.40838 0.0837861 
-0.328261 0.0837861 -9.60504 
-9.2845 0.23255 -0.734549 
0.23255 -9.78332 0.0157204 
-0.734549 0.0157204 -9.35053 
-9.62046 0.0736237 -0.547495 
0.0736237 -9.39747 0.247696 
-0.547495 0.247696 -9.40042 
-9.40894 0.118861 0.231318 
0.118861 -9.6453 -0.475395 
0.231318 -0.475395 -9.51922 
-9.52864 -0.0671618 0.042516 
-0.0671618 -9.66498 -0.18599 
0.042516 -0.18599 -9.37985 
-9.34146 -0.0721613 0.0605534 
-0.0721613 -9.62522 -0.450616 
0.0605534 -0.450616 -9.60679 
-9.43049 -0.00403412 0.149258 
-0.00403412 -9.58967 -0.440748 
0.149258 -0.440748 -9.5533 
-9.72474 0.00889811 -0.0770246 
0.00889811 -9.74685 -0.272902 
-0.0770246 -0.272902 -9.74678 
-9.726 0.00166885 -0.0849936 
0.00166885 -9.75644 -0.29907 
-0.0849936 -0.29907 -9.73593 
-9.73217 0.0024034 -0.0968751 
0.0024034 -9.75735 -0.297972 
-0.0968751 -0.297972 -9.72885 
-9.71869 -0.00180138 -0.0879654 
-0.00180138 -9.75224 -0.295784 
-0.0879654 -0.295784 -9.74745 
-10.7629 -0.147573 0.094177 
-0.147573 -8.73528 0.660861 
0.094177 0.660861 -11.6827 
-10.8856 -0.145114 -0.0533128 
-0.145114 -9.64705 0.683715 
-0.0533128 0.683715 -10.6482 
-10.3697 -0.732223 -0.0548059 
-0.732223 -10.0156 0.691425 
-0.0548059 0.691425 -10.7956 
-9.63954 0.620017 -0.0904118 
0.620017 -9.65024 -0.2603 
-0.0904118 -0.2603 -11.8911 
-9.88674 -0.0366129 0.203308 
-0.0366129 -9.83554 0.0679384 
0.203308 0.0679384 -9.91915 
-9.88006 0.000898193 0.177984 
0.000898193 -9.88499 0.0582566 
0.177984 0.0582566 -9.87638 
-9.92064 -0.0338443 0.165102 
-0.0338443 -9.88038 0.0647351 
0.165102 0.0647351 -9.84042 
-9.87969 -0.000903446 0.176739 
-0.000903446 -9.88294 0.0568941 
0.176739 0.0568941 -9.87879 
-9.34482 0.00413617 0.385429 
0.00413617 -9.57626 0.21212 
0.385429 0.21212 -9.53755 
-9.47287 0.0528544 0.350909 
0.0528544 -9.65053 0.359425 
0.350909 0.359425 -9.33524 
-9.33325 -0.0763125 0.417953 
-0.0763125 -9.52458 0.300598 
0.417953 0.300598 -9.60081 
-9.53274 0.143878 0.519367 
0.143878 -9.56519 0.231823 
0.519367 0.231823 -9.3607 
-9.66228 -0.0510057 -0.253759 
-0.0510057 -9.62704 0.157307 
-0.253759 0.157307 -9.69648 
-9.72573 0.0525741 -0.305778 
0.0525741 -9.66826 0.0826503 
-0.305778 0.0826503 -9.59181 
-9.65176 0.0517953 -0.321021 
0.0517953 -9.6744 0.156191 
-0.321021 0.156191 -9.65965 
-9.66653 0.0481617 -0.293896 
0.0481617 -9.66079 0.132541 
-0.293896 0.132541 -9.65849 
-9.72447 -0.096112 0.216425 
-0.096112 -9.83577 0.284782 
0.216425 0.284782 -9.60932 
-9.68584 0.0784995 0.179292 
0.0784995 -9.62477 0.318895 
0.179292 0.318895 -9.85895 
-9.72967 -0.0216602 0.212451 
-0.0216602 -9.72859 0.256035 
0.212451 0.256035 -9.71129 
-9.69369 0.0026189 0.131409 
0.0026189 -9.72624 0.0822332 
0.131409 0.0822332 -9.74962 
-9.73009 -0.212556 0.195108 
-0.212556 -9.62426 -0.0484002 
0.195108 -0.0484002 -9.18984 
-9.58149 -0.0910456 0.21599 
-0.0910456 -9.42043 -0.138148 
0.21599 -0.138148 -9.54227 
-9.79224 -0.0565359 0.176318 
-0.0565359 -10.0083 -0.216405 
0.176318 -0.216405 -8.74362 
-9.70071 -0.112803 0.398626 
-0.112803 -9.81311 0.153348 
0.398626 0.153348 -9.03037 
-9.78195 0.22085 0.306974 
0.22085 -10.8028 -0.0569987 
0.306974 -0.0569987 -11.6947 
-9.89965 0.294672 -0.181214 
0.294672 -10.7963 0.00904519 
-0.181214 0.00904519 -11.5835 
-10.5632 0.490731 -0.0636771 
0.490731 -10.2476 0.206211 
-0.0636771 0.206211 -11.4686 
-10.2341 0.234035 -0.319664 
0.234035 -10.263 -0.234774 
-0.319664 -0.234774 -11.7823 
-9.68436 -0.0758184 0.0626935 
-0.0758184 -9.65772 0.0398688 
0.0626935 0.0398688 -9.77533 
-9.65743 -0.0240383 -0.0251173 
-0.0240383 -9.68814 -0.00523308 
-0.0251173 -0.00523308 -9.77185 
-9.63273 0.0497217 0.0139029 
0.0497217 -9.63686 -0.027593 
0.0139029 -0.027593 -9.84783 
-9.65894 -0.0183055 0.00159005 
-0.0183055 -9.66269 0.00326275 
0.00159005 0.00326275 -9.79579 
-9.68709 0.0252154 0.104329 
0.0252154 -9.77409 -0.164515 
0.104329 -0.164515 -9.63181 
-9.70106 0.035062 0.0628072 
0.035062 -9.64222 -0.149402 
0.0628072 -0.149402 -9.74971 
-9.87515 0.0664882 0.121884 
0.0664882 -9.7125 -0.0424661 
0.121884 -0.0424661 -9.50534 
-9.69905 0.0108026 0.136304 
0.0108026 -9.75207 -0.142809 
0.136304 -0.142809 -9.64187 
-9.83551 -0.0102517 0.0696032 
-0.0102517 -9.82341 0.0563734 
0.0696032 0.0563734 -9.87533 
-9.85597 -0.0241604 0.0704907 
-0.0241604 -9.84222 0.0429674 
0.0704907 0.0429674 -9.83607 
-9.85868 -0.00352046 0.0481859 
-0.00352046 -9.83213 0.0615672 
0.0481859 0.0615672 -9.84344 
-9.83709 -0.00830189 0.0671349 
-0.00830189 -9.84062 0.0449398 
0.0671349 0.0449398 -9.85654 
-9.83893 -0.00786397 0.0557676 
-0.00786397 -9.82142 0.0230527 
0.0557676 0.0230527 -9.90301 
-9.85074 -0.00733078 0.015857 
-0.00733078 -9.84571 0.0504209 
0.015857 0.0504209 -9.86691 
-9.83756 -0.00710992 0.0411963 
-0.00710992 -9.82822 0.0292331 
0.0411963 0.0292331 -9.89758 
-9.83401 -0.00409515 0.0423409 
-0.00409515 -9.84238 0.0525174 
0.0423409 0.0525174 -9.88697 
-9.7772 0.00953864 -0.0421753 
0.00953864 -9.76574 0.00350768 
-0.0421753 0.00350768 -9.92209 
-9.78545 -0.00213285 -0.0427269 
-0.00213285 -9.77603 -0.00317247 
-0.0427269 -0.00317247 -9.90356 
-9.78666 -0.0113209 -0.0432419 
-0.0113209 -9.7723 -0.000803861 
-0.0432419 -0.000803861 -9.90608 
-9.78899 0.00447941 -0.047404 
0.00447941 -9.77748 0.0100145 
-0.047404 0.0100145 -9.89857 
-8.60399 -0.515617 -0.938921 
-0.515617 -9.99001 0.338674 
-0.938921 0.338674 -9.79906 
-8.04494 0.472253 -0.623421 
0.472253 -10.3708 0.102882 
-0.623421 0.102882 -9.97728 
-8.9468 -0.428486 -0.792276 
-0.428486 -9.88126 0.408508 
-0.792276 0.408508 -9.56499 
-8.42933 -1.03333 -0.167659 
-1.03333 -10.7808 0.667635 
-0.167659 0.667635 -9.18296 
-9.24622 0.0730346 -0.00801301 
0.0730346 -9.64992 -0.652956 
-0.00801301 -0.652956 -10.3034 
-10.0924 -0.362551 0.247679 
-0.362551 -9.58688 -0.26652 
0.247679 -0.26652 -9.52029 
-8.9092 -0.305423 0.18093 
-0.305423 -10.1818 -0.284692 
0.18093 -0.284692 -10.1085 
-9.61366 -0.163716 -0.0942365 
-0.163716 -9.53166 -0.0539744 
-0.0942365 -0.0539744 -10.0542 
-9.8318 -0.00410826 -0.0317957 
-0.00410826 -9.87043 -0.106162 
-0.0317957 -0.106162 -9.89052 
-9.84663 -0.0133718 -0.0179454 
-0.0133718 -9.86957 -0.115803 
-0.0179454 -0.115803 -9.87655 
-9.88076 -0.00392502 -0.0111389 
-0.00392502 -9.88521 -0.113415 
-0.0111389 -0.113415 -9.82678 
-9.86401 -0.01383 -0.0150344 
-0.01383 -9.86276 -0.110763 
-0.0150344 -0.110763 -9.86599 
-9.61106 -0.241788 0.784129 
-0.241788 -9.52685 -0.271923 
0.784129 -0.271923 -9.09075 
-9.96525 0.337185 0.174846 
0.337185 -8.81807 -0.593126 
0.174846 -0.593126 -9.44535 
-9.79891 0.238397 0.579243 
0.238397 -8.94751 -0.304023 
0.579243 -0.304023 -9.48224 
-9.66317 0.94159 0.217398 
0.94159 -9.21199 -0.109255 
0.217398 -0.109255 -9.35351 
-8.3132 -0.189751 -0.0431406 
-0.189751 -9.20422 -0.635462 
-0.0431406 -0.635462 -1.64679 
-8.70193 0.950395 -1.29344 
0.950395 -8.52064 -0.682329 
-1.29344 -0.682329 -1.94164 
-9.22334 -1.0137 -2.26825 
-1.0137 -7.80779 -0.740781 
-2.26825 -0.740781 -2.13307 
-7.86506 -1.69368 -0.9044 
-1.69368 -8.62127 -1.56678 
-0.9044 -1.56678 -2.67787 
-11.171 -0.0828083 -0.0859794 
-0.0828083 -9.94589 0.178268 
-0.0859794 0.178268 -12.5194 
-9.85338 0.933924 0.434729 
0.933924 -11.572 1.22542 
0.434729 1.22542 -12.2108 
-11.0837 0.711482 -0.436964 
0.711482 -9.50905 -0.253595 
-0.436964 -0.253595 -13.0435 
-10.8203 0.326625 0.0438409 
0.326625 -10.4493 0.548028 
0.0438409 0.548028 -12.3667 
-8.94426 0.00770287 -0.399152 
0.00770287 -9.62833 -0.00183181 
-0.399152 -0.00183181 -9.15941 
-9.69765 -0.248437 -0.618373 
-0.248437 -8.22463 0.781641 
-0.618373 0.781641 -9.80972 
-9.53142 0.410847 -0.0832845 
0.410847 -8.47387 -0.334284 
-0.0832845 -0.334284 -9.72671 
-9.29155 0.125054 -0.582139 
0.125054 -8.67435 0.464595 
-0.582139 0.464595 -9.7661 
-9.7225 0.0145463 0.170171 
0.0145463 -9.64737 -0.0769006 
0.170171 -0.0769006 -9.64961 
-9.75515 0.0981107 0.0575197 
0.0981107 -9.83468 -0.0895359 
0.0575197 -0.0895359 -9.42966 
-9.62374 0.0711317 0.0905341 
0.0711317 -9.64149 -0.0765434 
0.0905341 -0.0765434 -9.75426 
-9.68238 -0.0320797 0.163173 
-0.0320797 -9.73076 -0.125626 
0.163173 -0.125626 -9.60635 
-11.4962 -0.82748 -1.04884 
-0.82748 -12.2138 -0.0487719 
-1.04884 -0.0487719 -9.9942 
-11.09 0.183252 -0.554809 
0.183252 -12.0542 -0.184916 
-0.554809 -0.184916 -10.56 
-10.1451 0.744693 1.61256 
0.744693 -8.84667 0.334562 
1.61256 0.334562 -14.7124 
-7.93303 1.70013 -1.06971 
1.70013 -12.0684 -1.5645 
-1.06971 -1.5645 -13.7028 
-9.61261 0.0496377 -0.0922828 
0.0496377 -9.66921 0.181512 
-0.0922828 0.181512 -9.53358 
-9.72417 0.048681 -0.0862938 
0.048681 -9.78711 0.164534 
-0.0862938 0.164534 -9.30413 
-9.58455 0.13531 0.131166 
0.13531 -9.67385 -0.014444 
0.131166 -0.014444 -9.557 
-9.57583 0.0699122 0.051023 
0.0699122 -9.76034 0.132639 
0.051023 0.132639 -9.47923 
-9.71238 0.13711 -0.104414 
0.13711 -9.54315 -0.0294972 
-0.104414 -0.0294972 -9.34113 
-9.70182 0.147668 -0.117657 
0.147668 -9.46792 -0.069047 
-0.117657 -0.069047 -9.42693 
-9.3781 -0.102029 0.0620945 
-0.102029 -9.37418 0.286329 
0.0620945 0.286329 -9.84439 
-9.84822 -0.0481304 0.0692836 
-0.0481304 -9.69956 -0.238429 
0.0692836 -0.238429 -9.04888 
-9.77936 0.0289494 0.401897 
0.0289494 -9.60035 0.309529 
0.401897 0.309529 -9.27807 
-9.76313 -0.111553 0.207916 
-0.111553 -9.68031 -0.0200673 
0.207916 -0.0200673 -9.21435 
-9.78098 -0.128495 0.13562 
-0.128495 -9.60632 0.100522 
0.13562 0.100522 -9.27049 
-9.53524 -0.0235269 0.231171 
-0.0235269 -9.55516 0.150353 
0.231171 0.150353 -9.56738 
-9.37538 -0.21307 0.0436372 
-0.21307 -9.39011 0.483184 
0.0436372 0.483184 -9.50725 
-9.39244 -0.0407792 0.116716 
-0.0407792 -9.42365 0.411878 
0.116716 0.411878 -9.45664 
-9.23027 -0.138661 0.170617 
-0.138661 -9.49712 0.45532 
0.170617 0.45532 -9.54534 
-9.35675 -0.0425461 0.0742687 
-0.0425461 -9.40382 0.389184 
0.0742687 0.389184 -9.51217 
-9.69289 -0.00710023 -0.175768 
-0.00710023 -9.46949 -0.526712 
-0.175768 -0.526712 -9.66052 
-9.366 -0.119248 -0.305266 
-0.119248 -9.89636 -0.100353 
-0.305266 -0.100353 -9.56055 
-9.50169 -0.0481304 -0.147541 
-0.0481304 -9.62509 -0.0570992 
-0.147541 -0.0570992 -9.69612 
-9.21551 -0.190927 -0.0616114 
-0.190927 -9.72727 0.0614044 
-0.0616114 0.0614044 -9.88013 
-9.79248 -0.0270859 0.105817 
-0.0270859 -9.74818 0.0306801 
0.105817 0.0306801 -9.64824 
-9.78763 -0.0422324 0.184438 
-0.0422324 -9.71167 0.0606095 
0.184438 0.0606095 -9.68961 
-9.79326 -0.0207981 0.177218 
-0.0207981 -9.68642 0.0493551 
0.177218 0.0493551 -9.70922 
-9.68734 -0.0120546 0.159155 
-0.0120546 -9.63114 0.0653362 
0.159155 0.0653362 -9.87042 
-10.6218 0.288322 0.486336 
0.288322 -9.54983 0.0177919 
0.486336 0.0177919 -12.0089 
-10.3276 0.0483341 -0.0914521 
0.0483341 -10.4237 0.202181 
-0.0914521 0.202181 -11.4292 
-10.6425 -0.0504772 -0.50338 
-0.0504772 -10.2737 0.233998 
-0.50338 0.233998 -11.2642 
-10.3179 0.0860343 -0.39767 
0.0860343 -10.5368 -0.271918 
-0.39767 -0.271918 -11.3257 
-8.64846 0.00895873 0.433512 
0.00895873 -9.4758 0.203945 
0.433512 0.203945 -10.1468 
-9.20799 0.0479893 -0.136726 
0.0479893 -9.64721 0.48925 
-0.136726 0.48925 -9.41583 
-9.5531 0.309741 -0.104409 
0.309741 -9.21861 0.998438 
-0.104409 0.998438 -9.49931 
-9.63418 0.0456334 0.111817 
0.0456334 -9.08879 0.381923 
0.111817 0.381923 -9.54807 
-9.70133 -0.0213152 0.342854 
-0.0213152 -9.67871 -0.0566016 
0.342854 -0.0566016 -9.67893 
-9.69875 0.0222086 0.3328 
0.0222086 -9.69976 -0.0935428 
0.3328 -0.0935428 -9.66047 
-9.6853 0.00241657 0.332047 
0.00241657 -9.69062 -0.0606899 
0.332047 -0.0606899 -9.68306 
-9.6625 0.0131576 0.336343 
0.0131576 -9.71078 -0.0113139 
0.336343 -0.0113139 -9.6857 
-10.0731 -0.530442 -0.568803 
-0.530442 -9.78608 0.0788325 
-0.568803 0.0788325 -7.84523 
-10.6429 -0.393944 -0.0632365 
-0.393944 -9.40059 -0.408616 
-0.0632365 -0.408616 -7.66095 
-9.60296 0.362143 -0.557754 
0.362143 -10.0341 -0.30901 
-0.557754 -0.30901 -8.06738 
-10.3422 0.456391 -0.259787 
0.456391 -10.3474 0.033631 
-0.259787 0.033631 -7.01472 
-9.66499 -0.0211286 -0.121432 
-0.0211286 -9.59128 -0.119587 
-0.121432 -0.119587 -9.51852 
-9.63163 -0.060077 -0.216053 
-0.060077 -9.63482 -0.106283 
-0.216053 -0.106283 -9.50833 
-9.62617 -0.0321745 -0.229606 
-0.0321745 -9.60733 -0.123973 
-0.229606 -0.123973 -9.54129 
-9.69999 -0.0356531 -0.277809 
-0.0356531 -9.70468 -0.119731 
-0.277809 -0.119731 -9.37012 
-9.65372 -0.228291 0.0390132 
-0.228291 -9.48 0.130895 
0.0390132 0.130895 -8.58597 
-9.6296 -0.156824 -0.121962 
-0.156824 -9.78224 -0.0234756 
-0.121962 -0.0234756 -8.30786 
-9.3309 0.0746188 0.314711 
0.0746188 -9.40676 -0.0924661 
0.314711 -0.0924661 -8.98203 
-9.49 -0.365382 0.331402 
-0.365382 -9.6226 0.300158 
0.331402 0.300158 -8.60709 
-4.857 2.47506 0.131812 
2.47506 -5.43185 -0.146068 
0.131812 -0.146068 1.14137 
-3.30962 0.419838 1.52467 
0.419838 -4.2975 0.410976 
1.52467 0.410976 -1.54035 
-2.63714 0.359432 2.19523 
0.359432 -2.62673 0.738538 
2.19523 0.738538 -3.8836 
-4.92511 -0.186446 2.21258 
-0.186446 -4.26109 1.02692 
2.21258 1.02692 0.0387262 
-9.92369 -0.0346119 0.306832 
-0.0346119 -9.84065 -0.148163 
0.306832 -0.148163 -9.99818 
-9.96996 -0.0415853 0.236971 
-0.0415853 -9.92547 -0.178507 
0.236971 -0.178507 -9.86709 
-9.9124 0.00737317 0.249993 
0.00737317 -9.9209 -0.153811 
0.249993 -0.153811 -9.92923 
-9.90562 0.0156324 0.238613 
0.0156324 -9.91641 -0.153598 
0.238613 -0.153598 -9.9405 
-9.82526 -0.0378269 0.17435 
-0.0378269 -9.82939 0.0301968 
0.17435 0.0301968 -9.8205 
-9.82074 -0.0196935 0.192894 
-0.0196935 -9.84792 0.0429603 
0.192894 0.0429603 -9.8065 
-9.82147 0.00275289 0.20854 
0.00275289 -9.81444 0.0467174 
0.20854 0.0467174 -9.83925 
-9.82822 0.00293524 0.152513 
0.00293524 -9.87686 0.0489933 
0.152513 0.0489933 -9.77007 
-9.47519 -0.115689 0.368532 
-0.115689 -9.43924 -0.288827 
0.368532 -0.288827 -10.0885 
-9.49976 -0.240243 0.400579 
-0.240243 -9.56275 -0.250477 
0.400579 -0.250477 -9.94043 
-9.52801 -0.0210613 0.388591 
-0.0210613 -9.63852 -0.200042 
0.388591 -0.200042 -9.83641 
-9.59169 -0.0466707 0.534746 
-0.0466707 -9.55101 -0.141133 
0.534746 -0.141133 -9.86024 
-9.44628 -0.186305 -0.028128 
-0.186305 -8.65076 1.65553 
-0.028128 1.65553 -9.16817 
-10.0098 -0.491264 -0.265107 
-0.491264 -8.20887 1.21624 
-0.265107 1.21624 -9.0465 
-8.45651 -0.314325 0.0446936 
-0.314325 -9.45385 1.18774 
0.0446936 1.18774 -9.35486 
-9.87235 -0.148533 -0.0488419 
-0.148533 -8.42997 1.12372 
-0.0488419 1.12372 -8.9629 
-6.93105 -0.107341 -0.809493 
-0.107341 -10.5256 0.59026 
-0.809493 0.59026 -7.00412 
-9.78882 -0.0838347 1.22665 
-0.0838347 -8.43297 -0.131641 
1.22665 -0.131641 -6.23896 
-10.525 0.618652 -0.628313 
0.618652 -7.47371 1.09718 
-0.628313 1.09718 -6.46203 
-9.29921 0.284584 -0.721731 
0.284584 -8.63594 2.91563 
-0.721731 2.91563 -6.5256 
-9.9054 0.0100323 0.0105776 
0.0100323 -9.8857 0.190046 
0.0105776 0.190046 -9.88283 
-9.84946 -0.0127537 0.00663299 
-0.0127537 -9.90921 0.195118 
0.00663299 0.195118 -9.91526 
-9.87923 -0.0206024 0.0152914 
-0.0206024 -9.94431 0.167168 
0.0152914 0.167168 -9.85039 
-9.89072 0.00945804 0.0156745 
0.00945804 -9.90184 0.175666 
0.0156745 0.175666 -9.88138 
-9.76296 0.0303565 0.325292 
0.0303565 -9.72993 -0.00918184 
0.325292 -0.00918184 -9.66627 
-9.82194 -0.030818 0.270334 
-0.030818 -9.69699 -0.0256028 
0.270334 -0.0256028 -9.64023 
-9.72186 0.0165452 0.308718 
0.0165452 -9.73391 -0.0251254 
0.308718 -0.0251254 -9.70339 
-9.74241 0.0158482 0.299725 
0.0158482 -9.7159 -0.0124631 
0.299725 -0.0124631 -9.70085 
-9.69402 -0.0365511 0.0227652 
-0.0365511 -9.63497 0.0689409 
0.0227652 0.0689409 -9.81204 
-9.69694 -0.0370649 0.0739021 
-0.0370649 -9.7276 0.0087798 
0.0739021 0.0087798 -9.71649 
-9.78871 -0.0431679 -0.0966131 
-0.0431679 -9.67799 0.0178005 
-0.0966131 0.0178005 -9.67433 
-9.70825 -0.0220441 0.0229806 
-0.0220441 -9.69027 0.0237396 
0.0229806 0.0237396 -9.74251 
-9.43534 0.141738 -0.186973 
0.141738 -9.49197 0.0635796 
-0.186973 0.0635796 -8.85953 
-9.27218 0.284608 -0.514769 
0.284608 -9.40216 0.0786714 
-0.514769 0.0786714 -9.11251 
-9.55778 0.0494024 -0.162093 
0.0494024 -9.38462 -0.315661 
-0.162093 -0.315661 -8.84445 
-9.35171 0.141685 -0.36977 
0.141685 -9.46241 -0.0707156 
-0.36977 -0.0707156 -8.97273 
-9.83157 -0.020472 0.21634 
-0.020472 -9.86105 -0.130817 
0.21634 -0.130817 -9.87841 
-9.87522 -0.00309778 0.252567 
-0.00309778 -9.85304 -0.167103 
0.252567 -0.167103 -9.84277 
-9.90924 0.0366711 0.238599 
0.0366711 -9.86228 -0.148122 
0.238599 -0.148122 -9.79951 
-9.86316 0.00579834 0.251693 
0.00579834 -9.86708 -0.137637 
0.251693 -0.137637 -9.84079 
-9.70482 0.0269733 -0.238273 
0.0269733 -9.70885 0.0574468 
-0.238273 0.0574468 -9.6345 
-9.71039 -0.00174716 -0.219409 
-0.00174716 -9.68015 0.0600959 
-0.219409 0.0600959 -9.65763 
-9.83064 0.00314349 -0.269542 
0.00314349 -9.63175 0.0666741 
-0.269542 0.0666741 -9.58577 
-9.67816 0.0109022 -0.289133 
0.0109022 -9.72351 0.0417619 
-0.289133 0.0417619 -9.6465 
-9.68191 -0.0266229 -0.050284 
-0.0266229 -9.59643 -0.0485914 
-0.050284 -0.0485914 -9.69665 
-9.58157 -0.0247245 -0.0731359 
-0.0247245 -9.54705 0.0215157 
-0.0731359 0.0215157 -9.84637 
-9.63759 -0.0277343 -0.00882761 
-0.0277343 -9.57778 -0.0353459 
-0.00882761 -0.0353459 -9.75963 
-9.63484 -0.0298057 0.063415 
-0.0298057 -9.60364 -0.0343869 
0.063415 -0.0343869 -9.73651 
-9.49344 -0.215427 0.00112286 
-0.215427 -9.15306 -0.412354 
0.00112286 -0.412354 -8.95357 
-9.77056 -0.123532 0.0237967 
-0.123532 -9.15609 -0.490794 
0.0237967 -0.490794 -8.67342 
-9.76032 -0.226638 -0.0928464 
-0.226638 -8.96814 -0.392055 
-0.0928464 -0.392055 -8.87161 
-9.67368 0.277197 -0.647349 
0.277197 -8.71445 -0.142107 
-0.647349 -0.142107 -9.21194 
-9.88925 -0.0141735 0.21132 
-0.0141735 -9.92824 0.0674923 
0.21132 0.0674923 -9.89498 
-9.91407 0.0179891 0.17914 
0.0179891 -9.83188 0.0842989 
0.17914 0.0842989 -9.96651 
-9.95115 -0.00199677 0.20201 
-0.00199677 -9.90585 0.102587 
0.20201 0.102587 -9.85546 
-9.90355 -0.0126479 0.208915 
-0.0126479 -9.91113 0.0780563 
0.208915 0.0780563 -9.89779 
-9.71059 0.00498198 -0.0141406 
0.00498198 -9.72917 0.0451324 
-0.0141406 0.0451324 -9.79732 
-9.70033 -0.0229177 -0.00331108 
-0.0229177 -9.70985 -0.00758446 
-0.00331108 -0.00758446 -9.8269 
-9.70708 0.00599207 -0.0020176 
0.00599207 -9.68747 0.0480922 
-0.0020176 0.0480922 -9.84253 
-9.69829 4.58854e-05 -0.017134 
4.58854e-05 -9.67849 0.0701164 
-0.017134 0.0701164 -9.8603 
-18.3021 1.26403 2.39348 
1.26403 -9.53372 2.97771 
2.39348 2.97771 -4.93855 
-9.80415 -3.72334 -1.65151 
-3.72334 -4.82377 -1.16255 
-1.65151 -1.16255 -18.1464 
-9.00423 -1.05277 -1.31101 
-1.05277 -4.05451 -1.04284 
-1.31101 -1.04284 -19.7156 
-7.7631 -1.41159 2.58506 
-1.41159 -12.9222 -5.02216 
2.58506 -5.02216 -12.0891 
-9.28059 0.0924095 -0.410975 
0.0924095 -9.5285 0.111729 
-0.410975 0.111729 -9.6107 
-9.48421 -0.1637 -0.605669 
-0.1637 -9.48628 -0.206132 
-0.605669 -0.206132 -9.4493 
-9.38649 -0.0265994 -0.428837 
-0.0265994 -9.39736 0.0861435 
-0.428837 0.0861435 -9.63594 
-9.65403 0.0987175 -0.386094 
0.0987175 -9.37814 0.186968 
-0.386094 0.186968 -9.38763 
-10.3541 -0.0126528 -1.24905 
-0.0126528 -10.4868 0.9523 
-1.24905 0.9523 -14.4813 
-12.3514 0.39588 0.695019 
0.39588 -11.2526 -0.580603 
0.695019 -0.580603 -11.7182 
-11.9223 0.2678 0.860896 
0.2678 -11.5764 -0.446793 
0.860896 -0.446793 -11.8235 
-10.8392 -1.69631 -0.0675422 
-1.69631 -9.03209 -0.396126 
-0.0675422 -0.396126 -15.4509 
-9.82047 -0.0443859 0.18437 
-0.0443859 -9.85729 0.290711 
0.18437 0.290711 -9.73834 
-9.78038 0.0344361 0.171315 
0.0344361 -9.8019 0.204176 
0.171315 0.204176 -9.83382 
-9.82981 0.0150834 0.2063 
0.0150834 -9.80203 0.291199 
0.2063 0.291199 -9.78426 
-9.81913 0.0137912 0.158931 
0.0137912 -9.78193 0.240217 
0.158931 0.240217 -9.81504 
-9.77549 -0.00776408 -0.0425714 
-0.00776408 -9.8883 0.211251 
-0.0425714 0.211251 -9.73418 
-9.75629 0.00305766 -0.0204987 
0.00305766 -9.88776 0.115198 
-0.0204987 0.115198 -9.75392 
-9.77609 0.00725421 -0.0150445 
0.00725421 -9.88766 0.208588 
-0.0150445 0.208588 -9.73422 
-9.80903 0.00141578 -0.0179489 
0.00141578 -9.78255 0.124856 
-0.0179489 0.124856 -9.80638 
-9.80278 0.0111509 -0.0433038 
0.0111509 -9.83067 -0.0269838 
-0.0433038 -0.0269838 -9.83819 
-9.78684 0.0175587 -0.00759324 
0.0175587 -9.837 -0.0822237 
-0.00759324 -0.0822237 -9.84781 
-9.79848 0.0159265 -0.021794 
0.0159265 -9.82235 -0.0633482 
-0.021794 -0.0633482 -9.85082 
-9.79258 -0.0198345 -0.00438685 
-0.0198345 -9.80912 -0.090939 
-0.00438685 -0.090939 -9.86995 
-9.60105 -0.634103 -0.46927 
-0.634103 -10.3335 0.294312 
-0.46927 0.294312 -11.2958 
-10.178 -0.638943 -0.783987 
-0.638943 -10.3133 -0.31133 
-0.783987 -0.31133 -10.7391 
-8.96672 0.631294 -0.577282 
0.631294 -11.0344 -0.185076 
-0.577282 -0.185076 -11.2293 
-9.81651 0.0519237 0.483161 
0.0519237 -10.5708 0.145984 
0.483161 0.145984 -10.843 
-9.69717 0.0580981 0.0313327 
0.0580981 -9.40037 0.0437776 
0.0313327 0.0437776 -9.66121 
-9.47786 0.387237 0.274085 
0.387237 -9.35032 0.388 
0.274085 0.388 -9.93056 
-9.35184 -0.0759533 0.182135 
-0.0759533 -9.66206 0.544165 
0.182135 0.544165 -9.74485 
-9.19716 -0.0247906 0.193639 
-0.0247906 -9.44835 0.39682 
0.193639 0.39682 -10.1132 
-9.7131 -0.00453916 0.30138 
-0.00453916 -9.68537 -0.104158 
0.30138 -0.104158 -9.53811 
-9.74936 -0.0222755 0.280834 
-0.0222755 -9.59191 -0.0884831 
0.280834 -0.0884831 -9.59531 
-9.74713 -0.0373014 0.183727 
-0.0373014 -9.60643 -0.0979851 
0.183727 -0.0979851 -9.58302 
-9.61306 0.0624329 0.24944 
0.0624329 -9.69667 -0.0280011 
0.24944 -0.0280011 -9.62685 
-9.0928 -0.304638 -1.13437 
-0.304638 -9.35634 0.260141 
-1.13437 0.260141 -4.70089 
-9.33342 -0.544454 -0.577773 
-0.544454 -8.5345 0.316845 
-0.577773 0.316845 -5.2821 
-7.16825 -0.86275 -0.658107 
-0.86275 -9.26743 0.580379 
-0.658107 0.580379 -6.71436 
-9.30238 -0.205765 -1.11538 
-0.205765 -8.89487 -0.0445376 
-1.11538 -0.0445376 -4.95278 
-9.8872 -0.00349141 0.115567 
-0.00349141 -9.87579 -0.281575 
0.115567 -0.281575 -9.85673 
-9.89397 -0.00781416 0.126701 
-0.00781416 -9.88526 -0.294286 
0.126701 -0.294286 -9.8405 
-9.86233 -0.00408751 0.123082 
-0.00408751 -9.87322 -0.261869 
0.123082 -0.261869 -9.88418 
-9.87819 -0.00813431 0.117003 
-0.00813431 -9.87303 -0.299101 
0.117003 -0.299101 -9.8685 
-9.01145 0.83582 0.271342 
0.83582 -9.9692 0.636176 
0.271342 0.636176 -10.0575 
-9.53853 -0.539079 -0.0841589 
-0.539079 -9.15093 -0.413169 
-0.0841589 -0.413169 -10.3486 
-10.2732 0.0338515 0.524864 
0.0338515 -8.84951 0.395549 
0.524864 0.395549 -9.91538 
-9.21196 -1.07315 0.327021 
-1.07315 -9.19893 0.148545 
0.327021 0.148545 -10.6272 
-9.70549 -0.00832488 -0.0385812 
-0.00832488 -9.73084 -0.289375 
-0.0385812 -0.289375 -9.59691 
-9.68498 0.0195915 -0.0596156 
0.0195915 -9.67989 -0.260937 
-0.0596156 -0.260937 -9.66836 
-9.68455 -0.0209245 -0.0072968 
-0.0209245 -9.73083 -0.24735 
-0.0072968 -0.24735 -9.61785 
-9.69282 -0.00790522 -0.024339 
-0.00790522 -9.71554 -0.258117 
-0.024339 -0.258117 -9.62488 
-9.70451 0.0237984 -0.0270141 
0.0237984 -9.71963 0.00539868 
-0.0270141 0.00539868 -9.75639 
-9.6824 0.00221396 -0.0306728 
0.00221396 -9.71468 -0.0382507 
-0.0306728 -0.0382507 -9.78346 
-9.63366 0.0144876 0.031031 
0.0144876 -9.76983 -0.106214 
0.031031 -0.106214 -9.77705 
-9.63232 -0.0100691 -0.0132783 
-0.0100691 -9.64751 -0.070911 
-0.0132783 -0.070911 -9.90071 
-8.78408 0.771534 0.00673375 
0.771534 -10.6411 0.25963 
0.00673375 0.25963 -13.3612 
-10.6028 2.51416 0.355495 
2.51416 -10.599 0.509905 
0.355495 0.509905 -11.5846 
-9.20414 0.816298 0.404384 
0.816298 -10.645 -0.0460649 
0.404384 -0.0460649 -12.9373 
-8.69197 0.253956 2.81017 
0.253956 -11.607 -0.842521 
2.81017 -0.842521 -12.4875 
-9.2495 -0.00156815 0.0666139 
-0.00156815 -9.2764 0.429894 
0.0666139 0.429894 -9.74106 
-9.60072 -0.0814724 -0.225347 
-0.0814724 -9.36456 0.303469 
-0.225347 0.303469 -9.30169 
-9.59754 0.158209 -0.0964845 
0.158209 -9.19051 0.435878 
-0.0964845 0.435878 -9.47892 
-9.22561 -0.323405 -0.244667 
-0.323405 -9.50245 0.745017 
-0.244667 0.745017 -9.53891 
-9.68126 0.0224193 0.0923987 
0.0224193 -9.69674 -0.345143 
0.0923987 -0.345143 -9.64848 
-9.7047 0.0124358 0.101281 
0.0124358 -9.74673 -0.278826 
0.101281 -0.278826 -9.57505 
-9.64763 -0.00605356 0.101213 
-0.00605356 -9.64853 -0.293507 
0.101213 -0.293507 -9.73031 
-9.65709 0.0067291 0.092313 
0.0067291 -9.7053 -0.313975 
0.092313 -0.313975 -9.66408 
-9.68235 0.0547478 -0.0752299 
0.0547478 -9.65636 -0.0407012 
-0.0752299 -0.0407012 -9.75916 
-9.61208 -0.0116345 -0.0869425 
-0.0116345 -9.58868 0.0302646 
-0.0869425 0.0302646 -9.89711 
-9.60745 0.0256247 -0.0683616 
0.0256247 -9.65043 0.00831587 
-0.0683616 0.00831587 -9.83999 
-9.62948 -0.0358806 -0.00567362 
-0.0358806 -9.63549 0.0572225 
-0.00567362 0.0572225 -9.8329 
-10.7683 -0.0524231 -0.0768325 
-0.0524231 -9.78855 -0.26041 
-0.0768325 -0.26041 -12.5142 
-10.5025 0.632532 -0.359928 
0.632532 -9.21059 0.142487 
-0.359928 0.142487 -13.358 
-11.2317 0.345215 -0.783751 
0.345215 -10.2309 -0.701275 
-0.783751 -0.701275 -11.6086 
-11.0621 -1.09418 0.563789 
-1.09418 -9.93592 0.810004 
0.563789 0.810004 -12.0731 
-9.87434 0.0118428 -0.292245 
0.0118428 -9.87992 0.0976268 
-0.292245 0.0976268 -9.87148 
-9.8526 0.00338188 -0.266569 
0.00338188 -9.877 0.0989876 
-0.266569 0.0989876 -9.89615 
-9.89795 0.00744547 -0.294122 
0.00744547 -9.88755 0.110216 
-0.294122 0.110216 -9.84024 
-9.87615 0.00272249 -0.287688 
0.00272249 -9.8778 0.110866 
-0.287688 0.110866 -9.8718 
-9.91177 -0.0104434 0.112361 
-0.0104434 -9.90034 0.0121016 
0.112361 0.0121016 -9.93354 
-9.86757 8.04584e-05 0.101949 
8.04584e-05 -9.91565 -0.0378621 
0.101949 -0.0378621 -9.96243 
-9.9103 0.00848611 0.0885806 
0.00848611 -9.8967 -0.00804808 
0.0885806 -0.00804808 -9.93866 
-9.91136 0.00383887 0.117569 
0.00383887 -9.93375 0.0308061 
0.117569 0.0308061 -9.90054 
-9.51879 0.0590041 -0.36887 
0.0590041 -9.32593 -0.353289 
-0.36887 -0.353289 -9.48263 
-9.62024 0.122855 -0.401297 
0.122855 -9.28499 -0.572735 
-0.401297 -0.572735 -9.42212 
-9.5088 0.159903 -0.259438 
0.159903 -9.41177 -0.486404 
-0.259438 -0.486404 -9.40679 
-9.25554 0.0712116 -0.369129 
0.0712116 -9.82527 -0.403713 
-0.369129 -0.403713 -9.24655 
-9.72309 -0.0806313 -0.137955 
-0.0806313 -9.70543 -0.072192 
-0.137955 -0.072192 -9.59896 
-9.71358 -0.0844994 -0.15551 
-0.0844994 -9.67634 -0.0516935 
-0.15551 -0.0516935 -9.63756 
-9.7536 -0.00346792 -0.139159 
-0.00346792 -9.68698 -0.0166417 
-0.139159 -0.0166417 -9.58689 
-9.69047 -0.0475834 -0.109074 
-0.0475834 -9.70526 -0.102321 
-0.109074 -0.102321 -9.63174 
-6.40032 0.887942 1.3522 
0.887942 -8.74288 -1.90813 
1.3522 -1.90813 -4.79934 
-9.39031 -1.96001 3.76259 
-1.96001 -9.64568 -2.39293 
3.76259 -2.39293 -0.906554 
-6.95876 -0.541203 2.68984 
-0.541203 -7.18798 -1.39385 
2.68984 -1.39385 -5.7958 
-7.42508 0.869403 1.20563 
0.869403 -8.12113 -0.4478 
1.20563 -0.4478 -4.39633 
-3.966 0.343595 -0.282407 
0.343595 -4.66517 -0.769485 
-0.282407 -0.769485 -3.64868 
-5.74063 0.485749 0.267666 
0.485749 -6.89096 -0.66624 
0.267666 -0.66624 0.351742 
-5.16514 0.122021 0.442535 
0.122021 -6.10933 -1.48714 
0.442535 -1.48714 -1.00538 
-4.81391 0.424385 -1.5852 
0.424385 -5.44387 -2.02376 
-1.5852 -2.02376 -2.02206 
-9.69241 0.0132633 0.344189 
0.0132633 -9.64463 -0.0331988 
0.344189 -0.0331988 -9.59424 
-9.63624 -0.00689081 0.358365 
-0.00689081 -9.65714 -0.0425323 
0.358365 -0.0425323 -9.6379 
-9.62409 -0.00664691 0.368914 
-0.00664691 -9.64048 -0.051098 
0.368914 -0.051098 -9.66671 
-9.6184 -0.031335 0.343728 
-0.031335 -9.64836 -0.020426 
0.343728 -0.020426 -9.66452 
-10.9092 0.130342 -1.39398 
0.130342 -9.32769 -0.100699 
-1.39398 -0.100699 -10.3774 
-10.6372 0.764359 -0.858768 
0.764359 -9.64103 -0.504256 
-0.858768 -0.504256 -10.3361 
-9.17171 0.958709 -1.05198 
0.958709 -10.2467 0.334825 
-1.05198 0.334825 -11.1959 
-10.3834 0.677558 0.270054 
0.677558 -9.27345 0.772844 
0.270054 0.772844 -10.9575 
-9.68101 -0.00775026 -0.282034 
-0.00775026 -9.6772 0.1933 
-0.282034 0.1933 -9.67021 
-9.71831 0.00947973 -0.270676 
0.00947973 -9.72154 0.227613 
-0.270676 0.227613 -9.58857 
-9.68101 0.000939724 -0.278201 
0.000939724 -9.67762 0.188185 
-0.278201 0.188185 -9.66979 
-9.6423 0.0204364 -0.24389 
0.0204364 -9.67043 0.134764 
-0.24389 0.134764 -9.71568 
-9.78686 0.00286437 -0.113431 
0.00286437 -9.723 -0.0169971 
-0.113431 -0.0169971 -9.84779 
-9.77673 -0.0310826 -0.0895265 
-0.0310826 -9.77702 -0.0273523 
-0.0895265 -0.0273523 -9.8039 
-9.78182 -0.0385498 -0.0469616 
-0.0385498 -9.75783 -0.0116833 
-0.0469616 -0.0116833 -9.818 
-9.80535 0.0101966 -0.0387154 
0.0101966 -9.77306 -0.00506646 
-0.0387154 -0.00506646 -9.77925 
-4.66289 1.22923 -0.121684 
1.22923 -5.7327 0.693024 
-0.121684 0.693024 -0.120286 
-3.69282 0.348672 -0.210763 
0.348672 -6.11032 -0.324756 
-0.210763 -0.324756 -0.712728 
-2.26334 0.227773 -1.72014 
0.227773 -3.20392 -0.328342 
-1.72014 -0.328342 -5.0486 
-4.93179 0.172103 -2.46833 
0.172103 -4.87258 -0.637303 
-2.46833 -0.637303 -0.711501 
-9.63726 -0.0363023 -0.118861 
-0.0363023 -9.67292 -0.321427 
-0.118861 -0.321427 -9.68496 
-9.63482 -0.00291878 -0.133451 
-0.00291878 -9.67975 -0.286317 
-0.133451 -0.286317 -9.68057 
-9.63238 0.0303391 -0.127374 
0.0303391 -9.63709 -0.278143 
-0.127374 -0.278143 -9.72567 
-9.62229 -0.0391366 -0.105785 
-0.0391366 -9.73202 -0.282592 
-0.105785 -0.282592 -9.64083 
-9.68522 -0.00805654 -0.153776 
-0.00805654 -9.72342 -0.0151486 
-0.153776 -0.0151486 -9.8293 
-9.83117 -0.0084372 -0.0690573 
-0.0084372 -9.77582 -0.0719137 
-0.0690573 -0.0719137 -9.63095 
-9.74362 -0.00720042 -0.0131824 
-0.00720042 -9.71778 -0.000175656 
-0.0131824 -0.000175656 -9.77653 
-9.76894 -0.000275676 -0.0777594 
-0.000275676 -9.71733 -0.00922073 
-0.0777594 -0.00922073 -9.75167 
-9.66101 0.028146 -0.250596 
0.028146 -9.59398 0.0546865 
-0.250596 0.0546865 -9.5893 
-9.79759 -0.0476625 -0.253028 
-0.0476625 -9.56708 0.160699 
-0.253028 0.160699 -9.47962 
-9.65218 0.0179326 -0.303106 
0.0179326 -9.55914 0.0546619 
-0.303106 0.0546619 -9.63297 
-9.60225 -0.0239409 -0.298844 
-0.0239409 -9.62795 0.0861395 
-0.298844 0.0861395 -9.61408 
-9.80435 0.00272654 -0.0470936 
0.00272654 -9.8445 0.162999 
-0.0470936 0.162999 -9.72942 
-9.79707 0.00848908 -0.0482325 
0.00848908 -9.80264 0.148371 
-0.0482325 0.148371 -9.77856 
-9.81685 -0.0102066 -0.032052 
-0.0102066 -9.82715 0.146522 
-0.032052 0.146522 -9.73427 
-9.75355 0.0241313 -0.0851378 
0.0241313 -9.96903 0.0302421 
-0.0851378 0.0302421 -9.65569 
-8.77187 -2.89447 -0.689853 
-2.89447 -7.23443 1.73605 
-0.689853 1.73605 -4.94315 
-10.216 1.14548 -2.9744 
1.14548 -9.18991 -0.2845 
-2.9744 -0.2845 -1.54357 
-8.82499 -1.2172 -1.17746 
-1.2172 -8.21104 1.96616 
-1.17746 1.96616 -3.91342 
-6.06362 1.13547 -0.532259 
1.13547 -8.35356 5.39763 
-0.532259 5.39763 -6.53227 
-9.4049 0.0448458 0.203842 
0.0448458 -9.55715 -0.309142 
0.203842 -0.309142 -9.68601 
-9.45436 -0.0181748 0.123679 
-0.0181748 -9.50179 -0.386085 
0.123679 -0.386085 -9.69191 
-9.50975 -0.00439718 0.189893 
-0.00439718 -9.45883 -0.385237 
0.189893 -0.385237 -9.67947 
-9.53614 -0.0716654 0.23428 
-0.0716654 -9.5745 -0.246585 
0.23428 -0.246585 -9.53742 
-9.79892 0.030692 0.105962 
0.030692 -9.78929 -0.149937 
0.105962 -0.149937 -9.72108 
-9.80579 0.0307496 0.150636 
0.0307496 -9.81203 -0.167048 
0.150636 -0.167048 -9.69147 
-9.79628 0.0140941 0.124589 
0.0140941 -9.76933 -0.160022 
0.124589 -0.160022 -9.74368 
-9.73372 -0.0117417 0.148405 
-0.0117417 -9.72035 -0.156801 
0.148405 -0.156801 -9.85523 
-9.6791 -0.0220703 0.176423 
-0.0220703 -9.71303 -0.0841041 
0.176423 -0.0841041 -9.57522 
-9.71852 0.000679979 0.181022 
0.000679979 -9.68954 -0.0323606 
0.181022 -0.0323606 -9.55929 
-9.72621 0.0143778 0.202538 
0.0143778 -9.59136 -0.0663188 
0.202538 -0.0663188 -9.64978 
-9.69355 0.0146061 0.206575 
0.0146061 -9.70606 -0.0261556 
0.206575 -0.0261556 -9.56773 
-9.68717 -0.0400139 0.121637 
-0.0400139 -9.73194 0.0964714 
0.121637 0.0964714 -9.43298 
-9.52986 0.0630274 0.0539493 
0.0630274 -9.647 0.044349 
0.0539493 0.044349 -9.67524 
-9.84513 0.0204742 0.27727 
0.0204742 -9.69323 0.110066 
0.27727 0.110066 -9.31373 
-10.3091 -0.040745 -0.154165 
-0.040745 -9.29666 0.0823551 
-0.154165 0.0823551 -9.24635 
-9.21906 -0.0630271 0.334616 
-0.0630271 -9.5523 0.42733 
0.334616 0.42733 -9.33362 
-9.29932 -0.0680735 0.38553 
-0.0680735 -9.48269 0.353991 
0.38553 0.353991 -9.32296 
-9.30916 -0.0470088 0.322989 
-0.0470088 -9.42636 0.439257 
0.322989 0.439257 -9.36945 
-9.37477 -0.0467356 0.214493 
-0.0467356 -9.46053 0.214353 
0.214493 0.214353 -9.26967 
-9.59726 -0.00225031 -0.287969 
-0.00225031 -9.60161 0.125156 
-0.287969 0.125156 -9.60515 
-9.55832 0.0153273 -0.309597 
0.0153273 -9.58908 0.140458 
-0.309597 0.140458 -9.65661 
-9.55217 -0.000410417 -0.297617 
-0.000410417 -9.58038 0.133632 
-0.297617 0.133632 -9.67146 
-9.57049 -0.0151029 -0.304987 
-0.0151029 -9.59709 0.139697 
-0.304987 0.139697 -9.63643 
-9.75304 -0.0365634 0.156137 
-0.0365634 -9.78256 0.28354 
0.156137 0.28354 -9.7708 
-9.72099 -0.0047915 0.21765 
-0.0047915 -9.84552 0.222314 
0.21765 0.222314 -9.73989 
-9.766 0.0231077 0.226736 
0.0231077 -9.77044 0.24504 
0.226736 0.24504 -9.76996 
-9.76916 -0.00119493 0.103663 
-0.00119493 -9.7532 0.239482 
0.103663 0.239482 -9.78404 
-9.91497 -0.0105314 -0.123354 
-0.0105314 -9.88062 -0.0269425 
-0.123354 -0.0269425 -9.95377 
-9.90775 0.000879528 -0.102305 
0.000879528 -9.905 -0.0256851 
-0.102305 -0.0256851 -9.9366 
-9.91746 -0.000730328 -0.092936 
-0.000730328 -9.90718 -0.0196072 
-0.092936 -0.0196072 -9.92472 
-9.91103 -0.00797659 -0.10924 
-0.00797659 -9.90484 -0.0163665 
-0.10924 -0.0163665 -9.9335 
-11.8274 1.62182 0.723996 
1.62182 -8.84358 -0.396091 
0.723996 -0.396091 -11.3292 
-10.6028 -1.72054 -0.670835 
-1.72054 -8.37103 -2.59862 
-0.670835 -2.59862 -13.0264 
-9.51324 -0.755443 2.54602 
-0.755443 -11.0348 -3.05201 
2.54602 -3.05201 -11.4521 
-11.5181 -0.0859841 0.770033 
-0.0859841 -8.52289 -1.95584 
0.770033 -1.95584 -11.9592 
-8.30599 0.093131 0.324863 
0.093131 -10.3158 -0.0689686 
0.324863 -0.0689686 -10.4858 
-8.35055 0.354535 0.350839 
0.354535 -10.2602 -0.0769883 
0.350839 -0.0769883 -10.4968 
-10.0252 -0.107019 -1.0272 
-0.107019 -9.45799 0.19726 
-1.0272 0.19726 -9.62434 
-8.2639 0.205301 -0.704591 
0.205301 -10.3572 0.00878902 
-0.704591 0.00878902 -10.4865 
-9.20453 0.229812 -0.996409 
0.229812 -7.4293 -1.58597 
-0.996409 -1.58597 -1.10489 
-7.23557 0.130519 0.169134 
0.130519 -7.22404 0.178978 
0.169134 0.178978 -3.27912 
-7.28309 0.921378 -0.461819 
0.921378 -8.07705 0.588745 
-0.461819 0.588745 -2.37859 
-8.6519 -0.258668 -0.669317 
-0.258668 -6.18714 -2.42855 
-0.669317 -2.42855 -2.8997 
-9.91909 -0.00701123 -0.00413704 
-0.00701123 -9.9112 -0.0858401 
-0.00413704 -0.0858401 -9.94919 
-9.90624 -0.0134126 -0.0150375 
-0.0134126 -9.91898 -0.0890931 
-0.0150375 -0.0890931 -9.95425 
-9.90572 0.00997649 -0.0201902 
0.00997649 -9.90667 -0.0784214 
-0.0201902 -0.0784214 -9.96709 
-9.92018 0.0111023 0.00204007 
0.0111023 -9.92755 -0.0916535 
0.00204007 -0.0916535 -9.93175 
-11.156 -0.037957 0.0749131 
-0.037957 -10.8913 -0.695768 
0.0749131 -0.695768 -12.5948 
-11.7947 0.0265434 0.0345095 
0.0265434 -11.3537 0.154606 
0.0345095 0.154606 -11.4937 
-12.0623 -0.0408502 -0.137071 
-0.0408502 -11.4544 0.167885 
-0.137071 0.167885 -11.1254 
-11.8248 -0.352952 -0.371975 
-0.352952 -10.7026 0.0662267 
-0.371975 0.0662267 -12.1147 
-9.63073 0.0190686 0.178106 
0.0190686 -9.5143 -0.104237 
0.178106 -0.104237 -9.57854 
-9.6628 0.0229882 0.160082 
0.0229882 -9.53036 -0.0986511 
0.160082 -0.0986511 -9.53042 
-9.55177 0.00956492 0.182366 
0.00956492 -9.5739 -0.135158 
0.182366 -0.135158 -9.59791 
-9.74424 -0.0276804 0.167684 
-0.0276804 -9.50219 -0.130319 
0.167684 -0.130319 -9.47715 
-9.37655 0.169388 0.188282 
0.169388 -9.84029 0.0979005 
0.188282 0.0979005 -9.47616 
-9.47694 0.15588 0.728631 
0.15588 -10.2639 -0.201086 
0.728631 -0.201086 -8.95214 
-9.62574 0.0754445 0.5944 
0.0754445 -9.99167 -0.0464561 
0.5944 -0.0464561 -9.07559 
-9.58258 0.277328 0.666816 
0.277328 -10.28 -0.17799 
0.666816 -0.17799 -8.83038 
-9.4325 -0.0625335 0.0389375 
-0.0625335 -9.50605 -0.0582261 
0.0389375 -0.0582261 -9.92275 
-9.47201 -0.0050739 0.0792945 
-0.0050739 -9.52406 -0.0223811 
0.0792945 -0.0223811 -9.86523 
-9.54459 -0.0705456 -0.0569895 
-0.0705456 -9.37026 -0.00866951 
-0.0569895 -0.00866951 -9.94645 
-9.45449 -0.192431 0.169504 
-0.192431 -9.5281 -0.329753 
0.169504 -0.329753 -9.87871 
-4.8782 -1.5737 -0.958636 
-1.5737 -2.63391 1.81246 
-0.958636 1.81246 -3.40047 
-6.79486 -0.285387 -1.02357 
-0.285387 -4.50443 0.373248 
-1.02357 0.373248 0.386712 
-5.28011 1.02383 -1.22659 
1.02383 -4.28913 1.47458 
-1.22659 1.47458 -1.34334 
-4.67559 -0.154619 -1.00736 
-0.154619 -5.15657 3.07208 
-1.00736 3.07208 -1.08041 
-9.25914 0.692008 -0.525395 
0.692008 -11.4209 -0.409401 
-0.525395 -0.409401 -12.2897 
-9.08938 0.610694 -0.752884 
0.610694 -11.162 -0.451424 
-0.752884 -0.451424 -12.7184 
-10.3374 1.88059 -1.22071 
1.88059 -10.192 -0.407541 
-1.22071 -0.407541 -12.4404 
-9.7699 0.899101 0.0311938 
0.899101 -10.9122 -1.20211 
0.0311938 -1.20211 -12.2876 
-9.66576 -0.00990576 -0.252504 
-0.00990576 -9.64489 0.218973 
-0.252504 0.218973 -9.5983 
-9.65878 0.00611445 -0.257541 
0.00611445 -9.63609 0.227637 
-0.257541 0.227637 -9.61408 
-9.69732 0.0080367 -0.271579 
0.0080367 -9.70456 0.242108 
-0.271579 0.242108 -9.50708 
-9.60588 -0.0050106 -0.236355 
-0.0050106 -9.66804 0.164356 
-0.236355 0.164356 -9.63503 
-11.5728 0.0996933 -0.180086 
0.0996933 -10.2351 0.625792 
-0.180086 0.625792 -12.5368 
-10.9306 0.462982 -0.269453 
0.462982 -11.6209 -0.0423235 
-0.269453 -0.0423235 -11.7932 
-11.2266 0.199316 -0.0879385 
0.199316 -10.5824 0.0484436 
-0.0879385 0.0484436 -12.5356 
-11.361 -0.0176879 -0.0567849 
-0.0176879 -10.5831 0.0792279 
-0.0567849 0.0792279 -12.4005 
-9.73966 0.00239168 -0.0171101 
0.00239168 -9.62117 0.0588929 
-0.0171101 0.0588929 -9.75366 
-9.6409 -0.0180036 -0.0645141 
-0.0180036 -9.62451 0.0208809 
-0.0645141 0.0208809 -9.84908 
-9.65366 0.000176816 -0.0337658 
0.000176816 -9.62996 0.0291944 
-0.0337658 0.0291944 -9.83087 
-9.60253 0.0134908 -0.0160084 
0.0134908 -9.6605 -0.0153062 
-0.0160084 -0.0153062 -9.85146 
-9.85171 0.012229 -0.129191 
0.012229 -9.77314 -0.0136884 
-0.129191 -0.0136884 -9.84516 
-9.85715 0.004035 -0.110853 
0.004035 -9.7978 -0.0088187 
-0.110853 -0.0088187 -9.81506 
-9.86122 -0.0113561 -0.110241 
-0.0113561 -9.8066 -0.0376171 
-0.110241 -0.0376171 -9.80218 
-9.8251 0.0046807 -0.0965781 
0.0046807 -9.83565 0.00558397 
-0.0965781 0.00558397 -9.80925 
-9.39944 0.0141845 0.0482533 
0.0141845 -9.5123 -0.28435 
0.0482533 -0.28435 -9.6555 
-9.55596 -0.120356 0.176258 
-0.120356 -9.36885 -0.476841 
0.176258 -0.476841 -9.64243 
-9.48891 0.0117347 0.125038 
0.0117347 -9.51546 -0.378914 
0.125038 -0.378914 -9.56288 
-9.54543 0.0263915 0.111949 
0.0263915 -9.49993 -0.400334 
0.111949 -0.400334 -9.52189 
-9.71402 0.00174106 0.123335 
0.00174106 -9.71993 -0.299209 
0.123335 -0.299209 -9.74069 
-9.71234 0.0098488 0.090863 
0.0098488 -9.74154 -0.298448 
0.090863 -0.298448 -9.72076 
-9.69878 0.00110883 0.0538703 
0.00110883 -9.70251 -0.277186 
0.0538703 -0.277186 -9.77336 
-9.74802 0.0384397 0.0946124 
0.0384397 -9.75669 -0.291469 
0.0946124 -0.291469 -9.66993 
-9.73422 -0.00759714 -0.0631475 
-0.00759714 -9.76733 -0.229414 
-0.0631475 -0.229414 -9.67777 
-9.73784 -0.0256243 -0.0752811 
-0.0256243 -9.77352 -0.259281 
-0.0752811 -0.259281 -9.66796 
-9.72132 -0.00290662 -0.0428401 
-0.00290662 -9.75579 -0.270414 
-0.0428401 -0.270414 -9.7022 
-9.7147 0.029139 -0.0715095 
0.029139 -9.72979 -0.266865 
-0.0715095 -0.266865 -9.73482 
-9.86136 -0.00172202 -0.158666 
-0.00172202 -9.8248 -0.0242878 
-0.158666 -0.0242878 -9.84202 
-9.87295 0.00709308 -0.158754 
0.00709308 -9.83255 -0.0228229 
-0.158754 -0.0228229 -9.82268 
-9.88293 -0.00512565 -0.192346 
-0.00512565 -9.84508 -0.014847 
-0.192346 -0.014847 -9.80017 
-9.87891 -0.0171788 -0.181496 
-0.0171788 -9.82833 -0.0361972 
-0.181496 -0.0361972 -9.82094 
-9.69163 0.0274218 0.0226694 
0.0274218 -9.66893 0.0354271 
0.0226694 0.0354271 -9.87276 
-9.70595 0.0124035 -0.00181407 
0.0124035 -9.68645 0.0228151 
-0.00181407 0.0228151 -9.84092 
-9.69211 -0.013873 0.0243716 
-0.013873 -9.70695 -0.016786 
0.0243716 -0.016786 -9.83426 
-9.68552 -0.0234313 -0.0152661 
-0.0234313 -9.67892 -0.0204018 
-0.0152661 -0.0204018 -9.86887 
-9.83872 -0.0331605 0.230486 
-0.0331605 -9.83449 -0.108031 
0.230486 -0.108031 -9.87397 
-9.89095 0.0292937 0.261466 
0.0292937 -9.86771 -0.120518 
0.261466 -0.120518 -9.78852 
-9.85395 0.00479557 0.282944 
0.00479557 -9.85466 -0.124107 
0.282944 -0.124107 -9.83857 
-9.86064 0.00851479 0.268318 
0.00851479 -9.85635 -0.128237 
0.268318 -0.128237 -9.83018 
-9.59015 -0.0182415 0.184697 
-0.0182415 -9.669 -0.27778 
0.184697 -0.27778 -9.63668 
-9.62752 0.0121535 0.138109 
0.0121535 -9.60168 -0.315395 
0.138109 -0.315395 -9.66664 
-9.6379 0.0369558 0.195928 
0.0369558 -9.67496 -0.271565 
0.195928 -0.271565 -9.58297 
-9.67314 0.0172538 0.160899 
0.0172538 -9.57097 -0.323614 
0.160899 -0.323614 -9.65173 
-14.1801 0.0332078 0.119298 
0.0332078 -9.51786 -1.47977 
0.119298 -1.47977 -10.066 
-12.0609 0.568122 -0.0753756 
0.568122 -8.99689 -0.503899 
-0.0753756 -0.503899 -12.7063 
-9.60969 -0.424864 -2.25355 
-0.424864 -12.9796 -1.11398 
-2.25355 -1.11398 -11.1747 
-10.7819 1.24246 -0.316851 
1.24246 -10.8284 0.19396 
-0.316851 0.19396 -12.1538 
-9.651 0.00301897 0.148039 
0.00301897 -9.66016 -0.269182 
0.148039 -0.269182 -9.64777 
-9.66051 0.027281 0.179352 
0.027281 -9.68661 -0.276551 
0.179352 -0.276551 -9.61181 
-9.67741 0.0061219 0.204545 
0.0061219 -9.67196 -0.268456 
0.204545 -0.268456 -9.60957 
-9.66614 -0.00847509 0.210582 
-0.00847509 -9.68476 -0.294692 
0.210582 -0.294692 -9.60803 
-9.81848 0.28988 0.119738 
0.28988 -9.22757 0.144157 
0.119738 0.144157 -9.56854 
-9.0413 0.0501898 0.160628 
0.0501898 -9.4715 0.123735 
0.160628 0.123735 -10.1018 
-9.84249 -0.122232 0.244355 
-0.122232 -9.61452 0.469059 
0.244355 0.469059 -9.15758 
-9.32981 -0.165829 0.0736205 
-0.165829 -9.32893 0.682914 
0.0736205 0.682914 -9.95584 
-9.51416 0.0744562 -0.362995 
0.0744562 -9.58034 0.22922 
-0.362995 0.22922 -9.92697 
-9.56603 -0.00144593 -0.275823 
-0.00144593 -9.56454 0.11654 
-0.275823 0.11654 -9.89091 
-9.62814 0.0727931 -0.442139 
0.0727931 -9.44414 -0.195318 
-0.442139 -0.195318 -9.9492 
-9.45948 0.219299 -0.190117 
0.219299 -9.55891 0.144764 
-0.190117 0.144764 -10.0031 
-9.69793 -0.0249118 -0.00198803 
-0.0249118 -9.71444 0.0476298 
-0.00198803 0.0476298 -9.83264 
-9.71648 0.00737566 0.024487 
0.00737566 -9.70034 -0.0106548 
0.024487 -0.0106548 -9.82818 
-9.70045 -0.00853768 0.00473664 
-0.00853768 -9.74806 0.0458078 
0.00473664 0.0458078 -9.79649 
-9.66839 0.00601705 -0.0145156 
0.00601705 -9.68957 0.0880237 
-0.0145156 0.0880237 -9.88706 
-8.57783 -0.214406 3.43251 
-0.214406 -9.68379 -1.84109 
3.43251 -1.84109 -8.37663 
-8.84528 -0.855449 -0.034535 
-0.855449 -10.8829 -0.739472 
-0.034535 -0.739472 -6.91011 
-7.70034 1.24484 1.8507 
1.24484 -8.80142 -0.0525696 
1.8507 -0.0525696 -10.1365 
-10.4271 -2.19878 -0.239678 
-2.19878 -8.03127 -1.35901 
-0.239678 -1.35901 -8.1799 
-9.75181 0.00504556 0.234556 
0.00504556 -9.72718 -0.0654467 
0.234556 -0.0654467 -9.69083 
-9.76976 -0.0152175 0.230753 
-0.0152175 -9.74801 -0.0490052 
0.230753 -0.0490052 -9.65206 
-9.76564 0.0194871 0.200977 
0.0194871 -9.735 -0.0603156 
0.200977 -0.0603156 -9.66918 
-9.71987 0.0446311 0.251672 
0.0446311 -9.72102 -0.031765 
0.251672 -0.031765 -9.72893 
-9.10008 -0.910411 0.83592 
-0.910411 -8.20907 2.93888 
0.83592 2.93888 -2.80998 
-8.58605 -0.919848 1.14099 
-0.919848 -9.2025 2.69222 
1.14099 2.69222 -2.33058 
-6.476 2.13444 -2.44593 
2.13444 -8.50517 1.93518 
-2.44593 1.93518 -5.13796 
-8.30776 -0.799805 -1.03247 
-0.799805 -8.62251 2.35363 
-1.03247 2.35363 -3.18886 
-9.2108 0.0296592 -0.360194 
0.0296592 -9.92345 0.0148159 
-0.360194 0.0148159 -9.74007 
-9.36964 0.341855 -0.749012 
0.341855 -10.3141 -0.559291 
-0.749012 -0.559291 -9.19053 
-9.41552 0.00942319 -0.787624 
0.00942319 -9.70483 -0.476424 
-0.787624 -0.476424 -9.75396 
-9.87893 0.304192 -0.732001 
0.304192 -9.23865 -0.680158 
-0.732001 -0.680158 -9.75672 
-9.64421 -0.00458109 0.368177 
-0.00458109 -9.60276 -0.0953675 
0.368177 -0.0953675 -9.63905 
-9.68534 -0.00464344 0.339112 
-0.00464344 -9.62757 -0.0831496 
0.339112 -0.0831496 -9.57311 
-9.71481 0.0165521 0.331895 
0.0165521 -9.65983 -0.120138 
0.331895 -0.120138 -9.51138 
-9.60992 0.00285755 0.307501 
0.00285755 -9.64961 -0.0641632 
0.307501 -0.0641632 -9.6265 
-9.25829 -0.122442 -0.057707 
-0.122442 -9.81015 -0.226402 
-0.057707 -0.226402 -10.1152 
-9.30871 -0.222005 -0.516855 
-0.222005 -9.99345 0.0346214 
-0.516855 0.0346214 -9.88152 
-9.31575 -0.35719 -0.225773 
-0.35719 -9.83288 -0.151436 
-0.225773 -0.151436 -10.035 
-9.14303 -0.279091 0.099741 
-0.279091 -9.98512 -0.0264695 
0.099741 -0.0264695 -10.0555 
-10.572 0.555228 -0.143615 
0.555228 -9.09045 -0.775133 
-0.143615 -0.775133 -11.1111 
-9.78955 0.713837 -0.512641 
0.713837 -11.5045 -0.718823 
-0.512641 -0.718823 -9.47948 
-9.39239 0.196738 0.520232 
0.196738 -8.40261 -2.64968 
0.520232 -2.64968 -12.9785 
-10.3415 -0.546145 0.983242 
-0.546145 -8.53844 -0.912602 
0.983242 -0.912602 -11.8936 
-9.79321 0.0262978 0.155364 
0.0262978 -9.76098 -0.121021 
0.155364 -0.121021 -9.72105 
-9.8194 0.0312067 0.172978 
0.0312067 -9.78845 -0.147893 
0.172978 -0.147893 -9.66739 
-9.79601 0.0450099 0.12802 
0.0450099 -9.76985 -0.0993738 
0.12802 -0.0993738 -9.70938 
-9.67252 -0.0425437 0.147005 
-0.0425437 -9.74957 -0.160735 
0.147005 -0.160735 -9.85314 
-12.8731 -0.318748 0.14205 
-0.318748 -12.5726 -0.737294 
0.14205 -0.737294 -10.6185 
-11.5057 0.296631 -0.0571175 
0.296631 -11.8104 0.401318 
-0.0571175 0.401318 -12.748 
-11.0742 0.151078 0.0885288 
0.151078 -10.7415 0.706922 
0.0885288 0.706922 -14.2485 
-12.6093 0.931328 -1.46057 
0.931328 -11.7477 0.42524 
-1.46057 0.42524 -11.7072 
-8.91452 -0.142031 0.285915 
-0.142031 -10.3154 0.115034 
0.285915 0.115034 -11.2385 
-9.07228 -0.0591676 0.223101 
-0.0591676 -10.2721 -0.03175 
0.223101 -0.03175 -11.124 
-9.49418 0.308346 0.249809 
0.308346 -10.291 0.0126564 
0.249809 0.0126564 -10.6832 
-9.3568 -0.133901 -0.145853 
-0.133901 -10.4647 -0.506455 
-0.145853 -0.506455 -10.6469 
-9.71857 -0.0250851 -0.00591068 
-0.0250851 -9.71852 0.382763 
-0.00591068 0.382763 -9.56684 
-9.66035 -0.0260047 0.132477 
-0.0260047 -9.59797 0.312438 
0.132477 0.312438 -9.7456 
-9.65827 0.0126013 0.0362493 
0.0126013 -9.70847 0.333704 
0.0362493 0.333704 -9.63718 
-9.64297 0.000643306 0.05042 
0.000643306 -9.71199 0.325191 
0.05042 0.325191 -9.64896 
-9.6388 -0.0230376 -0.0298045 
-0.0230376 -9.66186 3.61035e-05 
-0.0298045 3.61035e-05 -9.85571 
-9.65447 0.000742051 -0.0336278 
0.000742051 -9.6573 0.0193733 
-0.0336278 0.0193733 -9.8446 
-9.66621 0.00358998 -0.0366017 
0.00358998 -9.64746 0.0291461 
-0.0366017 0.0291461 -9.8427 
-9.65845 0.00621968 -0.0282553 
0.00621968 -9.65521 0.0142949 
-0.0282553 0.0142949 -9.84272 
-9.71999 0.00777083 0.299147 
0.00777083 -9.71948 -0.150441 
0.299147 -0.150441 -9.71352 
-9.81729 0.0233933 0.236239 
0.0233933 -9.72267 -0.174481 
0.236239 -0.174481 -9.61302 
-9.73751 0.019936 0.257777 
0.019936 -9.72135 -0.158202 
0.257777 -0.158202 -9.69412 
-9.67143 0.00403942 0.224143 
0.00403942 -9.71767 -0.172617 
0.224143 -0.172617 -9.76388 
-9.0047 1.94868 1.00959 
1.94868 -9.09602 -0.352463 
1.00959 -0.352463 -12.8523 
-7.7238 0.924725 0.211884 
0.924725 -11.3439 -0.515616 
0.211884 -0.515616 -11.8853 
-8.21174 1.40062 -0.0932675 
1.40062 -10.3526 -0.355634 
-0.0932675 -0.355634 -12.3887 
-9.45991 2.19845 -1.65798 
2.19845 -9.55304 0.384332 
-1.65798 0.384332 -11.9401 
-9.70783 0.00513732 0.131942 
0.00513732 -9.64368 0.0738529 
0.131942 0.0738529 -9.66269 
-9.69232 -0.0200923 0.195872 
-0.0200923 -9.67636 0.0506834 
0.195872 0.0506834 -9.64552 
-9.67465 -0.0244088 0.195854 
-0.0244088 -9.68666 0.036014 
0.195854 0.036014 -9.65289 
-9.70168 -0.043318 0.166472 
-0.043318 -9.68184 0.0877114 
0.166472 0.0877114 -9.63068 
-7.22637 0.451972 -4.93021 
0.451972 -13.5636 0.058132 
-4.93021 0.058132 0.408122 
-6.23572 0.225173 -2.61617 
0.225173 -8.47413 -0.955641 
-2.61617 -0.955641 -5.67199 
-9.70912 1.26353 -2.59836 
1.26353 -6.29765 1.54259 
-2.59836 1.54259 -4.37507 
-9.43653 -0.13515 -0.598121 
-0.13515 -6.95222 0.0775096 
-0.598121 0.0775096 -3.99308 
-9.85411 -0.000906651 -0.187645 
-0.000906651 -9.83238 -0.0456915 
-0.187645 -0.0456915 -9.84477 
-9.88439 -0.00786788 -0.197283 
-0.00786788 -9.84426 -0.0161446 
-0.197283 -0.0161446 -9.8026 
-9.86998 -0.00468999 -0.188274 
-0.00468999 -9.84888 -0.0418077 
-0.188274 -0.0418077 -9.81239 
-9.85306 -0.0137852 -0.200094 
-0.0137852 -9.83905 -0.0422405 
-0.200094 -0.0422405 -9.83915 
-12.3133 0.76136 -0.897347 
0.76136 -7.09179 -0.116035 
-0.897347 -0.116035 -17.7465 
-9.97809 2.45625 -0.477068 
2.45625 -8.25856 2.26084 
-0.477068 2.26084 -18.915 
-16.0301 1.29315 1.42011 
1.29315 -14.8342 -1.9219 
1.42011 -1.9219 -6.2873 
-10.1062 -1.21997 5.84411 
-1.21997 -7.63787 -2.41156 
5.84411 -2.41156 -19.4076 
-9.65806 -0.0946339 0.126435 
-0.0946339 -9.52381 0.0430562 
0.126435 0.0430562 -10.9592 
-10.1944 -0.0881202 0.328197 
-0.0881202 -8.26594 0.330101 
0.328197 0.330101 -11.6808 
-9.56298 -0.429091 0.245657 
-0.429091 -9.2996 0.0805569 
0.245657 0.0805569 -11.2785 
-10.1118 -1.01137 0.234791 
-1.01137 -9.62763 0.612817 
0.234791 0.612817 -10.4016 
-7.67147 -0.872409 -0.983476 
-0.872409 -10.7118 1.06424 
-0.983476 1.06424 -8.74033 
-8.62652 0.0274081 -1.24657 
0.0274081 -7.94249 -0.329749 
-1.24657 -0.329749 -10.5545 
-10.0327 -0.907859 -2.00975 
-0.907859 -8.33477 2.41746 
-2.00975 2.41746 -8.75613 
-9.15116 -1.066 0.339094 
-1.066 -10.3182 1.12355 
0.339094 1.12355 -7.65417 
-4.44225 3.59511 -3.19538 
3.59511 -2.36273 -2.41905 
-3.19538 -2.41905 -25.4949 
-12.8539 4.50083 3.91786 
4.50083 -15.6452 2.91678 
3.91786 2.91678 -3.80077 
-10.3959 3.68008 -3.07253 
3.68008 -1.45608 -1.68833 
-3.07253 -1.68833 -20.4479 
-11.4331 -3.72487 -2.35447 
-3.72487 -12.3341 -6.56848 
-2.35447 -6.56848 -8.53269 
-9.67559 -0.00548057 -0.306084 
-0.00548057 -9.65104 0.0802156 
-0.306084 0.0802156 -9.64073 
-9.65532 0.00161921 -0.317747 
0.00161921 -9.64924 0.0687224 
-0.317747 0.0687224 -9.66281 
-9.68125 0.00380069 -0.320232 
0.00380069 -9.64868 0.0746039 
-0.320232 0.0746039 -9.63744 
-9.69622 0.00917565 -0.30654 
0.00917565 -9.67501 0.105427 
-0.30654 0.105427 -9.59615 
-9.78784 -0.00185407 -0.0391979 
-0.00185407 -9.7703 0.00304802 
-0.0391979 0.00304802 -9.91289 
-9.78088 0.00387645 -0.0370544 
0.00387645 -9.78773 0.00149728 
-0.0370544 0.00149728 -9.90242 
-9.7873 -0.000371033 -0.0404858 
-0.000371033 -9.78301 0.00379077 
-0.0404858 0.00379077 -9.90072 
-9.79298 -0.00503519 -0.0456574 
-0.00503519 -9.77788 0.00467147 
-0.0456574 0.00467147 -9.90016 
-9.80023 -0.0680624 0.130361 
-0.0680624 -9.7002 0.0896796 
0.130361 0.0896796 -9.66903 
-9.64567 -0.0170208 0.161199 
-0.0170208 -9.73511 0.00743306 
0.161199 0.00743306 -9.78867 
-9.78589 -0.0537669 0.0537828 
-0.0537669 -9.74301 0.0333366 
0.0537828 0.0333366 -9.64056 
-9.74332 -0.0500901 0.12113 
-0.0500901 -9.72952 0.0353051 
0.12113 0.0353051 -9.69662 
-9.73086 0.131181 -0.0392991 
0.131181 -9.63421 0.0224219 
-0.0392991 0.0224219 -9.45712 
-9.57693 0.112006 -0.121489 
0.112006 -9.70327 0.0305701 
-0.121489 0.0305701 -9.542 
-9.62197 0.0914563 -0.138569 
0.0914563 -9.59034 0.0496773 
-0.138569 0.0496773 -9.60989 
-9.73971 0.0607041 -0.0710254 
0.0607041 -9.64878 -0.0220622 
-0.0710254 -0.0220622 -9.43371 
-9.71399 -0.0556024 -0.0303157 
-0.0556024 -9.6831 -0.044473 
-0.0303157 -0.044473 -9.66735 
-9.74348 -0.0658082 -0.00621864 
-0.0658082 -9.63457 -0.0407949 
-0.00621864 -0.0407949 -9.6864 
-9.7139 -0.114825 0.0628162 
-0.114825 -9.66702 0.0496341 
0.0628162 0.0496341 -9.68351 
-9.68801 -0.0407159 0.0483285 
-0.0407159 -9.64403 0.0288315 
0.0483285 0.0288315 -9.7324 
-9.86187 -0.00611885 0.0145406 
-0.00611885 -9.84098 0.0213782 
0.0145406 0.0213782 -9.91374 
-9.85676 -0.00319589 0.0380614 
-0.00319589 -9.85546 0.0517381 
0.0380614 0.0517381 -9.90437 
-9.85077 -0.00625907 0.0208401 
-0.00625907 -9.84739 0.0265901 
0.0208401 0.0265901 -9.91842 
-9.85115 -0.00819901 0.0568574 
-0.00819901 -9.85657 0.0397175 
0.0568574 0.0397175 -9.90887 
-9.85105 0.000845389 0.0414189 
0.000845389 -9.84994 -0.0127316 
0.0414189 -0.0127316 -9.9142 
-9.85554 0.00215421 0.0580778 
0.00215421 -9.85065 -0.0157996 
0.0580778 -0.0157996 -9.909 
-9.84849 -0.00816156 0.0340625 
-0.00816156 -9.85348 -0.0169974 
0.0340625 -0.0169974 -9.91322 
-9.86198 0.0052802 0.0750765 
0.0052802 -9.85131 0.00649676 
0.0750765 0.00649676 -9.9019 
-9.63696 -0.00295929 0.306087 
-0.00295929 -9.58864 -0.178064 
0.306087 -0.178064 -9.58655 
-9.65521 0.0277176 0.309851 
0.0277176 -9.61075 -0.128367 
0.309851 -0.128367 -9.54619 
-9.64001 0.0170888 0.320771 
0.0170888 -9.61028 -0.1651 
0.320771 -0.1651 -9.56186 
-9.59982 -0.0103387 0.370125 
-0.0103387 -9.67337 -0.188923 
0.370125 -0.188923 -9.53896 
-9.90988 -0.00450014 -0.0925752 
-0.00450014 -9.86501 0.25909 
-0.0925752 0.25909 -9.94523 
-9.94156 -0.00253381 -0.0982791 
-0.00253381 -9.90153 0.245494 
-0.0982791 0.245494 -9.87704 
-9.88697 0.014776 -0.105412 
0.014776 -9.93425 0.26201 
-0.105412 0.26201 -9.8989 
-9.90335 0.00165116 -0.102573 
0.00165116 -9.91287 0.253947 
-0.102573 0.253947 -9.9039 
-9.05588 -0.248081 -0.0857096 
-0.248081 -9.94843 0.0102604 
-0.0857096 0.0102604 -10.3814 
-9.79191 -0.31803 0.0740832 
-0.31803 -8.77773 -0.0802057 
0.0740832 -0.0802057 -10.816 
-9.69811 0.172901 0.243608 
0.172901 -9.15951 -0.269811 
0.243608 -0.269811 -10.528 
-8.83494 -0.415373 0.00908114 
-0.415373 -10.0729 -0.330892 
0.00908114 -0.330892 -10.4778 
-9.49967 0.0921639 0.24625 
0.0921639 -9.2309 -0.349716 
0.24625 -0.349716 -9.33586 
-9.64745 -0.0370308 0.378499 
-0.0370308 -9.31935 -0.528617 
0.378499 -0.528617 -9.09964 
-9.48913 0.162877 0.227551 
0.162877 -9.08822 -0.463395 
0.227551 -0.463395 -9.48908 
-9.38406 -0.181555 0.593271 
-0.181555 -9.33963 0.0165297 
0.593271 0.0165297 -9.34275 
-9.72154 0.00872928 -0.285704 
0.00872928 -9.75714 0.152266 
-0.285704 0.152266 -9.71425 
-9.80415 0.0447347 -0.268341 
0.0447347 -9.71534 0.136735 
-0.268341 0.136735 -9.67344 
-9.72698 -0.00826447 -0.228198 
-0.00826447 -9.71665 0.174682 
-0.228198 0.174682 -9.7493 
-9.70156 -0.000982356 -0.231112 
-0.000982356 -9.74963 0.139957 
-0.231112 0.139957 -9.74174 
-9.31135 0.176287 -0.196156 
0.176287 -9.51115 0.0344579 
-0.196156 0.0344579 -9.21857 
-9.23111 0.0424298 -0.0892588 
0.0424298 -9.72154 0.0503931 
-0.0892588 0.0503931 -9.08842 
-9.21771 0.142507 -0.217766 
0.142507 -9.63819 0.00736564 
-0.217766 0.00736564 -9.18517 
-9.34735 0.084641 -0.183081 
0.084641 -9.59605 0.233282 
-0.183081 0.233282 -9.09767 
-10.049 0.165023 0.123305 
0.165023 -10.0302 0.00112835 
0.123305 0.00112835 -10.9958 
-9.50746 0.0628304 0.22829 
0.0628304 -10.4917 -0.00364297 
0.22829 -0.00364297 -11.0758 
-9.56977 0.256855 0.19255 
0.256855 -10.1735 0.0452538 
0.19255 0.0452538 -11.3318 
-9.72601 0.272813 0.0874707 
0.272813 -10.2331 0.273866 
0.0874707 0.273866 -11.1159 
-9.75202 0.0122602 -0.319079 
0.0122602 -9.71173 0.0771919 
-0.319079 0.0771919 -9.78433 
-9.77728 0.0221055 -0.282564 
0.0221055 -9.74528 0.1075 
-0.282564 0.1075 -9.72553 
-9.77568 0.00196463 -0.293393 
0.00196463 -9.71939 0.0891506 
-0.293393 0.0891506 -9.75303 
-9.7636 -0.0160998 -0.298012 
-0.0160998 -9.73222 0.105083 
-0.298012 0.105083 -9.75227 
-9.61153 0.068096 0.0177728 
0.068096 -9.5521 -0.0294286 
0.0177728 -0.0294286 -9.67544 
-9.49557 0.0250206 0.000900727 
0.0250206 -9.48427 0.0234229 
0.000900727 0.0234229 -9.85924 
-9.56046 0.0286011 0.0770693 
0.0286011 -9.55108 -0.0116296 
0.0770693 -0.0116296 -9.72754 
-9.55936 -0.126003 0.260515 
-0.126003 -9.52072 -0.186181 
0.260515 -0.186181 -9.75899 
-7.19977 -1.65475 -3.06489 
-1.65475 -10.0109 1.35599 
-3.06489 1.35599 -11.1528 
-8.71489 0.886155 -2.43553 
0.886155 -10.0789 1.0909 
-2.43553 1.0909 -9.56972 
-7.55017 -0.556356 -2.79401 
-0.556356 -9.04514 1.48991 
-2.79401 1.48991 -11.7682 
-8.39342 -2.15575 -1.27418 
-2.15575 -9.35172 0.0138354 
-1.27418 0.0138354 -10.6184 
-11.2337 1.82698 -0.933374 
1.82698 -7.51985 -0.41238 
-0.933374 -0.41238 -16.75 
-11.9614 0.0831237 0.237173 
0.0831237 -10.5767 0.121814 
0.237173 0.121814 -12.9656 
-11.992 0.440562 0.320915 
0.440562 -12.8484 -1.79973 
0.320915 -1.79973 -10.6632 
-12.4951 0.639437 0.431545 
0.639437 -11.1647 1.11082 
0.431545 1.11082 -11.8438 
-12.7307 0.582157 -1.16283 
0.582157 -8.81407 -0.778872 
-1.16283 -0.778872 -12.0088 
-10.8184 -0.199138 -0.0053514 
-0.199138 -10.2065 -0.0749283 
-0.0053514 -0.0749283 -12.5286 
-10.647 -0.886252 -0.209692 
-0.886252 -11.5481 0.080797 
-0.209692 0.080797 -11.3585 
-10.6774 0.881244 0.417755 
0.881244 -10.333 0.343299 
0.417755 0.343299 -12.5431 
-9.57565 -0.0517133 0.0217943 
-0.0517133 -9.54712 -0.0628687 
0.0217943 -0.0628687 -9.76946 
-9.56693 -0.0617452 0.119376 
-0.0617452 -9.58872 -0.12657 
0.119376 -0.12657 -9.73657 
-9.57383 -0.0710893 0.0431044 
-0.0710893 -9.51057 -0.065674 
0.0431044 -0.065674 -9.80782 
-9.47403 -0.0521502 0.0468083 
-0.0521502 -9.49377 -0.026844 
0.0468083 -0.026844 -9.92443 
-9.75091 -0.0020492 0.00156577 
-0.0020492 -9.75842 -0.173909 
0.00156577 -0.173909 -9.44862 
-9.59194 0.0111826 -0.0148579 
0.0111826 -9.65966 -0.00298317 
-0.0148579 -0.00298317 -9.70635 
-9.62557 -0.0335184 0.0014972 
-0.0335184 -9.61192 -0.0695677 
0.0014972 -0.0695677 -9.72046 
-9.62817 0.0135672 -0.00943157 
0.0135672 -9.6116 -0.0675046 
-0.00943157 -0.0675046 -9.71818 
-9.74433 -0.0970195 0.0404494 
-0.0970195 -9.50384 -0.0453239 
0.0404494 -0.0453239 -9.47758 
-9.78266 -0.022784 0.223583 
-0.022784 -9.5201 0.230173 
0.223583 0.230173 -9.42299 
-9.61481 0.0347941 0.146827 
0.0347941 -9.62178 0.259038 
0.146827 0.259038 -9.48915 
-9.61362 -0.127344 0.348183 
-0.127344 -9.66586 -0.0627152 
0.348183 -0.0627152 -9.44627 
-9.71872 -0.00165733 0.0230528 
-0.00165733 -9.70289 0.0310212 
0.0230528 0.0310212 -9.78242 
-9.69017 -0.044918 0.0828143 
-0.044918 -9.69459 0.111918 
0.0828143 0.111918 -9.81927 
-9.74519 -0.00435021 0.050004 
-0.00435021 -9.68684 0.0283183 
0.050004 0.0283183 -9.77201 
-9.72229 -0.0517119 0.0106932 
-0.0517119 -9.66896 0.0526402 
0.0106932 0.0526402 -9.81278 
-10.1556 -0.535689 -0.33302 
-0.535689 -9.69211 1.21931 
-0.33302 1.21931 -6.37153 
-9.30568 -0.494852 -0.670351 
-0.494852 -9.75682 0.883358 
-0.670351 0.883358 -7.15673 
-8.94301 -0.762932 -0.358627 
-0.762932 -8.90841 1.113 
-0.358627 1.113 -8.3678 
-9.80671 -0.458938 0.132501 
-0.458938 -9.33492 1.20345 
0.132501 1.20345 -7.0776 
-9.8805 -0.00366449 0.052891 
-0.00366449 -9.86819 0.0756805 
0.052891 0.0756805 -9.9268 
-9.88311 -0.00535824 0.065517 
-0.00535824 -9.87751 0.0679887 
0.065517 0.0679887 -9.91486 
-9.90207 -0.0101104 0.0675287 
-0.0101104 -9.88377 0.0663703 
0.0675287 0.0663703 -9.88964 
-9.89041 -0.0104593 0.0515966 
-0.0104593 -9.88278 0.0716926 
0.0515966 0.0716926 -9.9023 
-9.71477 0.073177 -0.117625 
0.073177 -9.69159 0.223507 
-0.117625 0.223507 -9.64926 
-9.71216 0.081126 -0.111227 
0.081126 -9.72842 0.278191 
-0.111227 0.278191 -9.61504 
-9.7541 0.0665027 -0.116302 
0.0665027 -9.71982 0.208135 
-0.116302 0.208135 -9.58171 
-9.72354 0.082343 -0.104339 
0.082343 -9.71953 0.254505 
-0.104339 0.254505 -9.61255 
-8.55243 -1.53022 -1.30362 
-1.53022 -11.0702 0.249709 
-1.30362 0.249709 -9.15586 
-8.95118 0.783557 -2.07834 
0.783557 -10.4112 -0.993666 
-2.07834 -0.993666 -9.41604 
-8.50319 2.13953 -2.57669 
2.13953 -9.17903 -0.130317 
-2.57669 -0.130317 -11.0962 
-9.54233 0.210371 -1.69196 
0.210371 -9.61729 -1.80979 
-1.69196 -1.80979 -9.61884 
-9.63645 0.00575181 0.289179 
0.00575181 -9.66076 -0.181123 
0.289179 -0.181123 -9.67785 
-9.67362 0.0413891 0.281688 
0.0413891 -9.65853 -0.158974 
0.281688 -0.158974 -9.64291 
-9.67168 0.0507573 0.294422 
0.0507573 -9.66147 -0.191125 
0.294422 -0.191125 -9.64191 
-9.67056 0.0331629 0.273355 
0.0331629 -9.671 -0.1734 
0.273355 -0.1734 -9.6335 
-9.61722 -0.217189 -0.0893524 
-0.217189 -9.48775 -0.0113167 
-0.0893524 -0.0113167 -9.68039 
-9.50067 0.259723 -0.27984 
0.259723 -9.62099 0.465344 
-0.27984 0.465344 -9.66369 
-9.28663 0.233981 0.0409278 
0.233981 -9.27157 0.649282 
0.0409278 0.649282 -10.2272 
-9.90999 -0.206457 -0.069984 
-0.206457 -8.96019 0.557012 
-0.069984 0.557012 -9.91517 
-9.57031 -0.0440158 -0.15731 
-0.0440158 -9.50353 0.476523 
-0.15731 0.476523 -9.5919 
-9.50042 -0.0416042 -0.134086 
-0.0416042 -9.58613 0.244117 
-0.134086 0.244117 -9.57919 
-9.54378 0.0934781 -0.163268 
0.0934781 -9.63147 0.478386 
-0.163268 0.478386 -9.4905 
-9.6598 -0.0435079 -0.100096 
-0.0435079 -9.4762 0.214307 
-0.100096 0.214307 -9.52974 
-9.69923 -0.0231045 0.203307 
-0.0231045 -9.70107 0.267398 
0.203307 0.267398 -9.65057 
-9.73057 0.0229205 0.169188 
0.0229205 -9.68986 0.298803 
0.169188 0.298803 -9.63044 
-9.67313 -0.017656 0.204332 
-0.017656 -9.71587 0.280286 
0.204332 0.280286 -9.66187 
-9.70602 -0.0131972 0.233746 
-0.0131972 -9.73384 0.262116 
0.233746 0.262116 -9.61102 
-9.88755 -0.00111201 0.0889179 
-0.00111201 -9.89003 -0.180309 
0.0889179 -0.180309 -9.90432 
-9.86157 0.000896064 0.110303 
0.000896064 -9.91746 -0.142 
0.110303 -0.142 -9.90287 
-9.8636 0.00641688 0.120476 
0.00641688 -9.96132 -0.140337 
0.120476 -0.140337 -9.85698 
-9.89957 0.0203913 0.085099 
0.0203913 -9.89682 -0.151904 
0.085099 -0.151904 -9.88552 
-9.91946 0.00469716 -0.220158 
0.00469716 -9.89129 -0.0304671 
-0.220158 -0.0304671 -9.90366 
-9.91398 -0.00707928 -0.222687 
-0.00707928 -9.90618 -0.0260508 
-0.222687 -0.0260508 -9.89425 
-9.89377 -0.0132562 -0.220366 
-0.0132562 -9.90056 -0.0308224 
-0.220366 -0.0308224 -9.92008 
-9.91518 -0.00439583 -0.221453 
-0.00439583 -9.8961 -0.024206 
-0.221453 -0.024206 -9.90313 
-9.9303 0.00210487 -0.196403 
0.00210487 -9.89986 -0.000876281 
-0.196403 -0.000876281 -9.91158 
-9.90549 -0.0121928 -0.200059 
-0.0121928 -9.8984 -0.0084935 
-0.200059 -0.0084935 -9.93785 
-9.92321 -0.0112149 -0.209281 
-0.0112149 -9.91722 -0.00814463 
-0.209281 -0.00814463 -9.90131 
-9.92646 -0.00080694 -0.195305 
-0.00080694 -9.90337 0.00175397 
-0.195305 0.00175397 -9.9119 
-9.39779 -0.000477182 -0.224629 
-0.000477182 -9.66046 -0.15858 
-0.224629 -0.15858 -9.83365 
-9.47515 -0.134853 -0.247892 
-0.134853 -9.67458 -0.260114 
-0.247892 -0.260114 -9.74217 
-9.41481 -0.111276 -0.288427 
-0.111276 -9.7028 -0.303947 
-0.288427 -0.303947 -9.77428 
-9.58287 -0.135003 -0.344606 
-0.135003 -9.69604 -0.0793974 
-0.344606 -0.0793974 -9.61299 
-9.51928 0.0593324 0.00821677 
0.0593324 -9.5633 0.0132502 
0.00821677 0.0132502 -9.89549 
-9.58558 -0.0167564 0.0107262 
-0.0167564 -9.60398 -0.0526346 
0.0107262 -0.0526346 -9.78852 
-9.52064 0.00644818 -0.00891169 
0.00644818 -9.53719 0.0120145 
-0.00891169 0.0120145 -9.92025 
-9.52757 0.00805877 -0.0864976 
0.00805877 -9.53022 0.0214668 
-0.0864976 0.0214668 -9.92029 
-9.87723 0.0124138 0.181513 
0.0124138 -9.86431 -0.127641 
0.181513 -0.127641 -9.8548 
-9.87671 0.0220478 0.208176 
0.0220478 -9.87336 -0.104692 
0.208176 -0.104692 -9.84628 
-9.88285 0.0132952 0.191777 
0.0132952 -9.87316 -0.121725 
0.191777 -0.121725 -9.84034 
-9.89238 0.0131407 0.164348 
0.0131407 -9.84842 -0.124764 
0.164348 -0.124764 -9.85555 
-9.78807 0.00528999 -0.151012 
0.00528999 -9.78948 -0.0355624 
-0.151012 -0.0355624 -9.75736 
-9.80919 -0.0114111 -0.132206 
-0.0114111 -9.72726 -0.0184713 
-0.132206 -0.0184713 -9.79846 
-9.7993 0.0200411 -0.161879 
0.0200411 -9.78504 0.000748635 
-0.161879 0.000748635 -9.75057 
-9.82678 -0.00254182 -0.166083 
-0.00254182 -9.783 0.00348541 
-0.166083 0.00348541 -9.72512 
-9.47623 -0.0797576 -0.02894 
-0.0797576 -9.46415 -0.0376514 
-0.02894 -0.0376514 -9.8009 
-9.4373 -0.00171902 -0.0210528 
-0.00171902 -9.52872 -0.025301 
-0.0210528 -0.025301 -9.77527 
-9.53689 0.000618207 -0.0346436 
0.000618207 -9.42567 -0.127138 
-0.0346436 -0.127138 -9.77873 
-9.58803 0.0284192 -0.00154239 
0.0284192 -9.41699 -0.0560128 
-0.00154239 -0.0560128 -9.73626 
-9.64088 0.0388247 0.310393 
0.0388247 -9.5207 -0.0795953 
0.310393 -0.0795953 -9.68657 
-9.67927 0.0648137 0.132069 
0.0648137 -9.6712 -0.126004 
0.132069 -0.126004 -9.49769 
-9.66083 -0.009473 0.11496 
-0.009473 -9.58979 -0.0697023 
0.11496 -0.0697023 -9.59753 
-9.73146 0.104801 0.126065 
0.104801 -9.40691 -0.0245132 
0.126065 -0.0245132 -9.70979 
-9.84509 0.00959942 -0.106623 
0.00959942 -9.85551 0.28948 
-0.106623 0.28948 -9.86302 
-9.8723 -0.00446618 -0.120968 
-0.00446618 -9.86386 0.303673 
-0.120968 0.303673 -9.82745 
-9.86085 -0.00420292 -0.114951 
-0.00420292 -9.8671 0.28365 
-0.114951 0.28365 -9.83566 
-9.85744 -0.00179128 -0.127757 
-0.00179128 -9.85198 0.297704 
-0.127757 0.297704 -9.8542 
-9.66624 0.000752554 -0.276605 
0.000752554 -9.50427 0.204102 
-0.276605 0.204102 -9.64297 
-9.61712 0.0914092 -0.367765 
0.0914092 -9.67527 0.125056 
-0.367765 0.125056 -9.5211 
-9.66714 0.0429066 -0.384929 
0.0429066 -9.66419 0.111776 
-0.384929 0.111776 -9.48216 
-9.48461 -0.0646908 -0.536575 
-0.0646908 -9.65562 0.209813 
-0.536575 0.209813 -9.67326 
-9.43155 -0.592154 0.251351 
-0.592154 -9.97715 0.349162 
0.251351 0.349162 -9.74685 
-8.73169 -0.621912 0.32015 
-0.621912 -10.3022 -0.450405 
0.32015 -0.450405 -10.1216 
-10.0465 -0.282797 0.511318 
-0.282797 -9.74307 -0.773275 
0.511318 -0.773275 -9.36596 
-9.60107 -0.11329 -0.0258987 
-0.11329 -9.6024 -0.0906233 
-0.0258987 -0.0906233 -9.95208 
-9.61083 -0.0165274 -0.126309 
-0.0165274 -9.65551 -0.31337 
-0.126309 -0.31337 -9.68979 
-9.60578 -0.0301624 -0.107531 
-0.0301624 -9.59695 -0.290083 
-0.107531 -0.290083 -9.75341 
-9.62905 0.00461759 -0.141712 
0.00461759 -9.65487 -0.320492 
-0.141712 -0.320492 -9.67222 
-9.70216 -0.0255257 -0.133942 
-0.0255257 -9.67332 -0.293159 
-0.133942 -0.293159 -9.58065 
-9.47208 -0.115993 0.0735341 
-0.115993 -9.66959 0.0737724 
0.0735341 0.0737724 -9.51293 
-9.38908 -0.0702583 0.148813 
-0.0702583 -9.52294 0.200113 
0.148813 0.200113 -9.74257 
-9.44309 -0.0759287 0.0333597 
-0.0759287 -9.84881 0.0894647 
0.0333597 0.0894647 -9.36269 
-9.54838 0.0304561 -0.0193609 
0.0304561 -9.72355 -0.0551591 
-0.0193609 -0.0551591 -9.38266 
-10.9109 -2.05095 -3.16153 
-2.05095 -7.3784 6.38709 
-3.16153 6.38709 -7.32382 
-8.99973 -2.71264 -0.618425 
-2.71264 -7.05783 1.7805 
-0.618425 1.7805 -9.55558 
-7.62485 0.157033 -2.42056 
0.157033 -8.64706 5.24456 
-2.42056 5.24456 -9.34122 
-8.98675 2.76399 0.412024 
2.76399 -10.3789 0.84654 
0.412024 0.84654 -6.2475 
-13.0923 -1.89927 -0.854588 
-1.89927 -13.4986 4.94745 
-0.854588 4.94745 10.8525 
-10.1719 -0.0257954 0.127595 
-0.0257954 -7.04319 3.87847 
0.127595 3.87847 1.47671 
-0.50096 -0.0807266 1.22531 
-0.0807266 -1.54619 -5.04267 
1.22531 -5.04267 -13.6913 
-8.9204 7.88503 11.3253 
7.88503 -2.38659 7.23204 
11.3253 7.23204 -4.43143 
-10.9475 0.255493 -0.773799 
0.255493 -10.2593 -0.226735 
-0.773799 -0.226735 -14.1272 
-12.087 1.10394 0.199079 
1.10394 -12.88 -0.248255 
0.199079 -0.248255 -10.367 
-12.2652 0.0254885 0.159702 
0.0254885 -10.9493 -0.502946 
0.159702 -0.502946 -12.1195 
-11.1592 -0.18862 0.97736 
-0.18862 -11.1236 -1.52462 
0.97736 -1.52462 -13.0512 
-9.63031 0.0080851 0.176013 
0.0080851 -9.67195 -0.253388 
0.176013 -0.253388 -9.65412 
-9.64751 -0.0286018 0.150528 
-0.0286018 -9.66499 -0.302667 
0.150528 -0.302667 -9.64388 
-9.66588 0.0103675 0.178462 
0.0103675 -9.64866 -0.306112 
0.178462 -0.306112 -9.64184 
-9.66755 0.00873609 0.171682 
0.00873609 -9.64055 -0.30341 
0.171682 -0.30341 -9.64828 
-9.66038 0.487529 0.464256 
0.487529 -9.16401 0.355984 
0.464256 0.355984 -9.60134 
-8.91952 0.189576 -0.510753 
0.189576 -9.15782 0.702673 
-0.510753 0.702673 -10.3484 
-9.58169 0.122855 -0.178552 
0.122855 -8.9027 0.958187 
-0.178552 0.958187 -9.94134 
-9.24257 0.523694 -0.688228 
0.523694 -8.42579 0.153532 
-0.688228 0.153532 -10.7574 
-9.39897 -0.00889725 -0.418685 
-0.00889725 -9.31225 0.236234 
-0.418685 0.236234 -9.64659 
-9.3082 -0.263769 -0.127502 
-0.263769 -9.59902 0.465603 
-0.127502 0.465603 -9.45059 
-9.5197 -0.100827 0.0471441 
-0.100827 -9.40344 0.451007 
0.0471441 0.451007 -9.43468 
-9.75268 0.202945 -0.171109 
0.202945 -9.07568 0.612004 
-0.171109 0.612004 -9.52945 
-9.83895 -0.00494955 0.142771 
-0.00494955 -9.8293 -0.172701 
0.142771 -0.172701 -9.84089 
-9.82284 0.00814921 0.128314 
0.00814921 -9.84483 -0.147801 
0.128314 -0.147801 -9.84148 
-9.82347 0.0266076 0.133933 
0.0266076 -9.89443 -0.158529 
0.133933 -0.158529 -9.79124 
-9.85821 0.0185264 0.0954802 
0.0185264 -9.88066 -0.172116 
0.0954802 -0.172116 -9.77027 
-9.84476 1.58291e-05 0.275406 
1.58291e-05 -9.95071 -0.170424 
0.275406 -0.170424 -9.98272 
-9.91986 -0.00763998 0.279714 
-0.00763998 -9.92721 -0.119269 
0.279714 -0.119269 -9.93111 
-9.92012 -0.00527011 0.289117 
-0.00527011 -9.96757 -0.105884 
0.289117 -0.105884 -9.8905 
-9.9214 0.00542408 0.268082 
0.00542408 -9.91583 -0.128881 
0.268082 -0.128881 -9.94095 
-9.89258 -0.00240209 0.0275178 
-0.00240209 -9.90501 0.0508098 
0.0275178 0.0508098 -9.93513 
-9.90876 -0.0135226 0.024299 
-0.0135226 -9.87369 0.0580426 
0.024299 0.0580426 -9.95027 
-9.88321 0.00381584 0.022353 
0.00381584 -9.9131 0.0455445 
0.022353 0.0455445 -9.9364 
-9.90243 -0.0149082 0.0618193 
-0.0149082 -9.89105 0.0608934 
0.0618193 0.0608934 -9.93924 
-9.91901 -0.00592582 -0.292736 
-0.00592582 -9.91518 0.105893 
-0.292736 0.105893 -9.93779 
-9.9242 0.0287157 -0.285528 
0.0287157 -9.86646 0.0828158 
-0.285528 0.0828158 -9.98133 
-9.90641 -0.00815534 -0.288476 
-0.00815534 -9.92702 0.111648 
-0.288476 0.111648 -9.93856 
-9.93595 0.006163 -0.294104 
0.006163 -9.9146 0.107835 
-0.294104 0.107835 -9.92144 
-9.90842 0.0113459 -0.137079 
0.0113459 -9.90153 -0.0280971 
-0.137079 -0.0280971 -9.95303 
-9.92965 -0.000245648 -0.161342 
-0.000245648 -9.92045 -0.00859251 
-0.161342 -0.00859251 -9.91288 
-9.9256 0.000803308 -0.1598 
0.000803308 -9.90097 -0.0149287 
-0.1598 -0.0149287 -9.9364 
-9.91479 -0.00471555 -0.133148 
-0.00471555 -9.91879 -0.0232102 
-0.133148 -0.0232102 -9.92939 
-9.68924 -0.0273375 -0.0331282 
-0.0273375 -9.74695 -0.376528 
-0.0331282 -0.376528 -9.76071 
-9.78157 0.0027806 -0.0282793 
0.0027806 -9.7272 -0.359792 
-0.0282793 -0.359792 -9.68814 
-9.65576 0.0346357 0.0201248 
0.0346357 -9.73982 -0.283064 
0.0201248 -0.283064 -9.80133 
-9.77331 0.0216035 -0.0352101 
0.0216035 -9.79031 -0.308569 
-0.0352101 -0.308569 -9.63329 
-9.56522 -0.0780497 0.172414 
-0.0780497 -9.61112 -0.217861 
0.172414 -0.217861 -9.84031 
-9.63618 -0.00506905 0.157516 
-0.00506905 -9.79211 -0.142775 
0.157516 -0.142775 -9.58837 
-9.81984 -0.0344208 -0.00497009 
-0.0344208 -9.16008 0.0572003 
-0.00497009 0.0572003 -10.0367 
-9.96981 -0.0711547 0.108667 
-0.0711547 -9.47563 -0.636677 
0.108667 -0.636677 -9.57121 
-9.46264 -0.0259036 0.466865 
-0.0259036 -9.85407 -0.260463 
0.466865 -0.260463 -9.70622 
-9.52729 -0.214922 0.168044 
-0.214922 -9.31417 -0.0563425 
0.168044 -0.0563425 -10.1815 
-9.59558 -0.141313 -0.0432296 
-0.141313 -9.28226 0.0240434 
-0.0432296 0.0240434 -10.1451 
-9.33862 -0.40761 0.18679 
-0.40761 -9.38355 -0.136163 
0.18679 -0.136163 -10.3008 
-9.74294 0.013245 -0.0636158 
0.013245 -9.64836 0.00310776 
-0.0636158 0.00310776 -9.82279 
-9.67647 -0.00529847 -0.041158 
-0.00529847 -9.66603 -0.0146763 
-0.041158 -0.0146763 -9.87158 
-9.65689 -0.00785847 0.00356148 
-0.00785847 -9.70661 -0.020234 
0.00356148 -0.020234 -9.85059 
-9.69325 -0.0103542 -0.0325819 
-0.0103542 -9.67251 0.0234812 
-0.0325819 0.0234812 -9.84833 
-9.58349 0.03336 0.0485219 
0.03336 -9.55956 0.0103368 
0.0485219 0.0103368 -9.98462 
-9.57529 -0.0460544 0.0421869 
-0.0460544 -9.61303 0.0599872 
0.0421869 0.0599872 -9.93934 
-9.60142 -0.00815361 0.0878312 
-0.00815361 -9.60283 0.0716933 
0.0878312 0.0716933 -9.92342 
-9.50616 0.0101576 0.122157 
0.0101576 -9.5833 -0.065169 
0.122157 -0.065169 -10.0382 
-9.69655 -0.0377366 -0.239856 
-0.0377366 -9.69318 -0.236964 
-0.239856 -0.236964 -9.60974 
-9.68343 0.00805424 -0.261412 
0.00805424 -9.67356 -0.240882 
-0.261412 -0.240882 -9.64248 
-9.70241 0.0238017 -0.230045 
0.0238017 -9.7138 -0.244096 
-0.230045 -0.244096 -9.58326 
-9.70008 -0.0320935 -0.215385 
-0.0320935 -9.6802 -0.250641 
-0.215385 -0.250641 -9.6192 
-9.55467 -0.037734 -0.0401785 
-0.037734 -9.70032 -0.128753 
-0.0401785 -0.128753 -9.52841 
-9.58404 -0.0830501 -0.090886 
-0.0830501 -9.82495 -0.240509 
-0.090886 -0.240509 -9.37441 
-9.55448 -0.0474463 -0.0777171 
-0.0474463 -9.63783 -0.194555 
-0.0777171 -0.194555 -9.59109 
-9.54151 -0.0414456 -0.0830662 
-0.0414456 -9.73988 -0.17771 
-0.0830662 -0.17771 -9.50201 
-9.70682 0.0036203 -0.0545375 
0.0036203 -9.66232 0.00487911 
-0.0545375 0.00487911 -9.71714 
-9.74659 0.0050469 -0.0888244 
0.0050469 -9.67331 -0.0338837 
-0.0888244 -0.0338837 -9.66638 
-9.73745 -0.104038 0.0505221 
-0.104038 -9.69089 0.00526386 
0.0505221 0.00526386 -9.65794 
-9.72588 -8.11525e-06 -0.0365329 
-8.11525e-06 -9.65018 -0.0125362 
-0.0365329 -0.0125362 -9.71022 
-9.90716 0.0199138 0.0978554 
0.0199138 -9.92038 -0.254607 
0.0978554 -0.254607 -9.89946 
-9.91529 -0.0135114 0.0908832 
-0.0135114 -9.93268 -0.240261 
0.0908832 -0.240261 -9.87903 
-9.88812 -0.0161347 0.106072 
-0.0161347 -9.90263 -0.239629 
0.106072 -0.239629 -9.93624 
-9.9062 0.000979421 0.103179 
0.000979421 -9.91901 -0.245129 
0.103179 -0.245129 -9.90179 
-9.68892 -0.0203012 -0.225006 
-0.0203012 -9.62197 -0.107508 
-0.225006 -0.107508 -9.61374 
-9.64306 -0.0305202 -0.217102 
-0.0305202 -9.64404 -0.138685 
-0.217102 -0.138685 -9.63752 
-9.70532 0.0084057 -0.217222 
0.0084057 -9.62525 -0.0961414 
-0.217222 -0.0961414 -9.59405 
-9.69211 -0.0373303 -0.269081 
-0.0373303 -9.61957 -0.0775415 
-0.269081 -0.0775415 -9.61294 
-9.92437 -0.50116 -0.809129 
-0.50116 -11.2706 -0.610495 
-0.809129 -0.610495 -7.51542 
-11.0795 -0.774697 -0.0250435 
-0.774697 -10.5823 -0.474805 
-0.0250435 -0.474805 -7.04856 
-9.7829 0.520041 -0.646272 
0.520041 -10.6542 -0.492161 
-0.646272 -0.492161 -8.27326 
-11.0486 0.815438 -1.1346 
0.815438 -11.3204 1.30016 
-1.1346 1.30016 -6.34136 
-9.64372 0.151205 -0.0185538 
0.151205 -9.48179 -0.370636 
-0.0185538 -0.370636 -9.5046 
-10.0898 0.208623 -0.11999 
0.208623 -9.33468 -0.437948 
-0.11999 -0.437948 -9.20567 
-9.43372 0.377108 -0.100548 
0.377108 -9.78069 -0.342915 
-0.100548 -0.342915 -9.4157 
-9.27963 -0.0981233 0.20712 
-0.0981233 -9.75779 -0.524406 
0.20712 -0.524406 -9.5927 
-8.12987 0.214019 -0.521741 
0.214019 -10.3042 -0.731402 
-0.521741 -0.731402 -9.90661 
-8.58506 0.0814518 -0.657652 
0.0814518 -10.5888 -0.303684 
-0.657652 -0.303684 -9.16683 
-8.54148 0.691588 -1.19689 
0.691588 -9.95469 -0.888809 
-1.19689 -0.888809 -9.84452 
-9.62858 -0.273396 -0.335532 
-0.273396 -9.53676 -0.513736 
-0.335532 -0.513736 -9.17534 
-9.62683 -0.472777 0.567068 
-0.472777 -11.0003 1.04847 
0.567068 1.04847 -14.8611 
-13.4715 -1.64093 -1.39165 
-1.64093 -13.1423 -0.975756 
-1.39165 -0.975756 -8.87432 
-9.92386 0.0472703 -0.486384 
0.0472703 -12.729 -0.1274 
-0.486384 -0.1274 -12.8353 
-10.0388 0.723224 -1.24923 
0.723224 -11.0708 -1.09846 
-1.24923 -1.09846 -14.3786 
-9.88424 0.0377779 0.178615 
0.0377779 -9.8375 0.0533883 
0.178615 0.0533883 -9.79104 
-9.84266 -0.0142357 0.196673 
-0.0142357 -9.82742 0.0421732 
0.196673 0.0421732 -9.84269 
-9.85729 -0.00989993 0.191667 
-0.00989993 -9.82813 0.0509786 
0.191667 0.0509786 -9.82735 
-9.849 -0.00675772 0.168022 
-0.00675772 -9.84684 0.0264956 
0.168022 0.0264956 -9.81693 
-9.75828 0.0493222 0.138281 
0.0493222 -9.71885 0.37948 
0.138281 0.37948 -9.50103 
-9.66826 -0.0328997 0.0835665 
-0.0328997 -9.67997 0.313677 
0.0835665 0.313677 -9.62993 
-9.59332 0.0604598 0.00329271 
0.0604598 -9.59746 0.34929 
0.00329271 0.34929 -9.78738 
-9.67621 -0.0317471 0.0962397 
-0.0317471 -9.67027 0.320801 
0.0962397 0.320801 -9.63168 
-9.50073 -0.0841112 -0.0784168 
-0.0841112 -9.52336 -0.419095 
-0.0784168 -0.419095 -10.2091 
-9.61071 0.00441986 -0.0557046 
0.00441986 -9.54349 -0.296221 
-0.0557046 -0.296221 -10.0789 
-9.56737 -0.0732788 -0.0446923 
-0.0732788 -9.59451 -0.238574 
-0.0446923 -0.238574 -10.0713 
-9.55493 -0.0774043 -0.0742111 
-0.0774043 -9.56076 -0.231531 
-0.0742111 -0.231531 -10.1175 
-9.67349 -0.0288919 -0.0104325 
-0.0288919 -9.69586 0.0366618 
-0.0104325 0.0366618 -9.86597 
-9.71788 0.00761847 -0.00303892 
0.00761847 -9.68949 0.00100595 
-0.00303892 0.00100595 -9.82795 
-9.70683 -0.00406496 -0.00784688 
-0.00406496 -9.67908 -0.00449915 
-0.00784688 -0.00449915 -9.84942 
-9.71211 -0.0672239 0.00798543 
-0.0672239 -9.71489 -0.0205082 
0.00798543 -0.0205082 -9.80831 
-9.58588 -0.0177939 0.233345 
-0.0177939 -9.56228 -0.110041 
0.233345 -0.110041 -9.68155 
-9.58227 0.0372276 0.322835 
0.0372276 -9.56746 -0.116949 
0.322835 -0.116949 -9.67999 
-9.71629 0.0752551 0.226989 
0.0752551 -9.62385 -0.181693 
0.226989 -0.181693 -9.48957 
-9.77235 0.0638862 0.25284 
0.0638862 -9.59901 -0.0708158 
0.25284 -0.0708158 -9.45836 
-8.46987 1.24113 -1.03229 
1.24113 -12.1877 -0.540582 
-1.03229 -0.540582 -9.81481 
-11.1306 1.02479 -1.10006 
1.02479 -9.24521 -2.53701 
-1.10006 -2.53701 -10.0965 
-11.7087 0.630264 -1.60177 
0.630264 -6.38575 -1.60391 
-1.60177 -1.60391 -12.3779 
-10.6474 -0.289679 -0.143486 
-0.289679 -9.60945 -2.98674 
-0.143486 -2.98674 -10.2155 
-9.73893 -0.225698 -0.105772 
-0.225698 -9.74659 0.542781 
-0.105772 0.542781 -9.07056 
-9.57025 -0.231974 -0.112186 
-0.231974 -9.6057 -0.00892145 
-0.112186 -0.00892145 -9.38013 
-9.15624 -0.134056 -0.266274 
-0.134056 -10.003 -0.251408 
-0.266274 -0.251408 -9.39688 
-9.16384 -0.160746 -0.0150863 
-0.160746 -9.66474 -0.0577667 
-0.0150863 -0.0577667 -9.7275 
-9.87413 -0.0638124 0.404922 
-0.0638124 -9.44323 0.102796 
0.404922 0.102796 -9.51598 
-9.78279 -0.102203 0.111076 
-0.102203 -9.5144 0.169816 
0.111076 0.169816 -9.53615 
-9.75231 -0.100359 0.266718 
-0.100359 -9.53039 0.0738532 
0.266718 0.0738532 -9.55064 
-9.58463 -0.0384891 0.235553 
-0.0384891 -9.61268 0.161779 
0.235553 0.161779 -9.63603 
-9.55771 -0.0169764 0.0499215 
-0.0169764 -9.60309 0.00764008 
0.0499215 0.00764008 -9.7668 
-9.44822 -0.0298254 0.0528683 
-0.0298254 -9.62193 -0.0304202 
0.0528683 -0.0304202 -9.85744 
-9.60028 0.00262067 0.16968 
0.00262067 -9.56542 -0.117246 
0.16968 -0.117246 -9.76191 
-9.42279 -0.0478299 0.0171833 
-0.0478299 -9.4951 -0.0202022 
0.0171833 -0.0202022 -10.0097 
-9.5053 0.227962 -0.407036 
0.227962 -9.66338 -0.12828 
-0.407036 -0.12828 -11.164 
-9.39165 0.188726 -0.192256 
0.188726 -9.94046 0.0106383 
-0.192256 0.0106383 -11.0006 
-9.57148 -0.0542458 -0.319261 
-0.0542458 -9.7208 -0.104577 
-0.319261 -0.104577 -11.0404 
-9.83237 0.156743 -0.547755 
0.156743 -9.7798 0.0452906 
-0.547755 0.0452906 -10.7205 
-9.74537 0.0199831 -0.110113 
0.0199831 -9.82125 0.170765 
-0.110113 0.170765 -9.75126 
-9.76116 0.0145083 -0.0751324 
0.0145083 -9.77183 0.167647 
-0.0751324 0.167647 -9.78489 
-9.75917 0.00366322 -0.088929 
0.00366322 -9.82138 0.184327 
-0.088929 0.184327 -9.73733 
-9.77747 0.00163649 -0.0842079 
0.00163649 -9.92386 0.0330478 
-0.0842079 0.0330478 -9.61655 
-9.48578 -0.101867 -0.139186 
-0.101867 -9.51099 -0.266307 
-0.139186 -0.266307 -9.75838 
-9.66409 -0.0303195 -0.133021 
-0.0303195 -9.47459 -0.441358 
-0.133021 -0.441358 -9.61647 
-9.67523 -0.00960194 -0.1244 
-0.00960194 -9.4091 -0.490264 
-0.1244 -0.490264 -9.67083 
-9.42234 -0.125738 -0.22386 
-0.125738 -9.5251 -0.343356 
-0.22386 -0.343356 -9.80771 
-9.81818 0.00897329 0.0375877 
0.00897329 -9.85393 0.171789 
0.0375877 0.171789 -9.83477 
-9.86684 -0.014948 0.0314145 
-0.014948 -9.89077 0.143355 
0.0314145 0.143355 -9.74927 
-9.83466 -0.00178046 0.0324324 
-0.00178046 -9.85344 0.148671 
0.0324324 0.148671 -9.81878 
-9.84814 -0.00694118 0.0261658 
-0.00694118 -9.8567 0.154983 
0.0261658 0.154983 -9.80205 
-15.3456 1.21987 0.695731 
1.21987 -13.546 -1.4272 
0.695731 -1.4272 -8.75934 
-12.7814 0.918747 -0.648748 
0.918747 -7.98594 -0.139797 
-0.648748 -0.139797 -16.8836 
-10.4829 2.21564 -0.426751 
2.21564 -8.50493 2.25346 
-0.426751 2.25346 -18.6632 
-11.739 -0.749988 4.6612 
-0.749988 -8.04364 -2.30731 
4.6612 -2.30731 -17.8684 
-9.63549 0.0732069 -0.167695 
0.0732069 -9.51491 0.0811499 
-0.167695 0.0811499 -9.61969 
-9.68219 0.0425389 -0.166231 
0.0425389 -9.59174 0.106364 
-0.166231 0.106364 -9.49616 
-9.59564 0.0438623 -0.232511 
0.0438623 -9.58184 0.0866637 
-0.232511 0.0866637 -9.59261 
-9.70073 -0.0199058 -0.171974 
-0.0199058 -9.55658 0.130297 
-0.171974 0.130297 -9.51278 
-9.72647 -0.0059758 0.0876101 
-0.0059758 -9.74502 0.320291 
0.0876101 0.320291 -9.69724 
-9.6856 -0.0127526 0.0935613 
-0.0127526 -9.82371 0.293601 
0.0935613 0.293601 -9.65943 
-9.72029 -0.0034078 0.115939 
-0.0034078 -9.73966 0.307656 
0.115939 0.307656 -9.70878 
-9.74262 -0.012275 0.0955008 
-0.012275 -9.70441 0.289669 
0.0955008 0.289669 -9.7217 
-9.70421 0.0303345 0.118528 
0.0303345 -9.65913 -0.0860918 
0.118528 -0.0860918 -9.45495 
-9.71269 -0.0540186 0.0900976 
-0.0540186 -9.85655 -0.109118 
0.0900976 -0.109118 -9.24906 
-9.78961 0.018261 -0.206548 
0.018261 -9.69438 -0.211825 
-0.206548 -0.211825 -9.33431 
-9.79478 0.0244681 -0.222042 
0.0244681 -9.64863 -0.310493 
-0.222042 -0.310493 -9.37489 
-11.3718 -1.1818 -1.047 
-1.1818 -9.18567 1.79489 
-1.047 1.79489 -9.92506 
-11.4715 -0.536275 -0.480007 
-0.536275 -9.35774 2.03442 
-0.480007 2.03442 -9.65324 
-11.5355 0.916295 -0.433154 
0.916295 -8.86796 1.52092 
-0.433154 1.52092 -10.0791 
-11.5061 -0.0536257 0.104013 
-0.0536257 -8.20063 0.139145 
0.104013 0.139145 -10.7757 
-9.52425 0.389892 0.329912 
0.389892 -10.4149 -1.15995 
0.329912 -1.15995 -9.44134 
-10.1458 0.264882 0.347252 
0.264882 -9.29276 0.593912 
0.347252 0.593912 -9.94194 
-10.1947 0.15848 -1.02575 
0.15848 -10.1292 -0.0751071 
-1.02575 -0.0751071 -9.05649 
-10.2315 0.131405 -0.363944 
0.131405 -10.0409 -0.791892 
-0.363944 -0.791892 -9.10809 
-7.91615 -0.924007 -1.56557 
-0.924007 -10.8872 0.7211 
-1.56557 0.7211 -6.54573 
-7.44686 0.452737 -2.61115 
0.452737 -8.49541 0.343288 
-2.61115 0.343288 -9.40685 
-8.82249 -0.824641 -1.07846 
-0.824641 -10.2269 1.8837 
-1.07846 1.8837 -6.29972 
-8.59938 -0.914227 -1.00229 
-0.914227 -10.2602 0.83389 
-1.00229 0.83389 -6.48955 
-9.11642 1.2096 -1.03054 
1.2096 -10.8001 -0.295717 
-1.03054 -0.295717 -17.2824 
-11.9704 1.3317 0.253927 
1.3317 -13.5493 0.18457 
0.253927 0.18457 -11.6794 
-9.71386 1.4268 0.341394 
1.4268 -11.5119 0.371862 
0.341394 0.371862 -15.9733 
-10.8782 2.53434 -0.0733026 
2.53434 -12.3588 4.24736 
-0.0733026 4.24736 -13.962 
-11.9528 0.218434 -0.0787155 
0.218434 -7.80603 0.822603 
-0.0787155 0.822603 -11.8136 
-10.0531 0.726741 -0.334206 
0.726741 -10.3596 1.03799 
-0.334206 1.03799 -11.1598 
-10.1938 -0.153573 -0.350675 
-0.153573 -9.85187 -0.0786062 
-0.350675 -0.0786062 -11.5268 
-10.0001 1.41251 1.76949 
1.41251 -9.92696 1.46884 
1.76949 1.46884 -11.6454 
-9.72017 0.0120473 -0.271971 
0.0120473 -9.67481 0.0642275 
-0.271971 0.0642275 -9.66895 
-9.63282 0.053809 -0.25814 
0.053809 -9.74522 0.0294237 
-0.25814 0.0294237 -9.68589 
-9.7174 0.0171132 -0.288057 
0.0171132 -9.67888 0.0728654 
-0.288057 0.0728654 -9.66764 
-9.69298 0.0282216 -0.336479 
0.0282216 -9.73066 0.112774 
-0.336479 0.112774 -9.64029 
-9.77727 0.0439298 0.135281 
0.0439298 -9.66297 -0.0865979 
0.135281 -0.0865979 -9.68625 
-9.62695 -0.00123773 0.0835697 
-0.00123773 -9.73411 -0.122624 
0.0835697 -0.122624 -9.76541 
-9.78318 0.0252954 0.0529516 
0.0252954 -9.74137 -0.0478709 
0.0529516 -0.0478709 -9.60193 
-9.80009 0.114541 0.0387216 
0.114541 -9.67571 -0.0387777 
0.0387216 -0.0387777 -9.65068 
-11.0057 -0.300584 3.39477 
-0.300584 -12.5002 2.38577 
3.39477 2.38577 9.00112 
-0.523164 -1.96875 -2.96066 
-1.96875 -4.32923 -1.58376 
-2.96066 -1.58376 -9.65237 
-7.16021 2.98356 1.74896 
2.98356 -9.5011 1.99573 
1.74896 1.99573 2.15655 
-10.1387 0.524934 -1.48302 
0.524934 -1.78519 6.75201 
-1.48302 6.75201 -2.58092 
-9.82579 -0.00747234 0.0645908 
-0.00747234 -9.83135 0.0984792 
0.0645908 0.0984792 -9.85262 
-9.8279 -0.0207238 0.047651 
-0.0207238 -9.87804 0.044875 
0.047651 0.044875 -9.80382 
-9.8492 -0.012155 0.0576117 
-0.012155 -9.81916 0.0880672 
0.0576117 0.0880672 -9.8414 
-9.83105 -0.011446 0.0483891 
-0.011446 -9.83986 0.0805178 
0.0483891 0.0805178 -9.83885 
-11.3148 0.363169 -0.0412094 
0.363169 -11.1077 0.279465 
-0.0412094 0.279465 -11.1233 
-10.83 0.243508 0.191899 
0.243508 -10.8096 -0.081555 
0.191899 -0.081555 -11.9061 
-11.0581 0.15849 0.0531534 
0.15849 -10.916 0.121624 
0.0531534 0.121624 -11.5717 
-11.0424 0.0667849 0.0167692 
0.0667849 -10.7303 0.25977 
0.0167692 0.25977 -11.773 
-11.5852 0.495835 -0.447951 
0.495835 -11.8567 -0.169388 
-0.447951 -0.169388 -12.3701 
-14.0641 0.470099 -0.134234 
0.470099 -11.8236 0.463578 
-0.134234 0.463578 -9.92425 
-11.2764 0.24427 0.209209 
0.24427 -11.3157 -0.472607 
0.209209 -0.472607 -13.2198 
-11.5666 0.0582559 -1.06898 
0.0582559 -11.7251 0.227132 
-1.06898 0.227132 -12.5203 
-9.49812 -0.0115512 0.160632 
-0.0115512 -9.58937 0.28174 
0.160632 0.28174 -9.5881 
-9.5368 0.03827 0.177204 
0.03827 -9.48732 0.330805 
0.177204 0.330805 -9.65147 
-9.56059 0.00305222 0.0908092 
0.00305222 -9.51018 0.318409 
0.0908092 0.318409 -9.60483 
-9.53475 0.00817847 0.156466 
0.00817847 -9.53866 0.289723 
0.156466 0.289723 -9.60217 
-9.2524 0.503524 -0.693128 
0.503524 -9.80045 -0.392721 
-0.693128 -0.392721 -9.6767 
-8.99726 0.984505 -0.313136 
0.984505 -9.6905 -0.223974 
-0.313136 -0.223974 -10.0418 
-9.16009 0.822221 -0.228391 
0.822221 -9.40831 -0.304291 
-0.228391 -0.304291 -10.1612 
-9.52224 0.997154 -0.176645 
0.997154 -9.02428 -0.173023 
-0.176645 -0.173023 -10.183 
-7.99523 -0.00152036 -0.698365 
-0.00152036 -6.77058 0.781725 
-0.698365 0.781725 -1.09305 
-7.90573 0.144466 0.489572 
0.144466 -6.08111 1.2967 
0.489572 1.2967 -1.87202 
-5.4713 0.692784 0.75801 
0.692784 -6.87302 1.05607 
0.75801 1.05607 -3.51454 
-8.04811 -0.424766 0.690963 
-0.424766 -6.33323 0.493886 
0.690963 0.493886 -1.47753 
-9.77398 -0.0451313 -0.179441 
-0.0451313 -9.69901 -0.0852752 
-0.179441 -0.0852752 -9.63437 
-9.75726 -0.0719776 -0.198774 
-0.0719776 -9.69847 -0.0823705 
-0.198774 -0.0823705 -9.65164 
-9.76837 -0.0429359 -0.17427 
-0.0429359 -9.68949 -0.0836791 
-0.17427 -0.0836791 -9.64951 
-9.76388 -0.0466475 -0.200524 
-0.0466475 -9.65688 -0.0780854 
-0.200524 -0.0780854 -9.6866 
-9.62294 -0.0533496 -0.0331772 
-0.0533496 -9.58443 0.0841976 
-0.0331772 0.0841976 -9.93436 
-9.59568 -0.0484804 -0.0966513 
-0.0484804 -9.61682 0.121743 
-0.0966513 0.121743 -9.92923 
-9.58275 -0.119437 -0.034113 
-0.119437 -9.60148 0.161292 
-0.034113 0.161292 -9.9575 
-9.53445 -0.00612045 -0.210857 
-0.00612045 -9.72388 0.0994504 
-0.210857 0.0994504 -9.8834 
-9.84599 -0.00808425 0.0720335 
-0.00808425 -9.8528 -0.217132 
0.0720335 -0.217132 -9.86561 
-9.85806 0.0142471 0.0680019 
0.0142471 -9.87888 -0.19546 
0.0680019 -0.19546 -9.82747 
-9.88597 0.0345045 0.0641782 
0.0345045 -9.89391 -0.214136 
0.0641782 -0.214136 -9.78452 
-9.84698 0.007478 0.0441143 
0.007478 -9.87149 -0.204766 
0.0441143 -0.204766 -9.84593 
-9.84444 -0.0373636 -0.0472079 
-0.0373636 -9.76246 0.00805974 
-0.0472079 0.00805974 -9.81459 
-9.82189 -0.0153064 -0.124147 
-0.0153064 -9.75591 -0.0278946 
-0.124147 -0.0278946 -9.84371 
-9.80597 -0.00924163 -0.0747333 
-0.00924163 -9.76846 -0.0200885 
-0.0747333 -0.0200885 -9.84707 
-9.76556 0.0239483 -0.0790055 
0.0239483 -9.75645 -0.0289699 
-0.0790055 -0.0289699 -9.89949 
-9.77364 0.00664961 -0.00405105 
0.00664961 -9.80101 -0.079229 
-0.00405105 -0.079229 -9.82936 
-9.7879 0.00394546 -0.0232065 
0.00394546 -9.79659 -0.0627392 
-0.0232065 -0.0627392 -9.81951 
-9.79015 0.0143254 -0.0198464 
0.0143254 -9.79005 -0.0416195 
-0.0198464 -0.0416195 -9.82381 
-9.77969 -0.0251826 -0.0138782 
-0.0251826 -9.83305 -0.0551178 
-0.0138782 -0.0551178 -9.79125 
-9.85242 -0.0117677 0.161118 
-0.0117677 -9.83843 0.00356515 
0.161118 0.00356515 -9.84777 
-9.9044 0.00557955 0.149584 
0.00557955 -9.86173 0.0288397 
0.149584 0.0288397 -9.7725 
-9.85668 -0.0105954 0.140736 
-0.0105954 -9.85099 0.00768368 
0.140736 0.00768368 -9.83095 
-9.86706 -0.0020438 0.147153 
-0.0020438 -9.84763 0.0222023 
0.147153 0.0222023 -9.82393 
-9.85756 -0.00950159 0.00621655 
-0.00950159 -9.85094 -0.00252739 
0.00621655 -0.00252739 -9.94733 
-9.86928 -0.00692644 0.00203297 
-0.00692644 -9.86638 -0.0151218 
0.00203297 -0.0151218 -9.92017 
-9.87915 -0.00762422 0.0177998 
-0.00762422 -9.87572 -0.0143955 
0.0177998 -0.0143955 -9.90096 
-9.86062 -0.0104148 0.00597676 
-0.0104148 -9.87322 -0.00428201 
0.00597676 -0.00428201 -9.92199 
-9.85828 0.00664798 -0.28519 
0.00664798 -9.85469 -0.0388848 
-0.28519 -0.0388848 -9.89825 
-9.877 -0.0130653 -0.292759 
-0.0130653 -9.86679 -0.0184938 
-0.292759 -0.0184938 -9.86742 
-9.88516 -0.00930964 -0.316362 
-0.00930964 -9.89165 0.00124185 
-0.316362 0.00124185 -9.8344 
-9.86071 -0.00178778 -0.30041 
-0.00178778 -9.85975 -0.0109803 
-0.30041 -0.0109803 -9.89075 
-9.71366 0.0303343 0.0649762 
0.0303343 -9.72327 -0.196543 
0.0649762 -0.196543 -9.67218 
-9.69637 0.0243686 0.0761078 
0.0243686 -9.72934 -0.212414 
0.0761078 -0.212414 -9.6834 
-9.72873 0.0312538 0.0400964 
0.0312538 -9.69637 -0.20256 
0.0400964 -0.20256 -9.68401 
-9.68871 0.0206163 0.0498954 
0.0206163 -9.74588 -0.243124 
0.0498954 -0.243124 -9.67453 
-9.88345 0.0470627 0.344586 
0.0470627 -9.84065 0.0482863 
0.344586 0.0482863 -9.58173 
-9.77331 -0.037618 0.257778 
-0.037618 -9.77197 -0.0137284 
0.257778 -0.0137284 -9.76056 
-9.69289 0.0147098 0.354536 
0.0147098 -9.68926 -0.0483637 
0.354536 -0.0483637 -9.92369 
-9.76977 -0.0300329 0.299314 
-0.0300329 -9.78915 -0.0226094 
0.299314 -0.0226094 -9.74691 
-9.70024 0.0152359 0.270336 
0.0152359 -9.71977 -0.242788 
0.270336 -0.242788 -9.8987 
-9.8441 0.0327622 0.323612 
0.0327622 -9.84445 -0.108903 
0.323612 -0.108903 -9.63016 
-9.80853 0.0269819 0.22917 
0.0269819 -9.72025 -0.178206 
0.22917 -0.178206 -9.78994 
-9.76758 -0.0173425 0.242255 
-0.0173425 -9.81737 -0.134728 
0.242255 -0.134728 -9.73376 
-9.72618 -0.0103589 0.350868 
-0.0103589 -9.70899 0.0566562 
0.350868 0.0566562 -9.89583 
-9.78692 0.0417782 0.285753 
0.0417782 -9.76673 0.0314275 
0.285753 0.0314275 -9.77735 
-9.87742 -0.0343168 0.327864 
-0.0343168 -9.81743 -0.0515145 
0.327864 -0.0515145 -9.63615 
-9.78022 0.00715784 0.309161 
0.00715784 -9.79448 0.00966595 
0.309161 0.00966595 -9.7563 
-9.74789 -0.00348695 -0.0125518 
-0.00348695 -9.74273 0.0422509 
-0.0125518 0.0422509 -9.88046 
-9.7475 -0.0027996 -0.00595496 
-0.0027996 -9.74486 0.0411819 
-0.00595496 0.0411819 -9.87872 
-9.74813 -0.000524529 -0.00796775 
-0.000524529 -9.74397 0.0452231 
-0.00796775 0.0452231 -9.87899 
-9.75556 -0.00195173 -0.0139434 
-0.00195173 -9.75439 0.0406957 
-0.0139434 0.0406957 -9.86113 
-9.71291 -0.0608017 0.266058 
-0.0608017 -9.70872 0.276344 
0.266058 0.276344 -9.65602 
-9.74775 -0.0146396 0.211456 
-0.0146396 -9.64376 0.202944 
0.211456 0.202944 -9.68613 
-9.69686 0.0165262 0.133602 
0.0165262 -9.68254 0.303936 
0.133602 0.303936 -9.69825 
-9.67668 -0.0180748 0.126726 
-0.0180748 -9.72125 0.262625 
0.126726 0.262625 -9.67972 
-8.64398 -0.933909 -2.41122 
-0.933909 -10.0357 1.11504 
-2.41122 1.11504 -10.7966 
-10.1716 -0.378689 -1.22389 
-0.378689 -10.4125 1.23727 
-1.22389 1.23727 -8.89211 
-9.74101 0.411714 -1.43461 
0.411714 -9.99709 0.732664 
-1.43461 0.732664 -9.73811 
-9.42103 -0.224197 0.393633 
-0.224197 -7.76127 -0.211862 
0.393633 -0.211862 -12.2939 
-9.16805 -1.07965 0.435019 
-1.07965 -8.60367 -0.355672 
0.435019 -0.355672 -10.2502 
-9.51293 -0.423174 0.519625 
-0.423174 -8.80578 -0.157232 
0.519625 -0.157232 -9.70318 
-8.74734 -0.649652 0.986295 
-0.649652 -9.70626 -0.981895 
0.986295 -0.981895 -9.56829 
-9.02055 -0.738898 0.569575 
-0.738898 -8.86655 -0.375029 
0.569575 -0.375029 -10.1348 
-9.81402 -0.0039253 -0.0072334 
-0.0039253 -9.84517 -0.1131 
-0.0072334 -0.1131 -9.83229 
-9.81609 0.00404187 -0.0213735 
0.00404187 -9.86902 -0.105654 
-0.0213735 -0.105654 -9.80637 
-9.82942 -0.00235826 -0.0173777 
-0.00235826 -9.84968 -0.101148 
-0.0173777 -0.101148 -9.81238 
-9.82435 -0.0186755 -0.0256942 
-0.0186755 -9.84627 -0.0888499 
-0.0256942 -0.0888499 -9.82085 
-9.95404 0.8027 0.544419 
0.8027 -9.47226 1.19026 
0.544419 1.19026 -11.1282 
-9.87324 0.604233 0.732975 
0.604233 -10.3137 0.684695 
0.732975 0.684695 -10.3676 
-9.69358 0.156174 0.411449 
0.156174 -10.6182 0.930601 
0.411449 0.930601 -10.2427 
-9.20618 0.644532 -0.150653 
0.644532 -9.84987 -0.12813 
-0.150653 -0.12813 -11.4985 
-9.84787 0.0229291 0.0189335 
0.0229291 -9.86685 -0.0478915 
0.0189335 -0.0478915 -9.88185 
-9.85255 -0.000427426 0.00872262 
-0.000427426 -9.85846 -0.046311 
0.00872262 -0.046311 -9.88556 
-9.85518 0.00215921 0.0303443 
0.00215921 -9.8519 -0.0581815 
0.0303443 -0.0581815 -9.88949 
-9.85508 0.0017131 -0.0147005 
0.0017131 -9.8573 -0.0688606 
-0.0147005 -0.0688606 -9.88419 
-9.87817 0.0696012 -0.0340279 
0.0696012 -9.82888 0.141359 
-0.0340279 0.141359 -10.0147 
-10.0302 0.0449113 -0.0984228 
0.0449113 -9.89066 0.151395 
-0.0984228 0.151395 -9.80094 
-9.88578 0.00550756 -0.0784434 
0.00550756 -9.91902 0.189693 
-0.0784434 0.189693 -9.91698 
-9.87535 -0.0183873 -0.107054 
-0.0183873 -9.93152 0.21384 
-0.107054 0.21384 -9.91492 
-9.76546 -0.105771 -0.291321 
-0.105771 -9.81153 -0.0603441 
-0.291321 -0.0603441 -9.37689 
-9.80146 -0.0792328 -0.215026 
-0.0792328 -9.80258 -0.0435874 
-0.215026 -0.0435874 -9.34985 
-9.74578 -0.0698148 -0.235544 
-0.0698148 -9.72869 -0.102898 
-0.235544 -0.102898 -9.47941 
-9.90056 -0.169749 -0.343648 
-0.169749 -9.585 0.1726 
-0.343648 0.1726 -9.46832 
-6.08685 0.581772 0.249494 
0.581772 -4.1012 0.650584 
0.249494 0.650584 0.185147 
-3.17265 -1.50329 1.92878 
-1.50329 -5.37097 -0.261182 
1.92878 -0.261182 -1.45929 
-2.81908 0.780878 1.52177 
0.780878 -3.23702 -1.42663 
1.52177 -1.42663 -3.94679 
-3.86796 0.96949 1.25342 
0.96949 -4.53561 -1.90902 
1.25342 -1.90902 -1.59933 
-9.33493 -0.325371 -0.757085 
-0.325371 -8.6646 1.26813 
-0.757085 1.26813 -8.69554 
-9.92412 -0.113815 -0.913144 
-0.113815 -8.47486 1.76988 
-0.913144 1.76988 -8.29609 
-10.2765 0.394471 -1.07368 
0.394471 -8.35315 1.26628 
-1.07368 1.26628 -8.06542 
-9.78453 0.295885 -1.44958 
0.295885 -8.88079 1.339 
-1.44958 1.339 -8.02975 
-9.55128 -0.00718406 -0.128655 
-0.00718406 -9.58739 -0.306842 
-0.128655 -0.306842 -9.67708 
-9.56123 -0.02202 -0.137 
-0.02202 -9.59766 -0.315624 
-0.137 -0.315624 -9.65686 
-9.56244 -9.77477e-05 -0.132155 
-9.77477e-05 -9.61798 -0.302973 
-0.132155 -0.302973 -9.63533 
-9.59064 0.011441 -0.134987 
0.011441 -9.59647 -0.331663 
-0.134987 -0.331663 -9.62864 
-9.29038 -0.135996 0.409313 
-0.135996 -9.6251 -0.550037 
0.409313 -0.550037 -9.29004 
-9.47648 -0.128661 0.212663 
-0.128661 -9.46183 -0.0927557 
0.212663 -0.0927557 -9.26721 
-9.77103 -0.200383 0.326423 
-0.200383 -9.25568 -0.0363879 
0.326423 -0.0363879 -9.17881 
-9.77928 -0.49416 0.270378 
-0.49416 -8.86118 -0.0397942 
0.270378 -0.0397942 -9.56506 
-9.45091 -0.232572 -0.149177 
-0.232572 -9.2973 -0.190447 
-0.149177 -0.190447 -9.73327 
-9.49081 -0.0879572 0.284868 
-0.0879572 -9.3477 -0.31696 
0.284868 -0.31696 -9.64296 
-9.42762 -0.0382759 0.252308 
-0.0382759 -9.40537 -0.20006 
0.252308 -0.20006 -9.64848 
-9.35513 0.0286107 0.0655931 
0.0286107 -9.5131 -0.505546 
0.0655931 -0.505546 -9.61325 
-9.5723 0.0247903 -0.0562414 
0.0247903 -9.59857 -0.383073 
-0.0562414 -0.383073 -9.62287 
-9.65502 0.0199 -0.0534528 
0.0199 -9.57854 -0.361187 
-0.0534528 -0.361187 -9.56017 
-9.64886 0.0197722 -0.0644173 
0.0197722 -9.65188 -0.339928 
-0.0644173 -0.339928 -9.493 
-9.63004 0.021001 -0.0269116 
0.021001 -9.57515 -0.348148 
-0.0269116 -0.348148 -9.58854 
-9.79316 0.0554841 -0.087598 
0.0554841 -9.859 0.207897 
-0.087598 0.207897 -9.76909 
-9.8163 0.048471 -0.119449 
0.048471 -9.82563 0.172034 
-0.119449 0.172034 -9.77932 
-9.81769 0.00249036 -0.0404974 
0.00249036 -9.86738 0.153365 
-0.0404974 0.153365 -9.73618 
-9.83899 0.011763 -0.0493575 
0.011763 -9.82215 0.180162 
-0.0493575 0.180162 -9.76013 
-9.29507 0.0736709 -0.00449748 
0.0736709 -9.46674 -0.276836 
-0.00449748 -0.276836 -10.53 
-9.54148 -0.0592271 -0.406991 
-0.0592271 -9.65619 -0.1851 
-0.406991 -0.1851 -10.0942 
-9.85117 0.0144109 -0.273052 
0.0144109 -9.89082 0.14488 
-0.273052 0.14488 -9.54986 
-9.51404 0.0896035 -0.39556 
0.0896035 -9.82093 -0.182214 
-0.39556 -0.182214 -9.95689 
-9.16354 1.99489 -1.07765 
1.99489 -10.4754 0.870652 
-1.07765 0.870652 -13.8977 
-11.3038 -0.408691 -0.392558 
-0.408691 -10.4863 -0.0317386 
-0.392558 -0.0317386 -11.7465 
-10.2818 0.70005 0.877454 
0.70005 -11.2078 0.35048 
0.877454 0.35048 -12.0472 
-10.6211 0.564427 0.280943 
0.564427 -10.3857 -0.0127457 
0.280943 -0.0127457 -12.5298 
-9.70445 0.00990673 -0.00176728 
0.00990673 -9.7331 -0.100588 
-0.00176728 -0.100588 -9.76598 
-9.68814 0.0318469 -0.0254625 
0.0318469 -9.70302 -0.0436808 
-0.0254625 -0.0436808 -9.81236 
-9.70249 -0.00433313 0.055702 
-0.00433313 -9.68446 -0.0130799 
0.055702 -0.0130799 -9.81657 
-9.70231 0.0385594 0.0439257 
0.0385594 -9.72399 -0.000655535 
0.0439257 -0.000655535 -9.77722 
-9.45172 0.0333777 -0.311317 
0.0333777 -9.56994 0.0659816 
-0.311317 0.0659816 -9.1853 
-9.633 0.102101 -0.333034 
0.102101 -9.40298 0.282777 
-0.333034 0.282777 -9.17098 
-9.53703 0.0630072 -0.311278 
0.0630072 -9.47069 0.0933728 
-0.311278 0.0933728 -9.19923 
-9.5752 0.0759539 -0.295917 
0.0759539 -9.51534 0.0563793 
-0.295917 0.0563793 -9.11642 
-9.84798 -0.00855536 -0.0881444 
-0.00855536 -9.86318 -0.22988 
-0.0881444 -0.22988 -9.7859 
-9.84648 -0.0149167 -0.0823927 
-0.0149167 -9.85713 -0.23057 
-0.0823927 -0.23057 -9.79345 
-9.84345 -0.00270173 -0.0986373 
-0.00270173 -9.86741 -0.223056 
-0.0986373 -0.223056 -9.7862 
-9.837 -0.00269103 -0.0937667 
-0.00269103 -9.87548 -0.225647 
-0.0937667 -0.225647 -9.78458 
-9.84871 0.167814 0.208097 
0.167814 -9.60933 -0.647799 
0.208097 -0.647799 -9.12951 
-9.53035 -0.196989 -0.120356 
-0.196989 -9.42714 -0.491562 
-0.120356 -0.491562 -9.63006 
-9.50079 0.0268286 -0.159578 
0.0268286 -9.50168 -0.517113 
-0.159578 -0.517113 -9.58509 
-9.43892 0.197146 -0.180829 
0.197146 -9.55561 -0.302667 
-0.180829 -0.302667 -9.59303 
-9.91358 -0.0292443 0.00327871 
-0.0292443 -9.92584 0.235546 
0.00327871 0.235546 -9.88498 
-9.9142 0.00401978 0.0157088 
0.00401978 -9.92685 0.248756 
0.0157088 0.248756 -9.88336 
-9.8966 0.0386529 0.00691369 
0.0386529 -9.89821 0.24187 
0.00691369 0.24187 -9.92959 
-9.90057 -0.00512179 0.0208732 
-0.00512179 -9.93165 0.249853 
0.0208732 0.249853 -9.89218 
-9.88677 -0.555278 1.03624 
-0.555278 -11.6945 -0.995456 
1.03624 -0.995456 -11.9814 
-10.237 0.317473 -0.692055 
0.317473 -10.1957 0.607594 
-0.692055 0.607594 -13.1299 
-13.2775 -0.0644472 2.14075 
-0.0644472 -5.54465 -0.944004 
2.14075 -0.944004 -14.7405 
-11.9535 -0.72169 -0.874762 
-0.72169 -9.57326 0.71224 
-0.874762 0.71224 -12.0359 
-5.4693 1.18367 0.561507 
1.18367 -5.48535 -0.698778 
0.561507 -0.698778 0.935599 
-3.45602 -0.0694346 0.847027 
-0.0694346 -4.10971 1.47943 
0.847027 1.47943 -2.45332 
-3.52128 0.19715 0.717996 
0.19715 -3.02089 1.89593 
0.717996 1.89593 -3.47689 
-3.65219 -0.586505 1.89091 
-0.586505 -6.35607 2.02515 
1.89091 2.02515 -0.0108018 
-9.52383 -0.0503926 -0.324484 
-0.0503926 -9.61642 0.176268 
-0.324484 0.176268 -9.54184 
-9.58696 -0.0160929 -0.338288 
-0.0160929 -9.59399 0.173235 
-0.338288 0.173235 -9.50115 
-9.53962 0.00321913 -0.279817 
0.00321913 -9.56473 0.22064 
-0.279817 0.22064 -9.57774 
-9.50677 -0.0132753 -0.365449 
-0.0132753 -9.60378 0.330493 
-0.365449 0.330493 -9.57155 
-9.63291 -0.0881183 -0.0125055 
-0.0881183 -9.79353 -0.0746216 
-0.0125055 -0.0746216 -9.62574 
-9.69633 -0.0758206 -0.0692586 
-0.0758206 -9.75554 -0.197207 
-0.0692586 -0.197207 -9.60031 
-9.61815 0.0612231 -0.104277 
0.0612231 -9.71418 -0.143734 
-0.104277 -0.143734 -9.71985 
-9.64253 -0.0137207 -0.077719 
-0.0137207 -9.76779 -0.119953 
-0.077719 -0.119953 -9.64186 
-9.47244 0.100489 -0.56092 
0.100489 -9.80584 0.175859 
-0.56092 0.175859 -8.73346 
-9.44787 0.245019 -0.658209 
0.245019 -10.1617 -0.454341 
-0.658209 -0.454341 -8.40215 
-8.99704 -0.622127 -0.310258 
-0.622127 -10.767 0.596649 
-0.310258 0.596649 -8.24771 
-9.98769 0.327466 -0.526757 
0.327466 -8.76214 0.480895 
-0.526757 0.480895 -9.2619 
-9.33459 -0.0349105 -0.358492 
-0.0349105 -9.46355 0.716393 
-0.358492 0.716393 -9.19177 
-9.43112 -0.130533 -0.264577 
-0.130533 -9.34115 0.44852 
-0.264577 0.44852 -9.21765 
-9.49938 -0.0440491 -0.280581 
-0.0440491 -9.39229 0.434251 
-0.280581 0.434251 -9.09825 
-9.51168 -0.0584218 -0.301508 
-0.0584218 -9.35347 0.538482 
-0.301508 0.538482 -9.12476 
-9.8594 -0.0193967 -0.248722 
-0.0193967 -9.83923 -0.0214678 
-0.248722 -0.0214678 -9.83672 
-9.879 -0.00391717 -0.221191 
-0.00391717 -9.84604 0.0108045 
-0.221191 0.0108045 -9.81031 
-9.88393 0.0146634 -0.240615 
0.0146634 -9.84264 -0.0132107 
-0.240615 -0.0132107 -9.80878 
-9.87433 0.00149351 -0.238532 
0.00149351 -9.83909 -0.0178008 
-0.238532 -0.0178008 -9.82192 
-9.64164 -0.0110567 0.28935 
-0.0110567 -9.64524 0.171713 
0.28935 0.171713 -9.66484 
-9.69696 -0.0328922 0.28151 
-0.0328922 -9.65342 0.155027 
0.28151 0.155027 -9.60134 
-9.6493 -0.0228349 0.292467 
-0.0228349 -9.65395 0.181394 
0.292467 0.181394 -9.64847 
-9.67185 -0.0204755 0.297091 
-0.0204755 -9.6402 0.155495 
0.297091 0.155495 -9.63967 
-9.59546 0.0777071 0.11696 
0.0777071 -9.33683 0.180349 
0.11696 0.180349 -9.78134 
-9.57474 -0.020777 0.00879971 
-0.020777 -9.45904 0.119267 
0.00879971 0.119267 -9.67986 
-10.0675 0.168076 0.162439 
0.168076 -9.00967 0.956629 
0.162439 0.956629 -9.6365 
-9.37934 -0.0206671 -0.00433061 
-0.0206671 -8.99824 -0.01181 
-0.00433061 -0.01181 -10.3361 
-7.63757 -0.220248 -0.0812336 
-0.220248 -8.12018 0.286331 
-0.0812336 0.286331 -8.10479 
-8.89118 -0.0597304 0.544585 
-0.0597304 -9.50967 -0.133389 
0.544585 -0.133389 -5.4617 
-9.78606 -0.027561 0.674036 
-0.027561 -9.88536 -1.02167 
0.674036 -1.02167 -4.19112 
-8.58439 -0.0956925 0.148853 
-0.0956925 -9.76539 -0.0520532 
0.148853 -0.0520532 -5.51277 
-9.91357 -0.180595 -0.0714365 
-0.180595 -8.16176 1.20613 
-0.0714365 1.20613 -9.90678 
-9.47811 -0.478144 0.567259 
-0.478144 -8.50883 0.619855 
0.567259 0.619855 -9.99517 
-9.44747 0.0160905 0.572555 
0.0160905 -8.14202 0.370643 
0.572555 0.370643 -10.3926 
-9.50598 0.225158 -0.888692 
0.225158 -8.95919 0.0111789 
-0.888692 0.0111789 -9.51694 
-9.78293 -0.00128192 0.00632416 
-0.00128192 -9.77246 -0.338254 
0.00632416 -0.338254 -9.72896 
-9.73024 -0.00171362 -0.000344181 
-0.00171362 -9.77229 -0.298969 
-0.000344181 -0.298969 -9.78181 
-9.77476 -0.00449786 0.0133557 
-0.00449786 -9.77805 -0.320361 
0.0133557 -0.320361 -9.73154 
-9.74216 -0.0170803 0.0410285 
-0.0170803 -9.86428 -0.303928 
0.0410285 -0.303928 -9.67791 
-9.44172 0.0272438 -0.427088 
0.0272438 -9.2989 0.359267 
-0.427088 0.359267 -9.72913 
-9.49256 0.19774 -0.490662 
0.19774 -9.32904 0.170029 
-0.490662 0.170029 -9.64815 
-9.60766 0.0504162 -0.660421 
0.0504162 -9.19837 0.398242 
-0.660421 0.398242 -9.66372 
-9.4218 -0.0941411 -0.423805 
-0.0941411 -9.33764 0.313667 
-0.423805 0.313667 -9.71031 
-9.84679 -0.0118614 0.0274623 
-0.0118614 -9.84531 0.0692154 
0.0274623 0.0692154 -9.87701 
-9.86311 -0.00763317 0.0748492 
-0.00763317 -9.88764 0.0128737 
0.0748492 0.0128737 -9.81836 
-9.79521 0.00967645 0.0195937 
0.00967645 -9.86826 0.0991153 
0.0195937 0.0991153 -9.90563 
-9.85942 -0.00510805 0.0375482 
-0.00510805 -9.82714 0.0627786 
0.0375482 0.0627786 -9.88255 
-9.62877 -0.058876 0.137077 
-0.058876 -9.55035 -0.0331337 
0.137077 -0.0331337 -9.73855 
-9.57126 -0.0855834 0.160296 
-0.0855834 -9.51105 -0.0609874 
0.160296 -0.0609874 -9.83536 
-9.49092 0.0180564 0.0701696 
0.0180564 -9.61396 0.00298843 
0.0701696 0.00298843 -9.8128 
-9.43886 -0.0648502 0.274546 
-0.0648502 -9.70614 -0.0712653 
0.274546 -0.0712653 -9.77268 
-10.5628 -0.811806 1.76542 
-0.811806 -7.92947 2.01363 
1.76542 2.01363 -4.60562 
-9.36235 -0.313731 0.0115638 
-0.313731 -9.14768 0.6149 
0.0115638 0.6149 -4.58785 
-7.7213 0.792398 -0.54852 
0.792398 -9.16695 0.282504 
-0.54852 0.282504 -6.20963 
-8.7853 -0.0951982 -0.412728 
-0.0951982 -8.72261 1.23287 
-0.412728 1.23287 -5.58998 
-9.45201 -0.596159 0.288072 
-0.596159 -11.3256 0.0612032 
0.288072 0.0612032 -10.9048 
-9.86776 0.28971 0.143813 
0.28971 -9.92747 0.280232 
0.143813 0.280232 -11.8871 
-9.63996 -0.25646 0.0631881 
-0.25646 -10.675 -0.499031 
0.0631881 -0.499031 -11.3674 
-9.81218 0.204357 -0.185639 
0.204357 -10.6303 -0.130072 
-0.185639 -0.130072 -11.2399 
-12.3975 -3.98971 -2.08313 
-3.98971 -5.61171 -0.409412 
-2.08313 -0.409412 -15.3625 
-10.2737 3.06324 -0.266762 
3.06324 -10.9925 -0.071357 
-0.266762 -0.071357 -12.1055 
-12.8994 -0.436315 0.432977 
-0.436315 -8.93516 3.4545 
0.432977 3.4545 -11.5371 
-10.7619 -0.226132 -0.167978 
-0.226132 -9.60039 2.27018 
-0.167978 2.27018 -13.0094 
-9.43833 -0.0879185 0.0729771 
-0.0879185 -9.52616 0.127749 
0.0729771 0.127749 -9.4367 
-9.47841 -0.0595335 0.0775702 
-0.0595335 -9.5774 0.099613 
0.0775702 0.099613 -9.34538 
-9.2975 0.0326144 0.146202 
0.0326144 -9.6176 0.176914 
0.146202 0.176914 -9.48609 
-9.46473 -0.136875 0.0518318 
-0.136875 -9.52966 0.134367 
0.0518318 0.134367 -9.4068 
-9.55124 -0.257396 -1.21884 
-0.257396 -9.38046 0.415561 
-1.21884 0.415561 -9.74468 
-9.91155 -0.186097 -0.885082 
-0.186097 -10.028 0.654551 
-0.885082 0.654551 -8.73685 
-9.54518 0.249547 -1.08405 
0.249547 -9.97776 0.41281 
-1.08405 0.41281 -9.15344 
-9.27739 -0.545759 0.166045 
-0.545759 -9.71204 0.0577618 
0.166045 0.0577618 -9.68696 
-9.66431 0.0490593 -0.0948561 
0.0490593 -9.71131 0.197534 
-0.0948561 0.197534 -9.60986 
-9.58757 0.0508876 -0.116339 
0.0508876 -9.7073 0.182114 
-0.116339 0.182114 -9.69061 
-9.69318 0.00714295 -0.121874 
0.00714295 -9.72911 0.281944 
-0.121874 0.281944 -9.56318 
-9.57505 0.10945 -0.0422747 
0.10945 -9.93984 0.132507 
-0.0422747 0.132507 -9.47059 
-9.5886 0.0246246 -0.288543 
0.0246246 -9.62025 0.191769 
-0.288543 0.191769 -9.58223 
-9.58892 -0.0104559 -0.300502 
-0.0104559 -9.62875 0.181011 
-0.300502 0.181011 -9.57342 
-9.56906 0.0021624 -0.302847 
0.0021624 -9.59115 0.178962 
-0.302847 0.178962 -9.63087 
-9.58268 -0.0138008 -0.271921 
-0.0138008 -9.59771 0.186907 
-0.271921 0.186907 -9.6107 
-9.2749 -0.0450542 0.238055 
-0.0450542 -9.44137 -1.19091 
0.238055 -1.19091 -8.79362 
-10.2886 0.371402 0.272171 
0.371402 -9.29832 -1.3108 
0.272171 -1.3108 -7.92294 
-10.6015 0.226349 0.374398 
0.226349 -8.42668 0.400065 
0.374398 0.400065 -8.48173 
-9.12585 0.455839 0.399461 
0.455839 -8.71547 -1.30977 
0.399461 -1.30977 -9.66857 
-9.80065 -0.0330933 -0.0414042 
-0.0330933 -9.84614 -0.0268307 
-0.0414042 -0.0268307 -9.80508 
-9.7617 -0.0144326 0.0411506 
-0.0144326 -9.8428 0.0685293 
0.0411506 0.0685293 -9.84738 
-9.82741 -0.0175789 0.0011704 
-0.0175789 -9.81304 0.0883387 
0.0011704 0.0883387 -9.81142 
-9.76856 -0.0264223 0.0668735 
-0.0264223 -9.80202 0.0581993 
0.0668735 0.0581993 -9.8813 
-9.74875 0.0800149 -0.106741 
0.0800149 -9.66127 -0.00104761 
-0.106741 -0.00104761 -9.63448 
-9.76978 -0.00232019 -0.170948 
-0.00232019 -9.64394 0.0952505 
-0.170948 0.0952505 -9.63078 
-9.70941 0.0534917 -0.19162 
0.0534917 -9.71659 0.0228789 
-0.19162 0.0228789 -9.61849 
-9.72543 -0.00237954 -0.13864 
-0.00237954 -9.66342 0.0826992 
-0.13864 0.0826992 -9.65565 
-9.75218 0.0147862 -0.238313 
0.0147862 -9.75426 0.044774 
-0.238313 0.044774 -9.70141 
-9.75629 0.0225446 -0.257373 
0.0225446 -9.74028 0.0389689 
-0.257373 0.0389689 -9.71128 
-9.74275 0.0266786 -0.283684 
0.0266786 -9.71162 0.0302989 
-0.283684 0.0302989 -9.75348 
-9.76576 0.0147652 -0.257403 
0.0147652 -9.74916 0.0480763 
-0.257403 0.0480763 -9.69294 
-9.85493 -0.0091824 0.329993 
-0.0091824 -9.86436 0.00908603 
0.329993 0.00908603 -9.77684 
-9.80132 0.018462 0.271683 
0.018462 -9.86429 0.01482 
0.271683 0.01482 -9.83052 
-9.88974 0.00309019 0.322684 
0.00309019 -9.84864 0.0128615 
0.322684 0.0128615 -9.75775 
-9.7953 -0.00778927 0.257975 
-0.00778927 -9.84748 -0.026298 
0.257975 -0.026298 -9.85336 
-14.1065 1.70834 -0.477945 
1.70834 -5.21683 -5.94996 
-0.477945 -5.94996 0.58095 
-4.46584 -0.766056 0.486128 
-0.766056 -10.2459 -3.1044 
0.486128 -3.1044 -4.03067 
-6.98247 -0.271051 1.08219 
-0.271051 -8.72223 -1.41252 
1.08219 -1.41252 -3.03771 
-10.0274 0.24178 3.59998 
0.24178 -2.80786 1.10757 
3.59998 1.10757 -5.90715 
-9.94014 0.00253414 0.0711752 
0.00253414 -9.94222 -0.260149 
0.0711752 -0.260149 -10.026 
-9.97424 -0.0026216 0.0976854 
-0.0026216 -9.98046 -0.265838 
0.0976854 -0.265838 -9.95362 
-9.95958 -0.00526989 0.0879045 
-0.00526989 -9.98228 -0.26633 
0.0879045 -0.26633 -9.96647 
-9.98288 0.000886642 0.0914367 
0.000886642 -9.98199 -0.273837 
0.0914367 -0.273837 -9.94345 
-9.35587 -0.0477875 -0.273535 
-0.0477875 -10.2278 -0.0696008 
-0.273535 -0.0696008 -11.5932 
-8.84626 0.360027 -0.441115 
0.360027 -11.2362 -0.0648873 
-0.441115 -0.0648873 -11.0945 
-10.278 0.133657 -0.348854 
0.133657 -9.55092 0.160302 
-0.348854 0.160302 -11.348 
-9.79124 -0.553361 -0.0101338 
-0.553361 -9.79676 0.367169 
-0.0101338 0.367169 -11.5889 
-9.76465 0.0406507 0.155688 
0.0406507 -9.76288 0.294407 
0.155688 0.294407 -9.83618 
-9.80162 -0.0268217 0.19352 
-0.0268217 -9.81189 0.319661 
0.19352 0.319661 -9.75019 
-9.79235 0.0100134 0.169609 
0.0100134 -9.78349 0.301398 
0.169609 0.301398 -9.78786 
-9.83745 -0.0110386 0.140077 
-0.0110386 -9.79559 0.291584 
0.140077 0.291584 -9.73067 
-9.5488 -0.00678391 -0.2798 
-0.00678391 -9.61746 -0.26553 
-0.2798 -0.26553 -9.647 
-9.65106 0.086488 -0.25843 
0.086488 -9.62775 -0.241568 
-0.25843 -0.241568 -9.53445 
-9.66303 0.00742631 -0.244801 
0.00742631 -9.68373 -0.218039 
-0.244801 -0.218039 -9.46649 
-9.60137 0.0436741 -0.20542 
0.0436741 -9.60943 -0.257178 
-0.20542 -0.257178 -9.60246 
-9.12296 -0.168041 -0.396159 
-0.168041 -9.49152 0.224461 
-0.396159 0.224461 -9.58718 
-9.0054 -0.414794 -0.69722 
-0.414794 -9.56403 -0.021171 
-0.69722 -0.021171 -9.63224 
-9.09871 0.0271936 -0.4233 
0.0271936 -9.6366 0.0415015 
-0.4233 0.0415015 -9.46635 
-9.39546 -0.0794434 -0.444665 
-0.0794434 -9.12896 0.537513 
-0.444665 0.537513 -9.67724 
-9.7391 0.0281634 -0.0996036 
0.0281634 -9.74215 0.189549 
-0.0996036 0.189549 -9.67688 
-9.72393 0.00994809 -0.106591 
0.00994809 -9.77623 0.221244 
-0.106591 0.221244 -9.65798 
-9.71603 0.0128096 -0.140822 
0.0128096 -9.73896 0.220184 
-0.140822 0.220184 -9.70315 
-9.74639 0.00696887 -0.109906 
0.00696887 -9.67792 0.250268 
-0.109906 0.250268 -9.73383 
-9.57663 0.0184389 -0.137094 
0.0184389 -9.64973 0.24033 
-0.137094 0.24033 -9.60233 
-9.60292 -0.0397127 -0.154927 
-0.0397127 -9.65842 0.285196 
-0.154927 0.285196 -9.56734 
-9.57393 0.00798851 -0.106763 
0.00798851 -9.6929 0.229684 
-0.106763 0.229684 -9.56185 
-9.5859 0.00815175 -0.143202 
0.00815175 -9.7608 0.175582 
-0.143202 0.175582 -9.48198 
-9.9157 -0.00478702 0.302661 
-0.00478702 -9.91031 -0.010848 
0.302661 -0.010848 -9.92543 
-9.91039 0.0116637 0.30845 
0.0116637 -9.91901 -0.0133086 
0.30845 -0.0133086 -9.92203 
-9.92084 -0.0154542 0.295335 
-0.0154542 -9.88095 -0.0241342 
0.295335 -0.0241342 -9.94965 
-9.93467 -0.00591771 0.322458 
-0.00591771 -9.91006 -0.00872647 
0.322458 -0.00872647 -9.90671 
-8.95056 0.968635 0.685524 
0.968635 -8.56102 -0.672673 
0.685524 -0.672673 -1.29145 
-8.39394 1.76259 2.75463 
1.76259 -5.51014 -0.807342 
2.75463 -0.807342 -4.89896 
-5.70016 -1.79694 0.863275 
-1.79694 -9.73452 -1.10358 
0.863275 -1.10358 -3.36835 
-6.9046 0.703893 2.48543 
0.703893 -8.96176 -0.513292 
2.48543 -0.513292 -2.93668 
-8.77418 -1.66215 -0.296123 
-1.66215 -11.5505 0.251117 
-0.296123 0.251117 -14.3232 
-13.0455 0.0754807 -0.00333095 
0.0754807 -9.26404 0.54347 
-0.00333095 0.54347 -12.3384 
-11.5972 -0.884275 1.02926 
-0.884275 -9.50213 -0.209125 
1.02926 -0.209125 -13.5486 
-10.1255 -0.841043 1.0215 
-0.841043 -11.28 0.0576871 
1.0215 0.0576871 -13.2424 
-9.63947 -0.0389271 0.185562 
-0.0389271 -9.60044 0.121253 
0.185562 0.121253 -9.58361 
-9.69482 -0.033643 0.227139 
-0.033643 -9.54485 0.10734 
0.227139 0.10734 -9.58386 
-9.66735 -0.0436225 0.184073 
-0.0436225 -9.61109 0.116344 
0.184073 0.116344 -9.54509 
-9.67336 -0.0851966 0.221025 
-0.0851966 -9.66133 0.0791959 
0.221025 0.0791959 -9.48883 
-9.96221 0.00613573 -0.00364583 
0.00613573 -9.9792 -0.0897838 
-0.00364583 -0.0897838 -9.96579 
-9.96795 0.0172801 -0.000348326 
0.0172801 -9.95953 -0.0937111 
-0.000348326 -0.0937111 -9.97973 
-9.94268 0.000721741 0.00749178 
0.000721741 -9.94722 -0.0952262 
0.00749178 -0.0952262 -10.0173 
-9.96531 0.00246842 -0.00317784 
0.00246842 -9.98269 -0.0989708 
-0.00317784 -0.0989708 -9.95921 
-7.94883 1.16383 -0.125341 
1.16383 -10.3853 -0.278813 
-0.125341 -0.278813 -11.8647 
-9.37639 -0.0600841 0.952203 
-0.0600841 -10.5302 -0.374345 
0.952203 -0.374345 -10.2923 
-8.79481 0.885608 -0.148458 
0.885608 -10.9263 -0.0293943 
-0.148458 -0.0293943 -10.4777 
-10.3493 1.52758 -1.34896 
1.52758 -8.36664 -2.28286 
-1.34896 -2.28286 -11.4829 
-9.59128 -0.0236566 -0.145351 
-0.0236566 -9.63303 0.170856 
-0.145351 0.170856 -9.42174 
-9.58802 0.0806553 -0.0459673 
0.0806553 -9.62243 -0.120322 
-0.0459673 -0.120322 -9.43561 
-9.63033 0.0962936 -0.0936808 
0.0962936 -9.7367 0.111703 
-0.0936808 0.111703 -9.27903 
-9.61791 0.0825848 -0.0837515 
0.0825848 -9.66434 0.0525333 
-0.0837515 0.0525333 -9.36381 
-9.70406 -0.0176586 -0.234806 
-0.0176586 -8.95518 0.323703 
-0.234806 0.323703 -10.8563 
-9.95723 -0.0649771 -0.452696 
-0.0649771 -9.68871 0.183656 
-0.452696 0.183656 -9.86963 
-10.0768 -0.165882 -0.223707 
-0.165882 -8.67231 0.837026 
-0.223707 0.837026 -10.7665 
-10.0141 0.190523 -0.265452 
0.190523 -8.86272 0.348371 
-0.265452 0.348371 -10.6388 
-9.67538 0.0405272 -0.00608547 
0.0405272 -9.56706 0.0697576 
-0.00608547 0.0697576 -9.81301 
-9.61018 -0.0156514 0.0269848 
-0.0156514 -9.65827 -0.052716 
0.0269848 -0.052716 -9.787 
-9.60531 -0.0394346 -0.0176938 
-0.0394346 -9.5879 -0.0224201 
-0.0176938 -0.0224201 -9.86223 
-9.59837 -0.0119583 -0.0102821 
-0.0119583 -9.60834 -0.00714958 
-0.0102821 -0.00714958 -9.84873 
-10.3125 0.204146 -0.222505 
0.204146 -9.21912 -1.02421 
-0.222505 -1.02421 -9.70971 
-9.37998 -0.0565414 -0.291831 
-0.0565414 -9.06105 -0.903831 
-0.291831 -0.903831 -10.8003 
-9.35922 0.220647 -0.109423 
0.220647 -9.64223 -0.981463 
-0.109423 -0.981463 -10.2398 
-10.4898 0.0408966 0.365292 
0.0408966 -9.31506 0.991964 
0.365292 0.991964 -9.43646 
-9.87817 -0.000124621 -0.302152 
-0.000124621 -9.85949 0.12749 
-0.302152 0.12749 -9.87671 
-9.8613 0.0198759 -0.273649 
0.0198759 -9.85277 0.115757 
-0.273649 0.115757 -9.9003 
-9.87894 0.000570437 -0.286587 
0.000570437 -9.87597 0.117953 
-0.286587 0.117953 -9.85946 
-9.88576 -0.00984083 -0.3037 
-0.00984083 -9.86486 0.135666 
-0.3037 0.135666 -9.86375 
-9.41773 -0.0902602 -0.241451 
-0.0902602 -9.53269 0.114372 
-0.241451 0.114372 -9.87959 
-9.44805 -0.166343 -0.322107 
-0.166343 -9.54702 0.226717 
-0.322107 0.226717 -9.83495 
-9.66882 -0.0213364 -0.294722 
-0.0213364 -9.3915 0.173925 
-0.294722 0.173925 -9.76969 
-9.56124 -0.0464716 -0.286984 
-0.0464716 -9.34465 0.185482 
-0.286984 0.185482 -9.92412 
-9.72318 0.0193033 -0.30417 
0.0193033 -9.78078 0.00935796 
-0.30417 0.00935796 -9.71907 
-9.72849 0.00887489 -0.30851 
0.00887489 -9.73944 -0.0133778 
-0.30851 -0.0133778 -9.7551 
-9.73639 0.0126617 -0.329285 
0.0126617 -9.76362 0.00572671 
-0.329285 0.00572671 -9.72302 
-9.73384 0.00850859 -0.302681 
0.00850859 -9.75355 0.000988391 
-0.302681 0.000988391 -9.73563 
-9.48231 0.0132905 0.0105136 
0.0132905 -9.41249 0.64544 
0.0105136 0.64544 -9.22517 
-9.42584 0.181108 0.124454 
0.181108 -9.41697 0.574797 
0.124454 0.574797 -9.27716 
-9.72464 0.0819174 0.132543 
0.0819174 -8.98847 0.822822 
0.132543 0.822822 -9.40686 
-9.43485 0.1527 0.140588 
0.1527 -9.44154 0.632705 
0.140588 0.632705 -9.24358 
-9.72568 -0.00316304 -0.301616 
-0.00316304 -9.67951 0.122392 
-0.301616 0.122392 -9.70635 
-9.70508 -0.030702 -0.3005 
-0.030702 -9.6814 0.0598842 
-0.3005 0.0598842 -9.72506 
-9.70471 0.00425439 -0.318194 
0.00425439 -9.70135 0.0956811 
-0.318194 0.0956811 -9.70548 
-9.68873 0.0148631 -0.312224 
0.0148631 -9.71297 0.108938 
-0.312224 0.108938 -9.70985 
-9.63676 -0.0207415 0.0724644 
-0.0207415 -9.66968 -0.247653 
0.0724644 -0.247653 -9.66549 
-9.64069 0.0328921 0.0624321 
0.0328921 -9.71856 -0.225671 
0.0624321 -0.225671 -9.61267 
-9.66329 0.0385655 0.0780289 
0.0385655 -9.72739 -0.244263 
0.0780289 -0.244263 -9.58125 
-9.65103 0.0634449 0.0212486 
0.0634449 -9.69762 -0.192992 
0.0212486 -0.192992 -9.62328 
-9.69965 -0.0274204 0.147043 
-0.0274204 -9.71945 0.290475 
0.147043 0.290475 -9.68082 
-9.7067 -0.0195094 0.155377 
-0.0195094 -9.71535 0.2682 
0.155377 0.2682 -9.67787 
-9.6974 -0.00959036 0.161661 
-0.00959036 -9.69981 0.266162 
0.161661 0.266162 -9.70271 
-9.67698 0.00728335 0.141629 
0.00728335 -9.71597 0.258972 
0.141629 0.258972 -9.70697 
-9.64112 -0.00368204 -0.126953 
-0.00368204 -9.67207 -0.328564 
-0.126953 -0.328564 -9.69021 
-9.68638 0.000716914 -0.0419772 
0.000716914 -9.65933 -0.312979 
-0.0419772 -0.312979 -9.65769 
-9.66085 0.00232869 -0.0690941 
0.00232869 -9.69548 -0.316006 
-0.0690941 -0.316006 -9.64707 
-9.61648 -0.0404783 -0.144433 
-0.0404783 -9.71457 -0.319603 
-0.144433 -0.319603 -9.67235 
-9.63042 0.848278 -0.14576 
0.848278 -9.40238 -0.521563 
-0.14576 -0.521563 -11.4911 
-9.81588 0.712788 -0.413851 
0.712788 -9.24572 -0.670772 
-0.413851 -0.670772 -11.4623 
-10.3762 0.0939217 -0.534627 
0.0939217 -10.4311 -0.256567 
-0.534627 -0.256567 -9.71655 
-9.0841 1.76849 -0.874656 
1.76849 -10.4028 -0.53904 
-0.874656 -0.53904 -11.037 
-9.64447 0.258542 0.0552115 
0.258542 -9.12731 -0.839183 
0.0552115 -0.839183 -9.44099 
-9.70993 0.542148 -0.576659 
0.542148 -8.4239 -1.25065 
-0.576659 -1.25065 -10.0789 
-9.09311 0.140278 -0.397943 
0.140278 -9.51633 -0.3665 
-0.397943 -0.3665 -9.60333 
-9.70318 -0.0268588 -0.0534878 
-0.0268588 -9.06591 -0.625904 
-0.0534878 -0.625904 -9.44369 
-0.856776 -1.25286 -2.2105 
-1.25286 -0.0224133 0.316692 
-2.2105 0.316692 -7.30214 
-4.01908 -0.636928 1.94477 
-0.636928 -7.57329 0.320843 
1.94477 0.320843 3.41104 
-4.80037 -0.784347 1.08372 
-0.784347 -5.75712 -0.869896 
1.08372 -0.869896 2.37616 
-6.4779 -0.396335 -1.80143 
-0.396335 -5.04631 0.688848 
-1.80143 0.688848 3.34288 
-9.44766 0.363564 -0.446 
0.363564 -9.14795 0.273963 
-0.446 0.273963 -9.14669 
-9.61089 0.368514 -0.325801 
0.368514 -8.80975 0.32852 
-0.325801 0.32852 -9.32167 
-9.789 0.213514 -0.112585 
0.213514 -8.94897 0.369139 
-0.112585 0.369139 -9.00434 
-9.50878 -0.0140425 0.137348 
-0.0140425 -8.64005 -0.105447 
0.137348 -0.105447 -9.59347 
-8.9191 -0.424458 -0.758504 
-0.424458 -10.2947 0.326273 
-0.758504 0.326273 -9.37523 
-8.47797 -0.518338 -0.470052 
-0.518338 -10.0724 0.307244 
-0.470052 0.307244 -10.0387 
-8.61517 -0.545972 -0.401437 
-0.545972 -9.95228 0.333846 
-0.401437 0.333846 -10.0216 
-8.61191 -0.745218 -0.36004 
-0.745218 -9.92313 0.365929 
-0.36004 0.365929 -10.054 
-9.51933 -0.0964456 0.0629864 
-0.0964456 -9.4527 0.0935799 
0.0629864 0.0935799 -9.8596 
-9.52731 -0.0640943 0.00125356 
-0.0640943 -9.41998 0.050672 
0.00125356 0.050672 -9.88434 
-9.51982 -0.0407498 0.0050603 
-0.0407498 -9.50229 0.000736267 
0.0050603 0.000736267 -9.80952 
-9.57505 0.0304722 0.00503984 
0.0304722 -9.39541 0.00350162 
0.00503984 0.00350162 -9.86117 
-9.75101 0.022458 0.0603709 
0.022458 -9.77492 -0.220054 
0.0603709 -0.220054 -9.7195 
-9.75161 0.0209286 0.0522663 
0.0209286 -9.77877 -0.193145 
0.0522663 -0.193145 -9.71504 
-9.70372 0.0272266 0.0413818 
0.0272266 -9.74862 -0.26198 
0.0413818 -0.26198 -9.79309 
-9.76611 0.00987623 0.0650739 
0.00987623 -9.79341 -0.243177 
0.0650739 -0.243177 -9.6859 
-3.79205 0.157212 -0.45552 
0.157212 -3.20831 -0.334497 
-0.45552 -0.334497 -1.47778 
-6.81013 0.120852 -2.27694 
0.120852 -4.615 1.87928 
-2.27694 1.87928 2.947 
-2.25807 -0.316734 -0.227029 
-0.316734 -2.51689 -1.1281 
-0.227029 -1.1281 -3.70318 
-5.29315 2.80466 2.01275 
2.80466 -4.14701 -0.518417 
2.01275 -0.518417 0.962028 
-9.52669 1.73047 -3.02813 
1.73047 -9.55748 -0.500409 
-3.02813 -0.500409 -1.73341 
-9.47357 -2.31604 -1.69335 
-2.31604 -7.02287 1.3339 
-1.69335 1.3339 -4.32113 
-8.03338 -0.670716 -1.64101 
-0.670716 -8.3184 3.56651 
-1.64101 3.56651 -4.46579 
-8.71143 -0.693226 -2.04425 
-0.693226 -8.28544 0.92957 
-2.04425 0.92957 -3.82071 
-9.54604 0.0663687 -0.246227 
0.0663687 -9.54006 -0.0503271 
-0.246227 -0.0503271 -9.87746 
-9.3887 0.0452375 -0.315176 
0.0452375 -9.45471 -0.117777 
-0.315176 -0.117777 -10.1201 
-9.28219 0.132207 -0.329494 
0.132207 -9.68641 -0.0450913 
-0.329494 -0.0450913 -9.99496 
-9.71269 -0.283175 -0.563838 
-0.283175 -9.49682 -0.364457 
-0.563838 -0.364457 -9.75405 
-8.27421 0.124688 0.190636 
0.124688 -9.88397 0.328692 
0.190636 0.328692 -9.45458 
-9.509 0.299385 0.933021 
0.299385 -9.31636 -0.426778 
0.933021 -0.426778 -8.7874 
-9.49173 -0.105133 0.744274 
-0.105133 -9.86284 -0.808721 
0.744274 -0.808721 -8.25818 
-10.2769 -0.517015 0.705823 
-0.517015 -8.79272 -0.936818 
0.705823 -0.936818 -8.54312 
-10.0196 0.12803 -0.0451502 
0.12803 -8.97691 0.430084 
-0.0451502 0.430084 -9.59656 
-9.6817 -0.16036 0.369142 
-0.16036 -9.50977 0.0159798 
0.369142 0.0159798 -9.40162 
-9.78194 -0.175562 0.194697 
-0.175562 -9.21472 0.103903 
0.194697 0.103903 -9.59642 
-9.7249 -0.561302 0.145927 
-0.561302 -9.2423 -0.0713822 
0.145927 -0.0713822 -9.62588 
-9.66455 0.165665 -0.0198141 
0.165665 -9.79871 -0.0259512 
-0.0198141 -0.0259512 -9.65735 
-9.66815 0.0191551 -0.0319887 
0.0191551 -9.68982 -0.0329272 
-0.0319887 -0.0329272 -9.76265 
-9.69356 -0.0290846 0.039334 
-0.0290846 -9.69695 -0.100906 
0.039334 -0.100906 -9.7301 
-9.70128 0.0519281 0.0653143 
0.0519281 -9.70237 -0.00426558 
0.0653143 -0.00426558 -9.71696 
-9.85721 0.0655311 1.51311 
0.0655311 -9.13385 0.502037 
1.51311 0.502037 -8.1975 
-8.1016 -0.138681 0.421271 
-0.138681 -9.12923 1.37768 
0.421271 1.37768 -9.95774 
-8.78106 0.074491 2.56103 
0.074491 -9.2662 0.62168 
2.56103 0.62168 -9.1413 
-9.53643 -0.0936229 1.59082 
-0.0936229 -9.06905 0.198969 
1.59082 0.198969 -8.58309 
-9.28122 -0.0705202 -0.128717 
-0.0705202 -9.68608 0.0972317 
-0.128717 0.0972317 -9.66102 
-9.59506 -0.0681236 -0.282294 
-0.0681236 -9.45656 0.0984951 
-0.282294 0.0984951 -9.5767 
-9.40348 0.125238 -0.287585 
0.125238 -9.39002 -0.104285 
-0.287585 -0.104285 -9.83483 
-9.47016 -0.0254719 -0.357355 
-0.0254719 -9.38209 0.068981 
-0.357355 0.068981 -9.77609 
-9.77659 0.133457 -0.0519046 
0.133457 -9.60568 -0.290636 
-0.0519046 -0.290636 -9.57898 
-9.5807 -0.0662391 0.184722 
-0.0662391 -9.68702 -0.29581 
0.184722 -0.29581 -9.69353 
-9.7182 0.0859559 -0.143375 
0.0859559 -9.5167 -0.424166 
-0.143375 -0.424166 -9.72636 
-9.40594 -0.258948 -0.0508922 
-0.258948 -9.60525 -0.0992454 
-0.0508922 -0.0992454 -9.95007 
-9.45246 0.0977628 -0.411803 
0.0977628 -9.50785 -0.0482083 
-0.411803 -0.0482083 -9.80775 
-9.06939 -0.131579 -0.287321 
-0.131579 -9.69731 0.0432549 
-0.287321 0.0432549 -10.0014 
-9.16475 -0.128249 -0.173171 
-0.128249 -9.56212 0.0191034 
-0.173171 0.0191034 -10.0412 
-9.06968 -0.0776408 -0.122237 
-0.0776408 -9.72122 -0.015678 
-0.122237 -0.015678 -9.97716 
-9.6411 0.0494443 -0.0708137 
0.0494443 -9.66748 0.137607 
-0.0708137 0.137607 -9.56644 
-9.70269 0.109269 -0.0299762 
0.109269 -9.6094 0.0155658 
-0.0299762 0.0155658 -9.56294 
-9.49362 0.0441105 -0.108914 
0.0441105 -9.7438 0.146857 
-0.108914 0.146857 -9.63761 
-9.59647 0.0477189 -0.0624996 
0.0477189 -9.76485 0.104365 
-0.0624996 0.104365 -9.51372 
-9.74561 0.00600289 -0.319305 
0.00600289 -9.72702 0.00657865 
-0.319305 0.00657865 -9.70661 
-9.73906 0.0102178 -0.306408 
0.0102178 -9.71281 -0.00293035 
-0.306408 -0.00293035 -9.72737 
-9.75418 0.00380331 -0.298003 
0.00380331 -9.73156 -0.00415543 
-0.298003 -0.00415543 -9.69351 
-9.78242 -0.0168946 -0.290877 
-0.0168946 -9.71905 0.0310721 
-0.290877 0.0310721 -9.67776 
-9.66534 -0.00767287 0.313072 
-0.00767287 -9.63847 0.143959 
0.313072 0.143959 -9.67504 
-9.69254 -0.0513825 0.301429 
-0.0513825 -9.63552 0.130398 
0.301429 0.130398 -9.6508 
-9.66436 0.00790423 0.318361 
0.00790423 -9.63661 0.137561 
0.318361 0.137561 -9.67789 
-9.6662 -0.0130344 0.28861 
-0.0130344 -9.62984 0.168029 
0.28861 0.168029 -9.68281 
-9.74474 -0.0108609 0.297019 
-0.0108609 -9.71875 0.219688 
0.297019 0.219688 -9.58832 
-9.64964 0.02299 0.305299 
0.02299 -9.60921 0.101315 
0.305299 0.101315 -9.79297 
-9.68051 -0.0318191 0.244036 
-0.0318191 -9.72231 0.163467 
0.244036 0.163467 -9.649 
-9.69195 -0.0281695 0.266331 
-0.0281695 -9.675 0.160777 
0.266331 0.160777 -9.68487 
-9.77306 -0.00145113 0.012236 
-0.00145113 -9.73703 0.0587458 
0.012236 0.0587458 -9.88298 
-9.75018 -0.0165158 0.00897099 
-0.0165158 -9.73662 0.0355656 
0.00897099 0.0355656 -9.90627 
-9.75786 -0.0152167 0.00883018 
-0.0152167 -9.74272 0.0423863 
0.00883018 0.0423863 -9.89249 
-9.76812 0.00829866 0.0104265 
0.00829866 -9.77714 0.0519231 
0.0104265 0.0519231 -9.84781 
-12.4564 -0.361867 -0.151526 
-0.361867 -9.81475 -1.19157 
-0.151526 -1.19157 -12.6504 
-11.5957 -0.338386 -0.114592 
-0.338386 -11.4016 -0.864461 
-0.114592 -0.864461 -11.9243 
-11.4117 0.125934 0.214099 
0.125934 -10.5077 -0.881312 
0.214099 -0.881312 -13.0021 
-11.5789 -0.0137361 -0.166969 
-0.0137361 -11.0858 -1.44135 
-0.166969 -1.44135 -12.2567 
-8.85434 -1.13981 -0.213922 
-1.13981 -10.3239 0.279515 
-0.213922 0.279515 -11.9755 
-9.00644 -0.736541 0.101282 
-0.736541 -10.7732 0.387729 
0.101282 0.387729 -11.3741 
-9.91854 -0.681856 -1.24882 
-0.681856 -10.4029 0.0701353 
-1.24882 0.0701353 -10.8324 
-9.78902 -2.10333 1.4794 
-2.10333 -10.1358 -1.4152 
1.4794 -1.4152 -11.229 
-9.87183 -0.014003 0.205187 
-0.014003 -9.78226 0.0724641 
0.205187 0.0724641 -9.73267 
-9.86886 -0.0158056 0.15115 
-0.0158056 -9.76255 0.0538119 
0.15115 0.0538119 -9.75535 
-9.8716 -0.0281245 0.210548 
-0.0281245 -9.77637 0.043452 
0.210548 0.043452 -9.73878 
-9.79172 -0.00477979 0.131958 
-0.00477979 -9.79461 0.0482243 
0.131958 0.0482243 -9.80043 
-9.7277 0.100039 0.02678 
0.100039 -9.66735 -0.0200082 
0.02678 -0.0200082 -9.72803 
-9.69124 0.0367179 0.00118907 
0.0367179 -9.65749 -0.0285695 
0.00118907 -0.0285695 -9.77434 
-9.6298 0.0353522 0.0381069 
0.0353522 -9.64767 -0.0624451 
0.0381069 -0.0624451 -9.8456 
-9.66938 -0.0444684 -0.0520556 
-0.0444684 -9.61993 0.0312067 
-0.0520556 0.0312067 -9.83377 
-10.3162 -2.50326 -3.77883 
-2.50326 -9.22516 5.11792 
-3.77883 5.11792 -4.70827 
-7.9368 -0.580938 -1.49372 
-0.580938 -8.9947 2.44061 
-1.49372 2.44061 -7.31815 
-7.77447 0.475551 -1.1118 
0.475551 -10.8298 0.731193 
-1.1118 0.731193 -5.64538 
-8.07081 -2.23947 -2.05026 
-2.23947 -6.6235 1.06004 
-2.05026 1.06004 -9.55535 
-9.95945 0.289065 -0.10504 
0.289065 -9.49883 -0.0975633 
-0.10504 -0.0975633 -9.40371 
-9.72454 -0.0113909 0.133328 
-0.0113909 -9.6298 -0.125099 
0.133328 -0.125099 -9.50764 
-9.8106 0.0669583 0.202923 
0.0669583 -9.60678 -0.163463 
0.202923 -0.163463 -9.44461 
-9.64899 0.0643432 0.156223 
0.0643432 -9.58637 -0.0937373 
0.156223 -0.0937373 -9.62663 
-9.76779 0.039103 0.128841 
0.039103 -9.72355 0.31564 
0.128841 0.31564 -9.77588 
-9.75277 -0.0149089 0.0475016 
-0.0149089 -9.77787 0.322235 
0.0475016 0.322235 -9.73657 
-9.71906 0.0292224 0.123779 
0.0292224 -9.82164 0.290816 
0.123779 0.290816 -9.72651 
-9.77246 -0.00311815 0.0438901 
-0.00311815 -9.75177 0.293419 
0.0438901 0.293419 -9.74299 
-9.93386 0.330414 -0.216809 
0.330414 -8.45836 -1.43931 
-0.216809 -1.43931 -11.8084 
-10.1484 0.0702007 0.0984121 
0.0702007 -8.93619 -0.327068 
0.0984121 -0.327068 -11.116 
-10.9722 0.0989953 0.819944 
0.0989953 -9.72909 -0.418128 
0.819944 -0.418128 -9.49928 
-10.9955 -0.519895 0.450626 
-0.519895 -8.59452 -0.190429 
0.450626 -0.190429 -10.6106 
-9.30289 -0.00894595 0.221234 
-0.00894595 -9.48113 0.199079 
0.221234 0.199079 -9.72733 
-9.34735 0.0426791 0.189378 
0.0426791 -9.60608 0.475497 
0.189378 0.475497 -9.55792 
-9.67501 0.200081 0.339482 
0.200081 -9.09473 0.515627 
0.339482 0.515627 -9.74161 
-9.5051 0.0850645 0.0658872 
0.0850645 -9.55368 0.532077 
0.0658872 0.532077 -9.45257 
-10.8192 0.769656 -0.335025 
0.769656 -10.1393 -0.363364 
-0.335025 -0.363364 -12.1776 
-8.531 -0.533604 -0.139453 
-0.533604 -11.4964 0.66729 
-0.139453 0.66729 -13.1086 
-10.1541 -0.0154002 0.154801 
-0.0154002 -10.5548 0.249672 
0.154801 0.249672 -12.4271 
-10.1277 -0.651629 0.62995 
-0.651629 -10.7522 -0.393209 
0.62995 -0.393209 -12.2561 
-9.44703 0.603482 0.974304 
0.603482 -7.94563 -0.917779 
0.974304 -0.917779 -7.21185 
-9.78141 -0.374172 0.765487 
-0.374172 -9.10016 -1.30118 
0.765487 -1.30118 -5.72293 
-9.18976 -0.87183 0.926701 
-0.87183 -9.68325 -2.34932 
0.926701 -2.34932 -5.7315 
-9.15813 -0.0456682 0.0947424 
-0.0456682 -8.72655 -0.628923 
0.0947424 -0.628923 -6.71982 
-9.83272 0.0184814 0.0644686 
0.0184814 -9.84404 -0.149007 
0.0644686 -0.149007 -9.83929 
-9.84532 0.00906508 0.0604645 
0.00906508 -9.86725 -0.123885 
0.0604645 -0.123885 -9.80348 
-9.8266 0.0185984 0.0621881 
0.0185984 -9.86326 -0.139279 
0.0621881 -0.139279 -9.82619 
-9.84338 0.00525329 0.0766112 
0.00525329 -9.85988 -0.134459 
0.0766112 -0.134459 -9.81279 
-9.6651 0.0204617 -0.140121 
0.0204617 -9.7336 0.240598 
-0.140121 0.240598 -9.60787 
-9.70184 -0.0165056 -0.140521 
-0.0165056 -9.63639 0.262336 
-0.140521 0.262336 -9.66834 
-9.6364 0.0413113 -0.118194 
0.0413113 -9.73728 0.169789 
-0.118194 0.169789 -9.63289 
-9.71684 0.0122535 -0.123857 
0.0122535 -9.71602 0.259671 
-0.123857 0.259671 -9.5737 
-12.0508 1.51313 -1.40913 
1.51313 -14.3286 -0.367294 
-1.40913 -0.367294 -11.638 
-7.99104 1.93703 0.676012 
1.93703 -10.1926 0.877975 
0.676012 0.877975 -19.8337 
-10.5484 1.68849 2.66597 
1.68849 -8.74812 1.69391 
2.66597 1.69391 -18.7209 
-11.5291 4.31304 1.99219 
4.31304 -10.9752 -3.93899 
1.99219 -3.93899 -15.5131 
-9.77899 0.00122189 0.342043 
0.00122189 -9.81349 0.0363228 
0.342043 0.0363228 -9.80041 
-9.68357 -0.0367737 0.322301 
-0.0367737 -9.80497 0.00241917 
0.322301 0.00241917 -9.90434 
-9.882 0.0252465 0.396958 
0.0252465 -9.80981 0.0171849 
0.396958 0.0171849 -9.70109 
-9.84492 0.00936954 0.318648 
0.00936954 -9.79378 0.0877959 
0.318648 0.0877959 -9.75419 
-9.96791 -0.00272268 0.0187185 
-0.00272268 -9.98257 0.217044 
0.0187185 0.217044 -9.94425 
-9.94475 0.000648759 0.0234023 
0.000648759 -9.95771 0.226571 
0.0234023 0.226571 -9.99228 
-9.93619 0.00476547 0.0302162 
0.00476547 -9.95035 0.212469 
0.0302162 0.212469 -10.0082 
-9.97835 -0.00755791 0.0427303 
-0.00755791 -9.96858 0.234767 
0.0427303 0.234767 -9.9478 
-9.57157 0.0555969 0.142096 
0.0555969 -9.6565 -0.322009 
0.142096 -0.322009 -9.45757 
-9.65318 0.106949 0.181731 
0.106949 -9.68884 -0.383953 
0.181731 -0.383953 -9.34362 
-9.56825 0.0395925 0.0961064 
0.0395925 -9.59875 -0.235383 
0.0961064 -0.235383 -9.51864 
-9.54048 0.0109772 0.15434 
0.0109772 -9.61078 -0.264818 
0.15434 -0.264818 -9.53439 
-9.62983 0.0255466 -0.0325762 
0.0255466 -9.66841 -0.282923 
-0.0325762 -0.282923 -9.55568 
-9.65875 0.00668706 0.00677688 
0.00668706 -9.64392 -0.319276 
0.00677688 -0.319276 -9.55125 
-9.62459 -0.0234208 -0.00875116 
-0.0234208 -9.6594 -0.209353 
-0.00875116 -0.209353 -9.56994 
-9.84164 -0.0531687 -0.109306 
-0.0531687 -9.81703 -0.304051 
-0.109306 -0.304051 -9.19526 
-9.94105 -0.0120834 0.106336 
-0.0120834 -9.84744 -0.121081 
0.106336 -0.121081 -9.96168 
-9.91349 0.0129143 0.130338 
0.0129143 -9.93382 -0.114749 
0.130338 -0.114749 -9.90287 
-9.90983 0.0094847 0.135367 
0.0094847 -9.93022 -0.128948 
0.135367 -0.128948 -9.91012 
-9.92677 0.00342123 0.11854 
0.00342123 -9.91111 -0.126809 
0.11854 -0.126809 -9.91229 
-9.5855 0.275637 -1.11683 
0.275637 -9.8063 -0.305666 
-1.11683 -0.305666 -9.8539 
-8.76945 0.111586 -1.09099 
0.111586 -9.67407 0.328666 
-1.09099 0.328666 -10.8022 
-9.13706 -0.323781 -1.20945 
-0.323781 -9.77199 0.0663695 
-1.20945 0.0663695 -10.3366 
-9.84661 0.313515 0.547322 
0.313515 -9.5134 -0.0878765 
0.547322 -0.0878765 -9.88568 
-9.74905 0.0214979 0.27201 
0.0214979 -9.71513 -0.214951 
0.27201 -0.214951 -9.73394 
-9.73855 0.00570998 0.276556 
0.00570998 -9.74431 -0.204879 
0.276556 -0.204879 -9.71527 
-9.81677 -0.017718 0.239824 
-0.017718 -9.77437 -0.130147 
0.239824 -0.130147 -9.60699 
-9.68738 -0.00609414 0.21714 
-0.00609414 -9.66945 -0.232938 
0.21714 -0.232938 -9.84129 
-9.95972 -0.103129 0.199439 
-0.103129 -9.12627 -0.847263 
0.199439 -0.847263 -9.28631 
-9.83296 -0.5005 0.146794 
-0.5005 -8.71676 -0.489511 
0.146794 -0.489511 -9.82259 
-9.98675 -0.435611 0.104795 
-0.435611 -8.60538 -0.721546 
0.104795 -0.721546 -9.78017 
-9.58971 -1.04441 0.238812 
-1.04441 -9.02816 -0.18733 
0.238812 -0.18733 -9.75443 
-9.58751 0.0104703 -0.130344 
0.0104703 -9.56442 -0.297026 
-0.130344 -0.297026 -9.65047 
-9.59078 0.00893557 -0.137815 
0.00893557 -9.57103 -0.301148 
-0.137815 -0.301148 -9.6406 
-9.57413 -0.0167861 -0.124674 
-0.0167861 -9.59833 -0.298278 
-0.124674 -0.298278 -9.62994 
-9.55931 0.0177339 -0.138566 
0.0177339 -9.5923 -0.290825 
-0.138566 -0.290825 -9.65079 
-9.88599 0.0110831 0.00338867 
0.0110831 -9.858 -0.0288131 
0.00338867 -0.0288131 -9.92986 
-9.87652 0.00238872 0.0090368 
0.00238872 -9.88478 0.00249018 
0.0090368 0.00249018 -9.91256 
-9.85558 -0.00665196 -0.00585981 
-0.00665196 -9.874 -0.0318231 
-0.00585981 -0.0318231 -9.94427 
-9.86548 -0.00144707 -0.000105598 
-0.00144707 -9.86871 -0.0249914 
-0.000105598 -0.0249914 -9.93967 
-9.91886 0.00360697 -0.258274 
0.00360697 -9.90884 -0.0233828 
-0.258274 -0.0233828 -9.94256 
-9.91581 0.00589275 -0.282141 
0.00589275 -9.94797 0.00222853 
-0.282141 0.00222853 -9.90648 
-9.93131 -0.00623608 -0.266829 
-0.00623608 -9.90495 -0.0260769 
-0.266829 -0.0260769 -9.934 
-9.93839 -0.00192315 -0.273342 
-0.00192315 -9.90296 -0.0167612 
-0.273342 -0.0167612 -9.92891 
-9.73983 0.0424039 -0.0294499 
0.0424039 -9.89153 0.0306299 
-0.0294499 0.0306299 -10.0285 
-9.75852 0.0821061 0.0475535 
0.0821061 -9.80274 0.0548833 
0.0475535 0.0548833 -10.0986 
-9.9797 0.201887 0.259209 
0.201887 -9.65777 -0.103914 
0.259209 -0.103914 -10.0224 
-9.59076 -0.00190841 0.0037151 
-0.00190841 -9.89255 -0.0179047 
0.0037151 -0.0179047 -10.1766 
-10.0881 -0.164594 -0.000338671 
-0.164594 -10.5337 -0.470215 
-0.000338671 -0.470215 -11.7505 
-10.68 -0.311235 0.150049 
-0.311235 -9.75727 0.015129 
0.150049 0.015129 -11.9352 
-9.89374 -0.438259 -0.011001 
-0.438259 -10.5713 -0.219424 
-0.011001 -0.219424 -11.9074 
-9.8092 -0.547302 0.12967 
-0.547302 -10.9618 0.466048 
0.12967 0.466048 -11.6014 
-9.564 -0.00161255 0.519351 
-0.00161255 -9.60246 0.0937032 
0.519351 0.0937032 -9.43348 
-9.61589 0.0117179 0.327304 
0.0117179 -9.50311 0.190425 
0.327304 0.190425 -9.48094 
-9.6802 0.0354058 0.396036 
0.0354058 -9.59211 0.27572 
0.396036 0.27572 -9.32763 
-9.45997 0.0829905 0.660277 
0.0829905 -9.58914 0.0387547 
0.660277 0.0387547 -9.55083 
-9.44629 -0.906938 1.12611 
-0.906938 -9.63251 -0.575507 
1.12611 -0.575507 -8.55604 
-9.4409 -0.679399 -0.00443871 
-0.679399 -8.968 -0.500202 
-0.00443871 -0.500202 -9.22593 
-9.4225 -0.0783211 0.409614 
-0.0783211 -9.23512 0.0666011 
0.409614 0.0666011 -8.97721 
-9.66727 -0.880761 0.7531 
-0.880761 -9.34061 -0.254679 
0.7531 -0.254679 -8.62696 
-10.0358 0.370139 0.171302 
0.370139 -8.86325 -0.0664222 
0.171302 -0.0664222 -10.1587 
-9.7908 -0.0511801 0.223969 
-0.0511801 -9.38554 0.201776 
0.223969 0.201776 -9.8814 
-9.74886 -0.111453 -0.181867 
-0.111453 -9.39274 1.07707 
-0.181867 1.07707 -9.91613 
-9.19356 -0.153379 -0.232629 
-0.153379 -9.08988 -0.041698 
-0.232629 -0.041698 -10.7743 
-9.8222 -0.0080367 -0.00243791 
-0.0080367 -9.88929 -0.0645631 
-0.00243791 -0.0645631 -9.88717 
-9.85971 -0.00308827 -0.0105112 
-0.00308827 -9.84354 -0.0692703 
-0.0105112 -0.0692703 -9.89541 
-9.84484 -0.00711688 0.0123236 
-0.00711688 -9.86856 -0.0454417 
0.0123236 -0.0454417 -9.88526 
-9.86019 -0.00605201 0.0567531 
-0.00605201 -9.85933 -0.0413473 
0.0567531 -0.0413473 -9.87913 
-9.33213 0.14856 -0.29381 
0.14856 -9.84967 0.213334 
-0.29381 0.213334 -9.88725 
-9.4949 0.206416 0.235106 
0.206416 -9.278 -0.546696 
0.235106 -0.546696 -10.2961 
-9.64684 -0.248296 0.305692 
-0.248296 -8.84823 -0.273314 
0.305692 -0.273314 -10.574 
-9.52816 0.379478 -0.125237 
0.379478 -9.38077 0.0360856 
-0.125237 0.0360856 -10.1601 
-9.33382 -0.214348 0.167367 
-0.214348 -9.69103 0.529577 
0.167367 0.529577 -9.29537 
-10.0866 0.234985 0.0872664 
0.234985 -8.90302 0.685102 
0.0872664 0.685102 -9.33057 
-9.45943 0.143838 0.208867 
0.143838 -9.25814 0.360641 
0.208867 0.360641 -9.60264 
-9.31988 -0.149853 -0.0340159 
-0.149853 -9.39745 0.563398 
-0.0340159 0.563398 -9.6029 
-9.81083 -0.00220716 0.0459865 
-0.00220716 -9.69188 0.0560284 
0.0459865 0.0560284 -9.61461 
-9.63212 -0.0335477 0.106381 
-0.0335477 -9.72487 0.0879976 
0.106381 0.0879976 -9.76033 
-9.83049 0.0149888 0.140823 
0.0149888 -9.6345 0.0300925 
0.140823 0.0300925 -9.65233 
-9.82052 -0.0356509 0.043962 
-0.0356509 -9.65918 0.0617881 
0.043962 0.0617881 -9.63762 
-9.52163 -0.016433 0.340816 
-0.016433 -9.52646 0.212398 
0.340816 0.212398 -9.58543 
-9.52744 0.0056398 0.354928 
0.0056398 -9.55976 0.203578 
0.354928 0.203578 -9.54633 
-9.50296 -0.00523801 0.362473 
-0.00523801 -9.51687 0.239506 
0.362473 0.239506 -9.6137 
-9.54239 0.0557181 0.239333 
0.0557181 -9.49424 0.253124 
0.239333 0.253124 -9.5969 
-9.69964 0.166407 -0.610316 
0.166407 -9.89241 0.00468859 
-0.610316 0.00468859 -9.62342 
-9.56609 0.184783 -0.510728 
0.184783 -9.94619 -0.0732518 
-0.510728 -0.0732518 -9.70319 
-9.71849 0.0897817 -0.487687 
0.0897817 -9.78833 -0.00173717 
-0.487687 -0.00173717 -9.70865 
-9.77128 0.0419053 -0.83301 
0.0419053 -10.0102 0.0166856 
-0.83301 0.0166856 -9.43398 
-9.72687 0.00386633 0.342947 
0.00386633 -9.76376 0.144904 
0.342947 0.144904 -9.59236 
-9.73331 -0.0291199 0.284096 
-0.0291199 -9.66782 0.126331 
0.284096 0.126331 -9.68187 
-9.61427 -0.00834574 0.266687 
-0.00834574 -9.65986 0.166361 
0.266687 0.166361 -9.80887 
-9.72735 -0.0203488 0.293114 
-0.0203488 -9.67057 0.113797 
0.293114 0.113797 -9.68508 
-9.4294 -0.00185371 0.341451 
-0.00185371 -9.45978 0.154339 
0.341451 0.154339 -9.7055 
-9.43567 0.0120015 0.45108 
0.0120015 -9.44351 0.148346 
0.45108 0.148346 -9.7155 
-9.625 -0.0117776 0.392693 
-0.0117776 -9.52852 0.0837706 
0.392693 0.0837706 -9.44116 
-9.46568 0.00722495 0.397345 
0.00722495 -9.44981 0.164599 
0.397345 0.164599 -9.67918 
-9.66394 0.0045485 0.168488 
0.0045485 -9.67583 0.299802 
0.168488 0.299802 -9.67611 
-9.69109 0.00791279 0.169594 
0.00791279 -9.68922 0.301816 
0.169594 0.301816 -9.63557 
-9.64 -0.00837761 0.168422 
-0.00837761 -9.7151 0.286687 
0.168422 0.286687 -9.66077 
-9.68378 -0.057815 0.133728 
-0.057815 -9.70358 0.278578 
0.133728 0.278578 -9.62852 
-9.86449 0.0024773 0.0463733 
0.0024773 -9.8181 0.114041 
0.0463733 0.114041 -9.91703 
-9.89984 -0.00175325 0.0148868 
-0.00175325 -9.90343 0.0592772 
0.0148868 0.0592772 -9.79637 
-9.82705 0.00604772 0.0289591 
0.00604772 -9.92706 0.0636324 
0.0289591 0.0636324 -9.84552 
-9.83106 -0.00369103 0.0130856 
-0.00369103 -9.87028 0.0580303 
0.0130856 0.0580303 -9.89829 
-9.86339 -0.00261435 0.0971986 
-0.00261435 -9.85616 -0.0405143 
0.0971986 -0.0405143 -9.90677 
-9.87076 0.00743235 0.0790293 
0.00743235 -9.86854 -0.0343349 
0.0790293 -0.0343349 -9.88702 
-9.86992 0.00869161 0.06144 
0.00869161 -9.87384 -0.0490798 
0.06144 -0.0490798 -9.88256 
-9.87093 0.00622048 0.0836454 
0.00622048 -9.85964 -0.0419267 
0.0836454 -0.0419267 -9.89575 
-8.7577 1.2263 -1.1356 
1.2263 -8.46919 -2.25251 
-1.1356 -2.25251 -12.358 
-9.89959 0.647165 0.36031 
0.647165 -7.94582 -1.05735 
0.36031 -1.05735 -11.7395 
-8.8736 1.04056 -0.704844 
1.04056 -9.42871 0.410141 
-0.704844 0.410141 -11.2826 
-8.94062 -0.302583 -0.875085 
-0.302583 -10.825 1.06053 
-0.875085 1.06053 -9.81927 
-9.81739 0.00203805 -0.338152 
0.00203805 -9.83248 -0.0534383 
-0.338152 -0.0534383 -9.76209 
-9.83224 0.00335607 -0.321112 
0.00335607 -9.79351 -0.0424436 
-0.321112 -0.0424436 -9.7862 
-9.78516 -0.00868904 -0.325211 
-0.00868904 -9.76432 -0.000762612 
-0.325211 -0.000762612 -9.86248 
-9.84995 -0.0160957 -0.27229 
-0.0160957 -9.83831 -0.0865162 
-0.27229 -0.0865162 -9.7237 
-9.47733 0.0858368 -0.269172 
0.0858368 -9.64716 0.205872 
-0.269172 0.205872 -9.69144 
-9.52758 0.0228976 -0.301228 
0.0228976 -9.53667 0.102213 
-0.301228 0.102213 -9.75168 
-9.42668 -0.0168287 -0.35893 
-0.0168287 -9.57593 -0.0321194 
-0.35893 -0.0321194 -9.81331 
-9.56787 0.0150098 -0.328165 
0.0150098 -9.45218 0.134224 
-0.328165 0.134224 -9.79588 
-9.70693 -0.0172803 -0.288218 
-0.0172803 -9.70053 -0.144905 
-0.288218 -0.144905 -9.69431 
-9.72213 -0.0104152 -0.272499 
-0.0104152 -9.71071 -0.156115 
-0.272499 -0.156115 -9.66894 
-9.7057 -0.00709287 -0.283507 
-0.00709287 -9.69696 -0.147893 
-0.283507 -0.147893 -9.69912 
-9.69298 -0.00584083 -0.271871 
-0.00584083 -9.69909 -0.154454 
-0.271871 -0.154454 -9.70971 
-9.87171 0.00527265 -0.228726 
0.00527265 -9.85195 0.0107555 
-0.228726 0.0107555 -9.86001 
-9.88171 0.00306911 -0.228743 
0.00306911 -9.86018 0.0205407 
-0.228743 0.0205407 -9.84178 
-9.89976 0.0102439 -0.232489 
0.0102439 -9.87779 -0.00650743 
-0.232489 -0.00650743 -9.80613 
-9.87866 0.00403949 -0.229362 
0.00403949 -9.86147 0.022886 
-0.229362 0.022886 -9.84354 
-9.63889 -0.0817981 -0.0411428 
-0.0817981 -9.72902 0.225933 
-0.0411428 0.225933 -9.18171 
-9.57503 -0.0399843 0.100961 
-0.0399843 -9.65094 0.193983 
0.100961 0.193983 -9.32365 
-9.57438 -0.0218199 0.116776 
-0.0218199 -9.67191 0.130987 
0.116776 0.130987 -9.30333 
-9.47434 -0.119753 0.0467968 
-0.119753 -9.48018 0.285724 
0.0467968 0.285724 -9.5951 
-9.39736 -0.0233548 -0.0862171 
-0.0233548 -9.2883 -0.397367 
-0.0862171 -0.397367 -9.68195 
-9.28592 -0.0559811 -0.166708 
-0.0559811 -9.22053 -0.598118 
-0.166708 -0.598118 -9.86117 
-9.41823 0.00409259 -0.0811043 
0.00409259 -9.23896 -0.29074 
-0.0811043 -0.29074 -9.71043 
-9.45955 0.0281516 -0.0807341 
0.0281516 -9.44481 -0.369801 
-0.0807341 -0.369801 -9.46326 
-8.89141 -0.104944 -0.549231 
-0.104944 -9.54709 -0.210503 
-0.549231 -0.210503 -10.0319 
-8.86967 -0.37107 -0.00862522 
-0.37107 -9.2432 -0.396989 
-0.00862522 -0.396989 -10.3575 
-9.05815 -0.143496 -0.267679 
-0.143496 -9.44696 -0.286671 
-0.267679 -0.286671 -9.96529 
-9.41273 -0.0329929 -0.308104 
-0.0329929 -9.60067 -0.442354 
-0.308104 -0.442354 -9.45699 
-9.65096 -0.0128828 -0.058457 
-0.0128828 -9.71008 -0.229441 
-0.058457 -0.229441 -9.54995 
-9.67157 0.0255778 -0.0515042 
0.0255778 -9.6709 -0.24132 
-0.0515042 -0.24132 -9.56854 
-9.57664 -0.0441309 -0.0650855 
-0.0441309 -9.72888 -0.163362 
-0.0650855 -0.163362 -9.60548 
-9.61701 -0.0977587 -0.00349029 
-0.0977587 -9.84493 -0.361683 
-0.00349029 -0.361683 -9.44905 
-7.69097 0.939507 1.11156 
0.939507 -11.7067 0.213943 
1.11156 0.213943 -18.8372 
-13.349 0.805903 1.27985 
0.805903 -16.709 -0.370102 
1.27985 -0.370102 -8.17681 
-8.53382 1.24515 0.467122 
1.24515 -11.7571 1.4027 
0.467122 1.4027 -17.9439 
-10.7145 1.11718 -4.7457 
1.11718 -11.7833 -1.4883 
-4.7457 -1.4883 -15.7371 
-9.59739 0.0134434 0.00364484 
0.0134434 -9.67168 -0.0522003 
0.00364484 -0.0522003 -9.84601 
-9.65514 -0.00767179 -0.0110326 
-0.00767179 -9.57658 0.0115745 
-0.0110326 0.0115745 -9.88336 
-9.64619 0.011979 -0.0248242 
0.011979 -9.64655 0.0527115 
-0.0248242 0.0527115 -9.82233 
-9.63106 0.00210361 -0.0223309 
0.00210361 -9.63482 0.00690137 
-0.0223309 0.00690137 -9.84919 
-9.49834 -0.0853836 -0.199916 
-0.0853836 -9.38953 0.349838 
-0.199916 0.349838 -9.44744 
-9.49214 -0.00791014 -0.22332 
-0.00791014 -9.40184 0.42736 
-0.22332 0.42736 -9.44133 
-9.48598 -0.129713 -0.271566 
-0.129713 -9.45955 0.382901 
-0.271566 0.382901 -9.38979 
-9.47972 -0.0435295 -0.362745 
-0.0435295 -9.43846 0.303896 
-0.362745 0.303896 -9.41713 
-10.6638 -0.517595 0.805443 
-0.517595 -8.58375 -3.55334 
0.805443 -3.55334 -7.36003 
-10.8629 1.28003 -0.718754 
1.28003 -7.90181 -1.51693 
-0.718754 -1.51693 -7.84295 
-11.0855 0.291998 -0.325407 
0.291998 -8.36193 -1.02078 
-0.325407 -1.02078 -7.16021 
-8.98757 0.170122 -0.708583 
0.170122 -7.67314 -1.37953 
-0.708583 -1.37953 -9.94691 
-10.4686 0.601455 0.725077 
0.601455 -7.73831 1.64208 
0.725077 1.64208 -8.6467 
-10.0759 0.276171 1.30737 
0.276171 -7.58579 1.69259 
1.30737 1.69259 -9.19191 
-8.73455 0.375108 0.121686 
0.375108 -8.76633 1.28788 
0.121686 1.28788 -9.35272 
-9.26799 1.43706 4.2295 
1.43706 -8.27687 -0.256985 
4.2295 -0.256985 -9.30873 
-8.40658 0.323501 -3.12582 
0.323501 -8.04324 1.21928 
-3.12582 1.21928 -5.8831 
-8.54136 -0.555564 -4.17854 
-0.555564 -9.72261 1.80571 
-4.17854 1.80571 -4.06896 
-6.25709 -0.425866 -2.46582 
-0.425866 -9.24559 0.53972 
-2.46582 0.53972 -6.83024 
-9.71056 0.60242 0.0359122 
0.60242 -6.91354 1.05173 
0.0359122 1.05173 -5.70882 
-10.0992 -0.230239 -0.00158961 
-0.230239 -9.70025 0.103423 
-0.00158961 0.103423 -8.88884 
-9.59038 -0.177547 0.0483367 
-0.177547 -9.74879 -0.267934 
0.0483367 -0.267934 -9.34912 
-9.52075 0.314029 -0.444112 
0.314029 -9.80004 -0.36535 
-0.444112 -0.36535 -9.3675 
-9.64091 -0.269888 0.3349 
-0.269888 -9.43325 0.148259 
0.3349 0.148259 -9.61414 
-9.50821 -1.4476 -0.969636 
-1.4476 -9.40178 1.55871 
-0.969636 1.55871 -11.5338 
-10.6487 -0.08032 -0.702794 
-0.08032 -9.57441 1.03997 
-0.702794 1.03997 -10.2207 
-10.1282 -0.379907 -1.01248 
-0.379907 -10.544 0.810738 
-1.01248 0.810738 -9.77154 
-9.13555 -0.520614 -0.10827 
-0.520614 -9.62511 0.204442 
-0.10827 0.204442 -11.6831 
-9.75009 0.0149199 0.00672847 
0.0149199 -9.75378 -0.322313 
0.00672847 -0.322313 -9.94496 
-9.80452 0.0117959 -0.00439151 
0.0117959 -9.84579 -0.299802 
-0.00439151 -0.299802 -9.79852 
-9.85523 -0.00483101 -0.0010284 
-0.00483101 -9.85537 -0.35891 
-0.0010284 -0.35891 -9.73823 
-9.79716 -0.0168244 0.0198145 
-0.0168244 -9.85474 -0.294349 
0.0198145 -0.294349 -9.79693 
-9.16305 0.283502 -0.495361 
0.283502 -10.3256 -0.420192 
-0.495361 -0.420192 -9.58425 
-9.47613 -0.00280079 -0.653387 
-0.00280079 -9.93222 -0.324608 
-0.653387 -0.324608 -9.66453 
-9.796 0.037656 -0.451082 
0.037656 -9.45872 0.143733 
-0.451082 0.143733 -9.81816 
-9.19273 -0.203795 -0.573303 
-0.203795 -9.90772 0.0118311 
-0.573303 0.0118311 -9.97243 
-9.92704 -0.0196392 0.151674 
-0.0196392 -9.89456 0.00154622 
0.151674 0.00154622 -9.9162 
-9.9321 -0.00859333 0.136524 
-0.00859333 -9.89101 -0.000176817 
0.136524 -0.000176817 -9.91468 
-9.88352 0.0456693 0.156546 
0.0456693 -9.89333 -0.0083053 
0.156546 -0.0083053 -9.96094 
-9.92177 0.0228605 0.114697 
0.0228605 -9.92833 0.0275278 
0.114697 0.0275278 -9.88769 
-9.80443 0.0152639 0.09424 
0.0152639 -9.75916 0.336257 
0.09424 0.336257 -9.82058 
-9.80531 0.017022 0.111766 
0.017022 -9.78092 0.304042 
0.111766 0.304042 -9.79795 
-9.77653 -0.00950277 0.0925689 
-0.00950277 -9.83717 0.346626 
0.0925689 0.346626 -9.77047 
-9.76299 -0.0207618 0.0538859 
-0.0207618 -9.78777 0.247283 
0.0538859 0.247283 -9.83342 
-9.13043 -0.712541 -0.263996 
-0.712541 -11.8421 -0.354088 
-0.263996 -0.354088 -12.9144 
-9.72661 0.534706 -0.538656 
0.534706 -12.0056 0.14061 
-0.538656 0.14061 -12.1547 
-9.33133 -0.318238 -0.213241 
-0.318238 -11.759 -0.593631 
-0.213241 -0.593631 -12.7966 
-9.6353 -0.728742 0.928175 
-0.728742 -12.2765 -1.21729 
0.928175 -1.21729 -11.975 
-9.75113 0.0024191 0.16366 
0.0024191 -9.73664 -0.260983 
0.16366 -0.260983 -9.71343 
-9.75143 0.0604006 0.192583 
0.0604006 -9.82949 -0.2117 
0.192583 -0.2117 -9.62028 
-9.74244 0.00107374 0.182876 
0.00107374 -9.73326 -0.284985 
0.182876 -0.284985 -9.72549 
-9.70886 0.0113516 0.178341 
0.0113516 -9.70046 -0.216864 
0.178341 -0.216864 -9.79187 
-9.95892 0.00439296 0.100957 
0.00439296 -9.97429 -0.13701 
0.100957 -0.13701 -9.94712 
-9.9254 -0.00569371 0.0814496 
-0.00569371 -9.9172 -0.123986 
0.0814496 -0.123986 -10.0377 
-9.94722 -0.00958904 0.0979881 
-0.00958904 -9.96488 -0.128119 
0.0979881 -0.128119 -9.96823 
-9.96891 0.0110026 0.105031 
0.0110026 -9.9787 -0.120552 
0.105031 -0.120552 -9.93272 
-9.37885 -0.163228 0.223148 
-0.163228 -9.66115 -0.301225 
0.223148 -0.301225 -9.75743 
-9.27277 -0.0792513 0.538372 
-0.0792513 -9.72532 -0.0239376 
0.538372 -0.0239376 -9.79934 
-9.62303 0.104163 0.287603 
0.104163 -9.502 0.11849 
0.287603 0.11849 -9.67239 
-9.44765 0.00256308 0.417028 
0.00256308 -9.57706 -0.260655 
0.417028 -0.260655 -9.77273 
-8.2746 2.23724 2.31329 
2.23724 -11.8512 -1.17619 
2.31329 -1.17619 -18.9202 
-10.9496 -0.812765 -0.443768 
-0.812765 -14.7248 0.764036 
-0.443768 0.764036 -13.3716 
-6.20652 -1.17539 2.02142 
-1.17539 -9.88705 -1.06277 
2.02142 -1.06277 -22.9524 
-7.79285 -0.366154 -1.01992 
-0.366154 -16.6693 -3.34505 
-1.01992 -3.34505 -14.5838 
-9.64627 0.0368178 0.231723 
0.0368178 -9.6239 0.259633 
0.231723 0.259633 -9.58666 
-9.63864 0.0180105 0.190754 
0.0180105 -9.62995 0.344167 
0.190754 0.344167 -9.58824 
-9.63942 0.0133068 0.219167 
0.0133068 -9.61896 0.270861 
0.219167 0.270861 -9.59845 
-9.63026 0.0230267 0.211874 
0.0230267 -9.64016 0.293094 
0.211874 0.293094 -9.58641 
-8.98271 0.633001 1.58435 
0.633001 -10.4062 0.502028 
1.58435 0.502028 -9.97971 
-8.8618 -0.116045 0.556265 
-0.116045 -9.954 -0.0779795 
0.556265 -0.0779795 -10.5528 
-9.09632 -0.183953 0.749074 
-0.183953 -9.87661 -0.112657 
0.749074 -0.112657 -10.3957 
-9.3311 0.249367 -0.0529597 
0.249367 -9.3939 -0.0109512 
-0.0529597 -0.0109512 -10.6436 
-10.4567 -0.0523313 -0.013665 
-0.0523313 -10.5547 0.0128729 
-0.013665 0.0128729 -11.0938 
-10.343 0.0418106 -0.0106759 
0.0418106 -10.1795 0.0833142 
-0.0106759 0.0833142 -11.5828 
-10.4175 0.0478513 -0.0109605 
0.0478513 -10.5402 0.0498432 
-0.0109605 0.0498432 -11.1476 
-10.4653 0.122514 -0.147681 
0.122514 -10.6732 0.0333627 
-0.147681 0.0333627 -10.9668 
-9.85414 -0.00323148 -0.0345377 
-0.00323148 -9.8682 -0.227472 
-0.0345377 -0.227472 -9.84337 
-9.86534 -0.00114661 -0.0146754 
-0.00114661 -9.88199 -0.216988 
-0.0146754 -0.216988 -9.81837 
-9.86709 0.00479107 -0.0307822 
0.00479107 -9.87662 -0.230353 
-0.0307822 -0.230353 -9.82199 
-9.85732 0.000828177 -0.0353832 
0.000828177 -9.87173 -0.226504 
-0.0353832 -0.226504 -9.83665 
-9.84803 -0.125526 -0.434602 
-0.125526 -9.69369 0.0191419 
-0.434602 0.0191419 -10.4986 
-9.12341 0.291878 -0.696057 
0.291878 -9.90911 0.0270143 
-0.696057 0.0270143 -11.0078 
-10.0435 0.344323 -0.720545 
0.344323 -9.57011 0.0258815 
-0.720545 0.0258815 -10.4266 
-9.9462 -0.143746 0.103988 
-0.143746 -9.67655 -0.0725228 
0.103988 -0.0725228 -10.4175 
-9.26776 -0.283103 -0.000726094 
-0.283103 -11.1264 0.696003 
-0.000726094 0.696003 -12.2397 
-9.66243 -0.0201153 -0.0254734 
-0.0201153 -10.9208 -0.655126 
-0.0254734 -0.655126 -12.0506 
-10.0048 0.184134 0.0179144 
0.184134 -10.7302 -0.419262 
0.0179144 -0.419262 -11.8989 
-10.228 0.13898 -0.281718 
0.13898 -10.579 0.19477 
-0.281718 0.19477 -11.8269 
-9.56216 -0.115536 -0.17385 
-0.115536 -9.39416 -0.437774 
-0.17385 -0.437774 -9.55768 
-9.39394 0.0135918 -0.19778 
0.0135918 -9.5947 -0.390338 
-0.19778 -0.390338 -9.52535 
-9.45165 0.129341 -0.234613 
0.129341 -9.67862 -0.826845 
-0.234613 -0.826845 -9.38372 
-9.63847 -0.104757 -0.0695904 
-0.104757 -9.46954 -0.363327 
-0.0695904 -0.363327 -9.40598 
-9.72694 -0.00314857 -0.347873 
-0.00314857 -9.71382 -0.0133815 
-0.347873 -0.0133815 -9.6595 
-9.75368 0.00763468 -0.302448 
0.00763468 -9.74072 -0.0145837 
-0.302448 -0.0145837 -9.60586 
-9.7562 -0.00794088 -0.312326 
-0.00794088 -9.70231 -0.0136126 
-0.312326 -0.0136126 -9.64175 
-9.75647 -0.00627381 -0.338046 
-0.00627381 -9.71186 -0.0346505 
-0.338046 -0.0346505 -9.63194 
-9.64537 0.0276639 -0.0578308 
0.0276639 -9.60738 -0.368625 
-0.0578308 -0.368625 -9.73572 
-9.68749 -0.0515986 -0.0528597 
-0.0515986 -9.76789 -0.323433 
-0.0528597 -0.323433 -9.53309 
-9.68695 0.0162467 -0.0429648 
0.0162467 -9.63429 -0.353168 
-0.0429648 -0.353168 -9.66722 
-9.66969 0.0311366 0.0260004 
0.0311366 -9.64085 -0.32082 
0.0260004 -0.32082 -9.67792 
-9.86538 -0.00278001 -0.0770782 
-0.00278001 -9.768 -0.0014536 
-0.0770782 -0.0014536 -9.82231 
-9.79059 -0.00773114 -0.0739051 
-0.00773114 -9.79784 -0.028569 
-0.0739051 -0.028569 -9.86727 
-9.80149 -0.0106336 -0.0891573 
-0.0106336 -9.81134 -0.0365304 
-0.0891573 -0.0365304 -9.84287 
-9.78065 0.00338768 -0.0760486 
0.00338768 -9.78947 -0.05156 
-0.0760486 -0.05156 -9.88557 
-9.63501 0.0506333 -0.213047 
0.0506333 -9.52939 0.0507095 
-0.213047 0.0507095 -9.60363 
-9.64938 0.0818239 -0.255549 
0.0818239 -9.61675 0.0239151 
-0.255549 0.0239151 -9.5019 
-9.60807 0.0228113 -0.216465 
0.0228113 -9.57337 0.0981945 
-0.216465 0.0981945 -9.58659 
-9.65222 0.0736569 -0.216971 
0.0736569 -9.56765 0.0614352 
-0.216971 0.0614352 -9.54816 
-9.43886 -0.0096813 -0.0361672 
-0.0096813 -9.578 -0.00595896 
-0.0361672 -0.00595896 -9.90606 
-9.57086 -0.00622575 -0.0205062 
-0.00622575 -9.57355 -0.0260222 
-0.0205062 -0.0260222 -9.7785 
-9.4871 -0.0214063 -0.0601401 
-0.0214063 -9.56193 -0.0153406 
-0.0601401 -0.0153406 -9.87388 
-9.42761 0.0575991 -0.134879 
0.0575991 -9.60532 0.0279384 
-0.134879 0.0279384 -9.88998 
-6.28186 -0.130946 0.00644736 
-0.130946 -6.82911 -0.656932 
0.00644736 -0.656932 -1.40314 
-6.82396 0.730584 0.317306 
0.730584 -5.17456 0.593604 
0.317306 0.593604 -2.51559 
-6.37197 -0.330802 -0.143402 
-0.330802 -6.7993 -0.59411 
-0.143402 -0.59411 -1.34283 
-5.06052 -0.836475 -0.768688 
-0.836475 -6.6414 -2.89062 
-0.768688 -2.89062 -2.81219 
-9.55037 -0.0630202 0.116666 
-0.0630202 -9.62263 0.226709 
0.116666 0.226709 -9.59315 
-9.56679 -0.0736291 0.0673073 
-0.0736291 -9.63021 0.172366 
0.0673073 0.172366 -9.56916 
-9.60572 -0.0512158 0.0782437 
-0.0512158 -9.67515 0.15763 
0.0782437 0.15763 -9.48529 
-9.5712 -0.037843 0.105948 
-0.037843 -9.66337 0.166906 
0.105948 0.166906 -9.53159 
-9.85463 -0.00128604 -0.0717013 
-0.00128604 -9.8601 0.307862 
-0.0717013 0.307862 -9.85586 
-9.87309 0.000163588 -0.0688679 
0.000163588 -9.86462 0.294402 
-0.0688679 0.294402 -9.83289 
-9.85518 0.00985115 -0.0692138 
0.00985115 -9.87423 0.320922 
-0.0692138 0.320922 -9.84119 
-9.8606 -0.00929511 -0.0790409 
-0.00929511 -9.86306 0.31115 
-0.0790409 0.31115 -9.84694 
-9.86688 0.0255695 0.13468 
0.0255695 -9.84376 -0.278914 
0.13468 -0.278914 -9.82826 
-9.86845 0.0140542 0.083415 
0.0140542 -9.8286 -0.294197 
0.083415 -0.294197 -9.84185 
-9.86884 0.0139595 0.0993609 
0.0139595 -9.83812 -0.299092 
0.0993609 -0.299092 -9.83194 
-9.87077 -0.0117115 0.14285 
-0.0117115 -9.80479 -0.241639 
0.14285 -0.241639 -9.86334 
-9.98436 0.00819884 -0.117777 
0.00819884 -9.95414 0.252973 
-0.117777 0.252973 -9.95887 
-9.98166 -0.00417847 -0.115471 
-0.00417847 -9.96283 0.26261 
-0.115471 0.26261 -9.95287 
-9.92969 -0.00354971 -0.13405 
-0.00354971 -9.93156 0.235248 
-0.13405 0.235248 -10.0361 
-9.98032 -0.000389548 -0.128054 
-0.000389548 -9.97765 0.262308 
-0.128054 0.262308 -9.93939 
-9.96137 0.0101597 0.177025 
0.0101597 -9.99732 -0.224622 
0.177025 -0.224622 -9.96295 
-9.98326 -0.00858495 0.165053 
-0.00858495 -9.97849 -0.222126 
0.165053 -0.222126 -9.95988 
-9.95814 0.0211602 0.192781 
0.0211602 -9.93901 -0.210659 
0.192781 -0.210659 -10.0245 
-9.98028 0.00416152 0.162973 
0.00416152 -9.99064 -0.219095 
0.162973 -0.219095 -9.95071 
-9.11776 -0.101031 -0.345211 
-0.101031 -9.41426 0.300123 
-0.345211 0.300123 -9.73434 
-9.2544 -0.146684 -0.564287 
-0.146684 -9.58393 0.129687 
-0.564287 0.129687 -9.42803 
-9.38625 -0.0558304 -0.445151 
-0.0558304 -9.56716 -0.0128836 
-0.445151 -0.0128836 -9.31295 
-9.34072 -0.0208114 -0.522427 
-0.0208114 -9.38269 0.242368 
-0.522427 0.242368 -9.54296 
-9.86564 0.00712921 -0.00323128 
0.00712921 -9.85782 -0.0302297 
-0.00323128 -0.0302297 -9.92855 
-9.8709 -0.000687406 0.0302518 
-0.000687406 -9.87038 -0.0901695 
0.0302518 -0.0901695 -9.91072 
-9.86102 -0.0128781 0.0032304 
-0.0128781 -9.85925 -0.0412671 
0.0032304 -0.0412671 -9.93174 
-9.86199 -0.00581633 -0.000338786 
-0.00581633 -9.87082 -0.0730729 
-0.000338786 -0.0730729 -9.9192 
-9.64693 -0.0564413 -0.0526787 
-0.0564413 -9.53899 -0.127543 
-0.0526787 -0.127543 -9.643 
-9.64214 0.00523013 -0.123108 
0.00523013 -9.54334 -0.0402085 
-0.123108 -0.0402085 -9.64345 
-9.62503 0.0197114 -0.0629635 
0.0197114 -9.53643 -0.0457717 
-0.0629635 -0.0457717 -9.66746 
-9.61984 0.0230931 -0.137923 
0.0230931 -9.60849 -0.0165371 
-0.137923 -0.0165371 -9.60059 
-9.85366 -0.00722667 0.0240844 
-0.00722667 -9.88372 0.272836 
0.0240844 0.272836 -9.84094 
-9.86115 -0.00508796 0.0275194 
-0.00508796 -9.89053 0.266769 
0.0275194 0.266769 -9.82664 
-9.86814 -0.000961302 0.020212 
-0.000961302 -9.89368 0.272771 
0.020212 0.272771 -9.8165 
-9.8541 -0.0126219 0.0264888 
-0.0126219 -9.8787 0.297491 
0.0264888 0.297491 -9.84552 
-8.39918 2.54799 1.65497 
2.54799 -8.55197 1.42329 
1.65497 1.42329 -3.76673 
-7.54672 -1.73356 3.2498 
-1.73356 -7.79257 1.40273 
3.2498 1.40273 -5.37859 
-9.10741 -1.13042 1.18403 
-1.13042 -10.1404 1.1317 
1.18403 1.1317 -1.47002 
-7.88975 0.565617 3.32635 
0.565617 -9.21507 0.898538 
3.32635 0.898538 -3.61305 
-9.65321 0.0506935 -0.175812 
0.0506935 -9.54145 -0.336023 
-0.175812 -0.336023 -9.59907 
-9.61742 0.00617685 -0.229298 
0.00617685 -9.54897 -0.328657 
-0.229298 -0.328657 -9.62733 
-9.61775 0.0257478 -0.178633 
0.0257478 -9.58394 -0.314525 
-0.178633 -0.314525 -9.59204 
-9.59687 0.0290321 -0.175554 
0.0290321 -9.58111 -0.299308 
-0.175554 -0.299308 -9.61575 
-9.91059 0.0867187 -0.0197191 
0.0867187 -10.0604 -0.114502 
-0.0197191 -0.114502 -10.6239 
-10.1459 0.142104 -0.090178 
0.142104 -10.3588 -0.123559 
-0.090178 -0.123559 -10.0901 
-9.83353 0.0164953 0.166967 
0.0164953 -9.69787 0.187508 
0.166967 0.187508 -11.0634 
-9.82373 0.270584 -0.610915 
0.270584 -10.0581 -0.0516592 
-0.610915 -0.0516592 -10.713 
-9.91101 -0.0025902 0.0495687 
-0.0025902 -9.90691 -0.218007 
0.0495687 -0.218007 -9.91946 
-9.89491 0.00427231 0.0597083 
0.00427231 -9.91405 -0.221643 
0.0597083 -0.221643 -9.92842 
-9.89334 0.0102173 0.0636842 
0.0102173 -9.95394 -0.184482 
0.0636842 -0.184482 -9.89009 
-9.9236 -0.003362 0.0609714 
-0.003362 -9.89693 -0.20246 
0.0609714 -0.20246 -9.91686 
-9.48691 0.161638 -0.25772 
0.161638 -9.18256 0.040072 
-0.25772 0.040072 -8.94724 
-9.46852 0.092222 -0.253831 
0.092222 -9.17175 0.0491303 
-0.253831 0.0491303 -8.97644 
-9.41437 -0.178444 -0.294539 
-0.178444 -9.22179 0.225197 
-0.294539 0.225197 -8.98055 
-9.6613 -0.025268 -0.441435 
-0.025268 -9.22886 -0.0421033 
-0.441435 -0.0421033 -8.72655 
-9.72975 -0.00701969 -0.0530444 
-0.00701969 -9.67867 0.0242717 
-0.0530444 0.0242717 -9.72683 
-9.69903 -0.0396558 -0.0823509 
-0.0396558 -9.62611 0.055456 
-0.0823509 0.055456 -9.8101 
-9.63357 -0.0546241 -0.0324668 
-0.0546241 -9.63726 0.0531787 
-0.0324668 0.0531787 -9.86441 
-9.58077 0.0510108 -0.266397 
0.0510108 -9.74383 0.10231 
-0.266397 0.10231 -9.81064 
-9.67784 -0.201493 0.0363183 
-0.201493 -10.1362 0.745488 
0.0363183 0.745488 -9.39254 
-10.1644 0.0983476 -0.340825 
0.0983476 -10.1352 0.749354 
-0.340825 0.749354 -8.90695 
-9.90398 -0.345902 -0.319773 
-0.345902 -9.85412 1.03876 
-0.319773 1.03876 -9.44844 
-9.59884 -0.224076 0.503991 
-0.224076 -9.80243 0.210777 
0.503991 0.210777 -9.80527 
-9.38416 -0.166662 0.386011 
-0.166662 -9.08202 0.153119 
0.386011 0.153119 -9.24301 
-9.50672 -0.362072 0.109718 
-0.362072 -8.79982 0.0400347 
0.109718 0.0400347 -9.40265 
-9.85322 -0.246712 0.335988 
-0.246712 -8.5602 0.770048 
0.335988 0.770048 -9.29577 
-9.94448 -0.423494 0.429894 
-0.423494 -8.5007 0.0697997 
0.429894 0.0697997 -9.26402 
-9.74523 0.0368254 0.0498255 
0.0368254 -9.81846 -0.0735982 
0.0498255 -0.0735982 -9.71144 
-9.73186 -0.000571774 0.0784728 
-0.000571774 -9.75233 -0.117523 
0.0784728 -0.117523 -9.79095 
-9.74112 0.0316689 0.0495934 
0.0316689 -9.80913 -0.133279 
0.0495934 -0.133279 -9.72488 
-9.7409 0.0116146 0.0833839 
0.0116146 -9.78627 -0.0977309 
0.0833839 -0.0977309 -9.74797 
-9.70988 0.0483907 -0.348947 
0.0483907 -9.70954 0.0389522 
-0.348947 0.0389522 -9.8731 
-9.78165 -0.0247648 -0.284949 
-0.0247648 -9.78142 0.00447067 
-0.284949 0.00447067 -9.72946 
-9.83583 0.0508484 -0.344227 
0.0508484 -9.83601 -0.0511738 
-0.344227 -0.0511738 -9.62068 
-9.77717 -0.0225035 -0.287757 
-0.0225035 -9.74796 -0.0178426 
-0.287757 -0.0178426 -9.76739 
-9.7733 -0.0283865 0.0577839 
-0.0283865 -9.77839 0.0853706 
0.0577839 0.0853706 -9.80851 
-9.7397 -0.0441209 0.0699638 
-0.0441209 -9.79862 0.0648204 
0.0699638 0.0648204 -9.82188 
-9.77469 -0.020375 0.0442735 
-0.020375 -9.78787 0.0726239 
0.0442735 0.0726239 -9.79764 
-9.76977 -0.0190742 0.0490302 
-0.0190742 -9.78761 0.074666 
0.0490302 0.074666 -9.80282 
-9.68225 -0.0101524 0.161194 
-0.0101524 -9.65437 -0.304546 
0.161194 -0.304546 -9.65024 
-9.6356 0.0245511 0.125636 
0.0245511 -9.67652 -0.325662 
0.125636 -0.325662 -9.67475 
-9.62824 -0.00211854 0.104118 
-0.00211854 -9.63801 -0.309427 
0.104118 -0.309427 -9.72062 
-9.69756 0.0107635 0.177873 
0.0107635 -9.7092 -0.284157 
0.177873 -0.284157 -9.58012 
-9.77713 -0.053873 0.0493391 
-0.053873 -9.6185 0.0511433 
0.0493391 0.0511433 -9.75732 
-9.71931 -0.0341177 0.0649664 
-0.0341177 -9.68688 -0.0228644 
0.0649664 -0.0228644 -9.74676 
-9.6196 -0.0178907 0.0729301 
-0.0178907 -9.75323 0.0601847 
0.0729301 0.0601847 -9.78012 
-9.72927 -0.0423295 -0.0237057 
-0.0423295 -9.65794 0.0591327 
-0.0237057 0.0591327 -9.76573 
-9.74306 -0.00627802 -0.227914 
-0.00627802 -9.7336 -0.185401 
-0.227914 -0.185401 -9.71904 
-9.75834 -0.00559942 -0.236892 
-0.00559942 -9.73277 -0.187559 
-0.236892 -0.187559 -9.70459 
-9.74648 -0.0158944 -0.240016 
-0.0158944 -9.73644 -0.187977 
-0.240016 -0.187977 -9.71278 
-9.757 0.00227436 -0.233176 
0.00227436 -9.70496 -0.185086 
-0.233176 -0.185086 -9.73375 
-11.1594 -0.0373041 0.178241 
-0.0373041 -10.9096 -0.0327354 
0.178241 -0.0327354 -11.1869 
-11.0825 -0.0687438 0.0753257 
-0.0687438 -10.8107 -0.0701133 
0.0753257 -0.0701133 -11.3627 
-11.0237 -0.048923 0.0685256 
-0.048923 -10.6543 -0.0119671 
0.0685256 -0.0119671 -11.578 
-11.1023 -0.0594211 0.168726 
-0.0594211 -10.9272 -0.204034 
0.168726 -0.204034 -11.2264 
-9.85803 -0.00868046 0.137962 
-0.00868046 -9.87895 -0.12176 
0.137962 -0.12176 -9.87619 
-9.90241 0.0122293 0.0877673 
0.0122293 -9.91256 -0.153466 
0.0877673 -0.153466 -9.7982 
-9.85624 -0.0143474 0.165114 
-0.0143474 -9.88656 -0.138462 
0.165114 -0.138462 -9.87036 
-9.88951 -0.00519379 0.121128 
-0.00519379 -9.86898 -0.140632 
0.121128 -0.140632 -9.85469 
-9.86785 -0.0139434 0.302765 
-0.0139434 -9.85744 0.00206964 
0.302765 0.00206964 -9.88065 
-9.8553 0.0100777 0.291845 
0.0100777 -9.84762 0.0390582 
0.291845 0.0390582 -9.90303 
-9.86824 -0.00908074 0.300372 
-0.00908074 -9.83878 -0.0118049 
0.300372 -0.0118049 -9.89892 
-9.88952 -0.0118509 0.306604 
-0.0118509 -9.89905 -0.020491 
0.306604 -0.020491 -9.81737 
-9.76098 0.0865743 -0.0574551 
0.0865743 -9.6612 0.0805668 
-0.0574551 0.0805668 -9.6347 
-9.74043 0.016271 -0.129233 
0.016271 -9.66884 0.133189 
-0.129233 0.133189 -9.64762 
-9.75238 0.0983835 -0.207193 
0.0983835 -9.69036 0.00206891 
-0.207193 0.00206891 -9.61414 
-9.7084 0.0324276 -0.173413 
0.0324276 -9.67469 -0.00649604 
-0.173413 -0.00649604 -9.67379 
-9.63549 -0.0121004 -0.00130866 
-0.0121004 -9.62379 0.0154938 
-0.00130866 0.0154938 -9.8805 
-9.65081 -0.006815 -0.035066 
-0.006815 -9.64525 0.0202979 
-0.035066 0.0202979 -9.84372 
-9.64158 -0.0133179 0.00190662 
-0.0133179 -9.61894 0.00477063 
0.00190662 0.00477063 -9.87926 
-9.62268 -0.0228795 0.00119758 
-0.0228795 -9.61872 0.0155703 
0.00119758 0.0155703 -9.89838 
-9.46234 0.137621 -0.312834 
0.137621 -9.47214 -0.255695 
-0.312834 -0.255695 -9.61043 
-9.45127 0.0658499 -0.115552 
0.0658499 -9.42289 -0.194044 
-0.115552 -0.194044 -9.67075 
-9.24438 0.115546 -0.341482 
0.115546 -9.53869 -0.411603 
-0.341482 -0.411603 -9.76184 
-9.4465 0.0822426 -0.39247 
0.0822426 -9.65443 -0.271173 
-0.39247 -0.271173 -9.44397 
-9.91138 -0.0122144 -0.0700945 
-0.0122144 -9.89386 0.265636 
-0.0700945 0.265636 -9.9504 
-9.90776 0.00736482 -0.0580081 
0.00736482 -9.93734 0.270352 
-0.0580081 0.270352 -9.91054 
-9.93466 -0.00632879 -0.064649 
-0.00632879 -9.92452 0.252747 
-0.064649 0.252747 -9.89644 
-9.913 0.00101181 -0.0609026 
0.00101181 -9.9279 0.26784 
-0.0609026 0.26784 -9.91474 
-9.63374 -0.0781142 -0.485273 
-0.0781142 -9.61924 0.324443 
-0.485273 0.324443 -10.2154 
-9.6117 -0.14766 -0.43732 
-0.14766 -9.42826 0.268027 
-0.43732 0.268027 -10.4284 
-9.63266 -0.0284318 -0.627327 
-0.0284318 -9.68585 0.355912 
-0.627327 0.355912 -10.1498 
-9.29813 -0.000384764 -0.432918 
-0.000384764 -9.88422 0.304798 
-0.432918 0.304798 -10.286 
-9.71831 -0.0215485 0.0917064 
-0.0215485 -9.72812 0.302229 
0.0917064 0.302229 -9.69558 
-9.73645 -0.00283939 0.100318 
-0.00283939 -9.73104 0.318611 
0.100318 0.318611 -9.67452 
-9.70143 -0.0234896 0.115156 
-0.0234896 -9.70018 0.316152 
0.115156 0.316152 -9.7404 
-9.7558 -0.00495397 0.0868531 
-0.00495397 -9.73491 0.311309 
0.0868531 0.311309 -9.6513 
-9.74878 0.118767 0.327325 
0.118767 -9.57896 -0.155252 
0.327325 -0.155252 -9.31292 
-9.72603 0.117567 0.20464 
0.117567 -9.58316 -0.141367 
0.20464 -0.141367 -9.33147 
-9.80238 0.0204309 0.17414 
0.0204309 -9.6798 -0.0939643 
0.17414 -0.0939643 -9.15848 
-9.63319 0.0710613 0.239586 
0.0710613 -9.51922 -0.262994 
0.239586 -0.262994 -9.48825 
-9.65176 0.0471595 -0.0480261 
0.0471595 -9.64701 -0.00401954 
-0.0480261 -0.00401954 -9.85376 
-9.67349 0.00281764 0.0150391 
0.00281764 -9.62832 -0.00326232 
0.0150391 -0.00326232 -9.85072 
-9.66948 0.00733603 0.00626406 
0.00733603 -9.64101 0.00888135 
0.00626406 0.00888135 -9.84204 
-9.6471 0.000981419 0.0189587 
0.000981419 -9.62167 0.00970451 
0.0189587 0.00970451 -9.88377 
-9.84798 -0.0170349 -0.130819 
-0.0170349 -9.89527 -0.255373 
-0.130819 -0.255373 -9.7746 
-9.84874 0.0227956 -0.121968 
0.0227956 -9.8268 -0.256072 
-0.121968 -0.256072 -9.84232 
-9.87021 -0.000640881 -0.113819 
-0.000640881 -9.87423 -0.301862 
-0.113819 -0.301862 -9.77341 
-9.86566 0.00629239 -0.0801748 
0.00629239 -9.79559 -0.268832 
-0.0801748 -0.268832 -9.8566 
-9.89408 -0.00191886 0.0581618 
-0.00191886 -9.8867 0.0259107 
0.0581618 0.0259107 -9.93707 
-9.90608 -0.00726173 0.0476701 
-0.00726173 -9.89261 0.0236899 
0.0476701 0.0236899 -9.91916 
-9.89785 -0.00207516 0.066893 
-0.00207516 -9.88075 0.0189786 
0.066893 0.0189786 -9.93925 
-9.90239 -0.00397154 0.0642697 
-0.00397154 -9.89236 0.0222538 
0.0642697 0.0222538 -9.9231 
-9.78141 0.0223459 -0.168479 
0.0223459 -9.73863 -0.00265605 
-0.168479 -0.00265605 -9.71944 
-9.83198 -0.0581978 -0.104896 
-0.0581978 -9.80221 -0.0793268 
-0.104896 -0.0793268 -9.60529 
-9.7798 -0.00811921 -0.160985 
-0.00811921 -9.70881 -0.0187779 
-0.160985 -0.0187779 -9.75087 
-9.8327 -0.00362506 -0.125837 
-0.00362506 -9.70739 0.0112238 
-0.125837 0.0112238 -9.69939 
-9.73321 -0.0371605 0.0541424 
-0.0371605 -9.74955 0.0928697 
0.0541424 0.0928697 -9.75403 
-9.75678 0.0262554 0.0897611 
0.0262554 -9.70257 0.0309152 
0.0897611 0.0309152 -9.77744 
-9.76788 -0.00174298 0.058184 
-0.00174298 -9.71252 0.0472945 
0.058184 0.0472945 -9.75639 
-9.79168 -0.0237242 0.0423176 
-0.0237242 -9.74214 0.13739 
0.0423176 0.13739 -9.70297 
-9.18229 0.151108 -0.383512 
0.151108 -9.55806 -0.369863 
-0.383512 -0.369863 -10.2746 
-9.73861 -0.00689855 0.0222271 
-0.00689855 -9.38092 -0.237923 
0.0222271 -0.237923 -9.89545 
-9.55859 0.0434621 -0.231267 
0.0434621 -9.62013 -0.325123 
-0.231267 -0.325123 -9.83626 
-9.54814 0.0521334 -0.33127 
0.0521334 -9.65499 -0.280472 
-0.33127 -0.280472 -9.81185 
-9.84763 0.000308242 0.157813 
0.000308242 -9.82389 0.0966416 
0.157813 0.0966416 -9.83957 
-9.85169 -0.0062353 0.146484 
-0.0062353 -9.83695 0.0854376 
0.146484 0.0854376 -9.82244 
-9.87869 -0.0228892 0.147182 
-0.0228892 -9.87112 0.065313 
0.147182 0.065313 -9.76127 
-9.84815 -0.0104618 0.152627 
-0.0104618 -9.85005 0.0723945 
0.152627 0.0723945 -9.81289 
-0.593835 2.00109 -4.36876 
2.00109 -8.15367 -0.367125 
-4.36876 -0.367125 -23.634 
-7.84887 0.168211 2.43982 
0.168211 -15.1039 0.243483 
2.43982 0.243483 -9.42877 
-2.70106 4.874 -4.03781 
4.874 -8.89383 0.262363 
-4.03781 0.262363 -20.7867 
-10.8822 0.329453 -3.01367 
0.329453 -9.49685 -1.23732 
-3.01367 -1.23732 -12.0025 
-9.66484 0.0200251 -0.257993 
0.0200251 -9.5831 -0.309644 
-0.257993 -0.309644 -9.55926 
-9.61366 0.0206261 -0.376472 
0.0206261 -9.72744 -0.300932 
-0.376472 -0.300932 -9.46609 
-9.74052 0.0615332 -0.144257 
0.0615332 -9.6163 -0.386926 
-0.144257 -0.386926 -9.45039 
-9.56786 0.0298492 -0.122641 
0.0298492 -9.53928 -0.189404 
-0.122641 -0.189404 -9.70006 
-9.90767 -0.00305109 0.0196155 
-0.00305109 -9.9137 -0.00325367 
0.0196155 -0.00325367 -9.96604 
-9.89759 0.00297112 0.00977064 
0.00297112 -9.90987 -0.0210963 
0.00977064 -0.0210963 -9.97995 
-9.90976 0.00805461 0.00390839 
0.00805461 -9.90863 -0.0080851 
0.00390839 -0.0080851 -9.96901 
-9.91417 0.00201574 0.017003 
0.00201574 -9.92894 -0.00175155 
0.017003 -0.00175155 -9.9443 
-9.78096 -0.104799 0.436348 
-0.104799 -9.69692 0.188295 
0.436348 0.188295 -9.43823 
-9.73359 -0.0908122 0.177296 
-0.0908122 -9.88584 -0.0400787 
0.177296 -0.0400787 -9.29668 
-9.80318 -0.0148803 0.3703 
-0.0148803 -9.75096 0.35715 
0.3703 0.35715 -9.36197 
-9.66497 -0.0587901 0.168867 
-0.0587901 -9.6858 0.133999 
0.168867 0.133999 -9.56534 
-9.98257 -0.0124752 0.213799 
-0.0124752 -9.9727 0.0651184 
0.213799 0.0651184 -9.95264 
-9.9399 -0.00235052 0.23866 
-0.00235052 -9.93588 0.0589663 
0.23866 0.0589663 -10.0321 
-9.98455 -0.00139545 0.217291 
-0.00139545 -9.96314 0.0712908 
0.217291 0.0712908 -9.96022 
-9.99559 -0.00364922 0.22923 
-0.00364922 -9.97919 0.0810507 
0.22923 0.0810507 -9.93313 
-9.77728 -0.00766983 0.0210259 
-0.00766983 -9.75198 0.349087 
0.0210259 0.349087 -9.64331 
-9.62935 0.039831 -0.0179497 
0.039831 -9.72089 0.30689 
-0.0179497 0.30689 -9.82234 
-9.70183 -0.0213449 0.0126782 
-0.0213449 -9.77241 0.360806 
0.0126782 0.360806 -9.69833 
-9.8074 0.0421702 0.0424356 
0.0421702 -9.78526 0.263685 
0.0424356 0.263685 -9.57991 
-9.90626 -0.00169709 0.016501 
-0.00169709 -9.91417 -0.0798311 
0.016501 -0.0798311 -9.95252 
-9.90905 0.00215423 0.0293605 
0.00215423 -9.9127 -0.0707181 
0.0293605 -0.0707181 -9.95121 
-9.91437 -0.00144936 0.0217907 
-0.00144936 -9.92227 -0.0572387 
0.0217907 -0.0572387 -9.93632 
-9.90997 0.00581738 0.0114335 
0.00581738 -9.92238 -0.0717508 
0.0114335 -0.0717508 -9.9406 
-9.7402 -0.0185351 -0.206376 
-0.0185351 -9.70716 -0.130316 
-0.206376 -0.130316 -9.66362 
-9.7435 -0.0151082 -0.236171 
-0.0151082 -9.71602 -0.151424 
-0.236171 -0.151424 -9.65148 
-9.73382 -0.0114998 -0.225243 
-0.0114998 -9.71569 -0.155575 
-0.225243 -0.155575 -9.66147 
-9.69245 -0.00399294 -0.244171 
-0.00399294 -9.73016 -0.15349 
-0.244171 -0.15349 -9.68837 
-9.89358 0.0127417 0.150652 
0.0127417 -9.92507 -0.21333 
0.150652 -0.21333 -9.89486 
-9.93929 -0.00813593 0.171893 
-0.00813593 -9.8454 -0.214636 
0.171893 -0.214636 -9.92883 
-9.90844 0.00749684 0.15021 
0.00749684 -9.91345 -0.206717 
0.15021 -0.206717 -9.89162 
-9.9336 -0.00647688 0.113706 
-0.00647688 -9.90341 -0.203134 
0.113706 -0.203134 -9.87651 
-9.23386 0.106248 0.236007 
0.106248 -8.68744 -0.656114 
0.236007 -0.656114 -10.0574 
-9.30949 0.319809 -0.444787 
0.319809 -9.28662 -0.630392 
-0.444787 -0.630392 -9.38261 
-9.76091 0.059956 -0.421709 
0.059956 -9.10923 -0.234732 
-0.421709 -0.234732 -9.10858 
-9.21227 0.297885 -0.209956 
0.297885 -9.40616 -0.616154 
-0.209956 -0.616154 -9.36029 
-11.5764 0.0901258 -0.305321 
0.0901258 -12.0489 0.0487414 
-0.305321 0.0487414 -11.7571 
-11.5681 0.0863341 -0.232405 
0.0863341 -12.0781 -0.0892411 
-0.232405 -0.0892411 -11.7362 
-11.3008 0.104303 0.24091 
0.104303 -11.7098 0.0604351 
0.24091 0.0604351 -12.3718 
-11.1693 0.313348 -0.144323 
0.313348 -12.0238 -0.257886 
-0.144323 -0.257886 -12.1893 
-9.90111 0.011151 0.248705 
0.011151 -9.91543 -0.182023 
0.248705 -0.182023 -9.92377 
-9.90792 0.0317789 0.234394 
0.0317789 -9.88866 -0.155446 
0.234394 -0.155446 -9.94373 
-9.91137 -0.00228284 0.241517 
-0.00228284 -9.91346 -0.155596 
0.241517 -0.155596 -9.91548 
-9.93244 0.0136878 0.27072 
0.0136878 -9.9187 -0.198628 
0.27072 -0.198628 -9.88917 
-8.53229 0.919652 -3.51258 
0.919652 -7.50595 -0.740469 
-3.51258 -0.740469 2.13121 
-4.36253 -1.72736 -1.28394 
-1.72736 -6.16696 -0.824418 
-1.28394 -0.824418 -3.37754 
-4.71032 0.844939 -1.44485 
0.844939 -5.1298 -0.02222 
-1.44485 -0.02222 -4.06691 
-4.65232 0.631808 -2.30771 
0.631808 -5.37936 1.40721 
-2.30771 1.40721 -3.87535 
-9.97071 0.00699126 -0.130585 
0.00699126 -9.95058 -0.0416498 
-0.130585 -0.0416498 -9.98665 
-9.96589 0.000682581 -0.14264 
0.000682581 -9.95289 -0.0376987 
-0.14264 -0.0376987 -9.98916 
-9.97469 -0.00505853 -0.134233 
-0.00505853 -9.95536 -0.0450804 
-0.134233 -0.0450804 -9.9779 
-9.97987 0.00211901 -0.128673 
0.00211901 -9.96408 -0.0326049 
-0.128673 -0.0326049 -9.96399 
-9.87762 -0.032618 0.384721 
-0.032618 -9.78338 -0.0215805 
0.384721 -0.0215805 -9.71162 
-9.68467 0.0286819 0.332297 
0.0286819 -9.79479 -0.0117532 
0.332297 -0.0117532 -9.89316 
-9.76205 -0.00415929 0.337785 
-0.00415929 -9.80511 -0.029882 
0.337785 -0.029882 -9.80545 
-9.82388 -0.0170847 0.303224 
-0.0170847 -9.78952 -0.0883709 
0.303224 -0.0883709 -9.75922 
-9.83997 0.00897946 0.000538729 
0.00897946 -9.79381 -0.0456541 
0.000538729 -0.0456541 -9.83743 
-9.84763 0.0144775 0.0790908 
0.0144775 -9.79073 -0.0476812 
0.0790908 -0.0476812 -9.83285 
-9.83426 0.0206367 0.0699905 
0.0206367 -9.79095 -0.0410718 
0.0699905 -0.0410718 -9.846 
-9.81046 0.0155214 0.0975074 
0.0155214 -9.78847 -0.0300812 
0.0975074 -0.0300812 -9.87228 
-9.90622 0.000869679 -0.313809 
0.000869679 -9.88011 -0.0500475 
-0.313809 -0.0500475 -9.89653 
-9.88802 -0.0125335 -0.320751 
-0.0125335 -9.89728 -0.0344281 
-0.320751 -0.0344281 -9.89757 
-9.89026 -0.0017793 -0.288685 
-0.0017793 -9.87142 -0.0634944 
-0.288685 -0.0634944 -9.92119 
-9.92434 -0.0185194 -0.322549 
-0.0185194 -9.89227 -0.0148585 
-0.322549 -0.0148585 -9.86625 
-9.74215 -0.0134537 0.344505 
-0.0134537 -9.68887 0.0404508 
0.344505 0.0404508 -9.61961 
-9.70167 0.00718018 0.331636 
0.00718018 -9.64711 -0.0147043 
0.331636 -0.0147043 -9.70186 
-9.73578 -0.00910776 0.307624 
-0.00910776 -9.74603 0.0307724 
0.307624 0.0307724 -9.56882 
-9.7309 -0.0164472 0.340161 
-0.0164472 -9.69669 0.0568657 
0.340161 0.0568657 -9.62304 
-9.76646 0.0144303 -0.124038 
0.0144303 -9.73216 0.282785 
-0.124038 0.282785 -9.74449 
-9.74202 0.00522336 -0.151858 
0.00522336 -9.73565 0.290081 
-0.151858 0.290081 -9.76544 
-9.74807 0.0138733 -0.110471 
0.0138733 -9.7736 0.296443 
-0.110471 0.296443 -9.72144 
-9.74107 0.0107959 -0.121394 
0.0107959 -9.76025 0.301816 
-0.121394 0.301816 -9.74179 
-6.18971 -0.307461 -1.58378 
-0.307461 -7.51461 -0.82537 
-1.58378 -0.82537 1.23672 
-3.70699 1.93954 -1.10656 
1.93954 -9.1618 -1.349 
-1.10656 -1.349 0.401189 
-4.41004 0.0439357 -0.0940036 
0.0439357 -2.17024 3.45664 
-0.0940036 3.45664 -5.88731 
-4.10175 -1.72505 -3.56602 
-1.72505 -9.84021 2.34609 
-3.56602 2.34609 1.47436 
-9.57283 0.0327873 -0.0782507 
0.0327873 -9.60877 0.029163 
-0.0782507 0.029163 -9.8283 
-9.57656 -0.0312609 -0.0228852 
-0.0312609 -9.56617 0.0277904 
-0.0228852 0.0277904 -9.86718 
-9.64276 -0.013147 -0.0131993 
-0.013147 -9.45592 -0.0674288 
-0.0131993 -0.0674288 -9.91123 
-9.53072 -0.0801215 -0.00397258 
-0.0801215 -9.55757 0.0780988 
-0.00397258 0.0780988 -9.92162 
-6.57282 -0.35094 1.19953 
-0.35094 -5.23628 0.427044 
1.19953 0.427044 2.87194 
-1.42138 -0.0908342 -3.67097 
-0.0908342 -1.86171 -1.07065 
-3.67097 -1.07065 -5.65406 
-8.59297 1.72402 2.68331 
1.72402 -3.31956 0.429471 
2.68331 0.429471 2.97538 
-10.7132 -1.47825 -1.71323 
-1.47825 -3.53929 2.94091 
-1.71323 2.94091 5.31528 
-9.96912 -0.0161702 0.235128 
-0.0161702 -9.96089 -0.149056 
0.235128 -0.149056 -9.96992 
-9.97617 0.00115109 0.240458 
0.00115109 -9.96627 -0.151697 
0.240458 -0.151697 -9.95749 
-9.93314 0.00659243 0.213955 
0.00659243 -9.9416 -0.153218 
0.213955 -0.153218 -10.0252 
-9.97197 -1.37563e-05 0.242321 
-1.37563e-05 -9.97354 -0.162808 
0.242321 -0.162808 -9.95442 
-9.7899 -0.0183602 0.0133397 
-0.0183602 -9.79772 0.0280472 
0.0133397 0.0280472 -9.5788 
-9.73516 0.0183204 -0.0463297 
0.0183204 -9.67347 0.15917 
-0.0463297 0.15917 -9.75779 
-9.6816 -0.0384825 0.0255082 
-0.0384825 -9.83854 0.145826 
0.0255082 0.145826 -9.64628 
-9.6583 -0.00715357 0.0407427 
-0.00715357 -9.84619 0.0713938 
0.0407427 0.0713938 -9.66193 
-9.96154 -0.0116445 0.0328242 
-0.0116445 -9.94975 0.0539463 
0.0328242 0.0539463 -9.98052 
-9.95062 -0.000379177 0.0328357 
-0.000379177 -9.95151 0.0538997 
0.0328357 0.0538997 -9.98968 
-9.96693 -0.000504395 0.0277608 
-0.000504395 -9.93624 0.0535487 
0.0277608 0.0535487 -9.98863 
-9.9622 -0.0019912 0.0350801 
-0.0019912 -9.96439 0.0569973 
0.0350801 0.0569973 -9.9652 
-8.16196 0.168267 -1.80954 
0.168267 -10.3537 -0.0134221 
-1.80954 -0.0134221 -10.0851 
-9.31207 -0.0165883 -0.236866 
-0.0165883 -8.80418 -0.384274 
-0.236866 -0.384274 -10.4845 
-8.50557 -0.234241 -0.830166 
-0.234241 -10.2149 0.224404 
-0.830166 0.224404 -9.88028 
-8.25511 0.594808 -0.785226 
0.594808 -9.96931 0.229535 
-0.785226 0.229535 -10.3763 
-9.06793 -0.0869507 0.0202305 
-0.0869507 -9.6195 0.251541 
0.0202305 0.251541 -9.92174 
-9.48686 0.245668 0.179727 
0.245668 -9.32975 0.617286 
0.179727 0.617286 -9.79256 
-9.80796 -0.052254 0.256974 
-0.052254 -9.31963 0.389185 
0.256974 0.389185 -9.48159 
-9.62424 0.129525 0.185818 
0.129525 -9.46574 0.463014 
0.185818 0.463014 -9.51919 
-9.5039 0.215551 0.283169 
0.215551 -9.36427 0.171438 
0.283169 0.171438 -9.56339 
-9.70758 0.233045 0.116891 
0.233045 -9.27538 0.105837 
0.116891 0.105837 -9.4486 
-9.66239 0.296425 0.0551942 
0.296425 -9.12359 0.0579529 
0.0551942 0.0579529 -9.64559 
-9.74707 0.211297 0.119737 
0.211297 -9.19453 0.048091 
0.119737 0.048091 -9.48996 
-9.82292 0.0183582 0.130465 
0.0183582 -9.79367 -0.129565 
0.130465 -0.129565 -9.79744 
-9.78347 0.0106106 0.144825 
0.0106106 -9.82025 -0.143085 
0.144825 -0.143085 -9.81031 
-9.80278 0.0196468 0.120088 
0.0196468 -9.8062 -0.12967 
0.120088 -0.12967 -9.80506 
-9.79542 0.00714695 0.173634 
0.00714695 -9.76567 -0.107756 
0.173634 -0.107756 -9.85295 
-9.87601 -0.0468393 0.0134741 
-0.0468393 -9.89646 -0.0906676 
0.0134741 -0.0906676 -9.97896 
-9.92884 -0.0352756 -0.00777303 
-0.0352756 -9.95752 -0.159171 
-0.00777303 -0.159171 -9.86507 
-9.9023 0.00299694 -0.011022 
0.00299694 -9.92695 -0.128497 
-0.011022 -0.128497 -9.92218 
-9.90874 0.00341087 -0.0158867 
0.00341087 -9.913 -0.116736 
-0.0158867 -0.116736 -9.9297 
-9.84579 0.024991 -0.0319176 
0.024991 -9.85299 -0.160051 
-0.0319176 -0.160051 -9.85462 
-9.84127 -0.0194288 -0.0179102 
-0.0194288 -9.89707 -0.165472 
-0.0179102 -0.165472 -9.81505 
-9.82902 -0.00680439 -0.00986508 
-0.00680439 -9.88144 -0.149009 
-0.00986508 -0.149009 -9.84293 
-9.87033 0.00533572 0.0178372 
0.00533572 -9.89452 -0.19571 
0.0178372 -0.19571 -9.78854 
-9.88131 -0.0167374 -0.117256 
-0.0167374 -9.92268 0.145762 
-0.117256 0.145762 -9.92465 
-9.85725 0.000427852 -0.0910229 
0.000427852 -9.93438 0.204287 
-0.0910229 0.204287 -9.937 
-9.89997 0.0169574 -0.0781979 
0.0169574 -9.92302 0.213526 
-0.0781979 0.213526 -9.90564 
-9.92698 0.00701602 -0.121896 
0.00701602 -9.91948 0.135758 
-0.121896 0.135758 -9.88217 
-9.57715 0.408527 -0.178606 
0.408527 -10.6753 0.223671 
-0.178606 0.223671 -11.433 
-11.1339 -0.239565 0.872922 
-0.239565 -7.48697 -0.434129 
0.872922 -0.434129 -13.0647 
-9.78701 -0.061155 -0.360862 
-0.061155 -10.3942 -0.573736 
-0.360862 -0.573736 -11.5043 
-11.8449 -0.343824 -0.756434 
-0.343824 -9.57775 -0.913343 
-0.756434 -0.913343 -10.2629 
-9.58826 -0.0151169 -0.0847627 
-0.0151169 -9.62872 0.367471 
-0.0847627 0.367471 -9.66499 
-9.59791 -0.004894 -0.079444 
-0.004894 -9.70292 0.32279 
-0.079444 0.32279 -9.58114 
-9.64479 0.00846382 -0.0635105 
0.00846382 -9.55991 0.311753 
-0.0635105 0.311753 -9.67726 
-9.60606 0.0269245 -0.124536 
0.0269245 -9.70418 0.322752 
-0.124536 0.322752 -9.57173 
-9.93386 0.00233772 -0.189334 
0.00233772 -9.92425 -0.0705508 
-0.189334 -0.0705508 -10.0331 
-9.97909 -0.00143761 -0.189138 
-0.00143761 -9.95681 -0.0868949 
-0.189138 -0.0868949 -9.9553 
-9.97628 -0.0174015 -0.191142 
-0.0174015 -9.95656 -0.0873327 
-0.191142 -0.0873327 -9.95835 
-9.97958 -0.0031722 -0.17088 
-0.0031722 -9.97381 -0.0880041 
-0.17088 -0.0880041 -9.93781 
-13.5542 -0.485289 -1.04293 
-0.485289 -15.8418 0.247662 
-1.04293 0.247662 -10.9922 
-12.3702 -0.695103 1.41416 
-0.695103 -10.9385 -0.655595 
1.41416 -0.655595 -17.0795 
-11.5988 -0.512381 0.657719 
-0.512381 -13.1552 -0.856167 
0.657719 -0.856167 -15.6343 
-10.4449 -0.948236 -0.710222 
-0.948236 -13.4651 -0.253654 
-0.710222 -0.253654 -16.4783 
-9.84213 -1.18886 -0.775246 
-1.18886 -11.4755 0.043561 
-0.775246 0.043561 -11.6147 
-9.53799 0.966392 -1.91248 
0.966392 -12.115 -0.468599 
-1.91248 -0.468599 -11.2793 
-7.90913 2.45345 -1.47004 
2.45345 -11.0924 -0.491332 
-1.47004 -0.491332 -13.9308 
-10.0716 -0.161883 -2.17353 
-0.161883 -10.798 -0.681117 
-2.17353 -0.681117 -12.0628 
-8.77141 1.42048 -1.34748 
1.42048 -7.95317 -1.62559 
-1.34748 -1.62559 -10.6171 
-8.68401 0.882414 -0.271722 
0.882414 -7.69313 -0.252642 
-0.271722 -0.252642 -10.9645 
-11.1168 1.07886 0.372281 
1.07886 -9.293 -0.113914 
0.372281 -0.113914 -6.93184 
-11.5672 0.994398 0.0526857 
0.994398 -6.54894 -0.49532 
0.0526857 -0.49532 -9.22552 
-9.84527 -0.169807 0.269733 
-0.169807 -9.553 0.0667497 
0.269733 0.0667497 -10.2934 
-9.53064 0.0298314 -0.00551085 
0.0298314 -9.73354 -0.0775627 
-0.00551085 -0.0775627 -10.4275 
-9.74604 0.0665767 -0.484143 
0.0665767 -9.97941 -0.189706 
-0.484143 -0.189706 -9.96623 
-9.59601 0.0745884 -0.0183401 
0.0745884 -9.74786 -0.0781763 
-0.0183401 -0.0781763 -10.3478 
-4.40632 0.0508531 0.397597 
0.0508531 -12.7804 0.390546 
0.397597 0.390546 -14.1768 
-11.9959 0.0650621 -0.461526 
0.0650621 -9.1524 0.0517555 
-0.461526 0.0517555 -10.2153 
-9.3423 -0.283516 2.27368 
-0.283516 -10.8375 -0.180842 
2.27368 -0.180842 -11.1837 
-9.15289 1.26796 1.67856 
1.26796 -10.7774 0.027398 
1.67856 0.027398 -11.4332 
-9.03896 -0.414145 -0.174688 
-0.414145 -9.37791 0.0117143 
-0.174688 0.0117143 -10.5182 
-9.12072 -0.0997043 0.0906664 
-0.0997043 -9.68469 -0.0283458 
0.0906664 -0.0283458 -10.1296 
-8.73274 -0.155868 0.391694 
-0.155868 -9.73577 0.349939 
0.391694 0.349939 -10.4665 
-9.31484 0.0247451 0.0853829 
0.0247451 -9.43292 -0.0728958 
0.0853829 -0.0728958 -10.1873 
-9.47869 0.0434079 -0.214528 
0.0434079 -9.54571 0.121408 
-0.214528 0.121408 -9.62086 
-9.33688 -0.0792229 -0.297458 
-0.0792229 -9.56175 0.0812954 
-0.297458 0.0812954 -9.74663 
-9.39137 -0.0163032 -0.234914 
-0.0163032 -9.54485 0.0965963 
-0.234914 0.0965963 -9.70905 
-9.33837 0.0207421 -0.157864 
0.0207421 -9.5314 0.044109 
-0.157864 0.044109 -9.77549 
-9.84411 -0.000700934 -0.0818607 
-0.000700934 -9.86956 -0.254864 
-0.0818607 -0.254864 -9.87631 
-9.85429 -0.0388869 -0.0957774 
-0.0388869 -9.87894 -0.236471 
-0.0957774 -0.236471 -9.85675 
-9.88913 -0.00947183 -0.119042 
-0.00947183 -9.9085 -0.230005 
-0.119042 -0.230005 -9.79236 
-9.84888 -0.0117819 -0.0890627 
-0.0117819 -9.87103 -0.231964 
-0.0890627 -0.231964 -9.87007 
-10.7336 -0.787632 0.898386 
-0.787632 -10.9852 0.205317 
0.898386 0.205317 -12.044 
-10.6057 -0.411344 -0.0287487 
-0.411344 -10.0653 0.970045 
-0.0287487 0.970045 -13.0917 
-10.9535 -0.757496 -0.340245 
-0.757496 -9.92331 0.0707275 
-0.340245 0.0707275 -12.8859 
-11.3976 -0.580099 -0.462326 
-0.580099 -10.0799 0.380274 
-0.462326 0.380274 -12.2852 
-9.68336 -0.00491742 -0.0523062 
-0.00491742 -9.68624 -0.0285539 
-0.0523062 -0.0285539 -9.85623 
-9.71592 0.00327909 -0.0474454 
0.00327909 -9.70434 0.0386245 
-0.0474454 0.0386245 -9.80557 
-9.70129 -0.0155031 -0.0263762 
-0.0155031 -9.66561 0.0367482 
-0.0263762 0.0367482 -9.85893 
-9.73142 0.0132591 -0.0354849 
0.0132591 -9.65925 -0.0477708 
-0.0354849 -0.0477708 -9.83517 
-9.66364 -0.0147247 0.239516 
-0.0147247 -9.68757 0.281629 
0.239516 0.281629 -9.57437 
-9.65861 0.00855196 0.185688 
0.00855196 -9.63209 0.282147 
0.185688 0.282147 -9.63488 
-9.60837 -0.00379279 0.241613 
-0.00379279 -9.61509 0.281799 
0.241613 0.281799 -9.70212 
-9.65183 0.0105032 0.187436 
0.0105032 -9.64307 0.232318 
0.187436 0.232318 -9.63069 
-2.49571 0.192135 0.434836 
0.192135 -2.73327 -1.21891 
0.434836 -1.21891 -4.96319 
-5.69932 0.72962 0.63892 
0.72962 -4.09678 0.702049 
0.63892 0.702049 -0.396067 
-4.10166 -0.525428 1.60563 
-0.525428 -5.56545 0.971079 
1.60563 0.971079 -0.525065 
-4.2415 -0.218312 -0.130043 
-0.218312 -4.59579 -1.29187 
-0.130043 -1.29187 -1.35488 
-8.20378 0.881624 -1.3509 
0.881624 -10.4891 0.266747 
-1.3509 0.266747 -18.5929 
-11.7252 1.7593 -1.34096 
1.7593 -8.55107 0.165361 
-1.34096 0.165361 -17.0095 
-10.8172 2.71062 -0.435061 
2.71062 -10.6347 0.0615031 
-0.435061 0.0615031 -15.8339 
-10.5143 2.24513 -0.160366 
2.24513 -12.5638 0.677893 
-0.160366 0.677893 -14.2077 
-8.7457 -0.485842 0.0322122 
-0.485842 -9.87331 -0.364272 
0.0322122 -0.364272 -10.9236 
-8.79015 0.232375 -0.269297 
0.232375 -10.2028 0.346262 
-0.269297 0.346262 -10.5496 
-9.24793 -0.607874 -0.155876 
-0.607874 -9.8024 -0.440076 
-0.155876 -0.440076 -10.4923 
-8.51087 -0.715201 0.932375 
-0.715201 -10.3849 -0.608269 
0.932375 -0.608269 -10.6469 
-9.71866 -0.680886 0.149981 
-0.680886 -8.34774 -0.79029 
0.149981 -0.79029 -7.56652 
-10.563 -0.287776 0.302024 
-0.287776 -9.47612 -0.926763 
0.302024 -0.926763 -5.5938 
-10.3232 0.435699 0.417518 
0.435699 -9.10978 -0.851152 
0.417518 -0.851152 -6.19992 
-9.5549 0.371599 -0.243513 
0.371599 -9.53063 -0.840022 
-0.243513 -0.840022 -6.54741 
-9.67753 -0.00224433 0.314355 
-0.00224433 -9.65902 -0.156205 
0.314355 -0.156205 -9.6571 
-9.68212 -0.0051224 0.296948 
-0.0051224 -9.6535 -0.14954 
0.296948 -0.14954 -9.65803 
-9.66936 -0.00461411 0.313131 
-0.00461411 -9.59863 -0.149693 
0.313131 -0.149693 -9.72566 
-9.72924 -0.0245096 0.26172 
-0.0245096 -9.67775 -0.133531 
0.26172 -0.133531 -9.58666 
-9.5029 -0.328506 -0.540556 
-0.328506 -8.92481 0.0697181 
-0.540556 0.0697181 -9.69468 
-9.48127 0.0102512 -0.838863 
0.0102512 -9.17451 0.123848 
-0.838863 0.123848 -9.4666 
-9.62971 -0.534727 -0.596227 
-0.534727 -9.28898 0.33625 
-0.596227 0.33625 -9.20369 
-9.82339 -0.342515 -0.586974 
-0.342515 -8.66739 9.02447e-05 
-0.586974 9.02447e-05 -9.6316 
-9.54807 -0.00964028 0.037309 
-0.00964028 -9.70077 0.262618 
0.037309 0.262618 -9.63699 
-9.61933 0.0521275 -0.0848894 
0.0521275 -9.79718 0.288902 
-0.0848894 0.288902 -9.46932 
-9.56041 0.0222487 -0.0581745 
0.0222487 -9.75315 0.257085 
-0.0581745 0.257085 -9.57227 
-9.56944 0.0235932 -0.104613 
0.0235932 -9.72593 0.2635 
-0.104613 0.2635 -9.59046 
-10.4833 1.05676 1.04619 
1.05676 -7.71437 2.77232 
1.04619 2.77232 -11.0265 
-8.87025 1.40938 1.02241 
1.40938 -8.98986 0.53829 
1.02241 0.53829 -11.3641 
-8.87752 1.131 0.822152 
1.131 -10.6733 1.35327 
0.822152 1.35327 -9.67335 
-9.53966 0.90027 -0.0457251 
0.90027 -10.292 1.29646 
-0.0457251 1.29646 -9.39253 
-9.68592 0.0171343 -0.0140463 
0.0171343 -9.64023 -0.0229894 
-0.0140463 -0.0229894 -9.84007 
-9.65054 0.0140442 -0.0212434 
0.0140442 -9.70559 -0.0318514 
-0.0212434 -0.0318514 -9.81009 
-9.66576 0.0225028 -0.0306289 
0.0225028 -9.66602 0.0216441 
-0.0306289 0.0216441 -9.83444 
-9.68518 0.00156819 -0.0283339 
0.00156819 -9.65257 0.0247579 
-0.0283339 0.0247579 -9.82847 
-9.79813 -0.00865464 0.148125 
-0.00865464 -9.78924 0.304855 
0.148125 0.304855 -9.92834 
-9.8902 -0.00744107 0.240688 
-0.00744107 -9.87745 0.241827 
0.240688 0.241827 -9.74805 
-9.85077 -0.0111916 0.130209 
-0.0111916 -9.83158 0.234766 
0.130209 0.234766 -9.83336 
-9.84847 -0.0128346 0.175167 
-0.0128346 -9.83425 0.209482 
0.175167 0.209482 -9.83298 
-9.08736 -0.125069 0.645459 
-0.125069 -9.8393 -0.29119 
0.645459 -0.29119 -9.98256 
-9.65829 -0.0178468 0.516923 
-0.0178468 -9.82982 -0.100587 
0.516923 -0.100587 -9.4211 
-9.54032 0.0424154 0.27816 
0.0424154 -9.58692 -0.102503 
0.27816 -0.102503 -9.78198 
-9.7153 -0.0714302 0.492879 
-0.0714302 -9.52353 -0.103482 
0.492879 -0.103482 -9.67038 
2.16308 -0.525766 -1.29174 
-0.525766 0.399371 -5.80172 
-1.29174 -5.80172 -15.3304 
-8.26294 0.310802 -0.549712 
0.310802 -8.78224 4.32703 
-0.549712 4.32703 4.27725 
-8.5133 0.177591 1.18268 
0.177591 -10.737 2.34655 
1.18268 2.34655 6.48233 
-7.89608 -5.40961 -11.5388 
-5.40961 -13.2029 -0.900815 
-11.5388 -0.900815 8.33106 
-10.4501 1.07492 0.867538 
1.07492 -8.6542 0.678348 
0.867538 0.678348 -11.343 
-9.66216 -0.763547 -1.90424 
-0.763547 -7.27643 -0.32593 
-1.90424 -0.32593 -13.5087 
-11.9183 -1.1603 3.03732 
-1.1603 -10.0053 0.700801 
3.03732 0.700801 -8.52372 
-9.16796 1.46514 -0.245168 
1.46514 -9.32069 1.45896 
-0.245168 1.45896 -11.9587 
-10.1168 0.197602 -0.819484 
0.197602 -8.9208 0.199077 
-0.819484 0.199077 -10.3136 
-9.54423 0.222432 0.113023 
0.222432 -9.28929 -0.583463 
0.113023 -0.583463 -10.5177 
-9.73152 0.0435528 -0.851789 
0.0435528 -9.57085 0.0896199 
-0.851789 0.0896199 -10.0489 
-8.88957 -0.692464 0.129777 
-0.692464 -9.15627 -0.150999 
0.129777 -0.150999 -11.3054 
-9.8406 0.0306616 0.0192878 
0.0306616 -9.62786 -0.0280451 
0.0192878 -0.0280451 -9.68587 
-9.71891 -0.00638805 0.123675 
-0.00638805 -9.60694 -0.0151609 
0.123675 -0.0151609 -9.82849 
-9.72199 0.0318337 0.0554154 
0.0318337 -9.64429 0.00150402 
0.0554154 0.00150402 -9.78806 
-9.58826 0.0310015 0.0343271 
0.0310015 -9.68589 0.0952322 
0.0343271 0.0952322 -9.8802 
-9.25884 0.110624 -0.756939 
0.110624 -9.46517 0.940737 
-0.756939 0.940737 -9.27359 
-9.74079 -0.119475 -0.436785 
-0.119475 -10.1404 0.80238 
-0.436785 0.80238 -8.11645 
-8.84248 -0.00971775 -0.555964 
-0.00971775 -10.7055 0.861792 
-0.555964 0.861792 -8.44959 
-9.64419 -0.318205 0.910016 
-0.318205 -8.56243 -0.372781 
0.910016 -0.372781 -9.79098 
-9.38818 -0.111319 0.227871 
-0.111319 -9.67507 0.416878 
0.227871 0.416878 -9.61154 
-9.6298 0.103956 0.111559 
0.103956 -9.50947 0.228755 
0.111559 0.228755 -9.53553 
-9.53941 -0.0915653 0.0595381 
-0.0915653 -9.58075 0.35691 
0.0595381 0.35691 -9.55463 
-9.53901 -0.07028 0.151693 
-0.07028 -9.75054 0.302495 
0.151693 0.302495 -9.38524 
-9.66904 0.00909381 -0.0970983 
0.00909381 -9.71671 0.159001 
-0.0970983 0.159001 -9.63828 
-9.63412 0.0118683 -0.155337 
0.0118683 -9.65707 0.209885 
-0.155337 0.209885 -9.73283 
-9.66984 -0.0184437 -0.0587208 
-0.0184437 -9.71629 0.19541 
-0.0587208 0.19541 -9.6379 
-9.59122 0.0283134 -0.146161 
0.0283134 -9.74919 0.18931 
-0.146161 0.18931 -9.68361 
-9.90991 0.00684795 0.115043 
0.00684795 -9.87507 -0.163842 
0.115043 -0.163842 -9.9345 
-9.9613 0.0311227 0.0491719 
0.0311227 -9.88442 -0.198517 
0.0491719 -0.198517 -9.87375 
-9.92501 0.0138286 0.0523343 
0.0138286 -9.88932 -0.185706 
0.0523343 -0.185706 -9.90515 
-9.89144 0.0133549 0.072136 
0.0133549 -9.92938 -0.161615 
0.072136 -0.161615 -9.89866 
-9.32923 0.28523 -0.235774 
0.28523 -8.94119 -0.14661 
-0.235774 -0.14661 -9.77488 
-9.24699 -0.00860884 0.299155 
-0.00860884 -9.30526 -0.581371 
0.299155 -0.581371 -9.49304 
-9.4283 -0.0421625 -0.379918 
-0.0421625 -8.99782 -0.40008 
-0.379918 -0.40008 -9.61918 
-9.293 0.314654 -0.091959 
0.314654 -9.1727 -0.762041 
-0.091959 -0.762041 -9.57959 
-9.13351 -0.0261262 0.560041 
-0.0261262 -8.77834 -0.669527 
0.560041 -0.669527 -9.54845 
-8.75595 0.0966945 0.956675 
0.0966945 -9.76617 0.71914 
0.956675 0.71914 -8.93819 
-9.38889 -0.515966 0.795637 
-0.515966 -9.7519 0.208946 
0.795637 0.208946 -8.31952 
-9.85847 -0.71407 3.10735 
-0.71407 -11.1326 -1.43582 
3.10735 -1.43582 -6.46928 
-9.5118 0.0809039 -0.000968569 
0.0809039 -9.64809 -0.0615762 
-0.000968569 -0.0615762 -9.64453 
-9.53023 -0.0898875 -0.283516 
-0.0898875 -9.73047 0.166752 
-0.283516 0.166752 -9.54373 
-9.47357 -0.0800832 -0.109337 
-0.0800832 -9.83278 -0.138754 
-0.109337 -0.138754 -9.49808 
-9.64518 -0.0789323 -0.119575 
-0.0789323 -9.76977 -0.160277 
-0.119575 -0.160277 -9.38948 
-9.73387 0.0148566 0.174559 
0.0148566 -9.72786 0.292673 
0.174559 0.292673 -9.72346 
-9.73016 -0.0319193 0.114057 
-0.0319193 -9.71757 0.331631 
0.114057 0.331631 -9.73746 
-9.73226 -0.0161057 0.171429 
-0.0161057 -9.75943 0.261976 
0.171429 0.261976 -9.6935 
-9.71417 -0.00424071 0.0938007 
-0.00424071 -9.6903 0.323784 
0.0938007 0.323784 -9.78073 
-11.6628 0.169119 0.116077 
0.169119 -12.1308 -0.0214398 
0.116077 -0.0214398 -11.918 
-11.7572 -0.0378498 0.133478 
-0.0378498 -11.9306 -0.0907701 
0.133478 -0.0907701 -12.0237 
-11.2261 -0.0147855 0.609945 
-0.0147855 -11.9252 0.0255235 
0.609945 0.0255235 -12.5602 
-11.3714 0.314547 0.278279 
0.314547 -12.0558 -0.484835 
0.278279 -0.484835 -12.2844 
-8.11019 -0.788502 0.467631 
-0.788502 -7.56555 1.74098 
0.467631 1.74098 -8.41223 
-10.3039 0.941018 0.624836 
0.941018 -9.60183 1.84741 
0.624836 1.84741 -4.1822 
-10.0508 0.0106967 -3.03562 
0.0106967 -5.89806 -0.989551 
-3.03562 -0.989551 -8.13908 
-6.96877 0.0341633 0.723991 
0.0341633 -10.4352 1.80223 
0.723991 1.80223 -6.68405 
-9.87037 0.00762267 0.25378 
0.00762267 -9.86586 0.160937 
0.25378 0.160937 -9.84843 
-9.85028 0.00235506 0.246548 
0.00235506 -9.86537 0.152833 
0.246548 0.152833 -9.86901 
-9.88675 -0.0152501 0.266078 
-0.0152501 -9.85966 0.168061 
0.266078 0.168061 -9.83826 
-9.85555 -0.0028994 0.267423 
-0.0028994 -9.87556 0.151277 
0.267423 0.151277 -9.85355 
-10.0954 -1.97349 0.516456 
-1.97349 -10.5589 1.81919 
0.516456 1.81919 -9.82558 
-11.6415 0.853785 1.42559 
0.853785 -7.69421 2.35822 
1.42559 2.35822 -11.1441 
-10.3742 -0.943083 0.03541 
-0.943083 -8.18683 -0.223188 
0.03541 -0.223188 -11.9188 
-11.5967 -0.393684 -0.657819 
-0.393684 -9.57088 2.41764 
-0.657819 2.41764 -9.31224 
-9.09983 0.0483913 -0.0292303 
0.0483913 -9.39851 -0.486672 
-0.0292303 -0.486672 -9.66659 
-9.48181 -0.0680388 -0.675667 
-0.0680388 -9.30545 -0.0904622 
-0.675667 -0.0904622 -9.37767 
-9.12633 0.495457 -0.50349 
0.495457 -9.2384 0.0709431 
-0.50349 0.0709431 -9.8002 
-9.05262 0.112443 -0.494584 
0.112443 -9.86053 -0.960439 
-0.494584 -0.960439 -9.25177 
-9.32639 0.0166908 -0.142282 
0.0166908 -9.44808 0.113489 
-0.142282 0.113489 -9.73568 
-9.55481 -0.170183 -0.120941 
-0.170183 -9.43429 0.34422 
-0.120941 0.34422 -9.52106 
-9.54912 -0.0291031 -0.180561 
-0.0291031 -9.49542 0.417365 
-0.180561 0.417365 -9.46561 
-9.5277 0.0221291 -0.16552 
0.0221291 -9.33236 0.443859 
-0.16552 0.443859 -9.65009 
-9.72134 0.0064434 -0.344136 
0.0064434 -9.71933 0.0426181 
-0.344136 0.0426181 -9.69883 
-9.69815 0.00759169 -0.32156 
0.00759169 -9.71848 0.0753382 
-0.32156 0.0753382 -9.72286 
-9.69289 0.000757139 -0.339281 
0.000757139 -9.7263 0.0263135 
-0.339281 0.0263135 -9.7203 
-9.70981 0.020638 -0.318183 
0.020638 -9.72718 0.0916815 
-0.318183 0.0916815 -9.7025 
-9.77329 -0.00954417 0.103267 
-0.00954417 -9.75914 0.159379 
0.103267 0.159379 -9.6975 
-9.74432 -0.0439157 0.0641017 
-0.0439157 -9.78547 0.108983 
0.0641017 0.108983 -9.70014 
-9.71128 -0.0288536 0.0906355 
-0.0288536 -9.75736 0.0731706 
0.0906355 0.0731706 -9.76129 
-9.74674 -0.0273962 0.0754678 
-0.0273962 -9.75459 0.105974 
0.0754678 0.105974 -9.72859 
-9.78011 0.00806388 -0.179689 
0.00806388 -9.73426 0.0357322 
-0.179689 0.0357322 -9.67974 
-9.79072 0.0202103 -0.191125 
0.0202103 -9.72173 0.0234123 
-0.191125 0.0234123 -9.68167 
-9.78822 0.0113319 -0.179481 
0.0113319 -9.69245 0.0430233 
-0.179481 0.0430233 -9.71344 
-9.78109 0.028046 -0.174988 
0.028046 -9.73571 0.0232584 
-0.174988 0.0232584 -9.67731 
-9.67829 0.0366441 -0.209015 
0.0366441 -9.58527 -0.171958 
-0.209015 -0.171958 -9.21661 
-9.62829 -0.0391796 -0.0741347 
-0.0391796 -9.41159 -0.129135 
-0.0741347 -0.129135 -9.4403 
-9.58162 -0.00045141 -0.274612 
-0.00045141 -9.61091 -0.167932 
-0.274612 -0.167932 -9.28764 
-9.79434 -0.052385 -0.292049 
-0.052385 -9.64892 0.0211751 
-0.292049 0.0211751 -9.03691 
-13.8927 -1.24553 -1.40888 
-1.24553 -9.74686 -0.33852 
-1.40888 -0.33852 -11.7252 
-9.87179 -0.734959 0.329324 
-0.734959 -11.5546 -0.00856906 
0.329324 -0.00856906 -13.9384 
-10.9316 0.45349 0.205743 
0.45349 -9.85329 0.304402 
0.205743 0.304402 -14.5799 
-10.9299 0.287912 -1.09835 
0.287912 -10.7645 0.438072 
-1.09835 0.438072 -13.6704 
-10.6352 -0.996559 0.429698 
-0.996559 -9.8144 -0.425002 
0.429698 -0.425002 -12.1486 
-11.0086 -0.357701 -0.0333673 
-0.357701 -13.4276 -0.57898 
-0.0333673 -0.57898 -8.16201 
-9.2503 -0.589512 0.42029 
-0.589512 -9.305 0.778635 
0.42029 0.778635 -14.0429 
-10.4777 -0.296892 -0.660833 
-0.296892 -9.1652 -2.60914 
-0.660833 -2.60914 -12.9554 
-9.37605 0.392856 0.878512 
0.392856 -9.60463 0.380141 
0.878512 0.380141 -9.408 
-9.36796 0.355479 0.0839899 
0.355479 -9.13049 0.263398 
0.0839899 0.263398 -9.89024 
-9.31932 0.0860183 0.550601 
0.0860183 -9.50957 -0.135043 
0.550601 -0.135043 -9.55979 
-9.51153 0.0463123 0.434336 
0.0463123 -9.49457 -0.170842 
0.434336 -0.170842 -9.38258 
-9.88494 -0.00794173 -0.151799 
-0.00794173 -9.90052 -0.298475 
-0.151799 -0.298475 -9.90649 
-9.86845 -0.0151944 -0.159564 
-0.0151944 -9.89402 -0.258352 
-0.159564 -0.258352 -9.92948 
-9.90631 -0.00285599 -0.140668 
-0.00285599 -9.89095 -0.293326 
-0.140668 -0.293326 -9.89469 
-9.9153 -0.00411038 -0.130254 
-0.00411038 -9.91868 -0.308695 
-0.130254 -0.308695 -9.85796 
-8.29837 0.400997 -1.37568 
0.400997 -10.6264 0.271492 
-1.37568 0.271492 -11.0562 
-8.79211 -0.111471 -0.0945135 
-0.111471 -10.2225 -0.0376199 
-0.0945135 -0.0376199 -10.9663 
-8.94553 -0.130328 0.0716517 
-0.130328 -10.5309 -0.162858 
0.0716517 -0.162858 -10.5046 
-8.88712 -0.203863 -0.487817 
-0.203863 -10.694 -0.0745177 
-0.487817 -0.0745177 -10.3999 
-9.39723 0.29817 0.252063 
0.29817 -9.46194 0.20334 
0.252063 0.20334 -9.17178 
-9.09147 0.163456 0.618713 
0.163456 -9.42607 0.507638 
0.618713 0.507638 -9.51341 
-8.52834 0.26396 0.518593 
0.26396 -8.80383 0.256757 
0.518593 0.256757 -10.6988 
-9.19775 0.236956 0.776398 
0.236956 -9.40696 0.364171 
0.776398 0.364171 -9.42624 
-9.78265 -0.0455452 0.0449032 
-0.0455452 -9.77512 0.0305991 
0.0449032 0.0305991 -9.80415 
-9.80355 -0.0161314 0.0703691 
-0.0161314 -9.76097 0.0709892 
0.0703691 0.0709892 -9.7974 
-9.71486 -0.00564941 0.131367 
-0.00564941 -9.78443 0.0614624 
0.131367 0.0614624 -9.86263 
-9.84666 -0.0268579 0.06949 
-0.0268579 -9.76697 0.066274 
0.06949 0.066274 -9.74829 
-9.6818 -0.0606512 0.0218044 
-0.0606512 -9.58493 -0.00267627 
0.0218044 -0.00267627 -9.57446 
-9.64731 -0.0544368 -0.00418427 
-0.0544368 -9.57781 -0.00811251 
-0.00418427 -0.00811251 -9.61608 
-9.60274 -0.0836528 0.0359885 
-0.0836528 -9.51516 0.0689975 
0.0359885 0.0689975 -9.72329 
-9.652 -0.0556228 -0.115689 
-0.0556228 -9.58799 0.0145049 
-0.115689 0.0145049 -9.6012 
-9.62211 -0.0514046 0.0809688 
-0.0514046 -9.6678 0.235834 
0.0809688 0.235834 -9.58827 
-9.62156 -0.035668 0.107416 
-0.035668 -9.71285 0.254391 
0.107416 0.254391 -9.54377 
-9.58217 0.101933 0.175126 
0.101933 -9.63869 0.255475 
0.175126 0.255475 -9.65732 
-9.55162 -0.0353293 0.142357 
-0.0353293 -9.77753 0.248183 
0.142357 0.248183 -9.54903 
-9.67343 -0.00192969 -0.282534 
-0.00192969 -9.65494 0.124646 
-0.282534 0.124646 -9.69093 
-9.67192 0.0005463 -0.314324 
0.0005463 -9.60825 0.131574 
-0.314324 0.131574 -9.73913 
-9.65957 -0.00383983 -0.314599 
-0.00383983 -9.66386 0.134827 
-0.314599 0.134827 -9.69587 
-9.69611 -0.00101857 -0.299351 
-0.00101857 -9.67864 0.130535 
-0.299351 0.130535 -9.64455 
-8.36344 -0.00696461 0.902895 
-0.00696461 -5.33927 -1.91198 
0.902895 -1.91198 -19.0776 
-8.12746 -0.0635578 0.348461 
-0.0635578 -11.0938 0.521239 
0.348461 0.521239 -13.5591 
-14.025 1.10904 0.176929 
1.10904 -9.75947 1.86661 
0.176929 1.86661 -8.99586 
-11.8757 -1.77762 -2.69262 
-1.77762 -8.18199 -0.987744 
-2.69262 -0.987744 -12.7226 
-8.92231 0.868173 1.53604 
0.868173 -6.87446 -2.13739 
1.53604 -2.13739 -2.73723 
-8.75358 0.0287653 0.88796 
0.0287653 -8.30285 -1.09341 
0.88796 -1.09341 -1.47758 
-6.29649 -0.273251 1.02407 
-0.273251 -10.481 -3.29994 
1.02407 -3.29994 -1.75651 
-8.76231 -0.587514 1.22234 
-0.587514 -8.44861 -2.70604 
1.22234 -2.70604 -1.32308 
-9.97185 -0.00798064 0.102405 
-0.00798064 -9.96618 -0.0267594 
0.102405 -0.0267594 -9.97239 
-9.94559 -0.0118423 0.10763 
-0.0118423 -9.95346 -0.0414282 
0.10763 -0.0414282 -10.0114 
-9.9848 -0.00327938 0.102632 
-0.00327938 -9.94828 -0.0348289 
0.102632 -0.0348289 -9.97734 
-9.97723 -0.00545145 0.100736 
-0.00545145 -9.97459 -0.020982 
0.100736 -0.020982 -9.9586 
-9.65618 0.0281811 -0.147928 
0.0281811 -9.65383 0.209846 
-0.147928 0.209846 -9.52706 
-9.66455 0.0533054 -0.220912 
0.0533054 -9.68607 0.213111 
-0.220912 0.213111 -9.48645 
-9.70076 0.0483681 -0.142852 
0.0483681 -9.7089 0.195917 
-0.142852 0.195917 -9.4274 
-9.65774 0.053046 -0.277256 
0.053046 -9.69077 0.260478 
-0.277256 0.260478 -9.48855 
-9.46783 0.223422 0.786077 
0.223422 -9.79272 0.139278 
0.786077 0.139278 -8.85864 
-9.21173 0.163622 0.644419 
0.163622 -9.87891 0.0124863 
0.644419 0.0124863 -9.02856 
-9.17835 0.121021 0.767501 
0.121021 -9.86422 -0.404035 
0.767501 -0.404035 -9.07663 
-9.63233 -0.548889 0.475303 
-0.548889 -8.92359 -0.131973 
0.475303 -0.131973 -9.56327 
-8.06096 0.364729 2.10032 
0.364729 -10.3136 0.569568 
2.10032 0.569568 -9.29077 
-9.03623 0.645972 1.42324 
0.645972 -8.59319 0.180895 
1.42324 0.180895 -10.0359 
-8.56207 -0.501479 1.08612 
-0.501479 -10.4132 -0.454305 
1.08612 -0.454305 -8.69014 
-8.67313 0.0118556 0.99088 
0.0118556 -10.2377 0.198996 
0.99088 0.198996 -8.75449 
-10.7973 0.666055 -1.55718 
0.666055 -9.79767 0.754986 
-1.55718 0.754986 -7.65456 
-10.4611 0.467353 -1.20033 
0.467353 -10.1076 0.406039 
-1.20033 0.406039 -7.68081 
-9.50704 -0.0894875 -0.952383 
-0.0894875 -10.205 1.05448 
-0.952383 1.05448 -8.53749 
-10.6269 0.629688 -1.1566 
0.629688 -10.3761 -0.038445 
-1.1566 -0.038445 -7.24651 
-9.84872 0.00740373 -0.00480574 
0.00740373 -9.87173 -0.257609 
-0.00480574 -0.257609 -9.81992 
-9.8572 0.00167864 0.00963021 
0.00167864 -9.89056 -0.22501 
0.00963021 -0.22501 -9.79261 
-9.84118 -0.00469586 -0.0137462 
-0.00469586 -9.8661 -0.261153 
-0.0137462 -0.261153 -9.83309 
-9.84213 0.00851602 -0.00882415 
0.00851602 -9.87892 -0.246768 
-0.00882415 -0.246768 -9.81932 
-10.3595 -0.823797 1.9013 
-0.823797 -8.44893 -5.22635 
1.9013 -5.22635 -5.98427 
-8.02671 -0.72437 0.045016 
-0.72437 -6.93844 -1.55405 
0.045016 -1.55405 -9.82753 
-9.47723 -0.642006 1.08373 
-0.642006 -9.28845 -0.483611 
1.08373 -0.483611 -6.027 
-8.07267 -1.47246 1.34015 
-1.47246 -9.56902 -0.842909 
1.34015 -0.842909 -7.15099 
-9.43809 -0.0637762 -0.361745 
-0.0637762 -9.50332 -0.167392 
-0.361745 -0.167392 -9.56283 
-9.33577 0.0477798 -0.454668 
0.0477798 -9.57695 -0.237337 
-0.454668 -0.237337 -9.59151 
-9.44109 0.0908325 -0.431319 
0.0908325 -9.58162 -0.171124 
-0.431319 -0.171124 -9.48152 
-9.39887 0.0343713 -0.435098 
0.0343713 -9.51925 -0.181493 
-0.435098 -0.181493 -9.58611 
-9.75436 -0.0467603 0.206167 
-0.0467603 -9.53752 0.0828353 
0.206167 0.0828353 -9.61511 
-9.746 0.0267683 0.206722 
0.0267683 -9.64455 0.0704967 
0.206722 0.0704967 -9.51644 
-9.66043 -0.0133258 0.135805 
-0.0133258 -9.60516 0.0153114 
0.135805 0.0153114 -9.6414 
-9.71224 -0.0155211 0.162246 
-0.0155211 -9.59731 0.0404017 
0.162246 0.0404017 -9.59744 
-8.19067 -0.1189 1.30612 
-0.1189 -9.07133 1.97258 
1.30612 1.97258 0.957325 
-7.33536 -1.90533 0.00657801 
-1.90533 -10.8917 2.39547 
0.00657801 2.39547 1.92242 
-2.63975 -0.0210476 1.05105 
-0.0210476 -3.06588 0.156482 
1.05105 0.156482 -10.599 
-8.83725 0.318631 4.1788 
0.318631 -3.61887 9.21929 
4.1788 9.21929 -3.84855 
-9.79369 -0.0707696 -0.153739 
-0.0707696 -9.67847 -0.0450172 
-0.153739 -0.0450172 -9.66178 
-9.7633 -0.0311475 -0.175267 
-0.0311475 -9.69262 -0.0704911 
-0.175267 -0.0704911 -9.67801 
-9.78064 -0.0555217 -0.179877 
-0.0555217 -9.69825 -0.0762268 
-0.179877 -0.0762268 -9.65504 
-9.75369 -0.0444075 -0.165157 
-0.0444075 -9.65545 -0.0981673 
-0.165157 -0.0981673 -9.72479 
-8.19107 -0.947865 3.0817 
-0.947865 -11.3831 -2.37631 
3.0817 -2.37631 -8.37797 
-8.12183 -0.0957031 -0.858371 
-0.0957031 -8.14567 -0.985204 
-0.858371 -0.985204 -11.6846 
-10.5384 0.175282 1.83271 
0.175282 -8.56032 -1.19757 
1.83271 -1.19757 -8.85337 
-10.2462 0.196075 2.01838 
0.196075 -9.6785 -0.185351 
2.01838 -0.185351 -8.0274 
-9.51737 -0.0126519 0.333275 
-0.0126519 -9.53079 -0.148114 
0.333275 -0.148114 -9.68591 
-9.54514 -0.00668255 0.33222 
-0.00668255 -9.57893 -0.185538 
0.33222 -0.185538 -9.61 
-9.54768 -0.0107438 0.31324 
-0.0107438 -9.56442 -0.1714 
0.31324 -0.1714 -9.62197 
-9.53113 -0.0124011 0.335511 
-0.0124011 -9.60863 -0.173292 
0.335511 -0.173292 -9.59431 
-10.3499 0.0725171 0.921231 
0.0725171 -10.2463 0.127331 
0.921231 0.127331 -11.1053 
-10.0272 0.0551046 0.688134 
0.0551046 -10.7641 0.509199 
0.688134 0.509199 -10.9102 
-9.68394 0.150403 0.187083 
0.150403 -10.3457 0.335484 
0.187083 0.335484 -11.6718 
-9.72087 0.283954 0.37305 
0.283954 -10.5171 0.0436999 
0.37305 0.0436999 -11.4635 
-11.6708 -1.61986 0.0740543 
-1.61986 -9.51873 1.85769 
0.0740543 1.85769 -18.4147 
-13.6022 -0.780681 0.352197 
-0.780681 -8.75807 -0.275831 
0.352197 -0.275831 -17.2439 
-15.8938 -1.06101 -0.679 
-1.06101 -13.9601 -1.6941 
-0.679 -1.6941 -9.75037 
-12.5419 0.5341 -4.43981 
0.5341 -9.10704 -1.83895 
-4.43981 -1.83895 -17.9553 
-9.77822 0.00493022 0.0119922 
0.00493022 -9.79344 -0.258271 
0.0119922 -0.258271 -9.7478 
-9.73067 0.0073552 -0.00486604 
0.0073552 -9.79232 -0.278634 
-0.00486604 -0.278634 -9.79648 
-9.787 0.0018095 0.00584738 
0.0018095 -9.79518 -0.242967 
0.00584738 -0.242967 -9.73729 
-9.77939 0.00117784 0.0274774 
0.00117784 -9.81162 -0.26234 
0.0274774 -0.26234 -9.72845 
-10.6531 1.46088 -0.361908 
1.46088 -10.0218 -0.728213 
-0.361908 -0.728213 -11.0168 
-8.71865 0.102651 -0.518934 
0.102651 -11.1358 0.413474 
-0.518934 0.413474 -11.8372 
-9.58483 0.46134 -0.453912 
0.46134 -10.913 -0.0509446 
-0.453912 -0.0509446 -11.1938 
-9.5072 -0.163773 -1.08691 
-0.163773 -9.93668 0.616065 
-1.08691 0.616065 -12.2478 
-11.3515 1.88958 0.3927 
1.88958 -8.60583 -1.62733 
0.3927 -1.62733 -10.1889 
-8.9547 -0.349644 -2.17431 
-0.349644 -9.32598 1.01503 
-2.17431 1.01503 -11.8655 
-8.04645 0.885806 -1.3269 
0.885806 -11.0982 0.221364 
-1.3269 0.221364 -11.0015 
-8.73102 0.959638 -0.744516 
0.959638 -10.8221 -0.315522 
-0.744516 -0.315522 -10.5931 
-9.10316 0.238343 0.880363 
0.238343 -10.1621 0.347414 
0.880363 0.347414 -9.86478 
-9.45494 -0.172363 0.487353 
-0.172363 -9.79139 -0.067298 
0.487353 -0.067298 -9.88368 
-9.74722 -0.115285 0.457038 
-0.115285 -9.65871 0.091837 
0.457038 0.091837 -9.72409 
-9.1731 0.00146568 0.0404458 
0.00146568 -9.39449 0.0127344 
0.0404458 0.0127344 -10.5624 
-10.0815 -0.831143 -0.111056 
-0.831143 -10.7458 -0.0202737 
-0.111056 -0.0202737 -11.923 
-9.79934 0.407585 0.512814 
0.407585 -10.5591 -0.166094 
0.512814 -0.166094 -12.3919 
-10.1943 -0.926249 -0.358166 
-0.926249 -10.7107 0.0579637 
-0.358166 0.0579637 -11.8454 
-10.2227 0.85479 -1.85658 
0.85479 -11.4465 0.472556 
-1.85658 0.472556 -11.0812 
-11.5696 -6.0319 1.51051 
-6.0319 -4.10879 3.53856 
1.51051 3.53856 -23.3451 
-12.0544 -1.88374 1.16079 
-1.88374 -3.34835 2.99043 
1.16079 2.99043 -23.6207 
-23.9016 3.77814 -0.602511 
3.77814 -6.00335 -2.28028 
-0.602511 -2.28028 -9.11852 
-11.5136 -1.46376 -1.33586 
-1.46376 -13.3304 2.78524 
-1.33586 2.78524 -14.1795 
-9.50969 0.0425378 -0.113549 
0.0425378 -9.30678 -0.273273 
-0.113549 -0.273273 -9.88312 
-9.37503 -0.0511726 -0.10698 
-0.0511726 -9.61327 -0.315711 
-0.10698 -0.315711 -9.7113 
-9.22872 -0.0287854 -0.230957 
-0.0287854 -9.39211 -0.523397 
-0.230957 -0.523397 -10.0788 
-9.40581 0.291172 -0.362463 
0.291172 -9.36463 -0.523997 
-0.362463 -0.523997 -9.92915 
-9.91589 -0.0173727 0.0467553 
-0.0173727 -9.93329 0.244823 
0.0467553 0.244823 -9.91341 
-9.92271 -0.0375429 0.0444724 
-0.0375429 -9.94448 0.223606 
0.0444724 0.223606 -9.8954 
-9.90988 -0.00324299 0.0176553 
-0.00324299 -9.91979 0.24144 
0.0176553 0.24144 -9.93292 
-9.92239 0.0195842 0.0647181 
0.0195842 -9.94322 0.273044 
0.0647181 0.273044 -9.89697 
-7.92928 -0.79381 -0.926653 
-0.79381 -8.04225 -1.50141 
-0.926653 -1.50141 -3.0988 
-7.78813 2.42995 0.124063 
2.42995 -6.62517 -1.85387 
0.124063 -1.85387 -4.65703 
-9.01026 0.187458 -0.749879 
0.187458 -8.06551 0.0717946 
-0.749879 0.0717946 -1.99457 
-7.90721 -1.67462 -1.39501 
-1.67462 -8.47612 -2.28068 
-1.39501 -2.28068 -2.68701 
-9.69044 0.000296819 -0.160514 
0.000296819 -9.69641 0.281143 
-0.160514 0.281143 -9.69009 
-9.68924 0.00110609 -0.171126 
0.00110609 -9.6904 0.283678 
-0.171126 0.283678 -9.69731 
-9.68523 0.0121595 -0.15905 
0.0121595 -9.70325 0.287019 
-0.15905 0.287019 -9.68846 
-9.73519 -0.014363 -0.141205 
-0.014363 -9.68757 0.287768 
-0.141205 0.287768 -9.65418 
-9.67952 -0.0366155 0.279759 
-0.0366155 -9.80482 -0.181922 
0.279759 -0.181922 -9.89931 
-9.79693 -0.00215104 0.277227 
-0.00215104 -9.80083 -0.197416 
0.277227 -0.197416 -9.7859 
-9.88544 0.0314623 0.328434 
0.0314623 -9.81651 -0.188121 
0.328434 -0.188121 -9.68171 
-9.83134 0.0204943 0.199236 
0.0204943 -9.80564 -0.223122 
0.199236 -0.223122 -9.74667 
-9.71962 -0.0395483 0.24592 
-0.0395483 -9.76642 -0.233518 
0.24592 -0.233518 -9.77954 
-9.70885 0.0360262 0.213685 
0.0360262 -9.8388 -0.206909 
0.213685 -0.206909 -9.71793 
-9.75369 0.0159206 0.141549 
0.0159206 -9.78734 -0.305197 
0.141549 -0.305197 -9.72455 
-9.77238 -0.0104969 0.117686 
-0.0104969 -9.78143 -0.255376 
0.117686 -0.255376 -9.71176 
-9.88563 -0.00341468 -0.0347578 
-0.00341468 -9.93622 -0.209944 
-0.0347578 -0.209944 -9.89305 
-9.91571 -0.0036728 -0.0258418 
-0.0036728 -9.90939 -0.185929 
-0.0258418 -0.185929 -9.88979 
-9.94508 -0.00190635 -0.046223 
-0.00190635 -9.8355 -0.207608 
-0.046223 -0.207608 -9.93431 
-9.9243 0.00447939 -0.00347217 
0.00447939 -9.90392 -0.182435 
-0.00347217 -0.182435 -9.88668 
-8.39804 -0.847165 3.29654 
-0.847165 -7.8767 -1.99075 
3.29654 -1.99075 -6.65533 
-4.32913 -3.59585 0.707218 
-3.59585 -8.62579 -1.80769 
0.707218 -1.80769 -9.97514 
-10.3806 -1.33507 10.1387 
-1.33507 -9.16682 -5.29047 
10.1387 -5.29047 -3.38267 
-11.6354 -0.280619 0.248327 
-0.280619 -7.36308 -0.183126 
0.248327 -0.183126 -3.93158 
-9.7357 0.010029 -0.203524 
0.010029 -9.75684 -0.229674 
-0.203524 -0.229674 -9.6595 
-9.64661 -0.0263984 -0.199489 
-0.0263984 -9.74604 -0.262986 
-0.199489 -0.262986 -9.75938 
-9.74986 -0.0204765 -0.22368 
-0.0204765 -9.73293 -0.265256 
-0.22368 -0.265256 -9.66924 
-9.73394 0.010128 -0.195808 
0.010128 -9.77704 -0.208313 
-0.195808 -0.208313 -9.64106 
-9.8834 -0.00519845 0.0129642 
-0.00519845 -9.91608 -0.185491 
0.0129642 -0.185491 -9.92737 
-9.89771 -0.0153888 -0.0046529 
-0.0153888 -9.94615 -0.183005 
-0.0046529 -0.183005 -9.88299 
-9.90594 0.00785655 0.00309616 
0.00785655 -9.90832 -0.180556 
0.00309616 -0.180556 -9.91259 
-9.90883 0.0173928 0.0100874 
0.0173928 -9.915 -0.157173 
0.0100874 -0.157173 -9.90303 
-9.35797 -0.80393 -1.16886 
-0.80393 -9.6968 2.1112 
-1.16886 2.1112 -8.19381 
-8.33908 -1.25607 -0.963573 
-1.25607 -9.91498 2.10442 
-0.963573 2.10442 -8.99453 
-8.7808 -0.421714 -1.34413 
-0.421714 -9.68499 1.41201 
-1.34413 1.41201 -8.78279 
-9.10353 -1.21775 -0.4392 
-1.21775 -10.1131 1.75997 
-0.4392 1.75997 -8.03197 
-10.615 0.191149 0.0539646 
0.191149 -9.66149 1.09584 
0.0539646 1.09584 -10.1499 
-10.7719 0.179751 0.0489672 
0.179751 -9.724 0.883962 
0.0489672 0.883962 -9.93056 
-10.1223 0.222852 0.045097 
0.222852 -9.86375 0.66606 
0.045097 0.66606 -10.4404 
-10.2426 0.303825 0.495568 
0.303825 -10.3474 0.870026 
0.495568 0.870026 -9.83645 
-7.8914 0.591446 -3.34674 
0.591446 -9.55313 -0.565808 
-3.34674 -0.565808 -6.70283 
-7.73036 0.0494108 -3.11965 
0.0494108 -8.93178 -0.302051 
-3.11965 -0.302051 -7.48522 
-8.33121 -0.569253 -3.95467 
-0.569253 -8.62189 -1.19022 
-3.95467 -1.19022 -7.19426 
-8.6806 -1.34143 -1.22823 
-1.34143 -8.63886 0.238955 
-1.22823 0.238955 -6.8279 
-9.26999 0.272995 -0.174188 
0.272995 -9.44229 -0.68871 
-0.174188 -0.68871 -8.84952 
-8.88237 0.20143 0.171898 
0.20143 -9.07589 -0.742474 
0.171898 -0.742474 -9.60355 
-8.95032 0.186456 0.111328 
0.186456 -9.54254 -0.672746 
0.111328 -0.672746 -9.06894 
-9.40497 0.117385 0.172995 
0.117385 -9.27137 -0.239794 
0.172995 -0.239794 -8.88546 
-9.48889 0.248678 -0.0593198 
0.248678 -9.5834 -0.257018 
-0.0593198 -0.257018 -9.31764 
-9.50238 0.175259 -0.118173 
0.175259 -9.71413 -0.221084 
-0.118173 -0.221084 -9.17343 
-9.58428 0.0850733 -0.185744 
0.0850733 -9.62374 -0.119249 
-0.185744 -0.119249 -9.18192 
-9.41069 0.173794 -0.207572 
0.173794 -9.37454 -0.356634 
-0.207572 -0.356634 -9.60471 
-10.7098 -1.59779 0.563485 
-1.59779 -8.76413 -2.08696 
0.563485 -2.08696 -10.1606 
-9.2081 -1.39701 0.349577 
-1.39701 -9.27068 -0.0729518 
0.349577 -0.0729518 -11.1557 
-8.85779 -0.531734 0.632728 
-0.531734 -11.3279 -0.984417 
0.632728 -0.984417 -9.44882 
-9.94515 -1.22624 1.15189 
-1.22624 -10.0652 -0.847866 
1.15189 -0.847866 -9.62421 
-9.79327 -0.0278749 0.349389 
-0.0278749 -9.44582 0.173225 
0.349389 0.173225 -9.58152 
-9.63805 -0.018992 0.300586 
-0.018992 -9.56662 0.175612 
0.300586 0.175612 -9.61594 
-9.58555 -0.0693406 0.343437 
-0.0693406 -9.58159 0.189022 
0.343437 0.189022 -9.65347 
-9.4294 0.16429 0.550766 
0.16429 -9.59417 0.276051 
0.550766 0.276051 -9.79704 
-9.69172 0.151214 -0.3443 
0.151214 -9.42261 0.188696 
-0.3443 0.188696 -9.41999 
-9.66191 0.124516 -0.382726 
0.124516 -9.45694 0.17436 
-0.382726 0.17436 -9.41547 
-9.74812 0.189136 -0.421679 
0.189136 -9.3794 0.254692 
-0.421679 0.254692 -9.4068 
-9.7336 0.0208299 -0.33176 
0.0208299 -9.42078 0.0748028 
-0.33176 0.0748028 -9.37993 
-9.63284 -0.0483407 -0.0246613 
-0.0483407 -9.70498 0.0371417 
-0.0246613 0.0371417 -9.76458 
-9.66475 -0.0192682 0.0210804 
-0.0192682 -9.72129 0.0286341 
0.0210804 0.0286341 -9.71637 
-9.69276 -0.0374018 0.0362178 
-0.0374018 -9.72122 0.0374013 
0.0362178 0.0374013 -9.68842 
-9.67501 -0.0670572 0.07238 
-0.0670572 -9.72987 -0.0193406 
0.07238 -0.0193406 -9.69753 
-9.96459 -0.000357928 0.00107714 
-0.000357928 -9.9852 0.158922 
0.00107714 0.158922 -9.94114 
-9.91676 -0.00306856 -0.00188225 
-0.00306856 -9.92915 0.147391 
-0.00188225 0.147391 -10.045 
-9.94284 -0.0136687 -0.0018243 
-0.0136687 -9.97774 0.147397 
-0.0018243 0.147397 -9.97035 
-9.9637 0.00655542 0.00973163 
0.00655542 -9.98978 0.136044 
0.00973163 0.136044 -9.93746 
-10.2298 0.97179 -0.138579 
0.97179 -11.0703 -0.649732 
-0.138579 -0.649732 -11.6429 
-9.73544 -0.370773 -0.369711 
-0.370773 -10.4874 -0.190352 
-0.369711 -0.190352 -12.7202 
-10.5866 -0.231337 -0.34437 
-0.231337 -11.2722 -0.0274833 
-0.34437 -0.0274833 -11.0843 
-10.8267 0.585218 -0.740668 
0.585218 -10.6063 -0.659875 
-0.740668 -0.659875 -11.51 
-10.1364 0.117968 0.0365156 
0.117968 -9.36185 -0.383502 
0.0365156 -0.383502 -8.46469 
-9.44435 0.0776992 0.22123 
0.0776992 -9.67941 0.62838 
0.22123 0.62838 -8.83919 
-10.2625 -0.000480176 0.0457449 
-0.000480176 -9.45416 0.370827 
0.0457449 0.370827 -8.24626 
-9.44193 -0.10028 0.555514 
-0.10028 -10.2416 0.615347 
0.555514 0.615347 -8.27946 
-9.95572 0.82418 0.260687 
0.82418 -9.77896 0.242971 
0.260687 0.242971 -11.3983 
-10.05 0.640022 0.146228 
0.640022 -9.989 0.317393 
0.146228 0.317393 -11.094 
-10.0345 0.723102 0.035662 
0.723102 -9.78979 0.116492 
0.035662 0.116492 -11.3087 
-10.0235 0.721535 -0.0728386 
0.721535 -9.93733 0.36961 
-0.0728386 0.36961 -11.1722 
-9.64268 0.0226846 0.294498 
0.0226846 -9.69623 -0.192967 
0.294498 -0.192967 -9.69068 
-9.69062 -0.0269481 0.319088 
-0.0269481 -9.66147 -0.119883 
0.319088 -0.119883 -9.67751 
-9.69479 0.0385686 0.324759 
0.0385686 -9.68494 -0.0763723 
0.324759 -0.0763723 -9.64987 
-9.69085 0.00532714 0.309411 
0.00532714 -9.67135 -0.152852 
0.309411 -0.152852 -9.66739 
-9.68732 -0.215539 0.0391667 
-0.215539 -9.51723 0.0782151 
0.0391667 0.0782151 -9.05213 
-9.68718 0.00358102 -0.202684 
0.00358102 -9.40958 -0.0641303 
-0.202684 -0.0641303 -9.15992 
-8.94716 0.253583 0.0648523 
0.253583 -9.70122 -0.206292 
0.0648523 -0.206292 -9.6083 
-9.61618 0.0752231 0.176784 
0.0752231 -9.97538 -0.000254608 
0.176784 -0.000254608 -8.66512 
-9.5269 0.0710075 -0.103639 
0.0710075 -9.67001 -0.0216299 
-0.103639 -0.0216299 -9.62268 
-9.61697 0.0583168 0.167305 
0.0583168 -9.53248 -0.0127343 
0.167305 -0.0127343 -9.67015 
-9.60907 0.134071 0.209128 
0.134071 -9.49366 -0.0570634 
0.209128 -0.0570634 -9.71687 
-9.71945 0.015946 0.157985 
0.015946 -9.47143 0.036576 
0.157985 0.036576 -9.62872 
-9.45227 -0.151327 0.155487 
-0.151327 -9.30306 -0.232433 
0.155487 -0.232433 -9.81783 
-9.75093 -0.439776 0.372051 
-0.439776 -9.02161 -0.765862 
0.372051 -0.765862 -9.80062 
-9.45745 -0.218451 0.279255 
-0.218451 -9.56554 -0.443719 
0.279255 -0.443719 -9.55017 
-9.51342 -0.00599628 0.254078 
-0.00599628 -9.65006 -0.486054 
0.254078 -0.486054 -9.40968 
-9.86364 0.00394256 -0.0684795 
0.00394256 -9.86842 0.0437087 
-0.0684795 0.0437087 -9.9286 
-9.9004 7.70198e-05 -0.0965711 
7.70198e-05 -9.89388 0.0632735 
-0.0965711 0.0632735 -9.86639 
-9.89228 -0.00685275 -0.0839642 
-0.00685275 -9.86253 0.050964 
-0.0839642 0.050964 -9.90585 
-9.8708 -0.00859733 -0.0850548 
-0.00859733 -9.86523 0.0585186 
-0.0850548 0.0585186 -9.92463 
-7.77553 1.35522 0.718399 
1.35522 -10.0448 1.12518 
0.718399 1.12518 -12.7618 
-10.6204 2.11508 1.07717 
2.11508 -9.72815 0.340247 
1.07717 0.340247 -10.2336 
-7.60012 0.749605 1.85338 
0.749605 -11.3426 0.716214 
1.85338 0.716214 -11.6394 
-6.88132 0.405637 2.62082 
0.405637 -11.317 0.572567 
2.62082 0.572567 -12.3838 
-9.36833 0.0665858 0.27722 
0.0665858 -9.41465 0.273808 
0.27722 0.273808 -9.85038 
-8.87503 -0.0330765 0.423242 
-0.0330765 -9.65977 0.115822 
0.423242 0.115822 -10.0986 
-9.17344 0.197345 0.59787 
0.197345 -9.51299 0.0986431 
0.59787 0.0986431 -9.94692 
-9.12687 0.145689 0.288303 
0.145689 -9.64109 0.188272 
0.288303 0.188272 -9.86539 
-9.90577 0.0114287 0.0174605 
0.0114287 -9.88597 -0.0168351 
0.0174605 -0.0168351 -9.96121 
-9.92215 0.0053115 0.0170886 
0.0053115 -9.88763 -0.0248477 
0.0170886 -0.0248477 -9.94318 
-9.90618 0.0197117 -0.00930297 
0.0197117 -9.88454 0.0239095 
-0.00930297 0.0239095 -9.96224 
-9.92169 0.00437323 -0.0074608 
0.00437323 -9.89669 0.0192867 
-0.0074608 0.0192867 -9.93457 
-9.82699 -0.0148425 -0.00455307 
-0.0148425 -9.31853 -0.172544 
-0.00455307 -0.172544 -9.61906 
-9.5581 0.00561262 0.040016 
0.00561262 -9.39625 0.266145 
0.040016 0.266145 -9.81024 
-9.57747 0.0119043 -0.00631695 
0.0119043 -9.39072 0.273492 
-0.00631695 0.273492 -9.7964 
-9.51416 0.0171319 0.0166924 
0.0171319 -9.3051 0.273016 
0.0166924 0.273016 -9.94533 
-1.52123 -0.137114 2.0598 
-0.137114 -2.86566 1.20354 
2.0598 1.20354 -3.05278 
-5.70119 0.772276 -2.59384 
0.772276 -3.46 0.0531196 
-2.59384 0.0531196 1.72153 
-5.3507 -0.54007 -2.64016 
-0.54007 -5.04351 0.281314 
-2.64016 0.281314 2.95454 
-6.68872 -0.958065 -0.09714 
-0.958065 -3.28795 -1.37432 
-0.09714 -1.37432 2.537 
-9.64098 -0.00211052 0.12735 
-0.00211052 -9.64463 -0.0625384 
0.12735 -0.0625384 -9.60336 
-9.75282 0.0485792 0.168585 
0.0485792 -9.61642 -0.0714299 
0.168585 -0.0714299 -9.51973 
-9.66639 0.0729613 0.149488 
0.0729613 -9.61907 -0.202906 
0.149488 -0.202906 -9.60351 
-9.63198 0.0662051 0.103936 
0.0662051 -9.60924 -0.12078 
0.103936 -0.12078 -9.64775 
-9.69132 -0.00541782 0.187359 
-0.00541782 -9.69105 -0.26999 
0.187359 -0.26999 -9.70019 
-9.67472 -0.0509457 0.165378 
-0.0509457 -9.61912 -0.287265 
0.165378 -0.287265 -9.78871 
-9.7132 0.0488605 0.19595 
0.0488605 -9.73763 -0.324898 
0.19595 -0.324898 -9.63173 
-9.72486 0.0241428 0.160224 
0.0241428 -9.71179 -0.218458 
0.160224 -0.218458 -9.6459 
-9.87413 0.0234325 0.0105818 
0.0234325 -9.91295 -0.234325 
0.0105818 -0.234325 -9.91469 
-9.8972 0.00693701 0.0254852 
0.00693701 -9.92252 -0.227692 
0.0254852 -0.227692 -9.88204 
-9.90008 -0.0101216 0.0163964 
-0.0101216 -9.9132 -0.238181 
0.0163964 -0.238181 -9.88848 
-9.8978 0.00660327 0.0161185 
0.00660327 -9.91388 -0.22597 
0.0161185 -0.22597 -9.89009 
-9.56882 -0.0330471 -0.15474 
-0.0330471 -9.51823 -0.0510296 
-0.15474 -0.0510296 -9.44664 
-9.6784 -0.090078 -0.17828 
-0.090078 -9.50998 -0.132237 
-0.17828 -0.132237 -9.3453 
-9.7278 -0.0292237 -0.179809 
-0.0292237 -9.47669 -0.0601989 
-0.179809 -0.0601989 -9.3292 
-9.58611 -0.0641475 -0.163973 
-0.0641475 -9.55336 -0.0377845 
-0.163973 -0.0377845 -9.39423 
-9.73863 0.00259467 0.265044 
0.00259467 -9.75892 0.239097 
0.265044 0.239097 -9.89877 
-9.83183 0.0104457 0.220719 
0.0104457 -9.75629 0.160574 
0.220719 0.160574 -9.8082 
-9.86658 -0.0261077 0.316588 
-0.0261077 -9.84893 0.104293 
0.316588 0.104293 -9.68081 
-9.80605 0.0267084 0.223725 
0.0267084 -9.82496 0.15537 
0.223725 0.15537 -9.7653 
-9.87044 -0.000747431 -0.0756941 
-0.000747431 -9.85686 0.0411191 
-0.0756941 0.0411191 -9.91521 
-9.86746 0.00831491 -0.0800529 
0.00831491 -9.87928 0.0423335 
-0.0800529 0.0423335 -9.89577 
-9.87829 0.0105689 -0.100708 
0.0105689 -9.8843 0.0369442 
-0.100708 0.0369442 -9.87992 
-9.85023 0.000333037 -0.0822333 
0.000333037 -9.88312 0.0389409 
-0.0822333 0.0389409 -9.90916 
-9.95289 -0.0106717 0.10547 
-0.0106717 -9.95925 0.0149902 
0.10547 0.0149902 -9.973 
-9.94642 -0.000895757 0.100141 
-0.000895757 -9.9535 0.0243327 
0.100141 0.0243327 -9.98521 
-9.94214 0.000153504 0.102325 
0.000153504 -9.93861 0.0135278 
0.102325 0.0135278 -10.0044 
-9.967 -0.00478345 0.110544 
-0.00478345 -9.95873 0.0142242 
0.110544 0.0142242 -9.9594 
-9.40954 -0.00246301 0.2428 
-0.00246301 -9.40431 0.158378 
0.2428 0.158378 -9.81352 
-9.41288 0.0522798 0.28009 
0.0522798 -9.57348 0.0140502 
0.28009 0.0140502 -9.641 
-9.7523 0.161895 -0.0308967 
0.161895 -9.25238 0.124724 
-0.0308967 0.124724 -9.62269 
-9.6458 -0.0546458 0.556584 
-0.0546458 -9.59348 -0.118541 
0.556584 -0.118541 -9.38808 
-9.90035 -0.740372 0.0554251 
-0.740372 -9.50526 0.298629 
0.0554251 0.298629 -11.2208 
-9.97692 -0.691273 0.0873058 
-0.691273 -9.70513 0.0165554 
0.0873058 0.0165554 -10.9444 
-9.64402 -0.733644 -0.123141 
-0.733644 -10.1543 -0.0834456 
-0.123141 -0.0834456 -10.8281 
-9.8752 -0.326272 -0.0840573 
-0.326272 -9.7572 0.32034 
-0.0840573 0.32034 -10.994 
-9.75954 0.123359 -0.261198 
0.123359 -9.54511 0.0598353 
-0.261198 0.0598353 -9.50274 
-9.77562 0.0721862 -0.268112 
0.0721862 -9.5643 0.0549982 
-0.268112 0.0549982 -9.46748 
-9.70757 0.111053 -0.265705 
0.111053 -9.60056 0.0657242 
-0.265705 0.0657242 -9.49926 
-9.78358 0.0973029 -0.248854 
0.0973029 -9.54063 0.0584005 
-0.248854 0.0584005 -9.48318 
-9.8387 0.0316373 0.256303 
0.0316373 -9.78156 -0.204796 
0.256303 -0.204796 -9.74561 
-9.75556 -0.00831415 0.344175 
-0.00831415 -9.80597 -0.101848 
0.344175 -0.101848 -9.80434 
-9.76256 0.0419804 0.276308 
0.0419804 -9.80951 -0.0802123 
0.276308 -0.0802123 -9.7938 
-9.79114 -0.0289423 0.231725 
-0.0289423 -9.792 -0.156573 
0.231725 -0.156573 -9.78273 
-9.54729 0.0348383 0.00973541 
0.0348383 -9.38282 0.227315 
0.00973541 0.227315 -9.62575 
-9.3659 -0.0717448 0.0406599 
-0.0717448 -9.7173 0.152031 
0.0406599 0.152031 -9.47267 
-9.69424 0.0555845 0.0956463 
0.0555845 -9.25652 0.280727 
0.0956463 0.280727 -9.6051 
-9.56048 0.00975046 0.0293683 
0.00975046 -9.3295 0.189233 
0.0293683 0.189233 -9.66588 
-9.97004 -0.0167901 0.147126 
-0.0167901 -9.9489 0.0500881 
0.147126 0.0500881 -9.96059 
-9.93055 0.00120188 0.145343 
0.00120188 -9.91558 0.0525529 
0.145343 0.0525529 -10.0334 
-9.97305 -0.00526297 0.1474 
-0.00526297 -9.9502 0.0513488 
0.1474 0.0513488 -9.95628 
-9.97648 -0.00478398 0.136746 
-0.00478398 -9.96659 0.0479007 
0.136746 0.0479007 -9.93646 
-9.78546 0.01477 0.295749 
0.01477 -9.70799 -0.115537 
0.295749 -0.115537 -9.72137 
-9.78132 -1.66043e-05 0.285002 
-1.66043e-05 -9.72659 -0.129896 
0.285002 -0.129896 -9.70691 
-9.76662 0.00125999 0.26877 
0.00125999 -9.71264 -0.111846 
0.26877 -0.111846 -9.73557 
-9.77023 -0.0340188 0.284116 
-0.0340188 -9.70799 -0.130524 
0.284116 -0.130524 -9.7366 
-9.92011 0.00219839 -0.296894 
0.00219839 -9.93751 -0.108946 
-0.296894 -0.108946 -9.93524 
-9.92741 -0.0133206 -0.282133 
-0.0133206 -9.91205 -0.0995976 
-0.282133 -0.0995976 -9.9534 
-9.93075 -0.00385324 -0.295524 
-0.00385324 -9.93038 -0.112884 
-0.295524 -0.112884 -9.93173 
-9.94166 -0.00734023 -0.30837 
-0.00734023 -9.93269 -0.115021 
-0.30837 -0.115021 -9.91851 
-9.5991 -0.0617483 -0.0998576 
-0.0617483 -9.66198 -0.224298 
-0.0998576 -0.224298 -9.55678 
-9.58065 -0.0533231 -0.116527 
-0.0533231 -9.65405 -0.201003 
-0.116527 -0.201003 -9.58317 
-9.58746 -0.0581429 -0.131639 
-0.0581429 -9.67834 -0.20702 
-0.131639 -0.20702 -9.55207 
-9.57959 -0.0412497 -0.127934 
-0.0412497 -9.66595 -0.205701 
-0.127934 -0.205701 -9.57233 
-10.687 0.742207 0.677622 
0.742207 -5.82524 -2.34004 
0.677622 -2.34004 -3.53042 
-8.85196 0.0850372 -0.188245 
0.0850372 -9.12883 -1.87918 
-0.188245 -1.87918 -2.06186 
-8.5008 1.56546 -0.0360571 
1.56546 -8.34712 -4.20643 
-0.0360571 -4.20643 -3.19473 
-7.23429 -0.543971 -1.5123 
-0.543971 -8.66183 -3.11517 
-1.5123 -3.11517 -4.14653 
-9.57827 0.39472 -0.885714 
0.39472 -9.25487 -0.90492 
-0.885714 -0.90492 -9.32948 
-9.2254 0.916718 -0.402112 
0.916718 -8.77744 -0.503021 
-0.402112 -0.503021 -10.1598 
-9.63379 0.580056 -0.460575 
0.580056 -9.00743 -0.562095 
-0.460575 -0.562095 -9.5214 
-10.5328 0.343195 -0.197819 
0.343195 -9.03611 0.506671 
-0.197819 0.506671 -8.59365 
-7.61216 -1.21936 0.478265 
-1.21936 -8.63986 1.38434 
0.478265 1.38434 -2.68354 
-6.37347 -1.11405 -1.81376 
-1.11405 -8.95432 1.38343 
-1.81376 1.38343 -3.60776 
-5.44098 -2.18813 -2.5559 
-2.18813 -6.94723 1.63875 
-2.5559 1.63875 -6.54735 
-7.61629 -0.283371 0.116482 
-0.283371 -7.77394 1.90003 
0.116482 1.90003 -3.54533 
-10.4302 0.797788 -2.12459 
0.797788 -8.39545 -1.41115 
-2.12459 -1.41115 -6.17642 
-10.8197 0.332302 -0.483507 
0.332302 -7.64812 -1.29502 
-0.483507 -1.29502 -6.53427 
-7.80407 -0.111668 -0.817614 
-0.111668 -7.70482 -1.96346 
-0.817614 -1.96346 -9.49319 
-10.4399 1.43895 -1.14674 
1.43895 -8.42527 -0.71452 
-1.14674 -0.71452 -6.13687 
-9.77426 0.00346908 -0.345769 
0.00346908 -9.75118 0.0888955 
-0.345769 0.0888955 -9.75019 
-9.73277 -0.00684838 -0.322738 
-0.00684838 -9.74319 0.0827773 
-0.322738 0.0827773 -9.79967 
-9.73922 -0.0195731 -0.327439 
-0.0195731 -9.75479 0.070183 
-0.327439 0.070183 -9.78162 
-9.7796 -0.000807515 -0.333932 
-0.000807515 -9.75528 0.0840561 
-0.333932 0.0840561 -9.74075 
-9.82993 0.101467 -0.0195482 
0.101467 -9.6869 0.000985982 
-0.0195482 0.000985982 -9.66782 
-9.8386 0.0492507 -0.169326 
0.0492507 -9.74833 0.0505825 
-0.169326 0.0505825 -9.59772 
-9.69644 -0.016963 -0.147546 
-0.016963 -9.71585 0.0362239 
-0.147546 0.0362239 -9.77236 
-9.74655 -0.0213518 -0.119503 
-0.0213518 -9.67922 0.0778897 
-0.119503 0.0778897 -9.75888 
-9.92126 -0.0123622 0.238415 
-0.0123622 -9.89068 0.168315 
0.238415 0.168315 -9.96524 
-9.90995 -0.00705391 0.260755 
-0.00705391 -9.93071 0.178914 
0.260755 0.178914 -9.93653 
-9.90985 0.00335139 0.260674 
0.00335139 -9.93285 0.164837 
0.260674 0.164837 -9.93449 
-9.95615 -0.00294747 0.288746 
-0.00294747 -9.92066 0.18692 
0.288746 0.18692 -9.90037 
-8.7159 -0.940942 -2.86127 
-0.940942 -9.85518 0.857717 
-2.86127 0.857717 -6.27278 
-8.25179 -0.957855 -0.784379 
-0.957855 -10.1502 1.04356 
-0.784379 1.04356 -6.44185 
-8.09763 0.122251 -2.04411 
0.122251 -7.61334 0.00327886 
-2.04411 0.00327886 -9.13289 
-8.65246 -2.09169 -0.765754 
-2.09169 -9.02842 1.63223 
-0.765754 1.63223 -7.16298 
-10.3542 -0.254756 -0.22056 
-0.254756 -9.5164 0.734889 
-0.22056 0.734889 -9.98416 
-10.1566 -0.136196 0.0728194 
-0.136196 -9.80849 0.637414 
0.0728194 0.637414 -9.88974 
-9.85888 0.11629 0.0517223 
0.11629 -9.69325 0.36813 
0.0517223 0.36813 -10.3027 
-10.0592 0.524261 0.249036 
0.524261 -9.66373 0.414742 
0.249036 0.414742 -10.1319 
-7.41345 -2.67725 7.81575 
-2.67725 -12.0078 -3.23867 
7.81575 -3.23867 -7.04422 
-8.00417 1.67344 6.35682 
1.67344 -8.44349 -2.91283 
6.35682 -2.91283 -10.0178 
-7.7803 -3.87444 1.40702 
-3.87444 -8.62002 0.202919 
1.40702 0.202919 -10.0651 
-9.18364 2.66776 2.82613 
2.66776 -10.2618 0.374032 
2.82613 0.374032 -7.01999 
-8.11235 0.671257 -1.38811 
0.671257 -10.8964 -0.327366 
-1.38811 -0.327366 -12.0522 
-9.37652 -0.427775 -1.22043 
-0.427775 -11.0506 0.147133 
-1.22043 0.147133 -10.6339 
-9.32757 0.441992 -0.822329 
0.441992 -10.9479 -0.158378 
-0.822329 -0.158378 -10.7855 
-10.1691 1.25051 0.72863 
1.25051 -8.12705 0.36437 
0.72863 0.36437 -12.7649 
-9.91781 -0.000250364 0.227745 
-0.000250364 -9.89588 0.0129115 
0.227745 0.0129115 -9.90628 
-9.94902 -0.0318049 0.225284 
-0.0318049 -9.8977 -0.00200367 
0.225284 -0.00200367 -9.87324 
-9.91787 -0.00391216 0.21834 
-0.00391216 -9.88395 0.0235154 
0.21834 0.0235154 -9.91813 
-9.9232 0.0150717 0.248105 
0.0150717 -9.90727 0.0288101 
0.248105 0.0288101 -9.88949 
-9.73671 -0.00758185 -0.0153561 
-0.00758185 -9.74303 0.320963 
-0.0153561 0.320963 -9.71316 
-9.70383 -0.0382876 0.019484 
-0.0382876 -9.82354 0.315962 
0.019484 0.315962 -9.66553 
-9.73951 0.00493446 0.026696 
0.00493446 -9.74753 0.331911 
0.026696 0.331911 -9.70586 
-9.75028 0.022817 -0.00423705 
0.022817 -9.71668 0.282545 
-0.00423705 0.282545 -9.72593 
-6.61704 -0.465117 0.353047 
-0.465117 -8.12489 1.73336 
0.353047 1.73336 -3.89604 
-8.31972 0.242371 0.283362 
0.242371 -7.38759 1.6826 
0.283362 1.6826 -2.93065 
-8.49294 0.852372 0.673845 
0.852372 -4.76392 1.44821 
0.673845 1.44821 -5.3811 
-6.96714 -0.118491 0.722002 
-0.118491 -8.02807 2.34641 
0.722002 2.34641 -3.64275 
-9.86348 -0.00650624 -0.0831015 
-0.00650624 -9.85567 -0.274169 
-0.0831015 -0.274169 -9.90499 
-9.85235 0.00256866 -0.114986 
0.00256866 -9.87629 -0.287496 
-0.114986 -0.287496 -9.89551 
-9.89233 -0.00222562 -0.130114 
-0.00222562 -9.89822 -0.271096 
-0.130114 -0.271096 -9.83359 
-9.84191 -0.00657788 -0.115941 
-0.00657788 -9.88833 -0.277931 
-0.115941 -0.277931 -9.89391 
-9.75938 0.00412466 0.202208 
0.00412466 -9.71013 -0.0568249 
0.202208 -0.0568249 -9.68653 
-9.76921 -0.0043908 0.128036 
-0.0043908 -9.65305 -0.0147654 
0.128036 -0.0147654 -9.73378 
-9.77736 0.00404571 0.172232 
0.00404571 -9.68297 -0.0496464 
0.172232 -0.0496464 -9.69571 
-9.79557 0.0124013 0.154043 
0.0124013 -9.70253 -0.0620489 
0.154043 -0.0620489 -9.65795 
-9.84087 -0.0138558 0.143278 
-0.0138558 -9.85726 0.205365 
0.143278 0.205365 -9.83243 
-9.85432 -0.0157866 0.153892 
-0.0157866 -9.86017 0.222854 
0.153892 0.222854 -9.81606 
-9.86376 -0.012976 0.131885 
-0.012976 -9.88155 0.197271 
0.131885 0.197271 -9.78525 
-9.85431 -0.0177131 0.136925 
-0.0177131 -9.86157 0.211886 
0.136925 0.211886 -9.81468 
-11.071 -2.71156 0.172561 
-2.71156 -9.23088 2.68942 
0.172561 2.68942 -13.9046 
-13.1727 0.452504 -1.18974 
0.452504 -8.18459 0.354848 
-1.18974 0.354848 -12.8492 
-12.1696 -1.95494 -1.05312 
-1.95494 -9.47378 2.56752 
-1.05312 2.56752 -12.5631 
-10.163 -0.353682 -2.38122 
-0.353682 -10.8121 2.68513 
-2.38122 2.68513 -13.2314 
-7.73614 0.600343 0.835699 
0.600343 -8.70084 1.36686 
0.835699 1.36686 -2.83998 
-7.3844 0.36386 -0.317608 
0.36386 -8.08748 1.6883 
-0.317608 1.6883 -3.80507 
-7.26445 0.149735 -0.163826 
0.149735 -8.31936 1.09105 
-0.163826 1.09105 -3.69315 
-7.86487 0.659504 1.5251 
0.659504 -7.68538 1.63891 
1.5251 1.63891 -3.72671 
-9.8522 0.00358758 -0.263871 
0.00358758 -9.85167 0.147714 
-0.263871 0.147714 -9.86191 
-9.86723 -0.000100695 -0.255881 
-0.000100695 -9.85848 0.141405 
-0.255881 0.141405 -9.84008 
-9.8639 0.00743901 -0.270918 
0.00743901 -9.85307 0.158604 
-0.270918 0.158604 -9.84881 
-9.85287 0.00203645 -0.273535 
0.00203645 -9.86502 0.143744 
-0.273535 0.143744 -9.8479 
-9.90676 -0.0225744 0.0298246 
-0.0225744 -9.76997 0.196909 
0.0298246 0.196909 -9.34979 
-9.86243 -0.058263 0.131457 
-0.058263 -9.79721 0.317451 
0.131457 0.317451 -9.36687 
-9.75045 -0.123585 0.24098 
-0.123585 -9.91891 -0.0291876 
0.24098 -0.0291876 -9.35715 
-9.71928 -0.0933225 0.195313 
-0.0933225 -9.70877 0.123782 
0.195313 0.123782 -9.59846 
-9.81907 0.00896919 0.0545691 
0.00896919 -9.76721 0.00891205 
0.0545691 0.00891205 -9.82067 
-9.79999 0.000433639 0.0774445 
0.000433639 -9.78302 0.00341444 
0.0774445 0.00341444 -9.82393 
-9.80833 -0.0067374 0.0814364 
-0.0067374 -9.77156 -0.0107983 
0.0814364 -0.0107983 -9.82705 
-9.82069 -0.00771518 0.0813439 
-0.00771518 -9.77804 -0.00138326 
0.0813439 -0.00138326 -9.80822 
-9.92868 -0.00909582 -0.12687 
-0.00909582 -9.90931 -0.281226 
-0.12687 -0.281226 -9.93391 
-9.88913 0.000864504 -0.128891 
0.000864504 -9.9205 -0.258934 
-0.128891 -0.258934 -9.96227 
-9.92591 0.00289484 -0.115083 
0.00289484 -9.90898 -0.278871 
-0.115083 -0.278871 -9.937 
-9.91803 0.00430147 -0.12309 
0.00430147 -9.94784 -0.30093 
-0.12309 -0.30093 -9.90603 
-9.56755 0.123529 0.135657 
0.123529 -9.25429 0.0351187 
0.135657 0.0351187 -9.69451 
-9.76714 0.149281 0.0863136 
0.149281 -9.10136 0.0581761 
0.0863136 0.0581761 -9.64785 
-9.46276 -0.0345061 -0.141288 
-0.0345061 -9.61862 -0.11542 
-0.141288 -0.11542 -9.43498 
-9.65956 0.130425 0.117689 
0.130425 -9.43387 0.182434 
0.117689 0.182434 -9.42293 
-9.48952 0.0164832 -0.0430642 
0.0164832 -9.60176 0.0322821 
-0.0430642 0.0322821 -9.69385 
-9.51916 0.0304934 -0.0291342 
0.0304934 -9.67724 -0.0243777 
-0.0291342 -0.0243777 -9.58872 
-9.48991 -0.0337755 -0.0655711 
-0.0337755 -9.5648 -0.022329 
-0.0655711 -0.022329 -9.73041 
-9.53965 0.0925943 -0.164553 
0.0925943 -9.59111 0.0941415 
-0.164553 0.0941415 -9.65436 
-9.81252 -0.1615 -0.0177017 
-0.1615 -11.1068 0.370296 
-0.0177017 0.370296 -11.925 
-10.2302 0.201346 -0.27913 
0.201346 -10.8184 0.198505 
-0.27913 0.198505 -11.7957 
-9.92878 0.181358 -0.0301992 
0.181358 -11.0071 -0.577627 
-0.0301992 -0.577627 -11.9085 
-10.0984 -0.104373 -0.193631 
-0.104373 -11.131 -0.514704 
-0.193631 -0.514704 -11.615 
-9.51875 -0.213662 -0.136511 
-0.213662 -9.4387 -0.0705076 
-0.136511 -0.0705076 -10.0555 
-9.2043 -0.173298 -0.0852454 
-0.173298 -9.51576 0.170687 
-0.0852454 0.170687 -10.2929 
-9.85863 -0.23358 -0.125897 
-0.23358 -9.55642 0.490017 
-0.125897 0.490017 -9.59793 
-9.43178 -0.388963 -0.0839511 
-0.388963 -9.46802 0.176205 
-0.0839511 0.176205 -10.1132 
-9.82467 -0.00307085 -0.0293802 
-0.00307085 -9.82291 0.00168295 
-0.0293802 0.00168295 -9.90445 
-9.81759 -0.00619891 -0.0497291 
-0.00619891 -9.82332 0.00665663 
-0.0497291 0.00665663 -9.91113 
-9.82057 -0.00699392 -0.0441404 
-0.00699392 -9.82343 0.0119426 
-0.0441404 0.0119426 -9.90804 
-9.81523 0.000303963 -0.0554249 
0.000303963 -9.82384 0.0172386 
-0.0554249 0.0172386 -9.91297 
-9.63986 0.0202473 0.0525865 
0.0202473 -9.65819 0.0745104 
0.0525865 0.0745104 -9.82038 
-9.68683 0.00667975 -0.0196384 
0.00667975 -9.7039 0.0220441 
-0.0196384 0.0220441 -9.7277 
-9.68296 0.00783355 -0.0293271 
0.00783355 -9.71851 0.0351252 
-0.0293271 0.0351252 -9.71696 
-9.71582 0.0596779 -0.0345174 
0.0596779 -9.68596 -0.0416051 
-0.0345174 -0.0416051 -9.71663 
-9.14013 0.607617 1.26003 
0.607617 -10.0709 0.0810022 
1.26003 0.0810022 -5.21099 
-8.38458 0.299275 1.13492 
0.299275 -10.253 -0.243252 
1.13492 -0.243252 -5.78448 
-8.58845 0.679202 1.06101 
0.679202 -9.59334 -0.221804 
1.06101 -0.221804 -6.24025 
-8.857 0.738484 0.855459 
0.738484 -9.88505 0.198345 
0.855459 0.198345 -5.67999 
-9.85912 -0.0204927 0.0993208 
-0.0204927 -9.85691 0.189352 
0.0993208 0.189352 -9.78611 
-9.83541 -0.0114014 0.0948161 
-0.0114014 -9.85529 0.184742 
0.0948161 0.184742 -9.81143 
-9.82988 -0.0130447 0.10006 
-0.0130447 -9.84913 0.188584 
0.10006 0.188584 -9.82312 
-9.83388 -0.0148539 0.0955968 
-0.0148539 -9.85873 0.193714 
0.0955968 0.193714 -9.80952 
-9.70803 -0.0274718 0.318658 
-0.0274718 -9.73471 -0.161325 
0.318658 -0.161325 -9.80183 
-9.81496 0.0588469 0.312983 
0.0588469 -9.74585 -0.149204 
0.312983 -0.149204 -9.68376 
-9.75754 0.00693318 0.300216 
0.00693318 -9.73563 -0.150411 
0.300216 -0.150411 -9.7514 
-9.74673 -0.00755095 0.258995 
-0.00755095 -9.71601 -0.09639 
0.258995 -0.09639 -9.78183 
-9.59782 0.380301 1.3047 
0.380301 -8.73815 0.136017 
1.3047 0.136017 -18.144 
-14.6014 3.66627e-05 -0.376488 
3.66627e-05 -12.2358 -1.50977 
-0.376488 -1.50977 -9.64277 
-10.5437 -0.300301 0.626151 
-0.300301 -11.5449 0.354866 
0.626151 0.354866 -14.3913 
-11.1921 1.42161 -1.83971 
1.42161 -11.7206 1.58591 
-1.83971 1.58591 -13.5673 
-9.24496 -0.477949 -0.385046 
-0.477949 -9.55829 0.301583 
-0.385046 0.301583 -11.4606 
-9.43463 -0.355359 -0.0671447 
-0.355359 -9.33155 0.0994326 
-0.0671447 0.0994326 -11.4977 
-10.8049 -0.421027 0.337372 
-0.421027 -8.35382 -0.129585 
0.337372 -0.129585 -11.1051 
-9.97555 -0.968074 0.0719386 
-0.968074 -10.1707 -0.485921 
0.0719386 -0.485921 -10.1176 
-12.092 -0.287056 -0.38143 
-0.287056 -11.6175 0.0939926 
-0.38143 0.0939926 -11.3335 
-11.1264 -0.327173 0.426932 
-0.327173 -11.2164 -0.517257 
0.426932 -0.517257 -12.7003 
-11.8673 -0.0477614 -0.126961 
-0.0477614 -12.0332 0.299282 
-0.126961 0.299282 -11.1426 
-11.8946 -0.625668 0.233474 
-0.625668 -11.1036 0.524791 
0.233474 0.524791 -12.0448 
-9.95212 -0.00217535 0.0142557 
-0.00217535 -9.95022 -0.0140647 
0.0142557 -0.0140647 -9.97632 
-9.93528 -0.00456525 0.0296076 
-0.00456525 -9.94638 -0.0042584 
0.0296076 -0.0042584 -9.997 
-9.93607 0.00222296 0.0154789 
0.00222296 -9.95285 -0.00419698 
0.0154789 -0.00419698 -9.98974 
-9.94574 0.00636845 0.00927297 
0.00636845 -9.95649 -0.0153859 
0.00927297 -0.0153859 -9.97642 
-9.50661 0.0707305 -0.159684 
0.0707305 -9.39165 -0.331499 
-0.159684 -0.331499 -9.65318 
-9.52464 -0.306583 -0.101046 
-0.306583 -9.6669 -0.240543 
-0.101046 -0.240543 -9.35989 
-9.46402 0.311936 -0.0989476 
0.311936 -9.23847 -0.248056 
-0.0989476 -0.248056 -9.84895 
-9.39261 0.0974952 -0.390285 
0.0974952 -9.5206 -0.512993 
-0.390285 -0.512993 -9.63822 
-9.19553 -0.0188085 -0.318173 
-0.0188085 -9.638 -0.132863 
-0.318173 -0.132863 -9.59342 
-9.33911 0.182464 -0.544393 
0.182464 -9.53843 0.0574081 
-0.544393 0.0574081 -9.5494 
-9.34341 0.0122007 -0.419422 
0.0122007 -9.62291 -0.0224238 
-0.419422 -0.0224238 -9.46062 
-9.56544 0.130071 -0.373445 
0.130071 -9.38865 -0.330509 
-0.373445 -0.330509 -9.47285 
-9.73458 -0.0120318 -0.203 
-0.0120318 -9.73211 -0.246542 
-0.203 -0.246542 -9.68326 
-9.7438 -0.00965964 -0.195512 
-0.00965964 -9.73999 -0.23815 
-0.195512 -0.23815 -9.66616 
-9.74195 -0.00787671 -0.194 
-0.00787671 -9.72286 -0.225807 
-0.194 -0.225807 -9.68513 
-9.70119 0.0130891 -0.195141 
0.0130891 -9.74533 -0.229139 
-0.195141 -0.229139 -9.70343 
-10.9428 -1.38392 0.149185 
-1.38392 -10.2826 0.301008 
0.149185 0.301008 -11.2471 
-10.6087 0.888041 1.15045 
0.888041 -9.60171 0.0639465 
1.15045 0.0639465 -12.2622 
-10.5491 -0.310631 0.154842 
-0.310631 -10.049 0.10391 
0.154842 0.10391 -11.8745 
-9.84752 0.530033 -0.984539 
0.530033 -10.8755 0.268611 
-0.984539 0.268611 -11.7495 
-9.77312 -2.54591 -0.286178 
-2.54591 -8.99833 -0.506916 
-0.286178 -0.506916 -12.6513 
-9.79701 -0.417159 -0.546548 
-0.417159 -10.1299 0.724109 
-0.546548 0.724109 -11.4958 
-10.3301 0.298312 -0.311567 
0.298312 -10.3303 -0.529667 
-0.311567 -0.529667 -10.7623 
-10.5869 -0.391387 -0.364495 
-0.391387 -9.57571 0.820284 
-0.364495 0.820284 -11.2601 
-9.94603 0.00416453 0.113615 
0.00416453 -9.94545 -0.229831 
0.113615 -0.229831 -9.99866 
-9.93524 -0.00759656 0.129383 
-0.00759656 -9.94214 -0.219425 
0.129383 -0.219425 -10.0128 
-9.97633 0.0107773 0.128734 
0.0107773 -9.97513 -0.228563 
0.128734 -0.228563 -9.93868 
-9.96183 0.0181032 0.103506 
0.0181032 -9.98159 -0.201426 
0.103506 -0.201426 -9.94673 
-9.72083 -0.0410944 -0.371661 
-0.0410944 -9.43465 -0.205624 
-0.371661 -0.205624 -9.66003 
-9.87011 -0.174781 -0.344929 
-0.174781 -9.67418 -0.034131 
-0.344929 -0.034131 -9.27122 
-9.53271 -0.0056614 -0.372508 
-0.0056614 -9.80135 -0.0533654 
-0.372508 -0.0533654 -9.48146 
-9.66124 -0.0700789 -0.206617 
-0.0700789 -9.526 -0.245452 
-0.206617 -0.245452 -9.62827 
-9.90144 -1.29565 0.956308 
-1.29565 -11.0004 0.657767 
0.956308 0.657767 -12.2823 
-10.1375 -0.201255 -0.723136 
-0.201255 -10.5997 0.24211 
-0.723136 0.24211 -12.4471 
-11.3329 -0.0789916 -0.0687248 
-0.0789916 -9.94061 -0.00344436 
-0.0687248 -0.00344436 -11.9107 
-10.4318 -0.685467 0.0717804 
-0.685467 -10.5683 0.289772 
0.0717804 0.289772 -12.184 
-9.60186 -0.044794 0.306074 
-0.044794 -9.73167 -0.154831 
0.306074 -0.154831 -9.78848 
-9.73352 0.0172452 0.301935 
0.0172452 -9.70041 -0.149801 
0.301935 -0.149801 -9.68807 
-9.79098 0.0340732 0.332063 
0.0340732 -9.7064 -0.134098 
0.332063 -0.134098 -9.62462 
-9.76364 -0.00485189 0.180803 
-0.00485189 -9.69313 -0.143272 
0.180803 -0.143272 -9.66524 
-9.23544 0.255476 -0.416386 
0.255476 -9.62325 -0.0872512 
-0.416386 -0.0872512 -9.88379 
-9.57791 -0.0635519 -0.149131 
-0.0635519 -9.60357 -0.149 
-0.149131 -0.149 -9.56099 
-9.53708 -0.156355 -0.199372 
-0.156355 -9.52858 -0.0822312 
-0.199372 -0.0822312 -9.67682 
-9.34571 0.0166689 -0.0211002 
0.0166689 -9.4509 0.0565109 
-0.0211002 0.0565109 -9.94587 
-9.71216 -0.598283 0.0162575 
-0.598283 -9.38058 0.146621 
0.0162575 0.146621 -9.99153 
-9.1276 -0.225491 -1.03067 
-0.225491 -9.6671 0.360237 
-1.03067 0.360237 -10.2896 
-9.09252 -0.0141879 -0.137365 
-0.0141879 -9.4512 -0.157399 
-0.137365 -0.157399 -10.5405 
-9.70702 -0.102704 0.024372 
-0.102704 -9.96132 0.493092 
0.024372 0.493092 -9.41593 
-8.78813 0.902898 -0.757137 
0.902898 -9.33934 -1.23702 
-0.757137 -1.23702 -9.85856 
-8.91706 0.291868 -0.861277 
0.291868 -9.73889 -0.62617 
-0.861277 -0.62617 -9.33009 
-8.11611 -0.347687 -1.21631 
-0.347687 -9.24562 -2.44987 
-1.21631 -2.44987 -10.6243 
-8.64184 -0.61676 -0.739481 
-0.61676 -9.71703 -1.94291 
-0.739481 -1.94291 -9.62716 
-9.87027 -0.00229925 0.204316 
-0.00229925 -9.8705 -0.086532 
0.204316 -0.086532 -9.85742 
-9.87285 -0.00999088 0.201272 
-0.00999088 -9.88438 -0.0961888 
0.201272 -0.0961888 -9.84096 
-9.89189 -0.000734399 0.209312 
-0.000734399 -9.85682 -0.124364 
0.209312 -0.124364 -9.84948 
-9.88057 0.0093718 0.220363 
0.0093718 -9.85865 -0.105029 
0.220363 -0.105029 -9.85897 
-9.90559 -0.0377263 0.152962 
-0.0377263 -9.74047 0.141619 
0.152962 0.141619 -9.27241 
-9.74836 -0.134077 0.401662 
-0.134077 -9.70193 -0.0195252 
0.401662 -0.0195252 -9.46818 
-9.79815 -0.119427 0.256986 
-0.119427 -9.68164 -0.0807921 
0.256986 -0.0807921 -9.43868 
-9.6564 -0.0618133 0.102359 
-0.0618133 -9.65129 0.193663 
0.102359 0.193663 -9.61078 
-9.44153 0.299978 1.03246 
0.299978 -10.2421 -0.47281 
1.03246 -0.47281 -10.9365 
-10.3305 -0.991592 0.561427 
-0.991592 -10.1606 -0.0270474 
0.561427 -0.0270474 -10.1289 
-9.10224 -0.801022 0.0592772 
-0.801022 -9.05079 -0.562745 
0.0592772 -0.562745 -12.4671 
-9.09689 0.228101 1.5936 
0.228101 -10.1308 0.120068 
1.5936 0.120068 -11.3924 
-9.82953 -0.00229868 0.0668601 
-0.00229868 -9.8598 0.200891 
0.0668601 0.200891 -9.83259 
-9.84899 -0.00803543 0.0761921 
-0.00803543 -9.85707 0.191744 
0.0761921 0.191744 -9.81585 
-9.86509 0.000280584 0.0699828 
0.000280584 -9.90065 0.182056 
0.0699828 0.182056 -9.75618 
-9.84717 -0.0269418 0.0808286 
-0.0269418 -9.86613 0.191536 
0.0808286 0.191536 -9.80861 
-8.64397 0.0409016 1.14888 
0.0409016 -10.2728 0.259541 
1.14888 0.259541 -9.85856 
-9.77246 0.103823 0.324739 
0.103823 -9.34835 0.594053 
0.324739 0.594053 -9.65449 
-9.46824 0.21674 0.477528 
0.21674 -9.85172 0.605005 
0.477528 0.605005 -9.45534 
-10.2386 0.711953 0.603307 
0.711953 -9.1794 0.696558 
0.603307 0.696558 -9.3573 
-9.75324 -0.384841 -0.0578954 
-0.384841 -9.20821 -0.381801 
-0.0578954 -0.381801 -9.69088 
-10.193 -0.395268 -0.177482 
-0.395268 -8.48904 -0.686125 
-0.177482 -0.686125 -9.97025 
-10.5285 -0.434119 -0.0859657 
-0.434119 -9.30796 -1.31644 
-0.0859657 -1.31644 -8.81587 
-9.83308 -0.317089 -0.422822 
-0.317089 -8.74818 -0.656247 
-0.422822 -0.656247 -10.0711 
-9.87024 0.00526497 0.0982298 
0.00526497 -9.85283 -0.0622154 
0.0982298 -0.0622154 -9.90823 
-9.88455 0.0137674 0.0803017 
0.0137674 -9.88174 -0.0630554 
0.0803017 -0.0630554 -9.86501 
-9.90774 0.01736 0.0974905 
0.01736 -9.87306 -0.0332598 
0.0974905 -0.0332598 -9.8505 
-9.85803 0.0186382 0.131296 
0.0186382 -9.88256 -0.0581862 
0.131296 -0.0581862 -9.8907 
-7.79293 1.36924 -0.639446 
1.36924 -10.2793 0.0618984 
-0.639446 0.0618984 -11.5918 
-8.91982 0.463917 -0.742419 
0.463917 -10.8949 0.378539 
-0.742419 0.378539 -9.84933 
-9.94649 0.524621 -0.824781 
0.524621 -10.1264 -0.329165 
-0.824781 -0.329165 -9.59111 
-8.38639 0.0857642 1.35058 
0.0857642 -9.66008 0.910399 
1.35058 0.910399 -11.6175 
-9.54353 0.0197559 0.134778 
0.0197559 -9.54934 -0.229811 
0.134778 -0.229811 -9.61178 
-9.4838 -0.0141631 0.151023 
-0.0141631 -9.5577 -0.360008 
0.151023 -0.360008 -9.66316 
-9.59704 0.00187878 0.0664221 
0.00187878 -9.579 -0.291002 
0.0664221 -0.291002 -9.52862 
-9.57226 -0.0464289 0.107579 
-0.0464289 -9.546 -0.345073 
0.107579 -0.345073 -9.5864 
-9.69736 0.0158762 0.345632 
0.0158762 -9.35957 0.172148 
0.345632 0.172148 -9.96138 
-9.52892 0.306053 0.130979 
0.306053 -9.85113 0.313265 
0.130979 0.313265 -9.63826 
-9.47551 0.129038 -0.0449524 
0.129038 -9.6467 0.0953839 
-0.0449524 0.0953839 -9.89609 
-9.58848 -0.247756 0.381238 
-0.247756 -9.65572 0.0903903 
0.381238 0.0903903 -9.77411 
-9.69276 -0.0636475 -0.425425 
-0.0636475 -9.84805 -0.116913 
-0.425425 -0.116913 -9.32173 
-9.47459 -0.0712211 -0.256281 
-0.0712211 -9.54565 -0.118758 
-0.256281 -0.118758 -9.84229 
-9.73609 0.0245442 -0.22848 
0.0245442 -9.66636 0.0203953 
-0.22848 0.0203953 -9.46009 
-9.8064 -0.0251666 -0.209371 
-0.0251666 -9.54893 -0.0715003 
-0.209371 -0.0715003 -9.50721 
-9.39176 -0.0638098 -0.425455 
-0.0638098 -9.58782 0.149408 
-0.425455 0.149408 -9.57937 
-9.20562 -0.104893 -0.497477 
-0.104893 -9.62115 0.174001 
-0.497477 0.174001 -9.73218 
-9.34979 -0.0871472 -0.311541 
-0.0871472 -9.49441 0.177183 
-0.311541 0.177183 -9.71475 
-9.45113 0.0461876 -0.425993 
0.0461876 -9.53539 0.134424 
-0.425993 0.134424 -9.57243 
-10.1521 1.42292 0.198199 
1.42292 -12.3459 0.420098 
0.198199 0.420098 -14.4097 
-12.5948 0.909618 -0.196629 
0.909618 -11.1606 0.305629 
-0.196629 0.305629 -13.1524 
-11.1901 -0.309443 -0.160273 
-0.309443 -11.2556 0.176994 
-0.160273 0.176994 -14.462 
-11.7255 0.867639 0.127145 
0.867639 -11.8269 0.245536 
0.127145 0.245536 -13.3553 
-9.71688 -0.0138707 -0.288669 
-0.0138707 -9.73515 -0.20449 
-0.288669 -0.20449 -9.7078 
-9.71388 -0.00454288 -0.293594 
-0.00454288 -9.73822 -0.192058 
-0.293594 -0.192058 -9.70771 
-9.73991 -0.00820708 -0.27274 
-0.00820708 -9.73861 -0.168406 
-0.27274 -0.168406 -9.68131 
-9.70926 -0.000762599 -0.244627 
-0.000762599 -9.68845 -0.194158 
-0.244627 -0.194158 -9.76211 
-13.4156 2.31242 1.13592 
2.31242 -4.16352 0.392649 
1.13592 0.392649 -16.325 
-12.3436 0.708242 -0.100649 
0.708242 -9.20465 1.6535 
-0.100649 1.6535 -12.3559 
-10.4247 -0.260161 0.129678 
-0.260161 -10.8203 -0.468562 
0.129678 -0.468562 -12.6592 
-9.85125 0.814682 -0.435729 
0.814682 -10.5646 1.78112 
-0.435729 1.78112 -13.4883 
-9.65866 0.0722983 -0.0527328 
0.0722983 -9.77888 -0.121858 
-0.0527328 -0.121858 -9.38837 
-9.78938 -0.108259 0.523247 
-0.108259 -9.64996 -0.0850076 
0.523247 -0.0850076 -9.38657 
-9.80094 0.091588 0.096582 
0.091588 -9.9553 -0.0567607 
0.096582 -0.0567607 -9.06967 
-9.78132 -0.161493 0.371144 
-0.161493 -9.66759 -0.235096 
0.371144 -0.235096 -9.37699 
-9.54655 0.242495 -0.310127 
0.242495 -8.92577 -0.325628 
-0.310127 -0.325628 -7.47771 
-10.0446 -0.0054726 -0.2725 
-0.0054726 -8.74523 -0.161115 
-0.2725 -0.161115 -7.16019 
-9.55273 0.297883 -0.276678 
0.297883 -8.96718 -0.407087 
-0.276678 -0.407087 -7.43011 
-9.05633 0.443544 -0.731773 
0.443544 -9.41026 -0.25314 
-0.731773 -0.25314 -7.48343 
-9.65664 -0.00459617 -0.0729323 
-0.00459617 -9.63625 0.0263326 
-0.0729323 0.0263326 -9.86226 
-9.63766 0.00881965 -0.00998134 
0.00881965 -9.65986 -0.00258814 
-0.00998134 -0.00258814 -9.85763 
-9.64312 0.00620962 0.011448 
0.00620962 -9.66377 -0.000864926 
0.011448 -0.000864926 -9.84826 
-9.6297 0.0030871 0.00360407 
0.0030871 -9.61464 0.022722 
0.00360407 0.022722 -9.91081 
-9.86127 -0.00176942 0.282927 
-0.00176942 -9.8735 0.125633 
0.282927 0.125633 -9.85095 
-9.89004 -0.0137466 0.287641 
-0.0137466 -9.87409 0.131395 
0.287641 0.131395 -9.82158 
-9.85253 0.0125009 0.25159 
0.0125009 -9.8616 0.119848 
0.25159 0.119848 -9.87158 
-9.86806 0.00317795 0.280693 
0.00317795 -9.86646 0.135593 
0.280693 0.135593 -9.8512 
-9.38618 -0.118209 -0.116354 
-0.118209 -9.49016 -0.0352096 
-0.116354 -0.0352096 -10.3807 
-9.63367 -0.0306776 -0.211255 
-0.0306776 -9.77632 0.117037 
-0.211255 0.117037 -9.84704 
-9.40961 -0.490041 -0.729876 
-0.490041 -9.63081 0.304094 
-0.729876 0.304094 -10.2166 
-9.45665 0.273754 -0.239668 
0.273754 -9.91384 -0.00385315 
-0.239668 -0.00385315 -9.88654 
-9.50335 0.197979 0.200524 
0.197979 -9.52409 0.381142 
0.200524 0.381142 -9.68207 
-9.49138 -0.0598201 0.230229 
-0.0598201 -9.40357 0.138767 
0.230229 0.138767 -9.81457 
-9.77073 0.142908 0.261119 
0.142908 -9.45778 0.441131 
0.261119 0.441131 -9.481 
-9.59392 0.172413 0.384894 
0.172413 -9.21178 0.383149 
0.384894 0.383149 -9.90381 
-9.24698 -0.210779 0.562036 
-0.210779 -9.78015 0.34476 
0.562036 0.34476 -7.42249 
-9.26537 0.0331685 -0.015455 
0.0331685 -9.58445 -0.271624 
-0.015455 -0.271624 -7.5998 
-9.28247 0.0148754 0.550128 
0.0148754 -9.18057 0.515418 
0.550128 0.515418 -7.98658 
-9.05472 -0.707397 0.999026 
-0.707397 -11.1331 1.17527 
0.999026 1.17527 -6.26182 
-9.65948 0.0668589 0.33897 
0.0668589 -9.32959 -0.103865 
0.33897 -0.103865 -9.37208 
-9.24662 -0.0925511 0.161163 
-0.0925511 -9.53664 -0.0991838 
0.161163 -0.0991838 -9.57789 
-9.50611 -0.0199062 0.33658 
-0.0199062 -9.39184 -0.0545429 
0.33658 -0.0545429 -9.4632 
-9.32578 0.0100386 0.334378 
0.0100386 -9.39434 -0.144434 
0.334378 -0.144434 -9.64104 
-9.73206 5.72377e-05 0.0452233 
5.72377e-05 -9.73786 -0.0247052 
0.0452233 -0.0247052 -9.84368 
-9.73272 0.0252611 0.00139641 
0.0252611 -9.75847 -0.0188241 
0.00139641 -0.0188241 -9.82241 
-9.7421 0.0170159 0.0167825 
0.0170159 -9.75552 -0.0564518 
0.0167825 -0.0564518 -9.81599 
-9.72114 -0.0212044 0.0336311 
-0.0212044 -9.70419 -0.0359296 
0.0336311 -0.0359296 -9.88827 
-4.97428 0.139724 1.37345 
0.139724 -5.77738 0.511929 
1.37345 0.511929 1.10822 
-1.93066 -0.2045 -0.544461 
-0.2045 -2.09287 -0.639237 
-0.544461 -0.639237 -5.61991 
-5.0321 1.00408 0.464507 
1.00408 -4.89516 1.30611 
0.464507 1.30611 0.283819 
-5.24399 -0.595219 -2.34622 
-0.595219 -4.40137 -0.372282 
-2.34622 -0.372282 0.001919 
-9.69025 1.52029 -1.86153 
1.52029 -6.91641 -4.14817 
-1.86153 -4.14817 -10.2022 
-10.0377 1.01142 -1.33754 
1.01142 -6.91136 -3.03683 
-1.33754 -3.03683 -9.85986 
-9.51916 -1.53953 -0.733351 
-1.53953 -9.75331 -2.32929 
-0.733351 -2.32929 -7.53642 
-10.2724 3.32596 0.562182 
3.32596 -5.55803 -0.736299 
0.562182 -0.736299 -10.9784 
-9.62815 -0.0736694 0.0490164 
-0.0736694 -9.78064 0.352083 
0.0490164 0.352083 -9.50859 
-9.68055 0.0210676 0.0531304 
0.0210676 -9.55579 0.366326 
0.0531304 0.366326 -9.68103 
-9.62329 0.0283204 0.0636519 
0.0283204 -9.57448 0.373832 
0.0636519 0.373832 -9.71959 
-9.63158 0.0410151 -0.028332 
0.0410151 -9.62314 0.3011 
-0.028332 0.3011 -9.66264 
-9.7098 0.0200335 -0.276429 
0.0200335 -9.65235 0.207026 
-0.276429 0.207026 -9.44982 
-9.75291 0.00893586 -0.273263 
0.00893586 -9.57521 0.24239 
-0.273263 0.24239 -9.48385 
-9.61042 -0.0190019 -0.243044 
-0.0190019 -9.60692 0.215695 
-0.243044 0.215695 -9.59463 
-9.50382 -0.0734953 -0.399811 
-0.0734953 -9.73854 0.369513 
-0.399811 0.369513 -9.56961 
-9.96376 -0.00313319 -0.00203743 
-0.00313319 -9.96653 -0.209585 
-0.00203743 -0.209585 -9.94853 
-9.93128 0.00513481 -0.00959429 
0.00513481 -9.94371 -0.20496 
-0.00959429 -0.20496 -10.0038 
-9.93932 0.00251871 0.00763251 
0.00251871 -9.94897 -0.210965 
0.00763251 -0.210965 -9.99053 
-9.95075 -0.00235124 0.0101913 
-0.00235124 -9.97557 -0.188591 
0.0101913 -0.188591 -9.95249 
-11.7225 -0.992277 0.529297 
-0.992277 -15.1154 -1.25127 
0.529297 -1.25127 -8.37872 
-10.6203 0.264781 0.0711163 
0.264781 -9.65313 1.15813 
0.0711163 1.15813 -14.9432 
-10.1642 -1.90148 0.546829 
-1.90148 -9.20752 0.405524 
0.546829 0.405524 -15.8449 
-11.3162 -1.10273 -1.61385 
-1.10273 -9.50971 -2.19374 
-1.61385 -2.19374 -14.3907 
-9.91595 -0.0040749 0.302999 
-0.0040749 -9.93058 -0.119624 
0.302999 -0.119624 -9.92148 
-9.91013 0.00261996 0.315138 
0.00261996 -9.92388 -0.129845 
0.315138 -0.129845 -9.93399 
-9.91234 0.0149785 0.264529 
0.0149785 -9.88754 -0.0971597 
0.264529 -0.0971597 -9.96812 
-9.94163 0.00639588 0.308242 
0.00639588 -9.92408 -0.117276 
0.308242 -0.117276 -9.90229 
-9.0996 0.211026 -0.377508 
0.211026 -9.89454 1.38155 
-0.377508 1.38155 -8.79225 
-9.55297 -0.277316 -0.957258 
-0.277316 -10.4557 0.938253 
-0.957258 0.938253 -7.77776 
-9.11282 -0.769953 -0.62016 
-0.769953 -9.09773 2.89137 
-0.62016 2.89137 -9.57585 
-6.85827 -1.04862 -0.430011 
-1.04862 -9.31972 0.439681 
-0.430011 0.439681 -11.6084 
-9.44156 -0.213832 -0.372926 
-0.213832 -9.2035 0.165146 
-0.372926 0.165146 -9.31476 
-9.83413 -0.541595 -0.579448 
-0.541595 -9.34759 0.195586 
-0.579448 0.195586 -8.77809 
-9.47784 -0.13421 -0.762508 
-0.13421 -9.42146 -0.359187 
-0.762508 -0.359187 -9.06052 
-9.59306 -0.413268 -0.601175 
-0.413268 -9.27502 0.216721 
-0.601175 0.216721 -9.09174 
-9.9788 0.00454887 -0.0949059 
0.00454887 -9.95284 0.194889 
-0.0949059 0.194889 -9.95762 
-9.96618 0.00252779 -0.100696 
0.00252779 -9.96328 0.190255 
-0.100696 0.190255 -9.9598 
-9.92026 -0.0171541 -0.115536 
-0.0171541 -9.93475 0.22125 
-0.115536 0.22125 -10.0342 
-9.97976 0.00677754 -0.104633 
0.00677754 -9.97257 0.179477 
-0.104633 0.179477 -9.93692 
-10.7095 1.21728 -0.350848 
1.21728 -8.9703 -0.826621 
-0.350848 -0.826621 -10.507 
-9.57083 0.583015 -1.89465 
0.583015 -10.2469 0.0190379 
-1.89465 0.0190379 -10.3691 
-6.52172 0.595536 -1.60759 
0.595536 -11.1785 -1.99278 
-1.60759 -1.99278 -12.4866 
-8.80924 0.89756 -1.26394 
0.89756 -10.6491 -0.831488 
-1.26394 -0.831488 -10.7285 
-9.73116 0.0191812 -0.0100462 
0.0191812 -9.74424 0.360682 
-0.0100462 0.360682 -9.57949 
-9.705 -0.0242675 -0.0404523 
-0.0242675 -9.69735 0.311121 
-0.0404523 0.311121 -9.65253 
-9.64761 0.0385201 -0.137511 
0.0385201 -9.63102 0.331023 
-0.137511 0.331023 -9.77625 
-9.65459 0.00975564 -0.0870091 
0.00975564 -9.71572 0.316032 
-0.0870091 0.316032 -9.68457 
-9.11805 -0.0737417 -0.267278 
-0.0737417 -8.73691 0.340475 
-0.267278 0.340475 -10.0575 
-10.1007 -0.384818 0.0238706 
-0.384818 -9.14633 0.442039 
0.0238706 0.442039 -8.66542 
-9.91154 0.150359 -0.511804 
0.150359 -8.36462 1.24438 
-0.511804 1.24438 -9.63628 
-9.19975 -0.693976 -0.165654 
-0.693976 -9.43655 0.393339 
-0.165654 0.393339 -9.27614 
-9.91172 -0.936629 -0.173007 
-0.936629 -9.0696 0.358743 
-0.173007 0.358743 -9.70091 
-10.2862 -1.15764 0.17873 
-1.15764 -8.05483 0.687115 
0.17873 0.687115 -10.3412 
-10.7002 -1.26501 -0.64483 
-1.26501 -6.98869 0.266094 
-0.64483 0.266094 -10.9933 
-9.99024 -0.842585 -0.137898 
-0.842585 -8.23662 0.0967946 
-0.137898 0.0967946 -10.4554 
-9.90663 0.0136355 -0.107365 
0.0136355 -9.9283 -0.229928 
-0.107365 -0.229928 -9.91701 
-9.89275 -0.0403984 -0.136339 
-0.0403984 -9.88482 -0.253736 
-0.136339 -0.253736 -9.97437 
-9.95704 -0.0414863 -0.0863892 
-0.0414863 -9.93312 -0.189832 
-0.0863892 -0.189832 -9.86178 
-9.90463 0.0132618 -0.0900913 
0.0132618 -9.92287 -0.226588 
-0.0900913 -0.226588 -9.92445 
-9.8449 0.0495601 0.1936 
0.0495601 -9.83204 0.299009 
0.1936 0.299009 -9.87487 
-9.81424 0.040243 0.174654 
0.040243 -9.85972 0.307945 
0.174654 0.307945 -9.87785 
-9.89444 -0.0990783 0.204807 
-0.0990783 -9.88188 0.285055 
0.204807 0.285055 -9.77549 
-9.86105 0.0338537 0.0914447 
0.0338537 -9.86714 0.240516 
0.0914447 0.240516 -9.82362 
-9.14524 -2.41274 -0.412453 
-2.41274 -10.1407 -0.161128 
-0.412453 -0.161128 -12.2278 
-8.36854 -1.93439 -0.673088 
-1.93439 -9.40708 -0.352974 
-0.673088 -0.352974 -13.7381 
-7.03851 0.290995 0.925492 
0.290995 -11.548 -2.03771 
0.925492 -2.03771 -12.9273 
-8.42291 -0.370468 -0.525294 
-0.370468 -11.3738 1.60194 
-0.525294 1.60194 -11.7171 
-9.75203 -0.00269429 -0.0709547 
-0.00269429 -9.76788 0.311639 
-0.0709547 0.311639 -9.74578 
-9.75579 0.012016 -0.0495946 
0.012016 -9.789 0.299845 
-0.0495946 0.299845 -9.72091 
-9.75192 -0.00356317 -0.0574833 
-0.00356317 -9.76325 0.304598 
-0.0574833 0.304598 -9.75052 
-9.74177 -0.0233334 -0.0344592 
-0.0233334 -9.72914 0.281177 
-0.0344592 0.281177 -9.79478 
-10.6889 -0.190144 -0.136965 
-0.190144 -10.3944 0.253106 
-0.136965 0.253106 -11.8739 
-10.9414 -0.381848 0.193201 
-0.381848 -10.475 -0.131685 
0.193201 -0.131685 -11.5407 
-10.6453 -0.342979 0.0462248 
-0.342979 -10.5675 0.0309054 
0.0462248 0.0309054 -11.7443 
-10.3492 -0.401435 0.298857 
-0.401435 -10.9077 0.0442417 
0.298857 0.0442417 -11.7001 
-9.65361 0.0379845 -0.26223 
0.0379845 -9.65779 -0.238311 
-0.26223 -0.238311 -9.66667 
-9.58988 0.0319499 -0.283014 
0.0319499 -9.64854 -0.259681 
-0.283014 -0.259681 -9.73965 
-9.79294 -0.0646257 -0.240357 
-0.0646257 -9.66896 -0.19513 
-0.240357 -0.19513 -9.51618 
-9.61329 0.0265414 -0.175792 
0.0265414 -9.68245 -0.2561 
-0.175792 -0.2561 -9.68234 
-9.58756 0.000319971 0.147725 
0.000319971 -9.6058 -0.313382 
0.147725 -0.313382 -9.61148 
-9.58833 0.0052788 0.105332 
0.0052788 -9.56691 -0.305579 
0.105332 -0.305579 -9.6496 
-9.58766 0.0029059 0.0822781 
0.0029059 -9.57321 -0.361253 
0.0822781 -0.361253 -9.64398 
-9.58744 -0.00577966 0.116384 
-0.00577966 -9.58188 -0.326812 
0.116384 -0.326812 -9.63551 
-9.9751 0.00638025 0.138101 
0.00638025 -9.95217 0.0181286 
0.138101 0.0181286 -9.95224 
-9.92308 -0.00224978 0.129725 
-0.00224978 -9.92948 0.020996 
0.129725 0.020996 -10.0269 
-9.95189 0.0073304 0.12967 
0.0073304 -9.94938 0.0288649 
0.12967 0.0288649 -9.97824 
-9.98224 -0.00157071 0.120036 
-0.00157071 -9.9532 0.0199631 
0.120036 0.0199631 -9.94408 
-9.72006 0.0117497 -0.250596 
0.0117497 -9.60231 0.101937 
-0.250596 0.101937 -9.51495 
-9.80148 0.119983 -0.244844 
0.119983 -9.56843 0.113178 
-0.244844 0.113178 -9.46741 
-9.77252 0.113425 -0.185771 
0.113425 -9.53116 0.142162 
-0.185771 0.142162 -9.53364 
-9.81823 0.177292 -0.116525 
0.177292 -9.53965 0.0785459 
-0.116525 0.0785459 -9.47943 
-12.5362 0.514891 0.681642 
0.514891 -10.4424 1.35211 
0.681642 1.35211 -16.8656 
-15.4069 1.33929 0.357662 
1.33929 -13.8613 -0.346439 
0.357662 -0.346439 -10.5761 
-12.8351 1.01868 -0.218842 
1.01868 -10.7359 1.54637 
-0.218842 1.54637 -16.2732 
-13.3929 1.06137 -0.755984 
1.06137 -10.0562 -1.16773 
-0.755984 -1.16773 -16.3952 
-9.57029 0.624789 0.0278589 
0.624789 -10.4653 -0.0985818 
0.0278589 -0.0985818 -11.6769 
-9.75222 0.339696 -0.405233 
0.339696 -10.2424 -0.174009 
-0.405233 -0.174009 -11.7179 
-10.3333 -0.375882 -0.611132 
-0.375882 -10.1966 -0.246935 
-0.611132 -0.246935 -11.1826 
-9.75277 0.341551 -0.592297 
0.341551 -10.5712 0.0460032 
-0.592297 0.0460032 -11.3886 
-7.99276 -0.860212 1.68974 
-0.860212 -12.2826 1.10071 
1.68974 1.10071 -10.6486 
-12.3236 0.336551 -0.760797 
0.336551 -8.54012 -1.78522 
-0.760797 -1.78522 -10.0602 
-13.316 2.54969 1.99306 
2.54969 -1.36801 -2.40616 
1.99306 -2.40616 -16.2399 
-10.5621 -1.83988 -0.919803 
-1.83988 -9.03675 -1.98889 
-0.919803 -1.98889 -11.325 
-9.6918 0.00746143 0.332613 
0.00746143 -9.66926 -0.124417 
0.332613 -0.124417 -9.68271 
-9.68447 -0.0478166 0.299484 
-0.0478166 -9.667 -0.0571958 
0.299484 -0.0571958 -9.6923 
-9.70186 -0.0136337 0.330767 
-0.0136337 -9.68409 -0.0974518 
0.330767 -0.0974518 -9.65781 
-9.6704 0.0135188 0.314036 
0.0135188 -9.68917 -0.123022 
0.314036 -0.123022 -9.68421 
-9.4603 -0.0485583 -0.120579 
-0.0485583 -9.37717 -0.320773 
-0.120579 -0.320773 -9.77 
-9.57271 0.0420359 -0.21127 
0.0420359 -9.59585 -0.400705 
-0.21127 -0.400705 -9.4389 
-9.45012 -0.0240902 -0.239131 
-0.0240902 -9.53739 -0.407836 
-0.239131 -0.407836 -9.61995 
-9.41832 0.222057 -0.447636 
0.222057 -9.41099 -0.589783 
-0.447636 -0.589783 -9.77816 
-9.65764 0.0373422 0.384884 
0.0373422 -9.63371 0.00638151 
0.384884 0.00638151 -9.43198 
-9.50647 -0.027639 0.425736 
-0.027639 -9.61226 0.04509 
0.425736 0.04509 -9.6046 
-9.55751 0.0402601 0.374654 
0.0402601 -9.65272 0.04557 
0.374654 0.04557 -9.5131 
-9.63175 0.012668 0.275349 
0.012668 -9.66445 0.144446 
0.275349 0.144446 -9.42713 
-9.72349 -0.0134059 0.19322 
-0.0134059 -9.734 0.274422 
0.19322 0.274422 -9.71697 
-9.75635 -0.0105368 0.195838 
-0.0105368 -9.77324 0.238287 
0.195838 0.238287 -9.64487 
-9.72696 -0.0248667 0.187274 
-0.0248667 -9.7435 0.254683 
0.187274 0.254683 -9.704 
-9.75707 0.0178828 0.19396 
0.0178828 -9.66963 0.202493 
0.19396 0.202493 -9.74777 
-11.3488 -2.95354 6.6014 
-2.95354 -11.4494 -5.34927 
6.6014 -5.34927 -1.58559 
-9.9723 2.6066 2.10556 
2.6066 -9.82421 0.981191 
2.10556 0.981191 -4.58732 
-9.51042 1.72163 4.51704 
1.72163 -8.59076 -2.23222 
4.51704 -2.23222 -6.28265 
-7.40712 -3.91246 0.845213 
-3.91246 -7.89665 -1.13424 
0.845213 -1.13424 -9.08007 
-8.20041 -1.58423 -1.19437 
-1.58423 -9.3292 -1.10732 
-1.19437 -1.10732 -8.86762 
-10.5813 -0.378742 0.305734 
-0.378742 -11.4329 -1.10854 
0.305734 -1.10854 -4.38295 
-9.99271 0.622013 1.96708 
0.622013 -7.30515 -1.45375 
1.96708 -1.45375 -9.09936 
-10.6167 2.33913 1.27536 
2.33913 -9.45865 -1.02568 
1.27536 -1.02568 -6.32187 
-10.6693 0.0361862 0.0712542 
0.0361862 -10.7594 -0.317719 
0.0712542 -0.317719 -12.292 
-11.2716 -0.11127 -0.100836 
-0.11127 -10.9412 0.0357136 
-0.100836 0.0357136 -11.5079 
-11.7624 -0.101695 0.00589553 
-0.101695 -11.5523 0.269244 
0.00589553 0.269244 -10.406 
-11.1195 -0.444518 -0.500332 
-0.444518 -10.9695 0.341645 
-0.500332 0.341645 -11.6317 
-9.87633 -0.00783094 -0.247001 
-0.00783094 -9.90512 0.115506 
-0.247001 0.115506 -9.93898 
-9.91778 0.0138659 -0.236475 
0.0138659 -9.90218 0.136417 
-0.236475 0.136417 -9.90047 
-9.90441 -0.00712474 -0.224962 
-0.00712474 -9.93679 0.122923 
-0.224962 0.122923 -9.87923 
-9.90857 0.0110395 -0.237533 
0.0110395 -9.90502 0.13445 
-0.237533 0.13445 -9.90683 
-9.35849 0.281371 -0.143286 
0.281371 -9.38553 -0.193845 
-0.143286 -0.193845 -9.43678 
-9.14378 -0.0212297 -0.724516 
-0.0212297 -9.27149 -0.11739 
-0.724516 -0.11739 -9.76553 
-8.89887 0.639196 -0.665862 
0.639196 -9.78553 -0.324484 
-0.665862 -0.324484 -9.49641 
-9.49518 -0.244198 -0.533333 
-0.244198 -9.38988 -0.539115 
-0.533333 -0.539115 -9.29575 
-8.80591 -2.18042 -0.273088 
-2.18042 -12.1614 -0.387202 
-0.273088 -0.387202 -11.4736 
-5.90302 5.45317 -2.69763 
5.45317 -11.371 -3.49453 
-2.69763 -3.49453 -15.1669 
-10.7204 0.453741 -3.65959 
0.453741 -11.482 -1.55425 
-3.65959 -1.55425 -10.2385 
-10.4378 2.49853 -4.49758 
2.49853 -12.925 -0.365023 
-4.49758 -0.365023 -9.07806 
-6.53809 1.04672 1.53755 
1.04672 -9.14527 -0.344743 
1.53755 -0.344743 -10.782 
-8.39555 0.649061 -1.0407 
0.649061 -10.1741 3.06349 
-1.0407 3.06349 -7.89572 
-7.51653 2.0361 2.52824 
2.0361 -10.5771 1.53788 
2.52824 1.53788 -8.37179 
-8.49703 3.22422 -1.33945 
3.22422 -8.21296 2.37774 
-1.33945 2.37774 -9.75542 
-9.80531 -0.00838084 1.69117 
-0.00838084 -9.72637 -0.106216 
1.69117 -0.106216 6.19523 
-4.66885 -3.33195 1.40881 
-3.33195 -10.859 -0.197064 
1.40881 -0.197064 2.19144 
-1.60219 2.28027 -2.87404 
2.28027 -1.81841 0.253262 
-2.87404 0.253262 -9.91585 
-10.2965 -2.28138 -1.40744 
-2.28138 -3.10388 -7.5983 
-1.40744 -7.5983 0.0639771 
-9.76905 0.0254011 -0.219298 
0.0254011 -9.73795 -0.242262 
-0.219298 -0.242262 -9.75478 
-9.82301 -0.0155982 -0.186056 
-0.0155982 -9.72372 -0.259481 
-0.186056 -0.259481 -9.71505 
-9.76189 -0.0161682 -0.229563 
-0.0161682 -9.75997 -0.202239 
-0.229563 -0.202239 -9.73992 
-9.73299 0.00101235 -0.221314 
0.00101235 -9.76708 -0.172458 
-0.221314 -0.172458 -9.76172 
-9.64508 0.0431652 -0.165553 
0.0431652 -9.66686 0.0578781 
-0.165553 0.0578781 -9.75552 
-9.75212 -0.0127227 -0.226949 
-0.0127227 -9.71682 -0.036814 
-0.226949 -0.036814 -9.59851 
-9.71622 -0.00488151 -0.229532 
-0.00488151 -9.69648 -0.0527864 
-0.229532 -0.0527864 -9.65475 
-9.75664 -0.00565546 -0.212847 
-0.00565546 -9.6748 -0.0740386 
-0.212847 -0.0740386 -9.63602 
-9.13193 -0.0703964 -0.276377 
-0.0703964 -9.5513 0.0386326 
-0.276377 0.0386326 -9.76715 
-9.42309 0.141628 -0.251007 
0.141628 -9.64384 -0.53379 
-0.251007 -0.53379 -9.38345 
-9.23566 0.00438802 -0.395603 
0.00438802 -9.51108 -0.0565623 
-0.395603 -0.0565623 -9.70364 
-9.115 0.189617 -0.495058 
0.189617 -9.73827 -0.24377 
-0.495058 -0.24377 -9.59711 
-9.94742 -0.00257615 0.110932 
-0.00257615 -9.94065 -0.192387 
0.110932 -0.192387 -10.0139 
-9.95554 -0.00160312 0.101361 
-0.00160312 -9.96446 -0.19868 
0.101361 -0.19868 -9.98193 
-9.96098 0.00374904 0.106252 
0.00374904 -9.97725 -0.195406 
0.106252 -0.195406 -9.96372 
-9.97037 0.0092906 0.103861 
0.0092906 -9.97638 -0.215999 
0.103861 -0.215999 -9.95519 
-9.23891 0.136936 0.022826 
0.136936 -8.94048 0.49652 
0.022826 0.49652 -10.4892 
-9.71314 0.126089 0.137587 
0.126089 -9.41275 0.237515 
0.137587 0.237515 -9.54271 
-10.0139 0.121837 0.128051 
0.121837 -9.20437 0.602081 
0.128051 0.602081 -9.45032 
-9.48853 -0.159981 0.107274 
-0.159981 -9.3315 0.515801 
0.107274 0.515801 -9.84856 
-9.28716 0.08701 -0.351487 
0.08701 -9.3525 0.14365 
-0.351487 0.14365 -9.73705 
-9.07044 0.0975465 -0.258933 
0.0975465 -9.56582 0.180763 
-0.258933 0.180763 -9.74046 
-9.12431 -0.0430765 -0.187117 
-0.0430765 -9.45231 0.158635 
-0.187117 0.158635 -9.8001 
-9.13288 0.00723673 -0.164418 
0.00723673 -9.44786 0.134133 
-0.164418 0.134133 -9.79597 
-9.42889 -0.345196 -0.262695 
-0.345196 -9.2086 0.176917 
-0.262695 0.176917 -9.79189 
-9.48016 -0.130678 -0.281061 
-0.130678 -9.19739 0.513986 
-0.281061 0.513986 -9.75182 
-9.62823 -0.206478 -0.191573 
-0.206478 -9.10235 0.552361 
-0.191573 0.552361 -9.6988 
-9.55174 0.0239255 -0.268157 
0.0239255 -9.22613 0.411254 
-0.268157 0.411254 -9.6515 
-7.69197 -0.0476554 -1.87601 
-0.0476554 -8.88254 -3.465 
-1.87601 -3.465 -5.78274 
-7.9873 2.16854 -2.13275 
2.16854 -6.78896 -1.87667 
-2.13275 -1.87667 -7.58099 
-10.4335 1.84652 -3.58524 
1.84652 -9.34357 -5.61498 
-3.58524 -5.61498 -2.58014 
-8.29465 -1.53753 -0.365484 
-1.53753 -9.48827 -1.14264 
-0.365484 -1.14264 -4.57433 
-9.95581 -0.00626524 0.0875436 
-0.00626524 -9.94672 0.0357631 
0.0875436 0.0357631 -9.98074 
-9.95184 -0.00171188 0.0806324 
-0.00171188 -9.94445 0.0290515 
0.0806324 0.0290515 -9.98698 
-9.95677 -0.00318569 0.0935617 
-0.00318569 -9.9358 0.0255432 
0.0935617 0.0255432 -9.9907 
-9.96179 -0.00486354 0.0777201 
-0.00486354 -9.95781 0.0300989 
0.0777201 0.0300989 -9.96367 
-9.56556 -0.0371335 0.146942 
-0.0371335 -9.54301 -0.00736983 
0.146942 -0.00736983 -10.2933 
-9.45 0.0105205 0.149639 
0.0105205 -9.57728 0.0161797 
0.149639 0.0161797 -10.3746 
-9.45205 -0.113184 -0.00602883 
-0.113184 -9.64955 -0.106467 
-0.00602883 -0.106467 -10.3003 
-9.5497 -0.0565121 0.161092 
-0.0565121 -9.65549 -0.0823276 
0.161092 -0.0823276 -10.1967 
-9.76621 -0.0309955 -0.00931026 
-0.0309955 -9.58173 -0.00567764 
-0.00931026 -0.00567764 -9.63481 
-9.72576 -0.0298107 -0.0680184 
-0.0298107 -9.61939 -0.0278423 
-0.0680184 -0.0278423 -9.63759 
-9.74507 -0.0951263 -0.0663608 
-0.0951263 -9.6669 -0.0327771 
-0.0663608 -0.0327771 -9.57077 
-9.68636 0.0651451 -0.119494 
0.0651451 -9.61058 -0.0967527 
-0.119494 -0.0967527 -9.6858 
-9.78814 0.0178207 0.0758635 
0.0178207 -9.75928 -0.0362875 
0.0758635 -0.0362875 -9.81977 
-9.77994 0.0102836 0.0663249 
0.0102836 -9.76139 -0.0523948 
0.0663249 -0.0523948 -9.82586 
-9.80504 0.0075517 0.0413634 
0.0075517 -9.75875 -0.0327128 
0.0413634 -0.0327128 -9.8034 
-9.79894 0.028589 0.0810893 
0.028589 -9.77844 -0.0437698 
0.0810893 -0.0437698 -9.7898 
-8.60881 -0.906915 -2.48638 
-0.906915 -9.47839 1.6904 
-2.48638 1.6904 -7.88715 
-8.78728 -0.771259 -1.00287 
-0.771259 -8.43046 1.49636 
-1.00287 1.49636 -8.75661 
-9.16555 -1.21538 -1.22974 
-1.21538 -8.60093 1.43288 
-1.22974 1.43288 -8.20787 
-9.35809 -1.25799 -0.857146 
-1.25799 -9.02808 1.20846 
-0.857146 1.20846 -7.58817 
-9.58491 0.00857358 -0.0485289 
0.00857358 -9.6888 0.179852 
-0.0485289 0.179852 -9.49035 
-9.57027 0.0907685 -0.0986207 
0.0907685 -9.61251 0.163755 
-0.0986207 0.163755 -9.58128 
-9.53296 0.0162502 -0.0510775 
0.0162502 -9.78315 0.12735 
-0.0510775 0.12735 -9.44795 
-9.61525 0.0339299 -0.0992069 
0.0339299 -9.75598 0.121295 
-0.0992069 0.121295 -9.39283 
-9.77974 0.0317191 -0.23751 
0.0317191 -9.80383 -0.239851 
-0.23751 -0.239851 -9.7841 
-9.78044 0.0220988 -0.157494 
0.0220988 -9.7678 -0.198487 
-0.157494 -0.198487 -9.81942 
-9.81497 -0.0274382 -0.240331 
-0.0274382 -9.81043 -0.239796 
-0.240331 -0.239796 -9.74227 
-9.7742 0.0277121 -0.204083 
0.0277121 -9.80782 -0.215405 
-0.204083 -0.215405 -9.78564 
-9.87613 -0.0172593 -0.0496033 
-0.0172593 -9.90762 0.221588 
-0.0496033 0.221588 -9.94521 
-9.91013 -0.00672718 -0.0683826 
-0.00672718 -9.93716 0.241412 
-0.0683826 0.241412 -9.88167 
-9.91719 0.0193959 -0.0440782 
0.0193959 -9.91286 0.241173 
-0.0440782 0.241173 -9.89891 
-9.90972 0.0141131 -0.0478438 
0.0141131 -9.91673 0.24342 
-0.0478438 0.24342 -9.90251 
-9.64821 0.0290855 0.00225632 
0.0290855 -9.74746 -0.193545 
0.00225632 -0.193545 -9.678 
-9.69543 -0.0200044 0.0611406 
-0.0200044 -9.74428 -0.243229 
0.0611406 -0.243229 -9.63396 
-9.7004 -0.0105378 0.0767151 
-0.0105378 -9.75825 -0.200601 
0.0767151 -0.200601 -9.61502 
-9.72483 0.0481011 0.0208508 
0.0481011 -9.85427 -0.225499 
0.0208508 -0.225499 -9.49458 
-9.61209 -0.327704 -0.411551 
-0.327704 -9.32149 0.716401 
-0.411551 0.716401 -10.4879 
-9.70578 -0.3465 -0.651092 
-0.3465 -9.32699 0.534039 
-0.651092 0.534039 -10.3887 
-9.64156 -0.548406 0.232418 
-0.548406 -9.72858 0.034535 
0.232418 0.034535 -10.0513 
-9.12277 -0.401827 -0.543606 
-0.401827 -9.06365 0.440184 
-0.543606 0.440184 -11.2351 
-7.9169 0.0638004 -2.35414 
0.0638004 -9.902 0.646929 
-2.35414 0.646929 -8.23095 
-7.49935 0.993422 -1.6561 
0.993422 -10.4255 0.0324891 
-1.6561 0.0324891 -8.12497 
-7.45075 0.325803 -1.59364 
0.325803 -8.85403 -0.458688 
-1.59364 -0.458688 -9.74507 
-7.75735 0.283722 -0.777904 
0.283722 -10.8841 0.591874 
-0.777904 0.591874 -7.40838 
-9.67392 -0.0409688 0.141716 
-0.0409688 -9.71842 0.141629 
0.141716 0.141629 -9.64798 
-9.69157 -0.052232 0.125825 
-0.052232 -9.72741 0.0933933 
0.125825 0.0933933 -9.62135 
-9.72178 -0.0383634 0.119833 
-0.0383634 -9.66191 0.0808194 
0.119833 0.0808194 -9.65664 
-9.73002 -0.0399446 0.100308 
-0.0399446 -9.70886 0.0953955 
0.100308 0.0953955 -9.60144 
-9.76504 -0.00562325 0.298126 
-0.00562325 -9.76752 0.156896 
0.298126 0.156896 -9.74398 
-9.78089 -0.0181322 0.264426 
-0.0181322 -9.76041 0.169369 
0.264426 0.169369 -9.73523 
-9.83937 -0.0198928 0.236171 
-0.0198928 -9.75609 0.186049 
0.236171 0.186049 -9.68107 
-9.71328 -0.00954962 0.249731 
-0.00954962 -9.78084 0.163854 
0.249731 0.163854 -9.78241 
-9.60135 -0.0183301 0.278575 
-0.0183301 -9.5948 -0.205907 
0.278575 -0.205907 -9.60433 
-9.59885 -0.0227741 0.286336 
-0.0227741 -9.61031 -0.228966 
0.286336 -0.228966 -9.59132 
-9.61213 -0.00533293 0.298415 
-0.00533293 -9.59 -0.214864 
0.298415 -0.214864 -9.59836 
-9.62057 -0.00839676 0.323184 
-0.00839676 -9.57434 -0.213355 
0.323184 -0.213355 -9.60558 
-9.72797 -0.00371475 0.0876343 
-0.00371475 -9.73663 -0.329368 
0.0876343 -0.329368 -9.72216 
-9.71198 0.0126449 0.0704217 
0.0126449 -9.745 -0.33469 
0.0704217 -0.33469 -9.72977 
-9.69401 0.00279957 0.0359752 
0.00279957 -9.71506 -0.31647 
0.0359752 -0.31647 -9.77769 
-9.74899 0.0149648 0.10031 
0.0149648 -9.76278 -0.297218 
0.10031 -0.297218 -9.67499 
-9.04874 0.0727316 1.74028 
0.0727316 -10.3406 0.644214 
1.74028 0.644214 -7.47613 
-9.20934 0.225973 0.329706 
0.225973 -9.52751 0.699016 
0.329706 0.699016 -8.12866 
-8.79841 0.268721 1.11183 
0.268721 -9.75666 0.666595 
1.11183 0.666595 -8.31044 
-9.30358 0.310903 1.03087 
0.310903 -9.85621 0.322266 
1.03087 0.322266 -7.70571 
-8.46842 0.172278 -2.29014 
0.172278 -10.2841 -0.111308 
-2.29014 -0.111308 -7.07111 
-7.72181 1.02897 -1.33071 
1.02897 -10.7384 -1.27233 
-1.33071 -1.27233 -7.36345 
-8.56115 0.182351 -1.57414 
0.182351 -8.31473 -0.35153 
-1.57414 -0.35153 -8.94774 
-8.12343 0.211002 -1.23216 
0.211002 -10.4853 -0.72467 
-1.23216 -0.72467 -7.21494 
-9.04072 0.0938185 -0.171926 
0.0938185 -10.0605 -0.407669 
-0.171926 -0.407669 -9.42604 
-9.23966 0.20884 -0.057095 
0.20884 -9.7868 -0.315506 
-0.057095 -0.315506 -9.50076 
-9.39941 0.430805 -0.052047 
0.430805 -9.569 -0.368441 
-0.052047 -0.368441 -9.5588 
-9.26421 0.0733542 0.287819 
0.0733542 -9.75917 -0.140703 
0.287819 -0.140703 -9.50383 
-9.72448 -0.0642429 -0.139725 
-0.0642429 -9.47337 -0.0692928 
-0.139725 -0.0692928 -9.33907 
-9.75125 -0.033249 -0.103651 
-0.033249 -9.46548 -0.0389466 
-0.103651 -0.0389466 -9.32019 
-9.72063 -0.0702674 -0.144767 
-0.0702674 -9.47431 -0.0705119 
-0.144767 -0.0705119 -9.34198 
-9.73151 -0.0874698 -0.120353 
-0.0874698 -9.48385 -0.0750818 
-0.120353 -0.0750818 -9.32157 
-9.57574 -0.00181122 0.00602307 
-0.00181122 -9.46558 -0.0204933 
0.00602307 -0.0204933 -9.4682 
-9.51115 -0.0430046 0.0593264 
-0.0430046 -9.44533 0.0647699 
0.0593264 0.0647699 -9.55304 
-9.54169 -0.00521367 0.0884 
-0.00521367 -9.46728 0.0233483 
0.0884 0.0233483 -9.50055 
-9.65722 -0.246381 0.262818 
-0.246381 -9.41495 -0.0177916 
0.262818 -0.0177916 -9.43735 
-9.84789 0.0151684 0.0408123 
0.0151684 -9.84925 -0.208166 
0.0408123 -0.208166 -9.84333 
-9.85886 -0.0117185 0.0406385 
-0.0117185 -9.86883 -0.203318 
0.0406385 -0.203318 -9.81277 
-9.86751 0.00411098 0.0141906 
0.00411098 -9.86664 -0.185197 
0.0141906 -0.185197 -9.80631 
-9.85078 7.54489e-05 0.0438876 
7.54489e-05 -9.85604 -0.204468 
0.0438876 -0.204468 -9.83364 
-9.66484 0.0584327 0.116461 
0.0584327 -9.45028 0.161878 
0.116461 0.161878 -10.1194 
-9.52308 -0.0433317 0.207391 
-0.0433317 -9.75985 -0.208243 
0.207391 -0.208243 -9.95156 
-9.77847 0.073054 0.0354304 
0.073054 -9.48321 0.247849 
0.0354304 0.247849 -9.97281 
-9.68954 0.0654146 0.0514202 
0.0654146 -9.40275 0.214987 
0.0514202 0.214987 -10.1422 
-9.47396 -0.491678 -0.400725 
-0.491678 -10.5031 -0.192178 
-0.400725 -0.192178 -12.1195 
-10.7296 -0.112246 0.314139 
-0.112246 -10.285 0.555474 
0.314139 0.555474 -11.082 
-9.37742 -0.804863 -0.760083 
-0.804863 -11.5121 -0.0381 
-0.760083 -0.0381 -11.207 
-9.375 -0.557788 -1.61659 
-0.557788 -11.6569 0.383771 
-1.61659 0.383771 -11.0646 
-9.85927 0.0042198 -0.325947 
0.0042198 -9.83821 -0.0437272 
-0.325947 -0.0437272 -9.83745 
-9.91103 0.000442289 -0.341654 
0.000442289 -9.81726 -0.0397194 
-0.341654 -0.0397194 -9.80663 
-9.76497 -0.0108003 -0.345982 
-0.0108003 -9.87718 -0.0454335 
-0.345982 -0.0454335 -9.89277 
-9.85509 -0.0174697 -0.258273 
-0.0174697 -9.82838 -0.0384037 
-0.258273 -0.0384037 -9.85146 
-13.6301 2.08509 -4.24855 
2.08509 -8.52586 3.43991 
-4.24855 3.43991 5.16446 
-9.14876 0.752704 -4.14297 
0.752704 -8.80602 1.0953 
-4.14297 1.0953 0.963272 
-2.72091 0.0504609 0.93273 
0.0504609 -2.12354 -1.16253 
0.93273 -1.16253 -12.1471 
-1.61166 -4.12124 -9.78777 
-4.12124 -6.2726 2.32676 
-9.78777 2.32676 -9.10725 
-9.37333 0.0892659 -0.00310209 
0.0892659 -9.65781 -0.0159138 
-0.00310209 -0.0159138 -10.035 
-9.69733 0.0253302 0.0496827 
0.0253302 -9.5787 0.097224 
0.0496827 0.097224 -9.79011 
-9.52056 0.0274696 0.233942 
0.0274696 -9.50599 0.0931815 
0.233942 0.0931815 -10.0396 
-9.53367 0.0636895 0.0864429 
0.0636895 -9.60167 0.0582543 
0.0864429 0.0582543 -9.9308 
-9.42003 0.143586 0.462508 
0.143586 -10.2895 0.0502823 
0.462508 0.0502823 -9.93411 
-10.0911 0.234397 -0.606216 
0.234397 -9.5445 -0.0991091 
-0.606216 -0.0991091 -10.0081 
-9.72455 -0.022752 0.256875 
-0.022752 -9.60111 0.0623009 
0.256875 0.0623009 -10.318 
-9.23841 0.0277347 -0.184779 
0.0277347 -10.0277 -0.0464494 
-0.184779 -0.0464494 -10.3775 
-8.26628 -0.972495 -0.140062 
-0.972495 -6.49594 -1.33507 
-0.140062 -1.33507 -2.16447 
-7.68416 -0.0894634 0.138763 
-0.0894634 -7.74543 -0.516373 
0.138763 -0.516373 -1.4971 
-7.18032 0.485857 1.09558 
0.485857 -7.38998 -1.511 
1.09558 -1.511 -2.35638 
-6.95081 0.0857116 0.488017 
0.0857116 -7.82042 -1.66633 
0.488017 -1.66633 -2.15545 
-8.28873 1.47549 0.716976 
1.47549 -9.79098 1.60153 
0.716976 1.60153 -9.9681 
-8.12517 -0.620346 -1.1609 
-0.620346 -9.7567 -0.25297 
-1.1609 -0.25297 -10.1659 
-9.48288 -0.681197 -1.55364 
-0.681197 -9.03369 -0.318467 
-1.55364 -0.318467 -9.53125 
-8.52451 0.545194 -1.63534 
0.545194 -10.6359 0.540299 
-1.63534 0.540299 -8.88741 
-9.73378 0.0590403 0.173345 
0.0590403 -9.70233 -0.0862603 
0.173345 -0.0862603 -9.73938 
-9.803 0.0124924 0.0961389 
0.0124924 -9.74689 -0.0666079 
0.0961389 -0.0666079 -9.62559 
-9.71336 -0.0439237 0.124484 
-0.0439237 -9.70962 0.0241818 
0.124484 0.0241818 -9.75251 
-9.82056 0.116288 0.0983366 
0.116288 -9.6505 -0.0728736 
0.0983366 -0.0728736 -9.70442 
-10.0695 0.439753 -0.327458 
0.439753 -10.144 -0.0445759 
-0.327458 -0.0445759 -11.8711 
-10.0354 0.813476 0.247548 
0.813476 -10.4009 0.0250976 
0.247548 0.0250976 -11.6483 
-9.98451 0.974793 0.0276854 
0.974793 -10.5504 0.0992023 
0.0276854 0.0992023 -11.5498 
-10.4081 -0.35294 1.11039 
-0.35294 -10.8258 0.339499 
1.11039 0.339499 -10.8507 
-9.93467 -0.00473911 0.057174 
-0.00473911 -9.899 0.210852 
0.057174 0.210852 -9.80026 
-9.87443 0.00433892 0.0748345 
0.00433892 -9.91004 0.25222 
0.0748345 0.25222 -9.84946 
-9.86467 -0.00102406 0.0580329 
-0.00102406 -9.89172 0.247148 
0.0580329 0.247148 -9.87754 
-9.86715 -0.00619395 0.072061 
-0.00619395 -9.91266 0.264727 
0.072061 0.264727 -9.85412 
-9.70876 -0.0393364 -0.0667257 
-0.0393364 -9.78175 -0.164401 
-0.0667257 -0.164401 -9.64018 
-9.64999 -0.0395532 0.0267882 
-0.0395532 -9.85322 -0.113607 
0.0267882 -0.113607 -9.62748 
-9.67884 -0.000391901 -0.0828639 
-0.000391901 -9.66233 -0.120462 
-0.0828639 -0.120462 -9.78952 
-9.68484 -0.0337902 -0.0346465 
-0.0337902 -9.7312 -0.125158 
-0.0346465 -0.125158 -9.71464 
-9.50562 -0.117152 0.0359915 
-0.117152 -9.65319 -0.256422 
0.0359915 -0.256422 -9.5004 
-9.41081 -0.0255305 -0.00516044 
-0.0255305 -9.57829 -0.369629 
-0.00516044 -0.369629 -9.6701 
-9.65566 0.107639 -0.173239 
0.107639 -9.44083 -0.452305 
-0.173239 -0.452305 -9.56272 
-9.45568 0.360662 -0.14189 
0.360662 -9.29903 0.097645 
-0.14189 0.097645 -9.9045 
-9.06566 -0.669089 -0.0221704 
-0.669089 -9.48329 0.445959 
-0.0221704 0.445959 -9.41534 
-10.5349 -0.39831 -0.420359 
-0.39831 -9.8885 -1.49395 
-0.420359 -1.49395 -7.54091 
-9.82675 0.538721 -0.824795 
0.538721 -9.32463 -1.63762 
-0.824795 -1.63762 -8.81292 
-9.8014 0.0248915 -0.267219 
0.0248915 -9.50355 -1.52361 
-0.267219 -1.52361 -8.65934 
-9.67773 -0.537741 0.0356714 
-0.537741 -9.46285 0.156795 
0.0356714 0.156795 -10.5085 
-9.35327 0.0752341 0.152939 
0.0752341 -9.82544 -0.335438 
0.152939 -0.335438 -10.4704 
-9.04503 -0.435813 -0.437403 
-0.435813 -9.9645 0.326837 
-0.437403 0.326837 -10.6396 
-9.69285 -0.772119 0.0338051 
-0.772119 -8.86994 0.15935 
0.0338051 0.15935 -11.0863 
-9.63142 -0.101082 0.0581475 
-0.101082 -9.58533 0.466602 
0.0581475 0.466602 -9.49012 
-9.85048 0.00543456 -0.0241207 
0.00543456 -9.49792 0.468677 
-0.0241207 0.468677 -9.35845 
-9.6125 -0.0211772 -0.03812 
-0.0211772 -9.50502 0.411266 
-0.03812 0.411266 -9.58934 
-9.56026 0.0371812 0.271656 
0.0371812 -9.72955 0.489183 
0.271656 0.489183 -9.41705 
-9.79429 0.00579458 0.109138 
0.00579458 -9.76213 -0.0779322 
0.109138 -0.0779322 -9.86913 
-9.81269 0.0253505 0.090585 
0.0253505 -9.80727 -0.0305762 
0.090585 -0.0305762 -9.80559 
-9.79769 0.0116501 0.122551 
0.0116501 -9.79128 -0.0512333 
0.122551 -0.0512333 -9.83658 
-9.79811 0.0188907 0.0990088 
0.0188907 -9.83343 -0.0585549 
0.0990088 -0.0585549 -9.79401 
-9.71653 -0.0133478 -0.10874 
-0.0133478 -9.61875 -0.357687 
-0.10874 -0.357687 -9.59267 
-9.53826 0.0304251 -0.0843915 
0.0304251 -9.61821 -0.288941 
-0.0843915 -0.288941 -9.77148 
-9.59717 -0.0377437 -0.11847 
-0.0377437 -9.6551 -0.351745 
-0.11847 -0.351745 -9.67568 
-9.71566 0.0672302 -0.115569 
0.0672302 -9.71461 -0.214937 
-0.115569 -0.214937 -9.49767 
-9.76896 0.00921966 -0.1656 
0.00921966 -9.72012 0.0859401 
-0.1656 0.0859401 -9.71015 
-9.77863 0.0640199 -0.195584 
0.0640199 -9.77454 0.0720076 
-0.195584 0.0720076 -9.64605 
-9.72558 0.00145386 -0.144491 
0.00145386 -9.73763 0.110882 
-0.144491 0.110882 -9.73601 
-9.78719 0.017456 -0.131063 
0.017456 -9.74406 0.0783489 
-0.131063 0.0783489 -9.66797 
-9.73103 -0.000423845 -0.0750914 
-0.000423845 -9.51534 -0.330191 
-0.0750914 -0.330191 -9.84057 
-9.68569 0.00183328 -0.0763199 
0.00183328 -9.7105 -0.323651 
-0.0763199 -0.323651 -9.69075 
-9.66874 0.00790932 -0.0812628 
0.00790932 -9.83177 -0.362346 
-0.0812628 -0.362346 -9.58644 
-9.68459 0.0214543 -0.155255 
0.0214543 -9.74577 -0.197594 
-0.155255 -0.197594 -9.65658 
-10.575 0.611053 0.624535 
0.611053 -9.49342 -0.434521 
0.624535 -0.434521 -9.17101 
-9.15182 0.61682 0.874539 
0.61682 -9.49217 0.800064 
0.874539 0.800064 -10.5955 
-8.64696 0.816329 0.945451 
0.816329 -8.6217 0.874731 
0.945451 0.874731 -11.9708 
-9.78806 0.529322 0.947982 
0.529322 -9.39995 0.929792 
0.947982 0.929792 -10.0514 
-9.51278 0.0401421 0.137265 
0.0401421 -9.50057 0.279566 
0.137265 0.279566 -9.62474 
-9.5756 0.0837126 0.11775 
0.0837126 -9.42691 0.225736 
0.11775 0.225736 -9.63557 
-9.48323 -0.131067 0.184002 
-0.131067 -9.67624 0.329595 
0.184002 0.329595 -9.47861 
-9.52802 0.0498276 0.184333 
0.0498276 -9.40966 0.362085 
0.184333 0.362085 -9.70041 
-9.7889 -0.00156068 0.123305 
-0.00156068 -9.76403 -0.0148094 
0.123305 -0.0148094 -9.76794 
-9.79443 0.0103166 0.111851 
0.0103166 -9.75107 0.00455542 
0.111851 0.00455542 -9.77538 
-9.80315 0.00180832 0.161384 
0.00180832 -9.78928 0.0310057 
0.161384 0.0310057 -9.72845 
-9.84887 -0.0227922 0.0878963 
-0.0227922 -9.74596 -0.00817382 
0.0878963 -0.00817382 -9.72604 
-9.28944 0.0289555 0.148726 
0.0289555 -9.40885 0.0437052 
0.148726 0.0437052 -10.0559 
-9.22623 0.0479854 0.121486 
0.0479854 -9.46328 0.158512 
0.121486 0.158512 -10.0647 
-9.66616 -0.191631 0.372239 
-0.191631 -8.99876 0.387838 
0.372239 0.387838 -10.0893 
-9.35133 -0.018948 0.0287578 
-0.018948 -9.59368 0.153582 
0.0287578 0.153582 -9.80919 
-7.04203 0.563031 -0.678376 
0.563031 -11.9521 -1.82968 
-0.678376 -1.82968 -19.6929 
-10.4934 -0.625934 -0.828774 
-0.625934 -15.841 1.17975 
-0.828774 1.17975 -12.3526 
-9.77637 1.57677 -0.431081 
1.57677 -13.0833 -0.821658 
-0.431081 -0.821658 -15.8273 
-10.5626 0.64021 0.00218759 
0.64021 -13.2167 -0.271959 
0.00218759 -0.271959 -14.9076 
-9.61878 -0.0644092 0.246798 
-0.0644092 -9.56376 0.192868 
0.246798 0.192868 -9.46231 
-9.60279 -0.061355 0.284263 
-0.061355 -9.60043 0.170727 
0.284263 0.170727 -9.44162 
-9.55899 0.0868278 0.189389 
0.0868278 -9.50906 0.199992 
0.189389 0.199992 -9.5768 
-9.60138 -0.0960864 0.201544 
-0.0960864 -9.58757 0.171763 
0.201544 0.171763 -9.4559 
-10.157 -0.0503123 -0.288155 
-0.0503123 -9.70705 -0.1696 
-0.288155 -0.1696 -11.5443 
-9.49442 -0.175366 -0.60104 
-0.175366 -10.2833 0.864358 
-0.60104 0.864358 -11.6307 
-8.84068 -0.678616 -0.284562 
-0.678616 -11.2218 -0.0513282 
-0.284562 -0.0513282 -11.3459 
-9.206 -0.427163 0.515111 
-0.427163 -10.6418 -0.542817 
0.515111 -0.542817 -11.5605 
-10.8014 -0.826965 -0.13345 
-0.826965 -10.6184 -0.0165311 
-0.13345 -0.0165311 -11.1919 
-10.5857 0.216384 0.202411 
0.216384 -11.4925 -0.359076 
0.202411 -0.359076 -10.5336 
-10.7107 -0.0710723 0.0838202 
-0.0710723 -10.6942 0.0597181 
0.0838202 0.0597181 -11.2068 
-10.7731 0.0214964 -0.0574703 
0.0214964 -10.5783 -0.0351492 
-0.0574703 -0.0351492 -11.2603 
-9.29672 -0.452474 -0.454484 
-0.452474 -10.0104 0.312643 
-0.454484 0.312643 -10.3855 
-9.3829 -0.562195 -0.0832778 
-0.562195 -9.31812 -0.0880791 
-0.0832778 -0.0880791 -10.9916 
-9.48745 0.00512577 0.133938 
0.00512577 -9.68352 -0.115748 
0.133938 -0.115748 -10.5216 
-8.8414 -0.202664 -0.0198345 
-0.202664 -9.12981 -0.224232 
-0.0198345 -0.224232 -11.7214 
-9.59895 0.0362512 0.0886395 
0.0362512 -9.73915 -0.272731 
0.0886395 -0.272731 -9.59811 
-9.64437 0.0210079 0.00466174 
0.0210079 -9.73447 -0.221768 
0.00466174 -0.221768 -9.55736 
-9.64324 -0.0472609 0.174887 
-0.0472609 -9.70489 -0.255222 
0.174887 -0.255222 -9.58807 
-9.58605 0.0746319 0.168358 
0.0746319 -9.87716 -0.0989738 
0.168358 -0.0989738 -9.47299 
-9.84545 0.0484702 -0.0704122 
0.0484702 -9.94588 0.238062 
-0.0704122 0.238062 -8.93651 
-9.7074 -0.16409 0.265713 
-0.16409 -9.71284 0.178541 
0.265713 0.178541 -9.30761 
-9.59964 -0.217366 -0.0335338 
-0.217366 -9.9238 0.505256 
-0.0335338 0.505256 -9.2044 
-9.66831 -0.0875555 0.0305595 
-0.0875555 -9.85981 0.197912 
0.0305595 0.197912 -9.19972 
-9.92229 0.213796 0.203696 
0.213796 -10.1131 -0.0782524 
0.203696 -0.0782524 -10.3445 
-10.1092 -0.147312 0.0840242 
-0.147312 -10.1075 -0.132281 
0.0840242 -0.132281 -10.1632 
-9.80445 0.0387885 -0.144064 
0.0387885 -10.2728 0.0909678 
-0.144064 0.0909678 -10.3026 
-9.97706 -0.0804247 -0.0361281 
-0.0804247 -10.046 0.0364528 
-0.0361281 0.0364528 -10.3569 
-9.84776 0.0373019 -0.0233512 
0.0373019 -9.82156 0.0020112 
-0.0233512 0.0020112 -9.85669 
-9.85006 0.00500526 -0.0874644 
0.00500526 -9.82248 0.0347281 
-0.0874644 0.0347281 -9.85346 
-9.858 0.0117696 -0.0765861 
0.0117696 -9.82047 0.0476626 
-0.0765861 0.0476626 -9.84753 
-9.85568 0.0245495 -0.0718211 
0.0245495 -9.82979 0.0253021 
-0.0718211 0.0253021 -9.84053 
-9.58772 -0.0246458 -0.0159424 
-0.0246458 -9.6851 -0.0646419 
-0.0159424 -0.0646419 -9.52357 
-9.58304 -0.00899835 0.0614955 
-0.00899835 -9.43855 -0.0270332 
0.0614955 -0.0270332 -9.7748 
-9.46519 0.0516195 -0.0265266 
0.0516195 -9.39393 0.0428458 
-0.0265266 0.0428458 -9.93727 
-9.42649 0.0209768 0.385843 
0.0209768 -9.52468 -0.227411 
0.385843 -0.227411 -9.84522 
-9.4207 -0.043372 -0.33296 
-0.043372 -9.42305 0.192697 
-0.33296 0.192697 -9.68521 
-9.46142 0.061473 -0.370399 
0.061473 -9.60484 0.218582 
-0.370399 0.218582 -9.4627 
-9.29856 -0.215966 -0.141173 
-0.215966 -9.56426 0.102648 
-0.141173 0.102648 -9.66613 
-9.39526 -0.100289 -0.327687 
-0.100289 -9.3952 0.237051 
-0.327687 0.237051 -9.73849 
-9.35564 -0.424812 1.17359 
-0.424812 -9.62089 -0.382689 
1.17359 -0.382689 -9.10578 
-9.8697 0.0837962 0.501975 
0.0837962 -9.24244 0.0709605 
0.501975 0.0709605 -8.97018 
-8.93188 -0.313768 0.728633 
-0.313768 -9.38103 0.117194 
0.728633 0.117194 -9.7694 
-9.12849 -0.442116 0.681087 
-0.442116 -9.40461 -0.0717376 
0.681087 -0.0717376 -9.54921 
-9.57753 0.723954 0.0946277 
0.723954 -10.1061 1.5346 
0.0946277 1.5346 -12.8336 
-9.56108 0.333083 -0.362645 
0.333083 -10.1192 0.566177 
-0.362645 0.566177 -12.8369 
-9.24165 1.06293 0.951435 
1.06293 -10.7999 -0.0909696 
0.951435 -0.0909696 -12.4757 
-9.72495 0.754393 0.746403 
0.754393 -10.8935 -0.0177771 
0.746403 -0.0177771 -11.8988 
-9.85872 -0.017903 0.145885 
-0.017903 -9.86428 0.16571 
0.145885 0.16571 -9.84868 
-9.85988 -0.0176488 0.126125 
-0.0176488 -9.87476 0.167244 
0.126125 0.167244 -9.83705 
-9.86851 -0.0181556 0.131628 
-0.0181556 -9.88784 0.173964 
0.131628 0.173964 -9.81533 
-9.86207 -0.0166474 0.15223 
-0.0166474 -9.87131 0.153795 
0.15223 0.153795 -9.8383 
-10.5617 -0.348766 0.0904504 
-0.348766 -10.2459 -0.388959 
0.0904504 -0.388959 -11.6234 
-10.5894 -0.37609 0.0188654 
-0.37609 -10.1445 -0.232431 
0.0188654 -0.232431 -11.6971 
-10.62 0.46162 -0.27519 
0.46162 -9.75418 0.187874 
-0.27519 0.187874 -12.0569 
-11.0898 0.0973056 0.147634 
0.0973056 -10.096 -0.734632 
0.147634 -0.734632 -11.2451 
-11.8779 1.11707 -0.923025 
1.11707 -15.3508 -1.09289 
-0.923025 -1.09289 -8.53944 
-10.3397 1.53914 -0.522091 
1.53914 -9.83172 0.0929163 
-0.522091 0.0929163 -15.5967 
-10.2248 -0.406375 0.124334 
-0.406375 -9.30055 1.55237 
0.124334 1.55237 -16.2428 
-11.9238 1.53901 1.52654 
1.53901 -9.32203 -2.70308 
1.52654 -2.70308 -14.5222 
-9.86556 0.00626842 -0.116521 
0.00626842 -9.8781 0.118196 
-0.116521 0.118196 -9.87664 
-9.87702 0.00862214 -0.11295 
0.00862214 -9.88479 0.116149 
-0.11295 0.116149 -9.85849 
-9.90379 0.017552 -0.123187 
0.017552 -9.88998 0.145117 
-0.123187 0.145117 -9.82653 
-9.88516 0.0125908 -0.109522 
0.0125908 -9.87887 0.126962 
-0.109522 0.126962 -9.85626 
-13.7086 -1.94548 3.79346 
-1.94548 -8.37854 -1.97212 
3.79346 -1.97212 -1.4369 
-10.1637 -1.2743 4.58236 
-1.2743 -2.0897 3.49297 
4.58236 3.49297 -11.2706 
-4.2757 1.1512 1.42567 
1.1512 -12.5365 1.40607 
1.42567 1.40607 -6.71176 
-5.83985 1.69019 2.16144 
1.69019 -11.2651 3.75826 
2.16144 3.75826 -6.41905 
-9.83319 0.0294667 -0.0845118 
0.0294667 -9.86332 0.048567 
-0.0845118 0.048567 -9.85068 
-9.85214 0.0201161 -0.0793851 
0.0201161 -9.83563 0.052699 
-0.0793851 0.052699 -9.85941 
-9.87457 0.012625 -0.0300837 
0.012625 -9.81918 0.0236569 
-0.0300837 0.0236569 -9.85343 
-9.86569 0.00890567 -0.0711895 
0.00890567 -9.84265 0.0467294 
-0.0711895 0.0467294 -9.83884 
-9.84765 0.00137367 0.241541 
0.00137367 -9.53353 -0.0121323 
0.241541 -0.0121323 -9.90029 
-9.668 -0.0365966 0.0766733 
-0.0365966 -9.66431 -0.110829 
0.0766733 -0.110829 -9.94917 
-9.63636 0.0312371 -0.0438568 
0.0312371 -9.69532 -0.0425099 
-0.0438568 -0.0425099 -9.9498 
-9.59495 0.120988 0.125736 
0.120988 -9.67727 -0.0620629 
0.125736 -0.0620629 -10.0093 
-9.86502 -0.0209331 0.0979694 
-0.0209331 -9.87592 0.148577 
0.0979694 0.148577 -9.79695 
-9.84652 -0.0137117 0.0989626 
-0.0137117 -9.86922 0.137118 
0.0989626 0.137118 -9.82214 
-9.83931 -0.0163656 0.101162 
-0.0163656 -9.86152 0.139719 
0.101162 0.139719 -9.83706 
-9.84578 -0.016051 0.0935262 
-0.016051 -9.86686 0.136578 
0.0935262 0.136578 -9.82525 
-9.79096 -0.0140547 -0.000621012 
-0.0140547 -9.71873 0.335203 
-0.000621012 0.335203 -9.77629 
-9.76037 -0.0519665 -0.00553935 
-0.0519665 -9.79071 0.322804 
-0.00553935 0.322804 -9.73491 
-9.74747 0.00425833 0.0639716 
0.00425833 -9.79103 0.318665 
0.0639716 0.318665 -9.74748 
-9.76542 0.00116724 0.0458014 
0.00116724 -9.75842 0.308996 
0.0458014 0.308996 -9.76215 
-9.60882 0.0756006 -0.623026 
0.0756006 -9.45268 -0.117943 
-0.623026 -0.117943 -9.86271 
-9.15682 0.165051 -0.357603 
0.165051 -9.88811 0.0705514 
-0.357603 0.0705514 -9.87927 
-8.93987 0.199762 0.0844606 
0.199762 -9.96396 0.0447688 
0.0844606 0.0447688 -10.0204 
-9.17363 0.474085 -0.47353 
0.474085 -9.43364 0.0052859 
-0.47353 0.0052859 -10.3169 
-9.23337 -0.332737 1.02085 
-0.332737 -10.3252 -0.732021 
1.02085 -0.732021 -4.65559 
-9.56826 0.244374 0.461594 
0.244374 -8.79435 -0.439716 
0.461594 -0.439716 -5.85156 
-8.10203 -0.569974 0.414903 
-0.569974 -9.35429 -0.898943 
0.414903 -0.898943 -6.75785 
-9.43843 0.574707 1.01703 
0.574707 -9.54487 -0.727096 
1.01703 -0.727096 -5.23087 
-9.6564 0.0292884 0.24372 
0.0292884 -9.55609 -0.000655462 
0.24372 -0.000655462 -9.56865 
-9.66003 0.00045191 0.203591 
0.00045191 -9.59809 0.0680828 
0.203591 0.0680828 -9.52302 
-9.67157 0.00140101 0.190573 
0.00140101 -9.65071 0.0583455 
0.190573 0.0583455 -9.45885 
-9.64727 -0.0132127 0.191481 
-0.0132127 -9.60049 0.0909207 
0.191481 0.0909207 -9.53337 
-9.61043 -0.053537 -0.0201066 
-0.053537 -9.83527 -0.0597191 
-0.0201066 -0.0597191 -9.56978 
-9.67473 0.0249123 -0.0390718 
0.0249123 -9.66823 0.0619644 
-0.0390718 0.0619644 -9.67253 
-9.6264 0.019547 -0.00815499 
0.019547 -9.69922 0.0645847 
-0.00815499 0.0645847 -9.68986 
-9.65772 0.0833525 -0.0285284 
0.0833525 -9.64259 0.0147704 
-0.0285284 0.0147704 -9.71517 
-9.76406 0.144107 0.0577499 
0.144107 -9.73923 -0.0342325 
0.0577499 -0.0342325 -9.45904 
-9.84331 0.0487097 0.137435 
0.0487097 -9.70474 -0.074557 
0.137435 -0.074557 -9.41428 
-9.66245 0.0692544 0.160636 
0.0692544 -9.7784 -0.0671733 
0.160636 -0.0671733 -9.52147 
-9.73559 0.0728244 0.158669 
0.0728244 -9.70906 -0.126499 
0.158669 -0.126499 -9.51768 
-9.65577 -0.0671671 -0.00107973 
-0.0671671 -9.66737 -0.00282723 
-0.00107973 -0.00282723 -9.73356 
-9.61279 -0.0495261 0.157487 
-0.0495261 -9.62434 0.0495609 
0.157487 0.0495609 -9.81956 
-9.64468 -0.0253419 -0.0446944 
-0.0253419 -9.63966 0.00877873 
-0.0446944 0.00877873 -9.77236 
-9.70472 -0.0412761 0.0159824 
-0.0412761 -9.66568 -0.0366055 
0.0159824 -0.0366055 -9.6863 
-9.10884 -0.0959259 0.148962 
-0.0959259 -9.43089 -0.501961 
0.148962 -0.501961 -9.97906 
-8.01172 -0.918301 -0.341523 
-0.918301 -9.51214 -0.351521 
-0.341523 -0.351521 -10.9949 
-9.75466 -0.731024 0.364448 
-0.731024 -8.61712 -0.631379 
0.364448 -0.631379 -10.147 
-8.52032 -0.035427 0.00493536 
-0.035427 -8.86914 -0.354278 
0.00493536 -0.354278 -11.1293 
-9.80526 0.00485359 -0.109488 
0.00485359 -9.83953 -0.15799 
-0.109488 -0.15799 -9.82713 
-9.81979 -0.000581434 -0.0845038 
-0.000581434 -9.81478 -0.171384 
-0.0845038 -0.171384 -9.83735 
-9.84115 -0.0111823 -0.112932 
-0.0111823 -9.85536 -0.191422 
-0.112932 -0.191422 -9.77541 
-9.82587 -0.0550426 -0.0710479 
-0.0550426 -9.87103 -0.148766 
-0.0710479 -0.148766 -9.77502 
-9.5866 -0.498495 -0.100053 
-0.498495 -9.97345 -0.0141734 
-0.100053 -0.0141734 -11.38 
-9.82176 -0.688211 -0.0645761 
-0.688211 -9.95616 0.0954881 
-0.0645761 0.0954881 -11.1621 
-9.45526 -0.575784 -0.0635429 
-0.575784 -10.2109 -0.0152687 
-0.0635429 -0.0152687 -11.2738 
-9.92199 0.0338408 -0.524275 
0.0338408 -9.96297 0.253124 
-0.524275 0.253124 -11.0551 
-9.72623 -0.0366663 0.0106559 
-0.0366663 -9.79356 0.0502461 
0.0106559 0.0502461 -9.79942 
-9.75948 -0.0139965 0.0163252 
-0.0139965 -9.71817 0.114675 
0.0163252 0.114675 -9.84156 
-9.7455 -0.0101143 0.0308576 
-0.0101143 -9.78188 0.0660154 
0.0308576 0.0660154 -9.79182 
-9.74667 -0.0104073 0.0358971 
-0.0104073 -9.81168 0.0675881 
0.0358971 0.0675881 -9.76085 
-9.8728 0.00838969 0.277175 
0.00838969 -9.89894 0.19742 
0.277175 0.19742 -9.86364 
-9.87127 -0.0393862 0.224163 
-0.0393862 -9.84904 0.194942 
0.224163 0.194942 -9.91507 
-9.85932 0.000935492 0.286644 
0.000935492 -9.89114 0.199232 
0.286644 0.199232 -9.88492 
-9.91174 -2.60487e-05 0.306339 
-2.60487e-05 -9.91863 0.206509 
0.306339 0.206509 -9.80502 
-9.62149 0.056014 -0.259978 
0.056014 -9.6197 0.160273 
-0.259978 0.160273 -9.6083 
-9.54295 -0.0817766 -0.335526 
-0.0817766 -9.57205 0.173856 
-0.335526 0.173856 -9.7345 
-9.62914 0.0657249 -0.279776 
0.0657249 -9.65649 0.14532 
-0.279776 0.14532 -9.56386 
-9.53195 -0.0229044 -0.282457 
-0.0229044 -9.64981 0.0422813 
-0.282457 0.0422813 -9.66773 
-9.90146 -0.489028 -0.847703 
-0.489028 -8.01468 0.992137 
-0.847703 0.992137 -10.9418 
-9.79981 -0.952284 2.11439 
-0.952284 -9.54199 1.13258 
2.11439 1.13258 -9.51611 
-9.82931 1.20964 1.5065 
1.20964 -8.39638 1.42365 
1.5065 1.42365 -10.6322 
-9.82024 1.44905 0.568103 
1.44905 -8.5516 1.25455 
0.568103 1.25455 -10.4861 
-12.9975 1.76518 -1.4313 
1.76518 -14.8106 0.22433 
-1.4313 0.22433 -8.54346 
-10.8541 -0.650552 1.03101 
-0.650552 -9.70901 -0.807543 
1.03101 -0.807543 -15.7884 
-8.15629 -0.619139 -0.222893 
-0.619139 -11.4368 -0.659328 
-0.222893 -0.659328 -16.7585 
-9.80457 -1.14846 -0.311821 
-1.14846 -12.212 3.11559 
-0.311821 3.11559 -14.335 
-9.45441 0.0191602 0.299677 
0.0191602 -9.54794 -0.24309 
0.299677 -0.24309 -9.21397 
-9.39596 0.0664517 0.278969 
0.0664517 -9.77142 -0.18373 
0.278969 -0.18373 -9.04894 
-9.59303 -0.0234002 0.3843 
-0.0234002 -9.40783 -0.376274 
0.3843 -0.376274 -9.21546 
-9.42319 -0.0404033 0.41672 
-0.0404033 -9.41023 -0.132632 
0.41672 -0.132632 -9.3829 
-4.10185 -0.394378 -0.184168 
-0.394378 -5.29616 -1.58394 
-0.184168 -1.58394 -0.974584 
-3.73932 -0.176657 -0.605048 
-0.176657 -4.97728 -2.04393 
-0.605048 -2.04393 -1.656 
-6.51294 -0.502912 -0.204588 
-0.502912 -5.15977 -0.696698 
-0.204588 -0.696698 1.30012 
-3.77392 -0.289455 -0.215198 
-0.289455 -5.59523 -3.31885 
-0.215198 -3.31885 -1.00345 
-9.71532 -0.00916957 -0.112601 
-0.00916957 -9.7104 0.324972 
-0.112601 0.324972 -9.68113 
-9.69695 0.00145522 -0.163989 
0.00145522 -9.67849 0.304708 
-0.163989 0.304708 -9.73141 
-9.69947 0.0117875 -0.132852 
0.0117875 -9.71756 0.298765 
-0.132852 0.298765 -9.68982 
-9.71793 0.00247385 -0.0878489 
0.00247385 -9.73322 0.304108 
-0.0878489 0.304108 -9.6557 
-9.63715 -0.0498775 -0.112947 
-0.0498775 -9.24919 0.398897 
-0.112947 0.398897 -9.69137 
-9.32039 -0.431476 -0.186653 
-0.431476 -9.42838 0.426513 
-0.186653 0.426513 -9.82893 
-9.28993 -0.158228 -0.282741 
-0.158228 -9.46858 0.415938 
-0.282741 0.415938 -9.81919 
-9.39665 -0.151983 -0.153573 
-0.151983 -9.38384 0.485039 
-0.153573 0.485039 -9.79721 
-9.77084 0.109303 0.0194963 
0.109303 -9.71281 -0.217666 
0.0194963 -0.217666 -9.2459 
-9.51638 -0.0477923 0.137722 
-0.0477923 -9.51201 -0.273521 
0.137722 -0.273521 -9.70115 
-9.70327 0.136021 0.282748 
0.136021 -9.75488 -0.359658 
0.282748 -0.359658 -9.27139 
-9.69098 0.0655783 0.179501 
0.0655783 -9.61739 -0.257116 
0.179501 -0.257116 -9.42117 
-9.71446 -0.0262884 -0.0189336 
-0.0262884 -9.28118 -0.132564 
-0.0189336 -0.132564 -9.87683 
-9.07144 -0.0401421 -0.0929306 
-0.0401421 -9.34292 -0.260006 
-0.0929306 -0.260006 -10.4581 
-9.56572 0.176856 -0.15961 
0.176856 -9.55061 0.0276022 
-0.15961 0.0276022 -9.75614 
-9.42211 0.0793581 -0.701252 
0.0793581 -10.0468 -0.298624 
-0.701252 -0.298624 -9.40356 
-9.38785 0.013243 -0.41456 
0.013243 -9.5078 -0.0257933 
-0.41456 -0.0257933 -9.51322 
-9.33883 0.0306786 -0.27469 
0.0306786 -9.26759 0.157207 
-0.27469 0.157207 -9.80245 
-9.38349 -0.100538 -0.220546 
-0.100538 -9.49202 0.147371 
-0.220546 0.147371 -9.53337 
-9.37627 -0.069803 -0.255912 
-0.069803 -9.4043 0.109649 
-0.255912 0.109649 -9.6283 
-12.2175 -0.722942 0.50121 
-0.722942 -9.42961 -0.56421 
0.50121 -0.56421 -11.6521 
-10.3074 0.228536 0.375712 
0.228536 -11.8383 0.566156 
0.375712 0.566156 -11.1535 
-9.72428 -0.0361389 -0.264113 
-0.0361389 -11.1082 0.641226 
-0.264113 0.641226 -12.4668 
-11.1965 -1.27789 -0.856688 
-1.27789 -10.0995 0.249211 
-0.856688 0.249211 -12.0033 
-9.07759 -0.129191 0.662474 
-0.129191 -9.75333 0.153357 
0.662474 0.153357 -9.54535 
-8.89781 0.115955 0.422341 
0.115955 -9.61499 0.0549528 
0.422341 0.0549528 -9.86347 
-8.62403 0.267725 0.686606 
0.267725 -9.97722 -0.10054 
0.686606 -0.10054 -9.77502 
-9.05564 0.252967 0.309927 
0.252967 -9.62099 0.201016 
0.309927 0.201016 -9.69964 
-12.4055 -0.34874 0.275278 
-0.34874 -9.35068 -0.363619 
0.275278 -0.363619 -13.9428 
-12.1073 -1.39386 0.0466306 
-1.39386 -11.3543 -0.590234 
0.0466306 -0.590234 -12.2373 
-10.7732 0.294125 0.391815 
0.294125 -9.23955 0.994991 
0.391815 0.994991 -15.6862 
-12.6688 0.158043 -0.728065 
0.158043 -9.0859 -1.54871 
-0.728065 -1.54871 -13.9442 
-9.89217 -0.0109439 0.0255418 
-0.0109439 -9.938 0.134348 
0.0255418 0.134348 -9.91204 
-9.9665 0.0176759 0.0309955 
0.0176759 -9.90791 0.0908171 
0.0309955 0.0908171 -9.86781 
-9.93267 0.0250008 -0.0152488 
0.0250008 -9.83829 0.15542 
-0.0152488 0.15542 -9.97125 
-9.90575 -0.00442299 0.0184934 
-0.00442299 -9.91943 0.133325 
0.0184934 0.133325 -9.91703 
-9.75173 0.00316995 -0.0605006 
0.00316995 -9.79487 -0.166203 
-0.0605006 -0.166203 -9.68361 
-9.71974 -0.00397699 -0.0417866 
-0.00397699 -9.76413 -0.171986 
-0.0417866 -0.171986 -9.74633 
-9.74723 0.000664807 -0.0486335 
0.000664807 -9.79912 -0.155952 
-0.0486335 -0.155952 -9.68386 
-9.75933 -0.00286704 -0.0268217 
-0.00286704 -9.80961 -0.176842 
-0.0268217 -0.176842 -9.66127 
-9.60524 -0.0244556 -0.10786 
-0.0244556 -9.59997 0.321372 
-0.10786 0.321372 -9.58862 
-9.58625 -0.0183785 -0.100568 
-0.0183785 -9.63398 0.337771 
-0.100568 0.337771 -9.5736 
-9.64699 -0.000902547 -0.0841719 
-0.000902547 -9.63616 0.323786 
-0.0841719 0.323786 -9.51069 
-9.6691 0.018736 -0.157364 
0.018736 -9.56271 0.407205 
-0.157364 0.407205 -9.56202 
-9.46214 -0.204796 -0.636235 
-0.204796 -9.57933 -0.0351876 
-0.636235 -0.0351876 -9.60962 
-9.65983 -0.30184 -0.61305 
-0.30184 -9.21447 -0.169149 
-0.61305 -0.169149 -9.77679 
-9.71673 -0.263557 -0.382136 
-0.263557 -9.37021 -0.102164 
-0.382136 -0.102164 -9.56415 
-9.10655 0.221942 -0.232005 
0.221942 -9.63917 -0.200892 
-0.232005 -0.200892 -9.90537 
-9.62721 0.0464337 -0.0149742 
0.0464337 -10.1891 0.121997 
-0.0149742 0.121997 -10.1582 
-9.88133 -0.193976 -0.406612 
-0.193976 -9.88432 -0.150595 
-0.406612 -0.150595 -10.2089 
-9.75788 -0.250058 0.0500337 
-0.250058 -9.84673 0.121801 
0.0500337 0.121801 -10.3699 
-9.64769 -0.0250585 -0.0323335 
-0.0250585 -10.0647 0.0538241 
-0.0323335 0.0538241 -10.2622 
-8.75734 0.280824 0.382026 
0.280824 -7.78931 -2.0328 
0.382026 -2.0328 -3.86437 
-8.21023 -0.0876965 -0.439971 
-0.0876965 -9.49392 -2.66195 
-0.439971 -2.66195 -2.70688 
-7.82085 0.200065 -0.156211 
0.200065 -8.2646 -1.94653 
-0.156211 -1.94653 -4.32557 
-9.29424 -0.986425 -0.521341 
-0.986425 -7.96502 -3.26852 
-0.521341 -3.26852 -3.15176 
-9.56372 0.0308698 0.298522 
0.0308698 -9.4806 -0.342628 
0.298522 -0.342628 -8.66556 
-9.01469 -0.172266 0.382447 
-0.172266 -9.68928 0.460272 
0.382447 0.460272 -9.00591 
-9.37287 0.0357103 0.658421 
0.0357103 -9.60217 0.223006 
0.658421 0.223006 -8.73483 
-9.0421 -1.17052 1.04336 
-1.17052 -10.5048 0.603997 
1.04336 0.603997 -8.16302 
-9.43818 0.0777736 0.171338 
0.0777736 -9.50764 0.174029 
0.171338 0.174029 -9.98099 
-9.53394 0.034726 0.0768531 
0.034726 -9.54131 -0.0338511 
0.0768531 -0.0338511 -9.85156 
-9.64475 -0.215574 -0.0674193 
-0.215574 -9.42648 -0.109121 
-0.0674193 -0.109121 -9.85558 
-9.30929 -0.00263065 0.258933 
-0.00263065 -9.63162 0.109406 
0.258933 0.109406 -9.9859 
-9.74206 0.00711901 -0.291448 
0.00711901 -9.75482 0.223337 
-0.291448 0.223337 -9.70857 
-9.7241 0.00562329 -0.284459 
0.00562329 -9.75213 0.200713 
-0.284459 0.200713 -9.72922 
-9.69562 -0.0234276 -0.248884 
-0.0234276 -9.71582 0.21413 
-0.248884 0.21413 -9.79401 
-9.74382 0.0186032 -0.280064 
0.0186032 -9.75396 0.202784 
-0.280064 0.202784 -9.70767 
-9.75746 -0.0275677 -0.0790251 
-0.0275677 -9.7093 0.108279 
-0.0790251 0.108279 -9.78067 
-9.63824 -0.116266 -0.10176 
-0.116266 -9.70802 0.102258 
-0.10176 0.102258 -9.90118 
-9.63026 -0.0234508 -0.189901 
-0.0234508 -9.60694 0.0433154 
-0.189901 0.0433154 -10.0102 
-9.66417 -0.035981 -0.0810661 
-0.035981 -9.50867 0.0548655 
-0.0810661 0.0548655 -10.0746 
-9.95313 -0.00734385 0.216627 
-0.00734385 -9.94986 0.116897 
0.216627 0.116897 -9.98555 
-9.94635 -0.00204376 0.215798 
-0.00204376 -9.94717 0.130336 
0.215798 0.130336 -9.99501 
-9.96159 -0.0108795 0.206585 
-0.0108795 -9.95423 0.123887 
0.206585 0.123887 -9.97272 
-9.97265 -0.00825368 0.202378 
-0.00825368 -9.95919 0.122739 
0.202378 0.122739 -9.95669 
-9.76288 -0.150994 -0.480145 
-0.150994 -8.11993 1.63352 
-0.480145 1.63352 -8.10339 
-10.8009 0.461147 -0.634127 
0.461147 -8.23198 1.47446 
-0.634127 1.47446 -6.95336 
-10.5393 -0.00329829 -0.611979 
-0.00329829 -8.73478 1.76454 
-0.611979 1.76454 -6.71213 
-10.7126 -0.00339706 -0.276635 
-0.00339706 -7.70916 1.60098 
-0.276635 1.60098 -7.56447 
-9.49919 0.0900624 0.266173 
0.0900624 -9.3869 0.17578 
0.266173 0.17578 -10.2486 
-9.3793 0.0559056 0.165297 
0.0559056 -9.35045 0.535877 
0.165297 0.535877 -10.405 
-9.60482 0.358377 -0.04045 
0.358377 -8.97244 0.249841 
-0.04045 0.249841 -10.5575 
-9.31515 0.178521 0.124153 
0.178521 -9.54857 0.135808 
0.124153 0.135808 -10.271 
-9.68191 0.0238481 0.138304 
0.0238481 -9.72488 -0.317569 
0.138304 -0.317569 -9.67516 
-9.71291 0.0077398 0.159883 
0.0077398 -9.70729 -0.312301 
0.159883 -0.312301 -9.66176 
-9.6916 -0.0434173 0.158304 
-0.0434173 -9.62151 -0.294775 
0.158304 -0.294775 -9.76885 
-9.71198 0.0417729 0.126079 
0.0417729 -9.69389 -0.275112 
0.126079 -0.275112 -9.67609 
-9.59089 0.146299 -0.307157 
0.146299 -9.43477 -0.0462045 
-0.307157 -0.0462045 -9.63564 
-9.42269 -0.0849988 -0.12149 
-0.0849988 -9.35806 0.227509 
-0.12149 0.227509 -9.88056 
-9.44624 -0.0654041 -0.178674 
-0.0654041 -9.42432 0.169615 
-0.178674 0.169615 -9.79074 
-9.48822 -0.0414708 -0.20994 
-0.0414708 -9.47308 0.216521 
-0.20994 0.216521 -9.7 
-9.18017 0.208333 -0.303356 
0.208333 -10.0674 -0.377041 
-0.303356 -0.377041 -9.82626 
-9.14879 -0.113178 -0.18455 
-0.113178 -9.78503 -0.0763574 
-0.18455 -0.0763574 -10.14 
-8.84287 0.443554 -0.404941 
0.443554 -10.0329 -0.501532 
-0.404941 -0.501532 -10.1981 
-9.17475 0.231387 -0.0228989 
0.231387 -10.1179 -0.295956 
-0.0228989 -0.295956 -9.7812 
-4.78337 -0.203097 -2.53698 
-0.203097 -11.2393 -0.75427 
-2.53698 -0.75427 -7.27064 
-11.2717 -0.328153 -2.97936 
-0.328153 -7.66033 0.793974 
-2.97936 0.793974 -4.36131 
-8.83111 -0.876892 -4.76858 
-0.876892 -5.1382 -2.01805 
-4.76858 -2.01805 -9.32404 
-6.50669 0.224304 -3.68845 
0.224304 -10.7618 -1.74268 
-3.68845 -1.74268 -6.02482 
-9.962 -0.533518 -0.255719 
-0.533518 -9.28586 -1.10238 
-0.255719 -1.10238 -8.74564 
-9.73413 -0.0210896 -0.449655 
-0.0210896 -9.20368 -0.578592 
-0.449655 -0.578592 -9.05569 
-9.40572 -0.314434 -0.170841 
-0.314434 -9.35236 -0.117298 
-0.170841 -0.117298 -9.23542 
-9.69479 0.226123 -0.601135 
0.226123 -8.92628 -0.48725 
-0.601135 -0.48725 -9.37243 
-9.17191 -0.108513 -0.0781371 
-0.108513 -9.36557 0.289883 
-0.0781371 0.289883 -9.74794 
-9.12231 -0.0804288 -0.0314624 
-0.0804288 -9.70354 0.355329 
-0.0314624 0.355329 -9.45957 
-9.49536 0.0458938 -0.214907 
0.0458938 -8.99602 0.0985944 
-0.214907 0.0985944 -9.79404 
-9.38928 -0.274099 0.0388575 
-0.274099 -9.21091 0.403866 
0.0388575 0.403866 -9.68524 
-9.91088 0.00552504 -0.00132214 
0.00552504 -9.91935 0.0671702 
-0.00132214 0.0671702 -9.94253 
-9.89478 0.00552768 -0.0256072 
0.00552768 -9.90735 0.0779786 
-0.0256072 0.0779786 -9.97063 
-9.915 0.0172274 0.00664964 
0.0172274 -9.94878 0.0733852 
0.00664964 0.0733852 -9.90898 
-9.90829 -0.00664376 -0.0188175 
-0.00664376 -9.92538 0.0679463 
-0.0188175 0.0679463 -9.93909 
-3.47668 0.495708 -0.739235 
0.495708 -4.09184 1.83868 
-0.739235 1.83868 -0.687594 
-4.33604 0.567601 1.08042 
0.567601 -5.60482 1.50977 
1.08042 1.50977 1.68474 
-3.15974 -0.94529 -0.263074 
-0.94529 -5.41868 1.50687 
-0.263074 1.50687 0.322304 
-5.10653 0.12852 -2.1943 
0.12852 -3.27119 1.01645 
-2.1943 1.01645 0.121604 
-9.67825 0.00985973 0.0392765 
0.00985973 -9.75083 -0.0289548 
0.0392765 -0.0289548 -9.52084 
-9.61783 -0.028257 0.00339346 
-0.028257 -9.68566 0.0783325 
0.00339346 0.0783325 -9.64643 
-9.62519 -0.0198368 0.0289608 
-0.0198368 -9.69421 0.0287289 
0.0289608 0.0287289 -9.63051 
-9.59376 -0.0472952 0.0586718 
-0.0472952 -9.66814 0.0366949 
0.0586718 0.0366949 -9.68801 
-9.9124 0.0106696 -0.0862528 
0.0106696 -9.93477 0.0692322 
-0.0862528 0.0692322 -9.9354 
-9.93471 0.00380861 -0.0927184 
0.00380861 -9.91774 0.0632833 
-0.0927184 0.0632833 -9.93012 
-9.93468 -0.00665468 -0.0999062 
-0.00665468 -9.89086 0.0670855 
-0.0999062 0.0670855 -9.95703 
-9.92369 0.00784879 -0.0817106 
0.00784879 -9.92897 0.072825 
-0.0817106 0.072825 -9.92991 
-9.66176 -0.0886367 0.339604 
-0.0886367 -9.52711 -0.0469073 
0.339604 -0.0469073 -9.41435 
-9.55317 0.052371 0.284105 
0.052371 -9.54914 0.145273 
0.284105 0.145273 -9.5009 
-9.70087 0.0115514 0.173883 
0.0115514 -9.44892 0.148776 
0.173883 0.148776 -9.45343 
-9.54186 -0.0911338 0.226497 
-0.0911338 -9.60906 -0.0352968 
0.226497 -0.0352968 -9.45229 
-9.83088 -0.00519562 -0.116153 
-0.00519562 -9.87915 0.177307 
-0.116153 0.177307 -9.83505 
-9.86953 0.00478448 -0.117009 
0.00478448 -9.86923 0.169622 
-0.117009 0.169622 -9.80632 
-9.87383 0.00276075 -0.115805 
0.00276075 -9.84784 0.171734 
-0.115805 0.171734 -9.82341 
-9.87213 0.00717964 -0.127337 
0.00717964 -9.87277 0.1394 
-0.127337 0.1394 -9.80019 
-9.72597 -0.00425488 0.0336439 
-0.00425488 -9.73109 -0.0208866 
0.0336439 -0.0208866 -9.9027 
-9.72648 -0.0242584 0.0117885 
-0.0242584 -9.71682 -0.017558 
0.0117885 -0.017558 -9.91646 
-9.72406 -0.00702783 0.00427767 
-0.00702783 -9.73068 -0.0132875 
0.00427767 -0.0132875 -9.90502 
-9.73999 0.00931038 0.0584579 
0.00931038 -9.73618 -0.055163 
0.0584579 -0.055163 -9.88358 
-8.45682 -0.0243106 0.803295 
-0.0243106 -5.48525 1.77792 
0.803295 1.77792 -1.69251 
-8.03143 -0.119847 0.833952 
-0.119847 -6.49232 1.81925 
0.833952 1.81925 -1.11083 
-7.07541 -0.723135 1.40303 
-0.723135 -7.35167 0.823259 
1.40303 0.823259 -1.20749 
-6.29031 0.904136 0.139248 
0.904136 -8.53334 2.54321 
0.139248 2.54321 -0.810919 
-9.81488 -0.0206416 0.130659 
-0.0206416 -9.8592 -0.326588 
0.130659 -0.326588 -9.69327 
-9.78421 0.035252 0.106483 
0.035252 -9.79996 -0.270667 
0.106483 -0.270667 -9.7832 
-9.72698 0.00189887 0.109421 
0.00189887 -9.74573 -0.320951 
0.109421 -0.320951 -9.89465 
-9.79407 0.0262804 0.113567 
0.0262804 -9.78792 -0.301101 
0.113567 -0.301101 -9.78536 
-8.97 0.165918 -0.102264 
0.165918 -9.59063 -0.178863 
-0.102264 -0.178863 -8.96482 
-8.92845 0.328717 -0.238694 
0.328717 -9.55095 -0.212351 
-0.238694 -0.212351 -9.04604 
-9.35354 0.552654 -0.583645 
0.552654 -9.8879 -0.463357 
-0.583645 -0.463357 -8.284 
-8.94039 -0.0577866 -0.0170397 
-0.0577866 -9.56046 0.0165854 
-0.0170397 0.0165854 -9.0246 
-9.86721 -0.00202668 0.00550685 
-0.00202668 -9.86544 0.0124239 
0.00550685 0.0124239 -9.93448 
-9.8782 -0.00539998 -0.005644 
-0.00539998 -9.8715 0.00906975 
-0.005644 0.00906975 -9.91742 
-9.85912 0.00272732 0.00559003 
0.00272732 -9.86237 0.0160368 
0.00559003 0.0160368 -9.94564 
-9.8749 -0.0136425 0.00571446 
-0.0136425 -9.87803 -0.00718679 
0.00571446 -0.00718679 -9.91419 
-9.79881 0.0909588 0.180553 
0.0909588 -9.74158 -0.106997 
0.180553 -0.106997 -10.2245 
-9.35813 0.436526 -0.456584 
0.436526 -8.25796 1.50875 
-0.456584 1.50875 -12.1488 
-10.2308 -0.226581 0.0686613 
-0.226581 -8.64075 1.20463 
0.0686613 1.20463 -10.8933 
-10.0572 0.306609 0.728805 
0.306609 -9.72441 1.04461 
0.728805 1.04461 -9.98329 
-9.72237 0.00511479 0.0389506 
0.00511479 -9.7597 -0.352885 
0.0389506 -0.352885 -9.72857 
-9.7085 -0.0131159 0.0355053 
-0.0131159 -9.71586 -0.312806 
0.0355053 -0.312806 -9.78627 
-9.7527 0.00311548 0.0272609 
0.00311548 -9.74509 -0.352076 
0.0272609 -0.352076 -9.71284 
-9.80024 -0.0338074 0.0311941 
-0.0338074 -9.77863 -0.297472 
0.0311941 -0.297472 -9.63176 
-10.954 0.0465369 -0.252757 
0.0465369 -11.6225 0.0629844 
-0.252757 0.0629844 -11.4168 
-10.9094 0.216977 0.247989 
0.216977 -10.3671 0.197979 
0.247989 0.197979 -12.7169 
-11.3167 -0.326372 -0.365109 
-0.326372 -11.645 -0.0302564 
-0.365109 -0.0302564 -11.0316 
-10.83 -0.351416 -0.608141 
-0.351416 -11.4773 0.473165 
-0.608141 0.473165 -11.686 
-9.64532 -0.0139106 -0.0887082 
-0.0139106 -9.62797 0.379605 
-0.0887082 0.379605 -9.51454 
-9.61065 -0.0254125 -0.0480189 
-0.0254125 -9.59702 0.344973 
-0.0480189 0.344973 -9.58017 
-9.75369 0.0129685 -0.0512635 
0.0129685 -9.6402 0.351476 
-0.0512635 0.351476 -9.39395 
-9.63008 -0.0641261 -0.169339 
-0.0641261 -9.62922 0.43075 
-0.169339 0.43075 -9.52854 
-9.65938 -0.0687025 -0.131334 
-0.0687025 -9.076 0.487516 
-0.131334 0.487516 -9.50969 
-9.42478 -0.0908149 -0.0114465 
-0.0908149 -9.22651 0.479175 
-0.0114465 0.479175 -9.59378 
-9.46683 -0.0864246 -0.0827799 
-0.0864246 -9.27215 0.447448 
-0.0827799 0.447448 -9.50609 
-9.31248 -0.178824 -0.0647889 
-0.178824 -9.3127 0.633275 
-0.0647889 0.633275 -9.61989 
-10.7095 1.08875 -0.155768 
1.08875 -10.8816 0.223643 
-0.155768 0.223643 -12.7918 
-10.5474 0.368888 0.221511 
0.368888 -11.3566 0.613902 
0.221511 0.613902 -12.4789 
-8.77023 1.43637 -0.0992689 
1.43637 -10.0367 -0.00744645 
-0.0992689 -0.00744645 -15.5759 
-10.7649 0.944812 -0.348725 
0.944812 -11.0973 0.238395 
-0.348725 0.238395 -12.5207 
-9.34846 0.128305 0.105087 
0.128305 -9.30493 0.266447 
0.105087 0.266447 -9.74046 
-9.03789 0.0472948 0.512904 
0.0472948 -9.05997 0.734289 
0.512904 0.734289 -10.296 
-9.35549 0.119467 0.227608 
0.119467 -9.31932 0.301597 
0.227608 0.301597 -9.71904 
-9.60127 0.0433603 0.136277 
0.0433603 -9.50211 0.407166 
0.136277 0.407166 -9.29047 
-9.22576 -0.0899521 0.0872107 
-0.0899521 -9.72338 -0.152446 
0.0872107 -0.152446 -10.2324 
-9.4621 0.0864376 0.0852486 
0.0864376 -9.64806 0.0349754 
0.0852486 0.0349754 -10.0713 
-9.34394 0.0485264 0.0241338 
0.0485264 -9.61164 0.0292304 
0.0241338 0.0292304 -10.2259 
-9.82782 -0.29271 -0.385956 
-0.29271 -9.33475 -0.0310332 
-0.385956 -0.0310332 -10.0189 
-9.7833 -0.00637041 -0.315912 
-0.00637041 -9.8167 -0.132478 
-0.315912 -0.132478 -9.76939 
-9.78252 0.00618835 -0.268534 
0.00618835 -9.77916 -0.140537 
-0.268534 -0.140537 -9.8077 
-9.87692 -0.0199909 -0.273182 
-0.0199909 -9.76163 -0.0905407 
-0.273182 -0.0905407 -9.73083 
-9.78277 -0.0012548 -0.282497 
-0.0012548 -9.81137 -0.124084 
-0.282497 -0.124084 -9.77525 
-9.57031 -0.0682277 -0.0375462 
-0.0682277 -9.741 0.0330615 
-0.0375462 0.0330615 -9.83671 
-9.59654 0.0780817 -0.114171 
0.0780817 -9.72627 -0.049037 
-0.114171 -0.049037 -9.8252 
-9.55382 0.0796489 -0.0435792 
0.0796489 -9.73386 0.0234645 
-0.0435792 0.0234645 -9.86034 
-9.59149 0.050392 -0.0628609 
0.050392 -9.72362 0.0092966 
-0.0628609 0.0092966 -9.83291 
-9.5409 0.0182318 -0.41667 
0.0182318 -9.78475 0.573457 
-0.41667 0.573457 -9.60949 
-9.7565 -0.1818 -0.492881 
-0.1818 -9.64781 0.471395 
-0.492881 0.471395 -9.53083 
-9.62927 -0.611988 -0.619649 
-0.611988 -10.0426 0.389588 
-0.619649 0.389588 -9.26324 
-9.72 -0.111946 -0.328169 
-0.111946 -9.48176 0.314098 
-0.328169 0.314098 -9.73338 
-9.22475 -0.824748 0.371842 
-0.824748 -10.2467 -0.355903 
0.371842 -0.355903 -11.9594 
-9.78474 0.147915 -0.593825 
0.147915 -9.50182 0.0688146 
-0.593825 0.0688146 -12.1444 
-10.3288 -0.114744 -0.133586 
-0.114744 -10.0334 -0.386651 
-0.133586 -0.386651 -11.0687 
-10.1146 -0.719938 -0.34968 
-0.719938 -9.69148 -0.103483 
-0.34968 -0.103483 -11.6249 
-9.96166 0.00798117 -0.268982 
0.00798117 -9.977 0.000561296 
-0.268982 0.000561296 -9.96361 
-9.97418 0.0113639 -0.266359 
0.0113639 -9.97421 -0.00395285 
-0.266359 -0.00395285 -9.95388 
-9.93277 0.00114669 -0.259538 
0.00114669 -9.93505 0.0165462 
-0.259538 0.0165462 -10.0345 
-9.97986 0.00974597 -0.280555 
0.00974597 -9.97528 0.0048844 
-0.280555 0.0048844 -9.94713 
-9.91204 3.75101e-05 -0.116389 
3.75101e-05 -9.90704 0.0276005 
-0.116389 0.0276005 -9.93924 
-9.87131 0.00297247 -0.0950039 
0.00297247 -9.93557 0.0854803 
-0.0950039 0.0854803 -9.95145 
-9.91368 0.0150758 -0.0863588 
0.0150758 -9.91303 0.0533354 
-0.0863588 0.0533354 -9.93161 
-9.9121 0.0195142 -0.127136 
0.0195142 -9.93473 0.00648079 
-0.127136 0.00648079 -9.91149 
-9.64025 -0.114854 -0.19495 
-0.114854 -9.43229 -0.0893993 
-0.19495 -0.0893993 -10.0596 
-9.4012 -0.389656 -0.214997 
-0.389656 -9.63471 0.0139474 
-0.214997 0.0139474 -10.0962 
-9.7533 -0.108679 -0.158653 
-0.108679 -9.31702 -0.173177 
-0.158653 -0.173177 -10.0618 
-9.60941 0.127312 -0.0825108 
0.127312 -9.64411 -0.269492 
-0.0825108 -0.269492 -9.87859 
-8.78579 0.40355 -0.394473 
0.40355 -10.1844 -0.987636 
-0.394473 -0.987636 -9.23672 
-9.04138 0.130666 -0.0757509 
0.130666 -9.11164 -0.365392 
-0.0757509 -0.365392 -10.0539 
-9.37187 0.246374 -0.281845 
0.246374 -9.93035 -1.06864 
-0.281845 -1.06864 -8.90468 
-9.9564 1.22923 -1.33637 
1.22923 -8.10589 -2.45329 
-1.33637 -2.45329 -10.1446 
-9.89388 -0.000867808 0.179413 
-0.000867808 -9.8698 0.255742 
0.179413 0.255742 -9.88411 
-9.86825 -0.00916444 0.178378 
-0.00916444 -9.86877 0.266533 
0.178378 0.266533 -9.91077 
-9.86085 0.000429397 0.200735 
0.000429397 -9.88098 0.235006 
0.200735 0.235006 -9.90597 
-9.90493 0.0118056 0.176434 
0.0118056 -9.88623 0.269532 
0.176434 0.269532 -9.85663 
-9.67586 0.00636089 -0.0514381 
0.00636089 -9.70415 0.189131 
-0.0514381 0.189131 -9.60666 
-9.64192 0.0340633 -0.0626398 
0.0340633 -9.74236 0.190265 
-0.0626398 0.190265 -9.60239 
-9.63561 0.0102213 -0.0833536 
0.0102213 -9.75143 0.202078 
-0.0833536 0.202078 -9.59963 
-9.67727 0.00444931 -0.0587647 
0.00444931 -9.72461 0.183353 
-0.0587647 0.183353 -9.5848 
-9.0182 0.786398 -1.9889 
0.786398 -6.40703 3.68519 
-1.9889 3.68519 -11.4496 
-10.5174 1.12574 -0.766356 
1.12574 -8.40987 1.86576 
-0.766356 1.86576 -7.94759 
-10.0142 -1.64938 -0.755625 
-1.64938 -7.07346 3.51609 
-0.755625 3.51609 -9.78724 
-8.99177 -2.45356 -0.176472 
-2.45356 -7.7504 1.9168 
-0.176472 1.9168 -10.1327 
-9.18947 0.546409 0.590425 
0.546409 -9.70247 1.0781 
0.590425 1.0781 -10.5638 
-9.77213 0.31102 0.471359 
0.31102 -10.2849 0.451429 
0.471359 0.451429 -9.39877 
-9.80386 0.548687 0.342321 
0.548687 -9.72186 0.856217 
0.342321 0.856217 -9.93006 
-9.75738 0.294624 -0.28939 
0.294624 -10.117 0.191157 
-0.28939 0.191157 -9.58141 
-10.2891 -0.06837 0.719941 
-0.06837 -10.4181 0.393608 
0.719941 0.393608 -8.69319 
-9.77321 -0.265841 -0.124351 
-0.265841 -9.88547 -0.232234 
-0.124351 -0.232234 -9.74172 
-10.12 -0.124236 0.500983 
-0.124236 -10.2106 -0.360894 
0.500983 -0.360894 -9.06979 
-10.0544 -0.0960104 0.360488 
-0.0960104 -10.2407 -0.371672 
0.360488 -0.371672 -9.10521 
-9.43449 0.0476008 0.132015 
0.0476008 -9.59903 -0.117724 
0.132015 -0.117724 -9.8404 
-9.3681 -0.0214621 0.263797 
-0.0214621 -9.60768 0.00458754 
0.263797 0.00458754 -9.89815 
-9.36783 -0.0625387 0.227336 
-0.0625387 -9.61469 0.0728199 
0.227336 0.0728199 -9.8914 
-9.28675 0.00957261 0.187839 
0.00957261 -9.55027 0.112084 
0.187839 0.112084 -10.0369 
-9.1947 -0.0928735 -0.356323 
-0.0928735 -9.32534 0.0288593 
-0.356323 0.0288593 -9.82741 
-9.37265 -0.0894283 -0.574386 
-0.0894283 -9.36285 -0.0392931 
-0.574386 -0.0392931 -9.61195 
-9.08756 0.0981869 -0.28196 
0.0981869 -9.48617 -0.110273 
-0.28196 -0.110273 -9.77371 
-9.15721 -0.0548301 -0.146091 
-0.0548301 -9.52826 -0.104712 
-0.146091 -0.104712 -9.66198 
-9.66211 -0.0111382 0.0785836 
-0.0111382 -9.66666 -0.0128616 
0.0785836 -0.0128616 -9.86243 
-9.61514 -0.00218084 0.0769738 
-0.00218084 -9.65925 -0.00157952 
0.0769738 -0.00157952 -9.91681 
-9.64715 -0.0135794 0.0640574 
-0.0135794 -9.66376 -0.00829457 
0.0640574 -0.00829457 -9.88029 
-9.70247 0.0252222 -0.0226742 
0.0252222 -9.5991 0.011328 
-0.0226742 0.011328 -9.88963 
-8.67705 0.317565 0.118065 
0.317565 -9.22136 0.562149 
0.118065 0.562149 -10.6965 
-9.06937 0.623772 0.286231 
0.623772 -9.00941 0.223132 
0.286231 0.223132 -10.5161 
-9.29121 0.341464 0.617514 
0.341464 -9.28346 -0.123964 
0.617514 -0.123964 -10.0202 
-8.85287 0.761059 -0.31832 
0.761059 -8.8675 0.00398576 
-0.31832 0.00398576 -10.8745 
-9.89024 0.00783538 0.179682 
0.00783538 -9.89974 0.281995 
0.179682 0.281995 -9.88611 
-9.85461 -0.0191261 0.136461 
-0.0191261 -9.88477 0.26021 
0.136461 0.26021 -9.93671 
-9.88435 0.00248815 0.181802 
0.00248815 -9.89714 0.288257 
0.181802 0.288257 -9.89459 
-9.91955 0.00175503 0.192891 
0.00175503 -9.91976 0.28529 
0.192891 0.28529 -9.83678 
-9.62036 0.0102316 -0.127229 
0.0102316 -9.6601 0.338737 
-0.127229 0.338737 -9.66047 
-9.65425 -0.0200252 -0.0697194 
-0.0200252 -9.62891 0.314577 
-0.0697194 0.314577 -9.65777 
-9.6445 0.0300551 -0.119277 
0.0300551 -9.63497 0.327366 
-0.119277 0.327366 -9.66146 
-9.64714 -0.00147668 -0.0704749 
-0.00147668 -9.66674 0.325866 
-0.0704749 0.325866 -9.62705 
-9.91408 -0.00920376 0.209904 
-0.00920376 -9.87736 -0.0102676 
0.209904 -0.0102676 -9.92834 
-9.91615 -0.00112891 0.188492 
-0.00112891 -9.8999 -0.0047441 
0.188492 -0.0047441 -9.90374 
-9.94496 -0.0279518 0.18344 
-0.0279518 -9.90292 0.00940451 
0.18344 0.00940451 -9.8719 
-9.91264 0.0160911 0.169924 
0.0160911 -9.91154 -0.0239259 
0.169924 -0.0239259 -9.8956 
-9.75451 -0.0428511 -0.35265 
-0.0428511 -9.61666 -0.129028 
-0.35265 -0.129028 -9.36253 
-9.46284 0.0607734 -0.319453 
0.0607734 -9.72519 0.0508809 
-0.319453 0.0508809 -9.54567 
-9.66305 0.0399368 -0.294462 
0.0399368 -9.60279 -0.00732238 
-0.294462 -0.00732238 -9.46786 
-9.58721 0.0113444 -0.303166 
0.0113444 -9.55075 -0.0421986 
-0.303166 -0.0421986 -9.59574 
-12.6054 -0.601284 -0.513173 
-0.601284 -10.4109 -0.416003 
-0.513173 -0.416003 -11.5649 
-11.2046 -0.709372 0.427375 
-0.709372 -11.0131 -0.5544 
0.427375 -0.5544 -12.3635 
-11.1662 -0.230358 0.278837 
-0.230358 -10.9722 -0.232866 
0.278837 -0.232866 -12.4426 
-12.074 -0.929944 0.264847 
-0.929944 -11.2055 -0.149749 
0.264847 -0.149749 -11.3016 
-9.52374 -0.0177093 -0.00274533 
-0.0177093 -9.55896 0.0405564 
-0.00274533 0.0405564 -9.66888 
-9.4985 -0.0226808 0.00208554 
-0.0226808 -9.575 0.033914 
0.00208554 0.033914 -9.67808 
-9.48553 -0.0318916 0.00443101 
-0.0318916 -9.55292 0.0362646 
0.00443101 0.0362646 -9.71313 
-9.52912 -0.0290035 -0.0025722 
-0.0290035 -9.57242 0.0810908 
-0.0025722 0.0810908 -9.65005 
-9.87459 0.0178146 0.201653 
0.0178146 -9.85728 -0.18905 
0.201653 -0.18905 -9.94746 
-9.88568 0.00452252 0.264954 
0.00452252 -9.90251 -0.193213 
0.264954 -0.193213 -9.89113 
-9.89062 0.0139987 0.269858 
0.0139987 -9.88621 -0.200526 
0.269858 -0.200526 -9.9025 
-9.92321 0.0050279 0.283497 
0.0050279 -9.92427 -0.181067 
0.283497 -0.181067 -9.83185 
-9.63369 0.0550158 0.12437 
0.0550158 -9.60496 -0.180743 
0.12437 -0.180743 -9.53384 
-9.56812 0.0457565 0.0847172 
0.0457565 -9.63956 -0.24061 
0.0847172 -0.24061 -9.56481 
-9.61819 0.0513055 0.112393 
0.0513055 -9.64587 -0.212603 
0.112393 -0.212603 -9.50843 
-9.63606 0.0565613 0.117069 
0.0565613 -9.74856 -0.213952 
0.117069 -0.213952 -9.38788 
-9.95095 0.00247965 0.239787 
0.00247965 -9.94147 0.0412167 
0.239787 0.0412167 -10.0271 
-9.99579 0.00170897 0.248169 
0.00170897 -9.96098 0.0220201 
0.248169 0.0220201 -9.96278 
-9.98775 -0.00456986 0.249297 
-0.00456986 -9.96905 0.0221269 
0.249297 0.0221269 -9.96275 
-9.99111 0.000395914 0.262284 
0.000395914 -9.98303 0.016928 
0.262284 0.016928 -9.94541 
-9.90322 0.00886254 -0.30173 
0.00886254 -9.93116 -0.00383601 
-0.30173 -0.00383601 -9.91684 
-9.93176 -0.0202022 -0.272965 
-0.0202022 -9.84439 0.0172087 
-0.272965 0.0172087 -9.97506 
-9.91248 0.0063344 -0.306636 
0.0063344 -9.91779 0.00131387 
-0.306636 0.00131387 -9.92095 
-9.96254 -0.00905253 -0.32097 
-0.00905253 -9.91083 0.00945975 
-0.32097 0.00945975 -9.87785 
-9.69601 -0.0214987 0.00942325 
-0.0214987 -9.73939 0.02327 
0.00942325 0.02327 -9.72969 
-9.71548 -0.0579556 -0.0140762 
-0.0579556 -9.74089 -0.0277448 
-0.0140762 -0.0277448 -9.70872 
-9.66804 -0.0614585 -0.0160675 
-0.0614585 -9.76142 -0.0331671 
-0.0160675 -0.0331671 -9.73562 
-9.70404 6.3428e-05 -0.0206087 
6.3428e-05 -9.75682 0.00544882 
-0.0206087 0.00544882 -9.70423 
-9.96116 -0.00324527 0.258414 
-0.00324527 -9.92646 -0.0968684 
0.258414 -0.0968684 -10.0191 
-9.9682 0.00644861 0.268004 
0.00644861 -9.97393 -0.116032 
0.268004 -0.116032 -9.96459 
-9.95115 -0.0121809 0.260369 
-0.0121809 -9.98166 -0.114295 
0.260369 -0.114295 -9.97391 
-9.97251 -0.000922918 0.273478 
-0.000922918 -9.97472 -0.114768 
0.273478 -0.114768 -9.95949 
-8.06996 -1.48973 -0.754503 
-1.48973 -10.7374 0.349834 
-0.754503 0.349834 -12.4076 
-8.83728 -0.769651 -1.52254 
-0.769651 -10.5983 0.875576 
-1.52254 0.875576 -11.7794 
-7.82536 -1.87261 -1.07925 
-1.87261 -10.6191 0.370881 
-1.07925 0.370881 -12.7705 
-8.21573 -2.01603 0.316209 
-2.01603 -11.2595 -0.384764 
0.316209 -0.384764 -11.7398 
-9.87467 0.00487465 -0.265962 
0.00487465 -9.86232 -0.140149 
-0.265962 -0.140149 -9.88814 
-9.872 -0.0114459 -0.288126 
-0.0114459 -9.86301 -0.129004 
-0.288126 -0.129004 -9.89013 
-9.86417 -0.0101295 -0.283131 
-0.0101295 -9.8864 -0.123901 
-0.283131 -0.123901 -9.87456 
-9.88649 -0.00216818 -0.299171 
-0.00216818 -9.89323 -0.118998 
-0.299171 -0.118998 -9.84541 
-9.68085 -0.0435756 0.028379 
-0.0435756 -9.68609 -0.0666083 
0.028379 -0.0666083 -9.81519 
-9.66286 -0.0122503 0.0211198 
-0.0122503 -9.64921 -0.0494362 
0.0211198 -0.0494362 -9.87007 
-9.66839 -0.0151899 0.0116911 
-0.0151899 -9.6224 -0.0632719 
0.0116911 -0.0632719 -9.89135 
-9.62841 0.0131662 -0.0187654 
0.0131662 -9.67015 0.0112231 
-0.0187654 0.0112231 -9.88358 
-9.39236 0.251091 -0.418891 
0.251091 -9.80116 -0.333756 
-0.418891 -0.333756 -10.4822 
-9.52073 0.348342 -0.115999 
0.348342 -9.39571 -0.220462 
-0.115999 -0.220462 -10.7593 
-9.91541 -0.0719524 0.27316 
-0.0719524 -9.21512 0.0158471 
0.27316 0.0158471 -10.5452 
-9.59287 0.815727 -0.062768 
0.815727 -8.93939 -0.393442 
-0.062768 -0.393442 -11.1434 
-9.87083 -0.00301611 -0.0499092 
-0.00301611 -9.84814 0.0770707 
-0.0499092 0.0770707 -9.90822 
-9.85088 0.00472976 -0.0213325 
0.00472976 -9.87179 0.0532874 
-0.0213325 0.0532874 -9.90453 
-9.84721 0.0119408 -0.0240534 
0.0119408 -9.89897 0.0491096 
-0.0240534 0.0491096 -9.88101 
-9.88604 -0.00613714 0.0019162 
-0.00613714 -9.89405 0.052801 
0.0019162 0.052801 -9.84711 
-9.48915 -0.563193 0.21738 
-0.563193 -11.4448 -0.323732 
0.21738 -0.323732 -11.5855 
-11.736 -0.503835 0.519459 
-0.503835 -10.1259 -0.531312 
0.519459 -0.531312 -10.6576 
-10.4201 -0.280314 0.616984 
-0.280314 -10.3349 -0.826147 
0.616984 -0.826147 -11.7644 
-9.54026 -0.790315 0.672441 
-0.790315 -10.9036 -0.0753937 
0.672441 -0.0753937 -12.0756 
-9.79602 0.00510561 0.194511 
0.00510561 -9.78733 -0.272313 
0.194511 -0.272313 -9.76952 
-9.80923 0.00867946 0.216536 
0.00867946 -9.80863 -0.28246 
0.216536 -0.28246 -9.73501 
-9.79309 -0.0379555 0.216006 
-0.0379555 -9.72893 -0.277508 
0.216006 -0.277508 -9.83084 
-9.79522 0.0109039 0.17843 
0.0109039 -9.80062 -0.250941 
0.17843 -0.250941 -9.75703 
-9.42909 0.979438 -1.91465 
0.979438 -12.4763 -0.176173 
-1.91465 -0.176173 -15.8935 
-14.1519 1.17222 -0.0409627 
1.17222 -12.7728 -0.873038 
-0.0409627 -0.873038 -10.8741 
-11.0956 0.408919 -0.833004 
0.408919 -12.1684 -0.681543 
-0.833004 -0.681543 -14.5349 
-10.4062 -0.129677 0.430576 
-0.129677 -12.7788 -1.02176 
0.430576 -1.02176 -14.6138 
-9.79432 0.00184553 0.0270375 
0.00184553 -9.80185 -0.340828 
0.0270375 -0.340828 -9.79148 
-9.80412 0.0324355 -0.000422067 
0.0324355 -9.69478 -0.322775 
-0.000422067 -0.322775 -9.88875 
-9.80503 -0.0105148 0.0123744 
-0.0105148 -9.85767 -0.378484 
0.0123744 -0.378484 -9.72495 
-9.78913 -0.00535734 0.0600578 
-0.00535734 -9.83216 -0.317013 
0.0600578 -0.317013 -9.76636 
-9.83218 0.0256402 -0.327968 
0.0256402 -9.72439 -0.017294 
-0.327968 -0.017294 -9.6602 
-9.71544 -0.0018552 -0.360969 
-0.0018552 -9.75011 -0.0372933 
-0.360969 -0.0372933 -9.75122 
-9.71793 -0.0089227 -0.369944 
-0.0089227 -9.71931 -0.0259592 
-0.369944 -0.0259592 -9.77952 
-9.73115 -0.0158277 -0.336583 
-0.0158277 -9.73667 -0.0546644 
-0.336583 -0.0546644 -9.74895 
-9.90969 -0.605992 1.16265 
-0.605992 -11.8991 -0.339822 
1.16265 -0.339822 -13.3486 
-10.5579 -0.551337 0.811571 
-0.551337 -11.4704 -0.630779 
0.811571 -0.630779 -13.1292 
-11.9006 -0.742805 0.441702 
-0.742805 -12.1853 -0.465584 
0.441702 -0.465584 -11.0715 
-10.8898 -0.269645 0.775086 
-0.269645 -11.962 -0.853541 
0.775086 -0.853541 -12.3056 
-9.90771 0.0072141 0.290807 
0.0072141 -9.89253 -0.104159 
0.290807 -0.104159 -9.85405 
-9.89069 -0.0137062 0.30528 
-0.0137062 -9.88277 -0.141109 
0.30528 -0.141109 -9.88083 
-9.89087 -0.00569015 0.317252 
-0.00569015 -9.86693 -0.129273 
0.317252 -0.129273 -9.8965 
-9.91086 -0.00936534 0.309901 
-0.00936534 -9.85086 -0.119358 
0.309901 -0.119358 -9.89258 
-9.87906 -0.0167046 0.224859 
-0.0167046 -9.92379 0.165831 
0.224859 0.165831 -9.91878 
-9.91253 -0.00411528 0.218884 
-0.00411528 -9.91244 0.153653 
0.218884 0.153653 -9.89665 
-9.9097 -0.00797685 0.206385 
-0.00797685 -9.90384 0.145082 
0.206385 0.145082 -9.90809 
-9.89766 -0.00247002 0.19811 
-0.00247002 -9.93292 0.123593 
0.19811 0.123593 -9.89105 
-9.26892 -0.630527 -0.491131 
-0.630527 -8.80668 -0.548057 
-0.491131 -0.548057 -6.15737 
-8.3897 -0.692433 1.36685 
-0.692433 -8.65546 -1.4029 
1.36685 -1.4029 -7.18781 
-7.81656 -0.31997 -1.81558 
-0.31997 -11.3753 -0.170197 
-1.81558 -0.170197 -5.04112 
-9.35863 -0.671877 -0.581121 
-0.671877 -9.08288 -0.558304 
-0.581121 -0.558304 -5.79145 
-9.6498 0.00244083 -0.0978358 
0.00244083 -9.53139 0.0452052 
-0.0978358 0.0452052 -9.64174 
-9.45572 -0.0442387 -0.253026 
-0.0442387 -9.56504 0.118935 
-0.253026 0.118935 -9.80217 
-9.6722 0.0809891 -0.0472332 
0.0809891 -9.49353 0.0500834 
-0.0472332 0.0500834 -9.6572 
-9.52356 -0.0845244 -0.100906 
-0.0845244 -9.45823 0.163676 
-0.100906 0.163676 -9.84115 
-9.64948 0.0212626 -0.0190392 
0.0212626 -9.61653 -0.0293974 
-0.0190392 -0.0293974 -9.79898 
-9.69109 -0.0429238 0.0267135 
-0.0429238 -9.62624 0.0427193 
0.0267135 0.0427193 -9.74766 
-9.68383 -0.0280938 -0.0173495 
-0.0280938 -9.63973 0.00544894 
-0.0173495 0.00544894 -9.74142 
-9.69622 -0.0522008 -0.0575019 
-0.0522008 -9.6683 0.00282584 
-0.0575019 0.00282584 -9.70047 
-9.54654 0.0366425 0.0107633 
0.0366425 -9.63063 0.0906482 
0.0107633 0.0906482 -9.78838 
-9.72109 0.0149667 -0.0527233 
0.0149667 -9.56146 -0.0712086 
-0.0527233 -0.0712086 -9.683 
-9.65699 0.109618 -0.187369 
0.109618 -9.49904 0.144648 
-0.187369 0.144648 -9.80952 
-9.62296 0.0573476 -0.0577766 
0.0573476 -9.64026 0.125724 
-0.0577766 0.125724 -9.70233 
-9.79001 -0.00186325 0.00796687 
-0.00186325 -9.7955 -0.0334287 
0.00796687 -0.0334287 -9.89962 
-9.78969 0.000899249 0.00574543 
0.000899249 -9.80147 -0.0199545 
0.00574543 -0.0199545 -9.89397 
-9.80388 0.0048888 0.0117094 
0.0048888 -9.80319 -0.0205383 
0.0117094 -0.0205383 -9.87806 
-9.80994 -0.00183038 -0.00201741 
-0.00183038 -9.78946 -0.0163254 
-0.00201741 -0.0163254 -9.88573 
-11.0994 0.572582 0.302474 
0.572582 -11.1989 -0.591547 
0.302474 -0.591547 -14.7806 
-11.6351 0.135903 -0.315062 
0.135903 -11.3004 -0.702854 
-0.315062 -0.702854 -14.1433 
-12.6242 0.324873 0.0592163 
0.324873 -13.2325 0.265323 
0.0592163 0.265323 -11.2222 
-11.9058 0.554221 -0.86391 
0.554221 -11.2713 1.00916 
-0.86391 1.00916 -13.9018 
-9.76718 -0.0357118 -0.253083 
-0.0357118 -9.7017 0.276214 
-0.253083 0.276214 -9.65489 
-9.71789 -0.0294922 -0.282573 
-0.0294922 -9.64957 0.191223 
-0.282573 0.191223 -9.7563 
-9.71318 0.000998818 -0.264553 
0.000998818 -9.70611 0.225597 
-0.264553 0.225597 -9.70448 
-9.70531 -0.00538284 -0.254747 
-0.00538284 -9.71737 0.245275 
-0.254747 0.245275 -9.70109 
-9.65536 -0.301743 0.156748 
-0.301743 -9.9018 -0.128491 
0.156748 -0.128491 -9.10169 
-9.82719 0.134225 -0.284508 
0.134225 -9.32814 -0.308728 
-0.284508 -0.308728 -9.50351 
-9.6791 -0.147575 0.0274131 
-0.147575 -9.66519 -0.0762422 
0.0274131 -0.0762422 -9.31455 
-9.69362 -0.0298453 0.0952814 
-0.0298453 -9.63456 0.178763 
0.0952814 0.178763 -9.33066 
-9.42299 0.325294 -0.0613155 
0.325294 -9.60493 -0.0501215 
-0.0613155 -0.0501215 -10.2019 
-9.64736 0.00492307 -0.15557 
0.00492307 -9.70526 -0.013592 
-0.15557 -0.013592 -9.87723 
-9.89109 -0.199452 -0.118076 
-0.199452 -9.57517 -0.0682856 
-0.118076 -0.0682856 -9.76359 
-9.43761 -0.093707 -0.191991 
-0.093707 -9.86214 -0.232175 
-0.191991 -0.232175 -9.93009 
-9.77842 0.0257586 0.0566466 
0.0257586 -9.86939 -0.221575 
0.0566466 -0.221575 -9.77847 
-9.80037 -0.00360252 0.0742821 
-0.00360252 -9.84147 -0.176465 
0.0742821 -0.176465 -9.78443 
-9.81735 0.0177101 0.0739535 
0.0177101 -9.84914 -0.175129 
0.0739535 -0.175129 -9.75978 
-9.77697 0.0025473 0.0326588 
0.0025473 -9.85953 -0.21736 
0.0326588 -0.21736 -9.78978 
-9.85654 0.0205979 0.1478 
0.0205979 -9.91989 0.0417724 
0.1478 0.0417724 -9.98579 
-9.92888 0.00818517 0.0995294 
0.00818517 -9.95487 0.0589526 
0.0995294 0.0589526 -9.87847 
-9.93788 -0.018296 0.1266 
-0.018296 -9.9114 0.0770922 
0.1266 0.0770922 -9.91294 
-9.91502 -0.011459 0.134193 
-0.011459 -9.92449 0.0637062 
0.134193 0.0637062 -9.92271 
-7.15677 -0.118384 -1.05314 
-0.118384 -6.71005 -0.421317 
-1.05314 -0.421317 2.76799 
-6.61927 -2.15155 0.670311 
-2.15155 -5.12593 -0.993952 
0.670311 -0.993952 0.646373 
-2.02862 0.0505096 1.99786 
0.0505096 -4.18911 -2.08383 
1.99786 -2.08383 -4.8811 
-8.76511 0.828279 3.97439 
0.828279 -4.04532 -1.25704 
3.97439 -1.25704 1.7116 
-11.1949 -1.14489 -0.685425 
-1.14489 -9.66303 0.252915 
-0.685425 0.252915 -10.9384 
-10.0777 0.365975 -0.684972 
0.365975 -9.85312 -1.7675 
-0.684972 -1.7675 -11.8655 
-10.582 1.51221 0.330911 
1.51221 -8.60952 -0.837286 
0.330911 -0.837286 -12.6049 
-11.0642 0.653549 -0.0646011 
0.653549 -9.3188 -1.14366 
-0.0646011 -1.14366 -11.4134 
-9.90376 -0.00381208 -0.000950343 
-0.00381208 -9.90744 0.00956237 
-0.000950343 0.00956237 -9.96271 
-9.91652 0.00208209 -0.00295539 
0.00208209 -9.9044 0.0138754 
-0.00295539 0.0138754 -9.95298 
-9.90325 -0.00147196 -0.00865198 
-0.00147196 -9.90879 0.017466 
-0.00865198 0.017466 -9.96186 
-9.90587 -0.0122105 -0.00389535 
-0.0122105 -9.92354 -0.00265333 
-0.00389535 -0.00265333 -9.9445 
-9.74601 0.00879831 0.00927911 
0.00879831 -9.77007 -0.0248255 
0.00927911 -0.0248255 -9.88407 
-9.75627 0.00332372 0.0191273 
0.00332372 -9.76548 -0.0205356 
0.0191273 -0.0205356 -9.87841 
-9.7452 -0.00129349 0.012152 
-0.00129349 -9.75829 -0.00186696 
0.012152 -0.00186696 -9.89666 
-9.76792 -0.00109327 0.0125385 
-0.00109327 -9.76393 -0.0312127 
0.0125385 -0.0312127 -9.8683 
-9.68286 0.0371326 -0.332513 
0.0371326 -9.70632 0.0598064 
-0.332513 0.0598064 -9.68412 
-9.63086 0.023178 -0.28821 
0.023178 -9.72721 0.16975 
-0.28821 0.16975 -9.71524 
-9.68563 -0.0130805 -0.327012 
-0.0130805 -9.68047 0.0959356 
-0.327012 0.0959356 -9.70721 
-9.68996 0.00612546 -0.310777 
0.00612546 -9.69341 0.134803 
-0.310777 0.134803 -9.68993 
-9.56587 -0.0204052 -0.186052 
-0.0204052 -9.42228 0.0950582 
-0.186052 0.0950582 -9.96163 
-9.39635 0.01536 -0.0594016 
0.01536 -9.50902 -0.0322481 
-0.0594016 -0.0322481 -10.0444 
-9.36702 -0.180764 -0.258131 
-0.180764 -9.54173 -0.19883 
-0.258131 -0.19883 -10.041 
-9.35021 0.177738 0.118994 
0.177738 -9.60187 -0.0296767 
0.118994 -0.0296767 -9.99769 
-7.0608 1.13863 -1.44059 
1.13863 -7.60725 0.442859 
-1.44059 0.442859 -2.83708 
-7.32266 -0.225775 -1.64833 
-0.225775 -8.22793 0.267143 
-1.64833 0.267143 -1.95453 
-6.95925 0.434468 -1.09507 
0.434468 -7.49075 -0.0365473 
-1.09507 -0.0365473 -3.05513 
-6.71824 -0.120095 -1.79397 
-0.120095 -7.61295 0.57535 
-1.79397 0.57535 -3.17393 
-9.46274 -0.0556749 0.282971 
-0.0556749 -9.46603 -0.117201 
0.282971 -0.117201 -9.66137 
-9.40975 -0.014207 0.299619 
-0.014207 -9.51492 -0.181051 
0.299619 -0.181051 -9.66546 
-9.3779 -0.02403 0.294768 
-0.02403 -9.51767 -0.176949 
0.294768 -0.176949 -9.69456 
-9.45484 -0.0217429 0.345615 
-0.0217429 -9.4505 -0.160116 
0.345615 -0.160116 -9.68479 
-9.54976 -0.00493379 0.0976699 
-0.00493379 -9.62586 -0.316695 
0.0976699 -0.316695 -9.60452 
-9.60168 -0.0117158 0.107461 
-0.0117158 -9.56104 -0.316385 
0.107461 -0.316385 -9.61742 
-9.57305 -0.00335337 0.104993 
-0.00335337 -9.56563 -0.323794 
0.104993 -0.323794 -9.64146 
-9.56873 0.0285994 0.0911648 
0.0285994 -9.57393 -0.309379 
0.0911648 -0.309379 -9.63748 
-9.96496 0.0240696 -0.0203568 
0.0240696 -9.94997 0.13887 
-0.0203568 0.13887 -9.97403 
-9.92184 0.0068509 -0.0297487 
0.0068509 -9.92299 0.137514 
-0.0297487 0.137514 -10.0441 
-9.9751 0.00475071 -0.0265077 
0.00475071 -9.97774 0.149691 
-0.0265077 0.149691 -9.93612 
-9.9648 0.00604956 -0.0206577 
0.00604956 -9.99008 0.124701 
-0.0206577 0.124701 -9.93408 
-9.62663 -0.103638 -0.144549 
-0.103638 -9.59022 -0.095575 
-0.144549 -0.095575 -9.49167 
-9.49487 -0.022296 -0.255506 
-0.022296 -9.80102 -0.206417 
-0.255506 -0.206417 -9.41263 
-9.66514 0.108274 -0.116237 
0.108274 -9.68058 -0.235181 
-0.116237 -0.235181 -9.36281 
-9.5328 -0.00864722 -0.193094 
-0.00864722 -9.66222 -0.121348 
-0.193094 -0.121348 -9.5135 
-9.67738 0.00600635 0.00625806 
0.00600635 -9.67958 -0.088683 
0.00625806 -0.088683 -9.43309 
-9.8755 0.0209952 0.0695111 
0.0209952 -9.87902 0.0173225 
0.0695111 0.0173225 -9.03554 
-9.74429 0.0136924 0.183456 
0.0136924 -9.76333 0.519075 
0.183456 0.519075 -9.28244 
-9.79009 0.0383756 -0.044931 
0.0383756 -9.7424 0.600088 
-0.044931 0.600088 -9.25757 
-8.99835 -0.239577 -0.373954 
-0.239577 -11.1839 -0.724951 
-0.373954 -0.724951 -13.349 
-11.999 0.830866 -1.59419 
0.830866 -14.2271 1.80654 
-1.59419 1.80654 -7.30521 
-10.3636 -0.253616 0.147861 
-0.253616 -9.70687 -1.50809 
0.147861 -1.50809 -13.4607 
-9.40258 -1.27471 -0.81596 
-1.27471 -10.0595 0.728745 
-0.81596 0.728745 -14.0691 
-9.79462 0.0409507 -0.286892 
0.0409507 -9.70515 -0.0160071 
-0.286892 -0.0160071 -9.44881 
-9.57993 0.00364598 -0.350288 
0.00364598 -9.7734 -0.016699 
-0.350288 -0.016699 -9.59524 
-9.70994 0.0382275 -0.128294 
0.0382275 -9.49849 0.0362141 
-0.128294 0.0362141 -9.74015 
-9.67349 -0.0144701 -0.284514 
-0.0144701 -9.66119 -0.0451277 
-0.284514 -0.0451277 -9.61389 
-9.67536 0.0084024 -0.343057 
0.0084024 -9.66065 -0.132515 
-0.343057 -0.132515 -9.56548 
-9.69132 -0.0143967 -0.301887 
-0.0143967 -9.57478 -0.147462 
-0.301887 -0.147462 -9.63539 
-9.47082 0.0152137 -0.277813 
0.0152137 -9.68764 -0.0941003 
-0.277813 -0.0941003 -9.74303 
-9.71283 -0.00433486 -0.254133 
-0.00433486 -9.5825 -0.127401 
-0.254133 -0.127401 -9.60616 
-9.57512 0.605204 -0.240368 
0.605204 -9.12363 -0.357131 
-0.240368 -0.357131 -9.92818 
-9.82923 0.580399 -0.186371 
0.580399 -8.86868 -0.364656 
-0.186371 -0.364656 -9.92903 
-9.93704 0.20339 -0.239037 
0.20339 -9.10204 -0.701168 
-0.239037 -0.701168 -9.58786 
-9.4393 0.863437 -0.136929 
0.863437 -9.38989 -0.274313 
-0.136929 -0.274313 -9.79774 
-9.93106 0.0111843 0.185052 
0.0111843 -9.91106 0.245954 
0.185052 0.245954 -9.94224 
-9.903 -0.0135511 0.151599 
-0.0135511 -9.90905 0.240285 
0.151599 0.240285 -9.97231 
-9.91631 -0.00323856 0.176204 
-0.00323856 -9.92739 0.268095 
0.176204 0.268095 -9.94066 
-9.94435 -0.0158679 0.188912 
-0.0158679 -9.93174 0.279037 
0.188912 0.279037 -9.90826 
-9.90835 -0.0215102 0.0138319 
-0.0215102 -9.89034 -0.00362209 
0.0138319 -0.00362209 -9.99763 
-9.91766 -0.00927312 0.00349978 
-0.00927312 -9.92174 -0.0356953 
0.00349978 -0.0356953 -9.95691 
-9.92771 -0.00350051 0.00100173 
-0.00350051 -9.90328 -0.0148565 
0.00100173 -0.0148565 -9.96532 
-9.93696 -0.022167 0.00585889 
-0.022167 -9.93868 -0.0512133 
0.00585889 -0.0512133 -9.92067 
-9.55145 -0.0190948 0.338922 
-0.0190948 -9.57277 -0.0990112 
0.338922 -0.0990112 -9.52064 
-9.51378 -0.0331175 0.356448 
-0.0331175 -9.52891 -0.0906527 
0.356448 -0.0906527 -9.60218 
-9.52814 -0.00773239 0.379171 
-0.00773239 -9.48123 -0.10014 
0.379171 -0.10014 -9.6355 
-9.48501 -0.0159556 0.362312 
-0.0159556 -9.57607 -0.094713 
0.362312 -0.094713 -9.58378 
-14.1335 0.941246 1.27634 
0.941246 -12.7611 -1.74839 
1.27634 -1.74839 -8.75343 
-11.8137 -0.185354 -0.476714 
-0.185354 -9.96777 -0.437859 
-0.476714 -0.437859 -13.8666 
-11.3264 0.191958 -0.92185 
0.191958 -10.0657 0.509742 
-0.92185 0.509742 -14.2559 
-11.0496 -0.543264 1.01943 
-0.543264 -10.4518 -0.29493 
1.01943 -0.29493 -14.1466 
-9.96295 -0.0117929 0.0518559 
-0.0117929 -9.9778 -0.177584 
0.0518559 -0.177584 -9.96791 
-9.9516 0.000165281 0.0462429 
0.000165281 -9.99328 -0.1867 
0.0462429 -0.1867 -9.96377 
-9.95029 -0.0140597 0.0296889 
-0.0140597 -9.94089 -0.173713 
0.0296889 -0.173713 -10.0175 
-9.97975 -0.00716534 0.0627589 
-0.00716534 -9.98095 -0.179549 
0.0627589 -0.179549 -9.94795 
-4.03846 0.876116 -2.15752 
0.876116 -1.48872 -2.5441 
-2.15752 -2.5441 -7.98503 
-9.92953 0.658232 2.79057 
0.658232 -10.0396 0.501432 
2.79057 0.501432 6.45694 
-5.06375 0.10479 3.15629 
0.10479 -9.84493 -0.262241 
3.15629 -0.262241 1.39647 
-5.00779 -3.26841 3.83794 
-3.26841 -7.16768 -5.16298 
3.83794 -5.16298 -1.33675 
-9.51693 -0.0299092 0.0318697 
-0.0299092 -9.44789 -0.169157 
0.0318697 -0.169157 -9.0119 
-9.41811 0.393423 -0.100454 
0.393423 -9.23744 0.0178614 
-0.100454 0.0178614 -9.32118 
-9.33318 0.00895899 -0.126617 
0.00895899 -9.53246 -0.313234 
-0.126617 -0.313234 -9.11109 
-9.90802 0.276683 0.0891975 
0.276683 -9.51428 -0.0287265 
0.0891975 -0.0287265 -8.55443 
-11.8665 -0.121002 0.55228 
-0.121002 -13.2559 0.322448 
0.55228 0.322448 -11.009 
-10.5229 -0.191811 1.24525 
-0.191811 -12.2007 -0.272369 
1.24525 -0.272369 -13.4079 
-10.8152 -0.348424 0.932268 
-0.348424 -12.2334 -0.497438 
0.932268 -0.497438 -13.0829 
-10.8876 -0.182246 0.591712 
-0.182246 -12.331 -0.266168 
0.591712 -0.266168 -12.9129 
-9.80763 0.377603 0.775137 
0.377603 -10.4888 -0.147507 
0.775137 -0.147507 -8.43436 
-10.5838 0.350391 0.297724 
0.350391 -9.91722 0.150921 
0.297724 0.150921 -8.22979 
-10.2127 0.113172 0.812474 
0.113172 -10.3156 -0.0230715 
0.812474 -0.0230715 -8.20238 
-10.1406 0.484477 0.745904 
0.484477 -9.52436 -0.0508175 
0.745904 -0.0508175 -9.06577 
-9.86762 0.000343314 -0.0753716 
0.000343314 -9.86483 -0.175626 
-0.0753716 -0.175626 -9.88694 
-9.86188 -0.00379832 -0.105408 
-0.00379832 -9.8739 -0.172249 
-0.105408 -0.172249 -9.8836 
-9.89489 -0.0194957 -0.118932 
-0.0194957 -9.89846 -0.170236 
-0.118932 -0.170236 -9.82605 
-9.86606 -0.0141829 -0.0962046 
-0.0141829 -9.8954 -0.180461 
-0.0962046 -0.180461 -9.85793 
-9.57579 0.0982123 0.088445 
0.0982123 -9.39484 0.746369 
0.088445 0.746369 -10.084 
-9.75382 -0.0837452 -0.101626 
-0.0837452 -9.41547 0.113368 
-0.101626 0.113368 -9.88534 
-9.77441 -0.236878 -0.0479329 
-0.236878 -9.16566 0.109911 
-0.0479329 0.109911 -10.1146 
-9.53416 -0.0526028 -0.0403393 
-0.0526028 -9.08797 -0.0249273 
-0.0403393 -0.0249273 -10.4325 
-9.81527 0.00191257 0.0281059 
0.00191257 -9.7655 0.349225 
0.0281059 0.349225 -9.82824 
-9.77987 -0.0176269 0.0338239 
-0.0176269 -9.85114 0.360311 
0.0338239 0.360311 -9.778 
-9.81663 -0.0017243 0.0138519 
-0.0017243 -9.78678 0.320773 
0.0138519 0.320773 -9.8056 
-9.7716 0.0041901 0.0299214 
0.0041901 -9.80049 0.250448 
0.0299214 0.250448 -9.83692 
-9.84514 0.171227 0.0570556 
0.171227 -9.7943 -0.0240224 
0.0570556 -0.0240224 -10.133 
-10.0014 -0.0126596 -0.141999 
-0.0126596 -9.78427 -0.0493152 
-0.141999 -0.0493152 -9.98676 
-9.80413 0.174143 0.106921 
0.174143 -9.85187 0.029815 
0.106921 0.029815 -10.1164 
-9.71214 0.278631 -0.0845396 
0.278631 -9.85861 -0.034047 
-0.0845396 -0.034047 -10.2017 
-9.7939 0.0117039 -0.13992 
0.0117039 -9.73756 0.0597466 
-0.13992 0.0597466 -9.75752 
-9.75583 0.0305608 -0.135194 
0.0305608 -9.73668 0.0320338 
-0.135194 0.0320338 -9.79647 
-9.77326 0.0113852 -0.123194 
0.0113852 -9.74207 0.065607 
-0.123194 0.065607 -9.77365 
-9.8124 0.0172711 -0.149472 
0.0172711 -9.77123 0.0530559 
-0.149472 0.0530559 -9.70536 
-10.1215 -0.164651 -0.490661 
-0.164651 -8.92289 -0.144901 
-0.490661 -0.144901 -8.99505 
-9.41946 0.010466 -0.407397 
0.010466 -9.26038 0.0751826 
-0.407397 0.0751826 -9.3596 
-8.67725 0.203339 0.0441651 
0.203339 -9.75882 -0.150812 
0.0441651 -0.150812 -9.60336 
-8.82502 -0.0819978 -0.552991 
-0.0819978 -9.30685 -0.363731 
-0.552991 -0.363731 -9.90756 
-9.51451 0.0996785 -0.0623062 
0.0996785 -10.2611 -0.85858 
-0.0623062 -0.85858 -8.5494 
-9.10356 0.180975 0.607839 
0.180975 -9.69807 -0.493402 
0.607839 -0.493402 -9.52341 
-9.40705 0.446646 -0.261997 
0.446646 -9.51955 0.100854 
-0.261997 0.100854 -9.39844 
-9.8458 -0.0778525 -0.398168 
-0.0778525 -9.55065 0.170076 
-0.398168 0.170076 -8.92859 
-9.95845 0.0136089 -0.000297843 
0.0136089 -9.9414 0.0624604 
-0.000297843 0.0624604 -9.9943 
-9.95566 -0.00101829 -0.0110076 
-0.00101829 -9.94559 0.0671548 
-0.0110076 0.0671548 -9.9929 
-9.95712 0.0033541 -0.00829926 
0.0033541 -9.96196 0.0655603 
-0.00829926 0.0655603 -9.97508 
-9.96345 -0.00177659 -0.00805425 
-0.00177659 -9.97019 0.0707853 
-0.00805425 0.0707853 -9.96051 
-9.282 -0.0234825 -0.849866 
-0.0234825 -9.60654 -0.325193 
-0.849866 -0.325193 -8.81632 
-9.11343 0.145031 -0.465893 
0.145031 -9.6176 -0.16482 
-0.465893 -0.16482 -8.97383 
-9.28098 0.0458407 -0.557759 
0.0458407 -9.45002 -0.128344 
-0.557759 -0.128344 -8.97386 
-9.45206 0.0422784 -0.539064 
0.0422784 -9.41723 -0.281033 
-0.539064 -0.281033 -8.83558 
-9.74975 0.0456149 0.158732 
0.0456149 -9.5971 0.201348 
0.158732 0.201348 -10.1516 
-9.76276 0.116807 0.0465049 
0.116807 -9.66679 0.161876 
0.0465049 0.161876 -10.0689 
-9.83188 -0.017499 0.0972864 
-0.017499 -9.57841 0.156274 
0.0972864 0.156274 -10.0882 
-9.77549 0.0137973 0.123722 
0.0137973 -9.63494 0.0611751 
0.123722 0.0611751 -10.088 
-9.48334 0.0451858 0.0481108 
0.0451858 -10.0432 0.069874 
0.0481108 0.069874 -10.9108 
-9.62713 0.313126 0.0409396 
0.313126 -9.88301 0.0607818 
0.0409396 0.0607818 -10.9273 
-9.73434 0.148288 -0.0721046 
0.148288 -9.85327 0.0397553 
-0.0721046 0.0397553 -10.8498 
-9.78274 0.430935 0.206383 
0.430935 -9.88607 -0.0850639 
0.206383 -0.0850639 -10.7686 
-9.9035 -0.0106329 0.179881 
-0.0106329 -9.89667 0.113795 
0.179881 0.113795 -9.89826 
-9.9096 -0.0139638 0.182226 
-0.0139638 -9.88123 0.122573 
0.182226 0.122573 -9.90759 
-9.93371 -0.0122902 0.174309 
-0.0122902 -9.89359 0.114401 
0.174309 0.114401 -9.87114 
-9.89496 -0.012802 0.164559 
-0.012802 -9.91211 0.116615 
0.164559 0.116615 -9.89136 
-9.90635 0.00734497 0.0258639 
0.00734497 -9.90663 0.02963 
0.0258639 0.02963 -9.96653 
-9.91493 -0.00478329 0.0223007 
-0.00478329 -9.91501 0.0281788 
0.0223007 0.0281788 -9.94957 
-9.91227 -0.00450135 0.0198593 
-0.00450135 -9.90976 0.0262723 
0.0198593 0.0262723 -9.95748 
-9.91415 0.00402839 0.0334579 
0.00402839 -9.91747 0.0216237 
0.0334579 0.0216237 -9.94788 
-9.45771 0.0669099 -0.356156 
0.0669099 -9.56078 -0.021221 
-0.356156 -0.021221 -9.84409 
-9.52886 0.0627402 -0.299788 
0.0627402 -9.53396 -0.20009 
-0.299788 -0.20009 -9.79975 
-9.52954 -0.0207431 -0.254171 
-0.0207431 -9.59072 -0.201805 
-0.254171 -0.201805 -9.74231 
-9.54549 -0.0210549 -0.399474 
-0.0210549 -9.51856 -0.111329 
-0.399474 -0.111329 -9.79852 
-9.69567 0.0508893 0.17873 
0.0508893 -9.6067 -0.0675132 
0.17873 -0.0675132 -9.54272 
-9.75494 0.134935 0.258888 
0.134935 -9.58024 -0.121128 
0.258888 -0.121128 -9.50992 
-9.57133 -0.057319 0.204287 
-0.057319 -9.67127 -0.0909221 
0.204287 -0.0909221 -9.60249 
-9.75614 0.024996 0.0548776 
0.024996 -9.59011 -0.0735474 
0.0548776 -0.0735474 -9.49885 
-9.85263 0.00725116 -0.110982 
0.00725116 -9.89339 0.466085 
-0.110982 0.466085 -9.14327 
-9.55123 -0.0762982 0.0166105 
-0.0762982 -9.44159 0.285011 
0.0166105 0.285011 -9.89647 
-9.586 0.0338054 -0.115319 
0.0338054 -9.98195 0.129384 
-0.115319 0.129384 -9.32135 
-9.66369 0.0463414 -0.221486 
0.0463414 -9.87953 0.183912 
-0.221486 0.183912 -9.34607 
-12.7095 -0.0328563 1.79814 
-0.0328563 -7.88814 7.33019 
1.79814 7.33019 -5.20679 
-11.3191 -0.534386 0.353385 
-0.534386 -5.33312 1.62778 
0.353385 1.62778 -9.15219 
-8.32483 0.332035 1.77289 
0.332035 -9.93391 4.80602 
1.77289 4.80602 -7.54566 
-7.48292 1.26626 2.14411 
1.26626 -11.8223 2.09933 
2.14411 2.09933 -6.49916 
-9.78059 -0.00768449 0.0441113 
-0.00768449 -9.74149 -0.0159526 
0.0441113 -0.0159526 -9.8247 
-9.77566 -0.0075617 0.0544822 
-0.0075617 -9.76154 -0.00440647 
0.0544822 -0.00440647 -9.80957 
-9.76742 0.00189063 0.0453453 
0.00189063 -9.74756 -0.0034938 
0.0453453 -0.0034938 -9.8318 
-9.78292 -0.0142078 -0.0163764 
-0.0142078 -9.75531 -0.0256472 
-0.0163764 -0.0256472 -9.80854 
-9.5482 -0.0316991 -0.352449 
-0.0316991 -9.58371 -0.150004 
-0.352449 -0.150004 -9.65875 
-9.61694 -0.0494755 -0.366834 
-0.0494755 -9.57859 -0.111512 
-0.366834 -0.111512 -9.59513 
-9.57038 0.0297982 -0.297203 
0.0297982 -9.58051 -0.18858 
-0.297203 -0.18858 -9.63978 
-9.58149 -0.0307251 -0.34597 
-0.0307251 -9.58378 -0.145836 
-0.34597 -0.145836 -9.62539 
-9.57282 0.00336934 0.0274264 
0.00336934 -9.67067 0.199385 
0.0274264 0.199385 -9.56161 
-9.5613 0.0138052 0.0200584 
0.0138052 -9.67194 0.217582 
0.0200584 0.217582 -9.57186 
-9.60645 -0.0379087 0.0593644 
-0.0379087 -9.75348 0.196298 
0.0593644 0.196298 -9.44517 
-9.59994 -0.017812 0.0249449 
-0.017812 -9.68162 0.212045 
0.0249449 0.212045 -9.52354 
-9.91148 -0.0266757 -0.31484 
-0.0266757 -9.84239 0.118279 
-0.31484 0.118279 -9.67792 
-9.77442 0.00787696 -0.330791 
0.00787696 -9.73051 0.121316 
-0.330791 0.121316 -9.92687 
-9.80062 0.0221492 -0.262915 
0.0221492 -9.80352 0.0901659 
-0.262915 0.0901659 -9.82766 
-9.81067 0.0138587 -0.28885 
0.0138587 -9.80915 0.0914593 
-0.28885 0.0914593 -9.81197 
-8.75993 0.0826043 2.8244 
0.0826043 -11.358 -0.354639 
2.8244 -0.354639 -6.45097 
-7.95215 0.0419016 1.54016 
0.0419016 -12.0942 -0.0234735 
1.54016 -0.0234735 -6.52255 
-7.85796 0.193078 2.05987 
0.193078 -11.4993 0.0105075 
2.05987 0.0105075 -7.21168 
-7.33994 0.551035 1.97603 
0.551035 -9.81438 1.43719 
1.97603 1.43719 -9.41459 
-9.86778 -0.00803927 0.0345431 
-0.00803927 -9.85966 -0.0860369 
0.0345431 -0.0860369 -9.904 
-9.87218 0.00706698 0.0428455 
0.00706698 -9.87975 -0.0537168 
0.0428455 -0.0537168 -9.87952 
-9.87777 0.00839837 0.0273533 
0.00839837 -9.88102 -0.0650098 
0.0273533 -0.0650098 -9.87266 
-9.86751 0.00654161 0.0342217 
0.00654161 -9.87019 -0.0725387 
0.0342217 -0.0725387 -9.89375 
-9.80777 0.0808486 0.14803 
0.0808486 -9.92669 -0.302684 
0.14803 -0.302684 -9.69857 
-9.7709 -0.0186393 0.168018 
-0.0186393 -9.74333 -0.339463 
0.168018 -0.339463 -9.9188 
-9.81555 -0.0141678 0.116391 
-0.0141678 -9.79366 -0.318574 
0.116391 -0.318574 -9.82383 
-9.80741 -0.021452 0.0730329 
-0.021452 -9.7616 -0.241203 
0.0730329 -0.241203 -9.86403 
-9.73608 0.0107522 0.275099 
0.0107522 -9.82228 0.215399 
0.275099 0.215399 -9.9336 
-9.93748 -0.0406803 0.334806 
-0.0406803 -9.82667 0.146111 
0.334806 0.146111 -9.72782 
-9.80103 0.026408 0.286938 
0.026408 -9.84917 0.194102 
0.286938 0.194102 -9.84176 
-9.85368 0.0147315 0.204682 
0.0147315 -9.86083 0.21494 
0.204682 0.21494 -9.77745 
-9.94236 0.471869 0.0972264 
0.471869 -8.97075 0.119273 
0.0972264 0.119273 -9.41616 
-9.47035 -0.0608501 -0.292241 
-0.0608501 -9.42051 0.895921 
-0.292241 0.895921 -9.43842 
-8.64184 0.0502341 -0.159044 
0.0502341 -9.54684 0.146774 
-0.159044 0.146774 -10.1406 
-9.81212 -0.0722259 -0.0831198 
-0.0722259 -9.28134 0.0860747 
-0.0831198 0.0860747 -9.23581 
-9.78439 -0.0228916 -0.168159 
-0.0228916 -9.79971 0.303144 
-0.168159 0.303144 -9.8074 
-9.76169 -0.0232417 -0.122766 
-0.0232417 -9.82676 0.276809 
-0.122766 0.276809 -9.80306 
-9.7974 0.0184525 -0.0740602 
0.0184525 -9.82645 0.314777 
-0.0740602 0.314777 -9.76765 
-9.79572 -0.0129596 -0.102899 
-0.0129596 -9.79983 0.300541 
-0.102899 0.300541 -9.79595 
-9.76007 0.0151404 0.0551845 
0.0151404 -9.74086 -0.0262601 
0.0551845 -0.0262601 -9.81227 
-9.75039 0.0303452 0.033794 
0.0303452 -9.74046 -0.00120941 
0.033794 -0.00120941 -9.82235 
-9.74791 0.00196885 0.012027 
0.00196885 -9.71931 -0.0462328 
0.012027 -0.0462328 -9.84598 
-9.74222 -0.0204535 0.0396276 
-0.0204535 -9.6975 -0.0306466 
0.0396276 -0.0306466 -9.87348 
-9.60381 0.0705429 -0.0118377 
0.0705429 -9.83206 -0.028292 
-0.0118377 -0.028292 -10.0516 
-9.66229 0.0893263 -0.176341 
0.0893263 -9.8966 -0.209013 
-0.176341 -0.209013 -9.92853 
-9.71382 -0.0447049 -0.374823 
-0.0447049 -9.8285 -0.15566 
-0.374823 -0.15566 -9.9451 
-9.67879 0.0830939 -0.0679248 
0.0830939 -9.77733 -0.0726817 
-0.0679248 -0.0726817 -10.0313 
-12.4219 -0.584626 0.746264 
-0.584626 -9.83678 -1.3748 
0.746264 -1.3748 -5.29723 
-9.42643 -0.146441 0.72279 
-0.146441 -9.69916 -1.48581 
0.72279 -1.48581 -8.43034 
-10.3548 0.209998 -0.60457 
0.209998 -7.72839 1.12017 
-0.60457 1.12017 -9.47271 
-8.74997 -0.798321 1.06278 
-0.798321 -10.6144 -1.33033 
1.06278 -1.33033 -8.19158 
-9.68649 0.0100786 -0.208899 
0.0100786 -9.77029 0.200629 
-0.208899 0.200629 -9.56091 
-9.72548 0.0362196 -0.193349 
0.0362196 -9.67581 0.193729 
-0.193349 0.193729 -9.61639 
-9.72046 0.0182209 -0.188366 
0.0182209 -9.68836 0.171951 
-0.188366 0.171951 -9.60886 
-9.6782 0.0182613 -0.197219 
0.0182613 -9.70711 0.167409 
-0.197219 0.167409 -9.63237 
-7.40849 -0.337426 3.00042 
-0.337426 -9.46335 1.46548 
3.00042 1.46548 -9.05292 
-5.3561 2.1207 3.80268 
2.1207 -9.20506 -0.17752 
3.80268 -0.17752 -11.3636 
-6.85306 0.334643 5.85394 
0.334643 -9.63303 2.47981 
5.85394 2.47981 -9.43868 
-9.40584 -2.65938 0.813555 
-2.65938 -9.83796 -0.19718 
0.813555 -0.19718 -6.68097 
-7.25076 0.0746495 -4.95444 
0.0746495 -9.45791 1.86095 
-4.95444 1.86095 -6.57261 
-7.99605 -0.857621 -6.00578 
-0.857621 -9.0173 2.44836 
-6.00578 2.44836 -6.26792 
-5.13942 -1.28862 -2.87363 
-1.28862 -9.49802 0.44613 
-2.87363 0.44613 -8.64384 
-11.1276 2.43928 0.404493 
2.43928 -6.80471 -0.194818 
0.404493 -0.194818 -5.34899 
-9.75184 0.0124937 0.292726 
0.0124937 -9.74112 0.160819 
0.292726 0.160819 -9.70502 
-9.75468 -0.0182577 0.325378 
-0.0182577 -9.71149 0.145391 
0.325378 0.145391 -9.73182 
-9.74173 0.00790094 0.302263 
0.00790094 -9.66498 0.0726569 
0.302263 0.0726569 -9.79128 
-9.78541 0.00891044 0.21006 
0.00891044 -9.75615 0.168292 
0.21006 0.168292 -9.65642 
-10.2119 0.203153 0.18969 
0.203153 -7.96595 -0.133773 
0.18969 -0.133773 -13.878 
-5.00047 0.187136 -1.95752 
0.187136 -7.64114 0.0811471 
-1.95752 0.0811471 -19.4143 
-9.32478 1.22682 1.69913 
1.22682 -13.0554 0.365174 
1.69913 0.365174 -9.67573 
-7.60034 -1.63265 -0.314914 
-1.63265 -11.9724 -2.50644 
-0.314914 -2.50644 -12.4832 
-9.7376 0.0246256 -0.150363 
0.0246256 -9.74253 0.0931249 
-0.150363 0.0931249 -9.75227 
-9.7618 0.0166968 -0.155418 
0.0166968 -9.71353 0.0935527 
-0.155418 0.0935527 -9.75706 
-9.73977 0.0171946 -0.149981 
0.0171946 -9.7409 0.0970173 
-0.149981 0.0970173 -9.75172 
-9.73682 0.029534 -0.137353 
0.029534 -9.73831 0.086598 
-0.137353 0.086598 -9.75726 
-12.9956 0.187384 0.153969 
0.187384 -11.9329 0.184471 
0.153969 0.184471 -10.1941 
-11.1796 0.289067 -0.0713716 
0.289067 -10.9202 -0.319822 
-0.0713716 -0.319822 -13.0227 
-11.1036 0.50678 -0.484443 
0.50678 -11.1462 -0.70162 
-0.484443 -0.70162 -12.8727 
-11.8802 0.213698 -1.75564 
0.213698 -10.5517 0.62719 
-1.75564 0.62719 -12.6906 
-9.63112 0.0048773 -0.160552 
0.0048773 -9.64011 0.300439 
-0.160552 0.300439 -9.5881 
-9.59896 0.00712739 -0.181312 
0.00712739 -9.60134 0.318201 
-0.181312 0.318201 -9.65902 
-9.62278 -0.00369257 -0.163009 
-0.00369257 -9.61584 0.300335 
-0.163009 0.300335 -9.6207 
-9.65734 -0.00297933 -0.159804 
-0.00297933 -9.59615 0.301854 
-0.159804 0.301854 -9.60583 
-9.61885 -0.00135109 0.331983 
-0.00135109 -9.55042 -0.0945729 
0.331983 -0.0945729 -9.47566 
-9.53199 0.0746888 0.410268 
0.0746888 -9.6274 -0.141585 
0.410268 -0.141585 -9.48554 
-9.54091 0.0583919 0.384713 
0.0583919 -9.55594 -0.113 
0.384713 -0.113 -9.54808 
-9.5598 -0.02335 0.346556 
-0.02335 -9.59172 -0.128583 
0.346556 -0.128583 -9.49341 
-9.69254 -0.0272762 0.224983 
-0.0272762 -9.63588 -0.345961 
0.224983 -0.345961 -9.56178 
-9.68822 -0.00507339 0.171169 
-0.00507339 -9.64468 -0.384848 
0.171169 -0.384848 -9.5573 
-9.66152 -0.0170118 0.181433 
-0.0170118 -9.63342 -0.333524 
0.181433 -0.333524 -9.59526 
-9.59439 -0.0501401 0.146348 
-0.0501401 -9.68458 -0.361624 
0.146348 -0.361624 -9.61123 
-8.90647 2.14657 -1.9451 
2.14657 -9.29479 -0.72716 
-1.9451 -0.72716 -12.6341 
-8.02193 -0.534285 -1.74392 
-0.534285 -11.9812 -0.831442 
-1.74392 -0.831442 -10.8322 
-10.895 2.91113 -1.44048 
2.91113 -9.90277 -2.49541 
-1.44048 -2.49541 -10.0376 
-9.28049 -0.153927 -3.73271 
-0.153927 -10.1186 -1.03572 
-3.73271 -1.03572 -11.4363 
-9.35268 0.730147 -3.09168 
0.730147 -8.26392 1.88627 
-3.09168 1.88627 -4.7637 
-11.467 -1.47789 -4.9457 
-1.47789 -10.4559 4.21066 
-4.9457 4.21066 -0.457361 
-9.63197 1.54816 -1.80525 
1.54816 -8.97915 -0.094312 
-1.80525 -0.094312 -3.76917 
-6.5237 -3.2824 -1.11116 
-3.2824 -7.4178 2.12044 
-1.11116 2.12044 -8.4388 
-9.15795 0.489745 0.420217 
0.489745 -9.64414 -0.0504225 
0.420217 -0.0504225 -9.30225 
-9.10851 0.52746 0.221803 
0.52746 -9.83268 -0.157961 
0.221803 -0.157961 -9.16314 
-8.95861 0.165371 0.25248 
0.165371 -9.53338 -0.527133 
0.25248 -0.527133 -9.61234 
-9.36213 -0.173961 -0.0150559 
-0.173961 -9.37085 -0.244638 
-0.0150559 -0.244638 -9.37135 
-9.54039 0.0579945 0.209616 
0.0579945 -9.48666 -0.0630354 
0.209616 -0.0630354 -9.63354 
-9.27234 -0.205154 0.334279 
-0.205154 -9.55607 -0.194871 
0.334279 -0.194871 -9.83218 
-9.58163 0.0506762 0.202377 
0.0506762 -9.63298 -0.0487974 
0.202377 -0.0487974 -9.44599 
-9.32425 -0.0324294 0.0896964 
-0.0324294 -9.46923 0.0246324 
0.0896964 0.0246324 -9.86711 
-9.88452 -0.00169808 0.298557 
-0.00169808 -9.86432 -0.0573916 
0.298557 -0.0573916 -9.9065 
-9.87956 0.013565 0.344152 
0.013565 -9.88912 -0.0343857 
0.344152 -0.0343857 -9.88665 
-9.89802 -0.000864168 0.325396 
-0.000864168 -9.88152 -0.0431017 
0.325396 -0.0431017 -9.87579 
-9.91709 0.0158203 0.336306 
0.0158203 -9.88955 -0.0114335 
0.336306 -0.0114335 -9.84869 
-8.79611 0.219188 -0.279194 
0.219188 -9.47332 -0.245156 
-0.279194 -0.245156 -9.62644 
-9.11673 0.257347 -0.439276 
0.257347 -9.15963 -0.418408 
-0.439276 -0.418408 -9.61951 
-9.07101 0.192649 -0.58883 
0.192649 -9.18471 -0.421683 
-0.58883 -0.421683 -9.64015 
-9.16787 0.201997 -0.380635 
0.201997 -9.16106 -0.359191 
-0.380635 -0.359191 -9.56694 
-9.72919 -0.0239214 -0.184048 
-0.0239214 -9.66734 -0.102291 
-0.184048 -0.102291 -9.74299 
-9.74772 -0.0389554 -0.169579 
-0.0389554 -9.68048 -0.0824888 
-0.169579 -0.0824888 -9.71132 
-9.72006 -0.00416649 -0.153728 
-0.00416649 -9.68363 -0.0618618 
-0.153728 -0.0618618 -9.73584 
-9.75064 -0.0503661 -0.160053 
-0.0503661 -9.71372 -0.0931705 
-0.160053 -0.0931705 -9.67516 
-9.91017 -0.0137256 -0.102825 
-0.0137256 -9.9339 -0.191182 
-0.102825 -0.191182 -9.92401 
-9.97357 0.0142635 -0.0756017 
0.0142635 -9.90512 -0.230628 
-0.0756017 -0.230628 -9.88938 
-9.93851 0.0219621 -0.143077 
0.0219621 -9.86318 -0.158391 
-0.143077 -0.158391 -9.96639 
-9.90149 -0.0208441 -0.0938463 
-0.0208441 -9.93805 -0.186737 
-0.0938463 -0.186737 -9.92854 
-12.7374 0.0583258 0.26027 
0.0583258 -8.14897 7.91119 
0.26027 7.91119 -4.37432 
-7.18735 -0.314403 -0.395379 
-0.314403 -6.59943 0.720317 
-0.395379 0.720317 -11.474 
-9.75496 -0.687318 -0.10508 
-0.687318 -9.64573 1.47864 
-0.10508 1.47864 -5.86005 
-9.73087 -0.904803 -1.18221 
-0.904803 -9.23793 1.99403 
-1.18221 1.99403 -6.29193 
-9.92302 0.00324647 -0.00295246 
0.00324647 -9.91964 -0.314774 
-0.00295246 -0.314774 -9.93125 
-9.9275 -0.00331438 -0.0101309 
-0.00331438 -9.91955 -0.314096 
-0.0101309 -0.314096 -9.92686 
-9.88588 0.01125 -0.0156442 
0.01125 -9.93176 -0.288294 
-0.0156442 -0.288294 -9.95627 
-9.91604 0.0134536 -0.0115154 
0.0134536 -9.9548 -0.332123 
-0.0115154 -0.332123 -9.90306 
-9.73241 0.29289 -0.288608 
0.29289 -9.65581 -0.268437 
-0.288608 -0.268437 -9.24908 
-9.61235 0.293506 -0.630535 
0.293506 -9.54096 -0.344228 
-0.630535 -0.344228 -9.48399 
-10.3966 -0.444098 -1.194 
-0.444098 -9.21273 -0.759901 
-1.194 -0.759901 -9.028 
-9.24311 0.374784 -0.650142 
0.374784 -9.79905 -0.403887 
-0.650142 -0.403887 -9.59514 
-9.5428 -0.0270835 0.104904 
-0.0270835 -9.53815 0.358291 
0.104904 0.358291 -9.52603 
-9.61971 -0.0124934 0.0159236 
-0.0124934 -9.47099 0.386929 
0.0159236 0.386929 -9.51627 
-9.57317 0.00638327 0.0671483 
0.00638327 -9.50111 0.415245 
0.0671483 0.415245 -9.5327 
-9.58824 0.0163533 0.0508375 
0.0163533 -9.51281 0.424535 
0.0508375 0.424535 -9.50594 
-8.76283 0.0219946 0.686784 
0.0219946 -9.55244 -0.0237411 
0.686784 -0.0237411 -9.44208 
-9.02021 -0.398373 0.794993 
-0.398373 -9.2098 -0.426221 
0.794993 -0.426221 -9.52734 
-9.52272 0.0937935 0.355325 
0.0937935 -8.8973 -0.11049 
0.355325 -0.11049 -9.33733 
-8.96215 -0.0589809 0.610642 
-0.0589809 -9.29752 -0.03312 
0.610642 -0.03312 -9.49768 
-10.2747 -0.100966 0.500738 
-0.100966 -9.21418 -0.668213 
0.500738 -0.668213 -9.22349 
-9.9247 -0.519379 0.387441 
-0.519379 -9.2665 -0.524213 
0.387441 -0.524213 -9.52117 
-9.47422 -0.264199 0.931673 
-0.264199 -9.76787 -0.46733 
0.931673 -0.46733 -9.47027 
-9.41762 -0.240858 0.626651 
-0.240858 -10.0211 -0.486318 
0.626651 -0.486318 -9.27367 
-7.95815 0.700473 -0.777708 
0.700473 -7.05559 1.31608 
-0.777708 1.31608 -0.851833 
-4.8219 0.525138 -1.19145 
0.525138 -8.13294 1.75282 
-1.19145 1.75282 -2.91073 
-8.3867 0.679641 -0.282957 
0.679641 -7.06398 1.63732 
-0.282957 1.63732 -0.414896 
-7.52233 -0.594435 -0.380385 
-0.594435 -8.0162 2.52615 
-0.380385 2.52615 -0.32705 
-9.84914 -0.0114314 0.285957 
-0.0114314 -9.7979 0.194408 
0.285957 0.194408 -9.73306 
-9.78135 -0.0302425 0.282567 
-0.0302425 -9.80068 0.11144 
0.282567 0.11144 -9.79807 
-9.75174 0.00479275 0.335186 
0.00479275 -9.77419 0.09327 
0.335186 0.09327 -9.85417 
-9.78986 0.00526543 0.275831 
0.00526543 -9.80787 0.133149 
0.275831 0.133149 -9.78238 
-9.93594 -0.00276769 -0.0266996 
-0.00276769 -9.90789 0.0537733 
-0.0266996 0.0537733 -10.0704 
-9.94735 0.0446988 0.028098 
0.0446988 -9.83256 0.036748 
0.028098 0.036748 -10.1343 
-9.94394 0.0111888 -0.136519 
0.0111888 -9.93759 0.0422448 
-0.136519 0.0422448 -10.0327 
-9.92013 -0.0685887 -0.0762989 
-0.0685887 -9.80279 0.155645 
-0.0762989 0.155645 -10.1913 
-9.55681 -0.0785813 -0.0108355 
-0.0785813 -9.52282 -0.00155335 
-0.0108355 -0.00155335 -9.59589 
-9.65601 -0.0439348 -0.0623804 
-0.0439348 -9.56033 0.0598989 
-0.0623804 0.0598989 -9.45919 
-9.64634 -0.0877115 -0.0423681 
-0.0877115 -9.50643 -0.00326208 
-0.0423681 -0.00326208 -9.52276 
-9.57234 -0.0636102 -0.0775771 
-0.0636102 -9.59401 -0.0646503 
-0.0775771 -0.0646503 -9.50917 
-9.63209 0.0496936 0.317613 
0.0496936 -9.67093 0.156183 
0.317613 0.156183 -9.7073 
-9.72276 -0.0855181 0.293916 
-0.0855181 -9.71661 0.171719 
0.293916 0.171719 -9.57094 
-9.63655 0.0308705 0.328579 
0.0308705 -9.61553 0.148345 
0.328579 0.148345 -9.75823 
-9.66958 0.034908 0.28011 
0.034908 -9.67729 0.0518652 
0.28011 0.0518652 -9.66345 
-7.65368 -0.26933 -0.0888158 
-0.26933 -6.9221 0.950842 
-0.0888158 0.950842 -0.527202 
-6.12267 -0.924286 0.609376 
-0.924286 -5.98645 -0.4328 
0.609376 -0.4328 -2.99385 
-6.83428 -2.17837 0.286248 
-2.17837 -6.76539 -1.2553 
0.286248 -1.2553 -1.5033 
-5.93361 -0.530869 -1.46644 
-0.530869 -8.44855 2.37396 
-1.46644 2.37396 -0.720808 
-9.74518 0.0480316 -0.0129993 
0.0480316 -9.74971 0.0211891 
-0.0129993 0.0211891 -9.535 
-9.65872 0.0241614 0.0357661 
0.0241614 -9.65914 -0.0599725 
0.0357661 -0.0599725 -9.71203 
-9.63045 0.0399457 0.00234809 
0.0399457 -9.63605 0.0365377 
0.00234809 0.0365377 -9.7634 
-9.70515 0.0610667 -0.00802531 
0.0610667 -9.66158 -0.00282906 
-0.00802531 -0.00282906 -9.66317 
-8.41748 0.646534 -0.351968 
0.646534 -6.29421 -0.665002 
-0.351968 -0.665002 -1.00974 
-8.14355 0.302061 -0.608202 
0.302061 -6.24568 0.252868 
-0.608202 0.252868 -1.3322 
-7.12665 0.752112 0.397932 
0.752112 -5.72207 0.923456 
0.397932 0.923456 -2.8727 
-7.38303 -0.243164 -0.645187 
-0.243164 -6.00568 -0.758114 
-0.645187 -0.758114 -2.33273 
-9.36124 -0.0131895 -0.0567942 
-0.0131895 -9.85417 -0.0420557 
-0.0567942 -0.0420557 -9.50201 
-9.52003 0.135605 -0.0361687 
0.135605 -9.67516 -0.161622 
-0.0361687 -0.161622 -9.52223 
-9.62299 0.0744714 -0.182776 
0.0744714 -9.77942 -0.00621189 
-0.182776 -0.00621189 -9.315 
-9.32299 0.203244 0.0047477 
0.203244 -9.64337 0.0542068 
0.0047477 0.0542068 -9.75106 
-9.16875 -0.118369 -0.480767 
-0.118369 -9.6878 0.860955 
-0.480767 0.860955 -9.66118 
-10.6382 0.60338 -0.400995 
0.60338 -8.877 1.1281 
-0.400995 1.1281 -9.00253 
-10.2804 -0.766129 -0.386736 
-0.766129 -10.1579 0.624181 
-0.386736 0.624181 -8.07952 
-9.44574 -0.437657 -0.23232 
-0.437657 -9.49301 0.261686 
-0.23232 0.261686 -9.57898 
-9.77776 -0.0313097 -0.134966 
-0.0313097 -9.83873 -0.169914 
-0.134966 -0.169914 -9.73866 
-9.77485 -0.011772 -0.130033 
-0.011772 -9.81471 -0.16089 
-0.130033 -0.16089 -9.76559 
-9.81284 -0.0293501 -0.102314 
-0.0293501 -9.79069 -0.190103 
-0.102314 -0.190103 -9.75162 
-9.80836 -0.0473258 -0.0699374 
-0.0473258 -9.79968 -0.174086 
-0.0699374 -0.174086 -9.7471 
-10.5961 0.300345 -0.0215802 
0.300345 -11.1127 -0.287684 
-0.0215802 -0.287684 -13.2401 
-11.6135 -1.41472 0.218845 
-1.41472 -11.5191 -0.125711 
0.218845 -0.125711 -11.8161 
-10.4422 0.0630076 0.334374 
0.0630076 -12.3157 -0.0641955 
0.334374 -0.0641955 -12.1909 
-10.9924 0.122544 0.895521 
0.122544 -11.94 0.277761 
0.895521 0.277761 -12.0163 
-8.74396 -1.30784 -0.851616 
-1.30784 -8.16563 -0.527839 
-0.851616 -0.527839 -16.5555 
-9.41382 -0.516548 -0.450043 
-0.516548 -10.9959 0.10835 
-0.450043 0.10835 -13.0554 
-10.5504 -1.1179 -0.0317434 
-1.1179 -10.4472 0.162208 
-0.0317434 0.162208 -12.4675 
-10.9534 -1.76477 -1.17087 
-1.76477 -9.83817 0.663611 
-1.17087 0.663611 -12.6735 
-7.88129 2.42243 -0.343809 
2.42243 -10.4562 -0.208594 
-0.343809 -0.208594 -13.335 
-10.1865 -2.06131 0.171486 
-2.06131 -10.7346 -0.228149 
0.171486 -0.228149 -10.7514 
-9.28762 1.25564 -1.8646 
1.25564 -11.4825 -0.339565 
-1.8646 -0.339565 -10.9023 
-9.99765 -0.306943 -2.46588 
-0.306943 -9.55438 0.240836 
-2.46588 0.240836 -12.1204 
-9.791 0.0197927 -0.141335 
0.0197927 -10.1366 0.0860629 
-0.141335 0.0860629 -10.493 
-9.86981 0.279226 -0.162912 
0.279226 -9.82559 0.0532812 
-0.162912 0.0532812 -10.7252 
-9.45629 -0.304377 0.155517 
-0.304377 -10.1868 -0.267487 
0.155517 -0.267487 -10.7775 
-10.0053 0.153155 -0.07189 
0.153155 -10.0316 0.054688 
-0.07189 0.054688 -10.3838 
-10.3072 -0.173244 0.00464843 
-0.173244 -10.0567 0.292121 
0.00464843 0.292121 -8.71094 
-9.81988 0.0565867 0.114765 
0.0565867 -10.0123 0.346015 
0.114765 0.346015 -9.24258 
-9.57272 -0.0282701 0.279515 
-0.0282701 -10.0138 0.484182 
0.279515 0.484182 -9.48829 
-9.60257 0.392185 0.0693282 
0.392185 -9.99604 0.179828 
0.0693282 0.179828 -9.47619 
-9.2116 -0.495653 0.85428 
-0.495653 -9.91659 -0.484584 
0.85428 -0.484584 -9.70845 
-8.92482 0.275689 0.999877 
0.275689 -10.5089 -0.555914 
0.999877 -0.555914 -9.40291 
-9.93989 0.186698 0.400507 
0.186698 -9.41514 0.0439758 
0.400507 0.0439758 -9.48161 
-9.48509 0.142968 0.27769 
0.142968 -9.80188 0.402487 
0.27769 0.402487 -9.54966 
-9.8547 0.0106513 -0.158214 
0.0106513 -9.86204 0.137097 
-0.158214 0.137097 -9.84655 
-9.89862 0.0187399 -0.147753 
0.0187399 -9.87644 0.15824 
-0.147753 0.15824 -9.78823 
-9.8557 0.0149983 -0.168695 
0.0149983 -9.88048 0.139014 
-0.168695 0.139014 -9.82711 
-9.86095 0.00297846 -0.159916 
0.00297846 -9.86788 0.145699 
-0.159916 0.145699 -9.83446 
-10.5242 -0.645062 0.626449 
-0.645062 -7.28121 -1.41988 
0.626449 -1.41988 -10.557 
-9.12195 1.55263 -1.81697 
1.55263 -7.03071 -0.209489 
-1.81697 -0.209489 -12.2097 
-10.0049 0.310907 -0.494271 
0.310907 -7.88208 -1.19958 
-0.494271 -1.19958 -10.4754 
-11.1711 2.38105 3.12686 
2.38105 -8.77998 -1.68025 
3.12686 -1.68025 -8.41133 
-11.6845 -0.144957 -0.135968 
-0.144957 -12.0361 -0.527601 
-0.135968 -0.527601 -10.1007 
-10.1367 0.121476 0.216264 
0.121476 -10.4927 0.495718 
0.216264 0.495718 -13.192 
-10.4913 0.0433572 -0.00741085 
0.0433572 -11.0265 -0.302473 
-0.00741085 -0.302473 -12.3035 
-10.9635 0.770465 -1.53794 
0.770465 -10.6526 -0.655231 
-1.53794 -0.655231 -12.2052 
-9.52843 -0.216108 -0.0826753 
-0.216108 -9.41599 -0.181612 
-0.0826753 -0.181612 -9.71039 
-10.0106 0.0107903 -0.32007 
0.0107903 -9.74584 -0.170446 
-0.32007 -0.170446 -8.8984 
-10.2303 -0.222387 0.148648 
-0.222387 -9.45291 -0.758106 
0.148648 -0.758106 -8.97157 
-9.74086 0.0334139 -0.106158 
0.0334139 -10.0007 0.062343 
-0.106158 0.062343 -8.91327 
-9.45059 -0.00164895 -0.533601 
-0.00164895 -9.4492 0.0247867 
-0.533601 0.0247867 -9.73225 
-9.73548 -0.106172 -0.46428 
-0.106172 -9.56101 -0.171508 
-0.46428 -0.171508 -9.33555 
-9.4017 -0.0451073 -0.332387 
-0.0451073 -9.57929 -0.106182 
-0.332387 -0.106182 -9.65106 
-9.42741 0.0445239 -0.303324 
0.0445239 -9.41372 -0.185252 
-0.303324 -0.185252 -9.79091 
-9.6328 -0.0514933 -0.0199874 
-0.0514933 -9.53651 0.0255212 
-0.0199874 0.0255212 -9.87493 
-9.59287 0.0206323 -0.0111404 
0.0206323 -9.58508 0.042958 
-0.0111404 0.042958 -9.86628 
-9.59062 -0.0306344 0.0601085 
-0.0306344 -9.61875 0.0578384 
0.0601085 0.0578384 -9.83487 
-9.61197 0.0468104 -0.020608 
0.0468104 -9.57327 0.109301 
-0.020608 0.109301 -9.85899 
-9.4488 -0.110882 -0.644015 
-0.110882 -9.32947 0.580858 
-0.644015 0.580858 -9.17242 
-9.23672 -0.169598 -0.483794 
-0.169598 -9.45832 0.282586 
-0.483794 0.282586 -9.25565 
-9.36425 -0.0262165 -0.467305 
-0.0262165 -9.44927 0.305531 
-0.467305 0.305531 -9.13718 
-9.37002 -0.111255 -0.533196 
-0.111255 -9.45059 0.246966 
-0.533196 0.246966 -9.13008 
-9.65248 0.0937166 -0.050936 
0.0937166 -9.62018 0.0260193 
-0.050936 0.0260193 -9.5366 
-9.63281 0.0468699 -0.0826187 
0.0468699 -9.55725 0.0345263 
-0.0826187 0.0345263 -9.6192 
-9.68054 0.0775657 -0.0705766 
0.0775657 -9.5769 0.00610067 
-0.0705766 0.00610067 -9.55183 
-9.62789 0.0342586 -0.0561684 
0.0342586 -9.5727 0.0157287 
-0.0561684 0.0157287 -9.60867 
-9.16203 0.43679 0.356708 
0.43679 -12.4307 0.00328246 
0.356708 0.00328246 -13.773 
-9.84911 0.66358 -0.96712 
0.66358 -9.78588 -0.569683 
-0.96712 -0.569683 -15.7308 
-11.7881 -1.95176 0.650549 
-1.95176 -13.4058 0.0995065 
0.650549 0.0995065 -10.1719 
-9.33486 0.994653 1.49258 
0.994653 -12.4564 2.21336 
1.49258 2.21336 -13.5745 
-9.54787 0.0624344 -0.0476926 
0.0624344 -9.40862 -0.0994253 
-0.0476926 -0.0994253 -9.90017 
-9.69188 -0.18651 -0.206544 
-0.18651 -9.39123 -0.179614 
-0.206544 -0.179614 -9.77354 
-9.69484 -0.211213 -0.0186201 
-0.211213 -9.43251 -0.356802 
-0.0186201 -0.356802 -9.7293 
-9.73918 -0.1185 -0.243043 
-0.1185 -9.30082 -0.208076 
-0.243043 -0.208076 -9.81666 
-10.1677 -0.0663851 2.20939 
-0.0663851 -9.66628 -1.34459 
2.20939 -1.34459 -10.1322 
-8.36145 1.54944 -1.30678 
1.54944 -10.4376 -2.90284 
-1.30678 -2.90284 -11.1672 
-9.05488 0.242857 -2.40576 
0.242857 -9.94503 0.498389 
-2.40576 0.498389 -10.9663 
-8.94764 0.88131 -0.539414 
0.88131 -10.35 1.14977 
-0.539414 1.14977 -10.6686 
-9.37014 -0.135025 0.127774 
-0.135025 -9.59946 0.173781 
0.127774 0.173781 -10.0982 
-9.52607 -0.0376959 0.057105 
-0.0376959 -9.65968 -0.0757132 
0.057105 -0.0757132 -9.8821 
-9.43872 0.0859622 -0.033477 
0.0859622 -9.61551 -0.0350063 
-0.033477 -0.0350063 -10.0136 
-9.4997 0.0551596 -0.0446511 
0.0551596 -9.61446 0.0575997 
-0.0446511 0.0575997 -9.95369 
-9.84794 0.00874541 0.222601 
0.00874541 -9.83935 -0.0435886 
0.222601 -0.0435886 -9.83295 
-9.87273 -0.000128712 0.202358 
-0.000128712 -9.85255 -0.0230642 
0.202358 -0.0230642 -9.79496 
-9.86485 -0.0012979 0.210334 
-0.0012979 -9.84278 -0.0487406 
0.210334 -0.0487406 -9.81261 
-9.8542 -0.00476952 0.203726 
-0.00476952 -9.83304 -0.051092 
0.203726 -0.051092 -9.833 
-9.56187 -0.0615653 -0.0523485 
-0.0615653 -9.57908 -0.120283 
-0.0523485 -0.120283 -9.94478 
-9.64703 0.158139 0.0637112 
0.158139 -9.18335 -0.414981 
0.0637112 -0.414981 -10.2554 
-9.72144 0.0473014 -0.00333743 
0.0473014 -9.58235 -0.150489 
-0.00333743 -0.150489 -9.78195 
-9.30036 0.12931 -0.0125548 
0.12931 -9.66248 0.0873726 
-0.0125548 0.0873726 -10.1229 
-9.25332 0.154068 0.738684 
0.154068 -9.45378 0.175995 
0.738684 0.175995 -9.4546 
-9.15137 0.10192 0.740272 
0.10192 -9.57032 0.127853 
0.740272 0.127853 -9.44001 
-9.18123 0.152699 0.728378 
0.152699 -9.4597 0.109734 
0.728378 0.109734 -9.52077 
-9.04359 0.0860907 0.613881 
0.0860907 -9.50945 0.147066 
0.613881 0.147066 -9.60866 
-9.6321 0.0508212 0.22181 
0.0508212 -9.60791 -0.128124 
0.22181 -0.128124 -9.62787 
-9.64649 0.0368148 0.293397 
0.0368148 -9.62162 -0.162307 
0.293397 -0.162307 -9.59977 
-9.62702 0.0559225 0.304546 
0.0559225 -9.62086 -0.155979 
0.304546 -0.155979 -9.62001 
-9.68155 0.0619881 0.259659 
0.0619881 -9.66575 -0.0858589 
0.259659 -0.0858589 -9.52058 
-9.72484 -0.0161984 0.104412 
-0.0161984 -9.75229 0.218669 
0.104412 0.218669 -9.70739 
-9.73771 -0.0163132 0.113833 
-0.0163132 -9.7615 0.231519 
0.113833 0.231519 -9.68531 
-9.71985 -0.0154027 0.0944449 
-0.0154027 -9.75794 0.222042 
0.0944449 0.222042 -9.70673 
-9.70219 -0.00944853 0.100821 
-0.00944853 -9.73919 0.238021 
0.100821 0.238021 -9.74314 
-9.70217 -0.168888 -0.258778 
-0.168888 -9.80739 -0.0482887 
-0.258778 -0.0482887 -9.90718 
-9.5296 -0.100505 -0.16652 
-0.100505 -9.85552 0.0470196 
-0.16652 0.0470196 -10.0316 
-9.54346 -0.0565129 -0.032311 
-0.0565129 -9.78051 0.0724964 
-0.032311 0.0724964 -10.0928 
-9.69768 -0.0326511 -0.203829 
-0.0326511 -9.73262 -0.001561 
-0.203829 -0.001561 -9.98645 
-9.78566 -4.46998e-05 -0.0060782 
-4.46998e-05 -9.79175 -0.00414062 
-0.0060782 -0.00414062 -9.8781 
-9.76882 -0.00406924 0.00605231 
-0.00406924 -9.7868 -0.00634328 
0.00605231 -0.00634328 -9.89989 
-9.77345 0.00117421 0.00656439 
0.00117421 -9.7801 -0.0215902 
0.00656439 -0.0215902 -9.90196 
-9.80247 0.00481534 0.0174851 
0.00481534 -9.77514 -0.00950296 
0.0174851 -0.00950296 -9.87789 
-9.56163 0.436553 -0.810656 
0.436553 -9.27209 -0.560381 
-0.810656 -0.560381 -10.8278 
-9.97999 0.368791 -0.69548 
0.368791 -9.35633 -0.532501 
-0.69548 -0.532501 -10.3252 
-9.38341 0.661919 0.0479838 
0.661919 -9.84408 -0.548876 
0.0479838 -0.548876 -10.434 
-9.87912 0.443708 -0.586269 
0.443708 -9.6986 -0.75895 
-0.586269 -0.75895 -10.0838 
-9.51923 -0.216642 0.486738 
-0.216642 -9.98126 0.0515397 
0.486738 0.0515397 -10.119 
-9.52443 -0.115341 0.314414 
-0.115341 -9.74854 -0.038445 
0.314414 -0.038445 -10.3465 
-10.1075 -0.386094 -0.486663 
-0.386094 -9.13932 0.117348 
-0.486663 0.117348 -10.3727 
-9.15268 -0.291109 0.0741408 
-0.291109 -9.78549 0.118197 
0.0741408 0.118197 -10.6813 
-9.87316 -0.0013739 0.0287855 
-0.0013739 -9.8589 -0.290031 
0.0287855 -0.290031 -9.89223 
-9.86171 0.00578052 0.00384273 
0.00578052 -9.88477 -0.317764 
0.00384273 -0.317764 -9.87781 
-9.86889 0.0145421 0.00367333 
0.0145421 -9.88246 -0.316105 
0.00367333 -0.316105 -9.87294 
-9.89794 0.00442205 -0.0107699 
0.00442205 -9.90538 -0.328102 
-0.0107699 -0.328102 -9.82097 
-9.74385 0.237237 1.9126 
0.237237 -8.82157 0.160023 
1.9126 0.160023 -9.43195 
-10.1841 0.196792 1.07838 
0.196792 -9.92769 0.573306 
1.07838 0.573306 -7.88561 
-9.95486 1.37872 1.3293 
1.37872 -8.95784 0.833192 
1.3293 0.833192 -9.08467 
-9.23676 -0.561709 -0.314694 
-0.561709 -9.70353 -0.0535975 
-0.314694 -0.0535975 -9.05708 
-9.62657 0.0344428 0.0559985 
0.0344428 -9.77813 0.21153 
0.0559985 0.21153 -9.12742 
-9.6716 0.0270401 -0.166145 
0.0270401 -9.23814 0.310158 
-0.166145 0.310158 -9.62237 
-9.80507 0.0203213 -0.0675266 
0.0203213 -9.75529 0.443301 
-0.0675266 0.443301 -8.97175 
-9.58275 0.0431326 0.275116 
0.0431326 -9.78373 0.246954 
0.275116 0.246954 -9.16563 
-9.91714 0.0100049 -0.223686 
0.0100049 -9.89693 0.0867832 
-0.223686 0.0867832 -9.7759 
-9.88064 0.0041349 -0.224695 
0.0041349 -9.8678 0.0539837 
-0.224695 0.0539837 -9.84152 
-9.87285 0.00898883 -0.222976 
0.00898883 -9.85449 0.0689522 
-0.222976 0.0689522 -9.86263 
-9.89493 0.00351371 -0.224187 
0.00351371 -9.8588 0.0479345 
-0.224187 0.0479345 -9.83624 
-7.36293 1.35694 1.7934 
1.35694 -12.2764 1.02247 
1.7934 1.02247 -17.4518 
-11.6962 0.743449 1.5946 
0.743449 -13.6473 -0.175207 
1.5946 -0.175207 -11.7477 
-10.4584 1.04694 0.879899 
1.04694 -12.454 0.47654 
0.879899 0.47654 -14.1788 
-10.6299 0.805305 0.460185 
0.805305 -12.4414 0.403358 
0.460185 0.403358 -14.0198 
-9.92462 0.00815277 0.283099 
0.00815277 -9.92214 0.122764 
0.283099 0.122764 -9.93043 
-9.93132 0.00971992 0.29013 
0.00971992 -9.91518 0.117491 
0.29013 0.117491 -9.93069 
-9.9105 -0.0235449 0.271012 
-0.0235449 -9.9034 0.106138 
0.271012 0.106138 -9.96329 
-9.93717 -0.0186323 0.31008 
-0.0186323 -9.94283 0.129492 
0.31008 0.129492 -9.89719 
-5.15859 -1.31094 1.0663 
-1.31094 -2.54742 -0.942988 
1.0663 -0.942988 -1.6765 
-2.74236 -0.357935 0.24786 
-0.357935 -3.78769 -1.13357 
0.24786 -1.13357 -2.85246 
-3.85114 0.268835 0.531107 
0.268835 -5.03652 0.508056 
0.531107 0.508056 -0.494848 
-2.81523 -0.324915 0.361141 
-0.324915 -4.58428 -1.28639 
0.361141 -1.28639 -1.98299 
-7.86383 0.902244 -0.153072 
0.902244 -12.4339 -1.19821 
-0.153072 -1.19821 -13.6008 
-10.2553 0.30742 0.878191 
0.30742 -11.2098 0.0944845 
0.878191 0.0944845 -12.4334 
-10.9021 -0.276831 -0.158319 
-0.276831 -10.9495 -0.110878 
-0.158319 -0.110878 -12.047 
-9.81265 0.0417455 0.613511 
0.0417455 -11.5694 -0.0701774 
0.613511 -0.0701774 -12.5165 
-9.63665 -0.00978432 0.108988 
-0.00978432 -9.70514 0.176235 
0.108988 0.176235 -9.62784 
-9.67402 -0.0038225 0.105389 
-0.0038225 -9.68593 0.216713 
0.105389 0.216713 -9.60968 
-9.67463 0.0119913 0.106587 
0.0119913 -9.68515 0.223714 
0.106587 0.223714 -9.60985 
-9.66747 -0.0393433 0.124537 
-0.0393433 -9.72913 0.262568 
0.124537 0.262568 -9.57304 
-9.78276 0.708443 -1.65809 
0.708443 -8.75812 -1.26365 
-1.65809 -1.26365 -10.6561 
-9.7343 0.58194 -0.121957 
0.58194 -9.18656 -1.1876 
-0.121957 -1.1876 -10.2762 
-9.50524 1.04184 -0.321296 
1.04184 -9.28501 -0.915668 
-0.321296 -0.915668 -10.4068 
-10.1382 0.0375526 -0.946929 
0.0375526 -8.89617 -0.401477 
-0.946929 -0.401477 -10.1626 
-9.67811 0.0899422 0.107256 
0.0899422 -9.17793 0.771031 
0.107256 0.771031 -8.83984 
-9.01948 -0.0555216 0.283257 
-0.0555216 -9.56521 0.631177 
0.283257 0.631177 -9.11119 
-9.67434 -0.1415 -0.229263 
-0.1415 -8.99948 0.685574 
-0.229263 0.685574 -9.02206 
-9.62224 -0.0257532 0.124344 
-0.0257532 -9.37904 0.785853 
0.124344 0.785853 -8.6946 
-2.75821 0.658846 -0.00877179 
0.658846 -4.04995 -1.55649 
-0.00877179 -1.55649 -1.76611 
-5.00942 1.48348 -0.649361 
1.48348 -2.07621 -1.62708 
-0.649361 -1.62708 -1.48863 
-3.99387 -0.193156 -0.28708 
-0.193156 -4.7757 0.0337701 
-0.28708 0.0337701 0.195316 
-2.81554 0.528022 -0.174159 
0.528022 -4.15777 -1.97303 
-0.174159 -1.97303 -1.60096 
-9.73834 0.119949 0.162233 
0.119949 -9.86384 0.227012 
0.162233 0.227012 -10.0403 
-9.96766 0.129136 -0.212816 
0.129136 -9.88013 -0.194907 
-0.212816 -0.194907 -9.7947 
-9.89702 -0.0184159 -0.113896 
-0.0184159 -9.66499 -0.0778009 
-0.113896 -0.0778009 -10.0805 
-9.82694 0.0698344 -0.0769446 
0.0698344 -9.62332 -0.0907106 
-0.0769446 -0.0907106 -10.1922 
-5.04743 -0.534732 -1.76511 
-0.534732 -8.94601 -0.816669 
-1.76511 -0.816669 -2.26187 
-8.90211 -1.04556 0.277769 
-1.04556 -5.5085 -1.5573 
0.277769 -1.5573 -1.8447 
-7.84685 -0.241181 -1.14671 
-0.241181 -5.29869 -0.954616 
-1.14671 -0.954616 -3.10977 
-8.54468 1.12479 -2.04409 
1.12479 -7.0606 -0.56334 
-2.04409 -0.56334 -0.650029 
-12.0571 0.12214 0.410625 
0.12214 -9.61738 0.427621 
0.410625 0.427621 -13.3708 
-10.654 -1.2005 -0.0995781 
-1.2005 -10.0785 0.0308015 
-0.0995781 0.0308015 -14.3128 
-10.4725 2.11065 -0.304948 
2.11065 -11.6788 -0.437755 
-0.304948 -0.437755 -12.894 
-11.9118 0.24208 0.430692 
0.24208 -10.4614 0.627726 
0.430692 0.627726 -12.6721 
-3.09734 -0.205942 -1.38211 
-0.205942 -3.56518 1.14843 
-1.38211 1.14843 -2.89517 
-3.99203 0.613631 -0.906764 
0.613631 -4.19727 1.19088 
-0.906764 1.19088 -1.36838 
-4.42154 0.428377 -0.282051 
0.428377 -4.49174 -0.14524 
-0.282051 -0.14524 -0.644403 
-3.63433 0.753202 -1.96313 
0.753202 -3.54287 0.898602 
-1.96313 0.898602 -2.38048 
-9.71966 -0.0123661 0.153829 
-0.0123661 -9.73146 0.323569 
0.153829 0.323569 -9.7348 
-9.74735 0.0249627 0.09959 
0.0249627 -9.7886 0.30739 
0.09959 0.30739 -9.64997 
-9.7282 0.00468209 0.136847 
0.00468209 -9.73335 0.321928 
0.136847 0.321928 -9.72438 
-9.64384 0.0255402 0.153976 
0.0255402 -9.72807 0.267751 
0.153976 0.267751 -9.81402 
-9.29626 0.262242 1.09788 
0.262242 -8.97543 -0.971652 
1.09788 -0.971652 -8.95135 
-9.03939 -0.00904305 1.27184 
-0.00904305 -9.82158 -0.902491 
1.27184 -0.902491 -8.36206 
-8.55064 -0.00955573 0.835718 
-0.00955573 -9.29922 -0.944085 
0.835718 -0.944085 -9.37317 
-8.16646 -0.11072 -0.182065 
-0.11072 -9.96648 1.38716 
-0.182065 1.38716 -9.0901 
-8.82723 0.728709 -0.843477 
0.728709 -11.8893 0.044682 
-0.843477 0.044682 -13.1812 
-9.55086 1.00866 -0.595495 
1.00866 -11.6459 -0.810478 
-0.595495 -0.810478 -12.7009 
-9.80269 1.80231 0.214784 
1.80231 -11.3821 -0.629845 
0.214784 -0.629845 -12.7129 
-9.90743 0.74193 -0.218111 
0.74193 -11.2135 0.322812 
-0.218111 0.322812 -12.7768 
-9.5714 -0.0992186 -0.260521 
-0.0992186 -9.66226 -0.0442212 
-0.260521 -0.0442212 -9.80586 
-9.82788 -0.44377 -0.0493321 
-0.44377 -9.65246 -0.20551 
-0.0493321 -0.20551 -9.55917 
-9.00816 0.496931 -0.0120922 
0.496931 -9.79091 0.0902477 
-0.0120922 0.0902477 -10.2404 
-9.7323 0.190554 -0.655732 
0.190554 -9.36813 -0.162007 
-0.655732 -0.162007 -9.93909 
-9.00406 -0.1182 -0.542696 
-0.1182 -9.1995 -0.141358 
-0.542696 -0.141358 -10.1258 
-8.81702 0.117847 -0.328705 
0.117847 -8.98162 -0.12143 
-0.328705 -0.12143 -10.5307 
-9.0511 0.149698 -0.597452 
0.149698 -8.95604 -0.14962 
-0.597452 -0.14962 -10.3222 
-9.17313 -0.0036665 -0.0990191 
-0.0036665 -9.40069 -0.71323 
-0.0990191 -0.71323 -9.75552 
-9.36079 -0.103625 0.253292 
-0.103625 -9.36033 -0.0104427 
0.253292 -0.0104427 -9.8519 
-9.63879 0.140951 0.403811 
0.140951 -9.64403 0.201473 
0.403811 0.201473 -9.29021 
-9.28531 0.0086013 0.26444 
0.0086013 -9.54307 0.123881 
0.26444 0.123881 -9.74464 
-9.32134 0.0814043 0.565467 
0.0814043 -9.20746 0.145746 
0.565467 0.145746 -10.0442 
-9.74587 0.04295 0.0273132 
0.04295 -9.62941 -0.0726761 
0.0273132 -0.0726761 -9.79067 
-9.66376 0.0209183 0.0313176 
0.0209183 -9.70198 0.0305153 
0.0313176 0.0305153 -9.8002 
-9.69388 0.00695244 0.0588008 
0.00695244 -9.72592 -0.0133394 
0.0588008 -0.0133394 -9.74615 
-9.75497 0.0223747 -0.00545201 
0.0223747 -9.66031 -0.0096941 
-0.00545201 -0.0096941 -9.75066 
-9.57227 0.00119684 -0.0510622 
0.00119684 -9.65122 0.253485 
-0.0510622 0.253485 -9.51564 
-9.57329 0.0224409 -0.129954 
0.0224409 -9.67905 0.270559 
-0.129954 0.270559 -9.48679 
-9.59275 -0.0121181 -0.129166 
-0.0121181 -9.51086 0.378484 
-0.129166 0.378484 -9.63552 
-9.583 0.112381 -0.0988507 
0.112381 -9.69657 0.312382 
-0.0988507 0.312382 -9.45956 
-9.57286 0.000697118 -0.0977066 
0.000697118 -9.65364 -0.0917508 
-0.0977066 -0.0917508 -9.57336 
-9.76386 0.0129953 -0.130338 
0.0129953 -9.58705 0.0293219 
-0.130338 0.0293219 -9.44895 
-9.8222 -0.0441255 -0.0256468 
-0.0441255 -9.61921 0.120969 
-0.0256468 0.120969 -9.35844 
-9.82407 -0.181935 -0.203446 
-0.181935 -9.57492 0.231901 
-0.203446 0.231901 -9.40086 
-9.55115 0.0342897 0.0303003 
0.0342897 -9.75493 0.0878857 
0.0303003 0.0878857 -9.83243 
-9.69062 -0.00261711 -0.00870584 
-0.00261711 -9.38746 -0.0627328 
-0.00870584 -0.0627328 -10.0604 
-9.45121 0.00993667 -0.0126068 
0.00993667 -9.55996 0.250691 
-0.0126068 0.250691 -10.1273 
-9.5864 -0.0259125 -0.0664076 
-0.0259125 -9.54398 0.0911027 
-0.0664076 0.0911027 -10.0081 
-9.51977 0.0706339 0.0846018 
0.0706339 -9.55074 -0.196596 
0.0846018 -0.196596 -9.1143 
-9.67565 0.0554976 0.090128 
0.0554976 -9.50456 -0.219891 
0.090128 -0.219891 -9.00459 
-9.26944 0.0069554 0.245514 
0.0069554 -9.80159 -0.0539643 
0.245514 -0.0539643 -9.11377 
-9.25477 0.186025 -0.17877 
0.186025 -9.88005 -0.446265 
-0.17877 -0.446265 -9.04999 
-8.9248 -2.39595 -1.5531 
-2.39595 -9.43156 0.0659402 
-1.5531 0.0659402 -12.7756 
-9.95082 -1.91311 -2.16126 
-1.91311 -10.4951 1.28794 
-2.16126 1.28794 -10.686 
-8.78498 1.53769 -0.903311 
1.53769 -11.4345 0.629012 
-0.903311 0.629012 -10.9125 
-10.2103 -0.172928 -3.31619 
-0.172928 -9.18803 0.819416 
-3.31619 0.819416 -11.7337 
-9.88666 -0.000860415 -0.298731 
-0.000860415 -9.8812 -0.118817 
-0.298731 -0.118817 -9.90632 
-9.89976 0.00614621 -0.293586 
0.00614621 -9.88561 -0.128829 
-0.293586 -0.128829 -9.8888 
-9.9083 0.00278428 -0.279704 
0.00278428 -9.90281 -0.108771 
-0.279704 -0.108771 -9.86307 
-9.91682 0.00870847 -0.297544 
0.00870847 -9.87406 -0.131123 
-0.297544 -0.131123 -9.8833 
-4.40219 -0.894011 -0.668823 
-0.894011 -10.7894 1.115 
-0.668823 1.115 -16.5536 
-7.52906 -1.27024 -0.327154 
-1.27024 -11.3357 0.230581 
-0.327154 0.230581 -12.8804 
-9.149 -0.741915 -1.35393 
-0.741915 -12.0399 -0.594059 
-1.35393 -0.594059 -10.5563 
-7.98265 -0.522315 -0.150155 
-0.522315 -11.4743 0.1396 
-0.150155 0.1396 -12.2882 
-9.7608 0.0260732 0.114655 
0.0260732 -9.77495 -0.0532956 
0.114655 -0.0532956 -9.70247 
-9.7414 0.0338678 0.135427 
0.0338678 -9.78265 -0.0437285 
0.135427 -0.0437285 -9.71418 
-9.75307 0.0493462 0.12337 
0.0493462 -9.75006 -0.0941817 
0.12337 -0.0941817 -9.7351 
-9.74882 0.048936 0.133267 
0.048936 -9.74959 -0.0925802 
0.133267 -0.0925802 -9.73981 
-12.0519 0.178482 0.373765 
0.178482 -11.7568 0.530576 
0.373765 0.530576 -10.3334 
-11.0355 -0.148351 0.240175 
-0.148351 -11.4492 0.330314 
0.240175 0.330314 -11.6574 
-10.6334 0.277291 -0.0998858 
0.277291 -10.4171 -0.755018 
-0.0998858 -0.755018 -13.0916 
-11.8023 0.362487 -0.302676 
0.362487 -10.0462 1.01589 
-0.302676 1.01589 -12.2935 
-9.63268 -0.170006 0.0335172 
-0.170006 -9.53079 -0.0115976 
0.0335172 -0.0115976 -9.98012 
-9.51335 -0.0783209 -0.202082 
-0.0783209 -9.66715 -0.0334559 
-0.202082 -0.0334559 -9.96309 
-9.51384 -0.0268008 -0.162443 
-0.0268008 -9.57389 0.0417849 
-0.162443 0.0417849 -10.0559 
-9.44838 0.101535 -0.157369 
0.101535 -9.61113 0.0054346 
-0.157369 0.0054346 -10.0841 
-9.25342 0.0101407 -0.199919 
0.0101407 -9.43465 0.219377 
-0.199919 0.219377 -9.56085 
-8.87673 0.329417 -0.515242 
0.329417 -9.84756 -0.366443 
-0.515242 -0.366443 -9.52463 
-9.57661 0.208446 -0.225247 
0.208446 -9.5126 -0.156207 
-0.225247 -0.156207 -9.1597 
-8.98785 -0.252427 -0.531671 
-0.252427 -9.26592 0.117453 
-0.531671 0.117453 -9.99515 
-9.70693 -0.0280353 -0.0829887 
-0.0280353 -9.58491 0.0398356 
-0.0829887 0.0398356 -9.8022 
-9.72882 -0.0491075 -0.0574188 
-0.0491075 -9.64691 -0.0153893 
-0.0574188 -0.0153893 -9.71831 
-9.7692 -0.0160392 0.107453 
-0.0160392 -9.64935 -0.00268556 
0.107453 -0.00268556 -9.67549 
-9.74585 -0.00605905 -0.0758259 
-0.00605905 -9.69456 -0.0634802 
-0.0758259 -0.0634802 -9.65364 
-8.92933 0.0599162 -0.18708 
0.0599162 -10.779 0.666714 
-0.18708 0.666714 -8.27214 
-8.88272 0.845169 -1.037 
0.845169 -9.69838 -0.427399 
-1.037 -0.427399 -9.39939 
-7.88527 -0.0954291 0.453132 
-0.0954291 -8.92471 -0.40153 
0.453132 -0.40153 -11.1705 
-9.26483 -0.0869598 -0.882302 
-0.0869598 -8.13232 -0.659421 
-0.882302 -0.659421 -10.5833 
-9.97831 0.0526718 0.105316 
0.0526718 -12.129 -0.0495892 
0.105316 -0.0495892 -11.0606 
-11.3552 0.515294 0.0953942 
0.515294 -10.9864 0.133126 
0.0953942 0.133126 -10.8263 
-10.047 -0.0262195 -0.0984538 
-0.0262195 -9.77264 0.0207672 
-0.0984538 0.0207672 -13.3483 
-11.2886 0.302556 0.708292 
0.302556 -10.9661 1.45209 
0.708292 1.45209 -10.9131 
-9.66197 0.0658361 0.327557 
0.0658361 -9.77388 0.166913 
0.327557 0.166913 -9.84002 
-9.79916 -0.0241748 0.307076 
-0.0241748 -9.72633 0.143939 
0.307076 0.143939 -9.75038 
-9.82723 -0.0560735 0.324575 
-0.0560735 -9.7679 0.124474 
0.324575 0.124474 -9.68074 
-9.77896 0.012927 0.212942 
0.012927 -9.68946 0.097761 
0.212942 0.097761 -9.80745 
-9.98772 -0.000765881 0.275885 
-0.000765881 -9.97517 -0.0265056 
0.275885 -0.0265056 -9.96476 
-9.98426 0.00759407 0.280942 
0.00759407 -9.95015 -0.0317059 
0.280942 -0.0317059 -9.99323 
-9.96956 0.00169796 0.262947 
0.00169796 -9.95811 -0.0339415 
0.262947 -0.0339415 -9.99997 
-9.98537 0.00120496 0.277052 
0.00120496 -9.99112 -0.0262718 
0.277052 -0.0262718 -9.95116 
-9.84599 -0.0092518 0.179284 
-0.0092518 -9.84429 0.158655 
0.179284 0.158655 -9.84033 
-9.86549 -0.00656535 0.178136 
-0.00656535 -9.83885 0.149679 
0.178136 0.149679 -9.82626 
-9.87227 0.00159695 0.185783 
0.00159695 -9.86184 0.120367 
0.185783 0.120367 -9.7965 
-9.85774 -0.00467576 0.183874 
-0.00467576 -9.84519 0.147383 
0.183874 0.147383 -9.82768 
-9.77832 0.00475139 0.366467 
0.00475139 -9.72751 -0.0954002 
0.366467 -0.0954002 -9.72001 
-9.70009 -0.00847706 0.322919 
-0.00847706 -9.72288 -0.0870856 
0.322919 -0.0870856 -9.80286 
-9.71096 -0.0250294 0.33033 
-0.0250294 -9.74165 -0.0703613 
0.33033 -0.0703613 -9.77322 
-9.77477 -0.00574989 0.332054 
-0.00574989 -9.74105 -0.0911141 
0.332054 -0.0911141 -9.71002 
-3.09986 6.19479 -3.40981 
6.19479 -9.77295 0.9761 
-3.40981 0.9761 -21.843 
-2.18521 1.65392 -3.21796 
1.65392 -8.45565 0.51529 
-3.21796 0.51529 -24.0749 
-6.47981 -3.571 3.86743 
-3.571 -22.7965 -0.284114 
3.86743 -0.284114 -5.43946 
-15.1106 0.688204 -4.19952 
0.688204 -9.23422 -2.37275 
-4.19952 -2.37275 -10.3709 
-8.99877 0.366628 -0.578127 
0.366628 -9.53661 0.48036 
-0.578127 0.48036 -8.81622 
-8.53559 0.326246 -0.45073 
0.326246 -9.29007 0.581553 
-0.45073 0.581553 -9.52593 
-9.00295 0.387504 -0.671382 
0.387504 -9.34376 0.261669 
-0.671382 0.261669 -9.00488 
-9.02954 -0.150237 -0.0163939 
-0.150237 -9.30918 0.0946081 
-0.0163939 0.0946081 -9.01287 
-9.62391 0.260871 -0.771308 
0.260871 -10.0609 -0.554855 
-0.771308 -0.554855 -8.67069 
-9.44998 0.187296 -0.0210057 
0.187296 -9.48746 -0.419139 
-0.0210057 -0.419139 -9.41805 
-9.27519 -0.121984 -0.661236 
-0.121984 -9.98858 -0.023957 
-0.661236 -0.023957 -9.09172 
-9.39707 -0.110314 -0.489315 
-0.110314 -10.075 -0.0203871 
-0.489315 -0.0203871 -8.88346 
-9.79155 -0.0224 -0.316035 
-0.0224 -9.83476 0.140724 
-0.316035 0.140724 -9.82766 
-9.90837 0.0453902 -0.314554 
0.0453902 -9.79692 0.113627 
-0.314554 0.113627 -9.74867 
-9.79109 0.00504157 -0.319319 
0.00504157 -9.81425 0.140335 
-0.319319 0.140335 -9.84863 
-9.7779 -0.00371828 -0.252976 
-0.00371828 -9.84749 0.11993 
-0.252976 0.11993 -9.82857 
-9.93224 -0.0136759 -0.0953803 
-0.0136759 -9.88103 0.118758 
-0.0953803 0.118758 -9.96175 
-9.92695 0.0110803 -0.115499 
0.0110803 -9.93413 0.105184 
-0.115499 0.105184 -9.91395 
-9.90814 0.0110195 -0.118493 
0.0110195 -9.94285 0.115765 
-0.118493 0.115765 -9.92403 
-9.93094 0.00710143 -0.105586 
0.00710143 -9.9166 0.12348 
-0.105586 0.12348 -9.92747 
-10.1891 -0.22702 0.154995 
-0.22702 -9.9861 0.0247753 
0.154995 0.0247753 -10.5112 
-9.84341 -0.210912 0.15135 
-0.210912 -10.7129 -0.108072 
0.15135 -0.108072 -10.1301 
-9.79661 0.27968 -0.0921804 
0.27968 -9.65138 0.029575 
-0.0921804 0.029575 -11.2385 
-9.89445 -0.127473 0.587116 
-0.127473 -10.1613 -0.407262 
0.587116 -0.407262 -10.6307 
-9.7549 0.0386119 0.0338934 
0.0386119 -9.81133 -0.20427 
0.0338934 -0.20427 -9.73969 
-9.76187 0.0294031 0.0666486 
0.0294031 -9.8106 -0.207923 
0.0666486 -0.207923 -9.73345 
-9.73139 0.0138211 0.0671672 
0.0138211 -9.78074 -0.172028 
0.0671672 -0.172028 -9.79378 
-9.80558 0.0431593 -0.00559451 
0.0431593 -9.85172 -0.108025 
-0.00559451 -0.108025 -9.64862 
-9.60366 -0.0532837 -0.136851 
-0.0532837 -9.63968 -0.169357 
-0.136851 -0.169357 -9.66368 
-9.70688 -0.157049 0.00461327 
-0.157049 -9.69388 -0.233337 
0.00461327 -0.233337 -9.50627 
-9.59388 -0.0282066 -0.0429566 
-0.0282066 -9.73591 -0.136524 
-0.0429566 -0.136524 -9.57723 
-9.63627 -0.0768283 -0.0420534 
-0.0768283 -9.69238 -0.181485 
-0.0420534 -0.181485 -9.57838 
-9.71322 0.0588335 -0.319535 
0.0588335 -9.48119 0.134086 
-0.319535 0.134086 -9.47105 
-9.64033 0.0625448 -0.382291 
0.0625448 -9.63451 0.206915 
-0.382291 0.206915 -9.39062 
-10.001 -0.181433 -0.369993 
-0.181433 -9.42251 0.288297 
-0.369993 0.288297 -9.2419 
-9.59969 0.043142 -0.521426 
0.043142 -9.69578 0.116232 
-0.521426 0.116232 -9.36999 
-9.88283 -0.0126778 -0.0575783 
-0.0126778 -9.91109 0.334925 
-0.0575783 0.334925 -9.89463 
-9.904 -0.0152189 -0.0871582 
-0.0152189 -9.89674 0.325438 
-0.0871582 0.325438 -9.8878 
-9.90003 0.00654017 -0.0489181 
0.00654017 -9.91956 0.310672 
-0.0489181 0.310672 -9.86896 
-9.86564 -0.0125935 -0.0654794 
-0.0125935 -9.93075 0.325564 
-0.0654794 0.325564 -9.89216 
-9.45646 -0.962246 -0.958607 
-0.962246 -9.36289 1.11684 
-0.958607 1.11684 -8.4614 
-9.66278 0.323059 -0.854127 
0.323059 -7.54119 1.40369 
-0.854127 1.40369 -10.0768 
-8.87173 0.0202 0.446379 
0.0202 -10.8465 -0.692799 
0.446379 -0.692799 -7.56249 
-7.2905 0.465294 0.977874 
0.465294 -8.65362 0.842096 
0.977874 0.842096 -11.3366 
-9.57226 -0.00369627 0.021697 
-0.00369627 -9.58957 0.225756 
0.021697 0.225756 -9.49905 
-9.69434 0.0308643 -0.113873 
0.0308643 -9.473 0.584182 
-0.113873 0.584182 -9.49354 
-9.76418 -0.0795118 -0.438145 
-0.0795118 -9.28967 0.368039 
-0.438145 0.368039 -9.60703 
-9.62637 -0.133867 -0.289114 
-0.133867 -9.50166 0.55352 
-0.289114 0.55352 -9.53285 
-9.18374 1.37216 0.905284 
1.37216 -10.0716 -0.0715062 
0.905284 -0.0715062 -12.3263 
-9.33771 -0.732905 0.741799 
-0.732905 -11.0151 0.332407 
0.741799 0.332407 -11.2289 
-9.92573 1.37937 1.23879 
1.37937 -10.6254 0.660665 
1.23879 0.660665 -11.0305 
-9.75668 0.0384549 1.94954 
0.0384549 -9.97476 0.262161 
1.94954 0.262161 -11.8502 
-9.97439 -0.641296 -0.0884817 
-0.641296 -11.0339 -0.0637783 
-0.0884817 -0.0637783 -11.2336 
-9.70265 -0.509876 -0.168773 
-0.509876 -10.7577 0.191701 
-0.168773 0.191701 -11.7815 
-9.86224 0.031191 -0.119733 
0.031191 -10.7184 -0.211485 
-0.119733 -0.211485 -11.6612 
-10.6843 0.575441 -0.746272 
0.575441 -10.3456 0.742939 
-0.746272 0.742939 -11.212 
-9.78986 0.0125195 -0.123694 
0.0125195 -9.77178 0.0413635 
-0.123694 0.0413635 -9.78334 
-9.76547 0.00413175 -0.151744 
0.00413175 -9.79633 0.0571228 
-0.151744 0.0571228 -9.78318 
-9.76579 -0.00382815 -0.140917 
-0.00382815 -9.79332 0.0413624 
-0.140917 0.0413624 -9.78587 
-9.78729 0.0187576 -0.180276 
0.0187576 -9.75947 0.0519414 
-0.180276 0.0519414 -9.79822 
-8.80733 -0.0909199 -0.271611 
-0.0909199 -9.38697 0.821768 
-0.271611 0.821768 -8.36891 
-9.13003 -0.0621386 -0.814969 
-0.0621386 -8.49657 1.97042 
-0.814969 1.97042 -8.93661 
-8.69128 -0.177854 -0.588169 
-0.177854 -9.46959 0.875936 
-0.588169 0.875936 -8.40235 
-8.62875 -0.218106 -0.778056 
-0.218106 -9.82307 -0.0111748 
-0.778056 -0.0111748 -8.11139 
-9.56808 -0.0776947 -0.311278 
-0.0776947 -9.3239 -0.0021093 
-0.311278 -0.0021093 -9.44909 
-9.55287 -0.417863 -0.390836 
-0.417863 -9.28615 0.0883274 
-0.390836 0.0883274 -9.50205 
-9.47373 -0.240075 -0.415684 
-0.240075 -9.22601 0.0218027 
-0.415684 0.0218027 -9.64132 
-9.67033 -0.415484 -0.591415 
-0.415484 -9.21213 0.310215 
-0.591415 0.310215 -9.45861 
-9.75722 0.00889924 -0.0174812 
0.00889924 -9.71661 0.365845 
-0.0174812 0.365845 -9.71229 
-9.76483 -0.017597 -0.00294173 
-0.017597 -9.78974 0.330483 
-0.00294173 0.330483 -9.63154 
-9.72409 0.00867372 -0.0392024 
0.00867372 -9.74338 0.346084 
-0.0392024 0.346084 -9.71864 
-9.67038 -0.0294899 -0.0449801 
-0.0294899 -9.71626 0.268146 
-0.0449801 0.268146 -9.79947 
-9.74392 0.0191853 -0.217904 
0.0191853 -9.7531 0.241972 
-0.217904 0.241972 -9.75464 
-9.76781 0.0344099 -0.207005 
0.0344099 -9.77917 0.238161 
-0.207005 0.238161 -9.70467 
-9.75996 0.00312808 -0.217358 
0.00312808 -9.766 0.24906 
-0.217358 0.24906 -9.7257 
-9.76065 -0.00172243 -0.214556 
-0.00172243 -9.75732 0.250228 
-0.214556 0.250228 -9.73368 
-9.68977 -0.013048 -0.12434 
-0.013048 -9.68884 -0.0936871 
-0.12434 -0.0936871 -9.73148 
-9.67885 -0.00418391 -0.186365 
-0.00418391 -9.69724 -0.097182 
-0.186365 -0.097182 -9.734 
-9.70624 0.00290025 -0.185756 
0.00290025 -9.68428 -0.0910042 
-0.185756 -0.0910042 -9.71957 
-9.73071 -0.0274005 -0.220781 
-0.0274005 -9.71683 -0.0504277 
-0.220781 -0.0504277 -9.66255 
-9.83883 0.0148844 0.204151 
0.0148844 -9.75781 -0.0622148 
0.204151 -0.0622148 -9.75358 
-9.82922 0.019998 0.190901 
0.019998 -9.75795 -0.0409753 
0.190901 -0.0409753 -9.76306 
-9.83873 0.0119913 0.197547 
0.0119913 -9.76662 -0.0297178 
0.197547 -0.0297178 -9.74487 
-9.80465 0.0160877 0.220513 
0.0160877 -9.76447 -0.0767641 
0.220513 -0.0767641 -9.7811 
-9.78937 0.0255085 -0.150584 
0.0255085 -9.81669 -0.305659 
-0.150584 -0.305659 -9.78956 
-9.78381 -0.00624061 -0.104013 
-0.00624061 -9.82608 -0.296257 
-0.104013 -0.296257 -9.78574 
-9.77232 0.0148094 -0.159853 
0.0148094 -9.83267 -0.269724 
-0.159853 -0.269724 -9.79064 
-9.79913 0.00209932 -0.0861488 
0.00209932 -9.78355 -0.299942 
-0.0861488 -0.299942 -9.81294 
-9.59022 0.0242715 -0.134074 
0.0242715 -9.67469 -0.332201 
-0.134074 -0.332201 -9.77278 
-9.71349 0.00728548 -0.189602 
0.00728548 -9.7407 -0.292374 
-0.189602 -0.292374 -9.5835 
-9.71443 0.00209634 -0.145002 
0.00209634 -9.65624 -0.267494 
-0.145002 -0.267494 -9.66702 
-9.68629 -0.00572509 -0.153033 
-0.00572509 -9.6757 -0.296517 
-0.153033 -0.296517 -9.67571 
-9.5038 -0.170444 0.0191036 
-0.170444 -9.50778 -0.253802 
0.0191036 -0.253802 -8.74329 
-9.7525 -0.217176 0.421184 
-0.217176 -9.67152 0.0584503 
0.421184 0.0584503 -8.33084 
-9.2642 0.0566565 0.720476 
0.0566565 -9.08597 -0.222773 
0.720476 -0.222773 -9.40469 
-9.49072 -0.0937846 0.398321 
-0.0937846 -9.54993 -0.125435 
0.398321 -0.125435 -8.71421 
-9.51106 -0.301156 -0.14563 
-0.301156 -9.35811 -0.00519812 
-0.14563 -0.00519812 -8.8375 
-9.37632 -0.35226 -0.255168 
-0.35226 -9.20383 0.156406 
-0.255168 0.156406 -9.12653 
-9.41436 -0.260484 -0.31063 
-0.260484 -8.99207 0.0992263 
-0.31063 0.0992263 -9.30024 
-9.39864 -0.248269 -0.343453 
-0.248269 -9.15411 0.286695 
-0.343453 0.286695 -9.15392 
-9.4851 0.0934789 0.0377476 
0.0934789 -9.34475 0.100357 
0.0377476 0.100357 -10.0792 
-9.45732 0.147317 0.0467576 
0.147317 -9.48263 -0.079814 
0.0467576 -0.079814 -9.96908 
-9.44219 0.0721613 0.0338326 
0.0721613 -9.54005 -0.00789575 
0.0338326 -0.00789575 -9.92679 
-9.42855 0.175757 -0.0362608 
0.175757 -9.36703 0.117839 
-0.0362608 0.117839 -10.1135 
-9.19012 0.121803 -0.0306263 
0.121803 -9.31956 0.00828598 
-0.0306263 0.00828598 -10.0412 
-9.06485 0.183561 -0.176184 
0.183561 -9.40601 -0.00234919 
-0.176184 -0.00234919 -10.08 
-9.0602 0.185064 -0.140526 
0.185064 -9.38212 0.00315117 
-0.140526 0.00315117 -10.1086 
-9.02698 0.108124 -0.113383 
0.108124 -9.40303 0.0164735 
-0.113383 0.0164735 -10.1209 
-9.32908 0.325955 0.313904 
0.325955 -9.43852 0.331725 
0.313904 0.331725 -9.73835 
-9.25128 0.370752 0.201856 
0.370752 -9.43419 0.176991 
0.201856 0.176991 -9.82047 
-9.78379 -0.501506 0.0786545 
-0.501506 -9.44682 -0.144633 
0.0786545 -0.144633 -9.27533 
-9.69187 0.267708 0.218365 
0.267708 -9.0561 0.322466 
0.218365 0.322466 -9.75797 
-7.45432 1.37947 0.692508 
1.37947 -7.42427 -1.45214 
0.692508 -1.45214 -2.82949 
-5.72551 -1.55079 -0.795372 
-1.55079 -8.22092 -1.47862 
-0.795372 -1.47862 -3.76165 
-6.83685 -0.880865 0.884228 
-0.880865 -9.54861 -0.804537 
0.884228 -0.804537 -1.32263 
-6.66805 -0.0613489 -0.220573 
-0.0613489 -8.1613 -1.37593 
-0.220573 -1.37593 -2.87873 
-7.65539 0.0543317 -0.0754841 
0.0543317 -10.5571 0.018332 
-0.0754841 0.018332 -9.56374 
-10.4891 -0.440395 -0.526223 
-0.440395 -8.82476 1.40255 
-0.526223 1.40255 -8.46243 
-10.1972 -0.0692917 -1.54093 
-0.0692917 -9.03096 0.982166 
-1.54093 0.982166 -8.54811 
-9.8247 -0.217656 -0.552659 
-0.217656 -9.97881 1.62858 
-0.552659 1.62858 -7.97274 
-10.2775 0.357534 0.358718 
0.357534 -9.38672 -0.269417 
0.358718 -0.269417 -9.18204 
-9.50725 0.211526 -0.44863 
0.211526 -9.82138 -0.345402 
-0.44863 -0.345402 -9.51761 
-9.95972 0.160391 0.453137 
0.160391 -9.71831 0.554019 
0.453137 0.554019 -9.16821 
-9.90681 0.0445845 -0.473374 
0.0445845 -9.30602 0.514074 
-0.473374 0.514074 -9.6334 
-10.2609 0.189574 0.611224 
0.189574 -10.0523 0.00814051 
0.611224 0.00814051 -8.28699 
-10.2504 0.12817 0.694568 
0.12817 -10.1563 -0.21201 
0.694568 -0.21201 -8.19342 
-10.4517 -0.14606 1.01803 
-0.14606 -10.0213 0.100514 
1.01803 0.100514 -8.12712 
-10.3136 0.100832 0.84714 
0.100832 -10.0045 -0.0477263 
0.84714 -0.0477263 -8.28201 
-9.54289 -0.193969 0.00565638 
-0.193969 -9.01733 0.0726074 
0.00565638 0.0726074 -10.4616 
-9.41808 -0.115925 -0.123005 
-0.115925 -9.09352 0.0616114 
-0.123005 0.0616114 -10.5102 
-9.53731 0.0952036 0.0436229 
0.0952036 -9.38777 -0.0701753 
0.0436229 -0.0701753 -10.0968 
-9.39488 -0.18326 0.100861 
-0.18326 -9.22293 -0.0746936 
0.100861 -0.0746936 -10.404 
-9.96767 -0.0109719 0.0756921 
-0.0109719 -9.96041 0.0823308 
0.0756921 0.0823308 -9.96341 
-9.93078 0.00322015 0.0886238 
0.00322015 -9.92973 0.0939813 
0.0886238 0.0939813 -10.031 
-9.97292 -0.00110762 0.0813013 
-0.00110762 -9.94239 0.088473 
0.0813013 0.088473 -9.97616 
-9.96843 -0.00562644 0.0841084 
-0.00562644 -9.9736 0.088292 
0.0841084 0.088292 -9.94946 
-10.1195 -1.06999 0.344014 
-1.06999 -11.5014 0.232335 
0.344014 0.232335 -11.614 
-11.2948 -0.800031 -0.219975 
-0.800031 -9.93383 1.68236 
-0.219975 1.68236 -12.0064 
-10.6182 -1.14057 -1.02528 
-1.14057 -9.0296 0.346897 
-1.02528 0.346897 -13.5871 
-10.9895 -0.951274 -0.610731 
-0.951274 -9.9182 0.493459 
-0.610731 0.493459 -12.3273 
-9.86929 0.00494742 -0.223446 
0.00494742 -9.8951 -0.223898 
-0.223446 -0.223898 -9.87654 
-9.87749 -0.00336489 -0.194804 
-0.00336489 -9.86454 -0.230398 
-0.194804 -0.230398 -9.89892 
-9.86591 -0.0103377 -0.229221 
-0.0103377 -9.88243 -0.223941 
-0.229221 -0.223941 -9.8926 
-9.90204 0.00554524 -0.232468 
0.00554524 -9.90499 -0.223105 
-0.232468 -0.223105 -9.83391 
-9.52938 0.0480348 0.163188 
0.0480348 -9.50283 0.326814 
0.163188 0.326814 -9.61461 
-9.51572 0.00757935 0.0324867 
0.00757935 -9.58419 0.349834 
0.0324867 0.349834 -9.54691 
-9.54921 0.010246 0.109585 
0.010246 -9.49611 0.33849 
0.109585 0.33849 -9.60149 
-9.54339 -0.00443667 0.178352 
-0.00443667 -9.51537 0.357941 
0.178352 0.357941 -9.58805 
-9.65066 -0.0582175 0.35172 
-0.0582175 -9.29815 -0.0319049 
0.35172 -0.0319049 -9.8976 
-9.52505 0.315873 -0.208437 
0.315873 -10.0239 -0.0453244 
-0.208437 -0.0453244 -9.29746 
-9.53937 0.0661166 -0.0215296 
0.0661166 -9.93194 -0.206952 
-0.0215296 -0.206952 -9.37511 
-9.74849 0.0432305 -0.0632571 
0.0432305 -9.9174 -0.00796273 
-0.0632571 -0.00796273 -9.18054 
-9.72967 -0.0148709 -0.0755942 
-0.0148709 -9.58 0.334289 
-0.0755942 0.334289 -9.79298 
-9.68229 0.00791415 -0.0878198 
0.00791415 -9.78888 0.375554 
-0.0878198 0.375554 -9.63148 
-9.69942 0.000249252 -0.073984 
0.000249252 -9.70758 0.338558 
-0.073984 0.338558 -9.69565 
-9.69443 -0.00187817 -0.109835 
-0.00187817 -9.75771 0.264408 
-0.109835 0.264408 -9.65052 
-10.1614 0.0767363 -0.116186 
0.0767363 -10.6078 0.0589148 
-0.116186 0.0589148 -10.1844 
-10.1712 -0.0618738 0.118335 
-0.0618738 -9.8327 -0.300711 
0.118335 -0.300711 -10.9498 
-10.0376 -0.311328 -0.0125983 
-0.311328 -10.2963 -0.032218 
-0.0125983 -0.032218 -10.6197 
-10.0503 -0.353171 -0.273163 
-0.353171 -10.1961 0.0134311 
-0.273163 0.0134311 -10.7073 
-9.69689 -0.0207317 0.0486626 
-0.0207317 -9.77406 0.0609321 
0.0486626 0.0609321 -9.78025 
-9.70205 0.0170886 0.0101443 
0.0170886 -9.7431 0.090785 
0.0101443 0.090785 -9.80606 
-9.69807 -0.0336942 0.0468711 
-0.0336942 -9.77544 0.0493755 
0.0468711 0.0493755 -9.7777 
-9.73115 -0.00525996 0.101422 
-0.00525996 -9.79312 0.0637414 
0.101422 0.0637414 -9.72694 
-10.5282 1.49027 -1.55594 
1.49027 -13.784 -0.472578 
-1.55594 -0.472578 -11.3446 
-13.074 -1.40857 -1.76988 
-1.40857 -9.01067 1.10701 
-1.76988 1.10701 -13.5721 
-12.3325 -2.88443 1.68779 
-2.88443 -10.2989 -0.199366 
1.68779 -0.199366 -13.0253 
-9.73735 0.533671 0.893237 
0.533671 -11.3402 -0.317923 
0.893237 -0.317923 -14.5792 
-10.312 -0.196381 -0.0569169 
-0.196381 -10.5138 -0.0615495 
-0.0569169 -0.0615495 -11.4631 
-8.7845 -0.143419 -0.556668 
-0.143419 -10.4553 -0.241394 
-0.556668 -0.241394 -13.0491 
-10.9805 0.966403 -0.0896868 
0.966403 -11.6766 -0.201587 
-0.0896868 -0.201587 -9.6318 
-9.76307 0.235984 0.0626234 
0.235984 -11.1678 1.46702 
0.0626234 1.46702 -11.3581 
-9.53606 2.65283 -6.43471 
2.65283 -10.5253 -4.30634 
-6.43471 -4.30634 -4.49298 
-6.53414 2.82441 -1.68538 
2.82441 -7.8836 -2.31879 
-1.68538 -2.31879 -10.1366 
-9.28927 0.326043 -3.21002 
0.326043 -7.77232 -1.62898 
-3.21002 -1.62898 -7.49272 
-11.3747 -2.56908 -0.217248 
-2.56908 -7.69197 -0.668128 
-0.217248 -0.668128 -5.48768 
-9.03315 0.428921 -0.0566018 
0.428921 -9.79803 0.0422886 
-0.0566018 0.0422886 -10.1486 
-9.7728 -0.186374 -0.119565 
-0.186374 -9.70649 -0.155578 
-0.119565 -0.155578 -9.50049 
-9.82555 -0.127331 -0.178502 
-0.127331 -9.52736 -0.0433812 
-0.178502 -0.0433812 -9.62687 
-9.56369 0.0159829 -0.678758 
0.0159829 -9.44271 -0.208541 
-0.678758 -0.208541 -9.97338 
-9.86333 0.0083798 -0.0547736 
0.0083798 -9.88232 0.0621378 
-0.0547736 0.0621378 -9.94355 
-9.87588 0.00122765 -0.0338683 
0.00122765 -9.8806 0.0386021 
-0.0338683 0.0386021 -9.93273 
-9.89907 0.00188886 -0.0140413 
0.00188886 -9.90282 0.0294561 
-0.0140413 0.0294561 -9.88732 
-9.89694 -0.00308677 -0.0235602 
-0.00308677 -9.87906 0.0504892 
-0.0235602 0.0504892 -9.91321 
-9.09088 -0.174195 1.49733 
-0.174195 -9.03225 1.66323 
1.49733 1.66323 -9.8238 
-9.13885 -0.936963 -0.0964799 
-0.936963 -8.66764 -0.210756 
-0.0964799 -0.210756 -10.1404 
-9.83715 -0.288088 -1.87124 
-0.288088 -8.28602 0.20199 
-1.87124 0.20199 -9.82376 
-8.88179 -0.777036 -0.844626 
-0.777036 -9.46505 2.55876 
-0.844626 2.55876 -9.60009 
-12.7508 -0.451065 -0.576637 
-0.451065 -13.0046 0.153476 
-0.576637 0.153476 -11.6084 
-11.9962 -0.209677 -0.7148 
-0.209677 -11.7589 0.912506 
-0.7148 0.912506 -13.6087 
-12.7593 -0.455621 -0.474239 
-0.455621 -11.6307 0.776961 
-0.474239 0.776961 -12.9737 
-12.2012 -0.454481 -0.230613 
-0.454481 -12.1969 0.517521 
-0.230613 0.517521 -12.9655 
-10.4813 0.826601 0.197306 
0.826601 -10.8525 0.238561 
0.197306 0.238561 -11.1521 
-11.9548 0.31355 -0.0779659 
0.31355 -9.46603 0.0889085 
-0.0779659 0.0889085 -11.065 
-10.135 -0.180486 -0.00848446 
-0.180486 -10.3571 0.0805585 
-0.00848446 0.0805585 -11.9938 
-10.9039 0.348423 0.604298 
0.348423 -10.6851 0.33775 
0.604298 0.33775 -10.8969 
-9.76854 0.00246236 0.170661 
0.00246236 -9.76271 -0.0642454 
0.170661 -0.0642454 -9.74852 
-9.7949 0.0283103 0.143332 
0.0283103 -9.74932 -0.0488453 
0.143332 -0.0488453 -9.73554 
-9.78488 0.0283146 0.104315 
0.0283146 -9.71811 -0.0820192 
0.104315 -0.0820192 -9.77678 
-9.7698 0.0142078 0.131457 
0.0142078 -9.76217 -0.0624455 
0.131457 -0.0624455 -9.7478 
-5.15386 -0.734575 -2.74246 
-0.734575 -5.53478 -0.58023 
-2.74246 -0.58023 1.74206 
-2.47063 0.356604 0.0698488 
0.356604 -3.62839 -0.541936 
0.0698488 -0.541936 -2.84756 
-3.56697 -0.276442 -0.321697 
-0.276442 -3.51253 -0.580447 
-0.321697 -0.580447 -1.86707 
-6.29689 -0.793762 1.04068 
-0.793762 -2.74841 0.307983 
1.04068 0.307983 0.0987275 
-9.8628 -0.248301 -0.107813 
-0.248301 -9.49848 0.0658343 
-0.107813 0.0658343 -9.94045 
-9.58823 -0.103406 0.122031 
-0.103406 -10.1219 -0.907867 
0.122031 -0.907867 -9.59158 
-10.2783 -0.83065 0.0198189 
-0.83065 -8.54886 -0.246824 
0.0198189 -0.246824 -10.4746 
-10.263 -0.334519 0.252948 
-0.334519 -9.15877 0.0477131 
0.252948 0.0477131 -9.87999 
-9.42216 0.0450091 0.506913 
0.0450091 -10.0766 -0.0151869 
0.506913 -0.0151869 -9.22154 
-9.5906 0.283862 0.407916 
0.283862 -10.1152 0.399204 
0.407916 0.399204 -9.0145 
-9.31841 0.134955 0.612461 
0.134955 -9.96907 -0.0388777 
0.612461 -0.0388777 -9.43281 
-9.62632 0.215509 0.0531565 
0.215509 -10.0583 0.373453 
0.0531565 0.373453 -9.03566 
-6.36412 0.900374 1.67985 
0.900374 -8.48321 -0.0685459 
1.67985 -0.0685459 -1.94258 
-7.47916 -1.72036 -0.252904 
-1.72036 -8.88215 1.05489 
-0.252904 1.05489 -0.42859 
-6.80617 0.575022 0.582823 
0.575022 -7.68462 0.0863601 
0.582823 0.0863601 -2.29912 
-6.64861 -1.10727 3.99315 
-1.10727 -6.25243 -1.47562 
3.99315 -1.47562 -3.88886 
-8.99718 -0.157752 0.444131 
-0.157752 -9.81811 0.00841405 
0.444131 0.00841405 -10.4112 
-9.61067 -0.0577775 0.24489 
-0.0577775 -9.65213 -0.0773237 
0.24489 -0.0773237 -9.96366 
-9.60275 0.0798468 -0.0713714 
0.0798468 -9.59988 0.156172 
-0.0713714 0.156172 -10.0238 
-9.60274 -0.120172 0.166226 
-0.120172 -9.58074 0.0603692 
0.166226 0.0603692 -10.043 
-9.75575 -0.0203011 -0.0440642 
-0.0203011 -9.7634 -0.0409518 
-0.0440642 -0.0409518 -9.83641 
-9.75643 -0.00529784 -0.015921 
-0.00529784 -9.76244 -0.0417204 
-0.015921 -0.0417204 -9.83669 
-9.75165 -0.0258216 -0.0262069 
-0.0258216 -9.76498 -0.0198522 
-0.0262069 -0.0198522 -9.83893 
-9.75751 0.00968556 -0.0397298 
0.00968556 -9.74064 -0.0331074 
-0.0397298 -0.0331074 -9.85742 
-9.37037 -0.316568 0.430673 
-0.316568 -9.54799 -0.488097 
0.430673 -0.488097 -9.38103 
-9.40205 -0.205794 0.386548 
-0.205794 -9.59184 -0.536336 
0.386548 -0.536336 -9.30551 
-9.66928 -0.272588 0.629644 
-0.272588 -9.35297 -0.495795 
0.629644 -0.495795 -9.27715 
-9.34485 -0.245836 0.487063 
-0.245836 -9.48707 -0.472517 
0.487063 -0.472517 -9.46748 
-1.02882 -0.216584 0.187146 
-0.216584 -2.28739 -0.890989 
0.187146 -0.890989 -7.9882 
-9.14392 0.35078 -1.40366 
0.35078 -6.87771 2.27033 
-1.40366 2.27033 4.71722 
-6.09737 -1.05377 0.891439 
-1.05377 -4.83728 1.29637 
0.891439 1.29637 -0.369759 
-6.86507 1.09546 5.93267 
1.09546 -3.78119 0.131219 
5.93267 0.131219 -0.658144 
-7.26313 0.395316 1.08865 
0.395316 -9.70207 -1.24873 
1.08865 -1.24873 2.69692 
0.295932 -0.135536 -0.624781 
-0.135536 -1.65078 0.391898 
-0.624781 0.391898 -12.9134 
-10.1491 1.22876 -1.61034 
1.22876 -11.556 -1.99272 
-1.61034 -1.99272 7.43678 
-7.94095 -1.51283 6.32433 
-1.51283 -3.85993 -11.025 
6.32433 -11.025 -2.4674 
-9.77292 -0.0349271 -0.00184028 
-0.0349271 -9.69594 -0.112709 
-0.00184028 -0.112709 -9.7309 
-9.71803 0.0962215 -0.0129507 
0.0962215 -9.65684 -0.113028 
-0.0129507 -0.113028 -9.82489 
-9.51533 -0.0465878 -0.00336027 
-0.0465878 -9.51116 0.040641 
-0.00336027 0.040641 -10.1733 
-9.79364 -0.0814947 0.0361286 
-0.0814947 -9.61813 -0.342224 
0.0361286 -0.342224 -9.78799 
-9.67672 0.198992 -0.159691 
0.198992 -9.54152 -0.58052 
-0.159691 -0.58052 -9.59949 
-9.72369 0.15719 -0.0895902 
0.15719 -9.57383 -0.73051 
-0.0895902 -0.73051 -9.52021 
-9.81871 0.18335 -0.0705288 
0.18335 -9.48254 -0.594993 
-0.0705288 -0.594993 -9.51647 
-9.79587 -0.0100639 -0.101213 
-0.0100639 -9.44984 -0.434107 
-0.101213 -0.434107 -9.57201 
-9.59793 0.0116046 0.383294 
0.0116046 -9.68008 0.0990217 
0.383294 0.0990217 -9.60269 
-9.64569 0.0100957 0.330703 
0.0100957 -9.57963 0.0393538 
0.330703 0.0393538 -9.65537 
-9.5846 0.0098351 0.365356 
0.0098351 -9.59557 0.0281229 
0.365356 0.0281229 -9.70053 
-9.61983 0.02868 0.330458 
0.02868 -9.65598 0.120866 
0.330458 0.120866 -9.60488 
-8.46865 -0.733755 -0.170485 
-0.733755 -9.13228 0.722305 
-0.170485 0.722305 -7.97805 
-9.41178 -0.0762498 0.76467 
-0.0762498 -9.53363 -1.34287 
0.76467 -1.34287 -6.63357 
-9.39514 0.392715 0.714809 
0.392715 -8.85423 -1.09856 
0.714809 -1.09856 -7.3296 
-8.74196 -0.0552444 0.498646 
-0.0552444 -8.74249 -1.31426 
0.498646 -1.31426 -8.09453 
-9.55315 -0.508467 -0.204962 
-0.508467 -9.9391 0.292286 
-0.204962 0.292286 -7.65295 
-9.02411 0.129298 -0.82459 
0.129298 -9.41094 0.182587 
-0.82459 0.182587 -8.71015 
-9.58856 -0.434214 0.148818 
-0.434214 -9.62812 -0.0848802 
0.148818 -0.0848802 -7.92852 
-10.6422 0.741919 -1.47855 
0.741919 -10.04 -1.17315 
-1.47855 -1.17315 -6.46305 
-9.56386 -0.0653302 0.198335 
-0.0653302 -9.57505 0.222577 
0.198335 0.222577 -9.5769 
-9.63043 -0.0197515 0.0960263 
-0.0197515 -9.67397 0.149198 
0.0960263 0.149198 -9.4114 
-9.57117 -0.0400974 0.147331 
-0.0400974 -9.63542 0.124235 
0.147331 0.124235 -9.50922 
-9.62964 -0.0193037 0.116616 
-0.0193037 -9.60733 0.146397 
0.116616 0.146397 -9.47883 
-9.91069 0.0187754 0.0266212 
0.0187754 -9.89838 -0.0663877 
0.0266212 -0.0663877 -9.97908 
-9.92176 -0.00634233 0.0141554 
-0.00634233 -9.91923 -0.0561433 
0.0141554 -0.0561433 -9.94717 
-9.91615 0.00785807 0.00420995 
0.00785807 -9.91672 -0.0308112 
0.00420995 -0.0308112 -9.95528 
-9.94982 0.0121689 -0.00704316 
0.0121689 -9.91131 -0.00790396 
-0.00704316 -0.00790396 -9.92702 
-9.89344 -0.0164316 -0.203652 
-0.0164316 -9.91587 -0.190289 
-0.203652 -0.190289 -9.97039 
-9.91951 0.0123215 -0.204627 
0.0123215 -9.92128 -0.224781 
-0.204627 -0.224781 -9.93892 
-9.92351 -0.00481089 -0.224866 
-0.00481089 -9.91944 -0.219642 
-0.224866 -0.219642 -9.93675 
-9.919 -0.0146483 -0.236762 
-0.0146483 -9.96053 -0.237042 
-0.236762 -0.237042 -9.90017 
-9.93971 0.00119742 -0.00717586 
0.00119742 -9.93913 0.0092921 
-0.00717586 0.0092921 -9.98854 
-9.93848 -0.00110833 -0.0185092 
-0.00110833 -9.93825 -0.000803596 
-0.0185092 -0.000803596 -9.99065 
-9.93643 0.000193763 -0.00394282 
0.000193763 -9.94373 -0.00300615 
-0.00394282 -0.00300615 -9.98722 
-9.94928 0.00184448 -0.00098305 
0.00184448 -9.95212 0.00495894 
-0.00098305 0.00495894 -9.96599 
-9.65426 0.0139454 0.00191004 
0.0139454 -9.46121 0.0930919 
0.00191004 0.0930919 -9.34144 
-9.54988 0.10501 0.0813231 
0.10501 -9.36271 0.117016 
0.0813231 0.117016 -9.54431 
-9.72846 0.0424933 0.0988528 
0.0424933 -9.38885 -0.103119 
0.0988528 -0.103119 -9.3396 
-9.54898 0.0588026 0.0696641 
0.0588026 -9.51645 0.109658 
0.0696641 0.109658 -9.39148 
-8.92958 -0.0380628 0.118567 
-0.0380628 -9.56916 -0.203667 
0.118567 -0.203667 -10.1953 
-9.02878 0.101663 0.101506 
0.101663 -9.46909 -0.146264 
0.101506 -0.146264 -10.1961 
-9.13982 0.076636 0.174266 
0.076636 -9.32122 -0.140096 
0.174266 -0.140096 -10.233 
-9.15236 0.0684382 0.160286 
0.0684382 -9.33432 -0.167998 
0.160286 -0.167998 -10.2073 
-9.71271 0.00667185 0.0699249 
0.00667185 -9.62944 0.0479002 
0.0699249 0.0479002 -9.83887 
-9.62603 0.0243377 0.0497304 
0.0243377 -9.68096 0.0102339 
0.0497304 0.0102339 -9.87403 
-9.65687 0.0180833 0.028631 
0.0180833 -9.66915 0.00944717 
0.028631 0.00944717 -9.855 
-9.64545 -0.000119707 0.0136311 
-0.000119707 -9.67291 -0.00485222 
0.0136311 -0.00485222 -9.86266 
-9.3991 -0.0128454 -0.12273 
-0.0128454 -9.41974 0.257916 
-0.12273 0.257916 -9.72162 
-9.2976 -0.0456705 -0.148413 
-0.0456705 -9.35321 0.397621 
-0.148413 0.397621 -9.88965 
-9.40741 0.0179807 -0.0454048 
0.0179807 -9.41355 0.265784 
-0.0454048 0.265784 -9.71949 
-9.58295 -0.0479286 -0.300602 
-0.0479286 -9.58993 0.480565 
-0.300602 0.480565 -9.36757 
-9.701 0.0494387 0.0446517 
0.0494387 -9.66535 0.0362512 
0.0446517 0.0362512 -9.80125 
-9.64224 0.0120778 0.0408929 
0.0120778 -9.64403 0.00754202 
0.0408929 0.00754202 -9.88133 
-9.61632 0.0251404 0.0549942 
0.0251404 -9.66159 0.0097621 
0.0549942 0.0097621 -9.88968 
-9.64211 -0.00218238 -0.000504968 
-0.00218238 -9.63381 -0.0341219 
-0.000504968 -0.0341219 -9.89167 
-9.85369 -0.849615 0.423714 
-0.849615 -10.3116 -0.934859 
0.423714 -0.934859 -10.4725 
-10.0703 -0.449537 0.691471 
-0.449537 -9.69026 -0.879373 
0.691471 -0.879373 -10.8773 
-9.83797 -0.773322 0.696536 
-0.773322 -9.71976 -1.04036 
0.696536 -1.04036 -11.0801 
-9.83573 -1.10491 0.278735 
-1.10491 -9.81061 -0.421443 
0.278735 -0.421443 -10.9915 
-9.97309 0.074366 -0.0424167 
0.074366 -9.71944 0.0569706 
-0.0424167 0.0569706 -8.16696 
-10.3095 -0.149333 -0.542969 
-0.149333 -9.35131 -0.196719 
-0.542969 -0.196719 -8.19863 
-9.99024 -0.023645 -0.323236 
-0.023645 -9.45099 0.0726127 
-0.323236 0.0726127 -8.41825 
-9.27897 0.0742561 -0.398809 
0.0742561 -9.41364 -0.722247 
-0.398809 -0.722247 -9.16687 
-9.61821 0.0329607 -0.323093 
0.0329607 -9.6415 -0.218653 
-0.323093 -0.218653 -9.64712 
-9.6393 -0.0109968 -0.282446 
-0.0109968 -9.6477 -0.203254 
-0.282446 -0.203254 -9.61983 
-9.66012 -0.0435414 -0.273135 
-0.0435414 -9.67336 -0.195655 
-0.273135 -0.195655 -9.57334 
-9.60808 0.00738408 -0.293289 
0.00738408 -9.6407 -0.183088 
-0.293289 -0.183088 -9.65805 
-10.1668 -0.934772 0.467846 
-0.934772 -9.63659 0.252452 
0.467846 0.252452 -9.9318 
-8.8508 0.358014 -0.321598 
0.358014 -9.7319 0.0141466 
-0.321598 0.0141466 -11.1525 
-8.83105 0.108736 -1.25455 
0.108736 -10.0917 -0.372496 
-1.25455 -0.372496 -10.8124 
-7.9564 0.28114 0.347117 
0.28114 -9.03353 -0.426402 
0.347117 -0.426402 -12.7453 
-9.59105 -0.0177032 0.0098212 
-0.0177032 -9.66054 0.035598 
0.0098212 0.035598 -9.62805 
-9.73308 -0.0346483 0.0130305 
-0.0346483 -9.6309 0.0917369 
0.0130305 0.0917369 -9.51565 
-9.5661 -0.0993263 0.0827124 
-0.0993263 -9.54724 -0.0237042 
0.0827124 -0.0237042 -9.7663 
-9.64165 -0.0514363 -0.0350718 
-0.0514363 -9.63805 -0.10872 
-0.0350718 -0.10872 -9.59994 
-9.58441 0.0537877 0.0331522 
0.0537877 -9.74503 -0.173784 
0.0331522 -0.173784 -9.63915 
-9.62184 0.0569815 0.0365712 
0.0569815 -9.68287 -0.18779 
0.0365712 -0.18779 -9.66388 
-9.62724 0.0449274 0.089118 
0.0449274 -9.72827 -0.157271 
0.089118 -0.157271 -9.61309 
-9.61878 -0.0301381 0.12688 
-0.0301381 -9.73312 -0.13816 
0.12688 -0.13816 -9.61669 
-9.98642 0.00248471 -0.231713 
0.00248471 -9.96273 -0.133809 
-0.231713 -0.133809 -9.98515 
-9.97622 -0.00471741 -0.241979 
-0.00471741 -9.9487 -0.139614 
-0.241979 -0.139614 -10.0094 
-9.98727 0.00331304 -0.236674 
0.00331304 -9.97801 -0.131602 
-0.236674 -0.131602 -9.96902 
-9.98834 0.000517145 -0.231705 
0.000517145 -9.98777 -0.130766 
-0.231705 -0.130766 -9.95819 
-10.883 -0.258785 0.259277 
-0.258785 -10.4418 -0.0910261 
0.259277 -0.0910261 -11.35 
-8.66928 -0.649959 0.487475 
-0.649959 -10.6006 -0.219987 
0.487475 -0.219987 -13.4049 
-10.4932 0.704459 0.041777 
0.704459 -11.7294 0.354147 
0.041777 0.354147 -10.4522 
-9.9392 -0.219593 -0.349125 
-0.219593 -11.6833 -0.744207 
-0.349125 -0.744207 -11.0523 
-10.0632 -0.339809 0.866615 
-0.339809 -9.45849 0.728257 
0.866615 0.728257 -8.34517 
-9.28004 -0.00156437 0.184273 
-0.00156437 -9.22532 0.354565 
0.184273 0.354565 -9.36146 
-9.23669 -0.105527 0.213017 
-0.105527 -9.64927 -0.0437202 
0.213017 -0.0437202 -8.98087 
-9.55495 -0.0424807 -0.0241715 
-0.0424807 -9.5055 -0.077953 
-0.0241715 -0.077953 -8.80637 
-10.0279 0.954867 1.92162 
0.954867 -8.12555 1.72438 
1.92162 1.72438 -7.56956 
-10.0053 0.0982232 0.119501 
0.0982232 -8.16336 1.44105 
0.119501 1.44105 -7.55436 
-7.27289 -0.379625 1.0477 
-0.379625 -9.16742 1.364 
1.0477 1.364 -9.28272 
-9.53822 0.173346 0.650496 
0.173346 -8.54346 1.04644 
0.650496 1.04644 -7.64134 
-9.88854 -0.000184869 0.323089 
-0.000184869 -9.87641 0.117897 
0.323089 0.117897 -9.89277 
-9.88865 -0.0133772 0.292485 
-0.0133772 -9.84878 0.0847155 
0.292485 0.0847155 -9.92029 
-9.88939 0.00960447 0.314986 
0.00960447 -9.89137 0.11762 
0.314986 0.11762 -9.87696 
-9.91658 -0.000417784 0.326051 
-0.000417784 -9.91368 0.133281 
0.326051 0.133281 -9.82747 
-9.66995 -0.0434667 -0.113065 
-0.0434667 -9.67097 -0.0970328 
-0.113065 -0.0970328 -9.70343 
-9.69694 0.0110567 -0.209011 
0.0110567 -9.61867 -0.113404 
-0.209011 -0.113404 -9.72875 
-9.65181 -0.026394 -0.130265 
-0.026394 -9.60346 0.0126618 
-0.130265 0.0126618 -9.78909 
-9.66029 -0.0777217 -0.184182 
-0.0777217 -9.68641 -0.0712779 
-0.184182 -0.0712779 -9.69767 
-9.75274 0.000498038 -0.193819 
0.000498038 -9.70999 0.0399763 
-0.193819 0.0399763 -9.74284 
-9.75146 0.00332424 -0.191474 
0.00332424 -9.71518 0.0404489 
-0.191474 0.0404489 -9.73893 
-9.75931 -0.00793178 -0.182463 
-0.00793178 -9.69826 0.0267485 
-0.182463 0.0267485 -9.748 
-9.75784 0.0127678 -0.194335 
0.0127678 -9.72185 0.0405482 
-0.194335 0.0405482 -9.72588 
-8.83028 -0.5668 -0.449155 
-0.5668 -9.0651 0.948406 
-0.449155 0.948406 -8.8986 
-9.42556 0.316682 -0.546066 
0.316682 -8.92568 0.106943 
-0.546066 0.106943 -8.44274 
-8.36885 -0.942972 0.180572 
-0.942972 -9.60017 0.933346 
0.180572 0.933346 -8.82496 
-8.78322 -0.364013 0.0517834 
-0.364013 -8.83922 0.919927 
0.0517834 0.919927 -9.17153 
-9.72477 0.139466 0.0915184 
0.139466 -9.39526 0.336451 
0.0915184 0.336451 -9.77655 
-9.69432 0.25703 0.102254 
0.25703 -9.22044 0.227763 
0.102254 0.227763 -9.98182 
-9.40085 -0.321727 0.136686 
-0.321727 -9.91947 -0.00909116 
0.136686 -0.00909116 -9.57626 
-9.7606 -0.222511 -0.0145502 
-0.222511 -9.28438 0.343299 
-0.0145502 0.343299 -9.8516 
-10.1042 0.0625361 -0.365831 
0.0625361 -9.50288 0.012901 
-0.365831 0.012901 -9.91955 
-10.0358 0.299982 -0.42822 
0.299982 -9.3676 0.19543 
-0.42822 0.19543 -10.1232 
-10.4216 0.293883 -0.212589 
0.293883 -9.45617 -0.223354 
-0.212589 -0.223354 -9.6488 
-9.70296 -0.117314 -0.280723 
-0.117314 -9.79621 -0.32218 
-0.280723 -0.32218 -10.0274 
-6.84999 0.83417 0.449149 
0.83417 -8.51787 0.421244 
0.449149 0.421244 -9.55745 
-7.24745 0.0212077 1.4422 
0.0212077 -9.01209 1.25432 
1.4422 1.25432 -8.66577 
-8.24843 0.549943 1.90686 
0.549943 -8.16411 -1.28665 
1.90686 -1.28665 -8.51278 
-8.74442 0.727311 2.34526 
0.727311 -8.45118 0.889166 
2.34526 0.889166 -7.72972 
-9.77 -0.0124663 0.109581 
-0.0124663 -9.74176 -0.324799 
0.109581 -0.324799 -9.76136 
-9.77544 -0.00712605 0.143286 
-0.00712605 -9.7167 -0.320136 
0.143286 -0.320136 -9.78097 
-9.75427 0.0209602 0.136109 
0.0209602 -9.81752 -0.326671 
0.136109 -0.326671 -9.70133 
-9.77885 0.0173113 0.149094 
0.0173113 -9.75135 -0.263923 
0.149094 -0.263923 -9.74293 
-9.3341 -0.0897871 -0.0126552 
-0.0897871 -9.25175 -0.725761 
-0.0126552 -0.725761 -10.2651 
-9.80218 -0.024245 -0.10105 
-0.024245 -8.96527 -0.387216 
-0.10105 -0.387216 -10.0835 
-9.27495 -0.118353 0.0405612 
-0.118353 -9.43235 -0.405961 
0.0405612 -0.405961 -10.1437 
-9.75957 -0.0346847 -0.0428739 
-0.0346847 -8.72765 -0.336275 
-0.0428739 -0.336275 -10.3638 
-9.77396 -0.0102239 0.0315169 
-0.0102239 -9.76633 0.0466641 
0.0315169 0.0466641 -9.82135 
-9.76219 -0.0277194 0.0208312 
-0.0277194 -9.76181 0.0477307 
0.0208312 0.0477307 -9.83763 
-9.75232 -0.0153656 0.0371461 
-0.0153656 -9.7511 0.0325642 
0.0371461 0.0325642 -9.85821 
-9.78077 -0.0262751 -0.0423636 
-0.0262751 -9.76365 0.000759759 
-0.0423636 0.000759759 -9.81721 
-9.14727 -0.221429 -0.174263 
-0.221429 -9.40045 0.0929006 
-0.174263 0.0929006 -9.56662 
-9.26889 -0.0673978 -0.323051 
-0.0673978 -9.41847 0.0862155 
-0.323051 0.0862155 -9.42697 
-9.43102 0.160285 -0.303918 
0.160285 -9.43434 0.147218 
-0.303918 0.147218 -9.24897 
-9.24172 -0.138124 -0.35574 
-0.138124 -9.29931 0.198752 
-0.35574 0.198752 -9.5733 
-9.83895 0.0129142 -0.158551 
0.0129142 -9.85191 0.187239 
-0.158551 0.187239 -9.82955 
-9.88658 0.00830556 -0.155462 
0.00830556 -9.8487 0.188173 
-0.155462 0.188173 -9.78514 
-9.85888 0.0105843 -0.159805 
0.0105843 -9.8577 0.169284 
-0.159805 0.169284 -9.80384 
-9.8489 0.00617712 -0.180256 
0.00617712 -9.84625 0.193908 
-0.180256 0.193908 -9.82527 
-9.69099 0.0620834 -0.0220054 
0.0620834 -9.614 0.0303166 
-0.0220054 0.0303166 -9.61739 
-9.68784 0.0327692 -0.0425701 
0.0327692 -9.67198 0.01508 
-0.0425701 0.01508 -9.56255 
-9.60803 0.0647939 -0.00808345 
0.0647939 -9.63398 0.0140766 
-0.00808345 0.0140766 -9.68036 
-9.6279 0.0689755 0.0198771 
0.0689755 -9.63538 0.0757767 
0.0198771 0.0757767 -9.65909 
-9.04421 0.131463 0.234295 
0.131463 -9.76211 0.187352 
0.234295 0.187352 -10.477 
-9.25312 -0.100436 0.437542 
-0.100436 -9.51872 -0.0353169 
0.437542 -0.0353169 -10.5115 
-8.91528 0.112316 0.222537 
0.112316 -10.0044 0.236836 
0.222537 0.236836 -10.3637 
-9.19683 0.0702515 0.431439 
0.0702515 -9.67517 0.114643 
0.431439 0.114643 -10.4114 
-9.48617 0.0399388 0.0304108 
0.0399388 -9.44475 -0.204173 
0.0304108 -0.204173 -10.049 
-9.54066 0.0609522 0.0263331 
0.0609522 -9.47396 -0.188465 
0.0263331 -0.188465 -9.96527 
-9.49048 0.0557261 0.0743547 
0.0557261 -9.42641 -0.190812 
0.0743547 -0.190812 -10.063 
-9.42452 0.0407327 -0.0609701 
0.0407327 -9.51466 -0.155945 
-0.0609701 -0.155945 -10.0407 
-9.82046 -0.135896 0.074213 
-0.135896 -9.8653 -0.255961 
0.074213 -0.255961 -8.44478 
-9.35677 0.0418855 -0.19541 
0.0418855 -9.22258 -0.515846 
-0.19541 -0.515846 -9.55119 
-9.88198 0.188659 -0.710761 
0.188659 -9.95187 -0.921519 
-0.710761 -0.921519 -8.29669 
-9.65426 -0.179887 -0.171145 
-0.179887 -9.95588 -0.175974 
-0.171145 -0.175974 -8.5204 
-9.93004 0.326412 -0.33087 
0.326412 -8.91854 -0.256939 
-0.33087 -0.256939 -10.1534 
-9.67501 0.252859 -0.169931 
0.252859 -9.5168 -0.383085 
-0.169931 -0.383085 -9.81013 
-9.8498 0.313694 -0.0951277 
0.313694 -8.98969 -0.278941 
-0.0951277 -0.278941 -10.1624 
-9.90068 0.0759938 0.0111626 
0.0759938 -9.08656 -0.252861 
0.0111626 -0.252861 -10.0147 
-9.93393 0.00630497 -0.230696 
0.00630497 -9.91303 -0.116841 
-0.230696 -0.116841 -9.92492 
-9.91735 0.0266659 -0.291318 
0.0266659 -9.90056 -0.095895 
-0.291318 -0.095895 -9.95397 
-9.93038 0.0226584 -0.208277 
0.0226584 -9.94722 -0.11048 
-0.208277 -0.11048 -9.89428 
-9.91931 -0.00290877 -0.274083 
-0.00290877 -9.93328 -0.111251 
-0.274083 -0.111251 -9.9193 
-9.72409 -0.225938 -0.164509 
-0.225938 -9.22543 0.593828 
-0.164509 0.593828 -9.64208 
-9.80228 0.0183408 0.0944549 
0.0183408 -9.65023 1.15383 
0.0944549 1.15383 -9.13909 
-9.28553 0.425447 0.325761 
0.425447 -9.26392 0.414837 
0.325761 0.414837 -10.0421 
-9.57297 -0.404248 -0.0311689 
-0.404248 -9.44208 0.976819 
-0.0311689 0.976819 -9.57655 
-9.83197 -0.932071 0.492805 
-0.932071 -10.1138 -0.321071 
0.492805 -0.321071 -11.5257 
-10.0062 -0.843816 0.619722 
-0.843816 -10.2774 -0.328492 
0.619722 -0.328492 -11.1878 
-10.2781 -0.300631 0.432163 
-0.300631 -10.5139 -0.510115 
0.432163 -0.510115 -10.6793 
-10.3291 -1.05676 0.534009 
-1.05676 -9.8051 -0.637613 
0.534009 -0.637613 -11.3372 
-9.7894 -0.0158667 -0.0651643 
-0.0158667 -9.63803 0.0380133 
-0.0651643 0.0380133 -9.7182 
-9.71198 -0.025761 -0.0405387 
-0.025761 -9.70214 0.0386973 
-0.0405387 0.0386973 -9.73151 
-9.80797 -0.0685713 -0.0643695 
-0.0685713 -9.65055 0.0218877 
-0.0643695 0.0218877 -9.68711 
-9.70273 -0.0194732 -0.0820154 
-0.0194732 -9.68475 0.0331254 
-0.0820154 0.0331254 -9.75815 
-9.73425 0.0195104 -0.000894061 
0.0195104 -9.71525 -0.0482591 
-0.000894061 -0.0482591 -9.87977 
-9.74492 -0.0111564 0.0244115 
-0.0111564 -9.71226 -0.00422689 
0.0244115 -0.00422689 -9.87209 
-9.72768 -0.00539154 0.0170154 
-0.00539154 -9.70601 -0.0137414 
0.0170154 -0.0137414 -9.89558 
-9.71269 0.0180278 0.02739 
0.0180278 -9.73157 -0.0499727 
0.02739 -0.0499727 -9.88501 
-11.0996 0.457867 0.404535 
0.457867 -11.5024 0.642367 
0.404535 0.642367 -12.874 
-10.414 0.0117577 -0.276802 
0.0117577 -11.3846 0.0909347 
-0.276802 0.0909347 -13.6775 
-10.4619 0.0229072 0.144917 
0.0229072 -11.4087 -0.153678 
0.144917 -0.153678 -13.6054 
-10.3821 -0.454071 -0.377294 
-0.454071 -11.9194 -0.57723 
-0.377294 -0.57723 -13.1746 
-9.57857 0.123452 0.109866 
0.123452 -10.2291 0.146694 
0.109866 0.146694 -9.51215 
-10.1193 0.212037 0.507167 
0.212037 -10.1975 0.544609 
0.507167 0.544609 -9.00296 
-10.1481 0.646501 0.249081 
0.646501 -9.62315 1.09996 
0.249081 1.09996 -9.54856 
-9.7211 -0.327827 0.459223 
-0.327827 -10.3712 0.604297 
0.459223 0.604297 -9.22745 
-10.4926 0.0894908 -0.201754 
0.0894908 -9.92021 -0.273557 
-0.201754 -0.273557 -11.824 
-10.3845 0.354846 -0.0136698 
0.354846 -10.2064 -0.309246 
-0.0136698 -0.309246 -11.6459 
-10.3193 0.249847 0.145366 
0.249847 -10.1828 -0.137026 
0.145366 -0.137026 -11.7347 
-10.7175 0.122911 0.021718 
0.122911 -10.0073 -0.00171889 
0.021718 -0.00171889 -11.5119 
-9.72635 -0.0144656 0.0859628 
-0.0144656 -9.81106 0.205093 
0.0859628 0.205093 -9.66578 
-9.6923 -0.0246676 0.0555448 
-0.0246676 -9.74114 0.168088 
0.0555448 0.168088 -9.76975 
-9.70973 -0.0270151 0.0948066 
-0.0270151 -9.80307 0.1795 
0.0948066 0.1795 -9.6904 
-9.72257 -0.0114263 0.0844346 
-0.0114263 -9.82867 0.0987485 
0.0844346 0.0987485 -9.65195 
-9.52185 -0.0726966 -0.351344 
-0.0726966 -9.40662 -0.237075 
-0.351344 -0.237075 -9.33977 
-9.53331 0.0389884 -0.510287 
0.0389884 -9.35128 -0.391094 
-0.510287 -0.391094 -9.38365 
-9.49176 -0.0317241 -0.414223 
-0.0317241 -9.43547 -0.189859 
-0.414223 -0.189859 -9.34101 
-9.18073 0.024533 -0.255426 
0.024533 -9.24167 -0.17525 
-0.255426 -0.17525 -9.84584 
-10.6896 -0.172116 0.267497 
-0.172116 -10.4713 0.25317 
0.267497 0.25317 -11.2577 
-9.22219 0.408954 -0.257325 
0.408954 -11.8299 -0.174897 
-0.257325 -0.174897 -11.3665 
-10.2756 1.02413 0.395856 
1.02413 -9.87007 0.484942 
0.395856 0.484942 -12.273 
-10.3417 0.318395 -0.00285918 
0.318395 -10.8509 -0.269962 
-0.00285918 -0.269962 -11.226 
-9.77051 -0.00703149 0.0377234 
-0.00703149 -9.80269 0.136012 
0.0377234 0.136012 -9.74146 
-9.73284 -0.0102526 0.0319435 
-0.0102526 -9.77827 0.138775 
0.0319435 0.138775 -9.80355 
-9.77458 -0.000342403 0.0281128 
-0.000342403 -9.81684 0.153294 
0.0281128 0.153294 -9.72324 
-9.74746 0.00344593 0.0534254 
0.00344593 -9.83948 0.0960237 
0.0534254 0.0960237 -9.72772 
-9.91583 0.00679598 -0.0675173 
0.00679598 -9.91445 -0.0745501 
-0.0675173 -0.0745501 -9.94988 
-9.91982 -0.00527746 -0.0593491 
-0.00527746 -9.91836 -0.0695062 
-0.0593491 -0.0695062 -9.94199 
-9.92251 -0.00582864 -0.0615767 
-0.00582864 -9.92111 -0.0668439 
-0.0615767 -0.0668439 -9.93654 
-9.9196 0.00887701 -0.0486263 
0.00887701 -9.92876 -0.0760562 
-0.0486263 -0.0760562 -9.9318 
-9.6769 -0.0342694 -0.271305 
-0.0342694 -9.60186 -0.0699974 
-0.271305 -0.0699974 -9.59989 
-9.63811 -0.0555672 -0.277208 
-0.0555672 -9.64877 -0.105068 
-0.277208 -0.105068 -9.59176 
-9.78869 -0.0339944 -0.344497 
-0.0339944 -9.52214 -0.00173808 
-0.344497 -0.00173808 -9.56781 
-9.64703 -0.00232898 -0.230063 
-0.00232898 -9.62028 -0.118496 
-0.230063 -0.118496 -9.61133 
-9.73826 -0.00263014 -0.344731 
-0.00263014 -9.74078 0.0292059 
-0.344731 0.0292059 -9.71882 
-9.71182 -0.0269738 -0.312899 
-0.0269738 -9.69739 0.0292782 
-0.312899 0.0292782 -9.78865 
-9.74914 0.0061398 -0.359624 
0.0061398 -9.72224 0.0390846 
-0.359624 0.0390846 -9.72648 
-9.7633 -0.0241331 -0.299185 
-0.0241331 -9.7751 0.0302688 
-0.299185 0.0302688 -9.65946 
-9.38496 0.00536974 0.397924 
0.00536974 -9.42025 -0.14995 
0.397924 -0.14995 -9.55228 
-9.4016 -0.0349628 0.44644 
-0.0349628 -9.4319 -0.127998 
0.44644 -0.127998 -9.52399 
-9.41346 0.00442481 0.41631 
0.00442481 -9.41742 -0.169974 
0.41631 -0.169974 -9.52662 
-9.48501 0.016804 0.40609 
0.016804 -9.39189 -0.179681 
0.40609 -0.179681 -9.4806 
-11.9177 -1.6803 -1.52373 
-1.6803 -1.45632 -2.60289 
-1.52373 -2.60289 -21.6963 
-18.1022 1.47701 0.982494 
1.47701 -6.80078 1.68342 
0.982494 1.68342 -10.1673 
-11.1818 -3.78836 -1.49342 
-3.78836 -4.86386 -2.01473 
-1.49342 -2.01473 -19.0247 
-11.5799 -1.41578 0.14994 
-1.41578 -9.47287 -1.61919 
0.14994 -1.61919 -14.0176 
-8.69783 0.438958 2.26723 
0.438958 -8.82729 0.317075 
2.26723 0.317075 -7.53204 
-9.01364 -0.0163268 1.28446 
-0.0163268 -8.71416 0.411605 
1.28446 0.411605 -7.32936 
-7.84617 -0.552571 1.72719 
-0.552571 -8.67385 0.422274 
1.72719 0.422274 -8.53714 
-9.01319 -0.0993101 1.24476 
-0.0993101 -8.8537 0.192108 
1.24476 0.192108 -7.19026 
-9.71987 0.00047596 -0.320144 
0.00047596 -9.73168 0.121345 
-0.320144 0.121345 -9.69318 
-9.6606 -0.0204571 -0.303503 
-0.0204571 -9.71749 0.139365 
-0.303503 0.139365 -9.76663 
-9.73711 0.0306813 -0.30895 
0.0306813 -9.70747 0.148246 
-0.30895 0.148246 -9.70015 
-9.75184 -0.00324546 -0.284294 
-0.00324546 -9.68077 0.135802 
-0.284294 0.135802 -9.71212 
-8.91451 -0.30256 0.0787105 
-0.30256 -9.20066 -0.164421 
0.0787105 -0.164421 -10.3106 
-9.52863 -0.203742 0.171001 
-0.203742 -9.21918 -0.145933 
0.171001 -0.145933 -9.67796 
-9.02137 -0.298959 0.0467768 
-0.298959 -9.0909 0.149164 
0.0467768 0.149164 -10.3135 
-9.21799 -0.343816 0.170827 
-0.343816 -9.05888 -0.15095 
0.170827 -0.15095 -10.1489 
-10.4825 -0.214688 -0.306181 
-0.214688 -10.5568 0.653564 
-0.306181 0.653564 -12.9948 
-12.4667 0.299602 0.089713 
0.299602 -12.0392 -0.711036 
0.089713 -0.711036 -9.52827 
-10.9326 -0.192637 -0.213326 
-0.192637 -10.0431 -0.041806 
-0.213326 -0.041806 -13.0584 
-11.391 -0.643209 1.53941 
-0.643209 -10.4519 -0.0678192 
1.53941 -0.0678192 -12.1913 
-0.0862363 2.89819 -2.60686 
2.89819 -10.2389 -1.27221 
-2.60686 -1.27221 -24.5861 
-10.7041 2.13577 3.04578 
2.13577 -14.2951 0.719743 
3.04578 0.719743 -9.91205 
-5.19963 3.1297 -2.10431 
3.1297 -9.61766 0.635862 
-2.10431 0.635862 -20.094 
-11.5266 0.360852 -3.55178 
0.360852 -10.9453 -0.527657 
-3.55178 -0.527657 -12.4394 
-9.61342 0.00954922 -0.0567464 
0.00954922 -9.57165 -0.0789478 
-0.0567464 -0.0789478 -9.91145 
-9.59683 0.0153278 -0.0016048 
0.0153278 -9.56872 -0.0640587 
-0.0016048 -0.0640587 -9.93097 
-9.63634 0.0661218 0.0284472 
0.0661218 -9.64556 0.085298 
0.0284472 0.085298 -9.81462 
-9.56558 0.0322933 0.0216268 
0.0322933 -9.52786 -0.0321587 
0.0216268 -0.0321587 -10.0031 
-9.77785 -0.0294226 -0.202926 
-0.0294226 -9.78857 -0.114934 
-0.202926 -0.114934 -9.73279 
-9.80162 -0.0363499 -0.200481 
-0.0363499 -9.78532 -0.147101 
-0.200481 -0.147101 -9.71228 
-9.7767 -0.0450457 -0.173896 
-0.0450457 -9.78504 -0.0981271 
-0.173896 -0.0981271 -9.73747 
-9.77735 0.0161179 -0.186219 
0.0161179 -9.72825 -0.0868417 
-0.186219 -0.0868417 -9.79361 
-9.77551 -0.0281128 0.113652 
-0.0281128 -9.85184 0.198101 
0.113652 0.198101 -9.7472 
-9.78302 -0.0190633 0.0779129 
-0.0190633 -9.81908 0.177226 
0.0779129 0.177226 -9.77244 
-9.79214 -0.0303717 0.0862333 
-0.0303717 -9.84641 0.216085 
0.0862333 0.216085 -9.736 
-9.77686 -0.0311327 0.0983329 
-0.0311327 -9.84365 0.207418 
0.0983329 0.207418 -9.75404 
-9.38815 0.0269154 -1.00335 
0.0269154 -9.40669 0.114192 
-1.00335 0.114192 -9.54644 
-9.63577 -0.870902 -1.01133 
-0.870902 -9.2004 0.377376 
-1.01133 0.377376 -9.50511 
-8.93507 0.0458195 -0.915511 
0.0458195 -10.3417 0.443897 
-0.915511 0.443897 -9.06451 
-9.04488 0.3033 -0.200767 
0.3033 -9.82744 0.0124426 
-0.200767 0.0124426 -9.46896 
-9.5063 0.250084 0.303264 
0.250084 -9.33019 0.310644 
0.303264 0.310644 -9.24093 
-9.47357 0.0532718 0.0324719 
0.0532718 -9.34807 0.175965 
0.0324719 0.175965 -9.25579 
-9.47859 0.0267706 0.163161 
0.0267706 -9.3058 0.224693 
0.163161 0.224693 -9.29303 
-9.43213 -0.0441749 0.0629194 
-0.0441749 -9.5144 -0.15007 
0.0629194 -0.15007 -9.13089 
-10.261 0.223629 0.100121 
0.223629 -9.25398 -0.00911057 
0.100121 -0.00911057 -10.9556 
-9.7915 -0.124792 0.272066 
-0.124792 -10.2913 -0.0584351 
0.272066 -0.0584351 -10.3879 
-10.3381 0.297453 -0.483994 
0.297453 -9.65069 -0.120779 
-0.483994 -0.120779 -10.4818 
-9.80132 -0.106859 -0.162044 
-0.106859 -9.91697 -0.33237 
-0.162044 -0.33237 -10.7523 
-9.9193 0.00842674 -0.0277787 
0.00842674 -9.918 0.090118 
-0.0277787 0.090118 -9.93102 
-9.94852 0.0174086 -0.0276707 
0.0174086 -9.91493 0.10954 
-0.0276707 0.10954 -9.90486 
-9.91824 0.0155019 -0.0133247 
0.0155019 -9.89391 0.0666515 
-0.0133247 0.0666515 -9.95616 
-9.93086 0.00466763 -0.0145368 
0.00466763 -9.9095 0.0734843 
-0.0145368 0.0734843 -9.92796 
-9.88048 -0.0212963 -0.236756 
-0.0212963 -9.87513 -0.175593 
-0.236756 -0.175593 -9.93965 
-9.90602 0.0009294 -0.239591 
0.0009294 -9.89839 -0.22343 
-0.239591 -0.22343 -9.89085 
-9.90093 -0.00421209 -0.248948 
-0.00421209 -9.88841 -0.238715 
-0.248948 -0.238715 -9.90592 
-9.92433 0.00594292 -0.231992 
0.00594292 -9.93828 -0.241489 
-0.231992 -0.241489 -9.83266 
-10.2207 0.301591 -0.953412 
0.301591 -8.87791 -0.370568 
-0.953412 -0.370568 -9.58962 
-9.92954 -0.211919 -0.076953 
-0.211919 -9.00278 -0.92866 
-0.076953 -0.92866 -9.75593 
-9.47365 -0.0511503 0.38905 
-0.0511503 -9.91624 -0.131946 
0.38905 -0.131946 -9.29836 
-9.79299 0.284167 -0.494988 
0.284167 -9.16743 -0.931753 
-0.494988 -0.931753 -9.72783 
-9.01063 -0.295262 0.442217 
-0.295262 -9.5557 0.400037 
0.442217 0.400037 -10.2301 
-9.53992 0.147809 0.818171 
0.147809 -9.35923 0.114076 
0.818171 0.114076 -9.89728 
-9.66452 -0.0217912 -0.079925 
-0.0217912 -9.77437 -0.563354 
-0.079925 -0.563354 -9.35754 
-9.09959 -0.299593 0.589864 
-0.299593 -10.0658 -0.533961 
0.589864 -0.533961 -9.63109 
-8.16383 0.160021 0.188831 
0.160021 -7.65022 -1.26342 
0.188831 -1.26342 -11.7981 
-9.64507 -0.0966015 -0.545228 
-0.0966015 -9.74338 -1.77154 
-0.545228 -1.77154 -8.22369 
-10.5735 -0.429616 -1.18117 
-0.429616 -8.66425 -3.7581 
-1.18117 -3.7581 -8.37442 
-10.1506 -0.568798 0.321491 
-0.568798 -9.96736 -1.59092 
0.321491 -1.59092 -7.49419 
-9.84838 0.463779 -0.244137 
0.463779 -9.35825 1.39183 
-0.244137 1.39183 -9.37365 
-9.24065 -0.39768 -0.214804 
-0.39768 -9.66771 0.11695 
-0.214804 0.11695 -9.67192 
-9.40725 0.112996 -0.182883 
0.112996 -9.2386 0.241086 
-0.182883 0.241086 -9.93442 
-9.9616 0.0822098 -0.100709 
0.0822098 -9.43768 0.0135514 
-0.100709 0.0135514 -9.181 
-9.84391 -0.0104615 -0.289163 
-0.0104615 -9.8563 -0.176608 
-0.289163 -0.176608 -9.77656 
-9.78098 -0.0159243 -0.320201 
-0.0159243 -9.80134 -0.0716074 
-0.320201 -0.0716074 -9.89445 
-9.82253 -0.0276225 -0.272445 
-0.0276225 -9.83729 -0.107556 
-0.272445 -0.107556 -9.81695 
-9.83113 -0.0211558 -0.275409 
-0.0211558 -9.82229 -0.116801 
-0.275409 -0.116801 -9.82335 
-11.835 0.352244 -1.61848 
0.352244 -9.62803 6.16606 
-1.61848 6.16606 -3.34338 
-8.05416 0.738658 0.119437 
0.738658 -10.6504 1.65558 
0.119437 1.65558 -6.10183 
-5.97762 0.864316 1.3024 
0.864316 -6.07536 0.723167 
1.3024 0.723167 -12.7534 
-10.0454 0.401606 0.779609 
0.401606 -9.90189 1.4931 
0.779609 1.4931 -4.85906 
-9.82534 -0.00183605 0.131573 
-0.00183605 -9.86366 0.318201 
0.131573 0.318201 -9.80102 
-9.82942 -0.0201208 0.0334498 
-0.0201208 -9.78539 0.336477 
0.0334498 0.336477 -9.87521 
-9.80726 -0.0325864 0.0729012 
-0.0325864 -9.8612 0.300679 
0.0729012 0.300679 -9.82156 
-9.84022 -0.00658701 0.106483 
-0.00658701 -9.83199 0.30015 
0.106483 0.30015 -9.81781 
-9.78251 -0.000494806 0.0927811 
-0.000494806 -9.79266 0.329681 
0.0927811 0.329681 -9.77657 
-9.81278 0.0103935 0.116476 
0.0103935 -9.69053 0.335233 
0.116476 0.335233 -9.84843 
-9.78163 -0.00836745 0.102347 
-0.00836745 -9.82506 0.357241 
0.102347 0.357241 -9.74505 
-9.77853 -0.00334174 0.0844444 
-0.00334174 -9.80859 0.306706 
0.0844444 0.306706 -9.76462 
-9.3669 0.0567641 -0.00214305 
0.0567641 -9.62415 -0.284317 
-0.00214305 -0.284317 -10.1233 
-9.27503 0.0978918 0.00471956 
0.0978918 -9.7937 -0.14373 
0.00471956 -0.14373 -10.0456 
-9.49785 0.0558988 0.0445794 
0.0558988 -9.66276 -0.0595715 
0.0445794 -0.0595715 -9.95376 
-9.37332 -0.156437 0.3224 
-0.156437 -9.7388 0.0589242 
0.3224 0.0589242 -10.0023 
-9.42007 0.156004 -0.157464 
0.156004 -9.43066 -0.103016 
-0.157464 -0.103016 -9.92687 
-9.60091 -0.12033 -0.0167625 
-0.12033 -9.41258 -0.07333 
-0.0167625 -0.07333 -9.76411 
-9.42723 0.167063 -0.00637065 
0.167063 -9.42168 -0.00780296 
-0.00637065 -0.00780296 -9.92869 
-9.47558 0.130764 -0.12181 
0.130764 -9.37904 -0.064435 
-0.12181 -0.064435 -9.92299 
-9.3848 0.179659 -2.06621 
0.179659 -9.00597 -1.2259 
-2.06621 -1.2259 -10.1851 
-9.68528 0.158847 -0.529048 
0.158847 -9.49071 -0.720902 
-0.529048 -0.720902 -9.39993 
-9.07726 0.0282997 -1.85981 
0.0282997 -10.2549 -0.954452 
-1.85981 -0.954452 -9.24379 
-10.5157 1.12079 -1.38275 
1.12079 -10.5424 -1.52242 
-1.38275 -1.52242 -7.51783 
-9.66958 -0.00913208 -0.0374054 
-0.00913208 -9.6847 -0.0545589 
-0.0374054 -0.0545589 -9.80155 
-9.7123 -0.0325013 -0.017425 
-0.0325013 -9.6646 -0.0494153 
-0.017425 -0.0494153 -9.77893 
-9.67512 -0.00512715 -0.0914781 
-0.00512715 -9.73599 -0.123282 
-0.0914781 -0.123282 -9.74472 
-9.6991 -0.00408426 -0.00850177 
-0.00408426 -9.71875 -0.024912 
-0.00850177 -0.024912 -9.73798 
-11.8137 -0.721659 -0.686278 
-0.721659 -14.608 3.14599 
-0.686278 3.14599 -10.216 
-11.0399 2.49444 -2.04528 
2.49444 -9.50478 -3.22057 
-2.04528 -3.22057 -16.0929 
-11.7057 -0.415592 0.111808 
-0.415592 -12.0131 0.855329 
0.111808 0.855329 -12.9188 
-12.0787 -1.30382 -0.125205 
-1.30382 -7.13983 -0.197037 
-0.125205 -0.197037 -17.419 
-9.10121 0.373881 -0.808682 
0.373881 -9.374 0.61329 
-0.808682 0.61329 -8.94133 
-9.56594 -0.338253 -2.0249 
-0.338253 -10.0286 0.0258378 
-2.0249 0.0258378 -7.82197 
-8.15525 -0.288711 -0.589292 
-0.288711 -9.30315 1.13183 
-0.589292 1.13183 -9.95815 
-9.26287 0.0210157 -0.886239 
0.0210157 -9.21629 -0.835402 
-0.886239 -0.835402 -8.93739 
-9.67811 -0.0177712 -0.0259312 
-0.0177712 -9.68034 -0.0363387 
-0.0259312 -0.0363387 -9.68601 
-9.61419 -0.0170059 0.0119126 
-0.0170059 -9.68439 0.0505677 
0.0119126 0.0505677 -9.74589 
-9.65086 -0.0360001 0.0331675 
-0.0360001 -9.64068 0.00990971 
0.0331675 0.00990971 -9.75293 
-9.56967 -0.0347305 -0.00711594 
-0.0347305 -9.72634 -0.0225724 
-0.00711594 -0.0225724 -9.74846 
-9.71282 0.00471412 -0.282666 
0.00471412 -9.72836 0.20791 
-0.282666 0.20791 -9.90597 
-9.82268 0.0272618 -0.325487 
0.0272618 -9.8559 0.131442 
-0.325487 0.131442 -9.66858 
-9.80463 5.039e-05 -0.249913 
5.039e-05 -9.76577 0.13617 
-0.249913 0.13617 -9.77676 
-9.80632 -0.00285216 -0.262808 
-0.00285216 -9.76745 0.158479 
-0.262808 0.158479 -9.77339 
-9.53732 -0.190506 0.0265101 
-0.190506 -9.30122 0.384055 
0.0265101 0.384055 -8.81794 
-9.56008 -0.195262 -0.0247741 
-0.195262 -9.21795 0.487612 
-0.0247741 0.487612 -8.87846 
-9.55582 -0.027189 -0.145582 
-0.027189 -9.28482 0.39638 
-0.145582 0.39638 -8.81585 
-9.60208 -0.120519 0.0672031 
-0.120519 -9.14037 0.578709 
0.0672031 0.578709 -8.91403 
-10.2471 -2.06583 1.75029 
-2.06583 -3.67457 -1.43261 
1.75029 -1.43261 -23.0148 
-19.2093 -1.17809 -1.9318 
-1.17809 -13.1215 4.13593 
-1.9318 4.13593 -4.60561 
-8.11689 -4.1021 -0.505653 
-4.1021 -3.26634 -2.94903 
-0.505653 -2.94903 -25.5532 
-11.5198 2.35891 5.02341 
2.35891 -16.1982 -8.67905 
5.02341 -8.67905 -9.21841 
-9.60056 0.0402552 0.268388 
0.0402552 -9.57324 -0.15716 
0.268388 -0.15716 -9.55815 
-9.57184 -0.0202238 0.282473 
-0.0202238 -9.60132 -0.178878 
0.282473 -0.178878 -9.55878 
-9.52263 -0.0330907 0.325219 
-0.0330907 -9.58309 -0.223759 
0.325219 -0.223759 -9.62622 
-9.56205 -0.0301688 0.280107 
-0.0301688 -9.55186 -0.221483 
0.280107 -0.221483 -9.61804 
-9.86347 0.0238217 -0.0507199 
0.0238217 -9.96649 0.0824476 
-0.0507199 0.0824476 -9.87927 
-9.78245 0.0169518 0.0329265 
0.0169518 -9.91197 0.0452029 
0.0329265 0.0452029 -10.0148 
-9.8305 -0.0516389 0.0807741 
-0.0516389 -9.92292 -0.0516643 
0.0807741 -0.0516643 -9.95581 
-9.81593 0.00225343 0.0338849 
0.00225343 -9.90518 0.0245069 
0.0338849 0.0245069 -9.98813 
-9.67988 -0.101466 -0.0817095 
-0.101466 -9.79596 0.470363 
-0.0817095 0.470363 -9.33287 
-9.56464 -0.0258756 -0.133698 
-0.0258756 -9.65295 0.350314 
-0.133698 0.350314 -9.59112 
-9.5643 0.0395638 -0.25065 
0.0395638 -9.76343 0.363568 
-0.25065 0.363568 -9.48099 
-9.66805 0.0504902 -0.268897 
0.0504902 -9.52664 0.369499 
-0.268897 0.369499 -9.61402 
-9.73528 -0.00350985 -0.0184897 
-0.00350985 -9.63911 -0.0850071 
-0.0184897 -0.0850071 -10.2256 
-9.66996 0.0387335 -0.000276357 
0.0387335 -9.67706 -0.0635406 
-0.000276357 -0.0635406 -10.253 
-9.78943 0.035048 0.0241154 
0.035048 -9.61794 -0.121128 
0.0241154 -0.121128 -10.1926 
-9.66112 0.0156964 0.0241647 
0.0156964 -9.5766 -0.0211688 
0.0241647 -0.0211688 -10.3623 
-11.1687 0.905987 0.897126 
0.905987 -13.5651 1.67829 
0.897126 1.67829 -10.9831 
-12.5847 0.21922 0.706827 
0.21922 -12.4859 1.64529 
0.706827 1.64529 -10.6463 
-10.1458 -1.22509 -0.992838 
-1.22509 -8.8054 -2.23966 
-0.992838 -2.23966 -16.7657 
-11.8197 3.32245 -0.887354 
3.32245 -6.85036 1.55558 
-0.887354 1.55558 -17.0469 
-9.88152 -0.0360658 0.0186373 
-0.0360658 -9.90705 0.0788147 
0.0186373 0.0788147 -9.92571 
-9.90703 -0.0320134 0.0184526 
-0.0320134 -9.92487 0.137025 
0.0184526 0.137025 -9.88239 
-9.88644 -0.0136959 0.0249879 
-0.0136959 -9.92071 0.117798 
0.0249879 0.117798 -9.90714 
-9.89843 -0.0213961 0.0205454 
-0.0213961 -9.91354 0.0876539 
0.0205454 0.0876539 -9.90233 
-9.56755 0.0397464 -0.119032 
0.0397464 -9.51057 0.040473 
-0.119032 0.040473 -9.56979 
-9.44239 0.0582265 -0.172307 
0.0582265 -9.6135 0.123236 
-0.172307 0.123236 -9.59201 
-9.48224 0.022984 -0.0543487 
0.022984 -9.63911 0.0828177 
-0.0543487 0.0828177 -9.52655 
-9.67068 0.0439792 -0.173139 
0.0439792 -9.50614 0.0780547 
-0.173139 0.0780547 -9.47108 
-9.91414 -0.0065006 -0.0572807 
-0.0065006 -9.90201 -0.0681377 
-0.0572807 -0.0681377 -9.95672 
-9.92072 -0.0140096 -0.0223959 
-0.0140096 -9.90157 -0.0704734 
-0.0223959 -0.0704734 -9.95058 
-9.92351 -0.0153349 -0.023214 
-0.0153349 -9.92213 -0.0763443 
-0.023214 -0.0763443 -9.92723 
-9.91153 -0.00715746 -0.053137 
-0.00715746 -9.92371 -0.0644251 
-0.053137 -0.0644251 -9.93763 
-9.41584 0.148602 -0.446709 
0.148602 -10.3465 0.00485882 
-0.446709 0.00485882 -9.10155 
-9.83593 0.239814 -0.712093 
0.239814 -10.6889 0.463154 
-0.712093 0.463154 -8.33903 
-9.93371 0.0595438 -0.733917 
0.0595438 -10.4604 0.266762 
-0.733917 0.266762 -8.46978 
-9.83708 0.0192592 -0.594637 
0.0192592 -10.6367 0.576832 
-0.594637 0.576832 -8.39012 
-9.57759 -0.00510701 -0.309052 
-0.00510701 -9.59133 -0.130963 
-0.309052 -0.130963 -9.6418 
-9.5899 0.00308112 -0.304655 
0.00308112 -9.58387 -0.141012 
-0.304655 -0.141012 -9.63694 
-9.55448 0.00591688 -0.279589 
0.00591688 -9.61247 -0.146073 
-0.279589 -0.146073 -9.64377 
-9.57484 0.00172913 -0.307027 
0.00172913 -9.596 -0.140713 
-0.307027 -0.140713 -9.63988 
-9.65467 -0.00248958 0.282286 
-0.00248958 -9.65676 -0.202497 
0.282286 -0.202497 -9.64672 
-9.64191 -0.00151645 0.281994 
-0.00151645 -9.64803 -0.225932 
0.281994 -0.225932 -9.66821 
-9.68318 0.0150379 0.275362 
0.0150379 -9.67337 -0.221404 
0.275362 -0.221404 -9.60159 
-9.64475 -0.00848673 0.260124 
-0.00848673 -9.65373 -0.19471 
0.260124 -0.19471 -9.65967 
-8.33242 -0.124501 -0.312465 
-0.124501 -9.58095 0.437137 
-0.312465 0.437137 -10.2331 
-9.08899 -0.289751 0.547363 
-0.289751 -10.076 -0.511804 
0.547363 -0.511804 -8.98152 
-9.58098 -0.117511 0.302279 
-0.117511 -9.76196 -0.658335 
0.302279 -0.658335 -8.80354 
-9.49662 -1.51541 1.40486 
-1.51541 -9.39301 -0.893043 
1.40486 -0.893043 -9.25684 
-9.76283 -0.0047767 0.306156 
-0.0047767 -9.75353 0.1489 
0.306156 0.1489 -9.73206 
-9.77499 -0.0122677 0.295772 
-0.0122677 -9.75026 0.128292 
0.295772 0.128292 -9.72318 
-9.75395 0.0222297 0.27749 
0.0222297 -9.73356 0.109406 
0.27749 0.109406 -9.76091 
-9.804 -0.0431249 0.295474 
-0.0431249 -9.77456 0.0992759 
0.295474 0.0992759 -9.66987 
-6.46645 0.270448 -1.57619 
0.270448 -8.47705 1.66965 
-1.57619 1.66965 -3.28049 
-7.90558 0.217998 -0.456079 
0.217998 -6.39771 2.63203 
-0.456079 2.63203 -3.9207 
-11.2441 1.98469 0.845501 
1.98469 -5.52124 3.92866 
0.845501 3.92866 -1.4587 
-9.70339 0.328445 -3.94165 
0.328445 -4.35501 -0.591135 
-3.94165 -0.591135 -4.16559 
-9.48209 -0.186749 -0.307212 
-0.186749 -9.06777 0.415979 
-0.307212 0.415979 -9.33065 
-9.36161 -0.281176 -0.378792 
-0.281176 -9.28598 0.451489 
-0.378792 0.451489 -9.23292 
-9.35887 -0.209242 -0.448032 
-0.209242 -9.12031 0.306328 
-0.448032 0.306328 -9.40134 
-9.35349 -0.174844 -0.43512 
-0.174844 -9.19404 0.441721 
-0.43512 0.441721 -9.33299 
-9.77704 -0.0442198 -0.0338788 
-0.0442198 -9.70903 -0.0217273 
-0.0338788 -0.0217273 -9.78534 
-9.73169 0.025742 -0.120651 
0.025742 -9.70057 -0.0061362 
-0.120651 -0.0061362 -9.83914 
-9.79634 -0.048588 -0.0949334 
-0.048588 -9.73132 -0.0206447 
-0.0949334 -0.0206447 -9.74376 
-9.82885 -0.0529332 -0.0786392 
-0.0529332 -9.72252 -0.0448494 
-0.0786392 -0.0448494 -9.72005 
-9.61448 -0.0067751 0.167275 
-0.0067751 -9.58942 0.318497 
0.167275 0.318497 -9.5909 
-9.56023 0.0020895 0.15836 
0.0020895 -9.58577 0.327208 
0.15836 0.327208 -9.64881 
-9.59339 -0.00454243 0.156848 
-0.00454243 -9.58452 0.326636 
0.156848 0.326636 -9.61689 
-9.60484 -0.000904226 0.142964 
-0.000904226 -9.57435 0.308849 
0.142964 0.308849 -9.61563 
-8.39268 0.0971164 -0.290148 
0.0971164 -9.19307 0.52094 
-0.290148 0.52094 -10.5728 
-9.37729 -0.482357 0.0925585 
-0.482357 -9.75141 -0.937782 
0.0925585 -0.937782 -9.02981 
-9.28785 -0.878809 0.0269204 
-0.878809 -9.43005 -0.883937 
0.0269204 -0.883937 -9.44061 
-8.94472 -0.915646 1.66955 
-0.915646 -9.92075 -1.1678 
1.66955 -1.1678 -9.29304 
-9.97978 0.00384487 -0.129945 
0.00384487 -9.98868 -0.250351 
-0.129945 -0.250351 -9.96672 
-9.95293 -0.00907978 -0.142444 
-0.00907978 -9.9678 -0.250408 
-0.142444 -0.250408 -10.0145 
-9.97129 -0.00176268 -0.133541 
-0.00176268 -9.98027 -0.243888 
-0.133541 -0.243888 -9.98361 
-9.99068 0.00261845 -0.132096 
0.00261845 -9.98494 -0.243579 
-0.132096 -0.243579 -9.95956 
-9.30548 0.62892 0.103589 
0.62892 -9.40296 0.392015 
0.103589 0.392015 -9.60719 
-10.0397 0.565614 -0.0807274 
0.565614 -9.47685 -0.309677 
-0.0807274 -0.309677 -8.79906 
-9.83165 0.132658 -0.346827 
0.132658 -9.18109 -0.12582 
-0.346827 -0.12582 -9.30289 
-11.4853 0.175403 0.0855544 
0.175403 -8.13423 -0.237843 
0.0855544 -0.237843 -8.69613 
-9.7048 0.0119612 0.0122206 
0.0119612 -9.52938 -0.0565346 
0.0122206 -0.0565346 -9.44047 
-9.7769 0.0786533 -0.155756 
0.0786533 -9.42599 0.0803562 
-0.155756 0.0803562 -9.47176 
-9.76094 -0.000808359 -0.150167 
-0.000808359 -9.49077 0.160855 
-0.150167 0.160855 -9.42294 
-9.74449 0.109499 0.0105913 
0.109499 -9.47017 0.0950936 
0.0105913 0.0950936 -9.45999 
-9.84414 -0.0154232 -0.162747 
-0.0154232 -9.87086 -0.120156 
-0.162747 -0.120156 -9.75838 
-9.86626 -0.0142914 -0.174708 
-0.0142914 -9.8094 -0.125791 
-0.174708 -0.125791 -9.79772 
-9.86395 -0.0254275 -0.18114 
-0.0254275 -9.82937 -0.0966409 
-0.18114 -0.0966409 -9.78007 
-9.81498 -0.0128158 -0.195886 
-0.0128158 -9.83474 -0.13043 
-0.195886 -0.13043 -9.82366 
-9.75949 0.00654271 -0.171664 
0.00654271 -9.77402 0.196098 
-0.171664 0.196098 -9.71371 
-9.76813 0.0158532 -0.165952 
0.0158532 -9.77823 0.216303 
-0.165952 0.216303 -9.70086 
-9.72713 0.0274666 -0.199282 
0.0274666 -9.73894 0.213922 
-0.199282 0.213922 -9.78115 
-9.75684 0.00856083 -0.170343 
0.00856083 -9.76853 0.205521 
-0.170343 0.205521 -9.72185 
-9.55295 0.0424584 0.0205984 
0.0424584 -9.39812 0.339563 
0.0205984 0.339563 -9.97035 
-9.61844 -0.0180907 0.0845249 
-0.0180907 -9.30899 -0.0691576 
0.0845249 -0.0691576 -9.99399 
-9.5313 -0.0110365 -0.0164888 
-0.0110365 -9.7047 0.11218 
-0.0164888 0.11218 -9.68541 
-9.55118 -0.0125339 0.0092687 
-0.0125339 -9.5015 0.121776 
0.0092687 0.121776 -9.86874 
-9.86875 -0.00152689 -0.0509923 
-0.00152689 -9.86731 -0.0498663 
-0.0509923 -0.0498663 -9.91998 
-9.87135 -0.0062806 -0.0449244 
-0.0062806 -9.87498 -0.0473077 
-0.0449244 -0.0473077 -9.9097 
-9.87023 -0.00484822 -0.0492491 
-0.00484822 -9.8786 -0.054663 
-0.0492491 -0.054663 -9.90721 
-9.87092 2.28462e-05 -0.0342508 
2.28462e-05 -9.891 -0.0596702 
-0.0342508 -0.0596702 -9.89411 
-8.81753 0.213428 -0.130103 
0.213428 -9.52217 -0.177479 
-0.130103 -0.177479 -10.1833 
-8.74558 0.331572 -0.854258 
0.331572 -9.67764 -0.222503 
-0.854258 -0.222503 -10.0998 
-8.96818 0.1224 -0.797071 
0.1224 -9.06592 -0.26819 
-0.797071 -0.26819 -10.4889 
-8.64041 0.598641 -0.645522 
0.598641 -8.7141 0.097572 
-0.645522 0.097572 -11.1685 
-9.93827 0.0133388 0.0156346 
0.0133388 -9.9624 0.0398143 
0.0156346 0.0398143 -10.0002 
-9.95628 -0.00153242 0.0152999 
-0.00153242 -9.96308 0.0322847 
0.0152999 0.0322847 -9.98148 
-9.96155 -0.00153081 0.0243983 
-0.00153081 -9.95655 0.0288106 
0.0243983 0.0288106 -9.98274 
-9.96477 -0.00212169 0.0247041 
-0.00212169 -9.96779 0.0303157 
0.0247041 0.0303157 -9.96828 
-9.25616 0.228614 0.549235 
0.228614 -10.8464 -0.103873 
0.549235 -0.103873 -6.21203 
-9.16116 0.352424 0.365499 
0.352424 -10.4561 -0.494122 
0.365499 -0.494122 -6.6973 
-9.9398 0.254702 0.602658 
0.254702 -10.6041 0.0209382 
0.602658 0.0209382 -5.77073 
-8.92674 0.380451 0.51643 
0.380451 -11.1617 0.112889 
0.51643 0.112889 -6.22619 
-4.5033 -0.0859119 -0.10537 
-0.0859119 -5.00914 0.539261 
-0.10537 0.539261 -1.064 
-6.01956 0.572113 -1.36119 
0.572113 -4.4773 0.596696 
-1.36119 0.596696 -0.0795923 
-4.08294 -0.283879 -0.134836 
-0.283879 -4.29264 1.45809 
-0.134836 1.45809 -2.20087 
-4.87892 -0.998448 0.286576 
-0.998448 -4.59892 1.89467 
0.286576 1.89467 -1.09861 
-9.48913 -0.366129 0.254012 
-0.366129 -9.17694 0.197934 
0.254012 0.197934 -8.55224 
-9.10854 -0.0312833 0.586844 
-0.0312833 -9.30013 -0.322278 
0.586844 -0.322278 -8.80964 
-9.555 -0.0793384 0.43987 
-0.0793384 -9.68266 0.0100419 
0.43987 0.0100419 -7.98065 
-9.39243 -0.0202032 0.293866 
-0.0202032 -9.24594 -0.073759 
0.293866 -0.073759 -8.57994 
-9.57994 -0.00377993 0.143785 
-0.00377993 -9.57553 -0.309294 
0.143785 -0.309294 -9.62409 
-9.59439 -0.0138033 0.140334 
-0.0138033 -9.56227 -0.307233 
0.140334 -0.307233 -9.62291 
-9.5799 0.0289622 0.135892 
0.0289622 -9.60137 -0.30996 
0.135892 -0.30996 -9.5983 
-9.56495 -0.0186608 0.148789 
-0.0186608 -9.58704 -0.310378 
0.148789 -0.310378 -9.62758 
-9.27128 -0.374158 -0.140128 
-0.374158 -9.48528 -0.479122 
-0.140128 -0.479122 -10.2683 
-8.91384 -0.864771 1.38986 
-0.864771 -9.06167 0.384192 
1.38986 0.384192 -11.0493 
-9.18595 0.0480236 1.35035 
0.0480236 -9.76897 -0.0344197 
1.35035 -0.0344197 -10.0699 
-9.35613 -0.668407 1.66521 
-0.668407 -11.3901 -1.14068 
1.66521 -1.14068 -8.27857 
-9.27672 -0.0753596 -0.74301 
-0.0753596 -9.71156 -0.288788 
-0.74301 -0.288788 -8.69078 
-9.34797 0.128595 -0.485808 
0.128595 -9.37994 -0.383086 
-0.485808 -0.383086 -8.95115 
-9.42545 -0.0980704 -0.577202 
-0.0980704 -9.52152 -0.327904 
-0.577202 -0.327904 -8.73208 
-9.41198 -0.304092 -0.354586 
-0.304092 -9.28934 -0.0244977 
-0.354586 -0.0244977 -8.97773 
-9.60422 -0.0331336 0.0446141 
-0.0331336 -9.62474 0.258911 
0.0446141 0.258911 -9.46992 
-9.59373 -0.0232651 0.019272 
-0.0232651 -9.66113 0.217736 
0.019272 0.217736 -9.44402 
-9.58166 -0.0369814 0.01897 
-0.0369814 -9.66329 0.214541 
0.01897 0.214541 -9.45392 
-9.62071 -0.0320593 0.0433201 
-0.0320593 -9.66213 0.239685 
0.0433201 0.239685 -9.41603 
-9.60837 -0.150486 -0.127382 
-0.150486 -9.54118 0.142999 
-0.127382 0.142999 -10.0839 
-9.5871 -0.100009 -0.118225 
-0.100009 -9.61373 0.0956846 
-0.118225 0.0956846 -10.0326 
-9.57655 0.022502 0.185934 
0.022502 -9.62054 -0.000785005 
0.185934 -0.000785005 -10.0363 
-9.57981 -0.0968085 -0.153571 
-0.0968085 -9.82464 0.0511526 
-0.153571 0.0511526 -9.82896 
-9.55205 0.0454693 0.217141 
0.0454693 -9.53231 -0.247673 
0.217141 -0.247673 -9.59021 
-9.50907 -0.0143473 0.119607 
-0.0143473 -9.53844 -0.343343 
0.119607 -0.343343 -9.62706 
-9.54826 -0.0163319 0.103303 
-0.0163319 -9.47961 -0.291591 
0.103303 -0.291591 -9.64669 
-9.58713 -0.00540128 0.178814 
-0.00540128 -9.48566 -0.351499 
0.178814 -0.351499 -9.60178 
-3.87258 0.100237 -0.0998467 
0.100237 -5.80876 0.047009 
-0.0998467 0.047009 -0.564499 
-3.42375 0.244069 0.331382 
0.244069 -5.60808 -1.16323 
0.331382 -1.16323 -1.21401 
-4.35957 0.915587 -0.276626 
0.915587 -3.7299 -1.28254 
-0.276626 -1.28254 -2.15637 
-2.83321 0.147864 -0.348823 
0.147864 -5.17987 -1.50939 
-0.348823 -1.50939 -2.23276 
-8.57562 -0.228417 -3.46525 
-0.228417 -7.60748 -1.3268 
-3.46525 -1.3268 -6.43415 
-8.42833 1.40269 -5.20466 
1.40269 -10.3623 -2.12022 
-5.20466 -2.12022 -3.82663 
-7.3831 1.32248 -2.26574 
1.32248 -8.2084 -2.28863 
-2.26574 -2.28863 -7.02574 
-9.17731 -1.93848 -0.218283 
-1.93848 -7.85025 0.278475 
-0.218283 0.278475 -5.58968 
-9.63637 -0.00568302 0.0125494 
-0.00568302 -9.66024 0.05702 
0.0125494 0.05702 -9.83751 
-9.64534 -0.00446819 -0.014084 
-0.00446819 -9.5828 0.0181409 
-0.014084 0.0181409 -9.90598 
-9.62372 0.000171986 -0.0109559 
0.000171986 -9.68311 -0.0641825 
-0.0109559 -0.0641825 -9.82728 
-9.62534 0.00239914 0.0358484 
0.00239914 -9.65772 0.0182777 
0.0358484 0.0182777 -9.85106 
-9.30469 -0.104633 0.270096 
-0.104633 -9.48074 -0.274585 
0.270096 -0.274585 -9.74937 
-9.36797 -0.12347 0.469071 
-0.12347 -9.58157 -0.120363 
0.469071 -0.120363 -9.58526 
-9.4896 -0.0425424 0.365928 
-0.0425424 -9.55821 0.0325769 
0.365928 0.0325769 -9.48699 
-9.50464 -0.0329334 0.390677 
-0.0329334 -9.34977 -0.325122 
0.390677 -0.325122 -9.68039 
-9.59174 -0.012745 0.0922752 
-0.012745 -9.66327 0.246024 
0.0922752 0.246024 -9.56948 
-9.62893 -0.0494925 0.119477 
-0.0494925 -9.65502 0.24144 
0.119477 0.24144 -9.54055 
-9.63186 -0.00996981 0.102718 
-0.00996981 -9.6269 0.251729 
0.102718 0.251729 -9.56573 
-9.61277 -0.0134442 0.0987531 
-0.0134442 -9.69071 0.270422 
0.0987531 0.270422 -9.52101 
-9.68351 0.599325 0.611856 
0.599325 -9.48158 0.358653 
0.611856 0.358653 -9.33222 
-8.79791 0.240551 0.133428 
0.240551 -9.56449 0.10161 
0.133428 0.10161 -10.1349 
-8.84667 0.475408 0.23223 
0.475408 -9.51087 0.170461 
0.23223 0.170461 -10.1398 
-8.74576 0.478915 0.238389 
0.478915 -9.4903 0.0913964 
0.238389 0.0913964 -10.2613 
-9.8821 0.00369902 0.087974 
0.00369902 -9.90876 0.176984 
0.087974 0.176984 -9.90711 
-9.86949 -0.00874294 0.0734411 
-0.00874294 -9.91811 0.199279 
0.0734411 0.199279 -9.91037 
-9.90316 -0.00504153 0.089339 
-0.00504153 -9.90949 0.180912 
0.089339 0.180912 -9.88532 
-9.89162 -0.0148357 0.0744926 
-0.0148357 -9.9331 0.208472 
0.0744926 0.208472 -9.87325 
-8.92674 -0.0280392 -0.372261 
-0.0280392 -10.0486 -0.129742 
-0.372261 -0.129742 -10.5053 
-9.28226 0.0582683 -0.314134 
0.0582683 -9.63253 -0.20811 
-0.314134 -0.20811 -10.5659 
-9.30232 -0.190104 -0.0350956 
-0.190104 -9.75653 0.00211189 
-0.0350956 0.00211189 -10.4218 
-9.84822 0.259973 -0.332621 
0.259973 -9.53376 0.0427252 
-0.332621 0.0427252 -10.0987 
-11.2326 0.411246 1.34377 
0.411246 -7.91992 -0.191248 
1.34377 -0.191248 -12.0423 
-10.0134 -1.72062 1.17326 
-1.72062 -9.75303 -1.54607 
1.17326 -1.54607 -11.4284 
-9.64216 -2.06706 0.0269678 
-2.06706 -9.25228 -1.48302 
0.0269678 -1.48302 -12.3004 
-8.44218 -0.154028 1.74597 
-0.154028 -10.1623 -2.42952 
1.74597 -2.42952 -12.5903 
-9.54631 -0.274221 0.432389 
-0.274221 -9.445 -0.573634 
0.432389 -0.573634 -9.66402 
-9.70644 0.0233789 0.356179 
0.0233789 -9.54726 -0.757889 
0.356179 -0.757889 -9.40162 
-9.66177 -0.184497 0.342903 
-0.184497 -9.52087 -0.355631 
0.342903 -0.355631 -9.47268 
-9.50103 -0.110823 0.176772 
-0.110823 -9.63515 -0.205697 
0.176772 -0.205697 -9.51914 
-9.60884 -0.1719 0.627662 
-0.1719 -10.0744 -0.470094 
0.627662 -0.470094 -9.57313 
-9.3048 0.262234 -0.012571 
0.262234 -9.78892 0.132496 
-0.012571 0.132496 -10.1627 
-9.46247 0.496197 0.23221 
0.496197 -9.53321 0.134528 
0.23221 0.134528 -10.2607 
-8.96036 0.0664673 0.219906 
0.0664673 -10.0919 -0.104103 
0.219906 -0.104103 -10.2041 
-9.69513 -0.0785061 0.032564 
-0.0785061 -9.76114 0.108873 
0.032564 0.108873 -9.65705 
-9.71233 -0.0649552 0.0835848 
-0.0649552 -9.72368 0.172896 
0.0835848 0.172896 -9.67731 
-9.64015 0.00256262 0.0324311 
0.00256262 -9.7641 0.106892 
0.0324311 0.106892 -9.70907 
-9.70163 -0.0261877 0.0542174 
-0.0261877 -9.78476 0.0805922 
0.0542174 0.0805922 -9.62693 
-9.4694 -0.182629 -0.173481 
-0.182629 -9.3767 0.256039 
-0.173481 0.256039 -9.92714 
-9.74903 -0.0571715 0.00551706 
-0.0571715 -9.45022 0.382279 
0.00551706 0.382279 -9.57398 
-9.74241 -0.035282 -0.0505119 
-0.035282 -9.37874 0.410137 
-0.0505119 0.410137 -9.65208 
-9.67209 -0.0254157 -0.0915281 
-0.0254157 -9.4022 0.380908 
-0.0915281 0.380908 -9.69894 
-9.91935 0.00880545 -0.019987 
0.00880545 -9.92637 -0.137014 
-0.019987 -0.137014 -9.93584 
-9.94801 0.00336173 -0.0354615 
0.00336173 -9.91692 -0.112787 
-0.0354615 -0.112787 -9.91663 
-9.94516 0.0276748 0.016349 
0.0276748 -9.88723 -0.183342 
0.016349 -0.183342 -9.94918 
-9.92777 0.000397238 0.00427379 
0.000397238 -9.92876 -0.169648 
0.00427379 -0.169648 -9.92503 
-9.78661 0.00236006 -0.189374 
0.00236006 -9.73223 0.155677 
-0.189374 0.155677 -9.77026 
-9.82254 0.0209201 -0.214225 
0.0209201 -9.744 0.0993683 
-0.214225 0.0993683 -9.72256 
-9.80331 0.0202204 -0.173847 
0.0202204 -9.77608 0.109904 
-0.173847 0.109904 -9.70971 
-9.7536 0.000725137 -0.1886 
0.000725137 -9.81038 0.115204 
-0.1886 0.115204 -9.72511 
-9.43145 -0.0552482 -0.294267 
-0.0552482 -9.51585 -0.260052 
-0.294267 -0.260052 -9.06879 
-9.42724 0.359291 -0.123379 
0.359291 -9.32124 0.182242 
-0.123379 0.182242 -9.26762 
-9.64715 -0.0745957 -0.129734 
-0.0745957 -9.64271 -0.0294832 
-0.129734 -0.0294832 -8.72624 
-9.69385 -0.194733 -0.166482 
-0.194733 -9.48674 -0.0562725 
-0.166482 -0.0562725 -8.8355 
-9.46148 -0.10648 0.0211129 
-0.10648 -9.3771 0.347652 
0.0211129 0.347652 -9.8621 
-9.72855 0.194381 0.238348 
0.194381 -9.30314 0.230246 
0.238348 0.230246 -9.66898 
-9.59044 0.184344 0.339965 
0.184344 -9.83961 0.386716 
0.339965 0.386716 -9.27062 
-9.29953 0.117829 0.247468 
0.117829 -9.44414 0.515013 
0.247468 0.515013 -9.957 
-9.4224 0.0169684 0.130593 
0.0169684 -9.41742 -0.300877 
0.130593 -0.300877 -9.68863 
-9.48674 0.0261878 0.212148 
0.0261878 -9.54573 -0.41898 
0.212148 -0.41898 -9.49599 
-9.52353 0.00649824 0.253625 
0.00649824 -9.21695 -0.603645 
0.253625 -0.603645 -9.78798 
-9.42002 -0.00870557 0.14029 
-0.00870557 -9.45792 -0.415391 
0.14029 -0.415391 -9.65051 
-9.2153 -0.0662877 -0.352322 
-0.0662877 -9.21298 0.113335 
-0.352322 0.113335 -9.50415 
-9.86199 -0.174964 0.222403 
-0.174964 -9.22362 0.111466 
0.222403 0.111466 -8.84681 
-9.74621 -0.284816 -0.379286 
-0.284816 -9.26773 0.178262 
-0.379286 0.178262 -8.91849 
-9.59744 -0.210458 -0.211497 
-0.210458 -9.19935 0.204426 
-0.211497 0.204426 -9.13563 
-9.94402 -9.41238e-06 -0.060323 
-9.41238e-06 -9.94171 -0.0807674 
-0.060323 -0.0807674 -10.002 
-9.94789 0.00248908 -0.0547225 
0.00248908 -9.95433 -0.0933452 
-0.0547225 -0.0933452 -9.98547 
-9.9529 0.00208968 -0.0480634 
0.00208968 -9.95397 -0.0849887 
-0.0480634 -0.0849887 -9.98082 
-9.96148 -0.000627715 -0.0488288 
-0.000627715 -9.96256 -0.0845561 
-0.0488288 -0.0845561 -9.96364 
-9.18128 0.169843 0.519099 
0.169843 -9.06796 0.0841964 
0.519099 0.0841964 -10.0653 
-9.55971 0.180082 0.218411 
0.180082 -8.88757 0.13963 
0.218411 0.13963 -9.86731 
-9.30265 0.181122 0.789831 
0.181122 -9.05544 0.113114 
0.789831 0.113114 -9.9565 
-8.41561 -0.0779646 0.413179 
-0.0779646 -9.21807 -0.159323 
0.413179 -0.159323 -10.6809 
-10.0962 -1.46603 0.188126 
-1.46603 -7.60413 -1.9897 
0.188126 -1.9897 -11.1968 
-8.73949 -1.23463 1.45086 
-1.23463 -10.1625 -0.692457 
1.45086 -0.692457 -9.99506 
-9.62001 -1.45307 0.98364 
-1.45307 -7.7304 -0.374112 
0.98364 -0.374112 -11.5467 
-9.40283 -1.31377 -0.366891 
-1.31377 -9.14405 -2.27925 
-0.366891 -2.27925 -10.3502 
-9.77423 0.0274245 -0.0423151 
0.0274245 -9.82755 0.0510696 
-0.0423151 0.0510696 -9.85653 
-9.79666 0.0216941 -0.0440547 
0.0216941 -9.78052 0.0422734 
-0.0440547 0.0422734 -9.88113 
-9.79868 0.0117518 0.0261935 
0.0117518 -9.81436 0.0195928 
0.0261935 0.0195928 -9.84527 
-9.81605 0.00404221 -0.0044425 
0.00404221 -9.80351 0.0628327 
-0.0044425 0.0628327 -9.83875 
-9.73937 -0.0403366 0.0406419 
-0.0403366 -9.63305 0.0211498 
0.0406419 0.0211498 -9.76337 
-9.69601 0.00517265 0.0553432 
0.00517265 -9.66981 0.00982725 
0.0553432 0.00982725 -9.76998 
-9.71232 -0.0137422 0.0279496 
-0.0137422 -9.68197 0.0843389 
0.0279496 0.0843389 -9.7415 
-9.73012 -0.0467723 -0.0231749 
-0.0467723 -9.62493 -0.0167822 
-0.0231749 -0.0167822 -9.78075 
-9.6104 0.0192055 -0.329238 
0.0192055 -9.55722 -0.13455 
-0.329238 -0.13455 -9.6866 
-9.58611 -0.00024128 -0.295116 
-0.00024128 -9.65449 -0.157715 
-0.295116 -0.157715 -9.61362 
-9.61944 -0.00926602 -0.3154 
-0.00926602 -9.64819 -0.177368 
-0.3154 -0.177368 -9.58658 
-9.60967 -0.00931474 -0.333764 
-0.00931474 -9.61295 -0.143884 
-0.333764 -0.143884 -9.6316 
-2.34968 1.51519 -1.81668 
1.51519 -1.61009 1.49571 
-1.81668 1.49571 -5.43092 
-7.73068 -0.214895 0.685698 
-0.214895 -3.70457 0.0976334 
0.685698 0.0976334 2.04456 
-8.57204 0.165121 -0.57191 
0.165121 -7.65494 -1.81425 
-0.57191 -1.81425 6.83629 
-3.90013 -1.10811 2.4317 
-1.10811 -5.62816 4.6406 
2.4317 4.6406 0.137601 
-9.93473 -1.21472 0.961914 
-1.21472 -7.30552 -2.82109 
0.961914 -2.82109 -11.7808 
-9.10626 0.556427 0.949792 
0.556427 -10.3202 -2.6665 
0.949792 -2.6665 -9.59457 
-10.5073 -0.922723 0.938351 
-0.922723 -7.00565 -2.61637 
0.938351 -2.61637 -11.508 
-10.5945 -1.20018 0.436523 
-1.20018 -7.13366 -1.14919 
0.436523 -1.14919 -11.2929 
-9.60714 -0.000929995 0.0698738 
-0.000929995 -9.67426 -0.038174 
0.0698738 -0.038174 -9.92262 
-9.61955 0.0111706 0.0881344 
0.0111706 -9.63896 0.00596614 
0.0881344 0.00596614 -9.94551 
-9.60471 0.00150988 -0.03746 
0.00150988 -9.65831 -0.00567292 
-0.03746 -0.00567292 -9.941 
-9.58043 0.0120216 -0.0111931 
0.0120216 -9.63603 -0.0257149 
-0.0111931 -0.0257149 -9.98756 
-9.65456 -0.0200856 -0.00517542 
-0.0200856 -9.73962 -0.0174049 
-0.00517542 -0.0174049 -9.7366 
-9.64415 -0.00545452 -0.00843005 
-0.00545452 -9.73151 0.00681991 
-0.00843005 0.00681991 -9.75512 
-9.65194 -0.0192197 -0.0200259 
-0.0192197 -9.72862 -0.00981582 
-0.0200259 -0.00981582 -9.75022 
-9.67145 -0.026564 -0.0167128 
-0.026564 -9.6743 -0.0188657 
-0.0167128 -0.0188657 -9.78502 
-7.6261 0.096979 2.04921 
0.096979 -10.3744 0.705985 
2.04921 0.705985 -7.64331 
-6.83928 0.419775 2.09434 
0.419775 -10.4154 0.0151525 
2.09434 0.0151525 -8.38916 
-8.24845 0.615675 1.7837 
0.615675 -9.32807 0.724378 
1.7837 0.724378 -8.06731 
-7.51681 -0.176165 1.88658 
-0.176165 -10.639 0.600585 
1.88658 0.600585 -7.48797 
-9.6901 -0.0954423 -0.0526222 
-0.0954423 -9.86846 -0.136543 
-0.0526222 -0.136543 -10.0669 
-9.79314 -0.0385755 0.0112942 
-0.0385755 -9.87522 0.117221 
0.0112942 0.117221 -9.95707 
-9.864 -0.0204028 -0.00930738 
-0.0204028 -9.77211 -0.0825364 
-0.00930738 -0.0825364 -9.98932 
-9.94876 -0.0469323 0.0175669 
-0.0469323 -9.58077 0.0417829 
0.0175669 0.0417829 -10.0959 
-9.66596 -0.0101827 0.0191928 
-0.0101827 -9.66264 -0.0294118 
0.0191928 -0.0294118 -9.87856 
-9.69413 -0.020192 -0.00377382 
-0.020192 -9.62983 -0.002248 
-0.00377382 -0.002248 -9.8832 
-9.66186 -0.00700426 0.0115381 
-0.00700426 -9.66047 -0.0167942 
0.0115381 -0.0167942 -9.88483 
-9.68472 0.0145238 0.0244381 
0.0145238 -9.64147 -0.0430313 
0.0244381 -0.0430313 -9.88097 
-9.91205 0.00449141 0.0560813 
0.00449141 -9.90987 -0.0625662 
0.0560813 -0.0625662 -9.94397 
-9.90928 0.0116948 0.0655196 
0.0116948 -9.907 -0.0580817 
0.0655196 -0.0580817 -9.94962 
-9.92067 0.0129272 0.0541797 
0.0129272 -9.9217 -0.0554253 
0.0541797 -0.0554253 -9.92351 
-9.91737 -0.000188677 0.059822 
-0.000188677 -9.9133 -0.0588155 
0.059822 -0.0588155 -9.93522 
-9.82835 0.0274283 -0.0978965 
0.0274283 -9.77653 0.0450185 
-0.0978965 0.0450185 -9.82011 
-9.83782 0.0275932 -0.0980476 
0.0275932 -9.76719 0.0321691 
-0.0980476 0.0321691 -9.81998 
-9.83211 0.0153584 -0.110749 
0.0153584 -9.7605 0.0276538 
-0.110749 0.0276538 -9.83239 
-9.82249 0.00558923 -0.0912365 
0.00558923 -9.79736 0.0372102 
-0.0912365 0.0372102 -9.80515 
-9.648 -0.0291563 -0.273816 
-0.0291563 -9.59155 -0.0721972 
-0.273816 -0.0721972 -9.67703 
-9.59487 0.0182203 -0.269118 
0.0182203 -9.61835 -0.104097 
-0.269118 -0.104097 -9.70336 
-9.68242 -0.0306493 -0.274364 
-0.0306493 -9.61466 -0.0849734 
-0.274364 -0.0849734 -9.6195 
-9.67218 -0.00543667 -0.259664 
-0.00543667 -9.60983 -0.0780794 
-0.259664 -0.0780794 -9.63458 
-9.5222 0.0842678 0.121121 
0.0842678 -9.41914 0.310469 
0.121121 0.310469 -9.6008 
-9.54485 0.0529186 0.0999739 
0.0529186 -9.41676 0.318445 
0.0999739 0.318445 -9.58053 
-9.42625 -0.0469498 0.0608321 
-0.0469498 -9.64498 0.303733 
0.0608321 0.303733 -9.47091 
-9.57092 0.0310431 0.125931 
0.0310431 -9.43727 0.397177 
0.125931 0.397177 -9.53395 
-9.47382 0.0768462 1.15441 
0.0768462 -9.56833 -0.365856 
1.15441 -0.365856 -8.65291 
-9.56209 -0.0832868 0.892455 
-0.0832868 -9.64226 -0.613514 
0.892455 -0.613514 -8.49071 
-9.8506 0.149443 0.722237 
0.149443 -9.78959 0.210322 
0.722237 0.210322 -8.05486 
-9.39583 0.0577961 0.103128 
0.0577961 -9.61032 0.0394108 
0.103128 0.0394108 -8.68891 
-9.69572 0.0647455 -0.149963 
0.0647455 -8.84977 -0.0480876 
-0.149963 -0.0480876 -10.3468 
-9.54019 -0.0184455 -0.157073 
-0.0184455 -8.96125 -0.110484 
-0.157073 -0.110484 -10.3908 
-9.52172 -0.277512 -0.334058 
-0.277512 -8.95242 -0.492724 
-0.334058 -0.492724 -10.4181 
-9.71003 0.0672406 0.207177 
0.0672406 -9.23532 0.0160241 
0.207177 0.0160241 -9.94689 
-9.89366 0.022672 0.184969 
0.022672 -9.92671 -0.142444 
0.184969 -0.142444 -9.93148 
-9.92058 0.0115041 0.183416 
0.0115041 -9.93057 -0.129359 
0.183416 -0.129359 -9.9007 
-9.92628 -0.00299103 0.186865 
-0.00299103 -9.9165 -0.133851 
0.186865 -0.133851 -9.90907 
-9.92541 0.00149378 0.182698 
0.00149378 -9.91588 -0.13312 
0.182698 -0.13312 -9.91057 
-9.47372 -0.00232348 -0.138864 
-0.00232348 -9.09928 -0.897893 
-0.138864 -0.897893 -9.30517 
-9.95821 0.303355 -0.144297 
0.303355 -8.81633 -0.167382 
-0.144297 -0.167382 -9.10362 
-9.18056 -0.397675 0.551541 
-0.397675 -9.27775 -0.357507 
0.551541 -0.357507 -9.41985 
-9.7082 -0.519533 0.835216 
-0.519533 -8.2192 -1.22633 
0.835216 -1.22633 -9.95076 
-10.0553 0.266066 0.359199 
0.266066 -9.69978 -0.525063 
0.359199 -0.525063 -8.045 
-9.27001 -0.0387011 0.389262 
-0.0387011 -9.634 0.163805 
0.389262 0.163805 -8.89612 
-9.30499 0.0233937 0.407511 
0.0233937 -9.35827 -0.413927 
0.407511 -0.413927 -9.13688 
-9.51965 -0.240393 0.0639316 
-0.240393 -9.42016 0.164102 
0.0639316 0.164102 -8.86032 
-10.2225 -0.508685 -0.223311 
-0.508685 -9.87887 -0.00135737 
-0.223311 -0.00135737 -10.5871 
-10.0328 -0.508354 -0.0804979 
-0.508354 -9.7407 0.0429736 
-0.0804979 0.0429736 -10.915 
-9.61954 -0.0639668 -0.332408 
-0.0639668 -10.0996 -0.0829005 
-0.332408 -0.0829005 -10.9694 
-9.90114 0.0640274 -0.167402 
0.0640274 -10.1439 0.366512 
-0.167402 0.366512 -10.6434 
-9.02822 0.0416645 0.0445144 
0.0416645 -9.74389 -0.213519 
0.0445144 -0.213519 -10.1112 
-9.28963 0.00387309 -0.0191537 
0.00387309 -9.14646 -0.467805 
-0.0191537 -0.467805 -10.4473 
-9.22924 -0.167088 0.529344 
-0.167088 -9.6313 -0.367547 
0.529344 -0.367547 -10.0228 
-9.40245 -0.658908 0.574502 
-0.658908 -9.62769 0.0310424 
0.574502 0.0310424 -9.85321 
-9.43836 0.0124616 0.07663 
0.0124616 -10.554 0.107395 
0.07663 0.107395 -11.6226 
-9.76741 0.21765 -0.222151 
0.21765 -10.4608 0.0917935 
-0.222151 0.0917935 -11.3867 
-9.48778 0.0689028 -0.071023 
0.0689028 -10.5436 0.00417783 
-0.071023 0.00417783 -11.5835 
-9.6853 0.0886416 -0.299475 
0.0886416 -10.7081 -0.112809 
-0.299475 -0.112809 -11.2215 
-9.87909 0.0153425 0.216037 
0.0153425 -9.85019 -0.0656998 
0.216037 -0.0656998 -9.90141 
-9.91136 0.0440738 0.187786 
0.0440738 -9.89417 -0.096808 
0.187786 -0.096808 -9.82515 
-9.87549 0.0187049 0.18824 
0.0187049 -9.87669 -0.0791786 
0.18824 -0.0791786 -9.8785 
-9.8899 0.0244128 0.21356 
0.0244128 -9.8886 -0.0718943 
0.21356 -0.0718943 -9.85219 
-9.86007 0.00502309 -0.163578 
0.00502309 -9.87463 -0.168223 
-0.163578 -0.168223 -9.86442 
-9.87144 0.00123874 -0.165872 
0.00123874 -9.86694 -0.16383 
-0.165872 -0.16383 -9.86074 
-9.86255 -0.00756865 -0.159491 
-0.00756865 -9.86807 -0.163899 
-0.159491 -0.163899 -9.8685 
-9.88486 -0.00251706 -0.179669 
-0.00251706 -9.88467 -0.18163 
-0.179669 -0.18163 -9.82959 
-9.77445 -0.0888563 -0.114124 
-0.0888563 -9.65131 0.0323799 
-0.114124 0.0323799 -9.53108 
-9.80693 -0.0970435 0.026939 
-0.0970435 -9.56793 -0.00353777 
0.026939 -0.00353777 -9.58197 
-9.65488 -0.0166622 -0.0509703 
-0.0166622 -9.67359 -0.0885962 
-0.0509703 -0.0885962 -9.62836 
-9.76664 -0.0647569 -0.0696224 
-0.0647569 -9.61707 -0.00858874 
-0.0696224 -0.00858874 -9.57313 
-9.94213 0.151409 -0.0666223 
0.151409 -9.1667 0.0600067 
-0.0666223 0.0600067 -9.58313 
-9.43013 0.0780582 0.218647 
0.0780582 -9.76455 -0.29082 
0.218647 -0.29082 -9.49729 
-9.71898 0.0458311 -0.0138516 
0.0458311 -9.49847 0.0912206 
-0.0138516 0.0912206 -9.47452 
-9.58084 0.126134 -0.0170801 
0.126134 -9.47584 0.0141379 
-0.0170801 0.0141379 -9.63529 
-5.44154 -1.64275 2.29385 
-1.64275 -10.8163 0.00986916 
2.29385 0.00986916 -5.63236 
-8.30542 1.90447 4.21709 
1.90447 -6.38192 -1.94702 
4.21709 -1.94702 -7.20282 
-9.84774 0.449948 3.3755 
0.449948 -9.28198 0.889575 
3.3755 0.889575 -2.76045 
-8.33228 -0.481367 4.0063 
-0.481367 -8.64995 -0.10933 
4.0063 -0.10933 -4.90793 
-9.68043 0.0182832 -0.29854 
0.0182832 -9.63681 0.0893782 
-0.29854 0.0893782 -9.60992 
-9.71002 0.0115062 -0.293094 
0.0115062 -9.59309 0.111963 
-0.293094 0.111963 -9.62405 
-9.55951 -0.0398436 -0.372666 
-0.0398436 -9.65281 0.119566 
-0.372666 0.119566 -9.71484 
-9.59013 -0.0162254 -0.278401 
-0.0162254 -9.59222 0.0976482 
-0.278401 0.0976482 -9.7448 
-14.2152 -0.174571 -1.47775 
-0.174571 -11.6079 -1.52756 
-1.47775 -1.52756 -8.78615 
-11.5903 -1.25802 0.783517 
-1.25802 -9.46655 -0.927588 
0.783517 -0.927588 -13.5525 
-10.2372 -0.552862 1.22457 
-0.552862 -7.80945 -1.62727 
1.22457 -1.62727 -16.5627 
-11.4035 -0.911717 0.0754304 
-0.911717 -10.2207 0.408543 
0.0754304 0.408543 -12.9851 
-9.49623 0.200549 0.0162344 
0.200549 -9.78864 -0.126297 
0.0162344 -0.126297 -9.40989 
-9.5302 -0.0134902 0.00437188 
-0.0134902 -9.62737 -0.120658 
0.00437188 -0.120658 -9.53719 
-9.50184 0.0505549 0.0969119 
0.0505549 -9.65351 -0.306308 
0.0969119 -0.306308 -9.53942 
-9.51136 0.08562 0.0912085 
0.08562 -9.69276 -0.133116 
0.0912085 -0.133116 -9.49064 
-9.80999 0.0171554 -0.0242412 
0.0171554 -9.83702 0.0127644 
-0.0242412 0.0127644 -9.86467 
-9.8206 0.00196957 -0.0292816 
0.00196957 -9.8291 0.0467473 
-0.0292816 0.0467473 -9.86199 
-9.82205 -0.00662615 -0.0310392 
-0.00662615 -9.81687 0.0438261 
-0.0310392 0.0438261 -9.87276 
-9.81554 0.0010279 -0.0265884 
0.0010279 -9.79936 0.0502492 
-0.0265884 0.0502492 -9.89678 
-9.73097 -0.00515773 -0.140162 
-0.00515773 -9.75866 -0.275985 
-0.140162 -0.275985 -9.75831 
-9.76563 -0.00835348 -0.14826 
-0.00835348 -9.75142 -0.275374 
-0.14826 -0.275374 -9.73089 
-9.73756 -0.0195977 -0.130436 
-0.0195977 -9.76342 -0.284023 
-0.130436 -0.284023 -9.74695 
-9.73691 -0.00770463 -0.152886 
-0.00770463 -9.72272 -0.26711 
-0.152886 -0.26711 -9.78831 
-9.65908 0.00933134 0.00366286 
0.00933134 -9.70337 -0.0532652 
0.00366286 -0.0532652 -9.75067 
-9.71428 0.0312509 -0.0163191 
0.0312509 -9.68212 0.0282035 
-0.0163191 0.0282035 -9.71673 
-9.66898 0.00104143 0.00443152 
0.00104143 -9.74066 -0.0361725 
0.00443152 -0.0361725 -9.70348 
-9.67174 0.0109926 0.0130524 
0.0109926 -9.74639 -0.0412894 
0.0130524 -0.0412894 -9.69499 
-9.5567 -0.00725714 0.0654404 
-0.00725714 -9.82375 -0.018177 
0.0654404 -0.018177 -9.92848 
-9.45339 0.16268 0.208357 
0.16268 -9.93105 0.298553 
0.208357 0.298553 -9.9245 
-9.63371 0.18219 0.196234 
0.18219 -9.75198 -0.0449497 
0.196234 -0.0449497 -9.92325 
-9.63849 0.0427641 0.175128 
0.0427641 -9.69549 0.00284251 
0.175128 0.00284251 -9.97495 
-9.09237 -0.0103693 0.513347 
-0.0103693 -9.70504 -0.124133 
0.513347 -0.124133 -7.58556 
-9.354 -0.266153 0.53221 
-0.266153 -9.58287 -0.409696 
0.53221 -0.409696 -7.44611 
-9.89122 0.385849 0.852858 
0.385849 -9.28281 -1.21017 
0.852858 -1.21017 -7.20895 
-9.01369 -0.633187 0.655803 
-0.633187 -9.60997 -0.652844 
0.655803 -0.652844 -7.75932 
-9.16017 -1.3675 0.678641 
-1.3675 -11.414 -0.889437 
0.678641 -0.889437 -12.5251 
-9.16128 -0.318329 1.24903 
-0.318329 -10.2016 1.20622 
1.24903 1.20622 -13.7364 
-9.78086 -0.295957 0.207072 
-0.295957 -9.88628 0.936404 
0.207072 0.936404 -13.4322 
-10.1057 -0.958902 0.502936 
-0.958902 -11.5174 -0.763853 
0.502936 -0.763853 -11.4761 
-9.89316 -0.0980693 0.0997758 
-0.0980693 -9.44587 -0.0185612 
0.0997758 -0.0185612 -9.63664 
-9.47254 0.0686023 0.270694 
0.0686023 -9.6363 0.104725 
0.270694 0.104725 -9.86683 
-9.44516 0.0553656 0.175704 
0.0553656 -9.61769 0.0899507 
0.175704 0.0899507 -9.91282 
-9.60944 0.124571 0.152539 
0.124571 -9.52221 0.115967 
0.152539 0.115967 -9.84401 
-9.65959 0.028143 0.0616855 
0.028143 -9.58716 0.357697 
0.0616855 0.357697 -9.68303 
-9.58755 0.00409347 0.0774222 
0.00409347 -9.79339 0.344336 
0.0774222 0.344336 -9.54886 
-9.66723 -0.00689517 0.101319 
-0.00689517 -9.56474 0.364434 
0.101319 0.364434 -9.69782 
-9.66225 -0.0242645 0.122223 
-0.0242645 -9.61299 0.275286 
0.122223 0.275286 -9.65456 
-9.74605 -0.0340071 -0.0422845 
-0.0340071 -9.66139 0.0303673 
-0.0422845 0.0303673 -9.59902 
-9.78575 -0.0570184 -0.0386067 
-0.0570184 -9.62388 0.0170307 
-0.0386067 0.0170307 -9.59684 
-9.74359 0.0451758 -0.0801638 
0.0451758 -9.60192 -0.0270655 
-0.0801638 -0.0270655 -9.66095 
-9.74303 -0.0157613 -0.0198083 
-0.0157613 -9.65026 0.000999495 
-0.0198083 0.000999495 -9.61316 
-9.55141 0.050496 0.239549 
0.050496 -9.57062 0.195921 
0.239549 0.195921 -9.57585 
-9.57793 -0.015901 0.304144 
-0.015901 -9.53679 0.116256 
0.304144 0.116256 -9.58316 
-9.54618 0.0225172 0.292285 
0.0225172 -9.56673 0.206259 
0.292285 0.206259 -9.58496 
-9.53828 0.0161243 0.304926 
0.0161243 -9.55034 0.220049 
0.304926 0.220049 -9.60926 
-9.65968 0.000859994 0.0147739 
0.000859994 -9.67278 0.0109183 
0.0147739 0.0109183 -9.84363 
-9.66379 -0.00471367 0.0163432 
-0.00471367 -9.66401 0.00498128 
0.0163432 0.00498128 -9.84829 
-9.66307 -0.00176602 0.0144328 
-0.00176602 -9.6727 0.00853332 
0.0144328 0.00853332 -9.84032 
-9.65283 -0.00336993 0.011153 
-0.00336993 -9.66274 0.00290101 
0.011153 0.00290101 -9.86051 
-9.12751 0.475338 0.27004 
0.475338 -9.99542 -0.0115495 
0.27004 -0.0115495 -9.84146 
-9.61462 0.0124323 0.126948 
0.0124323 -8.54991 0.314792 
0.126948 0.314792 -10.7999 
-10.0823 -0.369597 -0.016109 
-0.369597 -9.51947 0.146282 
-0.016109 0.146282 -9.36265 
-9.96456 -0.247934 -0.4702 
-0.247934 -9.30127 0.580023 
-0.4702 0.580023 -9.69857 
-9.54005 0.0277083 -0.0438187 
0.0277083 -9.64068 0.0127532 
-0.0438187 0.0127532 -9.82406 
-9.65062 -0.0797635 0.00316632 
-0.0797635 -9.58363 0.0127508 
0.00316632 0.0127508 -9.77054 
-9.60341 0.0643942 -0.124813 
0.0643942 -9.61999 -0.0501912 
-0.124813 -0.0501912 -9.7814 
-9.59208 -0.022783 -0.0626806 
-0.022783 -9.59023 0.0216125 
-0.0626806 0.0216125 -9.82249 
-9.79527 0.0135328 -0.126644 
0.0135328 -9.84076 0.308957 
-0.126644 0.308957 -9.7671 
-9.80805 0.0369916 -0.0323531 
0.0369916 -9.79782 0.309994 
-0.0323531 0.309994 -9.79727 
-9.82215 4.06648e-05 -0.0382861 
4.06648e-05 -9.76774 0.358753 
-0.0382861 0.358753 -9.81325 
-9.81628 -0.0206218 -0.104269 
-0.0206218 -9.79119 0.28461 
-0.104269 0.28461 -9.79566 
-8.55517 -0.491031 0.34246 
-0.491031 -9.42695 0.368603 
0.34246 0.368603 -10.2104 
-9.57509 -0.00964597 -0.041244 
-0.00964597 -9.47088 0.0219737 
-0.041244 0.0219737 -9.1465 
-9.04045 -0.0534346 0.072196 
-0.0534346 -9.22525 0.0136801 
0.072196 0.0136801 -9.92677 
-9.70284 -0.752493 -0.130666 
-0.752493 -9.05431 0.390215 
-0.130666 0.390215 -9.43533 
-10.6174 0.146999 -0.239318 
0.146999 -10.4206 0.529871 
-0.239318 0.529871 -7.94397 
-9.95054 0.118869 -0.516528 
0.118869 -11.1192 -0.433175 
-0.516528 -0.433175 -7.91223 
-9.29487 -0.178341 -0.0240819 
-0.178341 -10.2685 0.228496 
-0.0240819 0.228496 -9.41858 
-10.4176 -0.682116 0.0454231 
-0.682116 -10.029 0.324764 
0.0454231 0.324764 -8.53542 
-9.75596 0.0126433 -0.126589 
0.0126433 -9.76709 0.313413 
-0.126589 0.313413 -9.74335 
-9.76275 -0.0387825 -0.136821 
-0.0387825 -9.70228 0.339201 
-0.136821 0.339201 -9.80137 
-9.76191 0.0313506 -0.118926 
0.0313506 -9.81661 0.34068 
-0.118926 0.34068 -9.68787 
-9.75173 -0.00643575 -0.118309 
-0.00643575 -9.7575 0.265082 
-0.118309 0.265082 -9.75716 
-9.95626 -0.00231111 -0.00477129 
-0.00231111 -9.95836 -0.0338669 
-0.00477129 -0.0338669 -9.98533 
-9.94272 -0.00132164 -0.000398306 
-0.00132164 -9.95688 -0.0417154 
-0.000398306 -0.0417154 -10.0004 
-9.9537 0.00340091 0.00106517 
0.00340091 -9.96007 -0.0298094 
0.00106517 -0.0298094 -9.98618 
-9.96509 -0.00211775 0.00491453 
-0.00211775 -9.96289 -0.0282293 
0.00491453 -0.0282293 -9.97197 
-9.64873 -0.00134288 0.00858903 
-0.00134288 -9.6482 0.00573863 
0.00858903 0.00573863 -9.86064 
-9.66446 0.000532855 0.0220522 
0.000532855 -9.64023 0.0171242 
0.0220522 0.0171242 -9.85288 
-9.64904 -0.00646264 0.0155137 
-0.00646264 -9.64231 0.0138453 
0.0155137 0.0138453 -9.86621 
-9.63032 -0.00316757 0.00209536 
-0.00316757 -9.65115 -0.00190642 
0.00209536 -0.00190642 -9.8761 
-9.72745 -0.0482906 -0.287495 
-0.0482906 -9.43647 -0.0670207 
-0.287495 -0.0670207 -9.30881 
-9.64316 0.0140576 -0.338382 
0.0140576 -9.35041 0.00170552 
-0.338382 0.00170552 -9.47916 
-9.21602 0.0869306 -0.12274 
0.0869306 -9.60864 -0.151476 
-0.12274 -0.151476 -9.64807 
-9.39582 -0.0396354 -0.357259 
-0.0396354 -9.36925 -0.159909 
-0.357259 -0.159909 -9.70766 
-14.0093 1.28438 0.824237 
1.28438 -12.806 0.987443 
0.824237 0.987443 -12.2906 
-11.6889 -0.85777 0.271946 
-0.85777 -12.5544 0.466277 
0.271946 0.466277 -14.8625 
-6.5815 2.81253 -2.14221 
2.81253 -10.9102 0.0908624 
-2.14221 0.0908624 -21.6141 
-13.6462 0.597302 0.165935 
0.597302 -12.8092 -1.04211 
0.165935 -1.04211 -12.6504 
-9.8896 -0.0040941 -0.0496985 
-0.0040941 -9.87734 0.00645819 
-0.0496985 0.00645819 -9.9348 
-9.89479 -0.00929461 -0.0413642 
-0.00929461 -9.87584 0.00638799 
-0.0413642 0.00638799 -9.93111 
-9.89846 0.00185126 -0.0240606 
0.00185126 -9.88658 -0.00629301 
-0.0240606 -0.00629301 -9.9167 
-9.89889 -0.00139942 -0.0274339 
-0.00139942 -9.87885 0.0092904 
-0.0274339 0.0092904 -9.92401 
-9.51993 -0.00237324 0.358478 
-0.00237324 -9.47862 -0.00526226 
0.358478 -0.00526226 -9.70292 
-9.44991 -0.16937 0.616549 
-0.16937 -9.34046 -0.0682332 
0.616549 -0.0682332 -9.91109 
-9.37065 -0.00956349 0.330124 
-0.00956349 -9.73795 -0.130124 
0.330124 -0.130124 -9.59286 
-9.65213 -0.113087 0.443737 
-0.113087 -9.64869 -0.124186 
0.443737 -0.124186 -9.40065 
-9.61108 -0.0191639 -0.34699 
-0.0191639 -9.53967 -0.119756 
-0.34699 -0.119756 -9.54174 
-9.58215 -0.0247073 -0.252606 
-0.0247073 -9.56394 -0.124855 
-0.252606 -0.124855 -9.5464 
-9.58958 -0.0263029 -0.318848 
-0.0263029 -9.54078 -0.0895952 
-0.318848 -0.0895952 -9.56213 
-9.53839 -0.00908166 -0.321124 
-0.00908166 -9.50642 -0.107864 
-0.321124 -0.107864 -9.64768 
-9.9842 0.0729491 0.0203727 
0.0729491 -9.9207 0.0562417 
0.0203727 0.0562417 -10.4276 
-9.84022 -0.079061 -0.0762486 
-0.079061 -9.76298 -0.11556 
-0.0762486 -0.11556 -10.7293 
-9.81377 -0.115756 -0.0216161 
-0.115756 -10.3731 0.0586053 
-0.0216161 0.0586053 -10.1456 
-10.0426 0.0443086 -0.108563 
0.0443086 -9.90516 0.40673 
-0.108563 0.40673 -10.3848 
-9.81351 -0.00279429 0.276385 
-0.00279429 -9.81464 -0.218846 
0.276385 -0.218846 -9.89195 
-9.87999 0.0322525 0.28364 
0.0322525 -9.84654 -0.213164 
0.28364 -0.213164 -9.79358 
-9.83015 -0.00950361 0.279673 
-0.00950361 -9.84695 -0.187557 
0.279673 -0.187557 -9.843 
-9.83803 -0.00617143 0.241367 
-0.00617143 -9.84119 -0.173712 
0.241367 -0.173712 -9.84089 
-9.42976 0.141675 0.257658 
0.141675 -9.40949 -0.600588 
0.257658 -0.600588 -9.67951 
-9.57592 0.0801689 0.270267 
0.0801689 -9.53997 -0.342996 
0.270267 -0.342996 -9.40286 
-9.46825 -0.0228396 0.0804131 
-0.0228396 -9.55415 -0.589897 
0.0804131 -0.589897 -9.49636 
-9.40367 -0.00959685 0.0672051 
-0.00959685 -9.53438 -0.474166 
0.0672051 -0.474166 -9.58071 
-6.83232 -1.28468 2.54044 
-1.28468 -8.62625 5.96128 
2.54044 5.96128 -8.06603 
-13.4178 1.74227 3.00565 
1.74227 -6.47169 10.8007 
3.00565 10.8007 -3.63509 
-10.7656 0.285679 0.0956379 
0.285679 -3.84468 1.70863 
0.0956379 1.70863 -8.91426 
-7.04698 -0.97223 1.72502 
-0.97223 -11.6793 0.886127 
1.72502 0.886127 -4.79832 
-3.2975 1.80132 -1.85188 
1.80132 -0.585986 4.66228 
-1.85188 4.66228 -10.0007 
-8.66226 -2.16853 1.30301 
-2.16853 -7.59657 -2.29426 
1.30301 -2.29426 2.37465 
-14.3611 0.775003 0.223926 
0.775003 -12.4526 -4.59224 
0.223926 -4.59224 12.9296 
-3.08749 -1.75412 8.20673 
-1.75412 -10.1307 0.842012 
8.20673 0.842012 -0.666025 
-9.65644 0.102232 -0.133686 
0.102232 -9.35097 0.168089 
-0.133686 0.168089 -9.3756 
-9.51726 -0.119774 0.107669 
-0.119774 -9.59455 0.0864231 
0.107669 0.0864231 -9.27121 
-9.51316 -0.115133 0.091705 
-0.115133 -9.64208 0.0724169 
0.091705 0.0724169 -9.22777 
-9.58524 -0.132199 0.123688 
-0.132199 -9.63235 -0.014253 
0.123688 -0.014253 -9.16543 
-9.58226 0.442047 -0.0373071 
0.442047 -9.21384 0.451155 
-0.0373071 0.451155 -9.04184 
-9.55109 0.226898 0.0867763 
0.226898 -9.06943 0.280945 
0.0867763 0.280945 -9.21742 
-9.64288 0.250313 0.0729518 
0.250313 -9.1697 0.384568 
0.0729518 0.384568 -9.02537 
-9.45738 0.228522 0.080331 
0.228522 -9.26887 0.307544 
0.080331 0.307544 -9.1117 
-9.34282 -0.338536 -0.0431872 
-0.338536 -10.0067 0.0726039 
-0.0431872 0.0726039 -10.1421 
-9.34011 -0.290836 -0.0237643 
-0.290836 -9.94054 -0.0248231 
-0.0237643 -0.0248231 -10.2109 
-9.83985 0.291939 0.759525 
0.291939 -9.38562 -0.095029 
0.759525 -0.095029 -10.2661 
-9.38685 -0.273461 0.040658 
-0.273461 -9.76104 0.104399 
0.040658 0.104399 -10.3437 
-9.85008 -0.0242873 -0.225997 
-0.0242873 -9.79435 -0.110479 
-0.225997 -0.110479 -9.75765 
-9.80906 -0.0119712 -0.214151 
-0.0119712 -9.79137 -0.112053 
-0.214151 -0.112053 -9.80165 
-9.83017 -0.00491263 -0.204852 
-0.00491263 -9.80633 -0.0905641 
-0.204852 -0.0905641 -9.76559 
-9.80978 0.00476063 -0.222204 
0.00476063 -9.79464 -0.086168 
-0.222204 -0.086168 -9.79766 
-9.93623 0.0132088 -0.0358301 
0.0132088 -9.95824 -0.139892 
-0.0358301 -0.139892 -10.0183 
-9.95702 -0.0116537 -0.02884 
-0.0116537 -9.98058 -0.140562 
-0.02884 -0.140562 -9.97516 
-9.95911 0.00213777 -0.0239228 
0.00213777 -9.97877 -0.145076 
-0.0239228 -0.145076 -9.97488 
-9.97426 0.00090713 -0.0213152 
0.00090713 -9.98226 -0.146627 
-0.0213152 -0.146627 -9.95624 
-9.71545 -0.00701303 -0.0356694 
-0.00701303 -9.74309 -0.180919 
-0.0356694 -0.180919 -9.73964 
-9.69832 -0.0102363 -0.0378443 
-0.0102363 -9.75493 -0.164679 
-0.0378443 -0.164679 -9.74494 
-9.71383 0.00188216 -0.033962 
0.00188216 -9.74851 -0.174194 
-0.033962 -0.174194 -9.73585 
-9.71552 -0.0131376 -0.044014 
-0.0131376 -9.7587 -0.184249 
-0.044014 -0.184249 -9.72397 
-9.9132 0.0512116 0.356937 
0.0512116 -9.10128 -0.924823 
0.356937 -0.924823 -9.03944 
-9.33629 -0.303828 0.267086 
-0.303828 -9.22899 -0.846805 
0.267086 -0.846805 -9.48865 
-9.50283 -0.00763664 0.155532 
-0.00763664 -9.07019 -0.897213 
0.155532 -0.897213 -9.48091 
-9.70026 0.45781 -0.116958 
0.45781 -8.89144 -0.201242 
-0.116958 -0.201242 -9.46222 
-9.53259 -0.163605 -0.619967 
-0.163605 -9.71273 0.168781 
-0.619967 0.168781 -9.17533 
-9.52702 -0.11185 -0.723106 
-0.11185 -9.68495 -0.214587 
-0.723106 -0.214587 -9.20869 
-9.44383 0.169321 -0.407284 
0.169321 -9.77433 -0.185742 
-0.407284 -0.185742 -9.2025 
-9.37891 0.128995 -0.517479 
0.128995 -9.57548 0.412638 
-0.517479 0.412638 -9.46627 
-10.1457 -0.580947 0.68914 
-0.580947 -9.26058 0.485572 
0.68914 0.485572 -9.09828 
-9.71765 0.0545029 0.0153749 
0.0545029 -9.33311 0.242247 
0.0153749 0.242247 -9.45384 
-9.49746 -0.0276247 0.14254 
-0.0276247 -9.35067 0.185611 
0.14254 0.185611 -9.65647 
-9.67927 -0.110102 -0.216019 
-0.110102 -9.54579 0.179824 
-0.216019 0.179824 -9.27954 
-9.668 -0.00202506 0.324319 
-0.00202506 -9.56639 -0.100716 
0.324319 -0.100716 -9.62274 
-9.56177 -0.022041 0.369197 
-0.022041 -9.61737 -0.138648 
0.369197 -0.138648 -9.67799 
-9.68495 0.00653671 0.313026 
0.00653671 -9.63328 -0.0760231 
0.313026 -0.0760231 -9.5389 
-9.5881 -0.0235998 0.30487 
-0.0235998 -9.57994 -0.103735 
0.30487 -0.103735 -9.68908 
-9.91757 0.00157459 -0.164696 
0.00157459 -9.89995 0.143931 
-0.164696 0.143931 -9.90011 
-9.91149 0.0013434 -0.157304 
0.0013434 -9.90448 0.145696 
-0.157304 0.145696 -9.90165 
-9.90133 0.0423706 -0.147013 
0.0423706 -9.88205 0.129368 
-0.147013 0.129368 -9.93424 
-9.93431 0.0286731 -0.183077 
0.0286731 -9.92083 0.149673 
-0.183077 0.149673 -9.86249 
-9.91988 -0.0164491 0.158041 
-0.0164491 -9.93212 0.22988 
0.158041 0.22988 -9.91962 
-9.88428 0.0352405 0.165575 
0.0352405 -9.92741 0.183872 
0.165575 0.183872 -9.95993 
-9.93038 -0.00772504 0.158894 
-0.00772504 -9.92369 0.209332 
0.158894 0.209332 -9.91755 
-9.94552 0.0141443 0.163082 
0.0141443 -9.93648 0.259919 
0.163082 0.259919 -9.88961 
-9.79067 0.00152271 -0.0122966 
0.00152271 -9.80072 -0.339892 
-0.0122966 -0.339892 -9.79362 
-9.78316 0.0180118 -0.0202503 
0.0180118 -9.85677 -0.373326 
-0.0202503 -0.373326 -9.74508 
-9.81559 -0.0245451 -0.00786925 
-0.0245451 -9.68671 -0.332095 
-0.00786925 -0.332095 -9.88271 
-9.78412 0.0132288 -0.0541438 
0.0132288 -9.82952 -0.31157 
-0.0541438 -0.31157 -9.77137 
-10.5185 -0.444123 0.24131 
-0.444123 -8.81594 -0.487424 
0.24131 -0.487424 -11.162 
-10.0287 -0.280127 0.360108 
-0.280127 -10.4044 -0.707708 
0.360108 -0.707708 -10.0633 
-10.6828 -0.158544 -0.0224655 
-0.158544 -8.85622 -0.582634 
-0.0224655 -0.582634 -10.9574 
-10.6482 -0.933492 0.295417 
-0.933492 -8.71654 -0.714494 
0.295417 -0.714494 -11.1317 
-9.48001 0.181621 0.577798 
0.181621 -10.1661 -0.0771139 
0.577798 -0.0771139 -10.9507 
-9.60721 -0.067846 0.705031 
-0.067846 -10.0757 -0.14768 
0.705031 -0.14768 -10.9139 
-9.48488 0.32701 -0.0691619 
0.32701 -9.96304 0.0388825 
-0.0691619 0.0388825 -11.1489 
-8.74122 -0.691257 0.571598 
-0.691257 -10.3914 -0.208495 
0.571598 -0.208495 -11.4642 
-9.91812 0.00982663 -0.1618 
0.00982663 -9.89461 -0.201278 
-0.1618 -0.201278 -9.95451 
-9.91693 -0.0138386 -0.186524 
-0.0138386 -9.92836 -0.197125 
-0.186524 -0.197125 -9.92195 
-9.91462 -0.00940472 -0.185063 
-0.00940472 -9.9297 -0.192448 
-0.185063 -0.192448 -9.92292 
-9.94773 0.0257155 -0.211287 
0.0257155 -9.93 -0.199229 
-0.211287 -0.199229 -9.88952 
-9.81977 0.326191 0.303074 
0.326191 -9.82514 0.00864382 
0.303074 0.00864382 -9.94083 
-9.7122 -0.0531213 -0.245165 
-0.0531213 -9.57093 -0.0697299 
-0.245165 -0.0697299 -10.3026 
-9.36944 0.120465 0.0871674 
0.120465 -9.75185 -0.0235322 
0.0871674 -0.0235322 -10.4645 
-9.42088 0.111356 0.0523979 
0.111356 -9.60774 0.114688 
0.0523979 0.114688 -10.5571 
-9.65569 -0.00210042 0.0603109 
-0.00210042 -9.35367 0.240043 
0.0603109 0.240043 -9.39345 
-9.72309 -0.213296 0.299043 
-0.213296 -9.33083 -0.0223368 
0.299043 -0.0223368 -9.34889 
-9.38167 -0.0326004 0.0329699 
-0.0326004 -9.63955 -0.345122 
0.0329699 -0.345122 -9.38159 
-9.72799 -0.199364 -0.158672 
-0.199364 -9.31673 0.181683 
-0.158672 0.181683 -9.35808 
-10.8136 0.436668 0.00738287 
0.436668 -9.54144 0.1968 
0.00738287 0.1968 -10.3409 
-9.54817 -0.363523 -0.0349106 
-0.363523 -9.81052 -0.232596 
-0.0349106 -0.232596 -11.3373 
-10.1401 0.493016 0.0971543 
0.493016 -10.5907 0.29092 
0.0971543 0.29092 -9.96514 
-10.3852 0.34191 0.0539258 
0.34191 -9.72682 0.473833 
0.0539258 0.473833 -10.584 
-9.65899 -0.0145057 -0.0400605 
-0.0145057 -9.77953 -0.0374475 
-0.0400605 -0.0374475 -9.74099 
-9.68909 -0.0317352 -0.0648343 
-0.0317352 -9.71674 -0.0196997 
-0.0648343 -0.0196997 -9.77367 
-9.75035 -0.0434028 -0.0344524 
-0.0434028 -9.67801 -0.0769213 
-0.0344524 -0.0769213 -9.75115 
-9.69898 -0.0131601 0.0133977 
-0.0131601 -9.74216 -0.054451 
0.0133977 -0.054451 -9.73837 
-10.9215 -1.70081 -0.528147 
-1.70081 -8.82273 0.969839 
-0.528147 0.969839 -18.0381 
-11.6314 -1.44262 0.75662 
-1.44262 -8.11294 1.54387 
0.75662 1.54387 -18.0379 
-14.8542 -2.14755 -1.2147 
-2.14755 -14.3451 0.53952 
-1.2147 0.53952 -8.58295 
-12.2105 -0.193838 1.24165 
-0.193838 -9.42824 -3.26536 
1.24165 -3.26536 -16.1435 
-9.64813 0.0121053 -0.0728768 
0.0121053 -9.28234 0.381018 
-0.0728768 0.381018 -9.68562 
-9.49299 -0.0293973 0.0375663 
-0.0293973 -9.68626 0.178658 
0.0375663 0.178658 -9.43684 
-9.52888 -0.032168 -0.0303467 
-0.032168 -9.41025 0.273199 
-0.0303467 0.273199 -9.67697 
-9.52048 -0.000184404 -0.0518538 
-0.000184404 -9.37894 0.22731 
-0.0518538 0.22731 -9.71668 
-9.07441 -0.524606 -0.485449 
-0.524606 -8.90354 0.422324 
-0.485449 0.422324 -10.6251 
-9.03139 -0.59729 -0.376256 
-0.59729 -9.06965 0.178842 
-0.376256 0.178842 -10.502 
-9.40307 0.215288 -0.374821 
0.215288 -10.0115 0.179907 
-0.374821 0.179907 -9.18848 
-9.92994 -0.513049 -0.378018 
-0.513049 -8.51206 0.0845727 
-0.378018 0.0845727 -10.161 
-9.79865 0.0903939 0.113846 
0.0903939 -9.82923 -0.00572893 
0.113846 -0.00572893 -9.2308 
-9.81337 0.141924 0.173367 
0.141924 -9.73923 0.0435477 
0.173367 0.0435477 -9.30607 
-9.60838 -0.0984137 0.0707631 
-0.0984137 -9.39303 -0.22878 
0.0707631 -0.22878 -9.85726 
-9.90936 -0.115214 -0.265834 
-0.115214 -9.92537 0.0819603 
-0.265834 0.0819603 -9.02395 
-9.13565 0.42915 0.57567 
0.42915 -9.22994 0.995724 
0.57567 0.995724 -9.48454 
-8.05438 -0.155513 0.71947 
-0.155513 -10.3615 0.388315 
0.71947 0.388315 -9.43428 
-8.96302 0.548242 0.889563 
0.548242 -9.353 1.25361 
0.889563 1.25361 -9.53412 
-9.21579 1.14863 0.536868 
1.14863 -8.80975 0.92933 
0.536868 0.92933 -9.8246 
-9.39048 0.123943 -0.358976 
0.123943 -9.9489 0.0149376 
-0.358976 0.0149376 -10.3808 
-9.50132 0.195817 -0.621979 
0.195817 -10.081 0.0454967 
-0.621979 0.0454967 -10.1378 
-10.2249 0.394177 0.704167 
0.394177 -9.16755 0.100074 
0.704167 0.100074 -10.3277 
-8.88758 0.353848 -0.0414248 
0.353848 -10.0316 0.102721 
-0.0414248 0.102721 -10.801 
-1.68299 -0.997409 -0.976052 
-0.997409 -10.0228 -1.48416 
-0.976052 -1.48416 -21.0964 
-5.5043 -2.54535 -0.781815 
-2.54535 -10.8565 -1.27884 
-0.781815 -1.27884 -16.4414 
-8.82399 0.877746 2.55871 
0.877746 -16.9578 1.94075 
2.55871 1.94075 -7.02042 
-10.1007 -1.12545 -3.00284 
-1.12545 -10.1204 0.807564 
-3.00284 0.807564 -12.5811 
-7.59072 -1.98284 2.11129 
-1.98284 -13.8055 0.899535 
2.11129 0.899535 -13.731 
-12.6526 6.17609 2.97603 
6.17609 -4.63838 -1.28165 
2.97603 -1.28165 -17.8362 
-10.9305 -1.02927 -2.93468 
-1.02927 -10.438 -1.50743 
-2.93468 -1.50743 -13.7587 
-14.2387 3.36509 -3.81074 
3.36509 -9.83616 -2.32373 
-3.81074 -2.32373 -11.0524 
-9.44817 0.104064 -0.275829 
0.104064 -9.40707 0.191773 
-0.275829 0.191773 -9.40618 
-9.143 -0.184698 -0.253514 
-0.184698 -9.52404 0.10691 
-0.253514 0.10691 -9.59437 
-9.34126 -0.0281355 -0.291977 
-0.0281355 -9.40067 0.167746 
-0.291977 0.167746 -9.51948 
-9.40817 -0.0966154 -0.447351 
-0.0966154 -9.31104 0.170921 
-0.447351 0.170921 -9.5422 
-9.41235 -0.430883 0.189767 
-0.430883 -9.03096 -0.0177248 
0.189767 -0.0177248 -10.4221 
-9.82603 -0.095226 0.0863483 
-0.095226 -9.35615 -0.467128 
0.0863483 -0.467128 -9.68327 
-8.9968 -0.0693972 0.0488076 
-0.0693972 -8.94231 0.457055 
0.0488076 0.457055 -10.9263 
-9.38303 -0.162905 0.429814 
-0.162905 -8.85458 0.134764 
0.429814 0.134764 -10.6278 
-9.77607 0.0249369 0.0162946 
0.0249369 -9.82601 -0.0769003 
0.0162946 -0.0769003 -9.85015 
-9.80361 -0.00399724 0.0570816 
-0.00399724 -9.81659 -0.0615782 
0.0570816 -0.0615782 -9.83203 
-9.79044 0.0130538 0.0486244 
0.0130538 -9.8232 0.00293923 
0.0486244 0.00293923 -9.83859 
-9.77137 -0.00314882 -0.00584507 
-0.00314882 -9.80162 -0.0801339 
-0.00584507 -0.0801339 -9.87925 
-9.96541 0.00886475 0.28135 
0.00886475 -9.96558 -0.196205 
0.28135 -0.196205 -9.92081 
-9.90731 -0.00377833 0.288248 
-0.00377833 -9.94753 -0.193526 
0.288248 -0.193526 -9.99696 
-9.91628 -0.0115638 0.282217 
-0.0115638 -9.95983 -0.182507 
0.282217 -0.182507 -9.97569 
-9.95136 0.0120654 0.282841 
0.0120654 -9.95621 -0.203635 
0.282841 -0.203635 -9.94423 
-9.11322 0.192205 0.0592036 
0.192205 -9.29555 0.204214 
0.0592036 0.204214 -9.63297 
-9.07966 0.0154433 0.384557 
0.0154433 -9.48854 0.126848 
0.384557 0.126848 -9.47354 
-8.87444 0.146223 0.581246 
0.146223 -9.45567 0.317094 
0.581246 0.317094 -9.71163 
-9.3097 -0.0843389 0.586009 
-0.0843389 -9.55381 -0.00729111 
0.586009 -0.00729111 -9.17823 
-9.75457 -0.328516 0.18024 
-0.328516 -9.66273 -0.13435 
0.18024 -0.13435 -10.0335 
-9.90881 -0.0637856 -0.162499 
-0.0637856 -9.69988 0.22362 
-0.162499 0.22362 -9.84213 
-9.86556 -0.0974092 0.0528526 
-0.0974092 -9.66191 0.246628 
0.0528526 0.246628 -9.92336 
-9.64316 -0.148648 -0.181244 
-0.148648 -9.68832 0.105578 
-0.181244 0.105578 -10.1193 
-10.0213 0.283634 -1.25009 
0.283634 -10.0114 -0.672945 
-1.25009 -0.672945 -8.09035 
-10.0894 0.32621 -1.70003 
0.32621 -9.41189 -0.769297 
-1.70003 -0.769297 -8.62174 
-9.29661 -0.130752 -0.186147 
-0.130752 -9.66732 0.543805 
-0.186147 0.543805 -9.15914 
-10.8348 -0.029771 -0.737626 
-0.029771 -10.3271 -1.41879 
-0.737626 -1.41879 -6.96114 
-9.10385 0.713127 -2.66835 
0.713127 -9.49037 -0.93858 
-2.66835 -0.93858 -5.05887 
-7.28226 0.604148 -2.32333 
0.604148 -7.79364 0.0576349 
-2.32333 0.0576349 -8.57718 
-8.54573 0.578042 -0.554386 
0.578042 -9.27172 -0.943678 
-0.554386 -0.943678 -5.83564 
-8.87532 1.04869 -0.487503 
1.04869 -8.54461 -1.53269 
-0.487503 -1.53269 -6.23315 
-9.92233 -0.00537456 0.199488 
-0.00537456 -9.91666 -0.208883 
0.199488 -0.208883 -9.964 
-9.91597 -0.00497976 0.222958 
-0.00497976 -9.94313 -0.21006 
0.222958 -0.21006 -9.94389 
-9.92827 -0.00458031 0.237314 
-0.00458031 -9.94406 -0.229745 
0.237314 -0.229745 -9.93066 
-9.961 0.0171419 0.23893 
0.0171419 -9.93741 -0.228523 
0.23893 -0.228523 -9.90458 
-8.3878 -0.047454 0.758455 
-0.047454 -8.37879 -3.11683 
0.758455 -3.11683 -5.22811 
-7.34413 -0.456019 0.576274 
-0.456019 -8.23906 -3.50486 
0.576274 -3.50486 -6.41151 
-8.86008 0.464744 1.37791 
0.464744 -6.85895 -3.10973 
1.37791 -3.10973 -6.27567 
-7.2781 -0.823154 -0.838732 
-0.823154 -8.25877 -2.76912 
-0.838732 -2.76912 -6.45782 
-9.72009 -0.0285629 -0.318012 
-0.0285629 -9.75197 0.156037 
-0.318012 0.156037 -9.80994 
-9.79675 0.0430495 -0.321031 
0.0430495 -9.77465 0.14419 
-0.321031 0.14419 -9.71061 
-9.75466 0.00176651 -0.30271 
0.00176651 -9.76614 0.151648 
-0.30271 0.151648 -9.76121 
-9.76599 0.00478752 -0.281095 
0.00478752 -9.7449 0.0956019 
-0.281095 0.0956019 -9.77112 
-13.8359 2.582 2.95477 
2.582 -15.7257 -7.63859 
2.95477 -7.63859 9.45981 
-7.34732 1.41527 4.1249 
1.41527 -15.9242 -5.358 
4.1249 -5.358 3.16969 
-2.08345 2.46524 -3.46672 
2.46524 -0.129158 4.74823 
-3.46672 4.74823 -17.8892 
-6.29851 -7.81116 3.59948 
-7.81116 2.34837 -9.50527 
3.59948 -9.50527 -16.1517 
-9.43864 -1.86563 0.114568 
-1.86563 -8.73719 0.00427494 
0.114568 0.00427494 -17.5247 
-10.5355 -1.17695 -0.431145 
-1.17695 -12.8409 0.247301 
-0.431145 0.247301 -12.3241 
-10.9885 0.854005 0.239864 
0.854005 -9.38975 -0.133423 
0.239864 -0.133423 -15.3223 
-11.846 -1.73533 0.678866 
-1.73533 -11.148 0.921341 
0.678866 0.921341 -12.7066 
-9.40781 -6.36632e-05 0.340786 
-6.36632e-05 -9.76621 -0.259147 
0.340786 -0.259147 -9.49237 
-9.50405 0.271686 0.0783677 
0.271686 -9.80623 -0.086303 
0.0783677 -0.086303 -9.3561 
-9.57988 0.00903161 0.162783 
0.00903161 -9.56918 -0.266031 
0.162783 -0.266031 -9.51733 
-9.53772 0.0586509 0.188851 
0.0586509 -9.75076 -0.153597 
0.188851 -0.153597 -9.37791 
-8.40387 -1.68226 1.6129 
-1.68226 -11.5509 -0.62529 
1.6129 -0.62529 -10.6922 
0.756877 -3.3298 -2.9456 
-3.3298 -8.98429 1.37276 
-2.9456 1.37276 -22.4196 
-4.84673 -2.83817 -1.94016 
-2.83817 -8.34164 -0.215757 
-1.94016 -0.215757 -17.4586 
-9.44561 -0.568795 -2.73525 
-0.568795 -9.57673 -0.151996 
-2.73525 -0.151996 -11.6247 
-1.49278 -0.257013 -1.21931 
-0.257013 -3.16547 1.51313 
-1.21931 1.51313 -3.10914 
-5.50036 0.0869215 1.48886 
0.0869215 -3.79625 1.17326 
1.48886 1.17326 1.52923 
-5.70439 -2.40691 0.916009 
-2.40691 -4.12494 0.95336 
0.916009 0.95336 2.06194 
-6.01345 -0.252257 -1.40212 
-0.252257 -2.93695 1.70313 
-1.40212 1.70313 1.18301 
-9.4287 0.300585 -0.377198 
0.300585 -9.53852 -0.0273395 
-0.377198 -0.0273395 -8.29551 
-9.76343 -0.83048 1.29948 
-0.83048 -9.53936 -1.00034 
1.29948 -1.00034 -7.95995 
-9.49486 -0.675239 0.167259 
-0.675239 -9.86087 -0.896098 
0.167259 -0.896098 -7.90701 
-10.5677 -0.536372 0.762265 
-0.536372 -8.80687 -1.97595 
0.762265 -1.97595 -7.88818 
-9.91259 -0.0285627 -0.0538274 
-0.0285627 -9.59918 -0.0778861 
-0.0538274 -0.0778861 -10.6241 
-10.0959 -0.264005 0.252176 
-0.264005 -9.65946 0.408042 
0.252176 0.408042 -10.3805 
-10.1031 0.415807 -0.144645 
0.415807 -9.68948 0.0543511 
-0.144645 0.0543511 -10.3433 
-9.90021 -0.0462687 -0.190669 
-0.0462687 -9.76515 0.084232 
-0.190669 0.084232 -10.4705 
-9.27955 0.356809 -0.00341337 
0.356809 -10.0171 -0.140797 
-0.00341337 -0.140797 -10.7282 
-9.77852 0.307202 0.205815 
0.307202 -9.57732 0.389006 
0.205815 0.389006 -10.669 
-9.65145 0.584227 0.299773 
0.584227 -9.24815 0.201243 
0.299773 0.201243 -11.1253 
-9.74221 0.434041 0.214219 
0.434041 -9.49844 0.185504 
0.214219 0.185504 -10.7842 
-2.1011 0.269773 -2.48286 
0.269773 -2.24062 1.09447 
-2.48286 1.09447 -8.56761 
-7.04669 0.780643 1.25891 
0.780643 -7.23933 0.775427 
1.25891 0.775427 1.37669 
-9.14327 0.150634 -0.0913513 
0.150634 -7.50969 -0.586843 
-0.0913513 -0.586843 3.74363 
-7.25036 1.0253 -1.54716 
1.0253 -6.15007 5.30078 
-1.54716 5.30078 0.491093 
-10.3602 0.610901 0.475908 
0.610901 -7.60453 -1.94282 
0.475908 -1.94282 -8.12693 
-10.803 -0.159785 -0.261589 
-0.159785 -9.1717 2.36039 
-0.261589 2.36039 -6.11698 
-9.24574 -0.408721 -0.225766 
-0.408721 -8.35559 2.08665 
-0.225766 2.08665 -8.49034 
-9.10086 -0.561198 -0.210477 
-0.561198 -9.11137 1.65553 
-0.210477 1.65553 -7.87944 
-9.8216 0.31842 -0.47468 
0.31842 -9.40257 0.384904 
-0.47468 0.384904 -9.67493 
-9.60793 -0.775272 0.683478 
-0.775272 -9.68316 -0.0132467 
0.683478 -0.0132467 -9.60801 
-9.63807 -0.128331 -0.365099 
-0.128331 -9.21406 0.242306 
-0.365099 0.242306 -10.047 
-9.28828 -0.360135 -0.489683 
-0.360135 -8.68657 0.470613 
-0.489683 0.470613 -10.9243 
-9.90314 0.0118103 0.0509279 
0.0118103 -9.90469 -0.0224835 
0.0509279 -0.0224835 -9.96727 
-9.91248 0.00812101 0.0240318 
0.00812101 -9.90657 -0.00911952 
0.0240318 -0.00911952 -9.95606 
-9.91806 -0.00538399 0.0437156 
-0.00538399 -9.90692 -0.00927685 
0.0437156 -0.00927685 -9.95012 
-9.91313 0.01565 0.0136834 
0.01565 -9.9383 0.00155042 
0.0136834 0.00155042 -9.92367 
-10.1406 -0.0519855 0.274498 
-0.0519855 -10.1812 0.257955 
0.274498 0.257955 -8.21576 
-10.0227 -0.0666832 -0.0818694 
-0.0666832 -9.92892 0.0530633 
-0.0818694 0.0530633 -8.58591 
-10.4671 -0.835152 -0.0773965 
-0.835152 -9.99199 -0.434774 
-0.0773965 -0.434774 -8.07844 
-9.79735 -0.01573 -0.102207 
-0.01573 -10.1444 -0.0514971 
-0.102207 -0.0514971 -8.59578 
-9.54568 -0.0653287 0.333825 
-0.0653287 -9.56408 -0.169281 
0.333825 -0.169281 -9.66951 
-9.6034 0.0352852 0.291032 
0.0352852 -9.61182 -0.154414 
0.291032 -0.154414 -9.56405 
-9.62247 0.0580136 0.267599 
0.0580136 -9.58072 -0.165241 
0.267599 -0.165241 -9.57608 
-9.5251 -0.0134011 0.295124 
-0.0134011 -9.61846 -0.0864037 
0.295124 -0.0864037 -9.63571 
-9.91124 -0.00952618 -0.974438 
-0.00952618 -10.067 -0.201311 
-0.974438 -0.201311 -8.52189 
-10.6193 -0.0778788 -0.641755 
-0.0778788 -9.60333 -0.218012 
-0.641755 -0.218012 -8.2775 
-9.72872 -0.143116 -0.587429 
-0.143116 -10.0751 -0.191698 
-0.587429 -0.191698 -8.69633 
-9.60118 0.115022 -0.392126 
0.115022 -10.1006 -0.150285 
-0.392126 -0.150285 -8.79839 
-9.511 0.125311 -0.584173 
0.125311 -9.39219 -0.0844259 
-0.584173 -0.0844259 -9.44997 
-9.43663 0.148109 -0.351148 
0.148109 -9.38763 0.206575 
-0.351148 0.206575 -9.52889 
-9.64078 -0.00858604 -0.326219 
-0.00858604 -9.45645 0.0144562 
-0.326219 0.0144562 -9.25592 
-9.61831 0.0934868 -0.365015 
0.0934868 -9.3515 0.109905 
-0.365015 0.109905 -9.38334 
-9.8758 0.00537153 -0.124494 
0.00537153 -9.83829 0.0475207 
-0.124494 0.0475207 -9.87102 
-9.85395 0.00198949 -0.13512 
0.00198949 -9.84915 0.0656614 
-0.13512 0.0656614 -9.88201 
-9.8751 0.0118169 -0.1138 
0.0118169 -9.85041 0.0488971 
-0.1138 0.0488971 -9.85961 
-9.8855 0.0210999 -0.112221 
0.0210999 -9.86419 0.0221504 
-0.112221 0.0221504 -9.83542 
-9.70717 0.0224361 -0.330148 
0.0224361 -9.80065 0.00810247 
-0.330148 0.00810247 -9.88082 
-9.78072 -0.00274601 -0.335422 
-0.00274601 -9.80497 0.0244837 
-0.335422 0.0244837 -9.80294 
-9.85106 -0.0140114 -0.372965 
-0.0140114 -9.79731 0.0186119 
-0.372965 0.0186119 -9.74026 
-9.82021 -0.00639577 -0.319379 
-0.00639577 -9.79525 0.0557402 
-0.319379 0.0557402 -9.77317 
-9.6219 -0.00296674 -0.0104671 
-0.00296674 -9.49865 -0.359263 
-0.0104671 -0.359263 -9.53547 
-9.48214 -0.0644904 -0.0247795 
-0.0644904 -9.62937 -0.468646 
-0.0247795 -0.468646 -9.54452 
-9.62138 0.0270273 -0.13752 
0.0270273 -9.53778 -0.426914 
-0.13752 -0.426914 -9.49686 
-9.91169 0.177731 0.0721912 
0.177731 -9.23406 -0.549193 
0.0721912 -0.549193 -9.51027 
-9.42479 0.118596 0.372473 
0.118596 -9.52554 0.120309 
0.372473 0.120309 -9.73738 
-9.46655 0.008139 0.44505 
0.008139 -9.69808 0.108453 
0.44505 0.108453 -9.52308 
-9.4531 -0.0458474 0.183753 
-0.0458474 -9.41489 0.210034 
0.183753 0.210034 -9.81972 
-9.11091 0.00923824 0.459189 
0.00923824 -9.59587 0.339503 
0.459189 0.339503 -9.98091 
-9.67646 -0.00998647 -0.571344 
-0.00998647 -9.56361 -0.0151809 
-0.571344 -0.0151809 -9.12225 
-10.006 0.0427976 -0.30606 
0.0427976 -9.84343 0.120515 
-0.30606 0.120515 -8.51291 
-9.62439 0.0704903 -0.345037 
0.0704903 -9.2735 0.260044 
-0.345037 0.260044 -9.46442 
-9.63834 0.0663099 -0.509674 
0.0663099 -9.71323 0.0815315 
-0.509674 0.0815315 -9.01074 
-16.1784 0.403532 -0.396228 
0.403532 -13.5625 -1.0312 
-0.396228 -1.0312 -7.76358 
-9.62822 0.931981 1.0363 
0.931981 -8.63553 2.1432 
1.0363 2.1432 -19.2407 
-10.3179 1.7691 -0.403762 
1.7691 -8.85297 -0.839175 
-0.403762 -0.839175 -18.3337 
-11.9247 3.03531 -7.36624 
3.03531 -10.9892 2.56769 
-7.36624 2.56769 -14.5905 
-9.79494 -0.0694099 -0.204838 
-0.0694099 -9.34565 0.0465358 
-0.204838 0.0465358 -10.2134 
-9.58471 -0.161899 0.0934189 
-0.161899 -9.53829 0.400951 
0.0934189 0.400951 -10.2309 
-9.606 0.0568627 -0.297177 
0.0568627 -9.73547 0.195757 
-0.297177 0.195757 -10.0125 
-9.65236 -0.0131167 -0.0770976 
-0.0131167 -9.50991 0.170228 
-0.0770976 0.170228 -10.1917 
-9.95712 -0.00594314 0.0306631 
-0.00594314 -9.94969 -0.0932205 
0.0306631 -0.0932205 -10.0095 
-9.95903 -0.0129282 0.0199216 
-0.0129282 -9.96787 -0.0999546 
0.0199216 -0.0999546 -9.98945 
-9.965 -0.0023724 0.0242827 
-0.0023724 -9.97855 -0.0925093 
0.0242827 -0.0925093 -9.9728 
-9.97871 0.00131874 0.02104 
0.00131874 -9.97785 -0.0953622 
0.02104 -0.0953622 -9.9598 
-5.12556 0.0691254 1.05417 
0.0691254 -5.82072 1.7191 
1.05417 1.7191 -2.39204 
-5.53331 -0.139526 1.35438 
-0.139526 -6.75606 1.51914 
1.35438 1.51914 -1.04896 
-5.47324 -0.171367 0.884501 
-0.171367 -5.6398 1.77392 
0.884501 1.77392 -2.22529 
-4.71391 -0.447782 0.238827 
-0.447782 -5.71937 1.38304 
0.238827 1.38304 -2.90505 
-6.6259 2.75438 0.00633208 
2.75438 -10.9039 -1.0424 
0.00633208 -1.0424 -15.8139 
-4.3195 1.10809 -0.172527 
1.10809 -10.3496 -0.99783 
-0.172527 -0.99783 -18.6745 
-9.68957 0.16172 -1.88656 
0.16172 -14.0138 1.03344 
-1.88656 1.03344 -9.64029 
-9.41197 0.710836 0.800787 
0.710836 -10.3319 0.526843 
0.800787 0.526843 -13.5997 
-9.66989 -0.00642948 0.161189 
-0.00642948 -9.68661 0.308994 
0.161189 0.308994 -9.65987 
-9.66917 0.0434395 0.18886 
0.0434395 -9.62257 0.340917 
0.18886 0.340917 -9.72463 
-9.68944 -0.0630099 0.124552 
-0.0630099 -9.71925 0.309975 
0.124552 0.309975 -9.60768 
-9.61437 0.0273441 0.110487 
0.0273441 -9.63869 0.286733 
0.110487 0.286733 -9.76331 
-11.084 0.100174 -0.112897 
0.100174 -8.5408 -0.117396 
-0.112897 -0.117396 -11.0983 
-9.6517 0.34656 0.289515 
0.34656 -10.1626 -0.566484 
0.289515 -0.566484 -10.9087 
-9.18099 0.500129 -0.48825 
0.500129 -9.65829 0.0600167 
-0.48825 0.0600167 -11.8838 
-10.5071 0.249479 0.253756 
0.249479 -8.96824 -0.913904 
0.253756 -0.913904 -11.2477 
-8.97805 -0.137964 0.149536 
-0.137964 -9.38764 0.219959 
0.149536 0.219959 -9.46033 
-9.04705 -0.170103 0.0861932 
-0.170103 -9.25885 0.207062 
0.0861932 0.207062 -9.52012 
-8.97417 -0.239885 0.0263968 
-0.239885 -9.3008 0.253305 
0.0263968 0.253305 -9.55105 
-8.92553 0.0287044 0.163166 
0.0287044 -9.47863 0.0970908 
0.163166 0.0970908 -9.42186 
-9.51417 0.292403 -0.827337 
0.292403 -8.90414 -1.69423 
-0.827337 -1.69423 -6.8318 
-9.37508 -0.0670338 -0.759283 
-0.0670338 -8.98407 -1.22221 
-0.759283 -1.22221 -6.89097 
-8.91919 0.161803 -0.953046 
0.161803 -8.61253 -1.13531 
-0.953046 -1.13531 -7.7184 
-9.1611 -0.152586 -0.555711 
-0.152586 -8.75161 -0.816028 
-0.555711 -0.816028 -7.3374 
-9.76952 -0.00182862 -0.0294027 
-0.00182862 -9.75775 -0.028444 
-0.0294027 -0.028444 -9.88712 
-9.75992 -0.00154602 -0.0289417 
-0.00154602 -9.76895 -0.0182556 
-0.0289417 -0.0182556 -9.88553 
-9.75769 -0.00104156 -0.0257553 
-0.00104156 -9.77206 -0.0175727 
-0.0257553 -0.0175727 -9.88464 
-9.77853 -0.00156152 -0.0319824 
-0.00156152 -9.7603 -0.0200635 
-0.0319824 -0.0200635 -9.87557 
-10.3351 0.439939 0.278207 
0.439939 -8.46655 -1.4797 
0.278207 -1.4797 -11.2103 
-10.4404 0.704262 0.506643 
0.704262 -8.46142 -0.642447 
0.506643 -0.642447 -11.1101 
-11.3051 0.395331 0.7137 
0.395331 -9.34884 -1.03638 
0.7137 -1.03638 -9.35795 
-10.0566 0.783476 0.146448 
0.783476 -8.7525 -0.648848 
0.146448 -0.648848 -11.2029 
-9.35485 -0.153051 0.0268564 
-0.153051 -9.92779 -0.0591398 
0.0268564 -0.0591398 -10.3859 
-9.49444 -0.102333 0.0201439 
-0.102333 -9.6361 0.00538587 
0.0201439 0.00538587 -10.538 
-9.33019 -0.0486103 -0.259559 
-0.0486103 -9.67062 0.48787 
-0.259559 0.48787 -10.6677 
-9.85961 0.0897227 -0.392647 
0.0897227 -9.9524 -0.344008 
-0.392647 -0.344008 -9.85654 
-9.89849 0.0016359 0.0197786 
0.0016359 -9.95275 0.0610329 
0.0197786 0.0610329 -10.126 
-9.9395 0.0784066 -0.0769847 
0.0784066 -9.94541 -0.0745039 
-0.0769847 -0.0745039 -10.0924 
-9.88099 0.0399527 -0.0975804 
0.0399527 -9.91211 -0.0473996 
-0.0975804 -0.0473996 -10.1842 
-9.99238 0.0880255 0.0126479 
0.0880255 -9.90196 0.00765335 
0.0126479 0.00765335 -10.0829 
-9.88113 0.00771217 -0.0579076 
0.00771217 -9.88402 0.001935 
-0.0579076 0.001935 -9.92983 
-9.89144 0.00912222 -0.0560198 
0.00912222 -9.86866 0.000260322 
-0.0560198 0.000260322 -9.93489 
-9.88737 0.0171631 -0.0581026 
0.0171631 -9.90151 0.0146711 
-0.0581026 0.0146711 -9.9061 
-9.88896 0.00548792 -0.061619 
0.00548792 -9.88936 0.0151982 
-0.061619 0.0151982 -9.91666 
-9.79156 -0.0192708 -0.359737 
-0.0192708 -9.51588 0.300922 
-0.359737 0.300922 -9.57054 
-9.83628 0.0807155 -0.175964 
0.0807155 -9.60418 0.191423 
-0.175964 0.191423 -9.43751 
-9.67874 0.0977102 -0.261882 
0.0977102 -9.60469 0.0808392 
-0.261882 0.0808392 -9.59454 
-9.9391 0.189637 -0.101745 
0.189637 -9.4772 0.156463 
-0.101745 0.156463 -9.46168 
-9.59181 0.0987791 -0.299863 
0.0987791 -9.44126 0.117803 
-0.299863 0.117803 -9.52778 
-9.56903 0.104706 -0.279351 
0.104706 -9.54657 0.166589 
-0.279351 0.166589 -9.44524 
-9.3191 -0.138248 -0.227063 
-0.138248 -9.48779 -0.0171936 
-0.227063 -0.0171936 -9.75396 
-9.37354 -0.017216 -0.386515 
-0.017216 -9.39357 0.252756 
-0.386515 0.252756 -9.79373 
-10.8788 0.099378 -2.71353 
0.099378 -8.14185 -0.973942 
-2.71353 -0.973942 -11.5039 
-9.45654 1.395 -0.980845 
1.395 -9.91403 -0.744381 
-0.980845 -0.744381 -11.154 
-12.0685 -0.971109 -2.35333 
-0.971109 -8.16233 -0.0791461 
-2.35333 -0.0791461 -10.2937 
-9.87733 0.398361 -0.682651 
0.398361 -9.75006 -1.32442 
-0.682651 -1.32442 -10.8972 
-9.76931 -0.0955878 -0.232339 
-0.0955878 -9.43271 -0.149914 
-0.232339 -0.149914 -9.47804 
-9.42054 0.0503689 -0.175473 
0.0503689 -9.56795 -0.07212 
-0.175473 -0.07212 -9.69157 
-9.54416 -0.0144693 -0.243528 
-0.0144693 -9.49842 -0.136825 
-0.243528 -0.136825 -9.63748 
-9.49169 0.0324668 -0.268164 
0.0324668 -9.5074 -0.088621 
-0.268164 -0.088621 -9.68097 
-9.74881 0.00354555 0.24587 
0.00354555 -9.74438 -0.255281 
0.24587 -0.255281 -9.70652 
-9.73641 0.0203825 0.242672 
0.0203825 -9.74054 -0.246324 
0.242672 -0.246324 -9.72275 
-9.76869 0.00717707 0.181915 
0.00717707 -9.82552 -0.235028 
0.181915 -0.235028 -9.60549 
-9.66419 0.0104743 0.234996 
0.0104743 -9.71397 -0.198052 
0.234996 -0.198052 -9.82154 
-9.91688 0.0121249 -0.0296255 
0.0121249 -9.90274 -0.0152318 
-0.0296255 -0.0152318 -9.95638 
-9.91519 0.00653931 -0.0455276 
0.00653931 -9.89354 0.0137126 
-0.0455276 0.0137126 -9.96727 
-9.919 0.000712821 -0.0402459 
0.000712821 -9.90569 0.0124097 
-0.0402459 0.0124097 -9.95131 
-9.93089 0.00729007 -0.0211009 
0.00729007 -9.91172 -0.0167528 
-0.0211009 -0.0167528 -9.93338 
-10.1138 -0.0165894 0.0814061 
-0.0165894 -9.82597 -0.00889654 
0.0814061 -0.00889654 -10.2725 
-9.94655 -0.201259 0.0883069 
-0.201259 -9.89675 0.0703192 
0.0883069 0.0703192 -10.369 
-10.0645 -0.146815 0.00220139 
-0.146815 -9.91129 -0.12639 
0.00220139 -0.12639 -10.2364 
-10.0705 -0.032389 0.083216 
-0.032389 -9.80242 -0.0367011 
0.083216 -0.0367011 -10.3394 
-9.97705 -0.0126217 -0.0541331 
-0.0126217 -9.97745 0.270781 
-0.0541331 0.270781 -9.95913 
-9.93024 0.000348738 -0.0377207 
0.000348738 -9.93098 0.266061 
-0.0377207 0.266061 -10.0524 
-9.98882 -0.00737837 -0.0551822 
-0.00737837 -9.95728 0.274452 
-0.0551822 0.274452 -9.96754 
-9.97856 -0.00686286 -0.0406635 
-0.00686286 -9.9891 0.283244 
-0.0406635 0.283244 -9.94598 
-9.6944 0.0638889 -0.1016 
0.0638889 -9.66498 0.00503714 
-0.1016 0.00503714 -9.60876 
-9.68808 0.0570907 -0.0655336 
0.0570907 -9.68634 0.0897003 
-0.0655336 0.0897003 -9.59373 
-9.68592 0.0190933 -0.154438 
0.0190933 -9.66801 0.0487396 
-0.154438 0.0487396 -9.61421 
-9.69668 0.016356 -0.0604391 
0.016356 -9.62011 0.120247 
-0.0604391 0.120247 -9.65135 
-9.57297 0.089942 0.213682 
0.089942 -7.98088 0.37005 
0.213682 0.37005 -7.9358 
-8.89396 0.247691 0.315538 
0.247691 -9.6365 0.0183909 
0.315538 0.0183909 -6.95919 
-8.73283 0.298542 0.201573 
0.298542 -9.47749 -0.520875 
0.201573 -0.520875 -7.27932 
-8.93411 0.0745443 0.162239 
0.0745443 -10.297 0.32826 
0.162239 0.32826 -6.25857 
-10.3081 0.401811 -0.021754 
0.401811 -8.85968 1.23699 
-0.021754 1.23699 -8.81368 
-9.86052 -0.00315348 0.189401 
-0.00315348 -9.45343 0.033285 
0.189401 0.033285 -8.66747 
-9.17834 -0.576704 0.132548 
-0.576704 -10.9008 0.692843 
0.132548 0.692843 -7.90227 
-9.86161 0.243905 0.274618 
0.243905 -9.47387 0.241077 
0.274618 0.241077 -8.64595 
-9.63575 -0.0323129 0.000682309 
-0.0323129 -9.74796 -0.0331095 
0.000682309 -0.0331095 -9.68243 
-9.7636 -0.0631496 0.00286824 
-0.0631496 -9.7039 -0.0769337 
0.00286824 -0.0769337 -9.59864 
-9.67186 -0.0261272 -0.0317789 
-0.0261272 -9.74651 -0.0469096 
-0.0317789 -0.0469096 -9.64777 
-9.66177 -0.00637207 -0.108265 
-0.00637207 -9.73796 -0.0817359 
-0.108265 -0.0817359 -9.66641 
-3.16632 1.18203 -0.695287 
1.18203 -5.46049 0.786026 
-0.695287 0.786026 -0.289228 
-4.30503 0.301191 -1.93584 
0.301191 -4.91561 1.57459 
-1.93584 1.57459 0.304595 
-2.01989 0.762141 1.26962 
0.762141 -2.28533 1.06897 
1.26962 1.06897 -4.61083 
-4.59381 1.27047 1.18662 
1.27047 -3.88174 1.06993 
1.18662 1.06993 -0.440491 
-9.57186 0.00320327 -0.192576 
0.00320327 -9.68863 -0.127105 
-0.192576 -0.127105 -10.0326 
-9.6315 0.0355656 -0.172451 
0.0355656 -9.59108 0.106581 
-0.172451 0.106581 -10.0705 
-9.72978 -0.104939 -0.0990032 
-0.104939 -9.53055 0.224943 
-0.0990032 0.224943 -10.0328 
-9.73687 -0.0713561 -0.108682 
-0.0713561 -9.42963 0.201552 
-0.108682 0.201552 -10.1266 
-9.71185 0.00502751 -0.0040381 
0.00502751 -9.73793 -0.0504452 
-0.0040381 -0.0504452 -9.80946 
-9.72556 -0.0131472 -0.0755335 
-0.0131472 -9.74532 -0.0297804 
-0.0755335 -0.0297804 -9.78835 
-9.70165 -0.0235121 -0.0407832 
-0.0235121 -9.72909 -0.000184887 
-0.0407832 -0.000184887 -9.8285 
-9.70568 -0.0290164 0.00151428 
-0.0290164 -9.7713 -0.0458056 
0.00151428 -0.0458056 -9.78226 
-9.44938 0.0303547 -0.0515318 
0.0303547 -9.59522 0.344064 
-0.0515318 0.344064 -9.53131 
-9.53447 0.0106121 -0.147936 
0.0106121 -9.54185 0.363835 
-0.147936 0.363835 -9.49958 
-9.62602 -0.00225646 -0.100025 
-0.00225646 -9.52743 0.302484 
-0.100025 0.302484 -9.42246 
-9.54117 0.0241676 -0.254595 
0.0241676 -9.53902 0.33063 
-0.254595 0.33063 -9.49572 
-9.59716 -0.168862 0.274156 
-0.168862 -9.04968 -0.516067 
0.274156 -0.516067 -9.54933 
-9.48218 -0.160154 0.313013 
-0.160154 -9.11855 -0.499497 
0.313013 -0.499497 -9.59544 
-9.60215 -0.108269 0.217609 
-0.108269 -9.11387 -0.720536 
0.217609 -0.720536 -9.48016 
-9.18693 -0.376256 0.226059 
-0.376256 -9.5414 -0.37042 
0.226059 -0.37042 -9.46784 
-9.86291 0.0107998 -0.201921 
0.0107998 -9.849 0.111684 
-0.201921 0.111684 -9.85168 
-9.87097 0.0110293 -0.192402 
0.0110293 -9.85553 0.115688 
-0.192402 0.115688 -9.83709 
-9.89066 0.0102518 -0.206465 
0.0102518 -9.87679 0.114061 
-0.206465 0.114061 -9.79614 
-9.86645 0.0186643 -0.189312 
0.0186643 -9.86138 0.12277 
-0.189312 0.12277 -9.83576 
-11.7712 0.756979 0.39155 
0.756979 -9.34047 -0.486745 
0.39155 -0.486745 -11.8027 
-11.3936 -1.10245 0.292316 
-1.10245 -9.77557 -1.60757 
0.292316 -1.60757 -11.7451 
-10.638 -1.93385 -0.190675 
-1.93385 -9.01989 -1.72578 
-0.190675 -1.72578 -13.2564 
-10.8091 -0.328065 1.1868 
-0.328065 -10.1442 -1.72298 
1.1868 -1.72298 -11.961 
-9.74816 0.00625094 -0.0222218 
0.00625094 -9.73359 -0.0273656 
-0.0222218 -0.0273656 -9.8678 
-9.73813 -0.0064433 -0.015104 
-0.0064433 -9.73406 -0.0179944 
-0.015104 -0.0179944 -9.87736 
-9.74442 0.00561935 -0.0108999 
0.00561935 -9.74421 -0.0402317 
-0.0108999 -0.0402317 -9.86092 
-9.75312 0.00053502 -0.0287376 
0.00053502 -9.7419 -0.0428367 
-0.0287376 -0.0428367 -9.85453 
-7.26714 -0.09476 0.418244 
-0.09476 -4.50268 1.17127 
0.418244 1.17127 4.11022 
-2.70963 -1.99489 1.51341 
-1.99489 -7.0498 1.08557 
1.51341 1.08557 2.09983 
-0.237148 0.864375 -1.47817 
0.864375 -0.891334 -1.94568 
-1.47817 -1.94568 -6.53112 
-4.82705 -0.962279 -0.313113 
-0.962279 -5.16625 -3.12138 
-0.313113 -3.12138 2.33369 
-9.87761 -0.0969997 -0.0551627 
-0.0969997 -9.07562 0.754366 
-0.0551627 0.754366 -9.78918 
-8.67926 -0.246459 0.190815 
-0.246459 -10.1356 -0.899065 
0.190815 -0.899065 -9.9276 
-9.78109 0.0410641 -0.0328058 
0.0410641 -9.00242 0.494754 
-0.0328058 0.494754 -9.9589 
-10.0691 -0.266763 0.0512848 
-0.266763 -7.9038 -0.0358659 
0.0512848 -0.0358659 -10.7695 
-8.41405 -0.0769702 0.231632 
-0.0769702 -6.76172 -0.854929 
0.231632 -0.854929 -0.931307 
-7.04785 -2.44581 -1.1876 
-2.44581 -7.04937 2.10982 
-1.1876 2.10982 -2.00986 
-6.70596 -0.318698 0.672601 
-0.318698 -7.98217 -1.5719 
0.672601 -1.5719 -1.41895 
-7.19869 -0.555745 -1.19445 
-0.555745 -5.84385 0.897012 
-1.19445 0.897012 -3.06453 
-4.56339 1.39934 -0.149827 
1.39934 -5.81026 -2.21648 
-0.149827 -2.21648 0.110655 
-3.35928 0.857534 0.491187 
0.857534 -5.0218 -0.959054 
0.491187 -0.959054 -1.8819 
-2.87869 0.0879475 1.03392 
0.0879475 -4.13506 -0.764203 
1.03392 -0.764203 -3.24924 
-3.38124 -0.634416 1.14318 
-0.634416 -5.64787 0.252935 
1.14318 0.252935 -1.23388 
-9.61062 0.0205017 -0.107036 
0.0205017 -9.754 0.202801 
-0.107036 0.202801 -9.6251 
-9.61775 -0.00876168 -0.185148 
-0.00876168 -9.75956 0.217897 
-0.185148 0.217897 -9.6124 
-9.62685 0.0540957 -0.0593453 
0.0540957 -9.68261 0.236933 
-0.0593453 0.236933 -9.68025 
-9.73922 0.136686 -0.146355 
0.136686 -9.69434 0.161308 
-0.146355 0.161308 -9.55616 
-9.81064 0.335636 0.0823452 
0.335636 -10.6845 -0.0640485 
0.0823452 -0.0640485 -11.5786 
-11.0181 -1.71877 -0.0320555 
-1.71877 -10.9488 -0.154496 
-0.0320555 -0.154496 -10.1068 
-7.85525 -0.123164 0.449119 
-0.123164 -10.869 -0.209414 
0.449119 -0.209414 -13.3495 
-9.39605 -0.471514 0.355718 
-0.471514 -11.4442 1.50071 
0.355718 1.50071 -11.2334 
-9.89974 0.0166885 -0.196815 
0.0166885 -9.90272 0.0890232 
-0.196815 0.0890232 -9.79099 
-9.88334 0.00807487 -0.173704 
0.00807487 -9.86994 0.0692129 
-0.173704 0.0692129 -9.84018 
-9.87584 0.0104512 -0.192008 
0.0104512 -9.85761 0.0789857 
-0.192008 0.0789857 -9.85999 
-9.88371 0.0128245 -0.171596 
0.0128245 -9.86525 0.0692393 
-0.171596 0.0692393 -9.84449 
-9.81053 -0.00851964 -0.0311542 
-0.00851964 -9.79654 -0.0451755 
-0.0311542 -0.0451755 -9.86937 
-9.80907 -0.00600471 -0.0422187 
-0.00600471 -9.7917 -0.041617 
-0.0422187 -0.041617 -9.87567 
-9.8049 -0.00286965 -0.0382151 
-0.00286965 -9.79723 -0.0287925 
-0.0382151 -0.0287925 -9.8743 
-9.80085 -0.000376564 -0.0309041 
-0.000376564 -9.80477 -0.0507931 
-0.0309041 -0.0507931 -9.87082 
-9.42626 -0.105538 0.0416147 
-0.105538 -9.38547 0.274097 
0.0416147 0.274097 -10.1215 
-9.62514 0.0140707 -0.132243 
0.0140707 -9.45444 0.213477 
-0.132243 0.213477 -9.85365 
-9.54231 0.0196787 -0.173177 
0.0196787 -9.50955 0.326365 
-0.173177 0.326365 -9.88137 
-9.68886 -0.00878182 -0.163339 
-0.00878182 -9.38626 0.26337 
-0.163339 0.26337 -9.8581 
-9.2344 -0.129701 -0.276005 
-0.129701 -9.48122 -0.452152 
-0.276005 -0.452152 -9.7764 
-9.2321 -0.112405 -0.163372 
-0.112405 -9.46471 -0.359865 
-0.163372 -0.359865 -9.7952 
-9.26218 -0.0288737 -0.400276 
-0.0288737 -9.635 -0.474012 
-0.400276 -0.474012 -9.59484 
-9.24232 -0.0521516 -0.283899 
-0.0521516 -9.44089 -0.475018 
-0.283899 -0.475018 -9.80881 
-9.9481 0.0218815 0.189 
0.0218815 -9.90897 -0.0831821 
0.189 -0.0831821 -9.92176 
-9.9396 0.0157002 0.17549 
0.0157002 -9.91781 -0.0769958 
0.17549 -0.0769958 -9.92142 
-9.87023 -0.0333045 0.175921 
-0.0333045 -9.93912 -0.0741372 
0.175921 -0.0741372 -9.96947 
-9.93327 -0.00206254 0.180291 
-0.00206254 -9.93227 -0.0594543 
0.180291 -0.0594543 -9.91328 
-8.91167 0.0117532 -0.808016 
0.0117532 -9.35267 0.573679 
-0.808016 0.573679 -10.2177 
-8.67161 -0.133758 -0.713502 
-0.133758 -9.23901 0.469081 
-0.713502 0.469081 -10.5714 
-9.01338 -0.132896 -0.997613 
-0.132896 -9.43566 0.386974 
-0.997613 0.386974 -10.033 
-9.30932 -0.578244 0.389982 
-0.578244 -9.77872 -0.145755 
0.389982 -0.145755 -9.39395 
-9.32681 -0.233027 0.25218 
-0.233027 -9.81617 0.242984 
0.25218 0.242984 -9.85728 
-9.61156 0.0883478 0.363582 
0.0883478 -9.6498 -0.239684 
0.363582 -0.239684 -9.73889 
-9.55842 -0.330091 0.0262277 
-0.330091 -9.57591 0.0525203 
0.0262277 0.0525203 -9.86593 
-9.55852 -0.335108 0.186885 
-0.335108 -9.35008 -0.110463 
0.186885 -0.110463 -10.0917 
-9.91408 0.0116976 0.0459509 
0.0116976 -9.93374 -0.106763 
0.0459509 -0.106763 -9.92759 
-9.92248 -0.00271493 0.0426517 
-0.00271493 -9.93623 -0.094235 
0.0426517 -0.094235 -9.9167 
-9.92319 -0.011321 0.0723283 
-0.011321 -9.90155 -0.110007 
0.0723283 -0.110007 -9.95068 
-9.92356 -0.00361597 0.0655591 
-0.00361597 -9.93083 -0.104478 
0.0655591 -0.104478 -9.92102 
-9.95591 -0.00355878 -0.0864075 
-0.00355878 -9.9912 -0.211648 
-0.0864075 -0.211648 -9.96653 
-9.93679 0.00707202 -0.0660346 
0.00707202 -9.95785 -0.216457 
-0.0660346 -0.216457 -10.019 
-9.96065 -0.02209 -0.0799581 
-0.02209 -9.97641 -0.2173 
-0.0799581 -0.2173 -9.97658 
-9.96405 0.00438115 -0.0958136 
0.00438115 -9.98971 -0.203058 
-0.0958136 -0.203058 -9.95988 
-7.36707 -1.53232 1.21393 
-1.53232 -10.3425 1.00832 
1.21393 1.00832 -13.234 
-7.43806 0.495921 1.78951 
0.495921 -12.9117 -0.990459 
1.78951 -0.990459 -10.5939 
-7.61739 -1.36315 1.87264 
-1.36315 -11.0542 -0.826658 
1.87264 -0.826658 -12.2721 
-8.21591 -0.4298 2.7801 
-0.4298 -10.0198 0.386928 
2.7801 0.386928 -12.708 
-9.85426 -0.00411034 -0.0803679 
-0.00411034 -9.86511 -0.157041 
-0.0803679 -0.157041 -9.88331 
-9.87567 -0.0324556 -0.0776255 
-0.0324556 -9.93156 -0.116777 
-0.0776255 -0.116777 -9.79546 
-9.85141 -0.0138686 -0.0757935 
-0.0138686 -9.86761 -0.133671 
-0.0757935 -0.133671 -9.88367 
-9.88351 -0.0426647 -0.046428 
-0.0426647 -9.90249 -0.137811 
-0.046428 -0.137811 -9.81668 
-3.86768 -0.577909 -0.417316 
-0.577909 -4.19421 -0.986355 
-0.417316 -0.986355 -3.47839 
-4.87413 -0.0970917 -1.69586 
-0.0970917 -5.35334 -1.28658 
-1.69586 -1.28658 -1.31281 
-4.64406 -0.997616 -1.75851 
-0.997616 -6.61374 -0.667118 
-1.75851 -0.667118 -0.282478 
-4.48368 -0.783014 0.237504 
-0.783014 -5.22669 -1.45226 
0.237504 -1.45226 -1.82991 
-9.68624 -0.0417147 -0.00750006 
-0.0417147 -9.77176 -0.0449244 
-0.00750006 -0.0449244 -9.75302 
-9.70986 0.00902087 -0.0170875 
0.00902087 -9.7177 -0.0704786 
-0.0170875 -0.0704786 -9.78346 
-9.70023 -0.011566 0.0339041 
-0.011566 -9.71319 -0.0156454 
0.0339041 -0.0156454 -9.7976 
-9.68172 -0.035593 -0.0582608 
-0.035593 -9.74614 -0.0301802 
-0.0582608 -0.0301802 -9.78317 
-9.55535 -0.937363 3.27108 
-0.937363 -6.99254 1.4789 
3.27108 1.4789 -5.72429 
-10.9108 2.4654 5.13457 
2.4654 -10.8196 4.47562 
5.13457 4.47562 -0.54176 
-6.20897 2.69149 1.40936 
2.69149 -7.46291 2.22903 
1.40936 2.22903 -8.60029 
-9.47868 -1.85827 0.560323 
-1.85827 -8.24685 0.065356 
0.560323 0.065356 -4.54665 
-14.8909 -2.1764 -2.53627 
-2.1764 -14.544 -0.172386 
-2.53627 -0.172386 -8.60884 
-7.01672 -0.667467 0.0529066 
-0.667467 -12.9019 0.437177 
0.0529066 0.437177 -18.1252 
-9.03038 -0.210623 2.3265 
-0.210623 -11.5058 -0.356034 
2.3265 -0.356034 -17.5076 
-9.12317 0.378539 -1.08339 
0.378539 -12.8673 -5.66483 
-1.08339 -5.66483 -16.0532 
-9.46568 -0.0503081 0.367337 
-0.0503081 -9.5546 -0.000437021 
0.367337 -0.000437021 -9.45564 
-9.42866 -0.0383385 0.409501 
-0.0383385 -9.54695 -0.0141662 
0.409501 -0.0141662 -9.50031 
-9.4273 -0.0338166 0.394489 
-0.0338166 -9.53471 -0.020646 
0.394489 -0.020646 -9.51391 
-9.43722 -0.0214806 0.401214 
-0.0214806 -9.52555 -0.0284605 
0.401214 -0.0284605 -9.51315 
-9.07866 0.412333 0.049833 
0.412333 -9.96896 0.482878 
0.049833 0.482878 -9.76721 
-8.98532 0.388373 0.0794837 
0.388373 -10.0989 0.423907 
0.0794837 0.423907 -9.73061 
-9.27728 0.508944 0.134121 
0.508944 -10.1199 0.537591 
0.134121 0.537591 -9.41761 
-8.82319 0.406144 0.329737 
0.406144 -9.99863 0.485654 
0.329737 0.485654 -9.993 
-9.40919 0.129612 0.0544327 
0.129612 -9.39383 0.108896 
0.0544327 0.108896 -9.40822 
-9.4335 0.0591224 0.122324 
0.0591224 -9.48542 0.242784 
0.122324 0.242784 -9.29232 
-9.37855 -0.182979 -0.0898341 
-0.182979 -9.50219 0.0124239 
-0.0898341 0.0124239 -9.33049 
-9.36715 0.0938806 0.0717912 
0.0938806 -9.47658 0.151786 
0.0717912 0.151786 -9.3675 
-12.8505 0.977129 -0.619035 
0.977129 -13.1462 -0.450065 
-0.619035 -0.450065 -11.0201 
-11.1651 -0.107443 0.789318 
-0.107443 -10.9406 -0.500421 
0.789318 -0.500421 -14.9111 
-9.58212 0.586234 0.404838 
0.586234 -11.4178 -0.632853 
0.404838 -0.632853 -16.0169 
-10.2399 0.257226 -0.682442 
0.257226 -12.5818 0.191833 
-0.682442 0.191833 -14.1951 
-9.40751 0.154705 1.63739 
0.154705 -10.4991 -0.245448 
1.63739 -0.245448 -9.19314 
-8.20106 0.180254 1.10511 
0.180254 -9.67746 0.00890033 
1.10511 0.00890033 -11.2212 
-8.60364 -0.557075 2.3698 
-0.557075 -10.1826 -0.574275 
2.3698 -0.574275 -10.3135 
-9.80008 0.0503671 1.4262 
0.0503671 -9.80011 -0.627466 
1.4262 -0.627466 -9.49954 
-9.88772 0.0151846 -0.0751569 
0.0151846 -9.91365 -0.124621 
-0.0751569 -0.124621 -9.93919 
-9.9113 -0.00484697 -0.0431293 
-0.00484697 -9.92526 -0.129604 
-0.0431293 -0.129604 -9.90401 
-9.91436 -0.00586125 -0.0505958 
-0.00586125 -9.9096 -0.138499 
-0.0505958 -0.138499 -9.9166 
-9.90047 0.00700404 -0.0747656 
0.00700404 -9.9339 -0.120087 
-0.0747656 -0.120087 -9.90619 
-9.3198 0.293299 -0.162293 
0.293299 -9.30119 -0.241437 
-0.162293 -0.241437 -10.0642 
-9.55482 0.153017 -0.256369 
0.153017 -9.07346 -0.481447 
-0.256369 -0.481447 -10.0569 
-9.45483 0.101838 -0.115657 
0.101838 -8.95902 -0.340857 
-0.115657 -0.340857 -10.2714 
-9.57534 0.187505 -0.0551792 
0.187505 -9.2968 -0.0934391 
-0.0551792 -0.0934391 -9.81307 
-5.68932 -1.61735 -0.41464 
-1.61735 -8.34658 -0.529809 
-0.41464 -0.529809 -1.74484 
-7.51944 -0.223462 -0.702037 
-0.223462 -7.86562 -0.908155 
-0.702037 -0.908155 -0.39568 
-7.16906 0.178234 0.588313 
0.178234 -5.58018 0.0909306 
0.588313 0.0909306 -3.0315 
-6.51849 -0.307116 -0.117145 
-0.307116 -7.17213 -0.881937 
-0.117145 -0.881937 -2.09012 
-9.93908 -0.00023824 -0.0324778 
-0.00023824 -9.94179 0.002522 
-0.0324778 0.002522 -9.98631 
-9.94055 0.0003809 -0.028699 
0.0003809 -9.93697 -0.0120522 
-0.028699 -0.0120522 -9.98966 
-9.94238 0.00240043 -0.0173331 
0.00240043 -9.93509 -0.000228711 
-0.0173331 -0.000228711 -9.98971 
-9.95363 0.000611944 -0.0323047 
0.000611944 -9.95103 -0.00127237 
-0.0323047 -0.00127237 -9.96252 
-9.76343 0.00936376 -0.0105099 
0.00936376 -9.79338 0.234461 
-0.0105099 0.234461 -9.74493 
-9.77594 0.0255701 -0.0336344 
0.0255701 -9.7984 0.262264 
-0.0336344 0.262264 -9.72739 
-9.76577 0.0122612 -0.0106344 
0.0122612 -9.81243 0.201076 
-0.0106344 0.201076 -9.72353 
-9.74619 -0.0302546 -0.020661 
-0.0302546 -9.76686 0.243023 
-0.020661 0.243023 -9.78868 
-10.3227 -0.263974 0.0105015 
-0.263974 -9.27541 -0.887891 
0.0105015 -0.887891 -10.0087 
-9.95758 0.252292 0.0494703 
0.252292 -9.70825 0.0639045 
0.0494703 0.0639045 -9.94099 
-10.326 0.497936 -0.220702 
0.497936 -8.99434 -0.32916 
-0.220702 -0.32916 -10.2865 
-10.3392 0.216548 -0.105273 
0.216548 -9.30911 -0.272339 
-0.105273 -0.272339 -9.9585 
-12.766 2.71767 -2.92011 
2.71767 -13.2628 0.981047 
-2.92011 0.981047 -13.8573 
-12.4491 -0.80521 0.149227 
-0.80521 -13.6613 1.13565 
0.149227 1.13565 -13.7757 
-6.67471 -2.35037 -1.71501 
-2.35037 -10.2943 -1.71407 
-1.71501 -1.71407 -22.9171 
-13.8089 0.0218836 1.20635 
0.0218836 -12.9615 -0.634763 
1.20635 -0.634763 -13.1157 
-9.55071 0.117824 0.339446 
0.117824 -9.78493 -0.315529 
0.339446 -0.315529 -9.64555 
-9.67227 0.0381664 0.101463 
0.0381664 -9.70993 -0.25871 
0.101463 -0.25871 -9.599 
-9.78423 -0.0834131 0.144991 
-0.0834131 -9.6647 -0.222842 
0.144991 -0.222842 -9.53227 
-9.75024 0.0427904 0.126109 
0.0427904 -9.88996 -0.208919 
0.126109 -0.208919 -9.341 
-9.96319 0.0117743 0.208092 
0.0117743 -9.96037 -0.174836 
0.208092 -0.174836 -10.006 
-9.9788 0.00988485 0.201846 
0.00988485 -9.96693 -0.160938 
0.201846 -0.160938 -9.98383 
-9.98787 0.00378804 0.20684 
0.00378804 -9.97209 -0.164389 
0.20684 -0.164389 -9.96961 
-9.98806 0.00149772 0.202213 
0.00149772 -9.98322 -0.159652 
0.202213 -0.159652 -9.95828 
-9.92381 -0.0100015 -0.286483 
-0.0100015 -9.93102 -0.057305 
-0.286483 -0.057305 -9.9622 
-9.92768 0.00101404 -0.301266 
0.00101404 -9.93694 -0.0683499 
-0.301266 -0.0683499 -9.95241 
-9.93249 0.00339086 -0.305994 
0.00339086 -9.9461 -0.0589894 
-0.305994 -0.0589894 -9.93843 
-9.9563 0.00463408 -0.32141 
0.00463408 -9.93799 -0.0707307 
-0.32141 -0.0707307 -9.92274 
-9.08802 0.174499 1.01915 
0.174499 -8.80247 -0.0833321 
1.01915 -0.0833321 -6.69174 
-8.98546 0.41287 1.2986 
0.41287 -9.57252 0.388713 
1.2986 0.388713 -6.02425 
-8.67634 -0.200585 1.6005 
-0.200585 -10.2517 0.87013 
1.6005 0.87013 -5.65423 
-9.23122 -0.189527 1.47809 
-0.189527 -9.11685 -0.182018 
1.47809 -0.182018 -6.23417 
-11.2803 -1.2462 0.758893 
-1.2462 -8.57761 -0.857686 
0.758893 -0.857686 -14.1703 
-11.4601 -1.23318 0.373092 
-1.23318 -9.52684 -0.906773 
0.373092 -0.906773 -13.0413 
-10.2845 -1.68491 1.02573 
-1.68491 -10.4071 -0.956395 
1.02573 -0.956395 -13.3366 
-10.8449 -1.1533 0.3448 
-1.1533 -9.88813 -0.352213 
0.3448 -0.352213 -13.2952 
-9.80946 0.068831 0.115669 
0.068831 -9.7634 0.0194183 
0.115669 0.0194183 -9.91069 
-9.71719 -0.0122397 -0.0891966 
-0.0122397 -9.84949 0.0367482 
-0.0891966 0.0367482 -9.91688 
-9.82572 0.0663134 0.114287 
0.0663134 -9.73212 0.126106 
0.114287 0.126106 -9.92572 
-9.71186 0.0181903 0.0626604 
0.0181903 -9.75284 -0.0305271 
0.0626604 -0.0305271 -10.0189 
-9.71492 0.00951727 0.00182345 
0.00951727 -9.78144 -0.0443788 
0.00182345 -0.0443788 -9.80218 
-9.71629 -0.00253295 -0.000206264 
-0.00253295 -9.79478 -0.0698694 
-0.000206264 -0.0698694 -9.78747 
-9.73984 0.0127361 0.0756047 
0.0127361 -9.70631 -0.126675 
0.0756047 -0.126675 -9.8524 
-9.77813 0.00629694 -0.011848 
0.00629694 -9.81871 -0.0715214 
-0.011848 -0.0715214 -9.7017 
-9.85178 -0.00125904 -0.136474 
-0.00125904 -9.84546 -0.302613 
-0.136474 -0.302613 -9.83902 
-9.84635 0.0126026 -0.16375 
0.0126026 -9.78559 -0.318521 
-0.16375 -0.318521 -9.90432 
-9.83827 -0.0209943 -0.154954 
-0.0209943 -9.89193 -0.316868 
-0.154954 -0.316868 -9.80606 
-9.84713 -0.01648 -0.130087 
-0.01648 -9.84558 -0.261161 
-0.130087 -0.261161 -9.84354 
-9.97501 -4.4477e-05 -0.274189 
-4.4477e-05 -9.94404 -0.0867655 
-0.274189 -0.0867655 -10.0124 
-9.97876 -0.00141592 -0.26181 
-0.00141592 -9.97025 -0.0898795 
-0.26181 -0.0898795 -9.98248 
-9.98367 -0.0102344 -0.268964 
-0.0102344 -9.97536 -0.0902321 
-0.268964 -0.0902321 -9.97246 
-9.98712 -0.00215031 -0.264099 
-0.00215031 -9.98294 -0.0901143 
-0.264099 -0.0901143 -9.96144 
-9.72324 -0.245135 0.467601 
-0.245135 -8.57386 1.61895 
0.467601 1.61895 -9.43794 
-10.5157 -0.868925 0.487147 
-0.868925 -8.07771 -0.162211 
0.487147 -0.162211 -9.14159 
-8.37023 -0.468102 -1.13951 
-0.468102 -9.8253 -1.40859 
-1.13951 -1.40859 -9.53952 
-10.2008 -0.887506 -1.17828 
-0.887506 -7.64595 1.12653 
-1.17828 1.12653 -9.88825 
-10.451 0.263773 -0.269205 
0.263773 -10.0673 0.38459 
-0.269205 0.38459 -10.8175 
-6.12283 -0.644311 -0.332706 
-0.644311 -12.3808 0.753433 
-0.332706 0.753433 -12.8322 
-9.63344 0.119009 1.03668 
0.119009 -10.0652 -0.01 
1.03668 -0.01 -11.6371 
-9.59336 -0.672959 0.971151 
-0.672959 -10.5636 -0.603795 
0.971151 -0.603795 -11.1788 
-8.93122 -1.69 0.0803677 
-1.69 -9.46331 0.0345429 
0.0803677 0.0345429 -17.0649 
-9.31498 0.531418 0.344324 
0.531418 -10.8668 -0.244355 
0.344324 -0.244355 -15.2776 
-12.4417 -1.10914 -0.226324 
-1.10914 -10.5997 0.470293 
-0.226324 0.470293 -12.418 
-10.9124 -1.73303 -0.976669 
-1.73303 -11.7633 -0.618369 
-0.976669 -0.618369 -12.7837 
-9.57866 -0.00507255 0.0261821 
-0.00507255 -9.61399 0.380494 
0.0261821 0.380494 -9.51564 
-9.57127 0.00445408 0.0195127 
0.00445408 -9.51805 0.374741 
0.0195127 0.374741 -9.61897 
-9.58217 0.013927 0.0395717 
0.013927 -9.54996 0.354282 
0.0395717 0.354282 -9.57616 
-9.58692 -0.0117658 0.0387514 
-0.0117658 -9.56625 0.316902 
0.0387514 0.316902 -9.55513 
-9.63057 0.00910016 -0.689898 
0.00910016 -10.1594 -0.508029 
-0.689898 -0.508029 -9.66031 
-9.35909 0.194576 -0.667642 
0.194576 -10.0703 -0.210138 
-0.667642 -0.210138 -10.0209 
-9.22791 0.118337 -0.810374 
0.118337 -9.73513 -0.400232 
-0.810374 -0.400232 -10.4872 
-9.26012 0.319544 -0.492155 
0.319544 -10.085 0.0732638 
-0.492155 0.0732638 -10.1051 
-9.58477 -0.0076845 0.0251789 
-0.0076845 -9.59775 0.0655465 
0.0251789 0.0655465 -9.79136 
-9.68694 0.00614499 -0.0259095 
0.00614499 -9.54811 0.0212107 
-0.0259095 0.0212107 -9.73884 
-9.62505 0.052974 -0.0102373 
0.052974 -9.59186 0.00338386 
-0.0102373 0.00338386 -9.75698 
-9.60436 0.091335 -0.0527326 
0.091335 -9.59108 0.00387228 
-0.0527326 0.00387228 -9.77845 
-9.40215 -0.0806248 0.350885 
-0.0806248 -9.48702 -0.0879903 
0.350885 -0.0879903 -9.62432 
-9.69499 0.0236287 0.505508 
0.0236287 -9.598 0.05343 
0.505508 0.05343 -9.22051 
-9.26269 -0.0079924 0.71159 
-0.0079924 -9.73535 -0.0170403 
0.71159 -0.0170403 -9.51546 
-9.64172 0.170666 0.479175 
0.170666 -9.55036 0.0585717 
0.479175 0.0585717 -9.32142 
-10.8776 0.376681 -0.0651196 
0.376681 -8.63586 0.547655 
-0.0651196 0.547655 -13.4756 
-11.1439 -0.917756 -1.06679 
-0.917756 -13.5667 0.0397194 
-1.06679 0.0397194 -8.2785 
-7.64325 0.250828 -0.24791 
0.250828 -10.3225 0.524594 
-0.24791 0.524594 -15.0234 
-8.65474 0.895879 -0.414363 
0.895879 -11.127 -2.88723 
-0.414363 -2.88723 -13.2073 
-9.55869 0.0463562 0.270176 
0.0463562 -9.62978 -0.228509 
0.270176 -0.228509 -10.0314 
-9.55676 -0.00751244 0.150514 
-0.00751244 -9.62468 -0.0590211 
0.150514 -0.0590211 -10.0384 
-9.80797 -0.0248387 0.229921 
-0.0248387 -9.57076 -0.200512 
0.229921 -0.200512 -9.84113 
-9.8426 -0.00887346 0.236154 
-0.00887346 -9.85859 -0.198393 
0.236154 -0.198393 -9.51867 
-9.92531 0.0450189 -0.0346693 
0.0450189 -9.91887 0.124055 
-0.0346693 0.124055 -9.91391 
-9.88085 -0.0541381 -0.0106338 
-0.0541381 -9.88598 0.166056 
-0.0106338 0.166056 -9.99126 
-9.93787 -0.0483322 0.000384032 
-0.0483322 -9.95798 0.0687283 
0.000384032 0.0687283 -9.86224 
-9.91289 0.0233378 -0.0328556 
0.0233378 -9.93137 0.0988812 
-0.0328556 0.0988812 -9.91382 
-9.53559 -0.0738098 0.124582 
-0.0738098 -9.50441 -0.094283 
0.124582 -0.094283 -9.95858 
-9.58913 -0.0411611 0.116927 
-0.0411611 -9.4792 -0.146413 
0.116927 -0.146413 -9.93025 
-9.65557 -0.0564055 0.0490286 
-0.0564055 -9.33963 -0.0710661 
0.0490286 -0.0710661 -10.0034 
-9.66918 -0.171714 0.0324035 
-0.171714 -9.36129 -0.0805721 
0.0324035 -0.0805721 -9.96811 
-9.73235 0.00222545 0.0169906 
0.00222545 -9.72495 -0.00869452 
0.0169906 -0.00869452 -9.88913 
-9.73975 0.00530125 0.0162701 
0.00530125 -9.73905 0.0067114 
0.0162701 0.0067114 -9.86763 
-9.74404 0.00252681 0.0116592 
0.00252681 -9.72102 -0.0102523 
0.0116592 -0.0102523 -9.88137 
-9.74636 0.0204718 0.00901329 
0.0204718 -9.72964 -0.00330713 
0.00901329 -0.00330713 -9.87043 
-9.90805 0.00912058 0.223839 
0.00912058 -9.88852 -0.230611 
0.223839 -0.230611 -9.89318 
-9.88124 0.00136041 0.229422 
0.00136041 -9.89478 -0.220917 
0.229422 -0.220917 -9.91373 
-9.90794 -0.00852239 0.227557 
-0.00852239 -9.90298 -0.229035 
0.227557 -0.229035 -9.87882 
-9.91384 -0.00711523 0.237171 
-0.00711523 -9.89092 -0.248428 
0.237171 -0.248428 -9.88499 
-9.90904 0.00265305 0.0951354 
0.00265305 -9.92648 -0.082514 
0.0951354 -0.082514 -9.92241 
-9.94017 0.00594984 0.104057 
0.00594984 -9.91221 -0.0706727 
0.104057 -0.0706727 -9.90556 
-9.93281 0.000227594 0.104298 
0.000227594 -9.88774 -0.0735734 
0.104298 -0.0735734 -9.93738 
-9.91582 0.0162913 0.103685 
0.0162913 -9.9306 -0.0880157 
0.103685 -0.0880157 -9.9115 
-9.91074 0.0502785 0.98722 
0.0502785 -9.28661 -0.355237 
0.98722 -0.355237 -10.1802 
-9.43739 -0.138488 -0.23993 
-0.138488 -9.54929 0.031638 
-0.23993 0.031638 -10.3909 
-9.08924 -0.404081 -0.23262 
-0.404081 -10.2617 -0.121565 
-0.23262 -0.121565 -10.0266 
-9.07362 -0.3568 0.000493102 
-0.3568 -9.93878 -0.0181271 
0.000493102 -0.0181271 -10.3652 
-9.74186 -0.00345123 0.0508051 
-0.00345123 -9.73165 -0.00921962 
0.0508051 -0.00921962 -9.80515 
-9.76301 -0.00372908 0.0683879 
-0.00372908 -9.69618 0.010788 
0.0683879 0.010788 -9.81947 
-9.76415 0.00904084 0.0254512 
0.00904084 -9.71676 -0.0133435 
0.0254512 -0.0133435 -9.79776 
-9.75382 -0.0175869 0.00356936 
-0.0175869 -9.7052 -0.0245686 
0.00356936 -0.0245686 -9.81965 
-9.31474 -0.124228 0.0574037 
-0.124228 -9.68161 -0.0157516 
0.0574037 -0.0157516 -10.0113 
-9.7379 0.0677444 0.166184 
0.0677444 -9.50911 -0.0848114 
0.166184 -0.0848114 -9.76065 
-9.53703 0.0147933 0.168751 
0.0147933 -9.67581 0.0362724 
0.168751 0.0362724 -9.79481 
-9.48272 0.150869 0.231865 
0.150869 -9.63167 -0.138608 
0.231865 -0.138608 -9.89327 
-4.12939 -0.180331 -0.802843 
-0.180331 -4.7471 -0.234725 
-0.802843 -0.234725 -3.85012 
-5.50506 0.542907 -1.95033 
0.542907 -5.0364 0.341861 
-1.95033 0.341861 -2.18514 
-7.17949 1.21447 -2.67816 
1.21447 -5.93007 -0.497 
-2.67816 -0.497 0.382955 
-3.50278 1.20046 -2.00996 
1.20046 -4.90402 0.588859 
-2.00996 0.588859 -4.3198 
-9.00585 0.162496 0.395546 
0.162496 -9.4624 0.192197 
0.395546 0.192197 -9.85333 
-9.34277 -0.117957 0.332749 
-0.117957 -9.62006 -0.123599 
0.332749 -0.123599 -9.35875 
-9.14917 -0.024582 0.631929 
-0.024582 -9.74449 -0.00766268 
0.631929 -0.00766268 -9.42791 
-9.22686 0.150275 0.502788 
0.150275 -9.46972 0.130147 
0.502788 0.130147 -9.62499 
-10.3897 2.07271 -0.584942 
2.07271 -8.68473 -0.102209 
-0.584942 -0.102209 -12.243 
-7.87758 3.21988 0.37355 
3.21988 -6.28468 -1.40325 
0.37355 -1.40325 -17.1552 
-10.964 1.30966 -1.13572 
1.30966 -8.72579 -0.833996 
-1.13572 -0.833996 -11.6277 
-10.2555 2.37537 -0.0409031 
2.37537 -9.16793 -0.347863 
-0.0409031 -0.347863 -11.894 
-9.86775 -0.00357897 0.118813 
-0.00357897 -9.45088 -0.0657799 
0.118813 -0.0657799 -10.0612 
-9.67705 -0.00214128 0.0498283 
-0.00214128 -9.58296 -0.0386475 
0.0498283 -0.0386475 -10.1198 
-9.63248 -0.0842746 -0.0395303 
-0.0842746 -9.60413 -0.0136136 
-0.0395303 -0.0136136 -10.1432 
-9.65364 -0.00226897 0.00404508 
-0.00226897 -9.52551 -0.00092943 
0.00404508 -0.00092943 -10.2007 
-9.73353 0.00137884 -0.24589 
0.00137884 -9.7442 0.250374 
-0.24589 0.250374 -9.71737 
-9.7276 0.00398543 -0.242669 
0.00398543 -9.74801 0.240619 
-0.242669 0.240619 -9.71948 
-9.7447 -0.00721885 -0.232831 
-0.00721885 -9.77917 0.219554 
-0.232831 0.219554 -9.67123 
-9.68912 0.00196314 -0.222137 
0.00196314 -9.7392 0.239487 
-0.222137 0.239487 -9.76678 
-9.928 0.00451324 0.0269391 
0.00451324 -9.93759 -0.165256 
0.0269391 -0.165256 -10.0413 
-9.95214 -0.0150356 0.0171101 
-0.0150356 -9.97861 -0.161608 
0.0171101 -0.161608 -9.97612 
-9.96612 0.00378765 0.00996974 
0.00378765 -9.9883 -0.169029 
0.00996974 -0.169029 -9.95245 
-9.97037 0.00641006 0.00484735 
0.00641006 -9.98669 -0.149328 
0.00484735 -0.149328 -9.94981 
-9.90725 -0.00037478 -0.0859869 
-0.00037478 -9.93455 -0.124512 
-0.0859869 -0.124512 -9.91164 
-9.89964 -0.00240841 -0.0837338 
-0.00240841 -9.93612 -0.113428 
-0.0837338 -0.113428 -9.91768 
-9.92992 -0.0254729 -0.079811 
-0.0254729 -9.88147 -0.130339 
-0.079811 -0.130339 -9.94205 
-9.95233 -0.0185306 -0.0501925 
-0.0185306 -9.90447 -0.108549 
-0.0501925 -0.108549 -9.89665 
-2.40713 -0.203341 0.187443 
-0.203341 -3.14945 -0.594116 
0.187443 -0.594116 -1.91497 
-3.09251 0.206801 0.102835 
0.206801 -2.4382 -0.778218 
0.102835 -0.778218 -1.94084 
-4.17009 -0.293197 0.521507 
-0.293197 -4.64663 2.19883 
0.521507 2.19883 1.34517 
-2.15042 -0.533068 0.161102 
-0.533068 -5.18689 -1.00055 
0.161102 -1.00055 -0.134247 
-5.83141 -1.14018 0.82503 
-1.14018 -4.75537 1.05439 
0.82503 1.05439 1.05503 
-3.2599 0.630237 -2.02977 
0.630237 -3.54721 0.791224 
-2.02977 0.791224 -2.72465 
-6.86438 0.20066 -0.31962 
0.20066 -3.94021 1.2277 
-0.31962 1.2277 1.27284 
-6.25499 -0.323029 -1.73964 
-0.323029 -2.83426 -0.0484523 
-1.73964 -0.0484523 -0.442499 
-9.90303 -0.0138373 -0.0374245 
-0.0138373 -9.91105 -0.0298481 
-0.0374245 -0.0298481 -9.96265 
-9.90348 -0.0172901 -0.0353419 
-0.0172901 -9.91543 0.0154374 
-0.0353419 0.0154374 -9.95782 
-9.91477 -0.00343486 -0.0296499 
-0.00343486 -9.91233 -0.0229537 
-0.0296499 -0.0229537 -9.94963 
-9.92182 -0.0232903 -0.0270391 
-0.0232903 -9.9206 0.0277464 
-0.0270391 0.0277464 -9.93431 
-9.73181 0.0400829 -0.104223 
0.0400829 -9.84098 0.0864407 
-0.104223 0.0864407 -9.89737 
-9.87857 0.0619288 -0.124084 
0.0619288 -9.79162 0.0623729 
-0.124084 0.0623729 -9.79997 
-9.84461 -0.0027741 -0.105412 
-0.0027741 -9.80709 -0.0159178 
-0.105412 -0.0159178 -9.81846 
-9.84224 0.00445003 -0.129762 
0.00445003 -9.82444 0.0174903 
-0.129762 0.0174903 -9.80348 
-9.7057 0.0275159 -0.0375767 
0.0275159 -9.69229 0.0300783 
-0.0375767 0.0300783 -9.7731 
-9.6944 0.0266912 -0.0235277 
0.0266912 -9.7066 0.0229099 
-0.0235277 0.0229099 -9.77009 
-9.66747 -0.00148165 -0.0500516 
-0.00148165 -9.74008 -0.0466756 
-0.0500516 -0.0466756 -9.76354 
-9.71415 0.035133 -0.0188567 
0.035133 -9.72644 0.0315048 
-0.0188567 0.0315048 -9.73051 
-11.6745 -0.570701 -0.296686 
-0.570701 -7.51137 0.686807 
-0.296686 0.686807 -11.2379 
-9.87362 0.452653 0.117712 
0.452653 -9.84466 1.05833 
0.117712 1.05833 -10.7055 
-10.727 0.419596 0.162326 
0.419596 -8.74938 1.20504 
0.162326 1.20504 -10.9474 
-11.0538 1.05337 0.193745 
1.05337 -8.48801 0.842192 
0.193745 0.842192 -10.882 
-8.99687 0.0605316 0.0869002 
0.0605316 -9.63277 0.102882 
0.0869002 0.102882 -10.2705 
-9.29723 0.113943 -0.0114121 
0.113943 -9.51248 0.188578 
-0.0114121 0.188578 -10.0905 
-9.14967 0.10181 -0.0945863 
0.10181 -9.4893 -0.0322947 
-0.0945863 -0.0322947 -10.2612 
-9.21877 0.0734014 0.00261762 
0.0734014 -9.38729 -0.0585437 
0.00261762 -0.0585437 -10.2941 
-9.56024 -0.973965 1.30319 
-0.973965 -10.8218 0.10078 
1.30319 0.10078 -12.0693 
-11.0667 -1.4995 1.12623 
-1.4995 -10.5748 0.439851 
1.12623 0.439851 -10.8098 
-9.06598 -0.391797 0.367799 
-0.391797 -10.9673 -0.773428 
0.367799 -0.773428 -12.4181 
-9.63291 -0.19173 1.30386 
-0.19173 -10.5401 -0.835197 
1.30386 -0.835197 -12.2784 
-9.77051 0.0125388 0.00323914 
0.0125388 -9.79426 -0.00498436 
0.00323914 -0.00498436 -9.8857 
-9.77694 -0.00741782 0.00174236 
-0.00741782 -9.78035 -0.0327945 
0.00174236 -0.0327945 -9.89317 
-9.78466 -0.00240726 0.00787266 
-0.00240726 -9.77568 -0.0343131 
0.00787266 -0.0343131 -9.89012 
-9.7858 -0.00915016 0.00746684 
-0.00915016 -9.7667 -0.0264911 
0.00746684 -0.0264911 -9.89796 
-9.93278 0.0131082 -0.108663 
0.0131082 -9.89931 -0.0756565 
-0.108663 -0.0756565 -9.93769 
-9.95555 0.00869704 -0.114125 
0.00869704 -9.90575 -0.0805741 
-0.114125 -0.0805741 -9.90848 
-9.91799 0.00381459 -0.129495 
0.00381459 -9.91062 -0.041022 
-0.129495 -0.041022 -9.94116 
-9.92982 -0.0138783 -0.113826 
-0.0138783 -9.91688 -0.0465733 
-0.113826 -0.0465733 -9.92308 
-9.79813 0.020923 0.0449899 
0.020923 -9.71553 -0.0166926 
0.0449899 -0.0166926 -9.78694 
-9.77042 0.0185005 0.070034 
0.0185005 -9.73646 -0.0195678 
0.070034 -0.0195678 -9.79372 
-9.78296 0.0119567 0.076956 
0.0119567 -9.7695 -0.0510629 
0.076956 -0.0510629 -9.74814 
-9.79283 0.0336752 0.0696403 
0.0336752 -9.72613 -0.0342366 
0.0696403 -0.0342366 -9.78164 
-9.39773 -0.645807 -1.7971 
-0.645807 -8.54053 -0.0965212 
-1.7971 -0.0965212 -8.94764 
-9.57894 -0.316762 -0.894593 
-0.316762 -10.7245 0.168992 
-0.894593 0.168992 -6.5825 
-9.87356 0.559673 -1.04075 
0.559673 -9.16722 -0.292171 
-1.04075 -0.292171 -7.84512 
-7.92312 -0.548666 1.37398 
-0.548666 -10.4086 0.28867 
1.37398 0.28867 -8.55418 
-9.95806 0.0027082 0.0687911 
0.0027082 -9.95603 -0.0860007 
0.0687911 -0.0860007 -9.98692 
-9.94956 0.00400703 0.0826948 
0.00400703 -9.94745 -0.0781105 
0.0826948 -0.0781105 -10.004 
-9.96455 0.00332587 0.0688975 
0.00332587 -9.96163 -0.0747125 
0.0688975 -0.0747125 -9.97483 
-9.96747 0.0049765 0.0625075 
0.0049765 -9.96748 -0.0717054 
0.0625075 -0.0717054 -9.96606 
-9.40832 -0.0249614 0.0369692 
-0.0249614 -9.64288 0.325108 
0.0369692 0.325108 -9.46601 
-9.56683 0.0515192 0.0538047 
0.0515192 -9.38448 0.352825 
0.0538047 0.352825 -9.56589 
-9.55493 0.0176497 0.0049889 
0.0176497 -9.39018 0.372861 
0.0049889 0.372861 -9.57209 
-9.5186 0.0747207 0.0701641 
0.0747207 -9.45852 0.440091 
0.0701641 0.440091 -9.54009 
-12.3583 0.596411 -0.337335 
0.596411 -9.66443 1.17252 
-0.337335 1.17252 -10.9492 
-10.8105 0.834317 0.503961 
0.834317 -6.19209 0.901877 
0.503961 0.901877 -15.9693 
-11.2058 1.25975 0.485748 
1.25975 -8.11661 0.471598 
0.485748 0.471598 -13.6495 
-11.3165 0.589614 0.0383243 
0.589614 -8.78644 0.297122 
0.0383243 0.297122 -12.869 
-9.87872 0.000478037 -0.0380867 
0.000478037 -9.87406 -0.0307086 
-0.0380867 -0.0307086 -9.93559 
-9.89783 0.00827886 -0.023179 
0.00827886 -9.87844 0.00455433 
-0.023179 0.00455433 -9.91211 
-9.87996 0.00140762 -0.0351019 
0.00140762 -9.87469 -0.0180513 
-0.0351019 -0.0180513 -9.93372 
-9.88916 -0.00512504 -0.0134332 
-0.00512504 -9.87292 -0.0128535 
-0.0134332 -0.0128535 -9.92629 
-9.96308 -0.00720612 -0.0674767 
-0.00720612 -9.96547 -0.112299 
-0.0674767 -0.112299 -9.953 
-9.93932 0.00395017 -0.0752258 
0.00395017 -9.93516 -0.107235 
-0.0752258 -0.107235 -10.0071 
-9.9463 -0.00491267 -0.052602 
-0.00491267 -9.93446 -0.114278 
-0.052602 -0.114278 -10.0008 
-9.95702 -0.0112247 -0.0631862 
-0.0112247 -9.97574 -0.0980649 
-0.0631862 -0.0980649 -9.9488 
-9.68065 -0.00482539 0.0098104 
-0.00482539 -9.66598 -0.0279891 
0.0098104 -0.0279891 -9.85428 
-9.67476 0.00135705 0.0104974 
0.00135705 -9.65925 -0.0283019 
0.0104974 -0.0283019 -9.8669 
-9.66759 -0.000115224 0.0167011 
-0.000115224 -9.66089 -0.039212 
0.0167011 -0.039212 -9.87244 
-9.67659 -0.00360245 0.00548267 
-0.00360245 -9.65856 -0.0403163 
0.00548267 -0.0403163 -9.86577 
-8.2523 -0.205458 0.88741 
-0.205458 -10.0698 0.463907 
0.88741 0.463907 -7.44715 
-9.38742 -0.305755 1.39298 
-0.305755 -8.11873 -0.49084 
1.39298 -0.49084 -8.26308 
-8.07668 0.624321 0.818752 
0.624321 -9.4855 1.22169 
0.818752 1.22169 -8.20705 
-9.17279 -0.00357385 1.14443 
-0.00357385 -9.59575 0.41828 
1.14443 0.41828 -7.00069 
-9.5697 -0.0264885 -0.305894 
-0.0264885 -9.62324 0.15185 
-0.305894 0.15185 -9.47339 
-9.49879 0.00697181 -0.354746 
0.00697181 -9.47192 0.0917584 
-0.354746 0.0917584 -9.69563 
-9.57622 -0.00868262 -0.315035 
-0.00868262 -9.61215 0.104878 
-0.315035 0.104878 -9.47797 
-9.6165 0.00376474 -0.375898 
0.00376474 -9.6608 0.070289 
-0.375898 0.070289 -9.38904 
-9.40858 -0.00665178 -0.184953 
-0.00665178 -9.38834 0.399164 
-0.184953 0.399164 -9.68323 
-9.47012 0.0362265 -0.187185 
0.0362265 -9.49076 0.443434 
-0.187185 0.443434 -9.51926 
-9.42528 0.0097171 -0.201809 
0.0097171 -9.41978 0.341868 
-0.201809 0.341868 -9.63508 
-9.41625 0.0156877 -0.278413 
0.0156877 -9.42555 0.289628 
-0.278413 0.289628 -9.63835 
-9.59267 -0.0124745 -0.256848 
-0.0124745 -9.56706 -0.170497 
-0.256848 -0.170497 -9.58544 
-9.70632 -0.0694922 -0.347273 
-0.0694922 -9.55092 -0.0817989 
-0.347273 -0.0817989 -9.48793 
-9.68926 -0.0557067 -0.351189 
-0.0557067 -9.58956 -0.0809059 
-0.351189 -0.0809059 -9.46636 
-9.68558 -0.0494892 -0.292585 
-0.0494892 -9.54411 0.0895748 
-0.292585 0.0895748 -9.51549 
-9.43307 -0.313183 0.0646368 
-0.313183 -9.5624 -0.659231 
0.0646368 -0.659231 -9.43311 
-9.25327 -0.398624 -0.172507 
-0.398624 -9.78316 -0.722707 
-0.172507 -0.722707 -9.39215 
-9.1843 0.00550886 -0.169919 
0.00550886 -9.49193 -0.640659 
-0.169919 -0.640659 -9.75234 
-9.46132 0.0821477 -0.209821 
0.0821477 -9.59528 -0.375175 
-0.209821 -0.375175 -9.37197 
-9.58526 0.0290178 0.116117 
0.0290178 -9.64698 0.0694733 
0.116117 0.0694733 -10.6429 
-9.57873 0.17343 -0.131523 
0.17343 -9.68303 0.144794 
-0.131523 0.144794 -10.6134 
-9.48508 -0.0970392 0.110852 
-0.0970392 -9.95561 -0.0497189 
0.110852 -0.0497189 -10.4345 
-8.9682 -0.275868 0.151151 
-0.275868 -9.80828 -0.167553 
0.151151 -0.167553 -11.0987 
-9.79713 0.0114656 0.0711797 
0.0114656 -9.81584 -0.12117 
0.0711797 -0.12117 -9.7735 
-9.77176 0.0340421 0.0675246 
0.0340421 -9.80662 -0.126198 
0.0675246 -0.126198 -9.80809 
-9.79294 0.0113896 0.0798575 
0.0113896 -9.82736 -0.134894 
0.0798575 -0.134894 -9.76617 
-9.79905 0.0539586 0.0168014 
0.0539586 -9.84778 -0.0966011 
0.0168014 -0.0966011 -9.73964 
-9.68105 -0.253071 -0.257928 
-0.253071 -9.23892 -0.0172207 
-0.257928 -0.0172207 -9.49584 
-9.55537 0.0588299 -0.706578 
0.0588299 -9.54617 -0.0164112 
-0.706578 -0.0164112 -9.31427 
-9.46604 0.0843735 -0.414888 
0.0843735 -9.09815 -0.073786 
-0.414888 -0.073786 -9.85161 
-9.52075 -0.0996969 -0.325678 
-0.0996969 -9.63899 -0.0727506 
-0.325678 -0.0727506 -9.25606 
-9.53763 -0.0903661 -0.178583 
-0.0903661 -9.61443 0.106765 
-0.178583 0.106765 -9.74257 
-9.59631 -0.0677145 -0.190827 
-0.0677145 -9.57644 0.0299253 
-0.190827 0.0299253 -9.7219 
-9.54341 -0.0617039 -0.228696 
-0.0617039 -9.56143 0.106031 
-0.228696 0.106031 -9.7898 
-9.55389 -0.0357226 -0.198365 
-0.0357226 -9.59175 0.0704228 
-0.198365 0.0704228 -9.74901 
-9.54297 -0.0720409 -0.303036 
-0.0720409 -9.37888 -0.19893 
-0.303036 -0.19893 -9.40149 
-9.30063 0.146234 -0.269079 
0.146234 -9.55816 -0.0979842 
-0.269079 -0.0979842 -9.46455 
-9.45809 -0.0134577 -0.274517 
-0.0134577 -9.44927 -0.257989 
-0.274517 -0.257989 -9.41597 
-9.33384 0.0843865 -0.389846 
0.0843865 -9.41073 -0.18119 
-0.389846 -0.18119 -9.57876 
-9.63827 0.151672 -0.478842 
0.151672 -8.7047 -0.930094 
-0.478842 -0.930094 -9.99475 
-9.31449 -0.061329 -0.0857917 
-0.061329 -9.46048 -0.423563 
-0.0857917 -0.423563 -9.56276 
-9.35033 -0.0173362 -0.343473 
-0.0173362 -9.08152 -0.359196 
-0.343473 -0.359196 -9.90587 
-9.27714 0.195101 -0.425225 
0.195101 -8.91826 -0.111664 
-0.425225 -0.111664 -10.1423 
-9.52005 0.0701027 0.262392 
0.0701027 -9.62142 0.201862 
0.262392 0.201862 -9.52566 
-9.55754 0.0493269 0.294608 
0.0493269 -9.57129 0.275214 
0.294608 0.275214 -9.5383 
-9.55016 -0.0588649 0.142422 
-0.0588649 -9.58323 0.312183 
0.142422 0.312183 -9.53375 
-9.5347 0.0266812 0.311557 
0.0266812 -9.57105 0.267611 
0.311557 0.267611 -9.56139 
-9.98326 0.00235032 -0.107995 
0.00235032 -9.96864 0.0673728 
-0.107995 0.0673728 -9.96424 
-9.96891 -0.00838054 -0.1222 
-0.00838054 -9.95536 0.0679643 
-0.1222 0.0679643 -9.99187 
-9.9431 -0.011134 -0.116054 
-0.011134 -9.9566 0.0842594 
-0.116054 0.0842594 -10.0164 
-9.98283 0.0102866 -0.11532 
0.0102866 -9.97956 0.0661941 
-0.11532 0.0661941 -9.95374 
-9.65722 -0.00509834 0.00880266 
-0.00509834 -9.71559 -0.0424866 
0.00880266 -0.0424866 -9.81431 
-9.69354 -0.00794819 0.00981958 
-0.00794819 -9.71224 0.0122232 
0.00981958 0.0122232 -9.78134 
-9.68855 -0.0105775 -0.0191561 
-0.0105775 -9.71013 -0.0207954 
-0.0191561 -0.0207954 -9.78844 
-9.68035 -0.0171392 -0.0373754 
-0.0171392 -9.73579 -0.0168915 
-0.0373754 -0.0168915 -9.77098 
-9.88113 -0.0295989 -0.207171 
-0.0295989 -9.64663 -0.0703925 
-0.207171 -0.0703925 -9.89888 
-9.68623 0.0878129 -0.146871 
0.0878129 -9.77234 0.0509489 
-0.146871 0.0509489 -9.96807 
-9.59598 0.202673 0.173098 
0.202673 -9.86624 0.0441219 
0.173098 0.0441219 -9.96443 
-9.62882 0.163491 -0.107243 
0.163491 -9.69065 -0.0433287 
-0.107243 -0.0433287 -10.1072 
-9.6428 0.00611273 0.00676685 
0.00611273 -9.54769 -0.00324631 
0.00676685 -0.00324631 -9.64564 
-9.61798 0.0754944 -0.00191131 
0.0754944 -9.54783 -0.0356452 
-0.00191131 -0.0356452 -9.67032 
-9.59314 0.0515162 -0.0835959 
0.0515162 -9.57157 -0.0380912 
-0.0835959 -0.0380912 -9.67142 
-9.60742 0.0666796 -0.0104633 
0.0666796 -9.56635 -0.0174747 
-0.0104633 -0.0174747 -9.66236 
-9.56112 0.0436684 0.0473866 
0.0436684 -9.73062 0.159805 
0.0473866 0.159805 -9.34813 
-9.59547 0.00750063 0.00843231 
0.00750063 -9.67544 0.201236 
0.00843231 0.201236 -9.36895 
-9.57317 0.039797 0.165629 
0.039797 -9.58909 0.19697 
0.165629 0.19697 -9.4776 
-9.59927 -0.00943364 -0.0357392 
-0.00943364 -9.72781 0.22628 
-0.0357392 0.22628 -9.31279 
-9.81899 -0.524257 0.280169 
-0.524257 -9.7588 -0.0886991 
0.280169 -0.0886991 -8.51211 
-9.12983 -0.214772 0.387561 
-0.214772 -9.28921 -0.773827 
0.387561 -0.773827 -9.67086 
-8.723 0.616341 2.00441 
0.616341 -11.3044 -1.36733 
2.00441 -1.36733 -8.06253 
-10.6827 -0.683912 0.249888 
-0.683912 -8.4402 -0.791717 
0.249888 -0.791717 -8.96699 
-9.21392 -0.224651 -0.106413 
-0.224651 -9.11858 0.23344 
-0.106413 0.23344 -9.59248 
-9.00948 -0.376497 -0.0560454 
-0.376497 -9.26194 0.0987743 
-0.0560454 0.0987743 -9.65355 
-9.5505 0.733681 -0.275846 
0.733681 -9.46113 0.323511 
-0.275846 0.323511 -8.91334 
-9.04657 -0.297049 -0.431386 
-0.297049 -9.20309 0.376581 
-0.431386 0.376581 -9.67532 
-9.92266 -0.0103401 -0.0114244 
-0.0103401 -9.92433 -0.285322 
-0.0114244 -0.285322 -9.93467 
-9.94275 -0.00493529 0.0129495 
-0.00493529 -9.92884 -0.25681 
0.0129495 -0.25681 -9.91006 
-9.9252 -0.0144361 0.00880434 
-0.0144361 -9.91977 -0.256118 
0.00880434 -0.256118 -9.93668 
-9.93815 0.000269831 -0.00652778 
0.000269831 -9.92766 -0.290017 
-0.00652778 -0.290017 -9.91584 
-9.65466 -0.0652089 -0.0900616 
-0.0652089 -9.59717 -0.0355633 
-0.0900616 -0.0355633 -9.63531 
-9.57553 -0.0414128 -0.0362419 
-0.0414128 -9.5069 -0.0358335 
-0.0362419 -0.0358335 -9.80471 
-9.64377 -0.0729801 -0.0744654 
-0.0729801 -9.53552 -0.0728186 
-0.0744654 -0.0728186 -9.70785 
-9.52714 0.0136404 -0.126646 
0.0136404 -9.58061 -0.183535 
-0.126646 -0.183535 -9.77939 
-9.92573 0.0116087 -0.0557676 
0.0116087 -9.93026 0.0171853 
-0.0557676 0.0171853 -9.96298 
-9.90689 0.000675484 -0.0261566 
0.000675484 -9.94803 -0.00400268 
-0.0261566 -0.00400268 -9.96405 
-9.91039 0.00171253 -0.0274025 
0.00171253 -9.92903 5.15693e-05 
-0.0274025 5.15693e-05 -9.97955 
-9.93736 -0.0019039 -0.051358 
-0.0019039 -9.93629 0.0175233 
-0.051358 0.0175233 -9.94532 
-10.7931 -0.61152 -0.732358 
-0.61152 -9.28701 -0.772535 
-0.732358 -0.772535 -16.4725 
-11.1537 0.858161 0.810067 
0.858161 -14.0501 0.657442 
0.810067 0.657442 -11.3488 
-10.3359 1.59147 -0.0512409 
1.59147 -9.94166 0.0291991 
-0.0512409 0.0291991 -16.275 
-12.1787 2.20241 -0.915248 
2.20241 -10.343 2.26349 
-0.915248 2.26349 -14.0309 
-9.79282 -0.0150554 -0.0178085 
-0.0150554 -9.8087 -0.140524 
-0.0178085 -0.140524 -9.77526 
-9.77716 -0.00622338 -0.00232914 
-0.00622338 -9.81624 -0.136894 
-0.00232914 -0.136894 -9.78337 
-9.78447 -0.0177042 -0.027071 
-0.0177042 -9.82346 -0.141015 
-0.027071 -0.141015 -9.76884 
-9.78228 -0.00434408 0.00563133 
-0.00434408 -9.83225 -0.138842 
0.00563133 -0.138842 -9.76224 
-9.71888 -0.797224 0.122624 
-0.797224 -10.6217 -1.04291 
0.122624 -1.04291 -9.72522 
-9.20582 -0.748701 0.315416 
-0.748701 -10.0836 -0.807287 
0.315416 -0.807287 -10.7764 
-9.16874 -0.773989 0.705125 
-0.773989 -9.74763 -1.15959 
0.705125 -1.15959 -11.1495 
-8.97023 -1.07169 0.109518 
-1.07169 -10.119 -0.431752 
0.109518 -0.431752 -10.9766 
-8.56265 -1.41243 0.657995 
-1.41243 -11.5535 0.73847 
0.657995 0.73847 -14.2696 
-9.85373 -0.304951 0.366827 
-0.304951 -10.9761 -0.131911 
0.366827 -0.131911 -13.5559 
-9.59895 -0.228917 0.280573 
-0.228917 -11.3749 -0.633334 
0.280573 -0.633334 -13.4119 
-10.354 -0.278903 0.910299 
-0.278903 -10.9306 -0.627493 
0.910299 -0.627493 -13.1011 
-10.8043 0.082734 -0.706505 
0.082734 -11.0874 -0.640538 
-0.706505 -0.640538 -15.2516 
-13.438 -0.227769 -0.632669 
-0.227769 -13.4972 -0.0504634 
-0.632669 -0.0504634 -10.208 
-10.0579 -0.557377 0.640169 
-0.557377 -11.8916 -0.924961 
0.640169 -0.924961 -15.1937 
-11.7697 -0.74666 0.624925 
-0.74666 -11.3302 1.43891 
0.624925 1.43891 -14.0432 
-9.25905 -0.00366883 0.273764 
-0.00366883 -9.73138 -0.248515 
0.273764 -0.248515 -9.23397 
-9.27245 0.110921 0.179708 
0.110921 -9.59372 -0.222958 
0.179708 -0.222958 -9.35823 
-9.40057 0.0484461 0.238228 
0.0484461 -9.35695 -0.394671 
0.238228 -0.394671 -9.46689 
-9.12215 0.391994 0.141182 
0.391994 -9.58814 -0.113572 
0.141182 -0.113572 -9.51412 
-4.51498 -1.14106 -0.0199685 
-1.14106 -2.55619 1.37653 
-0.0199685 1.37653 -2.81933 
-4.6881 0.505816 1.09278 
0.505816 -4.75518 0.0691187 
1.09278 0.0691187 -0.447228 
-4.5894 1.04474 -0.2008 
1.04474 -4.19986 0.725262 
-0.2008 0.725262 -1.10125 
-3.83544 1.01682 0.225841 
1.01682 -4.0084 2.16568 
0.225841 2.16568 -2.04667 
-9.6814 -0.0204101 -0.163333 
-0.0204101 -9.72449 -0.294548 
-0.163333 -0.294548 -9.68053 
-9.68165 0.074906 -0.149079 
0.074906 -9.62698 -0.308653 
-0.149079 -0.308653 -9.77778 
-9.70386 -0.0436262 -0.14755 
-0.0436262 -9.72827 -0.319199 
-0.14755 -0.319199 -9.65427 
-9.71803 -0.0340918 -0.0743898 
-0.0340918 -9.68434 -0.258184 
-0.0743898 -0.258184 -9.68404 
-9.49741 -0.0559083 -0.990747 
-0.0559083 -10.1353 0.0916427 
-0.990747 0.0916427 -8.03811 
-9.44149 -0.191798 -0.415593 
-0.191798 -9.52038 -0.62747 
-0.415593 -0.62747 -8.70898 
-9.65373 -0.119576 -0.640321 
-0.119576 -10.1708 -0.0588636 
-0.640321 -0.0588636 -7.84633 
-10.2826 0.704266 -1.21409 
0.704266 -10.2881 -1.09475 
-1.21409 -1.09475 -7.10014 
-10.3417 -0.734352 2.28209 
-0.734352 -9.00565 -0.496694 
2.28209 -0.496694 -7.79003 
-10.5832 -0.331606 2.11532 
-0.331606 -8.26785 -1.32836 
2.11532 -1.32836 -8.28642 
-9.63681 -0.679809 3.24595 
-0.679809 -8.45897 -0.444336 
3.24595 -0.444336 -9.04165 
-9.52044 -1.073 0.853144 
-1.073 -8.15333 -2.30777 
0.853144 -2.30777 -9.46366 
-9.59597 0.0594651 0.0693701 
0.0594651 -9.4839 -0.0334673 
0.0693701 -0.0334673 -10.1788 
-9.82937 0.0289807 -0.178288 
0.0289807 -9.50461 0.255338 
-0.178288 0.255338 -9.92474 
-9.5526 0.0894678 -0.0108779 
0.0894678 -9.4018 0.122469 
-0.0108779 0.122469 -10.3043 
-9.88877 -0.00999323 -0.0866865 
-0.00999323 -9.13495 0.14385 
-0.0866865 0.14385 -10.235 
-10.3348 0.112414 -0.142191 
0.112414 -9.92692 -0.645572 
-0.142191 -0.645572 -13.6962 
-10.4334 -1.63139 -0.341246 
-1.63139 -8.86363 -0.213251 
-0.341246 -0.213251 -14.6609 
-10.4741 -1.1137 -0.273234 
-1.1137 -12.8651 0.480924 
-0.273234 0.480924 -10.6188 
-11.038 -1.0431 0.382739 
-1.0431 -10.1094 0.873107 
0.382739 0.873107 -12.8105 
-9.96155 -0.032243 -0.0467135 
-0.032243 -9.49491 -0.0141416 
-0.0467135 -0.0141416 -8.70084 
-9.84459 -0.0988398 0.262207 
-0.0988398 -9.74482 -0.231474 
0.262207 -0.231474 -8.56789 
-9.82588 0.17815 0.0590701 
0.17815 -9.43271 0.246858 
0.0590701 0.246858 -8.89871 
-9.81349 0.0216841 0.130896 
0.0216841 -9.59575 -0.0667579 
0.130896 -0.0667579 -8.74806 
-10.2722 -0.667581 0.338307 
-0.667581 -9.72682 -0.126083 
0.338307 -0.126083 -11.864 
-10.0063 0.227475 0.159086 
0.227475 -11.3905 -0.966849 
0.159086 -0.966849 -10.4662 
-11.1074 -0.821015 0.287567 
-0.821015 -9.36451 -0.253518 
0.287567 -0.253518 -11.3912 
-10.7311 -0.782694 0.248753 
-0.782694 -9.59737 -0.683789 
0.248753 -0.683789 -11.5346 
-9.42394 -0.0328382 -0.120547 
-0.0328382 -9.74989 -0.0492797 
-0.120547 -0.0492797 -9.64059 
-9.43802 -0.275957 0.0524836 
-0.275957 -9.80219 -0.19586 
0.0524836 -0.19586 -9.57421 
-9.36573 -0.241956 -0.00941803 
-0.241956 -9.84485 -0.160541 
-0.00941803 -0.160541 -9.60384 
-9.31577 -0.157267 0.325558 
-0.157267 -10.0216 -0.14832 
0.325558 -0.14832 -9.47702 
-9.57046 -0.00344082 0.306649 
-0.00344082 -9.56426 0.141869 
0.306649 0.141869 -9.62763 
-9.56296 0.0101638 0.310739 
0.0101638 -9.57759 0.118581 
0.310739 0.118581 -9.62179 
-9.57712 -0.00233762 0.322675 
-0.00233762 -9.56866 0.122203 
0.322675 0.122203 -9.61657 
-9.56742 0.00583144 0.315636 
0.00583144 -9.56056 0.14504 
0.315636 0.14504 -9.63437 
-9.81243 -0.000422151 -0.0352445 
-0.000422151 -9.79545 -0.0259026 
-0.0352445 -0.0259026 -9.9033 
-9.81246 0.00737997 -0.0296805 
0.00737997 -9.79862 -0.020178 
-0.0296805 -0.020178 -9.90009 
-9.81294 0.0059611 -0.0334272 
0.0059611 -9.80329 -0.0112159 
-0.0334272 -0.0112159 -9.89494 
-9.80094 -0.00612948 -0.0312626 
-0.00612948 -9.79036 -0.0309785 
-0.0312626 -0.0309785 -9.91988 
-9.95242 -1.46201e-05 -0.0633863 
-1.46201e-05 -9.91987 0.318799 
-0.0633863 0.318799 -9.93363 
-9.86736 0.0158917 -0.0468348 
0.0158917 -9.93409 0.285135 
-0.0468348 0.285135 -10.0045 
-9.94544 -0.00375887 -0.0636623 
-0.00375887 -9.92287 0.335769 
-0.0636623 0.335769 -9.93761 
-9.93795 0.0073246 -0.0484775 
0.0073246 -9.96747 0.325828 
-0.0484775 0.325828 -9.9005 
-7.47733 -4.47647 -0.724975 
-4.47647 -17.0571 6.31152 
-0.724975 6.31152 10.6152 
-0.525 1.19566 -0.315901 
1.19566 -2.83222 -2.88933 
-0.315901 -2.88933 -10.562 
-7.57783 -0.370913 1.64245 
-0.370913 -11.6733 3.68878 
1.64245 3.68878 5.33189 
-7.60999 1.92353 4.95407 
1.92353 0.607952 8.33065 
4.95407 8.33065 -6.91717 
-4.74714 0.244142 0.755525 
0.244142 -3.08428 0.445597 
0.755525 0.445597 -1.69374 
-4.99665 -0.0220494 -0.472607 
-0.0220494 -3.71604 0.761126 
-0.472607 0.761126 -0.812466 
-1.57776 0.884703 1.21202 
0.884703 -5.10143 0.943769 
1.21202 0.943769 -2.84597 
-4.82224 0.0670276 1.33564 
0.0670276 -2.68275 1.27035 
1.33564 1.27035 -2.02017 
-9.61033 -0.0616503 -0.0541921 
-0.0616503 -9.59063 -0.0153841 
-0.0541921 -0.0153841 -9.74439 
-9.59172 -0.0502565 -0.0637196 
-0.0502565 -9.60446 0.0260958 
-0.0637196 0.0260958 -9.74918 
-9.56388 -0.0241346 -0.0319466 
-0.0241346 -9.55454 -0.0366642 
-0.0319466 -0.0366642 -9.82693 
-9.65525 0.00210017 0.0183724 
0.00210017 -9.61175 0.0611613 
0.0183724 0.0611613 -9.67836 
-10.3067 1.20348 0.215757 
1.20348 -10.2444 -0.00337775 
0.215757 -0.00337775 -7.80584 
-9.53963 0.0623149 -2.40274 
0.0623149 -11.6525 -2.29982 
-2.40274 -2.29982 -7.1648 
-8.46539 -0.0167797 -0.879888 
-0.0167797 -9.08717 -0.575485 
-0.879888 -0.575485 -10.8044 
-11.0183 0.354898 0.204802 
0.354898 -8.29468 -0.592401 
0.204802 -0.592401 -9.04392 
-9.6192 0.00581532 -0.30512 
0.00581532 -9.64453 -0.139378 
-0.30512 -0.139378 -9.66143 
-9.6257 -0.00496773 -0.286156 
-0.00496773 -9.63356 -0.173452 
-0.286156 -0.173452 -9.6659 
-9.634 -0.0267341 -0.315526 
-0.0267341 -9.6417 -0.136571 
-0.315526 -0.136571 -9.64946 
-9.62906 -0.0205775 -0.295915 
-0.0205775 -9.65792 -0.126249 
-0.295915 -0.126249 -9.63818 
-9.36437 0.122506 -0.127309 
0.122506 -9.60119 -0.12396 
-0.127309 -0.12396 -9.96446 
-9.92497 -0.0298039 -0.16814 
-0.0298039 -9.40965 -0.0496902 
-0.16814 -0.0496902 -9.5954 
-9.32491 0.134161 -0.214526 
0.134161 -9.71918 -0.201872 
-0.214526 -0.201872 -9.88594 
-9.53356 0.295701 -0.0972898 
0.295701 -9.48948 -0.126656 
-0.0972898 -0.126656 -9.90699 
-9.09511 -0.20328 0.297355 
-0.20328 -10.0961 -0.45297 
0.297355 -0.45297 -9.6783 
-9.18392 0.137609 0.0993157 
0.137609 -9.87675 0.0192283 
0.0993157 0.0192283 -9.80883 
-9.80378 -0.210899 0.524097 
-0.210899 -9.37777 0.142111 
0.524097 0.142111 -9.68795 
-9.08 0.296151 0.325791 
0.296151 -9.7095 0.0276069 
0.325791 0.0276069 -10.08 
-9.9276 0.0205368 -0.208053 
0.0205368 -9.86612 0.0105468 
-0.208053 0.0105468 -9.93711 
-9.91131 0.00461992 -0.22526 
0.00461992 -9.91287 0.0111065 
-0.22526 0.0111065 -9.90665 
-9.91084 0.00444885 -0.223933 
0.00444885 -9.91371 0.0122347 
-0.223933 0.0122347 -9.90627 
-9.94953 0.0164349 -0.234288 
0.0164349 -9.90287 0.0206955 
-0.234288 0.0206955 -9.87843 
-9.91275 0.00379296 -0.194127 
0.00379296 -9.90887 -0.0688022 
-0.194127 -0.0688022 -9.9073 
-9.92179 0.0248429 -0.218959 
0.0248429 -9.87796 -0.035216 
-0.218959 -0.035216 -9.92916 
-9.92874 0.000808914 -0.206069 
0.000808914 -9.90235 -0.0440367 
-0.206069 -0.0440367 -9.89783 
-9.94934 0.0112645 -0.189381 
0.0112645 -9.90071 -0.0866435 
-0.189381 -0.0866435 -9.87887 
-8.486 -0.154332 -2.57759 
-0.154332 -10.5595 0.0181021 
-2.57759 0.0181021 -8.00743 
-8.0005 -0.246016 -1.96654 
-0.246016 -10.6224 -0.644 
-1.96654 -0.644 -8.43009 
-7.29728 0.0634526 -2.12098 
0.0634526 -9.0294 -0.822951 
-2.12098 -0.822951 -10.7263 
-8.15304 -0.507687 -1.25008 
-0.507687 -11.1322 -0.818737 
-1.25008 -0.818737 -7.76775 
-3.79916 -0.92374 1.31871 
-0.92374 -4.9254 0.861827 
1.31871 0.861827 1.87569 
-1.36005 1.04414 -0.310317 
1.04414 -1.1434 -1.82545 
-0.310317 -1.82545 -4.34542 
-6.36113 -0.422684 0.390358 
-0.422684 -2.38045 0.225703 
0.390358 0.225703 1.89272 
-4.07984 -1.23448 -0.591084 
-1.23448 -4.18223 -1.97138 
-0.591084 -1.97138 1.4132 
-7.66737 -1.44791 -0.605748 
-1.44791 -10.0201 0.411713 
-0.605748 0.411713 -11.3935 
-10.8216 -0.740254 -0.517027 
-0.740254 -9.51181 1.06591 
-0.517027 1.06591 -8.74755 
-9.18059 -0.314568 -0.486618 
-0.314568 -10.217 0.222873 
-0.486618 0.222873 -9.68334 
-8.10672 -0.431281 0.673792 
-0.431281 -9.64218 0.235305 
0.673792 0.235305 -11.332 
-11.7533 -1.01488 0.0545617 
-1.01488 -9.7966 -1.25544 
0.0545617 -1.25544 -14.5578 
-12.4598 -1.12236 0.823976 
-1.12236 -11.7179 -0.649965 
0.823976 -0.649965 -11.93 
-11.5935 -1.72959 0.742539 
-1.72959 -9.98569 -1.04569 
0.742539 -1.04569 -14.5286 
-11.8269 -0.591627 0.649267 
-0.591627 -10.4895 -0.441847 
0.649267 -0.441847 -13.7914 
-5.80564 0.161205 1.08015 
0.161205 -3.55319 0.285315 
1.08015 0.285315 1.04537 
-1.2984 -0.135617 1.45744 
-0.135617 -0.978887 -2.22334 
1.45744 -2.22334 -6.03618 
-4.02979 1.02261 -0.167596 
1.02261 -5.40474 0.79643 
-0.167596 0.79643 1.12107 
-4.52625 0.98984 1.64015 
0.98984 -4.59063 -2.00886 
1.64015 -2.00886 0.803425 
-1.45265 0.634821 -0.567568 
0.634821 -1.13598 0.42302 
-0.567568 0.42302 -10.2637 
-8.41698 0.626169 -1.06017 
0.626169 -8.88107 -1.70164 
-1.06017 -1.70164 4.44577 
-7.46117 0.505875 1.21477 
0.505875 -10.3888 -0.671735 
1.21477 -0.671735 4.99769 
-7.06804 -1.43711 2.94579 
-1.43711 -4.17097 -8.86248 
2.94579 -8.86248 -1.61327 
-9.76579 0.0236359 -0.0214322 
0.0236359 -9.64265 -0.00533103 
-0.0214322 -0.00533103 -9.59261 
-9.81655 0.010479 -0.0570833 
0.010479 -9.66531 0.0144088 
-0.0570833 0.0144088 -9.5192 
-9.72064 0.00129247 -0.0573576 
0.00129247 -9.60173 0.00393796 
-0.0573576 0.00393796 -9.67868 
-9.79917 -0.00685729 0.105391 
-0.00685729 -9.6076 -0.0781303 
0.105391 -0.0781303 -9.59428 
-9.50001 -0.128494 -0.0337519 
-0.128494 -9.65349 0.0862002 
-0.0337519 0.0862002 -9.59253 
-9.55063 -0.173345 -0.00491117 
-0.173345 -9.6882 0.0216348 
-0.00491117 0.0216348 -9.50721 
-9.49005 0.0316311 0.0998275 
0.0316311 -9.55066 0.174006 
0.0998275 0.174006 -9.70532 
-9.43776 -0.147479 -0.020219 
-0.147479 -9.71619 -0.0563788 
-0.020219 -0.0563788 -9.59208 
-9.76997 -0.00706385 0.00105936 
-0.00706385 -9.74066 -0.0101556 
0.00105936 -0.0101556 -9.88389 
-9.76623 -0.00604537 0.0112802 
-0.00604537 -9.74372 -0.00307638 
0.0112802 -0.00307638 -9.88458 
-9.73979 0.00617568 -0.000958138 
0.00617568 -9.75339 -0.00187251 
-0.000958138 -0.00187251 -9.90135 
-9.75944 -0.00427724 0.0163407 
-0.00427724 -9.75658 -0.0114844 
0.0163407 -0.0114844 -9.87851 
-9.01325 -0.18418 -0.862506 
-0.18418 -9.82235 -0.626923 
-0.862506 -0.626923 -9.30311 
-9.45611 0.271381 -0.169709 
0.271381 -9.51891 -0.369775 
-0.169709 -0.369775 -9.1637 
-9.64788 0.465577 -0.665565 
0.465577 -9.86737 -0.755537 
-0.665565 -0.755537 -8.62347 
-9.19 -0.0246688 -1.04411 
-0.0246688 -9.03232 -0.860072 
-1.04411 -0.860072 -9.91639 
-9.85258 -0.00937899 -0.193782 
-0.00937899 -9.8579 -0.257772 
-0.193782 -0.257772 -9.78189 
-9.79025 -0.00310131 -0.269793 
-0.00310131 -9.82874 -0.191738 
-0.269793 -0.191738 -9.87337 
-9.80844 -0.012638 -0.221344 
-0.012638 -9.86227 -0.220078 
-0.221344 -0.220078 -9.82166 
-9.81514 -0.00949569 -0.209796 
-0.00949569 -9.85988 -0.221657 
-0.209796 -0.221657 -9.81735 
-9.87648 -0.00931652 -0.121073 
-0.00931652 -9.87532 -0.0775241 
-0.121073 -0.0775241 -9.89235 
-9.88879 -0.018658 -0.113532 
-0.018658 -9.87605 -0.0745747 
-0.113532 -0.0745747 -9.87932 
-9.91556 -0.0213457 -0.124783 
-0.0213457 -9.88842 -0.0798176 
-0.124783 -0.0798176 -9.84017 
-9.89747 -0.0259676 -0.132887 
-0.0259676 -9.88984 -0.0568062 
-0.132887 -0.0568062 -9.85685 
-9.59135 0.0289667 0.00184852 
0.0289667 -9.5141 -0.106073 
0.00184852 -0.106073 -9.51716 
-9.4861 0.11609 -0.210629 
0.11609 -9.44041 0.0516943 
-0.210629 0.0516943 -9.6961 
-9.42077 0.0951909 -0.0699722 
0.0951909 -9.56368 0.0707903 
-0.0699722 0.0707903 -9.63816 
-9.37918 0.138074 -0.062743 
0.138074 -9.67156 0.172058 
-0.062743 0.172058 -9.57187 
-8.85577 0.560861 1.40789 
0.560861 -8.23968 -1.0389 
1.40789 -1.0389 -2.14022 
-7.97711 1.16589 2.96109 
1.16589 -6.20194 -1.66514 
2.96109 -1.66514 -5.05662 
-6.25969 -2.2975 1.52137 
-2.2975 -8.61359 -0.974017 
1.52137 -0.974017 -4.36239 
-7.24934 0.0202317 2.45925 
0.0202317 -8.43962 -1.57805 
2.45925 -1.57805 -3.54671 
-9.76263 -0.0080562 -0.0341856 
-0.0080562 -9.75852 -0.0326796 
-0.0341856 -0.0326796 -9.84828 
-9.75603 -0.0109335 -0.00999847 
-0.0109335 -9.76933 -0.0520589 
-0.00999847 -0.0520589 -9.84407 
-9.74758 -0.0200111 -0.00354615 
-0.0200111 -9.77755 -0.0363579 
-0.00354615 -0.0363579 -9.8443 
-9.76196 0.0104121 -0.0108293 
0.0104121 -9.74318 -0.049961 
-0.0108293 -0.049961 -9.86429 
-9.96343 0.00152467 0.0752359 
0.00152467 -9.96504 -0.0965185 
0.0752359 -0.0965185 -9.97357 
-9.95734 0.00658239 0.0671691 
0.00658239 -9.95278 -0.0998183 
0.0671691 -0.0998183 -9.99193 
-9.95626 0.00143874 0.0835697 
0.00143874 -9.94623 -0.104471 
0.0835697 -0.104471 -9.99955 
-9.96857 -0.00110995 0.0711148 
-0.00110995 -9.97413 -0.09722 
0.0711148 -0.09722 -9.95935 
-9.20927 -0.143216 -0.0519263 
-0.143216 -9.77013 0.0742618 
-0.0519263 0.0742618 -9.45402 
-9.29864 -0.257714 -0.216276 
-0.257714 -9.93302 -0.0412287 
-0.216276 -0.0412287 -9.20176 
-9.44958 -0.26678 0.0332591 
-0.26678 -9.65948 0.0120388 
0.0332591 0.0120388 -9.32437 
-9.23904 -0.195479 -0.088059 
-0.195479 -9.7859 0.0806158 
-0.088059 0.0806158 -9.40848 
-9.7717 -0.380957 -0.00444491 
-0.380957 -8.46875 -0.97179 
-0.00444491 -0.97179 -10.6851 
-9.61991 -0.234832 0.159944 
-0.234832 -8.78185 -0.268044 
0.159944 -0.268044 -10.5238 
-9.62186 0.112052 -0.30879 
0.112052 -8.67465 -0.139331 
-0.30879 -0.139331 -10.629 
-9.53027 -0.143296 0.257766 
-0.143296 -9.27379 -0.0447138 
0.257766 -0.0447138 -10.1215 
-9.65693 0.0254253 -0.0198194 
0.0254253 -9.62892 0.0330776 
-0.0198194 0.0330776 -9.76102 
-9.61835 0.0149297 -0.040232 
0.0149297 -9.71805 0.024924 
-0.040232 0.024924 -9.71046 
-9.67624 0.015392 0.0210409 
0.015392 -9.66056 -0.00879996 
0.0210409 -0.00879996 -9.71007 
-9.60832 0.0323199 -0.0163117 
0.0323199 -9.70683 -0.0470667 
-0.0163117 -0.0470667 -9.73172 
-10.3759 0.0724636 -0.16312 
0.0724636 -10.4806 -0.359838 
-0.16312 -0.359838 -12.1113 
-10.7178 0.00739103 -0.0725675 
0.00739103 -10.142 0.102312 
-0.0725675 0.102312 -12.108 
-11.6338 -0.278904 0.152908 
-0.278904 -11.2546 0.483084 
0.152908 0.483084 -10.0794 
-11.0437 0.30496 0.909845 
0.30496 -10.3613 0.139836 
0.909845 0.139836 -11.5627 
-9.93904 -0.0283179 -0.105716 
-0.0283179 -9.92041 -0.176879 
-0.105716 -0.176879 -9.93105 
-9.82708 0.00648901 -0.11133 
0.00648901 -9.94836 -0.227552 
-0.11133 -0.227552 -10.0151 
-9.91666 0.0185805 -0.142803 
0.0185805 -10.0111 -0.179331 
-0.142803 -0.179331 -9.86275 
-9.94477 -0.0158202 -0.118144 
-0.0158202 -9.9181 -0.155103 
-0.118144 -0.155103 -9.92762 
-10.5006 -0.00824453 0.138913 
-0.00824453 -9.17559 -0.983147 
0.138913 -0.983147 -9.89796 
-10.1013 -0.151674 0.0322524 
-0.151674 -8.87909 -0.646934 
0.0322524 -0.646934 -10.5937 
-9.26428 0.290675 0.254287 
0.290675 -9.98839 0.700131 
0.254287 0.700131 -10.3215 
-10.017 -0.290371 0.167389 
-0.290371 -8.78738 -0.591702 
0.167389 -0.591702 -10.7698 
-8.06797 -0.241305 0.459959 
-0.241305 -8.11603 1.09151 
0.459959 1.09151 -1.69098 
-9.64628 0.171147 0.310411 
0.171147 -5.06627 1.62648 
0.310411 1.62648 -3.16242 
-6.90423 -0.320174 0.748744 
-0.320174 -7.60554 2.34146 
0.748744 2.34146 -3.3652 
-7.39059 0.467514 -0.344107 
0.467514 -7.64185 2.73471 
-0.344107 2.73471 -2.84253 
-11.1601 3.18538 5.80086 
3.18538 -10.5932 4.98996 
5.80086 4.98996 -6.50537 
-9.90565 0.456669 3.09307 
0.456669 -9.01733 2.18801 
3.09307 2.18801 -9.33565 
-11.2943 -2.59806 1.64758 
-2.59806 -10.1897 1.13231 
1.64758 1.13231 -6.77459 
-7.66908 3.05666 0.468632 
3.05666 -9.09841 1.5542 
0.468632 1.5542 -11.4911 
-8.11019 1.3402 -1.78361 
1.3402 -9.77597 -3.01196 
-1.78361 -3.01196 -5.0505 
-9.13516 -1.54918 -1.22362 
-1.54918 -6.74772 -2.41319 
-1.22362 -2.41319 -7.05378 
-8.19252 0.165843 -0.367535 
0.165843 -8.4319 -3.29115 
-0.367535 -3.29115 -6.31224 
-7.89148 1.61962 1.39476 
1.61962 -7.80177 -2.83382 
1.39476 -2.83382 -7.24342 
-9.93055 0.00249176 -0.206625 
0.00249176 -9.87381 0.0604569 
-0.206625 0.0604569 -9.9338 
-9.91618 -0.00146393 -0.227206 
-0.00146393 -9.91701 0.056356 
-0.227206 0.056356 -9.90497 
-9.91466 0.00498142 -0.222928 
0.00498142 -9.91519 0.0619995 
-0.222928 0.0619995 -9.90831 
-9.94782 0.0058363 -0.233065 
0.0058363 -9.90894 0.0479331 
-0.233065 0.0479331 -9.8814 
-11.2041 0.737083 0.834658 
0.737083 -8.16017 0.44923 
0.834658 0.44923 -12.4969 
-8.77555 0.721894 -0.410304 
0.721894 -11.5342 0.442739 
-0.410304 0.442739 -11.5514 
-11.3824 0.591946 0.710464 
0.591946 -9.33521 0.924183 
0.710464 0.924183 -11.1435 
-10.3755 -0.183565 1.07619 
-0.183565 -9.68318 1.53852 
1.07619 1.53852 -11.8025 
-9.48462 0.0990923 -0.232563 
0.0990923 -9.55784 -0.282522 
-0.232563 -0.282522 -9.20801 
-9.09442 -0.149826 -0.659321 
-0.149826 -9.98307 -0.559049 
-0.659321 -0.559049 -9.17298 
-9.18132 -0.396068 0.0798379 
-0.396068 -9.54973 -0.122514 
0.0798379 -0.122514 -9.51943 
-9.48653 0.130901 -0.449506 
0.130901 -9.27464 -0.550354 
-0.449506 -0.550354 -9.48931 
-8.9493 0.296626 0.0996378 
0.296626 -9.57326 0.330771 
0.0996378 0.330771 -9.09763 
-8.97196 0.0799521 -0.240624 
0.0799521 -9.33761 0.482214 
-0.240624 0.482214 -9.31062 
-8.81153 0.30879 -0.169933 
0.30879 -9.92284 0.494549 
-0.169933 0.494549 -8.88582 
-9.1422 0.0860749 -0.108009 
0.0860749 -9.39775 0.0968199 
-0.108009 0.0968199 -9.08024 
-9.08976 -0.375895 2.12987 
-0.375895 -7.32055 0.183078 
2.12987 0.183078 -2.76281 
-7.94347 -0.922208 1.82942 
-0.922208 -6.69701 -1.68858 
1.82942 -1.68858 -4.53264 
-10.2705 -1.11783 1.91021 
-1.11783 -6.32215 -1.83221 
1.91021 -1.83221 -2.5805 
-8.37314 -2.04313 1.98541 
-2.04313 -7.10344 2.01674 
1.98541 2.01674 -3.69653 
-9.76417 -0.00828052 -0.0158116 
-0.00828052 -9.76845 0.011566 
-0.0158116 0.011566 -9.89072 
-9.76543 0.00140294 -0.0136339 
0.00140294 -9.75816 0.0104785 
-0.0136339 0.0104785 -9.89974 
-9.76361 -0.00660333 -0.0191203 
-0.00660333 -9.76818 0.0128992 
-0.0191203 0.0128992 -9.89155 
-9.77849 0.00329486 -0.0212522 
0.00329486 -9.7673 0.0185625 
-0.0212522 0.0185625 -9.87754 
-8.34524 -0.712346 -2.33243 
-0.712346 -11.9994 0.818742 
-2.33243 0.818742 -16.1096 
-11.0115 -0.477984 -0.737928 
-0.477984 -13.0287 -0.209436 
-0.737928 -0.209436 -12.414 
-12.4936 -0.868158 -1.31699 
-0.868158 -12.8979 -0.00987269 
-1.31699 -0.00987269 -11.0627 
-10.1127 -0.400232 0.342621 
-0.400232 -13.2806 0.732288 
0.342621 0.732288 -13.061 
-9.67208 -0.00881964 -0.0335883 
-0.00881964 -9.61341 0.367158 
-0.0335883 0.367158 -9.67129 
-9.63376 0.0277105 -0.0458546 
0.0277105 -9.7495 0.35864 
-0.0458546 0.35864 -9.57352 
-9.63813 -0.0127938 -0.0483255 
-0.0127938 -9.62924 0.371107 
-0.0483255 0.371107 -9.6894 
-9.64732 -0.0352152 -0.0103388 
-0.0352152 -9.6464 0.324057 
-0.0103388 0.324057 -9.66306 
-9.71615 -0.0138055 -0.143804 
-0.0138055 -9.74049 -0.215917 
-0.143804 -0.215917 -9.69276 
-9.71258 -0.0119871 -0.13291 
-0.0119871 -9.76909 -0.229269 
-0.13291 -0.229269 -9.66773 
-9.71111 -0.0114419 -0.122984 
-0.0114419 -9.74537 -0.204921 
-0.122984 -0.204921 -9.69291 
-9.7106 -0.0123561 -0.138744 
-0.0123561 -9.72138 -0.229728 
-0.138744 -0.229728 -9.71743 
-10.0404 0.383941 0.828188 
0.383941 -9.59764 0.600278 
0.828188 0.600278 -9.42973 
-10.1146 0.282246 0.858401 
0.282246 -9.69523 0.241182 
0.858401 0.241182 -9.25799 
-9.53677 0.223532 0.273078 
0.223532 -9.88305 0.0974282 
0.273078 0.0974282 -9.64795 
-9.19167 0.204722 1.13331 
0.204722 -10.5982 0.047243 
1.13331 0.047243 -9.27787 
-9.73369 -0.0176231 -0.214781 
-0.0176231 -9.73944 0.297261 
-0.214781 0.297261 -9.69747 
-9.7159 0.0221004 -0.185036 
0.0221004 -9.68006 0.257381 
-0.185036 0.257381 -9.77464 
-9.71319 0.0095361 -0.199606 
0.0095361 -9.74041 0.301152 
-0.199606 0.301152 -9.71699 
-9.76639 0.00778225 -0.187383 
0.00778225 -9.75034 0.264848 
-0.187383 0.264848 -9.65386 
-9.58703 0.0357839 -0.0962258 
0.0357839 -9.71104 -0.0119649 
-0.0962258 -0.0119649 -10.1571 
-9.5452 0.0478321 -0.036382 
0.0478321 -9.70923 -0.0594334 
-0.036382 -0.0594334 -10.2007 
-9.55009 0.0360647 -0.0970975 
0.0360647 -9.75063 -0.00700087 
-0.0970975 -0.00700087 -10.1544 
-9.53526 0.0184347 -0.091293 
0.0184347 -9.73407 -0.0127685 
-0.091293 -0.0127685 -10.1858 
-9.15897 -0.208283 0.0839334 
-0.208283 -9.76138 -0.459625 
0.0839334 -0.459625 -9.22743 
-9.65188 -0.166459 -0.434207 
-0.166459 -9.39659 -0.350314 
-0.434207 -0.350314 -9.09931 
-9.34889 -0.40517 0.277778 
-0.40517 -9.7762 -0.597157 
0.277778 -0.597157 -9.02269 
-9.11588 -0.18533 0.0627957 
-0.18533 -9.74153 -0.122234 
0.0627957 -0.122234 -9.29037 
-9.56246 -0.0753513 -0.0996359 
-0.0753513 -9.67372 -0.109633 
-0.0996359 -0.109633 -9.52683 
-9.34604 -0.2688 0.0490381 
-0.2688 -9.81369 -0.0159074 
0.0490381 -0.0159074 -9.60328 
-9.52938 -0.1599 -0.111943 
-0.1599 -9.80111 -0.163487 
-0.111943 -0.163487 -9.43252 
-9.51939 -0.195209 -0.283119 
-0.195209 -9.55579 0.0134004 
-0.283119 0.0134004 -9.68783 
-9.54462 0.129028 0.397721 
0.129028 -9.26868 -0.0590419 
0.397721 -0.0590419 -9.49115 
-9.57622 0.226249 0.253895 
0.226249 -9.20369 -0.146915 
0.253895 -0.146915 -9.52455 
-9.45048 0.0424581 0.371112 
0.0424581 -9.21539 -0.23785 
0.371112 -0.23785 -9.63859 
-9.3502 0.203219 0.282481 
0.203219 -9.58572 0.0290436 
0.282481 0.0290436 -9.36854 
-9.52711 0.0103274 0.34536 
0.0103274 -9.47796 -0.0622051 
0.34536 -0.0622051 -9.49935 
-9.37928 -0.0736013 0.315793 
-0.0736013 -9.57201 -0.0866127 
0.315793 -0.0866127 -9.55313 
-9.56104 -0.0135538 0.367866 
-0.0135538 -9.45143 -0.0261873 
0.367866 -0.0261873 -9.49196 
-9.42958 0.0210836 0.408377 
0.0210836 -9.5056 -0.1127 
0.408377 -0.1127 -9.56925 
-9.68369 -0.00635737 -0.113399 
-0.00635737 -9.72364 -0.215398 
-0.113399 -0.215398 -9.65575 
-9.69429 -0.00786212 -0.0964798 
-0.00786212 -9.72698 -0.213946 
-0.0964798 -0.213946 -9.64179 
-9.693 0.000108686 -0.163289 
0.000108686 -9.68166 -0.218204 
-0.163289 -0.218204 -9.68841 
-9.66767 -0.00864796 -0.144696 
-0.00864796 -9.74461 -0.196118 
-0.144696 -0.196118 -9.65079 
-9.18728 -0.306784 -0.0738252 
-0.306784 -8.79792 -0.862489 
-0.0738252 -0.862489 -7.78577 
-9.70259 -0.0822935 -0.273047 
-0.0822935 -8.76737 -1.26515 
-0.273047 -1.26515 -7.30102 
-9.10055 -0.0730619 0.0452493 
-0.0730619 -8.7648 -0.762594 
0.0452493 -0.762594 -7.90562 
-9.12147 -0.183344 0.319951 
-0.183344 -8.70539 -0.871 
0.319951 -0.871 -7.94412 
-9.98337 -0.00323184 0.276718 
-0.00323184 -9.94701 0.0847857 
0.276718 0.0847857 -10.0024 
-9.97089 -0.000622863 0.264145 
-0.000622863 -9.96941 0.087103 
0.264145 0.087103 -9.99243 
-9.98094 -0.00912357 0.271726 
-0.00912357 -9.98284 0.0921595 
0.271726 0.0921595 -9.96895 
-9.98358 -0.000758839 0.26987 
-0.000758839 -9.9876 0.0898354 
0.26987 0.0898354 -9.96155 
-9.39867 -0.209126 0.285333 
-0.209126 -9.48034 -0.235166 
0.285333 -0.235166 -9.74162 
-8.79472 -0.311894 0.553962 
-0.311894 -10.0788 -0.313556 
0.553962 -0.313556 -9.74707 
-9.48495 0.236189 0.576393 
0.236189 -9.56658 0.0322023 
0.576393 0.0322023 -9.5691 
-9.56392 0.0531833 0.586435 
0.0531833 -9.49482 -0.265556 
0.586435 -0.265556 -9.5619 
-9.77464 0.730735 -0.0898076 
0.730735 -10.493 -0.374576 
-0.0898076 -0.374576 -11.5858 
-10.9414 -0.115296 -0.608906 
-0.115296 -10.0973 -0.390499 
-0.608906 -0.390499 -10.8147 
-9.88826 0.515334 -0.37466 
0.515334 -10.4147 -0.439892 
-0.37466 -0.439892 -11.5504 
-9.82627 0.468195 -0.292103 
0.468195 -10.5687 -0.60299 
-0.292103 -0.60299 -11.4584 
-9.74932 0.0101775 -0.20077 
0.0101775 -9.62683 -0.466497 
-0.20077 -0.466497 -9.40071 
-9.56341 -0.0559584 -0.158778 
-0.0559584 -9.60864 -0.249469 
-0.158778 -0.249469 -9.60481 
-9.62966 0.0743176 -0.255469 
0.0743176 -9.76054 -0.217683 
-0.255469 -0.217683 -9.38666 
-9.70339 0.0138186 -0.180753 
0.0138186 -9.71665 -0.227625 
-0.180753 -0.227625 -9.35683 
-9.90348 -0.0242897 -0.190346 
-0.0242897 -9.92008 -0.169613 
-0.190346 -0.169613 -9.94428 
-9.94352 -0.0263118 -0.167647 
-0.0263118 -9.92554 -0.113953 
-0.167647 -0.113953 -9.89877 
-9.9137 -0.0114731 -0.180619 
-0.0114731 -9.92532 -0.136842 
-0.180619 -0.136842 -9.92882 
-9.92641 0.00153223 -0.179654 
0.00153223 -9.92532 -0.159598 
-0.179654 -0.159598 -9.9161 
-9.62128 0.22007 0.876665 
0.22007 -9.61668 -0.0451927 
0.876665 -0.0451927 -9.539 
-10.2947 0.722315 0.608948 
0.722315 -9.1877 0.382858 
0.608948 0.382858 -9.29456 
-9.66089 0.305772 0.325167 
0.305772 -9.26965 -0.157602 
0.325167 -0.157602 -9.84642 
-9.6383 0.323693 0.506689 
0.323693 -9.58387 0.0411819 
0.506689 0.0411819 -9.55478 
-9.42697 0.275007 -0.119012 
0.275007 -10.0261 0.0447615 
-0.119012 0.0447615 -9.49045 
-9.56877 -0.00469494 -0.0420581 
-0.00469494 -9.55434 -0.0391463 
-0.0420581 -0.0391463 -9.82045 
-9.12443 0.357835 0.0962703 
0.357835 -9.84891 -0.353086 
0.0962703 -0.353086 -9.97022 
-9.2407 -0.163422 0.577193 
-0.163422 -9.84628 -0.0221091 
0.577193 -0.0221091 -9.85657 
-9.93803 -0.0103743 -0.109334 
-0.0103743 -9.94799 0.0201969 
-0.109334 0.0201969 -9.99812 
-9.96074 -0.000957558 -0.098521 
-0.000957558 -9.9523 0.0225927 
-0.098521 0.0225927 -9.97109 
-9.94486 -0.00311568 -0.0960636 
-0.00311568 -9.94226 0.0332436 
-0.0960636 0.0332436 -9.99701 
-9.96192 0.00285068 -0.0954334 
0.00285068 -9.96366 0.0236114 
-0.0954334 0.0236114 -9.95856 
-5.68033 -0.0849845 -0.385572 
-0.0849845 -5.44321 1.19331 
-0.385572 1.19331 2.61982 
-0.261471 -0.728497 1.81732 
-0.728497 1.38302 -2.7873 
1.81732 -2.7873 -9.62526 
-4.7018 -0.128102 -1.43682 
-0.128102 -8.20027 -0.0831015 
-1.43682 -0.0831015 4.39836 
-6.94526 1.17792 4.30219 
1.17792 -5.85754 -1.41401 
4.30219 -1.41401 4.29909 
-9.38764 1.75036 -0.813089 
1.75036 -8.75839 2.96035 
-0.813089 2.96035 -12.65 
-9.88251 1.23369 -0.447967 
1.23369 -9.53145 1.34499 
-0.447967 1.34499 -11.3821 
-11.5148 -0.689486 -0.409457 
-0.689486 -8.10015 1.19075 
-0.409457 1.19075 -11.1811 
-10.5551 -0.0279759 0.720412 
-0.0279759 -8.74812 1.50742 
0.720412 1.50742 -11.4928 
-9.97659 0.000458918 -0.0217599 
0.000458918 -9.98917 -0.282569 
-0.0217599 -0.282569 -9.96974 
-9.96714 -0.00955122 -0.0257301 
-0.00955122 -9.9824 -0.283051 
-0.0257301 -0.283051 -9.98596 
-9.96031 -0.00178324 -0.0243946 
-0.00178324 -9.97025 -0.271657 
-0.0243946 -0.271657 -10.0049 
-9.98554 0.000317056 -0.0246576 
0.000317056 -9.98762 -0.287815 
-0.0246576 -0.287815 -9.96234 
-9.93455 -0.00223774 -0.17399 
-0.00223774 -9.94726 -0.0515009 
-0.17399 -0.0515009 -10.0195 
-9.95166 0.0073471 -0.168475 
0.0073471 -9.9572 -0.0731979 
-0.168475 -0.0731979 -9.99249 
-9.9781 -0.0012604 -0.176565 
-0.0012604 -9.97323 -0.0644334 
-0.176565 -0.0644334 -9.95001 
-9.98801 -0.00645056 -0.157434 
-0.00645056 -9.96557 -0.0644122 
-0.157434 -0.0644122 -9.94776 
-9.86402 -0.000162572 -0.145756 
-0.000162572 -9.88269 -0.143314 
-0.145756 -0.143314 -9.77886 
-9.86941 -0.0194024 -0.169704 
-0.0194024 -9.87074 -0.185365 
-0.169704 -0.185365 -9.78542 
-9.86997 -0.0213163 -0.175202 
-0.0213163 -9.86308 -0.173141 
-0.175202 -0.173141 -9.79252 
-9.84926 -0.0136975 -0.181548 
-0.0136975 -9.84415 -0.17734 
-0.181548 -0.17734 -9.83216 
-9.68648 -0.239906 0.445394 
-0.239906 -9.90805 0.307526 
0.445394 0.307526 -10.202 
-9.90139 0.251708 -0.0588063 
0.251708 -9.65771 -0.161307 
-0.0588063 -0.161307 -10.2374 
-9.9611 0.310946 0.0237593 
0.310946 -9.60988 -0.137529 
0.0237593 -0.137529 -10.2255 
-9.86185 0.265028 0.152883 
0.265028 -9.47949 -0.139609 
0.152883 -0.139609 -10.4552 
-6.5877 1.24261 -1.92249 
1.24261 -9.17092 -2.31242 
-1.92249 -2.31242 -5.96537 
-9.19601 -0.1071 -1.86611 
-0.1071 -8.06529 -3.55189 
-1.86611 -3.55189 -4.46269 
-7.89376 0.474907 -2.44768 
0.474907 -8.41427 -2.0977 
-2.44768 -2.0977 -5.41596 
-8.56759 0.164075 -3.46207 
0.164075 -6.0225 -1.01891 
-3.46207 -1.01891 -7.13391 
-9.77825 -0.0269712 0.162425 
-0.0269712 -9.78642 0.158437 
0.162425 0.158437 -9.74424 
-9.77551 0.0198435 0.197274 
0.0198435 -9.71045 0.119677 
0.197274 0.119677 -9.82295 
-9.80998 -0.0208296 0.171061 
-0.0208296 -9.79462 0.183722 
0.171061 0.183722 -9.7043 
-9.77529 -0.0329916 0.151425 
-0.0329916 -9.79625 0.15397 
0.151425 0.15397 -9.73737 
-9.98506 -0.00132627 -0.133352 
-0.00132627 -9.97699 0.118045 
-0.133352 0.118045 -9.96509 
-9.95966 0.00121952 -0.129798 
0.00121952 -9.9609 0.108369 
-0.129798 0.108369 -10.0066 
-9.98771 0.00145592 -0.141095 
0.00145592 -9.95152 0.111933 
-0.141095 0.111933 -9.98791 
-9.98327 0.00185978 -0.134868 
0.00185978 -9.98618 0.11566 
-0.134868 0.11566 -9.95769 
-9.75943 -0.000958985 0.0310095 
-0.000958985 -9.7873 -0.0292349 
0.0310095 -0.0292349 -9.8306 
-9.76685 -0.0141833 0.0782651 
-0.0141833 -9.74743 -0.118396 
0.0782651 -0.118396 -9.86304 
-9.77541 0.00572833 0.0396846 
0.00572833 -9.78429 -0.0618956 
0.0396846 -0.0618956 -9.81762 
-9.78724 0.0400738 0.0179833 
0.0400738 -9.82358 -0.0625303 
0.0179833 -0.0625303 -9.76651 
-9.43331 -0.0168888 0.322914 
-0.0168888 -9.54384 -0.0708194 
0.322914 -0.0708194 -9.64634 
-9.62571 0.0144135 0.318538 
0.0144135 -9.45958 -0.102882 
0.318538 -0.102882 -9.53819 
-9.53671 -0.0178197 0.304821 
-0.0178197 -9.51691 -0.0797111 
0.304821 -0.0797111 -9.56987 
-9.54108 -0.0651135 0.277559 
-0.0651135 -9.49083 -0.083543 
0.277559 -0.083543 -9.59158 
-9.33995 -0.131527 0.357896 
-0.131527 -9.38924 -0.304927 
0.357896 -0.304927 -9.6046 
-9.22903 -0.0140843 0.579143 
-0.0140843 -9.04418 -0.733155 
0.579143 -0.733155 -10.0606 
-9.148 -0.181617 0.293644 
-0.181617 -9.34482 -0.440133 
0.293644 -0.440133 -9.84097 
-8.99254 -0.616888 0.0379041 
-0.616888 -9.10732 -0.506818 
0.0379041 -0.506818 -10.2339 
-9.83333 0.0201713 -0.242938 
0.0201713 -9.786 0.0271273 
-0.242938 0.0271273 -9.7902 
-9.83718 0.00781826 -0.228428 
0.00781826 -9.79252 0.0541428 
-0.228428 0.0541428 -9.77983 
-9.83457 0.0023779 -0.219028 
0.0023779 -9.78058 0.0518947 
-0.219028 0.0518947 -9.79437 
-9.82835 0.00444871 -0.240541 
0.00444871 -9.77599 0.0202891 
-0.240541 0.0202891 -9.80518 
-9.81252 -0.00602104 -0.0639064 
-0.00602104 -9.85042 -0.114437 
-0.0639064 -0.114437 -9.7939 
-9.8083 -0.0196182 -0.0613727 
-0.0196182 -9.83195 -0.13305 
-0.0613727 -0.13305 -9.81659 
-9.81326 -0.0167591 -0.0773173 
-0.0167591 -9.82975 -0.123403 
-0.0773173 -0.123403 -9.81383 
-9.81754 -0.0226679 -0.067684 
-0.0226679 -9.84281 -0.131781 
-0.067684 -0.131781 -9.79649 
-9.73817 -0.008455 -0.110962 
-0.008455 -9.7268 0.339137 
-0.110962 0.339137 -9.79995 
-9.7497 -0.00312923 -0.0816647 
-0.00312923 -9.74995 0.33439 
-0.0816647 0.33439 -9.76528 
-9.75484 0.0229061 -0.0989628 
0.0229061 -9.8132 0.347802 
-0.0989628 0.347802 -9.69689 
-9.74144 -0.0110804 -0.0649611 
-0.0110804 -9.75841 0.310056 
-0.0649611 0.310056 -9.76508 
-10.857 0.75643 -0.646478 
0.75643 -12.7349 -0.283823 
-0.646478 -0.283823 -14.6656 
-9.75352 2.20357 -0.907287 
2.20357 -12.0096 -0.841502 
-0.907287 -0.841502 -16.4945 
-9.30356 1.15428 -1.19268 
1.15428 -12.5708 -0.00838721 
-1.19268 -0.00838721 -16.3832 
-11.1086 0.942277 -0.710195 
0.942277 -12.6264 -0.234853 
-0.710195 -0.234853 -14.5226 
-9.56014 0.012614 -0.051143 
0.012614 -9.55997 -0.318536 
-0.051143 -0.318536 -9.53929 
-9.60998 -0.00180051 -0.0839156 
-0.00180051 -9.50822 -0.392056 
-0.0839156 -0.392056 -9.5412 
-9.59932 0.00824078 -0.0554519 
0.00824078 -9.53685 -0.349356 
-0.0554519 -0.349356 -9.52323 
-9.58597 -0.0372166 -0.0194915 
-0.0372166 -9.53889 -0.393645 
-0.0194915 -0.393645 -9.53454 
-9.5594 -0.0425477 -0.313834 
-0.0425477 -9.56441 0.0763393 
-0.313834 0.0763393 -9.60552 
-9.53571 -0.0415257 -0.351225 
-0.0415257 -9.52542 0.107446 
-0.351225 0.107446 -9.66821 
-9.49193 -0.0841978 -0.300844 
-0.0841978 -9.44675 0.127704 
-0.300844 0.127704 -9.79066 
-9.54351 -0.00705861 -0.385981 
-0.00705861 -9.55515 0.140793 
-0.385981 0.140793 -9.63067 
-9.51949 -0.0982797 0.180425 
-0.0982797 -9.57673 -0.144074 
0.180425 -0.144074 -10.5912 
-9.97184 -0.213817 0.243899 
-0.213817 -9.62308 -0.226918 
0.243899 -0.226918 -10.0925 
-9.36805 -0.0452858 0.194939 
-0.0452858 -9.89067 -0.166569 
0.194939 -0.166569 -10.4287 
-9.26365 0.0988896 0.506017 
0.0988896 -9.96854 -0.191426 
0.506017 -0.191426 -10.4552 
-9.37053 -0.00120872 -0.0347086 
-0.00120872 -9.52995 -0.0102879 
-0.0347086 -0.0102879 -9.85034 
-9.56027 -0.0121106 -0.019046 
-0.0121106 -9.41899 -0.0119925 
-0.019046 -0.0119925 -9.77155 
-9.40413 0.0281589 -0.00765056 
0.0281589 -9.51768 -0.021743 
-0.00765056 -0.021743 -9.829 
-9.39926 0.0268205 -0.00845539 
0.0268205 -9.51399 -0.0136375 
-0.00845539 -0.0136375 -9.83757 
-9.49714 0.114883 0.176405 
0.114883 -9.67756 0.0461687 
0.176405 0.0461687 -9.62116 
-9.56635 -0.0242513 -0.201455 
-0.0242513 -9.3629 0.0409546 
-0.201455 0.0409546 -9.86662 
-9.24881 0.190377 0.149561 
0.190377 -9.44225 0.158885 
0.149561 0.158885 -10.1048 
-9.34163 -0.0743408 -0.204462 
-0.0743408 -9.77585 0.217912 
-0.204462 0.217912 -9.67838 
-9.62943 -0.0104881 0.244534 
-0.0104881 -9.63626 0.0906513 
0.244534 0.0906513 -9.57247 
-9.65138 -0.0470804 0.231847 
-0.0470804 -9.61692 0.173338 
0.231847 0.173338 -9.56985 
-9.71229 -0.0663129 0.231594 
-0.0663129 -9.55949 0.087832 
0.231594 0.087832 -9.56638 
-9.66266 -0.0273933 0.241689 
-0.0273933 -9.61044 0.1076 
0.241689 0.1076 -9.56506 
-9.58284 -0.244621 -0.0360998 
-0.244621 -9.75903 0.138947 
-0.0360998 0.138947 -9.56131 
-9.68635 0.187733 0.130875 
0.187733 -9.25813 0.239511 
0.130875 0.239511 -9.95871 
-9.6948 0.154927 0.215388 
0.154927 -9.41364 0.299681 
0.215388 0.299681 -9.79475 
-9.42858 0.151089 0.166123 
0.151089 -9.6333 0.235678 
0.166123 0.235678 -9.8413 
-9.95157 0.0117658 0.0382593 
0.0117658 -9.97458 0.130423 
0.0382593 0.130423 -9.97572 
-9.96095 -0.00375994 0.0421739 
-0.00375994 -9.9695 0.131676 
0.0421739 0.131676 -9.97141 
-9.93484 -0.00353693 0.0379203 
-0.00353693 -9.94436 0.146541 
0.0379203 0.146541 -10.0227 
-9.97083 -0.00538649 0.0419802 
-0.00538649 -9.97583 0.120278 
0.0419802 0.120278 -9.9552 
-10.4016 -1.26378 0.970413 
-1.26378 -12.3094 -0.934658 
0.970413 -0.934658 -16.7458 
-9.30676 -2.6506 -0.677785 
-2.6506 -11.9308 -0.492831 
-0.677785 -0.492831 -18.2194 
-11.9547 -0.688896 -1.22121 
-0.688896 -15.8897 1.14545 
-1.22121 1.14545 -11.6125 
-11.27 -1.27029 1.91878 
-1.27029 -12.9592 3.05461 
1.91878 3.05461 -15.2277 
-9.55191 -0.407725 -0.135966 
-0.407725 -9.36008 0.463044 
-0.135966 0.463044 -9.46013 
-9.53523 0.340882 -0.196139 
0.340882 -9.40711 -0.103744 
-0.196139 -0.103744 -9.42979 
-9.45313 -0.207632 -0.135735 
-0.207632 -9.22295 0.319386 
-0.135735 0.319386 -9.69605 
-9.65942 -0.0180635 -0.00463963 
-0.0180635 -9.02152 0.420468 
-0.00463963 0.420468 -9.69118 
-9.80698 -0.102544 0.111562 
-0.102544 -9.71562 0.078719 
0.111562 0.078719 -9.92277 
-9.82872 0.0283995 -0.0423329 
0.0283995 -9.64988 -0.12242 
-0.0423329 -0.12242 -9.96678 
-9.72317 -0.0778454 0.0641261 
-0.0778454 -9.7687 0.113441 
0.0641261 0.113441 -9.95351 
-9.75377 0.0171145 0.0860277 
0.0171145 -9.68411 0.0439679 
0.0860277 0.0439679 -10.0075 
-9.06079 -0.0234381 -0.328467 
-0.0234381 -9.6742 0.619596 
-0.328467 0.619596 -9.60196 
-9.36353 -0.1892 -0.479963 
-0.1892 -9.5085 0.615092 
-0.479963 0.615092 -9.46493 
-9.22881 -0.0138204 -0.271122 
-0.0138204 -9.83771 0.388511 
-0.271122 0.388511 -9.27043 
-9.66376 0.195793 -0.0968309 
0.195793 -9.27198 0.229378 
-0.0968309 0.229378 -9.40121 
-9.63973 -0.277298 0.251878 
-0.277298 -9.21922 -0.375843 
0.251878 -0.375843 -9.50637 
-9.20415 -0.334593 0.500229 
-0.334593 -9.45793 -0.23165 
0.500229 -0.23165 -9.70325 
-9.22035 -0.0108097 0.43095 
-0.0108097 -9.31952 -0.108723 
0.43095 -0.108723 -9.82546 
-9.63256 -0.157081 0.312087 
-0.157081 -9.44148 -0.391989 
0.312087 -0.391989 -9.29128 
-9.94999 0.00227279 0.0602473 
0.00227279 -9.93806 -0.0300048 
0.0602473 -0.0300048 -10.0132 
-9.97187 0.00126829 0.0540776 
0.00126829 -9.96024 -0.0235303 
0.0540776 -0.0235303 -9.9691 
-9.97043 -0.0106284 0.0520113 
-0.0106284 -9.94538 -0.0335868 
0.0520113 -0.0335868 -9.98542 
-9.97602 0.00347193 0.0480872 
0.00347193 -9.96195 -0.0205907 
0.0480872 -0.0205907 -9.96325 
-9.42116 -0.188609 -0.184708 
-0.188609 -9.49224 0.185542 
-0.184708 0.185542 -10.5116 
-9.43293 -0.138483 -0.07635 
-0.138483 -9.39152 0.138232 
-0.07635 0.138232 -10.6006 
-9.44175 0.0172712 -0.0180438 
0.0172712 -9.54127 0.151851 
-0.0180438 0.151851 -10.442 
-9.26484 0.0308574 -0.0228362 
0.0308574 -9.69168 -0.0541691 
-0.0228362 -0.0541691 -10.4685 
-9.72142 0.00153046 0.0215767 
0.00153046 -9.70177 0.0154553 
0.0215767 0.0154553 -9.85033 
-9.69741 0.014292 0.0123195 
0.014292 -9.72108 -0.0120734 
0.0123195 -0.0120734 -9.85503 
-9.72326 0.00585408 0.0149524 
0.00585408 -9.70477 -0.00734296 
0.0149524 -0.00734296 -9.84549 
-9.70687 -0.00176753 0.0151182 
-0.00176753 -9.70503 -0.0087716 
0.0151182 -0.0087716 -9.86161 
-9.42395 -0.0535846 -0.314497 
-0.0535846 -9.54991 0.149805 
-0.314497 0.149805 -9.5308 
-9.41794 -0.0692874 -0.325263 
-0.0692874 -9.49225 0.245479 
-0.325263 0.245479 -9.59447 
-9.56346 0.0747645 -0.283418 
0.0747645 -9.55066 0.193711 
-0.283418 0.193711 -9.39054 
-9.48119 -0.0467834 -0.234202 
-0.0467834 -9.49938 0.131344 
-0.234202 0.131344 -9.5241 
-9.57486 -0.00640088 0.140872 
-0.00640088 -9.56303 0.305911 
0.140872 0.305911 -9.62432 
-9.57769 -0.0089999 0.163869 
-0.0089999 -9.5748 0.298575 
0.163869 0.298575 -9.60972 
-9.56975 0.0116855 0.147224 
0.0116855 -9.55575 0.309425 
0.147224 0.309425 -9.6367 
-9.59001 -0.0121324 0.137064 
-0.0121324 -9.54842 0.301124 
0.137064 0.301124 -9.62378 
-9.59791 -0.00128628 -0.295339 
-0.00128628 -9.59025 -0.137594 
-0.295339 -0.137594 -9.58612 
-9.56853 -0.000232167 -0.308003 
-0.000232167 -9.59983 -0.117171 
-0.308003 -0.117171 -9.60592 
-9.58544 0.0235154 -0.325062 
0.0235154 -9.54823 -0.0665796 
-0.325062 -0.0665796 -9.64061 
-9.55242 -0.000272836 -0.289556 
-0.000272836 -9.62778 -0.115202 
-0.289556 -0.115202 -9.59408 
-9.91165 0.00490589 0.082662 
0.00490589 -9.91172 0.142862 
0.082662 0.142862 -9.9532 
-9.92017 -0.00881808 0.0886575 
-0.00881808 -9.9284 0.118639 
0.0886575 0.118639 -9.92799 
-9.94741 0.011879 0.0833489 
0.011879 -9.92964 0.111845 
0.0833489 0.111845 -9.89951 
-9.9269 -0.0141025 0.0869665 
-0.0141025 -9.92573 0.130377 
0.0869665 0.130377 -9.92394 
-9.57784 0.076061 -0.200522 
0.076061 -9.33998 -0.293697 
-0.200522 -0.293697 -9.51541 
-9.45262 0.0147515 0.0838761 
0.0147515 -9.5138 -0.317427 
0.0838761 -0.317427 -9.46681 
-9.51632 0.0277194 -0.0886237 
0.0277194 -9.42421 -0.439504 
-0.0886237 -0.439504 -9.4927 
-9.60356 0.0485915 -0.00883135 
0.0485915 -9.34562 -0.55176 
-0.00883135 -0.55176 -9.48405 
-9.92602 -0.00144734 -0.0314118 
-0.00144734 -9.92159 -0.0237293 
-0.0314118 -0.0237293 -9.96698 
-9.93525 0.00950437 -0.0386401 
0.00950437 -9.93148 -0.0187733 
-0.0386401 -0.0187733 -9.94786 
-9.92444 -0.000352454 -0.0392553 
-0.000352454 -9.92321 -0.0297797 
-0.0392553 -0.0297797 -9.96694 
-9.9274 -0.00644471 -0.0327086 
-0.00644471 -9.92834 -0.023793 
-0.0327086 -0.023793 -9.95885 
-9.68168 0.0195895 -0.149535 
0.0195895 -9.54532 0.209437 
-0.149535 0.209437 -9.22772 
-9.7043 0.0724216 -0.0229295 
0.0724216 -9.53328 0.158237 
-0.0229295 0.158237 -9.21714 
-9.80398 0.235359 -0.038867 
0.235359 -9.54575 0.15161 
-0.038867 0.15161 -9.10498 
-9.68673 0.0921504 0.046988 
0.0921504 -9.47686 0.115536 
0.046988 0.115536 -9.29113 
-9.51402 -0.0326054 -0.0221274 
-0.0326054 -9.61483 -0.00342748 
-0.0221274 -0.00342748 -9.70497 
-9.58395 0.02142 -0.00718202 
0.02142 -9.49624 0.0722409 
-0.00718202 0.0722409 -9.75364 
-9.51806 -0.00669261 0.0932855 
-0.00669261 -9.59537 0.0596259 
0.0932855 0.0596259 -9.72039 
-9.46798 -0.0819839 0.0459393 
-0.0819839 -9.62463 0.113539 
0.0459393 0.113539 -9.7412 
-1.71288 0.0943391 -0.100296 
0.0943391 -1.41013 1.78069 
-0.100296 1.78069 -6.19615 
-5.62804 0.142386 1.32432 
0.142386 -5.03579 -1.0017 
1.32432 -1.0017 1.34468 
-5.76011 0.666749 0.0350932 
0.666749 -5.2 -0.505991 
0.0350932 -0.505991 1.64095 
-4.59675 0.372903 1.33954 
0.372903 -5.27149 1.9052 
1.33954 1.9052 0.549086 
-9.7142 0.11301 0.0749899 
0.11301 -9.6775 -0.0916957 
0.0749899 -0.0916957 -10.0626 
-9.81798 0.113362 -0.129396 
0.113362 -9.75401 -0.248792 
-0.129396 -0.248792 -9.88236 
-9.74209 0.0825164 -0.0114531 
0.0825164 -9.66426 -0.0493866 
-0.0114531 -0.0493866 -10.048 
-9.67978 0.0242565 0.0271546 
0.0242565 -9.69634 -0.0706533 
0.0271546 -0.0706533 -10.0782 
-9.11341 -0.31902 0.105484 
-0.31902 -9.60899 0.102386 
0.105484 0.102386 -9.39644 
-9.10485 -0.277686 0.069042 
-0.277686 -9.6055 0.231327 
0.069042 0.231327 -9.40849 
-9.03504 -0.232954 -0.0724423 
-0.232954 -9.32311 -0.0718326 
-0.0724423 -0.0718326 -9.76069 
-9.00264 -0.114682 -0.0205794 
-0.114682 -9.49393 0.0124845 
-0.0205794 0.0124845 -9.62227 
-9.35932 0.207834 1.29514 
0.207834 -9.46844 0.0329182 
1.29514 0.0329182 -7.7486 
-8.46439 0.0234405 1.90709 
0.0234405 -9.14381 -1.05653 
1.90709 -1.05653 -8.96815 
-8.97018 -1.10646e-07 0.328048 
-1.10646e-07 -9.89886 0.609973 
0.328048 0.609973 -7.70732 
-9.81024 0.54062 1.23504 
0.54062 -9.68934 0.325887 
1.23504 0.325887 -7.07678 
-9.90519 0.0047298 -0.309327 
0.0047298 -9.91913 -0.0730336 
-0.309327 -0.0730336 -9.89186 
-9.89857 -0.00911818 -0.290537 
-0.00911818 -9.88966 -0.063754 
-0.290537 -0.063754 -9.92795 
-9.90845 0.00447045 -0.312354 
0.00447045 -9.90579 -0.0780679 
-0.312354 -0.0780679 -9.90195 
-9.91409 0.0137633 -0.324774 
0.0137633 -9.91854 -0.082915 
-0.324774 -0.082915 -9.88356 
-11.0696 -0.0269799 0.0711806 
-0.0269799 -10.9753 -0.186105 
0.0711806 -0.186105 -11.8921 
-10.9644 0.0191309 -0.101963 
0.0191309 -11.2427 0.0777781 
-0.101963 0.0777781 -11.7298 
-11.4635 -0.099572 -0.169445 
-0.099572 -11.384 0.156469 
-0.169445 0.156469 -11.0895 
-11.564 -0.190371 0.213641 
-0.190371 -10.9108 0.374171 
0.213641 0.374171 -11.4621 
-9.79699 0.0373422 0.0408103 
0.0373422 -9.6426 0.0122047 
0.0408103 0.0122047 -9.9986 
-9.94687 0.0198407 0.00199121 
0.0198407 -9.64142 -0.239923 
0.00199121 -0.239923 -9.84991 
-9.882 0.00930852 -0.127393 
0.00930852 -9.64932 -0.104396 
-0.127393 -0.104396 -9.90688 
-9.79466 -0.0243059 -0.0415641 
-0.0243059 -9.7227 -0.0891293 
-0.0415641 -0.0891293 -9.92084 
-9.58552 -0.0106191 -0.0484084 
-0.0106191 -9.48026 -0.146164 
-0.0484084 -0.146164 -9.87677 
-9.52952 0.0404122 -0.197682 
0.0404122 -9.5617 -0.0950408 
-0.197682 -0.0950408 -9.85133 
-9.53927 -0.0482104 -0.0813435 
-0.0482104 -9.53531 -0.0340317 
-0.0813435 -0.0340317 -9.86797 
-9.55121 0.0252824 -0.0558322 
0.0252824 -9.44886 -0.152012 
-0.0558322 -0.152012 -9.94248 
-10.2909 0.107282 0.14567 
0.107282 -9.84381 -0.149864 
0.14567 -0.149864 -10.9683 
-10.3777 -0.0184334 -0.0390209 
-0.0184334 -10.1651 0.0957172 
-0.0390209 0.0957172 -10.5603 
-10.286 0.0905842 -0.0551559 
0.0905842 -10.5997 0.154886 
-0.0551559 0.154886 -10.2173 
-10.5035 -0.195504 0.117005 
-0.195504 -9.99616 0.463336 
0.117005 0.463336 -10.6034 
-9.39845 -0.0663539 0.0801421 
-0.0663539 -9.33098 -0.29796 
0.0801421 -0.29796 -9.39752 
-9.34709 -0.330499 0.406862 
-0.330499 -9.30567 -0.250772 
0.406862 -0.250772 -9.47419 
-9.32754 0.109045 0.187006 
0.109045 -9.63074 -0.159771 
0.187006 -0.159771 -9.16868 
-9.45294 -0.00748893 0.183483 
-0.00748893 -9.17479 -0.374014 
0.183483 -0.374014 -9.49922 
-9.87691 0.00132429 -0.0224163 
0.00132429 -9.86168 0.0233383 
-0.0224163 0.0233383 -9.94655 
-9.87414 -0.00390471 -0.0199778 
-0.00390471 -9.87049 0.0174238 
-0.0199778 0.0174238 -9.9405 
-9.87552 0.0007075 -0.0240179 
0.0007075 -9.88648 0.00034833 
-0.0240179 0.00034833 -9.92313 
-9.88121 0.00271453 -0.00256869 
0.00271453 -9.88261 0.00390823 
-0.00256869 0.00390823 -9.92131 
-8.99179 -0.232079 -0.606703 
-0.232079 -9.28251 0.263028 
-0.606703 0.263028 -9.39897 
-9.29735 -0.456201 -0.536765 
-0.456201 -9.19751 0.391598 
-0.536765 0.391598 -9.17841 
-8.97156 -0.385726 -0.581103 
-0.385726 -9.2372 0.835507 
-0.581103 0.835507 -9.46451 
-9.19819 0.208031 -0.0496253 
0.208031 -9.14693 1.02568 
-0.0496253 1.02568 -9.32815 
-9.91488 -0.00490994 -0.118266 
-0.00490994 -9.88869 0.0332653 
-0.118266 0.0332653 -9.92348 
-9.92464 -0.00142465 -0.128323 
-0.00142465 -9.90241 0.0186734 
-0.128323 0.0186734 -9.9 
-9.91976 -0.00846172 -0.131893 
-0.00846172 -9.8884 0.0182796 
-0.131893 0.0182796 -9.91889 
-9.93021 0.00287808 -0.111327 
0.00287808 -9.89174 0.0383941 
-0.111327 0.0383941 -9.9051 
-9.56416 0.0966612 -0.0629979 
0.0966612 -9.63221 -0.0215323 
-0.0629979 -0.0215323 -9.57496 
-9.52408 0.036233 0.0775242 
0.036233 -9.6794 -0.0886588 
0.0775242 -0.0886588 -9.56785 
-9.58715 0.072523 0.0927529 
0.072523 -9.72886 -0.0639473 
0.0927529 -0.0639473 -9.45532 
-9.53976 0.0807778 0.0810192 
0.0807778 -9.70472 -0.0479647 
0.0810192 -0.0479647 -9.52685 
-9.98496 0.00395437 -0.203556 
0.00395437 -9.97067 -0.183893 
-0.203556 -0.183893 -9.96898 
-9.99216 -0.0036428 -0.201129 
-0.0036428 -9.96895 -0.185184 
-0.201129 -0.185184 -9.96351 
-9.94852 -0.00680655 -0.202959 
-0.00680655 -9.9432 -0.167467 
-0.202959 -0.167467 -10.0329 
-9.98911 -0.00521647 -0.213395 
-0.00521647 -9.98222 -0.191341 
-0.213395 -0.191341 -9.95328 
-9.5698 0.0347214 -0.191495 
0.0347214 -9.53913 -0.253839 
-0.191495 -0.253839 -9.50376 
-9.54843 -0.000217848 -0.218544 
-0.000217848 -9.55442 -0.226259 
-0.218544 -0.226259 -9.50984 
-9.5766 0.00976682 -0.240808 
0.00976682 -9.52777 -0.282815 
-0.240808 -0.282815 -9.50832 
-9.57555 0.0197693 -0.267738 
0.0197693 -9.5232 -0.267869 
-0.267738 -0.267869 -9.51394 
-9.52523 -0.00199865 -0.175299 
-0.00199865 -9.50202 0.307051 
-0.175299 0.307051 -9.6029 
-9.53582 -0.0102657 -0.175401 
-0.0102657 -9.5313 0.32148 
-0.175401 0.32148 -9.56303 
-9.53939 -0.000305117 -0.177955 
-0.000305117 -9.51021 0.319733 
-0.177955 0.319733 -9.58055 
-9.55261 -0.00381797 -0.174897 
-0.00381797 -9.49975 0.325095 
-0.174897 0.325095 -9.57779 
-9.72645 -0.00889036 -0.0242942 
-0.00889036 -9.71787 -0.0385186 
-0.0242942 -0.0385186 -9.8166 
-9.70945 -0.0201533 0.020492 
-0.0201533 -9.728 -0.0411349 
0.020492 -0.0411349 -9.82347 
-9.71791 0.00178674 0.0116613 
0.00178674 -9.74282 -0.0795213 
0.0116613 -0.0795213 -9.80019 
-9.71694 -0.0326978 -0.0435707 
-0.0326978 -9.75287 -0.0169866 
-0.0435707 -0.0169866 -9.7911 
-4.7628 -0.35609 0.65801 
-0.35609 -5.03433 1.20361 
0.65801 1.20361 0.484966 
-4.62104 0.487397 1.40193 
0.487397 -6.519 -0.242883 
1.40193 -0.242883 1.82787 
-2.13769 0.725861 0.778084 
0.725861 -1.46984 -1.1964 
0.778084 -1.1964 -5.70464 
-2.37244 -0.00113012 -2.31081 
-0.00113012 -4.88118 -1.9109 
-2.31081 -1.9109 -2.05855 
-9.73159 0.0241151 -0.0370903 
0.0241151 -9.75612 0.0288094 
-0.0370903 0.0288094 -9.817 
-9.71392 -0.00474562 -0.0474033 
-0.00474562 -9.76098 0.117782 
-0.0474033 0.117782 -9.82981 
-9.76946 0.0322862 -0.043056 
0.0322862 -9.75277 0.0453516 
-0.043056 0.0453516 -9.78248 
-9.77621 0.0294134 -0.0546064 
0.0294134 -9.78921 0.0224452 
-0.0546064 0.0224452 -9.73928 
-9.6659 0.0337966 0.0678716 
0.0337966 -9.69843 0.0483061 
0.0678716 0.0483061 -9.7695 
-9.7171 0.0375253 0.0582806 
0.0375253 -9.60905 0.069924 
0.0582806 0.069924 -9.80767 
-9.59321 0.0611356 0.21025 
0.0611356 -9.69864 0.162085 
0.21025 0.162085 -9.84198 
-9.55948 0.00884145 0.0589758 
0.00884145 -9.6272 0.00195457 
0.0589758 0.00195457 -9.94715 
-9.53824 0.373458 0.0766459 
0.373458 -9.65154 0.382231 
0.0766459 0.382231 -10.2947 
-9.98751 -0.231246 0.151736 
-0.231246 -9.36903 -0.206678 
0.151736 -0.206678 -10.1279 
-9.83854 -0.262992 0.143798 
-0.262992 -9.43522 -0.170667 
0.143798 -0.170667 -10.2107 
-9.87559 -0.276194 0.10022 
-0.276194 -9.15723 0.018493 
0.10022 0.018493 -10.4517 
-9.65093 -0.142892 0.0694335 
-0.142892 -9.44075 -0.0136759 
0.0694335 -0.0136759 -9.99682 
-9.52241 0.0116485 0.0639218 
0.0116485 -9.61909 -0.0856944 
0.0639218 -0.0856944 -9.94699 
-9.60829 -0.0955933 -5.0158e-05 
-0.0955933 -9.52619 0.00898861 
-5.0158e-05 0.00898861 -9.95401 
-9.40619 -0.145834 -0.0839799 
-0.145834 -9.66653 -0.00646253 
-0.0839799 -0.00646253 -10.0158 
-9.50594 -0.115684 -0.0470915 
-0.115684 -9.42402 -0.14834 
-0.0470915 -0.14834 -9.62984 
-9.6813 -0.170039 0.0278469 
-0.170039 -9.4726 -0.517461 
0.0278469 -0.517461 -9.40589 
-9.91591 -0.442826 0.311698 
-0.442826 -9.27397 -0.0153046 
0.311698 -0.0153046 -9.36991 
-10.0342 -0.0275199 0.313211 
-0.0275199 -9.52844 0.154305 
0.313211 0.154305 -8.99711 
-12.1715 1.52706 0.369181 
1.52706 -8.40916 0.952238 
0.369181 0.952238 -11.7987 
-9.67039 2.14946 -1.4175 
2.14946 -3.27296 -1.20607 
-1.4175 -1.20607 -19.436 
-9.38184 4.67079 -0.163662 
4.67079 -3.48246 -1.94278 
-0.163662 -1.94278 -19.515 
-10.3918 0.83995 -0.812061 
0.83995 -9.26228 -1.76598 
-0.812061 -1.76598 -12.7252 
-18.4219 -7.52102 -3.66726 
-7.52102 -13.9009 3.03379 
-3.66726 3.03379 -5.62978 
0.0137121 -3.54433 2.01588 
-3.54433 -12.6562 -3.72868 
2.01588 -3.72868 -25.3101 
-4.05814 -4.19385 2.53336 
-4.19385 -8.38609 -1.61228 
2.53336 -1.61228 -25.5084 
-13.5805 3.30705 6.7919 
3.30705 -13.588 -1.96406 
6.7919 -1.96406 -10.7841 
-9.54877 -0.00974357 -0.340734 
-0.00974357 -9.59194 0.0864901 
-0.340734 0.0864901 -9.63323 
-9.64063 0.0560701 -0.350801 
0.0560701 -9.60762 0.110787 
-0.350801 0.110787 -9.52569 
-9.58336 -0.00570136 -0.354349 
-0.00570136 -9.61288 0.13524 
-0.354349 0.13524 -9.5777 
-9.55794 -0.0485832 -0.400004 
-0.0485832 -9.61708 0.130908 
-0.400004 0.130908 -9.59892 
-9.68653 0.0313166 -0.0486222 
0.0313166 -9.22239 0.344441 
-0.0486222 0.344441 -10.9604 
-9.74023 -0.152373 0.00541606 
-0.152373 -9.33677 0.424406 
0.00541606 0.424406 -10.7923 
-9.77208 -0.1408 -0.147765 
-0.1408 -9.41293 0.49779 
-0.147765 0.49779 -10.6843 
-10.0414 0.343539 0.198481 
0.343539 -9.20548 0.118264 
0.198481 0.118264 -10.6224 
-9.52002 -0.032631 -0.0722123 
-0.032631 -9.47001 0.33355 
-0.0722123 0.33355 -9.56552 
-9.54171 0.0174713 -0.0440666 
0.0174713 -9.50211 0.377302 
-0.0440666 0.377302 -9.51172 
-9.54911 -0.000459386 -0.0581791 
-0.000459386 -9.47432 0.37928 
-0.0581791 0.37928 -9.53212 
-9.56275 -0.0120276 -0.0778341 
-0.0120276 -9.47746 0.42561 
-0.0778341 0.42561 -9.51533 
-9.63825 0.00104345 -0.0406707 
0.00104345 -9.72189 -0.0413611 
-0.0406707 -0.0413611 -9.66838 
-9.80304 0.0175109 -0.0907958 
0.0175109 -9.71455 0.0188041 
-0.0907958 0.0188041 -9.51094 
-9.51874 -0.152358 -0.425305 
-0.152358 -9.9385 0.240208 
-0.425305 0.240208 -9.57129 
-9.75714 0.00246177 -0.101533 
0.00246177 -9.82592 -0.0296869 
-0.101533 -0.0296869 -9.44547 
-9.75111 0.00104371 -0.221154 
0.00104371 -9.74854 0.260678 
-0.221154 0.260678 -9.93054 
-9.81317 0.0190619 -0.213587 
0.0190619 -9.80707 0.242955 
-0.213587 0.242955 -9.80994 
-9.82871 -0.00696254 -0.236016 
-0.00696254 -9.8611 0.272841 
-0.236016 0.272841 -9.74038 
-9.8058 0.013137 -0.21221 
0.013137 -9.82771 0.223809 
-0.21221 0.223809 -9.79667 
-9.55937 -0.0654886 -0.0809594 
-0.0654886 -9.2877 0.159877 
-0.0809594 0.159877 -9.58794 
-9.48468 -0.177725 -0.104669 
-0.177725 -9.28761 0.0895019 
-0.104669 0.0895019 -9.66272 
-9.11631 -0.0282775 -0.135827 
-0.0282775 -10.0863 0.400161 
-0.135827 0.400161 -9.23239 
-9.52155 -0.0585389 -0.0923302 
-0.0585389 -9.27751 0.27853 
-0.0923302 0.27853 -9.63595 
-8.9008 -0.573692 1.26023 
-0.573692 -9.81904 0.546438 
1.26023 0.546438 -9.55036 
-9.71105 -0.387568 1.33556 
-0.387568 -9.49948 0.399364 
1.33556 0.399364 -9.05968 
-8.69355 0.599369 0.157256 
0.599369 -10.0451 -0.124848 
0.157256 -0.124848 -9.53151 
-9.36867 -0.225803 1.20147 
-0.225803 -10.0337 0.366548 
1.20147 0.366548 -8.8678 
-9.82296 -0.0219971 0.199113 
-0.0219971 -9.80147 0.157417 
0.199113 0.157417 -9.73419 
-9.74656 0.00973021 0.181329 
0.00973021 -9.77726 0.153454 
0.181329 0.153454 -9.8348 
-9.77934 -0.0124278 0.178053 
-0.0124278 -9.80259 0.159913 
0.178053 0.159913 -9.77668 
-9.81107 -0.0173732 0.183757 
-0.0173732 -9.79595 0.135208 
0.183757 0.135208 -9.7516 
-9.55139 -0.0384083 -0.198463 
-0.0384083 -9.71764 -0.222988 
-0.198463 -0.222988 -9.38247 
-9.39774 -0.285056 -0.185026 
-0.285056 -9.54095 -0.19314 
-0.185026 -0.19314 -9.71281 
-9.53548 -0.298907 -0.564364 
-0.298907 -9.82107 -0.284335 
-0.564364 -0.284335 -9.29495 
-9.52298 -0.11898 -0.0824525 
-0.11898 -9.91949 -0.126146 
-0.0824525 -0.126146 -9.20903 
-9.65656 0.00802419 0.358462 
0.00802419 -9.65732 0.0585869 
0.358462 0.0585869 -9.68497 
-9.66481 0.00737969 0.347668 
0.00737969 -9.66922 0.0416607 
0.347668 0.0416607 -9.66482 
-9.69714 0.00879758 0.359822 
0.00879758 -9.67581 0.0602389 
0.359822 0.0602389 -9.6259 
-9.66378 0.00865886 0.331078 
0.00865886 -9.66807 0.0462576 
0.331078 0.0462576 -9.66699 
-9.61766 -0.059049 0.346901 
-0.059049 -9.31079 -0.0631017 
0.346901 -0.0631017 -9.99319 
-9.40537 -0.0270693 0.282068 
-0.0270693 -9.68154 -0.411824 
0.282068 -0.411824 -9.83472 
-9.54597 -0.107367 0.0384993 
-0.107367 -9.5938 -0.262455 
0.0384993 -0.262455 -9.78187 
-9.66067 -0.316677 -0.067973 
-0.316677 -9.48627 -0.43418 
-0.067973 -0.43418 -9.7747 
-10.5131 -0.0842804 -0.442625 
-0.0842804 -11.3995 -1.2895 
-0.442625 -1.2895 -15.7423 
-12.4852 0.154558 -0.0544563 
0.154558 -12.4034 0.0209897 
-0.0544563 0.0209897 -12.7663 
-12.6831 0.261972 0.253006 
0.261972 -13.022 -0.0845659 
0.253006 -0.0845659 -11.9499 
-12.577 -0.403377 -0.574076 
-0.403377 -12.4628 0.659685 
-0.574076 0.659685 -12.6151 
-9.74824 0.0641549 -0.218632 
0.0641549 -9.21028 -0.390938 
-0.218632 -0.390938 -10.129 
-9.02505 -0.478631 -0.0172513 
-0.478631 -9.36797 0.115803 
-0.0172513 0.115803 -10.6945 
-9.05183 -0.449591 -0.358227 
-0.449591 -9.5094 0.383627 
-0.358227 0.383627 -10.5263 
-8.95572 -0.673505 0.23144 
-0.673505 -8.99806 0.167069 
0.23144 0.167069 -11.1338 
-9.94769 -0.00161374 0.0375895 
-0.00161374 -9.94518 -0.0095897 
0.0375895 -0.0095897 -9.98478 
-9.94765 -0.000515779 0.033967 
-0.000515779 -9.94445 0.00479381 
0.033967 0.00479381 -9.98556 
-9.94785 0.00428747 0.0217274 
0.00428747 -9.93669 -0.00514599 
0.0217274 -0.00514599 -9.99311 
-9.96006 -0.00109421 0.034903 
-0.00109421 -9.95525 -0.0100401 
0.034903 -0.0100401 -9.96235 
-9.76113 0.0132917 -0.139376 
0.0132917 -9.72327 -0.325652 
-0.139376 -0.325652 -9.7967 
-9.75837 -0.0122721 -0.130996 
-0.0122721 -9.77103 -0.304963 
-0.130996 -0.304963 -9.75171 
-9.76581 -0.0226773 -0.114121 
-0.0226773 -9.82768 -0.323901 
-0.114121 -0.323901 -9.68762 
-9.76191 0.0049445 -0.13651 
0.0049445 -9.747 -0.269954 
-0.13651 -0.269954 -9.77219 
-10.6052 -0.0295861 -0.486276 
-0.0295861 -13.0728 -0.247864 
-0.486276 -0.247864 -12.9255 
-12.5896 1.53069 -0.0692875 
1.53069 -11.7103 -0.239463 
-0.0692875 -0.239463 -12.3036 
-10.5304 -0.795249 0.196492 
-0.795249 -11.1787 -0.281469 
0.196492 -0.281469 -14.8945 
-11.272 -0.00556726 -1.26307 
-0.00556726 -12.8085 0.594497 
-1.26307 0.594497 -12.523 
-7.2944 0.53054 1.96545 
0.53054 -11.1117 -0.307679 
1.96545 -0.307679 -11.8042 
-9.31623 1.24938 -0.321217 
1.24938 -8.63272 1.12306 
-0.321217 1.12306 -12.2613 
-9.3599 -0.0837685 1.95303 
-0.0837685 -10.0462 -1.16961 
1.95303 -1.16961 -10.8041 
-8.90023 0.470679 0.329774 
0.470679 -10.158 0.860224 
0.329774 0.860224 -11.152 
-9.47124 -0.0371373 0.0786576 
-0.0371373 -9.92452 0.220823 
0.0786576 0.220823 -10.1858 
-9.2735 0.262637 -0.114365 
0.262637 -10.1197 -0.802742 
-0.114365 -0.802742 -10.1883 
-10.1444 0.0559928 0.0363404 
0.0559928 -9.51317 0.110703 
0.0363404 0.110703 -9.924 
-9.92059 0.0600236 -0.0789031 
0.0600236 -9.39188 0.0764914 
-0.0789031 0.0764914 -10.2691 
-9.56357 0.0537269 0.124535 
0.0537269 -9.45311 0.280351 
0.124535 0.280351 -9.59219 
-9.52079 0.0106823 0.106018 
0.0106823 -9.5608 0.341937 
0.106018 0.341937 -9.52727 
-9.51827 -0.00931287 0.119944 
-0.00931287 -9.55701 0.339215 
0.119944 0.339215 -9.53359 
-9.50557 0.0168816 0.122917 
0.0168816 -9.48425 0.365831 
0.122917 0.365831 -9.61904 
-9.91741 0.0101913 -0.0823535 
0.0101913 -9.91218 0.000962783 
-0.0823535 0.000962783 -9.9572 
-9.93019 0.0063276 -0.0771382 
0.0063276 -9.92088 0.00883636 
-0.0771382 0.00883636 -9.93572 
-9.92161 -0.00355284 -0.076989 
-0.00355284 -9.91417 0.0100493 
-0.076989 0.0100493 -9.95101 
-9.92762 0.00190716 -0.0804965 
0.00190716 -9.91661 0.0123577 
-0.0804965 0.0123577 -9.94257 
-9.69779 -0.0103503 0.069298 
-0.0103503 -9.70369 0.00420554 
0.069298 0.00420554 -9.81904 
-9.68134 -0.0282123 0.209005 
-0.0282123 -9.59655 0.155706 
0.209005 0.155706 -9.94263 
-9.64728 0.0245933 0.0740166 
0.0245933 -9.67543 0.0371951 
0.0740166 0.0371951 -9.89781 
-9.64698 0.0551161 0.059067 
0.0551161 -9.64311 0.0062209 
0.059067 0.0062209 -9.93044 
-10.9498 -1.02329 0.791934 
-1.02329 -12.7051 -0.36291 
0.791934 -0.36291 -12.8953 
-9.15555 -1.06495 1.04542 
-1.06495 -12.4306 -0.0221358 
1.04542 -0.0221358 -14.9639 
-9.28832 -1.73335 0.894422 
-1.73335 -11.6386 -0.717043 
0.894422 -0.717043 -15.6232 
-10.4502 -0.996921 0.863371 
-0.996921 -12.4274 -0.292137 
0.863371 -0.292137 -13.6725 
-9.94652 -0.000469367 -0.145672 
-0.000469367 -9.94754 -0.0417799 
-0.145672 -0.0417799 -10.0122 
-9.96522 -0.005499 -0.148921 
-0.005499 -9.96712 -0.0537682 
-0.148921 -0.0537682 -9.97391 
-9.95701 -0.00269191 -0.142125 
-0.00269191 -9.96728 -0.0575611 
-0.142125 -0.0575611 -9.98197 
-9.97675 -0.00302382 -0.148595 
-0.00302382 -9.96932 -0.0614192 
-0.148595 -0.0614192 -9.96018 
-9.77467 -0.0156912 -0.0321492 
-0.0156912 -9.8323 -0.228609 
-0.0321492 -0.228609 -9.76945 
-9.76496 -0.0120873 -0.0550483 
-0.0120873 -9.83773 -0.215689 
-0.0550483 -0.215689 -9.77374 
-9.75695 0.00545423 -0.0716305 
0.00545423 -9.83432 -0.219917 
-0.0716305 -0.219917 -9.78516 
-9.78191 -0.00692512 -0.0220553 
-0.00692512 -9.80384 -0.233306 
-0.0220553 -0.233306 -9.79067 
-9.45853 0.289455 -0.146405 
0.289455 -9.60929 -0.463112 
-0.146405 -0.463112 -10.0237 
-9.57926 -0.26204 0.0545464 
-0.26204 -9.42323 0.18938 
0.0545464 0.18938 -10.089 
-9.70173 0.244887 -0.0308562 
0.244887 -9.63866 -0.193895 
-0.0308562 -0.193895 -9.75112 
-10.1442 -0.22297 -0.0257775 
-0.22297 -9.32597 -0.735315 
-0.0257775 -0.735315 -9.62134 
-8.01181 0.0116852 1.34059 
0.0116852 -9.14459 -0.841876 
1.34059 -0.841876 5.53389 
-6.89959 -0.260009 1.11309 
-0.260009 -6.99651 -2.56528 
1.11309 -2.56528 2.27359 
-0.190174 -0.127794 -1.85137 
-0.127794 -1.08925 1.23682 
-1.85137 1.23682 -10.3431 
-8.447 1.2795 -6.72117 
1.2795 -5.45698 -5.38563 
-6.72117 -5.38563 2.28146 
-10.1507 -0.252374 -0.292589 
-0.252374 -9.65469 0.867277 
-0.292589 0.867277 -8.9993 
-9.32016 -0.543724 -1.05186 
-0.543724 -11.0209 1.30988 
-1.05186 1.30988 -8.4637 
-9.93999 -0.281526 -0.352894 
-0.281526 -9.49903 1.12188 
-0.352894 1.12188 -9.36569 
-9.5296 -0.105771 -0.357308 
-0.105771 -9.70445 0.423481 
-0.357308 0.423481 -9.57066 
-9.93661 0.00424183 0.161288 
0.00424183 -9.92012 0.299615 
0.161288 0.299615 -9.93452 
-9.9364 -0.00677046 0.125424 
-0.00677046 -9.90822 0.303542 
0.125424 0.303542 -9.94663 
-9.93229 -0.00900272 0.132468 
-0.00900272 -9.93199 0.311059 
0.132468 0.311059 -9.92697 
-9.93487 0.00314333 0.163034 
0.00314333 -9.94014 0.299767 
0.163034 0.299767 -9.91623 
-9.46777 -0.053249 -0.0764318 
-0.053249 -9.61044 0.142223 
-0.0764318 0.142223 -10.2065 
-9.64952 -0.0811849 -0.115459 
-0.0811849 -9.63596 0.196284 
-0.115459 0.196284 -9.99923 
-9.54492 -0.0846249 0.000641749 
-0.0846249 -9.69391 -0.0122767 
0.000641749 -0.0122767 -10.0459 
-9.65315 -0.0314065 -0.189992 
-0.0314065 -9.61869 0.131583 
-0.189992 0.131583 -10.0129 
-8.93386 -0.418597 0.0331085 
-0.418597 -9.72219 -0.0433267 
0.0331085 -0.0433267 -10.1058 
-10.078 0.411577 0.128283 
0.411577 -9.46177 0.0150725 
0.128283 0.0150725 -9.22214 
-9.40722 -0.0238262 0.226455 
-0.0238262 -9.64457 -0.0951715 
0.226455 -0.0951715 -9.71012 
-9.14649 0.198282 0.756577 
0.198282 -9.74789 -0.200778 
0.756577 -0.200778 -9.86752 
-9.984 0.00586602 0.19735 
0.00586602 -9.95836 -0.0645801 
0.19735 -0.0645801 -9.95027 
-9.98231 -0.0127386 0.189012 
-0.0127386 -9.94066 -0.0572608 
0.189012 -0.0572608 -9.96967 
-9.93499 0.00172222 0.194973 
0.00172222 -9.92746 -0.0355422 
0.194973 -0.0355422 -10.0302 
-9.97863 0.0061562 0.185291 
0.0061562 -9.97506 -0.0640289 
0.185291 -0.0640289 -9.93894 
-9.39542 -0.094151 -1.12042 
-0.094151 -7.29524 3.73389 
-1.12042 3.73389 -7.26981 
-9.24692 -0.979985 0.092211 
-0.979985 -5.22994 3.6315 
0.092211 3.6315 -9.48361 
-10.3582 -0.895966 -2.23499 
-0.895966 -7.46231 6.53781 
-2.23499 6.53781 -6.13993 
-7.7965 1.82725 0.201066 
1.82725 -10.0952 0.826411 
0.201066 0.826411 -6.06872 
-9.76879 0.0103672 -0.00982888 
0.0103672 -9.75925 0.0377468 
-0.00982888 0.0377468 -9.81782 
-9.76513 0.000395172 -0.0273404 
0.000395172 -9.77648 0.042281 
-0.0273404 0.042281 -9.80425 
-9.75658 -0.00184452 -0.0337157 
-0.00184452 -9.75901 0.107433 
-0.0337157 0.107433 -9.83027 
-9.76812 0.0135503 -0.0347258 
0.0135503 -9.80452 0.0284951 
-0.0347258 0.0284951 -9.77321 
-11.3659 4.79892 -2.84457 
4.79892 2.65633 -5.2637 
-2.84457 -5.2637 -25.7699 
-6.5997 4.56973 -0.402882 
4.56973 -2.49722 -5.20252 
-0.402882 -5.20252 -25.3826 
-11.6137 3.0442 0.749018 
3.0442 -9.18361 1.59906 
0.749018 1.59906 -13.6822 
-10.1281 -0.369366 -1.81456 
-0.369366 -11.0294 -2.82391 
-1.81456 -2.82391 -13.3221 
-9.88581 -0.001478 -0.283916 
-0.001478 -9.91545 0.176882 
-0.283916 0.176882 -9.88572 
-9.90829 0.00517177 -0.255108 
0.00517177 -9.91256 0.17529 
-0.255108 0.17529 -9.86612 
-9.88486 0.00433136 -0.266296 
0.00433136 -9.90465 0.190347 
-0.266296 0.190347 -9.89747 
-9.87966 0.0205174 -0.27962 
0.0205174 -9.93154 0.169664 
-0.27962 0.169664 -9.87578 
-9.92507 0.0102284 -0.0661318 
0.0102284 -9.91476 0.0565903 
-0.0661318 0.0565903 -9.95251 
-9.93021 0.0004723 -0.0421334 
0.0004723 -9.92762 0.0473705 
-0.0421334 0.0473705 -9.93452 
-9.92694 0.00671639 -0.0460027 
0.00671639 -9.91249 0.0520068 
-0.0460027 0.0520068 -9.95292 
-9.92814 0.00581759 -0.0671824 
0.00581759 -9.92906 0.0586997 
-0.0671824 0.0586997 -9.93514 
-9.687 -0.0559496 -0.0901577 
-0.0559496 -9.6257 -0.261104 
-0.0901577 -0.261104 -9.52795 
-9.65058 -0.11002 0.00370323 
-0.11002 -9.80754 -0.263052 
0.00370323 -0.263052 -9.38254 
-9.58115 -0.0472882 -0.147946 
-0.0472882 -9.70474 -0.253148 
-0.147946 -0.253148 -9.55477 
-9.58193 0.0239358 -0.17148 
0.0239358 -9.68981 -0.152616 
-0.17148 -0.152616 -9.56891 
-9.47622 0.0571842 -0.344847 
0.0571842 -10.5987 0.0671912 
-0.344847 0.0671912 -11.1896 
-10.223 -0.570355 0.0884795 
-0.570355 -8.7284 -0.0613409 
0.0884795 -0.0613409 -12.3131 
-9.74395 -0.401188 -0.712213 
-0.401188 -10.4482 -0.373061 
-0.712213 -0.373061 -11.0723 
-10.6504 -0.51613 -0.482054 
-0.51613 -9.93184 -0.399747 
-0.482054 -0.399747 -10.6823 
-11.7643 -0.302849 0.174401 
-0.302849 -12.0031 0.176867 
0.174401 0.176867 -12.4695 
-11.4253 0.0940729 0.427649 
0.0940729 -12.4594 0.109914 
0.427649 0.109914 -12.3522 
-12.3383 0.971772 0.167501 
0.971772 -11.7288 0.320818 
0.167501 0.320818 -12.1698 
-11.7767 0.199494 0.355866 
0.199494 -12.1365 0.0201855 
0.355866 0.0201855 -12.3237 
-9.65982 0.0229381 -0.0451586 
0.0229381 -9.72955 0.0591433 
-0.0451586 0.0591433 -9.78986 
-9.6416 0.150707 -0.0297322 
0.150707 -9.741 0.0306415 
-0.0297322 0.0306415 -9.79664 
-9.56733 -0.122513 -0.103563 
-0.122513 -9.70704 0.0384233 
-0.103563 0.0384233 -9.90486 
-9.69698 0.0771993 -0.0607446 
0.0771993 -9.66533 0.130382 
-0.0607446 0.130382 -9.81691 
-12.6114 -0.0484429 0.47844 
-0.0484429 -12.3867 -0.131321 
0.47844 -0.131321 -10.3876 
-11.456 -0.30856 -0.480439 
-0.30856 -10.3226 0.526798 
-0.480439 0.526798 -13.6071 
-11.6064 -0.203124 0.232755 
-0.203124 -11.8627 0.359577 
0.232755 0.359577 -11.9166 
-11.4788 0.150331 0.941972 
0.150331 -11.7373 0.7684 
0.941972 0.7684 -12.1696 
-8.44874 -0.338815 -0.0763204 
-0.338815 -8.50572 -0.255493 
-0.0763204 -0.255493 4.03752 
-2.09768 -1.15254 1.07514 
-1.15254 -0.894153 -0.909941 
1.07514 -0.909941 -9.92511 
-7.35939 -0.664132 -2.45833 
-0.664132 -9.53422 0.877201 
-2.45833 0.877201 3.97668 
-6.32961 1.61558 -3.32738 
1.61558 -7.29118 -7.03517 
-3.32738 -7.03517 0.703855 
-9.58109 0.00431736 0.346191 
0.00431736 -9.58263 -0.0602643 
0.346191 -0.0602643 -9.53289 
-9.6088 -0.0163193 0.366021 
-0.0163193 -9.62095 -0.00586679 
0.366021 -0.00586679 -9.46685 
-9.47999 -0.0157951 0.401365 
-0.0157951 -9.56105 -0.0158144 
0.401365 -0.0158144 -9.65558 
-9.53692 -0.0365795 0.306398 
-0.0365795 -9.58211 -0.0582282 
0.306398 -0.0582282 -9.57759 
-9.48468 0.0300427 -0.0778111 
0.0300427 -9.79835 -0.116427 
-0.0778111 -0.116427 -10.2276 
-9.68252 0.438842 -0.0216759 
0.438842 -9.53658 0.0856022 
-0.0216759 0.0856022 -10.2915 
-9.81573 0.0904998 0.184041 
0.0904998 -9.73356 0.372385 
0.184041 0.372385 -9.96133 
-9.46728 0.134912 -0.0643686 
0.134912 -9.73054 0.0939442 
-0.0643686 0.0939442 -10.3128 
-9.71427 -0.0348146 0.243025 
-0.0348146 -10.0182 -0.00306148 
0.243025 -0.00306148 -10.2808 
-9.83039 0.18401 0.136913 
0.18401 -10.0728 -0.00868659 
0.136913 -0.00868659 -10.1101 
-9.82427 0.0367355 0.145122 
0.0367355 -10.1056 0.0858117 
0.145122 0.0858117 -10.0834 
-9.7979 0.114171 0.0621467 
0.114171 -10.1136 0.0167964 
0.0621467 0.0167964 -10.1017 
-10.0818 0.0311859 0.0300574 
0.0311859 -10.0254 -0.00888689 
0.0300574 -0.00888689 -10.027 
-10.061 0.0161046 0.044464 
0.0161046 -10.0386 0.00996935 
0.044464 0.00996935 -10.0346 
-10.0771 0.00470901 0.0130027 
0.00470901 -10.0222 0.00303619 
0.0130027 0.00303619 -10.0349 
-10.034 0.0166042 -0.0117231 
0.0166042 -10.0148 0.0121431 
-0.0117231 0.0121431 -10.0853 
-9.93004 -0.0107472 -0.141337 
-0.0107472 -9.91714 -0.255383 
-0.141337 -0.255383 -9.97645 
-9.94703 0.013885 -0.167789 
0.013885 -9.94214 -0.276296 
-0.167789 -0.276296 -9.93446 
-9.94356 0.00720615 -0.169447 
0.00720615 -9.9368 -0.262768 
-0.169447 -0.262768 -9.94327 
-9.92956 -0.028136 -0.199419 
-0.028136 -9.98463 -0.267292 
-0.199419 -0.267292 -9.90944 
-10.037 0.464614 0.637262 
0.464614 -8.35528 -0.646693 
0.637262 -0.646693 -10.3347 
-9.50619 0.127805 0.171857 
0.127805 -9.61629 0.171215 
0.171857 0.171215 -9.60449 
-10.2841 -0.296585 0.579475 
-0.296585 -8.79457 -1.23721 
0.579475 -1.23721 -9.64827 
-8.8905 0.107205 0.299236 
0.107205 -8.68701 -0.530753 
0.299236 -0.530753 -11.1495 
-9.6824 -0.00840609 -0.032975 
-0.00840609 -9.73618 -0.068391 
-0.032975 -0.068391 -9.72291 
-9.6758 -0.0253542 -0.0523445 
-0.0253542 -9.74043 -0.0538613 
-0.0523445 -0.0538613 -9.72525 
-9.68396 -0.0558631 -0.014906 
-0.0558631 -9.75476 -0.0593633 
-0.014906 -0.0593633 -9.70277 
-9.68587 -0.0265607 -0.0489304 
-0.0265607 -9.76986 -0.112555 
-0.0489304 -0.112555 -9.68575 
-9.80844 -0.293247 -0.521191 
-0.293247 -9.57209 -0.893875 
-0.521191 -0.893875 -9.05516 
-9.63598 0.0609675 -0.10486 
0.0609675 -9.47423 -0.558241 
-0.10486 -0.558241 -9.32547 
-9.7615 0.016204 0.198356 
0.016204 -9.83268 -0.53994 
0.198356 -0.53994 -8.8415 
-9.84898 0.240329 -0.0552859 
0.240329 -9.28713 -0.479792 
-0.0552859 -0.479792 -9.29957 
-11.3689 0.751802 0.0893655 
0.751802 -9.70009 -0.161157 
0.0893655 -0.161157 -14.0217 
-10.9981 0.302035 -0.10492 
0.302035 -10.4651 0.31101 
-0.10492 0.31101 -13.6275 
-11.4473 0.745016 -0.32731 
0.745016 -10.1261 0.25176 
-0.32731 0.25176 -13.5172 
-11.6949 0.602623 0.129987 
0.602623 -10.017 -0.0736122 
0.129987 -0.0736122 -13.3787 
-3.79432 -1.76689 0.421597 
-1.76689 -11.3668 0.0364245 
0.421597 0.0364245 -20.2866 
-6.35274 -3.34653 0.578469 
-3.34653 -11.2297 0.850263 
0.578469 0.850263 -17.8653 
-8.98478 -1.01162 -1.04388 
-1.01162 -13.2293 0.149557 
-1.04388 0.149557 -13.2337 
-9.71875 -0.94916 1.05886 
-0.94916 -11.6766 -0.0668384 
1.05886 -0.0668384 -14.0523 
-9.38541 0.0737985 -0.0396556 
0.0737985 -9.35372 0.192516 
-0.0396556 0.192516 -10.3393 
-9.60151 0.240887 0.213409 
0.240887 -9.59043 0.203182 
0.213409 0.203182 -9.88644 
-9.65445 0.0560461 0.132801 
0.0560461 -9.6333 0.131148 
0.132801 0.131148 -9.79064 
-9.46123 0.0956061 0.0992458 
0.0956061 -9.63646 0.261395 
0.0992458 0.261395 -9.98069 
-9.27833 -0.28527 -0.186208 
-0.28527 -10.1043 0.128694 
-0.186208 0.128694 -10.2136 
-10.0009 0.248848 0.285068 
0.248848 -9.42551 -0.499566 
0.285068 -0.499566 -10.1699 
-9.45218 -0.610998 -0.123771 
-0.610998 -10.0835 0.0814363 
-0.123771 0.0814363 -10.0605 
-9.02721 -0.852533 0.17757 
-0.852533 -9.88222 -0.171286 
0.17757 -0.171286 -10.6868 
-9.44205 -0.182757 -0.153626 
-0.182757 -9.61999 -0.271916 
-0.153626 -0.271916 -9.73502 
-9.62007 0.0380386 -0.0131086 
0.0380386 -9.36803 -0.134577 
-0.0131086 -0.134577 -9.80896 
-9.91135 -0.0879066 0.297669 
-0.0879066 -9.06809 -0.125 
0.297669 -0.125 -9.81762 
-9.5009 0.163274 -0.0539246 
0.163274 -9.46846 -0.315285 
-0.0539246 -0.315285 -9.82771 
-9.58061 -0.146664 -0.0559623 
-0.146664 -9.15527 -1.60213 
-0.0559623 -1.60213 -9.03642 
-9.93806 -0.236718 -0.408541 
-0.236718 -9.36904 -1.69911 
-0.408541 -1.69911 -8.4652 
-9.34452 -0.044877 -0.349266 
-0.044877 -8.85355 -1.82826 
-0.349266 -1.82826 -9.57423 
-10.157 0.000394854 0.677017 
0.000394854 -8.28241 -0.234628 
0.677017 -0.234628 -9.33292 
-9.96813 0.00533631 -0.0354005 
0.00533631 -9.99093 0.104297 
-0.0354005 0.104297 -9.96428 
-9.93651 0.016512 -0.0565088 
0.016512 -9.95577 0.115081 
-0.0565088 0.115081 -10.0311 
-9.96997 0.00170067 -0.0416088 
0.00170067 -9.98009 0.100633 
-0.0416088 0.100633 -9.97329 
-9.98254 0.00239128 -0.0316892 
0.00239128 -9.98151 0.0870746 
-0.0316892 0.0870746 -9.9593 
-9.95501 -0.00192024 0.0349949 
-0.00192024 -9.94299 0.0187701 
0.0349949 0.0187701 -9.97766 
-9.94852 -0.00464229 0.0354557 
-0.00464229 -9.94123 0.00490852 
0.0354557 0.00490852 -9.98591 
-9.9394 -0.00268805 0.0489059 
-0.00268805 -9.93609 0.0151445 
0.0489059 0.0151445 -10.0002 
-9.96054 -0.000202354 0.0372465 
-0.000202354 -9.95481 0.0195535 
0.0372465 0.0195535 -9.9603 
-11.0136 -0.36258 0.0333646 
-0.36258 -10.9401 -0.0820136 
0.0333646 -0.0820136 -12.1405 
-11.1487 0.0217704 -0.134173 
0.0217704 -11.4425 8.27556e-05 
-0.134173 8.27556e-05 -11.5029 
-11.5567 -0.243793 -0.286064 
-0.243793 -10.9196 0.0708104 
-0.286064 0.0708104 -11.6179 
-11.2811 -0.390487 -0.416677 
-0.390487 -11.0908 0.406915 
-0.416677 0.406915 -11.7223 
-9.87732 -0.00387506 0.296215 
-0.00387506 -9.86743 0.0677863 
0.296215 0.0677863 -9.92754 
-9.89759 -0.0084178 0.328848 
-0.0084178 -9.88827 0.0392482 
0.328848 0.0392482 -9.88643 
-9.88443 -0.0159169 0.341835 
-0.0159169 -9.89696 0.0313718 
0.341835 0.0313718 -9.8909 
-9.94156 -0.0124204 0.325656 
-0.0124204 -9.9078 -0.0104945 
0.325656 -0.0104945 -9.82294 
-7.53159 -0.385221 4.03953 
-0.385221 -9.34926 -1.11541 
4.03953 -1.11541 -3.96097 
-8.26573 -0.0115077 3.89474 
-0.0115077 -7.94961 -1.51787 
3.89474 -1.51787 -4.62648 
-6.23125 -1.23908 2.99925 
-1.23908 -8.43894 -1.24399 
2.99925 -1.24399 -6.17162 
-8.87797 1.87865 0.159609 
1.87865 -7.2932 0.189297 
0.159609 0.189297 -4.67065 
-11.0239 -0.981692 -0.75964 
-0.981692 -10.2812 0.334636 
-0.75964 0.334636 -12.3892 
-11.0248 0.579867 -0.228365 
0.579867 -9.08577 0.264607 
-0.228365 0.264607 -13.5838 
-11.6747 0.0940288 -0.0106785 
0.0940288 -9.28742 -0.724355 
-0.0106785 -0.724355 -12.7322 
-11.4109 0.302123 -0.683779 
0.302123 -9.64462 -0.327877 
-0.683779 -0.327877 -12.6388 
-9.86792 0.000986772 0.222577 
0.000986772 -9.58625 -0.13571 
0.222577 -0.13571 -9.56565 
-9.66481 0.189661 0.391605 
0.189661 -9.67933 -0.042506 
0.391605 -0.042506 -9.67568 
-9.9357 0.151656 0.165974 
0.151656 -9.49985 -0.0439711 
0.165974 -0.0439711 -9.58426 
-9.82501 0.103421 0.257188 
0.103421 -9.58225 -0.0696927 
0.257188 -0.0696927 -9.61256 
-9.76893 -0.39811 0.972814 
-0.39811 -9.77835 -0.0955733 
0.972814 -0.0955733 -8.2045 
-9.59847 -0.171675 1.17711 
-0.171675 -10.0207 -0.377989 
1.17711 -0.377989 -8.13266 
-9.33648 0.0181739 0.761392 
0.0181739 -9.92002 0.183464 
0.761392 0.183464 -8.49529 
-9.47445 -0.582225 0.842962 
-0.582225 -10.1104 -0.548107 
0.842962 -0.548107 -8.16692 
-9.64663 -0.00548188 -0.296604 
-0.00548188 -9.63589 -0.108419 
-0.296604 -0.108419 -9.66954 
-9.64539 -0.00315122 -0.301347 
-0.00315122 -9.65323 -0.127645 
-0.301347 -0.127645 -9.65343 
-9.6479 -0.0232912 -0.314559 
-0.0232912 -9.61651 -0.11026 
-0.314559 -0.11026 -9.68764 
-9.64965 -0.000307545 -0.313827 
-0.000307545 -9.65089 -0.113133 
-0.313827 -0.113133 -9.65152 
-9.51155 0.0994969 -0.0608294 
0.0994969 -9.62838 0.193598 
-0.0608294 0.193598 -9.68373 
-9.55304 -0.201611 -0.0818278 
-0.201611 -9.33054 0.220146 
-0.0818278 0.220146 -9.94007 
-9.56989 0.0189885 -0.112066 
0.0189885 -9.50721 0.233376 
-0.112066 0.233376 -9.74656 
-9.54844 0.0783152 -0.151636 
0.0783152 -9.49729 0.345654 
-0.151636 0.345654 -9.77793 
-9.90119 0.0175678 0.14104 
0.0175678 -9.84382 -0.104954 
0.14104 -0.104954 -9.74177 
-9.85455 0.0123253 0.19162 
0.0123253 -9.85097 -0.065352 
0.19162 -0.065352 -9.78125 
-9.85426 -0.00371449 0.199713 
-0.00371449 -9.84948 -0.0629893 
0.199713 -0.0629893 -9.78304 
-9.82387 0.0189266 0.222033 
0.0189266 -9.79863 -0.0746894 
0.222033 -0.0746894 -9.86427 
-9.70156 -0.00432632 -0.102493 
-0.00432632 -9.66508 -0.0263138 
-0.102493 -0.0263138 -9.72263 
-9.61185 -0.0627174 -0.355346 
-0.0627174 -9.6758 0.0616218 
-0.355346 0.0616218 -9.80162 
-9.63788 -0.0523754 0.00623071 
-0.0523754 -9.48853 0.0805504 
0.00623071 0.0805504 -9.96286 
-9.63654 0.0549794 -0.0921606 
0.0549794 -9.68711 -0.0275755 
-0.0921606 -0.0275755 -9.76562 
-9.72023 0.0353274 -0.250813 
0.0353274 -9.67969 0.223384 
-0.250813 0.223384 -9.58379 
-9.62856 -0.0122181 -0.271809 
-0.0122181 -9.66191 0.260098 
-0.271809 0.260098 -9.69324 
-9.65789 -0.00220609 -0.256506 
-0.00220609 -9.66866 0.245402 
-0.256506 0.245402 -9.65716 
-9.63472 -0.0108271 -0.228855 
-0.0108271 -9.67306 0.254725 
-0.228855 0.254725 -9.67593 
-9.62987 -0.0184175 -0.0579678 
-0.0184175 -9.63962 -0.0298941 
-0.0579678 -0.0298941 -9.79545 
-9.562 0.0309149 -0.0383453 
0.0309149 -9.59539 -0.0153014 
-0.0383453 -0.0153014 -9.90755 
-9.60683 -0.005853 -0.0192191 
-0.005853 -9.61562 -0.00519676 
-0.0192191 -0.00519676 -9.84249 
-9.68144 -0.0659026 0.0657313 
-0.0659026 -9.57221 0.0634696 
0.0657313 0.0634696 -9.81128 
-9.27393 0.200074 -0.0373348 
0.200074 -9.31374 -0.437235 
-0.0373348 -0.437235 -7.47111 
-9.10266 -0.710992 -0.324456 
-0.710992 -10.1914 -0.235587 
-0.324456 -0.235587 -6.7647 
-9.15771 0.125336 0.124456 
0.125336 -9.48162 -0.0972704 
0.124456 -0.0972704 -7.41945 
-9.30818 0.0265713 0.246962 
0.0265713 -9.21141 0.0137612 
0.246962 0.0137612 -7.53919 
-9.65384 -0.0245117 0.176763 
-0.0245117 -9.62956 0.190665 
0.176763 0.190665 -9.62721 
-9.68692 0.045219 0.155891 
0.045219 -9.58791 0.212267 
0.155891 0.212267 -9.63578 
-9.65899 -0.0315939 0.179869 
-0.0315939 -9.72401 0.157297 
0.179869 0.157297 -9.5276 
-9.69924 -0.055408 0.156649 
-0.055408 -9.65664 0.154154 
0.156649 0.154154 -9.55473 
-9.36062 0.800964 2.63238 
0.800964 -9.1021 2.60224 
2.63238 2.60224 -8.25344 
-10.2658 1.10867 0.859419 
1.10867 -8.10033 1.73935 
0.859419 1.73935 -8.35001 
-8.0971 -0.857573 0.9081 
-0.857573 -8.1317 1.48008 
0.9081 1.48008 -10.4874 
-10.2024 0.956407 0.749093 
0.956407 -8.78766 1.10269 
0.749093 1.10269 -7.72608 
-9.56927 -0.0268902 -0.0445678 
-0.0268902 -9.65182 -0.0472554 
-0.0445678 -0.0472554 -9.59792 
-9.54814 -0.0426384 0.0491511 
-0.0426384 -9.71995 -0.0776734 
0.0491511 -0.0776734 -9.55092 
-9.57689 -0.0307318 -0.0506297 
-0.0307318 -9.66751 -0.0485951 
-0.0506297 -0.0485951 -9.57461 
-9.59429 -0.00713501 -0.0587047 
-0.00713501 -9.64564 -0.032507 
-0.0587047 -0.032507 -9.57907 
-8.60569 0.0878632 0.406469 
0.0878632 -7.95639 1.98116 
0.406469 1.98116 -8.40774 
-10.0614 -0.0436563 0.371458 
-0.0436563 -8.62958 2.06422 
0.371458 2.06422 -6.2788 
-10.0412 -0.33651 0.145148 
-0.33651 -7.93063 -1.18969 
0.145148 -1.18969 -6.99798 
-8.64812 0.286771 0.388064 
0.286771 -8.76444 1.59361 
0.388064 1.59361 -7.55725 
-9.74856 2.92753 -1.8917 
2.92753 -7.37513 -0.53685 
-1.8917 -0.53685 -13.1973 
-10.0558 -0.24206 0.322528 
-0.24206 -8.8163 -1.12141 
0.322528 -1.12141 -11.4489 
-9.63118 -1.85925 -0.871808 
-1.85925 -9.39596 -1.38953 
-0.871808 -1.38953 -11.2939 
-10.956 1.97548 3.81029 
1.97548 -9.46255 -1.73495 
3.81029 -1.73495 -9.90248 
-9.79637 -0.00568775 0.133959 
-0.00568775 -9.81299 0.325847 
0.133959 0.325847 -9.78746 
-9.79789 -0.00549561 0.130538 
-0.00549561 -9.8236 0.336481 
0.130538 0.336481 -9.77533 
-9.81003 0.0116281 0.125632 
0.0116281 -9.74316 0.325784 
0.125632 0.325784 -9.84362 
-9.79468 0.0043571 0.137717 
0.0043571 -9.81785 0.312734 
0.137717 0.312734 -9.78429 
-11.2391 -0.0342195 0.0376373 
-0.0342195 -11.7293 -0.222629 
0.0376373 -0.222629 -12.6919 
-12.2139 1.47615 -0.0586515 
1.47615 -11.0706 0.129454 
-0.0586515 0.129454 -12.3759 
-11.9873 -0.0739745 0.0567808 
-0.0739745 -9.97246 -0.680049 
0.0567808 -0.680049 -13.7006 
-12.3017 0.384186 0.133497 
0.384186 -11.1274 0.078232 
0.133497 0.078232 -12.2313 
-9.90481 0.00364074 -0.230246 
0.00364074 -9.88683 0.236106 
-0.230246 0.236106 -9.89152 
-9.89393 0.000562366 -0.241551 
0.000562366 -9.88502 0.229497 
-0.241551 0.229497 -9.90421 
-9.90616 0.000417953 -0.225562 
0.000417953 -9.90403 0.217514 
-0.225562 0.217514 -9.87297 
-9.9188 0.00512651 -0.231827 
0.00512651 -9.87917 0.243079 
-0.231827 0.243079 -9.8852 
-9.44634 -0.0575785 -0.152108 
-0.0575785 -9.53027 0.227981 
-0.152108 0.227981 -9.78827 
-9.58929 0.000712057 0.0339184 
0.000712057 -9.4326 0.185409 
0.0339184 0.185409 -9.74299 
-9.55679 0.00246848 -0.130818 
0.00246848 -9.56033 0.155921 
-0.130818 0.155921 -9.64776 
-9.51162 0.0386098 0.062561 
0.0386098 -9.59722 0.265745 
0.062561 0.265745 -9.65605 
-10.6157 -0.0697838 0.138354 
-0.0697838 -11.5152 -0.131395 
0.138354 -0.131395 -10.0774 
-9.92321 1.74927 0.0823859 
1.74927 -12.0044 -0.139824 
0.0823859 -0.139824 -10.2806 
-9.76648 0.00562575 -0.622902 
0.00562575 -9.21255 0.235026 
-0.622902 0.235026 -13.2292 
-9.91757 -0.626271 1.14079 
-0.626271 -10.9704 -1.3397 
1.14079 -1.3397 -11.3203 
-13.3797 1.04636 1.04296 
1.04636 -11.818 0.661904 
1.04296 0.661904 -11.4222 
-12.7232 1.5045 0.526633 
1.5045 -10.7769 0.44883 
0.526633 0.44883 -13.1197 
-10.4705 1.25177 0.787639 
1.25177 -9.63619 1.40782 
0.787639 1.40782 -16.5131 
-12.1106 1.65339 -0.656509 
1.65339 -11.5046 0.178896 
-0.656509 0.178896 -13.0046 
-9.559 0.0233025 -0.105494 
0.0233025 -9.56323 -0.323686 
-0.105494 -0.323686 -9.58991 
-9.53858 0.00724856 -0.119108 
0.00724856 -9.59342 -0.315189 
-0.119108 -0.315189 -9.58014 
-9.55759 0.0256768 -0.101045 
0.0256768 -9.55908 -0.328628 
-0.101045 -0.328628 -9.59548 
-9.56386 0.00999393 -0.107987 
0.00999393 -9.54863 -0.333935 
-0.107987 -0.333935 -9.59965 
-9.48834 -1.09148 0.0131991 
-1.09148 -9.9818 -0.515886 
0.0131991 -0.515886 -12.6629 
-9.9613 -0.350341 -0.482595 
-0.350341 -9.89537 -0.140959 
-0.482595 -0.140959 -12.2763 
-13.1366 -0.559803 1.47054 
-0.559803 -10.4556 -0.526573 
1.47054 -0.526573 -8.54072 
-10.4917 -0.393049 0.74443 
-0.393049 -9.97554 0.679092 
0.74443 0.679092 -11.6658 
-9.64102 -0.0068219 0.0824222 
-0.0068219 -9.64467 -0.35375 
0.0824222 -0.35375 -9.67136 
-9.6671 0.00585585 0.0705524 
0.00585585 -9.70073 -0.348843 
0.0705524 -0.348843 -9.58922 
-9.65765 -0.00931518 0.100175 
-0.00931518 -9.65345 -0.329249 
0.100175 -0.329249 -9.64596 
-9.65862 -0.0115841 0.0834095 
-0.0115841 -9.64638 -0.320787 
0.0834095 -0.320787 -9.65206 
-9.85812 -0.0276847 -0.320849 
-0.0276847 -9.58216 0.870146 
-0.320849 0.870146 -9.10762 
-10.4435 -0.968726 -0.676296 
-0.968726 -8.30948 1.59857 
-0.676296 1.59857 -9.79488 
-8.94384 -0.447933 -0.383709 
-0.447933 -9.93633 -0.10994 
-0.383709 -0.10994 -9.66773 
-9.52229 -0.145437 -0.533061 
-0.145437 -9.753 0.808246 
-0.533061 0.808246 -9.2726 
-9.90977 -0.00609775 0.214736 
-0.00609775 -9.91894 -0.0672677 
0.214736 -0.0672677 -9.89983 
-9.96639 0.00737212 0.195248 
0.00737212 -9.8966 -0.0631778 
0.195248 -0.0631778 -9.86555 
-9.92752 0.00952295 0.228214 
0.00952295 -9.87321 -0.0804928 
0.228214 -0.0804928 -9.92781 
-9.90237 -0.0051444 0.204164 
-0.0051444 -9.92557 -0.0689882 
0.204164 -0.0689882 -9.90061 
-9.80032 -0.00809207 -0.230751 
-0.00809207 -9.79805 -0.236568 
-0.230751 -0.236568 -9.7969 
-9.81859 -0.0111142 -0.239074 
-0.0111142 -9.81793 -0.269702 
-0.239074 -0.269702 -9.75875 
-9.74806 0.0580586 -0.228155 
0.0580586 -9.77339 -0.264339 
-0.228155 -0.264339 -9.87382 
-9.80446 -0.0129238 -0.21381 
-0.0129238 -9.80356 -0.222553 
-0.21381 -0.222553 -9.78724 
-9.93257 -0.00709552 -0.275527 
-0.00709552 -9.92879 0.19094 
-0.275527 0.19094 -9.93363 
-9.93687 -0.0174084 -0.266877 
-0.0174084 -9.92376 0.181684 
-0.266877 0.181684 -9.93436 
-9.90094 0.0233892 -0.249015 
0.0233892 -9.9014 0.169019 
-0.249015 0.169019 -9.99265 
-9.9447 0.0183127 -0.259391 
0.0183127 -9.94429 0.186366 
-0.259391 0.186366 -9.90599 
-7.0369 -0.0805965 -2.21295 
-0.0805965 -8.13804 -1.59829 
-2.21295 -1.59829 0.348314 
-9.67963 -0.691973 -0.761714 
-0.691973 -10.9301 -1.46319 
-0.761714 -1.46319 5.78312 
-2.95786 -0.0635881 0.747176 
-0.0635881 -3.22674 -1.01626 
0.747176 -1.01626 -8.64202 
-5.08157 0.263028 -4.44076 
0.263028 -5.23738 -6.62357 
-4.44076 -6.62357 -4.50767 
-9.48467 0.301671 0.308266 
0.301671 -9.50406 0.0864196 
0.308266 0.0864196 -9.98272 
-9.00766 -0.915604 0.434083 
-0.915604 -9.21863 -0.62277 
0.434083 -0.62277 -10.7451 
-10.4806 -0.686889 1.28838 
-0.686889 -8.82836 -1.48711 
1.28838 -1.48711 -9.66253 
-8.95701 -0.159508 0.45026 
-0.159508 -8.69263 -0.576414 
0.45026 -0.576414 -11.3218 
-9.94711 0.266245 0.0174657 
0.266245 -9.29089 0.591846 
0.0174657 0.591846 -9.75509 
-9.25768 0.28838 0.0119816 
0.28838 -9.549 0.138977 
0.0119816 0.138977 -10.1864 
-9.79971 0.360939 0.151994 
0.360939 -9.03479 0.275147 
0.151994 0.275147 -10.1586 
-9.60061 0.319215 -0.028178 
0.319215 -9.27907 0.118796 
-0.028178 0.118796 -10.1134 
-9.70607 -0.388219 -0.543611 
-0.388219 -9.6948 -0.108781 
-0.543611 -0.108781 -10.1027 
-9.98068 -0.0885337 -1.66088 
-0.0885337 -8.72347 0.95745 
-1.66088 0.95745 -10.7994 
-9.4267 -0.45307 -0.237661 
-0.45307 -9.92177 0.267599 
-0.237661 0.267599 -10.1551 
-10.3273 -0.177352 -0.878891 
-0.177352 -9.95185 0.480164 
-0.878891 0.480164 -9.22445 
-9.96653 -0.00507508 0.133915 
-0.00507508 -9.97271 -0.124499 
0.133915 -0.124499 -9.98377 
-9.98037 0.00326355 0.155423 
0.00326355 -9.93676 -0.118877 
0.155423 -0.118877 -10.0059 
-9.98499 0.00403968 0.141402 
0.00403968 -9.9765 -0.130947 
0.141402 -0.130947 -9.96152 
-9.98154 0.00164973 0.134716 
0.00164973 -9.98425 -0.127527 
0.134716 -0.127527 -9.95722 
-9.95194 0.00161009 -0.0398503 
0.00161009 -9.95605 -0.0277185 
-0.0398503 -0.0277185 -9.99882 
-9.95495 0.0100017 -0.0402373 
0.0100017 -9.96735 -0.0227249 
-0.0402373 -0.0227249 -9.98451 
-9.96576 0.0117633 -0.0425158 
0.0117633 -9.95677 -0.0263365 
-0.0425158 -0.0263365 -9.98429 
-9.9693 0.00170675 -0.0404617 
0.00170675 -9.97072 -0.0221193 
-0.0404617 -0.0221193 -9.96679 
-10.4403 -0.0610446 0.0193243 
-0.0610446 -10.4791 0.107434 
0.0193243 0.107434 -11.1179 
-10.5184 0.0977408 0.0304837 
0.0977408 -10.484 0.0897985 
0.0304837 0.0897985 -11.0349 
-10.1541 0.127551 -0.0372198 
0.127551 -10.4225 -0.166898 
-0.0372198 -0.166898 -11.4606 
-10.6197 0.343008 0.294236 
0.343008 -10.3734 0.230633 
0.294236 0.230633 -11.0441 
-10.0428 0.282067 0.194769 
0.282067 -9.7551 0.480654 
0.194769 0.480654 -9.42998 
-10.067 0.019392 0.0430765 
0.019392 -8.79253 0.2783 
0.0430765 0.2783 -10.3683 
-9.77998 -0.0992866 -0.0843476 
-0.0992866 -9.11424 0.00371785 
-0.0843476 0.00371785 -10.3336 
-9.57178 -0.459406 0.00527826 
-0.459406 -9.23763 0.0865016 
0.00527826 0.0865016 -10.4184 
-9.82402 0.04284 0.22726 
0.04284 -9.75338 0.268081 
0.22726 0.268081 -9.87647 
-9.82621 -0.0231645 0.218492 
-0.0231645 -9.84083 0.28281 
0.218492 0.28281 -9.78683 
-9.80688 -0.0115465 0.201952 
-0.0115465 -9.8264 0.267236 
0.201952 0.267236 -9.82059 
-9.80889 -0.0180454 0.181403 
-0.0180454 -9.82388 0.234596 
0.181403 0.234596 -9.8211 
-10.215 0.525803 0.188451 
0.525803 -10.0191 0.972272 
0.188451 0.972272 -8.69605 
-9.07987 -0.0977558 0.651433 
-0.0977558 -10.0112 0.285959 
0.651433 0.285959 -9.83915 
-10.2553 0.426208 0.439275 
0.426208 -9.87356 1.16961 
0.439275 1.16961 -8.8013 
-10.3973 0.250072 0.723728 
0.250072 -10.3694 0.592515 
0.723728 0.592515 -8.16349 
-9.63109 -0.00146672 0.0314031 
-0.00146672 -9.68598 -0.0838074 
0.0314031 -0.0838074 -9.84869 
-9.67942 -0.00743085 0.0148652 
-0.00743085 -9.61034 -0.0497862 
0.0148652 -0.0497862 -9.876 
-9.67258 -0.00816053 0.010024 
-0.00816053 -9.64419 -0.0138458 
0.010024 -0.0138458 -9.84899 
-9.67461 0.0154643 0.0101006 
0.0154643 -9.63836 -0.0123172 
0.0101006 -0.0123172 -9.85278 
-9.39655 0.0434931 -0.0820367 
0.0434931 -9.55135 0.53018 
-0.0820367 0.53018 -9.37291 
-9.2235 -0.0731113 -0.119005 
-0.0731113 -9.46015 0.399739 
-0.119005 0.399739 -9.63715 
-9.35044 0.209497 -0.253354 
0.209497 -9.61078 0.404596 
-0.253354 0.404596 -9.35958 
-9.31671 0.23024 -0.0596169 
0.23024 -9.69347 0.194313 
-0.0596169 0.194313 -9.31062 
-9.66955 0.0255337 0.214588 
0.0255337 -9.5845 -0.104033 
0.214588 -0.104033 -9.6218 
-9.69323 0.0622228 0.221263 
0.0622228 -9.64514 -0.105781 
0.221263 -0.105781 -9.53747 
-9.6767 0.0663876 0.203053 
0.0663876 -9.59854 -0.0761925 
0.203053 -0.0761925 -9.60061 
-9.68563 0.0651864 0.194289 
0.0651864 -9.5764 -0.0396685 
0.194289 -0.0396685 -9.61382 
-10.3925 -0.0180637 0.075265 
-0.0180637 -10.275 0.0437026 
0.075265 0.0437026 -10.9058 
-10.6168 0.0898767 0.0271364 
0.0898767 -10.2393 0.0542133 
0.0271364 0.0542133 -10.7171 
-10.4383 -0.29184 0.02461 
-0.29184 -9.93293 0.155122 
0.02461 0.155122 -11.2021 
-10.5657 -0.0563038 -0.278249 
-0.0563038 -10.1489 -0.129531 
-0.278249 -0.129531 -10.8587 
-12.479 1.22022 -2.93656 
1.22022 -6.20965 -5.05561 
-2.93656 -5.05561 -9.87558 
-10.7179 0.0346283 -0.474755 
0.0346283 -7.09727 -2.01034 
-0.474755 -2.01034 -10.7491 
-5.93478 1.14531 -2.25143 
1.14531 -10.2841 -5.12664 
-2.25143 -5.12664 -12.3454 
-8.21073 1.52905 0.0311524 
1.52905 -11.786 -1.55846 
0.0311524 -1.55846 -8.56752 
-9.73981 -0.0108247 0.0144377 
-0.0108247 -9.7035 -0.00396588 
0.0144377 -0.00396588 -9.86886 
-9.718 0.0146281 0.0150837 
0.0146281 -9.72299 0.00868994 
0.0150837 0.00868994 -9.87118 
-9.72504 -0.00178986 0.00875272 
-0.00178986 -9.71147 0.00177929 
0.00875272 0.00177929 -9.87567 
-9.70302 -0.000993639 -0.0172073 
-0.000993639 -9.71262 -0.00101582 
-0.0172073 -0.00101582 -9.89653 
-9.79615 0.000496509 0.187738 
0.000496509 -9.75102 0.0722967 
0.187738 0.0722967 -9.73415 
-9.79171 -0.00342759 0.195912 
-0.00342759 -9.75408 0.0533635 
0.195912 0.0533635 -9.73553 
-9.75369 -0.00834206 0.239537 
-0.00834206 -9.72734 0.0776715 
0.239537 0.0776715 -9.80029 
-9.8119 -0.0127385 0.249758 
-0.0127385 -9.78618 0.0606482 
0.249758 0.0606482 -9.68324 
-10.012 -0.0325088 -0.0487939 
-0.0325088 -9.98443 0.0175894 
-0.0487939 0.0175894 -10.1285 
-10.062 -0.0151733 -7.87898e-05 
-0.0151733 -10.0653 -0.0265613 
-7.87898e-05 -0.0265613 -9.99765 
-10.0335 -0.0278209 -0.00974558 
-0.0278209 -10.0468 0.0057458 
-0.00974558 0.0057458 -10.0447 
-10.0456 -0.0111902 -0.0197547 
-0.0111902 -10.0658 -0.00971311 
-0.0197547 -0.00971311 -10.0136 
-9.73672 0.0926777 0.132923 
0.0926777 -9.68927 -0.110883 
0.132923 -0.110883 -9.81054 
-9.31343 -0.163539 0.15273 
-0.163539 -9.8665 -0.0279128 
0.15273 -0.0279128 -10.0566 
-9.7141 -0.000540263 0.0839103 
-0.000540263 -9.72637 -0.165895 
0.0839103 -0.165895 -9.79606 
-9.71089 -0.157666 0.269974 
-0.157666 -9.72915 -0.0544949 
0.269974 -0.0544949 -9.7965 
-9.89131 0.0385796 0.341279 
0.0385796 -9.84272 -0.125867 
0.341279 -0.125867 -9.78247 
-9.79774 -0.0277748 0.330149 
-0.0277748 -9.82682 -0.142764 
0.330149 -0.142764 -9.89193 
-9.8475 -0.0248462 0.31035 
-0.0248462 -9.83991 -0.135623 
0.31035 -0.135623 -9.82908 
-9.85747 -0.0153597 0.272871 
-0.0153597 -9.84262 -0.104929 
0.272871 -0.104929 -9.8164 
-9.41932 0.107912 -0.301293 
0.107912 -9.61512 -0.000927107 
-0.301293 -0.000927107 -10.4652 
-9.73884 0.263098 0.151709 
0.263098 -9.37468 -0.178442 
0.151709 -0.178442 -10.3862 
-9.56658 0.245219 -0.214489 
0.245219 -9.23903 0.0853648 
-0.214489 0.0853648 -10.6941 
-9.62601 0.149213 0.267802 
0.149213 -9.42421 0.0757461 
0.267802 0.0757461 -10.4495 
-9.81848 0.0201248 0.171366 
0.0201248 -9.80426 0.297408 
0.171366 0.297408 -9.81512 
-9.80803 -0.00682526 0.171887 
-0.00682526 -9.81905 0.301979 
0.171887 0.301979 -9.81077 
-9.81347 -0.00806367 0.169185 
-0.00806367 -9.81982 0.308051 
0.169185 0.308051 -9.80456 
-9.79726 -0.0039546 0.170018 
-0.0039546 -9.82575 0.306491 
0.170018 0.306491 -9.81484 
-9.60168 -0.0583019 -0.0166158 
-0.0583019 -9.62056 0.114786 
-0.0166158 0.114786 -9.63349 
-9.59076 -0.0987699 -0.0132394 
-0.0987699 -9.56175 0.146937 
-0.0132394 0.146937 -9.70321 
-9.55365 -0.00539129 -0.0231057 
-0.00539129 -9.63374 -0.00773928 
-0.0231057 -0.00773928 -9.66833 
-9.51564 -0.0887109 -0.143693 
-0.0887109 -9.72712 0.132131 
-0.143693 0.132131 -9.61296 
-9.17161 -0.486889 0.440953 
-0.486889 -10.0626 0.177973 
0.440953 0.177973 -8.13387 
-10.4155 -0.0767637 -0.129757 
-0.0767637 -9.00473 0.895186 
-0.129757 0.895186 -7.94789 
-9.44214 0.222446 0.0612524 
0.222446 -9.11596 1.66341 
0.0612524 1.66341 -8.81001 
-10.1234 0.549251 0.555947 
0.549251 -8.69245 1.67775 
0.555947 1.67775 -8.55223 
-10.176 0.364228 -0.488755 
0.364228 -9.18293 0.618196 
-0.488755 0.618196 -10.4238 
-8.70104 -0.502153 0.353133 
-0.502153 -9.89872 -0.640818 
0.353133 -0.640818 -11.183 
-10.3154 -0.03957 -0.0619032 
-0.03957 -8.91934 -0.13794 
-0.0619032 -0.13794 -10.548 
-9.65735 0.686526 0.430379 
0.686526 -8.38489 0.174905 
0.430379 0.174905 -11.7405 
-10.4304 1.21002 -1.63268 
1.21002 -13.3651 -0.663614 
-1.63268 -0.663614 -12.4422 
-13.8172 -1.56932 -2.14517 
-1.56932 -9.3772 1.46024 
-2.14517 1.46024 -13.0433 
-10.9696 -2.21432 0.795276 
-2.21432 -10.8189 0.159414 
0.795276 0.159414 -14.4492 
-8.90751 0.445931 0.118052 
0.445931 -12.0495 -0.537452 
0.118052 -0.537452 -15.2807 
-11.2931 -0.83684 0.194237 
-0.83684 -11.169 -0.249972 
0.194237 -0.249972 -12.0102 
-10.9489 -0.227273 -0.143056 
-0.227273 -11.1913 -0.148736 
-0.143056 -0.148736 -12.3321 
-12.4592 -0.0237136 0.198829 
-0.0237136 -10.1132 -0.23365 
0.198829 -0.23365 -11.8998 
-11.6544 -0.333922 0.247303 
-0.333922 -11.037 -0.132069 
0.247303 -0.132069 -11.781 
-9.9815 0.0198926 0.196165 
0.0198926 -9.64518 0.406085 
0.196165 0.406085 -10.2117 
-10.1931 0.298731 -0.243011 
0.298731 -9.1653 0.165376 
-0.243011 0.165376 -10.48 
-10.1396 -0.0169507 -0.514346 
-0.0169507 -9.40953 -0.36524 
-0.514346 -0.36524 -10.2893 
-10.2359 0.142571 -0.272234 
0.142571 -9.31747 0.0548619 
-0.272234 0.0548619 -10.285 
-9.77121 -0.00391346 -0.0398307 
-0.00391346 -9.75337 -0.043126 
-0.0398307 -0.043126 -9.83427 
-9.77505 -0.0144852 -0.0639461 
-0.0144852 -9.75286 -0.0593069 
-0.0639461 -0.0593069 -9.83094 
-9.77116 -0.00898031 -0.0444304 
-0.00898031 -9.75921 -0.04016 
-0.0444304 -0.04016 -9.82848 
-9.78607 -0.0197937 -0.041931 
-0.0197937 -9.76796 -0.0315314 
-0.041931 -0.0315314 -9.80481 
-9.21356 -0.035538 0.699641 
-0.035538 -9.33417 0.13319 
0.699641 0.13319 -8.61988 
-9.39365 -0.429923 0.0695067 
-0.429923 -10.1748 0.199484 
0.0695067 0.199484 -7.59918 
-9.63186 0.214335 0.170901 
0.214335 -9.43104 -0.229957 
0.170901 -0.229957 -8.10471 
-9.28388 0.743666 0.800758 
0.743666 -9.59561 0.275437 
0.800758 0.275437 -8.28813 
-5.46206 -1.936 1.77129 
-1.936 -11.427 1.20789 
1.77129 1.20789 -12.3807 
-11.8754 -0.251794 1.69331 
-0.251794 -7.31135 -0.0192114 
1.69331 -0.0192114 -10.0831 
-9.9769 -0.960929 0.31862 
-0.960929 -8.68912 -0.924444 
0.31862 -0.924444 -10.6038 
-8.04558 -1.17488 -1.58168 
-1.17488 -12.163 -3.8068 
-1.58168 -3.8068 -9.06129 
-5.71735 -0.825728 -0.569039 
-0.825728 -6.16833 0.117915 
-0.569039 0.117915 -0.307796 
-5.33891 -0.526464 -0.94273 
-0.526464 -5.65063 -0.931085 
-0.94273 -0.931085 -1.20393 
-4.79787 -0.275915 -1.13196 
-0.275915 -5.86667 -0.304561 
-1.13196 -0.304561 -1.52894 
-4.58936 -0.917744 -0.962929 
-0.917744 -4.84319 -0.566953 
-0.962929 -0.566953 -2.76092 
-9.86457 -0.0291057 0.333201 
-0.0291057 -9.83117 0.13608 
0.333201 0.13608 -9.8066 
-9.82516 0.0226777 0.329243 
0.0226777 -9.82231 0.109753 
0.329243 0.109753 -9.85487 
-9.80521 0.0150762 0.326203 
0.0150762 -9.82112 0.128312 
0.326203 0.128312 -9.876 
-9.84082 0.00736285 0.310266 
0.00736285 -9.84466 0.110599 
0.310266 0.110599 -9.81685 
-10.1661 -1.09479 0.0457766 
-1.09479 -9.76544 -0.37095 
0.0457766 -0.37095 -12.4522 
-10.2836 0.42855 -0.264045 
0.42855 -10.2215 0.582736 
-0.264045 0.582736 -11.8787 
-10.7606 1.04746 -0.0115087 
1.04746 -10.4243 -0.184098 
-0.0115087 -0.184098 -11.199 
-11.154 -0.745645 0.162865 
-0.745645 -10.0911 0.955216 
0.162865 0.955216 -11.1388 
-7.72902 2.84833 7.17435 
2.84833 -10.7561 3.45137 
7.17435 3.45137 -4.71895 
-6.51124 2.74346 1.9406 
2.74346 -7.86125 1.29527 
1.9406 1.29527 -8.8316 
-8.79236 -0.117085 5.34026 
-0.117085 -6.64634 1.9047 
5.34026 1.9047 -7.7654 
-9.39259 -2.86293 0.705412 
-2.86293 -8.45088 0.21783 
0.705412 0.21783 -5.36062 
-9.54386 -0.0209152 -0.301977 
-0.0209152 -9.56163 0.104125 
-0.301977 0.104125 -9.65508 
-9.5932 -0.00672857 -0.313461 
-0.00672857 -9.56118 0.0809282 
-0.313461 0.0809282 -9.6062 
-9.59579 -0.0212108 -0.305974 
-0.0212108 -9.55521 0.117641 
-0.305974 0.117641 -9.60958 
-9.57834 -0.0204546 -0.288457 
-0.0204546 -9.55705 0.122092 
-0.288457 0.122092 -9.62519 
-9.84873 0.000945336 -0.126002 
0.000945336 -9.82872 0.315697 
-0.126002 0.315697 -9.82303 
-9.83844 0.0219777 -0.161497 
0.0219777 -9.88855 0.333336 
-0.161497 0.333336 -9.77349 
-9.81449 -0.0101466 -0.172856 
-0.0101466 -9.76501 0.330856 
-0.172856 0.330856 -9.92098 
-9.83963 0.0157451 -0.123769 
0.0157451 -9.83802 0.265142 
-0.123769 0.265142 -9.82283 
-9.09042 0.152731 0.988589 
0.152731 -9.43902 0.428939 
0.988589 0.428939 -8.81946 
-9.01631 0.18629 0.677611 
0.18629 -9.54291 0.357713 
0.677611 0.357713 -8.78966 
-9.13104 0.127863 0.649194 
0.127863 -9.27224 0.202792 
0.649194 0.202792 -8.94561 
-9.2505 0.139566 0.655 
0.139566 -9.2885 0.342401 
0.655 0.342401 -8.80989 
-9.30331 0.422676 -0.0905623 
0.422676 -9.59291 0.301338 
-0.0905623 0.301338 -9.83349 
-9.83782 0.215535 -0.40869 
0.215535 -9.25235 0.0815754 
-0.40869 0.0815754 -9.63953 
-9.08441 0.202407 -0.127334 
0.202407 -9.70135 0.221422 
-0.127334 0.221422 -9.94394 
-9.2553 0.239997 -0.0341865 
0.239997 -9.59832 0.215625 
-0.0341865 0.215625 -9.87608 
-9.63929 -0.0449168 -0.315497 
-0.0449168 -9.72067 -0.146818 
-0.315497 -0.146818 -9.07084 
-9.62888 -0.0693101 -0.304573 
-0.0693101 -9.6232 -0.211703 
-0.304573 -0.211703 -9.17872 
-9.7213 -0.0505681 -0.281847 
-0.0505681 -9.56981 -0.227043 
-0.281847 -0.227043 -9.13968 
-9.71752 -0.118467 -0.271813 
-0.118467 -9.56538 -0.146963 
-0.271813 -0.146963 -9.14789 
-9.9606 0.00756184 -0.24474 
0.00756184 -9.9571 0.0499184 
-0.24474 0.0499184 -10.0071 
-9.98247 0.0152832 -0.254836 
0.0152832 -9.95746 0.0641159 
-0.254836 0.0641159 -9.98484 
-9.98441 0.00406657 -0.249242 
0.00406657 -9.96963 0.0605147 
-0.249242 0.0605147 -9.97073 
-9.9853 0.00352803 -0.248247 
0.00352803 -9.98173 0.066515 
-0.248247 0.066515 -9.95774 
-9.94208 0.00151241 0.0297858 
0.00151241 -9.9478 -0.0612093 
0.0297858 -0.0612093 -10.0082 
-9.95047 -0.00570295 0.0342351 
-0.00570295 -9.96542 -0.0516308 
0.0342351 -0.0516308 -9.98219 
-9.95173 0.00187041 0.0251076 
0.00187041 -9.969 -0.0506739 
0.0251076 -0.0506739 -9.97736 
-9.96483 0.00283245 0.0242669 
0.00283245 -9.9713 -0.0491183 
0.0242669 -0.0491183 -9.96196 
-10.2691 -0.226589 -0.0591952 
-0.226589 -9.90499 -0.759121 
-0.0591952 -0.759121 -8.03125 
-9.68511 0.283423 0.455035 
0.283423 -10.1988 0.349737 
0.455035 0.349737 -8.32148 
-9.78302 0.159605 0.198644 
0.159605 -9.57389 0.0489861 
0.198644 0.0489861 -8.84843 
-10.1407 -0.00420689 -0.0111748 
-0.00420689 -9.89937 -0.219425 
-0.0111748 -0.219425 -8.16527 
-9.96203 -0.00629965 0.142504 
-0.00629965 -9.99711 0.23673 
0.142504 0.23673 -9.96851 
-9.97092 0.00324362 0.139579 
0.00324362 -9.98671 0.23657 
0.139579 0.23657 -9.97002 
-9.94656 -0.00717547 0.127084 
-0.00717547 -9.95596 0.229557 
0.127084 0.229557 -10.0251 
-9.98445 -0.00472922 0.146291 
-0.00472922 -9.99014 0.244711 
0.146291 0.244711 -9.95306 
-9.49493 -0.0224242 -0.0275524 
-0.0224242 -9.64303 0.0701883 
-0.0275524 0.0701883 -9.737 
-9.44262 -0.100256 0.0540342 
-0.100256 -9.65566 0.198085 
0.0540342 0.198085 -9.7767 
-9.55568 -0.068073 0.0885615 
-0.068073 -9.60214 0.101586 
0.0885615 0.101586 -9.71715 
-9.50736 -0.0614261 0.0824984 
-0.0614261 -9.69698 0.0583465 
0.0824984 0.0583465 -9.67062 
-9.54433 0.0673263 -0.106492 
0.0673263 -9.63716 -0.148077 
-0.106492 -0.148077 -9.98539 
-9.66949 -0.0648612 -0.0382261 
-0.0648612 -9.36321 -0.121822 
-0.0382261 -0.121822 -10.1342 
-9.6622 0.0193754 -0.0421039 
0.0193754 -9.44942 -0.127001 
-0.0421039 -0.127001 -10.0553 
-9.71701 0.0572161 -0.0146297 
0.0572161 -9.37754 -0.112797 
-0.0146297 -0.112797 -10.0723 
-9.84673 0.264881 0.296614 
0.264881 -9.73855 0.210631 
0.296614 0.210631 -9.71606 
-9.53813 0.299712 -0.121651 
0.299712 -9.76646 -0.00929015 
-0.121651 -0.00929015 -9.99675 
-9.74899 0.0834551 0.196288 
0.0834551 -9.69276 0.374663 
0.196288 0.374663 -9.85959 
-9.55172 0.289996 0.140377 
0.289996 -9.63499 -0.0041582 
0.140377 -0.0041582 -10.1146 
-9.89854 -0.015428 0.156408 
-0.015428 -9.91275 0.180717 
0.156408 0.180717 -9.92006 
-9.92114 -0.0175941 0.146214 
-0.0175941 -9.92622 0.14888 
0.146214 0.14888 -9.88399 
-9.90651 -0.00228659 0.15197 
-0.00228659 -9.91619 0.155547 
0.15197 0.155547 -9.90866 
-9.9165 -0.00670011 0.141124 
-0.00670011 -9.90666 0.172769 
0.141124 0.172769 -9.9082 
-9.96887 -0.00116781 0.211717 
-0.00116781 -9.9698 0.17376 
0.211717 0.17376 -9.99625 
-9.96512 -0.0208521 0.224992 
-0.0208521 -9.96671 0.186162 
0.224992 0.186162 -10.0031 
-9.9903 -0.00415612 0.223559 
-0.00415612 -9.97913 0.176271 
0.223559 0.176271 -9.96549 
-9.98961 0.00229595 0.220375 
0.00229595 -9.98855 0.17696 
0.220375 0.17696 -9.95675 
-9.97078 -0.00819003 -0.160213 
-0.00819003 -9.95433 -0.28877 
-0.160213 -0.28877 -10.0131 
-9.98615 -0.00761592 -0.177574 
-0.00761592 -9.981 -0.275645 
-0.177574 -0.275645 -9.97101 
-9.98618 -0.0043104 -0.190113 
-0.0043104 -9.99436 -0.277608 
-0.190113 -0.277608 -9.95762 
-9.98509 -0.0141581 -0.17654 
-0.0141581 -9.97352 -0.281063 
-0.17654 -0.281063 -9.97955 
-9.35951 -0.100718 0.222719 
-0.100718 -9.48731 -0.104935 
0.222719 -0.104935 -9.62336 
-9.54878 0.0679482 0.327082 
0.0679482 -9.47077 -0.112366 
0.327082 -0.112366 -9.45062 
-9.45994 0.012131 0.293411 
0.012131 -9.48832 -0.142186 
0.293411 -0.142186 -9.52192 
-9.35714 -0.001395 0.358986 
-0.001395 -9.45853 -0.202833 
0.358986 -0.202833 -9.65451 
-9.7891 0.0186568 -0.319937 
0.0186568 -9.83193 -0.138506 
-0.319937 -0.138506 -9.90656 
-9.90927 -0.0505857 -0.34012 
-0.0505857 -9.84794 -0.119006 
-0.34012 -0.119006 -9.77038 
-9.84252 0.0289174 -0.302509 
0.0289174 -9.84953 -0.132204 
-0.302509 -0.132204 -9.83554 
-9.85719 0.0103868 -0.247534 
0.0103868 -9.86173 -0.0965765 
-0.247534 -0.0965765 -9.80867 
-14.0804 1.48698 -0.806341 
1.48698 -12.1409 -0.795858 
-0.806341 -0.795858 -17.0469 
-15.1833 0.637489 -0.405698 
0.637489 -13.0201 -0.918896 
-0.405698 -0.918896 -15.0647 
-13.5486 0.855695 -0.246225 
0.855695 -10.582 -1.36225 
-0.246225 -1.36225 -19.1376 
-14.9247 0.738922 -1.05024 
0.738922 -12.3986 -1.20924 
-1.05024 -1.20924 -15.9449 
-9.72955 -0.00804465 -0.184384 
-0.00804465 -9.73906 -0.288166 
-0.184384 -0.288166 -9.7251 
-9.73543 0.00901349 -0.199558 
0.00901349 -9.74106 -0.287567 
-0.199558 -0.287567 -9.71722 
-9.77944 -0.0108519 -0.176092 
-0.0108519 -9.74741 -0.252766 
-0.176092 -0.252766 -9.66687 
-9.72311 -0.0130676 -0.164154 
-0.0130676 -9.69057 -0.265594 
-0.164154 -0.265594 -9.78003 
-9.57234 0.0138267 -0.187753 
0.0138267 -9.65385 -0.22452 
-0.187753 -0.22452 -9.50822 
-9.57948 0.0141447 -0.181858 
0.0141447 -9.63187 -0.25411 
-0.181858 -0.25411 -9.52307 
-9.63849 -0.0461604 -0.121392 
-0.0461604 -9.53365 -0.136854 
-0.121392 -0.136854 -9.56228 
-9.64792 -0.0091136 -0.244863 
-0.0091136 -9.69733 -0.22505 
-0.244863 -0.22505 -9.38916 
-9.7237 0.00078846 0.0104049 
0.00078846 -9.78232 -0.133287 
0.0104049 -0.133287 -9.75919 
-9.72203 0.00651613 0.0367854 
0.00651613 -9.76534 -0.127806 
0.0367854 -0.127806 -9.77783 
-9.72127 0.00557319 0.00805969 
0.00557319 -9.78762 -0.125945 
0.00805969 -0.125945 -9.75631 
-9.75704 0.00416099 -0.0007269 
0.00416099 -9.80105 -0.107053 
-0.0007269 -0.107053 -9.70711 
-9.6145 -0.022563 -0.16455 
-0.022563 -9.60323 0.353108 
-0.16455 0.353108 -9.67081 
-9.62567 0.00532713 -0.149851 
0.00532713 -9.63623 0.319112 
-0.149851 0.319112 -9.62665 
-9.64703 0.0391014 -0.146468 
0.0391014 -9.67305 0.30833 
-0.146468 0.30833 -9.56847 
-9.62032 -0.0130592 -0.120481 
-0.0130592 -9.6115 0.322422 
-0.120481 0.322422 -9.65673 
-9.78593 -0.0117062 0.232789 
-0.0117062 -9.79034 -0.241833 
0.232789 -0.241833 -9.79386 
-9.77798 -0.0366525 0.221903 
-0.0366525 -9.73347 -0.266002 
0.221903 -0.266002 -9.85868 
-9.81554 0.0243772 0.242447 
0.0243772 -9.82532 -0.276595 
0.242447 -0.276595 -9.72928 
-9.8087 0.0156917 0.23413 
0.0156917 -9.79502 -0.216658 
0.23413 -0.216658 -9.76643 
-9.74242 -0.0390083 -0.128636 
-0.0390083 -9.75284 -0.226448 
-0.128636 -0.226448 -9.68881 
-9.72208 -0.040424 -0.152485 
-0.040424 -9.77981 -0.209388 
-0.152485 -0.209388 -9.68219 
-9.71075 -0.0205204 -0.129416 
-0.0205204 -9.73561 -0.19294 
-0.129416 -0.19294 -9.73771 
-9.72658 -0.0255169 -0.137961 
-0.0255169 -9.73773 -0.202649 
-0.137961 -0.202649 -9.71977 
-9.67329 0.0218722 -0.0117111 
0.0218722 -9.64489 -0.0289453 
-0.0117111 -0.0289453 -9.81275 
-9.66253 -0.0127045 -0.031964 
-0.0127045 -9.66125 -0.00242664 
-0.031964 -0.00242664 -9.80715 
-9.62932 -0.0648055 0.0651553 
-0.0648055 -9.67925 0.0362637 
0.0651553 0.0362637 -9.82237 
-9.69358 -0.0225114 -0.00898769 
-0.0225114 -9.71031 -0.0296189 
-0.00898769 -0.0296189 -9.72704 
-9.93251 -0.00714333 -0.0257096 
-0.00714333 -9.89901 0.0451978 
-0.0257096 0.0451978 -9.9712 
-9.92466 0.0052016 -0.0300159 
0.0052016 -9.9291 0.0344386 
-0.0300159 0.0344386 -9.94896 
-9.92009 0.00622654 -0.0262047 
0.00622654 -9.92759 0.0348323 
-0.0262047 0.0348323 -9.95503 
-9.93454 -0.000932266 -0.0183601 
-0.000932266 -9.92376 0.03783 
-0.0183601 0.03783 -9.94441 
-9.75035 -0.00491573 0.0147066 
-0.00491573 -9.79544 -0.102988 
0.0147066 -0.102988 -9.63319 
-9.73242 0.00533725 0.0450425 
0.00533725 -9.67842 -0.0981245 
0.0450425 -0.0981245 -9.76814 
-9.70168 0.0129454 0.0592026 
0.0129454 -9.83724 -0.0614838 
0.0592026 -0.0614838 -9.64006 
-9.72323 0.0556103 -0.0357205 
0.0556103 -9.66831 -0.0939668 
-0.0357205 -0.0939668 -9.78745 
-9.79808 0.00382131 -0.20308 
0.00382131 -9.76429 -0.0471297 
-0.20308 -0.0471297 -9.79948 
-9.81568 0.0192866 -0.193925 
0.0192866 -9.768 -0.0620838 
-0.193925 -0.0620838 -9.77816 
-9.80744 -0.00994166 -0.184958 
-0.00994166 -9.80492 -0.0410069 
-0.184958 -0.0410069 -9.74948 
-9.81827 -0.00256887 -0.17857 
-0.00256887 -9.79428 -0.0510866 
-0.17857 -0.0510866 -9.74929 
-9.76592 -0.0120073 -0.219485 
-0.0120073 -9.74392 -0.0356074 
-0.219485 -0.0356074 -9.77202 
-9.77568 -0.016009 -0.208737 
-0.016009 -9.75166 -0.106949 
-0.208737 -0.106949 -9.75452 
-9.80785 -0.0345044 -0.232729 
-0.0345044 -9.72983 -0.0535635 
-0.232729 -0.0535635 -9.74417 
-9.79462 -0.0454727 -0.18256 
-0.0454727 -9.75787 -0.104252 
-0.18256 -0.104252 -9.72937 
-9.96927 0.00421176 0.130697 
0.00421176 -9.96845 0.0807687 
0.130697 0.0807687 -9.9699 
-9.97871 0.0127027 0.132404 
0.0127027 -9.95827 0.0785051 
0.132404 0.0785051 -9.97063 
-9.94446 -0.000234248 0.139424 
-0.000234248 -9.92868 0.0856756 
0.139424 0.0856756 -10.0345 
-9.97926 -0.000242542 0.120209 
-0.000242542 -9.97605 0.0821345 
0.120209 0.0821345 -9.9523 
-9.83372 -0.0139201 -0.0954218 
-0.0139201 -9.80393 -0.165446 
-0.0954218 -0.165446 -9.73376 
-9.77867 -0.0237764 -0.127834 
-0.0237764 -9.83654 -0.177773 
-0.127834 -0.177773 -9.7562 
-9.8182 -0.00827354 -0.115461 
-0.00827354 -9.75823 -0.181312 
-0.115461 -0.181312 -9.79499 
-9.78005 -0.0367509 -0.114474 
-0.0367509 -9.83585 -0.153922 
-0.114474 -0.153922 -9.75551 
-10.3737 0.118462 0.412224 
0.118462 -9.71711 1.50597 
0.412224 1.50597 -8.38117 
-11.7862 -0.577482 -0.320607 
-0.577482 -10.8458 0.724819 
-0.320607 0.724819 -5.84005 
-10.1724 0.0354991 -0.00283994 
0.0354991 -9.86895 1.53986 
-0.00283994 1.53986 -8.43067 
-9.66426 0.209291 0.288461 
0.209291 -9.45296 0.0512585 
0.288461 0.0512585 -9.35479 
-9.91512 -0.000790454 -0.173769 
-0.000790454 -9.91842 0.204759 
-0.173769 0.204759 -9.92936 
-9.91539 0.00789556 -0.182075 
0.00789556 -9.92414 0.211231 
-0.182075 0.211231 -9.92337 
-9.93173 -0.0239591 -0.189855 
-0.0239591 -9.93888 0.195371 
-0.189855 0.195371 -9.8923 
-9.92011 0.0155479 -0.180885 
0.0155479 -9.92562 0.206147 
-0.180885 0.206147 -9.91717 
-9.92036 0.0191962 0.159233 
0.0191962 -9.92061 -0.155601 
0.159233 -0.155601 -9.92056 
-9.93303 0.011492 0.171354 
0.011492 -9.90814 -0.151373 
0.171354 -0.151373 -9.92035 
-9.92394 0.0449047 0.139105 
0.0449047 -9.94938 -0.142542 
0.139105 -0.142542 -9.8882 
-9.93349 -0.00640787 0.152932 
-0.00640787 -9.9192 -0.141888 
0.152932 -0.141888 -9.90883 
-9.9127 -0.0298869 -0.130939 
-0.0298869 -9.8629 -0.203497 
-0.130939 -0.203497 -9.95781 
-9.95028 0.0703531 0.0775533 
0.0703531 -9.85959 0.252658 
0.0775533 0.252658 -9.92355 
-9.74005 -0.0312333 -0.0375447 
-0.0312333 -9.86334 -0.13396 
-0.0375447 -0.13396 -10.13 
-9.64428 0.0117311 -0.109925 
0.0117311 -9.5927 -0.0319858 
-0.109925 -0.0319858 -10.4964 
-9.3745 -0.0467229 -0.652589 
-0.0467229 -9.77534 0.141503 
-0.652589 0.141503 -9.41378 
-9.43347 0.192907 -0.897367 
0.192907 -9.71105 -0.361838 
-0.897367 -0.361838 -9.4191 
-9.5155 0.178426 -0.356366 
0.178426 -9.3739 -0.23229 
-0.356366 -0.23229 -9.67422 
-9.68908 -0.303731 -0.60604 
-0.303731 -9.81203 0.402757 
-0.60604 0.402757 -9.06252 
-13.2587 -1.94228 1.03613 
-1.94228 -13.3332 -1.62779 
1.03613 -1.62779 -8.62658 
-11.085 -1.51779 0.627535 
-1.51779 -9.02164 -0.489272 
0.627535 -0.489272 -15.1119 
-10.5028 -1.87297 -0.455627 
-1.87297 -4.92058 -1.57845 
-0.455627 -1.57845 -19.7951 
-11.5773 -0.12109 0.961888 
-0.12109 -9.58598 3.05144 
0.961888 3.05144 -14.0552 
-8.76604 -0.481323 -1.58756 
-0.481323 -8.66386 3.72321 
-1.58756 3.72321 -3.905 
-8.1227 0.835424 -1.27936 
0.835424 -8.46222 3.69615 
-1.27936 3.69615 -4.74997 
-8.9548 -1.84766 -0.717773 
-1.84766 -5.47903 3.19738 
-0.717773 3.19738 -6.90106 
-7.24252 1.18349 0.117704 
1.18349 -9.5277 0.982245 
0.117704 0.982245 -4.56467 
-9.33133 -0.0210142 -0.136672 
-0.0210142 -9.60275 -0.00998684 
-0.136672 -0.00998684 -9.86176 
-9.51766 -0.0128458 -0.0290445 
-0.0128458 -9.45341 -0.0637772 
-0.0290445 -0.0637772 -9.82477 
-9.37485 -0.0653044 -0.134436 
-0.0653044 -9.64479 0.0227551 
-0.134436 0.0227551 -9.7762 
-9.50696 0.0690686 -0.163275 
0.0690686 -9.53821 -0.191465 
-0.163275 -0.191465 -9.75068 
-9.98784 -0.00170276 0.171097 
-0.00170276 -9.96507 -0.020847 
0.171097 -0.020847 -9.96723 
-9.95642 0.00168976 0.182984 
0.00168976 -9.9425 -0.0336371 
0.182984 -0.0336371 -10.0212 
-9.99803 0.00473529 0.172121 
0.00473529 -9.95626 -0.0172419 
0.172121 -0.0172419 -9.96584 
-9.99064 0.00268459 0.165874 
0.00268459 -9.97742 -0.0131895 
0.165874 -0.0131895 -9.95207 
-9.02519 -0.355841 -0.617712 
-0.355841 -9.32752 -1.39387 
-0.617712 -1.39387 -8.2865 
-10.1055 0.50569 -1.45024 
0.50569 -9.6513 -1.33293 
-1.45024 -1.33293 -6.88246 
-9.23803 0.259939 -0.901708 
0.259939 -8.96185 0.291933 
-0.901708 0.291933 -8.43933 
-8.41705 0.540266 -0.279356 
0.540266 -8.73875 -1.74764 
-0.279356 -1.74764 -9.48341 
-9.86714 0.637521 0.645532 
0.637521 -8.25654 0.693907 
0.645532 0.693907 -10.0994 
-8.56754 0.206859 0.435463 
0.206859 -10.2145 0.696816 
0.435463 0.696816 -9.44098 
-9.61135 0.932918 0.524025 
0.932918 -8.25474 1.23182 
0.524025 1.23182 -10.3569 
-10.1749 0.171906 -0.44249 
0.171906 -8.40723 0.69261 
-0.44249 0.69261 -9.64086 
-5.70419 -0.460917 -1.05697 
-0.460917 -4.22308 -2.18403 
-1.05697 -2.18403 -0.165953 
-3.35792 -0.821911 -0.810902 
-0.821911 -3.25196 -0.311636 
-0.810902 -0.311636 -3.48334 
-5.74077 -0.889762 -0.400905 
-0.889762 -3.58383 -1.3276 
-0.400905 -1.3276 -0.768619 
-4.5588 -1.09818 -0.740356 
-1.09818 -4.37909 0.266763 
-0.740356 0.266763 -1.15534 
-9.89226 0.00980244 0.0298272 
0.00980244 -9.89645 -0.334332 
0.0298272 -0.334332 -9.8941 
-9.87432 3.43908e-05 0.0498518 
3.43908e-05 -9.88792 -0.298106 
0.0498518 -0.298106 -9.92057 
-9.89654 0.00767119 0.0298041 
0.00767119 -9.89732 -0.330678 
0.0298041 -0.330678 -9.88895 
-9.91326 0.00682063 -0.0012857 
0.00682063 -9.92728 -0.337564 
-0.0012857 -0.337564 -9.84228 
-9.57632 -0.758193 -5.28009 
-0.758193 -16.0036 -5.92654 
-5.28009 -5.92654 6.86223 
-11.4243 -2.16506 -2.56675 
-2.16506 -13.2427 -6.5497 
-2.56675 -6.5497 5.94934 
-1.38072 -1.54111 1.17154 
-1.54111 -1.15456 4.69168 
1.17154 4.69168 -16.1824 
-6.85253 7.65352 -4.94195 
7.65352 5.7307 -10.6319 
-4.94195 -10.6319 -17.5958 
-9.93465 0.0358065 0.0746166 
0.0358065 -9.87831 0.245194 
0.0746166 0.245194 -9.95767 
-9.92232 -0.0261072 0.068143 
-0.0261072 -9.93872 0.242557 
0.068143 0.242557 -9.9096 
-9.92659 -0.0104055 0.0665624 
-0.0104055 -9.93617 0.256952 
0.0665624 0.256952 -9.90789 
-9.9237 -0.00763451 0.0821481 
-0.00763451 -9.94468 0.257732 
0.0821481 0.257732 -9.90226 
-9.55725 -0.085702 -0.399179 
-0.085702 -9.51883 0.0286714 
-0.399179 0.0286714 -9.31674 
-9.56185 -0.0179647 -0.309899 
-0.0179647 -9.4782 0.0546044 
-0.309899 0.0546044 -9.35277 
-9.25004 0.0786273 -0.393606 
0.0786273 -9.65035 0.0143173 
-0.393606 0.0143173 -9.49243 
-9.54908 -0.0156045 -0.401062 
-0.0156045 -9.56394 0.0263332 
-0.401062 0.0263332 -9.2798 
-9.82948 -0.00286949 0.349228 
-0.00286949 -9.80838 -0.0529732 
0.349228 -0.0529732 -9.85444 
-9.86008 -0.00216137 0.354833 
-0.00216137 -9.82748 -0.0420573 
0.354833 -0.0420573 -9.80473 
-9.81569 0.00156097 0.344692 
0.00156097 -9.84006 -0.0332898 
0.344692 -0.0332898 -9.83654 
-9.82072 -0.00778745 0.327275 
-0.00778745 -9.84026 -0.035948 
0.327275 -0.035948 -9.83131 
-9.50123 0.154129 0.10636 
0.154129 -9.50422 -0.25624 
0.10636 -0.25624 -10.2657 
-9.25865 0.177696 0.981618 
0.177696 -9.88967 0.7289 
0.981618 0.7289 -10.1228 
-9.94887 0.396291 0.992784 
0.396291 -9.42826 1.10212 
0.992784 1.10212 -9.89402 
-9.45481 0.396432 1.55312 
0.396432 -10.7073 -0.39066 
1.55312 -0.39066 -9.10901 
-9.81614 -0.00442222 -0.0143531 
-0.00442222 -9.7999 0.0137498 
-0.0143531 0.0137498 -9.89732 
-9.81786 -0.00256036 -0.0233863 
-0.00256036 -9.7888 0.0183485 
-0.0233863 0.0183485 -9.90671 
-9.81465 -0.00482751 -0.0195588 
-0.00482751 -9.79839 0.0213513 
-0.0195588 0.0213513 -9.90033 
-9.80515 0.00243979 -0.0121018 
0.00243979 -9.8004 0.0148248 
-0.0121018 0.0148248 -9.90781 
-8.4316 -0.926524 0.823027 
-0.926524 -12.0457 -0.168254 
0.823027 -0.168254 -16.6628 
-7.91167 -0.702509 -1.97155 
-0.702509 -10.6125 0.656186 
-1.97155 0.656186 -18.616 
-12.36 -0.739146 0.974429 
-0.739146 -15.472 -0.393489 
0.974429 -0.393489 -9.30816 
-8.37074 -0.652703 2.88765 
-0.652703 -14.4729 5.16759 
2.88765 5.16759 -14.2965 
-1.18521 0.124746 1.24834 
0.124746 -1.88357 0.115102 
1.24834 0.115102 -9.23214 
-5.40765 0.24504 -0.872345 
0.24504 -5.92457 -1.65055 
-0.872345 -1.65055 -0.968697 
-8.74569 0.700168 -2.5966 
0.700168 -10.5996 0.589582 
-2.5966 0.589582 7.04441 
-4.01152 1.27458 0.344954 
1.27458 -5.68515 -7.24292 
0.344954 -7.24292 -2.60425 
-9.33839 -0.0841999 -0.015665 
-0.0841999 -9.65342 0.11985 
-0.015665 0.11985 -10.1249 
-9.43887 -0.171485 0.0807071 
-0.171485 -9.47589 -0.127839 
0.0807071 -0.127839 -10.2019 
-9.69678 -0.219749 0.0762838 
-0.219749 -9.72 -0.488595 
0.0762838 -0.488595 -9.69988 
-9.44391 -0.189863 0.129596 
-0.189863 -9.48488 -0.114343 
0.129596 -0.114343 -10.1879 
-10.9655 -0.142563 -0.0482122 
-0.142563 -10.9846 0.245412 
-0.0482122 0.245412 -10.954 
-11.4144 0.680387 0.262672 
0.680387 -10.5024 -0.064209 
0.262672 -0.064209 -10.9874 
-11.1842 -0.528172 -0.211691 
-0.528172 -9.73412 0.616845 
-0.211691 0.616845 -11.9858 
-11.4203 -0.0704896 -0.224144 
-0.0704896 -10.3244 -0.0838677 
-0.224144 -0.0838677 -11.1594 
-9.6154 0.0136326 -0.319997 
0.0136326 -9.6113 -0.0509985 
-0.319997 -0.0509985 -9.63623 
-9.64681 -0.0254751 -0.393741 
-0.0254751 -9.64373 -0.000941663 
-0.393741 -0.000941663 -9.57241 
-9.56447 0.0416346 -0.353128 
0.0416346 -9.68217 -0.0987446 
-0.353128 -0.0987446 -9.61629 
-9.63587 -0.00443588 -0.358319 
-0.00443588 -9.58751 -0.0634147 
-0.358319 -0.0634147 -9.63956 
-9.82272 -0.00227495 -0.0453201 
-0.00227495 -9.82595 -0.0299463 
-0.0453201 -0.0299463 -9.88914 
-9.83123 -0.0044475 -0.0397891 
-0.0044475 -9.82728 -0.0319239 
-0.0397891 -0.0319239 -9.8793 
-9.83154 -0.00675473 -0.0353259 
-0.00675473 -9.82416 -0.0176293 
-0.0353259 -0.0176293 -9.88211 
-9.81157 -0.00663918 -0.0420038 
-0.00663918 -9.81202 -0.0439824 
-0.0420038 -0.0439824 -9.91422 
-9.80255 0.0144216 -0.0594789 
0.0144216 -9.80214 0.00243756 
-0.0594789 0.00243756 -9.83112 
-9.79308 0.0113684 -0.0493774 
0.0113684 -9.79745 0.0382986 
-0.0493774 0.0382986 -9.84528 
-9.78968 -0.000492437 -0.0651794 
-0.000492437 -9.80377 0.0350274 
-0.0651794 0.0350274 -9.84236 
-9.79592 0.00243001 -0.0427346 
0.00243001 -9.77126 0.0457677 
-0.0427346 0.0457677 -9.86863 
-9.92367 -0.00277377 -0.246519 
-0.00277377 -9.93957 0.231855 
-0.246519 0.231855 -9.93319 
-9.90832 0.0166563 -0.214855 
0.0166563 -9.89661 0.206071 
-0.214855 0.206071 -9.99151 
-9.91887 -0.0103513 -0.23562 
-0.0103513 -9.9439 0.220916 
-0.23562 0.220916 -9.93367 
-9.9525 0.0193605 -0.238827 
0.0193605 -9.9415 0.212264 
-0.238827 0.212264 -9.90244 
-9.76232 0.0524162 0.253222 
0.0524162 -9.79848 0.00953768 
0.253222 0.00953768 -9.99951 
-9.5083 -0.308753 -0.0935498 
-0.308753 -10.1002 -0.187775 
-0.0935498 -0.187775 -9.95176 
-9.50864 -0.0298252 -0.00928785 
-0.0298252 -10.0083 -0.00036504 
-0.00928785 -0.00036504 -10.0433 
-9.49878 0.169208 0.183772 
0.169208 -10.0373 -0.058376 
0.183772 -0.058376 -10.0242 
-8.36501 0.381447 3.1365 
0.381447 -9.7435 -2.69894 
3.1365 -2.69894 -8.41129 
-7.55461 0.560512 -0.280056 
0.560512 -6.32813 -2.97261 
-0.280056 -2.97261 -12.6371 
-11.4313 -4.09903 0.295557 
-4.09903 -5.3317 -1.69454 
0.295557 -1.69454 -9.75684 
-9.16362 -2.23666 0.192468 
-2.23666 -12.1592 0.740566 
0.192468 0.740566 -5.19694 
-9.97968 -0.011113 0.286655 
-0.011113 -9.98635 0.191638 
0.286655 0.191638 -9.95891 
-9.98856 -0.0127552 0.286573 
-0.0127552 -9.96109 0.170341 
0.286573 0.170341 -9.97529 
-9.94318 -0.00847072 0.298266 
-0.00847072 -9.95368 0.154587 
0.298266 0.154587 -10.0281 
-9.98117 -0.0139306 0.280377 
-0.0139306 -9.98115 0.175412 
0.280377 0.175412 -9.96262 
-7.70239 1.37151 0.495101 
1.37151 -11.2512 0.232718 
0.495101 0.232718 -13.0734 
-2.93454 5.01647 -2.20227 
5.01647 -8.85577 -0.903464 
-2.20227 -0.903464 -20.2367 
-3.35396 2.1598 -1.17684 
2.1598 -10.0649 -1.75252 
-1.17684 -1.75252 -18.6082 
-9.18599 0.488341 -1.5191 
0.488341 -10.0958 -0.657156 
-1.5191 -0.657156 -12.7452 
-11.0867 -0.649665 0.297255 
-0.649665 -10.6013 0.229583 
0.297255 0.229583 -12.743 
-9.65098 1.94477 -1.40818 
1.94477 -10.5101 -1.03886 
-1.40818 -1.03886 -14.2699 
-12.9358 -0.545409 1.45296 
-0.545409 -10.8524 -0.0936754 
1.45296 -0.0936754 -10.6428 
-8.72744 -0.847138 1.13741 
-0.847138 -11.1619 -0.00906457 
1.13741 -0.00906457 -14.5417 
-9.58174 0.00190472 -0.0133899 
0.00190472 -9.55288 -0.372006 
-0.0133899 -0.372006 -9.61031 
-9.59577 0.0143868 -0.018132 
0.0143868 -9.56851 -0.355141 
-0.018132 -0.355141 -9.58065 
-9.58638 -0.0121249 -0.01739 
-0.0121249 -9.62697 -0.378568 
-0.01739 -0.378568 -9.53158 
-9.59897 -0.00882795 -0.025123 
-0.00882795 -9.58306 -0.330281 
-0.025123 -0.330281 -9.5629 
-9.65327 0.00893907 0.0427777 
0.00893907 -9.63377 0.0366169 
0.0427777 0.0366169 -9.84387 
-9.65321 0.0105922 0.0399254 
0.0105922 -9.61301 0.0258001 
0.0399254 0.0258001 -9.86468 
-9.63996 0.00762677 0.0437434 
0.00762677 -9.62588 0.0222518 
0.0437434 0.0222518 -9.86508 
-9.61268 0.018381 0.0056463 
0.018381 -9.65248 0.00962543 
0.0056463 0.00962543 -9.86576 
-9.81669 0.0327271 -0.171722 
0.0327271 -9.79821 0.130312 
-0.171722 0.130312 -9.7863 
-9.7983 0.0434701 -0.211177 
0.0434701 -9.81871 0.120896 
-0.211177 0.120896 -9.78418 
-9.8308 0.038363 -0.182978 
0.038363 -9.79809 0.096209 
-0.182978 0.096209 -9.77231 
-9.79867 0.00980191 -0.160255 
0.00980191 -9.78092 0.158237 
-0.160255 0.158237 -9.8216 
-9.36295 0.035854 -0.119566 
0.035854 -9.33794 -0.269882 
-0.119566 -0.269882 -9.68957 
-9.48209 0.109737 -0.137165 
0.109737 -9.30433 -0.303997 
-0.137165 -0.303997 -9.60403 
-9.53416 0.0509182 -0.103703 
0.0509182 -9.39667 -0.350762 
-0.103703 -0.350762 -9.45962 
-9.295 0.113377 -0.336071 
0.113377 -9.27584 -0.473266 
-0.336071 -0.473266 -9.81961 
-9.58509 -1.83208 1.32943 
-1.83208 -4.08951 -0.127592 
1.32943 -0.127592 -21.1846 
-14.9755 -1.27616 -1.08556 
-1.27616 -11.5673 2.68957 
-1.08556 2.68957 -8.31638 
-8.67506 -3.61808 -0.57256 
-3.61808 -4.83666 -0.96543 
-0.57256 -0.96543 -21.3475 
-10.5709 0.273326 1.75448 
0.273326 -11.3067 -3.91509 
1.75448 -3.91509 -12.9815 
-9.96519 -0.288734 -1.41475 
-0.288734 -9.25931 0.474916 
-1.41475 0.474916 -8.24514 
-10.0213 -1.03369 -1.18749 
-1.03369 -8.88402 1.1552 
-1.18749 1.1552 -8.56431 
-10.0078 -0.119832 -0.997398 
-0.119832 -10.5098 1.204 
-0.997398 1.204 -6.95204 
-8.65168 0.62292 0.389284 
0.62292 -9.88517 -0.628602 
0.389284 -0.628602 -8.93278 
-9.88007 0.420325 0.840285 
0.420325 -6.69571 -3.48264 
0.840285 -3.48264 -8.5771 
-10.1519 -2.35779 -0.698129 
-2.35779 -3.97706 -2.38094 
-0.698129 -2.38094 -11.0239 
-9.87724 0.334168 1.95819 
0.334168 -6.4194 -6.18761 
1.95819 -6.18761 -8.85624 
-9.27376 2.81232 -0.457427 
2.81232 -9.46754 -1.66396 
-0.457427 -1.66396 -6.41158 
-9.66231 -0.0345699 -0.136254 
-0.0345699 -9.72387 -0.243622 
-0.136254 -0.243622 -9.61851 
-9.71413 -0.0457023 -0.105398 
-0.0457023 -9.70076 -0.263589 
-0.105398 -0.263589 -9.5898 
-9.6847 -0.0473656 -0.120835 
-0.0473656 -9.62786 -0.223368 
-0.120835 -0.223368 -9.69213 
-9.64555 -0.0102321 -0.134706 
-0.0102321 -9.75463 -0.219151 
-0.134706 -0.219151 -9.60452 
-12.0179 -0.923307 -0.0370312 
-0.923307 -13.2016 0.1731 
-0.0370312 0.1731 -10.5258 
-10.4905 0.23085 -0.629126 
0.23085 -12.172 0.140432 
-0.629126 0.140432 -13.0828 
-11.2427 0.149422 0.000589065 
0.149422 -11.6033 0.224023 
0.000589065 0.224023 -12.8994 
-11.0128 -0.143674 -0.206 
-0.143674 -12.3006 -0.964094 
-0.206 -0.964094 -12.4319 
-12.2156 -1.17177 -0.261908 
-1.17177 -11.0547 -0.00727865 
-0.261908 -0.00727865 -11.896 
-11.1565 -0.0058866 0.0395231 
-0.0058866 -11.5336 0.283604 
0.0395231 0.283604 -12.4762 
-11.7285 0.108973 0.107085 
0.108973 -9.85578 0.755588 
0.107085 0.755588 -13.582 
-12.2923 -0.292727 0.199572 
-0.292727 -10.9024 -0.112881 
0.199572 -0.112881 -11.9715 
-9.82648 -0.0133689 -0.0689469 
-0.0133689 -9.803 0.355046 
-0.0689469 0.355046 -9.90096 
-9.84156 0.0187063 -0.0640085 
0.0187063 -9.88872 0.358813 
-0.0640085 0.358813 -9.80016 
-9.85156 -0.0179592 -0.0756942 
-0.0179592 -9.84212 0.332941 
-0.0756942 0.332941 -9.83677 
-9.8485 -0.00881175 -0.0571189 
-0.00881175 -9.85524 0.301682 
-0.0571189 0.301682 -9.82671 
-9.8724 -0.011754 -0.090545 
-0.011754 -9.86713 -0.0887085 
-0.090545 -0.0887085 -9.88849 
-9.87181 -0.00481841 -0.0827775 
-0.00481841 -9.87404 -0.081807 
-0.0827775 -0.081807 -9.88217 
-9.88133 -0.000120988 -0.0746628 
-0.000120988 -9.87411 -0.0906778 
-0.0746628 -0.0906778 -9.87258 
-9.89128 -0.00308153 -0.057182 
-0.00308153 -9.88517 -0.0764477 
-0.057182 -0.0764477 -9.85156 
-9.39708 -0.169806 0.150743 
-0.169806 -9.39803 -0.233419 
0.150743 -0.233419 -9.49643 
-9.40732 -0.0672053 0.233006 
-0.0672053 -9.40487 -0.233034 
0.233006 -0.233034 -9.47934 
-9.54819 0.23705 0.198838 
0.23705 -9.33624 -0.290496 
0.198838 -0.290496 -9.40709 
-9.42532 -0.0746341 0.261021 
-0.0746341 -9.35263 -0.291731 
0.261021 -0.291731 -9.51358 
-9.86596 -0.00432212 -0.199028 
-0.00432212 -9.86511 0.231552 
-0.199028 0.231552 -9.87792 
-9.88263 0.00296706 -0.227966 
0.00296706 -9.88933 0.239777 
-0.227966 0.239777 -9.83703 
-9.86065 0.00100447 -0.212855 
0.00100447 -9.88605 0.235034 
-0.212855 0.235034 -9.86228 
-9.86293 0.00987027 -0.215458 
0.00987027 -9.87263 0.245285 
-0.215458 0.245285 -9.87343 
-8.86766 -0.314209 1.0738 
-0.314209 -9.58345 -0.862207 
1.0738 -0.862207 -4.34021 
-7.62446 -0.578423 0.764058 
-0.578423 -8.4568 -0.21086 
0.764058 -0.21086 -6.71007 
-8.12881 0.0158686 0.873031 
0.0158686 -9.9012 -0.0353909 
0.873031 -0.0353909 -4.76131 
-8.58868 -0.174654 0.438777 
-0.174654 -8.70846 -1.04578 
0.438777 -1.04578 -5.49418 
-9.87665 0.0181987 0.0240694 
0.0181987 -9.96646 0.00436589 
0.0240694 0.00436589 -10.0033 
-9.90885 -0.0181846 0.0337073 
-0.0181846 -9.96022 0.00960201 
0.0337073 0.00960201 -9.97734 
-9.90535 0.00233106 0.00410906 
0.00233106 -9.96352 0.0503554 
0.00410906 0.0503554 -9.97755 
-10.0136 0.0332982 -0.0342148 
0.0332982 -9.98878 0.0214902 
-0.0342148 0.0214902 -9.84401 
-9.9507 -0.00652445 0.0204785 
-0.00652445 -9.95401 -0.037383 
0.0204785 -0.037383 -9.83596 
-9.83653 0.010794 -0.00111391 
0.010794 -9.95911 -0.0300653 
-0.00111391 -0.0300653 -9.94502 
-9.89778 0.0444819 -0.00782479 
0.0444819 -9.91033 -0.0322805 
-0.00782479 -0.0322805 -9.93255 
-9.84521 0.0649863 -0.0438714 
0.0649863 -9.93076 -0.0210466 
-0.0438714 -0.0210466 -9.96469 
-8.73355 1.07376 -1.65752 
1.07376 -8.76117 0.107752 
-1.65752 0.107752 5.75725 
-6.11732 0.00496801 -0.812207 
0.00496801 -7.24749 2.35727 
-0.812207 2.35727 1.62734 
-0.0513115 0.338402 2.91285 
0.338402 0.831483 -0.25149 
2.91285 -0.25149 -12.5176 
-9.86469 -0.283652 7.09484 
-0.283652 -6.00746 6.39561 
7.09484 6.39561 4.13468 
-9.52006 0.394547 -0.406411 
0.394547 -10.2939 -0.233271 
-0.406411 -0.233271 -6.49198 
-9.31668 0.0413487 -0.10548 
0.0413487 -10.2153 -0.212 
-0.10548 -0.212 -6.77395 
-9.63934 0.139131 0.244368 
0.139131 -10.3909 0.302517 
0.244368 0.302517 -6.27566 
-9.36527 0.0669385 -0.252729 
0.0669385 -10.5981 0.193942 
-0.252729 0.193942 -6.34256 
-8.92286 -0.115534 0.697754 
-0.115534 -10.0813 0.654531 
0.697754 0.654531 -9.62095 
-9.76341 0.198198 0.248256 
0.198198 -9.35436 0.832342 
0.248256 0.832342 -9.50739 
-10.1172 0.763025 0.202159 
0.763025 -9.31121 1.14108 
0.202159 1.14108 -9.19673 
-10.2088 -0.380013 -0.047475 
-0.380013 -9.06935 0.980216 
-0.047475 0.980216 -9.34699 
-9.95301 0.00300894 -0.192119 
0.00300894 -9.98159 0.00173931 
-0.192119 0.00173931 -9.97017 
-9.93501 0.00490909 -0.179929 
0.00490909 -9.93331 0.00656534 
-0.179929 0.00656534 -10.0364 
-9.97243 0.00151567 -0.19774 
0.00151567 -9.97494 -0.00177092 
-0.19774 -0.00177092 -9.9574 
-9.98195 -0.000248013 -0.194158 
-0.000248013 -9.97884 0.0109486 
-0.194158 0.0109486 -9.94398 
-10.8714 0.294218 0.21212 
0.294218 -9.47105 -1.0086 
0.21212 -1.0086 -8.92412 
-10.1739 0.0697252 -0.496218 
0.0697252 -7.90735 -0.247815 
-0.496218 -0.247815 -11.1853 
-10.4925 -0.517785 0.176254 
-0.517785 -8.45314 -1.83805 
0.176254 -1.83805 -10.3209 
-10.819 -0.0488268 -0.117829 
-0.0488268 -8.67016 -1.15132 
-0.117829 -1.15132 -9.77739 
-9.3637 0.237642 1.99165 
0.237642 -10.2786 -0.102188 
1.99165 -0.102188 -8.07475 
-10.5474 -0.875852 1.30082 
-0.875852 -10.0232 -0.191029 
1.30082 -0.191029 -7.14638 
-11.0268 -0.446066 1.22182 
-0.446066 -9.18879 0.638249 
1.22182 0.638249 -7.50146 
-9.86535 -0.41527 2.00848 
-0.41527 -10.7426 -0.19561 
2.00848 -0.19561 -7.10909 
-9.6979 -0.0304072 0.222516 
-0.0304072 -9.62663 0.1365 
0.222516 0.1365 -9.54635 
-9.65468 -0.00901831 0.225872 
-0.00901831 -9.63317 0.117391 
0.225872 0.117391 -9.58304 
-9.64648 -0.0257045 0.246943 
-0.0257045 -9.61108 0.121906 
0.246943 0.121906 -9.61332 
-9.65221 -0.0362326 0.183625 
-0.0362326 -9.64984 0.144762 
0.183625 0.144762 -9.56883 
-9.72693 0.000353527 0.266138 
0.000353527 -9.72885 0.246753 
0.266138 0.246753 -9.71467 
-9.82856 -0.00141136 0.251728 
-0.00141136 -9.76966 0.210985 
0.251728 0.210985 -9.57223 
-9.7453 0.00999161 0.259877 
0.00999161 -9.72814 0.242126 
0.259877 0.242126 -9.69701 
-9.70732 -0.0096183 0.218168 
-0.0096183 -9.68191 0.207156 
0.218168 0.207156 -9.78122 
-9.90607 0.126426 0.0505477 
0.126426 -9.69953 -0.00173681 
0.0505477 -0.00173681 -10.1768 
-9.85614 0.0456215 -0.0129598 
0.0456215 -9.7922 -0.112049 
-0.0129598 -0.112049 -10.1341 
-9.72581 0.100605 0.0567626 
0.100605 -9.91688 0.437602 
0.0567626 0.437602 -10.1397 
-10.0952 0.158419 -0.0161753 
0.158419 -9.38832 0.00430496 
-0.0161753 0.00430496 -10.299 
-9.92989 -8.13505e-05 -0.0572657 
-8.13505e-05 -9.94015 -0.298853 
-0.0572657 -0.298853 -9.94826 
-9.94475 2.77881e-05 -0.0428311 
2.77881e-05 -9.92314 -0.301639 
-0.0428311 -0.301639 -9.95041 
-9.94929 0.01251 -0.0565243 
0.01251 -9.93913 -0.31536 
-0.0565243 -0.31536 -9.92988 
-9.92193 -0.0240125 -0.0758942 
-0.0240125 -9.99007 -0.308323 
-0.0758942 -0.308323 -9.90629 
-9.89858 0.0133023 -0.185481 
0.0133023 -9.91016 0.104472 
-0.185481 0.104472 -9.91861 
-9.91845 0.00201392 -0.198672 
0.00201392 -9.90494 0.116365 
-0.198672 0.116365 -9.90396 
-9.91106 0.00467042 -0.189253 
0.00467042 -9.91161 0.124174 
-0.189253 0.124174 -9.90468 
-9.91517 0.0301372 -0.198241 
0.0301372 -9.93498 0.137602 
-0.198241 0.137602 -9.8772 
-9.7905 -0.00608719 -0.237246 
-0.00608719 -9.79647 0.248369 
-0.237246 0.248369 -9.79098 
-9.77963 -0.0342007 -0.224069 
-0.0342007 -9.72926 0.259036 
-0.224069 0.259036 -9.86905 
-9.80634 0.0211525 -0.252288 
0.0211525 -9.84659 0.275591 
-0.252288 0.275591 -9.72502 
-9.79599 0.0129461 -0.25292 
0.0129461 -9.80782 0.216511 
-0.25292 0.216511 -9.77414 
-9.57268 -0.00179001 -0.277605 
-0.00179001 -9.56101 0.232457 
-0.277605 0.232457 -9.57821 
-9.58623 -0.00580216 -0.276676 
-0.00580216 -9.58063 0.331204 
-0.276676 0.331204 -9.54503 
-9.59318 -0.0662567 -0.232515 
-0.0662567 -9.55695 0.29733 
-0.232515 0.29733 -9.56176 
-9.56465 -0.0335593 -0.307687 
-0.0335593 -9.58253 0.27702 
-0.307687 0.27702 -9.56471 
-9.17907 0.809192 0.548032 
0.809192 -8.01228 1.75989 
0.548032 1.75989 -8.44486 
-10.5156 0.486973 0.241924 
0.486973 -7.33727 1.83316 
0.241924 1.83316 -7.78331 
-10.4053 0.453487 0.326184 
0.453487 -7.83573 2.1216 
0.326184 2.1216 -7.39513 
-10.8623 0.150595 0.288838 
0.150595 -7.48018 1.56949 
0.288838 1.56949 -7.29369 
-9.58638 0.00150825 0.00602907 
0.00150825 -9.50558 0.144866 
0.00602907 0.144866 -9.64555 
-9.57241 0.01444 0.00145914 
0.01444 -9.55908 0.0929595 
0.00145914 0.0929595 -9.60602 
-9.57817 -0.0157156 -0.00904637 
-0.0157156 -9.52844 0.105426 
-0.00904637 0.105426 -9.6309 
-9.62091 0.00528604 0.0388705 
0.00528604 -9.51941 0.130421 
0.0388705 0.130421 -9.59719 
-4.57562 -0.0837315 1.43225 
-0.0837315 -7.87796 0.544287 
1.43225 0.544287 4.78521 
0.901691 0.384464 -2.25084 
0.384464 2.10111 -1.88855 
-2.25084 -1.88855 -10.6712 
-6.3682 0.766455 0.950948 
0.766455 -6.42433 2.69658 
0.950948 2.69658 5.12416 
-7.50732 -2.04147 -5.2672 
-2.04147 -6.82244 -1.48752 
-5.2672 -1.48752 6.66139 
-9.89478 -0.00154847 -0.0307711 
-0.00154847 -9.89721 -0.329729 
-0.0307711 -0.329729 -9.88845 
-9.8909 -0.000257634 -0.0348122 
-0.000257634 -9.89847 -0.332993 
-0.0348122 -0.332993 -9.89107 
-9.87425 0.0018177 -0.0459232 
0.0018177 -9.89284 -0.299968 
-0.0459232 -0.299968 -9.91335 
-9.91621 0.00282585 -0.0136371 
0.00282585 -9.92035 -0.34099 
-0.0136371 -0.34099 -9.84387 
-9.73037 -0.0252262 -0.110246 
-0.0252262 -9.65052 -0.144486 
-0.110246 -0.144486 -9.6319 
-9.6268 -0.0918352 -0.105013 
-0.0918352 -9.86618 -0.225632 
-0.105013 -0.225632 -9.51982 
-9.71938 -0.00937256 -0.131034 
-0.00937256 -9.67527 -0.252873 
-0.131034 -0.252873 -9.61814 
-9.67715 -0.00451044 -0.134879 
-0.00451044 -9.69745 -0.166852 
-0.134879 -0.166852 -9.63819 
-9.81296 0.0192832 0.00201727 
0.0192832 -9.68511 0.351917 
0.00201727 0.351917 -9.87526 
-9.79127 0.00276727 0.0276897 
0.00276727 -9.79858 0.341834 
0.0276897 0.341834 -9.78347 
-9.7958 -0.00442617 0.0157126 
-0.00442617 -9.83361 0.378709 
0.0157126 0.378709 -9.74392 
-9.79199 -0.00432648 0.0265772 
-0.00432648 -9.81774 0.321882 
0.0265772 0.321882 -9.7636 
-10.5487 -0.389586 -0.121147 
-0.389586 -11.1804 0.210731 
-0.121147 0.210731 -12.2177 
-11.4105 0.117442 0.20939 
0.117442 -10.6153 -0.177999 
0.20939 -0.177999 -11.9209 
-11.0879 -0.153653 0.060095 
-0.153653 -10.8538 0.0353514 
0.060095 0.0353514 -12.0051 
-11.2164 -0.227617 0.0172151 
-0.227617 -11.0207 -0.119416 
0.0172151 -0.119416 -11.7096 
-9.48017 0.0507899 0.468589 
0.0507899 -9.55886 0.123648 
0.468589 0.123648 -9.06 
-9.4133 0.00301382 0.58 
0.00301382 -9.48773 0.0815762 
0.58 0.0815762 -9.19799 
-9.41936 0.0884259 0.563046 
0.0884259 -9.54638 0.0978886 
0.563046 0.0978886 -9.13328 
-9.45011 -0.0032032 0.499529 
-0.0032032 -9.51214 0.16015 
0.499529 0.16015 -9.13677 
-10.6245 -0.347138 -0.255744 
-0.347138 -11.1452 -0.306759 
-0.255744 -0.306759 -10.8292 
-10.0835 -0.145127 0.820218 
-0.145127 -10.191 -0.0895552 
0.820218 -0.0895552 -12.3245 
-12.1099 -0.722851 -0.813459 
-0.722851 -10.2642 -0.0992047 
-0.813459 -0.0992047 -10.2248 
-9.56451 0.0132813 -0.421848 
0.0132813 -10.8575 -0.823435 
-0.421848 -0.823435 -12.1769 
-7.69085 -1.70767 0.0846056 
-1.70767 -5.98513 -0.587613 
0.0846056 -0.587613 -2.65622 
-7.33428 -0.741267 -0.525954 
-0.741267 -7.24073 0.196106 
-0.525954 0.196106 -1.75717 
-7.38663 0.17629 0.0660836 
0.17629 -7.85968 -1.18437 
0.0660836 -1.18437 -1.08588 
-6.5449 1.1559 -1.76721 
1.1559 -7.08358 -0.817162 
-1.76721 -0.817162 -2.70371 
-1.9553 0.716585 1.47141 
0.716585 -1.61088 0.484618 
1.47141 0.484618 -8.30898 
-10.1477 0.993308 -1.83755 
0.993308 -10.8147 -2.38288 
-1.83755 -2.38288 9.0872 
-5.26846 0.352314 -1.47391 
0.352314 -5.81886 0.736203 
-1.47391 0.736203 -0.787823 
-3.37641 0.675134 -4.13416 
0.675134 -5.17234 5.03668 
-4.13416 5.03668 -3.3264 
-9.58336 1.04568e-05 0.011925 
1.04568e-05 -9.68227 -0.0221262 
0.011925 -0.0221262 -9.81697 
-9.66167 -0.00175723 -0.048685 
-0.00175723 -9.62972 -0.0317758 
-0.048685 -0.0317758 -9.79121 
-9.67416 -0.031163 0.041347 
-0.031163 -9.61976 -0.00332507 
0.041347 -0.00332507 -9.78867 
-9.67707 0.010442 0.0471292 
0.010442 -9.65763 0.00832116 
0.0471292 0.00832116 -9.74789 
-9.04844 0.750299 0.52664 
0.750299 -11.4442 0.38027 
0.52664 0.38027 -13.2219 
-7.20037 0.727713 1.06104 
0.727713 -11.2785 0.316586 
1.06104 0.316586 -15.2356 
-10.0452 0.776563 0.881987 
0.776563 -11.7109 0.0179502 
0.881987 0.0179502 -11.9585 
-9.25211 0.471315 0.684459 
0.471315 -11.7908 0.25744 
0.684459 0.25744 -12.6716 
-9.53964 0.456684 -0.561332 
0.456684 -10.151 -0.463902 
-0.561332 -0.463902 -10.6701 
-9.8562 0.239373 -0.38367 
0.239373 -10.0256 -0.453647 
-0.38367 -0.453647 -10.4789 
-9.80795 0.135972 -0.403922 
0.135972 -9.92996 -0.220057 
-0.403922 -0.220057 -10.6228 
-9.77946 0.229928 -0.400186 
0.229928 -10.0244 -0.370384 
-0.400186 -0.370384 -10.5569 
-9.58013 0.00732067 0.222952 
0.00732067 -9.5395 0.286729 
0.222952 0.286729 -9.58431 
-9.60322 0.0145416 0.18897 
0.0145416 -9.55492 0.304418 
0.18897 0.304418 -9.5458 
-9.55593 -0.000142465 0.198441 
-0.000142465 -9.53487 0.314549 
0.198441 0.314549 -9.61313 
-9.57753 0.00530812 0.205698 
0.00530812 -9.54469 0.297724 
0.205698 0.297724 -9.58171 
-10.8527 -2.09556 -0.0149846 
-2.09556 -8.89099 -1.12417 
-0.0149846 -1.12417 -18.842 
-11.4779 -1.11391 -0.660648 
-1.11391 -10.3385 1.0776 
-0.660648 1.0776 -16.7692 
-15.2869 -0.993893 0.42552 
-0.993893 -12.9958 -0.954091 
0.42552 -0.954091 -10.3029 
-13.0866 -1.90956 4.09728 
-1.90956 -11.2681 2.00167 
4.09728 2.00167 -14.2309 
-9.55616 0.00854329 0.329309 
0.00854329 -9.53448 0.167028 
0.329309 0.167028 -9.67505 
-9.54578 0.0201026 0.335664 
0.0201026 -9.5414 0.1345 
0.335664 0.1345 -9.67852 
-9.54538 -0.00173881 0.342636 
-0.00173881 -9.55201 0.153759 
0.342636 0.153759 -9.66831 
-9.58113 0.0163783 0.327926 
0.0163783 -9.56206 0.163914 
0.327926 0.163914 -9.6225 
-9.52162 0.213298 -0.260387 
0.213298 -9.66099 0.121473 
-0.260387 0.121473 -10.5341 
-10.0407 0.644813 -0.4113 
0.644813 -9.39763 -0.0387029 
-0.4113 -0.0387029 -10.2784 
-9.785 0.0326907 -0.249952 
0.0326907 -9.97163 -0.402727 
-0.249952 -0.402727 -9.96007 
-9.85661 0.475856 -0.306697 
0.475856 -9.50464 -0.0292784 
-0.306697 -0.0292784 -10.3555 
-9.52973 1.21151 0.017068 
1.21151 -12.317 0.251264 
0.017068 0.251264 -15.9888 
-7.86772 2.32979 -0.0695963 
2.32979 -12.264 0.807834 
-0.0695963 0.807834 -17.7038 
-5.95217 1.12353 0.25527 
1.12353 -12.3843 -0.114728 
0.25527 -0.114728 -19.4991 
-10.1488 0.63283 -0.551392 
0.63283 -12.8776 0.708956 
-0.551392 0.708956 -14.8091 
-13.3679 0.437754 0.345089 
0.437754 -14.472 0.175686 
0.345089 0.175686 -10.3347 
-12.2928 0.459464 -0.696941 
0.459464 -11.919 -0.487265 
-0.696941 -0.487265 -13.9627 
-11.7887 0.187532 -0.809786 
0.187532 -11.7813 0.658591 
-0.809786 0.658591 -14.6045 
-12.0639 0.390649 0.320286 
0.390649 -12.4146 -0.714271 
0.320286 -0.714271 -13.6961 
-8.52419 0.620498 -0.821383 
0.620498 -7.87246 -0.660657 
-0.821383 -0.660657 -5.51623 
-8.18523 0.537358 0.0579393 
0.537358 -8.08727 -1.26937 
0.0579393 -1.26937 -5.64038 
-9.00193 0.279433 -0.641765 
0.279433 -8.71755 -0.386027 
-0.641765 -0.386027 -4.19339 
-8.81192 0.568794 -0.600075 
0.568794 -8.53897 -0.376899 
-0.600075 -0.376899 -4.56199 
-9.83133 0.00339053 -0.00192928 
0.00339053 -9.86063 0.3433 
-0.00192928 0.3433 -9.81648 
-9.81117 0.0127711 0.049251 
0.0127711 -9.87422 0.322347 
0.049251 0.322347 -9.82304 
-9.83247 0.0291586 0.0730423 
0.0291586 -9.81515 0.337771 
0.0730423 0.337771 -9.86082 
-9.83984 0.00372304 0.00639549 
0.00372304 -9.83967 0.332069 
0.00639549 0.332069 -9.82894 
-6.81626 -1.32857 -0.956608 
-1.32857 -11.5891 -0.124425 
-0.956608 -0.124425 -15.3465 
-7.7729 -1.46164 -0.557293 
-1.46164 -10.5447 0.734164 
-0.557293 0.734164 -15.4343 
-10.8598 -1.33024 -1.14527 
-1.33024 -12.7984 0.400754 
-1.14527 0.400754 -10.0938 
-9.30484 -0.808648 0.478446 
-0.808648 -11.3844 -0.256198 
0.478446 -0.256198 -13.0627 
-0.798472 -0.341053 -3.22342 
-0.341053 -0.432532 -0.560445 
-3.22342 -0.560445 -15.7878 
-12.2913 -1.87485 4.48007 
-1.87485 -11.236 0.790391 
4.48007 0.790391 6.50858 
-14.5003 -0.253065 3.27613 
-0.253065 -9.70794 4.00952 
3.27613 4.00952 7.18948 
1.54894 5.31067 12.9872 
5.31067 -8.34999 6.28973 
12.9872 6.28973 -10.2177 
-9.31841 0.0581275 -0.427447 
0.0581275 -9.3998 0.190418 
-0.427447 0.190418 -8.98664 
-9.28356 0.129302 -0.24158 
0.129302 -9.41466 0.22344 
-0.24158 0.22344 -9.00662 
-9.44185 0.138979 -0.411707 
0.138979 -9.28669 0.237614 
-0.411707 0.237614 -8.9763 
-9.16105 -0.103933 -0.557598 
-0.103933 -9.39218 0.205809 
-0.557598 0.205809 -9.15162 
-9.64012 -0.0337424 0.126218 
-0.0337424 -9.22411 -0.207164 
0.126218 -0.207164 -9.84948 
-9.61123 0.024747 0.0548149 
0.024747 -9.32319 -0.430995 
0.0548149 -0.430995 -9.77929 
-9.72414 -0.0575234 0.149901 
-0.0575234 -9.15432 -0.496001 
0.149901 -0.496001 -9.83525 
-9.44741 0.154485 0.167932 
0.154485 -9.64861 -0.476925 
0.167932 -0.476925 -9.6177 
-9.97626 0.00149223 -0.065394 
0.00149223 -9.96817 0.0730675 
-0.065394 0.0730675 -9.97278 
-9.96656 0.0102294 -0.0743573 
0.0102294 -9.95027 0.0774552 
-0.0743573 0.0774552 -10.0004 
-9.9653 0.00233027 -0.0569415 
0.00233027 -9.9603 0.070128 
-0.0569415 0.070128 -9.99161 
-9.97734 0.000595699 -0.0645122 
0.000595699 -9.97704 0.0700685 
-0.0645122 0.0700685 -9.96283 
-9.89313 -0.270541 0.35798 
-0.270541 -9.44264 0.0210785 
0.35798 0.0210785 -9.75446 
-9.43419 0.0863494 -0.0594839 
0.0863494 -9.63066 -0.159635 
-0.0594839 -0.159635 -10.0254 
-9.69716 0.00704422 0.0625923 
0.00704422 -9.58636 -0.562003 
0.0625923 -0.562003 -9.80672 
-9.97583 0.299807 0.46574 
0.299807 -9.65316 -0.252842 
0.46574 -0.252842 -9.46124 
-9.80902 -0.0143198 0.149522 
-0.0143198 -9.78139 0.0676117 
0.149522 0.0676117 -9.75117 
-9.80343 -0.0228922 0.136497 
-0.0228922 -9.74953 0.0812968 
0.136497 0.0812968 -9.78862 
-9.80383 -0.0274124 0.136882 
-0.0274124 -9.78032 0.0810357 
0.136882 0.0810357 -9.75744 
-9.81535 -0.0270582 0.117164 
-0.0270582 -9.78465 0.0865139 
0.117164 0.0865139 -9.74159 
-9.33635 0.0185269 0.333639 
0.0185269 -9.52261 0.0475826 
0.333639 0.0475826 -9.4196 
-9.53438 0.000406558 0.416452 
0.000406558 -9.38732 0.0216595 
0.416452 0.0216595 -9.35686 
-9.38725 0.0579926 0.346792 
0.0579926 -9.44293 0.0602526 
0.346792 0.0602526 -9.44838 
-9.33848 0.0520865 0.366113 
0.0520865 -9.47592 0.0450413 
0.366113 0.0450413 -9.46415 
-9.40102 -0.0156991 -0.0255166 
-0.0156991 -9.52608 -0.0180685 
-0.0255166 -0.0180685 -9.76381 
-9.43077 0.0237115 -0.0122909 
0.0237115 -9.49065 -0.00486724 
-0.0122909 -0.00486724 -9.76949 
-9.45485 -0.00405868 -0.0123695 
-0.00405868 -9.50809 -0.0117296 
-0.0123695 -0.0117296 -9.72797 
-9.53439 -0.0422247 0.0133005 
-0.0422247 -9.40726 -0.0678373 
0.0133005 -0.0678373 -9.74926 
-9.49402 -0.0739554 0.316171 
-0.0739554 -9.55574 0.160468 
0.316171 0.160468 -9.57317 
-9.56636 -0.0535106 0.254666 
-0.0535106 -9.54835 0.171085 
0.254666 0.171085 -9.50821 
-9.41297 0.109724 0.27018 
0.109724 -9.52319 0.136292 
0.27018 0.136292 -9.68676 
-9.5257 0.000560707 0.375069 
0.000560707 -9.4559 0.189332 
0.375069 0.189332 -9.64133 
-9.52374 0.119539 0.0517697 
0.119539 -9.03495 -0.223202 
0.0517697 -0.223202 -9.53129 
-9.26686 0.0178004 0.0343357 
0.0178004 -9.17225 -0.624379 
0.0343357 -0.624379 -9.65087 
-9.33535 0.150062 -0.443577 
0.150062 -9.35245 -0.216117 
-0.443577 -0.216117 -9.40218 
-9.61146 0.0842954 -0.324484 
0.0842954 -8.9113 -0.592014 
-0.324484 -0.592014 -9.56722 
-9.21172 -0.0413625 0.719799 
-0.0413625 -7.04336 -3.69394 
0.719799 -3.69394 -5.969 
-8.96779 -1.40904 0.104956 
-1.40904 -5.12248 -3.74699 
0.104956 -3.74699 -8.13381 
-8.98321 -0.0636901 1.85374 
-0.0636901 -8.10836 -5.80871 
1.85374 -5.80871 -5.13251 
-7.59882 2.01844 -0.623603 
2.01844 -9.18548 0.0283295 
-0.623603 0.0283295 -5.43978 
-9.53076 0.3037 -0.193595 
0.3037 -9.37828 -0.233844 
-0.193595 -0.233844 -9.80241 
-9.62644 0.315751 -0.305453 
0.315751 -9.45958 -0.275204 
-0.305453 -0.275204 -9.62544 
-9.53161 -0.240217 0.123906 
-0.240217 -9.69111 -0.19804 
0.123906 -0.19804 -9.48874 
-9.27988 0.156886 -0.289981 
0.156886 -9.6853 -0.177502 
-0.289981 -0.177502 -9.74628 
-9.67196 0.0308623 -1.20879 
0.0308623 -9.80062 1.06966 
-1.20879 1.06966 -8.27874 
-10.2077 0.348184 -0.887112 
0.348184 -10.5857 0.553293 
-0.887112 0.553293 -6.95785 
-9.66375 0.00607928 -1.24875 
0.00607928 -10.1335 0.510546 
-1.24875 0.510546 -7.95402 
-10.1673 -0.0394194 0.293266 
-0.0394194 -8.91288 -0.526205 
0.293266 -0.526205 -8.67119 
-9.65251 0.00579539 -0.0078445 
0.00579539 -9.65657 -0.00705594 
-0.0078445 -0.00705594 -9.86779 
-9.65258 -0.00595316 -0.00177227 
-0.00595316 -9.66346 -0.00322624 
-0.00177227 -0.00322624 -9.86083 
-9.66401 0.000245773 -0.0258212 
0.000245773 -9.64111 -0.0131433 
-0.0258212 -0.0131433 -9.87176 
-9.64278 0.0186841 -0.00488664 
0.0186841 -9.66398 0.00658904 
-0.00488664 0.00658904 -9.87011 
-9.56949 -0.0803641 0.0246906 
-0.0803641 -9.4759 -0.0162021 
0.0246906 -0.0162021 -9.40616 
-9.7154 -0.22251 0.212031 
-0.22251 -9.37524 0.0620098 
0.212031 0.0620098 -9.36092 
-9.62198 0.0294282 0.0200312 
0.0294282 -9.34796 0.0862425 
0.0200312 0.0862425 -9.48161 
-9.69127 -0.010713 0.194554 
-0.010713 -9.46587 -0.0105705 
0.194554 -0.0105705 -9.29441 
-9.64221 0.0331708 -0.12126 
0.0331708 -9.71092 -0.232956 
-0.12126 -0.232956 -8.87554 
-9.54847 -0.0759761 -0.206678 
-0.0759761 -9.52635 -0.403595 
-0.206678 -0.403595 -9.15386 
-9.43447 -0.244856 -0.137165 
-0.244856 -9.75856 -0.227562 
-0.137165 -0.227562 -9.03565 
-9.40165 0.470173 0.230518 
0.470173 -9.42238 -0.117458 
0.230518 -0.117458 -9.40464 
-9.40125 -0.0245906 0.0296182 
-0.0245906 -9.62625 0.0364647 
0.0296182 0.0364647 -10.1439 
-9.52893 -0.0381105 0.0853689 
-0.0381105 -9.6603 0.0151962 
0.0853689 0.0151962 -9.98212 
-9.57467 0.0177813 0.0489002 
0.0177813 -9.54002 -0.0198441 
0.0489002 -0.0198441 -10.0567 
-9.6126 -0.0940328 -0.0893036 
-0.0940328 -9.48631 0.0505653 
-0.0893036 0.0505653 -10.0724 
-9.92114 -0.0197983 -0.131573 
-0.0197983 -9.91274 -0.183025 
-0.131573 -0.183025 -9.92041 
-9.92694 -0.0319961 -0.113792 
-0.0319961 -9.93847 -0.174359 
-0.113792 -0.174359 -9.88888 
-9.92249 -0.0197721 -0.164007 
-0.0197721 -9.89984 -0.188937 
-0.164007 -0.188937 -9.93197 
-9.92228 -0.00397326 -0.155458 
-0.00397326 -9.92782 -0.180525 
-0.155458 -0.180525 -9.90419 
-14.432 -0.803561 1.2687 
-0.803561 -11.6437 1.53008 
1.2687 1.53008 -7.38719 
-9.19112 0.123813 -1.77991 
0.123813 -9.3678 -0.556531 
-1.77991 -0.556531 -14.904 
-11.2705 0.0341686 -0.045581 
0.0341686 -10.0359 0.525406 
-0.045581 0.525406 -12.1565 
-9.09714 2.5237 1.94042 
2.5237 -9.20423 1.69769 
1.94042 1.69769 -15.1615 
-9.78975 0.0247602 0.0927019 
0.0247602 -9.81374 -0.359823 
0.0927019 -0.359823 -9.75044 
-9.77755 -0.0409093 0.109643 
-0.0409093 -9.72253 -0.321944 
0.109643 -0.321944 -9.85386 
-9.79151 -0.00377719 0.0940314 
-0.00377719 -9.77359 -0.327743 
0.0940314 -0.327743 -9.78884 
-9.78054 0.0109561 0.0656645 
0.0109561 -9.80067 -0.329196 
0.0656645 -0.329196 -9.77274 
-9.45952 0.0176956 -0.273298 
0.0176956 -9.50322 -0.276125 
-0.273298 -0.276125 -9.46049 
-9.4717 0.0718561 -0.236648 
0.0718561 -9.41289 -0.266959 
-0.236648 -0.266959 -9.53863 
-9.43463 -0.0987826 -0.256013 
-0.0987826 -9.50998 -0.244095 
-0.256013 -0.244095 -9.47862 
-9.41928 0.0526836 -0.245886 
0.0526836 -9.52001 -0.278033 
-0.245886 -0.278033 -9.48393 
-8.89808 0.266087 -0.385116 
0.266087 -7.77346 -0.664409 
-0.385116 -0.664409 4.10431 
-11.2008 -2.78274 0.645834 
-2.78274 -4.70172 -2.10016 
0.645834 -2.10016 3.33525 
-0.568156 -0.297378 -1.41399 
-0.297378 -4.48227 0.151011 
-1.41399 0.151011 -7.5168 
-7.90178 2.30438 -5.97725 
2.30438 -4.52162 -3.07207 
-5.97725 -3.07207 -0.143825 
-9.94992 0.00996799 0.124213 
0.00996799 -9.91068 -0.0608573 
0.124213 -0.0608573 -9.928 
-9.8821 -0.0138204 0.123754 
-0.0138204 -9.94264 -0.0670721 
0.123754 -0.0670721 -9.96385 
-9.93538 0.00405592 0.128311 
0.00405592 -9.93063 -0.0684294 
0.128311 -0.0684294 -9.92258 
-9.93571 0.00660047 0.135012 
0.00660047 -9.93143 -0.0554674 
0.135012 -0.0554674 -9.92146 
-4.6861 -0.238047 -0.599242 
-0.238047 -4.65993 -1.18787 
-0.599242 -1.18787 -1.62318 
-4.92883 0.167998 -1.04578 
0.167998 -4.94303 -1.14918 
-1.04578 -1.14918 -1.09735 
-4.97882 -0.159673 -1.03703 
-0.159673 -6.03078 -0.439705 
-1.03703 -0.439705 0.040396 
-3.82097 -0.375222 0.0143724 
-0.375222 -4.90444 -1.18379 
0.0143724 -1.18379 -2.24379 
-9.61416 -0.0274226 0.205158 
-0.0274226 -9.56044 -0.307376 
0.205158 -0.307376 -9.47758 
-9.5354 -0.0310826 0.223802 
-0.0310826 -9.5643 -0.262553 
0.223802 -0.262553 -9.55248 
-9.57241 -0.0250093 0.248853 
-0.0250093 -9.47703 -0.280127 
0.248853 -0.280127 -9.60274 
-9.5404 -0.0577902 0.214375 
-0.0577902 -9.58581 -0.30156 
0.214375 -0.30156 -9.52598 
-10.8804 1.01851 1.31129 
1.01851 -8.45278 1.0206 
1.31129 1.0206 -9.09443 
-9.16987 0.814726 0.706523 
0.814726 -8.51645 1.16315 
0.706523 1.16315 -10.7413 
-8.41482 0.783791 2.0455 
0.783791 -9.61474 1.52009 
2.0455 1.52009 -10.3981 
-10.3827 0.807486 1.23423 
0.807486 -9.19689 -0.128829 
1.23423 -0.128829 -8.8481 
-9.51652 0.00483971 -0.347205 
0.00483971 -9.60948 -0.0349515 
-0.347205 -0.0349515 -9.56606 
-9.52481 0.0265203 -0.391006 
0.0265203 -9.59744 -0.0855526 
-0.391006 -0.0855526 -9.56982 
-9.53807 -0.00123188 -0.335013 
-0.00123188 -9.57235 -0.0553691 
-0.335013 -0.0553691 -9.58164 
-9.54943 -0.0147187 -0.399782 
-0.0147187 -9.58821 -0.0168999 
-0.399782 -0.0168999 -9.55442 
-9.91286 -0.01019 -0.175595 
-0.01019 -9.93115 0.0749703 
-0.175595 0.0749703 -9.94957 
-9.94119 0.0137251 -0.169326 
0.0137251 -9.92384 0.0665655 
-0.169326 0.0665655 -9.92855 
-9.94261 0.0117504 -0.169392 
0.0117504 -9.92708 0.0706208 
-0.169392 0.0706208 -9.92389 
-9.93768 -0.00472603 -0.175052 
-0.00472603 -9.94511 0.0570624 
-0.175052 0.0570624 -9.91079 
-9.50584 -0.100734 0.0423109 
-0.100734 -9.30245 0.313862 
0.0423109 0.313862 -9.86383 
-9.53741 -0.168568 -0.240394 
-0.168568 -9.37911 0.308133 
-0.240394 0.308133 -9.7556 
-9.61817 -0.0322236 -0.340382 
-0.0322236 -9.55674 0.121059 
-0.340382 0.121059 -9.49721 
-9.45229 -0.0132593 -0.101916 
-0.0132593 -9.37023 0.450064 
-0.101916 0.450064 -9.8496 
-9.58996 0.076024 0.0628791 
0.076024 -9.75779 -0.05522 
0.0628791 -0.05522 -9.64471 
-9.53945 -0.160546 -0.119968 
-0.160546 -9.96177 0.220282 
-0.119968 0.220282 -9.49123 
-9.56515 -0.200243 0.0631525 
-0.200243 -9.59996 0.240535 
0.0631525 0.240535 -9.82735 
-9.55451 -0.162191 -0.0231095 
-0.162191 -9.75656 0.137806 
-0.0231095 0.137806 -9.68138 
-9.94434 0.0115499 0.225991 
0.0115499 -9.92793 0.2486 
0.225991 0.2486 -9.93262 
-9.92575 0.00324099 0.221052 
0.00324099 -9.92873 0.222322 
0.221052 0.222322 -9.95041 
-9.94225 0.00268537 0.211081 
0.00268537 -9.91464 0.227842 
0.211081 0.227842 -9.948 
-9.92574 -0.0322822 0.234962 
-0.0322822 -9.98188 0.24327 
0.234962 0.24327 -9.89727 
-9.78045 -0.00125032 -0.133052 
-0.00125032 -9.77236 -0.093721 
-0.133052 -0.093721 -9.73021 
-9.79123 -0.00445785 -0.130846 
-0.00445785 -9.75263 -0.0875662 
-0.130846 -0.0875662 -9.73915 
-9.79562 -0.0470297 -0.137461 
-0.0470297 -9.78399 -0.103022 
-0.137461 -0.103022 -9.7034 
-9.77379 -0.0356664 -0.136686 
-0.0356664 -9.7535 -0.0878981 
-0.136686 -0.0878981 -9.75573 
-12.1008 -0.115216 0.879525 
-0.115216 -10.4466 -0.556304 
0.879525 -0.556304 -12.4165 
-10.2523 -1.00866 -1.09653 
-1.00866 -12.7087 1.03942 
-1.09653 1.03942 -12.003 
-7.29772 -0.366559 1.8996 
-0.366559 -13.0903 -2.73802 
1.8996 -2.73802 -14.5759 
-11.2084 0.251919 -0.022673 
0.251919 -10.5389 0.692762 
-0.022673 0.692762 -13.2166 
-9.68271 0.156422 -0.35996 
0.156422 -9.19832 0.000861737 
-0.35996 0.000861737 -7.27881 
-9.55244 0.171904 -0.355761 
0.171904 -9.07528 -0.457251 
-0.355761 -0.457251 -7.53211 
-8.96514 -0.662812 0.710752 
-0.662812 -9.13792 0.106642 
0.710752 0.106642 -8.05677 
-9.83782 -0.199757 0.406769 
-0.199757 -9.57924 -0.0705778 
0.406769 -0.0705778 -6.74277 
-9.46287 0.0114005 0.421828 
0.0114005 -9.56167 0.0257315 
0.421828 0.0257315 -9.66002 
-9.6317 0.0547414 0.316244 
0.0547414 -9.58554 -0.00655416 
0.316244 -0.00655416 -9.46732 
-9.63063 0.0180836 0.312875 
0.0180836 -9.51435 0.0340245 
0.312875 0.0340245 -9.53958 
-9.49989 0.0515336 0.353959 
0.0515336 -9.56701 0.0720171 
0.353959 0.0720171 -9.61766 
-9.52891 0.0443578 -0.247551 
0.0443578 -9.54946 0.256964 
-0.247551 0.256964 -9.39726 
-9.448 -0.056278 -0.277173 
-0.056278 -9.49205 0.279112 
-0.277173 0.279112 -9.53557 
-9.49599 -0.106178 -0.21874 
-0.106178 -9.44015 0.298544 
-0.21874 0.298544 -9.53948 
-9.41779 -0.0608786 -0.196569 
-0.0608786 -9.58 0.224478 
-0.196569 0.224478 -9.47782 
-12.1264 -0.827571 -0.124815 
-0.827571 -11.7014 -0.305338 
-0.124815 -0.305338 -9.34511 
-10.3969 -0.0461976 0.489472 
-0.0461976 -9.64259 0.226203 
0.489472 0.226203 -13.1333 
-11.1713 0.227164 0.0123953 
0.227164 -9.99812 -0.506483 
0.0123953 -0.506483 -12.0035 
-10.8419 0.072387 -1.20337 
0.072387 -10.198 -0.490336 
-1.20337 -0.490336 -12.133 
-9.87168 -0.0483805 -0.269576 
-0.0483805 -9.88776 -0.243754 
-0.269576 -0.243754 -9.77942 
-9.87267 0.0156135 -0.234533 
0.0156135 -9.83665 -0.237169 
-0.234533 -0.237169 -9.82954 
-9.82148 0.0237907 -0.266874 
0.0237907 -9.8066 -0.244892 
-0.266874 -0.244892 -9.91078 
-9.87163 -0.00166915 -0.213752 
-0.00166915 -9.84481 -0.197617 
-0.213752 -0.197617 -9.82243 
-9.37907 -0.211532 0.281545 
-0.211532 -9.4931 -0.122737 
0.281545 -0.122737 -9.65599 
-9.17051 -0.0822535 0.355716 
-0.0822535 -9.4375 -0.360398 
0.355716 -0.360398 -9.92014 
-9.32397 -0.13262 0.278995 
-0.13262 -9.5603 -0.191129 
0.278995 -0.191129 -9.64388 
-9.4847 -0.0391471 0.510198 
-0.0391471 -9.82168 -0.174961 
0.510198 -0.174961 -9.22177 
-9.88405 0.00795415 0.137689 
0.00795415 -9.86877 0.335564 
0.137689 0.335564 -9.89764 
-9.88646 -0.00775511 0.128757 
-0.00775511 -9.89634 0.323457 
0.128757 0.323457 -9.86765 
-9.88237 -0.00828356 0.142306 
-0.00828356 -9.9254 0.316655 
0.142306 0.316655 -9.84269 
-9.87745 0.00213985 0.141103 
0.00213985 -9.8737 0.316105 
0.141103 0.316105 -9.89931 
-11.4588 -0.357995 -0.0828167 
-0.357995 -10.8023 -0.00541408 
-0.0828167 -0.00541408 -14.1044 
-10.4236 -0.841036 0.145923 
-0.841036 -13.2952 0.631147 
0.145923 0.631147 -12.6466 
-10.8594 0.280375 0.170851 
0.280375 -11.758 0.313915 
0.170851 0.313915 -13.7481 
-11.1865 0.174676 -0.0297074 
0.174676 -11.8581 0.94841 
-0.0297074 0.94841 -13.3209 
-7.97403 -3.38435 -5.60152 
-3.38435 -9.75398 2.38814 
-5.60152 2.38814 -7.14318 
-8.49257 2.24523 -1.05218 
2.24523 -9.52115 0.927958 
-1.05218 0.927958 -6.85747 
-7.89766 1.15448 -4.48476 
1.15448 -7.28395 1.71774 
-4.48476 1.71774 -9.68958 
-8.06599 -1.71686 -1.64441 
-1.71686 -7.73359 1.36188 
-1.64441 1.36188 -9.0716 
-4.19686 -0.39829 1.05238 
-0.39829 -5.77682 -0.446178 
1.05238 -0.446178 -2.23239 
-5.30113 0.0881283 1.27254 
0.0881283 -5.4026 -1.18998 
1.27254 -1.18998 -1.50234 
-6.91258 0.701845 0.874224 
0.701845 -7.09241 -0.321141 
0.874224 -0.321141 1.79892 
-4.19643 0.741822 2.06868 
0.741822 -4.58234 -0.956874 
2.06868 -0.956874 -3.4273 
-9.93425 0.0533116 0.256469 
0.0533116 -9.53811 -0.27005 
0.256469 -0.27005 -9.8393 
-9.65366 0.0657577 -0.00101562 
0.0657577 -9.3923 -0.0637962 
-0.00101562 -0.0637962 -10.2657 
-9.64291 0.107425 -0.0868312 
0.107425 -9.52055 0.0965417 
-0.0868312 0.0965417 -10.1482 
-9.80969 -0.0159561 -0.00261346 
-0.0159561 -9.20744 -0.0980309 
-0.00261346 -0.0980309 -10.2945 
-9.43554 0.0206393 -0.0754224 
0.0206393 -9.50095 -0.353165 
-0.0754224 -0.353165 -9.49574 
-9.50484 0.0348165 -0.0601055 
0.0348165 -9.43088 -0.352198 
-0.0601055 -0.352198 -9.49653 
-9.51113 0.018608 -0.0558534 
0.018608 -9.41647 -0.357369 
-0.0558534 -0.357369 -9.50464 
-9.50182 0.0504268 -0.061024 
0.0504268 -9.4489 -0.370931 
-0.061024 -0.370931 -9.48151 
-9.96894 0.00711843 0.0975617 
0.00711843 -9.96716 0.124299 
0.0975617 0.124299 -9.96801 
-9.9342 -0.00109666 0.105389 
-0.00109666 -9.93552 0.131974 
0.105389 0.131974 -10.0344 
-9.95361 0.0139642 0.0974153 
0.0139642 -9.98283 0.127722 
0.0974153 0.127722 -9.96767 
-9.97326 -0.00143101 0.100648 
-0.00143101 -9.98026 0.114373 
0.100648 0.114373 -9.9506 
-9.65335 0.0229395 -0.179532 
0.0229395 -9.71246 0.301101 
-0.179532 0.301101 -9.56117 
-9.65367 -0.0120657 -0.206175 
-0.0120657 -9.62966 0.309581 
-0.206175 0.309581 -9.64366 
-9.63668 -0.00149573 -0.206475 
-0.00149573 -9.61137 0.324548 
-0.206475 0.324548 -9.67894 
-9.66065 -0.00303465 -0.211868 
-0.00303465 -9.62022 0.288318 
-0.211868 0.288318 -9.64611 
-9.76187 0.0341515 -0.0707532 
0.0341515 -9.77443 0.0673722 
-0.0707532 0.0673722 -9.65 
-9.77226 0.0569585 -0.0364603 
0.0569585 -9.74672 -0.00153956 
-0.0364603 -0.00153956 -9.66733 
-9.68634 -0.0115357 -0.0511795 
-0.0115357 -9.69566 0.100682 
-0.0511795 0.100682 -9.8043 
-9.68081 0.00973028 -0.0800117 
0.00973028 -9.76599 0.0411329 
-0.0800117 0.0411329 -9.73949 
-9.7281 -0.0196274 -0.247113 
-0.0196274 -9.68481 -0.074113 
-0.247113 -0.074113 -9.71296 
-9.73445 -0.014692 -0.240863 
-0.014692 -9.70818 -0.0908869 
-0.240863 -0.0908869 -9.68324 
-9.72074 -0.018532 -0.249281 
-0.018532 -9.69469 -0.0866663 
-0.249281 -0.0866663 -9.71045 
-9.72291 -0.015933 -0.256096 
-0.015933 -9.70096 -0.0893424 
-0.256096 -0.0893424 -9.70201 
-9.3442 -1.6561 0.0463292 
-1.6561 -6.74656 -1.94177 
0.0463292 -1.94177 -0.18568 
-6.90078 -3.27905 -0.815831 
-3.27905 -6.55645 4.21055 
-0.815831 4.21055 -2.8192 
-8.22158 0.225864 -0.160213 
0.225864 -7.02849 1.67119 
-0.160213 1.67119 -1.02636 
-7.3984 1.76746 -0.3497 
1.76746 -7.22187 0.183116 
-0.3497 0.183116 -1.65617 
-9.29844 -0.131583 0.537671 
-0.131583 -9.27297 -0.139062 
0.537671 -0.139062 -10.0905 
-9.22719 -0.203422 0.452142 
-0.203422 -9.42708 -0.251497 
0.452142 -0.251497 -10.0077 
-9.49293 -0.300144 0.444951 
-0.300144 -9.27476 -0.289368 
0.444951 -0.289368 -9.89426 
-9.23409 -0.173604 0.403014 
-0.173604 -9.50492 -0.171892 
0.403014 -0.171892 -9.92294 
-9.38938 0.164691 -0.462433 
0.164691 -9.62775 -0.114652 
-0.462433 -0.114652 -9.33382 
-9.44728 -0.0873777 -0.40411 
-0.0873777 -9.36803 -0.237269 
-0.40411 -0.237269 -9.53564 
-9.58581 -0.255555 -0.64989 
-0.255555 -9.4229 0.0461481 
-0.64989 0.0461481 -9.34225 
-9.41721 -0.0277586 -0.35972 
-0.0277586 -9.57157 0.003174 
-0.35972 0.003174 -9.36218 
-9.5257 -0.701667 0.809266 
-0.701667 -8.80788 -2.16613 
0.809266 -2.16613 -8.581 
-9.25406 -0.827184 0.620329 
-0.827184 -9.02108 -1.74134 
0.620329 -1.74134 -8.63944 
-8.8191 -1.13988 0.933161 
-1.13988 -8.76721 -1.34022 
0.933161 -1.34022 -9.32827 
-9.09796 -0.75316 0.407048 
-0.75316 -9.70167 -1.65351 
0.407048 -1.65351 -8.11495 
-9.79892 -0.00723087 -0.0775341 
-0.00723087 -9.75394 -0.0343197 
-0.0775341 -0.0343197 -9.81426 
-9.78042 -0.00591799 -0.0723594 
-0.00591799 -9.76916 -0.0410483 
-0.0723594 -0.0410483 -9.81755 
-9.77801 -0.0145727 -0.0807593 
-0.0145727 -9.76675 -0.0391425 
-0.0807593 -0.0391425 -9.82237 
-9.7718 -0.0362183 -0.0778098 
-0.0362183 -9.79442 -0.0194127 
-0.0778098 -0.0194127 -9.80091 
-9.49996 0.0539149 -0.112596 
0.0539149 -9.30053 -0.355657 
-0.112596 -0.355657 -9.54874 
-9.4708 0.115413 -0.014283 
0.115413 -9.25454 -0.457045 
-0.014283 -0.457045 -9.62389 
-9.30675 0.0139227 -0.214182 
0.0139227 -9.4897 -0.398266 
-0.214182 -0.398266 -9.55277 
-9.63064 0.0752352 -0.111488 
0.0752352 -9.21807 -0.425319 
-0.111488 -0.425319 -9.50051 
-9.87982 0.00246097 -0.300622 
0.00246097 -9.87368 0.052511 
-0.300622 0.052511 -9.92085 
-9.89006 0.00690228 -0.33264 
0.00690228 -9.89676 0.0246309 
-0.33264 0.0246309 -9.88753 
-9.89816 0.00401552 -0.330809 
0.00401552 -9.88745 0.0323692 
-0.330809 0.0323692 -9.88873 
-9.93114 0.00344638 -0.328243 
0.00344638 -9.91407 -0.00804089 
-0.328243 -0.00804089 -9.82914 
-9.98907 -0.00215831 -0.311901 
-0.00215831 -9.98085 -0.126365 
-0.311901 -0.126365 -9.96184 
-9.98497 -0.0067649 -0.310515 
-0.0067649 -9.97595 -0.119544 
-0.310515 -0.119544 -9.97085 
-9.95975 -0.00935166 -0.317245 
-0.00935166 -9.96602 -0.106099 
-0.317245 -0.106099 -10.006 
-9.9761 -0.00589827 -0.317276 
-0.00589827 -9.97337 -0.123316 
-0.317276 -0.123316 -9.9823 
-9.41901 -0.00256893 0.0705204 
-0.00256893 -9.3955 -0.26626 
0.0705204 -0.26626 -9.7334 
-9.44302 -0.0493028 0.0731857 
-0.0493028 -9.32862 -0.334006 
0.0731857 -0.334006 -9.77626 
-9.61715 -0.117066 0.177458 
-0.117066 -9.26483 -0.0708324 
0.177458 -0.0708324 -9.66592 
-9.50565 0.0452515 0.374183 
0.0452515 -9.48512 -0.373076 
0.374183 -0.373076 -9.55713 
-9.94535 -0.143706 -0.344074 
-0.143706 -10.6717 -0.268093 
-0.344074 -0.268093 -11.0933 
-10.9678 0.331384 0.574721 
0.331384 -9.59549 1.1468 
0.574721 1.1468 -11.1471 
-12.1358 0.599538 -0.902845 
0.599538 -6.2193 -0.163843 
-0.902845 -0.163843 -13.3553 
-10.1093 -0.622258 0.597375 
-0.622258 -9.76764 1.11649 
0.597375 1.11649 -11.8335 
-9.48056 0.0578156 0.225375 
0.0578156 -9.4572 0.288517 
0.225375 0.288517 -9.5406 
-9.53886 -0.0285239 0.231911 
-0.0285239 -9.4926 0.266906 
0.231911 0.266906 -9.4469 
-9.48346 0.0330686 0.240214 
0.0330686 -9.46773 0.292208 
0.240214 0.292208 -9.52717 
-9.49558 0.0345611 0.258413 
0.0345611 -9.45821 0.322997 
0.258413 0.322997 -9.52457 
-9.62968 -0.0297508 0.324527 
-0.0297508 -9.61229 0.132655 
0.324527 0.132655 -9.61877 
-9.60699 0.0245706 0.313916 
0.0245706 -9.60801 0.141409 
0.313916 0.141409 -9.64574 
-9.60305 0.0344208 0.303411 
0.0344208 -9.61757 0.123385 
0.303411 0.123385 -9.64013 
-9.6407 0.000597555 0.324988 
0.000597555 -9.57206 0.133232 
0.324988 0.133232 -9.64798 
-9.41183 0.0396323 0.541188 
0.0396323 -9.40097 1.11234 
0.541188 1.11234 -8.68031 
-9.31738 0.238454 0.464541 
0.238454 -9.46415 0.498177 
0.464541 0.498177 -8.71156 
-9.22294 0.175225 0.360281 
0.175225 -8.69847 1.78547 
0.360281 1.78547 -9.57168 
-9.50887 0.134579 0.568994 
0.134579 -9.7428 1.06015 
0.568994 1.06015 -8.24142 
-7.60143 1.47607 3.1029 
1.47607 -8.26132 0.301028 
3.1029 0.301028 7.81056 
-4.67889 0.383601 1.55154 
0.383601 -5.92252 -2.09416 
1.55154 -2.09416 2.54922 
1.29699 0.684623 -2.52649 
0.684623 1.43191 1.88632 
-2.52649 1.88632 -10.7811 
-7.68389 0.572595 -4.72184 
0.572595 -4.47893 -5.07249 
-4.72184 -5.07249 4.11063 
-9.93573 0.00764781 -0.0299563 
0.00764781 -9.94935 0.251519 
-0.0299563 0.251519 -10.0417 
-9.96896 -0.00370485 -0.0364191 
-0.00370485 -9.9859 0.260941 
-0.0364191 0.260941 -9.97191 
-9.96504 0.00242119 -0.0397726 
0.00242119 -9.99656 0.256078 
-0.0397726 0.256078 -9.96517 
-9.98546 0.00307433 -0.0430954 
0.00307433 -9.99215 0.276771 
-0.0430954 0.276771 -9.94916 
-8.43168 0.168524 0.0126475 
0.168524 -9.77499 0.478574 
0.0126475 0.478574 -9.70846 
-8.39113 -0.32569 0.048581 
-0.32569 -10.2323 -0.0897506 
0.048581 -0.0897506 -9.29165 
-8.92432 -0.464905 0.0671371 
-0.464905 -8.93112 0.60085 
0.0671371 0.60085 -10.0597 
-8.38032 0.283277 -0.191259 
0.283277 -9.8981 0.716152 
-0.191259 0.716152 -9.63671 
-9.91722 0.0121647 0.284612 
0.0121647 -9.94557 0.188173 
0.284612 0.188173 -9.92828 
-9.92577 -0.00714224 0.288902 
-0.00714224 -9.92644 0.203838 
0.288902 0.203838 -9.93886 
-9.89391 0.0156104 0.288252 
0.0156104 -9.94316 0.188314 
0.288252 0.188314 -9.954 
-9.93508 -0.000504532 0.2912 
-0.000504532 -9.92716 0.205074 
0.2912 0.205074 -9.92882 
-7.50374 0.205112 -0.116238 
0.205112 -7.09812 0.47569 
-0.116238 0.47569 2.88814 
-6.65038 0.511257 -2.29524 
0.511257 -8.85916 -0.861283 
-2.29524 -0.861283 3.79581 
-2.61273 0.875829 0.603626 
0.875829 -0.823251 0.693008 
0.603626 0.693008 -8.27774 
-5.94578 -1.56612 -2.17798 
-1.56612 -5.70969 5.46745 
-2.17798 5.46745 -0.0582437 
-9.9273 0.219709 0.338189 
0.219709 -9.56657 -0.0013249 
0.338189 -0.0013249 -9.93718 
-10.0685 0.0599216 0.0304228 
0.0599216 -9.38656 -0.0677218 
0.0304228 -0.0677218 -9.976 
-9.75795 -0.00884683 0.0685254 
-0.00884683 -9.84879 0.303671 
0.0685254 0.303671 -9.82431 
-9.96288 -0.00624137 0.0289463 
-0.00624137 -9.338 0.227219 
0.0289463 0.227219 -10.1302 
-9.28278 0.094889 0.123586 
0.094889 -9.70978 0.204996 
0.123586 0.204996 -9.684 
-9.41184 0.311315 0.489875 
0.311315 -9.00948 0.000701141 
0.489875 0.000701141 -10.2552 
-9.42567 -0.0193627 0.197827 
-0.0193627 -9.51641 -0.0271981 
0.197827 -0.0271981 -9.73447 
-9.67233 0.226121 0.454736 
0.226121 -9.56638 0.259683 
0.454736 0.259683 -9.43784 
-8.30634 0.496747 -1.36608 
0.496747 -9.16715 -0.237136 
-1.36608 -0.237136 -7.0667 
-8.90941 -0.0350048 -1.1721 
-0.0350048 -8.92896 0.0138632 
-1.1721 0.0138632 -6.70182 
-9.29576 -0.174568 -1.39857 
-0.174568 -9.27786 0.183207 
-1.39857 0.183207 -5.96657 
-9.47783 -0.194758 -0.466041 
-0.194758 -8.7433 0.0418117 
-0.466041 0.0418117 -6.31906 
-9.94972 0.00870965 -0.139769 
0.00870965 -9.97648 -0.135938 
-0.139769 -0.135938 -9.99656 
-9.9766 -0.00362516 -0.159259 
-0.00362516 -9.98862 -0.126237 
-0.159259 -0.126237 -9.95753 
-9.95387 -0.00349653 -0.145325 
-0.00349653 -9.97203 -0.115343 
-0.145325 -0.115343 -9.99685 
-9.9898 -0.00282911 -0.156215 
-0.00282911 -9.98545 -0.126971 
-0.156215 -0.126971 -9.9475 
-10.5899 1.00691 0.919477 
1.00691 -8.78333 1.93457 
0.919477 1.93457 -18.5914 
-11.3493 1.56465 -0.387322 
1.56465 -9.31184 -0.788941 
-0.387322 -0.788941 -17.3035 
-15.7161 0.635103 -0.0494688 
0.635103 -12.8657 -0.67958 
-0.0494688 -0.67958 -9.38278 
-13.2109 2.65829 -5.44548 
2.65829 -10.9929 1.77027 
-5.44548 1.77027 -13.7609 
-7.98058 -1.01453 3.12672 
-1.01453 -10.167 -1.17268 
3.12672 -1.17268 -9.25437 
-7.49391 -0.597045 0.116293 
-0.597045 -8.75087 -1.09467 
0.116293 -1.09467 -11.1572 
-10.5705 -0.3039 1.35945 
-0.3039 -9.57456 -0.59281 
1.35945 -0.59281 -7.25693 
-9.15355 -0.398291 1.65702 
-0.398291 -9.69602 -0.242335 
1.65702 -0.242335 -8.55242 
-9.76241 -0.0195204 -0.311872 
-0.0195204 -9.72756 -0.120958 
-0.311872 -0.120958 -9.75281 
-9.79387 -0.0256728 -0.287174 
-0.0256728 -9.72656 -0.0949742 
-0.287174 -0.0949742 -9.72236 
-9.7244 0.0285814 -0.288688 
0.0285814 -9.73347 -0.10392 
-0.288688 -0.10392 -9.78493 
-9.77348 -0.0205645 -0.28164 
-0.0205645 -9.75039 -0.107844 
-0.28164 -0.107844 -9.71892 
-9.94157 -0.0116987 0.159835 
-0.0116987 -9.9723 -0.28875 
0.159835 -0.28875 -10.0268 
-9.97945 -0.00105312 0.129283 
-0.00105312 -9.99195 -0.295028 
0.129283 -0.295028 -9.96925 
-9.97283 0.0134788 0.13093 
0.0134788 -9.99631 -0.288504 
0.13093 -0.288504 -9.97151 
-9.99277 0.00419707 0.124038 
0.00419707 -9.99511 -0.309924 
0.124038 -0.309924 -9.95277 
-9.92586 -0.00511038 0.32031 
-0.00511038 -9.94774 -0.0586906 
0.32031 -0.0586906 -9.92626 
-9.92425 -0.00206268 0.309449 
-0.00206268 -9.93918 -0.065627 
0.309449 -0.065627 -9.93643 
-9.91948 0.0108375 0.29251 
0.0108375 -9.92033 -0.0469994 
0.29251 -0.0469994 -9.96005 
-9.96871 -0.00108025 0.324209 
-0.00108025 -9.9279 -0.0820852 
0.324209 -0.0820852 -9.90325 
-9.75903 -0.397802 0.655434 
-0.397802 -9.62151 -0.424958 
0.655434 -0.424958 -9.22511 
-9.61372 -0.0420137 0.685274 
-0.0420137 -9.72613 -0.0460212 
0.685274 -0.0460212 -9.2658 
-9.74794 -0.131579 0.0450241 
-0.131579 -9.26093 -0.268021 
0.0450241 -0.268021 -9.59678 
-9.61746 0.0693494 0.376729 
0.0693494 -9.84109 -0.0976979 
0.376729 -0.0976979 -9.14709 
-9.72438 -0.00973466 -0.0478077 
-0.00973466 -9.7609 -0.140857 
-0.0478077 -0.140857 -9.73645 
-9.722 -0.00928737 -0.0648811 
-0.00928737 -9.76051 -0.158406 
-0.0648811 -0.158406 -9.73922 
-9.70493 -0.0119592 -0.0725407 
-0.0119592 -9.76423 -0.168128 
-0.0725407 -0.168128 -9.75257 
-9.72215 -0.0100709 -0.0514039 
-0.0100709 -9.7556 -0.154673 
-0.0514039 -0.154673 -9.74397 
-9.76262 0.0110843 0.0116325 
0.0110843 -9.74151 -0.0205721 
0.0116325 -0.0205721 -9.87752 
-9.7504 -0.000782263 0.00293261 
-0.000782263 -9.73754 -0.032051 
0.00293261 -0.032051 -9.89372 
-9.757 0.000905774 0.00820368 
0.000905774 -9.73625 -0.0294611 
0.00820368 -0.0294611 -9.8884 
-9.75078 -0.000358098 0.00186492 
-0.000358098 -9.74412 -0.0314994 
0.00186492 -0.0314994 -9.88675 
-12.8265 1.70272 0.658651 
1.70272 -12.1615 -1.22787 
0.658651 -1.22787 -13.2896 
-11.8116 -2.4453 0.117637 
-2.4453 -7.42293 -1.24765 
0.117637 -1.24765 -19.043 
-12.428 -0.780358 0.325916 
-0.780358 -12.097 0.0049633 
0.325916 0.0049633 -13.7526 
-12.2425 -0.365356 -0.484264 
-0.365356 -12.7702 1.11965 
-0.484264 1.11965 -13.2648 
-9.66338 -0.127823 -0.0034969 
-0.127823 -9.82865 0.13168 
-0.0034969 0.13168 -10.0146 
-9.76508 0.00943893 0.263812 
0.00943893 -9.98492 0.140996 
0.263812 0.140996 -9.75663 
-9.74932 0.047603 -0.235935 
0.047603 -9.85993 -0.0528703 
-0.235935 -0.0528703 -9.89738 
-9.58814 -0.00274295 -0.0327885 
-0.00274295 -9.70392 0.0683893 
-0.0327885 0.0683893 -10.2146 
-9.4604 0.0508072 -0.038003 
0.0508072 -9.62658 0.113046 
-0.038003 0.113046 -9.6867 
-9.58451 0.121711 0.0163675 
0.121711 -9.71089 -0.0193404 
0.0163675 -0.0193404 -9.47827 
-9.49401 0.0549809 0.00987616 
0.0549809 -9.68471 0.0302708 
0.00987616 0.0302708 -9.59496 
-9.55862 0.0511078 0.0136601 
0.0511078 -9.60857 -0.0411564 
0.0136601 -0.0411564 -9.60649 
-7.32333 0.699289 1.63627 
0.699289 -6.96453 -1.08555 
1.63627 -1.08555 -1.90507 
-5.39746 -0.452634 1.80455 
-0.452634 -7.14953 -1.0428 
1.80455 -1.0428 -3.64594 
-7.48616 0.704328 1.12578 
0.704328 -6.95007 -1.21281 
1.12578 -1.21281 -1.75671 
-7.05209 0.628286 0.773001 
0.628286 -6.6927 -0.852054 
0.773001 -0.852054 -2.44815 
-9.89726 0.277373 0.0727148 
0.277373 -9.20389 0.119482 
0.0727148 0.119482 -10.5794 
-9.58692 -0.620032 -0.208329 
-0.620032 -9.37119 -0.436626 
-0.208329 -0.436626 -10.7224 
-10.3041 -0.305032 0.00108367 
-0.305032 -8.84834 0.797493 
0.00108367 0.797493 -10.5281 
-9.70665 0.561327 -0.0185332 
0.561327 -8.96875 0.048995 
-0.0185332 0.048995 -11.0052 
-9.43011 -0.468812 -0.393667 
-0.468812 -9.27211 0.0981741 
-0.393667 0.0981741 -10.3661 
-8.91802 -0.267277 -0.20606 
-0.267277 -9.6338 -0.0839846 
-0.20606 -0.0839846 -10.5165 
-9.67452 -0.0861942 0.0499281 
-0.0861942 -9.27495 0.163397 
0.0499281 0.163397 -10.1188 
-9.15235 -0.227643 -0.303876 
-0.227643 -9.60813 -0.000738415 
-0.303876 -0.000738415 -10.3078 
-9.74938 -0.00825724 -0.0318213 
-0.00825724 -9.74956 -0.0293174 
-0.0318213 -0.0293174 -9.87413 
-9.74883 0.00569152 0.00774879 
0.00569152 -9.73904 -0.0358053 
0.00774879 -0.0358053 -9.8852 
-9.74577 0.00127971 -0.000251886 
0.00127971 -9.7376 -0.0362828 
-0.000251886 -0.0362828 -9.8897 
-9.74921 -0.00957782 -0.0111308 
-0.00957782 -9.74492 -0.0461114 
-0.0111308 -0.0461114 -9.87894 
-9.99629 0.0243989 0.031844 
0.0243989 -9.90148 -0.0951757 
0.031844 -0.0951757 -10.1504 
-10.0894 0.00393863 0.0589876 
0.00393863 -10.0569 0.0162848 
0.0589876 0.0162848 -9.90189 
-10.0659 0.00596745 -0.00363766 
0.00596745 -9.98602 -0.0118346 
-0.00363766 -0.0118346 -9.99625 
-10.0649 -0.00273343 0.0108504 
-0.00273343 -9.98919 -0.0167599 
0.0108504 -0.0167599 -9.99408 
-9.76962 0.0155754 -0.0510282 
0.0155754 -9.76593 0.0133331 
-0.0510282 0.0133331 -9.84174 
-9.76219 0.0202584 -0.0402197 
0.0202584 -9.76727 0.0215782 
-0.0402197 0.0215782 -9.84783 
-9.76962 0.0182969 -0.0406312 
0.0182969 -9.75671 0.0118352 
-0.0406312 0.0118352 -9.85095 
-9.76138 0.00980467 -0.0537233 
0.00980467 -9.75855 0.0127183 
-0.0537233 0.0127183 -9.85735 
-9.34401 -0.587354 0.593984 
-0.587354 -10.0726 0.462244 
0.593984 0.462244 -8.28337 
-8.6373 -0.658082 1.96552 
-0.658082 -10.6813 -0.0267168 
1.96552 -0.0267168 -8.38142 
-9.26872 -0.372378 1.35091 
-0.372378 -9.12153 -1.11035 
1.35091 -1.11035 -9.30973 
-8.11488 -0.495452 1.29932 
-0.495452 -9.39364 -1.21174 
1.29932 -1.21174 -10.1915 
-5.99624 1.56454 -2.88363 
1.56454 -9.98373 0.971105 
-2.88363 0.971105 -4.03437 
-7.76515 0.941024 -3.80992 
0.941024 -8.00242 -0.739896 
-3.80992 -0.739896 -4.24677 
-7.95334 0.851973 -2.6346 
0.851973 -8.93872 0.200904 
-2.6346 0.200904 -3.12227 
-8.28179 -0.379513 -1.94826 
-0.379513 -6.96462 -1.71593 
-1.94826 -1.71593 -4.76792 
-4.43478 0.0294667 -0.92482 
0.0294667 -4.14261 0.405393 
-0.92482 0.405393 -2.00387 
-5.54813 0.309472 -0.308278 
0.309472 -5.98837 -0.660221 
-0.308278 -0.660221 0.955233 
-4.24645 -0.334639 -1.15848 
-0.334639 -4.67996 0.105452 
-1.15848 0.105452 -1.65485 
-3.9518 0.687945 -1.149 
0.687945 -3.53581 0.730053 
-1.149 0.730053 -3.09365 
-9.72155 -0.0309879 0.306708 
-0.0309879 -9.64303 0.203322 
0.306708 0.203322 -9.57996 
-9.62521 0.0119232 0.294962 
0.0119232 -9.6505 0.201595 
0.294962 0.201595 -9.66884 
-9.59053 0.00945031 0.30745 
0.00945031 -9.63936 0.197478 
0.30745 0.197478 -9.71464 
-9.63467 0.00260979 0.235995 
0.00260979 -9.65009 0.21661 
0.235995 0.21661 -9.65978 
-9.88457 -0.00431527 -0.0459077 
-0.00431527 -9.87928 -0.0329297 
-0.0459077 -0.0329297 -9.94455 
-9.89194 -0.00276992 -0.0373701 
-0.00276992 -9.89544 -0.028046 
-0.0373701 -0.028046 -9.92103 
-9.89025 0.00117161 -0.0555443 
0.00117161 -9.90022 -0.0293158 
-0.0555443 -0.0293158 -9.91794 
-9.8882 -0.00333737 -0.0444471 
-0.00333737 -9.89206 -0.0375602 
-0.0444471 -0.0375602 -9.92814 
-9.95901 0.211256 0.332058 
0.211256 -9.40527 0.0651136 
0.332058 0.0651136 -9.63957 
-9.95339 -0.0512176 -0.0900366 
-0.0512176 -9.21876 -0.0807104 
-0.0900366 -0.0807104 -9.83171 
-9.19491 -0.112688 0.00323118 
-0.112688 -9.9017 0.234422 
0.00323118 0.234422 -9.90725 
-9.69646 -0.0607087 -0.0128963 
-0.0607087 -9.21314 0.16239 
-0.0128963 0.16239 -10.0943 
-9.64825 0.0052855 0.263033 
0.0052855 -9.64963 -0.249491 
0.263033 -0.249491 -9.67642 
-9.65673 -0.0159393 0.247168 
-0.0159393 -9.65603 -0.261866 
0.247168 -0.261866 -9.66154 
-9.69635 0.0295905 0.263164 
0.0295905 -9.68482 -0.242226 
0.263164 -0.242226 -9.59313 
-9.63671 -0.0120353 0.232731 
-0.0120353 -9.67888 -0.242069 
0.232731 -0.242069 -9.65871 
-9.42238 0.300523 -0.858183 
0.300523 -9.7791 -0.00782955 
-0.858183 -0.00782955 -13.807 
-9.96882 0.892351 0.441292 
0.892351 -11.0341 0.374122 
0.441292 0.374122 -12.0055 
-12.7673 0.194266 0.448629 
0.194266 -10.493 0.29487 
0.448629 0.29487 -9.74817 
-10.2387 0.490582 1.3236 
0.490582 -10.9681 -0.372211 
1.3236 -0.372211 -11.8017 
-9.96454 0.0116205 0.13389 
0.0116205 -9.94949 0.281636 
0.13389 0.281636 -10.0023 
-9.96561 0.000658516 0.113836 
0.000658516 -9.94126 0.283392 
0.113836 0.283392 -10.0094 
-9.97606 0.00252838 0.125019 
0.00252838 -9.98048 0.292404 
0.125019 0.292404 -9.95976 
-9.97201 -0.00365169 0.122976 
-0.00365169 -9.99126 0.28323 
0.122976 0.28323 -9.95303 
-9.59864 0.00323264 0.247095 
0.00323264 -9.58945 -0.26335 
0.247095 -0.26335 -9.58316 
-9.57193 -0.0198281 0.247303 
-0.0198281 -9.55873 -0.269211 
0.247303 -0.269211 -9.64059 
-9.60622 0.00809793 0.254206 
0.00809793 -9.61678 -0.273534 
0.254206 -0.273534 -9.54826 
-9.58611 -0.0070186 0.2486 
-0.0070186 -9.60022 -0.228255 
0.2486 -0.228255 -9.58492 
-9.62982 -0.00363467 -0.010344 
-0.00363467 -9.59431 -0.0633055 
-0.010344 -0.0633055 -9.81793 
-9.62213 0.00514649 -0.00486172 
0.00514649 -9.59981 -0.0535376 
-0.00486172 -0.0535376 -9.82012 
-9.61005 0.00788642 -0.00556364 
0.00788642 -9.59655 -0.0546385 
-0.00556364 -0.0546385 -9.83546 
-9.61461 -0.0313685 -0.00514387 
-0.0313685 -9.61235 -0.0120707 
-0.00514387 -0.0120707 -9.81511 
-9.65367 0.146195 0.0456763 
0.146195 -9.33654 0.119478 
0.0456763 0.119478 -10.0017 
-9.53569 0.0522248 0.129981 
0.0522248 -9.62156 0.223195 
0.129981 0.223195 -9.83465 
-9.59601 0.0969272 0.0373345 
0.0969272 -9.52176 0.0822254 
0.0373345 0.0822254 -9.87413 
-9.52799 0.00230176 0.0159703 
0.00230176 -9.57851 -0.00207908 
0.0159703 -0.00207908 -9.8854 
-8.53561 -1.24955 -1.30306 
-1.24955 -6.90451 -0.249802 
-1.30306 -0.249802 -0.551916 
-6.3072 -0.374915 0.00548441 
-0.374915 -8.50453 -0.641633 
0.00548441 -0.641633 -1.18031 
-9.64484 -0.643608 0.931671 
-0.643608 -4.16845 -2.66515 
0.931671 -2.66515 -2.17875 
-6.20245 -0.355514 0.248608 
-0.355514 -8.58518 -0.89471 
0.248608 -0.89471 -1.20441 
-9.78417 0.051058 -0.0296006 
0.051058 -10.2049 0.00801361 
-0.0296006 0.00801361 -10.7152 
-10.1267 -0.0218437 0.148046 
-0.0218437 -10.0784 -0.0689045 
0.148046 -0.0689045 -10.4992 
-10.3322 -0.208333 0.072245 
-0.208333 -10.1907 -0.138375 
0.072245 -0.138375 -10.1813 
-10.1121 -0.000531382 -0.020178 
-0.000531382 -10.1032 -0.401457 
-0.020178 -0.401457 -10.4889 
-9.35044 0.257607 -0.0807131 
0.257607 -9.28189 1.5916 
-0.0807131 1.5916 -7.94723 
-9.65922 0.28354 -0.236487 
0.28354 -9.51365 1.6835 
-0.236487 1.6835 -7.40669 
-9.74056 0.103794 0.471033 
0.103794 -8.28969 0.698377 
0.471033 0.698377 -8.54932 
-9.19241 0.0900451 -0.236818 
0.0900451 -9.1186 1.72087 
-0.236818 1.72087 -8.26856 
-9.36714 -0.0745361 -0.267519 
-0.0745361 -9.39779 0.227539 
-0.267519 0.227539 -9.42852 
-9.3299 -0.113543 -0.224788 
-0.113543 -9.31247 0.190412 
-0.224788 0.190412 -9.55109 
-9.36864 0.0552705 -0.257761 
0.0552705 -9.41934 0.237103 
-0.257761 0.237103 -9.40548 
-9.24055 -0.0754938 -0.241901 
-0.0754938 -9.44113 0.259878 
-0.241901 0.259878 -9.51177 
-9.6395 -0.0174435 -0.0249281 
-0.0174435 -9.65185 0.0358783 
-0.0249281 0.0358783 -9.85979 
-9.70205 0.0214284 0.00278219 
0.0214284 -9.61646 -0.0151916 
0.00278219 -0.0151916 -9.83263 
-9.58596 -0.0105035 -0.0127345 
-0.0105035 -9.63576 -0.0304676 
-0.0127345 -0.0304676 -9.92941 
-9.70307 -0.0540925 -0.00374381 
-0.0540925 -9.66916 -0.0243469 
-0.00374381 -0.0243469 -9.77891 
-11.1537 1.31419 -1.3483 
1.31419 -9.02204 -1.20095 
-1.3483 -1.20095 -16.4342 
-11.7792 -2.22697 2.0034 
-2.22697 -14.6312 0.560407 
2.0034 0.560407 -10.1996 
-7.29039 0.753467 -0.589458 
0.753467 -12.2145 -0.667537 
-0.589458 -0.667537 -17.105 
-9.47705 1.11752 -0.00978095 
1.11752 -13.0325 2.07732 
-0.00978095 2.07732 -14.1004 
-10.478 -0.650502 -0.169028 
-0.650502 -10.8513 0.210363 
-0.169028 0.210363 -12.3555 
-10.543 0.0509088 0.329066 
0.0509088 -10.7592 0.00999607 
0.329066 0.00999607 -12.3827 
-12.3001 -0.516114 -0.424956 
-0.516114 -11.1711 0.186853 
-0.424956 0.186853 -10.2137 
-10.769 -0.555996 -0.840879 
-0.555996 -11.3571 -0.552083 
-0.840879 -0.552083 -11.5587 
-9.85651 0.00308051 0.353338 
0.00308051 -9.83351 0.0401067 
0.353338 0.0401067 -9.82416 
-9.84093 0.00399961 0.346691 
0.00399961 -9.81097 0.048021 
0.346691 0.048021 -9.86229 
-9.82177 -0.00268844 0.343835 
-0.00268844 -9.84529 0.0345642 
0.343835 0.0345642 -9.84713 
-9.83206 0.00724916 0.332361 
0.00724916 -9.84413 0.0351085 
0.332361 0.0351085 -9.838 
-9.75602 0.00561171 -0.215769 
0.00561171 -9.72697 -0.0632338 
-0.215769 -0.0632338 -9.71285 
-9.78406 -0.0185049 -0.206743 
-0.0185049 -9.74252 -0.0793736 
-0.206743 -0.0793736 -9.66927 
-9.74283 -0.0130827 -0.253224 
-0.0130827 -9.71695 -0.0482936 
-0.253224 -0.0482936 -9.73607 
-9.74836 -0.0246406 -0.225331 
-0.0246406 -9.71387 -0.0362971 
-0.225331 -0.0362971 -9.73362 
-7.25996 -1.7257 1.84657 
-1.7257 -6.71057 2.91936 
1.84657 2.91936 -5.22636 
-6.67629 2.17907 2.40956 
2.17907 -9.77489 1.66242 
2.40956 1.66242 -2.74571 
-7.42161 1.99501 -0.831091 
1.99501 -7.51121 2.44304 
-0.831091 2.44304 -4.26407 
-6.95789 0.819521 0.494991 
0.819521 -8.31858 2.68528 
0.494991 2.68528 -3.92042 
-9.59794 -0.0190278 0.303716 
-0.0190278 -9.59922 0.198743 
0.303716 0.198743 -9.59941 
-9.56995 0.00925006 0.292949 
0.00925006 -9.59372 0.206291 
0.292949 0.206291 -9.63291 
-9.57221 0.00820003 0.280831 
0.00820003 -9.61023 0.216156 
0.280831 0.216156 -9.61413 
-9.59741 -0.00220624 0.291788 
-0.00220624 -9.60333 0.191228 
0.291788 0.191228 -9.59583 
-9.67098 -0.129129 0.11933 
-0.129129 -9.1756 -0.171082 
0.11933 -0.171082 -9.86098 
-9.45654 0.0100058 0.09428 
0.0100058 -9.69674 -0.167681 
0.09428 -0.167681 -9.55427 
-9.43004 -0.0601775 0.119974 
-0.0601775 -9.62127 -0.237348 
0.119974 -0.237348 -9.65624 
-9.43693 -0.0207739 0.144846 
-0.0207739 -9.57575 -0.372041 
0.144846 -0.372041 -9.69486 
-9.54454 0.0656352 -0.0868395 
0.0656352 -9.67236 0.149024 
-0.0868395 0.149024 -9.75862 
-9.62355 -0.116266 -0.0984929 
-0.116266 -9.46238 0.19391 
-0.0984929 0.19391 -9.88958 
-9.61399 -0.0636177 -0.0675749 
-0.0636177 -9.54347 0.126549 
-0.0675749 0.126549 -9.81805 
-9.49975 -0.0702983 -0.0393234 
-0.0702983 -9.63914 0.104945 
-0.0393234 0.104945 -9.83661 
-9.40181 -0.306708 0.336901 
-0.306708 -9.50234 0.181265 
0.336901 0.181265 -9.11224 
-9.32055 0.255995 -0.439518 
0.255995 -9.46241 0.129127 
-0.439518 0.129127 -9.23343 
-9.45375 0.221624 0.189664 
0.221624 -9.94595 0.320582 
0.189664 0.320582 -8.61668 
-9.42676 0.0902264 0.241257 
0.0902264 -9.07404 0.102476 
0.241257 0.102476 -9.51557 
-11.6476 -1.64476 0.0289458 
-1.64476 -4.73928 -0.141001 
0.0289458 -0.141001 -19.0232 
-12.8094 -1.03993 -0.144106 
-1.03993 -8.61798 0.68699 
-0.144106 0.68699 -13.9827 
-11.1058 -3.31702 -0.915491 
-3.31702 -6.17574 -0.493733 
-0.915491 -0.493733 -18.1286 
-11.6664 -0.947212 0.207634 
-0.947212 -9.33299 -0.691292 
0.207634 -0.691292 -14.4107 
-9.65869 -0.0339668 0.00926797 
-0.0339668 -9.6456 0.0560313 
0.00926797 0.0560313 -9.80632 
-9.58705 -0.00630782 0.00355716 
-0.00630782 -9.62164 -0.0227388 
0.00355716 -0.0227388 -9.90192 
-9.63202 -0.0250445 -0.0221224 
-0.0250445 -9.69384 -0.00914371 
-0.0221224 -0.00914371 -9.78475 
-9.63536 -0.0135203 0.00447453 
-0.0135203 -9.67775 -0.00101907 
0.00447453 -0.00101907 -9.79751 
-9.68308 0.00664684 -0.265508 
0.00664684 -9.7491 -0.552083 
-0.265508 -0.552083 -9.4358 
-9.67875 -0.0677495 -0.0639874 
-0.0677495 -9.73686 -0.350708 
-0.0639874 -0.350708 -9.45237 
-9.62793 0.0143193 -0.156803 
0.0143193 -9.59117 -0.258741 
-0.156803 -0.258741 -9.64889 
-9.68677 -0.120517 -0.0476325 
-0.120517 -9.82991 -0.232487 
-0.0476325 -0.232487 -9.3513 
-9.84893 0.083613 -0.104258 
0.083613 -9.85266 0.105831 
-0.104258 0.105831 -10.2104 
-9.80024 0.15527 0.0232886 
0.15527 -10.0394 -0.0167073 
0.0232886 -0.0167073 -10.0724 
-9.93524 0.19182 -0.122315 
0.19182 -9.67752 0.111777 
-0.122315 0.111777 -10.2992 
-10.0061 0.170615 -0.00419827 
0.170615 -9.90633 0.00365887 
-0.00419827 0.00365887 -9.99951 
-9.70554 0.34478 0.144984 
0.34478 -9.92166 0.0538898 
0.144984 0.0538898 -10.8105 
-9.69437 0.415952 0.302123 
0.415952 -9.79503 0.0330966 
0.302123 0.0330966 -10.9483 
-9.64984 0.310279 0.218742 
0.310279 -9.92744 -0.0214998 
0.218742 -0.0214998 -10.8604 
-9.60882 -0.01303 -0.00239928 
-0.01303 -9.81432 -0.0419353 
-0.00239928 -0.0419353 -11.0145 
-9.00965 -0.38324 -0.0406124 
-0.38324 -9.86476 -0.101181 
-0.0406124 -0.101181 -10.9859 
-9.48282 0.177429 0.0309418 
0.177429 -9.65994 0.179786 
0.0309418 0.179786 -10.7176 
-9.37113 -0.0760625 0.20743 
-0.0760625 -9.88244 0.353999 
0.20743 0.353999 -10.6068 
-8.47712 0.072384 0.414366 
0.072384 -9.89106 0.0690032 
0.414366 0.0690032 -11.4922 
-9.96793 -0.00955402 -0.195954 
-0.00955402 -9.97049 0.194839 
-0.195954 0.194839 -9.96358 
-9.92595 0.00147005 -0.189807 
0.00147005 -9.92418 0.189179 
-0.189807 0.189179 -10.0519 
-9.97932 -0.00708351 -0.19452 
-0.00708351 -9.96259 0.194463 
-0.19452 0.194463 -9.96009 
-9.98173 0.00315654 -0.210439 
0.00315654 -9.97629 0.186595 
-0.210439 0.186595 -9.94397 
-4.18856 -0.133394 0.000332671 
-0.133394 -5.39963 0.769568 
0.000332671 0.769568 0.94771 
-2.16845 0.714902 1.7448 
0.714902 -1.71771 1.93849 
1.7448 1.93849 -4.75433 
-6.76547 -1.55804 -1.33482 
-1.55804 -3.54598 -0.402184 
-1.33482 -0.402184 1.67097 
-5.29962 -1.43362 1.88039 
-1.43362 -5.05759 1.71546 
1.88039 1.71546 1.71673 
-9.77064 0.0207267 -0.0819804 
0.0207267 -9.73541 0.0991382 
-0.0819804 0.0991382 -9.7801 
-9.75161 0.045244 -0.0745568 
0.045244 -9.78074 0.0821239 
-0.0745568 0.0821239 -9.7538 
-9.74382 0.0194287 -0.0775596 
0.0194287 -9.76393 0.0831962 
-0.0775596 0.0831962 -9.7784 
-9.76191 0.0234899 -0.0839127 
0.0234899 -9.77685 0.0701275 
-0.0839127 0.0701275 -9.74739 
-9.9028 0.0112369 -0.00874679 
0.0112369 -9.9145 0.00256364 
-0.00874679 0.00256364 -9.85374 
-9.84982 0.0826823 -0.0210871 
0.0826823 -9.94204 -0.0696244 
-0.0210871 -0.0696244 -9.87918 
-9.92294 0.000423437 -0.00163247 
0.000423437 -9.92459 -0.0562719 
-0.00163247 -0.0562719 -9.82352 
-9.86234 -0.194581 0.0718942 
-0.194581 -9.83026 0.0877659 
0.0718942 0.0877659 -9.97844 
-9.78041 -0.0455698 0.00499465 
-0.0455698 -9.81118 0.0115412 
0.00499465 0.0115412 -9.75817 
-9.72913 0.0511289 0.0146536 
0.0511289 -9.82709 0.0461106 
0.0146536 0.0461106 -9.79355 
-9.75479 -0.0836947 -0.0272359 
-0.0836947 -9.78015 -0.0342547 
-0.0272359 -0.0342547 -9.81482 
-9.76443 -0.033902 -0.00801791 
-0.033902 -9.80141 0.00186087 
-0.00801791 0.00186087 -9.78392 
-9.62839 0.0340763 -0.102604 
0.0340763 -9.57275 0.35372 
-0.102604 0.35372 -9.52621 
-9.50588 0.0211125 -0.111356 
0.0211125 -9.60864 0.376885 
-0.111356 0.376885 -9.61283 
-9.52016 -0.0319405 -0.133928 
-0.0319405 -9.54442 0.373494 
-0.133928 0.373494 -9.66277 
-9.59141 -0.0233358 -0.154109 
-0.0233358 -9.52785 0.312037 
-0.154109 0.312037 -9.60809 
-9.96302 -0.0001388 -0.233682 
-0.0001388 -9.97397 0.153031 
-0.233682 0.153031 -9.96283 
-9.92542 0.00268601 -0.227011 
0.00268601 -9.92883 0.147146 
-0.227011 0.147146 -10.0456 
-9.96471 -0.010727 -0.234834 
-0.010727 -9.97219 0.149856 
-0.234834 0.149856 -9.96292 
-9.97641 0.00230893 -0.229357 
0.00230893 -9.97763 0.164179 
-0.229357 0.164179 -9.94578 
-9.60588 -0.00327785 -0.330665 
-0.00327785 -9.60405 -0.104098 
-0.330665 -0.104098 -9.61113 
-9.63266 -0.0026589 -0.332543 
-0.0026589 -9.61437 -0.136897 
-0.332543 -0.136897 -9.57404 
-9.55753 0.0232514 -0.315761 
0.0232514 -9.58192 -0.0768414 
-0.315761 -0.0768414 -9.68162 
-9.61821 -0.0170941 -0.324588 
-0.0170941 -9.62838 -0.0791276 
-0.324588 -0.0791276 -9.57447 
-9.88828 0.00540059 0.247724 
0.00540059 -9.89634 0.237835 
0.247724 0.237835 -9.88247 
-9.88938 7.51701e-05 0.227732 
7.51701e-05 -9.87298 0.233057 
0.227732 0.233057 -9.90474 
-9.89108 0.0160877 0.245354 
0.0160877 -9.9038 0.237919 
0.245354 0.237919 -9.87222 
-9.91083 0.0035302 0.269255 
0.0035302 -9.91395 0.239224 
0.269255 0.239224 -9.84232 
-8.94107 -0.352086 -0.741009 
-0.352086 -9.60923 0.289729 
-0.741009 0.289729 -10.2463 
-9.16602 0.28458 -0.40794 
0.28458 -9.67749 -0.136537 
-0.40794 -0.136537 -9.95304 
-9.19056 -0.504573 -1.04793 
-0.504573 -9.82011 0.524371 
-1.04793 0.524371 -9.78588 
-9.19518 -0.0656377 -0.846346 
-0.0656377 -9.49936 0.159462 
-0.846346 0.159462 -10.102 
-10.6947 0.167886 0.222736 
0.167886 -9.26344 -0.923912 
0.222736 -0.923912 -10.1408 
-10.5741 -0.874563 0.256764 
-0.874563 -8.91805 -1.07149 
0.256764 -1.07149 -10.6068 
-9.75124 -0.0827883 0.46381 
-0.0827883 -9.91449 -0.806825 
0.46381 -0.806825 -10.4332 
-10.2981 -0.430619 0.11721 
-0.430619 -9.29156 -0.916806 
0.11721 -0.916806 -10.5092 
-4.50499 0.752689 0.0244273 
0.752689 -6.79709 -1.99867 
0.0244273 -1.99867 2.36895 
-3.06719 -0.10338 0.010722 
-0.10338 -1.05089 1.92807 
0.010722 1.92807 -4.81505 
-4.56297 -1.00853 0.138041 
-1.00853 -5.20261 -0.0651603 
0.138041 -0.0651603 0.832447 
-3.52728 -0.491008 -0.429969 
-0.491008 -7.4146 2.29992 
-0.429969 2.29992 2.00874 
-9.95818 -0.00637219 -0.00629313 
-0.00637219 -9.94852 0.0502078 
-0.00629313 0.0502078 -9.99703 
-9.95736 -0.00563575 -0.0189996 
-0.00563575 -9.95847 0.0378851 
-0.0189996 0.0378851 -9.9879 
-9.96648 -0.00133298 -0.00940275 
-0.00133298 -9.95779 0.036192 
-0.00940275 0.036192 -9.97946 
-9.97248 0.00124737 -0.0163804 
0.00124737 -9.96679 0.0377498 
-0.0163804 0.0377498 -9.96445 
-9.52476 -0.0766493 0.0174793 
-0.0766493 -9.62671 0.0100377 
0.0174793 0.0100377 -9.7196 
-9.60143 0.0104471 0.05709 
0.0104471 -9.7189 0.0272572 
0.05709 0.0272572 -9.55075 
-9.62775 -0.0700025 0.0374066 
-0.0700025 -9.78125 0.0222262 
0.0374066 0.0222262 -9.46208 
-9.62076 -0.105786 0.251584 
-0.105786 -9.70577 0.0323625 
0.251584 0.0323625 -9.54454 
-4.72017 -0.91377 1.7843 
-0.91377 -6.01978 0.0781679 
1.7843 0.0781679 0.74489 
-2.90111 0.210342 0.279484 
0.210342 -3.35562 0.949582 
0.279484 0.949582 -3.73833 
-5.78047 0.771009 1.64866 
0.771009 -2.69437 0.945095 
1.64866 0.945095 -1.52022 
-3.81903 0.0544561 -0.486064 
0.0544561 -4.14012 1.56531 
-0.486064 1.56531 -2.03592 
-8.67515 1.36608 1.08901 
1.36608 -10.4418 1.39962 
1.08901 1.39962 -11.2496 
-9.65047 -0.592866 0.444466 
-0.592866 -11.5451 2.43025 
0.444466 2.43025 -9.17088 
-7.37822 0.13958 0.271279 
0.13958 -9.80121 -1.38267 
0.271279 -1.38267 -13.1871 
-9.45421 0.819392 1.44702 
0.819392 -9.15211 -0.384261 
1.44702 -0.384261 -11.7602 
-10.5508 0.0575975 -0.312109 
0.0575975 -10.1997 0.582797 
-0.312109 0.582797 -9.85913 
-10.5013 -0.102382 -0.489472 
-0.102382 -10.6398 0.538408 
-0.489472 0.538408 -9.46853 
-8.82903 -0.306019 0.410235 
-0.306019 -10.0054 -0.590503 
0.410235 -0.590503 -11.7752 
-10.0947 -0.683255 -0.442111 
-0.683255 -9.73245 0.457354 
-0.442111 0.457354 -10.7825 
-9.93997 0.0107322 -0.268216 
0.0107322 -9.94985 -0.192736 
-0.268216 -0.192736 -9.93354 
-9.93081 -0.00263016 -0.256932 
-0.00263016 -9.93914 -0.17518 
-0.256932 -0.17518 -9.95342 
-9.94216 0.00885725 -0.247918 
0.00885725 -9.92907 -0.183694 
-0.247918 -0.183694 -9.95214 
-9.95321 -0.0342308 -0.274026 
-0.0342308 -9.95933 -0.179179 
-0.274026 -0.179179 -9.91082 
-10.3488 -0.0797764 0.00558192 
-0.0797764 -10.1537 -0.0860532 
0.00558192 -0.0860532 -10.3048 
-10.131 0.05563 0.0605018 
0.05563 -10.3074 0.0518291 
0.0605018 0.0518291 -10.3689 
-10.3724 0.240858 -0.061014 
0.240858 -10.2122 0.101304 
-0.061014 0.101304 -10.2228 
-10.3138 0.0445598 -0.0200673 
0.0445598 -10.2702 0.0901811 
-0.0200673 0.0901811 -10.2234 
-11.7096 -0.798966 0.475189 
-0.798966 -8.08681 0.817516 
0.475189 0.817516 -10.6934 
-9.78964 0.434307 2.38407 
0.434307 -10.1331 2.13469 
2.38407 2.13469 -10.5671 
-9.73571 1.95872 -0.375456 
1.95872 -8.53747 3.1378 
-0.375456 3.1378 -12.2167 
-10.5864 1.29933 0.501749 
1.29933 -9.01651 2.25656 
0.501749 2.25656 -10.8869 
-9.66998 -0.00758509 -0.003633 
-0.00758509 -9.65644 -0.0335976 
-0.003633 -0.0335976 -9.85261 
-9.66366 -0.0110064 0.0353783 
-0.0110064 -9.64427 -0.02733 
0.0353783 -0.02733 -9.8711 
-9.64823 0.00109299 -0.0049966 
0.00109299 -9.66457 -0.0320377 
-0.0049966 -0.0320377 -9.86622 
-9.65961 -0.0122676 0.00768681 
-0.0122676 -9.65509 -0.0385483 
0.00768681 -0.0385483 -9.86432 
-9.34139 0.114022 -0.0904889 
0.114022 -9.45957 -0.0658868 
-0.0904889 -0.0658868 -10.2523 
-9.55041 -0.0357082 -0.0109306 
-0.0357082 -9.50922 -0.0446567 
-0.0109306 -0.0446567 -9.99362 
-9.47995 0.0875057 -0.156078 
0.0875057 -9.56248 -0.152517 
-0.156078 -0.152517 -10.0108 
-9.40239 0.188214 -0.0526884 
0.188214 -9.41863 -0.117233 
-0.0526884 -0.117233 -10.2322 
-9.43145 0.0931705 0.113064 
0.0931705 -9.57332 0.0388686 
0.113064 0.0388686 -9.35052 
-9.22881 -0.00174267 0.208659 
-0.00174267 -9.73589 0.127755 
0.208659 0.127755 -9.3906 
-9.51184 -0.0247092 0.0388367 
-0.0247092 -9.57164 0.0676605 
0.0388367 0.0676605 -9.27182 
-9.66384 0.278439 0.0569993 
0.278439 -9.68409 -0.006806 
0.0569993 -0.006806 -9.00738 
-9.95081 -0.0243902 -0.072882 
-0.0243902 -9.93892 0.131226 
-0.072882 0.131226 -10.0251 
-9.94752 -0.00810645 -0.0954152 
-0.00810645 -9.97165 0.119773 
-0.0954152 0.119773 -9.99569 
-9.96617 0.00275447 -0.0953691 
0.00275447 -9.99594 0.13826 
-0.0953691 0.13826 -9.95276 
-9.97841 0.0159777 -0.0885844 
0.0159777 -9.99168 0.125236 
-0.0885844 0.125236 -9.94478 
-9.38099 0.052475 0.0784715 
0.052475 -9.58053 0.0843132 
0.0784715 0.0843132 -8.59401 
-9.27631 -0.0949434 0.110185 
-0.0949434 -9.30186 0.019939 
0.110185 0.019939 -8.97736 
-9.22882 -0.0669769 -0.181558 
-0.0669769 -9.52647 -0.197754 
-0.181558 -0.197754 -8.80025 
-9.48004 -0.062475 0.0513441 
-0.062475 -9.17277 0.0470281 
0.0513441 0.0470281 -8.90272 
-9.89852 -0.0012144 -0.167378 
-0.0012144 -9.88762 -0.261589 
-0.167378 -0.261589 -9.93165 
-9.9077 0.0109847 -0.188173 
0.0109847 -9.91659 -0.272785 
-0.188173 -0.272785 -9.89351 
-9.90797 0.010111 -0.19259 
0.010111 -9.91282 -0.274416 
-0.19259 -0.274416 -9.89701 
-9.92868 0.00523575 -0.207315 
0.00523575 -9.94547 -0.260445 
-0.207315 -0.260445 -9.84364 
-9.45906 -0.0356758 -0.173475 
-0.0356758 -9.52359 0.294571 
-0.173475 0.294571 -9.7546 
-9.59673 -0.00895554 -0.10525 
-0.00895554 -9.52606 0.398559 
-0.10525 0.398559 -9.61446 
-9.55481 -0.0194947 -0.092727 
-0.0194947 -9.58026 0.32706 
-0.092727 0.32706 -9.60217 
-9.58831 0.0181926 -0.148104 
0.0181926 -9.54256 0.36374 
-0.148104 0.36374 -9.60638 
-9.6447 0.0386497 -0.661826 
0.0386497 -9.66776 0.0698822 
-0.661826 0.0698822 -9.21263 
-9.91482 -0.706966 -1.23275 
-0.706966 -9.68145 -0.629786 
-1.23275 -0.629786 -8.92882 
-10.3412 0.0562095 -0.302939 
0.0562095 -9.74375 0.552713 
-0.302939 0.552713 -8.44019 
-9.11876 0.253644 -0.593142 
0.253644 -10.0906 0.168334 
-0.593142 0.168334 -9.31573 
-9.46475 -0.0959883 -0.293039 
-0.0959883 -9.58815 0.162009 
-0.293039 0.162009 -9.64955 
-9.58277 0.0753696 -0.300338 
0.0753696 -9.57037 0.111934 
-0.300338 0.111934 -9.54932 
-9.53202 -0.0188075 -0.278809 
-0.0188075 -9.57078 0.11652 
-0.278809 0.11652 -9.59965 
-9.57948 0.0146646 -0.225096 
0.0146646 -9.50178 0.0683313 
-0.225096 0.0683313 -9.6212 
-9.14184 1.68435 1.95174 
1.68435 -6.36706 2.06188 
1.95174 2.06188 -5.4132 
-7.91997 -0.335691 3.13052 
-0.335691 -9.71931 1.88525 
3.13052 1.88525 -3.28282 
-6.71505 0.431583 2.58521 
0.431583 -8.51302 4.04655 
2.58521 4.04655 -5.69404 
-8.28215 0.492198 2.47979 
0.492198 -8.21306 2.43335 
2.47979 2.43335 -4.42689 
-9.53881 0.0485961 0.018319 
0.0485961 -9.60062 0.027836 
0.018319 0.027836 -9.38977 
-9.53597 0.0597859 0.0844444 
0.0597859 -9.64854 -0.00634203 
0.0844444 -0.00634203 -9.34469 
-9.56597 0.058602 -0.00904933 
0.058602 -9.52862 0.0130033 
-0.00904933 0.0130033 -9.43461 
-9.69091 0.120614 -0.061422 
0.120614 -9.50653 0.0355836 
-0.061422 0.0355836 -9.33176 
-9.94073 0.000358613 -0.0433806 
0.000358613 -9.91836 0.0102071 
-0.0433806 0.0102071 -9.9558 
-9.92711 -0.0226995 -0.0863394 
-0.0226995 -9.91046 0.0068861 
-0.0863394 0.0068861 -9.97732 
-9.93243 -0.00200682 -0.0690791 
-0.00200682 -9.93078 0.0115244 
-0.0690791 0.0115244 -9.95169 
-9.94526 -0.0112755 -0.0311751 
-0.0112755 -9.94077 0.00875897 
-0.0311751 0.00875897 -9.92886 
-9.6538 0.0525278 0.0422747 
0.0525278 -9.32588 0.0926741 
0.0422747 0.0926741 -9.95233 
-9.5712 0.0328532 0.080876 
0.0328532 -9.48379 0.15089 
0.080876 0.15089 -9.87704 
-9.48138 -0.196238 0.0594941 
-0.196238 -9.74996 0.116215 
0.0594941 0.116215 -9.70068 
-9.44289 0.0819074 0.0308969 
0.0819074 -9.63077 0.140106 
0.0308969 0.140106 -9.85836 
-10.7763 0.34724 -1.03162 
0.34724 -8.20185 4.73573 
-1.03162 4.73573 -7.07723 
-9.65105 0.447781 0.221499 
0.447781 -9.72916 2.02011 
0.221499 2.02011 -6.67513 
-9.18773 0.224059 -0.444086 
0.224059 -9.83935 2.11156 
-0.444086 2.11156 -7.02826 
-7.39982 0.502759 -0.0250888 
0.502759 -7.32945 0.668685 
-0.0250888 0.668685 -11.3261 
-9.56129 -0.00123116 -0.0112713 
-0.00123116 -9.55858 0.371524 
-0.0112713 0.371524 -9.62126 
-9.59034 -0.00183556 -0.0228334 
-0.00183556 -9.63124 0.386249 
-0.0228334 0.386249 -9.51955 
-9.61406 -0.0241899 -0.0379244 
-0.0241899 -9.53097 0.360016 
-0.0379244 0.360016 -9.5961 
-9.60729 0.0233193 -0.0455305 
0.0233193 -9.57701 0.335977 
-0.0455305 0.335977 -9.55682 
-9.95877 0.0132062 -0.0780991 
0.0132062 -9.96258 0.00164807 
-0.0780991 0.00164807 -9.98435 
-9.97426 0.00874101 -0.0780743 
0.00874101 -9.9568 0.00800745 
-0.0780743 0.00800745 -9.97463 
-9.94814 0.00176073 -0.0813358 
0.00176073 -9.95072 0.00671646 
-0.0813358 0.00671646 -10.0068 
-9.9779 0.00199007 -0.0708044 
0.00199007 -9.96515 0.0060202 
-0.0708044 0.0060202 -9.96264 
-8.69169 -0.0632859 1.14084 
-0.0632859 -10.1156 0.605755 
1.14084 0.605755 -10.9445 
-9.50392 -0.0278953 1.30971 
-0.0278953 -10.4625 -0.0663626 
1.30971 -0.0663626 -9.78538 
-10.0124 0.411157 0.22121 
0.411157 -9.3801 -0.424278 
0.22121 -0.424278 -10.3593 
-8.45311 -0.427777 1.01423 
-0.427777 -10.5943 0.0307701 
1.01423 0.0307701 -10.7044 
-10.7368 -0.237466 -0.101066 
-0.237466 -11.0656 -0.239356 
-0.101066 -0.239356 -10.5321 
-10.801 0.44104 0.0272761 
0.44104 -10.7988 0.0879221 
0.0272761 0.0879221 -10.7346 
-10.0502 -0.0257254 0.110929 
-0.0257254 -10.4643 0.299259 
0.110929 0.299259 -11.8199 
-10.7381 -0.191819 0.0905707 
-0.191819 -10.8557 -0.103087 
0.0905707 -0.103087 -10.7406 
-12.2461 1.51744 0.0272428 
1.51744 -11.1685 -0.746461 
0.0272428 -0.746461 -9.55109 
-11.1237 -0.33079 -0.288291 
-0.33079 -7.8957 -0.29546 
-0.288291 -0.29546 -13.9464 
-9.67565 -0.364563 -0.440572 
-0.364563 -10.1173 0.461535 
-0.440572 0.461535 -13.1728 
-11.3439 0.189992 1.1522 
0.189992 -9.79041 0.0601533 
1.1522 0.0601533 -11.8314 
-9.34803 0.215846 0.141558 
0.215846 -9.56993 0.0975988 
0.141558 0.0975988 -9.82406 
-9.32822 0.192801 0.327962 
0.192801 -9.56047 0.171514 
0.327962 0.171514 -9.85333 
-9.69022 -0.431329 -0.0743937 
-0.431329 -9.57331 0.114112 
-0.0743937 0.114112 -9.47848 
-9.06573 -0.0277377 0.290287 
-0.0277377 -9.81757 0.0559455 
0.290287 0.0559455 -9.85872 
-9.43078 0.111679 0.537038 
0.111679 -9.55575 0.0315541 
0.537038 0.0315541 -9.22362 
-9.44821 0.014878 0.374385 
0.014878 -9.46618 -0.129981 
0.374385 -0.129981 -9.29576 
-9.33853 0.0577164 0.39362 
0.0577164 -9.37248 -0.136933 
0.39362 -0.136933 -9.49914 
-9.41888 0.00493654 0.387868 
0.00493654 -9.48498 -0.149373 
0.387868 -0.149373 -9.30628 
-9.89354 0.0104852 0.0109863 
0.0104852 -9.92889 0.306224 
0.0109863 0.306224 -9.9554 
-9.93227 -0.000757408 -0.00215844 
-0.000757408 -9.92097 0.325573 
-0.00215844 0.325573 -9.92458 
-9.93164 -0.00135338 0.00163607 
-0.00135338 -9.92056 0.332893 
0.00163607 0.332893 -9.92562 
-9.90339 0.00409466 -0.0235841 
0.00409466 -9.98721 0.343645 
-0.0235841 0.343645 -9.88722 
-9.9798 0.00636092 -0.0428167 
0.00636092 -9.99203 -0.0232199 
-0.0428167 -0.0232199 -9.92962 
-9.91495 -0.111348 0.0393449 
-0.111348 -9.97739 0.0412238 
0.0393449 0.0412238 -10.0091 
-9.99379 0.0533323 -0.0280551 
0.0533323 -9.93077 -0.0107578 
-0.0280551 -0.0107578 -9.9769 
-9.97907 -0.00237867 -0.02001 
-0.00237867 -9.96121 -0.0107286 
-0.02001 -0.0107286 -9.96117 
-9.65461 0.0422054 -0.402953 
0.0422054 -9.36419 -0.197258 
-0.402953 -0.197258 -9.25864 
-9.57968 0.24035 -0.242559 
0.24035 -9.24285 -0.196152 
-0.242559 -0.196152 -9.45491 
-9.18813 0.0674751 -0.68689 
0.0674751 -9.74816 -0.609904 
-0.68689 -0.609904 -9.34114 
-10.276 -0.146064 -0.284811 
-0.146064 -9.59041 0.160132 
-0.284811 0.160132 -8.41105 
-9.50428 0.101049 -0.152081 
0.101049 -9.67558 0.000117645 
-0.152081 0.000117645 -9.55079 
-9.45349 0.081343 -0.0386615 
0.081343 -9.753 -0.0319233 
-0.0386615 -0.0319233 -9.52417 
-9.53162 0.0480942 -0.054839 
0.0480942 -9.58377 0.0865906 
-0.054839 0.0865906 -9.61527 
-9.4792 0.0564784 -0.0139419 
0.0564784 -9.63219 -0.0505138 
-0.0139419 -0.0505138 -9.61926 
-9.35436 0.1988 -0.156313 
0.1988 -9.44938 0.550162 
-0.156313 0.550162 -9.41881 
-9.4255 0.0399015 -0.0535826 
0.0399015 -9.47811 0.373323 
-0.0535826 0.373323 -9.31893 
-9.35586 -0.106508 -0.180004 
-0.106508 -9.33623 0.430872 
-0.180004 0.430872 -9.53046 
-9.30334 -0.0322479 -0.452942 
-0.0322479 -9.4073 0.267506 
-0.452942 0.267506 -9.5119 
-11.2776 0.36601 0.108464 
0.36601 -11.1262 0.0397398 
0.108464 0.0397398 -13.6699 
-11.7283 0.445734 0.134118 
0.445734 -9.87173 -0.855628 
0.134118 -0.855628 -14.4737 
-12.8528 -0.563728 0.239532 
-0.563728 -11.7073 -0.199394 
0.239532 -0.199394 -11.5136 
-12.7383 0.12731 -1.12646 
0.12731 -10.9148 -0.158175 
-1.12646 -0.158175 -12.4207 
-9.57364 0.0209655 0.0267276 
0.0209655 -9.73232 -0.193509 
0.0267276 -0.193509 -9.69168 
-9.68588 0.0214282 0.0306562 
0.0214282 -9.73731 -0.107 
0.0306562 -0.107 -9.57444 
-9.71611 0.0125532 0.0340277 
0.0125532 -9.66834 -0.0736173 
0.0340277 -0.0736173 -9.61318 
-9.67966 0.0558208 -0.0655745 
0.0558208 -9.95642 -0.0947425 
-0.0655745 -0.0947425 -9.36155 
-11.4077 1.2965 -0.698322 
1.2965 -10.9446 -0.752507 
-0.698322 -0.752507 -12.7923 
-11.4911 1.1343 -0.57968 
1.1343 -10.5219 -1.01873 
-0.57968 -1.01873 -13.1316 
-11.2861 1.86155 -1.0762 
1.86155 -10.2739 -1.20824 
-1.0762 -1.20824 -13.5846 
-11.4684 1.32649 -1.1897 
1.32649 -11.2198 -1.39095 
-1.1897 -1.39095 -12.4564 
-3.48986 -0.231178 -0.827 
-0.231178 -1.33853 -0.711768 
-0.827 -0.711768 -7.74444 
-7.95046 -0.362222 -0.400906 
-0.362222 -7.81129 -0.841383 
-0.400906 -0.841383 3.18892 
-5.99086 1.86299 1.00742 
1.86299 -10.4322 0.267022 
1.00742 0.267022 3.85027 
-5.68941 -2.13864 2.25956 
-2.13864 -6.64585 -6.5161 
2.25956 -6.5161 -0.23757 
-9.93103 5.11093e-05 -0.0631994 
5.11093e-05 -9.9265 -0.0413934 
-0.0631994 -0.0413934 -9.96275 
-9.93429 -0.0109665 -0.0692666 
-0.0109665 -9.95068 -0.0262742 
-0.0692666 -0.0262742 -9.93531 
-9.92994 -0.00222824 -0.0710799 
-0.00222824 -9.93272 -0.0265583 
-0.0710799 -0.0265583 -9.95761 
-9.945 -0.000496648 -0.0616631 
-0.000496648 -9.92276 -0.0345368 
-0.0616631 -0.0345368 -9.95252 
-10.3859 0.404808 -0.0325999 
0.404808 -10.9327 -0.162871 
-0.0325999 -0.162871 -11.6674 
-10.3266 0.374898 0.0764285 
0.374898 -10.9423 -0.145032 
0.0764285 -0.145032 -11.717 
-10.6755 0.425354 -0.0221804 
0.425354 -10.3846 -0.300983 
-0.0221804 -0.300983 -11.9258 
-11.0764 0.486933 -0.22452 
0.486933 -10.511 -0.0820842 
-0.22452 -0.0820842 -11.3985 
-9.60006 -0.00309321 0.0273423 
-0.00309321 -9.64464 -0.0545437 
0.0273423 -0.0545437 -9.7563 
-9.79674 -0.0861144 -0.0599665 
-0.0861144 -9.62301 -0.128351 
-0.0599665 -0.128351 -9.58124 
-9.64581 0.0490427 -0.0176726 
0.0490427 -9.57675 0.0566043 
-0.0176726 0.0566043 -9.77843 
-9.7566 -0.0906594 -0.0522705 
-0.0906594 -9.71502 -0.0762676 
-0.0522705 -0.0762676 -9.52938 
-9.98439 -0.00104059 -0.221667 
-0.00104059 -9.97941 -0.0468977 
-0.221667 -0.0468977 -9.94724 
-9.95044 -0.00353486 -0.234293 
-0.00353486 -9.96831 -0.0630888 
-0.234293 -0.0630888 -9.9923 
-9.94118 0.00652516 -0.240752 
0.00652516 -9.94537 -0.0449284 
-0.240752 -0.0449284 -10.0245 
-9.99771 -0.00708901 -0.241322 
-0.00708901 -9.96898 -0.0546195 
-0.241322 -0.0546195 -9.94435 
-2.93492 1.42487 1.23523 
1.42487 -2.30724 -2.22458 
1.23523 -2.22458 -10.0725 
-10.4422 3.34685 -1.05153 
3.34685 -12.6288 4.12488 
-1.05153 4.12488 7.75631 
-7.02182 1.37664 -3.47102 
1.37664 -13.5789 2.75621 
-3.47102 2.75621 5.28609 
-6.91311 -2.96072 -2.97724 
-2.96072 -2.74488 6.51046 
-2.97724 6.51046 -5.65664 
-9.90376 -0.0185238 -0.119691 
-0.0185238 -9.93256 -0.0894496 
-0.119691 -0.0894496 -9.94811 
-9.94169 0.00289909 -0.107731 
0.00289909 -9.91338 -0.0811382 
-0.107731 -0.0811382 -9.92935 
-9.93441 0.00390925 -0.111979 
0.00390925 -9.92182 -0.0901185 
-0.111979 -0.0901185 -9.92819 
-9.92001 -0.0216439 -0.107724 
-0.0216439 -9.95912 -0.0670053 
-0.107724 -0.0670053 -9.90529 
-1.7426 0.929197 -2.49678 
0.929197 -2.11667 1.68673 
-2.49678 1.68673 -12.2789 
-13.6574 0.916611 4.85828 
0.916611 -7.16596 -3.88361 
4.85828 -3.88361 4.68516 
-12.5425 3.27473 6.22461 
3.27473 -10.0435 -1.75033 
6.22461 -1.75033 6.4478 
-0.917043 -4.23025 7.66554 
-4.23025 -6.76793 -2.84438 
7.66554 -2.84438 -8.45322 
-9.98242 0.00121723 -0.260718 
0.00121723 -9.95323 0.0232494 
-0.260718 0.0232494 -9.98477 
-9.9593 -0.00499238 -0.245304 
-0.00499238 -9.94572 0.0317392 
-0.245304 0.0317392 -10.0154 
-9.98487 0.00229482 -0.251393 
0.00229482 -9.97285 0.0199094 
-0.251393 0.0199094 -9.96271 
-9.98448 0.00182914 -0.257385 
0.00182914 -9.98401 0.022029 
-0.257385 0.022029 -9.95194 
-10.2033 -0.10109 -0.0450723 
-0.10109 -10.1864 0.0125076 
-0.0450723 0.0125076 -10.1875 
-10.1222 -0.0592622 -0.104133 
-0.0592622 -10.0721 0.0605962 
-0.104133 0.0605962 -10.3829 
-10.2569 -0.0375797 -0.00213874 
-0.0375797 -10.1951 -0.0242598 
-0.00213874 -0.0242598 -10.1252 
-10.2149 -0.0336874 -0.0198943 
-0.0336874 -10.2376 0.0124666 
-0.0198943 0.0124666 -10.1247 
-9.79534 -0.00199576 -0.332052 
-0.00199576 -9.75413 -0.0896248 
-0.332052 -0.0896248 -9.76087 
-9.76169 0.0113861 -0.323946 
0.0113861 -9.73404 -0.0640875 
-0.323946 -0.0640875 -9.81462 
-9.78055 0.00536615 -0.322589 
0.00536615 -9.78134 -0.0926724 
-0.322589 -0.0926724 -9.74846 
-9.81522 -0.00400707 -0.269348 
-0.00400707 -9.80542 -0.10077 
-0.269348 -0.10077 -9.68971 
-9.60341 -0.113572 -0.044511 
-0.113572 -9.50897 0.0238792 
-0.044511 0.0238792 -9.86254 
-9.52536 0.0407524 -0.119685 
0.0407524 -9.63453 -0.00126425 
-0.119685 -0.00126425 -9.81503 
-9.50515 -0.0287788 -0.21068 
-0.0287788 -9.64496 0.0191769 
-0.21068 0.0191769 -9.82481 
-9.46756 0.0801064 -0.143913 
0.0801064 -9.60493 0.0078211 
-0.143913 0.0078211 -9.90243 
-9.95777 -0.0240439 0.0203582 
-0.0240439 -10.0685 -0.0166816 
0.0203582 -0.0166816 -9.9142 
-10.1145 0.0543249 -0.0566458 
0.0543249 -9.77794 0.0208588 
-0.0566458 0.0208588 -10.048 
-9.98316 -0.0151449 0.025561 
-0.0151449 -10.0241 0.0320503 
0.025561 0.0320503 -9.93317 
-9.98693 0.00590042 0.0592017 
0.00590042 -10.06 0.053591 
0.0592017 0.053591 -9.89347 
-11.0472 2.64762 2.09745 
2.64762 -2.01447 2.26259 
2.09745 2.26259 -22.1369 
-8.64117 5.76263 0.564817 
5.76263 -2.22474 3.81663 
0.564817 3.81663 -24.3327 
-12.3687 1.62073 -0.190257 
1.62073 -7.23751 -0.180836 
-0.190257 -0.180836 -15.5923 
-10.7847 -0.100231 1.04798 
-0.100231 -10.5929 2.18452 
1.04798 2.18452 -13.821 
-9.78894 0.00513696 0.00205813 
0.00513696 -9.79087 0.0117683 
0.00205813 0.0117683 -9.89869 
-9.79046 -0.00369891 0.00832382 
-0.00369891 -9.78971 0.00527228 
0.00832382 0.00527228 -9.89834 
-9.80381 0.00330571 0.00295308 
0.00330571 -9.78714 0.00785443 
0.00295308 0.00785443 -9.88755 
-9.79627 -0.00454943 0.0107368 
-0.00454943 -9.79457 0.00830991 
0.0107368 0.00830991 -9.88767 
-9.96412 0.520523 0.573866 
0.520523 -10.024 0.400933 
0.573866 0.400933 -9.73994 
-10.1715 0.583522 0.127065 
0.583522 -9.56726 0.207947 
0.127065 0.207947 -9.98926 
-9.2545 0.901336 0.968617 
0.901336 -10.2956 0.352914 
0.968617 0.352914 -10.1779 
-10.172 0.0677933 0.748641 
0.0677933 -10.1344 0.499598 
0.748641 0.499598 -9.4217 
-9.96212 0.00446453 0.0426172 
0.00446453 -9.95632 -0.048046 
0.0426172 -0.048046 -9.98386 
-9.95037 -0.00113191 0.0556663 
-0.00113191 -9.95284 -0.0529263 
0.0556663 -0.0529263 -9.99909 
-9.95383 0.00615071 0.0513503 
0.00615071 -9.96272 -0.0389213 
0.0513503 -0.0389213 -9.98576 
-9.97037 -0.00193875 0.0488343 
-0.00193875 -9.96988 -0.0455917 
0.0488343 -0.0455917 -9.96206 
-8.58939 0.729687 -3.68876 
0.729687 -7.86661 0.546304 
-3.68876 0.546304 0.545739 
-2.59451 0.402035 1.45158 
0.402035 -1.78762 -1.52227 
1.45158 -1.52227 -11.5281 
-15.4416 3.12602 -4.33419 
3.12602 -8.48841 3.03986 
-4.33419 3.03986 8.01979 
-1.42219 -3.29338 -9.90833 
-3.29338 -5.9267 1.25692 
-9.90833 1.25692 -8.56137 
-11.5861 0.345138 -0.112392 
0.345138 -9.39157 -0.140475 
-0.112392 -0.140475 -13.6574 
-8.95858 0.151282 1.02151 
0.151282 -11.6878 -0.27427 
1.02151 -0.27427 -13.9888 
-10.6693 1.07443 -0.564232 
1.07443 -10.174 -0.274393 
-0.564232 -0.274393 -13.7918 
-10.9739 0.032012 -0.373209 
0.032012 -10.9259 0.732742 
-0.373209 0.732742 -12.7353 
-9.7134 -0.532939 0.45753 
-0.532939 -9.88543 -0.468047 
0.45753 -0.468047 -11.0726 
-9.48769 -0.529276 0.549431 
-0.529276 -10.1845 -0.294043 
0.549431 -0.294043 -10.9992 
-9.97959 -0.40193 0.285569 
-0.40193 -9.85356 -0.11047 
0.285569 -0.11047 -10.8383 
-10.11 -0.528785 0.651097 
-0.528785 -10.1072 -0.370663 
0.651097 -0.370663 -10.4543 
-9.96171 -0.00258067 -0.00282713 
-0.00258067 -9.98317 -0.333131 
-0.00282713 -0.333131 -9.97405 
-9.9413 6.20689e-05 -0.00248703 
6.20689e-05 -9.94438 -0.33238 
-0.00248703 -0.33238 -10.0332 
-9.97928 0.000764678 -0.000940997 
0.000764678 -9.98223 -0.341898 
-0.000940997 -0.341898 -9.95742 
-9.96707 0.00411278 -0.00232405 
0.00411278 -9.98018 -0.332662 
-0.00232405 -0.332662 -9.97167 
-9.43545 0.00947468 -0.0987669 
0.00947468 -9.52707 -0.314646 
-0.0987669 -0.314646 -9.53551 
-9.50097 0.082242 -0.124217 
0.082242 -9.43213 -0.304101 
-0.124217 -0.304101 -9.56493 
-9.48364 0.023637 -0.126588 
0.023637 -9.50953 -0.332987 
-0.126588 -0.332987 -9.50486 
-9.52338 0.0104498 -0.133529 
0.0104498 -9.45822 -0.310561 
-0.133529 -0.310561 -9.51643 
-9.99402 -0.542146 0.0362779 
-0.542146 -9.28751 0.0434306 
0.0362779 0.0434306 -9.68968 
-9.43089 0.254489 -0.393292 
0.254489 -9.64236 -0.00318279 
-0.393292 -0.00318279 -9.89796 
-9.10963 0.52562 -0.253556 
0.52562 -9.61245 -0.0599574 
-0.253556 -0.0599574 -10.2491 
-9.76144 0.249527 -0.379781 
0.249527 -9.4235 -0.363706 
-0.379781 -0.363706 -9.78627 
-9.93563 -0.00585778 -0.339864 
-0.00585778 -9.84345 -0.0496727 
-0.339864 -0.0496727 -9.80339 
-9.84882 0.00382179 -0.324791 
0.00382179 -9.87182 -0.0744699 
-0.324791 -0.0744699 -9.86182 
-9.81101 -0.00325325 -0.340102 
-0.00325325 -9.83995 -0.0773536 
-0.340102 -0.0773536 -9.93151 
-9.85044 0.0136856 -0.277195 
0.0136856 -9.87629 -0.0847109 
-0.277195 -0.0847109 -9.85574 
-9.99613 -0.00640884 0.294854 
-0.00640884 -9.96354 0.136075 
0.294854 0.136075 -9.96076 
-9.94593 0.00189431 0.291026 
0.00189431 -9.93186 0.159265 
0.291026 0.159265 -10.0426 
-9.99347 0.00100642 0.31672 
0.00100642 -9.977 0.133075 
0.31672 0.133075 -9.94996 
-9.9809 -0.0171906 0.297409 
-0.0171906 -9.96895 0.138211 
0.297409 0.138211 -9.97058 
-10.0046 -0.029678 -0.538111 
-0.029678 -10.012 1.22475 
-0.538111 1.22475 -7.2438 
-10.0063 -0.588295 -0.131143 
-0.588295 -8.76409 1.39683 
-0.131143 1.39683 -8.48994 
-9.73331 -0.522496 0.191151 
-0.522496 -9.43629 0.927992 
0.191151 0.927992 -8.09074 
-9.2844 0.00306932 0.249937 
0.00306932 -9.46886 -0.229688 
0.249937 -0.229688 -8.50709 
-9.91668 0.0122745 -0.0897498 
0.0122745 -9.89994 -0.31022 
-0.0897498 -0.31022 -9.87876 
-9.88431 0.0198413 -0.0388555 
0.0198413 -9.89645 -0.304601 
-0.0388555 -0.304601 -9.91461 
-9.88975 0.00875862 -0.0705622 
0.00875862 -9.91204 -0.326975 
-0.0705622 -0.326975 -9.89358 
-9.92007 0.00741701 -0.11143 
0.00741701 -9.9508 -0.299228 
-0.11143 -0.299228 -9.82451 
-9.98441 -0.00515279 -0.212123 
-0.00515279 -9.98458 -0.163737 
-0.212123 -0.163737 -9.9692 
-9.96567 -0.00562305 -0.217052 
-0.00562305 -9.96801 -0.172283 
-0.217052 -0.172283 -10.0045 
-9.9603 -0.00520574 -0.211016 
-0.00520574 -9.98027 -0.157031 
-0.211016 -0.157031 -9.99762 
-9.99355 -0.00167984 -0.215872 
-0.00167984 -9.98293 -0.158918 
-0.215872 -0.158918 -9.96171 
-9.11967 0.192406 0.175123 
0.192406 -9.40903 0.0550895 
0.175123 0.0550895 -10.6384 
-9.27955 0.0550279 -0.0277534 
0.0550279 -9.33765 0.263161 
-0.0277534 0.263161 -10.5499 
-9.39063 0.0505491 -0.0884661 
0.0505491 -9.02905 0.452929 
-0.0884661 0.452929 -10.7474 
-8.98812 -0.0493169 -0.205246 
-0.0493169 -9.70215 0.353486 
-0.205246 0.353486 -10.4768 
-9.65358 -0.0232924 0.071726 
-0.0232924 -9.75919 0.321811 
0.071726 0.321811 -9.83621 
-9.66094 0.0817774 -0.110987 
0.0817774 -9.67037 -0.045815 
-0.110987 -0.045815 -9.91768 
-9.6874 0.0779418 -0.0770582 
0.0779418 -9.61575 0.0602154 
-0.0770582 0.0602154 -9.94584 
-9.55407 0.195074 -0.0494115 
0.195074 -9.63334 0.0556412 
-0.0494115 0.0556412 -10.0616 
-9.55523 0.510725 0.159346 
0.510725 -9.99823 0.0914199 
0.159346 0.0914199 -10.6985 
-10.0147 0.174282 0.109598 
0.174282 -9.53417 0.364853 
0.109598 0.364853 -10.7031 
-9.91841 -0.00148409 0.102183 
-0.00148409 -9.14306 0.0746638 
0.102183 0.0746638 -11.1905 
-9.73268 0.128711 0.0487086 
0.128711 -9.63391 0.335618 
0.0487086 0.335618 -10.8854 
-9.64408 0.00176916 0.0955697 
0.00176916 -9.44848 -0.196172 
0.0955697 -0.196172 -9.91121 
-9.58534 0.0944231 0.0867205 
0.0944231 -9.4994 -0.284485 
0.0867205 -0.284485 -9.91902 
-9.51696 -0.0924656 -0.0371686 
-0.0924656 -9.43542 -0.197161 
-0.0371686 -0.197161 -10.0514 
-9.8671 -0.0177852 0.214182 
-0.0177852 -9.29371 -0.183759 
0.214182 -0.183759 -9.84295 
-9.27399 1.08761 0.443342 
1.08761 -9.70042 0.495952 
0.443342 0.495952 -9.56485 
-9.01752 0.10205 0.798462 
0.10205 -9.54248 0.331558 
0.798462 0.331558 -9.97927 
-8.51779 0.83128 0.737895 
0.83128 -9.50063 0.0717907 
0.737895 0.0717907 -10.5208 
-8.13201 0.592722 0.914563 
0.592722 -9.50975 0.66436 
0.914563 0.66436 -10.8975 
-9.94449 0.016655 0.113281 
0.016655 -9.95277 0.216006 
0.113281 0.216006 -10.0212 
-9.97065 -0.00313401 0.093171 
-0.00313401 -9.9928 0.222103 
0.093171 0.222103 -9.95501 
-9.95173 0.00646911 0.0937803 
0.00646911 -9.98176 0.237308 
0.0937803 0.237308 -9.98498 
-9.98907 -0.00526317 0.0940375 
-0.00526317 -9.98613 0.234518 
0.0940375 0.234518 -9.94326 
-9.75194 -0.000678548 0.337496 
-0.000678548 -9.74967 0.0963875 
0.337496 0.0963875 -9.74719 
-9.71154 -0.0165871 0.301853 
-0.0165871 -9.72161 0.0865818 
0.301853 0.0865818 -9.81565 
-9.75436 -0.000676949 0.342048 
-0.000676949 -9.74559 0.0942864 
0.342048 0.0942864 -9.74885 
-9.78375 -0.0131094 0.313717 
-0.0131094 -9.79661 0.0934482 
0.313717 0.0934482 -9.66845 
-10.031 -0.0201671 0.0228028 
-0.0201671 -9.94893 -0.0294527 
0.0228028 -0.0294527 -10.0169 
-10.0062 -0.0204907 0.0394384 
-0.0204907 -9.97105 0.0272577 
0.0394384 0.0272577 -10.0196 
-9.95848 -0.0554618 0.0264732 
-0.0554618 -9.97829 -0.0322999 
0.0264732 -0.0322999 -10.0601 
-10.0339 0.0425857 -0.0339693 
0.0425857 -10.096 0.0592095 
-0.0339693 0.0592095 -9.86701 
-9.95293 0.0183536 -0.190269 
0.0183536 -9.90424 -0.278915 
-0.190269 -0.278915 -9.96916 
-9.93761 -0.0146411 -0.194122 
-0.0146411 -9.94285 -0.275382 
-0.194122 -0.275382 -9.94588 
-9.95111 0.0075484 -0.183435 
0.0075484 -9.934 -0.278421 
-0.183435 -0.278421 -9.94122 
-9.93931 -0.00286074 -0.201338 
-0.00286074 -9.95023 -0.281994 
-0.201338 -0.281994 -9.93679 
-8.28298 -0.123721 -0.129565 
-0.123721 -10.5247 0.647974 
-0.129565 0.647974 5.38404 
-7.57085 1.33448 -1.52567 
1.33448 -7.34257 -0.903109 
-1.52567 -0.903109 1.48979 
-2.09791 -0.442335 -0.372921 
-0.442335 -1.31871 2.51551 
-0.372921 2.51551 -10.007 
-4.85003 0.449826 -7.50638 
0.449826 -8.02471 2.3611 
-7.50638 2.3611 -0.548894 
-6.88225 -0.0970552 -0.0708033 
-0.0970552 -8.36684 -0.87619 
-0.0708033 -0.87619 -1.15656 
-6.60546 1.43154 -2.6628 
1.43154 -6.87643 -0.894561 
-2.6628 -0.894561 -2.92376 
-7.03978 -0.734442 -1.51109 
-0.734442 -7.95412 -0.689677 
-1.51109 -0.689677 -1.41176 
-6.74923 -1.0566 -0.684 
-1.0566 -7.40532 -0.415957 
-0.684 -0.415957 -2.2511 
-8.89156 0.776056 1.76065 
0.776056 -9.90398 1.98656 
1.76065 1.98656 -11.3966 
-8.54789 -0.117919 0.742844 
-0.117919 -11.1449 0.976908 
0.742844 0.976908 -10.4993 
-9.61027 1.2889 1.21902 
1.2889 -9.1818 0.396009 
1.21902 0.396009 -11.4 
-9.54431 0.650191 1.96387 
0.650191 -9.19622 0.775703 
1.96387 0.775703 -11.4516 
-5.31868 0.907648 -1.34784 
0.907648 -5.37243 0.104082 
-1.34784 0.104082 2.40839 
-10.351 -0.285192 -1.28146 
-0.285192 -6.59646 2.67766 
-1.28146 2.67766 8.66472 
1.0321 -0.429546 3.89827 
-0.429546 0.414569 0.262998 
3.89827 0.262998 -9.72939 
-5.63219 0.91548 0.571121 
0.91548 -5.11929 -5.06137 
0.571121 -5.06137 2.46875 
-3.71187 0.285777 0.375865 
0.285777 -2.99182 -0.734083 
0.375865 -0.734083 -3.00358 
-6.18238 0.850434 0.689877 
0.850434 -3.67354 0.643201 
0.689877 0.643201 0.148645 
-3.77103 -1.07678 1.39311 
-1.07678 -5.05613 0.65854 
1.39311 0.65854 -0.880115 
-4.64679 0.0792366 -0.227617 
0.0792366 -3.30112 -1.36236 
-0.227617 -1.36236 -1.75936 
-9.95812 -0.00236325 0.071544 
-0.00236325 -9.97317 0.144405 
0.071544 0.144405 -9.97879 
-9.94242 0.00299915 0.0698293 
0.00299915 -9.95639 0.163846 
0.0698293 0.163846 -10.0113 
-9.95945 -0.00715987 0.0604895 
-0.00715987 -9.97515 0.147236 
0.0604895 0.147236 -9.97547 
-9.97549 -0.00271585 0.0650092 
-0.00271585 -9.97829 0.142422 
0.0650092 0.142422 -9.95629 
-9.96124 0.000169896 -0.000447901 
0.000169896 -9.96251 0.0209995 
-0.000447901 0.0209995 -9.98016 
-9.95179 -0.00720038 0.0106794 
-0.00720038 -9.95544 0.0313291 
0.0106794 0.0313291 -9.99669 
-9.9585 -0.00245454 -0.00487191 
-0.00245454 -9.95744 0.033159 
-0.00487191 0.033159 -9.98798 
-9.96746 -0.00232114 -0.000446544 
-0.00232114 -9.9672 0.0207527 
-0.000446544 0.0207527 -9.96926 
-9.55674 0.0564004 0.000828617 
0.0564004 -9.34508 0.0360722 
0.000828617 0.0360722 -9.89196 
-9.52779 0.0312898 -0.0861094 
0.0312898 -9.43097 0.031804 
-0.0861094 0.031804 -9.83503 
-9.5348 0.028865 -0.0346504 
0.028865 -9.5432 -0.00398769 
-0.0346504 -0.00398769 -9.71578 
-9.55355 -0.0478422 -0.0244286 
-0.0478422 -9.39761 -0.0276725 
-0.0244286 -0.0276725 -9.84262 
-11.4771 -0.134276 0.0587987 
-0.134276 -11.1643 0.0934598 
0.0587987 0.0934598 -10.8877 
-10.7118 0.160129 0.445835 
0.160129 -10.576 0.0645096 
0.445835 0.0645096 -12.2413 
-11.4028 0.0278069 -0.0347782 
0.0278069 -11.0219 0.0260831 
-0.0347782 0.0260831 -11.1044 
-11.4105 0.188619 -0.252431 
0.188619 -11.0954 -0.367706 
-0.252431 -0.367706 -11.0232 
-9.76898 -0.0481987 0.294472 
-0.0481987 -9.46471 -0.156567 
0.294472 -0.156567 -9.06418 
-9.29964 0.0292727 0.081839 
0.0292727 -9.55073 0.131115 
0.081839 0.131115 -9.4475 
-9.67227 0.085038 0.252503 
0.085038 -9.36607 -0.228952 
0.252503 -0.228952 -9.25952 
-9.93411 0.0632643 -0.127762 
0.0632643 -9.77163 -0.10982 
-0.127762 -0.10982 -8.59213 
-9.47895 0.074823 -0.268923 
0.074823 -9.64702 -0.556834 
-0.268923 -0.556834 -9.72815 
-10.8876 -0.427221 0.815142 
-0.427221 -8.67153 -0.582109 
0.815142 -0.582109 -9.29496 
-10.1447 -0.0899653 0.34494 
-0.0899653 -9.51541 -1.26143 
0.34494 -1.26143 -9.19399 
-10.0807 0.638287 -1.31654 
0.638287 -8.61506 -2.23767 
-1.31654 -2.23767 -10.1584 
-9.98273 0.00561882 -0.323213 
0.00561882 -9.96759 -0.00680552 
-0.323213 -0.00680552 -9.96499 
-9.93248 0.000679242 -0.326472 
0.000679242 -9.93365 -0.00490721 
-0.326472 -0.00490721 -10.0492 
-9.98279 0.00215194 -0.340107 
0.00215194 -9.9845 -0.00211949 
-0.340107 -0.00211949 -9.94802 
-9.9816 -0.00273931 -0.326834 
-0.00273931 -9.96252 -0.00503884 
-0.326834 -0.00503884 -9.97119 
-9.68819 -0.175692 -0.182161 
-0.175692 -9.49645 -0.511819 
-0.182161 -0.511819 -9.36062 
-9.79678 0.204438 0.0499899 
0.204438 -10.381 -0.379631 
0.0499899 -0.379631 -8.36751 
-10.0259 0.164447 -0.0705098 
0.164447 -9.40938 -0.655056 
-0.0705098 -0.655056 -9.11001 
-9.16127 -0.0319166 0.340625 
-0.0319166 -9.66666 -0.113689 
0.340625 -0.113689 -9.71733 
-9.14936 0.290293 0.0592046 
0.290293 -9.4904 -0.128947 
0.0592046 -0.128947 -9.74447 
-9.06896 0.47309 0.446065 
0.47309 -9.94425 0.230552 
0.446065 0.230552 -9.37102 
-9.82889 0.363242 -0.331227 
0.363242 -9.63137 0.16394 
-0.331227 0.16394 -8.92397 
-9.04945 -0.150008 0.338048 
-0.150008 -9.5488 0.143651 
0.338048 0.143651 -9.78598 
-10.0883 0.472211 -0.164383 
0.472211 -8.69725 -0.567984 
-0.164383 -0.567984 -10.7552 
-10.4902 0.0193782 0.444193 
0.0193782 -8.57229 -0.54409 
0.444193 -0.54409 -10.4783 
-9.87366 0.305632 -0.185337 
0.305632 -9.49656 -0.657894 
-0.185337 -0.657894 -10.1705 
-9.84311 0.789666 -0.527724 
0.789666 -8.63145 -1.32261 
-0.527724 -1.32261 -11.0662 
-9.23782 -0.0421249 0.278625 
-0.0421249 -9.70246 -0.00351625 
0.278625 -0.00351625 -9.6583 
-9.22733 -0.0424875 0.425791 
-0.0424875 -9.6889 -0.0664031 
0.425791 -0.0664031 -9.68235 
-9.63737 -0.0120303 0.240681 
-0.0120303 -9.4518 -0.0271523 
0.240681 -0.0271523 -9.50941 
-9.43583 -0.225983 0.322418 
-0.225983 -9.49487 -0.0891156 
0.322418 -0.0891156 -9.66788 
-3.42726 0.0074405 -0.502059 
0.0074405 -2.49086 0.242336 
-0.502059 0.242336 -1.37292 
-4.69985 0.491221 1.49974 
0.491221 -4.59835 -0.354577 
1.49974 -0.354577 2.00716 
-2.89461 0.136096 -0.717694 
0.136096 -2.09226 0.224397 
-0.717694 0.224397 -2.30417 
-5.69816 1.00556 -2.02942 
1.00556 -1.94763 0.596526 
-2.02942 0.596526 0.354745 
-9.4668 -0.523716 0.275058 
-0.523716 -9.019 -0.33706 
0.275058 -0.33706 -10.1725 
-9.50055 -0.505294 0.302218 
-0.505294 -9.36875 -0.392473 
0.302218 -0.392473 -9.78895 
-9.60948 -0.284285 0.122063 
-0.284285 -9.04849 -0.218274 
0.122063 -0.218274 -10.0003 
-9.45389 -0.455918 0.230072 
-0.455918 -9.04317 -0.270013 
0.230072 -0.270013 -10.1612 
-9.53405 0.012668 -0.0525888 
0.012668 -9.39624 -0.101554 
-0.0525888 -0.101554 -9.94771 
-9.53703 0.119855 -0.0536531 
0.119855 -9.33572 -0.0168336 
-0.0536531 -0.0168336 -10.0052 
-9.61835 0.0254922 -0.123056 
0.0254922 -9.3362 -0.217177 
-0.123056 -0.217177 -9.92345 
-9.52814 -0.0555633 0.0105398 
-0.0555633 -9.49101 -0.0548597 
0.0105398 -0.0548597 -9.85885 
-9.87382 -0.0131561 0.026558 
-0.0131561 -9.89289 0.330395 
0.026558 0.330395 -9.88109 
-9.87103 -0.00295067 0.0285144 
-0.00295067 -9.89399 0.339233 
0.0285144 0.339233 -9.88278 
-9.87887 -0.0020036 0.030655 
-0.0020036 -9.87412 0.321506 
0.030655 0.321506 -9.8948 
-9.88626 -0.00431195 0.0134219 
-0.00431195 -9.89377 0.343519 
0.0134219 0.343519 -9.86777 
-12.2915 -0.843637 -0.282787 
-0.843637 -11.1461 -0.140171 
-0.282787 -0.140171 -13.4559 
-10.698 0.244797 -0.227224 
0.244797 -11.9905 -0.0438421 
-0.227224 -0.0438421 -14.2049 
-13.0438 1.71014 0.0913409 
1.71014 -9.43482 1.1649 
0.0913409 1.1649 -14.4149 
-12.9245 0.137198 -0.0875427 
0.137198 -11.1546 -0.0821252 
-0.0875427 -0.0821252 -12.8144 
-9.42266 0.00997816 -0.351189 
0.00997816 -9.55297 -0.016326 
-0.351189 -0.016326 -9.55271 
-9.45962 0.0301933 -0.341537 
0.0301933 -9.55375 -0.0654607 
-0.341537 -0.0654607 -9.51497 
-9.48037 0.01607 -0.348255 
0.01607 -9.50234 -0.0610059 
-0.348255 -0.0610059 -9.54563 
-9.49055 0.0508431 -0.364633 
0.0508431 -9.53529 -0.0704393 
-0.364633 -0.0704393 -9.5025 
-9.57755 -0.162534 0.234792 
-0.162534 -9.70765 -0.151772 
0.234792 -0.151772 -9.80723 
-9.62508 -0.0384223 0.168242 
-0.0384223 -9.71508 -0.0842813 
0.168242 -0.0842813 -9.75227 
-9.55403 -0.10343 0.196981 
-0.10343 -9.75591 -0.103891 
0.196981 -0.103891 -9.78249 
-9.60131 -0.057459 0.137651 
-0.057459 -9.72252 -0.0615714 
0.137651 -0.0615714 -9.7686 
-10.0071 -0.051813 0.113439 
-0.051813 -9.50255 0.121619 
0.113439 0.121619 -10.9259 
-9.91948 0.295486 -0.0557576 
0.295486 -9.9307 -0.0368502 
-0.0557576 -0.0368502 -10.5853 
-10.341 -0.0294556 0.00862531 
-0.0294556 -9.65426 -0.215676 
0.00862531 -0.215676 -10.4402 
-9.70142 0.343839 -0.305954 
0.343839 -9.94623 -0.244887 
-0.305954 -0.244887 -10.7878 
-9.47218 -0.0199059 -0.04517 
-0.0199059 -9.57552 -0.297769 
-0.04517 -0.297769 -9.13991 
-9.43971 -0.116461 0.0156669 
-0.116461 -9.56447 -0.239856 
0.0156669 -0.239856 -9.18344 
-9.46824 -0.218381 0.0849085 
-0.218381 -9.6211 -0.272436 
0.0849085 -0.272436 -9.09827 
-9.39743 -0.0570232 -0.0643778 
-0.0570232 -9.71574 -0.186433 
-0.0643778 -0.186433 -9.07444 
-9.95857 0.010139 -0.00225899 
0.010139 -9.97644 0.342537 
-0.00225899 0.342537 -9.97556 
-9.93896 0.00129573 -0.00171111 
0.00129573 -9.9408 0.341726 
-0.00171111 0.341726 -10.0308 
-9.96131 -0.000795796 -0.0019483 
-0.000795796 -9.9802 0.341202 
-0.0019483 0.341202 -9.96905 
-9.97572 -0.00185881 -0.00265098 
-0.00185881 -9.97864 0.351106 
-0.00265098 0.351106 -9.9562 
-9.98222 0.00760634 -0.192404 
0.00760634 -9.96287 0.164387 
-0.192404 0.164387 -9.96739 
-9.9373 0.00393596 -0.182422 
0.00393596 -9.93493 0.161055 
-0.182422 0.161055 -10.0403 
-9.97802 0.0128915 -0.189069 
0.0128915 -9.97066 0.1659 
-0.189069 0.1659 -9.9638 
-9.98269 0.00329836 -0.20339 
0.00329836 -9.98374 0.174818 
-0.20339 0.174818 -9.94605 
-9.72872 -0.0520828 0.185569 
-0.0520828 -9.47381 -0.337868 
0.185569 -0.337868 -10.2271 
-9.77486 0.0763461 -0.0274185 
0.0763461 -9.65167 0.39637 
-0.0274185 0.39637 -10.0032 
-10.1927 -0.218941 0.0980247 
-0.218941 -9.16792 -0.17023 
0.0980247 -0.17023 -10.069 
-10.1099 -0.288134 0.055363 
-0.288134 -8.93407 -0.0300703 
0.055363 -0.0300703 -10.3857 
-11.6867 -0.359918 -0.190737 
-0.359918 -11.478 0.37911 
-0.190737 0.37911 -12.3919 
-11.5034 -0.0699696 -0.397082 
-0.0699696 -11.0382 0.14251 
-0.397082 0.14251 -13.015 
-12.2177 -0.0174465 -0.150199 
-0.0174465 -11.4192 0.300041 
-0.150199 0.300041 -11.9196 
-11.9653 -0.194544 -0.0745019 
-0.194544 -11.5144 0.247322 
-0.0745019 0.247322 -12.0769 
-9.58196 0.0501682 0.0419544 
0.0501682 -9.54558 0.257543 
0.0419544 0.257543 -9.54977 
-9.49227 -0.15063 0.128247 
-0.15063 -9.73598 0.280748 
0.128247 0.280748 -9.44906 
-9.42012 -0.169911 0.187526 
-0.169911 -9.6625 0.328333 
0.187526 0.328333 -9.59468 
-9.40416 0.0427679 0.342575 
0.0427679 -9.75728 0.266949 
0.342575 0.266949 -9.51586 
-9.96695 0.00436692 -0.0242956 
0.00436692 -9.96594 -0.0625401 
-0.0242956 -0.0625401 -9.97374 
-9.96437 0.00748661 -0.0331731 
0.00748661 -9.95308 -0.0633322 
-0.0331731 -0.0633322 -9.98918 
-9.96036 0.00148456 -0.0142385 
0.00148456 -9.94337 -0.0667152 
-0.0142385 -0.0667152 -10.0029 
-9.97107 -0.00109229 -0.0290695 
-0.00109229 -9.97486 -0.0640753 
-0.0290695 -0.0640753 -9.9607 
-9.99575 0.201874 0.079696 
0.201874 -10.1846 -0.239436 
0.079696 -0.239436 -9.79434 
-9.89696 0.0616625 0.00440906 
0.0616625 -10.2404 -0.0191457 
0.00440906 -0.0191457 -9.8373 
-10.0191 -0.0550653 -0.000928164 
-0.0550653 -9.69835 0.109803 
-0.000928164 0.109803 -10.2572 
-9.8303 0.0381296 -0.0873608 
0.0381296 -10.0135 0.00856174 
-0.0873608 0.00856174 -10.1309 
-10.2129 0.135109 -0.043608 
0.135109 -10.2471 -0.0367364 
-0.043608 -0.0367364 -10.3285 
-10.221 -0.0493774 0.0214058 
-0.0493774 -10.3671 0.0505952 
0.0214058 0.0505952 -10.2003 
-10.2721 0.00568863 -0.0343742 
0.00568863 -10.2205 0.0197614 
-0.0343742 0.0197614 -10.2958 
-10.26 0.0213492 -0.00703488 
0.0213492 -10.2973 0.026598 
-0.00703488 0.026598 -10.2312 
-9.9861 0.00166887 0.32907 
0.00166887 -9.96581 0.00136241 
0.32907 0.00136241 -9.96376 
-9.93096 -5.6255e-05 0.333045 
-5.6255e-05 -9.93261 -0.000346718 
0.333045 -0.000346718 -10.0521 
-9.98398 0.00302265 0.347489 
0.00302265 -9.9848 0.00122736 
0.347489 0.00122736 -9.94688 
-9.98175 -0.0101471 0.331603 
-0.0101471 -9.96388 -0.00121238 
0.331603 -0.00121238 -9.97004 
-10.7745 -0.36129 -0.0472723 
-0.36129 -10.24 0.0822627 
-0.0472723 0.0822627 -11.8666 
-9.49347 -0.436275 -0.469904 
-0.436275 -11.6179 0.0439177 
-0.469904 0.0439177 -11.7698 
-10.8665 1.06135 0.129992 
1.06135 -11.0788 -0.129059 
0.129992 -0.129059 -10.9359 
-10.4981 0.0420489 -0.031404 
0.0420489 -11.1998 0.162091 
-0.031404 0.162091 -11.1832 
-9.6073 0.207315 0.475862 
0.207315 -9.68942 0.532048 
0.475862 0.532048 -12.7534 
-11.5909 -1.79644 -1.40062 
-1.79644 -12.3721 -0.350194 
-1.40062 -0.350194 -8.0871 
-8.03798 0.399805 -0.453749 
0.399805 -10.9968 0.199707 
-0.453749 0.199707 -13.0153 
-9.77308 -0.193546 -0.164983 
-0.193546 -10.8473 -1.20475 
-0.164983 -1.20475 -11.4298 
-9.44993 0.0508487 -0.655623 
0.0508487 -9.13843 0.451569 
-0.655623 0.451569 -6.62817 
-9.49472 -0.342458 -0.454944 
-0.342458 -9.23075 0.0439051 
-0.454944 0.0439051 -6.49106 
-9.10856 -0.734219 -0.0474192 
-0.734219 -9.35598 0.93513 
-0.0474192 0.93513 -6.75198 
-9.22089 0.352389 -0.632222 
0.352389 -8.70213 0.547643 
-0.632222 0.547643 -7.2935 
-10.0623 0.108824 1.35645 
0.108824 -9.13718 1.44053 
1.35645 1.44053 -8.89435 
-10.3267 0.147062 0.795101 
0.147062 -9.04308 1.58852 
0.795101 1.58852 -8.72402 
-8.47621 -0.184965 0.233154 
-0.184965 -10.0567 -0.995724 
0.233154 -0.995724 -9.56093 
-10.6794 -0.0742693 0.772681 
-0.0742693 -9.71619 1.69191 
0.772681 1.69191 -7.69826 
-9.65863 -0.02606 0.0197489 
-0.02606 -9.22375 -0.00287287 
0.0197489 -0.00287287 -9.55543 
-9.44317 -0.0519816 0.197833 
-0.0519816 -9.39539 -0.188339 
0.197833 -0.188339 -9.59925 
-9.26717 -0.0591459 0.185688 
-0.0591459 -9.49703 -0.135479 
0.185688 -0.135479 -9.67362 
-9.65634 -0.13415 0.51167 
-0.13415 -9.50288 -0.076653 
0.51167 -0.076653 -9.27859 
-9.58786 -0.061645 0.158466 
-0.061645 -9.13201 -1.06823 
0.158466 -1.06823 -9.49308 
-9.72619 -0.0803806 0.0538692 
-0.0803806 -8.92588 -0.585239 
0.0538692 -0.585239 -9.56086 
-9.52719 0.0104255 -0.0490394 
0.0104255 -9.09621 -0.662608 
-0.0490394 -0.662608 -9.58954 
-8.93421 0.0932621 0.169979 
0.0932621 -9.82465 -0.439485 
0.169979 -0.439485 -9.45408 
-8.98201 -0.386111 0.103493 
-0.386111 -10.06 0.912535 
0.103493 0.912535 -9.38826 
-9.75084 -0.0695368 0.621104 
-0.0695368 -9.27747 -1.30236 
0.621104 -1.30236 -9.40199 
-7.80904 -0.37511 0.402661 
-0.37511 -10.3193 -1.1496 
0.402661 -1.1496 -10.302 
-9.31938 -1.3604 2.0158 
-1.3604 -11.3026 0.307693 
2.0158 0.307693 -7.80835 
-9.90103 0.00205411 -0.282668 
0.00205411 -9.92043 -0.17625 
-0.282668 -0.17625 -9.89135 
-9.89822 0.000910498 -0.260878 
0.000910498 -9.90318 -0.185414 
-0.260878 -0.185414 -9.91141 
-9.90525 0.000835007 -0.273451 
0.000835007 -9.92482 -0.178646 
-0.273451 -0.178646 -9.88274 
-9.91407 -0.00786485 -0.294193 
-0.00786485 -9.93994 -0.165235 
-0.294193 -0.165235 -9.85879 
-9.9337 0.00254072 -0.158664 
0.00254072 -9.914 0.262276 
-0.158664 0.262276 -9.95818 
-9.92914 -0.00751173 -0.177198 
-0.00751173 -9.93109 0.26679 
-0.177198 0.26679 -9.94566 
-9.94388 -0.0123489 -0.176394 
-0.0123489 -9.93326 0.288491 
-0.176394 0.288491 -9.92874 
-9.92121 0.0141905 -0.192759 
0.0141905 -9.98317 0.280224 
-0.192759 0.280224 -9.9015 
-18.6489 -1.09446 -0.507522 
-1.09446 -7.88439 -3.13998 
-0.507522 -3.13998 -8.26636 
-8.76574 1.90649 0.567607 
1.90649 -2.52762 2.49476 
0.567607 2.49476 -23.5063 
-8.71286 5.88127 -0.970668 
5.88127 -2.65565 3.54765 
-0.970668 3.54765 -23.4311 
-9.263 0.0984514 2.73592 
0.0984514 -13.0498 4.19525 
2.73592 4.19525 -12.4868 
-9.63744 0.0157142 -0.0550846 
0.0157142 -9.58597 -0.0226678 
-0.0550846 -0.0226678 -9.66961 
-9.70772 0.0360646 -0.0248978 
0.0360646 -9.62455 -0.00288798 
-0.0248978 -0.00288798 -9.56074 
-9.63311 0.0304568 -0.0559662 
0.0304568 -9.58753 0.0166458 
-0.0559662 0.0166458 -9.67238 
-9.72394 -0.0190882 -0.186059 
-0.0190882 -9.5232 0.0233744 
-0.186059 0.0233744 -9.64587 
-9.95289 -0.000134402 -0.0682023 
-0.000134402 -9.94917 -0.0353505 
-0.0682023 -0.0353505 -10.0069 
-9.96264 -0.00901082 -0.0621433 
-0.00901082 -9.96626 -0.0296841 
-0.0621433 -0.0296841 -9.98008 
-9.95459 -0.00139784 -0.0680952 
-0.00139784 -9.97287 -0.028219 
-0.0680952 -0.028219 -9.98153 
-9.9768 -0.00100864 -0.0617578 
-0.00100864 -9.97025 -0.0253957 
-0.0617578 -0.0253957 -9.96193 
-9.34722 0.502491 -0.342408 
0.502491 -9.83146 0.160902 
-0.342408 0.160902 -10.2312 
-10.0906 0.939629 -0.599807 
0.939629 -9.68893 -1.3875 
-0.599807 -1.3875 -9.6303 
-10.2146 0.325789 0.25652 
0.325789 -8.81082 -0.991612 
0.25652 -0.991612 -10.3845 
-9.97692 0.366002 -0.0912093 
0.366002 -9.43284 -1.10563 
-0.0912093 -1.10563 -10.0001 
-9.73706 0.0300713 0.262491 
0.0300713 -9.771 0.224816 
0.262491 0.224816 -9.82122 
-9.79548 -0.0117901 0.277729 
-0.0117901 -9.79257 0.248831 
0.277729 0.248831 -9.74122 
-9.77498 0.0141028 0.258404 
0.0141028 -9.77439 0.22628 
0.258404 0.22628 -9.7799 
-9.77912 -0.0134241 0.242994 
-0.0134241 -9.79431 0.244527 
0.242994 0.244527 -9.75584 
-11.4061 0.0774879 0.277157 
0.0774879 -11.7004 0.330848 
0.277157 0.330848 -11.8502 
-9.83253 0.978699 0.517107 
0.978699 -10.4759 0.438968 
0.517107 0.438968 -14.6483 
-11.4366 0.690446 0.0535128 
0.690446 -11.2257 0.269621 
0.0535128 0.269621 -12.2945 
-11.181 0.824191 0.22319 
0.824191 -11.3555 -0.163763 
0.22319 -0.163763 -12.4202 
-9.93192 0.0068845 0.319341 
0.0068845 -9.935 0.129018 
0.319341 0.129018 -9.93143 
-9.93733 -0.0037849 0.335287 
-0.0037849 -9.93901 0.125369 
0.335287 0.125369 -9.92199 
-9.91083 0.0372059 0.312146 
0.0372059 -9.92651 0.136292 
0.312146 0.136292 -9.961 
-9.93856 -0.00760431 0.325768 
-0.00760431 -9.92689 0.121983 
0.325768 0.121983 -9.9329 
-9.42577 -0.192551 0.0854192 
-0.192551 -10.4264 -0.0747079 
0.0854192 -0.0747079 -10.6131 
-9.88118 0.678451 -0.104542 
0.678451 -9.28698 0.0124088 
-0.104542 0.0124088 -11.2971 
-9.76614 0.253908 0.0256479 
0.253908 -9.89706 0.347005 
0.0256479 0.347005 -10.802 
-9.72551 0.519862 0.290533 
0.519862 -10.0444 0.333891 
0.290533 0.333891 -10.6953 
-9.77335 0.180903 0.0622472 
0.180903 -9.7998 -0.0897946 
0.0622472 -0.0897946 -10.1196 
-9.63784 0.258286 0.0968996 
0.258286 -9.86717 -0.0981321 
0.0968996 -0.0981321 -10.1877 
-9.95133 0.187119 -0.0420444 
0.187119 -9.70414 0.00218453 
-0.0420444 0.00218453 -10.0372 
-9.81069 0.22901 -0.0372566 
0.22901 -9.93243 0.0313921 
-0.0372566 0.0313921 -9.9496 
-9.51502 0.497106 0.708395 
0.497106 -9.87891 0.711172 
0.708395 0.711172 -9.82892 
-9.6587 0.323293 0.570939 
0.323293 -10.0765 0.375545 
0.570939 0.375545 -9.48762 
-9.51232 -0.13789 0.0484749 
-0.13789 -9.90757 0.30975 
0.0484749 0.30975 -9.80296 
-9.10992 -0.346461 0.86568 
-0.346461 -10.5248 0.272304 
0.86568 0.272304 -9.58807 
-9.53968 -0.0983694 -0.0172765 
-0.0983694 -9.62661 -0.118736 
-0.0172765 -0.118736 -9.51002 
-9.54156 -0.0453629 0.0177438 
-0.0453629 -9.73035 -0.173002 
0.0177438 -0.173002 -9.4044 
-9.5286 -0.0739441 -0.0124412 
-0.0739441 -9.65803 -0.117664 
-0.0124412 -0.117664 -9.48968 
-9.53066 -0.0127637 -0.0956444 
-0.0127637 -9.65607 -0.12201 
-0.0956444 -0.12201 -9.48958 
-9.82268 -0.0122069 -0.0790652 
-0.0122069 -9.8323 -0.072154 
-0.0790652 -0.072154 -9.83274 
-9.8339 -0.0128807 -0.0690358 
-0.0128807 -9.82867 -0.0512747 
-0.0690358 -0.0512747 -9.82515 
-9.81797 -0.00988614 -0.0944498 
-0.00988614 -9.80166 -0.0833862 
-0.0944498 -0.0833862 -9.86809 
-9.8223 -0.0183909 -0.0747433 
-0.0183909 -9.83502 -0.0712076 
-0.0747433 -0.0712076 -9.8304 
-9.65978 0.00158898 -0.016395 
0.00158898 -9.63735 -0.0163529 
-0.016395 -0.0163529 -9.84867 
-9.66249 0.00280093 -0.057658 
0.00280093 -9.63883 -0.0269738 
-0.057658 -0.0269738 -9.84448 
-9.66237 0.0268085 -0.00771778 
0.0268085 -9.64236 -0.000980432 
-0.00771778 -0.000980432 -9.84107 
-9.66047 -0.00256577 -0.0213891 
-0.00256577 -9.66172 -0.0340419 
-0.0213891 -0.0340419 -9.8236 
-9.5771 -0.0525795 -0.303427 
-0.0525795 -9.5881 -0.180711 
-0.303427 -0.180711 -9.56661 
-9.54336 0.00985299 -0.303449 
0.00985299 -9.5956 -0.212286 
-0.303449 -0.212286 -9.59285 
-9.52319 0.0190484 -0.297112 
0.0190484 -9.59485 -0.197744 
-0.297112 -0.197744 -9.61377 
-9.57242 0.00441384 -0.309388 
0.00441384 -9.55578 -0.20747 
-0.309388 -0.20747 -9.60361 
-9.8486 -0.00434229 0.233172 
-0.00434229 -9.84937 -0.245058 
0.233172 -0.245058 -9.83644 
-9.89535 0.0420935 0.273513 
0.0420935 -9.87012 -0.230874 
0.273513 -0.230874 -9.76895 
-9.79732 -0.0183411 0.26391 
-0.0183411 -9.80691 -0.247992 
0.26391 -0.247992 -9.93018 
-9.85674 -0.0124492 0.189799 
-0.0124492 -9.83342 -0.21634 
0.189799 -0.21634 -9.84425 
-8.3309 0.753154 0.729735 
0.753154 -10.7497 0.220574 
0.729735 0.220574 -11.226 
-8.32753 0.844146 1.02019 
0.844146 -10.4665 0.252246 
1.02019 0.252246 -11.5126 
-9.91965 0.156347 0.976246 
0.156347 -10.2599 0.278849 
0.976246 0.278849 -10.1271 
-8.22977 0.494298 0.72523 
0.494298 -10.9677 -0.305232 
0.72523 -0.305232 -11.1091 
-9.62261 -0.0416854 -0.0494489 
-0.0416854 -9.70171 -0.164033 
-0.0494489 -0.164033 -9.68864 
-9.6923 0.0558352 0.0319121 
0.0558352 -9.70644 -0.076263 
0.0319121 -0.076263 -9.61422 
-9.67156 0.0311301 -0.0146856 
0.0311301 -9.756 -0.102477 
-0.0146856 -0.102477 -9.5854 
-9.72855 -0.140817 0.135381 
-0.140817 -9.88302 -0.131623 
0.135381 -0.131623 -9.4014 
-9.47294 0.115865 0.213436 
0.115865 -9.63259 0.0536022 
0.213436 0.0536022 -9.7662 
-9.48323 0.0962079 0.221055 
0.0962079 -9.596 0.126898 
0.221055 0.126898 -9.7925 
-9.50863 0.117772 0.199268 
0.117772 -9.3949 -0.0222286 
0.199268 -0.0222286 -9.96819 
-9.51488 0.113846 0.235832 
0.113846 -9.57293 0.0782402 
0.235832 0.0782402 -9.78391 
-9.63036 0.0142735 0.160936 
0.0142735 -9.62084 0.312846 
0.160936 0.312846 -9.6117 
-9.62452 -0.00782827 0.142029 
-0.00782827 -9.64226 0.329725 
0.142029 0.329725 -9.59612 
-9.61291 0.0109806 0.165312 
0.0109806 -9.59281 0.324402 
0.165312 0.324402 -9.65719 
-9.62137 0.0183556 0.140349 
0.0183556 -9.62452 0.285111 
0.140349 0.285111 -9.61701 
-10.1 -0.511319 -1.79876 
-0.511319 -8.86523 -0.605657 
-1.79876 -0.605657 -8.35986 
-8.08518 -0.0938394 0.535116 
-0.0938394 -10.1535 0.475608 
0.535116 0.475608 -9.08645 
-10.3666 0.245279 -0.629604 
0.245279 -11.6556 -0.49553 
-0.629604 -0.49553 -5.30282 
-10.7067 0.470826 -1.07756 
0.470826 -9.02004 -0.919291 
-1.07756 -0.919291 -7.59834 
-9.95234 0.00800057 -0.149353 
0.00800057 -9.9886 0.308896 
-0.149353 0.308896 -9.98566 
-9.96346 0.00447329 -0.150658 
0.00447329 -9.964 0.29598 
-0.150658 0.29598 -9.99913 
-9.98096 0.00246728 -0.135704 
0.00246728 -9.98587 0.312398 
-0.135704 0.312398 -9.95977 
-9.97195 0.00700884 -0.140126 
0.00700884 -9.98329 0.304192 
-0.140126 0.304192 -9.97136 
-10.1744 -0.00265455 0.0211854 
-0.00265455 -10.2192 0.045907 
0.0211854 0.045907 -9.99708 
-10.1696 -0.157405 0.0494819 
-0.157405 -10.1593 0.0460772 
0.0494819 0.0460772 -10.0617 
-10.1704 -0.0466599 -0.0314505 
-0.0466599 -10.1883 -0.0117854 
-0.0314505 -0.0117854 -10.032 
-10.0571 -0.0155702 0.0729696 
-0.0155702 -9.90769 -0.116304 
0.0729696 -0.116304 -10.4259 
-9.58909 -0.0878292 0.325002 
-0.0878292 -9.49647 0.0644986 
0.325002 0.0644986 -9.30589 
-9.54508 -0.00650854 0.33741 
-0.00650854 -9.3744 0.0612907 
0.33741 0.0612907 -9.47197 
-9.31319 0.132188 0.179085 
0.132188 -9.4201 0.0406274 
0.179085 0.0406274 -9.65816 
-9.36679 0.0624438 0.29501 
0.0624438 -9.40747 0.162561 
0.29501 0.162561 -9.61719 
-9.64742 0.000600111 0.00958036 
0.000600111 -9.66317 0.0262995 
0.00958036 0.0262995 -9.83743 
-9.64635 0.00382548 0.0139855 
0.00382548 -9.66688 0.0202493 
0.0139855 0.0202493 -9.8348 
-9.65222 0.00218272 0.0200786 
0.00218272 -9.66363 0.0164791 
0.0200786 0.0164791 -9.83217 
-9.65532 0.0188799 0.0293573 
0.0188799 -9.64354 0.0383322 
0.0293573 0.0383322 -9.84916 
-9.67442 0.00191726 -0.154217 
0.00191726 -9.4998 -0.0557397 
-0.154217 -0.0557397 -10.1491 
-9.66525 0.000231489 -0.159556 
0.000231489 -9.70921 -0.170182 
-0.159556 -0.170182 -9.94881 
-9.589 -0.076489 -0.182523 
-0.076489 -9.76379 -0.17965 
-0.182523 -0.17965 -9.97048 
-9.69574 0.0736476 -0.125778 
0.0736476 -9.76624 -0.169597 
-0.125778 -0.169597 -9.86129 
-9.95519 -0.0227023 -0.283536 
-0.0227023 -9.94197 0.193834 
-0.283536 0.193834 -9.92264 
-9.94694 0.0160453 -0.29049 
0.0160453 -9.93039 0.183778 
-0.29049 0.183778 -9.94247 
-9.9346 -0.0462098 -0.289596 
-0.0462098 -9.91088 0.184608 
-0.289596 0.184608 -9.97431 
-9.93634 0.0172973 -0.29271 
0.0172973 -9.94976 0.193823 
-0.29271 0.193823 -9.9337 
-9.30796 -0.0581714 -0.287282 
-0.0581714 -9.97796 0.380702 
-0.287282 0.380702 -9.85901 
-9.30157 0.442911 -0.713332 
0.442911 -9.47881 -0.172499 
-0.713332 -0.172499 -10.3645 
-9.81994 0.0874823 0.545926 
0.0874823 -9.58203 -0.016397 
0.545926 -0.016397 -9.74296 
-9.54973 0.0135883 0.252259 
0.0135883 -9.38271 -0.902972 
0.252259 -0.902972 -10.2125 
-9.97487 0.0149602 -0.162545 
0.0149602 -9.97409 0.00751961 
-0.162545 0.00751961 -9.97392 
-9.98432 0.00670618 -0.165773 
0.00670618 -9.97151 0.00287491 
-0.165773 0.00287491 -9.96705 
-9.95934 0.00412274 -0.151745 
0.00412274 -9.93375 0.00682836 
-0.151745 0.00682836 -10.0298 
-9.99031 0.0031351 -0.179038 
0.0031351 -9.98114 0.00835223 
-0.179038 0.00835223 -9.95143 
-2.31649 -0.116678 0.803018 
-0.116678 -2.95555 0.877604 
0.803018 0.877604 -3.49631 
-4.89116 0.016775 -0.551952 
0.016775 -4.65441 -0.00344054 
-0.551952 -0.00344054 0.777217 
-4.54697 -0.105 0.231507 
-0.105 -4.79746 1.22407 
0.231507 1.22407 0.576074 
-4.12482 -1.01313 2.68751 
-1.01313 -3.2142 0.129816 
2.68751 0.129816 -1.42933 
-9.98572 -0.00421417 -0.279017 
-0.00421417 -9.9883 -0.18619 
-0.279017 -0.18619 -9.95595 
-9.98927 -0.00984797 -0.27089 
-0.00984797 -9.9603 -0.195953 
-0.27089 -0.195953 -9.9804 
-9.96627 -0.0017327 -0.257867 
-0.0017327 -9.95229 -0.206327 
-0.257867 -0.206327 -10.0114 
-9.98524 -0.00533938 -0.269994 
-0.00533938 -9.97562 -0.188514 
-0.269994 -0.188514 -9.96911 
-10.7467 -0.53095 -4.01097 
-0.53095 -19.9747 -1.17337 
-4.01097 -1.17337 -7.06726 
-4.36766 4.69067 2.32117 
4.69067 -9.73325 -1.15569 
2.32117 -1.15569 -23.6877 
-3.86618 1.7528 1.06051 
1.7528 -10.9463 1.17024 
1.06051 1.17024 -22.9761 
-14.7071 -0.648479 5.42339 
-0.648479 -11.3517 2.72616 
5.42339 2.72616 -11.7298 
-9.96878 0.0153265 0.0267281 
0.0153265 -9.96155 -0.152545 
0.0267281 -0.152545 -9.98716 
-9.95822 0.00514837 0.0495587 
0.00514837 -9.93052 -0.157363 
0.0495587 -0.157363 -10.0288 
-9.97484 0.0109518 0.0369807 
0.0109518 -9.98763 -0.157531 
0.0369807 -0.157531 -9.95502 
-9.97231 0.00186314 0.0316682 
0.00186314 -9.99689 -0.142927 
0.0316682 -0.142927 -9.94829 
-10.5679 -0.469962 0.968972 
-0.469962 -12.9526 0.317309 
0.968972 0.317309 -11.0179 
-8.74284 -0.571524 1.46826 
-0.571524 -10.2577 -0.767515 
1.46826 -0.767515 -15.5378 
-9.95478 -1.35616 0.818152 
-1.35616 -12.3782 0.14211 
0.818152 0.14211 -12.2055 
-9.82712 -0.598672 0.143609 
-0.598672 -12.6269 -0.47057 
0.143609 -0.47057 -12.0844 
-12.987 -0.356835 0.160371 
-0.356835 -11.8573 -0.548378 
0.160371 -0.548378 -10.5963 
-11.724 -0.843235 0.56664 
-0.843235 -10.4044 -0.928281 
0.56664 -0.928281 -13.3122 
-11.7195 -0.408046 0.0968112 
-0.408046 -10.4718 -0.980762 
0.0968112 -0.980762 -13.2492 
-11.8821 -0.38231 0.0615117 
-0.38231 -10.7857 -0.374156 
0.0615117 -0.374156 -12.7728 
-10.3728 0.281903 1.20239 
0.281903 -9.98075 -1.61768 
1.20239 -1.61768 6.66479 
0.784247 0.302176 1.18946 
0.302176 -5.38865 1.38618 
1.18946 1.38618 -9.08433 
-13.0526 3.92236 0.531448 
3.92236 -4.62163 -3.06214 
0.531448 -3.06214 3.98549 
-6.90884 -4.04139 6.75931 
-4.04139 -4.75864 -3.28903 
6.75931 -3.28903 -2.02127 
-9.94103 -0.00335054 0.129466 
-0.00335054 -9.94249 -0.31408 
0.129466 -0.31408 -9.93284 
-9.9367 -0.0451341 0.135955 
-0.0451341 -9.91307 -0.306462 
0.135955 -0.306462 -9.96659 
-9.92801 0.011887 0.121019 
0.011887 -9.95262 -0.314905 
0.121019 -0.314905 -9.93573 
-9.94667 0.00915397 0.121954 
0.00915397 -9.94432 -0.330152 
0.121954 -0.330152 -9.92537 
-9.09565 0.0792342 0.733888 
0.0792342 -8.62257 -1.48105 
0.733888 -1.48105 -6.42979 
-7.88743 -0.291915 -0.588163 
-0.291915 -9.59459 -0.697481 
-0.588163 -0.697481 -6.66599 
-8.67441 -0.266891 0.781705 
-0.266891 -8.33257 -1.19699 
0.781705 -1.19699 -7.14103 
-8.75537 -0.144881 0.621414 
-0.144881 -8.69172 -1.16508 
0.621414 -1.16508 -6.70092 
-11.0439 0.360634 -0.112526 
0.360634 -11.0631 -0.140395 
-0.112526 -0.140395 -10.9754 
-10.9562 -0.203035 -0.317232 
-0.203035 -10.4213 0.0685158 
-0.317232 0.0685158 -11.7049 
-10.6225 -0.128784 -0.0963117 
-0.128784 -10.8481 0.00450969 
-0.0963117 0.00450969 -11.6117 
-10.8159 -0.191864 0.0164073 
-0.191864 -10.9531 -0.394123 
0.0164073 -0.394123 -11.3132 
-10.8576 -0.0516158 -0.10808 
-0.0516158 -11.0351 0.0454895 
-0.10808 0.0454895 -11.874 
-11.2457 -0.0279373 -0.0585203 
-0.0279373 -11.2739 0.132577 
-0.0585203 0.132577 -11.2471 
-11.0332 -0.00475574 0.168413 
-0.00475574 -11.0485 0.0500528 
0.168413 0.0500528 -11.6851 
-11.195 -0.0482852 -0.0401636 
-0.0482852 -11.3624 0.311781 
-0.0401636 0.311781 -11.2093 
-9.60484 0.0599961 -0.0494495 
0.0599961 -8.70344 -0.0259208 
-0.0494495 -0.0259208 -9.99658 
-9.42038 0.127161 -0.125799 
0.127161 -9.26802 -0.305509 
-0.125799 -0.305509 -9.61647 
-8.9913 0.204495 -0.10437 
0.204495 -10.1269 -0.131018 
-0.10437 -0.131018 -9.18671 
-9.38326 0.0986684 -0.129604 
0.0986684 -9.21731 -0.652329 
-0.129604 -0.652329 -9.7043 
-9.7952 -0.0278944 -0.0642103 
-0.0278944 -9.77868 -0.0830484 
-0.0642103 -0.0830484 -9.78252 
-9.79319 -0.0223021 -0.0759457 
-0.0223021 -9.79037 -0.0947559 
-0.0759457 -0.0947559 -9.77284 
-9.7715 -0.0164081 -0.0717405 
-0.0164081 -9.78948 -0.0931511 
-0.0717405 -0.0931511 -9.79542 
-9.78629 -0.0183925 -0.091501 
-0.0183925 -9.81015 -0.0798767 
-0.091501 -0.0798767 -9.75996 
-9.54249 -0.0369719 -0.18139 
-0.0369719 -9.44713 0.287089 
-0.18139 0.287089 -9.53214 
-9.49688 -0.00487491 -0.21364 
-0.00487491 -9.49581 0.295006 
-0.21364 0.295006 -9.52908 
-9.48869 0.0139075 -0.214833 
0.0139075 -9.54786 0.300527 
-0.214833 0.300527 -9.48522 
-9.49301 -0.0249494 -0.193373 
-0.0249494 -9.47244 0.329185 
-0.193373 0.329185 -9.55632 
-9.54066 0.0257714 0.28599 
0.0257714 -9.56742 0.231619 
0.28599 0.231619 -9.64316 
-9.5994 -0.00285167 0.287619 
-0.00285167 -9.61385 0.254625 
0.287619 0.254625 -9.53799 
-9.58374 0.0110379 0.266123 
0.0110379 -9.59168 0.244689 
0.266123 0.244689 -9.57582 
-9.58694 -0.00296282 0.252813 
-0.00296282 -9.60321 0.24589 
0.252813 0.24589 -9.5611 
-9.28121 0.212539 0.915048 
0.212539 -9.62423 0.297324 
0.915048 0.297324 -10.3206 
-9.6824 0.194768 0.359863 
0.194768 -10.0145 0.299442 
0.359863 0.299442 -9.52918 
-9.45818 0.384996 0.389977 
0.384996 -9.63752 0.169876 
0.389977 0.169876 -10.1303 
-9.08995 0.0343916 -0.0376457 
0.0343916 -9.19999 -0.164692 
-0.0376457 -0.164692 -10.9361 
-9.9549 0.000439545 0.180464 
0.000439545 -9.9773 0.184078 
0.180464 0.184078 -10.0056 
-9.98289 -0.000518411 0.172987 
-0.000518411 -9.99176 0.196205 
0.172987 0.196205 -9.9632 
-9.95271 -0.00885534 0.180789 
-0.00885534 -9.98391 0.20402 
0.180789 0.20402 -10.0012 
-9.99508 -0.00133794 0.180052 
-0.00133794 -9.98619 0.196343 
0.180052 0.196343 -9.95658 
-9.76482 0.00520741 0.0206302 
0.00520741 -9.78238 0.0255799 
0.0206302 0.0255799 -9.88133 
-9.77435 -0.00231626 0.030343 
-0.00231626 -9.77547 0.0272136 
0.030343 0.0272136 -9.87871 
-9.76816 0.000396517 0.0175167 
0.000396517 -9.76995 0.0261244 
0.0175167 0.0261244 -9.89042 
-9.77147 -0.0163845 0.034706 
-0.0163845 -9.78263 0.0137493 
0.034706 0.0137493 -9.87443 
-9.3716 -0.261058 0.280961 
-0.261058 -9.8071 0.220715 
0.280961 0.220715 -10.5246 
-9.85298 -0.0453705 -0.249984 
-0.0453705 -9.94493 -0.175953 
-0.249984 -0.175953 -9.90544 
-10.3802 0.057274 0.107267 
0.057274 -9.40524 0.0280805 
0.107267 0.0280805 -9.91795 
-10.1134 -0.122854 -0.127799 
-0.122854 -9.44441 -0.294757 
-0.127799 -0.294757 -10.1455 
-9.95754 -0.0886148 0.603888 
-0.0886148 -9.24487 -0.416103 
0.603888 -0.416103 -8.63903 
-9.59814 0.136829 0.72794 
0.136829 -9.48697 0.000570313 
0.72794 0.000570313 -8.75633 
-9.40204 -0.170359 0.663257 
-0.170359 -9.72661 -0.140529 
0.663257 -0.140529 -8.71279 
-9.02684 -0.461829 0.898884 
-0.461829 -10.3299 -0.0138362 
0.898884 -0.0138362 -8.48467 
-9.91456 0.00917086 0.143054 
0.00917086 -9.943 0.309223 
0.143054 0.309223 -9.90551 
-9.91616 0.021627 0.139796 
0.021627 -9.91388 0.300836 
0.139796 0.300836 -9.93302 
-9.91804 0.0123377 0.0972619 
0.0123377 -9.9115 0.326151 
0.0972619 0.326151 -9.93351 
-9.91514 0.00256122 0.0859599 
0.00256122 -9.93861 0.323454 
0.0859599 0.323454 -9.9093 
-4.33749 0.286096 0.247676 
0.286096 -4.85169 0.655245 
0.247676 0.655245 -1.7631 
-4.86865 1.09001 0.493033 
1.09001 -1.22435 0.0448589 
0.493033 0.0448589 -4.85928 
-5.48603 -0.0741008 1.15105 
-0.0741008 -6.77097 -1.53845 
1.15105 -1.53845 1.30472 
-2.48656 0.773816 1.77138 
0.773816 -5.22172 2.20789 
1.77138 2.20789 -3.244 
-9.41233 -0.191267 0.190424 
-0.191267 -9.59689 -0.150512 
0.190424 -0.150512 -9.83101 
-9.2245 -0.195366 0.149042 
-0.195366 -9.70994 -0.0700864 
0.149042 -0.0700864 -9.90579 
-9.78732 0.0874808 0.175463 
0.0874808 -9.42333 -0.00149744 
0.175463 -0.00149744 -9.62958 
-9.47524 -0.0856356 0.387497 
-0.0856356 -9.67171 -0.130385 
0.387497 -0.130385 -9.69328 
-9.68697 0.00223567 0.018164 
0.00223567 -9.63464 -0.0163516 
0.018164 -0.0163516 -9.85392 
-9.63237 -0.0224926 -0.00441067 
-0.0224926 -9.6764 0.012682 
-0.00441067 0.012682 -9.86675 
-9.6584 0.00308888 -0.000567238 
0.00308888 -9.62851 -0.00740571 
-0.000567238 -0.00740571 -9.88862 
-9.60694 0.00400012 0.0449347 
0.00400012 -9.67929 -0.0234543 
0.0449347 -0.0234543 -9.8893 
-9.75611 -0.0980411 0.056715 
-0.0980411 -9.60117 -0.237702 
0.056715 -0.237702 -9.74266 
-9.62088 0.0586362 0.00566089 
0.0586362 -9.43678 -0.161405 
0.00566089 -0.161405 -10.0423 
-9.73179 0.128259 -0.190488 
0.128259 -9.50778 -0.0656492 
-0.190488 -0.0656492 -9.86037 
-9.60845 -0.024588 -0.0047325 
-0.024588 -9.58369 -0.159018 
-0.0047325 -0.159018 -9.90779 
-9.95654 -0.00418385 0.211667 
-0.00418385 -9.94286 0.265074 
0.211667 0.265074 -10.0244 
-9.98859 -0.00582532 0.244836 
-0.00582532 -9.97839 0.247175 
0.244836 0.247175 -9.9568 
-9.98618 -0.0117564 0.228765 
-0.0117564 -9.972 0.245718 
0.228765 0.245718 -9.9656 
-9.97212 -0.0141844 0.226836 
-0.0141844 -9.97885 0.250187 
0.226836 0.250187 -9.97281 
-9.57794 0.812424 -0.292295 
0.812424 -10.9311 -0.275921 
-0.292295 -0.275921 -12.0571 
-11.5648 0.485262 0.035152 
0.485262 -9.82268 -0.0444889 
0.035152 -0.0444889 -11.1787 
-10.4337 -0.195181 -0.099012 
-0.195181 -10.8769 -0.148768 
-0.099012 -0.148768 -11.2555 
-10.5767 0.329588 -0.106801 
0.329588 -10.7653 -0.100148 
-0.106801 -0.100148 -11.2242 
-13.2742 -2.19004 -0.787562 
-2.19004 -4.78257 4.61648 
-0.787562 4.61648 -1.8112 
-10.7832 -3.40931 -4.2013 
-3.40931 -3.51905 -3.7024 
-4.2013 -3.7024 -5.5657 
-5.42621 1.15534 -2.46214 
1.15534 -10.2518 0.213425 
-2.46214 0.213425 -4.18999 
-5.66567 1.28848 -2.35627 
1.28848 -10.8482 -1.18579 
-2.35627 -1.18579 -3.35405 
-9.55105 0.0676739 0.0871093 
0.0676739 -9.7404 -0.0363283 
0.0871093 -0.0363283 -9.51088 
-9.52223 0.0537467 -0.00988032 
0.0537467 -9.55026 -0.0589554 
-0.00988032 -0.0589554 -9.72983 
-9.55284 0.18814 0.0823002 
0.18814 -9.67206 0.0114187 
0.0823002 0.0114187 -9.57742 
-9.31938 -0.0269895 0.135272 
-0.0269895 -9.8624 -0.163512 
0.135272 -0.163512 -9.62055 
-9.85628 0.0948625 0.0110351 
0.0948625 -9.28864 -0.0428035 
0.0110351 -0.0428035 -9.82065 
-9.89893 -0.155132 -0.303574 
-0.155132 -9.31622 0.198276 
-0.303574 0.198276 -9.75041 
-9.52024 -0.113643 0.098719 
-0.113643 -9.61735 0.224202 
0.098719 0.224202 -9.82798 
-9.56824 0.0221919 0.261168 
0.0221919 -9.06007 0.333684 
0.261168 0.333684 -10.3373 
-9.41401 -0.0313194 -0.0412054 
-0.0313194 -9.47339 -0.0178925 
-0.0412054 -0.0178925 -9.64694 
-9.56581 -0.137522 0.00992994 
-0.137522 -9.64214 -0.133219 
0.00992994 -0.133219 -9.3264 
-9.54946 -0.191234 -0.00358372 
-0.191234 -9.66724 -0.249606 
-0.00358372 -0.249606 -9.31765 
-9.4055 -0.120384 0.272836 
-0.120384 -9.90821 -0.0806036 
0.272836 -0.0806036 -9.22064 
-9.89401 -0.0423888 0.120452 
-0.0423888 -9.58356 0.0578768 
0.120452 0.0578768 -9.81064 
-9.30342 0.206757 0.0138797 
0.206757 -9.91055 0.0405672 
0.0138797 0.0405672 -10.0742 
-9.6383 0.00785343 0.127347 
0.00785343 -9.76401 0.0510841 
0.127347 0.0510841 -9.8859 
-9.66306 -0.17538 0.236767 
-0.17538 -9.69985 0.127332 
0.236767 0.127332 -9.9253 
-9.74607 -0.00730717 -0.325125 
-0.00730717 -9.72544 -0.100494 
-0.325125 -0.100494 -9.61351 
-9.70567 -0.00840362 -0.268412 
-0.00840362 -9.66747 -0.110676 
-0.268412 -0.110676 -9.71189 
-9.64607 -0.0110721 -0.307858 
-0.0110721 -9.64599 -0.146342 
-0.307858 -0.146342 -9.79296 
-9.70536 0.00790034 -0.284609 
0.00790034 -9.67859 -0.089426 
-0.284609 -0.089426 -9.70108 
-5.03231 -0.411473 -1.25584 
-0.411473 -6.02871 -2.02652 
-1.25584 -2.02652 -1.19924 
-2.80501 0.35191 -1.00302 
0.35191 -3.14981 -0.299072 
-1.00302 -0.299072 -6.30543 
-9.55749 -1.61053 0.47695 
-1.61053 -7.70198 -1.26213 
0.47695 -1.26213 4.99922 
-4.99173 -0.611453 -4.86554 
-0.611453 -4.32836 -4.24773 
-4.86554 -4.24773 -2.94016 
-9.96068 0.0102189 0.153758 
0.0102189 -9.94482 -0.298065 
0.153758 -0.298065 -10.0388 
-9.99174 0.0155361 0.17775 
0.0155361 -9.98901 -0.27151 
0.17775 -0.27151 -9.96355 
-9.9937 0.00716055 0.199841 
0.00716055 -9.99631 -0.281143 
0.199841 -0.281143 -9.95429 
-9.97306 0.015696 0.177411 
0.015696 -9.99941 -0.273846 
0.177411 -0.273846 -9.97184 
-14.4219 0.878443 -0.32032 
0.878443 -12.207 -0.659689 
-0.32032 -0.659689 -17.0572 
-14.3685 1.01002 -0.118335 
1.01002 -11.2727 -1.40492 
-0.118335 -1.40492 -18.0449 
-14.838 1.2376 -0.275959 
1.2376 -12.7503 -0.919709 
-0.275959 -0.919709 -16.0978 
-15.9563 0.808451 -1.23765 
0.808451 -12.39 -2.58224 
-1.23765 -2.58224 -15.3397 
-10.2026 0.024447 0.311385 
0.024447 -8.92589 -0.0821455 
0.311385 -0.0821455 -13.8873 
-9.14513 -0.708478 -0.0221406 
-0.708478 -13.5829 0.295039 
-0.0221406 0.295039 -10.2877 
-10.6639 1.10426 -0.407298 
1.10426 -10.7286 -0.30585 
-0.407298 -0.30585 -11.6232 
-10.7779 1.06426 -0.599338 
1.06426 -11.3396 -2.00788 
-0.599338 -2.00788 -10.8983 
-10.6814 0.0853505 -0.204464 
0.0853505 -10.6884 -0.176611 
-0.204464 -0.176611 -11.5862 
-10.4673 0.225533 0.0415967 
0.225533 -10.3397 0.252121 
0.0415967 0.252121 -12.1491 
-11.3201 0.116429 -0.184146 
0.116429 -11.0145 -0.00943478 
-0.184146 -0.00943478 -10.6215 
-11.2176 0.306144 0.256755 
0.306144 -10.7936 -0.490934 
0.256755 -0.490934 -10.9448 
-11.3912 0.338173 0.157004 
0.338173 -11.2918 0.17809 
0.157004 0.17809 -13.589 
-10.8509 0.632717 0.179314 
0.632717 -12.5604 0.203672 
0.179314 0.203672 -12.8608 
-11.531 0.807769 0.604706 
0.807769 -11.0087 0.612137 
0.604706 0.612137 -13.7323 
-11.8532 0.697777 0.130815 
0.697777 -11.8887 0.589767 
0.130815 0.589767 -12.53 
-9.84957 -0.0221413 -0.341395 
-0.0221413 -9.81219 -0.0863812 
-0.341395 -0.0863812 -9.76535 
-9.74599 0.0295555 -0.331508 
0.0295555 -9.82519 -0.103347 
-0.331508 -0.103347 -9.85594 
-9.81325 -0.00146173 -0.321799 
-0.00146173 -9.80863 -0.091309 
-0.321799 -0.091309 -9.80523 
-9.83034 -0.00268497 -0.287678 
-0.00268497 -9.78941 -0.0619338 
-0.287678 -0.0619338 -9.80736 
-9.57903 0.0459135 -0.00826256 
0.0459135 -9.6769 0.048745 
-0.00826256 0.048745 -9.6786 
-9.56685 0.0511406 0.035598 
0.0511406 -9.69919 -0.088067 
0.035598 -0.088067 -9.66849 
-9.64977 0.191612 0.109814 
0.191612 -9.65866 -0.0655048 
0.109814 -0.0655048 -9.6261 
-9.54334 0.00714593 0.0850225 
0.00714593 -9.69318 -0.052696 
0.0850225 -0.052696 -9.69801 
-9.52821 -0.11131 0.0472129 
-0.11131 -9.44488 -0.0156365 
0.0472129 -0.0156365 -10.0415 
-9.55493 -0.0203361 0.0201891 
-0.0203361 -9.46036 -0.0658841 
0.0201891 -0.0658841 -9.99927 
-9.61908 -0.0599747 0.0929556 
-0.0599747 -9.41202 -0.173315 
0.0929556 -0.173315 -9.98346 
-9.55615 0.0588777 -0.0178376 
0.0588777 -9.53563 -0.0330716 
-0.0178376 -0.0330716 -9.92279 
-9.98969 -0.538326 0.217709 
-0.538326 -9.8479 -0.699389 
0.217709 -0.699389 -10.724 
-10.2367 -0.654445 0.991195 
-0.654445 -9.60541 -0.28548 
0.991195 -0.28548 -10.7195 
-9.80155 -0.24161 0.225242 
-0.24161 -9.86789 -0.298119 
0.225242 -0.298119 -10.8922 
-10.3139 -0.237959 0.22595 
-0.237959 -9.90048 -0.899765 
0.22595 -0.899765 -10.3473 
-9.81778 -0.0165863 -0.109957 
-0.0165863 -9.81103 -0.0763952 
-0.109957 -0.0763952 -9.85097 
-9.8369 -0.00563923 -0.0880519 
-0.00563923 -9.82331 -0.0503307 
-0.0880519 -0.0503307 -9.81958 
-9.84336 -0.0251539 -0.109603 
-0.0251539 -9.81049 -0.0726314 
-0.109603 -0.0726314 -9.82594 
-9.83501 -0.0184326 -0.111401 
-0.0184326 -9.82608 -0.0657026 
-0.111401 -0.0657026 -9.81869 
-9.93986 0.00984319 0.191601 
0.00984319 -9.93801 0.283129 
0.191601 0.283129 -9.9403 
-9.92456 0.02432 0.193391 
0.02432 -9.93077 0.284283 
0.193391 0.284283 -9.96284 
-9.94214 -0.00646948 0.188904 
-0.00646948 -9.93887 0.297343 
0.188904 0.297343 -9.93717 
-9.93441 -0.0101194 0.18573 
-0.0101194 -9.94065 0.293919 
0.18573 0.293919 -9.9431 
-13.9138 -2.11399 0.740991 
-2.11399 -14.9808 5.21844 
0.740991 5.21844 9.85266 
0.208005 -1.39347 -3.64412 
-1.39347 1.04796 -3.65958 
-3.64412 -3.65958 -20.298 
-9.18139 -0.768376 3.99683 
-0.768376 -15.9431 3.36671 
3.99683 3.36671 6.08252 
-7.24724 8.2369 6.28425 
8.2369 1.59412 16.0926 
6.28425 16.0926 -13.3889 
-11.7019 -0.12296 0.249844 
-0.12296 -11.0637 -0.178949 
0.249844 -0.178949 -12.728 
-11.6896 -0.890129 0.544599 
-0.890129 -10.9698 -0.644082 
0.544599 -0.644082 -12.8342 
-11.5634 -0.398535 0.147866 
-0.398535 -12.5553 -0.0448226 
0.147866 -0.0448226 -11.3748 
-11.4415 -0.533197 -0.220499 
-0.533197 -11.657 -0.970576 
-0.220499 -0.970576 -12.395 
-11.261 0.111718 0.0873702 
0.111718 -10.8332 -0.257728 
0.0873702 -0.257728 -11.5979 
-10.9075 -0.0202452 0.00841498 
-0.0202452 -11.0271 -0.0222529 
0.00841498 -0.0222529 -11.7575 
-11.127 0.202415 0.148521 
0.202415 -11.1577 -0.129019 
0.148521 -0.129019 -11.4074 
-11.2072 0.185795 0.33921 
0.185795 -11.1002 -0.181093 
0.33921 -0.181093 -11.3847 
-9.94994 -0.0010662 -0.140984 
-0.0010662 -9.9706 0.209557 
-0.140984 0.209557 -10.0172 
-9.95836 0.00624767 -0.134643 
0.00624767 -9.99926 0.230838 
-0.134643 0.230838 -9.9801 
-9.97721 0.00276612 -0.135492 
0.00276612 -9.99434 0.225962 
-0.135492 0.225962 -9.96617 
-9.98927 -0.000486176 -0.135555 
-0.000486176 -9.99522 0.232277 
-0.135555 0.232277 -9.95324 
-9.95043 0.00472038 -0.33982 
0.00472038 -9.94481 -0.0322647 
-0.33982 -0.0322647 -9.94264 
-9.89745 -0.0120357 -0.329775 
-0.0120357 -9.9541 -0.011959 
-0.329775 -0.011959 -9.98632 
-9.96056 0.0018727 -0.356106 
0.0018727 -9.96089 -0.0231195 
-0.356106 -0.0231195 -9.91642 
-9.95756 0.00217808 -0.340338 
0.00217808 -9.94311 -0.036406 
-0.340338 -0.036406 -9.9372 
-10.1272 0.575352 1.45176 
0.575352 -10.3146 0.249298 
1.45176 0.249298 -8.18158 
-9.98581 0.686761 1.58473 
0.686761 -10.2744 0.801541 
1.58473 0.801541 -8.36313 
-9.59454 0.208697 0.707241 
0.208697 -10.0812 -0.187456 
0.707241 -0.187456 -8.94764 
-10.6618 0.38626 0.860027 
0.38626 -10.5216 1.2534 
0.860027 1.2534 -7.43996 
-12.1096 -1.72263 -2.55158 
-1.72263 -5.2175 5.74401 
-2.55158 5.74401 -7.73565 
-6.76325 -0.0451194 -0.24368 
-0.0451194 -11.7804 2.19775 
-0.24368 2.19775 -6.51908 
-6.81449 0.262187 -1.94912 
0.262187 -8.07926 4.34424 
-1.94912 4.34424 -10.169 
-10.5904 -0.0603857 0.0713798 
-0.0603857 -4.68541 1.31857 
0.0713798 1.31857 -9.78692 
-9.77424 0.0891842 0.0718234 
0.0891842 -9.60776 -0.164134 
0.0718234 -0.164134 -9.88114 
-9.67795 -0.0369816 -0.106385 
-0.0369816 -9.76783 -0.395449 
-0.106385 -0.395449 -9.81736 
-9.76666 0.119617 0.0903407 
0.119617 -9.64486 0.0367745 
0.0903407 0.0367745 -9.85162 
-9.67449 0.205237 0.0659075 
0.205237 -9.60157 -0.0719018 
0.0659075 -0.0719018 -9.98707 
-9.60616 0.00716055 -0.00655711 
0.00716055 -9.62327 -0.026446 
-0.00655711 -0.026446 -9.86121 
-9.6415 0.0206387 0.0304721 
0.0206387 -9.60553 -0.0516637 
0.0304721 -0.0516637 -9.8436 
-9.61449 -0.00562042 0.00607635 
-0.00562042 -9.60636 -0.0479189 
0.00607635 -0.0479189 -9.86978 
-9.62448 -0.0238664 -0.0258382 
-0.0238664 -9.62166 -0.0230408 
-0.0258382 -0.0230408 -9.8445 
-9.70579 0.00874766 -0.34619 
0.00874766 -9.67564 0.0432335 
-0.34619 0.0432335 -9.60377 
-9.66231 -0.0109942 -0.355116 
-0.0109942 -9.66301 0.0450833 
-0.355116 0.0450833 -9.65987 
-9.64531 -0.00681775 -0.364033 
-0.00681775 -9.65006 0.0562284 
-0.364033 0.0562284 -9.68982 
-9.64957 -0.0132527 -0.356503 
-0.0132527 -9.66458 0.0323684 
-0.356503 0.0323684 -9.67105 
-9.60467 -0.0540217 -0.263902 
-0.0540217 -9.68466 0.373913 
-0.263902 0.373913 -9.28176 
-9.6456 0.00518966 -0.206712 
0.00518966 -9.56522 0.25797 
-0.206712 0.25797 -9.36027 
-9.51274 -0.0311239 -0.261396 
-0.0311239 -9.78847 0.253484 
-0.261396 0.253484 -9.26987 
-9.58897 -0.00497755 -0.231694 
-0.00497755 -9.69398 0.404312 
-0.231694 0.404312 -9.28813 
-9.97398 0.0080052 -0.211149 
0.0080052 -9.97618 0.143979 
-0.211149 0.143979 -9.96206 
-9.93861 0.00501966 -0.204861 
0.00501966 -9.93345 0.139596 
-0.204861 0.139596 -10.0402 
-9.96368 0.00694432 -0.210138 
0.00694432 -9.97776 0.148687 
-0.210138 0.148687 -9.97078 
-9.98427 0.00318326 -0.222278 
0.00318326 -9.97943 0.155595 
-0.222278 0.155595 -9.94852 
-11.4208 -1.97248 -0.345779 
-1.97248 -12.1835 -0.271844 
-0.345779 -0.271844 -9.34553 
-10.5446 0.260375 -0.238627 
0.260375 -9.88591 0.00769684 
-0.238627 0.00769684 -12.5193 
-11.5669 -0.0753803 -0.249422 
-0.0753803 -9.13173 0.723413 
-0.249422 0.723413 -12.2512 
-11.3445 -0.697784 1.85346 
-0.697784 -10.1089 0.991529 
1.85346 0.991529 -11.4964 
-10.5529 0.0414637 0.184154 
0.0414637 -9.86324 0.270063 
0.184154 0.270063 -11.3449 
-10.5526 -0.244177 0.218405 
-0.244177 -9.9693 0.478674 
0.218405 0.478674 -11.2392 
-10.3162 0.52636 0.18879 
0.52636 -9.86674 0.140952 
0.18879 0.140952 -11.5782 
-10.6761 0.0539614 0.082472 
0.0539614 -9.92416 0.377827 
0.082472 0.377827 -11.1609 
-9.59502 -0.00507504 -0.235429 
-0.00507504 -9.59097 -0.273103 
-0.235429 -0.273103 -9.53469 
-9.54994 0.0452324 -0.248534 
0.0452324 -9.55662 -0.280511 
-0.248534 -0.280511 -9.61412 
-9.5804 -0.000714496 -0.23248 
-0.000714496 -9.57628 -0.257028 
-0.23248 -0.257028 -9.564 
-9.57533 -0.00424693 -0.226532 
-0.00424693 -9.57973 -0.243359 
-0.226532 -0.243359 -9.56562 
-10.3544 0.117031 -0.416987 
0.117031 -9.25906 -1.45483 
-0.416987 -1.45483 -9.85099 
-10.1054 0.178029 -0.15902 
0.178029 -9.65112 -0.709115 
-0.15902 -0.709115 -9.70794 
-10.0245 0.307575 -0.691945 
0.307575 -9.2236 -1.5123 
-0.691945 -1.5123 -10.2163 
-10.4956 -0.0242125 -0.672344 
-0.0242125 -9.84189 -1.18077 
-0.672344 -1.18077 -9.12691 
-10.2231 1.11292 -0.923785 
1.11292 -12.4202 -0.0101913 
-0.923785 -0.0101913 -12.3791 
-8.71571 0.665132 -1.67782 
0.665132 -11.1261 -0.762666 
-1.67782 -0.762666 -15.1806 
-10.5068 0.724571 -1.00108 
0.724571 -12.1791 -0.210302 
-1.00108 -0.210302 -12.3366 
-9.99987 0.518166 -0.627523 
0.518166 -12.6883 -0.608497 
-0.627523 -0.608497 -12.3342 
-10.1284 0.0650237 -0.00814109 
0.0650237 -9.91027 0.0101829 
-0.00814109 0.0101829 -10.1119 
-10.1082 0.0190629 0.0352142 
0.0190629 -9.95632 0.0630866 
0.0352142 0.0630866 -10.086 
-10.0901 -0.00889394 0.015817 
-0.00889394 -10.0432 0.0123233 
0.015817 0.0123233 -10.0172 
-10.0405 -0.062575 0.0175081 
-0.062575 -10.0624 0.0251798 
0.0175081 0.0251798 -10.0476 
-9.93632 0.0272272 0.249649 
0.0272272 -9.89812 0.244618 
0.249649 0.244618 -9.95878 
-9.93001 -0.00095778 0.259486 
-0.00095778 -9.93585 0.247775 
0.259486 0.247775 -9.92736 
-9.93158 -0.00899644 0.254329 
-0.00899644 -9.92277 0.245119 
0.254329 0.245119 -9.93888 
-9.94539 0.0163692 0.241704 
0.0163692 -9.92383 0.248643 
0.241704 0.248643 -9.92401 
-9.98821 0.00339808 -0.288321 
0.00339808 -9.98314 0.185427 
-0.288321 0.185427 -9.94744 
-9.97522 0.013329 -0.265866 
0.013329 -9.97542 0.187738 
-0.265866 0.187738 -9.96816 
-9.95252 0.00229194 -0.252285 
0.00229194 -9.94949 0.209261 
-0.252285 0.209261 -10.0168 
-9.98818 0.0167885 -0.262063 
0.0167885 -9.95953 0.193258 
-0.262063 0.193258 -9.97109 
-9.95599 -0.0031849 0.0546949 
-0.0031849 -9.92643 -0.328916 
0.0546949 -0.328916 -9.93087 
-9.93847 0.00593439 0.0432131 
0.00593439 -9.9235 -0.30235 
0.0432131 -0.30235 -9.95132 
-9.93799 -0.00551666 0.0565857 
-0.00551666 -9.92811 -0.301554 
0.0565857 -0.301554 -9.94719 
-9.9206 0.00669972 0.0632754 
0.00669972 -9.99619 -0.316836 
0.0632754 -0.316836 -9.89651 
-9.74201 -0.0137362 -0.289029 
-0.0137362 -9.8017 0.202131 
-0.289029 0.202131 -9.83257 
-9.78123 -0.00232956 -0.297021 
-0.00232956 -9.80462 0.188411 
-0.297021 0.188411 -9.79041 
-9.82046 0.0141724 -0.309483 
0.0141724 -9.80881 0.205925 
-0.309483 0.205925 -9.747 
-9.79675 0.0103769 -0.264288 
0.0103769 -9.80671 0.214425 
-0.264288 0.214425 -9.77281 
-9.43984 0.0447947 -1.73343 
0.0447947 -9.93752 0.749856 
-1.73343 0.749856 -4.2226 
-8.7755 0.940373 -1.32313 
0.940373 -9.49379 0.173532 
-1.32313 0.173532 -5.33069 
-8.23194 0.891428 -0.829434 
0.891428 -9.62578 0.582186 
-0.829434 0.582186 -5.74226 
-8.58389 0.541881 -0.427014 
0.541881 -8.96016 -0.370088 
-0.427014 -0.370088 -6.05593 
-9.15981 0.110961 -0.138605 
0.110961 -10.1184 0.276554 
-0.138605 0.276554 -9.24644 
-10.0992 -0.0495294 0.265216 
-0.0495294 -8.577 0.320755 
0.265216 0.320755 -9.84845 
-8.25051 -0.660811 -0.220976 
-0.660811 -9.11512 0.192181 
-0.220976 0.192181 -11.159 
-8.94823 -0.180395 -1.00792 
-0.180395 -10.2829 -0.241835 
-1.00792 -0.241835 -9.29355 
-9.9915 -0.000610146 -0.271628 
-0.000610146 -9.97309 -0.0649549 
-0.271628 -0.0649549 -9.97337 
-9.96222 0.00253135 -0.278288 
0.00253135 -9.96375 -0.0614197 
-0.278288 -0.0614197 -10.012 
-9.97854 0.00485358 -0.264802 
0.00485358 -9.97052 -0.0723183 
-0.264802 -0.0723183 -9.98891 
-9.98526 -0.00176863 -0.261309 
-0.00176863 -9.98787 -0.0638271 
-0.261309 -0.0638271 -9.96483 
-9.90437 -0.00660501 0.323636 
-0.00660501 -9.90131 -0.0825899 
0.323636 -0.0825899 -9.88837 
-9.88418 0.00482166 0.296251 
0.00482166 -9.88316 -0.0594116 
0.296251 -0.0594116 -9.92671 
-9.89841 -0.00919981 0.32798 
-0.00919981 -9.91095 -0.0797605 
0.32798 -0.0797605 -9.88468 
-9.92821 -0.0119945 0.328054 
-0.0119945 -9.92426 -0.0959168 
0.328054 -0.0959168 -9.84158 
-9.79361 0.00480894 -0.0991802 
0.00480894 -9.78081 0.0687412 
-0.0991802 0.0687412 -9.79869 
-9.80048 0.0328129 -0.0632854 
0.0328129 -9.79205 0.106989 
-0.0632854 0.106989 -9.78058 
-9.81233 0.032178 -0.114331 
0.032178 -9.78411 0.0690899 
-0.114331 0.0690899 -9.77666 
-9.79747 0.0085435 -0.0973772 
0.0085435 -9.78908 0.115255 
-0.0973772 0.115255 -9.78656 
-9.94476 0.000466491 -0.105232 
0.000466491 -9.97104 -0.0585196 
-0.105232 -0.0585196 -9.9921 
-9.94262 0.00897787 -0.0962276 
0.00897787 -9.95393 -0.0790211 
-0.0962276 -0.0790211 -10.0114 
-9.96775 -0.00481996 -0.106169 
-0.00481996 -9.9764 -0.0710911 
-0.106169 -0.0710911 -9.96374 
-9.98209 -0.00393803 -0.103855 
-0.00393803 -9.97283 -0.0646571 
-0.103855 -0.0646571 -9.95298 
-9.98233 0.00722258 0.0620806 
0.00722258 -9.99749 -0.252964 
0.0620806 -0.252964 -9.97012 
-9.97096 0.0149661 0.0654098 
0.0149661 -9.9909 -0.260051 
0.0654098 -0.260051 -9.98808 
-9.96871 0.0111581 0.0507135 
0.0111581 -9.97143 -0.248545 
0.0507135 -0.248545 -10.0098 
-9.99301 0.00485143 0.065673 
0.00485143 -9.99717 -0.257241 
0.065673 -0.257241 -9.95976 
-9.98023 0.00668816 0.17173 
0.00668816 -9.95033 -0.19451 
0.17173 -0.19451 -10.0159 
-9.98454 -0.00132475 0.193792 
-0.00132475 -9.97411 -0.194521 
0.193792 -0.194521 -9.9878 
-9.99226 -0.00599849 0.184792 
-0.00599849 -9.98887 -0.197363 
0.184792 -0.197363 -9.96533 
-9.99035 0.00345626 0.190267 
0.00345626 -9.99676 -0.18788 
0.190267 -0.18788 -9.95935 
-5.67952 -0.662293 1.12986 
-0.662293 -8.37825 2.57582 
1.12986 2.57582 -4.74174 
-10.0283 0.916045 2.91825 
0.916045 -3.86807 -0.00949301 
2.91825 -0.00949301 -4.90311 
-12.6613 -0.119275 -0.716282 
-0.119275 -3.37154 5.07765 
-0.716282 5.07765 -2.7667 
-8.01373 -0.150672 1.09017 
-0.150672 -6.46307 2.43875 
1.09017 2.43875 -4.32271 
-12.2061 -0.446536 -0.190516 
-0.446536 -12.1416 0.479219 
-0.190516 0.479219 -11.3305 
-11.8703 -0.393966 -0.078511 
-0.393966 -11.5269 0.236942 
-0.078511 0.236942 -12.281 
-10.9619 -0.297548 -0.724295 
-0.297548 -10.9029 0.517988 
-0.724295 0.517988 -13.8134 
-11.6877 -0.500003 0.146354 
-0.500003 -11.6104 -0.162381 
0.146354 -0.162381 -12.38 
-9.3683 0.141329 -0.166123 
0.141329 -9.5124 -0.167973 
-0.166123 -0.167973 -9.68682 
-9.47603 -0.0526053 -0.272029 
-0.0526053 -9.51441 -0.143472 
-0.272029 -0.143472 -9.57708 
-9.61476 -0.0724196 -0.291498 
-0.0724196 -9.50288 -0.091086 
-0.291498 -0.091086 -9.44988 
-9.39768 -0.0265959 -0.367088 
-0.0265959 -9.49291 -0.228494 
-0.367088 -0.228494 -9.67692 
-9.97373 -0.0751789 -0.624662 
-0.0751789 -9.79985 -0.347324 
-0.624662 -0.347324 -10.1173 
-9.50463 0.57228 0.00630536 
0.57228 -10.0119 -0.301042 
0.00630536 -0.301042 -10.3744 
-9.80385 0.310173 0.3482 
0.310173 -9.79931 -0.0641509 
0.3482 -0.0641509 -10.2878 
-9.49917 0.465317 0.0566609 
0.465317 -9.94558 -0.343456 
0.0566609 -0.343456 -10.4462 
-9.93422 0.0292329 -0.286309 
0.0292329 -9.92313 -0.184051 
-0.286309 -0.184051 -9.96418 
-9.93964 -0.008769 -0.28995 
-0.008769 -9.94571 -0.188773 
-0.28995 -0.188773 -9.93618 
-9.94628 -0.00989137 -0.287606 
-0.00989137 -9.93157 -0.183637 
-0.287606 -0.183637 -9.94368 
-9.94813 0.0205029 -0.278198 
0.0205029 -9.94325 -0.18803 
-0.278198 -0.18803 -9.93015 
-9.31372 -0.0227613 0.753094 
-0.0227613 -9.63042 -0.188887 
0.753094 -0.188887 -9.07146 
-9.36738 0.131279 0.525239 
0.131279 -9.60187 -0.218792 
0.525239 -0.218792 -9.04635 
-9.3183 0.16072 0.62728 
0.16072 -9.54398 -0.189968 
0.62728 -0.189968 -9.15332 
-9.60288 -0.172237 0.206939 
-0.172237 -9.24992 -0.144375 
0.206939 -0.144375 -9.1628 
-10.4427 -0.103708 -0.155062 
-0.103708 -10.465 -0.0303928 
-0.155062 -0.0303928 -10.0522 
-10.1313 -0.0895903 0.342819 
-0.0895903 -9.50141 -0.516632 
0.342819 -0.516632 -11.3273 
-10.5746 -0.00601516 0.083478 
-0.00601516 -10.5857 0.222515 
0.083478 0.222515 -9.79961 
-10.3897 -0.296204 0.056415 
-0.296204 -10.4973 0.165897 
0.056415 0.165897 -10.073 
-2.84209 0.0698777 -0.403056 
0.0698777 -3.11534 1.24805 
-0.403056 1.24805 -3.74939 
-3.99013 0.0668087 -0.0477096 
0.0668087 -4.59767 0.605395 
-0.0477096 0.605395 -1.11902 
-4.68645 0.520357 -0.729562 
0.520357 -5.47507 -1.33293 
-0.729562 -1.33293 0.454698 
-2.41762 -0.367619 -0.662579 
-0.367619 -5.18577 2.22524 
-0.662579 2.22524 -2.10343 
-9.58808 -0.0404872 -0.0981725 
-0.0404872 -9.68017 -0.141277 
-0.0981725 -0.141277 -9.8074 
-9.71172 -0.0167572 -0.114679 
-0.0167572 -9.62353 -0.132549 
-0.114679 -0.132549 -9.74039 
-9.723 0.200589 -0.106791 
0.200589 -9.37258 -0.169178 
-0.106791 -0.169178 -9.98007 
-9.63603 -0.00067086 -0.141676 
-0.00067086 -9.62837 -0.23559 
-0.141676 -0.23559 -9.81125 
-10.3971 2.17385 -0.252983 
2.17385 -10.7628 -0.517204 
-0.252983 -0.517204 -11.6657 
-8.83926 -1.3865 -0.0883453 
-1.3865 -10.3221 0.249358 
-0.0883453 0.249358 -13.6643 
-9.47475 -1.35474 1.5239 
-1.35474 -11.5588 -0.0936226 
1.5239 -0.0936226 -11.7922 
-9.95872 0.532039 2.23539 
0.532039 -9.7409 0.781119 
2.23539 0.781119 -13.1261 
-9.55051 0.0133672 -0.132389 
0.0133672 -9.61451 0.290909 
-0.132389 0.290909 -9.60819 
-9.58059 -0.0145795 -0.114473 
-0.0145795 -9.57539 0.316651 
-0.114473 0.316651 -9.61723 
-9.58103 -0.0292693 -0.107725 
-0.0292693 -9.56085 0.343344 
-0.107725 0.343344 -9.63133 
-9.58348 0.0160867 -0.108087 
0.0160867 -9.55814 0.340585 
-0.108087 0.340585 -9.63159 
-9.87002 0.0152373 -0.259709 
0.0152373 -9.50177 -0.584094 
-0.259709 -0.584094 -9.71279 
-9.88449 0.0824751 -0.189293 
0.0824751 -9.49759 -0.592244 
-0.189293 -0.592244 -9.7025 
-9.89587 0.030099 -0.235761 
0.030099 -9.5224 -0.530722 
-0.235761 -0.530722 -9.6663 
-9.93163 0.160893 -0.271273 
0.160893 -9.45053 -0.572988 
-0.271273 -0.572988 -9.70242 
-9.04509 0.243735 -1.98195 
0.243735 -12.8361 0.416794 
-1.98195 0.416794 -12.2504 
-12.9612 1.30221 1.38442 
1.30221 -8.87622 0.520654 
1.38442 0.520654 -12.2942 
-11.6332 0.782309 -0.101432 
0.782309 -8.306 -0.179457 
-0.101432 -0.179457 -14.1924 
-9.96556 0.302315 1.297 
0.302315 -10.2406 1.10718 
1.297 1.10718 -13.9255 
-9.68285 -0.0311418 -0.0638074 
-0.0311418 -9.61632 0.0201117 
-0.0638074 0.0201117 -9.61315 
-9.66078 -0.0120509 -0.0964476 
-0.0120509 -9.63383 -0.0248012 
-0.0964476 -0.0248012 -9.61771 
-9.70064 0.0080967 -0.0483148 
0.0080967 -9.61843 0.00192517 
-0.0483148 0.00192517 -9.59326 
-9.69197 0.00761357 -0.117079 
0.00761357 -9.57012 9.66547e-05 
-0.117079 9.66547e-05 -9.65024 
-9.56819 -0.0317195 0.286461 
-0.0317195 -9.55656 0.115033 
0.286461 0.115033 -9.5828 
-9.65755 -0.0435245 0.301744 
-0.0435245 -9.47753 0.134672 
0.301744 0.134672 -9.57247 
-9.43773 0.0892919 0.258222 
0.0892919 -9.57445 0.123133 
0.258222 0.123133 -9.69537 
-9.47257 -0.0501339 0.340515 
-0.0501339 -9.56603 0.175362 
0.340515 0.175362 -9.66895 
-9.8911 0.0383334 0.145659 
0.0383334 -10.007 -0.218483 
0.145659 -0.218483 -9.19349 
-9.52582 0.00161603 0.217739 
0.00161603 -10.1226 0.0274282 
0.217739 0.0274282 -9.44315 
-9.71529 0.0256739 0.205014 
0.0256739 -9.97599 -0.105019 
0.205014 -0.105019 -9.40031 
-9.63254 -0.154428 0.126036 
-0.154428 -9.53045 -0.239592 
0.126036 -0.239592 -9.9286 
-9.61633 -0.0815393 0.117337 
-0.0815393 -9.52146 -0.229908 
0.117337 -0.229908 -9.92621 
-9.44675 0.10883 -0.0241426 
0.10883 -9.71825 -0.151468 
-0.0241426 -0.151468 -9.89901 
-9.73223 -0.0548646 0.0955193 
-0.0548646 -9.5591 -0.145065 
0.0955193 -0.145065 -9.77267 
-9.45479 0.106448 0.130113 
0.106448 -9.79405 -0.152614 
0.130113 -0.152614 -9.81516 
-9.93819 -0.0006642 0.128466 
-0.0006642 -9.96253 -0.0244764 
0.128466 -0.0244764 -10.0167 
-9.95778 0.00921243 0.131559 
0.00921243 -9.96526 -0.0485042 
0.131559 -0.0485042 -9.99434 
-9.9817 0.00311344 0.125575 
0.00311344 -9.97501 -0.0402723 
0.125575 -0.0402723 -9.96068 
-9.99113 -0.0038418 0.136139 
-0.0038418 -9.97166 -0.0428893 
0.136139 -0.0428893 -9.95459 
-9.89622 -0.0352526 -0.240215 
-0.0352526 -9.94977 0.250085 
-0.240215 0.250085 -9.97557 
-9.94995 0.00779364 -0.24638 
0.00779364 -9.93525 0.255863 
-0.24638 0.255863 -9.93636 
-9.93624 0.0158355 -0.239578 
0.0158355 -9.93956 0.249667 
-0.239578 0.249667 -9.94575 
-9.93327 -0.0129719 -0.250135 
-0.0129719 -9.95761 0.240329 
-0.250135 0.240329 -9.93068 
-9.98672 0.00821747 -0.0786758 
0.00821747 -10.0022 -0.334251 
-0.0786758 -0.334251 -9.93619 
-9.97487 -0.0117076 -0.0593675 
-0.0117076 -9.97823 -0.321119 
-0.0593675 -0.321119 -9.97198 
-9.94668 -0.0103026 -0.0409557 
-0.0103026 -9.93712 -0.325268 
-0.0409557 -0.325268 -10.0413 
-9.9759 -0.00782707 -0.0649044 
-0.00782707 -9.99253 -0.303914 
-0.0649044 -0.303914 -9.95666 
-9.92828 0.0536544 0.348568 
0.0536544 -9.51513 0.110191 
0.348568 0.110191 -10.0158 
-9.78561 -0.301712 -0.232032 
-0.301712 -9.48844 -0.255032 
-0.232032 -0.255032 -10.1852 
-9.31559 -0.289008 -0.172652 
-0.289008 -10.3027 -0.0441159 
-0.172652 -0.0441159 -9.84089 
-9.29631 -0.266039 0.151877 
-0.266039 -9.94178 0.0145755 
0.151877 0.0145755 -10.2211 
-9.92938 0.0489661 -0.0362006 
0.0489661 -9.93346 0.0231463 
-0.0362006 0.0231463 -9.8728 
-9.94168 -0.0213783 -0.0201428 
-0.0213783 -9.88132 -0.00571538 
-0.0201428 -0.00571538 -9.91264 
-9.91428 0.0477669 -0.011199 
0.0477669 -9.91017 -0.00834738 
-0.011199 -0.00834738 -9.91119 
-9.92509 0.0322847 -0.0291764 
0.0322847 -9.90667 -0.0150247 
-0.0291764 -0.0150247 -9.90388 
-9.83881 -0.006268 0.340428 
-0.006268 -9.07528 -1.09257 
0.340428 -1.09257 -8.56307 
-9.35073 -0.230467 0.343407 
-0.230467 -9.48786 -0.64466 
0.343407 -0.64466 -8.63857 
-9.28131 -0.257824 0.351866 
-0.257824 -9.27799 -0.749068 
0.351866 -0.749068 -8.91787 
-9.47821 0.278734 -0.107836 
0.278734 -9.03924 -0.425631 
-0.107836 -0.425631 -8.95972 
-9.97306 0.00627947 -0.259264 
0.00627947 -9.99144 -0.0517644 
-0.259264 -0.0517644 -9.97084 
-9.98125 0.00168705 -0.254728 
0.00168705 -9.97952 -0.0551213 
-0.254728 -0.0551213 -9.97458 
-9.95882 0.00481962 -0.267771 
0.00481962 -9.94668 -0.0456785 
-0.267771 -0.0456785 -10.0299 
-9.98948 -0.00203035 -0.252047 
-0.00203035 -9.98624 -0.0646414 
-0.252047 -0.0646414 -9.95963 
-6.50643 0.649526 3.86092 
0.649526 -11.4768 -0.951713 
3.86092 -0.951713 3.59324 
-2.44076 1.57871 -1.48747 
1.57871 -0.228984 -0.327427 
-1.48747 -0.327427 -11.7202 
-9.95375 1.09024 1.23479 
1.09024 -10.6057 -1.92084 
1.23479 -1.92084 6.16954 
-6.00492 -3.49817 4.42743 
-3.49817 -5.25754 -8.47445 
4.42743 -8.47445 -3.1275 
-11.1691 0.662941 0.639376 
0.662941 -11.5768 0.683396 
0.639376 0.683396 -14.3729 
-14.0042 0.583062 -0.00158557 
0.583062 -11.4501 0.350056 
-0.00158557 0.350056 -11.6645 
-11.1751 -0.153689 -0.0304352 
-0.153689 -11.723 0.0451356 
-0.0304352 0.0451356 -14.2206 
-12.3078 0.820858 1.13902 
0.820858 -12.3054 -0.574477 
1.13902 -0.574477 -12.5056 
-9.89024 0.0097226 -0.175184 
0.0097226 -9.8776 0.26456 
-0.175184 0.26456 -9.92194 
-9.89503 -0.00901131 -0.200749 
-0.00901131 -9.90292 0.285384 
-0.200749 0.285384 -9.89183 
-9.90007 -0.00532417 -0.191222 
-0.00532417 -9.90887 0.276763 
-0.191222 0.276763 -9.88085 
-9.90458 -0.00646549 -0.216092 
-0.00646549 -9.93887 0.273714 
-0.216092 0.273714 -9.84633 
-9.93506 0.00920931 -0.00767557 
0.00920931 -10.0161 0.0236257 
-0.00767557 0.0236257 -9.89681 
-9.86128 -0.0227558 -0.0586373 
-0.0227558 -10.0311 -0.0167728 
-0.0586373 -0.0167728 -9.95564 
-9.98333 0.0281552 -0.0943878 
0.0281552 -9.99705 -0.0424171 
-0.0943878 -0.0424171 -9.8676 
-10.1249 0.0350041 0.144728 
0.0350041 -9.69015 0.0142174 
0.144728 0.0142174 -10.0329 
-9.26868 0.0335306 -0.308209 
0.0335306 -9.51392 -0.123006 
-0.308209 -0.123006 -9.5381 
-9.36564 0.00546595 -0.445203 
0.00546595 -9.47537 -0.0388529 
-0.445203 -0.0388529 -9.4797 
-9.37794 0.00843297 -0.353653 
0.00843297 -9.47563 0.0710747 
-0.353653 0.0710747 -9.46714 
-9.34982 0.0211398 -0.459462 
0.0211398 -9.51213 -0.0311243 
-0.459462 -0.0311243 -9.45876 
-9.89332 0.00584687 -0.311301 
0.00584687 -9.95817 -0.130642 
-0.311301 -0.130642 -9.96741 
-9.94121 -0.0111277 -0.312478 
-0.0111277 -9.9322 -0.136941 
-0.312478 -0.136941 -9.94548 
-9.94474 -0.000921236 -0.317021 
-0.000921236 -9.93939 -0.14106 
-0.317021 -0.14106 -9.93476 
-9.92893 0.00162421 -0.312355 
0.00162421 -9.95425 -0.123394 
-0.312355 -0.123394 -9.93571 
-11.0644 -0.500179 0.109048 
-0.500179 -10.1999 0.261384 
0.109048 0.261384 -11.0165 
-9.61612 0.25526 0.2365 
0.25526 -10.8229 0.432871 
0.2365 0.432871 -11.8418 
-10.5355 -0.178495 -0.137561 
-0.178495 -10.5218 -0.138404 
-0.137561 -0.138404 -11.2235 
-10.4356 -0.40618 -0.17838 
-0.40618 -10.4934 -0.278651 
-0.17838 -0.278651 -11.3518 
-9.95476 -0.00580517 -0.172458 
-0.00580517 -9.9372 0.0573017 
-0.172458 0.0573017 -10.0271 
-9.96665 -0.0124802 -0.190588 
-0.0124802 -9.96702 0.0475855 
-0.190588 0.0475855 -9.98542 
-9.97781 -0.0021541 -0.185167 
-0.0021541 -9.98088 0.0561926 
-0.185167 0.0561926 -9.9604 
-9.98226 0.00614438 -0.188657 
0.00614438 -9.98626 0.0422686 
-0.188657 0.0422686 -9.95056 
-9.62552 -0.00895125 0.0920028 
-0.00895125 -9.48438 -0.355674 
0.0920028 -0.355674 -9.20799 
-9.63645 -0.00898304 0.050437 
-0.00898304 -9.48691 -0.396497 
0.050437 -0.396497 -9.19453 
-9.64369 -0.0409131 0.0181823 
-0.0409131 -9.47647 -0.417881 
0.0181823 -0.417881 -9.19773 
-9.64222 0.0840649 -0.0152969 
0.0840649 -9.48634 -0.357978 
-0.0152969 -0.357978 -9.18933 
-9.54114 0.0244447 0.16076 
0.0244447 -9.58945 -0.26615 
0.16076 -0.26615 -9.60463 
-9.55219 0.00136253 0.154574 
0.00136253 -9.55903 -0.288006 
0.154574 -0.288006 -9.624 
-9.62987 -0.0512568 0.158568 
-0.0512568 -9.48478 -0.274676 
0.158568 -0.274676 -9.62058 
-9.57362 0.00748511 0.174398 
0.00748511 -9.54787 -0.316533 
0.174398 -0.316533 -9.61374 
-9.97317 0.0101748 -0.124529 
0.0101748 -9.96116 -0.159951 
-0.124529 -0.159951 -9.98486 
-9.96667 -0.00271307 -0.108059 
-0.00271307 -9.94073 -0.153333 
-0.108059 -0.153333 -10.0118 
-9.97879 0.000708518 -0.119811 
0.000708518 -9.97654 -0.169631 
-0.119811 -0.169631 -9.96386 
-9.97941 0.000238519 -0.124337 
0.000238519 -9.98726 -0.169713 
-0.124337 -0.169713 -9.95252 
-9.73024 -0.00324106 0.0254884 
-0.00324106 -9.72804 0.0037681 
0.0254884 0.0037681 -9.89602 
-9.73067 -0.00103847 0.0259176 
-0.00103847 -9.73622 -0.00230597 
0.0259176 -0.00230597 -9.88741 
-9.72735 0.0046623 0.020137 
0.0046623 -9.73167 0.00294972 
0.020137 0.00294972 -9.89528 
-9.72919 -0.00376037 0.0178357 
-0.00376037 -9.73538 1.43906e-05 
0.0178357 1.43906e-05 -9.88973 
-9.66411 0.00435871 -0.200646 
0.00435871 -9.63606 -0.306108 
-0.200646 -0.306108 -9.68449 
-9.66328 -0.00957769 -0.183318 
-0.00957769 -9.66261 -0.295191 
-0.183318 -0.295191 -9.65876 
-9.66538 -0.0223086 -0.181165 
-0.0223086 -9.70244 -0.2938 
-0.181165 -0.2938 -9.61684 
-9.66191 0.00236519 -0.198945 
0.00236519 -9.65269 -0.283163 
-0.198945 -0.283163 -9.67006 
-4.6644 0.212723 -0.930756 
0.212723 -4.00611 -0.981481 
-0.930756 -0.981481 -2.38946 
-6.60002 -0.160982 0.391035 
-0.160982 -5.78474 -1.35702 
0.391035 -1.35702 1.3248 
-2.63441 1.48478 -0.487294 
1.48478 -6.55441 -1.41265 
-0.487294 -1.41265 -1.87115 
-4.63737 0.0489078 -1.82676 
0.0489078 -3.22143 -1.12169 
-1.82676 -1.12169 -3.20116 
-9.25155 -0.0527983 0.33924 
-0.0527983 -9.29601 -0.186521 
0.33924 -0.186521 -9.64015 
-9.79933 -0.0488823 -0.144744 
-0.0488823 -8.88732 -0.342376 
-0.144744 -0.342376 -9.50106 
-9.57655 -0.210928 0.300805 
-0.210928 -8.96589 -0.592261 
0.300805 -0.592261 -9.64527 
-9.52844 -0.113155 -0.11226 
-0.113155 -9.22913 -0.647148 
-0.11226 -0.647148 -9.43013 
-9.51344 0.0261363 0.300532 
0.0261363 -9.50555 -0.139347 
0.300532 -0.139347 -9.52738 
-9.53198 0.0144797 0.303975 
0.0144797 -9.50605 -0.142475 
0.303975 -0.142475 -9.50835 
-9.42299 -0.0670995 0.328807 
-0.0670995 -9.52137 -0.13987 
0.328807 -0.13987 -9.60202 
-9.49953 0.0196789 0.225129 
0.0196789 -9.4921 -0.102253 
0.225129 -0.102253 -9.55474 
-9.26045 -0.819454 0.18114 
-0.819454 -10.1679 0.486445 
0.18114 0.486445 -9.63292 
-9.26602 -0.408915 0.292918 
-0.408915 -9.7491 0.632513 
0.292918 0.632513 -10.0462 
-9.1314 -0.335782 0.155924 
-0.335782 -10.2342 0.10901 
0.155924 0.10901 -9.69571 
-9.23847 -0.132142 0.149442 
-0.132142 -10.338 0.365749 
0.149442 0.365749 -9.48487 
-9.52628 0.0470009 -0.130811 
0.0470009 -9.54392 0.315133 
-0.130811 0.315133 -9.55017 
-9.52383 0.00317234 -0.14154 
0.00317234 -9.50905 0.30719 
-0.14154 0.30719 -9.58749 
-9.52796 -0.0219918 -0.135896 
-0.0219918 -9.51345 0.304556 
-0.135896 0.304556 -9.57896 
-9.52872 0.00921575 -0.158041 
0.00921575 -9.49754 0.315361 
-0.158041 0.315361 -9.59412 
-9.96696 -0.0072898 0.194453 
-0.0072898 -9.98646 0.270906 
0.194453 0.270906 -9.97355 
-9.98037 -0.00200813 0.191255 
-0.00200813 -9.98807 0.286215 
0.191255 0.286215 -9.95854 
-9.94114 0.00154827 0.212463 
0.00154827 -9.96071 0.260728 
0.212463 0.260728 -10.0251 
-9.97381 -0.0132771 0.196172 
-0.0132771 -9.97688 0.268743 
0.196172 0.268743 -9.97628 
-9.90978 -0.00273008 0.0217055 
-0.00273008 -9.90123 0.332726 
0.0217055 0.332726 -9.89044 
-9.89343 -0.0043631 0.036374 
-0.0043631 -9.89991 0.343805 
0.036374 0.343805 -9.90811 
-9.88754 -0.0059295 0.0475857 
-0.0059295 -9.9003 0.324744 
0.0475857 0.324744 -9.91361 
-9.91331 -0.00707811 0.0144765 
-0.00707811 -9.91376 0.354488 
0.0144765 0.354488 -9.87439 
-12.4693 0.696813 0.178697 
0.696813 -11.3746 0.176402 
0.178697 0.176402 -11.4229 
-11.7243 -0.422413 0.138429 
-0.422413 -9.66866 0.766018 
0.138429 0.766018 -13.8738 
-11.209 -0.435923 0.0554482 
-0.435923 -11.3265 0.145027 
0.0554482 0.145027 -12.7313 
-12.3166 0.0157121 -0.747362 
0.0157121 -10.7787 -0.0275245 
-0.747362 -0.0275245 -12.1714 
-9.78232 -0.0110455 -0.139528 
-0.0110455 -9.68891 0.000302877 
-0.139528 0.000302877 -9.66888 
-9.75646 0.0214126 -0.115582 
0.0214126 -9.74469 0.0122744 
-0.115582 0.0122744 -9.63896 
-9.78466 -0.0135243 -0.133841 
-0.0135243 -9.69602 -0.0180737 
-0.133841 -0.0180737 -9.65943 
-9.77605 0.00261353 -0.181454 
0.00261353 -9.65729 0.00396002 
-0.181454 0.00396002 -9.70678 
-9.98637 0.00191529 0.119026 
0.00191529 -9.97735 -0.0786472 
0.119026 -0.0786472 -9.95544 
-9.97166 -0.00828354 0.136901 
-0.00828354 -9.95045 -0.0801787 
0.136901 -0.0801787 -9.99705 
-9.94907 -0.0121146 0.120353 
-0.0121146 -9.95563 -0.100454 
0.120353 -0.100454 -10.0145 
-9.98762 0.013416 0.129192 
0.013416 -9.98193 -0.0854265 
0.129192 -0.0854265 -9.94961 
-9.94301 0.00372933 0.260199 
0.00372933 -9.9485 -0.204481 
0.260199 -0.204481 -10.0311 
-9.98297 0.00540475 0.239537 
0.00540475 -9.99023 -0.249217 
0.239537 -0.249217 -9.94938 
-9.97229 0.0182642 0.23401 
0.0182642 -9.98908 -0.21911 
0.23401 -0.21911 -9.96122 
-9.98116 0.0141151 0.237414 
0.0141151 -9.97227 -0.226082 
0.237414 -0.226082 -9.96915 
-9.40417 -0.00217876 -0.336462 
-0.00217876 -9.5876 -0.010771 
-0.336462 -0.010771 -9.51157 
-9.39621 -0.00447299 -0.390104 
-0.00447299 -9.54251 -0.0823702 
-0.390104 -0.0823702 -9.56462 
-9.57574 -0.0933574 -0.475046 
-0.0933574 -9.43455 0.0286203 
-0.475046 0.0286203 -9.49305 
-9.29929 0.0880488 -0.415153 
0.0880488 -9.70216 -0.0372939 
-0.415153 -0.0372939 -9.5019 
-9.92241 -0.00691107 -0.297361 
-0.00691107 -9.93086 0.059438 
-0.297361 0.059438 -9.95378 
-9.91788 0.00383096 -0.30248 
0.00383096 -9.94201 0.0470515 
-0.30248 0.0470515 -9.94716 
-9.92657 -0.00262647 -0.324802 
-0.00262647 -9.95192 0.0569485 
-0.324802 0.0569485 -9.92856 
-9.99597 0.00618824 -0.305709 
0.00618824 -9.91655 0.0592105 
-0.305709 0.0592105 -9.89453 
-6.37633 -0.176517 2.07106 
-0.176517 -5.87502 0.829592 
2.07106 0.829592 0.0827736 
-7.19287 -1.60166 0.221455 
-1.60166 -9.91319 0.107576 
0.221455 0.107576 4.93748 
-2.20677 0.671495 0.450323 
0.671495 -2.26016 0.641809 
0.450323 0.641809 -7.70165 
-5.28569 -0.442324 4.63837 
-0.442324 -4.60245 5.7739 
4.63837 5.7739 -2.28044 
-9.96347 -0.0945559 0.0546575 
-0.0945559 -10.0013 0.00527354 
0.0546575 0.00527354 -9.92837 
-9.91737 0.122061 -0.0135985 
0.122061 -9.98768 0.0270714 
-0.0135985 0.0270714 -9.98813 
-9.93335 -0.0935257 0.047591 
-0.0935257 -9.92623 0.0215853 
0.047591 0.0215853 -10.0336 
-9.96431 0.012856 -0.0433853 
0.012856 -9.95042 -0.00483278 
-0.0433853 -0.00483278 -9.97845 
-10.0797 -0.0444917 0.0675642 
-0.0444917 -10.1444 0.029305 
0.0675642 0.029305 -9.94618 
-10.0672 0.186697 0.118162 
0.186697 -10.0536 0.0186986 
0.118162 0.0186986 -10.0495 
-10.0535 0.0117199 -0.00395034 
0.0117199 -10.0973 0.0189898 
-0.00395034 0.0189898 -10.0195 
-10.0151 -0.241277 -0.0717506 
-0.241277 -9.98559 -0.0301681 
-0.0717506 -0.0301681 -10.1696 
-9.69288 -0.0393093 0.354875 
-0.0393093 -9.74803 -0.32202 
0.354875 -0.32202 -9.09725 
-9.57109 -0.0291206 0.205037 
-0.0291206 -9.55227 -0.28808 
0.205037 -0.28808 -9.41481 
-9.59372 0.0718186 0.484707 
0.0718186 -9.62352 -0.0731333 
0.484707 -0.0731333 -9.32093 
-9.50548 -0.0394521 0.627903 
-0.0394521 -9.55868 -0.0969497 
0.627903 -0.0969497 -9.474 
-10.3638 0.0228083 0.165682 
0.0228083 -10.1659 0.0446452 
0.165682 0.0446452 -9.79337 
-9.55013 0.0589916 -0.334568 
0.0589916 -10.0643 0.108049 
-0.334568 0.108049 -10.7086 
-10.2346 -0.0771249 0.0356491 
-0.0771249 -10.1687 -0.0864493 
0.0356491 -0.0864493 -9.9198 
-10.221 -0.331494 0.163024 
-0.331494 -10.1572 0.12568 
0.163024 0.12568 -9.94487 
-9.93518 -0.00236689 0.0200225 
-0.00236689 -9.94277 0.298959 
0.0200225 0.298959 -9.92978 
-9.93999 0.00224008 0.0262704 
0.00224008 -9.93038 0.288059 
0.0262704 0.288059 -9.93735 
-9.93106 -0.00252105 0.0223909 
-0.00252105 -9.95199 0.297692 
0.0223909 0.297692 -9.92467 
-9.95634 -0.00284951 0.00855592 
-0.00284951 -9.93662 0.301465 
0.00855592 0.301465 -9.91476 
-9.80944 0.00552494 -0.00727993 
0.00552494 -9.73013 0.350415 
-0.00727993 0.350415 -9.84547 
-9.79203 -0.000872048 -0.0170341 
-0.000872048 -9.82446 0.36982 
-0.0170341 0.36982 -9.76855 
-9.79885 -0.00234345 -0.0130625 
-0.00234345 -9.79203 0.348918 
-0.0130625 0.348918 -9.79417 
-9.7945 0.00313577 -0.0270815 
0.00313577 -9.81048 0.342676 
-0.0270815 0.342676 -9.78006 
-10.9007 -0.0617355 -0.232026 
-0.0617355 -11.6858 0.286787 
-0.232026 0.286787 -10.7596 
-10.685 0.451288 -0.193007 
0.451288 -11.2058 0.0722682 
-0.193007 0.0722682 -11.4554 
-10.5119 -0.0257812 -0.251458 
-0.0257812 -10.7408 0.0163873 
-0.251458 0.0163873 -12.0934 
-10.9299 0.0357952 0.143445 
0.0357952 -11.2093 0.257086 
0.143445 0.257086 -11.2069 
-9.80319 0.00220059 0.33504 
0.00220059 -9.78945 0.0960235 
0.33504 0.0960235 -9.79405 
-9.81361 -0.00489042 0.347588 
-0.00489042 -9.80231 0.0949015 
0.347588 0.0949015 -9.77077 
-9.74457 0.0337309 0.332656 
0.0337309 -9.79819 0.114447 
0.332656 0.114447 -9.84393 
-9.80618 -0.00577629 0.323263 
-0.00577629 -9.78652 0.0819663 
0.323263 0.0819663 -9.79399 
-9.76746 -1.55366e-05 0.0217267 
-1.55366e-05 -9.76102 -0.009298 
0.0217267 -0.009298 -9.88018 
-9.76599 0.0037299 0.0366747 
0.0037299 -9.76023 -0.0119601 
0.0366747 -0.0119601 -9.88244 
-9.76402 -0.00195263 0.0383487 
-0.00195263 -9.76515 -0.00805345 
0.0383487 -0.00805345 -9.8795 
-9.76061 0.000497151 0.0336652 
0.000497151 -9.76575 -0.00591067 
0.0336652 -0.00591067 -9.8823 
-9.48216 0.000775549 -0.29973 
0.000775549 -9.52978 -0.218922 
-0.29973 -0.218922 -9.47338 
-9.42716 0.0436786 -0.28688 
0.0436786 -9.47716 -0.238206 
-0.28688 -0.238206 -9.581 
-9.47115 0.00853434 -0.299046 
0.00853434 -9.51653 -0.198686 
-0.299046 -0.198686 -9.49765 
-9.46435 0.00462433 -0.283307 
0.00462433 -9.52337 -0.19277 
-0.283307 -0.19277 -9.4976 
-9.95275 0.00614398 0.244039 
0.00614398 -9.93593 -0.25593 
0.244039 -0.25593 -9.94155 
-9.9061 -0.0292873 0.2377 
-0.0292873 -9.94838 -0.249483 
0.2377 -0.249483 -9.97576 
-9.93446 -0.0195521 0.244509 
-0.0195521 -9.95883 -0.23634 
0.244509 -0.23634 -9.93695 
-9.93829 0.0132533 0.237177 
0.0132533 -9.94067 -0.249042 
0.237177 -0.249042 -9.95128 
-1.81655 -1.09458 -2.48674 
-1.09458 -2.84924 0.0614141 
-2.48674 0.0614141 -7.44856 
-6.39058 1.32506 1.14812 
1.32506 -6.21774 0.782443 
1.14812 0.782443 0.493974 
-10.3456 -0.324259 1.30204 
-0.324259 -7.89885 -1.20684 
1.30204 -1.20684 6.13007 
-6.27973 0.148253 -0.204667 
0.148253 -4.86996 4.3774 
-0.204667 4.3774 -0.964647 
-10.8228 0.454419 -0.109349 
0.454419 -10.8537 0.0420014 
-0.109349 0.0420014 -11.1492 
-10.7344 -0.935993 0.188264 
-0.935993 -11.1156 0.133977 
0.188264 0.133977 -10.9757 
-9.37555 0.524728 -0.461648 
0.524728 -10.999 0.0867842 
-0.461648 0.0867842 -12.4511 
-10.3823 0.0304694 0.288465 
0.0304694 -11.2024 -0.239395 
0.288465 -0.239395 -11.241 
-9.98697 0.107867 0.0452392 
0.107867 -9.92847 -0.102611 
0.0452392 -0.102611 -9.86484 
-9.96027 0.00187715 -0.00155221 
0.00187715 -9.96226 -0.06278 
-0.00155221 -0.06278 -9.85775 
-9.68103 -0.362855 0.0473326 
-0.362855 -10.032 0.0852738 
0.0473326 0.0852738 -10.0673 
-10.0486 -0.0120097 0.015021 
-0.0120097 -9.94801 -0.135007 
0.015021 -0.135007 -9.78372 
-9.73379 -0.00506299 0.021284 
-0.00506299 -9.73993 0.0174848 
0.021284 0.0174848 -9.88799 
-9.73454 -0.0106448 0.0193417 
-0.0106448 -9.74349 0.0141561 
0.0193417 0.0141561 -9.88368 
-9.74389 -0.00147453 0.0334124 
-0.00147453 -9.74248 0.0124144 
0.0334124 0.0124144 -9.87534 
-9.72708 -0.00312364 0.0227629 
-0.00312364 -9.75505 0.0117517 
0.0227629 0.0117517 -9.87958 
-9.52356 0.044853 -0.0346888 
0.044853 -9.45402 -0.074568 
-0.0346888 -0.074568 -9.62045 
-9.52726 -0.0157433 -0.0082436 
-0.0157433 -9.44249 -0.0798284 
-0.0082436 -0.0798284 -9.62828 
-9.48019 0.0729554 -0.0979566 
0.0729554 -9.53684 -0.150149 
-0.0979566 -0.150149 -9.58101 
-9.38828 -0.0387308 0.102952 
-0.0387308 -9.46946 -0.0631962 
0.102952 -0.0631962 -9.7403 
-9.66248 -0.0401131 0.257921 
-0.0401131 -9.70599 0.272628 
0.257921 0.272628 -9.57144 
-9.62164 0.0100707 0.252876 
0.0100707 -9.61086 0.268912 
0.252876 0.268912 -9.7074 
-9.64099 0.0178157 0.262161 
0.0178157 -9.6435 0.245801 
0.262161 0.245801 -9.65541 
-9.64853 0.00502115 0.254927 
0.00502115 -9.64529 0.213599 
0.254927 0.213599 -9.64608 
-10.4313 0.484191 0.0168056 
0.484191 -10.4462 0.258079 
0.0168056 0.258079 -11.5719 
-9.53856 -0.690425 -0.703211 
-0.690425 -10.5259 -0.33825 
-0.703211 -0.33825 -12.3849 
-9.83497 -0.238496 0.71504 
-0.238496 -11.2159 0.00363916 
0.71504 0.00363916 -11.3985 
-10.0707 0.199269 -0.0283057 
0.199269 -10.4712 0.0846302 
-0.0283057 0.0846302 -11.9075 
-9.9534 0.00601699 -0.0029536 
0.00601699 -9.94549 0.261884 
-0.0029536 0.261884 -10.0317 
-9.97629 0.00690394 -0.011729 
0.00690394 -9.99519 0.266274 
-0.011729 0.266274 -9.95914 
-9.96857 0.00799664 -0.0194949 
0.00799664 -9.97771 0.272426 
-0.0194949 0.272426 -9.98433 
-9.97655 -0.00243795 -0.0149098 
-0.00243795 -9.99928 0.281867 
-0.0149098 0.281867 -9.95479 
-9.95405 0.00296727 0.0478099 
0.00296727 -9.95282 -0.117068 
0.0478099 -0.117068 -10.0133 
-9.98127 0.00425533 0.0329595 
0.00425533 -9.957 -0.113867 
0.0329595 -0.113867 -9.98194 
-9.97355 0.00359691 0.034361 
0.00359691 -9.96989 -0.120942 
0.034361 -0.120942 -9.97676 
-9.97822 0.00425996 0.0289673 
0.00425996 -9.98003 -0.116956 
0.0289673 -0.116956 -9.96196 
-9.49872 0.114852 0.0735639 
0.114852 -9.64148 -0.165043 
0.0735639 -0.165043 -9.65918 
-9.55986 -0.215874 0.0445145 
-0.215874 -9.31813 -0.213396 
0.0445145 -0.213396 -9.92139 
-9.60536 0.0445392 0.119677 
0.0445392 -9.52634 -0.189997 
0.119677 -0.189997 -9.66768 
-9.53201 0.0650284 0.171107 
0.0650284 -9.51807 -0.31565 
0.171107 -0.31565 -9.7493 
-9.95762 -0.0125407 0.185415 
-0.0125407 -9.93355 -0.275863 
0.185415 -0.275863 -9.94896 
-9.95487 -0.0105 0.189075 
-0.0105 -9.91793 -0.282256 
0.189075 -0.282256 -9.96733 
-9.94111 0.00210038 0.20397 
0.00210038 -9.95274 -0.284824 
0.20397 -0.284824 -9.94629 
-9.94228 0.00984753 0.203717 
0.00984753 -9.94143 -0.282658 
0.203717 -0.282658 -9.95642 
-9.93923 0.00869436 -0.135931 
0.00869436 -9.94537 0.325184 
-0.135931 0.325184 -9.93132 
-9.92806 -0.0397542 -0.126339 
-0.0397542 -9.91894 0.32832 
-0.126339 0.32832 -9.96892 
-9.94773 -0.0180416 -0.144826 
-0.0180416 -9.95154 0.322287 
-0.144826 0.322287 -9.91664 
-9.92645 0.0101092 -0.133108 
0.0101092 -9.9514 0.321707 
-0.133108 0.321707 -9.93807 
-9.9554 0.00179137 0.0320036 
0.00179137 -9.98295 -0.27283 
0.0320036 -0.27283 -9.99213 
-9.98077 0.00247248 0.0252534 
0.00247248 -9.99041 -0.261253 
0.0252534 -0.261253 -9.9593 
-9.95374 -0.00566336 0.0392441 
-0.00566336 -9.96659 -0.252954 
0.0392441 -0.252954 -10.0101 
-9.99262 0.0018312 0.0320666 
0.0018312 -9.98611 -0.266756 
0.0320666 -0.266756 -9.95175 
-8.96379 -0.489624 -0.0179662 
-0.489624 -10.0675 0.262463 
-0.0179662 0.262463 -10.2682 
-8.76073 -0.379987 0.38234 
-0.379987 -10.4505 0.225272 
0.38234 0.225272 -10.0882 
-8.92715 -0.120141 0.400385 
-0.120141 -10.516 0.032065 
0.400385 0.032065 -9.85641 
-8.91648 -0.881828 0.488368 
-0.881828 -10.3263 -0.0355463 
0.488368 -0.0355463 -10.0567 
-9.90506 -0.00369354 -0.0236207 
-0.00369354 -9.89139 0.342911 
-0.0236207 0.342911 -9.889 
-9.87645 -0.00604822 -0.0220225 
-0.00604822 -9.88105 0.310462 
-0.0220225 0.310462 -9.92795 
-9.8978 -0.0032561 -0.0259425 
-0.0032561 -9.89613 0.341375 
-0.0259425 0.341375 -9.89152 
-9.93876 -0.0146377 -0.0151651 
-0.0146377 -9.93194 0.343256 
-0.0151651 0.343256 -9.81475 
-10.7273 0.918108 0.437869 
0.918108 -10.0977 0.392832 
0.437869 0.392832 -14.0185 
-11.1854 -0.0659978 0.184925 
-0.0659978 -10.8134 0.170948 
0.184925 0.170948 -12.8447 
-11.3376 0.701267 0.348584 
0.701267 -11.6762 0.0764322 
0.348584 0.0764322 -11.8297 
-11.4734 0.83863 -0.0223361 
0.83863 -11.0484 0.947168 
-0.0223361 0.947168 -12.3217 
-9.95465 0.0115494 -0.0771755 
0.0115494 -9.93643 -0.193049 
-0.0771755 -0.193049 -10.025 
-9.97341 -0.00169527 -0.052404 
-0.00169527 -9.95246 -0.199682 
-0.052404 -0.199682 -9.99015 
-9.98563 -0.00938414 -0.0660783 
-0.00938414 -9.97733 -0.198753 
-0.0660783 -0.198753 -9.95307 
-9.97556 -0.00813923 -0.0544895 
-0.00813923 -9.99122 -0.186549 
-0.0544895 -0.186549 -9.94925 
-4.6582 0.948963 -0.499809 
0.948963 -4.46664 0.492444 
-0.499809 0.492444 -1.06036 
-5.16228 0.807277 0.0341403 
0.807277 -4.07976 -1.07606 
0.0341403 -1.07606 -0.943156 
-2.887 -1.36272 -0.975088 
-1.36272 -3.77994 -0.0583236 
-0.975088 -0.0583236 -3.51826 
-3.72237 1.22188 -1.9925 
1.22188 -3.52018 0.0166699 
-1.9925 0.0166699 -2.94265 
-9.94438 0.00425238 -0.138135 
0.00425238 -9.93621 -0.307854 
-0.138135 -0.307854 -9.94405 
-9.93372 0.00116559 -0.150763 
0.00116559 -9.95669 -0.318776 
-0.150763 -0.318776 -9.93422 
-9.96018 0.00989731 -0.117807 
0.00989731 -9.88906 -0.308766 
-0.117807 -0.308766 -9.97539 
-9.9318 -0.00148145 -0.146759 
-0.00148145 -9.95118 -0.307096 
-0.146759 -0.307096 -9.94166 
-4.51536 2.33971 0.813706 
2.33971 -9.98825 1.81775 
0.813706 1.81775 -6.10752 
-8.72189 0.0585642 4.37806 
0.0585642 -5.07857 2.19615 
4.37806 2.19615 -6.81067 
-12.5316 -1.20874 1.13235 
-1.20874 -6.78632 3.92357 
1.13235 3.92357 -1.29325 
-7.37005 0.424093 2.84091 
0.424093 -9.20427 1.44814 
2.84091 1.44814 -4.03681 
-9.58106 0.0714255 -0.122691 
0.0714255 -9.59497 -0.1203 
-0.122691 -0.1203 -9.94563 
-9.68778 0.211633 -0.057179 
0.211633 -9.45431 -0.0838062 
-0.057179 -0.0838062 -9.97958 
-9.59052 -0.224242 0.0651056 
-0.224242 -9.79638 -0.14727 
0.0651056 -0.14727 -9.73476 
-9.64146 0.0690936 -0.120623 
0.0690936 -9.63348 -0.21071 
-0.120623 -0.21071 -9.84672 
-9.75248 -0.0254414 -0.100467 
-0.0254414 -9.74832 -0.110566 
-0.100467 -0.110566 -9.69658 
-9.7493 -0.0248891 -0.101404 
-0.0248891 -9.74497 -0.11482 
-0.101404 -0.11482 -9.70311 
-9.7554 -0.0324075 -0.103317 
-0.0324075 -9.75291 -0.117013 
-0.103317 -0.117013 -9.68906 
-9.75049 -0.0227023 -0.109698 
-0.0227023 -9.76325 -0.103855 
-0.109698 -0.103855 -9.68364 
-9.97359 -0.011424 -0.085025 
-0.011424 -9.95846 -0.0127513 
-0.085025 -0.0127513 -9.97891 
-9.95013 -0.00148214 -0.0927052 
-0.00148214 -9.94624 -0.0198892 
-0.0927052 -0.0198892 -10.0146 
-9.98101 -0.00159116 -0.0864483 
-0.00159116 -9.95643 -0.0184105 
-0.0864483 -0.0184105 -9.97351 
-9.9787 -9.26548e-06 -0.0787056 
-9.26548e-06 -9.976 -0.0141604 
-0.0787056 -0.0141604 -9.95625 
-9.69928 0.200197 -0.164072 
0.200197 -9.51425 -0.197262 
-0.164072 -0.197262 -9.46516 
-9.61851 0.103932 -0.124825 
0.103932 -9.53973 -0.0386958 
-0.124825 -0.0386958 -9.52044 
-9.66347 0.0945831 0.0906419 
0.0945831 -9.39378 -0.0736124 
0.0906419 -0.0736124 -9.62143 
-9.50207 0.13105 -0.147234 
0.13105 -9.56694 0.0209331 
-0.147234 0.0209331 -9.60968 
-9.56503 0.0306656 -0.188378 
0.0306656 -9.5198 -0.286456 
-0.188378 -0.286456 -9.52845 
-9.51762 0.00544778 -0.195414 
0.00544778 -9.53165 -0.280651 
-0.195414 -0.280651 -9.56401 
-9.53284 0.0116728 -0.205116 
0.0116728 -9.53357 -0.280091 
-0.205116 -0.280091 -9.54687 
-9.53816 0.0127963 -0.205068 
0.0127963 -9.52257 -0.290722 
-0.205068 -0.290722 -9.55255 
-9.95248 0.00178068 -0.259239 
0.00178068 -9.95029 0.203761 
-0.259239 0.203761 -10.0212 
-9.98295 0.0043864 -0.244543 
0.0043864 -9.99178 0.246281 
-0.244543 0.246281 -9.94924 
-9.96987 0.0200192 -0.241704 
0.0200192 -9.9875 0.215072 
-0.241704 0.215072 -9.96661 
-9.98026 0.0118174 -0.242198 
0.0118174 -9.97389 0.223082 
-0.242198 0.223082 -9.96982 
-9.89243 -0.00769987 0.0743018 
-0.00769987 -9.90319 -0.324504 
0.0743018 -0.324504 -9.89013 
-9.91335 -0.0155879 0.0777942 
-0.0155879 -9.89463 -0.322189 
0.0777942 -0.322189 -9.87777 
-9.89034 0.000387804 0.0564394 
0.000387804 -9.88008 -0.308356 
0.0564394 -0.308356 -9.91532 
-9.92338 -0.00503802 0.102038 
-0.00503802 -9.92444 -0.326918 
0.102038 -0.326918 -9.83793 
-10.5779 0.41257 0.411228 
0.41257 -9.99403 0.619141 
0.411228 0.619141 -16.3803 
-13.9263 0.443351 0.415994 
0.443351 -11.1363 0.547552 
0.415994 0.547552 -11.8896 
-12.2923 0.191108 0.379659 
0.191108 -11.2975 0.911459 
0.379659 0.911459 -13.3624 
-12.8547 0.499055 0.673004 
0.499055 -11.8407 3.24616 
0.673004 3.24616 -12.2569 
-10.1926 -0.245582 0.406913 
-0.245582 -9.92264 -0.572281 
0.406913 -0.572281 -7.99285 
-9.60063 -0.140253 -0.46104 
-0.140253 -9.52084 -0.571656 
-0.46104 -0.571656 -8.98663 
-10.3357 -0.0990988 0.335672 
-0.0990988 -9.37562 -0.877727 
0.335672 -0.877727 -8.39681 
-10.1221 -0.388236 -1.00672 
-0.388236 -9.93619 -1.36904 
-1.00672 -1.36904 -8.04982 
-9.58637 -0.0539739 0.234088 
-0.0539739 -9.59009 -0.304887 
0.234088 -0.304887 -9.50369 
-9.52681 -0.0951179 0.383215 
-0.0951179 -9.61728 -0.385742 
0.383215 -0.385742 -9.53605 
-9.70485 -0.0431907 0.246994 
-0.0431907 -9.61882 -0.284886 
0.246994 -0.284886 -9.35647 
-9.57769 -0.0816403 0.303243 
-0.0816403 -9.59032 -0.418941 
0.303243 -0.418941 -9.51213 
-9.82561 0.00331917 0.0454612 
0.00331917 -9.8194 -0.346406 
0.0454612 -0.346406 -9.87827 
-9.84607 0.00533659 0.0327281 
0.00533659 -9.83067 -0.339316 
0.0327281 -0.339316 -9.84654 
-9.8324 0.00601166 0.034426 
0.00601166 -9.87096 -0.352503 
0.034426 -0.352503 -9.81993 
-9.84293 0.00409391 0.0266548 
0.00409391 -9.84039 -0.320962 
0.0266548 -0.320962 -9.83996 
-9.90991 -0.00717952 -0.321206 
-0.00717952 -9.89931 0.0679192 
-0.321206 0.0679192 -9.89184 
-9.90307 -0.0116938 -0.323457 
-0.0116938 -9.90888 0.0783645 
-0.323457 0.0783645 -9.88911 
-9.88955 -0.00795961 -0.302932 
-0.00795961 -9.88726 0.0465983 
-0.302932 0.0465983 -9.92426 
-9.94343 -0.0167104 -0.309635 
-0.0167104 -9.91882 0.0978388 
-0.309635 0.0978388 -9.83882 
-9.85077 0.0105902 -0.26925 
0.0105902 -9.35208 -0.0607259 
-0.26925 -0.0607259 -9.13101 
-9.33972 0.110899 -0.0169774 
0.110899 -9.53877 0.0785322 
-0.0169774 0.0785322 -9.45536 
-9.51924 -0.0317976 -0.333972 
-0.0317976 -9.42142 -0.157493 
-0.333972 -0.157493 -9.39319 
-9.64427 0.0553045 -0.262167 
0.0553045 -9.66331 -0.0800845 
-0.262167 -0.0800845 -9.02628 
-9.96037 0.00548573 -0.159663 
0.00548573 -9.95232 0.299966 
-0.159663 0.299966 -10.017 
-9.97897 0.0191804 -0.175739 
0.0191804 -9.97434 0.291001 
-0.175739 0.291001 -9.97635 
-9.9861 0.00321011 -0.19153 
0.00321011 -9.98751 0.288909 
-0.19153 0.288909 -9.95605 
-9.97847 0.00739229 -0.179348 
0.00739229 -9.98047 0.288537 
-0.179348 0.288537 -9.97072 
-10.0964 0.148476 0.183855 
0.148476 -10.3096 0.0794416 
0.183855 0.0794416 -11.6855 
-11.0279 -0.10976 -0.1219 
-0.10976 -10.5423 0.105287 
-0.1219 0.105287 -10.5214 
-10.2764 -0.522324 -0.169445 
-0.522324 -10.6001 0.0951603 
-0.169445 0.0951603 -11.2152 
-10.4485 -0.288529 -0.457455 
-0.288529 -10.6929 0.115742 
-0.457455 0.115742 -10.9502 
-9.83688 0.0242932 -0.354957 
0.0242932 -9.8199 0.0778517 
-0.354957 0.0778517 -9.77913 
-9.81186 -0.00428162 -0.334327 
-0.00428162 -9.81327 0.0912739 
-0.334327 0.0912739 -9.81077 
-9.77118 -0.0276958 -0.333836 
-0.0276958 -9.80836 0.0972725 
-0.333836 0.0972725 -9.85638 
-9.82282 0.0063809 -0.319314 
0.0063809 -9.79246 0.054748 
-0.319314 0.054748 -9.82063 
-10.0383 -0.0683299 -0.0688313 
-0.0683299 -9.9767 -0.0238443 
-0.0688313 -0.0238443 -9.92122 
-10.0133 -0.0253159 -0.0621037 
-0.0253159 -10.0288 -0.0235547 
-0.0621037 -0.0235547 -9.89414 
-9.99725 -0.0718325 0.0176099 
-0.0718325 -10.0385 0.0242846 
0.0176099 0.0242846 -9.90055 
-9.9668 0.199995 0.0492169 
0.199995 -9.89091 -0.0548137 
0.0492169 -0.0548137 -10.0785 
-9.87721 0.0130512 0.0925846 
0.0130512 -9.86153 0.288245 
0.0925846 0.288245 -9.89496 
-9.87342 -0.0104863 0.0821939 
-0.0104863 -9.91331 0.320279 
0.0821939 0.320279 -9.84696 
-9.86652 -0.00113439 0.0870315 
-0.00113439 -9.88106 0.318602 
0.0870315 0.318602 -9.88612 
-9.87865 -0.00726696 0.0958705 
-0.00726696 -9.88845 0.314063 
0.0958705 0.314063 -9.86658 
-9.68158 0.0536725 -0.291934 
0.0536725 -9.56808 0.0949182 
-0.291934 0.0949182 -9.61466 
-9.5037 -0.0635164 -0.293972 
-0.0635164 -9.6466 0.105067 
-0.293972 0.105067 -9.71403 
-9.6283 -0.00614983 -0.313544 
-0.00614983 -9.6007 0.0912912 
-0.313544 0.0912912 -9.63533 
-9.63813 -0.00676135 -0.381018 
-0.00676135 -9.57609 0.142961 
-0.381018 0.142961 -9.6501 
-9.34929 0.686641 0.353385 
0.686641 -9.70506 -0.322404 
0.353385 -0.322404 -6.93492 
-9.77899 -1.3009 -1.29337 
-1.3009 -10.5577 -0.495006 
-1.29337 -0.495006 -5.6526 
-9.48006 0.0533734 0.161671 
0.0533734 -9.18316 -0.230036 
0.161671 -0.230036 -7.32605 
-9.70476 0.712983 -0.480119 
0.712983 -9.05789 -0.745422 
-0.480119 -0.745422 -7.22661 
-9.95255 -0.00216827 -0.343523 
-0.00216827 -9.93015 0.0307038 
-0.343523 0.0307038 -9.93449 
-9.94034 0.00484439 -0.348236 
0.00484439 -9.96535 0.0116719 
-0.348236 0.0116719 -9.91151 
-9.90118 0.00744922 -0.337431 
0.00744922 -9.94433 0.00681383 
-0.337431 0.00681383 -9.97169 
-9.94747 -0.00274613 -0.342205 
-0.00274613 -9.93524 0.0214011 
-0.342205 0.0214011 -9.93448 
-9.66915 -0.00997576 -0.115941 
-0.00997576 -9.62126 -0.310207 
-0.115941 -0.310207 -9.35357 
-9.76111 -0.00194974 0.0182107 
-0.00194974 -9.61714 -0.38634 
0.0182107 -0.38634 -9.26573 
-9.59952 0.0233429 0.00317227 
0.0233429 -9.33366 -0.382708 
0.00317227 -0.382708 -9.7108 
-9.64273 0.0487043 -0.0420068 
0.0487043 -9.58728 -0.320868 
-0.0420068 -0.320868 -9.41397 
-9.88851 -0.00127153 0.305806 
-0.00127153 -9.88717 0.0604581 
0.305806 0.0604581 -9.91727 
-9.90196 0.00298325 0.322957 
0.00298325 -9.90336 0.0854645 
0.322957 0.0854645 -9.88763 
-9.89651 0.00489723 0.334901 
0.00489723 -9.90187 0.0792082 
0.334901 0.0792082 -9.89458 
-9.92414 0.00674206 0.336396 
0.00674206 -9.92091 0.0955031 
0.336396 0.0955031 -9.84791 
-9.96443 -0.0124124 -0.115752 
-0.0124124 -9.98681 -0.294032 
-0.115752 -0.294032 -9.96031 
-9.93602 -0.00814681 -0.0972758 
-0.00814681 -9.92864 -0.311333 
-0.0972758 -0.311333 -10.0469 
-9.98422 -0.00685273 -0.135348 
-0.00685273 -9.98227 -0.311243 
-0.135348 -0.311243 -9.94506 
-9.95276 0.000177471 -0.117244 
0.000177471 -9.9891 -0.297285 
-0.117244 -0.297285 -9.9697 
-9.30505 -0.0515496 -0.0010375 
-0.0515496 -9.84222 -0.473273 
-0.0010375 -0.473273 -9.83186 
-9.8246 -0.244451 0.040313 
-0.244451 -9.23286 0.249013 
0.040313 0.249013 -9.92167 
-9.67813 -0.322565 0.0179526 
-0.322565 -9.33592 0.272004 
0.0179526 0.272004 -9.96508 
-9.90504 -0.336379 -0.00261716 
-0.336379 -8.81632 0.0713197 
-0.00261716 0.0713197 -10.2578 
-10.4369 0.451682 -0.881477 
0.451682 -10.1779 -0.950498 
-0.881477 -0.950498 -8.71231 
-10.8373 0.0114837 -0.724168 
0.0114837 -10.2168 -1.05598 
-0.724168 -1.05598 -8.27308 
-10.6591 0.864785 0.0582716 
0.864785 -8.65578 -0.940252 
0.0582716 -0.940252 -10.0123 
-9.92022 0.686498 -1.65308 
0.686498 -10.8764 -0.872103 
-1.65308 -0.872103 -8.53055 
-10.3794 0.0169124 -0.00410906 
0.0169124 -10.2482 -0.0141176 
-0.00410906 -0.0141176 -10.1066 
-10.2311 -0.143565 0.0365503 
-0.143565 -10.2117 -0.0338011 
0.0365503 -0.0338011 -10.2914 
-10.0449 -0.0538953 0.09273 
-0.0538953 -10.1323 -0.121974 
0.09273 -0.121974 -10.5569 
-10.3034 -0.00982671 -0.127508 
-0.00982671 -10.3593 0.0477865 
-0.127508 0.0477865 -10.0714 
-10.1211 0.984911 -0.216437 
0.984911 -11.4381 -1.10406 
-0.216437 -1.10406 -15.7665 
-11.4742 1.06457 0.778865 
1.06457 -10.2397 -0.837401 
0.778865 -0.837401 -15.6119 
-11.315 0.888614 -0.197227 
0.888614 -12.7715 -0.136727 
-0.197227 -0.136727 -13.2393 
-11.6041 1.44405 0.506933 
1.44405 -13.4607 -0.409945 
0.506933 -0.409945 -12.2609 
-9.55731 0.0446537 0.0109608 
0.0446537 -9.73477 -0.0326645 
0.0109608 -0.0326645 -9.12416 
-9.51812 0.0958908 0.13111 
0.0958908 -9.69236 0.0387919 
0.13111 0.0387919 -9.20576 
-9.53978 -0.0171985 0.0284204 
-0.0171985 -9.69058 0.0116179 
0.0284204 0.0116179 -9.18587 
-9.52947 0.0235668 0.109372 
0.0235668 -9.66773 -0.0221921 
0.109372 -0.0221921 -9.21903 
-9.96893 0.00864829 0.252049 
0.00864829 -9.9664 -0.0699315 
0.252049 -0.0699315 -9.99936 
-9.97567 0.0122753 0.266396 
0.0122753 -9.95873 -0.0851991 
0.266396 -0.0851991 -10.0003 
-9.98913 0.00326945 0.259372 
0.00326945 -9.9749 -0.0746172 
0.259372 -0.0746172 -9.97067 
-9.98939 -0.000185549 0.261147 
-0.000185549 -9.98523 -0.0736939 
0.261147 -0.0736939 -9.96007 
-10.4808 2.71774 0.596788 
2.71774 -4.31323 1.90954 
0.596788 1.90954 3.31463 
-8.79813 -0.376774 -0.212202 
-0.376774 -8.22708 0.285899 
-0.212202 0.285899 5.54578 
0.239611 0.0826542 -1.72418 
0.0826542 -3.41799 -0.598326 
-1.72418 -0.598326 -8.30105 
-7.2996 -2.55835 -6.3515 
-2.55835 -4.22363 3.49828 
-6.3515 3.49828 0.043799 
-9.89814 0.517934 -0.315789 
0.517934 -9.74191 0.44567 
-0.315789 0.44567 -12.3602 
-11.0592 -0.229366 0.101587 
-0.229366 -10.909 -0.168138 
0.101587 -0.168138 -10.032 
-9.55668 -0.726884 -0.074577 
-0.726884 -12.144 -0.112112 
-0.074577 -0.112112 -10.2996 
-10.9702 -0.368402 -0.132519 
-0.368402 -10.0993 -0.927955 
-0.132519 -0.927955 -10.9307 
-6.81294 -1.67041 6.36049 
-1.67041 -10.8407 -2.4652 
6.36049 -2.4652 -8.3936 
-7.19895 0.061866 3.69 
0.061866 -9.5244 -1.57516 
3.69 -1.57516 -9.32387 
-11.1647 1.94445 1.66593 
1.94445 -7.77453 -0.0964104 
1.66593 -0.0964104 -7.10803 
-5.05802 -1.45271 2.02747 
-1.45271 -9.99575 0.0640391 
2.02747 0.0640391 -10.9935 
-9.8346 0.385254 1.22252 
0.385254 -9.29743 0.999266 
1.22252 0.999266 -9.76161 
-9.11748 -0.165279 -0.17144 
-0.165279 -9.85946 0.159045 
-0.17144 0.159045 -9.9167 
-8.82881 -0.632625 0.847453 
-0.632625 -9.62648 1.05082 
0.847453 1.05082 -10.4384 
-9.03227 -0.334334 0.939348 
-0.334334 -10.7227 -0.147313 
0.939348 -0.147313 -9.13864 
-9.75673 -0.0106188 -0.0624882 
-0.0106188 -9.81419 -0.119749 
-0.0624882 -0.119749 -9.79479 
-9.75887 -0.022997 -0.0523698 
-0.022997 -9.81736 -0.108204 
-0.0523698 -0.108204 -9.78948 
-9.76069 -0.0100483 -0.03109 
-0.0100483 -9.80847 -0.127432 
-0.03109 -0.127432 -9.79656 
-9.75976 -0.0217387 -0.0367577 
-0.0217387 -9.82186 -0.13048 
-0.0367577 -0.13048 -9.78409 
-9.59914 -0.0256926 0.0295814 
-0.0256926 -9.50902 -0.342562 
0.0295814 -0.342562 -9.54789 
-9.58627 0.026526 0.0507745 
0.026526 -9.53932 -0.373904 
0.0507745 -0.373904 -9.53046 
-9.59072 0.026153 0.0431098 
0.026153 -9.51711 -0.384373 
0.0431098 -0.384373 -9.54823 
-9.55007 -0.0218542 0.0681422 
-0.0218542 -9.54681 -0.351622 
0.0681422 -0.351622 -9.55918 
-9.69097 -0.00188982 -0.299664 
-0.00188982 -9.70353 -0.156433 
-0.299664 -0.156433 -9.69705 
-9.65662 0.00398014 -0.311862 
0.00398014 -9.70146 -0.154687 
-0.311862 -0.154687 -9.73346 
-9.74622 -0.0275068 -0.327025 
-0.0275068 -9.71306 -0.130901 
-0.327025 -0.130901 -9.63226 
-9.68338 -0.00973758 -0.251362 
-0.00973758 -9.71931 -0.14513 
-0.251362 -0.14513 -9.68886 
-3.89318 0.612233 -0.85536 
0.612233 -3.63766 -0.370448 
-0.85536 -0.370448 -1.16501 
-5.13573 -0.272972 0.0110599 
-0.272972 -4.9408 0.961657 
0.0110599 0.961657 1.38068 
-3.09655 -0.105735 -0.621516 
-0.105735 -3.47077 -0.518402 
-0.621516 -0.518402 -2.12853 
-3.0443 -0.836015 -0.867059 
-0.836015 -4.77822 -2.08399 
-0.867059 -2.08399 -0.873329 
-9.95137 0.00532792 0.00842539 
0.00532792 -9.95427 0.285842 
0.00842539 0.285842 -10.0242 
-9.97803 0.00559681 -0.00245511 
0.00559681 -9.97373 0.29315 
-0.00245511 0.29315 -9.97804 
-9.9813 0.00266102 -0.000311833 
0.00266102 -9.97701 0.290749 
-0.000311833 0.290749 -9.9715 
-9.98121 0.00104988 -0.00985812 
0.00104988 -9.98652 0.29318 
-0.00985812 0.29318 -9.96208 
-9.54856 -0.00576948 0.344157 
-0.00576948 -9.53772 -0.0916577 
0.344157 -0.0916577 -9.61554 
-9.56528 -0.00863271 0.322571 
-0.00863271 -9.57849 -0.117234 
0.322571 -0.117234 -9.55805 
-9.5645 -0.00746779 0.331201 
-0.00746779 -9.5843 -0.0829987 
0.331201 -0.0829987 -9.55301 
-9.56207 0.00027862 0.304201 
0.00027862 -9.57618 -0.0899294 
0.304201 -0.0899294 -9.56357 
-9.99101 0.00586512 0.276289 
0.00586512 -9.98264 -0.189564 
0.276289 -0.189564 -9.96943 
-9.97875 0.0146941 0.263693 
0.0146941 -9.98195 -0.194269 
0.263693 -0.194269 -9.98238 
-9.97225 0.00427509 0.257515 
0.00427509 -9.95634 -0.208857 
0.257515 -0.208857 -10.0145 
-9.99175 0.0125226 0.26297 
0.0125226 -9.97498 -0.191156 
0.26297 -0.191156 -9.97635 
-9.97334 0.00260066 -0.150376 
0.00260066 -9.95236 -0.217542 
-0.150376 -0.217542 -10.0045 
-9.96406 -0.00343351 -0.166726 
-0.00343351 -9.96036 -0.218553 
-0.166726 -0.218553 -10.0058 
-9.9822 -0.00379889 -0.158004 
-0.00379889 -9.98601 -0.213249 
-0.158004 -0.213249 -9.96201 
-9.97585 9.3544e-05 -0.156682 
9.3544e-05 -9.99426 -0.225302 
-0.156682 -0.225302 -9.96011 
-9.63469 -0.00120951 0.0567087 
-0.00120951 -9.65765 -0.359432 
0.0567087 -0.359432 -9.67189 
-9.67529 -0.00778417 0.0342285 
-0.00778417 -9.62651 -0.366119 
0.0342285 -0.366119 -9.66243 
-9.65269 0.0121675 0.0529559 
0.0121675 -9.71923 -0.359022 
0.0529559 -0.359022 -9.59232 
-9.66131 -0.0210043 0.0406269 
-0.0210043 -9.65585 -0.353724 
0.0406269 -0.353724 -9.64707 
-9.42106 0.409316 0.122908 
0.409316 -9.19634 0.0846219 
0.122908 0.0846219 -10.0449 
-9.59466 -0.180984 0.0786984 
-0.180984 -9.45281 0.093567 
0.0786984 0.093567 -9.61488 
-9.50051 0.103833 0.2065 
0.103833 -9.38354 0.130474 
0.2065 0.130474 -9.77829 
-9.60809 0.108378 0.321633 
0.108378 -9.41054 0.337436 
0.321633 0.337436 -9.64372 
-9.89631 0.0240916 0.287946 
0.0240916 -9.91148 0.0151283 
0.287946 0.0151283 -9.52917 
-9.64903 -0.0412812 0.137369 
-0.0412812 -9.79906 -0.138185 
0.137369 -0.138185 -9.88887 
-9.68159 -0.313084 0.00133143 
-0.313084 -9.61857 -0.0471932 
0.00133143 -0.0471932 -10.0368 
-9.56013 -0.126728 0.186158 
-0.126728 -9.78632 -0.232506 
0.186158 -0.232506 -9.9905 
-9.5811 0.0242315 0.126571 
0.0242315 -9.51289 0.34672 
0.126571 0.34672 -9.63755 
-9.59253 0.0174413 0.102832 
0.0174413 -9.56337 0.338552 
0.102832 0.338552 -9.57564 
-9.53277 -0.00206068 0.102605 
-0.00206068 -9.6061 0.341726 
0.102605 0.341726 -9.59267 
-9.54735 -0.00725475 0.101209 
-0.00725475 -9.57511 0.293454 
0.101209 0.293454 -9.60908 
-9.94756 -0.00558585 0.138331 
-0.00558585 -9.94865 0.1447 
0.138331 0.1447 -10.0216 
-9.97348 -0.0140551 0.127516 
-0.0140551 -9.97498 0.135671 
0.127516 0.135671 -9.96931 
-9.96567 -0.00979167 0.132961 
-0.00979167 -9.98117 0.1318 
0.132961 0.1318 -9.97094 
-9.98421 -0.00425416 0.122162 
-0.00425416 -9.98166 0.126012 
0.122162 0.126012 -9.95191 
-9.558 -0.0222975 -0.277468 
-0.0222975 -9.52277 -0.134176 
-0.277468 -0.134176 -9.54276 
-9.54275 -0.050835 -0.284318 
-0.050835 -9.53609 -0.116483 
-0.284318 -0.116483 -9.54468 
-9.41687 0.0811794 -0.334707 
0.0811794 -9.55761 -0.17358 
-0.334707 -0.17358 -9.64905 
-9.48661 -0.0107631 -0.218265 
-0.0107631 -9.49871 -0.100525 
-0.218265 -0.100525 -9.63821 
-9.65772 0.00394147 -0.0043339 
0.00394147 -9.67885 -0.0325051 
-0.0043339 -0.0325051 -9.82963 
-9.69047 -0.0160214 0.00918215 
-0.0160214 -9.64069 -0.0119728 
0.00918215 -0.0119728 -9.83504 
-9.62468 -0.0274787 0.0538071 
-0.0274787 -9.65813 -0.00615951 
0.0538071 -0.00615951 -9.88339 
-9.67075 0.019703 0.00626942 
0.019703 -9.68896 -0.00898883 
0.00626942 -0.00898883 -9.80649 
-10.6117 -0.0990458 -0.40236 
-0.0990458 -10.3691 -0.302478 
-0.40236 -0.302478 -9.22585 
-9.12353 -0.0459579 0.221711 
-0.0459579 -11.5672 -0.746673 
0.221711 -0.746673 -9.51585 
-9.57471 0.350046 0.821649 
0.350046 -9.45316 0.22602 
0.821649 0.22602 -11.1787 
-10.3617 -0.367566 -0.279572 
-0.367566 -10.4868 0.345638 
-0.279572 0.345638 -9.35814 
-3.2414 -0.00623956 0.0570671 
-0.00623956 -3.69917 -0.0770925 
0.0570671 -0.0770925 -2.01824 
-3.92211 0.484802 -0.536518 
0.484802 -5.34758 0.891406 
-0.536518 0.891406 0.310891 
-3.69426 0.568551 0.61462 
0.568551 -4.17817 0.305379 
0.61462 0.305379 -1.08637 
-2.72467 0.615677 0.355141 
0.615677 -3.16869 -0.371047 
0.355141 -0.371047 -3.06545 
-9.00402 0.0493263 0.557336 
0.0493263 -9.55063 0.424065 
0.557336 0.424065 -8.97847 
-9.05389 -0.176164 0.782715 
-0.176164 -9.99629 -0.338565 
0.782715 -0.338565 -8.48294 
-9.13311 -0.123187 0.748948 
-0.123187 -9.59641 -0.14096 
0.748948 -0.14096 -8.80359 
-9.7296 0.068227 0.626045 
0.068227 -8.73096 -0.636727 
0.626045 -0.636727 -9.07256 
-9.54242 -0.0241883 0.0437169 
-0.0241883 -9.50781 -0.363214 
0.0437169 -0.363214 -9.53906 
-9.50534 -0.0102143 0.0522787 
-0.0102143 -9.53338 -0.35291 
0.0522787 -0.35291 -9.55056 
-9.52433 -0.038297 0.0475676 
-0.038297 -9.46151 -0.356566 
0.0475676 -0.356566 -9.60345 
-9.51914 0.00360104 0.0754914 
0.00360104 -9.51864 -0.376028 
0.0754914 -0.376028 -9.55151 
-9.9358 0.000726007 -0.0307121 
0.000726007 -9.94977 0.347358 
-0.0307121 0.347358 -9.93555 
-9.94631 0.00890084 -0.0128579 
0.00890084 -9.90115 0.342603 
-0.0128579 0.342603 -9.97365 
-9.94067 -0.0014703 -0.0234399 
-0.0014703 -9.93935 0.346127 
-0.0234399 0.346127 -9.9411 
-9.95546 0.00162974 -0.0190631 
0.00162974 -9.94956 0.361184 
-0.0190631 0.361184 -9.91609 
-8.48903 0.894581 3.40057 
0.894581 -9.98671 -0.646124 
3.40057 -0.646124 -12.6148 
-9.21599 0.66968 1.05814 
0.66968 -10.8616 0.849755 
1.05814 0.849755 -11.0129 
-8.19058 -0.256209 1.13482 
-0.256209 -11.5005 -0.0751655 
1.13482 -0.0751655 -11.3994 
-9.61345 1.11281 1.45614 
1.11281 -9.57887 -0.54934 
1.45614 -0.54934 -11.8982 
-9.28195 0.153643 -0.127508 
0.153643 -9.29969 -0.220871 
-0.127508 -0.220871 -10.1781 
-9.37637 0.116849 -0.0737567 
0.116849 -9.59361 -0.175916 
-0.0737567 -0.175916 -9.78973 
-9.33827 0.0532761 -0.378966 
0.0532761 -9.18113 -0.431529 
-0.378966 -0.431529 -10.2403 
-9.2357 0.276431 -0.102775 
0.276431 -9.22275 -0.0806438 
-0.102775 -0.0806438 -10.3013 
-9.98198 0.00396905 0.179447 
0.00396905 -9.97789 -0.176013 
0.179447 -0.176013 -9.98367 
-9.98329 -0.00226388 0.185912 
-0.00226388 -9.97713 -0.180993 
0.185912 -0.180993 -9.98311 
-9.97417 0.00262273 0.19722 
0.00262273 -9.9628 -0.172021 
0.19722 -0.172021 -10.0066 
-9.99012 0.0034916 0.18112 
0.0034916 -9.98394 -0.179174 
0.18112 -0.179174 -9.96948 
-9.55122 0.053729 0.310798 
0.053729 -9.58976 0.134923 
0.310798 0.134923 -9.6088 
-9.54537 0.0113519 0.344141 
0.0113519 -9.57894 0.12885 
0.344141 0.12885 -9.62546 
-9.59661 0.0197854 0.338964 
0.0197854 -9.51835 0.0768849 
0.338964 0.0768849 -9.63482 
-9.55603 0.0227609 0.341244 
0.0227609 -9.58056 0.118015 
0.341244 0.118015 -9.61318 
-9.95073 0.000291814 0.346434 
0.000291814 -9.93606 0.0339042 
0.346434 0.0339042 -9.92853 
-9.94975 -0.00177104 0.363218 
-0.00177104 -9.96646 0.0191731 
0.363218 0.0191731 -9.8991 
-9.88634 -0.00951678 0.339342 
-0.00951678 -9.94783 0.00878165 
0.339342 0.00878165 -9.98114 
-9.94709 0.00492271 0.347013 
0.00492271 -9.93349 0.0346508 
0.347013 0.0346508 -9.93473 
-9.43238 0.454858 -0.456179 
0.454858 -12.1267 -0.0878732 
-0.456179 -0.0878732 -11.5559 
-10.5368 -0.56355 1.14147 
-0.56355 -9.86248 -1.01267 
1.14147 -1.01267 -12.7157 
-11.3623 -2.77872 -0.698172 
-2.77872 -7.79885 -0.245754 
-0.698172 -0.245754 -13.9539 
-10.6703 -1.62467 1.32771 
-1.62467 -10.4642 -1.04618 
1.32771 -1.04618 -11.9805 
-9.63021 0.177541 -0.529305 
0.177541 -9.74337 -0.269858 
-0.529305 -0.269858 -8.86187 
-9.21648 0.163004 -0.216035 
0.163004 -9.36454 -0.0846179 
-0.216035 -0.0846179 -9.65443 
-9.03963 0.123966 -0.222938 
0.123966 -9.9654 0.304745 
-0.222938 0.304745 -9.23042 
-9.35694 0.269902 -0.209282 
0.269902 -9.73173 0.0525918 
-0.209282 0.0525918 -9.14678 
-9.98927 0.00514012 0.312575 
0.00514012 -9.96452 -0.119992 
0.312575 -0.119992 -9.96604 
-9.96048 0.00218271 0.318981 
0.00218271 -9.94932 -0.101491 
0.318981 -0.101491 -10.01 
-9.98205 0.0165008 0.319224 
0.0165008 -9.96225 -0.117946 
0.319224 -0.117946 -9.97553 
-9.98636 0.00265647 0.31556 
0.00265647 -9.97722 -0.126475 
0.31556 -0.126475 -9.95625 
-9.93622 0.0101682 -0.203012 
0.0101682 -9.93824 0.287991 
-0.203012 0.287991 -9.94642 
-9.93558 0.00218645 -0.206023 
0.00218645 -9.94773 0.292347 
-0.206023 0.292347 -9.93757 
-9.95267 -0.0185556 -0.195883 
-0.0185556 -9.90135 0.288515 
-0.195883 0.288515 -9.96685 
-9.95394 -0.0111124 -0.189254 
-0.0111124 -9.93017 0.288201 
-0.189254 0.288201 -9.93677 
-9.58293 -0.0196419 -0.0291308 
-0.0196419 -9.42692 -0.202415 
-0.0291308 -0.202415 -9.85417 
-9.52575 -0.00670885 0.0328117 
-0.00670885 -9.60435 -0.0572427 
0.0328117 -0.0572427 -9.73392 
-9.4735 0.0325409 0.0124683 
0.0325409 -9.43619 -0.0125145 
0.0124683 -0.0125145 -9.95433 
-9.54249 0.0340377 -0.0461268 
0.0340377 -9.56826 -0.0687001 
-0.0461268 -0.0687001 -9.75327 
-9.92739 -0.00471573 0.2996 
-0.00471573 -9.92639 0.0537549 
0.2996 0.0537549 -9.95767 
-9.91362 0.00361546 0.303097 
0.00361546 -9.95498 0.0650529 
0.303097 0.0650529 -9.94285 
-9.9247 -0.0053212 0.331339 
-0.0053212 -9.95564 0.061727 
0.331339 0.061727 -9.93111 
-9.99828 0.0119396 0.320646 
0.0119396 -9.92132 0.0655232 
0.320646 0.0655232 -9.89186 
-9.72033 -1.64935 1.17034 
-1.64935 -12.042 -0.83917 
1.17034 -0.83917 -18.2163 
-14.0798 -2.41119 1.19348 
-2.41119 -14.1454 -0.816862 
1.19348 -0.816862 -11.7536 
-8.94611 -1.39367 1.64384 
-1.39367 -13.1362 0.303994 
1.64384 0.303994 -17.8964 
-11.0111 -0.890129 -0.517018 
-0.890129 -13.2058 0.291535 
-0.517018 0.291535 -15.7618 
-12.9331 -1.30338 1.24277 
-1.30338 -10.4173 -0.836167 
1.24277 -0.836167 -18.2104 
-12.9947 -0.962456 -0.228604 
-0.962456 -8.03005 -1.86986 
-0.228604 -1.86986 -20.536 
-16.5028 -1.19095 0.0831545 
-1.19095 -14.7348 -2.13174 
0.0831545 -2.13174 -10.3232 
-13.3802 -0.488811 -0.383307 
-0.488811 -12.2283 2.3423 
-0.383307 2.3423 -15.9523 
-9.52973 0.0787835 0.143713 
0.0787835 -9.68505 -0.208254 
0.143713 -0.208254 -9.5996 
-9.51881 0.238643 0.0689321 
0.238643 -9.74155 -0.0998691 
0.0689321 -0.0998691 -9.55401 
-9.56394 0.110342 -0.0822673 
0.110342 -9.72306 -0.210834 
-0.0822673 -0.210834 -9.52737 
-9.56738 0.0145635 0.0601255 
0.0145635 -9.67616 -0.0999377 
0.0601255 -0.0999377 -9.57084 
-9.78573 0.00243082 -0.211977 
0.00243082 -9.79167 0.284338 
-0.211977 0.284338 -9.78089 
-9.7988 0.00563374 -0.21922 
0.00563374 -9.80259 0.294034 
-0.21922 0.294034 -9.75691 
-9.75894 -0.0351921 -0.217017 
-0.0351921 -9.76777 0.282732 
-0.217017 0.282732 -9.8316 
-9.78798 0.00747976 -0.198924 
0.00747976 -9.7931 0.287934 
-0.198924 0.287934 -9.77723 
-9.42315 -0.0430623 0.00701958 
-0.0430623 -9.31492 -0.293589 
0.00701958 -0.293589 -9.76807 
-9.504 -0.135612 0.0840081 
-0.135612 -9.22782 -0.411937 
0.0840081 -0.411937 -9.77432 
-9.51441 -0.233734 0.167454 
-0.233734 -9.36231 -0.257234 
0.167454 -0.257234 -9.62942 
-9.54787 -0.157502 0.243973 
-0.157502 -9.44465 -0.332377 
0.243973 -0.332377 -9.51362 
-9.72351 0.0832126 -0.185541 
0.0832126 -9.50259 0.312135 
-0.185541 0.312135 -11.2261 
-10.231 -0.49749 -0.192641 
-0.49749 -10.442 -0.229638 
-0.192641 -0.229638 -9.77924 
-10.2357 0.0472506 0.0222827 
0.0472506 -10.2862 -0.0488068 
0.0222827 -0.0488068 -9.93033 
-10.1433 0.0397355 0.222333 
0.0397355 -10.5804 0.242447 
0.222333 0.242447 -9.72851 
-9.94796 0.00109372 -0.322035 
0.00109372 -9.93737 0.14331 
-0.322035 0.14331 -9.93531 
-9.94409 0.00981773 -0.315118 
0.00981773 -9.93263 0.138387 
-0.315118 0.138387 -9.94393 
-9.87882 -0.0106931 -0.314939 
-0.0106931 -9.96708 0.13503 
-0.314939 0.13503 -9.97474 
-9.93328 0.00162869 -0.322317 
0.00162869 -9.95533 0.128631 
-0.322317 0.128631 -9.93204 
-5.91791 -2.89376 0.811867 
-2.89376 -11.3605 -0.602201 
0.811867 -0.602201 5.03173 
-1.10412 1.35968 -1.71619 
1.35968 -1.70783 0.318391 
-1.71619 0.318391 -9.43468 
-8.00803 -0.19804 -1.6299 
-0.19804 -8.16283 -0.275689 
-1.6299 -0.275689 3.92423 
-8.08167 -0.845588 -4.23788 
-0.845588 -3.80807 -7.33788 
-4.23788 -7.33788 -0.356882 
-9.20137 -0.425698 0.219803 
-0.425698 -11.4545 -0.0629781 
0.219803 -0.0629781 -11.5335 
-10.9216 0.123084 -0.311523 
0.123084 -9.62565 0.378008 
-0.311523 0.378008 -11.6421 
-9.94818 -1.23197 -0.525574 
-1.23197 -9.05834 0.764504 
-0.525574 0.764504 -13.1828 
-10.3778 -0.463931 0.375157 
-0.463931 -10.6289 -0.483005 
0.375157 -0.483005 -11.1825 
-9.63687 0.0200685 -0.322488 
0.0200685 -9.64214 -0.0429763 
-0.322488 -0.0429763 -9.65036 
-9.64146 0.0212215 -0.355092 
0.0212215 -9.65442 -0.0596768 
-0.355092 -0.0596768 -9.63348 
-9.65056 0.0216822 -0.355818 
0.0216822 -9.64209 -0.0192972 
-0.355818 -0.0192972 -9.63671 
-9.62265 0.0294802 -0.33675 
0.0294802 -9.65928 -0.0120947 
-0.33675 -0.0120947 -9.64744 
-9.55194 0.0635616 0.204395 
0.0635616 -9.50524 0.284975 
0.204395 0.284975 -9.57148 
-9.56447 0.041259 0.179097 
0.041259 -9.47977 0.31553 
0.179097 0.31553 -9.58441 
-9.57416 -0.0759087 0.188157 
-0.0759087 -9.53808 0.281345 
0.188157 0.281345 -9.51641 
-9.53578 0.0298748 0.238369 
0.0298748 -9.52066 0.3261 
0.238369 0.3261 -9.57221 
-10.1842 0.0114821 -0.0138751 
0.0114821 -10.2013 -0.0032708 
-0.0138751 -0.0032708 -10.1718 
-10.2685 -0.04113 0.0308403 
-0.04113 -10.1395 0.0389927 
0.0308403 0.0389927 -10.1493 
-9.98909 0.123119 0.00628488 
0.123119 -10.2678 -0.0402994 
0.00628488 -0.0402994 -10.3004 
-10.1783 -0.0198304 0.00921844 
-0.0198304 -10.192 0.0354747 
0.00921844 0.0354747 -10.187 
-9.50844 0.00367247 -0.354129 
0.00367247 -9.59259 0.0578846 
-0.354129 0.0578846 -9.56531 
-9.53941 0.00418529 -0.374039 
0.00418529 -9.60067 0.0373774 
-0.374039 0.0373774 -9.52625 
-9.51096 -0.00418641 -0.342459 
-0.00418641 -9.57086 0.0537717 
-0.342459 0.0537717 -9.58452 
-9.52374 -0.0246646 -0.368924 
-0.0246646 -9.56754 0.0911187 
-0.368924 0.0911187 -9.57506 
-9.58128 0.00996077 0.181761 
0.00996077 -9.55316 -0.279322 
0.181761 -0.279322 -9.55842 
-9.63107 0.043835 0.188697 
0.043835 -9.58455 -0.2613 
0.188697 -0.2613 -9.47723 
-9.55846 -0.0361453 0.211119 
-0.0361453 -9.52716 -0.326813 
0.211119 -0.326813 -9.60724 
-9.58035 -0.00418719 0.167502 
-0.00418719 -9.53626 -0.291036 
0.167502 -0.291036 -9.57625 
-9.21966 0.00180838 -0.308186 
0.00180838 -9.48563 -0.0304427 
-0.308186 -0.0304427 -9.43586 
-9.22932 0.0575623 -0.336916 
0.0575623 -9.45309 -0.0453275 
-0.336916 -0.0453275 -9.45874 
-9.58837 -0.150621 -0.303223 
-0.150621 -9.15398 0.0274516 
-0.303223 0.0274516 -9.3988 
-9.25237 -0.0410952 -0.43753 
-0.0410952 -9.46874 -0.0534996 
-0.43753 -0.0534996 -9.42005 
-11.6634 -0.122032 -0.218995 
-0.122032 -10.9173 0.127572 
-0.218995 0.127572 -13.0923 
-11.2772 -1.15284 -0.916896 
-1.15284 -10.4009 0.785335 
-0.916896 0.785335 -13.9949 
-11.6027 -0.792255 -0.420669 
-0.792255 -13.6078 -0.175005 
-0.420669 -0.175005 -10.4624 
-11.3447 -1.19729 1.06229 
-1.19729 -11.9516 1.21788 
1.06229 1.21788 -12.3766 
-9.79588 -0.00229807 -0.198285 
-0.00229807 -9.79804 -0.280328 
-0.198285 -0.280328 -9.79042 
-9.76905 0.031326 -0.213003 
0.031326 -9.77297 -0.274299 
-0.213003 -0.274299 -9.84232 
-9.81088 -0.000598124 -0.216259 
-0.000598124 -9.81444 -0.285444 
-0.216259 -0.285444 -9.75902 
-9.7963 -0.00494864 -0.191494 
-0.00494864 -9.8023 -0.278942 
-0.191494 -0.278942 -9.78574 
-5.93784 -0.504245 1.14724 
-0.504245 -5.29034 1.01861 
1.14724 1.01861 2.35329 
-0.393509 -0.35106 -0.426558 
-0.35106 -2.14055 -0.243481 
-0.426558 -0.243481 -6.34083 
-10.8973 1.24456 -1.14406 
1.24456 -6.7124 0.255978 
-1.14406 0.255978 8.73486 
-4.79853 -0.670596 6.52571 
-0.670596 -3.86928 -1.03376 
6.52571 -1.03376 -0.207076 
-9.96033 8.72118e-05 -0.0627088 
8.72118e-05 -9.94792 -0.155565 
-0.0627088 -0.155565 -10.009 
-9.97436 0.00276145 -0.0535131 
0.00276145 -9.977 -0.158824 
-0.0535131 -0.158824 -9.96584 
-9.9657 0.00988918 -0.0417831 
0.00988918 -9.95487 -0.161527 
-0.0417831 -0.161527 -9.99663 
-9.97453 -0.00282667 -0.052361 
-0.00282667 -9.98474 -0.166443 
-0.052361 -0.166443 -9.95794 
-9.95441 -0.0143209 0.285109 
-0.0143209 -9.93334 -0.203717 
0.285109 -0.203717 -9.91263 
-9.94492 0.00194962 0.29882 
0.00194962 -9.9171 -0.198875 
0.29882 -0.198875 -9.93836 
-9.93646 -0.0201932 0.300531 
-0.0201932 -9.91554 -0.186718 
0.300531 -0.186718 -9.94838 
-9.94303 -0.00320742 0.292356 
-0.00320742 -9.93578 -0.192798 
0.292356 -0.192798 -9.92158 
-9.67875 0.00150462 0.00323223 
0.00150462 -9.69166 -0.014702 
0.00323223 -0.014702 -9.85431 
-9.69032 0.0133282 0.0326068 
0.0133282 -9.65968 0.0256939 
0.0326068 0.0256939 -9.87471 
-9.7007 -0.0239891 0.0074913 
-0.0239891 -9.6913 0.00173522 
0.0074913 0.00173522 -9.83271 
-9.68295 -0.000218083 0.00570231 
-0.000218083 -9.68798 0.00535309 
0.00570231 0.00535309 -9.85378 
-9.83123 -0.0027948 -0.0400146 
-0.0027948 -9.88599 -0.354166 
-0.0400146 -0.354166 -9.81305 
-9.85132 -0.000714386 -0.030231 
-0.000714386 -9.82782 -0.339059 
-0.030231 -0.339059 -9.85113 
-9.81723 0.0028834 -0.0524223 
0.0028834 -9.82826 -0.345572 
-0.0524223 -0.345572 -9.88478 
-9.84455 0.00713354 -0.0277505 
0.00713354 -9.84532 -0.320348 
-0.0277505 -0.320348 -9.8404 
-10.0567 -0.00760208 0.000446444 
-0.00760208 -9.86577 -0.014309 
0.000446444 -0.014309 -10.1022 
-9.98537 -0.0173712 0.015994 
-0.0173712 -10.0729 -0.0660408 
0.015994 -0.0660408 -9.96651 
-9.90363 0.019964 0.0599648 
0.019964 -10.0552 -0.00531634 
0.0599648 -0.00531634 -10.0659 
-9.96349 -0.0189938 0.0169012 
-0.0189938 -10.0312 0.0861662 
0.0169012 0.0861662 -10.0301 
-9.9353 -0.00196274 0.0230268 
-0.00196274 -9.94453 -0.345326 
0.0230268 -0.345326 -9.93857 
-9.96336 0.00532127 0.0152018 
0.00532127 -9.9391 -0.350313 
0.0152018 -0.350313 -9.91594 
-9.94266 0.0077158 0.0102223 
0.0077158 -9.90547 -0.338598 
0.0102223 -0.338598 -9.97027 
-9.93145 -0.00178605 0.0284559 
-0.00178605 -9.94995 -0.346269 
0.0284559 -0.346269 -9.937 
-9.86888 -0.11283 0.0130489 
-0.11283 -9.69737 -0.0808566 
0.0130489 -0.0808566 -10.1642 
-9.66793 -0.17069 -0.0971811 
-0.17069 -9.70464 0.0589384 
-0.0971811 0.0589384 -10.3579 
-9.81088 -0.0357704 -0.11383 
-0.0357704 -9.83002 0.0569331 
-0.11383 0.0569331 -10.0895 
-9.92995 -0.103229 0.0087191 
-0.103229 -9.73273 0.0682231 
0.0087191 0.0682231 -10.0678 
-9.64212 0.321624 0.0536985 
0.321624 -9.2968 0.130505 
0.0536985 0.130505 -10.0135 
-9.64963 0.0154704 0.0750748 
0.0154704 -9.52505 0.201725 
0.0750748 0.201725 -9.77778 
-9.68842 0.00545141 0.0822125 
0.00545141 -9.52485 0.173638 
0.0822125 0.173638 -9.73919 
-9.71546 -0.0336675 0.193786 
-0.0336675 -9.45777 0.275681 
0.193786 0.275681 -9.77924 
0.164322 0.358527 2.01584 
0.358527 -3.34582 -0.367369 
2.01584 -0.367369 -6.68944 
-6.1446 1.57172 0.209699 
1.57172 -5.05014 -0.592972 
0.209699 -0.592972 1.3238 
-8.41097 -1.21468 -1.98361 
-1.21468 -4.30128 -0.0593376 
-1.98361 -0.0593376 2.84132 
-7.67546 1.01318 3.69025 
1.01318 -3.65463 0.788494 
3.69025 0.788494 1.45915 
-12.8338 2.30377 -0.230378 
2.30377 -7.95967 -0.970687 
-0.230378 -0.970687 -14.6467 
-10.7836 1.38557 -0.765262 
1.38557 -9.29164 -0.65038 
-0.765262 -0.65038 -15.3649 
-11.5487 1.59962 -0.212216 
1.59962 -10.726 -0.591834 
-0.212216 -0.591834 -13.1654 
-11.4961 1.44439 0.528151 
1.44439 -10.5278 -0.491092 
0.528151 -0.491092 -13.4162 
-9.98721 0.0207482 0.325885 
0.0207482 -9.96438 -0.0579085 
0.325885 -0.0579085 -9.97237 
-9.94424 0.00508248 0.331204 
0.00508248 -9.94338 -0.0438981 
0.331204 -0.0438981 -10.0363 
-9.99301 -0.00300848 0.339761 
-0.00300848 -9.98683 -0.0740086 
0.339761 -0.0740086 -9.94412 
-9.98829 0.00464145 0.321954 
0.00464145 -9.97246 -0.0671345 
0.321954 -0.0671345 -9.9632 
-11.1391 -0.833615 -0.678258 
-0.833615 -9.96981 1.08866 
-0.678258 1.08866 -13.3982 
-11.8127 -1.31146 -0.405396 
-1.31146 -9.07519 1.56428 
-0.405396 1.56428 -13.6193 
-11.2978 -1.269 -0.772314 
-1.269 -11.7413 0.402563 
-0.772314 0.402563 -11.4681 
-11.5703 -0.707324 -0.551325 
-0.707324 -10.1054 0.533207 
-0.551325 0.533207 -12.8315 
-9.4412 0.226505 0.418267 
0.226505 -9.79845 -1.5308 
0.418267 -1.5308 -8.84122 
-9.27516 -0.255667 0.786513 
-0.255667 -9.92487 -1.59544 
0.786513 -1.59544 -8.88084 
-9.73365 0.0126801 0.104701 
0.0126801 -8.97155 -1.28452 
0.104701 -1.28452 -9.37567 
-10.0188 -0.54379 0.896984 
-0.54379 -9.25914 -1.66898 
0.896984 -1.66898 -8.80298 
-3.01102 0.633697 1.54269 
0.633697 -4.28019 0.162252 
1.54269 0.162252 -3.13921 
-4.68314 -0.673464 0.63972 
-0.673464 -4.77369 -0.85723 
0.63972 -0.85723 -0.973592 
-4.26718 -0.644442 1.19356 
-0.644442 -4.79611 0.745253 
1.19356 0.745253 -1.36712 
-3.29916 -0.953224 2.34685 
-0.953224 -4.03314 0.191301 
2.34685 0.191301 -3.09811 
-9.10153 -0.357242 -1.50239 
-0.357242 -10.2589 0.701867 
-1.50239 0.701867 -8.4884 
-9.13102 -0.745723 -0.377539 
-0.745723 -9.3635 1.27058 
-0.377539 1.27058 -9.35432 
-9.49333 -0.232408 -0.82057 
-0.232408 -9.5275 1.02723 
-0.82057 1.02723 -8.82801 
-9.45479 -0.0444978 -0.5418 
-0.0444978 -9.52726 -0.469824 
-0.5418 -0.469824 -8.86679 
-9.64525 -0.146162 0.170008 
-0.146162 -9.58493 -0.133595 
0.170008 -0.133595 -9.81235 
-9.62313 0.00235964 0.171882 
0.00235964 -9.67521 -0.112589 
0.171882 -0.112589 -9.74419 
-9.57035 -0.162183 0.246672 
-0.162183 -9.64166 -0.167199 
0.246672 -0.167199 -9.83051 
-9.51883 -0.109166 0.124598 
-0.109166 -9.77072 -0.0858908 
0.124598 -0.0858908 -9.75298 
-11.7861 0.229054 -0.377979 
0.229054 -10.0983 -0.258209 
-0.377979 -0.258209 -11.7732 
-10.3655 -0.228148 0.500678 
-0.228148 -8.12352 -1.10602 
0.500678 -1.10602 -15.1685 
-11.8366 -0.0642822 -0.303834 
-0.0642822 -11.1068 -0.715987 
-0.303834 -0.715987 -10.7142 
-11.9759 -0.0899395 0.111935 
-0.0899395 -9.76261 0.518819 
0.111935 0.518819 -11.919 
-9.94345 0.00388975 -0.0926161 
0.00388975 -9.95565 -0.341523 
-0.0926161 -0.341523 -9.90771 
-9.96504 0.00256797 -0.0657088 
0.00256797 -9.86563 -0.325907 
-0.0657088 -0.325907 -9.97616 
-9.93041 -0.00259946 -0.0703967 
-0.00259946 -9.94289 -0.329575 
-0.0703967 -0.329575 -9.93353 
-9.91665 -0.0128251 -0.0792929 
-0.0128251 -9.9594 -0.313392 
-0.0792929 -0.313392 -9.93077 
-9.7301 -0.0899931 -0.285914 
-0.0899931 -9.74318 -0.0163661 
-0.285914 -0.0163661 -10.7185 
-10.2537 -0.0790635 0.24518 
-0.0790635 -10.1021 -0.173537 
0.24518 -0.173537 -9.83595 
-10.1116 -0.030623 0.237873 
-0.030623 -10.0504 -0.0907556 
0.237873 -0.0907556 -10.0297 
-9.98295 -0.0966777 0.215924 
-0.0966777 -10.0595 -0.20069 
0.215924 -0.20069 -10.1494 
-9.63738 0.00884795 0.337611 
0.00884795 -9.58693 0.119074 
0.337611 0.119074 -9.61805 
-9.60015 0.0248716 0.323489 
0.0248716 -9.61127 0.108463 
0.323489 0.108463 -9.63093 
-9.61571 0.00709828 0.334284 
0.00709828 -9.59683 0.106059 
0.334284 0.106059 -9.62982 
-9.60769 0.00932387 0.346204 
0.00932387 -9.59824 0.118813 
0.346204 0.118813 -9.63643 
-10.1091 -0.00183524 -0.0115152 
-0.00183524 -9.55963 0.157339 
-0.0115152 0.157339 -10.0695 
-10.0688 0.0398314 -0.0383366 
0.0398314 -9.7687 -0.027495 
-0.0383366 -0.027495 -9.90075 
-9.77917 0.0158249 -0.0542607 
0.0158249 -10.1349 0.0178482 
-0.0542607 0.0178482 -9.82417 
-9.87946 0.0910826 0.121694 
0.0910826 -9.87917 -0.0520422 
0.121694 -0.0520422 -9.97959 
-9.99064 0.00181752 -0.157946 
0.00181752 -9.96821 0.0315487 
-0.157946 0.0315487 -9.97032 
-9.98007 -0.00432021 -0.163838 
-0.00432021 -9.96047 0.0221087 
-0.163838 0.0221087 -9.98863 
-9.96217 -0.0052794 -0.147234 
-0.0052794 -9.9561 0.0323804 
-0.147234 0.0323804 -10.0109 
-9.98876 0.00609644 -0.166884 
0.00609644 -9.9807 0.0323214 
-0.166884 0.0323214 -9.9597 
-9.63766 -0.210238 -0.083593 
-0.210238 -9.37494 -0.141211 
-0.083593 -0.141211 -9.79965 
-9.57809 -0.270735 -0.196435 
-0.270735 -9.44654 0.0988772 
-0.196435 0.0988772 -9.78761 
-9.57892 -0.0153156 0.134196 
-0.0153156 -9.60013 -0.300557 
0.134196 -0.300557 -9.63319 
-9.36143 -0.311147 0.127045 
-0.311147 -9.40726 -0.164411 
0.127045 -0.164411 -10.0436 
-9.54603 -0.00167954 0.0505279 
-0.00167954 -9.77284 0.164773 
0.0505279 0.164773 -9.69508 
-9.58821 -0.0145452 0.102692 
-0.0145452 -9.59896 0.206401 
0.102692 0.206401 -9.82678 
-9.72585 0.263848 0.0809749 
0.263848 -9.24896 0.133271 
0.0809749 0.133271 -10.0391 
-9.60366 -0.0478201 0.167292 
-0.0478201 -9.57455 0.325174 
0.167292 0.325174 -9.83575 
-11.4312 0.205093 0.270221 
0.205093 -10.3514 -0.355243 
0.270221 -0.355243 -11.7087 
-10.9326 0.163419 -0.0680907 
0.163419 -10.8834 0.0189762 
-0.0680907 0.0189762 -11.6753 
-9.79174 0.242031 0.438692 
0.242031 -11.2127 -0.498541 
0.438692 -0.498541 -12.4869 
-11.0852 0.375659 -0.0800924 
0.375659 -10.4762 -0.00875841 
-0.0800924 -0.00875841 -11.9299 
-9.79076 -0.00374633 -0.289543 
-0.00374633 -9.79247 -0.197473 
-0.289543 -0.197473 -9.77809 
-9.73481 0.0208526 -0.293643 
0.0208526 -9.78591 -0.184417 
-0.293643 -0.184417 -9.8406 
-9.79858 0.000816683 -0.313577 
0.000816683 -9.81428 -0.185982 
-0.313577 -0.185982 -9.74847 
-9.79026 -0.00299624 -0.285716 
-0.00299624 -9.79554 -0.196829 
-0.285716 -0.196829 -9.77552 
-9.96424 0.0170446 -0.00133034 
0.0170446 -10.0036 0.0202317 
-0.00133034 0.0202317 -10.0047 
-9.9669 0.00264561 0.0143784 
0.00264561 -9.98045 0.0154057 
0.0143784 0.0154057 -10.0252 
-10.0066 0.00279191 -0.0152066 
0.00279191 -10.0243 -0.0169872 
-0.0152066 -0.0169872 -9.94155 
-9.82126 -0.0192511 -0.0910631 
-0.0192511 -10.0779 0.0228768 
-0.0910631 0.0228768 -10.0733 
-9.73581 0.00542575 0.0388534 
0.00542575 -9.72753 0.00466646 
0.0388534 0.00466646 -9.87425 
-9.72484 -0.00369042 0.0354518 
-0.00369042 -9.73534 -0.00680071 
0.0354518 -0.00680071 -9.87741 
-9.74762 -0.00321299 0.0123056 
-0.00321299 -9.71989 -0.00599201 
0.0123056 -0.00599201 -9.87008 
-9.73492 0.00902945 0.0204066 
0.00902945 -9.73752 -0.00483629 
0.0204066 -0.00483629 -9.86515 
-9.85061 -0.00442451 0.0385005 
-0.00442451 -9.89235 0.367369 
0.0385005 0.367369 -9.81963 
-9.87098 -0.0114563 0.0293698 
-0.0114563 -9.83419 0.340151 
0.0293698 0.340151 -9.85743 
-9.82763 0.00134621 0.065056 
0.00134621 -9.80849 0.348304 
0.065056 0.348304 -9.92647 
-9.85587 -0.00151016 0.0285372 
-0.00151016 -9.86964 0.329667 
0.0285372 0.329667 -9.83708 
-9.73262 0.0169807 0.0125894 
0.0169807 -9.95119 -0.0355299 
0.0125894 -0.0355299 -9.66361 
-9.70915 0.0113211 0.0284507 
0.0113211 -9.7646 0.01093 
0.0284507 0.01093 -9.87366 
-9.90655 0.0412433 -0.000772299 
0.0412433 -9.57658 -0.112143 
-0.000772299 -0.112143 -9.86428 
-9.89934 -0.044522 -0.102576 
-0.044522 -9.63347 0.00466804 
-0.102576 0.00466804 -9.81461 
-9.81163 -0.0071428 0.0177238 
-0.0071428 -10.077 -0.0347704 
0.0177238 -0.0347704 -9.94239 
-10.1564 0.0132956 -0.0344091 
0.0132956 -9.83916 -0.019309 
-0.0344091 -0.019309 -9.83541 
-9.64232 0.0362298 -0.156968 
0.0362298 -10.1081 -0.00696487 
-0.156968 -0.00696487 -10.0806 
-9.87755 -0.0599225 0.0305903 
-0.0599225 -9.95134 0.05889 
0.0305903 0.05889 -10.0021 
-9.9611 0.0208627 0.0889651 
0.0208627 -9.73144 -0.0549337 
0.0889651 -0.0549337 -9.91048 
-9.87021 0.0354614 -0.0627727 
0.0354614 -10.0613 0.0306555 
-0.0627727 0.0306555 -9.67149 
-9.8212 0.0097804 -0.0036357 
0.0097804 -9.85918 0.00723609 
-0.0036357 0.00723609 -9.92265 
-9.94764 0.0530881 0.07054 
0.0530881 -9.63977 0.128709 
0.07054 0.128709 -10.0156 
-9.72234 0.0053765 -0.0394258 
0.0053765 -9.83925 -0.0151985 
-0.0394258 -0.0151985 -9.85326 
-9.8964 0.0389795 0.0656441 
0.0389795 -9.70775 0.0118994 
0.0656441 0.0118994 -9.81069 
-9.8216 0.011479 0.0268453 
0.011479 -9.76103 -0.00815166 
0.0268453 -0.00815166 -9.83221 
-9.89795 -0.0103871 -0.00532234 
-0.0103871 -9.67253 -0.0559665 
-0.00532234 -0.0559665 -9.84437 
-9.68654 0.00765988 0.336323 
0.00765988 -9.67994 0.0908219 
0.336323 0.0908219 -9.68339 
-9.63016 0.0102591 0.368426 
0.0102591 -9.66725 0.0833282 
0.368426 0.0833282 -9.75247 
-9.76104 0.00393906 0.35529 
0.00393906 -9.6705 0.0663519 
0.35529 0.0663519 -9.61832 
-9.67876 0.0205908 0.309933 
0.0205908 -9.67642 0.0980569 
0.309933 0.0980569 -9.69468 
-9.55788 -0.00124763 0.0876716 
-0.00124763 -9.65439 -0.130965 
0.0876716 -0.130965 -9.78572 
-9.5781 0.0370734 0.0828337 
0.0370734 -9.66343 -0.141593 
0.0828337 -0.141593 -9.75646 
-9.6286 -0.0889155 0.0999576 
-0.0889155 -9.47732 -0.187673 
0.0999576 -0.187673 -9.89208 
-9.55117 -0.0084277 0.0729985 
-0.0084277 -9.62345 -0.0779838 
0.0729985 -0.0779838 -9.82337 
-10.5123 -0.442979 -1.17261 
-0.442979 -11.7606 -0.204362 
-1.17261 -0.204362 -12.0596 
-7.9758 -0.464122 -1.91377 
-0.464122 -12.0654 0.0965753 
-1.91377 0.0965753 -14.2913 
-9.77954 -0.061572 -0.883186 
-0.061572 -11.5425 0.30078 
-0.883186 0.30078 -13.0104 
-10.0258 -0.284258 -0.158762 
-0.284258 -11.525 -0.0730382 
-0.158762 -0.0730382 -12.7816 
-5.71195 -3.22122 -1.17635 
-3.22122 -11.7854 -1.16779 
-1.17635 -1.16779 4.88571 
-0.470358 1.7407 2.79005 
1.7407 -0.96446 0.481159 
2.79005 0.481159 -11.1768 
-7.62494 -0.272983 1.65465 
-0.272983 -6.60872 0.0221249 
1.65465 0.0221249 1.62203 
-8.62722 -2.3545 4.96114 
-2.3545 -5.45234 6.5315 
4.96114 6.5315 1.46792 
-10.1252 0.0888455 -0.102621 
0.0888455 -9.96818 -0.0169874 
-0.102621 -0.0169874 -10.0615 
-10.0966 -0.00993058 -0.0651129 
-0.00993058 -10.0744 -0.0572756 
-0.0651129 -0.0572756 -9.98375 
-10.1509 0.0485021 -0.0430556 
0.0485021 -10.0381 -0.0535323 
-0.0430556 -0.0535323 -9.96578 
-10.1369 0.0313232 -0.120386 
0.0313232 -9.97595 -0.0705968 
-0.120386 -0.0705968 -10.0419 
-11.2137 2.12274 2.55577 
2.12274 -8.07651 5.0856 
2.55577 5.0856 -8.35475 
-9.11011 -1.07793 1.81322 
-1.07793 -10.7851 1.91025 
1.81322 1.91025 -7.74971 
-8.56012 0.760324 1.91506 
0.760324 -9.20383 3.38861 
1.91506 3.38861 -9.88102 
-9.48282 3.08932 1.44761 
3.08932 -7.31397 0.654029 
1.44761 0.654029 -10.8482 
-9.81684 0.00118612 -0.346269 
0.00118612 -9.82216 0.0491023 
-0.346269 0.0491023 -9.87369 
-9.86645 0.00471799 -0.351014 
0.00471799 -9.83395 0.0382086 
-0.351014 0.0382086 -9.81228 
-9.8313 -0.000294703 -0.338628 
-0.000294703 -9.83993 0.0282957 
-0.338628 0.0282957 -9.84146 
-9.83197 0.00254634 -0.320456 
0.00254634 -9.83773 0.0281495 
-0.320456 0.0281495 -9.84299 
-9.8707 -0.00356541 0.319986 
-0.00356541 -9.96546 -0.13699 
0.319986 -0.13699 -9.9714 
-9.94462 0.010552 0.319893 
0.010552 -9.92278 -0.137962 
0.319893 -0.137962 -9.94016 
-9.92523 0.00411341 0.331093 
0.00411341 -9.95856 -0.126485 
0.331093 -0.126485 -9.92377 
-9.94342 -0.000275781 0.328742 
-0.000275781 -9.93529 -0.147419 
0.328742 -0.147419 -9.92884 
-0.562464 -2.36142 -3.43322 
-2.36142 1.56022 -4.73198 
-3.43322 -4.73198 -21.0111 
-9.10086 -0.991732 5.45848 
-0.991732 -17.4352 3.20773 
5.45848 3.20773 6.52273 
-13.7338 -2.12458 2.1243 
-2.12458 -15.1135 4.83256 
2.1243 4.83256 8.83393 
-6.76191 9.31347 5.93976 
9.31347 1.86135 15.1344 
5.93976 15.1344 -15.1128 
-9.51059 -0.101058 -0.0120299 
-0.101058 -9.48244 -0.226766 
-0.0120299 -0.226766 -9.73449 
-9.57637 -0.109077 0.0219814 
-0.109077 -9.45146 -0.225063 
0.0219814 -0.225063 -9.69969 
-9.63857 -0.0628346 0.0333844 
-0.0628346 -9.33875 -0.236392 
0.0333844 -0.236392 -9.7502 
-9.61037 -0.156555 0.0331474 
-0.156555 -9.4394 -0.220746 
0.0331474 -0.220746 -9.67775 
-9.99263 -0.0013524 -0.329974 
-0.0013524 -9.98534 -0.0721787 
-0.329974 -0.0721787 -9.95164 
-9.99082 -0.00012115 -0.315471 
-0.00012115 -9.96692 -0.0638776 
-0.315471 -0.0638776 -9.97187 
-9.95007 -0.00500152 -0.322434 
-0.00500152 -9.94536 -0.044433 
-0.322434 -0.044433 -10.0342 
-9.99379 -0.011966 -0.313083 
-0.011966 -9.96492 -0.0580869 
-0.313083 -0.0580869 -9.97091 
-4.39369 1.02142 -0.230885 
1.02142 -4.03212 -0.952914 
-0.230885 -0.952914 -0.12166 
-6.32766 0.433699 -1.60659 
0.433699 -4.35531 0.979167 
-1.60659 0.979167 2.1355 
-1.2332 -0.371651 -0.216906 
-0.371651 -1.98031 -0.783363 
-0.216906 -0.783363 -5.33396 
-3.41469 1.64271 2.74517 
1.64271 -2.92869 -0.24497 
2.74517 -0.24497 -2.20409 
-9.97813 -0.00666746 0.143676 
-0.00666746 -9.97215 0.110421 
0.143676 0.110421 -9.96455 
-9.94552 -0.00793227 0.155501 
-0.00793227 -9.942 0.120368 
0.155501 0.120368 -10.0273 
-9.98351 -0.00523194 0.140491 
-0.00523194 -9.95681 0.117492 
0.140491 0.117492 -9.97452 
-9.9816 -0.00681143 0.134919 
-0.00681143 -9.98117 0.105643 
0.134919 0.105643 -9.95207 
-9.97119 -0.000204521 0.270073 
-0.000204521 -9.98711 -0.0580714 
0.270073 -0.0580714 -9.97831 
-9.97776 0.000659171 0.280094 
0.000659171 -9.97445 -0.0599692 
0.280094 -0.0599692 -9.98439 
-9.97007 0.0100838 0.268635 
0.0100838 -9.95794 -0.0456449 
0.268635 -0.0456449 -10.0086 
-9.989 -0.00142731 0.274773 
-0.00142731 -9.98302 -0.0627587 
0.274773 -0.0627587 -9.96457 
-9.40595 -0.0478619 -0.051441 
-0.0478619 -9.56306 0.314073 
-0.051441 0.314073 -9.53359 
-9.48265 -0.0413911 -0.0684922 
-0.0413911 -9.46686 0.364577 
-0.0684922 0.364577 -9.55309 
-9.50856 -0.0407546 -0.0284614 
-0.0407546 -9.38364 0.337532 
-0.0284614 0.337532 -9.6104 
-9.50371 -0.0570382 -0.0501998 
-0.0570382 -9.46726 0.398651 
-0.0501998 0.398651 -9.53163 
-9.59185 -0.0320277 -0.125137 
-0.0320277 -9.53587 0.321253 
-0.125137 0.321253 -9.57878 
-9.56239 0.0272562 -0.147831 
0.0272562 -9.58647 0.318097 
-0.147831 0.318097 -9.55764 
-9.54596 -0.00701894 -0.141082 
-0.00701894 -9.56129 0.32965 
-0.141082 0.32965 -9.59925 
-9.5349 -0.0209123 -0.149451 
-0.0209123 -9.57988 0.343101 
-0.149451 0.343101 -9.59172 
-9.46844 0.0173296 -0.0448307 
0.0173296 -9.21792 -0.34226 
-0.0448307 -0.34226 -9.42971 
-9.22088 -0.0383806 0.0045605 
-0.0383806 -9.53126 -0.335633 
0.0045605 -0.335633 -9.36392 
-9.46131 0.0734535 -0.0504692 
0.0734535 -9.21343 -0.367838 
-0.0504692 -0.367838 -9.44131 
-9.47068 -0.0165631 -0.0419123 
-0.0165631 -9.23476 -0.47354 
-0.0419123 -0.47354 -9.41062 
-9.84428 -0.019842 0.161298 
-0.019842 -9.88169 0.326282 
0.161298 0.326282 -9.79509 
-9.84939 0.00447517 0.136191 
0.00447517 -9.83475 0.324031 
0.136191 0.324031 -9.83691 
-9.8258 0.0121657 0.140142 
0.0121657 -9.82186 0.331523 
0.140142 0.331523 -9.87339 
-9.8488 0.0059254 0.117292 
0.0059254 -9.8465 0.29479 
0.117292 0.29479 -9.82575 
-9.32629 -0.212675 -0.269009 
-0.212675 -9.57006 0.256221 
-0.269009 0.256221 -9.53947 
-9.08894 -0.116585 -0.300195 
-0.116585 -9.7569 0.364525 
-0.300195 0.364525 -9.58998 
-9.18616 -0.186656 -0.313971 
-0.186656 -9.55019 -0.0148385 
-0.313971 -0.0148385 -9.69947 
-9.27919 -0.083675 -0.439017 
-0.083675 -9.49485 0.016747 
-0.439017 0.016747 -9.66178 
0.565941 -0.0937227 1.23167 
-0.0937227 0.968328 2.34746 
1.23167 2.34746 -17.5589 
-13.1944 -1.7862 -2.4265 
-1.7862 -12.3737 -0.0997859 
-2.4265 -0.0997859 9.54349 
-11.8044 -0.106414 -1.04255 
-0.106414 -8.13498 -3.90677 
-1.04255 -3.90677 3.9147 
-3.79169 5.10382 -13.4794 
5.10382 -6.93565 -7.3577 
-13.4794 -7.3577 -5.29732 
-9.44206 -0.00448118 -0.0161406 
-0.00448118 -9.67675 0.190333 
-0.0161406 0.190333 -9.5743 
-9.70319 -0.175761 0.0432512 
-0.175761 -9.05206 0.209481 
0.0432512 0.209481 -9.93785 
-9.61491 -0.0311541 0.0365112 
-0.0311541 -9.41831 0.263461 
0.0365112 0.263461 -9.65988 
-9.56079 0.128533 -0.0153975 
0.128533 -9.45638 0.323741 
-0.0153975 0.323741 -9.67593 
-9.64186 -0.0163075 -0.379786 
-0.0163075 -9.58642 -0.0246715 
-0.379786 -0.0246715 -9.54843 
-9.56808 0.0117892 -0.347209 
0.0117892 -9.60892 -0.0371813 
-0.347209 -0.0371813 -9.5997 
-9.56201 -0.00997043 -0.373105 
-0.00997043 -9.556 -0.00802543 
-0.373105 -0.00802543 -9.65869 
-9.5831 -0.00825125 -0.333563 
-0.00825125 -9.60613 -0.0304464 
-0.333563 -0.0304464 -9.58747 
-9.60273 0.0761011 0.0600577 
0.0761011 -9.62324 0.0134425 
0.0600577 0.0134425 -9.97722 
-9.58073 0.0139719 0.0257702 
0.0139719 -9.64679 0.0502013 
0.0257702 0.0502013 -9.97568 
-9.67338 -0.00688585 0.215435 
-0.00688585 -9.55176 0.146214 
0.215435 0.146214 -9.97805 
-9.37796 0.130315 0.106621 
0.130315 -9.68012 0.0311685 
0.106621 0.0311685 -10.1451 
-9.94978 -0.00703198 0.3501 
-0.00703198 -9.93398 -0.0355077 
0.3501 -0.0355077 -9.93687 
-9.94741 0.00478135 0.363495 
0.00478135 -9.96467 -0.0167421 
0.363495 -0.0167421 -9.90854 
-9.89893 0.0118768 0.339997 
0.0118768 -9.94404 -0.00637254 
0.339997 -0.00637254 -9.97765 
-9.94925 -0.00173248 0.352697 
-0.00173248 -9.93809 -0.0281293 
0.352697 -0.0281293 -9.93329 
-9.95958 0.00116967 -0.00728291 
0.00116967 -9.95442 -0.039296 
-0.00728291 -0.039296 -9.99768 
-9.96691 -0.000471279 -0.0235967 
-0.000471279 -9.96537 -0.0374657 
-0.0235967 -0.0374657 -9.9794 
-9.96701 -0.00465508 -0.0211312 
-0.00465508 -9.95886 -0.0503816 
-0.0211312 -0.0503816 -9.98582 
-9.97341 0.000833387 -0.0230348 
0.000833387 -9.97218 -0.039881 
-0.0230348 -0.039881 -9.96609 
-9.96463 0.000563436 -0.0524829 
0.000563436 -9.95281 0.039264 
-0.0524829 0.039264 -9.99908 
-9.9722 0.000856773 -0.0419887 
0.000856773 -9.96846 0.0316277 
-0.0419887 0.0316277 -9.97587 
-9.9682 0.00414207 -0.0344537 
0.00414207 -9.95998 0.0344511 
-0.0344537 0.0344511 -9.98835 
-9.97379 -0.00239933 -0.0386582 
-0.00239933 -9.97608 0.0312607 
-0.0386582 0.0312607 -9.96666 
-7.62326 0.63672 1.48155 
0.63672 -5.61764 0.485851 
1.48155 0.485851 1.39261 
-5.16358 -0.653594 1.31676 
-0.653594 -5.46849 -0.0217236 
1.31676 -0.0217236 -1.21622 
-5.99857 -0.172798 1.23545 
-0.172798 -4.7045 -0.953197 
1.23545 -0.953197 -1.14521 
-5.5625 0.481943 0.643599 
0.481943 -3.54581 -1.70545 
0.643599 -1.70545 -2.73997 
-9.41764 0.143404 0.105422 
0.143404 -9.40867 0.155314 
0.105422 0.155314 -10.2835 
-9.54976 0.158544 0.243377 
0.158544 -9.59305 0.235312 
0.243377 0.235312 -9.96705 
-9.58448 -0.0123586 0.112007 
-0.0123586 -9.54629 -0.0543552 
0.112007 -0.0543552 -9.97909 
-9.48372 0.199754 0.135964 
0.199754 -9.59563 0.166316 
0.135964 0.166316 -10.0305 
-9.26107 -0.0535781 0.297164 
-0.0535781 -9.59517 -0.0220539 
0.297164 -0.0220539 -9.72911 
-9.69169 0.0166306 0.212612 
0.0166306 -9.45196 -0.00657315 
0.212612 -0.00657315 -9.44171 
-8.91024 -0.189885 0.175831 
-0.189885 -9.61171 0.0564608 
0.175831 0.0564608 -10.0634 
-9.39924 -0.0551444 0.573653 
-0.0551444 -9.54083 -0.190153 
0.573653 -0.190153 -9.64528 
-9.94022 0.00170531 -0.026921 
0.00170531 -9.95089 -0.345623 
-0.026921 -0.345623 -9.9366 
-9.94715 -0.0105483 -0.0093291 
-0.0105483 -9.90694 -0.336561 
-0.0093291 -0.336561 -9.97362 
-9.96409 -0.0047392 -0.0178525 
-0.0047392 -9.94775 -0.355898 
-0.0178525 -0.355898 -9.91588 
-9.94066 0.00306127 -0.0274224 
0.00306127 -9.94776 -0.344074 
-0.0274224 -0.344074 -9.93929 
-9.98508 0.000632638 0.25442 
0.000632638 -9.99268 0.045562 
0.25442 0.045562 -9.95659 
-9.96112 0.00982682 0.254002 
0.00982682 -9.97811 0.0576198 
0.254002 0.0576198 -9.99513 
-9.96123 0.0107782 0.270507 
0.0107782 -9.95969 0.0406489 
0.270507 0.0406489 -10.0134 
-9.99579 -0.00519694 0.263277 
-0.00519694 -9.98672 0.0560215 
0.263277 0.0560215 -9.95185 
-9.98449 0.00874962 -0.316178 
0.00874962 -9.9773 0.113812 
-0.316178 0.113812 -9.97123 
-9.96079 0.00246964 -0.316997 
0.00246964 -9.95426 0.092827 
-0.316997 0.092827 -10.018 
-9.98633 0.0204397 -0.313778 
0.0204397 -9.9746 0.110827 
-0.313778 0.110827 -9.97209 
-9.98747 0.00892451 -0.319073 
0.00892451 -9.98932 0.128788 
-0.319073 0.128788 -9.95623 
-10.1242 -0.000215156 -0.0750866 
-0.000215156 -10.0886 0.073919 
-0.0750866 0.073919 -9.77717 
-9.85266 -0.155529 0.293383 
-0.155529 -9.76561 -0.103104 
0.293383 -0.103104 -10.3717 
-9.67116 -0.00293634 0.11849 
-0.00293634 -10.4783 0.241205 
0.11849 0.241205 -9.84053 
-10.0626 0.0528756 -0.0402026 
0.0528756 -10.1096 -0.0633109 
-0.0402026 -0.0633109 -9.81779 
-9.5755 -1.96955e-05 0.00929678 
-1.96955e-05 -9.53926 -0.3769 
0.00929678 -0.3769 -9.64039 
-9.59832 -0.0091727 0.0182589 
-0.0091727 -9.64701 -0.392541 
0.0182589 -0.392541 -9.50983 
-9.61425 -0.0210401 0.0379482 
-0.0210401 -9.54694 -0.35983 
0.0379482 -0.35983 -9.59397 
-9.6026 0.0130643 0.043035 
0.0130643 -9.58921 -0.351087 
0.043035 -0.351087 -9.56334 
-9.9611 0.00409948 -0.057836 
0.00409948 -9.95963 0.0145256 
-0.057836 0.0145256 -9.99644 
-9.96904 0.00220678 -0.0451 
0.00220678 -9.96252 0.0111391 
-0.0451 0.0111391 -9.9856 
-9.96558 0.00220196 -0.0468759 
0.00220196 -9.9663 0.0200128 
-0.0468759 0.0200128 -9.98528 
-9.96939 0.00175143 -0.0449992 
0.00175143 -9.97511 0.0136834 
-0.0449992 0.0136834 -9.97267 
-9.96476 -0.00411115 -0.260338 
-0.00411115 -9.97527 0.0364186 
-0.260338 0.0364186 -9.99159 
-9.95793 0.000704237 -0.256072 
0.000704237 -9.96793 0.0540727 
-0.256072 0.0540727 -10.0057 
-9.9791 -0.00150745 -0.265528 
-0.00150745 -9.97913 0.0463425 
-0.265528 0.0463425 -9.97339 
-9.98516 0.00264673 -0.267873 
0.00264673 -9.98218 0.0433383 
-0.267873 0.0433383 -9.96427 
-9.7241 -0.0385439 -0.122573 
-0.0385439 -9.8822 0.0778567 
-0.122573 0.0778567 -10.079 
-10.0588 0.151943 0.0044205 
0.151943 -9.99236 -0.027958 
0.0044205 -0.027958 -9.63416 
-9.94576 0.00992339 0.0447353 
0.00992339 -9.96338 -0.043374 
0.0447353 -0.043374 -9.77617 
-10.0724 -0.00585926 0.126846 
-0.00585926 -9.8742 -0.0613299 
0.126846 -0.0613299 -9.73868 
-9.64125 -0.229419 -0.0200249 
-0.229419 -9.75399 0.0283531 
-0.0200249 0.0283531 -10.0726 
-9.63994 -0.039602 0.0354453 
-0.039602 -9.86263 -0.0273689 
0.0354453 -0.0273689 -9.96526 
-9.74817 -0.193374 -0.0628353 
-0.193374 -9.82062 -0.107259 
-0.0628353 -0.107259 -9.89904 
-9.61811 -0.0425398 0.00624486 
-0.0425398 -9.87707 -0.0707031 
0.00624486 -0.0707031 -9.97265 
-9.97953 -0.00284217 0.116142 
-0.00284217 -9.98247 0.254983 
0.116142 0.254983 -9.97095 
-9.97793 0.0034221 0.109683 
0.0034221 -9.96253 0.247317 
0.109683 0.247317 -9.99248 
-9.96762 -0.00309172 0.129115 
-0.00309172 -9.96173 0.243333 
0.129115 0.243333 -10.0036 
-9.97905 -0.00345177 0.112857 
-0.00345177 -9.99021 0.258194 
0.112857 0.258194 -9.96369 
-9.81724 0.0128372 -0.261158 
0.0128372 -9.82208 0.242615 
-0.261158 0.242615 -9.88888 
-9.84268 -0.00972995 -0.238495 
-0.00972995 -9.84682 0.247857 
-0.238495 0.247857 -9.8387 
-9.86188 0.0155877 -0.272918 
0.0155877 -9.86719 0.235941 
-0.272918 0.235941 -9.79914 
-9.84252 -0.00804894 -0.232794 
-0.00804894 -9.84135 0.228131 
-0.232794 0.228131 -9.84433 
-9.14264 -0.306843 -0.625995 
-0.306843 -9.30375 0.647414 
-0.625995 0.647414 -8.73723 
-8.65192 0.349446 -1.48601 
0.349446 -9.93412 0.0886663 
-1.48601 0.0886663 -8.59757 
-9.62279 0.194067 -0.599033 
0.194067 -9.28497 0.649695 
-0.599033 0.649695 -8.27585 
-9.08306 -0.0118272 -0.950666 
-0.0118272 -9.56416 -0.124668 
-0.950666 -0.124668 -8.53639 
-9.9297 -0.00372272 0.00873831 
-0.00372272 -9.93672 -0.0366544 
0.00873831 -0.0366544 -9.92388 
-9.96769 -0.0222704 -0.00924826 
-0.0222704 -9.94014 -0.0879795 
-0.00924826 -0.0879795 -9.88247 
-9.89762 0.101571 -0.0364092 
0.101571 -9.94619 0.00581451 
-0.0364092 0.00581451 -9.94649 
-9.90709 0.00874353 -0.00171298 
0.00874353 -9.95708 -0.0837733 
-0.00171298 -0.0837733 -9.92613 
-9.97462 -0.000637922 -0.148244 
-0.000637922 -9.96868 -0.240681 
-0.148244 -0.240681 -10.0002 
-9.97859 -0.000285291 -0.1571 
-0.000285291 -9.97589 -0.234353 
-0.1571 -0.234353 -9.989 
-9.98497 0.00111315 -0.157011 
0.00111315 -9.97204 -0.240716 
-0.157011 -0.240716 -9.98646 
-9.98587 -2.73204e-05 -0.158257 
-2.73204e-05 -9.98318 -0.240165 
-0.158257 -0.240165 -9.97442 
-9.79367 -0.00980093 0.335406 
-0.00980093 -9.79403 -0.111489 
0.335406 -0.111489 -9.82494 
-9.8292 0.000608879 0.353628 
0.000608879 -9.81738 -0.0876506 
0.353628 -0.0876506 -9.76606 
-9.79188 -0.00783537 0.335883 
-0.00783537 -9.80616 -0.0886651 
0.335883 -0.0886651 -9.8146 
-9.81897 -0.0100796 0.332121 
-0.0100796 -9.78888 -0.0783494 
0.332121 -0.0783494 -9.80479 
-9.54315 -0.0366559 -0.333259 
-0.0366559 -9.51956 0.0609895 
-0.333259 0.0609895 -9.53947 
-9.51735 -0.0196268 -0.338409 
-0.0196268 -9.52761 0.0799927 
-0.338409 0.0799927 -9.55722 
-9.44474 -0.0723404 -0.331489 
-0.0723404 -9.58715 0.0916271 
-0.331489 0.0916271 -9.5703 
-9.53603 -0.0134834 -0.367314 
-0.0134834 -9.53914 0.105573 
-0.367314 0.105573 -9.52701 
-9.98142 -0.00124195 0.0518202 
-0.00124195 -9.98924 -0.270907 
0.0518202 -0.270907 -9.97734 
-9.97912 0.000749601 0.0572217 
0.000749601 -9.96989 -0.26081 
0.0572217 -0.26081 -9.99898 
-9.97326 -0.000720322 0.0413124 
-0.000720322 -9.97604 -0.265132 
0.0413124 -0.265132 -9.9987 
-9.98391 0.00246469 0.0516675 
0.00246469 -9.99406 -0.273159 
0.0516675 -0.273159 -9.97003 
-10.0365 -0.058857 0.0521779 
-0.058857 -10.2188 -0.0152858 
0.0521779 -0.0152858 -10.1883 
-10.1166 -0.00374475 0.022778 
-0.00374475 -10.1765 0.0317322 
0.022778 0.0317322 -10.1505 
-10.1286 -0.083472 0.0230413 
-0.083472 -10.1405 0.0339522 
0.0230413 0.0339522 -10.1745 
-10.247 0.0127532 -0.0144297 
0.0127532 -10.1624 0.0518164 
-0.0144297 0.0518164 -10.0343 
-11.238 -0.284105 0.0888464 
-0.284105 -11.2023 -0.126578 
0.0888464 -0.126578 -10.6672 
-10.7003 -0.295315 0.235506 
-0.295315 -10.7281 -0.246626 
0.235506 -0.246626 -11.6792 
-10.4621 -0.16247 -0.134557 
-0.16247 -10.6302 0.0569799 
-0.134557 0.0569799 -12.0152 
-11.0056 -0.464962 0.558283 
-0.464962 -11.1023 0.208529 
0.558283 0.208529 -10.9997 
-9.75079 0.217257 -0.0747011 
0.217257 -9.71102 -0.24865 
-0.0747011 -0.24865 -10.9329 
-10.3192 0.0429347 -0.0346782 
0.0429347 -10.127 0.0792546 
-0.0346782 0.0792546 -9.9484 
-10.4691 0.0284156 0.160805 
0.0284156 -9.96215 0.0282305 
0.160805 0.0282305 -9.96347 
-10.3001 -0.130588 0.179631 
-0.130588 -10.3688 0.0372431 
0.179631 0.0372431 -9.72585 
-9.82773 0.0107022 -0.0727132 
0.0107022 -9.78843 -0.350965 
-0.0727132 -0.350965 -9.916 
-9.85657 0.0123548 -0.085173 
0.0123548 -9.84451 -0.32506 
-0.085173 -0.32506 -9.83108 
-9.83961 -0.0116189 -0.0594041 
-0.0116189 -9.91192 -0.358442 
-0.0594041 -0.358442 -9.78063 
-9.84869 0.0155181 -0.073449 
0.0155181 -9.85531 -0.287565 
-0.073449 -0.287565 -9.82816 
-9.77365 -0.0357209 -0.0954727 
-0.0357209 -9.77056 -0.111117 
-0.0954727 -0.111117 -9.65953 
-9.75547 -0.0347841 -0.090378 
-0.0347841 -9.7712 -0.110551 
-0.090378 -0.110551 -9.67707 
-9.7544 -0.0484012 -0.0712649 
-0.0484012 -9.7722 -0.112742 
-0.0712649 -0.112742 -9.67714 
-9.73321 -0.0365294 -0.105751 
-0.0365294 -9.76838 -0.107123 
-0.105751 -0.107123 -9.70215 
-11.4097 -1.36485 0.689669 
-1.36485 -11.1334 -0.51477 
0.689669 -0.51477 -11.9912 
-10.2988 -0.850101 0.784238 
-0.850101 -9.46893 -1.53084 
0.784238 -1.53084 -14.7666 
-12.3496 -1.64778 0.867787 
-1.64778 -9.80195 -0.757099 
0.867787 -0.757099 -12.3827 
-11.4952 -1.63929 -0.00424261 
-1.63929 -11.0587 -0.687052 
-0.00424261 -0.687052 -11.9804 
-9.97173 0.00588117 0.031994 
0.00588117 -9.92818 0.267401 
0.031994 0.267401 -10.0255 
-9.97423 -0.00664449 0.0585342 
-0.00664449 -9.96099 0.264021 
0.0585342 0.264021 -9.9902 
-9.98547 -0.00188254 0.0507153 
-0.00188254 -9.98734 0.248117 
0.0507153 0.248117 -9.9526 
-9.97307 0.000176778 0.0648249 
0.000176778 -10.0053 0.262835 
0.0648249 0.262835 -9.94704 
-9.983 0.00556257 0.162541 
0.00556257 -9.98039 -0.0414652 
0.162541 -0.0414652 -9.96554 
-9.95574 0.0028274 0.169294 
0.0028274 -9.97738 -0.049949 
0.169294 -0.049949 -9.9958 
-9.9621 0.00481662 0.164346 
0.00481662 -9.96144 -0.0258469 
0.164346 -0.0258469 -10.0054 
-9.99073 0.00303867 0.156462 
0.00303867 -9.97785 -0.0453985 
0.156462 -0.0453985 -9.96035 
-2.74175 0.29819 0.28062 
0.29819 -2.62808 0.13022 
0.28062 0.13022 -3.60487 
-4.69754 0.300808 -0.529998 
0.300808 -4.65945 0.708653 
-0.529998 0.708653 0.382301 
-4.56846 0.143034 1.15275 
0.143034 -4.51476 -0.010134 
1.15275 -0.010134 0.108521 
-3.20641 0.79273 -0.251723 
0.79273 -2.49941 -1.48137 
-0.251723 -1.48137 -3.26888 
-10.5165 -0.487779 -0.308507 
-0.487779 -10.8197 -0.365616 
-0.308507 -0.365616 -13.4896 
-9.84842 -0.72984 -0.900772 
-0.72984 -9.25353 0.0884168 
-0.900772 0.0884168 -15.7238 
-12.7783 -1.0316 -0.665235 
-1.0316 -13.0611 0.857496 
-0.665235 0.857496 -8.98639 
-11.5896 -0.665145 1.3048 
-0.665145 -10.9875 0.21924 
1.3048 0.21924 -12.2487 
-9.96721 0.00593682 0.0569369 
0.00593682 -9.99123 -0.319531 
0.0569369 -0.319531 -9.96447 
-9.97499 0.0142348 0.0514568 
0.0142348 -9.98665 -0.319062 
0.0514568 -0.319062 -9.96126 
-9.94018 0.00718784 0.0350195 
0.00718784 -9.93799 -0.329598 
0.0350195 -0.329598 -10.0447 
-9.99037 0.0026106 0.0709304 
0.0026106 -9.99341 -0.341091 
0.0709304 -0.341091 -9.93913 
-9.79903 -0.00380673 0.353737 
-0.00380673 -9.82969 -0.0851454 
0.353737 -0.0851454 -9.90053 
-9.83917 -0.00478211 0.336545 
-0.00478211 -9.8496 -0.0793863 
0.336545 -0.0793863 -9.84048 
-9.91061 0.00280299 0.354509 
0.00280299 -9.82619 -0.0626038 
0.354509 -0.0626038 -9.79245 
-9.83324 -0.0224168 0.302213 
-0.0224168 -9.85355 -0.0885346 
0.302213 -0.0885346 -9.84246 
-9.60577 0.293729 0.0684587 
0.293729 -9.57523 -0.0270016 
0.0684587 -0.0270016 -10.0164 
-9.68691 -0.0342313 -0.100611 
-0.0342313 -9.84662 -0.130404 
-0.100611 -0.130404 -9.66385 
-9.92439 -0.0946415 -0.310018 
-0.0946415 -9.81735 0.0312881 
-0.310018 0.0312881 -9.45565 
-9.50166 0.0794878 -0.157671 
0.0794878 -9.74318 -0.151273 
-0.157671 -0.151273 -9.95253 
-9.99286 0.00361518 -0.309785 
0.00361518 -9.96156 0.0570809 
-0.309785 0.0570809 -9.96329 
-9.99556 0.00192532 -0.338339 
0.00192532 -9.99197 0.0753023 
-0.338339 0.0753023 -9.93018 
-9.93282 0.00627466 -0.324151 
0.00627466 -9.93434 0.0310001 
-0.324151 0.0310001 -10.0505 
-9.98867 0.014187 -0.307762 
0.014187 -9.9714 0.0481786 
-0.307762 0.0481786 -9.95763 
-4.96631 -0.612871 1.09585 
-0.612871 -4.07329 0.632542 
1.09585 0.632542 -0.0843083 
-4.15307 -1.16244 0.241098 
-1.16244 -4.27442 -0.812443 
0.241098 -0.812443 -0.69642 
-2.65081 -0.0592574 -0.230862 
-0.0592574 -3.44406 -0.292679 
-0.230862 -0.292679 -3.02904 
-3.21868 -1.20845 -1.23632 
-1.20845 -3.03704 -0.350069 
-1.23632 -0.350069 -2.86819 
-9.58221 0.144181 0.0316947 
0.144181 -9.50929 0.061421 
0.0316947 0.061421 -9.60799 
-9.50168 0.0622862 -0.276493 
0.0622862 -9.63515 0.0977175 
-0.276493 0.0977175 -9.56265 
-9.5725 0.116242 -0.176822 
0.116242 -9.68479 0.0902918 
-0.176822 0.0902918 -9.4422 
-9.70435 0.130785 -0.206918 
0.130785 -9.74399 0.0988077 
-0.206918 0.0988077 -9.25115 
-13.6485 -0.409929 0.564604 
-0.409929 -12.3294 0.930541 
0.564604 0.930541 -11.4198 
-12.18 -0.419425 -0.377747 
-0.419425 -10.6636 1.62692 
-0.377747 1.62692 -14.5541 
-9.49091 -1.33313 -1.10885 
-1.33313 -9.45739 -0.180804 
-1.10885 -0.180804 -18.4495 
-14.3597 -0.031338 -1.60937 
-0.031338 -10.9441 1.75901 
-1.60937 1.75901 -12.094 
-9.74314 0.0562836 0.00456125 
0.0562836 -9.80873 -0.170037 
0.00456125 -0.170037 -10.1387 
-10.0602 0.249108 -0.01156 
0.249108 -9.6823 -0.104201 
-0.01156 -0.104201 -9.94801 
-9.9465 -0.144504 -0.0461239 
-0.144504 -9.84186 0.238476 
-0.0461239 0.238476 -9.9022 
-9.91083 0.274849 0.019555 
0.274849 -9.63854 0.136817 
0.019555 0.136817 -10.1412 
-10.6425 0.185104 -0.275466 
0.185104 -9.93985 -0.189236 
-0.275466 -0.189236 -9.66206 
-9.80893 0.00152595 0.19239 
0.00152595 -9.85795 -0.0718261 
0.19239 -0.0718261 -10.5775 
-9.77933 0.418568 -0.122779 
0.418568 -10.0473 -0.0855998 
-0.122779 -0.0855998 -10.4178 
-10.1653 0.170618 -0.166259 
0.170618 -9.98746 -0.0765535 
-0.166259 -0.0765535 -10.0917 
-9.58564 0.110735 0.011835 
0.110735 -9.5657 0.144358 
0.011835 0.144358 -9.87317 
-9.51782 0.0309946 0.111682 
0.0309946 -9.70198 0.136782 
0.111682 0.136782 -9.80472 
-9.80568 0.130516 0.0535085 
0.130516 -9.42832 0.0969545 
0.0535085 0.0969545 -9.79052 
-9.5576 0.182694 0.0218689 
0.182694 -9.62072 0.15811 
0.0218689 0.15811 -9.84619 
-10.6693 0.0840989 0.254512 
0.0840989 -10.9826 -0.05705 
0.254512 -0.05705 -12.752 
-12.2976 0.106212 -0.184293 
0.106212 -11.2856 0.228425 
-0.184293 0.228425 -10.8207 
-11.5623 -0.549738 -0.352526 
-0.549738 -11.2111 0.132998 
-0.352526 0.132998 -11.6305 
-11.4587 -0.390997 -0.725051 
-0.390997 -11.2767 0.246337 
-0.725051 0.246337 -11.6685 
-9.97948 -0.00513358 -0.228812 
-0.00513358 -9.97547 -0.163035 
-0.228812 -0.163035 -9.98557 
-9.96576 -0.00152558 -0.232688 
-0.00152558 -9.96329 -0.148022 
-0.232688 -0.148022 -10.0115 
-9.97727 -0.00641106 -0.234523 
-0.00641106 -9.98734 -0.159804 
-0.234523 -0.159804 -9.9759 
-9.98792 -0.00591689 -0.238025 
-0.00591689 -9.98183 -0.169096 
-0.238025 -0.169096 -9.97077 
-9.80535 0.00139094 -0.286657 
0.00139094 -9.81151 0.217972 
-0.286657 0.217972 -9.88481 
-9.85496 0.0177001 -0.288483 
0.0177001 -9.85342 0.217559 
-0.288483 0.217559 -9.79329 
-9.82905 -0.00273413 -0.288941 
-0.00273413 -9.83302 0.190232 
-0.288941 0.190232 -9.83959 
-9.82001 0.000472538 -0.269118 
0.000472538 -9.83519 0.181246 
-0.269118 0.181246 -9.84647 
-9.93437 0.0152501 -0.0677285 
0.0152501 -9.85643 -0.00757601 
-0.0677285 -0.00757601 -9.85441 
-9.79659 -0.00864296 0.00856013 
-0.00864296 -9.98651 0.00215336 
0.00856013 0.00215336 -9.8621 
-9.9354 0.0201002 -0.0571921 
0.0201002 -9.89698 0.0219016 
-0.0571921 0.0219016 -9.81283 
-9.82996 0.0852686 -0.121974 
0.0852686 -9.95086 0.102301 
-0.121974 0.102301 -9.86438 
-9.98535 0.0164253 -0.0136396 
0.0164253 -9.89631 -0.0111089 
-0.0136396 -0.0111089 -9.99662 
-9.98105 0.00892489 0.0242053 
0.00892489 -9.90537 -0.00132036 
0.0242053 -0.00132036 -9.99186 
-10.0228 -0.0880778 -0.0107019 
-0.0880778 -9.81774 -0.0917564 
-0.0107019 -0.0917564 -10.0377 
-10.063 0.013849 0.00147529 
0.013849 -9.84807 0.0533137 
0.00147529 0.0533137 -9.96718 
-9.96883 0.00537188 -0.0862807 
0.00537188 -9.96236 -0.0589468 
-0.0862807 -0.0589468 -9.99023 
-9.96088 -0.000677483 -0.0693347 
-0.000677483 -9.9624 -0.0641217 
-0.0693347 -0.0641217 -9.99813 
-9.97042 0.000523689 -0.0758092 
0.000523689 -9.97213 -0.0526455 
-0.0758092 -0.0526455 -9.97886 
-9.97513 -0.00255874 -0.0781723 
-0.00255874 -9.97866 -0.0519664 
-0.0781723 -0.0519664 -9.96762 
-7.67798 0.209109 -0.712396 
0.209109 -8.65741 0.0947184 
-0.712396 0.0947184 4.76499 
-6.63806 1.74276 0.951146 
1.74276 -5.74306 1.30896 
0.951146 1.30896 0.810722 
-2.87381 -0.791399 0.0967667 
-0.791399 -0.367877 -2.32085 
0.0967667 -2.32085 -8.32871 
-4.58129 0.479386 4.3995 
0.479386 -5.68565 -0.931466 
4.3995 -0.931466 -1.30346 
-9.45977 -0.0173253 0.195435 
-0.0173253 -9.4009 -0.255951 
0.195435 -0.255951 -9.58322 
-9.46157 -0.020433 0.0977866 
-0.020433 -9.37467 -0.2874 
0.0977866 -0.2874 -9.60766 
-9.57275 0.0552018 0.119318 
0.0552018 -9.47045 -0.324071 
0.119318 -0.324071 -9.40069 
-9.47973 -0.019969 0.179297 
-0.019969 -9.36817 -0.299084 
0.179297 -0.299084 -9.59599 
-9.95442 -0.00752215 -0.330057 
-0.00752215 -9.9337 -0.0827196 
-0.330057 -0.0827196 -9.9473 
-9.90873 -0.00886894 -0.326005 
-0.00886894 -9.96026 -0.0683172 
-0.326005 -0.0683172 -9.96643 
-9.9297 -0.00225302 -0.322167 
-0.00225302 -9.96143 -0.0676208 
-0.322167 -0.0676208 -9.94428 
-9.95482 0.00130148 -0.338584 
0.00130148 -9.94527 -0.0833502 
-0.338584 -0.0833502 -9.93533 
-10.2585 -0.0535557 -0.0451078 
-0.0535557 -10.1313 -0.0301025 
-0.0451078 -0.0301025 -10.0712 
-10.3942 -0.00764658 -0.137274 
-0.00764658 -10.01 -0.0606711 
-0.137274 -0.0606711 -10.0568 
-10.0331 -0.115517 0.039863 
-0.115517 -10.0333 -0.212257 
0.039863 -0.212257 -10.3946 
-10.2462 0.00180135 0.00248097 
0.00180135 -10.1881 -0.0153629 
0.00248097 -0.0153629 -10.0266 
-9.81496 0.0152868 0.250218 
0.0152868 -9.78997 0.255358 
0.250218 0.255358 -9.90797 
-9.83713 0.0153825 0.248229 
0.0153825 -9.84005 0.245066 
0.248229 0.245066 -9.83573 
-9.86657 -0.0267974 0.238545 
-0.0267974 -9.87073 0.290203 
0.238545 0.290203 -9.7756 
-9.84693 0.00418382 0.23566 
0.00418382 -9.84812 0.220569 
0.23566 0.220569 -9.81785 
-9.67063 -0.0030918 -0.330662 
-0.0030918 -9.66466 -0.104689 
-0.330662 -0.104689 -9.67361 
-9.69015 -0.0161025 -0.349267 
-0.0161025 -9.68486 -0.0920136 
-0.349267 -0.0920136 -9.63389 
-9.64098 0.0242418 -0.329575 
0.0242418 -9.65896 -0.1184 
-0.329575 -0.1184 -9.70896 
-9.68568 -0.00859178 -0.322317 
-0.00859178 -9.64243 -0.079491 
-0.322317 -0.079491 -9.6808 
-9.91672 -0.00182685 0.0914602 
-0.00182685 -9.90926 0.34071 
0.0914602 0.34071 -9.87069 
-9.89533 8.91304e-05 0.0685169 
8.91304e-05 -9.89172 0.349015 
0.0685169 0.349015 -9.90963 
-9.88937 -0.0155652 0.0700743 
-0.0155652 -9.90828 0.34761 
0.0700743 0.34761 -9.89903 
-9.89511 -0.00507131 0.0688047 
-0.00507131 -9.89275 0.343168 
0.0688047 0.343168 -9.90882 
-9.98658 0.00369626 -0.165622 
0.00369626 -9.98569 0.0903616 
-0.165622 0.0903616 -9.96193 
-9.95137 -0.00159282 -0.163959 
-0.00159282 -9.97616 0.102983 
-0.163959 0.102983 -10.0067 
-9.96171 0.00609796 -0.160974 
0.00609796 -9.96893 0.0817392 
-0.160974 0.0817392 -10.0036 
-9.99565 0.00104802 -0.154773 
0.00104802 -9.97945 0.0899676 
-0.154773 0.0899676 -9.9591 
-9.97847 0.00268646 -0.0440948 
0.00268646 -9.97416 -0.265627 
-0.0440948 -0.265627 -9.99516 
-9.9772 -0.00179454 -0.0462726 
-0.00179454 -9.98653 -0.274186 
-0.0462726 -0.274186 -9.98406 
-9.97798 -0.00210811 -0.0329488 
-0.00210811 -9.97506 -0.274569 
-0.0329488 -0.274569 -9.99475 
-9.98896 -0.00214633 -0.0442608 
-0.00214633 -9.98706 -0.276521 
-0.0442608 -0.276521 -9.97178 
-9.46678 -0.0470601 -0.00258075 
-0.0470601 -9.30379 -0.377684 
-0.00258075 -0.377684 -9.54662 
-9.37535 -0.0101729 0.0684134 
-0.0101729 -9.54487 -0.324241 
0.0684134 -0.324241 -9.39698 
-9.41758 -0.00580953 0.0865557 
-0.00580953 -9.30454 -0.31761 
0.0865557 -0.31761 -9.59507 
-9.43648 -0.00494934 0.0259724 
-0.00494934 -9.34425 -0.463444 
0.0259724 -0.463444 -9.53646 
-9.97439 -0.0108116 -0.139679 
-0.0108116 -9.97512 -0.124553 
-0.139679 -0.124553 -10.0032 
-9.99101 -0.0050821 -0.128082 
-0.0050821 -9.98303 -0.120841 
-0.128082 -0.120841 -9.97868 
-9.9878 -0.00835129 -0.126948 
-0.00835129 -9.97804 -0.112251 
-0.126948 -0.112251 -9.98688 
-9.99441 -0.00151563 -0.127127 
-0.00151563 -9.99071 -0.118199 
-0.127127 -0.118199 -9.9676 
-9.16956 -0.199243 0.217847 
-0.199243 -9.52765 -0.118503 
0.217847 -0.118503 -9.65937 
-9.59224 0.0676045 0.275113 
0.0676045 -9.39871 -0.155833 
0.275113 -0.155833 -9.36563 
-9.42149 0.0270816 0.285065 
0.0270816 -9.47211 -0.215649 
0.285065 -0.215649 -9.46298 
-9.36105 -0.0673336 0.52479 
-0.0673336 -9.42159 -0.172949 
0.52479 -0.172949 -9.57394 
-9.35498 0.0323267 -0.315802 
0.0323267 -9.47004 -0.142476 
-0.315802 -0.142476 -9.60795 
-10.1285 0.330731 -0.430352 
0.330731 -9.26955 -0.05501 
-0.430352 -0.05501 -9.03492 
-9.01723 -0.200708 -0.0541872 
-0.200708 -9.68033 0.000984751 
-0.0541872 0.000984751 -9.73541 
-9.10116 -0.0943093 -0.451403 
-0.0943093 -9.50349 0.174524 
-0.451403 0.174524 -9.82832 
-9.54069 -0.126357 0.135689 
-0.126357 -9.48895 -0.153158 
0.135689 -0.153158 -9.79996 
-9.56519 -0.114465 0.0602182 
-0.114465 -9.48857 -0.211788 
0.0602182 -0.211788 -9.77583 
-9.73456 -0.14861 0.0772832 
-0.14861 -9.39511 -0.160607 
0.0772832 -0.160607 -9.69993 
-9.56321 -0.104775 0.0816989 
-0.104775 -9.54567 -0.19353 
0.0816989 -0.19353 -9.72072 
-10.0347 -0.00653657 -0.158491 
-0.00653657 -9.4222 -0.0978982 
-0.158491 -0.0978982 -10.1261 
-9.83358 -0.0992637 0.0942431 
-0.0992637 -9.8826 0.0157651 
0.0942431 0.0157651 -9.8668 
-9.88936 -0.0435463 0.119752 
-0.0435463 -9.79621 0.094282 
0.119752 0.094282 -9.89742 
-9.75908 -0.103108 0.134797 
-0.103108 -9.8802 -0.0146845 
0.134797 -0.0146845 -9.9437 
-9.57468 -0.00242066 -0.215716 
-0.00242066 -9.57196 -0.288819 
-0.215716 -0.288819 -9.63453 
-9.60699 -0.00301416 -0.209656 
-0.00301416 -9.60437 -0.292407 
-0.209656 -0.292407 -9.56981 
-9.60323 0.0115673 -0.193955 
0.0115673 -9.56971 -0.292803 
-0.193955 -0.292803 -9.60824 
-9.5882 0.00343255 -0.204385 
0.00343255 -9.60066 -0.297003 
-0.204385 -0.297003 -9.59232 
-9.79163 -0.0467636 0.155269 
-0.0467636 -9.73574 0.116947 
0.155269 0.116947 -10.0846 
-9.75568 0.0332709 -0.162275 
0.0332709 -10.0117 -0.112349 
-0.162275 -0.112349 -9.84455 
-10.0581 0.181718 0.0834161 
0.181718 -9.65719 0.041805 
0.0834161 0.041805 -9.89672 
-9.9902 0.129807 -0.0531811 
0.129807 -9.5625 -0.089129 
-0.0531811 -0.089129 -10.0593 
-8.75339 1.71028 2.65577 
1.71028 -4.15832 0.203972 
2.65577 0.203972 2.86982 
-6.40296 -1.44717 0.507413 
-1.44717 -5.52681 -0.418271 
0.507413 -0.418271 1.88787 
0.441714 -0.165393 -1.77716 
-0.165393 -2.73224 0.0131158 
-1.77716 0.0131158 -7.75137 
-7.85747 -0.722201 -3.41535 
-0.722201 -3.9955 1.48239 
-3.41535 1.48239 1.81108 
-9.58769 -0.180906 0.0898036 
-0.180906 -9.69865 0.0853525 
0.0898036 0.0853525 -9.76277 
-9.5516 0.00466549 0.0852963 
0.00466549 -9.65829 0.0899585 
0.0852963 0.0899585 -9.83922 
-9.31444 0.208766 0.0170573 
0.208766 -9.75813 0.0146703 
0.0170573 0.0146703 -9.97654 
-9.61502 -0.0176835 0.172802 
-0.0176835 -9.59596 0.0824445 
0.172802 0.0824445 -9.83813 
-10.0733 -0.778674 -0.544736 
-0.778674 -10.4839 0.464844 
-0.544736 0.464844 -11.8929 
-9.56759 0.124594 0.492344 
0.124594 -9.84964 -0.0157253 
0.492344 -0.0157253 -13.0328 
-12.6168 -0.32582 -0.288513 
-0.32582 -9.77919 0.353241 
-0.288513 0.353241 -10.054 
-10.8373 -0.535295 -0.791807 
-0.535295 -10.5207 -0.384422 
-0.791807 -0.384422 -11.092 
-9.71541 -0.289281 -0.184594 
-0.289281 -9.86024 0.545844 
-0.184594 0.545844 -10.935 
-11.1185 0.136194 0.607371 
0.136194 -9.56931 0.149896 
0.607371 0.149896 -9.82285 
-10.4389 0.213342 -0.128167 
0.213342 -10.4018 -0.108085 
-0.128167 -0.108085 -9.66997 
-10.2795 0.00348771 0.0514253 
0.00348771 -10.3005 -0.105499 
0.0514253 -0.105499 -9.93069 
-10.6141 -0.0673888 0.290463 
-0.0673888 -9.91826 -0.0687348 
0.290463 -0.0687348 -10.0254 
-9.9743 0.121432 -0.0609746 
0.121432 -10.001 -0.301331 
-0.0609746 -0.301331 -10.5825 
-10.3321 -0.122206 -0.0461445 
-0.122206 -10.2834 0.043578 
-0.0461445 0.043578 -9.94218 
-10.3077 0.0059518 0.0761187 
0.0059518 -10.1652 -0.00804801 
0.0761187 -0.00804801 -10.0849 
-9.96601 0.00745016 -0.133979 
0.00745016 -9.97493 0.101625 
-0.133979 0.101625 -9.9994 
-9.98041 0.00306817 -0.138252 
0.00306817 -9.98064 0.0907254 
-0.138252 0.0907254 -9.97929 
-9.96644 0.00221841 -0.131838 
0.00221841 -9.97827 0.0867092 
-0.131838 0.0867092 -9.99564 
-9.98804 0.0016075 -0.137228 
0.0016075 -9.98289 0.0888208 
-0.137228 0.0888208 -9.96941 
-9.95914 0.00906505 0.333114 
0.00906505 -9.92723 -0.0894269 
0.333114 -0.0894269 -9.93774 
-9.88627 0.00694433 0.332653 
0.00694433 -9.96703 -0.0658978 
0.332653 -0.0658978 -9.97082 
-9.96188 -0.00494181 0.351279 
-0.00494181 -9.94131 -0.089487 
0.351279 -0.089487 -9.92094 
-9.92873 -0.000891101 0.329995 
-0.000891101 -9.95608 -0.0710384 
0.329995 -0.0710384 -9.93931 
-9.8483 -0.0446246 -0.0936106 
-0.0446246 -9.74445 0.0486446 
-0.0936106 0.0486446 -10.0322 
-9.83624 -0.0673971 0.0241988 
-0.0673971 -9.67179 0.0510444 
0.0241988 0.0510444 -10.117 
-9.86164 -0.0220369 -0.11157 
-0.0220369 -9.66339 -0.00810741 
-0.11157 -0.00810741 -10.1 
-9.69528 -0.0701381 -0.130274 
-0.0701381 -9.85402 0.0947708 
-0.130274 0.0947708 -10.0757 
-9.8212 -0.00725586 -0.0520347 
-0.00725586 -9.81271 0.351346 
-0.0520347 0.351346 -9.90065 
-9.8604 -0.00317352 -0.0288393 
-0.00317352 -9.81631 0.346982 
-0.0288393 0.346982 -9.85785 
-9.84141 0.014488 -0.0408969 
0.014488 -9.89608 0.364342 
-0.0408969 0.364342 -9.79707 
-9.84728 -0.00538392 -0.0145805 
-0.00538392 -9.84792 0.326732 
-0.0145805 0.326732 -9.83937 
-9.50653 0.175484 -0.0465632 
0.175484 -9.88735 -0.0232735 
-0.0465632 -0.0232735 -10.0508 
-10.0062 -0.0927002 0.104827 
-0.0927002 -9.72118 0.0125488 
0.104827 0.0125488 -9.71732 
-9.84973 0.0891632 0.149287 
0.0891632 -9.85715 -0.0770332 
0.149287 -0.0770332 -9.73777 
-9.71317 0.0836409 0.232097 
0.0836409 -9.70231 0.0509049 
0.232097 0.0509049 -10.0292 
-9.95759 0.00336327 0.0673456 
0.00336327 -9.88053 -0.332714 
0.0673456 -0.332714 -9.9672 
-9.92298 0.0116741 0.084017 
0.0116741 -9.94621 -0.331017 
0.084017 -0.331017 -9.93613 
-9.93971 -0.00255675 0.0900462 
-0.00255675 -9.94823 -0.349348 
0.0900462 -0.349348 -9.91738 
-9.9428 0.000630816 0.0700423 
0.000630816 -9.92747 -0.33202 
0.0700423 -0.33202 -9.93505 
-11.1097 -1.26471 -1.33563 
-1.26471 -12.0463 0.873558 
-1.33563 0.873558 -13.9791 
-12.0384 -1.02838 -0.920873 
-1.02838 -12.2039 0.702744 
-0.920873 0.702744 -12.8927 
-10.9326 -0.880805 -1.43389 
-0.880805 -12.3195 0.43075 
-1.43389 0.43075 -13.8829 
-11.3768 -0.840203 -0.600664 
-0.840203 -12.2131 -0.117325 
-0.600664 -0.117325 -13.5451 
-9.891 0.0903571 -0.040586 
0.0903571 -9.61675 -0.0298674 
-0.040586 -0.0298674 -9.9017 
-9.76031 -0.0674442 -0.100409 
-0.0674442 -9.63161 -0.0718417 
-0.100409 -0.0718417 -10.0175 
-9.71957 -0.0258831 0.110588 
-0.0258831 -9.8657 0.125494 
0.110588 0.125494 -9.82418 
-9.92125 0.0835919 0.0734026 
0.0835919 -9.46721 0.135994 
0.0734026 0.135994 -10.021 
-9.97768 0.000861266 -0.072593 
0.000861266 -9.97536 0.0985233 
-0.072593 0.0985233 -9.97898 
-9.97419 -0.000778697 -0.0710639 
-0.000778697 -9.97561 0.0883491 
-0.0710639 0.0883491 -9.98222 
-9.96238 0.00288683 -0.0545113 
0.00288683 -9.96352 0.0988889 
-0.0545113 0.0988889 -10.0061 
-9.97898 0.00216137 -0.0751716 
0.00216137 -9.98738 0.0931204 
-0.0751716 0.0931204 -9.96565 
-9.49855 -0.0366189 0.273942 
-0.0366189 -9.51986 -0.202854 
0.273942 -0.202854 -9.4891 
-9.48298 -0.0141329 0.291875 
-0.0141329 -9.50664 -0.18227 
0.291875 -0.18227 -9.51789 
-9.4649 -0.0400702 0.304124 
-0.0400702 -9.49008 -0.221105 
0.304124 -0.221105 -9.55253 
-9.48323 -0.00449995 0.288416 
-0.00449995 -9.51259 -0.202482 
0.288416 -0.202482 -9.51169 
-9.83308 -0.00924377 -0.334244 
-0.00924377 -9.86153 0.0786147 
-0.334244 0.0786147 -9.85059 
-9.88187 0.00838827 -0.349344 
0.00838827 -9.8434 0.0647686 
-0.349344 0.0647686 -9.81993 
-9.84135 0.00459035 -0.338889 
0.00459035 -9.81848 0.0772642 
-0.338889 0.0772642 -9.88537 
-9.83872 -0.00469847 -0.320594 
-0.00469847 -9.85854 0.0732172 
-0.320594 0.0732172 -9.84794 
-9.95858 0.00789908 -0.319066 
0.00789908 -9.91941 0.0802607 
-0.319066 0.0802607 -9.93496 
-9.86631 0.00294947 -0.327548 
0.00294947 -9.96835 0.065256 
-0.327548 0.065256 -9.97829 
-9.95734 -0.00348145 -0.342644 
-0.00348145 -9.93649 0.0842798 
-0.342644 0.0842798 -9.91912 
-9.94059 0.00315521 -0.332944 
0.00315521 -9.93829 0.0688554 
-0.332944 0.0688554 -9.93406 
-9.94388 -0.00552039 0.052339 
-0.00552039 -9.8998 0.332872 
0.052339 0.332872 -9.95212 
-9.92902 -0.00226423 0.0662612 
-0.00226423 -9.93973 0.337507 
0.0662612 0.337507 -9.92705 
-9.93534 0.00691484 0.100988 
0.00691484 -9.92084 0.325719 
0.100988 0.325719 -9.93962 
-9.93911 -0.018696 0.115623 
-0.018696 -9.93971 0.311715 
0.115623 0.311715 -9.91698 
-9.67236 0.111556 0.0147296 
0.111556 -9.92678 -0.00639013 
0.0147296 -0.00639013 -9.96913 
-9.67395 0.123081 0.0136403 
0.123081 -9.89904 -0.120344 
0.0136403 -0.120344 -9.99528 
-9.70212 0.206811 0.0370385 
0.206811 -9.82136 -0.0347428 
0.0370385 -0.0347428 -10.0448 
-9.70282 0.0903103 -0.0199841 
0.0903103 -9.91167 -0.0508018 
-0.0199841 -0.0508018 -9.95378 
-9.72697 -0.0561724 -0.0516905 
-0.0561724 -9.73982 0.0346853 
-0.0516905 0.0346853 -9.78366 
-9.72149 0.100086 0.0173392 
0.100086 -9.65457 0.0330047 
0.0173392 0.0330047 -9.87438 
-9.7554 -0.0715058 -0.00415934 
-0.0715058 -9.80965 -0.018848 
-0.00415934 -0.018848 -9.68539 
-9.70683 -0.0448553 -0.0577184 
-0.0448553 -9.8941 -0.106513 
-0.0577184 -0.106513 -9.64951 
-9.82204 0.106389 -0.0726957 
0.106389 -9.79977 -0.0295657 
-0.0726957 -0.0295657 -10.236 
-9.94847 -0.0549117 0.0214558 
-0.0549117 -10.0472 0.0105574 
0.0214558 0.0105574 -9.86215 
-9.94192 -0.0466197 0.036132 
-0.0466197 -9.99512 0.0137703 
0.036132 0.0137703 -9.92076 
-9.89048 -0.0352904 0.0562454 
-0.0352904 -10.1281 0.121242 
0.0562454 0.121242 -9.83925 
-9.68174 -0.00542573 -0.358091 
-0.00542573 -9.68081 -0.0537726 
-0.358091 -0.0537726 -9.70817 
-9.70912 0.00222409 -0.348795 
0.00222409 -9.68041 -0.0374552 
-0.348795 -0.0374552 -9.68119 
-9.68774 6.10508e-05 -0.350365 
6.10508e-05 -9.7195 -0.0457344 
-0.350365 -0.0457344 -9.66348 
-9.69804 -0.0124313 -0.348046 
-0.0124313 -9.68146 -0.0403641 
-0.348046 -0.0403641 -9.69121 
-9.94003 -0.0088663 0.0141684 
-0.0088663 -9.912 0.34519 
0.0141684 0.34519 -9.96791 
-9.93636 0.00165281 0.0276286 
0.00165281 -9.94288 0.354136 
0.0276286 0.354136 -9.9407 
-9.93951 0.00130332 0.0257622 
0.00130332 -9.93866 0.351585 
0.0257622 0.351585 -9.94176 
-9.95826 -0.00611367 0.020794 
-0.00611367 -9.93974 0.362939 
0.020794 0.362939 -9.92194 
-9.86778 -0.0216266 -0.1704 
-0.0216266 -9.90322 -0.314315 
-0.1704 -0.314315 -9.78165 
-9.81733 -0.000496954 -0.189464 
-0.000496954 -9.80632 -0.303089 
-0.189464 -0.303089 -9.92899 
-9.85809 0.0102442 -0.196009 
0.0102442 -9.84613 -0.279127 
-0.196009 -0.279127 -9.84842 
-9.85558 0.00744471 -0.185375 
0.00744471 -9.85069 -0.253755 
-0.185375 -0.253755 -9.84638 
-9.42024 -0.00641525 0.0122459 
-0.00641525 -9.56662 0.352328 
0.0122459 0.352328 -9.29006 
-9.46687 -0.142676 -0.155867 
-0.142676 -9.31063 0.170926 
-0.155867 0.170926 -9.49941 
-9.36288 0.0506733 -0.127022 
0.0506733 -9.42868 0.261754 
-0.127022 0.261754 -9.48535 
-9.36294 -0.105855 -0.188969 
-0.105855 -9.38248 0.321025 
-0.188969 0.321025 -9.53149 
-9.96823 0.00149097 -0.148688 
0.00149097 -9.97338 0.2324 
-0.148688 0.2324 -9.99547 
-9.97711 0.00144931 -0.160646 
0.00144931 -9.98581 0.237235 
-0.160646 0.237235 -9.97416 
-9.97121 0.000327398 -0.165117 
0.000327398 -9.9649 0.222338 
-0.165117 0.222338 -10.001 
-9.98115 0.0051274 -0.161124 
0.0051274 -9.99064 0.239522 
-0.161124 0.239522 -9.96528 
-9.94476 -0.0040353 -0.041825 
-0.0040353 -9.95577 0.330502 
-0.041825 0.330502 -10.0256 
-9.98366 0.00328299 -0.0660068 
0.00328299 -9.9917 0.341828 
-0.0660068 0.341828 -9.9508 
-9.96748 1.73216e-05 -0.0585142 
1.73216e-05 -9.99057 0.325625 
-0.0585142 0.325625 -9.96811 
-9.95809 0.0137261 -0.0501915 
0.0137261 -9.99649 0.324503 
-0.0501915 0.324503 -9.97158 
-9.84837 -0.0292061 -0.0538715 
-0.0292061 -10.0859 -0.0633981 
-0.0538715 -0.0633981 -9.91581 
-9.98263 -0.00513736 -0.012016 
-0.00513736 -9.96761 -0.00527601 
-0.012016 -0.00527601 -9.89983 
-10.1103 -0.015624 0.0587953 
-0.015624 -9.71679 0.00279591 
0.0587953 0.00279591 -10.023 
-10.0978 0.0134009 -0.0852752 
0.0134009 -9.95706 -0.0583334 
-0.0852752 -0.0583334 -9.79519 
-9.57871 -0.00223991 -0.255624 
-0.00223991 -9.57077 0.267873 
-0.255624 0.267873 -9.61023 
-9.59309 0.012605 -0.25546 
0.012605 -9.58803 0.265966 
-0.25546 0.265966 -9.57858 
-9.57483 -0.00462031 -0.243096 
-0.00462031 -9.58366 0.275102 
-0.243096 0.275102 -9.60122 
-9.58516 0.0055103 -0.252606 
0.0055103 -9.58188 0.256138 
-0.252606 0.256138 -9.59266 
-2.23475 4.97465 4.05177 
4.97465 -7.42288 0.888131 
4.05177 0.888131 -26.0325 
-0.738517 3.36586 2.71075 
3.36586 -11.8973 2.3476 
2.71075 2.3476 -23.0543 
-8.90158 2.9761 -1.38782 
2.9761 -12.274 -0.422187 
-1.38782 -0.422187 -14.5145 
-9.98723 0.135325 2.17193 
0.135325 -11.2392 2.08134 
2.17193 2.08134 -14.4637 
-10.7979 0.0103964 0.0929153 
0.0103964 -10.3215 -0.165124 
0.0929153 -0.165124 -12.2149 
-11.2495 -0.0479963 0.204808 
-0.0479963 -11.0068 0.187859 
0.204808 0.187859 -11.078 
-11.266 0.0106 0.196349 
0.0106 -11.2386 0.0715464 
0.196349 0.0715464 -10.8297 
-11.3253 -0.0986503 0.0888144 
-0.0986503 -10.9403 0.580986 
0.0888144 0.580986 -11.0686 
-2.11588 2.03209 -0.690969 
2.03209 -2.31217 -2.05951 
-0.690969 -2.05951 -8.86944 
-10.7191 -3.08373 -1.15203 
-3.08373 -5.64039 1.38281 
-1.15203 1.38281 3.06201 
-8.10512 -0.175083 -0.787653 
-0.175083 -8.87316 -0.739356 
-0.787653 -0.739356 3.6808 
-3.42164 -1.32103 -6.89213 
-1.32103 -9.17444 -2.72687 
-6.89213 -2.72687 -0.701401 
-10.2986 0.00603579 0.137347 
0.00603579 -10.2063 0.104427 
0.137347 0.104427 -9.79532 
-9.84093 0.222371 -0.43105 
0.222371 -9.77364 -0.149049 
-0.43105 -0.149049 -10.6857 
-10.1576 -0.0436975 0.061024 
-0.0436975 -10.2581 -0.0864489 
0.061024 -0.0864489 -9.88462 
-9.50899 -0.110991 -0.22527 
-0.110991 -10.85 0.462945 
-0.22527 0.462945 -9.94128 
-9.75942 -0.113643 0.196513 
-0.113643 -9.88894 -0.0981136 
0.196513 -0.0981136 -10.5333 
-10.3925 0.321579 -0.0212713 
0.321579 -10.0479 0.237909 
-0.0212713 0.237909 -9.74131 
-10.3197 -0.112808 -0.00634309 
-0.112808 -9.49636 0.132239 
-0.00634309 0.132239 -10.3656 
-10.2232 0.0693913 -0.120438 
0.0693913 -9.88737 0.0710212 
-0.120438 0.0710212 -10.0711 
-10.486 1.13872 0.066858 
1.13872 -8.72984 -1.75446 
0.066858 -1.75446 -12.9501 
-11.1153 1.0958 -0.148596 
1.0958 -9.53222 -1.57157 
-0.148596 -1.57157 -11.5185 
-11.8126 -0.526227 -0.0965176 
-0.526227 -8.6695 -0.924597 
-0.0965176 -0.924597 -11.6839 
-11.0198 0.154245 -0.935747 
0.154245 -9.17638 -1.47526 
-0.935747 -1.47526 -11.9698 
-9.9872 0.0012342 0.321895 
0.0012342 -9.95947 0.0611081 
0.321895 0.0611081 -9.96869 
-9.9944 -0.0115148 0.31179 
-0.0115148 -9.96323 0.0541864 
0.31179 0.0541864 -9.95773 
-9.93225 -0.00423915 0.329146 
-0.00423915 -9.92955 0.0406014 
0.329146 0.0406014 -10.0536 
-9.9906 -0.00747234 0.34311 
-0.00747234 -9.98732 0.074116 
0.34311 0.074116 -9.93744 
-9.9731 -0.00127981 0.209455 
-0.00127981 -9.97303 0.187504 
0.209455 0.187504 -10.0001 
-9.9794 0.000566788 0.207813 
0.000566788 -9.98061 0.201691 
0.207813 0.201691 -9.98623 
-9.98026 -0.00167052 0.199252 
-0.00167052 -9.9778 0.197334 
0.199252 0.197334 -9.98819 
-9.98959 -0.00152806 0.203389 
-0.00152806 -9.98537 0.199675 
0.203389 0.199675 -9.97128 
-9.59417 -0.0148881 -0.226308 
-0.0148881 -9.57834 0.306117 
-0.226308 0.306117 -9.5149 
-9.54585 0.0131102 -0.232635 
0.0131102 -9.54525 0.299523 
-0.232635 0.299523 -9.59631 
-9.584 -0.017744 -0.194546 
-0.017744 -9.5443 0.312513 
-0.194546 0.312513 -9.55912 
-9.57033 -0.0187038 -0.216875 
-0.0187038 -9.57151 0.315618 
-0.216875 0.315618 -9.54557 
-12.7895 -1.36881 0.71784 
-1.36881 -11.9892 0.390242 
0.71784 0.390242 -12.0101 
-11.8348 -0.604916 -0.315182 
-0.604916 -10.2302 0.215246 
-0.315182 0.215246 -14.7238 
-11.5132 -1.01384 0.110156 
-1.01384 -10.2942 -0.908692 
0.110156 -0.908692 -14.9814 
-13.8224 -1.62526 -0.504323 
-1.62526 -11.0386 -0.484893 
-0.504323 -0.484893 -11.9278 
-9.99002 -0.00770307 -0.116571 
-0.00770307 -9.98634 -0.130933 
-0.116571 -0.130933 -9.97373 
-9.97265 -0.00542241 -0.123995 
-0.00542241 -9.97487 -0.143831 
-0.123995 -0.143831 -10.0026 
-9.97865 -0.013441 -0.109196 
-0.013441 -9.9851 -0.129617 
-0.109196 -0.129617 -9.98634 
-9.99329 -0.00401729 -0.114706 
-0.00401729 -9.99143 -0.12887 
-0.114706 -0.12887 -9.96537 
-11.6191 -0.146166 -0.347735 
-0.146166 -10.8233 0.346 
-0.347735 0.346 -13.7897 
-10.729 0.12134 -0.937661 
0.12134 -12.5497 -0.0834236 
-0.937661 -0.0834236 -12.9533 
-11.8491 1.61295 -0.0582691 
1.61295 -12.2691 -0.345722 
-0.0582691 -0.345722 -12.1138 
-11.4453 0.480871 -0.123822 
0.480871 -12.6637 0.117025 
-0.123822 0.117025 -12.1231 
-9.48305 -0.0652825 -0.154163 
-0.0652825 -9.51804 -0.100791 
-0.154163 -0.100791 -9.51149 
-9.40665 0.227024 -0.181136 
0.227024 -9.42718 -0.251531 
-0.181136 -0.251531 -9.67874 
-9.37563 0.192677 -0.114582 
0.192677 -9.43181 -0.113616 
-0.114582 -0.113616 -9.70513 
-9.55185 0.0382333 -0.113006 
0.0382333 -9.29261 -0.115146 
-0.113006 -0.115146 -9.66811 
-9.95131 -0.00606918 0.167097 
-0.00606918 -9.96792 -0.120585 
0.167097 -0.120585 -10.0136 
-9.95837 0.00538284 0.168698 
0.00538284 -9.97817 -0.0977494 
0.168698 -0.0977494 -9.9963 
-9.98598 -0.00157424 0.178013 
-0.00157424 -9.986 -0.104761 
0.178013 -0.104761 -9.96085 
-9.99682 -0.00158732 0.167574 
-0.00158732 -9.97894 -0.0997228 
0.167574 -0.0997228 -9.95708 
-9.97502 0.00349903 0.269639 
0.00349903 -9.97457 0.0746146 
0.269639 0.0746146 -9.99458 
-9.97227 0.00135413 0.267814 
0.00135413 -9.97743 0.0613883 
0.267814 0.0613883 -9.99445 
-9.98023 -0.00137003 0.276374 
-0.00137003 -9.97828 0.0642699 
0.276374 0.0642699 -9.98564 
-9.98563 0.00227497 0.275866 
0.00227497 -9.98636 0.0671378 
0.275866 0.0671378 -9.97217 
-9.85216 -0.000956442 0.334921 
-0.000956442 -9.84665 0.0800475 
0.334921 0.0800475 -9.83911 
-9.79485 0.00496491 0.351442 
0.00496491 -9.82843 0.0807186 
0.351442 0.0807186 -9.91464 
-9.89272 -0.000137374 0.355788 
-0.000137374 -9.83771 0.0648328 
0.355788 0.0648328 -9.8075 
-9.84664 0.0244671 0.307772 
0.0244671 -9.84756 0.0874795 
0.307772 0.0874795 -9.84373 
-9.83827 0.0101249 0.0666729 
0.0101249 -9.88051 -0.355036 
0.0666729 -0.355036 -9.81041 
-9.84884 -0.00158866 0.0728072 
-0.00158866 -9.83435 -0.337071 
0.0728072 -0.337071 -9.84599 
-9.82747 0.00235071 0.0721279 
0.00235071 -9.81753 -0.344229 
0.0721279 -0.344229 -9.88419 
-9.84984 -0.00293115 0.0758695 
-0.00293115 -9.84097 -0.314762 
0.0758695 -0.314762 -9.83838 
-9.97684 0.00281102 -0.211915 
0.00281102 -9.9782 -0.269541 
-0.211915 -0.269541 -9.98654 
-9.97292 0.0120102 -0.227231 
0.0120102 -9.95749 -0.257792 
-0.227231 -0.257792 -10.0112 
-9.97984 0.00334231 -0.217917 
0.00334231 -9.9891 -0.26558 
-0.217917 -0.26558 -9.97265 
-9.98639 -0.00337149 -0.217121 
-0.00337149 -9.98811 -0.272508 
-0.217121 -0.272508 -9.96708 
-9.61381 -0.0893486 -0.110065 
-0.0893486 -9.24101 0.125557 
-0.110065 0.125557 -9.74527 
-9.56142 0.164042 -0.0474277 
0.164042 -9.50569 0.108577 
-0.0474277 0.108577 -9.53297 
-9.53546 -0.0807144 -0.160366 
-0.0807144 -9.32171 0.209567 
-0.160366 0.209567 -9.74292 
-9.47226 0.0050165 -0.0932858 
0.0050165 -9.40906 0.0810417 
-0.0932858 0.0810417 -9.71876 
-7.44977 3.10793 0.795281 
3.10793 -10.4605 0.0665453 
0.795281 0.0665453 -21.2279 
-6.46491 2.21605 0.287275 
2.21605 -12.2571 1.05421 
0.287275 1.05421 -20.4162 
-10.3582 2.57837 -0.255833 
2.57837 -11.9174 0.185849 
-0.255833 0.185849 -16.8626 
-9.40182 2.13339 -0.195039 
2.13339 -12.2446 0.321009 
-0.195039 0.321009 -17.4918 
-9.7445 -0.0114237 -0.349757 
-0.0114237 -9.71348 -0.0793531 
-0.349757 -0.0793531 -9.68086 
-9.70579 0.00666496 -0.334982 
0.00666496 -9.72418 -0.0936168 
-0.334982 -0.0936168 -9.70886 
-9.71413 -0.0101078 -0.341182 
-0.0101078 -9.68376 -0.0917621 
-0.341182 -0.0917621 -9.74095 
-9.70855 -0.00102877 -0.332945 
-0.00102877 -9.72283 -0.0880248 
-0.332945 -0.0880248 -9.70745 
-9.92077 -0.016112 0.0424196 
-0.016112 -9.94587 -0.00125908 
0.0424196 -0.00125908 -9.93219 
-9.89779 0.0183761 0.041318 
0.0183761 -9.97229 0.0301929 
0.041318 0.0301929 -9.92874 
-9.87194 0.0601341 0.00192037 
0.0601341 -9.97676 0.0215761 
0.00192037 0.0215761 -9.95013 
-9.91924 0.0166894 0.0380387 
0.0166894 -9.97049 0.00286663 
0.0380387 0.00286663 -9.9091 
0.832677 -0.266293 0.613966 
-0.266293 0.136076 -1.06079 
0.613966 -1.06079 -13.4639 
-9.23198 -0.162151 0.998497 
-0.162151 -9.52288 -0.390402 
0.998497 -0.390402 6.25974 
-8.82743 -0.141008 0.0381386 
-0.141008 -7.26547 2.87583 
0.0381386 2.87583 3.59777 
-5.49868 2.37469 10.3038 
2.37469 -6.40322 5.61251 
10.3038 5.61251 -0.593227 
-9.88816 -0.293407 -0.377686 
-0.293407 -11.1295 -0.0907465 
-0.377686 -0.0907465 -12.1872 
-11.3895 0.493222 -0.686627 
0.493222 -11.7434 0.137588 
-0.686627 0.137588 -10.072 
-10.8822 -0.524724 0.0966184 
-0.524724 -10.2235 -0.242096 
0.0966184 -0.242096 -12.0992 
-10.5033 -0.344699 -0.48852 
-0.344699 -11.2834 0.67484 
-0.48852 0.67484 -11.4182 
-5.24296 0.804691 -0.826689 
0.804691 -1.84521 0.0442488 
-0.826689 0.0442488 -1.80479 
-4.55092 -0.833559 -0.815346 
-0.833559 -5.46926 1.5179 
-0.815346 1.5179 1.12723 
-3.38005 -0.391986 0.0549754 
-0.391986 -3.50761 -0.452248 
0.0549754 -0.452248 -2.00529 
-1.99285 -0.46877 0.200424 
-0.46877 -4.14132 -1.55451 
0.200424 -1.55451 -2.75878 
-9.88429 -0.00614609 0.334812 
-0.00614609 -9.95847 0.0682486 
0.334812 0.0682486 -9.96927 
-9.92881 -0.000516274 0.33508 
-0.000516274 -9.9459 0.0725173 
0.33508 0.0725173 -9.93732 
-9.94935 -0.00621568 0.335656 
-0.00621568 -9.92373 0.0852917 
0.335656 0.0852917 -9.93894 
-9.94804 0.00295143 0.352773 
0.00295143 -9.94321 0.0905995 
0.352773 0.0905995 -9.92078 
-9.85565 0.0282429 -0.185282 
0.0282429 -9.90089 0.325832 
-0.185282 0.325832 -9.77092 
-9.84608 -0.0186938 -0.203707 
-0.0186938 -9.83794 0.288281 
-0.203707 0.288281 -9.84344 
-9.81085 -0.00243879 -0.199748 
-0.00243879 -9.79491 0.309394 
-0.199748 0.309394 -9.92171 
-9.84967 -0.00704071 -0.191985 
-0.00704071 -9.84586 0.256593 
-0.191985 0.256593 -9.83194 
-10.0499 -0.0627964 0.0899908 
-0.0627964 -9.70485 -0.200327 
0.0899908 -0.200327 -10.1577 
-9.68448 -0.0816598 -0.113126 
-0.0816598 -9.73997 0.0917281 
-0.113126 0.0917281 -10.4881 
-10.2093 0.226437 0.0647954 
0.226437 -10.0404 -0.298815 
0.0647954 -0.298815 -9.66289 
-10.0295 0.0241472 0.176293 
0.0241472 -9.86717 -0.136073 
0.176293 -0.136073 -10.0158 
-9.99597 -0.00810743 0.316893 
-0.00810743 -9.98418 0.163835 
0.316893 0.163835 -9.95544 
-9.96796 0.016503 0.310171 
0.016503 -9.97207 0.155561 
0.310171 0.155561 -9.99556 
-9.9506 0.00577458 0.298626 
0.00577458 -9.96985 0.177829 
0.298626 0.177829 -10.0151 
-9.98959 0.00172407 0.300238 
0.00172407 -9.98789 0.16253 
0.300238 0.16253 -9.95811 
-9.97564 -0.00676571 -0.103336 
-0.00676571 -9.99751 -0.336874 
-0.103336 -0.336874 -9.95684 
-9.98203 0.00446231 -0.111603 
0.00446231 -9.94255 -0.323877 
-0.111603 -0.323877 -10.0054 
-9.96709 0.00686996 -0.0897988 
0.00686996 -9.96095 -0.330258 
-0.0897988 -0.330258 -10.002 
-9.98541 0.00180388 -0.0969533 
0.00180388 -9.98669 -0.319638 
-0.0969533 -0.319638 -9.95789 
-9.9857 -0.00167725 0.102933 
-0.00167725 -9.97495 0.340095 
0.102933 0.340095 -9.96787 
-9.97135 0.012129 0.0936368 
0.012129 -9.95271 0.341962 
0.0936368 0.341962 -10.0045 
-9.97744 0.00178508 0.113079 
0.00178508 -9.95792 0.335783 
0.113079 0.335783 -9.99316 
-9.98188 -0.00364678 0.106882 
-0.00364678 -9.98702 0.344898 
0.106882 0.344898 -9.95963 
-10.0362 0.0777932 -0.032391 
0.0777932 -9.98122 -0.00770238 
-0.032391 -0.00770238 -10.0742 
-10.0659 0.0176866 -0.0280589 
0.0176866 -9.98223 0.0362454 
-0.0280589 0.0362454 -10.0435 
-10.041 0.0570194 -0.0236462 
0.0570194 -10.032 0.011697 
-0.0236462 0.011697 -10.0186 
-10.0731 0.0619403 -0.0248584 
0.0619403 -10.0013 0.062208 
-0.0248584 0.062208 -10.0172 
-9.91853 0.0529467 -0.00366542 
0.0529467 -9.86198 0.0768082 
-0.00366542 0.0768082 -9.80515 
-9.74892 -0.0310105 0.0362579 
-0.0310105 -9.85452 -0.0120848 
0.0362579 -0.0120848 -9.98223 
-9.94212 0.0491344 -0.0303156 
0.0491344 -9.77527 0.0058647 
-0.0303156 0.0058647 -9.86828 
-9.85789 0.0343551 -0.0508651 
0.0343551 -9.81194 0.012502 
-0.0508651 0.012502 -9.91584 
-9.57197 -0.00983597 -0.373168 
-0.00983597 -9.54845 0.0165084 
-0.373168 0.0165084 -9.65123 
-9.56949 -0.0238512 -0.355477 
-0.0238512 -9.60967 0.0506115 
-0.355477 0.0506115 -9.59249 
-9.61823 -0.00924157 -0.378336 
-0.00924157 -9.61669 0.0226768 
-0.378336 0.0226768 -9.53673 
-9.58801 -0.0119512 -0.354959 
-0.0119512 -9.59787 0.0408318 
-0.354959 0.0408318 -9.58578 
-9.78786 -0.0962301 0.0922437 
-0.0962301 -9.56132 0.0496549 
0.0922437 0.0496549 -9.93471 
-9.76798 0.0386806 0.0565318 
0.0386806 -9.62596 -0.104147 
0.0565318 -0.104147 -9.88995 
-9.81959 0.0740295 -0.045772 
0.0740295 -9.83262 -0.122985 
-0.045772 -0.122985 -9.63168 
-9.86257 0.0829356 0.0302173 
0.0829356 -9.55594 -0.110552 
0.0302173 -0.110552 -9.86538 
-10.8354 -0.0583074 -0.307998 
-0.0583074 -9.54536 0.233242 
-0.307998 0.233242 -10.5542 
-10.4695 -0.0257032 -0.234316 
-0.0257032 -9.49142 0.195723 
-0.234316 0.195723 -10.9741 
-9.68156 -0.521444 -0.419185 
-0.521444 -10.1984 -0.590802 
-0.419185 -0.590802 -11.055 
-9.98597 -0.189326 0.315124 
-0.189326 -10.6631 0.590296 
0.315124 0.590296 -10.2859 
-9.71489 -0.113081 0.109293 
-0.113081 -9.43184 -0.210203 
0.109293 -0.210203 -9.83632 
-9.70815 -0.0302328 0.0407633 
-0.0302328 -9.53392 -0.109134 
0.0407633 -0.109134 -9.74097 
-9.70093 0.0499966 -0.0127842 
0.0499966 -9.61775 -0.127505 
-0.0127842 -0.127505 -9.66436 
-9.61754 -0.0224372 0.0276397 
-0.0224372 -9.53194 -0.0538572 
0.0276397 -0.0538572 -9.83356 
-10.1523 -0.00748598 0.0273781 
-0.00748598 -10.0915 0.0542229 
0.0273781 0.0542229 -9.99467 
-10.0547 0.0120965 -0.021313 
0.0120965 -9.98588 -0.0291096 
-0.021313 -0.0291096 -10.1979 
-10.2089 0.00297831 -0.0525447 
0.00297831 -9.97373 0.008601 
-0.0525447 0.008601 -10.0558 
-10.1326 -0.0012881 -0.0426601 
-0.0012881 -10.0962 0.0119354 
-0.0426601 0.0119354 -10.0097 
-9.80005 0.0125489 -0.0791665 
0.0125489 -9.70203 0.110251 
-0.0791665 0.110251 -9.75417 
-9.78902 0.0240417 -0.0119997 
0.0240417 -9.80569 0.134717 
-0.0119997 0.134717 -9.66154 
-9.7827 -0.12674 -0.0523563 
-0.12674 -9.58945 0.00919917 
-0.0523563 0.00919917 -9.8841 
-9.79699 0.0144254 -0.070092 
0.0144254 -9.65452 0.132991 
-0.070092 0.132991 -9.80474 
-9.80382 -0.00582844 -0.277416 
-0.00582844 -9.79693 -0.2282 
-0.277416 -0.2282 -9.9225 
-9.82206 0.0176333 -0.289327 
0.0176333 -9.84761 -0.18927 
-0.289327 -0.18927 -9.85357 
-9.87345 -0.0260329 -0.29055 
-0.0260329 -9.86844 -0.22188 
-0.29055 -0.22188 -9.78135 
-9.84902 0.00259285 -0.269953 
0.00259285 -9.8363 -0.173993 
-0.269953 -0.173993 -9.83792 
-9.94397 0.000157494 -0.08535 
0.000157494 -9.94659 0.353243 
-0.08535 0.353243 -9.91818 
-9.94771 0.00841145 -0.0668009 
0.00841145 -9.93937 0.349756 
-0.0668009 0.349756 -9.92166 
-9.97091 0.011464 -0.0700658 
0.011464 -9.86751 0.339116 
-0.0700658 0.339116 -9.97032 
-9.92276 0.00683643 -0.0756071 
0.00683643 -9.95249 0.337919 
-0.0756071 0.337919 -9.93348 
-9.94522 -0.00997817 -0.00489201 
-0.00997817 -9.93977 -0.0122439 
-0.00489201 -0.0122439 -10.0331 
-9.9461 -0.00582266 0.000629191 
-0.00582266 -10.0076 0.00274985 
0.000629191 0.00274985 -9.96438 
-10.0042 -0.00515262 -0.00138566 
-0.00515262 -9.96898 0.0471768 
-0.00138566 0.0471768 -9.94487 
-10.0014 -0.0265786 0.00687125 
-0.0265786 -9.96443 0.0135458 
0.00687125 0.0135458 -9.9522 
-9.84009 -0.0168892 -0.00619631 
-0.0168892 -9.9359 -0.0254633 
-0.00619631 -0.0254633 -9.96053 
-9.98893 -0.0675071 -0.0227918 
-0.0675071 -9.87533 -0.0257539 
-0.0227918 -0.0257539 -9.87225 
-9.96132 -0.00618382 0.0113218 
-0.00618382 -9.88681 -0.0263974 
0.0113218 -0.0263974 -9.88839 
-9.90406 -0.0216773 0.00167712 
-0.0216773 -9.86155 0.00211666 
0.00167712 0.00211666 -9.9709 
-10.0398 -0.0151759 0.00754592 
-0.0151759 -10.3265 -0.0805611 
0.00754592 -0.0805611 -10.0658 
-10.2372 0.0236581 -0.00242315 
0.0236581 -10.2401 -0.0879057 
-0.00242315 -0.0879057 -9.95489 
-9.97107 -0.0799077 -0.0879465 
-0.0799077 -10.0156 0.00070443 
-0.0879465 0.00070443 -10.4455 
-10.1531 -0.0304807 0.0369341 
-0.0304807 -10.2475 0.0169674 
0.0369341 0.0169674 -10.0316 
-9.93335 0.0114515 0.0339083 
0.0114515 -9.93986 0.347593 
0.0339083 0.347593 -9.95963 
-9.93533 0.00740035 0.0695851 
0.00740035 -9.96334 0.336293 
0.0695851 0.336293 -9.93417 
-9.94178 0.00840345 0.0602001 
0.00840345 -9.94198 0.333402 
0.0602001 0.333402 -9.94908 
-9.9449 -0.00360701 0.0382363 
-0.00360701 -9.94751 0.347935 
0.0382363 0.347935 -9.94043 
-11.9823 0.355899 0.51402 
0.355899 -12.5422 -0.215995 
0.51402 -0.215995 -14.0686 
-11.6716 0.0643223 -0.0432134 
0.0643223 -12.0385 -0.801701 
-0.0432134 -0.801701 -14.883 
-12.6279 0.143533 -0.121003 
0.143533 -12.8309 -0.382208 
-0.121003 -0.382208 -13.1343 
-12.3816 0.151816 0.275163 
0.151816 -12.9654 0.643697 
0.275163 0.643697 -13.2461 
-11.0111 -2.06224 1.01474 
-2.06224 -8.51608 -1.47261 
1.01474 -1.47261 -14.6791 
-11.7495 -0.956252 0.410845 
-0.956252 -9.92935 -0.773113 
0.410845 -0.773113 -12.5274 
-11.9963 -0.223453 0.460486 
-0.223453 -9.56119 -0.863664 
0.460486 -0.863664 -12.6488 
-11.2642 -0.599421 -0.423828 
-0.599421 -10.1672 0.377161 
-0.423828 0.377161 -12.7749 
-14.7677 3.96462 1.65961 
3.96462 -6.7287 -4.48149 
1.65961 -4.48149 8.79487 
-9.15737 2.21908 2.82421 
2.21908 -8.5848 -0.700553 
2.82421 -0.700553 5.04061 
-1.60826 0.803398 -0.93451 
0.803398 -3.99796 0.686104 
-0.93451 0.686104 -7.09535 
-4.04012 -2.81283 6.40075 
-2.81283 -5.1127 -2.80837 
6.40075 -2.80837 -3.54875 
-9.52638 0.129261 0.113317 
0.129261 -9.78859 0.0330956 
0.113317 0.0330956 -9.73114 
-9.69526 0.0646219 0.108816 
0.0646219 -9.58756 0.0889986 
0.108816 0.0889986 -9.76329 
-9.51894 0.133845 0.209981 
0.133845 -9.67113 0.0482483 
0.209981 0.0482483 -9.85603 
-9.67974 0.174366 0.0878008 
0.174366 -9.53967 0.0522944 
0.0878008 0.0522944 -9.8267 
-9.57077 -0.110495 -0.0549914 
-0.110495 -9.70952 0.0118025 
-0.0549914 0.0118025 -9.92918 
-9.89592 0.106468 -0.00647493 
0.106468 -9.63117 0.0484535 
-0.00647493 0.0484535 -9.68238 
-9.62947 -0.0550881 -0.140605 
-0.0550881 -9.7618 -0.0265311 
-0.140605 -0.0265311 -9.8182 
-9.63617 0.0853125 -0.0341896 
0.0853125 -9.71998 -0.00767576 
-0.0341896 -0.00767576 -9.85331 
-9.64792 -0.0347891 0.0647244 
-0.0347891 -9.77979 -0.0038353 
0.0647244 -0.0038353 -9.68352 
-9.75797 -0.0747248 -0.0424352 
-0.0747248 -9.60412 -0.0738479 
-0.0424352 -0.0738479 -9.74915 
-9.63107 -0.0464965 -0.0457238 
-0.0464965 -9.76831 0.0509601 
-0.0457238 0.0509601 -9.71186 
-9.71962 -0.00130026 -0.102769 
-0.00130026 -9.67821 0.0517381 
-0.102769 0.0517381 -9.7134 
-9.84422 0.0231079 0.0772279 
0.0231079 -9.93994 -0.0167377 
0.0772279 -0.0167377 -9.84024 
-9.96726 0.0102064 -0.0711284 
0.0102064 -9.69951 0.00880571 
-0.0711284 0.00880571 -9.95763 
-9.80738 -0.0413288 0.0454066 
-0.0413288 -10.009 -0.085723 
0.0454066 -0.085723 -9.80799 
-9.93036 -0.0215123 0.00868302 
-0.0215123 -9.85016 0.0143608 
0.00868302 0.0143608 -9.84389 
-9.97864 -0.00571877 0.107873 
-0.00571877 -9.98409 -0.333516 
0.107873 -0.333516 -9.97513 
-9.98362 -0.00229859 0.111406 
-0.00229859 -9.96323 -0.331384 
0.111406 -0.331384 -9.991 
-9.96435 0.00133005 0.0952202 
0.00133005 -9.96663 -0.336457 
0.0952202 -0.336457 -10.0069 
-9.98069 0.000182096 0.111249 
0.000182096 -9.98719 -0.33558 
0.111249 -0.33558 -9.96998 
-9.37493 -0.165073 -0.220663 
-0.165073 -9.7161 0.148695 
-0.220663 0.148695 -9.8143 
-9.7414 -0.0112174 -0.119727 
-0.0112174 -9.53583 0.0522966 
-0.119727 0.0522966 -9.6281 
-9.47032 -0.138504 -0.106428 
-0.138504 -9.69294 0.0776024 
-0.106428 0.0776024 -9.74208 
-9.63006 -0.233006 -0.0701578 
-0.233006 -9.45374 0.0924514 
-0.0701578 0.0924514 -9.82154 
-9.98298 -0.000225484 0.145172 
-0.000225484 -9.97721 -0.0995891 
0.145172 -0.0995891 -9.98754 
-9.96896 0.00193162 0.142904 
0.00193162 -9.97736 -0.116631 
0.142904 -0.116631 -10.0014 
-9.98067 -0.00359052 0.15173 
-0.00359052 -9.98521 -0.104371 
0.15173 -0.104371 -9.98185 
-9.98903 -0.000137438 0.149281 
-0.000137438 -9.98705 -0.10115 
0.149281 -0.10115 -9.97165 
-12.0447 0.393206 -0.230938 
0.393206 -10.0514 -1.7467 
-0.230938 -1.7467 -16.1515 
-12.8622 0.974188 -0.542044 
0.974188 -11.0076 -1.04093 
-0.542044 -1.04093 -14.3779 
-13.6181 -0.0188219 -0.026243 
-0.0188219 -11.6932 -0.965771 
-0.026243 -0.965771 -12.9364 
-12.901 0.209143 -0.516269 
0.209143 -11.5302 0.622538 
-0.516269 0.622538 -13.8165 
-9.86083 0.0128383 0.00530051 
0.0128383 -9.92023 -0.0216116 
0.00530051 -0.0216116 -9.95378 
-9.9145 0.00995472 -0.000617716 
0.00995472 -9.89242 0.00112985 
-0.000617716 0.00112985 -9.92793 
-9.94056 0.00647809 -0.00735677 
0.00647809 -9.90245 -0.0167403 
-0.00735677 -0.0167403 -9.89184 
-9.93539 0.0229422 0.0042321 
0.0229422 -9.90158 -0.0104539 
0.0042321 -0.0104539 -9.89788 
-9.85734 0.0125677 0.0106915 
0.0125677 -9.88014 0.00527758 
0.0106915 0.00527758 -9.91568 
-9.90151 0.0102213 -0.0202358 
0.0102213 -9.88244 -0.01941 
-0.0202358 -0.01941 -9.8692 
-9.94606 0.0362397 -0.0157789 
0.0362397 -9.82763 -0.0143776 
-0.0157789 -0.0143776 -9.87946 
-9.88925 -0.0388773 -0.002262 
-0.0388773 -9.86823 -0.00200758 
-0.002262 -0.00200758 -9.89567 
-9.83912 0.026834 -0.0200942 
0.026834 -9.8664 -0.00990919 
-0.0200942 -0.00990919 -9.94001 
-9.86569 -0.062393 0.0126429 
-0.062393 -9.85033 0.0086079 
0.0126429 0.0086079 -9.92951 
-9.89849 0.0376614 0.0225158 
0.0376614 -9.90196 0.0385331 
0.0225158 0.0385331 -9.84508 
-9.93588 0.0338845 0.0208622 
0.0338845 -9.87888 -0.0129963 
0.0208622 -0.0129963 -9.83076 
-10.0585 0.00916225 -0.00203956 
0.00916225 -10.1048 -0.0139308 
-0.00203956 -0.0139308 -10.0193 
-10.0232 0.0111888 0.0329349 
0.0111888 -10.0017 -0.015276 
0.0329349 -0.015276 -10.1577 
-10.0559 -0.000694453 -0.00578564 
-0.000694453 -10.0765 0.00277005 
-0.00578564 0.00277005 -10.0502 
-10.0548 -0.0192535 0.0162277 
-0.0192535 -10.1088 0.0230602 
0.0162277 0.0230602 -10.019 
-11.8323 0.976069 -0.28186 
0.976069 -11.678 -0.72435 
-0.28186 -0.72435 -13.0161 
-13.5183 -0.303441 -0.203569 
-0.303441 -10.4323 -0.224607 
-0.203569 -0.224607 -12.5759 
-10.6455 0.216238 0.368148 
0.216238 -11.6311 -0.00415407 
0.368148 -0.00415407 -14.2499 
-12.6719 0.327104 -0.368446 
0.327104 -11.5024 0.391405 
-0.368446 0.391405 -12.3522 
-9.97638 -0.000608152 -0.309405 
-0.000608152 -9.98686 -0.163076 
-0.309405 -0.163076 -9.98208 
-9.97215 0.00260793 -0.303337 
0.00260793 -9.98251 -0.167068 
-0.303337 -0.167068 -9.99066 
-9.96798 0.00329671 -0.310568 
0.00329671 -9.97241 -0.154058 
-0.310568 -0.154058 -10.0049 
-9.98559 -7.1064e-05 -0.30673 
-7.1064e-05 -9.98665 -0.166281 
-0.30673 -0.166281 -9.97308 
-11.3621 -0.515869 0.0852076 
-0.515869 -10.817 0.185913 
0.0852076 0.185913 -11.2293 
-10.4393 0.311574 -0.108672 
0.311574 -10.5135 0.00455094 
-0.108672 0.00455094 -12.4557 
-11.9157 0.913949 0.360992 
0.913949 -9.58503 0.578255 
0.360992 0.578255 -11.9076 
-11.1226 0.0404448 -0.138134 
0.0404448 -10.8139 -0.0312021 
-0.138134 -0.0312021 -11.4719 
4.58344 -0.34288 -3.96706 
-0.34288 6.80552 1.6692 
-3.96706 1.6692 -23.9122 
-10.5381 -2.13525 0.899538 
-2.13525 -8.55556 -3.26286 
0.899538 -3.26286 6.57039 
-13.394 -0.574642 -1.97794 
-0.574642 -11.0439 1.73958 
-1.97794 1.73958 11.9146 
-2.90195 0.427509 16.5931 
0.427509 -9.40639 5.33009 
16.5931 5.33009 -0.214884 
-9.98438 0.00888481 0.0499243 
0.00888481 -9.95751 0.320302 
0.0499243 0.320302 -10.0019 
-9.98813 0.00304328 0.0601537 
0.00304328 -9.98584 0.31992 
0.0601537 0.31992 -9.96979 
-9.97454 0.0048132 0.0665806 
0.0048132 -9.97149 0.310117 
0.0665806 0.310117 -9.99773 
-9.98685 -0.00445554 0.0651286 
-0.00445554 -9.99388 0.311548 
0.0651286 0.311548 -9.96302 
-9.96667 0.00330445 0.285347 
0.00330445 -9.97359 0.227981 
0.285347 0.227981 -9.98868 
-9.96619 0.00184343 0.272925 
0.00184343 -9.96561 0.230509 
0.272925 0.230509 -9.99714 
-9.96869 0.00483061 0.282408 
0.00483061 -9.97107 0.218794 
0.282408 0.218794 -9.98919 
-9.97567 0.00451012 0.278637 
0.00451012 -9.98044 0.220734 
0.278637 0.220734 -9.97284 
-9.88056 -0.0545752 0.011463 
-0.0545752 -9.93327 0.0118176 
0.011463 0.0118176 -10.0197 
-9.93408 0.0134732 -0.0087956 
0.0134732 -9.86385 -0.00527016 
-0.0087956 -0.00527016 -10.0356 
-10.004 0.0396577 0.038812 
0.0396577 -9.96967 -0.0298781 
0.038812 -0.0298781 -9.85992 
-9.95433 0.0756246 -0.0224401 
0.0756246 -9.95722 0.0532864 
-0.0224401 0.0532864 -9.92199 
-10.0275 -0.04147 0.00159717 
-0.04147 -10.0176 0.00247137 
0.00159717 0.00247137 -9.90331 
-9.90546 -0.0222854 -0.00881692 
-0.0222854 -10.083 0.00114546 
-0.00881692 0.00114546 -9.95999 
-10.0335 0.0290543 -0.0740361 
0.0290543 -9.95429 -0.0809158 
-0.0740361 -0.0809158 -9.96062 
-9.93463 0.00798124 0.0199087 
0.00798124 -9.87516 0.0128735 
0.0199087 0.0128735 -10.1386 
-9.58947 0.0479265 -0.0940192 
0.0479265 -9.57982 -0.198408 
-0.0940192 -0.198408 -9.59624 
-9.55177 0.154042 0.00103431 
0.154042 -9.34848 -0.186075 
0.00103431 -0.186075 -9.86528 
-9.49236 0.0462774 -0.105284 
0.0462774 -9.59642 -0.218449 
-0.105284 -0.218449 -9.67675 
-9.50141 0.0352744 -0.163939 
0.0352744 -9.55378 -0.291605 
-0.163939 -0.291605 -9.71034 
-9.5961 0.0919426 0.353663 
0.0919426 -9.86155 -0.190315 
0.353663 -0.190315 -11.0667 
-10.4831 -0.483761 -0.342102 
-0.483761 -10.2719 -0.252367 
-0.342102 -0.252367 -9.7693 
-10.707 0.0321633 0.120359 
0.0321633 -10.1214 0.10498 
0.120359 0.10498 -9.69598 
-10.2523 -0.0150307 -0.0415963 
-0.0150307 -10.2365 0.0296321 
-0.0415963 0.0296321 -10.0355 
-10.1409 -0.0356721 -0.0484226 
-0.0356721 -10.1196 -0.015363 
-0.0484226 -0.015363 -9.97872 
-10.0598 0.0535713 0.0276734 
0.0535713 -9.89593 -0.017114 
0.0276734 -0.017114 -10.2835 
-10.0493 0.00346167 -0.0257014 
0.00346167 -10.0763 0.0218625 
-0.0257014 0.0218625 -10.1135 
-10.1225 -0.0829828 -0.014197 
-0.0829828 -10.0931 0.096738 
-0.014197 0.096738 -10.0236 
-9.86766 -0.00665696 0.0658679 
-0.00665696 -9.89724 0.368587 
0.0658679 0.368587 -9.81181 
-9.84488 0.0057281 0.0700702 
0.0057281 -9.80269 0.347935 
0.0700702 0.347935 -9.92914 
-9.87257 0.01854 0.0800737 
0.01854 -9.85399 0.338453 
0.0800737 0.338453 -9.85015 
-9.87003 0.00242836 0.0770799 
0.00242836 -9.87818 0.324558 
0.0770799 0.324558 -9.8285 
-9.96819 0.0411222 0.0695154 
0.0411222 -10.0462 0.087261 
0.0695154 0.087261 -9.83836 
-9.89239 -0.0104601 0.0712554 
-0.0104601 -10.0172 0.0685295 
0.0712554 0.0685295 -9.94312 
-9.84137 0.0145394 0.00648747 
0.0145394 -10.0436 0.00347289 
0.00648747 0.00347289 -9.9678 
-10.0349 0.00959403 0.0432717 
0.00959403 -9.87225 0.0392226 
0.0432717 0.0392226 -9.94564 
-3.39469 -3.35862 1.5945 
-3.35862 -9.8555 1.08134 
1.5945 1.08134 4.60353 
-0.0378799 1.53465 -1.66647 
1.53465 -1.14713 0.275645 
-1.66647 0.275645 -7.46165 
-6.5975 -0.41852 -1.25821 
-0.41852 -6.65679 1.16875 
-1.25821 1.16875 4.60763 
-5.98235 -0.666288 -1.09235 
-0.666288 -3.87114 -5.61926 
-1.09235 -5.61926 1.20684 
-9.43959 -0.424749 0.240525 
-0.424749 -10.1469 0.0413706 
0.240525 0.0413706 -12.6868 
-11.4767 -0.263139 -0.143792 
-0.263139 -10.2137 -0.357905 
-0.143792 -0.357905 -10.5829 
-9.87986 -0.901709 0.606652 
-0.901709 -9.96111 -0.70022 
0.606652 -0.70022 -12.4323 
-11.0724 -1.00489 0.803618 
-1.00489 -10.4723 0.042007 
0.803618 0.042007 -10.7286 
-10.7764 1.82918 0.345567 
1.82918 -11.5646 -0.536858 
0.345567 -0.536858 -10.9741 
-11.3096 0.245187 0.165942 
0.245187 -9.68891 0.612307 
0.165942 0.612307 -12.3166 
-10.4616 -0.346398 -0.118909 
-0.346398 -10.3957 0.148109 
-0.118909 0.148109 -12.4578 
-11.8688 0.587949 -0.190307 
0.587949 -10.4869 0.135128 
-0.190307 0.135128 -10.9594 
-11.1507 0.0982219 0.146755 
0.0982219 -10.9971 0.240554 
0.146755 0.240554 -11.5087 
-11.3351 -0.0350382 0.106696 
-0.0350382 -11.2951 0.125043 
0.106696 0.125043 -11.0262 
-10.8442 0.0977243 0.110157 
0.0977243 -10.8802 -0.0725802 
0.110157 -0.0725802 -11.932 
-11.3779 0.0966639 0.380587 
0.0966639 -11.1201 0.246901 
0.380587 0.246901 -11.1585 
-3.68996 0.110864 0.339604 
0.110864 -3.37225 0.235608 
0.339604 0.235608 -2.73526 
-4.55128 -0.26188 1.14175 
-0.26188 -4.50293 -0.492308 
1.14175 -0.492308 -0.743261 
-5.89571 -0.264935 -0.905479 
-0.264935 -4.45979 0.550739 
-0.905479 0.550739 0.55803 
-4.32789 0.275513 1.67474 
0.275513 -2.12689 0.632796 
1.67474 0.632796 -3.34269 
-10.8245 0.0825996 0.134322 
0.0825996 -10.6931 -0.0559915 
0.134322 -0.0559915 -11.8345 
-10.7294 -0.754844 0.450654 
-0.754844 -9.95415 -0.494331 
0.450654 -0.494331 -12.6686 
-10.4673 -0.469055 0.130167 
-0.469055 -11.5737 -0.0558468 
0.130167 -0.0558468 -11.3111 
-10.6891 -0.495859 -0.281508 
-0.495859 -11.1472 0.121655 
-0.281508 0.121655 -11.5158 
-4.95905 -0.9507 1.90141 
-0.9507 -6.09997 -0.992195 
1.90141 -0.992195 1.55676 
-3.0742 0.0730508 0.864294 
0.0730508 -4.19099 0.927226 
0.864294 0.927226 -2.23708 
-6.23766 0.771518 1.79352 
0.771518 -1.50933 0.24253 
1.79352 0.24253 -1.75527 
-2.17719 -0.0859441 0.543653 
-0.0859441 -4.15779 2.203 
0.543653 2.203 -3.16729 
-8.85589 -1.48901 -1.46901 
-1.48901 -13.1207 0.572575 
-1.46901 0.572575 -13.7247 
-10.8188 -0.928957 -1.05559 
-0.928957 -12.1955 0.375646 
-1.05559 0.375646 -12.687 
-9.53042 -1.07438 -0.123373 
-1.07438 -9.53619 -0.0121301 
-0.123373 -0.0121301 -16.6347 
-10.9271 -0.84222 -1.32133 
-0.84222 -11.7028 -0.00611975 
-1.32133 -0.00611975 -13.0713 
-9.46922 -0.044873 -0.0972834 
-0.044873 -9.48298 0.290534 
-0.0972834 0.290534 -9.52683 
-9.4566 0.0109014 -0.0601459 
0.0109014 -9.55169 0.307042 
-0.0601459 0.307042 -9.47075 
-9.50341 -0.0521259 -0.113986 
-0.0521259 -9.41965 0.3402 
-0.113986 0.3402 -9.55597 
-9.42197 -0.073096 -0.0957216 
-0.073096 -9.52128 0.309505 
-0.0957216 0.309505 -9.53579 
-10.007 0.00280852 -0.354447 
0.00280852 -9.98334 0.0502323 
-0.354447 0.0502323 -9.94996 
-9.96436 0.00359824 -0.344965 
0.00359824 -9.99453 0.0338917 
-0.344965 0.0338917 -9.9814 
-9.94947 -0.00798225 -0.347494 
-0.00798225 -9.96798 0.0168709 
-0.347494 0.0168709 -10.0228 
-9.98756 0.00760088 -0.332972 
0.00760088 -9.99478 0.0241699 
-0.332972 0.0241699 -9.95795 
-9.98046 -2.75472e-05 -0.313004 
-2.75472e-05 -9.98777 0.163734 
-0.313004 0.163734 -9.98149 
-9.96975 -0.00415494 -0.315531 
-0.00415494 -9.97345 0.154837 
-0.315531 0.154837 -10.0065 
-9.97628 -0.0013706 -0.308194 
-0.0013706 -9.98282 0.167894 
-0.308194 0.167894 -9.99062 
-9.98733 0.000955822 -0.31197 
0.000955822 -9.988 0.16725 
-0.31197 0.16725 -9.97439 
-9.5066 0.0535438 0.302681 
0.0535438 -9.50136 0.0965294 
0.302681 0.0965294 -9.52746 
-9.42491 0.0689372 0.355628 
0.0689372 -9.52664 0.0887525 
0.355628 0.0887525 -9.58387 
-9.55189 0.0348776 0.323982 
0.0348776 -9.49792 0.083146 
0.323982 0.083146 -9.48561 
-9.51622 0.0419276 0.322674 
0.0419276 -9.5013 0.0853315 
0.322674 0.0853315 -9.5179 
-9.27521 -0.0380536 -0.357778 
-0.0380536 -9.42053 0.0662967 
-0.357778 0.0662967 -9.47006 
-9.30508 -0.0648767 -0.345896 
-0.0648767 -9.40049 0.0166479 
-0.345896 0.0166479 -9.46023 
-9.34273 -0.0528996 -0.335971 
-0.0528996 -9.36835 0.0778135 
-0.335971 0.0778135 -9.45472 
-9.32617 -0.0661522 -0.400136 
-0.0661522 -9.37531 0.0293339 
-0.400136 0.0293339 -9.46432 
-9.98501 -0.00730183 0.34017 
-0.00730183 -9.98982 0.0278252 
0.34017 0.0278252 -9.9602 
-9.95905 -0.00439399 0.35046 
-0.00439399 -9.99537 0.0338986 
0.35046 0.0338986 -9.98061 
-9.95488 0.00263777 0.352305 
0.00263777 -9.9614 0.0207468 
0.352305 0.0207468 -10.0188 
-9.99937 -0.000558047 0.358608 
-0.000558047 -9.98261 0.0474522 
0.358608 0.0474522 -9.95305 
-9.59962 0.178003 0.350973 
0.178003 -11.0615 -0.13885 
0.350973 -0.13885 -13.3 
-11.0171 0.332599 0.225743 
0.332599 -9.14887 -0.680941 
0.225743 -0.680941 -13.7952 
-12.968 -0.435998 0.260283 
-0.435998 -10.7413 -0.560182 
0.260283 -0.560182 -10.2518 
-11.9206 0.499012 -1.54402 
0.499012 -9.809 -0.349362 
-1.54402 -0.349362 -12.2316 
-10.5647 0.25938 0.0779288 
0.25938 -10.6724 -0.152723 
0.0779288 -0.152723 -11.9482 
-11.9077 0.865516 -0.245161 
0.865516 -8.98792 -0.8005 
-0.245161 -0.8005 -12.2897 
-11.5778 -0.705203 0.0724278 
-0.705203 -10.6205 -0.184019 
0.0724278 -0.184019 -10.987 
-11.2672 -0.235387 0.179431 
-0.235387 -10.4479 0.316933 
0.179431 0.316933 -11.4702 
-9.96856 -0.0042023 -0.0952054 
-0.0042023 -9.96737 0.347038 
-0.0952054 0.347038 -10.0119 
-9.98427 0.000617349 -0.113773 
0.000617349 -9.96841 0.341119 
-0.113773 0.341119 -9.99516 
-9.98338 0.00347917 -0.112578 
0.00347917 -9.99631 0.350477 
-0.112578 0.350477 -9.96816 
-9.98828 -0.000135282 -0.105283 
-0.000135282 -9.99044 0.340664 
-0.105283 0.340664 -9.96913 
-9.4561 0.0249411 0.359626 
0.0249411 -9.53594 0.0382932 
0.359626 0.0382932 -9.54653 
-9.4175 0.0590476 0.330071 
0.0590476 -9.55697 0.0366295 
0.330071 0.0366295 -9.5641 
-9.59894 0.0241297 0.31742 
0.0241297 -9.43362 0.0487183 
0.31742 0.0487183 -9.50601 
-9.50009 0.0676743 0.397869 
0.0676743 -9.52903 0.0537177 
0.397869 0.0537177 -9.50945 
-1.97261 1.91668 1.87841 
1.91668 -2.04418 0.440777 
1.87841 0.440777 -7.78178 
-7.30615 -0.33371 1.67487 
-0.33371 -7.1949 0.705187 
1.67487 0.705187 2.70248 
-5.33381 -3.20004 -1.39754 
-3.20004 -10.7427 0.702639 
-1.39754 0.702639 4.27795 
-7.82636 -0.833935 2.28446 
-0.833935 -3.45536 6.4818 
2.28446 6.4818 -0.516848 
-10.1054 -0.0838983 -0.0411976 
-0.0838983 -10.3906 0.0892352 
-0.0411976 0.0892352 -10.4284 
-10.3259 0.230051 -0.0799307 
0.230051 -10.4423 0.104517 
-0.0799307 0.104517 -10.1562 
-10.2406 0.0806779 -0.0623814 
0.0806779 -10.1411 -0.0412259 
-0.0623814 -0.0412259 -10.5426 
-10.3141 0.187866 0.101098 
0.187866 -10.3016 0.180772 
0.101098 0.180772 -10.3087 
-9.99143 -0.00165075 0.00451773 
-0.00165075 -9.98894 -0.0020924 
0.00451773 -0.0020924 -9.96722 
-9.99233 -0.00549792 0.0298143 
-0.00549792 -9.98038 -0.0165514 
0.0298143 -0.0165514 -9.97489 
-9.9931 -0.00655848 0.00527129 
-0.00655848 -9.96978 -0.00894006 
0.00527129 -0.00894006 -9.98472 
-9.95206 0.000242186 -0.0199752 
0.000242186 -9.96532 0.00974933 
-0.0199752 0.00974933 -10.0302 
-14.0927 -1.43743 -2.93877 
-1.43743 -17.2782 1.09559 
-2.93877 1.09559 -9.46428 
-6.39157 -1.56441 -1.67496 
-1.56441 -13.0342 -1.09592 
-1.67496 -1.09592 -21.4094 
-8.15795 -3.08824 -0.518986 
-3.08824 -11.6641 1.63103 
-0.518986 1.63103 -21.0132 
-12.5101 -0.0133438 3.35145 
-0.0133438 -12.9359 -1.49004 
3.35145 -1.49004 -15.3891 
-9.55069 -0.000542294 0.17479 
-0.000542294 -9.53007 -0.285224 
0.17479 -0.285224 -9.54676 
-9.56753 -0.0810847 0.152267 
-0.0810847 -9.40936 -0.268459 
0.152267 -0.268459 -9.65064 
-9.55075 0.048477 0.178517 
0.048477 -9.52461 -0.285975 
0.178517 -0.285975 -9.55216 
-9.52958 0.00478239 0.175581 
0.00478239 -9.53187 -0.361887 
0.175581 -0.361887 -9.56607 
-9.98782 -0.00393436 0.216708 
-0.00393436 -9.97956 -0.276288 
0.216708 -0.276288 -9.97805 
-9.97748 -0.00826212 0.214721 
-0.00826212 -9.97507 -0.279184 
0.214721 -0.279184 -9.99288 
-9.97365 0.00148465 0.225294 
0.00148465 -9.97753 -0.270364 
0.225294 -0.270364 -9.99426 
-9.98582 -0.00273367 0.222064 
-0.00273367 -9.96944 -0.281975 
0.222064 -0.281975 -9.99017 
-10.1226 -0.0216717 -0.0457618 
-0.0216717 -9.83801 0.0150635 
-0.0457618 0.0150635 -10.0457 
-10.0569 -0.0316066 0.0498666 
-0.0316066 -9.98211 0.0687683 
0.0498666 0.0687683 -9.96727 
-10.115 0.00664297 0.0784243 
0.00664297 -10.024 0.089439 
0.0784243 0.089439 -9.8673 
-9.93214 -0.0153433 0.0559971 
-0.0153433 -10.0904 0.0548076 
0.0559971 0.0548076 -9.98374 
-9.99672 0.00203046 -0.349091 
0.00203046 -9.98826 -0.0431674 
-0.349091 -0.0431674 -9.96513 
-9.97365 -0.000854374 -0.345216 
-0.000854374 -9.96972 -0.0227422 
-0.345216 -0.0227422 -10.0067 
-9.96541 -0.00501826 -0.343686 
-0.00501826 -9.99908 -0.0361581 
-0.343686 -0.0361581 -9.98562 
-9.98873 -0.00174113 -0.338802 
-0.00174113 -9.99225 -0.0320862 
-0.338802 -0.0320862 -9.96914 
-9.98091 -0.00332146 -0.228891 
-0.00332146 -9.98426 0.279494 
-0.228891 0.279494 -9.98378 
-9.97751 -0.00409022 -0.231684 
-0.00409022 -9.97593 0.272141 
-0.231684 0.272141 -9.99552 
-9.97477 -0.00536097 -0.219793 
-0.00536097 -9.97722 0.281953 
-0.219793 0.281953 -9.99697 
-9.9863 -0.00127299 -0.227507 
-0.00127299 -9.98736 0.278023 
-0.227507 0.278023 -9.9753 
-9.92178 -0.487349 0.310637 
-0.487349 -9.95489 -0.259762 
0.310637 -0.259762 -12.5271 
-10.7168 2.14759 -0.649604 
2.14759 -11.6691 0.620779 
-0.649604 0.620779 -10.0179 
-10.9835 0.29864 -0.0822248 
0.29864 -9.11249 -0.921519 
-0.0822248 -0.921519 -12.3078 
-12.1831 0.843802 0.576985 
0.843802 -10.0535 -0.201027 
0.576985 -0.201027 -10.1672 
-11.3792 -0.926112 -0.769219 
-0.926112 -10.2731 0.303619 
-0.769219 0.303619 -12.7481 
-9.4391 0.263773 0.395513 
0.263773 -12.5681 -0.123625 
0.395513 -0.123625 -12.3931 
-11.3892 -0.255852 0.176511 
-0.255852 -9.65446 -0.197807 
0.176511 -0.197807 -13.3567 
-11.2785 -0.324888 0.521559 
-0.324888 -11.3788 -0.403303 
0.521559 -0.403303 -11.743 
-9.96797 0.00162936 0.343882 
0.00162936 -9.97052 0.0970256 
0.343882 0.0970256 -9.99802 
-9.96506 0.00131229 0.338372 
0.00131229 -9.97664 0.115127 
0.338372 0.115127 -9.99481 
-9.98422 -0.00022649 0.343716 
-0.00022649 -9.98127 0.108424 
0.343716 0.108424 -9.97103 
-9.97964 0.00401695 0.343099 
0.00401695 -9.97865 0.108629 
0.343099 0.108629 -9.97823 
-9.99179 -0.00252586 -0.0550067 
-0.00252586 -9.99947 0.356279 
-0.0550067 0.356279 -9.96106 
-9.96719 -0.000681638 -0.0263925 
-0.000681638 -9.96565 0.352606 
-0.0263925 0.352606 -10.0195 
-10.0021 0.00243447 -0.037984 
0.00243447 -9.97014 0.350857 
-0.037984 0.350857 -9.98009 
-9.99501 0.00243148 -0.0366426 
0.00243148 -9.98828 0.345186 
-0.0366426 0.345186 -9.96904 
-7.21707 -3.79211 -0.0850116 
-3.79211 -11.1431 -1.0278 
-0.0850116 -1.0278 -20.0151 
-10.0801 -1.605 0.688223 
-1.605 -13.2205 -0.138365 
0.688223 -0.138365 -15.0746 
-5.41698 -2.2322 0.741497 
-2.2322 -13.1409 0.965012 
0.741497 0.965012 -19.8174 
-11.9454 -0.416579 -1.55611 
-0.416579 -12.2971 0.944306 
-1.55611 0.944306 -14.1328 
-13.2128 0.785574 -0.214481 
0.785574 -12.2392 -0.0448909 
-0.214481 -0.0448909 -12.269 
-13.2253 -1.93486 0.705285 
-1.93486 -9.59186 -1.47811 
0.705285 -1.47811 -14.9039 
-10.8428 -0.332887 -0.396559 
-0.332887 -12.2024 0.119934 
-0.396559 0.119934 -14.6758 
-12.9477 0.152585 0.505098 
0.152585 -11.3988 0.371848 
0.505098 0.371848 -13.3745 
-9.91588 -0.0156818 0.0495354 
-0.0156818 -9.97507 0.00126565 
0.0495354 0.00126565 -9.91893 
-9.92832 -0.0219216 0.0125846 
-0.0219216 -9.97082 0.0149676 
0.0125846 0.0149676 -9.91074 
-9.93761 -0.0139072 0.016819 
-0.0139072 -9.92506 0.00466935 
0.016819 0.00466935 -9.94721 
-9.8985 0.0108381 -0.00749774 
0.0108381 -9.94215 -0.00264591 
-0.00749774 -0.00264591 -9.96923 
-9.74783 -0.0415169 -0.010381 
-0.0415169 -9.7839 -0.00847685 
-0.010381 -0.00847685 -9.77846 
-9.76822 -0.0387036 -0.0265201 
-0.0387036 -9.71639 -0.00614825 
-0.0265201 -0.00614825 -9.82557 
-9.76595 0.0161014 -0.0311698 
0.0161014 -9.84027 -0.0115419 
-0.0311698 -0.0115419 -9.70397 
-9.69417 -0.0963771 -0.0393533 
-0.0963771 -9.83236 -0.0052867 
-0.0393533 -0.0052867 -9.78366 
-9.99247 -0.00707774 0.224604 
-0.00707774 -9.99358 0.280646 
0.224604 0.280646 -9.95899 
-9.97667 0.00949037 0.23348 
0.00949037 -9.96342 0.262385 
0.23348 0.262385 -10.005 
-9.97249 0.0153443 0.214633 
0.0153443 -9.97844 0.277609 
0.214633 0.277609 -9.99412 
-9.99321 0.0032051 0.21927 
0.0032051 -9.98966 0.268056 
0.21927 0.268056 -9.96217 
-10.9708 -0.063554 -0.10531 
-0.063554 -10.8291 -0.0247807 
-0.10531 -0.0247807 -11.0132 
-10.9506 -0.24138 0.0129645 
-0.24138 -10.9031 0.0134721 
0.0129645 0.0134721 -10.9594 
-10.6958 -0.0908971 0.178793 
-0.0908971 -10.346 -0.125758 
0.178793 -0.125758 -11.7713 
-11.0126 0.0277162 -0.336504 
0.0277162 -10.8848 -0.289673 
-0.336504 -0.289673 -10.9157 
-9.89999 0.00809712 0.0201403 
0.00809712 -9.93518 0.0335006 
0.0201403 0.0335006 -9.99047 
-9.90239 0.022464 0.00365183 
0.022464 -9.88945 -0.00603493 
0.00365183 -0.00603493 -10.0338 
-9.99121 0.0334964 -0.000999303 
0.0334964 -9.97548 -0.0013573 
-0.000999303 -0.0013573 -9.85895 
-9.93991 0.0546228 -0.0433082 
0.0546228 -9.94933 0.0500168 
-0.0433082 0.0500168 -9.93639 
-9.99192 0.00837736 0.0280065 
0.00837736 -9.98359 -0.343575 
0.0280065 -0.343575 -9.96578 
-9.99272 0.00410959 0.0359197 
0.00410959 -9.96704 -0.348235 
0.0359197 -0.348235 -9.98154 
-9.9694 -0.00531653 0.0199912 
-0.00531653 -9.95408 -0.350498 
0.0199912 -0.350498 -10.0178 
-9.98701 0.0010279 0.0475466 
0.0010279 -9.99853 -0.355626 
0.0475466 -0.355626 -9.95576 
-9.99007 -0.00482774 0.315531 
-0.00482774 -9.97921 -0.170087 
0.315531 -0.170087 -9.97272 
-9.97283 0.0010841 0.320151 
0.0010841 -9.97168 -0.160777 
0.320151 -0.160777 -9.99748 
-9.9585 -0.00524214 0.310799 
-0.00524214 -9.98036 -0.178806 
0.310799 -0.178806 -10.0031 
-9.99078 0.00211501 0.321353 
0.00211501 -9.98346 -0.174119 
0.321353 -0.174119 -9.96775 
-10.1714 0.0224886 -0.0358193 
0.0224886 -10.0497 0.00602256 
-0.0358193 0.00602256 -10.036 
-10.1292 -0.00112794 -0.0104617 
-0.00112794 -10.0753 0.0173689 
-0.0104617 0.0173689 -10.0526 
-10.0394 0.0228255 -0.0137636 
0.0228255 -10.0756 0.0295652 
-0.0137636 0.0295652 -10.142 
-10.1313 -0.0144118 0.0113084 
-0.0144118 -10.0647 0.00898087 
0.0113084 0.00898087 -10.0612 
-7.12771 -0.29948 -0.570608 
-0.29948 -7.45864 0.527095 
-0.570608 0.527095 4.80488 
-2.09973 2.02933 0.0339514 
2.02933 -1.6261 1.1958 
0.0339514 1.1958 -6.05563 
-9.92924 -3.3481 -0.234432 
-3.3481 -3.72938 -1.84843 
-0.234432 -1.84843 3.87716 
-3.11721 -0.685027 5.37837 
-0.685027 -6.68593 0.450913 
5.37837 0.450913 0.0216774 
-9.52852 0.137625 -0.176436 
0.137625 -9.49153 -0.13942 
-0.176436 -0.13942 -9.74415 
-9.5333 0.127362 -0.0757542 
0.127362 -9.5099 -0.163489 
-0.0757542 -0.163489 -9.72101 
-9.36137 0.131878 -0.125934 
0.131878 -9.50564 -0.0999929 
-0.125934 -0.0999929 -9.8972 
-9.45729 0.171266 -0.1146 
0.171266 -9.52329 -0.113496 
-0.1146 -0.113496 -9.78362 
-10.5184 0.495698 -0.08137 
0.495698 -10.736 -0.529051 
-0.08137 -0.529051 -10.9585 
-10.0531 0.891601 -0.395439 
0.891601 -9.70942 -0.675316 
-0.395439 -0.675316 -12.4505 
-11.7183 0.222343 0.369545 
0.222343 -9.7212 -0.218173 
0.369545 -0.218173 -10.7735 
-11.0908 0.832338 -0.0603238 
0.832338 -10.1886 0.198568 
-0.0603238 0.198568 -10.9336 
-11.5081 -0.640892 -0.461803 
-0.640892 -12.3292 0.066241 
-0.461803 0.066241 -11.8056 
-10.1013 0.76745 -1.07983 
0.76745 -12.4247 -0.0601117 
-1.07983 -0.0601117 -13.1168 
-11.1289 0.375541 -0.28 
0.375541 -11.2928 0.183214 
-0.28 0.183214 -13.2212 
-11.2421 -0.0418924 -0.0585052 
-0.0418924 -12.178 -0.181262 
-0.0585052 -0.181262 -12.2229 
-9.98877 0.000276032 0.181452 
0.000276032 -9.99411 0.313065 
0.181452 0.313065 -9.96751 
-9.99348 0.00655459 0.175481 
0.00655459 -9.97326 0.310317 
0.175481 0.310317 -9.98364 
-9.97282 0.00394081 0.157916 
0.00394081 -9.96871 0.320266 
0.157916 0.320266 -10.0089 
-9.99092 0.00341461 0.172517 
0.00341461 -9.98653 0.312334 
0.172517 0.312334 -9.97293 
-10.0034 0.0152179 -0.276496 
0.0152179 -9.99847 0.229615 
-0.276496 0.229615 -9.95382 
-9.97125 -0.0137821 -0.261602 
-0.0137821 -9.98992 0.228103 
-0.261602 0.228103 -9.99452 
-9.98048 -0.0197979 -0.276741 
-0.0197979 -9.97422 0.210036 
-0.276741 0.210036 -10.001 
-9.99802 -0.00409599 -0.255693 
-0.00409599 -10.0051 0.208009 
-0.255693 0.208009 -9.95261 
-9.97203 -0.0158775 0.262631 
-0.0158775 -9.98874 -0.228705 
0.262631 -0.228705 -10.0002 
-9.9876 -0.0109159 0.276964 
-0.0109159 -9.98387 -0.210578 
0.276964 -0.210578 -9.98954 
-10.0033 0.00777008 0.279255 
0.00777008 -9.99868 -0.222507 
0.279255 -0.222507 -9.95899 
-10.0004 -0.00588268 0.262746 
-0.00588268 -10.002 -0.210841 
0.262746 -0.210841 -9.95861 
-10.6365 0.661208 -0.287294 
0.661208 -12.3894 0.0769777 
-0.287294 0.0769777 -10.2475 
-11.1833 1.17622 -0.401402 
1.17622 -9.37208 -0.823946 
-0.401402 -0.823946 -12.718 
-10.6305 -0.278098 -0.0435477 
-0.278098 -10.0453 0.0189969 
-0.0435477 0.0189969 -12.5975 
-10.7536 0.752981 0.669522 
0.752981 -11.0082 -0.175383 
0.669522 -0.175383 -11.5115 
-10.0342 -0.0062916 0.00191468 
-0.0062916 -10.0155 0.00488402 
0.00191468 0.00488402 -10.0105 
-10.0279 0.00660349 0.0150674 
0.00660349 -9.99876 -0.00403361 
0.0150674 -0.00403361 -10.0335 
-10.0048 0.0115048 -0.0139282 
0.0115048 -10.0058 0.00497536 
-0.0139282 0.00497536 -10.0495 
-10.0219 0.00209989 0.0179925 
0.00209989 -10.0466 0.00905574 
0.0179925 0.00905574 -9.9917 
-10.003 -0.001791 -0.156872 
-0.001791 -9.99063 0.309162 
-0.156872 0.309162 -9.96432 
-9.98625 -0.00454285 -0.173783 
-0.00454285 -9.97144 0.306974 
-0.173783 0.306974 -10.0003 
-9.98746 -0.0146315 -0.153747 
-0.0146315 -9.97907 0.317551 
-0.153747 0.317551 -9.99145 
-9.99703 0.00618428 -0.161521 
0.00618428 -9.99797 0.322053 
-0.161521 0.322053 -9.96299 
-9.76284 0.00153082 -0.020774 
0.00153082 -9.75102 -0.00172819 
-0.020774 -0.00172819 -9.77327 
-9.74483 -0.0330632 -0.0233484 
-0.0330632 -9.77325 -0.00226258 
-0.0233484 -0.00226258 -9.76907 
-9.73159 -0.0144191 -0.0314678 
-0.0144191 -9.81178 0.0100831 
-0.0314678 0.0100831 -9.74377 
-9.76853 -0.0204249 -0.00884651 
-0.0204249 -9.82696 -0.0464949 
-0.00884651 -0.0464949 -9.69165 
-9.86059 -0.0162737 0.0761976 
-0.0162737 -9.9662 -0.0228359 
0.0761976 -0.0228359 -9.82544 
-9.90242 -0.0433778 0.0230887 
-0.0433778 -9.9722 0.0579673 
0.0230887 0.0579673 -9.77761 
-9.89203 0.00633534 0.0277041 
0.00633534 -9.88302 0.00283272 
0.0277041 0.00283272 -9.87719 
-9.85797 -0.0763865 0.00889741 
-0.0763865 -9.80171 -0.00211055 
0.00889741 -0.00211055 -9.99255 
-9.97624 -0.00585244 -0.332184 
-0.00585244 -9.98213 0.0963054 
-0.332184 0.0963054 -9.98939 
-9.95651 -0.00286255 -0.326462 
-0.00286255 -9.98301 0.117082 
-0.326462 0.117082 -10.0082 
-9.99266 -0.00613478 -0.324461 
-0.00613478 -9.98938 0.103205 
-0.324461 0.103205 -9.96572 
-9.99774 0.00439055 -0.338974 
0.00439055 -9.98538 0.100195 
-0.338974 0.100195 -9.96464 
-10.1291 -0.0615892 -0.0445605 
-0.0615892 -10.1298 -0.0216865 
-0.0445605 -0.0216865 -10.0457 
-10.1032 0.0721406 -0.0145098 
0.0721406 -10.041 0.0144698 
-0.0145098 0.0144698 -10.1605 
-10.0924 -0.0367765 0.0135319 
-0.0367765 -10.1971 0.0368114 
0.0135319 0.0368114 -10.0152 
-10.0341 -0.0123662 0.0194443 
-0.0123662 -10.0823 -0.0262631 
0.0194443 -0.0262631 -10.1882 
-10.014 -0.0173584 -0.00748762 
-0.0173584 -10.0309 -0.0120428 
-0.00748762 -0.0120428 -10.0626 
-10.0464 0.0276035 -0.00077921 
0.0276035 -10.0239 -0.00235827 
-0.00077921 -0.00235827 -10.0372 
-10.0408 0.0292635 -0.0126207 
0.0292635 -10.0427 0.00301925 
-0.0126207 0.00301925 -10.0239 
-10.041 0.0295185 0.0178845 
0.0295185 -10.0769 -0.0249516 
0.0178845 -0.0249516 -9.98961 
-9.99863 0.00747767 -0.0144786 
0.00747767 -9.98726 -0.0301715 
-0.0144786 -0.0301715 -10.0953 
-10.0321 -0.0107572 0.0125268 
-0.0107572 -10.0274 0.0050215 
0.0125268 0.0050215 -10.0217 
-10.0297 0.0198556 0.0334099 
0.0198556 -10.0521 0.0302629 
0.0334099 0.0302629 -9.99933 
-10.0231 -0.0262583 0.00455883 
-0.0262583 -10.0485 0.00843816 
0.00455883 0.00843816 -10.0096 
-9.23687 3.33272 1.51205 
3.33272 -5.07123 -1.09284 
1.51205 -1.09284 -21.4919 
-14.6862 0.584503 0.894907 
0.584503 -9.61989 1.83582 
0.894907 1.83582 -11.4939 
-12.6416 1.51931 -0.169707 
1.51931 -6.01741 0.0194946 
-0.169707 0.0194946 -17.1409 
-11.3645 0.360502 -1.61726 
0.360502 -10.5383 -1.5183 
-1.61726 -1.5183 -13.8972 
-9.93693 -0.00727299 -0.0148132 
-0.00727299 -10.0317 -0.0307433 
-0.0148132 -0.0307433 -9.99304 
-10.0232 -0.0918615 0.0178701 
-0.0918615 -10.0363 0.0209161 
0.0178701 0.0209161 -9.90213 
-9.95298 0.0226114 -0.0153311 
0.0226114 -9.9977 -0.0182596 
-0.0153311 -0.0182596 -10.0109 
-9.82328 0.0250846 -0.0616201 
0.0250846 -10.1284 -0.0482194 
-0.0616201 -0.0482194 -10.01 
-10.4379 0.0676237 -0.110684 
0.0676237 -10.3342 0.0761392 
-0.110684 0.0761392 -10.0684 
-10.3112 0.0148998 0.0111646 
0.0148998 -10.1916 0.0121827 
0.0111646 0.0121827 -10.3377 
-10.3338 0.114578 0.059962 
0.114578 -10.2637 -0.00127419 
0.059962 -0.00127419 -10.243 
-10.1326 -0.0195995 -0.0157182 
-0.0195995 -10.2761 -0.0253305 
-0.0157182 -0.0253305 -10.4318 
-9.89671 0.0384027 -0.00384266 
0.0384027 -9.9069 0.00945239 
-0.00384266 0.00945239 -10.1038 
-10.0013 0.0288884 0.0137247 
0.0288884 -9.96652 -0.0926837 
0.0137247 -0.0926837 -9.93956 
-9.94825 -0.0234128 0.00142723 
-0.0234128 -9.96515 -0.020147 
0.00142723 -0.020147 -9.99401 
-10.0357 -0.0323962 0.0480644 
-0.0323962 -9.95941 0.00184069 
0.0480644 0.00184069 -9.91233 
-10.0011 -0.00440519 0.16071 
-0.00440519 -10.0049 -0.295265 
0.16071 -0.295265 -9.95848 
-9.99685 -0.00850453 0.174962 
-0.00850453 -9.96649 -0.299667 
0.174962 -0.299667 -10.0011 
-9.98196 -0.0143143 0.152255 
-0.0143143 -9.98001 -0.311784 
0.152255 -0.311784 -10.0025 
-9.99477 0.00906144 0.168116 
0.00906144 -10.0102 -0.315588 
0.168116 -0.315588 -9.95954 
-9.89109 -0.027844 0.0044165 
-0.027844 -9.87569 0.0167828 
0.0044165 0.0167828 -10.0878 
-10.0108 0.0162598 -0.0417997 
0.0162598 -9.95557 -0.00511799 
-0.0417997 -0.00511799 -9.88823 
-9.93055 0.0134909 -0.00159964 
0.0134909 -9.96635 -0.0195932 
-0.00159964 -0.0195932 -9.95769 
-10.0124 -0.0153997 0.0120523 
-0.0153997 -9.93436 -0.0577792 
0.0120523 -0.0577792 -9.90787 
-9.9961 -0.00160568 0.361743 
-0.00160568 -9.98645 -0.0471288 
0.361743 -0.0471288 -9.95806 
-9.96696 0.0050339 0.355145 
0.0050339 -9.99281 -0.0367434 
0.355145 -0.0367434 -9.98085 
-9.96001 -0.00208099 0.357468 
-0.00208099 -9.96505 -0.0195322 
0.357468 -0.0195322 -10.0156 
-9.9857 0.00407562 0.351681 
0.00407562 -9.98927 -0.0308262 
0.351681 -0.0308262 -9.96565 
-9.98881 -0.0555145 0.0296126 
-0.0555145 -9.98597 -0.00297736 
0.0296126 -0.00297736 -9.99197 
-9.94957 0.115008 -0.0117127 
0.115008 -9.83885 0.00566993 
-0.0117127 0.00566993 -10.1783 
-10.0516 0.0571041 -0.0153753 
0.0571041 -10.2071 -0.13835 
-0.0153753 -0.13835 -9.70803 
-9.9662 0.00591643 0.181593 
0.00591643 -10.1891 0.0686611 
0.181593 0.0686611 -9.81149 
-10.1187 0.0127052 -0.0416099 
0.0127052 -9.91363 0.027949 
-0.0416099 0.027949 -9.88781 
-9.82942 -0.125813 -0.00358025 
-0.125813 -10.0093 0.00176515 
-0.00358025 0.00176515 -10.0814 
-9.92071 0.0408689 0.0042285 
0.0408689 -9.95853 0.0584416 
0.0042285 0.0584416 -10.0409 
-10.1322 -0.0527202 0.106568 
-0.0527202 -10.0105 -0.00261558 
0.106568 -0.00261558 -9.77741 
-6.92595 -0.708703 -2.71301 
-0.708703 -10.0242 -1.40886 
-2.71301 -1.40886 3.6457 
-8.88048 -1.10408 0.908279 
-1.10408 -9.63075 -2.80154 
0.908279 -2.80154 5.20679 
-0.355318 -0.989425 0.371677 
-0.989425 -0.344604 0.0397442 
0.371677 0.0397442 -12.6045 
-6.7891 1.69285 -4.58572 
1.69285 -3.69898 -10.0533 
-4.58572 -10.0533 -2.81637 
0.699813 0.54327 2.92341 
0.54327 2.14164 -0.305467 
2.92341 -0.305467 -15.4993 
-12.6054 0.792499 -1.01449 
0.792499 -7.64583 4.27654 
-1.01449 4.27654 7.59335 
-10.9241 2.80265 -3.02371 
2.80265 -9.45167 -0.591005 
-3.02371 -0.591005 7.71792 
-1.77457 -2.9413 -11.5302 
-2.9413 -7.37328 5.54534 
-11.5302 5.54534 -3.51001 
-10.1207 -0.052689 0.1008 
-0.052689 -10.1468 -0.10004 
0.1008 -0.10004 -10.1005 
-9.95131 0.0991827 -0.00506523 
0.0991827 -10.1466 0.0142329 
-0.00506523 0.0142329 -10.2701 
-10.144 -0.0428597 0.00830167 
-0.0428597 -10.0936 -0.0109591 
0.00830167 -0.0109591 -10.1304 
-10.2265 -0.0445796 -0.0589903 
-0.0445796 -10.1435 -0.056375 
-0.0589903 -0.056375 -9.99794 
-10.0131 0.00180329 -0.00809762 
0.00180329 -9.96093 0.00199874 
-0.00809762 0.00199874 -9.99283 
-9.99031 0.0169048 -0.0088917 
0.0169048 -10.0184 0.014685 
-0.0088917 0.014685 -9.95819 
-9.9795 -0.00529281 -0.0343241 
-0.00529281 -10.0299 -0.00974391 
-0.0343241 -0.00974391 -9.95752 
-9.95278 -0.00389824 0.0285846 
-0.00389824 -9.96605 -0.00997099 
0.0285846 -0.00997099 -10.0481 
-10.1142 0.0172704 0.0139933 
0.0172704 -9.99461 0.0303599 
0.0139933 0.0303599 -10.0371 
-9.99826 -0.0193905 -0.000482379 
-0.0193905 -10.0675 0.0156502 
-0.000482379 0.0156502 -10.0802 
-10.0804 0.0225696 -0.00184165 
0.0225696 -9.98745 0.0191175 
-0.00184165 0.0191175 -10.0781 
-10.1905 0.220272 -0.0707119 
0.220272 -10.0543 0.0599019 
-0.0707119 0.0599019 -9.90108 
-9.98009 -0.00559452 0.33663 
-0.00559452 -9.98354 -0.0994701 
0.33663 -0.0994701 -9.98869 
-9.96229 -0.00383948 0.331296 
-0.00383948 -9.98426 -0.118813 
0.331296 -0.118813 -10.0058 
-9.98956 -0.00570847 0.333819 
-0.00570847 -9.99 -0.106612 
0.333819 -0.106612 -9.97275 
-9.99555 2.05249e-05 0.341157 
2.05249e-05 -9.98818 -0.103739 
0.341157 -0.103739 -9.96858 
-10.0075 0.00993266 -0.0978846 
0.00993266 -10.0943 0.00206087 
-0.0978846 0.00206087 -9.95188 
-10.0142 0.0923883 0.0229805 
0.0923883 -9.85691 -0.00733675 
0.0229805 -0.00733675 -10.1825 
-9.99849 -0.0483212 -0.0265167 
-0.0483212 -9.99904 0.00190517 
-0.0265167 0.00190517 -10.0561 
-10.0402 0.0484472 3.40568e-05 
0.0484472 -10.1532 0.0948821 
3.40568e-05 0.0948821 -9.86025 
-9.99109 -0.000591261 -0.334273 
-0.000591261 -9.99074 -0.0983819 
-0.334273 -0.0983819 -9.97227 
-9.98147 0.00369032 -0.33031 
0.00369032 -9.9865 -0.0979935 
-0.33031 -0.0979935 -9.98612 
-9.96458 0.00201746 -0.325529 
0.00201746 -9.9822 -0.115666 
-0.325529 -0.115666 -10.0073 
-9.98692 0.00581287 -0.330772 
0.00581287 -9.98812 -0.10421 
-0.330772 -0.10421 -9.97906 
-9.99179 -0.00545893 -0.0322055 
-0.00545893 -9.98593 -0.346326 
-0.0322055 -0.346326 -9.97215 
-9.97009 0.00324408 -0.0229252 
0.00324408 -9.96325 -0.350051 
-0.0229252 -0.350051 -10.0165 
-9.9952 -0.00325415 -0.0375248 
-0.00325415 -9.97198 -0.348015 
-0.0375248 -0.348015 -9.98269 
-9.9909 0.00267039 -0.0486786 
0.00267039 -9.99686 -0.353597 
-0.0486786 -0.353597 -9.96211 
-9.9836 0.000239707 0.0548362 
0.000239707 -9.98145 0.289118 
0.0548362 0.289118 -9.98796 
-9.98945 0.000683205 0.0534386 
0.000683205 -9.98255 0.297677 
0.0534386 0.297677 -9.981 
-9.97707 0.00290344 0.0385447 
0.00290344 -9.97573 0.298268 
0.0385447 0.298268 -10.0002 
-9.99066 -0.00128113 0.0565919 
-0.00128113 -9.99169 0.29581 
0.0565919 0.29581 -9.97066 
-9.98962 0.00421904 -0.262411 
0.00421904 -9.998 -0.222719 
-0.262411 -0.222719 -9.97236 
-9.9881 0.00518944 -0.260741 
0.00518944 -9.99199 -0.226641 
-0.260741 -0.226641 -9.97989 
-9.9767 0.011016 -0.273928 
0.011016 -9.97464 -0.211903 
-0.273928 -0.211903 -10.0086 
-9.99751 -0.000533488 -0.261139 
-0.000533488 -9.99308 -0.234262 
-0.261139 -0.234262 -9.96939 
-9.98957 -0.00669514 0.0368502 
-0.00669514 -9.97996 0.361556 
0.0368502 0.361556 -9.97918 
-9.96996 -2.43331e-05 0.0255639 
-2.43331e-05 -9.96209 0.361437 
0.0255639 0.361437 -10.0166 
-9.99291 -0.00278583 0.0386657 
-0.00278583 -9.97784 0.359394 
0.0386657 0.359394 -9.97796 
-9.99251 0.00222501 0.0496996 
0.00222501 -9.98975 0.362672 
0.0496996 0.362672 -9.96644 
-10.0791 0.0381111 -0.0365911 
0.0381111 -9.88645 0.0237382 
-0.0365911 0.0237382 -10.2046 
-10.1005 -0.129157 0.0141671 
-0.129157 -10.1251 -0.101091 
0.0141671 -0.101091 -9.94461 
-10.0005 0.0608766 0.00644189 
0.0608766 -10.1292 -0.00580326 
0.00644189 -0.00580326 -10.0405 
-10.0985 -0.0406304 0.0755267 
-0.0406304 -10.2323 0.0909649 
0.0755267 0.0909649 -9.83938 
-9.99495 -0.000506908 -0.151978 
-0.000506908 -9.99235 -0.317092 
-0.151978 -0.317092 -9.96941 
-9.97931 0.00745031 -0.176727 
0.00745031 -9.96618 -0.300055 
-0.176727 -0.300055 -10.0112 
-9.99174 0.00353474 -0.157896 
0.00353474 -9.98947 -0.308929 
-0.157896 -0.308929 -9.9755 
-9.98938 0.00772856 -0.161061 
0.00772856 -9.99425 -0.307428 
-0.161061 -0.307428 -9.97308 
-9.97367 0.0191804 -0.00960434 
0.0191804 -9.97254 0.0158294 
-0.00960434 0.0158294 -10.0149 
-10.0355 0.0255684 0.0170679 
0.0255684 -9.97685 -0.0127646 
0.0170679 -0.0127646 -9.94881 
-10.0281 -0.02873 -0.0349777 
-0.02873 -9.99617 -0.00314544 
-0.0349777 -0.00314544 -9.93689 
-9.98159 0.00157181 0.00994732 
0.00157181 -9.98626 -0.0190551 
0.00994732 -0.0190551 -9.99327 
-9.77939 0.194169 -0.11725 
0.194169 -9.49885 -0.0421722 
-0.11725 -0.0421722 -8.84484 
-10.0714 0.540014 -0.391701 
0.540014 -9.58952 -0.130052 
-0.391701 -0.130052 -8.46212 
-9.73813 -0.0284303 -0.0271631 
-0.0284303 -9.30852 -0.286659 
-0.0271631 -0.286659 -9.07643 
-9.44155 0.117627 -0.0474328 
0.117627 -9.54493 0.121158 
-0.0474328 0.121158 -9.1366 
-10.2116 -0.122727 0.0748458 
-0.122727 -9.41204 -0.258526 
0.0748458 -0.258526 -8.96429 
-10.0029 -0.209227 -0.138299 
-0.209227 -9.54844 -0.371202 
-0.138299 -0.371202 -9.03657 
-10.2832 0.077821 -0.0914176 
0.077821 -9.85649 0.16865 
-0.0914176 0.16865 -8.44828 
-9.83493 0.256994 -0.0687427 
0.256994 -10.3885 -0.495731 
-0.0687427 -0.495731 -8.36448 
-9.97152 -0.00301966 -0.270118 
-0.00301966 -9.96735 0.0905463 
-0.270118 0.0905463 -9.94698 
-9.95653 -0.00850012 -0.262774 
-0.00850012 -9.96907 0.094207 
-0.262774 0.094207 -9.96024 
-9.96893 -0.0138303 -0.255482 
-0.0138303 -9.95949 0.0923965 
-0.255482 0.0923965 -9.95742 
-9.92285 0.00209601 -0.260642 
0.00209601 -9.93938 0.0696773 
-0.260642 0.0696773 -10.0236 
-9.92217 0.00783365 -0.258363 
0.00783365 -9.91276 0.0838014 
-0.258363 0.0838014 -9.9102 
-9.89297 -0.0198007 -0.249666 
-0.0198007 -9.89721 0.0978317 
-0.249666 0.0978317 -9.95495 
-9.93576 0.0213806 -0.261401 
0.0213806 -9.90371 0.0920578 
-0.261401 0.0920578 -9.90566 
-9.92629 -0.0218769 -0.238779 
-0.0218769 -9.93391 0.0937158 
-0.238779 0.0937158 -9.88492 
-10.817 -0.687315 0.314634 
-0.687315 -10.5392 0.130724 
0.314634 0.130724 -10.9999 
-10.8371 0.161148 0.0441298 
0.161148 -9.87486 -0.238762 
0.0441298 -0.238762 -11.6442 
-10.842 0.0527863 0.256505 
0.0527863 -9.70762 -0.331973 
0.256505 -0.331973 -11.8065 
-10.6008 -0.147808 -0.223804 
-0.147808 -9.7186 -0.587651 
-0.223804 -0.587651 -12.0368 
-9.75701 0.331724 -0.096028 
0.331724 -9.63541 -0.128574 
-0.096028 -0.128574 -11.1596 
-10.038 -0.0408153 -0.211854 
-0.0408153 -9.42803 -0.122987 
-0.211854 -0.122987 -11.086 
-9.45415 0.573627 0.181701 
0.573627 -9.50897 -0.386859 
0.181701 -0.386859 -11.5889 
-10.0205 0.415138 -0.32218 
0.415138 -9.9147 0.0691934 
-0.32218 0.0691934 -10.6168 
-9.85372 -0.0034715 -0.269554 
-0.0034715 -9.85049 -0.0478316 
-0.269554 -0.0478316 -9.75356 
-9.82978 0.0193475 -0.301271 
0.0193475 -9.84446 0.0016824 
-0.301271 0.0016824 -9.78352 
-9.78787 0.00841904 -0.328792 
0.00841904 -9.78728 4.94201e-05 
-0.328792 4.94201e-05 -9.88262 
-9.84277 0.0140419 -0.31022 
0.0140419 -9.83602 -0.00689143 
-0.31022 -0.00689143 -9.77897 
-9.80111 0.0204717 -0.263765 
0.0204717 -9.79298 -0.0413734 
-0.263765 -0.0413734 -9.73465 
-9.79915 -0.0217964 -0.298106 
-0.0217964 -9.7348 -0.00321507 
-0.298106 -0.00321507 -9.79479 
-9.77919 0.0353843 -0.275427 
0.0353843 -9.80412 -0.00825061 
-0.275427 -0.00825061 -9.74542 
-9.82242 0.0710488 -0.242834 
0.0710488 -9.77469 -0.0980548 
-0.242834 -0.0980548 -9.73162 
-10.9497 -0.203974 1.06634 
-0.203974 -9.75191 -1.84121 
1.06634 -1.84121 -14.9244 
-10.4784 0.509978 -0.499398 
0.509978 -10.6151 0.771828 
-0.499398 0.771828 -14.5325 
-11.3167 1.02768 -0.74742 
1.02768 -9.96459 -0.0462954 
-0.74742 -0.0462954 -14.3448 
-12.3841 0.602504 0.163082 
0.602504 -14.3695 -1.3469 
0.163082 -1.3469 -8.87241 
-10.2563 0.52659 0.452051 
0.52659 -10.9377 0.264075 
0.452051 0.264075 -12.1958 
-10.4517 1.61312 -0.943199 
1.61312 -10.3774 0.179335 
-0.943199 0.179335 -12.5606 
-11.1513 -0.367836 -0.11873 
-0.367836 -10.6858 -0.179465 
-0.11873 -0.179465 -11.5527 
-10.678 0.334805 0.209347 
0.334805 -10.3634 -0.0507622 
0.209347 -0.0507622 -12.3484 
-9.3999 0.85139 1.00011 
0.85139 -9.98609 1.18234 
1.00011 1.18234 -9.24025 
-9.6682 -0.0360583 0.352879 
-0.0360583 -9.33598 0.384038 
0.352879 0.384038 -9.62207 
-9.66989 0.284413 0.341996 
0.284413 -9.02507 0.397927 
0.341996 0.397927 -9.93128 
-9.44993 0.167319 0.41969 
0.167319 -9.23418 0.472426 
0.41969 0.472426 -9.94213 
-9.7055 -0.122245 0.410889 
-0.122245 -9.11432 0.540849 
0.410889 0.540849 -9.41647 
-9.4823 0.0301659 0.522533 
0.0301659 -9.1992 0.278111 
0.522533 0.278111 -9.55479 
-9.49769 0.0794866 0.542392 
0.0794866 -9.23683 0.288473 
0.542392 0.288473 -9.50177 
-9.37424 -0.213487 0.404225 
-0.213487 -9.42935 0.332965 
0.404225 0.332965 -9.4327 
-9.55002 -0.196805 0.427746 
-0.196805 -9.14922 0.0447284 
0.427746 0.0447284 -9.43339 
-9.50806 0.196486 0.515518 
0.196486 -8.82109 0.378849 
0.515518 0.378849 -9.80349 
-9.21705 -0.0439749 0.495018 
-0.0439749 -9.21907 0.3826 
0.495018 0.3826 -9.69652 
-9.15646 -0.0342476 0.475192 
-0.0342476 -8.86223 0.439167 
0.475192 0.439167 -10.114 
-9.48686 0.0264182 0.523764 
0.0264182 -9.24553 0.22291 
0.523764 0.22291 -9.74448 
-9.53924 -0.131885 0.441496 
-0.131885 -9.17357 0.141288 
0.441496 0.141288 -9.76407 
-9.42447 -0.225532 0.577441 
-0.225532 -9.31606 0.165779 
0.577441 0.165779 -9.73635 
-9.51136 -0.0390767 0.500761 
-0.0390767 -9.26359 0.13177 
0.500761 0.13177 -9.70192 
-9.97184 0.0636097 -0.133295 
0.0636097 -10.2168 -0.10341 
-0.133295 -0.10341 -9.25573 
-9.95744 0.0822295 -0.0330923 
0.0822295 -9.99613 -0.166269 
-0.0330923 -0.166269 -9.49078 
-10.0941 -0.0416275 -0.247206 
-0.0416275 -10.1646 -0.203608 
-0.247206 -0.203608 -9.18569 
-10.1629 0.235242 -0.261385 
0.235242 -10.2973 0.404588 
-0.261385 0.404588 -8.9841 
-9.63206 0.00396756 -0.337555 
0.00396756 -9.72649 -0.0935634 
-0.337555 -0.0935634 -9.33331 
-9.47701 -0.107131 -0.291338 
-0.107131 -9.63173 -0.0555343 
-0.291338 -0.0555343 -9.58312 
-9.47363 -0.0272896 -0.189661 
-0.0272896 -9.6241 0.0145269 
-0.189661 0.0145269 -9.59413 
-9.6071 0.185662 0.111942 
0.185662 -9.40649 -0.318985 
0.111942 -0.318985 -9.67827 
-9.66142 0.000769565 -0.0406442 
0.000769565 -9.64068 0.000610183 
-0.0406442 0.000610183 -9.83417 
-9.65288 0.00478635 -0.0448412 
0.00478635 -9.64404 -0.00254605 
-0.0448412 -0.00254605 -9.83935 
-9.62778 0.00886785 -0.0333081 
0.00886785 -9.67124 0.00835881 
-0.0333081 0.00835881 -9.83725 
-9.65522 0.00197623 -0.0717736 
0.00197623 -9.6272 -0.00762601 
-0.0717736 -0.00762601 -9.85385 
-9.70705 -0.000593963 -0.0457579 
-0.000593963 -9.69029 0.023226 
-0.0457579 0.023226 -9.86501 
-9.67642 -0.00584743 -0.0257856 
-0.00584743 -9.70549 0.0236524 
-0.0257856 0.0236524 -9.88044 
-9.68687 -0.0153916 -0.0397927 
-0.0153916 -9.67275 -0.0245081 
-0.0397927 -0.0245081 -9.90273 
-9.70143 0.00236143 -0.0139813 
0.00236143 -9.69607 -0.0410815 
-0.0139813 -0.0410815 -9.86486 
-9.95579 -0.0189303 -0.0180769 
-0.0189303 -9.91438 0.160872 
-0.0180769 0.160872 -9.89118 
-9.90225 -0.00529716 -0.0509584 
-0.00529716 -9.92771 0.15776 
-0.0509584 0.15776 -9.93139 
-9.87461 0.0223632 -0.0409568 
0.0223632 -9.95662 0.151522 
-0.0409568 0.151522 -9.93012 
-9.94201 -0.0424644 -0.0461799 
-0.0424644 -9.83773 0.124165 
-0.0461799 0.124165 -9.9816 
-9.82589 0.00842232 -0.0549438 
0.00842232 -9.87881 0.145452 
-0.0549438 0.145452 -9.84249 
-9.85377 -0.0086127 -0.043959 
-0.0086127 -9.86206 0.137066 
-0.043959 0.137066 -9.83136 
-9.79945 0.0119378 -0.0660532 
0.0119378 -9.82994 0.200414 
-0.0660532 0.200414 -9.91779 
-9.94155 0.0330151 -0.0536232 
0.0330151 -9.93886 0.185042 
-0.0536232 0.185042 -9.66678 
-9.97315 -0.000797954 -0.0454819 
-0.000797954 -9.97388 0.171137 
-0.0454819 0.171137 -9.93644 
-9.95851 -0.0118172 -0.0561013 
-0.0118172 -9.97592 0.155146 
-0.0561013 0.155146 -9.94903 
-9.93358 -0.00621232 -0.0266296 
-0.00621232 -9.98926 0.16337 
-0.0266296 0.16337 -9.96062 
-9.93499 -0.016806 -0.00540894 
-0.016806 -9.92695 0.146216 
-0.00540894 0.146216 -10.0215 
-9.90551 -0.00323896 -0.0322512 
-0.00323896 -9.86402 0.207709 
-0.0322512 0.207709 -9.88011 
-9.81371 0.00591442 -0.0181648 
0.00591442 -9.89711 0.234281 
-0.0181648 0.234281 -9.93883 
-9.8945 -0.00360951 -0.0322041 
-0.00360951 -9.87935 0.179756 
-0.0322041 0.179756 -9.8758 
-9.82963 0.0302575 -0.0611186 
0.0302575 -9.9974 0.175848 
-0.0611186 0.175848 -9.82261 
-9.63364 0.047559 0.120864 
0.047559 -9.71224 0.0340525 
0.120864 0.0340525 -9.77043 
-9.64286 0.00250959 -0.0394571 
0.00250959 -9.74121 0.0476172 
-0.0394571 0.0476172 -9.73225 
-9.64006 0.0719475 -0.0286921 
0.0719475 -9.70321 0.0510726 
-0.0286921 0.0510726 -9.77305 
-9.62235 0.0996785 -0.0435057 
0.0996785 -9.90445 -0.084247 
-0.0435057 -0.084247 -9.58951 
-9.65269 0.0250022 0.0280829 
0.0250022 -9.69027 -0.0168181 
0.0280829 -0.0168181 -9.76073 
-9.67696 0.0225455 -0.00191705 
0.0225455 -9.67988 0.0094997 
-0.00191705 0.0094997 -9.74685 
-9.65302 0.0332207 0.0201524 
0.0332207 -9.68383 -0.0128054 
0.0201524 -0.0128054 -9.76684 
-9.64433 0.0147085 0.00893234 
0.0147085 -9.67606 -0.0355268 
0.00893234 -0.0355268 -9.78329 
-9.44499 0.0261402 0.474143 
0.0261402 -9.55871 -0.0296313 
0.474143 -0.0296313 -9.61482 
-9.56196 -0.0704349 0.144995 
-0.0704349 -9.3622 -0.0768403 
0.144995 -0.0768403 -9.69436 
-9.41156 -0.0726785 0.266702 
-0.0726785 -9.48408 -0.105848 
0.266702 -0.105848 -9.72288 
-9.19011 -0.131042 0.247749 
-0.131042 -9.42163 -0.410331 
0.247749 -0.410331 -10.0068 
-9.41507 -0.0462539 0.288274 
-0.0462539 -9.39882 -0.0823105 
0.288274 -0.0823105 -9.64445 
-9.34612 -0.0461266 0.157405 
-0.0461266 -9.44916 -0.0847384 
0.157405 -0.0847384 -9.66306 
-9.446 0.0122353 0.289894 
0.0122353 -9.44111 -0.0759402 
0.289894 -0.0759402 -9.57124 
-9.63884 0.0692147 0.275098 
0.0692147 -9.39179 -0.199177 
0.275098 -0.199177 -9.42771 
-11.834 -0.302953 0.347645 
-0.302953 -12.2406 0.546651 
0.347645 0.546651 -11.304 
-11.5939 0.0376299 0.272278 
0.0376299 -11.9698 0.184226 
0.272278 0.184226 -11.8149 
-11.7672 0.570375 -0.0853538 
0.570375 -12.4266 0.300577 
-0.0853538 0.300577 -11.1849 
-11.1912 -0.093488 0.545197 
-0.093488 -11.8266 0.147798 
0.545197 0.147798 -12.3609 
-8.50364 0.438107 -0.637726 
0.438107 -10.5828 -0.15538 
-0.637726 -0.15538 -11.6137 
-8.31661 0.928651 -0.746332 
0.928651 -10.9176 -0.377402 
-0.746332 -0.377402 -11.466 
-8.55708 0.453568 -0.739152 
0.453568 -10.1832 -0.436203 
-0.739152 -0.436203 -11.9599 
-9.49739 -0.148969 -1.74001 
-0.148969 -9.93538 -0.323269 
-1.74001 -0.323269 -11.2674 
-9.90644 0.00130164 0.0683877 
0.00130164 -9.91343 -0.0251788 
0.0683877 -0.0251788 -9.94095 
-9.92871 0.00708953 0.0842778 
0.00708953 -9.89195 -0.00680034 
0.0842778 -0.00680034 -9.94016 
-9.90044 -3.20274e-06 0.0699814 
-3.20274e-06 -9.91004 -0.0332619 
0.0699814 -0.0332619 -9.95034 
-9.90785 -0.00129108 0.0907384 
-0.00129108 -9.90146 -0.0212663 
0.0907384 -0.0212663 -9.95151 
-9.85403 -0.00173352 0.0649629 
-0.00173352 -9.85437 -0.0352744 
0.0649629 -0.0352744 -9.88711 
-9.86522 0.000422636 0.0864434 
0.000422636 -9.83525 0.0276886 
0.0864434 0.0276886 -9.89504 
-9.86251 0.0034086 0.0586777 
0.0034086 -9.84659 -0.0191464 
0.0586777 -0.0191464 -9.8864 
-9.87506 0.0444216 0.0412969 
0.0444216 -9.84054 -0.0237552 
0.0412969 -0.0237552 -9.8799 
-9.30425 -0.0121514 0.276953 
-0.0121514 -9.44351 0.444399 
0.276953 0.444399 -9.40945 
-9.41893 0.124337 -0.0839996 
0.124337 -9.10323 0.403595 
-0.0839996 0.403595 -9.63506 
-9.59428 0.241118 -0.107252 
0.241118 -9.34301 0.603855 
-0.107252 0.603855 -9.21992 
-9.55511 0.012862 0.32455 
0.012862 -8.83977 0.46347 
0.32455 0.46347 -9.76234 
-9.39183 0.139807 0.33465 
0.139807 -9.09658 0.564039 
0.33465 0.564039 -9.13773 
-10.1082 0.217841 0.183041 
0.217841 -8.71354 1.33542 
0.183041 1.33542 -8.80444 
-9.44329 0.0192377 -0.0188131 
0.0192377 -8.62285 0.700774 
-0.0188131 0.700774 -9.56 
-9.42683 0.0619088 0.164774 
0.0619088 -9.16681 0.520049 
0.164774 0.520049 -9.0325 
-7.89396 0.229904 -1.14255 
0.229904 -6.53234 0.587793 
-1.14255 0.587793 -2.89308 
-3.63856 -1.29771 -3.20735 
-1.29771 -8.0489 2.10603 
-3.20735 2.10603 -5.63191 
-7.52968 -0.543177 -1.34444 
-0.543177 -6.17412 1.47014 
-1.34444 1.47014 -3.61558 
-5.87262 -0.712843 0.434793 
-0.712843 -10.5965 0.989257 
0.434793 0.989257 -0.850226 
-7.32368 0.951835 -1.05261 
0.951835 -10.7344 0.184229 
-1.05261 0.184229 -6.17235 
-8.79994 0.0884972 -0.906432 
0.0884972 -10.2965 0.404782 
-0.906432 0.404782 -5.13402 
-9.98161 -1.03114 -2.39424 
-1.03114 -9.48281 -1.27016 
-2.39424 -1.27016 -4.76606 
-7.1171 -0.861063 -1.38619 
-0.861063 -7.953 1.30577 
-1.38619 1.30577 -9.16038 
-13.2921 0.161703 -0.501932 
0.161703 -11.8677 -0.604246 
-0.501932 -0.604246 -13.0772 
-13.026 0.712437 -0.236003 
0.712437 -12.1699 -0.676128 
-0.236003 -0.676128 -13.0411 
-12.3184 0.351449 -0.407252 
0.351449 -11.8042 -1.19974 
-0.407252 -1.19974 -14.1144 
-13.4073 0.341061 -0.0312178 
0.341061 -12.5091 -0.520871 
-0.0312178 -0.520871 -12.3205 
-9.68278 1.55847 0.648108 
1.55847 -8.15092 1.06989 
0.648108 1.06989 -11.0754 
-10.784 1.92776 0.754175 
1.92776 -7.23349 2.56975 
0.754175 2.56975 -10.8916 
-9.19914 0.670125 0.55745 
0.670125 -8.09782 2.18978 
0.55745 2.18978 -11.6121 
-9.41122 -0.407733 1.15333 
-0.407733 -9.68683 2.26944 
1.15333 2.26944 -9.81105 
-9.75138 0.00428367 0.352725 
0.00428367 -9.69157 0.0659594 
0.352725 0.0659594 -9.74854 
-9.68784 0.00407815 0.300677 
0.00407815 -9.68359 0.103009 
0.300677 0.103009 -9.82005 
-9.78199 0.0133935 0.297152 
0.0133935 -9.7844 0.00244584 
0.297152 0.00244584 -9.62509 
-9.7242 -0.010798 0.344174 
-0.010798 -9.74575 0.0445689 
0.344174 0.0445689 -9.72153 
-9.78513 0.0372777 0.310113 
0.0372777 -9.73935 0.0340317 
0.310113 0.0340317 -9.62134 
-9.69971 -0.0342012 0.274562 
-0.0342012 -9.70767 0.0638207 
0.274562 0.0638207 -9.73843 
-9.71534 -0.0159545 0.329091 
-0.0159545 -9.70957 -0.00880721 
0.329091 -0.00880721 -9.72091 
-9.76073 0.00510006 0.30918 
0.00510006 -9.70636 0.0288273 
0.30918 0.0288273 -9.67872 
-9.52954 0.0120882 -0.197553 
0.0120882 -9.52242 -0.306486 
-0.197553 -0.306486 -9.60605 
-9.56988 0.0209885 -0.145027 
0.0209885 -9.54665 -0.299763 
-0.145027 -0.299763 -9.54148 
-9.52934 0.0329456 -0.175363 
0.0329456 -9.52036 -0.287501 
-0.175363 -0.287501 -9.60831 
-9.57903 0.016286 -0.159994 
0.016286 -9.48714 -0.306922 
-0.159994 -0.306922 -9.59184 
-9.5638 0.0169168 -0.171157 
0.0169168 -9.50863 -0.353055 
-0.171157 -0.353055 -9.60228 
-9.55408 0.0739846 -0.114779 
0.0739846 -9.47832 -0.286238 
-0.114779 -0.286238 -9.64231 
-9.52801 -0.0653684 -0.127205 
-0.0653684 -9.58335 -0.27877 
-0.127205 -0.27877 -9.56335 
-9.5406 0.00847651 -0.110788 
0.00847651 -9.5244 -0.306322 
-0.110788 -0.306322 -9.60971 
-7.38485 1.40519 -0.944737 
1.40519 -13.564 -0.968417 
-0.944737 -0.968417 -13.9821 
-9.1146 1.46145 -0.424105 
1.46145 -12.5387 0.627211 
-0.424105 0.627211 -13.2777 
-10.2901 1.55022 -1.14243 
1.55022 -11.0797 -0.354697 
-1.14243 -0.354697 -13.5612 
-3.57017 2.43366 0.669511 
2.43366 -12.2484 -0.9725 
0.669511 -0.9725 -19.1124 
-10.3613 0.199416 1.90761 
0.199416 -9.7529 1.09678 
1.90761 1.09678 -11.2886 
-8.89332 -0.642422 0.00466236 
-0.642422 -11.1736 0.883164 
0.00466236 0.883164 -11.3358 
-9.39938 1.57854 1.6279 
1.57854 -10.0633 -0.24133 
1.6279 -0.24133 -11.9401 
-9.94463 0.954501 1.35304 
0.954501 -10.5415 0.126645 
1.35304 0.126645 -10.9166 
-9.97607 0.0541429 0.553086 
0.0541429 -10.8263 -0.18379 
0.553086 -0.18379 -12.0192 
-10.5988 -0.319807 -0.330098 
-0.319807 -10.3717 -0.347067 
-0.330098 -0.347067 -11.851 
-10.8214 0.592755 0.395978 
0.592755 -9.84083 -0.0227729 
0.395978 -0.0227729 -12.1594 
-11.2937 0.619408 0.373814 
0.619408 -10.1441 -0.372493 
0.373814 -0.372493 -11.3838 
-10.1505 -0.126884 0.13397 
-0.126884 -9.74911 0.055323 
0.13397 0.055323 -11.2689 
-10.2193 -0.096548 0.0892778 
-0.096548 -9.58422 -0.180827 
0.0892778 -0.180827 -11.365 
-10.0862 -0.0587956 0.0295207 
-0.0587956 -9.31043 -0.12894 
0.0295207 -0.12894 -11.7719 
-10.4216 -0.120361 -0.13155 
-0.120361 -9.58199 0.100755 
-0.13155 0.100755 -11.1649 
-9.92899 -0.0265927 -0.162089 
-0.0265927 -9.92138 -0.116023 
-0.162089 -0.116023 -9.91099 
-9.92909 -0.00596635 -0.146966 
-0.00596635 -9.9347 -0.0992229 
-0.146966 -0.0992229 -9.89757 
-9.9184 -0.00412406 -0.162806 
-0.00412406 -9.92145 -0.100322 
-0.162806 -0.100322 -9.92151 
-9.88904 0.0282271 -0.166819 
0.0282271 -9.90498 -0.0828139 
-0.166819 -0.0828139 -9.96734 
-9.85762 -0.0117346 -0.194531 
-0.0117346 -9.85909 -0.144182 
-0.194531 -0.144182 -9.88749 
-9.86227 0.0127337 -0.17666 
0.0127337 -9.88598 -0.111638 
-0.17666 -0.111638 -9.85595 
-9.86854 -0.00650169 -0.167496 
-0.00650169 -9.85811 -0.122435 
-0.167496 -0.122435 -9.87754 
-9.90558 -0.00359403 -0.166747 
-0.00359403 -9.90389 -0.0880349 
-0.166747 -0.0880349 -9.79474 
-9.98561 0.00109515 0.23412 
0.00109515 -9.97483 0.0866948 
0.23412 0.0866948 -9.94439 
-9.97733 0.00230331 0.230045 
0.00230331 -9.96653 0.0933889 
0.230045 0.0933889 -9.96096 
-9.96107 0.00229518 0.236667 
0.00229518 -9.97749 0.096272 
0.236667 0.096272 -9.96627 
-9.94495 -0.00434287 0.249583 
-0.00434287 -9.93833 0.0823089 
0.249583 0.0823089 -10.0215 
-9.92681 -0.00193403 0.232 
-0.00193403 -9.91195 0.105939 
0.232 0.105939 -9.91004 
-9.92079 -0.00556849 0.230522 
-0.00556849 -9.90942 0.0981114 
0.230522 0.0981114 -9.91859 
-9.90959 -0.000964991 0.232927 
-0.000964991 -9.90664 0.109449 
0.232927 0.109449 -9.93257 
-9.92881 0.0156917 0.224036 
0.0156917 -9.92874 0.0988955 
0.224036 0.0988955 -9.89125 
-9.66954 0.0758439 0.0345352 
0.0758439 -9.1907 0.261458 
0.0345352 0.261458 -9.70539 
-9.81108 -0.210782 0.135309 
-0.210782 -9.09262 0.349735 
0.135309 0.349735 -9.66194 
-9.79848 0.356508 0.0137098 
0.356508 -8.82856 0.157912 
0.0137098 0.157912 -9.9386 
-9.08281 -0.293754 -0.0183393 
-0.293754 -10.387 -0.0192187 
-0.0183393 -0.0192187 -9.09583 
-8.88324 0.290389 0.160079 
0.290389 -8.72485 0.280652 
0.160079 0.280652 -10.7693 
-9.48102 0.0377171 0.363532 
0.0377171 -9.14226 0.702462 
0.363532 0.702462 -9.75414 
-9.90415 0.294891 0.0321686 
0.294891 -9.63244 0.213164 
0.0321686 0.213164 -8.84082 
-9.83281 0.188908 0.0963964 
0.188908 -8.93703 0.847506 
0.0963964 0.847506 -9.60758 
-9.9354 0.00540515 0.286889 
0.00540515 -9.90214 -0.00969321 
0.286889 -0.00969321 -9.93053 
-9.92488 -0.00313625 0.31822 
-0.00313625 -9.94567 -0.0197558 
0.31822 -0.0197558 -9.89752 
-9.92017 -0.00041982 0.235998 
-0.00041982 -9.92986 0.0136358 
0.235998 0.0136358 -9.91803 
-9.88664 0.0565126 0.223287 
0.0565126 -9.92404 0.0259735 
0.223287 0.0259735 -9.95738 
-9.88076 -0.00537248 0.229952 
-0.00537248 -9.86226 0.00347711 
0.229952 0.00347711 -9.77686 
-9.88173 -0.0234157 0.260866 
-0.0234157 -9.83198 -0.0132813 
0.260866 -0.0132813 -9.80616 
-9.8691 0.0218814 0.269268 
0.0218814 -9.82516 -0.0196584 
0.269268 -0.0196584 -9.82562 
-9.88954 -0.0130448 0.248681 
-0.0130448 -9.85656 -0.022786 
0.248681 -0.022786 -9.77377 
-9.32428 0.925062 -0.543337 
0.925062 -9.32609 -0.590669 
-0.543337 -0.590669 -5.98731 
-9.62294 0.242621 -2.5186 
0.242621 -9.87089 0.710866 
-2.5186 0.710866 -5.14384 
-8.96779 0.518984 -0.769833 
0.518984 -9.57827 0.0186012 
-0.769833 0.0186012 -6.09161 
-7.4454 0.121513 -1.7318 
0.121513 -7.46535 -0.340675 
-1.7318 -0.340675 -9.72693 
-8.51725 0.775293 -1.68571 
0.775293 -7.7716 0.542475 
-1.68571 0.542475 -0.441548 
-9.65936 -0.0752503 -1.64212 
-0.0752503 -6.50822 0.230546 
-1.64212 0.230546 -0.562819 
-8.03916 -0.376173 -0.0384735 
-0.376173 -7.87515 -0.547106 
-0.0384735 -0.547106 -0.816087 
-6.28798 -1.55675 -1.06458 
-1.55675 -8.62249 -0.486602 
-1.06458 -0.486602 -1.81994 
-9.38774 -0.266004 -0.103779 
-0.266004 -9.26913 0.105739 
-0.103779 0.105739 -8.94524 
-8.98512 -0.229736 -0.238918 
-0.229736 -9.93621 -0.128902 
-0.238918 -0.128902 -8.68078 
-9.25758 -0.0975407 -0.486602 
-0.0975407 -9.72919 -0.00942915 
-0.486602 -0.00942915 -8.61533 
-8.90104 -0.163821 -0.0103017 
-0.163821 -9.97179 0.878784 
-0.0103017 0.878784 -8.72928 
-9.44866 -0.165134 -0.385882 
-0.165134 -9.43793 0.0784609 
-0.385882 0.0784609 -8.73205 
-9.47341 -0.0693707 -0.695618 
-0.0693707 -9.65536 -0.0772269 
-0.695618 -0.0772269 -8.48986 
-9.10037 0.0132743 -0.366417 
0.0132743 -9.93597 -0.0725444 
-0.366417 -0.0725444 -8.5823 
-8.93119 -0.0365601 -0.114311 
-0.0365601 -9.5934 -0.792091 
-0.114311 -0.792091 -9.09405 
-9.87536 -0.000647717 0.153826 
-0.000647717 -9.86261 -0.245434 
0.153826 -0.245434 -9.87162 
-9.87665 -0.000563166 0.161362 
-0.000563166 -9.87707 -0.246333 
0.161362 -0.246333 -9.85587 
-9.88145 0.000527707 0.166921 
0.000527707 -9.86357 -0.262129 
0.166921 -0.262129 -9.86458 
-9.87782 0.00742378 0.170723 
0.00742378 -9.87988 -0.26201 
0.170723 -0.26201 -9.8519 
-9.84033 0.0371353 0.148105 
0.0371353 -9.9749 -0.30097 
0.148105 -0.30097 -9.71215 
-9.80897 -0.0117494 0.196749 
-0.0117494 -9.73835 -0.297852 
0.196749 -0.297852 -9.98007 
-9.86798 -0.0295113 0.21896 
-0.0295113 -9.82821 -0.162322 
0.21896 -0.162322 -9.83119 
-9.85834 -0.0175979 0.195966 
-0.0175979 -9.82137 -0.278204 
0.195966 -0.278204 -9.84767 
-9.8649 0.0033399 0.144296 
0.0033399 -9.88539 -0.283064 
0.144296 -0.283064 -9.68215 
-9.8267 -0.0364424 0.175858 
-0.0364424 -9.80446 -0.206905 
0.175858 -0.206905 -9.80129 
-9.76152 0.0214241 0.213171 
0.0214241 -9.75415 -0.280207 
0.213171 -0.280207 -9.91678 
-9.79018 -0.0195765 0.16802 
-0.0195765 -9.822 -0.243132 
0.16802 -0.243132 -9.82026 
-9.57818 -0.0326791 0.0990108 
-0.0326791 -9.51666 -0.35885 
0.0990108 -0.35885 -9.55467 
-9.45359 0.106068 0.0212331 
0.106068 -9.6074 -0.32201 
0.0212331 -0.32201 -9.58853 
-9.53887 -0.0451182 0.139447 
-0.0451182 -9.49804 -0.303983 
0.139447 -0.303983 -9.61261 
-9.63103 -0.130777 0.0655939 
-0.130777 -9.46074 -0.340205 
0.0655939 -0.340205 -9.55775 
-9.60824 -0.0171157 0.117833 
-0.0171157 -9.48996 -0.346538 
0.117833 -0.346538 -9.52904 
-9.50723 -0.0284501 0.135834 
-0.0284501 -9.55274 -0.335273 
0.135834 -0.335273 -9.56727 
-9.44362 0.0546616 0.0170493 
0.0546616 -9.58483 -0.377952 
0.0170493 -0.377952 -9.59879 
-9.53349 -0.0103102 0.10184 
-0.0103102 -9.51992 -0.344483 
0.10184 -0.344483 -9.57382 
-6.02221 -1.51535 0.753705 
-1.51535 -11.2305 -1.28978 
0.753705 -1.28978 -9.09143 
-9.15171 0.043378 1.49339 
0.043378 -7.82823 0.107163 
1.49339 0.107163 -9.36424 
-8.54113 0.966574 1.16367 
0.966574 -10.529 -1.26008 
1.16367 -1.26008 -7.27405 
-10.4467 -0.19285 3.99282 
-0.19285 -9.02434 -0.246921 
3.99282 -0.246921 -6.87317 
-10.2261 0.898941 0.688512 
0.898941 -9.05439 -1.36928 
0.688512 -1.36928 -9.09725 
-10.4183 -0.276734 1.41149 
-0.276734 -10.6994 -0.877057 
1.41149 -0.877057 -7.26004 
-9.81803 -0.0412843 1.2786 
-0.0412843 -10.7327 -0.950433 
1.2786 -0.950433 -7.82709 
-9.52872 0.290954 0.00111624 
0.290954 -8.64658 -1.347 
0.00111624 -1.347 -10.2025 
-7.18376 -5.43682 1.01329 
-5.43682 -7.8813 0.931221 
1.01329 0.931221 -2.96559 
-8.34469 -2.13037 0.147933 
-2.13037 -7.26232 -1.88184 
0.147933 -1.88184 -2.42364 
-6.14733 1.80068 2.23432 
1.80068 -5.98953 -3.08699 
2.23432 -3.08699 -5.89379 
-10.5114 4.44743 5.54728 
4.44743 -11.4611 2.18277 
5.54728 2.18277 3.94188 
-8.3905 -1.09976 1.77521 
-1.09976 -10.0193 -0.151963 
1.77521 -0.151963 -5.47565 
-8.51477 0.642467 0.736223 
0.642467 -8.82377 0.478805 
0.736223 0.478805 -6.54691 
-9.44393 0.125009 1.33736 
0.125009 -8.66407 -0.410974 
1.33736 -0.410974 -5.77746 
-7.49519 -0.977843 1.31433 
-0.977843 -9.28033 0.295074 
1.31433 0.295074 -7.10994 
-9.93301 -0.040023 -0.170073 
-0.040023 -9.91472 -0.0992772 
-0.170073 -0.0992772 -9.86191 
-9.91875 -0.00231646 -0.199156 
-0.00231646 -9.88933 -0.109717 
-0.199156 -0.109717 -9.90157 
-9.90867 -0.000701618 -0.217048 
-0.000701618 -9.89928 -0.106278 
-0.217048 -0.106278 -9.90169 
-9.90598 -0.0349593 -0.23402 
-0.0349593 -9.87286 -0.124012 
-0.23402 -0.124012 -9.9308 
-9.868 -0.0248643 -0.216834 
-0.0248643 -9.84799 -0.0949028 
-0.216834 -0.0949028 -9.84218 
-9.84856 -0.016144 -0.220179 
-0.016144 -9.86304 -0.0975627 
-0.220179 -0.0975627 -9.84657 
-9.86278 -0.00427882 -0.233819 
-0.00427882 -9.83471 -0.0845607 
-0.233819 -0.0845607 -9.86067 
-9.89979 -0.00951986 -0.1982 
-0.00951986 -9.87629 -0.101392 
-0.1982 -0.101392 -9.78209 
-4.766 -1.80784 -1.1912 
-1.80784 -5.03149 -0.657864 
-1.1912 -0.657864 0.0294274 
-5.80309 0.845345 0.105298 
0.845345 -4.98588 -0.468837 
0.105298 -0.468837 1.02092 
-3.51483 -0.606128 -0.565157 
-0.606128 -4.69729 -1.66628 
-0.565157 -1.66628 -1.55594 
-4.76969 -0.684897 0.0839376 
-0.684897 -6.12725 -0.366007 
0.0839376 -0.366007 1.12888 
-6.53276 0.258488 0.190321 
0.258488 -6.7 0.427633 
0.190321 0.427633 -2.20244 
-7.74034 0.476628 -0.0766935 
0.476628 -6.22628 0.639803 
-0.0766935 0.639803 -1.46858 
-6.24559 -0.278068 0.0137639 
-0.278068 -6.86302 0.608604 
0.0137639 0.608604 -2.3266 
-6.90097 0.444921 0.0857035 
0.444921 -5.97694 -0.0462052 
0.0857035 -0.0462052 -2.5573 
-8.85214 -0.0427611 0.536025 
-0.0427611 -9.93336 0.866187 
0.536025 0.866187 -7.67448 
-9.95761 -0.312505 -1.12985 
-0.312505 -9.71074 0.492207 
-1.12985 0.492207 -6.79163 
-9.00251 -0.0639127 -1.38368 
-0.0639127 -9.43836 -0.376251 
-1.38368 -0.376251 -8.0191 
-9.46231 0.283783 -1.07849 
0.283783 -9.29675 -0.639661 
-1.07849 -0.639661 -7.70092 
-9.50501 -0.41113 -0.849923 
-0.41113 -10.0278 1.47912 
-0.849923 1.47912 -9.25194 
-10.0806 -0.293834 -0.785444 
-0.293834 -9.91668 1.39285 
-0.785444 1.39285 -8.78744 
-9.86998 -0.104842 -0.275761 
-0.104842 -9.61718 1.11487 
-0.275761 1.11487 -9.29758 
-9.48421 -0.322606 -0.786198 
-0.322606 -9.65589 1.80538 
-0.786198 1.80538 -9.64463 
-9.49333 0.0687949 0.256 
0.0687949 -9.50041 0.0446249 
0.256 0.0446249 -9.84306 
-9.53325 0.0493624 0.338817 
0.0493624 -9.48756 0.151773 
0.338817 0.151773 -9.81599 
-9.48611 0.0448616 0.286774 
0.0448616 -9.59769 0.155208 
0.286774 0.155208 -9.753 
-9.55251 -0.0251822 0.238936 
-0.0251822 -9.65723 0.163903 
0.238936 0.163903 -9.62707 
-9.48901 0.114233 0.320493 
0.114233 -9.62463 0.160811 
0.320493 0.160811 -10.0634 
-9.57234 0.00508835 0.42995 
0.00508835 -9.65113 0.280447 
0.42995 0.280447 -9.95359 
-9.55776 0.0893328 0.19882 
0.0893328 -9.68742 0.0620487 
0.19882 0.0620487 -9.93188 
-9.12576 0.284721 0.286907 
0.284721 -9.41657 0.280546 
0.286907 0.280546 -10.6347 
-9.68098 -0.0188148 -0.0236524 
-0.0188148 -9.69004 0.0203173 
-0.0236524 0.0203173 -9.84017 
-9.71736 0.0145302 0.0265071 
0.0145302 -9.68994 0.0276877 
0.0265071 0.0276877 -9.80389 
-9.67011 0.016581 -0.0420381 
0.016581 -9.65246 -0.0377545 
-0.0420381 -0.0377545 -9.88862 
-9.73114 -0.000874071 -0.114876 
-0.000874071 -9.66068 -0.0255062 
-0.114876 -0.0255062 -9.81936 
-9.6963 0.0103293 0.012079 
0.0103293 -9.66643 0.0296091 
0.012079 0.0296091 -9.84783 
-9.70247 0.00173762 -0.00712276 
0.00173762 -9.67184 0.0188693 
-0.00712276 0.0188693 -9.83625 
-9.71398 0.0085167 -0.0137218 
0.0085167 -9.65432 0.00723784 
-0.0137218 0.00723784 -9.84225 
-9.71985 -0.032536 0.0188062 
-0.032536 -9.6705 0.00968939 
0.0188062 0.00968939 -9.82021 
-9.35226 0.138768 -0.264824 
0.138768 -9.45186 0.0137197 
-0.264824 0.0137197 -10.0191 
-9.48733 0.0534853 -0.266737 
0.0534853 -9.48774 -0.138157 
-0.266737 -0.138157 -9.84813 
-9.54504 0.121734 -0.40612 
0.121734 -9.51785 -0.273889 
-0.40612 -0.273889 -9.76031 
-9.52103 0.0029659 -0.218256 
0.0029659 -9.51509 -0.137588 
-0.218256 -0.137588 -9.78707 
-9.32407 0.117022 -0.409222 
0.117022 -9.495 -0.316713 
-0.409222 -0.316713 -9.66071 
-9.36459 0.0984606 -0.323984 
0.0984606 -9.35284 -0.173753 
-0.323984 -0.173753 -9.76235 
-9.41999 0.190899 -0.339542 
0.190899 -9.41855 -0.170573 
-0.339542 -0.170573 -9.64124 
-9.69763 0.0297482 -0.518537 
0.0297482 -9.36043 -0.147521 
-0.518537 -0.147521 -9.42172 
-9.69821 -0.0156352 -0.0335443 
-0.0156352 -9.65049 0.0123462 
-0.0335443 0.0123462 -9.76849 
-9.68646 0.0147702 -0.0122229 
0.0147702 -9.67235 -0.00164621 
-0.0122229 -0.00164621 -9.75837 
-9.67787 -0.00803672 0.0339016 
-0.00803672 -9.66219 -0.036585 
0.0339016 -0.036585 -9.77713 
-9.75574 0.082185 0.0268933 
0.082185 -9.65941 -0.00109575 
0.0268933 -0.00109575 -9.70204 
-9.6191 -0.00247782 -0.0419153 
-0.00247782 -9.64768 0.0290343 
-0.0419153 0.0290343 -9.90154 
-9.73465 0.028728 0.0369195 
0.028728 -9.65991 -0.0144399 
0.0369195 -0.0144399 -9.77377 
-9.70079 0.0351781 -0.0209992 
0.0351781 -9.66752 -0.0221506 
-0.0209992 -0.0221506 -9.80001 
-9.71155 -0.0106452 -0.142566 
-0.0106452 -9.68599 0.0271679 
-0.142566 0.0271679 -9.77078 
-11.3491 1.23105 -0.233755 
1.23105 -4.75361 -1.36237 
-0.233755 -1.36237 -10.8569 
-9.35458 0.558268 -1.24597 
0.558268 -7.12635 -4.0495 
-1.24597 -4.0495 -10.4786 
-10.3399 1.91979 -1.55605 
1.91979 -6.78183 -4.93046 
-1.55605 -4.93046 -9.83785 
-6.94357 -0.274368 -0.277151 
-0.274368 -13.1662 -1.35654 
-0.277151 -1.35654 -6.84979 
-13.0788 1.29667 -0.596201 
1.29667 -10.7796 -0.801824 
-0.596201 -0.801824 -15.7958 
-12.3215 1.45547 1.06579 
1.45547 -10.7343 1.32821 
1.06579 1.32821 -16.5983 
-12.2249 1.15678 0.0322815 
1.15678 -11.5604 1.22352 
0.0322815 1.22352 -15.8688 
-15.5485 0.755965 0.690639 
0.755965 -13.1294 -0.0851111 
0.690639 -0.0851111 -10.9763 
-9.96295 0.00321591 0.0161974 
0.00321591 -9.96512 0.0807116 
0.0161974 0.0807116 -9.95854 
-9.94311 0.00204354 0.0118673 
0.00204354 -9.96876 0.0817451 
0.0118673 0.0817451 -9.97474 
-9.94474 -0.0141133 0.0117443 
-0.0141133 -9.96148 0.0794908 
0.0117443 0.0794908 -9.98039 
-9.94565 -0.00123316 0.00999368 
-0.00123316 -9.94 0.0773189 
0.00999368 0.0773189 -10.001 
-9.91698 0.00496344 0.0202809 
0.00496344 -9.91194 0.0666478 
0.0202809 0.0666478 -9.93702 
-9.91023 -0.00167352 0.00958748 
-0.00167352 -9.91816 0.0755634 
0.00958748 0.0755634 -9.93755 
-9.88764 -0.00157152 0.0181797 
-0.00157152 -9.90708 0.0917 
0.0181797 0.0917 -9.97122 
-9.89928 -0.00739905 0.00692501 
-0.00739905 -9.96871 0.0842891 
0.00692501 0.0842891 -9.89795 
-9.68701 0.0849687 -0.146374 
0.0849687 -9.77775 0.130526 
-0.146374 0.130526 -9.81338 
-9.78181 0.0283849 0.108731 
0.0283849 -9.87184 0.0578383 
0.108731 0.0578383 -9.6245 
-9.7158 0.0230094 -0.00542415 
0.0230094 -9.83071 0.244258 
-0.00542415 0.244258 -9.73164 
-9.82255 0.0181572 0.0458621 
0.0181572 -9.7784 0.230184 
0.0458621 0.230184 -9.67719 
-9.75511 0.0509205 -0.0129738 
0.0509205 -9.69242 0.152687 
-0.0129738 0.152687 -9.7868 
-9.74675 -0.000565615 -0.0197847 
-0.000565615 -9.81513 0.185392 
-0.0197847 0.185392 -9.67246 
-9.72773 0.00756936 0.00235923 
0.00756936 -9.7839 0.139722 
0.00235923 0.139722 -9.7227 
-9.6911 -0.0561262 -0.0466583 
-0.0561262 -9.85975 0.0608704 
-0.0466583 0.0608704 -9.68348 
-9.70108 -0.00989576 -0.0141093 
-0.00989576 -9.82268 0.173684 
-0.0141093 0.173684 -9.62227 
-9.71957 0.0349739 -0.0396712 
0.0349739 -9.74273 0.189179 
-0.0396712 0.189179 -9.68372 
-9.72111 0.0307021 -0.0316612 
0.0307021 -9.76907 0.158695 
-0.0316612 0.158695 -9.65585 
-9.73195 0.0151117 -0.00280009 
0.0151117 -9.70393 0.209388 
-0.00280009 0.209388 -9.71015 
-9.67865 -0.0110457 -0.00816645 
-0.0110457 -9.73117 0.183847 
-0.00816645 0.183847 -9.57676 
-9.68535 0.0221488 0.0169748 
0.0221488 -9.69901 0.172936 
0.0169748 0.172936 -9.60222 
-9.68786 0.00656177 -0.0413523 
0.00656177 -9.71406 0.205628 
-0.0413523 0.205628 -9.58465 
-9.63576 0.0144186 -0.0699063 
0.0144186 -9.79256 0.197381 
-0.0699063 0.197381 -9.55826 
-9.88904 0.00664935 0.197552 
0.00664935 -9.89104 -0.26466 
0.197552 -0.26466 -9.90036 
-9.86239 0.0405954 0.182216 
0.0405954 -9.88565 -0.219122 
0.182216 -0.219122 -9.9324 
-9.90437 0.00315973 0.199606 
0.00315973 -9.90131 -0.284253 
0.199606 -0.284253 -9.87476 
-9.90395 -0.00282577 0.193576 
-0.00282577 -9.88657 -0.268592 
0.193576 -0.268592 -9.88992 
-9.94756 0.0039813 0.181708 
0.0039813 -9.90852 -0.26552 
0.181708 -0.26552 -9.93916 
-9.90717 0.0160233 0.168181 
0.0160233 -9.92439 -0.250099 
0.168181 -0.250099 -9.96367 
-9.92184 -0.00240401 0.163895 
-0.00240401 -9.93368 -0.228039 
0.163895 -0.228039 -9.93971 
-9.93599 0.00710311 0.179068 
0.00710311 -9.91154 -0.253158 
0.179068 -0.253158 -9.94771 
-4.42359 1.36882 0.14824 
1.36882 -7.94123 -4.26996 
0.14824 -4.26996 -6.83038 
-9.49208 -1.75466 1.69428 
-1.75466 -5.64618 -1.27872 
1.69428 -1.27872 -4.05694 
-8.48065 -0.729892 1.25121 
-0.729892 -7.47411 -1.71323 
1.25121 -1.71323 -3.24044 
-8.95458 1.42713 4.10331 
1.42713 -10.0801 -0.652689 
4.10331 -0.652689 -0.160506 
-8.92979 0.52096 0.51322 
0.52096 -9.06332 -0.937893 
0.51322 -0.937893 -5.166 
-9.43944 -0.185007 0.801998 
-0.185007 -9.03593 -1.03964 
0.801998 -1.03964 -4.68375 
-9.28821 -0.592857 1.35948 
-0.592857 -9.28785 -1.36378 
1.35948 -1.36378 -4.58305 
-8.59349 -0.736552 1.16765 
-0.736552 -8.70788 -1.39472 
1.16765 -1.39472 -5.85775 
-12.6682 -1.55696 0.890092 
-1.55696 -13.6455 -0.673449 
0.890092 -0.673449 -12.8915 
-12.3718 -1.1172 -0.16366 
-1.1172 -13.6686 -0.144254 
-0.16366 -0.144254 -13.1649 
-12.1852 0.353957 0.62077 
0.353957 -12.1578 0.0792604 
0.62077 0.0792604 -14.8623 
-11.6956 -2.4841 0.473205 
-2.4841 -8.56621 1.65696 
0.473205 1.65696 -18.9434 
-10.7141 -0.433787 -0.915848 
-0.433787 -9.78646 0.226221 
-0.915848 0.226221 -12.0674 
-9.94535 -0.737074 -0.181647 
-0.737074 -9.75796 0.243842 
-0.181647 0.243842 -12.8646 
-10.7043 -0.981309 -0.689456 
-0.981309 -9.8376 0.269251 
-0.689456 0.269251 -12.0261 
-10.9143 0.650212 -0.97642 
0.650212 -10.8985 -0.812838 
-0.97642 -0.812838 -10.7551 
-12.4676 -2.08957 -0.0823449 
-2.08957 -12.7691 -0.822867 
-0.0823449 -0.822867 -14.69 
-8.14068 -1.53635 1.29209 
-1.53635 -14.5659 0.126198 
1.29209 0.126198 -17.2201 
-13.9463 -2.96276 1.48977 
-2.96276 -13.0894 0.534975 
1.48977 0.534975 -12.8911 
-8.74369 -2.01311 1.1992 
-2.01311 -7.40523 3.08393 
1.1992 3.08393 -23.7778 
-10.4954 -1.2921 0.375528 
-1.2921 -9.62609 0.435515 
0.375528 0.435515 -12.5468 
-10.764 -0.29989 -0.440687 
-0.29989 -9.22726 -0.439628 
-0.440687 -0.439628 -12.677 
-11.7955 -0.450982 -0.11752 
-0.450982 -7.90721 -0.162677 
-0.11752 -0.162677 -12.9655 
-10.1684 -1.55125 0.446887 
-1.55125 -10.9227 -0.705986 
0.446887 -0.705986 -11.5771 
-10.2695 0.0446724 -0.0563123 
0.0446724 -10.0756 0.0256889 
-0.0563123 0.0256889 -9.91108 
-10.2494 -0.049659 0.223588 
-0.049659 -10.1537 0.0623863 
0.223588 0.0623863 -9.85304 
-9.76462 -0.0553809 0.0178664 
-0.0553809 -9.66104 -0.0249737 
0.0178664 -0.0249737 -10.8305 
-10.2874 -0.00412127 -0.106509 
-0.00412127 -10.2002 -0.0249737 
-0.106509 -0.0249737 -9.76853 
-9.74047 -0.296783 0.219007 
-0.296783 -10.0233 -0.052161 
0.219007 -0.052161 -10.0273 
-10.0718 0.0158887 0.059421 
0.0158887 -9.91269 0.0244249 
0.059421 0.0244249 -9.8066 
-9.93449 0.0289446 -0.0654351 
0.0289446 -9.73075 0.0349755 
-0.0654351 0.0349755 -10.1258 
-9.70203 -0.069205 -0.0970033 
-0.069205 -10.1135 -0.185404 
-0.0970033 -0.185404 -9.97555 
-9.59254 0.0287036 0.0061149 
0.0287036 -9.57164 -0.0371899 
0.0061149 -0.0371899 -9.91379 
-9.60493 0.0194328 -0.00116434 
0.0194328 -9.50991 -0.000606329 
-0.00116434 -0.000606329 -9.96312 
-9.59845 0.00526174 0.0118195 
0.00526174 -9.58002 -0.00740213 
0.0118195 -0.00740213 -9.8995 
-9.57489 -0.0122413 -0.0255811 
-0.0122413 -9.66419 0.0914381 
-0.0255811 0.0914381 -9.83889 
-9.43118 0.0841936 0.0252124 
0.0841936 -9.43341 0.00971778 
0.0252124 0.00971778 -9.98074 
-9.52998 0.138586 0.00169991 
0.138586 -9.42181 0.0179314 
0.00169991 0.0179314 -9.89353 
-9.57503 0.066423 0.0139023 
0.066423 -9.48591 -0.0268088 
0.0139023 -0.0268088 -9.78439 
-9.39149 0.0533714 -0.117124 
0.0533714 -9.38908 -0.17568 
-0.117124 -0.17568 -10.0648 
-9.74324 0.00091818 -0.0973562 
0.00091818 -9.77889 -0.319876 
-0.0973562 -0.319876 -9.75177 
-9.748 -0.00676794 -0.0785218 
-0.00676794 -9.74849 -0.302082 
-0.0785218 -0.302082 -9.7774 
-9.755 0.00472965 -0.100806 
0.00472965 -9.73433 -0.333077 
-0.100806 -0.333077 -9.78457 
-9.75702 -0.00874591 -0.0966765 
-0.00874591 -9.79302 -0.328132 
-0.0966765 -0.328132 -9.72386 
-9.76132 -0.00850888 -0.152866 
-0.00850888 -9.83853 -0.294171 
-0.152866 -0.294171 -9.77341 
-9.79778 -0.00945485 -0.0548185 
-0.00945485 -9.77042 -0.340416 
-0.0548185 -0.340416 -9.80507 
-9.78578 -0.0466552 -0.0698472 
-0.0466552 -9.7856 -0.292657 
-0.0698472 -0.292657 -9.80188 
-9.79318 -0.00978878 -0.108204 
-0.00978878 -9.78154 -0.299587 
-0.108204 -0.299587 -9.79855 
-9.58983 -0.0159246 0.0692324 
-0.0159246 -9.76287 0.308414 
0.0692324 0.308414 -9.53165 
-9.63506 -0.000553791 0.0917928 
-0.000553791 -9.60514 0.321407 
0.0917928 0.321407 -9.64416 
-9.61555 -0.0128442 0.106484 
-0.0128442 -9.6466 0.359786 
0.106484 0.359786 -9.62221 
-9.60529 0.00312869 0.0518418 
0.00312869 -9.69166 0.336096 
0.0518418 0.336096 -9.58741 
-9.62418 -0.0387929 0.068428 
-0.0387929 -9.73707 0.308043 
0.068428 0.308043 -9.49722 
-9.63087 0.00289825 0.0512969 
0.00289825 -9.64745 0.368589 
0.0512969 0.368589 -9.58015 
-9.64932 0.00763452 0.0606465 
0.00763452 -9.60238 0.328041 
0.0606465 0.328041 -9.60677 
-9.63764 -0.0249805 0.0761451 
-0.0249805 -9.66831 0.340636 
0.0761451 0.340636 -9.55252 
-9.72955 0.00102119 -0.290283 
0.00102119 -9.73649 -0.104136 
-0.290283 -0.104136 -9.75462 
-9.74253 0.00486009 -0.291232 
0.00486009 -9.74659 -0.153851 
-0.291232 -0.153851 -9.73154 
-9.75427 -0.000864155 -0.299955 
-0.000864155 -9.73505 -0.133682 
-0.299955 -0.133682 -9.73134 
-9.78229 -0.00848452 -0.284162 
-0.00848452 -9.75203 -0.181452 
-0.284162 -0.181452 -9.68635 
-9.8009 -0.0108185 -0.282408 
-0.0108185 -9.77745 -0.138047 
-0.282408 -0.138047 -9.78882 
-9.8022 -0.00689401 -0.314961 
-0.00689401 -9.79684 -0.158035 
-0.314961 -0.158035 -9.76812 
-9.79388 -0.00428023 -0.297696 
-0.00428023 -9.77801 -0.145933 
-0.297696 -0.145933 -9.79526 
-9.7048 0.027471 -0.296844 
0.027471 -9.79925 -0.169522 
-0.296844 -0.169522 -9.86311 
-9.79643 0.398069 -0.286009 
0.398069 -9.46255 0.222655 
-0.286009 0.222655 -8.91448 
-9.51072 0.30001 0.429061 
0.30001 -8.87957 -0.190469 
0.429061 -0.190469 -9.78316 
-10.5005 -0.0226016 0.224455 
-0.0226016 -8.83433 0.84386 
0.224455 0.84386 -8.83867 
-8.96253 0.436982 0.373675 
0.436982 -9.93631 0.256097 
0.373675 0.256097 -9.27462 
-9.36119 0.16743 0.0116876 
0.16743 -9.18752 0.214687 
0.0116876 0.214687 -8.91342 
-9.81494 0.428282 0.0566246 
0.428282 -9.05788 0.887937 
0.0566246 0.887937 -8.58933 
-9.33911 0.497007 0.132128 
0.497007 -8.94299 0.204549 
0.132128 0.204549 -9.18004 
-9.08874 0.294947 -0.107742 
0.294947 -9.34998 0.645346 
-0.107742 0.645346 -9.02342 
-9.93679 -0.00784278 -0.252 
-0.00784278 -9.94838 -0.236657 
-0.252 -0.236657 -9.94306 
-9.93791 -0.00769022 -0.247457 
-0.00769022 -9.9437 -0.231189 
-0.247457 -0.231189 -9.94661 
-9.94323 0.0235713 -0.230193 
0.0235713 -9.91491 -0.240064 
-0.230193 -0.240064 -9.97008 
-9.94408 0.00946963 -0.236759 
0.00946963 -9.93775 -0.235841 
-0.236759 -0.235841 -9.9464 
-9.98111 -0.00274774 -0.237033 
-0.00274774 -9.9807 -0.238112 
-0.237033 -0.238112 -9.95886 
-9.95853 -0.00261433 -0.214066 
-0.00261433 -9.94213 -0.252141 
-0.214066 -0.252141 -10.02 
-9.96954 -0.00982738 -0.224493 
-0.00982738 -9.97777 -0.239518 
-0.224493 -0.239518 -9.97336 
-9.97589 -0.0110106 -0.22762 
-0.0110106 -9.96779 -0.241249 
-0.22762 -0.241249 -9.97699 
-9.99971 -1.80173 -0.87111 
-1.80173 -8.01947 -0.416849 
-0.87111 -0.416849 -4.77619 
-9.05295 1.38117 -5.78205 
1.38117 -10.3682 -3.29104 
-5.78205 -3.29104 -3.37421 
-9.00855 0.248543 -3.61832 
0.248543 -7.81401 -2.13725 
-3.61832 -2.13725 -5.9728 
-6.70525 2.26474 -2.02374 
2.26474 -8.1939 -2.18155 
-2.02374 -2.18155 -7.89622 
-9.48716 -1.27969 -4.41018 
-1.27969 -4.99494 -2.34572 
-4.41018 -2.34572 7.57291 
-4.71684 -0.0813712 1.86222 
-0.0813712 -7.75168 -0.74831 
1.86222 -0.74831 5.55932 
-6.46017 1.2058 1.20539 
1.2058 -5.65299 0.747741 
1.20539 0.747741 5.20397 
0.304982 -0.0539593 -3.30442 
-0.0539593 1.61209 -1.52042 
-3.30442 -1.52042 -8.82626 
-9.846 0.0155162 0.0887573 
0.0155162 -9.89327 -0.277783 
0.0887573 -0.277783 -9.93831 
-9.88859 -0.0108988 0.123259 
-0.0108988 -9.88376 -0.302152 
0.123259 -0.302152 -9.90522 
-9.92418 -0.00440382 0.131712 
-0.00440382 -9.92008 -0.311174 
0.131712 -0.311174 -9.83331 
-9.9011 -0.0164577 0.114536 
-0.0164577 -9.8926 -0.292559 
0.114536 -0.292559 -9.88387 
-9.946 0.00526446 0.122654 
0.00526446 -9.947 -0.309141 
0.122654 -0.309141 -9.911 
-9.93801 -0.00722291 0.121753 
-0.00722291 -9.9136 -0.272395 
0.121753 -0.272395 -9.95239 
-9.89698 0.0356303 0.0945352 
0.0356303 -9.9096 -0.257209 
0.0945352 -0.257209 -9.99741 
-9.92193 -0.00523668 0.117212 
-0.00523668 -9.93606 -0.290522 
0.117212 -0.290522 -9.94601 
-10.0496 -0.0288936 0.0314695 
-0.0288936 -9.85709 -0.00687119 
0.0314695 -0.00687119 -9.98736 
-9.99524 -0.0140789 0.0130142 
-0.0140789 -9.95755 0.0104995 
0.0130142 0.0104995 -9.94127 
-9.90576 0.0215183 0.0105473 
0.0215183 -10 -0.0120624 
0.0105473 -0.0120624 -9.9883 
-9.89831 0.0510756 0.0198247 
0.0510756 -10.0866 -0.0973636 
0.0198247 -0.0973636 -9.90916 
-10.0275 0.0547424 -0.0325415 
0.0547424 -9.90336 -0.0636178 
-0.0325415 -0.0636178 -9.8984 
-9.90592 -0.0340528 -0.000496675 
-0.0340528 -9.9622 0.00140222 
-0.000496675 0.00140222 -9.96115 
-10.0291 0.00957732 -0.0902815 
0.00957732 -9.94875 0.0235012 
-0.0902815 0.0235012 -9.85137 
-9.8953 -0.00820807 0.0543962 
-0.00820807 -9.82104 0.0342543 
0.0543962 0.0342543 -10.1129 
-9.97888 -0.00373737 0.103054 
-0.00373737 -9.96738 0.0721403 
0.103054 0.0721403 -9.9479 
-9.9512 8.47953e-05 0.103414 
8.47953e-05 -9.96864 0.0685563 
0.103414 0.0685563 -9.97432 
-9.96257 -0.0131791 0.0973798 
-0.0131791 -9.96699 0.0621759 
0.0973798 0.0621759 -9.9646 
-9.93075 0.00635506 0.111531 
0.00635506 -9.92759 0.07502 
0.111531 0.07502 -10.0358 
-9.92002 -0.00787887 0.0926276 
-0.00787887 -9.90498 0.0581857 
0.0926276 0.0581857 -9.92048 
-9.91968 -0.00444923 0.0936215 
-0.00444923 -9.89993 0.0583674 
0.0936215 0.0583674 -9.92587 
-9.88599 -0.0140977 0.0886094 
-0.0140977 -9.91163 0.0553244 
0.0886094 0.0553244 -9.94786 
-9.90555 -0.0156692 0.0955991 
-0.0156692 -9.94121 0.0535351 
0.0955991 0.0535351 -9.89872 
-5.01265 -0.524799 -1.31925 
-0.524799 -7.04923 3.4248 
-1.31925 3.4248 2.04122 
-6.83391 -0.341119 -1.09528 
-0.341119 -6.09569 -0.983591 
-1.09528 -0.983591 2.90893 
-6.76124 -1.3497 0.614058 
-1.3497 -6.60006 -0.337647 
0.614058 -0.337647 3.34063 
-0.864022 -0.0629915 0.555304 
-0.0629915 -0.994925 3.0952 
0.555304 3.0952 -8.16172 
-7.1302 0.899388 -1.19149 
0.899388 -10.348 1.2249 
-1.19149 1.2249 -5.36036 
-7.77232 0.914811 -1.81148 
0.914811 -8.21307 4.8901 
-1.81148 4.8901 -6.85317 
-9.81835 -1.04012 -2.5626 
-1.04012 -8.27587 6.46503 
-2.5626 6.46503 -4.74433 
-10.1389 -0.902081 -0.335265 
-0.902081 -4.04391 1.90524 
-0.335265 1.90524 -8.65577 
-10.0237 -0.158853 0.025316 
-0.158853 -8.88528 -0.0490107 
0.025316 -0.0490107 -9.85818 
-10.1848 0.211242 -0.529308 
0.211242 -8.88474 -0.338044 
-0.529308 -0.338044 -9.69765 
-9.81042 -0.428622 0.0237541 
-0.428622 -8.85472 -0.535754 
0.0237541 -0.535754 -10.1021 
-9.04247 0.164798 0.159523 
0.164798 -9.97984 -0.64398 
0.159523 -0.64398 -9.7449 
-10.1719 0.618335 -0.118512 
0.618335 -8.39015 -0.423372 
-0.118512 -0.423372 -10.6684 
-8.98099 -0.0692715 -0.552285 
-0.0692715 -10.4133 -1.47944 
-0.552285 -1.47944 -9.83619 
-10.5358 0.387868 -0.0811849 
0.387868 -8.54387 0.614916 
-0.0811849 0.614916 -10.1508 
-9.47667 0.249579 0.153651 
0.249579 -9.06862 0.690868 
0.153651 0.690868 -10.6852 
-5.59326 -0.830674 -0.175899 
-0.830674 -4.26595 -2.82585 
-0.175899 -2.82585 0.7155 
-6.11063 0.771908 1.16087 
0.771908 -3.55763 -0.472207 
1.16087 -0.472207 0.524552 
-6.18434 -0.263356 -0.193057 
-0.263356 -2.7915 -0.501903 
-0.193057 -0.501903 -0.167876 
-3.08549 -0.807753 -1.31839 
-0.807753 -0.596268 -2.24841 
-1.31839 -2.24841 -5.46196 
-7.8396 0.288178 0.811237 
0.288178 -6.99684 -1.62546 
0.811237 -1.62546 -2.71515 
-7.65007 0.128897 1.22468 
0.128897 -7.52092 -0.683812 
1.22468 -0.683812 -2.3806 
-6.96333 -0.386368 1.33646 
-0.386368 -7.80465 -0.75993 
1.33646 -0.75993 -2.78361 
-7.54875 0.532332 0.782913 
0.532332 -6.58188 -0.961145 
0.782913 -0.961145 -3.42096 
-9.91327 0.01982 -0.143369 
0.01982 -9.88366 0.313065 
-0.143369 0.313065 -9.88643 
-9.90851 0.00395153 -0.113123 
0.00395153 -9.89221 0.308443 
-0.113123 0.308443 -9.88265 
-9.90062 0.0335557 -0.143975 
0.0335557 -9.88511 0.295337 
-0.143975 0.295337 -9.89764 
-9.90639 0.00282172 -0.130779 
0.00282172 -9.92259 0.272739 
-0.130779 0.272739 -9.85439 
-9.93464 -0.01357 -0.129782 
-0.01357 -9.92415 0.301722 
-0.129782 0.301722 -9.93256 
-9.9359 0.000119092 -0.142445 
0.000119092 -9.93911 0.301448 
-0.142445 0.301448 -9.91635 
-9.92501 -0.00380113 -0.138746 
-0.00380113 -9.92531 0.307951 
-0.138746 0.307951 -9.94104 
-9.86171 0.0243801 -0.142487 
0.0243801 -9.93054 0.256293 
-0.142487 0.256293 -9.9991 
-9.54863 -0.592178 0.0770774 
-0.592178 -9.95478 0.249954 
0.0770774 0.249954 -10.6787 
-10.3661 -0.145724 -0.528526 
-0.145724 -9.31967 0.392458 
-0.528526 0.392458 -10.4963 
-10.0986 0.345159 0.269703 
0.345159 -9.28951 -0.380621 
0.269703 -0.380621 -10.794 
-9.75743 -0.607318 0.897359 
-0.607318 -10.3616 -0.165237 
0.897359 -0.165237 -10.0631 
-9.07421 -1.32598 -1.09821 
-1.32598 -9.65292 1.01142 
-1.09821 1.01142 -9.95354 
-9.25208 -0.898892 -0.234189 
-0.898892 -9.34204 0.441449 
-0.234189 0.441449 -10.0866 
-10.1634 -1.0095 0.196016 
-1.0095 -8.12104 -0.101758 
0.196016 -0.101758 -10.3962 
-9.2392 -1.45409 0.367405 
-1.45409 -10.1458 0.391064 
0.367405 0.391064 -9.29565 
-10.7558 -0.60898 -0.110136 
-0.60898 -11.3911 -0.355761 
-0.110136 -0.355761 -12.7516 
-9.86399 -0.788492 -0.289438 
-0.788492 -11.0556 -1.00596 
-0.289438 -1.00596 -13.979 
-10.5609 -0.564043 0.320595 
-0.564043 -11.6087 0.219574 
0.320595 0.219574 -12.729 
-12.3926 -1.11419 1.49838 
-1.11419 -12.6577 0.381636 
1.49838 0.381636 -9.84826 
-10.1279 -1.69484 -1.39264 
-1.69484 -9.36828 1.23637 
-1.39264 1.23637 -10.7524 
-3.69189 -2.259 -2.37769 
-2.259 -11.2986 2.47063 
-2.37769 2.47063 -15.2581 
-11.7605 -0.246024 0.586737 
-0.246024 -8.05958 0.942304 
0.586737 0.942304 -10.4285 
-9.94885 -1.25126 -2.05392 
-1.25126 -11.1209 0.688834 
-2.05392 0.688834 -9.17885 
-9.73964 -0.0086965 0.164428 
-0.0086965 -9.7085 0.165081 
0.164428 0.165081 -9.65595 
-9.69237 -0.0282855 0.145348 
-0.0282855 -9.71065 0.121358 
0.145348 0.121358 -9.70107 
-9.80615 -0.0931629 0.137573 
-0.0931629 -9.76286 0.118602 
0.137573 0.118602 -9.53509 
-9.71495 -0.0359613 0.154089 
-0.0359613 -9.7309 0.143109 
0.154089 0.143109 -9.65825 
-9.75208 -0.0646726 0.154298 
-0.0646726 -9.79563 0.137843 
0.154298 0.137843 -9.63133 
-9.74534 -0.0200529 0.181548 
-0.0200529 -9.71797 0.111882 
0.181548 0.111882 -9.71572 
-9.76092 -0.00672864 0.194459 
-0.00672864 -9.72135 0.13937 
0.194459 0.13937 -9.69676 
-9.75815 -0.0288897 0.171092 
-0.0288897 -9.72294 0.12424 
0.171092 0.12424 -9.69795 
-8.12316 -0.665223 -0.464289 
-0.665223 -9.67962 -0.0536342 
-0.464289 -0.0536342 -11.752 
-8.0086 0.565761 -1.53383 
0.565761 -9.75703 -0.715422 
-1.53383 -0.715422 -11.7892 
-10.4296 0.333133 -1.24387 
0.333133 -9.12066 -0.457955 
-1.24387 -0.457955 -10.0045 
-9.70677 -0.0143361 -1.3425 
-0.0143361 -10.4334 -0.0239517 
-1.3425 -0.0239517 -9.41463 
-11.2856 1.4739 -1.03326 
1.4739 -10.5822 0.286243 
-1.03326 0.286243 -11.5786 
-9.42353 0.140886 -0.777825 
0.140886 -10.5755 -0.3247 
-0.777825 -0.3247 -13.4474 
-9.9617 0.468737 -0.25974 
0.468737 -10.9857 -0.188572 
-0.25974 -0.188572 -12.499 
-10.1642 0.747591 0.969612 
0.747591 -10.3336 -0.632854 
0.969612 -0.632854 -12.9486 
-9.5514 -0.0173312 0.275904 
-0.0173312 -9.43703 -0.360156 
0.275904 -0.360156 -9.59732 
-9.49637 -0.0219401 0.288642 
-0.0219401 -9.51991 -0.307687 
0.288642 -0.307687 -9.56949 
-9.52319 -0.0148536 0.322316 
-0.0148536 -9.48976 -0.32298 
0.322316 -0.32298 -9.57281 
-9.51413 -0.152754 0.296493 
-0.152754 -9.45629 -0.355204 
0.296493 -0.355204 -9.61534 
-9.4437 -0.0549098 0.241231 
-0.0549098 -9.45333 -0.337427 
0.241231 -0.337427 -9.58322 
-9.45893 -0.00722202 0.268261 
-0.00722202 -9.50364 -0.273798 
0.268261 -0.273798 -9.51768 
-9.47015 -0.039159 0.232727 
-0.039159 -9.46954 -0.274868 
0.232727 -0.274868 -9.54056 
-9.50453 -0.0161167 0.208915 
-0.0161167 -9.44501 -0.248259 
0.208915 -0.248259 -9.53072 
-9.44485 -0.0390441 0.276139 
-0.0390441 -9.55108 -0.256615 
0.276139 -0.256615 -9.52677 
-9.53809 -0.0316019 0.263348 
-0.0316019 -9.47874 -0.270898 
0.263348 -0.270898 -9.50588 
-9.51325 -0.0461625 0.279784 
-0.0461625 -9.5046 -0.257163 
0.279784 -0.257163 -9.50485 
-9.51491 -0.0676271 0.333979 
-0.0676271 -9.52298 -0.246713 
0.333979 -0.246713 -9.48482 
-9.5052 -0.00494116 0.250419 
-0.00494116 -9.49233 -0.245356 
0.250419 -0.245356 -9.56333 
-9.54186 0.00401397 0.263649 
0.00401397 -9.52737 -0.269858 
0.263649 -0.269858 -9.49163 
-9.52443 0.0041974 0.221362 
0.0041974 -9.53461 -0.261921 
0.221362 -0.261921 -9.50183 
-9.52509 -0.0209552 0.242036 
-0.0209552 -9.50229 -0.252667 
0.242036 -0.252667 -9.53349 
-5.95422 0.737849 -2.45572 
0.737849 -3.60324 -0.951178 
-2.45572 -0.951178 1.06738 
-4.46176 0.565296 1.41556 
0.565296 -5.60378 -0.823806 
1.41556 -0.823806 1.57546 
-4.6894 1.49981 0.536873 
1.49981 -4.77513 0.128959 
0.536873 0.128959 0.974455 
-1.65765 0.283114 -1.35319 
0.283114 -1.81924 -0.267997 
-1.35319 -0.267997 -5.01319 
-6.75473 -0.534812 0.706184 
-0.534812 -5.96239 -0.708645 
0.706184 -0.708645 -1.42178 
-6.6674 0.654748 1.34497 
0.654748 -6.83103 0.906609 
1.34497 0.906609 -0.640468 
-7.92364 -0.0778438 0.135469 
-0.0778438 -5.50566 -0.202824 
0.135469 -0.202824 -0.709595 
-5.6158 0.421258 1.30629 
0.421258 -6.22606 0.555601 
1.30629 0.555601 -2.29704 
-10.1611 0.728513 -1.41989 
0.728513 -8.67097 -1.38594 
-1.41989 -1.38594 -10.8418 
-11.9845 -0.941597 0.477586 
-0.941597 -7.6265 -2.02543 
0.477586 -2.02543 -10.0628 
-9.95154 1.42184 -0.590045 
1.42184 -9.37344 -1.79876 
-0.590045 -1.79876 -10.3488 
-9.32033 1.38014 -0.252728 
1.38014 -8.70033 -3.37823 
-0.252728 -3.37823 -11.6531 
-10.491 0.902074 -0.791206 
0.902074 -8.97741 -1.64142 
-0.791206 -1.64142 -10.8768 
-11.1584 0.965151 -0.329119 
0.965151 -9.20934 -0.948242 
-0.329119 -0.948242 -9.97746 
-10.9953 1.13006 -0.524593 
1.13006 -8.32232 -0.970388 
-0.524593 -0.970388 -11.0276 
-10.7943 -0.144733 -0.3737 
-0.144733 -9.64461 -0.77077 
-0.3737 -0.77077 -9.90634 
-9.57655 0.00591891 -0.32715 
0.00591891 -9.57782 -0.0819181 
-0.32715 -0.0819181 -9.63867 
-9.58499 0.0106962 -0.337055 
0.0106962 -9.57304 -0.0970901 
-0.337055 -0.0970901 -9.63501 
-9.58078 -0.00547515 -0.317801 
-0.00547515 -9.62025 -0.107957 
-0.317801 -0.107957 -9.59201 
-9.56778 0.0076412 -0.315678 
0.0076412 -9.59912 -0.0982706 
-0.315678 -0.0982706 -9.62614 
-9.58521 0.0097858 -0.320045 
0.0097858 -9.5891 -0.148302 
-0.320045 -0.148302 -9.65258 
-9.60534 0.0130266 -0.326865 
0.0130266 -9.62786 -0.134815 
-0.326865 -0.134815 -9.59369 
-9.54596 0.00444758 -0.328153 
0.00444758 -9.59091 -0.147715 
-0.328153 -0.147715 -9.69002 
-9.61868 0.00203578 -0.323001 
0.00203578 -9.56614 -0.132621 
-0.323001 -0.132621 -9.64208 
-9.44923 0.0406281 -0.30897 
0.0406281 -9.55158 -0.0891953 
-0.30897 -0.0891953 -9.56746 
-9.49852 0.0133387 -0.337327 
0.0133387 -9.51756 -0.100538 
-0.337327 -0.100538 -9.55219 
-9.46654 0.0408937 -0.300831 
0.0408937 -9.51172 -0.132011 
-0.300831 -0.132011 -9.59001 
-9.49623 0.00933218 -0.323756 
0.00933218 -9.49403 -0.0822808 
-0.323756 -0.0822808 -9.57802 
-9.39281 0.0977007 -0.20551 
0.0977007 -9.40374 0.0174012 
-0.20551 0.0174012 -9.72703 
-9.41678 0.0891422 -0.282829 
0.0891422 -9.54881 -0.258475 
-0.282829 -0.258475 -9.55799 
-9.35757 0.010633 -0.496583 
0.010633 -9.38338 -0.100273 
-0.496583 -0.100273 -9.78262 
-9.36135 0.0865084 -0.34151 
0.0865084 -9.52235 -0.19412 
-0.34151 -0.19412 -9.63988 
-9.55041 0.0366851 0.0981772 
0.0366851 -9.61221 -0.123607 
0.0981772 -0.123607 -9.83313 
-9.61573 -0.0306573 0.0341567 
-0.0306573 -9.58031 0.0962374 
0.0341567 0.0962374 -9.7997 
-9.56995 0.0367717 0.0581288 
0.0367717 -9.43539 -0.101103 
0.0581288 -0.101103 -9.9904 
-9.6348 -0.0104976 0.110667 
-0.0104976 -9.69359 -0.292662 
0.110667 -0.292662 -9.66735 
-9.70047 -0.0458595 0.056789 
-0.0458595 -9.72395 0.045183 
0.056789 0.045183 -10.044 
-9.68767 0.0524336 0.0219454 
0.0524336 -9.76352 0.0118097 
0.0219454 0.0118097 -10.0173 
-9.73611 0.119674 0.0950397 
0.119674 -9.79092 -0.0864469 
0.0950397 -0.0864469 -9.94139 
-9.65787 0.102715 0.0100741 
0.102715 -9.79994 0.0949882 
0.0100741 0.0949882 -10.0106 
-9.74035 -0.108483 0.0247891 
-0.108483 -9.69424 -0.0581661 
0.0247891 -0.0581661 -9.99777 
-9.73707 0.151324 -0.160399 
0.151324 -9.79376 0.252181 
-0.160399 0.252181 -9.90153 
-9.66179 -0.30877 -0.042557 
-0.30877 -9.57908 0.0476029 
-0.042557 0.0476029 -10.1915 
-9.57234 0.0797219 0.0959268 
0.0797219 -9.77673 -0.196536 
0.0959268 -0.196536 -10.0833 
-9.65148 0.0462515 -0.0285318 
0.0462515 -9.48754 0.119424 
-0.0285318 0.119424 -10.0515 
-9.60994 0.0726058 -0.108918 
0.0726058 -9.70178 0.16979 
-0.108918 0.16979 -9.87877 
-9.7006 -0.0452926 0.0289792 
-0.0452926 -9.59808 -0.117229 
0.0289792 -0.117229 -9.89181 
-9.68187 0.00327483 -0.068096 
0.00327483 -9.76226 0.296795 
-0.068096 0.296795 -9.74637 
-9.97544 -0.00894671 -0.0410357 
-0.00894671 -9.98171 -0.214465 
-0.0410357 -0.214465 -9.94678 
-9.94514 0.00240062 -0.0527036 
0.00240062 -9.99049 -0.222475 
-0.0527036 -0.222475 -9.9683 
-9.95774 -0.0154486 -0.0515719 
-0.0154486 -9.98886 -0.224632 
-0.0515719 -0.224632 -9.95734 
-9.93187 -0.00713787 -0.0653487 
-0.00713787 -9.93804 -0.217971 
-0.0653487 -0.217971 -10.034 
-9.94096 -0.00675723 -0.049238 
-0.00675723 -9.9094 -0.224842 
-0.049238 -0.224842 -9.91306 
-9.91509 0.0021334 -0.0385436 
0.0021334 -9.9284 -0.239278 
-0.0385436 -0.239278 -9.91994 
-9.91756 -0.00528787 -0.053275 
-0.00528787 -9.92719 -0.242176 
-0.053275 -0.242176 -9.91867 
-9.89467 0.010678 -0.050175 
0.010678 -10.0039 -0.221848 
-0.050175 -0.221848 -9.86481 
-9.78162 -0.00860177 0.275444 
-0.00860177 -9.77814 0.203331 
0.275444 0.203331 -9.75488 
-9.77387 0.00728182 0.279026 
0.00728182 -9.79089 0.213786 
0.279026 0.213786 -9.74988 
-9.77577 -0.00254007 0.27846 
-0.00254007 -9.77898 0.212193 
0.27846 0.212193 -9.75988 
-9.74508 0.0191112 0.276765 
0.0191112 -9.77727 0.215242 
0.276765 0.215242 -9.79229 
-9.68765 -0.0152034 0.254328 
-0.0152034 -9.71317 0.162095 
0.254328 0.162095 -9.76727 
-9.73263 0.00619152 0.28478 
0.00619152 -9.73558 0.208162 
0.28478 0.208162 -9.69987 
-9.7337 0.0245717 0.280051 
0.0245717 -9.73605 0.220624 
0.280051 0.220624 -9.69833 
-9.79675 -0.0222081 0.232838 
-0.0222081 -9.80124 0.249409 
0.232838 0.249409 -9.57009 
-9.58194 0.468011 0.33841 
0.468011 -11.4182 -0.442359 
0.33841 -0.442359 -12.8805 
-9.61907 1.72923 1.07346 
1.72923 -10.4209 0.463912 
1.07346 0.463912 -13.8407 
-10.2782 0.503514 -0.159741 
0.503514 -10.1962 -1.2643 
-0.159741 -1.2643 -13.4062 
-11.607 -0.736432 1.27201 
-0.736432 -13.8771 1.47088 
1.27201 1.47088 -8.39651 
-12.1335 -0.55212 1.19867 
-0.55212 -7.13799 1.57893 
1.19867 1.57893 -11.3744 
-8.72038 -1.81821 -2.26414 
-1.81821 -11.3797 -0.278491 
-2.26414 -0.278491 -10.5458 
-0.469488 2.52074 -3.09985 
2.52074 -13.0175 1.52043 
-3.09985 1.52043 -17.1589 
-8.22353 0.249026 -1.6715 
0.249026 -12.6892 -0.847027 
-1.6715 -0.847027 -9.73318 
-9.61043 -0.0418893 -0.22525 
-0.0418893 -9.67686 0.0479725 
-0.22525 0.0479725 -9.9722 
-9.44114 -0.163725 0.044539 
-0.163725 -9.83261 -0.0210011 
0.044539 -0.0210011 -9.98575 
-9.89796 0.063167 -0.109378 
0.063167 -9.6844 0.0128505 
-0.109378 0.0128505 -9.67714 
-9.83212 -0.0771989 -0.157193 
-0.0771989 -9.76073 -0.0729689 
-0.157193 -0.0729689 -9.66664 
-9.87251 -0.235487 -0.0273554 
-0.235487 -9.6448 0.0915598 
-0.0273554 0.0915598 -10.0593 
-9.88475 0.0689024 0.0387861 
0.0689024 -9.79361 0.191403 
0.0387861 0.191403 -9.89823 
-9.68507 -0.0461945 -0.00792903 
-0.0461945 -9.79324 -0.164525 
-0.00792903 -0.164525 -10.0983 
-9.9478 -0.226366 -0.00580518 
-0.226366 -9.69104 -0.00848709 
-0.00580518 -0.00848709 -9.93775 
9.72702 -0.00147049 0.345495 
-0.00147049 9.70515 -0.119125 
0.345495 -0.119125 9.59091 
9.73399 -0.0214776 0.336755 
-0.0214776 9.68471 -0.150118 
0.336755 -0.150118 9.60438 
9.68856 -0.0201724 0.351143 
-0.0201724 9.64774 -0.08347 
0.351143 -0.08347 9.68678 
9.73421 0.00469659 0.313891 
0.00469659 9.79286 -0.0806996 
0.313891 -0.0806996 9.49601 
9.89555 0.0142222 0.109327 
0.0142222 9.54121 0.148211 
0.109327 0.148211 9.07725 
9.74908 -0.0352046 0.143318 
-0.0352046 9.64017 0.296065 
0.143318 0.296065 9.12476 
9.77141 0.0588354 0.0735142 
0.0588354 9.61069 0.0943459 
0.0735142 0.0943459 9.13191 
10.1314 0.0844226 -0.198144 
0.0844226 9.33607 0.578581 
-0.198144 0.578581 9.04656 
9.10537 0.0180178 0.585538 
0.0180178 11.8529 -0.221455 
0.585538 -0.221455 13.242 
8.77739 1.032 0.571602 
1.032 11.631 -0.092966 
0.571602 -0.092966 13.7919 
9.04125 0.142499 1.38502 
0.142499 11.4751 -0.427006 
1.38502 -0.427006 13.684 
8.96402 1.71303 1.59252 
1.71303 12.55 0.42991 
1.59252 0.42991 12.6863 
9.89045 0.00204395 0.125788 
0.00204395 9.9008 0.047288 
0.125788 0.047288 9.82903 
9.91083 0.00537716 0.176791 
0.00537716 9.90437 0.0161999 
0.176791 0.0161999 9.80509 
9.8809 -0.0119086 0.122094 
-0.0119086 9.85987 0.0288711 
0.122094 0.0288711 9.87952 
9.88179 -0.00314889 0.127272 
-0.00314889 9.87083 0.0435277 
0.127272 0.0435277 9.86767 
5.2451 0.563027 4.16758 
0.563027 11.388 0.0731688 
4.16758 0.0731688 4.02595 
8.783 -0.162824 4.36415 
-0.162824 5.68934 1.28447 
4.36415 1.28447 6.1867 
5.73583 0.061365 1.64238 
0.061365 9.01261 1.03857 
1.64238 1.03857 5.9106 
8.62124 -0.272482 1.74437 
-0.272482 7.40263 1.71009 
1.74437 1.71009 4.63517 
11.8646 2.75649 -6.8045 
2.75649 8.31103 3.80597 
-6.8045 3.80597 5.91986 
6.62769 -1.12403 -1.80259 
-1.12403 3.36899 -0.267218 
-1.80259 -0.267218 16.0988 
2.98931 -5.14875 0.664413 
-5.14875 14.6281 -1.65019 
0.664413 -1.65019 8.4781 
8.69115 2.11668 1.28716 
2.11668 15.7595 1.04531 
1.28716 1.04531 1.6449 
11.6547 0.210462 -1.88167 
0.210462 7.39888 -4.18505 
-1.88167 -4.18505 7.77578 
9.75641 1.61483 0.744889 
1.61483 10.2157 -1.47865 
0.744889 -1.47865 6.85728 
9.82045 0.349267 -0.373761 
0.349267 9.54599 -1.50504 
-0.373761 -1.50504 7.46291 
6.96596 -0.459751 1.72387 
-0.459751 7.92868 -0.245969 
1.72387 -0.245969 11.9347 
9.63865 -0.0151826 -0.0460042 
-0.0151826 9.82219 0.039622 
-0.0460042 0.039622 9.84072 
9.69163 -0.00935407 0.0605958 
-0.00935407 9.7302 -0.0701964 
0.0605958 -0.0701964 9.87974 
9.78596 0.0318573 0.0180308 
0.0318573 9.78888 0.0580907 
0.0180308 0.0580907 9.72673 
9.68094 -0.0668737 -0.0519162 
-0.0668737 9.69717 0.00307821 
-0.0519162 0.00307821 9.92346 
11.0059 -0.556126 1.03662 
-0.556126 7.49153 -1.66391 
1.03662 -1.66391 5.77798 
10.3712 -0.302305 1.08188 
-0.302305 7.60616 -2.03342 
1.08188 -2.03342 6.29808 
10.7694 -0.306232 0.199869 
-0.306232 7.2455 -2.09722 
0.199869 -2.09722 6.26055 
11.2696 -1.49664 -0.353449 
-1.49664 7.44776 -0.962271 
-0.353449 -0.962271 5.55807 
6.84711 3.06027 3.79566 
3.06027 7.59596 2.76374 
3.79566 2.76374 7.13537 
9.53769 -3.91984 3.3279 
-3.91984 8.17127 3.59288 
3.3279 3.59288 3.86947 
7.48698 -1.36232 2.20562 
-1.36232 7.82439 -0.096245 
2.20562 -0.096245 6.26707 
8.37191 1.3416 1.95186 
1.3416 8.31305 -0.721825 
1.95186 -0.721825 4.89348 
9.77596 0.0960433 0.0958298 
0.0960433 9.75739 0.28775 
0.0958298 0.28775 9.68919 
9.88144 0.113211 0.156094 
0.113211 9.67268 0.345371 
0.156094 0.345371 9.66841 
9.7472 0.0926178 0.0348838 
0.0926178 9.81576 0.297709 
0.0348838 0.297709 9.65958 
9.71 0.0847255 0.112636 
0.0847255 9.79329 0.216124 
0.112636 0.216124 9.71924 
9.88147 0.0742846 0.00393183 
0.0742846 10.0086 0.182869 
0.00393183 0.182869 9.85804 
10.0161 -0.0675014 0.00577735 
-0.0675014 9.69992 0.100034 
0.00577735 0.100034 10.032 
9.97214 -0.0299383 0.0544555 
-0.0299383 9.76862 0.231165 
0.0544555 0.231165 10.0073 
9.92385 -0.0508928 0.0241893 
-0.0508928 9.82794 0.216291 
0.0241893 0.216291 9.99629 
4.20269 -0.361996 -0.941058 
-0.361996 5.0949 0.537853 
-0.941058 0.537853 -0.114692 
2.66379 -0.0779911 -2.46796 
-0.0779911 2.90346 -1.00013 
-2.46796 -1.00013 3.61564 
2.69978 0.797066 -1.41946 
0.797066 6.1212 0.13467 
-1.41946 0.13467 0.361914 
4.82154 0.929954 -2.71468 
0.929954 4.63289 -0.486193 
-2.71468 -0.486193 -0.271545 
9.70309 0.0892768 0.0388915 
0.0892768 9.75153 -0.0124672 
0.0388915 -0.0124672 9.74553 
9.70355 0.0342306 -0.0411481 
0.0342306 9.68712 0.00620671 
-0.0411481 0.00620671 9.80948 
9.66742 -0.0123006 0.274009 
-0.0123006 9.6727 0.0822312 
0.274009 0.0822312 9.86004 
9.77293 0.0585105 0.0406136 
0.0585105 9.72297 -0.00119302 
0.0406136 -0.00119302 9.70426 
9.74153 0.00273773 0.318785 
0.00273773 9.66773 -0.104402 
0.318785 -0.104402 9.64576 
9.7506 0.0130488 0.307735 
0.0130488 9.66547 -0.0689092 
0.307735 -0.0689092 9.63895 
9.70472 0.00301269 0.317673 
0.00301269 9.66666 -0.0622253 
0.317673 -0.0622253 9.68365 
9.69162 -0.00760244 0.274778 
-0.00760244 9.69451 -0.0769503 
0.274778 -0.0769503 9.66889 
9.60255 0.0026375 0.0483965 
0.0026375 9.59402 0.145021 
0.0483965 0.145021 9.09094 
9.58571 0.0344191 0.210976 
0.0344191 9.59995 0.181581 
0.210976 0.181581 9.10184 
9.4187 -0.0475066 0.180146 
-0.0475066 9.68544 0.133639 
0.180146 0.133639 9.18336 
9.51941 -0.0121313 -0.000814039 
-0.0121313 9.79978 0.182256 
-0.000814039 0.182256 8.96831 
9.67168 0.0311825 -0.00581444 
0.0311825 9.64582 -0.00832744 
-0.00581444 -0.00832744 9.94192 
9.6576 0.0427871 -0.0839697 
0.0427871 9.64749 0.130646 
-0.0839697 0.130646 9.95433 
9.59007 0.0433271 -0.020456 
0.0433271 9.64467 -0.00149719 
-0.020456 -0.00149719 10.0247 
9.63743 0.00689449 -0.149096 
0.00689449 9.64233 0.0909738 
-0.149096 0.0909738 9.97966 
9.91447 0.02715 0.0818687 
0.02715 9.9505 -0.00924253 
0.0818687 -0.00924253 9.84819 
9.93766 0.00334517 0.131441 
0.00334517 9.9325 0.000113082 
0.131441 0.000113082 9.843 
9.90495 0.00948275 0.0825461 
0.00948275 9.92384 -0.0126281 
0.0825461 -0.0126281 9.88437 
9.93853 -0.00781918 0.130165 
-0.00781918 9.93342 0.047748 
0.130165 0.047748 9.84121 
9.74057 -2.04552 1.8012 
-2.04552 10.6677 1.47963 
1.8012 1.47963 9.228 
11.2914 -0.592343 0.582155 
-0.592343 8.93656 0.991556 
0.582155 0.991556 9.40839 
10.0924 -0.850636 -0.375155 
-0.850636 8.76094 0.0105644 
-0.375155 0.0105644 10.7829 
10.7689 -0.92002 0.55173 
-0.92002 9.6658 1.69717 
0.55173 1.69717 9.2016 
9.65159 -0.00185095 -0.0265551 
-0.00185095 9.80268 -0.0460578 
-0.0265551 -0.0460578 9.69172 
9.72892 0.0774295 -0.0614047 
0.0774295 9.72637 -0.0990206 
-0.0614047 -0.0990206 9.6907 
9.73305 0.0516742 -0.0337078 
0.0516742 9.75744 -0.072073 
-0.0337078 -0.072073 9.65551 
9.71318 0.026832 -0.0352118 
0.026832 9.76539 -0.112151 
-0.0352118 -0.112151 9.66742 
11.4082 -1.43515 0.483464 
-1.43515 7.10754 0.497083 
0.483464 0.497083 13.1152 
10.0449 -1.23768 0.832244 
-1.23768 10.0594 1.43528 
0.832244 1.43528 11.5267 
8.53001 -0.673889 -0.398583 
-0.673889 12.2368 0.0806135 
-0.398583 0.0806135 10.8641 
10.5631 -0.0181057 0.717935 
-0.0181057 9.36471 1.90795 
0.717935 1.90795 11.7031 
9.64095 0.0160476 -0.345536 
0.0160476 9.52642 0.106191 
-0.345536 0.106191 9.69387 
9.70504 -0.0853625 -0.370802 
-0.0853625 9.50146 0.172 
-0.370802 0.172 9.65474 
9.56966 -0.0172857 -0.358956 
-0.0172857 9.56882 0.105108 
-0.358956 0.105108 9.72275 
9.53093 -0.0178668 -0.317823 
-0.0178668 9.66735 0.129092 
-0.317823 0.129092 9.66295 
9.57891 0.058542 -0.0266346 
0.058542 9.64215 0.0036899 
-0.0266346 0.0036899 9.90876 
9.60513 0.0536437 0.0219667 
0.0536437 9.63233 0.00144195 
0.0219667 0.00144195 9.89236 
9.69652 -0.0890553 -0.0217912 
-0.0890553 9.58127 0.0452783 
-0.0217912 0.0452783 9.85203 
9.59794 0.0435591 0.176611 
0.0435591 9.6415 -0.0174629 
0.176611 -0.0174629 9.89038 
9.57263 0.0377627 -0.0305006 
0.0377627 9.73642 -0.137864 
-0.0305006 -0.137864 9.58267 
9.61251 0.0449075 -0.0191629 
0.0449075 9.68364 -0.116123 
-0.0191629 -0.116123 9.59557 
9.60357 -0.00331742 -0.0165385 
-0.00331742 9.71351 -0.135216 
-0.0165385 -0.135216 9.57464 
9.5919 0.0320687 -0.0312144 
0.0320687 9.70844 -0.140155 
-0.0312144 -0.140155 9.59138 
9.43319 -0.0209703 0.270593 
-0.0209703 9.25179 0.378281 
0.270593 0.378281 10.1145 
9.49743 -0.004095 0.195758 
-0.004095 9.44801 0.0407972 
0.195758 0.0407972 9.85401 
9.67759 0.0196571 -0.0116213 
0.0196571 9.66515 0.146342 
-0.0116213 0.146342 9.45671 
9.58116 -0.0127868 0.0895775 
-0.0127868 9.41129 -0.272273 
0.0895775 -0.272273 9.807 
9.69844 -0.0246512 0.27203 
-0.0246512 9.66799 0.147678 
0.27203 0.147678 9.63262 
9.68592 0.0236349 0.303638 
0.0236349 9.68488 0.153084 
0.303638 0.153084 9.62825 
9.69328 0.0511942 0.311518 
0.0511942 9.67584 0.154622 
0.311518 0.154622 9.62994 
9.65458 0.0149041 0.326857 
0.0149041 9.69943 0.156361 
0.326857 0.156361 9.64504 
9.88482 -0.00761553 -0.00442005 
-0.00761553 9.86372 0.124541 
-0.00442005 0.124541 9.92616 
9.95031 -0.00525239 -0.0459247 
-0.00525239 9.90634 0.176111 
-0.0459247 0.176111 9.81804 
9.90157 -0.0210983 0.00634982 
-0.0210983 9.88039 0.123307 
0.00634982 0.123307 9.89273 
9.89778 0.0157344 -0.00615647 
0.0157344 9.85049 0.138469 
-0.00615647 0.138469 9.92642 
9.75122 0.00158928 -0.0227001 
0.00158928 9.83277 -0.013939 
-0.0227001 -0.013939 9.8363 
9.75326 -0.00380088 -0.0300377 
-0.00380088 9.83079 -0.019237 
-0.0300377 -0.019237 9.83623 
9.70682 0.00183771 -0.0146591 
0.00183771 9.84973 -0.0312384 
-0.0146591 -0.0312384 9.86374 
9.7217 0.00789619 -0.0158631 
0.00789619 9.81414 -0.0107853 
-0.0158631 -0.0107853 9.88445 
9.69626 -0.0109715 -0.00285292 
-0.0109715 9.76442 0.0217877 
-0.00285292 0.0217877 9.93301 
9.75024 0.0385558 -0.0604077 
0.0385558 9.72509 -0.0233589 
-0.0604077 -0.0233589 9.91837 
9.80237 -0.0286834 0.0441964 
-0.0286834 9.68107 0.0672547 
0.0441964 0.0672547 9.91025 
9.74939 -0.0126792 -0.029342 
-0.0126792 9.73948 0.0102054 
-0.029342 0.0102054 9.90482 
9.98817 -0.448534 0.456535 
-0.448534 9.12325 0.462355 
0.456535 0.462355 8.94916 
9.47487 -0.681629 0.866781 
-0.681629 9.44598 -0.201062 
0.866781 -0.201062 9.13973 
9.87327 -0.532341 0.2955 
-0.532341 9.26472 0.268727 
0.2955 0.268727 8.92257 
8.85567 0.55809 0.303953 
0.55809 9.66531 0.0395844 
0.303953 0.0395844 9.53959 
9.64228 0.907181 0.0795681 
0.907181 12.513 0.509474 
0.0795681 0.509474 12.0126 
9.70275 1.00416 0.163172 
1.00416 12.1399 0.279583 
0.163172 0.279583 12.3252 
9.29205 1.15213 -0.174246 
1.15213 11.3058 -0.135184 
-0.174246 -0.135184 13.5701 
9.84528 1.28313 0.453755 
1.28313 12.7988 0.0591672 
0.453755 0.0591672 11.5238 
8.70121 0.109226 -0.883073 
0.109226 10.0906 0.157959 
-0.883073 0.157959 10.1828 
8.9549 -0.181903 -1.9858 
-0.181903 10.3006 -0.0855596 
-1.9858 -0.0855596 9.7191 
8.98346 0.27389 -1.11082 
0.27389 10.1122 0.225412 
-1.11082 0.225412 9.87897 
9.58643 -0.123466 -0.428535 
-0.123466 9.93964 -0.100684 
-0.428535 -0.100684 9.44854 
9.65564 0.0304875 0.288549 
0.0304875 9.66575 0.129985 
0.288549 0.129985 9.58295 
9.70424 0.0852404 0.264285 
0.0852404 9.62733 0.113921 
0.264285 0.113921 9.57278 
9.71404 0.048862 0.271998 
0.048862 9.63352 0.103675 
0.271998 0.103675 9.55679 
9.73033 0.051695 0.210592 
0.051695 9.56745 0.0947551 
0.210592 0.0947551 9.60657 
9.7052 0.0190934 -0.244268 
0.0190934 9.72426 -0.214135 
-0.244268 -0.214135 9.65353 
9.74586 -0.0315918 -0.226547 
-0.0315918 9.65445 -0.170492 
-0.226547 -0.170492 9.68268 
9.72659 0.0325865 -0.247954 
0.0325865 9.72026 -0.192871 
-0.247954 -0.192871 9.63614 
9.73564 0.00989714 -0.243767 
0.00989714 9.71701 -0.192011 
-0.243767 -0.192011 9.63035 
8.74261 0.319251 0.301374 
0.319251 9.74461 -0.0491291 
0.301374 -0.0491291 10.4263 
8.46362 0.0625468 0.539771 
0.0625468 9.9947 -0.15443 
0.539771 -0.15443 10.4552 
9.00263 -0.384131 0.0489586 
-0.384131 9.69662 -0.0284909 
0.0489586 -0.0284909 10.2143 
8.58714 0.648832 0.30796 
0.648832 9.5081 0.118508 
0.30796 0.118508 10.8183 
9.94269 -0.0375066 -0.299849 
-0.0375066 9.74394 -0.368282 
-0.299849 -0.368282 10.1876 
9.54478 0.0180768 0.432018 
0.0180768 9.53291 0.298571 
0.432018 0.298571 10.7965 
9.38211 0.201655 -0.278995 
0.201655 9.97421 -0.140731 
-0.278995 -0.140731 10.5179 
8.89742 -0.732236 -0.197965 
-0.732236 9.60243 0.2528 
-0.197965 0.2528 11.3744 
9.50679 0.261139 0.352173 
0.261139 10.6473 0.958595 
0.352173 0.958595 9.92074 
10.575 -0.34529 0.84881 
-0.34529 10.1786 0.866972 
0.84881 0.866972 9.32115 
10.3894 0.12775 0.576594 
0.12775 10.2975 1.07096 
0.576594 1.07096 9.38798 
10.4408 0.333591 0.347262 
0.333591 9.91714 1.73675 
0.347262 1.73675 9.7169 
9.52457 0.00564948 0.00429028 
0.00564948 9.65383 0.0397849 
0.00429028 0.0397849 9.90686 
9.58221 0.030058 -0.0380011 
0.030058 9.6064 -0.112147 
-0.0380011 -0.112147 9.89666 
9.58704 0.0383433 0.0109076 
0.0383433 9.64239 0.0483348 
0.0109076 0.0483348 9.85584 
9.55966 0.0214548 -0.101456 
0.0214548 9.62783 -0.0869839 
-0.101456 -0.0869839 9.89778 
9.31276 -0.567772 0.503866 
-0.567772 9.20112 -0.08782 
0.503866 -0.08782 10.2357 
9.20847 -0.231256 0.422751 
-0.231256 9.08554 -0.328413 
0.422751 -0.328413 10.4556 
9.13409 -0.314271 0.638316 
-0.314271 9.17741 -0.12733 
0.638316 -0.12733 10.4381 
9.49149 -0.114128 0.324551 
-0.114128 9.70428 -0.349533 
0.324551 -0.349533 9.55381 
9.77066 0.00374984 0.280337 
0.00374984 9.73683 0.166522 
0.280337 0.166522 9.73368 
9.78038 0.00919352 0.266372 
0.00919352 9.765 0.175719 
0.266372 0.175719 9.6958 
9.76414 0.0141884 0.279289 
0.0141884 9.75285 0.161534 
0.279289 0.161534 9.72419 
9.72148 0.00370044 0.234406 
0.00370044 9.71281 0.196422 
0.234406 0.196422 9.80689 
9.51481 0.19747 0.0473662 
0.19747 9.33565 -0.182554 
0.0473662 -0.182554 9.72886 
9.68307 -0.143068 0.138081 
-0.143068 9.25193 0.241972 
0.138081 0.241972 9.64431 
9.43686 -0.0903105 0.231012 
-0.0903105 9.42702 0.0912173 
0.231012 0.0912173 9.71544 
9.65501 -0.184221 0.510209 
-0.184221 9.91234 0.123529 
0.510209 0.123529 9.01197 
9.5555 0.0875145 0.0709386 
0.0875145 10.1633 1.08832 
0.0709386 1.08832 8.95202 
10.0862 -0.00768486 -0.423911 
-0.00768486 9.82885 1.97403 
-0.423911 1.97403 8.75576 
10.0533 0.317995 -0.938884 
0.317995 10.4868 1.07193 
-0.938884 1.07193 8.13073 
7.47531 -0.239292 1.52348 
-0.239292 11.53 -0.2446 
1.52348 -0.2446 9.66556 
9.52762 0.0330911 -0.317705 
0.0330911 9.55398 0.0679045 
-0.317705 0.0679045 9.84 
9.75644 -0.0407137 -0.304819 
-0.0407137 9.43744 0.234228 
-0.304819 0.234228 9.72772 
9.76705 -0.113371 -0.364484 
-0.113371 9.53987 0.241683 
-0.364484 0.241683 9.61468 
9.57168 0.291295 -0.566294 
0.291295 9.48572 0.378025 
-0.566294 0.378025 9.8642 
9.60584 -0.0162039 0.0966819 
-0.0162039 9.67526 0.0418869 
0.0966819 0.0418869 9.72011 
9.72521 0.0360931 0.19367 
0.0360931 9.81745 0.146254 
0.19367 0.146254 9.45854 
9.70672 0.0107033 0.039131 
0.0107033 9.6729 0.0573233 
0.039131 0.0573233 9.62158 
9.65868 0.20163 -0.0398633 
0.20163 9.9612 -0.0584881 
-0.0398633 -0.0584881 9.38132 
9.75726 -0.0850061 -0.120508 
-0.0850061 9.78779 0.0995112 
-0.120508 0.0995112 9.20605 
9.71972 -0.161557 0.0801231 
-0.161557 9.66439 -0.0213799 
0.0801231 -0.0213799 9.367 
9.66695 -0.0470557 -0.0284342 
-0.0470557 9.70234 0.173654 
-0.0284342 0.173654 9.38181 
9.73903 -0.128224 -0.038315 
-0.128224 9.63551 -0.00413047 
-0.038315 -0.00413047 9.37656 
8.45402 -0.0375785 -2.88083 
-0.0375785 10.3554 1.92193 
-2.88083 1.92193 7.41613 
8.69009 0.984955 -0.760727 
0.984955 8.86584 1.36962 
-0.760727 1.36962 8.66965 
9.63623 1.23354 -0.361747 
1.23354 9.51848 0.676468 
-0.361747 0.676468 7.07087 
10.0053 1.85673 -0.824136 
1.85673 8.02799 1.24005 
-0.824136 1.24005 8.19233 
9.84038 -0.00503415 0.180528 
-0.00503415 9.86931 0.0342717 
0.180528 0.0342717 9.93955 
9.91292 0.00133441 0.13964 
0.00133441 9.94052 0.0478727 
0.13964 0.0478727 9.7958 
9.88671 -0.00690179 0.171722 
-0.00690179 9.89834 -0.00449856 
0.171722 -0.00449856 9.86419 
9.88229 -0.0332169 0.256131 
-0.0332169 9.85253 0.0687839 
0.256131 0.0687839 9.91442 
9.69415 -0.0161764 0.114156 
-0.0161764 9.28977 0.0276483 
0.114156 0.0276483 9.70481 
9.44355 0.188911 0.0911649 
0.188911 9.95617 0.151697 
0.0911649 0.151697 9.28902 
9.25503 0.239849 0.0393935 
0.239849 10.0194 -0.180471 
0.0393935 -0.180471 9.41426 
9.50722 0.129702 0.300177 
0.129702 9.7185 -0.0672355 
0.300177 -0.0672355 9.46302 
8.33173 0.930006 0.0403227 
0.930006 11.4448 0.501353 
0.0403227 0.501353 14.1445 
8.63957 0.886094 -0.109332 
0.886094 12.612 -0.174455 
-0.109332 -0.174455 12.6695 
10.1376 1.01501 -0.201372 
1.01501 10.4587 0.388302 
-0.201372 0.388302 13.3247 
9.59059 0.799243 0.0842429 
0.799243 11.1624 -0.153589 
0.0842429 -0.153589 13.1681 
9.54103 0.0381498 -0.0664555 
0.0381498 9.6528 -0.0421882 
-0.0664555 -0.0421882 10.2825 
9.60095 -0.049447 -0.0532859 
-0.049447 9.5685 -0.0713102 
-0.0532859 -0.0713102 10.3069 
9.48677 -0.107161 -0.058962 
-0.107161 9.74127 -0.00722844 
-0.058962 -0.00722844 10.2483 
9.54927 -0.109556 0.0532937 
-0.109556 9.62128 -0.00982379 
0.0532937 -0.00982379 10.3058 
9.74003 0.0695521 -0.0366854 
0.0695521 9.82015 -0.0249639 
-0.0366854 -0.0249639 9.74868 
9.74855 0.00159595 -0.0667161 
0.00159595 9.72715 -0.0405475 
-0.0667161 -0.0405475 9.83315 
9.75805 0.0423202 -0.0241835 
0.0423202 9.72054 0.0130269 
-0.0241835 0.0130269 9.83027 
9.75394 0.0640589 0.0107077 
0.0640589 9.77772 -0.0416951 
0.0107077 -0.0416951 9.77719 
9.08786 -0.128137 -0.29493 
-0.128137 9.54183 -0.481674 
-0.29493 -0.481674 10.4243 
9.56035 -0.00478582 -0.329234 
-0.00478582 9.63854 0.206405 
-0.329234 0.206405 9.85506 
9.62753 0.0952694 0.121618 
0.0952694 9.6969 -0.213502 
0.121618 -0.213502 9.72951 
9.9123 0.0377381 0.235434 
0.0377381 9.30854 -0.276291 
0.235434 -0.276291 9.8331 
9.74281 0.0190101 0.248203 
0.0190101 9.73207 0.145726 
0.248203 0.145726 9.69376 
9.73089 0.055775 0.252324 
0.055775 9.69974 0.184367 
0.252324 0.184367 9.738 
9.78138 0.036289 0.229472 
0.036289 9.72977 0.150273 
0.229472 0.150273 9.65748 
9.78021 0.00786204 0.221321 
0.00786204 9.71214 0.12367 
0.221321 0.12367 9.67628 
9.26101 -0.053952 0.211103 
-0.053952 10.0827 0.0304702 
0.211103 0.0304702 10.7755 
9.3933 -0.382293 -0.281512 
-0.382293 9.62298 -0.121014 
-0.281512 -0.121014 11.1029 
9.62179 -0.0159652 0.144638 
-0.0159652 9.55771 -0.0806994 
0.144638 -0.0806994 10.9397 
7.64718 0.544207 0.489341 
0.544207 10.5602 -0.134979 
0.489341 -0.134979 11.9118 
10.0095 -0.00357017 -0.00718719 
-0.00357017 10.0233 -0.0257343 
-0.00718719 -0.0257343 9.99797 
9.98877 -0.00569948 0.00699571 
-0.00569948 10.0233 -0.0381468 
0.00699571 -0.0381468 10.0187 
10.0579 -0.00783641 -0.0479129 
-0.00783641 10.0231 0.00217766 
-0.0479129 0.00217766 9.94979 
10.0526 -0.00352896 -0.0481766 
-0.00352896 10.029 -0.040805 
-0.0481766 -0.040805 9.94915 
9.72186 0.0075244 -0.00828367 
0.0075244 9.79437 -0.0692245 
-0.00828367 -0.0692245 9.83761 
9.69138 0.0227772 -0.0150566 
0.0227772 9.81911 0.0186959 
-0.0150566 0.0186959 9.84334 
9.78872 0.0178859 -0.0284186 
0.0178859 9.7692 0.0228179 
-0.0284186 0.0228179 9.79591 
9.72812 0.0640662 0.017433 
0.0640662 9.83026 -0.0777947 
0.017433 -0.0777947 9.79545 
9.927 -0.0735722 0.136911 
-0.0735722 9.7649 -0.0412728 
0.136911 -0.0412728 9.54205 
9.72462 -0.0319383 0.0662669 
-0.0319383 9.70529 -0.16634 
0.0662669 -0.16634 9.80405 
9.75247 -0.0252922 0.126516 
-0.0252922 9.80158 -0.168928 
0.126516 -0.168928 9.67991 
9.73196 -0.0297816 0.13849 
-0.0297816 9.80067 -0.170016 
0.13849 -0.170016 9.70132 
9.99839 -0.454152 0.856484 
-0.454152 9.34257 1.10598 
0.856484 1.10598 8.95879 
9.77179 0.622122 -0.28831 
0.622122 9.33485 -0.230065 
-0.28831 -0.230065 9.19311 
8.95196 -0.39411 0.540311 
-0.39411 9.40515 0.273029 
0.540311 0.273029 9.94263 
9.47223 -0.256249 0.437482 
-0.256249 9.30311 0.454902 
0.437482 0.454902 9.52441 
8.22168 -1.27215 -1.8037 
-1.27215 9.76614 0.0171474 
-1.8037 0.0171474 11.0299 
9.33923 0.172513 -0.68884 
0.172513 9.92977 -0.913154 
-0.68884 -0.913154 9.74868 
8.91784 -0.000283251 -1.15823 
-0.000283251 10.1512 -0.411528 
-1.15823 -0.411528 9.94864 
8.35619 0.244819 -0.682643 
0.244819 9.78219 0.163872 
-0.682643 0.163872 10.8793 
9.96079 -0.0531703 -0.0475112 
-0.0531703 9.95736 0.0808028 
-0.0475112 0.0808028 9.97136 
10.0127 0.0556834 -0.00530368 
0.0556834 9.98557 0.0587875 
-0.00530368 0.0587875 9.8912 
9.96261 0.0493893 0.0175791 
0.0493893 9.9826 0.121564 
0.0175791 0.121564 9.9443 
10.0118 -0.0688159 -0.0511229 
-0.0688159 10.0022 0.143664 
-0.0511229 0.143664 9.8755 
9.70364 -0.0609933 -0.0144291 
-0.0609933 9.62914 -0.034799 
-0.0144291 -0.034799 9.77517 
9.66022 -0.0257245 0.0373846 
-0.0257245 9.65349 -0.00109329 
0.0373846 -0.00109329 9.79423 
9.59935 -0.0145964 -0.0358249 
-0.0145964 9.59813 0.0106104 
-0.0358249 0.0106104 9.91046 
9.6039 0.180636 0.20862 
0.180636 9.64439 -0.212842 
0.20862 -0.212842 9.85966 
9.76967 0.018909 0.160738 
0.018909 9.82098 -0.0957534 
0.160738 -0.0957534 9.80649 
9.77429 0.12826 0.24356 
0.12826 9.67613 -0.0874271 
0.24356 -0.0874271 9.94671 
9.74208 0.00469152 0.132697 
0.00469152 9.8282 -0.058199 
0.132697 -0.058199 9.82686 
9.74161 0.0419034 0.178838 
0.0419034 9.83301 -0.0914377 
0.178838 -0.0914377 9.82251 
10.2879 0.066383 -0.220224 
0.066383 9.4177 -0.473468 
-0.220224 -0.473468 9.14007 
9.81745 -0.101783 0.173488 
-0.101783 9.64718 -0.0915572 
0.173488 -0.0915572 9.38104 
9.59086 -0.0701137 0.085669 
-0.0701137 9.8053 -0.032554 
0.085669 -0.032554 9.44951 
9.75734 -0.0170898 0.103285 
-0.0170898 9.39625 -0.114766 
0.103285 -0.114766 9.69209 
10.0946 -0.0121094 0.0156577 
-0.0121094 10.0739 0.00707959 
0.0156577 0.00707959 9.95821 
10.0176 0.026356 -0.00688454 
0.026356 10.1039 0.00894161 
-0.00688454 0.00894161 10.0052 
10.0863 -0.0462811 0.0383812 
-0.0462811 10.0339 -0.00617768 
0.0383812 -0.00617768 10.0065 
10.0476 0.0730901 -0.0323446 
0.0730901 10.1008 -0.127104 
-0.0323446 -0.127104 9.97821 
10.0124 0.0130033 -0.00841572 
0.0130033 10.102 -0.0376684 
-0.00841572 -0.0376684 9.97935 
10.0782 -5.25863e-05 0.0142175 
-5.25863e-05 10.0576 -0.0323424 
0.0142175 -0.0323424 9.95799 
10.0894 0.00358613 0.0246288 
0.00358613 10.0337 -0.0290111 
0.0246288 -0.0290111 9.9706 
10.0144 -0.0324459 0.0210797 
-0.0324459 10.0956 0.0779227 
0.0210797 0.0779227 9.98369 
9.68797 0.0161018 0.0999713 
0.0161018 9.68766 0.194869 
0.0999713 0.194869 9.65557 
9.6064 0.0233985 0.125482 
0.0233985 9.72201 0.178406 
0.125482 0.178406 9.70278 
9.63891 0.0268472 0.187824 
0.0268472 9.64752 0.245465 
0.187824 0.245465 9.74476 
9.69923 0.0762776 0.0588 
0.0762776 9.73295 0.244155 
0.0588 0.244155 9.59902 
9.0958 -1.94888 -2.09929 
-1.94888 6.12783 1.55128 
-2.09929 1.55128 4.75952 
6.79794 -0.0412025 -2.03773 
-0.0412025 7.11735 -0.456241 
-2.03773 -0.456241 6.06784 
7.40671 -0.146037 -4.13114 
-0.146037 13.327 -0.119584 
-4.13114 -0.119584 -0.750594 
8.98119 0.195475 1.4252 
0.195475 4.99491 0.294753 
1.4252 0.294753 6.00705 
7.40956 0.846645 1.77837 
0.846645 10.4815 -0.0566624 
1.77837 -0.0566624 8.3337 
7.98836 0.33979 1.65603 
0.33979 8.79948 -0.55239 
1.65603 -0.55239 9.43688 
8.48622 0.0576938 2.54653 
0.0576938 9.77369 0.350124 
2.54653 0.350124 7.96482 
7.69819 0.153337 0.459147 
0.153337 11.1797 0.46143 
0.459147 0.46143 7.34683 
11.1275 -0.288243 -0.33395 
-0.288243 12.2361 -0.110572 
-0.33395 -0.110572 11.1388 
11.4592 0.494602 -0.681603 
0.494602 12.2988 -0.045246 
-0.681603 -0.045246 10.7443 
10.5255 -0.757381 1.34472 
-0.757381 9.6228 0.301582 
1.34472 0.301582 14.354 
8.69747 -1.45386 -0.806537 
-1.45386 12.2564 -1.17308 
-0.806537 -1.17308 13.5485 
9.94247 -0.0422038 0.252227 
-0.0422038 9.77172 0.0938281 
0.252227 0.0938281 9.40715 
9.69782 -0.0603642 0.0736968 
-0.0603642 9.7141 0.095147 
0.0736968 0.095147 9.70943 
9.76626 0.0497597 0.0938482 
0.0497597 9.79461 0.0725678 
0.0938482 0.0725678 9.56048 
10.5757 -0.0561821 -0.369287 
-0.0561821 9.21927 0.164789 
-0.369287 0.164789 9.32637 
8.96674 -0.193528 -0.861768 
-0.193528 9.87283 -0.412368 
-0.861768 -0.412368 10.6245 
8.74122 -0.291185 -2.34777 
-0.291185 11.0636 -0.312201 
-2.34777 -0.312201 9.65932 
8.55961 -0.12732 -0.888647 
-0.12732 10.7287 -0.362976 
-0.888647 -0.362976 10.1758 
10.2146 -0.156056 0.00874629 
-0.156056 9.52288 -0.131299 
0.00874629 -0.131299 9.72662 
9.81299 0.0623201 -0.0923581 
0.0623201 9.76882 -0.297248 
-0.0923581 -0.297248 9.15803 
9.84856 -0.0859555 0.306775 
-0.0859555 9.45353 -0.180789 
0.306775 -0.180789 9.43775 
9.76639 -0.0797043 0.262428 
-0.0797043 9.57586 -0.116651 
0.262428 -0.116651 9.39758 
9.66697 -0.00799526 0.220516 
-0.00799526 9.46326 -0.124822 
0.220516 -0.124822 9.6096 
8.20399 2.67295 -2.52504 
2.67295 10.4142 -0.186103 
-2.52504 -0.186103 9.70035 
10.3022 -3.3179 -0.113027 
-3.3179 11.2914 1.52974 
-0.113027 1.52974 6.72502 
7.40579 -2.20113 -0.629937 
-2.20113 8.2144 -1.41866 
-0.629937 -1.41866 12.6984 
7.221 2.77161 -2.71264 
2.77161 11.0644 1.68548 
-2.71264 1.68548 10.0331 
9.35073 0.14812 1.12103 
0.14812 10.3266 0.336055 
1.12103 0.336055 8.52148 
9.4555 0.275972 0.412358 
0.275972 9.69692 0.163809 
0.412358 0.163809 9.04637 
9.34566 -0.0651412 0.130819 
-0.0651412 9.62179 0.334234 
0.130819 0.334234 9.23133 
9.51573 0.325376 0.0853568 
0.325376 9.62592 -0.0285637 
0.0853568 -0.0285637 9.05713 
13.3582 1.97434 6.94798 
1.97434 13.0916 1.20477 
6.94798 1.20477 -2.32803 
3.37665 0.46855 -4.15485 
0.46855 3.13725 -1.59507 
-4.15485 -1.59507 17.6079 
15.2864 0.630968 6.68044 
0.630968 12.7117 3.38201 
6.68044 3.38201 -3.87634 
-8.51917 -7.16907 10.6608 
-7.16907 9.62967 3.46012 
10.6608 3.46012 23.0113 
9.75081 0.159852 0.471096 
0.159852 10.2114 1.28716 
0.471096 1.28716 9.34224 
10.317 0.0996997 0.372256 
0.0996997 10.5036 0.752454 
0.372256 0.752454 8.48389 
10.4114 -0.0659177 1.11553 
-0.0659177 10.1227 1.1512 
1.11553 1.1512 8.77039 
10.4335 -0.384514 1.10414 
-0.384514 9.95698 1.36511 
1.10414 1.36511 8.91402 
10.2664 -0.0470423 -0.129188 
-0.0470423 8.90833 0.108845 
-0.129188 0.108845 10.5163 
10.3473 -0.341314 -0.161591 
-0.341314 8.79723 0.738167 
-0.161591 0.738167 10.5465 
9.50005 0.147097 0.383758 
0.147097 10.3946 -0.911433 
0.383758 -0.911433 9.79637 
10.5945 0.0632102 -0.256215 
0.0632102 8.58211 -0.640718 
-0.256215 -0.640718 10.5144 
9.64436 -0.0284364 -0.238068 
-0.0284364 9.56303 -0.0452876 
-0.238068 -0.0452876 9.75017 
9.66151 0.0102381 0.0934946 
0.0102381 9.53508 0.00625833 
0.0934946 0.00625833 9.76097 
9.72295 -0.0477555 0.133872 
-0.0477555 9.58152 0.0395531 
0.133872 0.0395531 9.65308 
9.67085 -0.0557374 0.123486 
-0.0557374 9.41659 -0.0644787 
0.123486 -0.0644787 9.87012 
9.8288 -0.38184 0.745988 
-0.38184 9.53459 0.897554 
0.745988 0.897554 8.95376 
9.6018 -0.243795 0.0842728 
-0.243795 8.97685 0.473686 
0.0842728 0.473686 9.73851 
9.358 0.274581 0.0127916 
0.274581 9.8565 -0.18461 
0.0127916 -0.18461 9.10265 
9.49446 -0.223564 0.28601 
-0.223564 9.20858 0.395936 
0.28601 0.395936 9.61412 
9.81159 -0.118991 -0.111359 
-0.118991 9.7052 0.0796269 
-0.111359 0.0796269 9.59225 
9.86747 -0.101972 -0.0602248 
-0.101972 9.67604 0.0387505 
-0.0602248 0.0387505 9.56552 
9.81504 -0.066469 -0.202704 
-0.066469 9.65348 0.0388173 
-0.202704 0.0388173 9.64051 
9.67634 -0.0444644 -0.149111 
-0.0444644 9.73874 0.0368497 
-0.149111 0.0368497 9.69395 
0.794866 0.246699 -4.04089 
0.246699 4.05953 -0.941285 
-4.04089 -0.941285 5.53453 
6.99769 1.11613 3.20844 
1.11613 6.59095 0.667246 
3.20844 0.667246 -3.19972 
7.82115 -2.02186 2.13782 
-2.02186 2.69756 -0.927986 
2.13782 -0.927986 -0.129786 
7.39602 0.973788 -0.911625 
0.973788 3.92443 2.34587 
-0.911625 2.34587 -0.931528 
9.87158 0.413785 0.600929 
0.413785 8.49409 -0.80115 
0.600929 -0.80115 9.97877 
9.67951 -0.16968 0.138006 
-0.16968 8.77031 -0.447245 
0.138006 -0.447245 9.89462 
9.59283 0.0841168 0.601276 
0.0841168 8.72521 -0.519427 
0.601276 -0.519427 10.0264 
8.83429 -0.0621063 0.44367 
-0.0621063 10.0747 -0.256358 
0.44367 -0.256358 9.43547 
9.78779 -0.0177037 0.00287093 
-0.0177037 9.76818 0.0459858 
0.00287093 0.0459858 9.90754 
9.77673 0.0328218 0.00524567 
0.0328218 9.8021 -0.0434003 
0.00524567 -0.0434003 9.88467 
9.79467 -0.0109314 -0.0158315 
-0.0109314 9.84119 0.0427653 
-0.0158315 0.0427653 9.82764 
9.76644 -0.00771955 -0.0220113 
-0.00771955 9.73914 0.102507 
-0.0220113 0.102507 9.95792 
9.60411 -0.00756789 0.305037 
-0.00756789 9.6308 0.171871 
0.305037 0.171871 9.62554 
9.5744 -0.00499111 0.315058 
-0.00499111 9.60545 0.179088 
0.315058 0.179088 9.68059 
9.59974 0.00181234 0.316841 
0.00181234 9.63358 0.174929 
0.316841 0.174929 9.62714 
9.58833 -0.00713959 0.325713 
-0.00713959 9.66471 0.163381 
0.325713 0.163381 9.60741 
9.57072 -0.0112236 -0.257858 
-0.0112236 9.67931 -0.261857 
-0.257858 -0.261857 9.6523 
9.69045 0.00745536 -0.20761 
0.00745536 9.60366 -0.238845 
-0.20761 -0.238845 9.60822 
9.68457 -0.00989286 -0.286867 
-0.00989286 9.71122 -0.200993 
-0.286867 -0.200993 9.50654 
9.71139 -0.0327636 -0.276096 
-0.0327636 9.62832 -0.22493 
-0.276096 -0.22493 9.56262 
9.89399 0.0110639 0.101086 
0.0110639 9.89227 -0.10065 
0.101086 -0.10065 9.90185 
9.92143 0.00704044 0.125902 
0.00704044 9.90651 -0.0917427 
0.125902 -0.0917427 9.86017 
9.95331 0.0107519 0.0957319 
0.0107519 9.87337 -0.0950767 
0.0957319 -0.0950767 9.86143 
9.89831 0.0185546 0.0951389 
0.0185546 9.8952 -0.0873338 
0.0951389 -0.0873338 9.8946 
9.64117 0.0279004 -0.00323005 
0.0279004 9.67481 0.020258 
-0.00323005 0.020258 9.58863 
9.62146 0.0626166 0.0427609 
0.0626166 9.65153 -0.01636 
0.0427609 -0.01636 9.63162 
9.64228 0.0612071 0.0539341 
0.0612071 9.65409 -0.0363041 
0.0539341 -0.0363041 9.60824 
9.75237 0.0544182 -0.0508533 
0.0544182 9.63953 0.061282 
-0.0508533 0.061282 9.5127 
10.0021 2.56086 -5.84306 
2.56086 11.0284 4.84083 
-5.84306 4.84083 0.642368 
5.21848 2.56892 -1.53172 
2.56892 7.4664 2.72445 
-1.53172 2.72445 8.98792 
8.76351 0.285231 -2.6798 
0.285231 7.09432 1.50131 
-2.6798 1.50131 5.81497 
10.1625 -0.405064 -0.00661988 
-0.405064 7.27305 0.879137 
-0.00661988 0.879137 4.2372 
9.89088 0.015418 -0.00945732 
0.015418 9.87708 0.128931 
-0.00945732 0.128931 9.93848 
9.91213 0.0231841 -0.02021 
0.0231841 9.89742 0.12189 
-0.02021 0.12189 9.89689 
9.95272 0.0267833 0.00875777 
0.0267833 9.91342 0.173963 
0.00875777 0.173963 9.8403 
9.9107 0.00580955 -0.00736709 
0.00580955 9.86891 0.129331 
-0.00736709 0.129331 9.92682 
9.41578 -0.0436421 0.190142 
-0.0436421 9.67145 0.00796451 
0.190142 0.00796451 10.4566 
9.22535 0.0854046 0.209838 
0.0854046 10.0224 0.0649664 
0.209838 0.0649664 10.296 
9.44012 0.12802 0.232776 
0.12802 9.68367 -0.0430784 
0.232776 -0.0430784 10.42 
9.3896 0.0321674 0.184418 
0.0321674 9.72971 0.0472875 
0.184418 0.0472875 10.4245 
9.89333 -0.00433368 -0.126667 
-0.00433368 9.91841 -0.0590881 
-0.126667 -0.0590881 9.90599 
9.89356 0.0043938 -0.13993 
0.0043938 9.90998 -0.0594304 
-0.13993 -0.0594304 9.91419 
9.88808 -0.0182686 -0.133012 
-0.0182686 9.94909 -0.103164 
-0.133012 -0.103164 9.88057 
9.94681 -0.0257971 -0.134014 
-0.0257971 9.87409 -0.0590282 
-0.134014 -0.0590282 9.89683 
10.0092 -0.0101311 0.00493618 
-0.0101311 10.0126 -0.0652453 
0.00493618 -0.0652453 9.95695 
10.0126 0.000794953 0.0395005 
0.000794953 10.0123 0.0218425 
0.0395005 0.0218425 9.95378 
10.0025 -0.0243908 0.00210106 
-0.0243908 10.0054 -0.0464635 
0.00210106 -0.0464635 9.97082 
10.0222 -0.00166571 -0.00802581 
-0.00166571 10.0007 0.0107612 
-0.00802581 0.0107612 9.95576 
9.9381 0.00678467 -0.0272882 
0.00678467 9.91857 0.0812357 
-0.0272882 0.0812357 9.95408 
9.95166 -0.0308128 -0.0590988 
-0.0308128 10.0112 0.125456 
-0.0590988 0.125456 9.84786 
9.949 0.0103769 -0.0280034 
0.0103769 9.93201 0.068133 
-0.0280034 0.068133 9.92974 
9.96048 0.00109249 -0.00355242 
0.00109249 9.9923 0.126505 
-0.00355242 0.126505 9.85797 
9.67581 -0.00735843 0.145202 
-0.00735843 9.69438 -0.272074 
0.145202 -0.272074 9.66801 
9.70344 -0.0194666 0.194556 
-0.0194666 9.69542 -0.278236 
0.194556 -0.278236 9.63934 
9.70318 -0.0249129 0.194495 
-0.0249129 9.69978 -0.270668 
0.194495 -0.270668 9.63524 
9.69692 -0.0017515 0.189069 
-0.0017515 9.71355 -0.29305 
0.189069 -0.29305 9.62773 
18.4225 -1.24818 2.47079 
-1.24818 9.56764 3.08721 
2.47079 3.08721 4.62251 
8.83507 1.04937 -1.39359 
1.04937 3.6817 -1.14482 
-1.39359 -1.14482 20.0959 
9.86207 3.69599 -1.60233 
3.69599 4.75249 -1.1707 
-1.60233 -1.1707 17.9981 
7.79226 1.48143 2.60058 
1.48143 13.086 -5.33025 
2.60058 -5.33025 11.7344 
9.87192 0.132002 0.187909 
0.132002 9.56033 0.0776878 
0.187909 0.0776878 9.28976 
9.84319 0.0912898 0.24042 
0.0912898 9.61271 0.0157574 
0.24042 0.0157574 9.26611 
9.84653 0.00874167 0.409149 
0.00874167 9.59905 0.160764 
0.409149 0.160764 9.27643 
9.59224 0.0890666 0.197789 
0.0890666 9.63309 0.111949 
0.197789 0.111949 9.49667 
8.1083 -0.956595 -2.12077 
-0.956595 10.9589 0.0198664 
-2.12077 0.0198664 11.8147 
9.17027 -1.48765 0.706564 
-1.48765 9.38926 -1.25164 
0.706564 -1.25164 12.3224 
9.72018 -0.502025 -0.303586 
-0.502025 9.69712 -1.69215 
-0.303586 -1.69215 11.4646 
10.0807 -0.324883 -1.58139 
-0.324883 9.90597 0.905966 
-1.58139 0.905966 10.8952 
9.07639 -0.140581 1.73474 
-0.140581 9.3886 0.934322 
1.73474 0.934322 7.54422 
9.09397 -0.501956 1.04879 
-0.501956 8.98249 1.46516 
1.04879 1.46516 7.93274 
8.4787 -0.00371405 1.32656 
-0.00371405 9.74946 0.621712 
1.32656 0.621712 7.78105 
9.50432 -0.351997 1.29101 
-0.351997 8.93321 1.3431 
1.29101 1.3431 7.57168 
9.33864 -0.0454657 -0.31225 
-0.0454657 9.34453 0.297793 
-0.31225 0.297793 9.75866 
9.65199 0.0162996 -0.0707012 
0.0162996 9.38413 0.370634 
-0.0707012 0.370634 9.40571 
9.54141 0.258361 -0.142996 
0.258361 9.33229 0.432264 
-0.142996 0.432264 9.56813 
9.52656 -0.207816 -0.441465 
-0.207816 9.17366 0.750573 
-0.441465 0.750573 9.74161 
9.33755 0.170753 -0.232935 
0.170753 9.38869 0.337092 
-0.232935 0.337092 9.65513 
9.45749 0.0185238 -0.207774 
0.0185238 9.67173 0.285236 
-0.207774 0.285236 9.25214 
9.41912 0.103768 -0.310903 
0.103768 9.63464 0.357163 
-0.310903 0.357163 9.32761 
9.71981 0.22964 -0.510246 
0.22964 9.37202 0.754306 
-0.510246 0.754306 9.28954 
9.35318 1.87617 3.65493 
1.87617 9.4313 -2.4586 
3.65493 -2.4586 0.952723 
6.54847 -0.792882 1.36055 
-0.792882 8.49316 -1.93555 
1.36055 -1.93555 4.69556 
7.06473 0.397827 2.55863 
0.397827 7.12859 -1.41158 
2.55863 -1.41158 5.54388 
7.49647 -0.646543 1.27639 
-0.646543 7.97968 -0.693534 
1.27639 -0.693534 4.26104 
9.80354 0.00275501 -0.018185 
0.00275501 9.80656 -0.0826317 
-0.018185 -0.0826317 9.87424 
9.82629 0.0104202 -0.0295312 
0.0104202 9.7531 -0.0609253 
-0.0295312 -0.0609253 9.90494 
9.81148 0.0139712 -0.0261467 
0.0139712 9.79734 -0.0749873 
-0.0261467 -0.0749873 9.87551 
9.77294 0.0296154 -0.0181264 
0.0296154 9.84782 -0.0164111 
-0.0181264 -0.0164111 9.86357 
9.32599 0.611478 0.14516 
0.611478 11.0245 0.0965831 
0.14516 0.0965831 8.37414 
9.33411 -0.442189 -1.66142 
-0.442189 9.56134 -1.3834 
-1.66142 -1.3834 9.82915 
9.41502 -0.716699 -0.942693 
-0.716699 8.73731 -0.503037 
-0.942693 -0.503037 10.5723 
8.29009 -0.860629 -0.331594 
-0.860629 8.11283 -0.634267 
-0.331594 -0.634267 12.3217 
9.81201 -0.0203839 -0.021244 
-0.0203839 9.84058 0.1995 
-0.021244 0.1995 9.73474 
9.78494 0.0694803 -0.0236297 
0.0694803 9.74533 0.148269 
-0.0236297 0.148269 9.85707 
9.73729 -0.133784 0.049255 
-0.133784 9.90919 0.0210678 
0.049255 0.0210678 9.74086 
9.77227 0.00753726 -0.0576766 
0.00753726 9.80992 0.122067 
-0.0576766 0.122067 9.80515 
9.83405 -0.0598916 -0.015318 
-0.0598916 9.66978 0.171135 
-0.015318 0.171135 9.80174 
9.71907 0.00220855 0.0296396 
0.00220855 9.6885 0.378405 
0.0296396 0.378405 9.898 
9.79702 -0.0248427 0.0208199 
-0.0248427 9.74846 0.267443 
0.0208199 0.267443 9.76008 
9.79434 -0.0115701 0.0422738 
-0.0115701 9.73811 0.260226 
0.0422738 0.260226 9.77312 
9.55019 0.0404659 0.050733 
0.0404659 9.55071 -0.0118402 
0.050733 -0.0118402 9.87092 
9.58071 0.0133786 0.0134582 
0.0133786 9.48068 -0.109667 
0.0134582 -0.109667 9.91043 
9.51768 -0.00571485 0.164165 
-0.00571485 9.54153 -0.101231 
0.164165 -0.101231 9.91261 
9.5022 -0.0857391 -0.112748 
-0.0857391 9.60318 -0.0795227 
-0.112748 -0.0795227 9.86645 
9.89712 0.0323219 0.0839887 
0.0323219 9.86831 0.238115 
0.0839887 0.238115 9.39243 
9.75633 0.0553418 0.117422 
0.0553418 9.59821 0.276442 
0.117422 0.276442 9.80332 
9.81434 0.0275331 -0.0880251 
0.0275331 9.82625 0.108294 
-0.0880251 0.108294 9.51726 
9.7592 0.154957 -0.0435841 
0.154957 9.82928 0.0157536 
-0.0435841 0.0157536 9.56937 
9.73247 0.0166175 -0.0529963 
0.0166175 9.77139 0.0185323 
-0.0529963 0.0185323 9.93949 
9.75589 0.00196679 -0.0609338 
0.00196679 9.78583 0.0407021 
-0.0609338 0.0407021 9.90163 
9.79348 -0.0173108 -0.0448882 
-0.0173108 9.77444 -0.00962832 
-0.0448882 -0.00962832 9.87543 
9.73609 -0.00606378 -0.0467002 
-0.00606378 9.7401 0.0381483 
-0.0467002 0.0381483 9.96716 
9.84702 -0.000775239 -0.170891 
-0.000775239 9.89609 0.169695 
-0.170891 0.169695 9.83563 
9.85215 0.00319997 -0.205158 
0.00319997 9.90031 0.165566 
-0.205158 0.165566 9.82629 
9.9277 0.00380976 -0.149221 
0.00380976 9.84713 0.174375 
-0.149221 0.174375 9.80391 
9.87115 -0.00223986 -0.173282 
-0.00223986 9.87418 0.172214 
-0.173282 0.172214 9.83341 
9.59009 0.0176402 -0.0935894 
0.0176402 9.77571 -0.0352509 
-0.0935894 -0.0352509 9.77224 
9.81322 0.0705874 -0.0559801 
0.0705874 9.6563 -0.178413 
-0.0559801 -0.178413 9.66852 
9.68908 0.0704512 -0.149409 
0.0704512 9.94841 -0.098776 
-0.149409 -0.098776 9.50056 
9.73996 0.0146412 -0.0094223 
0.0146412 9.69863 -0.120769 
-0.0094223 -0.120769 9.69945 
9.98636 0.01063 0.063309 
0.01063 9.99547 0.00230324 
0.063309 0.00230324 10.0253 
9.92667 -0.0672832 0.0442915 
-0.0672832 10.2047 -0.113146 
0.0442915 -0.113146 9.87576 
9.98219 -0.00757899 0.0337991 
-0.00757899 10.0374 -0.0542867 
0.0337991 -0.0542867 9.9875 
10.1024 0.0590029 0.104273 
0.0590029 9.92486 -0.10379 
0.104273 -0.10379 9.97986 
9.73038 -0.0036828 0.304794 
-0.0036828 9.70583 -0.0839612 
0.304794 -0.0839612 9.76095 
9.78986 0.00933342 0.306877 
0.00933342 9.68382 -0.0664961 
0.306877 -0.0664961 9.72349 
9.7723 -0.0129132 0.333561 
-0.0129132 9.73566 -0.0288783 
0.333561 -0.0288783 9.6892 
9.75431 0.00131157 0.316951 
0.00131157 9.72618 -0.0424968 
0.316951 -0.0424968 9.71668 
10.0617 0.00186098 0.00507912 
0.00186098 10.0578 -0.0354541 
0.00507912 -0.0354541 10.0307 
10.0803 -0.00523032 0.0171854 
-0.00523032 10.074 0.0151719 
0.0171854 0.0151719 9.99596 
10.0613 -0.0131502 0.00381769 
-0.0131502 10.0424 -0.0156893 
0.00381769 -0.0156893 10.0467 
10.0652 -0.00153026 -0.0117768 
-0.00153026 10.0636 -0.00746742 
-0.0117768 -0.00746742 10.0215 
9.62118 0.0174083 0.0926073 
0.0174083 9.61278 0.0817407 
0.0926073 0.0817407 9.48773 
9.54009 0.0192126 -0.031647 
0.0192126 9.65319 0.00863831 
-0.031647 0.00863831 9.5284 
9.71712 -0.0824497 -0.104654 
-0.0824497 9.75713 0.0357556 
-0.104654 0.0357556 9.24743 
9.57817 0.0106927 -0.00754545 
0.0106927 9.66767 0.00482565 
-0.00754545 0.00482565 9.47585 
9.95743 -0.00899983 0.0219313 
-0.00899983 9.89663 0.0718025 
0.0219313 0.0718025 10.0566 
10.0454 -0.00462709 0.0118143 
-0.00462709 9.99999 0.106524 
0.0118143 0.106524 9.8652 
9.93363 -0.00880572 0.0400274 
-0.00880572 9.85849 0.0316944 
0.0400274 0.0316944 10.1185 
9.98008 0.00731357 0.0848431 
0.00731357 9.81696 0.174185 
0.0848431 0.174185 10.1136 
8.96776 0.0995472 0.366916 
0.0995472 10.3355 0.103867 
0.366916 0.103867 11.4207 
9.57901 -0.298827 0.269657 
-0.298827 10.3537 -0.00455586 
0.269657 -0.00455586 10.7912 
9.26776 0.074375 0.0860264 
0.074375 10.254 -0.0331051 
0.0860264 -0.0331051 11.2022 
9.38374 0.0120948 -0.0751547 
0.0120948 10.5288 -0.496704 
-0.0751547 -0.496704 10.8113 
9.62113 0.612706 -0.470979 
0.612706 9.38931 0.487338 
-0.470979 0.487338 9.83853 
9.48142 -0.388305 0.5753 
-0.388305 9.73351 0.368848 
0.5753 0.368848 9.63404 
9.57752 -0.461979 0.587171 
-0.461979 9.84068 0.291548 
0.587171 0.291548 9.43076 
9.32112 -0.878257 0.447916 
-0.878257 8.79149 1.08843 
0.447916 1.08843 10.7364 
9.83122 -0.0119494 0.133549 
-0.0119494 9.78584 -0.170622 
0.133549 -0.170622 9.79518 
9.83337 -0.0366638 0.170898 
-0.0366638 9.85486 -0.19715 
0.170898 -0.19715 9.72399 
9.83319 -0.0358643 0.0951263 
-0.0358643 9.83009 -0.15362 
0.0951263 -0.15362 9.74895 
9.75126 0.0318654 0.150668 
0.0318654 9.7208 -0.152915 
0.150668 -0.152915 9.94017 
9.61205 0.0137335 -0.269009 
0.0137335 9.60636 -0.266835 
-0.269009 -0.266835 9.56121 
9.63387 0.0459913 -0.290283 
0.0459913 9.60119 -0.28292 
-0.290283 -0.28292 9.54455 
9.62811 0.0250717 -0.288887 
0.0250717 9.5949 -0.277924 
-0.288887 -0.277924 9.55661 
9.62826 -0.039359 -0.305973 
-0.039359 9.56189 -0.321527 
-0.305973 -0.321527 9.58946 
9.6433 -0.0156962 0.0583326 
-0.0156962 9.62633 0.59823 
0.0583326 0.59823 9.47463 
9.42662 0.00486163 -0.117194 
0.00486163 9.55178 0.427767 
-0.117194 0.427767 9.76586 
9.62482 -0.0392092 -0.0191236 
-0.0392092 9.48606 0.441133 
-0.0191236 0.441133 9.63338 
9.39214 0.106639 -0.150087 
0.106639 9.65597 0.265807 
-0.150087 0.265807 9.69616 
9.5983 -0.000907278 -0.211812 
-0.000907278 9.53882 0.387622 
-0.211812 0.387622 9.59568 
9.64559 -0.00897722 -0.112817 
-0.00897722 9.63388 0.444209 
-0.112817 0.444209 9.45332 
9.6207 0.0396341 -0.127246 
0.0396341 9.55808 0.389829 
-0.127246 0.389829 9.55402 
9.41889 -0.00907127 -0.104779 
-0.00907127 9.61779 0.160115 
-0.104779 0.160115 9.69612 
10.5915 1.80221 -0.678723 
1.80221 8.32655 -2.64551 
-0.678723 -2.64551 13.0422 
11.8565 -1.64495 0.762809 
-1.64495 8.81243 -0.375115 
0.762809 -0.375115 11.2913 
9.45013 0.778987 2.63837 
0.778987 11.0799 -3.14164 
2.63837 -3.14164 11.4302 
11.5498 0.152574 0.785548 
0.152574 8.49655 -2.01393 
0.785548 -2.01393 11.9139 
10.1154 -0.214629 0.564013 
-0.214629 9.58846 1.0046 
0.564013 1.0046 8.93855 
9.57154 -0.153384 0.780473 
-0.153384 9.8075 0.198164 
0.780473 0.198164 9.26333 
9.46892 0.0603792 -0.201547 
0.0603792 9.79229 -0.0409423 
-0.201547 -0.0409423 9.38116 
9.71693 -0.190972 0.251712 
-0.190972 9.7508 0.202347 
0.251712 0.202347 9.17464 
9.33962 0.0448346 -0.192008 
0.0448346 9.62506 0.195151 
-0.192008 0.195151 10.0008 
9.59765 -0.167902 -0.352799 
-0.167902 9.55112 0.242195 
-0.352799 0.242195 9.81667 
9.68223 0.018782 -0.325556 
0.018782 9.53303 0.00916941 
-0.325556 0.00916941 9.75018 
9.62637 0.121264 -0.422193 
0.121264 9.55417 0.0428879 
-0.422193 0.0428879 9.78491 
9.81107 0.065011 0.0603632 
0.065011 9.72558 -0.160453 
0.0603632 -0.160453 9.87185 
9.81191 0.0136668 0.0945434 
0.0136668 9.79329 -0.222437 
0.0945434 -0.222437 9.8033 
9.76113 0.0135606 0.113701 
0.0135606 9.74534 -0.330457 
0.113701 -0.330457 9.90202 
9.80155 0.0393935 0.111846 
0.0393935 9.76469 -0.206313 
0.111846 -0.206313 9.84225 
9.76429 0.00498545 0.00295946 
0.00498545 9.85739 0.0442526 
0.00295946 0.0442526 9.85007 
9.78458 -0.0171472 0.0321546 
-0.0171472 9.78634 -0.0208275 
0.0321546 -0.0208275 9.90084 
9.76439 0.0184765 -0.00994368 
0.0184765 9.7929 0.0436886 
-0.00994368 0.0436886 9.91447 
9.74469 0.00656129 -0.0208602 
0.00656129 9.76775 0.0978273 
-0.0208602 0.0978273 9.95932 
9.59765 -0.0694139 0.278363 
-0.0694139 9.59953 -0.0196852 
0.278363 -0.0196852 9.78377 
9.892 -0.0366838 0.225508 
-0.0366838 9.7875 -0.0201112 
0.225508 -0.0201112 9.30145 
9.66756 -0.0119162 0.219921 
-0.0119162 9.69915 -0.121142 
0.219921 -0.121142 9.61424 
9.81236 -0.0866956 0.165969 
-0.0866956 9.64754 -0.138963 
0.165969 -0.138963 9.52105 
9.5599 -0.078181 -0.25977 
-0.078181 9.55187 0.120958 
-0.25977 0.120958 9.69361 
9.68133 -0.0822954 -0.241298 
-0.0822954 9.4749 0.103461 
-0.241298 0.103461 9.64914 
9.26034 0.163387 -0.280194 
0.163387 9.64251 0.157645 
-0.280194 0.157645 9.90252 
9.57796 -0.119772 -0.543776 
-0.119772 9.54084 0.217813 
-0.543776 0.217813 9.68657 
9.75474 0.0114921 -0.115917 
0.0114921 9.80462 -0.170212 
-0.115917 -0.170212 9.71056 
9.75216 0.0449294 -0.110636 
0.0449294 9.73803 -0.164562 
-0.110636 -0.164562 9.77974 
9.74303 0.0400245 -0.115217 
0.0400245 9.81244 -0.202356 
-0.115217 -0.202356 9.71446 
9.77796 0.0133824 -0.0763375 
0.0133824 9.8156 -0.116639 
-0.0763375 -0.116639 9.67638 
9.71351 0.00438938 -0.0221636 
0.00438938 9.84981 -0.117931 
-0.0221636 -0.117931 9.96268 
9.79457 0.0225327 -0.00583704 
0.0225327 9.78142 -0.0248276 
-0.00583704 -0.0248276 9.95001 
9.79062 0.00619581 -0.0122288 
0.00619581 9.82185 -0.036384 
-0.0122288 -0.036384 9.91352 
9.83173 -0.0233152 -0.0389784 
-0.0233152 9.87016 0.0211104 
-0.0389784 0.0211104 9.82411 
9.28169 0.0758685 -0.256836 
0.0758685 9.67241 0.0259441 
-0.256836 0.0259441 9.93693 
9.5721 -0.15111 -0.134503 
-0.15111 9.39536 0.314395 
-0.134503 0.314395 9.92357 
9.41678 0.172527 -0.448506 
0.172527 9.51358 0.235869 
-0.448506 0.235869 9.96066 
9.47669 0.0399236 -0.278997 
0.0399236 9.44109 0.188831 
-0.278997 0.188831 9.97324 
9.41903 -0.0640302 0.0655403 
-0.0640302 9.47769 0.0654801 
0.0655403 0.0654801 9.94396 
9.38795 -0.0384737 0.067146 
-0.0384737 9.53995 0.039011 
0.067146 0.039011 9.91277 
9.42218 -0.0896844 0.0384692 
-0.0896844 9.46974 0.00916985 
0.0384692 0.00916985 9.94875 
9.419 -0.0840655 0.0670279 
-0.0840655 9.47318 0.0694257 
0.0670279 0.0694257 9.94849 
9.76271 -0.128235 0.0359054 
-0.128235 9.91934 -0.104408 
0.0359054 -0.104408 9.48147 
9.75946 -0.00762787 0.155927 
-0.00762787 9.69529 -0.0788845 
0.155927 -0.0788845 9.70876 
9.64192 -0.0757057 0.0912986 
-0.0757057 9.68922 -0.0666337 
0.0912986 -0.0666337 9.83237 
9.72236 0.0446786 0.170939 
0.0446786 9.77151 -0.1442 
0.170939 -0.1442 9.66966 
9.74118 0.0639509 -0.0554088 
0.0639509 9.76091 -0.0945299 
-0.0554088 -0.0945299 9.70898 
9.7352 0.0348365 -0.0339453 
0.0348365 9.76226 -0.0404661 
-0.0339453 -0.0404661 9.71361 
9.71502 0.0329414 -0.0252897 
0.0329414 9.751 -0.0251815 
-0.0252897 -0.0251815 9.74506 
9.7651 0.0537126 -0.0285531 
0.0537126 9.78973 -0.0663411 
-0.0285531 -0.0663411 9.65624 
9.63004 0.0485042 -0.225982 
0.0485042 9.7929 0.177994 
-0.225982 0.177994 9.24137 
9.66735 -0.156253 -0.251461 
-0.156253 9.63132 0.142811 
-0.251461 0.142811 9.36564 
9.53556 0.0833577 -0.11728 
0.0833577 9.71472 0.139536 
-0.11728 0.139536 9.41403 
9.70635 -0.0836516 -0.338363 
-0.0836516 9.5777 0.251533 
-0.338363 0.251533 9.38026 
4.78439 -0.789678 -0.206154 
-0.789678 4.2225 -0.809512 
-0.206154 -0.809512 3.41723 
5.22413 -0.359749 0.46121 
-0.359749 6.18585 -1.54587 
0.46121 -1.54587 1.01414 
6.08526 -0.566875 0.316911 
-0.566875 6.93137 -0.601551 
0.316911 -0.601551 -0.592509 
4.95777 -0.594371 -1.49025 
-0.594371 5.27964 -1.96826 
-1.49025 -1.96826 2.18671 
7.09023 2.23124 -2.44612 
2.23124 8.70487 -1.11416 
-2.44612 -1.11416 2.42487 
9.93882 -0.446741 -2.13232 
-0.446741 8.21273 -1.79188 
-2.13232 -1.79188 0.0684298 
7.41993 -2.75757 -1.82189 
-2.75757 5.89301 1.68957 
-1.82189 1.68957 4.90703 
7.89144 0.491292 -1.69968 
0.491292 7.65702 0.625459 
-1.69968 0.625459 2.67152 
9.57684 -0.0131636 -0.0138575 
-0.0131636 9.81526 0.114097 
-0.0138575 0.114097 9.71034 
9.61985 -0.00677355 -0.0218988 
-0.00677355 9.67359 0.185063 
-0.0218988 0.185063 9.80901 
9.68417 0.0194076 -0.0341529 
0.0194076 9.60431 0.0858167 
-0.0341529 0.0858167 9.81397 
9.7057 0.0558622 -0.054375 
0.0558622 9.61124 0.214027 
-0.054375 0.214027 9.7855 
9.84194 0.0181252 -0.00393039 
0.0181252 9.85798 -0.0479966 
-0.00393039 -0.0479966 9.92987 
9.82604 0.0068257 -0.00888204 
0.0068257 9.83189 -0.058008 
-0.00888204 -0.058008 9.97185 
9.83867 0.00744834 -0.0187126 
0.00744834 9.86364 -0.0460039 
-0.0187126 -0.0460039 9.92748 
9.86437 0.00567014 -0.017533 
0.00567014 9.86933 -0.0457844 
-0.017533 -0.0457844 9.89609 
9.6978 -0.0456501 0.0290206 
-0.0456501 9.88054 -0.0120364 
0.0290206 -0.0120364 9.77952 
9.70608 0.0180323 -0.0271408 
0.0180323 9.74499 -0.00748606 
-0.0271408 -0.00748606 9.90679 
9.76592 0.0217089 -0.0249921 
0.0217089 9.72322 0.101604 
-0.0249921 0.101604 9.86872 
9.71202 -0.0224084 0.0604056 
-0.0224084 9.81165 0.0181355 
0.0604056 0.0181355 9.83419 
9.71538 0.0206782 -0.0693758 
0.0206782 9.79379 -0.165759 
-0.0693758 -0.165759 9.73714 
9.73931 -0.0351656 -0.0294748 
-0.0351656 9.78991 -0.13959 
-0.0294748 -0.13959 9.71709 
9.72272 0.021888 -0.107508 
0.021888 9.80454 -0.17128 
-0.107508 -0.17128 9.71905 
9.71457 0.0192009 -0.0924723 
0.0192009 9.80046 -0.171583 
-0.0924723 -0.171583 9.73128 
12.6047 -0.0270582 0.229542 
-0.0270582 12.2179 0.526704 
0.229542 0.526704 10.7423 
11.8531 0.0905668 -0.0583379 
0.0905668 11.616 -0.296268 
-0.0583379 -0.296268 12.0958 
11.2483 0.0954753 0.113556 
0.0954753 10.705 -0.657427 
0.113556 -0.657427 13.6115 
12.4411 0.537315 -0.955147 
0.537315 11.8289 -0.341892 
-0.955147 -0.341892 11.295 
9.92151 0.218761 -0.56525 
0.218761 9.46536 0.993222 
-0.56525 0.993222 8.33834 
9.50829 0.0609278 -0.379178 
0.0609278 9.52221 0.386334 
-0.379178 0.386334 8.69472 
9.72374 -0.118877 -0.0961862 
-0.118877 9.28179 0.520677 
-0.0961862 0.520677 8.71968 
9.64619 0.056502 -0.161901 
0.056502 9.3152 0.511145 
-0.161901 0.511145 8.76383 
2.74556 0.0376511 0.184814 
0.0376511 3.827 -2.23369 
0.184814 -2.23369 4.7806 
4.73975 0.769335 -0.756955 
0.769335 7.14143 0.782113 
-0.756955 0.782113 -0.528013 
5.20058 -0.703201 -0.937709 
-0.703201 4.85665 -1.20747 
-0.937709 -1.20747 1.29593 
3.07834 -0.375956 0.391675 
-0.375956 7.1846 -2.18517 
0.391675 -2.18517 1.09023 
9.79631 0.22086 -0.0393916 
0.22086 9.48284 -0.161156 
-0.0393916 -0.161156 9.55204 
9.93675 0.0601176 0.142899 
0.0601176 9.48934 -0.0554699 
0.142899 -0.0554699 9.40509 
9.74373 0.0803006 -0.12007 
0.0803006 9.62513 -0.0734363 
-0.12007 -0.0734363 9.46232 
9.79174 0.120533 0.0577676 
0.120533 9.47689 -0.0650052 
0.0577676 -0.0650052 9.56255 
9.87325 0.00195972 -0.0487664 
0.00195972 9.84941 0.223732 
-0.0487664 0.223732 9.7489 
9.74452 0.068538 0.0602498 
0.068538 9.85106 0.183323 
0.0602498 0.183323 9.87597 
9.78636 0.0186065 -0.0804212 
0.0186065 9.89926 0.252326 
-0.0804212 0.252326 9.78594 
9.85761 -0.00513895 -0.117072 
-0.00513895 9.92509 0.0624492 
-0.117072 0.0624492 9.68885 
9.74236 0.0223645 -0.256875 
0.0223645 9.70658 -0.180376 
-0.256875 -0.180376 9.7097 
9.72377 0.0117155 -0.259783 
0.0117155 9.70101 -0.1728 
-0.259783 -0.1728 9.73386 
9.74285 -0.00738597 -0.279128 
-0.00738597 9.73276 -0.179683 
-0.279128 -0.179683 9.68304 
9.73125 0.0140977 -0.276351 
0.0140977 9.74651 -0.172502 
-0.276351 -0.172502 9.68089 
10.0214 -0.031956 0.332995 
-0.031956 9.24941 0.398392 
0.332995 0.398392 10.0105 
9.75068 -0.534251 0.0756177 
-0.534251 9.30462 0.44366 
0.0756177 0.44366 10.226 
9.5148 -0.408598 0.108183 
-0.408598 9.54336 0.270891 
0.108183 0.270891 10.2232 
9.68124 -0.46973 0.145685 
-0.46973 9.3349 0.267183 
0.145685 0.267183 10.2652 
9.69319 0.00227503 0.153421 
0.00227503 9.6891 -0.292911 
0.153421 -0.292911 9.68073 
9.6738 -0.00317955 0.148869 
-0.00317955 9.70453 -0.240617 
0.148869 -0.240617 9.68469 
9.68471 -0.0200256 0.160489 
-0.0200256 9.70219 -0.303395 
0.160489 -0.303395 9.67612 
9.70466 -0.0196409 0.165232 
-0.0196409 9.66824 -0.294563 
0.165232 -0.294563 9.69012 
9.51704 0.0997697 -0.143652 
0.0997697 9.14321 0.444498 
-0.143652 0.444498 9.74326 
9.61478 -0.172623 0.0737649 
-0.172623 9.20648 0.535995 
0.0737649 0.535995 9.58224 
9.59547 -0.0894281 0.0560006 
-0.0894281 9.39865 0.518726 
0.0560006 0.518726 9.40939 
9.73145 0.14203 -0.348111 
0.14203 9.02574 1.34278 
-0.348111 1.34278 9.64631 
10.5084 1.07156 -0.942394 
1.07156 8.82622 -0.533938 
-0.942394 -0.533938 11.9465 
10.6992 0.722186 0.616338 
0.722186 7.87082 2.61622 
0.616338 2.61622 12.7112 
9.93933 -0.403462 1.15531 
-0.403462 9.48466 0.896551 
1.15531 0.896551 11.8572 
9.87959 0.61158 -1.81644 
0.61158 10.4654 0.00838215 
-1.81644 0.00838215 10.9362 
9.68583 -0.0531002 0.326217 
-0.0531002 9.51353 -0.095198 
0.326217 -0.095198 9.82504 
9.78564 0.00171813 0.0661678 
0.00171813 9.62138 -0.0499716 
0.0661678 -0.0499716 9.61737 
9.88925 0.00914636 0.158693 
0.00914636 9.80448 0.0205867 
0.158693 0.0205867 9.33066 
9.74523 -0.0158961 0.0852808 
-0.0158961 9.72207 -0.0665022 
0.0852808 -0.0665022 9.55709 
9.7424 0.0222564 -0.269509 
0.0222564 9.73169 -0.163863 
-0.269509 -0.163863 9.73559 
9.74929 0.0167917 -0.284193 
0.0167917 9.73919 -0.14792 
-0.284193 -0.14792 9.72121 
9.74171 0.0179964 -0.265675 
0.0179964 9.74055 -0.148201 
-0.265675 -0.148201 9.72742 
9.74759 0.0173315 -0.278852 
0.0173315 9.7408 -0.143094 
-0.278852 -0.143094 9.7213 
9.66192 0.00830597 0.167065 
0.00830597 9.68412 -0.250613 
0.167065 -0.250613 9.67498 
9.62601 -0.0341788 0.134645 
-0.0341788 9.6735 -0.317907 
0.134645 -0.317907 9.7215 
9.64748 -0.0297021 0.149155 
-0.0297021 9.68166 -0.319912 
0.149155 -0.319912 9.69187 
9.75979 -0.0176863 0.148681 
-0.0176863 9.55067 -0.338115 
0.148681 -0.338115 9.71055 
10.1277 -0.166509 0.583054 
-0.166509 9.61576 0.787185 
0.583054 0.787185 8.52684 
10.2775 -0.673714 0.237221 
-0.673714 9.15332 0.842225 
0.237221 0.842225 8.83952 
9.57287 0.258261 0.468249 
0.258261 9.42601 -0.245523 
0.468249 -0.245523 9.27145 
8.80765 -0.837592 3.06361 
-0.837592 10.6514 0.837071 
3.06361 0.837071 8.81129 
1.49876 -1.41382 4.86095 
-1.41382 1.42023 2.49821 
4.86095 2.49821 8.02122 
4.08087 3.22053 -1.65667 
3.22053 9.1061 -2.11735 
-1.65667 -2.11735 -2.24676 
7.86874 0.528873 -1.28207 
0.528873 6.42767 -1.07492 
-1.28207 -1.07492 -3.3562 
9.40214 3.72471 -0.294644 
3.72471 6.16938 3.88865 
-0.294644 3.88865 -4.63131 
9.63551 0.04892 -0.0244102 
0.04892 9.46897 -0.0178241 
-0.0244102 -0.0178241 9.94738 
9.5542 -0.0134195 0.0394053 
-0.0134195 9.62869 -0.00851629 
0.0394053 -0.00851629 9.86897 
9.53056 0.0302862 0.0538511 
0.0302862 9.57349 -0.0862002 
0.0538511 -0.0862002 9.94782 
9.53448 0.169423 0.151969 
0.169423 9.59619 -0.309845 
0.151969 -0.309845 9.92119 
9.21993 -0.115951 -0.455298 
-0.115951 9.53274 0.176238 
-0.455298 0.176238 8.54871 
9.83776 -0.0303309 -1.01618 
-0.0303309 9.71908 -0.0919389 
-1.01618 -0.0919389 7.74454 
9.08751 0.0738868 -0.809202 
0.0738868 9.42014 -0.20899 
-0.809202 -0.20899 8.79373 
8.95617 0.338696 -0.423522 
0.338696 9.45776 0.436428 
-0.423522 0.436428 8.88745 
9.9202 0.0219842 -0.00230429 
0.0219842 9.93139 0.0366292 
-0.00230429 0.0366292 9.93014 
9.91188 0.0119187 0.0145094 
0.0119187 9.93287 0.0384937 
0.0145094 0.0384937 9.93698 
9.92089 0.0122341 -0.0358857 
0.0122341 9.90963 0.0176034 
-0.0358857 0.0176034 9.9512 
9.92536 0.0186846 -0.00182299 
0.0186846 9.92644 0.0338681 
-0.00182299 0.0338681 9.92992 
9.73792 0.00830721 0.265971 
0.00830721 9.74437 0.19764 
0.265971 0.19764 9.71571 
9.74436 0.0198953 0.265821 
0.0198953 9.73127 0.185581 
0.265821 0.185581 9.72237 
9.75606 0.00920125 0.27146 
0.00920125 9.7388 0.194924 
0.27146 0.194924 9.70315 
9.72923 0.0221581 0.26274 
0.0221581 9.7256 0.190794 
0.26274 0.190794 9.74318 
9.28736 0.0313053 0.141984 
0.0313053 9.45776 -0.0503995 
0.141984 -0.0503995 10.2918 
9.45586 0.0474423 0.222616 
0.0474423 9.51365 -0.0701352 
0.222616 -0.0701352 10.0674 
9.14387 -0.0206044 0.061914 
-0.0206044 9.61521 0.0258074 
0.061914 0.0258074 10.2779 
9.23486 0.285728 0.411583 
0.285728 9.68965 0.0738803 
0.411583 0.0738803 10.1125 
9.46507 0.0419618 0.346883 
0.0419618 9.54232 -0.0675602 
0.346883 -0.0675602 9.62727 
9.35148 0.0193761 0.454634 
0.0193761 9.49464 0.084628 
0.454634 0.084628 9.78855 
9.43114 0.0513916 0.449377 
0.0513916 9.60174 -0.0161452 
0.449377 -0.0161452 9.60178 
9.5533 0.00873265 0.213622 
0.00873265 9.53481 -0.0601016 
0.213622 -0.0601016 9.54656 
9.95176 0.0106928 0.024578 
0.0106928 9.93112 -0.0771168 
0.024578 -0.0771168 9.91485 
9.94504 -0.0259092 0.0543605 
-0.0259092 10.0081 -0.125483 
0.0543605 -0.125483 9.84463 
9.93388 0.0130298 0.0357684 
0.0130298 9.92054 -0.0825219 
0.0357684 -0.0825219 9.9433 
9.97394 -0.00477037 0.0999225 
-0.00477037 9.98415 -0.0938145 
0.0999225 -0.0938145 9.83964 
9.65914 -0.0466754 -0.303719 
-0.0466754 9.65535 -0.243303 
-0.303719 -0.243303 9.58787 
9.75463 0.0230998 -0.20505 
0.0230998 9.63521 -0.312795 
-0.20505 -0.312795 9.51252 
9.67209 0.0209623 -0.24153 
0.0209623 9.66934 -0.248524 
-0.24153 -0.248524 9.56092 
9.52244 0.0131559 -0.173062 
0.0131559 9.64388 -0.233648 
-0.173062 -0.233648 9.73603 
16.1097 -1.30798 1.45899 
-1.30798 14.8193 -1.87509 
1.45899 -1.87509 6.41307 
10.0896 -2.48641 -0.424055 
-2.48641 8.30402 2.27405 
-0.424055 2.27405 18.9485 
12.4106 -0.791144 -0.844272 
-0.791144 7.14082 -0.0855599 
-0.844272 -0.0855599 17.7906 
10.2094 1.18115 5.8718 
1.18115 7.68219 -2.36953 
5.8718 -2.36953 19.4505 
8.1898 -0.150439 0.267908 
-0.150439 6.74161 1.36013 
0.267908 1.36013 1.8758 
8.50677 0.301478 -0.942753 
0.301478 6.5478 0.569625 
-0.942753 0.569625 1.75264 
6.23164 -0.660812 0.636915 
-0.660812 7.1671 0.919428 
0.636915 0.919428 3.40847 
8.19201 0.660566 0.403528 
0.660566 6.99395 0.182449 
0.403528 0.182449 1.62125 
9.50561 -0.19595 -0.0697464 
-0.19595 7.96355 0.200681 
-0.0697464 0.200681 11.4916 
10.2017 -0.684779 -0.138925 
-0.684779 10.2463 0.980229 
-0.138925 0.980229 8.51279 
11.1467 1.08118 -0.118319 
1.08118 6.6714 4.13966 
-0.118319 4.13966 11.1427 
10.2942 -1.41481 0.590743 
-1.41481 9.69852 1.21754 
0.590743 1.21754 8.96806 
12.0266 -1.0533 0.430668 
-1.0533 10.3071 -0.565901 
0.430668 -0.565901 11.4456 
8.94366 1.04239 0.670297 
1.04239 11.6256 -1.29315 
0.670297 -1.29315 13.2099 
10.0903 0.590936 -0.496901 
0.590936 11.5012 0.343767 
-0.496901 0.343767 12.1877 
10.2971 -0.225506 0.152117 
-0.225506 11.0705 0.711798 
0.152117 0.711798 12.4116 
9.73747 -1.25945 -2.55455 
-1.25945 6.32011 1.49475 
-2.55455 1.49475 4.46723 
6.27975 -0.237376 -2.5874 
-0.237376 8.48534 -1.00969 
-2.5874 -1.00969 5.75972 
7.31149 -0.473088 -4.93747 
-0.473088 13.5721 0.027714 
-4.93747 0.027714 -0.358816 
9.48842 0.101272 -0.567277 
0.101272 6.98641 0.0566251 
-0.567277 0.0566251 4.04998 
9.84249 -0.038804 0.12453 
-0.038804 9.83366 -0.111096 
0.12453 -0.111096 9.73929 
9.87074 -0.0322039 0.18083 
-0.0322039 9.84276 -0.188084 
0.18083 -0.188084 9.70194 
9.81162 -0.0258002 0.151481 
-0.0258002 9.83069 -0.14287 
0.151481 -0.14287 9.77313 
9.68577 0.0304926 0.127014 
0.0304926 9.7776 -0.174234 
0.127014 -0.174234 9.95208 
9.74785 0.0555686 0.126331 
0.0555686 9.86027 -0.0956672 
0.126331 -0.0956672 9.92333 
9.9245 -0.0213213 0.19364 
-0.0213213 9.87394 -0.108516 
0.19364 -0.108516 9.73301 
9.79515 0.0188511 0.250158 
0.0188511 9.82464 -0.193532 
0.250158 -0.193532 9.91166 
9.86038 0.0195815 0.199865 
0.0195815 9.833 -0.0982592 
0.199865 -0.0982592 9.83807 
9.69834 0.0220337 -0.18294 
0.0220337 9.62685 -0.223943 
-0.18294 -0.223943 9.5935 
9.7584 0.112666 -0.0787767 
0.112666 9.65421 -0.182144 
-0.0787767 -0.182144 9.50608 
9.49759 0.0470905 -0.0990354 
0.0470905 9.75779 -0.273241 
-0.0990354 -0.273241 9.6633 
9.6553 0.077153 -0.0184192 
0.077153 9.86557 -0.22498 
-0.0184192 -0.22498 9.39782 
9.80307 -0.0131159 -0.111848 
-0.0131159 9.58694 0.0366721 
-0.111848 0.0366721 9.63252 
9.32406 0.0200059 0.00843952 
0.0200059 9.72293 0.256051 
0.00843952 0.256051 9.97554 
9.61674 0.0188642 -0.400666 
0.0188642 9.87545 0.0704895 
-0.400666 0.0704895 9.53034 
9.84364 0.157524 -0.31211 
0.157524 9.51248 -0.188894 
-0.31211 -0.188894 9.66641 
10.0407 -0.0450483 -0.00789639 
-0.0450483 9.94109 0.0597595 
-0.00789639 0.0597595 9.88321 
9.90199 0.0201583 0.0195035 
0.0201583 9.99385 0.0747015 
0.0195035 0.0747015 9.96919 
9.99514 -0.0681548 -0.0410524 
-0.0681548 9.8856 0.119712 
-0.0410524 0.119712 9.98429 
9.94191 0.0707132 0.000694172 
0.0707132 10.0422 0.196343 
0.000694172 0.196343 9.88088 
9.47899 -0.0804905 0.0346187 
-0.0804905 9.77408 0.210597 
0.0346187 0.210597 10.7286 
9.57827 -0.0331391 0.142788 
-0.0331391 9.87922 0.0757225 
0.142788 0.0757225 10.5242 
9.67326 -0.0626776 -0.0772735 
-0.0626776 9.73888 0.0345959 
-0.0772735 0.0345959 10.5695 
9.74241 -0.126339 -0.148968 
-0.126339 9.63423 -0.20007 
-0.148968 -0.20007 10.605 
9.6178 0.0273594 0.330295 
0.0273594 9.67088 -0.0675631 
0.330295 -0.0675631 9.76439 
9.6732 0.00758636 0.32884 
0.00758636 9.68865 -0.0193618 
0.32884 -0.0193618 9.69123 
9.7871 -0.0272172 0.355808 
-0.0272172 9.68298 -0.0389354 
0.355808 -0.0389354 9.583 
9.71966 0.013756 0.25324 
0.013756 9.66563 0.0309397 
0.25324 0.0309397 9.66779 
9.63342 0.0406018 0.0266885 
0.0406018 9.59842 -0.0576895 
0.0266885 -0.0576895 9.8489 
9.61696 0.059341 0.0424763 
0.059341 9.594 -0.0756236 
0.0424763 -0.0756236 9.86977 
9.62449 0.0621949 0.132322 
0.0621949 9.65248 -0.1232 
0.132322 -0.1232 9.80376 
9.52865 0.0547639 0.0483851 
0.0547639 9.54573 -0.0212127 
0.0483851 -0.0212127 10.0064 
9.72221 0.0138914 0.0874176 
0.0138914 9.84486 0.209519 
0.0874176 0.209519 9.38047 
9.70963 -0.0327323 0.075395 
-0.0327323 9.7357 0.279993 
0.075395 0.279993 9.5022 
9.64102 0.0930908 0.115401 
0.0930908 9.87987 0.472192 
0.115401 0.472192 9.42664 
9.72804 -0.0289563 0.0812004 
-0.0289563 9.57269 0.252397 
0.0812004 0.252397 9.64681 
9.52006 0.281457 -2.27166 
0.281457 10.1145 0.395364 
-2.27166 0.395364 6.67126 
8.34486 0.0931926 -1.87788 
0.0931926 10.0815 0.101937 
-1.87788 0.101937 7.87946 
7.88027 0.150934 -1.88972 
0.150934 9.45582 1.00941 
-1.88972 1.00941 8.96973 
8.45473 0.0876586 -1.28688 
0.0876586 10.7434 0.929549 
-1.28688 0.929549 7.10772 
9.68941 -0.0323631 0.0206204 
-0.0323631 9.87875 0.00648347 
0.0206204 0.00648347 9.80918 
9.76271 0.0219566 0.00918965 
0.0219566 9.74826 0.087776 
0.00918965 0.087776 9.86638 
9.72051 -0.00307059 0.0420492 
-0.00307059 9.75443 0.0210519 
0.0420492 0.0210519 9.9024 
9.72629 -0.0160563 -0.0325237 
-0.0160563 9.8016 0.0195568 
-0.0325237 0.0195568 9.84945 
9.73834 -0.0125726 0.247516 
-0.0125726 9.75301 -0.157758 
0.247516 -0.157758 9.71158 
9.83409 -0.0197365 0.237659 
-0.0197365 9.7305 -0.194585 
0.237659 -0.194585 9.63834 
9.73601 -0.0190795 0.281494 
-0.0190795 9.75064 -0.164466 
0.281494 -0.164466 9.71627 
9.71789 -0.0185752 0.218985 
-0.0185752 9.71787 -0.182243 
0.218985 -0.182243 9.76717 
9.11127 0.478564 0.613396 
0.478564 9.40398 0.0264253 
0.613396 0.0264253 9.55652 
8.92018 -0.143811 1.86456 
-0.143811 9.65707 1.00694 
1.86456 1.00694 9.49452 
9.06445 -0.55943 1.12666 
-0.55943 8.75444 0.602039 
1.12666 0.602039 10.2529 
8.06345 -0.589656 0.180356 
-0.589656 8.46013 1.22561 
0.180356 1.22561 11.5482 
9.93749 0.516079 -0.152585 
0.516079 9.30305 0.493657 
-0.152585 0.493657 11.1159 
9.91708 0.453531 -0.164797 
0.453531 9.52497 0.563339 
-0.164797 0.563339 10.9144 
10.1883 0.141566 -0.259862 
0.141566 9.53858 0.448145 
-0.259862 0.448145 10.6295 
9.98951 0.525644 -0.194422 
0.525644 9.34548 0.402653 
-0.194422 0.402653 11.0214 
9.94761 -0.00694968 0.027367 
-0.00694968 9.91687 -0.0295228 
0.027367 -0.0295228 9.94115 
9.93416 -0.00633369 0.0201179 
-0.00633369 9.92612 -0.0244321 
0.0201179 -0.0244321 9.94535 
9.9379 0.00258143 0.0361017 
0.00258143 9.91157 -0.0205656 
0.0361017 -0.0205656 9.95616 
9.93741 -0.00410676 0.0244297 
-0.00410676 9.91088 -0.029537 
0.0244297 -0.029537 9.95733 
9.76088 0.0186321 -0.0316755 
0.0186321 9.73693 0.0341645 
-0.0316755 0.0341645 9.90892 
9.74116 -0.0169979 0.0440158 
-0.0169979 9.73761 0.0319172 
0.0440158 0.0319172 9.92796 
9.76378 0.0255164 0.043027 
0.0255164 9.76533 0.0959856 
0.043027 0.0959856 9.87763 
9.73133 0.00170547 -0.0673247 
0.00170547 9.79789 -0.000581044 
-0.0673247 -0.000581044 9.87751 
9.94883 0.074608 0.00521218 
0.074608 9.96076 -0.200757 
0.00521218 -0.200757 9.07733 
9.89737 0.104091 -0.266492 
0.104091 9.84322 -0.246128 
-0.266492 -0.246128 9.24632 
9.87195 0.0995325 -0.191914 
0.0995325 9.86444 -0.370717 
-0.191914 -0.370717 9.25053 
9.62113 0.0772273 -0.192836 
0.0772273 9.70121 -0.125855 
-0.192836 -0.125855 9.66458 
9.39648 0.053175 0.18823 
0.053175 9.99145 -0.250907 
0.18823 -0.250907 10.0524 
9.80152 0.0323047 0.221165 
0.0323047 9.86115 -0.0397551 
0.221165 -0.0397551 9.7777 
9.88062 0.00590533 0.091708 
0.00590533 9.70531 -0.0679013 
0.091708 -0.0679013 9.85444 
9.77002 0.0698841 0.202565 
0.0698841 9.81833 -0.0875446 
0.202565 -0.0875446 9.85202 
10.2068 1.48552 0.331761 
1.48552 9.0088 -0.776922 
0.331761 -0.776922 9.81381 
9.84031 -0.387207 0.662481 
-0.387207 9.4613 1.18971 
0.662481 1.18971 9.72782 
9.62864 -0.371049 0.0550876 
-0.371049 9.04091 1.05465 
0.0550876 1.05465 10.3599 
9.62045 -0.53092 0.2549 
-0.53092 9.31459 0.768255 
0.2549 0.768255 10.0944 
7.27828 1.61508 -2.98991 
1.61508 9.96551 1.35135 
-2.98991 1.35135 11.1844 
7.60088 0.607738 -2.75701 
0.607738 9.05215 1.48459 
-2.75701 1.48459 11.7751 
8.72968 -0.839733 -2.39995 
-0.839733 10.0547 1.10714 
-2.39995 1.10714 9.64379 
8.38662 2.1147 -1.29833 
2.1147 9.3515 0.0511668 
-1.29833 0.0511668 10.69 
13.1475 -0.60076 -1.46116 
-0.60076 8.74801 -0.889307 
-1.46116 -0.889307 12.389 
11.0024 1.01972 -0.645781 
1.01972 11.8165 0.117102 
-0.645781 0.117102 11.4655 
10.78 0.428258 0.0129185 
0.428258 10.3619 -0.100112 
0.0129185 -0.100112 13.1425 
11.1179 -1.09356 0.620631 
-1.09356 10.3025 0.117822 
0.620631 0.117822 12.864 
9.75636 0.0356996 -0.052172 
0.0356996 9.73308 0.053057 
-0.052172 0.053057 9.78693 
9.53043 0.0565588 -0.0108026 
0.0565588 9.5239 0.0467916 
-0.0108026 0.0467916 10.222 
9.74486 0.0790696 -0.0802322 
0.0790696 9.65572 0.0933833 
-0.0802322 0.0933833 9.87579 
9.71941 0.0179041 -0.256057 
0.0179041 9.75905 0.103195 
-0.256057 0.103195 9.7979 
8.75638 -0.072494 0.290179 
-0.072494 9.85445 -0.024979 
0.290179 -0.024979 9.04922 
9.15267 0.133389 0.522616 
0.133389 8.94482 0.241904 
0.522616 0.241904 9.56257 
8.90813 -0.497182 0.396126 
-0.497182 9.62765 -0.152714 
0.396126 -0.152714 9.12428 
8.94171 -0.279377 0.357102 
-0.279377 9.50513 0.0247462 
0.357102 0.0247462 9.21322 
10.0722 -0.352783 1.14834 
-0.352783 9.92074 -0.80729 
1.14834 -0.80729 8.2691 
9.62677 -0.361354 1.13724 
-0.361354 9.58323 -0.0509738 
1.13724 -0.0509738 9.052 
10.2061 -0.251271 1.24781 
-0.251271 10.0029 -0.33376 
1.24781 -0.33376 8.05304 
11.1938 -0.524671 0.930679 
-0.524671 10.7063 0.205329 
0.930679 0.205329 6.36186 
9.60482 0.335213 -1.34138 
0.335213 9.79759 0.2397 
-1.34138 0.2397 9.7723 
8.58679 0.259027 -0.89996 
0.259027 9.76437 -0.110523 
-0.89996 -0.110523 10.8236 
9.76262 -0.536132 -0.914257 
-0.536132 10.4599 -0.481167 
-0.914257 -0.481167 8.95217 
8.96094 0.843456 -1.21421 
0.843456 10.0182 0.449519 
-1.21421 0.449519 10.1956 
9.84686 0.00857662 -0.0116753 
0.00857662 9.85343 -0.0329503 
-0.0116753 -0.0329503 9.94405 
9.86281 0.00233349 -0.00150815 
0.00233349 9.84287 -0.0453163 
-0.00150815 -0.0453163 9.93866 
9.86337 -0.00160396 -0.0655507 
-0.00160396 9.8232 -0.0496676 
-0.0655507 -0.0496676 9.95776 
9.81767 -0.000462756 0.00690995 
-0.000462756 9.88294 -0.0404771 
0.00690995 -0.0404771 9.94373 
9.98115 0.00167303 -0.107117 
0.00167303 10.0311 -0.0389135 
-0.107117 -0.0389135 10.0448 
10.1361 -0.0547998 -0.117849 
-0.0547998 9.97291 -0.017676 
-0.117849 -0.017676 9.94796 
10.0571 -0.0476121 -0.0984763 
-0.0476121 9.96491 0.0149441 
-0.0984763 0.0149441 10.0349 
9.99489 0.0351018 -0.106239 
0.0351018 10.0266 -0.0622654 
-0.106239 -0.0622654 10.0355 
9.88552 0.0263218 0.0103868 
0.0263218 9.99633 -0.105624 
0.0103868 -0.105624 9.98675 
10.021 -0.0189024 0.103633 
-0.0189024 9.87418 -0.0924475 
0.103633 -0.0924475 9.97342 
10.0462 0.00778133 0.0480524 
0.00778133 9.93442 -0.0340763 
0.0480524 -0.0340763 9.88793 
9.91444 0.0192557 0.0394193 
0.0192557 10.0779 -0.169672 
0.0394193 -0.169672 9.87629 
9.73396 -0.00203174 0.351629 
-0.00203174 9.67724 -0.0427691 
0.351629 -0.0427691 9.63923 
9.69226 0.0070068 0.345854 
0.0070068 9.66726 -0.0325395 
0.345854 -0.0325395 9.69091 
9.71339 0.00727966 0.342799 
0.00727966 9.72054 -0.0489653 
0.342799 -0.0489653 9.61649 
9.73626 -0.00953083 0.307052 
-0.00953083 9.74206 -0.0468844 
0.307052 -0.0468844 9.57211 
9.61463 0.0457186 0.0791321 
0.0457186 9.68923 0.0118807 
0.0791321 0.0118807 9.88457 
9.63067 0.0127041 0.160408 
0.0127041 9.67056 -0.0732767 
0.160408 -0.0732767 9.8872 
9.49188 0.0416478 0.0626805 
0.0416478 9.72635 -0.018732 
0.0626805 -0.018732 9.97021 
9.53639 0.0117114 0.0508448 
0.0117114 9.58568 -0.015182 
0.0508448 -0.015182 10.0664 
9.75297 0.0106916 0.202607 
0.0106916 9.74611 -0.296174 
0.202607 -0.296174 9.90261 
9.79882 -0.00538567 0.133573 
-0.00538567 9.79811 -0.206401 
0.133573 -0.206401 9.80477 
9.83128 0.0728928 0.0934744 
0.0728928 9.70996 -0.131749 
0.0934744 -0.131749 9.86045 
9.82814 0.0303653 0.0960769 
0.0303653 9.75226 -0.219296 
0.0960769 -0.219296 9.82129 
10.0465 -0.422057 0.338818 
-0.422057 10.4591 0.213238 
0.338818 0.213238 8.25394 
10.028 0.0958993 -0.319784 
0.0958993 9.77321 0.043534 
-0.319784 0.043534 8.95832 
9.51504 -0.207047 -0.247582 
-0.207047 9.48768 -0.59028 
-0.247582 -0.59028 9.75686 
10.1066 0.271335 -0.404943 
0.271335 9.54973 0.165055 
-0.404943 0.165055 9.10321 
9.58529 -0.0316634 -0.270103 
-0.0316634 9.49458 0.102716 
-0.270103 0.102716 9.71423 
9.46655 -0.0204254 -0.363328 
-0.0204254 9.59017 0.10975 
-0.363328 0.10975 9.73739 
9.5142 0.0770688 -0.285032 
0.0770688 9.67203 0.0941736 
-0.285032 0.0941736 9.60787 
9.58288 0.00351387 -0.424708 
0.00351387 9.68795 0.193736 
-0.424708 0.193736 9.52327 
9.76943 0.244093 -0.4065 
0.244093 10.0835 -0.0230133 
-0.4065 -0.0230133 9.47566 
8.79223 -0.125297 -0.87768 
-0.125297 10.1714 -0.147688 
-0.87768 -0.147688 10.365 
9.25593 -0.146833 -1.07597 
-0.146833 10.0232 -0.527561 
-1.07597 -0.527561 10.0494 
8.57691 -0.274428 -0.909717 
-0.274428 9.91172 -0.00616874 
-0.909717 -0.00616874 10.84 
10.0565 0.00702516 0.00745842 
0.00702516 10.0393 0.0286239 
0.00745842 0.0286239 9.99894 
10.037 0.000608731 0.00804072 
0.000608731 10.0358 -0.00443082 
0.00804072 -0.00443082 10.0219 
10.0671 -0.0329115 0.0428544 
-0.0329115 10.0694 -0.0273888 
0.0428544 -0.0273888 9.9583 
10.0788 -0.0100618 0.00229542 
-0.0100618 10.0536 -0.0499229 
0.00229542 -0.0499229 9.96234 
9.67501 -0.0657604 0.0489905 
-0.0657604 9.68041 -0.00439388 
0.0489905 -0.00439388 9.71568 
9.76878 0.0210955 0.0464637 
0.0210955 9.66632 0.0585399 
0.0464637 0.0585399 9.636 
9.8704 0.134967 -0.0109479 
0.134967 9.56309 -0.0108883 
-0.0109479 -0.0108883 9.63761 
9.77332 0.0424959 0.212536 
0.0424959 9.62379 0.0364128 
0.212536 0.0364128 9.67399 
9.70402 -0.0121951 0.193479 
-0.0121951 9.68934 -0.0359064 
0.193479 -0.0359064 9.65186 
9.71108 -0.0197739 0.179022 
-0.0197739 9.69918 -0.091999 
0.179022 -0.091999 9.63496 
9.73688 -0.0453108 0.221325 
-0.0453108 9.60418 -0.0708627 
0.221325 -0.0708627 9.70416 
9.73714 -0.0360939 0.213071 
-0.0360939 9.6579 -0.0756339 
0.213071 -0.0756339 9.65018 
9.61783 0.223788 -0.397046 
0.223788 9.68667 -0.20621 
-0.397046 -0.20621 10.9821 
9.35724 -0.469036 -0.2959 
-0.469036 9.72326 -0.130668 
-0.2959 -0.130668 11.206 
9.3783 -0.467043 -0.282329 
-0.467043 9.73245 -0.13389 
-0.282329 -0.13389 11.1758 
9.73044 -0.358567 -0.608853 
-0.358567 9.92284 0.033659 
-0.608853 0.033659 10.6333 
9.69675 0.140983 -0.0661641 
0.140983 9.51415 0.111942 
-0.0661641 0.111942 9.59344 
9.63873 0.0637971 -0.044165 
0.0637971 9.47438 0.385827 
-0.044165 0.385827 9.69123 
9.60237 0.0745408 0.133341 
0.0745408 9.53681 0.389098 
0.133341 0.389098 9.66516 
9.3209 -0.0902378 0.130554 
-0.0902378 9.23413 0.291307 
0.130554 0.291307 10.2493 
9.80634 0.0711936 0.209333 
0.0711936 9.63223 0.191082 
0.209333 0.191082 9.42687 
9.86523 0.067909 0.463833 
0.067909 9.5497 0.113762 
0.463833 0.113762 9.45051 
9.72083 0.0108433 0.275993 
0.0108433 9.62257 0.143565 
0.275993 0.143565 9.52204 
9.65284 0.0593014 0.268088 
0.0593014 9.5805 0.106325 
0.268088 0.106325 9.6321 
9.74544 -0.00586564 0.0304067 
-0.00586564 9.65356 -0.00674948 
0.0304067 -0.00674948 9.93874 
9.70576 -0.0094733 0.0231027 
-0.0094733 9.72991 0.0121619 
0.0231027 0.0121619 9.90207 
9.62505 0.0235537 -0.00460939 
0.0235537 9.621 0.0418896 
-0.00460939 0.0418896 10.0917 
9.74873 -0.0269936 -0.0903106 
-0.0269936 9.74635 -0.0270549 
-0.0903106 -0.0270549 9.84266 
9.79206 0.0142184 0.262284 
0.0142184 9.84463 -0.123108 
0.262284 -0.123108 9.89914 
9.89295 -0.0489158 0.216698 
-0.0489158 9.87602 -0.104251 
0.216698 -0.104251 9.76686 
9.79971 0.0583749 0.178872 
0.0583749 9.82048 -0.094016 
0.178872 -0.094016 9.91563 
9.8239 0.00146768 0.204728 
0.00146768 9.86426 -0.130004 
0.204728 -0.130004 9.84767 
9.8671 0.0358615 -0.165448 
0.0358615 9.86503 -0.0476184 
-0.165448 -0.0476184 9.79499 
9.8397 0.0136061 -0.208144 
0.0136061 9.86479 -0.070908 
-0.208144 -0.070908 9.82263 
9.95169 0.0420078 -0.308663 
0.0420078 9.802 -0.121093 
-0.308663 -0.121093 9.77343 
9.78016 -0.021572 -0.182901 
-0.021572 9.85776 -0.0595726 
-0.182901 -0.0595726 9.88919 
8.16988 -0.504324 -2.02213 
-0.504324 10.6989 -2.30589 
-2.02213 -2.30589 10.6537 
10.0777 -0.855555 -1.17404 
-0.855555 9.03114 -0.741222 
-1.17404 -0.741222 10.4136 
10.2286 -0.659244 -1.1898 
-0.659244 9.89142 -0.178086 
-1.1898 -0.178086 9.40243 
9.22877 -0.255194 -0.349523 
-0.255194 9.27444 -0.921378 
-0.349523 -0.921378 11.0192 
11.9919 -0.276816 0.780333 
-0.276816 13.4166 0.199623 
0.780333 0.199623 12.5325 
12.6125 -0.263988 0.445539 
-0.263988 13.2131 -0.229563 
0.445539 -0.229563 12.1153 
11.9459 -0.279849 1.00583 
-0.279849 11.86 0.778752 
1.00583 0.778752 14.135 
12.5387 0.094319 1.0523 
0.094319 13.1757 0.414085 
1.0523 0.414085 12.2265 
7.96177 0.779866 0.484078 
0.779866 8.88813 -0.599841 
0.484078 -0.599841 1.88001 
6.64326 1.51068 -0.809306 
1.51068 7.88956 -1.73429 
-0.809306 -1.73429 4.19709 
9.01892 -1.59548 0.716058 
-1.59548 6.25929 -1.48508 
0.716058 -1.48508 3.4517 
7.6179 -0.082954 -1.0793 
-0.082954 8.14967 -1.57281 
-1.0793 -1.57281 2.96234 
9.47397 -0.00739092 -0.869319 
-0.00739092 9.46214 0.362696 
-0.869319 0.362696 9.64602 
9.21993 -0.115657 -1.1609 
-0.115657 9.33886 0.304829 
-1.1609 0.304829 10.0233 
9.31891 0.321037 -0.0171802 
0.321037 9.63032 0.681457 
-0.0171802 0.681457 9.6329 
9.90998 0.0692316 -1.00412 
0.0692316 9.56181 0.347538 
-1.00412 0.347538 9.11035 
8.90769 0.512522 -2.43665 
0.512522 9.68489 0.347288 
-2.43665 0.347288 7.91862 
8.36083 -0.590185 -1.72172 
-0.590185 8.2795 -0.110617 
-1.72172 -0.110617 9.87087 
9.34685 0.433897 -0.726032 
0.433897 9.49379 0.173789 
-0.726032 0.173789 7.67055 
9.52997 0.851442 -0.685388 
0.851442 9.14884 0.870384 
-0.685388 0.870384 7.83239 
9.87011 0.0116681 0.110587 
0.0116681 9.86757 -0.117848 
0.110587 -0.117848 9.89111 
9.84248 -0.00641202 0.0955482 
-0.00641202 9.92024 -0.108691 
0.0955482 -0.108691 9.86607 
9.8703 0.00998428 0.0985472 
0.00998428 9.90713 -0.13594 
0.0985472 -0.13594 9.85136 
9.8747 0.0165215 0.0789949 
0.0165215 9.88864 -0.115023 
0.0789949 -0.115023 9.86545 
9.72452 -0.045979 0.283153 
-0.045979 9.68735 -0.174697 
0.283153 -0.174697 9.66898 
9.74494 -0.0383259 0.274936 
-0.0383259 9.67866 -0.167209 
0.274936 -0.167209 9.65725 
9.71459 -0.0170567 0.279659 
-0.0170567 9.68466 -0.185506 
0.279659 -0.185506 9.68161 
9.73683 -0.0135727 0.275573 
-0.0135727 9.69532 -0.186175 
0.275573 -0.186175 9.6487 
9.52753 0.0392222 0.0520393 
0.0392222 9.73593 0.126104 
0.0520393 0.126104 9.59175 
9.57088 0.0213969 0.0460136 
0.0213969 9.66308 0.114477 
0.0460136 0.114477 9.62125 
9.56746 0.058577 0.0724791 
0.058577 9.70834 0.123965 
0.0724791 0.123965 9.57941 
9.56161 0.0483334 0.0326847 
0.0483334 9.68905 0.148359 
0.0326847 0.148359 9.60456 
9.68273 -0.0137837 0.16582 
-0.0137837 9.84184 -0.138873 
0.16582 -0.138873 9.66807 
9.63608 0.0768123 0.148149 
0.0768123 9.64491 -0.191415 
0.148149 -0.191415 9.91164 
9.86177 0.0295683 0.00997314 
0.0295683 9.23112 0.0446822 
0.00997314 0.0446822 10.0997 
9.94115 0.0554594 0.107674 
0.0554594 9.56108 -0.620939 
0.107674 -0.620939 9.69041 
10.1738 -0.406743 0.0101367 
-0.406743 6.91239 1.72685 
0.0101367 1.72685 1.98 
7.94645 -0.368943 -0.130423 
-0.368943 7.93299 0.0107055 
-0.130423 0.0107055 3.18679 
8.4476 -0.673906 -0.959346 
-0.673906 8.28756 -1.25091 
-0.959346 -1.25091 2.33107 
10.2289 1.21121 -1.27057 
1.21121 4.99849 -3.67806 
-1.27057 -3.67806 3.83887 
9.87314 -0.246489 -0.109697 
-0.246489 9.71926 0.333404 
-0.109697 0.333404 9.60951 
9.68032 -0.00279457 -0.0725904 
-0.00279457 9.85376 0.249883 
-0.0725904 0.249883 9.66783 
9.77489 -0.0585038 0.0758669 
-0.0585038 9.84152 0.202444 
0.0758669 0.202444 9.5855 
9.69509 -0.0879821 -0.165067 
-0.0879821 9.74738 0.126795 
-0.165067 0.126795 9.75944 
9.58453 -0.0485758 0.300046 
-0.0485758 9.60077 -0.140768 
0.300046 -0.140768 9.81409 
9.55875 0.0166462 0.209561 
0.0166462 9.64125 -0.070571 
0.209561 -0.070571 9.79939 
9.73483 -0.112914 0.180465 
-0.112914 9.70627 -0.203179 
0.180465 -0.203179 9.55828 
9.8003 -0.0875304 0.210044 
-0.0875304 9.68643 -0.0699094 
0.210044 -0.0699094 9.51265 
9.3669 -0.200652 -0.608043 
-0.200652 9.84475 -0.0577708 
-0.608043 -0.0577708 10.1582 
8.87276 0.193945 -1.01097 
0.193945 10.1951 -0.135753 
-1.01097 -0.135753 10.302 
9.10859 -0.312303 -0.34991 
-0.312303 9.82962 -0.155293 
-0.34991 -0.155293 10.4317 
9.75289 -0.0708543 -0.566754 
-0.0708543 9.74097 0.0673335 
-0.566754 0.0673335 9.87603 
10.0056 0.00575572 0.0645733 
0.00575572 9.98422 -0.00326785 
0.0645733 -0.00326785 9.93422 
10.0241 -0.00835542 0.0951396 
-0.00835542 9.9873 0.029487 
0.0951396 0.029487 9.91265 
10.0109 0.0122753 0.074604 
0.0122753 9.98953 -0.0101241 
0.074604 -0.0101241 9.92356 
9.98956 0.031412 0.0654908 
0.031412 9.99303 0.0246679 
0.0654908 0.0246679 9.94141 
9.6362 0.114773 0.473534 
0.114773 11.1325 -0.529156 
0.473534 -0.529156 11.6928 
11.2814 -1.00482 -0.123985 
-1.00482 10.1141 0.0398627 
-0.123985 0.0398627 11.0661 
10.3163 -0.287841 -0.150054 
-0.287841 10.6397 0.0397905 
-0.150054 0.0397905 11.5055 
10.5761 -0.188688 -0.40577 
-0.188688 10.1638 0.178774 
-0.40577 0.178774 11.7216 
9.8484 -0.395954 0.0218728 
-0.395954 9.34469 -0.393182 
0.0218728 -0.393182 10.7179 
9.3497 -0.04639 0.0574449 
-0.04639 9.79453 0.105946 
0.0574449 0.105946 10.7668 
8.81176 -0.478148 -0.394068 
-0.478148 9.9721 -0.00370186 
-0.394068 -0.00370186 11.1272 
10.2532 -0.916666 0.431186 
-0.916666 8.79985 -0.362057 
0.431186 -0.362057 10.858 
9.78002 -0.0662277 -0.533753 
-0.0662277 9.59545 0.227931 
-0.533753 0.227931 9.59717 
10.1423 0.456434 -0.686653 
0.456434 9.67844 0.0529511 
-0.686653 0.0529511 9.1519 
9.72191 0.254354 -0.306759 
0.254354 9.40517 0.132577 
-0.306759 0.132577 9.84555 
9.02286 -0.336644 -0.899323 
-0.336644 10.4486 -0.0762752 
-0.899323 -0.0762752 9.50121 
9.81132 -0.0152857 -0.48681 
-0.0152857 9.62064 -0.51728 
-0.48681 -0.51728 8.69663 
9.66864 0.030241 -0.165255 
0.030241 9.43113 -0.0993331 
-0.165255 -0.0993331 9.02882 
9.79569 -0.0457059 -0.246857 
-0.0457059 9.18639 -0.417212 
-0.246857 -0.417212 9.14651 
9.73889 0.0259794 -0.150046 
0.0259794 9.33134 -0.368432 
-0.150046 -0.368432 9.05836 
9.86856 0.163301 0.0357913 
0.163301 9.82037 -0.0520093 
0.0357913 -0.0520093 10.1141 
10.0504 -0.191539 0.0531719 
-0.191539 9.9364 -0.165062 
0.0531719 -0.165062 9.81625 
9.95219 0.118775 0.172393 
0.118775 9.8459 -0.26459 
0.172393 -0.26459 10.0049 
9.89594 0.00739714 0.0479616 
0.00739714 9.90021 -0.241691 
0.0479616 -0.241691 10.0069 
9.53218 0.0401652 0.117946 
0.0401652 9.73141 0.246835 
0.117946 0.246835 9.64548 
9.60801 0.000590768 0.176511 
0.000590768 9.63047 0.26354 
0.176511 0.26354 9.67059 
9.56743 0.0179731 0.117818 
0.0179731 9.67371 0.212766 
0.117818 0.212766 9.66792 
9.64118 0.0317746 0.102434 
0.0317746 9.74323 0.245748 
0.102434 0.245748 9.52466 
10.0481 0.00269773 -0.0192282 
0.00269773 10.0313 0.0225406 
-0.0192282 0.0225406 10.02 
10.071 0.00720406 -0.0912631 
0.00720406 10.0873 -0.00756402 
-0.0912631 -0.00756402 9.94113 
10.0249 -0.0174603 -0.0409322 
-0.0174603 10.0686 0.0167514 
-0.0409322 0.0167514 10.006 
10.0176 0.00315111 -0.0443737 
0.00315111 10.0737 0.0104894 
-0.0443737 0.0104894 10.0081 
9.64379 -0.0176261 -0.299771 
-0.0176261 9.65983 -0.189688 
-0.299771 -0.189688 9.64473 
9.63496 -0.0168355 -0.307986 
-0.0168355 9.63639 -0.220509 
-0.307986 -0.220509 9.67701 
9.67307 0.0552434 -0.25193 
0.0552434 9.70571 -0.185872 
-0.25193 -0.185872 9.56958 
9.64136 -0.0237224 -0.282135 
-0.0237224 9.63691 -0.167248 
-0.282135 -0.167248 9.67009 
8.54819 0.452754 -0.344761 
0.452754 8.97945 1.44026 
-0.344761 1.44026 9.26773 
8.76477 0.653896 -1.42076 
0.653896 8.57011 0.366956 
-1.42076 0.366956 9.46048 
7.77993 0.695478 -0.566887 
0.695478 8.72562 -0.273269 
-0.566887 -0.273269 10.2898 
8.41206 0.634967 -1.47035 
0.634967 9.25074 0.859565 
-1.47035 0.859565 9.13257 
4.80832 -0.554331 1.50259 
-0.554331 4.47755 1.55153 
1.50259 1.55153 0.925764 
4.9545 0.352895 1.41869 
0.352895 4.93833 1.49505 
1.41869 1.49505 0.318811 
4.28061 0.129583 0.782654 
0.129583 6.22694 1.46589 
0.782654 1.46589 -0.295906 
4.71862 0.351617 2.23652 
0.351617 4.1608 1.49844 
2.23652 1.49844 1.33221 
10.3775 0.312275 -0.761201 
0.312275 7.49469 -1.49615 
-0.761201 -1.49615 9.05723 
9.61124 -0.0186075 -0.189482 
-0.0186075 10.0525 -1.27999 
-0.189482 -1.27999 7.26568 
8.98339 0.296742 0.223878 
0.296742 10.2283 -2.35598 
0.223878 -2.35598 7.7178 
9.55501 -0.0400387 0.190027 
-0.0400387 10.8108 -0.820688 
0.190027 -0.820688 6.5637 
9.74466 0.0788381 0.00345583 
0.0788381 9.86412 -0.0861651 
0.00345583 -0.0861651 9.76804 
9.77413 0.0134679 0.00354099 
0.0134679 9.79316 -0.0490111 
0.00354099 -0.0490111 9.80953 
9.77367 -0.0321607 -0.0284981 
-0.0321607 9.79396 -0.0640502 
-0.0284981 -0.0640502 9.80918 
9.71306 0.0427593 -0.0975081 
0.0427593 9.80692 -0.0323898 
-0.0975081 -0.0323898 9.85683 
8.79193 0.763397 -1.0834 
0.763397 10.2547 1.74972 
-1.0834 1.74972 6.40225 
7.53807 -0.426358 -2.44166 
-0.426358 8.65455 0.428042 
-2.44166 0.428042 9.25622 
7.95485 0.901869 -1.47468 
0.901869 10.9033 0.793781 
-1.47468 0.793781 6.59067 
8.66724 0.939166 -0.940388 
0.939166 10.2473 0.948832 
-0.940388 0.948832 6.53434 
9.74488 0.0233535 -0.208537 
0.0233535 9.72605 -0.142766 
-0.208537 -0.142766 9.64252 
9.74124 0.0189617 -0.253405 
0.0189617 9.70438 -0.158162 
-0.253405 -0.158162 9.66783 
9.74287 0.0287884 -0.238731 
0.0287884 9.71483 -0.16161 
-0.238731 -0.16161 9.65576 
9.7868 0.0179611 -0.244807 
0.0179611 9.69525 -0.146085 
-0.244807 -0.146085 9.6314 
9.61516 -0.0131196 0.0090121 
-0.0131196 9.7498 0.0296688 
0.0090121 0.0296688 9.85405 
9.71386 -0.0130026 -0.0153845 
-0.0130026 9.72113 0.043817 
-0.0153845 0.043817 9.78402 
9.66148 -0.0113673 -0.0306039 
-0.0113673 9.69972 -0.0557982 
-0.0306039 -0.0557982 9.85781 
9.62833 0.014424 0.024954 
0.014424 9.69675 0.010977 
0.024954 0.010977 9.89393 
10.0268 0.576462 0.221683 
0.576462 9.18361 -0.729119 
0.221683 -0.729119 8.8108 
10.0712 0.230582 -0.437897 
0.230582 9.0486 -0.436845 
-0.437897 -0.436845 8.90148 
10.0545 0.277751 -0.256221 
0.277751 8.9829 -0.450899 
-0.256221 -0.450899 8.98384 
9.75054 -0.248694 -0.727815 
-0.248694 9.45593 0.109528 
-0.727815 0.109528 8.81478 
9.60088 -0.0883622 -0.195534 
-0.0883622 9.16692 0.116569 
-0.195534 0.116569 10.5381 
9.70747 -0.150767 -0.170164 
-0.150767 9.3423 0.06547 
-0.170164 0.06547 10.2561 
9.78512 -0.0797154 -0.140493 
-0.0797154 9.42934 -0.145722 
-0.140493 -0.145722 10.0914 
9.62579 -0.235993 -0.327111 
-0.235993 9.34484 -0.150716 
-0.327111 -0.150716 10.3353 
9.70925 -0.107636 -0.184291 
-0.107636 9.72968 0.127389 
-0.184291 0.127389 9.56255 
9.8089 -0.215769 -0.244368 
-0.215769 9.66319 0.0350878 
-0.244368 0.0350878 9.52938 
9.8617 -0.134859 -0.165405 
-0.134859 9.61499 -0.0922248 
-0.165405 -0.0922248 9.52479 
9.79998 -0.194053 -0.291035 
-0.194053 9.58737 0.0455773 
-0.291035 0.0455773 9.61412 
9.7844 -0.0209316 -0.0215694 
-0.0209316 9.72899 -0.00583298 
-0.0215694 -0.00583298 9.84781 
9.81587 -0.00625812 -0.0301859 
-0.00625812 9.70305 0.0379606 
-0.0301859 0.0379606 9.84228 
9.7563 -0.0401473 0.0496146 
-0.0401473 9.74521 0.0162537 
0.0496146 0.0162537 9.85968 
9.77492 -0.00168489 -0.0375389 
-0.00168489 9.71549 -0.0130874 
-0.0375389 -0.0130874 9.87079 
10.6028 -0.250624 0.366174 
-0.250624 8.43574 0.375096 
0.366174 0.375096 8.42231 
10.353 -0.389766 0.255411 
-0.389766 9.24747 -1.31919 
0.255411 -1.31919 7.86032 
9.26516 0.024688 0.226927 
0.024688 9.45795 -1.21508 
0.226927 -1.21508 8.7377 
9.12408 -0.484059 0.386118 
-0.484059 8.73543 -1.32669 
0.386118 -1.32669 9.6013 
9.73894 -0.0055934 0.279933 
-0.0055934 9.71918 -0.149169 
0.279933 -0.149169 9.69809 
9.74954 -0.00749176 0.289349 
-0.00749176 9.71392 -0.139664 
0.289349 -0.139664 9.69275 
9.75203 0.00171486 0.301002 
0.00171486 9.70285 -0.144326 
0.301002 -0.144326 9.70132 
9.75097 -0.0094028 0.2974 
-0.0094028 9.72128 -0.147951 
0.2974 -0.147951 9.68395 
9.70513 0.654207 -0.0837262 
0.654207 9.38726 -0.680855 
-0.0837262 -0.680855 8.26596 
10.0381 0.646474 -0.797306 
0.646474 8.39299 -1.03279 
-0.797306 -1.03279 8.92731 
9.99891 1.35569 0.296314 
1.35569 10.0887 -0.770191 
0.296314 -0.770191 7.2707 
10.1138 -1.01024 0.794845 
-1.01024 8.04161 0.646828 
0.794845 0.646828 9.20292 
10.0474 0.000644226 0.023495 
0.000644226 10.0463 0.0039598 
0.023495 0.0039598 10.0345 
10.0816 0.00805086 -0.0161204 
0.00805086 10.0677 -0.0126515 
-0.0161204 -0.0126515 9.97894 
10.0581 0.014701 0.0307413 
0.014701 10.0567 0.0107917 
0.0307413 0.0107917 10.0135 
10.0614 0.00842311 -0.000250085 
0.00842311 10.0708 0.0133932 
-0.000250085 0.0133932 9.99602 
10.3347 0.203366 -0.118047 
0.203366 10.7284 0.405631 
-0.118047 0.405631 11.7419 
10.7474 -0.497461 0.0529015 
-0.497461 10.4669 -0.371394 
0.0529015 -0.371394 11.5907 
10.7738 -1.33674 -0.599712 
-1.33674 9.42523 0.390721 
-0.599712 0.390721 12.606 
10.1282 -0.210294 0.0919763 
-0.210294 10.7701 -0.370769 
0.0919763 -0.370769 11.9067 
9.85124 0.188921 0.264811 
0.188921 9.36664 0.514515 
0.264811 0.514515 9.14266 
9.64457 0.32853 -0.128384 
0.32853 9.64422 0.582807 
-0.128384 0.582807 9.07175 
9.52786 -0.117373 -0.27883 
-0.117373 9.15375 0.517064 
-0.27883 0.517064 9.67892 
9.99498 -0.259621 0.0593161 
-0.259621 9.1994 1.22416 
0.0593161 1.22416 9.16616 
9.92652 -0.0695449 0.0758898 
-0.0695449 9.63536 0.340164 
0.0758898 0.340164 9.92874 
9.82173 0.0234846 -0.0143377 
0.0234846 9.66989 0.140271 
-0.0143377 0.140271 9.99901 
9.84645 -0.0362416 0.00528489 
-0.0362416 9.68611 0.133648 
0.00528489 0.133648 9.95806 
9.82778 0.0418456 0.0211959 
0.0418456 9.79724 0.225583 
0.0211959 0.225583 9.86561 
9.57805 -0.139659 0.823409 
-0.139659 9.15092 0.100571 
0.823409 0.100571 10.2384 
9.97643 -0.111227 0.348832 
-0.111227 9.6326 -0.169529 
0.348832 -0.169529 9.35831 
9.56554 -0.177505 0.330525 
-0.177505 9.60351 -0.0274737 
0.330525 -0.0274737 9.79827 
9.62804 -0.287681 0.233899 
-0.287681 9.20007 0.0624039 
0.233899 0.0624039 10.1392 
9.71871 -0.0283275 0.093388 
-0.0283275 9.71694 -0.31348 
0.093388 -0.31348 9.67627 
9.67206 -0.0156403 0.103134 
-0.0156403 9.72269 -0.297017 
0.103134 -0.297017 9.71717 
9.70129 -0.0220495 0.0980131 
-0.0220495 9.76123 -0.283739 
0.0980131 -0.283739 9.6494 
9.68009 0.0121761 0.105753 
0.0121761 9.7259 -0.301284 
0.105753 -0.301284 9.70592 
9.66959 0.0952698 0.0824968 
0.0952698 9.49931 -0.0522117 
0.0824968 -0.0522117 10.0838 
9.65402 -0.0786952 -0.00438493 
-0.0786952 9.75504 -0.270114 
-0.00438493 -0.270114 9.84363 
9.7536 -0.0442076 0.0647876 
-0.0442076 9.86863 -0.245105 
0.0647876 -0.245105 9.63046 
9.58799 0.0189215 0.0360034 
0.0189215 9.69153 -0.360622 
0.0360034 -0.360622 9.97317 
10.5233 0.0960715 -0.382143 
0.0960715 9.55547 0.206009 
-0.382143 0.206009 11.9789 
10.3738 0.12044 0.332882 
0.12044 10.2028 1.06705 
0.332882 1.06705 11.4811 
10.6942 -0.21336 -0.0787685 
-0.21336 9.58932 0.240204 
-0.0787685 0.240204 11.7742 
11.0406 0.00606919 -0.0188348 
0.00606919 9.92275 0.999219 
-0.0188348 0.999219 11.0943 
9.88007 0.00479296 0.0830178 
0.00479296 9.85753 0.215119 
0.0830178 0.215119 9.7455 
9.78348 0.013894 0.0584993 
0.013894 9.87995 0.190514 
0.0584993 0.190514 9.81968 
9.82756 0.00668504 0.0249294 
0.00668504 9.83623 0.188449 
0.0249294 0.188449 9.81931 
9.80719 -0.0138304 0.0364006 
-0.0138304 9.85848 0.1576 
0.0364006 0.1576 9.81743 
9.85493 0.00767593 -0.0128905 
0.00767593 9.86822 0.04938 
-0.0128905 0.04938 9.9756 
9.857 0.00341292 0.000678438 
0.00341292 9.85277 0.0319525 
0.000678438 0.0319525 9.98898 
9.85544 0.00452535 -0.0185672 
0.00452535 9.85941 0.0428642 
-0.0185672 0.0428642 9.9839 
9.86862 0.00752793 -0.0229948 
0.00752793 9.88919 0.0396421 
-0.0229948 0.0396421 9.94095 
9.83103 0.0989956 0.103736 
0.0989956 9.50771 0.0489355 
0.103736 0.0489355 9.17571 
9.88933 0.0800363 -0.0591895 
0.0800363 9.9438 0.104011 
-0.0591895 0.104011 8.68132 
9.83489 0.0923966 0.331541 
0.0923966 9.40669 0.202404 
0.331541 0.202404 9.27286 
9.11001 -0.0346108 0.141478 
-0.0346108 9.72035 -0.144509 
0.141478 -0.144509 9.68409 
9.78101 0.0272827 0.239516 
0.0272827 9.76555 0.137447 
0.239516 0.137447 9.64006 
9.75239 0.0191789 0.215353 
0.0191789 9.71646 0.183686 
0.215353 0.183686 9.71776 
9.80282 0.0273348 0.159091 
0.0273348 9.71513 0.128748 
0.159091 0.128748 9.66866 
9.78156 0.0152253 0.196532 
0.0152253 9.73531 0.126115 
0.196532 0.126115 9.66975 
9.91081 -0.0167542 -0.0306123 
-0.0167542 9.94425 0.0369444 
-0.0306123 0.0369444 9.93351 
9.95875 0.0184232 -0.0557303 
0.0184232 9.92514 0.00606461 
-0.0557303 0.00606461 9.90467 
9.94418 -0.00135336 -0.0785089 
-0.00135336 9.93674 0.0378718 
-0.0785089 0.0378718 9.90765 
9.91811 -0.000367302 -0.0210818 
-0.000367302 9.90736 0.0221987 
-0.0210818 0.0221987 9.96311 
9.45337 0.617799 0.193611 
0.617799 11.5698 0.120311 
0.193611 0.120311 10.9619 
9.57934 0.257469 0.0215399 
0.257469 10.863 -0.487988 
0.0215399 -0.487988 11.5427 
10.1475 -0.469334 0.280741 
-0.469334 9.88122 0.219062 
0.280741 0.219062 11.9564 
9.99307 -0.56169 -0.499149 
-0.56169 10.7 -0.208045 
-0.499149 -0.208045 11.2921 
9.75287 0.0219701 0.0738565 
0.0219701 9.78378 0.171517 
0.0738565 0.171517 9.76946 
9.74558 0.0306084 0.121123 
0.0306084 9.79993 0.200426 
0.121123 0.200426 9.7606 
9.7545 0.03409 0.089455 
0.03409 9.84601 0.16044 
0.089455 0.16044 9.70561 
9.74149 -0.00564333 0.051292 
-0.00564333 9.70794 0.121227 
0.051292 0.121227 9.85669 
9.74051 0.0746251 0.191202 
0.0746251 9.73703 -0.27483 
0.191202 -0.27483 10.0174 
9.79092 -0.0131672 0.102511 
-0.0131672 9.69026 -0.208502 
0.102511 -0.208502 10.0137 
9.87316 -0.0137003 0.0686076 
-0.0137003 9.65796 -0.22177 
0.0686076 -0.22177 9.96378 
9.68093 -0.0765942 -0.00790949 
-0.0765942 9.73289 -0.0595471 
-0.00790949 -0.0595471 10.0811 
10.0067 0.0015291 -0.0411643 
0.0015291 10.0227 -0.0141998 
-0.0411643 -0.0141998 9.95271 
10.0131 -0.01917 -0.0164426 
-0.01917 10.0152 -0.03492 
-0.0164426 -0.03492 9.95383 
9.99187 -0.000838066 -0.030255 
-0.000838066 10.0039 -0.0195253 
-0.030255 -0.0195253 9.98637 
10.0291 0.0108236 -0.0447861 
0.0108236 10.0058 -0.0519752 
-0.0447861 -0.0519752 9.94725 
10.1241 -0.0300872 0.173819 
-0.0300872 9.94048 -0.0184004 
0.173819 -0.0184004 9.78115 
9.83946 0.225552 0.0353606 
0.225552 9.85949 -0.10102 
0.0353606 -0.10102 10.1468 
9.82212 0.0551749 0.018861 
0.0551749 9.82721 -0.122846 
0.018861 -0.122846 10.1964 
9.75428 0.0156134 0.143494 
0.0156134 10.0359 -0.203251 
0.143494 -0.203251 10.0556 
8.68117 0.917325 -2.39011 
0.917325 10.1191 1.12201 
-2.39011 1.12201 10.8753 
9.77321 -0.448866 -1.42114 
-0.448866 10.0742 0.742836 
-1.42114 0.742836 9.82814 
10.1793 0.37123 -1.21027 
0.37123 10.4975 1.23287 
-1.21027 1.23287 8.99869 
9.50679 0.240547 0.390134 
0.240547 7.77882 -0.234631 
0.390134 -0.234631 12.3899 
9.76812 0.01935 0.221863 
0.01935 9.75434 0.195299 
0.221863 0.195299 9.72302 
9.78527 0.0131692 0.185889 
0.0131692 9.77381 0.225652 
0.185889 0.225652 9.6864 
9.79371 0.0225783 0.226244 
0.0225783 9.74983 0.227648 
0.226244 0.227648 9.70194 
9.7525 0.0187158 0.222763 
0.0187158 9.76953 0.220559 
0.222763 0.220559 9.72346 
9.64706 0.048943 0.206873 
0.048943 9.62099 -0.021738 
0.206873 -0.021738 9.90827 
9.74083 0.0419488 0.152706 
0.0419488 9.62694 -0.0456458 
0.152706 -0.0456458 9.80854 
9.47376 -0.0383202 0.0223237 
-0.0383202 9.7734 -0.0576883 
0.0223237 -0.0576883 9.92915 
9.52439 0.100413 0.366717 
0.100413 9.74328 0.0139837 
0.366717 0.0139837 9.90865 
10.6626 -0.682724 2.98835 
-0.682724 4.996 0.916228 
2.98835 0.916228 3.68224 
3.36328 0.602075 -0.621411 
0.602075 10.4593 3.19583 
-0.621411 3.19583 5.51823 
8.24819 1.32865 3.71717 
1.32865 10.5122 -0.0936496 
3.71717 -0.0936496 0.580424 
8.95814 0.362689 0.82327 
0.362689 7.37102 2.00196 
0.82327 2.00196 3.01169 
9.63296 0.0513827 -0.0178544 
0.0513827 9.57114 -0.144425 
-0.0178544 -0.144425 9.72382 
9.993 -0.043624 0.021504 
-0.043624 9.48747 -0.00281574 
0.021504 -0.00281574 9.44745 
9.85496 -0.0316323 0.0730779 
-0.0316323 9.55622 0.0364902 
0.0730779 0.0364902 9.51674 
9.72602 -0.0724522 0.33882 
-0.0724522 9.80424 0.0886232 
0.33882 0.0886232 9.39767 
9.55893 0.0523753 0.0220622 
0.0523753 9.5025 -0.00089588 
0.0220622 -0.00089588 9.87459 
9.57327 0.0219889 -0.00288307 
0.0219889 9.54558 -0.00502581 
-0.00288307 -0.00502581 9.81718 
9.53334 0.00395131 0.0812898 
0.00395131 9.50091 0.000552528 
0.0812898 0.000552528 9.90178 
9.49757 0.0522835 0.0371485 
0.0522835 9.53753 0.0123682 
0.0371485 0.0123682 9.90093 
9.93749 -0.00984725 -0.0560351 
-0.00984725 9.94244 0.0457968 
-0.0560351 0.0457968 9.91508 
9.9536 -0.0194581 -0.0320841 
-0.0194581 9.93746 0.032717 
-0.0320841 0.032717 9.90396 
9.92953 -0.014532 -0.0587787 
-0.014532 9.94445 0.043678 
-0.0587787 0.043678 9.92104 
9.93341 0.0227181 -0.0302592 
0.0227181 9.91743 0.0286967 
-0.0302592 0.0286967 9.94418 
9.93773 0.01283 0.05304 
0.01283 9.9285 -0.0328563 
0.05304 -0.0328563 9.93685 
9.99157 -0.0139043 0.0960934 
-0.0139043 9.93695 -0.0428825 
0.0960934 -0.0428825 9.87456 
9.91918 0.00396354 0.0607212 
0.00396354 9.96727 0.00290235 
0.0607212 0.00290235 9.91664 
9.98287 -0.0037164 0.0775311 
-0.0037164 9.98047 -0.10587 
0.0775311 -0.10587 9.83974 
10.0085 -0.00508659 -0.00968951 
-0.00508659 10.011 0.00339208 
-0.00968951 0.00339208 9.99853 
10.0429 0.00903773 -0.00119765 
0.00903773 10.0142 0.00134218 
-0.00119765 0.00134218 9.9609 
10.0487 0.0122578 -0.05149 
0.0122578 10.0359 -0.0363871 
-0.05149 -0.0363871 9.93346 
10.0566 -0.00378422 -0.0150838 
-0.00378422 10.0195 -0.042815 
-0.0150838 -0.042815 9.94184 
9.77053 0.0134721 -0.0374932 
0.0134721 9.77241 0.0538581 
-0.0374932 0.0538581 9.87333 
9.73783 0.0448992 -0.0218606 
0.0448992 9.75481 0.0233987 
-0.0218606 0.0233987 9.92363 
9.76529 0.00066681 0.0284246 
0.00066681 9.75923 0.0384565 
0.0284246 0.0384565 9.89176 
9.74788 -0.0234978 0.0839043 
-0.0234978 9.8019 0.0208479 
0.0839043 0.0208479 9.8665 
9.87285 -0.018237 -0.144081 
-0.018237 9.83577 -0.0236214 
-0.144081 -0.0236214 9.92505 
9.82061 -0.0303455 -0.179574 
-0.0303455 9.83856 -0.107374 
-0.179574 -0.107374 9.9745 
9.85108 -0.00845508 -0.136655 
-0.00845508 9.88905 -0.103393 
-0.136655 -0.103393 9.89355 
9.91099 0.00884908 -0.175092 
0.00884908 9.91572 -0.0979541 
-0.175092 -0.0979541 9.80697 
9.76079 0.0519393 0.0486842 
0.0519393 9.78676 -0.0497183 
0.0486842 -0.0497183 9.75711 
9.82293 -0.00565664 -0.0829991 
-0.00565664 9.71373 -0.00858834 
-0.0829991 -0.00858834 9.768 
9.75476 -0.00592124 -0.0676816 
-0.00592124 9.72786 0.011473 
-0.0676816 0.011473 9.82204 
9.77994 0.0125456 -0.0487947 
0.0125456 9.74306 -0.00978461 
-0.0487947 -0.00978461 9.78165 
10.1146 0.000112582 0.00985646 
0.000112582 10.1196 0.00342542 
0.00985646 0.00342542 10.0047 
10.1315 -0.00143881 0.00973396 
-0.00143881 10.1162 0.00968647 
0.00973396 0.00968647 9.99118 
10.1166 -0.00293608 0.00950929 
-0.00293608 10.1165 -0.00507164 
0.00950929 -0.00507164 10.0058 
10.1284 0.00557492 -0.0128304 
0.00557492 10.1201 0.000522156 
-0.0128304 0.000522156 9.99032 
9.78557 -0.0178033 0.211639 
-0.0178033 9.74032 0.0694947 
0.211639 0.0694947 9.715 
9.87388 0.00942904 0.0890448 
0.00942904 9.68043 0.0710436 
0.0890448 0.0710436 9.68658 
9.77388 0.0148853 0.129365 
0.0148853 9.67821 -0.0328094 
0.129365 -0.0328094 9.7888 
9.81447 0.0253401 0.164891 
0.0253401 9.6823 0.0239949 
0.164891 0.0239949 9.74412 
7.06241 0.210487 -0.193 
0.210487 4.86706 0.887798 
-0.193 0.887798 -2.57717 
6.29997 1.64169 -1.01956 
1.64169 5.93659 0.597788 
-1.01956 0.597788 -2.88425 
1.39473 0.282034 0.5623 
0.282034 2.08212 -2.38742 
0.5623 -2.38742 5.87546 
5.40432 -0.495468 0.457787 
-0.495468 6.56438 -1.90248 
0.457787 -1.90248 -2.61639 
11.6508 0.219676 1.42083 
0.219676 8.7213 -6.76242 
1.42083 -6.76242 2.04567 
9.00099 0.190033 -0.0154038 
0.190033 5.99087 -2.69578 
-0.0154038 -2.69578 7.42595 
7.83352 -1.18159 1.28505 
-1.18159 8.72156 -3.75254 
1.28505 -3.75254 5.86274 
6.643 -0.812442 0.553757 
-0.812442 10.4461 0.366182 
0.553757 0.366182 5.32874 
10.4877 0.146275 1.00087 
0.146275 9.82793 0.281359 
1.00087 0.281359 12.5986 
3.14783 -0.351971 -3.05748 
-0.351971 8.98901 1.46121 
-3.05748 1.46121 20.7773 
8.85765 1.28852 0.294652 
1.28852 12.5721 -0.625263 
0.294652 -0.625263 11.4845 
8.74144 -0.0779302 -0.745833 
-0.0779302 12.6291 0.555728 
-0.745833 0.555728 11.5437 
9.7377 -0.00466222 0.0358323 
-0.00466222 9.79237 -0.000827281 
0.0358323 -0.000827281 9.84789 
9.71886 -0.0226973 0.00552064 
-0.0226973 9.77675 -0.0685898 
0.00552064 -0.0685898 9.88234 
9.76209 -0.0287141 0.0262726 
-0.0287141 9.82882 0.00881365 
0.0262726 0.00881365 9.78704 
9.74877 -0.0285584 -0.0178654 
-0.0285584 9.75616 -0.00997118 
-0.0178654 -0.00997118 9.87302 
8.94967 -0.885272 -0.410307 
-0.885272 10.7714 0.29282 
-0.410307 0.29282 12.5743 
9.6871 -1.54557 -0.893527 
-1.54557 9.74633 -1.1192 
-0.893527 -1.1192 12.862 
8.87962 -0.327202 -1.25898 
-0.327202 11.4691 -0.350083 
-1.25898 -0.350083 11.9467 
9.12738 -0.181982 -0.0925877 
-0.181982 10.6052 -1.2034 
-0.0925877 -1.2034 12.5628 
9.84023 0.163266 0.279451 
0.163266 9.59531 -0.103422 
0.279451 -0.103422 9.65501 
9.7971 0.131518 0.246371 
0.131518 9.62801 -0.00762767 
0.246371 -0.00762767 9.66544 
9.79812 0.144904 0.223449 
0.144904 9.68663 0.049438 
0.223449 0.049438 9.6058 
9.77055 0.138754 0.203234 
0.138754 9.6378 0.0553701 
0.203234 0.0553701 9.68221 
9.55192 0.344684 -0.0584098 
0.344684 9.59923 0.317061 
-0.0584098 0.317061 9.67226 
9.42558 0.152079 0.116865 
0.152079 9.94197 0.0174596 
0.116865 0.0174596 9.45584 
9.42559 0.155263 0.00919103 
0.155263 9.67603 0.23854 
0.00919103 0.23854 9.72179 
9.5245 0.0702476 0.196858 
0.0702476 9.84232 0.266308 
0.196858 0.266308 9.45658 
10.3636 0.847906 -1.05243 
0.847906 10.9593 0.130656 
-1.05243 0.130656 13.3889 
13.2789 1.07929 0.923233 
1.07929 8.67656 0.0703918 
0.923233 0.0703918 12.7563 
11.4442 0.677858 -0.367924 
0.677858 8.78364 0.542249 
-0.367924 0.542249 14.4839 
8.40642 0.887462 1.60911 
0.887462 11.132 -0.539046 
1.60911 -0.539046 15.1734 
9.66952 -0.0897134 0.0919048 
-0.0897134 9.86867 -0.17994 
0.0919048 -0.17994 9.60291 
9.70492 -0.0402398 0.0178899 
-0.0402398 9.87272 -0.157713 
0.0178899 -0.157713 9.56346 
9.70668 -0.0192586 0.0350129 
-0.0192586 9.8425 -0.184676 
0.0350129 -0.184676 9.59192 
9.66983 -0.0940138 0.0478086 
-0.0940138 9.83072 -0.207047 
0.0478086 -0.207047 9.64055 
9.88633 -0.0469732 0.0675297 
-0.0469732 9.97309 0.0337815 
0.0675297 0.0337815 9.85155 
9.85019 -0.0380697 0.110186 
-0.0380697 9.92855 0.0731531 
0.110186 0.0731531 9.93224 
9.95585 0.0155328 0.171976 
0.0155328 9.93101 0.00257593 
0.171976 0.00257593 9.82411 
9.91638 0.00992618 0.124376 
0.00992618 9.92244 -0.0289884 
0.124376 -0.0289884 9.87215 
9.75284 -0.104985 -0.122269 
-0.104985 9.72546 0.1431 
-0.122269 0.1431 9.65315 
9.81031 -0.0118881 -0.188665 
-0.0118881 9.65501 0.0438689 
-0.188665 0.0438689 9.66614 
9.69925 -0.0654193 -0.172472 
-0.0654193 9.73027 0.128162 
-0.172472 0.128162 9.70193 
9.69545 0.00907034 -0.167543 
0.00907034 9.7105 -0.0072461 
-0.167543 -0.0072461 9.7255 
9.72603 -0.00414125 0.112081 
-0.00414125 9.76254 -0.295298 
0.112081 -0.295298 9.74227 
9.73306 -0.00731771 0.0959654 
-0.00731771 9.76305 -0.281869 
0.0959654 -0.281869 9.73473 
9.76501 -0.0381538 0.0841942 
-0.0381538 9.78796 -0.290331 
0.0841942 -0.290331 9.67787 
9.71449 -0.0291647 0.0527266 
-0.0291647 9.73242 -0.283757 
0.0527266 -0.283757 9.78393 
9.89098 -0.073903 -0.223542 
-0.073903 9.27231 0.81699 
-0.223542 0.81699 7.64575 
9.47326 0.499472 0.201652 
0.499472 9.32459 -0.241836 
0.201652 -0.241836 8.01119 
8.91472 -0.925455 -0.930552 
-0.925455 10.7938 1.08959 
-0.930552 1.08959 7.10055 
9.73068 0.196659 -0.804772 
0.196659 9.29409 1.56035 
-0.804772 1.56035 7.78427 
9.86912 -0.0227889 -0.127167 
-0.0227889 9.87955 -0.0528396 
-0.127167 -0.0528396 9.94153 
9.86889 -0.0206838 -0.135416 
-0.0206838 9.89653 -0.0646841 
-0.135416 -0.0646841 9.92478 
9.86349 -0.0230873 -0.15103 
-0.0230873 9.89707 -0.0614827 
-0.15103 -0.0614827 9.92963 
9.85967 -0.0190986 -0.141751 
-0.0190986 9.89362 -0.0602536 
-0.141751 -0.0602536 9.93691 
9.7766 -0.064102 -0.250663 
-0.064102 9.78814 0.0847696 
-0.250663 0.0847696 9.63724 
9.92323 -0.00539138 -0.10785 
-0.00539138 9.68145 0.0183428 
-0.10785 0.0183428 9.5973 
9.78157 -0.0605475 -0.189334 
-0.0605475 9.77266 0.0890384 
-0.189334 0.0890384 9.64776 
9.74925 -0.0401788 -0.164455 
-0.0401788 9.67777 0.125828 
-0.164455 0.125828 9.77496 
8.95382 0.339634 -1.1205 
0.339634 9.92056 0.38684 
-1.1205 0.38684 10.4361 
8.9932 -0.0948484 -0.963397 
-0.0948484 9.75195 0.168689 
-0.963397 0.168689 10.5653 
9.64174 -0.291494 -1.11155 
-0.291494 9.86711 -0.352016 
-1.11155 -0.352016 9.8016 
9.94129 -0.324835 0.587285 
-0.324835 9.38094 -0.178585 
0.587285 -0.178585 9.98822 
7.26798 1.362 -2.70825 
1.362 10.4071 0.645943 
-2.70825 0.645943 9.04498 
6.9112 -0.709218 -3.68935 
-0.709218 8.30844 2.03646 
-3.68935 2.03646 11.5004 
9.31504 -1.35415 -1.57147 
-1.35415 10.0488 1.22482 
-1.57147 1.22482 7.35622 
6.85741 1.99239 -1.16946 
1.99239 9.74058 0.0985738 
-1.16946 0.0985738 10.122 
9.79311 -0.0721311 0.00807548 
-0.0721311 9.87056 0.0646379 
0.00807548 0.0646379 9.78058 
9.78538 0.0269217 -0.0280092 
0.0269217 9.78605 0.125749 
-0.0280092 0.125749 9.87282 
9.79347 -0.0407236 -0.0668972 
-0.0407236 9.85566 0.125389 
-0.0668972 0.125389 9.79511 
9.79509 -0.0195783 -0.0103721 
-0.0195783 9.83393 0.124123 
-0.0103721 0.124123 9.81523 
9.81469 -0.020376 -0.00072727 
-0.020376 9.89872 0.221386 
-0.00072727 0.221386 9.79481 
9.79726 8.76513e-06 0.014376 
8.76513e-06 9.89984 0.128475 
0.014376 0.128475 9.81112 
9.82652 -0.0166501 -0.0302829 
-0.0166501 9.86776 0.17135 
-0.0302829 0.17135 9.81393 
9.84106 0.0038301 -0.0547175 
0.0038301 9.80564 0.120266 
-0.0547175 0.120266 9.86151 
7.41743 0.793299 -1.11254 
0.793299 11.9131 0.270898 
-1.11254 0.270898 17.8255 
13.7083 0.960139 -1.43684 
0.960139 16.0942 -0.387976 
-1.43684 -0.387976 7.35342 
8.08292 0.847713 -0.505518 
0.847713 10.9627 1.7079 
-0.505518 1.7079 18.1104 
10.7048 1.10078 4.9789 
1.10078 10.7354 -2.08977 
4.9789 -2.08977 15.7158 
9.72335 -0.0145156 0.265285 
-0.0145156 9.71863 -0.20744 
0.265285 -0.20744 9.84686 
9.79287 -0.000663182 0.237946 
-0.000663182 9.74094 -0.162931 
0.237946 -0.162931 9.75503 
9.8155 -0.0215813 0.293653 
-0.0215813 9.80223 -0.144942 
0.293653 -0.144942 9.67111 
9.78719 0.00448598 0.244248 
0.00448598 9.75943 -0.170524 
0.244248 -0.170524 9.74222 
9.82085 -0.00463794 0.318844 
-0.00463794 9.79826 -0.0545268 
0.318844 -0.0545268 9.72538 
9.74139 0.00228954 0.256969 
0.00228954 9.81837 -0.000326362 
0.256969 -0.000326362 9.78473 
9.78424 0.0175823 0.330322 
0.0175823 9.81108 -0.0331868 
0.330322 -0.0331868 9.74918 
9.7851 0.00429499 0.306797 
0.00429499 9.80641 -0.0367338 
0.306797 -0.0367338 9.75298 
9.78813 0.0831235 0.183945 
0.0831235 9.88445 -0.260017 
0.183945 -0.260017 9.72176 
9.7289 0.00718995 0.0370237 
0.00718995 9.70542 -0.182755 
0.0370237 -0.182755 9.96002 
9.80004 -0.0623254 0.167289 
-0.0623254 9.70633 -0.209265 
0.167289 -0.209265 9.88796 
9.65041 -0.0638417 0.259578 
-0.0638417 9.98857 -0.2314 
0.259578 -0.2314 9.75535 
9.42608 0.0363022 -0.37865 
0.0363022 9.79557 0.324032 
-0.37865 0.324032 9.14399 
9.6509 0.076863 -0.32904 
0.076863 9.58958 0.264529 
-0.32904 0.264529 9.12515 
9.47543 -0.184905 -0.403155 
-0.184905 9.49958 0.0652461 
-0.403155 0.0652461 9.39062 
9.57293 0.0403211 -0.317886 
0.0403211 9.54145 0.259813 
-0.317886 0.259813 9.25125 
9.61737 0.0643479 -0.0863064 
0.0643479 8.88896 -0.188068 
-0.0863064 -0.188068 10.1352 
9.62818 -0.123164 0.0565002 
-0.123164 9.27456 -0.150906 
0.0565002 -0.150906 9.73877 
8.91178 -0.0489733 -0.141963 
-0.0489733 9.44086 -1.41262 
-0.141963 -1.41262 10.2889 
9.16139 -0.0733046 -0.0636369 
-0.0733046 8.99027 -0.0348675 
-0.0636369 -0.0348675 10.4899 
9.61503 0.0814854 0.219848 
0.0814854 9.76524 0.371886 
0.219848 0.371886 9.57452 
9.54183 0.0864575 0.221428 
0.0864575 9.83664 0.34831 
0.221428 0.34831 9.57631 
9.7058 0.106569 0.06819 
0.106569 9.7119 0.228208 
0.06819 0.228208 9.53709 
9.72396 -0.0799193 0.035938 
-0.0799193 9.64605 0.238803 
0.035938 0.238803 9.58478 
10.8854 0.0794262 0.582499 
0.0794262 12.0421 0.00274535 
0.582499 0.00274535 12.2776 
10.1724 -0.374063 0.0226753 
-0.374063 10.8404 1.04691 
0.0226753 1.04691 14.1923 
13.3196 -0.964702 0.189613 
-0.964702 12.639 -0.663244 
0.189613 -0.663244 9.24649 
11.0956 0.18809 1.13396 
0.18809 10.9752 -0.736489 
1.13396 -0.736489 13.1342 
9.94764 0.0129589 -0.0643169 
0.0129589 9.97012 -0.000523555 
-0.0643169 -0.000523555 9.92898 
9.93005 0.0156425 -0.0757652 
0.0156425 9.96595 0.00576297 
-0.0757652 0.00576297 9.95074 
9.99844 -0.0467069 -0.105583 
-0.0467069 9.96783 0.0428232 
-0.105583 0.0428232 9.88047 
9.99327 0.00134462 -0.0453288 
0.00134462 9.95621 0.0729819 
-0.0453288 0.0729819 9.89726 
9.79955 0.00135003 0.277285 
0.00135003 9.73853 -0.130644 
0.277285 -0.130644 9.7287 
9.80511 -0.0331694 0.253564 
-0.0331694 9.74395 -0.130849 
0.253564 -0.130849 9.71772 
9.78272 -0.00665044 0.301255 
-0.00665044 9.71443 -0.103579 
0.301255 -0.103579 9.76963 
9.79014 0.0165389 0.278087 
0.0165389 9.73121 -0.130118 
0.278087 -0.130118 9.74544 
6.08543 0.591255 -0.00246824 
0.591255 3.61435 -0.146506 
-0.00246824 -0.146506 -0.725136 
2.54536 0.391157 -1.30315 
0.391157 2.35113 -2.13932 
-1.30315 -2.13932 4.07816 
4.92215 0.147322 0.389668 
0.147322 4.19934 -0.458329 
0.389668 -0.458329 -0.146845 
4.55721 1.17052 -0.633769 
1.17052 4.60788 -2.17844 
-0.633769 -2.17844 -0.190443 
9.95447 -0.079113 0.0090791 
-0.079113 10.0786 -0.0801661 
0.0090791 -0.0801661 10.0415 
10.0276 0.0326404 -0.103144 
0.0326404 9.98849 -0.0363271 
-0.103144 -0.0363271 10.0585 
10.109 0.0565993 -0.0703301 
0.0565993 9.99783 -0.0886924 
-0.0703301 -0.0886924 9.96775 
9.91426 -0.056078 -0.126534 
-0.056078 10.1495 -0.0373166 
-0.126534 -0.0373166 10.0108 
9.67074 0.00411501 -0.0689146 
0.00411501 9.67764 0.320976 
-0.0689146 0.320976 9.66634 
9.73088 -0.00609221 -0.115616 
-0.00609221 9.77924 0.298627 
-0.115616 0.298627 9.50461 
9.67759 0.00652663 -0.0603244 
0.00652663 9.7075 0.361776 
-0.0603244 0.361776 9.62964 
9.67636 -0.0294983 -0.0705682 
-0.0294983 9.74274 0.334083 
-0.0705682 0.334083 9.59562 
9.20074 0.295874 0.363041 
0.295874 9.34462 -0.425212 
0.363041 -0.425212 8.65628 
8.57285 -0.0623879 0.578643 
-0.0623879 10.1314 -0.0828936 
0.578643 -0.0828936 8.49741 
9.071 0.137349 0.495297 
0.137349 9.55767 -0.142419 
0.495297 -0.142419 8.57297 
9.07644 -0.0475747 0.787902 
-0.0475747 9.42481 0.404764 
0.787902 0.404764 8.70039 
9.91141 -0.015503 0.0592894 
-0.015503 9.9277 -0.0501785 
0.0592894 -0.0501785 9.92174 
9.92064 -0.0158615 0.0638828 
-0.0158615 9.91978 -0.044877 
0.0638828 -0.044877 9.92043 
9.94232 -0.00974975 0.051148 
-0.00974975 9.92027 -0.0279336 
0.051148 -0.0279336 9.89825 
9.91274 -0.0131306 0.0554444 
-0.0131306 9.90441 -0.0461292 
0.0554444 -0.0461292 9.94371 
9.62076 -0.0150027 0.307395 
-0.0150027 9.67292 0.203578 
0.307395 0.203578 9.70268 
9.71156 0.0431296 0.264359 
0.0431296 9.65013 0.160961 
0.264359 0.160961 9.63466 
9.67572 -0.00321495 0.277744 
-0.00321495 9.67733 0.175725 
0.277744 0.175725 9.6433 
9.6473 -0.0243691 0.266424 
-0.0243691 9.65886 0.211416 
0.266424 0.211416 9.6902 
9.56354 -0.237521 0.410338 
-0.237521 9.51118 0.107081 
0.410338 0.107081 10.2083 
9.6457 -0.0653498 0.124126 
-0.0653498 9.72232 0.233943 
0.124126 0.233943 9.91504 
9.44303 -0.012925 0.287816 
-0.012925 9.72968 0.109661 
0.287816 0.109661 10.1103 
9.4036 -0.020687 0.189332 
-0.020687 9.51286 -0.236533 
0.189332 -0.236533 10.3666 
9.84412 0.2432 0.427176 
0.2432 9.6524 0.31679 
0.427176 0.31679 9.1273 
9.40382 -0.286926 0.366167 
-0.286926 9.31662 0.6415 
0.366167 0.6415 9.90337 
9.33765 -0.29977 0.120701 
-0.29977 9.15461 0.220791 
0.120701 0.220791 10.1316 
9.46773 -0.215368 0.27503 
-0.215368 9.37007 0.335582 
0.27503 0.335582 9.78602 
7.51891 -1.85057 0.780949 
-1.85057 9.67135 1.27113 
0.780949 1.27113 21.5489 
12.6799 -2.15203 -1.2279 
-2.15203 13.6641 -0.00399945 
-1.2279 -0.00399945 12.3952 
10.6806 -1.65756 1.99209 
-1.65756 10.1573 1.3167 
1.99209 1.3167 17.9012 
11.8195 -3.80824 2.01555 
-3.80824 11.513 -3.50025 
2.01555 -3.50025 15.4066 
9.39358 0.115947 0.0777197 
0.115947 9.45058 0.320317 
0.0777197 0.320317 10.0801 
9.69914 0.182392 0.095572 
0.182392 9.52688 0.00292864 
0.095572 0.00292864 9.69827 
9.54808 0.0670679 0.108553 
0.0670679 9.36275 0.0292373 
0.108553 0.0292373 10.0135 
9.58314 0.0456457 0.214422 
0.0456457 9.32734 -0.0340738 
0.214422 -0.0340738 10.0138 
8.86435 -0.103759 -2.1916 
-0.103759 8.82273 -4.98815 
-2.1916 -4.98815 6.17472 
9.86858 -1.97935 -1.63252 
-1.97935 4.90228 -1.19918 
-1.63252 -1.19918 9.09095 
8.35258 -0.879637 -1.98548 
-0.879637 8.99365 -3.62545 
-1.98548 -3.62545 6.51558 
7.68006 0.359914 -1.24285 
0.359914 9.93435 -0.889169 
-1.24285 -0.889169 6.2474 
9.76457 -0.0729405 0.235508 
-0.0729405 9.47148 0.082177 
0.235508 0.082177 9.28044 
9.28804 -0.17704 -0.114566 
-0.17704 9.76943 -0.161072 
-0.114566 -0.161072 9.45902 
9.5987 -0.0573125 0.220973 
-0.0573125 9.81372 -0.0686 
0.220973 -0.0686 9.10407 
9.53532 0.0845864 0.39177 
0.0845864 9.53867 0.115232 
0.39177 0.115232 9.4425 
9.9244 -0.750181 -1.34509 
-0.750181 8.63872 -1.17939 
-1.34509 -1.17939 11.0918 
10.255 -4.31856 0.668613 
-4.31856 8.04023 0.927885 
0.668613 0.927885 11.3596 
9.31498 -0.437677 -0.564915 
-0.437677 11.3291 -0.943673 
-0.564915 -0.943673 9.01079 
9.84904 0.13198 -0.50855 
0.13198 7.85253 -0.546751 
-0.50855 -0.546751 11.9533 
10.1768 0.0258981 0.212048 
0.0258981 9.73817 -0.0705362 
0.212048 -0.0705362 10.9355 
10.0107 0.189063 -0.0137893 
0.189063 10.068 -0.113853 
-0.0137893 -0.113853 10.7719 
10.1396 0.143402 0.285293 
0.143402 9.89475 0.169453 
0.285293 0.169453 10.8162 
10.1428 0.109378 0.312971 
0.109378 9.86699 -0.0976725 
0.312971 -0.0976725 10.8408 
10.7874 0.249285 -0.161104 
0.249285 10.4836 -0.090538 
-0.161104 -0.090538 11.9361 
11.594 -0.220486 0.436669 
-0.220486 10.8419 0.178927 
0.436669 0.178927 10.7712 
11.1354 -0.0289376 0.194089 
-0.0289376 10.6782 0.0248317 
0.194089 0.0248317 11.3935 
10.4827 -0.182254 0.468387 
-0.182254 11.1094 -0.305836 
0.468387 -0.305836 11.6151 
9.73702 0.0987796 0.0358569 
0.0987796 9.85787 0.15497 
0.0358569 0.15497 9.72329 
9.79147 -0.0554141 0.0299308 
-0.0554141 9.70948 0.106652 
0.0299308 0.106652 9.81722 
9.78561 0.0310362 0.0623854 
0.0310362 9.77784 0.192206 
0.0623854 0.192206 9.75472 
9.74683 0.010319 0.138348 
0.010319 9.79947 0.0937548 
0.138348 0.0937548 9.77188 
10.0541 0.309724 0.00835845 
0.309724 8.72358 -0.614326 
0.00835845 -0.614326 10.0233 
9.86017 0.357952 0.0733222 
0.357952 8.85573 -0.436656 
0.0733222 -0.436656 10.0851 
10.0706 -0.00800219 0.120375 
-0.00800219 9.25276 -0.794141 
0.120375 -0.794141 9.47761 
9.76405 0.816605 0.255691 
0.816605 9.18024 -0.111541 
0.255691 -0.111541 9.85668 
10.0151 -0.00970621 0.0358389 
-0.00970621 10.0343 -0.00751098 
0.0358389 -0.00751098 10.0055 
10.0272 0.00988358 0.0298931 
0.00988358 10.0323 -0.022823 
0.0298931 -0.022823 9.99522 
10.0551 0.00769063 0.0388701 
0.00769063 10.0143 -0.00882292 
0.0388701 -0.00882292 9.98542 
10.0604 9.12815e-05 0.0315012 
9.12815e-05 10.0499 -0.0802834 
0.0315012 -0.0802834 9.94444 
8.91847 0.00128296 0.968949 
0.00128296 10.0957 0.347288 
0.968949 0.347288 8.61094 
9.35548 0.028941 0.114295 
0.028941 9.2962 0.432654 
0.114295 0.432654 8.97347 
8.90236 0.346967 0.490171 
0.346967 9.47754 0.428478 
0.490171 0.428478 9.24525 
8.74792 0.0803569 0.41172 
0.0803569 8.98222 0.357721 
0.41172 0.357721 9.89501 
9.52168 0.0655187 0.13539 
0.0655187 9.51043 0.270785 
0.13539 0.270785 9.74396 
9.61028 -0.0537684 0.140265 
-0.0537684 9.49424 0.400589 
0.140265 0.400589 9.67154 
9.57424 -0.129751 0.193327 
-0.129751 9.33834 0.370704 
0.193327 0.370704 9.86349 
9.43155 0.0277224 0.141558 
0.0277224 9.62569 0.4494 
0.141558 0.4494 9.71883 
9.65784 -0.159767 0.0451496 
-0.159767 9.6838 0.0545953 
0.0451496 0.0545953 9.65723 
9.61692 -0.121526 0.15054 
-0.121526 9.84519 -0.0757674 
0.15054 -0.0757674 9.53676 
9.57164 -0.0648229 0.0777451 
-0.0648229 9.77166 -0.00870031 
0.0777451 -0.00870031 9.65557 
9.57497 -0.0119316 0.122672 
-0.0119316 9.83236 -0.13164 
0.122672 -0.13164 9.59154 
10.207 0.0150891 -0.205971 
0.0150891 9.64014 -0.917176 
-0.205971 -0.917176 8.456 
11.1062 0.522777 0.781794 
0.522777 8.71193 -0.692155 
0.781794 -0.692155 8.48493 
8.43176 1.56613 -1.82255 
1.56613 10.5445 0.349899 
-1.82255 0.349899 9.32678 
10.6698 -0.336571 -0.945098 
-0.336571 9.4142 -1.68794 
-0.945098 -1.68794 8.21908 
7.87955 -1.36428 -0.00276869 
-1.36428 9.99296 -0.342062 
-0.00276869 -0.342062 11.74 
10.7831 -1.73685 -0.327577 
-1.73685 8.68023 -0.71037 
-0.327577 -0.71037 10.1492 
7.34623 -1.43016 -0.710609 
-1.43016 10.2418 0.177907 
-0.710609 0.177907 12.0245 
8.17454 -1.2562 -0.748603 
-1.2562 10.1263 -0.0452007 
-0.748603 -0.0452007 11.3117 
9.40302 -0.0506503 -0.269943 
-0.0506503 9.60927 0.12923 
-0.269943 0.12923 9.79829 
9.44684 -0.0212873 -0.274811 
-0.0212873 9.56562 0.105713 
-0.274811 0.105713 9.79812 
9.39429 -0.00282522 -0.25818 
-0.00282522 9.59222 0.113826 
-0.25818 0.113826 9.82407 
9.34927 -0.0798284 -0.282889 
-0.0798284 9.62718 0.136158 
-0.282889 0.136158 9.83413 
9.77059 -0.0922303 -0.222354 
-0.0922303 9.59499 0.094352 
-0.222354 0.094352 9.52863 
9.74398 -0.0713031 -0.186895 
-0.0713031 9.61174 0.0966701 
-0.186895 0.0966701 9.53849 
9.78346 -0.0854571 -0.218587 
-0.0854571 9.58052 0.0942529 
-0.218587 0.0942529 9.53023 
9.78585 -0.0754132 -0.221835 
-0.0754132 9.5739 0.102222 
-0.221835 0.102222 9.53446 
9.84875 0.0286982 0.445625 
0.0286982 9.97967 -1.01405 
0.445625 -1.01405 4.70658 
8.83053 -0.204768 0.359039 
-0.204768 9.72883 -0.243081 
0.359039 -0.243081 5.97566 
7.8774 0.13888 -0.224076 
0.13888 8.41996 0.176739 
-0.224076 0.176739 8.23764 
8.86365 -0.0431333 -0.00623149 
-0.0431333 10.0508 0.0257026 
-0.00623149 0.0257026 5.6206 
6.61657 0.645502 0.286995 
0.645502 7.29556 0.380318 
0.286995 0.380318 -1.65106 
8.20283 0.535593 -0.765881 
0.535593 4.87991 -0.43046 
-0.765881 -0.43046 -0.821653 
3.27181 -0.129597 -0.42738 
-0.129597 3.38455 -2.81503 
-0.42738 -2.81503 5.60473 
5.97754 1.60635 -2.21753 
1.60635 7.80059 -3.53549 
-2.21753 -3.53549 -1.51704 
9.90447 0.00638026 0.00537836 
0.00638026 9.90887 -0.0154917 
0.00537836 -0.0154917 9.96196 
9.91963 0.00218575 0.0203696 
0.00218575 9.9141 -0.0150818 
0.0203696 -0.0150818 9.94156 
9.88135 0.0020075 0.0140432 
0.0020075 9.91794 -0.0120632 
0.0140432 -0.0120632 9.97601 
9.92017 -0.00272446 -0.0119029 
-0.00272446 9.89787 -0.0170718 
-0.0119029 -0.0170718 9.95725 
9.35395 -0.967306 0.868519 
-0.967306 8.52552 -0.316172 
0.868519 -0.316172 1.6676 
5.94568 1.91502 0.802849 
1.91502 10.0161 -1.04388 
0.802849 -1.04388 3.58534 
8.70829 -1.65427 2.66584 
-1.65427 5.91567 -0.65331 
2.66584 -0.65331 4.92311 
7.42957 -1.15354 2.56473 
-1.15354 8.94911 -0.978485 
2.56473 -0.978485 3.16839 
9.54005 0.207536 -0.27433 
0.207536 9.71929 0.371036 
-0.27433 0.371036 9.6632 
9.42342 0.262017 -0.27233 
0.262017 9.79971 0.26098 
-0.27233 0.26098 9.69941 
9.64908 -0.115091 0.0559688 
-0.115091 9.50744 0.238233 
0.0559688 0.238233 9.76601 
9.81215 0.570496 -0.392643 
0.570496 9.2694 0.569134 
-0.392643 0.569134 9.84099 
9.63979 0.109495 0.00536267 
0.109495 9.77196 0.20448 
0.00536267 0.20448 9.59354 
9.65592 -0.012304 0.00458745 
-0.012304 9.66642 0.317887 
0.00458745 0.317887 9.68295 
9.59711 0.098859 0.31429 
0.098859 9.8565 0.153823 
0.31429 0.153823 9.55168 
9.64617 -0.00446252 0.186403 
-0.00446252 9.72653 0.0947511 
0.186403 0.0947511 9.63258 
9.31275 -0.0841893 -0.59042 
-0.0841893 9.71199 0.326255 
-0.59042 0.326255 9.32072 
9.21016 0.405386 -0.338741 
0.405386 9.60888 0.133052 
-0.338741 0.133052 9.52642 
9.64845 0.874056 -0.320955 
0.874056 10.3687 0.453143 
-0.320955 0.453143 8.32829 
10.1801 -0.152822 -0.30749 
-0.152822 9.05002 0.66789 
-0.30749 0.66789 9.11537 
9.90375 -0.00234745 -0.273747 
-0.00234745 9.9092 -0.145828 
-0.273747 -0.145828 9.72565 
9.84979 0.0116954 -0.155182 
0.0116954 9.89359 -0.102953 
-0.155182 -0.102953 9.79521 
9.80874 0.0267871 -0.165142 
0.0267871 9.81243 -0.0636986 
-0.165142 -0.0636986 9.91742 
9.88826 0.0146945 -0.160627 
0.0146945 9.81445 -0.0918156 
-0.160627 -0.0918156 9.83588 
9.70162 1.11031 1.4628 
1.11031 9.09422 -1.62606 
1.4628 -1.62606 7.43275 
9.78906 1.34766 0.766188 
1.34766 8.60326 -1.61817 
0.766188 -1.61817 7.83628 
8.59978 -0.547529 0.819092 
-0.547529 8.19257 -1.59602 
0.819092 -1.59602 9.43624 
9.68443 1.35054 0.666048 
1.35054 8.86167 -1.36912 
0.666048 -1.36912 7.68249 
9.49976 -0.154826 -0.319265 
-0.154826 9.69585 -0.0392144 
-0.319265 -0.0392144 10.1471 
9.71732 -0.143087 -0.425817 
-0.143087 9.54727 -0.111909 
-0.425817 -0.111909 10.0782 
9.25788 -0.32044 -0.307205 
-0.32044 9.61093 0.0422303 
-0.307205 0.0422303 10.4739 
9.45986 -0.00255367 -0.0560316 
-0.00255367 9.8007 -0.0960988 
-0.0560316 -0.0960988 10.0822 
9.84162 0.0486738 0.178119 
0.0486738 9.99967 -0.0217776 
0.178119 -0.0217776 9.92352 
9.91128 0.0760225 0.113447 
0.0760225 9.85566 0.132793 
0.113447 0.132793 9.99786 
10.0231 0.00783004 0.113355 
0.00783004 9.81928 -0.0391101 
0.113355 -0.0391101 9.92242 
9.92257 0.0116081 0.199518 
0.0116081 9.93033 -0.0448248 
0.199518 -0.0448248 9.9119 
9.94509 0.0173454 -0.0156837 
0.0173454 9.8659 -0.125632 
-0.0156837 -0.125632 10.0242 
9.94025 0.0200343 -0.0189838 
0.0200343 9.74095 -0.0929858 
-0.0189838 -0.0929858 10.154 
10.0233 0.0318936 0.0899747 
0.0318936 9.97185 -0.0449736 
0.0899747 -0.0449736 9.84001 
9.91018 0.0517178 0.0337675 
0.0517178 9.94912 -0.220624 
0.0337675 -0.220624 9.9759 
9.87065 0.00731123 0.00843331 
0.00731123 9.87568 0.0363739 
0.00843331 0.0363739 9.96636 
9.86426 0.00405442 0.0116291 
0.00405442 9.87505 0.0387336 
0.0116291 0.0387336 9.97338 
9.8818 -0.00116061 0.0150587 
-0.00116061 9.86895 0.0408604 
0.0150587 0.0408604 9.96194 
9.87742 -0.00352803 0.011283 
-0.00352803 9.89369 0.044084 
0.011283 0.044084 9.94157 
6.80185 -0.234252 0.793948 
-0.234252 6.36223 -0.482574 
0.793948 -0.482574 0.52322 
5.95958 -0.313207 1.15765 
-0.313207 5.75254 -1.03163 
1.15765 -1.03163 1.97518 
4.72609 0.920295 1.01317 
0.920295 5.74494 -0.568022 
1.01317 -0.568022 3.21626 
5.42346 -0.223102 2.25871 
-0.223102 5.32933 -0.695094 
2.25871 -0.695094 2.93451 
9.40278 -0.0300539 0.252048 
-0.0300539 9.51364 0.537366 
0.252048 0.537366 9.59602 
9.53583 0.0159795 0.171375 
0.0159795 9.43461 0.475396 
0.171375 0.475396 9.542 
9.47408 -0.0305266 0.370266 
-0.0305266 9.5117 0.500187 
0.370266 0.500187 9.52667 
9.34848 -0.0317731 0.252462 
-0.0317731 9.54459 0.506811 
0.252462 0.506811 9.61937 
9.86968 0.0241984 -0.0644834 
0.0241984 9.83167 -0.0204415 
-0.0644834 -0.0204415 9.90437 
9.8412 -0.00355821 -0.0626663 
-0.00355821 9.8295 0.0127343 
-0.0626663 0.0127343 9.93501 
9.8829 0.0109325 -0.0679805 
0.0109325 9.83469 0.00426001 
-0.0679805 0.00426001 9.88812 
9.84495 0.00376323 -0.0571463 
0.00376323 9.83977 0.00846661 
-0.0571463 0.00846661 9.921 
9.02394 0.121374 -0.552721 
0.121374 9.95279 -0.0729604 
-0.552721 -0.0729604 9.83082 
9.25656 0.0227703 -0.391258 
0.0227703 9.79165 0.123359 
-0.391258 0.123359 9.75935 
9.12008 0.0811711 -0.264254 
0.0811711 9.75012 -0.0680305 
-0.264254 -0.0680305 9.93736 
9.32827 -0.0602866 -0.427704 
-0.0602866 9.65852 0.0131701 
-0.427704 0.0131701 9.82077 
10.9978 0.510043 0.710266 
0.510043 11.8216 -0.404621 
0.710266 -0.404621 13.0375 
12.0831 0.375891 0.000480533 
0.375891 12.8961 -0.407985 
0.000480533 -0.407985 10.8777 
10.983 0.704657 0.694172 
0.704657 11.7068 -0.744103 
0.694172 -0.744103 13.1671 
11.321 0.477762 0.339491 
0.477762 11.9455 -0.432867 
0.339491 -0.432867 12.5903 
10.006 0.0658349 -0.0478051 
0.0658349 9.69549 0.0824773 
-0.0478051 0.0824773 10.11 
9.95514 0.0285054 -0.0817721 
0.0285054 9.81853 0.270843 
-0.0817721 0.270843 10.0379 
9.83138 -0.00586858 -0.116894 
-0.00586858 10.1557 0.156789 
-0.116894 0.156789 9.82452 
9.95474 -0.0151371 -0.0726805 
-0.0151371 9.84224 0.20509 
-0.0726805 0.20509 10.0146 
9.90289 0.0114653 -0.067315 
0.0114653 9.92398 0.144432 
-0.067315 0.144432 9.84929 
9.90803 -0.00156937 -0.06304 
-0.00156937 9.90506 0.17294 
-0.06304 0.17294 9.86307 
9.89341 0.00883329 -0.0751537 
0.00883329 9.87981 0.14621 
-0.0751537 0.14621 9.90294 
9.88806 0.0100368 -0.086107 
0.0100368 9.89447 0.133121 
-0.086107 0.133121 9.89363 
9.83531 -0.0042141 -0.172459 
-0.0042141 9.87685 0.00210833 
-0.172459 0.00210833 9.95614 
9.84427 -0.00223584 -0.195721 
-0.00223584 9.89814 -0.00822004 
-0.195721 -0.00822004 9.92588 
9.89287 -0.0101914 -0.145439 
-0.0101914 9.93049 -0.00722659 
-0.145439 -0.00722659 9.84493 
9.8359 -0.0107578 -0.23373 
-0.0107578 9.88772 -0.00474099 
-0.23373 -0.00474099 9.94467 
4.87464 0.805898 1.08004 
0.805898 5.81152 -0.850307 
1.08004 -0.850307 -2.30893 
4.07588 0.647818 1.92802 
0.647818 7.6266 0.340257 
1.92802 0.340257 -3.32525 
0.924475 1.25638 -2.2195 
1.25638 0.0776957 0.336941 
-2.2195 0.336941 7.37505 
6.54907 0.396242 -1.81706 
0.396242 5.09874 0.720611 
-1.81706 0.720611 -3.27059 
9.98955 0.0330904 -0.00388148 
0.0330904 9.99078 -0.0613868 
-0.00388148 -0.0613868 10.0112 
10.0496 -0.00921019 0.0688757 
-0.00921019 9.94015 -0.0172537 
0.0688757 -0.0172537 10.0018 
10.1667 -0.041532 0.154723 
-0.041532 9.9365 -0.0370783 
0.154723 -0.0370783 9.88829 
9.91127 0.0363953 0.0986719 
0.0363953 10.0924 -0.0918439 
0.0986719 -0.0918439 9.9879 
9.71852 -0.0276295 0.0008477 
-0.0276295 9.8075 -0.0597357 
0.0008477 -0.0597357 9.81934 
9.76151 -0.0327983 -0.0021496 
-0.0327983 9.78667 0.0121389 
-0.0021496 0.0121389 9.79717 
9.73094 -0.0379805 0.00463988 
-0.0379805 9.81128 -0.0511878 
0.00463988 -0.0511878 9.80314 
9.71749 -0.0347018 0.0334519 
-0.0347018 9.83123 -0.0468567 
0.0334519 -0.0468567 9.79664 
9.75407 0.0146102 -0.1606 
0.0146102 9.70906 0.316722 
-0.1606 0.316722 9.88756 
9.80719 0.00576852 -0.0937116 
0.00576852 9.76837 0.254411 
-0.0937116 0.254411 9.77513 
9.80033 0.0198001 -0.0852299 
0.0198001 9.72624 0.209564 
-0.0852299 0.209564 9.82412 
9.79133 0.0128621 -0.0843874 
0.0128621 9.754 0.253113 
-0.0843874 0.253113 9.80536 
7.86989 -0.935924 0.137819 
-0.935924 6.92758 -0.3399 
0.137819 -0.3399 1.89964 
7.96173 -0.363351 0.658073 
-0.363351 7.64738 -0.710249 
0.658073 -0.710249 1.08799 
6.74069 0.480244 0.152029 
0.480244 7.01785 -0.402595 
0.152029 -0.402595 2.93857 
7.72095 -0.0987803 0.645401 
-0.0987803 7.07874 -0.400168 
0.645401 -0.400168 1.89741 
9.81058 -0.00253673 0.224723 
-0.00253673 9.66458 0.182451 
0.224723 0.182451 9.46263 
9.5361 0.102324 0.102669 
0.102324 9.56015 0.00741255 
0.102669 0.00741255 9.84154 
9.73849 0.187156 0.046267 
0.187156 9.90286 0.0559204 
0.046267 0.0559204 9.29644 
9.81407 0.00331689 0.108155 
0.00331689 9.54308 0.0492413 
0.108155 0.0492413 9.58064 
9.26964 -0.0462101 0.44081 
-0.0462101 9.47677 -0.140337 
0.44081 -0.140337 9.72478 
9.33752 0.0164694 0.406344 
0.0164694 9.33815 -0.0177649 
0.406344 -0.0177649 9.79552 
9.13178 0.0627734 0.430811 
0.0627734 9.41206 -0.454263 
0.430811 -0.454263 9.92735 
9.30223 0.0179471 0.372106 
0.0179471 9.59815 -0.210555 
0.372106 -0.210555 9.57081 
6.36029 -2.58122 -6.2322 
-2.58122 11.4865 -2.88118 
-6.2322 -2.88118 10.1206 
10.7212 2.81902 -1.19354 
2.81902 9.87086 -0.353607 
-1.19354 -0.353607 7.37529 
7.96917 -0.398949 -6.31046 
-0.398949 7.48906 -2.92577 
-6.31046 -2.92577 12.5092 
6.83309 -2.34194 -1.62402 
-2.34194 10.2208 0.243829 
-1.62402 0.243829 10.9135 
9.76442 -0.0108425 0.319598 
-0.0108425 9.7439 -0.0363826 
0.319598 -0.0363826 9.70963 
9.7597 -0.0398074 0.33541 
-0.0398074 9.76669 0.0114618 
0.33541 0.0114618 9.69156 
9.72929 -0.00712061 0.335443 
-0.00712061 9.77064 -0.0093148 
0.335443 -0.0093148 9.71801 
9.7617 0.0195423 0.286201 
0.0195423 9.73149 -0.0492711 
0.286201 -0.0492711 9.72475 
9.79151 0.00261677 0.0204301 
0.00261677 9.83506 -0.0744527 
0.0204301 -0.0744527 9.85017 
9.81642 -0.011724 0.0251851 
-0.011724 9.83499 -0.072271 
0.0251851 -0.072271 9.82534 
9.80658 -0.00907182 0.0246043 
-0.00907182 9.82038 -0.0558824 
0.0246043 -0.0558824 9.84979 
9.78096 -0.0185333 -0.0207361 
-0.0185333 9.84889 -0.0774276 
-0.0207361 -0.0774276 9.8469 
9.64803 -0.0426652 0.0172095 
-0.0426652 9.71621 0.000298574 
0.0172095 0.000298574 9.86363 
9.64126 -0.0580778 0.000747184 
-0.0580778 9.70146 -0.0161664 
0.000747184 -0.0161664 9.88515 
9.66189 -0.0420755 0.0981668 
-0.0420755 9.71582 0.0719383 
0.0981668 0.0719383 9.85015 
9.7069 0.0218401 -0.0192305 
0.0218401 9.67657 -0.011777 
-0.0192305 -0.011777 9.84439 
10.0355 0.011924 -0.0525239 
0.011924 10.02 0.0158083 
-0.0525239 0.0158083 9.99656 
10.0192 -0.00343229 -0.0338297 
-0.00343229 10.0525 0.00900944 
-0.0338297 0.00900944 9.98041 
10.0186 0.000951747 -0.0338784 
0.000951747 10.0458 0.0132529 
-0.0338784 0.0132529 9.98778 
10.0313 -0.00575311 -0.0142952 
-0.00575311 10.0574 0.0138123 
-0.0142952 0.0138123 9.96345 
10.1466 -0.311999 -0.809141 
-0.311999 9.78963 0.0406466 
-0.809141 0.0406466 10.4103 
9.17945 -0.278342 -0.73273 
-0.278342 10.0598 0.0461635 
-0.73273 0.0461635 11.1073 
9.83348 0.0912751 -0.472075 
0.0912751 9.82005 -0.0615855 
-0.472075 -0.0615855 10.693 
10.0801 0.194657 0.156472 
0.194657 9.78597 -0.015506 
0.156472 -0.015506 10.4805 
9.74683 0.0433249 -0.0981665 
0.0433249 9.78141 -0.137161 
-0.0981665 -0.137161 9.79568 
9.7584 0.020642 -0.0734097 
0.020642 9.82976 -0.187909 
-0.0734097 -0.187909 9.73576 
9.76249 0.0214906 -0.0716246 
0.0214906 9.84891 -0.171178 
-0.0716246 -0.171178 9.71252 
9.74734 0.0605879 -0.095889 
0.0605879 9.82043 -0.159761 
-0.095889 -0.159761 9.75615 
9.50393 0.00627203 -0.488005 
0.00627203 9.58197 -0.105439 
-0.488005 -0.105439 9.84349 
9.64428 -0.106386 -0.430526 
-0.106386 9.48687 -0.104983 
-0.430526 -0.104983 9.79824 
9.51116 0.0348775 -0.506961 
0.0348775 9.60887 -0.181208 
-0.506961 -0.181208 9.80936 
9.64373 -0.125129 -0.42445 
-0.125129 9.42929 -0.0869357 
-0.42445 -0.0869357 9.85637 
9.68873 -0.030928 -0.0825108 
-0.030928 9.66409 0.320465 
-0.0825108 0.320465 9.75023 
9.70073 0.0232689 -0.0554532 
0.0232689 9.73378 0.293597 
-0.0554532 0.293597 9.66853 
9.73098 -0.00575013 -0.0424253 
-0.00575013 9.74334 0.33508 
-0.0424253 0.33508 9.62872 
9.69198 0.00562247 -0.0579405 
0.00562247 9.72595 0.314263 
-0.0579405 0.314263 9.68512 
9.92858 0.000958304 -0.0106263 
0.000958304 9.95089 0.020274 
-0.0106263 0.020274 9.92563 
9.93426 0.0069092 -0.0231042 
0.0069092 9.93752 0.0286585 
-0.0231042 0.0286585 9.93333 
9.93217 0.0113715 -0.0184002 
0.0113715 9.94914 0.0368915 
-0.0184002 0.0368915 9.9238 
9.94465 0.0151129 -0.0180811 
0.0151129 9.91667 0.0344427 
-0.0180811 0.0344427 9.94378 
9.78833 -0.00849806 0.0865809 
-0.00849806 9.76177 0.316838 
0.0865809 0.316838 9.8692 
9.85092 -0.0201129 0.0613339 
-0.0201129 9.7111 0.227362 
0.0613339 0.227362 9.85728 
9.85764 -0.0129473 0.110042 
-0.0129473 9.79569 0.251495 
0.110042 0.251495 9.76596 
9.81081 -0.0239505 0.0806724 
-0.0239505 9.79083 0.257588 
0.0806724 0.257588 9.81766 
15.0282 -0.818597 0.312828 
-0.818597 13.1545 -0.18393 
0.312828 -0.18393 10.9122 
12.7795 -1.22696 0.55817 
-1.22696 11.0903 0.811195 
0.55817 0.811195 15.2251 
11.1943 -0.889002 -0.156701 
-0.889002 10.6524 1.92101 
-0.156701 1.92101 17.2482 
13.0659 -0.373961 0.248436 
-0.373961 9.50035 -1.11851 
0.248436 -1.11851 16.5286 
9.56158 -0.095396 0.0656391 
-0.095396 9.58091 0.15922 
0.0656391 0.15922 10.1208 
9.63833 -0.00280748 0.206996 
-0.00280748 9.58072 -0.0160805 
0.206996 -0.0160805 10.0442 
9.58181 -0.155388 0.0586795 
-0.155388 9.55936 -0.0465904 
0.0586795 -0.0465904 10.1221 
9.53849 0.0481506 -0.120852 
0.0481506 9.6447 0.159501 
-0.120852 0.159501 10.0801 
9.78683 -0.023432 0.0172728 
-0.023432 9.80653 -0.0664367 
0.0172728 -0.0664367 9.82404 
9.78968 -0.0222896 0.0345164 
-0.0222896 9.81803 -0.0568855 
0.0345164 -0.0568855 9.80969 
9.74431 -0.000192174 0.0453269 
-0.000192174 9.80909 -0.0696033 
0.0453269 -0.0696033 9.864 
9.78098 -0.0214009 0.0302952 
-0.0214009 9.80878 -0.0607361 
0.0302952 -0.0607361 9.82763 
9.62768 -0.0560893 0.0921227 
-0.0560893 9.63188 -0.253946 
0.0921227 -0.253946 9.60096 
9.70965 -0.0918303 0.183439 
-0.0918303 9.73339 -0.379727 
0.183439 -0.379727 9.41747 
9.62409 -0.034802 0.149178 
-0.034802 9.69125 -0.299203 
0.149178 -0.299203 9.54517 
9.59282 0.00914436 0.152279 
0.00914436 9.68215 -0.277948 
0.152279 -0.277948 9.58555 
9.74085 -0.00714428 -0.0568278 
-0.00714428 9.77636 0.308678 
-0.0568278 0.308678 9.74212 
9.7433 0.00316887 -0.0569539 
0.00316887 9.7749 0.299354 
-0.0569539 0.299354 9.74113 
9.75926 0.00421189 -0.0439448 
0.00421189 9.78869 0.300138 
-0.0439448 0.300138 9.71139 
9.71877 -0.00598146 -0.00954503 
-0.00598146 9.74843 0.29977 
-0.00954503 0.29977 9.79214 
8.85489 -1.48984 -1.34272 
-1.48984 8.54718 -2.58636 
-1.34272 -2.58636 12.4433 
8.62782 -0.994466 -0.855426 
-0.994466 9.8696 0.638621 
-0.855426 0.638621 11.3479 
10.0463 -0.68866 0.588971 
-0.68866 7.80935 -1.13125 
0.588971 -1.13125 11.9897 
8.82564 0.418146 -1.00544 
0.418146 11.3253 1.25213 
-1.00544 1.25213 9.6944 
9.34943 0.266497 -1.12648 
0.266497 11.0519 0.382726 
-1.12648 0.382726 10.1851 
8.34858 0.210233 -1.33164 
0.210233 11.2183 -0.0427769 
-1.33164 -0.0427769 11.0195 
8.15187 0.474116 -1.18013 
0.474116 11.2617 0.219973 
-1.18013 0.219973 11.1728 
8.31073 1.33584 -1.4198 
1.33584 11.505 0.611536 
-1.4198 0.611536 10.7707 
10.0369 0.378462 -0.0400958 
0.378462 10.5412 -0.277916 
-0.0400958 -0.277916 11.8856 
10.659 0.268077 0.0942933 
0.268077 9.7644 0.0392175 
0.0942933 0.0392175 12.0404 
10.0142 0.154414 0.0268092 
0.154414 10.6033 -0.465842 
0.0268092 -0.465842 11.8463 
9.81741 0.535088 0.0945535 
0.535088 10.9827 0.46736 
0.0945535 0.46736 11.6636 
10.0437 0.0124657 -0.0183415 
0.0124657 10.0667 -0.000726775 
-0.0183415 -0.000726775 10.0129 
10.05 0.00732556 -0.00637355 
0.00732556 10.0625 0.00156716 
-0.00637355 0.00156716 10.0108 
10.0529 -0.0184107 -0.0273447 
-0.0184107 10.0752 0.0185976 
-0.0273447 0.0185976 9.99523 
10.08 0.0029004 0.00783454 
0.0029004 10.0742 0.0446102 
0.00783454 0.0446102 9.96905 
9.8142 0.128994 0.0754072 
0.128994 10.1865 0.06027 
0.0754072 0.06027 9.77786 
9.90326 -0.024896 0.150479 
-0.024896 9.90921 0.254722 
0.150479 0.254722 9.96614 
9.88512 -0.258504 -0.010074 
-0.258504 9.73615 0.123225 
-0.010074 0.123225 10.1573 
9.9424 -0.0452052 0.0682733 
-0.0452052 9.86188 0.216655 
0.0682733 0.216655 9.97433 
9.49894 0.251137 -0.293075 
0.251137 9.33735 -0.0574558 
-0.293075 -0.0574558 9.40027 
9.58899 0.0688582 -0.165991 
0.0688582 9.38196 -0.182632 
-0.165991 -0.182632 9.26562 
9.55235 -0.0653582 -0.206319 
-0.0653582 9.4483 -0.176159 
-0.206319 -0.176159 9.23592 
9.67195 0.0296501 -0.2021 
0.0296501 9.25538 -0.342262 
-0.2021 -0.342262 9.30924 
10.0307 -0.00494687 -0.0131974 
-0.00494687 10.0293 0.0326613 
-0.0131974 0.0326613 10.0114 
10.0474 0.00601359 0.0149961 
0.00601359 10.0527 0.0220735 
0.0149961 0.0220735 9.97138 
10.0474 -0.000155079 -0.00934648 
-0.000155079 10.046 0.0217113 
-0.00934648 0.0217113 9.97795 
10.0481 0.00842157 -0.0217569 
0.00842157 10.08 0.0575462 
-0.0217569 0.0575462 9.9433 
9.66922 -0.0044608 0.182267 
-0.0044608 9.79473 0.19882 
0.182267 0.19882 9.37884 
9.63356 0.0228915 0.185963 
0.0228915 9.72856 0.149747 
0.185963 0.149747 9.48067 
9.75516 -0.0737434 0.209391 
-0.0737434 9.55003 0.28501 
0.209391 0.28501 9.5376 
9.58803 0.0662061 0.220172 
0.0662061 9.72799 0.041467 
0.220172 0.041467 9.52677 
9.75987 -0.0084928 0.013653 
-0.0084928 9.76478 -0.0778452 
0.013653 -0.0778452 9.87492 
9.7394 0.0288298 -0.0323774 
0.0288298 9.77865 0.011523 
-0.0323774 0.011523 9.88152 
9.76836 -0.000623007 -0.12188 
-0.000623007 9.78954 -0.0253474 
-0.12188 -0.0253474 9.84167 
9.76605 0.0508252 0.0246161 
0.0508252 9.80369 -0.0777101 
0.0246161 -0.0777101 9.82983 
9.80445 -0.00510164 0.00982219 
-0.00510164 9.85587 -0.0891561 
0.00982219 -0.0891561 9.7691 
9.79498 -0.0157583 0.0287683 
-0.0157583 9.80224 -0.110764 
0.0287683 -0.110764 9.8322 
9.7823 -0.0368799 0.0466853 
-0.0368799 9.8489 -0.166505 
0.0466853 -0.166505 9.79822 
9.79854 -0.0296495 0.00134717 
-0.0296495 9.81365 -0.112354 
0.00134717 -0.112354 9.81724 
4.48412 -0.248492 -0.80187 
-0.248492 3.9049 0.0054739 
-0.80187 0.0054739 1.02492 
2.50787 0.325991 -0.20931 
0.325991 2.48544 -0.749432 
-0.20931 -0.749432 4.42063 
6.41539 -0.0550904 -2.51586 
-0.0550904 5.19468 1.56709 
-2.51586 1.56709 -2.19613 
6.11078 -2.09171 1.78039 
-2.09171 4.02534 -0.142875 
1.78039 -0.142875 -0.722173 
9.83335 0.0286196 -0.200206 
0.0286196 9.78592 -0.0488081 
-0.200206 -0.0488081 9.77008 
9.82682 0.0302929 -0.220368 
0.0302929 9.78653 -0.0642605 
-0.220368 -0.0642605 9.77599 
9.87207 0.0692413 -0.130546 
0.0692413 9.87456 0.026346 
-0.130546 0.026346 9.64271 
9.82079 -0.00732712 -0.185806 
-0.00732712 9.74379 -0.052536 
-0.185806 -0.052536 9.82476 
9.74059 0.016226 -0.0678338 
0.016226 9.84809 0.0318865 
-0.0678338 0.0318865 9.90531 
9.8238 -0.032632 -0.0293574 
-0.032632 9.77 0.0399579 
-0.0293574 0.0399579 9.90019 
9.80006 -0.00883956 -0.0683476 
-0.00883956 9.76238 -0.0165093 
-0.0683476 -0.0165093 9.93155 
9.80578 -0.0104743 -0.0216135 
-0.0104743 9.78329 0.0208562 
-0.0216135 0.0208562 9.90492 
8.25994 0.115516 -0.175127 
0.115516 7.9555 -0.380468 
-0.175127 -0.380468 6.38892 
9.71797 -0.128086 -0.515951 
-0.128086 8.34034 -0.501553 
-0.515951 -0.501553 4.54605 
9.2331 0.089359 -2.23854 
0.089359 9.90665 -1.24744 
-2.23854 -1.24744 3.46461 
9.25644 -0.304405 -0.748586 
-0.304405 8.93718 -0.699518 
-0.748586 -0.699518 4.41075 
9.6835 2.81193e-05 -0.052936 
2.81193e-05 9.7474 0.0346457 
-0.052936 0.0346457 9.86593 
9.67806 0.00199362 0.00431195 
0.00199362 9.73777 0.020815 
0.00431195 0.020815 9.881 
9.71964 -0.0155989 0.0222247 
-0.0155989 9.7176 0.0117823 
0.0222247 0.0117823 9.85959 
9.69007 0.00237583 -0.00697542 
0.00237583 9.73149 0.0273492 
-0.00697542 0.0273492 9.87526 
9.93864 -0.00822365 -0.13802 
-0.00822365 9.89734 -0.0281451 
-0.13802 -0.0281451 9.90591 
9.86515 0.00607468 -0.128497 
0.00607468 9.90665 -0.0181702 
-0.128497 -0.0181702 9.97009 
9.88813 0.00311168 -0.089236 
0.00311168 9.93948 -0.0340474 
-0.089236 -0.0340474 9.91428 
9.89373 -0.0286354 -0.113637 
-0.0286354 9.95245 -0.077923 
-0.113637 -0.077923 9.8957 
7.10456 -0.401576 0.149661 
-0.401576 9.58835 1.16314 
0.149661 1.16314 8.18077 
9.0744 0.0182647 -0.443746 
0.0182647 8.69338 -0.726328 
-0.443746 -0.726328 7.1059 
9.58059 -0.0343499 -1.41133 
-0.0343499 8.33468 -0.933165 
-1.41133 -0.933165 6.95841 
10.1405 0.246581 -0.317893 
0.246581 9.06424 -0.91403 
-0.317893 -0.91403 5.66889 
9.58149 0.0834181 0.26943 
0.0834181 9.93369 -0.196467 
0.26943 -0.196467 9.85563 
9.76877 -0.082186 0.0132588 
-0.082186 9.63329 -0.0339048 
0.0132588 -0.0339048 9.96876 
9.67264 0.120734 0.118835 
0.120734 9.87232 -0.047185 
0.118835 -0.047185 9.82586 
9.86614 -0.0600038 0.191186 
-0.0600038 9.75782 -0.203911 
0.191186 -0.203911 9.74685 
10.0483 -0.202309 0.306697 
-0.202309 9.73648 -0.12252 
0.306697 -0.12252 10.0768 
9.7964 -0.053587 0.0294189 
-0.053587 9.92006 0.0306057 
0.0294189 0.0306057 10.1451 
9.83754 -0.0800828 -0.0725292 
-0.0800828 9.88851 0.0335148 
-0.0725292 0.0335148 10.1355 
9.62142 0.0400179 0.0114098 
0.0400179 9.9957 -0.0124067 
0.0114098 -0.0124067 10.2444 
9.76483 -0.0424368 0.250555 
-0.0424368 9.92264 0.397479 
0.250555 0.397479 8.74784 
9.56881 -1.04337 1.25135 
-1.04337 9.7864 -0.411611 
1.25135 -0.411611 9.0801 
9.49955 0.112044 0.491953 
0.112044 9.71769 -0.0703143 
0.491953 -0.0703143 9.21806 
9.57137 0.582201 0.595526 
0.582201 9.51686 -0.0279016 
0.595526 -0.0279016 9.34707 
9.62958 -0.0508301 0.121787 
-0.0508301 9.46064 0.220776 
0.121787 0.220776 9.77675 
9.51549 0.145217 -0.0317339 
0.145217 9.45093 0.41275 
-0.0317339 0.41275 9.90055 
9.93122 0.0459838 0.0841753 
0.0459838 9.13147 0.426226 
0.0841753 0.426226 9.80429 
9.5326 0.0813814 0.116097 
0.0813814 9.56282 0.495991 
0.116097 0.495991 9.77155 
9.85721 0.188242 -2.25722 
0.188242 9.09597 1.2843 
-2.25722 1.2843 3.57417 
10.0322 -0.847892 -5.27722 
-0.847892 8.08118 0.957843 
-5.27722 0.957843 4.41403 
6.70308 -0.657956 -2.89778 
-0.657956 10.4032 2.25827 
-2.89778 2.25827 5.42108 
9.26376 1.55105 -3.97217 
1.55105 8.52882 -0.314446 
-3.97217 -0.314446 4.73477 
9.81212 -0.0296677 -0.160923 
-0.0296677 9.83987 -0.0243477 
-0.160923 -0.0243477 9.8601 
9.95727 0.13314 -0.122415 
0.13314 9.81902 0.0332075 
-0.122415 0.0332075 9.7358 
9.88402 -0.0265959 -0.206843 
-0.0265959 9.81827 -0.0663021 
-0.206843 -0.0663021 9.8098 
9.85294 -0.00376377 -0.163217 
-0.00376377 9.80538 -0.037904 
-0.163217 -0.037904 9.85377 
9.87053 -0.00823034 0.0755939 
-0.00823034 9.80957 0.00878336 
0.0755939 0.00878336 9.89774 
9.8537 -0.0151652 0.0474899 
-0.0151652 9.83564 -0.00200189 
0.0474899 -0.00200189 9.88849 
9.8564 0.0170804 0.0739882 
0.0170804 9.82459 -0.0226299 
0.0739882 -0.0226299 9.89685 
9.86442 -0.00663233 0.0592094 
-0.00663233 9.83014 -0.0035843 
0.0592094 -0.0035843 9.88328 
9.78998 -0.054175 -0.130016 
-0.054175 9.70311 0.285451 
-0.130016 0.285451 9.61695 
9.73428 -0.0305759 -0.152173 
-0.0305759 9.73113 0.272906 
-0.152173 0.272906 9.64463 
9.67115 -0.0553989 -0.136242 
-0.0553989 9.73157 0.170734 
-0.136242 0.170734 9.70733 
9.76602 0.0104138 -0.218701 
0.0104138 9.75454 0.324976 
-0.218701 0.324976 9.58949 
12.1704 0.908654 -0.108827 
0.908654 9.73321 0.102605 
-0.108827 0.102605 13.2611 
12.2836 1.09345 -0.044266 
1.09345 9.97401 0.0182751 
-0.044266 0.0182751 12.907 
12.2956 1.03417 0.0136232 
1.03417 9.7222 -0.0988424 
0.0136232 -0.0988424 13.1469 
12.4849 1.04508 0.110264 
1.04508 9.94182 -0.261311 
0.110264 -0.261311 12.7379 
9.82982 0.0151509 -0.147834 
0.0151509 9.83484 0.153843 
-0.147834 0.153843 9.86031 
9.83544 -0.000127645 -0.139986 
-0.000127645 9.84046 0.150271 
-0.139986 0.150271 9.84908 
9.83305 0.00140722 -0.148024 
0.00140722 9.85404 0.146301 
-0.148024 0.146301 9.83788 
9.827 0.00578367 -0.127458 
0.00578367 9.84327 0.143233 
-0.127458 0.143233 9.8547 
9.79722 -0.0119056 0.261839 
-0.0119056 9.76461 -0.143354 
0.261839 -0.143354 9.73256 
9.74816 -0.0113328 0.258231 
-0.0113328 9.78713 -0.128571 
0.258231 -0.128571 9.75909 
9.75109 -0.00516537 0.307588 
-0.00516537 9.76884 -0.101811 
0.307588 -0.101811 9.77446 
9.7578 -0.0293194 0.306967 
-0.0293194 9.77946 -0.117049 
0.306967 -0.117049 9.75713 
9.43986 0.119625 -0.302762 
0.119625 9.50608 0.163088 
-0.302762 0.163088 9.64328 
9.02399 0.177323 -0.74024 
0.177323 9.75956 0.173337 
-0.74024 0.173337 9.80568 
9.5109 0.0270847 -0.543553 
0.0270847 9.57743 0.125479 
-0.543553 0.125479 9.5009 
9.42966 -0.0588702 -0.495057 
-0.0588702 9.59498 0.0949459 
-0.495057 0.0949459 9.56457 
10.1271 0.00902879 -0.056589 
0.00902879 10.0778 -0.00650387 
-0.056589 -0.00650387 9.9958 
10.146 -0.0214328 -0.087056 
-0.0214328 10.1171 -0.0118506 
-0.087056 -0.0118506 9.93764 
10.1027 0.009761 0.0304357 
0.009761 10.0785 0.0180564 
0.0304357 0.0180564 10.0194 
10.0628 -0.0146756 0.000649965 
-0.0146756 10.1452 0.0514498 
0.000649965 0.0514498 9.99275 
10.0458 0.00470747 0.0312355 
0.00470747 10.0367 -0.01388 
0.0312355 -0.01388 9.97977 
10.0285 -0.000938403 0.00350038 
-0.000938403 10.0838 0.0410511 
0.00350038 0.0410511 9.95008 
10.035 0.00597998 -0.00862788 
0.00597998 10.0272 -0.000439619 
-0.00862788 -0.000439619 10.0001 
10.0609 0.0153787 -0.0287291 
0.0153787 10.0692 0.0346935 
-0.0287291 0.0346935 9.93222 
9.76491 0.0181746 -0.202248 
0.0181746 9.80322 0.149406 
-0.202248 0.149406 9.70099 
9.76486 -0.0237077 -0.199031 
-0.0237077 9.75941 0.240983 
-0.199031 0.240983 9.74485 
9.77989 -2.54151e-05 -0.223693 
-2.54151e-05 9.77067 0.194655 
-0.223693 0.194655 9.71855 
9.78799 -0.0170841 -0.22232 
-0.0170841 9.78694 0.198151 
-0.22232 0.198151 9.69418 
10.0386 -0.00749033 -0.0279553 
-0.00749033 10.0187 0.0385678 
-0.0279553 0.0385678 9.99394 
9.99747 0.024755 -0.00775083 
0.024755 10.0083 0.013606 
-0.00775083 0.013606 10.0454 
10.0492 -0.0108371 0.0666443 
-0.0108371 10.0576 -0.116778 
0.0666443 -0.116778 9.94445 
10.0272 0.00277743 -0.0195348 
0.00277743 10.0513 -0.0915936 
-0.0195348 -0.0915936 9.97269 
9.68557 0.0511413 0.109932 
0.0511413 9.75788 0.450027 
0.109932 0.450027 9.49205 
9.67346 -0.00793131 0.142475 
-0.00793131 9.68393 0.42643 
0.142475 0.42643 9.57812 
9.70807 -0.0126807 0.192491 
-0.0126807 9.59923 0.447025 
0.192491 0.447025 9.62821 
9.66376 -0.0301901 0.0971317 
-0.0301901 9.60729 0.29979 
0.0971317 0.29979 9.66446 
9.8389 0.0394643 -0.20817 
0.0394643 9.75058 -0.193309 
-0.20817 -0.193309 9.73768 
9.76034 -0.0223916 -0.266291 
-0.0223916 9.76707 -0.211234 
-0.266291 -0.211234 9.79976 
9.78416 0.00988129 -0.252487 
0.00988129 9.83626 -0.0755858 
-0.252487 -0.0755858 9.70675 
9.74203 0.0186733 -0.357004 
0.0186733 9.79323 -0.130577 
-0.357004 -0.130577 9.79191 
9.37903 -0.978215 0.217369 
-0.978215 8.06417 1.59053 
0.217369 1.59053 5.86365 
9.42732 -0.323529 1.04132 
-0.323529 7.90216 2.27366 
1.04132 2.27366 5.97737 
8.43313 1.25347 0.719275 
1.25347 8.0016 0.229664 
0.719275 0.229664 6.87212 
8.72498 -0.844077 -0.896618 
-0.844077 8.0872 1.86952 
-0.896618 1.86952 6.49467 
10.3236 -0.355512 -0.163717 
-0.355512 9.98486 -0.188652 
-0.163717 -0.188652 10.4754 
10.4393 0.312144 -0.0363133 
0.312144 9.79265 0.850317 
-0.0363133 0.850317 10.5519 
10.283 0.235536 -0.151364 
0.235536 9.9878 0.375615 
-0.151364 0.375615 10.5131 
10.1032 0.418128 -0.389686 
0.418128 10.0327 0.717164 
-0.389686 0.717164 10.648 
9.6982 -0.0164849 -0.0202541 
-0.0164849 9.71962 0.0718624 
-0.0202541 0.0718624 9.89756 
9.74007 0.0171525 -0.00717562 
0.0171525 9.61989 0.0174037 
-0.00717562 0.0174037 9.95541 
9.63626 -0.0149345 0.0143492 
-0.0149345 9.75074 -0.0635487 
0.0143492 -0.0635487 9.92837 
9.68093 0.00146722 -0.0152989 
0.00146722 9.70301 0.0119856 
-0.0152989 0.0119856 9.93143 
9.73294 0.0614285 -0.0461888 
0.0614285 9.76163 0.0331416 
-0.0461888 0.0331416 9.84056 
9.68818 -0.00347078 -0.0231705 
-0.00347078 9.77473 0.00875695 
-0.0231705 0.00875695 9.87221 
9.69487 0.000927905 0.00795999 
0.000927905 9.77553 0.0347168 
0.00795999 0.0347168 9.86472 
9.7157 0.000333408 0.0215955 
0.000333408 9.73474 0.0210623 
0.0215955 0.0210623 9.88469 
9.17904 0.248038 -0.065623 
0.248038 10.0038 -0.193612 
-0.065623 -0.193612 9.67474 
9.37803 0.186543 -0.148568 
0.186543 9.541 -0.46903 
-0.148568 -0.46903 9.93853 
9.70875 0.00804978 -0.0270305 
0.00804978 9.28737 0.00470355 
-0.0270305 0.00470355 9.86143 
9.42945 0.156039 0.208068 
0.156039 9.71707 -0.254287 
0.208068 -0.254287 9.71103 
9.70741 0.0408299 -0.132921 
0.0408299 9.74388 0.2345 
-0.132921 0.2345 9.83263 
9.76996 -0.0351191 -0.195274 
-0.0351191 9.75063 0.286104 
-0.195274 0.286104 9.76332 
9.74364 0.00971013 -0.210524 
0.00971013 9.70414 0.114138 
-0.210524 0.114138 9.83614 
9.81738 0.00694829 -0.289596 
0.00694829 9.73539 0.228184 
-0.289596 0.228184 9.73115 
9.63893 -0.124406 0.299803 
-0.124406 9.72554 -0.0288049 
0.299803 -0.0288049 8.74324 
9.54824 -0.0616914 0.115779 
-0.0616914 9.39932 -0.17992 
0.115779 -0.17992 9.16014 
9.77415 -0.0857465 -0.049684 
-0.0857465 9.44498 0.168904 
-0.049684 0.168904 8.88857 
9.90016 -0.0601368 -0.235605 
-0.0601368 9.43967 0.110069 
-0.235605 0.110069 8.76787 
9.81493 -0.0255788 0.0939733 
-0.0255788 9.84614 -0.208777 
0.0939733 -0.208777 9.41697 
9.70304 -0.0573865 0.0528363 
-0.0573865 9.88494 -0.214717 
0.0528363 -0.214717 9.49007 
9.72214 -0.0305784 0.0112024 
-0.0305784 9.91351 -0.213332 
0.0112024 -0.213332 9.44239 
9.68073 -0.0345876 0.0592474 
-0.0345876 9.84092 -0.156091 
0.0592474 -0.156091 9.5564 
9.56271 0.00353416 0.183584 
0.00353416 9.90413 0.17142 
0.183584 0.17142 9.39497 
9.5054 0.0572467 0.00633427 
0.0572467 9.73713 0.298653 
0.00633427 0.298653 9.6193 
9.6836 -0.0859706 0.168497 
-0.0859706 9.62048 0.296333 
0.168497 0.296333 9.55775 
9.56324 0.0603599 -0.191233 
0.0603599 9.64189 0.13735 
-0.191233 0.13735 9.65668 
9.7484 -0.00749049 0.285353 
-0.00749049 9.72772 -0.13859 
0.285353 -0.13859 9.72238 
9.76467 -0.0129992 0.289314 
-0.0129992 9.74106 -0.143636 
0.289314 -0.143636 9.69277 
9.72008 0.00589639 0.287567 
0.00589639 9.72332 -0.155969 
0.287567 -0.155969 9.7551 
9.74352 -0.00853311 0.267855 
-0.00853311 9.72618 -0.122655 
0.267855 -0.122655 9.7288 
9.89169 -0.00129138 -0.0734226 
-0.00129138 9.9189 0.134205 
-0.0734226 0.134205 9.8157 
9.87535 0.0187684 -0.100965 
0.0187684 9.91787 0.15405 
-0.100965 0.15405 9.83307 
9.90974 -0.016071 -0.11796 
-0.016071 9.90972 0.112523 
-0.11796 0.112523 9.80684 
9.88028 -0.00591794 -0.103293 
-0.00591794 9.87639 0.166857 
-0.103293 0.166857 9.86961 
10.1063 -0.0415788 0.0356379 
-0.0415788 10.0597 -0.0169513 
0.0356379 -0.0169513 9.9712 
10.0084 0.0570122 0.0233372 
0.0570122 10.085 0.00393506 
0.0233372 0.00393506 10.0438 
10.0721 -0.0013666 0.06209 
-0.0013666 10.0867 -0.0308334 
0.06209 -0.0308334 9.97839 
10.0958 0.0258466 0.0543551 
0.0258466 10.0769 -0.0738437 
0.0543551 -0.0738437 9.96453 
9.15409 0.0132676 -0.391581 
0.0132676 9.70129 -0.155432 
-0.391581 -0.155432 9.60454 
9.60861 -0.832118 -0.684937 
-0.832118 9.77112 -0.109521 
-0.684937 -0.109521 9.0802 
9.47126 -0.0492745 -0.537336 
-0.0492745 9.48359 -0.308973 
-0.537336 -0.308973 9.50507 
9.7317 0.0503794 -0.350845 
0.0503794 9.33961 -0.453944 
-0.350845 -0.453944 9.38862 
12.3659 0.529635 0.599172 
0.529635 8.96462 -1.22552 
0.599172 -1.22552 10.8568 
10.4661 -0.904083 -0.387605 
-0.904083 10.0784 -0.308585 
-0.387605 -0.308585 11.6428 
10.0269 -1.79507 -0.667466 
-1.79507 10.47 0.0964711 
-0.667466 0.0964711 11.6904 
9.25047 0.427594 -1.39664 
0.427594 10.1188 -0.488782 
-1.39664 -0.488782 12.818 
9.92963 0.0280151 -0.165547 
0.0280151 9.88492 0.0297307 
-0.165547 0.0297307 9.86196 
9.90143 0.0068453 -0.166696 
0.0068453 9.91617 -0.0466432 
-0.166696 -0.0466432 9.85891 
9.89468 0.00561451 -0.162322 
0.00561451 9.92324 0.0286784 
-0.162322 0.0286784 9.85859 
9.90801 0.00794276 -0.161199 
0.00794276 9.91208 0.0188512 
-0.161199 0.0188512 9.85643 
9.79666 0.0172103 -0.116694 
0.0172103 9.77787 0.0321896 
-0.116694 0.0321896 9.9047 
9.84477 0.0202575 -0.0444699 
0.0202575 9.76512 -0.0150959 
-0.0444699 -0.0150959 9.86934 
9.82103 0.00941707 -0.06109 
0.00941707 9.77798 -0.00798121 
-0.06109 -0.00798121 9.88022 
9.85441 0.0361579 -0.0156196 
0.0361579 9.81939 0.00741378 
-0.0156196 0.00741378 9.80542 
9.63109 -0.0782728 0.182918 
-0.0782728 9.50576 0.157905 
0.182918 0.157905 9.8665 
9.26783 -0.187007 0.602127 
-0.187007 9.80957 0.21903 
0.602127 0.21903 9.92594 
9.64354 0.0599714 0.503835 
0.0599714 9.69426 0.216224 
0.503835 0.216224 9.66553 
9.71249 -0.0578461 0.52098 
-0.0578461 9.72136 0.234957 
0.52098 0.234957 9.56949 
9.75092 -0.0122196 -0.0413566 
-0.0122196 9.74107 0.0410055 
-0.0413566 0.0410055 9.93672 
9.72585 0.0120915 -0.024492 
0.0120915 9.76547 0.0037259 
-0.024492 0.0037259 9.93739 
9.7362 0.0248213 -0.0248004 
0.0248213 9.74748 0.0205412 
-0.0248004 0.0205412 9.94503 
9.74621 0.0157746 -0.0213998 
0.0157746 9.7517 0.00905253 
-0.0213998 0.00905253 9.9308 
9.78855 0.0933361 -0.262756 
0.0933361 9.67116 -0.0856958 
-0.262756 -0.0856958 9.45404 
9.8351 0.0984865 -0.242845 
0.0984865 9.71271 -0.10917 
-0.242845 -0.10917 9.36595 
9.7982 0.113042 -0.285782 
0.113042 9.7519 -0.220746 
-0.285782 -0.220746 9.36365 
9.83887 0.116322 -0.183206 
0.116322 9.73842 -0.0574922 
-0.183206 -0.0574922 9.33647 
9.89722 0.011078 0.00825822 
0.011078 9.91608 0.0651308 
0.00825822 0.0651308 9.89535 
9.9317 0.00394548 0.0250087 
0.00394548 9.87915 0.0448286 
0.0250087 0.0448286 9.89779 
9.88993 -0.0202951 0.00556409 
-0.0202951 9.89998 0.06469 
0.00556409 0.06469 9.91873 
9.86679 0.00928586 0.00366487 
0.00928586 9.91931 0.0767839 
0.00366487 0.0767839 9.92255 
10.3152 -0.0352555 -0.0201572 
-0.0352555 10.4304 0.121213 
-0.0201572 0.121213 11.2785 
10.5101 -0.025547 -0.0356181 
-0.025547 10.2631 0.0376656 
-0.0356181 0.0376656 11.2509 
10.4152 0.051188 -0.00296517 
0.051188 10.4788 0.0383436 
-0.00296517 0.0383436 11.1301 
10.4119 -0.117177 -0.187592 
-0.117177 10.4398 -0.192688 
-0.187592 -0.192688 11.1724 
9.74593 0.00943099 0.241798 
0.00943099 9.74509 0.207829 
0.241798 0.207829 9.71037 
9.75682 0.0100171 0.246629 
0.0100171 9.76002 0.208417 
0.246629 0.208417 9.68455 
9.73443 -0.00438222 0.262679 
-0.00438222 9.764 0.227034 
0.262679 0.227034 9.70296 
9.73309 0.00544806 0.220234 
0.00544806 9.73175 0.22167 
0.220234 0.22167 9.73655 
9.87569 -0.0125197 -0.0412973 
-0.0125197 9.93049 0.0388448 
-0.0412973 0.0388448 9.93696 
9.91949 -0.000653222 -0.00732068 
-0.000653222 9.90958 0.0540866 
-0.00732068 0.0540866 9.91407 
9.91181 -0.0160667 0.0316627 
-0.0160667 9.91567 0.00784572 
0.0316627 0.00784572 9.91566 
9.89107 -0.00911089 -0.0421406 
-0.00911089 9.89644 0.0408859 
-0.0421406 0.0408859 9.95563 
9.68726 0.262492 -0.753187 
0.262492 9.56872 -0.294311 
-0.753187 -0.294311 9.56837 
10.4028 -0.193643 -0.0773321 
-0.193643 8.78146 -0.864887 
-0.0773321 -0.864887 9.64008 
9.60173 -0.223664 -0.200488 
-0.223664 10.0176 -0.716786 
-0.200488 -0.716786 9.20504 
9.05628 -0.228183 -0.298272 
-0.228183 9.87038 0.20087 
-0.298272 0.20087 9.8977 
11.3067 -0.508599 0.391757 
-0.508599 10.699 0.496818 
0.391757 0.496818 13.6403 
8.76973 -0.0706153 0.454841 
-0.0706153 11.5484 0.67148 
0.454841 0.67148 15.3278 
10.9872 1.51927 -0.181356 
1.51927 12.3838 -0.120816 
-0.181356 -0.120816 12.275 
10.4196 0.237955 0.380798 
0.237955 12.9959 0.26193 
0.380798 0.26193 12.2305 
9.77492 0.0022968 0.0611033 
0.0022968 9.76347 0.309953 
0.0611033 0.309953 9.75176 
9.78501 -0.00597207 0.0786159 
-0.00597207 9.74819 0.311124 
0.0786159 0.311124 9.75696 
9.72284 0.0170814 0.0677878 
0.0170814 9.79648 0.303045 
0.0677878 0.303045 9.77083 
9.77947 0.0257003 0.0577461 
0.0257003 9.76979 0.33432 
0.0577461 0.33432 9.7409 
10.0883 0.0137262 -0.00269038 
0.0137262 10.1006 -0.000309583 
-0.00269038 -0.000309583 10.0609 
10.1452 0.00940896 0.0295252 
0.00940896 10.1222 -0.0443068 
0.0295252 -0.0443068 9.98237 
10.1685 0.0132733 0.0392317 
0.0132733 10.1511 -0.0497951 
0.0392317 -0.0497951 9.93022 
10.1326 0.0444368 0.0408008 
0.0444368 10.097 -0.0657634 
0.0408008 -0.0657634 10.0202 
9.94083 -0.113933 0.0333486 
-0.113933 9.81305 0.121637 
0.0333486 0.121637 10.0945 
10.0294 -0.00970067 0.0604821 
-0.00970067 9.92332 0.202599 
0.0604821 0.202599 9.89562 
9.9886 0.152134 -0.0202092 
0.152134 9.9531 0.119721 
-0.0202092 0.119721 9.90667 
9.92788 0.0825963 0.0160001 
0.0825963 9.93932 0.204398 
0.0160001 0.204398 9.98117 
9.74107 -0.0264749 0.261453 
-0.0264749 9.73714 -0.203419 
0.261453 -0.203419 9.69919 
9.74493 -0.0267496 0.263135 
-0.0267496 9.72392 -0.200525 
0.263135 -0.200525 9.70856 
9.79699 0.00945873 0.234191 
0.00945873 9.77189 -0.151095 
0.234191 -0.151095 9.60852 
9.70464 -0.0045477 0.205875 
-0.0045477 9.67847 -0.208957 
0.205875 -0.208957 9.79429 
9.71219 0.143506 -0.142105 
0.143506 9.72073 0.153789 
-0.142105 0.153789 10.1508 
9.77361 0.123663 -0.11966 
0.123663 9.73299 0.170872 
-0.11966 0.170872 10.0771 
9.57038 0.0249251 -0.0361367 
0.0249251 9.74881 0.0427355 
-0.0361367 0.0427355 10.2645 
9.7335 0.107119 -0.302118 
0.107119 9.85791 0.0755242 
-0.302118 0.0755242 9.99231 
9.57641 -0.119968 0.17006 
-0.119968 10.0122 -0.0286691 
0.17006 -0.0286691 11.3617 
9.71203 -0.046395 -0.0843429 
-0.046395 10.1912 0.0176761 
-0.0843429 0.0176761 11.047 
10.059 -0.0846124 0.0951903 
-0.0846124 9.83355 -0.0237537 
0.0951903 -0.0237537 11.0578 
9.71845 -0.174138 0.0854304 
-0.174138 10.1608 0.235918 
0.0854304 0.235918 11.071 
12.508 0.885129 0.960451 
0.885129 6.85922 0.13923 
0.960451 0.13923 17.4717 
10.7743 1.96116 0.371808 
1.96116 8.78822 1.749 
0.371808 1.749 17.2765 
15.2666 1.50695 -1.08761 
1.50695 14.0687 -1.56756 
-1.08761 -1.56756 7.50363 
10.2714 -0.522525 -4.75644 
-0.522525 8.26548 -1.55304 
-4.75644 -1.55304 18.3021 
10.1686 0.432566 -0.154551 
0.432566 9.50348 -0.257036 
-0.154551 -0.257036 11.2587 
10.321 0.0707699 0.314819 
0.0707699 10.0225 -0.651138 
0.314819 -0.651138 10.5873 
10.0908 0.502113 0.0489564 
0.502113 9.4976 -0.279378 
0.0489564 -0.279378 11.3423 
9.87841 0.310804 0.100762 
0.310804 9.96129 -0.468245 
0.100762 -0.468245 11.091 
9.36104 0.153507 -0.371508 
0.153507 10.5575 -0.0460004 
-0.371508 -0.0460004 11.4772 
9.55322 0.19319 -0.349254 
0.19319 10.5455 -0.0165675 
-0.349254 -0.0165675 11.297 
9.43847 0.20237 -0.357268 
0.20237 10.5788 0.0423451 
-0.357268 0.0423451 11.3785 
9.72021 0.0649601 -0.468462 
0.0649601 10.4679 0.00529526 
-0.468462 0.00529526 11.2076 
8.70846 0.142337 4.92971 
0.142337 9.88267 -1.82789 
4.92971 -1.82789 3.391 
6.57452 1.50724 2.31173 
1.50724 8.51089 -1.52852 
2.31173 -1.52852 6.89672 
8.41654 0.447632 3.07969 
0.447632 8.29208 -1.2311 
3.07969 -1.2311 5.27351 
9.00691 -0.792249 0.15793 
-0.792249 7.39668 0.821801 
0.15793 0.821801 5.57855 
9.93958 0.0144213 -0.0460458 
0.0144213 9.97115 0.0613882 
-0.0460458 0.0613882 9.93872 
10.042 -0.0119594 -0.10275 
-0.0119594 9.92678 0.0363333 
-0.10275 0.0363333 9.88063 
9.93664 0.000619328 -0.0652438 
0.000619328 9.94017 0.0432615 
-0.0652438 0.0432615 9.97263 
10.0192 -0.00416547 -0.0968777 
-0.00416547 9.96076 -0.0428726 
-0.0968777 -0.0428726 9.86951 
10.0854 0.0278915 -0.15311 
0.0278915 9.4433 0.0492366 
-0.15311 0.0492366 11.5697 
10.2543 0.432301 -0.136639 
0.432301 9.88368 -0.171405 
-0.136639 -0.171405 10.9604 
10.8228 -0.160693 -0.0284967 
-0.160693 9.01049 0.00115535 
-0.0284967 0.00115535 11.2652 
9.83389 -0.208086 -0.0766235 
-0.208086 9.64543 0.0886471 
-0.0766235 0.0886471 11.6191 
9.97547 -0.0378058 -0.0330211 
-0.0378058 9.97569 0.00192643 
-0.0330211 0.00192643 9.99584 
10.0198 0.0919836 -0.111312 
0.0919836 10.0506 -0.116017 
-0.111312 -0.116017 9.87655 
9.9042 0.000579571 -0.0519222 
0.000579571 9.99672 0.0361405 
-0.0519222 0.0361405 10.0461 
9.97333 -0.109838 -0.129205 
-0.109838 9.99183 -0.075134 
-0.129205 -0.075134 9.98183 
9.68401 -0.168333 -0.344013 
-0.168333 9.44351 -0.342277 
-0.344013 -0.342277 9.51046 
9.63786 -0.022731 -0.436277 
-0.022731 9.73393 -0.368315 
-0.436277 -0.368315 9.26619 
9.53986 -0.112072 -0.397124 
-0.112072 9.42794 -0.334107 
-0.397124 -0.334107 9.67018 
9.5616 -0.194733 -0.3732 
-0.194733 9.69583 -0.470613 
-0.3732 -0.470613 9.38055 
3.93491 -0.246231 1.15264 
-0.246231 5.27425 1.2251 
1.15264 1.2251 0.944192 
4.04277 -0.746456 1.88135 
-0.746456 3.72772 0.363598 
1.88135 0.363598 2.38288 
4.9035 -0.204084 1.78036 
-0.204084 4.80065 0.902406 
1.78036 0.902406 0.44921 
4.39082 -0.82867 2.38039 
-0.82867 3.66781 0.415559 
2.38039 0.415559 2.09473 
9.43442 -0.199569 0.0269689 
-0.199569 9.61419 0.148616 
0.0269689 0.148616 10.193 
9.77652 -0.138041 0.312041 
-0.138041 9.50658 0.0539164 
0.312041 0.0539164 9.95851 
9.32534 -0.402021 -0.174465 
-0.402021 9.5662 0.0633657 
-0.174465 0.0633657 10.3501 
9.34817 -0.402141 0.610139 
-0.402141 9.55456 0.291443 
0.610139 0.291443 10.3389 
10.2845 0.0877523 -0.0202907 
0.0877523 9.6213 -0.169568 
-0.0202907 -0.169568 10.9586 
9.97146 -0.319764 0.136596 
-0.319764 9.83161 0.0310027 
0.136596 0.0310027 11.0613 
9.59053 -0.565165 0.197183 
-0.565165 9.761 -0.0824943 
0.197183 -0.0824943 11.5129 
10.021 -0.371368 -0.190273 
-0.371368 9.94372 0.162193 
-0.190273 0.162193 10.8997 
9.89588 -0.0159508 -0.157103 
-0.0159508 9.89986 -0.0339293 
-0.157103 -0.0339293 9.87655 
9.89522 -0.0181266 -0.159402 
-0.0181266 9.91403 0.0234142 
-0.159402 0.0234142 9.86304 
9.8986 -0.0145832 -0.147054 
-0.0145832 9.9016 -0.0268527 
-0.147054 -0.0268527 9.8721 
9.90399 -0.0149186 -0.189101 
-0.0149186 9.90706 0.00847829 
-0.189101 0.00847829 9.86125 
9.66287 -0.0186949 0.0540923 
-0.0186949 9.71839 -0.197412 
0.0540923 -0.197412 9.70622 
9.70196 0.0306804 0.0274637 
0.0306804 9.71331 -0.185294 
0.0274637 -0.185294 9.67221 
9.63252 -0.00474616 0.0918169 
-0.00474616 9.77525 -0.212153 
0.0918169 -0.212153 9.67972 
9.69634 -0.0246736 0.0114715 
-0.0246736 9.69285 -0.171772 
0.0114715 -0.171772 9.69831 
9.94194 0.00495263 0.124741 
0.00495263 9.74434 0.166585 
0.124741 0.166585 11.039 
10.1576 -0.184813 -0.0955709 
-0.184813 10.3674 -0.113706 
-0.0955709 -0.113706 10.2003 
9.95803 -0.0492729 -0.0285512 
-0.0492729 10.0972 -0.119075 
-0.0285512 -0.119075 10.6701 
9.90957 -0.227881 -0.572692 
-0.227881 10.1017 -0.0422025 
-0.572692 -0.0422025 10.714 
9.74979 0.295747 0.408327 
0.295747 9.84735 0.171377 
0.408327 0.171377 8.71911 
9.88673 0.270097 0.493011 
0.270097 9.7607 0.335206 
0.493011 0.335206 8.66882 
9.75032 0.185767 0.184487 
0.185767 9.68012 0.120967 
0.184487 0.120967 8.88581 
9.83435 0.318073 0.123228 
0.318073 9.75218 0.169128 
0.123228 0.169128 8.72972 
9.79343 -0.0002308 0.225686 
-0.0002308 9.72571 -0.0703298 
0.225686 -0.0703298 9.71047 
9.78891 -0.0142299 0.249264 
-0.0142299 9.75124 -0.072611 
0.249264 -0.072611 9.68946 
9.79139 -0.00362574 0.227687 
-0.00362574 9.72589 -0.0702797 
0.227687 -0.0702797 9.71234 
9.76324 0.00483535 0.258212 
0.00483535 9.69858 -0.111569 
0.258212 -0.111569 9.76779 
9.78078 0.0324283 0.0933494 
0.0324283 9.77686 0.112935 
0.0933494 0.112935 9.76447 
9.71875 0.0053252 0.0356093 
0.0053252 9.76679 0.140071 
0.0356093 0.140071 9.83657 
9.80536 0.0356452 0.0634474 
0.0356452 9.8088 0.118177 
0.0634474 0.118177 9.70794 
9.7807 0.0465789 0.0961009 
0.0465789 9.78022 0.0988511 
0.0961009 0.0988511 9.76118 
10.0942 -0.110693 -0.977168 
-0.110693 9.35921 0.0198559 
-0.977168 0.0198559 9.9992 
9.4759 -0.123936 0.126029 
-0.123936 10.1577 -0.0303123 
0.126029 -0.0303123 9.81902 
9.53238 -0.0671359 -0.112552 
-0.0671359 9.80011 -0.0818253 
-0.112552 -0.0818253 10.1201 
9.10696 -0.00804011 -0.176006 
-0.00804011 10.1402 -0.358385 
-0.176006 -0.358385 10.2055 
9.59854 -0.142412 0.272356 
-0.142412 9.69373 -0.334105 
0.272356 -0.334105 9.71611 
9.65728 -0.268387 0.0663841 
-0.268387 9.89138 -0.143477 
0.0663841 -0.143477 9.45972 
9.59396 -0.0635272 0.144493 
-0.0635272 9.81892 -0.193616 
0.144493 -0.193616 9.59549 
9.57779 0.0185899 0.0685795 
0.0185899 9.75827 -0.133483 
0.0685795 -0.133483 9.67232 
9.41745 -0.885085 -0.639927 
-0.885085 10.5074 -0.293537 
-0.639927 -0.293537 12.2593 
11.1469 -0.199841 -0.00468675 
-0.199841 11.3579 -0.66399 
-0.00468675 -0.66399 9.67932 
10.9271 -0.569275 0.00973298 
-0.569275 9.75151 0.119154 
0.00973298 0.119154 11.5055 
10.2744 -0.303099 0.433491 
-0.303099 10.465 0.0626034 
0.433491 0.0626034 11.4448 
9.80714 -0.037032 0.0475854 
-0.037032 9.87137 -0.0706394 
0.0475854 -0.0706394 9.75518 
9.79486 -0.0296377 0.048997 
-0.0296377 9.85429 -0.141606 
0.048997 -0.141606 9.78453 
9.78442 0.0107558 0.0838935 
0.0107558 9.78414 -0.13103 
0.0838935 -0.13103 9.86512 
9.79717 -0.0175607 0.0759863 
-0.0175607 9.83633 -0.107791 
0.0759863 -0.107791 9.80018 
9.6849 -0.0522197 -0.213591 
-0.0522197 9.62276 0.0949656 
-0.213591 0.0949656 9.64147 
9.76742 -0.0330139 -0.198 
-0.0330139 9.59232 0.0968991 
-0.198 0.0968991 9.58938 
9.69052 -0.0294457 -0.242605 
-0.0294457 9.62337 0.0937912 
-0.242605 0.0937912 9.63523 
9.71165 -0.0365339 -0.213851 
-0.0365339 9.6158 0.0799835 
-0.213851 0.0799835 9.62168 
5.92724 -0.922494 0.671665 
-0.922494 3.89121 0.726757 
0.671665 0.726757 0.465749 
3.30746 -0.266283 0.55494 
-0.266283 2.91218 -0.881232 
0.55494 -0.881232 4.06456 
4.52524 0.14907 1.54831 
0.14907 5.23339 0.950197 
1.54831 0.950197 0.525561 
4.57963 -0.0235057 -0.105694 
-0.0235057 4.36391 -1.17735 
-0.105694 -1.17735 1.34066 
9.19426 0.193083 -0.104532 
0.193083 9.54034 -0.224842 
-0.104532 -0.224842 9.66416 
9.23769 0.285827 0.275875 
0.285827 9.33446 -0.715145 
0.275875 -0.715145 9.82661 
9.35049 0.0872859 0.0394329 
0.0872859 9.28525 -0.497967 
0.0394329 -0.497967 9.76302 
9.45976 0.203915 0.343441 
0.203915 9.19352 -0.359105 
0.343441 -0.359105 9.74547 
9.99666 0.00746282 -0.0164101 
0.00746282 10.0039 -0.0250715 
-0.0164101 -0.0250715 10.022 
10.0313 0.00383589 0.0412251 
0.00383589 10.0133 0.0213008 
0.0412251 0.0213008 9.97799 
10.0172 0.000121841 -0.0408702 
0.000121841 10.0155 -0.0289655 
-0.0408702 -0.0289655 9.98986 
10.0366 -0.00194776 0.0802346 
-0.00194776 10.0287 -0.0215051 
0.0802346 -0.0215051 9.95736 
9.7645 0.000999161 0.000897381 
0.000999161 9.75969 0.0233732 
0.000897381 0.0233732 9.93958 
9.76263 0.0234181 0.00351386 
0.0234181 9.75675 0.0269225 
0.00351386 0.0269225 9.94439 
9.78263 -0.0182854 -0.00413167 
-0.0182854 9.73469 0.00411247 
-0.00413167 0.00411247 9.94645 
9.75076 0.000667064 -0.000367935 
0.000667064 9.79382 0.0159038 
-0.000367935 0.0159038 9.91918 
9.80892 0.24717 -0.0976462 
0.24717 9.71759 0.0579065 
-0.0976462 0.0579065 10.4099 
9.60487 0.172238 -0.0359972 
0.172238 10.0746 0.145451 
-0.0359972 0.145451 10.2569 
9.91359 0.327614 -0.370634 
0.327614 9.79863 0.0977537 
-0.370634 0.0977537 10.2241 
9.83184 0.246564 -0.176947 
0.246564 9.83843 0.232048 
-0.176947 0.232048 10.2661 
9.75518 0.0523938 -0.186646 
0.0523938 9.79186 0.140109 
-0.186646 0.140109 9.92815 
9.76761 0.020484 -0.226843 
0.020484 9.78237 0.232879 
-0.226843 0.232879 9.92521 
9.78458 0.0316313 -0.175908 
0.0316313 9.7875 0.192417 
-0.175908 0.192417 9.90311 
9.82527 0.065543 -0.153637 
0.065543 9.85811 0.175474 
-0.153637 0.175474 9.7918 
10.2289 0.226609 0.0617012 
0.226609 9.59313 0.36183 
0.0617012 0.36183 11.0621 
10.4886 -0.0767926 0.0503099 
-0.0767926 9.20775 0.214185 
0.0503099 0.214185 11.1877 
10.5527 -0.183269 -0.0822793 
-0.183269 9.04274 0.340228 
-0.0822793 0.340228 11.2887 
10.4279 -0.135014 0.27301 
-0.135014 9.26683 0.209889 
0.27301 0.209889 11.1894 
9.74391 -0.0225257 0.114693 
-0.0225257 9.75563 0.266746 
0.114693 0.266746 9.83809 
9.77093 -0.0665707 0.171217 
-0.0665707 9.71083 0.36514 
0.171217 0.36514 9.85587 
9.74747 -0.0286639 0.0897327 
-0.0286639 9.73348 0.235986 
0.0897327 0.235986 9.85668 
9.79811 -0.00924675 0.117373 
-0.00924675 9.78223 0.249524 
0.117373 0.249524 9.7573 
9.62329 0.00195485 -0.0261439 
0.00195485 9.69075 0.223402 
-0.0261439 0.223402 9.53306 
9.65128 -0.0443122 -0.0787776 
-0.0443122 9.75374 0.240159 
-0.0787776 0.240159 9.44206 
9.60813 -0.0150291 -0.0615183 
-0.0150291 9.67543 0.258705 
-0.0615183 0.258705 9.56353 
9.6213 -0.0207128 -0.0673526 
-0.0207128 9.71182 0.235619 
-0.0673526 0.235619 9.51398 
9.71138 -0.0107738 -0.0425812 
-0.0107738 9.42441 0.197688 
-0.0425812 0.197688 9.70839 
9.71522 -0.00101228 -0.147405 
-0.00101228 9.43356 0.357141 
-0.147405 0.357141 9.6954 
9.63473 0.0746237 -0.169067 
0.0746237 9.63698 0.409738 
-0.169067 0.409738 9.57247 
9.53508 0.210693 0.039608 
0.210693 9.49892 0.592506 
0.039608 0.592506 9.81018 
9.78272 -0.0153952 0.11355 
-0.0153952 9.74175 -0.230693 
0.11355 -0.230693 9.81242 
9.79402 -0.00765476 0.0981612 
-0.00765476 9.764 -0.291106 
0.0981612 -0.291106 9.77887 
9.78824 0.0321643 0.0370142 
0.0321643 9.7364 -0.275556 
0.0370142 -0.275556 9.81225 
9.79499 -0.0228054 0.0905059 
-0.0228054 9.77342 -0.317206 
0.0905059 -0.317206 9.76848 
10.2042 -0.014632 -0.0196049 
-0.014632 10.0811 0.0128674 
-0.0196049 0.0128674 9.97657 
10.0956 0.0202577 0.0241764 
0.0202577 10.1487 0.0323819 
0.0241764 0.0323819 10.0175 
10.0972 -0.0220294 -0.0392597 
-0.0220294 10.1421 0.00852582 
-0.0392597 0.00852582 10.0226 
10.1421 -0.00657471 -0.0167707 
-0.00657471 10.102 0.0111929 
-0.0167707 0.0111929 10.0177 
9.80735 0.0610558 -0.0793518 
0.0610558 9.54098 0.136079 
-0.0793518 0.136079 10.1691 
9.5796 0.0298464 -0.147689 
0.0298464 10.0217 0.0544581 
-0.147689 0.0544581 9.91604 
9.69813 -0.0391587 -0.295049 
-0.0391587 9.87368 0.142829 
-0.295049 0.142829 9.94558 
9.85337 0.0523396 -0.254881 
0.0523396 9.82518 0.181587 
-0.254881 0.181587 9.83884 
9.3298 0.556021 -0.152513 
0.556021 9.41473 0.521707 
-0.152513 0.521707 9.01902 
8.89306 0.247743 0.29842 
0.247743 9.59858 0.416136 
0.29842 0.416136 9.27191 
9.19957 0.0658475 0.228714 
0.0658475 9.44052 0.380839 
0.228714 0.380839 9.12346 
9.05499 0.0775351 0.240953 
0.0775351 9.3043 0.368236 
0.240953 0.368236 9.40426 
10.0407 0.266097 0.413397 
0.266097 9.35034 -0.465158 
0.413397 -0.465158 10.2325 
9.58681 0.313451 0.43716 
0.313451 9.38871 -0.206557 
0.43716 -0.206557 10.648 
10.0954 0.252267 0.369945 
0.252267 9.16575 -0.71451 
0.369945 -0.71451 10.3624 
9.56151 0.370541 0.204066 
0.370541 10.16 -0.105391 
0.204066 -0.105391 9.9021 
9.70919 -0.00612767 0.147427 
-0.00612767 9.6931 -0.29372 
0.147427 -0.29372 9.68117 
9.67722 -0.00500151 0.119777 
-0.00500151 9.6924 -0.308106 
0.119777 -0.308106 9.71383 
9.68098 -0.0288492 0.121385 
-0.0288492 9.70827 -0.312022 
0.121385 -0.312022 9.69421 
9.71127 -0.013344 0.153761 
-0.013344 9.72231 -0.296629 
0.153761 -0.296629 9.64988 
9.94596 -0.0237908 0.0378587 
-0.0237908 9.9119 0.0616379 
0.0378587 0.0616379 9.88043 
9.9503 0.000803553 0.0341647 
0.000803553 9.95296 0.123605 
0.0341647 0.123605 9.83503 
9.91543 0.00702473 0.0219901 
0.00702473 9.88826 0.0769673 
0.0219901 0.0769673 9.9346 
9.96038 -0.0071404 -0.0338222 
-0.0071404 9.96567 0.140646 
-0.0338222 0.140646 9.81224 
7.46658 -1.10467 0.186365 
-1.10467 10.6101 0.332585 
0.186365 0.332585 10.4164 
7.94634 -0.693196 0.264159 
-0.693196 10.7435 -0.745733 
0.264159 -0.745733 9.80336 
9.15313 -1.03979 0.431007 
-1.03979 9.87059 0.181725 
0.431007 0.181725 9.46945 
7.64075 -0.960501 1.04893 
-0.960501 9.88253 0.290525 
1.04893 0.290525 10.9699 
9.71368 0.0465568 0.0248369 
0.0465568 9.82825 0.0153245 
0.0248369 0.0153245 9.80095 
9.66987 0.0358804 -0.0359756 
0.0358804 9.79452 -0.0653058 
-0.0359756 -0.0653058 9.87848 
9.70394 0.0861922 0.00307565 
0.0861922 9.8764 0.0380626 
0.00307565 0.0380626 9.76254 
9.74222 -0.0110106 0.0174194 
-0.0110106 9.6854 0.0299564 
0.0174194 0.0299564 9.91526 
10.995 0.0231881 0.0330608 
0.0231881 10.6964 -0.0676667 
0.0330608 -0.0676667 11.7002 
11.2115 0.104572 0.164049 
0.104572 10.8549 -0.0863286 
0.164049 -0.0863286 11.3253 
11.1875 0.0290631 0.135526 
0.0290631 10.838 -0.123708 
0.135526 -0.123708 11.3661 
11.3206 0.0490406 0.114999 
0.0490406 10.8565 -0.160848 
0.114999 -0.160848 11.2145 
10.0061 0.00604743 -0.0138175 
0.00604743 10.1098 0.0542238 
-0.0138175 0.0542238 10.0157 
10.0797 0.0125528 -0.037029 
0.0125528 10.0544 0.00423459 
-0.037029 0.00423459 9.9974 
10.0628 -0.00804826 -0.00863652 
-0.00804826 10.0985 0.0370299 
-0.00863652 0.0370299 9.97025 
10.076 -0.0147585 -0.0484417 
-0.0147585 10.0875 -0.0249243 
-0.0484417 -0.0249243 9.96808 
8.80642 -0.378464 0.0177442 
-0.378464 9.79792 -0.329774 
0.0177442 -0.329774 11.0611 
8.973 -0.661321 0.295559 
-0.661321 9.31942 0.104598 
0.295559 0.104598 11.373 
9.16286 -0.329386 -0.331265 
-0.329386 9.54402 -0.136855 
-0.331265 -0.136855 10.9585 
8.89528 -0.457255 0.0732114 
-0.457255 9.39247 0.222785 
0.0732114 0.222785 11.3777 
8.75827 0.515068 1.74671 
0.515068 8.51735 -0.198199 
1.74671 -0.198199 8.93193 
7.64735 0.930082 1.90387 
0.930082 10.0768 0.529042 
1.90387 0.529042 8.48345 
8.34194 0.851923 1.69009 
0.851923 9.61599 -0.375182 
1.69009 -0.375182 8.24962 
8.45722 1.10398 0.961484 
1.10398 9.88889 -0.101421 
0.961484 -0.101421 7.86145 
8.79309 -1.5049 -1.34171 
-1.5049 7.95378 -1.66388 
-1.34171 -1.66388 10.6232 
11.0433 -1.21282 0.352583 
-1.21282 9.28027 -0.191169 
0.352583 -0.191169 7.04647 
8.68649 -0.915032 -0.279546 
-0.915032 7.73513 -0.327654 
-0.279546 -0.327654 10.9484 
11.7833 -1.05064 0.127518 
-1.05064 6.4408 -0.547714 
0.127518 -0.547714 9.14594 
9.80301 0.00836503 0.111155 
0.00836503 9.80996 -0.0202316 
0.111155 -0.0202316 9.83074 
9.88902 0.0236567 0.0927449 
0.0236567 9.77665 0.00560345 
0.0927449 0.00560345 9.77804 
9.81215 -0.00244418 0.157717 
-0.00244418 9.82739 0.0208687 
0.157717 0.0208687 9.80417 
9.81488 -0.00587263 0.0995151 
-0.00587263 9.79061 -0.00264058 
0.0995151 -0.00264058 9.83821 
9.86476 0.624158 -0.290296 
0.624158 10.0793 -0.13423 
-0.290296 -0.13423 10.9093 
9.68111 0.399871 -0.0116489 
0.399871 10.0391 -0.0564089 
-0.0116489 -0.0564089 11.1331 
9.6891 0.699793 0.00648413 
0.699793 9.53157 0.244001 
0.00648413 0.244001 11.6327 
9.98237 0.281327 -0.209378 
0.281327 9.629 0.134598 
-0.209378 0.134598 11.242 
7.8468 -1.47363 -0.867056 
-1.47363 9.79359 -0.871071 
-0.867056 -0.871071 10.5826 
7.90419 0.81148 -0.275062 
0.81148 10.9732 -0.393888 
-0.275062 -0.393888 9.34551 
7.97261 -1.00806 -0.363108 
-1.00806 9.82751 -0.223189 
-0.363108 -0.223189 10.4228 
7.85465 -0.706307 0.371596 
-0.706307 10.4154 -0.884435 
0.371596 -0.884435 9.95288 
8.03321 3.91374 -3.57296 
3.91374 9.55145 0.308491 
-3.57296 0.308491 14.3732 
8.78296 -1.29753 -1.12067 
-1.29753 11.7288 -0.68273 
-1.12067 -0.68273 11.4461 
9.15916 1.47485 -2.1934 
1.47485 11.5126 0.423355 
-2.1934 0.423355 11.2861 
9.63612 0.210048 -2.09516 
0.210048 10.9124 1.39845 
-2.09516 1.39845 11.4093 
7.59173 0.395565 1.24525 
0.395565 8.11426 1.94426 
1.24525 1.94426 3.84706 
8.27544 -0.164399 0.657471 
-0.164399 7.70759 1.83086 
0.657471 1.83086 3.57003 
9.53406 -0.316407 1.33627 
-0.316407 7.39223 2.10233 
1.33627 2.10233 2.62676 
8.37582 -0.224732 0.950481 
-0.224732 7.64597 1.93578 
0.950481 1.93578 3.53127 
9.67088 -0.0170216 0.129565 
-0.0170216 9.76047 -0.0864433 
0.129565 -0.0864433 9.99 
9.90013 0.163473 0.203479 
0.163473 9.58718 -0.265097 
0.203479 -0.265097 9.93403 
9.80673 0.108746 0.09225 
0.108746 9.73442 -0.15332 
0.09225 -0.15332 9.8802 
9.75222 -0.0596476 0.161461 
-0.0596476 9.90777 -0.213771 
0.161461 -0.213771 9.76136 
9.88002 0.00251401 -0.0772221 
0.00251401 9.84566 0.00896315 
-0.0772221 0.00896315 9.88327 
9.87348 0.0158454 -0.0568375 
0.0158454 9.83737 -0.0538591 
-0.0568375 -0.0538591 9.89811 
9.86503 -0.0345944 -0.0777601 
-0.0345944 9.82868 0.0284481 
-0.0777601 0.0284481 9.91525 
9.84566 0.00966398 -0.0545504 
0.00966398 9.85217 -0.034114 
-0.0545504 -0.034114 9.91112 
9.35549 0.169241 -0.37888 
0.169241 9.374 0.225969 
-0.37888 0.225969 9.71371 
9.37017 0.0861099 -0.424384 
0.0861099 9.52367 0.196498 
-0.424384 0.196498 9.54936 
9.5071 -0.0104199 -0.296082 
-0.0104199 9.38364 0.139719 
-0.296082 0.139719 9.55246 
9.28842 0.101954 -0.618608 
0.101954 9.63738 0.228898 
-0.618608 0.228898 9.51741 
9.77722 -0.0256843 0.227745 
-0.0256843 9.76873 0.230649 
0.227745 0.230649 9.77886 
9.77723 0.0251341 0.224476 
0.0251341 9.80431 0.227389 
0.224476 0.227389 9.74326 
9.79257 -0.0197407 0.20259 
-0.0197407 9.75101 0.177632 
0.20259 0.177632 9.78122 
9.75116 0.00807552 0.207443 
0.00807552 9.76722 0.171346 
0.207443 0.171346 9.80642 
9.93055 0.027186 0.137805 
0.027186 9.69645 0.361547 
0.137805 0.361547 9.91744 
9.66988 -0.0369774 0.0784019 
-0.0369774 9.77627 0.161396 
0.0784019 0.161396 10.0983 
10.0267 -0.0615571 0.0660835 
-0.0615571 9.60979 0.181627 
0.0660835 0.181627 9.90794 
9.8319 -0.0462243 0.192142 
-0.0462243 9.84511 0.220269 
0.192142 0.220269 9.86743 
11.2296 0.943937 0.201861 
0.943937 12.3889 -0.264325 
0.201861 -0.264325 10.6821 
11.5765 -0.227012 0.413117 
-0.227012 11.2568 0.054633 
0.413117 0.054633 11.4673 
8.62041 -0.200022 0.808864 
-0.200022 10.7539 -0.168981 
0.808864 -0.168981 14.9263 
10.1889 0.484915 -0.98742 
0.484915 12.0463 1.44474 
-0.98742 1.44474 12.0654 
9.68153 0.262284 -0.257395 
0.262284 9.24275 -0.182982 
-0.257395 -0.182982 9.29569 
9.65196 0.302757 -0.312841 
0.302757 9.28681 -0.147119 
-0.312841 -0.147119 9.2812 
9.74398 0.143127 -0.217226 
0.143127 9.20532 -0.180773 
-0.217226 -0.180773 9.27066 
9.76188 0.240929 -0.295218 
0.240929 9.21322 -0.220998 
-0.295218 -0.220998 9.24487 
9.89201 -0.0229072 -0.255153 
-0.0229072 9.91131 -0.00734026 
-0.255153 -0.00734026 9.7809 
9.85568 -0.0675471 -0.16918 
-0.0675471 9.74918 -0.131476 
-0.16918 -0.131476 9.97936 
9.88274 -0.0233557 -0.188484 
-0.0233557 9.87431 -0.0335642 
-0.188484 -0.0335642 9.82716 
9.92231 0.0260807 -0.119658 
0.0260807 9.82017 -0.0502419 
-0.119658 -0.0502419 9.84173 
9.94519 -0.0054022 0.014061 
-0.0054022 9.88573 0.0516536 
0.014061 0.0516536 10.1408 
10.0889 -0.0242314 -0.0140681 
-0.0242314 10.0731 0.0670586 
-0.0140681 0.0670586 9.80971 
10.0348 -0.0118391 -0.00753273 
-0.0118391 10.001 0.0924446 
-0.00753273 0.0924446 9.93593 
10.0686 -0.021258 -0.0458828 
-0.021258 9.99825 0.233939 
-0.0458828 0.233939 9.9049 
9.77042 0.0222421 0.166343 
0.0222421 9.73702 -0.278893 
0.166343 -0.278893 9.89082 
9.81404 0.0844015 0.0766046 
0.0844015 9.83347 -0.173961 
0.0766046 -0.173961 9.75075 
9.71726 -0.0511441 0.0406804 
-0.0511441 9.79773 -0.193888 
0.0406804 -0.193888 9.88327 
9.75379 -0.000386555 0.0837266 
-0.000386555 9.7293 -0.249504 
0.0837266 -0.249504 9.91517 
9.71553 0.00684078 -0.0120747 
0.00684078 9.49291 -0.0793881 
-0.0120747 -0.0793881 9.98266 
9.62725 0.0388735 -0.0105399 
0.0388735 9.6342 0.0331338 
-0.0105399 0.0331338 9.92964 
9.63359 -0.0531568 -0.0783683 
-0.0531568 9.66322 0.0348903 
-0.0783683 0.0348903 9.89428 
9.59016 0.0815037 -0.0103972 
0.0815037 9.6009 0.0673975 
-0.0103972 0.0673975 10 
10.0897 0.0056671 -0.00566243 
0.0056671 10.0963 -0.0321761 
-0.00566243 -0.0321761 9.99327 
10.0944 -0.000605191 0.0175181 
-0.000605191 10.0832 -0.0155993 
0.0175181 -0.0155993 10.0017 
10.0944 -0.00726411 0.00390276 
-0.00726411 10.0942 -0.00461182 
0.00390276 -0.00461182 9.9907 
10.1029 -0.000996791 -0.0123107 
-0.000996791 10.1073 -0.0188617 
-0.0123107 -0.0188617 9.96897 
9.69353 0.202667 -0.0977932 
0.202667 9.79968 -0.226617 
-0.0977932 -0.226617 9.68192 
9.76093 0.0721251 -0.326956 
0.0721251 9.75564 -0.0184585 
-0.326956 -0.0184585 9.65857 
9.82174 0.152714 -0.359519 
0.152714 9.71218 -0.0614242 
-0.359519 -0.0614242 9.64121 
9.87073 0.238764 -0.252292 
0.238764 9.63093 0.0247888 
-0.252292 0.0247888 9.67347 
9.53209 -0.028018 -0.400143 
-0.028018 9.59265 0.17342 
-0.400143 0.17342 9.61539 
9.50496 0.022498 -0.355971 
0.022498 9.60383 0.14707 
-0.355971 0.14707 9.63135 
9.53773 0.00165305 -0.388651 
0.00165305 9.59106 0.165058 
-0.388651 0.165058 9.61134 
9.58098 -0.0147193 -0.399458 
-0.0147193 9.59572 0.120997 
-0.399458 0.120997 9.56344 
9.68343 0.0216716 -0.135029 
0.0216716 9.46423 0.105484 
-0.135029 0.105484 9.81907 
9.81557 -0.0643747 0.0719057 
-0.0643747 9.65363 0.133887 
0.0719057 0.133887 9.49753 
9.78656 -0.0394078 -0.00871727 
-0.0394078 9.62063 -0.0140836 
-0.00871727 -0.0140836 9.55954 
9.77752 -0.0236674 -0.0577783 
-0.0236674 9.61698 0.000818794 
-0.0577783 0.000818794 9.57224 
10.1501 0.00587118 0.0457776 
0.00587118 10.1456 0.00144138 
0.0457776 0.00144138 9.92282 
10.0731 0.0295867 -0.00607719 
0.0295867 10.1214 -0.0216269 
-0.00607719 -0.0216269 10.024 
10.1044 0.0109163 0.0317104 
0.0109163 10.1262 -0.000610947 
0.0317104 -0.000610947 9.98797 
10.084 -0.0105792 0.0672016 
-0.0105792 10.1625 -0.0178713 
0.0672016 -0.0178713 9.97201 
9.7928 0.0212863 0.27325 
0.0212863 9.63261 0.690306 
0.27325 0.690306 9.6816 
8.52829 -0.00172831 1.23119 
-0.00172831 10.6852 0.113253 
1.23119 0.113253 9.89355 
9.63497 -0.356943 0.390843 
-0.356943 9.81235 0.505276 
0.390843 0.505276 9.65969 
10.3736 -0.794647 0.518073 
-0.794647 9.3835 0.669942 
0.518073 0.669942 9.34986 
10.7378 0.201163 1.25125 
0.201163 7.51341 -0.321678 
1.25125 -0.321678 7.83329 
6.28221 -0.606946 1.38072 
-0.606946 7.46772 1.07091 
1.38072 1.07091 12.3346 
7.598 -0.743022 5.82486 
-0.743022 11.6185 -4.68134 
5.82486 -4.68134 6.86803 
10.159 -0.0209914 0.521257 
-0.0209914 10.2783 0.308163 
0.521257 0.308163 5.64727 
9.72509 -0.0335732 0.0794055 
-0.0335732 9.7738 -0.22023 
0.0794055 -0.22023 9.74294 
9.75753 -0.0179934 0.0653798 
-0.0179934 9.75371 -0.237103 
0.0653798 -0.237103 9.73058 
9.75647 -0.0323458 0.0430041 
-0.0323458 9.76278 -0.194928 
0.0430041 -0.194928 9.72258 
9.72895 -0.061425 0.0135424 
-0.061425 9.78471 -0.215435 
0.0135424 -0.215435 9.72817 
9.87149 0.0399266 -0.222681 
0.0399266 9.80651 -0.06699 
-0.222681 -0.06699 9.82634 
9.86356 0.0139591 -0.220611 
0.0139591 9.82256 -0.0753873 
-0.220611 -0.0753873 9.81821 
9.80688 -0.0271189 -0.14116 
-0.0271189 9.85132 -0.0828764 
-0.14116 -0.0828764 9.84613 
9.89633 0.0288295 -0.198151 
0.0288295 9.78589 -0.0452234 
-0.198151 -0.0452234 9.82211 
8.76537 -1.67388 -0.448109 
-1.67388 11.2732 0.452087 
-0.448109 0.452087 11.4786 
9.62711 -1.21102 -0.009316 
-1.21102 10.8981 1.47573 
-0.009316 1.47573 10.992 
7.74528 -1.65537 2.30558 
-1.65537 10.2376 -0.593683 
2.30558 -0.593683 13.5343 
8.04156 -0.335909 0.248452 
-0.335909 11.3666 -0.702665 
0.248452 -0.702665 12.1091 
10.3776 0.208697 -0.154593 
0.208697 8.64683 0.528529 
-0.154593 0.528529 11.6748 
10.2763 -0.830478 0.734407 
-0.830478 11.1655 -0.476543 
0.734407 -0.476543 9.25736 
9.77109 0.425054 0.416439 
0.425054 11.049 -0.165054 
0.416439 -0.165054 9.87907 
9.68988 -0.259306 0.487502 
-0.259306 10.4395 0.0985601 
0.487502 0.0985601 10.5698 
9.75932 -0.000417835 -0.0484685 
-0.000417835 9.70426 0.0318723 
-0.0484685 0.0318723 9.94349 
9.74378 -0.0109334 -0.0318783 
-0.0109334 9.70666 0.00528351 
-0.0318783 0.00528351 9.95663 
9.72766 0.0123435 -0.0461885 
0.0123435 9.7231 -0.0101145 
-0.0461885 -0.0101145 9.95632 
9.73914 -0.0170594 -0.0328729 
-0.0170594 9.71539 0.0170599 
-0.0328729 0.0170599 9.95253 
9.63196 0.0470807 -0.0836111 
0.0470807 9.63247 0.183314 
-0.0836111 0.183314 9.98331 
9.72254 0.0601236 -0.199426 
0.0601236 9.51154 0.175636 
-0.199426 0.175636 10.0137 
9.75506 0.14919 -0.10737 
0.14919 9.38139 0.27786 
-0.10737 0.27786 10.1113 
9.62782 -0.00783248 -0.132662 
-0.00783248 9.28058 0.271432 
-0.132662 0.271432 10.3393 
11.2363 -0.499361 0.310619 
-0.499361 8.42857 1.07487 
0.310619 1.07487 11.3067 
10.8971 -0.184349 0.449532 
-0.184349 9.54707 0.924808 
0.449532 0.924808 10.5274 
11.3507 -0.108042 0.0232086 
-0.108042 8.33975 1.20094 
0.0232086 1.20094 11.2811 
11.5014 -1.66996 0.917465 
-1.66996 8.50659 1.0469 
0.917465 1.0469 10.9636 
9.97466 -0.203323 0.433279 
-0.203323 9.15294 -0.471983 
0.433279 -0.471983 9.36447 
9.92399 -0.416966 0.330205 
-0.416966 8.94859 -0.594758 
0.330205 -0.594758 9.61951 
10.1883 0.164076 0.466599 
0.164076 8.81549 -0.969939 
0.466599 -0.969939 9.48831 
9.26999 -0.0793741 0.570688 
-0.0793741 9.97449 0.305221 
0.570688 0.305221 9.2476 
9.44694 -0.47902 -0.14298 
-0.47902 9.89776 0.643391 
-0.14298 0.643391 8.37768 
8.55517 -0.263175 0.522516 
-0.263175 8.73083 0.0785609 
0.522516 0.0785609 10.4364 
9.63643 -0.380936 0.401379 
-0.380936 8.69303 0.915969 
0.401379 0.915969 9.39291 
9.42513 0.00331103 0.616727 
0.00331103 8.70793 0.531158 
0.616727 0.531158 9.58931 
10.0514 0.0893174 0.316382 
0.0893174 9.56993 0.268289 
0.316382 0.268289 9.49665 
10.0219 0.22752 0.200077 
0.22752 9.53147 0.153444 
0.200077 0.153444 9.56463 
10.0029 0.187441 0.247123 
0.187441 9.59844 0.165398 
0.247123 0.165398 9.51664 
9.80398 0.0807624 0.292826 
0.0807624 9.76408 -0.0706877 
0.292826 -0.0706877 9.54991 
9.99419 0.311838 -0.333949 
0.311838 9.36014 0.0222798 
-0.333949 0.0222798 10.2583 
10.2165 -0.432382 -0.124915 
-0.432382 9.06083 -0.444033 
-0.124915 -0.444033 10.3353 
9.81817 0.357383 -0.233879 
0.357383 9.18254 -0.174896 
-0.233879 -0.174896 10.6119 
9.7593 -0.174779 -0.0538093 
-0.174779 9.5681 0.633761 
-0.0538093 0.633761 10.2852 
8.5366 -0.546991 1.28651 
-0.546991 9.86816 0.915443 
1.28651 0.915443 10.8802 
10.2401 -0.494804 0.252226 
-0.494804 9.86104 0.129188 
0.252226 0.129188 9.18376 
8.33066 -0.833321 1.62735 
-0.833321 8.40331 0.565148 
1.62735 0.565148 12.551 
9.99447 -0.703569 1.01182 
-0.703569 9.39803 1.18081 
1.01182 1.18081 9.89242 
11.8956 -1.34939 -0.334058 
-1.34939 8.98758 0.181237 
-0.334058 0.181237 14.656 
11.7279 -1.07436 -0.040231 
-1.07436 10.156 -0.0374146 
-0.040231 -0.0374146 13.6553 
10.9038 -1.11103 -0.308432 
-1.11103 10.5404 -0.0394507 
-0.308432 -0.0394507 14.095 
12.1644 -1.24897 -0.651236 
-1.24897 9.69971 0.361368 
-0.651236 0.361368 13.6751 
9.98005 0.00763557 -0.0189188 
0.00763557 9.85954 0.0762034 
-0.0189188 0.0762034 10.121 
10.0243 0.00435513 -0.0331009 
0.00435513 9.98839 0.0795212 
-0.0331009 0.0795212 9.94796 
10.0722 -0.00502503 -0.012671 
-0.00502503 10.0596 0.0366765 
-0.012671 0.0366765 9.82883 
10.032 0.0102201 -0.044133 
0.0102201 10.0659 0.168133 
-0.044133 0.168133 9.86271 
7.65078 0.930527 0.0943181 
0.930527 6.65442 -0.606318 
0.0943181 -0.606318 2.39786 
6.1948 -0.66733 0.956389 
-0.66733 7.28036 -0.497877 
0.956389 -0.497877 3.2279 
7.18398 -0.611067 0.179922 
-0.611067 8.35623 -0.78133 
0.179922 -0.78133 1.16285 
6.85881 0.0874541 0.162167 
0.0874541 7.30544 -1.02132 
0.162167 -1.02132 2.53881 
9.24372 -0.597663 -1.91642 
-0.597663 7.15689 -4.66851 
-1.91642 -4.66851 10.6493 
10.1321 1.65616 -0.675369 
1.65616 10.0173 -2.09697 
-0.675369 -2.09697 6.90057 
10.805 -1.26269 -1.00659 
-1.26269 6.96184 -3.37361 
-1.00659 -3.37361 9.28307 
10.6597 -4.0621 0.831714 
-4.0621 5.65165 -0.281287 
0.831714 -0.281287 10.7386 
8.96603 0.374357 1.14301 
0.374357 8.00065 3.35045 
1.14301 3.35045 6.20562 
10.4502 -0.826315 2.16544 
-0.826315 8.59439 5.78088 
2.16544 5.78088 4.12767 
8.46265 1.2519 0.037536 
1.2519 9.5017 1.1152 
0.037536 1.1152 5.20795 
9.29075 -1.47284 -0.473682 
-1.47284 5.41538 2.58406 
-0.473682 2.58406 8.46618 
9.83838 -0.0790023 -0.101918 
-0.0790023 9.7312 0.172416 
-0.101918 0.172416 9.60992 
9.73582 -0.109445 0.14638 
-0.109445 9.76412 0.0794342 
0.14638 0.0794342 9.67956 
9.71746 -0.0903984 -0.0859291 
-0.0903984 9.77143 0.141087 
-0.0859291 0.141087 9.69061 
9.65823 0.00147126 -0.169839 
0.00147126 9.77868 0.083548 
-0.169839 0.083548 9.74258 
9.81193 -0.0145157 -0.0538999 
-0.0145157 9.7642 0.0060128 
-0.0538999 0.0060128 9.89468 
9.79987 0.0321072 -0.0788292 
0.0321072 9.75953 0.0280876 
-0.0788292 0.0280876 9.91141 
9.8069 -0.00923708 -0.0369296 
-0.00923708 9.77147 0.0304345 
-0.0369296 0.0304345 9.89243 
9.80486 -0.000602079 -0.0638763 
-0.000602079 9.7636 0.0198314 
-0.0638763 0.0198314 9.90235 
7.09294 -0.256593 -0.0787219 
-0.256593 7.82212 -0.654283 
-0.0787219 -0.654283 0.65705 
6.12659 -0.0341252 0.0431348 
-0.0341252 8.0607 -0.234399 
0.0431348 -0.234399 1.38481 
6.8891 -0.541812 -0.334995 
-0.541812 6.30477 0.423164 
-0.334995 0.423164 2.37824 
6.92673 0.301016 -0.642949 
0.301016 7.13481 -0.533271 
-0.642949 -0.533271 1.51057 
9.68399 -0.00261974 0.31859 
-0.00261974 9.63169 -0.184722 
0.31859 -0.184722 9.58824 
9.69649 -0.0236322 0.322041 
-0.0236322 9.64941 -0.172734 
0.322041 -0.172734 9.55802 
9.70038 -0.0355192 0.317359 
-0.0355192 9.65514 -0.144224 
0.317359 -0.144224 9.5484 
9.65529 0.00135539 0.380847 
0.00135539 9.69439 -0.193683 
0.380847 -0.193683 9.55424 
9.73289 -0.0121885 -0.0535525 
-0.0121885 9.62051 0.407878 
-0.0535525 0.407878 9.49752 
9.74432 0.0317691 -0.228962 
0.0317691 9.63118 0.437524 
-0.228962 0.437524 9.47542 
9.90234 -0.0142726 0.0361167 
-0.0142726 9.5881 0.431755 
0.0361167 0.431755 9.36048 
9.50886 -0.0915715 0.0803693 
-0.0915715 9.63 0.31948 
0.0803693 0.31948 9.71207 
9.53127 -0.27234 -0.79552 
-0.27234 8.777 -1.87625 
-0.79552 -1.87625 8.10221 
9.20522 -1.0125 -1.71365 
-1.0125 9.01186 -1.4014 
-1.71365 -1.4014 8.1934 
9.72711 -0.855164 -0.921228 
-0.855164 9.5797 -2.10143 
-0.921228 -2.10143 7.10367 
9.62562 -1.46762 -0.316238 
-1.46762 9.84822 -1.41313 
-0.316238 -1.41313 6.93664 
10.2364 -0.448959 -0.0271297 
-0.448959 9.46165 -0.514197 
-0.0271297 -0.514197 8.98308 
9.71382 -0.888265 -0.437927 
-0.888265 9.12755 -0.578957 
-0.437927 -0.578957 9.83979 
9.65892 -0.583938 -0.529598 
-0.583938 9.51034 -0.378316 
-0.529598 -0.378316 9.51191 
9.58812 -0.610976 -0.278924 
-0.610976 9.15748 -0.70462 
-0.278924 -0.70462 9.93556 
10.2174 -0.155463 0.0830974 
-0.155463 9.82554 -0.485262 
0.0830974 -0.485262 9.97237 
9.72343 -0.104717 0.011574 
-0.104717 10.0454 0.547391 
0.011574 0.547391 10.2465 
9.80396 -0.0535025 0.044036 
-0.0535025 9.81359 0.0386912 
0.044036 0.0386912 10.3977 
10.1187 -0.0558671 0.18997 
-0.0558671 9.45255 0.159495 
0.18997 0.159495 10.4441 
7.84201 -2.45709 -0.395687 
-2.45709 4.93837 1.11188 
-0.395687 1.11188 19.7095 
8.19803 -1.56103 1.36561 
-1.56103 3.6096 0.476703 
1.36561 0.476703 20.6822 
16.3132 -1.34267 -1.2464 
-1.34267 13.5265 -3.10389 
-1.2464 -3.10389 2.65013 
9.7707 1.99667 3.10474 
1.99667 13.828 10.3995 
3.10474 10.3995 8.89121 
9.7417 0.0111224 0.192571 
0.0111224 9.73486 0.251859 
0.192571 0.251859 9.76391 
9.73069 0.00113799 0.180138 
0.00113799 9.75712 0.229607 
0.180138 0.229607 9.75266 
9.74944 0.030062 0.181736 
0.030062 9.75147 0.244309 
0.181736 0.244309 9.73956 
9.72411 -0.00457162 0.171487 
-0.00457162 9.75346 0.216933 
0.171487 0.216933 9.76289 
8.8693 1.56945 -0.608081 
1.56945 10.2075 0.497605 
-0.608081 0.497605 17.7208 
9.9283 1.00538 0.813499 
1.00538 10.7902 -0.00892688 
0.813499 -0.00892688 16.0792 
12.302 0.996736 -0.254314 
0.996736 13.7086 0.204748 
-0.254314 0.204748 10.7872 
10.8237 2.04078 1.43778 
2.04078 12.544 4.5836 
1.43778 4.5836 13.43 
9.77097 0.00168202 -0.239547 
0.00168202 9.79076 -0.225917 
-0.239547 -0.225917 9.61692 
9.69947 0.017023 -0.191459 
0.017023 9.7378 -0.209724 
-0.191459 -0.209724 9.74138 
9.75206 -0.00444274 -0.220432 
-0.00444274 9.74328 -0.239439 
-0.220432 -0.239439 9.68332 
9.72917 0.0161812 -0.215084 
0.0161812 9.74468 -0.243733 
-0.215084 -0.243733 9.7048 
9.67359 0.922075 -1.66072 
0.922075 8.82326 0.505741 
-1.66072 0.505741 9.16011 
9.74509 -0.1309 0.596213 
-0.1309 9.2735 1.13939 
0.596213 1.13939 8.63836 
9.8557 -0.00470223 -1.23224 
-0.00470223 9.45957 0.57011 
-1.23224 0.57011 8.34167 
10.1118 0.605152 0.144815 
0.605152 9.50584 2.64332 
0.144815 2.64332 8.03934 
9.52202 -0.0338089 -0.277352 
-0.0338089 9.54832 -0.163193 
-0.277352 -0.163193 9.52988 
9.52527 0.00809019 -0.27304 
0.00809019 9.50852 -0.280822 
-0.27304 -0.280822 9.56642 
9.48588 -0.0307578 -0.231077 
-0.0307578 9.52455 -0.239257 
-0.231077 -0.239257 9.58979 
9.592 -0.0568962 -0.341089 
-0.0568962 9.5135 -0.257946 
-0.341089 -0.257946 9.49472 
9.35004 -0.132494 -0.39103 
-0.132494 9.64026 -0.242822 
-0.39103 -0.242822 9.54867 
9.47162 -0.00557859 -0.442018 
-0.00557859 9.48733 -0.15237 
-0.442018 -0.15237 9.58001 
9.43571 -0.125713 -0.383261 
-0.125713 9.47722 -0.170484 
-0.383261 -0.170484 9.62604 
9.41857 -0.0908499 -0.400906 
-0.0908499 9.48685 -0.177417 
-0.400906 -0.177417 9.63354 
9.97592 0.0098533 0.00177073 
0.0098533 9.962 -0.0420686 
0.00177073 -0.0420686 9.86196 
9.94176 0.0101801 0.0225916 
0.0101801 9.92345 -0.053345 
0.0225916 -0.053345 9.93467 
9.96466 -0.0152447 -0.000106133 
-0.0152447 9.99652 -0.176407 
-0.000106133 -0.176407 9.83869 
9.96161 -1.4728e-05 -0.0340947 
-1.4728e-05 9.97322 -0.119035 
-0.0340947 -0.119035 9.86504 
9.24478 0.368906 0.829824 
0.368906 9.76496 0.276639 
0.829824 0.276639 8.52198 
8.93277 -0.0731355 1.17798 
-0.0731355 9.62431 0.705165 
1.17798 0.705165 8.97464 
9.13335 -0.114691 0.583966 
-0.114691 8.69449 -0.61914 
0.583966 -0.61914 9.70388 
9.67552 0.607404 2.91495 
0.607404 11.0009 -1.18853 
2.91495 -1.18853 6.85527 
9.65512 -0.15357 -0.168479 
-0.15357 9.49255 0.0477512 
-0.168479 0.0477512 9.62968 
9.53889 0.00991413 -0.209295 
0.00991413 9.52716 0.204446 
-0.209295 0.204446 9.71131 
9.5428 -0.00296424 -0.13505 
-0.00296424 9.51113 0.192309 
-0.13505 0.192309 9.72342 
9.47628 0.00137982 -0.0977848 
0.00137982 9.48689 0.202285 
-0.0977848 0.202285 9.81418 
9.76841 -0.00891673 0.180924 
-0.00891673 9.73805 -0.264046 
0.180924 -0.264046 9.72848 
9.76547 -0.0288616 0.192343 
-0.0288616 9.79755 -0.230451 
0.192343 -0.230451 9.67192 
9.76581 -0.000364249 0.158202 
-0.000364249 9.74304 -0.253482 
0.158202 -0.253482 9.72609 
9.69727 -0.0383936 0.186541 
-0.0383936 9.75093 -0.219286 
0.186541 -0.219286 9.78674 
9.71924 -0.00737068 0.0418706 
-0.00737068 9.76472 0.334541 
0.0418706 0.334541 9.80875 
9.79789 0.00903085 0.0401741 
0.00903085 9.78752 0.313499 
0.0401741 0.313499 9.7073 
9.75756 0.0113397 0.0286189 
0.0113397 9.77259 0.314836 
0.0286189 0.314836 9.76256 
9.77827 -0.00197766 0.0173188 
-0.00197766 9.76285 0.29957 
0.0173188 0.29957 9.75159 
9.77427 0.0180902 -0.12064 
0.0180902 9.75508 -0.0501778 
-0.12064 -0.0501778 9.90269 
9.81144 0.00457969 -0.0873762 
0.00457969 9.7326 -0.0305686 
-0.0873762 -0.0305686 9.88801 
9.78228 0.0167694 -0.112694 
0.0167694 9.81745 -0.0193207 
-0.112694 -0.0193207 9.83231 
9.79298 -0.0351659 -0.135344 
-0.0351659 9.7756 -0.0595392 
-0.135344 -0.0595392 9.86347 
9.80633 0.0374896 -0.0392054 
0.0374896 9.73316 0.208975 
-0.0392054 0.208975 9.80629 
9.78753 0.00544128 -0.0617862 
0.00544128 9.78755 0.264695 
-0.0617862 0.264695 9.7707 
9.74789 0.00443923 -0.0592057 
0.00443923 9.70407 0.360743 
-0.0592057 0.360743 9.89381 
9.7959 0.0186447 -0.0875525 
0.0186447 9.76982 0.249212 
-0.0875525 0.249212 9.78006 
9.65736 -0.0118973 -0.00408665 
-0.0118973 9.66103 -0.234937 
-0.00408665 -0.234937 9.59638 
9.64567 0.0137597 0.0712961 
0.0137597 9.72151 -0.191866 
0.0712961 -0.191866 9.54759 
9.60926 -0.0165933 0.0591777 
-0.0165933 9.69238 -0.197733 
0.0591777 -0.197733 9.61312 
9.61419 0.00100882 0.0529663 
0.00100882 9.70939 -0.195543 
0.0529663 -0.195543 9.59119 
7.5075 0.113228 1.11041 
0.113228 4.66813 -2.07837 
1.11041 -2.07837 18.6159 
12.7515 -0.720732 0.211826 
-0.720732 9.03404 1.32345 
0.211826 1.32345 9.00598 
8.5632 0.191216 0.171535 
0.191216 11.3346 1.55714 
0.171535 1.55714 10.8938 
11.3367 0.260524 -1.06469 
0.260524 9.50219 -1.43507 
-1.06469 -1.43507 9.95268 
10.5834 -1.34786 0.370844 
-1.34786 10.5098 -0.382685 
0.370844 -0.382685 11.3551 
10.1708 -0.314448 -0.262873 
-0.314448 10.3634 -0.260485 
-0.262873 -0.260485 11.9142 
9.47493 1.22806 -0.112732 
1.22806 10.4057 -0.958739 
-0.112732 -0.958739 12.5677 
10.9468 0.276956 -0.144553 
0.276956 9.94657 0.534845 
-0.144553 0.534845 11.555 
11.5269 -2.97238 -0.294188 
-2.97238 10.6817 -0.103367 
-0.294188 -0.103367 16.3332 
11.9633 -1.63502 -1.25701 
-1.63502 9.40756 0.0877929 
-1.25701 0.0877929 17.1709 
8.65233 -1.04544 -1.36694 
-1.04544 10.9548 0.175423 
-1.36694 0.175423 18.9347 
10.9605 -2.09638 -0.255734 
-2.09638 13.0325 0.583193 
-0.255734 0.583193 14.5488 
10.7657 -0.0180271 0.58773 
-0.0180271 11.188 0.396053 
0.58773 0.396053 13.7062 
12.1858 -0.294185 -0.295077 
-0.294185 12.6089 0.111234 
-0.295077 0.111234 10.8651 
11.5896 0.000500864 0.308538 
0.000500864 12.0928 -0.171184 
0.308538 -0.171184 11.9776 
11.8753 -0.200077 0.644031 
-0.200077 12.1122 -1.00706 
0.644031 -1.00706 11.6724 
9.84188 0.001138 -0.126091 
0.001138 9.84459 0.0162048 
-0.126091 0.0162048 9.91435 
9.90255 -0.0479652 -0.171619 
-0.0479652 9.9758 0.0916325 
-0.171619 0.0916325 9.72247 
9.86321 0.0067733 -0.169649 
0.0067733 9.86717 0.0764712 
-0.169649 0.0764712 9.87044 
9.82828 0.0262954 -0.216324 
0.0262954 9.84205 0.079571 
-0.216324 0.079571 9.93049 
9.69231 0.220337 -0.77835 
0.220337 9.59065 0.481164 
-0.77835 0.481164 8.60371 
9.47249 -0.126807 -0.395116 
-0.126807 9.41767 0.117891 
-0.395116 0.117891 8.9965 
9.40205 0.22351 -0.641645 
0.22351 9.53037 0.201861 
-0.641645 0.201861 8.95425 
9.34945 0.170934 -0.692475 
0.170934 9.56288 0.148723 
-0.692475 0.148723 8.97433 
9.66465 -0.0177419 0.091299 
-0.0177419 9.827 -0.173786 
0.091299 -0.173786 9.63799 
9.69695 -0.0134755 0.0940082 
-0.0134755 9.79148 -0.274468 
0.0940082 -0.274468 9.64121 
9.63347 -0.0550992 0.123244 
-0.0550992 9.83469 -0.333978 
0.123244 -0.333978 9.66147 
9.66365 -0.0231856 0.0658626 
-0.0231856 9.79402 -0.269821 
0.0658626 -0.269821 9.67197 
9.42855 0.128615 0.447966 
0.128615 9.65046 0.132842 
0.447966 0.132842 9.66684 
9.17459 -0.126972 0.524843 
-0.126972 9.77654 0.0672079 
0.524843 0.0672079 9.79472 
9.51776 -0.170008 0.23768 
-0.170008 9.54137 0.0793009 
0.23768 0.0793009 9.68672 
9.30517 0.260263 0.466289 
0.260263 9.46379 0.057905 
0.466289 0.057905 9.97688 
9.6248 0.0665563 -0.0496169 
0.0665563 9.42259 0.135836 
-0.0496169 0.135836 9.62193 
9.45139 0.0380664 -0.112704 
0.0380664 9.37933 0.394168 
-0.112704 0.394168 9.83859 
9.4443 -0.0290466 -0.0876518 
-0.0290466 9.47912 0.203784 
-0.0876518 0.203784 9.7459 
9.57279 0.00359873 -0.240134 
0.00359873 9.49495 0.374421 
-0.240134 0.374421 9.60157 
9.2466 -0.162157 0.777336 
-0.162157 9.9096 -0.405337 
0.777336 -0.405337 9.23136 
9.16633 -0.270277 0.671668 
-0.270277 9.94489 -0.0119504 
0.671668 -0.0119504 9.27634 
9.5843 -0.258029 0.860251 
-0.258029 9.83421 0.173012 
0.860251 0.173012 8.96905 
9.75321 0.50213 0.312376 
0.50213 9.06104 -0.226924 
0.312376 -0.226924 9.57331 
9.82085 0.351364 0.285324 
0.351364 9.55566 -0.655139 
0.285324 -0.655139 11.2329 
9.48117 -0.101623 0.186592 
-0.101623 10.0978 -0.269465 
0.186592 -0.269465 11.0304 
10.1711 0.41764 -0.171939 
0.41764 10.0214 -0.485017 
-0.171939 -0.485017 10.4169 
10.0478 -0.0395289 0.320768 
-0.0395289 9.53414 -0.324503 
0.320768 -0.324503 11.0274 
9.2567 0.272405 -0.737442 
0.272405 9.89995 0.0049098 
-0.737442 0.0049098 9.04891 
9.6338 -0.167459 -0.185873 
-0.167459 9.39006 -0.634463 
-0.185873 -0.634463 9.18171 
9.73915 -0.00509617 -0.397371 
-0.00509617 9.98843 -0.346637 
-0.397371 -0.346637 8.47798 
9.30484 0.107208 -0.432288 
0.107208 9.9405 0.20303 
-0.432288 0.20303 8.96022 
9.7713 -0.0287261 -0.0629904 
-0.0287261 9.76495 0.181292 
-0.0629904 0.181292 9.76448 
9.75674 0.0819036 -0.0156657 
0.0819036 9.76074 0.10031 
-0.0156657 0.10031 9.78325 
9.73705 -0.162579 -0.0435445 
-0.162579 9.83842 0.079118 
-0.0435445 0.079118 9.72526 
9.76991 0.00384944 -0.108768 
0.00384944 9.83097 -0.0145578 
-0.108768 -0.0145578 9.69985 
9.69312 0.0194074 0.161194 
0.0194074 9.67045 -0.273199 
0.161194 -0.273199 9.75642 
9.70979 -0.0139584 0.181296 
-0.0139584 9.7139 -0.26208 
0.181296 -0.26208 9.69631 
9.72632 -0.00459533 0.165385 
-0.00459533 9.72259 -0.288526 
0.165385 -0.288526 9.67108 
9.70118 -0.0160195 0.16074 
-0.0160195 9.72964 -0.249066 
0.16074 -0.249066 9.68918 
8.8143 -0.289492 -3.78145 
-0.289492 10.4325 4.86598 
-3.78145 4.86598 8.73484 
6.21511 -0.818286 -2.89409 
-0.818286 10.7286 -4.15551 
-2.89409 -4.15551 11.0379 
10.762 0.21661 3.44809 
0.21661 8.49207 -3.86105 
3.44809 -3.86105 8.72749 
8.63641 1.25159 4.20987 
1.25159 12.5474 1.821 
4.20987 1.821 6.79775 
9.49309 -0.129617 -0.295848 
-0.129617 9.60482 -0.223726 
-0.295848 -0.223726 9.81357 
9.38767 -0.105536 -0.304569 
-0.105536 9.65638 0.179181 
-0.304569 0.179181 9.86743 
9.50565 -0.139224 -0.183306 
-0.139224 9.52298 -0.161514 
-0.183306 -0.161514 9.88285 
9.65593 0.0350269 -0.01962 
0.0350269 9.40018 -0.260932 
-0.01962 -0.260932 9.85537 
9.74621 -0.0600431 -0.0833582 
-0.0600431 9.77334 -0.0782183 
-0.0833582 -0.0782183 9.83774 
9.67336 -0.00629261 -0.0675016 
-0.00629261 9.75964 -0.0226188 
-0.0675016 -0.0226188 9.9243 
9.68787 -0.0108461 -0.0768056 
-0.0108461 9.70381 0.0216199 
-0.0768056 0.0216199 9.96561 
9.69897 0.000606306 0.00723639 
0.000606306 9.71923 0.0456214 
0.00723639 0.0456214 9.93909 
10.5512 -0.123144 -0.15449 
-0.123144 9.85175 -0.3286 
-0.15449 -0.3286 12.0804 
10.4363 -0.300424 0.13076 
-0.300424 10.2632 0.134628 
0.13076 0.134628 11.784 
10.2903 -0.235621 -0.208829 
-0.235621 10.368 -0.0429973 
-0.208829 -0.0429973 11.8251 
10.0139 -0.197023 0.290858 
-0.197023 10.5435 0.0357796 
0.290858 0.0357796 11.926 
9.42873 -0.0124419 -0.179722 
-0.0124419 9.5835 0.233954 
-0.179722 0.233954 9.7129 
9.57354 0.00668527 -0.162322 
0.00668527 9.42983 0.458473 
-0.162322 0.458473 9.72175 
9.43014 -0.133702 -0.247379 
-0.133702 9.65017 0.367408 
-0.247379 0.367408 9.64481 
9.5994 -0.0176897 -0.167721 
-0.0176897 9.52486 0.384979 
-0.167721 0.384979 9.60086 
8.60392 0.187338 -2.03341 
0.187338 10.1607 -0.242198 
-2.03341 -0.242198 10.1266 
9.24709 -0.355437 -0.370394 
-0.355437 10.7653 -0.6672 
-0.370394 -0.6672 8.87883 
8.60589 0.0764113 -1.18625 
0.0764113 9.91804 -0.262489 
-1.18625 -0.262489 10.3673 
8.16126 0.109047 -1.14644 
0.109047 10.6117 -0.153459 
-1.14644 -0.153459 10.1182 
9.45161 -1.14945 -1.56241 
-1.14945 9.20267 -1.55051 
-1.56241 -1.55051 10.9714 
10.6905 -0.0593774 -0.606921 
-0.0593774 9.53889 -1.49899 
-0.606921 -1.49899 9.39634 
9.97118 -0.180275 -1.02543 
-0.180275 10.0634 -0.951109 
-1.02543 -0.951109 9.59109 
8.08625 0.199315 0.339234 
0.199315 9.07306 0.696995 
0.339234 0.696995 12.4664 
9.61789 0.0723099 -0.0628386 
0.0723099 9.50253 0.0209942 
-0.0628386 0.0209942 9.36725 
9.5369 -0.0238498 -0.129993 
-0.0238498 9.53582 -0.0422749 
-0.129993 -0.0422749 9.41495 
9.48397 0.279079 -0.0632325 
0.279079 9.81844 0.0130511 
-0.0632325 0.0130511 9.18527 
9.52246 0.125382 -0.0546068 
0.125382 9.58837 0.000150542 
-0.0546068 0.000150542 9.37684 
8.99782 0.170545 0.166779 
0.170545 10.0317 -0.208164 
0.166779 -0.208164 9.27514 
9.50316 0.212405 1.0176 
0.212405 10.5125 0.372177 
1.0176 0.372177 8.28893 
9.56864 -0.265183 0.324727 
-0.265183 9.99062 0.122993 
0.324727 0.122993 8.74535 
9.8571 0.475902 0.796354 
0.475902 10.3227 0.246262 
0.796354 0.246262 8.12485 
9.65496 -0.0371499 0.184123 
-0.0371499 10.4206 0.316418 
0.184123 0.316418 11.552 
9.94382 -0.00540309 0.649279 
-0.00540309 10.6752 0.472801 
0.649279 0.472801 11.0085 
10.4437 -0.141618 0.948042 
-0.141618 10.032 0.197098 
0.948042 0.197098 11.1519 
9.70049 -0.357701 0.275397 
-0.357701 10.4289 0.0476824 
0.275397 0.0476824 11.4982 
9.95761 -0.0478701 0.0458364 
-0.0478701 9.90802 0.0982744 
0.0458364 0.0982744 9.83833 
9.92028 0.0603576 0.114079 
0.0603576 9.86225 0.100447 
0.114079 0.100447 9.92143 
9.90382 -0.0734531 0.032405 
-0.0734531 9.86568 0.127819 
0.032405 0.127819 9.93446 
9.94832 0.0845568 0.180095 
0.0845568 9.91802 0.181291 
0.180095 0.181291 9.83762 
9.91146 -0.0622736 0.019546 
-0.0622736 10.039 0.187028 
0.019546 0.187028 9.87269 
9.94542 0.0541693 -0.0642463 
0.0541693 9.83863 0.243991 
-0.0642463 0.243991 10.0391 
9.99837 0.0957455 -0.0209716 
0.0957455 9.73759 0.116432 
-0.0209716 0.116432 10.0872 
9.94457 0.0820165 -0.0766311 
0.0820165 9.86012 0.189557 
-0.0766311 0.189557 10.0185 
9.85185 0.00196381 0.0120942 
0.00196381 9.83016 -0.169872 
0.0120942 -0.169872 9.91769 
9.85472 -0.00350688 0.00600455 
-0.00350688 9.81215 -0.212031 
0.00600455 -0.212031 9.93284 
9.88855 -0.00397972 0.00274362 
-0.00397972 9.8796 -0.168363 
0.00274362 -0.168363 9.83156 
9.8627 -0.00130841 0.0137489 
-0.00130841 9.81772 -0.201 
0.0137489 -0.201 9.91928 
9.68056 -0.0263952 -0.31015 
-0.0263952 10.0513 -0.323294 
-0.31015 -0.323294 8.50018 
9.54553 -0.00952872 -0.245921 
-0.00952872 9.40091 -0.624868 
-0.245921 -0.624868 9.28555 
9.70532 -0.0699878 0.233784 
-0.0699878 9.90976 0.067485 
0.233784 0.067485 8.61691 
9.54397 0.149677 0.0196483 
0.149677 9.92542 0.1729 
0.0196483 0.1729 8.7626 
9.84006 -0.0192233 -0.0250995 
-0.0192233 9.68247 0.101945 
-0.0250995 0.101945 9.81232 
9.71805 -0.0170857 -0.0507524 
-0.0170857 9.67822 0.0618739 
-0.0507524 0.0618739 9.93858 
9.71591 0.0161531 -0.0797971 
0.0161531 9.67935 0.050613 
-0.0797971 0.050613 9.93959 
9.65378 -0.0404272 -0.0138934 
-0.0404272 9.73762 -0.0493492 
-0.0138934 -0.0493492 9.94345 
10.011 -0.0727878 0.370234 
-0.0727878 9.39013 0.813236 
0.370234 0.813236 8.69281 
9.53162 0.0895262 0.0889617 
0.0895262 9.44865 0.0494565 
0.0889617 0.0494565 9.11363 
10.0829 0.267908 0.292376 
0.267908 9.09993 0.453332 
0.292376 0.453332 8.91103 
9.85999 0.156597 -0.331367 
0.156597 9.07684 0.227453 
-0.331367 0.227453 9.15706 
9.90335 0.0289544 -0.0626893 
0.0289544 9.86773 -0.0285692 
-0.0626893 -0.0285692 9.92411 
9.91828 0.00221641 -0.079192 
0.00221641 9.86989 0.00704831 
-0.079192 0.00704831 9.90701 
9.90636 0.00173323 -0.0514571 
0.00173323 9.89194 0.00946246 
-0.0514571 0.00946246 9.89689 
9.85502 0.0211287 -0.0665393 
0.0211287 9.8634 -0.0543364 
-0.0665393 -0.0543364 9.97676 
9.82752 -0.0184382 0.0497144 
-0.0184382 9.74893 0.258917 
0.0497144 0.258917 9.87433 
9.8035 -0.026372 0.0541875 
-0.026372 9.75292 0.310706 
0.0541875 0.310706 9.89435 
9.78462 -0.022417 0.00436318 
-0.022417 9.7451 0.228445 
0.00436318 0.228445 9.92105 
9.83968 -0.00197626 0.0519395 
-0.00197626 9.78855 0.270777 
0.0519395 0.270777 9.82254 
9.87919 0.0709785 0.0707864 
0.0709785 9.69767 -0.139495 
0.0707864 -0.139495 9.89053 
9.84769 0.192095 0.0954528 
0.192095 9.71413 -0.286519 
0.0954528 -0.286519 9.90556 
9.67939 -0.0832442 -0.0329489 
-0.0832442 9.73696 -0.123306 
-0.0329489 -0.123306 10.051 
9.81476 -0.116853 0.0756586 
-0.116853 9.93094 -0.236853 
0.0756586 -0.236853 9.72169 
9.76271 -0.157864 -0.406021 
-0.157864 9.62672 0.0244021 
-0.406021 0.0244021 9.12466 
9.67501 -0.218459 -0.182383 
-0.218459 9.48959 -0.0464141 
-0.182383 -0.0464141 9.34948 
9.58747 -0.212636 -0.319812 
-0.212636 9.58092 -0.0384739 
-0.319812 -0.0384739 9.34569 
9.66983 -0.144237 -0.35865 
-0.144237 9.59151 0.0519872 
-0.35865 0.0519872 9.25274 
9.56354 -0.249242 -0.392274 
-0.249242 8.80754 -0.35946 
-0.392274 -0.35946 7.46316 
9.52664 -0.30584 -0.134892 
-0.30584 8.98736 -0.452215 
-0.134892 -0.452215 7.32024 
10.6626 0.409914 0.116462 
0.409914 8.52052 -0.499396 
0.116462 -0.499396 6.6511 
8.84964 -0.600495 -0.810506 
-0.600495 9.77558 -0.134916 
-0.810506 -0.134916 7.20901 
10.9938 2.06713 -0.139672 
2.06713 8.79984 -0.413559 
-0.139672 -0.413559 15.1406 
12.3968 2.10537 0.168048 
2.10537 9.35537 1.34983 
0.168048 1.34983 13.1821 
11.5432 -1.0307 -0.503746 
-1.0307 9.84169 -0.272203 
-0.503746 -0.272203 13.5494 
10.5981 -0.799989 0.52662 
-0.799989 9.47097 1.96675 
0.52662 1.96675 14.8652 
9.75517 0.0162079 0.24472 
0.0162079 9.77476 -0.195343 
0.24472 -0.195343 9.75163 
9.6916 0.0115887 0.255349 
0.0115887 9.76365 -0.162649 
0.255349 -0.162649 9.8263 
9.83037 -0.0225767 0.296177 
-0.0225767 9.78167 -0.1768 
0.296177 -0.1768 9.66952 
9.78879 -0.0229602 0.219837 
-0.0229602 9.77974 -0.205839 
0.219837 -0.205839 9.71303 
9.76748 -0.0243481 0.0495761 
-0.0243481 9.80804 -0.201667 
0.0495761 -0.201667 9.74825 
9.78859 -0.00946827 0.0631736 
-0.00946827 9.82321 -0.262947 
0.0631736 -0.262947 9.71196 
9.76886 -0.0243004 0.0707414 
-0.0243004 9.80532 -0.221035 
0.0707414 -0.221035 9.74958 
9.71116 -0.0370514 0.0410122 
-0.0370514 9.76827 -0.284049 
0.0410122 -0.284049 9.84434 
9.41839 -0.0569428 -0.161325 
-0.0569428 9.53744 -1.0278 
-0.161325 -1.0278 9.61862 
9.88634 0.237475 -0.242989 
0.237475 9.08666 -0.0362695 
-0.242989 -0.0362695 9.60145 
10.9312 0.152025 -0.521982 
0.152025 9.33446 -1.13422 
-0.521982 -1.13422 8.30883 
9.46196 -0.713804 -0.28781 
-0.713804 9.70926 -0.978286 
-0.28781 -0.978286 9.40322 
9.74591 0.0246951 0.34404 
0.0246951 9.67567 0.0162732 
0.34404 0.0162732 9.60159 
9.72767 0.0277952 0.350761 
0.0277952 9.71499 0.00890325 
0.350761 0.00890325 9.58051 
9.73333 0.0121854 0.348918 
0.0121854 9.66323 -0.00152337 
0.348918 -0.00152337 9.62661 
9.74893 0.0205292 0.354914 
0.0205292 9.67578 0.0333722 
0.354914 0.0333722 9.59846 
9.58009 -0.0124189 -0.246271 
-0.0124189 9.45111 -0.154609 
-0.246271 -0.154609 9.65823 
9.35821 0.0418046 -0.23053 
0.0418046 9.71616 0.152575 
-0.23053 0.152575 9.61505 
9.51216 -0.00308389 -0.432286 
-0.00308389 9.57781 0.115543 
-0.432286 0.115543 9.59946 
9.40936 0.116402 -0.611298 
0.116402 9.64358 -0.102485 
-0.611298 -0.102485 9.63648 
9.62828 -0.0330205 -0.0942751 
-0.0330205 9.70844 0.156968 
-0.0942751 0.156968 9.64569 
9.57401 -0.0174113 -0.109761 
-0.0174113 9.73451 0.21168 
-0.109761 0.21168 9.67389 
9.65529 -0.0541196 -0.110007 
-0.0541196 9.77334 0.19411 
-0.110007 0.19411 9.55377 
9.5711 -0.0288156 -0.102413 
-0.0288156 9.7506 0.174954 
-0.102413 0.174954 9.66071 
10.5544 0.206459 0.0797625 
0.206459 9.3019 -0.0635654 
0.0797625 -0.0635654 11.7391 
10.2366 0.16359 -0.310734 
0.16359 10.4026 0.433372 
-0.310734 0.433372 10.9561 
10.586 0.202384 -0.204612 
0.202384 9.31426 0.262896 
-0.204612 0.262896 11.695 
10.6998 0.321908 0.0799937 
0.321908 9.39141 0.0247077 
0.0799937 0.0247077 11.5042 
10.0303 -0.0125516 0.00159064 
-0.0125516 10.0472 -0.0231945 
0.00159064 -0.0231945 9.98975 
10.0402 0.000757869 0.0232541 
0.000757869 10.0399 -0.00334469 
0.0232541 -0.00334469 9.98702 
10.0122 0.0109322 0.00182796 
0.0109322 10.0321 -0.0421978 
0.00182796 -0.0421978 10.0229 
10.0442 -0.00234579 0.0243753 
-0.00234579 10.0575 -0.0574634 
0.0243753 -0.0574634 9.96541 
9.74391 0.0111449 0.116149 
0.0111449 9.74878 0.30267 
0.116149 0.30267 9.723 
9.73787 0.020567 0.111821 
0.020567 9.77082 0.290872 
0.111821 0.290872 9.707 
9.74207 0.0118894 0.11216 
0.0118894 9.76181 0.300177 
0.11216 0.300177 9.7118 
9.72848 0.0145016 0.0963633 
0.0145016 9.75286 0.304412 
0.0963633 0.304412 9.73434 
9.51552 -1.30773 -0.182186 
-1.30773 11.2467 0.643694 
-0.182186 0.643694 11.9474 
10.2787 1.58935 -1.16902 
1.58935 10.8942 0.738113 
-1.16902 0.738113 11.5368 
9.32258 1.91776 -0.94375 
1.91776 10.1624 -0.086773 
-0.94375 -0.086773 13.2247 
10.4476 0.0200648 -2.34688 
0.0200648 9.73624 0.382698 
-2.34688 0.382698 12.5258 
10.2061 -0.228577 -0.732642 
-0.228577 9.40287 -0.10513 
-0.732642 -0.10513 10.2597 
9.79274 -0.324345 0.530175 
-0.324345 10.0822 -0.104721 
0.530175 -0.104721 9.99368 
9.67193 -0.227815 -0.103938 
-0.227815 9.81701 -0.164277 
-0.103938 -0.164277 10.3797 
9.43673 -0.111036 -0.0345366 
-0.111036 9.98329 -0.404227 
-0.0345366 -0.404227 10.4486 
9.56866 -0.02633 -0.0707369 
-0.02633 9.74538 -0.132459 
-0.0707369 -0.132459 9.87827 
9.5272 -0.0252348 -0.311128 
-0.0252348 9.5934 -0.0720745 
-0.311128 -0.0720745 10.0717 
9.77831 0.0647562 -0.445458 
0.0647562 9.50358 -0.128462 
-0.445458 -0.128462 9.91042 
9.49272 -0.000114385 -0.323592 
-0.000114385 9.60604 -0.109792 
-0.323592 -0.109792 10.0936 
9.92881 0.223635 -0.529762 
0.223635 10.3249 0.0549192 
-0.529762 0.0549192 9.70782 
10.0491 0.269823 -0.65089 
0.269823 10.0691 -0.0355838 
-0.65089 -0.0355838 9.84325 
10.0147 0.136413 -0.441359 
0.136413 10.1576 0.0536027 
-0.441359 0.0536027 9.7892 
9.91791 -0.0716569 -0.174643 
-0.0716569 9.94851 0.261861 
-0.174643 0.261861 10.0951 
9.1069 -0.131654 -0.429514 
-0.131654 9.63526 0.545549 
-0.429514 0.545549 7.90899 
9.1624 -0.508691 -1.09522 
-0.508691 9.02602 -0.896897 
-1.09522 -0.896897 8.46274 
9.12425 -0.315314 -0.63681 
-0.315314 8.72704 -0.563426 
-0.63681 -0.563426 8.79986 
9.19852 -0.501718 -0.803544 
-0.501718 8.42346 -0.588621 
-0.803544 -0.588621 9.02919 
5.35579 -0.733306 0.378408 
-0.733306 5.3433 1.21512 
0.378408 1.21512 -0.134163 
2.3054 0.299176 -0.634102 
0.299176 2.46433 -0.683493 
-0.634102 -0.683493 5.7952 
5.33083 0.00723026 1.29316 
0.00723026 6.34176 0.454243 
1.29316 0.454243 -1.10767 
5.66137 0.782131 -2.62561 
0.782131 4.93401 -0.492464 
-2.62561 -0.492464 -0.0304648 
9.4564 0.107983 -0.238176 
0.107983 9.50314 0.102977 
-0.238176 0.102977 9.71452 
9.55336 -0.00951376 -0.389535 
-0.00951376 9.6542 0.150468 
-0.389535 0.150468 9.46651 
9.44135 0.0606628 -0.299182 
0.0606628 9.57634 0.165736 
-0.299182 0.165736 9.65637 
9.35902 -0.00785862 -0.500091 
-0.00785862 9.3774 0.330635 
-0.500091 0.330635 9.93764 
9.69131 0.0401761 -0.193044 
0.0401761 9.82564 0.0479814 
-0.193044 0.0479814 9.88243 
9.79283 0.00922941 -0.212992 
0.00922941 9.85128 0.115331 
-0.212992 0.115331 9.75527 
9.72016 4.83788e-05 -0.320704 
4.83788e-05 9.74922 0.0827048 
-0.320704 0.0827048 9.92999 
9.76442 0.0252476 -0.231409 
0.0252476 9.78157 0.0726864 
-0.231409 0.0726864 9.85339 
9.64485 0.0839885 -0.240229 
0.0839885 9.69154 -0.139911 
-0.240229 -0.139911 9.63735 
9.77363 0.0802508 -0.282785 
0.0802508 9.62981 -0.0654357 
-0.282785 -0.0654357 9.57031 
9.71166 0.084535 -0.24872 
0.084535 9.69457 -0.105885 
-0.24872 -0.105885 9.56752 
9.77381 0.0154432 -0.188139 
0.0154432 9.60587 -0.0711156 
-0.188139 -0.0711156 9.59407 
10.1321 0.12216 0.10793 
0.12216 9.80712 -0.0773813 
0.10793 -0.0773813 9.86259 
9.82996 -0.00802839 0.258185 
-0.00802839 10.0754 -0.0720917 
0.258185 -0.0720917 9.89645 
9.75724 -0.033156 0.0477932 
-0.033156 9.97119 -0.0372731 
0.0477932 -0.0372731 10.0734 
9.97267 0.0290522 0.195023 
0.0290522 9.84835 -0.161912 
0.195023 -0.161912 9.98082 
10.6718 0.352856 -0.211743 
0.352856 8.36081 -1.52708 
-0.211743 -1.52708 12.3385 
10.2691 0.854048 0.705559 
0.854048 9.25715 -0.0550722 
0.705559 -0.0550722 11.8449 
10.2124 0.522821 1.05791 
0.522821 10.0365 -0.716581 
1.05791 -0.716581 11.1223 
9.77054 0.0718062 -0.758712 
0.0718062 9.85292 -1.44844 
-0.758712 -1.44844 11.7477 
9.88424 0.00546049 0.0046456 
0.00546049 9.88087 -0.0101724 
0.0046456 -0.0101724 9.98223 
9.88615 0.00816645 -0.00215899 
0.00816645 9.88204 -0.0178868 
-0.00215899 -0.0178868 9.97916 
9.88587 -0.00062827 -0.000342558 
-0.00062827 9.88648 -0.00404672 
-0.000342558 -0.00404672 9.97499 
9.88954 0.00769017 0.00520438 
0.00769017 9.87876 -0.0129916 
0.00520438 -0.0129916 9.97904 
9.79873 0.000220809 0.154249 
0.000220809 9.80767 -0.274474 
0.154249 -0.274474 9.703 
9.77028 0.0133591 0.164908 
0.0133591 9.7731 -0.258026 
0.164908 -0.258026 9.76602 
9.74779 -0.0260745 0.182449 
-0.0260745 9.73226 -0.27592 
0.182449 -0.27592 9.82935 
9.77249 0.0148842 0.175177 
0.0148842 9.77062 -0.233523 
0.175177 -0.233523 9.76628 
9.69923 0.0121231 0.105961 
0.0121231 9.7123 0.3127 
0.105961 0.3127 9.65949 
9.69625 -0.0144875 0.0721047 
-0.0144875 9.70218 0.311753 
0.0721047 0.311753 9.67259 
9.71055 0.0211249 0.103207 
0.0211249 9.69565 0.3169 
0.103207 0.3169 9.66483 
9.70256 0.00569147 0.103458 
0.00569147 9.71325 0.324577 
0.103458 0.324577 9.65521 
9.48428 0.198615 -0.204182 
0.198615 9.3003 0.304453 
-0.204182 0.304453 9.89627 
9.55385 -0.19492 0.370529 
-0.19492 9.85369 0.384716 
0.370529 0.384716 9.27331 
9.83413 -0.174723 0.200706 
-0.174723 9.23292 0.10742 
0.200706 0.10742 9.61381 
9.05574 -0.137261 0.00871171 
-0.137261 9.47496 0.572528 
0.00871171 0.572528 10.1502 
10.0533 -0.302434 -0.363236 
-0.302434 9.75123 0.0523347 
-0.363236 0.0523347 8.87672 
10.0462 -0.363125 0.222158 
-0.363125 9.42424 0.697219 
0.222158 0.697219 9.2108 
9.70416 -0.106864 0.380499 
-0.106864 9.64877 0.655801 
0.380499 0.655801 9.32828 
9.84665 0.764782 0.516193 
0.764782 9.73254 1.13772 
0.516193 1.13772 9.10201 
9.60054 -0.0738342 -0.280547 
-0.0738342 9.67346 -0.0695404 
-0.280547 -0.0695404 9.49823 
9.4172 0.174881 -0.370905 
0.174881 9.7358 0.0495763 
-0.370905 0.0495763 9.61923 
9.59361 0.0418145 -0.387569 
0.0418145 9.56687 0.0932679 
-0.387569 0.0932679 9.61174 
9.60974 -0.0164803 -0.433283 
-0.0164803 9.56857 0.0145924 
-0.433283 0.0145924 9.59391 
9.57817 0.332593 0.19937 
0.332593 9.1374 -0.519748 
0.19937 -0.519748 9.967 
9.63557 0.0921714 -0.188502 
0.0921714 8.73318 -0.492751 
-0.188502 -0.492751 10.3138 
10.3321 0.221718 -0.248334 
0.221718 8.95446 -1.26574 
-0.248334 -1.26574 9.39601 
9.80701 0.217642 -0.0922265 
0.217642 8.85035 -0.614829 
-0.0922265 -0.614829 10.0252 
9.24006 -0.131454 0.0192893 
-0.131454 9.71763 -0.302096 
0.0192893 -0.302096 9.33112 
9.33317 -0.0880459 0.00201846 
-0.0880459 9.73547 -0.30362 
0.00201846 -0.30362 9.22016 
9.41848 -0.090008 -0.159968 
-0.090008 9.48057 -0.390138 
-0.159968 -0.390138 9.38975 
9.37195 -0.0533614 -0.0440912 
-0.0533614 9.56568 -0.329177 
-0.0440912 -0.329177 9.35118 
9.70898 -0.0544347 -0.369083 
-0.0544347 9.62225 0.146859 
-0.369083 0.146859 9.65984 
9.68112 -0.0256432 -0.346462 
-0.0256432 9.63054 0.112745 
-0.346462 0.112745 9.67941 
9.61358 -0.00502916 -0.350861 
-0.00502916 9.60754 0.147983 
-0.350861 0.147983 9.76995 
9.63721 0.00816064 -0.225449 
0.00816064 9.68762 0.0752188 
-0.225449 0.0752188 9.66624 
10.0116 0.107168 0.0540856 
0.107168 10.0111 0.0806818 
0.0540856 0.0806818 9.83747 
9.93255 0.0170004 0.101239 
0.0170004 9.93916 0.162037 
0.101239 0.162037 9.98847 
9.93483 -0.110701 -0.042051 
-0.110701 9.8985 0.091844 
-0.042051 0.091844 10.0268 
9.97801 -0.0656085 -0.00956877 
-0.0656085 9.95944 0.160004 
-0.00956877 0.160004 9.92273 
9.04258 -0.225713 -0.048591 
-0.225713 9.67414 -0.631298 
-0.048591 -0.631298 9.33756 
9.09973 -0.202508 -0.0203814 
-0.202508 9.30155 -0.680554 
-0.0203814 -0.680554 9.653 
9.35443 -0.315492 -0.233099 
-0.315492 9.52623 -0.616089 
-0.233099 -0.616089 9.17362 
9.57281 -0.101618 0.090876 
-0.101618 9.39398 -0.260122 
0.090876 -0.260122 9.0875 
9.1056 -0.246722 0.672788 
-0.246722 11.324 0.226759 
0.672788 0.226759 13.2677 
10.5462 0.0175846 0.041925 
0.0175846 10.6818 0.217272 
0.041925 0.217272 12.4693 
11.7803 0.81962 0.773155 
0.81962 9.75435 -0.633788 
0.773155 -0.633788 12.1626 
10.199 -0.549624 -0.309526 
-0.549624 11.0146 -0.240139 
-0.309526 -0.240139 12.4837 
9.14973 -0.0076889 0.452664 
-0.0076889 10.014 0.0312483 
0.452664 0.0312483 9.52108 
9.33104 0.0552974 0.27537 
0.0552974 9.98866 -0.0876653 
0.27537 -0.0876653 9.36511 
9.51766 0.0664521 0.702312 
0.0664521 9.79469 0.192445 
0.702312 0.192445 9.37246 
9.50449 -0.111221 0.226218 
-0.111221 9.85172 -0.120376 
0.226218 -0.120376 9.32859 
9.76966 -0.0245836 -0.0288639 
-0.0245836 9.82342 -0.14382 
-0.0288639 -0.14382 9.80248 
9.75786 -0.0018189 -0.00931733 
-0.0018189 9.81572 -0.108199 
-0.00931733 -0.108199 9.82199 
9.73122 -0.0229229 -0.0272523 
-0.0229229 9.84858 -0.0978778 
-0.0272523 -0.0978778 9.81576 
9.76452 0.0224763 0.0193763 
0.0224763 9.81734 -0.093816 
0.0193763 -0.093816 9.8137 
9.91595 0.708761 0.0262285 
0.708761 9.57636 0.278647 
0.0262285 0.278647 11.2867 
9.64822 0.728352 -0.0971972 
0.728352 10.2198 -0.0849009 
-0.0971972 -0.0849009 10.911 
10.0171 0.683068 0.0752686 
0.683068 9.75408 0.0120918 
0.0752686 0.0120918 11.0078 
9.934 0.350071 -0.106613 
0.350071 9.84091 0.336077 
-0.106613 0.336077 11.0041 
9.65143 0.0102795 -0.0318191 
0.0102795 9.75483 -0.057287 
-0.0318191 -0.057287 9.7669 
9.61519 0.00626175 -0.0102305 
0.00626175 9.58366 0.028773 
-0.0102305 0.028773 9.97432 
9.65762 0.0124305 0.0312155 
0.0124305 9.57133 0.0275483 
0.0312155 0.0275483 9.94422 
9.56541 -0.0105261 0.256519 
-0.0105261 9.58656 -0.104343 
0.256519 -0.104343 10.0212 
10.1073 -0.00369619 0.0084668 
-0.00369619 10.1137 -0.0202128 
0.0084668 -0.0202128 10.0053 
10.1255 -0.0305262 -0.0195953 
-0.0305262 10.0831 0.0330783 
-0.0195953 0.0330783 10.0177 
10.1326 -0.000741176 0.0114118 
-0.000741176 10.1065 -0.0361699 
0.0114118 -0.0361699 9.98713 
10.1418 -0.00639945 -0.021315 
-0.00639945 10.1109 0.0180031 
-0.021315 0.0180031 9.97364 
9.97894 0.0455537 0.014899 
0.0455537 9.96914 -0.0246601 
0.014899 -0.0246601 9.92746 
9.94629 0.0523498 0.00404408 
0.0523498 9.97076 -0.0300885 
0.00404408 -0.0300885 9.95849 
9.94706 0.0589812 0.0280027 
0.0589812 9.95132 -0.00587613 
0.0280027 -0.00587613 9.97716 
9.98288 0.0483378 -0.0115375 
0.0483378 9.99946 -0.00496231 
-0.0115375 -0.00496231 9.8932 
10.2428 -0.0111165 0.235455 
-0.0111165 9.84213 0.121744 
0.235455 0.121744 10.5365 
10.1816 -0.206545 0.135785 
-0.206545 9.57549 0.48622 
0.135785 0.48622 10.8644 
10.5352 -0.630972 0.0336662 
-0.630972 8.40621 0.898869 
0.0336662 0.898869 11.6801 
9.94575 0.0194379 0.481458 
0.0194379 9.96362 0.723593 
0.481458 0.723593 10.7121 
9.7375 -0.014747 0.0724095 
-0.014747 9.71946 0.312801 
0.0724095 0.312801 9.72243 
9.72141 -0.00894326 0.081721 
-0.00894326 9.67937 0.312949 
0.081721 0.312949 9.77862 
9.71678 0.0206036 0.0811722 
0.0206036 9.79288 0.337348 
0.0811722 0.337348 9.66974 
9.74372 -0.00390116 0.0734816 
-0.00390116 9.76533 0.263825 
0.0734816 0.263825 9.67035 
9.71962 0.00143009 0.113967 
0.00143009 9.75176 0.312428 
0.113967 0.312428 9.78301 
9.78003 -0.0220588 0.0892499 
-0.0220588 9.74694 0.2824 
0.0892499 0.2824 9.72741 
9.77545 0.0100964 0.0973988 
0.0100964 9.78665 0.296478 
0.0973988 0.296478 9.69228 
9.70997 -0.00022287 0.109758 
-0.00022287 9.78332 0.293118 
0.109758 0.293118 9.76109 
10.1106 0.0217891 -0.0253003 
0.0217891 10.1198 0.0475466 
-0.0253003 0.0475466 10.0165 
10.1911 -0.0114374 -0.00575243 
-0.0114374 10.1929 0.0692488 
-0.00575243 0.0692488 9.86275 
10.107 0.00554837 -0.00142734 
0.00554837 10.0801 0.00977604 
-0.00142734 0.00977604 10.0597 
10.1385 0.0174057 -0.0220361 
0.0174057 10.1013 0.104753 
-0.0220361 0.104753 10.007 
9.87813 -0.0198161 0.0945149 
-0.0198161 9.83263 -0.0390728 
0.0945149 -0.0390728 9.82669 
9.84797 -0.0286232 0.0928079 
-0.0286232 9.83421 -0.0385147 
0.0928079 -0.0385147 9.85527 
9.85439 -0.0322953 0.0925819 
-0.0322953 9.8231 -0.0631355 
0.0925819 -0.0631355 9.85996 
9.89779 -0.0331029 0.0313499 
-0.0331029 9.78303 -0.0154473 
0.0313499 -0.0154473 9.85662 
10.1165 -0.0452786 0.0109791 
-0.0452786 10.1858 0.158363 
0.0109791 0.158363 12.3646 
9.89871 0.184144 -0.426381 
0.184144 11.038 0.121414 
-0.426381 0.121414 11.7303 
9.95427 0.537776 -0.160095 
0.537776 10.7258 -0.125265 
-0.160095 -0.125265 11.9869 
11.4248 -0.798761 -0.401324 
-0.798761 10.4981 0.248545 
-0.401324 0.248545 10.7441 
9.47252 -0.0977387 0.0693801 
-0.0977387 9.74115 0.107187 
0.0693801 0.107187 10.1427 
9.56579 -0.0241725 0.121718 
-0.0241725 9.73132 0.181575 
0.121718 0.181575 10.0592 
9.57122 -0.121454 0.223679 
-0.121454 9.61995 0.081594 
0.223679 0.081594 10.1652 
9.52952 -0.0449841 0.0345036 
-0.0449841 9.56215 -0.0139131 
0.0345036 -0.0139131 10.2647 
9.55475 0.0154682 0.149102 
0.0154682 9.58555 0.110526 
0.149102 0.110526 10.0447 
9.61523 -0.0120408 -0.00434954 
-0.0120408 9.66006 0.0544558 
-0.00434954 0.0544558 9.9097 
9.46956 -0.0630582 0.00751021 
-0.0630582 9.65214 0.0103662 
0.00751021 0.0103662 10.0633 
9.53448 -0.0545749 0.0375745 
-0.0545749 9.65463 0.0173669 
0.0375745 0.0173669 9.99588 
9.54809 -0.00304071 -0.00168969 
-0.00304071 9.56401 -0.00994129 
-0.00168969 -0.00994129 9.31347 
9.5899 -0.157084 -0.11362 
-0.157084 9.71053 0.111621 
-0.11362 0.111621 9.12514 
9.42755 -0.255726 -0.275703 
-0.255726 9.48261 0.548199 
-0.275703 0.548199 9.51541 
9.6428 -0.279344 -0.269223 
-0.279344 9.65171 0.00977993 
-0.269223 0.00977993 9.13106 
10.0593 0.0434278 -0.0491557 
0.0434278 10.0079 -0.00882175 
-0.0491557 -0.00882175 9.90155 
9.92353 -0.0776032 -0.0567088 
-0.0776032 10.0346 0.0181129 
-0.0567088 0.0181129 10.0106 
10.0294 0.0160007 -0.123616 
0.0160007 9.98958 -0.0157078 
-0.123616 -0.0157078 9.94978 
9.96827 -0.0274537 -0.135763 
-0.0274537 10.0749 0.0777685 
-0.135763 0.0777685 9.92558 
9.70357 0.000903147 -0.0130253 
0.000903147 9.91069 0.0139882 
-0.0130253 0.0139882 9.83789 
9.86044 0.0175611 0.0815536 
0.0175611 9.61839 -0.0335278 
0.0815536 -0.0335278 9.97331 
9.82628 0.0856577 -0.0519747 
0.0856577 9.64863 0.124617 
-0.0519747 0.124617 9.97723 
9.84722 0.0350527 0.0325958 
0.0350527 9.55168 -0.0627688 
0.0325958 -0.0627688 10.0532 
9.6559 -1.24958e-05 0.242339 
-1.24958e-05 9.50144 0.128923 
0.242339 0.128923 9.50967 
9.57328 0.0171536 0.274196 
0.0171536 9.53275 0.0947642 
0.274196 0.0947642 9.56099 
9.62667 0.109261 0.266616 
0.109261 9.45215 0.0395231 
0.266616 0.0395231 9.58819 
9.59187 0.0981238 0.167794 
0.0981238 9.50594 0.00521315 
0.167794 0.00521315 9.56921 
10.0409 -0.00807408 0.00668043 
-0.00807408 10.0763 -0.0148489 
0.00668043 -0.0148489 10.0302 
10.0485 0.0167947 0.0113101 
0.0167947 10.0986 0.0140112 
0.0113101 0.0140112 10.0003 
10.0563 -0.00826935 -0.0207982 
-0.00826935 10.0575 -0.0293878 
-0.0207982 -0.0293878 10.0335 
10.0701 -0.00415243 0.0299845 
-0.00415243 10.0814 -0.00399257 
0.0299845 -0.00399257 9.99581 
9.75656 0.0334539 0.161573 
0.0334539 9.72995 0.229424 
0.161573 0.229424 9.49554 
9.67775 0.0267982 0.138356 
0.0267982 9.68724 0.281731 
0.138356 0.281731 9.61705 
9.64552 0.0569109 0.314601 
0.0569109 9.68937 0.380264 
0.314601 0.380264 9.64716 
9.70479 0.0147066 0.198542 
0.0147066 9.69705 0.301909 
0.198542 0.301909 9.5802 
9.92574 -0.00945381 0.0195163 
-0.00945381 9.94393 0.0324881 
0.0195163 0.0324881 9.92262 
9.92617 0.0076013 0.0256489 
0.0076013 9.94575 -0.0427778 
0.0256489 -0.0427778 9.92037 
9.91378 -0.018476 -0.00447707 
-0.018476 9.94234 -0.0508155 
-0.00447707 -0.0508155 9.93618 
9.90841 0.00868292 -0.042173 
0.00868292 9.91416 -0.0638131 
-0.042173 -0.0638131 9.96972 
9.88916 0.0262125 0.124094 
0.0262125 9.73499 -0.165706 
0.124094 -0.165706 9.7801 
9.75375 0.0164403 0.1506 
0.0164403 9.75291 -0.278925 
0.1506 -0.278925 9.89759 
9.76267 -0.0209936 0.156051 
-0.0209936 9.75527 -0.198287 
0.156051 -0.198287 9.88631 
9.77787 -0.0092006 0.152646 
-0.0092006 9.75201 -0.215055 
0.152646 -0.215055 9.87438 
10.6324 1.31112 -0.246196 
1.31112 10.7595 0.34803 
-0.246196 0.34803 15.9092 
10.96 -1.45972 0.13264 
-1.45972 11.8751 -0.224914 
0.13264 -0.224914 14.466 
7.45129 -2.93686 0.663779 
-2.93686 10.7238 0.798672 
0.663779 0.798672 19.126 
12.2722 -1.15031 0.300896 
-1.15031 11.2384 0.23869 
0.300896 0.23869 13.7905 
10.0624 0.101422 -0.650829 
0.101422 9.48061 0.180822 
-0.650829 0.180822 9.1111 
9.59795 0.0745751 -0.247928 
0.0745751 9.8009 0.00689246 
-0.247928 0.00689246 9.2553 
9.67441 -0.0789827 -0.328152 
-0.0789827 9.64218 0.00317524 
-0.328152 0.00317524 9.33756 
9.46818 -0.0545484 -0.639782 
-0.0545484 9.80263 0.0423116 
-0.639782 0.0423116 9.38334 
9.73743 -0.0162065 -0.0907025 
-0.0162065 9.78035 0.0702694 
-0.0907025 0.0702694 9.66107 
9.83345 0.00665313 -0.0807359 
0.00665313 9.73188 0.0633318 
-0.0807359 0.0633318 9.61352 
9.71216 -0.0544027 0.0169663 
-0.0544027 9.80902 0.0956145 
0.0169663 0.0956145 9.65767 
9.79617 0.0179756 -0.119377 
0.0179756 9.65371 0.0915017 
-0.119377 0.0915017 9.72898 
9.50992 0.229057 0.237073 
0.229057 9.04941 0.150193 
0.237073 0.150193 9.12714 
9.54684 0.322659 -0.257123 
0.322659 8.82039 0.0112315 
-0.257123 0.0112315 9.31925 
9.53397 0.538433 -0.200289 
0.538433 8.99129 -0.118958 
-0.200289 -0.118958 9.16122 
10.5296 -0.0171673 -0.570619 
-0.0171673 8.23131 0.253385 
-0.570619 0.253385 8.92555 
9.78467 0.00414799 -0.225275 
0.00414799 9.78834 0.220261 
-0.225275 0.220261 9.72427 
9.77541 -0.0226577 -0.214116 
-0.0226577 9.78293 0.230902 
-0.214116 0.230902 9.73894 
9.78494 -0.00178403 -0.220923 
-0.00178403 9.77827 0.215521 
-0.220923 0.215521 9.73408 
9.78506 0.00114944 -0.229406 
0.00114944 9.78208 0.219029 
-0.229406 0.219029 9.73015 
9.50929 0.115885 -0.421423 
0.115885 9.67315 -0.0988563 
-0.421423 -0.0988563 9.39897 
9.47029 0.0675078 -0.481678 
0.0675078 9.60682 -0.0923749 
-0.481678 -0.0923749 9.5043 
9.684 -0.226136 -0.626897 
-0.226136 9.57628 -0.381674 
-0.626897 -0.381674 9.32114 
9.48445 -0.092032 -0.302794 
-0.092032 9.38956 -0.195359 
-0.302794 -0.195359 9.70741 
9.7385 0.00211978 0.1704 
0.00211978 9.81392 0.0861149 
0.1704 0.0861149 10.0365 
9.73613 -0.155335 0.155499 
-0.155335 9.89274 0.0479668 
0.155499 0.0479668 9.96001 
9.80793 -0.0909971 0.301108 
-0.0909971 9.81591 0.108806 
0.301108 0.108806 9.96503 
9.78999 0.0190136 0.247566 
0.0190136 9.88395 0.0315746 
0.247566 0.0315746 9.91494 
9.7282 0.000454839 0.305163 
0.000454839 9.6736 -0.127495 
0.305163 -0.127495 9.67763 
9.72138 -0.00306335 0.311388 
-0.00306335 9.69065 -0.0917831 
0.311388 -0.0917831 9.6674 
9.70139 0.0257167 0.300768 
0.0257167 9.68969 -0.06936 
0.300768 -0.06936 9.68835 
9.70297 -0.014985 0.305202 
-0.014985 9.69336 -0.116361 
0.305202 -0.116361 9.6831 
10.1527 0.00663171 -0.0135654 
0.00663171 10.1412 0.0136908 
-0.0135654 0.0136908 9.97175 
10.156 0.0184502 -0.00364953 
0.0184502 10.1375 0.0195629 
-0.00364953 0.0195629 9.97215 
10.1102 0.00959576 0.0143159 
0.00959576 10.1604 0.00293221 
0.0143159 0.00293221 9.99506 
10.1566 0.0191306 -0.0126909 
0.0191306 10.1446 0.0262494 
-0.0126909 0.0262494 9.96443 
9.81797 -0.0203097 0.0719837 
-0.0203097 9.79304 -0.0540268 
0.0719837 -0.0540268 9.7469 
9.72797 0.00413536 0.0883958 
0.00413536 9.79263 -0.0911596 
0.0883958 -0.0911596 9.83732 
9.84012 -0.0349342 0.114097 
-0.0349342 9.73621 -0.0865635 
0.114097 -0.0865635 9.78158 
9.83588 -0.0898036 0.0338439 
-0.0898036 9.76108 -0.0283203 
0.0338439 -0.0283203 9.76095 
9.80519 -0.0412225 0.143554 
-0.0412225 9.78181 -0.0583084 
0.143554 -0.0583084 9.78764 
9.79291 -0.0237041 0.191573 
-0.0237041 9.79992 -0.0523639 
0.191573 -0.0523639 9.78181 
9.79605 -0.0406071 0.136209 
-0.0406071 9.76598 -0.0548693 
0.136209 -0.0548693 9.81261 
9.81685 -0.0367981 0.15832 
-0.0367981 9.78612 -0.0387219 
0.15832 -0.0387219 9.77168 
9.99575 0.0387586 0.00909105 
0.0387586 9.93759 0.0206874 
0.00909105 0.0206874 9.92427 
9.9482 0.0137904 -0.0531145 
0.0137904 9.94013 0.0768808 
-0.0531145 0.0768808 9.96928 
9.97318 -0.02008 -0.0574584 
-0.02008 9.97651 0.141642 
-0.0574584 0.141642 9.90793 
9.95343 0.102457 -0.0350166 
0.102457 9.89854 0.145783 
-0.0350166 0.145783 10.0056 
10.0334 -0.0197695 0.0181899 
-0.0197695 9.99881 -0.0547181 
0.0181899 -0.0547181 9.86568 
9.91172 0.07149 -0.00391633 
0.07149 10.0125 -0.0817751 
-0.00391633 -0.0817751 9.97359 
10.0075 -0.0524549 0.0738504 
-0.0524549 9.94721 -0.0927544 
0.0738504 -0.0927544 9.94312 
9.96855 0.073898 -0.0346812 
0.073898 10.0111 -0.199309 
-0.0346812 -0.199309 9.91821 
9.97673 -0.533049 2.06411 
-0.533049 7.01865 -1.53944 
2.06411 -1.53944 9.27098 
10.5677 0.40108 0.265254 
0.40108 11.5266 -1.14245 
0.265254 -1.14245 4.17206 
8.17289 1.60918 -1.21814 
1.60918 9.44161 -1.10623 
-1.21814 -1.10623 8.65186 
10.6473 -2.62172 1.35494 
-2.62172 9.51522 -1.0081 
1.35494 -1.0081 6.10386 
10.0512 0.106527 0.00529841 
0.106527 9.8771 -0.130291 
0.00529841 -0.130291 9.91607 
9.91091 -0.055245 0.0121874 
-0.055245 9.88852 -0.0993684 
0.0121874 -0.0993684 10.0449 
9.98631 -0.0484037 -0.0602991 
-0.0484037 9.94085 -0.178878 
-0.0602991 -0.178878 9.91723 
9.98143 0.106203 0.0402927 
0.106203 9.87677 -0.265726 
0.0402927 -0.265726 9.98618 
9.21562 0.188922 -0.12971 
0.188922 11.015 0.617869 
-0.12971 0.617869 8.12778 
9.82938 -0.270229 -0.480736 
-0.270229 8.47392 -1.05497 
-0.480736 -1.05497 10.0552 
9.40656 -0.460661 -0.164644 
-0.460661 8.30311 -0.735255 
-0.164644 -0.735255 10.6488 
9.64078 -0.75361 -0.983412 
-0.75361 8.75815 -1.31448 
-0.983412 -1.31448 9.95952 
10.1788 0.0685766 -0.151326 
0.0685766 10.0315 0.320663 
-0.151326 0.320663 9.36499 
10.132 0.180556 -0.215293 
0.180556 9.40442 -0.41665 
-0.215293 -0.41665 10.0389 
10.4349 0.0599816 0.363448 
0.0599816 10.1307 0.353045 
0.363448 0.353045 9.00974 
10.0594 -0.142469 -0.406285 
-0.142469 10.0649 0.525492 
-0.406285 0.525492 9.45097 
8.26214 -1.64867 0.0839896 
-1.64867 10.8003 0.85549 
0.0839896 0.85549 18.0243 
14.2181 -1.87272 1.66308 
-1.87272 15.4479 0.855947 
1.66308 0.855947 7.42074 
5.97286 -1.33348 0.75493 
-1.33348 10.3551 -0.500335 
0.75493 -0.500335 20.7588 
10.993 0.191816 -6.3402 
0.191816 11.5604 -0.84566 
-6.3402 -0.84566 14.5333 
9.82123 -0.82072 -0.0997289 
-0.82072 8.93893 1.39149 
-0.0997289 1.39149 9.51465 
10.2296 -0.286215 -0.20654 
-0.286215 8.8421 1.25878 
-0.20654 1.25878 9.20307 
10.044 -0.239803 -0.256677 
-0.239803 8.88784 1.0524 
-0.256677 1.0524 9.34301 
9.85357 -0.221955 -0.21362 
-0.221955 8.97915 1.25265 
-0.21362 1.25265 9.44209 
9.993 -0.0713194 0.135321 
-0.0713194 9.79648 0.438491 
0.135321 0.438491 10.2728 
10.3279 -0.102673 0.260485 
-0.102673 10.1185 0.502017 
0.260485 0.502017 9.61598 
10.218 0.0437236 0.184108 
0.0437236 9.62627 0.359882 
0.184108 0.359882 10.218 
9.90984 -0.107406 0.0635187 
-0.107406 9.6982 0.608019 
0.0635187 0.608019 10.4543 
9.80501 -0.0639517 0.229185 
-0.0639517 9.73304 -0.111751 
0.229185 -0.111751 9.51866 
9.6777 -0.0694613 0.192468 
-0.0694613 9.65526 -0.142803 
0.192468 -0.142803 9.72375 
9.81626 -0.131438 0.256769 
-0.131438 9.67778 -0.102425 
0.256769 -0.102425 9.56266 
9.83029 -0.0432142 0.136655 
-0.0432142 9.7344 0.0531005 
0.136655 0.0531005 9.49202 
9.63875 0.0180616 -0.00789297 
0.0180616 9.69649 -0.0151931 
-0.00789297 -0.0151931 9.66351 
9.52897 0.0159794 -0.0271567 
0.0159794 9.68324 0.0261278 
-0.0271567 0.0261278 9.78653 
9.55067 0.0174066 -0.0612616 
0.0174066 9.64181 -0.0250109 
-0.0612616 -0.0250109 9.80627 
9.60349 -0.0799114 -0.165513 
-0.0799114 9.65619 0.085413 
-0.165513 0.085413 9.73907 
9.67028 -0.0729118 -0.206717 
-0.0729118 9.62145 -0.309474 
-0.206717 -0.309474 9.59651 
9.74273 0.00295634 -0.187656 
0.00295634 9.67281 -0.352344 
-0.187656 -0.352344 9.47271 
9.66761 -0.0443619 -0.253073 
-0.0443619 9.61198 -0.278409 
-0.253073 -0.278409 9.60865 
9.5659 0.0539273 -0.180806 
0.0539273 9.611 -0.18647 
-0.180806 -0.18647 9.71134 
9.83182 -0.0174323 -0.0167696 
-0.0174323 9.8493 -0.0601584 
-0.0167696 -0.0601584 9.88419 
9.80851 -0.0087341 0.00618401 
-0.0087341 9.82745 -0.113156 
0.00618401 -0.113156 9.92935 
9.81858 0.00364844 0.00900189 
0.00364844 9.88271 -0.0694282 
0.00900189 -0.0694282 9.86402 
9.84343 -0.00705439 0.0104287 
-0.00705439 9.8846 -0.071019 
0.0104287 -0.071019 9.83728 
12.1103 -0.303826 0.022051 
-0.303826 11.9751 -0.00767421 
0.022051 -0.00767421 12.0479 
11.9824 -0.160313 -0.110398 
-0.160313 12.206 -0.00471497 
-0.110398 -0.00471497 11.9448 
11.7408 -0.141852 0.337196 
-0.141852 11.5139 0.30796 
0.337196 0.30796 12.8786 
12.1263 -0.519846 0.216212 
-0.519846 11.6972 -0.297182 
0.216212 -0.297182 12.3098 
9.86051 0.0628834 -0.0771025 
0.0628834 9.81611 0.0603976 
-0.0771025 0.0603976 10.148 
9.95067 0.0683468 -0.0921768 
0.0683468 9.80052 0.0603631 
-0.0921768 0.0603631 10.0734 
9.99052 0.0368728 0.034739 
0.0368728 10.0105 0.113456 
0.034739 0.113456 9.82364 
9.97886 -0.048019 -0.109882 
-0.048019 9.84647 0.169122 
-0.109882 0.169122 9.99928 
9.67423 -0.0521208 0.0970756 
-0.0521208 9.77244 -0.25256 
0.0970756 -0.25256 9.63031 
9.64882 -0.0448275 0.0915226 
-0.0448275 9.77462 -0.234028 
0.0915226 -0.234028 9.65353 
9.65857 0.0254158 0.0880541 
0.0254158 9.72026 -0.263376 
0.0880541 -0.263376 9.69815 
9.66491 -0.07811 0.0361151 
-0.07811 9.74216 -0.199322 
0.0361151 -0.199322 9.66991 
9.65659 -0.00384771 0.0742473 
-0.00384771 9.71134 0.335856 
0.0742473 0.335856 9.6489 
9.67484 0.00468845 0.0694779 
0.00468845 9.70015 0.340381 
0.0694779 0.340381 9.64185 
9.66938 -0.00014681 0.0687288 
-0.00014681 9.69023 0.337141 
0.0687288 0.337141 9.65722 
9.6832 0.0204788 0.0949517 
0.0204788 9.72841 0.312277 
0.0949517 0.312277 9.60522 
10.0578 -0.0363868 0.047869 
-0.0363868 10.045 0.0642719 
0.047869 0.0642719 9.72411 
9.9266 -0.0350604 0.0803737 
-0.0350604 9.88237 0.108041 
0.0803737 0.108041 10.018 
9.87286 -0.0743983 0.0369511 
-0.0743983 9.73718 0.0734968 
0.0369511 0.0734968 10.2169 
9.91289 -0.0521136 0.173359 
-0.0521136 9.96636 0.283451 
0.173359 0.283451 9.94773 
9.63085 0.0322563 -0.202533 
0.0322563 9.73453 -0.126124 
-0.202533 -0.126124 9.59386 
9.66471 0.044859 -0.201302 
0.044859 9.72623 -0.124006 
-0.201302 -0.124006 9.56829 
9.67698 0.0314929 -0.147672 
0.0314929 9.68329 -0.125283 
-0.147672 -0.125283 9.59897 
9.74354 0.0203628 -0.238582 
0.0203628 9.67166 -0.114288 
-0.238582 -0.114288 9.54403 
5.05134 0.371246 -0.411111 
0.371246 5.71314 -0.719336 
-0.411111 -0.719336 -0.735902 
2.80679 0.0436336 1.78407 
0.0436336 3.41306 -0.564523 
1.78407 -0.564523 3.80873 
5.02923 0.77398 0.48112 
0.77398 4.88586 -0.164196 
0.48112 -0.164196 0.113492 
6.18953 0.244828 2.81978 
0.244828 4.04748 -1.22743 
2.81978 -1.22743 -0.208439 
9.69197 0.00303516 -0.00426453 
0.00303516 9.67217 -0.0155668 
-0.00426453 -0.0155668 9.865 
9.74511 0.018518 -0.0274752 
0.018518 9.6693 0.0158305 
-0.0274752 0.0158305 9.81473 
9.77021 0.0432034 0.0654615 
0.0432034 9.65131 0.0645184 
0.0654615 0.0645184 9.80762 
9.75044 0.0600555 -0.091137 
0.0600555 9.71147 0.0268132 
-0.091137 0.0268132 9.76723 
10.0181 0.0256161 -0.0948871 
0.0256161 10.0845 -0.024027 
-0.0948871 -0.024027 9.72922 
9.88165 0.0443077 -0.112307 
0.0443077 9.93632 0.0960884 
-0.112307 0.0960884 10.0139 
9.72787 0.0960503 -0.0590016 
0.0960503 9.89857 0.0773174 
-0.0590016 0.0773174 10.2054 
9.90351 -0.00178461 -0.283044 
-0.00178461 9.9823 0.15232 
-0.283044 0.15232 9.94602 
11.0583 1.58525 0.268174 
1.58525 10.3518 0.214253 
0.268174 0.214253 11.1104 
10.5453 0.227852 0.0607704 
0.227852 9.96914 0.0280211 
0.0607704 0.0280211 12.006 
10.5663 -1.15568 1.25162 
-1.15568 9.52167 0.080339 
1.25162 0.080339 12.4326 
9.76842 -0.631872 -1.06662 
-0.631872 10.9256 0.221697 
-1.06662 0.221697 11.8264 
9.76244 -0.0399791 -0.0568983 
-0.0399791 9.7088 -0.0150375 
-0.0568983 -0.0150375 9.96081 
9.74805 -0.0220969 -0.033284 
-0.0220969 9.72909 -0.0230883 
-0.033284 -0.0230883 9.95491 
9.74387 0.00180273 -0.0895999 
0.00180273 9.80582 -0.0339558 
-0.0895999 -0.0339558 9.88236 
9.65457 0.0480566 -0.0113733 
0.0480566 9.75327 0.0268532 
-0.0113733 0.0268532 10.0242 
9.83899 -0.473563 -0.244587 
-0.473563 8.76345 -0.186552 
-0.244587 -0.186552 9.49725 
9.01718 -1.22617 -0.0426047 
-1.22617 8.74384 0.0549187 
-0.0426047 0.0549187 10.3387 
9.50323 -0.359415 -0.563644 
-0.359415 9.01386 -0.543561 
-0.563644 -0.543561 9.5826 
9.975 -0.289192 -0.148682 
-0.289192 9.06735 0.00708414 
-0.148682 0.00708414 9.05734 
8.82238 -0.784847 -0.546323 
-0.784847 11.7171 0.357778 
-0.546323 0.357778 14.1218 
10.3219 -0.0912744 1.27694 
-0.0912744 10.4896 0.793059 
1.27694 0.793059 13.8498 
13.1003 0.01974 0.117041 
0.01974 9.68655 -1.0092 
0.117041 -1.0092 11.8743 
9.64384 -1.19539 0.344161 
-1.19539 12.4472 1.57734 
0.344161 1.57734 12.5702 
9.83978 -0.322036 1.08858 
-0.322036 9.43089 1.86602 
1.08858 1.86602 7.50072 
9.34065 -0.867221 0.492292 
-0.867221 9.90877 1.25082 
0.492292 1.25082 7.52197 
9.49368 -0.282634 0.483024 
-0.282634 8.71516 1.63107 
0.483024 1.63107 8.56255 
9.07236 -1.06301 0.930059 
-1.06301 9.08931 1.13095 
0.930059 1.13095 8.60972 
9.34324 -0.0935653 -0.311389 
-0.0935653 9.45693 0.00688056 
-0.311389 0.00688056 8.84977 
9.20823 -0.05359 0.146877 
-0.05359 9.61569 -0.0763479 
0.146877 -0.0763479 8.82602 
9.5641 -0.265829 -0.162778 
-0.265829 9.70179 0.00999632 
-0.162778 0.00999632 8.38406 
9.42331 -0.149041 -0.193291 
-0.149041 9.60186 -0.0523464 
-0.193291 -0.0523464 8.62478 
10.0957 0.0031983 -0.946156 
0.0031983 10.4099 0.657801 
-0.946156 0.657801 7.91838 
11.1875 0.158422 0.353385 
0.158422 10.7662 1.08182 
0.353385 1.08182 6.47025 
10.2268 -0.297197 -1.34729 
-0.297197 9.61577 1.1194 
-1.34729 1.1194 8.58128 
9.92631 0.22355 -0.127155 
0.22355 9.88695 0.0175649 
-0.127155 0.0175649 8.61063 
11.4244 -6.97896 2.48939 
-6.97896 2.94888 -4.65339 
2.48939 -4.65339 19.6338 
5.63398 1.92856 1.15968 
1.92856 13.1931 0.931123 
1.15968 0.931123 15.1799 
11.4831 1.78517 -3.29389 
1.78517 9.95386 -1.36408 
-3.29389 -1.36408 12.5701 
16.9262 -3.17308 -4.09303 
-3.17308 8.83387 -3.10152 
-4.09303 -3.10152 8.24701 
9.02372 0.130256 0.4676 
0.130256 9.6755 -0.0922397 
0.4676 -0.0922397 9.30108 
8.97192 -0.0672559 0.915644 
-0.0672559 9.8226 0.0714753 
0.915644 0.0714753 9.20579 
9.69428 -0.0150834 0.592724 
-0.0150834 9.33564 0.000388349 
0.592724 0.000388349 8.97037 
9.2972 -0.022119 0.689349 
-0.022119 9.46081 0.0520808 
0.689349 0.0520808 9.2423 
8.9232 0.177213 0.331356 
0.177213 10.6501 -0.648655 
0.331356 -0.648655 11.8274 
6.90506 -1.71691 2.96998 
-1.71691 10.3883 1.10433 
2.96998 1.10433 14.1073 
11.9472 1.35749 0.275637 
1.35749 9.97788 -0.573588 
0.275637 -0.573588 9.47557 
9.2789 -2.35774 -1.18561 
-2.35774 8.3931 1.14523 
-1.18561 1.14523 13.7287 
10.1776 -0.00345195 -0.0230561 
-0.00345195 10.1877 -0.0248293 
-0.0230561 -0.0248293 9.93724 
10.1298 -0.00962861 -0.0132528 
-0.00962861 10.1697 -0.00729551 
-0.0132528 -0.00729551 10.0031 
10.1381 -0.00687159 0.00906558 
-0.00687159 10.1587 -0.00914764 
0.00906558 -0.00914764 10.0058 
10.1474 -0.0162268 -0.0219691 
-0.0162268 10.1749 -0.0369105 
-0.0219691 -0.0369105 9.98018 
14.8524 -0.0316666 -0.35447 
-0.0316666 12.5489 -1.61354 
-0.35447 -1.61354 9.57028 
9.56401 -0.408413 1.42345 
-0.408413 8.78904 0.148344 
1.42345 0.148344 18.6185 
10.6184 0.278389 0.688214 
0.278389 11.7534 0.386376 
0.688214 0.386376 14.5998 
11.2619 -1.53564 -1.93296 
-1.53564 11.9713 1.71931 
-1.93296 1.71931 13.7384 
9.772 -0.0140313 -0.00976804 
-0.0140313 9.80498 0.221013 
-0.00976804 0.221013 9.75609 
9.7912 0.00710417 -0.0306896 
0.00710417 9.82273 0.285861 
-0.0306896 0.285861 9.71915 
9.77072 -0.00847896 -0.0280346 
-0.00847896 9.80372 0.224663 
-0.0280346 0.224663 9.75863 
9.72099 -0.0234145 0.0130623 
-0.0234145 9.75072 0.299036 
0.0130623 0.299036 9.86137 
9.71592 -0.0243505 -0.086198 
-0.0243505 9.7731 0.0357128 
-0.086198 0.0357128 9.83695 
9.73338 -0.0280467 -0.06798 
-0.0280467 9.67654 -0.0483351 
-0.06798 -0.0483351 9.91605 
9.72709 -0.00577751 -0.00921203 
-0.00577751 9.69255 -0.0776566 
-0.00921203 -0.0776566 9.90632 
9.62555 0.0500594 -0.105984 
0.0500594 9.79189 -0.10885 
-0.105984 -0.10885 9.90852 
9.99652 0.119712 -0.0323243 
0.119712 9.80268 -0.109884 
-0.0323243 -0.109884 10.068 
9.96424 -0.117602 -0.0571999 
-0.117602 9.99773 -0.107307 
-0.0571999 -0.107307 9.90519 
10.0415 0.0372608 0.0380472 
0.0372608 9.9285 -0.175807 
0.0380472 -0.175807 9.89721 
9.93174 -0.0545886 -0.0332054 
-0.0545886 9.97007 -0.172182 
-0.0332054 -0.172182 9.96535 
9.66209 0.0260059 -0.0793508 
0.0260059 9.53461 -0.207134 
-0.0793508 -0.207134 9.40838 
9.50105 -0.186979 -0.238315 
-0.186979 9.58916 -0.40795 
-0.238315 -0.40795 9.51487 
9.54717 -0.0704675 -0.259078 
-0.0704675 9.55215 -0.0763604 
-0.259078 -0.0763604 9.50576 
9.40005 0.00721936 -0.406237 
0.00721936 9.61583 -0.213511 
-0.406237 -0.213511 9.5892 
9.57102 0.0148021 -0.218639 
0.0148021 9.55801 -0.19935 
-0.218639 -0.19935 9.38676 
9.55988 0.00583767 -0.177947 
0.00583767 9.54234 -0.220576 
-0.177947 -0.220576 9.41356 
9.55832 0.035256 -0.172294 
0.035256 9.58388 -0.223595 
-0.172294 -0.223595 9.37358 
9.55183 0.0424416 -0.221399 
0.0424416 9.63505 -0.262492 
-0.221399 -0.262492 9.3289 
10.0056 -0.208564 0.128105 
-0.208564 9.45487 1.01593 
0.128105 1.01593 8.58194 
9.79226 0.404912 -0.333744 
0.404912 9.07327 0.64935 
-0.333744 0.64935 9.17686 
9.93103 0.279607 -0.197425 
0.279607 9.0336 0.476247 
-0.197425 0.476247 9.07776 
9.64309 0.0292025 -0.403831 
0.0292025 8.99802 0.533706 
-0.403831 0.533706 9.40127 
9.25508 0.0415044 -0.276399 
0.0415044 9.7307 -0.157567 
-0.276399 -0.157567 9.17832 
9.73209 -0.788069 -0.37539 
-0.788069 9.59531 -0.367687 
-0.37539 -0.367687 8.8367 
9.25185 -0.135876 -0.0437169 
-0.135876 9.74925 -0.416401 
-0.0437169 -0.416401 9.163 
9.2135 -0.414053 -0.109796 
-0.414053 9.40736 0.310854 
-0.109796 0.310854 9.54324 
9.612 -0.10749 0.132961 
-0.10749 9.5097 0.153395 
0.132961 0.153395 10.2921 
9.42317 -0.351793 0.0359925 
-0.351793 9.48304 -0.391386 
0.0359925 -0.391386 10.5076 
9.6205 0.0389609 0.16735 
0.0389609 9.73203 0.373623 
0.16735 0.373623 10.0613 
9.62928 -0.720559 0.480041 
-0.720559 9.50177 0.693451 
0.480041 0.693451 10.2828 
12.3335 0.549999 0.248063 
0.549999 11.6225 0.860708 
0.248063 0.860708 9.34786 
11.2248 -0.163684 0.172024 
-0.163684 10.3843 0.370004 
0.172024 0.370004 11.6947 
9.52603 -0.288615 -0.722171 
-0.288615 9.41695 -0.895623 
-0.722171 -0.895623 14.3609 
10.9383 -1.49782 1.81496 
-1.49782 9.16704 1.52381 
1.81496 1.52381 13.1985 
9.7201 -0.00468068 -0.068017 
-0.00468068 9.77813 0.108549 
-0.068017 0.108549 9.75735 
9.75211 0.00151024 -0.0765234 
0.00151024 9.74718 0.0976452 
-0.0765234 0.0976452 9.75629 
9.71256 -0.0296477 -0.0695588 
-0.0296477 9.77581 0.101415 
-0.0695588 0.101415 9.76721 
9.75425 -0.00710826 -0.0825185 
-0.00710826 9.80424 0.140039 
-0.0825185 0.140039 9.69709 
9.6368 -0.0126338 -0.178441 
-0.0126338 9.94682 0.399878 
-0.178441 0.399878 9.50387 
9.60769 -0.0545842 -0.0993486 
-0.0545842 9.74796 0.158634 
-0.0993486 0.158634 9.73184 
9.72376 -0.0128718 -0.0628226 
-0.0128718 9.8828 0.175564 
-0.0628226 0.175564 9.48093 
9.7611 -0.170651 -0.0683792 
-0.170651 9.71871 0.156726 
-0.0683792 0.156726 9.60768 
9.9311 -0.0513357 -1.31415 
-0.0513357 9.35156 -2.45536 
-1.31415 -2.45536 7.52073 
9.03783 0.405608 1.20734 
0.405608 7.90371 -1.32734 
1.20734 -1.32734 9.86185 
10.1499 0.440571 -0.611196 
0.440571 8.88417 -1.58761 
-0.611196 -1.58761 7.76935 
10.2976 0.79253 -0.807525 
0.79253 9.03348 -1.25987 
-0.807525 -1.25987 7.47226 
10.5075 0.200097 0.16922 
0.200097 10.8658 -0.441291 
0.16922 -0.441291 12.7531 
12.4302 -0.76818 -0.0723042 
-0.76818 9.26483 1.65761 
-0.0723042 1.65761 12.4313 
13.4677 -2.34831 1.13136 
-2.34831 4.28924 0.418 
1.13136 0.418 16.3694 
9.92291 -0.860009 -0.408632 
-0.860009 10.6278 1.78165 
-0.408632 1.78165 13.5757 
9.91873 0.304785 0.0218973 
0.304785 9.44043 0.263439 
0.0218973 0.263439 9.29448 
9.37311 0.0867094 -0.458065 
0.0867094 9.53456 0.391435 
-0.458065 0.391435 9.74598 
8.91052 0.17968 -0.474217 
0.17968 9.24419 0.0929292 
-0.474217 0.0929292 10.4989 
9.65834 0.153201 -0.796546 
0.153201 9.46654 0.30653 
-0.796546 0.30653 9.52877 
9.77502 -0.00199259 -0.272483 
-0.00199259 9.75875 -0.15224 
-0.272483 -0.15224 9.75745 
9.74951 -0.0011282 -0.252688 
-0.0011282 9.77362 -0.163512 
-0.252688 -0.163512 9.76809 
9.76516 -0.000387233 -0.274783 
-0.000387233 9.77304 -0.147923 
-0.274783 -0.147923 9.75302 
9.77 0.0460518 -0.279189 
0.0460518 9.73504 -0.14816 
-0.279189 -0.14816 9.78618 
9.70791 0.0109948 0.0764469 
0.0109948 9.6877 0.314767 
0.0764469 0.314767 9.70076 
9.71467 0.0039131 0.0394193 
0.0039131 9.72953 0.332776 
0.0394193 0.332776 9.65217 
9.69443 -0.015017 0.0502191 
-0.015017 9.7293 0.317229 
0.0502191 0.317229 9.67264 
9.70951 0.00486153 0.0655403 
0.00486153 9.71596 0.327718 
0.0655403 0.327718 9.6709 
8.38427 0.726792 1.73535 
0.726792 12.3686 1.19059 
1.73535 1.19059 10.7457 
13.8912 -2.70458 1.6343 
-2.70458 1.44332 -2.27458 
1.6343 -2.27458 16.164 
12.2431 -0.271585 -0.727097 
-0.271585 8.90314 -1.651 
-0.727097 -1.651 10.3523 
10.991 2.00807 -1.0214 
2.00807 9.36736 -2.10005 
-1.0214 -2.10005 11.1403 
10.1131 0.0589396 -0.0902879 
0.0589396 9.76299 -0.0335747 
-0.0902879 -0.0335747 9.84888 
9.81933 0.0600798 -0.255022 
0.0600798 10.0259 0.152433 
-0.255022 0.152433 9.87968 
9.52417 -0.0146866 -0.106028 
-0.0146866 10.1039 -0.00980466 
-0.106028 -0.00980466 10.0968 
9.86347 -0.0253158 -0.276558 
-0.0253158 9.9159 0.0822618 
-0.276558 0.0822618 9.94555 
7.31508 -0.0479192 -0.56298 
-0.0479192 14.3194 0.324636 
-0.56298 0.324636 11.3027 
11.9601 1.63048 1.64895 
1.63048 9.5896 -1.87094 
1.64895 -1.87094 11.3875 
12.112 1.93068 -0.299525 
1.93068 5.94867 -0.156947 
-0.299525 -0.156947 14.8765 
10.2404 0.0151918 1.63416 
0.0151918 9.98051 -1.88954 
1.63416 -1.88954 12.7163 
9.9946 -0.024513 0.0265585 
-0.024513 10.0274 0.00836119 
0.0265585 0.00836119 9.99108 
10.0068 0.00561252 0.00281025 
0.00561252 10.0028 0.0256629 
0.00281025 0.0256629 10.0034 
10.0256 -0.00523279 -0.000655746 
-0.00523279 10.0106 0.0249985 
-0.000655746 0.0249985 9.97684 
10.053 -0.000583316 -0.0362372 
-0.000583316 10.0294 0.0683086 
-0.0362372 0.0683086 9.93065 
9.84234 -0.00463264 0.0100832 
-0.00463264 9.8282 -0.0274166 
0.0100832 -0.0274166 9.92748 
9.81949 -0.0320997 -0.00321713 
-0.0320997 9.84748 -0.0345856 
-0.00321713 -0.0345856 9.93105 
9.83102 0.0112835 0.0664801 
0.0112835 9.81837 0.00212956 
0.0664801 0.00212956 9.94863 
9.83333 0.0117183 0.0168604 
0.0117183 9.82138 -0.0370226 
0.0168604 -0.0370226 9.9433 
9.52561 0.0458831 -0.179458 
0.0458831 9.4354 -0.00169214 
-0.179458 -0.00169214 9.77818 
9.55305 0.0830479 -0.390298 
0.0830479 9.48356 -0.121528 
-0.390298 -0.121528 9.70258 
9.55959 -0.00980083 -0.3839 
-0.00980083 9.59237 -0.205471 
-0.3839 -0.205471 9.58722 
9.29702 -0.110932 -0.449277 
-0.110932 9.64575 -0.0539691 
-0.449277 -0.0539691 9.79642 
10.0459 0.00520845 0.0423355 
0.00520845 9.9835 -0.094221 
0.0423355 -0.094221 9.88952 
10.0243 0.0354108 0.0717033 
0.0354108 9.99318 -0.0748286 
0.0717033 -0.0748286 9.90143 
9.90489 0.0335812 0.0105074 
0.0335812 9.81699 -0.0253987 
0.0105074 -0.0253987 10.197 
10.0015 0.106197 0.131689 
0.106197 9.88204 -0.20335 
0.131689 -0.20335 10.0354 
9.67472 -0.0876835 0.104378 
-0.0876835 9.71422 -0.259327 
0.104378 -0.259327 9.69857 
10.0331 -0.0487208 -0.245059 
-0.0487208 9.73203 -0.353878 
-0.245059 -0.353878 9.32241 
10.0702 -0.104596 0.324548 
-0.104596 9.29053 -0.412339 
0.324548 -0.412339 9.72681 
9.65685 -0.108823 0.1408 
-0.108823 9.55845 0.0803352 
0.1408 0.0803352 9.87221 
10.0826 0.00534107 0.00270386 
0.00534107 10.1271 -0.015001 
0.00270386 -0.015001 10.0148 
10.1259 -0.0139543 -0.0267185 
-0.0139543 10.0967 -0.005987 
-0.0267185 -0.005987 10.002 
10.1351 -0.0112627 -0.0157847 
-0.0112627 10.1044 -0.0142102 
-0.0157847 -0.0142102 9.98504 
10.1064 0.0132102 -0.0191236 
0.0132102 10.1386 0.0194403 
-0.0191236 0.0194403 9.97951 
9.71546 0.0854547 0.245026 
0.0854547 9.76474 -0.0366893 
0.245026 -0.0366893 9.89111 
9.70025 0.00201495 0.29404 
0.00201495 9.83772 -0.0180788 
0.29404 -0.0180788 9.83335 
9.78106 0.0217237 0.328256 
0.0217237 9.6988 -0.112329 
0.328256 -0.112329 9.89146 
9.72929 0.083289 0.318171 
0.083289 9.83913 -0.0210255 
0.318171 -0.0210255 9.80289 
9.48159 0.0700312 0.519151 
0.0700312 9.34065 0.192194 
0.519151 0.192194 9.1055 
9.35657 -0.0355748 0.632544 
-0.0355748 9.37573 0.157668 
0.632544 0.157668 9.19543 
9.39139 0.20619 0.753139 
0.20619 9.4505 0.298686 
0.753139 0.298686 9.08585 
9.43197 -0.0134705 0.529855 
-0.0134705 9.46718 0.170062 
0.529855 0.170062 9.02859 
10.9015 -0.777068 -1.86565 
-0.777068 8.7925 -6.35009 
-1.86565 -6.35009 2.14174 
7.99673 1.16868 -1.37664 
1.16868 8.56516 -4.20151 
-1.37664 -4.20151 5.27389 
9.18755 -0.937263 -0.0715522 
-0.937263 5.09522 -2.79258 
-0.0715522 -2.79258 7.55302 
6.69854 0.89492 -0.106112 
0.89492 10.134 0.0987629 
-0.106112 0.0987629 5.00325 
9.78379 0.00627263 -0.00207827 
0.00627263 9.83558 -0.0530895 
-0.00207827 -0.0530895 9.88575 
9.76202 -0.00255668 0.00447395 
-0.00255668 9.86316 -0.0659677 
0.00447395 -0.0659677 9.87993 
9.86905 0.0215609 -0.0468268 
0.0215609 9.73198 -0.0894877 
-0.0468268 -0.0894877 9.90409 
9.83402 -0.0123766 0.0910478 
-0.0123766 9.85653 -0.101213 
0.0910478 -0.101213 9.81457 
10.0162 0.00745835 -0.0971553 
0.00745835 10.0231 -0.0583703 
-0.0971553 -0.0583703 9.82871 
9.97227 -0.0189872 -0.0807951 
-0.0189872 9.98476 -0.0667888 
-0.0807951 -0.0667888 9.91098 
9.9478 0.00197885 -0.0607468 
0.00197885 9.96961 -0.107167 
-0.0607468 -0.107167 9.95059 
9.9659 0.000893241 -0.07453 
0.000893241 9.97797 -0.0961354 
-0.07453 -0.0961354 9.92413 
10.007 0.0474664 -0.000281299 
0.0474664 9.70417 -0.0611575 
-0.000281299 -0.0611575 10.0775 
9.98613 0.085382 0.110119 
0.085382 9.83886 -0.264716 
0.110119 -0.264716 9.96366 
9.76441 0.00965528 0.074007 
0.00965528 10.1945 -0.118496 
0.074007 -0.118496 9.82977 
9.84971 0.00949265 0.150708 
0.00949265 9.92748 -0.179271 
0.150708 -0.179271 10.0115 
9.91071 0.00442718 0.105269 
0.00442718 9.89861 0.114158 
0.105269 0.114158 9.88017 
9.91417 0.00933887 0.0741345 
0.00933887 9.96584 0.216252 
0.0741345 0.216252 9.80948 
9.88753 0.0174274 0.102261 
0.0174274 9.89248 0.112375 
0.102261 0.112375 9.90948 
9.89249 -0.0176478 0.0316581 
-0.0176478 9.95553 0.191104 
0.0316581 0.191104 9.84147 
9.3351 -0.025087 0.435506 
-0.025087 9.23898 -0.0278426 
0.435506 -0.0278426 10.1428 
9.28022 -0.25799 0.651122 
-0.25799 9.08914 0.245052 
0.651122 0.245052 10.3475 
9.78588 0.0258204 0.319746 
0.0258204 9.01142 0.0743319 
0.319746 0.0743319 9.91956 
9.07732 0.0882094 0.251619 
0.0882094 9.31408 -0.0702659 
0.251619 -0.0702659 10.3255 
4.87622 2.18674 -2.10655 
2.18674 11.5919 2.53181 
-2.10655 2.53181 14.1989 
11.4542 0.522994 -0.0992382 
0.522994 8.72912 0.766104 
-0.0992382 0.766104 10.4837 
9.86551 1.04553 -2.59651 
1.04553 11.3948 0.527791 
-2.59651 0.527791 9.4067 
10.0578 1.51862 -1.78376 
1.51862 9.6547 1.02533 
-1.78376 1.02533 10.9545 
9.84438 -0.0696056 0.000476635 
-0.0696056 9.86858 -0.147426 
0.000476635 -0.147426 9.85359 
9.86083 -0.0237081 0.000912924 
-0.0237081 9.82389 -0.104431 
0.000912924 -0.104431 9.88185 
9.74599 0.0703391 0.0636143 
0.0703391 9.82213 -0.0876464 
0.0636143 -0.0876464 9.99845 
9.86954 0.0196398 0.0367987 
0.0196398 9.90194 -0.1129 
0.0367987 -0.1129 9.79508 
9.85627 -0.0448164 0.00279849 
-0.0448164 9.9873 -0.0221873 
0.00279849 -0.0221873 9.94746 
9.86512 -0.02877 -0.024229 
-0.02877 9.98488 -0.0072623 
-0.024229 -0.0072623 9.94102 
9.84339 -0.0607625 -0.0318936 
-0.0607625 9.96216 0.00516433 
-0.0318936 0.00516433 9.98548 
9.88728 -0.0500454 0.0211332 
-0.0500454 9.99989 0.00939934 
0.0211332 0.00939934 9.90385 
9.50387 -0.0166752 0.171461 
-0.0166752 9.55081 0.283441 
0.171461 0.283441 9.72786 
9.56232 0.0273812 0.118721 
0.0273812 9.58223 0.332466 
0.118721 0.332466 9.63799 
9.53049 0.00174617 0.163672 
0.00174617 9.54292 0.321318 
0.163672 0.321318 9.70913 
9.62714 0.0344272 0.105563 
0.0344272 9.51817 0.305259 
0.105563 0.305259 9.63724 
9.91453 -0.203026 0.00429545 
-0.203026 9.27503 0.258083 
0.00429545 0.258083 8.86864 
8.8917 0.356096 -0.0224157 
0.356096 9.58974 -0.199029 
-0.0224157 -0.199029 9.57675 
9.42138 -0.222034 -0.315008 
-0.222034 9.51936 0.287828 
-0.315008 0.287828 9.11744 
9.85413 0.384699 0.137815 
0.384699 10.1827 0.0664004 
0.137815 0.0664004 8.02138 
9.52716 -0.110073 -0.0961306 
-0.110073 9.53149 0.365369 
-0.0961306 0.365369 9.42758 
9.59089 -0.127488 -0.112602 
-0.127488 9.41018 0.328513 
-0.112602 0.328513 9.48516 
9.43874 -0.0680873 -0.188867 
-0.0680873 9.63029 0.593961 
-0.188867 0.593961 9.4172 
9.32235 -0.120594 -0.11437 
-0.120594 9.66493 0.325801 
-0.11437 0.325801 9.49895 
9.8858 0.0106136 -0.0897036 
0.0106136 9.87716 0.00044385 
-0.0897036 0.00044385 9.93388 
9.92152 -0.000248616 -0.0671848 
-0.000248616 9.89145 -0.0225532 
-0.0671848 -0.0225532 9.88387 
9.92049 0.0144002 -0.0916639 
0.0144002 9.88644 -0.0200105 
-0.0916639 -0.0200105 9.88991 
9.81785 -0.000719848 -0.0868111 
-0.000719848 9.89538 -0.024345 
-0.0868111 -0.024345 9.98361 
9.42766 -0.422419 -0.763818 
-0.422419 10.7584 -0.130455 
-0.763818 -0.130455 10.9119 
9.47443 0.482609 -1.22811 
0.482609 11.0183 0.242014 
-1.22811 0.242014 10.6052 
8.11872 -0.680519 -1.34821 
-0.680519 10.8686 -0.341717 
-1.34821 -0.341717 12.1106 
10.144 -1.21813 0.804616 
-1.21813 8.12238 0.327233 
0.804616 0.327233 12.8315 
8.94704 0.00880682 -1.24029 
0.00880682 9.58797 0.830722 
-1.24029 0.830722 8.6493 
9.73036 0.26027 -1.9001 
0.26027 9.79147 0.534497 
-1.9001 0.534497 7.66247 
8.61899 0.100816 -1.53825 
0.100816 8.97281 0.908773 
-1.53825 0.908773 9.59249 
10.4666 0.61764 0.407686 
0.61764 8.47866 -0.492577 
0.407686 -0.492577 8.23903 
9.83216 -0.602679 -0.233416 
-0.602679 9.88092 0.0519621 
-0.233416 0.0519621 10.9958 
9.65917 -0.5094 0.149407 
-0.5094 10.012 0.345822 
0.149407 0.345822 11.0378 
9.50348 -0.910864 0.136513 
-0.910864 9.84019 0.0915761 
0.136513 0.0915761 11.3652 
9.86575 -0.679739 -0.347146 
-0.679739 9.82439 0.506542 
-0.347146 0.506542 11.0188 
9.89385 -0.0105711 0.196282 
-0.0105711 9.9092 0.00306963 
0.196282 0.00306963 9.80346 
9.89031 0.0334465 0.221097 
0.0334465 9.87041 -0.0111366 
0.221097 -0.0111366 9.84578 
9.93619 0.0147761 0.243892 
0.0147761 9.86445 -0.0346465 
0.243892 -0.0346465 9.80587 
9.89077 0.02863 0.195583 
0.02863 9.85794 -0.0305322 
0.195583 -0.0305322 9.8578 
10.721 -0.114983 0.902002 
-0.114983 7.69879 2.143 
0.902002 2.143 10.1633 
9.94615 1.13827 0.401935 
1.13827 10.3622 1.28323 
0.401935 1.28323 8.2747 
9.60571 0.606804 0.530943 
0.606804 7.84202 -0.28421 
0.530943 -0.28421 11.1353 
10.4633 0.938825 -0.443031 
0.938825 9.25207 1.33117 
-0.443031 1.33117 8.86775 
12.3884 -1.40335 -0.212808 
-1.40335 10.7187 0.0530047 
-0.212808 0.0530047 12.1015 
10.4747 0.28587 0.435415 
0.28587 11.2011 -0.295222 
0.435415 -0.295222 13.5328 
11.5132 0.10887 0.47415 
0.10887 8.91359 -0.544801 
0.47415 -0.544801 14.7819 
12.8057 -0.190157 0.361639 
-0.190157 10.3008 -0.385099 
0.361639 -0.385099 12.1021 
10.1417 0.0530922 -0.0322552 
0.0530922 10.1551 -0.00757532 
-0.0322552 -0.00757532 9.95479 
10.1063 0.00805963 -0.029559 
0.00805963 10.1178 -0.0244789 
-0.029559 -0.0244789 10.0276 
10.1093 -0.031084 -0.00694284 
-0.031084 10.1273 0.0108553 
-0.00694284 0.0108553 10.015 
10.1409 -0.0293814 -0.0216363 
-0.0293814 10.101 -0.0345662 
-0.0216363 -0.0345662 10.0097 
9.86876 0.00723201 -0.265339 
0.00723201 9.80713 -0.119542 
-0.265339 -0.119542 9.72467 
9.77739 -0.00129275 -0.202413 
-0.00129275 9.7473 -0.0994511 
-0.202413 -0.0994511 9.87587 
9.8038 -0.0223971 -0.197566 
-0.0223971 9.7956 -0.14819 
-0.197566 -0.14819 9.80116 
9.8177 0.00895018 -0.195327 
0.00895018 9.80177 -0.144077 
-0.195327 -0.144077 9.78108 
9.39924 -0.136134 -0.240918 
-0.136134 9.38409 0.236918 
-0.240918 0.236918 9.03982 
9.39441 -0.120805 -0.513188 
-0.120805 9.46314 0.241315 
-0.513188 0.241315 8.9656 
9.39671 -0.0846553 -0.260327 
-0.0846553 9.34344 0.260103 
-0.260327 0.260103 9.08299 
9.45507 -0.11487 -0.318341 
-0.11487 9.32545 0.233699 
-0.318341 0.233699 9.04262 
9.7575 -0.0297275 -0.0963173 
-0.0297275 9.8436 0.19095 
-0.0963173 0.19095 9.78627 
9.78036 -0.0116956 -0.0941404 
-0.0116956 9.81401 0.162364 
-0.0941404 0.162364 9.793 
9.7525 -0.0258271 -0.0923385 
-0.0258271 9.83074 0.191517 
-0.0923385 0.191517 9.80413 
9.78171 -0.0210339 -0.082245 
-0.0210339 9.83755 0.161277 
-0.082245 0.161277 9.76811 
9.9588 -0.518244 -0.705124 
-0.518244 9.32584 -0.425777 
-0.705124 -0.425777 11.3448 
10.2381 -0.331412 -0.197317 
-0.331412 9.48767 -0.501247 
-0.197317 -0.501247 10.9037 
10.0554 -0.791613 -0.399272 
-0.791613 9.39168 -0.501666 
-0.399272 -0.501666 11.1824 
9.50742 -0.160188 -0.304303 
-0.160188 10.5129 -0.463093 
-0.304303 -0.463093 10.6092 
9.72602 -0.0756612 -0.0185583 
-0.0756612 9.67529 -0.0246418 
-0.0185583 -0.0246418 9.87441 
9.64006 0.146896 0.140648 
0.146896 9.723 0.103866 
0.140648 0.103866 9.91265 
9.7197 0.02284 -0.0508862 
0.02284 9.67244 0.0381184 
-0.0508862 0.0381184 9.88357 
9.7374 0.0364704 -0.00861719 
0.0364704 9.8128 -0.0517281 
-0.00861719 -0.0517281 9.72552 
9.76953 0.0227475 0.0143631 
0.0227475 9.87465 0.0364577 
0.0143631 0.0364577 10.0938 
9.77314 0.0263613 0.0308219 
0.0263613 9.8837 0.0344992 
0.0308219 0.0344992 10.0811 
9.877 0.00481267 -0.068024 
0.00481267 9.77438 0.062546 
-0.068024 0.062546 10.0866 
9.77046 -0.00137125 0.012871 
-0.00137125 9.80746 0.0748926 
0.012871 0.0748926 10.16 
9.55332 -0.0318787 0.0261886 
-0.0318787 9.73123 0.0649879 
0.0261886 0.0649879 9.52443 
9.54687 -0.0870558 -0.098591 
-0.0870558 9.64287 0.175269 
-0.098591 0.175269 9.61925 
9.58952 -0.0302443 -0.0703811 
-0.0302443 9.57216 0.0109442 
-0.0703811 0.0109442 9.64731 
9.58227 -0.049372 -0.116226 
-0.049372 9.65075 0.0721727 
-0.116226 0.0721727 9.57596 
10.1086 -0.129855 0.00448255 
-0.129855 9.83067 0.101259 
0.00448255 0.101259 9.9102 
9.99805 0.0816324 -0.121154 
0.0816324 10.0237 0.17392 
-0.121154 0.17392 9.82768 
9.82837 0.129159 -0.0569735 
0.129159 9.89365 0.0721207 
-0.0569735 0.0721207 10.1274 
9.99894 -0.139701 -0.00342575 
-0.139701 9.91159 0.285311 
-0.00342575 0.285311 9.93892 
9.69915 0.0136891 -0.299491 
0.0136891 9.67598 -0.149648 
-0.299491 -0.149648 9.69816 
9.70385 0.00110554 -0.308883 
0.00110554 9.68612 -0.144438 
-0.308883 -0.144438 9.68332 
9.71953 0.0173114 -0.290067 
0.0173114 9.65748 -0.150432 
-0.290067 -0.150432 9.69628 
9.69886 0.0371148 -0.307288 
0.0371148 9.67978 -0.132783 
-0.307288 -0.132783 9.69466 
9.73713 0.127088 0.0212587 
0.127088 9.66044 -0.0235226 
0.0212587 -0.0235226 9.55658 
9.71051 0.113802 0.0219936 
0.113802 9.48853 0.0941917 
0.0219936 0.0941917 9.75511 
9.67923 0.025122 0.0276261 
0.025122 9.61655 0.0270836 
0.0276261 0.0270836 9.65837 
9.70592 0.0782743 -0.177399 
0.0782743 9.56307 0.0648487 
-0.177399 0.0648487 9.68516 
9.65099 0.0424764 1.67301 
0.0424764 8.60633 -0.00572793 
1.67301 -0.00572793 7.90575 
9.76256 0.375645 1.14823 
0.375645 8.75989 -0.179258 
1.14823 -0.179258 7.64062 
8.47396 -0.0244704 1.11038 
-0.0244704 9.26893 0.0927326 
1.11038 0.0927326 8.42018 
8.95747 0.220609 1.41272 
0.220609 9.40028 -0.330812 
1.41272 -0.330812 7.80531 
10.0331 0.0376139 0.0173795 
0.0376139 9.89068 -0.0479927 
0.0173795 -0.0479927 10.1134 
10.1112 -0.00729839 -0.0183547 
-0.00729839 10.0962 -0.078485 
-0.0183547 -0.078485 9.82972 
10.0518 -0.0150739 -0.00127475 
-0.0150739 9.99119 -0.0869941 
-0.00127475 -0.0869941 9.99411 
10.0839 -0.0536275 0.0133122 
-0.0536275 9.976 -0.237457 
0.0133122 -0.237457 9.97725 
9.61325 0.0395162 0.386171 
0.0395162 9.5488 -0.13504 
0.386171 -0.13504 9.49304 
9.53028 0.0257126 0.410251 
0.0257126 9.5388 -0.136894 
0.410251 -0.136894 9.58602 
9.58073 0.0552262 0.362061 
0.0552262 9.54835 -0.123337 
0.362061 -0.123337 9.52601 
9.58575 0.0127763 0.325737 
0.0127763 9.56336 -0.187737 
0.325737 -0.187737 9.50598 
9.4874 -0.229742 -0.255827 
-0.229742 9.11366 0.201985 
-0.255827 0.201985 9.98339 
9.40658 -0.11856 -0.32926 
-0.11856 9.3106 0.101044 
-0.32926 0.101044 9.86726 
9.55558 -0.176285 -0.559781 
-0.176285 9.31874 0.268657 
-0.559781 0.268657 9.71013 
9.07501 -0.513372 -0.643862 
-0.513372 9.23552 0.0121776 
-0.643862 0.0121776 10.2739 
9.73476 0.0376947 -0.185481 
0.0376947 9.72487 -0.111669 
-0.185481 -0.111669 9.58439 
9.76858 0.0279051 -0.252989 
0.0279051 9.72474 -0.0667264 
-0.252989 -0.0667264 9.55071 
9.65349 -0.00755385 -0.249 
-0.00755385 9.67115 -0.162515 
-0.249 -0.162515 9.71938 
9.78445 0.00916991 -0.167027 
0.00916991 9.63706 -0.133331 
-0.167027 -0.133331 9.62252 
11.3016 0.0875314 -0.0769895 
0.0875314 10.9486 0.0316709 
-0.0769895 0.0316709 11.5176 
10.5843 -0.0740083 0.115411 
-0.0740083 10.7759 -0.357883 
0.115411 -0.357883 12.4076 
11.8207 0.0947317 0.0456718 
0.0947317 11.6898 0.305992 
0.0456718 0.305992 10.2572 
11.0846 0.460311 -0.523208 
0.460311 11.0059 0.383931 
-0.523208 0.383931 11.6773 
9.76251 0.009606 0.0736188 
0.009606 9.78241 0.315104 
0.0736188 0.315104 9.71359 
9.73644 0.0163396 0.0951627 
0.0163396 9.76962 0.299951 
0.0951627 0.299951 9.75245 
9.76099 -0.00780709 0.0721662 
-0.00780709 9.72392 0.314029 
0.0721662 0.314029 9.7736 
9.73494 -0.0146883 0.0774235 
-0.0146883 9.77967 0.318299 
0.0774235 0.318299 9.74391 
3.77594 0.110628 -0.405553 
0.110628 4.7169 0.255815 
-0.405553 0.255815 2.47311 
4.9114 -0.0168284 -0.796651 
-0.0168284 5.74678 -0.121923 
-0.796651 -0.121923 0.307764 
4.8161 -0.00415718 -0.463891 
-0.00415718 5.56382 -0.727481 
-0.463891 -0.727481 0.58602 
3.82867 0.394553 0.561168 
0.394553 5.93788 0.828661 
0.561168 0.828661 1.19939 
9.53968 0.0156598 -0.0163033 
0.0156598 9.61727 0.00801847 
-0.0163033 0.00801847 9.74838 
9.48609 0.0139604 0.00954857 
0.0139604 9.56796 0.0102482 
0.00954857 0.0102482 9.85128 
9.50652 0.0104361 0.0148872 
0.0104361 9.63133 0.0126389 
0.0148872 0.0126389 9.76747 
9.58202 0.0401202 -0.00783204 
0.0401202 9.60229 0.149374 
-0.00783204 0.149374 9.72101 
7.57215 0.133692 0.121889 
0.133692 7.34287 -0.532735 
0.121889 -0.532735 1.46304 
8.05054 0.818707 -0.17578 
0.818707 6.36516 -1.22986 
-0.17578 -1.22986 1.96236 
7.05959 -0.46789 0.984492 
-0.46789 7.09257 -1.38777 
0.984492 -1.38777 2.2259 
6.75977 -0.17601 0.333507 
-0.17601 7.53179 -1.57896 
0.333507 -1.57896 2.0865 
10.6526 0.203985 -0.841448 
0.203985 8.79189 -0.620274 
-0.841448 -0.620274 11.6814 
10.3536 0.690297 1.59904 
0.690297 9.19142 -0.728652 
1.59904 -0.728652 11.5809 
10.3816 0.0521365 -0.240116 
0.0521365 9.60322 -1.33535 
-0.240116 -1.33535 11.1411 
10.7355 -0.246108 1.96966 
-0.246108 9.53631 -0.37511 
1.96966 -0.37511 10.8541 
9.79233 -0.0178071 0.114103 
-0.0178071 9.74611 -0.0564929 
0.114103 -0.0564929 9.74363 
9.78238 -0.0242908 0.110606 
-0.0242908 9.74701 -0.0589508 
0.110606 -0.0589508 9.75267 
9.85516 -0.0118376 0.111588 
-0.0118376 9.68862 -0.0423127 
0.111588 -0.0423127 9.73828 
9.79108 -0.0404693 0.112706 
-0.0404693 9.77959 -0.0333532 
0.112706 -0.0333532 9.7114 
9.64504 0.0431777 -0.0449588 
0.0431777 9.81719 0.240039 
-0.0449588 0.240039 9.3091 
9.75203 -0.0159019 0.0537957 
-0.0159019 9.80279 0.438572 
0.0537957 0.438572 9.21651 
9.65785 0.0316722 -0.13063 
0.0316722 9.80432 0.292444 
-0.13063 0.292444 9.30917 
9.57869 -0.0336288 0.0929001 
-0.0336288 9.46576 0.18875 
0.0929001 0.18875 9.72688 
9.80659 -0.00135139 -0.285465 
-0.00135139 9.79622 0.10863 
-0.285465 0.10863 9.77711 
9.79278 -0.00697099 -0.287299 
-0.00697099 9.80595 0.112066 
-0.287299 0.112066 9.7812 
9.81299 -0.0260007 -0.27931 
-0.0260007 9.78467 0.111667 
-0.27931 0.111667 9.78227 
9.80799 -0.00154034 -0.282696 
-0.00154034 9.79463 0.101787 
-0.282696 0.101787 9.77731 
9.68731 0.0170359 -0.0893319 
0.0170359 9.68227 0.304945 
-0.0893319 0.304945 9.64703 
9.65224 -0.00959417 -0.112925 
-0.00959417 9.69465 0.320545 
-0.112925 0.320545 9.66972 
9.65308 -0.0116766 -0.112862 
-0.0116766 9.67024 0.318549 
-0.112862 0.318549 9.69328 
9.6875 0.0176875 -0.0985095 
0.0176875 9.71788 0.302933 
-0.0985095 0.302933 9.61122 
9.60391 0.000538853 -0.33693 
0.000538853 9.56288 0.0590778 
-0.33693 0.0590778 9.41722 
9.60157 0.0203789 -0.351029 
0.0203789 9.60747 0.0512476 
-0.351029 0.0512476 9.37497 
9.58708 -0.0093351 -0.309175 
-0.0093351 9.59688 0.0505204 
-0.309175 0.0505204 9.40005 
9.5439 -0.0632342 -0.446694 
-0.0632342 9.55273 6.4777e-05 
-0.446694 6.4777e-05 9.48738 
8.35457 1.08128 -0.996314 
1.08128 9.22964 0.892387 
-0.996314 0.892387 9.70292 
8.18208 0.864107 -0.834261 
0.864107 9.39407 0.529245 
-0.834261 0.529245 9.71099 
7.751 1.71229 -0.915013 
1.71229 10.2535 0.26252 
-0.915013 0.26252 9.2826 
9.46314 1.42056 -0.354992 
1.42056 9.06782 0.374988 
-0.354992 0.374988 8.75618 
9.91686 -0.0307747 0.0395978 
-0.0307747 9.88886 -0.157897 
0.0395978 -0.157897 9.86567 
9.91194 -0.0052423 0.0393665 
-0.0052423 9.87092 -0.147356 
0.0393665 -0.147356 9.88853 
9.90056 -0.00910521 0.0431553 
-0.00910521 9.8736 -0.152819 
0.0431553 -0.152819 9.89723 
9.90622 0.00337688 0.0645708 
0.00337688 9.91031 -0.174592 
0.0645708 -0.174592 9.85486 
10.727 -0.729716 -0.662336 
-0.729716 11.2223 -0.663983 
-0.662336 -0.663983 14.0181 
12.4701 -1.16594 -0.299357 
-1.16594 11.4837 -0.841716 
-0.299357 -0.841716 12.0136 
9.10695 -1.20965 -1.43287 
-1.20965 11.557 -0.249399 
-1.43287 -0.249399 15.3035 
10.4777 -0.331378 -0.280237 
-0.331378 11.5309 -1.52005 
-0.280237 -1.52005 13.9588 
9.43763 -0.204741 -0.326992 
-0.204741 9.54797 -0.174664 
-0.326992 -0.174664 9.74493 
9.66418 0.265193 -0.480783 
0.265193 9.57791 -0.12056 
-0.480783 -0.12056 9.48843 
9.19964 -0.328349 -0.635187 
-0.328349 9.89936 -0.0207522 
-0.635187 -0.0207522 9.63153 
9.42822 0.225529 -0.474642 
0.225529 9.44531 -0.0370789 
-0.474642 -0.0370789 9.85699 
9.57079 -0.0516606 -0.449515 
-0.0516606 9.29423 0.0167619 
-0.449515 0.0167619 9.5323 
9.67679 -0.0312738 -0.333212 
-0.0312738 9.38161 0.0691941 
-0.333212 0.0691941 9.33892 
9.53301 -0.0419689 -0.422557 
-0.0419689 9.32954 0.130877 
-0.422557 0.130877 9.53477 
9.7163 0.0115872 -0.339368 
0.0115872 9.27079 0.124463 
-0.339368 0.124463 9.41023 
9.54968 -0.0210495 0.27849 
-0.0210495 9.62399 -0.119001 
0.27849 -0.119001 9.77982 
9.62464 -0.0617277 0.262975 
-0.0617277 9.50486 -0.00126791 
0.262975 -0.00126791 9.82398 
9.55485 0.0253515 0.347305 
0.0253515 9.583 -0.0767365 
0.347305 -0.0767365 9.81563 
9.67747 0.107128 0.15107 
0.107128 9.53582 -0.185724 
0.15107 -0.185724 9.74019 
9.4755 0.0538199 0.261508 
0.0538199 9.42954 -0.105402 
0.261508 -0.105402 10.0326 
9.42385 0.143988 0.0870938 
0.143988 9.6021 0.082747 
0.0870938 0.082747 9.91164 
9.66406 -0.233568 0.166491 
-0.233568 9.55508 -0.148511 
0.166491 -0.148511 9.71845 
9.4468 0.151702 0.199417 
0.151702 9.60414 -0.0278956 
0.199417 -0.0278956 9.88666 
9.7682 -0.00599898 -0.000821917 
-0.00599898 9.78731 -0.326559 
-0.000821917 -0.326559 9.70645 
9.73026 -0.0423159 0.0189211 
-0.0423159 9.75364 -0.326718 
0.0189211 -0.326718 9.77806 
9.76077 0.0136036 0.0138272 
0.0136036 9.7711 -0.311046 
0.0138272 -0.311046 9.73008 
9.75717 0.00529072 0.0110016 
0.00529072 9.77219 -0.323643 
0.0110016 -0.323643 9.73259 
9.26202 -0.0763973 0.122618 
-0.0763973 9.97331 -0.238194 
0.122618 -0.238194 11.0091 
9.17572 -0.0931198 0.27565 
-0.0931198 10.098 -0.671458 
0.27565 -0.671458 10.9707 
9.75124 -0.208461 0.220263 
-0.208461 10.3361 -0.309163 
0.220263 -0.309163 10.1571 
9.74238 -0.0960538 0.289864 
-0.0960538 9.92008 -0.401705 
0.289864 -0.401705 10.582 
9.30219 0.317429 -0.0818568 
0.317429 9.56816 -0.154253 
-0.0818568 -0.154253 9.37657 
9.65871 0.160247 -0.0113381 
0.160247 9.27897 0.033049 
-0.0113381 0.033049 9.30925 
9.60791 -0.0214279 -0.0741686 
-0.0214279 9.24917 0.233809 
-0.0741686 0.233809 9.38984 
9.78175 0.229443 -0.150153 
0.229443 9.16451 0.374192 
-0.150153 0.374192 9.30066 
9.82615 0.00410853 0.0437928 
0.00410853 9.82527 -0.0158578 
0.0437928 -0.0158578 9.99941 
9.81938 0.00980301 -0.00534908 
0.00980301 9.82962 -0.00547386 
-0.00534908 -0.00547386 10.0018 
9.81737 0.0318257 0.00392129 
0.0318257 9.81229 -0.0106651 
0.00392129 -0.0106651 10.0212 
9.84365 -0.00951259 0.0789814 
-0.00951259 9.83981 -0.0636538 
0.0789814 -0.0636538 9.96738 
9.79982 0.0408752 -0.222798 
0.0408752 9.79 -0.115585 
-0.222798 -0.115585 9.69442 
9.77985 0.0279535 -0.106022 
0.0279535 9.79154 -0.105644 
-0.106022 -0.105644 9.71285 
9.72313 0.00729436 -0.0841674 
0.00729436 9.78003 -0.105397 
-0.0841674 -0.105397 9.78108 
9.80901 0.0663525 -0.0071947 
0.0663525 9.82169 -0.0731562 
-0.0071947 -0.0731562 9.65355 
9.05562 0.0240675 -0.566632 
0.0240675 9.1559 -0.0998428 
-0.566632 -0.0998428 10.2486 
9.28482 0.0764765 -0.685249 
0.0764765 9.14937 -0.0339812 
-0.685249 -0.0339812 10.0259 
8.92541 0.0478356 -0.557372 
0.0478356 9.08573 -0.0489453 
-0.557372 -0.0489453 10.4489 
9.41758 0.195371 -0.444611 
0.195371 9.20784 -0.156283 
-0.444611 -0.156283 9.83466 
9.806 0.215734 -0.243502 
0.215734 9.39794 -0.109326 
-0.243502 -0.109326 9.51823 
9.53972 -0.031745 -0.424166 
-0.031745 9.48448 -0.137605 
-0.424166 -0.137605 9.69797 
9.72704 0.081082 -0.504752 
0.081082 9.48868 -0.269842 
-0.504752 -0.269842 9.50646 
9.61549 0.0892273 -0.490721 
0.0892273 9.56953 -0.23575 
-0.490721 -0.23575 9.53716 
10.0295 0.0321764 0.0349305 
0.0321764 10.1337 0.0576867 
0.0349305 0.0576867 9.9597 
10.0836 -0.00432763 0.0340272 
-0.00432763 10.0675 0.0586312 
0.0340272 0.0586312 9.97166 
10.1259 -0.0652395 0.0249001 
-0.0652395 9.99629 -0.00312682 
0.0249001 -0.00312682 10.0006 
10.1137 0.0169654 -0.00494541 
0.0169654 10.0201 0.100221 
-0.00494541 0.100221 9.98896 
9.97489 0.0578035 0.050011 
0.0578035 9.87359 -0.0555404 
0.050011 -0.0555404 10.0684 
10.0524 0.021061 0.0165139 
0.021061 10.0533 -0.03364 
0.0165139 -0.03364 9.81126 
9.96433 0.0321324 0.00804749 
0.0321324 9.93999 -0.0832029 
0.00804749 -0.0832029 10.0126 
10.0251 -0.0234221 0.0741997 
-0.0234221 10.0244 -0.161711 
0.0741997 -0.161711 9.86737 
9.73675 0.000274698 0.00809037 
0.000274698 9.75742 -0.329969 
0.00809037 -0.329969 9.68991 
9.72021 0.00379483 0.0231617 
0.00379483 9.74026 -0.308525 
0.0231617 -0.308525 9.72361 
9.77668 0.00360764 0.0567771 
0.00360764 9.8097 -0.303446 
0.0567771 -0.303446 9.59769 
9.7304 0.00300901 0.0036968 
0.00300901 9.76417 -0.32317 
0.0036968 -0.32317 9.6895 
9.88274 0.0430124 0.174666 
0.0430124 9.79112 0.0304378 
0.174666 0.0304378 9.74078 
9.80939 0.0106538 0.125332 
0.0106538 9.80506 0.0315167 
0.125332 0.0315167 9.80018 
9.87204 0.0546938 0.193519 
0.0546938 9.78647 0.0094538 
0.193519 0.0094538 9.75612 
9.85637 0.0187463 0.214204 
0.0187463 9.83642 0.0408596 
0.214204 0.0408596 9.72186 
10.2959 -0.0777313 0.207457 
-0.0777313 9.78155 -0.280974 
0.207457 -0.280974 8.66036 
9.90397 -0.153496 0.0468483 
-0.153496 9.30384 -0.103758 
0.0468483 -0.103758 9.53 
9.63846 0.177956 0.105358 
0.177956 9.97196 0.124194 
0.105358 0.124194 9.12739 
9.75452 0.286454 -0.108277 
0.286454 9.86044 0.0308071 
-0.108277 0.0308071 9.12284 
10.0866 0.0373739 -0.0847047 
0.0373739 9.88233 -0.00543254 
-0.0847047 -0.00543254 9.87123 
9.89314 0.0281025 -0.0664396 
0.0281025 9.95733 0.0862024 
-0.0664396 0.0862024 9.98974 
9.95893 0.0113387 -0.140574 
0.0113387 9.88351 0.0970873 
-0.140574 0.0970873 9.99778 
9.91475 0.0530879 -0.135731 
0.0530879 9.9788 0.116465 
-0.135731 0.116465 9.94667 
9.63354 -0.0127271 0.132163 
-0.0127271 9.64826 -0.330268 
0.132163 -0.330268 9.62403 
9.63571 -0.00857701 0.13066 
-0.00857701 9.66754 -0.323371 
0.13066 -0.323371 9.60258 
9.62489 -0.0146067 0.132843 
-0.0146067 9.66724 -0.325655 
0.132843 -0.325655 9.6137 
9.62858 0.0111805 0.156935 
0.0111805 9.66164 -0.352004 
0.156935 -0.352004 9.6156 
9.73179 -0.0380701 -0.217441 
-0.0380701 9.63107 0.150787 
-0.217441 0.150787 9.57546 
9.67278 -0.0301771 -0.188085 
-0.0301771 9.61601 0.0925044 
-0.188085 0.0925044 9.64953 
9.71648 -0.053273 -0.247984 
-0.053273 9.74421 0.158735 
-0.247984 0.158735 9.47762 
9.70458 -0.00924102 -0.311357 
-0.00924102 9.68375 0.206887 
-0.311357 0.206887 9.54998 
9.68944 -0.0208432 -0.102734 
-0.0208432 9.70221 0.207577 
-0.102734 0.207577 9.6722 
9.73139 -0.0197252 -0.114789 
-0.0197252 9.69773 0.14987 
-0.114789 0.14987 9.63474 
9.69414 -0.00894763 -0.0874732 
-0.00894763 9.68962 0.186055 
-0.0874732 0.186055 9.6801 
9.66992 0.0150686 -0.107498 
0.0150686 9.71836 0.150351 
-0.107498 0.150351 9.67558 
9.92769 0.143317 0.104531 
0.143317 9.94718 0.113263 
0.104531 0.113263 10.0282 
9.9951 0.00500738 -0.113312 
0.00500738 10.0006 0.108745 
-0.113312 0.108745 9.9074 
9.99873 -0.0746989 -0.0319541 
-0.0746989 9.99818 0.0660452 
-0.0319541 0.0660452 9.90617 
9.97136 0.047697 0.0181587 
0.047697 9.99698 0.106609 
0.0181587 0.106609 9.93474 
9.84994 -0.010826 0.0721651 
-0.010826 9.79551 -0.0845242 
0.0721651 -0.0845242 9.88851 
9.82098 0.0149717 0.0781371 
0.0149717 9.81913 -0.0279338 
0.0781371 -0.0279338 9.89386 
9.84184 0.0170533 0.0852927 
0.0170533 9.80733 -0.0340144 
0.0852927 -0.0340144 9.8848 
9.82448 0.0063638 0.104675 
0.0063638 9.82026 -0.0768408 
0.104675 -0.0768408 9.88923 
9.4663 -0.198064 -0.847213 
-0.198064 9.4523 -0.186207 
-0.847213 -0.186207 7.89574 
9.12615 -0.291844 -0.434551 
-0.291844 9.61213 0.182842 
-0.434551 0.182842 8.07605 
9.53164 0.416366 -0.788626 
0.416366 9.80812 -0.221361 
-0.788626 -0.221361 7.47457 
9.54448 -0.457633 -0.0252962 
-0.457633 9.02952 0.829458 
-0.0252962 0.829458 8.24034 
10.251 -0.305029 -0.243962 
-0.305029 9.8028 -0.190771 
-0.243962 -0.190771 10.4641 
9.95797 0.167409 -0.0792141 
0.167409 10.2027 0.182551 
-0.0792141 0.182551 10.3572 
9.82875 0.241575 -0.128724 
0.241575 10.1116 0.211887 
-0.128724 0.211887 10.5775 
9.78564 -0.172975 0.0734932 
-0.172975 10.1489 0.018568 
0.0734932 0.018568 10.5834 
9.90529 -0.000254793 0.119271 
-0.000254793 9.86783 -0.0056039 
0.119271 -0.0056039 9.92474 
9.85224 0.0162243 0.160684 
0.0162243 9.89569 -0.0093381 
0.160684 -0.0093381 9.94994 
9.92396 0.0327079 0.207834 
0.0327079 9.95321 0.00319296 
0.207834 0.00319296 9.82069 
9.87376 0.00134186 0.155211 
0.00134186 9.8938 0.000645222 
0.155211 0.000645222 9.9303 
10.0919 0.0635109 -0.0801742 
0.0635109 10.0673 -0.0281455 
-0.0801742 -0.0281455 9.95518 
9.98413 -0.0122312 -0.0849126 
-0.0122312 10.0966 -0.0392066 
-0.0849126 -0.0392066 10.0336 
10.035 -0.048275 -0.00909649 
-0.048275 10.0774 -0.022072 
-0.00909649 -0.022072 10.002 
10.0392 0.00388775 -0.0632523 
0.00388775 10.071 -0.022083 
-0.0632523 -0.022083 10.0041 
4.01185 3.3924 1.68994 
3.3924 11.2804 -0.48841 
1.68994 -0.48841 -2.76853 
9.24376 -0.0456954 1.86015 
-0.0456954 9.73101 -0.45855 
1.86015 -0.45855 -6.45101 
0.821039 -2.32316 -2.79673 
-2.32316 1.89185 -0.0217542 
-2.79673 -0.0217542 9.81087 
9.72796 2.31208 -1.2716 
2.31208 3.0899 -8.28875 
-1.2716 -8.28875 -0.294104 
9.88283 -0.0146546 0.0803551 
-0.0146546 9.8711 -0.0117432 
0.0803551 -0.0117432 9.96891 
9.90495 -0.0113363 0.0767044 
-0.0113363 9.874 -0.00866479 
0.0767044 -0.00866479 9.94389 
9.89604 0.00226038 0.0691891 
0.00226038 9.88156 -0.0117769 
0.0691891 -0.0117769 9.94525 
9.90272 -0.00908876 0.0858448 
-0.00908876 9.89167 0.0164286 
0.0858448 0.0164286 9.92845 
9.92753 -0.106584 -1.54522 
-0.106584 10.4702 -0.336956 
-1.54522 -0.336956 18.9167 
13.2896 -0.209721 0.104964 
-0.209721 14.7798 -0.445012 
0.104964 -0.445012 11.2451 
13.7129 -0.785189 -0.196428 
-0.785189 14.3659 0.214964 
-0.196428 0.214964 11.2356 
16.0357 0.377887 -5.82909 
0.377887 14.7028 -2.69226 
-5.82909 -2.69226 8.57586 
11.585 1.02837 -0.432195 
1.02837 8.72768 1.23691 
-0.432195 1.23691 11.29 
11.0858 -0.91995 0.586311 
-0.91995 8.98448 1.91094 
0.586311 1.91094 11.5324 
9.55453 -3.37876 0.159094 
-3.37876 8.1935 3.21554 
0.159094 3.21554 13.8546 
10.8579 -0.367202 1.37619 
-0.367202 9.29641 1.75122 
1.37619 1.75122 11.4484 
9.57378 -1.47515 -1.79169 
-1.47515 6.00766 -1.46522 
-1.79169 -1.46522 4.40044 
5.30293 0.901628 -1.27935 
0.901628 8.47306 -3.75728 
-1.27935 -3.75728 6.20589 
9.10904 0.541752 -2.95965 
0.541752 8.98867 -1.08001 
-2.95965 -1.08001 1.88416 
8.80039 0.0946784 -1.63945 
0.0946784 7.24668 -2.37187 
-1.63945 -2.37187 3.93481 
9.91516 -0.0684277 0.053445 
-0.0684277 10.0684 -0.0248923 
0.053445 -0.0248923 9.91152 
9.97255 0.0521403 0.0631701 
0.0521403 9.9055 -0.00134316 
0.0631701 -0.00134316 10.0171 
10.0078 0.0602354 0.194045 
0.0602354 10.0134 -0.0214343 
0.194045 -0.0214343 9.87393 
9.93713 -0.062959 0.136594 
-0.062959 10.0002 -0.0450855 
0.136594 -0.0450855 9.9578 
9.67419 -0.028302 -0.5897 
-0.028302 8.80568 -0.0312078 
-0.5897 -0.0312078 10.3419 
9.71163 -0.0502343 0.45481 
-0.0502343 9.55373 0.120789 
0.45481 0.120789 9.55643 
9.30987 0.0061015 -0.382845 
0.0061015 9.6678 0.5744 
-0.382845 0.5744 9.84411 
9.84159 0.38354 -0.126764 
0.38354 9.47199 0.751188 
-0.126764 0.751188 9.50821 
9.5241 -0.0520557 0.258949 
-0.0520557 9.5658 0.227175 
0.258949 0.227175 9.71721 
9.49793 -0.18683 0.1919 
-0.18683 9.60037 0.118776 
0.1919 0.118776 9.70881 
9.43158 -0.0289772 0.426338 
-0.0289772 9.48116 0.338541 
0.426338 0.338541 9.89437 
9.6463 -0.0186391 0.411958 
-0.0186391 9.75721 0.22253 
0.411958 0.22253 9.4036 
9.80556 0.017544 -0.107394 
0.017544 9.81761 -0.188492 
-0.107394 -0.188492 9.74312 
9.77675 0.0323722 -0.117571 
0.0323722 9.82233 -0.17367 
-0.117571 -0.17367 9.76722 
9.7867 0.0547429 -0.0872883 
0.0547429 9.80447 -0.143787 
-0.0872883 -0.143787 9.77512 
9.77257 -0.0601123 -0.133232 
-0.0601123 9.73961 -0.176505 
-0.133232 -0.176505 9.8541 
9.42747 -0.199597 0.320402 
-0.199597 9.38673 0.31564 
0.320402 0.31564 9.39942 
9.55314 -0.302787 0.348554 
-0.302787 9.30789 0.455513 
0.348554 0.455513 9.35259 
9.43723 -0.0446398 0.386555 
-0.0446398 9.42293 0.474591 
0.386555 0.474591 9.35346 
9.45902 -0.0599221 0.311844 
-0.0599221 9.33622 0.429076 
0.311844 0.429076 9.41839 
9.75297 -0.00481966 -0.00222673 
-0.00481966 9.7958 -0.319379 
-0.00222673 -0.319379 9.87058 
9.81686 -0.00549878 0.00829986 
-0.00549878 9.81535 -0.303632 
0.00829986 -0.303632 9.78713 
9.79813 -0.0185767 -0.00451075 
-0.0185767 9.8196 -0.310689 
-0.00451075 -0.310689 9.80162 
9.8198 0.0100323 -0.0347292 
0.0100323 9.83275 -0.279649 
-0.0347292 -0.279649 9.7668 
9.93586 0.033144 -0.0696365 
0.033144 9.89485 0.0593064 
-0.0696365 0.0593064 9.92476 
9.91091 0.0311004 -0.0773412 
0.0311004 9.88762 0.0903836 
-0.0773412 0.0903836 9.95693 
9.9225 -0.0122277 -0.0934827 
-0.0122277 9.93461 0.113552 
-0.0934827 0.113552 9.89836 
9.95165 0.0171522 -0.0525598 
0.0171522 9.91095 0.119231 
-0.0525598 0.119231 9.89286 
9.38871 -0.238303 0.222225 
-0.238303 9.59661 -0.379641 
0.222225 -0.379641 9.56703 
9.49474 -0.277629 0.118854 
-0.277629 9.52902 -0.31722 
0.118854 -0.31722 9.52859 
9.16424 -0.0664541 -0.0435262 
-0.0664541 9.81553 -0.486848 
-0.0435262 -0.486848 9.57258 
9.31217 0.040923 0.478821 
0.040923 9.61697 -0.22895 
0.478821 -0.22895 9.62322 
9.92578 -0.193411 0.17946 
-0.193411 8.16329 -1.4506 
0.17946 -1.4506 11.5383 
11.0853 -0.484954 0.719725 
-0.484954 9.66513 -0.875872 
0.719725 -0.875872 8.87691 
10.5196 -1.67689 0.537384 
-1.67689 8.73277 -0.821077 
0.537384 -0.821077 10.375 
8.98933 -0.511322 -0.113236 
-0.511322 9.10901 -0.184943 
-0.113236 -0.184943 11.529 
9.86204 -0.0256952 0.0714867 
-0.0256952 9.828 -0.0538053 
0.0714867 -0.0538053 9.84877 
9.86061 -0.040599 0.100706 
-0.040599 9.81477 -0.0624965 
0.100706 -0.0624965 9.86342 
9.87049 -0.0299443 0.0763961 
-0.0299443 9.81407 -0.0657706 
0.0763961 -0.0657706 9.85424 
9.85811 -0.028411 0.0713454 
-0.028411 9.83901 -0.0489236 
0.0713454 -0.0489236 9.84168 
9.18706 0.106261 0.0913803 
0.106261 9.75993 -0.135271 
0.0913803 -0.135271 10.2663 
9.27896 -0.0556961 0.033976 
-0.0556961 9.63535 -0.0194779 
0.033976 -0.0194779 10.299 
9.39222 -0.100528 0.106932 
-0.100528 9.68118 0.0254413 
0.106932 0.0254413 10.1399 
9.76316 0.290879 -0.393739 
0.290879 9.37333 -0.0644414 
-0.393739 -0.0644414 10.0768 
9.12005 -0.935831 1.02419 
-0.935831 9.49316 0.0996852 
1.02419 0.0996852 11.1165 
10.6072 -0.52898 0.493852 
-0.52898 8.52665 1.19474 
0.493852 1.19474 10.5959 
9.84524 -0.594144 0.850951 
-0.594144 9.46818 1.05901 
0.850951 1.05901 10.4162 
9.30136 -0.76464 -0.124042 
-0.76464 10.3142 2.26591 
-0.124042 2.26591 10.1141 
9.30649 -0.104388 0.400079 
-0.104388 9.57535 0.143113 
0.400079 0.143113 9.56823 
9.35203 0.0937832 0.713911 
0.0937832 9.64178 0.224536 
0.713911 0.224536 9.45625 
9.55482 -0.0413545 0.458163 
-0.0413545 9.66861 0.110881 
0.458163 0.110881 9.22664 
9.40529 -0.12799 0.474717 
-0.12799 9.53158 0.0530345 
0.474717 0.0530345 9.5132 
9.58844 0.218559 0.289916 
0.218559 9.14488 0.0417202 
0.289916 0.0417202 8.75661 
9.4554 0.215115 -0.248787 
0.215115 9.11875 0.247294 
-0.248787 0.247294 8.91578 
10.0144 0.222647 -0.294798 
0.222647 8.93926 0.336455 
-0.294798 0.336455 8.53627 
9.69246 0.171435 -0.217416 
0.171435 8.99808 0.463577 
-0.217416 0.463577 8.7994 
9.68531 -0.00593769 -0.245476 
-0.00593769 9.75257 0.159378 
-0.245476 0.159378 9.83997 
9.8075 -0.0221579 -0.173274 
-0.0221579 9.78725 0.0575965 
-0.173274 0.0575965 9.6831 
9.75574 0.0275981 -0.204421 
0.0275981 9.75576 0.110507 
-0.204421 0.110507 9.76635 
9.76273 -0.00735251 -0.161259 
-0.00735251 9.7878 0.0951299 
-0.161259 0.0951299 9.72732 
9.69454 0.0111955 0.302063 
0.0111955 9.74 -0.0108463 
0.302063 -0.0108463 9.91784 
9.77828 -0.00233253 0.265287 
-0.00233253 9.82662 -0.00741674 
0.265287 -0.00741674 9.74747 
9.71468 -0.0070331 0.213098 
-0.0070331 9.80744 -0.0426551 
0.213098 -0.0426551 9.83026 
9.75204 -0.00836199 0.248144 
-0.00836199 9.80035 -0.0504632 
0.248144 -0.0504632 9.79999 
9.73392 0.000402152 -0.0586446 
0.000402152 9.72329 -0.0140438 
-0.0586446 -0.0140438 9.94681 
9.73264 0.00693957 -0.0448413 
0.00693957 9.75448 -0.00469028 
-0.0448413 -0.00469028 9.9169 
9.72532 0.0218774 -0.0408398 
0.0218774 9.75392 -0.00194474 
-0.0408398 -0.00194474 9.92478 
9.72622 0.00798795 -0.0470479 
0.00798795 9.7308 -0.0100931 
-0.0470479 -0.0100931 9.94701 
9.8519 -0.0982558 -0.0194431 
-0.0982558 9.72563 -0.0414442 
-0.0194431 -0.0414442 9.9894 
9.58104 0.133017 -0.0654557 
0.133017 9.88552 -0.256103 
-0.0654557 -0.256103 10.1004 
9.82637 0.114848 0.0649465 
0.114848 9.78403 0.249811 
0.0649465 0.249811 9.95653 
9.83049 -0.180565 0.0144756 
-0.180565 9.61822 -0.00850341 
0.0144756 -0.00850341 10.1182 
9.67354 2.11947 -0.214944 
2.11947 8.17073 1.50096 
-0.214944 1.50096 16.7871 
12.889 1.27979 -1.57384 
1.27979 11.9404 0.698645 
-1.57384 0.698645 9.80192 
11.1388 1.32912 0.291963 
1.32912 9.00268 1.19045 
0.291963 1.19045 14.4898 
11.3203 0.728293 0.25663 
0.728293 9.89784 -0.183309 
0.25663 -0.183309 13.4132 
9.44466 0.176122 2.56229 
0.176122 9.54337 -0.638854 
2.56229 -0.638854 8.28249 
10.2406 0.408994 1.56255 
0.408994 9.43654 -0.430945 
1.56255 -0.430945 7.59336 
8.88428 0.675956 0.129575 
0.675956 7.83322 -1.63825 
0.129575 -1.63825 10.553 
10.4047 0.0447457 1.54404 
0.0447457 8.89072 -0.317979 
1.54404 -0.317979 7.97505 
9.9401 -0.00864714 -0.0325693 
-0.00864714 9.95989 -0.0904733 
-0.0325693 -0.0904733 9.90493 
9.95409 -0.0204731 -0.00765882 
-0.0204731 9.9769 -0.134027 
-0.00765882 -0.134027 9.87393 
9.9248 -0.007002 -0.0325684 
-0.007002 9.94626 -0.0908832 
-0.0325684 -0.0908832 9.93386 
9.95799 -0.0186785 0.0378945 
-0.0186785 9.98574 -0.121674 
0.0378945 -0.121674 9.86119 
9.86864 0.0144366 -0.0968495 
0.0144366 9.82376 -0.00945147 
-0.0968495 -0.00945147 9.83994 
9.80544 -0.0135114 -0.0974576 
-0.0135114 9.84314 -0.0318311 
-0.0974576 -0.0318311 9.88376 
9.86862 0.0193554 -0.0718569 
0.0193554 9.80479 -0.00493213 
-0.0718569 -0.00493213 9.85893 
9.88171 0.00707858 -0.104503 
0.00707858 9.81219 -0.0194119 
-0.104503 -0.0194119 9.83844 
9.90906 0.0616366 0.0341386 
0.0616366 9.94691 -0.0362765 
0.0341386 -0.0362765 10.135 
9.98605 0.0178693 0.0797932 
0.0178693 10.0233 -0.0353932 
0.0797932 -0.0353932 9.98157 
10.0898 0.00121206 0.0607631 
0.00121206 10.0851 -0.0164265 
0.0607631 -0.0164265 9.816 
9.9631 -0.00367793 0.200988 
-0.00367793 10.0795 -0.108545 
0.200988 -0.108545 9.94832 
9.72377 -0.00421258 0.0371427 
-0.00421258 9.7121 0.0312913 
0.0371427 0.0312913 9.91058 
9.73737 -0.00397701 0.0539357 
-0.00397701 9.67963 0.00212223 
0.0539357 0.00212223 9.92944 
9.71054 -0.019149 -0.0201574 
-0.019149 9.70498 -0.0175853 
-0.0201574 -0.0175853 9.93092 
9.6457 -0.0149309 0.0411245 
-0.0149309 9.62148 0.0576532 
0.0411245 0.0576532 10.0793 
9.65418 -0.00810061 -0.00768963 
-0.00810061 9.76094 -0.0754378 
-0.00768963 -0.0754378 9.92199 
9.70311 -0.00336911 -0.0101897 
-0.00336911 9.6431 0.0211521 
-0.0101897 0.0211521 9.9909 
9.71227 -0.00460739 0.0129469 
-0.00460739 9.71832 0.0751756 
0.0129469 0.0751756 9.90652 
9.70046 -0.0040994 0.0324965 
-0.0040994 9.7051 0.0233071 
0.0324965 0.0233071 9.93155 
8.37694 -0.859027 -0.497843 
-0.859027 9.91758 0.427873 
-0.497843 0.427873 11.0452 
9.72883 -0.188817 -0.47295 
-0.188817 10.4707 -0.167314 
-0.47295 -0.167314 9.14021 
8.84309 -0.64029 -0.286128 
-0.64029 10.3012 0.51146 
-0.286128 0.51146 10.1955 
8.29711 -0.44591 0.619951 
-0.44591 10.2421 0.573636 
0.619951 0.573636 10.8006 
9.81909 -0.0103841 -0.0197148 
-0.0103841 9.78394 0.0276351 
-0.0197148 0.0276351 9.97097 
9.80012 0.00964575 -0.0216135 
0.00964575 9.81542 0.0197792 
-0.0216135 0.0197792 9.95846 
9.79357 -0.00476669 -0.0246853 
-0.00476669 9.81375 -0.0230193 
-0.0246853 -0.0230193 9.96668 
9.80481 0.0100467 0.000844292 
0.0100467 9.80932 -0.00447454 
0.000844292 -0.00447454 9.95987 
9.95283 -0.0264562 -0.0451314 
-0.0264562 9.89723 -0.132309 
-0.0451314 -0.132309 9.96907 
9.93292 0.0218906 -0.0183965 
0.0218906 9.97336 -0.124536 
-0.0183965 -0.124536 9.91285 
9.92151 -0.025705 -0.0568179 
-0.025705 9.92536 -0.18345 
-0.0568179 -0.18345 9.97226 
9.96247 -0.0116923 0.064469 
-0.0116923 9.95257 -0.145322 
0.064469 -0.145322 9.90408 
9.50874 -0.160821 0.0710306 
-0.160821 9.33015 0.227385 
0.0710306 0.227385 9.75476 
9.69785 0.0620164 0.0320888 
0.0620164 9.54708 0.542893 
0.0320888 0.542893 9.34873 
9.39356 -0.0991009 0.241381 
-0.0991009 9.4452 0.274074 
0.241381 0.274074 9.7549 
9.41681 -0.0183855 0.276602 
-0.0183855 9.24161 0.453385 
0.276602 0.453385 9.93524 
9.72382 0.0333396 -0.186134 
0.0333396 9.7162 0.0842022 
-0.186134 0.0842022 9.86768 
9.72531 0.0265802 -0.260909 
0.0265802 9.75515 0.109812 
-0.260909 0.109812 9.82724 
9.66499 0.058454 -0.332104 
0.058454 9.76592 0.147222 
-0.332104 0.147222 9.87678 
9.78576 0.0185661 -0.24832 
0.0185661 9.80149 0.104362 
-0.24832 0.104362 9.72044 
9.72267 0.00338603 -0.0678521 
0.00338603 9.63774 0.308032 
-0.0678521 0.308032 9.78928 
9.72915 0.0108346 -0.0792691 
0.0108346 9.70758 0.308371 
-0.0792691 0.308371 9.71296 
9.70379 -0.0055777 -0.083325 
-0.0055777 9.81529 0.354469 
-0.083325 0.354469 9.63061 
9.72253 -0.0126404 -0.117497 
-0.0126404 9.77367 0.247329 
-0.117497 0.247329 9.65349 
9.63483 -0.109865 -0.530087 
-0.109865 9.34911 0.606968 
-0.530087 0.606968 8.96105 
9.57442 0.09133 -0.326485 
0.09133 9.20762 0.461049 
-0.326485 0.461049 9.16295 
9.5244 -0.0246059 -0.268336 
-0.0246059 9.42378 0.305804 
-0.268336 0.305804 8.99681 
9.60906 0.0454098 -0.240221 
0.0454098 9.17575 0.514542 
-0.240221 0.514542 9.16018 
9.93892 0.0397784 0.0023985 
0.0397784 10.0712 -0.0768783 
0.0023985 -0.0768783 9.88311 
9.91218 0.0235714 -0.000375015 
0.0235714 10.0295 -0.152436 
-0.000375015 -0.152436 9.95158 
10.0548 -0.0339327 0.116702 
-0.0339327 9.83525 -0.0481751 
0.116702 -0.0481751 10.0032 
10.0851 -0.0433046 0.16074 
-0.0433046 9.89969 -0.0792477 
0.16074 -0.0792477 9.90852 
9.72461 -0.010745 0.226303 
-0.010745 9.75608 0.102598 
0.226303 0.102598 9.85014 
9.71563 0.00186062 0.263788 
0.00186062 9.77726 0.121204 
0.263788 0.121204 9.83795 
9.66477 -0.0309617 0.316916 
-0.0309617 9.8255 0.111432 
0.316916 0.111432 9.84056 
9.76236 -0.0079583 0.273533 
-0.0079583 9.79482 0.090824 
0.273533 0.090824 9.77365 
9.78794 0.000665687 0.170256 
0.000665687 9.76584 -0.262783 
0.170256 -0.262783 9.7409 
9.73584 -0.00695572 0.182153 
-0.00695572 9.74578 -0.270582 
0.182153 -0.270582 9.81305 
9.78161 0.00678552 0.198214 
0.00678552 9.7592 -0.255652 
0.198214 -0.255652 9.75387 
9.77274 -0.00637001 0.183584 
-0.00637001 9.76938 -0.262086 
0.183584 -0.262086 9.75256 
9.77763 0.0124901 0.0383142 
0.0124901 9.78599 0.313833 
0.0383142 0.313833 9.73372 
9.76769 0.025882 -0.00172651 
0.025882 9.81012 0.29544 
-0.00172651 0.29544 9.71953 
9.76803 0.0124662 0.0308403 
0.0124662 9.79597 0.303731 
0.0308403 0.303731 9.73334 
9.74872 -0.00898062 0.0254597 
-0.00898062 9.76923 0.306833 
0.0254597 0.306833 9.77939 
6.84 0.934867 -0.765137 
0.934867 11.7561 1.32869 
-0.765137 1.32869 18.3235 
13.4704 0.828308 0.0907428 
0.828308 15.9209 -1.58597 
0.0907428 -1.58597 7.5284 
9.42391 2.40304 1.03106 
2.40304 11.184 -0.264188 
1.03106 -0.264188 16.3117 
9.65801 0.975637 -1.63441 
0.975637 9.92037 -5.36745 
-1.63441 -5.36745 17.3412 
9.46793 -0.24335 -0.0138623 
-0.24335 9.4936 0.305208 
-0.0138623 0.305208 9.37804 
9.21055 -0.123697 -0.15963 
-0.123697 9.69282 0.41836 
-0.15963 0.41836 9.43621 
9.17098 -0.307559 -0.305793 
-0.307559 9.81335 0.557101 
-0.305793 0.557101 9.35525 
9.1079 0.185066 -0.119681 
0.185066 9.68906 0.595445 
-0.119681 0.595445 9.54261 
9.86501 -0.0616661 0.0159285 
-0.0616661 9.51012 -0.102878 
0.0159285 -0.102878 9.64968 
9.74498 0.0259014 0.0403307 
0.0259014 9.55261 -0.00275855 
0.0403307 -0.00275855 9.72722 
9.62909 -0.00794944 -0.0411261 
-0.00794944 9.58048 0.0593122 
-0.0411261 0.0593122 9.81525 
9.70916 0.172949 0.135403 
0.172949 9.5446 0.0970134 
0.135403 0.0970134 9.77106 
9.70755 -0.0203053 0.120109 
-0.0203053 9.6817 -0.0947205 
0.120109 -0.0947205 9.69285 
9.72019 -0.0845792 0.166772 
-0.0845792 9.68517 -0.190143 
0.166772 -0.190143 9.67674 
9.81695 -0.0521344 0.155685 
-0.0521344 9.66984 -0.0839376 
0.155685 -0.0839376 9.59531 
9.74764 -0.0539711 0.14654 
-0.0539711 9.68199 -0.118487 
0.14654 -0.118487 9.65247 
9.45361 -0.541131 -0.332563 
-0.541131 9.22594 -1.94126 
-0.332563 -1.94126 10.4604 
9.82157 -0.0364261 0.95604 
-0.0364261 11.0367 -0.223987 
0.95604 -0.223987 8.28165 
9.54243 0.712865 1.82967 
0.712865 9.9467 -0.62429 
1.82967 -0.62429 9.65079 
9.47289 0.228359 1.19158 
0.228359 11.2041 -0.222629 
1.19158 -0.222629 8.46292 
10.7195 -0.16029 -0.156494 
-0.16029 9.9656 -0.0221851 
-0.156494 -0.0221851 11.905 
10.7996 0.221086 -0.016596 
0.221086 10.1143 -0.123212 
-0.016596 -0.123212 11.6762 
10.6206 0.030769 0.110333 
0.030769 10.1928 -0.62082 
0.110333 -0.62082 11.7767 
11.0135 0.0295671 0.0866739 
0.0295671 10.1542 -0.576574 
0.0866739 -0.576574 11.4223 
9.58442 -0.185367 -0.000370194 
-0.185367 9.76032 0.233834 
-0.000370194 0.233834 9.60967 
9.29992 -0.153924 -0.0961083 
-0.153924 10.0256 0.154472 
-0.0961083 0.154472 9.62887 
9.54338 -0.032676 -0.21842 
-0.032676 9.87117 0.501107 
-0.21842 0.501107 9.53986 
9.72046 -0.170592 -0.22743 
-0.170592 9.56365 0.200033 
-0.22743 0.200033 9.6703 
9.33938 -0.140912 -0.0562017 
-0.140912 10.0485 -0.199238 
-0.0562017 -0.199238 9.07822 
9.48859 -0.169242 -0.0341964 
-0.169242 9.87692 0.254589 
-0.0341964 0.254589 9.10061 
9.91811 0.118188 0.096966 
0.118188 9.14517 0.0450783 
0.096966 0.0450783 9.40283 
9.90872 -0.102719 -0.35981 
-0.102719 9.72785 -0.269837 
-0.35981 -0.269837 8.82955 
9.87979 0.0233893 0.283549 
0.0233893 9.7343 -0.0650275 
0.283549 -0.0650275 9.86167 
9.69067 -0.0236393 -0.050901 
-0.0236393 9.78623 -0.0501477 
-0.050901 -0.0501477 9.99886 
9.72866 0.00925974 0.105027 
0.00925974 9.7655 -0.0986975 
0.105027 -0.0986975 9.9816 
9.64249 -0.119873 0.130425 
-0.119873 9.79773 -0.0598003 
0.130425 -0.0598003 10.0355 
9.39156 0.12775 -0.162247 
0.12775 9.65584 0.240918 
-0.162247 0.240918 9.61526 
9.74494 -0.100568 -0.00363177 
-0.100568 9.63931 0.130448 
-0.00363177 0.130448 9.27841 
10.0249 -0.422809 -0.637677 
-0.422809 9.07007 1.0849 
-0.637677 1.0849 9.56773 
9.50248 0.0322698 -0.177233 
0.0322698 9.16339 0.117391 
-0.177233 0.117391 9.99679 
9.80069 -0.00198954 -0.175426 
-0.00198954 9.8056 -0.272711 
-0.175426 -0.272711 9.76534 
9.8118 0.0578341 -0.149904 
0.0578341 9.81049 -0.222875 
-0.149904 -0.222875 9.74935 
9.76993 0.0158292 -0.151986 
0.0158292 9.78932 -0.276009 
-0.151986 -0.276009 9.81239 
9.77701 -0.00628651 -0.162445 
-0.00628651 9.80713 -0.263497 
-0.162445 -0.263497 9.7875 
9.60608 -0.108195 0.0175269 
-0.108195 9.68941 -0.181086 
0.0175269 -0.181086 9.87957 
9.77545 -0.130425 0.0545206 
-0.130425 9.69492 0.151033 
0.0545206 0.151033 9.7047 
9.71895 -0.0462588 0.0284084 
-0.0462588 9.66034 0.15269 
0.0284084 0.15269 9.79578 
9.70968 -0.149449 -0.0917569 
-0.149449 9.59315 0.090805 
-0.0917569 0.090805 9.87224 
10.0183 0.211623 -0.182627 
0.211623 9.54701 0.539904 
-0.182627 0.539904 9.54845 
9.39124 0.243193 -0.0295893 
0.243193 9.37756 0.147798 
-0.0295893 0.147798 10.345 
9.51357 0.212659 -0.0759277 
0.212659 9.42261 -0.0283446 
-0.0759277 -0.0283446 10.1776 
9.47375 0.366351 -0.157943 
0.366351 9.34042 0.118848 
-0.157943 0.118848 10.2996 
9.29587 -0.485171 0.177164 
-0.485171 9.88998 -0.190007 
0.177164 -0.190007 9.58252 
9.34691 -0.486586 0.187666 
-0.486586 9.87605 -0.186502 
0.187666 -0.186502 9.5454 
9.10796 -0.365362 0.176995 
-0.365362 9.81278 -0.147562 
0.176995 -0.147562 9.84763 
9.33569 -0.452555 0.195053 
-0.452555 9.89767 -0.0661279 
0.195053 -0.0661279 9.535 
10.0718 -0.0317255 -0.0319134 
-0.0317255 9.78048 -0.0410044 
-0.0319134 -0.0410044 8.66537 
9.77837 -0.0237871 0.18263 
-0.0237871 9.63212 0.183874 
0.18263 0.183874 9.10718 
9.79483 0.0156229 -0.167998 
0.0156229 9.54509 -0.0196534 
-0.167998 -0.0196534 9.17776 
9.8057 -0.0155434 0.183437 
-0.0155434 9.59565 -0.0130666 
0.183437 -0.0130666 9.11632 
10.0908 -0.0198909 0.00537798 
-0.0198909 10.1018 -0.0168438 
0.00537798 -0.0168438 9.96592 
10.099 0.010579 -0.0313953 
0.010579 10.0721 -0.0038104 
-0.0313953 -0.0038104 9.98749 
10.0618 -0.0284952 -0.0083531 
-0.0284952 10.0945 -0.0409447 
-0.0083531 -0.0409447 10.0022 
10.1398 0.0401488 -0.0662461 
0.0401488 10.09 -0.0449429 
-0.0662461 -0.0449429 9.92881 
9.73557 -0.0971557 0.283716 
-0.0971557 9.80822 -0.347441 
0.283716 -0.347441 9.37077 
9.58569 0.015179 0.159337 
0.015179 9.61355 -0.279199 
0.159337 -0.279199 9.71533 
9.77973 -0.0729763 0.0594397 
-0.0729763 9.7904 -0.235778 
0.0594397 -0.235778 9.34443 
9.73642 -0.0522295 0.160041 
-0.0522295 9.70805 -0.286942 
0.160041 -0.286942 9.4701 
9.81338 -0.124347 0.0537342 
-0.124347 9.48718 0.00904531 
0.0537342 0.00904531 10.0235 
9.62098 0.0331523 0.150634 
0.0331523 9.56385 0.103216 
0.150634 0.103216 10.1392 
9.84179 0.0916231 0.496678 
0.0916231 9.67029 -0.411122 
0.496678 -0.411122 9.81193 
9.67218 0.197928 0.0790322 
0.197928 9.63183 -0.00816903 
0.0790322 -0.00816903 10.02 
11.2664 0.585411 0.556733 
0.585411 10.3923 -0.458588 
0.556733 -0.458588 14.4971 
12.6289 -1.18022 -1.03709 
-1.18022 14.0164 0.13866 
-1.03709 0.13866 9.51056 
8.24905 0.657846 -0.105268 
0.657846 11.0432 -0.797614 
-0.105268 -0.797614 16.8636 
10.417 0.69205 0.167666 
0.69205 12.0586 2.35039 
0.167666 2.35039 13.6802 
9.83667 -0.0151432 0.00321805 
-0.0151432 9.82221 -0.0550901 
0.00321805 -0.0550901 9.92521 
9.82855 -0.00379737 -0.0369615 
-0.00379737 9.82648 -0.0233065 
-0.0369615 -0.0233065 9.92905 
9.81884 -0.0072299 -0.0260297 
-0.0072299 9.8432 -0.0118825 
-0.0260297 -0.0118825 9.92204 
9.82489 0.0360731 -0.041255 
0.0360731 9.83342 -0.0113045 
-0.041255 -0.0113045 9.92577 
11.4919 -0.0560128 0.746014 
-0.0560128 11.1557 0.304512 
0.746014 0.304512 13.1723 
12.6732 -0.404238 -0.301758 
-0.404238 12.3278 0.40796 
-0.301758 0.40796 10.8189 
11.8781 -0.21176 0.143054 
-0.21176 11.6452 0.108251 
0.143054 0.108251 12.2966 
11.7609 -0.356338 -0.042559 
-0.356338 11.7033 -0.0832075 
-0.042559 -0.0832075 12.3557 
9.8094 0.0235927 -0.17923 
0.0235927 9.77269 -0.234948 
-0.17923 -0.234948 9.80447 
9.80706 0.0119785 -0.19662 
0.0119785 9.80609 -0.234079 
-0.19662 -0.234079 9.77341 
9.78635 0.0232894 -0.19576 
0.0232894 9.79798 -0.247573 
-0.19576 -0.247573 9.80223 
9.81241 0.000759064 -0.190886 
0.000759064 9.81513 -0.233011 
-0.190886 -0.233011 9.75902 
9.57381 0.112533 0.382851 
0.112533 9.87577 -0.137253 
0.382851 -0.137253 9.97293 
9.69617 0.0556417 0.213461 
0.0556417 9.81362 -0.0591451 
0.213461 -0.0591451 9.91272 
9.6407 0.0461509 0.0666092 
0.0461509 9.76928 -0.00262845 
0.0666092 -0.00262845 10.0125 
9.9109 -0.0453788 0.22739 
-0.0453788 9.73932 -0.0605027 
0.22739 -0.0605027 9.77229 
9.55678 -0.734471 2.58599 
-0.734471 9.05443 2.14627 
2.58599 2.14627 10.1079 
8.16872 -0.743727 1.2116 
-0.743727 11.0208 1.10046 
1.2116 1.10046 9.52954 
8.63765 0.76718 1.42875 
0.76718 7.88945 -0.328772 
1.42875 -0.328772 12.192 
9.65455 -0.839257 -0.169091 
-0.839257 11.1197 1.19759 
-0.169091 1.19759 7.94486 
9.42223 -0.031862 0.415444 
-0.031862 9.63798 0.338971 
0.415444 0.338971 8.6581 
9.41655 -0.0452115 0.262393 
-0.0452115 9.3973 0.117024 
0.262393 0.117024 8.90447 
9.52711 0.129536 0.653181 
0.129536 10.0143 0.422984 
0.653181 0.422984 8.17692 
9.26817 0.0426166 0.705969 
0.0426166 9.46432 0.488605 
0.705969 0.488605 8.98583 
9.86563 -0.0266572 -0.093533 
-0.0266572 9.9587 -0.0117228 
-0.093533 -0.0117228 9.92929 
9.87397 -0.01592 -0.161955 
-0.01592 9.90781 -1.02153e-05 
-0.161955 -1.02153e-05 9.97184 
9.93297 0.0254095 -0.127906 
0.0254095 9.92147 0.0139611 
-0.127906 0.0139611 9.89919 
9.92781 0.0121996 -0.149836 
0.0121996 9.9775 0.0965232 
-0.149836 0.0965232 9.84832 
9.5423 0.360443 -0.230554 
0.360443 9.72312 0.0901825 
-0.230554 0.0901825 9.27275 
9.36873 0.182674 0.0491707 
0.182674 8.83167 -0.359837 
0.0491707 -0.359837 10.3378 
9.1316 -0.00748743 -0.0286177 
-0.00748743 8.89622 -0.697875 
-0.0286177 -0.697875 10.5104 
9.11455 0.0184521 -0.0651349 
0.0184521 8.32155 -0.0363708 
-0.0651349 -0.0363708 11.1021 
9.94879 -0.062343 0.13381 
-0.062343 9.91637 0.0213013 
0.13381 0.0213013 9.99128 
9.92837 0.0133597 0.0846591 
0.0133597 10.0343 0.068642 
0.0846591 0.068642 9.8938 
9.9691 -0.0223643 0.080882 
-0.0223643 10.0181 0.0255067 
0.080882 0.0255067 9.86923 
9.99158 -0.0483154 0.13192 
-0.0483154 9.96227 0.00831217 
0.13192 0.00831217 9.90259 
9.62795 0.0258644 0.264929 
0.0258644 9.63544 -0.202419 
0.264929 -0.202419 9.63165 
9.66117 -0.00356818 0.2797 
-0.00356818 9.63696 -0.227038 
0.2797 -0.227038 9.5969 
9.62975 0.0178209 0.278936 
0.0178209 9.64004 -0.224823 
0.278936 -0.224823 9.62524 
9.663 0.00543693 0.359472 
0.00543693 9.58348 -0.212946 
0.359472 -0.212946 9.64856 
11.1323 0.735056 0.705857 
0.735056 9.45272 0.339357 
0.705857 0.339357 12.9851 
10.7035 0.785996 0.333886 
0.785996 9.92997 -0.248821 
0.333886 -0.248821 12.9366 
11.2923 1.19124 -0.443224 
1.19124 9.05186 0.170922 
-0.443224 0.170922 13.2259 
10.911 0.661443 0.159146 
0.661443 9.78173 0.243387 
0.159146 0.243387 12.8774 
9.26813 0.691761 0.325807 
0.691761 9.44523 1.29857 
0.325807 1.29857 8.76853 
10.7947 -0.893525 -0.143216 
-0.893525 9.95995 0.421507 
-0.143216 0.421507 6.72728 
9.18069 0.132279 0.201405 
0.132279 9.97653 0.537868 
0.201405 0.537868 8.32468 
9.39425 -0.304704 -0.342988 
-0.304704 9.19333 0.404344 
-0.342988 0.404344 8.89432 
8.76333 -0.078544 -0.123714 
-0.078544 10.0866 0.0734824 
-0.123714 0.0734824 10.7622 
9.74332 -0.586601 -0.942433 
-0.586601 10.2874 -0.623167 
-0.942433 -0.623167 9.58142 
9.49501 -0.048128 -0.669058 
-0.048128 10.2697 -0.211773 
-0.669058 -0.211773 9.84748 
9.57963 0.158542 -0.705513 
0.158542 10.253 -0.138988 
-0.705513 -0.138988 9.77952 
9.41463 0.0611718 -0.435922 
0.0611718 9.52481 -0.11698 
-0.435922 -0.11698 9.69514 
9.48992 0.24083 -0.498978 
0.24083 9.05727 0.106787 
-0.498978 0.106787 10.0874 
9.36935 0.101456 -0.506656 
0.101456 9.45071 -0.432185 
-0.506656 -0.432185 9.81453 
9.39992 0.114538 -0.489026 
0.114538 9.37066 -0.185862 
-0.489026 -0.185862 9.864 
10.0139 0.653367 -0.827532 
0.653367 9.94014 0.690263 
-0.827532 0.690263 11.6297 
9.63224 0.461312 0.477911 
0.461312 9.73488 0.434549 
0.477911 0.434549 12.2166 
10.636 0.278561 -0.696018 
0.278561 9.80438 0.345496 
-0.696018 0.345496 11.1434 
10.1242 -0.0294676 -0.386224 
-0.0294676 9.44593 1.12553 
-0.386224 1.12553 12.0137 
10.3119 -0.260015 0.560781 
-0.260015 10.1614 0.0974329 
0.560781 0.0974329 8.46608 
10.3989 -0.271018 0.576471 
-0.271018 10.2136 0.130089 
0.576471 0.130089 8.32679 
9.90824 -0.348391 0.774961 
-0.348391 10.6861 -0.180026 
0.774961 -0.180026 8.34499 
10.3142 -0.521039 0.722816 
-0.521039 9.47408 0.0304524 
0.722816 0.0304524 9.15099 
12.0288 1.38963 0.0524974 
1.38963 11.2725 -0.551733 
0.0524974 -0.551733 12.5347 
12.546 0.345662 0.256651 
0.345662 9.56728 -0.380686 
0.256651 -0.380686 13.7227 
10.8096 -0.267255 0.431981 
-0.267255 9.25103 1.00331 
0.431981 1.00331 15.7753 
12.7194 -0.158896 -0.47201 
-0.158896 9.14883 -1.57588 
-0.47201 -1.57588 13.9677 
9.48565 -0.0632451 -0.0368473 
-0.0632451 9.48313 0.0246991 
-0.0368473 0.0246991 9.82671 
9.46841 -0.0372482 0.00863392 
-0.0372482 9.47133 0.0362679 
0.00863392 0.0362679 9.85575 
9.45592 -0.0592381 -0.0813413 
-0.0592381 9.51396 0.039799 
-0.0813413 0.039799 9.82561 
9.54169 -0.058877 -0.0294939 
-0.058877 9.49875 0.0284678 
-0.0294939 0.0284678 9.75505 
9.81407 -0.00856224 -0.182971 
-0.00856224 9.77978 0.203622 
-0.182971 0.203622 9.73797 
9.79901 -0.00180602 -0.211493 
-0.00180602 9.75837 0.160184 
-0.211493 0.160184 9.77444 
9.78168 0.0229552 -0.21343 
0.0229552 9.81703 0.238685 
-0.21343 0.238685 9.73311 
9.73628 -0.0413518 -0.263542 
-0.0413518 9.80745 0.227126 
-0.263542 0.227126 9.78808 
11.7743 -0.21359 -1.69364 
-0.21359 6.44177 4.44193 
-1.69364 4.44193 0.00899481 
1.2225 -0.929333 -0.747587 
-0.929333 2.79846 -3.13491 
-0.747587 -3.13491 14.2041 
13.1606 -1.02722 -1.81706 
-1.02722 12.7735 5.19188 
-1.81706 5.19188 -7.709 
6.35555 7.50388 -10.4526 
7.50388 3.96035 5.79833 
-10.4526 5.79833 7.90919 
9.91487 0.0502044 0.0332638 
0.0502044 9.90137 -0.118208 
0.0332638 -0.118208 9.92852 
9.89857 0.0167418 0.0702754 
0.0167418 9.88275 -0.158628 
0.0702754 -0.158628 9.96343 
9.93572 -0.0216745 0.0277431 
-0.0216745 9.91348 -0.137334 
0.0277431 -0.137334 9.89555 
9.96576 0.00942877 -0.0474908 
0.00942877 9.92532 -0.191838 
-0.0474908 -0.191838 9.85368 
9.85952 -0.103529 0.3825 
-0.103529 9.80848 -0.592845 
0.3825 -0.592845 9.05177 
9.66174 -0.11206 -0.0467812 
-0.11206 9.73484 -0.586713 
-0.0467812 -0.586713 9.32319 
9.94829 0.0869405 -0.186935 
0.0869405 9.59045 -0.657718 
-0.186935 -0.657718 9.18102 
9.69125 -0.0528889 -0.159819 
-0.0528889 9.59701 -0.369748 
-0.159819 -0.369748 9.43151 
9.6688 0.119428 -0.140029 
0.119428 9.43514 -0.20425 
-0.140029 -0.20425 9.83729 
9.64874 -0.00938666 -0.190608 
-0.00938666 9.55974 -0.116082 
-0.190608 -0.116082 9.73274 
9.56347 -0.0787175 -0.24304 
-0.0787175 9.54574 -0.286344 
-0.24304 -0.286344 9.83201 
9.29766 0.0694319 0.172042 
0.0694319 9.45054 -0.103149 
0.172042 -0.103149 10.193 
10.3836 -0.0720079 -0.221345 
-0.0720079 9.24626 -0.64763 
-0.221345 -0.64763 9.21875 
9.34671 -0.201866 -0.00742717 
-0.201866 10.1376 -0.591842 
-0.00742717 -0.591842 9.36435 
9.44555 -0.135063 -0.72391 
-0.135063 9.83339 -0.849528 
-0.72391 -0.849528 9.5697 
9.79492 -0.016374 -0.117402 
-0.016374 9.55865 -0.177115 
-0.117402 -0.177115 9.49506 
11.2409 0.816862 0.0201303 
0.816862 10.9953 -0.770904 
0.0201303 -0.770904 11.0212 
10.3405 0.668945 -0.364747 
0.668945 10.4809 -0.0658101 
-0.364747 -0.0658101 12.436 
10.4757 -0.887283 0.723331 
-0.887283 10.7556 0.0342301 
0.723331 0.0342301 12.0261 
10.0101 -0.377697 -0.444257 
-0.377697 11.3572 -0.0482165 
-0.444257 -0.0482165 11.8902 
9.37045 -0.217658 -0.460084 
-0.217658 10.1258 0.49908 
-0.460084 0.49908 8.44234 
9.38377 0.0726373 -0.123644 
0.0726373 9.62669 0.262655 
-0.123644 0.262655 8.92809 
9.69237 -0.230824 -0.496931 
-0.230824 9.92182 0.687921 
-0.496931 0.687921 8.32436 
9.49013 -0.404409 0.0689547 
-0.404409 9.7654 0.0299133 
0.0689547 0.0299133 8.68303 
10.0478 -0.00658054 -0.0177626 
-0.00658054 10.0688 0.0101893 
-0.0177626 0.0101893 10.0336 
10.0595 0.00397158 -0.0180121 
0.00397158 10.0622 -0.00287212 
-0.0180121 -0.00287212 10.0285 
10.0686 0.00205347 -0.0026794 
0.00205347 10.0695 -0.000279401 
-0.0026794 -0.000279401 10.0121 
10.0816 0.0175918 -0.00292034 
0.0175918 10.0901 -0.0401615 
-0.00292034 -0.0401615 9.97861 
1.49932 0.18062 3.86623 
0.18062 3.55585 0.349671 
3.86623 0.349671 6.84614 
6.61162 1.07244 0.288595 
1.07244 5.91486 0.331953 
0.288595 0.331953 -0.625177 
8.04359 -0.824054 -1.66281 
-0.824054 5.35267 0.0494338 
-1.66281 0.0494338 -1.49495 
9.22239 0.765865 2.54123 
0.765865 4.47895 -0.411946 
2.54123 -0.411946 -1.80003 
9.62401 0.0436991 0.0437069 
0.0436991 9.64248 0.0552361 
0.0437069 0.0552361 9.90496 
9.61737 -0.0566834 -0.0320434 
-0.0566834 9.6016 0.0157853 
-0.0320434 0.0157853 9.95246 
9.71227 0.045831 0.0118929 
0.045831 9.48282 -0.0302139 
0.0118929 -0.0302139 9.97635 
9.64858 -0.0761455 -0.0433288 
-0.0761455 9.57574 0.102297 
-0.0433288 0.102297 9.94712 
9.60584 -0.0639107 0.618092 
-0.0639107 10.5917 -1.07915 
0.618092 -1.07915 9.85561 
8.92613 0.652215 -0.0422582 
0.652215 9.58456 -0.120024 
-0.0422582 -0.120024 11.5425 
9.84117 1.07075 0.959723 
1.07075 9.16569 -1.67764 
0.959723 -1.67764 11.0463 
9.68609 0.54267 1.18748 
0.54267 10.6027 -0.739165 
1.18748 -0.739165 9.76436 
9.56596 0.0252284 0.107595 
0.0252284 9.60643 0.0927323 
0.107595 0.0927323 9.41617 
9.61118 -0.062909 0.00561499 
-0.062909 9.5594 -0.00703158 
0.00561499 -0.00703158 9.41798 
9.67802 -0.0485073 0.0251921 
-0.0485073 9.69629 -0.123509 
0.0251921 -0.123509 9.21424 
9.58539 -9.29259e-05 0.0179037 
-9.29259e-05 9.54855 0.000643743 
0.0179037 0.000643743 9.45462 
9.57256 0.0584352 0.276585 
0.0584352 9.66285 0.263187 
0.276585 0.263187 9.80214 
9.64352 0.065499 0.154992 
0.065499 9.73281 0.097316 
0.154992 0.097316 9.66121 
9.69106 0.0108446 0.12175 
0.0108446 9.76926 0.119693 
0.12175 0.119693 9.57724 
9.77454 0.0132509 0.111788 
0.0132509 9.66631 0.0560179 
0.111788 0.0560179 9.5967 
9.7342 0.0257559 0.0929847 
0.0257559 9.74665 0.0044827 
0.0929847 0.0044827 9.96009 
9.71854 0.0168169 0.0693685 
0.0168169 9.73141 0.0109277 
0.0693685 0.0109277 9.99099 
9.66866 0.00982928 0.0922329 
0.00982928 9.73137 0.0236534 
0.0922329 0.0236534 10.0409 
9.75895 -0.0357624 -0.0319373 
-0.0357624 9.66898 0.0221995 
-0.0319373 0.0221995 10.013 
9.42806 -0.0993811 -0.20173 
-0.0993811 9.34639 -0.388529 
-0.20173 -0.388529 9.58727 
9.41957 -0.0750905 -0.294814 
-0.0750905 9.46168 -0.402036 
-0.294814 -0.402036 9.48048 
9.46896 -0.0120972 -0.263139 
-0.0120972 9.53257 -0.375579 
-0.263139 -0.375579 9.3602 
9.45664 -0.095105 -0.295161 
-0.095105 9.35434 -0.50544 
-0.295161 -0.50544 9.55075 
9.7583 0.175368 -0.304467 
0.175368 9.87405 0.0942928 
-0.304467 0.0942928 9.85596 
9.51386 0.042214 -0.115844 
0.042214 9.60151 0.0533091 
-0.115844 0.0533091 10.3729 
9.69717 0.0182474 0.0427967 
0.0182474 9.6581 -0.0639222 
0.0427967 -0.0639222 10.133 
9.49417 0.0381991 -0.115268 
0.0381991 9.78949 0.0296057 
-0.115268 0.0296057 10.2046 
10.1709 0.00865262 -0.010432 
0.00865262 10.1585 0.00611934 
-0.010432 0.00611934 9.98844 
10.1854 0.00419661 -0.00729267 
0.00419661 10.1375 -0.011415 
-0.00729267 -0.011415 9.99501 
10.1815 0.0137604 -0.0247523 
0.0137604 10.1852 -5.53684e-05 
-0.0247523 -5.53684e-05 9.95121 
10.1766 0.00722752 -0.0304747 
0.00722752 10.1729 -0.00204332 
-0.0304747 -0.00204332 9.96839 
9.67101 0.0355799 -0.170103 
0.0355799 9.73249 0.135705 
-0.170103 0.135705 9.8716 
9.71516 -0.0302445 -0.363615 
-0.0302445 9.63632 0.069728 
-0.363615 0.069728 9.92363 
9.55691 0.24689 -0.137471 
0.24689 9.59292 -0.191101 
-0.137471 -0.191101 10.1253 
9.60308 0.0340331 -0.222667 
0.0340331 9.76623 0.12161 
-0.222667 0.12161 9.90579 
10.0826 -0.0517935 0.0267347 
-0.0517935 10.0908 -0.00316113 
0.0267347 -0.00316113 9.97818 
10.121 0.0377676 -0.0182876 
0.0377676 10.0417 -0.0159582 
-0.0182876 -0.0159582 9.98886 
10.1239 0.0194017 -0.00814314 
0.0194017 10.0733 -0.00836222 
-0.00814314 -0.00836222 9.95435 
10.0525 -0.0229193 -0.060717 
-0.0229193 10.1424 0.0500481 
-0.060717 0.0500481 9.95673 
7.43074 1.30711 -2.70148 
1.30711 10.4133 0.311499 
-2.70148 0.311499 10.1745 
7.4906 1.3387 -1.01064 
1.3387 9.47857 1.05211 
-1.01064 1.05211 11.0494 
11.6353 1.75372 -1.62179 
1.75372 7.97807 -0.678961 
-1.62179 -0.678961 8.40518 
7.84155 1.13081 -1.21871 
1.13081 9.67246 1.00899 
-1.21871 1.00899 10.5045 
10.013 -0.0434623 0.548756 
-0.0434623 8.02234 1.33423 
0.548756 1.33423 11.2346 
10.1618 -0.804617 -0.900333 
-0.804617 9.2864 0.465815 
-0.900333 0.465815 9.82168 
10.5175 -0.288501 0.435361 
-0.288501 9.62211 1.15094 
0.435361 1.15094 9.13034 
10.223 0.747244 0.383432 
0.747244 9.65769 1.44567 
0.383432 1.44567 9.38924 
9.78818 -0.0497211 -0.174732 
-0.0497211 9.64982 0.0224018 
-0.174732 0.0224018 9.6698 
9.76192 -0.0201981 -0.23277 
-0.0201981 9.64386 0.0324323 
-0.23277 0.0324323 9.70202 
9.76907 -0.084047 -0.17129 
-0.084047 9.68875 0.11686 
-0.17129 0.11686 9.64998 
9.7165 -0.012254 -0.0952568 
-0.012254 9.71719 0.0681251 
-0.0952568 0.0681251 9.67411 
9.93427 0.218154 -0.22634 
0.218154 5.53716 1.64105 
-0.22634 1.64105 3.29557 
8.22039 0.516197 0.472077 
0.516197 8.63862 0.847961 
0.472077 0.847961 1.90799 
7.27624 0.395973 0.349639 
0.395973 8.13801 2.29752 
0.349639 2.29752 3.35275 
7.72132 -0.68824 -0.81845 
-0.68824 8.34584 2.99513 
-0.81845 2.99513 2.69984 
9.70755 -0.0146371 0.130521 
-0.0146371 9.73046 -0.291767 
0.130521 -0.291767 9.69923 
9.70906 0.0272431 0.14285 
0.0272431 9.6675 -0.278938 
0.14285 -0.278938 9.76068 
9.7229 -0.0156241 0.145558 
-0.0156241 9.73496 -0.297111 
0.145558 -0.297111 9.67938 
9.72122 -0.0258717 0.114698 
-0.0258717 9.72664 -0.264804 
0.114698 -0.264804 9.68937 
9.52585 0.150351 -0.265823 
0.150351 9.34931 0.258934 
-0.265823 0.258934 9.92176 
9.4803 0.105078 -0.271663 
0.105078 9.56836 -0.23038 
-0.271663 -0.23038 9.74825 
9.56328 0.160363 -0.0550279 
0.160363 9.52302 0.239303 
-0.0550279 0.239303 9.71061 
9.63923 0.0930224 -0.430637 
0.0930224 9.48798 -0.187097 
-0.430637 -0.187097 9.66971 
9.74074 -0.00761411 0.176521 
-0.00761411 9.77954 -0.249451 
0.176521 -0.249451 9.73466 
9.75969 -0.00750798 0.177099 
-0.00750798 9.78418 -0.221098 
0.177099 -0.221098 9.71107 
9.73922 -0.00147939 0.160978 
-0.00147939 9.7818 -0.260751 
0.160978 -0.260751 9.73391 
9.72382 -0.00453972 0.194828 
-0.00453972 9.77902 -0.271911 
0.194828 -0.271911 9.75209 
9.74403 -0.00149902 0.0303174 
-0.00149902 9.76063 -0.319242 
0.0303174 -0.319242 9.70973 
9.77241 0.0157579 0.0295965 
0.0157579 9.77967 -0.296354 
0.0295965 -0.296354 9.66231 
9.73224 -0.00492645 0.0315626 
-0.00492645 9.7651 -0.328084 
0.0315626 -0.328084 9.71705 
9.71734 -0.00483854 0.038694 
-0.00483854 9.74655 -0.307785 
0.038694 -0.307785 9.7505 
9.16185 -0.0250543 0.100749 
-0.0250543 9.81691 0.0360448 
0.100749 0.0360448 10.1123 
9.6413 -0.0349932 -0.0655773 
-0.0349932 9.69815 0.138137 
-0.0655773 0.138137 9.75161 
9.58787 0.0235884 -0.330944 
0.0235884 9.35811 0.0723572 
-0.330944 0.0723572 10.1451 
9.33087 -0.129146 0.0227683 
-0.129146 9.66473 -0.253139 
0.0227683 -0.253139 10.0955 
9.65393 -0.0119099 0.130681 
-0.0119099 9.37365 0.283816 
0.130681 0.283816 9.6507 
9.55115 -0.15689 0.236879 
-0.15689 9.53431 0.489407 
0.236879 0.489407 9.59282 
9.61137 -0.0779424 0.316153 
-0.0779424 9.57473 0.391738 
0.316153 0.391738 9.49217 
9.53927 -0.0186204 0.217018 
-0.0186204 9.39812 0.348873 
0.217018 0.348873 9.74089 
10.0587 0.0107791 0.00197001 
0.0107791 10.0579 0.0265054 
0.00197001 0.0265054 10.0409 
10.066 0.00298345 -0.0148661 
0.00298345 10.0662 0.00087137 
-0.0148661 0.00087137 10.0253 
10.0626 -0.0267746 -0.00301291 
-0.0267746 10.0874 -0.0130188 
-0.00301291 -0.0130188 10.0076 
10.0877 -0.00363611 -0.0260173 
-0.00363611 10.0754 -0.0197945 
-0.0260173 -0.0197945 9.99437 
9.71787 -0.20158 0.554187 
-0.20158 9.47336 -0.225859 
0.554187 -0.225859 9.32565 
9.43821 -0.293503 0.380944 
-0.293503 9.44281 -0.0854616 
0.380944 -0.0854616 9.63587 
9.44957 -0.26795 0.614082 
-0.26795 9.23197 -0.371523 
0.614082 -0.371523 9.83535 
9.44031 -0.235755 0.358624 
-0.235755 9.44627 -0.186591 
0.358624 -0.186591 9.63031 
9.81108 0.0199244 -0.312808 
0.0199244 9.79191 0.00382018 
-0.312808 0.00382018 9.78079 
9.78127 0.0102505 -0.323547 
0.0102505 9.74002 -0.0123687 
-0.323547 -0.0123687 9.86249 
9.81125 0.00819134 -0.305267 
0.00819134 9.81034 -0.0119019 
-0.305267 -0.0119019 9.7622 
9.82579 -0.0107787 -0.284407 
-0.0107787 9.80496 0.0421656 
-0.284407 0.0421656 9.75302 
9.84155 0.141406 0.0168403 
0.141406 9.55591 -0.140022 
0.0168403 -0.140022 10.1058 
9.72202 -0.0423699 -0.0881189 
-0.0423699 9.86613 -0.268703 
-0.0881189 -0.268703 9.91511 
9.74948 -0.200294 -0.00235282 
-0.200294 9.85865 -0.0673896 
-0.00235282 -0.0673896 9.89514 
9.97711 0.0628552 -0.18213 
0.0628552 9.74999 -0.300523 
-0.18213 -0.300523 9.77615 
9.93222 -0.0186349 -0.0404065 
-0.0186349 9.96431 -0.0198384 
-0.0404065 -0.0198384 9.96988 
9.98146 0.0217434 -0.0390908 
0.0217434 10.0055 -0.0912157 
-0.0390908 -0.0912157 9.87943 
10.0178 0.0231315 -0.0757583 
0.0231315 9.99464 -0.0527245 
-0.0757583 -0.0527245 9.85394 
9.9321 -0.000513542 -0.075119 
-0.000513542 9.96014 -0.0479674 
-0.075119 -0.0479674 9.97416 
9.7312 0.050583 0.0416226 
0.050583 9.76078 -0.0839965 
0.0416226 -0.0839965 9.89125 
9.73339 0.0200961 0.028083 
0.0200961 9.6702 -0.0692616 
0.028083 -0.0692616 9.97965 
9.71137 0.0148346 0.0319274 
0.0148346 9.7135 -0.052568 
0.0319274 -0.052568 9.95836 
9.6606 -0.0101709 -0.0266196 
-0.0101709 9.75643 0.0246171 
-0.0266196 0.0246171 9.9662 
9.72622 -0.00303855 0.111604 
-0.00303855 9.74883 -0.304838 
0.111604 -0.304838 9.84732 
9.77787 -0.0281543 0.109749 
-0.0281543 9.77848 -0.269744 
0.109749 -0.269744 9.76602 
9.78877 0.00560069 0.12154 
0.00560069 9.81796 -0.306129 
0.12154 -0.306129 9.71564 
9.78166 -0.0332655 0.106562 
-0.0332655 9.77188 -0.284653 
0.106562 -0.284653 9.76883 
9.35428 0.0252234 -0.343187 
0.0252234 9.59288 0.0921607 
-0.343187 0.0921607 9.60404 
9.2468 -0.0275028 -0.253975 
-0.0275028 9.69698 0.128638 
-0.253975 0.128638 9.60741 
9.3611 -0.103097 -0.40219 
-0.103097 9.60463 0.182115 
-0.40219 0.182115 9.58546 
9.43763 0.129421 -0.437438 
0.129421 9.52586 0.0374975 
-0.437438 0.0374975 9.5877 
9.15029 0.743766 5.73223 
0.743766 7.67351 1.99971 
5.73223 1.99971 8.02904 
7.34381 -0.936073 5.50273 
-0.936073 11.58 2.11475 
5.50273 2.11475 5.92904 
5.80859 -0.453426 3.02797 
-0.453426 10.5112 1.17705 
3.02797 1.17705 8.53301 
11.8615 -0.256542 -0.35057 
-0.256542 6.59847 0.118794 
-0.35057 0.118794 6.39288 
9.71317 0.003575 -0.279239 
0.003575 9.76998 -0.00193505 
-0.279239 -0.00193505 9.92512 
9.8279 0.00113702 -0.245529 
0.00113702 9.87074 -0.0198255 
-0.245529 -0.0198255 9.70963 
9.72102 0.00218336 -0.197903 
0.00218336 9.80741 0.0491149 
-0.197903 0.0491149 9.87984 
9.75992 -0.0141486 -0.230233 
-0.0141486 9.79941 0.0132342 
-0.230233 0.0132342 9.84894 
10.1836 -0.0780001 0.022934 
-0.0780001 10.0946 -0.0526919 
0.022934 -0.0526919 9.98585 
10.1056 0.0177205 0.0334976 
0.0177205 10.1875 0.0141675 
0.0334976 0.0141675 9.97096 
10.1356 -0.00132546 0.0237142 
-0.00132546 10.1467 0.00809286 
0.0237142 0.00809286 9.98169 
10.1727 0.0199384 -0.0251425 
0.0199384 10.0667 0.0549384 
-0.0251425 0.0549384 10.0246 
9.72334 0.00634116 0.308723 
0.00634116 9.7056 0.123734 
0.308723 0.123734 9.71417 
9.74049 0.0147859 0.273102 
0.0147859 9.67816 0.147143 
0.273102 0.147143 9.72446 
9.7279 0.0178972 0.319263 
0.0178972 9.70529 0.136508 
0.319263 0.136508 9.70992 
9.72039 0.0257193 0.316922 
0.0257193 9.71976 0.126887 
0.316922 0.126887 9.70296 
10.0347 0.02029 -0.0107011 
0.02029 10.0944 0.00440823 
-0.0107011 0.00440823 9.98374 
10.0814 -0.0445911 0.00906259 
-0.0445911 10.0382 -0.0170028 
0.00906259 -0.0170028 9.99332 
10.079 -0.0140863 0.00119767 
-0.0140863 10.0708 -0.0145529 
0.00119767 -0.0145529 9.96306 
10.0675 0.0571895 -0.0163273 
0.0571895 10.1025 -0.0855962 
-0.0163273 -0.0855962 9.94286 
8.99357 -1.14987 0.811641 
-1.14987 11.7446 0.31304 
0.811641 0.31304 10.3032 
11.5258 -0.59708 1.32326 
-0.59708 9.45109 2.68812 
1.32326 2.68812 10.0645 
11.4454 -0.715123 1.3939 
-0.715123 6.8154 1.37949 
1.3939 1.37949 12.7806 
10.3055 -1.33083 1.20263 
-1.33083 9.57359 1.69141 
1.20263 1.69141 11.1623 
10.0016 0.13388 0.394448 
0.13388 10.3735 -0.426349 
0.394448 -0.426349 9.13055 
9.79973 0.380899 -0.186761 
0.380899 10.0328 -0.0938289 
-0.186761 -0.0938289 9.67309 
10.3333 0.107461 0.62823 
0.107461 10.4851 0.439347 
0.62823 0.439347 8.68724 
10.1733 0.155188 0.332247 
0.155188 10.2684 -0.257916 
0.332247 -0.257916 9.06396 
9.88261 0.263128 0.126695 
0.263128 9.37923 -0.776138 
0.126695 -0.776138 9.85793 
10.2013 -0.159306 0.0110376 
-0.159306 9.29925 -0.104832 
0.0110376 -0.104832 9.61918 
10.1951 -0.501043 0.35284 
-0.501043 8.60645 -0.396525 
0.35284 -0.396525 10.3182 
9.59596 -0.222083 -0.0845306 
-0.222083 9.76517 0.109852 
-0.0845306 0.109852 9.75863 
9.51718 0.129038 -0.0217764 
0.129038 9.27118 -0.179945 
-0.0217764 -0.179945 9.26083 
9.62088 0.246475 -0.303799 
0.246475 9.19298 -0.479314 
-0.303799 -0.479314 9.23533 
9.43226 -0.0275918 -0.253176 
-0.0275918 9.18863 -0.265903 
-0.253176 -0.265903 9.42831 
9.60713 0.16421 -0.106941 
0.16421 9.11232 -0.349609 
-0.106941 -0.349609 9.32974 
9.58364 -0.0875877 -0.117396 
-0.0875877 9.89737 -0.256841 
-0.117396 -0.256841 9.3187 
9.66122 -0.201773 -0.00611895 
-0.201773 9.80176 -0.422849 
-0.00611895 -0.422849 9.33674 
9.61517 0.023624 0.416872 
0.023624 9.64927 -0.212896 
0.416872 -0.212896 9.53527 
9.50859 -0.273997 -0.00984019 
-0.273997 9.94352 -0.0990655 
-0.00984019 -0.0990655 9.3476 
9.58726 -0.374417 -0.154116 
-0.374417 10.1899 -0.949002 
-0.154116 -0.949002 8.70482 
9.20026 -0.171426 0.0180126 
-0.171426 9.27828 -0.211608 
0.0180126 -0.211608 10.0034 
8.5916 -0.484204 -0.173145 
-0.484204 10.904 -0.747881 
-0.173145 -0.747881 8.98641 
10.2188 -1.40438 -1.53935 
-1.40438 8.03087 -2.5582 
-1.53935 -2.5582 10.2323 
9.77892 -0.00262855 -0.319036 
-0.00262855 9.74711 -0.0185574 
-0.319036 -0.0185574 9.72264 
9.75313 0.00861725 -0.334572 
0.00861725 9.7404 -0.0309996 
-0.334572 -0.0309996 9.75514 
9.75809 0.0325466 -0.274859 
0.0325466 9.82551 -0.0265545 
-0.274859 -0.0265545 9.66507 
9.78007 -0.00684883 -0.315611 
-0.00684883 9.73706 -0.0126327 
-0.315611 -0.0126327 9.73155 
9.73717 -0.0353893 0.0926921 
-0.0353893 9.57142 0.420581 
0.0926921 0.420581 9.51815 
9.81765 0.00866196 0.135335 
0.00866196 9.66692 0.393962 
0.135335 0.393962 9.34218 
9.66429 -0.0624936 0.114645 
-0.0624936 9.56466 0.478464 
0.114645 0.478464 9.5978 
9.60075 0.00819674 0.0237784 
0.00819674 9.53917 0.247418 
0.0237784 0.247418 9.68683 
9.8803 -0.15234 -0.0240566 
-0.15234 10.0099 -0.0873257 
-0.0240566 -0.0873257 10.0661 
10.0602 0.0544785 -0.0131367 
0.0544785 9.96947 -0.069088 
-0.0131367 -0.069088 9.92655 
9.99979 -0.00410605 -0.0917976 
-0.00410605 10.0135 -0.0693738 
-0.0917976 -0.0693738 9.94293 
10.0079 -0.0333391 -0.0751235 
-0.0333391 10.0164 -0.0895351 
-0.0751235 -0.0895351 9.93197 
8.53594 -0.283988 -1.26334 
-0.283988 8.92088 0.484044 
-1.26334 0.484044 8.11129 
9.75065 -0.410242 -1.18369 
-0.410242 9.32278 -0.329092 
-1.18369 -0.329092 6.49468 
9.1371 -0.259 -1.65593 
-0.259 10.1198 0.200883 
-1.65593 0.200883 6.31117 
9.4132 -0.440657 -0.667363 
-0.440657 9.41895 -0.362709 
-0.667363 -0.362709 6.73596 
9.55186 -0.177549 -0.0858404 
-0.177549 9.62399 -0.0937421 
-0.0858404 -0.0937421 9.42533 
9.59708 -0.152315 -0.0284833 
-0.152315 9.67082 -0.157353 
-0.0284833 -0.157353 9.33327 
9.52266 -0.0529459 -0.0421013 
-0.0529459 9.67899 -0.189317 
-0.0421013 -0.189317 9.39953 
9.41483 -0.000515568 -0.0825815 
-0.000515568 9.66176 -0.407963 
-0.0825815 -0.407963 9.52458 
10.6608 -0.284762 0.043691 
-0.284762 12.2299 0.0366186 
0.043691 0.0366186 11.8361 
11.8507 1.42601 -0.0615941 
1.42601 11.2522 -0.23796 
-0.0615941 -0.23796 11.6239 
10.9369 -0.466622 -0.0840154 
-0.466622 11.1424 -0.216282 
-0.0840154 -0.216282 12.6476 
11.2668 -0.218294 0.642884 
-0.218294 11.6106 0.497882 
0.642884 0.497882 11.8494 
9.91839 0.135593 -0.0304414 
0.135593 9.41304 0.140648 
-0.0304414 0.140648 9.6745 
9.65221 0.0443885 0.100509 
0.0443885 9.63009 0.11978 
0.100509 0.11978 9.72362 
9.96154 0.20062 0.0319003 
0.20062 9.20917 0.311536 
0.0319003 0.311536 9.83522 
9.52604 0.0333751 0.168619 
0.0333751 9.47392 -0.240388 
0.168619 -0.240388 10.006 
10.1294 -0.0163991 0.0441735 
-0.0163991 10.0843 -0.0252858 
0.0441735 -0.0252858 9.92686 
10.0878 -0.0179272 0.0560755 
-0.0179272 10.0337 -0.0381485 
0.0560755 -0.0381485 10.0191 
10.0341 0.0400614 0.0166936 
0.0400614 10.1044 0.00327669 
0.0166936 0.00327669 10.002 
10.0267 0.0247523 0.0700271 
0.0247523 10.1351 0.060836 
0.0700271 0.060836 9.97881 
9.60973 -0.0132612 -0.365888 
-0.0132612 9.57675 0.0793031 
-0.365888 0.0793031 9.66069 
9.61483 -0.00299521 -0.378034 
-0.00299521 9.62599 0.0305627 
-0.378034 0.0305627 9.60634 
9.60565 -0.00893467 -0.337303 
-0.00893467 9.61629 0.0556452 
-0.337303 0.0556452 9.62522 
9.60805 -0.0239478 -0.329662 
-0.0239478 9.62006 0.0801126 
-0.329662 0.0801126 9.61906 
9.88045 0.116426 0.0589803 
0.116426 9.8323 -0.0211818 
0.0589803 -0.0211818 10.1766 
9.9182 0.0412056 0.107791 
0.0412056 9.94111 -0.0780922 
0.107791 -0.0780922 10.0301 
10.0748 0.0226978 -0.0039937 
0.0226978 10.0467 -0.0939707 
-0.0039937 -0.0939707 9.7679 
9.966 0.0380747 0.175597 
0.0380747 9.93486 -0.182323 
0.175597 -0.182323 9.98851 
9.58022 -0.0451929 0.106544 
-0.0451929 9.66898 -0.262578 
0.106544 -0.262578 9.59308 
9.6596 -0.0559458 0.147183 
-0.0559458 9.62922 -0.21677 
0.147183 -0.21677 9.55346 
9.63598 -0.0563101 0.130808 
-0.0563101 9.67385 -0.241061 
0.130808 -0.241061 9.53246 
9.64236 -0.0521111 0.142334 
-0.0521111 9.75382 -0.241046 
0.142334 -0.241046 9.44612 
9.82666 0.00800905 -0.0618648 
0.00800905 9.8148 0.105156 
-0.0618648 0.105156 9.89044 
9.83615 -0.011112 -0.0381766 
-0.011112 9.84111 0.117686 
-0.0381766 0.117686 9.85464 
9.86061 -0.0180478 -0.0536536 
-0.0180478 9.82948 0.175025 
-0.0536536 0.175025 9.84181 
9.76795 -0.0398589 0.000771492 
-0.0398589 9.96279 0.104907 
0.000771492 0.104907 9.80116 
10.2788 0.0178927 0.476767 
0.0178927 10.4219 -0.642389 
0.476767 -0.642389 13.6254 
10.8254 0.0662948 -0.219693 
0.0662948 11.7971 0.421391 
-0.219693 0.421391 11.7037 
11.7166 -0.0796148 -0.368134 
-0.0796148 12.3612 0.72859 
-0.368134 0.72859 10.2484 
10.6106 1.08972 -0.999513 
1.08972 10.8322 0.833299 
-0.999513 0.833299 12.8834 
9.63038 0.0212262 -0.00176669 
0.0212262 9.74054 0.0814431 
-0.00176669 0.0814431 9.91629 
9.68369 -0.00301462 -0.00927454 
-0.00301462 9.69905 0.000526904 
-0.00927454 0.000526904 9.90447 
9.71367 0.00942782 -0.0244475 
0.00942782 9.71733 -0.0328012 
-0.0244475 -0.0328012 9.85622 
9.6286 0.00342194 -0.00775824 
0.00342194 9.68736 -0.0206087 
-0.00775824 -0.0206087 9.97125 
9.98983 0.0177414 0.0333143 
0.0177414 10.0988 0.0411428 
0.0333143 0.0411428 10.0168 
10.0468 0.0102334 0.0910201 
0.0102334 10.0804 0.0160277 
0.0910201 0.0160277 9.97818 
10.1449 -0.0563475 0.080857 
-0.0563475 10.0383 0.0333662 
0.080857 0.0333662 9.92218 
10.0542 0.021925 0.0871173 
0.021925 10.0626 0.011759 
0.0871173 0.011759 9.98851 
9.6597 0.000317024 0.214104 
0.000317024 9.64328 -0.151887 
0.214104 -0.151887 9.62441 
9.6867 -0.0481105 0.190261 
-0.0481105 9.59734 -0.118976 
0.190261 -0.118976 9.64335 
9.68594 -0.0179682 0.196364 
-0.0179682 9.62284 -0.107577 
0.196364 -0.107577 9.61861 
9.68795 -0.0248235 0.204294 
-0.0248235 9.6267 -0.12731 
0.204294 -0.12731 9.61273 
9.62678 -0.00829937 0.235103 
-0.00829937 9.61569 0.285617 
0.235103 0.285617 9.61991 
9.64039 -0.00781649 0.218389 
-0.00781649 9.63098 0.282735 
0.218389 0.282735 9.59101 
9.66873 -0.03644 0.219325 
-0.03644 9.61533 0.291162 
0.219325 0.291162 9.57832 
9.64488 -0.00549765 0.219165 
-0.00549765 9.61059 0.284133 
0.219165 0.284133 9.60691 
9.34711 -0.166543 0.59042 
-0.166543 9.88614 0.811733 
0.59042 0.811733 9.08928 
9.4941 -0.0978873 0.453811 
-0.0978873 9.53548 0.336906 
0.453811 0.336906 9.29295 
9.51083 -0.24027 0.513036 
-0.24027 9.92712 0.812205 
0.513036 0.812205 8.88458 
9.45668 -0.139903 0.135138 
-0.139903 9.36787 0.643816 
0.135138 0.643816 9.49798 
9.85849 -0.00483789 0.00363686 
-0.00483789 9.87517 0.00159577 
0.00363686 0.00159577 9.99552 
9.88488 0.00284136 0.0077051 
0.00284136 9.86992 -0.00149253 
0.0077051 -0.00149253 9.97439 
9.85798 -0.00763571 -0.00137943 
-0.00763571 9.89087 -0.0297546 
-0.00137943 -0.0297546 9.98033 
9.88455 0.000659596 0.00215018 
0.000659596 9.88013 -0.0281945 
0.00215018 -0.0281945 9.96451 
9.56371 0.526678 0.243208 
0.526678 11.4764 -0.324205 
0.243208 -0.324205 11.6546 
10.4484 0.250904 0.622399 
0.250904 10.4176 -0.801304 
0.622399 -0.801304 11.8287 
11.5948 0.472633 0.513064 
0.472633 10.2603 -0.511957 
0.513064 -0.511957 10.8396 
9.69794 0.763103 0.603201 
0.763103 10.8859 -0.0784003 
0.603201 -0.0784003 12.1109 
9.21671 1.46038 -0.243109 
1.46038 11.461 0.510771 
-0.243109 0.510771 14.9802 
11.6879 0.908256 0.243447 
0.908256 11.0332 0.354565 
0.243447 0.354565 12.9368 
11.4501 0.136612 -0.063854 
0.136612 11.7143 0.527457 
-0.063854 0.527457 12.4936 
11.4061 0.861259 0.758046 
0.861259 11.528 -0.203989 
0.758046 -0.203989 12.7238 
9.62801 -0.0256994 0.333151 
-0.0256994 9.67413 0.14405 
0.333151 0.14405 9.69502 
9.64528 -0.00865369 0.300819 
-0.00865369 9.67468 0.144093 
0.300819 0.144093 9.6772 
9.71334 0.0480217 0.263029 
0.0480217 9.64034 0.152365 
0.263029 0.152365 9.64349 
9.60485 0.0201509 0.308498 
0.0201509 9.67417 0.112543 
0.308498 0.112543 9.71814 
9.6414 -0.0525482 -0.281952 
-0.0525482 9.56118 0.237205 
-0.281952 0.237205 9.48464 
9.61396 0.0196306 -0.295836 
0.0196306 9.60157 0.171381 
-0.295836 0.171381 9.4717 
9.67265 -0.0972104 -0.34659 
-0.0972104 9.59433 0.181806 
-0.34659 0.181806 9.42024 
9.62623 0.0140723 -0.303164 
0.0140723 9.61792 0.189045 
-0.303164 0.189045 9.44307 
10.1431 -0.0596911 0.0908929 
-0.0596911 9.92252 -0.0168637 
0.0908929 -0.0168637 9.86195 
9.81079 0.0543629 -0.00697528 
0.0543629 10.071 -0.111816 
-0.00697528 -0.111816 10.0458 
9.96699 -0.0211273 0.202508 
-0.0211273 9.98311 -0.0338428 
0.202508 -0.0338428 9.97752 
9.94161 0.0125313 0.0780441 
0.0125313 10.046 -0.0901998 
0.0780441 -0.0901998 9.94005 
9.6769 -0.846892 0.778251 
-0.846892 11.5343 -0.30848 
0.778251 -0.30848 12.0415 
10.6185 -0.15433 -0.206787 
-0.15433 9.42475 -1.58422 
-0.206787 -1.58422 13.2095 
10.6544 -0.856836 -0.829066 
-0.856836 9.30898 -0.0337884 
-0.829066 -0.0337884 13.2893 
10.7483 -0.721522 -0.503996 
-0.721522 9.94572 -0.47069 
-0.503996 -0.47069 12.5587 
11.236 0.722322 0.41939 
0.722322 11.0545 -0.580627 
0.41939 -0.580627 12.4181 
12.6018 0.602487 -0.464452 
0.602487 10.3955 -0.403786 
-0.464452 -0.403786 11.7112 
11.2674 0.226339 0.241095 
0.226339 11.0691 -0.281265 
0.241095 -0.281265 12.372 
12.0494 0.873763 0.221432 
0.873763 11.2144 -0.190871 
0.221432 -0.190871 11.4448 
9.75089 -0.0532906 0.262712 
-0.0532906 9.70858 -0.249047 
0.262712 -0.249047 9.96363 
9.77728 0.0558222 0.140238 
0.0558222 9.67888 -0.120112 
0.140238 -0.120112 9.96694 
9.76724 0.0312819 0.206692 
0.0312819 9.77948 -0.145752 
0.206692 -0.145752 9.87638 
9.88562 0.0526611 0.243877 
0.0526611 9.80689 -0.0919163 
0.243877 -0.0919163 9.73059 
9.81106 -0.0233004 -0.103863 
-0.0233004 9.80418 0.0916266 
-0.103863 0.0916266 9.77834 
9.82243 -0.0538732 -0.0608721 
-0.0538732 9.81002 0.0756657 
-0.0608721 0.0756657 9.76114 
9.76335 0.0117195 -0.0598937 
0.0117195 9.80299 0.0765988 
-0.0598937 0.0765988 9.82724 
9.78657 -0.0330837 -0.0259723 
-0.0330837 9.79405 0.128877 
-0.0259723 0.128877 9.81297 
8.22292 0.868713 -0.0040691 
0.868713 9.23627 1.16037 
-0.0040691 1.16037 7.19881 
9.95042 0.763175 -0.0298161 
0.763175 7.83838 1.83752 
-0.0298161 1.83752 6.86919 
9.86087 0.622335 -0.238583 
0.622335 8.20048 1.73479 
-0.238583 1.73479 6.59665 
10.1452 0.393523 0.00739802 
0.393523 7.88166 2.1905 
0.00739802 2.1905 6.63116 
9.67539 0.00544601 0.306273 
0.00544601 9.66954 -0.147602 
0.306273 -0.147602 9.68081 
9.68036 0.0220489 0.307147 
0.0220489 9.69138 -0.125292 
0.307147 -0.125292 9.654 
9.70075 -0.0320581 0.28235 
-0.0320581 9.6768 -0.138613 
0.28235 -0.138613 9.64819 
9.68409 0.011236 0.28896 
0.011236 9.65959 -0.150572 
0.28896 -0.150572 9.68206 
9.77125 0.00413665 -0.294913 
0.00413665 9.76612 -0.106514 
-0.294913 -0.106514 9.75104 
9.75728 -0.00217648 -0.278316 
-0.00217648 9.77405 -0.0919933 
-0.278316 -0.0919933 9.75708 
9.7585 0.0148857 -0.284357 
0.0148857 9.77995 -0.113417 
-0.284357 -0.113417 9.74996 
9.78881 0.0175676 -0.302161 
0.0175676 9.71518 -0.101142 
-0.302161 -0.101142 9.78441 
9.68905 0.0183163 0.164701 
0.0183163 9.36931 -0.235868 
0.164701 -0.235868 9.61169 
9.49141 -0.32407 -0.0613747 
-0.32407 9.50456 -0.317369 
-0.0613747 -0.317369 9.67408 
9.81705 0.626754 0.198889 
0.626754 9.12906 -1.3495 
0.198889 -1.3495 9.72394 
9.18433 0.0566227 -0.186792 
0.0566227 9.25522 -0.108134 
-0.186792 -0.108134 10.2305 
9.67714 -0.0194689 -0.132419 
-0.0194689 9.73189 0.305916 
-0.132419 0.305916 9.70353 
9.67752 -0.0287679 -0.123941 
-0.0287679 9.74993 0.287007 
-0.123941 0.287007 9.68511 
9.68425 -0.0106601 -0.129688 
-0.0106601 9.71514 0.299575 
-0.129688 0.299575 9.71317 
9.68619 -0.0134591 -0.105312 
-0.0134591 9.7274 0.30332 
-0.105312 0.30332 9.69898 
9.54311 0.0726081 -0.476448 
0.0726081 9.40578 -0.19133 
-0.476448 -0.19133 9.66357 
9.59064 0.11969 -0.362675 
0.11969 9.6068 -0.213637 
-0.362675 -0.213637 9.41503 
9.60142 0.0867701 -0.476316 
0.0867701 9.41162 -0.147751 
-0.476316 -0.147751 9.59942 
9.62118 0.0902575 -0.49764 
0.0902575 9.41149 -0.137309 
-0.49764 -0.137309 9.57979 
9.72244 -0.0133252 0.0665592 
-0.0133252 9.75871 -0.311611 
0.0665592 -0.311611 9.72698 
9.74332 -0.0105846 0.0858339 
-0.0105846 9.77121 -0.290758 
0.0858339 -0.290758 9.6936 
9.73557 0.000895513 0.0816731 
0.000895513 9.75274 -0.311167 
0.0816731 -0.311167 9.71983 
9.71186 -0.00428566 0.0523148 
-0.00428566 9.74397 -0.302379 
0.0523148 -0.302379 9.75231 
9.82181 0.00990905 -0.0367799 
0.00990905 9.81007 -0.0453002 
-0.0367799 -0.0453002 9.94343 
9.83689 -0.0291571 0.0359278 
-0.0291571 9.82483 0.00525803 
0.0359278 0.00525803 9.9136 
9.83216 0.00301989 0.0150326 
0.00301989 9.82295 -0.00153165 
0.0150326 -0.00153165 9.92021 
9.84475 0.0115786 0.0278783 
0.0115786 9.80801 -0.00904334 
0.0278783 -0.00904334 9.92256 
9.43393 -0.0383983 -0.283421 
-0.0383983 10.0675 -0.0903348 
-0.283421 -0.0903348 11.4634 
9.50414 -0.000394792 -0.111361 
-0.000394792 10.1732 0.084172 
-0.111361 0.084172 11.2875 
10.2667 -0.0428209 -0.313005 
-0.0428209 10.3043 0.219868 
-0.313005 0.219868 10.3938 
9.1221 -0.586119 0.0932312 
-0.586119 10.7583 0.344877 
0.0932312 0.344877 11.0844 
9.74726 -0.0810169 -0.0608733 
-0.0810169 9.8218 0.108163 
-0.0608733 0.108163 9.74505 
9.72062 -0.0479992 -0.073375 
-0.0479992 9.83121 0.128463 
-0.073375 0.128463 9.76228 
9.78566 -0.0759286 -0.0353305 
-0.0759286 9.8303 0.235427 
-0.0353305 0.235427 9.69815 
9.77985 -0.0137173 0.00360369 
-0.0137173 9.81027 0.156912 
0.00360369 0.156912 9.724 
9.22508 -0.330654 -0.149236 
-0.330654 8.70578 -0.991134 
-0.149236 -0.991134 -2.59506 
2.35675 -0.233338 -0.598851 
-0.233338 1.35999 -0.315637 
-0.598851 -0.315637 11.6191 
9.36373 -0.165631 1.82942 
-0.165631 10.2834 0.0833777 
1.82942 0.0833777 -4.31133 
7.8083 2.38492 3.00044 
2.38492 6.46039 -10.6904 
3.00044 -10.6904 1.0671 
9.5893 -0.0315249 -0.367743 
-0.0315249 9.41045 0.339637 
-0.367743 0.339637 9.60911 
9.6026 -0.0777426 -0.31455 
-0.0777426 9.33279 0.36154 
-0.31455 0.36154 9.67347 
9.63329 0.0662505 -0.475962 
0.0662505 9.45896 0.198112 
-0.475962 0.198112 9.51661 
9.61827 -0.0315952 -0.389455 
-0.0315952 9.41843 0.333964 
-0.389455 0.333964 9.57216 
10.2261 -0.39309 0.0673532 
-0.39309 10.0348 0.167199 
0.0673532 0.167199 9.07066 
9.98341 0.0949456 -0.0978285 
0.0949456 10.0021 0.0568653 
-0.0978285 0.0568653 9.34594 
10.1002 0.140998 -0.296796 
0.140998 9.99201 0.277422 
-0.296796 0.277422 9.23927 
10.0811 0.144968 0.0130155 
0.144968 9.81009 0.0311244 
0.0130155 0.0311244 9.44029 
9.86842 -0.00510323 0.140165 
-0.00510323 9.88337 -0.0726555 
0.140165 -0.0726555 9.88371 
9.87979 -0.033193 0.170476 
-0.033193 9.88117 -0.0370546 
0.170476 -0.0370546 9.87455 
9.91037 0.0161105 0.151261 
0.0161105 9.89759 -0.0660283 
0.151261 -0.0660283 9.82755 
9.8581 -0.00452436 0.150748 
-0.00452436 9.90779 -0.0749882 
0.150748 -0.0749882 9.86962 
10.366 -1.7254 -0.27827 
-1.7254 9.00505 -0.669074 
-0.27827 -0.669074 18.3379 
9.9557 -0.908844 1.02541 
-0.908844 8.6112 2.01333 
1.02541 2.01333 19.1421 
15.2207 -0.649239 -0.511738 
-0.649239 13.2139 -0.837114 
-0.511738 -0.837114 9.27437 
11.5045 -2.77441 -6.35275 
-2.77441 11.0482 2.11191 
-6.35275 2.11191 15.1563 
8.86676 0.0562624 0.855759 
0.0562624 9.77197 -0.466678 
0.855759 -0.466678 10.2774 
9.41721 -0.0143565 0.278749 
-0.0143565 9.68684 -0.0985618 
0.278749 -0.0985618 9.8121 
9.69492 0.0207969 0.475447 
0.0207969 9.77774 -0.246431 
0.475447 -0.246431 9.44348 
9.6787 0.196943 0.424021 
0.196943 9.61283 -0.188337 
0.424021 -0.188337 9.62461 
9.77461 0.00205063 0.0346454 
0.00205063 9.75788 -0.307025 
0.0346454 -0.307025 9.76882 
9.77644 0.00535468 0.0135291 
0.00535468 9.81862 -0.343433 
0.0135291 -0.343433 9.70625 
9.75905 -0.017602 0.00180085 
-0.017602 9.71465 -0.29898 
0.00180085 -0.29898 9.82761 
9.7606 -0.00600463 0.0501135 
-0.00600463 9.80124 -0.302292 
0.0501135 -0.302292 9.73946 
10.5727 0.295374 -0.288595 
0.295374 9.2543 0.0360046 
-0.288595 0.0360046 8.85087 
8.25537 -0.0490575 -0.556407 
-0.0490575 10.4429 0.623088 
-0.556407 0.623088 9.97958 
10.5031 -0.02812 0.287912 
-0.02812 9.03737 -1.13601 
0.287912 -1.13601 9.13741 
9.00483 -0.672342 -0.412738 
-0.672342 8.05065 -0.469698 
-0.412738 -0.469698 11.6224 
9.37637 -0.656164 1.621 
-0.656164 8.7932 0.936451 
1.621 0.936451 7.44433 
9.46998 -0.772331 1.76509 
-0.772331 8.60024 1.02389 
1.76509 1.02389 7.54368 
9.38968 -0.576579 2.1809 
-0.576579 8.69585 1.09616 
2.1809 1.09616 7.52837 
8.83778 -0.38147 0.386215 
-0.38147 8.3529 2.48913 
0.386215 2.48913 8.42322 
10.1011 0.00181849 -0.00979054 
0.00181849 10.1189 -0.000577196 
-0.00979054 -0.000577196 10.0188 
10.1266 -0.00917112 0.010358 
-0.00917112 10.1117 -0.00719153 
0.010358 -0.00719153 10.0005 
10.1277 -0.00825375 0.00564056 
-0.00825375 10.1068 -0.00469867 
0.00564056 -0.00469867 10.0042 
10.1148 0.011912 0.00266609 
0.011912 10.1369 -0.0291143 
0.00266609 -0.0291143 9.98711 
11.653 2.32621 0.578593 
2.32621 4.05426 -0.185361 
0.578593 -0.185361 19.5477 
9.5216 1.8104 -0.642936 
1.8104 6.74928 -0.542621 
-0.642936 -0.542621 18.9841 
12.8232 1.75187 -0.827912 
1.75187 11.4155 1.59879 
-0.827912 1.59879 11.0163 
11.2379 0.449507 0.283171 
0.449507 9.96406 -1.8857 
0.283171 -1.8857 14.053 
7.07439 0.0761367 1.74625 
0.0761367 8.56381 -0.590729 
1.74625 -0.590729 0.779655 
8.14595 0.820523 2.56284 
0.820523 7.85213 -0.829455 
2.56284 -0.829455 0.41978 
7.90929 0.0713798 1.136 
0.0713798 8.04098 -0.474844 
1.136 -0.474844 0.467593 
9.27486 -0.931348 2.31562 
-0.931348 5.48699 -1.65199 
2.31562 -1.65199 1.65601 
9.89426 -0.0198188 -0.176885 
-0.0198188 9.85114 0.0442237 
-0.176885 0.0442237 9.83259 
9.88789 0.000382285 -0.159359 
0.000382285 9.85624 0.0455009 
-0.159359 0.0455009 9.83387 
9.88888 -0.0143482 -0.16919 
-0.0143482 9.86758 0.0453594 
-0.16919 0.0453594 9.82153 
9.88762 -0.0179661 -0.197204 
-0.0179661 9.83954 0.0406925 
-0.197204 0.0406925 9.85084 
9.63588 -0.066987 -0.0853489 
-0.066987 9.75426 -0.0536599 
-0.0853489 -0.0536599 9.79817 
9.6345 -0.0203211 0.0187063 
-0.0203211 9.70274 -0.00898608 
0.0187063 -0.00898608 9.85108 
9.66985 -0.06283 0.0179791 
-0.06283 9.68244 -0.0139686 
0.0179791 -0.0139686 9.83602 
9.66141 0.0335535 0.00972093 
0.0335535 9.70615 0.026969 
0.00972093 0.026969 9.82076 
9.59083 -0.131159 0.253543 
-0.131159 9.54439 0.342382 
0.253543 0.342382 9.27671 
9.53394 -0.131294 0.182356 
-0.131294 9.47338 0.429037 
0.182356 0.429037 9.40461 
9.44829 0.063008 0.428276 
0.063008 9.46375 0.633755 
0.428276 0.633755 9.49988 
9.47088 0.0685987 0.228777 
0.0685987 9.50031 0.405928 
0.228777 0.405928 9.44075 
10.0072 0.000563059 -0.00303267 
0.000563059 10.0281 -0.0223098 
-0.00303267 -0.0223098 10.0001 
10.0481 0.00674676 -0.0434323 
0.00674676 10.0339 -0.0161892 
-0.0434323 -0.0161892 9.95342 
10.0088 0.00465062 -0.0222442 
0.00465062 10.0229 -0.0194635 
-0.0222442 -0.0194635 10.0037 
10.057 0.0256465 -0.0400484 
0.0256465 10.0409 -0.055152 
-0.0400484 -0.055152 9.93753 
7.94624 -0.200954 2.0952 
-0.200954 11.5492 0.0059779 
2.0952 0.0059779 7.29139 
8.05106 -0.0790377 1.56541 
-0.0790377 12.1473 -0.00432264 
1.56541 -0.00432264 6.58846 
8.84617 -0.0892036 2.85516 
-0.0892036 11.4272 -0.371612 
2.85516 -0.371612 6.51345 
7.40597 -0.557787 2.01172 
-0.557787 9.92118 1.44138 
2.01172 1.44138 9.45967 
9.60899 0.000667947 0.281552 
0.000667947 9.64941 -0.164786 
0.281552 -0.164786 9.62226 
9.59973 -0.0167547 0.343574 
-0.0167547 9.6192 -0.179488 
0.343574 -0.179488 9.66173 
9.53486 0.00208791 0.335071 
0.00208791 9.5723 -0.115072 
0.335071 -0.115072 9.77349 
9.59311 0.00396568 0.338011 
0.00396568 9.65308 -0.163009 
0.338011 -0.163009 9.63446 
9.67214 -0.013959 -0.296014 
-0.013959 9.64917 0.132035 
-0.296014 0.132035 9.66307 
9.65618 -0.0130882 -0.298334 
-0.0130882 9.64846 0.110963 
-0.298334 0.110963 9.67973 
9.66019 -0.0208389 -0.305604 
-0.0208389 9.64055 0.108417 
-0.305604 0.108417 9.68363 
9.65338 -0.0106531 -0.301424 
-0.0106531 9.6454 0.118663 
-0.301424 0.118663 9.68559 
9.10565 0.258857 1.42517 
0.258857 9.79401 -0.00399402 
1.42517 -0.00399402 9.04265 
8.91531 -0.174763 0.98616 
-0.174763 9.33284 -0.148084 
0.98616 -0.148084 9.69416 
9.41968 0.320064 0.52733 
0.320064 9.34095 0.0478989 
0.52733 0.0478989 9.18168 
8.7183 0.282661 0.952898 
0.282661 8.59315 -0.235762 
0.952898 -0.235762 10.6309 
9.49923 -0.0681641 0.3215 
-0.0681641 9.63048 -0.118449 
0.3215 -0.118449 9.47333 
9.48146 0.0504779 0.406565 
0.0504779 9.53983 -0.112676 
0.406565 -0.112676 9.58175 
9.42603 0.0498526 0.347678 
0.0498526 9.53815 -0.0647145 
0.347678 -0.0647145 9.63886 
9.46479 0.0455706 0.337587 
0.0455706 9.52398 -0.0761032 
0.337587 -0.0761032 9.61428 
9.65449 -0.00528457 -0.323586 
-0.00528457 9.51 0.0427993 
-0.323586 0.0427993 9.53234 
9.55606 0.0200401 -0.340692 
0.0200401 9.55034 0.0585226 
-0.340692 0.0585226 9.59043 
9.46406 0.0201857 -0.305136 
0.0201857 9.59258 0.0420339 
-0.305136 0.0420339 9.64018 
9.52381 0.00340457 -0.382641 
0.00340457 9.55098 0.0617121 
-0.382641 0.0617121 9.62204 
6.41333 1.58954 0.725748 
1.58954 13.225 -0.0511446 
0.725748 -0.0511446 13.8074 
2.25831 5.36374 -5.20616 
5.36374 10.4384 0.861433 
-5.20616 0.861433 20.7489 
-3.75912 2.52197 -9.02854 
2.52197 7.57097 0.918065 
-9.02854 0.918065 29.6338 
9.51286 1.38768 -3.14536 
1.38768 11.0406 -0.399288 
-3.14536 -0.399288 12.8922 
9.47169 0.117281 -0.278472 
0.117281 9.607 -0.208597 
-0.278472 -0.208597 9.53282 
9.54484 -0.0518302 -0.236716 
-0.0518302 9.50352 -0.247083 
-0.236716 -0.247083 9.56314 
9.54056 -0.0766375 -0.258005 
-0.0766375 9.53843 -0.226166 
-0.258005 -0.226166 9.53252 
9.50726 -0.0520432 -0.268717 
-0.0520432 9.57215 -0.268625 
-0.268717 -0.268625 9.5321 
10.1076 0.0110781 -0.0173159 
0.0110781 10.0913 0.00291243 
-0.0173159 0.00291243 10.0423 
10.1704 0.0125603 -0.0210458 
0.0125603 10.1825 0.0514761 
-0.0210458 0.0514761 9.88831 
10.1294 -0.00328385 -0.00376487 
-0.00328385 10.0926 0.0379287 
-0.00376487 0.0379287 10.0193 
10.143 0.0117963 -0.0423008 
0.0117963 10.0999 0.0778967 
-0.0423008 0.0778967 9.99838 
9.50155 1.18387 1.63586 
1.18387 8.17057 -1.59434 
1.63586 -1.59434 9.40492 
10.9098 0.833079 0.473692 
0.833079 7.24955 -1.18507 
0.473692 -1.18507 8.91773 
8.10821 -0.268841 0.998403 
-0.268841 8.5395 -1.10556 
0.998403 -1.10556 10.4293 
10.6258 1.03407 0.383664 
1.03407 8.67193 -0.404919 
0.383664 -0.404919 7.77931 
10.1214 -0.021282 -0.0124142 
-0.021282 10.112 0.00698679 
-0.0124142 0.00698679 10.0093 
10.1171 0.0233443 0.0123046 
0.0233443 10.1184 0.0189827 
0.0123046 0.0189827 10.0073 
10.1277 0.0207816 0.00112847 
0.0207816 10.1326 0.0179086 
0.00112847 0.0179086 9.98237 
10.1197 -0.0279033 0.0345852 
-0.0279033 10.1419 0.0051072 
0.0345852 0.0051072 9.98111 
11.3664 1.57221 0.313328 
1.57221 8.87724 -0.40657 
0.313328 -0.40657 12.9399 
9.06016 2.17514 -0.129136 
2.17514 7.75699 -1.23279 
-0.129136 -1.23279 16.3664 
11.5668 1.28156 1.08665 
1.28156 10.5578 -0.441795 
1.08665 -0.441795 11.0589 
10.7891 1.70652 0.188955 
1.70652 9.98061 -0.617367 
0.188955 -0.617367 12.4138 
8.56257 -0.745307 1.57962 
-0.745307 9.08716 -0.287326 
1.57962 -0.287326 8.90224 
9.61228 -0.423795 0.567324 
-0.423795 8.83928 0.606409 
0.567324 0.606409 8.10041 
9.45706 -0.423475 -0.457137 
-0.423475 9.17975 0.701105 
-0.457137 0.701105 7.91516 
10.1776 -0.449933 0.406042 
-0.449933 8.72114 0.841593 
0.406042 0.841593 7.65319 
9.77902 0.026786 0.0254792 
0.026786 9.80782 0.0653642 
0.0254792 0.0653642 9.82993 
9.76687 0.0350704 0.0216303 
0.0350704 9.81814 0.0503284 
0.0216303 0.0503284 9.83177 
9.77293 0.0239195 0.0294974 
0.0239195 9.81589 0.0479901 
0.0294974 0.0479901 9.82796 
9.79049 0.0147167 -0.0068989 
0.0147167 9.80825 0.0999197 
-0.0068989 0.0999197 9.81804 
9.87248 0.0953356 -0.0554091 
0.0953356 9.68156 -0.291847 
-0.0554091 -0.291847 9.92115 
9.67546 -0.0544163 -0.0414611 
-0.0544163 9.79918 -0.153241 
-0.0414611 -0.153241 10.0006 
9.91649 0.0182578 -0.0055972 
0.0182578 9.68413 -0.146719 
-0.0055972 -0.146719 9.87458 
9.78368 -0.069198 -0.0287104 
-0.069198 9.89899 -0.288603 
-0.0287104 -0.288603 9.79252 
9.5141 -0.0381244 0.380736 
-0.0381244 9.48558 -0.179982 
0.380736 -0.179982 9.93173 
9.61612 -0.184268 0.396085 
-0.184268 9.62323 -0.124986 
0.396085 -0.124986 9.69206 
9.54107 0.0268589 0.310333 
0.0268589 9.55969 -0.0941369 
0.310333 -0.0941369 9.83065 
9.6182 0.076254 0.273015 
0.076254 9.49528 -0.207937 
0.273015 -0.207937 9.81793 
9.43287 0.0782532 0.209796 
0.0782532 9.4355 0.172776 
0.209796 0.172776 9.51897 
9.16137 0.152533 0.56313 
0.152533 9.80309 0.417371 
0.56313 0.417371 9.42288 
9.00682 0.227444 -0.0216683 
0.227444 9.31246 0.221289 
-0.0216683 0.221289 10.0681 
9.4572 -0.0267147 0.19865 
-0.0267147 9.63659 -0.104367 
0.19865 -0.104367 9.29356 
10.2995 0.0567962 -0.58425 
0.0567962 10.3645 -0.424815 
-0.58425 -0.424815 8.01201 
9.90867 0.191321 -0.168202 
0.191321 10.5974 -0.447898 
-0.168202 -0.447898 8.16991 
11.8363 0.488935 0.499356 
0.488935 9.73413 0.539891 
0.499356 0.539891 7.10556 
9.59656 -0.160413 -0.0429483 
-0.160413 10.1522 -0.240828 
-0.0429483 -0.240828 8.92727 
9.82558 -0.0185008 0.276438 
-0.0185008 9.77188 -0.0147573 
0.276438 -0.0147573 9.76345 
9.80179 -0.0186683 0.253381 
-0.0186683 9.78604 -0.0535252 
0.253381 -0.0535252 9.77307 
9.84496 0.0198801 0.332966 
0.0198801 9.72198 -0.0771081 
0.332966 -0.0771081 9.79397 
9.80273 0.0370774 0.340981 
0.0370774 9.80919 0.0102172 
0.340981 0.0102172 9.74898 
10.5433 0.193351 1.18851 
0.193351 12.3026 -0.252152 
1.18851 -0.252152 13.3286 
11.8202 0.0819338 0.548757 
0.0819338 13.2708 0.30801 
0.548757 0.30801 11.0835 
10.7799 0.296271 0.956925 
0.296271 12.1782 -0.558553 
0.956925 -0.558553 13.2163 
10.9339 0.218333 0.640485 
0.218333 12.2576 -0.231602 
0.640485 -0.231602 12.9829 
9.85025 -0.254713 0.376012 
-0.254713 10.2484 0.496524 
0.376012 0.496524 9.0832 
10.0019 0.0498787 0.595432 
0.0498787 10.5163 0.26519 
0.595432 0.26519 8.66372 
9.25412 -0.048203 0.321158 
-0.048203 10.0057 0.335988 
0.321158 0.335988 9.92206 
9.95772 -0.221651 0.410239 
-0.221651 10.1719 0.451165 
0.410239 0.451165 9.05224 
9.5297 -0.695168 -0.0156078 
-0.695168 9.07489 1.4316 
-0.0156078 1.4316 16.1031 
12.1267 -1.55304 1.28106 
-1.55304 10.7778 -0.14125 
1.28106 -0.14125 11.8032 
11.9802 -0.966144 0.857867 
-0.966144 10.0509 0.564283 
0.857867 0.564283 12.6765 
11.8278 -2.53594 1.00376 
-2.53594 11.3509 1.00307 
1.00376 1.00307 11.5289 
9.21338 0.823033 -1.06281 
0.823033 9.42645 -0.138659 
-1.06281 -0.138659 8.50286 
9.8562 0.248328 -0.357879 
0.248328 9.24808 -0.0312145 
-0.357879 -0.0312145 8.03841 
9.57504 -0.19935 -0.175842 
-0.19935 10.7005 0.321766 
-0.175842 0.321766 6.86713 
8.66902 -0.0630071 -0.402388 
-0.0630071 9.56738 0.355882 
-0.402388 0.355882 8.90629 
2.26903 -0.350093 -0.691312 
-0.350093 2.4684 0.236126 
-0.691312 0.236126 5.35848 
5.03147 -0.500436 1.55558 
-0.500436 6.15796 -0.357031 
1.55558 -0.357031 -1.09352 
5.07853 -0.98006 0.713627 
-0.98006 5.33921 0.708691 
0.713627 0.708691 -0.321821 
6.09528 -0.810086 -2.5153 
-0.810086 4.27595 -0.459286 
-2.5153 -0.459286 -0.275321 
9.70847 0.0287592 0.0960601 
0.0287592 9.80915 0.230102 
0.0960601 0.230102 9.65523 
9.72438 -0.00838487 0.0826277 
-0.00838487 9.74562 0.226061 
0.0826277 0.226061 9.70284 
9.70778 0.0124109 0.107942 
0.0124109 9.71089 0.255948 
0.107942 0.255948 9.75418 
9.73364 0.00764483 0.0898809 
0.00764483 9.75892 0.213096 
0.0898809 0.213096 9.68028 
10.1675 -0.00545683 -0.00327678 
-0.00545683 10.16 0.0127759 
-0.00327678 0.0127759 10.0004 
10.1558 -0.0113745 -0.0204746 
-0.0113745 10.1722 -0.000374112 
-0.0204746 -0.000374112 9.99986 
10.1872 0.00194041 -0.0163447 
0.00194041 10.2031 0.0318766 
-0.0163447 0.0318766 9.93749 
10.1813 0.00152524 -0.0244571 
0.00152524 10.1724 0.0313709 
-0.0244571 0.0313709 9.97413 
9.86732 -0.00422502 0.100294 
-0.00422502 9.9421 0.0311534 
0.100294 0.0311534 10.078 
9.81548 -0.0388246 0.045402 
-0.0388246 9.92559 0.0615222 
0.045402 0.0615222 10.1464 
10.0562 -0.0124222 0.113823 
-0.0124222 10.0753 0.0295553 
0.113823 0.0295553 9.75595 
9.8356 0.00984245 0.265599 
0.00984245 9.9816 0.146474 
0.265599 0.146474 10.0702 
7.49804 -0.396569 4.05818 
-0.396569 10.0401 -0.695131 
4.05818 -0.695131 7.54498 
5.07567 3.90687 1.93892 
3.90687 9.8127 0.564753 
1.93892 0.564753 10.1948 
8.06691 -1.33711 6.11917 
-1.33711 8.92568 -1.90376 
6.11917 -1.90376 8.09057 
9.19121 -2.11141 2.10411 
-2.11141 9.73483 0.251561 
2.10411 0.251561 6.15711 
10.3411 0.222477 -0.401356 
0.222477 9.49828 0.430066 
-0.401356 0.430066 9.94093 
10.4327 0.0688386 -0.0331378 
0.0688386 9.88849 0.948848 
-0.0331378 0.948848 9.45914 
10.311 0.221233 -0.413949 
0.221233 9.57106 0.949457 
-0.413949 0.949457 9.89828 
10.1019 -0.045878 -0.944897 
-0.045878 9.12229 1.18983 
-0.944897 1.18983 10.5562 
10.0441 -0.0347454 0.0823395 
-0.0347454 10.0457 0.0225913 
0.0823395 0.0225913 9.77697 
9.9562 0.0149537 0.1008 
0.0149537 9.93621 -0.0855658 
0.1008 -0.0855658 9.97437 
9.83046 0.0371826 0.0323959 
0.0371826 9.84029 -0.0724495 
0.0323959 -0.0724495 10.196 
9.96418 -0.0291615 0.238322 
-0.0291615 9.95595 -0.122743 
0.238322 -0.122743 9.94665 
9.2364 -0.0651408 -0.193132 
-0.0651408 9.2996 0.531878 
-0.193132 0.531878 9.55542 
9.74507 -0.158038 0.340024 
-0.158038 8.8916 0.476515 
0.340024 0.476515 9.45475 
9.55822 0.100211 0.141842 
0.100211 9.26259 0.508032 
0.141842 0.508032 9.27062 
9.45871 -0.129032 -0.124051 
-0.129032 9.32221 0.891088 
-0.124051 0.891088 9.31051 
9.47902 0.0912662 0.13079 
0.0912662 9.53746 0.0944181 
0.13079 0.0944181 9.74421 
9.62531 -0.0837555 0.230917 
-0.0837555 9.20579 0.298784 
0.230917 0.298784 9.9296 
9.58882 -0.183158 0.0769709 
-0.183158 9.50115 0.312491 
0.0769709 0.312491 9.67072 
9.7022 -0.0688105 0.202907 
-0.0688105 9.4179 0.353203 
0.202907 0.353203 9.64059 
9.57794 -0.457577 0.291191 
-0.457577 9.54972 0.602727 
0.291191 0.602727 9.76841 
9.30778 -0.715371 0.401285 
-0.715371 10.4282 0.294751 
0.401285 0.294751 9.16011 
8.93741 -0.191745 0.350824 
-0.191745 9.69099 0.65538 
0.350824 0.65538 10.2677 
9.16004 0.0129931 0.145085 
0.0129931 9.88805 -0.0697443 
0.145085 -0.0697443 9.84798 
10.3895 -2.38356 -0.277668 
-2.38356 5.47676 -1.53352 
-0.277668 -1.53352 -1.5366 
1.79513 -0.252548 1.19351 
-0.252548 4.53029 0.555381 
1.19351 0.555381 8.00423 
8.59585 0.118788 0.119613 
0.118788 8.38445 -1.08252 
0.119613 -1.08252 -2.65064 
8.02511 2.304 6.08609 
2.304 5.33821 -4.01737 
6.08609 -4.01737 0.966333 
9.91942 0.137371 0.100863 
0.137371 10.029 0.00560456 
0.100863 0.00560456 9.87244 
9.97736 -0.0726002 0.194409 
-0.0726002 10.0434 0.0863151 
0.194409 0.0863151 9.80003 
9.83831 -0.168654 0.11793 
-0.168654 9.88842 0.0898774 
0.11793 0.0898774 10.0941 
9.9633 0.097505 0.22506 
0.097505 9.93779 0.036221 
0.22506 0.036221 9.91974 
9.7565 -0.554001 0.24154 
-0.554001 8.81813 -0.619176 
0.24154 -0.619176 10.2752 
10.4785 0.162204 0.668409 
0.162204 9.28475 -1.22807 
0.668409 -1.22807 9.08649 
9.16717 -0.0870179 0.425629 
-0.0870179 9.71298 0.593356 
0.425629 0.593356 9.96963 
9.72081 -0.158383 0.360211 
-0.158383 9.02796 -0.544545 
0.360211 -0.544545 10.101 
10.0006 -0.386772 0.74594 
-0.386772 10.1596 0.152623 
0.74594 0.152623 12.2056 
9.54035 0.192497 0.0875485 
0.192497 11.813 0.600862 
0.0875485 0.600862 11.0125 
11.2507 -0.591347 0.585326 
-0.591347 9.69304 0.603312 
0.585326 0.603312 11.4221 
10.4519 -0.661604 0.254013 
-0.661604 9.81209 0.806595 
0.254013 0.806595 12.1019 
9.84579 -0.0251511 -0.0789656 
-0.0251511 9.85879 0.191912 
-0.0789656 0.191912 9.81005 
9.84162 -0.0599361 -0.107243 
-0.0599361 9.85047 0.162792 
-0.107243 0.162792 9.82255 
9.82855 -0.0439045 -0.119787 
-0.0439045 9.86602 0.192435 
-0.119787 0.192435 9.82007 
9.83597 -0.00797362 -0.0759408 
-0.00797362 9.82296 0.140948 
-0.0759408 0.140948 9.8557 
9.59347 -0.0169314 -0.141861 
-0.0169314 9.6693 0.0427244 
-0.141861 0.0427244 9.59781 
9.38044 0.163636 -0.395844 
0.163636 9.67277 0.0678066 
-0.395844 0.0678066 9.80737 
9.66357 -0.0732231 -0.0710986 
-0.0732231 9.61995 0.0963673 
-0.0710986 0.0963673 9.57706 
9.36943 0.00765722 -0.154434 
0.00765722 9.5742 0.0541202 
-0.154434 0.0541202 9.91695 
9.79121 -0.0677855 -0.148864 
-0.0677855 9.72591 -0.2186 
-0.148864 -0.2186 9.9049 
9.85885 0.0294817 -0.179541 
0.0294817 9.81241 -0.217955 
-0.179541 -0.217955 9.75075 
9.78172 -0.0354734 -0.108124 
-0.0354734 9.77544 -0.155505 
-0.108124 -0.155505 9.86485 
9.78708 -0.045238 -0.129974 
-0.045238 9.79158 -0.16769 
-0.129974 -0.16769 9.84335 
9.62526 -0.022566 0.210835 
-0.022566 9.6936 -0.0496182 
0.210835 -0.0496182 9.53427 
9.35313 0.168485 0.319018 
0.168485 9.60812 -0.187136 
0.319018 -0.187136 9.89187 
9.61339 -0.0862323 0.224658 
-0.0862323 9.52243 -0.038758 
0.224658 -0.038758 9.7173 
9.38566 -0.00133441 0.106472 
-0.00133441 9.55563 0.0244682 
0.106472 0.0244682 9.91183 
9.71896 0.0239321 0.151708 
0.0239321 9.69635 -0.300594 
0.151708 -0.300594 9.68027 
9.75492 0.0312453 0.147762 
0.0312453 9.72851 -0.377735 
0.147762 -0.377735 9.61214 
9.76168 0.0322738 0.214339 
0.0322738 9.74855 -0.32503 
0.214339 -0.32503 9.58534 
9.72932 0.0650739 0.14184 
0.0650739 9.72408 -0.4337 
0.14184 -0.4337 9.64217 
9.34504 0.0643098 0.169283 
0.0643098 9.55599 -0.674205 
0.169283 -0.674205 9.1738 
9.79551 -0.021346 -0.0550995 
-0.021346 9.80513 -1.1708 
-0.0550995 -1.1708 8.47419 
10.2197 0.163481 -0.117087 
0.163481 9.43173 -0.376142 
-0.117087 -0.376142 8.42344 
9.67749 0.803146 0.416398 
0.803146 9.74883 -0.422738 
0.416398 -0.422738 8.64851 
7.65313 -1.14165 0.65563 
-1.14165 9.57743 0.425956 
0.65563 0.425956 10.3078 
7.9955 -0.848799 0.241604 
-0.848799 9.50523 0.30985 
0.241604 0.30985 10.0376 
8.53181 -0.434052 0.305739 
-0.434052 10.3683 0.789374 
0.305739 0.789374 8.63826 
7.72239 -1.0138 0.441364 
-1.0138 9.65898 0.636237 
0.441364 0.636237 10.157 
9.71176 0.0217459 -0.194794 
0.0217459 9.88324 -0.233361 
-0.194794 -0.233361 9.67078 
9.75295 0.0111768 -0.183169 
0.0111768 9.78079 -0.199587 
-0.183169 -0.199587 9.73204 
9.77004 0.0227173 -0.165872 
0.0227173 9.76639 -0.200997 
-0.165872 -0.200997 9.72935 
9.79232 0.00889034 -0.187442 
0.00889034 9.73862 -0.232794 
-0.187442 -0.232794 9.73484 
9.46997 -0.00289168 -0.203928 
-0.00289168 9.36241 -0.188237 
-0.203928 -0.188237 9.85709 
9.54788 0.0361051 -0.351477 
0.0361051 9.66821 -0.129243 
-0.351477 -0.129243 9.47338 
9.38481 -0.0915727 -0.283297 
-0.0915727 9.61485 -0.100275 
-0.283297 -0.100275 9.6898 
9.3904 0.0965159 -0.458574 
0.0965159 9.48437 -0.126244 
-0.458574 -0.126244 9.81469 
9.9499 -0.607219 -0.238101 
-0.607219 10.9154 0.39203 
-0.238101 0.39203 12.5999 
10.8197 -0.535276 0.28497 
-0.535276 10.61 -0.371048 
0.28497 -0.371048 12.0356 
10.9874 -0.289678 -0.117017 
-0.289678 10.2927 -0.289694 
-0.117017 -0.289694 12.1852 
10.4466 -0.631493 0.321031 
-0.631493 11.3688 -0.461473 
0.321031 -0.461473 11.6498 
9.45548 -0.0388585 0.159828 
-0.0388585 9.91864 0.492425 
0.159828 0.492425 8.9022 
9.69899 0.197703 0.239761 
0.197703 9.62936 0.0806169 
0.239761 0.0806169 8.94797 
9.38105 -0.636308 0.566108 
-0.636308 10.1036 0.113802 
0.566108 0.113802 8.79169 
9.11542 -0.21335 0.4414 
-0.21335 9.73414 -0.000348303 
0.4414 -0.000348303 9.42676 
7.45368 0.95445 0.89838 
0.95445 12.3048 -0.447254 
0.89838 -0.447254 16.0779 
9.65357 0.667155 0.796361 
0.667155 12.1954 -0.159699 
0.796361 -0.159699 13.9874 
8.71733 1.90192 0.728449 
1.90192 11.7729 -0.750482 
0.728449 -0.750482 15.3462 
8.7627 0.491307 1.959 
0.491307 12.4006 -0.251943 
1.959 -0.251943 14.6731 
9.61785 -0.149504 -0.423759 
-0.149504 9.38814 -0.248183 
-0.423759 -0.248183 9.28061 
9.7224 -0.331537 -0.388651 
-0.331537 9.30203 -0.34381 
-0.388651 -0.34381 9.26218 
9.51913 -0.0581959 -0.417229 
-0.0581959 9.77588 -0.166753 
-0.417229 -0.166753 8.99159 
9.70477 -0.137289 -0.0240838 
-0.137289 9.19384 -0.0495013 
-0.0240838 -0.0495013 9.388 
9.9625 0.0172697 -0.0393498 
0.0172697 10.0559 -0.0229877 
-0.0393498 -0.0229877 9.98637 
9.99287 0.0138178 -0.0783493 
0.0138178 10.1319 -0.090907 
-0.0783493 -0.090907 9.88005 
10.054 -0.0198179 -0.0467266 
-0.0198179 10.015 -0.0141101 
-0.0467266 -0.0141101 9.93574 
10.085 -0.018047 -0.0709242 
-0.018047 9.9561 -0.0367232 
-0.0709242 -0.0367232 9.96371 
8.83566 0.711716 1.0882 
0.711716 9.96044 -0.253725 
1.0882 -0.253725 9.4408 
8.46129 0.897507 0.523361 
0.897507 10.1452 -0.023525 
0.523361 -0.023525 9.63041 
8.71212 0.500556 0.69355 
0.500556 9.74561 0.436224 
0.69355 0.436224 9.77917 
10.7347 -0.7601 -0.516529 
-0.7601 8.74541 0.0204426 
-0.516529 0.0204426 8.75674 
9.60127 0.17079 -0.0703976 
0.17079 10.0129 0.0839833 
-0.0703976 0.0839833 10.1106 
9.82397 0.00170657 -0.289632 
0.00170657 10.0351 -0.0167278 
-0.289632 -0.0167278 9.86572 
10.036 -0.164578 -0.0792439 
-0.164578 9.83438 0.0327184 
-0.0792439 0.0327184 9.85435 
9.89097 0.012669 -0.246564 
0.012669 9.88458 0.00900842 
-0.246564 0.00900842 9.94921 
9.76178 -0.0317549 0.0108916 
-0.0317549 9.72014 -0.0246544 
0.0108916 -0.0246544 9.65689 
9.7842 -0.0532953 -0.00507697 
-0.0532953 9.6986 0.0199993 
-0.00507697 0.0199993 9.65601 
9.61011 -0.0112153 0.131054 
-0.0112153 9.65255 -0.0595967 
0.131054 -0.0595967 9.87614 
9.78342 -0.0567987 0.0998608 
-0.0567987 9.74281 0.0728145 
0.0998608 0.0728145 9.61257 
10.3354 -0.258054 -0.231848 
-0.258054 10.1951 0.0799386 
-0.231848 0.0799386 11.0195 
9.75272 0.0213972 0.197691 
0.0213972 10.534 -0.199999 
0.197691 -0.199999 11.2634 
9.35933 1.10464 -0.308359 
1.10464 10.265 -0.0392686 
-0.308359 -0.0392686 11.9257 
10.1383 0.171421 0.131765 
0.171421 10.1376 -0.192577 
0.131765 -0.192577 11.2741 
10.1862 0.0035927 -0.00793107 
0.0035927 10.1855 0.0313776 
-0.00793107 0.0313776 9.94527 
10.1424 0.00691999 0.00877668 
0.00691999 10.1688 0.00408287 
0.00877668 0.00408287 10.0058 
10.1637 0.0119513 -0.0116414 
0.0119513 10.165 0.0170629 
-0.0116414 0.0170629 9.98832 
10.1771 0.014203 -0.00734998 
0.014203 10.1664 0.037579 
-0.00734998 0.037579 9.97348 
10.0859 0.0569749 -0.239542 
0.0569749 9.38936 -0.519321 
-0.239542 -0.519321 10.0575 
10.0781 -0.616142 -0.0908685 
-0.616142 10.1741 0.780373 
-0.0908685 0.780373 9.28049 
9.3987 -0.992204 0.576505 
-0.992204 9.57345 -0.320471 
0.576505 -0.320471 10.5606 
9.48002 0.127831 -0.0668492 
0.127831 10.0838 0.509145 
-0.0668492 0.509145 9.96887 
9.67411 0.0573954 -0.2571 
0.0573954 9.60288 -0.11216 
-0.2571 -0.11216 9.60763 
9.71937 0.0303396 -0.314793 
0.0303396 9.62216 -0.15565 
-0.314793 -0.15565 9.54308 
9.68016 0.04216 -0.301972 
0.04216 9.61871 -0.127205 
-0.301972 -0.127205 9.58574 
9.63831 0.0109685 -0.362265 
0.0109685 9.56786 -0.124782 
-0.362265 -0.124782 9.67844 
9.81876 0.0168571 -0.0243996 
0.0168571 9.85224 -0.0129289 
-0.0243996 -0.0129289 9.95239 
9.85012 -0.00525439 -0.0685582 
-0.00525439 9.835 0.0869968 
-0.0685582 0.0869968 9.93827 
9.85689 0.00716802 -0.0373883 
0.00716802 9.82838 0.00767111 
-0.0373883 0.00767111 9.93812 
9.81986 -0.0349212 0.0149302 
-0.0349212 9.80526 0.0587558 
0.0149302 0.0587558 9.99827 
9.53631 -0.099539 -0.107834 
-0.099539 9.68846 -0.0440175 
-0.107834 -0.0440175 9.61399 
9.35591 -0.064058 -0.296618 
-0.064058 9.40713 -0.104379 
-0.296618 -0.104379 10.0757 
9.5391 -0.0339968 -0.272831 
-0.0339968 9.48149 -0.11831 
-0.272831 -0.11831 9.81817 
9.57011 -0.00504168 -0.494824 
-0.00504168 9.70318 -0.275793 
-0.494824 -0.275793 9.56547 
10.0484 0.159003 0.35853 
0.159003 7.55957 -0.337989 
0.35853 -0.337989 4.77967 
9.67152 0.30597 0.519243 
0.30597 9.17881 -0.116278 
0.519243 -0.116278 3.53727 
8.49658 0.050937 0.53915 
0.050937 10.3839 -1.68337 
0.53915 -1.68337 3.50707 
8.58512 -0.0776002 1.63398 
-0.0776002 7.99008 -0.22285 
1.63398 -0.22285 5.8124 
10.088 -0.0234614 0.0258081 
-0.0234614 10.0736 0.0388238 
0.0258081 0.0388238 10.0266 
10.134 -0.0162266 0.0103673 
-0.0162266 10.1227 0.0724298 
0.0103673 0.0724298 9.93152 
10.0846 -0.0300862 0.0349779 
-0.0300862 10.0597 0.00472838 
0.0349779 0.00472838 10.0438 
10.1173 -0.0265526 0.0634007 
-0.0265526 10.0501 0.0500003 
0.0634007 0.0500003 10.0209 
9.33609 -0.0262285 -0.0477997 
-0.0262285 9.74619 0.29131 
-0.0477997 0.29131 4.46214 
8.28395 -0.113392 0.305939 
-0.113392 8.79253 -0.416281 
0.305939 -0.416281 6.46794 
8.71206 -0.309444 0.145019 
-0.309444 9.37178 0.371485 
0.145019 0.371485 5.46058 
8.94283 -0.606343 -0.398733 
-0.606343 8.98648 -0.0385634 
-0.398733 -0.0385634 5.61511 
8.1284 0.470411 -1.70799 
0.470411 12.0669 -0.845207 
-1.70799 -0.845207 10.8886 
8.9424 -2.00629 -1.82936 
-2.00629 9.46013 -0.774059 
-1.82936 -0.774059 12.6814 
10.9745 -2.90081 -1.44123 
-2.90081 10.051 -2.49333 
-1.44123 -2.49333 10.0584 
9.34356 0.0920284 -3.65066 
0.0920284 10.3034 -0.992319 
-3.65066 -0.992319 11.437 
9.69291 -0.0472152 -0.12264 
-0.0472152 9.73835 0.191747 
-0.12264 0.191747 9.72408 
9.7214 0.0070234 -0.103191 
0.0070234 9.74285 0.171229 
-0.103191 0.171229 9.6911 
9.66635 0.0121611 -0.0414934 
0.0121611 9.8144 0.267766 
-0.0414934 0.267766 9.67459 
9.70641 -0.0350051 -0.113618 
-0.0350051 9.76896 0.203316 
-0.113618 0.203316 9.67997 
11.2833 -0.172686 0.134636 
-0.172686 11.0694 0.211393 
0.134636 0.211393 11.4514 
10.8429 -0.194183 0.153167 
-0.194183 10.8438 0.086602 
0.153167 0.086602 12.1173 
10.5696 -0.12173 0.0418805 
-0.12173 10.9054 -0.0850815 
0.0418805 -0.0850815 12.329 
10.9438 -0.593833 0.626987 
-0.593833 11.0215 0.119621 
0.626987 0.119621 11.8388 
9.44747 0.0527202 -0.158177 
0.0527202 9.45729 0.235261 
-0.158177 0.235261 9.72574 
9.48723 0.0404368 -0.011082 
0.0404368 9.55546 0.41779 
-0.011082 0.41779 9.58781 
9.42035 -0.0197157 -0.178028 
-0.0197157 9.46904 0.325769 
-0.178028 0.325769 9.74111 
9.43387 -0.0143063 -0.191601 
-0.0143063 9.38889 0.334619 
-0.191601 0.334619 9.80774 
9.78078 0.0276033 0.130708 
0.0276033 9.74216 -0.285893 
0.130708 -0.285893 9.74631 
9.75033 -0.0028202 0.100353 
-0.0028202 9.77123 -0.297606 
0.100353 -0.297606 9.74769 
9.71703 -0.0359743 0.133758 
-0.0359743 9.76467 -0.289596 
0.133758 -0.289596 9.78755 
9.753 -0.0118876 0.129968 
-0.0118876 9.76701 -0.308477 
0.129968 -0.308477 9.74925 
10.0494 0.0400623 0.0282414 
0.0400623 9.84939 0.0651807 
0.0282414 0.0651807 10.0334 
9.92522 -0.00653105 -0.027106 
-0.00653105 9.89329 0.0514185 
-0.027106 0.0514185 10.1137 
10.0961 -0.0199387 0.0200797 
-0.0199387 10.0492 0.0541979 
0.0200797 0.0541979 9.78694 
9.97279 -0.0283969 0.0225772 
-0.0283969 9.98862 0.20483 
0.0225772 0.20483 9.9708 
9.81038 -0.0112196 0.0771213 
-0.0112196 9.69627 0.058762 
0.0771213 0.058762 9.93609 
9.74365 -0.0166746 0.0410769 
-0.0166746 9.74351 0.0108165 
0.0410769 0.0108165 9.95559 
9.71018 -0.0286891 0.0590146 
-0.0286891 9.75534 0.00458554 
0.0590146 0.00458554 9.97723 
9.72959 0.00220435 0.0119797 
0.00220435 9.74789 -0.00675489 
0.0119797 -0.00675489 9.96527 
11.7965 -0.109501 1.21817 
-0.109501 8.67981 -6.05635 
1.21817 -6.05635 5.0586 
7.28073 0.212844 -0.244176 
0.212844 6.75402 -0.878134 
-0.244176 -0.878134 11.5001 
9.43974 0.23112 0.635191 
0.23112 9.71693 -1.40322 
0.635191 -1.40322 6.37821 
9.56052 -0.0827839 -0.442169 
-0.0827839 9.98292 -1.04027 
-0.442169 -1.04027 5.99144 
9.7502 0.00729011 0.294402 
0.00729011 9.70025 -0.0672392 
0.294402 -0.0672392 9.85345 
9.75812 0.0304078 0.211364 
0.0304078 9.78572 -0.100871 
0.211364 -0.100871 9.76007 
9.70234 -0.00309112 0.259289 
-0.00309112 9.74365 -0.151136 
0.259289 -0.151136 9.85792 
9.74623 0.0135814 0.248856 
0.0135814 9.74189 -0.114705 
0.248856 -0.114705 9.81579 
9.63209 1.03822 -1.64601 
1.03822 8.51428 3.10195 
-1.64601 3.10195 9.19235 
7.2608 0.247277 -0.771572 
0.247277 8.74647 0.97138 
-0.771572 0.97138 11.3314 
11.0206 0.553126 -0.00948212 
0.553126 9.33593 0.374044 
-0.00948212 0.374044 6.98218 
11.5833 -0.534872 0.260223 
-0.534872 7.49349 1.26589 
0.260223 1.26589 8.26189 
10.8799 -0.294632 -0.578659 
-0.294632 9.80935 0.163724 
-0.578659 0.163724 11.884 
10.9415 0.709415 -0.322902 
0.709415 10.0619 -0.169262 
-0.322902 -0.169262 11.5699 
10.779 0.709354 -0.077282 
0.709354 9.82904 -0.0574603 
-0.077282 -0.0574603 11.9652 
10.6756 -0.513065 0.735085 
-0.513065 10.3708 -0.570457 
0.735085 -0.570457 11.5269 
9.44196 0.000372175 -0.0605738 
0.000372175 9.54563 0.00691191 
-0.0605738 0.00691191 10.038 
9.52355 -0.0607851 -0.0208565 
-0.0607851 9.66599 -0.0325198 
-0.0208565 -0.0325198 9.83607 
9.47305 -0.00930742 0.0714662 
-0.00930742 9.60222 0.042394 
0.0714662 0.042394 9.95034 
9.37486 0.0426828 -0.0549889 
0.0426828 9.70842 -0.00830118 
-0.0549889 -0.00830118 9.94234 
8.68003 1.26505 -0.900027 
1.26505 8.01638 -0.613485 
-0.900027 -0.613485 16.7864 
10.4657 1.16041 -0.0504235 
1.16041 10.4918 0.139658 
-0.0504235 0.139658 12.5253 
9.64807 0.534389 -0.444514 
0.534389 11.0051 0.177569 
-0.444514 0.177569 12.8297 
11.001 1.66707 -1.03925 
1.66707 9.87133 0.495803 
-1.03925 0.495803 12.6104 
9.80349 -0.0270286 0.00118252 
-0.0270286 9.70428 -0.0814499 
0.00118252 -0.0814499 9.87368 
9.76078 -0.00646843 0.07163 
-0.00646843 9.79886 -0.0203917 
0.07163 -0.0203917 9.82181 
9.73818 -0.0296795 0.0450158 
-0.0296795 9.76981 0.0403401 
0.0450158 0.0403401 9.87346 
9.79499 -0.0342705 0.008801 
-0.0342705 9.75485 -0.0303874 
0.008801 -0.0303874 9.83161 
5.45511 0.221242 -2.5226 
0.221242 9.4106 1.22515 
-2.5226 1.22515 19.3948 
11.4757 0.125818 0.0064662 
0.125818 7.74628 0.872945 
0.0064662 0.872945 15.0385 
9.59471 -1.23624 1.70682 
-1.23624 14.7108 0.0667151 
1.70682 0.0667151 9.95494 
7.76839 2.05164 -0.886038 
2.05164 12.5611 -2.09814 
-0.886038 -2.09814 13.931 
10.0605 0.00285165 0.0190001 
0.00285165 10.0724 -0.0184475 
0.0190001 -0.0184475 10.0241 
10.0867 -0.00508301 -0.00164758 
-0.00508301 10.0854 -0.0334798 
-0.00164758 -0.0334798 9.98472 
10.0613 -0.00379924 0.0374772 
-0.00379924 10.0705 0.00775314 
0.0374772 0.00775314 10.0252 
10.1101 -0.000617308 -0.011973 
-0.000617308 10.0489 -0.0102021 
-0.011973 -0.0102021 9.99789 
9.62241 -0.153581 0.0997784 
-0.153581 10.045 0.0102749 
0.0997784 0.0102749 10.0874 
10.0853 0.125355 0.166629 
0.125355 9.86165 0.00163654 
0.166629 0.00163654 9.80786 
9.79883 -0.0365165 0.266677 
-0.0365165 9.95027 0.105049 
0.266677 0.105049 10.0058 
9.84798 -0.106051 0.236496 
-0.106051 9.92957 0.1222 
0.236496 0.1222 9.97731 
9.76699 -0.00116812 -5.44965e-05 
-0.00116812 9.70266 -0.271886 
-5.44965e-05 -0.271886 9.90883 
9.80021 -0.00891706 0.0202809 
-0.00891706 9.74385 -0.230652 
0.0202809 -0.230652 9.83441 
9.79928 0.00764784 0.0587359 
0.00764784 9.71656 -0.202275 
0.0587359 -0.202275 9.86263 
9.85073 -1.20071e-05 -0.0130007 
-1.20071e-05 9.80407 -0.254479 
-0.0130007 -0.254479 9.72368 
9.77809 -0.00601961 0.0718672 
-0.00601961 9.81099 -0.088387 
0.0718672 -0.088387 9.5139 
9.69846 -0.0424876 0.186347 
-0.0424876 9.60965 -0.12966 
0.186347 -0.12966 9.79486 
9.79393 -0.0619196 0.135984 
-0.0619196 9.82671 -0.10405 
0.135984 -0.10405 9.48234 
9.87227 -0.119427 0.10514 
-0.119427 9.76642 0.187502 
0.10514 0.187502 9.46428 
9.78361 0.0108472 -0.209805 
0.0108472 9.7699 0.212999 
-0.209805 0.212999 9.75154 
9.78 -0.0139974 -0.226893 
-0.0139974 9.76661 0.220756 
-0.226893 0.220756 9.75844 
9.78364 -0.0101648 -0.215519 
-0.0101648 9.76488 0.221118 
-0.215519 0.221118 9.75653 
9.79556 0.0186107 -0.185093 
0.0186107 9.77291 0.217269 
-0.185093 0.217269 9.73658 
4.58917 0.763264 -3.56283 
0.763264 11.0199 -6.74507 
-3.56283 -6.74507 10.5473 
10.2015 0.338348 -1.51439 
0.338348 6.44696 -3.08599 
-1.51439 -3.08599 9.50794 
13.5364 0.428532 -2.38251 
0.428532 5.59983 -7.12865 
-2.38251 -7.12865 7.02017 
5.78769 -1.89406 -0.267421 
-1.89406 12.5186 0.57545 
-0.267421 0.57545 7.85003 
10.1503 0.00503291 -0.0303118 
0.00503291 10.1082 -0.0286763 
-0.0303118 -0.0286763 10.0107 
10.1454 -0.00664087 -0.0232938 
-0.00664087 10.1506 -0.0136543 
-0.0232938 -0.0136543 9.97316 
10.1245 -0.00113997 0.00839325 
-0.00113997 10.1308 0.00282236 
0.00839325 0.00282236 10.0138 
10.1375 -0.0183996 0.0197915 
-0.0183996 10.1344 0.0099882 
0.0197915 0.0099882 9.99729 
10.0997 0.0323303 0.0138988 
0.0323303 10.1183 -0.00351868 
0.0138988 -0.00351868 9.98897 
10.1181 0.0309837 0.00801968 
0.0309837 10.1232 -0.0225227 
0.00801968 -0.0225227 9.96567 
10.1165 0.0253568 -0.00770913 
0.0253568 10.1079 0.00462674 
-0.00770913 0.00462674 9.98261 
10.1235 0.0310758 0.0161057 
0.0310758 10.1335 -0.0297125 
0.0161057 -0.0297125 9.94989 
7.85843 1.42494 3.06733 
1.42494 9.66491 -1.41263 
3.06733 -1.41263 9.17179 
11.1337 -0.19754 2.33964 
-0.19754 8.04461 -0.751064 
2.33964 -0.751064 7.51681 
8.14542 0.533441 3.47693 
0.533441 8.38072 -1.41456 
3.47693 -1.41456 10.169 
6.19242 1.53052 0.928111 
1.53052 10.4804 -0.521216 
0.928111 -0.521216 10.0223 
9.74916 0.00304243 -0.304046 
0.00304243 9.71703 -0.105328 
-0.304046 -0.105328 9.74395 
9.72781 0.0040152 -0.298936 
0.0040152 9.72135 -0.0503312 
-0.298936 -0.0503312 9.76097 
9.75734 0.0130405 -0.287337 
0.0130405 9.72514 -0.0958593 
-0.287337 -0.0958593 9.72765 
9.78978 0.0323395 -0.293805 
0.0323395 9.77664 -0.093269 
-0.293805 -0.093269 9.64371 
9.80702 -0.449948 2.20871 
-0.449948 9.41391 0.940536 
2.20871 0.940536 5.41078 
8.86576 0.976834 0.936728 
0.976834 9.34542 0.478208 
0.936728 0.478208 6.42053 
8.52767 0.300206 0.121023 
0.300206 7.56648 -1.00758 
0.121023 -1.00758 8.53757 
9.28751 0.248253 0.742461 
0.248253 9.84726 0.609168 
0.742461 0.609168 5.49695 
9.04452 -0.39415 -2.02306 
-0.39415 5.32995 -0.681484 
-2.02306 -0.681484 3.95527 
4.74354 -0.154897 -0.898054 
-0.154897 9.27661 -2.05473 
-0.898054 -2.05473 4.30961 
6.288 0.594276 -3.20651 
0.594276 10.6416 0.766118 
-3.20651 0.766118 1.40011 
8.37965 -0.300173 -0.0876143 
-0.300173 6.67111 -1.11938 
-0.0876143 -1.11938 3.27899 
11.3999 0.333111 -0.225558 
0.333111 10.9382 -0.258174 
-0.225558 -0.258174 11.9777 
10.4452 -0.342164 0.953317 
-0.342164 11.4424 0.223883 
0.953317 0.223883 12.4283 
7.62101 -1.04922 -0.219626 
-1.04922 12.7953 -1.26647 
-0.219626 -1.26647 13.8996 
10.1066 0.119537 0.699746 
0.119537 11.5395 0.142086 
0.699746 0.142086 12.6697 
9.59514 -0.0613596 0.336769 
-0.0613596 9.59079 -0.078511 
0.336769 -0.078511 9.44105 
9.59875 -0.0750561 0.426596 
-0.0750561 9.63271 -0.124194 
0.426596 -0.124194 9.39552 
9.71143 -0.0403214 0.268271 
-0.0403214 9.50664 -0.0963942 
0.268271 -0.0963942 9.40891 
9.5782 0.0553534 0.406133 
0.0553534 9.58619 -0.143801 
0.406133 -0.143801 9.4626 
9.76278 0.0485292 -0.00736246 
0.0485292 9.8314 0.0757252 
-0.00736246 0.0757252 9.85801 
9.77998 0.0224008 0.0273632 
0.0224008 9.82069 0.0720967 
0.0273632 0.0720967 9.85152 
9.81274 0.0167277 6.08242e-05 
0.0167277 9.80615 0.0730914 
6.08242e-05 0.0730914 9.8333 
9.75614 0.00618698 0.140178 
0.00618698 9.81499 0.0645282 
0.140178 0.0645282 9.88107 
9.89449 -1.81636 0.314147 
-1.81636 11.3305 -0.625282 
0.314147 -0.625282 12.7319 
9.51805 -0.935172 -0.484374 
-0.935172 11.6217 -0.8231 
-0.484374 -0.8231 12.8171 
8.89845 -0.7524 -0.769045 
-0.7524 11.8151 0.0644405 
-0.769045 0.0644405 13.2433 
10.0024 -0.76 -0.237734 
-0.76 11.1266 0.402564 
-0.237734 0.402564 12.8278 
14.963 -1.43176 1.62198 
-1.43176 13.2748 -2.21338 
1.62198 -2.21338 8.15876 
11.3743 -0.210122 -1.20247 
-0.210122 9.75575 0.758599 
-1.20247 0.758599 15.2665 
12.1006 0.308736 -0.433632 
0.308736 9.92755 -0.575675 
-0.433632 -0.575675 14.3684 
11.0957 0.930348 1.38638 
0.930348 10.3722 -0.499735 
1.38638 -0.499735 14.9286 
9.03583 0.264858 -0.152748 
0.264858 9.20704 0.257745 
-0.152748 0.257745 11.3188 
9.98596 0.29118 -0.147883 
0.29118 8.78253 0.114845 
-0.147883 0.114845 10.7932 
9.39834 -0.268563 -0.127426 
-0.268563 10.2241 0.0689348 
-0.127426 0.0689348 9.93922 
8.8601 0.610138 -0.26352 
0.610138 9.33816 0.148945 
-0.26352 0.148945 11.3634 
8.93127 -0.392133 -0.160536 
-0.392133 9.70933 -0.752262 
-0.160536 -0.752262 10.4074 
8.59129 0.339943 -1.0254 
0.339943 10.0463 0.0631596 
-1.0254 0.0631596 10.4104 
8.98846 0.381458 -0.424472 
0.381458 9.6409 0.28124 
-0.424472 0.28124 10.4186 
9.40865 0.285661 -0.548735 
0.285661 9.4811 0.524226 
-0.548735 0.524226 10.1582 
9.76981 0.0127931 0.00132238 
0.0127931 9.74735 0.334765 
0.00132238 0.334765 9.71591 
9.75631 0.00146036 -0.00644916 
0.00146036 9.78872 0.314222 
-0.00644916 0.314222 9.68805 
9.74688 0.006922 0.0126099 
0.006922 9.76603 0.320645 
0.0126099 0.320645 9.72017 
9.72926 -0.00434362 0.0314792 
-0.00434362 9.75489 0.307563 
0.0314792 0.307563 9.74893 
3.79151 -0.31345 0.50299 
-0.31345 4.91528 0.477165 
0.50299 0.477165 0.348507 
2.68798 0.258943 0.222649 
0.258943 3.61131 -1.16277 
0.222649 -1.16277 2.756 
5.01829 1.14827 1.02404 
1.14827 2.63067 -0.907125 
1.02404 -0.907125 1.40634 
2.78826 0.24311 0.287391 
0.24311 4.45639 -1.27287 
0.287391 -1.27287 1.81066 
9.88884 -0.000365112 -0.00287051 
-0.000365112 9.89588 -0.0237281 
-0.00287051 -0.0237281 9.98602 
9.89002 0.00724791 -0.00231476 
0.00724791 9.91093 -0.0032696 
-0.00231476 -0.0032696 9.9698 
9.90726 0.00182734 -0.0132534 
0.00182734 9.90883 0.000576743 
-0.0132534 0.000576743 9.95465 
9.9138 -0.00427491 0.00502053 
-0.00427491 9.89498 0.00295522 
0.00502053 0.00295522 9.96196 
9.77862 -0.0676869 0.0180844 
-0.0676869 9.80361 0.00678606 
0.0180844 0.00678606 9.65233 
9.70262 -0.0348806 0.0312439 
-0.0348806 9.69635 0.0213369 
0.0312439 0.0213369 9.83558 
9.7282 -0.0173683 0.0653188 
-0.0173683 9.71912 -0.059395 
0.0653188 -0.059395 9.78724 
9.76699 -0.0567828 -0.00196034 
-0.0567828 9.7487 -0.0305462 
-0.00196034 -0.0305462 9.71887 
9.53971 -0.199323 0.158014 
-0.199323 9.82479 0.260161 
0.158014 0.260161 9.5106 
9.47581 -0.270262 -0.0296832 
-0.270262 9.80492 -0.253884 
-0.0296832 -0.253884 9.59437 
9.36399 -0.198075 0.0165575 
-0.198075 9.9272 0.235185 
0.0165575 0.235185 9.58391 
9.80775 -0.0303504 -0.289221 
-0.0303504 9.51932 0.142147 
-0.289221 0.142147 9.54803 
9.43055 0.0640862 0.466875 
0.0640862 9.54778 -0.131792 
0.466875 -0.131792 9.60323 
9.438 -0.00981147 0.381806 
-0.00981147 9.51565 -0.113267 
0.381806 -0.113267 9.62791 
9.49112 -0.0119054 0.420977 
-0.0119054 9.5135 -0.160959 
0.420977 -0.160959 9.57694 
9.6075 -0.025231 0.39508 
-0.025231 9.46978 -0.20354 
0.39508 -0.20354 9.50427 
9.83407 -0.00577554 -0.00550129 
-0.00577554 9.84132 0.0251392 
-0.00550129 0.0251392 9.97465 
9.83128 0.00284467 -0.0276293 
0.00284467 9.84711 0.00516911 
-0.0276293 0.00516911 9.97166 
9.83911 -0.0171952 -0.0231247 
-0.0171952 9.84766 0.00616211 
-0.0231247 0.00616211 9.96327 
9.84591 -0.00327657 -0.0176581 
-0.00327657 9.82061 0.0298185 
-0.0176581 0.0298185 9.98353 
9.65771 0.223882 0.645583 
0.223882 9.19568 0.255502 
0.645583 0.255502 9.51246 
9.55005 0.173249 0.480053 
0.173249 9.34064 0.208359 
0.480053 0.208359 9.47516 
9.55454 0.113442 0.52035 
0.113442 9.26446 0.217957 
0.52035 0.217957 9.54685 
9.31591 0.240712 0.535864 
0.240712 9.45064 0.27959 
0.535864 0.27959 9.5993 
9.73174 -0.0139757 -0.240902 
-0.0139757 9.66521 -0.04888 
-0.240902 -0.04888 9.65072 
9.75437 0.0484654 -0.266698 
0.0484654 9.67117 -0.0635724 
-0.266698 -0.0635724 9.62214 
9.69497 0.0170797 -0.288366 
0.0170797 9.64001 -0.0700263 
-0.288366 -0.0700263 9.71269 
9.67312 -0.0146971 -0.275857 
-0.0146971 9.68771 -0.0784956 
-0.275857 -0.0784956 9.68684 
9.17308 0.308435 -0.342424 
0.308435 10.2006 -0.213733 
-0.342424 -0.213733 11.0183 
8.96758 0.109624 -0.277666 
0.109624 10.4575 0.134865 
-0.277666 0.134865 10.9668 
9.32832 -0.0565789 -0.0527753 
-0.0565789 10.2061 0.0935788 
-0.0527753 0.0935788 10.8575 
9.05438 0.00819643 -0.24327 
0.00819643 9.79378 -0.200495 
-0.24327 -0.200495 11.5438 
9.68923 0.00611862 0.298029 
0.00611862 9.73573 -0.0785291 
0.298029 -0.0785291 9.79897 
9.79234 -0.00927098 0.352127 
-0.00927098 9.73032 -0.0845854 
0.352127 -0.0845854 9.70127 
9.7303 0.0151991 0.311421 
0.0151991 9.74654 -0.0732413 
0.311421 -0.0732413 9.74709 
9.78352 0.00315218 0.305774 
0.00315218 9.74569 -0.0853068 
0.305774 -0.0853068 9.69472 
9.82032 -0.110723 -0.039046 
-0.110723 9.68949 -0.169771 
-0.039046 -0.169771 9.90059 
9.61702 0.0565217 0.0447128 
0.0565217 9.91097 0.249127 
0.0447128 0.249127 9.88241 
9.72737 -0.0281637 -0.069663 
-0.0281637 9.72499 0.136168 
-0.069663 0.136168 9.95804 
9.66313 -0.0785712 0.00863422 
-0.0785712 9.66882 0.0385082 
0.00863422 0.0385082 10.0785 
8.37832 -3.43299 0.432818 
-3.43299 9.43223 -0.643813 
0.432818 -0.643813 13.4922 
9.52459 -1.11603 -1.55334 
-1.11603 10.7131 -0.801743 
-1.55334 -0.801743 11.0651 
11.0201 1.39642 0.24643 
1.39642 10.0858 0.201073 
0.24643 0.201073 10.1969 
10.1073 -0.788623 -0.942096 
-0.788623 9.56742 -0.767846 
-0.942096 -0.767846 11.6281 
10.0839 -0.0116872 -0.00214655 
-0.0116872 10.0707 0.0455173 
-0.00214655 0.0455173 9.98097 
10.1206 0.0512254 0.00870312 
0.0512254 10.098 0.0958928 
0.00870312 0.0958928 9.917 
10.0627 0.0315825 0.0016745 
0.0315825 10.056 0.00210344 
0.0016745 0.00210344 10.0168 
10.0949 -0.0240795 0.00593985 
-0.0240795 10.0781 0.0390702 
0.00593985 0.0390702 9.96267 
10.1253 -0.0227112 0.0713922 
-0.0227112 10.148 -0.020287 
0.0713922 -0.020287 9.91291 
10.0662 -0.060902 0.0121217 
-0.060902 10.0421 0.014219 
0.0121217 0.014219 10.078 
10.0978 -0.00460982 0.0558047 
-0.00460982 10.1048 -0.0049198 
0.0558047 -0.0049198 9.98357 
10.0261 -0.0130433 0.0807639 
-0.0130433 10.1323 0.00583905 
0.0807639 0.00583905 10.0278 
9.80908 -0.0272234 0.0442017 
-0.0272234 9.80458 -0.0344115 
0.0442017 -0.0344115 9.85622 
9.8402 -0.0192081 0.0628282 
-0.0192081 9.77848 -0.049421 
0.0628282 -0.049421 9.85119 
9.82392 0.000341834 0.0991715 
0.000341834 9.78287 -0.00895059 
0.0991715 -0.00895059 9.86308 
9.8369 -0.0329209 0.0998803 
-0.0329209 9.79641 -0.0217797 
0.0998803 -0.0217797 9.83655 
8.5855 -0.415727 -1.02614 
-0.415727 7.71018 1.74221 
-1.02614 1.74221 2.89673 
9.41324 -1.82096 0.695861 
-1.82096 6.64321 3.09599 
0.695861 3.09599 3.13595 
7.97436 -0.341972 0.177106 
-0.341972 6.40909 2.91058 
0.177106 2.91058 4.80895 
9.38984 0.0744233 -1.85464 
0.0744233 6.49644 0.914527 
-1.85464 0.914527 3.30612 
10.3073 0.198101 -0.996077 
0.198101 9.73227 0.66028 
-0.996077 0.66028 8.70795 
9.93316 -0.108371 -0.542925 
-0.108371 9.3484 0.702122 
-0.542925 0.702122 9.46597 
10.1816 0.371997 -0.798019 
0.371997 10.0324 0.358137 
-0.798019 0.358137 8.53356 
10.4299 -0.323814 -0.126321 
-0.323814 9.51957 1.13007 
-0.126321 1.13007 8.79807 
9.77734 -0.0552896 0.105311 
-0.0552896 9.74179 0.202548 
0.105311 0.202548 9.82895 
9.79015 0.067572 0.129284 
0.067572 9.78144 0.210884 
0.129284 0.210884 9.77649 
9.7441 -0.0417676 0.273902 
-0.0417676 9.73308 0.279765 
0.273902 0.279765 9.8709 
9.80913 -0.0271994 0.0559114 
-0.0271994 9.73401 0.262315 
0.0559114 0.262315 9.80494 
9.85867 -0.0172293 -0.11652 
-0.0172293 10.08 0.0391126 
-0.11652 0.0391126 9.91969 
9.9419 0.0289718 -0.0854784 
0.0289718 9.88175 0.030069 
-0.0854784 0.030069 10.0347 
10.0541 0.0554221 -0.137426 
0.0554221 9.94283 0.108835 
-0.137426 0.108835 9.86138 
9.85228 -0.0501219 -0.22475 
-0.0501219 10.044 0.0595167 
-0.22475 0.0595167 9.96203 
8.774 -1.56002 2.60406 
-1.56002 10.9043 0.333867 
2.60406 0.333867 13.7231 
9.7064 -1.91271 2.52566 
-1.91271 11.8746 0.513942 
2.52566 0.513942 11.8203 
8.69851 0.557926 1.43266 
0.557926 12.2692 0.43403 
1.43266 0.43403 12.4336 
9.65944 -0.438599 2.27198 
-0.438599 11.3587 1.72638 
2.27198 1.72638 12.3832 
9.72783 0.00158029 -0.220187 
0.00158029 9.80058 0.242348 
-0.220187 0.242348 9.69428 
9.75791 -0.0187866 -0.20297 
-0.0187866 9.73375 0.26398 
-0.20297 0.26398 9.73102 
9.70084 2.31254e-05 -0.208632 
2.31254e-05 9.76047 0.268209 
-0.208632 0.268209 9.76137 
9.75931 -0.00844616 -0.21174 
-0.00844616 9.73953 0.255173 
-0.21174 0.255173 9.72384 
10.1195 0.00398667 -0.000111402 
0.00398667 10.081 0.0204182 
-0.000111402 0.0204182 10.0532 
10.1331 0.0266379 -0.0216433 
0.0266379 10.084 0.00673101 
-0.0216433 0.00673101 10.0367 
10.1929 0.0165717 0.00215929 
0.0165717 10.1628 0.0729333 
0.00215929 0.0729333 9.89817 
10.1433 0.0134795 -0.0365487 
0.0134795 10.085 0.0601149 
-0.0365487 0.0601149 10.0255 
9.72835 -0.024067 -0.0838957 
-0.024067 9.74537 -0.0323391 
-0.0838957 -0.0323391 9.96749 
9.73111 -0.00624267 -0.0522566 
-0.00624267 9.73008 -0.0334074 
-0.0522566 -0.0334074 9.98002 
9.75425 -0.0270843 -0.0505317 
-0.0270843 9.7254 -0.0155915 
-0.0505317 -0.0155915 9.96157 
9.77194 -0.0194046 -0.0416731 
-0.0194046 9.71431 -0.0262047 
-0.0416731 -0.0262047 9.95496 
9.81744 0.0156693 0.0212943 
0.0156693 9.79593 0.00602432 
0.0212943 0.00602432 10.0082 
9.84127 0.0233279 0.0233127 
0.0233279 9.81031 0.0167804 
0.0233127 0.0167804 9.96999 
9.82695 -0.0145156 -0.00760064 
-0.0145156 9.81556 -0.0605691 
-0.00760064 -0.0605691 9.97906 
9.80941 -0.0192998 0.0347313 
-0.0192998 9.83492 -0.0701311 
0.0347313 -0.0701311 9.97725 
9.75565 0.00512767 -0.357105 
0.00512767 9.69476 -0.0864152 
-0.357105 -0.0864152 9.57103 
9.74236 -0.00411304 -0.278144 
-0.00411304 9.65316 -0.108525 
-0.278144 -0.108525 9.62591 
9.76837 0.00606849 -0.256044 
0.00606849 9.65061 -0.105992 
-0.256044 -0.105992 9.60246 
9.67218 0.0195699 -0.25091 
0.0195699 9.6762 -0.0794253 
-0.25091 -0.0794253 9.67306 
13.2471 -0.231059 -0.230474 
-0.231059 10.6029 -0.319095 
-0.230474 -0.319095 11.9658 
10.6211 -2.38494 -0.0491531 
-2.38494 12.4623 -0.0147621 
-0.0491531 -0.0147621 12.7324 
10.8083 0.534559 -0.115248 
0.534559 9.99678 0.208311 
-0.115248 0.208311 15.0108 
12.4653 -0.0454613 -0.48894 
-0.0454613 10.7226 -1.68316 
-0.48894 -1.68316 12.6279 
5.98262 0.566203 0.884129 
0.566203 5.12888 1.45095 
0.884129 1.45095 -0.00384291 
9.28783 -0.481316 -1.42306 
-0.481316 7.29227 2.34493 
-1.42306 2.34493 -5.47244 
1.03985 0.0864342 0.236768 
0.0864342 1.54944 -1.07338 
0.236768 -1.07338 8.51837 
6.68542 -1.23578 6.40552 
-1.23578 4.13734 0.0300308 
6.40552 0.0300308 0.284899 
6.94952 0.329508 0.00137019 
0.329508 8.95923 0.873769 
0.00137019 0.873769 1.72804 
6.70018 0.38923 2.65505 
0.38923 8.98991 -0.431276 
2.65505 -0.431276 1.9467 
7.35304 -0.917646 -0.125002 
-0.917646 7.74299 -0.535043 
-0.125002 -0.535043 2.54075 
6.59327 1.08025 3.71346 
1.08025 6.74564 -1.79233 
3.71346 -1.79233 4.29787 
9.84467 -0.00245247 -0.0360049 
-0.00245247 9.83099 -0.0210196 
-0.0360049 -0.0210196 9.86948 
9.85043 0.00265569 -0.0517246 
0.00265569 9.82879 -0.0373919 
-0.0517246 -0.0373919 9.86592 
9.81856 0.00825537 -0.0715322 
0.00825537 9.82092 -0.0599818 
-0.0715322 -0.0599818 9.90565 
9.86606 0.0437862 -0.0613151 
0.0437862 9.851 -0.0231976 
-0.0613151 -0.0231976 9.82806 
9.50342 0.0161399 -0.263547 
0.0161399 9.91096 0.0433369 
-0.263547 0.0433369 10.2557 
9.74046 0.064408 -0.294889 
0.064408 9.86636 0.131136 
-0.294889 0.131136 10.0632 
9.68336 0.0361003 -0.0610657 
0.0361003 9.64864 0.0322379 
-0.0610657 0.0322379 10.3381 
9.5753 0.0503256 -0.198954 
0.0503256 9.91273 -0.0206131 
-0.198954 -0.0206131 10.182 
9.56042 -0.20108 0.044905 
-0.20108 9.2332 -0.35603 
0.044905 -0.35603 9.7205 
9.59515 -0.270094 -0.27771 
-0.270094 9.41037 -0.292527 
-0.27771 -0.292527 9.5086 
9.5001 -0.156798 -0.0633769 
-0.156798 9.30994 -0.50098 
-0.0633769 -0.50098 9.70409 
9.81797 -0.154906 -0.338918 
-0.154906 9.16297 -0.474509 
-0.338918 -0.474509 9.53318 
9.26546 -0.142508 0.050965 
-0.142508 9.52645 -0.146731 
0.050965 -0.146731 10.2615 
9.07889 0.00460423 0.119758 
0.00460423 9.6237 -0.232003 
0.119758 -0.232003 10.3508 
9.26377 -0.128908 0.0175767 
-0.128908 9.53523 -0.158964 
0.0175767 -0.158964 10.2544 
9.33387 -0.121941 0.0837345 
-0.121941 9.44091 -0.169528 
0.0837345 -0.169528 10.2786 
5.09681 0.57085 -1.78174 
0.57085 8.96239 -0.825904 
-1.78174 -0.825904 2.45584 
7.89794 0.264708 -1.15997 
0.264708 5.48188 -0.908573 
-1.15997 -0.908573 3.13521 
9.04379 1.08468 0.295213 
1.08468 5.51292 -1.52747 
0.295213 -1.52747 1.95832 
8.69731 -1.12342 -2.026 
-1.12342 7.04403 -0.449434 
-2.026 -0.449434 0.773686 
9.60365 0.00983151 0.116306 
0.00983151 10.0744 0.0343052 
0.116306 0.0343052 10.0831 
9.86949 -0.013394 0.263584 
-0.013394 9.91296 -0.0184323 
0.263584 -0.0184323 9.9787 
10.1144 0.0059344 0.122785 
0.0059344 9.80343 0.00716513 
0.122785 0.00716513 9.84332 
9.87361 0.0797283 0.282659 
0.0797283 9.93602 -0.0391017 
0.282659 -0.0391017 9.95151 
8.95462 -1.23225 -0.140901 
-1.23225 7.16557 2.01794 
-0.140901 2.01794 3.94879 
5.13924 0.294271 -3.11881 
0.294271 11.4954 0.634797 
-3.11881 0.634797 3.4343 
8.25889 1.04034 1.6844 
1.04034 8.16038 2.86783 
1.6844 2.86783 3.64971 
6.97506 0.0529811 -1.77417 
0.0529811 7.96059 1.31855 
-1.77417 1.31855 5.13332 
9.54596 0.00931735 0.151504 
0.00931735 9.56373 -0.278113 
0.151504 -0.278113 9.76852 
9.59372 0.0136872 0.0906154 
0.0136872 9.64141 -0.296392 
0.0906154 -0.296392 9.64308 
9.59713 -0.00632388 0.130509 
-0.00632388 9.6017 -0.341095 
0.130509 -0.341095 9.67937 
9.61515 0.0170132 0.133863 
0.0170132 9.61743 -0.336155 
0.133863 -0.336155 9.64563 
9.81385 0.0804395 -1.48381 
0.0804395 10.0604 0.117408 
-1.48381 0.117408 8.47745 
9.90675 0.583419 -1.31444 
0.583419 9.31722 0.477191 
-1.31444 0.477191 9.12776 
8.21255 0.634764 -2.35336 
0.634764 9.86045 0.71866 
-2.35336 0.71866 10.2787 
8.1752 -0.41695 -0.162058 
-0.41695 8.65752 -0.316826 
-0.162058 -0.316826 11.519 
9.75056 0.00398898 0.33617 
0.00398898 9.72878 -9.69745e-05 
0.33617 -9.69745e-05 9.7909 
9.74371 0.0262974 0.330325 
0.0262974 9.79882 0.00289337 
0.330325 0.00289337 9.72772 
9.76945 0.00914591 0.317486 
0.00914591 9.75366 -0.0327957 
0.317486 -0.0327957 9.74713 
9.77524 0.0062981 0.318099 
0.0062981 9.74824 -0.0170499 
0.318099 -0.0170499 9.74676 
9.73092 0.0105884 0.0108133 
0.0105884 9.79825 -0.298623 
0.0108133 -0.298623 9.7979 
9.77937 0.00486842 0.00706153 
0.00486842 9.7962 -0.266955 
0.00706153 -0.266955 9.75151 
9.78507 -0.00698872 0.00974315 
-0.00698872 9.80023 -0.258452 
0.00974315 -0.258452 9.74177 
9.79353 0.00143888 -0.0156752 
0.00143888 9.80667 -0.256728 
-0.0156752 -0.256728 9.72688 
8.29624 -0.560248 1.94886 
-0.560248 8.12636 -1.36095 
1.94886 -1.36095 8.54323 
7.27938 0.0438378 1.46612 
0.0438378 9.01443 1.33794 
1.46612 1.33794 8.67202 
6.81338 -0.890303 0.361193 
-0.890303 8.47547 0.397421 
0.361193 0.397421 9.67698 
8.78847 -0.728763 2.38447 
-0.728763 8.42344 0.868481 
2.38447 0.868481 7.75392 
9.63536 0.113639 -0.0397891 
0.113639 9.29179 0.0198505 
-0.0397891 0.0198505 10.106 
9.58387 0.0998921 -0.00891668 
0.0998921 9.38567 -0.0878734 
-0.00891668 -0.0878734 10.0637 
9.52136 0.00938003 -0.172734 
0.00938003 9.66975 -0.0153096 
-0.172734 -0.0153096 9.84209 
9.30426 0.0702046 -0.0875975 
0.0702046 9.32951 0.0830078 
-0.0875975 0.0830078 10.3994 
9.9159 0.053014 -0.0307116 
0.053014 10.0631 -0.0457274 
-0.0307116 -0.0457274 9.90744 
9.95148 -0.0361392 -0.0886515 
-0.0361392 9.9429 0.00810746 
-0.0886515 0.00810746 9.99204 
9.93009 0.0518747 -0.156765 
0.0518747 9.96876 -0.0533795 
-0.156765 -0.0533795 9.98757 
9.97945 -0.063019 -0.178552 
-0.063019 9.99613 -0.012661 
-0.178552 -0.012661 9.91083 
9.75035 0.00694703 0.0498358 
0.00694703 9.736 0.0198716 
0.0498358 0.0198716 9.86393 
9.78623 0.0146357 0.042404 
0.0146357 9.74937 0.01627 
0.042404 0.01627 9.81468 
9.78658 0.0109427 0.039687 
0.0109427 9.73951 0.0345194 
0.039687 0.0345194 9.82419 
9.79805 0.0358741 -0.01543 
0.0358741 9.70239 -0.0156871 
-0.01543 -0.0156871 9.84985 
10.5092 -0.315809 -0.209831 
-0.315809 9.51342 -0.197633 
-0.209831 -0.197633 9.72413 
10.1071 -0.267356 -0.444966 
-0.267356 9.46793 0.192009 
-0.444966 0.192009 10.1717 
10.1886 -0.100952 -0.384077 
-0.100952 9.54547 -0.0216657 
-0.384077 -0.0216657 10.0126 
9.80773 0.110747 -0.282646 
0.110747 9.83559 -0.275414 
-0.282646 -0.275414 10.1034 
10.4617 0.105361 -0.261777 
0.105361 10.3398 -0.107019 
-0.261777 -0.107019 9.75077 
9.54267 -0.00882143 0.402946 
-0.00882143 9.69746 0.114051 
0.402946 0.114051 11.3122 
10.133 -0.135267 -0.151183 
-0.135267 10.1899 -0.116925 
-0.151183 -0.116925 10.2294 
9.63001 -0.484162 -0.49646 
-0.484162 10.1429 -0.675825 
-0.49646 -0.675825 10.7794 
9.71949 0.0544944 0.122752 
0.0544944 9.35413 -0.815195 
0.122752 -0.815195 9.5181 
9.58585 0.230693 0.230734 
0.230693 9.42529 -0.815432 
0.230734 -0.815432 9.58057 
10.2403 -0.0299388 0.181371 
-0.0299388 9.35333 -0.856429 
0.181371 -0.856429 8.99811 
9.75427 -0.139103 -0.0719218 
-0.139103 9.17244 -0.346529 
-0.0719218 -0.346529 9.66501 
9.41031 -0.676466 -0.682703 
-0.676466 9.54131 -0.202919 
-0.682703 -0.202919 10.2243 
9.57491 -0.617657 -0.354565 
-0.617657 9.51942 -0.173219 
-0.354565 -0.173219 10.0816 
9.57609 -0.329517 -0.549848 
-0.329517 9.69907 -0.344347 
-0.549848 -0.344347 9.90075 
10.0258 -0.279206 -0.310301 
-0.279206 9.22748 -0.282856 
-0.310301 -0.282856 9.92264 
9.35245 -0.218241 -1.43391 
-0.218241 10.5961 0.032169 
-1.43391 0.032169 10.1692 
9.60906 0.0708267 -1.50116 
0.0708267 10.1356 0.487446 
-1.50116 0.487446 10.3731 
9.39701 0.539008 -0.363913 
0.539008 10.4786 0.0797267 
-0.363913 0.0797267 10.2422 
9.72625 1.03691 -1.08493 
1.03691 11.2963 0.489281 
-1.08493 0.489281 9.09533 
9.68954 -0.0241991 -0.288624 
-0.0241991 9.72334 -0.15327 
-0.288624 -0.15327 9.75397 
9.74404 0.0285612 -0.300863 
0.0285612 9.72181 -0.133953 
-0.300863 -0.133953 9.70099 
9.73489 0.0121927 -0.292872 
0.0121927 9.71169 -0.135883 
-0.292872 -0.135883 9.72026 
9.73724 0.0151801 -0.254149 
0.0151801 9.70329 -0.109 
-0.254149 -0.109 9.72632 
9.90615 0.0212536 -0.14292 
0.0212536 9.77228 0.0427541 
-0.14292 0.0427541 9.43665 
9.90763 -0.0064265 -0.230527 
-0.0064265 9.79588 0.0384101 
-0.230527 0.0384101 9.41156 
9.92415 -0.0343686 -0.254759 
-0.0343686 9.81404 -0.0390786 
-0.254759 -0.0390786 9.37688 
9.80769 -0.0229112 -0.235386 
-0.0229112 9.66734 0.0248168 
-0.235386 0.0248168 9.64004 
10.2003 0.453612 -0.262664 
0.453612 9.39914 0.605063 
-0.262664 0.605063 10.5073 
9.90261 0.0080937 0.316044 
0.0080937 9.50637 -0.144731 
0.316044 -0.144731 10.6978 
9.79062 0.5302 0.382008 
0.5302 9.86973 0.104535 
0.382008 0.104535 10.4464 
9.93222 0.544572 0.272912 
0.544572 9.82607 -0.00813857 
0.272912 -0.00813857 10.3485 
10.1894 -0.0064567 0.00391493 
-0.0064567 10.19 -0.0335135 
0.00391493 -0.0335135 9.96069 
10.1918 -0.0183733 0.00102263 
-0.0183733 10.1486 -0.0119703 
0.00102263 -0.0119703 9.99979 
10.1845 -0.00709453 0.00460496 
-0.00709453 10.1561 -0.000936282 
0.00460496 -0.000936282 9.99948 
10.1972 -0.00707275 0.0049051 
-0.00707275 10.1589 -0.0252125 
0.0049051 -0.0252125 9.98395 
9.80522 -0.0260671 -0.303449 
-0.0260671 9.7582 -0.0093132 
-0.303449 -0.0093132 9.72517 
9.80074 0.0156142 -0.258962 
0.0156142 9.77925 -0.0112897 
-0.258962 -0.0112897 9.70859 
9.80204 -0.0152859 -0.310404 
-0.0152859 9.72117 -0.0199877 
-0.310404 -0.0199877 9.76537 
9.7882 0.00208898 -0.265508 
0.00208898 9.7956 0.0361882 
-0.265508 0.0361882 9.70477 
9.80436 0.0164239 -0.165708 
0.0164239 9.78118 -0.259082 
-0.165708 -0.259082 9.78129 
9.80583 0.0132034 -0.123081 
0.0132034 9.78806 -0.263859 
-0.123081 -0.263859 9.77295 
9.79928 -0.0286546 -0.207579 
-0.0286546 9.79951 -0.226231 
-0.207579 -0.226231 9.76805 
9.82695 0.0373673 -0.183279 
0.0373673 9.71481 -0.312904 
-0.183279 -0.312904 9.82507 
9.85472 -0.0582182 0.0849523 
-0.0582182 9.21686 1.01635 
0.0849523 1.01635 9.47809 
9.89726 -0.130258 -0.117284 
-0.130258 9.23801 0.611115 
-0.117284 0.611115 9.41441 
9.59296 0.0712438 -0.221206 
0.0712438 9.31147 0.577864 
-0.221206 0.577864 9.64525 
9.46648 0.144395 0.0683523 
0.144395 9.55641 0.483856 
0.0683523 0.483856 9.52679 
9.7907 6.22403e-05 -0.160327 
6.22403e-05 9.79735 -0.271815 
-0.160327 -0.271815 9.74845 
9.77983 0.00817342 -0.173772 
0.00817342 9.78996 -0.272494 
-0.173772 -0.272494 9.76671 
9.78366 0.00690054 -0.165904 
0.00690054 9.79903 -0.260835 
-0.165904 -0.260835 9.75381 
9.78972 -0.00628621 -0.145738 
-0.00628621 9.81874 -0.253935 
-0.145738 -0.253935 9.72804 
9.75809 -0.0372149 0.0425667 
-0.0372149 9.73292 0.0208803 
0.0425667 0.0208803 9.92325 
9.70701 -0.0207148 0.0471631 
-0.0207148 9.72842 0.00312096 
0.0471631 0.00312096 9.97883 
9.72264 -0.0120222 0.0379243 
-0.0120222 9.7193 0.000188354 
0.0379243 0.000188354 9.97232 
9.71716 -0.000915444 0.0128517 
-0.000915444 9.71153 -0.0240226 
0.0128517 -0.0240226 9.98557 
9.46385 0.0452969 -0.346291 
0.0452969 9.49314 -0.0281949 
-0.346291 -0.0281949 9.8002 
9.51823 -0.0406027 -0.482557 
-0.0406027 9.67034 -0.147811 
-0.482557 -0.147811 9.56861 
9.62156 -0.0318912 -0.305365 
-0.0318912 9.64645 -0.122863 
-0.305365 -0.122863 9.48918 
9.65356 -0.0902573 -0.316964 
-0.0902573 9.54201 -0.121244 
-0.316964 -0.121244 9.56162 
9.63196 0.0492693 -0.148814 
0.0492693 9.85842 -0.0990285 
-0.148814 -0.0990285 9.55995 
9.67962 -0.0538341 -0.511767 
-0.0538341 9.79072 0.215516 
-0.511767 0.215516 9.57999 
9.48708 -0.3484 -0.334554 
-0.3484 10.0348 -0.177673 
-0.334554 -0.177673 9.52845 
9.22709 -0.389778 0.486959 
-0.389778 9.79291 0.00497871 
0.486959 0.00497871 10.0303 
9.805 -0.0855833 -0.118738 
-0.0855833 9.65249 -0.077603 
-0.118738 -0.077603 10.0609 
9.72261 0.0928156 -0.284784 
0.0928156 9.88281 -0.0438643 
-0.284784 -0.0438643 9.91295 
9.68024 0.0309984 -0.145486 
0.0309984 9.94696 -0.00447987 
-0.145486 -0.00447987 9.89117 
9.95584 -0.0927103 -0.285484 
-0.0927103 9.8074 -0.0460397 
-0.285484 -0.0460397 9.75512 
8.80185 0.0342167 -0.36694 
0.0342167 9.68635 -0.204058 
-0.36694 -0.204058 10.5808 
9.01847 0.188148 -0.142732 
0.188148 9.43421 -0.119644 
-0.142732 -0.119644 10.6163 
9.08669 0.229048 -0.285138 
0.229048 9.88419 -0.181332 
-0.285138 -0.181332 10.0981 
9.03402 0.0955064 0.00724568 
0.0955064 9.87569 -0.273553 
0.00724568 -0.273553 10.1593 
5.53075 0.63809 -1.85435 
0.63809 4.02869 0.821561 
-1.85435 0.821561 2.53938 
6.01581 -0.319461 -3.43963 
-0.319461 7.70096 1.78266 
-3.43963 1.78266 -1.61796 
4.42397 0.0446988 -1.62339 
0.0446988 4.89196 1.17127 
-1.62339 1.17127 2.78289 
3.89245 0.381885 -1.0218 
0.381885 5.1474 2.15744 
-1.0218 2.15744 3.05896 
9.50544 -0.0253881 -0.0270527 
-0.0253881 9.5469 0.330232 
-0.0270527 0.330232 10.1938 
9.73475 -0.00581246 -0.029103 
-0.00581246 9.3701 -0.0993502 
-0.029103 -0.0993502 10.1413 
9.59985 -0.0668795 0.0374676 
-0.0668795 9.80613 0.102159 
0.0374676 0.102159 9.84015 
9.63591 -0.0099385 -0.0610183 
-0.0099385 9.56259 0.10372 
-0.0610183 0.10372 10.0476 
9.53854 0.156564 -0.163346 
0.156564 9.84997 -0.558214 
-0.163346 -0.558214 9.65009 
9.55708 0.365476 -0.0353005 
0.365476 9.8139 -0.754434 
-0.0353005 -0.754434 9.66762 
9.68202 0.0479702 0.101343 
0.0479702 9.68056 -0.61022 
0.101343 -0.61022 9.67603 
9.7408 0.376914 0.394691 
0.376914 9.96755 -0.447296 
0.394691 -0.447296 9.33025 
9.55807 0.192001 -0.264184 
0.192001 9.02925 -0.414387 
-0.264184 -0.414387 10.4402 
9.59008 -0.0269566 -0.0892505 
-0.0269566 9.02675 -0.0859877 
-0.0892505 -0.0859877 10.4107 
9.80673 -0.0946444 -0.00534072 
-0.0946444 8.8584 -0.0260079 
-0.00534072 -0.0260079 10.3624 
9.67266 -0.107999 0.0689319 
-0.107999 9.21797 -0.0476322 
0.0689319 -0.0476322 10.1369 
9.86147 -0.105446 -0.572957 
-0.105446 9.55287 0.0952568 
-0.572957 0.0952568 7.73793 
9.64988 0.0723737 -0.43225 
0.0723737 9.35875 -0.19901 
-0.43225 -0.19901 8.14364 
9.70039 0.0647474 -0.928163 
0.0647474 8.95986 -0.506047 
-0.928163 -0.506047 8.49203 
9.04373 -0.733407 0.198819 
-0.733407 9.36934 -0.427935 
0.198819 -0.427935 8.7392 
5.77747 -0.302629 1.71281 
-0.302629 8.06735 0.906261 
1.71281 0.906261 0.367553 
5.83986 -0.832606 -2.14642 
-0.832606 8.51236 -0.568912 
-2.14642 -0.568912 -0.139833 
6.47826 0.264813 -2.03478 
0.264813 5.8831 -0.0232561 
-2.03478 -0.0232561 1.85102 
6.78535 -0.366749 2.75168 
-0.366749 5.55748 0.00480974 
2.75168 0.00480974 1.86954 
9.77068 0.00895522 -0.0602224 
0.00895522 9.65403 0.00575201 
-0.0602224 0.00575201 9.82954 
9.79205 0.0235063 0.061343 
0.0235063 9.69593 -0.029226 
0.061343 -0.029226 9.76626 
9.78358 0.0351427 -0.0547583 
0.0351427 9.67019 -0.00202849 
-0.0547583 -0.00202849 9.80047 
9.77016 -0.021394 -0.0541891 
-0.021394 9.75292 -0.0811726 
-0.0541891 -0.0811726 9.73117 
9.63363 0.00947009 -0.11657 
0.00947009 9.67086 0.292501 
-0.11657 0.292501 9.64546 
9.60194 0.0129886 -0.12937 
0.0129886 9.64118 0.293418 
-0.12937 0.293418 9.70685 
9.59727 -0.0377713 -0.15683 
-0.0377713 9.6555 0.313987 
-0.15683 0.313987 9.6972 
9.66132 -0.00696721 -0.111449 
-0.00696721 9.61959 0.315468 
-0.111449 0.315468 9.66906 
9.75818 -0.0182708 -0.299849 
-0.0182708 9.76757 -0.0935762 
-0.299849 -0.0935762 9.72035 
9.74455 0.0134324 -0.295036 
0.0134324 9.7592 -0.128816 
-0.295036 -0.128816 9.74236 
9.78238 0.0120828 -0.282652 
0.0120828 9.71689 -0.142142 
-0.282652 -0.142142 9.74685 
9.74754 0.00869118 -0.302594 
0.00869118 9.76125 -0.12814 
-0.302594 -0.12814 9.73732 
8.35725 -0.13101 -0.264083 
-0.13101 7.52736 0.265362 
-0.264083 0.265362 1.81337 
7.00193 -0.54728 -0.989617 
-0.54728 7.90588 1.08817 
-0.989617 1.08817 2.79016 
8.0739 -0.256676 -0.66602 
-0.256676 6.59883 2.49398 
-0.66602 2.49398 3.02524 
7.48378 1.48558 -0.420851 
1.48558 5.16881 3.23351 
-0.420851 3.23351 5.04539 
10.095 -0.0868912 -0.0467185 
-0.0868912 9.99809 0.0371135 
-0.0467185 0.0371135 9.87929 
10.0182 -0.00916751 -0.125938 
-0.00916751 9.99899 0.0820777 
-0.125938 0.0820777 9.95517 
9.93968 0.132815 -0.0735413 
0.132815 9.97721 -0.0108958 
-0.0735413 -0.0108958 10.0555 
9.99207 0.0323059 -0.13349 
0.0323059 10.0329 0.0255712 
-0.13349 0.0255712 9.94733 
10.0941 0.0167841 -0.0167891 
0.0167841 10.0089 0.0149269 
-0.0167891 0.0149269 10.0468 
10.0924 -0.00074492 -0.0175487 
-0.00074492 10.0824 0.0467344 
-0.0175487 0.0467344 9.97491 
10.0351 -0.018887 0.00218481 
-0.018887 10.1391 0.0274096 
0.00218481 0.0274096 9.97545 
10.0871 -0.0123833 0.00687643 
-0.0123833 10.0831 0.0639151 
0.00687643 0.0639151 9.97959 
10.1488 0.0420492 0.0819135 
0.0420492 9.86183 -0.0843832 
0.0819135 -0.0843832 9.40315 
9.97436 0.000681019 0.120441 
0.000681019 9.9516 -0.0349225 
0.120441 -0.0349225 9.48782 
9.97815 -0.169783 0.0947567 
-0.169783 10.193 0.0116668 
0.0947567 0.0116668 9.24261 
10.13 0.144199 0.110787 
0.144199 9.96648 -0.286592 
0.110787 -0.286592 9.31728 
9.23806 -1.36762 0.900262 
-1.36762 10.0801 -0.0640388 
0.900262 -0.0640388 12.3203 
9.9447 -1.30437 1.22038 
-1.30437 10.6124 0.644519 
1.22038 0.644519 11.0814 
9.40232 0.7075 0.72978 
0.7075 10.987 0.340142 
0.72978 0.340142 11.2491 
9.83058 -0.0838105 1.87539 
-0.0838105 9.9602 0.32211 
1.87539 0.32211 11.8477 
9.54878 0.0127149 -0.310953 
0.0127149 9.56955 0.0909923 
-0.310953 0.0909923 9.61631 
9.62615 -0.0122769 -0.301422 
-0.0122769 9.52349 0.0902361 
-0.301422 0.0902361 9.585 
9.53507 0.01539 -0.299992 
0.01539 9.57183 0.0991945 
-0.299992 0.0991945 9.62774 
9.53633 0.00462059 -0.327281 
0.00462059 9.57891 0.102792 
-0.327281 0.102792 9.61941 
9.59677 0.0086245 -0.0433201 
0.0086245 9.74571 0.128302 
-0.0433201 0.128302 9.74708 
9.68001 0.0159975 0.0650327 
0.0159975 9.30032 -0.0772515 
0.0650327 -0.0772515 10.1092 
9.57285 -0.0416038 -0.0142276 
-0.0416038 9.41843 0.387386 
-0.0142276 0.387386 10.0983 
9.61512 0.0079411 0.00730562 
0.0079411 9.50306 0.13723 
0.00730562 0.13723 9.97138 
9.89532 0.367629 0.128189 
0.367629 8.80283 0.09591 
0.128189 0.09591 9.61283 
9.91963 0.191163 0.151452 
0.191163 8.94701 -0.0254147 
0.151452 -0.0254147 9.44433 
9.65652 0.236072 0.0557656 
0.236072 9.21767 0.0918336 
0.0557656 0.0918336 9.43678 
10.1027 0.0786183 0.0813743 
0.0786183 8.82431 -0.426072 
0.0813743 -0.426072 9.38393 
9.10225 -0.636769 -2.04088 
-0.636769 7.85613 -4.29897 
-2.04088 -4.29897 6.92184 
9.07416 1.5557 -0.26736 
1.5557 8.75565 -1.21046 
-0.26736 -1.21046 6.05041 
9.47457 -0.444886 -1.56793 
-0.444886 7.53076 -3.45286 
-1.56793 -3.45286 6.87489 
8.98855 -1.67127 -0.907485 
-1.67127 6.88594 -3.24233 
-0.907485 -3.24233 8.00574 
11.952 1.98537 -0.960831 
1.98537 10.6638 0.823956 
-0.960831 0.823956 15.1281 
13.9401 0.987588 -1.24754 
0.987588 12.4433 0.122119 
-1.24754 0.122119 11.3605 
10.916 1.13136 0.216804 
1.13136 10.4866 1.5516 
0.216804 1.5516 16.3413 
12.2191 0.51884 -0.160189 
0.51884 9.98811 -0.725994 
-0.160189 -0.725994 15.5366 
9.78772 -0.217556 0.0522513 
-0.217556 9.65426 -0.130312 
0.0522513 -0.130312 9.16935 
9.41038 0.0224186 0.101661 
0.0224186 9.72267 -0.283633 
0.101661 -0.283633 9.47827 
9.64983 -0.00274545 0.34551 
-0.00274545 9.96996 -0.24858 
0.34551 -0.24858 8.99153 
9.84524 -0.0916231 0.293172 
-0.0916231 9.54704 -0.0357804 
0.293172 -0.0357804 9.21904 
6.60747 3.45315 3.86836 
3.45315 22.7212 -0.394138 
3.86836 -0.394138 5.6078 
2.36337 -1.74522 -3.0691 
-1.74522 8.89383 0.401764 
-3.0691 0.401764 23.6792 
3.12879 -6.23529 -3.48146 
-6.23529 9.67818 1.01714 
-3.48146 1.01714 22.1295 
15.2237 -0.724667 -4.13312 
-0.724667 9.15246 -2.57643 
-4.13312 -2.57643 10.5603 
9.28107 0.299804 -0.0936417 
0.299804 9.90328 -0.115801 
-0.0936417 -0.115801 9.79891 
9.57997 0.0288824 0.0091218 
0.0288824 9.61519 -0.0931687 
0.0091218 -0.0931687 9.7881 
9.41193 0.158297 -0.12269 
0.158297 9.64217 -0.405089 
-0.12269 -0.405089 9.92916 
9.36324 0.308355 -0.42174 
0.308355 9.87137 0.0754517 
-0.42174 0.0754517 9.74865 
10.5683 -0.284019 0.421521 
-0.284019 9.56778 -1.12498 
0.421521 -1.12498 9.91776 
11.064 -0.0997162 -0.00929675 
-0.0997162 9.30113 -1.36922 
-0.00929675 -1.36922 9.68868 
10.7296 0.307701 0.57427 
0.307701 8.77867 -1.64205 
0.57427 -1.64205 10.5455 
9.91695 -0.443705 -0.172819 
-0.443705 8.20884 0.588381 
-0.172819 0.588381 11.928 
9.66444 0.0270968 -0.0468722 
0.0270968 9.80642 0.057164 
-0.0468722 0.057164 9.95837 
9.76247 0.0481893 -0.183325 
0.0481893 9.84061 0.103625 
-0.183325 0.103625 9.82614 
9.67813 0.0131011 0.015973 
0.0131011 9.75389 0.0797549 
0.015973 0.0797549 9.99722 
9.69954 -0.0363501 -0.114363 
-0.0363501 9.76819 0.0374346 
-0.114363 0.0374346 9.9615 
9.52994 -0.00967121 0.270993 
-0.00967121 9.54409 0.170934 
0.270993 0.170934 9.74019 
9.54928 -0.0368115 0.339604 
-0.0368115 9.61267 0.196968 
0.339604 0.196968 9.65229 
9.62294 0.0201471 0.294999 
0.0201471 9.67756 0.132929 
0.294999 0.132929 9.51373 
9.56141 0.00304218 0.329024 
0.00304218 9.57262 0.173348 
0.329024 0.173348 9.6802 
9.57338 -0.0229398 -0.144253 
-0.0229398 9.60678 0.294503 
-0.144253 0.294503 9.59586 
9.61571 0.03892 -0.137275 
0.03892 9.54663 0.268651 
-0.137275 0.268651 9.61367 
9.57563 -0.00839085 -0.138805 
-0.00839085 9.57943 0.291179 
-0.138805 0.291179 9.62095 
9.58156 -0.0111267 -0.1644 
-0.0111267 9.55675 0.295611 
-0.1644 0.295611 9.63771 
9.76149 -0.0180929 0.272272 
-0.0180929 9.80963 0.164696 
0.272272 0.164696 9.91672 
9.80061 -0.0149174 0.217664 
-0.0149174 9.84903 0.126999 
0.217664 0.126999 9.83821 
9.72894 -0.0666555 0.188146 
-0.0666555 9.85105 0.109036 
0.188146 0.109036 9.90786 
9.85594 -0.0199527 0.231804 
-0.0199527 9.81785 0.0941002 
0.231804 0.0941002 9.81407 
9.49951 0.0107508 -0.328281 
0.0107508 9.63806 -0.03827 
-0.328281 -0.03827 9.57575 
9.46471 -0.128659 -0.298024 
-0.128659 9.45134 -0.126631 
-0.298024 -0.126631 9.79727 
9.4962 -0.025466 -0.407646 
-0.025466 9.61388 -0.141561 
-0.407646 -0.141561 9.60323 
9.49429 -0.0561083 -0.362339 
-0.0561083 9.55799 -0.0964864 
-0.362339 -0.0964864 9.66104 
9.67928 -0.0473314 -0.0382473 
-0.0473314 9.64741 -0.0561906 
-0.0382473 -0.0561906 9.66211 
9.66258 -0.00508981 0.0115242 
-0.00508981 9.63862 -0.0633253 
0.0115242 -0.0633253 9.68759 
9.77571 -0.036858 -0.0526038 
-0.036858 9.63475 -0.0363158 
-0.0526038 -0.0363158 9.57833 
9.74079 -0.0506287 -0.0711478 
-0.0506287 9.60593 0.0271501 
-0.0711478 0.0271501 9.64207 
9.44757 0.453415 0.841979 
0.453415 9.39641 -1.65824 
0.841979 -1.65824 6.44722 
9.31274 0.186002 0.535124 
0.186002 9.06502 -1.4085 
0.535124 -1.4085 6.91342 
8.9652 0.11145 0.96096 
0.11145 9.07948 -1.06683 
0.96096 -1.06683 7.24652 
9.1947 0.0135282 0.444625 
0.0135282 9.17058 -0.827429 
0.444625 -0.827429 6.92592 
9.49328 0.475929 -1.42026 
0.475929 9.68927 1.78727 
-1.42026 1.78727 5.09286 
8.25108 0.105025 -0.832867 
0.105025 9.78228 0.023717 
-0.832867 0.023717 6.24205 
8.68402 0.209183 -0.953916 
0.209183 9.29889 1.18017 
-0.953916 1.18017 6.2925 
8.64128 0.468795 -1.44017 
0.468795 9.64565 0.922137 
-1.44017 0.922137 5.98848 
9.9055 -0.00200103 0.0155667 
-0.00200103 9.89361 0.184231 
0.0155667 0.184231 9.80255 
9.89246 0.0377149 0.0245449 
0.0377149 9.86418 0.139817 
0.0245449 0.139817 9.84502 
9.88037 0.0147488 0.0446139 
0.0147488 9.88471 0.144476 
0.0446139 0.144476 9.83657 
9.8048 -0.000408614 0.0254441 
-0.000408614 10.0175 0.0552216 
0.0254441 0.0552216 9.7794 
13.8702 0.140776 0.35649 
0.140776 13.3494 0.714234 
0.35649 0.714234 10.1284 
11.5467 0.00809306 -0.96581 
0.00809306 10.5958 -0.267859 
-0.96581 -0.267859 15.2056 
11.5021 -0.486573 -0.416713 
-0.486573 11.7746 -0.753876 
-0.416713 -0.753876 14.0714 
11.9096 -0.459272 1.41216 
-0.459272 11.1166 -0.0972103 
1.41216 -0.0972103 14.3219 
10.7853 0.8502 1.27236 
0.8502 8.69507 3.28104 
1.27236 3.28104 1.28319 
9.32438 0.912522 4.35705 
0.912522 4.27622 0.776385 
4.35705 0.776385 7.163 
5.44938 -1.88268 1.30695 
-1.88268 10.2723 1.80794 
1.30695 1.80794 5.0419 
7.61382 0.215185 2.95135 
0.215185 8.86642 1.41841 
2.95135 1.41841 4.28336 
10.072 0.0103263 0.00777193 
0.0103263 10.0963 0.0275215 
0.00777193 0.0275215 10.0204 
10.1247 -0.00477399 -0.0416919 
-0.00477399 10.0747 -0.000862282 
-0.0416919 -0.000862282 9.98923 
10.1017 0.0146546 -0.0189296 
0.0146546 10.1088 -0.0268144 
-0.0189296 -0.0268144 9.97822 
10.0847 -0.0154864 0.00308552 
-0.0154864 10.1358 0.0558856 
0.00308552 0.0558856 9.96821 
9.75652 0.00570527 -0.263508 
0.00570527 9.71854 -0.0113903 
-0.263508 -0.0113903 9.69994 
9.79789 -0.0310858 -0.290148 
-0.0310858 9.81602 -0.0463094 
-0.290148 -0.0463094 9.56109 
9.7386 -0.00580709 -0.296442 
-0.00580709 9.71381 -0.0408046 
-0.296442 -0.0408046 9.72259 
9.76756 -0.00170976 -0.278067 
-0.00170976 9.71036 -0.00596211 
-0.278067 -0.00596211 9.69708 
10.0515 0.0260851 0.0298977 
0.0260851 9.92609 0.00430055 
0.0298977 0.00430055 9.91716 
9.93874 0.00678689 0.005463 
0.00678689 9.97019 -0.0848456 
0.005463 -0.0848456 9.98585 
10.0346 -0.00802133 0.0788589 
-0.00802133 9.84429 -0.14229 
0.0788589 -0.14229 10.0159 
9.9477 0.0214452 0.0491946 
0.0214452 10.0425 -0.161543 
0.0491946 -0.161543 9.90462 
11.9607 1.78229 -1.64526 
1.78229 5.65599 3.10938 
-1.64526 3.10938 2.91293 
6.93249 0.442306 -1.95743 
0.442306 9.152 0.144094 
-1.95743 0.144094 4.44512 
6.39656 -0.125651 -2.52682 
-0.125651 9.54055 -0.232632 
-2.52682 -0.232632 4.5925 
9.52051 2.39812 -3.46175 
2.39812 5.32826 -4.1118 
-3.46175 -4.1118 5.68084 
9.7643 -0.00850692 -0.174236 
-0.00850692 9.72543 -0.206697 
-0.174236 -0.206697 9.89319 
9.76681 -0.00720433 -0.155411 
-0.00720433 9.82259 -0.192166 
-0.155411 -0.192166 9.79353 
9.79679 -0.0339442 -0.141529 
-0.0339442 9.75216 -0.146421 
-0.141529 -0.146421 9.83398 
9.81863 -0.0324728 -0.188077 
-0.0324728 9.79471 -0.180279 
-0.188077 -0.180279 9.76958 
9.79374 0.029614 0.0604206 
0.029614 9.7902 -0.283557 
0.0604206 -0.283557 9.63464 
9.72599 0.00682248 0.0309854 
0.00682248 9.76092 -0.281763 
0.0309854 -0.281763 9.73167 
9.73919 -0.0172999 0.00519747 
-0.0172999 9.78465 -0.257949 
0.00519747 -0.257949 9.69474 
9.72986 -0.00609662 -0.0105852 
-0.00609662 9.7967 -0.274591 
-0.0105852 -0.274591 9.69202 
9.79501 0.0849823 0.0837439 
0.0849823 9.99546 0.0198297 
0.0837439 0.0198297 10.1137 
9.98529 -0.00773679 0.0693329 
-0.00773679 10.1025 -0.125626 
0.0693329 -0.125626 9.81631 
9.84363 0.0355001 0.0858586 
0.0355001 9.92714 -0.00648018 
0.0858586 -0.00648018 10.1334 
9.93297 0.0927191 0.219151 
0.0927191 9.91096 -0.0429872 
0.219151 -0.0429872 10.0602 
9.69688 -0.0275046 -0.0702705 
-0.0275046 9.75148 -0.0465672 
-0.0702705 -0.0465672 9.62514 
9.69278 0.0280333 -0.0866819 
0.0280333 9.8897 -0.124943 
-0.0866819 -0.124943 9.49101 
9.66722 0.0515968 -0.0175392 
0.0515968 9.74868 -0.0586117 
-0.0175392 -0.0586117 9.6576 
9.50966 0.0890818 -0.0393826 
0.0890818 10.024 0.156208 
-0.0393826 0.156208 9.53989 
9.80526 -0.688803 1.55646 
-0.688803 9.29652 0.918383 
1.55646 0.918383 9.73065 
10.5406 -0.486096 1.66287 
-0.486096 9.17946 0.423682 
1.66287 0.423682 9.11242 
9.54564 -0.59105 2.06723 
-0.59105 9.53793 1.23442 
2.06723 1.23442 9.74887 
9.5362 -0.967741 0.666938 
-0.967741 8.27001 1.21553 
0.666938 1.21553 11.0262 
7.41158 -0.485152 0.61927 
-0.485152 7.81475 -0.426582 
0.61927 -0.426582 0.0971321 
6.99646 1.33096 0.42472 
1.33096 8.94356 -2.98718 
0.42472 -2.98718 -0.616558 
9.027 0.480363 -0.503328 
0.480363 5.60836 -1.67898 
-0.503328 -1.67898 0.688097 
5.41355 -1.03288 1.16522 
-1.03288 8.67418 -1.9555 
1.16522 -1.9555 1.23573 
9.82067 0.00581174 0.0815213 
0.00581174 9.73865 0.0140584 
0.0815213 0.0140584 9.91972 
9.81319 -0.00258847 0.0247945 
-0.00258847 9.78923 0.000197203 
0.0247945 0.000197203 9.87662 
9.8247 -0.0181249 0.00480077 
-0.0181249 9.7779 -0.0378096 
0.00480077 -0.0378096 9.87643 
9.80658 -0.0123971 0.0286369 
-0.0123971 9.79271 0.00878139 
0.0286369 0.00878139 9.87975 
9.3927 0.919429 -0.395416 
0.919429 10.8799 -0.962864 
-0.395416 -0.962864 14.5832 
12.1068 1.17871 1.07061 
1.17871 12.4598 -0.029721 
1.07061 -0.029721 10.2893 
10.8473 0.57147 -0.0782907 
0.57147 11.1863 -0.341348 
-0.0782907 -0.341348 12.8222 
10.5529 0.744498 0.288803 
0.744498 11.5868 0.268484 
0.288803 0.268484 12.7161 
9.80083 0.157 0.41166 
0.157 9.7637 0.0126082 
0.41166 0.0126082 8.40599 
9.58033 0.143085 0.0993359 
0.143085 9.64012 -0.250004 
0.0993359 -0.250004 8.75007 
9.3126 -0.0492141 0.796751 
-0.0492141 9.18353 -0.281887 
0.796751 -0.281887 9.47439 
9.58261 0.0824592 0.29799 
0.0824592 9.59591 -0.125982 
0.29799 -0.125982 8.792 
10.7235 1.11662 -0.95037 
1.11662 8.96725 0.31834 
-0.95037 0.31834 13.7068 
11.2428 0.792856 -0.21785 
0.792856 10.0141 1.68754 
-0.21785 1.68754 12.1407 
10.0796 1.06231 0.353552 
1.06231 11.6592 0.198366 
0.353552 0.198366 11.6588 
11.0256 0.99174 -0.644008 
0.99174 9.95711 0.538242 
-0.644008 0.538242 12.4148 
9.88051 -0.0171601 0.194692 
-0.0171601 9.82204 -0.046419 
0.194692 -0.046419 9.82666 
9.86253 -0.0262669 0.187225 
-0.0262669 9.82296 -0.031905 
0.187225 -0.031905 9.84371 
9.87578 -0.0160396 0.188364 
-0.0160396 9.83741 -0.0726633 
0.188364 -0.0726633 9.81601 
9.86173 -0.016 0.206079 
-0.016 9.82665 -0.0644167 
0.206079 -0.0644167 9.84082 
13.7577 -1.14983 0.0854572 
-1.14983 14.3778 0.273534 
0.0854572 0.273534 8.67275 
10.9116 0.548226 -0.744063 
0.548226 12.1405 0.198449 
-0.744063 0.198449 13.7561 
10.2889 0.202494 0.271556 
0.202494 9.98488 -1.65873 
0.271556 -1.65873 16.5344 
11.1475 0.426555 -0.689378 
0.426555 11.6916 2.38598 
-0.689378 2.38598 13.9691 
8.93338 0.258708 0.822291 
0.258708 9.66742 0.125996 
0.822291 0.125996 8.29333 
8.72241 -0.0025607 0.686982 
-0.0025607 10.1074 0.0235162 
0.686982 0.0235162 8.06434 
9.07748 0.459483 0.802793 
0.459483 9.54958 0.236671 
0.802793 0.236671 8.26706 
9.01849 0.226507 0.297575 
0.226507 10.1518 -0.201353 
0.297575 -0.201353 7.72387 
9.76399 -0.0166856 -0.196884 
-0.0166856 9.73979 0.0489982 
-0.196884 0.0489982 9.70113 
9.82287 -0.0257481 -0.189462 
-0.0257481 9.72889 0.0815761 
-0.189462 0.0815761 9.65315 
9.76029 -0.00457524 -0.24449 
-0.00457524 9.6742 0.0477703 
-0.24449 0.0477703 9.77041 
9.77234 -0.0167015 -0.16634 
-0.0167015 9.74768 0.0212306 
-0.16634 0.0212306 9.68488 
10.0526 -0.0033863 0.0227385 
-0.0033863 10.1244 0.0233751 
0.0227385 0.0233751 9.9872 
10.1193 -0.0426983 0.051418 
-0.0426983 10.1256 0.00871923 
0.051418 0.00871923 9.91923 
10.0803 -0.0108841 0.00364488 
-0.0108841 10.0344 0.0234084 
0.00364488 0.0234084 10.0495 
10.0671 -0.0380346 0.0370237 
-0.0380346 10.0843 0.0334139 
0.0370237 0.0334139 10.0129 
9.75084 -0.00272199 0.0112536 
-0.00272199 9.74298 0.00102592 
0.0112536 0.00102592 9.9383 
9.74702 0.00340274 0.0141305 
0.00340274 9.7392 0.00369009 
0.0141305 0.00369009 9.94589 
9.7438 0.001641 0.014037 
0.001641 9.74235 0.0089669 
0.014037 0.0089669 9.94596 
9.73847 0.00434413 0.0102589 
0.00434413 9.73827 0.00214755 
0.0102589 0.00214755 9.95537 
9.17647 -0.0571383 -0.38761 
-0.0571383 9.41986 -0.0675609 
-0.38761 -0.0675609 10.3577 
9.53293 -0.146709 -0.282858 
-0.146709 9.64807 -0.121699 
-0.282858 -0.121699 9.773 
9.40692 -0.103232 -0.57997 
-0.103232 10.0473 -0.0033009 
-0.57997 -0.0033009 9.49974 
9.40112 0.306937 -0.395716 
0.306937 9.54156 -0.0662932 
-0.395716 -0.0662932 10.0113 
9.74519 0.0171717 0.0162337 
0.0171717 9.67305 -0.100391 
0.0162337 -0.100391 10.0034 
9.71046 -0.0178826 0.0021495 
-0.0178826 9.72541 -0.0306583 
0.0021495 -0.0306583 9.98573 
9.74184 0.0157099 -0.0265456 
0.0157099 9.70578 -0.0626433 
-0.0265456 -0.0626433 9.97399 
9.74457 -0.0530591 -0.00839383 
-0.0530591 9.71244 -0.0699487 
-0.00839383 -0.0699487 9.96459 
10.0622 0.0213239 -0.0196259 
0.0213239 10.0471 -0.00505181 
-0.0196259 -0.00505181 10.0229 
10.0625 0.0199465 -0.0703082 
0.0199465 10.0794 0.0471298 
-0.0703082 0.0471298 9.99032 
10.0375 -0.0415102 -0.0548972 
-0.0415102 10.1359 0.0167601 
-0.0548972 0.0167601 9.95872 
10.0616 0.000675506 -0.0482353 
0.000675506 10.0835 0.0276039 
-0.0482353 0.0276039 9.98713 
9.61765 0.223864 -0.0390362 
0.223864 9.13165 -0.0136263 
-0.0390362 -0.0136263 10.512 
9.54659 -0.126336 0.0642877 
-0.126336 9.48082 -0.0925373 
0.0642877 -0.0925373 10.2339 
9.51133 0.191666 -0.126892 
0.191666 9.18034 0.0181595 
-0.126892 0.0181595 10.5697 
9.47962 0.228061 0.0911378 
0.228061 9.29439 -0.130037 
0.0911378 -0.130037 10.4873 
9.63988 -0.0714172 0.030197 
-0.0714172 9.76113 -0.188207 
0.030197 -0.188207 9.68109 
9.68185 -0.0582466 0.110999 
-0.0582466 9.77537 -0.186867 
0.110999 -0.186867 9.62488 
9.645 -0.0542836 0.0393094 
-0.0542836 9.71758 -0.220573 
0.0393094 -0.220573 9.71952 
9.68295 -0.00207219 0.0943531 
-0.00207219 9.74948 -0.148508 
0.0943531 -0.148508 9.64967 
10.383 -0.0838619 0.131461 
-0.0838619 8.97679 0.302843 
0.131461 0.302843 10.8643 
9.8603 -0.287381 0.117719 
-0.287381 9.38539 0.306024 
0.117719 0.306024 10.9784 
9.7737 0.157399 -0.113862 
0.157399 9.53688 0.182336 
-0.113862 0.182336 10.9135 
9.90844 -0.130709 -0.0159526 
-0.130709 9.42111 0.360958 
-0.0159526 0.360958 10.8946 
6.18259 0.375951 -0.991108 
0.375951 6.57209 0.290833 
-0.991108 0.290833 1.59263 
6.48464 0.341892 -0.503806 
0.341892 6.14932 0.275084 
-0.503806 0.275084 1.71335 
6.33595 0.246049 -1.38286 
0.246049 6.52881 0.421258 
-1.38286 0.421258 1.48256 
6.42792 -0.37259 -0.747695 
-0.37259 6.00511 -0.246217 
-0.747695 -0.246217 1.91428 
9.74976 -0.0174487 0.321351 
-0.0174487 9.68622 0.0101371 
0.321351 0.0101371 9.63673 
9.70482 0.0203522 0.294089 
0.0203522 9.69725 0.0453858 
0.294089 0.0453858 9.67064 
9.715 -0.0113522 0.325798 
-0.0113522 9.69746 -0.0021404 
0.325798 -0.0021404 9.66026 
9.74466 -0.00463972 0.319566 
-0.00463972 9.72028 0.024032 
0.319566 0.024032 9.60777 
9.39494 0.325188 0.431295 
0.325188 9.61016 -0.495801 
0.431295 -0.495801 9.42294 
9.72401 0.257966 0.638964 
0.257966 9.37642 -0.504714 
0.638964 -0.504714 9.3276 
9.42194 0.173365 0.424528 
0.173365 9.68455 -0.540655 
0.424528 -0.540655 9.32155 
9.44358 0.234778 0.486852 
0.234778 9.48999 -0.462924 
0.486852 -0.462924 9.49447 
10.1202 0.0282117 -0.00447512 
0.0282117 10.1424 0.0376831 
-0.00447512 0.0376831 9.9938 
10.1511 -0.000364778 0.00870603 
-0.000364778 10.1469 0.0330893 
0.00870603 0.0330893 9.95836 
10.1276 -0.00160106 0.00463104 
-0.00160106 10.1378 -0.00169393 
0.00463104 -0.00169393 9.99089 
10.157 -0.00539541 -0.00234344 
-0.00539541 10.1304 -0.0231645 
-0.00234344 -0.0231645 9.96898 
9.61712 1.25889 1.29621 
1.25889 8.86739 -1.01219 
1.29621 -1.01219 10.5502 
9.78404 1.24306 0.347296 
1.24306 8.77334 -0.176677 
0.347296 -0.176677 10.4773 
10.2931 1.3566 0.47785 
1.3566 10.4108 -0.922419 
0.47785 -0.922419 8.33071 
9.69692 1.63979 0.542281 
1.63979 8.67739 0.511551 
0.542281 0.511551 10.6604 
6.30591 -0.22971 -2.35847 
-0.22971 8.09936 -0.941094 
-2.35847 -0.941094 -2.37711 
8.00837 0.309167 -0.810924 
0.309167 7.30961 -0.32348 
-0.810924 -0.32348 -3.28981 
3.05745 -0.493559 0.658965 
-0.493559 1.36845 1.25766 
0.658965 1.25766 7.60227 
5.89236 1.66421 -2.97861 
1.66421 6.64952 4.57434 
-2.97861 4.57434 -0.513713 
9.53366 -0.0282185 0.0612737 
-0.0282185 9.52041 0.348394 
0.0612737 0.348394 9.63767 
9.58852 -0.0181771 0.100221 
-0.0181771 9.56946 0.356476 
0.100221 0.356476 9.53376 
9.52113 -0.011143 0.0648879 
-0.011143 9.582 0.338675 
0.0648879 0.338675 9.58861 
9.58448 -0.0324479 0.0860385 
-0.0324479 9.54903 0.336422 
0.0860385 0.336422 9.55823 
9.69238 -0.0275304 -0.259074 
-0.0275304 9.75209 -0.169769 
-0.259074 -0.169769 9.78386 
9.74317 0.00176501 -0.257513 
0.00176501 9.74442 -0.186767 
-0.257513 -0.186767 9.74073 
9.77603 0.023685 -0.279415 
0.023685 9.74068 -0.199909 
-0.279415 -0.199909 9.71161 
9.77651 0.0188806 -0.227926 
0.0188806 9.74112 -0.182147 
-0.227926 -0.182147 9.71069 
9.08409 -0.550935 -0.692995 
-0.550935 9.04283 -2.27424 
-0.692995 -2.27424 8.13754 
8.87056 -0.350284 -0.478225 
-0.350284 9.65287 -1.28622 
-0.478225 -1.28622 7.74103 
9.22316 -0.463925 -0.71535 
-0.463925 9.35708 -1.33292 
-0.71535 -1.33292 7.68422 
8.4668 -0.463263 -1.16736 
-0.463263 8.44454 -1.27048 
-1.16736 -1.27048 9.35311 
10.0097 -0.00230963 -0.0312099 
-0.00230963 10.0428 -0.0590968 
-0.0312099 -0.0590968 9.9697 
10.0576 -0.00407591 -0.0677818 
-0.00407591 10.0425 -0.0367073 
-0.0677818 -0.0367073 9.92205 
10.012 0.0014638 -0.0206536 
0.0014638 10.0133 -0.0738428 
-0.0206536 -0.0738428 9.99691 
10.0246 -0.0117374 -0.0386448 
-0.0117374 10.0276 -0.0423821 
-0.0386448 -0.0423821 9.97009 
10.0962 -0.00204411 0.0139844 
-0.00204411 10.1573 0.0194693 
0.0139844 0.0194693 9.98862 
10.1194 -0.0147509 0.0112529 
-0.0147509 10.1154 0.0468041 
0.0112529 0.0468041 10.0073 
10.1234 0.0106937 -0.0177111 
0.0106937 10.1029 -0.0109701 
-0.0177111 -0.0109701 10.0158 
10.1295 -0.00427865 -0.0143791 
-0.00427865 10.1295 0.0128322 
-0.0143791 0.0128322 9.98309 
9.93782 -0.0793521 0.22595 
-0.0793521 9.6068 0.428236 
0.22595 0.428236 9.7175 
9.6408 0.054004 0.100938 
0.054004 9.33028 0.0768946 
0.100938 0.0768946 10.291 
9.57767 0.120815 -0.0872577 
0.120815 9.52353 -0.16697 
-0.0872577 -0.16697 10.1609 
9.96929 -0.0337677 0.10024 
-0.0337677 9.14299 0.0855358 
0.10024 0.0855358 10.1498 
7.83967 0.62403 1.74773 
0.62403 8.65271 0.451558 
1.74773 0.451558 8.55795 
9.09195 0.0165158 1.27569 
0.0165158 8.67388 0.444816 
1.27569 0.444816 7.2845 
8.77275 -0.503405 2.30878 
-0.503405 8.77559 0.274984 
2.30878 0.274984 7.50199 
9.04021 0.0925084 1.2832 
0.0925084 8.80809 0.230323 
1.2832 0.230323 7.20203 
9.99234 -0.0205665 0.0809283 
-0.0205665 9.97861 0.0761333 
0.0809283 0.0761333 10.0125 
10.0184 0.00819102 0.0201434 
0.00819102 10.0663 0.0991052 
0.0201434 0.0991052 9.89876 
10.0263 0.0453523 0.0698999 
0.0453523 10.0345 0.0685832 
0.0698999 0.0685832 9.92271 
9.98869 0.00732456 0.0748892 
0.00732456 10.0056 0.104687 
0.0748892 0.104687 9.98918 
9.77083 -0.00580738 -0.197008 
-0.00580738 9.79206 0.23133 
-0.197008 0.23133 9.74561 
9.7331 -0.0666875 -0.228655 
-0.0666875 9.77892 0.214384 
-0.228655 0.214384 9.79648 
9.80431 0.0535324 -0.254867 
0.0535324 9.76011 0.199285 
-0.254867 0.199285 9.74408 
9.77207 -0.00299155 -0.22949 
-0.00299155 9.7781 0.22547 
-0.22949 0.22547 9.75833 
9.80108 0.11267 -0.0802694 
0.11267 9.65525 0.00469707 
-0.0802694 0.00469707 9.61103 
9.7597 0.0262429 -0.0695539 
0.0262429 9.62693 -0.0192327 
-0.0695539 -0.0192327 9.68073 
9.76518 0.0127659 -0.0222845 
0.0127659 9.61397 0.0114049 
-0.0222845 0.0114049 9.6882 
9.68025 -0.024757 -0.165344 
-0.024757 9.62979 -0.0989212 
-0.165344 -0.0989212 9.75732 
9.74724 -0.614315 0.470355 
-0.614315 9.33033 0.187301 
0.470355 0.187301 7.86245 
9.26692 0.958428 -1.11995 
0.958428 11.3161 0.365819 
-1.11995 0.365819 6.357 
10.1677 0.00239152 -0.58365 
0.00239152 8.90463 -0.325386 
-0.58365 -0.325386 7.86766 
8.06458 0.747873 0.301126 
0.747873 9.69517 0.735901 
0.301126 0.735901 9.18026 
10.3255 0.195679 -0.0515056 
0.195679 10.5121 -0.0657054 
-0.0515056 -0.0657054 11.5665 
11.0225 -0.928652 -0.104396 
-0.928652 11.675 -0.198193 
-0.104396 -0.198193 9.70657 
8.90178 0.149871 -0.556246 
0.149871 10.4977 -0.223341 
-0.556246 -0.223341 13.0046 
9.8322 -0.197843 0.00271684 
-0.197843 11.1936 1.42809 
0.00271684 1.42809 11.3783 
10.8822 -0.755845 -0.0338406 
-0.755845 10.0993 0.0972423 
-0.0338406 0.0972423 13.1772 
10.4517 -0.503841 0.530164 
-0.503841 11.9287 -0.144646 
0.530164 -0.144646 11.7783 
9.75344 -0.469799 0.139942 
-0.469799 11.1219 -0.840722 
0.139942 -0.840722 13.2834 
11.6188 -1.01409 -1.09647 
-1.01409 10.1234 -0.1537 
-1.09647 -0.1537 12.4165 
9.87054 -0.209129 -0.356191 
-0.209129 9.17337 -0.181776 
-0.356191 -0.181776 9.32845 
10.1285 -0.577799 -0.0546735 
-0.577799 9.55903 -0.383735 
-0.0546735 -0.383735 8.68487 
9.30327 -0.668901 0.0808255 
-0.668901 9.43825 0.415249 
0.0808255 0.415249 9.63083 
11.3773 -0.22424 0.0634093 
-0.22424 8.19222 -0.293386 
0.0634093 -0.293386 8.80279 
9.56879 -0.248008 0.289454 
-0.248008 9.32493 -0.025791 
0.289454 -0.025791 9.5923 
9.61775 -0.162216 0.37294 
-0.162216 9.38221 -0.0306338 
0.37294 -0.0306338 9.48606 
9.59513 -0.114063 0.365468 
-0.114063 9.29026 -0.124076 
0.365468 -0.124076 9.60063 
9.51337 -0.136627 0.375163 
-0.136627 9.49932 -0.0205493 
0.375163 -0.0205493 9.47332 
9.47264 0.0106655 -0.343058 
0.0106655 9.59736 -0.00923808 
-0.343058 -0.00923808 9.92058 
9.6571 -0.0288302 -0.159778 
-0.0288302 9.57518 -0.0898895 
-0.159778 -0.0898895 9.7583 
9.28651 0.0369347 0.0301656 
0.0369347 9.63049 0.0887373 
0.0301656 0.0887373 10.0736 
9.47395 -0.0462762 -0.0998473 
-0.0462762 9.62386 0.0202081 
-0.0998473 0.0202081 9.89277 
9.73801 -0.317669 2.83793 
-0.317669 8.43875 1.34364 
2.83793 1.34364 4.06122 
6.91412 1.55851 2.60784 
1.55851 9.46829 1.26694 
2.60784 1.26694 5.85556 
8.75709 0.46774 3.49889 
0.46774 7.96047 -0.424113 
3.49889 -0.424113 5.52041 
8.92807 -1.66952 2.3717 
-1.66952 6.74214 -1.91325 
2.3717 -1.91325 6.56776 
9.92833 0.0293316 -0.0568767 
0.0293316 10.0052 -0.00769266 
-0.0568767 -0.00769266 10.1071 
10.0991 -0.00651038 -0.0400705 
-0.00651038 10.1136 0.0147622 
-0.0400705 0.0147622 9.82787 
10.0054 0.01065 -0.0687244 
0.01065 10.0343 0.0448591 
-0.0687244 0.0448591 10.0009 
10.0833 0.0176878 -0.170062 
0.0176878 10.037 0.0516794 
-0.170062 0.0516794 9.92035 
9.74321 -0.0126799 -0.0118233 
-0.0126799 9.71517 0.0066311 
-0.0118233 0.0066311 9.96966 
9.74188 -0.00628615 -0.0251967 
-0.00628615 9.73964 -0.000675471 
-0.0251967 -0.000675471 9.94654 
9.74683 -0.0100349 -0.0192604 
-0.0100349 9.74932 -0.00727581 
-0.0192604 -0.00727581 9.9319 
9.72788 0.00933129 -0.015548 
0.00933129 9.7537 -0.00462955 
-0.015548 -0.00462955 9.94647 
9.53759 -0.0263167 0.117598 
-0.0263167 9.8936 0.133924 
0.117598 0.133924 9.80915 
9.62524 -0.0813796 0.00416998 
-0.0813796 9.68196 0.134038 
0.00416998 0.134038 9.93314 
9.80855 -0.0534219 0.0365881 
-0.0534219 9.51415 0.0897719 
0.0365881 0.0897719 9.91764 
9.66399 -0.183125 0.00388937 
-0.183125 9.67779 0.1851 
0.00388937 0.1851 9.89856 
11.5421 0.187986 -0.154169 
0.187986 11.119 -0.0532994 
-0.154169 -0.0532994 12.6806 
10.6238 0.0182773 -0.219612 
0.0182773 12.6701 0.169472 
-0.219612 0.169472 12.0478 
11.512 0.751122 -0.206289 
0.751122 11.5354 0.24014 
-0.206289 0.24014 12.2943 
11.5155 0.321697 -0.216497 
0.321697 11.6808 0.465664 
-0.216497 0.465664 12.1454 
9.84676 -0.196236 -0.0811823 
-0.196236 9.59228 0.177325 
-0.0811823 0.177325 11.0512 
9.99032 -0.326201 0.531969 
-0.326201 10.0689 0.234035 
0.531969 0.234035 10.431 
10.0977 -0.38282 -0.300753 
-0.38282 9.00068 0.436369 
-0.300753 0.436369 11.3918 
9.64896 -0.0190912 -0.0961293 
-0.0190912 9.44835 -0.0870779 
-0.0961293 -0.0870779 11.3929 
9.75999 0.0286103 -0.153585 
0.0286103 9.63118 -0.014103 
-0.153585 -0.014103 9.74698 
9.70276 0.0601827 -0.0335658 
0.0601827 9.61078 -0.0406819 
-0.0335658 -0.0406819 9.82461 
9.70496 0.0363104 -0.207864 
0.0363104 9.64591 0.0197351 
-0.207864 0.0197351 9.78728 
9.90059 -0.0230324 -0.213166 
-0.0230324 9.58488 -0.073991 
-0.213166 -0.073991 9.65268 
10.1344 -0.00472055 -0.0109073 
-0.00472055 10.1438 -0.00483542 
-0.0109073 -0.00483542 10.0023 
10.1541 0.000494099 0.0162189 
0.000494099 10.1555 0.0130647 
0.0162189 0.0130647 9.97092 
10.1454 -0.0054794 0.0198343 
-0.0054794 10.1635 -0.00203662 
0.0198343 -0.00203662 9.97158 
10.1508 -0.0117037 0.0324438 
-0.0117037 10.1766 0.00933748 
0.0324438 0.00933748 9.95311 
9.04261 -0.356151 -0.176209 
-0.356151 10.2996 -0.16819 
-0.176209 -0.16819 8.09923 
8.74679 -0.0360953 0.48007 
-0.0360953 10.3649 0.851643 
0.48007 0.851643 8.32982 
10.8237 0.414823 0.496655 
0.414823 9.04083 1.4635 
0.496655 1.4635 7.57691 
10.04 0.490201 -0.623134 
0.490201 8.60358 -0.306699 
-0.623134 -0.306699 8.79789 
9.76517 -0.0155019 -0.130527 
-0.0155019 9.77511 0.289001 
-0.130527 0.289001 9.75139 
9.76005 -0.0189304 -0.139394 
-0.0189304 9.79411 0.260123 
-0.139394 0.260123 9.7375 
9.76269 -0.0100676 -0.130837 
-0.0100676 9.7699 0.274856 
-0.130837 0.274856 9.75908 
9.743 -0.0153311 -0.139465 
-0.0153311 9.75792 0.258575 
-0.139465 0.258575 9.79075 
10.4265 0.912301 -1.04339 
0.912301 11.5467 0.677337 
-1.04339 0.677337 13.3064 
10.6809 0.425568 -0.973579 
0.425568 11.4821 0.175207 
-0.973579 0.175207 13.1166 
11.8717 0.179796 -0.358366 
0.179796 13.244 0.042336 
-0.358366 0.042336 10.1639 
10.9514 0.590662 -0.501094 
0.590662 11.612 -0.0901768 
-0.501094 -0.0901768 12.7161 
10.0293 -0.0129928 -0.0347663 
-0.0129928 10.0882 -0.0454212 
-0.0347663 -0.0454212 9.98073 
10.1147 -0.0219146 -0.0220855 
-0.0219146 10.1038 -0.0289109 
-0.0220855 -0.0289109 9.87976 
10.0067 -0.0238371 -0.0387689 
-0.0238371 10.0126 0.0009253 
-0.0387689 0.0009253 10.079 
10.1203 -0.00925213 -0.0814606 
-0.00925213 10.0675 -0.0673591 
-0.0814606 -0.0673591 9.91049 
9.46397 -0.0328961 -0.0631626 
-0.0328961 9.85687 -0.0239276 
-0.0631626 -0.0239276 9.79993 
9.55794 -0.0861032 -0.27674 
-0.0861032 9.74898 -0.0544133 
-0.27674 -0.0544133 9.81385 
9.51743 -0.0516124 -0.12543 
-0.0516124 9.75376 0.0110036 
-0.12543 0.0110036 9.84958 
9.5495 -0.156075 -0.1335 
-0.156075 9.74589 0.0551071 
-0.1335 0.0551071 9.82539 
10.567 0.104804 -0.126173 
0.104804 9.54116 -0.201377 
-0.126173 -0.201377 10.2377 
10.2931 0.0903626 -0.0192197 
0.0903626 9.49804 -0.149146 
-0.0192197 -0.149146 10.5548 
9.7348 -0.0924473 -0.265703 
-0.0924473 9.98903 -0.130266 
-0.265703 -0.130266 10.6221 
9.90031 0.117957 0.0513713 
0.117957 10.0549 -0.478848 
0.0513713 -0.478848 10.3907 
9.92419 -0.0299713 -0.0835334 
-0.0299713 9.93354 -0.0605199 
-0.0835334 -0.0605199 9.9337 
9.88567 -0.0131146 -0.0822863 
-0.0131146 9.95125 -0.0373286 
-0.0822863 -0.0373286 9.95451 
9.85564 -0.229884 -0.176553 
-0.229884 9.90902 -0.191097 
-0.176553 -0.191097 10.0268 
9.99847 0.165201 -0.109267 
0.165201 10.0058 -0.144868 
-0.109267 -0.144868 9.7872 
9.79024 0.00730594 -0.114566 
0.00730594 9.66604 -0.184835 
-0.114566 -0.184835 9.83142 
9.71538 0.0588488 -0.125312 
0.0588488 9.68073 -0.285259 
-0.125312 -0.285259 9.8916 
9.76975 -0.031281 -0.132157 
-0.031281 9.74057 -0.232302 
-0.132157 -0.232302 9.77738 
9.80627 0.00425335 -0.163022 
0.00425335 9.74285 -0.236749 
-0.163022 -0.236749 9.73858 
11.0348 0.30976 0.0422674 
0.30976 14.5092 -0.338887 
0.0422674 -0.338887 7.81765 
8.43774 -0.630212 -0.509515 
-0.630212 9.07875 1.07965 
-0.509515 1.07965 15.8451 
10.8713 -1.25493 -0.382045 
-1.25493 10.6636 -0.456775 
-0.382045 -0.456775 11.8267 
11.0352 -0.450161 -0.0645107 
-0.450161 9.32211 -4.44943 
-0.0645107 -4.44943 13.0043 
9.73463 0.0128973 -0.109225 
0.0128973 9.75645 -0.307744 
-0.109225 -0.307744 9.74049 
9.73567 0.0317127 -0.0858059 
0.0317127 9.78588 -0.294927 
-0.0858059 -0.294927 9.71002 
9.72067 -0.010927 -0.0692945 
-0.010927 9.75207 -0.297364 
-0.0692945 -0.297364 9.75883 
9.76685 0.0133202 -0.0845328 
0.0133202 9.79347 -0.287756 
-0.0845328 -0.287756 9.67124 
9.65595 1.05447 0.187056 
1.05447 8.70403 0.987849 
0.187056 0.987849 11.0721 
9.74538 -0.0961047 -2.0028 
-0.0961047 8.98169 0.0173317 
-2.0028 0.0173317 10.705 
9.79019 0.700147 -2.76544 
0.700147 8.4362 1.28937 
-2.76544 1.28937 11.2056 
10.2878 -0.0672567 0.504958 
-0.0672567 9.01477 1.39855 
0.504958 1.39855 10.1294 
9.73605 -0.0961075 -0.103002 
-0.0961075 9.7569 -0.0899525 
-0.103002 -0.0899525 9.975 
9.72995 -0.0917379 -0.142734 
-0.0917379 9.79757 -0.135228 
-0.142734 -0.135228 9.94042 
9.74993 -0.201684 -0.288114 
-0.201684 9.76274 -0.299007 
-0.288114 -0.299007 9.95527 
9.83282 0.178883 -0.128099 
0.178883 9.86033 -0.167175 
-0.128099 -0.167175 9.77479 
10.1995 0.306186 0.447387 
0.306186 10.5139 -0.492856 
0.447387 -0.492856 10.8739 
10.0553 0.781035 0.609165 
0.781035 10.3161 -0.306268 
0.609165 -0.306268 11.216 
9.83593 0.882592 0.470321 
0.882592 10.1787 -0.374159 
0.470321 -0.374159 11.5727 
10.2285 0.944074 0.513711 
0.944074 9.97117 -0.569622 
0.513711 -0.569622 11.3877 
9.51287 -0.525314 -0.740283 
-0.525314 9.79756 -0.361029 
-0.740283 -0.361029 8.91696 
9.73247 -0.0887654 -0.656013 
-0.0887654 9.9805 -0.321649 
-0.656013 -0.321649 8.51441 
9.57039 0.453923 -2.24085 
0.453923 9.41628 -0.787259 
-2.24085 -0.787259 9.24072 
9.1577 -0.123747 -0.639477 
-0.123747 9.66208 -0.341151 
-0.639477 -0.341151 9.40761 
9.41983 0.28305 0.248593 
0.28305 9.35114 -0.12255 
0.248593 -0.12255 9.98319 
9.42362 0.222482 0.49591 
0.222482 9.56715 -0.0606117 
0.49591 -0.0606117 9.7634 
9.38175 0.379004 0.145167 
0.379004 9.37327 -0.13135 
0.145167 -0.13135 9.99914 
9.72604 0.223493 0.284538 
0.223493 9.21561 -0.0945075 
0.284538 -0.0945075 9.81251 
-0.170987 -0.0889327 -0.592744 
-0.0889327 1.16049 0.694176 
-0.592744 0.694176 13.3188 
7.2792 -0.439125 1.15391 
-0.439125 10.0301 -1.02167 
1.15391 -1.02167 -3.00094 
10.683 -1.08784 -1.73526 
-1.08784 11.8678 -1.82235 
-1.73526 -1.82235 -8.24244 
8.14166 1.50366 6.57007 
1.50366 3.76572 -10.8962 
6.57007 -10.8962 2.40093 
9.82332 -0.0174908 -0.0295853 
-0.0174908 9.78978 -0.0161632 
-0.0295853 -0.0161632 9.99564 
9.81651 0.00574222 -0.00993774 
0.00574222 9.81638 0.0328917 
-0.00993774 0.0328917 9.97585 
9.80265 -0.00678234 -0.0250203 
-0.00678234 9.82458 -0.0134769 
-0.0250203 -0.0134769 9.98151 
9.81237 -0.0071162 -0.00282588 
-0.0071162 9.81763 0.00087887 
-0.00282588 0.00087887 9.97874 
9.47743 -0.435421 -0.314824 
-0.435421 9.00698 0.395979 
-0.314824 0.395979 9.70893 
9.75402 -0.166489 -0.379225 
-0.166489 8.86236 0.347476 
-0.379225 0.347476 9.57696 
9.44653 -0.18517 -0.370756 
-0.18517 9.12524 0.251511 
-0.370756 0.251511 9.62157 
9.7377 -0.158281 -0.322035 
-0.158281 8.92853 0.522366 
-0.322035 0.522366 9.52711 
12.5123 -1.81353 1.38051 
-1.81353 12.9941 0.443869 
1.38051 0.443869 9.65467 
10.3818 -1.66836 0.520129 
-1.66836 9.36456 1.13451 
0.520129 1.13451 15.4146 
11.1926 -1.56275 -0.341447 
-1.56275 8.17974 1.69321 
-0.341447 1.69321 15.7888 
11.151 -0.3916 0.314421 
-0.3916 9.61289 -0.616588 
0.314421 -0.616588 14.3972 
9.04893 -0.639769 0.457287 
-0.639769 9.26343 1.70919 
0.457287 1.70919 5.22022 
9.77662 -0.5173 0.617028 
-0.5173 8.20164 0.976695 
0.617028 0.976695 5.55433 
9.3216 0.00822957 0.553013 
0.00822957 8.1574 0.565658 
0.553013 0.565658 6.05359 
9.04815 0.00133165 1.23708 
0.00133165 8.25628 0.710564 
1.23708 0.710564 6.22816 
9.947 1.34601 0.145015 
1.34601 8.78897 -0.806723 
0.145015 -0.806723 10.824 
9.46087 1.36862 0.492085 
1.36862 9.2657 -0.541638 
0.492085 -0.541638 10.8334 
10.755 1.33213 0.312313 
1.33213 8.13614 -0.9696 
0.312313 -0.9696 10.6688 
9.80745 0.882515 0.326387 
0.882515 9.39814 -0.84249 
0.326387 -0.84249 10.3544 
10.9875 0.745438 -0.161095 
0.745438 11.7784 0.196014 
-0.161095 0.196014 10.8297 
11.9501 -0.204572 -0.176668 
-0.204572 9.50481 -0.0980119 
-0.176668 -0.0980119 12.1407 
10.2674 0.186064 -0.215775 
0.186064 11.4938 -0.0356163 
-0.215775 -0.0356163 11.8343 
10.5624 0.263736 -0.649055 
0.263736 11.9285 -0.723656 
-0.649055 -0.723656 11.1047 
11.2697 -0.287649 -0.101401 
-0.287649 13.9388 -0.99981 
-0.101401 -0.99981 11.4652 
8.87356 -0.856146 -0.936879 
-0.856146 10.419 1.14997 
-0.936879 1.14997 17.3811 
10.6331 -0.226624 0.0723486 
-0.226624 12.2711 0.455452 
0.0723486 0.455452 13.7694 
10.8913 -1.5036 -0.148105 
-1.5036 14.9372 1.33435 
-0.148105 1.33435 10.8452 
13.4797 0.504315 -0.325918 
0.504315 13.6407 -0.626062 
-0.325918 -0.626062 10.8435 
12.2345 0.66676 -0.519903 
0.66676 10.8309 0.6084 
-0.519903 0.6084 14.8986 
11.2132 -0.0441439 -0.380762 
-0.0441439 10.6761 -0.513575 
-0.380762 -0.513575 16.0747 
12.3808 1.12492 1.63767 
1.12492 11.9876 1.09292 
1.63767 1.09292 13.5956 
9.54812 -0.323082 0.382414 
-0.323082 9.38084 0.253548 
0.382414 0.253548 9.21035 
9.4993 -0.0918165 0.107424 
-0.0918165 9.40247 0.0986981 
0.107424 0.0986981 9.23755 
9.49257 -0.0259002 0.0944057 
-0.0259002 9.3376 0.215881 
0.0944057 0.215881 9.30915 
9.3833 -0.0212728 -0.0055367 
-0.0212728 9.5204 -0.0593661 
-0.0055367 -0.0593661 9.23561 
9.98763 -0.0355399 -0.00688175 
-0.0355399 10.0113 -0.0495637 
-0.00688175 -0.0495637 10.101 
10.1112 -0.0139798 -0.0644117 
-0.0139798 10.1239 -0.0214591 
-0.0644117 -0.0214591 9.86469 
10.0395 -0.0311318 -0.0536584 
-0.0311318 10.0377 -0.0394033 
-0.0536584 -0.0394033 10.0226 
9.97667 -0.0252094 -0.13448 
-0.0252094 10.1074 -0.115816 
-0.13448 -0.115816 10.0158 
9.80492 0.0542746 -0.164888 
0.0542746 9.70544 -0.0436451 
-0.164888 -0.0436451 9.70276 
9.81458 0.0493191 -0.165841 
0.0493191 9.70561 -0.0601691 
-0.165841 -0.0601691 9.69293 
9.75822 0.0363634 -0.183647 
0.0363634 9.74152 -0.0664878 
-0.183647 -0.0664878 9.71337 
9.78403 0.0497924 -0.176274 
0.0497924 9.70126 -0.071612 
-0.176274 -0.071612 9.72783 
9.75357 0.00746691 -0.129583 
0.00746691 9.81855 -0.622995 
-0.129583 -0.622995 9.38633 
9.60309 -0.136066 0.857831 
-0.136066 9.40482 0.106094 
0.857831 0.106094 9.95054 
9.04774 0.316002 0.445814 
0.316002 9.61977 0.441654 
0.445814 0.441654 10.2909 
9.14384 0.319212 0.609551 
0.319212 10.1252 -0.571353 
0.609551 -0.571353 9.68944 
0.618838 -2.94462 -2.29077 
-2.94462 10.9418 -1.13163 
-2.29077 -1.13163 23.5622 
5.13075 -3.27338 -1.95433 
-3.27338 9.66528 0.475366 
-1.95433 0.475366 20.3269 
9.88659 -1.87749 2.65178 
-1.87749 14.3815 0.58927 
2.65178 0.58927 10.8548 
10.9201 -0.575513 -3.0153 
-0.575513 10.9971 -0.690841 
-3.0153 -0.690841 13.2057 
9.86556 0.00918448 -0.273095 
0.00918448 9.58133 -0.00901729 
-0.273095 -0.00901729 9.598 
9.75175 0.0336015 -0.239371 
0.0336015 9.65302 -0.065734 
-0.239371 -0.065734 9.64012 
9.72566 0.00406376 -0.222498 
0.00406376 9.65974 -0.124624 
-0.222498 -0.124624 9.65949 
9.72666 0.0595782 -0.272443 
0.0595782 9.68797 -0.0666173 
-0.272443 -0.0666173 9.63026 
9.74966 -0.00468246 0.12761 
-0.00468246 9.75009 -0.291424 
0.12761 -0.291424 9.75111 
9.75762 -0.00112671 0.124202 
-0.00112671 9.75338 -0.292225 
0.124202 -0.292225 9.73987 
9.76833 -0.00364978 0.120403 
-0.00364978 9.76335 -0.294107 
0.120403 -0.294107 9.71918 
9.75911 -0.00698511 0.13217 
-0.00698511 9.75545 -0.282011 
0.13217 -0.282011 9.7363 
9.52651 -0.11714 0.32935 
-0.11714 9.55023 0.240869 
0.32935 0.240869 9.63419 
9.39199 -0.111251 0.514748 
-0.111251 9.55512 0.257028 
0.514748 0.257028 9.76383 
9.37162 -0.0981105 0.197234 
-0.0981105 9.58951 0.110359 
0.197234 0.110359 9.7498 
9.70725 -0.0548648 0.35146 
-0.0548648 9.62508 0.388279 
0.35146 0.388279 9.3786 
7.61809 -0.370535 -1.3407 
-0.370535 10.1211 4.73779 
-1.3407 4.73779 7.26484 
6.86899 0.719735 -0.834888 
0.719735 12.3599 1.12042 
-0.834888 1.12042 5.77516 
12.8507 0.00920577 -1.08333 
0.00920577 7.64647 7.02209 
-1.08333 7.02209 4.50688 
10.9667 -0.202983 0.279885 
-0.202983 5.46063 2.11382 
0.279885 2.11382 8.57671 
9.71257 -0.0248873 0.0845835 
-0.0248873 9.60594 0.303726 
0.0845835 0.303726 9.66539 
9.65107 0.00974425 0.0291208 
0.00974425 9.72056 0.237218 
0.0291208 0.237218 9.61227 
9.67876 0.0247675 0.0252511 
0.0247675 9.74016 0.249777 
0.0252511 0.249777 9.56498 
9.64595 0.016554 0.0218982 
0.016554 9.71615 0.22333 
0.0218982 0.22333 9.62181 
8.81815 0.630357 -0.598081 
0.630357 9.49098 0.328516 
-0.598081 0.328516 9.71447 
8.9859 0.194194 -0.537852 
0.194194 9.5666 0.409575 
-0.537852 0.409575 9.47111 
8.13035 0.54932 -0.311803 
0.54932 9.87729 0.35894 
-0.311803 0.35894 10.016 
9.0216 0.369663 -0.463226 
0.369663 9.44158 0.180175 
-0.463226 0.180175 9.56041 
10.0427 0.0304713 -0.0781863 
0.0304713 9.98428 -0.0435259 
-0.0781863 -0.0435259 9.98287 
10.0234 -0.0431845 -0.0425881 
-0.0431845 10.0224 -0.0611381 
-0.0425881 -0.0611381 9.96413 
10.0979 0.0702365 -0.0732677 
0.0702365 10.0293 -0.0460354 
-0.0732677 -0.0460354 9.88263 
10.0117 -0.0423326 -0.0632644 
-0.0423326 10.0459 -0.0845192 
-0.0632644 -0.0845192 9.95228 
9.90691 -0.00425477 -0.0529561 
-0.00425477 9.91251 -0.0166665 
-0.0529561 -0.0166665 9.89741 
9.88575 0.023208 -0.058622 
0.023208 9.90113 0.0223271 
-0.058622 0.0223271 9.92994 
9.88284 -0.00778253 -0.029563 
-0.00778253 9.89812 0.0445839 
-0.029563 0.0445839 9.93587 
9.86965 0.0112038 -0.024342 
0.0112038 9.89295 0.039555 
-0.024342 0.039555 9.95423 
11.1573 -0.578644 0.4209 
-0.578644 11.4888 0.653952 
0.4209 0.653952 12.8196 
10.4287 -0.00116763 0.194294 
-0.00116763 11.3796 -0.21055 
0.194294 -0.21055 13.6574 
10.3878 -0.00192141 -0.265303 
-0.00192141 11.3676 0.0647792 
-0.265303 0.0647792 13.7103 
10.3787 0.393497 -0.347618 
0.393497 11.871 -0.560659 
-0.347618 -0.560659 13.216 
9.70965 -0.0502911 0.320615 
-0.0502911 10.0698 0.0344721 
0.320615 0.0344721 9.60304 
9.88486 0.245146 0.0739365 
0.245146 9.52757 -0.264678 
0.0739365 -0.264678 9.97001 
9.98244 -0.031245 0.198421 
-0.031245 9.67318 -0.300823 
0.198421 -0.300823 9.72683 
9.36855 0.0414192 0.349382 
0.0414192 9.82726 -0.0487342 
0.349382 -0.0487342 10.1866 
9.78245 0.00351138 -0.0912656 
0.00351138 9.76544 -0.294268 
-0.0912656 -0.294268 9.75949 
9.77398 -0.00254109 -0.0820675 
-0.00254109 9.77864 -0.276674 
-0.0820675 -0.276674 9.75475 
9.76394 0.00983081 -0.0971324 
0.00983081 9.80968 -0.294541 
-0.0971324 -0.294541 9.73374 
9.72904 0.0182602 -0.0817849 
0.0182602 9.79694 -0.269107 
-0.0817849 -0.269107 9.78139 
9.57488 0.0141668 0.355777 
0.0141668 9.63947 -0.0584534 
0.355777 -0.0584534 9.58081 
9.58014 0.0112834 0.371877 
0.0112834 9.59549 -0.0191857 
0.371877 -0.0191857 9.61952 
9.61143 0.011147 0.357621 
0.011147 9.64196 -0.0192044 
0.357621 -0.0192044 9.54176 
9.58113 0.00955153 0.338985 
0.00955153 9.63036 -0.0381686 
0.338985 -0.0381686 9.58366 
9.67969 0.155594 -0.272031 
0.155594 9.48286 -0.125579 
-0.272031 -0.125579 9.38983 
9.711 -0.0240126 -0.331476 
-0.0240126 9.50853 -0.147764 
-0.331476 -0.147764 9.33286 
9.697 -0.000292823 -0.440975 
-0.000292823 9.50964 -0.290902 
-0.440975 -0.290902 9.34574 
9.35464 0.0217124 -0.404437 
0.0217124 9.50787 -0.136358 
-0.404437 -0.136358 9.68987 
8.36719 1.0373 -1.67989 
1.0373 9.36304 1.65931 
-1.67989 1.65931 9.7225 
9.25853 1.16518 -0.740675 
1.16518 10.5271 0.182586 
-0.740675 0.182586 7.66711 
8.0901 0.387423 -0.764902 
0.387423 8.67939 0.950024 
-0.764902 0.950024 10.6832 
6.97549 0.932204 -1.04527 
0.932204 11.6111 0.10466 
-1.04527 0.10466 8.86614 
8.99785 0.320257 0.106076 
0.320257 9.24368 -0.170396 
0.106076 -0.170396 10.3356 
9.03577 0.317761 0.0593579 
0.317761 9.17335 0.13402 
0.0593579 0.13402 10.368 
9.53451 0.223342 0.189281 
0.223342 9.30214 -0.151127 
0.189281 -0.151127 9.74048 
9.2232 0.345232 0.183034 
0.345232 9.14485 -0.15017 
0.183034 -0.15017 10.2091 
12.5198 -1.40866 1.07466 
-1.40866 6.70269 -4.37497 
1.07466 -4.37497 2.21258 
7.63868 0.0684562 2.4499 
0.0684562 8.58714 -1.91771 
2.4499 -1.91771 5.20922 
5.32291 2.12721 0.219978 
2.12721 9.94965 -2.78409 
0.219978 -2.78409 6.16248 
9.24771 -0.672557 3.40818 
-0.672557 4.33085 -0.313417 
3.40818 -0.313417 7.85648 
9.78664 -0.465174 -0.358607 
-0.465174 10.4089 0.777418 
-0.358607 0.777418 14.1117 
10.0096 -0.832078 -0.475377 
-0.832078 9.58423 0.045085 
-0.475377 0.045085 14.7134 
12.1595 -1.29669 -0.365731 
-1.29669 12.9613 -1.04618 
-0.365731 -1.04618 9.18645 
11.3579 -0.416039 1.35605 
-0.416039 10.069 -0.678573 
1.35605 -0.678573 12.8803 
9.72248 -0.00158775 0.00155911 
-0.00158775 9.72527 -0.00289781 
0.00155911 -0.00289781 9.95827 
9.72699 0.00736795 0.0123865 
0.00736795 9.71559 0.00936568 
0.0123865 0.00936568 9.96345 
9.7408 -0.00112353 0.0189197 
-0.00112353 9.7162 0.0117186 
0.0189197 0.0117186 9.94902 
9.71896 0.00418301 0.0016365 
0.00418301 9.71898 -0.00551153 
0.0016365 -0.00551153 9.96808 
9.63319 0.0116672 -0.224207 
0.0116672 9.62651 -0.265672 
-0.224207 -0.265672 9.64254 
9.63248 -0.0231285 -0.218245 
-0.0231285 9.65104 -0.261775 
-0.218245 -0.261775 9.61871 
9.63248 0.00236292 -0.23111 
0.00236292 9.64077 -0.247336 
-0.23111 -0.247336 9.62899 
9.63446 0.00237459 -0.232901 
0.00237459 9.63556 -0.260304 
-0.232901 -0.260304 9.63221 
10.0152 -0.41781 -0.123128 
-0.41781 9.8526 0.00993158 
-0.123128 0.00993158 8.99185 
9.76653 -0.132471 -0.173555 
-0.132471 9.5576 -0.00652726 
-0.173555 -0.00652726 9.5355 
9.81592 0.15402 -0.17274 
0.15402 9.7437 -0.0796028 
-0.17274 -0.0796028 9.30002 
9.91519 0.209476 0.0984468 
0.209476 9.615 -0.223927 
0.0984468 -0.223927 9.32945 
8.96041 0.969268 -0.254695 
0.969268 11.2369 -0.25298 
-0.254695 -0.25298 13.5462 
9.30754 0.920917 0.16002 
0.920917 11.1708 0.216698 
0.16002 0.216698 13.2652 
9.29763 0.816734 0.239795 
0.816734 11.5179 -0.0348484 
0.239795 -0.0348484 12.928 
9.46432 0.550558 -0.161307 
0.550558 11.0011 0.201593 
-0.161307 0.201593 13.2781 
9.51664 -0.339392 0.371479 
-0.339392 9.47055 -0.180377 
0.371479 -0.180377 9.64884 
9.65185 -0.0942003 0.326704 
-0.0942003 9.32915 -0.0858443 
0.326704 -0.0858443 9.65503 
9.56607 -0.0113027 0.411962 
-0.0113027 9.38748 -0.148849 
0.411962 -0.148849 9.68248 
9.56501 0.0470841 0.212409 
0.0470841 9.52682 -0.321114 
0.212409 -0.321114 9.5442 
9.77553 -0.0137162 -0.263906 
-0.0137162 9.76585 0.120228 
-0.263906 0.120228 9.79062 
9.78794 -0.0101554 -0.255945 
-0.0101554 9.78927 0.100365 
-0.255945 0.100365 9.75478 
9.7872 -0.00304584 -0.248054 
-0.00304584 9.78868 0.102817 
-0.248054 0.102817 9.75611 
9.8128 -0.0184042 -0.272706 
-0.0184042 9.79318 0.0728299 
-0.272706 0.0728299 9.72601 
9.48821 1.50979 0.914838 
1.50979 9.42152 -0.366157 
0.914838 -0.366157 11.3929 
8.42408 0.981375 1.23116 
0.981375 10.0483 -2.30893 
1.23116 -2.30893 11.8303 
9.12088 0.466245 0.358474 
0.466245 10.1009 -1.2323 
0.358474 -1.2323 11.0809 
9.08525 0.538148 1.34056 
0.538148 10.0865 0.193942 
1.34056 0.193942 11.1309 
9.28377 -0.326466 -0.17867 
-0.326466 9.19093 -0.229933 
-0.17867 -0.229933 10.0362 
9.45465 -0.214946 -0.151077 
-0.214946 8.81581 -0.328631 
-0.151077 -0.328631 10.2404 
9.64284 -0.134587 -0.432101 
-0.134587 8.85583 -0.63798 
-0.432101 -0.63798 10.0122 
9.65099 -0.220645 -0.0682319 
-0.220645 9.17027 -0.0343065 
-0.0682319 -0.0343065 9.68962 
9.78451 -0.0111788 -0.288815 
-0.0111788 9.76689 0.129632 
-0.288815 0.129632 9.74901 
9.78645 0.00183821 -0.29627 
0.00183821 9.76796 0.125132 
-0.29627 0.125132 9.74601 
9.77432 -0.0204467 -0.294777 
-0.0204467 9.75874 0.131445 
-0.294777 0.131445 9.76736 
9.78348 0.0179342 -0.306539 
0.0179342 9.78311 0.110813 
-0.306539 0.110813 9.73382 
10.4012 -1.01022 0.372435 
-1.01022 8.38127 0.803683 
0.372435 0.803683 11.2666 
10.5623 -0.45999 0.803177 
-0.45999 9.21465 0.785153 
0.803177 0.785153 10.272 
9.88439 -0.610272 0.23641 
-0.610272 10.2219 0.466958 
0.23641 0.466958 9.94274 
10.111 -0.524122 0.332453 
-0.524122 8.55697 1.97544 
0.332453 1.97544 11.381 
9.2719 -0.10611 1.43684 
-0.10611 9.80347 -0.0886103 
1.43684 -0.0886103 10.2354 
9.06487 1.00995 1.40012 
1.00995 8.88852 0.464655 
1.40012 0.464655 11.3573 
9.30394 0.343221 -0.154271 
0.343221 9.60553 -0.509892 
-0.154271 -0.509892 10.4013 
9.41711 0.670592 1.73961 
0.670592 11.4804 -1.19323 
1.73961 -1.19323 8.41318 
8.57866 1.69532 0.835732 
1.69532 7.93819 -0.910899 
0.835732 -0.910899 1.3457 
8.00208 1.29332 -2.26246 
1.29332 5.98032 0.811766 
-2.26246 0.811766 3.88016 
6.59285 -0.85 -0.843481 
-0.85 8.73711 0.187693 
-0.843481 0.187693 2.53259 
7.21356 0.0838522 -0.402763 
0.0838522 7.94071 -0.308803 
-0.402763 -0.308803 2.70827 
9.78264 -0.0299634 -0.270201 
-0.0299634 9.74015 0.0702262 
-0.270201 0.0702262 9.71978 
9.78998 -0.0170793 -0.275476 
-0.0170793 9.74091 0.0615958 
-0.275476 0.0615958 9.71167 
9.78613 -0.022426 -0.260815 
-0.022426 9.74613 0.063057 
-0.260815 0.063057 9.7103 
9.79109 -0.0173375 -0.263402 
-0.0173375 9.72504 0.0500589 
-0.263402 0.0500589 9.72644 
9.28199 -0.643604 0.504202 
-0.643604 10.03 -0.449954 
0.504202 -0.449954 8.82451 
8.53529 0.866895 0.888525 
0.866895 9.61033 -0.806156 
0.888525 -0.806156 9.99091 
8.90323 0.774742 0.465633 
0.774742 9.23125 -0.533595 
0.465633 -0.533595 10.0021 
9.27778 0.838436 0.222234 
0.838436 9.00795 -0.76916 
0.222234 -0.76916 9.85081 
10.9544 -0.396322 -0.124116 
-0.396322 10.874 0.0863815 
-0.124116 0.0863815 11.9591 
11.2965 -0.114844 0.235921 
-0.114844 11.0171 0.00789044 
0.235921 0.00789044 11.474 
11.5226 0.034778 0.3604 
0.034778 11.1481 -0.0322216 
0.3604 -0.0322216 11.1168 
10.8096 0.00651917 0.381369 
0.00651917 11.3244 0.182487 
0.381369 0.182487 11.6535 
10.199 -0.831285 0.28479 
-0.831285 8.96298 1.06001 
0.28479 1.06001 9.70788 
9.65547 0.054754 0.478789 
0.054754 9.27185 0.62386 
0.478789 0.62386 9.94257 
9.90221 -0.583614 0.432591 
-0.583614 9.10731 0.479137 
0.432591 0.479137 9.86036 
9.55084 -0.588139 0.659982 
-0.588139 9.71977 0.23241 
0.659982 0.23241 9.59927 
9.89986 0.0165879 1.08391 
0.0165879 9.443 -0.0935377 
1.08391 -0.0935377 2.94097 
9.03302 -0.134343 0.0375425 
-0.134343 9.17568 0.259626 
0.0375425 0.259626 4.07514 
8.44055 -0.291351 -1.10863 
-0.291351 7.448 0.283621 
-1.10863 0.283621 6.39529 
9.3499 -1.11142 -0.085673 
-1.11142 7.84519 -0.587416 
-0.085673 -0.587416 5.08875 
9.91879 0.00471575 0.335748 
0.00471575 9.57735 -0.504299 
0.335748 -0.504299 9.68609 
10.1177 0.100667 -0.104151 
0.100667 9.91064 -0.244413 
-0.104151 -0.244413 9.1539 
10.1881 -0.255383 0.0337225 
-0.255383 9.39968 -0.0806223 
0.0337225 -0.0806223 9.59442 
9.49008 -0.325875 0.0690993 
-0.325875 9.66115 0.0396613 
0.0690993 0.0396613 10.031 
9.66015 0.145331 -0.321518 
0.145331 9.63615 0.01335 
-0.321518 0.01335 9.90728 
9.50713 0.0860398 -0.159528 
0.0860398 9.78835 0.0166254 
-0.159528 0.0166254 9.9081 
9.49267 0.0681869 -0.0250416 
0.0681869 9.78877 0.0806556 
-0.0250416 0.0806556 9.92214 
9.41245 0.151852 -0.0730274 
0.151852 9.7995 0.00366224 
-0.0730274 0.00366224 9.99163 
9.53504 0.302543 -0.479011 
0.302543 9.27019 -0.259969 
-0.479011 -0.259969 9.44997 
9.59082 0.229064 -0.398274 
0.229064 9.14234 -0.142865 
-0.398274 -0.142865 9.52204 
9.72195 0.250439 -0.45857 
0.250439 8.98439 -0.289395 
-0.45857 -0.289395 9.54886 
9.55335 0.274525 -0.330026 
0.274525 9.06207 0.106378 
-0.330026 0.106378 9.63978 
9.77163 -0.158106 -0.0466132 
-0.158106 9.60839 0.648477 
-0.0466132 0.648477 10.7843 
9.88049 0.119113 -0.040833 
0.119113 9.79957 0.264845 
-0.040833 0.264845 10.4842 
9.71771 0.441832 -0.102612 
0.441832 10.0206 0.431579 
-0.102612 0.431579 10.4259 
9.93515 0.160215 0.0885178 
0.160215 9.70979 0.162509 
0.0885178 0.162509 10.5193 
9.84521 0.144364 0.00105688 
0.144364 9.85433 0.053052 
0.00105688 0.053052 10.1513 
10.0318 0.0414101 -0.0555194 
0.0414101 10.0106 0.0109028 
-0.0555194 0.0109028 9.80838 
9.96047 0.0558162 -0.0615528 
0.0558162 9.90874 0.0921126 
-0.0615528 0.0921126 9.98159 
9.96749 0.0573938 -0.127468 
0.0573938 9.94358 0.145192 
-0.127468 0.145192 9.93973 
9.60445 0.00990775 -0.031524 
0.00990775 9.75814 -0.100883 
-0.031524 -0.100883 9.66554 
9.68477 0.0662655 -0.036842 
0.0662655 9.73893 -0.0777294 
-0.036842 -0.0777294 9.60443 
9.65653 0.0105521 -0.0210995 
0.0105521 9.70199 -0.0825852 
-0.0210995 -0.0825852 9.66962 
9.6049 0.00959665 -0.0356123 
0.00959665 9.75441 -0.149568 
-0.0356123 -0.149568 9.66883 
9.81191 0.00821955 0.0217776 
0.00821955 9.78908 0.00789575 
0.0217776 0.00789575 9.94036 
9.81006 0.00168799 0.0121052 
0.00168799 9.79597 -0.0117817 
0.0121052 -0.0117817 9.93533 
9.79747 -0.00270826 0.00909826 
-0.00270826 9.79668 -0.00698332 
0.00909826 -0.00698332 9.9472 
9.8038 -0.00148971 0.0130136 
-0.00148971 9.79015 -0.0113911 
0.0130136 -0.0113911 9.94739 
9.85051 -0.0318683 0.0224124 
-0.0318683 9.64083 -0.114128 
0.0224124 -0.114128 10.2985 
9.70794 -0.0371872 -0.027568 
-0.0371872 9.73171 -0.0818678 
-0.027568 -0.0818678 10.3502 
9.81374 0.0205637 -0.0367314 
0.0205637 9.62664 -0.144353 
-0.0367314 -0.144353 10.3495 
9.69683 0.0185098 0.00334331 
0.0185098 9.6482 -0.070769 
0.00334331 -0.070769 10.4448 
9.51818 0.0240587 0.357894 
0.0240587 9.63091 0.0217333 
0.357894 0.0217333 9.53992 
9.39686 0.118176 0.466864 
0.118176 9.658 -0.118255 
0.466864 -0.118255 9.63416 
9.36163 0.0948323 0.27029 
0.0948323 9.54083 -0.267881 
0.27029 -0.267881 9.78656 
9.55105 0.0294376 0.367156 
0.0294376 9.40785 -0.333504 
0.367156 -0.333504 9.73012 
9.70079 0.00182914 0.310995 
0.00182914 9.60284 -0.11566 
0.310995 -0.11566 9.62803 
9.6537 0.00742571 0.317704 
0.00742571 9.64414 -0.104463 
0.317704 -0.104463 9.63381 
9.61067 0.0175041 0.341139 
0.0175041 9.64723 -0.11222 
0.341139 -0.11222 9.67376 
9.62934 0.00351114 0.297278 
0.00351114 9.61659 -0.111775 
0.297278 -0.111775 9.68573 
9.53897 -0.021824 0.378097 
-0.021824 9.62458 0.0580425 
0.378097 0.0580425 9.59815 
9.54809 -0.000627511 0.413983 
-0.000627511 9.65629 0.0404599 
0.413983 0.0404599 9.55732 
9.58224 0.0304389 0.362782 
0.0304389 9.61757 0.0232164 
0.362782 0.0232164 9.5619 
9.55695 -0.0610499 0.384394 
-0.0610499 9.5928 0.0774515 
0.384394 0.0774515 9.61195 
11.4144 3.13477 0.461176 
3.13477 8.75456 -1.45856 
0.461176 -1.45856 16.1895 
11.7489 -0.606272 -0.108202 
-0.606272 11.1718 0.245975 
-0.108202 0.245975 13.4377 
11.5937 -0.819752 1.22576 
-0.819752 14.4917 2.0568 
1.22576 2.0568 10.2731 
12.4314 -2.53406 -0.974546 
-2.53406 8.12337 1.56631 
-0.974546 1.56631 15.8036 
9.77534 0.00232145 -0.138759 
0.00232145 9.7774 0.257032 
-0.138759 0.257032 9.75399 
9.75995 0.00708039 -0.122325 
0.00708039 9.7868 0.288109 
-0.122325 0.288109 9.75998 
9.75741 0.00452886 -0.124806 
0.00452886 9.79678 0.290445 
-0.124806 0.290445 9.75254 
9.74446 -0.0121447 -0.154039 
-0.0121447 9.79679 0.321448 
-0.154039 0.321448 9.76547 
9.69533 -0.00846686 -0.137406 
-0.00846686 9.76361 -0.0337388 
-0.137406 -0.0337388 10.038 
9.71108 -0.0744628 -0.158868 
-0.0744628 9.83807 -0.0788406 
-0.158868 -0.0788406 9.94783 
9.72376 -0.194784 -0.273241 
-0.194784 9.80655 -0.177946 
-0.273241 -0.177946 9.96667 
9.87664 0.1554 -0.18231 
0.1554 9.86811 -0.0965414 
-0.18231 -0.0965414 9.75223 
6.9377 0.944287 -0.04776 
0.944287 8.36575 -0.211361 
-0.04776 -0.211361 0.848196 
6.60574 0.0426899 0.880661 
0.0426899 8.33461 0.00368691 
0.880661 0.00368691 1.21131 
6.15978 0.0191896 0.220076 
0.0191896 7.44315 0.246067 
0.220076 0.246067 2.54872 
6.85051 0.995921 2.4519 
0.995921 6.57301 -1.75477 
2.4519 -1.75477 2.72814 
9.79125 -0.00123367 0.318288 
-0.00123367 9.75908 0.0898164 
0.318288 0.0898164 9.73645 
9.76701 -0.0223608 0.30199 
-0.0223608 9.75526 0.0782707 
0.30199 0.0782707 9.7645 
9.78052 -0.00580026 0.314808 
-0.00580026 9.7495 0.0671422 
0.314808 0.0671422 9.75676 
9.81145 0.00852159 0.296926 
0.00852159 9.7442 0.0825927 
0.296926 0.0825927 9.73113 
9.81955 -0.0248102 -0.171907 
-0.0248102 9.81836 0.0249158 
-0.171907 0.0249158 9.81736 
9.82987 -0.0212153 -0.162374 
-0.0212153 9.80953 0.0290891 
-0.162374 0.0290891 9.81587 
9.83247 -0.00390834 -0.154114 
-0.00390834 9.77796 0.0360798 
-0.154114 0.0360798 9.84484 
9.87281 -0.00984525 -0.14165 
-0.00984525 9.83296 -0.0177982 
-0.14165 -0.0177982 9.74949 
9.93486 0.00762489 -0.00235868 
0.00762489 9.93499 0.00279423 
-0.00235868 0.00279423 9.95103 
9.93591 0.00744372 0.0173648 
0.00744372 9.9289 0.00864742 
0.0173648 0.00864742 9.95607 
9.94494 -0.00318733 0.0157228 
-0.00318733 9.92904 0.0064971 
0.0157228 0.0064971 9.94689 
9.93808 0.0047815 0.00295273 
0.0047815 9.92072 0.00674051 
0.00295273 0.00674051 9.96207 
9.87687 0.125179 -0.209324 
0.125179 9.66883 -0.0127759 
-0.209324 -0.0127759 9.40091 
9.69498 0.0305365 -0.230156 
0.0305365 9.58012 -0.171487 
-0.230156 -0.171487 9.6715 
9.79646 0.0428619 -0.299598 
0.0428619 9.56256 -0.135932 
-0.299598 -0.135932 9.58759 
9.69021 0.0830314 -0.32858 
0.0830314 9.73284 -0.0670069 
-0.32858 -0.0670069 9.52355 
9.43369 0.0044222 0.328116 
0.0044222 9.8634 -0.175895 
0.328116 -0.175895 9.65652 
9.5544 0.205108 0.730567 
0.205108 9.31971 -0.0943335 
0.730567 -0.0943335 10.0795 
9.63853 -0.031887 0.348928 
-0.031887 9.48924 0.00561573 
0.348928 0.00561573 9.82583 
9.82596 0.145404 0.412999 
0.145404 9.76744 -0.185969 
0.412999 -0.185969 9.36021 
10.1515 0.013319 -0.0220769 
0.013319 10.1239 0.0244641 
-0.0220769 0.0244641 9.96261 
10.1227 0.00752012 0.0106241 
0.00752012 10.0945 0.00126478 
0.0106241 0.00126478 10.0209 
10.1684 -0.0075505 -0.0306955 
-0.0075505 10.1298 0.0160509 
-0.0306955 0.0160509 9.93979 
10.1466 0.0233195 -0.0537976 
0.0233195 10.1393 0.0315137 
-0.0537976 0.0315137 9.95209 
10.1665 -0.0123112 -0.00179406 
-0.0123112 10.1755 -0.00970081 
-0.00179406 -0.00970081 9.99932 
10.1624 -0.0142347 0.0169597 
-0.0142347 10.187 0.0018952 
0.0169597 0.0018952 9.99192 
10.198 -0.00654953 0.0296062 
-0.00654953 10.1931 -0.00806787 
0.0296062 -0.00806787 9.95029 
10.1708 -0.00782671 0.0320381 
-0.00782671 10.1985 -0.0119017 
0.0320381 -0.0119017 9.97215 
9.64503 -0.0698205 -0.0365722 
-0.0698205 9.4463 -0.115246 
-0.0365722 -0.115246 9.89508 
9.47409 -0.00560065 -0.112263 
-0.00560065 9.60852 -0.131232 
-0.112263 -0.131232 9.90379 
9.65719 -0.0324247 0.0121873 
-0.0324247 9.45594 -0.148865 
0.0121873 -0.148865 9.87327 
9.61343 -0.062068 -0.0966717 
-0.062068 9.52986 -0.216891 
-0.0966717 -0.216891 9.84312 
9.45979 -0.0850629 -0.616532 
-0.0850629 9.38281 -0.251387 
-0.616532 -0.251387 9.05466 
9.52976 0.339762 -0.0842926 
0.339762 9.40034 0.101591 
-0.0842926 0.101591 8.96716 
9.76344 -0.11301 -0.752119 
-0.11301 9.51544 -0.438387 
-0.752119 -0.438387 8.61838 
9.26636 -0.256154 -0.783346 
-0.256154 9.43872 -0.208288 
-0.783346 -0.208288 9.19218 
10.0997 2.35729 -1.23991 
2.35729 9.57726 -0.408614 
-1.23991 -0.408614 12.961 
10.6097 0.230228 0.0405122 
0.230228 10.037 -0.232797 
0.0405122 -0.232797 11.9913 
10.7778 -0.558008 -0.992558 
-0.558008 10.3998 -0.0162567 
-0.992558 -0.0162567 11.4604 
10.4254 1.1058 1.03658 
1.1058 10.619 0.470832 
1.03658 0.470832 11.5935 
9.63513 0.0422605 0.00262534 
0.0422605 9.83154 -0.149525 
0.00262534 -0.149525 9.72223 
9.70842 -0.0181293 0.201712 
-0.0181293 9.38773 -0.00347333 
0.201712 -0.00347333 10.0927 
9.69242 0.14375 -0.292745 
0.14375 9.73464 -0.191531 
-0.292745 -0.191531 9.76183 
10.0845 -0.119117 -0.0589277 
-0.119117 9.4771 -0.538501 
-0.0589277 -0.538501 9.62732 
9.72856 0.0122043 0.0508465 
0.0122043 9.74431 0.31437 
0.0508465 0.31437 9.83152 
9.76122 0.00549823 -0.018178 
0.00549823 9.78027 0.323291 
-0.018178 0.323291 9.76291 
9.7867 -0.00624367 0.0289701 
-0.00624367 9.77558 0.31028 
0.0289701 0.31028 9.74211 
9.76221 0.00736972 0.0169375 
0.00736972 9.77168 0.317739 
0.0169375 0.317739 9.7705 
8.79374 0.36188 -1.44651 
0.36188 11.3085 -0.89336 
-1.44651 -0.89336 8.5465 
7.88961 -0.0852461 -1.09076 
-0.0852461 10.0734 -0.961677 
-1.09076 -0.961677 10.6858 
8.89103 0.0855903 -2.59012 
0.0855903 10.7907 -0.138328 
-2.59012 -0.138328 8.96705 
7.88169 0.111616 -1.43123 
0.111616 11.1623 -0.414478 
-1.43123 -0.414478 9.60472 
9.71631 0.0102147 -0.286278 
0.0102147 9.6954 -0.133686 
-0.286278 -0.133686 9.7073 
9.72435 0.00759565 -0.306895 
0.00759565 9.68756 -0.135989 
-0.306895 -0.135989 9.70709 
9.72337 0.0102259 -0.306911 
0.0102259 9.6958 -0.140795 
-0.306911 -0.140795 9.69984 
9.71844 0.0122119 -0.30343 
0.0122119 9.71032 -0.137463 
-0.30343 -0.137463 9.69025 
9.82422 -0.0177899 -0.113783 
-0.0177899 9.6574 -0.288754 
-0.113783 -0.288754 10.625 
10.1056 -0.572381 -0.114589 
-0.572381 9.79599 -0.453488 
-0.114589 -0.453488 10.205 
9.61289 -0.0671873 0.657509 
-0.0671873 10.2564 0.752251 
0.657509 0.752251 10.2373 
10.1342 -0.724573 0.151143 
-0.724573 9.37073 0.0710981 
0.151143 0.0710981 10.6017 
11.0077 -0.268205 0.563591 
-0.268205 7.48758 1.74863 
0.563591 1.74863 10.9238 
9.30501 -1.16496 -0.41266 
-1.16496 10.2844 1.44777 
-0.41266 1.44777 9.82968 
10.3562 -0.709514 0.0206954 
-0.709514 8.27626 3.07018 
0.0206954 3.07018 10.7866 
10.609 -0.152668 0.575067 
-0.152668 7.79137 2.35736 
0.575067 2.35736 11.0187 
9.57314 -0.231722 0.14343 
-0.231722 9.78237 0.0189479 
0.14343 0.0189479 9.79241 
9.5264 -0.13231 -0.123233 
-0.13231 9.75994 0.0292679 
-0.123233 0.0292679 9.86158 
9.89978 0.109428 -0.451659 
0.109428 9.35719 -0.188209 
-0.451659 -0.188209 9.89094 
9.46732 -0.391645 -0.0866298 
-0.391645 9.5659 0.027312 
-0.0866298 0.027312 10.1147 
9.85693 0.0330829 0.0945515 
0.0330829 10.0813 0.0448614 
0.0945515 0.0448614 9.80299 
9.97831 -0.0409436 0.108897 
-0.0409436 9.78063 0.0132129 
0.108897 0.0132129 9.98228 
9.81186 0.00537995 0.0906082 
0.00537995 9.9617 0.12706 
0.0906082 0.12706 9.96766 
9.94154 -0.0691908 0.210699 
-0.0691908 9.88168 0.0672233 
0.210699 0.0672233 9.918 
9.87576 -0.00137324 -0.0580245 
-0.00137324 9.7771 -0.0175757 
-0.0580245 -0.0175757 9.58521 
9.61588 -0.0485691 0.0287525 
-0.0485691 9.73591 0.143033 
0.0287525 0.143033 9.88629 
9.86302 0.0184979 0.0301689 
0.0184979 9.69326 -0.0402567 
0.0301689 -0.0402567 9.68179 
9.88227 0.0273816 0.0426026 
0.0273816 9.71487 -0.0230467 
0.0426026 -0.0230467 9.64093 
9.64619 0.180985 0.640885 
0.180985 10.1269 -0.474377 
0.640885 -0.474377 9.62661 
9.50016 -0.46719 0.22837 
-0.46719 9.57909 0.135031 
0.22837 0.135031 10.3204 
9.35223 -0.238276 -0.00913035 
-0.238276 9.83692 0.135527 
-0.00913035 0.135527 10.2105 
9.0256 -0.0577537 0.214131 
-0.0577537 10.1166 -0.0879087 
0.214131 -0.0879087 10.2575 
8.73069 0.36615 1.9253 
0.36615 9.97144 -0.737751 
1.9253 -0.737751 9.57291 
9.47958 -0.238165 1.51238 
-0.238165 10.4028 0.148903 
1.51238 0.148903 8.39265 
9.5222 -0.363823 1.28909 
-0.363823 9.88339 -0.320324 
1.28909 -0.320324 8.86945 
8.34413 -0.24146 0.646873 
-0.24146 9.41648 0.0447934 
0.646873 0.0447934 10.5144 
10.0737 0.288203 0.149542 
0.288203 10.2179 0.703097 
0.149542 0.703097 8.51496 
9.66084 0.131803 -0.0342212 
0.131803 9.88119 0.277004 
-0.0342212 0.277004 9.26452 
10.5591 -0.435513 0.129387 
-0.435513 9.17749 1.96524 
0.129387 1.96524 9.06995 
10.3424 0.261743 -0.00685609 
0.261743 9.99218 0.855464 
-0.00685609 0.855464 8.472 
9.84694 0.204236 -0.00399242 
0.204236 9.55772 0.298952 
-0.00399242 0.298952 10.783 
9.68203 -0.10217 0.182858 
-0.10217 9.51996 0.429026 
0.182858 0.429026 10.9856 
9.72614 0.163527 0.119316 
0.163527 9.7551 0.431485 
0.119316 0.431485 10.7064 
9.91 -0.059278 0.0592554 
-0.059278 9.51512 0.0522617 
0.0592554 0.0522617 10.7625 
9.63593 0.0206112 0.138577 
0.0206112 9.58486 -0.28186 
0.138577 -0.28186 9.6848 
9.62071 -0.00253953 0.139224 
-0.00253953 9.63401 -0.287032 
0.139224 -0.287032 9.65087 
9.61544 -0.0397193 0.116137 
-0.0397193 9.65353 -0.300798 
0.116137 -0.300798 9.63662 
9.60048 0.0168045 0.143193 
0.0168045 9.63635 -0.304298 
0.143193 -0.304298 9.66877 
9.61938 0.277861 0.443801 
0.277861 9.49486 -0.557451 
0.443801 -0.557451 9.69453 
9.71707 0.18003 0.349769 
0.18003 9.58615 -0.368636 
0.349769 -0.368636 9.50556 
9.77573 -0.0164538 0.358006 
-0.0164538 9.60506 -0.753107 
0.358006 -0.753107 9.42798 
9.57162 0.132046 0.159083 
0.132046 9.70247 -0.173695 
0.159083 -0.173695 9.53469 
4.7704 0.436379 0.289825 
0.436379 12.6284 0.481171 
0.289825 0.481171 13.9701 
9.20198 0.344483 1.97585 
0.344483 10.8333 -0.293996 
1.97585 -0.293996 11.3337 
12.167 -0.232866 -0.400923 
-0.232866 9.0129 0.0842827 
-0.400923 0.0842827 10.189 
9.0322 -0.685249 1.61231 
-0.685249 10.6976 -0.191725 
1.61231 -0.191725 11.6391 
9.69377 -0.261551 -0.100272 
-0.261551 8.75282 -1.28229 
-0.100272 -1.28229 9.24359 
8.66179 -0.36897 -1.53906 
-0.36897 10.2409 0.477175 
-1.53906 0.477175 8.78751 
9.60217 -0.0597021 -1.0829 
-0.0597021 10.0244 0.316029 
-1.0829 0.316029 8.06359 
10.0328 -0.718361 -1.74357 
-0.718361 9.84551 -2.42019 
-1.74357 -2.42019 7.81185 
13.4767 0.300905 0.281766 
0.300905 12.201 0.0044428 
0.281766 0.0044428 10.3348 
11.1826 0.347855 0.00488799 
0.347855 10.7398 0.580405 
0.00488799 0.580405 14.0901 
11.7401 0.283271 -0.408475 
0.283271 11.638 0.424522 
-0.408475 0.424522 12.6344 
12.1256 0.167524 -1.80281 
0.167524 11.3979 -0.5636 
-1.80281 -0.5636 12.489 
9.62364 -0.0259785 0.0283243 
-0.0259785 9.37565 0.226975 
0.0283243 0.226975 9.65994 
9.56651 0.0496988 0.155205 
0.0496988 9.63705 0.313178 
0.155205 0.313178 9.45568 
9.52845 0.00240433 0.112556 
0.00240433 9.52959 0.288278 
0.112556 0.288278 9.60119 
9.53206 -0.000281276 0.0878976 
-0.000281276 9.4212 0.35429 
0.0878976 0.35429 9.70598 
9.07933 0.972895 0.375118 
0.972895 10.3258 -0.242019 
0.375118 -0.242019 11.1889 
9.21123 0.904729 0.857369 
0.904729 9.83859 -0.737454 
0.857369 -0.737454 11.5442 
9.57094 0.215609 0.459803 
0.215609 10.5545 -0.170913 
0.459803 -0.170913 10.4685 
10.0182 0.55327 0.96779 
0.55327 10.452 0.372086 
0.96779 0.372086 10.1237 
9.71234 -0.0381767 0.221679 
-0.0381767 9.79514 0.0536903 
0.221679 0.0536903 9.79864 
9.75993 -0.0152766 0.26885 
-0.0152766 9.79646 0.0678704 
0.26885 0.0678704 9.74972 
9.68673 -0.00278718 0.352983 
-0.00278718 9.72966 0.0847604 
0.352983 0.0847604 9.88973 
9.74672 -0.00596628 0.25814 
-0.00596628 9.79768 0.0883906 
0.25814 0.0883906 9.76171 
9.78833 -0.0479926 -0.0336984 
-0.0479926 9.65867 -0.159042 
-0.0336984 -0.159042 9.90941 
9.65374 0.0283024 0.0951753 
0.0283024 9.73836 0.120837 
0.0951753 0.120837 9.96432 
9.72876 -0.0569356 0.0610135 
-0.0569356 9.78454 0.173898 
0.0610135 0.173898 9.84311 
9.6374 -0.047879 -0.044387 
-0.047879 9.58984 0.0684039 
-0.044387 0.0684039 10.1292 
9.60304 -0.0623816 0.211577 
-0.0623816 9.60943 -0.219866 
0.211577 -0.219866 9.64779 
9.60626 0.0114101 0.0596252 
0.0114101 9.53262 -0.268096 
0.0596252 -0.268096 9.72137 
9.56275 -0.00296866 0.102656 
-0.00296866 9.6138 -0.332011 
0.102656 -0.332011 9.68371 
9.66416 -0.0182728 0.18869 
-0.0182728 9.54509 -0.352575 
0.18869 -0.352575 9.651 
9.70357 0.00584362 0.036741 
0.00584362 9.65401 -0.0193239 
0.036741 -0.0193239 10.3082 
9.93672 0.0266642 0.100205 
0.0266642 9.51302 -0.131778 
0.100205 -0.131778 10.2161 
9.74369 0.0849066 -0.0178816 
0.0849066 9.65215 -0.0825207 
-0.0178816 -0.0825207 10.27 
9.76349 0.0314465 0.0227148 
0.0314465 9.60222 -0.0758499 
0.0227148 -0.0758499 10.3001 
9.69155 -0.00137577 0.263862 
-0.00137577 9.6883 -0.213296 
0.263862 -0.213296 9.63092 
9.68889 -0.026497 0.253272 
-0.026497 9.66197 -0.216338 
0.253272 -0.216338 9.65991 
9.66234 0.0127064 0.27571 
0.0127064 9.68502 -0.194149 
0.27571 -0.194149 9.66341 
9.68871 0.0169223 0.262354 
0.0169223 9.67367 -0.207462 
0.262354 -0.207462 9.64839 
9.68444 0.00954903 0.125261 
0.00954903 9.71764 0.302791 
0.125261 0.302791 9.68579 
9.68382 0.0127053 0.142433 
0.0127053 9.70102 0.298462 
0.142433 0.298462 9.70302 
9.67816 0.0128017 0.144531 
0.0128017 9.7214 0.295684 
0.144531 0.295684 9.6883 
9.69409 0.00425384 0.108374 
0.00425384 9.70168 0.305287 
0.108374 0.305287 9.6921 
9.83154 -0.00378876 0.00486681 
-0.00378876 9.80883 -0.0138506 
0.00486681 -0.0138506 9.9657 
9.83833 -0.00216588 0.0112334 
-0.00216588 9.80653 -0.0149275 
0.0112334 -0.0149275 9.96121 
9.80593 0.00366635 -0.0187846 
0.00366635 9.80915 0.00922303 
-0.0187846 0.00922303 9.991 
9.80052 -0.0046554 -0.0248398 
-0.0046554 9.81338 -0.00968619 
-0.0248398 -0.00968619 9.99217 
9.92248 0.0334048 0.00605933 
0.0334048 9.53329 0.20744 
0.00605933 0.20744 9.51312 
9.72748 -0.0352451 0.234293 
-0.0352451 9.37405 0.443487 
0.234293 0.443487 9.86736 
9.40221 -0.0146225 0.137522 
-0.0146225 9.18135 0.155401 
0.137522 0.155401 10.3853 
9.6229 0.0198232 0.10163 
0.0198232 9.42606 0.393148 
0.10163 0.393148 9.91993 
9.53284 -0.392184 0.451678 
-0.392184 9.76457 0.549359 
0.451678 0.549359 9.24702 
9.34674 -0.751308 0.389833 
-0.751308 9.65192 0.636384 
0.389833 0.636384 9.54577 
9.09668 -0.542876 0.44873 
-0.542876 9.59949 0.708214 
0.44873 0.708214 9.84826 
9.57575 -0.431571 -0.494448 
-0.431571 10.1716 1.09758 
-0.494448 1.09758 8.79707 
9.88972 -0.00564227 -0.107317 
-0.00564227 9.85753 0.0296964 
-0.107317 0.0296964 9.85271 
9.88303 -0.0077901 -0.111736 
-0.0077901 9.85309 0.0292031 
-0.111736 0.0292031 9.86385 
9.89177 -0.00436416 -0.111342 
-0.00436416 9.85375 0.0294277 
-0.111342 0.0294277 9.85445 
9.89087 -0.0167314 -0.111129 
-0.0167314 9.8656 0.00760235 
-0.111129 0.00760235 9.8435 
9.63456 -0.0458428 -0.146144 
-0.0458428 9.736 0.297649 
-0.146144 0.297649 9.59547 
9.58366 -0.0732027 -0.137677 
-0.0732027 9.77267 0.318958 
-0.137677 0.318958 9.6097 
9.62446 0.00296208 -0.0909564 
0.00296208 9.71158 0.292675 
-0.0909564 0.292675 9.62999 
9.68495 -0.144161 -0.132214 
-0.144161 9.66428 0.200275 
-0.132214 0.200275 9.6168 
9.31488 0.189415 -0.299556 
0.189415 9.38292 -0.0661667 
-0.299556 -0.0661667 9.07402 
10.0732 0.414945 -0.0824581 
0.414945 8.6827 -0.0981454 
-0.0824581 -0.0981454 9.01587 
9.59033 0.267321 -0.0550452 
0.267321 9.04109 0.0717532 
-0.0550452 0.0717532 9.14041 
9.70585 0.164058 -0.371834 
0.164058 8.91172 0.562805 
-0.371834 0.562805 9.15425 
8.73909 -0.0386045 0.325103 
-0.0386045 8.32448 -3.07168 
0.325103 -3.07168 5.27535 
8.88197 -0.351808 1.34148 
-0.351808 7.20368 -3.23523 
1.34148 -3.23523 6.25327 
7.27431 0.511976 0.612227 
0.511976 8.44243 -3.72279 
0.612227 -3.72279 6.62218 
7.66243 0.508066 -0.393809 
0.508066 8.31813 -2.87318 
-0.393809 -2.87318 6.35836 
9.54829 -0.0476322 0.235682 
-0.0476322 9.33495 -0.535819 
0.235682 -0.535819 9.84635 
9.51224 -0.0628257 0.189668 
-0.0628257 9.64676 -0.383982 
0.189668 -0.383982 9.57058 
9.49025 -0.0250541 0.125734 
-0.0250541 9.49561 -0.290342 
0.125734 -0.290342 9.74372 
9.4811 -0.038914 0.10744 
-0.038914 9.49866 -0.384081 
0.10744 -0.384081 9.74982 
10.085 -0.00495556 -0.00691313 
-0.00495556 10.0792 0.00291244 
-0.00691313 0.00291244 9.99828 
10.0788 0.0488282 0.0173493 
0.0488282 10.0768 -0.00808569 
0.0173493 -0.00808569 10.0069 
10.0769 0.00818336 0.0177224 
0.00818336 10.0911 -0.000503894 
0.0177224 -0.000503894 9.99438 
10.0822 -0.0600777 0.0651032 
-0.0600777 10.1346 -0.0434249 
0.0651032 -0.0434249 9.94561 
9.62594 0.35866 -0.0204371 
0.35866 9.43638 0.0850283 
-0.0204371 0.0850283 10.8066 
9.81679 0.496672 -0.0248851 
0.496672 9.3073 0.0973749 
-0.0248851 0.0973749 10.7448 
9.38507 0.343253 -0.014179 
0.343253 9.68462 0.189956 
-0.014179 0.189956 10.7992 
9.63861 0.198193 0.0266021 
0.198193 9.37099 0.157735 
0.0266021 0.157735 10.8593 
9.70873 0.0191882 -0.348233 
0.0191882 9.53593 -0.0780695 
-0.348233 -0.0780695 9.52419 
9.66197 0.0517503 -0.362681 
0.0517503 9.5131 -0.114434 
-0.362681 -0.114434 9.59379 
9.6676 0.065356 -0.3505 
0.065356 9.48625 -0.123853 
-0.3505 -0.123853 9.615 
9.65307 0.0845361 -0.415299 
0.0845361 9.49751 -0.200255 
-0.415299 -0.200255 9.61828 
9.22045 0.401928 0.532354 
0.401928 9.33704 -0.344085 
0.532354 -0.344085 9.4637 
9.94432 -0.24077 -0.0932655 
-0.24077 8.90062 -0.19352 
-0.0932655 -0.19352 9.17626 
9.49771 -0.00303585 -0.143711 
-0.00303585 9.19387 -0.870922 
-0.143711 -0.870922 9.32962 
9.71783 0.51731 0.84644 
0.51731 8.30107 -1.20782 
0.84644 -1.20782 10.0023 
9.43792 -0.0086166 0.776542 
-0.0086166 9.48263 0.142605 
0.776542 0.142605 9.29901 
9.31786 0.0174393 0.555901 
0.0174393 9.67726 0.262001 
0.555901 0.262001 9.22444 
9.3251 0.015979 0.623254 
0.015979 9.60708 0.36379 
0.623254 0.36379 9.28738 
9.3509 0.00170702 0.626107 
0.00170702 9.53708 0.179644 
0.626107 0.179644 9.33159 
9.83061 0.585172 0.38224 
0.585172 9.22182 -0.466525 
0.38224 -0.466525 11.1716 
9.53596 -0.309956 0.0810818 
-0.309956 9.99023 0.233025 
0.0810818 0.233025 10.6979 
10.2887 0.079242 0.581054 
0.079242 9.63339 -0.988061 
0.581054 -0.988061 10.302 
9.58828 0.028382 0.293236 
0.028382 9.59058 -0.507336 
0.293236 -0.507336 11.0452 
15.3251 1.16454 -0.627748 
1.16454 13.9434 -0.35982 
-0.627748 -0.35982 10.4768 
12.3389 1.01274 0.208454 
1.01274 11.1439 1.51417 
0.208454 1.51417 16.2626 
12.3742 0.803748 -0.760269 
0.803748 10.7662 1.28688 
-0.760269 1.28688 16.605 
13.134 1.00408 0.738174 
1.00408 10.3621 -1.08073 
0.738174 -1.08073 16.2493 
9.85636 -0.0128644 0.0700878 
-0.0128644 9.87417 -0.181261 
0.0700878 -0.181261 9.82597 
9.83204 -0.0031622 0.0514705 
-0.0031622 9.87248 -0.181523 
0.0514705 -0.181523 9.85198 
9.82196 -0.0121283 0.0471055 
-0.0121283 9.88762 -0.204321 
0.0471055 -0.204321 9.84692 
9.82875 -0.00436683 0.0349153 
-0.00436683 9.87009 -0.213754 
0.0349153 -0.213754 9.85765 
9.68899 -0.0144079 -0.00515498 
-0.0144079 9.71791 -0.00198999 
-0.00515498 -0.00198999 9.96495 
9.63371 0.00532982 -0.0312887 
0.00532982 9.71255 -0.0107048 
-0.0312887 -0.0107048 10.0256 
9.67238 -0.0173743 -0.0271839 
-0.0173743 9.72508 -0.01331 
-0.0271839 -0.01331 9.97438 
9.73304 -0.00684203 -0.0673635 
-0.00684203 9.67303 -0.00928654 
-0.0673635 -0.00928654 9.96577 
9.56279 0.295801 0.604086 
0.295801 9.051 0.19345 
0.604086 0.19345 9.88454 
8.62698 0.796974 0.210738 
0.796974 9.20523 -0.39891 
0.210738 -0.39891 10.6661 
8.61752 0.241439 0.627892 
0.241439 9.55917 -0.772536 
0.627892 -0.772536 10.3216 
9.00405 0.585856 0.553717 
0.585856 9.09452 -0.325033 
0.553717 -0.325033 10.3998 
10.0781 -0.00101612 0.0182953 
-0.00101612 10.0553 -0.0325295 
0.0182953 -0.0325295 9.94357 
10.0598 0.00810249 -0.0561257 
0.00810249 10.0631 0.0400758 
-0.0561257 0.0400758 9.95406 
10.028 -0.000202523 0.0251799 
-0.000202523 10.0151 -0.00307645 
0.0251799 -0.00307645 10.0338 
10.06 -0.000325268 -0.0675817 
-0.000325268 10.0508 -0.0100174 
-0.0675817 -0.0100174 9.96612 
9.78514 -0.0277728 -0.0385491 
-0.0277728 9.81604 0.151401 
-0.0385491 0.151401 9.78497 
9.7947 -0.0380259 -0.0451876 
-0.0380259 9.82171 0.157515 
-0.0451876 0.157515 9.76974 
9.77239 -0.0229577 -0.0710604 
-0.0229577 9.81134 0.128279 
-0.0710604 0.128279 9.80242 
9.77814 -0.0284278 -0.0576903 
-0.0284278 9.82749 0.150037 
-0.0576903 0.150037 9.78053 
9.57681 -0.00148762 -0.287988 
-0.00148762 9.62233 0.135502 
-0.287988 0.135502 9.61205 
9.59566 -0.0125427 -0.294311 
-0.0125427 9.59252 0.129081 
-0.294311 0.129081 9.62301 
9.58707 -0.0075039 -0.291854 
-0.0075039 9.6015 0.141096 
-0.291854 0.141096 9.62261 
9.59857 -0.00472102 -0.290694 
-0.00472102 9.58786 0.123462 
-0.290694 0.123462 9.62476 
7.81711 0.433476 -1.33585 
0.433476 6.9152 -0.526039 
-1.33585 -0.526039 3.88069 
8.82261 -2.01254 -1.40489 
-2.01254 7.3397 -2.53626 
-1.40489 -2.53626 2.45069 
7.37938 -1.83766 -1.50339 
-1.83766 7.02125 0.237688 
-1.50339 0.237688 4.21238 
7.63391 -0.436997 -1.37856 
-0.436997 7.08551 -1.12467 
-1.37856 -1.12467 3.89358 
10.0888 0.0597252 0.0368554 
0.0597252 10.1263 0.0290012 
0.0368554 0.0290012 9.93864 
10.0772 -0.022067 0.0247688 
-0.022067 10.0789 -0.00970353 
0.0247688 -0.00970353 9.99753 
10.0575 0.0239758 0.0598175 
0.0239758 10.0651 0.0207753 
0.0598175 0.0207753 10.0312 
10.091 -0.0449456 0.0694328 
-0.0449456 10.098 -0.00577839 
0.0694328 -0.00577839 9.96478 
9.73674 0.0146015 0.292695 
0.0146015 9.66569 0.051 
0.292695 0.051 9.72149 
9.76326 0.0646406 0.231175 
0.0646406 9.7512 0.131004 
0.231175 0.131004 9.60947 
9.72044 0.041265 0.198886 
0.041265 9.74034 0.0411835 
0.198886 0.0411835 9.66315 
9.72966 0.0449502 0.209806 
0.0449502 9.72599 0.0731553 
0.209806 0.0731553 9.66828 
7.93968 0.133083 -0.169792 
0.133083 8.87887 1.55343 
-0.169792 1.55343 9.6945 
10.1749 1.64323 -0.728479 
1.64323 7.857 1.33421 
-0.728479 1.33421 8.48118 
10.2479 0.725554 0.185439 
0.725554 7.64048 2.10853 
0.185439 2.10853 8.6247 
10.5693 0.790958 -0.190786 
0.790958 7.76349 1.15149 
-0.190786 1.15149 8.18028 
9.72787 0.186482 0.915266 
0.186482 9.54888 0.10581 
0.915266 0.10581 8.6348 
9.43093 -0.0566841 0.631399 
-0.0566841 9.471 0.114504 
0.631399 0.114504 9.00962 
9.56004 -0.0225791 0.734839 
-0.0225791 9.52266 0.193937 
0.734839 0.193937 8.82884 
9.17541 0.0797845 0.675433 
0.0797845 9.67556 0.142892 
0.675433 0.142892 9.06058 
9.71299 0.01864 0.314503 
0.01864 9.66258 0.11128 
0.314503 0.11128 9.6906 
9.72537 0.0262706 0.307883 
0.0262706 9.65582 0.112594 
0.307883 0.112594 9.68498 
9.7075 0.0253181 0.309417 
0.0253181 9.67102 0.111428 
0.309417 0.111428 9.68766 
9.70598 -0.00645198 0.293251 
-0.00645198 9.67576 0.147428 
0.293251 0.147428 9.68444 
9.73716 0.0233793 -0.227765 
0.0233793 9.75326 -0.055109 
-0.227765 -0.055109 9.72518 
9.73647 0.00748307 -0.188425 
0.00748307 9.74113 -0.0817241 
-0.188425 -0.0817241 9.738 
9.77042 0.017042 -0.275829 
0.017042 9.74053 -0.0623798 
-0.275829 -0.0623798 9.70466 
9.74074 0.0348298 -0.241352 
0.0348298 9.7478 -0.0884078 
-0.241352 -0.0884078 9.72706 
9.44068 -0.0583685 0.253202 
-0.0583685 9.65998 0.149184 
0.253202 0.149184 9.64007 
9.6437 0.0255013 0.28512 
0.0255013 9.57737 0.185309 
0.28512 0.185309 9.51966 
9.59876 0.0458084 0.293857 
0.0458084 9.59129 0.202783 
0.293857 0.202783 9.55068 
9.51348 -0.0523171 0.379574 
-0.0523171 9.59156 0.145869 
0.379574 0.145869 9.6357 
10.2768 -0.835605 1.43472 
-0.835605 15.7243 1.88646 
1.43472 1.88646 8.70565 
7.76652 2.05827 0.655046 
2.05827 10.9758 -1.58539 
0.655046 -1.58539 15.9644 
7.13729 0.55666 1.03437 
0.55666 10.7739 -0.785374 
1.03437 -0.785374 16.7956 
10.0843 0.950536 -0.932746 
0.950536 10.0811 0.654247 
-0.932746 0.654247 14.5414 
9.68293 -0.042599 -0.197939 
-0.042599 9.69117 0.0518059 
-0.197939 0.0518059 9.83737 
9.66601 0.0185265 -0.179631 
0.0185265 9.6958 0.0817699 
-0.179631 0.0817699 9.84966 
9.55015 0.142276 -0.193981 
0.142276 9.71955 0.0510457 
-0.193981 0.0510457 9.94177 
9.72226 -0.00872808 -0.200352 
-0.00872808 9.60997 0.0712329 
-0.200352 0.0712329 9.87924 
9.77758 -0.0076625 -0.0673996 
-0.0076625 9.79104 0.30467 
-0.0673996 0.30467 9.76012 
9.79182 -0.00948155 -0.0796588 
-0.00948155 9.77881 0.307866 
-0.0796588 0.307866 9.75812 
9.7839 -0.00047226 -0.0587148 
-0.00047226 9.78986 0.299851 
-0.0587148 0.299851 9.75499 
9.77664 -0.0248271 -0.0617138 
-0.0248271 9.79167 0.336467 
-0.0617138 0.336467 9.76044 
9.68094 -0.0521819 -0.166912 
-0.0521819 9.81559 -0.143913 
-0.166912 -0.143913 9.8834 
9.82362 -0.0271888 -0.180942 
-0.0271888 9.86685 -0.178385 
-0.180942 -0.178385 9.68946 
9.71785 -0.059093 -0.294874 
-0.059093 9.7506 -0.119262 
-0.294874 -0.119262 9.91149 
9.72824 -0.0232328 -0.196994 
-0.0232328 9.81081 -0.153809 
-0.196994 -0.153809 9.84089 
9.61973 0.000207228 -0.128291 
0.000207228 9.60418 0.298831 
-0.128291 0.298831 9.68196 
9.63505 0.00642586 -0.141315 
0.00642586 9.62482 0.293485 
-0.141315 0.293485 9.646 
9.63546 -0.00503778 -0.13092 
-0.00503778 9.66165 0.309809 
-0.13092 0.309809 9.60876 
9.63232 -0.00303458 -0.144399 
-0.00303458 9.63741 0.290052 
-0.144399 0.290052 9.63614 
9.45763 -0.0192177 0.160716 
-0.0192177 9.48207 -0.3055 
0.160716 -0.3055 9.70877 
9.49739 -0.0152036 0.138216 
-0.0152036 9.57565 -0.388565 
0.138216 -0.388565 9.57542 
9.39017 0.052634 0.143401 
0.052634 9.4252 -0.526911 
0.143401 -0.526911 9.8331 
9.4656 -0.0426815 0.245718 
-0.0426815 9.47614 -0.293892 
0.245718 -0.293892 9.70673 
9.69595 -0.184844 0.333528 
-0.184844 9.77108 -0.442068 
0.333528 -0.442068 9.25264 
9.99409 0.175652 0.519183 
0.175652 9.50679 -0.511358 
0.519183 -0.511358 9.21879 
9.50053 -0.0859246 0.486798 
-0.0859246 9.74451 -0.366469 
0.486798 -0.366469 9.47463 
9.3824 -0.013551 0.425565 
-0.013551 9.86431 -0.302184 
0.425565 -0.302184 9.47297 
10.3173 0.153031 -1.3501 
0.153031 8.56216 -1.6437 
-1.3501 -1.6437 -4.16399 
11.2337 1.10374 -2.3908 
1.10374 10.4937 0.601641 
-2.3908 0.601641 -7.01195 
1.62728 -0.221976 1.1523 
-0.221976 0.366559 0.506573 
1.1523 0.506573 12.7216 
1.84597 -2.80447 -12.749 
-2.80447 7.90162 -6.87325 
-12.749 -6.87325 4.96789 
9.5567 0.0492123 -0.0288495 
0.0492123 9.76586 -0.0946248 
-0.0288495 -0.0946248 9.29065 
9.66656 0.0606945 0.0585487 
0.0606945 9.69024 -0.129064 
0.0585487 -0.129064 9.2564 
9.57212 -0.0561376 -0.0784634 
-0.0561376 9.65659 -0.119861 
-0.0784634 -0.119861 9.3845 
9.56524 0.0263855 0.162606 
0.0263855 9.83199 0.0753325 
0.162606 0.0753325 9.21597 
10.4753 -0.502883 -0.323422 
-0.502883 10.4295 0.00520147 
-0.323422 0.00520147 11.6418 
10.473 -0.292363 -0.0845379 
-0.292363 10.5195 -0.115659 
-0.0845379 -0.115659 11.5539 
10.3949 -0.692905 0.115725 
-0.692905 10.458 -0.110992 
0.115725 -0.110992 11.6936 
10.4262 -0.243845 -0.0870289 
-0.243845 10.5751 -0.229799 
-0.0870289 -0.229799 11.5452 
10.0582 0.00722209 -0.0279764 
0.00722209 10.0797 0.0105673 
-0.0279764 0.0105673 10.0414 
10.074 0.0132816 0.00245741 
0.0132816 10.0583 0.0101614 
0.00245741 0.0101614 10.0469 
10.0902 -0.00331884 0.0273953 
-0.00331884 10.0834 0.00993606 
0.0273953 0.00993606 10.0055 
10.115 -0.0300724 0.0294006 
-0.0300724 10.0832 -0.0413264 
0.0294006 -0.0413264 9.98102 
9.48452 -0.0942504 -0.137055 
-0.0942504 9.43694 -0.304884 
-0.137055 -0.304884 9.74979 
9.55497 0.00214222 -0.100481 
0.00214222 9.48911 -0.421078 
-0.100481 -0.421078 9.62717 
9.63008 -0.0256681 -0.180774 
-0.0256681 9.31849 -0.443829 
-0.180774 -0.443829 9.72268 
9.44126 -0.0674354 -0.139177 
-0.0674354 9.59236 -0.456091 
-0.139177 -0.456091 9.63764 
9.73302 -0.0425603 0.17658 
-0.0425603 9.77751 0.132101 
0.17658 0.132101 9.82764 
9.72013 -0.0413665 0.209662 
-0.0413665 9.73189 0.200824 
0.209662 0.200824 9.88615 
9.76294 0.00622386 0.190961 
0.00622386 9.81528 0.184177 
0.190961 0.184177 9.75995 
9.75498 -0.0414925 0.193654 
-0.0414925 9.78177 0.162205 
0.193654 0.162205 9.80143 
9.37853 0.350522 -0.00345045 
0.350522 10.1011 0.0899123 
-0.00345045 0.0899123 10.2965 
9.93941 -0.26212 0.839009 
-0.26212 9.4523 -0.118825 
0.839009 -0.118825 10.3845 
9.47725 0.274595 -0.134642 
0.274595 9.9939 0.0379719 
-0.134642 0.0379719 10.305 
9.38128 0.321613 0.071725 
0.321613 9.83792 0.152688 
0.071725 0.152688 10.557 
9.38458 -0.285844 -3.86597 
-0.285844 8.27883 -1.44987 
-3.86597 -1.44987 5.48217 
7.04219 0.916041 -3.7465 
0.916041 9.10174 -1.75613 
-3.7465 -1.75613 7.00165 
9.12881 -0.454562 -5.09879 
-0.454562 7.09105 -0.3645 
-5.09879 -0.3645 6.92573 
8.19617 -1.21244 -3.84696 
-1.21244 8.67153 1.38296 
-3.84696 1.38296 6.27788 
9.62818 0.00355531 0.0716269 
0.00355531 9.07375 -0.186192 
0.0716269 -0.186192 9.75209 
9.53804 -0.161083 0.133171 
-0.161083 8.92002 0.0491259 
0.133171 0.0491259 9.99596 
9.16744 0.576363 0.102488 
0.576363 10.5323 -0.694048 
0.102488 -0.694048 8.75431 
9.52338 -0.179152 -0.232783 
-0.179152 8.91473 -0.486634 
-0.232783 -0.486634 10.0159 
9.55899 0.0189866 0.365224 
0.0189866 9.55965 -0.01366 
0.365224 -0.01366 9.55116 
9.4692 0.0623638 0.338584 
0.0623638 9.64183 -0.0861076 
0.338584 -0.0861076 9.55876 
9.60645 -0.020543 0.340602 
-0.020543 9.53153 -0.0611305 
0.340602 -0.0611305 9.53181 
9.51818 0.00636647 0.408583 
0.00636647 9.57786 -0.0934465 
0.408583 -0.0934465 9.57376 
6.37821 -2.9861 -2.36637 
-2.9861 10.8105 -0.0132621 
-2.36637 -0.0132621 22.126 
11.9756 0.763572 0.354424 
0.763572 12.6385 0.405367 
0.354424 0.405367 14.7006 
13.829 -1.34411 0.676656 
-1.34411 13.1018 0.962668 
0.676656 0.962668 12.3838 
13.8187 -0.65749 0.154076 
-0.65749 12.8997 -1.2383 
0.154076 -1.2383 12.5963 
9.6921 -0.024793 -0.0197475 
-0.024793 9.75721 -0.122917 
-0.0197475 -0.122917 9.69758 
9.70481 0.0330895 0.00365745 
0.0330895 9.79063 -0.131645 
0.00365745 -0.131645 9.65144 
9.71399 -0.0225951 -0.0453039 
-0.0225951 9.73657 -0.188656 
-0.0453039 -0.188656 9.69632 
9.68275 0.0123789 0.000934543 
0.0123789 9.76216 -0.163775 
0.000934543 -0.163775 9.70197 
9.62146 0.0559961 0.0215467 
0.0559961 9.59881 -0.624348 
0.0215467 -0.624348 9.58026 
9.73587 -0.0816966 0.219453 
-0.0816966 9.59343 -0.345516 
0.219453 -0.345516 9.47123 
9.61973 -0.168622 0.15804 
-0.168622 9.40845 -0.588721 
0.15804 -0.588721 9.77235 
9.50102 -0.0342183 0.116689 
-0.0342183 9.69215 -0.376458 
0.116689 -0.376458 9.60737 
9.35445 -0.098605 0.398831 
-0.098605 9.67674 0.166558 
0.398831 0.166558 9.65929 
9.52867 -0.111962 0.292214 
-0.111962 9.41507 -0.0933635 
0.292214 -0.0933635 9.74674 
9.2901 -0.223447 0.360085 
-0.223447 9.59891 0.138294 
0.360085 0.138294 9.80148 
9.44996 -0.115714 0.364899 
-0.115714 9.56185 0.126029 
0.364899 0.126029 9.67867 
9.37602 0.0880802 0.17428 
0.0880802 9.60367 0.514465 
0.17428 0.514465 9.61294 
9.44783 0.0813446 0.36356 
0.0813446 9.45839 0.42055 
0.36356 0.42055 9.68641 
9.6177 0.0918893 0.192427 
0.0918893 9.62431 0.288663 
0.192427 0.288663 9.35062 
9.35775 0.0290557 0.18295 
0.0290557 9.49915 0.492928 
0.18295 0.492928 9.73573 
6.43656 -0.890446 -0.369876 
-0.890446 6.73247 0.048754 
-0.369876 0.048754 -1.04857 
6.86862 -1.54456 -0.726008 
-1.54456 4.10241 -0.578473 
-0.726008 -0.578473 1.14942 
5.37982 -0.657482 -0.353044 
-0.657482 5.95635 -1.10519 
-0.353044 -1.10519 0.784276 
4.67373 -0.361544 -1.6561 
-0.361544 5.27167 -1.60791 
-1.6561 -1.60791 2.17506 
4.98764 -0.426282 1.09349 
-0.426282 6.55749 -0.569291 
1.09349 -0.569291 0.483836 
4.97692 -0.658807 1.56318 
-0.658807 5.63316 -1.3483 
1.56318 -1.3483 1.41888 
4.64298 0.268648 1.69445 
0.268648 6.19 -0.874773 
1.69445 -0.874773 1.19598 
4.46134 -0.503262 2.53157 
-0.503262 4.96095 -0.557259 
2.53157 -0.557259 2.60667 
11.8135 -1.83709 1.13783 
-1.83709 14.0521 -0.439913 
1.13783 -0.439913 10.437 
9.93346 0.441493 0.394086 
0.441493 12.4024 0.167868 
0.394086 0.167868 13.9668 
10.2914 0.311386 -1.11548 
0.311386 10.3157 1.106 
-1.11548 1.106 15.6955 
10.1292 1.09465 0.752175 
1.09465 12.1718 -1.56726 
0.752175 -1.56726 14.0017 
9.57667 -0.442247 -0.142084 
-0.442247 11.26 0.264292 
-0.142084 0.264292 11.7029 
10.9183 0.49218 0.365165 
0.49218 8.30552 -0.0346003 
0.365165 -0.0346003 13.3158 
11.6907 0.469882 -0.251678 
0.469882 9.93813 -0.650144 
-0.251678 -0.650144 10.9108 
10.1945 0.35108 -0.634913 
0.35108 10.7481 -0.53549 
-0.634913 -0.53549 11.597 
9.54446 -0.0577732 0.46222 
-0.0577732 9.54711 0.0792856 
0.46222 0.0792856 9.50821 
9.329 0.128663 0.352219 
0.128663 9.62528 0.0722668 
0.352219 0.0722668 9.64551 
9.46206 -0.0762436 0.578484 
-0.0762436 9.53773 -0.0518778 
0.578484 -0.0518778 9.59999 
9.59264 -0.110552 0.438669 
-0.110552 9.57772 0.0593457 
0.438669 0.0593457 9.42942 
9.59429 -0.0582593 -0.262249 
-0.0582593 9.52108 0.146346 
-0.262249 0.146346 9.72328 
9.59722 -0.0223079 -0.423273 
-0.0223079 9.71165 -0.155797 
-0.423273 -0.155797 9.52978 
9.35489 -0.241102 -0.58396 
-0.241102 9.80994 0.0375129 
-0.58396 0.0375129 9.67381 
9.65383 0.0750753 -0.455501 
0.0750753 9.59254 -0.0525896 
-0.455501 -0.0525896 9.59228 
9.72871 0.00918324 0.00772579 
0.00918324 9.73187 -0.0159146 
0.00772579 -0.0159146 9.98136 
9.76073 0.0267297 0.000299384 
0.0267297 9.71399 -0.00485558 
0.000299384 -0.00485558 9.96722 
9.74349 0.014436 0.0226501 
0.014436 9.74276 -0.0384525 
0.0226501 -0.0384525 9.95569 
9.7584 -0.0111697 0.0274811 
-0.0111697 9.71617 -0.0499844 
0.0274811 -0.0499844 9.96736 
2.38311 0.306374 0.0550182 
0.306374 2.68022 -0.802868 
0.0550182 -0.802868 2.19198 
3.64497 -0.364857 0.258444 
-0.364857 4.73942 2.15725 
0.258444 2.15725 -1.12907 
2.08402 0.367685 0.162749 
0.367685 3.41692 -0.518645 
0.162749 -0.518645 1.75437 
1.83781 0.578257 -0.0946922 
0.578257 5.14474 -0.878298 
-0.0946922 -0.878298 0.27277 
9.25735 0.105011 -0.0211349 
0.105011 9.83325 0.0278628 
-0.0211349 0.0278628 9.3709 
9.41553 0.151241 -0.0978099 
0.151241 9.78368 -0.0249279 
-0.0978099 -0.0249279 9.26229 
9.42711 0.263309 -0.242754 
0.263309 9.66403 -0.0638644 
-0.242754 -0.0638644 9.37036 
9.36968 0.0912953 -0.262305 
0.0912953 9.64473 0.0356428 
-0.262305 0.0356428 9.44708 
9.76413 0.103156 -0.232945 
0.103156 9.63954 -0.16163 
-0.232945 -0.16163 9.3222 
9.593 0.0396346 -0.0460154 
0.0396346 9.62219 -0.136353 
-0.0460154 -0.136353 9.51068 
9.53892 0.135354 -0.0337292 
0.135354 9.60277 0.0383434 
-0.0337292 0.0383434 9.58418 
9.93346 0.112091 -0.1591 
0.112091 9.52132 -0.30161 
-0.1591 -0.30161 9.27109 
8.10148 1.21908 -1.01603 
1.21908 9.33802 1.44325 
-1.01603 1.44325 9.53356 
7.65165 -0.471487 -1.31547 
-0.471487 9.31501 2.39824 
-1.31547 2.39824 10.0064 
8.15699 -0.821056 -1.02296 
-0.821056 9.93009 1.82807 
-1.02296 1.82807 8.88598 
8.60449 1.40599 -1.11631 
1.40599 9.1598 1.35542 
-1.11631 1.35542 9.20877 
10.1793 -0.0354622 -0.00937796 
-0.0354622 10.1588 0.0421234 
-0.00937796 0.0421234 10.3102 
9.98243 0.0468787 0.000353604 
0.0468787 10.3053 0.0386158 
0.000353604 0.0386158 10.3606 
9.98854 0.0245993 -0.0342845 
0.0245993 9.94303 -0.0961783 
-0.0342845 -0.0961783 10.7168 
10.1774 -0.0666322 0.00462291 
-0.0666322 10.0192 0.293931 
0.00462291 0.293931 10.4517 
10.1802 -0.00740663 -0.0208842 
-0.00740663 10.1941 -0.0288071 
-0.0208842 -0.0288071 9.932 
10.1544 -0.00431597 -0.0169588 
-0.00431597 10.1537 -0.0114708 
-0.0169588 -0.0114708 9.99812 
10.1303 0.0155746 0.0104584 
0.0155746 10.1609 -0.0192711 
0.0104584 -0.0192711 10.0151 
10.1509 -0.0104501 -0.0219349 
-0.0104501 10.1721 -0.0436514 
-0.0219349 -0.0436514 9.98327 
9.61675 0.179447 0.101284 
0.179447 9.61224 0.395559 
0.101284 0.395559 10.2933 
9.83171 0.0895632 -0.211069 
0.0895632 9.41532 0.0364646 
-0.211069 0.0364646 10.2753 
9.6327 -0.05442 -0.294175 
-0.05442 9.81842 0.197993 
-0.294175 0.197993 10.0712 
9.67481 0.030761 -0.0639533 
0.030761 9.58759 0.155758 
-0.0639533 0.155758 10.2599 
9.73449 -0.00483372 -0.0976418 
-0.00483372 9.79001 -0.321556 
-0.0976418 -0.321556 9.74459 
9.71797 -0.00386676 -0.0588004 
-0.00386676 9.77617 -0.308819 
-0.0588004 -0.308819 9.77495 
9.73519 0.00707472 -0.0738012 
0.00707472 9.78967 -0.306029 
-0.0738012 -0.306029 9.74423 
9.82208 0.0135738 -0.0896781 
0.0135738 9.77551 -0.27824 
-0.0896781 -0.27824 9.67151 
10.486 0.495009 0.250853 
0.495009 8.7092 -0.53783 
0.250853 -0.53783 11.2207 
10.6431 0.185954 -0.0647021 
0.185954 8.73672 -0.60221 
-0.0647021 -0.60221 11.0361 
9.98687 0.304791 0.34305 
0.304791 10.3727 -0.735725 
0.34305 -0.735725 10.0563 
10.6483 0.971751 0.261332 
0.971751 8.63283 -0.683555 
0.261332 -0.683555 11.1347 
9.74969 -0.0128231 -0.0752714 
-0.0128231 9.7158 0.285781 
-0.0752714 0.285781 9.87206 
9.80193 0.0380628 -0.0561096 
0.0380628 9.74215 0.232385 
-0.0561096 0.232385 9.79347 
9.72034 -0.0013121 -0.0129745 
-0.0013121 9.76261 0.283097 
-0.0129745 0.283097 9.85459 
9.76356 0.00076222 -0.0631135 
0.00076222 9.75358 0.2734 
-0.0631135 0.2734 9.8204 
9.45561 0.112008 0.22178 
0.112008 9.48511 0.0719787 
0.22178 0.0719787 8.14585 
9.75167 -0.170829 -0.0412177 
-0.170829 9.3499 -0.203581 
-0.0412177 -0.203581 7.985 
9.62712 -0.0702809 -0.107247 
-0.0702809 9.3254 -0.0363061 
-0.107247 -0.0363061 8.13405 
9.56745 -0.180587 -0.265629 
-0.180587 9.20012 0.0384593 
-0.265629 0.0384593 8.319 
9.57112 -0.025302 -0.161487 
-0.025302 9.5787 0.189703 
-0.161487 0.189703 9.62603 
9.40605 0.0382657 -0.197289 
0.0382657 9.48608 0.29127 
-0.197289 0.29127 9.88372 
9.51288 -0.0344781 0.10816 
-0.0344781 9.63837 0.34062 
0.10816 0.34062 9.6246 
9.5956 0.0184564 0.122491 
0.0184564 9.46027 0.238227 
0.122491 0.238227 9.71998 
9.8448 -0.00112075 0.0140998 
-0.00112075 9.83195 -0.00952652 
0.0140998 -0.00952652 9.98811 
9.85329 -0.00674012 0.00746511 
-0.00674012 9.83468 -0.00821027 
0.00746511 -0.00821027 9.97688 
9.85637 -0.00488021 0.0115451 
-0.00488021 9.84757 0.00684207 
0.0115451 0.00684207 9.96091 
9.86105 -0.0221963 0.0023528 
-0.0221963 9.83823 -0.00924182 
0.0023528 -0.00924182 9.96557 
10.1511 0.0233092 0.00858909 
0.0233092 10.1012 0.00669673 
0.00858909 0.00669673 9.99856 
10.1199 0.00420577 0.0300054 
0.00420577 10.1327 0.00646953 
0.0300054 0.00646953 9.99822 
10.1034 -0.0324758 -0.0324718 
-0.0324758 10.1219 0.01336 
-0.0324718 0.01336 10.0255 
10.1329 0.00010957 -0.00104013 
0.00010957 10.127 0.0175836 
-0.00104013 0.0175836 9.99094 
10.1237 -0.0108242 -0.0436546 
-0.0108242 10.1235 0.0385525 
-0.0436546 0.0385525 9.92112 
10.0471 0.0218138 -0.0163456 
0.0218138 10.0853 0.00544136 
-0.0163456 0.00544136 10.0359 
10.0776 0.0297762 -0.0323502 
0.0297762 10.1029 0.035284 
-0.0323502 0.035284 9.98783 
10.0611 0.0396855 -0.0413759 
0.0396855 10.0895 0.0356261 
-0.0413759 0.0356261 10.0178 
10.1791 -0.0122887 -0.0515483 
-0.0122887 10.1449 0.0248994 
-0.0515483 0.0248994 9.87645 
10.0995 0.0102461 0.00400424 
0.0102461 10.1183 0.0387042 
0.00400424 0.0387042 9.98271 
10.066 -0.0363318 0.0109797 
-0.0363318 10.0784 0.0116106 
0.0109797 0.0116106 10.0561 
10.1203 -0.0114035 -0.0466737 
-0.0114035 10.1193 0.0728843 
-0.0466737 0.0728843 9.96088 
9.11712 -0.766989 -2.49868 
-0.766989 9.66741 -0.900128 
-2.49868 -0.900128 4.9691 
8.72553 -0.553053 -0.706495 
-0.553053 9.21513 -0.972411 
-0.706495 -0.972411 5.81296 
7.48665 -0.547756 -2.24737 
-0.547756 8.01552 -0.0658727 
-2.24737 -0.0658727 8.25147 
8.94915 -0.815243 -0.527181 
-0.815243 8.85521 -1.61324 
-0.527181 -1.61324 5.94927 
11.3146 -0.523458 -0.0612538 
-0.523458 9.12086 -0.124823 
-0.0612538 -0.124823 13.7037 
11.7382 -0.441579 -0.457827 
-0.441579 9.55499 -0.432038 
-0.457827 -0.432038 12.846 
11.4479 0.894561 -0.49221 
0.894561 9.89678 -0.0035877 
-0.49221 -0.0035877 12.7945 
11.8117 -0.0991509 -0.0977393 
-0.0991509 9.2667 -0.810868 
-0.0977393 -0.810868 13.0607 
9.66725 0.0324106 -0.114989 
0.0324106 9.6966 -0.293373 
-0.114989 -0.293373 9.69702 
9.67841 0.020993 -0.120981 
0.020993 9.70515 -0.313702 
-0.120981 -0.313702 9.6773 
9.67196 0.019724 -0.13128 
0.019724 9.70658 -0.313636 
-0.13128 -0.313636 9.68233 
9.6817 0.0191536 -0.139645 
0.0191536 9.71115 -0.319413 
-0.139645 -0.319413 9.66802 
11.2344 -3.31349 -0.942362 
-3.31349 7.09029 0.574665 
-0.942362 0.574665 14.1557 
10.841 -1.77824 1.75649 
-1.77824 10.3882 1.05933 
1.75649 1.05933 11.251 
8.8173 1.03652 -0.880328 
1.03652 12.6107 -0.108986 
-0.880328 -0.108986 11.0523 
9.93514 0.154392 1.58207 
0.154392 10.0345 1.26277 
1.58207 1.26277 12.5106 
9.79285 0.00733403 -0.0977097 
0.00733403 9.76494 -0.0958054 
-0.0977097 -0.0958054 9.77001 
9.73347 0.0460752 -0.0840201 
0.0460752 9.81455 -0.131785 
-0.0840201 -0.131785 9.77978 
9.79961 0.0233322 -0.116128 
0.0233322 9.76315 -0.104251 
-0.116128 -0.104251 9.76504 
9.72604 0.0271344 -0.107096 
0.0271344 9.79728 -0.152107 
-0.107096 -0.152107 9.80448 
11.5807 -0.402612 -0.504088 
-0.402612 8.62955 -1.18268 
-0.504088 -1.18268 13.5431 
9.39207 -3.18075 -0.066118 
-3.18075 7.77344 -1.26768 
-0.066118 -1.26768 16.5878 
10.771 -1.54267 -0.307864 
-1.54267 9.83942 -0.506321 
-0.307864 -0.506321 13.1429 
10.4848 -2.38722 -0.788853 
-2.38722 10.1163 -1.49238 
-0.788853 -1.49238 13.1522 
9.47716 -0.00837818 0.031089 
-0.00837818 9.70351 -0.00444287 
0.031089 -0.00444287 9.95729 
9.63025 -0.048239 -0.0326168 
-0.048239 9.65539 0.0558775 
-0.0326168 0.0558775 9.85232 
9.58641 0.0143317 -0.0464056 
0.0143317 9.60096 -0.00423901 
-0.0464056 -0.00423901 9.95059 
9.58354 0.049375 -0.188913 
0.049375 9.56525 -0.0564771 
-0.188913 -0.0564771 9.98917 
9.74945 -0.0114581 0.205446 
-0.0114581 9.72457 0.191241 
0.205446 0.191241 9.86537 
9.73128 -0.00623523 0.1716 
-0.00623523 9.75634 0.215328 
0.1716 0.215328 9.85177 
9.75018 -0.0532564 0.178573 
-0.0532564 9.80138 0.1512 
0.178573 0.1512 9.78783 
9.75333 -0.00817426 0.201841 
-0.00817426 9.77043 0.182001 
0.201841 0.182001 9.81563 
9.88035 -0.0575349 -0.151033 
-0.0575349 9.97454 0.0932173 
-0.151033 0.0932173 9.78994 
9.90619 0.023271 -0.134586 
0.023271 9.81406 0.129105 
-0.134586 0.129105 9.92459 
9.89109 0.0221106 -0.127279 
0.0221106 9.87104 0.0541642 
-0.127279 0.0541642 9.8827 
9.88098 0.0318516 -0.190304 
0.0318516 9.91851 0.037838 
-0.190304 0.037838 9.84535 
9.58306 -0.0650512 0.0427653 
-0.0650512 9.63533 -0.0381351 
0.0427653 -0.0381351 9.68626 
9.54058 -0.0131045 -0.0456145 
-0.0131045 9.51373 -0.0627809 
-0.0456145 -0.0627809 9.85033 
9.40744 0.0459133 -0.0350101 
0.0459133 9.42643 0.0396105 
-0.0350101 0.0396105 10.0708 
9.45947 -0.0146303 -0.280148 
-0.0146303 9.66685 -0.272839 
-0.280148 -0.272839 9.77832 
9.5534 0.173058 -0.0868464 
0.173058 9.57615 0.205053 
-0.0868464 0.205053 9.80992 
9.82276 -0.243395 -0.0742071 
-0.243395 9.5919 0.142405 
-0.0742071 0.142405 9.5248 
9.48327 0.223013 -0.202244 
0.223013 9.5345 0.237018 
-0.202244 0.237018 9.92169 
9.6554 0.138619 -0.0340032 
0.138619 9.45412 0.218696 
-0.0340032 0.218696 9.82995 
8.25661 -1.44386 4.35872 
-1.44386 16.8591 -5.53872 
4.35872 -5.53872 -3.42409 
13.8564 -2.56998 2.77763 
-2.56998 15.7165 -7.35573 
2.77763 -7.35573 -7.88129 
2.85189 -2.74962 -3.55353 
-2.74962 0.36127 4.74844 
-3.55353 4.74844 18.4785 
6.97945 7.86137 3.24751 
7.86137 -1.85626 -9.7276 
3.24751 -9.7276 16.5684 
9.79976 -0.0200682 0.0679173 
-0.0200682 9.8378 -0.212334 
0.0679173 -0.212334 9.82119 
9.79977 -0.0259064 0.0434858 
-0.0259064 9.8369 -0.201725 
0.0434858 -0.201725 9.82209 
9.77554 -0.000881394 0.0590111 
-0.000881394 9.81643 -0.168948 
0.0590111 -0.168948 9.86679 
9.83612 -0.033957 0.0228209 
-0.033957 9.88168 -0.139654 
0.0228209 -0.139654 9.74095 
12.0445 -0.871409 0.385269 
-0.871409 11.2848 0.265831 
0.385269 0.265831 9.97951 
9.48795 -1.03961 -0.0227443 
-1.03961 9.97051 0.740638 
-0.0227443 0.740638 13.8504 
10.5095 0.408075 0.0524016 
0.408075 10.8854 0.364525 
0.0524016 0.364525 11.914 
10.3746 -0.724547 0.886891 
-0.724547 10.4685 -0.853999 
0.886891 -0.853999 12.4657 
10.5932 1.16881 -0.374278 
1.16881 12.9926 0.235489 
-0.374278 0.235489 12.456 
9.76409 1.87436 0.0938718 
1.87436 8.98654 -0.00233796 
0.0938718 -0.00233796 17.2912 
11.1011 -0.93304 0.28838 
-0.93304 9.39537 -0.20106 
0.28838 -0.20106 15.5454 
11.9672 1.73603 0.632673 
1.73603 11.2184 0.928732 
0.632673 0.928732 12.8562 
9.75802 0.0239086 -0.0530593 
0.0239086 9.7681 -0.330218 
-0.0530593 -0.330218 9.83957 
9.77118 0.0115351 -0.077268 
0.0115351 9.79994 -0.305005 
-0.077268 -0.305005 9.79457 
9.78146 -0.0059411 -0.0749838 
-0.0059411 9.80123 -0.290039 
-0.0749838 -0.290039 9.78299 
9.78076 0.00585289 -0.0857031 
0.00585289 9.80224 -0.28973 
-0.0857031 -0.28973 9.78269 
10.2028 0.00610097 -0.017566 
0.00610097 10.2079 0.0333114 
-0.017566 0.0333114 9.9547 
10.1732 0.00894984 0.0058269 
0.00894984 10.1869 0.00939966 
0.0058269 0.00939966 10.0053 
10.1742 0.0174172 -0.00937763 
0.0174172 10.1859 0.0149644 
-0.00937763 0.0149644 10.0053 
10.1903 0.0118277 -0.00726903 
0.0118277 10.1898 0.0323957 
-0.00726903 0.0323957 9.9854 
13.4981 0.865683 -0.0660867 
0.865683 8.70966 -1.26316 
-0.0660867 -1.26316 15.9066 
12.0596 0.54137 1.35148 
0.54137 9.24356 -0.761915 
1.35148 -0.761915 16.8113 
14.8624 0.901356 -0.867409 
0.901356 12.2407 -1.22458 
-0.867409 -1.22458 11.0114 
11.8566 1.24922 -0.856238 
1.24922 10.6749 0.795844 
-0.856238 0.795844 15.5829 
9.7905 -0.0998551 0.0313591 
-0.0998551 9.73088 0.00642598 
0.0313591 0.00642598 10.0351 
9.84364 -0.110606 0.223929 
-0.110606 9.71005 0.201769 
0.223929 0.201769 10.0028 
9.80083 -0.057028 0.128788 
-0.057028 9.81307 0.147768 
0.128788 0.147768 9.94257 
9.84454 0.0697839 0.141078 
0.0697839 9.87924 0.147146 
0.141078 0.147146 9.8327 
8.79732 0.0614983 -0.692889 
0.0614983 9.44889 -0.113293 
-0.692889 -0.113293 9.03669 
9.12221 -0.0388053 1.14809 
-0.0388053 10.2644 0.498291 
1.14809 0.498291 7.89631 
9.44349 -0.279005 0.64968 
-0.279005 9.9792 -0.0713025 
0.64968 -0.0713025 7.86022 
10.971 0.183238 0.648428 
0.183238 10.365 1.5593 
0.648428 1.5593 5.94686 
10.0669 -0.000443588 0.0162118 
-0.000443588 10.0636 -0.0161627 
0.0162118 -0.0161627 10.0407 
10.054 -0.0201205 -0.00634533 
-0.0201205 10.1098 0.00723152 
-0.00634533 0.00723152 10.0074 
10.0744 -0.00206063 -0.00260163 
-0.00206063 10.0754 -0.0152299 
-0.00260163 -0.0152299 10.0214 
10.0708 0.00135416 -0.0188748 
0.00135416 10.0877 -0.0115716 
-0.0188748 -0.0115716 10.0128 
9.749 0.0111363 -0.228901 
0.0111363 9.72714 0.238339 
-0.228901 0.238339 9.70434 
9.72607 -0.0135739 -0.222449 
-0.0135739 9.73621 0.237831 
-0.222449 0.237831 9.71819 
9.74306 -0.000916991 -0.237098 
-0.000916991 9.72732 0.232461 
-0.237098 0.232461 9.7101 
9.73999 -0.00174962 -0.233412 
-0.00174962 9.73621 0.24027 
-0.233412 0.24027 9.70428 
4.39745 -1.12664 -0.164201 
-1.12664 10.4384 -0.971602 
-0.164201 -0.971602 18.7326 
6.69138 -2.77721 0.0284062 
-2.77721 10.9275 -1.05979 
0.0284062 -1.05979 15.9496 
9.79798 -0.170031 -1.88931 
-0.170031 14.0784 1.05914 
-1.88931 1.05914 9.69215 
9.52644 -0.714985 0.820522 
-0.714985 10.3271 0.57063 
0.820522 0.57063 13.715 
9.7244 -0.0341284 -0.0839588 
-0.0341284 9.93966 -0.0363453 
-0.0839588 -0.0363453 10.1808 
9.86849 -0.0126905 -0.125265 
-0.0126905 9.95422 -0.0520163 
-0.125265 -0.0520163 10.0222 
9.9996 -0.00210487 -0.0695187 
-0.00210487 10.073 0.0667765 
-0.0695187 0.0667765 9.77234 
9.93513 0.0300143 -0.260193 
0.0300143 9.96058 -0.031899 
-0.260193 -0.031899 9.94919 
9.72756 -1.20541e-05 -0.10916 
-1.20541e-05 9.74783 0.294785 
-0.10916 0.294785 9.71789 
9.72632 -0.0217163 -0.14624 
-0.0217163 9.76066 0.281485 
-0.14624 0.281485 9.70631 
9.74462 -0.022922 -0.136098 
-0.022922 9.73556 0.28059 
-0.136098 0.28059 9.71311 
9.73186 -0.0217132 -0.123746 
-0.0217132 9.75353 0.290884 
-0.123746 0.290884 9.7079 
9.55652 -0.00167807 -0.304196 
-0.00167807 9.64955 -0.0347786 
-0.304196 -0.0347786 9.64222 
9.7031 0.0401632 -0.218366 
0.0401632 9.55192 -0.197482 
-0.218366 -0.197482 9.59327 
9.55115 -0.0501838 -0.317871 
-0.0501838 9.59787 -0.162218 
-0.317871 -0.162218 9.69926 
9.5629 -0.0026463 -0.350102 
-0.0026463 9.58701 -0.108071 
-0.350102 -0.108071 9.69837 
10.7381 0.179247 -0.535842 
0.179247 9.49344 -1.94957 
-0.535842 -1.94957 8.56711 
9.68963 -0.00283898 -0.272391 
-0.00283898 9.56059 -0.41288 
-0.272391 -0.41288 9.54846 
9.81038 -0.329214 -0.768865 
-0.329214 9.67429 -0.732065 
-0.768865 -0.732065 9.31402 
9.78634 -0.42782 -0.772064 
-0.42782 9.40215 -0.622629 
-0.772064 -0.622629 9.61018 
9.95307 0.224269 -0.0200267 
0.224269 9.71749 -0.558166 
-0.0200267 -0.558166 9.90338 
9.60601 0.231099 0.00305076 
0.231099 10.0507 -0.731335 
0.00305076 -0.731335 9.91728 
9.67401 0.0914361 -0.206702 
0.0914361 9.89172 -0.57656 
-0.206702 -0.57656 10.0082 
9.83926 0.203474 0.158011 
0.203474 9.40449 -0.951461 
0.158011 -0.951461 10.3302 
9.94676 0.0003822 0.00242573 
0.0003822 9.95891 0.0146756 
0.00242573 0.0146756 9.93838 
9.93824 -0.014039 0.0256603 
-0.014039 9.95335 0.00608464 
0.0256603 0.00608464 9.95246 
9.93753 -0.00228561 0.00841564 
-0.00228561 9.9646 0.0019024 
0.00841564 0.0019024 9.94193 
9.9396 0.000712567 0.0119435 
0.000712567 9.95279 0.0239528 
0.0119435 0.0239528 9.95167 
10.1272 0.0147522 -0.0139808 
0.0147522 10.124 -0.00475827 
-0.0139808 -0.00475827 10.0024 
10.1208 0.0202517 -0.0166001 
0.0202517 10.125 -0.0148347 
-0.0166001 -0.0148347 10.0078 
10.1117 -0.00926388 0.00823957 
-0.00926388 10.1209 -0.00356636 
0.00823957 -0.00356636 10.021 
10.1289 -0.020035 0.0141342 
-0.020035 10.1374 -0.0337761 
0.0141342 -0.0337761 9.98731 
9.48654 -0.0057178 -0.367666 
-0.0057178 9.55472 -0.154725 
-0.367666 -0.154725 9.76119 
9.43726 -0.0300357 -0.424659 
-0.0300357 9.48016 -0.192768 
-0.424659 -0.192768 9.88505 
9.36976 -0.189252 -0.222938 
-0.189252 9.81311 -0.150127 
-0.222938 -0.150127 9.61959 
9.85344 -0.144089 -0.444333 
-0.144089 9.6367 -0.249843 
-0.444333 -0.249843 9.31232 
10.9702 -1.08503 -0.238406 
-1.08503 10.9932 -0.169071 
-0.238406 -0.169071 12.9101 
10.4351 -0.348112 -0.36436 
-0.348112 12.171 -0.392045 
-0.36436 -0.392045 12.2675 
10.0635 0.048717 0.0746634 
0.048717 10.7889 -0.290364 
0.0746634 -0.290364 14.0212 
10.6638 -0.20406 -1.04429 
-0.20406 11.8855 -0.509719 
-1.04429 -0.509719 12.3242 
9.77771 -0.0210004 -0.113071 
-0.0210004 9.78977 0.207488 
-0.113071 0.207488 9.75866 
9.76827 -0.0081585 -0.140707 
-0.0081585 9.82546 0.243643 
-0.140707 0.243643 9.73242 
9.77768 -0.0196367 -0.123761 
-0.0196367 9.79339 0.182447 
-0.123761 0.182447 9.75508 
9.75486 -0.0156771 -0.138783 
-0.0156771 9.75074 0.241257 
-0.138783 0.241257 9.82054 
9.59688 -0.158305 -0.485878 
-0.158305 9.71088 -0.308884 
-0.485878 -0.308884 9.07549 
9.89399 -0.173009 -0.808225 
-0.173009 9.66253 -0.209454 
-0.808225 -0.209454 8.82674 
9.51098 -0.109336 -0.443178 
-0.109336 9.69803 -0.435877 
-0.443178 -0.435877 9.17424 
9.99212 -0.159697 -0.220392 
-0.159697 9.08852 -0.211405 
-0.220392 -0.211405 9.30262 
9.99959 -0.0717436 0.00673673 
-0.0717436 10.0395 -0.0525979 
0.00673673 -0.0525979 10.0444 
10.0551 -0.023021 -0.0123703 
-0.023021 10.068 -0.0533608 
-0.0123703 -0.0533608 9.9604 
10.0865 0.0267529 -0.00973236 
0.0267529 10.0203 -0.0342444 
-0.00973236 -0.0342444 9.97671 
10.059 0.0210594 -0.0365509 
0.0210594 10.046 -0.0566543 
-0.0365509 -0.0566543 9.97859 
10.0801 -0.0221892 0.0194844 
-0.0221892 10.0914 -0.0219219 
0.0194844 -0.0219219 10.0189 
10.1112 0.00851281 -0.0114503 
0.00851281 10.0895 -4.91348e-05 
-0.0114503 -4.91348e-05 9.98965 
10.1034 0.00175924 -0.0240032 
0.00175924 10.114 -0.00648151 
-0.0240032 -0.00648151 9.97298 
10.0882 -0.0157862 0.0206941 
-0.0157862 10.1277 -0.0186415 
0.0206941 -0.0186415 9.97449 
9.6287 0.0238231 0.278464 
0.0238231 9.65833 -0.1581 
0.278464 -0.1581 9.59942 
9.63003 -0.0166795 0.264897 
-0.0166795 9.63053 -0.176251 
0.264897 -0.176251 9.6259 
9.59138 0.0213086 0.315254 
0.0213086 9.61364 -0.19895 
0.315254 -0.19895 9.68144 
9.61511 0.0230812 0.277991 
0.0230812 9.61292 -0.198982 
0.277991 -0.198982 9.65842 
1.60597 0.607233 0.0557646 
0.607233 4.67588 -2.62755 
0.0557646 -2.62755 10.5371 
9.88177 -1.06282 -2.61122 
-1.06282 15.3239 6.49469 
-2.61122 6.49469 -8.38669 
9.05442 -3.13657 -0.777321 
-3.13657 11.214 5.8157 
-0.777321 5.8157 -3.44939 
8.72615 2.24485 -2.81987 
2.24485 0.13779 6.60373 
-2.81987 6.60373 7.95504 
10.0823 -0.0364727 -0.00129735 
-0.0364727 10.0492 -0.0128887 
-0.00129735 -0.0128887 10.0208 
10.13 -0.0259277 -0.00307697 
-0.0259277 10.0446 -0.0956715 
-0.00307697 -0.0956715 9.97776 
10.0698 0.0646778 -0.0121023 
0.0646778 10.128 -0.0459424 
-0.0121023 -0.0459424 9.95453 
10.0714 0.0137684 -0.00451704 
0.0137684 10.081 -0.0691922 
-0.00451704 -0.0691922 9.99997 
9.43681 0.100754 -0.321771 
0.100754 9.58752 -0.0570255 
-0.321771 -0.0570255 9.73291 
9.70253 -0.0284224 -0.0307705 
-0.0284224 9.32751 0.024417 
-0.0307705 0.024417 9.72722 
9.53545 0.0145281 -0.361515 
0.0145281 9.64319 0.024363 
-0.361515 0.024363 9.57862 
9.81833 -0.103714 -0.595926 
-0.103714 9.71394 0.215355 
-0.595926 0.215355 9.22499 
9.48664 -0.098091 0.418938 
-0.098091 9.30174 -0.10917 
0.418938 -0.10917 9.31427 
9.34867 -0.11046 0.439975 
-0.11046 9.56775 -0.10364 
0.439975 -0.10364 9.18623 
9.47889 -0.0952527 0.522833 
-0.0952527 9.51726 -0.0414555 
0.522833 -0.0414555 9.1065 
9.3083 0.046792 0.409798 
0.046792 9.54102 -0.210873 
0.409798 -0.210873 9.25333 
10.1637 -0.0165495 -0.0103121 
-0.0165495 10.1284 0.0224001 
-0.0103121 0.0224001 9.98128 
10.1372 0.00964387 -0.0349201 
0.00964387 10.1339 0.0213328 
-0.0349201 0.0213328 10.0022 
10.1208 0.00816712 -0.00459602 
0.00816712 10.1404 0.00509769 
-0.00459602 0.00509769 10.0122 
10.1293 0.0012181 -0.0301802 
0.0012181 10.1477 0.00961587 
-0.0301802 0.00961587 9.99633 
9.82779 -0.0120492 -0.0875194 
-0.0120492 9.8959 0.0188152 
-0.0875194 0.0188152 9.87568 
9.89357 -0.00831282 -0.106402 
-0.00831282 9.84888 0.0208252 
-0.106402 0.0208252 9.85692 
9.87243 -0.060119 -0.107277 
-0.060119 9.8908 0.0675644 
-0.107277 0.0675644 9.83614 
9.88959 0.0250246 -0.129466 
0.0250246 9.82147 0.0120682 
-0.129466 0.0120682 9.88831 
8.72505 0.615011 2.40885 
0.615011 10.2106 -0.615611 
2.40885 -0.615611 10.4716 
8.36744 -0.115353 1.08576 
-0.115353 9.649 -0.0306354 
1.08576 -0.0306354 11.3908 
9.61262 -0.313758 1.63844 
-0.313758 10.548 -0.303364 
1.63844 -0.303364 9.24668 
9.74955 -0.00949895 1.42627 
-0.00949895 9.94357 -0.709206 
1.42627 -0.709206 9.71416 
8.48909 -0.616086 -0.765979 
-0.616086 9.89381 0.216094 
-0.765979 0.216094 12.3154 
8.86282 -0.44178 0.377008 
-0.44178 11.124 -0.604725 
0.377008 -0.604725 10.7115 
11.7364 0.0521142 -0.377897 
0.0521142 7.85534 0.23002 
-0.377897 0.23002 11.1066 
10.7333 -0.284104 0.506322 
-0.284104 8.50489 -1.63108 
0.506322 -1.63108 11.4602 
9.22151 0.156685 0.335014 
0.156685 9.78581 0.0360169 
0.335014 0.0360169 9.2074 
8.45908 0.0913302 0.599434 
0.0913302 9.04703 -0.13001 
0.599434 -0.13001 10.7086 
9.02065 -0.075569 0.841607 
-0.075569 9.93529 0.207025 
0.841607 0.207025 9.25877 
9.21712 -0.221463 0.667337 
-0.221463 9.3305 -0.0377405 
0.667337 -0.0377405 9.6671 
9.65412 0.114317 0.238892 
0.114317 9.16635 -0.717949 
0.238892 -0.717949 9.51409 
9.49719 0.1992 0.316265 
0.1992 9.2141 -0.53192 
0.316265 -0.53192 9.62327 
9.66768 0.180819 0.257948 
0.180819 9.09483 -0.526694 
0.257948 -0.526694 9.57205 
9.23103 0.394005 0.23419 
0.394005 9.59841 -0.38367 
0.23419 -0.38367 9.50513 
9.81224 -0.000213483 -0.0387859 
-0.000213483 9.84317 -0.0156168 
-0.0387859 -0.0156168 9.9779 
9.82507 -0.0168764 0.012665 
-0.0168764 9.80618 -0.0133982 
0.012665 -0.0133982 10.0021 
9.83924 -0.0107623 0.0212891 
-0.0107623 9.82933 -0.00951519 
0.0212891 -0.00951519 9.96475 
9.82662 0.0314661 -0.0426376 
0.0314661 9.82683 -0.0672361 
-0.0426376 -0.0672361 9.97986 
9.06017 0.0924749 -0.975979 
0.0924749 9.57272 0.363463 
-0.975979 0.363463 10.0611 
8.79176 0.0855322 -0.724428 
0.0855322 9.24236 0.462051 
-0.724428 0.462051 10.6599 
9.02218 -0.111193 -0.825038 
-0.111193 9.40298 0.568104 
-0.825038 0.568104 10.2688 
9.45912 0.530254 0.37512 
0.530254 9.78949 -0.114665 
0.37512 -0.114665 9.44539 
8.48341 -0.0794931 1.94558 
-0.0794931 9.1819 -1.21674 
1.94558 -1.21674 9.26469 
9.37981 -0.274248 1.22621 
-0.274248 9.54355 -0.032921 
1.22621 -0.032921 8.00665 
8.98966 -0.0319835 0.260227 
-0.0319835 9.98638 0.614984 
0.260227 0.614984 7.95395 
9.89171 -0.660183 1.13483 
-0.660183 9.77297 0.358624 
1.13483 0.358624 7.26533 
9.82279 -0.0036352 0.0227589 
-0.0036352 9.85847 -0.0218349 
0.0227589 -0.0218349 9.88664 
9.85573 -0.0185346 0.0247468 
-0.0185346 9.84493 -0.0580069 
0.0247468 -0.0580069 9.86724 
9.82444 0.0138919 0.064611 
0.0138919 9.81098 -0.097638 
0.064611 -0.097638 9.93248 
9.86904 -0.0365562 0.010907 
-0.0365562 9.88503 -0.0732294 
0.010907 -0.0732294 9.81383 
9.98921 -0.238422 -0.134998 
-0.238422 9.3148 -0.752584 
-0.134998 -0.752584 9.69727 
10.7016 -0.204869 -0.0399925 
-0.204869 10.0828 0.290218 
-0.0399925 0.290218 8.21685 
10.7559 0.131033 -0.0979453 
0.131033 9.2608 -0.727569 
-0.0979453 -0.727569 8.98458 
9.10095 -0.108708 -1.01132 
-0.108708 10.758 -1.77082 
-1.01132 -1.77082 9.14235 
9.69403 -0.0424967 0.0253743 
-0.0424967 9.61604 0.184331 
0.0253743 0.184331 9.92632 
9.76174 -0.0795196 0.061356 
-0.0795196 9.57571 0.24479 
0.061356 0.24479 9.89893 
9.60106 -0.0209634 0.0967587 
-0.0209634 9.82539 0.155024 
0.0967587 0.155024 9.80993 
9.66272 0.0709611 0.0146966 
0.0709611 9.67773 0.185906 
0.0146966 0.185906 9.89594 
9.40399 0.246156 0.263724 
0.246156 9.87529 0.18682 
0.263724 0.18682 10.0104 
9.61836 0.3341 -0.0189748 
0.3341 9.66294 0.150839 
-0.0189748 0.150839 10.0084 
9.68726 -0.0717514 0.478963 
-0.0717514 9.80081 -0.268363 
0.478963 -0.268363 9.8016 
9.61959 0.357759 0.226948 
0.357759 9.41007 -0.165066 
0.226948 -0.165066 10.26 
12.2069 -0.132138 0.757266 
-0.132138 10.0189 -0.265622 
0.757266 -0.265622 13.2292 
11.161 -1.30453 -0.331342 
-1.30453 9.50573 1.12831 
-0.331342 1.12831 14.7882 
11.2116 -0.377263 1.13347 
-0.377263 9.99663 1.61141 
1.13347 1.61141 14.2468 
11.6771 -2.38371 -0.863145 
-2.38371 10.5662 2.10199 
-0.863145 2.10199 13.2116 
10.9885 -2.41203 5.15677 
-2.41203 10.8581 4.44682 
5.15677 4.44682 0.704708 
9.62459 0.894899 3.28044 
0.894899 7.10923 1.49134 
3.28044 1.49134 5.81754 
6.32227 -2.68485 1.45541 
-2.68485 7.5588 2.22067 
1.45541 2.22067 8.67029 
9.59001 1.8125 0.622246 
1.8125 8.3251 0.0633699 
0.622246 0.0633699 4.63625 
9.8145 0.00597127 -0.159177 
0.00597127 10.0782 0.545352 
-0.159177 0.545352 10.1419 
9.81205 0.605693 -0.267951 
0.605693 10.0071 0.514258 
-0.267951 0.514258 10.2154 
10.2624 -0.0121134 -0.266773 
-0.0121134 9.82992 0.600388 
-0.266773 0.600388 9.94227 
9.93722 0.149873 -0.185106 
0.149873 9.97994 0.507217 
-0.185106 0.507217 10.1174 
9.787 -0.0126972 -0.223706 
-0.0126972 9.77043 -0.182142 
-0.223706 -0.182142 9.85488 
9.75395 -0.0155378 -0.210827 
-0.0155378 9.78578 -0.180522 
-0.210827 -0.180522 9.87257 
9.80699 -0.038271 -0.190928 
-0.038271 9.77743 -0.183422 
-0.190928 -0.183422 9.82789 
9.8151 -0.00132039 -0.162091 
-0.00132039 9.8229 -0.215419 
-0.162091 -0.215419 9.77431 
10.1018 0.000196449 -0.0393799 
0.000196449 10.1235 -0.00712577 
-0.0393799 -0.00712577 9.97283 
10.1188 -0.0109185 -0.0422414 
-0.0109185 10.1218 -0.00878143 
-0.0422414 -0.00878143 9.95747 
10.0653 -0.0174869 0.00461808 
-0.0174869 10.091 -0.00251357 
0.00461808 -0.00251357 10.0418 
10.0538 -0.0191988 -0.0548393 
-0.0191988 10.1356 -0.0151568 
-0.0548393 -0.0151568 10.0088 
9.7658 -0.00396821 -0.186851 
-0.00396821 9.75487 0.248223 
-0.186851 0.248223 9.60371 
9.71395 -0.0142013 -0.170177 
-0.0142013 9.70016 0.261263 
-0.170177 0.261263 9.71026 
9.71196 -0.014314 -0.201075 
-0.014314 9.72289 0.257005 
-0.201075 0.257005 9.68953 
9.71454 -0.0197458 -0.200895 
-0.0197458 9.71274 0.251341 
-0.200895 0.251341 9.6971 
11.9268 -0.941975 0.23264 
-0.941975 9.32501 -0.433551 
0.23264 -0.433551 11.7767 
10.4091 2.58019 -0.187995 
2.58019 8.80051 -1.61535 
-0.187995 -1.61535 13.8189 
11.5634 1.34704 0.324714 
1.34704 9.73263 -1.84435 
0.324714 -1.84435 11.7325 
10.6932 0.169409 1.18611 
0.169409 10.1302 -2.02976 
1.18611 -2.02976 12.2051 
9.58164 -0.0064233 -0.380438 
-0.0064233 9.68585 0.00591635 
-0.380438 0.00591635 9.65409 
9.66218 0.0134527 -0.235033 
0.0134527 9.59272 -0.0209439 
-0.235033 -0.0209439 9.66668 
9.73402 -0.0441563 -0.442857 
-0.0441563 9.63183 -0.0604434 
-0.442857 -0.0604434 9.55573 
9.62822 0.00434173 -0.34944 
0.00434173 9.69297 -0.0117239 
-0.34944 -0.0117239 9.60038 
9.7646 -0.0419705 0.0594064 
-0.0419705 9.33884 0.281632 
0.0594064 0.281632 9.66047 
9.37636 0.0990189 0.0748994 
0.0990189 9.81757 0.173829 
0.0748994 0.173829 9.56997 
9.67207 -0.0786121 0.0182176 
-0.0786121 9.3829 0.269387 
0.0182176 0.269387 9.70893 
9.69033 0.00636175 0.00142678 
0.00636175 9.38299 0.20278 
0.00142678 0.20278 9.69058 
3.38314 -0.889125 0.492542 
-0.889125 5.07281 -0.963274 
0.492542 -0.963274 1.89205 
4.59585 -1.36353 -0.157603 
-1.36353 5.80403 -2.2093 
-0.157603 -2.2093 -0.0518871 
2.90293 -0.146512 1.04667 
-0.146512 4.13649 -0.750497 
1.04667 -0.750497 3.30858 
3.42181 0.594542 1.14817 
0.594542 5.67093 0.242194 
1.14817 0.242194 1.25525 
9.91971 -0.00471257 0.00314366 
-0.00471257 9.90722 -0.0104391 
0.00314366 -0.0104391 9.96854 
9.91592 0.00364595 -0.0262053 
0.00364595 9.90801 0.00701126 
-0.0262053 0.00701126 9.97154 
9.92223 -0.00110758 -0.015997 
-0.00110758 9.91231 -0.00781437 
-0.015997 -0.00781437 9.96092 
9.92419 -0.00966871 -0.00944259 
-0.00966871 9.91712 -0.00330942 
-0.00944259 -0.00330942 9.95415 
9.58526 -0.080246 -0.100864 
-0.080246 9.56025 -0.0456927 
-0.100864 -0.0456927 9.94831 
9.60596 -0.0218479 -0.0876367 
-0.0218479 9.56217 -0.102145 
-0.0876367 -0.102145 9.92569 
9.6052 -0.0434976 -0.102553 
-0.0434976 9.58544 -0.0700699 
-0.102553 -0.0700699 9.90318 
9.5539 -0.0321872 -0.13381 
-0.0321872 9.60445 -0.0965031 
-0.13381 -0.0965031 9.93548 
9.72207 -0.121729 0.0563106 
-0.121729 9.42098 0.157626 
0.0563106 0.157626 10.002 
9.58352 0.207237 0.00111554 
0.207237 9.88604 0.155612 
0.00111554 0.155612 9.67553 
9.70614 -0.106818 0.127353 
-0.106818 9.51735 0.258652 
0.127353 0.258652 9.9216 
9.34826 -0.181773 0.0958425 
-0.181773 9.84858 0.141808 
0.0958425 0.141808 9.94825 
9.7987 -0.000156457 0.315778 
-0.000156457 9.7436 -0.0534183 
0.315778 -0.0534183 9.76111 
9.74992 -0.0149689 0.316262 
-0.0149689 9.79415 -0.0313158 
0.316262 -0.0313158 9.75935 
9.7861 -0.00277633 0.319298 
-0.00277633 9.78355 -0.0410514 
0.319298 -0.0410514 9.73377 
9.76386 0.0156703 0.332161 
0.0156703 9.80144 -0.0373666 
0.332161 -0.0373666 9.73811 
9.77038 0.0127548 -0.185681 
0.0127548 9.71885 -0.105654 
-0.185681 -0.105654 9.69356 
9.8135 0.0208454 -0.178908 
0.0208454 9.70433 -0.128515 
-0.178908 -0.128515 9.66495 
9.75949 0.0047462 -0.243469 
0.0047462 9.7046 -0.0931804 
-0.243469 -0.0931804 9.71869 
9.66191 0.0797469 -0.168513 
0.0797469 9.75238 -0.116263 
-0.168513 -0.116263 9.7685 
9.76386 -0.0147257 -0.300184 
-0.0147257 9.73984 0.0612346 
-0.300184 0.0612346 9.67376 
9.73751 -0.0320168 -0.255602 
-0.0320168 9.70387 0.0395599 
-0.255602 0.0395599 9.73608 
9.78231 -0.000127051 -0.295045 
-0.000127051 9.73318 0.0947232 
-0.295045 0.0947232 9.66196 
9.72901 0.0100039 -0.291048 
0.0100039 9.77462 0.0357769 
-0.291048 0.0357769 9.67383 
8.51066 1.0075 1.76537 
1.0075 11.0447 -2.51285 
1.76537 -2.51285 11.2772 
10.4651 1.16067 1.1354 
1.16067 9.71579 -1.15399 
1.1354 -1.15399 10.6516 
9.56117 0.645913 2.11532 
0.645913 10.9903 -0.070271 
2.11532 -0.070271 10.2811 
9.1529 1.00667 1.43495 
1.00667 10.7526 -1.0103 
1.43495 -1.0103 10.927 
9.661 -0.0234361 0.273092 
-0.0234361 9.64355 0.262312 
0.273092 0.262312 9.68518 
9.68468 0.00727006 0.229453 
0.00727006 9.70034 0.24061 
0.229453 0.24061 9.60471 
9.68158 0.022021 0.242782 
0.022021 9.67117 0.227361 
0.242782 0.227361 9.63698 
9.64933 -0.0147743 0.262039 
-0.0147743 9.6654 0.220181 
0.262039 0.220181 9.675 
10.1537 0.00440394 0.0250456 
0.00440394 10.1225 0.00541042 
0.0250456 0.00541042 9.99536 
10.1382 -0.00676029 0.0116682 
-0.00676029 10.1536 -0.02268 
0.0116682 -0.02268 9.97981 
10.098 0.00943837 0.00271748 
0.00943837 10.1627 -0.0306404 
0.00271748 -0.0306404 10.0109 
10.148 -0.020205 0.048318 
-0.020205 10.1365 0.00787606 
0.048318 0.00787606 9.98707 
9.78893 -0.0335352 -0.157909 
-0.0335352 9.86439 -0.241101 
-0.157909 -0.241101 9.68487 
9.78494 0.0424906 -0.0321009 
0.0424906 9.84165 -0.317738 
-0.0321009 -0.317738 9.7116 
9.82557 0.0125328 -0.0236647 
0.0125328 9.71087 -0.337814 
-0.0236647 -0.337814 9.80175 
9.71772 -0.0503336 -0.163479 
-0.0503336 9.75383 -0.349416 
-0.163479 -0.349416 9.86664 
9.62914 -0.121218 0.0901498 
-0.121218 9.43806 0.0909826 
0.0901498 0.0909826 10.534 
9.58225 -0.290185 0.282862 
-0.290185 9.52878 0.0412248 
0.282862 0.0412248 10.4901 
9.51604 -0.0497471 0.00366132 
-0.0497471 9.64519 0.0606806 
0.00366132 0.0606806 10.4399 
9.62142 -0.0939549 0.0463486 
-0.0939549 9.49331 0.00234618 
0.0463486 0.00234618 10.4864 
9.7279 0.0999338 -0.119073 
0.0999338 9.9513 0.40183 
-0.119073 0.40183 9.89875 
9.78486 0.147851 -0.0297224 
0.147851 9.89046 0.344247 
-0.0297224 0.344247 9.90263 
9.90305 0.273584 -0.134691 
0.273584 9.83132 0.608928 
-0.134691 0.608928 9.84358 
9.72917 0.137222 0.0294088 
0.137222 10.064 0.545312 
0.0294088 0.545312 9.78477 
9.06309 -0.257992 0.110217 
-0.257992 9.70698 -0.508842 
0.110217 -0.508842 7.49571 
9.30805 -0.254134 0.409706 
-0.254134 9.99188 0.117424 
0.409706 0.117424 6.96585 
9.83023 0.117837 -0.148703 
0.117837 8.39868 0.19445 
-0.148703 0.19445 8.03688 
8.95595 -0.0906069 0.119068 
-0.0906069 10.4119 0.186347 
0.119068 0.186347 6.89796 
9.85957 0.108616 -0.048921 
0.108616 9.3121 0.594665 
-0.048921 0.594665 10.0478 
10.009 -0.0241618 0.0400039 
-0.0241618 9.17983 0.484836 
0.0400039 0.484836 10.0306 
8.94593 0.22328 0.236068 
0.22328 10.28 -0.753235 
0.236068 -0.753235 9.99354 
10.33 0.361382 0.0270131 
0.361382 8.10753 -0.10861 
0.0270131 -0.10861 10.7819 
9.64765 -0.165168 0.446903 
-0.165168 9.33991 0.0250971 
0.446903 0.0250971 9.53602 
10.1473 -0.801762 0.473252 
-0.801762 9.29409 0.332217 
0.473252 0.332217 9.08221 
9.67942 -0.440201 0.623781 
-0.440201 9.52904 -0.124759 
0.623781 -0.124759 9.31512 
9.90738 -0.613823 0.596027 
-0.613823 9.23212 0.125944 
0.596027 0.125944 9.38409 
11.7279 -0.556361 0.182022 
-0.556361 13.3158 -0.100399 
0.182022 -0.100399 10.7802 
11.4646 -0.217327 0.522726 
-0.217327 11.0792 0.0817171 
0.522726 0.0817171 13.2801 
12.0513 -0.686092 0.474195 
-0.686092 11.3587 0.557954 
0.474195 0.557954 12.414 
11.5723 -0.407519 -0.269419 
-0.407519 11.9293 1.32528 
-0.269419 1.32528 12.3224 
11.0494 2.15832 -0.873279 
2.15832 9.44534 -1.21743 
-0.873279 -1.21743 13.3849 
10.4299 -0.291197 -0.212653 
-0.291197 11.5571 -0.314558 
-0.212653 -0.314558 11.8926 
10.3731 0.484885 -0.257453 
0.484885 10.7161 0.318466 
-0.257453 0.318466 12.7904 
11.2963 0.563567 -0.369464 
0.563567 10.2011 0.864171 
-0.369464 0.864171 12.3821 
3.92409 -0.358643 -0.397581 
-0.358643 3.99874 -0.959103 
-0.397581 -0.959103 0.873275 
2.42954 -0.0373756 -0.351182 
-0.0373756 2.00069 -2.02395 
-0.351182 -2.02395 4.36589 
4.73468 -0.543122 0.18213 
-0.543122 5.40611 1.61227 
0.18213 1.61227 -1.34467 
2.14489 0.0247057 0.791185 
0.0247057 5.98099 -2.39455 
0.791185 -2.39455 0.670234 
11.1647 -0.220835 -0.093306 
-0.220835 11.0457 0.195739 
-0.093306 0.195739 13.272 
11.0186 -0.311537 0.388196 
-0.311537 10.6672 0.915455 
0.388196 0.915455 13.7966 
11.9799 -2.36188 -0.161849 
-2.36188 8.50599 0.366974 
-0.161849 0.366974 14.9965 
11.4957 -1.23566 1.04797 
-1.23566 10.7477 0.636999 
1.04797 0.636999 13.239 
10.7212 0.207965 -0.591709 
0.207965 10.7924 -0.622061 
-0.591709 -0.622061 16.1607 
11.2386 0.382817 0.589616 
0.382817 11.3942 -0.816221 
0.589616 -0.816221 15.0415 
13.7217 0.415875 -0.644319 
0.415875 13.4966 -0.436909 
-0.644319 -0.436909 10.456 
12.0194 1.03961 1.07143 
1.03961 11.9442 1.53986 
1.07143 1.53986 13.7106 
10.1003 -0.0159006 -0.017382 
-0.0159006 10.0768 0.0188993 
-0.017382 0.0188993 9.98184 
10.0419 0.0137975 -0.00894186 
0.0137975 10.1384 0.0104898 
-0.00894186 0.0104898 9.97863 
10.1134 -0.0368841 -0.00208483 
-0.0368841 10.0701 -0.0183017 
-0.00208483 -0.0183017 9.97556 
10.1582 -0.0194434 -0.110736 
-0.0194434 10.0344 0.0787019 
-0.110736 0.0787019 9.96643 
4.59147 -0.351433 -0.901702 
-0.351433 2.87297 -1.37457 
-0.901702 -1.37457 2.31279 
2.97537 0.168558 -0.448927 
0.168558 5.46583 -0.928296 
-0.448927 -0.928296 1.33602 
4.06527 0.0393619 -0.662919 
0.0393619 4.68972 -0.0344426 
-0.662919 -0.0344426 1.02224 
3.26256 0.559934 -1.39109 
0.559934 4.55254 -1.49077 
-1.39109 -1.49077 1.96213 
9.35172 0.0229988 -0.263829 
0.0229988 9.51421 -0.435261 
-0.263829 -0.435261 9.45184 
9.46912 -0.0458199 -0.387579 
-0.0458199 9.45129 -0.483407 
-0.387579 -0.483407 9.39735 
9.41175 -0.0700078 -0.294661 
-0.0700078 9.5142 -0.445155 
-0.294661 -0.445155 9.39181 
9.21489 -0.0378494 -0.334925 
-0.0378494 9.50795 -0.525207 
-0.334925 -0.525207 9.59492 
9.66742 -0.0559183 0.164602 
-0.0559183 9.69777 0.100116 
0.164602 0.100116 9.77674 
9.79727 -0.0824194 0.167114 
-0.0824194 9.52575 -0.0496141 
0.167114 -0.0496141 9.81892 
9.31123 0.167853 0.0393859 
0.167853 9.76543 0.0170795 
0.0393859 0.0170795 10.0653 
9.52612 -0.174658 0.249434 
-0.174658 9.65895 -0.131154 
0.249434 -0.131154 9.95686 
9.6752 0.0335597 -0.109523 
0.0335597 9.4485 0.329078 
-0.109523 0.329078 9.54236 
9.56287 0.0278535 0.00583237 
0.0278535 9.54134 0.333682 
0.00583237 0.333682 9.56184 
9.44886 0.0218373 -0.0950155 
0.0218373 9.65627 0.324591 
-0.0950155 0.324591 9.56092 
9.56447 0.0248927 -0.0743311 
0.0248927 9.52066 0.378496 
-0.0743311 0.378496 9.58092 
9.85473 0.0582443 0.508869 
0.0582443 8.97075 0.0685483 
0.508869 0.0685483 10.5871 
9.12831 -0.374977 -0.581429 
-0.374977 9.78927 0.051186 
-0.581429 0.051186 10.495 
9.52179 -0.883928 0.125629 
-0.883928 8.74695 -0.336049 
0.125629 -0.336049 11.1439 
9.01985 -0.675027 0.00957651 
-0.675027 9.95567 0.364071 
0.00957651 0.364071 10.4371 
8.64511 -0.318634 -0.337703 
-0.318634 6.26538 -1.04522 
-0.337703 -1.04522 1.63872 
8.39644 1.5238 -1.48015 
1.5238 7.39028 0.97652 
-1.48015 0.97652 0.762478 
8.16537 -0.70771 -0.391966 
-0.70771 6.07069 -0.13497 
-0.391966 -0.13497 2.31313 
5.87873 1.41007 1.56599 
1.41007 7.32176 -2.70631 
1.56599 -2.70631 3.34872 
10.1517 -0.00208966 -0.0181693 
-0.00208966 10.1602 0.00694012 
-0.0181693 0.00694012 9.96827 
10.1382 -0.00550744 0.0112937 
-0.00550744 10.1431 0.00511415 
0.0112937 0.00511415 9.99892 
10.1477 -0.00130104 -0.0135166 
-0.00130104 10.1555 -0.0122304 
-0.0135166 -0.0122304 9.97701 
10.1586 -0.00524946 -0.0266146 
-0.00524946 10.178 0.00113838 
-0.0266146 0.00113838 9.94362 
9.6469 0.00101945 -0.324244 
0.00101945 9.62492 0.0959145 
-0.324244 0.0959145 9.6615 
9.66463 -0.00300449 -0.335551 
-0.00300449 9.64209 0.169804 
-0.335551 0.169804 9.62661 
9.62833 0.0184252 -0.325575 
0.0184252 9.63048 0.118435 
-0.325575 0.118435 9.67451 
9.61487 -0.0335454 -0.280674 
-0.0335454 9.63744 0.0640815 
-0.280674 0.0640815 9.68102 
8.73743 -0.117757 0.739815 
-0.117757 9.95536 -0.052516 
0.739815 -0.052516 9.98009 
9.05641 -0.0729207 0.430857 
-0.0729207 9.658 -0.00506975 
0.430857 -0.00506975 9.95847 
9.13227 0.108585 0.696467 
0.108585 9.93911 0.10254 
0.696467 0.10254 9.60151 
9.22546 -0.228893 0.321661 
-0.228893 9.69967 0.137691 
0.321661 0.137691 9.74775 
9.6549 0.0553645 0.389451 
0.0553645 9.558 0.165013 
0.389451 0.165013 9.66959 
9.65255 -0.0794343 0.363889 
-0.0794343 9.6502 0.215577 
0.363889 0.215577 9.57974 
9.73667 0.0866112 0.384194 
0.0866112 9.5208 0.240341 
0.384194 0.240341 9.62502 
9.50796 -0.11106 0.485001 
-0.11106 9.56054 0.337088 
0.485001 0.337088 9.81399 
4.79269 -0.53862 -0.0398851 
-0.53862 5.3324 -0.97327 
-0.0398851 -0.97327 -0.123279 
3.4405 -0.0806369 0.726036 
-0.0806369 4.01658 -0.696498 
0.726036 -0.696498 2.54473 
4.61515 -0.193506 -0.313185 
-0.193506 4.71977 0.0283265 
-0.313185 0.0283265 0.666886 
3.76575 -0.733537 1.71139 
-0.733537 3.79987 -0.611156 
1.71139 -0.611156 2.43619 
11.1008 0.862832 -1.0195 
0.862832 13.4517 0.0534163 
-1.0195 0.0534163 8.63594 
10.8596 -0.303847 -0.0911396 
-0.303847 8.87998 0.519707 
-0.0911396 0.519707 13.4489 
7.78962 -0.184614 -0.261041 
-0.184614 10.4177 0.51881 
-0.261041 0.51881 14.9812 
8.77355 -0.78681 -0.412632 
-0.78681 11.2087 -2.68764 
-0.412632 -2.68764 13.2062 
9.7311 0.0126503 -0.310148 
0.0126503 9.71535 -0.0977018 
-0.310148 -0.0977018 9.68784 
9.74123 0.0180451 -0.318787 
0.0180451 9.70025 -0.0983439 
-0.318787 -0.0983439 9.69281 
9.72368 -0.00283133 -0.317543 
-0.00283133 9.72993 -0.115813 
-0.317543 -0.115813 9.68067 
9.73941 0.0112106 -0.319711 
0.0112106 9.71091 -0.0942239 
-0.319711 -0.0942239 9.68396 
9.04716 -0.263175 -1.10756 
-0.263175 9.54127 0.710012 
-1.10756 0.710012 6.94078 
9.41499 -0.472431 -1.45733 
-0.472431 9.57549 0.580616 
-1.45733 0.580616 6.53872 
8.51178 -0.0836162 -1.38039 
-0.0836162 8.77474 0.979988 
-1.38039 0.979988 8.24268 
9.97316 0.870497 -0.115795 
0.870497 8.28218 -1.11713 
-0.115795 -1.11713 7.27386 
9.81863 0.0236166 -0.0443908 
0.0236166 9.76374 -0.00498475 
-0.0443908 -0.00498475 9.85625 
9.85744 0.0277973 -0.0860146 
0.0277973 9.81477 -0.00968411 
-0.0860146 -0.00968411 9.76641 
9.76484 -0.0374514 -0.123108 
-0.0374514 9.80076 -0.0524832 
-0.123108 -0.0524832 9.87302 
9.84991 0.0288828 -0.0731089 
0.0288828 9.77113 -0.0248678 
-0.0731089 -0.0248678 9.81758 
9.85476 0.0281333 -0.116414 
0.0281333 9.82626 -0.157146 
-0.116414 -0.157146 9.77563 
9.75599 -0.0334094 -0.153453 
-0.0334094 9.80064 -0.148022 
-0.153453 -0.148022 9.90001 
9.82437 0.0126802 -0.0961779 
0.0126802 9.84685 -0.115318 
-0.0961779 -0.115318 9.78543 
9.81622 0.0109925 -0.114556 
0.0109925 9.83052 -0.140289 
-0.114556 -0.140289 9.8099 
10.3625 -1.63884 1.97497 
-1.63884 7.942 2.90262 
1.97497 2.90262 10.9645 
8.06115 -1.13694 1.16789 
-1.13694 11.8878 1.33078 
1.16789 1.33078 9.31995 
8.53298 -1.22082 1.24341 
-1.22082 9.05894 0.348896 
1.24341 0.348896 11.677 
9.64634 -1.21015 -0.208946 
-1.21015 10.6544 1.40415 
-0.208946 1.40415 8.96823 
9.4415 0.00815737 0.261631 
0.00815737 9.451 0.122107 
0.261631 0.122107 9.76851 
9.62275 0.00510559 0.393656 
0.00510559 9.60326 0.220895 
0.393656 0.220895 9.435 
9.43681 0.00304132 0.262595 
0.00304132 9.46876 0.0412745 
0.262595 0.0412745 9.75544 
9.39874 -0.00940076 0.457454 
-0.00940076 9.34802 0.165632 
0.457454 0.165632 9.91424 
9.6555 0.0188952 0.0893922 
0.0188952 9.60462 -0.311411 
0.0893922 -0.311411 9.65284 
9.65559 -0.0108407 0.0711926 
-0.0108407 9.65688 -0.346778 
0.0711926 -0.346778 9.6005 
9.64193 -0.00155211 0.0972111 
-0.00155211 9.61899 -0.332192 
0.0972111 -0.332192 9.65204 
9.643 -0.0195509 0.145806 
-0.0195509 9.60516 -0.361679 
0.145806 -0.361679 9.66481 
10.0644 1.38649 -0.1217 
1.38649 10.6945 -0.422466 
-0.1217 -0.422466 14.8517 
14.3596 0.983789 1.04481 
0.983789 11.5284 -0.563616 
1.04481 -0.563616 9.72247 
9.87956 -0.384423 -1.1224 
-0.384423 10.6839 -0.141146 
-1.1224 -0.141146 15.0471 
9.8627 1.02269 1.67112 
1.02269 11.5791 0.859823 
1.67112 0.859823 14.1687 
9.75057 0.0108394 0.141925 
0.0108394 9.76266 0.29723 
0.141925 0.29723 9.76532 
9.77139 0.00617194 0.115318 
0.00617194 9.77811 0.290679 
0.115318 0.290679 9.72905 
9.76299 0.0223587 0.135648 
0.0223587 9.78543 0.277274 
0.135648 0.277274 9.73013 
9.76211 0.00141124 0.141012 
0.00141124 9.76913 0.28833 
0.141012 0.28833 9.74731 
9.16973 0.383928 -0.258802 
0.383928 10.3417 -0.0912834 
-0.258802 -0.0912834 10.1353 
9.50642 0.13911 -0.242309 
0.13911 9.63543 0.0576314 
-0.242309 0.0576314 10.5049 
10.017 -0.0604037 1.02236 
-0.0604037 9.32594 -0.35345 
1.02236 -0.35345 10.3037 
9.11907 0.369398 0.00776861 
0.369398 10.0265 0.0167399 
0.00776861 0.0167399 10.5012 
9.44043 -0.687355 0.118611 
-0.687355 10.0334 0.00533555 
0.118611 0.00533555 10.0335 
9.28201 -0.279342 -0.0504423 
-0.279342 10.009 -0.148868 
-0.0504423 -0.148868 10.2164 
9.95759 0.354956 0.251934 
0.354956 9.62231 0.517646 
0.251934 0.517646 9.92745 
9.08576 -0.88002 0.281663 
-0.88002 9.82676 0.225868 
0.281663 0.225868 10.5948 
9.72833 -0.0207532 -0.0167886 
-0.0207532 9.6833 0.0197482 
-0.0167886 0.0197482 9.94946 
9.67004 0.0210345 -0.0231565 
0.0210345 9.73926 -0.00449867 
-0.0231565 -0.00449867 9.95179 
9.7333 -0.0209071 0.0085947 
-0.0209071 9.70351 0.0109684 
0.0085947 0.0109684 9.92427 
9.73514 0.00253407 -0.0368218 
0.00253407 9.70458 0.0152566 
-0.0368218 0.0152566 9.92136 
18.0006 2.49978 -8.53853 
2.49978 7.59787 -5.27987 
-8.53853 -5.27987 -5.43597 
19.1981 4.01539 -12.8217 
4.01539 17.9414 -7.84852 
-12.8217 -7.84852 -16.9769 
-1.07607 4.91588 6.04936 
4.91588 3.21281 6.45465 
6.04936 6.45465 18.0258 
-5.11912 -11.5759 -9.01332 
-11.5759 4.86065 -0.548428 
-9.01332 -0.548428 20.421 
9.75053 -0.00190699 0.306438 
-0.00190699 9.73331 0.104786 
0.306438 0.104786 9.70226 
9.75559 0.00803261 0.306349 
0.00803261 9.71912 0.0964104 
0.306349 0.0964104 9.7114 
9.74847 8.37086e-05 0.321468 
8.37086e-05 9.72255 0.0868664 
0.321468 0.0868664 9.71508 
9.75899 0.0108644 0.319438 
0.0108644 9.73332 0.102608 
0.319438 0.102608 9.6938 
9.7412 -0.000359222 -0.0210578 
-0.000359222 9.76741 0.331508 
-0.0210578 0.331508 9.71962 
9.76144 0.00943159 -0.0120676 
0.00943159 9.79355 0.311384 
-0.0120676 0.311384 9.67324 
9.74967 -0.00213657 -0.0164812 
-0.00213657 9.75996 0.339323 
-0.0164812 0.339323 9.7186 
9.69889 0.0125906 -0.0144345 
0.0125906 9.75545 0.295341 
-0.0144345 0.295341 9.77389 
10.1274 -0.00628954 -0.0123289 
-0.00628954 10.1243 -0.0340629 
-0.0123289 -0.0340629 9.94964 
10.0783 -0.0222414 -0.00960597 
-0.0222414 10.0793 0.00354324 
-0.00960597 0.00354324 10.0438 
10.1288 -0.0131213 -0.00538759 
-0.0131213 10.1272 -0.0359527 
-0.00538759 -0.0359527 9.94543 
10.1506 -0.0170823 -0.0136187 
-0.0170823 10.1073 -0.0714791 
-0.0136187 -0.0714791 9.9435 
9.78354 0.0238082 0.34997 
0.0238082 10.5583 -0.0502849 
0.34997 -0.0502849 8.50435 
9.9109 -0.140706 0.258603 
-0.140706 10.5858 -0.302641 
0.258603 -0.302641 8.34953 
9.88596 -0.109321 0.537951 
-0.109321 10.5667 -0.112511 
0.537951 -0.112511 8.39353 
9.74749 -0.208736 0.258888 
-0.208736 10.349 0.0165563 
0.258888 0.0165563 8.74972 
6.18833 0.668533 -0.32635 
0.668533 12.4229 0.763772 
-0.32635 0.763772 12.8724 
10.5018 -0.236418 -0.253098 
-0.236418 10.11 0.386745 
-0.253098 0.386745 10.8719 
9.70583 -0.0976795 1.04837 
-0.0976795 10.086 0.00565627 
1.04837 0.00565627 11.6918 
9.64912 0.69481 0.966801 
0.69481 10.6034 -0.581318 
0.966801 -0.581318 11.2312 
2.77043 1.35792 -1.83806 
1.35792 3.76105 1.13304 
-1.83806 1.13304 3.47273 
4.76131 -0.711754 -0.119148 
-0.711754 4.81572 -0.427439 
-0.119148 -0.427439 0.427168 
4.38498 -1.27344 -0.878676 
-1.27344 4.38518 0.630912 
-0.878676 0.630912 1.23404 
4.87875 -1.18306 -2.21349 
-1.18306 3.90545 0.177728 
-2.21349 0.177728 1.22 
10.7691 -0.301402 -0.305068 
-0.301402 10.6001 -0.0767277 
-0.305068 -0.0767277 12.3264 
12.1492 -0.325983 -0.172145 
-0.325983 12.5525 -0.606626 
-0.172145 -0.606626 8.99382 
10.5185 -0.31896 0.0167881 
-0.31896 10.5593 0.621652 
0.0167881 0.621652 12.6178 
11.1491 -0.122677 1.16613 
-0.122677 10.3273 -0.879441 
1.16613 -0.879441 12.2192 
9.38648 0.126006 0.223016 
0.126006 9.53375 0.251099 
0.223016 0.251099 9.90386 
9.51946 0.189742 0.281517 
0.189742 9.42002 -0.129777 
0.281517 -0.129777 9.88462 
9.71136 0.0243773 0.085052 
0.0243773 9.40138 -0.292279 
0.085052 -0.292279 9.71136 
9.51261 0.0206498 0.516442 
0.0206498 9.32517 0.022622 
0.516442 0.022622 9.98631 
9.7014 0.0415091 0.0780326 
0.0415091 9.70935 -0.0490656 
0.0780326 -0.0490656 9.86656 
9.73212 0.00939534 -0.018493 
0.00939534 9.70971 -0.0602833 
-0.018493 -0.0602833 9.83548 
9.71459 0.0159059 -0.0194097 
0.0159059 9.68746 -0.0632901 
-0.0194097 -0.0632901 9.87526 
9.73689 0.0418591 -0.00286885 
0.0418591 9.69555 -0.088457 
-0.00286885 -0.088457 9.84487 
9.61842 -0.02081 0.346109 
-0.02081 9.58219 0.153724 
0.346109 0.153724 9.64092 
9.64373 0.014586 0.333062 
0.014586 9.59752 0.150236 
0.333062 0.150236 9.60029 
9.64024 -0.0102473 0.341756 
-0.0102473 9.58459 0.159239 
0.341756 0.159239 9.61669 
9.6301 -0.0402112 0.375839 
-0.0402112 9.5929 0.180731 
0.375839 0.180731 9.61853 
9.57006 0.0771953 0.152469 
0.0771953 9.59143 -0.102729 
0.152469 -0.102729 10.0159 
9.72145 0.0697423 0.053858 
0.0697423 9.40108 -0.0873892 
0.053858 -0.0873892 10.0549 
9.6536 0.0625746 0.0819615 
0.0625746 9.51124 -0.137523 
0.0819615 -0.137523 10.0126 
9.77682 0.202854 0.018478 
0.202854 9.44505 -0.0986823 
0.018478 -0.0986823 9.95554 
9.81027 -0.0504611 -0.311031 
-0.0504611 9.71697 -0.0853119 
-0.311031 -0.0853119 9.64669 
9.81201 0.023077 -0.247 
0.023077 9.71229 -0.0891433 
-0.247 -0.0891433 9.64962 
9.79822 0.0561284 -0.265543 
0.0561284 9.69945 -0.071247 
-0.265543 -0.071247 9.67625 
9.75801 0.0173076 -0.226978 
0.0173076 9.67551 -0.0289764 
-0.226978 -0.0289764 9.7404 
9.54899 -0.44925 0.310143 
-0.44925 10.9812 -0.234423 
0.310143 -0.234423 15.1963 
9.0588 1.56652 0.0648892 
1.56652 9.5875 0.0299446 
0.0648892 0.0299446 17.0803 
12.2882 1.02329 -0.225908 
1.02329 10.8071 0.425042 
-0.225908 0.425042 12.6313 
11.023 1.60332 -0.918082 
1.60332 11.8454 -0.580583 
-0.918082 -0.580583 12.8582 
9.8112 -0.0124129 -0.28659 
-0.0124129 9.78085 0.101549 
-0.28659 0.101549 9.71928 
9.78633 -0.0128592 -0.278803 
-0.0128592 9.7806 0.150773 
-0.278803 0.150773 9.74439 
9.75787 -0.0143219 -0.294202 
-0.0143219 9.7475 0.149915 
-0.294202 0.149915 9.80596 
9.77849 -0.00591478 -0.275183 
-0.00591478 9.77781 0.146507 
-0.275183 0.146507 9.75502 
9.83298 -0.0226445 -0.0231123 
-0.0226445 9.81237 0.0477826 
-0.0231123 0.0477826 9.8923 
9.8181 -0.00487094 -0.0319206 
-0.00487094 9.83105 0.0467112 
-0.0319206 0.0467112 9.8885 
9.78971 0.00803243 -0.0289415 
0.00803243 9.85337 0.0590716 
-0.0289415 0.0590716 9.89457 
9.82253 -0.00658289 -0.0785122 
-0.00658289 9.81682 0.102514 
-0.0785122 0.102514 9.8983 
9.84822 -0.013012 0.178379 
-0.013012 9.8527 0.0913083 
0.178379 0.0913083 9.8594 
9.85614 -0.0138587 0.167839 
-0.0138587 9.8501 0.0966485 
0.167839 0.0966485 9.85409 
9.88118 -0.00854609 0.184466 
-0.00854609 9.84658 0.0991677 
0.184466 0.0991677 9.83256 
9.8526 0.00411352 0.151047 
0.00411352 9.85129 0.104346 
0.151047 0.104346 9.85643 
9.40952 0.0648326 -0.079686 
0.0648326 9.60813 -0.0590827 
-0.079686 -0.0590827 9.76568 
9.47571 0.0901961 0.10727 
0.0901961 9.61741 0.110179 
0.10727 0.110179 9.69022 
9.38354 0.117113 0.0888269 
0.117113 9.64385 0.154114 
0.0888269 0.154114 9.75595 
9.47125 0.0787435 0.135612 
0.0787435 9.70861 0.0914326 
0.135612 0.0914326 9.60347 
10.0848 0.00890986 -0.00299557 
0.00890986 10.1159 -0.0141432 
-0.00299557 -0.0141432 10.0267 
10.1393 0.00412942 -0.0282188 
0.00412942 10.1481 0.0160931 
-0.0282188 0.0160931 9.94003 
10.1183 0.00750482 -0.022237 
0.00750482 10.1331 0.0227921 
-0.022237 0.0227921 9.97598 
10.1367 0.0258322 -0.0543861 
0.0258322 10.1412 0.0294457 
-0.0543861 0.0294457 9.94954 
9.52667 -0.0127345 -0.00575631 
-0.0127345 9.58083 -0.0112007 
-0.00575631 -0.0112007 9.84268 
9.48746 -0.0518491 -0.0346472 
-0.0518491 9.56488 -0.00759776 
-0.0346472 -0.00759776 9.89784 
9.49231 -0.0170748 -0.0354705 
-0.0170748 9.54193 -0.0242094 
-0.0354705 -0.0242094 9.91594 
9.61837 0.0421399 -0.182357 
0.0421399 9.48127 -0.0371492 
-0.182357 -0.0371492 9.85054 
9.83925 0.130844 -1.22265 
0.130844 9.69004 -0.677936 
-1.22265 -0.677936 8.16441 
9.33349 -0.304537 -0.618487 
-0.304537 9.66028 0.126409 
-0.618487 0.126409 8.69993 
8.99757 -0.347306 -0.683204 
-0.347306 9.77284 -0.109216 
-0.683204 -0.109216 8.92329 
9.52259 0.158399 -0.0976399 
0.158399 9.19909 -0.044357 
-0.0976399 -0.044357 8.97202 
5.30687 -0.119967 -2.80492 
-0.119967 4.36513 -0.536233 
-2.80492 -0.536233 -1.7807 
3.28349 0.220427 -0.262714 
0.220427 3.10128 -0.415166 
-0.262714 -0.415166 1.50653 
3.04038 0.16616 -0.0190789 
0.16616 2.27962 -0.342746 
-0.0190789 -0.342746 2.5713 
6.11413 1.01734 0.799827 
1.01734 2.13021 0.758368 
0.799827 0.758368 -0.353035 
9.46407 0.229622 -0.244614 
0.229622 9.30556 -0.0966267 
-0.244614 -0.0966267 10.7077 
9.34222 0.645501 -0.598298 
0.645501 9.45822 0.184222 
-0.598298 0.184222 10.6769 
10.1713 0.164482 -0.193198 
0.164482 9.25124 -0.0138175 
-0.193198 -0.0138175 10.0548 
9.60277 0.09427 -0.175188 
0.09427 9.63048 -0.528321 
-0.175188 -0.528321 10.2441 
9.61549 0.00593866 0.115039 
0.00593866 9.68235 0.312167 
0.115039 0.312167 9.63594 
9.6451 -0.0152267 0.109417 
-0.0152267 9.64099 0.320352 
0.109417 0.320352 9.64768 
9.64057 -0.0148627 0.116881 
-0.0148627 9.62498 0.334807 
0.116881 0.334807 9.66822 
9.62501 -0.00194096 0.110781 
-0.00194096 9.63744 0.30842 
0.110781 0.30842 9.67133 
9.7171 0.0637122 -0.0629028 
0.0637122 9.89221 -0.153488 
-0.0629028 -0.153488 9.68166 
9.7672 0.00803616 -0.0669756 
0.00803616 9.84402 -0.25341 
-0.0669756 -0.25341 9.67975 
9.77203 -0.0456463 -0.057799 
-0.0456463 9.80968 -0.248321 
-0.057799 -0.248321 9.70926 
9.71473 0.00376365 -0.032773 
0.00376365 9.82061 -0.263101 
-0.032773 -0.263101 9.75564 
9.89658 0.0109205 0.0707709 
0.0109205 9.91294 0.12246 
0.0707709 0.12246 9.8399 
9.87481 0.0076597 0.106914 
0.0076597 9.90897 0.122335 
0.106914 0.122335 9.86565 
9.94659 -0.00508977 0.13601 
-0.00508977 9.86558 0.141848 
0.13601 0.141848 9.83726 
9.85345 -0.0120657 0.108798 
-0.0120657 9.89867 0.10632 
0.108798 0.10632 9.8973 
9.48041 -0.0422262 -0.200399 
-0.0422262 9.93295 -0.0890149 
-0.200399 -0.0890149 10.3462 
9.6633 -0.00629342 -0.115201 
-0.00629342 9.82829 0.013803 
-0.115201 0.013803 10.2679 
9.7416 0.20948 -0.15021 
0.20948 9.74246 -0.0397704 
-0.15021 -0.0397704 10.2754 
9.77036 0.0187878 -0.0676038 
0.0187878 9.69766 -0.0395559 
-0.0676038 -0.0395559 10.2915 
9.76091 0.955209 1.36359 
0.955209 10.953 0.112091 
1.36359 0.112091 12.1508 
9.24567 0.401808 0.329051 
0.401808 11.0253 -0.824297 
0.329051 -0.824297 12.5938 
11.1407 1.38561 1.13584 
1.38561 10.7093 0.415635 
1.13584 0.415635 11.0147 
9.88759 0.195753 1.31465 
0.195753 10.6038 -0.861982 
1.31465 -0.861982 12.3733 
2.6989 -2.85006 -3.99327 
-2.85006 2.78954 -0.135211 
-3.99327 -0.135211 7.85104 
4.21128 3.70366 0.459732 
3.70366 11.2844 0.50998 
0.459732 0.50998 -2.15621 
10.8874 -0.145761 1.71409 
-0.145761 10.0029 0.513874 
1.71409 0.513874 -7.5508 
9.65434 1.66228 -1.0855 
1.66228 3.73391 -5.19793 
-1.0855 -5.19793 -0.0487579 
10.0992 0.0543291 -0.0327561 
0.0543291 9.99836 -0.0314857 
-0.0327561 -0.0314857 10.0503 
10.0551 -0.0438408 0.00940299 
-0.0438408 10.1179 -0.0358395 
0.00940299 -0.0358395 9.9748 
10.07 -0.00871852 0.0245953 
-0.00871852 10.0886 -0.0483829 
0.0245953 -0.0483829 9.98923 
10.0998 0.0503776 0.0930382 
0.0503776 10.09 -0.0460896 
0.0930382 -0.0460896 9.95803 
9.75684 -0.0167856 0.0935738 
-0.0167856 9.83134 0.224157 
0.0935738 0.224157 9.80006 
9.75009 -0.0313802 0.00679311 
-0.0313802 9.81016 0.150936 
0.00679311 0.150936 9.828 
9.82591 -0.0021757 0.113583 
-0.0021757 9.79546 0.193494 
0.113583 0.193494 9.76686 
9.81344 0.020783 0.148191 
0.020783 9.8737 0.14336 
0.148191 0.14336 9.7011 
9.5147 0.0839211 0.22324 
0.0839211 9.55783 0.320419 
0.22324 0.320419 9.39599 
9.50606 -0.10018 0.121133 
-0.10018 9.38759 0.221718 
0.121133 0.221718 9.57487 
9.4865 -0.00716183 0.198412 
-0.00716183 9.45357 0.271441 
0.198412 0.271441 9.52845 
9.42436 -0.0454433 0.183917 
-0.0454433 9.39917 0.323895 
0.183917 0.323895 9.645 
9.56516 0.0117931 -0.111653 
0.0117931 9.62131 0.279879 
-0.111653 0.279879 9.55283 
9.60384 -0.00345446 -0.052818 
-0.00345446 9.55567 0.363728 
-0.052818 0.363728 9.5798 
9.62728 0.00997591 -0.0183662 
0.00997591 9.55035 0.304647 
-0.0183662 0.304647 9.56167 
9.57118 -0.0158141 -0.0180012 
-0.0158141 9.56368 0.417543 
-0.0180012 0.417543 9.60444 
9.77472 0.00235421 0.0751669 
0.00235421 9.62542 0.0248787 
0.0751669 0.0248787 9.93241 
9.70702 -0.0113162 -0.0302896 
-0.0113162 9.69742 0.00842552 
-0.0302896 0.00842552 9.92812 
9.65281 0.00143878 -0.037715 
0.00143878 9.74653 0.00749639 
-0.037715 0.00749639 9.93321 
9.74535 -0.0322899 -0.081209 
-0.0322899 9.73242 0.00828968 
-0.081209 0.00828968 9.85479 
9.52506 0.0524601 0.221773 
0.0524601 9.54275 -0.128638 
0.221773 -0.128638 9.71493 
9.54965 0.0165686 0.274031 
0.0165686 9.53761 -0.108634 
0.274031 -0.108634 9.69548 
9.60287 -0.042782 0.244883 
-0.042782 9.5579 -0.0615948 
0.244883 -0.0615948 9.62198 
9.52866 -0.026225 0.281052 
-0.026225 9.5788 -0.105195 
0.281052 -0.105195 9.67528 
9.91839 -0.0847823 0.0230961 
-0.0847823 10.0583 0.0808575 
0.0230961 0.0808575 10.0481 
10.0155 -0.0300179 0.0504831 
-0.0300179 10.0575 0.101554 
0.0504831 0.101554 9.95174 
10.0762 0.0306423 0.0405253 
0.0306423 9.9858 0.0550857 
0.0405253 0.0550857 9.96277 
10.0384 0.0212026 0.0822341 
0.0212026 10.0241 0.066898 
0.0822341 0.066898 9.96222 
9.68389 0.00921144 -0.092325 
0.00921144 9.6957 -0.304696 
-0.092325 -0.304696 9.68127 
9.68587 0.00911259 -0.0991317 
0.00911259 9.7094 -0.324996 
-0.0991317 -0.324996 9.66558 
9.68361 0.00919617 -0.110429 
0.00919617 9.70578 -0.31758 
-0.110429 -0.31758 9.67148 
9.69208 0.00054265 -0.108353 
0.00054265 9.71134 -0.331553 
-0.108353 -0.331553 9.65743 
9.70932 0.00906254 -0.0469984 
0.00906254 9.69956 -0.0240192 
-0.0469984 -0.0240192 9.89259 
9.69072 0.00419532 -0.0147769 
0.00419532 9.68697 -0.010216 
-0.0147769 -0.010216 9.92379 
9.66158 -0.0155322 -0.0316926 
-0.0155322 9.66721 -0.0120542 
-0.0316926 -0.0120542 9.97267 
9.74606 0.0582426 0.0579813 
0.0582426 9.64648 0.0443946 
0.0579813 0.0443946 9.90893 
9.75164 -0.000631795 -0.0722322 
-0.000631795 9.74226 0.31344 
-0.0722322 0.31344 9.75459 
9.71446 -0.0209432 -0.095657 
-0.0209432 9.79342 0.299243 
-0.095657 0.299243 9.74061 
9.7647 0.0114255 -0.0852432 
0.0114255 9.74544 0.308025 
-0.0852432 0.308025 9.73835 
9.74545 0.00940609 -0.0876915 
0.00940609 9.76532 0.326037 
-0.0876915 0.326037 9.73772 
9.61332 -0.0469311 -0.244603 
-0.0469311 9.65864 0.216288 
-0.244603 0.216288 9.63998 
9.6338 0.0340657 -0.296142 
0.0340657 9.611 0.200903 
-0.296142 0.200903 9.66714 
9.57348 0.06861 -0.353584 
0.06861 9.70663 0.085723 
-0.353584 0.085723 9.63183 
9.68111 0.0262718 -0.336498 
0.0262718 9.63351 0.154802 
-0.336498 0.154802 9.59732 
9.76232 -0.014759 -0.14598 
-0.014759 9.78902 -0.30008 
-0.14598 -0.30008 9.78159 
9.79277 0.0379499 -0.159693 
0.0379499 9.81475 -0.291259 
-0.159693 -0.291259 9.72541 
9.77472 -0.000258065 -0.16717 
-0.000258065 9.78987 -0.269826 
-0.16717 -0.269826 9.76834 
9.78918 0.000687262 -0.164301 
0.000687262 9.78664 -0.293812 
-0.164301 -0.293812 9.7571 
10.1346 -0.00302584 0.0219792 
-0.00302584 10.1242 0.00575062 
0.0219792 0.00575062 9.95292 
10.1175 -0.00110528 0.00505862 
-0.00110528 10.1147 -0.0212789 
0.00505862 -0.0212789 9.97955 
10.1159 0.00106298 -0.00383376 
0.00106298 10.1059 0.0141225 
-0.00383376 0.0141225 9.98984 
10.1546 0.000318118 0.022696 
0.000318118 10.138 0.0122631 
0.022696 0.0122631 9.91907 
15.1086 -0.797769 -0.408437 
-0.797769 11.3053 -0.730322 
-0.408437 -0.730322 15.8393 
14.5873 -0.232449 -0.418676 
-0.232449 11.2103 -0.650039 
-0.418676 -0.650039 16.4555 
13.1174 -1.19627 -1.18543 
-1.19627 10.671 -0.767247 
-1.18543 -0.767247 18.4648 
14.1688 -1.0682 -0.14807 
-1.0682 11.6629 -2.96733 
-0.14807 -2.96733 16.4214 
9.56914 -0.0776653 0.358486 
-0.0776653 9.56145 -0.822046 
0.358486 -0.822046 10.1884 
9.60603 0.598347 0.166509 
0.598347 9.08743 -0.428395 
0.166509 -0.428395 10.6256 
9.79071 0.150226 0.307746 
0.150226 9.35466 -0.105067 
0.307746 -0.105067 10.1737 
9.43094 -0.0599868 -0.0533979 
-0.0599868 9.71767 0.165431 
-0.0533979 0.165431 10.1704 
10.0918 -0.0643958 0.732727 
-0.0643958 9.96042 -1.09293 
0.732727 -1.09293 8.87384 
10.3564 0.0138499 0.181428 
0.0138499 10.7738 -1.0723 
0.181428 -1.0723 7.79588 
10.1796 0.0951375 0.367134 
0.0951375 9.87683 -1.41222 
0.367134 -1.41222 8.86967 
8.85405 -0.207125 -0.19137 
-0.207125 9.95562 0.782177 
-0.19137 0.782177 10.1164 
9.37982 -0.0597757 1.05615 
-0.0597757 9.69983 -0.0409078 
1.05615 -0.0409078 10.5568 
9.83148 -1.04989 0.0523241 
-1.04989 9.7993 0.162152 
0.0523241 0.162152 10.0057 
10.051 0.205555 -1.94644 
0.205555 10.3564 -0.282821 
-1.94644 -0.282821 9.22901 
9.87789 -0.952357 0.708809 
-0.952357 9.36909 -2.36147 
0.708809 -2.36147 10.3895 
10.0703 0.00829977 0.0123984 
0.00829977 10.1221 0.0138425 
0.0123984 0.0138425 9.98883 
10.116 0.0219526 0.020464 
0.0219526 10.1298 -0.0246681 
0.020464 -0.0246681 9.9354 
10.067 -0.0324923 0.0159438 
-0.0324923 10.113 -0.0182664 
0.0159438 -0.0182664 10.0012 
10.1231 0.0229542 0.0474823 
0.0229542 10.1148 -0.00784386 
0.0474823 -0.00784386 9.9433 
10.1211 -0.0189386 0.016752 
-0.0189386 10.1435 -0.00788046 
0.016752 -0.00788046 10.0003 
10.1402 0.0129371 -0.0273423 
0.0129371 10.1085 -0.00738732 
-0.0273423 -0.00738732 10.0161 
10.1148 0.00588243 0.0200159 
0.00588243 10.1521 -0.0355573 
0.0200159 -0.0355573 9.99804 
10.1343 0.00610054 -0.01485 
0.00610054 10.1408 -0.0142074 
-0.01485 -0.0142074 9.98983 
9.90862 0.115703 -0.133361 
0.115703 9.70837 0.286292 
-0.133361 0.286292 9.69178 
9.74957 0.339012 0.133396 
0.339012 9.68276 -0.079476 
0.133396 -0.079476 9.87644 
9.81029 0.0869782 0.0203181 
0.0869782 9.71183 0.297823 
0.0203181 0.297823 9.78665 
9.60761 0.18011 -0.139585 
0.18011 9.6845 0.129893 
-0.139585 0.129893 10.0167 
10.1736 9.17909e-05 -0.0214657 
9.17909e-05 10.2021 -0.00518743 
-0.0214657 -0.00518743 9.9802 
10.168 0.00433398 -0.0044177 
0.00433398 10.1886 0.00479868 
-0.0044177 0.00479868 9.99928 
10.1836 0.0103879 -0.0225042 
0.0103879 10.1874 -0.0085218 
-0.0225042 -0.0085218 9.98491 
10.1762 -0.00261499 -0.0261445 
-0.00261499 10.1991 -0.000561023 
-0.0261445 -0.000561023 9.98055 
9.7591 0.143629 -0.0859094 
0.143629 9.1181 0.191744 
-0.0859094 0.191744 10.0311 
9.55345 0.0817872 -0.116415 
0.0817872 9.56898 0.257219 
-0.116415 0.257219 9.7859 
9.32527 -0.0534651 -0.0870959 
-0.0534651 9.96658 0.0713332 
-0.0870959 0.0713332 9.61647 
9.52381 0.122513 -0.194343 
0.122513 9.6296 0.423273 
-0.194343 0.423273 9.75492 
9.43417 0.674309 -0.913679 
0.674309 10.0931 0.654363 
-0.913679 0.654363 8.47318 
9.38393 -0.0398615 -2.98356 
-0.0398615 10.5127 -0.488711 
-2.98356 -0.488711 8.1039 
9.94088 0.113883 -0.83956 
0.113883 10.0672 0.451032 
-0.83956 0.451032 7.99244 
9.59579 -0.0518489 -0.611423 
-0.0518489 8.8782 -0.529431 
-0.611423 -0.529431 9.52649 
9.53224 -0.547144 -1.15369 
-0.547144 10.1136 -0.074824 
-1.15369 -0.074824 8.60574 
8.22193 -0.140324 -1.08458 
-0.140324 9.35957 0.0159451 
-1.08458 0.0159451 10.67 
8.40211 -0.109349 -2.39615 
-0.109349 10.0925 -0.131095 
-2.39615 -0.131095 9.75692 
8.64635 -0.616738 -1.4228 
-0.616738 10.2984 -0.292776 
-1.4228 -0.292776 9.30682 
10.5613 1.65197 -0.346337 
1.65197 8.81821 -0.210752 
-0.346337 -0.210752 14.6138 
10.3747 -0.192435 -0.184285 
-0.192435 9.87162 -0.663977 
-0.184285 -0.663977 13.7469 
10.3797 1.1046 -0.27265 
1.1046 12.8803 0.475885 
-0.27265 0.475885 10.7332 
11.0741 1.0211 0.299105 
1.0211 10.0733 0.86491 
0.299105 0.86491 12.8458 
9.72119 0.102013 -0.0474428 
0.102013 9.70023 0.1067 
-0.0474428 0.1067 10.1984 
9.55508 0.119348 -0.0422446 
0.119348 9.74073 0.0416001 
-0.0422446 0.0416001 10.324 
9.78415 0.0529706 -0.135285 
0.0529706 9.74567 0.100436 
-0.135285 0.100436 10.09 
9.68515 0.088197 0.00169632 
0.088197 9.78408 0.00462263 
0.00169632 0.00462263 10.1506 
9.78294 0.0223211 -0.245288 
0.0223211 9.71705 0.0448998 
-0.245288 0.0448998 9.75964 
9.74354 -0.0152318 -0.263768 
-0.0152318 9.70852 0.0933012 
-0.263768 0.0933012 9.80757 
9.77901 0.0145922 -0.218887 
0.0145922 9.71875 0.0569319 
-0.218887 0.0569319 9.76186 
9.79936 -0.00942908 -0.260054 
-0.00942908 9.74509 0.025634 
-0.260054 0.025634 9.71518 
9.86107 -0.00530971 -0.00420711 
-0.00530971 9.86716 -0.00415572 
-0.00420711 -0.00415572 9.99283 
9.88454 0.00733395 0.00859014 
0.00733395 9.85947 -0.0123798 
0.00859014 -0.0123798 9.97704 
9.88808 0.00716598 0.00270249 
0.00716598 9.85706 -0.0175154 
0.00270249 -0.0175154 9.97592 
9.87558 -0.00132546 0.00889129 
-0.00132546 9.87489 -0.0243018 
0.00889129 -0.0243018 9.97058 
9.29023 0.186479 0.421556 
0.186479 9.21937 -0.835605 
0.421556 -0.835605 9.64885 
10.0564 0.486216 0.323893 
0.486216 9.61549 -0.194668 
0.323893 -0.194668 8.4866 
9.02641 -0.541456 1.84119 
-0.541456 11.0097 -1.39033 
1.84119 -1.39033 8.12231 
10.4915 0.526045 0.487249 
0.526045 8.7087 -0.832387 
0.487249 -0.832387 8.95828 
7.50482 -0.19326 1.83099 
-0.19326 8.89531 0.285375 
1.83099 0.285375 -4.7966 
7.77163 0.186971 0.659301 
0.186971 7.27819 2.36343 
0.659301 2.36343 -3.4463 
0.110757 -0.227134 -0.187945 
-0.227134 -0.511435 -3.32858 
-0.187945 -3.32858 12.0042 
7.05469 2.17045 -6.8617 
2.17045 8.96238 -2.3346 
-6.8617 -2.3346 -4.41354 
10.0337 0.165655 0.0396916 
0.165655 9.6436 -0.0758537 
0.0396916 -0.0758537 10.0744 
9.9076 0.0235982 0.0127059 
0.0235982 9.85942 -0.257279 
0.0127059 -0.257279 9.98465 
9.83688 -0.161197 0.0553482 
-0.161197 10.0644 -0.106203 
0.0553482 -0.106203 9.85042 
10.0085 -0.0127249 -0.00176238 
-0.0127249 9.80662 -0.284023 
-0.00176238 -0.284023 9.93657 
10.0695 -0.0321005 -0.0303461 
-0.0321005 10.0064 -0.0116214 
-0.0303461 -0.0116214 9.94913 
10.0154 -0.0489248 0.000645178 
-0.0489248 9.96602 -0.0429535 
0.000645178 -0.0429535 10.0436 
10.0709 -0.0191742 -0.0190534 
-0.0191742 10.0243 -0.0160535 
-0.0190534 -0.0160535 9.92971 
10.0727 -0.0274111 -0.0397691 
-0.0274111 10.0541 -0.0017016 
-0.0397691 -0.0017016 9.89818 
9.50299 0.0704963 0.439845 
0.0704963 9.39353 -0.310692 
0.439845 -0.310692 9.33739 
9.45063 0.051101 0.360238 
0.051101 9.4096 -0.192826 
0.360238 -0.192826 9.37369 
9.56818 -0.0549902 0.176493 
-0.0549902 9.34178 -0.177357 
0.176493 -0.177357 9.32395 
9.42601 0.0446766 0.397157 
0.0446766 9.38525 -0.191883 
0.397157 -0.191883 9.42265 
9.14748 -0.442325 0.30614 
-0.442325 11.0271 0.995661 
0.30614 0.995661 11.9914 
9.19725 1.053 -0.697734 
1.053 10.3512 -0.212865 
-0.697734 -0.212865 12.6175 
9.31462 0.332419 -1.70589 
0.332419 9.55344 0.636609 
-1.70589 0.636609 13.2979 
9.97349 1.68786 -1.26029 
1.68786 10.6078 0.0717606 
-1.26029 0.0717606 11.5847 
9.81711 0.120206 -0.016328 
0.120206 9.59523 -0.0789797 
-0.016328 -0.0789797 9.54953 
9.85899 0.0585985 -0.063012 
0.0585985 9.63751 -0.00669637 
-0.063012 -0.00669637 9.46537 
9.67551 0.0756305 -0.0196259 
0.0756305 9.54505 -0.0643539 
-0.0196259 -0.0643539 9.74131 
9.77591 -0.00378234 0.239734 
-0.00378234 9.73176 -0.0447014 
0.239734 -0.0447014 9.4542 
9.25198 -0.0890502 0.132427 
-0.0890502 9.92643 -0.0273001 
0.132427 -0.0273001 9.90196 
9.1807 0.174977 0.305531 
0.174977 10.1228 -0.401692 
0.305531 -0.401692 9.77689 
9.82817 0.210823 0.545308 
0.210823 9.52794 0.0891114 
0.545308 0.0891114 9.72426 
9.17202 -0.263887 0.331377 
-0.263887 9.81251 -0.0170635 
0.331377 -0.0170635 10.0958 
4.56204 1.15935 -0.0326017 
1.15935 2.58752 1.38804 
-0.0326017 1.38804 2.93217 
4.63615 -1.03217 -0.205501 
-1.03217 4.24396 0.738064 
-0.205501 0.738064 1.20162 
4.75118 -0.497553 1.09635 
-0.497553 4.81454 0.0708724 
1.09635 0.0708724 0.516015 
3.89338 -1.01853 0.220382 
-1.01853 4.06616 2.18773 
0.220382 2.18773 2.12219 
10.3418 -1.00838 -0.571065 
-1.00838 8.45536 0.597914 
-0.571065 0.597914 12.6714 
10.4196 -1.17458 1.78293 
-1.17458 9.00173 0.874213 
1.78293 0.874213 12.0472 
10.7088 0.0884464 2.53701 
0.0884464 9.89937 0.135363 
2.53701 0.135363 10.8604 
9.81694 -0.819645 -0.207027 
-0.819645 9.9835 1.16072 
-0.207027 1.16072 11.6681 
4.2148 -0.926459 -0.166953 
-0.926459 4.95579 0.733579 
-0.166953 0.733579 -1.36532 
1.37438 -0.105998 1.41044 
-0.105998 0.681902 -2.1846 
1.41044 -2.1846 5.74899 
5.63632 -0.189063 1.08038 
-0.189063 3.31244 0.256827 
1.08038 0.256827 -1.14349 
4.56916 -1.06106 1.63186 
-1.06106 4.23227 -1.99542 
1.63186 -1.99542 -0.996148 
10.0004 0.0152266 0.0341602 
0.0152266 10.0228 0.0330946 
0.0341602 0.0330946 9.99462 
10.0172 -0.00574385 0.0477324 
-0.00574385 10.0031 0.0553978 
0.0477324 0.0553978 9.99757 
9.99668 -0.0155667 0.0452644 
-0.0155667 10.0331 0.0602832 
0.0452644 0.0602832 9.98811 
10.0342 -0.0146253 0.0784264 
-0.0146253 10.0856 0.101562 
0.0784264 0.101562 9.89806 
10.0284 -0.189134 -0.163858 
-0.189134 9.66272 -0.0428845 
-0.163858 -0.0428845 10.8172 
9.81717 -0.0551805 0.106152 
-0.0551805 9.62563 -0.0732978 
0.106152 -0.0732978 11.0655 
10.0465 0.0514939 -0.000223503 
0.0514939 9.7282 0.105502 
-0.000223503 0.105502 10.7336 
9.79582 -0.121608 -0.0159308 
-0.121608 9.63486 0.13027 
-0.0159308 0.13027 11.0776 
9.32227 0.120244 -0.0816263 
0.120244 9.53794 0.0980109 
-0.0816263 0.0980109 9.39637 
9.40834 -0.0731595 0.110164 
-0.0731595 9.55916 0.152027 
0.110164 0.152027 9.28908 
9.40081 -0.0865662 0.059665 
-0.0865662 9.52802 0.0637411 
0.059665 0.0637411 9.32775 
9.36008 -0.104429 0.0451688 
-0.104429 9.54734 0.1022 
0.0451688 0.1022 9.34917 
9.43888 -0.00773727 0.309232 
-0.00773727 9.43992 0.180643 
0.309232 0.180643 9.72666 
9.53022 -0.00618387 0.40657 
-0.00618387 9.46418 0.146658 
0.40657 0.146658 9.61105 
9.42619 -0.0266841 0.448939 
-0.0266841 9.38143 0.135348 
0.448939 0.135348 9.79784 
9.43456 -0.0225895 0.283574 
-0.0225895 9.4187 0.281901 
0.283574 0.281901 9.75219 
10.1762 0.586535 0.379828 
0.586535 9.86073 -0.164924 
0.379828 -0.164924 11.944 
11.2006 0.875455 0.296901 
0.875455 9.39538 -0.2324 
0.296901 -0.2324 11.3849 
10.0766 -0.157466 0.120243 
-0.157466 11.3306 -0.925329 
0.120243 -0.925329 10.5737 
10.7076 0.818896 0.172119 
0.818896 9.70869 -0.660512 
0.172119 -0.660512 11.5646 
9.52204 -0.217035 -0.111588 
-0.217035 9.51011 -0.198231 
-0.111588 -0.198231 9.84304 
9.631 -0.293735 0.0704197 
-0.293735 9.39479 -0.232488 
0.0704197 -0.232488 9.8494 
9.53489 -0.24338 -0.38511 
-0.24338 9.68858 -0.217392 
-0.38511 -0.217392 9.65171 
9.48011 -0.109683 -0.112359 
-0.109683 9.67153 -0.247963 
-0.112359 -0.247963 9.72355 
9.80915 -0.215526 -0.255015 
-0.215526 9.37581 -0.112607 
-0.255015 -0.112607 10.3745 
8.90375 -0.174346 0.00580576 
-0.174346 9.74491 -0.345935 
0.00580576 -0.345935 10.9108 
9.78711 -0.0045015 0.239737 
-0.0045015 9.33481 -0.115542 
0.239737 -0.115542 10.4376 
9.53115 -0.207152 0.225953 
-0.207152 9.70588 -0.227842 
0.225953 -0.227842 10.3225 
1.62951 -0.898339 1.21872 
-0.898339 5.1541 0.946262 
1.21872 0.946262 2.96897 
5.04584 0.00251515 -0.474629 
0.00251515 3.78756 0.767809 
-0.474629 0.767809 0.919181 
4.79939 -0.260829 0.75993 
-0.260829 3.15662 0.447063 
0.75993 0.447063 1.79658 
4.86939 -0.0825006 1.34433 
-0.0825006 2.74754 1.28499 
1.34433 1.28499 2.13566 
9.30558 -0.0487885 0.2172 
-0.0487885 9.71594 -0.211663 
0.2172 -0.211663 9.47916 
9.48583 -0.05323 0.220696 
-0.05323 9.44279 -0.334723 
0.220696 -0.334723 9.57206 
9.38928 -0.118801 0.240046 
-0.118801 9.59547 -0.209317 
0.240046 -0.209317 9.51593 
9.23867 -0.293517 0.208704 
-0.293517 9.60352 -0.180327 
0.208704 -0.180327 9.65849 
9.82555 -0.165084 -0.0203135 
-0.165084 9.14894 -0.131577 
-0.0203135 -0.131577 10.8658 
9.87816 -0.090181 -0.0368541 
-0.090181 9.3339 0.110682 
-0.0368541 0.110682 10.6282 
9.93365 -0.101055 -0.0330491 
-0.101055 9.18053 0.00890366 
-0.0330491 0.00890366 10.7261 
9.91833 -0.184825 -0.0147353 
-0.184825 9.21563 -0.0350241 
-0.0147353 -0.0350241 10.7063 
9.8705 0.00879211 -0.029911 
0.00879211 9.89635 0.00311273 
-0.029911 0.00311273 9.97124 
9.87245 0.00134629 -0.0137235 
0.00134629 9.88804 -0.00350524 
-0.0137235 -0.00350524 9.9776 
9.87791 0.00965852 -0.0150999 
0.00965852 9.88929 0.00451027 
-0.0150999 0.00451027 9.9709 
9.89667 -0.0161984 -0.0334726 
-0.0161984 9.88752 0.00127329 
-0.0334726 0.00127329 9.95391 
9.33944 0.11643 -0.0833903 
0.11643 9.50443 0.335153 
-0.0833903 0.335153 9.97462 
9.39048 0.120554 -0.0148277 
0.120554 9.55332 0.281179 
-0.0148277 0.281179 9.87469 
9.40338 0.198843 -0.103754 
0.198843 9.50926 0.383538 
-0.103754 0.383538 9.90585 
9.55133 0.138626 0.112377 
0.138626 9.42854 0.377932 
0.112377 0.377932 9.83862 
9.36577 0.100643 -0.172191 
0.100643 9.6773 0.0583825 
-0.172191 0.0583825 9.36053 
8.83469 0.213846 -0.025599 
0.213846 9.94951 0.0423722 
-0.025599 0.0423722 9.6194 
9.41455 0.349518 -0.275849 
0.349518 9.80847 -0.0563514 
-0.275849 -0.0563514 9.18058 
9.18008 0.217913 -0.077857 
0.217913 9.70943 -0.245163 
-0.077857 -0.245163 9.51409 
9.63046 -0.0544065 0.0586009 
-0.0544065 9.56272 -0.206304 
0.0586009 -0.206304 9.57797 
9.4495 -0.102473 -0.0673083 
-0.102473 9.60868 0.0475095 
-0.0673083 0.0475095 9.71297 
9.49084 -0.164485 -0.168528 
-0.164485 9.52479 -0.011967 
-0.168528 -0.011967 9.75551 
9.43544 -0.220289 0.040388 
-0.220289 9.67885 0.0858546 
0.040388 0.0858546 9.65685 
10.3164 1.08092 1.92138 
1.08092 6.37502 -1.79939 
1.92138 -1.79939 2.67387 
8.00838 0.888306 1.86161 
0.888306 6.7348 -1.66473 
1.86161 -1.66473 4.62207 
9.13966 0.33656 2.15417 
0.33656 7.37276 0.179258 
2.15417 0.179258 2.85283 
8.42421 2.00284 2.01375 
2.00284 7.16121 2.0122 
2.01375 2.0122 3.77983 
9.33377 0.574148 1.23662 
0.574148 7.43334 -2.86352 
1.23662 -2.86352 11.2959 
8.94439 0.137241 0.736883 
0.137241 10.1608 -2.7979 
0.736883 -2.7979 8.95788 
11.1023 1.79896 1.47381 
1.79896 6.56839 -3.32563 
1.47381 -3.32563 10.3924 
11.7483 1.21925 -0.0516449 
1.21925 5.44734 -0.156977 
-0.0516449 -0.156977 10.8674 
9.75905 -0.00226338 0.00827064 
-0.00226338 9.74203 0.32118 
0.00827064 0.32118 9.7793 
9.78577 -0.00585187 -7.55778e-05 
-0.00585187 9.74841 0.315626 
-7.55778e-05 0.315626 9.74619 
9.75019 0.0117772 0.0212311 
0.0117772 9.78153 0.318384 
0.0212311 0.318384 9.74865 
9.74176 -0.0023048 0.0104447 
-0.0023048 9.78073 0.314883 
0.0104447 0.314883 9.75788 
9.77232 0.01151 -0.0348467 
0.01151 9.21841 0.0800246 
-0.0348467 0.0800246 10.274 
9.46775 0.00462452 0.176495 
0.00462452 9.34384 -0.405998 
0.176495 -0.405998 10.4531 
9.63617 0.0654464 -0.128051 
0.0654464 9.52228 -0.181305 
-0.128051 -0.181305 10.1063 
9.45603 0.0103247 0.0183896 
0.0103247 9.42375 -0.0560648 
0.0183896 -0.0560648 10.385 
10.0142 -0.132598 -0.0780326 
-0.132598 9.74706 -0.046712 
-0.0780326 -0.046712 10.0547 
9.9179 0.0184923 -0.14902 
0.0184923 9.90325 -0.177392 
-0.14902 -0.177392 9.99483 
9.86742 0.0788392 -0.0565382 
0.0788392 10.1063 -0.0845956 
-0.0565382 -0.0845956 9.84226 
10.031 -0.114146 -0.163128 
-0.114146 9.88334 -0.147862 
-0.163128 -0.147862 9.90163 
8.12159 -1.11438 0.304196 
-1.11438 6.19789 1.0331 
0.304196 1.0331 1.40758 
7.13847 -0.432366 -0.338996 
-0.432366 6.23552 0.814804 
-0.338996 0.814804 2.35307 
6.15805 0.0345197 -1.43217 
0.0345197 9.25789 0.327833 
-1.43217 0.327833 0.311115 
5.78457 1.18609 3.80118 
1.18609 7.15136 1.07139 
3.80118 1.07139 2.79113 
9.91269 0.0513562 0.221827 
0.0513562 9.55779 0.124942 
0.221827 0.124942 10.1492 
9.85281 0.0503194 -0.108931 
0.0503194 9.38889 0.0902983 
-0.108931 0.0902983 10.378 
9.94387 -0.199309 -0.345891 
-0.199309 9.84788 -0.259352 
-0.345891 -0.259352 9.8279 
9.5334 -0.0293381 -0.0832969 
-0.0293381 9.97858 -0.236636 
-0.0832969 -0.236636 10.1077 
9.90873 0.291943 -0.438664 
0.291943 10.4023 0.280967 
-0.438664 0.280967 9.31081 
9.92196 0.201228 -0.252891 
0.201228 10.1188 0.0493571 
-0.252891 0.0493571 9.58117 
9.34514 0.408335 -0.589861 
0.408335 10.4121 -0.13169 
-0.589861 -0.13169 9.86464 
9.9977 0.0810193 -0.420974 
0.0810193 9.9815 0.166513 
-0.420974 0.166513 9.6427 
10.1111 0.0010415 0.0236235 
0.0010415 10.0849 0.00595297 
0.0236235 0.00595297 10.0231 
10.1613 0.000129601 0.00479058 
0.000129601 10.1371 -0.0364701 
0.00479058 -0.0364701 9.92073 
10.1235 0.011968 -0.00593859 
0.011968 10.1109 -0.0320528 
-0.00593859 -0.0320528 9.98478 
10.1652 -0.0146414 0.0173383 
-0.0146414 10.1101 -0.0704421 
0.0173383 -0.0704421 9.94392 
9.93851 -0.0117121 -0.0454102 
-0.0117121 9.94132 -0.0891508 
-0.0454102 -0.0891508 9.96328 
9.94691 -0.00843224 -0.0707865 
-0.00843224 9.91823 -0.107262 
-0.0707865 -0.107262 9.97797 
9.99063 0.0398233 -0.0602061 
0.0398233 9.96933 -0.10149 
-0.0602061 -0.10149 9.88315 
9.96341 -0.000717831 -0.0732339 
-0.000717831 9.94802 -0.0810748 
-0.0732339 -0.0810748 9.93169 
9.60148 0.0200203 -0.0267545 
0.0200203 9.65994 -0.010243 
-0.0267545 -0.010243 9.77921 
9.64513 0.065289 -0.00729875 
0.065289 9.68619 0.134636 
-0.00729875 0.134636 9.70931 
9.55801 0.0961553 -0.192283 
0.0961553 9.76871 0.0881746 
-0.192283 0.0881746 9.7139 
9.60948 0.110044 -0.0311121 
0.110044 9.65106 0.143976 
-0.0311121 0.143976 9.78008 
9.81953 -0.0295848 0.128941 
-0.0295848 9.9166 0.0154547 
0.128941 0.0154547 10.0951 
9.71394 -0.0391673 0.11231 
-0.0391673 9.97117 0.070204 
0.11231 0.070204 10.1461 
10.0056 -0.0276351 0.0889653 
-0.0276351 9.98151 -0.0636562 
0.0889653 -0.0636562 9.84414 
9.90255 0.0910191 0.22282 
0.0910191 9.93025 -0.00892727 
0.22282 -0.00892727 9.99845 
9.80103 0.00783418 -0.318854 
0.00783418 9.79289 -0.092952 
-0.318854 -0.092952 9.7439 
9.7816 0.00343903 -0.30334 
0.00343903 9.77115 -0.102879 
-0.30334 -0.102879 9.78508 
9.7819 -0.00397484 -0.321653 
-0.00397484 9.78511 -0.100775 
-0.321653 -0.100775 9.77082 
9.79029 0.00430245 -0.32505 
0.00430245 9.75612 -0.104188 
-0.32505 -0.104188 9.79141 
9.61875 -0.121764 0.434963 
-0.121764 10.0246 0.105956 
0.434963 0.105956 9.70036 
9.19768 0.0692435 0.197202 
0.0692435 9.88547 0.00860555 
0.197202 0.00860555 10.2606 
9.29977 0.087223 0.127288 
0.087223 9.85664 0.000416157 
0.127288 0.000416157 10.1873 
9.4259 0.32248 0.0912908 
0.32248 9.80082 0.00140839 
0.0912908 0.00140839 10.117 
9.7429 0.00617381 -0.124777 
0.00617381 9.73811 0.302789 
-0.124777 0.302789 9.7561 
9.74997 -0.0111108 -0.132599 
-0.0111108 9.76719 0.28617 
-0.132599 0.28617 9.71994 
9.77054 0.00575659 -0.109725 
0.00575659 9.76897 0.302963 
-0.109725 0.302963 9.6976 
9.7406 0.00332033 -0.126291 
0.00332033 9.76617 0.277526 
-0.126291 0.277526 9.73033 
9.52968 -0.231975 0.559496 
-0.231975 9.655 -0.00118914 
0.559496 -0.00118914 9.6223 
8.84483 0.308141 0.534067 
0.308141 10.1536 -0.313696 
0.534067 -0.313696 9.80858 
9.4725 0.197998 0.282724 
0.197998 9.55077 -0.233835 
0.282724 -0.233835 9.78372 
9.62338 -0.0591984 0.588997 
-0.0591984 9.57597 -0.26739 
0.588997 -0.26739 9.60763 
9.70358 0.0264035 -0.143381 
0.0264035 9.72425 -0.243083 
-0.143381 -0.243083 9.65033 
9.73384 0.0301251 -0.0805378 
0.0301251 9.77852 -0.279147 
-0.0805378 -0.279147 9.5658 
9.62913 0.0158889 -0.0880957 
0.0158889 9.68857 -0.212198 
-0.0880957 -0.212198 9.76046 
9.6948 0.0247959 -0.142769 
0.0247959 9.74321 -0.263799 
-0.142769 -0.263799 9.64015 
9.93078 -0.180813 0.17334 
-0.180813 9.57987 0.0115468 
0.17334 0.0115468 9.72177 
9.91241 -0.0969423 0.225315 
-0.0969423 9.62582 -0.0736981 
0.225315 -0.0736981 9.69418 
9.78225 -0.0756645 0.175961 
-0.0756645 9.6907 -0.12504 
0.175961 -0.12504 9.75947 
9.88631 -0.0685382 0.161382 
-0.0685382 9.72917 0.00254303 
0.161382 0.00254303 9.61693 
10.4366 -1.37629 1.0906 
-1.37629 9.10264 0.982022 
1.0906 0.982022 8.7072 
10.3943 -0.119504 0.897906 
-0.119504 10.1143 0.746439 
0.897906 0.746439 7.73784 
10.26 -0.370658 1.26702 
-0.370658 9.32651 0.341746 
1.26702 0.341746 8.65991 
8.8307 0.729586 -0.132293 
0.729586 9.77666 -0.464085 
-0.132293 -0.464085 9.63906 
9.28937 0.489194 -1.25158 
0.489194 10.8568 1.28155 
-1.25158 1.28155 8.28431 
9.40158 0.0979408 -0.463213 
0.0979408 9.63361 0.273254 
-0.463213 0.273254 9.39531 
10.0563 0.213803 -0.261927 
0.213803 9.47953 0.775657 
-0.261927 0.775657 8.89464 
9.78758 0.241101 -0.44387 
0.241101 9.40201 0.940557 
-0.44387 0.940557 9.24091 
9.46197 -0.00818138 -0.0169865 
-0.00818138 9.65087 0.176191 
-0.0169865 0.176191 10.4941 
9.46167 0.164228 -0.0799589 
0.164228 9.47298 0.13598 
-0.0799589 0.13598 10.6723 
9.43412 0.167375 -0.153949 
0.167375 9.60557 0.16991 
-0.153949 0.16991 10.5672 
9.31074 -0.00336501 -0.0274699 
-0.00336501 9.76984 -0.0403237 
-0.0274699 -0.0403237 10.5263 
4.64813 0.0657595 -1.43332 
0.0657595 7.44793 -0.0707152 
-1.43332 -0.0707152 -4.59567 
0.269727 0.543137 1.70578 
0.543137 -1.61942 -2.63147 
1.70578 -2.63147 8.8501 
5.56558 0.141371 -0.395316 
0.141371 4.84769 1.15706 
-0.395316 1.15706 -2.91287 
6.79853 -1.21362 4.16004 
-1.21362 5.25435 -1.36184 
4.16004 -1.36184 -4.55248 
9.6062 -0.133484 -0.366868 
-0.133484 8.85282 -0.179486 
-0.366868 -0.179486 10.6458 
9.64005 0.313624 0.143404 
0.313624 8.97305 -0.216405 
0.143404 -0.216405 10.4917 
9.74152 0.445644 -0.0564902 
0.445644 8.60988 -1.1947 
-0.0564902 -1.1947 10.7535 
9.63653 0.0953722 0.364212 
0.0953722 9.29978 -0.166807 
0.364212 -0.166807 10.1685 
9.95395 0.158651 0.155098 
0.158651 9.89742 0.0513804 
0.155098 0.0513804 9.99688 
9.8873 0.124911 -0.0485366 
0.124911 9.80519 -0.002329 
-0.0485366 -0.002329 10.1558 
9.81575 0.0571217 -0.0370722 
0.0571217 9.96296 -0.0283494 
-0.0370722 -0.0283494 10.0695 
9.6878 -0.113924 0.0959257 
-0.113924 9.9852 -0.0377527 
0.0959257 -0.0377527 10.1753 
9.77536 -0.00970942 0.0438676 
-0.00970942 9.76013 0.0460087 
0.0438676 0.0460087 9.88893 
9.69066 -0.0468319 0.188396 
-0.0468319 9.76423 0.166723 
0.188396 0.166723 9.96953 
9.79929 -0.0256837 0.0469402 
-0.0256837 9.68652 0.0744606 
0.0469402 0.0744606 9.93861 
9.66619 0.00270441 0.0477686 
0.00270441 9.70245 0.0184751 
0.0477686 0.0184751 10.0558 
10.5619 -0.0977125 -0.111528 
-0.0977125 10.7234 -0.423367 
-0.111528 -0.423367 12.1614 
11.9226 0.271057 0.220021 
0.271057 11.5476 0.479107 
0.220021 0.479107 9.97663 
10.9366 -0.0704732 -0.045477 
-0.0704732 10.2035 0.0390109 
-0.045477 0.0390109 12.3066 
11.2874 -0.315932 0.964205 
-0.315932 10.6055 0.122353 
0.964205 0.122353 11.5539 
9.46979 -0.569419 0.211986 
-0.569419 11.6671 0.0792736 
0.211986 0.0792736 11.4508 
9.53335 -0.330172 -0.302116 
-0.330172 11.1169 -0.291136 
-0.302116 -0.291136 11.9374 
9.97472 0.160783 0.231153 
0.160783 10.4453 0.326221 
0.231153 0.326221 12.1676 
11.6258 0.115515 -0.987746 
0.115515 9.79826 -0.84062 
-0.987746 -0.84062 11.1636 
9.6856 0.347624 0.16698 
0.347624 9.10864 -1.25125 
0.16698 -1.25125 8.74076 
10.0284 -0.163264 -0.47907 
-0.163264 9.73135 -1.22463 
-0.47907 -1.22463 7.77522 
9.49851 -0.0243621 -0.140597 
-0.0243621 9.07259 -1.29099 
-0.140597 -1.29099 8.96391 
9.41023 -0.411132 -0.231807 
-0.411132 9.45353 0.853686 
-0.231807 0.853686 8.67125 
11.6105 0.33348 0.782591 
0.33348 10.5472 0.356021 
0.782591 0.356021 12.2283 
12.4246 0.0731412 1.11114 
0.0731412 10.1675 0.261743 
1.11114 0.261743 11.794 
10.1333 -1.09059 -0.898569 
-1.09059 10.2644 -0.218696 
-0.898569 -0.218696 13.9884 
9.80048 0.619721 1.20136 
0.619721 10.8209 -0.332454 
1.20136 -0.332454 13.7646 
9.56494 -0.193467 0.667677 
-0.193467 9.46379 -0.179109 
0.667677 -0.179109 9.61494 
10.2019 0.77643 0.426871 
0.77643 9.57701 -0.204619 
0.426871 -0.204619 8.8648 
10.6539 0.224232 0.314049 
0.224232 8.88246 -0.354396 
0.314049 -0.354396 9.10731 
9.8416 0.592075 0.173141 
0.592075 9.24225 0.161561 
0.173141 0.161561 9.55981 
9.74025 0.00866524 -0.0355673 
0.00866524 9.74627 -0.269959 
-0.0355673 -0.269959 9.72987 
9.73545 0.0278034 -0.0473911 
0.0278034 9.75491 -0.239016 
-0.0473911 -0.239016 9.72602 
9.74205 0.0253375 -0.0397144 
0.0253375 9.75196 -0.225477 
-0.0397144 -0.225477 9.72237 
9.74022 0.0340796 -0.0117949 
0.0340796 9.76136 -0.239204 
-0.0117949 -0.239204 9.71481 
9.87372 -0.491053 0.0211905 
-0.491053 9.71845 0.418159 
0.0211905 0.418159 9.34884 
9.1281 -0.573604 -0.00955393 
-0.573604 9.95461 0.650886 
-0.00955393 0.650886 9.8583 
9.05882 -0.170784 -0.440296 
-0.170784 9.87484 0.285896 
-0.440296 0.285896 10.0073 
8.02192 -0.460643 0.672712 
-0.460643 10.5259 0.480174 
0.672712 0.480174 10.3932 
9.88188 -0.0136611 -0.0420443 
-0.0136611 9.88764 0.0141555 
-0.0420443 0.0141555 9.94168 
9.88182 -0.00454557 -0.0333207 
-0.00454557 9.86046 0.0159565 
-0.0333207 0.0159565 9.96892 
9.86542 -0.0146114 -0.019651 
-0.0146114 9.90349 0.0331939 
-0.019651 0.0331939 9.9423 
9.87121 0.0105565 -0.0682868 
0.0105565 9.89368 0.00983506 
-0.0682868 0.00983506 9.94632 
10.7854 1.15978 -0.688247 
1.15978 9.3586 0.310266 
-0.688247 0.310266 8.56516 
10.9588 0.302068 -0.000888844 
0.302068 8.70279 1.56495 
-0.000888844 1.56495 9.04755 
9.59545 0.150398 0.114784 
0.150398 10.2277 -0.286818 
0.114784 -0.286818 8.88598 
10.3357 0.541994 -0.486176 
0.541994 9.44523 0.938119 
-0.486176 0.938119 8.92819 
9.35416 0.450543 -0.169776 
0.450543 9.60052 0.0672555 
-0.169776 0.0672555 9.5311 
9.28833 0.118088 -0.391946 
0.118088 9.94495 0.370919 
-0.391946 0.370919 9.25251 
9.23721 -0.224501 -0.0257499 
-0.224501 9.04866 0.0289224 
-0.0257499 0.0289224 10.1999 
8.7883 -0.0252543 -0.80541 
-0.0252543 9.5287 0.400016 
-0.80541 0.400016 10.1688 
9.92509 0.188673 -0.812219 
0.188673 9.83852 0.527916 
-0.812219 0.527916 8.58605 
10.1206 0.334228 -0.858933 
0.334228 9.23154 0.414042 
-0.858933 0.414042 8.99748 
10.0054 -0.1085 -0.824466 
-0.1085 9.37553 0.0121518 
-0.824466 0.0121518 8.96867 
8.92706 0.0648872 -0.49664 
0.0648872 9.78972 -0.258428 
-0.49664 -0.258428 9.63287 
9.84362 -0.0174877 -0.0683614 
-0.0174877 9.9167 -0.0702003 
-0.0683614 -0.0702003 9.9179 
9.91587 -0.00791895 -0.128793 
-0.00791895 9.92663 -0.0725522 
-0.128793 -0.0725522 9.83571 
9.85016 -0.0331336 -0.151366 
-0.0331336 9.85452 -0.140352 
-0.151366 -0.140352 9.97354 
9.98032 0.0321555 -0.11169 
0.0321555 9.93749 -0.113117 
-0.11169 -0.113117 9.76041 
9.82136 -0.0175145 -0.199581 
-0.0175145 9.81466 -0.119544 
-0.199581 -0.119544 9.72647 
9.83838 0.0291429 -0.234856 
0.0291429 9.76323 -0.13137 
-0.234856 -0.13137 9.76088 
9.79667 0.0192129 -0.200622 
0.0192129 9.78516 -0.13924 
-0.200622 -0.13924 9.78066 
9.76989 0.0477425 -0.200744 
0.0477425 9.78273 -0.181004 
-0.200744 -0.181004 9.80987 
9.76637 -0.00836246 0.177245 
-0.00836246 9.75576 -0.260721 
0.177245 -0.260721 9.74197 
9.75067 -0.00866735 0.20001 
-0.00866735 9.74881 -0.256997 
0.20001 -0.256997 9.76462 
9.78942 0.0165975 0.198579 
0.0165975 9.75305 -0.252326 
0.198579 -0.252326 9.72162 
9.76359 -0.0131322 0.182969 
-0.0131322 9.76242 -0.25425 
0.182969 -0.25425 9.73809 
9.80484 -0.0843219 -0.232928 
-0.0843219 8.45234 0.0643716 
-0.232928 0.0643716 9.43368 
9.35694 0.0247061 0.110136 
0.0247061 8.83696 0.366022 
0.110136 0.366022 9.49695 
9.29868 0.00218253 -0.348755 
0.00218253 9.12344 0.181771 
-0.348755 0.181771 9.26873 
10.1325 -0.221489 -0.0266544 
-0.221489 8.29443 0.361114 
-0.0266544 0.361114 9.26392 
12.4154 -0.921532 0.652808 
-0.921532 11.9208 0.917467 
0.652808 0.917467 9.87971 
10.5047 -0.824571 1.10853 
-0.824571 9.50859 0.96684 
1.10853 0.96684 14.2026 
11.5708 -1.18083 0.520646 
-1.18083 8.65406 1.35188 
0.520646 1.35188 13.991 
10.8924 -0.792894 0.138955 
-0.792894 10.1784 0.237219 
0.138955 0.237219 13.1451 
9.89 0.00775217 0.0425058 
0.00775217 9.90995 0.0026139 
0.0425058 0.0026139 9.94156 
9.89592 0.00467019 0.0638593 
0.00467019 9.87714 0.0240161 
0.0638593 0.0240161 9.96844 
9.88086 0.0152294 -0.00483736 
0.0152294 9.91063 -0.00499619 
-0.00483736 -0.00499619 9.95001 
9.89933 0.0272983 -0.00542048 
0.0272983 9.88727 0.0232377 
-0.00542048 0.0232377 9.95491 
9.77937 -0.0195994 0.0597579 
-0.0195994 9.75635 0.00626718 
0.0597579 0.00626718 9.92587 
9.68748 -0.0409531 0.0565891 
-0.0409531 9.77707 0.0206971 
0.0565891 0.0206971 9.99704 
9.73938 0.00966538 0.169964 
0.00966538 9.68338 0.134624 
0.169964 0.134624 10.0388 
9.72047 0.00225814 0.0548963 
0.00225814 9.69365 0.027111 
0.0548963 0.027111 10.0475 
9.97986 -0.0255265 -0.0491897 
-0.0255265 9.88974 -0.128172 
-0.0491897 -0.128172 10.0147 
9.92426 -0.0294747 -0.0534778 
-0.0294747 9.74878 -0.0524608 
-0.0534778 -0.0524608 10.2113 
10.0964 0.0207742 0.0393226 
0.0207742 10.026 -0.0866938 
0.0393226 -0.0866938 9.76185 
9.99191 0.00595224 -0.0812184 
0.00595224 9.87926 -0.281302 
-0.0812184 -0.281302 10.0131 
9.74927 0.0144426 -0.259545 
0.0144426 9.69829 -0.177834 
-0.259545 -0.177834 9.90159 
9.73673 -0.0447866 -0.244192 
-0.0447866 9.77091 -0.165829 
-0.244192 -0.165829 9.84153 
9.75056 -0.0341672 -0.193081 
-0.0341672 9.71362 -0.118727 
-0.193081 -0.118727 9.88497 
9.85768 -0.0624353 -0.201002 
-0.0624353 9.77384 -0.174051 
-0.201002 -0.174051 9.71764 
9.94664 0.0237923 0.107319 
0.0237923 10.0628 -0.154659 
0.107319 -0.154659 8.83501 
9.72137 -0.138966 -0.134574 
-0.138966 9.50912 0.0347479 
-0.134574 0.0347479 9.61397 
9.62307 0.121512 0.0435142 
0.121512 10.0285 -0.408003 
0.0435142 -0.408003 9.19292 
9.5911 0.2926 0.298658 
0.2926 10.0371 -0.332116 
0.298658 -0.332116 9.21623 
9.51447 -0.0672844 -0.238169 
-0.0672844 9.51638 0.0906257 
-0.238169 0.0906257 10.0235 
9.47148 0.0387755 -0.251669 
0.0387755 9.76767 -0.0495186 
-0.251669 -0.0495186 9.81519 
9.71029 -0.0497049 -0.300361 
-0.0497049 9.70267 0.143635 
-0.300361 0.143635 9.64138 
9.66171 0.132234 -0.110686 
0.132234 9.68525 -0.0954414 
-0.110686 -0.0954414 9.70738 
9.65882 -0.0170942 -0.141098 
-0.0170942 9.61329 -0.317668 
-0.141098 -0.317668 9.65793 
9.59695 0.0451384 -0.160422 
0.0451384 9.66701 -0.341747 
-0.160422 -0.341747 9.66608 
9.65571 0.000283792 -0.12767 
0.000283792 9.60933 -0.29517 
-0.12767 -0.29517 9.665 
9.61252 -0.00255397 -0.119787 
-0.00255397 9.61924 -0.334646 
-0.119787 -0.334646 9.69829 
9.86243 -0.00231612 -0.0239572 
-0.00231612 9.87457 -0.0177407 
-0.0239572 -0.0177407 9.98141 
9.86143 -0.00337392 -0.0283358 
-0.00337392 9.87849 -0.00806709 
-0.0283358 -0.00806709 9.97849 
9.86303 0.000311049 -0.0189527 
0.000311049 9.88029 -0.0129117 
-0.0189527 -0.0129117 9.97509 
9.87212 0.000280764 -0.0268205 
0.000280764 9.87254 -0.000721126 
-0.0268205 -0.000721126 9.97376 
9.68708 -0.022445 -0.013171 
-0.022445 9.5775 -0.0180756 
-0.013171 -0.0180756 9.81812 
9.75949 -0.04921 0.0132742 
-0.04921 9.56021 -0.0282159 
0.0132742 -0.0282159 9.763 
9.59462 0.043879 0.038343 
0.043879 9.57511 -0.0130146 
0.038343 -0.0130146 9.91296 
9.60867 -0.0717727 -0.147302 
-0.0717727 9.6835 -0.0371882 
-0.147302 -0.0371882 9.79052 
9.90606 -0.00215875 -0.0157594 
-0.00215875 9.88283 0.000852258 
-0.0157594 0.000852258 9.97449 
9.90419 -0.00526997 -0.00896431 
-0.00526997 9.87238 -0.0156533 
-0.00896431 -0.0156533 9.98681 
9.89483 -0.018207 -0.046871 
-0.018207 9.88765 2.86859e-06 
-0.046871 2.86859e-06 9.98091 
9.88095 0.00547701 -0.00360525 
0.00547701 9.9052 -0.0165541 
-0.00360525 -0.0165541 9.97723 
9.89631 0.0081626 0.0142622 
0.0081626 9.89138 0.0210902 
0.0142622 0.0210902 9.93383 
9.91326 -0.0095467 0.00921987 
-0.0095467 9.90667 0.00397765 
0.00921987 0.00397765 9.90159 
9.89225 0.00834826 0.0406625 
0.00834826 9.87317 0.0389795 
0.0406625 0.0389795 9.9561 
9.8983 -0.000745987 0.0354416 
-0.000745987 9.91617 0.0214144 
0.0354416 0.0214144 9.90705 
9.25458 -1.18299 -1.07735 
-1.18299 11.1948 0.0846994 
-1.07735 0.0846994 16.1927 
10.0777 -2.26932 -0.679799 
-2.26932 11.8961 -0.46687 
-0.679799 -0.46687 14.6682 
10.7048 -0.769674 -0.65187 
-0.769674 12.4546 -0.377519 
-0.65187 -0.377519 13.4826 
10.6795 -0.919201 -0.205497 
-0.919201 11.9772 -0.640561 
-0.205497 -0.640561 13.9853 
10.4425 -0.824418 0.673633 
-0.824418 8.84525 0.872877 
0.673633 0.872877 14.3836 
11.7773 -0.893564 0.123992 
-0.893564 8.76849 0.843669 
0.123992 0.843669 13.1256 
12.4349 -0.803307 0.339053 
-0.803307 11.1232 0.724627 
0.339053 0.724627 10.1133 
11.1429 -0.856634 -0.331437 
-0.856634 9.94173 0.543895 
-0.331437 0.543895 12.5867 
9.65276 0.0248189 -0.534112 
0.0248189 9.19315 -0.815585 
-0.534112 -0.815585 8.3562 
9.78167 -0.109921 -0.344012 
-0.109921 9.27833 -0.919791 
-0.344012 -0.919791 8.14212 
9.18036 -0.24719 0.180908 
-0.24719 9.71222 -0.692761 
0.180908 -0.692761 8.30954 
9.36797 -0.354162 -1.34796 
-0.354162 8.87698 -0.386682 
-1.34796 -0.386682 8.95716 
9.82413 -0.0502992 0.238824 
-0.0502992 9.76331 -0.182972 
0.238824 -0.182972 9.72838 
9.76768 -0.0015735 0.25583 
-0.0015735 9.78589 -0.189943 
0.25583 -0.189943 9.76224 
9.73597 0.0433075 0.239252 
0.0433075 9.7964 -0.18617 
0.239252 -0.18617 9.78345 
9.78645 0.00695579 0.290536 
0.00695579 9.77697 -0.21447 
0.290536 -0.21447 9.7524 
10.0616 0.00676393 -0.0217054 
0.00676393 10.0592 0.00250119 
-0.0217054 0.00250119 9.92546 
10.0667 0.00507534 0.10621 
0.00507534 10.0496 -0.0081474 
0.10621 -0.0081474 9.93004 
10.0139 0.0357199 -0.0170947 
0.0357199 10.0451 0.0153188 
-0.0170947 0.0153188 9.98729 
10.0548 0.0021154 0.0609363 
0.0021154 10.0602 0.0531669 
0.0609363 0.0531669 9.93135 
8.76496 -0.451716 0.37672 
-0.451716 10.0207 -1.68148 
0.37672 -1.68148 7.70777 
8.95492 0.475719 -1.3217 
0.475719 8.3753 0.373969 
-1.3217 0.373969 9.16323 
8.27114 0.656127 -2.22393 
0.656127 10.5032 -0.190508 
-2.22393 -0.190508 7.71912 
7.75622 0.0963811 -0.766882 
0.0963811 8.92893 0.520087 
-0.766882 0.520087 9.80831 
9.1403 -0.0551182 -0.237393 
-0.0551182 9.49948 0.0542511 
-0.237393 0.0542511 9.98853 
9.65313 -0.138907 -0.265099 
-0.138907 9.84659 -0.263805 
-0.265099 -0.263805 9.12859 
9.16599 -0.186996 -0.496957 
-0.186996 9.73397 -0.108834 
-0.496957 -0.108834 9.72835 
9.27847 -0.00629864 -0.436062 
-0.00629864 9.48209 -0.0905162 
-0.436062 -0.0905162 9.86775 
9.76249 0.0110906 0.0628876 
0.0110906 9.75279 0.292573 
0.0628876 0.292573 9.8683 
9.69535 0.00761106 0.0264101 
0.00761106 9.81378 0.245336 
0.0264101 0.245336 9.87445 
9.81295 -0.0477633 -0.00512851 
-0.0477633 9.78472 0.249862 
-0.00512851 0.249862 9.78591 
9.74959 0.00878659 0.0324877 
0.00878659 9.76784 0.269028 
0.0324877 0.269028 9.86615 
9.74132 -0.147811 0.715309 
-0.147811 10.0644 -0.465195 
0.715309 -0.465195 8.46559 
9.89041 -0.0512201 0.952484 
-0.0512201 9.88878 -0.142726 
0.952484 -0.142726 8.49213 
10.2325 -0.0840552 0.575847 
-0.0840552 9.97941 0.459911 
0.575847 0.459911 8.05942 
9.60239 0.0079245 0.270494 
0.0079245 9.52517 -0.0971351 
0.270494 -0.0971351 9.14375 
9.6399 0.00251625 -0.133843 
0.00251625 9.64829 -0.294462 
-0.133843 -0.294462 9.66773 
9.67374 0.0076568 -0.109983 
0.0076568 9.6254 -0.279336 
-0.109983 -0.279336 9.65679 
9.63483 0.0105313 -0.150772 
0.0105313 9.6613 -0.315828 
-0.150772 -0.315828 9.65979 
9.61941 -0.0246941 -0.127961 
-0.0246941 9.65958 -0.309701 
-0.127961 -0.309701 9.67694 
9.56779 -0.0386309 -0.188222 
-0.0386309 9.60658 0.289351 
-0.188222 0.289351 9.53427 
9.56552 -0.0170659 -0.197278 
-0.0170659 9.56303 0.279563 
-0.197278 0.279563 9.58009 
9.58342 0.0603962 -0.144246 
0.0603962 9.51079 0.254891 
-0.144246 0.254891 9.61443 
9.5235 0.024878 -0.172867 
0.024878 9.54167 0.322611 
-0.172867 0.322611 9.64346 
1.94188 -0.527835 -0.347602 
-0.527835 3.4606 -1.95336 
-0.347602 -1.95336 12.173 
7.45038 0.0270116 -3.12465 
0.0270116 10.0872 3.35051 
-3.12465 3.35051 0.0379157 
8.67362 -2.99021 -1.89134 
-2.99021 15.3675 5.69823 
-1.89134 5.69823 -6.46564 
6.61346 2.89486 -5.66588 
2.89486 1.16152 7.33879 
-5.66588 7.33879 9.80054 
10.1183 0.00495266 0.0176453 
0.00495266 10.1077 -0.0481332 
0.0176453 -0.0481332 10.0026 
10.1748 0.00604543 -0.0353673 
0.00604543 10.1656 -0.0450414 
-0.0353673 -0.0450414 9.88825 
10.0877 0.0067533 0.0061929 
0.0067533 10.0891 -0.014726 
0.0061929 -0.014726 10.0518 
10.1223 0.00286505 -0.00131243 
0.00286505 10.1146 -0.0867308 
-0.00131243 -0.0867308 9.99166 
12.8358 2.36764 0.321724 
2.36764 9.76346 -1.70968 
0.321724 -1.70968 13.0616 
11.6621 3.22048 -1.56956 
3.22048 0.604144 2.30886 
-1.56956 2.30886 23.3946 
9.50712 3.24177 0.134762 
3.24177 4.95417 2.12398 
0.134762 2.12398 21.1995 
11.2806 0.718675 -0.699609 
0.718675 9.93983 2.25827 
-0.699609 2.25827 14.4404 
13.4834 0.48274 1.4445 
0.48274 10.6986 -0.560978 
1.4445 -0.560978 8.18446 
9.84985 0.287264 -0.871742 
0.287264 9.64725 -0.0855269 
-0.871742 -0.0855269 12.8693 
9.68304 0.953572 0.0406982 
0.953572 9.96685 -0.499142 
0.0406982 -0.499142 12.7165 
10.1023 0.419124 0.91147 
0.419124 10.1849 0.639654 
0.91147 0.639654 12.0793 
2.54481 5.12269 2.89324 
5.12269 7.41756 -2.07177 
2.89324 -2.07177 23.5425 
2.75688 2.99414 1.75669 
2.99414 11.0007 -2.29113 
1.75669 -2.29113 19.7473 
9.62937 2.84689 -1.16792 
2.84689 12.0045 0.769244 
-1.16792 0.769244 11.871 
9.02012 0.741887 1.91111 
0.741887 11.0671 -1.68382 
1.91111 -1.68382 13.4177 
9.19196 -0.156896 0.37026 
-0.156896 9.41112 -0.119113 
0.37026 -0.119113 10.3546 
9.62957 -0.144614 0.0575263 
-0.144614 9.76869 0.185104 
0.0575263 0.185104 9.55945 
9.29473 -0.127868 0.54292 
-0.127868 10.0523 0.172079 
0.54292 0.172079 9.61067 
9.44226 0.280061 0.503628 
0.280061 9.49029 0.0117042 
0.503628 0.0117042 10.0252 
9.8428 0.00996368 0.0386046 
0.00996368 9.86444 0.0683207 
0.0386046 0.0683207 9.88333 
9.8833 0.0171168 0.0223977 
0.0171168 9.82613 0.0863713 
0.0223977 0.0863713 9.88114 
9.85456 0.0360012 0.00681106 
0.0360012 9.85381 0.0367857 
0.00681106 0.0367857 9.8822 
9.84222 0.00178173 0.00733656 
0.00178173 9.89231 0.0536414 
0.00733656 0.0536414 9.85604 
9.78829 -0.000496195 0.295355 
-0.000496195 9.76602 0.0755734 
0.295355 0.0755734 9.74353 
9.77752 0.0136234 0.317901 
0.0136234 9.76117 0.0732076 
0.317901 0.0732076 9.75915 
9.7656 0.0117494 0.304357 
0.0117494 9.78278 0.100671 
0.304357 0.100671 9.74946 
9.78771 0.0423828 0.35908 
0.0423828 9.74452 0.0631873 
0.35908 0.0631873 9.76561 
9.69266 0.279972 0.248179 
0.279972 9.27751 -0.370614 
0.248179 -0.370614 9.55366 
9.272 0.0162392 0.410963 
0.0162392 9.37795 -0.101146 
0.410963 -0.101146 9.87389 
9.25128 0.33081 0.495352 
0.33081 9.51001 -0.229059 
0.495352 -0.229059 9.76254 
9.6957 0.155318 0.311658 
0.155318 9.49796 -0.395576 
0.311658 -0.395576 9.33017 
9.67449 0.519612 1.13718 
0.519612 9.60532 1.3442 
1.13718 1.3442 7.53794 
9.73958 0.43203 0.519001 
0.43203 10.0866 0.924403 
0.519001 0.924403 6.99154 
9.60294 -1.02355 0.783975 
-1.02355 9.02908 0.302429 
0.783975 0.302429 8.18573 
10.1641 0.205554 0.772406 
0.205554 10.0299 0.568669 
0.772406 0.568669 6.6238 
2.13521 -0.266035 0.252935 
-0.266035 1.55096 2.19236 
0.252935 2.19236 5.55466 
5.68721 -0.549973 0.342951 
-0.549973 4.80818 0.226967 
0.342951 0.226967 -1.25456 
6.69185 -0.404525 1.70255 
-0.404525 4.3553 -0.523338 
1.70255 -0.523338 -1.80633 
4.75232 -0.637943 1.45193 
-0.637943 5.19606 2.46183 
1.45193 2.46183 -0.707556 
9.38411 -0.106618 0.171212 
-0.106618 9.66185 -0.165014 
0.171212 -0.165014 9.21347 
9.40115 0.323299 0.398898 
0.323299 9.34835 -0.247543 
0.398898 -0.247543 9.50994 
9.45534 0.0687664 0.0913538 
0.0687664 9.37429 -0.290704 
0.0913538 -0.290704 9.42981 
9.51531 0.00924699 0.174695 
0.00924699 9.22833 -0.362461 
0.174695 -0.362461 9.51579 
9.85896 -0.00223315 -0.00925852 
-0.00223315 9.85909 0.0324182 
-0.00925852 0.0324182 9.89297 
9.85146 0.000271978 -0.00943246 
0.000271978 9.86202 0.0483132 
-0.00943246 0.0483132 9.89754 
9.84326 -0.00145341 -0.0203561 
-0.00145341 9.87203 0.0449035 
-0.0203561 0.0449035 9.89573 
9.83008 -0.00316597 -0.0206953 
-0.00316597 9.9159 0.05467 
-0.0206953 0.05467 9.86503 
8.14145 0.458322 4.75428 
0.458322 7.69405 -2.08992 
4.75428 -2.08992 11.3325 
7.3483 1.76453 3.5624 
1.76453 10.0011 -2.29909 
3.5624 -2.29909 9.81859 
11.4795 0.101177 1.23007 
0.101177 7.74885 -1.02117 
1.23007 -1.02117 7.93957 
4.56922 1.44513 1.3892 
1.44513 11.2505 -1.13296 
1.3892 -1.13296 11.3483 
9.26409 -0.220782 0.197113 
-0.220782 9.5296 0.208413 
0.197113 0.208413 10.1218 
9.69117 0.081122 -0.257817 
0.081122 9.34303 0.0492141 
-0.257817 0.0492141 9.88128 
9.54157 -0.122094 0.200779 
-0.122094 9.77405 0.0693274 
0.200779 0.0693274 9.59986 
9.36993 0.116228 -0.22841 
0.116228 9.92664 0.274171 
-0.22841 0.274171 9.61891 
9.33663 -0.0318996 -0.086466 
-0.0318996 9.63194 -0.068237 
-0.086466 -0.068237 9.86704 
9.48644 -0.0301391 -0.061586 
-0.0301391 9.5792 -0.0567213 
-0.061586 -0.0567213 9.76996 
9.50363 0.0487089 -0.0790376 
0.0487089 9.50465 -0.0512575 
-0.0790376 -0.0512575 9.82733 
9.52582 -0.000110194 -0.195344 
-0.000110194 9.52517 -0.14844 
-0.195344 -0.14844 9.78462 
9.58867 -0.0553683 -0.028452 
-0.0553683 9.5418 0.0108574 
-0.028452 0.0108574 9.61627 
9.67442 -0.0352915 0.0415104 
-0.0352915 9.45912 -0.148101 
0.0415104 -0.148101 9.61321 
9.62918 0.0210791 0.059192 
0.0210791 9.4946 -0.060496 
0.059192 -0.060496 9.62296 
9.63847 -0.0168083 0.0162356 
-0.0168083 9.49439 -0.0802214 
0.0162356 -0.0802214 9.61388 
9.69105 0.0193605 -0.278331 
0.0193605 9.6972 0.188834 
-0.278331 0.188834 9.65764 
9.71899 0.00809337 -0.32201 
0.00809337 9.71554 0.179948 
-0.32201 0.179948 9.61136 
9.68293 0.0507145 -0.299758 
0.0507145 9.70014 0.215465 
-0.299758 0.215465 9.66282 
9.76241 -0.0378364 -0.322067 
-0.0378364 9.65454 0.205494 
-0.322067 0.205494 9.62894 
9.49295 0.0878438 0.359986 
0.0878438 9.85158 -0.0605807 
0.359986 -0.0605807 10.2342 
9.55254 0.403516 0.18073 
0.403516 9.74406 -0.0910151 
0.18073 -0.0910151 10.2822 
8.91692 0.229803 0.0859763 
0.229803 9.88029 -0.00362098 
0.0859763 -0.00362098 10.7815 
9.57661 0.145698 0.510329 
0.145698 9.86343 0.00376274 
0.510329 0.00376274 10.1387 
9.44241 -0.0393995 0.0809187 
-0.0393995 10.3105 0.198438 
0.0809187 0.198438 10.3452 
10.1794 0.222856 0.206664 
0.222856 9.66899 -0.212261 
0.206664 -0.212261 10.2497 
9.98877 0.255664 -0.11279 
0.255664 9.0636 0.116374 
-0.11279 0.116374 11.0458 
9.52511 -0.169504 0.49624 
-0.169504 9.95238 -0.0534597 
0.49624 -0.0534597 10.6206 
10.1946 -0.00650096 0.02051 
-0.00650096 10.1743 0.0135728 
0.02051 0.0135728 9.95327 
10.1779 0.0117695 0.0115179 
0.0117695 10.146 -0.00915293 
0.0115179 -0.00915293 9.9983 
10.1707 -0.00193086 0.00489812 
-0.00193086 10.1639 0.0149749 
0.00489812 0.0149749 9.98752 
10.1881 -0.00522163 0.0301325 
-0.00522163 10.1662 0.0162719 
0.0301325 0.0162719 9.9678 
9.07679 -0.193359 0.75761 
-0.193359 9.78043 1.2652 
0.75761 1.2652 8.4548 
10.3006 0.0226955 0.635516 
0.0226955 9.84547 1.5154 
0.635516 1.5154 7.16592 
9.16487 0.33187 -0.285057 
0.33187 8.86317 -0.54396 
-0.285057 -0.54396 9.28398 
8.68372 0.690615 0.970914 
0.690615 9.14958 1.59393 
0.970914 1.59393 9.47873 
10.9333 -0.0167719 -0.0504056 
-0.0167719 11.1598 0.0739356 
-0.0504056 0.0739356 11.6025 
11.077 0.0499146 0.0593082 
0.0499146 11.0786 -0.0467803 
0.0593082 -0.0467803 11.5399 
11.2531 0.0417453 -0.034497 
0.0417453 11.216 0.114667 
-0.034497 0.114667 11.2265 
11.3074 0.0884798 0.116977 
0.0884798 11.1006 0.199539 
0.116977 0.199539 11.2876 
9.81566 -0.447698 -0.0299311 
-0.447698 10.4316 -0.0971132 
-0.0299311 -0.0971132 11.8331 
9.78232 -0.622137 -0.00995319 
-0.622137 10.5421 0.0039167 
-0.00995319 0.0039167 11.7559 
9.46805 -0.193885 -0.00861082 
-0.193885 11.0627 0.0853526 
-0.00861082 0.0853526 11.5496 
10.0463 -0.366036 -0.273468 
-0.366036 10.6133 0.0950169 
-0.273468 0.0950169 11.4208 
9.59718 -0.0238398 -0.137465 
-0.0238398 9.52608 -0.191554 
-0.137465 -0.191554 10.016 
9.65741 -0.00721261 -0.0428701 
-0.00721261 9.41156 -0.171607 
-0.0428701 -0.171607 10.0703 
9.70894 -0.0526682 -0.000184794 
-0.0526682 9.44206 -0.119622 
-0.000184794 -0.119622 9.98824 
9.74473 -0.0756686 -0.0259501 
-0.0756686 9.33488 -0.16829 
-0.0259501 -0.16829 10.0596 
10.8099 1.78009 0.353129 
1.78009 11.0353 -0.513907 
0.353129 -0.513907 12.549 
8.0776 -1.82158 0.667594 
-1.82158 11.7184 -0.690662 
0.667594 -0.690662 14.5983 
9.23165 -0.0977116 -1.77589 
-0.0977116 12.4423 0.252542 
-1.77589 0.252542 12.7204 
9.91465 0.187142 -1.17576 
0.187142 10.9729 -0.0275854 
-1.17576 -0.0275854 13.5067 
9.43549 -0.0117565 0.0878516 
-0.0117565 9.73805 -0.236328 
0.0878516 -0.236328 10.7083 
9.5842 0.0598938 0.218989 
0.0598938 9.50033 -0.0984077 
0.218989 -0.0984077 10.7974 
9.5239 0.125021 -0.0874418 
0.125021 9.7435 0.0626568 
-0.0874418 0.0626568 10.6145 
9.44038 0.0349739 0.0794997 
0.0349739 9.66622 -0.200076 
0.0794997 -0.200076 10.7753 
9.26297 0.27853 -0.0697021 
0.27853 9.43927 0.103244 
-0.0697021 0.103244 10.194 
9.30214 0.44695 0.127634 
0.44695 9.25431 -0.0757193 
0.127634 -0.0757193 10.3398 
9.19032 0.263663 -0.262081 
0.263663 9.2985 0.205568 
-0.262081 0.205568 10.4074 
9.32263 0.142718 -0.115929 
0.142718 9.46752 0.0720978 
-0.115929 0.0720978 10.106 
10.0812 -0.000882427 -0.00738903 
-0.000882427 10.0621 0.00921804 
-0.00738903 0.00921804 10.0443 
10.0741 0.00188801 -0.00481746 
0.00188801 10.104 -0.0291696 
-0.00481746 -0.0291696 10.0095 
10.0759 0.0117389 0.00174589 
0.0117389 10.0833 -0.00206182 
0.00174589 -0.00206182 10.0284 
10.0859 -0.00317706 0.0319299 
-0.00317706 10.1017 -0.0274346 
0.0319299 -0.0274346 10 
9.63862 0.0253045 -0.0238949 
0.0253045 9.62083 -0.0388815 
-0.0238949 -0.0388815 9.94162 
9.68709 0.0428688 -0.0609559 
0.0428688 9.66995 0.0273998 
-0.0609559 0.0273998 9.84403 
9.70012 0.0543128 -0.0405674 
0.0543128 9.6427 -0.0175886 
-0.0405674 -0.0175886 9.85826 
9.72068 0.00901994 0.0522947 
0.00901994 9.69379 0.0643777 
0.0522947 0.0643777 9.7866 
5.4687 2.47959 -1.36537 
2.47959 8.43071 -0.0375774 
-1.36537 -0.0375774 17.8339 
0.839359 3.51869 -1.70515 
3.51869 10.2454 1.53861 
-1.70515 1.53861 20.6486 
9.01461 2.1055 1.04723 
2.1055 10.7748 -0.401144 
1.04723 -0.401144 11.944 
8.99193 0.734847 -2.15023 
0.734847 9.90548 -0.026539 
-2.15023 -0.026539 12.8359 
10.0093 -0.0183055 -0.0748669 
-0.0183055 9.97642 0.0720676 
-0.0748669 0.0720676 9.85869 
9.97098 0.0208717 0.0419079 
0.0208717 9.76525 0.090273 
0.0419079 0.090273 10.1081 
9.93095 -0.0111394 -0.00282776 
-0.0111394 9.80782 0.0954605 
-0.00282776 0.0954605 10.1056 
9.90362 0.0826145 -0.0229367 
0.0826145 9.92012 0.190444 
-0.0229367 0.190444 10.0206 
9.6037 0.0856159 0.0136685 
0.0856159 9.77658 -0.0243663 
0.0136685 -0.0243663 10.1106 
9.71495 0.0809166 -0.114455 
0.0809166 9.71452 0.200742 
-0.114455 0.200742 10.0614 
9.49893 0.0478799 -0.0694084 
0.0478799 9.69174 0.142853 
-0.0694084 0.142853 10.3002 
9.7279 0.0223508 -0.206748 
0.0223508 9.69435 0.131054 
-0.206748 0.131054 10.0686 
9.7064 0.15195 0.0726358 
0.15195 9.50015 -0.0162587 
0.0726358 -0.0162587 10.0645 
9.65489 0.101003 -0.003217 
0.101003 9.59488 0.00022152 
-0.003217 0.00022152 10.0213 
9.56699 -0.00744592 0.0646858 
-0.00744592 9.68719 -0.0878739 
0.0646858 -0.0878739 10.0169 
9.45463 0.14829 -0.0843982 
0.14829 9.73652 -0.00357686 
-0.0843982 -0.00357686 10.0799 
9.0009 0.423939 0.0157224 
0.423939 9.80354 -0.0592696 
0.0157224 -0.0592696 10.1941 
9.49985 -0.0171168 0.234551 
-0.0171168 9.71901 -0.0804579 
0.234551 -0.0804579 9.77968 
10.1702 -0.407926 0.130889 
-0.407926 9.56585 0.0130438 
0.130889 0.0130438 9.2625 
9.26298 -0.168006 0.771397 
-0.168006 9.78663 -0.215516 
0.771397 -0.215516 9.94894 
9.57224 0.123942 0.0438553 
0.123942 9.75293 0.154582 
0.0438553 0.154582 9.75696 
9.62221 -0.149356 0.0130178 
-0.149356 9.44306 0.073067 
0.0130178 0.073067 10.0169 
9.68358 0.0105813 -0.0237281 
0.0105813 9.59666 0.171907 
-0.0237281 0.171907 9.8019 
9.73053 0.095309 0.125836 
0.095309 9.47498 0.170536 
0.125836 0.170536 9.87662 
9.29132 0.0526665 0.350796 
0.0526665 9.4191 -0.123198 
0.350796 -0.123198 9.72524 
9.68889 0.212748 0.40471 
0.212748 8.98622 -0.676769 
0.40471 -0.676769 9.76055 
9.87125 0.104161 -0.256593 
0.104161 8.93374 -0.269582 
-0.256593 -0.269582 9.63067 
9.54704 0.10047 -0.108154 
0.10047 9.3021 -0.623925 
-0.108154 -0.623925 9.58653 
9.08795 0.459713 -0.375516 
0.459713 9.55243 0.398083 
-0.375516 0.398083 10.5799 
9.00056 0.488635 -0.0118295 
0.488635 9.44858 0.135704 
-0.0118295 0.135704 10.7711 
9.76927 -0.0707049 -0.214034 
-0.0707049 9.27053 -0.338442 
-0.214034 -0.338442 10.1805 
8.97769 0.659018 0.215175 
0.659018 9.06379 0.19804 
0.215175 0.19804 11.1788 
9.73008 0.0891757 0.177236 
0.0891757 9.98066 0.00730821 
0.177236 0.00730821 9.35099 
9.68581 0.0444412 -0.0737946 
0.0444412 9.82896 -0.0115288 
-0.0737946 -0.0115288 9.54695 
10.0547 -0.0751849 0.109185 
-0.0751849 9.89579 -0.099004 
0.109185 -0.099004 9.11119 
9.65015 0.142715 0.405428 
0.142715 9.91367 -0.0672262 
0.405428 -0.0672262 9.4979 
4.1301 -0.771493 0.449629 
-0.771493 4.54428 1.00093 
0.449629 1.00093 3.58448 
6.89426 -1.29132 -0.0828086 
-1.29132 6.52595 0.116191 
-0.0828086 0.116191 -1.16135 
5.62285 -0.433652 1.37174 
-0.433652 5.43537 -0.0301988 
1.37174 -0.0301988 1.20064 
5.07783 -0.71557 2.45409 
-0.71557 4.72698 2.33373 
2.45409 2.33373 2.45405 
6.28332 -0.841227 -0.144931 
-0.841227 5.52262 0.563328 
-0.144931 0.563328 -1.42785 
3.6557 -0.277918 -0.574805 
-0.277918 3.03001 -0.24414 
-0.574805 -0.24414 3.69238 
5.29916 -0.587609 1.53622 
-0.587609 5.35108 -0.193477 
1.53622 -0.193477 -0.272157 
4.88694 -0.489352 0.0328679 
-0.489352 4.05945 -2.92434 
0.0328679 -2.92434 1.4317 
9.70331 -0.0472103 -0.0593869 
-0.0472103 9.62692 -0.115285 
-0.0593869 -0.115285 9.95416 
9.59735 -0.204971 -0.142337 
-0.204971 9.31714 -0.231134 
-0.142337 -0.231134 10.3699 
9.56021 -0.0899856 -0.214048 
-0.0899856 9.5099 -0.199578 
-0.214048 -0.199578 10.2143 
9.56763 -0.0348587 -0.190674 
-0.0348587 9.69474 -0.345827 
-0.190674 -0.345827 10.022 
9.73605 0.0699564 -0.0431237 
0.0699564 9.81664 -0.266725 
-0.0431237 -0.266725 9.69926 
9.76518 0.0147519 -0.0457969 
0.0147519 9.82097 -0.253603 
-0.0457969 -0.253603 9.66581 
9.73888 -0.0124174 -0.0564561 
-0.0124174 9.84215 -0.186896 
-0.0564561 -0.186896 9.67092 
9.71998 0.0148898 -0.0474975 
0.0148898 9.81418 -0.262589 
-0.0474975 -0.262589 9.71779 
9.73321 -0.000272283 -0.0430794 
-0.000272283 9.77716 -0.238234 
-0.0430794 -0.238234 9.74416 
9.7358 0.00568045 -0.024893 
0.00568045 9.80081 -0.24957 
-0.024893 -0.24957 9.71791 
9.72313 0.00833934 -0.0542648 
0.00833934 9.76481 -0.230609 
-0.0542648 -0.230609 9.76659 
9.7397 -0.00749241 -0.0247101 
-0.00749241 9.77175 -0.238352 
-0.0247101 -0.238352 9.74307 
9.21452 -0.267957 -0.312536 
-0.267957 10.0224 -0.155137 
-0.312536 -0.155137 10.012 
8.98134 -0.849685 -0.0414496 
-0.849685 10.4851 0.0163473 
-0.0414496 0.0163473 9.7826 
8.83388 -0.55681 -0.219465 
-0.55681 10.2082 -0.181915 
-0.219465 -0.181915 10.2069 
8.77056 0.00478319 0.0827509 
0.00478319 10.3395 -0.0586686 
0.0827509 -0.0586686 10.139 
9.73768 0.014854 -0.0504376 
0.014854 9.75824 -0.233986 
-0.0504376 -0.233986 9.73733 
9.73693 0.0120664 -0.030731 
0.0120664 9.75057 -0.211981 
-0.030731 -0.211981 9.74575 
9.70512 -0.0231875 -0.050068 
-0.0231875 9.74506 -0.292272 
-0.050068 -0.292272 9.78308 
9.76053 0.0214806 -0.0557925 
0.0214806 9.80241 -0.243017 
-0.0557925 -0.243017 9.67031 
9.80188 -0.111662 0.0919192 
-0.111662 9.19782 0.283177 
0.0919192 0.283177 9.80944 
9.10205 0.318223 -0.0926425 
0.318223 10.6497 0.0528458 
-0.0926425 0.0528458 9.05735 
10.0036 -0.414132 0.0850225 
-0.414132 8.87198 0.129585 
0.0850225 0.129585 9.93357 
10.0086 0.201473 0.201117 
0.201473 9.07184 0.365234 
0.201117 0.365234 9.72872 
9.79034 -0.437567 0.350021 
-0.437567 9.87707 0.514939 
0.350021 0.514939 9.70009 
9.75185 -0.492457 0.29874 
-0.492457 9.48659 0.48637 
0.29874 0.48637 10.1291 
9.76352 -0.251624 0.184462 
-0.251624 9.42839 0.221634 
0.184462 0.221634 10.1756 
9.95282 0.185641 0.166252 
0.185641 9.44656 0.15741 
0.166252 0.15741 9.96812 
9.12159 0.193805 -0.153531 
0.193805 9.65376 -0.0136106 
-0.153531 -0.0136106 10.4121 
9.2297 0.254734 -0.212597 
0.254734 9.58306 0.0303152 
-0.212597 0.0303152 10.3747 
9.14799 0.206052 -0.0875939 
0.206052 9.58452 -0.0799681 
-0.0875939 -0.0799681 10.455 
9.41433 0.0686689 -0.178714 
0.0686689 9.4775 0.0700671 
-0.178714 0.0700671 10.2957 
10.149 0.00052731 -0.00759679 
0.00052731 10.152 -0.0167023 
-0.00759679 -0.0167023 9.98896 
10.1397 -0.00890312 0.0126347 
-0.00890312 10.1472 0.00740614 
0.0126347 0.00740614 10.0031 
10.1684 -0.00224606 0.0100165 
-0.00224606 10.1691 -0.0218151 
0.0100165 -0.0218151 9.95245 
10.1728 -0.00605934 0.0152599 
-0.00605934 10.1607 -0.0347836 
0.0152599 -0.0347836 9.95641 
9.68965 -0.0639953 0.0174706 
-0.0639953 9.71826 0.0188167 
0.0174706 0.0188167 9.96002 
9.72217 -0.0101029 -0.0152016 
-0.0101029 9.70551 -0.0266414 
-0.0152016 -0.0266414 9.94024 
9.72171 -0.00423383 -0.00732909 
-0.00423383 9.70314 -0.0118597 
-0.00732909 -0.0118597 9.94307 
9.68984 -0.00484905 -0.016827 
-0.00484905 9.73664 -0.0347411 
-0.016827 -0.0347411 9.94144 
10.043 0.0155199 0.0486629 
0.0155199 9.95204 0.0510708 
0.0486629 0.0510708 10.0381 
9.99926 -0.0467875 0.0462451 
-0.0467875 10.0545 0.0554822 
0.0462451 0.0554822 9.97942 
10.0902 0.0215046 0.0844736 
0.0215046 10.0053 0.0658465 
0.0844736 0.0658465 9.93781 
9.98566 -0.0343186 0.0639209 
-0.0343186 10.0613 0.079468 
0.0639209 0.079468 9.98625 
9.66236 0.163402 -0.228754 
0.163402 9.86017 0.446104 
-0.228754 0.446104 9.28752 
9.55409 0.449176 -0.248959 
0.449176 10.1253 0.736971 
-0.248959 0.736971 9.13071 
9.45091 0.29849 -0.0446453 
0.29849 9.86894 0.186106 
-0.0446453 0.186106 9.4902 
9.50804 0.174342 -0.164097 
0.174342 10.4259 0.649152 
-0.164097 0.649152 8.87606 
9.79121 -0.0551982 -0.128354 
-0.0551982 9.63067 0.0460539 
-0.128354 0.0460539 9.58049 
9.74334 -0.0306935 -0.157363 
-0.0306935 9.6229 0.0763475 
-0.157363 0.0763475 9.63613 
9.81712 -0.0926522 -0.097132 
-0.0926522 9.70295 0.049152 
-0.097132 0.049152 9.4823 
9.72595 -0.0235175 -0.126978 
-0.0235175 9.64276 0.0125017 
-0.126978 0.0125017 9.63366 
9.88611 0.434345 0.372426 
0.434345 8.0888 -1.91273 
0.372426 -1.91273 10.0759 
9.10582 0.128804 -0.380028 
0.128804 8.4288 -0.988051 
-0.380028 -0.988051 10.5162 
10.2449 -0.204279 0.702787 
-0.204279 9.02827 -0.929954 
0.702787 -0.929954 8.77759 
10.443 -1.14111 0.292141 
-1.14111 8.82346 -1.48623 
0.292141 -1.48623 8.78436 
1.5231 0.233506 -1.79478 
0.233506 1.34493 0.0403672 
-1.79478 0.0403672 8.80157 
6.47388 0.285783 0.612231 
0.285783 6.65153 -3.14789 
0.612231 -3.14789 -1.4558 
8.16106 0.0921456 1.02114 
0.0921456 8.12854 -1.6311 
1.02114 -1.6311 -4.62 
8.61193 -0.861621 -6.52844 
-0.861621 4.72514 -6.3409 
-6.52844 -6.3409 -1.66746 
8.39612 1.00232 -1.15735 
1.00232 10.4737 1.88095 
-1.15735 1.88095 11.6812 
9.41737 -0.230289 -0.43621 
-0.230289 10.7968 2.49704 
-0.43621 2.49704 10.3368 
7.99241 0.988963 -0.763094 
0.988963 10.2968 -0.508968 
-0.763094 -0.508968 12.2618 
9.44296 0.921764 -1.37964 
0.921764 9.79143 -0.102083 
-1.37964 -0.102083 11.3167 
8.19792 0.274086 3.82439 
0.274086 8.13513 -1.70651 
3.82439 -1.70651 4.37452 
7.57515 0.253714 3.88442 
0.253714 9.03412 -1.27823 
3.88442 -1.27823 4.0983 
6.34551 1.18599 3.01989 
1.18599 8.33408 -1.21203 
3.01989 -1.21203 6.02797 
8.82479 -1.67457 0.324251 
-1.67457 7.24024 0.0160991 
0.324251 0.0160991 4.64253 
9.84328 -0.0375281 -0.0907747 
-0.0375281 9.82928 0.0159454 
-0.0907747 0.0159454 9.78718 
9.87632 -0.0283989 -0.0844618 
-0.0283989 9.78291 -0.0124981 
-0.0844618 -0.0124981 9.8005 
9.82471 -0.0136228 -0.101163 
-0.0136228 9.8033 0.0161992 
-0.101163 0.0161992 9.83173 
9.80757 0.0274447 -0.103473 
0.0274447 9.77678 0.0670148 
-0.103473 0.0670148 9.87539 
2.09545 1.12542 0.957275 
1.12542 0.802539 -0.823275 
0.957275 -0.823275 9.79058 
8.42747 0.271265 -0.175394 
0.271265 8.40405 -0.15756 
-0.175394 -0.15756 -4.14296 
7.17447 0.629369 -2.47216 
0.629369 9.30186 0.872911 
-2.47216 0.872911 -3.78777 
6.27085 -1.5677 -3.49694 
-1.5677 7.10853 -6.84582 
-3.49694 -6.84582 -0.690825 
9.68234 -0.0280278 -0.153621 
-0.0280278 9.77027 0.182861 
-0.153621 0.182861 9.6712 
9.71368 -0.029656 -0.12346 
-0.029656 9.70453 0.242007 
-0.12346 0.242007 9.70561 
9.81939 -0.0176166 -0.184608 
-0.0176166 9.75089 0.279768 
-0.184608 0.279768 9.55353 
9.6732 -0.0544622 -0.192664 
-0.0544622 9.76397 0.20745 
-0.192664 0.20745 9.68665 
8.17057 1.49735 -2.91155 
1.49735 10.0013 1.81281 
-2.91155 1.81281 10.2575 
11.499 1.24484 -1.04551 
1.24484 8.10172 1.2519 
-1.04551 1.2519 8.82866 
8.65469 1.18709 -0.711093 
1.18709 8.50209 1.26746 
-0.711093 1.26746 11.2726 
10.3662 1.17307 -1.13854 
1.17307 9.46374 0.207967 
-1.13854 0.207967 8.59948 
9.74693 0.0105912 0.171394 
0.0105912 9.73201 0.28792 
0.171394 0.28792 9.69257 
9.71545 0.0172684 0.194746 
0.0172684 9.72434 0.269683 
0.194746 0.269683 9.73172 
9.74141 0.0153896 0.169573 
0.0153896 9.73069 0.275097 
0.169573 0.275097 9.6994 
9.74874 0.0162126 0.159876 
0.0162126 9.73553 0.280337 
0.159876 0.280337 9.68723 
9.89454 0.0250719 -0.0370403 
0.0250719 9.67967 0.187512 
-0.0370403 0.187512 9.93429 
9.95798 0.103647 -0.0445676 
0.103647 9.62342 0.366886 
-0.0445676 0.366886 9.92711 
9.7076 0.0140633 -0.00837139 
0.0140633 9.7259 0.129092 
-0.00837139 0.129092 10.075 
9.77096 -0.0247576 0.002581 
-0.0247576 9.97102 0.188964 
0.002581 0.188964 9.76653 
10.0163 -0.0343831 -0.0438684 
-0.0343831 10.1398 0.0509007 
-0.0438684 0.0509007 9.96094 
10.0608 0.0309475 -0.0398327 
0.0309475 10.0297 0.0262742 
-0.0398327 0.0262742 10.0266 
10.0667 0.0176266 -0.0561151 
0.0176266 10.0589 0.0710662 
-0.0561151 0.0710662 9.99142 
10.07 0.000893154 -0.0471508 
0.000893154 10.0426 0.0831413 
-0.0471508 0.0831413 10.0044 
9.66802 0.105985 -0.0829923 
0.105985 9.54192 0.150885 
-0.0829923 0.150885 9.90927 
9.72294 0.100068 -0.0408301 
0.100068 9.54048 0.164492 
-0.0408301 0.164492 9.8558 
9.63663 -0.00397458 -0.00161826 
-0.00397458 9.6548 0.154737 
-0.00161826 0.154737 9.82778 
9.74693 0.0641982 -0.0573008 
0.0641982 9.55705 0.189687 
-0.0573008 0.189687 9.81523 
9.64479 -6.12221e-05 -0.24815 
-6.12221e-05 9.54722 0.0545879 
-0.24815 0.0545879 9.49044 
9.69245 0.0246408 -0.212667 
0.0246408 9.5208 -0.0157595 
-0.212667 -0.0157595 9.46919 
9.70309 -0.00599501 -0.226464 
-0.00599501 9.59909 0.03436 
-0.226464 0.03436 9.38026 
9.72628 -0.0439818 -0.269985 
-0.0439818 9.6195 0.0020478 
-0.269985 0.0020478 9.33666 
10.1677 -0.242158 -0.499097 
-0.242158 8.86963 -0.242159 
-0.499097 -0.242159 8.81011 
8.42046 0.187086 -1.12555 
0.187086 9.83353 -0.997923 
-1.12555 -0.997923 9.5934 
8.39243 0.233886 -1.66513 
0.233886 10.0084 -0.770538 
-1.66513 -0.770538 9.44655 
7.84542 -0.014447 -0.902976 
-0.014447 9.79086 -1.07616 
-0.902976 -1.07616 10.2111 
9.78596 0.00974576 -0.272693 
0.00974576 9.77918 -0.151255 
-0.272693 -0.151255 9.74715 
9.78874 0.0314958 -0.290379 
0.0314958 9.73919 -0.171142 
-0.290379 -0.171142 9.78436 
9.73971 0.025166 -0.244069 
0.025166 9.77158 -0.159622 
-0.244069 -0.159622 9.801 
9.80035 -0.0282223 -0.291749 
-0.0282223 9.78109 -0.157445 
-0.291749 -0.157445 9.73086 
9.79399 0.0404306 0.0388222 
0.0404306 9.75981 0.0402115 
0.0388222 0.0402115 9.85748 
9.75835 -0.00732195 0.0463891 
-0.00732195 9.78322 0.0566367 
0.0463891 0.0566367 9.8697 
9.7867 0.0292687 0.0840563 
0.0292687 9.77272 -0.00613008 
0.0840563 -0.00613008 9.85185 
9.79986 0.0370089 -0.00480766 
0.0370089 9.74598 0.0261645 
-0.00480766 0.0261645 9.86544 
9.04568 0.17401 0.486125 
0.17401 9.29094 -0.106104 
0.486125 -0.106104 7.06397 
9.02783 -0.283889 0.278696 
-0.283889 9.85949 -0.0171883 
0.278696 -0.0171883 6.51326 
9.0682 -0.0705262 0.0708063 
-0.0705262 9.26635 0.123366 
0.0708063 0.123366 7.06604 
9.69834 -0.338091 0.205503 
-0.338091 9.87953 -0.170207 
0.205503 -0.170207 5.82271 
9.74979 0.00107742 0.00756789 
0.00107742 9.74041 -0.0262522 
0.00756789 -0.0262522 9.956 
9.76017 -0.00261201 0.0063791 
-0.00261201 9.75164 -0.0276006 
0.0063791 -0.0276006 9.93439 
9.73861 -0.012315 0.0148631 
-0.012315 9.74764 -0.0388201 
0.0148631 -0.0388201 9.95995 
9.75955 -0.00441588 0.00121892 
-0.00441588 9.73929 -0.0409158 
0.00121892 -0.0409158 9.94735 
9.24963 0.279736 -0.502205 
0.279736 10.087 0.705007 
-0.502205 0.705007 9.48328 
9.71598 0.0117335 -0.274702 
0.0117335 9.46826 -0.147044 
-0.274702 -0.147044 9.63565 
9.5649 -0.211465 -0.758015 
-0.211465 9.82382 -0.169566 
-0.758015 -0.169566 9.43117 
9.70629 0.0254466 -0.591116 
0.0254466 9.75269 0.298949 
-0.591116 0.298949 9.36091 
9.73906 0.0175898 0.281186 
0.0175898 9.76313 0.167949 
0.281186 0.167949 9.80292 
9.7948 0.00105711 0.283212 
0.00105711 9.77646 0.151598 
0.283212 0.151598 9.73385 
9.7821 0.00151554 0.272796 
0.00151554 9.76458 0.158765 
0.272796 0.158765 9.75843 
9.78149 -0.00425924 0.261933 
-0.00425924 9.77009 0.155889 
0.261933 0.155889 9.75352 
9.73008 0.000513699 -0.123508 
0.000513699 9.75217 -0.281235 
-0.123508 -0.281235 9.72486 
9.7342 0.00820353 -0.130322 
0.00820353 9.76281 -0.287964 
-0.130322 -0.287964 9.71011 
9.73328 0.0108562 -0.120596 
0.0108562 9.75116 -0.282865 
-0.120596 -0.282865 9.72268 
9.73139 0.0104194 -0.121878 
0.0104194 9.74765 -0.278063 
-0.121878 -0.278063 9.72809 
9.37389 -0.380813 0.0960442 
-0.380813 9.38741 0.279355 
0.0960442 0.279355 10.8523 
9.40648 -0.0921046 0.151998 
-0.0921046 9.7242 0.189569 
0.151998 0.189569 10.4829 
9.43432 -0.416467 0.176718 
-0.416467 9.47509 0.207727 
0.176718 0.207727 10.7041 
9.65997 -0.401857 0.124816 
-0.401857 9.44433 0.214244 
0.124816 0.214244 10.5093 
9.76534 -0.0267342 -0.283084 
-0.0267342 9.68468 0.0983819 
-0.283084 0.0983819 9.70338 
9.7399 -0.0260479 -0.280191 
-0.0260479 9.71371 0.0714697 
-0.280191 0.0714697 9.69979 
9.75232 -0.0257399 -0.266034 
-0.0257399 9.70657 0.0997541 
-0.266034 0.0997541 9.69451 
9.74853 -0.00232642 -0.269986 
-0.00232642 9.70406 0.123795 
-0.269986 0.123795 9.70081 
4.83365 -0.564007 -1.00868 
-0.564007 5.49239 0.784368 
-1.00868 0.784368 0.858225 
3.41495 0.984311 -0.903819 
0.984311 4.81965 -0.259921 
-0.903819 -0.259921 2.94966 
5.62183 -0.362639 -0.23056 
-0.362639 6.35074 -0.573005 
-0.23056 -0.573005 -0.788312 
3.89178 -0.339949 -2.77841 
-0.339949 4.89892 -0.115746 
-2.77841 -0.115746 2.39357 
9.44744 0.0689107 -0.227419 
0.0689107 9.5553 0.263899 
-0.227419 0.263899 9.6219 
9.79458 -0.150601 -0.235883 
-0.150601 9.47409 0.20641 
-0.235883 0.20641 9.35598 
9.19388 0.218551 -0.154667 
0.218551 9.60944 0.190725 
-0.154667 0.190725 9.82134 
9.38225 0.0869979 -0.589954 
0.0869979 9.5194 0.228794 
-0.589954 0.228794 9.72301 
9.76584 -0.0039123 -0.319976 
-0.0039123 9.73066 -0.0898503 
-0.319976 -0.0898503 9.72894 
9.76597 0.00381806 -0.315934 
0.00381806 9.7336 -0.0818307 
-0.315934 -0.0818307 9.72588 
9.75741 -7.05329e-05 -0.314668 
-7.05329e-05 9.72587 -0.0683434 
-0.314668 -0.0683434 9.74217 
9.76003 0.0123499 -0.306768 
0.0123499 9.7687 -0.0974553 
-0.306768 -0.0974553 9.69672 
8.20968 0.922012 0.255882 
0.922012 9.30321 -0.0212958 
0.255882 -0.0212958 7.26369 
9.4995 -0.84313 0.79165 
-0.84313 9.2248 -0.713075 
0.79165 -0.713075 6.05228 
9.09118 -0.802255 1.6378 
-0.802255 9.01573 -1.09374 
1.6378 -1.09374 6.66968 
9.87914 -0.536072 0.932457 
-0.536072 9.27279 -0.218836 
0.932457 -0.218836 5.62465 
12.16 1.82877 2.18853 
1.82877 6.97024 -6.30371 
2.18853 -6.30371 7.80361 
11.9974 0.425434 0.356852 
0.425434 5.06539 -1.68251 
0.356852 -1.68251 9.87105 
7.98288 0.339253 1.6523 
0.339253 9.05962 -5.05293 
1.6523 -5.05293 9.89137 
7.606 0.919506 0.709782 
0.919506 12.44 -0.907912 
0.709782 -0.907912 6.88785 
8.4674 -0.234308 0.194891 
-0.234308 9.15041 0.944194 
0.194891 0.944194 2.59945 
8.4353 0.139497 -1.046 
0.139497 6.93068 -0.38153 
-1.046 -0.38153 4.85129 
8.52932 0.322814 0.0412571 
0.322814 7.81549 0.223542 
0.0412571 0.223542 3.87246 
8.79597 0.21488 -0.307776 
0.21488 8.41913 0.364627 
-0.307776 0.364627 3.00217 
9.76254 0.0535177 -0.0185426 
0.0535177 9.55374 -0.00570059 
-0.0185426 -0.00570059 9.6573 
9.82068 0.06803 -0.0786569 
0.06803 9.60098 -0.0304719 
-0.0786569 -0.0304719 9.55191 
9.67928 -0.0276809 -0.154726 
-0.0276809 9.62657 -0.0713089 
-0.154726 -0.0713089 9.66773 
9.79675 0.0388886 -0.0669137 
0.0388886 9.58634 -0.0703358 
-0.0669137 -0.0703358 9.59049 
9.4704 -0.00984044 0.744978 
-0.00984044 9.96205 0.220293 
0.744978 0.220293 8.50569 
9.70929 0.101327 1.22118 
0.101327 10.068 -0.3335 
1.22118 -0.3335 8.1608 
9.89791 0.360015 0.958499 
0.360015 9.79931 -0.0662979 
0.958499 -0.0662979 8.24091 
9.55454 0.651956 0.865614 
0.651956 10.164 -0.582156 
0.865614 -0.582156 8.21962 
10.1607 -0.00382685 -0.00125782 
-0.00382685 10.1489 0.0152488 
-0.00125782 0.0152488 9.99015 
10.1713 -0.00271324 0.0189122 
-0.00271324 10.1681 0.00945767 
0.0189122 0.00945767 9.96036 
10.1572 0.000294828 0.00492452 
0.000294828 10.148 -0.0134309 
0.00492452 -0.0134309 9.9945 
10.1809 -0.00543103 0.0251103 
-0.00543103 10.1684 0.0154141 
0.0251103 0.0154141 9.95044 
9.74792 -0.0120171 -0.259554 
-0.0120171 9.71672 0.0440575 
-0.259554 0.0440575 9.73125 
9.73039 0.0224533 -0.283454 
0.0224533 9.73068 0.0727151 
-0.283454 0.0727151 9.73482 
9.76524 -0.0136219 -0.280304 
-0.0136219 9.73255 0.036642 
-0.280304 0.036642 9.6981 
9.77776 -0.0306843 -0.275741 
-0.0306843 9.70582 0.0507365 
-0.275741 0.0507365 9.71231 
9.5917 0.0786241 -0.213152 
0.0786241 9.63081 -0.145667 
-0.213152 -0.145667 9.66268 
9.18791 -0.185527 -0.261159 
-0.185527 9.69839 -0.17998 
-0.261159 -0.17998 9.99889 
9.51352 -0.068233 -0.262626 
-0.068233 9.66442 -0.185955 
-0.262626 -0.185955 9.70724 
9.60433 -0.0715778 -0.331676 
-0.0715778 9.553 -0.151173 
-0.331676 -0.151173 9.72787 
10.1845 0.00642467 -0.00979497 
0.00642467 10.202 0.0342204 
-0.00979497 0.0342204 9.9495 
10.1653 0.0121847 0.00905754 
0.0121847 10.1829 0.0117481 
0.00905754 0.0117481 9.9879 
10.157 0.022473 -0.00683423 
0.022473 10.1796 0.0114353 
-0.00683423 0.0114353 9.99953 
10.1798 0.0110445 -0.000800964 
0.0110445 10.19 0.0347604 
-0.000800964 0.0347604 9.96625 
9.76492 0.0110293 -0.133837 
0.0110293 9.75437 -0.275056 
-0.133837 -0.275056 9.70732 
9.75391 0.0178428 -0.135204 
0.0178428 9.75742 -0.29771 
-0.135204 -0.29771 9.71527 
9.74665 0.0217435 -0.140413 
0.0217435 9.75456 -0.291817 
-0.140413 -0.291817 9.72539 
9.7477 0.0167433 -0.143534 
0.0167433 9.74934 -0.294755 
-0.143534 -0.294755 9.72957 
9.74313 0.0105894 -0.0230415 
0.0105894 9.69835 -0.0182764 
-0.0230415 -0.0182764 9.82868 
9.71365 0.0160709 0.00261216 
0.0160709 9.70479 -0.00112637 
0.00261216 -0.00112637 9.85172 
9.70108 0.0222485 -0.0211593 
0.0222485 9.70942 0.0121728 
-0.0211593 0.0121728 9.85966 
9.72461 0.0343919 0.0477257 
0.0343919 9.69098 -0.0101166 
0.0477257 -0.0101166 9.85456 
9.53305 -0.099741 0.00454215 
-0.099741 9.58837 0.0752248 
0.00454215 0.0752248 10.2248 
9.81424 -0.0346035 -0.0506807 
-0.0346035 9.53557 -0.0246764 
-0.0506807 -0.0246764 9.99643 
9.58134 -0.0456277 0.165645 
-0.0456277 9.6829 0.157959 
0.165645 0.157959 10.082 
9.66681 -0.0776437 0.0606601 
-0.0776437 9.6081 0.105512 
0.0606601 0.105512 10.0713 
9.49957 0.0389674 0.257853 
0.0389674 9.5219 -0.131196 
0.257853 -0.131196 9.68653 
9.49194 -0.00274782 0.285622 
-0.00274782 9.60996 -0.22194 
0.285622 -0.22194 9.6061 
9.5198 -0.0153308 0.326136 
-0.0153308 9.47263 -0.156213 
0.326136 -0.156213 9.71558 
9.46721 0.0156258 0.356769 
0.0156258 9.48392 -0.158686 
0.356769 -0.158686 9.75688 
9.69757 -0.014132 0.00144703 
-0.014132 9.67838 -0.0442181 
0.00144703 -0.0442181 9.88748 
9.72809 -0.0121008 -0.0107308 
-0.0121008 9.71116 -0.0309161 
-0.0107308 -0.0309161 9.82417 
9.69353 -0.0238101 0.107429 
-0.0238101 9.7272 0.0390879 
0.107429 0.0390879 9.8427 
9.75737 -0.0164996 -0.0199159 
-0.0164996 9.66553 -0.0193465 
-0.0199159 -0.0193465 9.84052 
9.71354 -0.00577613 -0.27555 
-0.00577613 9.83739 -0.0212688 
-0.27555 -0.0212688 9.83557 
9.70797 -0.088468 -0.218879 
-0.088468 9.75811 -0.0358997 
-0.218879 -0.0358997 9.92043 
9.77359 -0.0106937 -0.336294 
-0.0106937 9.69419 -0.102358 
-0.336294 -0.102358 9.91872 
9.79874 -0.076242 -0.285857 
-0.076242 9.85609 0.0157793 
-0.285857 0.0157793 9.73167 
9.47159 0.150534 0.0215306 
0.150534 9.52688 -0.146024 
0.0215306 -0.146024 9.68966 
9.5619 0.100157 0.052536 
0.100157 9.68653 -0.0173633 
0.052536 -0.0173633 9.4397 
9.60581 0.0716695 0.00278039 
0.0716695 9.6563 0.0577538 
0.00278039 0.0577538 9.42602 
9.54203 0.0580517 0.238564 
0.0580517 9.83647 -0.0011775 
0.238564 -0.0011775 9.30962 
9.32152 0.281237 -0.189355 
0.281237 10.1465 0.129641 
-0.189355 0.129641 10.2535 
9.49151 0.619518 -0.122166 
0.619518 10.1345 0.0766297 
-0.122166 0.0766297 10.0955 
10.0468 -0.252768 0.284844 
-0.252768 9.45127 -0.50005 
0.284844 -0.50005 10.2235 
9.06924 0.841847 0.166421 
0.841847 9.92397 -0.165179 
0.166421 -0.165179 10.7283 
1.98051 1.32484 0.320333 
1.32484 4.66962 -2.68937 
0.320333 -2.68937 10.3097 
8.67947 4.62565 3.19926 
4.62565 19.0063 9.28053 
3.19926 9.28053 -10.7259 
6.82274 0.124049 3.75347 
0.124049 11.6385 4.52159 
3.75347 4.52159 -1.50137 
6.17268 -3.29006 4.72904 
-3.29006 1.09966 5.6586 
4.72904 5.6586 9.6875 
10.3509 -0.32969 -1.2929 
-0.32969 9.08855 3.91837 
-1.2929 3.91837 6.80912 
8.95128 -0.408757 -0.484222 
-0.408757 10.132 1.94371 
-0.484222 1.94371 7.1653 
9.99662 -0.519595 0.218386 
-0.519595 10.0684 1.76745 
0.218386 1.76745 6.18356 
7.33612 -0.84546 0.244622 
-0.84546 7.1595 0.866335 
0.244622 0.866335 11.7529 
6.55244 3.50551 0.595943 
3.50551 11.3351 0.858013 
0.595943 0.858013 18.184 
4.63791 1.74313 0.357766 
1.74313 11.5907 0.0308933 
0.357766 0.0308933 19.8429 
9.08922 0.970171 -0.857589 
0.970171 13.3333 0.144072 
-0.857589 0.144072 13.649 
9.88974 1.00414 0.911648 
1.00414 11.8107 -0.139524 
0.911648 -0.139524 14.3711 
8.9622 -0.120835 -0.136769 
-0.120835 9.44748 -0.423148 
-0.136769 -0.423148 10.079 
9.07268 0.255363 -0.531859 
0.255363 9.37071 -0.393587 
-0.531859 -0.393587 10.0452 
9.2872 0.0581637 -0.317487 
0.0581637 9.32317 -0.473301 
-0.317487 -0.473301 9.87827 
9.51413 0.0333546 -0.300568 
0.0333546 9.25469 -0.350375 
-0.300568 -0.350375 9.71982 
8.39646 0.586143 -0.491942 
0.586143 8.70694 -0.0636421 
-0.491942 -0.0636421 10.2581 
9.36942 0.654053 0.717049 
0.654053 8.11664 0.4149 
0.717049 0.4149 9.87544 
9.37115 0.520011 0.576309 
0.520011 8.30473 0.0175125 
0.576309 0.0175125 9.68562 
9.51721 0.90784 0.0754851 
0.90784 7.99008 1.03584 
0.0754851 1.03584 9.85421 
9.63184 -0.0178378 0.303013 
-0.0178378 9.58985 0.105637 
0.303013 0.105637 9.69703 
9.61622 0.000744475 0.352665 
0.000744475 9.60681 0.118388 
0.352665 0.118388 9.6957 
9.57394 -0.0127007 0.284841 
-0.0127007 9.55443 0.159317 
0.284841 0.159317 9.79036 
9.62596 -0.0146625 0.330622 
-0.0146625 9.60951 0.125714 
0.330622 0.125714 9.68325 
9.66509 0.00822947 -0.0388415 
0.00822947 9.66962 0.346704 
-0.0388415 0.346704 9.71627 
9.69019 -0.0198078 -0.0352659 
-0.0198078 9.74654 0.328967 
-0.0352659 0.328967 9.61425 
9.69711 0.0106699 -0.0225423 
0.0106699 9.66535 0.343933 
-0.0225423 0.343933 9.68852 
9.68143 0.0148882 -0.00479246 
0.0148882 9.68717 0.325635 
-0.00479246 0.325635 9.68239 
9.45622 0.000421263 -0.0632056 
0.000421263 9.41178 -0.323527 
-0.0632056 -0.323527 9.69982 
9.47962 -0.0932749 -0.142669 
-0.0932749 9.38211 -0.425431 
-0.142669 -0.425431 9.70609 
9.50054 -0.0205087 -0.141038 
-0.0205087 9.42906 -0.362027 
-0.141038 -0.362027 9.63824 
9.4988 0.0300061 -0.133475 
0.0300061 9.39892 -0.370719 
-0.133475 -0.370719 9.67011 
10.1127 -0.382656 0.402578 
-0.382656 10.4859 0.0756688 
0.402578 0.0756688 12.3397 
10.1178 -0.964469 -0.0591165 
-0.964469 10.8389 -0.242258 
-0.0591165 -0.242258 11.9815 
10.1679 -0.626263 -0.139146 
-0.626263 10.7353 -0.00302137 
-0.139146 -0.00302137 12.035 
10.729 0.58875 -0.958619 
0.58875 11.2341 -0.243889 
-0.958619 -0.243889 10.9752 
9.5335 -0.385288 -0.139894 
-0.385288 9.51486 -1.0941 
-0.139894 -1.0941 9.55774 
9.34271 -0.269824 -0.0856595 
-0.269824 9.42065 -0.64034 
-0.0856595 -0.64034 9.84275 
9.19708 -0.130781 0.0492221 
-0.130781 9.14718 -0.637384 
0.0492221 -0.637384 10.2618 
8.78582 -0.237949 -0.0249633 
-0.237949 9.92099 0.0225595 
-0.0249633 0.0225595 9.8993 
9.74895 0.00319824 -0.218908 
0.00319824 9.75698 -0.0471586 
-0.218908 -0.0471586 9.74447 
9.75502 0.0199217 -0.219232 
0.0199217 9.74527 -0.0753834 
-0.219232 -0.0753834 9.7501 
9.7555 0.0254743 -0.308649 
0.0254743 9.70221 -0.0305047 
-0.308649 -0.0305047 9.79268 
9.80578 0.00663096 -0.24537 
0.00663096 9.77636 -0.0690855 
-0.24537 -0.0690855 9.66825 
10.5475 1.24877 -1.45117 
1.24877 12.9949 0.0890564 
-1.45117 0.0890564 16.9307 
13.3496 0.927473 -0.45703 
0.927473 16.5329 -0.30642 
-0.45703 -0.30642 10.5906 
10.5677 1.22249 -0.919535 
1.22249 13.096 1.25439 
-0.919535 1.25439 16.8093 
11.0913 1.50415 1.16013 
1.50415 13.3698 -0.420029 
1.16013 -0.420029 16.0119 
9.65793 0.017255 0.13667 
0.017255 9.703 0.316102 
0.13667 0.316102 9.68044 
9.66122 0.00878771 0.145785 
0.00878771 9.68909 0.307299 
0.145785 0.307299 9.69106 
9.6558 0.0262382 0.142575 
0.0262382 9.72742 0.30444 
0.142575 0.30444 9.65815 
9.66991 0.0104573 0.130253 
0.0104573 9.71152 0.310655 
0.130253 0.310655 9.65995 
9.14888 -0.145375 0.0346566 
-0.145375 9.81017 0.107542 
0.0346566 0.107542 10.9107 
9.19712 -0.0907144 0.0181315 
-0.0907144 9.94411 0.133302 
0.0181315 0.133302 10.7285 
9.00322 -0.259126 0.0287981 
-0.259126 9.896 -0.113123 
0.0287981 -0.113123 10.9705 
9.18023 -0.0598989 0.00417186 
-0.0598989 9.76841 0.130633 
0.00417186 0.130633 10.9211 
13.0968 0.570318 -2.65163 
0.570318 9.61385 -3.20256 
-2.65163 -3.20256 -7.30777 
11.0178 1.91416 -3.52016 
1.91416 9.74512 -0.473963 
-3.52016 -0.473963 -5.36002 
1.10167 0.541772 2.53178 
0.541772 0.123269 0.702626 
2.53178 0.702626 14.1779 
-0.823919 -4.20918 -13.0164 
-4.20918 7.55439 -5.24318 
-13.0164 -5.24318 8.67239 
9.73993 0.0173631 -0.125172 
0.0173631 9.75143 -0.222445 
-0.125172 -0.222445 9.70451 
9.69014 0.00975929 -0.151522 
0.00975929 9.77186 -0.170307 
-0.151522 -0.170307 9.73387 
9.75769 0.0226189 -0.121973 
0.0226189 9.80022 -0.240991 
-0.121973 -0.240991 9.63795 
9.76083 0.0196261 -0.119566 
0.0196261 9.70267 -0.245357 
-0.119566 -0.245357 9.73236 
9.6751 0.0120422 -0.18605 
0.0120422 9.58145 -0.0366583 
-0.18605 -0.0366583 9.5882 
9.70463 0.0323356 -0.167289 
0.0323356 9.60172 -0.0182182 
-0.167289 -0.0182182 9.5384 
9.73296 0.0117702 -0.150317 
0.0117702 9.59367 -0.0364278 
-0.150317 -0.0364278 9.51812 
9.74829 0.0573686 -0.147414 
0.0573686 9.59238 -0.0747977 
-0.147414 -0.0747977 9.50408 
9.62792 0.0348667 -0.110443 
0.0348667 9.6538 -0.267192 
-0.110443 -0.267192 9.52952 
9.66839 0.0402933 -0.128576 
0.0402933 9.65452 -0.217649 
-0.128576 -0.217649 9.48833 
9.63176 0.06796 -0.0951972 
0.06796 9.65289 -0.256295 
-0.0951972 -0.256295 9.5266 
9.64166 0.0444117 -0.10461 
0.0444117 9.65051 -0.23456 
-0.10461 -0.23456 9.51907 
9.44973 0.0949629 0.0794482 
0.0949629 9.38442 -0.264313 
0.0794482 -0.264313 9.74377 
9.94096 0.106143 0.331746 
0.106143 8.90391 -0.6204 
0.331746 -0.6204 9.73305 
9.64055 -0.00861968 0.0612435 
-0.00861968 9.48424 -0.504184 
0.0612435 -0.504184 9.45314 
9.40742 0.0700602 0.124336 
0.0700602 9.6877 -0.53118 
0.124336 -0.53118 9.4828 
10.6119 -0.389241 0.593747 
-0.389241 10.4766 0.631416 
0.593747 0.631416 14.5207 
13.4931 1.34087 -0.0460502 
1.34087 11.4981 -0.634411 
-0.0460502 -0.634411 10.6181 
11.7836 -0.39539 0.464416 
-0.39539 8.82615 -0.317568 
0.464416 -0.317568 14.9995 
12.3865 -0.495876 -1.54673 
-0.495876 10.0129 -0.278095 
-1.54673 -0.278095 13.2098 
6.43368 3.32898 1.04001 
3.32898 12.0205 2.22942 
1.04001 2.22942 13.3724 
15.2305 -3.22677 -1.60172 
-3.22677 8.97576 -3.44144 
-1.60172 -3.44144 7.62032 
12.6955 -2.22825 -3.16471 
-2.22825 0.738271 -1.59276 
-3.16471 -1.59276 18.3928 
9.39424 -1.94716 1.94797 
-1.94716 12.257 -2.03203 
1.94797 -2.03203 10.1754 
9.69121 0.0028034 0.00659811 
0.0028034 9.73986 0.00218369 
0.00659811 0.00218369 9.96045 
9.71211 -0.0283547 0.00389028 
-0.0283547 9.71226 -0.0241794 
0.00389028 -0.0241794 9.96715 
9.71518 0.0127521 -0.0404783 
0.0127521 9.71219 -0.00380523 
-0.0404783 -0.00380523 9.96414 
9.68315 -0.0613982 0.0343664 
-0.0613982 9.66648 0.0085907 
0.0343664 0.0085907 10.0419 
10.093 -0.0229026 -0.0177574 
-0.0229026 10.0705 0.0134268 
-0.0177574 0.0134268 10.1658 
10.1302 0.000436367 0.0103411 
0.000436367 10.074 0.0101231 
0.0103411 0.0101231 10.1251 
10.1454 -0.0370654 0.0339629 
-0.0370654 10.1043 -0.030001 
0.0339629 -0.030001 10.0796 
10.118 -0.025282 0.0401685 
-0.025282 10.1162 0.00313479 
0.0401685 0.00313479 10.0951 
9.97352 -0.0219209 0.000554504 
-0.0219209 9.98198 0.00233564 
0.000554504 0.00233564 9.94393 
9.9693 -0.0164147 0.0183595 
-0.0164147 9.95307 -0.00122852 
0.0183595 -0.00122852 9.97706 
10.0141 -0.0422389 -0.0197043 
-0.0422389 9.97042 0.0519539 
-0.0197043 0.0519539 9.91496 
9.92981 0.0465912 0.00371873 
0.0465912 9.8303 -0.0900606 
0.00371873 -0.0900606 10.1393 
9.75194 -0.0131255 0.230179 
-0.0131255 9.741 -0.238788 
0.230179 -0.238788 9.70375 
9.76299 -0.0168943 0.205968 
-0.0168943 9.7798 -0.235419 
0.205968 -0.235419 9.6539 
9.74958 -0.0184708 0.231322 
-0.0184708 9.73685 -0.241754 
0.231322 -0.241754 9.71026 
9.70633 -0.0171103 0.219234 
-0.0171103 9.7255 -0.200816 
0.219234 -0.200816 9.76486 
9.8035 -0.00256594 -0.0873551 
-0.00256594 9.73309 -0.299448 
-0.0873551 -0.299448 9.73552 
9.73517 0.00939577 -0.115979 
0.00939577 9.7849 -0.308222 
-0.115979 -0.308222 9.75204 
9.76345 0.00992633 -0.0822798 
0.00992633 9.75519 -0.303726 
-0.0822798 -0.303726 9.75347 
9.76007 0.00719821 -0.0894154 
0.00719821 9.7639 -0.307408 
-0.0894154 -0.307408 9.74814 
9.6864 -0.0456435 -0.125489 
-0.0456435 9.57655 0.166235 
-0.125489 0.166235 9.7831 
9.67382 0.186949 -0.169587 
0.186949 9.53039 0.35139 
-0.169587 0.35139 9.84184 
9.75325 -0.0810035 -0.118803 
-0.0810035 9.64658 0.133499 
-0.118803 0.133499 9.64622 
9.70085 0.0160132 -0.00511441 
0.0160132 9.44498 0.238054 
-0.00511441 0.238054 9.90021 
8.41683 0.593254 -1.85852 
0.593254 9.94798 -0.275402 
-1.85852 -0.275402 10.6899 
9.08363 0.466187 -0.866514 
0.466187 9.8609 0.645799 
-0.866514 0.645799 10.1102 
8.24736 0.355328 -0.770838 
0.355328 10.3539 0.202656 
-0.770838 0.202656 10.4534 
9.64457 0.731378 -1.33295 
0.731378 9.23633 -0.668754 
-1.33295 -0.668754 10.1738 
9.56902 0.0487852 -0.107133 
0.0487852 9.56059 -0.0537075 
-0.107133 -0.0537075 9.87924 
9.51725 0.0912226 -0.0831585 
0.0912226 9.59858 -0.113305 
-0.0831585 -0.113305 9.89302 
9.54704 0.0154159 -0.0507389 
0.0154159 9.59785 -0.0144533 
-0.0507389 -0.0144533 9.86397 
9.60712 0.044679 -0.168645 
0.044679 9.48231 -0.0597027 
-0.168645 -0.0597027 9.91942 
9.62928 -0.0269941 -0.287272 
-0.0269941 9.48536 -0.0743752 
-0.287272 -0.0743752 9.59087 
9.49651 -0.0362228 -0.27571 
-0.0362228 9.59697 -0.0852915 
-0.27571 -0.0852915 9.61203 
9.58023 -0.0266787 -0.315085 
-0.0266787 9.53426 -0.117687 
-0.315085 -0.117687 9.59102 
9.55415 -0.00915147 -0.298075 
-0.00915147 9.55449 -0.125769 
-0.298075 -0.125769 9.59688 
9.82534 0.00123904 -0.00968253 
0.00123904 9.82012 0.0120577 
-0.00968253 0.0120577 9.95629 
9.80752 -0.0150431 -0.0142685 
-0.0150431 9.79839 0.000811081 
-0.0142685 0.000811081 9.99583 
9.82081 -0.00351097 0.00595 
-0.00351097 9.82251 -0.0530717 
0.00595 -0.0530717 9.95842 
9.82981 -0.00306443 -0.0400853 
-0.00306443 9.82801 -0.0808994 
-0.0400853 -0.0808994 9.94393 
7.96976 -0.145937 4.91405 
-0.145937 9.05851 2.13842 
4.91405 2.13842 9.72084 
7.41923 -0.739996 4.03336 
-0.739996 10.504 1.39117 
4.03336 1.39117 8.82588 
9.1818 1.29043 2.14953 
1.29043 10.0232 0.644891 
2.14953 0.644891 7.54415 
6.9002 -2.94764 1.73909 
-2.94764 9.68407 0.283983 
1.73909 0.283983 10.1648 
9.61064 -0.0361619 -0.0818844 
-0.0361619 9.64241 -0.116618 
-0.0818844 -0.116618 10.0885 
9.74844 -0.0558849 -0.00937057 
-0.0558849 9.53674 -0.0572886 
-0.00937057 -0.0572886 10.0564 
9.67894 -0.0715492 -0.0349927 
-0.0715492 9.52 -0.0898525 
-0.0349927 -0.0898525 10.1426 
9.57099 -0.137314 -0.0296003 
-0.137314 9.67165 -0.0266078 
-0.0296003 -0.0266078 10.0989 
9.79046 -0.0350404 -0.0646587 
-0.0350404 9.76735 0.0262317 
-0.0646587 0.0262317 9.83271 
9.79002 -0.0194971 -0.0518082 
-0.0194971 9.73968 -1.28953e-06 
-0.0518082 -1.28953e-06 9.86083 
9.83292 -0.0140219 -0.0419338 
-0.0140219 9.74017 0.0451363 
-0.0419338 0.0451363 9.81743 
9.82034 -0.0473674 -0.0972324 
-0.0473674 9.77472 0.0240229 
-0.0972324 0.0240229 9.79546 
9.78672 0.00481993 -0.295493 
0.00481993 9.75387 -0.118193 
-0.295493 -0.118193 9.74842 
9.76681 -0.00771869 -0.28847 
-0.00771869 9.77121 -0.129897 
-0.28847 -0.129897 9.75099 
9.76276 -0.000620975 -0.294368 
-0.000620975 9.7797 -0.113085 
-0.294368 -0.113085 9.74655 
9.76588 0.0061044 -0.298233 
0.0061044 9.77401 -0.123379 
-0.298233 -0.123379 9.74912 
9.85355 0.0397685 0.0656889 
0.0397685 9.90924 0.085123 
0.0656889 0.085123 9.83206 
9.81208 0.0276553 0.0642353 
0.0276553 9.91317 0.106555 
0.0642353 0.106555 9.8696 
9.87154 0.045376 0.106522 
0.045376 9.853 0.0686841 
0.106522 0.0686841 9.87032 
9.87874 0.0118155 0.0973285 
0.0118155 9.83939 0.0754236 
0.0973285 0.0754236 9.87672 
9.70794 0.0360282 0.0428711 
0.0360282 9.64628 -0.379804 
0.0428711 -0.379804 9.59099 
9.72855 0.0304373 -0.0728244 
0.0304373 9.59067 -0.372084 
-0.0728244 -0.372084 9.626 
9.68619 0.00604155 -0.00985582 
0.00604155 9.63363 -0.34368 
-0.00985582 -0.34368 9.6254 
9.62582 -0.00801827 -0.00993721 
-0.00801827 9.65713 -0.371666 
-0.00993721 -0.371666 9.66226 
9.04363 -0.0970528 5.15288 
-0.0970528 8.66413 2.44983 
5.15288 2.44983 6.98026 
8.2869 -1.09941 4.3148 
-1.09941 10.0375 2.47338 
4.3148 2.47338 6.36363 
7.0351 -0.867158 3.5745 
-0.867158 9.94056 1.99061 
3.5745 1.99061 7.71235 
10.4067 -0.680193 0.958063 
-0.680193 7.733 1.02622 
0.958063 1.02622 6.54826 
9.78399 0.205102 -0.00764373 
0.205102 9.53859 -0.149737 
-0.00764373 -0.149737 9.69371 
9.48306 -0.111826 -0.281082 
-0.111826 9.77046 -0.0633903 
-0.281082 -0.0633903 9.76278 
9.45587 -0.0748122 -0.184243 
-0.0748122 9.72964 -0.0879149 
-0.184243 -0.0879149 9.83079 
9.43586 0.0962389 -0.237226 
0.0962389 9.72334 0.027268 
-0.237226 0.027268 9.8571 
9.17609 0.631612 0.710822 
0.631612 9.42646 -0.779488 
0.710822 -0.779488 9.77597 
8.32973 0.886319 0.0645342 
0.886319 9.46961 -0.572444 
0.0645342 -0.572444 10.5792 
9.3087 0.176244 0.448543 
0.176244 9.378 -0.375431 
0.448543 -0.375431 9.69182 
8.71451 0.726138 0.0261432 
0.726138 9.36332 -0.876597 
0.0261432 -0.876597 10.3007 
10.1469 -0.0895312 -0.362111 
-0.0895312 10.1526 -0.297567 
-0.362111 -0.297567 8.78234 
9.43953 -0.159321 0.231612 
-0.159321 9.61613 0.308957 
0.231612 0.308957 10.0262 
9.99463 -0.0296288 -0.261543 
-0.0296288 9.79708 -0.609485 
-0.261543 -0.609485 9.29015 
10.0289 -0.0158841 -0.0352883 
-0.0158841 9.73794 -0.704986 
-0.0352883 -0.704986 9.31506 
9.53615 -0.127413 -0.216228 
-0.127413 9.46755 -0.364225 
-0.216228 -0.364225 9.33948 
9.36449 -0.0369525 -0.135698 
-0.0369525 9.7412 -0.075048 
-0.135698 -0.075048 9.23749 
9.40048 0.209214 -0.24023 
0.209214 9.84037 -0.182475 
-0.24023 -0.182475 9.10234 
9.20514 0.206739 -0.0759218 
0.206739 9.65615 -0.327691 
-0.0759218 -0.327691 9.4819 
5.07839 0.442877 -1.31858 
0.442877 5.63271 -0.281877 
-1.31858 -0.281877 1.54178 
5.46204 0.325834 -1.08641 
0.325834 5.59194 -0.869143 
-1.08641 -0.869143 1.19891 
5.60402 0.652506 -0.755834 
0.652506 6.07163 0.142863 
-0.755834 0.142863 0.57723 
4.64176 0.738761 -1.16256 
0.738761 4.84618 -0.39685 
-1.16256 -0.39685 2.76494 
10.1407 0.00249534 -0.00364462 
0.00249534 10.1514 -0.0276008 
-0.00364462 -0.0276008 9.92327 
10.1118 -0.000337376 -0.0299501 
-0.000337376 10.1142 -0.0109801 
-0.0299501 -0.0109801 9.98938 
10.0918 -0.00713571 0.00465441 
-0.00713571 10.0975 -0.0106535 
0.00465441 -0.0106535 10.026 
10.1258 0.00768651 -0.0205204 
0.00768651 10.147 -0.0557558 
-0.0205204 -0.0557558 9.94258 
9.72126 -0.0117816 -0.007055 
-0.0117816 9.73955 -0.0421044 
-0.007055 -0.0421044 9.96492 
9.76047 -0.0013121 0.0296689 
-0.0013121 9.7057 -0.0237433 
0.0296689 -0.0237433 9.95956 
9.73533 7.0412e-05 -4.31587e-05 
7.0412e-05 9.72627 -0.0324136 
-4.31587e-05 -0.0324136 9.96412 
9.75089 0.0241423 -0.00686837 
0.0241423 9.72215 -0.0509744 
-0.00686837 -0.0509744 9.95269 
9.69757 -0.0211207 -0.11364 
-0.0211207 9.72871 0.0752081 
-0.11364 0.0752081 9.90029 
9.73601 -0.014148 -0.112344 
-0.014148 9.71483 0.033693 
-0.112344 0.033693 9.87572 
9.63083 0.0294117 -0.104338 
0.0294117 9.82903 0.0415948 
-0.104338 0.0415948 9.86671 
9.70599 -0.0133471 -0.107922 
-0.0133471 9.74224 0.0477006 
-0.107922 0.0477006 9.87834 
9.76262 0.370192 0.703833 
0.370192 10.0136 -0.0801185 
0.703833 -0.0801185 10.4577 
9.60236 0.0610755 0.556839 
0.0610755 9.99966 -0.197277 
0.556839 -0.197277 10.632 
10.046 -0.114647 0.896193 
-0.114647 9.97665 -0.738659 
0.896193 -0.738659 10.2113 
9.14986 0.563889 0.931702 
0.563889 10.3591 -0.59844 
0.931702 -0.59844 10.725 
9.84077 0.010492 0.0853363 
0.010492 9.86619 0.0826905 
0.0853363 0.0826905 9.86725 
9.92164 0.0628037 0.0500537 
0.0628037 9.86114 0.0386766 
0.0500537 0.0386766 9.79144 
9.86881 -0.0151083 0.113713 
-0.0151083 9.86403 0.110767 
0.113713 0.110767 9.84138 
9.84061 0.0216263 0.0818595 
0.0216263 9.8308 0.0790976 
0.0818595 0.0790976 9.90282 
9.51116 -0.147795 -0.0278447 
-0.147795 9.61375 -0.0195994 
-0.0278447 -0.0195994 10.1217 
9.62329 -0.058379 0.0897561 
-0.058379 9.52701 0.0427842 
0.0897561 0.0427842 10.0963 
9.66675 -0.0466357 -0.0770921 
-0.0466357 9.6236 -0.0264416 
-0.0770921 -0.0264416 9.95623 
9.59501 0.0424665 -0.0546868 
0.0424665 9.67477 -0.00904263 
-0.0546868 -0.00904263 9.9768 
12.0992 0.31844 -0.0497088 
0.31844 10.738 0.477508 
-0.0497088 0.477508 12.5885 
11.5724 -0.0816734 0.0624041 
-0.0816734 9.75071 0.890109 
0.0624041 0.890109 14.1026 
11.7491 0.0723988 0.0209537 
0.0723988 10.4905 0.404361 
0.0209537 0.404361 13.1861 
12.3603 0.0312946 0.410801 
0.0312946 10.5765 0.974385 
0.410801 0.974385 12.489 
9.93533 0.0375592 0.0761086 
0.0375592 9.97787 -0.013702 
0.0761086 -0.013702 9.94197 
9.98283 -0.00431352 0.0290373 
-0.00431352 10.0321 -0.0282633 
0.0290373 -0.0282633 9.84028 
9.80605 0.00703678 0.0630027 
0.00703678 9.90577 -0.0203868 
0.0630027 -0.0203868 10.1433 
9.98313 -0.0167219 0.121112 
-0.0167219 10.0178 -0.0341575 
0.121112 -0.0341575 9.85428 
9.6069 -0.0558781 -0.124615 
-0.0558781 9.53903 -0.0589474 
-0.124615 -0.0589474 9.52094 
9.70831 -0.0955412 0.0564761 
-0.0955412 9.44095 -0.0719741 
0.0564761 -0.0719741 9.51761 
9.62932 -0.0323233 -0.0111073 
-0.0323233 9.4804 -0.0633833 
-0.0111073 -0.0633833 9.55715 
9.59242 -0.135618 0.0387469 
-0.135618 9.54189 -0.082997 
0.0387469 -0.082997 9.53256 
9.60032 0.00714088 -0.353774 
0.00714088 9.61338 -0.0563143 
-0.353774 -0.0563143 9.61667 
9.6449 -0.039884 -0.393821 
-0.039884 9.67698 -0.0238377 
-0.393821 -0.0238377 9.50848 
9.57372 0.0107602 -0.373196 
0.0107602 9.61671 -0.0390233 
-0.373196 -0.0390233 9.63994 
9.60864 -0.00436079 -0.263047 
-0.00436079 9.56819 -0.0498342 
-0.263047 -0.0498342 9.65354 
9.88268 0.00532895 0.0653801 
0.00532895 9.88501 0.0871171 
0.0653801 0.0871171 9.92018 
9.8828 0.0135861 0.059862 
0.0135861 9.88316 0.0546092 
0.059862 0.0546092 9.92191 
9.90837 0.0218776 0.0814691 
0.0218776 9.87407 0.0426909 
0.0814691 0.0426909 9.90543 
9.89763 0.00894697 0.0801242 
0.00894697 9.89011 0.0451234 
0.0801242 0.0451234 9.90012 
9.61429 -0.0526752 0.0585799 
-0.0526752 9.49518 0.318398 
0.0585799 0.318398 9.68982 
9.51485 -0.00039623 0.148186 
-0.00039623 9.71292 0.294337 
0.148186 0.294337 9.57151 
9.52453 -0.0104355 0.140358 
-0.0104355 9.59662 0.316655 
0.140358 0.316655 9.67813 
9.58921 0.034126 0.136862 
0.034126 9.56259 0.344636 
0.136862 0.344636 9.64748 
9.78499 -0.0862209 0.13366 
-0.0862209 9.75043 -0.109554 
0.13366 -0.109554 9.86449 
9.78302 -0.0182058 0.0700735 
-0.0182058 9.77604 -0.181893 
0.0700735 -0.181893 9.84085 
9.36249 0.16024 0.150921 
0.16024 9.92591 -0.0243465 
0.150921 -0.0243465 10.1115 
9.76014 0.152488 0.281367 
0.152488 9.79391 -0.0573269 
0.281367 -0.0573269 9.84587 
9.84758 -0.162124 -0.18412 
-0.162124 9.83419 0.0892175 
-0.18412 0.0892175 9.38388 
9.89466 0.14103 -0.103069 
0.14103 9.95935 0.0435216 
-0.103069 0.0435216 9.21164 
10.132 -0.234017 0.170485 
-0.234017 9.62007 0.331318 
0.170485 0.331318 9.31355 
9.73835 0.0698382 -0.261271 
0.0698382 9.68186 0.0289576 
-0.261271 0.0289576 9.64544 
9.62348 0.206685 -1.13573 
0.206685 9.52821 0.846697 
-1.13573 0.846697 7.59288 
9.89321 -0.226285 -1.08499 
-0.226285 9.51929 0.708477 
-1.08499 0.708477 7.33207 
10.0358 -0.176882 -1.11015 
-0.176882 9.34146 0.908259 
-1.11015 0.908259 7.36729 
9.76904 0.570853 -1.04819 
0.570853 10.2576 0.675741 
-1.04819 0.675741 6.71791 
10.0721 0.304679 0.0895297 
0.304679 9.27802 -0.088411 
0.0895297 -0.088411 10.0788 
9.516 -0.467499 0.0601851 
-0.467499 9.65958 0.488804 
0.0601851 0.488804 10.2533 
9.80542 0.291266 0.0934343 
0.291266 9.47293 -0.210578 
0.0934343 -0.210578 10.1506 
9.90291 0.308292 0.0670793 
0.308292 9.14514 0.0153079 
0.0670793 0.0153079 10.3809 
10.2785 0.10017 -0.0253335 
0.10017 10.1804 0.0507162 
-0.0253335 0.0507162 10.8717 
10.3539 0.125868 0.0152832 
0.125868 10.3062 0.0375063 
0.0152832 0.0375063 10.6705 
10.3049 0.184516 0.0209882 
0.184516 10.1795 0.0845495 
0.0209882 0.0845495 10.8462 
10.3867 0.120116 0.011644 
0.120116 10.2968 0.010411 
0.011644 0.010411 10.6471 
11.9242 -0.0973873 -0.378106 
-0.0973873 11.9728 -0.132559 
-0.378106 -0.132559 10.0316 
10.5088 -0.182708 0.0219837 
-0.182708 10.6656 -0.304959 
0.0219837 -0.304959 12.7542 
10.9327 0.0091661 0.127933 
0.0091661 10.9744 0.0545912 
0.127933 0.0545912 12.0215 
11.0781 -0.0902017 -0.402 
-0.0902017 11.0626 0.896827 
-0.402 0.896827 11.7879 
9.84069 -0.00456689 0.0859937 
-0.00456689 9.87399 -0.13894 
0.0859937 -0.13894 9.84163 
9.82457 -0.0299494 0.0658813 
-0.0299494 9.85126 -0.129025 
0.0658813 -0.129025 9.88047 
9.84413 -0.00103202 0.0712843 
-0.00103202 9.86103 -0.12711 
0.0712843 -0.12711 9.85115 
9.86256 -0.0617931 0.0287143 
-0.0617931 9.88431 -0.103175 
0.0287143 -0.103175 9.80944 
10.1229 -0.000986477 -0.0388788 
-0.000986477 10.1231 0.00597908 
-0.0388788 0.00597908 9.98912 
10.1521 -0.0106467 -0.0164085 
-0.0106467 10.1767 0.0485883 
-0.0164085 0.0485883 9.90631 
10.0924 -0.0220445 -0.0124371 
-0.0220445 10.1023 -0.00508815 
-0.0124371 -0.00508815 10.0404 
10.1232 -0.00981112 -0.0609601 
-0.00981112 10.1374 0.0415338 
-0.0609601 0.0415338 9.97445 
9.73131 -0.00588942 0.308317 
-0.00588942 9.77006 0.0941629 
0.308317 0.0941629 9.71991 
9.75648 0.00633081 0.314452 
0.00633081 9.73959 0.0856447 
0.314452 0.0856447 9.72522 
9.75351 0.00978955 0.313713 
0.00978955 9.72935 0.103837 
0.313713 0.103837 9.73843 
9.7528 0.0113039 0.314271 
0.0113039 9.74083 0.090071 
0.314271 0.090071 9.72765 
10.0522 -0.132356 -0.0486287 
-0.132356 9.99506 0.00791764 
-0.0486287 0.00791764 10.9001 
10.2612 -0.0137824 0.0343884 
-0.0137824 10.6071 -0.0523299 
0.0343884 -0.0523299 10.0792 
10.1223 -0.030207 0.162138 
-0.030207 10.0294 0.135431 
0.162138 0.135431 10.7957 
10.277 -0.197318 0.388313 
-0.197318 10.0946 -0.48813 
0.388313 -0.48813 10.5758 
9.72194 0.0263581 -0.186112 
0.0263581 9.75236 0.144032 
-0.186112 0.144032 9.84883 
9.66517 0.047185 -0.298354 
0.047185 9.79828 0.178822 
-0.298354 0.178822 9.85969 
9.71343 0.0149708 -0.236797 
0.0149708 9.77559 0.174897 
-0.236797 0.174897 9.83411 
9.80239 0.0118624 -0.248305 
0.0118624 9.80128 0.101488 
-0.248305 0.101488 9.71946 
11.1577 0.247033 0.611315 
0.247033 9.09353 0.779761 
0.611315 0.779761 7.94452 
10.5802 1.01384 1.31446 
1.01384 10.2453 -0.374146 
1.31446 -0.374146 7.3702 
9.78149 -0.0670478 2.00581 
-0.0670478 10.5216 -0.528009 
2.00581 -0.528009 7.89263 
9.34056 0.435471 2.77371 
0.435471 11.2539 -0.0417786 
2.77371 -0.0417786 7.60134 
9.18168 -0.223758 -0.11385 
-0.223758 9.84776 0.192381 
-0.11385 0.192381 9.85389 
9.9479 -0.185336 -0.42598 
-0.185336 9.35324 0.0893122 
-0.42598 0.0893122 9.58218 
9.28375 -0.44606 -0.0803996 
-0.44606 9.75693 0.356862 
-0.0803996 0.356862 9.84264 
9.25008 -0.226838 0.0477439 
-0.226838 9.72449 0.20705 
0.0477439 0.20705 9.90876 
9.39816 -0.0756357 -0.352167 
-0.0756357 9.65154 -0.036266 
-0.352167 -0.036266 9.58271 
9.51036 -0.0301256 -0.35514 
-0.0301256 9.44206 -0.104529 
-0.35514 -0.104529 9.68 
9.51778 0.0411342 -0.383284 
0.0411342 9.60516 -0.0442071 
-0.383284 -0.0442071 9.50948 
9.49993 0.0693829 -0.567711 
0.0693829 9.46368 -0.0355549 
-0.567711 -0.0355549 9.6688 
10.0509 -0.540299 -0.396579 
-0.540299 9.58944 -0.575459 
-0.396579 -0.575459 10.7179 
10.0466 -0.210732 -0.599176 
-0.210732 9.57219 -0.435905 
-0.599176 -0.435905 10.7394 
9.81703 -0.594138 -0.031059 
-0.594138 9.63339 -0.215396 
-0.031059 -0.215396 10.9078 
9.60478 -0.257892 -0.656949 
-0.257892 9.51065 -0.534222 
-0.656949 -0.534222 11.2428 
9.4411 -0.0429806 -0.407633 
-0.0429806 9.45141 0.153519 
-0.407633 0.153519 9.28994 
9.44738 -0.0823613 -0.330082 
-0.0823613 9.46173 0.1802 
-0.330082 0.1802 9.27334 
9.55015 -0.0652235 -0.442759 
-0.0652235 9.36151 0.169183 
-0.442759 0.169183 9.27079 
9.47151 -0.0418459 -0.481048 
-0.0418459 9.50543 0.0389312 
-0.481048 0.0389312 9.20551 
9.82736 -0.0550188 -0.0587541 
-0.0550188 9.86178 -0.0585385 
-0.0587541 -0.0585385 10.156 
9.99647 -0.0396783 -0.000316953 
-0.0396783 10.0613 -0.0823167 
-0.000316953 -0.0823167 9.78739 
9.89949 -0.0837803 -0.0987847 
-0.0837803 9.87109 -0.0427679 
-0.0987847 -0.0427679 10.0745 
9.95082 0.0103976 -0.146754 
0.0103976 9.90626 -0.164316 
-0.146754 -0.164316 9.98803 
10.1551 0.0154347 0.0130485 
0.0154347 10.164 -0.0223086 
0.0130485 -0.0223086 10.0034 
10.1935 -0.00789998 -0.0131573 
-0.00789998 10.1929 -0.0285594 
-0.0131573 -0.0285594 9.93613 
10.1604 -0.000423764 -0.0139208 
-0.000423764 10.1541 -0.00770549 
-0.0139208 -0.00770549 10.008 
10.1797 -0.00136802 -0.0125378 
-0.00136802 10.175 -0.0447547 
-0.0125378 -0.0447547 9.9678 
9.45035 0.0519973 -0.130087 
0.0519973 9.4799 -0.356647 
-0.130087 -0.356647 9.59891 
9.30716 -0.0898004 -0.075478 
-0.0898004 9.45783 -0.482025 
-0.075478 -0.482025 9.76416 
9.36025 0.151281 -0.265531 
0.151281 9.48101 -0.59499 
-0.265531 -0.59499 9.68789 
9.35586 0.0339952 -0.142226 
0.0339952 9.4966 -0.45461 
-0.142226 -0.45461 9.67669 
9.19661 -0.0535554 0.459652 
-0.0535554 9.66744 0.0419173 
0.459652 0.0419173 9.80614 
9.869 -0.0412591 0.0497884 
-0.0412591 9.34031 -0.0745686 
0.0497884 -0.0745686 9.46089 
9.33431 -0.0692262 0.215678 
-0.0692262 9.73353 -0.0470817 
0.215678 -0.0470817 9.60235 
9.34694 -0.27537 0.295345 
-0.27537 9.54966 0.136887 
0.295345 0.136887 9.77359 
9.77032 -0.0209559 0.10162 
-0.0209559 9.57614 -0.168256 
0.10162 -0.168256 9.66226 
9.36878 0.247773 -0.0659018 
0.247773 9.89646 0.0225758 
-0.0659018 0.0225758 9.74349 
9.65083 0.177861 -0.132188 
0.177861 9.73885 -0.00876262 
-0.132188 -0.00876262 9.61905 
9.56866 0.194733 -0.0677431 
0.194733 9.8281 -0.121067 
-0.0677431 -0.121067 9.61196 
9.71359 0.000550188 -0.15614 
0.000550188 9.80055 0.12049 
-0.15614 0.12049 10.0609 
9.86139 0.105926 -0.311209 
0.105926 9.77071 0.203393 
-0.311209 0.203393 9.94298 
9.83396 0.225923 -0.162055 
0.225923 9.82613 0.109014 
-0.162055 0.109014 9.91498 
9.78952 -0.0717938 -0.247957 
-0.0717938 9.92627 0.0244781 
-0.247957 0.0244781 9.85928 
9.94379 -0.00327855 -0.0206002 
-0.00327855 9.93109 -0.0058425 
-0.0206002 -0.0058425 9.94698 
9.93935 -0.0202482 -0.0225159 
-0.0202482 9.93106 -0.0113988 
-0.0225159 -0.0113988 9.95146 
9.93441 -0.00572481 -0.0460007 
-0.00572481 9.92452 0.00325407 
-0.0460007 0.00325407 9.96293 
9.91425 0.00949749 -0.0077974 
0.00949749 9.94806 -0.0122159 
-0.0077974 -0.0122159 9.95956 
9.79737 -0.025683 -0.190649 
-0.025683 9.79363 0.146498 
-0.190649 0.146498 9.71804 
9.82898 -0.00221372 -0.256333 
-0.00221372 9.79474 0.162444 
-0.256333 0.162444 9.68532 
9.78961 -0.0503717 -0.206843 
-0.0503717 9.79269 0.123798 
-0.206843 0.123798 9.72673 
9.74639 -0.00340661 -0.235921 
-0.00340661 9.70986 0.124075 
-0.235921 0.124075 9.85279 
9.51824 -0.153749 0.127532 
-0.153749 9.80819 0.177109 
0.127532 0.177109 9.46844 
9.58961 -0.0535434 0.21856 
-0.0535434 9.63703 0.0869518 
0.21856 0.0869518 9.56823 
9.39031 -0.173192 -0.0134569 
-0.173192 9.83629 -0.134319 
-0.0134569 -0.134319 9.56827 
9.60644 -0.00315486 -0.355491 
-0.00315486 9.6448 0.238563 
-0.355491 0.238563 9.54363 
9.71523 -0.0131133 0.0409866 
-0.0131133 9.69084 0.0353257 
0.0409866 0.0353257 9.96103 
9.71229 -0.00883207 0.0342427 
-0.00883207 9.68855 0.0215774 
0.0342427 0.0215774 9.96626 
9.71303 -0.0109169 0.0384468 
-0.0109169 9.67397 0.0275294 
0.0384468 0.0275294 9.98009 
9.69147 -0.013789 0.0209981 
-0.013789 9.69944 0.0128618 
0.0209981 0.0128618 9.97618 
9.52314 -0.00322695 0.396254 
-0.00322695 9.9902 -0.368011 
0.396254 -0.368011 8.74653 
9.6644 -0.129092 0.477448 
-0.129092 9.43812 -0.0820497 
0.477448 -0.0820497 9.15736 
9.44879 -0.00353123 0.191262 
-0.00353123 9.62362 -0.303989 
0.191262 -0.303989 9.18747 
9.52978 0.0921855 0.681458 
0.0921855 9.36203 -0.133575 
0.681458 -0.133575 9.36806 
9.6197 -0.00762641 0.3209 
-0.00762641 9.9238 -0.0746378 
0.3209 -0.0746378 9.95122 
9.7139 -0.00950487 0.149424 
-0.00950487 9.75028 -0.0210908 
0.149424 -0.0210908 10.0305 
9.62283 0.040082 0.154247 
0.040082 9.94614 -0.0324687 
0.154247 -0.0324687 9.92575 
9.88576 0.0195538 0.218211 
0.0195538 9.77562 -0.132035 
0.218211 -0.132035 9.83333 
9.76428 -0.0126808 -0.136483 
-0.0126808 9.77035 -0.0658552 
-0.136483 -0.0658552 9.80314 
9.86426 0.0256519 -0.141644 
0.0256519 9.77514 -0.0311037 
-0.141644 -0.0311037 9.69837 
9.81478 0.0331323 -0.193896 
0.0331323 9.74832 -0.0683769 
-0.193896 -0.0683769 9.77467 
9.83394 0.0497116 -0.131833 
0.0497116 9.78468 -0.0596119 
-0.131833 -0.0596119 9.71915 
10.5497 0.0924824 0.0646886 
0.0924824 9.06721 -0.0917301 
0.0646886 -0.0917301 10.5129 
8.87362 0.491265 0.415346 
0.491265 10.0346 -0.464634 
0.415346 -0.464634 11.2215 
10.1636 -0.575683 -0.478822 
-0.575683 9.31648 0.776619 
-0.478822 0.776619 10.6497 
9.76316 -0.568621 0.440891 
-0.568621 8.70439 0.242401 
0.440891 0.242401 11.6623 
9.58791 0.0473906 -0.0531573 
0.0473906 9.56923 -0.146113 
-0.0531573 -0.146113 9.78247 
9.56369 -0.0793164 -0.107205 
-0.0793164 9.5168 -0.283678 
-0.107205 -0.283678 9.85911 
9.42316 -0.20207 -0.0200754 
-0.20207 9.45974 -0.304653 
-0.0200754 -0.304653 10.0567 
9.57984 -0.0606577 -0.219499 
-0.0606577 9.58917 -0.346496 
-0.219499 -0.346496 9.77059 
9.52955 0.0187353 -0.0931479 
0.0187353 9.46344 -0.290949 
-0.0931479 -0.290949 9.78374 
9.62257 -0.0208035 -0.147874 
-0.0208035 9.51859 -0.365071 
-0.147874 -0.365071 9.63557 
9.5911 0.0155467 -0.122014 
0.0155467 9.5942 -0.276818 
-0.122014 -0.276818 9.59143 
9.57716 0.0238204 -0.13988 
0.0238204 9.52471 -0.32142 
-0.13988 -0.32142 9.67486 
9.83946 0.0902317 0.398555 
0.0902317 9.84755 0.479184 
0.398555 0.479184 10.1729 
10.1875 0.131522 -0.639309 
0.131522 9.43261 -0.538192 
-0.639309 -0.538192 10.2398 
10.2595 -0.313073 -0.274733 
-0.313073 9.06072 0.259454 
-0.274733 0.259454 10.5397 
10.2182 -0.215958 -0.327364 
-0.215958 9.17913 0.203917 
-0.327364 0.203917 10.4625 
9.46225 0.0668551 0.222129 
0.0668551 9.45075 -0.23341 
0.222129 -0.23341 9.52282 
9.45782 0.156596 0.150021 
0.156596 9.4416 -0.227627 
0.150021 -0.227627 9.5364 
9.60372 -0.224169 0.19455 
-0.224169 9.38749 -0.282874 
0.19455 -0.282874 9.4446 
9.48508 0.0715327 0.253318 
0.0715327 9.40024 -0.285664 
0.253318 -0.285664 9.5505 
9.73013 0.203951 -0.156512 
0.203951 10.4911 0.109885 
-0.156512 0.109885 7.97744 
9.98928 0.235401 0.160095 
0.235401 10.2983 -0.178358 
0.160095 -0.178358 7.91105 
9.55091 -0.00602101 -0.0487804 
-0.00602101 10.6424 0.278832 
-0.0487804 0.278832 8.00542 
10.0813 0.0901134 -0.0336842 
0.0901134 9.79984 0.276879 
-0.0336842 0.276879 8.31759 
10.1199 -0.0115104 -0.000294835 
-0.0115104 10.1608 0.0100106 
-0.000294835 0.0100106 10.0002 
10.138 0.0040721 0.00316328 
0.0040721 10.1207 -0.00485181 
0.00316328 -0.00485181 10.0222 
10.136 0.0018636 -0.0132286 
0.0018636 10.1442 0.019196 
-0.0132286 0.019196 10.0007 
10.1491 -0.00038619 0.00300733 
-0.00038619 10.1343 0.0218102 
0.00300733 0.0218102 9.99753 
9.83417 -0.0126052 -0.904416 
-0.0126052 10.2561 -0.760036 
-0.904416 -0.760036 7.82454 
9.43797 -0.0751162 -0.491109 
-0.0751162 10.4318 -0.812603 
-0.491109 -0.812603 8.04501 
9.5403 -0.4066 -1.08215 
-0.4066 9.94594 -2.08459 
-1.08215 -2.08459 8.42857 
9.44821 0.427603 0.377195 
0.427603 9.95731 -0.506024 
0.377195 -0.506024 8.50929 
12.8893 -0.0639149 -0.434328 
-0.0639149 11.7315 -0.214186 
-0.434328 -0.214186 11.5006 
11.0548 -0.450937 -0.393171 
-0.450937 11.374 0.165346 
-0.393171 0.165346 13.6925 
11.0653 1.29996 -0.471303 
1.29996 12.0524 0.0688653 
-0.471303 0.0688653 13.0036 
11.955 -0.140686 -0.662852 
-0.140686 12.0834 0.0686935 
-0.662852 0.0686935 12.0829 
9.82956 -0.0146557 -0.0483463 
-0.0146557 9.83013 -0.183586 
-0.0483463 -0.183586 9.83451 
9.81955 0.00385882 -0.0237373 
0.00385882 9.8596 -0.201179 
-0.0237373 -0.201179 9.81504 
9.8226 -0.00723121 -0.0385568 
-0.00723121 9.79974 -0.172649 
-0.0385568 -0.172649 9.87185 
9.84986 0.00770126 -0.044497 
0.00770126 9.87065 -0.176416 
-0.044497 -0.176416 9.77369 
2.4346 4.9284 -4.77993 
4.9284 8.35158 0.860951 
-4.77993 0.860951 26.6398 
-0.209806 2.59732 -4.00043 
2.59732 9.69093 3.65499 
-4.00043 3.65499 27.9449 
13.3569 2.69606 5.54697 
2.69606 18.2733 -2.24667 
5.54697 -2.24667 5.79584 
18.0683 -3.60941 -7.91734 
-3.60941 11.9828 3.16189 
-7.91734 3.16189 7.37498 
8.28548 -0.763943 -1.27623 
-0.763943 8.48217 3.67964 
-1.27623 3.67964 4.73765 
8.7313 0.393965 -1.58683 
0.393965 8.75186 3.71604 
-1.58683 3.71604 4.02213 
9.02913 1.83957 -0.7914 
1.83957 5.52503 3.16526 
-0.7914 3.16526 6.95113 
7.32988 -1.22747 0.0635322 
-1.22747 9.57154 0.939165 
0.0635322 0.939165 4.60388 
9.61836 0.0237479 0.221915 
0.0237479 9.53639 -0.276509 
0.221915 -0.276509 9.60992 
9.58078 0.0165883 0.220111 
0.0165883 9.6007 -0.256402 
0.220111 -0.256402 9.5832 
9.64776 0.0247821 0.200347 
0.0247821 9.58632 -0.286985 
0.200347 -0.286985 9.53059 
9.58499 0.0599068 0.198233 
0.0599068 9.63238 -0.300681 
0.198233 -0.300681 9.54731 
9.43823 -0.10357 -0.237296 
-0.10357 9.50839 -0.40509 
-0.237296 -0.40509 9.96155 
9.21515 -0.0321937 -0.311252 
-0.0321937 9.59907 -0.363893 
-0.311252 -0.363893 10.0939 
9.39688 -0.0269027 -0.333446 
-0.0269027 9.50798 -0.35363 
-0.333446 -0.35363 10.0033 
9.36528 -0.0518006 -0.333505 
-0.0518006 9.53944 -0.344101 
-0.333505 -0.344101 10.0034 
10.5583 0.43918 0.118666 
0.43918 10.2567 0.31951 
0.118666 0.31951 11.9231 
10.4532 -0.199142 -0.0222522 
-0.199142 10.6659 0.158118 
-0.0222522 0.158118 11.6189 
10.4159 -0.118097 0.119397 
-0.118097 10.4999 0.0776111 
0.119397 0.0776111 11.8223 
10.7479 0.0950712 0.0433685 
0.0950712 10.3607 -0.0782463 
0.0433685 -0.0782463 11.6294 
9.87919 -0.0108854 0.0025168 
-0.0108854 9.85204 -0.0105905 
0.0025168 -0.0105905 9.97111 
9.87018 -0.00390021 -0.00053825 
-0.00390021 9.85284 -0.0228895 
-0.00053825 -0.0228895 9.97933 
9.86303 0.000959121 -0.00693463 
0.000959121 9.84689 -0.0231713 
-0.00693463 -0.0231713 9.99242 
9.86842 -0.000649674 -0.00770009 
-0.000649674 9.85237 -0.0241474 
-0.00770009 -0.0241474 9.98155 
10.4477 1.83659 -0.451331 
1.83659 4.95365 -1.59686 
-0.451331 -1.59686 19.9255 
11.1609 1.51605 0.636054 
1.51605 9.08132 -0.492758 
0.636054 -0.492758 15.0845 
13.2971 1.91951 1.05972 
1.91951 13.349 -1.62721 
1.05972 -1.62721 8.68075 
11.6307 0.0900215 1.03472 
0.0900215 9.60035 3.07641 
1.03472 3.07641 14.0957 
9.72764 -0.00561641 0.0206622 
-0.00561641 9.75113 -0.0769585 
0.0206622 -0.0769585 9.92952 
9.73668 0.00368144 0.016106 
0.00368144 9.73101 -0.0152412 
0.016106 -0.0152412 9.9406 
9.7631 0.00488099 0.0124577 
0.00488099 9.69382 -0.0434309 
0.0124577 -0.0434309 9.95137 
9.74939 -0.0104888 0.00695273 
-0.0104888 9.71939 -0.0251628 
0.00695273 -0.0251628 9.93952 
9.77866 -0.0727365 -0.156469 
-0.0727365 9.53696 0.0823572 
-0.156469 0.0823572 9.62276 
9.87269 -0.0755761 -0.147009 
-0.0755761 9.62489 0.0567412 
-0.147009 0.0567412 9.44079 
9.86329 -0.125607 0.100983 
-0.125607 9.64523 0.117067 
0.100983 0.117067 9.42985 
9.83822 -0.0387559 -0.10243 
-0.0387559 9.58882 0.0780643 
-0.10243 0.0780643 9.51133 
10.7065 0.217276 0.352627 
0.217276 10.9256 0.196265 
0.352627 0.196265 14.0229 
11.8503 0.328978 -0.0249033 
0.328978 13.4636 0.337457 
-0.0249033 0.337457 10.3411 
11.5444 0.485259 0.277688 
0.485259 11.5745 -0.399835 
0.277688 -0.399835 12.5362 
11.5305 0.357718 -0.502995 
0.357718 11.9948 -1.49479 
-0.502995 -1.49479 12.1297 
9.97865 0.00801866 -0.0440913 
0.00801866 9.01629 -0.165585 
-0.0440913 -0.165585 10.3024 
10.0838 0.184499 -0.0407889 
0.184499 9.26612 -0.191491 
-0.0407889 -0.191491 9.94737 
9.9986 0.0721492 0.0719495 
0.0721492 9.33452 -0.0838542 
0.0719495 -0.0838542 9.96417 
9.80774 0.161273 -0.100742 
0.161273 9.6532 -0.0535234 
-0.100742 -0.0535234 9.83636 
9.58086 0.00595665 0.291168 
0.00595665 9.55906 -0.0900397 
0.291168 -0.0900397 9.69697 
9.59556 0.0192532 0.329986 
0.0192532 9.55461 -0.133469 
0.329986 -0.133469 9.68673 
9.57394 0.0385169 0.330025 
0.0385169 9.58626 -0.152674 
0.330025 -0.152674 9.6767 
9.58862 0.0716444 0.337032 
0.0716444 9.53772 -0.135414 
0.337032 -0.135414 9.71056 
9.84757 -0.0987075 -0.0922443 
-0.0987075 9.55894 -0.078526 
-0.0922443 -0.078526 9.85431 
9.57543 0.150459 -0.200142 
0.150459 9.75518 -0.171115 
-0.200142 -0.171115 9.93021 
10.1174 0.121182 0.340153 
0.121182 9.30629 -0.133566 
0.340153 -0.133566 9.83718 
9.69406 -0.149008 -0.0709873 
-0.149008 9.64776 -0.231168 
-0.0709873 -0.231168 9.919 
9.62886 0.274461 -0.237604 
0.274461 9.53886 0.000365417 
-0.237604 0.000365417 9.92143 
9.79023 0.482334 0.251594 
0.482334 9.43863 -0.0413932 
0.251594 -0.0413932 9.8603 
9.72953 -0.28643 -0.25396 
-0.28643 9.45126 0.197789 
-0.25396 0.197789 9.90836 
9.53054 0.324611 -0.206631 
0.324611 9.06769 0.217875 
-0.206631 0.217875 10.4909 
10.8424 0.190965 -0.228613 
0.190965 9.77476 -0.0737199 
-0.228613 -0.0737199 11.1946 
10.7317 -0.455385 0.218916 
-0.455385 9.61575 -0.54779 
0.218916 -0.54779 11.4643 
10.5179 -0.337124 0.149293 
-0.337124 9.28097 -0.381919 
0.149293 -0.381919 12.0129 
10.6788 -0.339916 -0.299328 
-0.339916 9.57231 -0.651645 
-0.299328 -0.651645 11.5606 
9.92212 -0.00524894 -0.0145362 
-0.00524894 9.9235 0.0187951 
-0.0145362 0.0187951 9.97557 
9.9263 0.000525906 -0.0172321 
0.000525906 9.91836 -0.00187536 
-0.0172321 -0.00187536 9.97652 
9.92741 0.00534654 0.000578098 
0.00534654 9.91844 -0.00267692 
0.000578098 -0.00267692 9.97534 
9.92559 -0.00332039 -0.00305412 
-0.00332039 9.9289 -0.0101857 
-0.00305412 -0.0101857 9.96669 
11.6943 0.371467 0.124859 
0.371467 8.8755 1.19767 
0.124859 1.19767 15.8615 
12.9573 -0.621705 0.315284 
-0.621705 11.5749 0.371366 
0.315284 0.371366 11.899 
11.4664 0.444282 0.0410386 
0.444282 11.5369 0.416519 
0.0410386 0.416519 13.4279 
13.1005 -0.107231 -1.31873 
-0.107231 10.6117 0.238638 
-1.31873 0.238638 12.7191 
9.66211 -1.76825 0.378593 
-1.76825 9.82703 0.804958 
0.378593 0.804958 11.5057 
10.7239 -0.477425 2.95644 
-0.477425 7.87562 1.54684 
2.95644 1.54684 12.3954 
10.5973 0.072244 1.80966 
0.072244 9.05654 0.384106 
1.80966 0.384106 11.341 
10.489 -0.195283 -0.482465 
-0.195283 9.54091 1.60244 
-0.482465 1.60244 10.965 
3.42842 0.827055 -0.811168 
0.827055 3.28146 -0.332642 
-0.811168 -0.332642 3.47127 
5.75493 0.467742 -1.05417 
0.467742 4.19027 -2.16271 
-1.05417 -2.16271 0.235951 
5.77637 0.878307 -0.405498 
0.878307 3.55998 -1.31289 
-0.405498 -1.31289 0.844797 
4.60742 1.09985 -0.725434 
1.09985 4.35285 0.251892 
-0.725434 0.251892 1.22088 
13.2347 -0.451666 0.239983 
-0.451666 11.8102 0.0693017 
0.239983 0.0693017 11.1944 
11.7036 -0.637724 -0.329715 
-0.637724 12.1012 -0.098289 
-0.329715 -0.098289 12.4345 
11.2826 -0.141051 0.236088 
-0.141051 11.4624 -0.151807 
0.236088 -0.151807 13.4943 
12.1426 -0.420854 -0.808193 
-0.420854 11.9519 0.444974 
-0.808193 0.444974 12.1449 
9.79038 -0.0213573 -0.0579102 
-0.0213573 9.84861 -0.137287 
-0.0579102 -0.137287 9.79027 
9.8057 -0.0106632 -0.0624858 
-0.0106632 9.81384 -0.127568 
-0.0624858 -0.127568 9.80972 
9.80054 0.0461798 -0.0678791 
0.0461798 9.79276 -0.164587 
-0.0678791 -0.164587 9.83596 
9.8149 0.0350449 -0.0774957 
0.0350449 9.82614 -0.146185 
-0.0774957 -0.146185 9.78823 
9.09042 -0.225401 1.78094 
-0.225401 8.95398 1.35814 
1.78094 1.35814 16.2374 
12.459 -0.690413 -0.350586 
-0.690413 10.0727 1.26083 
-0.350586 1.26083 11.7501 
12.7795 -1.19997 -0.643429 
-1.19997 9.54315 1.0981 
-0.643429 1.0981 11.9591 
12.8986 -0.645983 0.0821301 
-0.645983 9.80138 -0.0369851 
0.0821301 -0.0369851 11.5817 
10.1744 -0.00557647 0.020149 
-0.00557647 10.1658 0.0106463 
0.020149 0.0106463 9.96207 
10.1649 0.00393338 0.00567089 
0.00393338 10.1465 -0.0114569 
0.00567089 -0.0114569 9.99085 
10.1675 -0.00503114 -0.000324587 
-0.00503114 10.1497 0.0156761 
-0.000324587 0.0156761 9.98505 
10.1826 -0.0067294 0.0232289 
-0.0067294 10.1695 0.0151168 
0.0232289 0.0151168 9.95025 
9.81856 -0.00442118 0.116083 
-0.00442118 9.64827 0.0086629 
0.116083 0.0086629 10.0779 
9.62433 0.0990346 0.37778 
0.0990346 10.0049 0.0406237 
0.37778 0.0406237 9.91546 
9.68271 -0.0212211 0.164477 
-0.0212211 9.95507 -0.0254009 
0.164477 -0.0254009 9.90695 
10.1514 -0.0239428 0.232675 
-0.0239428 9.72528 0.114719 
0.232675 0.114719 9.66801 
9.88123 0.119774 -0.771003 
0.119774 9.97672 0.414654 
-0.771003 0.414654 9.00031 
9.76312 -0.161316 -0.767511 
-0.161316 9.99133 -0.0980567 
-0.767511 -0.0980567 9.1038 
9.81793 -0.14404 -0.55948 
-0.14404 9.96276 0.107731 
-0.55948 0.107731 9.07757 
9.55155 0.16263 -0.224345 
0.16263 9.55956 0.172453 
-0.224345 0.172453 9.74715 
9.55955 -0.257826 0.2012 
-0.257826 10.0182 -0.0656515 
0.2012 -0.0656515 10.6559 
9.45644 -0.389068 0.102218 
-0.389068 9.78094 0.195986 
0.102218 0.195986 10.9962 
9.66724 -0.221319 0.146913 
-0.221319 9.78062 0.0637176 
0.146913 0.0637176 10.7858 
9.57357 0.00466537 -0.136816 
0.00466537 9.80238 -0.21075 
-0.136816 -0.21075 10.8577 
9.82389 0.00356498 -0.094976 
0.00356498 9.86988 -0.144941 
-0.094976 -0.144941 9.81327 
9.84918 0.0117201 -0.0821161 
0.0117201 9.83016 -0.142778 
-0.0821161 -0.142778 9.8277 
9.8431 -0.0286203 -0.0745156 
-0.0286203 9.7989 -0.189243 
-0.0745156 -0.189243 9.86504 
9.81241 0.000143146 -0.0927132 
0.000143146 9.83121 -0.167105 
-0.0927132 -0.167105 9.86342 
9.98191 1.10802 0.52867 
1.10802 9.32312 -0.589115 
0.52867 -0.589115 14.6138 
10.0791 -1.41916 0.437431 
-1.41916 9.35826 -0.00906519 
0.437431 -0.00906519 14.4815 
11.674 -1.29551 0.841395 
-1.29551 13.4437 0.80189 
0.841395 0.80189 8.80121 
11.3232 -1.31877 -1.14937 
-1.31877 8.53005 3.00528 
-1.14937 3.00528 14.0656 
9.52231 -0.313256 0.845419 
-0.313256 9.64867 -0.502633 
0.845419 -0.502633 9.34511 
9.36621 0.0824173 0.743482 
0.0824173 9.60787 -0.356107 
0.743482 -0.356107 9.54201 
9.37096 0.252055 0.698149 
0.252055 10.2963 -0.878058 
0.698149 -0.878058 8.84883 
10.0944 0.207667 0.578391 
0.207667 9.2411 -0.88073 
0.578391 -0.88073 9.18064 
9.62242 -5.93991 -2.69866 
-5.93991 9.09707 -5.59139 
-2.69866 -5.59139 8.0957 
7.25816 0.830793 -1.20305 
0.830793 8.42381 -4.32968 
-1.20305 -4.32968 11.1332 
9.43667 2.68997 -1.97729 
2.68997 9.18042 -1.31432 
-1.97729 -1.31432 8.1981 
7.40176 -1.8729 -0.960655 
-1.8729 8.87207 -0.83379 
-0.960655 -0.83379 10.5414 
9.93955 0.00200569 -0.128383 
0.00200569 9.82326 0.0429296 
-0.128383 0.0429296 9.95682 
9.90602 0.044494 -0.0825062 
0.044494 9.9429 0.0535072 
-0.0825062 0.0535072 9.8707 
9.80636 0.0615745 -0.0892183 
0.0615745 9.95696 0.0850233 
-0.0892183 0.0850233 9.95631 
9.98935 -0.0223756 -0.214574 
-0.0223756 9.84872 0.0767943 
-0.214574 0.0767943 9.88156 
9.73791 -0.0774562 0.316891 
-0.0774562 9.83852 0.0951333 
0.316891 0.0951333 9.93579 
9.70401 -0.0866045 0.0823324 
-0.0866045 9.50041 0.016609 
0.0823324 0.016609 10.3078 
9.73966 -0.0427843 -0.0778563 
-0.0427843 9.57254 0.0341761 
-0.0778563 0.0341761 10.2 
9.67709 -0.169237 0.0848661 
-0.169237 9.62521 0.000803154 
0.0848661 0.000803154 10.2099 
9.84165 0.00098448 0.0205246 
0.00098448 9.70209 -0.27981 
0.0205246 -0.27981 9.83895 
9.7648 0.0651557 0.0402964 
0.0651557 9.71819 -0.249139 
0.0402964 -0.249139 9.89971 
9.71254 0.0170104 0.0929283 
0.0170104 9.78019 -0.288142 
0.0929283 -0.288142 9.88996 
9.83961 0.0725957 -0.000312362 
0.0725957 9.76729 -0.303354 
-0.000312362 -0.303354 9.7758 
9.73526 0.0117036 0.073636 
0.0117036 9.75231 0.0793001 
0.073636 0.0793001 9.92035 
9.70546 0.0367847 -0.0777183 
0.0367847 9.75864 -0.0112903 
-0.0777183 -0.0112903 9.94382 
9.81895 0.0721011 0.183081 
0.0721011 9.66207 0.0102879 
0.183081 0.0102879 9.9269 
9.64266 0.117614 0.0595746 
0.117614 9.75636 0.0200563 
0.0595746 0.0200563 10.0089 
9.9082 0.140847 -1.23169 
0.140847 9.16307 0.208053 
-1.23169 0.208053 7.46184 
8.34358 -0.0162552 0.882544 
-0.0162552 8.5265 1.44457 
0.882544 1.44457 9.66303 
9.22317 -0.476396 1.11901 
-0.476396 8.24368 1.67824 
1.11901 1.67824 9.06625 
8.27333 0.0326655 1.41032 
0.0326655 6.82892 -0.182719 
1.41032 -0.182719 11.4309 
7.49786 1.16939 -0.154359 
1.16939 6.08137 -0.388648 
-0.154359 -0.388648 2.03709 
7.38436 0.182037 -0.198437 
0.182037 7.043 -0.832533 
-0.198437 -0.832533 1.18896 
7.27773 0.764176 -0.532478 
0.764176 6.69494 0.144571 
-0.532478 0.144571 1.64366 
6.41053 -0.90386 -1.69878 
-0.90386 6.69414 -0.778789 
-1.69878 -0.778789 2.51166 
9.77193 0.0384749 0.132421 
0.0384749 9.74649 -0.131315 
0.132421 -0.131315 10.0188 
9.74002 0.165406 0.0811991 
0.165406 9.82414 -0.121634 
0.0811991 -0.121634 9.97308 
9.72073 0.0989808 0.242553 
0.0989808 9.84329 -0.243948 
0.242553 -0.243948 9.97322 
9.95809 -0.0606024 0.116357 
-0.0606024 9.73577 -0.211787 
0.116357 -0.211787 9.84338 
8.91101 -0.326061 0.091101 
-0.326061 8.82248 0.448941 
0.091101 0.448941 10.6271 
9.45361 -0.311433 0.416979 
-0.311433 9.32034 0.726849 
0.416979 0.726849 9.58667 
9.56998 -0.378941 0.271857 
-0.378941 9.76215 -0.00843545 
0.271857 -0.00843545 9.02849 
9.39697 -0.0359752 0.436585 
-0.0359752 9.13943 0.559946 
0.436585 0.559946 9.82423 
9.49296 -0.182619 0.0803338 
-0.182619 9.95854 0.175039 
0.0803338 0.175039 9.86864 
9.39216 -0.101182 -0.0636135 
-0.101182 9.91519 0.0296743 
-0.0636135 0.0296743 10.0128 
9.66732 0.00809324 0.293898 
0.00809324 9.79714 0.0472155 
0.293898 0.0472155 9.85568 
9.36718 0.0582654 0.197742 
0.0582654 9.87798 0.0485354 
0.197742 0.0485354 10.075 
9.74256 -0.0181604 -0.0459907 
-0.0181604 9.83176 0.0343578 
-0.0459907 0.0343578 9.84757 
9.76382 -0.0313899 -0.0262624 
-0.0313899 9.80231 0.0438662 
-0.0262624 0.0438662 9.85577 
9.75797 -0.0265452 -0.0337664 
-0.0265452 9.80174 0.0393979 
-0.0337664 0.0393979 9.86219 
9.76936 -0.0149143 -0.047377 
-0.0149143 9.77223 0.0312408 
-0.047377 0.0312408 9.8803 
9.85023 -0.269911 0.95727 
-0.269911 10.0285 -0.526739 
0.95727 -0.526739 10.8914 
11.333 0.584025 1.14481 
0.584025 10.173 0.120552 
1.14481 0.120552 9.26413 
10.0243 0.13208 0.515514 
0.13208 9.81502 0.0508394 
0.515514 0.0508394 10.9307 
9.46927 0.279703 1.26124 
0.279703 10.6839 -0.04983 
1.26124 -0.04983 10.6169 
9.85633 0.196538 0.0630803 
0.196538 9.90276 -0.491671 
0.0630803 -0.491671 9.79383 
9.68515 0.14111 0.0754961 
0.14111 9.54129 -0.11665 
0.0754961 -0.11665 10.3265 
9.49437 0.000371548 -0.0348762 
0.000371548 9.8249 0.20957 
-0.0348762 0.20957 10.2337 
9.61196 0.0746238 0.139778 
0.0746238 9.65047 -0.0788404 
0.139778 -0.0788404 10.2905 
9.53314 -0.0655159 -0.967843 
-0.0655159 9.70423 0.11153 
-0.967843 0.11153 9.17339 
9.31193 0.181858 -0.684149 
0.181858 9.40875 0.123457 
-0.684149 0.123457 9.69008 
9.37421 0.119471 -0.560888 
0.119471 9.55947 -0.13732 
-0.560888 -0.13732 9.47708 
9.41435 0.0894359 -0.747973 
0.0894359 9.51434 0.0506618 
-0.747973 0.0506618 9.48207 
9.79345 -0.00442258 -0.0443687 
-0.00442258 9.79831 -0.317488 
-0.0443687 -0.317488 9.75109 
9.77504 0.00506305 -0.0295812 
0.00506305 9.7939 -0.320861 
-0.0295812 -0.320861 9.77391 
9.78589 0.00181287 -0.0415026 
0.00181287 9.79935 -0.31551 
-0.0415026 -0.31551 9.75761 
9.78883 0.00768631 -0.0370327 
0.00768631 9.80808 -0.312944 
-0.0370327 -0.312944 9.74594 
10.0714 0.0125642 -0.020211 
0.0125642 10.0716 0.00168667 
-0.020211 0.00168667 10.0466 
10.1309 0.0125019 -0.0466544 
0.0125019 10.1522 0.0377244 
-0.0466544 0.0377244 9.90657 
10.0676 0.013571 -0.032833 
0.013571 10.1093 0.0273592 
-0.032833 0.0273592 10.0127 
10.0703 0.0278417 -0.0545212 
0.0278417 10.0869 0.023175 
-0.0545212 0.023175 10.0324 
1.22544 -0.150517 1.19744 
-0.150517 1.91703 0.107527 
1.19744 0.107527 9.13535 
8.76409 -0.713523 -2.64505 
-0.713523 10.6249 0.59428 
-2.64505 0.59428 -7.11114 
5.37503 -0.26518 -0.874918 
-0.26518 5.93087 -1.64731 
-0.874918 -1.64731 0.971913 
3.97062 -1.308 0.297821 
-1.308 5.71865 -7.24211 
0.297821 -7.24211 2.58854 
11.3101 -0.1104 0.0324202 
-0.1104 11.6019 0.230545 
0.0324202 0.230545 12.9889 
10.6304 -0.198241 -0.568288 
-0.198241 12.2433 0.100081 
-0.568288 0.100081 13.0271 
12.0967 0.964667 -0.0183893 
0.964667 13.2034 0.157816 
-0.0183893 0.157816 10.6009 
11.1325 0.159458 -0.208327 
0.159458 12.3215 -0.944158 
-0.208327 -0.944158 12.4469 
7.90832 -0.779647 -1.70214 
-0.779647 8.88534 -1.08547 
-1.70214 -1.08547 -5.91835 
-0.554042 -0.0462237 3.08637 
-0.0462237 0.570562 -3.86614 
3.08637 -3.86614 10.8588 
7.63357 -0.0992207 -2.0785 
-0.0992207 6.98198 1.50674 
-2.0785 1.50674 -3.74026 
9.18274 -1.65066 5.32743 
-1.65066 5.58715 3.17953 
5.32743 3.17953 -3.89458 
10.2897 -0.465395 0.151221 
-0.465395 8.70608 -0.128085 
0.151221 -0.128085 9.62524 
9.60764 -0.103576 -0.446376 
-0.103576 9.49886 0.824875 
-0.446376 0.824875 9.5145 
9.97171 0.272919 0.264457 
0.272919 9.75682 0.109872 
0.264457 0.109872 8.89246 
8.99468 -0.232005 -0.294113 
-0.232005 9.34967 -0.0596158 
-0.294113 -0.0596158 10.2766 
9.81532 -0.0939705 -0.132393 
-0.0939705 9.71966 -0.262232 
-0.132393 -0.262232 9.82243 
9.43218 -0.121042 -0.261467 
-0.121042 9.49402 -0.0666878 
-0.261467 -0.0666878 10.4312 
9.81871 0.0192335 -0.0243926 
0.0192335 9.68361 -0.110023 
-0.0243926 -0.110023 9.85508 
9.8656 -0.127912 -0.0206903 
-0.127912 9.77957 -0.0741442 
-0.0206903 -0.0741442 9.71224 
10.5134 -0.470265 0.286404 
-0.470265 7.93863 2.17014 
0.286404 2.17014 7.58494 
10.6383 -0.528554 0.282251 
-0.528554 7.43182 1.87115 
0.282251 1.87115 7.96687 
9.15732 -0.842721 0.589113 
-0.842721 8.08282 1.82172 
0.589113 1.82172 8.79684 
10.9918 -0.162572 0.309973 
-0.162572 7.5972 1.56565 
0.309973 1.56565 7.44794 
9.55341 0.31185 -0.101186 
0.31185 10.147 -0.185942 
-0.101186 -0.185942 10.0024 
9.80839 -0.0566542 0.249613 
-0.0566542 9.83177 0.0136443 
0.249613 0.0136443 10.0626 
9.55942 0.0261703 -0.00142913 
0.0261703 10.0531 -0.000848392 
-0.00142913 -0.000848392 10.0903 
9.5481 -0.174847 0.182552 
-0.174847 10.085 -0.0629852 
0.182552 -0.0629852 10.0697 
9.80178 0.0426873 -0.245936 
0.0426873 9.77488 -0.173596 
-0.245936 -0.173596 9.72717 
9.74489 -0.0248137 -0.267241 
-0.0248137 9.78631 -0.161107 
-0.267241 -0.161107 9.77263 
9.76804 -0.000659513 -0.259877 
-0.000659513 9.77353 -0.191319 
-0.259877 -0.191319 9.76226 
9.79226 -0.0044177 -0.283937 
-0.0044177 9.76064 -0.202605 
-0.283937 -0.202605 9.75093 
9.52436 -0.137795 0.138842 
-0.137795 9.59575 0.0469057 
0.138842 0.0469057 9.98352 
9.67865 -0.0169144 0.251698 
-0.0169144 9.28721 0.19853 
0.251698 0.19853 10.1378 
9.77906 0.090479 0.115424 
0.090479 9.44356 0.361041 
0.115424 0.361041 9.88101 
9.83504 0.0697906 0.182602 
0.0697906 9.36797 0.22159 
0.182602 0.22159 9.90062 
9.82885 0.0732523 -0.0334246 
0.0732523 9.67222 -0.0141905 
-0.0334246 -0.0141905 9.82401 
9.73167 -0.0309322 -0.068104 
-0.0309322 9.71747 -0.0272806 
-0.068104 -0.0272806 9.87594 
9.71687 0.0613965 -0.043284 
0.0613965 9.72975 -0.00220038 
-0.043284 -0.00220038 9.87846 
9.75157 -0.0209662 -0.0128439 
-0.0209662 9.73812 -0.0504942 
-0.0128439 -0.0504942 9.83538 
9.72703 -0.0154946 -0.177379 
-0.0154946 9.74904 0.274366 
-0.177379 0.274366 9.71571 
9.7256 -0.00942259 -0.187506 
-0.00942259 9.75015 0.276074 
-0.187506 0.276074 9.71603 
9.7689 -0.017729 -0.180597 
-0.017729 9.75008 0.256894 
-0.180597 0.256894 9.6728 
9.72049 -0.0153626 -0.157276 
-0.0153626 9.72402 0.262378 
-0.157276 0.262378 9.74727 
9.66521 -0.0312743 0.0454011 
-0.0312743 9.57868 -0.0737169 
0.0454011 -0.0737169 10.124 
9.59026 0.021929 0.0756038 
0.021929 9.74963 -0.0283419 
0.0756038 -0.0283419 10.028 
9.49479 0.0160015 0.024868 
0.0160015 9.66867 0.00278622 
0.024868 0.00278622 10.2045 
9.68922 0.103401 -0.0831303 
0.103401 9.52992 0.0336418 
-0.0831303 0.0336418 10.1488 
9.99184 0.000289691 -0.0292733 
0.000289691 10.0345 0.030743 
-0.0292733 0.030743 9.82836 
9.8064 0.0561655 -0.0648892 
0.0561655 9.86711 -0.0395105 
-0.0648892 -0.0395105 10.1812 
9.93405 0.0268352 -0.0887148 
0.0268352 9.97955 0.0459042 
-0.0887148 0.0459042 9.9411 
9.93209 0.0190943 -0.141953 
0.0190943 10.0157 0.0893003 
-0.141953 0.0893003 9.90688 
9.55669 -0.0362097 0.0507522 
-0.0362097 9.48567 0.327473 
0.0507522 0.327473 9.62707 
9.60911 -0.020138 0.0201154 
-0.020138 9.50264 0.338498 
0.0201154 0.338498 9.55768 
9.60534 -0.0214471 0.0551318 
-0.0214471 9.57792 0.383336 
0.0551318 0.383336 9.48618 
9.58009 -0.0452321 0.0163937 
-0.0452321 9.56865 0.362826 
0.0163937 0.362826 9.52069 
10.7147 0.786099 -0.485862 
0.786099 9.33756 0.918938 
-0.485862 0.918938 8.45394 
10.6574 0.0454548 -0.150171 
0.0454548 9.84132 0.885038 
-0.150171 0.885038 8.00748 
10.0162 0.759453 0.442975 
0.759453 10.0106 0.146969 
0.442975 0.146969 8.47936 
10.4062 0.293816 0.174969 
0.293816 9.59086 0.482998 
0.174969 0.482998 8.50915 
9.78129 -0.401466 1.96805 
-0.401466 6.46786 -6.20334 
1.96805 -6.20334 8.91731 
10.1125 2.36114 -0.714085 
2.36114 4.02575 -2.35225 
-0.714085 -2.35225 11.0282 
9.87309 -0.407241 0.80511 
-0.407241 6.72257 -3.48886 
0.80511 -3.48886 8.5708 
9.24223 -2.821 -0.477507 
-2.821 9.51934 -1.62584 
-0.477507 -1.62584 6.4049 
9.88191 -0.00861787 -0.0367082 
-0.00861787 9.99313 -0.00883586 
-0.0367082 -0.00883586 10.0239 
9.97265 -0.0300237 -0.00428798 
-0.0300237 9.96076 -0.00605062 
-0.00428798 -0.00605062 9.96556 
9.95915 -0.0129834 -0.0123192 
-0.0129834 9.96804 0.0360409 
-0.0123192 0.0360409 9.97178 
10.013 0.0234573 0.0317601 
0.0234573 9.98555 0.00791564 
0.0317601 0.00791564 9.90037 
9.82541 -0.000972976 -0.0297147 
-0.000972976 9.85224 0.000396102 
-0.0297147 0.000396102 9.98527 
9.83594 0.000791948 -0.0208717 
0.000791948 9.83422 -0.0216078 
-0.0208717 -0.0216078 9.99276 
9.85152 0.00816875 -0.0243043 
0.00816875 9.83594 -0.00193551 
-0.0243043 -0.00193551 9.97547 
9.83979 -0.0165072 -0.0288695 
-0.0165072 9.82185 -0.0210855 
-0.0288695 -0.0210855 10.0013 
11.167 -0.650571 0.0744896 
-0.650571 10.5853 0.0576451 
0.0744896 0.0576451 11.4604 
11.0013 -0.00318612 -0.0380683 
-0.00318612 10.7229 0.147456 
-0.0380683 0.147456 11.4885 
11.6244 0.426601 0.0375106 
0.426601 10.5295 0.290856 
0.0375106 0.290856 11.0588 
11.0151 -0.00449768 0.0787657 
-0.00449768 10.9579 0.30486 
0.0787657 0.30486 11.2397 
11.8042 -0.182616 0.128405 
-0.182616 9.86779 0.711267 
0.128405 0.711267 13.7175 
11.5655 -0.004375 0.00105487 
-0.004375 11.5572 0.270675 
0.00105487 0.270675 12.2667 
12.3475 1.09619 -0.268895 
1.09619 11.099 -0.0644987 
-0.268895 -0.0644987 11.943 
12.3915 0.214437 0.196407 
0.214437 10.937 -0.217519 
0.196407 -0.217519 12.061 
9.80284 0.00708582 0.211344 
0.00708582 9.78637 0.222193 
0.211344 0.222193 9.79138 
9.79968 1.06831e-06 0.181737 
1.06831e-06 9.80337 0.208356 
0.181737 0.208356 9.77755 
9.82317 -0.0127249 0.247255 
-0.0127249 9.78133 0.210798 
0.247255 0.210798 9.7761 
9.80633 0.0290079 0.224845 
0.0290079 9.76301 0.263325 
0.224845 0.263325 9.81125 
9.84557 0.0108127 0.0260302 
0.0108127 9.8847 0.0578698 
0.0260302 0.0578698 9.89293 
9.87251 0.0144232 0.0317355 
0.0144232 9.87018 0.0589936 
0.0317355 0.0589936 9.88052 
9.85699 0.0081321 0.0390505 
0.0081321 9.86223 0.052558 
0.0390505 0.052558 9.90399 
9.85385 0.0142917 0.046072 
0.0142917 9.85393 0.0637722 
0.046072 0.0637722 9.91543 
6.55703 -0.29643 -0.879973 
-0.29643 8.11675 -1.36756 
-0.879973 -1.36756 -3.15505 
8.36471 0.586492 1.46607 
0.586492 7.91845 -0.718109 
1.46607 -0.718109 -4.76443 
0.839677 -0.256455 2.62532 
-0.256455 0.394837 2.27397 
2.62532 2.27397 10.2842 
5.60521 1.22918 -1.59644 
1.22918 7.4389 5.41809 
-1.59644 5.41809 -1.52537 
9.94944 -0.0511844 -0.0135059 
-0.0511844 10.0128 -0.0200564 
-0.0135059 -0.0200564 10.0149 
9.97207 -0.044069 -0.00546632 
-0.044069 9.98179 -0.0290847 
-0.00546632 -0.0290847 10.0233 
10.001 -0.0106328 0.0127353 
-0.0106328 10.0171 -0.0224398 
0.0127353 -0.0224398 9.95905 
9.94908 -0.0219995 -0.00137695 
-0.0219995 10.0166 -0.0337693 
-0.00137695 -0.0337693 10.0115 
9.9895 0.0263644 0.0234594 
0.0263644 10.0637 0.00796266 
0.0234594 0.00796266 10.0362 
9.9363 -0.0303016 0.0278025 
-0.0303016 10.079 0.0154251 
0.0278025 0.0154251 10.0741 
9.99236 -0.00852491 0.00928843 
-0.00852491 10.0568 0.0455087 
0.00928843 0.0455087 10.0403 
10.0683 -0.0491314 -0.0141788 
-0.0491314 10.0303 0.0368999 
-0.0141788 0.0368999 9.99087 
8.3827 -1.30461 -2.64756 
-1.30461 9.83091 0.604203 
-2.64756 0.604203 -8.21566 
-2.62818 0.705608 3.68294 
0.705608 0.125386 -3.89455 
3.68294 -3.89455 12.5007 
7.26941 0.101065 -1.60642 
0.101065 5.51351 2.74986 
-1.60642 2.74986 -2.78497 
8.17017 -1.40977 5.85059 
-1.40977 4.8404 5.77622 
5.85059 5.77622 -3.01262 
9.80971 0.0135702 0.0361399 
0.0135702 9.80879 0.00539477 
0.0361399 0.00539477 9.88773 
9.81945 0.017544 0.0226205 
0.017544 9.80418 0.011164 
0.0226205 0.011164 9.88261 
9.81541 -0.000875702 0.0380214 
-0.000875702 9.79447 0.0504695 
0.0380214 0.0504695 9.89635 
9.81718 0.0419171 -0.00931891 
0.0419171 9.78265 0.0286759 
-0.00931891 0.0286759 9.90641 
10.1661 -0.00209843 0.0337146 
-0.00209843 10.1916 0.0108025 
0.0337146 0.0108025 9.97949 
10.1595 -0.00728501 0.0296005 
-0.00728501 10.1894 0.00888502 
0.0296005 0.00888502 9.98828 
10.1422 -0.00226949 0.00180177 
-0.00226949 10.1794 2.64734e-05 
0.00180177 2.64734e-05 10.0156 
10.1471 -0.0127616 0.0319659 
-0.0127616 10.1928 0.00757916 
0.0319659 0.00757916 9.99735 
9.80325 -0.122109 0.00493085 
-0.122109 9.75706 0.0424898 
0.00493085 0.0424898 10.0123 
9.83871 -0.0402965 0.119663 
-0.0402965 9.78471 0.153564 
0.119663 0.153564 9.94917 
9.76499 -0.117996 0.145068 
-0.117996 9.80828 0.251839 
0.145068 0.251839 9.99932 
9.86214 0.0850274 0.11272 
0.0850274 9.87503 0.171115 
0.11272 0.171115 9.83542 
9.65814 -0.00212298 0.216693 
-0.00212298 9.6477 0.295745 
0.216693 0.295745 9.69411 
9.67177 0.0382432 0.196095 
0.0382432 9.68102 0.26082 
0.196095 0.26082 9.64717 
9.68931 0.00769406 0.198971 
0.00769406 9.67638 0.267457 
0.198971 0.267457 9.63427 
9.68056 0.00473399 0.192486 
0.00473399 9.63834 0.293403 
0.192486 0.293403 9.68105 
7.96634 0.173572 0.304875 
0.173572 7.2622 -1.2632 
0.304875 -1.2632 -1.96263 
11.3224 -2.5721 -0.993858 
-2.5721 4.60417 -1.87019 
-0.993858 -1.87019 -2.66063 
0.232011 0.152521 3.18515 
0.152521 5.16274 1.55947 
3.18515 1.55947 7.87115 
9.87716 4.09329 5.13056 
4.09329 4.61862 -3.04996 
5.13056 -3.04996 -1.22988 
9.74299 0.0119586 0.187437 
0.0119586 9.73736 -0.159405 
0.187437 -0.159405 9.84638 
9.74792 0.0465421 0.218573 
0.0465421 9.74435 -0.201071 
0.218573 -0.201071 9.83445 
9.74867 0.0113238 0.216091 
0.0113238 9.72207 -0.194975 
0.216091 -0.194975 9.85599 
9.82324 0.00992869 0.166536 
0.00992869 9.74892 -0.209868 
0.166536 -0.209868 9.75457 
7.67668 -2.9432 -5.71428 
-2.9432 11.0818 -3.08853 
-5.71428 -3.08853 8.02133 
11.6069 1.08603 -2.14311 
1.08603 8.35395 -1.55891 
-2.14311 -1.55891 6.81902 
8.95227 -0.824762 -3.29962 
-0.824762 8.47125 -1.33797 
-3.29962 -1.33797 9.35633 
6.12585 -3.16167 0.127992 
-3.16167 9.74702 -1.05861 
0.127992 -1.05861 10.907 
9.65026 -0.00479127 0.240298 
-0.00479127 9.64422 -0.263092 
0.240298 -0.263092 9.58109 
9.61547 -0.00128648 0.23083 
-0.00128648 9.60655 -0.255866 
0.23083 -0.255866 9.65356 
9.63531 0.0066432 0.238835 
0.0066432 9.62026 -0.248593 
0.238835 -0.248593 9.61999 
9.64129 0.00416262 0.240268 
0.00416262 9.61951 -0.231599 
0.240268 -0.231599 9.61478 
9.67027 0.00316115 -0.224692 
0.00316115 9.66046 0.284741 
-0.224692 0.284741 9.56763 
9.63643 -0.000906972 -0.20992 
-0.000906972 9.64916 0.26277 
-0.20992 0.26277 9.61277 
9.59836 0.0050791 -0.225565 
0.0050791 9.60357 0.277718 
-0.225565 0.277718 9.69643 
9.6146 -0.00697317 -0.214443 
-0.00697317 9.66109 0.261394 
-0.214443 0.261394 9.62267 
9.71673 0.0688845 -0.242241 
0.0688845 9.77812 0.0553619 
-0.242241 0.0553619 9.91372 
9.69909 -0.00848705 -0.286888 
-0.00848705 9.86211 0.0133429 
-0.286888 0.0133429 9.84737 
9.79048 0.0105156 -0.289355 
0.0105156 9.72685 0.105422 
-0.289355 0.105422 9.89124 
9.79905 0.085288 -0.290638 
0.085288 9.87199 -0.0188229 
-0.290638 -0.0188229 9.73754 
9.89969 -0.00921331 0.0960004 
-0.00921331 9.85938 0.0800432 
0.0960004 0.0800432 9.92742 
9.90144 0.0134733 0.122815 
0.0134733 9.94726 0.0506249 
0.122815 0.0506249 9.83778 
9.817 -0.0509669 0.0994062 
-0.0509669 9.82527 0.127881 
0.0994062 0.127881 10.0442 
9.913 0.0155653 0.0593965 
0.0155653 9.88257 0.075126 
0.0593965 0.075126 9.89091 
9.72329 -0.0330459 -0.266783 
-0.0330459 9.80214 0.0501111 
-0.266783 0.0501111 10.8478 
9.48344 -0.196663 -0.0511905 
-0.196663 9.77112 0.00495235 
-0.0511905 0.00495235 11.1187 
9.48106 0.0354893 -0.125986 
0.0354893 9.83878 -0.0837634 
-0.125986 -0.0837634 11.0534 
9.59089 -0.381218 0.136223 
-0.381218 9.94675 -0.149907 
0.136223 -0.149907 10.8356 
9.52606 -0.241522 -0.805117 
-0.241522 10.1788 -0.676785 
-0.805117 -0.676785 7.74935 
9.0356 -0.371996 -1.27436 
-0.371996 10.192 -0.940411 
-1.27436 -0.940411 8.22661 
8.97356 -0.0381038 -0.870272 
-0.0381038 9.36086 0.404679 
-0.870272 0.404679 9.11976 
9.7814 0.431422 -2.3549 
0.431422 11.0394 0.838593 
-2.3549 0.838593 6.63336 
7.64544 1.48585 -0.557262 
1.48585 10.4093 0.791441 
-0.557262 0.791441 15.6767 
6.74015 1.29546 -0.970298 
1.29546 11.5011 -0.141846 
-0.970298 -0.141846 15.4903 
11.0631 1.30225 -1.22197 
1.30225 12.9431 0.437953 
-1.22197 0.437953 9.72521 
9.37783 0.715167 0.740665 
0.715167 11.276 -0.391549 
0.740665 -0.391549 13.0776 
10.0426 -0.0153229 0.0381398 
-0.0153229 10.0309 0.0514081 
0.0381398 0.0514081 9.96072 
10.0484 -0.00625736 0.043655 
-0.00625736 10.0251 0.0192487 
0.043655 0.0192487 9.96074 
10.0311 0.0186111 0.0382854 
0.0186111 10.04 0.0349191 
0.0382854 0.0349191 9.96301 
10.0497 0.00239486 0.09373 
0.00239486 10.0407 -0.0313019 
0.09373 -0.0313019 9.94377 
9.73378 -0.0608695 -0.0286906 
-0.0608695 9.74437 -0.219593 
-0.0286906 -0.219593 9.87055 
9.81755 -0.00156974 -0.0169049 
-0.00156974 9.70178 -0.285776 
-0.0169049 -0.285776 9.82936 
9.69801 -0.00805599 -0.0829708 
-0.00805599 9.76166 -0.305164 
-0.0829708 -0.305164 9.88903 
9.81259 -0.0676268 -0.00279714 
-0.0676268 9.79082 -0.294538 
-0.00279714 -0.294538 9.74528 
9.7876 0.00774695 0.302972 
0.00774695 9.78346 -0.110187 
0.302972 -0.110187 9.74886 
9.78292 0.0240937 0.300745 
0.0240937 9.77518 -0.116309 
0.300745 -0.116309 9.76183 
9.79708 -0.0125782 0.296066 
-0.0125782 9.76192 -0.117192 
0.296066 -0.117192 9.76092 
9.78236 0.0066267 0.299021 
0.0066267 9.78651 -0.113685 
0.299021 -0.113685 9.75105 
8.84079 0.804468 -0.0779365 
0.804468 9.49745 -0.100425 
-0.0779365 -0.100425 9.74033 
9.82965 0.375705 -0.0715404 
0.375705 9.79029 1.13618 
-0.0715404 1.13618 8.45864 
9.20748 -0.0868504 -0.386512 
-0.0868504 9.77343 1.12564 
-0.386512 1.12564 9.09767 
10.1646 -0.455151 0.0019273 
-0.455151 9.1647 1.22249 
0.0019273 1.22249 8.74923 
9.56578 0.0107912 -0.115136 
0.0107912 9.65901 -0.340754 
-0.115136 -0.340754 9.57757 
9.56875 0.0235617 -0.148595 
0.0235617 9.6077 -0.316962 
-0.148595 -0.316962 9.6259 
9.63511 0.0370225 -0.167863 
0.0370225 9.64856 -0.373212 
-0.167863 -0.373212 9.51869 
9.59478 0.0209957 -0.118196 
0.0209957 9.60166 -0.327166 
-0.118196 -0.327166 9.60592 
9.74979 2.95476 0.628203 
2.95476 5.0923 -1.31981 
0.628203 -1.31981 -1.32523 
2.95528 -1.82101 1.36868 
-1.82101 3.2316 2.86747 
1.36868 2.86747 7.32998 
7.91478 0.315138 0.758894 
0.315138 8.48462 -0.869829 
0.758894 -0.869829 -2.88255 
3.94541 2.16454 5.3153 
2.16454 9.85007 1.08073 
5.3153 1.08073 -0.278627 
9.82808 0.00426167 0.0835625 
0.00426167 9.80488 0.0868897 
0.0835625 0.0868897 9.79382 
9.84842 0.0261875 0.101756 
0.0261875 9.77919 0.0522922 
0.101756 0.0522922 9.79917 
9.82528 0.0105422 0.134451 
0.0105422 9.76918 0.0642612 
0.134451 0.0642612 9.83233 
9.84616 0.0306986 0.0957402 
0.0306986 9.81536 0.102205 
0.0957402 0.102205 9.76527 
9.75805 0.00923565 0.238429 
0.00923565 9.7572 0.222288 
0.238429 0.222288 9.73705 
9.76861 -0.0213726 0.250607 
-0.0213726 9.76184 0.209384 
0.250607 0.209384 9.72185 
9.74035 -0.0110994 0.255129 
-0.0110994 9.73527 0.212776 
0.255129 0.212776 9.77667 
9.76354 0.0148651 0.23748 
0.0148651 9.75316 0.21368 
0.23748 0.21368 9.7356 
9.93754 0.27949 -0.571386 
0.27949 9.59455 0.498307 
-0.571386 0.498307 9.0676 
9.47473 -0.342595 -0.996978 
-0.342595 9.4001 -0.181124 
-0.996978 -0.181124 9.72487 
9.25637 -0.339013 -1.18375 
-0.339013 9.69072 -0.594705 
-1.18375 -0.594705 9.6526 
9.17595 -0.472017 -1.01283 
-0.472017 9.26001 -0.258165 
-1.01283 -0.258165 10.1637 
9.53129 0.010306 -0.0114916 
0.010306 9.68108 -0.0155254 
-0.0114916 -0.0155254 9.7992 
9.54887 -0.00709913 0.106958 
-0.00709913 9.61575 0.0552796 
0.106958 0.0552796 9.84695 
9.62156 -0.00502723 -0.0108371 
-0.00502723 9.52702 0.046481 
-0.0108371 0.046481 9.86299 
9.44693 0.0696532 0.0687198 
0.0696532 9.68346 0.142554 
0.0687198 0.142554 9.88117 
9.57009 0.0244556 -0.123086 
0.0244556 9.7018 -0.25521 
-0.123086 -0.25521 9.66578 
9.62933 0.02796 -0.138479 
0.02796 9.67489 -0.312482 
-0.138479 -0.312482 9.63344 
9.60981 0.0162296 -0.0921676 
0.0162296 9.78052 -0.373908 
-0.0921676 -0.373908 9.54733 
9.64134 0.0363206 -0.129906 
0.0363206 9.63395 -0.316392 
-0.129906 -0.316392 9.66237 
9.59979 0.00924141 0.303303 
0.00924141 9.60611 -0.157187 
0.303303 -0.157187 9.68447 
9.6545 -0.0273261 0.291745 
-0.0273261 9.61524 -0.136182 
0.291745 -0.136182 9.62062 
9.6296 0.0051373 0.286849 
0.0051373 9.63473 -0.151276 
0.286849 -0.151276 9.62604 
9.59083 -0.00720002 0.295353 
-0.00720002 9.64634 -0.123932 
0.295353 -0.123932 9.6532 
9.71943 0.0588025 -0.0174043 
0.0588025 9.72392 0.000757163 
-0.0174043 0.000757163 9.86326 
9.70085 -0.0814118 -0.0352357 
-0.0814118 9.76302 -0.0666916 
-0.0352357 -0.0666916 9.84273 
9.65794 0.0738196 -0.0670351 
0.0738196 9.86109 -0.000702053 
-0.0670351 -0.000702053 9.78758 
9.70141 0.0174 -0.0466094 
0.0174 9.78674 -0.0138283 
-0.0466094 -0.0138283 9.81845 
9.69704 0.0151741 0.0135769 
0.0151741 9.70055 0.0809972 
0.0135769 0.0809972 9.79696 
9.66981 0.0186246 0.0217343 
0.0186246 9.67878 -0.00458548 
0.0217343 -0.00458548 9.84596 
9.66006 0.0237449 0.0125127 
0.0237449 9.72456 -0.0131165 
0.0125127 -0.0131165 9.80993 
9.66003 0.0122726 -0.0244398 
0.0122726 9.71609 0.00505864 
-0.0244398 0.00505864 9.81843 
9.59378 0.00774859 -0.110342 
0.00774859 9.60321 0.319816 
-0.110342 0.319816 9.64224 
9.62098 0.0324248 -0.104026 
0.0324248 9.59276 0.312629 
-0.104026 0.312629 9.6255 
9.59193 0.00907217 -0.0917864 
0.00907217 9.63805 0.316385 
-0.0917864 0.316385 9.60926 
9.61211 0.000870003 -0.103513 
0.000870003 9.59899 0.327466 
-0.103513 0.327466 9.62813 
6.46358 0.903865 0.671823 
0.903865 3.62483 0.923348 
0.671823 0.923348 -1.28325 
1.67432 -0.941831 -1.89878 
-0.941831 1.72637 -1.73442 
-1.89878 -1.73442 5.40446 
3.38869 2.11917 1.17711 
2.11917 5.97086 1.65855 
1.17711 1.65855 -0.554393 
5.04309 1.88923 -0.213416 
1.88923 4.68817 -1.25955 
-0.213416 -1.25955 -0.926108 
9.77269 -0.0249021 -0.178503 
-0.0249021 9.68234 0.038345 
-0.178503 0.038345 9.64153 
9.7887 -0.110006 -0.153952 
-0.110006 9.73844 0.0483434 
-0.153952 0.0483434 9.56941 
9.79249 0.00744704 -0.199042 
0.00744704 9.65669 0.0475751 
-0.199042 0.0475751 9.64738 
9.75085 -0.0271304 -0.190337 
-0.0271304 9.67434 -0.00159839 
-0.190337 -0.00159839 9.67137 
9.6399 0.0242783 -0.131357 
0.0242783 9.74627 -0.241698 
-0.131357 -0.241698 9.51939 
9.69829 0.025857 -0.141434 
0.025857 9.70364 -0.362731 
-0.141434 -0.362731 9.50364 
9.64679 0.0382473 -0.123012 
0.0382473 9.69837 -0.272043 
-0.123012 -0.272043 9.56041 
9.66502 0.0694529 -0.156629 
0.0694529 9.56002 -0.253108 
-0.156629 -0.253108 9.68052 
6.00512 -0.580953 1.52103 
-0.580953 3.10263 0.898955 
1.52103 0.898955 1.55206 
3.17736 0.0184034 0.223831 
0.0184034 3.75247 0.906955 
0.223831 0.906955 3.72998 
4.94056 1.03036 1.66174 
1.03036 6.4403 0.0661023 
1.66174 0.0661023 -0.721049 
4.0681 0.154371 -0.62587 
0.154371 4.63207 1.54518 
-0.62587 1.54518 1.95965 
9.80562 -0.040765 0.127095 
-0.040765 9.72582 0.219401 
0.127095 0.219401 9.81032 
9.75574 -0.000708717 0.170546 
-0.000708717 9.74279 0.207036 
0.170546 0.207036 9.84322 
9.73739 -0.0146101 0.158751 
-0.0146101 9.7481 0.224012 
0.158751 0.224012 9.85627 
9.76955 -0.00814499 0.144002 
-0.00814499 9.76533 0.245269 
0.144002 0.245269 9.80687 
9.6799 -0.0759251 0.047386 
-0.0759251 9.54376 0.0836976 
0.047386 0.0836976 9.93919 
9.5974 -0.0421498 0.188239 
-0.0421498 9.69087 0.253395 
0.188239 0.253395 9.87459 
9.73707 -0.147318 0.0404853 
-0.147318 9.31228 0.126985 
0.0404853 0.126985 10.1135 
9.54294 0.0544464 0.0157654 
0.0544464 9.63786 -0.0171859 
0.0157654 -0.0171859 9.98204 
9.59477 -0.0129099 0.131581 
-0.0129099 9.61372 0.32182 
0.131581 0.32182 9.65105 
9.59849 -0.00866525 0.137182 
-0.00866525 9.61762 0.320781 
0.137182 0.320781 9.64343 
9.57947 0.00674124 0.132358 
0.00674124 9.61969 0.332279 
0.132358 0.332279 9.66038 
9.61888 -0.00185275 0.140086 
-0.00185275 9.60148 0.321377 
0.140086 0.321377 9.63918 
9.89781 -0.00437073 0.0233902 
-0.00437073 9.8915 -0.00970986 
0.0233902 -0.00970986 9.92161 
9.87838 0.00495642 0.0583484 
0.00495642 9.88488 -0.00665951 
0.0583484 -0.00665951 9.94765 
9.88319 0.0090494 0.00260813 
0.0090494 9.93001 0.000474428 
0.00260813 0.000474428 9.89772 
9.89895 -0.0134427 0.0305692 
-0.0134427 9.9032 0.00926586 
0.0305692 0.00926586 9.90877 
9.49046 -0.308206 -0.0386929 
-0.308206 9.72246 -0.0107068 
-0.0386929 -0.0107068 9.93648 
9.70453 0.0270337 0.243335 
0.0270337 9.70411 0.262261 
0.243335 0.262261 9.74076 
9.60521 -0.283056 0.0184195 
-0.283056 9.62044 0.238644 
0.0184195 0.238644 9.92375 
9.3505 -0.260504 0.152708 
-0.260504 9.58004 0.135669 
0.152708 0.135669 10.2189 
9.66927 -0.521488 0.150357 
-0.521488 8.79986 0.206732 
0.150357 0.206732 9.23536 
9.38185 -0.399897 -0.166236 
-0.399897 9.2124 0.435265 
-0.166236 0.435265 9.11025 
10.2933 -0.573603 0.0813157 
-0.573603 8.72378 0.631849 
0.0813157 0.631849 8.68741 
9.37343 -0.146207 0.368256 
-0.146207 9.27831 0.182996 
0.368256 0.182996 9.05276 
11.3124 -0.889887 0.678318 
-0.889887 14.8875 0.919478 
0.678318 0.919478 10.2238 
10.8517 0.444141 -0.0161902 
0.444141 9.43734 -1.45634 
-0.0161902 -1.45634 16.1346 
11.2389 -1.53024 0.427274 
-1.53024 10.7561 0.152407 
0.427274 0.152407 14.4287 
12.1588 -1.53366 -0.372381 
-1.53366 10.0285 2.30293 
-0.372381 2.30293 14.2363 
9.88524 0.409627 -0.0769617 
0.409627 9.76935 0.97437 
-0.0769617 0.97437 7.97054 
9.74209 -0.421287 -0.8412 
-0.421287 8.72244 0.130879 
-0.8412 0.130879 9.1606 
10.1475 0.705671 0.371589 
0.705671 9.03781 1.55099 
0.371589 1.55099 8.43983 
9.9582 0.752604 -1.66377 
0.752604 10.5909 0.9667 
-1.66377 0.9667 7.076 
10.0338 0.050862 0.00338884 
0.050862 9.42546 -1.06884 
0.00338884 -1.06884 9.29375 
9.58344 0.0166803 -0.018645 
0.0166803 9.42941 -1.14604 
-0.018645 -1.14604 9.74021 
9.83537 0.165679 -0.0625377 
0.165679 9.38149 -0.63548 
-0.0625377 -0.63548 9.53621 
9.87579 -0.446736 -0.0601107 
-0.446736 9.3783 -1.20196 
-0.0601107 -1.20196 9.49897 
10.0398 -0.00255245 -0.0310486 
-0.00255245 10.0402 0.015531 
-0.0310486 0.015531 9.99492 
10.0775 -0.0101574 -0.0717896 
-0.0101574 10.0776 -0.039114 
-0.0717896 -0.039114 9.91978 
10.0337 -0.00446107 -0.046121 
-0.00446107 10.0376 0.00233043 
-0.046121 0.00233043 10.0036 
10.0297 -0.00546531 -0.0339128 
-0.00546531 10.076 -0.0245291 
-0.0339128 -0.0245291 9.96917 
9.51299 -0.0705976 -0.215165 
-0.0705976 9.6386 -0.0910399 
-0.215165 -0.0910399 9.71902 
9.69983 0.0723849 -0.262589 
0.0723849 9.61777 -0.179321 
-0.262589 -0.179321 9.55302 
9.59942 0.0296477 -0.285585 
0.0296477 9.59944 -0.125527 
-0.285585 -0.125527 9.67175 
9.56437 -0.014653 -0.327552 
-0.014653 9.57637 -0.13713 
-0.327552 -0.13713 9.72987 
10.0705 -0.0386041 0.0493454 
-0.0386041 9.91962 -0.00655483 
0.0493454 -0.00655483 10.3142 
10.0169 0.150196 -0.140528 
0.150196 9.99268 -0.257775 
-0.140528 -0.257775 10.2947 
10.0663 0.113614 0.149015 
0.113614 10.0914 0.184865 
0.149015 0.184865 10.1466 
10.018 -0.0647737 0.0896578 
-0.0647737 9.82512 -0.041 
0.0896578 -0.041 10.4612 
9.776 0.00418731 0.294369 
0.00418731 9.76814 0.132626 
0.294369 0.132626 9.71717 
9.75267 -0.00372096 0.311342 
-0.00372096 9.75566 0.108563 
0.311342 0.108563 9.75298 
9.74145 0.026553 0.305353 
0.026553 9.72039 0.141193 
0.305353 0.141193 9.79946 
9.75974 0.00164299 0.299495 
0.00164299 9.7483 0.117691 
0.299495 0.117691 9.75326 
10.3009 -0.278191 0.192657 
-0.278191 9.32827 -1.33949 
0.192657 -1.33949 8.39709 
9.58384 0.311378 0.326535 
0.311378 9.42701 -0.881399 
0.326535 -0.881399 9.01542 
9.71674 0.297773 0.281012 
0.297773 9.6043 -0.698615 
0.281012 -0.698615 8.70524 
9.56795 -0.225833 -0.11202 
-0.225833 9.24408 -0.474649 
-0.11202 -0.474649 9.21425 
9.71537 0.0269501 0.110597 
0.0269501 9.30114 -0.206367 
0.110597 -0.206367 9.90335 
9.89078 0.0751098 0.151792 
0.0751098 9.17511 -0.514402 
0.151792 -0.514402 9.85397 
9.69415 -0.0540828 -0.00107062 
-0.0540828 9.40401 -0.454923 
-0.00107062 -0.454923 9.8217 
9.51979 -0.18199 0.159303 
-0.18199 9.73749 -0.487614 
0.159303 -0.487614 9.66258 
10.5898 1.53448 -3.15588 
1.53448 8.21707 5.32043 
-3.15588 5.32043 6.92825 
8.70021 0.314019 -2.58055 
0.314019 8.69654 4.19428 
-2.58055 4.19428 8.33832 
8.86378 2.60112 -1.68386 
2.60112 7.84939 2.27162 
-1.68386 2.27162 9.0219 
9.98763 -1.7779 -0.395177 
-1.7779 8.77009 1.09142 
-0.395177 1.09142 6.97735 
8.32138 -0.110666 -0.556143 
-0.110666 7.96077 -0.335241 
-0.556143 -0.335241 -3.28661 
1.36887 -0.105546 -1.39577 
-0.105546 4.01929 0.641157 
-1.39577 0.641157 7.60738 
10.0019 1.63462 0.414498 
1.63462 5.76885 -2.01229 
0.414498 -2.01229 -2.77524 
7.58237 -2.65541 -5.92023 
-2.65541 4.92219 -2.73399 
-5.92023 -2.73399 0.490978 
9.67169 -0.596525 0.338114 
-0.596525 9.62677 0.172819 
0.338114 0.172819 10.2174 
9.50813 -0.759134 0.495121 
-0.759134 10.0867 0.239136 
0.495121 0.239136 9.92098 
9.56217 0.281031 -1.2437 
0.281031 9.68113 -0.836925 
-1.2437 -0.836925 10.2725 
9.18578 -0.949117 -0.176202 
-0.949117 9.66592 0.00150883 
-0.176202 0.00150883 10.6641 
9.72536 -0.0891213 -0.15528 
-0.0891213 9.62513 -0.0472505 
-0.15528 -0.0472505 9.77676 
9.73501 -0.0430271 -0.176241 
-0.0430271 9.57156 -0.176818 
-0.176241 -0.176818 9.82068 
9.37295 -0.0992044 -0.108005 
-0.0992044 9.91778 -0.0707411 
-0.108005 -0.0707411 9.83653 
9.55368 -0.201252 -0.279592 
-0.201252 9.71607 -0.00838339 
-0.279592 -0.00838339 9.85751 
9.73129 -0.00443613 0.338229 
-0.00443613 9.72127 0.0348025 
0.338229 0.0348025 9.69422 
9.74218 -0.00441154 0.337084 
-0.00441154 9.70318 0.0463837 
0.337084 0.0463837 9.70141 
9.71964 -0.00250619 0.31594 
-0.00250619 9.69198 0.0653496 
0.31594 0.0653496 9.73516 
9.75668 -0.0113538 0.323724 
-0.0113538 9.72505 0.0254182 
0.323724 0.0254182 9.66505 
8.54617 1.40206 0.750116 
1.40206 11.5615 -1.06042 
0.750116 -1.06042 11.8201 
10.1177 1.04626 1.77952 
1.04626 8.2451 -1.95637 
1.77952 -1.95637 13.565 
10.9056 0.872204 -0.117911 
0.872204 9.62939 -2.28438 
-0.117911 -2.28438 11.3928 
10.6245 1.19071 0.968305 
1.19071 9.52238 -1.76592 
0.968305 -1.76592 11.7808 
9.79892 -0.00232089 -0.32692 
-0.00232089 9.78434 -0.0482071 
-0.32692 -0.0482071 9.75465 
9.79628 0.0123759 -0.326239 
0.0123759 9.76242 -0.0329905 
-0.326239 -0.0329905 9.77922 
9.79653 0.000163852 -0.313549 
0.000163852 9.78556 -0.047954 
-0.313549 -0.047954 9.75582 
9.80389 -0.00394943 -0.319601 
-0.00394943 9.78155 -0.0504961 
-0.319601 -0.0504961 9.75247 
9.62672 0.0234042 -0.0116547 
0.0234042 9.62678 -0.344518 
-0.0116547 -0.344518 9.69998 
9.65309 -0.00766615 -0.00226506 
-0.00766615 9.66652 -0.336218 
-0.00226506 -0.336218 9.63387 
9.68778 0.00947639 0.00939179 
0.00947639 9.68352 -0.359974 
0.00939179 -0.359974 9.58218 
9.64986 -0.0252174 -0.0045031 
-0.0252174 9.66844 -0.335663 
-0.0045031 -0.335663 9.63517 
9.4356 0.209818 0.266939 
0.209818 9.53706 -0.113892 
0.266939 -0.113892 9.70352 
9.37764 0.13858 0.273763 
0.13858 9.62052 -0.185333 
0.273763 -0.185333 9.67802 
9.2214 0.0874284 0.341331 
0.0874284 9.48997 -0.370916 
0.341331 -0.370916 9.96481 
9.52684 0.036592 0.520342 
0.036592 9.88335 -0.169671 
0.520342 -0.169671 9.26599 
8.54245 0.174532 0.237951 
0.174532 8.27455 -0.366262 
0.237951 -0.366262 6.69563 
9.13959 -0.137579 -0.0764662 
-0.137579 7.94258 -0.374075 
-0.0764662 -0.374075 6.43046 
7.84548 0.598974 -1.03524 
0.598974 9.09879 1.09807 
-1.03524 1.09807 6.56835 
9.15938 -0.0159238 0.140711 
-0.0159238 9.09045 -0.379915 
0.140711 -0.379915 5.2628 
10.1494 -0.00768232 0.00547484 
-0.00768232 10.1504 0.0052789 
0.00547484 0.0052789 10.0042 
10.1697 -0.00177377 0.00731307 
-0.00177377 10.1757 -0.0259267 
0.00731307 -0.0259267 9.95861 
10.1687 -0.0103102 -0.00793486 
-0.0103102 10.1531 -0.0224504 
-0.00793486 -0.0224504 9.98218 
10.183 -0.0036289 0.00611467 
-0.0036289 10.1664 -0.0341231 
0.00611467 -0.0341231 9.95472 
9.71502 -0.0144326 -0.334965 
-0.0144326 9.66894 0.0373869 
-0.334965 0.0373869 9.61861 
9.72153 0.0106327 -0.31473 
0.0106327 9.68817 0.0423332 
-0.31473 0.0423332 9.59286 
9.7331 -0.00705508 -0.327694 
-0.00705508 9.65124 0.0114986 
-0.327694 0.0114986 9.61823 
9.68789 0.0381892 -0.251927 
0.0381892 9.69426 0.0138495 
-0.251927 0.0138495 9.62042 
9.28243 0.339607 0.0117661 
0.339607 9.58791 -0.476188 
0.0117661 -0.476188 9.51081 
7.78854 0.260834 0.466247 
0.260834 10.4719 -0.404271 
0.466247 -0.404271 10.1207 
9.30648 0.714721 0.634847 
0.714721 9.67594 -0.533319 
0.634847 -0.533319 9.39873 
8.73773 0.406921 0.213853 
0.406921 10.2743 -0.528169 
0.213853 -0.528169 9.36915 
9.86232 -0.0368232 -0.114135 
-0.0368232 9.82035 0.0383261 
-0.114135 0.0383261 9.85989 
9.87948 -0.0269026 -0.09688 
-0.0269026 9.81 0.0397906 
-0.09688 0.0397906 9.85308 
9.85472 -0.0149891 -0.120659 
-0.0149891 9.81856 0.05451 
-0.120659 0.05451 9.86928 
9.87237 -0.0204966 -0.0642763 
-0.0204966 9.84035 0.0360301 
-0.0642763 0.0360301 9.82984 
10.2297 -0.0933299 -0.209239 
-0.0933299 9.83171 -0.61088 
-0.209239 -0.61088 10.4498 
10.652 -0.261989 -0.111174 
-0.261989 9.60918 -0.865814 
-0.111174 -0.865814 10.2501 
11.0425 -0.140366 0.0636806 
-0.140366 8.80222 -1.59155 
0.0636806 -1.59155 10.6665 
10.1512 -0.3537 -0.368359 
-0.3537 10.2728 -0.980019 
-0.368359 -0.980019 10.0872 
9.61103 -0.0536527 -0.286003 
-0.0536527 9.61 0.200468 
-0.286003 0.200468 9.65583 
9.58145 0.0425308 -0.253209 
0.0425308 9.69801 0.278328 
-0.253209 0.278328 9.5974 
9.66549 0.0523482 -0.230069 
0.0523482 9.59107 0.306312 
-0.230069 0.306312 9.62031 
9.608 0.0202381 -0.253011 
0.0202381 9.62157 0.234002 
-0.253011 0.234002 9.64729 
9.70656 -0.0125801 0.247147 
-0.0125801 9.6977 -0.234245 
0.247147 -0.234245 9.63458 
9.68519 0.0171631 0.231034 
0.0171631 9.67668 -0.254598 
0.231034 -0.254598 9.67696 
9.6847 -0.0227788 0.243824 
-0.0227788 9.67012 -0.232293 
0.243824 -0.232293 9.68402 
9.67375 0.0049495 0.235189 
0.0049495 9.70028 -0.236567 
0.235189 -0.236567 9.6648 
9.88479 0.936921 0.71017 
0.936921 8.15812 -0.258834 
0.71017 -0.258834 11.445 
10.0088 0.473736 0.962123 
0.473736 8.28289 -0.971912 
0.962123 -0.971912 11.1962 
10.2736 0.781934 -0.0457777 
0.781934 7.83002 -1.64038 
-0.0457777 -1.64038 11.3842 
9.68358 0.801706 -0.276421 
0.801706 9.46983 -1.6478 
-0.276421 -1.6478 10.3345 
5.68292 -0.543869 -1.35673 
-0.543869 4.96321 -1.12624 
-1.35673 -1.12624 0.738998 
4.65868 -0.00161963 -0.721353 
-0.00161963 4.95035 -1.17876 
-0.721353 -1.17876 1.7761 
4.7493 0.0671486 -1.05084 
0.0671486 5.77012 -0.608353 
-1.05084 -0.608353 0.865707 
4.13329 0.247857 0.0189841 
0.247857 4.95083 -0.915685 
0.0189841 -0.915685 2.30101 
10.0681 0.264048 0.0623875 
0.264048 10.2582 0.255791 
0.0623875 0.255791 9.70428 
9.87485 0.00953762 -0.0802827 
0.00953762 10.0949 0.0146727 
-0.0802827 0.0146727 10.0609 
9.91661 0.0645434 -0.0631659 
0.0645434 10.3854 -0.0760547 
-0.0631659 -0.0760547 9.72851 
9.95156 -0.0680999 0.0240362 
-0.0680999 9.59282 -0.159043 
0.0240362 -0.159043 10.4862 
8.6651 -0.111128 -2.02797 
-0.111128 9.73811 -0.639457 
-2.02797 -0.639457 15.1833 
14.8971 0.946232 1.46805 
0.946232 12.1338 1.71535 
1.46805 1.71535 6.55561 
11.1805 -0.0397896 -0.104206 
-0.0397896 10.0491 0.47026 
-0.104206 0.47026 12.3569 
8.76567 -2.66185 2.2688 
-2.66185 9.22828 1.59232 
2.2688 1.59232 15.5926 
9.54577 0.262499 0.0192115 
0.262499 9.8584 0.0802217 
0.0192115 0.0802217 9.57833 
9.65456 -0.0485073 0.0681083 
-0.0485073 9.56151 0.193539 
0.0681083 0.193539 9.76642 
9.83855 -0.278502 0.0743005 
-0.278502 9.04395 0.112056 
0.0743005 0.112056 10.1 
9.4786 -0.133565 0.152108 
-0.133565 9.66045 0.416405 
0.152108 0.416405 9.84344 
9.92849 -0.0386567 -0.0839036 
-0.0386567 9.99006 -0.0529879 
-0.0839036 -0.0529879 9.88669 
9.96893 -0.0279697 -0.0432865 
-0.0279697 9.99635 -0.0623769 
-0.0432865 -0.0623769 9.83995 
9.73032 -0.0492888 -0.0487596 
-0.0492888 9.84857 -0.0250041 
-0.0487596 -0.0250041 10.2263 
9.94807 -0.075641 -0.148692 
-0.075641 9.96225 -0.143746 
-0.148692 -0.143746 9.89491 
10.055 -0.0555984 0.0212653 
-0.0555984 9.98018 -0.00869778 
0.0212653 -0.00869778 9.95325 
10.0101 -0.0615528 -0.00544863 
-0.0615528 9.96513 0.0288067 
-0.00544863 0.0288067 10.0133 
10.0536 -0.0397327 0.012703 
-0.0397327 9.99557 0.00403675 
0.012703 0.00403675 9.9393 
10.0546 -0.0404648 0.00744226 
-0.0404648 10.0289 -0.0155949 
0.00744226 -0.0155949 9.90496 
9.11188 0.587316 -0.51778 
0.587316 9.47273 -0.050484 
-0.51778 -0.050484 10.4605 
9.54716 0.669364 -0.587613 
0.669364 9.40003 0.67812 
-0.587613 0.67812 10.0979 
9.47984 0.265051 0.257325 
0.265051 9.2813 0.380588 
0.257325 0.380588 10.284 
9.46906 0.345715 -0.68034 
0.345715 9.29677 0.33266 
-0.68034 0.33266 10.2793 
9.75211 0.0155874 0.098396 
0.0155874 9.73872 -0.298408 
0.098396 -0.298408 9.79093 
9.77082 -0.00724133 0.0851334 
-0.00724133 9.78352 -0.32082 
0.0851334 -0.32082 9.72742 
9.76667 -0.00145534 0.0713027 
-0.00145534 9.75818 -0.306641 
0.0713027 -0.306641 9.7569 
9.75852 -0.00409208 0.069317 
-0.00409208 9.7794 -0.308483 
0.069317 -0.308483 9.74383 
9.77083 0.00283759 0.176237 
0.00283759 9.79679 0.262773 
0.176237 0.262773 9.76317 
9.77745 0.00276289 0.172469 
0.00276289 9.79395 0.26372 
0.172469 0.26372 9.75939 
9.80064 0.0187618 0.18809 
0.0187618 9.79105 0.237567 
0.18809 0.237567 9.73909 
9.77759 -0.000525719 0.147028 
-0.000525719 9.77581 0.272848 
0.147028 0.272848 9.77738 
9.79676 -0.0191048 -0.0325028 
-0.0191048 9.85979 0.0435095 
-0.0325028 0.0435095 9.90116 
9.83729 -0.0416297 -0.0363798 
-0.0416297 9.84663 0.0502007 
-0.0363798 0.0502007 9.87379 
9.82826 -0.00867484 -0.0548955 
-0.00867484 9.83195 0.0333725 
-0.0548955 0.0333725 9.8975 
9.84252 -0.0126986 -0.0483134 
-0.0126986 9.83858 0.0344012 
-0.0483134 0.0344012 9.87662 
9.55478 0.0160667 -0.0961013 
0.0160667 9.59873 0.31172 
-0.0961013 0.31172 9.65289 
9.57585 0.0295753 -0.0922182 
0.0295753 9.5664 0.302364 
-0.0922182 0.302364 9.66414 
9.57869 0.0234995 -0.122752 
0.0234995 9.62058 0.299471 
-0.122752 0.299471 9.60712 
9.54819 0.0394048 -0.0887946 
0.0394048 9.589 0.325579 
-0.0887946 0.325579 9.6692 
9.75274 0.00495719 -0.129223 
0.00495719 9.82606 -0.0960683 
-0.129223 -0.0960683 9.85273 
9.80287 0.0252635 -0.210675 
0.0252635 9.82903 -0.104828 
-0.210675 -0.104828 9.79963 
9.96092 0.0124421 -0.137767 
0.0124421 9.75017 -0.0696216 
-0.137767 -0.0696216 9.72043 
9.81343 0.0209362 -0.153929 
0.0209362 9.78984 -0.0673997 
-0.153929 -0.0673997 9.82825 
9.59676 -0.080414 0.443952 
-0.080414 9.59719 0.244563 
0.443952 0.244563 9.21921 
9.60631 -0.0446502 0.359973 
-0.0446502 9.48759 0.23097 
0.359973 0.23097 9.31925 
9.43344 -0.025773 0.531861 
-0.025773 9.58031 0.0944125 
0.531861 0.0944125 9.39941 
9.40988 -0.0463909 0.554111 
-0.0463909 9.55948 0.151331 
0.554111 0.151331 9.4438 
9.8789 -0.016608 -0.0151622 
-0.016608 9.68879 -0.164768 
-0.0151622 -0.164768 9.9587 
9.85283 -0.0304588 -0.0220578 
-0.0304588 9.71339 -0.151437 
-0.0220578 -0.151437 9.96017 
9.91327 -0.0681657 -0.0622564 
-0.0681657 9.66312 -0.280932 
-0.0622564 -0.280932 9.95001 
9.7473 0.127174 -0.108853 
0.127174 9.97326 -0.181187 
-0.108853 -0.181187 9.80584 
9.49193 -0.151764 0.0163017 
-0.151764 9.52759 0.0906923 
0.0163017 0.0906923 9.40716 
9.52272 -0.0970929 0.0997996 
-0.0970929 9.61667 0.0848458 
0.0997996 0.0848458 9.28728 
9.43876 -0.141702 -0.0937652 
-0.141702 9.55738 0.0626232 
-0.0937652 0.0626232 9.43053 
9.46479 -0.0270213 0.0881878 
-0.0270213 9.59177 0.0671042 
0.0881878 0.0671042 9.37011 
5.62853 -1.89033 0.710492 
-1.89033 4.75031 0.737474 
0.710492 0.737474 -1.52832 
4.18009 -0.561242 -0.259167 
-0.561242 5.72445 1.47487 
-0.259167 1.47487 -1.05402 
3.96516 -0.0774358 1.38477 
-0.0774358 1.37607 -1.22813 
1.38477 -1.22813 3.50929 
3.97028 -1.7758 0.11642 
-1.7758 4.64194 -1.74785 
0.11642 -1.74785 0.238304 
6.66815 -0.138535 -1.9318 
-0.138535 8.78036 4.31133 
-1.9318 4.31133 9.04178 
7.49918 0.234231 -0.922157 
0.234231 10.454 2.30292 
-0.922157 2.30292 6.53707 
11.057 1.40614 -2.6063 
1.40614 6.64823 5.12619 
-2.6063 5.12619 6.78501 
10.9025 0.188938 0.000411591 
0.188938 4.44708 1.4575 
0.000411591 1.4575 9.14069 
10.1491 -0.0126341 0.00719194 
-0.0126341 10.1345 -0.0142353 
0.00719194 -0.0142353 9.97125 
10.152 -0.0082637 -0.00677883 
-0.0082637 10.0955 0.000985737 
-0.00677883 0.000985737 10.0074 
10.1526 -0.00561755 0.020359 
-0.00561755 10.1362 -0.000925133 
0.020359 -0.000925133 9.96605 
10.1627 -0.00603823 0.0219965 
-0.00603823 10.1466 -0.00161172 
0.0219965 -0.00161172 9.9456 
9.86872 0.0180182 0.0349285 
0.0180182 9.86978 0.0130823 
0.0349285 0.0130823 9.92557 
9.83365 -0.0126753 0.0219413 
-0.0126753 9.88596 0.0334563 
0.0219413 0.0334563 9.94447 
9.87341 0.0514572 -0.0141657 
0.0514572 9.9258 0.0222866 
-0.0141657 0.0222866 9.86485 
9.8964 0.0205774 0.0611476 
0.0205774 9.83519 0.00138454 
0.0611476 0.00138454 9.93247 
9.77672 0.00914863 -0.310175 
0.00914863 9.7837 0.0518833 
-0.310175 0.0518833 9.74523 
9.78081 -0.00809293 -0.320528 
-0.00809293 9.75512 0.0274501 
-0.320528 0.0274501 9.76971 
9.79393 0.00975374 -0.314463 
0.00975374 9.75902 0.0358486 
-0.314463 0.0358486 9.7527 
9.79319 0.000255884 -0.310061 
0.000255884 9.77096 0.0427416 
-0.310061 0.0427416 9.7415 
9.56959 -0.0250663 0.20506 
-0.0250663 9.60667 0.269063 
0.20506 0.269063 9.50513 
9.56737 -0.0259689 0.201242 
-0.0259689 9.51386 0.270291 
0.201242 0.270291 9.60015 
9.55515 -0.00792535 0.218775 
-0.00792535 9.51701 0.302132 
0.218775 0.302132 9.60922 
9.57053 -0.0284254 0.223427 
-0.0284254 9.52054 0.282647 
0.223427 0.282647 9.59032 
9.70612 -0.0134655 -0.266059 
-0.0134655 9.71052 0.187787 
-0.266059 0.187787 9.67878 
9.70613 -0.0278112 -0.281263 
-0.0278112 9.69953 0.177705 
-0.281263 0.177705 9.68975 
9.7002 0.00225969 -0.272992 
0.00225969 9.74035 0.191465 
-0.272992 0.191465 9.65487 
9.70465 -0.0188823 -0.272386 
-0.0188823 9.70197 0.195511 
-0.272386 0.195511 9.6888 
9.81485 0.232579 -0.107472 
0.232579 10.082 0.112125 
-0.107472 0.112125 10.3923 
9.87589 0.106295 0.130057 
0.106295 9.95743 0.0598514 
0.130057 0.0598514 10.4559 
9.83322 -0.109412 0.1277 
-0.109412 10.2011 0.155877 
0.1277 0.155877 10.2549 
9.68379 -0.101903 -0.0641261 
-0.101903 10.0211 0.103094 
-0.0641261 0.103094 10.5843 
9.91408 0.0249903 0.0273899 
0.0249903 9.68788 0.16388 
0.0273899 0.16388 9.87918 
9.67848 -0.0267486 0.0278016 
-0.0267486 9.79789 0.143693 
0.0278016 0.143693 10.0048 
9.96025 -0.0447154 -0.0518612 
-0.0447154 9.58046 0.336263 
-0.0518612 0.336263 9.94043 
9.72324 -0.00754705 -0.0809571 
-0.00754705 10.0339 0.260383 
-0.0809571 0.260383 9.72401 
7.57981 -0.728143 0.957963 
-0.728143 7.2081 -0.31305 
0.957963 -0.31305 -1.86405 
5.69643 -0.187919 1.36871 
-0.187919 5.46987 -1.15627 
1.36871 -1.15627 1.75756 
4.43313 0.661688 1.01808 
0.661688 5.93894 -0.365844 
1.01808 -0.365844 2.55179 
4.60469 -0.743075 2.29219 
-0.743075 4.66462 -0.989594 
2.29219 -0.989594 3.65455 
10.6763 -0.26029 -1.32943 
-0.26029 8.77132 -0.317489 
-1.32943 -0.317489 9.20527 
9.07848 -1.16031 -0.632584 
-1.16031 8.25851 -1.8457 
-0.632584 -1.8457 11.3159 
10.0334 -0.521037 -0.759793 
-0.521037 9.44108 -1.39937 
-0.759793 -1.39937 9.17846 
9.46482 -0.394831 -0.802473 
-0.394831 10.1046 -1.52049 
-0.802473 -1.52049 9.08347 
12.3867 1.57825 0.299018 
1.57825 8.46579 0.713042 
0.299018 0.713042 10.5169 
9.70286 -2.91163 -0.0263535 
-2.91163 8.77046 3.10886 
-0.0263535 3.10886 12.896 
10.2625 -0.367395 2.71681 
-0.367395 10.9843 2.75516 
2.71681 2.75516 10.1225 
11.5115 -1.05879 0.803938 
-1.05879 9.17669 2.73932 
0.803938 2.73932 10.6811 
9.79769 0.071183 0.0291064 
0.071183 9.70955 0.0140352 
0.0291064 0.0140352 9.69512 
9.75054 0.0176625 0.0838907 
0.0176625 9.7147 -0.00332882 
0.0838907 -0.00332882 9.73711 
9.75834 0.0225662 0.0657247 
0.0225662 9.69143 0.0342145 
0.0657247 0.0342145 9.75259 
9.78629 0.0210481 0.100993 
0.0210481 9.69684 0.114798 
0.100993 0.114798 9.71923 
10.0596 -0.0716986 0.261158 
-0.0716986 9.56741 -0.260319 
0.261158 -0.260319 9.89875 
9.75479 -0.109628 -0.0765953 
-0.109628 9.5596 0.108974 
-0.0765953 0.108974 10.2113 
9.77566 -0.0340187 -0.00124673 
-0.0340187 9.41422 -0.0474326 
-0.00124673 -0.0474326 10.3358 
9.85237 0.00652048 -0.0537199 
0.00652048 9.28714 -0.0930569 
-0.0537199 -0.0930569 10.3862 
10.0705 -0.0611316 -0.388825 
-0.0611316 9.40901 -0.189209 
-0.388825 -0.189209 9.09479 
9.18357 -0.103666 -0.802209 
-0.103666 9.86534 -0.511051 
-0.802209 -0.511051 9.5254 
9.5758 -0.192338 -0.235717 
-0.192338 9.33304 -0.152029 
-0.235717 -0.152029 9.66547 
10.3025 0.132523 -0.324791 
0.132523 9.67762 0.189281 
-0.324791 0.189281 8.59418 
10.0388 -0.0901872 -0.220573 
-0.0901872 10.0089 0.455804 
-0.220573 0.455804 8.81659 
9.93077 0.186982 -0.865095 
0.186982 10.0609 0.4447 
-0.865095 0.4447 8.87262 
9.96508 -0.233301 -0.399124 
-0.233301 10.0049 0.25772 
-0.399124 0.25772 8.89433 
9.50664 0.0272081 -0.363021 
0.0272081 9.60966 0.124531 
-0.363021 0.124531 9.74797 
15.8502 -0.656589 -0.0276392 
-0.656589 12.9719 -0.678709 
-0.0276392 -0.678709 9.36509 
11.4558 -1.57131 -0.37874 
-1.57131 9.37763 -0.754506 
-0.37874 -0.754506 17.3537 
10.6319 -1.02201 0.954439 
-1.02201 8.76795 1.99567 
0.954439 1.99567 18.7873 
13.2802 -2.71746 -5.5418 
-2.71746 11.0331 1.81155 
-5.5418 1.81155 13.8739 
9.55185 -0.518639 0.239371 
-0.518639 9.55801 0.262097 
0.239371 0.262097 10.127 
9.66202 -0.23004 0.178811 
-0.23004 9.95552 0.358211 
0.178811 0.358211 9.61934 
9.21144 -0.295957 0.790735 
-0.295957 9.70044 0.296194 
0.790735 0.296194 10.325 
9.12461 0.0379602 0.190158 
0.0379602 9.27135 -0.107849 
0.190158 -0.107849 10.8409 
8.55018 0.207522 -0.0100046 
0.207522 9.95181 0.2074 
-0.0100046 0.2074 9.39145 
8.75299 -0.0156017 -0.209113 
-0.0156017 9.78877 0.451543 
-0.209113 0.451543 9.35168 
8.67242 0.0564252 -0.0583733 
0.0564252 9.11986 0.700547 
-0.0583733 0.700547 10.1012 
8.62557 -0.236587 0.0368811 
-0.236587 9.47514 0.915602 
0.0368811 0.915602 9.79273 
8.79906 1.18916 0.90232 
1.18916 8.79438 -1.34566 
0.90232 -1.34566 9.37174 
9.23047 0.808224 0.603363 
0.808224 8.99801 -1.73228 
0.603363 -1.73228 8.73671 
9.51734 0.680711 0.852239 
0.680711 8.84913 -2.12753 
0.852239 -2.12753 8.59871 
9.07025 0.750818 0.379044 
0.750818 9.74987 -1.63814 
0.379044 -1.63814 8.14507 
9.65243 -0.14331 0.101041 
-0.14331 9.99307 0.0854973 
0.101041 0.0854973 9.93047 
9.81269 -0.0268059 0.143698 
-0.0268059 9.71224 0.0843303 
0.143698 0.0843303 10.051 
9.70911 -0.0207322 0.236632 
-0.0207322 9.90936 0.193983 
0.236632 0.193983 9.95749 
10.0062 -0.0136934 0.155607 
-0.0136934 9.75539 0.200681 
0.155607 0.200681 9.81436 
0.147695 -0.149795 -3.00944 
-0.149795 1.84987 -0.263154 
-3.00944 -0.263154 5.50112 
5.58126 1.034 1.42606 
1.034 4.74383 -0.628206 
1.42606 -0.628206 -2.8264 
7.19979 -2.24777 2.63302 
-2.24777 2.02659 -0.9791 
2.63302 -0.9791 -1.72768 
6.50564 -0.126617 -0.682426 
-0.126617 3.63887 0.536455 
-0.682426 0.536455 -2.64582 
9.73509 0.151565 0.186787 
0.151565 9.31128 -0.00259262 
0.186787 -0.00259262 9.71884 
9.51855 0.0268306 0.0135352 
0.0268306 9.38501 -0.392567 
0.0135352 -0.392567 9.86164 
9.4293 -0.03418 -0.0141283 
-0.03418 9.49311 -0.22457 
-0.0141283 -0.22457 9.8428 
9.57561 -0.072062 0.413376 
-0.072062 9.60603 -0.395577 
0.413376 -0.395577 9.58357 
9.60424 -0.399795 -0.604383 
-0.399795 10.5298 -1.2558 
-0.604383 -1.2558 14.1718 
9.97457 0.313225 0.174377 
0.313225 12.0136 0.521762 
0.174377 0.521762 12.3177 
10.6782 0.039529 0.258073 
0.039529 12.0931 0.795438 
0.258073 0.795438 11.5345 
11.278 0.288379 -1.04319 
0.288379 9.37583 1.10127 
-1.04319 1.10127 13.652 
9.57574 0.0929017 0.454641 
0.0929017 9.31251 0.561449 
0.454641 0.561449 9.65548 
9.45423 -0.117664 0.640928 
-0.117664 9.01236 0.213629 
0.640928 0.213629 10.0771 
9.59098 0.0958129 0.412304 
0.0958129 9.47262 0.152364 
0.412304 0.152364 9.48012 
9.4663 -0.0232908 0.423756 
-0.0232908 9.28216 0.466574 
0.423756 0.466574 9.79526 
10.144 -0.0147501 -0.740034 
-0.0147501 9.84613 -1.29365 
-0.740034 -1.29365 8.60968 
10.2497 0.165422 -0.312044 
0.165422 10.6346 -0.88462 
-0.312044 -0.88462 7.71556 
10.1576 0.0701084 -0.758758 
0.0701084 9.96928 -0.760676 
-0.758758 -0.760676 8.47301 
9.5312 0.248819 0.02694 
0.248819 9.42706 0.897001 
0.02694 0.897001 9.64159 
9.67074 -0.0065739 0.0684812 
-0.0065739 9.70622 -0.322625 
0.0684812 -0.322625 9.69194 
9.68845 -0.00318125 0.0800036 
-0.00318125 9.69943 -0.317845 
0.0800036 -0.317845 9.68101 
9.70395 0.00953395 0.0651292 
0.00953395 9.69675 -0.326785 
0.0651292 -0.326785 9.6682 
9.68772 0.00336231 0.0751362 
0.00336231 9.69716 -0.322 
0.0751362 -0.322 9.68402 
9.77187 -0.011459 0.23991 
-0.011459 9.78779 0.217404 
0.23991 0.217404 9.76797 
9.7608 0.0276628 0.229346 
0.0276628 9.75913 0.233981 
0.229346 0.233981 9.8077 
9.78903 -0.0396803 0.20864 
-0.0396803 9.78303 0.24188 
0.20864 0.24188 9.75556 
9.7867 -0.000570952 0.237085 
-0.000570952 9.77274 0.237364 
0.237085 0.237364 9.76818 
4.83524 -0.18336 -1.30493 
-0.18336 4.33177 0.299368 
-1.30493 0.299368 2.67338 
4.47758 0.900014 -1.4233 
0.900014 4.82372 -0.124226 
-1.4233 -0.124226 2.53909 
6.58603 -0.407821 -0.953523 
-0.407821 5.63248 -0.922663 
-0.953523 -0.922663 -0.378134 
4.49469 -0.569745 -1.51782 
-0.569745 3.96251 0.851263 
-1.51782 0.851263 3.38319 
9.3111 -0.0184408 0.124348 
-0.0184408 9.5259 -0.545159 
0.124348 -0.545159 9.72508 
9.54331 -0.0397604 0.0639206 
-0.0397604 9.64969 -0.365307 
0.0639206 -0.365307 9.36909 
9.30287 -0.0497236 0.371413 
-0.0497236 9.71137 -0.390939 
0.371413 -0.390939 9.54785 
9.37974 0.120723 0.404594 
0.120723 9.46765 -0.329945 
0.404594 -0.329945 9.7147 
9.67693 0.105299 0.043953 
0.105299 9.35501 0.177023 
0.043953 0.177023 10.2215 
9.00784 0.271131 -0.188892 
0.271131 9.65467 -0.07285 
-0.188892 -0.07285 10.591 
9.47325 0.453594 -0.363602 
0.453594 9.32647 0.0890101 
-0.363602 0.0890101 10.4537 
9.21051 0.231349 -0.278792 
0.231349 9.64855 -0.000271195 
-0.278792 -0.000271195 10.3944 
9.80127 0.0348989 -0.0147601 
0.0348989 9.83058 -0.203526 
-0.0147601 -0.203526 9.80732 
9.79377 0.0275681 -0.0244857 
0.0275681 9.80886 -0.198455 
-0.0244857 -0.198455 9.83654 
9.80495 -0.012668 -0.0475007 
-0.012668 9.81869 -0.211521 
-0.0475007 -0.211521 9.81553 
9.79363 -0.00753168 -0.0554389 
-0.00753168 9.8543 -0.193476 
-0.0554389 -0.193476 9.79124 
10.2927 0.351731 -0.0991742 
0.351731 10.5553 0.109989 
-0.0991742 0.109989 10.128 
10.1308 0.00139356 0.0967023 
0.00139356 9.72842 -0.0260859 
0.0967023 -0.0260859 11.1168 
10.0818 -0.0713221 -0.0592982 
-0.0713221 10.3975 0.166592 
-0.0592982 0.166592 10.4967 
10.1961 0.133679 -0.548376 
0.133679 10.2288 0.128872 
-0.548376 0.128872 10.5511 
9.84924 0.012916 -0.00812658 
0.012916 9.90518 -0.145016 
-0.00812658 -0.145016 9.85122 
9.84563 -0.0233302 -0.0139667 
-0.0233302 9.87512 -0.122494 
-0.0139667 -0.122494 9.88489 
9.86065 0.0318071 -0.01642 
0.0318071 9.8928 -0.120913 
-0.01642 -0.120913 9.85218 
9.88809 -0.0536774 -0.0517402 
-0.0536774 9.91086 -0.141424 
-0.0517402 -0.141424 9.80669 
12.3454 0.033786 -0.461831 
0.033786 12.1978 0.208138 
-0.461831 0.208138 13.8818 
12.8022 -1.34707 -0.865726 
-1.34707 9.9838 -0.113563 
-0.865726 -0.113563 15.639 
12.9994 -0.645553 -0.308088 
-0.645553 14.3414 -0.648045 
-0.308088 -0.648045 11.0842 
12.0336 -0.538212 0.405852 
-0.538212 12.9187 -0.252808 
0.405852 -0.252808 13.4727 
9.51541 0.00321742 0.0979911 
0.00321742 9.45374 -0.182254 
0.0979911 -0.182254 9.90875 
9.70603 -0.159216 -0.220704 
-0.159216 9.3133 -0.0959425 
-0.220704 -0.0959425 9.85857 
9.69326 0.155772 -0.176274 
0.155772 9.54692 -0.360702 
-0.176274 -0.360702 9.63771 
9.94076 -0.0358728 0.030743 
-0.0358728 9.59751 -0.722154 
0.030743 -0.722154 9.33963 
9.45975 -0.0627929 0.205682 
-0.0627929 9.64534 -0.0705242 
0.205682 -0.0705242 9.85038 
9.61556 0.0309488 -0.180994 
0.0309488 9.85633 0.163505 
-0.180994 0.163505 9.48357 
9.80984 0.00832237 -0.222714 
0.00832237 9.81349 -0.194717 
-0.222714 -0.194717 9.33214 
9.46174 0.191236 -0.00704647 
0.191236 9.9374 -0.216575 
-0.00704647 -0.216575 9.55633 
9.33079 -0.315686 0.665873 
-0.315686 9.74949 -1.18812 
0.665873 -1.18812 7.82405 
9.87157 -0.217775 0.589213 
-0.217775 10.4814 -1.43295 
0.589213 -1.43295 6.5514 
9.18259 0.365868 0.645326 
0.365868 9.2357 -0.125296 
0.645326 -0.125296 8.48604 
9.20996 -0.206615 0.720769 
-0.206615 9.3969 -1.50571 
0.720769 -1.50571 8.29747 
9.74946 -0.00534605 -0.299587 
-0.00534605 9.74799 -0.0990607 
-0.299587 -0.0990607 9.76499 
9.77249 -0.00300817 -0.315584 
-0.00300817 9.77075 -0.0875626 
-0.315584 -0.0875626 9.7192 
9.75577 -6.67642e-05 -0.308474 
-6.67642e-05 9.76313 -0.0734267 
-0.308474 -0.0734267 9.74354 
9.7708 -0.00084349 -0.311248 
-0.00084349 9.75699 -0.0782001 
-0.311248 -0.0782001 9.73465 
9.5089 -0.17127 0.307564 
-0.17127 9.67792 0.171232 
0.307564 0.171232 9.79465 
9.57582 -0.0245919 0.203452 
-0.0245919 9.6608 0.122367 
0.203452 0.122367 9.74484 
9.56415 -0.0141901 0.199594 
-0.0141901 9.66433 0.14222 
0.199594 0.14222 9.75299 
9.50289 0.00773108 0.206561 
0.00773108 9.67997 0.0651813 
0.206561 0.0651813 9.79861 
9.78814 0.0164415 0.144966 
0.0164415 9.77109 0.0826625 
0.144966 0.0826625 9.77625 
9.78022 0.0273112 0.127065 
0.0273112 9.7693 0.105391 
0.127065 0.105391 9.78595 
9.7928 0.0305209 0.149431 
0.0305209 9.78203 0.0953825 
0.149431 0.0953825 9.76064 
9.77708 0.0283156 0.141145 
0.0283156 9.75196 0.112476 
0.141145 0.112476 9.80644 
11.3385 -1.51648 -0.874098 
-1.51648 12.1253 0.041443 
-0.874098 0.041443 9.13736 
8.05132 0.309823 -0.398084 
0.309823 11.2417 -0.086538 
-0.398084 -0.086538 13.3082 
9.67701 0.294205 0.751901 
0.294205 9.27477 -0.552424 
0.751901 -0.552424 13.6494 
9.55779 0.0243522 -0.407675 
0.0243522 11.2491 1.23172 
-0.407675 1.23172 11.7943 
9.1161 -0.0487837 0.0587541 
-0.0487837 9.3587 -0.329155 
0.0587541 -0.329155 9.37121 
9.08335 -0.284741 -0.315092 
-0.284741 9.43346 -0.479395 
-0.315092 -0.479395 9.32919 
8.9615 -0.184582 0.110843 
-0.184582 9.60982 -0.440662 
0.110843 -0.440662 9.27467 
9.23553 0.0876611 -0.08764 
0.0876611 9.44345 -0.330345 
-0.08764 -0.330345 9.16702 
9.4628 0.194149 -0.0428882 
0.194149 9.21192 0.335202 
-0.0428882 0.335202 10.3814 
9.77926 0.0294366 -0.338395 
0.0294366 9.5691 0.207891 
-0.338395 0.207891 9.70779 
9.46278 0.415317 -0.294175 
0.415317 9.56046 0.788079 
-0.294175 0.788079 10.0329 
10.0132 -0.0707662 -0.219678 
-0.0707662 9.2003 0.400648 
-0.219678 0.400648 9.84269 
9.57224 -0.0939901 0.20564 
-0.0939901 9.61662 0.1943 
0.20564 0.1943 9.74977 
9.54663 -0.0601172 0.195835 
-0.0601172 9.6306 0.17776 
0.195835 0.17776 9.76139 
9.52951 -0.102361 0.25799 
-0.102361 9.6238 0.205632 
0.25799 0.205632 9.78532 
9.56205 -0.0556256 0.184531 
-0.0556256 9.62931 0.16091 
0.184531 0.16091 9.74727 
5.66802 0.644361 -2.64797 
0.644361 9.19051 0.586775 
-2.64797 0.586775 2.63755 
7.89027 0.8675 -1.70949 
0.8675 8.12112 0.230849 
-1.70949 0.230849 1.4847 
8.49743 -0.405432 -3.78621 
-0.405432 5.10803 2.36792 
-3.78621 2.36792 3.89062 
6.33446 0.490136 -2.71126 
0.490136 8.26604 0.816634 
-2.71126 0.816634 2.89559 
9.63226 0.0270042 0.0983584 
0.0270042 9.6114 -0.297995 
0.0983584 -0.297995 9.66333 
9.60487 -0.0182532 0.119521 
-0.0182532 9.66339 -0.26819 
0.119521 -0.26819 9.63874 
9.62271 0.0224698 0.105938 
0.0224698 9.60288 -0.324088 
0.105938 -0.324088 9.6814 
9.63703 -0.00744147 0.0927265 
-0.00744147 9.60347 -0.314733 
0.0927265 -0.314733 9.6665 
10.8039 -1.21905 -0.25122 
-1.21905 9.61044 -0.844838 
-0.25122 -0.844838 12.7915 
11.2727 -0.97719 -0.517396 
-0.97719 10.0121 -0.593407 
-0.517396 -0.593407 11.921 
10.4119 -1.34134 -0.612234 
-1.34134 9.60578 -0.807859 
-0.612234 -0.807859 13.1881 
10.9209 -1.14493 -0.601264 
-1.14493 10.1799 -0.698388 
-0.601264 -0.698388 12.105 
9.88648 -0.00777911 -0.0342433 
-0.00777911 9.87889 0.014831 
-0.0342433 0.014831 9.98407 
9.92425 0.01427 -0.00331551 
0.01427 9.86636 -0.0232396 
-0.00331551 -0.0232396 9.95883 
9.8926 -0.0175199 -0.035275 
-0.0175199 9.88017 0.0248194 
-0.035275 0.0248194 9.97668 
9.8649 0.0269505 -0.0469796 
0.0269505 9.90132 -0.0106972 
-0.0469796 -0.0106972 9.98322 
10.2002 -0.0375715 0.0447366 
-0.0375715 10.0479 -0.132532 
0.0447366 -0.132532 12.0603 
10.667 -0.48578 -0.153618 
-0.48578 11.1078 -0.116836 
-0.153618 -0.116836 10.5336 
9.76541 0.103226 -0.264553 
0.103226 11.5161 -0.00683036 
-0.264553 -0.00683036 11.0268 
10.2491 -0.0715514 -0.672753 
-0.0715514 11.3198 0.293077 
-0.672753 0.293077 10.7395 
9.54525 0.358952 -0.0396749 
0.358952 9.75998 0.0377173 
-0.0396749 0.0377173 8.14451 
10.2369 -0.328445 -0.263616 
-0.328445 9.56913 -0.0756883 
-0.263616 -0.0756883 7.6437 
9.62683 0.473014 0.481744 
0.473014 9.78009 -0.0416567 
0.481744 -0.0416567 8.04283 
9.18836 0.220939 -0.28318 
0.220939 9.84972 0.170354 
-0.28318 0.170354 8.41167 
6.78083 -2.1325 2.38774 
-2.1325 9.78443 1.68245 
2.38774 1.68245 2.9447 
7.34632 1.60908 1.84464 
1.60908 6.83557 2.90986 
1.84464 2.90986 5.32807 
7.48046 -1.9588 -0.765049 
-1.9588 7.57996 2.42148 
-0.765049 2.42148 4.44955 
7.03336 -0.838719 0.540584 
-0.838719 8.35291 2.68581 
0.540584 2.68581 4.12369 
10.088 0.0376464 -0.455969 
0.0376464 9.60299 0.0553646 
-0.455969 0.0553646 10.1921 
9.79303 0.0240986 0.106247 
0.0240986 9.79968 -0.0164322 
0.106247 -0.0164322 10.2904 
9.79383 0.105117 0.181077 
0.105117 9.93022 -0.0272294 
0.181077 -0.0272294 10.159 
9.66381 0.0836145 0.0751309 
0.0836145 9.94663 -0.0375645 
0.0751309 -0.0375645 10.2727 
9.6721 -0.0868366 -0.045744 
-0.0868366 9.69631 -0.108026 
-0.045744 -0.108026 9.85429 
9.69173 -0.134608 -0.0366032 
-0.134608 9.76051 -0.0659599 
-0.0366032 -0.0659599 9.77046 
9.70461 -0.130452 -0.123968 
-0.130452 9.69144 -0.236685 
-0.123968 -0.236685 9.82665 
9.33443 -0.14765 -0.284119 
-0.14765 9.53018 0.0143452 
-0.284119 0.0143452 10.3581 
9.63867 0.210857 -0.323124 
0.210857 9.71347 -0.203409 
-0.323124 -0.203409 9.83237 
9.71331 -0.106798 -0.246265 
-0.106798 9.82562 -0.232431 
-0.246265 -0.232431 9.64558 
9.38855 -0.173117 0.0257485 
-0.173117 9.86295 0.443197 
0.0257485 0.443197 9.93301 
9.39794 0.047722 -0.155741 
0.047722 9.69518 -0.109006 
-0.155741 -0.109006 10.0914 
9.88042 -0.0121644 -0.0089001 
-0.0121644 9.88476 0.0147237 
-0.0089001 0.0147237 9.97518 
9.88823 -0.00274069 -0.0445201 
-0.00274069 9.87044 0.0127391 
-0.0445201 0.0127391 9.9817 
9.90619 -0.00572826 -0.0503933 
-0.00572826 9.85777 -0.000169458 
-0.0503933 -0.000169458 9.9764 
9.86932 0.00669786 -0.0410484 
0.00669786 9.89963 0.0310027 
-0.0410484 0.0310027 9.97141 
8.53919 1.22405 -1.2305 
1.22405 6.98454 -0.291431 
-1.2305 -0.291431 0.652796 
9.64961 0.66 0.909159 
0.66 4.25988 -2.63165 
0.909159 -2.63165 2.26704 
6.47575 0.402392 0.0342081 
0.402392 8.47011 -0.666878 
0.0342081 -0.666878 1.23066 
6.31112 0.374855 0.23783 
0.374855 8.52288 -0.858818 
0.23783 -0.858818 1.34253 
10.1296 0.0176522 0.0174647 
0.0176522 10.104 -0.0264965 
0.0174647 -0.0264965 10.0325 
10.1911 0.0203076 0.0413413 
0.0203076 10.1575 -0.0449405 
0.0413413 -0.0449405 9.91763 
10.1411 0.0205468 -0.00701839 
0.0205468 10.0781 -0.0110295 
-0.00701839 -0.0110295 10.047 
10.1323 0.0371601 0.0164186 
0.0371601 10.1027 -0.066108 
0.0164186 -0.066108 10.0311 
9.90685 -0.000406451 -0.0449855 
-0.000406451 9.88327 0.0147527 
-0.0449855 0.0147527 9.97234 
9.89313 -0.0141473 -0.00709389 
-0.0141473 9.8898 0.00745016 
-0.00709389 0.00745016 9.97953 
9.89986 -0.0165209 -0.0189912 
-0.0165209 9.89793 -0.00354844 
-0.0189912 -0.00354844 9.96467 
9.87704 0.000522177 0.000733294 
0.000522177 9.90926 0.00478523 
0.000733294 0.00478523 9.97616 
9.74493 -0.186839 0.235694 
-0.186839 9.46728 -0.184391 
0.235694 -0.184391 9.21528 
9.5179 -0.058357 0.109621 
-0.058357 9.53457 0.120722 
0.109621 0.120722 9.37502 
9.85836 0.00504027 0.217459 
0.00504027 9.53826 -0.150972 
0.217459 -0.150972 9.03087 
10.0852 -0.123763 -0.307458 
-0.123763 9.7893 -0.112466 
-0.307458 -0.112466 8.553 
9.57886 -0.0141266 0.308516 
-0.0141266 9.61027 0.148629 
0.308516 0.148629 9.67245 
9.6528 0.0478787 0.283728 
0.0478787 9.60047 0.135393 
0.283728 0.135393 9.60831 
9.59198 -0.0170061 0.288568 
-0.0170061 9.62806 0.133209 
0.288568 0.133209 9.64155 
9.63159 -0.0250696 0.289968 
-0.0250696 9.57526 0.154732 
0.289968 0.154732 9.65474 
9.36204 0.522095 -1.01684 
0.522095 9.829 0.615414 
-1.01684 0.615414 9.84849 
9.3352 -0.283218 -0.358485 
-0.283218 9.65593 -0.100227 
-0.358485 -0.100227 10.0484 
9.08169 0.308016 -0.676465 
0.308016 9.52192 0.329039 
-0.676465 0.329039 10.4359 
9.42189 0.0194572 -0.818264 
0.0194572 9.43454 0.169792 
-0.818264 0.169792 10.1831 
-0.640581 -1.24101 -2.45021 
-1.24101 2.27567 -2.07161 
-2.45021 -2.07161 8.59628 
8.196 0.49002 2.02284 
0.49002 8.92235 0.543064 
2.02284 0.543064 -6.88698 
7.12188 -0.266918 0.91195 
-0.266918 5.08424 2.23471 
0.91195 2.23471 -1.97474 
6.31048 0.787124 -3.9268 
0.787124 4.93051 3.92247 
-3.9268 3.92247 -1.00962 
9.86546 0.0482024 -0.117295 
0.0482024 9.92466 0.0534808 
-0.117295 0.0534808 10.0303 
10.0411 0.0343706 -0.0809417 
0.0343706 10.0173 0.00204729 
-0.0809417 0.00204729 9.76197 
9.78231 0.142862 -0.0555033 
0.142862 9.85695 0.0865776 
-0.0555033 0.0865776 10.1811 
9.86834 0.00116042 -0.250522 
0.00116042 10.0106 0.1367 
-0.250522 0.1367 9.94146 
9.51521 0.0765428 -0.282516 
0.0765428 9.52049 0.250639 
-0.282516 0.250639 9.56891 
9.53599 -0.159023 -0.215487 
-0.159023 9.59871 0.180868 
-0.215487 0.180868 9.46991 
9.43951 0.109096 -0.226772 
0.109096 9.50495 0.260921 
-0.226772 0.260921 9.66015 
9.47943 0.0530587 -0.320904 
0.0530587 9.62085 0.295262 
-0.320904 0.295262 9.50433 
10.1524 0.00288277 0.0427492 
0.00288277 10.1551 0.0239465 
0.0427492 0.0239465 9.89477 
10.1019 0.0117061 0.0476499 
0.0117061 10.1021 -0.0196106 
0.0476499 -0.0196106 9.9982 
10.0811 0.00561262 0.0156215 
0.00561262 10.0801 0.00325581 
0.0156215 0.00325581 10.0411 
10.1105 0.00319863 0.0884692 
0.00319863 10.1097 0.00239568 
0.0884692 0.00239568 9.98203 
12.6726 1.09893 -0.142436 
1.09893 8.77837 0.641493 
-0.142436 0.641493 14.2034 
11.8777 1.58076 0.0125241 
1.58076 4.6421 -0.157526 
0.0125241 -0.157526 19.1346 
11.2845 2.92582 -0.895102 
2.92582 6.47953 -0.454007 
-0.895102 -0.454007 17.8904 
11.8602 0.876441 0.106907 
0.876441 9.32634 -0.644807 
0.106907 -0.644807 14.4678 
9.53191 0.112447 0.115641 
0.112447 9.39445 0.290012 
0.115641 0.290012 10.2429 
9.56145 -0.165598 0.00232549 
-0.165598 9.60176 0.38197 
0.00232549 0.38197 10.006 
9.69278 0.0437811 -0.106766 
0.0437811 9.58033 0.1702 
-0.106766 0.1702 9.89614 
10.0046 0.0880401 -0.21889 
0.0880401 9.38321 0.29695 
-0.21889 0.29695 9.78143 
9.04011 0.109948 -0.161924 
0.109948 9.72795 -0.442901 
-0.161924 -0.442901 9.50026 
9.46458 0.332237 -0.131378 
0.332237 9.45402 -0.384499 
-0.131378 -0.384499 9.34973 
9.33938 0.0283439 -0.0327697 
0.0283439 9.48021 -0.495724 
-0.0327697 -0.495724 9.44874 
9.2912 0.200203 -0.216996 
0.200203 9.62517 -0.257268 
-0.216996 -0.257268 9.35195 
6.86947 1.58606 -1.32813 
1.58606 3.56609 -0.413255 
-1.32813 -0.413255 -1.54578 
2.1794 -0.736929 1.79415 
-0.736929 1.71191 1.9624 
1.79415 1.9624 4.99845 
4.27935 0.125516 -0.0141953 
0.125516 5.4957 0.765011 
-0.0141953 0.765011 -0.885284 
5.38593 1.41625 1.92722 
1.41625 5.11598 1.69795 
1.92722 1.69795 -1.61214 
6.79501 -0.703872 0.769626 
-0.703872 4.38984 0.703923 
0.769626 0.703923 -0.0788456 
4.42646 -0.362895 0.712342 
-0.362895 3.97766 -0.646604 
0.712342 -0.646604 2.70188 
3.77315 1.43836 1.18616 
1.43836 5.45672 0.409052 
1.18616 0.409052 1.87614 
4.62284 -0.442855 0.56589 
-0.442855 4.08358 -1.28688 
0.56589 -1.28688 2.39959 
9.54767 -0.0658155 -0.148728 
-0.0658155 9.54828 -0.00356916 
-0.148728 -0.00356916 10.1635 
9.66283 -0.108359 -0.225659 
-0.108359 9.626 -0.196724 
-0.225659 -0.196724 9.97058 
9.67966 0.0057715 -0.157169 
0.0057715 9.66784 -0.144134 
-0.157169 -0.144134 9.91191 
9.66688 -0.0495095 -0.151413 
-0.0495095 9.59612 -0.121134 
-0.151413 -0.121134 9.99642 
9.86621 0.00322178 -0.0899677 
0.00322178 9.86527 -0.068892 
-0.0899677 -0.068892 9.85844 
9.84985 0.0100885 -0.0839144 
0.0100885 9.84846 -0.0758311 
-0.0839144 -0.0758311 9.89161 
9.87278 0.011578 -0.0809113 
0.011578 9.86946 -0.0536248 
-0.0809113 -0.0536248 9.84768 
9.88227 0.00468894 -0.0888592 
0.00468894 9.86797 -0.0805663 
-0.0888592 -0.0805663 9.83969 
9.30669 1.28411 -1.59633 
1.28411 11.2464 0.242063 
-1.59633 0.242063 18.0062 
8.98003 0.708337 1.01033 
0.708337 12.5126 -0.61239 
1.01033 -0.61239 17.0666 
13.2054 0.915171 0.271563 
0.915171 14.9465 0.0152476 
0.271563 0.0152476 10.4073 
10.4165 1.01714 1.78593 
1.01714 13.4495 4.17788 
1.78593 4.17788 14.6932 
9.65275 -0.0118665 -0.336147 
-0.0118665 9.64473 -0.0991826 
-0.336147 -0.0991826 9.65296 
9.64713 0.000973122 -0.324918 
0.000973122 9.64647 -0.0993623 
-0.324918 -0.0993623 9.65684 
9.67674 0.00517465 -0.34392 
0.00517465 9.65538 -0.0975191 
-0.34392 -0.0975191 9.61832 
9.63501 0.00783456 -0.298668 
0.00783456 9.64474 -0.0739878 
-0.298668 -0.0739878 9.67069 
10.166 -0.00690627 -0.0130448 
-0.00690627 10.1613 -0.00287657 
-0.0130448 -0.00287657 9.996 
10.1854 -0.004649 -0.0279555 
-0.004649 10.178 0.00702505 
-0.0279555 0.00702505 9.95982 
10.1726 -0.00738258 -0.00385781 
-0.00738258 10.1621 0.0131908 
-0.00385781 0.0131908 9.98861 
10.181 -0.00403725 -0.0279967 
-0.00403725 10.1737 0.0157612 
-0.0279967 0.0157612 9.96856 
9.61397 0.000794776 -0.283874 
0.000794776 9.64014 0.185398 
-0.283874 0.185398 9.65512 
9.60803 0.0058231 -0.272413 
0.0058231 9.63846 0.181018 
-0.272413 0.181018 9.66274 
9.62008 -0.0222804 -0.289583 
-0.0222804 9.64983 0.177561 
-0.289583 0.177561 9.63933 
9.62756 -0.00856525 -0.283049 
-0.00856525 9.63016 0.184355 
-0.283049 0.184355 9.65151 
7.86378 0.00566291 2.16155 
0.00566291 10.1088 0.542608 
2.16155 0.542608 7.64489 
7.7401 0.206597 1.75967 
0.206597 10.4108 0.33505 
1.75967 0.33505 7.46657 
8.07465 -0.198979 1.84809 
-0.198979 9.83772 0.319067 
1.84809 0.319067 7.70512 
7.47788 0.180912 2.0505 
0.180912 9.54284 -0.476714 
2.0505 -0.476714 8.59676 
9.71377 0.0197838 0.273535 
0.0197838 9.7526 0.0568829 
0.273535 0.0568829 9.86175 
9.72825 -0.0461166 0.260833 
-0.0461166 9.79331 0.0678998 
0.260833 0.0678998 9.80656 
9.75741 -0.00841528 0.298777 
-0.00841528 9.71891 0.0172716 
0.298777 0.0172716 9.8518 
9.76597 0.0117493 0.269636 
0.0117493 9.79193 0.0863655 
0.269636 0.0863655 9.77022 
9.9125 0.022854 -0.0219101 
0.022854 9.70532 0.101518 
-0.0219101 0.101518 10.8112 
10.0913 -0.0349328 -0.23328 
-0.0349328 9.29359 0.0501291 
-0.23328 0.0501291 11.0441 
10.0822 0.139348 0.099807 
0.139348 9.63637 -0.0470257 
0.099807 -0.0470257 10.7105 
9.96466 -0.104924 0.0486025 
-0.104924 9.91496 0.572045 
0.0486025 0.572045 10.5494 
9.43845 0.105856 -0.342418 
0.105856 9.54451 0.174849 
-0.342418 0.174849 9.58143 
9.48508 -0.00502329 -0.272468 
-0.00502329 9.53778 0.208692 
-0.272468 0.208692 9.54152 
9.47641 -0.0516673 -0.312273 
-0.0516673 9.52712 0.161916 
-0.312273 0.161916 9.56087 
9.44939 0.00871287 -0.266827 
0.00871287 9.53395 0.124169 
-0.266827 0.124169 9.58105 
9.8558 0.0106021 0.0501365 
0.0106021 9.85407 0.0340825 
0.0501365 0.0340825 9.92091 
9.85375 0.0182335 0.0315311 
0.0182335 9.85378 0.0724575 
0.0315311 0.0724575 9.92325 
9.87671 0.0264293 0.0430791 
0.0264293 9.83472 0.0185578 
0.0430791 0.0185578 9.91935 
9.83344 -0.0218373 0.0578065 
-0.0218373 9.87783 0.0219413 
0.0578065 0.0219413 9.91951 
9.81977 0.127684 -0.0750661 
0.127684 9.61047 -0.153349 
-0.0750661 -0.153349 9.71684 
9.66298 0.0570093 -0.204097 
0.0570093 9.66274 -0.362923 
-0.204097 -0.362923 9.82136 
9.57491 -0.317226 -0.206454 
-0.317226 9.5767 -0.213254 
-0.206454 -0.213254 9.99547 
9.75955 -0.139084 -0.172969 
-0.139084 9.66784 -0.333653 
-0.172969 -0.333653 9.7197 
9.92355 -0.167268 0.228628 
-0.167268 9.35527 0.121203 
0.228628 0.121203 9.67833 
9.32191 0.0832371 -0.00126409 
0.0832371 9.8121 0.273608 
-0.00126409 0.273608 9.82314 
9.89243 0.021027 -0.0784129 
0.021027 9.23543 -0.0562198 
-0.0784129 -0.0562198 9.8293 
9.69327 0.0485757 -0.0405186 
0.0485757 9.16863 0.173057 
-0.0405186 0.173057 10.0953 
9.72532 -0.00196538 -0.33145 
-0.00196538 9.71974 -0.00797605 
-0.33145 -0.00797605 9.6972 
9.72437 0.00268987 -0.336516 
0.00268987 9.73017 -0.00395095 
-0.336516 -0.00395095 9.68773 
9.72729 -0.00456515 -0.332164 
-0.00456515 9.7225 -0.00717678 
-0.332164 -0.00717678 9.69248 
9.72578 -0.00135137 -0.333446 
-0.00135137 9.72063 -0.0079233 
-0.333446 -0.0079233 9.69585 
9.66891 -0.278384 0.380451 
-0.278384 8.40821 0.875404 
0.380451 0.875404 9.94934 
9.8072 -0.504187 0.368269 
-0.504187 8.1823 1.0162 
0.368269 1.0162 10.037 
9.19301 -0.426056 0.355055 
-0.426056 9.9301 0.862323 
0.355055 0.862323 8.90334 
10.0014 0.103099 -0.343155 
0.103099 8.54495 0.586266 
-0.343155 0.586266 9.4801 
9.74061 -0.0726944 0.247514 
-0.0726944 9.73898 0.169912 
0.247514 0.169912 9.84898 
9.75167 -0.0340233 0.23433 
-0.0340233 9.7416 0.140998 
0.23433 0.140998 9.83531 
9.73282 -0.0258076 0.20815 
-0.0258076 9.74584 0.123762 
0.20815 0.123762 9.84991 
9.79537 -0.0231226 0.222087 
-0.0231226 9.80241 0.182295 
0.222087 0.182295 9.73079 
10.0087 -0.0274877 0.00843346 
-0.0274877 10.0229 -0.0553543 
0.00843346 -0.0553543 9.90463 
9.9386 -0.075322 -0.000420048 
-0.075322 10.0568 -0.0696874 
-0.000420048 -0.0696874 9.9408 
9.99858 -0.0457274 -0.0206462 
-0.0457274 10.0197 0.0326529 
-0.0206462 0.0326529 9.91795 
9.93803 0.278858 0.0751644 
0.278858 9.88821 0.101979 
0.0751644 0.101979 10.1099 
9.85957 0.11382 -0.0253736 
0.11382 9.8632 -0.035503 
-0.0253736 -0.035503 9.93671 
9.87671 -0.00154444 -0.00218458 
-0.00154444 9.91261 -0.0145831 
-0.00218458 -0.0145831 9.87016 
9.85091 -0.0374348 -0.00638801 
-0.0374348 9.93529 0.0303012 
-0.00638801 0.0303012 9.87329 
9.8912 0.0130296 -0.00529439 
0.0130296 9.9156 0.010729 
-0.00529439 0.010729 9.85269 
10.411 0.0755485 0.0927746 
0.0755485 9.51787 0.00388574 
0.0927746 0.00388574 10.983 
9.97556 -0.281273 -0.0515686 
-0.281273 10.1959 0.355591 
-0.0515686 0.355591 10.7404 
9.82711 -0.258706 -0.0341772 
-0.258706 9.85976 0.336096 
-0.0341772 0.336096 11.225 
10.031 0.0159994 0.243206 
0.0159994 9.88483 0.307924 
0.243206 0.307924 10.9961 
10.7675 0.358377 -0.962303 
0.358377 9.4655 1.40999 
-0.962303 1.40999 9.84824 
9.39171 0.686562 0.0107049 
0.686562 10.255 -0.239195 
0.0107049 -0.239195 10.4345 
9.8279 0.22361 -1.22606 
0.22361 10.1037 1.08504 
-1.22606 1.08504 10.1496 
10.1215 0.80032 -1.20706 
0.80032 11.03 0.542319 
-1.20706 0.542319 8.92973 
9.54715 0.0774211 -0.0177501 
0.0774211 9.25624 -0.343097 
-0.0177501 -0.343097 9.62658 
9.50449 -0.0054374 0.0680986 
-0.0054374 9.27487 -0.265276 
0.0680986 -0.265276 9.6506 
9.26235 -0.0917308 0.0320504 
-0.0917308 9.81387 -0.298912 
0.0320504 -0.298912 9.35375 
9.5505 -0.0542338 0.0499267 
-0.0542338 9.30705 -0.446818 
0.0499267 -0.446818 9.57242 
10.1889 -0.00296506 -0.0249588 
-0.00296506 10.1876 0.00163908 
-0.0249588 0.00163908 9.95784 
10.1752 0.0145891 -0.0098306 
0.0145891 10.1673 0.0150951 
-0.0098306 0.0150951 9.99189 
10.1672 0.00303066 0.000360555 
0.00303066 10.1768 -0.0111195 
0.000360555 -0.0111195 9.99037 
10.189 0.00536481 -0.029504 
0.00536481 10.1935 0.00243762 
-0.029504 0.00243762 9.95183 
9.00492 0.149439 -0.112813 
0.149439 9.722 -0.383235 
-0.112813 -0.383235 9.77225 
9.0509 0.20607 -0.561452 
0.20607 9.76826 0.265327 
-0.561452 0.265327 9.68002 
9.56159 0.171662 0.0716492 
0.171662 9.39271 0.43062 
0.0716492 0.43062 9.54488 
9.36341 -0.0723114 -0.774779 
-0.0723114 9.3176 -0.252225 
-0.774779 -0.252225 9.81817 
4.61813 1.04461 0.12976 
1.04461 5.30336 -0.0643042 
0.12976 -0.0643042 -0.733457 
3.18733 0.104848 0.0110843 
0.104848 1.05943 1.95086 
0.0110843 1.95086 4.94127 
4.52822 -0.78276 0.0475819 
-0.78276 6.92353 -2.01115 
0.0475819 -2.01115 -2.26371 
3.58858 0.489449 -0.425052 
0.489449 7.51719 2.30626 
-0.425052 2.30626 -1.91774 
9.6746 0.0726206 0.574565 
0.0726206 9.78838 -0.90673 
0.574565 -0.90673 10.4836 
10.4782 0.784411 0.315765 
0.784411 8.98354 -1.14592 
0.315765 -1.14592 10.4848 
10.5459 -0.178354 0.333585 
-0.178354 9.22607 -0.984497 
0.333585 -0.984497 10.1746 
10.0999 0.516966 0.217859 
0.516966 9.21301 -0.892875 
0.217859 -0.892875 10.6337 
9.63317 0.022118 -0.183507 
0.022118 9.60535 0.277238 
-0.183507 0.277238 9.63751 
9.5911 0.0360587 -0.205671 
0.0360587 9.5962 0.275152 
-0.205671 0.275152 9.68872 
9.65833 -0.0254443 -0.208561 
-0.0254443 9.64686 0.29073 
-0.208561 0.29073 9.57083 
9.62514 -0.000303966 -0.160604 
-0.000303966 9.63708 0.275455 
-0.160604 0.275455 9.61381 
9.28446 -0.101117 -0.275765 
-0.101117 9.55895 0.0796982 
-0.275765 0.0796982 10.3812 
9.64869 -0.128403 -0.17931 
-0.128403 9.7526 -0.184557 
-0.17931 -0.184557 9.82331 
9.65322 -0.13456 -0.0509228 
-0.13456 9.80332 -0.0415428 
-0.0509228 -0.0415428 9.76807 
9.67646 -0.0700148 -0.067063 
-0.0700148 9.67933 -0.0742289 
-0.067063 -0.0742289 9.86881 
9.48587 0.414193 -0.806885 
0.414193 9.22754 0.294189 
-0.806885 0.294189 9.08303 
9.55833 0.245956 -0.845229 
0.245956 9.08589 0.133154 
-0.845229 0.133154 9.15222 
9.48345 -0.118235 -0.906143 
-0.118235 9.31249 -0.085628 
-0.906143 -0.085628 9.0005 
8.85396 0.13764 -0.656802 
0.13764 9.54598 -0.312697 
-0.656802 -0.312697 9.39651 
11.0942 -0.455178 -0.317034 
-0.455178 10.9628 0.242292 
-0.317034 0.242292 11.4657 
11.7492 -0.0602733 -0.506277 
-0.0602733 11.7558 -0.0351391 
-0.506277 -0.0351391 10.0178 
10.9694 0.0993427 0.0934397 
0.0993427 10.2562 0.116618 
0.0934397 0.116618 12.2972 
10.8624 -0.0388912 -0.769741 
-0.0388912 11.0257 0.0467063 
-0.769741 0.0467063 11.6346 
9.9065 0.215906 0.414886 
0.215906 9.81488 0.373563 
0.414886 0.373563 10.0149 
10.0158 -0.143395 -0.165252 
-0.143395 9.56788 0.031454 
-0.165252 0.031454 10.1527 
9.94092 -0.422902 -0.032004 
-0.422902 9.68377 0.181527 
-0.032004 0.181527 10.1116 
9.79427 -0.587351 -0.0239115 
-0.587351 9.58576 0.20351 
-0.0239115 0.20351 10.3563 
9.52391 -0.074069 -0.297167 
-0.074069 9.63973 -0.188056 
-0.297167 -0.188056 9.6734 
9.6277 0.032493 -0.277949 
0.032493 9.61487 -0.178701 
-0.277949 -0.178701 9.59447 
9.597 0.027671 -0.298725 
0.027671 9.6338 -0.187721 
-0.298725 -0.187721 9.60624 
9.61666 0.00717111 -0.336219 
0.00717111 9.61248 -0.204724 
-0.336219 -0.204724 9.60789 
9.97101 -1.98811 0.284389 
-1.98811 3.13701 1.84256 
0.284389 1.84256 20.3032 
18.0019 0.789822 -0.416623 
0.789822 8.0665 -3.2142 
-0.416623 -3.2142 7.34281 
8.67591 -4.85718 -1.18939 
-4.85718 3.17105 2.97715 
-1.18939 2.97715 21.5643 
9.38496 -0.364692 2.33372 
-0.364692 12.4307 3.79927 
2.33372 3.79927 11.5955 
9.88315 0.00683015 -0.00860999 
0.00683015 9.79787 0.0431483 
-0.00860999 0.0431483 10.1658 
10.0441 0.00176082 -0.0279095 
0.00176082 9.96922 0.0361649 
-0.0279095 0.0361649 9.83357 
9.97209 0.027363 -0.0116471 
0.027363 9.9284 0.08376 
-0.0116471 0.08376 9.94637 
10.0128 -0.016769 -0.0528516 
-0.016769 9.95754 0.143618 
-0.0528516 0.143618 9.87655 
10.5167 0.0195623 0.0290572 
0.0195623 10.4415 0.106388 
0.0290572 0.106388 10.0321 
10.2214 0.0748754 0.15868 
0.0748754 10.0411 -0.175996 
0.15868 -0.175996 10.7278 
10.4513 0.0921617 -0.100092 
0.0921617 10.3194 -0.029198 
-0.100092 -0.029198 10.2196 
10.3601 0.216303 0.0442139 
0.216303 10.3643 -0.00268442 
0.0442139 -0.00268442 10.2659 
9.78093 0.00601112 -0.12035 
0.00601112 9.80097 -0.242189 
-0.12035 -0.242189 9.75542 
9.76642 0.00497689 -0.1215 
0.00497689 9.80634 -0.254972 
-0.1215 -0.254972 9.76457 
9.80195 0.0185011 -0.13817 
0.0185011 9.78709 -0.25614 
-0.13817 -0.25614 9.74829 
9.79508 0.0303221 -0.131235 
0.0303221 9.75912 -0.24231 
-0.131235 -0.24231 9.78312 
9.87055 0.515425 -0.519797 
0.515425 9.42097 -0.926959 
-0.519797 -0.926959 9.96059 
9.87759 -0.482915 0.0873646 
-0.482915 9.33322 0.0143414 
0.0873646 0.0143414 10.0413 
9.69414 -0.325599 0.0713138 
-0.325599 9.3809 0.0106234 
0.0713138 0.0106234 10.1771 
9.66558 -0.696505 0.0900246 
-0.696505 9.082 -0.191979 
0.0900246 -0.191979 10.5045 
9.73365 -0.0164097 -0.138923 
-0.0164097 9.76889 0.286534 
-0.138923 0.286534 9.77743 
9.79755 0.0204502 -0.139965 
0.0204502 9.73446 0.278509 
-0.139965 0.278509 9.74795 
9.75819 -0.00358601 -0.122002 
-0.00358601 9.76922 0.28842 
-0.122002 0.28842 9.75255 
9.76392 0.00475492 -0.129544 
0.00475492 9.76259 0.287812 
-0.129544 0.287812 9.75346 
11.7881 1.49927 0.49031 
1.49927 9.99915 -0.688778 
0.49031 -0.688778 16.7315 
14.7045 0.723313 0.351545 
0.723313 12.2546 -0.386385 
0.351545 -0.386385 11.5596 
11.2044 1.03379 -0.515557 
1.03379 9.8365 1.43542 
-0.515557 1.43542 17.4778 
13.3084 2.05019 3.6828 
2.05019 11.3542 1.17585 
3.6828 1.17585 13.8562 
9.4954 0.0975952 0.211026 
0.0975952 9.81348 -0.408763 
0.211026 -0.408763 9.98777 
9.51188 0.647302 0.1222 
0.647302 9.24921 -0.250301 
0.1222 -0.250301 10.5356 
9.77658 0.0171729 0.0435534 
0.0171729 9.58635 -0.223543 
0.0435534 -0.223543 9.93372 
9.60938 0.0474265 0.336426 
0.0474265 9.75841 -0.506498 
0.336426 -0.506498 9.92886 
12.2006 0.307696 -0.242284 
0.307696 11.9645 0.0271139 
-0.242284 0.0271139 14.0088 
11.9202 -0.873232 -0.173092 
-0.873232 11.9459 0.10622 
-0.173092 0.10622 14.3077 
10.6695 1.12676 -0.895647 
1.12676 12.5385 0.560721 
-0.895647 0.560721 14.9659 
12.4712 0.183794 0.131171 
0.183794 12.0911 0.348344 
0.131171 0.348344 13.6117 
9.79118 0.00575747 -0.0539491 
0.00575747 9.87987 0.04131 
-0.0539491 0.04131 10.1845 
9.9674 0.011166 -0.0350471 
0.011166 10.0626 -0.0360593 
-0.0350471 -0.0360593 9.82562 
9.92359 -0.0338754 -0.0831535 
-0.0338754 9.96757 -0.00672076 
-0.0831535 -0.00672076 9.96444 
9.93849 0.0203699 -0.158384 
0.0203699 9.98974 -0.0437267 
-0.158384 -0.0437267 9.92736 
9.66895 0.00709378 0.0528124 
0.00709378 9.6842 0.34178 
0.0528124 0.34178 9.70759 
9.6972 -0.00397852 0.019912 
-0.00397852 9.66604 0.347126 
0.019912 0.347126 9.69751 
9.6982 0.0123168 0.0374934 
0.0123168 9.72952 0.332324 
0.0374934 0.332324 9.63302 
9.68428 -0.00457035 0.0280319 
-0.00457035 9.69248 0.335456 
0.0280319 0.335456 9.68398 
9.63738 -0.0320586 0.138187 
-0.0320586 9.64561 -0.336302 
0.138187 -0.336302 9.58867 
9.62536 0.0283383 0.110795 
0.0283383 9.7004 -0.316447 
0.110795 -0.316447 9.5459 
9.547 -0.0888857 0.209511 
-0.0888857 9.78039 -0.409753 
0.209511 -0.409753 9.54426 
9.60753 0.0904949 0.185773 
0.0904949 9.59541 -0.412095 
0.185773 -0.412095 9.66871 
9.42054 0.968914 4.04838 
0.968914 15.2649 2.99028 
4.04838 2.99028 -5.68481 
-0.398646 1.33811 -2.95069 
1.33811 -0.852264 -3.46617 
-2.95069 -3.46617 20.2515 
13.6999 2.16047 0.663116 
2.16047 14.5535 4.81742 
0.663116 4.81742 -9.25274 
7.53448 -7.30279 7.11816 
-7.30279 -1.43795 16.1177 
7.11816 16.1177 12.9041 
10.2491 0.0246633 0.0553043 
0.0246633 10.0979 0.0107611 
0.0553043 0.0107611 9.98768 
10.1003 -0.00998736 -0.000915936 
-0.00998736 10.0296 0.0121813 
-0.000915936 0.0121813 10.2049 
10.096 -0.0128142 -0.0560138 
-0.0128142 9.98688 -0.0215716 
-0.0560138 -0.0215716 10.2519 
10.1155 -0.00743826 0.0277867 
-0.00743826 10.0626 0.000604052 
0.0277867 0.000604052 10.1567 
9.72676 0.0690742 -0.240006 
0.0690742 9.628 -0.0299992 
-0.240006 -0.0299992 9.6051 
9.74147 -0.00747793 -0.173603 
-0.00747793 9.65994 -0.0279764 
-0.173603 -0.0279764 9.55845 
9.77069 0.0103464 -0.206015 
0.0103464 9.66115 0.0136428 
-0.206015 0.0136428 9.52801 
9.75704 0.029477 -0.205471 
0.029477 9.65545 -0.0174767 
-0.205471 -0.0174767 9.54737 
9.6685 -0.00883279 -0.0405187 
-0.00883279 9.59928 -0.340855 
-0.0405187 -0.340855 9.60406 
9.66315 0.0263728 -0.0412214 
0.0263728 9.57887 -0.372354 
-0.0412214 -0.372354 9.62982 
9.6569 -0.0270573 -0.0484575 
-0.0270573 9.64642 -0.320825 
-0.0484575 -0.320825 9.56853 
9.63676 0.00927061 -0.0521183 
0.00927061 9.6067 -0.334652 
-0.0521183 -0.334652 9.62839 
9.60784 -0.0378802 -0.0954919 
-0.0378802 9.72295 0.251793 
-0.0954919 0.251793 9.63014 
9.63644 -0.0183574 -0.104155 
-0.0183574 9.70122 0.26342 
-0.104155 0.26342 9.62326 
9.60963 -0.0409731 -0.118352 
-0.0409731 9.7252 0.257153 
-0.118352 0.257153 9.6261 
9.67675 -0.0680767 -0.109183 
-0.0680767 9.70056 0.268342 
-0.109183 0.268342 9.58362 
9.6371 0.00797778 0.318688 
0.00797778 9.59279 -0.103139 
0.318688 -0.103139 9.61537 
9.55343 0.0282734 0.307121 
0.0282734 9.63285 -0.112266 
0.307121 -0.112266 9.65897 
9.64195 -0.00999265 0.313293 
-0.00999265 9.59419 -0.108845 
0.313293 -0.108845 9.60911 
9.61308 0.00320047 0.354337 
0.00320047 9.59341 -0.116924 
0.354337 -0.116924 9.63877 
9.311 0.303025 -0.606059 
0.303025 9.11 -0.234775 
-0.606059 -0.234775 9.85688 
9.41122 0.315592 -0.500171 
0.315592 8.99494 -0.201584 
-0.500171 -0.201584 9.87172 
9.29457 0.246417 -0.749521 
0.246417 9.02293 -0.214131 
-0.749521 -0.214131 9.96038 
9.30686 0.155394 -0.478865 
0.155394 9.1982 -0.177818 
-0.478865 -0.177818 9.77282 
9.6382 0.045731 -0.0915782 
0.045731 9.50424 0.270998 
-0.0915782 0.270998 9.746 
9.67815 0.0248639 0.0091471 
0.0248639 9.64622 0.208091 
0.0091471 0.208091 9.56408 
9.68689 0.00935039 -0.0834369 
0.00935039 9.44814 0.340392 
-0.0834369 0.340392 9.75341 
9.60889 0.024299 -0.0781303 
0.024299 9.53478 0.229612 
-0.0781303 0.229612 9.74478 
9.80044 -0.00732185 -0.15637 
-0.00732185 9.78017 0.0848327 
-0.15637 0.0848327 9.8395 
9.81508 -0.012872 -0.156353 
-0.012872 9.79482 0.0986506 
-0.156353 0.0986506 9.81021 
9.80567 -0.00467774 -0.149599 
-0.00467774 9.78364 0.0885061 
-0.149599 0.0885061 9.83081 
9.79202 -0.0415525 -0.114011 
-0.0415525 9.7864 0.100012 
-0.114011 0.100012 9.84169 
3.51282 -4.57025 2.56138 
-4.57025 8.76498 -1.4371 
2.56138 -1.4371 24.8813 
10.3534 0.83526 -3.80939 
0.83526 19.915 -1.04047 
-3.80939 -1.04047 6.89066 
5.22017 -1.64843 0.654881 
-1.64843 11.7113 0.860588 
0.654881 0.860588 20.2276 
14.3806 0.722898 5.0213 
0.722898 10.7796 4.10313 
5.0213 4.10313 11.9989 
9.84643 -0.0307829 0.190133 
-0.0307829 10.14 0.0911669 
0.190133 0.0911669 10.5559 
10.2089 -0.0383146 0.0133806 
-0.0383146 10.2058 -0.0213015 
0.0133806 -0.0213015 10.1276 
10.3077 0.0580366 -0.0603783 
0.0580366 10.1994 -0.0342211 
-0.0603783 -0.0342211 10.0353 
10.268 -0.195491 -0.0501323 
-0.195491 10.1566 0.0464931 
-0.0501323 0.0464931 10.1178 
9.85318 0.0211271 0.170379 
0.0211271 9.8506 0.0512591 
0.170379 0.0512591 9.80923 
9.85232 0.00796275 0.168489 
0.00796275 9.80879 0.0697578 
0.168489 0.0697578 9.8519 
9.85173 0.0123608 0.15268 
0.0123608 9.84079 0.0606657 
0.15268 0.0606657 9.82048 
9.86226 0.0248395 0.160636 
0.0248395 9.85353 0.0698433 
0.160636 0.0698433 9.79722 
9.74187 0.0442835 0.264115 
0.0442835 9.6325 0.104075 
0.264115 0.104075 9.63237 
9.72411 0.0307058 0.269228 
0.0307058 9.6835 0.150944 
0.269228 0.150944 9.59913 
9.69916 0.0171824 0.284493 
0.0171824 9.68183 0.10268 
0.284493 0.10268 9.62575 
9.72874 0.0267203 0.258909 
0.0267203 9.65826 0.102051 
0.258909 0.102051 9.61974 
9.92164 -0.00477584 0.000356415 
-0.00477584 9.9111 -0.00230825 
0.000356415 -0.00230825 9.95622 
9.91506 -0.0066114 0.00191779 
-0.0066114 9.91039 -0.00609106 
0.00191779 -0.00609106 9.9635 
9.91343 -0.00264057 -0.00556245 
-0.00264057 9.9111 0.00121607 
-0.00556245 0.00121607 9.96442 
9.91318 -0.000798669 0.00817431 
-0.000798669 9.9179 -0.0132201 
0.00817431 -0.0132201 9.95787 
9.34494 0.28208 0.0656896 
0.28208 9.39855 0.20694 
0.0656896 0.20694 9.85418 
9.26552 -0.050797 0.107063 
-0.050797 9.61039 0.0513342 
0.107063 0.0513342 9.72176 
9.41481 0.395049 0.324992 
0.395049 9.46297 0.303055 
0.324992 0.303055 9.71989 
9.42832 0.242022 -0.0205776 
0.242022 9.6385 -0.0685063 
-0.0205776 -0.0685063 9.53085 
13.6939 -0.940045 4.87187 
-0.940045 7.16921 -3.89142 
4.87187 -3.89142 -4.57328 
1.72874 -1.00203 -2.4831 
-1.00203 2.2131 1.71872 
-2.4831 1.71872 12.348 
12.6092 -3.27861 6.24738 
-3.27861 10.1203 -1.79619 
6.24738 -1.79619 -6.43965 
0.967429 4.25498 7.67012 
4.25498 6.78337 -2.82228 
7.67012 -2.82228 8.53906 
10.0832 0.00783903 0.0208834 
0.00783903 10.108 -0.00505146 
0.0208834 -0.00505146 9.98393 
10.0885 -0.00293338 0.00313821 
-0.00293338 10.0971 -0.0119639 
0.00313821 -0.0119639 9.98959 
10.0763 0.0515527 0.0175493 
0.0515527 10.1023 -0.0205258 
0.0175493 -0.0205258 9.99652 
10.1156 -0.0428564 0.0533301 
-0.0428564 10.119 -0.050607 
0.0533301 -0.050607 9.94053 
9.7358 -0.00955607 -0.00315783 
-0.00955607 9.70609 0.00329703 
-0.00315783 0.00329703 9.98816 
9.71626 0.0093106 0.00626397 
0.0093106 9.74763 0.0160274 
0.00626397 0.0160274 9.96617 
9.75635 -0.000742286 0.0203787 
-0.000742286 9.71708 -0.0180704 
0.0203787 -0.0180704 9.95662 
9.67958 -0.00763102 0.0563472 
-0.00763102 9.75836 -0.00539157 
0.0563472 -0.00539157 9.99211 
9.75855 0.00480005 -0.339047 
0.00480005 9.67682 0.132907 
-0.339047 0.132907 9.61299 
9.67756 -0.00915651 -0.270759 
-0.00915651 9.66966 0.0561286 
-0.270759 0.0561286 9.70115 
9.68975 0.00673389 -0.34522 
0.00673389 9.70487 0.0874163 
-0.34522 0.0874163 9.65375 
9.69394 0.0110695 -0.326076 
0.0110695 9.70867 0.0740909 
-0.326076 0.0740909 9.64575 
8.88362 0.302798 0.40425 
0.302798 10.0351 -0.58215 
0.40425 -0.58215 11.7974 
10.5302 0.102654 -0.48699 
0.102654 10.6665 0.526962 
-0.48699 0.526962 9.5194 
10.5838 -0.0571536 -0.311712 
-0.0571536 10.2365 0.576512 
-0.311712 0.576512 9.89576 
10.1312 0.672067 -0.441767 
0.672067 9.77879 0.456914 
-0.441767 0.456914 10.8061 
9.74432 0.427398 0.209025 
0.427398 10.1264 -0.292158 
0.209025 -0.292158 9.29092 
9.88694 -0.178066 0.150991 
-0.178066 9.40667 0.182397 
0.150991 0.182397 9.86807 
8.82358 -0.206185 0.408125 
-0.206185 9.70704 0.0708685 
0.408125 0.0708685 10.6311 
9.21231 0.329888 0.719241 
0.329888 10.1136 -0.770462 
0.719241 -0.770462 9.83578 
9.75496 -0.121307 0.351811 
-0.121307 9.36682 0.210951 
0.351811 0.210951 9.97623 
9.43027 -0.535111 0.254807 
-0.535111 9.44984 0.0739483 
0.254807 0.0739483 10.2179 
9.47732 -0.00022836 0.26218 
-0.00022836 9.72674 0.0704699 
0.26218 0.0704699 9.89395 
9.68346 -0.107862 0.430979 
-0.107862 9.45883 0.251354 
0.430979 0.251354 9.95573 
9.93941 -0.22051 -0.0212847 
-0.22051 9.45645 0.0521408 
-0.0212847 0.0521408 9.57031 
9.83075 -0.137659 -0.0039503 
-0.137659 9.61902 0.0644694 
-0.0039503 0.0644694 9.51639 
9.65596 -0.0270747 0.12861 
-0.0270747 9.62455 -0.192114 
0.12861 -0.192114 9.68565 
9.67814 -0.151623 -0.0458926 
-0.151623 9.54175 0.0840299 
-0.0458926 0.0840299 9.74627 
9.93354 -0.00031929 0.0265128 
-0.00031929 9.93103 -0.00526108 
0.0265128 -0.00526108 9.96584 
9.93773 -0.00176488 0.0262567 
-0.00176488 9.92024 0.00397822 
0.0262567 0.00397822 9.97244 
9.93954 -0.00459511 0.00208084 
-0.00459511 9.92169 -0.012249 
0.00208084 -0.012249 9.96917 
9.94038 0.00236474 0.0141501 
0.00236474 9.9261 -0.00213345 
0.0141501 -0.00213345 9.96392 
7.85684 -1.04579 1.24342 
-1.04579 10.0199 2.49618 
1.24342 2.49618 2.22634 
9.75215 1.76091 0.653938 
1.76091 5.23568 2.04015 
0.653938 2.04015 5.1153 
8.02351 -0.756126 -0.352191 
-0.756126 7.50642 4.37654 
-0.352191 4.37654 4.57319 
7.99678 0.159057 0.742284 
0.159057 8.26567 3.35594 
0.742284 3.35594 3.84067 
10.1202 -0.00252354 -0.0393816 
-0.00252354 10.0612 -0.000959987 
-0.0393816 -0.000959987 9.97786 
10.1122 0.00393651 -0.0549171 
0.00393651 10.0615 -0.0141036 
-0.0549171 -0.0141036 9.98563 
10.0056 0.00940443 -0.0174239 
0.00940443 10.1237 0.0151945 
-0.0174239 0.0151945 10.03 
10.0686 -0.0153621 -0.0706202 
-0.0153621 10.1429 -0.065212 
-0.0706202 -0.065212 9.94777 
9.59859 0.00621301 0.276398 
0.00621301 9.61337 0.204727 
0.276398 0.204727 9.64315 
9.59631 -0.0310019 0.268354 
-0.0310019 9.649 0.202751 
0.268354 0.202751 9.60981 
9.61636 0.00197785 0.283133 
0.00197785 9.61976 0.17364 
0.283133 0.17364 9.61899 
9.60192 0.00378511 0.281306 
0.00378511 9.62891 0.193694 
0.281306 0.193694 9.62429 
9.73423 -0.0110771 -0.298423 
-0.0110771 9.75012 0.140479 
-0.298423 0.140479 9.71198 
9.76504 -0.0212799 -0.285403 
-0.0212799 9.74417 0.145284 
-0.285403 0.145284 9.68712 
9.75183 -0.0352957 -0.292396 
-0.0352957 9.71268 0.14578 
-0.292396 0.14578 9.73182 
9.74623 -0.00124181 -0.291981 
-0.00124181 9.72689 0.133328 
-0.291981 0.133328 9.72322 
9.6252 0.00760359 -0.300424 
0.00760359 9.63844 0.0923799 
-0.300424 0.0923799 9.67544 
9.65078 -0.00618954 -0.313914 
-0.00618954 9.64167 0.0978509 
-0.313914 0.0978509 9.64664 
9.64834 0.00858195 -0.304096 
0.00858195 9.64733 0.117757 
-0.304096 0.117757 9.64342 
9.64969 -0.00636372 -0.311694 
-0.00636372 9.64108 0.0997388 
-0.311694 0.0997388 9.64832 
9.65169 -0.00028726 -0.0921554 
-0.00028726 9.65636 -0.319527 
-0.0921554 -0.319527 9.67363 
9.66285 0.00960327 -0.0885385 
0.00960327 9.66512 -0.345167 
-0.0885385 -0.345167 9.65371 
9.65221 -0.00934228 -0.112647 
-0.00934228 9.67109 -0.305421 
-0.112647 -0.305421 9.65837 
9.67085 0.0078952 -0.111506 
0.0078952 9.64203 -0.337197 
-0.111506 -0.337197 9.6688 
10.0553 -0.0247589 -0.0501383 
-0.0247589 10.0738 -0.0234501 
-0.0501383 -0.0234501 9.99468 
9.96886 0.132786 0.0419381 
0.132786 10.0535 0.0402604 
0.0419381 0.0402604 10.1015 
10.0588 -0.00953523 -0.0202147 
-0.00953523 10.0309 -0.0151785 
-0.0202147 -0.0151785 10.0341 
10.0675 -0.0550553 -0.0244125 
-0.0550553 10.0116 -0.00922994 
-0.0244125 -0.00922994 10.0447 
9.9035 -0.03981 0.000283178 
-0.03981 9.88466 -0.01769 
0.000283178 -0.01769 9.93361 
9.89996 0.0248657 0.0518812 
0.0248657 9.87307 0.0159307 
0.0518812 0.0159307 9.94874 
9.846 0.0729254 -0.0472847 
0.0729254 9.9448 0.0295094 
-0.0472847 0.0295094 9.93097 
9.92689 -0.0360333 -0.00182995 
-0.0360333 9.90138 -0.00206911 
-0.00182995 -0.00206911 9.8935 
9.31209 0.240421 -0.0674262 
0.240421 11.2159 -0.575541 
-0.0674262 -0.575541 11.1976 
9.42374 -0.268994 -1.12753 
-0.268994 10.8083 -0.726515 
-1.12753 -0.726515 11.4935 
8.71012 -0.143955 -1.16438 
-0.143955 10.609 0.261696 
-1.16438 0.261696 12.4065 
9.55318 -0.756284 -0.903057 
-0.756284 10.7145 0.363424 
-0.903057 0.363424 11.4578 
9.92241 -0.00171027 -0.015138 
-0.00171027 9.92393 -0.0113225 
-0.015138 -0.0113225 9.97064 
9.92043 0.000760188 -0.0349414 
0.000760188 9.92273 -0.00960311 
-0.0349414 -0.00960311 9.97382 
9.91678 -0.00206441 -0.029026 
-0.00206441 9.92753 0.00350386 
-0.029026 0.00350386 9.97267 
9.91921 0.00394181 -0.0324021 
0.00394181 9.93315 -0.00217009 
-0.0324021 -0.00217009 9.96462 
9.91008 0.152674 -0.0752628 
0.152674 9.66126 0.105151 
-0.0752628 0.105151 9.95528 
9.75864 0.0234392 -0.0942363 
0.0234392 9.76457 0.174702 
-0.0942363 0.174702 10.0034 
9.89052 0.0540731 -0.196536 
0.0540731 9.66054 0.279863 
-0.196536 0.279863 9.97557 
9.73594 -0.0554031 -0.160087 
-0.0554031 9.95503 0.138665 
-0.160087 0.138665 9.83565 
9.99523 0.450057 0.344584 
0.450057 9.88381 -0.0404624 
0.344584 -0.0404624 10.9338 
9.50998 0.533315 0.513973 
0.533315 10.2716 -0.290165 
0.513973 -0.290165 11.0313 
9.70967 0.512769 0.444654 
0.512769 9.94619 -0.438026 
0.444654 -0.438026 11.157 
10.0588 0.52329 0.612446 
0.52329 10.1486 -0.333363 
0.612446 -0.333363 10.6055 
9.92423 -0.0173053 -0.0144518 
-0.0173053 9.86083 -0.0263195 
-0.0144518 -0.0263195 9.90184 
9.86197 -0.0107892 0.0370216 
-0.0107892 9.87393 0.00295522 
0.0370216 0.00295522 9.95102 
9.89729 -0.0124582 0.0203461 
-0.0124582 9.87929 0.0159458 
0.0203461 0.0159458 9.91033 
9.884 0.0364508 0.0475918 
0.0364508 9.8631 0.0269277 
0.0475918 0.0269277 9.93981 
9.23031 -0.0906614 0.988627 
-0.0906614 9.79516 -0.316069 
0.988627 -0.316069 8.80804 
9.39871 -0.194332 0.704805 
-0.194332 9.50265 -0.241475 
0.704805 -0.241475 8.93215 
9.39625 -0.231479 0.53151 
-0.231479 9.52413 -0.0494173 
0.53151 -0.0494173 8.91313 
9.46019 0.172264 0.257883 
0.172264 9.25907 -0.202163 
0.257883 -0.202163 9.11425 
8.89408 -0.117044 1.07954 
-0.117044 11.8164 -0.253112 
1.07954 -0.253112 14.0867 
11.6115 -0.332104 -0.0750101 
-0.332104 9.39334 -0.115927 
-0.0750101 -0.115927 13.7924 
10.7879 -1.08699 -0.569865 
-1.08699 10.3071 -0.219399 
-0.569865 -0.219399 13.7022 
10.9915 -0.0103889 -0.391874 
-0.0103889 10.9726 0.766542 
-0.391874 0.766542 12.8331 
9.83455 -0.00451597 0.00959097 
-0.00451597 9.82953 -1.81952e-06 
0.00959097 -1.81952e-06 10.0012 
9.83389 0.00020785 0.0152908 
0.00020785 9.83127 -0.00387836 
0.0152908 -0.00387836 10.0001 
9.84196 0.000679838 0.0238552 
0.000679838 9.83673 -0.0115014 
0.0238552 -0.0115014 9.98659 
9.83143 0.00221597 0.0154788 
0.00221597 9.83259 -0.00520815 
0.0154788 -0.00520815 10.0013 
8.82571 -1.01606 0.804907 
-1.01606 12.2572 0.272099 
0.804907 0.272099 13.6938 
8.30518 -1.63753 0.888123 
-1.63753 10.6997 0.803269 
0.888123 0.803269 15.7719 
9.19978 -0.628134 0.615371 
-0.628134 11.5356 0.21289 
0.615371 0.21289 14.0414 
9.50914 -1.33955 2.32752 
-1.33955 11.6955 -0.0421876 
2.32752 -0.0421876 13.5722 
9.56596 0.0216775 0.322191 
0.0216775 9.436 0.160406 
0.322191 0.160406 9.62582 
9.4931 0.0403442 0.363439 
0.0403442 9.5778 0.0386984 
0.363439 0.0386984 9.55688 
9.50571 0.00639708 0.374922 
0.00639708 9.57625 0.0363078 
0.374922 0.0363078 9.54583 
9.48345 -0.0235555 0.381689 
-0.0235555 9.62295 0.0553187 
0.381689 0.0553187 9.52138 
9.92213 0.00319849 -0.0788437 
0.00319849 9.76263 0.0873688 
-0.0788437 0.0873688 10.1245 
10.0303 0.0126189 0.0534804 
0.0126189 9.9943 0.0941198 
0.0534804 0.0941198 9.78463 
9.89811 0.0333106 -0.0219965 
0.0333106 9.80406 0.10932 
-0.0219965 0.10932 10.1071 
9.92944 -0.0957697 -0.07283 
-0.0957697 9.8502 0.264097 
-0.07283 0.264097 10.0296 
9.65422 0.0492956 0.302118 
0.0492956 9.57044 0.12196 
0.302118 0.12196 9.62964 
9.60488 0.0244294 0.278152 
0.0244294 9.6106 0.129387 
0.278152 0.129387 9.63883 
9.56369 -0.073304 0.260152 
-0.073304 9.63758 0.126007 
0.260152 0.126007 9.65303 
9.53735 0.026669 0.295305 
0.026669 9.64319 0.179336 
0.295305 0.179336 9.67377 
10.1833 0.00221998 0.0193753 
0.00221998 10.1925 -0.016826 
0.0193753 -0.016826 9.95016 
10.1713 -0.0128264 -0.00383855 
-0.0128264 10.1514 -0.0172671 
-0.00383855 -0.0172671 10.0033 
10.1673 0.00237653 0.0166886 
0.00237653 10.1635 0.00430405 
0.0166886 0.00430405 9.99518 
10.1837 0.00025329 0.0271815 
0.00025329 10.1837 -0.0228099 
0.0271815 -0.0228099 9.95866 
10.1947 0.130517 0.170186 
0.130517 9.14262 -0.184425 
0.170186 -0.184425 10.0892 
9.72276 -0.204944 -0.0937554 
-0.204944 9.75285 0.536208 
-0.0937554 0.536208 9.95094 
9.89295 0.0490349 0.232338 
0.0490349 9.34973 -0.307266 
0.232338 -0.307266 10.1839 
10.2347 0.332955 0.0994629 
0.332955 8.74755 -0.00093956 
0.0994629 -0.00093956 10.4443 
9.53077 -0.120726 -0.114376 
-0.120726 9.56862 -0.209057 
-0.114376 -0.209057 9.72314 
9.58328 0.104522 -0.196763 
0.104522 9.41984 -0.171707 
-0.196763 -0.171707 9.8194 
9.59543 0.0865036 -0.139915 
0.0865036 9.50232 -0.233813 
-0.139915 -0.233813 9.72478 
9.49641 -0.0239842 -0.0790719 
-0.0239842 9.52244 -0.269503 
-0.0790719 -0.269503 9.80368 
9.75343 -0.0502435 -0.0571938 
-0.0502435 9.68527 0.00495615 
-0.0571938 0.00495615 9.6808 
9.836 -0.07121 -0.0402923 
-0.07121 9.70538 0.0245696 
-0.0402923 0.0245696 9.57812 
9.71996 -0.0327754 -0.0157457 
-0.0327754 9.65172 -0.0149315 
-0.0157457 -0.0149315 9.74782 
9.75065 -0.00186685 -0.120718 
-0.00186685 9.64107 0.0156532 
-0.120718 0.0156532 9.72777 
9.27688 -0.170002 -0.0641774 
-0.170002 9.44457 -0.0542667 
-0.0641774 -0.0542667 10.2644 
9.48889 -0.095152 -0.236194 
-0.095152 9.49076 -0.194126 
-0.236194 -0.194126 10.0062 
9.50654 0.122285 -0.00776928 
0.122285 9.6179 -0.11767 
-0.00776928 -0.11767 9.86142 
9.43815 -0.107155 -0.14033 
-0.107155 9.50397 -0.118724 
-0.14033 -0.118724 10.0437 
9.57585 -0.0148801 0.0584703 
-0.0148801 9.52865 -0.390959 
0.0584703 -0.390959 9.56449 
9.68603 0.0110501 0.11306 
0.0110501 9.44199 -0.400794 
0.11306 -0.400794 9.54097 
9.58464 0.0123219 0.0320661 
0.0123219 9.534 -0.390787 
0.0320661 -0.390787 9.55035 
9.55557 0.0462457 0.0783013 
0.0462457 9.56529 -0.381386 
0.0783013 -0.381386 9.54813 
3.71651 -2.96871 0.470942 
-2.96871 10.4535 0.847185 
0.470942 0.847185 -2.42466 
7.38833 0.295514 0.536376 
0.295514 8.09969 0.308173 
0.536376 0.308173 -3.74268 
4.55497 -0.143556 -1.6876 
-0.143556 0.960541 -2.72108 
-1.6876 -2.72108 6.22982 
4.30342 2.55893 2.24475 
2.55893 8.51053 -4.18581 
2.24475 -4.18581 -1.06862 
9.61913 0.0664607 -0.256282 
0.0664607 9.71142 0.0628427 
-0.256282 0.0628427 9.82435 
9.78922 -0.0301969 -0.164508 
-0.0301969 9.61771 0.0915218 
-0.164508 0.0915218 9.74798 
9.50593 0.132488 -0.213131 
0.132488 9.71826 0.0291663 
-0.213131 0.0291663 9.93071 
9.62552 -0.0356245 -0.243468 
-0.0356245 9.7127 0.0475037 
-0.243468 0.0475037 9.81668 
13.0184 -0.530791 -0.701363 
-0.530791 12.8405 0.153238 
-0.701363 0.153238 11.6237 
10.7458 -0.773962 0.619585 
-0.773962 12.3338 0.721374 
0.619585 0.721374 14.403 
11.2187 -0.0823029 -0.516524 
-0.0823029 11.7684 0.471954 
-0.516524 0.471954 14.4956 
12.0249 -1.01274 0.398932 
-1.01274 11.9514 -0.823498 
0.398932 -0.823498 13.5063 
9.68054 -0.0106007 -0.263991 
-0.0106007 9.68429 0.187863 
-0.263991 0.187863 9.66835 
9.69439 0.0163676 -0.322309 
0.0163676 9.69248 0.175791 
-0.322309 0.175791 9.64631 
9.69607 -0.00329268 -0.287536 
-0.00329268 9.69061 0.172623 
-0.287536 0.172623 9.6465 
9.71602 -0.010805 -0.28346 
-0.010805 9.65484 0.225723 
-0.28346 0.225723 9.66232 
9.81707 -0.0299161 -0.0473775 
-0.0299161 9.76639 -0.269872 
-0.0473775 -0.269872 9.87468 
9.81013 -0.0352244 -0.0469495 
-0.0352244 9.77605 -0.256613 
-0.0469495 -0.256613 9.87196 
9.78615 -0.0190106 -0.0131584 
-0.0190106 9.76149 -0.239657 
-0.0131584 -0.239657 9.91049 
9.86369 -0.0181451 -0.115099 
-0.0181451 9.87765 -0.20386 
-0.115099 -0.20386 9.7168 
9.4085 1.25493 -0.72685 
1.25493 8.93365 1.74775 
-0.72685 1.74775 10.8008 
10.1738 0.276713 -1.32825 
0.276713 8.73254 0.71761 
-1.32825 0.71761 10.2367 
9.35765 1.59063 -2.08194 
1.59063 9.8409 2.16782 
-2.08194 2.16782 9.94439 
9.24201 1.31728 -1.30072 
1.31728 9.18606 1.83125 
-1.30072 1.83125 10.7149 
9.61672 -0.0237775 0.38409 
-0.0237775 9.74666 -0.082286 
0.38409 -0.082286 9.60988 
9.49622 0.0578751 0.498334 
0.0578751 9.76583 -0.145881 
0.498334 -0.145881 9.71121 
9.3887 0.247021 0.251864 
0.247021 9.49139 -0.158027 
0.251864 -0.158027 10.0932 
9.5925 0.122081 0.382406 
0.122081 9.60654 -0.164753 
0.382406 -0.164753 9.77422 
9.68401 -0.0281895 -0.127754 
-0.0281895 9.18718 0.398936 
-0.127754 0.398936 10.8446 
9.39884 -0.043168 -0.0521659 
-0.043168 9.55873 0.308182 
-0.0521659 0.308182 10.7582 
9.46669 -0.108048 0.102241 
-0.108048 9.53117 0.0680027 
0.102241 0.0680027 10.7179 
9.37188 0.0753461 -0.192353 
0.0753461 9.73559 0.291909 
-0.192353 0.291909 10.6083 
9.74987 -0.019847 0.10573 
-0.019847 9.93843 -0.044148 
0.10573 -0.044148 10.1496 
9.85052 0.00269516 0.116587 
0.00269516 9.94754 0.0235652 
0.116587 0.0235652 10.0398 
9.99687 0.0126307 0.0668807 
0.0126307 10.0224 0.0805791 
0.0668807 0.0805791 9.81862 
9.94877 -0.105149 0.253004 
-0.105149 9.90857 0.0569436 
0.253004 0.0569436 9.98057 
9.7127 0.00753357 0.0114366 
0.00753357 9.74062 0.00909725 
0.0114366 0.00909725 9.91959 
9.71795 -0.00775782 0.00284364 
-0.00775782 9.74067 0.0133779 
0.00284364 0.0133779 9.91429 
9.71008 0.0104248 0.00522525 
0.0104248 9.74579 0.0226847 
0.00522525 0.0226847 9.91703 
9.72631 -0.0251307 0.0303886 
-0.0251307 9.70599 0.0433694 
0.0303886 0.0433694 9.94061 
9.47042 0.0143463 0.120143 
0.0143463 9.83326 0.0240339 
0.120143 0.0240339 9.94338 
9.68588 -0.135427 0.312293 
-0.135427 9.77746 -0.0263541 
0.312293 -0.0263541 9.78372 
9.36383 -0.118597 0.200554 
-0.118597 10.016 0.251463 
0.200554 0.251463 9.86723 
9.51187 0.119593 0.260159 
0.119593 9.77027 -0.0048466 
0.260159 -0.0048466 9.96492 
11.4915 -0.150738 -0.052388 
-0.150738 11.9513 0.384911 
-0.052388 0.384911 10.4514 
11.0857 0.229003 -0.108875 
0.229003 11.0945 -0.171899 
-0.108875 -0.171899 11.714 
11.0117 -0.0694337 0.0191551 
-0.0694337 10.8856 -0.0484189 
0.0191551 -0.0484189 11.9969 
11.1941 0.0398546 -0.592306 
0.0398546 10.9739 0.195227 
-0.592306 0.195227 11.7262 
7.12695 0.629496 -1.60478 
0.629496 7.98317 -0.700932 
-1.60478 -0.700932 1.43881 
6.70817 -1.3193 -2.60105 
-1.3193 6.88323 -0.83976 
-2.60105 -0.83976 2.95753 
6.9706 0.145038 -0.117607 
0.145038 8.31006 -0.842985 
-0.117607 -0.842985 1.26828 
6.7992 0.957358 -0.593171 
0.957358 7.35376 -0.371328 
-0.593171 -0.371328 2.39598 
10.1409 -0.0231164 -0.953698 
-0.0231164 10.4795 1.73217 
-0.953698 1.73217 7.43979 
10.362 -0.104247 -0.351248 
-0.104247 11.0468 1.4918 
-0.351248 1.4918 6.65131 
10.2674 -0.272312 -0.376081 
-0.272312 10.8886 1.00541 
-0.376081 1.00541 6.90405 
9.96484 0.070357 -0.98411 
0.070357 10.9719 1.95094 
-0.98411 1.95094 7.12335 
9.89748 -0.0312847 -0.0265238 
-0.0312847 10.0514 -0.09058 
-0.0265238 -0.09058 10.2583 
10.0105 0.0367028 0.0355731 
0.0367028 10.0752 0.00479327 
0.0355731 0.00479327 10.1214 
10.1391 -0.00176997 0.0244423 
-0.00176997 10.2042 0.0351643 
0.0244423 0.0351643 9.86394 
10.0464 -0.0236524 0.0108667 
-0.0236524 10.0623 0.0617313 
0.0108667 0.0617313 10.0985 
9.60692 0.0932464 -0.0755101 
0.0932464 9.4854 -0.218548 
-0.0755101 -0.218548 10.1468 
9.6865 -0.10825 0.0708019 
-0.10825 9.56961 -0.307134 
0.0708019 -0.307134 9.98305 
9.75275 -0.0104177 0.0908166 
-0.0104177 9.5263 -0.189148 
0.0908166 -0.189148 9.9601 
9.98723 0.0157565 0.210135 
0.0157565 9.35986 -0.207625 
0.210135 -0.207625 9.89206 
3.6581 0.0694862 -0.476623 
0.0694862 3.05437 0.274164 
-0.476623 0.274164 1.24588 
2.76127 -0.147557 -0.874125 
-0.147557 2.13128 0.267996 
-0.874125 0.267996 3.06579 
4.81169 -0.495013 1.43406 
-0.495013 5.05301 -0.439649 
1.43406 -0.439649 -1.90635 
5.8421 -0.983074 -2.15161 
-0.983074 2.42424 0.403981 
-2.15161 0.403981 -0.307988 
9.325 0.0714715 0.429316 
0.0714715 9.67363 -0.0283164 
0.429316 -0.0283164 9.73022 
9.14122 0.0343656 0.295767 
0.0343656 9.80428 0.0270694 
0.295767 0.0270694 9.78336 
9.73527 0.00617779 0.24826 
0.00617779 9.45537 -0.0183646 
0.24826 -0.0183646 9.53821 
9.51162 0.262837 0.383862 
0.262837 9.50999 -0.0464063 
0.383862 -0.0464063 9.70725 
10.276 1.2202 -0.425334 
1.2202 8.57646 0.611236 
-0.425334 0.611236 10.9031 
10.5569 0.31277 -0.233364 
0.31277 9.02671 0.693554 
-0.233364 0.693554 10.1719 
9.58989 0.798502 -1.3109 
0.798502 8.87322 1.60742 
-1.3109 1.60742 11.2924 
10.2579 0.724724 0.142164 
0.724724 9.59616 1.09958 
0.142164 1.09958 9.90146 
16.9492 0.142863 -0.0193852 
0.142863 12.8373 -1.28016 
-0.0193852 -1.28016 10.8594 
12.6169 1.22989 0.287515 
1.22989 9.7137 -1.38762 
0.287515 -1.38762 18.3153 
12.4439 1.93931 1.68562 
1.93931 10.3035 -0.754291 
1.68562 -0.754291 17.8985 
12.7173 1.28657 -0.493507 
1.28657 12.156 1.49935 
-0.493507 1.49935 15.7726 
14.4484 1.7311 -0.604751 
1.7311 13.1047 1.27695 
-0.604751 1.27695 9.6439 
9.71773 0.67264 -1.27109 
0.67264 11.4379 0.987294 
-1.27109 0.987294 16.0414 
7.82906 1.48133 -2.12531 
1.48133 13.0764 0.115913 
-2.12531 0.115913 16.2915 
10.106 0.107642 0.866928 
0.107642 12.4204 0.0113607 
0.866928 0.0113607 14.6706 
7.32618 -0.35157 5.31691 
-0.35157 9.42968 1.9017 
5.31691 1.9017 6.06731 
10.0027 2.16538 0.89134 
2.16538 7.35826 0.142999 
0.89134 0.142999 5.46225 
8.2576 -0.629744 4.81014 
-0.629744 7.95056 2.06572 
4.81014 2.06572 6.61501 
5.59036 -2.06439 2.65462 
-2.06439 8.65009 1.0735 
2.65462 1.0735 8.58272 
9.77565 0.00546738 0.266038 
0.00546738 9.73153 0.0549826 
0.266038 0.0549826 9.68768 
9.75522 0.00840166 0.28344 
0.00840166 9.72115 0.065068 
0.28344 0.065068 9.71848 
9.7836 0.00876846 0.245114 
0.00876846 9.72269 0.047849 
0.245114 0.047849 9.68856 
9.78669 0.0313632 0.286886 
0.0313632 9.74377 0.056499 
0.286886 0.056499 9.66439 
9.05293 0.210491 -0.410997 
0.210491 9.69593 0.954679 
-0.410997 0.954679 9.70656 
8.88453 0.160878 -0.378873 
0.160878 9.36505 -1.12802 
-0.378873 -1.12802 10.2058 
8.85133 -0.222347 0.50069 
-0.222347 9.6399 -0.206258 
0.50069 -0.206258 9.96418 
8.66649 -0.499544 -1.23833 
-0.499544 9.70922 0.237611 
-1.23833 0.237611 10.0797 
9.23543 1.50773 -0.330261 
1.50773 9.56353 -0.0347969 
-0.330261 -0.0347969 12.0221 
10.5043 -0.606087 -0.0762471 
-0.606087 9.38197 -0.325817 
-0.0762471 -0.325817 10.9349 
10.05 0.524813 -0.73149 
0.524813 10.0378 0.52756 
-0.73149 0.52756 10.7333 
10.358 0.202034 -0.333874 
0.202034 9.43096 0.521262 
-0.333874 0.521262 11.0321 
9.28896 -0.262186 0.204488 
-0.262186 9.69913 0.0830533 
0.204488 0.0830533 10.029 
9.82462 0.232384 0.0695049 
0.232384 9.47414 0.039612 
0.0695049 0.039612 9.71836 
9.51199 -0.0788291 0.213859 
-0.0788291 9.7324 0.134101 
0.213859 0.134101 9.77273 
9.4647 0.0975439 0.340036 
0.0975439 9.73307 0.0575705 
0.340036 0.0575705 9.81935 
9.74229 0.00354594 -0.0356149 
0.00354594 9.73443 -0.338871 
-0.0356149 -0.338871 9.73845 
9.71992 -0.00155403 -0.0187349 
-0.00155403 9.74993 -0.334761 
-0.0187349 -0.334761 9.74532 
9.74539 0.00238381 -0.0189533 
0.00238381 9.75813 -0.330512 
-0.0189533 -0.330512 9.71165 
9.73773 0.00461219 -0.0246837 
0.00461219 9.74828 -0.337572 
-0.0246837 -0.337572 9.72917 
10.1669 0.00354665 -0.0129841 
0.00354665 10.1673 -0.000454097 
-0.0129841 -0.000454097 9.99512 
10.1681 0.0076799 0.0161506 
0.0076799 10.1725 -0.0119955 
0.0161506 -0.0119955 9.98876 
10.185 -0.00231898 0.00100369 
-0.00231898 10.1914 -0.025585 
0.00100369 -0.025585 9.95291 
10.1877 0.00737904 0.00165677 
0.00737904 10.1891 -0.0340324 
0.00165677 -0.0340324 9.95256 
9.73207 0.020369 0.215702 
0.020369 9.74 -0.0198739 
0.215702 -0.0198739 9.88462 
9.71051 0.0225551 0.288038 
0.0225551 9.80146 -0.0583842 
0.288038 -0.0583842 9.84471 
9.7329 0.0259753 0.305777 
0.0259753 9.74067 -0.0598569 
0.305777 -0.0598569 9.88311 
9.81693 0.0436631 0.248047 
0.0436631 9.80426 -0.0886795 
0.248047 -0.0886795 9.73549 
6.08243 -1.53164 1.51789 
-1.53164 7.28727 0.435392 
1.51789 0.435392 -1.92728 
-0.214201 0.952254 -3.8909 
0.952254 2.03231 -0.143573 
-3.8909 -0.143573 9.62432 
8.74631 0.275944 -0.116325 
0.275944 7.28685 -0.787008 
-0.116325 -0.787008 -4.59074 
6.57826 -0.565373 -1.92165 
-0.565373 4.68359 4.60625 
-1.92165 4.60625 0.180575 
9.61377 0.0169903 -0.335225 
0.0169903 9.61979 -0.0097067 
-0.335225 -0.0097067 9.73814 
9.67182 -0.0103715 -0.335949 
-0.0103715 9.64717 -0.00694883 
-0.335949 -0.00694883 9.65272 
9.67168 0.000118683 -0.356702 
0.000118683 9.68287 -0.00401099 
-0.356702 -0.00401099 9.61714 
9.67221 0.00814696 -0.333474 
0.00814696 9.64946 -0.00547897 
-0.333474 -0.00547897 9.65003 
10.0608 0.0482128 0.410675 
0.0482128 9.52958 -1.38376 
0.410675 -1.38376 9.18028 
11.0022 0.451144 1.01306 
0.451144 8.58069 -0.473705 
1.01306 -0.473705 9.18779 
9.35517 -0.0851993 -0.260089 
-0.0851993 9.68197 -0.602053 
-0.260089 -0.602053 9.73356 
10.0102 -0.707741 -1.41188 
-0.707741 8.53968 -2.44059 
-1.41188 -2.44059 10.2208 
9.56774 0.00363292 0.136803 
0.00363292 9.58979 0.286669 
0.136803 0.286669 9.59515 
9.56232 0.00832843 0.123673 
0.00832843 9.58363 0.290048 
0.123673 0.290048 9.60673 
9.60253 -0.00822779 0.143291 
-0.00822779 9.50702 0.294004 
0.143291 0.294004 9.64313 
9.54738 0.026356 0.145226 
0.026356 9.59189 0.25323 
0.145226 0.25323 9.6134 
9.64711 0.000869125 -0.0711446 
0.000869125 9.61291 -0.325975 
-0.0711446 -0.325975 9.65525 
9.61293 0.00220524 -0.0752113 
0.00220524 9.65963 -0.359051 
-0.0752113 -0.359051 9.64271 
9.70994 -0.0519414 -0.0920793 
-0.0519414 9.60016 -0.339976 
-0.0920793 -0.339976 9.60517 
9.57912 -0.0164358 -0.13875 
-0.0164358 9.6694 -0.331171 
-0.13875 -0.331171 9.66674 
9.73977 -0.0206803 -0.0633223 
-0.0206803 9.79706 0.300735 
-0.0633223 0.300735 9.76277 
9.7702 0.0052913 -0.0730014 
0.0052913 9.76994 0.30202 
-0.0730014 0.30202 9.75946 
9.7946 0.0224066 -0.0482882 
0.0224066 9.7421 0.303948 
-0.0482882 0.303948 9.76291 
9.77349 -0.00495745 -0.0692335 
-0.00495745 9.76617 0.319261 
-0.0692335 0.319261 9.75994 
13.1696 -1.7697 0.125327 
-1.7697 9.34171 1.2396 
0.125327 1.2396 14.6133 
10.8048 -0.254201 -0.218452 
-0.254201 12.0759 -0.00605666 
-0.218452 -0.00605666 14.244 
12.4592 0.879471 -0.333661 
0.879471 11.1818 -0.144505 
-0.333661 -0.144505 13.4837 
13.1375 -0.14662 -0.0333639 
-0.14662 11.0964 -0.162089 
-0.0333639 -0.162089 12.8908 
10.1154 0.126461 0.0709951 
0.126461 7.79184 3.55259 
0.0709951 3.55259 9.85907 
11.5187 -0.781606 -1.50867 
-0.781606 8.91212 1.13186 
-1.50867 1.13186 7.33547 
9.89256 -1.69718 0.141394 
-1.69718 8.66537 2.15379 
0.141394 2.15379 9.20839 
7.98751 0.00244409 1.30727 
0.00244409 7.95674 1.13191 
1.30727 1.13191 11.8221 
10.0846 -0.00644202 -0.0117304 
-0.00644202 10.1182 -0.028035 
-0.0117304 -0.028035 10.0041 
10.1326 -0.006837 -0.0277904 
-0.006837 10.153 -0.00127776 
-0.0277904 -0.00127776 9.92129 
10.0814 -0.013492 -0.0216681 
-0.013492 10.1095 0.0128771 
-0.0216681 0.0128771 10.016 
10.1288 0.00323604 -0.0597768 
0.00323604 10.1362 -0.0137729 
-0.0597768 -0.0137729 9.94187 
8.10995 -0.39153 -0.45549 
-0.39153 11.0384 0.19721 
-0.45549 0.19721 13.0418 
11.6522 1.78545 -1.4178 
1.78545 12.4357 -0.368095 
-1.4178 -0.368095 8.10227 
9.62598 -0.192603 0.48414 
-0.192603 9.75344 0.536437 
0.48414 0.536437 12.8107 
9.81047 0.183897 -0.176648 
0.183897 10.8836 -1.20736 
-0.176648 -1.20736 11.4961 
9.76233 -0.0755892 0.0139689 
-0.0755892 9.39632 -0.0219609 
0.0139689 -0.0219609 9.91593 
9.88505 -0.130243 -0.178462 
-0.130243 9.49761 -0.23022 
-0.178462 -0.23022 9.69191 
9.77042 -0.0903728 -0.0233431 
-0.0903728 9.44012 -0.192461 
-0.0233431 -0.192461 9.86403 
9.75581 -0.0801414 -0.0570835 
-0.0801414 9.39331 -0.0225788 
-0.0570835 -0.0225788 9.92544 
9.73024 0.00689831 -0.187235 
0.00689831 9.72575 -0.270317 
-0.187235 -0.270317 9.71278 
9.72615 0.00585626 -0.187981 
0.00585626 9.731 -0.273577 
-0.187981 -0.273577 9.71162 
9.72696 -0.00568731 -0.190845 
-0.00568731 9.72732 -0.274109 
-0.190845 -0.274109 9.71448 
9.73289 0.0030271 -0.193635 
0.0030271 9.72467 -0.276656 
-0.193635 -0.276656 9.7112 
9.85877 -0.348495 -0.181323 
-0.348495 9.58441 -0.635553 
-0.181323 -0.635553 10.1496 
10.5027 -0.0273493 0.373651 
-0.0273493 8.56123 -0.538194 
0.373651 -0.538194 10.5288 
10.0491 -0.489917 -0.101331 
-0.489917 8.82151 -0.602326 
-0.101331 -0.602326 10.7222 
9.97454 -0.940452 -0.481374 
-0.940452 8.74482 -1.20788 
-0.481374 -1.20788 10.8734 
9.71611 0.0146558 0.0305736 
0.0146558 9.72097 0.00115236 
0.0305736 0.00115236 9.89584 
9.74692 0.00355373 -0.0381041 
0.00355373 9.69056 -0.0157706 
-0.0381041 -0.0157706 9.89544 
9.68317 0.00281133 0.00718489 
0.00281133 9.73057 0.0043701 
0.00718489 0.0043701 9.91919 
9.73481 -0.00133734 0.0248452 
-0.00133734 9.69403 -0.00632868 
0.0248452 -0.00632868 9.90408 
9.831 0.0161482 -0.145019 
0.0161482 9.62434 -0.0537774 
-0.145019 -0.0537774 9.74369 
9.67409 -0.145026 -0.183674 
-0.145026 9.71667 -0.261429 
-0.183674 -0.261429 9.80827 
9.7032 -0.0445502 -0.318076 
-0.0445502 9.75494 -0.269267 
-0.318076 -0.269267 9.74089 
9.42634 -0.392481 -0.212539 
-0.392481 9.70435 -0.206856 
-0.212539 -0.206856 10.0683 
9.47475 0.0775959 -0.181447 
0.0775959 9.69813 0.167182 
-0.181447 0.167182 9.855 
9.72686 -0.493933 0.0693456 
-0.493933 9.81905 0.0215045 
0.0693456 0.0215045 9.48198 
9.46159 0.3616 -0.0773321 
0.3616 9.56691 0.0962305 
-0.0773321 0.0962305 9.99938 
9.22345 0.0575767 -0.281411 
0.0575767 9.97988 0.181111 
-0.281411 0.181111 9.82455 
9.97894 0.0418218 -0.0214154 
0.0418218 9.97547 0.0466221 
-0.0214154 0.0466221 9.87209 
9.84414 0.0478881 -0.058412 
0.0478881 9.83596 0.00667504 
-0.058412 0.00667504 10.1464 
9.96944 0.00141181 -0.0261707 
0.00141181 9.93821 0.0558119 
-0.0261707 0.0558119 9.91885 
9.98734 0.0485712 -0.039647 
0.0485712 9.95155 0.122972 
-0.039647 0.122972 9.8876 
9.90303 -0.002737 0.0426765 
-0.002737 9.65708 -0.107797 
0.0426765 -0.107797 9.7773 
9.8539 0.00987943 -0.00351907 
0.00987943 9.63175 -0.32041 
-0.00351907 -0.32041 9.85177 
9.52112 -0.0034977 -0.00641167 
-0.0034977 9.29632 -0.216159 
-0.00641167 -0.216159 10.52 
9.84423 -0.0174619 -0.0550846 
-0.0174619 9.66914 -0.131855 
-0.0550846 -0.131855 9.82404 
9.56976 -0.0413361 -0.322798 
-0.0413361 9.49088 -0.591014 
-0.322798 -0.591014 9.51159 
9.49056 0.0282753 -0.234258 
0.0282753 9.57958 -0.500174 
-0.234258 -0.500174 9.5021 
9.58012 0.138102 -0.2069 
0.138102 9.61449 -0.49992 
-0.2069 -0.49992 9.37762 
9.36404 -0.0381122 -0.17614 
-0.0381122 9.57927 -0.144968 
-0.17614 -0.144968 9.62892 
9.62261 0.1636 0.232432 
0.1636 9.75894 -0.146114 
0.232432 -0.146114 9.84563 
9.58957 0.113693 0.198194 
0.113693 9.80924 -0.0998968 
0.198194 -0.0998968 9.82837 
9.67477 0.0348281 0.166867 
0.0348281 9.76426 -0.0793106 
0.166867 -0.0793106 9.78815 
9.65347 0.0653513 0.131365 
0.0653513 9.76687 -0.059086 
0.131365 -0.059086 9.80684 
9.50546 -0.015997 0.00210461 
-0.015997 9.27917 0.225798 
0.00210461 0.225798 10.5345 
9.78636 -0.0716079 0.0550874 
-0.0716079 9.68049 0.147403 
0.0550874 0.147403 9.85229 
9.92764 -0.00267177 -0.0532002 
-0.00267177 9.6324 0.103738 
-0.0532002 0.103738 9.75909 
9.8439 0.00979774 -0.0247139 
0.00979774 9.62641 0.335307 
-0.0247139 0.335307 9.84882 
9.71512 -0.0157688 -0.187604 
-0.0157688 9.78797 -0.0219419 
-0.187604 -0.0219419 9.97427 
9.60578 0.00687674 -0.357028 
0.00687674 9.91145 -0.0612681 
-0.357028 -0.0612681 9.96012 
9.63318 -0.0368289 -0.146326 
-0.0368289 9.89673 -0.0390558 
-0.146326 -0.0390558 9.94744 
9.99538 -0.0401374 -0.204502 
-0.0401374 9.70016 -0.0727065 
-0.204502 -0.0727065 9.78182 
9.34467 0.155574 -0.659901 
0.155574 7.82617 0.808784 
-0.659901 0.808784 6.15322 
9.03336 -0.312654 -0.422659 
-0.312654 8.60189 0.228605 
-0.422659 0.228605 5.68882 
8.15346 -0.26215 -0.395151 
-0.26215 8.9935 -0.939493 
-0.395151 -0.939493 6.1771 
9.57697 -0.668352 -0.109287 
-0.668352 9.21156 0.784413 
-0.109287 0.784413 4.53554 
9.6467 0.0198636 -0.289942 
0.0198636 9.86963 -0.0231345 
-0.289942 -0.0231345 9.8459 
9.67766 0.00297508 -0.0937593 
0.00297508 9.89988 0.0282942 
-0.0937593 0.0282942 9.78468 
9.30928 0.00434901 -0.204167 
0.00434901 9.5378 -0.0118904 
-0.204167 -0.0118904 10.5151 
9.66607 -0.0134487 -0.130714 
-0.0134487 9.84992 -0.0546719 
-0.130714 -0.0546719 9.84623 
9.78996 -0.0316692 0.185288 
-0.0316692 9.77309 0.257628 
0.185288 0.257628 9.74816 
9.73585 0.0114487 0.199072 
0.0114487 9.73668 0.263424 
0.199072 0.263424 9.83868 
9.77729 0.00241167 0.160305 
0.00241167 9.76504 0.279055 
0.160305 0.279055 9.76887 
9.77131 0.00683571 0.170626 
0.00683571 9.77234 0.266488 
0.170626 0.266488 9.76756 
10.1081 0.00565068 0.020808 
0.00565068 10.1331 -0.0192697 
0.020808 -0.0192697 9.97153 
10.1197 0.000449366 -0.00445772 
0.000449366 10.1534 -0.0286854 
-0.00445772 -0.0286854 9.93971 
10.0821 0.00673182 -0.00363597 
0.00673182 10.1149 0.00556793 
-0.00363597 0.00556793 10.0158 
10.1255 0.00766021 -0.00330653 
0.00766021 10.1535 -0.0445916 
-0.00330653 -0.0445916 9.93379 
9.99898 0.021142 0.0958744 
0.021142 9.68472 0.000376621 
0.0958744 0.000376621 10.881 
10.2672 0.0201853 0.0328816 
0.0201853 9.77265 -0.261366 
0.0328816 -0.261366 10.5248 
9.9626 -0.138589 -0.0817452 
-0.138589 9.91651 -0.164247 
-0.0817452 -0.164247 10.6856 
9.81223 -0.250166 -0.183828 
-0.250166 9.97374 -0.22133 
-0.183828 -0.22133 10.7787 
9.90717 0.0772037 0.120104 
0.0772037 10.1035 -0.0813172 
0.120104 -0.0813172 10.0293 
9.5763 0.0486117 -0.238813 
0.0486117 9.68721 0.238789 
-0.238813 0.238789 10.7764 
10.1226 -0.214588 0.217876 
-0.214588 10.3285 -0.0749363 
0.217876 -0.0749363 9.58875 
9.76101 0.277606 0.287775 
0.277606 10.0038 -0.280877 
0.287775 -0.280877 10.2751 
9.64925 -0.021479 0.0688241 
-0.021479 9.1421 -0.692948 
0.0688241 -0.692948 9.54339 
9.64955 0.0449053 0.0359309 
0.0449053 9.07305 -0.604074 
0.0359309 -0.604074 9.61214 
9.68338 0.0587483 0.190517 
0.0587483 9.18943 -1.06878 
0.190517 -1.06878 9.46194 
9.08033 -0.0948473 0.170399 
-0.0948473 9.86404 -0.451527 
0.170399 -0.451527 9.39038 
14.2377 -1.78367 1.59079 
-1.78367 8.91611 -0.151212 
1.59079 -0.151212 8.44638 
9.46427 -0.950834 0.128453 
-0.950834 10.8506 -0.133977 
0.128453 -0.133977 11.2853 
10.0891 0.127083 -0.399079 
0.127083 9.98654 0.0464454 
-0.399079 0.0464454 11.5245 
9.81834 -0.374928 0.832711 
-0.374928 10.4165 -1.05326 
0.832711 -1.05326 11.3654 
9.68264 0.0264377 -0.041622 
0.0264377 9.74966 -0.263489 
-0.041622 -0.263489 9.64649 
9.71128 0.000722696 0.0225526 
0.000722696 9.78736 -0.258665 
0.0225526 -0.258665 9.58015 
9.67151 0.0155071 -0.013169 
0.0155071 9.77574 -0.297336 
-0.013169 -0.297336 9.63154 
9.70265 0.0180816 0.00982239 
0.0180816 9.75527 -0.275499 
0.00982239 -0.275499 9.62088 
9.498 0.52572 0.267644 
0.52572 9.05993 -0.320017 
0.267644 -0.320017 10.2151 
9.61601 0.336533 0.139514 
0.336533 9.09272 -0.232527 
0.139514 -0.232527 10.0643 
9.55539 0.512261 0.307078 
0.512261 9.40362 -0.400763 
0.307078 -0.400763 9.81404 
9.47083 0.462359 0.228017 
0.462359 9.09227 -0.276742 
0.228017 -0.276742 10.2099 
12.386 1.0972 0.609401 
1.0972 9.97724 -0.793791 
0.609401 -0.793791 15.9958 
11.9213 -1.09634 0.288641 
-1.09634 11.7202 -0.0982436 
0.288641 -0.0982436 14.7174 
12.444 0.355512 0.408966 
0.355512 12.1599 -0.171637 
0.408966 -0.171637 13.7551 
12.3326 0.246242 0.461781 
0.246242 12.4714 0.18311 
0.461781 0.18311 13.555 
9.28684 0.0121187 0.210169 
0.0121187 9.51893 0.00706291 
0.210169 0.00706291 10.5286 
9.69312 0.0745442 0.12379 
0.0745442 9.78836 -0.0447809 
0.12379 -0.0447809 9.85284 
9.6267 0.00659473 0.104501 
0.00659473 9.92177 0.0525032 
0.104501 0.0525032 9.78585 
9.63159 -0.00553433 0.299097 
-0.00553433 9.85891 0.0251205 
0.299097 0.0251205 9.84382 
10.1214 0.011086 0.003559 
0.011086 10.1348 0.0383403 
0.003559 0.0383403 9.91328 
10.066 0.0369667 -0.00266903 
0.0369667 10.1097 0.0311066 
-0.00266903 0.0311066 9.99382 
10.0992 0.0449728 -0.0177561 
0.0449728 10.0758 0.00503919 
-0.0177561 0.00503919 9.99447 
10.1309 0.00699092 -0.0211027 
0.00699092 10.0897 0.0449645 
-0.0211027 0.0449645 9.94891 
10.0297 0.00261537 -0.0351102 
0.00261537 10.0382 -0.00722441 
-0.0351102 -0.00722441 10.0021 
10.0347 0.000246645 -0.0536727 
0.000246645 10.0707 0.0499385 
-0.0536727 0.0499385 9.96452 
10.0261 -0.0125638 -0.040758 
-0.0125638 10.0424 -0.0218706 
-0.040758 -0.0218706 10.0014 
10.0379 -0.00355284 -0.0137769 
-0.00355284 10.0613 0.0253063 
-0.0137769 0.0253063 9.97077 
9.40267 -0.0365355 -0.350418 
-0.0365355 9.43518 -0.70999 
-0.350418 -0.70999 10.0228 
9.71187 -0.0977504 -0.260992 
-0.0977504 9.44433 -0.15451 
-0.260992 -0.15451 9.70447 
9.37871 -0.414339 -0.113636 
-0.414339 9.45242 -0.126578 
-0.113636 -0.126578 10.0295 
9.22775 -0.0449319 0.0248001 
-0.0449319 9.14914 -0.0805065 
0.0248001 -0.0805065 10.4838 
9.85323 -0.0458064 -0.0609312 
-0.0458064 9.7492 -0.221507 
-0.0609312 -0.221507 9.91915 
9.85402 0.0115209 -0.0782401 
0.0115209 9.87303 -0.222563 
-0.0782401 -0.222563 9.79453 
9.8232 -0.0282087 -0.072682 
-0.0282087 9.76636 -0.274333 
-0.072682 -0.274333 9.93202 
9.83454 -0.0380318 -0.0310476 
-0.0380318 9.8721 -0.234971 
-0.0310476 -0.234971 9.81494 
9.58389 -0.0190271 0.297197 
-0.0190271 9.56507 -0.14141 
0.297197 -0.14141 9.62098 
9.59428 -0.0127643 0.292667 
-0.0127643 9.56644 -0.136027 
0.292667 -0.136027 9.60923 
9.54676 0.0219308 0.288798 
0.0219308 9.59879 -0.135113 
0.288798 -0.135113 9.62439 
9.58482 0.00557405 0.30898 
0.00557405 9.55959 -0.129815 
0.30898 -0.129815 9.62555 
9.73213 0.0534741 -0.171487 
0.0534741 9.74586 0.244419 
-0.171487 0.244419 9.85064 
9.73037 0.0198599 -0.13608 
0.0198599 9.75115 0.247815 
-0.13608 0.247815 9.84711 
9.74802 0.0165251 -0.127074 
0.0165251 9.72906 0.216555 
-0.127074 0.216555 9.85154 
9.80962 0.00544534 -0.184506 
0.00544534 9.77875 0.209731 
-0.184506 0.209731 9.74026 
9.77241 0.00953178 0.309574 
0.00953178 9.75861 0.122407 
0.309574 0.122407 9.70714 
9.74654 0.00399899 0.303509 
0.00399899 9.74645 0.127132 
0.303509 0.127132 9.74516 
9.75257 -0.0016566 0.30171 
-0.0016566 9.75171 0.123505 
0.30171 0.123505 9.73388 
9.75594 0.00791912 0.285909 
0.00791912 9.75615 0.129644 
0.285909 0.129644 9.72607 
9.53184 0.111464 -0.151931 
0.111464 9.8346 -0.0968805 
-0.151931 -0.0968805 9.9212 
9.65299 0.178333 0.0292985 
0.178333 9.73428 -0.0788704 
0.0292985 -0.0788704 9.90037 
9.76855 -0.0988945 -0.256758 
-0.0988945 9.63347 0.152985 
-0.256758 0.152985 9.88561 
9.56277 0.253719 -0.103743 
0.253719 9.57236 0.0604699 
-0.103743 0.0604699 10.1525 
9.88184 -0.00940177 0.0089193 
-0.00940177 9.90173 0.0132492 
0.0089193 0.0132492 9.95683 
9.88306 -0.00502163 0.00680601 
-0.00502163 9.88681 0.0215262 
0.00680601 0.0215262 9.97055 
9.89834 0.000667796 0.0290919 
0.000667796 9.8933 0.0257827 
0.0290919 0.0257827 9.94877 
9.88514 0.00346524 0.0370006 
0.00346524 9.89639 -0.000395455 
0.0370006 -0.000395455 9.95889 
9.96232 -0.00847927 0.0248297 
-0.00847927 10.0587 0.036921 
0.0248297 0.036921 9.82881 
9.89036 -0.0546597 0.0915689 
-0.0546597 9.9644 0.00793502 
0.0915689 0.00793502 9.9951 
9.81271 -0.0239979 0.0628248 
-0.0239979 9.92072 0.0444729 
0.0628248 0.0444729 10.1164 
9.99261 0.0191689 0.118104 
0.0191689 9.98738 0.0764035 
0.118104 0.0764035 9.86987 
9.94416 -0.0614271 0.00477006 
-0.0614271 10.2865 -0.021444 
0.00477006 -0.021444 9.88407 
10.0437 -0.197118 0.0785703 
-0.197118 10.2304 -0.241259 
0.0785703 -0.241259 9.84065 
10.0666 0.0540294 -0.00145234 
0.0540294 9.75016 0.107813 
-0.00145234 0.107813 10.298 
9.87763 -0.041748 -0.0893019 
-0.041748 10.0507 0.0126178 
-0.0893019 0.0126178 10.1864 
10.0958 0.016596 0.00951472 
0.016596 10.1091 0.00361163 
0.00951472 0.00361163 10.0136 
10.1346 0.00576732 -0.0281532 
0.00576732 10.1196 0.0259036 
-0.0281532 0.0259036 9.96425 
10.1326 0.00794235 -0.021562 
0.00794235 10.1395 0.032949 
-0.021562 0.032949 9.94629 
10.1299 0.029623 -0.0269079 
0.029623 10.1301 0.0469419 
-0.0269079 0.0469419 9.95845 
9.5617 0.0802326 -0.226177 
0.0802326 9.59023 0.0682064 
-0.226177 0.0682064 9.78846 
9.24476 0.0568454 -0.141029 
0.0568454 9.6849 0.0270279 
-0.141029 0.0270279 10.0107 
9.70326 0.0554073 -0.16277 
0.0554073 9.5515 0.0556615 
-0.16277 0.0556615 9.68563 
9.56613 0.0111511 -0.402412 
0.0111511 9.56029 0.0962474 
-0.402412 0.0962474 9.81397 
7.5424 -1.10266 0.901697 
-1.10266 8.20569 0.260104 
0.901697 0.260104 -4.0327 
1.8248 -0.750056 0.628411 
-0.750056 1.21248 -0.355862 
0.628411 -0.355862 8.6781 
6.949 -0.548391 -1.57742 
-0.548391 9.17112 -0.881342 
-1.57742 -0.881342 -4.40474 
6.22394 0.991343 -1.99573 
0.991343 5.52508 5.31421 
-1.99573 5.31421 -0.0336401 
9.56556 0.0443791 0.148399 
0.0443791 9.63686 0.217016 
0.148399 0.217016 9.67963 
9.46047 -0.0538837 0.21168 
-0.0538837 9.55756 0.156097 
0.21168 0.156097 9.86402 
9.46419 -0.0590207 0.229411 
-0.0590207 9.49723 -0.0229817 
0.229411 -0.0229817 9.92063 
9.5307 -0.0509482 0.317583 
-0.0509482 9.43916 0.10301 
0.317583 0.10301 9.91218 
9.71955 -0.16436 0.127765 
-0.16436 9.45008 -0.0905601 
0.127765 -0.0905601 10.2597 
9.69217 -0.172658 0.0437762 
-0.172658 9.37041 0.101802 
0.0437762 0.101802 10.3667 
9.93809 0.0264721 -0.153491 
0.0264721 9.58046 0.323039 
-0.153491 0.323039 9.91076 
9.93462 0.00195847 0.0193842 
0.00195847 9.12062 0.144046 
0.0193842 0.144046 10.3741 
10.0148 -0.765745 -0.603978 
-0.765745 9.37393 -1.06624 
-0.603978 -1.06624 7.04236 
10.4635 -0.409173 -0.368744 
-0.409173 9.28023 -1.11901 
-0.368744 -1.11901 6.68735 
9.1473 -0.400077 -0.78765 
-0.400077 10.0182 -0.0691381 
-0.78765 -0.0691381 7.26555 
9.81198 -0.163148 -1.23162 
-0.163148 9.61232 -0.571713 
-1.23162 -0.571713 7.00678 
7.84198 0.186747 -0.288951 
0.186747 9.50634 -0.733236 
-0.288951 -0.733236 6.78617 
8.69495 0.192895 0.654797 
0.192895 8.83373 -1.54708 
0.654797 -1.54708 6.60581 
8.50291 0.108028 0.814584 
0.108028 8.45941 -1.22841 
0.814584 -1.22841 7.17216 
8.81312 0.035607 0.737467 
0.035607 8.44173 -1.21276 
0.737467 -1.21276 6.87964 
-0.817795 0.684443 3.913 
0.684443 -2.79624 -3.35226 
3.913 -3.35226 14.4994 
10.0481 -1.14363 -0.364688 
-1.14363 8.81566 2.33599 
-0.364688 2.33599 -7.97843 
6.73314 0.278428 -2.89256 
0.278428 8.17528 2.30445 
-2.89256 2.30445 -4.02307 
5.10774 -2.19875 -6.0953 
-2.19875 10.2596 -7.9372 
-6.0953 -7.9372 -4.48196 
9.93058 -0.0842477 -0.0510483 
-0.0842477 9.859 0.0425625 
-0.0510483 0.0425625 9.92686 
9.91122 0.0104926 0.0249379 
0.0104926 9.91013 -0.0260355 
0.0249379 -0.0260355 9.8951 
9.96283 -0.000211393 0.0501703 
-0.000211393 9.90289 -0.0781949 
0.0501703 -0.0781949 9.85073 
9.88401 0.0500676 0.0323092 
0.0500676 9.89472 -0.0155703 
0.0323092 -0.0155703 9.93771 
9.7632 -0.00220742 -0.254899 
-0.00220742 9.7545 0.147054 
-0.254899 0.147054 9.70766 
9.7707 -0.0158045 -0.309041 
-0.0158045 9.7221 0.17235 
-0.309041 0.17235 9.73256 
9.77029 -0.0260617 -0.278233 
-0.0260617 9.72979 0.128966 
-0.278233 0.128966 9.72527 
9.74652 0.00287523 -0.328457 
0.00287523 9.74056 0.130745 
-0.328457 0.130745 9.73828 
9.49795 -0.0150176 -0.0744613 
-0.0150176 9.4923 -0.292035 
-0.0744613 -0.292035 9.73691 
9.58746 0.000927855 -0.0896582 
0.000927855 9.58169 -0.317154 
-0.0896582 -0.317154 9.55801 
9.51612 0.110627 -0.210561 
0.110627 9.6391 -0.248901 
-0.210561 -0.248901 9.57194 
9.56717 0.0173245 -0.139238 
0.0173245 9.50539 -0.293298 
-0.139238 -0.293298 9.6546 
9.28458 -0.304193 -0.027312 
-0.304193 9.34197 1.47578 
-0.027312 1.47578 7.89639 
9.42658 0.0117014 0.224381 
0.0117014 8.83537 0.750873 
0.224381 0.750873 8.261 
9.38809 -0.226537 -0.202753 
-0.226537 9.45889 1.49931 
-0.202753 1.49931 7.67597 
9.05009 -0.135161 -0.216877 
-0.135161 9.36457 1.52261 
-0.216877 1.52261 8.10828 
9.79518 0.0275184 -0.16194 
0.0275184 9.57591 0.0577896 
-0.16194 0.0577896 9.74608 
9.40246 0.315242 -0.233498 
0.315242 9.70454 0.21054 
-0.233498 0.21054 10.0102 
9.65958 0.0127877 -0.335468 
0.0127877 9.69312 0.287718 
-0.335468 0.287718 9.76448 
9.60315 0.170541 -0.185882 
0.170541 9.71549 0.289529 
-0.185882 0.289529 9.79853 
9.54877 -0.298687 0.160777 
-0.298687 9.39735 0.129457 
0.160777 0.129457 9.88711 
9.58478 0.181253 0.226101 
0.181253 9.65956 0.104968 
0.226101 0.104968 9.5889 
9.48947 -0.157481 0.214195 
-0.157481 9.58635 0.159789 
0.214195 0.159789 9.75742 
9.35551 -0.182562 0.178619 
-0.182562 9.70806 0.223559 
0.178619 0.223559 9.76967 
10.7694 0.029307 -0.0843481 
0.029307 10.9392 0.0390587 
-0.0843481 0.0390587 11.7735 
10.9331 0.0602242 0.246055 
0.0602242 10.8821 0.0271692 
0.246055 0.0271692 11.6668 
11.244 0.00459236 -0.0697111 
0.00459236 11.3671 0.0700017 
-0.0697111 0.0700017 10.871 
11.0235 0.101717 -0.0342071 
0.101717 11.3812 0.415839 
-0.0342071 0.415839 11.0774 
8.38689 -0.326772 0.604319 
-0.326772 7.84748 -2.11514 
0.604319 -2.11514 10.6391 
9.99407 1.61355 0.455062 
1.61355 9.21352 -1.89186 
0.455062 -1.89186 7.66589 
10.9504 0.423053 -0.691587 
0.423053 7.98073 -3.7717 
-0.691587 -3.7717 7.94239 
11.4062 0.756565 -0.642813 
0.756565 8.07896 -1.92157 
-0.642813 -1.92157 7.3883 
9.8006 0.139116 -0.00578914 
0.139116 9.62556 0.0390634 
-0.00578914 0.0390634 9.7518 
9.76237 0.120524 -0.05397 
0.120524 9.58977 0.252058 
-0.05397 0.252058 9.82582 
9.47775 0.151803 -0.301193 
0.151803 9.34126 0.0546408 
-0.301193 0.0546408 10.359 
9.72696 0.0205574 -0.0227066 
0.0205574 9.57334 0.0826458 
-0.0227066 0.0826458 9.87765 
9.76212 0.00726302 0.0166771 
0.00726302 9.71714 -0.011453 
0.0166771 -0.011453 9.94528 
9.72808 -0.014517 0.00236558 
-0.014517 9.75995 -0.0417895 
0.00236558 -0.0417895 9.93651 
9.7154 0.0100756 0.0492984 
0.0100756 9.73977 -0.00941198 
0.0492984 -0.00941198 9.96937 
9.75319 -0.015573 0.0164901 
-0.015573 9.76483 -0.00977626 
0.0164901 -0.00977626 9.90652 
9.4887 0.0869774 -0.925101 
0.0869774 10.0199 -0.105415 
-0.925101 -0.105415 9.60809 
9.66491 0.0849655 -0.423388 
0.0849655 9.6113 0.126711 
-0.423388 0.126711 9.84048 
9.92362 0.218627 -0.97781 
0.218627 10.0118 0.441054 
-0.97781 0.441054 9.18125 
9.47045 0.154183 -0.925055 
0.154183 9.90416 0.0518982 
-0.925055 0.0518982 9.74209 
9.67673 0.103014 0.167609 
0.103014 9.62017 0.121099 
0.167609 0.121099 9.72165 
9.28169 -0.142713 0.185025 
-0.142713 9.71358 0.0706493 
0.185025 0.0706493 10.0233 
9.58422 -0.0561853 0.149856 
-0.0561853 9.68504 0.185568 
0.149856 0.185568 9.74929 
9.64194 -0.113832 0.265051 
-0.113832 9.60298 0.0812554 
0.265051 0.0812554 9.77364 
9.64248 0.0273037 -0.0752489 
0.0273037 9.67597 -0.297781 
-0.0752489 -0.297781 9.59354 
9.63309 0.0463475 -0.17071 
0.0463475 9.71881 -0.333885 
-0.17071 -0.333885 9.56009 
9.62585 0.0103697 -0.116776 
0.0103697 9.69403 -0.306091 
-0.116776 -0.306091 9.59211 
9.61787 -0.032574 -0.095343 
-0.032574 9.68637 -0.318266 
-0.095343 -0.318266 9.60775 
13.2926 -3.72898 0.573044 
-3.72898 4.69277 -2.95863 
0.573044 -2.95863 -3.96085 
-0.224143 -0.229811 1.2398 
-0.229811 5.28022 1.51169 
1.2398 1.51169 8.96843 
10.4605 -0.271186 1.28864 
-0.271186 9.64527 -1.48405 
1.28864 -1.48405 -6.08129 
7.34067 4.10975 6.81467 
4.10975 4.74547 -3.0555 
6.81467 -3.0555 1.93837 
9.28417 -0.272767 -0.316992 
-0.272767 10.1498 0.0901011 
-0.316992 0.0901011 10.1719 
10.0953 -0.125796 0.612072 
-0.125796 9.28508 0.293125 
0.612072 0.293125 10.2255 
9.52707 -0.195744 -0.301437 
-0.195744 9.69688 -0.0590287 
-0.301437 -0.0590287 10.3819 
8.79757 -0.488073 -0.0834837 
-0.488073 10.1012 0.0332547 
-0.0834837 0.0332547 10.707 
9.7449 0.0287141 0.0424162 
0.0287141 9.71759 0.0147763 
0.0424162 0.0147763 9.87184 
9.73345 0.0219512 0.0360834 
0.0219512 9.73576 -0.00374612 
0.0360834 -0.00374612 9.86513 
9.71245 0.00665516 0.0119046 
0.00665516 9.75201 0.0127827 
0.0119046 0.0127827 9.86988 
9.72081 -0.000933418 0.0143946 
-0.000933418 9.72832 0.0205304 
0.0143946 0.0205304 9.8852 
9.58868 -0.0554161 0.203844 
-0.0554161 9.42287 -0.513533 
0.203844 -0.513533 9.25587 
9.67143 0.0719872 0.175955 
0.0719872 9.4357 -0.544649 
0.175955 -0.544649 9.1603 
9.63151 0.100319 0.403594 
0.100319 9.51403 -0.644289 
0.403594 -0.644289 9.12188 
9.24657 0.0638555 0.12259 
0.0638555 9.14971 -0.573271 
0.12259 -0.573271 9.87114 
10.7971 -0.209874 -0.118934 
-0.209874 8.8621 -0.696294 
-0.118934 -0.696294 13.1486 
10.3145 -0.362692 -0.0527579 
-0.362692 10.5681 -0.280368 
-0.0527579 -0.280368 11.9252 
10.9441 1.02439 0.00869843 
1.02439 10.2872 0.103403 
0.00869843 0.103403 11.5765 
11.1984 0.222607 -0.103051 
0.222607 10.1756 0.168801 
-0.103051 0.168801 11.4338 
9.57576 0.420106 -0.261879 
0.420106 9.49777 0.172523 
-0.261879 0.172523 10.0493 
9.65154 0.178969 -0.334262 
0.178969 9.67553 0.113267 
-0.334262 0.113267 9.79577 
9.59416 -0.0248813 -0.0645112 
-0.0248813 9.81519 0.127676 
-0.0645112 0.127676 9.7135 
9.69993 0.0095076 -0.370422 
0.0095076 9.68322 0.277854 
-0.370422 0.277854 9.7397 
9.80504 0.0103773 0.105214 
0.0103773 9.83907 0.197463 
0.105214 0.197463 9.79423 
9.83828 0.0630501 0.147258 
0.0630501 9.79629 0.186547 
0.147258 0.186547 9.80377 
9.86396 0.0381602 0.103018 
0.0381602 9.76655 0.136687 
0.103018 0.136687 9.80783 
9.74489 -0.0298137 0.101082 
-0.0298137 9.81597 0.172592 
0.101082 0.172592 9.87749 
9.39074 0.179467 0.483662 
0.179467 9.53804 -0.345023 
0.483662 -0.345023 9.49054 
9.47113 0.138681 0.4437 
0.138681 9.51533 -0.39353 
0.4437 -0.39353 9.43285 
9.43844 0.105455 0.488227 
0.105455 9.62626 -0.549283 
0.488227 -0.549283 9.35462 
9.25492 0.060294 0.128943 
0.060294 9.37756 -0.560814 
0.128943 -0.560814 9.78683 
1.8914 -6.31189 -3.25322 
-6.31189 9.76902 -0.214282 
-3.25322 -0.214282 22.186 
7.89016 -1.23404 0.345998 
-1.23404 12.8995 0.383431 
0.345998 0.383431 13.0568 
3.52314 -2.34892 -1.5851 
-2.34892 11.1075 -1.45067 
-1.5851 -1.45067 19.2158 
10.7726 -0.338541 -2.13581 
-0.338541 11.0558 -0.899115 
-2.13581 -0.899115 12.018 
11.3301 1.00498 -0.277854 
1.00498 9.18607 1.03396 
-0.277854 1.03396 16.1961 
10.9815 1.07103 0.489063 
1.07103 8.94633 -0.813054 
0.489063 -0.813054 16.7844 
13.1623 1.17797 -0.168861 
1.17797 11.4542 -0.164692 
-0.168861 -0.164692 12.0958 
13.4957 1.67829 2.20896 
1.67829 10.4349 0.983875 
2.20896 0.983875 12.7817 
9.45022 0.0654381 -0.127988 
0.0654381 9.7049 -0.320743 
-0.127988 -0.320743 9.34255 
9.50459 0.193505 -0.147496 
0.193505 9.71899 -0.24462 
-0.147496 -0.24462 9.27409 
9.45259 0.0350114 0.0551111 
0.0350114 9.58112 -0.262145 
0.0551111 -0.262145 9.46396 
9.42195 0.0841579 -0.049659 
0.0841579 9.68292 -0.244842 
-0.049659 -0.244842 9.3928 
11.3007 -3.60445 -2.1396 
-3.60445 1.53567 -2.93263 
-2.1396 -2.93263 23.2096 
12.4658 -1.97611 0.223017 
-1.97611 6.92887 -0.152251 
0.223017 -0.152251 16.6513 
7.87184 -6.41157 -0.628845 
-6.41157 2.36659 -4.52305 
-0.628845 -4.52305 25.8075 
10.5075 0.107904 -2.21508 
0.107904 11.4759 -2.01584 
-2.21508 -2.01584 14.0626 
9.64119 -0.0310796 -0.155901 
-0.0310796 9.60681 -0.30513 
-0.155901 -0.30513 9.66397 
9.62978 0.0151108 -0.12491 
0.0151108 9.65486 -0.301771 
-0.12491 -0.301771 9.62733 
9.62607 0.0223163 -0.101638 
0.0223163 9.64353 -0.308239 
-0.101638 -0.308239 9.64237 
9.61037 0.00351102 -0.134011 
0.00351102 9.6348 -0.293535 
-0.134011 -0.293535 9.6668 
9.94496 -0.00762352 -0.0235207 
-0.00762352 9.92252 -0.0250081 
-0.0235207 -0.0250081 9.99609 
9.90341 0.0262002 0.0653971 
0.0262002 9.97665 -0.0132442 
0.0653971 -0.0132442 9.98351 
10.0113 -0.0912479 -0.0161148 
-0.0912479 9.80469 0.0644087 
-0.0161148 0.0644087 10.0475 
9.97777 0.0402529 -0.049351 
0.0402529 9.8904 -0.0352965 
-0.049351 -0.0352965 9.9954 
9.73912 0.0195906 0.172377 
0.0195906 9.75228 0.273979 
0.172377 0.273979 9.72677 
9.75342 -0.00791681 0.168493 
-0.00791681 9.74833 0.279641 
0.168493 0.279641 9.71642 
9.74952 0.0118452 0.177828 
0.0118452 9.74937 0.272131 
0.177828 0.272131 9.71929 
9.74529 0.00717817 0.17837 
0.00717817 9.75081 0.276665 
0.17837 0.276665 9.72208 
9.57117 -0.140305 0.242393 
-0.140305 9.77195 0.265942 
0.242393 0.265942 9.78302 
9.24181 -0.27746 0.26842 
-0.27746 9.84123 0.15857 
0.26842 0.15857 10.0431 
9.66932 0.00515051 0.403012 
0.00515051 9.71082 0.231071 
0.403012 0.231071 9.74601 
9.81458 -0.0518245 0.157232 
-0.0518245 9.58577 0.0132258 
0.157232 0.0132258 9.7258 
10.3947 0.0190289 -0.299332 
0.0190289 9.74883 0.272894 
-0.299332 0.272894 13.4622 
11.549 1.10546 -0.334713 
1.10546 11.9 -0.301123 
-0.334713 -0.301123 10.1567 
11.9168 0.000758953 0.0243656 
0.000758953 10.4769 0.32551 
0.0243656 0.32551 11.2119 
11.6276 0.425292 1.21731 
0.425292 10.9865 1.15388 
1.21731 1.15388 10.9915 
2.07111 -0.180106 0.382964 
-0.180106 1.77975 0.507407 
0.382964 0.507407 7.99027 
7.45033 1.72565 0.226489 
1.72565 9.8709 0.0236968 
0.226489 0.0236968 -5.4801 
6.37808 0.220133 2.04696 
0.220133 6.04977 0.693973 
2.04696 0.693973 -0.586715 
5.61482 0.347928 4.64455 
0.347928 4.44169 6.02478 
4.64455 6.02478 1.78463 
9.38381 0.0202321 -0.0204637 
0.0202321 9.29562 -0.335187 
-0.0204637 -0.335187 9.78429 
9.55112 -0.123448 -0.0191589 
-0.123448 9.20431 -0.23114 
-0.0191589 -0.23114 9.70831 
9.33087 0.00420044 -0.125118 
0.00420044 9.32058 -0.4278 
-0.125118 -0.4278 9.81228 
9.4365 -0.0765988 -0.117953 
-0.0765988 9.62532 -0.409579 
-0.117953 -0.409579 9.40191 
9.87219 -0.0160367 -0.175722 
-0.0160367 9.82968 0.0946709 
-0.175722 0.0946709 9.80214 
9.86389 -0.0200476 -0.212784 
-0.0200476 9.80041 0.133598 
-0.212784 0.133598 9.83971 
9.85341 -0.0360113 -0.157418 
-0.0360113 9.845 0.126909 
-0.157418 0.126909 9.8056 
9.79326 0.027649 -0.190383 
0.027649 9.83145 0.115023 
-0.190383 0.115023 9.8793 
14.478 -0.909869 -0.310215 
-0.909869 12.277 -0.641519 
-0.310215 -0.641519 17.1726 
14.9393 -1.24549 -0.248184 
-1.24549 12.8328 -0.901677 
-0.248184 -0.901677 16.1554 
14.447 -1.02505 -0.105069 
-1.02505 11.318 -1.39437 
-0.105069 -1.39437 18.1625 
16.0587 -0.81938 -1.24333 
-0.81938 12.4481 -2.57771 
-1.24333 -2.57771 15.4208 
9.72292 0.00516909 -0.26794 
0.00516909 9.74473 -0.0547462 
-0.26794 -0.0547462 9.83621 
9.71408 -0.0392704 -0.266954 
-0.0392704 9.77874 -0.0670467 
-0.266954 -0.0670467 9.81105 
9.73751 -0.0123517 -0.282929 
-0.0123517 9.72981 -0.0305868 
-0.282929 -0.0305868 9.83656 
9.76736 0.0037555 -0.273601 
0.0037555 9.77817 -0.0873902 
-0.273601 -0.0873902 9.75833 
9.67533 0.00912378 -0.298475 
0.00912378 9.66506 -0.144351 
-0.298475 -0.144351 9.69635 
9.68023 0.0036216 -0.286047 
0.0036216 9.69203 -0.144175 
-0.286047 -0.144175 9.66449 
9.6752 -0.0138754 -0.309179 
-0.0138754 9.68867 -0.117869 
-0.309179 -0.117869 9.67288 
9.68038 -0.00605128 -0.290432 
-0.00605128 9.67457 -0.135608 
-0.290432 -0.135608 9.6818 
12.3456 1.55236 -0.319659 
1.55236 12.2394 0.225761 
-0.319659 0.225761 11.7959 
10.4487 -0.679027 0.385297 
-0.679027 11.121 0.303202 
0.385297 0.303202 14.8113 
9.93811 0.0659401 -0.782782 
0.0659401 12.6918 0.406095 
-0.782782 0.406095 13.751 
10.9049 0.365974 -0.754114 
0.365974 12.878 -1.20307 
-0.754114 -1.20307 12.598 
12.3029 0.780703 1.20623 
0.780703 14.038 -0.454123 
1.20623 -0.454123 16.6545 
13.8848 0.694393 0.840291 
0.694393 15.1361 -0.846182 
0.840291 -0.846182 13.9745 
11.8845 1.59839 1.34342 
1.59839 13.158 -1.42609 
1.34342 -1.42609 17.953 
13.1634 0.954005 1.04937 
0.954005 14.0233 -0.410419 
1.04937 -0.410419 15.8087 
12.0124 -2.01709 -0.0686528 
-2.01709 7.58729 0.0453975 
-0.0686528 0.0453975 16.2941 
9.54939 -5.16963 0.198621 
-5.16963 3.42563 3.08192 
0.198621 3.08192 22.9188 
11.4275 -2.73925 1.83997 
-2.73925 1.69018 2.2773 
1.83997 2.2773 22.7761 
10.848 0.1085 0.486945 
0.1085 11.0552 2.38719 
0.486945 2.38719 13.9906 
9.65532 -0.0549197 0.0180825 
-0.0549197 9.75114 -0.0326094 
0.0180825 -0.0326094 9.7202 
9.64186 -0.0291238 0.038557 
-0.0291238 9.7707 -0.113151 
0.038557 -0.113151 9.71409 
9.62739 0.0232184 -0.0130385 
0.0232184 9.8066 -0.102782 
-0.0130385 -0.102782 9.69267 
9.64326 -0.0668547 -0.0064535 
-0.0668547 9.75392 -0.082659 
-0.0064535 -0.082659 9.72948 
9.88976 0.050374 -0.243521 
0.050374 9.98596 -0.175261 
-0.243521 -0.175261 9.94597 
9.42025 0.260375 0.274544 
0.260375 9.84741 0.214453 
0.274544 0.214453 10.554 
10.4073 -0.0519529 0.104432 
-0.0519529 9.45194 0.0296086 
0.104432 0.0296086 9.96247 
10.1515 0.124072 -0.126951 
0.124072 9.4835 -0.294233 
-0.126951 -0.294233 10.1867 
9.66688 -0.0179449 -0.151838 
-0.0179449 9.69329 0.295404 
-0.151838 0.295404 9.6967 
9.70803 0.0120696 -0.148136 
0.0120696 9.67977 0.294447 
-0.148136 0.294447 9.66907 
9.68053 -0.00462318 -0.127616 
-0.00462318 9.69729 0.300447 
-0.127616 0.300447 9.67905 
9.6864 -0.00809512 -0.138817 
-0.00809512 9.68812 0.300057 
-0.138817 0.300057 9.68236 
9.66071 1.5991 0.503891 
1.5991 7.6936 -1.27415 
0.503891 -1.27415 -5.03308 
2.89781 -0.408355 -0.983333 
-0.408355 3.1446 -0.318121 
-0.983333 -0.318121 6.27882 
5.07803 0.395936 -1.25845 
0.395936 6.00798 -2.02203 
-1.25845 -2.02203 1.23523 
5.06802 0.614137 -4.84349 
0.614137 4.28695 -4.27285 
-4.84349 -4.27285 2.96625 
10.8399 0.150783 -0.430224 
0.150783 11.4005 0.0127966 
-0.430224 0.0127966 11.1446 
10.2834 -0.393369 0.594815 
-0.393369 10.168 0.130694 
0.594815 0.130694 12.9337 
11.5202 0.0125304 -0.484154 
0.0125304 11.749 -0.0314427 
-0.484154 -0.0314427 10.1158 
10.1468 -0.47141 -0.805931 
-0.47141 11.6346 -0.39175 
-0.805931 -0.39175 11.6036 
9.59844 0.0039502 -0.167837 
0.0039502 9.61883 -0.314101 
-0.167837 -0.314101 9.63503 
9.66949 0.00876814 -0.182048 
0.00876814 9.60515 -0.295787 
-0.182048 -0.295787 9.57765 
9.61436 -0.0123536 -0.177949 
-0.0123536 9.61521 -0.301448 
-0.177949 -0.301448 9.62273 
9.62383 -0.000656569 -0.178836 
-0.000656569 9.60431 -0.299969 
-0.178836 -0.299969 9.62415 
9.40845 0.0688684 -0.171328 
0.0688684 9.68151 -0.385304 
-0.171328 -0.385304 9.70621 
9.52608 0.0722524 -0.19907 
0.0722524 9.70294 -0.389855 
-0.19907 -0.389855 9.56714 
9.51196 0.110933 -0.102679 
0.110933 9.60044 -0.387434 
-0.102679 -0.387434 9.68376 
9.6348 0.00725981 -0.200918 
0.00725981 9.57596 -0.389671 
-0.200918 -0.389671 9.58541 
10.2204 -0.864257 1.29565 
-0.864257 13.2152 0.051468 
1.29565 0.051468 16.141 
10.4422 -1.99099 1.07173 
-1.99099 13.229 0.700506 
1.07173 0.700506 15.9054 
10.3889 -0.671428 0.15291 
-0.671428 12.4285 0.170338 
0.15291 0.170338 16.7591 
11.4263 -0.603317 0.643648 
-0.603317 13.5384 0.743548 
0.643648 0.743548 14.6119 
9.75396 0.225202 0.265774 
0.225202 9.89069 -0.283169 
0.265774 -0.283169 10.9288 
10.2861 0.699527 1.10019 
0.699527 9.52467 -0.246137 
1.10019 -0.246137 10.7627 
9.97038 0.535533 0.261364 
0.535533 9.89072 -0.673015 
0.261364 -0.673015 10.7123 
10.3295 0.220376 0.280829 
0.220376 9.91474 -0.931911 
0.280829 -0.931911 10.3292 
9.69336 0.0149463 0.074374 
0.0149463 9.62828 -0.473502 
0.074374 -0.473502 9.24364 
9.51466 0.105784 0.0492257 
0.105784 9.63881 -0.303914 
0.0492257 -0.303914 9.41181 
9.69376 -0.0924043 -0.0495664 
-0.0924043 9.58788 -0.341671 
-0.0495664 -0.341671 9.28364 
9.63837 -0.0775938 0.110504 
-0.0775938 9.6433 -0.453835 
0.110504 -0.453835 9.28362 
9.21277 -0.307051 -0.269588 
-0.307051 9.82801 -0.10843 
-0.269588 -0.10843 10.0426 
9.68578 0.0302221 -0.361551 
0.0302221 9.63166 -0.230433 
-0.361551 -0.230433 9.76589 
9.57236 -0.140977 -0.242238 
-0.140977 9.75209 -0.223148 
-0.242238 -0.223148 9.75889 
9.78161 -0.0513037 -0.1439 
-0.0513037 9.56346 -0.0673136 
-0.1439 -0.0673136 9.73827 
9.72504 0.0328016 0.15075 
0.0328016 9.68687 0.26703 
0.15075 0.26703 9.78412 
9.82028 -0.0711436 0.0608434 
-0.0711436 9.4945 -0.0915272 
0.0608434 -0.0915272 9.88124 
9.78277 -0.0691749 0.118508 
-0.0691749 9.50823 0.0232723 
0.118508 0.0232723 9.90501 
9.79205 -0.0288185 0.0834798 
-0.0288185 9.36804 0.0550022 
0.0834798 0.0550022 10.0359 
9.97548 -0.0422184 -0.0141071 
-0.0422184 9.87607 0.103493 
-0.0141071 0.103493 10.0042 
10.0636 -0.00540791 0.0179259 
-0.00540791 9.98324 0.0388894 
0.0179259 0.0388894 9.80886 
9.91883 -0.0170022 0.0342918 
-0.0170022 9.78118 0.0653907 
0.0342918 0.0653907 10.1557 
9.98244 0.0151813 0.0350579 
0.0151813 9.98181 0.164036 
0.0350579 0.164036 9.89147 
9.62147 -0.0392562 -0.0777279 
-0.0392562 9.58147 -0.307183 
-0.0777279 -0.307183 9.55364 
9.56693 -0.0142214 -0.126472 
-0.0142214 9.55777 -0.387882 
-0.126472 -0.387882 9.63188 
9.51504 -0.0666996 -0.0992758 
-0.0666996 9.49393 -0.306057 
-0.0992758 -0.306057 9.7476 
9.58719 -0.0362588 -0.0866292 
-0.0362588 9.53741 -0.358573 
-0.0866292 -0.358573 9.63199 
9.66356 0.0279895 0.163896 
0.0279895 9.71501 0.294906 
0.163896 0.294906 9.67532 
9.69261 -0.00788826 0.119588 
-0.00788826 9.69696 0.291173 
0.119588 0.291173 9.66431 
9.69377 0.0353598 0.154813 
0.0353598 9.68882 0.293505 
0.154813 0.293505 9.6713 
9.68726 0.0218088 0.138809 
0.0218088 9.70683 0.298992 
0.138809 0.298992 9.6598 
9.72046 -0.00723218 -0.254588 
-0.00723218 9.73958 0.178872 
-0.254588 0.178872 9.69905 
9.73107 -0.0285901 -0.229925 
-0.0285901 9.71308 0.191043 
-0.229925 0.191043 9.71495 
9.72098 -0.0199969 -0.270681 
-0.0199969 9.73393 0.192402 
-0.270681 0.192402 9.70418 
9.72254 -0.0114259 -0.272695 
-0.0114259 9.73476 0.202717 
-0.272695 0.202717 9.7018 
11.7466 0.851865 0.518704 
0.851865 11.0117 -0.648106 
0.518704 -0.648106 12.8666 
11.7333 0.125209 0.238769 
0.125209 11.1154 -0.202425 
0.238769 -0.202425 12.7763 
11.5881 0.369584 0.143521 
0.369584 12.5193 -0.08522 
0.143521 -0.08522 11.5175 
11.5153 0.495717 -0.206437 
0.495717 11.675 -0.949264 
-0.206437 -0.949264 12.4347 
9.53976 0.408646 0.794252 
0.408646 9.56055 0.219043 
0.794252 0.219043 9.54714 
7.48317 -0.401832 0.930375 
-0.401832 9.8276 -0.152825 
0.930375 -0.152825 11.3367 
8.5308 -0.328158 1.58401 
-0.328158 9.96677 0.279675 
1.58401 0.279675 10.1499 
8.17011 -0.508587 1.06568 
-0.508587 9.72145 0.160772 
1.06568 0.160772 10.7559 
10.9966 0.0526158 0.0331069 
0.0526158 11.0968 -0.051316 
0.0331069 -0.051316 11.7132 
11.286 -0.129708 0.0411542 
-0.129708 10.727 -0.34751 
0.0411542 -0.34751 11.7936 
11.2361 -0.24212 0.133445 
-0.24212 11.2033 -0.126534 
0.133445 -0.126534 11.3671 
11.2463 -0.275846 0.408865 
-0.275846 11.0441 -0.163578 
0.408865 -0.163578 11.5162 
10.1237 0.0704932 -0.0137856 
0.0704932 10.2222 -0.0397628 
-0.0137856 -0.0397628 10.1999 
10.173 0.0428766 0.00144948 
0.0428766 10.1771 -0.0608124 
0.00144948 -0.0608124 10.1957 
10.1649 0.0878297 0.000730385 
0.0878297 10.2133 -0.0649461 
0.000730385 -0.0649461 10.1675 
10.0779 0.00344183 0.071803 
0.00344183 10.2496 -0.0362794 
0.071803 -0.0362794 10.2183 
9.51694 -0.0250683 -0.134336 
-0.0250683 10.6958 -0.210845 
-0.134336 -0.210845 10.3204 
9.97445 -0.0197 -0.0464927 
-0.0197 10.1062 0.119669 
-0.0464927 0.119669 10.4524 
10.1002 -0.155986 0.0361881 
-0.155986 9.60826 -0.318423 
0.0361881 -0.318423 10.8246 
9.72477 -0.11219 -0.0496558 
-0.11219 10.2547 -0.0185029 
-0.0496558 -0.0185029 10.5536 
9.68613 0.0340351 -0.19571 
0.0340351 9.56398 -0.0981904 
-0.19571 -0.0981904 9.7529 
9.22182 -0.234448 -0.0940801 
-0.234448 9.75419 -0.0798337 
-0.0940801 -0.0798337 10.027 
9.77012 -0.0292741 -0.206066 
-0.0292741 9.56361 -0.0265274 
-0.206066 -0.0265274 9.66929 
9.5974 0.0113415 -0.39295 
0.0113415 9.54406 -0.188634 
-0.39295 -0.188634 9.86156 
14.716 0.68166 2.8843 
0.68166 9.84539 3.87485 
2.8843 3.87485 -6.3581 
13.4735 2.37795 4.40291 
2.37795 12.0617 0.618013 
4.40291 0.618013 -7.33189 
0.299392 0.631651 -4.46661 
0.631651 -0.717619 -1.00016 
-4.46661 -1.00016 18.6215 
-3.22175 -5.83606 14.0938 
-5.83606 8.33273 7.6521 
14.0938 7.6521 13.0923 
9.7912 0.054046 -0.282456 
0.054046 9.75381 -0.139244 
-0.282456 -0.139244 9.73461 
9.76572 -0.0034893 -0.263118 
-0.0034893 9.74427 -0.160298 
-0.263118 -0.160298 9.76963 
9.74403 -0.0513236 -0.252608 
-0.0513236 9.77521 -0.151617 
-0.252608 -0.151617 9.76037 
9.77063 -0.00265571 -0.289816 
-0.00265571 9.74655 -0.165783 
-0.289816 -0.165783 9.76243 
9.70406 -0.382846 0.215583 
-0.382846 9.35754 0.221558 
0.215583 0.221558 10.061 
9.72122 0.00164542 0.302868 
0.00164542 9.66245 0.35999 
0.302868 0.35999 9.73891 
9.57024 0.00456355 0.0247369 
0.00456355 9.82659 0.14769 
0.0247369 0.14769 9.72576 
9.70764 -0.168488 0.295884 
-0.168488 9.62658 0.182119 
0.295884 0.182119 9.78836 
9.00239 -0.0792821 0.399814 
-0.0792821 9.86155 1.03215 
0.399814 1.03215 9.35492 
10.1517 -0.391871 -0.19739 
-0.391871 9.47027 1.14557 
-0.19739 1.14557 8.59694 
9.49461 -0.14896 0.322279 
-0.14896 9.24283 0.724078 
0.322279 0.724078 9.48142 
9.78009 0.422666 -0.106375 
0.422666 9.34088 1.03888 
-0.106375 1.03888 9.09789 
9.31402 -0.0999374 0.257272 
-0.0999374 9.5638 -0.108211 
0.257272 -0.108211 10.3579 
9.60631 -0.0995803 0.164935 
-0.0995803 9.79639 0.191305 
0.164935 0.191305 9.83297 
9.62772 -0.116586 -3.25682e-05 
-0.116586 9.82506 0.0296618 
-3.25682e-05 0.0296618 9.7829 
9.69268 -0.0654471 0.0440573 
-0.0654471 9.62464 0.0374836 
0.0440573 0.0374836 9.91835 
9.61957 0.0602292 0.1157 
0.0602292 9.45159 -0.226693 
0.1157 -0.226693 9.82427 
9.66872 0.134019 0.119377 
0.134019 9.47953 -0.203749 
0.119377 -0.203749 9.74717 
9.30303 0.266814 -0.171707 
0.266814 9.44726 -0.441499 
-0.171707 -0.441499 10.1451 
9.60963 0.164518 0.35644 
0.164518 9.73869 -0.379369 
0.35644 -0.379369 9.54711 
9.76635 -0.0638084 0.231527 
-0.0638084 9.78139 0.0288726 
0.231527 0.0288726 9.94093 
9.8203 0.00986095 0.332174 
0.00986095 9.73411 0.0842794 
0.332174 0.0842794 9.93427 
9.75067 0.00747976 0.296605 
0.00747976 9.87229 0.00661185 
0.296605 0.00661185 9.86572 
9.90477 -0.0829021 0.229091 
-0.0829021 9.92239 -0.0257801 
0.229091 -0.0257801 9.66151 
9.60398 0.0259507 0.213716 
0.0259507 9.36244 -0.248144 
0.213716 -0.248144 9.6975 
9.78197 0.0870598 -0.0593815 
0.0870598 9.34073 -0.582269 
-0.0593815 -0.582269 9.54122 
9.66046 -0.0536245 -0.184411 
-0.0536245 9.54787 -0.182487 
-0.184411 -0.182487 9.45558 
9.47259 0.0989712 0.199997 
0.0989712 9.49883 -0.490315 
0.199997 -0.490315 9.69249 
9.68395 -0.0614556 -0.284592 
-0.0614556 9.73284 -0.0947031 
-0.284592 -0.0947031 9.87796 
9.78461 0.0141935 -0.26533 
0.0141935 9.78558 -0.0876391 
-0.26533 -0.0876391 9.72456 
9.70248 -0.0416924 -0.225923 
-0.0416924 9.79793 -0.0625884 
-0.225923 -0.0625884 9.79434 
9.70874 -0.0328408 -0.254892 
-0.0328408 9.82585 -0.0454774 
-0.254892 -0.0454774 9.76015 
12.8217 0.11261 -0.677973 
0.11261 3.40258 5.10174 
-0.677973 5.10174 2.89384 
10.1768 -0.942888 3.00348 
-0.942888 3.87942 -0.0571457 
3.00348 -0.0571457 5.06187 
5.74687 0.662976 1.18849 
0.662976 8.47571 2.57194 
1.18849 2.57194 4.89552 
8.07897 0.160389 1.16525 
0.160389 6.59497 2.39239 
1.16525 2.39239 4.44416 
9.72229 -0.0267806 0.184666 
-0.0267806 9.8084 0.0346462 
0.184666 0.0346462 10.0319 
9.71835 -0.00911328 0.211829 
-0.00911328 9.88379 0.0291908 
0.211829 0.0291908 9.96048 
9.65577 -0.0481006 0.392846 
-0.0481006 9.97438 0.0397322 
0.392846 0.0397322 9.93247 
10.045 -0.00154763 0.145771 
-0.00154763 9.74116 -0.00182031 
0.145771 -0.00182031 9.77645 
9.90998 0.0251523 -0.00949707 
0.0251523 9.94718 0.00384584 
-0.00949707 0.00384584 9.93847 
9.86424 0.115706 0.0050513 
0.115706 9.90466 -0.00797545 
0.0050513 -0.00797545 10.0267 
9.91442 -0.063954 -0.0796282 
-0.063954 9.8878 -0.0209706 
-0.0796282 -0.0209706 9.99341 
9.9085 -0.173966 0.0964968 
-0.173966 9.98585 -0.0131721 
0.0964968 -0.0131721 9.90129 
9.61443 -0.0465718 0.0478485 
-0.0465718 9.71327 0.0452347 
0.0478485 0.0452347 9.88956 
9.76778 -0.161724 0.0298125 
-0.161724 9.69232 0.0125091 
0.0298125 0.0125091 9.75716 
9.50132 -0.149139 -0.0650947 
-0.149139 9.35115 0.298362 
-0.0650947 0.298362 10.3648 
9.73031 -0.139213 0.216316 
-0.139213 9.66469 0.140062 
0.216316 0.140062 9.82226 
10.0483 0.497659 0.00296993 
0.497659 9.76468 -0.131111 
0.00296993 -0.131111 11.658 
9.96419 -0.111147 -0.0192738 
-0.111147 10.1244 -0.10736 
-0.0192738 -0.10736 11.3823 
10.089 0.108385 -0.0951302 
0.108385 9.99468 -0.0396722 
-0.0951302 -0.0396722 11.3873 
10.1163 0.0880974 -0.0627463 
0.0880974 10.1494 -0.0361954 
-0.0627463 -0.0361954 11.2053 
9.80319 -0.00297693 0.01779 
-0.00297693 9.70937 -0.174047 
0.01779 -0.174047 9.988 
9.92438 0.00987082 0.0720603 
0.00987082 9.62469 -0.319318 
0.0720603 -0.319318 9.95148 
9.91321 0.0501257 0.0282818 
0.0501257 9.64521 -0.148813 
0.0282818 -0.148813 9.94214 
9.71256 -0.025136 0.0999002 
-0.025136 10.0144 -0.190004 
0.0999002 -0.190004 9.77357 
9.34383 0.395644 0.224445 
0.395644 9.72399 -0.203351 
0.224445 -0.203351 10.0334 
9.82361 -0.00112721 0.132101 
-0.00112721 9.57343 -0.0480944 
0.132101 -0.0480944 9.70412 
9.6372 0.144479 0.202892 
0.144479 9.67975 -0.270683 
0.202892 -0.270683 9.78422 
9.65943 0.0283653 0.355719 
0.0283653 9.72538 -0.304106 
0.355719 -0.304106 9.71636 
7.93601 0.924212 0.422168 
0.924212 8.31589 1.23524 
0.422168 1.23524 0.814556 
8.05752 0.405659 -0.0373182 
0.405659 6.54694 2.23866 
-0.0373182 2.23866 2.46199 
9.60676 0.909928 -0.417547 
0.909928 4.85887 2.1158 
-0.417547 2.1158 2.60082 
5.95677 -0.484854 -1.94788 
-0.484854 8.23631 3.57956 
-1.94788 3.57956 2.87336 
9.82477 0.0116355 -0.169022 
0.0116355 9.74659 0.00996652 
-0.169022 0.00996652 9.83609 
9.80308 0.00212404 -0.124525 
0.00212404 9.77741 -0.0145996 
-0.124525 -0.0145996 9.82697 
9.85361 -0.0142443 -0.124647 
-0.0142443 9.7814 0.000600878 
-0.124647 0.000600878 9.77245 
9.83408 0.00111131 -0.134682 
0.00111131 9.78843 -0.0265127 
-0.134682 -0.0265127 9.78494 
9.55023 -0.0527627 0.321804 
-0.0527627 9.50247 0.077398 
0.321804 0.077398 9.57045 
9.48933 -0.0489621 0.349541 
-0.0489621 9.51145 0.0767198 
0.349541 0.0767198 9.62236 
9.49177 -0.0370391 0.361776 
-0.0370391 9.52348 0.105603 
0.361776 0.105603 9.60789 
9.50034 -0.0635188 0.378875 
-0.0635188 9.54037 0.0923568 
0.378875 0.0923568 9.58243 
9.88186 0.00368021 0.0107185 
0.00368021 9.87499 -0.00552856 
0.0107185 -0.00552856 9.97126 
9.87127 0.00232766 0.0281339 
0.00232766 9.8917 -0.00760064 
0.0281339 -0.00760064 9.96514 
9.88216 -0.00145459 0.0265784 
-0.00145459 9.86921 -0.0143319 
0.0265784 -0.0143319 9.97673 
9.87328 0.000971544 0.0232476 
0.000971544 9.876 0.00977287 
0.0232476 0.00977287 9.97883 
11.1062 -0.299666 -0.209288 
-0.299666 7.90538 -1.54797 
-0.209288 -1.54797 11.4782 
9.529 -1.26941 0.958673 
-1.26941 10.3785 -1.79369 
0.958673 -1.79369 10.5822 
10.032 -1.13317 0.593551 
-1.13317 8.97105 -2.77621 
0.593551 -2.77621 11.4867 
10.4479 -0.222703 -0.520733 
-0.222703 8.78366 -1.768 
-0.520733 -1.768 11.2582 
10.3075 -0.055923 0.101285 
-0.055923 10.1468 0.0114608 
0.101285 0.0114608 9.8843 
10.1202 0.028799 0.0123179 
0.028799 10.1733 -0.0289204 
0.0123179 -0.0289204 10.045 
9.90143 -0.00140471 -0.111552 
-0.00140471 10.0645 0.0570236 
-0.111552 0.0570236 10.3727 
10.1294 0.231346 0.0131167 
0.231346 10.117 0.0676494 
0.0131167 0.0676494 10.0921 
9.68856 -0.00714441 0.243358 
-0.00714441 9.62851 -0.1536 
0.243358 -0.1536 9.65458 
9.6849 0.102243 0.235611 
0.102243 9.46569 -0.199701 
0.235611 -0.199701 9.82105 
9.53441 0.0678424 -0.00951812 
0.0678424 9.50292 -0.244507 
-0.00951812 -0.244507 9.9343 
9.50833 -0.0228947 0.0789237 
-0.0228947 9.55465 -0.357735 
0.0789237 -0.357735 9.90866 
9.81823 -0.229218 0.0814574 
-0.229218 9.86683 0.00750515 
0.0814574 0.00750515 10.1259 
9.94449 -0.0862585 0.174064 
-0.0862585 9.90563 0.17058 
0.174064 0.17058 9.9608 
10.0058 0.161539 0.0723377 
0.161539 9.94284 0.0351527 
0.0723377 0.0351527 9.86229 
9.8866 -0.0700022 0.157095 
-0.0700022 9.94356 0.126151 
0.157095 0.126151 9.98075 
10.0287 0.00936686 0.0203765 
0.00936686 9.96191 -0.0406191 
0.0203765 -0.0406191 9.86468 
9.94254 0.0170156 0.0128373 
0.0170156 9.98511 -0.052652 
0.0128373 -0.052652 9.92767 
9.89493 -0.00652658 -0.0456253 
-0.00652658 9.82646 -0.0470928 
-0.0456253 -0.0470928 10.1339 
10.0086 0.0104961 0.0489262 
0.0104961 9.94401 -0.104258 
0.0489262 -0.104258 9.90267 
9.4383 0.158594 -0.00107704 
0.158594 9.41078 0.285622 
-0.00107704 0.285622 10.3732 
9.69435 0.135706 -0.256382 
0.135706 9.70515 0.0776444 
-0.256382 0.0776444 9.82275 
9.71433 0.151377 -0.0291554 
0.151377 9.73999 -0.0146628 
-0.0291554 -0.0146628 9.76793 
9.58814 0.0310504 -0.0723583 
0.0310504 9.72105 0.0309664 
-0.0723583 0.0309664 9.91305 
3.58409 -0.00484914 0.274807 
-0.00484914 5.4788 -0.885266 
0.274807 -0.885266 -0.93296 
3.13843 1.29763 0.505096 
1.29763 5.70778 0.18198 
0.505096 0.18198 -0.716275 
2.75416 0.668693 0.316437 
0.668693 4.02721 1.09338 
0.316437 1.09338 1.34857 
2.37514 0.935273 0.513038 
0.935273 5.1836 1.34452 
0.513038 1.34452 0.571199 
12.9499 -0.406975 -0.155275 
-0.406975 8.93857 -0.0531324 
-0.155275 -0.0531324 10.8896 
9.28984 0.15025 0.0818947 
0.15025 10.1054 0.119402 
0.0818947 0.119402 13.3829 
10.9571 1.06015 0.188768 
1.06015 10.4818 -0.416821 
0.188768 -0.416821 11.3392 
11.1994 0.929172 1.46077 
0.929172 10.4813 -0.960543 
1.46077 -0.960543 11.0974 
9.59856 -5.13748e-05 -0.298694 
-5.13748e-05 9.62618 0.156488 
-0.298694 0.156488 9.6868 
9.62889 -0.0050525 -0.298162 
-0.0050525 9.64952 0.132876 
-0.298162 0.132876 9.63314 
9.64502 -0.0111623 -0.300129 
-0.0111623 9.65901 0.155561 
-0.300129 0.155561 9.60752 
9.6232 -0.01232 -0.283714 
-0.01232 9.65447 0.125205 
-0.283714 0.125205 9.63387 
9.83707 -0.00223958 0.0183154 
-0.00223958 9.83779 0.0067922 
0.0183154 0.0067922 9.96954 
9.83533 0.000784365 0.0131873 
0.000784365 9.83627 0.0138635 
0.0131873 0.0138635 9.97279 
9.84566 0.00426888 0.0265799 
0.00426888 9.84517 0.000997514 
0.0265799 0.000997514 9.95357 
9.83318 -0.00171509 0.0138564 
-0.00171509 9.84704 0.00783588 
0.0138564 0.00783588 9.96417 
9.64395 -0.016322 -0.140645 
-0.016322 9.61535 -0.405481 
-0.140645 -0.405481 9.44578 
9.55099 -0.00981901 -0.0544885 
-0.00981901 9.59365 -0.373303 
-0.0544885 -0.373303 9.56044 
9.57186 0.00804095 -0.153375 
0.00804095 9.6031 -0.323825 
-0.153375 -0.323825 9.53012 
9.57043 -0.00885494 -0.14613 
-0.00885494 9.59684 -0.353459 
-0.14613 -0.353459 9.53781 
9.86407 -0.0888978 -0.0292163 
-0.0888978 9.26738 -0.098742 
-0.0292163 -0.098742 9.85682 
9.57663 0.112405 0.0562403 
0.112405 9.6797 0.327126 
0.0562403 0.327126 9.73194 
9.88724 0.112924 -0.249387 
0.112924 9.30036 0.230004 
-0.249387 0.230004 9.80066 
9.51284 -0.0674101 0.2927 
-0.0674101 8.91899 0.364974 
0.2927 0.364974 10.5564 
10.373 0.428833 0.144608 
0.428833 11.6107 -0.111232 
0.144608 -0.111232 11.1617 
10.866 0.581189 0.186939 
0.581189 10.4563 -0.326674 
0.186939 -0.326674 11.823 
10.1756 -0.0352264 0.0154455 
-0.0352264 10.1547 0.13204 
0.0154455 0.13204 12.815 
10.9862 0.434687 0.224922 
0.434687 10.7366 -0.87704 
0.224922 -0.87704 11.4226 
9.92206 -0.439148 0.869189 
-0.439148 5.95251 -2.495 
0.869189 -2.495 3.58372 
8.801 0.234233 0.359732 
0.234233 8.41114 -2.22803 
0.359732 -2.22803 2.24615 
8.7189 0.132984 0.332424 
0.132984 7.57564 -3.24387 
0.332424 -3.24387 3.16374 
6.74461 0.345829 1.8815 
0.345829 8.78859 -3.09939 
1.8815 -3.09939 3.92509 
10.9311 -0.0181449 -0.0671417 
-0.0181449 11.0823 -0.0299418 
-0.0671417 -0.0299418 10.4806 
10.4441 -0.0343457 -0.232995 
-0.0343457 10.0952 0.0771281 
-0.232995 0.0771281 11.9547 
10.3489 -0.734054 -0.0866481 
-0.734054 11.0023 -0.0668015 
-0.0866481 -0.0668015 11.1428 
10.7395 0.107226 0.536752 
0.107226 10.7699 -0.287109 
0.536752 -0.287109 10.9846 
9.29443 0.152725 0.296278 
0.152725 9.49108 0.0523839 
0.296278 0.0523839 10.388 
9.70859 0.0384601 0.0383613 
0.0384601 9.54515 -0.0445684 
0.0383613 -0.0445684 9.91974 
9.67642 0.181379 -0.0160112 
0.181379 9.74856 -0.0405255 
-0.0160112 -0.0405255 9.74851 
9.62719 0.141097 0.125894 
0.141097 9.71365 -0.234671 
0.125894 -0.234671 9.83264 
9.86634 -0.0276202 0.123499 
-0.0276202 9.89012 0.101067 
0.123499 0.101067 9.99028 
9.95487 -0.00189052 0.120591 
-0.00189052 9.95449 0.146185 
0.120591 0.146185 9.83738 
9.87617 -0.0217393 0.0622188 
-0.0217393 9.93848 0.0990365 
0.0622188 0.0990365 9.93209 
9.93731 -0.0207784 0.119596 
-0.0207784 9.93423 0.0728087 
0.119596 0.0728087 9.8752 
9.84231 0.0119513 -0.151976 
0.0119513 9.83684 -0.174957 
-0.151976 -0.174957 9.79557 
9.837 0.0205622 -0.156078 
0.0205622 9.84133 -0.172018 
-0.156078 -0.172018 9.79638 
9.82591 0.0119697 -0.165547 
0.0119697 9.8226 -0.170321 
-0.165547 -0.170321 9.82621 
9.82685 -0.00703194 -0.165614 
-0.00703194 9.85262 -0.163145 
-0.165614 -0.163145 9.79525 
9.69603 -0.00404439 -0.294117 
-0.00404439 9.71854 0.0996151 
-0.294117 0.0996151 9.67627 
9.70586 -0.0205785 -0.307015 
-0.0205785 9.71115 0.114619 
-0.307015 0.114619 9.67382 
9.70415 -0.0201148 -0.288314 
-0.0201148 9.70796 0.131983 
-0.288314 0.131983 9.67872 
9.70311 -0.00537609 -0.289834 
-0.00537609 9.69887 0.146714 
-0.289834 0.146714 9.68885 
9.60458 0.202152 -0.0806801 
0.202152 9.33246 0.20115 
-0.0806801 0.20115 9.95325 
9.50394 -0.095738 -0.072542 
-0.095738 9.6607 0.143973 
-0.072542 0.143973 9.72565 
9.6198 -0.0182173 -0.113664 
-0.0182173 9.53115 0.185911 
-0.113664 0.185911 9.73934 
9.57194 -0.0452902 -0.140963 
-0.0452902 9.52827 0.291688 
-0.140963 0.291688 9.79009 
9.66042 -0.0217322 0.0973874 
-0.0217322 9.69237 0.07468 
0.0973874 0.07468 9.7671 
9.48492 -0.0775624 0.190149 
-0.0775624 9.66505 0.0344217 
0.190149 0.0344217 9.96993 
9.74515 0.125117 0.100861 
0.125117 9.56674 0.0837974 
0.100861 0.0837974 9.808 
9.64517 -0.0377199 0.0336844 
-0.0377199 9.55755 0.0362967 
0.0336844 0.0362967 9.91717 
10.2327 0.00798397 -0.0639914 
0.00798397 10.1354 0.0482008 
-0.0639914 0.0482008 10.5411 
10.2255 -0.0626547 0.11244 
-0.0626547 9.97957 -0.0901782 
0.11244 -0.0901782 10.7041 
10.296 -0.0427925 -0.0719768 
-0.0427925 10.4466 0.0355873 
-0.0719768 0.0355873 10.1666 
10.3883 0.138148 0.0444142 
0.138148 10.1951 0.259455 
0.0444142 0.259455 10.3259 
9.75289 -0.000362171 -0.0278448 
-0.000362171 9.78281 0.320318 
-0.0278448 0.320318 9.75632 
9.77313 0.0015104 -0.0129682 
0.0015104 9.78177 0.328799 
-0.0129682 0.328799 9.73713 
9.76335 -0.00217504 -0.0122769 
-0.00217504 9.73071 0.31911 
-0.0122769 0.31911 9.79797 
9.75503 0.00689536 -0.0253888 
0.00689536 9.77968 0.311022 
-0.0253888 0.311022 9.75731 
9.57307 -0.109022 -0.105635 
-0.109022 10.0477 -0.0336538 
-0.105635 -0.0336538 10.1329 
9.83895 -0.0695953 -0.239895 
-0.0695953 9.99037 -0.0912948 
-0.239895 -0.0912948 9.92436 
10.1075 0.0240285 -0.0900904 
0.0240285 9.79153 -0.0483561 
-0.0900904 -0.0483561 9.85462 
9.87849 0.0120323 -0.239293 
0.0120323 9.88795 -0.0861413 
-0.239293 -0.0861413 9.98724 
9.60826 0.0459349 0.103298 
0.0459349 9.68884 0.300779 
0.103298 0.300779 9.585 
9.61462 -0.0113284 0.0996163 
-0.0113284 9.62441 0.325476 
0.0996163 0.325476 9.64307 
9.64264 -0.0609975 0.0937681 
-0.0609975 9.5344 0.310863 
0.0937681 0.310863 9.70506 
9.5896 -0.015932 0.147743 
-0.015932 9.63664 0.389775 
0.147743 0.389775 9.65586 
9.61666 -0.00793278 0.348359 
-0.00793278 9.62064 0.018316 
0.348359 0.018316 9.61188 
9.68404 -0.0234813 0.368917 
-0.0234813 9.63271 0.0242961 
0.368917 0.0242961 9.53242 
9.54986 0.00315774 0.350542 
0.00315774 9.60116 0.0180274 
0.350542 0.0180274 9.69815 
9.62975 -0.00601104 0.32417 
-0.00601104 9.61595 0.0695405 
0.32417 0.0695405 9.60349 
8.00096 -0.242649 -0.371864 
-0.242649 7.52276 2.47807 
-0.371864 2.47807 8.70853 
8.86765 -0.327625 -0.685909 
-0.327625 8.67945 2.04934 
-0.685909 2.04934 6.68514 
9.2404 -0.157589 -1.5362 
-0.157589 8.84446 3.13256 
-1.5362 3.13256 6.14739 
9.84756 0.0667437 -0.145129 
0.0667437 9.11048 1.08933 
-0.145129 1.08933 5.2742 
9.7103 0.0238073 -0.0515638 
0.0238073 9.68495 -0.012264 
-0.0515638 -0.012264 9.69238 
9.82173 -0.0323103 -0.0495865 
-0.0323103 9.64517 0.00134603 
-0.0495865 0.00134603 9.62074 
9.73469 -0.0019239 -0.0781167 
-0.0019239 9.66691 -0.00651341 
-0.0781167 -0.00651341 9.68603 
9.73299 0.0069507 -0.121585 
0.0069507 9.6352 -0.014749 
-0.121585 -0.014749 9.71943 
10.4978 -1.15978 1.28659 
-1.15978 10.8531 -1.8935 
1.28659 -1.8935 -6.06284 
2.90117 -1.67481 -1.44222 
-1.67481 0.42253 -0.296739 
-1.44222 -0.296739 11.9643 
6.97873 -0.744149 3.86108 
-0.744149 11.5326 -0.964543 
3.86108 -0.964543 -3.2233 
6.47318 3.35921 4.51522 
3.35921 5.44296 -8.41519 
4.51522 -8.41519 3.37191 
11.9383 -0.121215 -0.223915 
-0.121215 11.5974 -0.116923 
-0.223915 -0.116923 11.7722 
11.7162 -0.571551 -0.479913 
-0.571551 10.88 -0.419837 
-0.479913 -0.419837 12.7116 
10.6173 -0.448025 -0.0920702 
-0.448025 12.4973 0.0734101 
-0.0920702 0.0734101 12.1932 
11.6438 -0.329811 -0.0629399 
-0.329811 11.6368 0.106041 
-0.0629399 0.106041 12.0272 
9.73441 0.00805137 -0.172222 
0.00805137 9.85047 0.0209339 
-0.172222 0.0209339 9.97742 
9.69759 0.0410122 -0.157362 
0.0410122 9.90856 0.0373749 
-0.157362 0.0373749 9.95616 
9.6682 0.016827 -0.322337 
0.016827 9.95659 0.0610997 
-0.322337 0.0610997 9.93752 
10.0469 -0.0155027 -0.147821 
-0.0155027 9.73947 0.0753096 
-0.147821 0.0753096 9.77591 
11.3356 -0.660279 -0.0918841 
-0.660279 12.6825 -0.492151 
-0.0918841 -0.492151 13.4643 
11.7241 -1.08749 0.872613 
-1.08749 9.755 -1.09292 
0.872613 -1.09292 16.0032 
10.9255 -1.16215 -0.459199 
-1.16215 11.6144 -1.03695 
-0.459199 -1.03695 14.9424 
11.9325 -1.3672 0.0386872 
-1.3672 13.0346 -0.644492 
0.0386872 -0.644492 12.5152 
9.57977 -0.0238413 0.277521 
-0.0238413 9.56884 0.245147 
0.277521 0.245147 9.5505 
9.54448 0.0185861 0.256365 
0.0185861 9.58508 0.244311 
0.256365 0.244311 9.56955 
9.58905 -0.0389199 0.275057 
-0.0389199 9.57743 0.24997 
0.275057 0.24997 9.53262 
9.5776 -0.0308871 0.2808 
-0.0308871 9.56591 0.24099 
0.2808 0.24099 9.5556 
11.375 -0.761706 -0.895382 
-0.761706 13.3994 0.358103 
-0.895382 0.358103 8.54156 
8.81731 0.213496 -0.557178 
0.213496 10.9888 -0.460765 
-0.557178 -0.460765 13.5098 
10.449 0.224971 -0.0152661 
0.224971 9.47215 -0.867978 
-0.0152661 -0.867978 13.3948 
9.42409 0.771095 -0.941066 
0.771095 10.6732 1.67802 
-0.941066 1.67802 13.2187 
9.5179 -0.0215244 -0.312234 
-0.0215244 9.56526 -0.180305 
-0.312234 -0.180305 9.61469 
9.55469 0.0339064 -0.332905 
0.0339064 9.61814 -0.191486 
-0.332905 -0.191486 9.52502 
9.51256 -0.0403094 -0.302066 
-0.0403094 9.59132 -0.186528 
-0.302066 -0.186528 9.59397 
9.55735 -0.0127919 -0.308502 
-0.0127919 9.58111 -0.140274 
-0.308502 -0.140274 9.55939 
9.90321 -0.0074314 0.0286542 
-0.0074314 9.90244 0.0172891 
0.0286542 0.0172891 9.94993 
9.90619 -0.00715363 0.00660265 
-0.00715363 9.88155 -0.0105993 
0.00660265 -0.0105993 9.96785 
9.89064 0.00526844 0.0527138 
0.00526844 9.88797 0.00631449 
0.0527138 0.00631449 9.97697 
9.906 0.0018527 0.0146081 
0.0018527 9.88013 -0.0259271 
0.0146081 -0.0259271 9.96945 
9.90041 0.0104041 -0.0174632 
0.0104041 9.88627 0.0281278 
-0.0174632 0.0281278 9.95175 
9.88702 0.0229108 -0.0204105 
0.0229108 9.86989 -0.000997688 
-0.0204105 -0.000997688 9.98152 
9.79343 -0.078678 0.0496063 
-0.078678 9.95187 -0.0280854 
0.0496063 -0.0280854 9.99313 
9.84499 0.00810309 -0.0446136 
0.00810309 9.94886 -0.0148328 
-0.0446136 -0.0148328 9.94457 
10.102 0.0412991 -0.0473974 
0.0412991 10.0116 -0.0294147 
-0.0473974 -0.0294147 10.0217 
10.0654 -0.0471881 -0.0163622 
-0.0471881 10.1007 -0.0411668 
-0.0163622 -0.0411668 9.96934 
10.1208 0.0357135 -0.0311467 
0.0357135 10.0694 -0.0536695 
-0.0311467 -0.0536695 9.94526 
10.0609 -0.00881864 -0.00739894 
-0.00881864 10.091 -0.0705995 
-0.00739894 -0.0705995 9.98347 
9.51984 0.0575121 -0.102588 
0.0575121 9.30857 -0.459591 
-0.102588 -0.459591 9.6407 
9.47179 0.112745 -0.022012 
0.112745 9.283 -0.44586 
-0.022012 -0.44586 9.71432 
9.50022 -0.0470826 -0.110976 
-0.0470826 9.28779 -0.453619 
-0.110976 -0.453619 9.6811 
9.66931 -0.0580335 0.0144869 
-0.0580335 9.18044 -0.494681 
0.0144869 -0.494681 9.61937 
9.3513 0.128823 -0.274394 
0.128823 9.53834 -0.0464595 
-0.274394 -0.0464595 10.364 
9.72047 0.0378634 -0.0371507 
0.0378634 9.60721 0.0534228 
-0.0371507 0.0534228 9.92598 
9.69085 0.143692 0.0100746 
0.143692 9.78035 0.0351152 
0.0100746 0.0351152 9.78247 
9.66116 0.118799 -0.117337 
0.118799 9.75779 0.226866 
-0.117337 0.226866 9.83472 
9.58832 -0.0515468 0.15213 
-0.0515468 9.67754 -0.243125 
0.15213 -0.243125 9.65805 
9.71782 0.0623437 0.137164 
0.0623437 9.51616 -0.257179 
0.137164 -0.257179 9.68992 
9.62046 -0.00974763 0.130092 
-0.00974763 9.61816 -0.278728 
0.130092 -0.278728 9.68528 
9.64433 -0.0232538 0.159434 
-0.0232538 9.608 -0.31125 
0.159434 -0.31125 9.67157 
11.0019 0.285307 0.253104 
0.285307 9.24276 -0.914731 
0.253104 -0.914731 14.3223 
11.7782 -0.175124 -0.170449 
-0.175124 10.5538 -0.342826 
-0.170449 -0.342826 12.235 
12.0883 -0.041632 -0.178221 
-0.041632 10.5748 -0.421657 
-0.178221 -0.421657 11.9039 
12.0378 0.0514156 0.226879 
0.0514156 10.4297 -0.539634 
0.226879 -0.539634 12.0996 
9.74707 0.0148345 -0.0589913 
0.0148345 9.78875 0.285434 
-0.0589913 0.285434 9.89509 
9.83101 0.00430446 -0.0230003 
0.00430446 9.72621 0.305964 
-0.0230003 0.305964 9.8737 
9.7522 0.0356648 -0.0419035 
0.0356648 9.77279 0.228667 
-0.0419035 0.228667 9.90593 
9.86023 0.0741612 -0.011065 
0.0741612 9.87736 0.258719 
-0.011065 0.258719 9.69332 
10.119 0.0167309 0.0202895 
0.0167309 10.1321 0.0107273 
0.0202895 0.0107273 9.97255 
10.1189 0.0125238 -0.00520177 
0.0125238 10.1112 -0.0145617 
-0.00520177 -0.0145617 9.99349 
10.1333 0.00563337 -0.00652523 
0.00563337 10.1217 0.019422 
-0.00652523 0.019422 9.96856 
10.151 0.00390456 0.0110636 
0.00390456 10.1497 0.00765494 
0.0110636 0.00765494 9.92299 
9.8792 -0.00263624 -0.0997099 
-0.00263624 9.81118 0.0801229 
-0.0997099 0.0801229 9.83702 
9.83796 -0.0401407 -0.0709141 
-0.0401407 9.85499 0.11429 
-0.0709141 0.11429 9.83446 
9.84906 0.0187229 -0.073313 
0.0187229 9.82791 0.0711653 
-0.073313 0.0711653 9.85044 
9.81078 -0.0207366 -0.0856637 
-0.0207366 9.84672 0.123487 
-0.0856637 0.123487 9.86991 
11.6161 -0.071316 -0.16556 
-0.071316 11.5275 -0.0866557 
-0.16556 -0.0866557 9.80109 
10.1247 -0.165632 -0.292646 
-0.165632 10.389 0.337384 
-0.292646 0.337384 12.4309 
10.4199 -0.0611902 0.121344 
-0.0611902 10.5248 -0.0921843 
0.121344 -0.0921843 12 
10.8624 0.298764 0.964308 
0.298764 11.0551 0.672316 
0.964308 0.672316 11.0271 
0.609568 2.48939 -3.02928 
2.48939 11.1839 2.31583 
-3.02928 2.31583 24.779 
7.86922 2.17793 0.141681 
2.17793 12.2514 0.0738009 
0.141681 0.0738009 16.4518 
3.42454 4.82402 -3.42105 
4.82402 9.82658 0.360699 
-3.42105 0.360699 23.3213 
10.4448 0.140666 -2.66425 
0.140666 11.2204 0.163632 
-2.66425 0.163632 14.9071 
9.82221 0.300647 -0.227307 
0.300647 9.54117 -0.249398 
-0.227307 -0.249398 10.2284 
9.97072 -0.0481975 0.343263 
-0.0481975 9.56264 0.106466 
0.343263 0.106466 10.0585 
9.36486 0.283782 -0.17216 
0.283782 10.3368 -0.045616 
-0.17216 -0.045616 9.8902 
9.34153 0.264529 0.145528 
0.264529 9.98531 0.0146714 
0.145528 0.0146714 10.265 
9.63952 0.0565526 -0.0214322 
0.0565526 9.73221 -0.168166 
-0.0214322 -0.168166 9.60231 
9.62871 0.041627 -0.0239905 
0.041627 9.71139 -0.157617 
-0.0239905 -0.157617 9.63393 
9.61999 0.0515476 -0.032548 
0.0515476 9.74084 -0.137922 
-0.032548 -0.137922 9.6132 
9.6286 0.0423389 -0.0180143 
0.0423389 9.71309 -0.180856 
-0.0180143 -0.180856 9.63235 
10.1051 0.00742348 -0.00746991 
0.00742348 10.0971 0.0144592 
-0.00746991 0.0144592 10.0086 
10.0923 -0.00109668 -0.0268178 
-0.00109668 10.1307 -0.00957198 
-0.0268178 -0.00957198 9.98784 
10.1655 -0.0126254 -0.0593842 
-0.0126254 10.0967 -0.0299203 
-0.0593842 -0.0299203 9.94865 
10.088 -0.00478786 -0.0233901 
-0.00478786 10.1396 -0.000387117 
-0.0233901 -0.000387117 9.98324 
12.1599 0.341394 0.127847 
0.341394 9.75476 0.788973 
0.127847 0.788973 13.9873 
13.4542 -1.11818 0.483147 
-1.11818 11.9928 0.174154 
0.483147 0.174154 10.455 
10.7413 0.543444 0.218775 
0.543444 11.1529 -0.196018 
0.218775 -0.196018 14.0077 
13.0402 0.0392938 -1.42013 
0.0392938 10.6607 0.315471 
-1.42013 0.315471 12.201 
10.4853 0.00543386 0.0475476 
0.00543386 10.2067 -0.0110923 
0.0475476 -0.0110923 10.3525 
10.0586 -0.00567872 -0.145664 
-0.00567872 10.2293 0.115918 
-0.145664 0.115918 10.7567 
10.343 0.0367201 0.0388605 
0.0367201 10.35 -0.0117592 
0.0388605 -0.0117592 10.3516 
10.1837 0.16694 0.174862 
0.16694 10.3506 0.00651348 
0.174862 0.00651348 10.5102 
9.64796 -0.250728 -0.17639 
-0.250728 9.69653 0.0283092 
-0.17639 0.0283092 9.82925 
9.23691 0.0897868 -0.294561 
0.0897868 9.84682 0.0656371 
-0.294561 0.0656371 10.09 
9.41384 0.0909748 -0.266466 
0.0909748 10.0286 0.0692278 
-0.266466 0.0692278 9.73133 
9.91145 -0.0529349 -0.489138 
-0.0529349 9.4873 -0.207907 
-0.489138 -0.207907 9.77498 
9.7154 0.0219464 0.15327 
0.0219464 9.70109 0.425949 
0.15327 0.425949 9.76476 
9.94797 -0.144931 0.0924727 
-0.144931 9.17758 0.286497 
0.0924727 0.286497 10.0557 
9.84376 -0.092866 0.21961 
-0.092866 9.56869 0.292199 
0.21961 0.292199 9.76879 
9.60785 -0.0770062 -0.00443729 
-0.0770062 9.83378 0.152319 
-0.00443729 0.152319 9.73961 
8.8708 -0.107209 -0.629712 
-0.107209 10.441 0.385604 
-0.629712 0.385604 13.4798 
13.5846 0.346938 0.856158 
0.346938 8.82717 0.0999256 
0.856158 0.0999256 10.3798 
10.3014 -1.16519 -0.54482 
-1.16519 9.39546 -0.348532 
-0.54482 -0.348532 13.0948 
12.1297 -1.67587 -0.89433 
-1.67587 10.2994 -0.337215 
-0.89433 -0.337215 10.3625 
14.6204 0.0490401 0.587583 
0.0490401 10.8895 -0.213199 
0.587583 -0.213199 10.7242 
11.7003 -0.78589 -0.565099 
-0.78589 11.7623 -0.532487 
-0.565099 -0.532487 12.7715 
10.4657 0.0590222 -0.0517451 
0.0590222 10.9479 0.16126 
-0.0517451 0.16126 14.8204 
12.9106 -0.931624 -1.56415 
-0.931624 11.7479 0.529675 
-1.56415 0.529675 11.5755 
9.98236 0.0279187 0.0573323 
0.0279187 9.93843 -0.0478737 
0.0573323 -0.0478737 9.93323 
10.0103 -0.00336353 0.0376398 
-0.00336353 9.97694 -0.0277824 
0.0376398 -0.0277824 9.86677 
9.89104 0.0491867 -0.00846012 
0.0491867 9.84908 -0.0644094 
-0.00846012 -0.0644094 10.1139 
9.96531 0.0351097 0.0931574 
0.0351097 10.0098 -0.0912275 
0.0931574 -0.0912275 9.87888 
10.076 0.0449543 0.0313142 
0.0449543 10.0925 0.0304112 
0.0313142 0.0304112 10.0147 
9.94667 -0.0577706 0.0529934 
-0.0577706 10.1599 -0.0521663 
0.0529934 -0.0521663 10.0766 
10.0544 0.0108055 0.0453149 
0.0108055 10.1256 -0.00520257 
0.0453149 -0.00520257 10.0032 
9.99744 -0.0235191 0.0930269 
-0.0235191 10.1454 -0.0153836 
0.0930269 -0.0153836 10.0404 
9.65216 -0.125076 0.263837 
-0.125076 9.76628 0.0305425 
0.263837 0.0305425 9.81593 
9.67306 -0.122568 0.0158853 
-0.122568 9.78579 -0.00163453 
0.0158853 -0.00163453 9.77552 
9.59416 0.00128216 0.0655368 
0.00128216 9.73726 0.0163414 
0.0655368 0.0163414 9.90295 
9.38053 -0.145683 0.0500169 
-0.145683 9.48895 0.281815 
0.0500169 0.281815 10.3649 
9.57525 0.0191794 0.0720219 
0.0191794 9.54775 -0.329656 
0.0720219 -0.329656 9.61086 
9.58608 -4.39507e-05 0.0747104 
-4.39507e-05 9.55823 -0.364665 
0.0747104 -0.364665 9.58954 
9.59175 -0.00854121 0.0514489 
-0.00854121 9.57591 -0.369898 
0.0514489 -0.369898 9.5662 
9.60278 0.0195911 0.0766204 
0.0195911 9.55116 -0.382018 
0.0766204 -0.382018 9.57991 
9.67461 -0.268815 -0.129359 
-0.268815 9.86936 -0.0291 
-0.129359 -0.0291 10.1597 
9.51266 -0.300738 -0.0181923 
-0.300738 10.0168 0.0204655 
-0.0181923 0.0204655 10.1742 
9.89785 0.0821088 0.30063 
0.0821088 9.64439 -0.0583165 
0.30063 -0.0583165 10.1614 
9.44692 -0.301627 -0.0465523 
-0.301627 9.93013 -0.0540612 
-0.0465523 -0.0540612 10.3266 
9.67582 -0.0120671 -0.177082 
-0.0120671 9.68531 0.286933 
-0.177082 0.286933 9.69101 
9.69174 -0.000947368 -0.188597 
-0.000947368 9.68481 0.276033 
-0.188597 0.276033 9.67558 
9.69872 -0.00108797 -0.175792 
-0.00108797 9.69425 0.286326 
-0.175792 0.286326 9.65915 
9.69336 -0.00183267 -0.182231 
-0.00183267 9.6846 0.282583 
-0.182231 0.282583 9.67416 
9.59377 0.0643921 0.00609721 
0.0643921 9.62175 -0.0542198 
0.00609721 -0.0542198 9.71603 
9.46622 0.0758198 0.0781411 
0.0758198 9.69165 0.13817 
0.0781411 0.13817 9.77367 
9.61628 0.153238 -0.106891 
0.153238 9.69729 0.0892519 
-0.106891 0.0892519 9.61798 
9.40195 0.212347 0.0129762 
0.212347 9.75809 0.0605656 
0.0129762 0.0605656 9.7715 
9.84334 0.0452307 0.23846 
0.0452307 9.58792 -0.302601 
0.23846 -0.302601 9.37451 
9.58314 0.134058 0.386393 
0.134058 9.6792 -0.390278 
0.386393 -0.390278 9.54343 
9.68476 0.0546912 0.241076 
0.0546912 9.58763 -0.296365 
0.241076 -0.296365 9.53338 
9.61703 0.0642116 0.286431 
0.0642116 9.64003 -0.427476 
0.286431 -0.427476 9.54872 
10.0173 0.10722 0.0592959 
0.10722 10.0601 0.00830341 
0.0592959 0.00830341 9.97725 
10.0174 -0.0121587 -0.0437008 
-0.0121587 10.0083 -0.00481349 
-0.0437008 -0.00481349 10.0289 
9.98729 0.0906176 0.0434743 
0.0906176 9.98494 0.0204548 
0.0434743 0.0204548 10.0824 
9.96831 -0.125611 -0.0129528 
-0.125611 10.0428 0.0295957 
-0.0129528 0.0295957 10.0436 
10.6342 -0.0276469 0.139046 
-0.0276469 10.3117 -0.228506 
0.139046 -0.228506 12.3851 
10.7751 -1.02287 -0.0589039 
-1.02287 11.5476 0.391875 
-0.0589039 0.391875 11.0083 
10.3799 0.462383 0.478135 
0.462383 11.8339 0.0274763 
0.478135 0.0274763 11.1172 
10.7661 -0.135587 0.232593 
-0.135587 11.4094 -0.101433 
0.232593 -0.101433 11.1555 
9.62427 0.0243053 0.193236 
0.0243053 9.58025 -0.302136 
0.193236 -0.302136 9.63914 
9.67455 -0.0263825 0.177761 
-0.0263825 9.62139 -0.251601 
0.177761 -0.251601 9.54772 
9.64006 -0.0104233 0.171068 
-0.0104233 9.5981 -0.266974 
0.171068 -0.266974 9.6055 
9.64645 -0.00648468 0.166502 
-0.00648468 9.58324 -0.277929 
0.166502 -0.277929 9.61397 
9.77601 -0.0104649 -0.270979 
-0.0104649 9.78043 0.196281 
-0.270979 0.196281 9.59931 
9.65275 -0.0137607 -0.239867 
-0.0137607 9.74022 0.123776 
-0.239867 0.123776 9.76278 
9.78295 -0.0266752 -0.197155 
-0.0266752 9.69452 0.181081 
-0.197155 0.181081 9.67828 
9.77849 -0.0332482 -0.21914 
-0.0332482 9.6825 0.196715 
-0.21914 0.196715 9.69476 
13.0856 -3.20407 -0.872118 
-3.20407 9.89828 -1.95407 
-0.872118 -1.95407 13.9622 
8.92241 -4.36561 0.126835 
-4.36561 3.89185 3.38561 
0.126835 3.38561 24.1318 
11.3042 -3.57716 2.61094 
-3.57716 -0.946685 3.50225 
2.61094 3.50225 26.5886 
11.2277 -0.187793 1.00057 
-0.187793 10.838 3.30697 
1.00057 3.30697 14.8804 
9.81781 0.017748 -0.151997 
0.017748 9.77516 0.00321997 
-0.151997 0.00321997 9.75286 
9.83062 -0.00782054 -0.130338 
-0.00782054 9.77288 0.0176546 
-0.130338 0.0176546 9.74233 
9.83017 -0.00911898 -0.138879 
-0.00911898 9.76698 0.0012001 
-0.138879 0.0012001 9.74868 
9.81755 0.00258942 -0.163636 
0.00258942 9.73993 0.000363346 
-0.163636 0.000363346 9.78835 
9.76577 0.0130407 -0.318588 
0.0130407 9.78969 -0.0483601 
-0.318588 -0.0483601 9.76509 
9.79704 0.00513831 -0.314981 
0.00513831 9.77291 -0.0408897 
-0.314981 -0.0408897 9.7506 
9.77363 0.00398362 -0.313242 
0.00398362 9.78594 -0.0390074 
-0.313242 -0.0390074 9.76098 
9.7782 -0.00536043 -0.326855 
-0.00536043 9.79108 -0.0404004 
-0.326855 -0.0404004 9.75127 
9.75403 0.00348635 0.213697 
0.00348635 9.73774 -0.244624 
0.213697 -0.244624 9.77556 
9.75998 -0.000650789 0.224652 
-0.000650789 9.76187 -0.228532 
0.224652 -0.228532 9.74548 
9.78096 -0.00159842 0.22064 
-0.00159842 9.76924 -0.245537 
0.22064 -0.245537 9.71713 
9.7703 -0.0100064 0.223603 
-0.0100064 9.76086 -0.227994 
0.223603 -0.227994 9.73616 
9.84414 0.0011161 0.0480535 
0.0011161 9.94788 0.0983406 
0.0480535 0.0983406 10.0828 
9.77976 -0.0496905 -0.0100392 
-0.0496905 10.1451 0.204117 
-0.0100392 0.204117 9.94996 
9.74521 0.0413981 -0.0340471 
0.0413981 9.98931 -0.0627212 
-0.0340471 -0.0627212 10.1403 
9.97384 0.0401566 -0.0192849 
0.0401566 9.79218 0.0983757 
-0.0192849 0.0983757 10.1088 
9.68006 -0.0127493 -0.0271257 
-0.0127493 9.61421 -0.327892 
-0.0271257 -0.327892 9.66092 
9.63762 0.00679432 -0.00752342 
0.00679432 9.61009 -0.330755 
-0.00752342 -0.330755 9.70749 
9.66792 -0.00314436 -0.024047 
-0.00314436 9.68442 -0.373322 
-0.024047 -0.373322 9.60285 
9.66231 0.0186509 -0.0408738 
0.0186509 9.661 -0.351898 
-0.0408738 -0.351898 9.63188 
9.36427 -0.0315011 -0.0205156 
-0.0315011 9.38998 -0.343964 
-0.0205156 -0.343964 9.4335 
9.45611 -0.0270584 -0.0484825 
-0.0270584 9.31894 -0.352795 
-0.0484825 -0.352795 9.41269 
9.48556 -0.0730521 -0.0609565 
-0.0730521 9.2483 -0.334424 
-0.0609565 -0.334424 9.45389 
9.46953 0.000325665 -0.0339236 
0.000325665 9.28155 -0.414776 
-0.0339236 -0.414776 9.43667 
9.84108 0.00190454 0.00617305 
0.00190454 9.84668 -0.00578569 
0.00617305 -0.00578569 9.96659 
9.84418 -0.00348427 0.0212067 
-0.00348427 9.84329 -0.0107408 
0.0212067 -0.0107408 9.96687 
9.83852 -0.00556227 0.0327768 
-0.00556227 9.84139 -0.00642907 
0.0327768 -0.00642907 9.97443 
9.83766 0.00228302 0.0237353 
0.00228302 9.83993 -0.0212356 
0.0237353 -0.0212356 9.97675 
3.68639 0.553863 0.955755 
0.553863 3.57536 0.494996 
0.955755 0.494996 3.04229 
6.66402 0.46537 1.57301 
0.46537 5.34641 -0.712387 
1.57301 -0.712387 -1.70638 
4.47496 0.651549 0.874026 
0.651549 3.83745 0.841326 
0.874026 0.841326 1.99163 
3.62736 -0.137813 -0.18805 
-0.137813 3.28465 1.04338 
-0.18805 1.04338 3.39204 
9.93928 -0.00868156 -0.0785127 
-0.00868156 9.83979 -0.100119 
-0.0785127 -0.100119 9.9397 
9.9008 -0.0111343 -0.040906 
-0.0111343 9.83246 -0.174617 
-0.040906 -0.174617 9.98551 
9.95519 -0.024972 -0.0634502 
-0.024972 9.92388 -0.146983 
-0.0634502 -0.146983 9.8397 
9.94319 -0.00662745 -0.106123 
-0.00662745 9.89787 -0.143897 
-0.106123 -0.143897 9.87772 
9.74237 -0.0152232 0.262784 
-0.0152232 9.74202 0.195762 
0.262784 0.195762 9.77254 
9.7688 -0.0021659 0.263679 
-0.0021659 9.76593 0.200413 
0.263679 0.200413 9.72219 
9.75719 0.00821378 0.263687 
0.00821378 9.7564 0.189879 
0.263687 0.189879 9.74334 
9.75849 0.0177566 0.260278 
0.0177566 9.76063 0.18211 
0.260278 0.18211 9.7378 
9.74791 0.0174993 -0.265239 
0.0174993 9.77746 0.0274276 
-0.265239 0.0274276 9.8801 
9.71773 0.0516399 -0.279468 
0.0516399 9.82376 0.0589645 
-0.279468 0.0589645 9.86398 
9.72258 0.00881298 -0.246238 
0.00881298 9.78215 0.0170165 
-0.246238 0.0170165 9.90074 
9.81244 0.00327805 -0.235472 
0.00327805 9.85558 0.0894984 
-0.235472 0.0894984 9.73745 
13.4819 0.940898 0.596696 
0.940898 11.2033 -0.959428 
0.596696 -0.959428 12.0297 
11.925 1.26728 -0.103618 
1.26728 8.94646 -1.08197 
-0.103618 -1.08197 15.8434 
11.5407 2.35948 0.941784 
2.35948 8.96702 -0.806724 
0.941784 -0.806724 16.2072 
12.0459 0.797539 -0.234049 
0.797539 10.636 0.582757 
-0.234049 0.582757 14.033 
10.0072 0.20382 -0.223173 
0.20382 9.99022 0.0339329 
-0.223173 0.0339329 10.023 
10.1169 0.0959729 0.0929324 
0.0959729 9.83419 -0.0401061 
0.0929324 -0.0401061 10.0693 
9.94806 0.000853165 -0.0253303 
0.000853165 10.086 0.0435942 
-0.0253303 0.0435942 9.98638 
9.91245 -0.00847071 -0.0307646 
-0.00847071 10.0669 0.0277876 
-0.0307646 0.0277876 10.0411 
10.0283 0.0666035 -0.00410121 
0.0666035 9.93819 -0.0647311 
-0.00410121 -0.0647311 9.9123 
9.97662 0.0336265 -0.046141 
0.0336265 9.93358 -0.130178 
-0.046141 -0.130178 9.96861 
9.91692 -0.118985 0.0426367 
-0.118985 9.9249 -0.0871793 
0.0426367 -0.0871793 10.037 
9.98712 -0.0803484 0.00244419 
-0.0803484 9.98125 -0.156078 
0.00244419 -0.156078 9.91045 
10.0768 -0.182332 -0.1946 
-0.182332 9.82607 -0.109569 
-0.1946 -0.109569 10.0973 
10.0039 0.0640117 -0.0969237 
0.0640117 10.0975 -0.00520058 
-0.0969237 -0.00520058 9.8987 
10.0399 -0.0584819 -0.0347692 
-0.0584819 9.9732 -0.0128818 
-0.0347692 -0.0128818 9.9871 
9.96395 -0.00997054 -0.0395393 
-0.00997054 9.99856 0.0184773 
-0.0395393 0.0184773 10.0376 
9.65708 0.210552 0.0250336 
0.210552 9.38087 -0.191512 
0.0250336 -0.191512 9.99329 
9.57434 -0.163731 0.0402503 
-0.163731 9.75354 -0.133012 
0.0402503 -0.133012 9.70336 
9.6917 -0.0071862 0.103555 
-0.0071862 9.57517 -0.197396 
0.103555 -0.197396 9.76438 
9.66388 -0.0886369 0.119191 
-0.0886369 9.55121 -0.308277 
0.119191 -0.308277 9.81616 
9.86883 0.0311254 -0.0491348 
0.0311254 9.84212 0.000794572 
-0.0491348 0.000794572 9.93513 
9.87125 0.0422498 -0.00880446 
0.0422498 9.89879 -0.0462923 
-0.00880446 -0.0462923 9.87604 
9.91118 -0.0146831 0.010608 
-0.0146831 9.88698 -0.00661677 
0.010608 -0.00661677 9.84793 
9.76966 0.103093 0.0502497 
0.103093 9.91584 -0.126241 
0.0502497 -0.126241 9.96058 
9.83856 -0.0956683 -0.123613 
-0.0956683 9.65423 -0.224106 
-0.123613 -0.224106 9.75867 
9.79363 0.0481176 0.0195436 
0.0481176 9.57755 -0.0922244 
0.0195436 -0.0922244 9.88029 
9.81802 -0.0370844 -0.0614011 
-0.0370844 9.59375 -0.0458952 
-0.0614011 -0.0458952 9.83968 
9.58449 0.00389744 0.0868023 
0.00389744 9.26189 -0.178076 
0.0868023 -0.178076 10.4051 
9.83046 -0.194723 -0.18677 
-0.194723 9.51081 -0.219231 
-0.18677 -0.219231 9.50926 
9.72093 -0.0466733 0.107615 
-0.0466733 9.4478 -0.0470018 
0.107615 -0.0470018 9.68179 
9.6925 -0.080799 -0.146307 
-0.080799 9.54334 -0.0384551 
-0.146307 -0.0384551 9.61469 
9.54433 -0.131615 -0.150602 
-0.131615 9.60064 0.0764882 
-0.150602 0.0764882 9.70556 
10.0517 0.0145884 -0.0307718 
0.0145884 9.9768 -0.0478392 
-0.0307718 -0.0478392 9.79945 
9.86949 0.00519296 0.0523959 
0.00519296 9.75805 -0.0459704 
0.0523959 -0.0459704 10.2004 
9.96744 -0.0295871 -0.00166857 
-0.0295871 9.90236 -0.0995207 
-0.00166857 -0.0995207 9.95814 
9.9948 0.0237363 -0.0308211 
0.0237363 9.90791 -0.193357 
-0.0308211 -0.193357 9.92522 
9.6116 0.0389464 -0.1157 
0.0389464 9.65871 -0.25276 
-0.1157 -0.25276 9.58259 
9.58895 0.0429664 -0.144657 
0.0429664 9.747 -0.353075 
-0.144657 -0.353075 9.51696 
9.58221 0.0575363 -0.170073 
0.0575363 9.71195 -0.319459 
-0.170073 -0.319459 9.55875 
9.54863 0.0302393 -0.120943 
0.0302393 9.64978 -0.303538 
-0.120943 -0.303538 9.6545 
10.0931 -0.217798 0.150145 
-0.217798 9.15797 1.34836 
0.150145 1.34836 8.3862 
10.4248 -0.10831 0.513958 
-0.10831 10.0107 1.30474 
0.513958 1.30474 7.20178 
9.55051 -0.436042 0.437492 
-0.436042 8.84685 1.78176 
0.437492 1.78176 9.23995 
9.52152 -0.29623 -0.320945 
-0.29623 9.52914 0.0217377 
-0.320945 0.0217377 8.58666 
12.3921 0.793624 0.0411135 
0.793624 10.0602 0.134213 
0.0411135 0.134213 10.2657 
9.83109 -0.289229 0.462207 
-0.289229 9.93965 -0.263001 
0.462207 -0.263001 12.9472 
10.9583 0.331189 -0.0919674 
0.331189 10.9846 0.103912 
-0.0919674 0.103912 10.7751 
10.3568 0.57999 -1.33047 
0.57999 11.4045 -0.431156 
-1.33047 -0.431156 10.9567 
10.0084 -0.102316 0.563477 
-0.102316 11.0766 0.124988 
0.563477 0.124988 11.5523 
11.0333 0.71902 0.0526744 
0.71902 11.3216 -0.211263 
0.0526744 -0.211263 10.2823 
10.1991 -0.0394643 0.00393503 
-0.0394643 10.2349 0.00634534 
0.00393503 0.00634534 12.2033 
10.3971 0.215822 0.132732 
0.215822 11.2335 0.543363 
0.132732 0.543363 11.0067 
10.0817 0.00586568 0.012339 
0.00586568 10.0743 -0.0041112 
0.012339 -0.0041112 10.0151 
10.0352 -0.0234239 0.0492135 
-0.0234239 10.1265 0.00773132 
0.0492135 0.00773132 10.0094 
10.068 -0.0162381 0.0258794 
-0.0162381 10.1116 0.00836189 
0.0258794 0.00836189 9.99153 
10.1706 0.0227036 0.0843474 
0.0227036 10.0649 0.0196443 
0.0843474 0.0196443 9.93568 
9.84499 0.133719 0.0668719 
0.133719 9.87219 -0.0159261 
0.0668719 -0.0159261 10.1502 
10.0069 0.0272776 0.01881 
0.0272776 10.0583 -0.0765723 
0.01881 -0.0765723 9.80216 
9.92014 0.0545267 0.0610321 
0.0545267 9.89027 -0.0857077 
0.0610321 -0.0857077 10.057 
9.98626 0.0488396 0.14208 
0.0488396 9.8801 -0.161189 
0.14208 -0.161189 10.001 
9.67931 0.000735677 -0.222685 
0.000735677 9.73092 0.431763 
-0.222685 0.431763 9.71546 
9.66029 0.44717 -0.107472 
0.44717 9.37858 0.286884 
-0.107472 0.286884 10.0868 
9.75455 0.141152 -0.0524056 
0.141152 9.59101 0.339311 
-0.0524056 0.339311 9.78013 
9.79796 -0.112946 -0.108164 
-0.112946 9.63943 0.0473402 
-0.108164 0.0473402 9.68831 
10.1434 -0.00137109 -0.00424594 
-0.00137109 10.0984 0.0100423 
-0.00424594 0.0100423 10.0099 
10.1603 -0.00779755 0.0221124 
-0.00779755 10.1349 0.00780456 
0.0221124 0.00780456 9.95658 
10.1426 -0.00886393 0.00880492 
-0.00886393 10.1343 -0.0139864 
0.00880492 -0.0139864 9.97479 
10.1666 0.000456257 0.026485 
0.000456257 10.1503 0.00646511 
0.026485 0.00646511 9.93485 
9.74574 -0.0210162 0.237254 
-0.0210162 9.7028 0.118074 
0.237254 0.118074 9.85548 
9.69381 -0.205205 -0.00967224 
-0.205205 9.66796 -0.0958792 
-0.00967224 -0.0958792 9.94225 
9.5585 -0.189914 0.118074 
-0.189914 9.81761 -0.137491 
0.118074 -0.137491 9.92791 
9.70755 -0.227266 0.121009 
-0.227266 9.51693 0.058093 
0.121009 0.058093 10.0795 
9.89179 6.71675e-05 -0.0423358 
6.71675e-05 9.90388 -0.0960238 
-0.0423358 -0.0960238 9.88243 
9.87794 0.00802241 -0.0254356 
0.00802241 9.88681 -0.0980951 
-0.0254356 -0.0980951 9.91334 
9.87917 0.00662266 -0.0363546 
0.00662266 9.91536 -0.0895379 
-0.0363546 -0.0895379 9.88356 
9.89133 0.00414718 -0.0453628 
0.00414718 9.909 -0.104029 
-0.0453628 -0.104029 9.87776 
9.50043 -0.0336779 0.228445 
-0.0336779 9.4946 0.248617 
0.228445 0.248617 9.6329 
9.56801 -0.0313644 0.180261 
-0.0313644 9.5023 0.282182 
0.180261 0.282182 9.55762 
9.59321 -0.00507126 0.234193 
-0.00507126 9.56705 0.288215 
0.234193 0.288215 9.46767 
9.5402 -0.00206951 0.194615 
-0.00206951 9.56874 0.288421 
0.194615 0.288421 9.51899 
9.60069 -0.0619032 0.124387 
-0.0619032 9.88733 0.248052 
0.124387 0.248052 10.316 
9.89273 -0.0942202 -0.0304154 
-0.0942202 9.59938 -0.113926 
-0.0304154 -0.113926 10.3119 
9.90553 -0.156124 -0.044246 
-0.156124 9.91478 -0.20241 
-0.044246 -0.20241 9.98367 
9.55463 -0.0241564 -0.169685 
-0.0241564 9.62938 -0.178292 
-0.169685 -0.178292 10.62 
9.70615 0.886795 -1.80122 
0.886795 8.37596 4.74824 
-1.80122 4.74824 5.99059 
10.2648 0.656406 -0.989711 
0.656406 6.02797 3.61822 
-0.989711 3.61822 7.77994 
8.87083 -0.0672964 -1.59141 
-0.0672964 8.59601 5.06918 
-1.59141 5.06918 6.60587 
7.3705 0.287222 -0.467561 
0.287222 10.7905 1.31018 
-0.467561 1.31018 5.9117 
9.77986 0.0148651 0.0491698 
0.0148651 9.74299 -0.267154 
0.0491698 -0.267154 9.8633 
9.79003 0.0147964 0.0404549 
0.0147964 9.72766 -0.291211 
0.0404549 -0.291211 9.86846 
9.76713 -0.0113895 0.0269226 
-0.0113895 9.73326 -0.237694 
0.0269226 -0.237694 9.88577 
9.82306 0.00343199 0.105 
0.00343199 9.83254 -0.240037 
0.105 -0.240037 9.73055 
9.77457 0.0187124 0.00751526 
0.0187124 9.76591 -0.000594228 
0.00751526 -0.000594228 9.9077 
9.75955 -0.011035 0.0308279 
-0.011035 9.74124 0.0188607 
0.0308279 0.0188607 9.94739 
9.7488 -0.0103934 -0.00080458 
-0.0103934 9.76882 -0.0221966 
-0.00080458 -0.0221966 9.93055 
9.76167 -0.00414583 0.00419399 
-0.00414583 9.75772 0.00637976 
0.00419399 0.00637976 9.92878 
9.80038 0.000479748 0.034606 
0.000479748 9.76054 -0.306975 
0.034606 -0.306975 9.77552 
9.7972 -0.0121733 0.038509 
-0.0121733 9.75709 -0.31472 
0.038509 -0.31472 9.78215 
9.74735 -0.004627 0.0435884 
-0.004627 9.81733 -0.309493 
0.0435884 -0.309493 9.77176 
9.80059 0.018246 0.0351324 
0.018246 9.77226 -0.332864 
0.0351324 -0.332864 9.76359 
9.74499 0.00925653 -0.0464714 
0.00925653 9.79771 -0.315486 
-0.0464714 -0.315486 9.77391 
9.7934 0.0142519 -0.0335339 
0.0142519 9.74912 -0.317484 
-0.0335339 -0.317484 9.7741 
9.7818 0.00292653 -0.0370368 
0.00292653 9.77737 -0.316229 
-0.0370368 -0.316229 9.75744 
9.78484 -0.0135554 -0.0375545 
-0.0135554 9.77782 -0.327992 
-0.0375545 -0.327992 9.75395 
9.23254 0.083359 0.75661 
0.083359 9.67231 -0.179073 
0.75661 -0.179073 8.83091 
9.1452 0.137336 0.771051 
0.137336 10.0105 -0.335801 
0.771051 -0.335801 8.58002 
9.09892 -0.074867 0.59335 
-0.074867 9.647 0.331898 
0.59335 0.331898 8.98985 
9.75486 -0.0833426 0.659557 
-0.0833426 8.88816 -0.640093 
0.659557 -0.640093 9.09274 
9.60065 -0.0571661 -0.0738766 
-0.0571661 9.47954 -0.332585 
-0.0738766 -0.332585 9.55064 
9.53728 -0.0205135 -0.0791845 
-0.0205135 9.50671 -0.353033 
-0.0791845 -0.353033 9.58684 
9.55603 -0.0280941 -0.0286911 
-0.0280941 9.52942 -0.347166 
-0.0286911 -0.347166 9.54538 
9.56193 -0.0195322 -0.0847798 
-0.0195322 9.53106 -0.369871 
-0.0847798 -0.369871 9.53784 
9.78136 -0.00148214 -0.225702 
-0.00148214 9.76794 -0.223676 
-0.225702 -0.223676 9.74905 
9.78185 -0.00493096 -0.241956 
-0.00493096 9.7791 -0.210751 
-0.241956 -0.210751 9.73739 
9.76222 0.0154733 -0.232931 
0.0154733 9.76201 -0.224255 
-0.232931 -0.224255 9.77412 
9.77989 0.00581166 -0.222123 
0.00581166 9.77152 -0.215358 
-0.222123 -0.215358 9.74694 
4.41496 -0.464448 -0.680334 
-0.464448 5.18441 -1.09836 
-0.680334 -1.09836 0.167269 
4.3462 -0.097129 -1.19539 
-0.097129 5.00627 0.663688 
-1.19539 0.663688 0.414177 
3.32325 0.0211156 -1.48703 
0.0211156 4.52183 -0.15878 
-1.48703 -0.15878 1.92156 
2.73 -0.65032 -1.75967 
-0.65032 3.88408 0.111573 
-1.75967 0.111573 3.15256 
13.3008 2.88149 -5.70551 
2.88149 11.7431 -0.0935271 
-5.70551 -0.0935271 -6.62554 
0.636026 0.640014 3.83075 
0.640014 -0.396958 1.50854 
3.83075 1.50854 18.1793 
15.2285 0.692607 -4.09861 
0.692607 9.17852 -3.70462 
-4.09861 -3.70462 -5.98868 
-2.49757 -5.43633 -13.2321 
-5.43633 8.46195 -5.69486 
-13.2321 -5.69486 12.454 
5.81581 -0.146716 -1.16024 
-0.146716 7.74372 -0.597473 
-1.16024 -0.597473 -1.73222 
8.58239 0.737364 0.528726 
0.737364 7.79491 -0.724632 
0.528726 -0.724632 -4.54999 
3.64242 -0.616376 2.2064 
-0.616376 1.60585 1.75436 
2.2064 1.75436 6.57903 
5.7593 0.679755 -1.84623 
0.679755 5.80794 3.25471 
-1.84623 3.25471 0.260079 
9.74075 -0.00603363 -0.336335 
-0.00603363 9.71652 -0.0153874 
-0.336335 -0.0153874 9.75392 
9.72955 0.00149212 -0.335803 
0.00149212 9.74029 -0.0415897 
-0.335803 -0.0415897 9.74136 
9.76235 -0.00282477 -0.325975 
-0.00282477 9.75045 -0.0130724 
-0.325975 -0.0130724 9.6984 
9.74241 0.000548048 -0.334761 
0.000548048 9.73619 -0.0253586 
-0.334761 -0.0253586 9.73259 
9.21375 -0.739472 -0.100443 
-0.739472 9.78639 -0.144726 
-0.100443 -0.144726 10.0375 
9.45294 -0.13936 -0.353663 
-0.13936 9.71859 -0.0134727 
-0.353663 -0.0134727 9.86616 
9.76968 0.517003 -0.0344433 
0.517003 9.67722 -0.113458 
-0.0344433 -0.113458 9.59078 
9.45408 -0.0718858 -0.542412 
-0.0718858 9.79067 -0.489454 
-0.542412 -0.489454 9.79293 
9.88669 -0.0104267 0.443991 
-0.0104267 9.53233 0.162861 
0.443991 0.162861 9.78594 
9.22753 0.0660958 0.300972 
0.0660958 9.87429 -0.0489497 
0.300972 -0.0489497 10.1031 
9.63008 -0.235633 0.206177 
-0.235633 9.69191 -0.0642185 
0.206177 -0.0642185 9.88297 
9.39121 0.0653972 0.235897 
0.0653972 10.034 -0.0676859 
0.235897 -0.0676859 9.77979 
9.20114 -0.0494929 -0.313219 
-0.0494929 9.87914 -0.0482991 
-0.313219 -0.0482991 10.1147 
9.87017 -0.00256561 -0.450189 
-0.00256561 9.54804 0.178759 
-0.450189 0.178759 9.77681 
9.69103 0.236804 -0.203106 
0.236804 9.65899 -0.0381307 
-0.203106 -0.0381307 9.845 
9.40302 -0.0421613 -0.257437 
-0.0421613 10.0301 -0.0724307 
-0.257437 -0.0724307 9.76191 
9.94167 -0.112194 0.0120502 
-0.112194 9.93727 0.068779 
0.0120502 0.068779 10.081 
10.1081 -0.0230166 0.102254 
-0.0230166 10.014 0.0127632 
0.102254 0.0127632 9.83782 
9.91007 -0.0375241 0.0327476 
-0.0375241 9.92541 0.0565571 
0.0327476 0.0565571 10.1245 
9.93026 -0.0379165 0.0881153 
-0.0379165 10.0033 0.135024 
0.0881153 0.135024 10.0263 
9.96073 -0.123011 -0.0220312 
-0.123011 9.9485 -0.1221 
-0.0220312 -0.1221 10.171 
10.0402 -0.144067 -0.0678856 
-0.144067 9.81773 -0.0707951 
-0.0678856 -0.0707951 10.2224 
9.92815 -0.160831 -0.0857166 
-0.160831 9.90621 0.0268197 
-0.0857166 0.0268197 10.2459 
10.0349 -0.124847 -0.0842601 
-0.124847 9.80949 -0.0586809 
-0.0842601 -0.0586809 10.2359 
11.1273 0.411775 0.00438604 
0.411775 9.0185 -0.539293 
0.00438604 -0.539293 12.2674 
11.1168 -0.866868 -0.022137 
-0.866868 10.4618 -0.164242 
-0.022137 -0.164242 10.8346 
10.0418 0.338377 -0.117833 
0.338377 10.126 0.0645696 
-0.117833 0.0645696 12.2454 
11.0878 -0.0331253 0.362024 
-0.0331253 10.0647 -0.105783 
0.362024 -0.105783 11.2606 
9.71511 0.0186992 0.326251 
0.0186992 9.75926 0.00555653 
0.326251 0.00555653 9.80359 
9.74639 0.000356876 0.321035 
0.000356876 9.77735 0.0386432 
0.321035 0.0386432 9.7542 
9.80831 0.00351443 0.359008 
0.00351443 9.77258 0.0179485 
0.359008 0.0179485 9.69706 
9.77863 0.0170307 0.321833 
0.0170307 9.76788 0.0404661 
0.321833 0.0404661 9.73144 
5.20886 0.274488 0.0149216 
0.274488 4.95538 0.977493 
0.0149216 0.977493 -1.29823 
3.96161 -0.621564 -0.857546 
-0.621564 3.66528 -0.353084 
-0.857546 -0.353084 1.23913 
3.16092 0.0972764 -0.615153 
0.0972764 3.51874 -0.502172 
-0.615153 -0.502172 2.18635 
3.10828 0.821218 -0.867451 
0.821218 4.79115 -2.05828 
-0.867451 -2.05828 0.966589 
11.0988 0.291468 0.25349 
0.291468 10.6242 0.116036 
0.25349 0.116036 12.215 
12.1126 0.46964 0.561027 
0.46964 10.7883 0.11058 
0.561027 0.11058 11.0371 
9.52035 -1.17212 -1.21039 
-1.17212 10.1021 -0.338331 
-1.21039 -0.338331 14.3155 
9.02945 0.672505 1.78303 
0.672505 11.3722 -0.343117 
1.78303 -0.343117 13.5363 
10.7993 -1.91069 0.00987226 
-1.91069 6.03953 1.29629 
0.00987226 1.29629 -3.2213 
0.924493 0.189702 -1.20021 
0.189702 3.18736 -0.929827 
-1.20021 -0.929827 9.50569 
8.25062 0.265361 -1.30837 
0.265361 8.07031 -0.582937 
-1.30837 -0.582937 -2.70338 
6.96764 2.42118 -7.53225 
2.42118 5.36365 2.43707 
-7.53225 2.43707 1.28626 
9.82037 0.289305 -0.180302 
0.289305 9.25308 0.257181 
-0.180302 0.257181 10.0592 
9.74373 0.00704682 -0.220259 
0.00704682 9.6536 0.403975 
-0.220259 0.403975 9.73533 
9.7636 0.140472 -0.255911 
0.140472 9.5774 0.237135 
-0.255911 0.237135 9.79167 
9.58408 0.0336853 -0.00178986 
0.0336853 9.81944 0.156906 
-0.00178986 0.156906 9.72914 
9.76372 -0.0104547 -0.143779 
-0.0104547 9.75844 -0.277306 
-0.143779 -0.277306 9.73778 
9.75667 -0.00029229 -0.140239 
-0.00029229 9.77171 -0.294139 
-0.140239 -0.294139 9.73156 
9.74977 -0.00488802 -0.145951 
-0.00488802 9.7633 -0.287503 
-0.145951 -0.287503 9.74687 
9.74742 0.00942674 -0.139795 
0.00942674 9.77653 -0.288428 
-0.139795 -0.288428 9.736 
9.78789 0.0186536 0.154655 
0.0186536 9.96113 0.128451 
0.154655 0.128451 9.86325 
9.76919 0.0934153 -0.163165 
0.0934153 9.68658 -0.104572 
-0.163165 -0.104572 10.1565 
10.0858 -0.180402 -0.0909765 
-0.180402 9.61016 -0.0359463 
-0.0909765 -0.0359463 9.91631 
9.99273 -0.093033 0.0641029 
-0.093033 9.54786 0.120951 
0.0641029 0.120951 10.0717 
10.0025 0.0136712 0.0733767 
0.0136712 10.0882 0.0271271 
0.0733767 0.0271271 9.76499 
9.81125 0.0123332 0.0740578 
0.0123332 9.92667 -0.0701626 
0.0740578 -0.0701626 10.1177 
9.80829 0.0486112 0.0924585 
0.0486112 9.93964 0.00594494 
0.0924585 0.00594494 10.1077 
9.89577 -0.0340116 0.221687 
-0.0340116 9.95509 -0.0427448 
0.221687 -0.0427448 10.0047 
9.23609 -1.59939 -0.99179 
-1.59939 13.008 -0.527119 
-0.99179 -0.527119 13.988 
10.7162 -0.943301 -0.789958 
-0.943301 11.9385 -0.450037 
-0.789958 -0.450037 13.5775 
9.31997 -1.06553 -0.0417176 
-1.06553 9.85172 0.337728 
-0.0417176 0.337728 17.0604 
10.6204 -1.62905 -2.72653 
-1.62905 12.2299 -1.00494 
-2.72653 -1.00494 13.3817 
9.76929 0.00711521 -0.185268 
0.00711521 9.75478 0.25814 
-0.185268 0.25814 9.75335 
9.74532 0.00116657 -0.192379 
0.00116657 9.75264 0.257397 
-0.192379 0.257397 9.77946 
9.77538 -0.0134566 -0.193404 
-0.0134566 9.77904 0.275355 
-0.193404 0.275355 9.723 
9.75841 -0.00789844 -0.176468 
-0.00789844 9.78274 0.272434 
-0.176468 0.272434 9.73628 
9.70927 -0.00596802 0.422334 
-0.00596802 9.684 0.20417 
0.422334 0.20417 9.73926 
9.58737 -0.148928 0.357607 
-0.148928 9.75973 0.04647 
0.357607 0.04647 9.78543 
9.63004 0.0867649 0.0927003 
0.0867649 9.79076 0.111557 
0.0927003 0.111557 9.71173 
9.38854 -0.41341 0.292537 
-0.41341 9.67718 0.120004 
0.292537 0.120004 10.0668 
9.53001 0.0118619 -0.0832589 
0.0118619 9.68833 0.1051 
-0.0832589 0.1051 9.84058 
9.64498 0.104878 -0.125367 
0.104878 9.45893 0.169782 
-0.125367 0.169782 9.95501 
9.59024 -0.0528574 -0.0544811 
-0.0528574 9.72857 0.134093 
-0.0544811 0.134093 9.74011 
9.52017 0.035999 -0.0656386 
0.035999 9.62549 0.0165948 
-0.0656386 0.0165948 9.91325 
9.69736 0.00571556 0.0407539 
0.00571556 9.69989 -0.335603 
0.0407539 -0.335603 9.66951 
9.69434 0.00674616 0.0304539 
0.00674616 9.68926 -0.337311 
0.0304539 -0.337311 9.68315 
9.66398 -0.00643672 0.0470762 
-0.00643672 9.71489 -0.326013 
0.0470762 -0.326013 9.68789 
9.69323 0.00970854 0.0417925 
0.00970854 9.69881 -0.342192 
0.0417925 -0.342192 9.67472 
9.74299 0.005534 -0.281501 
0.005534 9.77258 0.141699 
-0.281501 0.141699 9.71397 
9.76243 -0.0204706 -0.281134 
-0.0204706 9.73429 0.150653 
-0.281134 0.150653 9.73281 
9.74575 -0.0102682 -0.283544 
-0.0102682 9.7542 0.137952 
-0.283544 0.137952 9.72958 
9.75372 -0.0137636 -0.286629 
-0.0137636 9.74802 0.139825 
-0.286629 0.139825 9.72778 
10.0709 -0.0902354 -0.0526109 
-0.0902354 10.1231 -0.0826603 
-0.0526109 -0.0826603 9.77474 
9.83723 0.179346 0.318667 
0.179346 9.72119 -0.123374 
0.318667 -0.123374 10.4104 
9.56235 -0.0161617 0.153728 
-0.0161617 10.6041 0.301401 
0.153728 0.301401 9.80235 
10.1691 -0.0333472 -0.11442 
-0.0333472 10.0681 0.0783041 
-0.11442 0.0783041 9.73155 
9.13389 -0.487514 1.09164 
-0.487514 10.8571 -0.425754 
1.09164 -0.425754 9.53044 
8.49651 -0.256048 0.911493 
-0.256048 9.6846 0.102665 
0.911493 0.102665 11.3403 
8.14413 0.190563 2.25727 
0.190563 10.3224 -0.186727 
2.25727 -0.186727 11.0549 
8.56082 -0.630295 1.40459 
-0.630295 10.912 0.00132398 
1.40459 0.00132398 10.0486 
9.83169 0.0781171 -0.0126955 
0.0781171 10.076 0.0475162 
-0.0126955 0.0475162 10.0885 
9.93986 0.00861083 0.0319453 
0.00861083 10.0263 -0.021734 
0.0319453 -0.021734 10.03 
9.93871 0.0184204 0.0592619 
0.0184204 10.0116 -0.000761433 
0.0592619 -0.000761433 10.0458 
9.97425 -0.00889298 0.036831 
-0.00889298 9.99523 -0.00176784 
0.036831 -0.00176784 10.0267 
9.56854 -0.112627 -0.137726 
-0.112627 9.35143 -0.149587 
-0.137726 -0.149587 9.63318 
9.50297 0.0392927 -0.0705913 
0.0392927 9.62834 -0.304012 
-0.0705913 -0.304012 9.42184 
9.41509 0.00932751 0.00227419 
0.00932751 9.62651 -0.347193 
0.00227419 -0.347193 9.51155 
9.45163 -0.000476061 -0.135718 
-0.000476061 9.41905 -0.288451 
-0.135718 -0.288451 9.68246 
9.97548 0.00114483 0.0720589 
0.00114483 10.0259 -0.0192719 
0.0720589 -0.0192719 9.86398 
9.81266 0.0251684 0.038092 
0.0251684 9.88806 0.0167835 
0.038092 0.0167835 10.1647 
9.94413 0.0247652 0.0869613 
0.0247652 9.99763 -0.0356917 
0.0869613 -0.0356917 9.92365 
9.92053 0.0396041 0.170542 
0.0396041 10.0382 -0.0576618 
0.170542 -0.0576618 9.90664 
9.63196 -0.0310597 0.0643966 
-0.0310597 10.0154 0.0929632 
0.0643966 0.0929632 9.86962 
9.72411 0.118814 0.0894775 
0.118814 9.79136 0.165706 
0.0894775 0.165706 10.0015 
10.0304 0.0308561 -0.242045 
0.0308561 9.64309 -0.114465 
-0.242045 -0.114465 9.84349 
9.50406 -0.0204741 -0.0328409 
-0.0204741 9.98414 0.0206903 
-0.0328409 0.0206903 10.0287 
10.1802 -0.000394784 0.14131 
-0.000394784 9.97807 -0.0636397 
0.14131 -0.0636397 9.83017 
10.0473 -0.0013078 0.0398095 
-0.0013078 10.0388 -0.0258892 
0.0398095 -0.0258892 9.9023 
9.85297 0.0111324 -0.0978087 
0.0111324 9.92926 0.105161 
-0.0978087 0.105161 10.2062 
10.1873 -0.172256 -0.00836793 
-0.172256 10.0929 -0.03935 
-0.00836793 -0.03935 9.70825 
9.56707 0.113058 0.105237 
0.113058 9.30951 0.273425 
0.105237 0.273425 10.3408 
9.77096 0.127633 -0.18314 
0.127633 9.62377 0.172523 
-0.18314 0.172523 9.82268 
9.80851 0.118861 -0.0235199 
0.118861 9.62683 0.0414494 
-0.0235199 0.0414494 9.78207 
9.67014 0.067929 -0.0538908 
0.067929 9.67186 0.0554043 
-0.0538908 0.0554043 9.87541 
9.63117 0.380098 0.0215825 
0.380098 9.74919 0.0436887 
0.0215825 0.0436887 9.43841 
9.57564 -0.374583 0.158823 
-0.374583 9.3114 0.0682993 
0.158823 0.0682993 9.93174 
9.60544 -0.153613 0.198264 
-0.153613 9.37342 0.225205 
0.198264 0.225205 9.83992 
9.9506 0.00758492 0.177242 
0.00758492 9.05432 0.340385 
0.177242 0.340385 9.81386 
10.0371 -0.0627227 0.0742784 
-0.0627227 9.40125 0.251283 
0.0742784 0.251283 9.74024 
9.66563 0.249449 0.044144 
0.249449 9.67372 0.174925 
0.044144 0.174925 9.83921 
9.86879 -0.0672186 0.0569715 
-0.0672186 9.2087 0.295135 
0.0569715 0.295135 10.1011 
9.52119 0.0171311 -0.175946 
0.0171311 9.87918 0.451965 
-0.175946 0.451965 9.77819 
9.78323 -0.00530047 -0.315343 
-0.00530047 9.74727 0.0457234 
-0.315343 0.0457234 9.75841 
9.75429 -0.00866658 -0.317544 
-0.00866658 9.77603 0.0376062 
-0.317544 0.0376062 9.7586 
9.75295 -0.000841347 -0.312912 
-0.000841347 9.77953 0.0374026 
-0.312912 0.0374026 9.75643 
9.76467 0.00767994 -0.327643 
0.00767994 9.77692 0.0381054 
-0.327643 0.0381054 9.74732 
9.77664 -0.0363532 -0.265278 
-0.0363532 9.7633 0.0993493 
-0.265278 0.0993493 9.7222 
9.75525 0.00137498 -0.251122 
0.00137498 9.70547 0.122794 
-0.251122 0.122794 9.8014 
9.8093 -0.0116343 -0.278009 
-0.0116343 9.76209 0.162473 
-0.278009 0.162473 9.69074 
9.77608 -0.029509 -0.275875 
-0.029509 9.75227 0.111179 
-0.275875 0.111179 9.73377 
9.52163 -0.0472126 -0.183001 
-0.0472126 9.42853 -0.333256 
-0.183001 -0.333256 9.70026 
9.59446 -0.0346448 -0.0913861 
-0.0346448 9.57296 -0.435323 
-0.0913861 -0.435323 9.48299 
9.59825 -0.115535 -0.145718 
-0.115535 9.40149 -0.315094 
-0.145718 -0.315094 9.65068 
9.55127 -0.00951184 -0.342255 
-0.00951184 9.311 -0.420505 
-0.342255 -0.420505 9.78815 
9.69246 0.0425455 0.136069 
0.0425455 9.84488 -0.138009 
0.136069 -0.138009 9.93017 
9.93641 -0.0185773 0.289084 
-0.0185773 9.95462 0.0149422 
0.289084 0.0149422 9.57648 
9.72483 0.312729 0.0014556 
0.312729 9.66559 -0.048306 
0.0014556 -0.048306 10.0771 
9.60483 0.128546 0.184223 
0.128546 9.82974 -0.232189 
0.184223 -0.232189 10.0329 
9.63537 0.0380961 -0.0242359 
0.0380961 9.66799 -0.329552 
-0.0242359 -0.329552 9.48302 
9.65497 0.0136804 -0.0547408 
0.0136804 9.6689 -0.373385 
-0.0547408 -0.373385 9.46252 
9.66167 0.0186924 -0.0200628 
0.0186924 9.66155 -0.332122 
-0.0200628 -0.332122 9.46317 
9.60848 0.0106511 -0.0331579 
0.0106511 9.63691 -0.364918 
-0.0331579 -0.364918 9.54099 
14.5612 0.586014 0.95192 
0.586014 14.2529 -0.949402 
0.95192 -0.949402 12.5451 
11.1243 -0.73518 0.327259 
-0.73518 9.31543 2.67162 
0.327259 2.67162 20.9194 
12.3596 -0.137811 2.03133 
-0.137811 14.3345 0.278341 
2.03133 0.278341 14.6651 
13.3764 0.517874 2.0183 
0.517874 15.0554 0.777902 
2.0183 0.777902 12.9274 
9.83945 -0.0122003 -0.100336 
-0.0122003 9.97167 -0.0390158 
-0.100336 -0.0390158 10.0516 
9.97355 -0.0158252 -0.0544589 
-0.0158252 10.0585 -0.0693781 
-0.0544589 -0.0693781 9.83072 
9.76686 -0.0351225 -0.0791128 
-0.0351225 9.94118 0.026757 
-0.0791128 0.026757 10.1547 
9.91462 -0.0746441 -0.208386 
-0.0746441 9.93458 -0.0662835 
-0.208386 -0.0662835 10.0136 
9.77102 0.131955 0.0239183 
0.131955 9.7559 0.016807 
0.0239183 0.016807 9.71198 
9.44891 0.147444 -0.0043435 
0.147444 9.36164 -0.333373 
-0.0043435 -0.333373 10.4284 
9.73448 0.121825 0.274559 
0.121825 9.6996 -0.09269 
0.274559 -0.09269 9.80483 
9.57389 -0.0236659 0.0661413 
-0.0236659 9.76608 -0.0318244 
0.0661413 -0.0318244 9.89894 
9.76277 -0.00619958 -0.310189 
-0.00619958 9.72885 0.0740881 
-0.310189 0.0740881 9.72846 
9.75398 -0.00774547 -0.30514 
-0.00774547 9.73876 0.0664283 
-0.30514 0.0664283 9.72735 
9.75243 -0.00611156 -0.303275 
-0.00611156 9.73095 0.0581877 
-0.303275 0.0581877 9.7367 
9.76168 -0.00534767 -0.295021 
-0.00534767 9.74913 0.0717679 
-0.295021 0.0717679 9.70927 
9.66964 0.0845157 0.0885096 
0.0845157 9.65925 -0.063326 
0.0885096 -0.063326 9.85663 
9.2433 0.048518 0.273042 
0.048518 9.53783 0.15995 
0.273042 0.15995 10.4044 
9.5816 0.0939532 0.239341 
0.0939532 9.78903 -0.135883 
0.239341 -0.135883 9.8149 
9.60985 0.0957795 0.0426197 
0.0957795 9.87492 -0.0403838 
0.0426197 -0.0403838 9.70075 
9.2552 0.142833 -0.290149 
0.142833 9.88433 0.100084 
-0.290149 0.100084 10.0217 
9.82785 0.049567 -0.167169 
0.049567 9.59422 0.00290765 
-0.167169 0.00290765 9.73915 
9.56998 0.0941674 -0.295659 
0.0941674 9.81533 0.211671 
-0.295659 0.211671 9.77591 
9.65115 -0.00428445 -0.407361 
-0.00428445 9.74142 0.140607 
-0.407361 0.140607 9.76865 
9.90019 0.0631279 0.00862829 
0.0631279 9.91456 -0.0743639 
0.00862829 -0.0743639 9.90098 
9.88539 -0.0920311 -0.011309 
-0.0920311 9.89993 0.000366729 
-0.011309 0.000366729 9.9304 
9.92615 -0.0290817 0.00645169 
-0.0290817 9.9164 -0.0366589 
0.00645169 -0.0366589 9.87318 
9.8997 -0.0434512 -0.0127317 
-0.0434512 9.91202 -0.041039 
-0.0127317 -0.041039 9.904 
11.3797 2.75223 -0.696829 
2.75223 7.85774 -0.228634 
-0.696829 -0.228634 13.9722 
10.5454 0.559642 1.12826 
0.559642 9.9138 -1.00064 
1.12826 -1.00064 12.7505 
9.45942 -0.434246 -0.458703 
-0.434246 12.1597 -0.0884353 
-0.458703 -0.0884353 11.5906 
10.7159 1.64394 1.31614 
1.64394 10.4912 -1.03763 
1.31614 -1.03763 12.0025 
9.64932 -0.0268161 -0.0601883 
-0.0268161 9.57314 -0.135203 
-0.0601883 -0.135203 9.80691 
9.59495 0.0485892 -0.0156082 
0.0485892 9.71311 -0.105427 
-0.0156082 -0.105427 9.72132 
9.62901 -0.0407514 -0.0737041 
-0.0407514 9.54914 -0.229626 
-0.0737041 -0.229626 9.85122 
9.61045 -0.0274426 -0.0886787 
-0.0274426 9.59089 -0.0902522 
-0.0886787 -0.0902522 9.82804 
9.1015 0.232762 0.0541706 
0.232762 9.70225 -0.118841 
0.0541706 -0.118841 9.86035 
10.2357 0.171863 0.295312 
0.171863 9.18812 -0.283168 
0.295312 -0.283168 9.24025 
9.32926 0.0637835 0.152738 
0.0637835 9.51512 -0.164402 
0.152738 -0.164402 9.81972 
9.27785 -0.0141408 0.392796 
-0.0141408 9.62734 -0.139983 
0.392796 -0.139983 9.75891 
10.8366 -0.163152 0.311636 
-0.163152 11.2087 0.187757 
0.311636 0.187757 12.0136 
11.2625 -0.105752 0.327784 
-0.105752 11.7738 -0.206571 
0.327784 -0.206571 11.0226 
11.0848 0.0221613 0.0798114 
0.0221613 10.9688 0.0653289 
0.0798114 0.0653289 12.0054 
11.1419 -0.363136 0.0575042 
-0.363136 11.7356 0.204294 
0.0575042 0.204294 11.1814 
9.16996 -0.497339 -3.38928 
-0.497339 8.0106 -1.49402 
-3.38928 -1.49402 2.97192 
7.13319 -0.926688 -4.0875 
-0.926688 7.20967 1.06571 
-4.0875 1.06571 5.80962 
6.02161 1.69162 -2.68755 
1.69162 9.04407 -0.379543 
-2.68755 -0.379543 5.0868 
7.60393 0.308135 -3.2207 
0.308135 8.24653 -0.322759 
-3.2207 -0.322759 4.30201 
9.51952 0.0516306 0.0108123 
0.0516306 9.37327 -0.278229 
0.0108123 -0.278229 9.81878 
9.59055 0.233149 0.166331 
0.233149 9.43194 -0.256346 
0.166331 -0.256346 9.68909 
9.58294 0.136678 0.077541 
0.136678 9.29044 -0.412964 
0.077541 -0.412964 9.8382 
9.62732 0.161174 0.247165 
0.161174 9.52891 -0.329097 
0.247165 -0.329097 9.55534 
9.71135 0.0294736 0.130611 
0.0294736 9.77168 0.329662 
0.130611 0.329662 9.62653 
9.70991 -0.00324824 0.134695 
-0.00324824 9.70532 0.292258 
0.134695 0.292258 9.69433 
9.70991 -0.00595007 0.137463 
-0.00595007 9.6561 0.291547 
0.137463 0.291547 9.74356 
9.72251 0.0229738 0.148285 
0.0229738 9.7371 0.237662 
0.148285 0.237662 9.64995 
9.63206 -0.00247288 0.0149819 
-0.00247288 9.58815 -0.350244 
0.0149819 -0.350244 9.69829 
9.65733 0.0125448 0.0377877 
0.0125448 9.62003 -0.335765 
0.0377877 -0.335765 9.64114 
9.64808 0.011828 0.0221577 
0.011828 9.7074 -0.366324 
0.0221577 -0.366324 9.56303 
9.64762 -0.00371343 0.0520227 
-0.00371343 9.64954 -0.317506 
0.0520227 -0.317506 9.62135 
9.73187 -0.0044937 -0.336773 
-0.0044937 9.73969 0.0392205 
-0.336773 0.0392205 9.73057 
9.75022 0.003746 -0.332024 
0.003746 9.71203 0.0187281 
-0.332024 0.0187281 9.73988 
9.74404 -0.00380495 -0.331019 
-0.00380495 9.74987 0.0176374 
-0.331019 0.0176374 9.70821 
9.74422 -0.00320607 -0.339831 
-0.00320607 9.7361 0.0241847 
-0.339831 0.0241847 9.72181 
9.93803 -0.0303183 -0.0797952 
-0.0303183 9.99576 -0.0183116 
-0.0797952 -0.0183116 9.91203 
9.79787 -0.0505747 -0.0409559 
-0.0505747 9.89118 -0.0619185 
-0.0409559 -0.0619185 10.1568 
10.0048 -0.00024437 -0.053629 
-0.00024437 9.98031 -0.000136595 
-0.053629 -0.000136595 9.86072 
9.92886 0.00425039 -0.155544 
0.00425039 10.0382 -0.0333187 
-0.155544 -0.0333187 9.87874 
9.99815 0.00204371 -0.038099 
0.00204371 9.87539 -0.0669798 
-0.038099 -0.0669798 10.0137 
9.99382 -0.0304687 0.0301684 
-0.0304687 9.85662 -0.0619991 
0.0301684 -0.0619991 10.0368 
10.043 -0.0166052 -0.00692576 
-0.0166052 9.97307 -0.0273295 
-0.00692576 -0.0273295 9.87113 
10.0069 -0.00654976 -0.0188133 
-0.00654976 10.0002 -0.0838291 
-0.0188133 -0.0838291 9.88012 
9.75403 -0.000561938 -0.301083 
-0.000561938 9.72565 -0.0329696 
-0.301083 -0.0329696 9.62912 
9.74706 0.0171666 -0.275585 
0.0171666 9.67819 -0.0223961 
-0.275585 -0.0223961 9.68355 
9.74655 0.0210108 -0.305114 
0.0210108 9.70567 -0.0320004 
-0.305114 -0.0320004 9.65657 
9.75321 0.0192361 -0.315287 
0.0192361 9.72274 -0.016497 
-0.315287 -0.016497 9.63284 
8.55877 -0.541816 -0.790869 
-0.541816 12.663 -0.887407 
-0.790869 -0.887407 13.4703 
10.3489 0.0420261 0.524631 
0.0420261 11.7334 -0.092308 
0.524631 -0.092308 12.6098 
12.0862 0.40114 -0.381318 
0.40114 10.8608 -0.121115 
-0.381318 -0.121115 11.7451 
10.7234 -0.374239 0.722941 
-0.374239 11.2693 -0.140056 
0.722941 -0.140056 12.6993 
0.986114 -1.23206 -1.70344 
-1.23206 1.65006 0.0859653 
-1.70344 0.0859653 9.62722 
5.2741 3.09014 0.647488 
3.09014 11.0761 -0.842376 
0.647488 -0.842376 -4.08685 
7.82644 0.233547 -1.55838 
0.233547 7.72755 -0.609149 
-1.55838 -0.609149 -3.2906 
7.78568 0.826645 -3.97785 
0.826645 3.77447 -7.27419 
-3.97785 -7.27419 0.703239 
9.73729 0.00479046 0.13616 
0.00479046 9.73671 0.293418 
0.13616 0.293418 9.73036 
9.7478 -0.00291738 0.145401 
-0.00291738 9.74642 0.289995 
0.145401 0.289995 9.71015 
9.72337 0.0276916 0.149657 
0.0276916 9.75723 0.278211 
0.149657 0.278211 9.72377 
9.73545 0.00392178 0.146526 
0.00392178 9.74798 0.296625 
0.146526 0.296625 9.72094 
10.9552 -0.433401 0.10144 
-0.433401 9.71772 0.207733 
0.10144 0.207733 12.4666 
8.95607 0.133508 0.344975 
0.133508 12.9698 -0.375039 
0.344975 -0.375039 11.2137 
10.9233 1.02045 -0.454556 
1.02045 10.3227 0.287206 
-0.454556 0.287206 11.8935 
10.8012 0.451822 0.0619194 
0.451822 11.1986 -0.0796606 
0.0619194 -0.0796606 11.1398 
11.9022 0.44264 0.101549 
0.44264 12.4696 -0.0748575 
0.101549 -0.0748575 13.6829 
12.6454 1.63401 0.585431 
1.63401 9.32111 -1.0589 
0.585431 -1.0589 16.0881 
11.9365 -1.11535 0.0986077 
-1.11535 11.3401 0.121241 
0.0986077 0.121241 14.7781 
12.2162 0.485402 -0.289769 
0.485402 12.3147 0.396029 
-0.289769 0.396029 13.5237 
9.53746 -0.119117 0.102755 
-0.119117 9.44715 0.127111 
0.102755 0.127111 10.4256 
9.65544 0.0524732 0.0571224 
0.0524732 9.63163 -0.0785245 
0.0571224 -0.0785245 10.1232 
9.60369 -0.106574 0.17012 
-0.106574 9.69258 0.240237 
0.17012 0.240237 10.114 
9.61412 -0.144593 0.0876744 
-0.144593 9.62685 0.158166 
0.0876744 0.158166 10.1693 
9.72424 0.00342927 0.331321 
0.00342927 9.63068 0.0506818 
0.331321 0.0506818 9.67598 
9.67077 -0.0080876 0.348192 
-0.0080876 9.69408 0.0402476 
0.348192 0.0402476 9.66605 
9.673 -0.00479105 0.349809 
-0.00479105 9.68328 0.0293413 
0.349809 0.0293413 9.67462 
9.6819 -0.0136425 0.35774 
-0.0136425 9.68625 0.040304 
0.35774 0.040304 9.66275 
9.88376 -0.00521302 0.153664 
-0.00521302 9.87689 0.115782 
0.153664 0.115782 9.8365 
9.84448 -0.00650321 0.157499 
-0.00650321 9.87955 0.151684 
0.157499 0.151684 9.87313 
9.85775 0.00757861 0.171649 
0.00757861 9.89568 0.146755 
0.171649 0.146755 9.84372 
9.85346 -0.00423648 0.162099 
-0.00423648 9.87589 0.126329 
0.162099 0.126329 9.86779 
9.5864 -0.0358548 0.263398 
-0.0358548 9.62923 0.229526 
0.263398 0.229526 9.63486 
9.6196 0.0344432 0.252527 
0.0344432 9.61828 0.226667 
0.252527 0.226667 9.61262 
9.60024 -0.01179 0.256369 
-0.01179 9.61474 0.250568 
0.256369 0.250568 9.63551 
9.59975 0.00116547 0.2899 
0.00116547 9.6287 0.2497 
0.2899 0.2497 9.62205 
9.62057 -0.054268 0.0958383 
-0.054268 9.68911 -0.14624 
0.0958383 -0.14624 9.55629 
9.62507 -0.163859 0.029696 
-0.163859 9.79702 -0.136079 
0.029696 -0.136079 9.44389 
9.58538 -0.0408451 0.0833263 
-0.0408451 9.76111 -0.174765 
0.0833263 -0.174765 9.51948 
9.57773 -0.0699475 0.0189319 
-0.0699475 9.70336 -0.146654 
0.0189319 -0.146654 9.58488 
9.52516 -0.0272169 0.251433 
-0.0272169 9.55503 0.0123859 
0.251433 0.0123859 9.77245 
9.44435 -0.150944 0.188825 
-0.150944 9.65217 0.194599 
0.188825 0.194599 9.75612 
9.4053 -0.180973 0.392621 
-0.180973 9.54693 -0.0900141 
0.392621 -0.0900141 9.9004 
9.60429 -0.0772039 0.358805 
-0.0772039 9.56232 0.325462 
0.358805 0.325462 9.68603 
7.98693 1.19763 -1.94186 
1.19763 4.13324 0.0320025 
-1.94186 0.0320025 -2.98641 
5.95227 -1.06604 0.106591 
-1.06604 4.65483 -0.634611 
0.106591 -0.634611 -1.47335 
0.452457 -0.115615 1.76058 
-0.115615 2.57677 -0.402359 
1.76058 -0.402359 6.10453 
7.43224 -0.758702 3.39864 
-0.758702 3.27557 0.719073 
3.39864 0.719073 -1.57405 
10.0268 0.0164885 -0.00745116 
0.0164885 10.1099 0.00937777 
-0.00745116 0.00937777 10.0174 
10.1426 -0.0127929 0.0185738 
-0.0127929 10.0535 0.0119656 
0.0185738 0.0119656 9.95814 
10.1166 -0.00445252 0.0403384 
-0.00445252 10.0517 0.033113 
0.0403384 0.033113 9.98586 
10.0278 -0.0160333 0.0682975 
-0.0160333 10.1995 0.102085 
0.0682975 0.102085 9.92683 
9.82019 -0.0207054 -0.0519628 
-0.0207054 9.7053 -0.29476 
-0.0519628 -0.29476 9.7703 
9.78296 -0.00611193 -0.0798484 
-0.00611193 9.76682 -0.311083 
-0.0798484 -0.311083 9.746 
9.7211 0.0223235 -0.0705284 
0.0223235 9.82144 -0.30616 
-0.0705284 -0.30616 9.75325 
9.78505 0.0205981 -0.0715559 
0.0205981 9.76177 -0.346179 
-0.0715559 -0.346179 9.74897 
3.14091 -1.27515 1.47697 
-1.27515 3.66097 0.308785 
1.47697 0.308785 2.57192 
4.14591 0.875307 1.14223 
0.875307 3.81291 0.870166 
1.14223 0.870166 1.41496 
5.20819 0.674629 0.463595 
0.674629 3.7143 -0.63523 
0.463595 -0.63523 0.451311 
3.57163 0.841054 1.96196 
0.841054 3.13377 0.591139 
1.96196 0.591139 2.66839 
9.56362 0.0373412 0.0997098 
0.0373412 9.76045 -0.0702763 
0.0997098 -0.0702763 9.86389 
9.22869 -0.0188568 0.207531 
-0.0188568 9.53896 0.117624 
0.207531 0.117624 10.4203 
9.57558 0.0571973 0.241258 
0.0571973 9.81578 -0.109021 
0.241258 -0.109021 9.7966 
9.56918 0.0117028 0.0787746 
0.0117028 9.80568 -0.000867512 
0.0787746 -0.000867512 9.81309 
10.9817 0.53845 -1.65037 
0.53845 10.0319 -0.643524 
-1.65037 -0.643524 6.74737 
10.9989 0.566416 -1.34857 
0.566416 10.2851 -0.705715 
-1.34857 -0.705715 6.47704 
9.95691 0.0119887 -1.83824 
0.0119887 10.2896 -0.648801 
-1.83824 -0.648801 7.51453 
10.9354 0.364694 -1.50402 
0.364694 10.6161 -0.163588 
-1.50402 -0.163588 6.20957 
9.69364 0.155351 0.169568 
0.155351 9.62487 -0.135115 
0.169568 -0.135115 9.86146 
9.61744 0.156626 0.245004 
0.156626 9.69262 -0.160904 
0.245004 -0.160904 9.8699 
9.66756 0.00100578 0.172651 
0.00100578 9.72161 -0.111276 
0.172651 -0.111276 9.79078 
9.56467 0.111879 0.12741 
0.111879 9.82538 -0.0855822 
0.12741 -0.0855822 9.78991 
9.73115 0.302121 0.0785008 
0.302121 9.67912 0.26628 
0.0785008 0.26628 10.088 
10.1042 0.288305 0.0974145 
0.288305 9.42662 0.139639 
0.0974145 0.139639 9.96746 
9.55414 0.0218343 -0.0253252 
0.0218343 10.0033 -0.331097 
-0.0253252 -0.331097 9.94083 
10.0414 0.328781 0.0362817 
0.328781 9.14652 0.0326211 
0.0362817 0.0326211 10.3104 
5.91146 -1.81332 -0.548833 
-1.81332 7.06275 -0.348702 
-0.548833 -0.348702 1.47016 
6.41748 -1.57237 -0.765063 
-1.57237 7.37757 -0.0681028 
-0.765063 -0.0681028 0.649312 
7.58073 1.76996 0.783671 
1.76996 7.40975 -1.84272 
0.783671 -1.84272 -0.546112 
6.26338 1.29661 -2.79879 
1.29661 4.92708 1.05513 
-2.79879 1.05513 3.25391 
9.87994 -0.0567511 0.0369387 
-0.0567511 9.62484 0.0179607 
0.0369387 0.0179607 9.75878 
9.84467 -0.0519087 0.165531 
-0.0519087 9.60038 0.205747 
0.165531 0.205747 9.81851 
9.58704 -0.0374087 -0.132529 
-0.0374087 9.28888 0.234335 
-0.132529 0.234335 10.3876 
9.69438 -0.0590658 0.0575105 
-0.0590658 9.67238 0.0743517 
0.0575105 0.0743517 9.8968 
9.69391 -0.177519 0.10725 
-0.177519 9.64247 0.327173 
0.10725 0.327173 9.79972 
9.53763 -0.412715 0.168131 
-0.412715 9.53336 0.26171 
0.168131 0.26171 10.0651 
9.6877 -0.0257987 0.275375 
-0.0257987 9.71274 0.356394 
0.275375 0.356394 9.73566 
9.80939 0.047146 0.142367 
0.047146 9.61013 0.0569015 
0.142367 0.0569015 9.71658 
8.72189 0.782933 0.499624 
0.782933 10.7743 -0.627657 
0.499624 -0.627657 11.7824 
8.84133 0.928861 1.8324 
0.928861 10.542 0.218711 
1.8324 0.218711 11.8952 
9.53803 0.495911 0.82325 
0.495911 10.4998 -1.07143 
0.82325 -1.07143 11.2407 
10.7247 0.890614 1.87765 
0.890614 9.67327 0.924533 
1.87765 0.924533 10.8806 
9.56095 -0.282426 0.509486 
-0.282426 11.2103 -0.731913 
0.509486 -0.731913 12.7104 
10.8491 -0.11413 -0.192587 
-0.11413 11.0076 0.0849086 
-0.192587 0.0849086 11.625 
11.6832 -0.247392 0.318471 
-0.247392 10.0933 -0.44122 
0.318471 -0.44122 11.7052 
11.2649 -0.466327 -0.135037 
-0.466327 10.0651 0.108548 
-0.135037 0.108548 12.1516 
10.2709 -0.210226 0.066554 
-0.210226 10.0636 -0.337917 
0.066554 -0.337917 9.83433 
9.57206 0.183031 -0.186954 
0.183031 9.85469 0.182401 
-0.186954 0.182401 10.7421 
10.2179 0.102085 0.09483 
0.102085 9.80091 -0.208852 
0.09483 -0.208852 10.15 
10.1288 0.0499854 0.105835 
0.0499854 9.89717 -0.21628 
0.105835 -0.21628 10.1428 
9.57159 0.0271609 -0.164545 
0.0271609 9.58001 -0.27668 
-0.164545 -0.27668 9.54408 
9.59352 -0.0657669 -0.15433 
-0.0657669 9.4339 -0.281709 
-0.15433 -0.281709 9.66827 
9.57997 0.0216644 -0.159394 
0.0216644 9.53014 -0.313503 
-0.159394 -0.313503 9.58558 
9.55002 -0.0136493 -0.171539 
-0.0136493 9.54001 -0.364495 
-0.171539 -0.364495 9.60566 
10.105 -0.146752 0.0717063 
-0.146752 9.51733 0.218812 
0.0717063 0.218812 11.045 
10.7362 0.204893 0.104446 
0.204893 9.56021 0.323256 
0.104446 0.323256 10.3708 
10.0732 -0.372856 0.0198708 
-0.372856 9.70139 0.248408 
0.0198708 0.248408 10.8926 
9.8154 -0.493502 0.37788 
-0.493502 9.88845 0.531208 
0.37788 0.531208 10.9634 
9.77507 0.00262557 0.310852 
0.00262557 9.7873 -0.0909054 
0.310852 -0.0909054 9.75668 
9.79932 -0.00343357 0.310922 
-0.00343357 9.74275 -0.0833635 
0.310922 -0.0833635 9.77698 
9.74853 0.00147932 0.305536 
0.00147932 9.80248 -0.0695363 
0.305536 -0.0695363 9.76803 
9.78535 -0.00912953 0.325534 
-0.00912953 9.77548 -0.0775951 
0.325534 -0.0775951 9.75822 
9.42846 -0.17043 0.295416 
-0.17043 9.45899 0.00112825 
0.295416 0.00112825 10.3485 
9.74227 -0.14046 0.086064 
-0.14046 9.6765 0.23751 
0.086064 0.23751 9.81723 
9.76077 -0.158936 0.0144926 
-0.158936 9.70029 0.036055 
0.0144926 0.036055 9.77494 
9.72765 -0.0293417 0.0322028 
-0.0293417 9.62303 0.0532402 
0.0322028 0.0532402 9.88531 
9.7519 0.11402 0.327955 
0.11402 8.94775 -1.28426 
0.327955 -1.28426 9.38453 
9.23554 0.380635 0.82543 
0.380635 9.98796 -1.5863 
0.82543 -1.5863 8.86067 
9.37146 -0.461361 0.284764 
-0.461361 9.81829 -1.49225 
0.284764 -1.49225 8.89442 
10.0525 0.71439 0.942735 
0.71439 9.07618 -1.71272 
0.942735 -1.71272 8.95545 
11.3014 1.26503 -0.775304 
1.26503 11.7802 0.407222 
-0.775304 0.407222 11.4926 
11.8576 1.31164 -0.432657 
1.31164 9.12823 1.5399 
-0.432657 1.5399 13.5885 
11.107 0.810456 -0.687877 
0.810456 9.97 1.12187 
-0.687877 1.12187 13.4973 
11.5797 0.728587 -0.533695 
0.728587 10.1758 0.551084 
-0.533695 0.551084 12.8187 
10.6211 -0.113892 1.09933 
-0.113892 12.9558 -0.485468 
1.09933 -0.485468 11.2211 
9.27223 -0.392143 1.58675 
-0.392143 10.8321 0.590105 
1.58675 0.590105 14.6937 
9.9628 -0.99608 1.06275 
-0.99608 12.0062 0.144025 
1.06275 0.144025 12.829 
10.1354 -0.492836 0.297523 
-0.492836 11.8418 0.136556 
0.297523 0.136556 12.8208 
9.57717 -0.10993 0.140458 
-0.10993 9.90742 -0.161609 
0.140458 -0.161609 10.069 
10.0832 0.0570774 -0.110672 
0.0570774 9.83158 0.0946021 
-0.110672 0.0946021 9.63882 
9.85525 0.0549499 -0.06309 
0.0549499 9.7989 -0.0403423 
-0.06309 -0.0403423 9.89948 
9.76159 0.14347 -0.136854 
0.14347 9.80158 -0.0336672 
-0.136854 -0.0336672 9.99046 
9.64154 0.0102746 0.246994 
0.0102746 9.53461 -0.0746714 
0.246994 -0.0746714 9.57466 
9.5038 0.0612084 0.347693 
0.0612084 9.56559 -0.0673901 
0.347693 -0.0673901 9.68142 
9.61098 0.0550184 0.263198 
0.0550184 9.59869 -0.0577517 
0.263198 -0.0577517 9.54115 
9.58163 0.0723436 0.280686 
0.0723436 9.54966 -0.0845418 
0.280686 -0.0845418 9.61952 
10.1735 0.00032151 0.0188323 
0.00032151 10.1704 -0.00347383 
0.0188323 -0.00347383 9.97953 
10.1742 -0.00247774 0.00387258 
-0.00247774 10.1717 -0.0186391 
0.00387258 -0.0186391 9.97757 
10.1747 -0.000880821 -0.00192569 
-0.000880821 10.1694 0.00246226 
-0.00192569 0.00246226 9.97936 
10.1882 -0.00214611 0.0122863 
-0.00214611 10.1835 -0.0102183 
0.0122863 -0.0102183 9.9517 
9.90936 -0.000812921 0.0227638 
-0.000812921 10.0944 0.0473489 
0.0227638 0.0473489 10.0137 
10.0825 0.00888585 -0.0203902 
0.00888585 10.0026 -0.01152 
-0.0203902 -0.01152 9.93233 
9.79287 0.0276757 -0.110032 
0.0276757 10.109 0.0272463 
-0.110032 0.0272463 10.1155 
9.99426 -0.012826 0.00206014 
-0.012826 9.97935 -0.0271269 
0.00206014 -0.0271269 10.0438 
10.1685 -0.00419185 0.0380856 
-0.00419185 10.1458 0.00748528 
0.0380856 0.00748528 9.89903 
10.1028 0.0102813 0.0133484 
0.0102813 10.0622 -0.0108469 
0.0133484 -0.0108469 10.0483 
10.1104 -0.00182888 0.0224055 
-0.00182888 10.121 0.0374907 
0.0224055 0.0374907 9.98192 
10.1567 -0.00243431 0.0761609 
-0.00243431 10.1177 0.0423388 
0.0761609 0.0423388 9.93892 
9.68078 0.120627 0.338532 
0.120627 9.66919 -0.271492 
0.338532 -0.271492 9.7767 
9.62897 0.159812 0.311289 
0.159812 9.64322 -0.153147 
0.311289 -0.153147 9.85447 
9.57412 0.203159 0.329757 
0.203159 9.57658 -0.170424 
0.329757 -0.170424 9.97597 
9.58236 -0.0516407 0.0870241 
-0.0516407 9.80109 -0.147137 
0.0870241 -0.147137 9.74321 
9.93781 -0.0276263 -0.113724 
-0.0276263 10.121 0.0150554 
-0.113724 0.0150554 10.0603 
10.1814 -0.0648581 0.0434631 
-0.0648581 9.79707 0.148118 
0.0434631 0.148118 10.1407 
10.0483 -0.0397583 -0.00365883 
-0.0397583 10.1565 0.0386856 
-0.00365883 0.0386856 9.91433 
10.2301 -0.024283 0.0911683 
-0.024283 9.91551 -0.00528591 
0.0911683 -0.00528591 9.97351 
9.78454 0.0539138 -0.0199305 
0.0539138 9.53033 0.111622 
-0.0199305 0.111622 9.87529 
9.80127 -0.0332198 0.0677451 
-0.0332198 9.54866 0.0658538 
0.0677451 0.0658538 9.84022 
9.80721 -0.0918608 0.127443 
-0.0918608 9.6046 0.23279 
0.127443 0.23279 9.77835 
9.58465 0.0180349 -0.110072 
0.0180349 9.21421 0.202178 
-0.110072 0.202178 10.3913 
9.74691 -0.00325779 0.0143638 
-0.00325779 9.72067 0.0352513 
0.0143638 0.0352513 9.89657 
9.69745 -0.0171083 0.0292137 
-0.0171083 10.0496 -0.0345756 
0.0292137 -0.0345756 9.61714 
9.92506 -0.0298455 -0.00087567 
-0.0298455 9.53476 -0.125678 
-0.00087567 -0.125678 9.90433 
9.89722 0.0597459 -0.0784182 
0.0597459 9.62931 0.0163012 
-0.0784182 0.0163012 9.83761 
9.45936 -0.0379257 -0.349594 
-0.0379257 9.61442 -0.0339007 
-0.349594 -0.0339007 9.65071 
9.46762 -0.023247 -0.287997 
-0.023247 9.61536 -0.0481887 
-0.287997 -0.0481887 9.64151 
9.66896 0.0313766 -0.225182 
0.0313766 9.48756 -0.0895077 
-0.225182 -0.0895077 9.56797 
9.48026 0.0646412 -0.329565 
0.0646412 9.59216 -0.00995155 
-0.329565 -0.00995155 9.65207 
9.84148 -0.0293113 0.00136987 
-0.0293113 9.73156 0.0691426 
0.00136987 0.0691426 9.99809 
9.80701 0.094992 -0.135011 
0.094992 9.99562 -0.025594 
-0.135011 -0.025594 9.7685 
9.77539 0.0297122 -0.0398788 
0.0297122 9.89312 -0.0278406 
-0.0398788 -0.0278406 9.90262 
9.74223 -0.0293913 -0.0374863 
-0.0293913 9.86511 -0.0378325 
-0.0374863 -0.0378325 9.96378 
9.8641 0.00715529 -0.100725 
0.00715529 9.91937 -0.0262221 
-0.100725 -0.0262221 9.92446 
9.86355 -0.0410597 -0.0668174 
-0.0410597 9.89395 -0.0727842 
-0.0668174 -0.0727842 9.95043 
9.76881 -0.0683163 -0.0129108 
-0.0683163 9.80284 -0.0321507 
-0.0129108 -0.0321507 10.1363 
9.74095 -0.0824767 -0.0918938 
-0.0824767 9.878 -0.0848254 
-0.0918938 -0.0848254 10.089 
9.59177 0.0114663 -0.324637 
0.0114663 9.63333 -0.00945268 
-0.324637 -0.00945268 9.7024 
9.60639 -0.0126251 -0.322822 
-0.0126251 9.66629 -0.0268692 
-0.322822 -0.0268692 9.65483 
9.66791 -0.000132809 -0.373626 
-0.000132809 9.66328 -0.0274659 
-0.373626 -0.0274659 9.59631 
9.65009 0.018951 -0.351595 
0.018951 9.65036 -0.044984 
-0.351595 -0.044984 9.62706 
13.2383 -1.49581 -0.950612 
-1.49581 12.3337 0.54622 
-0.950612 0.54622 11.7979 
12.2581 -0.738216 0.190727 
-0.738216 10.8388 0.217525 
0.190727 0.217525 14.273 
11.7632 -1.30336 -0.0879872 
-1.30336 10.8704 -0.718491 
-0.0879872 -0.718491 14.7363 
14.2313 -1.99131 0.306816 
-1.99131 11.6042 0.0322892 
0.306816 0.0322892 11.5344 
10.1264 0.0153965 0.00850493 
0.0153965 10.0948 -0.000379428 
0.00850493 -0.000379428 10.0139 
10.1437 0.00646613 0.000188027 
0.00646613 10.1511 -0.0361726 
0.000188027 -0.0361726 9.94035 
10.1402 0.00857186 -0.00737209 
0.00857186 10.1193 -0.037417 
-0.00737209 -0.037417 9.97564 
10.1589 0.000795787 0.00543335 
0.000795787 10.1204 -0.05108 
0.00543335 -0.05108 9.95572 
9.54045 -0.0764374 0.109782 
-0.0764374 9.63956 -0.266227 
0.109782 -0.266227 9.40903 
9.51553 0.147821 0.0529464 
0.147821 9.34225 -0.131184 
0.0529464 -0.131184 9.73125 
9.43082 -0.0105309 0.0289367 
-0.0105309 9.69932 -0.323072 
0.0289367 -0.323072 9.4589 
9.45098 0.0553144 0.170694 
0.0553144 9.4336 -0.292406 
0.170694 -0.292406 9.70446 
9.69527 -0.0806793 0.0600936 
-0.0806793 9.69143 0.00861637 
0.0600936 0.00861637 10.1131 
9.77096 0.0113423 0.171275 
0.0113423 9.64561 0.124608 
0.171275 0.124608 10.0833 
9.6828 0.00713406 -0.0460591 
0.00713406 9.71802 0.0290007 
-0.0460591 0.0290007 10.099 
9.50874 -0.119258 0.164597 
-0.119258 9.74028 0.0704203 
0.164597 0.0704203 10.2508 
9.89695 -0.0642616 -0.0109614 
-0.0642616 9.16541 -0.291501 
-0.0109614 -0.291501 10.0543 
9.66961 -0.161296 0.0637996 
-0.161296 9.60207 -0.248872 
0.0637996 -0.248872 9.84493 
9.92901 -0.0507885 -0.116898 
-0.0507885 9.41832 -0.273147 
-0.116898 -0.273147 9.76928 
9.60248 0.016413 -0.0685258 
0.016413 9.72159 -0.381005 
-0.0685258 -0.381005 9.79254 
9.56609 0.0950976 0.309289 
0.0950976 9.79154 -0.214298 
0.309289 -0.214298 9.76906 
9.66264 -0.0238408 0.465466 
-0.0238408 9.70991 -0.16122 
0.465466 -0.16122 9.75413 
9.16061 0.121154 0.283671 
0.121154 9.92377 -0.108625 
0.283671 -0.108625 10.0423 
9.91563 0.078974 0.11002 
0.078974 9.51957 0.0313727 
0.11002 0.0313727 9.69149 
9.95957 0.0517042 0.0293933 
0.0517042 9.99885 0.0428337 
0.0293933 0.0428337 10.0733 
10.1773 -0.00245069 -0.0196857 
-0.00245069 9.93766 -0.00557704 
-0.0196857 -0.00557704 9.91676 
9.72965 -0.0262454 -0.133432 
-0.0262454 10.1492 -0.0183262 
-0.133432 -0.0183262 10.1529 
9.89316 0.0133323 0.0319001 
0.0133323 10.1034 -0.0391045 
0.0319001 -0.0391045 10.0352 
9.74691 0.078649 0.0500564 
0.078649 9.57437 -0.175939 
0.0500564 -0.175939 9.96517 
9.65779 -0.0916194 0.0816911 
-0.0916194 9.77336 -0.110049 
0.0816911 -0.110049 9.8553 
9.76262 0.0290515 0.0566737 
0.0290515 9.68327 -0.0994893 
0.0566737 -0.0994893 9.84056 
9.63994 0.0265703 0.0201645 
0.0265703 9.7443 -0.0627843 
0.0201645 -0.0627843 9.90222 
13.8507 2.12734 2.16374 
2.12734 15.2227 4.86255 
2.16374 4.86255 -8.86827 
9.13463 0.999943 5.47883 
0.999943 17.4701 3.21474 
5.47883 3.21474 -6.39964 
0.594531 2.35837 -3.40688 
2.35837 -1.51272 -4.73938 
-3.40688 -4.73938 21.1233 
6.80982 -9.31592 6.0238 
-9.31592 -1.82996 15.1461 
6.0238 15.1461 15.2252 
9.74328 -0.0203441 -0.0466697 
-0.0203441 9.88965 0.0111855 
-0.0466697 0.0111855 10.1416 
9.90898 -0.0283938 -0.0285338 
-0.0283938 9.99375 -0.0301174 
-0.0285338 -0.0301174 9.87178 
9.94207 -0.00619225 -0.0403476 
-0.00619225 9.90342 -0.0254389 
-0.0403476 -0.0254389 9.92902 
9.90751 -0.0382453 -0.067584 
-0.0382453 9.99533 -0.0760293 
-0.067584 -0.0760293 9.87167 
9.52477 0.014486 0.190508 
0.014486 9.86724 -0.460227 
0.190508 -0.460227 9.783 
10.0361 -0.0598101 -0.0723324 
-0.0598101 9.42276 -0.28234 
-0.0723324 -0.28234 9.71616 
9.86361 -0.067926 -0.0625634 
-0.067926 9.20645 -0.300003 
-0.0625634 -0.300003 10.105 
9.64613 0.244922 -0.0219908 
0.244922 9.72272 -0.169873 
-0.0219908 -0.169873 9.80617 
10.1683 -0.00512517 0.00343771 
-0.00512517 10.1504 -0.0300004 
0.00343771 -0.0300004 9.93925 
10.146 -2.64248e-05 -0.00469212 
-2.64248e-05 10.126 -0.0323181 
-0.00469212 -0.0323181 9.98596 
10.1258 -0.00665728 0.0113312 
-0.00665728 10.1022 0.000270294 
0.0113312 0.000270294 10.03 
10.1661 -0.0115597 0.0132813 
-0.0115597 10.1253 -0.0542321 
0.0132813 -0.0542321 9.96648 
9.68405 -0.0159022 -0.260805 
-0.0159022 9.68591 0.216101 
-0.260805 0.216101 9.68885 
9.68319 -0.000250615 -0.267422 
-0.000250615 9.70305 0.190304 
-0.267422 0.190304 9.67257 
9.70412 -0.00640454 -0.26479 
-0.00640454 9.71604 0.211374 
-0.26479 0.211374 9.63864 
9.68669 -0.000467818 -0.260661 
-0.000467818 9.70154 0.19693 
-0.260661 0.19693 9.67058 
9.91319 -0.0490438 0.0505554 
-0.0490438 9.68667 0.041261 
0.0505554 0.041261 9.83753 
9.78803 -0.000838441 0.0098836 
-0.000838441 9.88433 0.00551422 
0.0098836 0.00551422 9.76502 
9.9567 0.0215571 -0.00344736 
0.0215571 9.57271 -0.0821496 
-0.00344736 -0.0821496 9.90797 
9.72334 -0.00115128 -0.0399468 
-0.00115128 9.81072 0.0289275 
-0.0399468 0.0289275 9.90333 
7.82065 0.413152 -2.91986 
0.413152 8.78724 -1.69986 
-2.91986 -1.69986 3.79865 
8.78084 -1.28834 -2.38588 
-1.28834 6.18297 -1.70967 
-2.38588 -1.70967 5.44272 
6.49404 -0.0106427 -2.25296 
-0.0106427 7.95875 -3.28409 
-2.25296 -3.28409 5.95375 
7.9335 -0.24362 -2.53642 
-0.24362 7.68098 -2.01017 
-2.53642 -2.01017 4.79205 
0.503928 -0.222233 -0.170075 
-0.222233 1.45989 -0.226604 
-0.170075 -0.226604 9.08718 
6.20383 -0.204887 1.06903 
-0.204887 6.0818 0.598981 
1.06903 0.598981 -1.23463 
11.4677 -2.5231 -1.1681 
-2.5231 6.08137 -0.0120395 
-1.1681 -0.0120395 -6.49801 
5.65389 0.307164 7.06582 
0.307164 5.1753 -1.57603 
7.06582 -1.57603 0.221816 
10.0521 -0.0148414 -0.00727377 
-0.0148414 10.0473 -0.0494714 
-0.00727377 -0.0494714 9.91167 
9.9523 -0.0590645 -0.035674 
-0.0590645 9.94642 -0.0248995 
-0.035674 -0.0248995 10.1123 
10.0302 -0.0357693 -0.0199728 
-0.0357693 10.0274 -0.0586063 
-0.0199728 -0.0586063 9.95341 
10.0806 -0.0222213 -0.0436553 
-0.0222213 10.0107 -0.123605 
-0.0436553 -0.123605 9.91981 
9.66471 -0.0109332 -0.182595 
-0.0109332 9.6368 -0.280263 
-0.182595 -0.280263 9.64639 
9.67645 0.00462421 -0.223476 
0.00462421 9.67673 -0.290094 
-0.223476 -0.290094 9.59472 
9.61203 -0.0249319 -0.212683 
-0.0249319 9.62287 -0.259226 
-0.212683 -0.259226 9.713 
9.65652 0.00290186 -0.189773 
0.00290186 9.66046 -0.281148 
-0.189773 -0.281148 9.63092 
9.97579 -0.044677 -0.0326463 
-0.044677 9.86789 -0.0645646 
-0.0326463 -0.0645646 9.92782 
9.90072 0.0207275 -0.0347116 
0.0207275 9.88986 -0.0714476 
-0.0347116 -0.0714476 9.98091 
9.93583 -0.156318 -0.0548961 
-0.156318 9.7905 -0.141459 
-0.0548961 -0.141459 10.0452 
9.93308 0.0606843 -0.0826993 
0.0606843 9.9442 -0.158882 
-0.0826993 -0.158882 9.89421 
9.49833 0.0551242 0.00137477 
0.0551242 9.92175 -0.0999941 
0.00137477 -0.0999941 9.61155 
9.74667 -0.14114 -0.185692 
-0.14114 9.40772 -0.203102 
-0.185692 -0.203102 9.87723 
9.73224 -0.131667 -0.0961344 
-0.131667 9.34898 -0.115704 
-0.0961344 -0.115704 9.9504 
9.48014 -0.297257 -0.123332 
-0.297257 9.59207 -0.0875022 
-0.123332 -0.0875022 9.95942 
9.73433 0.298954 0.142006 
0.298954 9.65067 -0.0207561 
0.142006 -0.0207561 9.76457 
9.17007 -0.101539 0.286486 
-0.101539 9.85165 0.0741525 
0.286486 0.0741525 10.1278 
9.92454 0.0544651 0.517766 
0.0544651 9.47243 -0.23925 
0.517766 -0.23925 9.7526 
9.45753 -0.0639488 0.309172 
-0.0639488 9.9918 0.0745239 
0.309172 0.0745239 9.70024 
9.77131 0.00910225 0.316221 
0.00910225 9.76767 -0.0793129 
0.316221 -0.0793129 9.75685 
9.80533 -0.0176935 0.30861 
-0.0176935 9.74521 -0.0858744 
0.30861 -0.0858744 9.7453 
9.74553 0.00548898 0.310234 
0.00548898 9.77876 -0.0836177 
0.310234 -0.0836177 9.77153 
9.77911 0.00754123 0.328773 
0.00754123 9.75992 -0.0845089 
0.328773 -0.0845089 9.7568 
10.1018 -0.00843929 -0.0171845 
-0.00843929 10.0707 0.0147031 
-0.0171845 0.0147031 10.0211 
10.1489 -0.00681901 0.00529252 
-0.00681901 10.1337 0.0334543 
0.00529252 0.0334543 9.91108 
10.1225 5.84882e-05 0.0317758 
5.84882e-05 10.0758 0.0153466 
0.0317758 0.0153466 9.99529 
10.1269 0.003596 0.0195802 
0.003596 10.1247 0.0676894 
0.0195802 0.0676894 9.942 
9.59757 0.00826207 -0.0524862 
0.00826207 9.64536 -0.0663021 
-0.0524862 -0.0663021 9.78106 
9.41827 -0.0491895 -0.195959 
-0.0491895 9.63366 -0.0528895 
-0.195959 -0.0528895 9.97206 
9.8095 0.160355 -0.0663327 
0.160355 9.53777 -0.0274579 
-0.0663327 -0.0274579 9.67671 
9.63567 -0.00815839 0.0173025 
-0.00815839 9.5086 -0.0737921 
0.0173025 -0.0737921 9.87972 
10.1104 2.54219 -1.75725 
2.54219 12.5491 0.49058 
-1.75725 0.49058 12.8912 
4.86066 3.29755 1.58593 
3.29755 9.14979 0.370843 
1.58593 0.370843 21.5403 
1.55841 2.94265 1.12835 
2.94265 11.7957 -1.50036 
1.12835 -1.50036 22.1966 
9.859 0.495017 2.16434 
0.495017 11.1683 -1.09542 
2.16434 -1.09542 14.5234 
9.69064 -0.0241064 0.225176 
-0.0241064 9.4489 -0.00204851 
0.225176 -0.00204851 9.4988 
9.29954 0.055586 0.312344 
0.055586 9.57759 0.0238597 
0.312344 0.0238597 9.76121 
8.9129 0.198209 0.191359 
0.198209 9.67433 0.0338511 
0.191359 0.0338511 10.0511 
9.39092 0.0271063 0.579599 
0.0271063 9.54663 -0.174542 
0.579599 -0.174542 9.70079 
9.62797 0.00129047 -0.10538 
0.00129047 9.63584 -0.312677 
-0.10538 -0.312677 9.65941 
9.63253 -0.008686 -0.090714 
-0.008686 9.65274 -0.308403 
-0.090714 -0.308403 9.63795 
9.66101 -0.0112246 -0.108948 
-0.0112246 9.64422 -0.30676 
-0.108948 -0.30676 9.61799 
9.64481 -0.0109234 -0.103783 
-0.0109234 9.64387 -0.316837 
-0.103783 -0.316837 9.63454 
9.70875 0.00888225 -0.0696396 
0.00888225 9.72301 -0.199585 
-0.0696396 -0.199585 9.72023 
9.71017 0.0371969 -0.100766 
0.0371969 9.77146 -0.223352 
-0.100766 -0.223352 9.67036 
9.70234 0.0575707 -0.079351 
0.0575707 9.76523 -0.212603 
-0.079351 -0.212603 9.68442 
9.70146 0.088808 -0.0694228 
0.088808 9.78383 -0.195145 
-0.0694228 -0.195145 9.6667 
10.1888 -0.000787338 -0.00409153 
-0.000787338 10.1765 0.0173408 
-0.00409153 0.0173408 9.98359 
10.1868 0.0042654 0.0176795 
0.0042654 10.1909 0.0115524 
0.0176795 0.0115524 9.97115 
10.1844 -0.00397988 0.0019317 
-0.00397988 10.1865 -0.00476646 
0.0019317 -0.00476646 9.97803 
10.1996 0.000441137 0.0112727 
0.000441137 10.1994 0.0121581 
0.0112727 0.0121581 9.94986 
9.6697 -0.00498435 -0.305924 
-0.00498435 9.64967 -0.0872124 
-0.305924 -0.0872124 9.67174 
9.652 -0.00400709 -0.327672 
-0.00400709 9.67549 -0.119026 
-0.327672 -0.119026 9.66361 
9.66878 -0.00636344 -0.306604 
-0.00636344 9.66612 -0.0917826 
-0.306604 -0.0917826 9.6562 
9.66685 0.0139373 -0.337203 
0.0139373 9.65994 -0.0885269 
-0.337203 -0.0885269 9.66432 
9.61747 0.0681069 -0.199409 
0.0681069 9.82962 0.150319 
-0.199409 0.150319 9.8265 
9.70551 0.0505551 -0.0624981 
0.0505551 9.68439 0.0497407 
-0.0624981 0.0497407 9.8837 
9.29273 0.0235587 -0.244048 
0.0235587 9.606 -0.127093 
-0.244048 -0.127093 10.3749 
9.6365 0.0714689 -0.0308365 
0.0714689 9.87867 0.0447699 
-0.0308365 0.0447699 9.75842 
9.76433 -0.00551548 -0.256536 
-0.00551548 9.76096 -0.188579 
-0.256536 -0.188579 9.73487 
9.73099 -0.0165196 -0.261563 
-0.0165196 9.76031 -0.172251 
-0.261563 -0.172251 9.76886 
9.7711 0.0359059 -0.239415 
0.0359059 9.75422 -0.197502 
-0.239415 -0.197502 9.73484 
9.78397 -0.00661869 -0.270399 
-0.00661869 9.74051 -0.193981 
-0.270399 -0.193981 9.73568 
10.0274 -0.0310472 -0.0401975 
-0.0310472 9.97171 -0.0684371 
-0.0401975 -0.0684371 10.0109 
9.97113 -0.0525758 0.00918797 
-0.0525758 9.90854 -0.039493 
0.00918797 -0.039493 10.1303 
10.0731 -0.0225411 -0.0620652 
-0.0225411 10.0653 -0.0358364 
-0.0620652 -0.0358364 9.87152 
9.96833 -0.081402 -0.073234 
-0.081402 10.0097 -0.134121 
-0.073234 -0.134121 10.032 
9.67732 -0.123364 -0.0234468 
-0.123364 9.72557 0.143036 
-0.0234468 0.143036 9.6685 
9.72236 0.0832931 -0.0720812 
0.0832931 9.4029 0.153616 
-0.0720812 0.153616 9.94613 
9.72448 0.0721881 -0.173827 
0.0721881 9.51846 0.179618 
-0.173827 0.179618 9.82844 
9.57137 0.0341664 -0.0679487 
0.0341664 9.67225 0.123648 
-0.0679487 0.123648 9.82777 
10.1891 -0.00160104 0.00545179 
-0.00160104 10.1925 -0.0227026 
0.00545179 -0.0227026 9.97018 
10.1872 -0.00131345 -0.0120264 
-0.00131345 10.1853 -0.0180337 
-0.0120264 -0.0180337 9.97929 
10.1848 -0.000465063 0.00345118 
-0.000465063 10.1811 0.00133734 
0.00345118 0.00133734 9.98593 
10.1999 -0.00247568 0.0016732 
-0.00247568 10.1973 -0.022371 
0.0016732 -0.022371 9.95469 
8.85957 0.00749758 -1.532 
0.00749758 8.76457 -0.948669 
-1.532 -0.948669 4.9828 
8.58699 -0.157904 -1.45902 
-0.157904 8.33967 -1.04467 
-1.45902 -1.04467 5.68028 
9.01545 -0.0507071 -1.21249 
-0.0507071 8.35718 -0.631595 
-1.21249 -0.631595 5.23431 
7.66989 -0.180813 -2.09429 
-0.180813 8.47044 -0.359935 
-2.09429 -0.359935 6.46661 
3.84776 0.58983 -0.874862 
0.58983 3.28637 -0.494936 
-0.874862 -0.494936 2.54329 
2.46809 -0.514772 -0.5028 
-0.514772 5.34399 -1.10184 
-0.5028 -1.10184 1.86533 
6.20954 1.14464 0.459643 
1.14464 4.9747 -1.32221 
0.459643 -1.32221 -1.50683 
4.21252 0.700219 -1.70481 
0.700219 2.5966 -0.131024 
-1.70481 -0.131024 2.86828 
9.67346 -0.143803 -0.291216 
-0.143803 9.64077 -0.0150489 
-0.291216 -0.0150489 9.91289 
9.58914 0.0142295 -0.298926 
0.0142295 9.74843 -0.13481 
-0.298926 -0.13481 9.88956 
9.61884 0.00823347 -0.191057 
0.00823347 9.84596 -0.0860012 
-0.191057 -0.0860012 9.76232 
9.71792 -0.0935735 -0.293711 
-0.0935735 9.70159 -0.0588975 
-0.293711 -0.0588975 9.80762 
9.96456 0.0190699 -0.0351871 
0.0190699 10.0657 0.000516367 
-0.0351871 0.000516367 9.84424 
9.80184 0.0146923 -0.0770062 
0.0146923 9.97214 0.0454447 
-0.0770062 0.0454447 10.1006 
9.83272 0.0369835 -0.0916328 
0.0369835 9.97487 -0.0177311 
-0.0916328 -0.0177311 10.067 
9.93807 -0.00183485 -0.153787 
-0.00183485 9.98545 0.0120488 
-0.153787 0.0120488 9.95104 
5.18585 -0.122763 -0.39843 
-0.122763 5.03751 -0.88789 
-0.39843 -0.88789 0.402746 
3.11017 0.866043 -1.0527 
0.866043 3.67588 0.0878436 
-1.0527 0.0878436 3.84007 
6.78936 0.389595 -1.13533 
0.389595 4.41718 0.953204 
-1.13533 0.953204 -0.580439 
2.98266 -0.200482 0.363686 
-0.200482 3.72545 0.350503 
0.363686 0.350503 3.918 
10.0518 -0.126765 -0.0937582 
-0.126765 9.86738 0.00596652 
-0.0937582 0.00596652 10.058 
10.0567 -0.00404709 -0.0621511 
-0.00404709 9.96665 -0.172244 
-0.0621511 -0.172244 9.95379 
9.97948 0.0864581 -0.0344021 
0.0864581 10.082 -0.0764851 
-0.0344021 -0.0764851 9.9157 
10.0306 -0.015382 -0.0662398 
-0.015382 9.98054 -0.0906403 
-0.0662398 -0.0906403 9.96597 
9.68518 0.00413274 0.329417 
0.00413274 9.6733 0.094549 
0.329417 0.094549 9.66423 
9.68556 -0.00762543 0.337917 
-0.00762543 9.69236 0.0774653 
0.337917 0.0774653 9.6448 
9.6842 0.000154506 0.338465 
0.000154506 9.65249 0.0826875 
0.338465 0.0826875 9.68603 
9.68024 -0.00549002 0.335557 
-0.00549002 9.67349 0.0908517 
0.335557 0.0908517 9.66898 
10.117 -0.0174174 0.0189398 
-0.0174174 10.1067 -0.00485048 
0.0189398 -0.00485048 9.95687 
10.0787 -0.0242273 -0.0203926 
-0.0242273 10.0883 0.0104871 
-0.0203926 0.0104871 10.0136 
10.1217 0.00207963 0.00405669 
0.00207963 10.1167 0.0148697 
0.00405669 0.0148697 9.94228 
10.1241 -0.0144086 0.0168971 
-0.0144086 10.154 4.18642e-05 
0.0168971 4.18642e-05 9.90251 
9.5221 -0.111996 -0.203583 
-0.111996 9.39336 -0.190694 
-0.203583 -0.190694 9.76398 
9.55173 -0.0737291 -0.198306 
-0.0737291 9.46693 -0.253143 
-0.198306 -0.253143 9.66078 
9.58737 -0.0347207 -0.183212 
-0.0347207 9.45898 -0.228237 
-0.183212 -0.228237 9.63308 
9.62768 -0.0613667 -0.212439 
-0.0613667 9.44734 -0.293468 
-0.212439 -0.293468 9.60442 
10.0675 0.0359477 -0.0562188 
0.0359477 9.98011 0.0217835 
-0.0562188 0.0217835 9.80125 
9.89848 0.131442 -0.0158267 
0.131442 9.808 0.080038 
-0.0158267 0.080038 10.1424 
9.90953 0.0531648 -0.088585 
0.0531648 9.87461 0.0677293 
-0.088585 0.0677293 10.0648 
9.92435 0.0348977 -0.131644 
0.0348977 9.95596 0.15332 
-0.131644 0.15332 9.96859 
9.87074 -0.0626841 -0.125706 
-0.0626841 9.83939 0.0711023 
-0.125706 0.0711023 9.66117 
9.61845 0.130026 0.0286158 
0.130026 9.81484 -0.0289214 
0.0286158 -0.0289214 9.93801 
9.79248 -0.0683696 -0.0606624 
-0.0683696 9.89771 0.152765 
-0.0606624 0.152765 9.6811 
9.67361 0.0210732 -0.0818548 
0.0210732 9.77815 0.120163 
-0.0818548 0.120163 9.91954 
9.47549 0.0358135 0.0624457 
0.0358135 9.64169 -0.298016 
0.0624457 -0.298016 9.60503 
9.59417 0.0463974 0.0516539 
0.0463974 9.49018 -0.327321 
0.0516539 -0.327321 9.63786 
9.57493 0.0287607 0.0359206 
0.0287607 9.51642 -0.340926 
0.0359206 -0.340926 9.63086 
9.58084 0.0641121 0.0611753 
0.0641121 9.54743 -0.37052 
0.0611753 -0.37052 9.59393 
9.71102 0.00191472 -0.145118 
0.00191472 9.6879 -0.299828 
-0.145118 -0.299828 9.68215 
9.70419 0.00948633 -0.164116 
0.00948633 9.71174 -0.301285 
-0.164116 -0.301285 9.66514 
9.67815 0.0118736 -0.155099 
0.0118736 9.69035 -0.303755 
-0.155099 -0.303755 9.71256 
9.70307 0.00887256 -0.147046 
0.00887256 9.69323 -0.291876 
-0.147046 -0.291876 9.68475 
10.1426 0.00797966 -0.0175158 
0.00797966 10.1346 -0.00901706 
-0.0175158 -0.00901706 9.97636 
10.1074 0.0126543 0.00889457 
0.0126543 10.1264 -0.00487945 
0.00889457 -0.00487945 10.0198 
10.1498 0.0070049 0.00132258 
0.0070049 10.1651 -0.0273183 
0.00132258 -0.0273183 9.93863 
10.1484 0.00864013 -0.0107655 
0.00864013 10.1651 -0.0381122 
-0.0107655 -0.0381122 9.94007 
9.67026 0.20388 0.00993152 
0.20388 9.87745 -0.0120913 
0.00993152 -0.0120913 9.87298 
9.91422 0.0414283 0.107244 
0.0414283 9.39217 0.0827493 
0.107244 0.0827493 10.1143 
9.85224 0.060242 -0.14346 
0.060242 9.65281 -0.0663462 
-0.14346 -0.0663462 9.91564 
9.67981 0.194524 -0.177101 
0.194524 9.73183 -0.0336166 
-0.177101 -0.0336166 10.009 
9.69269 -0.0148294 -0.330838 
-0.0148294 9.67744 0.0830159 
-0.330838 0.0830159 9.72771 
9.73952 0.00692129 -0.329561 
0.00692129 9.71379 0.0663488 
-0.329561 0.0663488 9.64453 
9.71944 0.00603989 -0.310511 
0.00603989 9.70558 0.0720164 
-0.310511 0.0720164 9.67282 
9.72429 0.00192682 -0.323191 
0.00192682 9.69665 0.0771867 
-0.323191 0.0771867 9.67691 
9.79522 0.140485 -0.0662631 
0.140485 9.62507 -0.134684 
-0.0662631 -0.134684 9.91915 
9.69803 -0.022378 0.122505 
-0.022378 9.78149 -0.199604 
0.122505 -0.199604 9.85993 
9.75364 0.224889 -0.159032 
0.224889 9.66983 0.1295 
-0.159032 0.1295 9.91598 
9.55179 0.219337 0.116801 
0.219337 9.62877 -0.119172 
0.116801 -0.119172 10.1589 
9.38786 -0.0433463 -0.00534754 
-0.0433463 9.05237 -0.184899 
-0.00534754 -0.184899 10.5407 
9.86379 -0.231086 0.0237431 
-0.231086 9.75292 -0.0840147 
0.0237431 -0.0840147 9.3642 
9.61668 0.135887 -0.0942999 
0.135887 9.31612 -0.354977 
-0.0942999 -0.354977 10.0481 
9.78611 0.00027217 -0.0325383 
0.00027217 9.26941 -0.539107 
-0.0325383 -0.539107 9.92538 
10.0883 0.00725626 -0.00211375 
0.00725626 10.0958 -0.00898057 
-0.00211375 -0.00898057 10.0261 
10.1168 0.0127043 0.040747 
0.0127043 10.1187 0.00563222 
0.040747 0.00563222 9.97464 
10.1343 0.00861615 0.0387486 
0.00861615 10.1409 -0.00425521 
0.0387486 -0.00425521 9.9349 
10.1173 0.00400731 0.0569988 
0.00400731 10.1423 -0.0115198 
0.0569988 -0.0115198 9.95052 
9.63652 -0.0633985 -0.00837799 
-0.0633985 9.65625 0.0661094 
-0.00837799 0.0661094 9.67953 
9.58356 -0.10588 -0.0260725 
-0.10588 9.74104 0.0213885 
-0.0260725 0.0213885 9.64771 
9.61417 -0.0298627 -0.0477417 
-0.0298627 9.71856 0.0726064 
-0.0477417 0.0726064 9.63957 
9.60472 -0.0386378 -7.0769e-05 
-0.0386378 9.64952 0.0363061 
-7.0769e-05 0.0363061 9.71806 
9.06332 -0.374049 0.638055 
-0.374049 9.35057 0.807589 
0.638055 0.807589 9.5988 
9.27249 -0.398306 0.563411 
-0.398306 9.30817 0.781405 
0.563411 0.781405 9.43202 
9.17801 -0.412335 0.164493 
-0.412335 8.90204 0.804496 
0.164493 0.804496 9.93264 
9.56699 0.291726 0.983568 
0.291726 8.93067 -0.243867 
0.983568 -0.243867 9.51502 
9.79143 -0.0349849 -0.279919 
-0.0349849 9.36527 -0.106497 
-0.279919 -0.106497 9.33945 
9.50639 0.00562505 -0.350207 
0.00562505 9.46021 -0.153546 
-0.350207 -0.153546 9.52955 
9.35272 -0.164834 0.118228 
-0.164834 9.62009 0.22584 
0.118228 0.22584 9.52334 
9.65614 -0.090637 -0.301695 
-0.090637 9.73194 -0.0343134 
-0.301695 -0.0343134 9.10807 
10.0291 0.0866194 0.008878 
0.0866194 10.0256 0.0760513 
0.008878 0.0760513 9.97959 
10.0601 0.00449052 0.0955315 
0.00449052 9.96932 0.0029023 
0.0955315 0.0029023 10.0049 
10.1114 -0.0203255 0.0532118 
-0.0203255 9.87947 0.109392 
0.0532118 0.109392 10.0435 
10.1379 -0.0309377 0.001275 
-0.0309377 9.93033 0.00309723 
0.001275 0.00309723 9.96615 
9.6783 0.0851917 0.0318649 
0.0851917 9.57063 -0.183323 
0.0318649 -0.183323 9.80951 
9.64325 0.0864165 0.00225552 
0.0864165 9.5169 -0.180309 
0.00225552 -0.180309 9.89828 
9.72632 0.0524093 0.0443822 
0.0524093 9.48327 -0.194686 
0.0443822 -0.194686 9.84885 
9.70689 0.119935 0.046857 
0.119935 9.56591 -0.208195 
0.046857 -0.208195 9.78563 
10.2673 -0.652521 1.1477 
-0.652521 10.4923 0.116494 
1.1477 0.116494 8.21891 
10.6207 -0.29969 1.02739 
-0.29969 10.8674 0.849554 
1.02739 0.849554 7.49039 
9.60978 -0.345816 0.754075 
-0.345816 10.5476 -0.352333 
0.754075 -0.352333 8.82113 
10.0514 -0.617451 1.63556 
-0.617451 10.6908 0.355729 
1.63556 0.355729 8.23621 
9.9453 0.0212634 0.0504578 
0.0212634 9.80618 -0.0701807 
0.0504578 -0.0701807 10.0986 
10.0685 0.0158722 -0.000651858 
0.0158722 9.95793 -0.0395085 
-0.000651858 -0.0395085 9.82364 
9.96367 0.053602 -0.016573 
0.053602 9.81099 -0.087551 
-0.016573 -0.087551 10.0755 
9.96921 0.00108893 0.0244448 
0.00108893 9.92078 -0.166233 
0.0244448 -0.166233 9.96012 
9.87815 -0.00952422 -0.0650335 
-0.00952422 9.83986 -0.184102 
-0.0650335 -0.184102 9.86735 
9.84386 -0.0111339 -0.0655969 
-0.0111339 9.84027 -0.184406 
-0.0655969 -0.184406 9.90123 
9.85727 -0.0177161 -0.0456306 
-0.0177161 9.83763 -0.192889 
-0.0456306 -0.192889 9.89046 
9.85359 -0.0250365 -0.0544182 
-0.0250365 9.84726 -0.188355 
-0.0544182 -0.188355 9.88451 
10.4927 0.135006 -0.140812 
0.135006 10.6845 0.0346139 
-0.140812 0.0346139 12.0695 
10.7249 0.305755 0.228402 
0.305755 10.7762 -0.265523 
0.228402 -0.265523 11.7455 
11.2965 0.277027 0.0849094 
0.277027 11.1772 -0.131391 
0.0849094 -0.131391 10.773 
11.0434 0.45002 0.536816 
0.45002 11.1382 0.179546 
0.536816 0.179546 11.0651 
10.3198 -0.0327072 -0.0490205 
-0.0327072 10.245 0.0508877 
-0.0490205 0.0508877 10.1228 
10.0506 0.056558 0.0263086 
0.056558 10.3445 -0.00118346 
0.0263086 -0.00118346 10.2925 
10.1617 -0.0209991 -0.00335125 
-0.0209991 10.2717 0.042339 
-0.00335125 0.042339 10.2541 
10.1929 0.0794547 -0.0223395 
0.0794547 10.2454 0.0267566 
-0.0223395 0.0267566 10.2492 
10.2575 -0.0416441 -0.0635845 
-0.0416441 9.994 -0.013018 
-0.0635845 -0.013018 10.0273 
10.1718 0.0150779 -0.0575578 
0.0150779 10.1595 -0.0215398 
-0.0575578 -0.0215398 9.94756 
10.1705 -0.0441186 -0.00658741 
-0.0441186 10.072 -0.0168148 
-0.00658741 -0.0168148 10.0363 
9.9731 -0.0735953 0.0159654 
-0.0735953 9.89957 0.095095 
0.0159654 0.095095 10.4062 
10.3952 0.146914 0.188244 
0.146914 10.4659 0.0327194 
0.188244 0.0327194 9.82209 
10.5668 -0.0224529 0.164782 
-0.0224529 10.0456 0.0159134 
0.164782 0.0159134 10.0708 
9.86103 -0.226209 -0.0691113 
-0.226209 9.81727 -0.248652 
-0.0691113 -0.248652 11.0048 
10.415 -0.0407943 -0.0222042 
-0.0407943 10.2104 0.0682537 
-0.0222042 0.0682537 10.0577 
10.8226 -0.954274 -0.941803 
-0.954274 12.2821 -0.273165 
-0.941803 -0.273165 11.7782 
8.74618 -0.924049 -1.31907 
-0.924049 12.0233 -0.212501 
-1.31907 -0.212501 14.1135 
9.75834 -1.05911 -0.849533 
-1.05911 11.8215 -0.49191 
-0.849533 -0.49191 13.3031 
9.94447 -0.645049 -0.473683 
-0.645049 12 -0.444065 
-0.473683 -0.444065 12.9385 
9.55545 0.128616 -0.20693 
0.128616 9.79012 -0.374892 
-0.20693 -0.374892 9.49346 
9.56452 0.0675431 -0.173598 
0.0675431 9.60286 -0.347386 
-0.173598 -0.347386 9.67165 
9.5776 0.0856868 -0.280817 
0.0856868 9.72488 -0.353322 
-0.280817 -0.353322 9.53655 
9.44655 0.0105686 -0.152513 
0.0105686 9.79531 -0.32471 
-0.152513 -0.32471 9.59717 
9.63997 0.0126734 -0.0272831 
0.0126734 9.62959 0.335995 
-0.0272831 0.335995 9.62555 
9.6547 0.00532284 -0.0121909 
0.00532284 9.64855 0.349861 
-0.0121909 0.349861 9.59187 
9.62403 0.00571346 -0.0108178 
0.00571346 9.61363 0.350359 
-0.0108178 0.350359 9.65745 
9.63587 0.0042235 -0.0253636 
0.0042235 9.64049 0.331513 
-0.0253636 0.331513 9.61876 
4.72995 0.384466 1.07073 
0.384466 4.09186 0.643843 
1.07073 0.643843 -0.0320398 
2.93472 0.107535 -0.165757 
0.107535 3.06576 -0.310927 
-0.165757 -0.310927 2.78928 
4.18417 0.644693 0.268304 
0.644693 3.9797 -0.801528 
0.268304 -0.801528 0.625905 
3.24666 0.936177 -1.17862 
0.936177 2.87303 -0.321508 
-1.17862 -0.321508 2.67008 
9.61154 0.00479654 0.0167581 
0.00479654 9.63991 0.345469 
0.0167581 0.345469 9.65146 
9.64047 0.00476931 0.0233246 
0.00476931 9.64247 0.350131 
0.0233246 0.350131 9.61996 
9.64805 -0.0109322 0.0291984 
-0.0109322 9.61252 0.342981 
0.0291984 0.342981 9.64234 
9.64787 0.0141138 0.0239595 
0.0141138 9.62659 0.355489 
0.0239595 0.355489 9.62845 
4.74727 -0.30116 -0.525121 
-0.30116 4.67694 0.719467 
-0.525121 0.719467 -0.262512 
2.77907 -0.314352 0.281599 
-0.314352 2.71143 0.136334 
0.281599 0.136334 3.6712 
4.62736 -0.13 1.16197 
-0.13 4.57193 0.00556798 
1.16197 0.00556798 -0.0375922 
3.25284 -0.781498 -0.254923 
-0.781498 2.54288 -1.44415 
-0.254923 -1.44415 3.36599 
9.76719 -0.0223789 0.227255 
-0.0223789 9.75571 -0.232244 
0.227255 -0.232244 9.80091 
9.77947 0.0168594 0.229486 
0.0168594 9.79819 -0.215631 
0.229486 -0.215631 9.74615 
9.78227 0.0039768 0.212984 
0.0039768 9.78253 -0.23981 
0.212984 -0.23981 9.75901 
9.77487 -0.00270867 0.219341 
-0.00270867 9.79215 -0.229577 
0.219341 -0.229577 9.75678 
9.5957 0.0465054 -0.0678537 
0.0465054 9.72287 0.0528467 
-0.0678537 0.0528467 9.88225 
9.21681 -0.0132657 -0.189759 
-0.0132657 9.55765 -0.11698 
-0.189759 -0.11698 10.4264 
9.59212 0.0486302 -0.238955 
0.0486302 9.86505 0.136807 
-0.238955 0.136807 9.74364 
9.55986 0.0306703 -0.0474168 
0.0306703 9.82937 -0.000319881 
-0.0474168 -0.000319881 9.81159 
9.76099 0.0406491 0.0564739 
0.0406491 9.57465 -0.082498 
0.0564739 -0.082498 9.86193 
9.83994 0.0552516 0.107124 
0.0552516 9.58015 -0.233609 
0.107124 -0.233609 9.77748 
9.55217 -0.00489153 -0.104799 
-0.00489153 9.2271 -0.190033 
-0.104799 -0.190033 10.4183 
9.81161 0.0196847 -0.00622841 
0.0196847 9.56402 -0.0724306 
-0.00622841 -0.0724306 9.82194 
8.28842 -1.36277 1.73316 
-1.36277 7.76361 1.42312 
1.73316 1.42312 -3.70199 
9.994 -0.603402 0.220888 
-0.603402 6.98464 -1.75994 
0.220888 -1.75994 -4.6286 
1.12478 -0.447847 -0.31374 
-0.447847 1.59799 0.461152 
-0.31374 0.461152 9.62726 
3.78815 1.19083 6.45797 
1.19083 6.39901 -2.05476 
6.45797 -2.05476 2.16288 
9.64198 -0.261699 0.000966781 
-0.261699 9.7653 -0.150607 
0.000966781 -0.150607 9.76381 
10.0218 0.0726013 0.0701745 
0.0726013 9.46452 -0.320716 
0.0701745 -0.320716 9.68475 
9.85988 0.0932541 0.0787917 
0.0932541 9.21718 -0.289754 
0.0787917 -0.289754 10.094 
9.51558 -0.0383968 -0.198306 
-0.0383968 9.87128 -0.478497 
-0.198306 -0.478497 9.78424 
9.75536 0.0163313 0.279731 
0.0163313 9.72388 0.180702 
0.279731 0.180702 9.83502 
9.77809 -0.00223718 0.257744 
-0.00223718 9.77803 0.201226 
0.257744 0.201226 9.75814 
9.77622 -0.00614141 0.280712 
-0.00614141 9.8046 0.157643 
0.280712 0.157643 9.73344 
9.77643 0.00665905 0.265098 
0.00665905 9.77594 0.183256 
0.265098 0.183256 9.76188 
9.70387 0.00298239 -0.0832511 
0.00298239 9.71201 -0.323826 
-0.0832511 -0.323826 9.69208 
9.68823 0.00610782 -0.0782775 
0.00610782 9.71248 -0.329231 
-0.0782775 -0.329231 9.70725 
9.71421 -0.005286 -0.0741149 
-0.005286 9.708 -0.329608 
-0.0741149 -0.329608 9.68575 
9.69244 -9.35377e-05 -0.0838023 
-9.35377e-05 9.71709 -0.331247 
-0.0838023 -0.331247 9.69843 
9.57622 -0.0409578 -0.0763449 
-0.0409578 9.70073 0.0306498 
-0.0763449 0.0306498 9.6311 
9.58627 -0.0720806 -0.0593988 
-0.0720806 9.71828 0.15791 
-0.0593988 0.15791 9.60351 
9.58599 -0.124368 -0.00949715 
-0.124368 9.75093 0.0153086 
-0.00949715 0.0153086 9.57113 
9.60214 0.0106172 -0.011921 
0.0106172 9.63913 0.0325492 
-0.011921 0.0325492 9.6668 
9.87773 0.098185 -0.03055 
0.098185 9.87205 0.0814295 
-0.03055 0.0814295 10.3901 
10.2122 -0.0109264 0.0911984 
-0.0109264 9.96359 -0.0291983 
0.0911984 -0.0291983 9.96416 
10.0836 -0.104032 0.0398532 
-0.104032 10.1435 -0.0425253 
0.0398532 -0.0425253 9.91281 
10.1069 -0.00811629 0.0211915 
-0.00811629 10.0266 -0.0124907 
0.0211915 -0.0124907 10.0064 
9.56884 -0.00420833 -0.178816 
-0.00420833 9.85853 -0.162027 
-0.178816 -0.162027 9.898 
9.71389 -0.0915166 -0.188721 
-0.0915166 9.76761 -0.0524311 
-0.188721 -0.0524311 9.84388 
9.70638 -0.0707809 -0.273245 
-0.0707809 9.71385 -0.117891 
-0.273245 -0.117891 9.90515 
9.67519 0.0275524 -0.168092 
0.0275524 9.85798 -0.151711 
-0.168092 -0.151711 9.7922 
10.2537 0.0806613 0.0474032 
0.0806613 10.2872 0.0181263 
0.0474032 0.0181263 10.1395 
10.1272 0.109791 -0.211305 
0.109791 9.9001 0.181748 
-0.211305 0.181748 10.6532 
10.1215 0.148435 -0.0987343 
0.148435 10.3748 -0.0675595 
-0.0987343 -0.0675595 10.1842 
10.3372 -0.0229756 -0.06257 
-0.0229756 10.3705 -0.163075 
-0.06257 -0.163075 9.97278 
9.82543 -0.0503199 -0.0779144 
-0.0503199 9.72317 0.120119 
-0.0779144 0.120119 9.84338 
9.85066 0.168207 -0.106803 
0.168207 9.55913 -0.038138 
-0.106803 -0.038138 9.9822 
9.85619 -0.019456 0.0030977 
-0.019456 9.84424 0.153462 
0.0030977 0.153462 9.69155 
9.82752 -0.0493105 -0.0996685 
-0.0493105 9.63205 0.191476 
-0.0996685 0.191476 9.93242 
9.88811 0.726548 -0.897029 
0.726548 9.34097 0.113329 
-0.897029 0.113329 15.7175 
10.5612 0.498711 -0.31283 
0.498711 10.8559 -0.363415 
-0.31283 -0.363415 13.5295 
12.7999 1.01951 -0.669333 
1.01951 13.0891 0.830242 
-0.669333 0.830242 9.05754 
11.622 0.670368 1.28521 
0.670368 11.0386 0.220954 
1.28521 0.220954 12.286 
9.22929 1.40031 -1.17529 
1.40031 9.61854 -0.373545 
-1.17529 -0.373545 19.1807 
12.714 0.403127 -0.314012 
0.403127 11.0584 1.49902 
-0.314012 1.49902 14.2561 
13.7828 0.147609 0.676448 
0.147609 12.89 0.814969 
0.676448 0.814969 11.3558 
14.6012 -0.0294597 -1.61409 
-0.0294597 11.2939 1.91881 
-1.61409 1.91881 12.1334 
9.98876 -0.0853151 0.00145063 
-0.0853151 10.0347 -0.0230663 
0.00145063 -0.0230663 10.0472 
10.0474 0.0346075 -0.0633742 
0.0346075 10.0203 0.110634 
-0.0633742 0.110634 10.0029 
9.98433 -0.159355 0.0848583 
-0.159355 9.97144 0.109782 
0.0848583 0.109782 10.1149 
10.0273 -0.0197793 0.0535306 
-0.0197793 10.0266 0.0166737 
0.0535306 0.0166737 10.0168 
10.0441 0.0345933 0.00349146 
0.0345933 10.1567 -0.00633838 
0.00349146 -0.00633838 10.0364 
10.0767 -0.0137286 -0.0262543 
-0.0137286 10.1359 -0.00341842 
-0.0262543 -0.00341842 10.0245 
10.145 0.00406823 -0.0518508 
0.00406823 10.1591 -0.00667202 
-0.0518508 -0.00667202 9.93305 
10.0618 -0.00546203 -0.0601818 
-0.00546203 10.1565 0.00606006 
-0.0601818 0.00606006 10.0188 
9.86844 0.0188273 -0.0493245 
0.0188273 10.1406 -0.0414755 
-0.0493245 -0.0414755 10.0251 
10.1338 -0.000443148 0.0418231 
-0.000443148 9.78058 0.0304007 
0.0418231 0.0304007 10.1198 
10.0081 0.00409005 -0.0362623 
0.00409005 10.024 0.00803179 
-0.0362623 0.00803179 10.0021 
10.1577 -0.0383213 -0.156932 
-0.0383213 10.0243 -0.070042 
-0.156932 -0.070042 9.85213 
10.0107 -0.0182825 -0.0875787 
-0.0182825 9.97555 0.0155257 
-0.0875787 0.0155257 9.88195 
9.92328 -0.0888717 -0.119485 
-0.0888717 10.0263 0.0896291 
-0.119485 0.0896291 9.91856 
9.94449 -0.0304722 -0.0588942 
-0.0304722 10.0165 0.000978397 
-0.0588942 0.000978397 9.90719 
9.9076 -0.00710473 -0.0144926 
-0.00710473 10.0423 0.0008675 
-0.0144926 0.0008675 9.91825 
9.94235 0.0072333 0.0417208 
0.0072333 9.91381 -0.048602 
0.0417208 -0.048602 9.89834 
9.89285 -0.0359084 0.0435321 
-0.0359084 9.93915 -0.0856317 
0.0435321 -0.0856317 9.9225 
9.93278 -0.00212797 0.00567758 
-0.00212797 9.90997 0.0269416 
0.00567758 0.0269416 9.91176 
9.86104 0.0225816 -0.0354215 
0.0225816 9.93901 -0.0341983 
-0.0354215 -0.0341983 9.95445 
10.2404 -0.00889541 -0.00520701 
-0.00889541 10.1486 -0.000151767 
-0.00520701 -0.000151767 10.133 
10.6984 0.0776029 0.352771 
0.0776029 9.88954 -0.041028 
0.352771 -0.041028 9.93412 
9.88821 -0.169053 -0.112995 
-0.169053 9.99413 -0.338592 
-0.112995 -0.338592 10.6397 
10.3411 0.17717 -0.0514553 
0.17717 10.3607 0.0502595 
-0.0514553 0.0502595 9.82018 
9.63411 -0.0133728 -0.318214 
-0.0133728 9.62434 -0.0854899 
-0.318214 -0.0854899 9.59031 
9.65908 0.0475878 -0.315251 
0.0475878 9.57803 -0.104931 
-0.315251 -0.104931 9.61165 
9.54072 -0.0559664 -0.261313 
-0.0559664 9.64307 -0.124387 
-0.261313 -0.124387 9.66496 
9.57747 -0.0171051 -0.341104 
-0.0171051 9.58984 -0.120855 
-0.341104 -0.120855 9.68144 
9.62106 0.0212815 -0.212902 
0.0212815 9.63013 0.266682 
-0.212902 0.266682 9.66128 
9.62829 -0.0177236 -0.254466 
-0.0177236 9.6552 0.249298 
-0.254466 0.249298 9.62897 
9.63159 0.000534087 -0.247562 
0.000534087 9.63471 0.24085 
-0.247562 0.24085 9.64617 
9.6341 -0.00546962 -0.247884 
-0.00546962 9.63779 0.242537 
-0.247884 0.242537 9.64058 
9.70026 0.00275865 -0.299641 
0.00275865 9.70062 0.136783 
-0.299641 0.136783 9.72454 
9.7186 0.0145421 -0.310334 
0.0145421 9.7344 0.115565 
-0.310334 0.115565 9.67243 
9.72043 -0.00726809 -0.287679 
-0.00726809 9.71367 0.143473 
-0.287679 0.143473 9.69132 
9.72021 -4.31717e-05 -0.285769 
-4.31717e-05 9.71125 0.131826 
-0.285769 0.131826 9.69396 
9.78915 -0.0774286 0.0280385 
-0.0774286 9.79061 -0.092428 
0.0280385 -0.092428 10.0361 
9.88026 -0.185286 0.0769817 
-0.185286 9.75361 0.162226 
0.0769817 0.162226 9.98201 
9.71944 0.0199174 -0.0507105 
0.0199174 9.8605 -0.0846705 
-0.0507105 -0.0846705 10.0359 
9.74946 -0.0906592 -0.0402273 
-0.0906592 9.71765 -0.0719463 
-0.0402273 -0.0719463 10.1488 
9.53589 0.0339661 0.184431 
0.0339661 9.44075 -0.243474 
0.184431 -0.243474 9.64446 
9.63877 -0.066562 0.115825 
-0.066562 9.52309 -0.310345 
0.115825 -0.310345 9.45924 
9.53508 0.0156343 0.0979754 
0.0156343 9.4363 -0.283976 
0.0979754 -0.283976 9.64971 
9.542 0.0241558 0.173535 
0.0241558 9.43554 -0.292974 
0.173535 -0.292974 9.64355 
10.0054 -0.0389636 0.0285973 
-0.0389636 10.0085 0.0634488 
0.0285973 0.0634488 9.83285 
9.80446 -0.0991873 0.0540633 
-0.0991873 9.87431 0.0129869 
0.0540633 0.0129869 10.168 
9.91816 -0.0562471 0.0731116 
-0.0562471 9.92981 0.0784586 
0.0731116 0.0784586 9.99879 
9.98205 -0.0633592 0.148975 
-0.0633592 9.90211 0.137982 
0.148975 0.137982 9.96259 
9.47269 -0.0416998 0.277284 
-0.0416998 9.53333 -0.217751 
0.277284 -0.217751 9.4913 
9.63377 -0.0640241 0.271464 
-0.0640241 9.45457 -0.153833 
0.271464 -0.153833 9.40897 
9.2214 0.198726 0.208951 
0.198726 9.58436 -0.107262 
0.208951 -0.107262 9.69156 
9.39141 0.0680735 0.504589 
0.0680735 9.47727 -0.166964 
0.504589 -0.166964 9.62863 
9.95495 -0.0493698 0.008467 
-0.0493698 9.87686 -0.0785297 
0.008467 -0.0785297 9.90244 
9.86536 -0.0334074 -0.0209662 
-0.0334074 9.77104 -0.0225129 
-0.0209662 -0.0225129 10.0979 
9.80743 -0.0692217 -0.0310159 
-0.0692217 9.96455 -0.081087 
-0.0310159 -0.081087 9.96227 
9.91797 -0.0554338 -0.0632994 
-0.0554338 9.76556 -0.106452 
-0.0632994 -0.106452 10.0507 
11.2764 0.0847131 -0.0991287 
0.0847131 10.9393 0.021252 
-0.0991287 0.021252 10.144 
10.3492 0.165709 0.18184 
0.165709 10.2043 0.130677 
0.18184 0.130677 11.8062 
10.7606 -0.0704497 -0.148312 
-0.0704497 10.4628 0.12714 
-0.148312 0.12714 11.1363 
10.5451 0.191714 -0.603019 
0.191714 10.7957 0.0420961 
-0.603019 0.0420961 11.0189 
9.85987 -0.00422013 -0.0947532 
-0.00422013 9.86991 -0.242186 
-0.0947532 -0.242186 9.85946 
9.83586 -0.00510913 -0.0704785 
-0.00510913 9.83397 -0.207166 
-0.0704785 -0.207166 9.91941 
9.86483 0.00567085 -0.0876943 
0.00567085 9.84977 -0.220836 
-0.0876943 -0.220836 9.87465 
9.87688 -0.00128268 -0.0675372 
-0.00128268 9.88926 -0.218536 
-0.0675372 -0.218536 9.8231 
9.85529 0.00164841 -0.0746455 
0.00164841 9.64932 -0.179455 
-0.0746455 -0.179455 9.85149 
9.78917 -0.00236666 -0.109117 
-0.00236666 9.6781 -0.259289 
-0.109117 -0.259289 9.88883 
9.73723 -0.145318 0.0158591 
-0.145318 9.69473 -0.248567 
0.0158591 -0.248567 9.92414 
9.73589 -0.110411 0.0387359 
-0.110411 9.80786 -0.240236 
0.0387359 -0.240236 9.81236 
10.1134 -0.0154836 -0.0117895 
-0.0154836 10.0471 0.0006809 
-0.0117895 0.0006809 9.98974 
10.0987 -0.0245483 0.021637 
-0.0245483 10.0651 -0.00778571 
0.021637 -0.00778571 9.98644 
10.1142 -0.00769762 0.0067596 
-0.00769762 10.0811 -0.0133202 
0.0067596 -0.0133202 9.95493 
10.1191 -0.010005 0.00845202 
-0.010005 10.1077 -0.00207712 
0.00845202 -0.00207712 9.92337 
9.6086 0.233813 0.244083 
0.233813 8.80666 -2.24612 
0.244083 -2.24612 9.84185 
10.729 -0.271856 0.668572 
-0.271856 8.46758 -0.569501 
0.668572 -0.569501 9.06053 
9.97164 0.370683 0.297994 
0.370683 9.37823 -1.6989 
0.297994 -1.6989 8.90724 
10.41 0.0792268 0.437277 
0.0792268 9.16764 -1.65052 
0.437277 -1.65052 8.67944 
10.1174 0.00764473 -0.0496977 
0.00764473 10.1468 -0.00389815 
-0.0496977 -0.00389815 9.92193 
10.0561 0.0282746 -0.00137106 
0.0282746 10.0878 0.0233568 
-0.00137106 0.0233568 10.0423 
10.118 0.0318855 -0.04963 
0.0318855 10.087 0.00538571 
-0.04963 0.00538571 9.98114 
10.0726 -0.00223776 -0.0742739 
-0.00223776 10.1462 0.0206143 
-0.0742739 0.0206143 9.96729 
9.64521 0.0271144 0.110355 
0.0271144 9.5495 -0.529983 
0.110355 -0.529983 9.30219 
9.52643 0.0114099 0.112075 
0.0114099 9.61145 -0.352085 
0.112075 -0.352085 9.35902 
9.57614 0.00291885 0.0787768 
0.00291885 9.45022 -0.485872 
0.0787768 -0.485872 9.47055 
9.57562 0.0227246 0.143968 
0.0227246 9.41451 -0.493454 
0.143968 -0.493454 9.50677 
10.6748 -0.350471 0.476135 
-0.350471 10.6747 0.382135 
0.476135 0.382135 12.5186 
10.7395 -0.0747317 -0.0556853 
-0.0747317 10.9302 0.00359586 
-0.0556853 0.00359586 12.1983 
11.971 -0.369426 -0.0134677 
-0.369426 11.8281 0.237421 
-0.0134677 0.237421 10.0689 
11.3637 -0.734149 0.631783 
-0.734149 11.3124 -0.863388 
0.631783 -0.863388 11.192 
9.60125 -0.320357 0.0353347 
-0.320357 9.81259 0.114465 
0.0353347 0.114465 9.70988 
9.83147 0.115607 -0.0856295 
0.115607 9.19344 0.270218 
-0.0856295 0.270218 10.0988 
9.46705 -0.0650335 0.219762 
-0.0650335 9.89028 0.501667 
0.219762 0.501667 9.76639 
9.95134 0.0610482 -0.0947984 
0.0610482 9.50141 0.346124 
-0.0947984 0.346124 9.67097 
9.60845 -0.054965 0.040317 
-0.054965 9.32318 0.110165 
0.040317 0.110165 9.86945 
9.57873 -0.0784757 0.0512039 
-0.0784757 9.42061 0.122645 
0.0512039 0.122645 9.80173 
9.5822 0.0525524 0.119976 
0.0525524 9.48312 0.0699158 
0.119976 0.0699158 9.73575 
9.60915 -0.015596 0.109452 
-0.015596 9.42888 0.181455 
0.109452 0.181455 9.76304 
10.1793 -0.00247566 0.0124904 
-0.00247566 10.1714 -0.00640775 
0.0124904 -0.00640775 9.98833 
10.1933 -0.00317152 0.00655225 
-0.00317152 10.1948 -0.0310553 
0.00655225 -0.0310553 9.95099 
10.1779 -0.00866184 -0.00797014 
-0.00866184 10.1653 -0.0242054 
-0.00797014 -0.0242054 9.99584 
10.1927 -0.00407351 0.0159771 
-0.00407351 10.1898 -0.0325131 
0.0159771 -0.0325131 9.95662 
12.4167 -1.03249 -0.591907 
-1.03249 13.4054 0.121769 
-0.591907 0.121769 10.3182 
9.74766 0.292521 -0.835082 
0.292521 12.2949 -0.256368 
-0.835082 -0.256368 14.0977 
10.9447 0.279698 0.0580364 
0.279698 11.2456 -0.450263 
0.0580364 -0.450263 13.95 
10.8044 -0.0418731 -0.543321 
-0.0418731 12.1383 1.26654 
-0.543321 1.26654 13.1976 
9.91747 -0.0589629 -0.00248541 
-0.0589629 9.11827 0.291976 
-0.00248541 0.291976 10.0775 
9.659 -0.125407 -0.0322039 
-0.125407 9.6259 0.227079 
-0.0322039 0.227079 9.82834 
9.88225 -0.0476311 0.121862 
-0.0476311 9.45246 0.286087 
0.121862 0.286087 9.77852 
9.63906 0.00285351 0.060598 
0.00285351 9.67829 0.374897 
0.060598 0.374897 9.79588 
9.22642 0.292626 1.00271 
0.292626 9.36885 -0.506153 
1.00271 -0.506153 7.76477 
9.71057 0.11071 -0.175959 
0.11071 8.93428 -0.985926 
-0.175959 -0.985926 7.71519 
9.53423 0.177401 0.568529 
0.177401 9.46882 -0.506467 
0.568529 -0.506467 7.35699 
10.4947 0.28919 0.54608 
0.28919 9.03739 -1.30576 
0.54608 -1.30576 6.82796 
10.0839 0.0134784 -0.160782 
0.0134784 9.44668 -0.099704 
-0.160782 -0.099704 10.1797 
9.94372 0.047936 0.127612 
0.047936 9.82962 0.099312 
0.127612 0.099312 9.93686 
9.86093 0.111847 0.0781794 
0.111847 9.94672 0.0134045 
0.0781794 0.0134045 9.90255 
9.7923 0.123667 0.155764 
0.123667 9.92043 -0.00312367 
0.155764 -0.00312367 9.99747 
9.66508 -0.00128597 -0.139575 
-0.00128597 9.76972 0.0687823 
-0.139575 0.0687823 9.71244 
9.38679 0.132894 -0.0824211 
0.132894 9.8257 0.111936 
-0.0824211 0.111936 9.93474 
9.71604 -0.104325 -0.126738 
-0.104325 9.70554 0.0429821 
-0.126738 0.0429821 9.72565 
9.68695 -0.0110007 -0.192699 
-0.0110007 9.6985 0.100461 
-0.192699 0.100461 9.76178 
10.1336 -0.175397 0.0872568 
-0.175397 9.70341 0.0522225 
0.0872568 0.0522225 9.96401 
9.83131 -0.0238951 -0.149179 
-0.0238951 10.0598 -0.100229 
-0.149179 -0.100229 9.90985 
9.87641 0.0332574 0.137326 
0.0332574 9.78477 0.103622 
0.137326 0.103622 10.1398 
10.0646 -0.122973 -0.0495712 
-0.122973 9.61024 -0.0750414 
-0.0495712 -0.0750414 10.1261 
9.69204 0.00128249 0.41866 
0.00128249 9.60562 -0.0744136 
0.41866 -0.0744136 9.76588 
9.63822 0.148561 0.176988 
0.148561 9.6553 0.0442973 
0.176988 0.0442973 9.77002 
9.10159 0.00384517 0.293951 
0.00384517 9.93091 0.00509774 
0.293951 0.00509774 10.031 
9.41649 0.021254 0.294801 
0.021254 9.89428 -0.117758 
0.294801 -0.117758 9.75277 
9.22215 -1.64918e-05 -0.205213 
-1.64918e-05 9.50934 0.115631 
-0.205213 0.115631 10.4486 
9.55351 -0.0352113 -0.242362 
-0.0352113 9.81104 -0.0897562 
-0.242362 -0.0897562 9.81554 
9.55566 -0.050051 -0.0523094 
-0.050051 9.86427 -0.0167373 
-0.0523094 -0.0167373 9.76017 
9.58176 -0.070874 -0.109206 
-0.070874 9.70923 -0.0565949 
-0.109206 -0.0565949 9.8891 
9.79291 0.281271 -0.183796 
0.281271 9.93189 0.542842 
-0.183796 0.542842 11.0166 
11.2195 -0.152179 0.626054 
-0.152179 9.6085 0.166751 
0.626054 0.166751 9.91341 
10.3584 -0.0145349 0.0643524 
-0.0145349 10.3823 -0.11097 
0.0643524 -0.11097 10.0007 
10.5113 -0.217031 -0.121262 
-0.217031 10.4633 -0.103153 
-0.121262 -0.103153 9.76676 
9.60945 -0.152099 0.581152 
-0.152099 10.0731 -0.0930573 
0.581152 -0.0930573 13.1001 
10.243 0.854674 -0.507863 
0.854674 11.0218 0.288808 
-0.507863 0.288808 11.5179 
12.8372 0.288818 -0.254013 
0.288818 9.88813 0.259073 
-0.254013 0.259073 10.0573 
10.8906 0.46615 -0.740471 
0.46615 10.8328 -0.295162 
-0.740471 -0.295162 11.0592 
9.79393 -0.00978412 -0.307539 
-0.00978412 9.74059 0.0676898 
-0.307539 0.0676898 9.77304 
9.73861 0.00738905 -0.301029 
0.00738905 9.79756 0.0540286 
-0.301029 0.0540286 9.77139 
9.77193 0.00151749 -0.308961 
0.00151749 9.7763 0.0707114 
-0.308961 0.0707114 9.75932 
9.77271 -0.0117727 -0.319774 
-0.0117727 9.7769 0.0641005 
-0.319774 0.0641005 9.75796 
9.37529 0.189455 -0.255754 
0.189455 10.8597 0.4944 
-0.255754 0.4944 9.91153 
10.3654 0.0558318 0.204523 
0.0558318 10.0896 0.101962 
0.204523 0.101962 9.69144 
9.82265 -0.200786 -0.417051 
-0.200786 9.63055 -0.18411 
-0.417051 -0.18411 10.6933 
10.1383 0.080943 0.10744 
0.080943 10.1493 -0.144239 
0.10744 -0.144239 9.85894 
9.1264 0.0442148 -0.297836 
0.0442148 9.91336 0.00913335 
-0.297836 0.00913335 10.0588 
9.41312 0.0394502 -0.279919 
0.0394502 9.90047 0.113748 
-0.279919 0.113748 9.78493 
9.7022 -0.00154966 -0.403401 
-0.00154966 9.60612 0.0653121 
-0.403401 0.0653121 9.79021 
9.6192 0.150533 -0.214873 
0.150533 9.66065 -0.0560964 
-0.214873 -0.0560964 9.81868 
9.19329 0.4585 1.08339 
0.4585 9.12093 -0.321831 
1.08339 -0.321831 -6.20285 
-0.185996 0.467001 0.685705 
0.467001 -0.260822 -0.880951 
0.685705 -0.880951 12.5582 
8.82943 0.527172 0.110725 
0.527172 7.11671 2.80921 
0.110725 2.80921 -3.83476 
5.5182 -1.92624 10.3623 
-1.92624 6.08453 5.50048 
10.3623 5.50048 0.508643 
10.3713 -0.0841428 -0.188472 
-0.0841428 10.0348 0.438295 
-0.188472 0.438295 12.8824 
11.0174 -1.21276 -0.317204 
-1.21276 9.44107 -0.338976 
-0.317204 -0.338976 12.83 
10.3928 -0.779096 -0.181056 
-0.779096 12.5564 -0.380657 
-0.181056 -0.380657 10.3393 
10.8417 -0.636502 0.292758 
-0.636502 10.6605 -0.583649 
0.292758 -0.583649 11.7862 
7.8989 -0.344688 3.27357 
-0.344688 10.1687 -0.697146 
3.27357 -0.697146 -4.87315 
8.02335 -1.03775 0.24614 
-1.03775 8.21846 -2.16677 
0.24614 -2.16677 -3.0474 
2.05913 -0.610487 0.858892 
-0.610487 1.05348 0.302615 
0.858892 0.302615 10.0818 
6.9056 1.6233 3.50805 
1.6233 3.80663 -7.67554 
3.50805 -7.67554 2.48218 
10.0735 0.0120752 0.00047271 
0.0120752 10.0946 -0.00897993 
0.00047271 -0.00897993 10.0191 
10.1247 -0.00156945 -0.0201613 
-0.00156945 10.1165 0.00238542 
-0.0201613 0.00238542 9.94595 
10.0962 -0.00516247 -0.00642696 
-0.00516247 10.1323 0.0213989 
-0.00642696 0.0213989 9.95868 
10.137 0.0141551 -0.0164723 
0.0141551 10.1401 0.0108875 
-0.0164723 0.0108875 9.91001 
9.72451 -0.0238567 0.518167 
-0.0238567 11.6667 -0.0843529 
0.518167 -0.0843529 11.6206 
11.5428 1.52312 -0.195861 
1.52312 10.9485 -0.2704 
-0.195861 -0.2704 10.5206 
10.3912 -0.294646 0.105295 
-0.294646 10.9818 -0.0775043 
0.105295 -0.0775043 11.6389 
10.3743 0.424271 0.4511 
0.424271 11.3461 0.74096 
0.4511 0.74096 11.2915 
9.61633 0.103611 -0.0385071 
0.103611 9.69959 -0.134574 
-0.0385071 -0.134574 9.48086 
9.58952 0.0319076 0.0824006 
0.0319076 9.74101 -0.0861523 
0.0824006 -0.0861523 9.46624 
9.46071 0.102677 -0.043996 
0.102677 9.71269 -0.1541 
-0.043996 -0.1541 9.62338 
9.59479 0.111993 -0.0306081 
0.111993 9.74369 -0.157637 
-0.0306081 -0.157637 9.4583 
10.0865 -0.0248889 0.00817057 
-0.0248889 10.0459 -0.0550288 
0.00817057 -0.0550288 10.0313 
10.1581 -0.0268113 -0.0462075 
-0.0268113 10.1392 -0.0353434 
-0.0462075 -0.0353434 9.86635 
10.0758 -0.0172901 -0.0143203 
-0.0172901 10.0243 -0.0159144 
-0.0143203 -0.0159144 10.0637 
10.0833 -0.0134218 -0.0257739 
-0.0134218 10.0586 -0.0975918 
-0.0257739 -0.0975918 10.0219 
9.69829 0.0127752 -0.319699 
0.0127752 9.72835 0.0904322 
-0.319699 0.0904322 9.72787 
9.69747 -0.00546406 -0.322756 
-0.00546406 9.69673 0.0980817 
-0.322756 0.0980817 9.76031 
9.7717 -0.00303042 -0.326207 
-0.00303042 9.71139 0.0759006 
-0.326207 0.0759006 9.67142 
9.72373 -0.000799984 -0.301515 
-0.000799984 9.72559 0.0980578 
-0.301515 0.0980578 9.70519 
9.95182 0.0527526 -0.0214684 
0.0527526 9.89745 -0.0904865 
-0.0214684 -0.0904865 9.88363 
9.812 0.00492366 -0.00243153 
0.00492366 9.96364 0.0354404 
-0.00243153 0.0354404 9.95726 
9.85293 -0.0181329 0.0185241 
-0.0181329 9.98192 -0.00770747 
0.0185241 -0.00770747 9.89805 
10.0172 -0.0205401 -0.0695601 
-0.0205401 9.85735 -0.0384845 
-0.0695601 -0.0384845 9.85832 
9.89022 0.0393738 0.115245 
0.0393738 9.45746 -0.288665 
0.115245 -0.288665 9.7863 
9.95209 0.0416553 0.0164999 
0.0416553 9.13139 -0.294279 
0.0164999 -0.294279 10.0505 
9.72718 -0.00648977 0.0532901 
-0.00648977 9.65144 -0.404891 
0.0532901 -0.404891 9.75535 
9.64495 0.137854 -0.0755694 
0.137854 9.70362 -0.171829 
-0.0755694 -0.171829 9.7854 
11.9989 0.706754 0.320076 
0.706754 10.8079 -0.869805 
0.320076 -0.869805 13.0389 
12.2477 2.08717 0.753171 
2.08717 9.70357 -1.24515 
0.753171 -1.24515 13.8944 
11.6024 -0.13454 -0.00780695 
-0.13454 9.08761 -0.54769 
-0.00780695 -0.54769 15.1558 
12.0851 0.564407 0.499353 
0.564407 10.7044 -0.672142 
0.499353 -0.672142 13.0563 
10.1435 -1.16486 1.69975 
-1.16486 6.49222 2.00781 
1.69975 2.00781 -7.0062 
-0.990985 0.414405 -1.7245 
0.414405 1.6057 -0.224728 
-1.7245 -0.224728 9.01484 
6.53913 0.634773 -0.935211 
0.634773 6.2304 0.0293226 
-0.935211 0.0293226 -3.13998 
8.1959 2.55376 -8.42442 
2.55376 3.73985 2.35583 
-8.42442 2.35583 -2.3062 
9.61931 -0.0880007 0.164417 
-0.0880007 9.63974 0.0367349 
0.164417 0.0367349 9.83407 
9.60579 -0.0921332 0.13343 
-0.0921332 9.63536 0.0953101 
0.13343 0.0953101 9.85197 
9.4962 -0.145586 0.133249 
-0.145586 9.76042 0.0539379 
0.133249 0.0539379 9.8365 
9.64266 -0.0973735 0.167929 
-0.0973735 9.64569 0.0605157 
0.167929 0.0605157 9.80477 
9.77877 0.00151336 -0.127381 
0.00151336 9.77954 -0.288412 
-0.127381 -0.288412 9.74171 
9.76284 -0.00287869 -0.133839 
-0.00287869 9.73738 -0.288274 
-0.133839 -0.288274 9.7998 
9.7816 0.00161477 -0.115145 
0.00161477 9.77921 -0.295248 
-0.115145 -0.295248 9.73921 
9.77991 -0.00614329 -0.126633 
-0.00614329 9.78899 -0.275539 
-0.126633 -0.275539 9.73112 
9.52128 0.0242844 0.285191 
0.0242844 9.56358 -0.17694 
0.285191 -0.17694 9.56652 
9.54753 0.0332516 0.267728 
0.0332516 9.57201 -0.197157 
0.267728 -0.197157 9.53183 
9.51586 0.0373589 0.290769 
0.0373589 9.54293 -0.213191 
0.290769 -0.213191 9.59258 
9.53568 0.011023 0.280195 
0.011023 9.56315 -0.19831 
0.280195 -0.19831 9.55254 
9.7486 -0.0963322 -0.074705 
-0.0963322 9.64997 -0.191079 
-0.074705 -0.191079 9.79823 
9.79416 0.00539937 -0.1993 
0.00539937 9.51381 -0.20277 
-0.1993 -0.20277 9.88883 
9.6801 -0.0881186 -0.117088 
-0.0881186 9.63682 -0.276096 
-0.117088 -0.276096 9.87988 
9.79586 0.022777 -0.186157 
0.022777 9.60813 -0.211305 
-0.186157 -0.211305 9.7928 
10.0052 -0.0237339 -0.0227853 
-0.0237339 9.89413 -0.0961974 
-0.0227853 -0.0961974 10.0026 
10.0406 -0.0100184 0.0121167 
-0.0100184 10.0183 -0.0738718 
0.0121167 -0.0738718 9.84295 
9.94483 -0.0566273 -0.0443607 
-0.0566273 9.79376 -0.0377244 
-0.0443607 -0.0377244 10.1633 
10.0414 0.0118056 -0.0490871 
0.0118056 9.86086 -0.207504 
-0.0490871 -0.207504 9.9996 
9.73552 -0.018763 -0.0421551 
-0.018763 9.80714 0.315128 
-0.0421551 0.315128 9.78393 
9.80212 0.0166634 -0.02835 
0.0166634 9.75017 0.308755 
-0.02835 0.308755 9.77431 
9.7831 -0.0013039 -0.00851125 
-0.0013039 9.77989 0.321794 
-0.00851125 0.321794 9.76361 
9.77569 0.00660419 -0.0360368 
0.00660419 9.78857 0.338821 
-0.0360368 0.338821 9.76233 
9.84318 -0.00876098 -0.0885451 
-0.00876098 9.87533 -0.211075 
-0.0885451 -0.211075 9.87495 
9.84254 -0.00227196 -0.0867003 
-0.00227196 9.84153 -0.196469 
-0.0867003 -0.196469 9.9094 
9.8694 -0.004343 -0.108239 
-0.004343 9.86423 -0.226239 
-0.108239 -0.226239 9.85984 
9.8778 -2.01768e-05 -0.099911 
-2.01768e-05 9.8785 -0.196964 
-0.099911 -0.196964 9.83717 
9.73312 0.104634 0.0871643 
0.104634 9.58843 -0.178994 
0.0871643 -0.178994 9.90402 
9.68919 0.087676 0.09582 
0.087676 9.65655 -0.128713 
0.09582 -0.128713 9.87983 
9.80248 0.116158 0.075992 
0.116158 9.55374 -0.123686 
0.075992 -0.123686 9.86936 
9.67281 0.0891296 0.0766447 
0.0891296 9.68143 -0.122756 
0.0766447 -0.122756 9.87133 
9.50579 0.0232834 0.124206 
0.0232834 9.21824 0.197361 
0.124206 0.197361 10.4532 
9.84948 0.0500151 0.0101636 
0.0500151 9.56848 0.0419567 
0.0101636 0.0419567 9.75925 
9.68878 0.0865878 -0.0435676 
0.0865878 9.60419 0.094222 
-0.0435676 0.094222 9.88424 
9.82544 0.034782 -0.0898414 
0.034782 9.55862 0.245248 
-0.0898414 0.245248 9.79315 
9.67175 0.0155338 -0.276459 
0.0155338 9.65925 -0.159966 
-0.276459 -0.159966 9.73533 
9.63066 -0.0136578 -0.290433 
-0.0136578 9.69724 -0.123873 
-0.290433 -0.123873 9.73843 
9.68866 -0.00528514 -0.296433 
-0.00528514 9.67393 -0.114508 
-0.296433 -0.114508 9.70373 
9.67403 -0.00913543 -0.273712 
-0.00913543 9.66413 -0.126597 
-0.273712 -0.126597 9.72816 
10.3596 0.0430335 -0.0236198 
0.0430335 10.2333 -0.00674892 
-0.0236198 -0.00674892 10.0805 
10.3449 0.352411 -0.174826 
0.352411 10.358 -0.139717 
-0.174826 -0.139717 9.97055 
10.0302 -0.038465 -0.176526 
-0.038465 9.71844 0.256767 
-0.176526 0.256767 10.9248 
10.2966 0.0090834 0.0634302 
0.0090834 10.4576 0.121441 
0.0634302 0.121441 9.91921 
10.1801 0.00299495 -0.0211526 
0.00299495 10.184 0.00580725 
-0.0211526 0.00580725 9.96709 
10.1702 -0.003102 -0.0082978 
-0.003102 10.1787 0.0193643 
-0.0082978 0.0193643 9.98225 
10.1733 0.00195848 -0.00134606 
0.00195848 10.1712 -0.00730462 
-0.00134606 -0.00730462 9.98659 
10.1887 0.00346926 -0.0198961 
0.00346926 10.1893 0.00845824 
-0.0198961 0.00845824 9.95317 
9.81831 -0.0855523 -0.083097 
-0.0855523 9.8858 0.00286389 
-0.083097 0.00286389 10.0396 
9.74885 -0.0628008 -0.0397817 
-0.0628008 9.90073 -0.0586072 
-0.0397817 -0.0586072 10.0942 
9.909 -0.0321144 -0.0573554 
-0.0321144 9.97775 0.0169345 
-0.0573554 0.0169345 9.85701 
9.86223 0.0161833 -0.149471 
0.0161833 9.9473 -0.0381764 
-0.149471 -0.0381764 9.93423 
9.66592 0.00883312 -0.365097 
0.00883312 9.65096 0.0289943 
-0.365097 0.0289943 9.60219 
9.6291 0.0148308 -0.338128 
0.0148308 9.64677 0.0291743 
-0.338128 0.0291743 9.64319 
9.56935 -0.00381452 -0.335252 
-0.00381452 9.63243 0.0184646 
-0.335252 0.0184646 9.71728 
9.65262 0.0177422 -0.336498 
0.0177422 9.63538 0.0399659 
-0.336498 0.0399659 9.63106 
9.5984 -0.0977596 -0.151234 
-0.0977596 9.42938 -0.274299 
-0.151234 -0.274299 9.68357 
9.58943 -0.00125218 -0.124852 
-0.00125218 9.46969 -0.2098 
-0.124852 -0.2098 9.65222 
9.59592 -0.0719226 -0.126619 
-0.0719226 9.43715 -0.193952 
-0.126619 -0.193952 9.67828 
9.61164 0.0263879 -0.157574 
0.0263879 9.45293 -0.240473 
-0.157574 -0.240473 9.64678 
9.84287 0.0518966 -0.0522132 
0.0518966 10.013 -0.0996017 
-0.0522132 -0.0996017 9.78361 
9.85912 0.0698074 -0.0499451 
0.0698074 9.85743 0.0367276 
-0.0499451 0.0367276 9.92297 
9.86706 -0.0883826 0.00548153 
-0.0883826 9.79805 0.024009 
0.00548153 0.024009 9.97442 
9.88173 0.0804485 0.00351939 
0.0804485 9.93386 -0.0100784 
0.00351939 -0.0100784 9.82394 
9.83591 -0.131738 -0.0700937 
-0.131738 9.77797 -0.0410448 
-0.0700937 -0.0410448 10.3918 
9.96402 0.0410951 0.047828 
0.0410951 10.0493 -0.00754805 
0.047828 -0.00754805 9.99238 
10.0176 0.0955176 0.025379 
0.0955176 10.1248 -0.0134176 
0.025379 -0.0134176 9.86326 
9.98764 0.0493933 0.0965878 
0.0493933 10.205 0.151976 
0.0965878 0.151976 9.81306 
9.6728 -0.178308 -0.0377549 
-0.178308 9.09669 -0.0775331 
-0.0377549 -0.0775331 10.0066 
9.58023 0.117712 -0.189026 
0.117712 9.56156 -0.184122 
-0.189026 -0.184122 9.63433 
9.60987 -0.0182908 -0.172665 
-0.0182908 9.66671 -0.124217 
-0.172665 -0.124217 9.49955 
9.5868 -0.139763 -0.0535133 
-0.139763 9.456 -0.374752 
-0.0535133 -0.374752 9.73333 
9.77724 -0.175045 -0.0738154 
-0.175045 9.59085 0.10905 
-0.0738154 0.10905 9.71892 
9.06153 0.0388502 -0.275064 
0.0388502 9.98069 0.00134219 
-0.275064 0.00134219 10.0448 
9.4332 -0.0100485 -0.322306 
-0.0100485 9.92605 -0.168615 
-0.322306 -0.168615 9.72776 
9.68588 0.0174766 -0.458132 
0.0174766 9.65837 -0.0782602 
-0.458132 -0.0782602 9.74275 
9.75095 -0.0078249 0.313809 
-0.0078249 9.79751 0.052159 
0.313809 0.052159 9.73775 
9.80117 0.0246595 0.307588 
0.0246595 9.73052 0.0670521 
0.307588 0.0670521 9.75452 
9.76616 -0.00428927 0.309286 
-0.00428927 9.77659 0.0806791 
0.309286 0.0806791 9.74345 
9.76625 0.0100829 0.316961 
0.0100829 9.77969 0.0697365 
0.316961 0.0697365 9.74027 
10.4523 -0.329494 -0.0222649 
-0.329494 10.102 0.255139 
-0.0222649 0.255139 9.76192 
9.79185 0.120363 0.20014 
0.120363 9.9392 -0.0921318 
0.20014 -0.0921318 10.5852 
10.3685 0.116688 -0.0062208 
0.116688 9.52637 0.144813 
-0.0062208 0.144813 10.4214 
10.2745 -0.0694528 -0.13284 
-0.0694528 9.93036 0.079127 
-0.13284 0.079127 10.1113 
11.6886 0.488851 -0.077975 
0.488851 8.71279 -0.921427 
-0.077975 -0.921427 11.692 
11.0346 -1.08912 -0.139089 
-1.08912 9.54485 -1.53438 
-0.139089 -1.53438 11.5138 
10.4143 -1.12839 0.074116 
-1.12839 8.76303 -1.70298 
0.074116 -1.70298 12.916 
10.9416 -0.114932 -0.877356 
-0.114932 9.15576 -1.4586 
-0.877356 -1.4586 11.996 
10.1325 -0.00214355 -0.0262926 
-0.00214355 10.1634 0.00759869 
-0.0262926 0.00759869 9.93811 
10.0982 -0.0120935 -0.0203953 
-0.0120935 10.1432 0.0219293 
-0.0203953 0.0219293 9.9925 
10.1014 0.000421011 -0.0110645 
0.000421011 10.1485 -0.0124924 
-0.0110645 -0.0124924 9.98408 
10.1328 0.00628356 -0.0420911 
0.00628356 10.1568 0.00108194 
-0.0420911 0.00108194 9.94439 
9.17856 -0.159797 -0.00681761 
-0.159797 9.72865 -0.0151527 
-0.00681761 -0.0151527 9.7668 
9.71647 0.0369898 -0.334908 
0.0369898 9.44542 0.119684 
-0.334908 0.119684 9.51212 
9.65294 0.11112 -0.244322 
0.11112 9.5575 0.00438551 
-0.244322 0.00438551 9.46357 
9.26478 -0.00301781 -0.292066 
-0.00301781 9.5984 -0.166102 
-0.292066 -0.166102 9.81082 
9.94763 -0.0302113 0.0330237 
-0.0302113 9.91382 0.0591905 
0.0330237 0.0591905 10.1113 
10.0389 -0.037376 -0.00714975 
-0.037376 10.0806 0.0782663 
-0.00714975 0.0782663 9.85325 
9.99221 -0.0959186 0.059135 
-0.0959186 9.90096 0.030211 
0.059135 0.030211 10.0796 
10.0175 -0.00835396 0.0987688 
-0.00835396 9.95135 0.120794 
0.0987688 0.120794 10.0039 
9.63102 0.00975874 0.14098 
0.00975874 9.62426 0.298984 
0.14098 0.298984 9.61823 
9.64551 -0.00361362 0.148313 
-0.00361362 9.60975 0.294581 
0.148313 0.294581 9.61825 
9.61939 0.00570278 0.159215 
0.00570278 9.59943 0.310819 
0.159215 0.310819 9.65469 
9.63333 0.0235857 0.145127 
0.0235857 9.61597 0.309311 
0.145127 0.309311 9.62421 
10.1758 -0.00416532 0.0131628 
-0.00416532 10.1828 0.00876793 
0.0131628 0.00876793 9.98889 
10.1925 -0.00266824 0.0284529 
-0.00266824 10.2008 -0.0103145 
0.0284529 -0.0103145 9.95408 
10.1711 -0.00117426 0.015443 
-0.00117426 10.1743 -0.0169763 
0.015443 -0.0169763 10.0021 
10.1929 -0.00591891 0.0360441 
-0.00591891 10.1967 -0.000317453 
0.0360441 -0.000317453 9.95787 
10.6036 -0.410116 0.198313 
-0.410116 7.74815 -0.970949 
0.198313 -0.970949 13.6925 
11.0108 -2.28767 -0.789475 
-2.28767 11.25 0.506454 
-0.789475 0.506454 9.78338 
9.87712 0.732277 0.339397 
0.732277 9.5288 -0.32291 
0.339397 -0.32291 12.6383 
12.8552 -0.881102 0.677786 
-0.881102 9.30775 -0.368473 
0.677786 -0.368473 9.88124 
9.59435 0.0198809 0.191017 
0.0198809 9.59108 0.297247 
0.191017 0.297247 9.63702 
9.64022 -0.0094076 0.1909 
-0.0094076 9.60194 0.289652 
0.1909 0.289652 9.58029 
9.61975 0.000475207 0.20767 
0.000475207 9.59787 0.276217 
0.20767 0.276217 9.60484 
9.62854 0.00470659 0.203409 
0.00470659 9.59603 0.29218 
0.203409 0.29218 9.59789 
10.8995 -0.754251 -1.12604 
-0.754251 12.208 -0.74894 
-1.12604 -0.74894 14.6334 
13.222 -1.19297 -0.960901 
-1.19297 13.405 -0.496386 
-0.960901 -0.496386 11.1139 
10.0218 -0.969472 -1.53439 
-0.969472 13.1896 -0.229755 
-1.53439 -0.229755 14.5295 
11.1742 -0.707011 -0.208415 
-0.707011 12.3562 0.0585402 
-0.208415 0.0585402 14.2105 
9.56737 -0.0407715 0.0293148 
-0.0407715 9.86175 -0.00505709 
0.0293148 -0.00505709 9.76063 
9.61419 -0.0914803 0.0847312 
-0.0914803 9.67928 0.038284 
0.0847312 0.038284 9.89627 
9.21207 -0.0186237 0.195146 
-0.0186237 9.50965 -0.127303 
0.195146 -0.127303 10.468 
9.5676 -0.0173201 0.252378 
-0.0173201 9.84906 0.0973458 
0.252378 0.0973458 9.77309 
9.78444 0.00262995 0.077531 
0.00262995 9.78044 -0.309167 
0.077531 -0.309167 9.76698 
9.81374 0.00931475 0.0580705 
0.00931475 9.73781 -0.297274 
0.0580705 -0.297274 9.78031 
9.74506 -0.00989603 0.0692144 
-0.00989603 9.81256 -0.306767 
0.0692144 -0.306767 9.77425 
9.78144 -0.00747047 0.0705263 
-0.00747047 9.78108 -0.327404 
0.0705263 -0.327404 9.76934 
10.1628 -0.00254584 -0.00155962 
-0.00254584 10.1679 0.0173429 
-0.00155962 0.0173429 9.99095 
10.181 -0.00330277 0.0239149 
-0.00330277 10.1847 0.00817895 
0.0239149 0.00817895 9.9558 
10.173 -0.00107035 0.0134081 
-0.00107035 10.1759 -0.0101324 
0.0134081 -0.0101324 9.97263 
10.1867 0.000818353 0.0279981 
0.000818353 10.1913 0.00498635 
0.0279981 0.00498635 9.94358 
4.44089 0.587891 0.404236 
0.587891 5.79687 -1.91748 
0.404236 -1.91748 -1.49732 
3.28195 0.0660632 -0.195111 
0.0660632 3.03153 -0.433097 
-0.195111 -0.433097 2.42695 
4.72989 0.682211 -0.75563 
0.682211 3.67974 0.232776 
-0.75563 0.232776 0.3308 
1.62883 -0.0136985 -0.140672 
-0.0136985 4.0879 1.12447 
-0.140672 1.12447 3.0237 
10.7983 0.964229 0.71168 
0.964229 7.60249 3.15203 
0.71168 3.15203 11.3016 
10.7341 0.796915 -0.618581 
0.796915 7.42867 0.561221 
-0.618581 0.561221 11.5396 
10.1145 0.60248 -1.16784 
0.60248 8.96146 0.743515 
-1.16784 0.743515 10.6265 
9.68363 0.5943 1.48122 
0.5943 9.20488 1.54962 
1.48122 1.54962 10.8139 
12.538 -0.0561846 -0.0263895 
-0.0561846 12.7258 -0.370448 
-0.0263895 -0.370448 13.4598 
11.8974 -0.0156847 -0.0548867 
-0.0156847 12.153 -0.855234 
-0.0548867 -0.855234 14.6732 
11.8895 -0.544561 0.621883 
-0.544561 12.6926 -0.253889 
0.621883 -0.253889 14.1415 
12.483 -0.0729101 0.208491 
-0.0729101 13.0159 0.444384 
0.208491 0.444384 13.2247 
9.67359 0.030768 -0.278966 
0.030768 9.70203 -0.387876 
-0.278966 -0.387876 9.92845 
9.61547 -0.234132 -0.246722 
-0.234132 9.35969 -0.222138 
-0.246722 -0.222138 10.3289 
9.82454 -0.107814 -0.0268932 
-0.107814 9.88205 -0.0476128 
-0.0268932 -0.0476128 9.59747 
9.53028 -0.158369 -0.145946 
-0.158369 9.54927 -0.300988 
-0.145946 -0.300988 10.2245 
9.80433 0.017431 -0.16247 
0.017431 9.76642 0.270178 
-0.16247 0.270178 9.7571 
9.74411 -0.0245167 -0.180399 
-0.0245167 9.78323 0.269852 
-0.180399 0.269852 9.80051 
9.78444 -0.00702044 -0.194677 
-0.00702044 9.78385 0.255827 
-0.194677 0.255827 9.75956 
9.7755 -0.00527185 -0.184263 
-0.00527185 9.78263 0.269549 
-0.184263 0.269549 9.76972 
9.51978 -0.280792 0.459923 
-0.280792 10.8158 0.0462947 
0.459923 0.0462947 14.5207 
13.3483 0.469709 0.145484 
0.469709 10.9462 -0.544246 
0.145484 -0.544246 10.5617 
11.7785 -0.486638 0.0147201 
-0.486638 9.91588 -0.521464 
0.0147201 -0.521464 13.1619 
12.0108 -0.973277 -2.01992 
-0.973277 10.2554 -1.4138 
-2.01992 -1.4138 12.5902 
9.76333 -0.00647962 -0.273968 
-0.00647962 9.76981 0.179829 
-0.273968 0.179829 9.72098 
9.75701 0.00606845 -0.274504 
0.00606845 9.76148 0.172012 
-0.274504 0.172012 9.73564 
9.76166 -0.0145603 -0.27031 
-0.0145603 9.7535 0.176226 
-0.27031 0.176226 9.73897 
9.75439 -0.00646039 -0.269714 
-0.00646039 9.77524 0.1819 
-0.269714 0.1819 9.72449 
9.74766 -0.0866875 -0.226644 
-0.0866875 9.43053 -0.025955 
-0.226644 -0.025955 9.58704 
9.31749 0.0146919 -0.244034 
0.0146919 9.66104 0.00115453 
-0.244034 0.00115453 9.7867 
9.46823 0.00602413 -0.340115 
0.00602413 9.59519 -0.0221324 
-0.340115 -0.0221324 9.70182 
9.47159 -0.0412219 -0.41916 
-0.0412219 9.62457 -0.00761002 
-0.41916 -0.00761002 9.66907 
9.77884 0.193092 0.0564279 
0.193092 9.27361 0.206993 
0.0564279 0.206993 10.0038 
9.65086 0.0298659 0.0288848 
0.0298659 9.6496 0.234004 
0.0288848 0.234004 9.75575 
9.70625 0.0617856 0.0404609 
0.0617856 9.58017 0.265241 
0.0404609 0.265241 9.7698 
9.67936 -0.00355829 -0.0368195 
-0.00355829 9.65262 0.320045 
-0.0368195 0.320045 9.72423 
9.77087 -0.162266 0.115273 
-0.162266 9.59497 -0.106894 
0.115273 -0.106894 9.75641 
9.0767 0.000972895 0.291557 
0.000972895 9.97655 0.0251979 
0.291557 0.0251979 10.069 
9.4458 -0.0240329 0.310365 
-0.0240329 9.93781 0.156681 
0.310365 0.156681 9.73864 
9.71376 0.0313055 0.46104 
0.0313055 9.66025 0.0713403 
0.46104 0.0713403 9.74824 
9.71168 0.0243848 -0.155682 
0.0243848 9.64147 0.122579 
-0.155682 0.122579 9.84441 
9.68433 0.0595855 -0.167756 
0.0595855 9.66397 0.0620971 
-0.167756 0.0620971 9.84926 
9.44616 0.0852616 -0.112047 
0.0852616 9.82023 0.0545907 
-0.112047 0.0545907 9.93117 
9.69552 0.117593 -0.235101 
0.117593 9.64247 0.0466416 
-0.235101 0.0466416 9.85958 
10.0522 -0.0443101 -0.00675689 
-0.0443101 10.1405 -0.0262084 
-0.00675689 -0.0262084 10.1427 
10.0838 0.00788109 -0.0201424 
0.00788109 10.1183 -0.0379088 
-0.0201424 -0.0379088 10.1333 
10.1057 0.00026696 0.0149874 
0.00026696 10.1215 -0.00436312 
0.0149874 -0.00436312 10.1082 
10.0572 0.00972357 0.00404359 
0.00972357 10.1659 -0.0214685 
0.00404359 -0.0214685 10.1123 
9.69431 -0.012501 -0.327328 
-0.012501 9.69678 -0.0703118 
-0.327328 -0.0703118 9.68799 
9.70393 -0.00359504 -0.327233 
-0.00359504 9.69877 -0.0771894 
-0.327233 -0.0771894 9.67639 
9.70235 0.00178465 -0.325904 
0.00178465 9.681 -0.0740062 
-0.325904 -0.0740062 9.69573 
9.69678 -0.0052919 -0.331898 
-0.0052919 9.69797 -0.0798126 
-0.331898 -0.0798126 9.68433 
9.86228 0.101079 0.0963819 
0.101079 9.62251 0.0471236 
0.0963819 0.0471236 9.99154 
9.90584 -0.0561862 -0.0446266 
-0.0561862 9.87008 -0.125914 
-0.0446266 -0.125914 9.70041 
9.84299 -0.0508423 0.0530803 
-0.0508423 9.68352 -0.104618 
0.0530803 -0.104618 9.94982 
9.93235 -0.0742268 0.035359 
-0.0742268 9.6147 -0.115072 
0.035359 -0.115072 9.92928 
9.78784 -0.0511471 -0.0117051 
-0.0511471 9.67856 -0.1271 
-0.0117051 -0.1271 9.73647 
9.80482 0.0428167 0.0373118 
0.0428167 9.57074 -0.113518 
0.0373118 -0.113518 9.82731 
9.79969 0.103789 0.100723 
0.103789 9.5088 -0.202037 
0.100723 -0.202037 9.89437 
9.71201 0.0207896 0.0250242 
0.0207896 9.60172 -0.0646914 
0.0250242 -0.0646914 9.88914 
10.5159 -0.299497 0.124961 
-0.299497 10.7296 -0.0512042 
0.124961 -0.0512042 12.2554 
12.0256 0.770271 0.0955116 
0.770271 10.8991 -0.247942 
0.0955116 -0.247942 10.5763 
11.641 -0.919556 -0.0208925 
-0.919556 8.41235 -0.712573 
-0.0208925 -0.712573 13.4477 
11.5372 0.265289 -0.21412 
0.265289 10.4554 0.354562 
-0.21412 0.354562 11.5084 
10.1132 -0.00963784 -0.00859958 
-0.00963784 10.1056 -0.0432931 
-0.00859958 -0.0432931 9.94324 
10.1247 -0.00783301 -0.00564746 
-0.00783301 10.0785 -0.0477321 
-0.00564746 -0.0477321 9.95882 
10.0917 -0.0206983 -0.00121973 
-0.0206983 10.0509 -0.0108352 
-0.00121973 -0.0108352 10.0194 
10.1351 -0.0165811 -0.0116532 
-0.0165811 10.0597 -0.0632539 
-0.0116532 -0.0632539 9.96719 
9.68168 -0.025398 0.298739 
-0.025398 9.40767 0.0159031 
0.298739 0.0159031 9.45833 
9.61396 0.0540502 0.238085 
0.0540502 9.47489 0.112171 
0.238085 0.112171 9.45882 
9.34189 -0.141545 0.124841 
-0.141545 9.50942 0.103615 
0.124841 0.103615 9.69637 
9.43566 -0.0438558 0.294777 
-0.0438558 9.42523 0.164124 
0.294777 0.164124 9.68678 
9.64797 -0.013949 -0.123448 
-0.013949 9.63163 -0.290041 
-0.123448 -0.290041 9.7602 
9.6698 0.00405977 -0.108059 
0.00405977 9.67275 -0.293578 
-0.108059 -0.293578 9.69725 
9.66444 0.00394483 -0.109653 
0.00394483 9.67506 -0.29625 
-0.109653 -0.29625 9.70029 
9.66131 0.00384817 -0.104492 
0.00384817 9.65506 -0.279238 
-0.104492 -0.279238 9.72343 
9.59737 -0.0716832 0.178902 
-0.0716832 9.54849 -0.00223958 
0.178902 -0.00223958 9.6675 
9.11897 -0.178503 0.173207 
-0.178503 9.73218 0.00052616 
0.173207 0.00052616 9.96222 
9.50887 -0.090584 0.225344 
-0.090584 9.56166 0.0016149 
0.225344 0.0016149 9.74283 
9.56889 -0.0615573 0.359952 
-0.0615573 9.56496 0.0714372 
0.359952 0.0714372 9.67952 
11.9327 -1.02867 -0.325513 
-1.02867 11.7804 -0.898842 
-0.325513 -0.898842 13.2351 
10.478 -0.190985 0.581911 
-0.190985 11.5236 0.109502 
0.581911 0.109502 14.9465 
14.119 0.461817 -0.219586 
0.461817 10.4497 -0.383303 
-0.219586 -0.383303 12.3795 
12.8962 -0.404015 -0.669584 
-0.404015 11.6466 0.451618 
-0.669584 0.451618 12.4054 
9.74081 -0.0205963 -0.274803 
-0.0205963 9.74327 0.188158 
-0.274803 0.188158 9.79424 
9.77354 -0.0147953 -0.279279 
-0.0147953 9.75431 0.16027 
-0.279279 0.16027 9.75047 
9.77856 -0.00425163 -0.265879 
-0.00425163 9.77335 0.179744 
-0.265879 0.179744 9.72641 
9.75837 -0.00934002 -0.273626 
-0.00934002 9.75866 0.165512 
-0.273626 0.165512 9.76129 
9.57491 0.169152 0.111745 
0.169152 9.80252 0.0910282 
0.111745 0.0910282 9.74384 
9.66189 -0.03078 -0.0688295 
-0.03078 9.7168 0.463368 
-0.0688295 0.463368 9.74257 
9.98116 -0.00978923 -0.0204142 
-0.00978923 9.06837 0.283159 
-0.0204142 0.283159 10.0717 
9.9205 0.0254335 -0.151384 
0.0254335 9.46413 0.310494 
-0.151384 0.310494 9.73664 
10.0558 0.0391874 -0.00845117 
0.0391874 10.1145 -0.0419448 
-0.00845117 -0.0419448 9.99623 
10.0133 0.0434391 -0.0209638 
0.0434391 9.97537 0.0427124 
-0.0209638 0.0427124 10.1779 
10.0322 -0.0477411 0.0114266 
-0.0477411 10.06 -0.0194515 
0.0114266 -0.0194515 10.0742 
10.0683 0.0558956 0.0486283 
0.0558956 10.0767 -0.0283581 
0.0486283 -0.0283581 10.0215 
10.0826 0.0103856 0.00774377 
0.0103856 10.0644 0.00846769 
0.00774377 0.00846769 10.0268 
10.0082 0.0157571 -0.00886898 
0.0157571 10.0166 -0.0230751 
-0.00886898 -0.0230751 10.149 
10.0319 0.00142131 0.00120532 
0.00142131 10.0946 0.00442505 
0.00120532 0.00442505 10.0473 
10.1016 -0.00193879 -0.00767378 
-0.00193879 10.0572 0.0570193 
-0.00767378 0.0570193 10.015 
9.92676 0.00143125 0.00875147 
0.00143125 9.9306 -0.00155345 
0.00875147 -0.00155345 9.958 
9.91904 0.0027869 6.37505e-05 
0.0027869 9.94058 -0.00129839 
6.37505e-05 -0.00129839 9.95574 
9.92735 0.00703011 -0.00723728 
0.00703011 9.93965 0.00150031 
-0.00723728 0.00150031 9.94835 
9.94577 -0.00422712 -0.000880046 
-0.00422712 9.94167 -0.00207852 
-0.000880046 -0.00207852 9.92791 
9.57775 0.044147 0.078811 
0.044147 9.57355 -0.280504 
0.078811 -0.280504 9.52939 
9.57975 0.0587234 0.0973927 
0.0587234 9.47622 -0.327674 
0.0973927 -0.327674 9.62474 
9.53561 0.0134689 0.098154 
0.0134689 9.58359 -0.269294 
0.098154 -0.269294 9.56149 
9.53693 0.0433571 0.0872631 
0.0433571 9.5725 -0.281254 
0.0872631 -0.281254 9.57127 
9.82756 0.146906 0.0438398 
0.146906 9.7842 -0.126524 
0.0438398 -0.126524 10.5413 
10.2384 -0.0705772 0.00573391 
-0.0705772 10.0334 0.0587464 
0.00573391 0.0587464 9.88118 
10.4332 -0.0490658 -0.204115 
-0.0490658 9.82781 0.0816057 
-0.204115 0.0816057 9.89203 
10.1405 -0.104891 -0.0461617 
-0.104891 10.0932 0.0825743 
-0.0461617 0.0825743 9.91932 
12.0318 1.88828 0.538582 
1.88828 9.10146 -0.895 
0.538582 -0.895 13.012 
10.2446 1.35583 0.875673 
1.35583 9.20145 -1.08677 
0.875673 -1.08677 14.6992 
11.5689 1.54151 0.738632 
1.54151 11.0773 -0.592518 
0.738632 -0.592518 11.499 
11.1845 1.5488 -0.358702 
1.5488 10.5029 -0.420756 
-0.358702 -0.420756 12.4579 
9.62814 0.0122188 -0.148685 
0.0122188 9.65372 -0.378459 
-0.148685 -0.378459 9.88567 
9.71653 -0.079785 -0.163396 
-0.079785 9.25431 -0.27905 
-0.163396 -0.27905 10.1967 
9.79896 -0.0359031 -0.0435817 
-0.0359031 9.57514 -0.121255 
-0.0435817 -0.121255 9.79343 
9.65413 -0.256611 -0.0367927 
-0.256611 9.21577 -0.321039 
-0.0367927 -0.321039 10.2976 
9.61762 0.223665 0.0654455 
0.223665 9.27166 -0.322867 
0.0654455 -0.322867 10.3619 
9.66259 -0.0124792 0.190533 
-0.0124792 9.64544 -0.406307 
0.190533 -0.406307 9.94312 
9.71118 0.063255 0.174449 
0.063255 9.3826 -0.284479 
0.174449 -0.284479 10.1574 
9.89997 0.0537576 0.0279272 
0.0537576 9.6953 -0.0600236 
0.0279272 -0.0600236 9.65588 
9.67266 0.00766554 -0.315996 
0.00766554 9.68193 0.10317 
-0.315996 0.10317 9.70476 
9.69696 -0.00714642 -0.312784 
-0.00714642 9.66826 0.100257 
-0.312784 0.100257 9.69413 
9.68942 0.00697346 -0.316855 
0.00697346 9.69527 0.094856 
-0.316855 0.094856 9.67466 
9.6963 -0.00144146 -0.311152 
-0.00144146 9.67202 0.0990662 
-0.311152 0.0990662 9.69103 
13.8044 -1.11823 -0.261655 
-1.11823 12.0062 -1.3367 
-0.261655 -1.3367 14.771 
12.6762 -0.465053 -0.204472 
-0.465053 10.8421 -2.07419 
-0.204472 -2.07419 17.0634 
13.3776 -0.0904944 -0.403952 
-0.0904944 11.6007 -0.755519 
-0.403952 -0.755519 15.6034 
14.0979 -0.131072 -0.851166 
-0.131072 12.1738 0.0110242 
-0.851166 0.0110242 14.3099 
10.0752 -0.0218596 0.0203549 
-0.0218596 10.1255 0.0453444 
0.0203549 0.0453444 9.9898 
10.1345 -0.0123923 0.019912 
-0.0123923 10.1449 0.040065 
0.019912 0.040065 9.91107 
10.0589 -0.0444978 0.0213087 
-0.0444978 10.0938 -0.00896255 
0.0213087 -0.00896255 10.0378 
10.1424 -0.0275951 0.0575844 
-0.0275951 10.101 0.0562562 
0.0575844 0.0562562 9.94716 
9.78284 -0.000976514 -0.304554 
-0.000976514 9.78612 -0.0894769 
-0.304554 -0.0894769 9.75823 
9.74433 -0.00585346 -0.298577 
-0.00585346 9.81914 -0.0570651 
-0.298577 -0.0570651 9.76372 
9.80571 0.0102886 -0.306325 
0.0102886 9.74185 -0.0754222 
-0.306325 -0.0754222 9.77964 
9.78451 0.00755302 -0.318762 
0.00755302 9.78126 -0.0776346 
-0.318762 -0.0776346 9.76143 
10.0069 -0.0431476 -0.0197277 
-0.0431476 9.89149 -0.00282057 
-0.0197277 -0.00282057 9.91225 
9.95178 -0.0204553 -0.0147566 
-0.0204553 9.94175 -0.0216179 
-0.0147566 -0.0216179 9.91714 
9.92582 -0.0157444 0.0050334 
-0.0157444 9.93383 0.00260506 
0.0050334 0.00260506 9.95102 
9.92473 0.0338062 -0.0145759 
0.0338062 9.90587 -0.00921367 
-0.0145759 -0.00921367 9.98008 
10.0006 -0.0314088 0.0234114 
-0.0314088 9.9424 -0.00669449 
0.0234114 -0.00669449 9.9118 
9.92005 -0.0267745 -0.0106192 
-0.0267745 9.93257 -0.00494932 
-0.0106192 -0.00494932 10.0022 
9.9465 0.0451886 0.0155688 
0.0451886 9.9212 0.00974035 
0.0155688 0.00974035 9.9871 
9.97311 -0.0344735 0.0309624 
-0.0344735 9.95886 0.0367998 
0.0309624 0.0367998 9.92283 
12.4845 0.50753 -0.140913 
0.50753 13.1956 0.179621 
-0.140913 0.179621 11.2321 
11.1528 0.160376 -0.18561 
0.160376 11.7459 0.306589 
-0.18561 0.306589 14.0135 
11.4784 0.10649 -0.76394 
0.10649 12.3935 -0.0661851 
-0.76394 -0.0661851 13.0403 
11.6591 0.315468 -0.378233 
0.315468 12.6951 -0.678361 
-0.378233 -0.678361 12.5581 
4.16757 -0.624264 0.764408 
-0.624264 5.87353 -0.0201095 
0.764408 -0.0201095 -0.332939 
4.57636 1.24078 0.152634 
1.24078 3.24641 0.587871 
0.152634 0.587871 1.88539 
4.12445 -0.239742 -1.41319 
-0.239742 4.82862 0.579296 
-1.41319 0.579296 0.75509 
2.89224 -0.971026 -1.52227 
-0.971026 3.65506 0.866964 
-1.52227 0.866964 3.16086 
10.6047 0.100291 0.0125699 
0.100291 10.647 -0.112511 
0.0125699 -0.112511 10.5914 
10.526 0.147943 0.0425537 
0.147943 10.3819 -0.119656 
0.0425537 -0.119656 10.9351 
10.4 0.0160095 0.0209856 
0.0160095 10.2055 0.117031 
0.0209856 0.117031 11.2376 
10.6967 0.195644 0.0783384 
0.195644 10.3295 -0.341633 
0.0783384 -0.341633 10.8169 
9.47786 -0.0544189 0.323141 
-0.0544189 9.55415 0.0849846 
0.323141 0.0849846 9.62492 
9.61479 0.000401369 0.26218 
0.000401369 9.50189 0.0696737 
0.26218 0.0696737 9.54024 
9.55376 -0.0510017 0.265937 
-0.0510017 9.56755 0.0626045 
0.265937 0.0626045 9.53562 
9.57905 -0.0740878 0.273993 
-0.0740878 9.49054 0.0753351 
0.273993 0.0753351 9.58733 
9.78243 -0.0219456 -0.0776484 
-0.0219456 9.53939 -0.119036 
-0.0776484 -0.119036 9.90862 
9.58598 0.128868 -0.0313294 
0.128868 9.94598 -0.0586233 
-0.0313294 -0.0586233 9.69848 
9.94017 -0.21443 -0.0831324 
-0.21443 9.47164 0.0259799 
-0.0831324 0.0259799 9.81863 
9.80522 0.25935 -0.0304 
0.25935 9.48407 -0.0532932 
-0.0304 -0.0532932 9.94115 
10.5017 -0.275468 -0.110482 
-0.275468 10.5604 0.0192876 
-0.110482 0.0192876 12.4606 
11.387 0.49395 0.0807007 
0.49395 10.8563 0.198319 
0.0807007 0.198319 11.2794 
11.9007 -0.863239 0.334898 
-0.863239 9.63539 0.595585 
0.334898 0.595585 11.9867 
11.1582 -0.00238435 -0.139169 
-0.00238435 10.8509 -0.0414535 
-0.139169 -0.0414535 11.5137 
9.55008 -0.0307119 -0.0628192 
-0.0307119 9.42797 -0.339788 
-0.0628192 -0.339788 9.69417 
9.5607 -0.0360831 -0.0795282 
-0.0360831 9.61297 -0.314858 
-0.0795282 -0.314858 9.49855 
9.53824 -0.0269824 -0.0894753 
-0.0269824 9.57706 -0.296759 
-0.0894753 -0.296759 9.55693 
9.54535 -0.0256832 -0.0954637 
-0.0256832 9.56792 -0.295029 
-0.0954637 -0.295029 9.55895 
9.99328 -0.00293501 0.000206567 
-0.00293501 9.97755 0.000274351 
0.000206567 0.000274351 9.95042 
9.98763 0.0203461 -0.00517564 
0.0203461 9.93303 -0.0241097 
-0.00517564 -0.0241097 10.0006 
9.93125 0.0165368 0.0336148 
0.0165368 9.92452 -0.0118451 
0.0336148 -0.0118451 10.0655 
9.99101 -0.00265354 -0.0198012 
-0.00265354 9.97807 -0.00199038 
-0.0198012 -0.00199038 9.95217 
7.20002 0.231987 0.775307 
0.231987 6.9481 -0.424672 
0.775307 -0.424672 -4.77329 
0.951127 -1.73553 1.00281 
-1.73553 0.804997 -0.36523 
1.00281 -0.36523 7.6187 
5.25663 3.1581 -2.66071 
3.1581 10.5154 -0.30288 
-2.66071 -0.30288 -6.39718 
7.59466 0.967011 1.80093 
0.967011 2.87034 6.29818 
1.80093 6.29818 -1.09017 
9.59168 -0.0202465 -0.329831 
-0.0202465 9.63766 -0.110089 
-0.329831 -0.110089 9.68527 
9.63618 -0.00740979 -0.313776 
-0.00740979 9.63882 -0.0983542 
-0.313776 -0.0983542 9.63961 
9.66085 0.000163182 -0.311872 
0.000163182 9.60401 -0.104785 
-0.311872 -0.104785 9.64974 
9.62974 -0.00607424 -0.291911 
-0.00607424 9.61177 -0.0953097 
-0.291911 -0.0953097 9.67309 
9.98103 -0.0215296 0.029778 
-0.0215296 10.0298 0.0369669 
0.029778 0.0369669 9.94455 
10.0333 -0.0279114 0.0260249 
-0.0279114 10.0075 0.0339091 
0.0260249 0.0339091 9.91462 
9.94418 -0.0407885 0.00126277 
-0.0407885 9.91321 0.00167065 
0.00126277 0.00167065 10.098 
10.0388 -0.0565252 0.0705608 
-0.0565252 9.99747 0.0746424 
0.0705608 0.0746424 9.91914 
9.93353 -0.419646 0.456633 
-0.419646 10.6831 0.32789 
0.456633 0.32789 11.7093 
10.579 -0.176933 0.195735 
-0.176933 10.8007 0.143704 
0.195735 0.143704 10.9462 
10.7581 -0.123328 0.218122 
-0.123328 10.1155 -0.155657 
0.218122 -0.155657 11.4523 
10.6098 -0.101478 -0.496122 
-0.101478 10.5212 -0.508823 
-0.496122 -0.508823 11.195 
10.0375 -0.0355379 0.0353266 
-0.0355379 10.0106 -0.0259849 
0.0353266 -0.0259849 9.91314 
9.9794 -0.00943359 -0.00731797 
-0.00943359 9.90692 -0.00406648 
-0.00731797 -0.00406648 10.075 
9.93012 0.0505663 0.0104102 
0.0505663 9.97759 0.0107079 
0.0104102 0.0107079 10.0536 
9.99639 -0.069074 -0.0183804 
-0.069074 9.99699 0.0498831 
-0.0183804 0.0498831 9.96793 
9.91171 0.00812481 0.00852059 
0.00812481 9.91375 -0.0273681 
0.00852059 -0.0273681 9.98619 
9.93934 0.0416025 0.00109538 
0.0416025 9.94817 0.000594974 
0.00109538 0.000594974 9.92414 
9.95336 0.00756749 -0.0325194 
0.00756749 9.92008 -0.0179446 
-0.0325194 -0.0179446 9.93822 
9.90775 0.0088705 0.0152666 
0.0088705 9.87998 0.0104128 
0.0152666 0.0104128 10.0239 
13.7116 0.798433 0.140046 
0.798433 12.9965 0.148823 
0.140046 0.148823 11.8875 
13.6237 -1.37897 -0.694215 
-1.37897 10.8662 -0.940405 
-0.694215 -0.940405 14.1058 
11.4851 -0.131102 0.562691 
-0.131102 12.3026 0.34496 
0.562691 0.34496 14.8079 
13.3256 0.096187 -0.797804 
0.096187 12.1354 0.0701734 
-0.797804 0.0701734 13.1346 
9.36567 -0.160857 0.212367 
-0.160857 9.56743 0.264578 
0.212367 0.264578 10.2429 
9.66467 0.0759348 0.406678 
0.0759348 9.62542 0.333654 
0.406678 0.333654 9.88589 
9.80452 -0.0793855 0.0394461 
-0.0793855 9.84022 0.0329362 
0.0394461 0.0329362 9.53125 
9.50326 -0.196508 0.301898 
-0.196508 9.42683 0.155744 
0.301898 0.155744 10.2459 
5.9803 -1.16037 -0.403224 
-1.16037 4.7293 -1.86561 
-0.403224 -1.86561 -0.772229 
3.8132 -1.23271 -1.0347 
-1.23271 4.43004 0.078969 
-1.0347 0.078969 1.69413 
3.81271 1.62922 -1.68738 
1.62922 5.72694 -1.20265 
-1.68738 -1.20265 0.397721 
3.69994 -1.57199 -1.16581 
-1.57199 3.29892 1.15095 
-1.16581 1.15095 2.93851 
10.5377 0.0882138 0.370939 
0.0882138 10.7659 -0.116847 
0.370939 -0.116847 12.5149 
11.4389 -0.113031 -0.233173 
-0.113031 11.6021 0.0252259 
-0.233173 0.0252259 10.7775 
11.2252 0.085609 -0.225778 
0.085609 11.2702 0.0898944 
-0.225778 0.0898944 11.3231 
10.9247 0.309386 -0.524547 
0.309386 11.5295 0.526222 
-0.524547 0.526222 11.3643 
9.84963 0.0243517 0.308979 
0.0243517 9.73764 0.038938 
0.308979 0.038938 9.73881 
9.74828 -0.00499874 0.315473 
-0.00499874 9.79916 0.0303795 
0.315473 0.0303795 9.77864 
9.76679 0.012378 0.329567 
0.012378 9.79449 0.0244544 
0.329567 0.0244544 9.76481 
9.79095 -0.00633429 0.358882 
-0.00633429 9.78509 0.0472353 
0.358882 0.0472353 9.75004 
9.99427 0.0285645 -0.0264368 
0.0285645 10.055 0.000767617 
-0.0264368 0.000767617 9.98965 
9.94401 0.029042 -0.0182473 
0.029042 10.107 0.0313737 
-0.0182473 0.0313737 9.98789 
10.0307 -0.0846588 0.000119358 
-0.0846588 10.0177 -0.0010218 
0.000119358 -0.0010218 9.99051 
9.94274 0.0155568 0.00117841 
0.0155568 10.0156 -0.00313568 
0.00117841 -0.00313568 10.0806 
11.3553 -0.214661 0.157677 
-0.214661 9.74525 0.590953 
0.157677 0.590953 12.3012 
10.7256 -1.72233 0.233833 
-1.72233 11.4898 -0.487607 
0.233833 -0.487607 11.1864 
10.5804 0.318147 -0.0750649 
0.318147 10.5375 0.178489 
-0.0750649 0.178489 12.2839 
11.6814 -0.517881 -0.109937 
-0.517881 10.5767 0.0693357 
-0.109937 0.0693357 11.1437 
9.38786 0.11816 0.131714 
0.11816 9.57444 -0.0439776 
0.131714 -0.0439776 9.86982 
9.57224 -0.0235293 0.251304 
-0.0235293 9.53152 -0.0764016 
0.251304 -0.0764016 9.72835 
9.68048 -0.0739736 0.149369 
-0.0739736 9.52245 -0.0997748 
0.149369 -0.0997748 9.62918 
9.5833 0.0375848 0.36342 
0.0375848 9.47902 -0.0834206 
0.36342 -0.0834206 9.7698 
9.84106 0.0851919 -0.0600909 
0.0851919 9.84954 -0.000656666 
-0.0600909 -0.000656666 9.51177 
9.30563 0.127695 -0.248336 
0.127695 9.66396 0.223237 
-0.248336 0.223237 10.2328 
9.4284 0.154316 -0.313508 
0.154316 9.49682 0.101517 
-0.313508 0.101517 10.2772 
9.68823 -0.0897209 -0.466813 
-0.0897209 9.63794 0.27033 
-0.466813 0.27033 9.8762 
9.71072 -0.011435 -0.25698 
-0.011435 9.72195 0.23426 
-0.25698 0.23426 9.63339 
9.68693 0.0154724 -0.230851 
0.0154724 9.68951 0.2553 
-0.230851 0.2553 9.68963 
9.68069 -0.0202789 -0.246498 
-0.0202789 9.6852 0.235769 
-0.246498 0.235769 9.70018 
9.67604 0.00233859 -0.242914 
0.00233859 9.71726 0.24142 
-0.242914 0.24142 9.67276 
10.1959 -0.282256 -0.621064 
-0.282256 9.7221 -0.382 
-0.621064 -0.382 15.2838 
11.809 -0.526142 0.76492 
-0.526142 11.4118 0.502091 
0.76492 0.502091 11.9811 
10.489 0.368304 0.341833 
0.368304 14.092 -0.244585 
0.341833 -0.244585 10.6208 
11.5162 -0.776876 -0.527456 
-0.776876 12.3819 1.1217 
-0.527456 1.1217 11.3038 
9.94744 -0.00795461 0.00291735 
-0.00795461 9.99897 -0.0126794 
0.00291735 -0.0126794 10.0095 
10.019 -0.00175924 -0.00860548 
-0.00175924 9.97474 -0.0223955 
-0.00860548 -0.0223955 9.96218 
9.99648 0.0102259 -0.00253198 
0.0102259 9.96358 0.00852154 
-0.00253198 0.00852154 9.99584 
10.02 -0.0303262 0.0122506 
-0.0303262 9.97504 -0.00980119 
0.0122506 -0.00980119 9.96081 
9.99591 0.00669813 -0.0602543 
0.00669813 9.86188 0.0141846 
-0.0602543 0.0141846 10.0468 
9.79222 0.0549715 0.0427811 
0.0549715 10.1534 -0.0908133 
0.0427811 -0.0908133 9.95895 
10.104 0.0531145 0.00218484 
0.0531145 9.85054 0.0660662 
0.00218484 0.0660662 9.95 
9.92406 -0.032807 0.133087 
-0.032807 10.0301 -0.0278594 
0.133087 -0.0278594 9.95042 
9.83443 0.0230754 0.0546539 
0.0230754 9.84688 -0.00782147 
0.0546539 -0.00782147 9.86844 
9.84521 0.00459305 -0.0817486 
0.00459305 9.86466 0.0262377 
-0.0817486 0.0262377 9.83989 
9.79314 0.041765 -0.0524729 
0.041765 9.92445 0.0561858 
-0.0524729 0.0561858 9.83217 
9.89285 0.0477741 -0.0349277 
0.0477741 9.79796 -0.0332984 
-0.0349277 -0.0332984 9.85894 
13.6495 1.53916 -1.16524 
1.53916 10.2713 2.37171 
-1.16524 2.37171 10.5256 
10.0636 2.00402 1.0417 
2.00402 4.04074 -0.111691 
1.0417 -0.111691 20.342 
8.76604 3.53997 -0.752102 
3.53997 5.40457 -0.858015 
-0.752102 -0.858015 20.2758 
10.3129 0.357647 0.933112 
0.357647 10.2787 -2.56913 
0.933112 -2.56913 13.8547 
8.88087 1.47757 -1.48813 
1.47757 13.1676 0.565731 
-1.48813 0.565731 13.8083 
9.60542 1.07789 -0.126688 
1.07789 9.55151 0.00568978 
-0.126688 0.00568978 16.6998 
10.9017 0.903126 -1.05378 
0.903126 12.2867 0.341966 
-1.05378 0.341966 12.6684 
10.9599 0.824735 -1.32441 
0.824735 11.7785 0.0273263 
-1.32441 0.0273263 13.1185 
8.10157 0.448651 -0.81831 
0.448651 7.85146 -1.02827 
-0.81831 -1.02827 -4.65852 
10.8806 3.23827 -1.37961 
3.23827 5.3141 1.92468 
-1.37961 1.92468 -4.90015 
1.7344 -1.64301 -0.563759 
-1.64301 1.2004 -0.868567 
-0.563759 -0.868567 8.35971 
3.59939 1.03598 -7.09703 
1.03598 7.56097 -2.35893 
-7.09703 -2.35893 0.134155 
9.38802 -0.0416046 -0.28184 
-0.0416046 9.6391 -0.168684 
-0.28184 -0.168684 10.1502 
9.74832 0.00214226 -0.0462191 
0.00214226 9.95084 -0.0161432 
-0.0462191 -0.0161432 9.47815 
9.29099 -0.190161 -0.323456 
-0.190161 9.55345 -0.0464569 
-0.323456 -0.0464569 10.3329 
9.73183 0.0492597 -0.540937 
0.0492597 9.57902 -0.231181 
-0.540937 -0.231181 9.86646 
9.53202 -0.0304153 -0.0759514 
-0.0304153 9.6815 0.0490763 
-0.0759514 0.0490763 9.77578 
9.45415 0.0972297 -0.174315 
0.0972297 9.68305 0.032502 
-0.174315 0.032502 9.8521 
9.56267 -0.0377814 -0.0800236 
-0.0377814 9.72428 0.0709445 
-0.0800236 0.0709445 9.70236 
9.44604 -0.0794336 -0.00299868 
-0.0794336 9.77006 0.0414173 
-0.00299868 0.0414173 9.77321 
10.0492 -0.0410797 0.109212 
-0.0410797 9.96674 0.0861484 
0.109212 0.0861484 9.79549 
10.0758 -0.000588612 -0.0475067 
-0.000588612 9.71416 -0.00701064 
-0.0475067 -0.00701064 10.0214 
9.89696 -0.00591416 0.0351549 
-0.00591416 10.0067 0.0410236 
0.0351549 0.0410236 9.90776 
9.942 -0.00993347 0.0346144 
-0.00993347 9.97512 0.00997998 
0.0346144 0.00997998 9.89426 
9.49771 -0.199797 0.0989164 
-0.199797 9.40579 0.319008 
0.0989164 0.319008 10.3068 
9.64967 -0.105531 0.22312 
-0.105531 9.35271 0.250307 
0.22312 0.250307 10.208 
9.6282 0.0671791 0.27249 
0.0671791 9.70673 0.444453 
0.27249 0.444453 9.87542 
9.8742 -0.0719356 0.0196798 
-0.0719356 9.80654 0.0506807 
0.0196798 0.0506807 9.52962 
4.97253 1.25489 1.37059 
1.25489 6.61875 -0.883876 
1.37059 -0.883876 -1.04934 
6.58524 -0.517785 1.39178 
-0.517785 2.15836 0.444013 
1.39178 0.444013 1.79834 
2.79479 0.283033 0.313344 
0.283033 4.00395 0.613164 
0.313344 0.613164 3.7432 
2.40611 0.581304 -0.639596 
0.581304 4.62376 2.09579 
-0.639596 2.09579 3.51207 
9.06211 0.162749 -0.354176 
0.162749 9.60728 0.00824266 
-0.354176 0.00824266 10.4241 
9.28827 -0.00548752 -0.334044 
-0.00548752 9.72788 0.121599 
-0.334044 0.121599 10.0773 
9.59505 -0.0129755 -0.411672 
-0.0129755 9.63501 0.214765 
-0.411672 0.214765 9.86339 
9.55083 0.0700932 -0.138306 
0.0700932 9.76589 0.0390069 
-0.138306 0.0390069 9.77673 
9.63997 -0.0752224 -0.330429 
-0.0752224 9.64758 0.399378 
-0.330429 0.399378 9.88704 
9.58085 0.188913 -0.264343 
0.188913 9.34026 0.209173 
-0.264343 0.209173 10.2535 
9.43925 0.1739 -0.155959 
0.1739 9.49955 0.296905 
-0.155959 0.296905 10.2358 
9.82012 0.0827938 -0.0250848 
0.0827938 9.81419 0.0458649 
-0.0250848 0.0458649 9.54028 
9.53611 0.131721 0.15467 
0.131721 9.53725 -0.29796 
0.15467 -0.29796 10.1705 
9.78364 0.122841 0.0176053 
0.122841 9.92121 -0.0366728 
0.0176053 -0.0366728 9.53898 
9.64172 -0.0515425 0.309304 
-0.0515425 9.66879 -0.442688 
0.309304 -0.442688 9.93331 
9.60032 0.224404 0.244034 
0.224404 9.32745 -0.230405 
0.244034 -0.230405 10.316 
9.69984 0.0055067 -0.334436 
0.0055067 9.65419 -0.051779 
-0.334436 -0.051779 9.71138 
9.6918 -0.00692213 -0.3404 
-0.00692213 9.69784 -0.0386553 
-0.3404 -0.0386553 9.67577 
9.67565 0.000352663 -0.337143 
0.000352663 9.69249 -0.0343518 
-0.337143 -0.0343518 9.69727 
9.6878 -0.00592229 -0.347986 
-0.00592229 9.68538 -0.039041 
-0.347986 -0.039041 9.69224 
9.98838 -0.0420414 -0.0540622 
-0.0420414 9.89918 -0.0716958 
-0.0540622 -0.0716958 9.91408 
9.94249 -0.0450148 0.0103872 
-0.0450148 9.69679 -0.0594931 
0.0103872 -0.0594931 10.1624 
9.97599 0.00851194 -0.0588288 
0.00851194 9.94871 -0.0464424 
-0.0588288 -0.0464424 9.87694 
9.9669 -0.0675218 -0.100692 
-0.0675218 9.92664 -0.142489 
-0.100692 -0.142489 9.90811 
9.54035 0.147587 -0.0400321 
0.147587 9.35934 0.331268 
-0.0400321 0.331268 10.2845 
9.57992 -0.0661725 -0.190962 
-0.0661725 9.73688 0.521212 
-0.190962 0.521212 9.86739 
9.66998 0.036685 -0.172575 
0.036685 9.31511 0.289511 
-0.172575 0.289511 10.1991 
9.87981 0.0724958 -0.00697688 
0.0724958 9.80976 0.0520137 
-0.00697688 0.0520137 9.49461 
5.26421 -0.759942 -1.86065 
-0.759942 3.36177 -0.558622 
-1.86065 -0.558622 0.0837079 
3.18972 0.285544 -0.589247 
0.285544 3.84621 -0.766068 
-0.589247 -0.766068 1.67376 
3.75088 0.705855 -1.30301 
0.705855 5.5126 0.530519 
-1.30301 0.530519 -0.553791 
2.10415 0.604082 0.17594 
0.604082 4.44717 -1.54324 
0.17594 -1.54324 2.15838 
9.77458 -0.0146573 -0.286427 
-0.0146573 9.78505 -0.124696 
-0.286427 -0.124696 9.75508 
9.7731 -0.0040505 -0.29437 
-0.0040505 9.78334 -0.116705 
-0.29437 -0.116705 9.75828 
9.77212 0.00102859 -0.295708 
0.00102859 9.76622 -0.116699 
-0.295708 -0.116699 9.77637 
9.78171 -0.00355636 -0.292874 
-0.00355636 9.77898 -0.117046 
-0.292874 -0.117046 9.75402 
9.30879 -0.177094 0.290894 
-0.177094 9.674 0.218226 
0.290894 0.218226 10.1995 
9.5792 -0.0508376 0.369484 
-0.0508376 9.64118 0.19569 
0.369484 0.19569 9.9619 
9.56251 -0.122555 0.171433 
-0.122555 9.74587 0.0926429 
0.171433 0.0926429 9.8739 
9.3838 -0.251342 0.345583 
-0.251342 9.5837 0.117353 
0.345583 0.117353 10.2148 
7.38988 -0.458761 -0.82672 
-0.458761 6.63717 -0.707264 
-0.82672 -0.707264 -3.77192 
11.8486 -3.49619 1.85996 
-3.49619 4.62387 1.71116 
1.85996 1.71116 -6.21736 
-0.805251 -0.490472 -0.959977 
-0.490472 3.50497 -1.25999 
-0.959977 -1.25999 7.55541 
6.51311 2.12554 -5.97343 
2.12554 4.34055 3.28455 
-5.97343 3.28455 -0.598533 
9.78959 -0.0749936 0.0533233 
-0.0749936 9.87103 0.0104452 
0.0533233 0.0104452 9.51446 
9.29419 -0.0402888 0.29142 
-0.0402888 9.67784 0.175195 
0.29142 0.175195 10.2031 
9.71783 0.0589014 0.50165 
0.0589014 9.58682 0.186157 
0.50165 0.186157 9.87044 
9.33686 -0.156704 0.334292 
-0.156704 9.54337 0.0394686 
0.334292 0.0394686 10.2949 
9.61436 -0.0123203 0.160043 
-0.0123203 9.5909 -0.269594 
0.160043 -0.269594 9.58915 
9.61304 -0.0396844 0.170221 
-0.0396844 9.56836 -0.27544 
0.170221 -0.27544 9.61301 
9.62568 0.0707983 0.146451 
0.0707983 9.4575 -0.25684 
0.146451 -0.25684 9.71122 
9.60523 -0.0111438 0.163815 
-0.0111438 9.57478 -0.357153 
0.163815 -0.357153 9.61439 
5.01031 3.536 -1.84362 
3.536 10.8122 0.96287 
-1.84362 0.96287 -4.00015 
7.19979 0.616217 1.28902 
0.616217 7.52298 0.74176 
1.28902 0.74176 -2.90036 
1.9715 -1.54793 0.911308 
-1.54793 2.36172 0.498968 
0.911308 0.498968 7.48919 
7.21978 0.923235 1.58364 
0.923235 3.703 6.10854 
1.58364 6.10854 0.899634 
9.29138 -0.152262 -0.259622 
-0.152262 9.6633 -0.216839 
-0.259622 -0.216839 10.1948 
9.56345 -0.0171197 -0.369744 
-0.0171197 9.62711 -0.217445 
-0.369744 -0.217445 9.9589 
9.66015 -0.128156 -0.0661266 
-0.128156 9.77518 -0.0547665 
-0.0661266 -0.0547665 9.71413 
9.35644 -0.257184 -0.315498 
-0.257184 9.52807 -0.1169 
-0.315498 -0.1169 10.2649 
9.36299 0.00393776 0.322155 
0.00393776 9.71967 0.118558 
0.322155 0.118558 10.0484 
9.55185 -0.0277092 0.123957 
-0.0277092 9.80083 0.0397848 
0.123957 0.0397848 9.77843 
8.99381 -0.178285 0.343631 
-0.178285 9.67989 0.0122231 
0.343631 0.0122231 10.4574 
9.62182 0.0189337 0.412224 
0.0189337 9.64938 0.179675 
0.412224 0.179675 9.85991 
9.69944 -0.00135974 -0.023533 
-0.00135974 9.69498 -0.340395 
-0.023533 -0.340395 9.69656 
9.7187 -0.00674234 -0.0435995 
-0.00674234 9.70238 -0.343598 
-0.0435995 -0.343598 9.66991 
9.66017 0.0110009 -0.0497761 
0.0110009 9.71654 -0.334574 
-0.0497761 -0.334574 9.71427 
9.69882 -0.0055148 -0.0371167 
-0.0055148 9.6993 -0.350341 
-0.0371167 -0.350341 9.69287 
9.57561 -0.0247415 0.225965 
-0.0247415 9.45475 -0.0877962 
0.225965 -0.0877962 9.50249 
9.49868 0.059773 0.282167 
0.059773 9.49174 -0.0481778 
0.282167 -0.0481778 9.54244 
9.30747 0.138556 0.18959 
0.138556 9.57213 -0.0861723 
0.18959 -0.0861723 9.65326 
9.46129 0.103906 0.41366 
0.103906 9.4773 -0.213925 
0.41366 -0.213925 9.59426 
9.39806 -0.0237534 -0.30033 
-0.0237534 9.6117 -0.0593039 
-0.30033 -0.0593039 9.63863 
9.58213 0.0141834 -0.26289 
0.0141834 9.49593 -0.0140628 
-0.26289 -0.0140628 9.57033 
9.39777 -0.0267385 -0.201217 
-0.0267385 9.56668 -0.0438695 
-0.201217 -0.0438695 9.68394 
9.51755 -0.0735432 -0.296936 
-0.0735432 9.49866 -0.0181641 
-0.296936 -0.0181641 9.63217 
9.66892 0.0197049 -0.177131 
0.0197049 9.68458 -0.288936 
-0.177131 -0.288936 9.70735 
9.69925 0.00986345 -0.191959 
0.00986345 9.70134 -0.28678 
-0.191959 -0.28678 9.66027 
9.69035 -0.00994023 -0.193305 
-0.00994023 9.68219 -0.277859 
-0.193305 -0.277859 9.68831 
9.69937 0.00248381 -0.191428 
0.00248381 9.68139 -0.277387 
-0.191428 -0.277387 9.68009 
9.98887 0.0588098 0.0191091 
0.0588098 10.0958 0.0220881 
0.0191091 0.0220881 9.99881 
10.0021 0.0168325 0.0182211 
0.0168325 10.0609 -0.00544067 
0.0182211 -0.00544067 10.0204 
10.0153 0.0204852 0.0243019 
0.0204852 9.99373 0.00602201 
0.0243019 0.00602201 10.0744 
10.0015 -0.0244155 0.00701275 
-0.0244155 10.0706 0.00313072 
0.00701275 0.00313072 10.0113 
9.84773 0.0717151 -0.0263178 
0.0717151 9.94869 -0.00396037 
-0.0263178 -0.00396037 9.90048 
9.89141 0.0301659 -0.0268461 
0.0301659 9.85148 -0.00640999 
-0.0268461 -0.00640999 9.95401 
9.899 -0.0133919 -0.0207 
-0.0133919 9.95624 -0.00803186 
-0.0207 -0.00803186 9.84166 
9.88481 0.028357 -0.0043291 
0.028357 9.91813 0.000943236 
-0.0043291 0.000943236 9.89397 
10.1142 -0.143477 0.0592407 
-0.143477 11.3008 0.0242113 
0.0592407 0.0242113 11.4275 
10.6996 -0.0376388 0.0775962 
-0.0376388 10.2304 -0.066203 
0.0775962 -0.066203 11.9124 
10.8777 -0.695898 0.442326 
-0.695898 10.0856 0.331747 
0.442326 0.331747 11.8792 
10.285 -0.196539 -0.576534 
-0.196539 11.1596 -0.583197 
-0.576534 -0.583197 11.3979 
8.34506 5.68607 -0.385678 
5.68607 2.30039 3.58089 
-0.385678 3.58089 24.5042 
14.2911 1.73573 0.926398 
1.73573 7.60126 -1.73849 
0.926398 -1.73849 13.2573 
10.8267 2.74706 -2.00216 
2.74706 2.00923 2.10898 
-2.00216 2.10898 22.3137 
10.8221 0.384322 -1.75599 
0.384322 9.96759 2.96097 
-1.75599 2.96097 14.3599 
9.8076 0.0496004 -0.0407418 
0.0496004 9.56566 0.119746 
-0.0407418 0.119746 9.74991 
9.64074 0.175844 -0.014197 
0.175844 9.02688 0.342325 
-0.014197 0.342325 10.4556 
9.71964 0.000276879 -0.122835 
0.000276879 9.35942 0.321093 
-0.122835 0.321093 10.0441 
9.66016 -0.00714929 -0.194954 
-0.00714929 9.59315 0.404018 
-0.194954 0.404018 9.86986 
9.97178 -0.0279167 0.0158556 
-0.0279167 9.96518 -0.00505852 
0.0158556 -0.00505852 9.93138 
9.91524 -0.0266862 -0.0120442 
-0.0266862 9.91695 0.00542506 
-0.0120442 0.00542506 10.0362 
9.96622 -0.042963 0.0493169 
-0.042963 9.96649 -0.0265562 
0.0493169 -0.0265562 9.93563 
9.96458 0.0110713 0.0224269 
0.0110713 9.90032 0.0267621 
0.0224269 0.0267621 10.0034 
9.34454 0.083081 0.268869 
0.083081 9.60165 -0.234237 
0.268869 -0.234237 10.2148 
9.70002 -0.132301 0.60118 
-0.132301 9.61564 -0.340962 
0.60118 -0.340962 9.84536 
9.4032 0.173504 0.337302 
0.173504 9.47987 -0.109263 
0.337302 -0.109263 10.278 
9.80404 0.0453568 0.0796495 
0.0453568 9.9597 0.0108874 
0.0796495 0.0108874 9.39728 
9.68986 -0.0040847 -0.339705 
-0.0040847 9.66386 0.0469884 
-0.339705 0.0469884 9.70516 
9.67637 0.00240306 -0.343135 
0.00240306 9.6906 0.0358879 
-0.343135 0.0358879 9.69192 
9.70528 0.00128466 -0.349488 
0.00128466 9.69643 0.0344907 
-0.349488 0.0344907 9.65718 
9.68781 0.0057206 -0.346878 
0.0057206 9.68436 0.0320477 
-0.346878 0.0320477 9.68672 
10.0461 0.0391077 -0.00457281 
0.0391077 9.9985 0.0102687 
-0.00457281 0.0102687 10.0048 
9.98097 -0.0366341 -0.0058626 
-0.0366341 10.0241 0.00868147 
-0.0058626 0.00868147 10.0444 
9.96594 0.0680099 0.00422743 
0.0680099 10.1082 0.0341761 
0.00422743 0.0341761 9.97526 
10.0042 0.0348066 -0.0214666 
0.0348066 10.0347 0.00835823 
-0.0214666 0.00835823 10.0106 
10.1788 -0.00791904 -0.0171686 
-0.00791904 10.1726 0.00936532 
-0.0171686 0.00936532 9.99421 
10.1984 0.00242633 0.00118786 
0.00242633 10.1933 0.0232242 
0.00118786 0.0232242 9.95394 
10.1798 -0.00196643 0.0155578 
-0.00196643 10.1862 0.00658146 
0.0155578 0.00658146 9.97968 
10.196 -0.00176097 0.00700162 
-0.00176097 10.2027 0.0280268 
0.00700162 0.0280268 9.94686 
9.98873 -0.0200246 0.00514362 
-0.0200246 9.76767 -0.0311623 
0.00514362 -0.0311623 9.97863 
9.86047 -0.0138584 -0.000685095 
-0.0138584 9.98704 -0.0136567 
-0.000685095 -0.0136567 9.88752 
9.90914 -0.0117432 0.010275 
-0.0117432 9.89638 0.0358654 
0.010275 0.0358654 9.92951 
9.91624 0.01186 0.027504 
0.01186 9.88722 0.049202 
0.027504 0.049202 9.93157 
9.66028 0.00653243 0.150308 
0.00653243 9.60284 0.388565 
0.150308 0.388565 9.92696 
9.69097 -0.0601663 0.179319 
-0.0601663 9.31973 0.302418 
0.179319 0.302418 10.1794 
9.82829 -0.0265043 0.0510821 
-0.0265043 9.56586 0.139364 
0.0510821 0.139364 9.79593 
9.66602 -0.242313 0.0505137 
-0.242313 9.23781 0.346069 
0.0505137 0.346069 10.2862 
9.92808 -6.10757e-05 -0.00312634 
-6.10757e-05 9.95972 -0.0295318 
-0.00312634 -0.0295318 9.88066 
9.92623 0.00481073 -0.0105167 
0.00481073 9.92224 -0.0010525 
-0.0105167 -0.0010525 9.92 
9.90618 0.0177601 -0.017824 
0.0177601 9.9374 -0.00186503 
-0.017824 -0.00186503 9.92489 
9.90373 0.0129603 -0.0259498 
0.0129603 9.95558 0.00865874 
-0.0259498 0.00865874 9.90916 
9.86625 0.0153266 0.0745976 
0.0153266 9.9855 -0.0317347 
0.0745976 -0.0317347 9.82855 
9.90236 -0.00133283 0.0324775 
-0.00133283 9.89268 0.00329626 
0.0324775 0.00329626 9.88525 
9.91562 0.0736636 0.0293961 
0.0736636 9.99497 0.0588782 
0.0293961 0.0588782 9.76971 
9.87336 0.0935341 0.0186601 
0.0935341 9.80044 -0.000960774 
0.0186601 -0.000960774 10.0065 
9.64418 -0.0129201 0.201373 
-0.0129201 9.57325 -0.41266 
0.201373 -0.41266 9.8849 
9.7079 -0.00759117 0.12669 
-0.00759117 9.33681 -0.331023 
0.12669 -0.331023 10.0576 
9.59008 0.156379 0.0179332 
0.156379 9.06477 -0.351135 
0.0179332 -0.351135 10.4475 
9.79741 0.0662706 0.0346872 
0.0662706 9.58221 -0.119864 
0.0346872 -0.119864 9.72271 
10.7929 0.0305722 0.0759815 
0.0305722 10.2943 0.382257 
0.0759815 0.382257 9.62763 
10.5748 0.763949 -0.381526 
0.763949 10.2891 -0.445366 
-0.381526 -0.445366 9.851 
9.39389 -0.0619996 0.547991 
-0.0619996 9.81657 -0.348745 
0.547991 -0.348745 11.5044 
10.504 0.0444627 -0.227799 
0.0444627 10.4496 -0.121402 
-0.227799 -0.121402 9.76131 
9.59623 0.0607053 -0.323763 
0.0607053 9.61603 0.269135 
-0.323763 0.269135 9.95649 
9.62915 0.154919 -0.145725 
0.154919 9.67843 0.120663 
-0.145725 0.120663 9.86118 
9.48746 0.262749 -0.316122 
0.262749 9.47555 0.183153 
-0.316122 0.183153 10.2057 
9.3704 0.252171 -0.240994 
0.252171 9.58651 0.275277 
-0.240994 0.275277 10.2118 
3.70874 -2.63257 -1.63441 
-2.63257 9.71103 -1.7591 
-1.63441 -1.7591 -5.23694 
5.96249 0.0473598 0.362431 
0.0473598 6.10768 0.16441 
0.362431 0.16441 -3.88734 
3.31333 -0.0171894 0.205556 
-0.0171894 -0.0912435 -0.0113752 
0.205556 -0.0113752 4.96074 
4.17105 1.94376 -3.44786 
1.94376 4.44656 4.00757 
-3.44786 4.00757 -0.434782 
4.05824 4.12935 1.26526 
4.12935 11.2531 0.811195 
1.26526 0.811195 -4.69572 
7.3075 0.410633 -1.72368 
0.410633 7.10103 0.594165 
-1.72368 0.594165 -3.7929 
1.34791 -2.44928 -1.78098 
-2.44928 1.80188 0.666062 
-1.78098 0.666062 7.46585 
7.58576 0.0410376 -0.847141 
0.0410376 3.23354 -6.81517 
-0.847141 -6.81517 -0.203669 
9.82 -0.115576 -0.0366326 
-0.115576 9.82422 -0.0404117 
-0.0366326 -0.0404117 9.53474 
9.60527 0.0423744 -0.188695 
0.0423744 9.69724 -0.490915 
-0.188695 -0.490915 9.87645 
9.62365 -0.141364 -0.201149 
-0.141364 9.221 -0.265594 
-0.201149 -0.265594 10.3343 
9.55738 -0.153054 -0.0776889 
-0.153054 9.46895 -0.326509 
-0.0776889 -0.326509 10.1526 
9.58952 0.00538398 -0.42422 
0.00538398 9.63487 -0.174934 
-0.42422 -0.174934 9.87848 
9.5704 -0.0200399 -0.109937 
-0.0200399 9.8115 -0.045664 
-0.109937 -0.045664 9.72097 
9.39698 -0.00630013 -0.327352 
-0.00630013 9.67337 -0.125664 
-0.327352 -0.125664 10.0325 
8.96861 -0.191319 -0.350768 
-0.191319 9.66139 -0.0128932 
-0.350768 -0.0128932 10.4729 
10.0579 0.0241631 -0.0314354 
0.0241631 10.1128 -0.013098 
-0.0314354 -0.013098 9.9389 
9.98246 -0.0306857 -0.0453553 
-0.0306857 10.0148 0.0396413 
-0.0453553 0.0396413 10.1122 
10.0505 -0.0780777 0.029323 
-0.0780777 9.85063 -0.017973 
0.029323 -0.017973 10.2084 
10.0978 0.0797559 -0.00185271 
0.0797559 10.0641 0.0840853 
-0.00185271 0.0840853 9.9476 
9.4521 0.29406 0.318684 
0.29406 9.4282 -0.185258 
0.318684 -0.185258 10.252 
9.61959 0.15101 0.111441 
0.15101 9.70787 -0.115628 
0.111441 -0.115628 9.80485 
9.35185 0.249196 0.232771 
0.249196 9.59309 -0.286768 
0.232771 -0.286768 10.1874 
9.58936 0.0479019 0.309361 
0.0479019 9.60837 -0.311055 
0.309361 -0.311055 9.93458 
9.71292 -0.146447 0.100687 
-0.146447 9.63884 0.122433 
0.100687 0.122433 9.8471 
9.4811 -0.261831 0.181202 
-0.261831 9.4964 0.306282 
0.181202 0.306282 10.2214 
9.61852 -0.0651305 0.261566 
-0.0651305 9.59323 0.315988 
0.261566 0.315988 9.98711 
9.60004 -0.232405 0.263193 
-0.232405 9.38508 0.23859 
0.263193 0.23859 10.2137 
9.96045 0.0207063 0.00293178 
0.0207063 9.97401 -0.0369177 
0.00293178 -0.0369177 10.0209 
9.88854 -0.0737745 -0.00239509 
-0.0737745 9.98384 -0.00210348 
-0.00239509 -0.00210348 10.083 
10.0735 -0.0149009 0.0589466 
-0.0149009 9.99827 -7.14538e-05 
0.0589466 -7.14538e-05 9.88362 
10.0596 -0.00165536 -0.0160671 
-0.00165536 9.95637 -0.037928 
-0.0160671 -0.037928 9.93943 
9.31533 0.0610567 -0.30567 
0.0610567 9.66637 0.180421 
-0.30567 0.180421 10.1835 
9.59761 -0.000287046 -0.404814 
-0.000287046 9.63752 0.145447 
-0.404814 0.145447 9.93013 
9.23441 0.249609 -0.350395 
0.249609 9.63802 0.0483578 
-0.350395 0.0483578 10.2928 
9.59153 0.0346821 -0.111069 
0.0346821 9.83392 0.0470675 
-0.111069 0.0470675 9.73981 
12.5919 -1.67749 -0.202378 
-1.67749 5.97858 -0.00793801 
-0.202378 -0.00793801 16.6749 
14.1739 -0.857916 0.697865 
-0.857916 9.47113 1.67394 
0.697865 1.67394 11.6003 
9.07575 -3.22397 1.41801 
-3.22397 5.09969 -1.08373 
1.41801 -1.08373 21.0699 
11.1944 -0.622591 -1.67858 
-0.622591 10.2447 -1.30593 
-1.67858 -1.30593 13.8063 
9.67105 0.184039 -0.218877 
0.184039 9.28077 0.286251 
-0.218877 0.286251 10.2255 
9.63906 0.0626488 -0.196251 
0.0626488 9.54647 0.365208 
-0.196251 0.365208 9.99184 
9.75432 0.139554 -0.067224 
0.139554 9.6056 0.127914 
-0.067224 0.127914 9.81744 
9.57428 0.227909 -0.122236 
0.227909 9.39818 0.336833 
-0.122236 0.336833 10.2049 
10.1068 0.142195 -0.0313088 
0.142195 10.0447 -0.0410092 
-0.0313088 -0.0410092 9.96087 
9.92867 -0.0178395 -0.000903489 
-0.0178395 10.0797 -0.0328065 
-0.000903489 -0.0328065 10.104 
10.0972 0.0112121 0.0182429 
0.0112121 9.98439 0.0324546 
0.0182429 0.0324546 10.0308 
10.0843 0.00966078 -0.000348148 
0.00966078 9.96532 -0.000967234 
-0.000348148 -0.000967234 10.0628 
10.0977 -0.0295562 0.0150747 
-0.0295562 10.1372 -0.0281529 
0.0150747 -0.0281529 10.0542 
10.0791 0.012673 -0.00598999 
0.012673 10.1026 -0.0100769 
-0.00598999 -0.0100769 10.1074 
10.1048 -0.0291575 -0.0032474 
-0.0291575 10.0862 -0.00697803 
-0.0032474 -0.00697803 10.0981 
10.0933 -0.028947 -0.0134669 
-0.028947 10.1068 -0.00604873 
-0.0134669 -0.00604873 10.089 
9.88219 -0.00882581 0.00684316 
-0.00882581 9.94554 0.0122385 
0.00684316 0.0122385 9.90424 
9.80856 -0.0577508 0.0338642 
-0.0577508 9.98831 0.0260183 
0.0338642 0.0260183 9.9351 
9.94553 -0.0235426 0.00124133 
-0.0235426 9.89633 0.00447491 
0.00124133 0.00447491 9.8901 
9.87629 0.0776975 -9.56233e-06 
0.0776975 9.93646 -0.00318121 
-9.56233e-06 -0.00318121 9.91921 
9.99589 -0.0231595 -0.0163061 
-0.0231595 10.0427 -0.0194852 
-0.0163061 -0.0194852 10.0535 
10.0651 0.0908557 0.0171 
0.0908557 10.0802 0.019995 
0.0171 0.019995 9.94681 
9.97952 0.00655636 -0.0153302 
0.00655636 10.0756 -0.0311187 
-0.0153302 -0.0311187 10.0369 
9.86459 -0.0262349 -0.061981 
-0.0262349 10.1754 -0.0503666 
-0.061981 -0.0503666 10.0521 
10.0717 0.0208738 0.00854076 
0.0208738 9.97189 0.00912705 
0.00854076 0.00912705 10.0647 
10.1754 -0.0511351 -0.0822832 
-0.0511351 10.0672 0.0660014 
-0.0822832 0.0660014 9.8657 
10.0736 -0.0962883 0.0484012 
-0.0962883 10.0346 -0.00356231 
0.0484012 -0.00356231 10.0001 
9.87341 0.0243034 -0.0094543 
0.0243034 10.0451 -0.0179953 
-0.0094543 -0.0179953 10.1898 
9.57351 -0.00725434 0.441155 
-0.00725434 9.60467 -0.20061 
0.441155 -0.20061 9.88261 
9.03135 0.18038 0.360818 
0.18038 9.58469 -0.0134566 
0.360818 -0.0134566 10.4447 
9.36251 -8.42308e-05 0.337947 
-8.42308e-05 9.65583 -0.130313 
0.337947 -0.130313 10.0424 
9.57924 0.0356897 0.103233 
0.0356897 9.80155 -0.0342287 
0.103233 -0.0342287 9.68 
9.57647 -0.0496268 0.214961 
-0.0496268 9.65848 -0.413411 
0.214961 -0.413411 9.84618 
9.63929 0.134517 0.242676 
0.134517 9.23391 -0.266987 
0.242676 -0.266987 10.2079 
9.4756 0.283898 0.0922006 
0.283898 9.36211 -0.349336 
0.0922006 -0.349336 10.2434 
9.75247 0.0674448 0.06143 
0.0674448 9.64776 -0.0893169 
0.06143 -0.0893169 9.68091 
10.0922 -0.197174 -0.0602342 
-0.197174 10.2473 0.110734 
-0.0602342 0.110734 9.87779 
9.99977 -0.0921852 -0.00263547 
-0.0921852 9.95551 -0.00416877 
-0.00263547 -0.00416877 10.2621 
10.0846 0.0435286 -0.0328542 
0.0435286 10.0151 0.00196099 
-0.0328542 0.00196099 10.1176 
10.0484 -0.0487184 -0.145976 
-0.0487184 10.1511 0.0120121 
-0.145976 0.0120121 10.0178 
8.86408 1.04749 0.890331 
1.04749 9.64997 -2.84885 
0.890331 -2.84885 -5.31662 
6.88614 0.661953 -2.73809 
0.661953 10.0543 -1.4532 
-2.73809 -1.4532 -3.74297 
0.2859 0.988324 0.362421 
0.988324 0.220899 0.0391118 
0.362421 0.0391118 12.6906 
6.7748 -1.76587 -4.63925 
-1.76587 3.68697 -10.1758 
-4.63925 -10.1758 2.73567 
9.89533 0.134915 -0.00321814 
0.134915 10.1119 0.00607181 
-0.00321814 0.00607181 10.1504 
10.0138 -0.0400662 0.004584 
-0.0400662 10.0196 0.0607736 
0.004584 0.0607736 10.1242 
10.2107 0.0427408 0.107653 
0.0427408 10.0875 -0.00822378 
0.107653 -0.00822378 9.85935 
10.1863 -0.0169555 -0.0346365 
-0.0169555 9.99467 0.0229088 
-0.0346365 0.0229088 9.97666 
10.0347 0.0253906 0.0185729 
0.0253906 10.0176 -0.00851468 
0.0185729 -0.00851468 10.1134 
10.045 -0.0569534 -0.00811902 
-0.0569534 10.0471 0.00582086 
-0.00811902 0.00582086 10.0736 
10.0619 0.0416957 -0.0184003 
0.0416957 10.0766 0.0192115 
-0.0184003 0.0192115 10.0271 
10.0797 0.0261101 -0.0352571 
0.0261101 10.1009 -0.0332852 
-0.0352571 -0.0332852 9.98505 
10.1604 -0.025923 0.0563792 
-0.025923 10.263 0.0286188 
0.0563792 0.0286188 10.1286 
10.2253 0.00736834 0.0166671 
0.00736834 10.1382 -0.000988618 
0.0166671 -0.000988618 10.1886 
10.0423 0.0179719 -0.029452 
0.0179719 10.1856 0.00475302 
-0.029452 0.00475302 10.3242 
10.1947 -0.00799391 0.00869986 
-0.00799391 10.241 -0.0369874 
0.00869986 -0.0369874 10.1164 
9.60661 -0.0136929 0.0722774 
-0.0136929 9.89071 -0.0372819 
0.0722774 -0.0372819 9.66866 
9.22265 0.261396 0.343856 
0.261396 9.6266 -0.048697 
0.343856 -0.048697 10.3167 
9.61726 -0.00483982 0.422147 
-0.00483982 9.6164 -0.169222 
0.422147 -0.169222 9.93232 
9.3528 0.0503827 0.300368 
0.0503827 9.65446 -0.171057 
0.300368 -0.171057 10.1587 
9.6531 -0.0910717 -0.055167 
-0.0910717 9.88307 -0.0535932 
-0.055167 -0.0535932 9.65532 
9.43152 -0.137135 -0.216555 
-0.137135 9.57574 -0.274471 
-0.216555 -0.274471 10.1842 
9.61446 0.00857317 -0.341054 
0.00857317 9.63588 -0.308879 
-0.341054 -0.308879 9.94114 
9.48782 -0.29674 -0.301782 
-0.29674 9.41366 -0.177641 
-0.301782 -0.177641 10.29 
10.156 0.151728 -0.0365849 
0.151728 10.2557 -0.0800372 
-0.0365849 -0.0800372 10.065 
10.1576 -0.0275949 -0.0422808 
-0.0275949 9.98227 0.0286003 
-0.0422808 0.0286003 10.3369 
10.0526 0.00139703 0.0260849 
0.00139703 10.1922 -0.0232617 
0.0260849 -0.0232617 10.232 
10.1586 0.0527088 0.066121 
0.0527088 10.4288 0.14202 
0.066121 0.14202 9.88935 
9.6393 0.0204973 -0.19683 
0.0204973 9.60311 -0.441009 
-0.19683 -0.441009 9.8916 
9.68942 -0.00191302 -0.1328 
-0.00191302 9.40373 -0.329982 
-0.1328 -0.329982 10.0409 
9.84553 -0.0539638 -0.022822 
-0.0539638 9.63605 -0.0946032 
-0.022822 -0.0946032 9.65243 
9.58863 -0.168108 -0.0354502 
-0.168108 9.07851 -0.349351 
-0.0354502 -0.349351 10.4669 
10.1519 -0.030965 0.0101609 
-0.030965 9.99846 -0.0315253 
0.0101609 -0.0315253 10.1184 
10.1698 -0.0566377 -0.00761131 
-0.0566377 10.0327 0.0635314 
-0.00761131 0.0635314 10.0662 
10.0021 -0.0127865 -0.00411097 
-0.0127865 10.1046 0.0660333 
-0.00411097 0.0660333 10.162 
10.2241 -0.226003 -0.0686655 
-0.226003 10.0774 0.0871249 
-0.0686655 0.0871249 9.9671 
9.98193 0.0355411 0.0218433 
0.0355411 9.88987 -0.0113176 
0.0218433 -0.0113176 9.92342 
9.95023 0.0185707 0.0239096 
0.0185707 9.92939 -0.0242149 
0.0239096 -0.0242149 9.9156 
9.94453 -0.0334867 0.000696912 
-0.0334867 9.92494 -0.000809039 
0.000696912 -0.000809039 9.92576 
9.90448 0.0122466 -0.014153 
0.0122466 9.93437 0.00723344 
-0.014153 0.00723344 9.95637 
9.8492 0.0157723 0.0104378 
0.0157723 9.62364 0.0833078 
0.0104378 0.0833078 9.60072 
9.59429 0.0318118 0.23667 
0.0318118 9.61222 0.484583 
0.23667 0.484583 9.86705 
9.66056 0.0110733 0.135962 
0.0110733 9.3904 0.340228 
0.135962 0.340228 10.0226 
9.54316 -0.157313 0.0272793 
-0.157313 9.08398 0.362221 
0.0272793 0.362221 10.4464 
10.1228 -0.0115578 0.0017804 
-0.0115578 10.045 -0.00180965 
0.0017804 -0.00180965 10.0932 
9.97328 -0.0550857 -0.0109995 
-0.0550857 10.1073 0.0191142 
-0.0109995 0.0191142 10.1803 
10.0699 0.0551633 0.116925 
0.0551633 10.1364 -0.115423 
0.116925 -0.115423 10.0547 
10.2123 0.037791 -0.0613361 
0.037791 10.0753 -0.0392817 
-0.0613361 -0.0392817 9.97332 
9.99362 -0.00208956 -0.00707839 
-0.00208956 9.97169 0.0183276 
-0.00707839 0.0183276 9.89601 
9.89107 -0.0156415 -0.00306 
-0.0156415 9.96543 0.0162363 
-0.00306 0.0162363 10.0048 
9.97946 -0.018034 0.00089321 
-0.018034 9.94298 0.026197 
0.00089321 0.026197 9.93889 
9.96072 -0.0157324 0.00421511 
-0.0157324 9.94823 0.00173686 
0.00421511 0.00173686 9.95237 
9.76613 0.00541441 -0.0252755 
0.00541441 9.72887 0.00348896 
-0.0252755 0.00348896 9.89083 
9.7626 0.00206895 -0.0131661 
0.00206895 9.71705 -0.0179744 
-0.0131661 -0.0179744 9.90618 
9.71646 0.00455675 -0.00749226 
0.00455675 9.79662 -0.034507 
-0.00749226 -0.034507 9.87275 
9.73922 -0.0192228 -0.0248136 
-0.0192228 9.73898 0.0554944 
-0.0248136 0.0554944 9.90763 
9.67768 0.0834925 0.00170644 
0.0834925 9.6839 0.0490369 
0.00170644 0.0490369 9.94336 
9.7614 -0.0396207 -0.0110836 
-0.0396207 9.74894 -0.054369 
-0.0110836 -0.054369 9.79459 
9.69966 -0.0268563 0.0523649 
-0.0268563 9.68361 -0.0826309 
0.0523649 -0.0826309 9.92167 
9.75864 -0.0573619 0.0124371 
-0.0573619 9.72096 -0.0273144 
0.0124371 -0.0273144 9.82534 
10.0767 0.0468949 0.0733457 
0.0468949 10.127 -0.0333853 
0.0733457 -0.0333853 10.0389 
10.0946 0.016813 0.00631724 
0.016813 10.0901 -0.00193228 
0.00631724 -0.00193228 10.0579 
10.107 0.0166494 0.0347971 
0.0166494 10.1289 -0.022874 
0.0347971 -0.022874 10.0067 
10.1563 0.0276577 0.0647524 
0.0276577 10.1811 -0.022545 
0.0647524 -0.022545 9.90525 
10.0505 0.0270247 0.148405 
0.0270247 9.93736 -0.0638934 
0.148405 -0.0638934 9.89698 
9.94418 0.00384976 0.0526581 
0.00384976 10.0658 -0.032787 
0.0526581 -0.032787 9.8748 
10.0208 0.0117867 0.0813077 
0.0117867 9.87453 -0.0255623 
0.0813077 -0.0255623 9.98953 
9.88572 -0.00398128 0.0674978 
-0.00398128 10.0314 -0.101484 
0.0674978 -0.101484 9.96771 
9.65083 0.0822721 0.192131 
0.0822721 9.56794 0.0657859 
0.192131 0.0657859 9.64415 
9.77276 0.0978487 0.275331 
0.0978487 9.72313 -0.00808022 
0.275331 -0.00808022 9.36704 
9.75874 0.00889155 0.442438 
0.00889155 9.68884 0.168421 
0.442438 0.168421 9.41535 
9.79572 0.168674 0.510573 
0.168674 9.52881 0.158719 
0.510573 0.158719 9.5384 
9.87756 0.0256665 0.206459 
0.0256665 9.17661 -0.0806655 
0.206459 -0.0806655 9.46611 
9.57386 0.0345474 0.14195 
0.0345474 9.84811 0.280469 
0.14195 0.280469 9.09832 
9.86851 0.110659 0.315625 
0.110659 9.64975 -0.104712 
0.315625 -0.104712 9.00203 
9.6726 0.162318 0.0134879 
0.162318 9.75152 0.102781 
0.0134879 0.102781 9.09616 
9.67613 0.040516 -0.0194988 
0.040516 9.70834 -0.231774 
-0.0194988 -0.231774 9.89191 
9.77594 0.0401896 -0.0175018 
0.0401896 9.63958 -0.0498447 
-0.0175018 -0.0498447 9.86086 
9.64332 -0.0138038 -0.0282875 
-0.0138038 9.7413 -0.0697162 
-0.0282875 -0.0697162 9.89176 
9.52252 0.128642 -0.0228929 
0.128642 10.032 -0.173831 
-0.0228929 -0.173831 9.72182 
9.58628 -0.000178254 -0.0080084 
-0.000178254 9.56839 -0.0481765 
-0.0080084 -0.0481765 9.74712 
9.50473 0.0467743 0.0177494 
0.0467743 9.55078 0.0454161 
0.0177494 0.0454161 9.84627 
9.56345 -0.000259657 -0.00605 
-0.000259657 9.53179 0.0484185 
-0.00605 0.0484185 9.80655 
9.47349 -0.0124015 -0.0104001 
-0.0124015 9.48184 0.0267222 
-0.0104001 0.0267222 9.94646 
9.80951 -0.22803 -0.466443 
-0.22803 9.47905 -0.263886 
-0.466443 -0.263886 8.93967 
9.67765 -0.296048 -0.347639 
-0.296048 9.37505 -0.485086 
-0.347639 -0.485086 9.17552 
9.64731 -0.000874518 -0.49996 
-0.000874518 9.51094 -0.604315 
-0.49996 -0.604315 9.06998 
9.4408 0.199141 -0.352256 
0.199141 9.70286 -0.199558 
-0.352256 -0.199558 9.08458 
9.28012 -0.230187 -0.46443 
-0.230187 9.88517 -0.628492 
-0.46443 -0.628492 8.65418 
9.35773 -0.283084 -0.46525 
-0.283084 9.63868 -0.733758 
-0.46525 -0.733758 8.82306 
9.543 -0.0636167 -0.485273 
-0.0636167 9.42179 -0.528858 
-0.485273 -0.528858 8.85467 
9.66679 -0.268439 -0.840197 
-0.268439 10.1881 -0.491651 
-0.840197 -0.491651 7.96457 
10.2416 1.26525 -1.37073 
1.26525 11.9415 0.218992 
-1.37073 0.218992 11.8863 
9.88434 -0.566631 0.207918 
-0.566631 10.683 -0.511619 
0.207918 -0.511619 13.5021 
11.8108 0.315372 -0.209771 
0.315372 11.4255 0.681462 
-0.209771 0.681462 10.8332 
11.2452 0.184903 -0.209811 
0.184903 11.3783 0.346998 
-0.209811 0.346998 11.446 
10.505 0.0602678 -0.100966 
0.0602678 10.1345 0.453785 
-0.100966 0.453785 11.4339 
10.5563 0.647117 0.24923 
0.647117 10.0435 -0.245676 
0.24923 -0.245676 11.4737 
10.2146 0.181694 0.00253911 
0.181694 9.92835 0.148794 
0.00253911 0.148794 11.9305 
10.7141 0.299484 -0.121935 
0.299484 10.0176 -0.171553 
-0.121935 -0.171553 11.3418 
9.76238 0.0113036 -0.279615 
0.0113036 9.7666 -0.163205 
-0.279615 -0.163205 9.75261 
9.77019 0.00595295 -0.27912 
0.00595295 9.77693 -0.154101 
-0.27912 -0.154101 9.73447 
9.74697 -0.0101905 -0.260519 
-0.0101905 9.7836 -0.178726 
-0.260519 -0.178726 9.75101 
9.76029 0.0134791 -0.275652 
0.0134791 9.749 -0.157862 
-0.275652 -0.157862 9.77229 
9.78656 -0.00457115 -0.264295 
-0.00457115 9.74799 -0.15002 
-0.264295 -0.15002 9.72342 
9.77995 0.0185564 -0.294404 
0.0185564 9.76492 -0.132126 
-0.294404 -0.132126 9.7131 
9.74739 0.00377987 -0.260141 
0.00377987 9.74521 -0.181021 
-0.260141 -0.181021 9.76537 
9.78292 0.00154599 -0.265173 
0.00154599 9.74086 -0.141184 
-0.265173 -0.141184 9.73419 
9.83259 0.163446 -0.0986312 
0.163446 9.47833 0.111445 
-0.0986312 0.111445 9.46014 
9.60851 0.0610803 -0.291247 
0.0610803 9.63856 0.0260973 
-0.291247 0.0260973 9.52398 
9.67029 0.0709905 -0.0232297 
0.0709905 9.4925 0.182906 
-0.0232297 0.182906 9.60826 
9.68585 0.145278 -0.0959779 
0.145278 9.61415 -0.0335091 
-0.0959779 -0.0335091 9.47105 
9.78623 0.0834541 -0.0367494 
0.0834541 9.6647 0.0656909 
-0.0367494 0.0656909 9.06551 
9.53537 0.0241936 0.227741 
0.0241936 9.55665 -0.0127908 
0.227741 -0.0127908 9.42442 
9.63005 0.0587154 -0.368988 
0.0587154 9.46408 -0.0465651 
-0.368988 -0.0465651 9.42231 
9.58769 0.0991121 0.0406483 
0.0991121 9.66035 -0.00824009 
0.0406483 -0.00824009 9.2684 
9.65021 0.0119941 0.135047 
0.0119941 9.66537 0.0641945 
0.135047 0.0641945 9.67036 
9.68407 -0.011024 0.159649 
-0.011024 9.61767 0.0937969 
0.159649 0.0937969 9.68421 
9.70854 -0.0112304 0.136441 
-0.0112304 9.64468 0.0278266 
0.136441 0.0278266 9.63272 
9.67328 -0.00138102 0.267905 
-0.00138102 9.6439 0.12962 
0.267905 0.12962 9.66876 
9.76539 0.0430483 0.206584 
0.0430483 9.62206 0.0187347 
0.206584 0.0187347 9.59794 
9.74633 0.135669 0.297456 
0.135669 9.66441 0.0341122 
0.297456 0.0341122 9.57465 
9.602 0.0196961 0.122266 
0.0196961 9.6969 0.0629332 
0.122266 0.0629332 9.68649 
9.86143 0.025705 0.190994 
0.025705 9.49945 -0.101443 
0.190994 -0.101443 9.62451 
9.82715 -0.0680913 0.203296 
-0.0680913 9.54698 0.0553369 
0.203296 0.0553369 9.39663 
9.65504 -0.0059699 0.203855 
-0.0059699 9.62271 0.0526833 
0.203855 0.0526833 9.49301 
9.65673 0.01909 0.161844 
0.01909 9.60807 0.0893763 
0.161844 0.0893763 9.50596 
9.55586 0.0293716 0.307594 
0.0293716 9.66967 0.0164097 
0.307594 0.0164097 9.54523 
9.83752 0.0173541 0.229101 
0.0173541 9.63157 0.199258 
0.229101 0.199258 9.43008 
9.69925 0.00415102 0.141888 
0.00415102 9.72091 0.205386 
0.141888 0.205386 9.47901 
9.67141 0.159821 0.264262 
0.159821 9.6579 -0.146752 
0.264262 -0.146752 9.56987 
9.85758 0.0636151 -0.00348846 
0.0636151 9.53805 -0.0423829 
-0.00348846 -0.0423829 9.50354 
10.2211 0.600893 0.674507 
0.600893 10.3257 -0.906784 
0.674507 -0.906784 13.2398 
8.43166 -0.983695 -0.712824 
-0.983695 10.9568 1.39936 
-0.712824 1.39936 14.3981 
9.83288 0.291277 0.655708 
0.291277 11.4404 0.144836 
0.655708 0.144836 12.5133 
13.6166 -1.63448 2.24662 
-1.63448 13.9326 -2.3569 
2.24662 -2.3569 6.23744 
10.1421 -0.717241 -0.469029 
-0.717241 10.6751 0.106018 
-0.469029 0.106018 11.4153 
8.16042 -0.486867 0.597652 
-0.486867 12.1811 0.864763 
0.597652 0.864763 11.891 
10.9432 0.262149 0.268117 
0.262149 10.2201 0.158199 
0.268117 0.158199 11.0693 
10.0814 -0.0349583 -0.734904 
-0.0349583 10.3299 0.175378 
-0.734904 0.175378 11.8212 
10.9449 0.525572 0.199278 
0.525572 10.5566 -0.466462 
0.199278 -0.466462 11.5919 
10.7013 -0.0687397 -0.210564 
-0.0687397 9.9793 -1.9387 
-0.210564 -1.9387 12.4128 
9.77126 0.45743 0.575821 
0.45743 10.0827 0.284679 
0.575821 0.284679 13.2395 
10.9161 0.175593 -0.157815 
0.175593 12.7292 -0.39307 
-0.157815 -0.39307 9.44808 
10.1364 -0.385405 -0.0199368 
-0.385405 10.3191 -0.337902 
-0.0199368 -0.337902 10.8009 
9.89876 0.402039 -0.306719 
0.402039 9.81943 0.403137 
-0.306719 0.403137 11.5382 
9.99055 2.32726 -0.535916 
2.32726 8.7477 -0.967279 
-0.535916 -0.967279 12.5181 
10.7064 0.343804 -0.355826 
0.343804 9.34322 0.768359 
-0.355826 0.768359 11.2068 
11.1666 0.36822 1.37453 
0.36822 9.97056 1.65506 
1.37453 1.65506 14.9673 
11.2306 0.272329 -0.238065 
0.272329 10.6189 -0.685062 
-0.238065 -0.685062 14.2549 
11.0375 1.70911 -0.855348 
1.70911 9.46799 -0.341076 
-0.855348 -0.341076 15.599 
12.4196 0.961454 -0.160504 
0.961454 15.092 1.80582 
-0.160504 1.80582 8.59286 
10.1984 0.564511 0.630673 
0.564511 11.357 -0.200551 
0.630673 -0.200551 12.4406 
10.1303 2.01171 -1.25069 
2.01171 10.9678 -0.464943 
-1.25069 -0.464943 12.8979 
11.5829 -0.203325 -0.182358 
-0.203325 10.6188 0.173692 
-0.182358 0.173692 11.7943 
10.8152 0.450507 0.100616 
0.450507 10.5137 0.0636271 
0.100616 0.0636271 12.6671 
10.9228 -0.78361 0.427989 
-0.78361 9.53084 -0.00470505 
0.427989 -0.00470505 12.3435 
10.6803 0.344459 -0.409517 
0.344459 10.2104 -0.433765 
-0.409517 -0.433765 11.9065 
9.88923 -0.0111641 0.618788 
-0.0111641 10.838 -0.204705 
0.618788 -0.204705 12.07 
11.4506 -0.758321 0.376208 
-0.758321 9.98568 -0.434576 
0.376208 -0.434576 11.3609 
10.2789 0.0467106 -0.0267899 
0.0467106 9.42847 -0.172949 
-0.0267899 -0.172949 11.4429 
10.2294 0.151453 0.097212 
0.151453 9.73213 0.0250524 
0.097212 0.0250524 11.1888 
10.166 0.0294674 0.0501689 
0.0294674 9.13696 -0.244606 
0.0501689 -0.244606 11.8473 
10.6352 0.12078 -0.214641 
0.12078 9.55107 0.0886987 
-0.214641 0.0886987 10.964 
11.9545 -0.381263 0.0825739 
-0.381263 12.1006 0.138515 
0.0825739 0.138515 12.1154 
11.4403 -0.252944 -0.0949816 
-0.252944 12.5278 0.326278 
-0.0949816 0.326278 12.2025 
11.7291 -0.272984 -0.272076 
-0.272984 11.6691 -0.30953 
-0.272076 -0.30953 12.7723 
12.0051 -0.148409 -0.109172 
-0.148409 12.0599 0.113293 
-0.109172 0.113293 12.1055 
10.2441 -0.888484 0.702053 
-0.888484 11.5058 0.730667 
0.702053 0.730667 12.5978 
9.26463 -0.804891 0.316973 
-0.804891 11.3822 0.455301 
0.316973 0.455301 13.7009 
11.6294 -0.931973 0.279595 
-0.931973 10.5515 -0.134273 
0.279595 -0.134273 12.1668 
10.6157 -0.744932 1.24838 
-0.744932 11.0276 0.139387 
1.24838 0.139387 12.7043 
9.73233 -0.0797836 -0.0311009 
-0.0797836 9.75483 0.289544 
-0.0311009 0.289544 9.65677 
9.75534 -0.0163064 -0.0426357 
-0.0163064 9.71147 0.185036 
-0.0426357 0.185036 9.67713 
9.73206 -0.0225289 -0.00389519 
-0.0225289 9.76507 0.21932 
-0.00389519 0.21932 9.64681 
9.68222 0.0324984 0.00263784 
0.0324984 9.8926 0.256228 
0.00263784 0.256228 9.56912 
9.79147 0.0342218 -0.087806 
0.0342218 9.74901 0.187857 
-0.087806 0.187857 9.67436 
9.72468 0.0128542 -0.029072 
0.0128542 9.78331 0.209388 
-0.029072 0.209388 9.70686 
9.78137 0.0231681 0.0285511 
0.0231681 9.75858 0.20407 
0.0285511 0.20407 9.6749 
9.65255 -0.013596 -0.0658262 
-0.013596 9.76852 0.267068 
-0.0658262 0.267068 9.79377 
9.9765 0.0694147 -0.0389688 
0.0694147 9.8699 -0.0212704 
-0.0389688 -0.0212704 10.0497 
9.90321 -0.032122 0.0236121 
-0.032122 9.95111 0.00703011 
0.0236121 0.00703011 10.0418 
9.91961 0.0259951 -0.026345 
0.0259951 9.96958 -0.0251468 
-0.026345 -0.0251468 10.0069 
9.84627 -0.00732944 -0.0686271 
-0.00732944 10.0451 0.125177 
-0.0686271 0.125177 10.0048 
10.0275 -0.0771242 0.0455938 
-0.0771242 10.0371 -0.000226067 
0.0455938 -0.000226067 10.3204 
10.1559 0.0699477 -0.0660539 
0.0699477 10.2372 -0.072804 
-0.0660539 -0.072804 9.99198 
9.95976 0.130008 -0.0238465 
0.130008 10.2386 0.116144 
-0.0238465 0.116144 10.1867 
9.69381 0.129486 0.181216 
0.129486 10.4378 -0.000226067 
0.181216 -0.000226067 10.2534 
9.68501 -0.00488366 -0.162851 
-0.00488366 9.70372 -0.270932 
-0.162851 -0.270932 9.67703 
9.6135 -0.0161106 -0.249351 
-0.0161106 9.66076 -0.231266 
-0.249351 -0.231266 9.79151 
9.7841 0.0381214 -0.243373 
0.0381214 9.70457 -0.232434 
-0.243373 -0.232434 9.5771 
9.65997 -0.0399496 -0.236137 
-0.0399496 9.69815 -0.246775 
-0.236137 -0.246775 9.70765 
9.68491 -0.00459658 -0.188471 
-0.00459658 9.67898 -0.241391 
-0.188471 -0.241391 9.63412 
9.74095 0.00192276 -0.236069 
0.00192276 9.73759 -0.247615 
-0.236069 -0.247615 9.51948 
9.61788 0.0125215 -0.246266 
0.0125215 9.62531 -0.237101 
-0.246266 -0.237101 9.75481 
9.68513 -0.00533647 -0.192805 
-0.00533647 9.67856 -0.22717 
-0.192805 -0.22717 9.63433 
9.79707 0.00486083 -0.03852 
0.00486083 9.76352 0.0106527 
-0.03852 0.0106527 9.84365 
9.75199 0.0146474 -0.0429857 
0.0146474 9.77148 0.00415028 
-0.0429857 0.00415028 9.88076 
9.76019 -0.00412896 -0.0511981 
-0.00412896 9.7224 0.0212319 
-0.0511981 0.0212319 9.92164 
9.80555 -0.0296259 0.0583668 
-0.0296259 9.70006 -0.0632618 
0.0583668 -0.0632618 9.89862 
9.80145 0.0183672 -0.0125329 
0.0183672 9.79824 -0.0219409 
-0.0125329 -0.0219409 9.92922 
9.8341 -0.0202858 -0.033811 
-0.0202858 9.73915 -0.0177369 
-0.033811 -0.0177369 9.95566 
9.80857 -0.0219275 -0.0260907 
-0.0219275 9.83197 0.00268374 
-0.0260907 0.00268374 9.88837 
9.81636 -0.0183197 -0.12227 
-0.0183197 9.75819 -0.00231653 
-0.12227 -0.00231653 9.95436 
9.16536 0.205645 -0.216183 
0.205645 9.67212 0.132995 
-0.216183 0.132995 9.94145 
9.07868 0.449288 -0.249478 
0.449288 9.65699 0.143359 
-0.249478 0.143359 10.0433 
9.21276 0.482091 -0.377521 
0.482091 9.5546 0.241105 
-0.377521 0.241105 10.0116 
9.58428 0.475949 -0.43057 
0.475949 9.50968 0.219474 
-0.43057 0.219474 9.68497 
8.84458 1.56414 -1.24177 
1.56414 10.333 0.21497 
-1.24177 0.21497 9.71628 
9.25116 1.42793 -0.528753 
1.42793 9.73266 0.782264 
-0.528753 0.782264 9.91 
10.0525 0.657734 -0.435161 
0.657734 9.4408 0.617654 
-0.435161 0.617654 9.4005 
8.19457 1.5598 -1.09014 
1.5598 10.9472 0.397225 
-1.09014 0.397225 9.75202 
9.41974 -0.0278429 -0.394774 
-0.0278429 9.72796 -0.12411 
-0.394774 -0.12411 9.9014 
9.14746 -0.37539 -0.579579 
-0.37539 9.83317 -0.12943 
-0.579579 -0.12943 10.0685 
9.42515 -0.145934 -0.331214 
-0.145934 9.73957 -0.173852 
-0.331214 -0.173852 9.88438 
9.3216 -0.0560758 -0.0710711 
-0.0560758 9.59367 0.115633 
-0.0710711 0.115633 10.1338 
9.60983 -0.32501 -0.525348 
-0.32501 10.2202 -0.190946 
-0.525348 -0.190946 9.8422 
9.49388 -0.133042 -0.798872 
-0.133042 9.98818 -0.276589 
-0.798872 -0.276589 10.1902 
9.36404 -0.26896 -0.672397 
-0.26896 9.94952 -0.389449 
-0.672397 -0.389449 10.3587 
9.65284 -0.0568221 -1.21885 
-0.0568221 9.73662 -0.460785 
-1.21885 -0.460785 10.2828 
9.75176 0.0179145 0.157982 
0.0179145 9.78504 0.264015 
0.157982 0.264015 9.67901 
9.76801 0.00686478 0.177922 
0.00686478 9.76741 0.231203 
0.177922 0.231203 9.68038 
9.78708 0.0174941 0.18243 
0.0174941 9.74085 0.250613 
0.18243 0.250613 9.68787 
9.73017 0.02663 0.200278 
0.02663 9.71629 0.25009 
0.200278 0.25009 9.76934 
9.71077 0.0234536 0.217693 
0.0234536 9.71416 0.276867 
0.217693 0.276867 9.60377 
9.71841 0.0158109 0.189094 
0.0158109 9.69132 0.262272 
0.189094 0.262272 9.61897 
9.71468 0.0298333 0.217043 
0.0298333 9.69918 0.27167 
0.217043 0.27167 9.61483 
9.72815 0.00326991 0.21374 
0.00326991 9.70848 0.290633 
0.21374 0.290633 9.59206 
9.37651 -1.35899 0.740546 
-1.35899 14.2953 1.46449 
0.740546 1.46449 9.95812 
11.4569 -1.62951 -1.7044 
-1.62951 10.1422 0.877112 
-1.7044 0.877112 12.0308 
10.8183 1.68977 -0.37164 
1.68977 7.68046 -1.3187 
-0.37164 -1.3187 15.1311 
8.78634 -2.58523 -1.0731 
-2.58523 7.76277 -1.80724 
-1.0731 -1.80724 17.0808 
9.94229 -0.114684 -0.89507 
-0.114684 9.8101 -0.0338384 
-0.89507 -0.0338384 10.0426 
9.52206 -0.766757 -0.708823 
-0.766757 10.161 -0.387528 
-0.708823 -0.387528 10.1119 
9.43888 -0.622777 -0.703763 
-0.622777 10.267 -0.442495 
-0.703763 -0.442495 10.089 
9.7921 0.0202695 -0.412121 
0.0202695 10.133 0.101939 
-0.412121 0.101939 9.86985 
9.73362 -1.2809 -0.405158 
-1.2809 9.83774 0.499449 
-0.405158 0.499449 11.5758 
8.94299 -0.379243 0.530018 
-0.379243 10.3997 0.720973 
0.530018 0.720973 11.8045 
9.89214 -1.2556 -0.287866 
-1.2556 10.0016 -0.261363 
-0.287866 -0.261363 11.2535 
7.06979 -1.70437 -0.786014 
-1.70437 7.39064 -1.80532 
-0.786014 -1.80532 16.6868 
10.9282 -0.429005 -0.406352 
-0.429005 9.01526 -0.462217 
-0.406352 -0.462217 10.3341 
10.3904 -0.641189 -0.222 
-0.641189 9.40855 -1.07394 
-0.222 -1.07394 10.4785 
9.32194 -0.15679 -0.612995 
-0.15679 9.7493 -0.426042 
-0.612995 -0.426042 11.2062 
9.70179 -0.295847 0.03786 
-0.295847 10.2792 -0.132787 
0.03786 -0.132787 10.2965 
9.98075 -0.928364 -0.77013 
-0.928364 9.92049 -2.14949 
-0.77013 -2.14949 11.6112 
8.90624 -1.48281 -1.28248 
-1.48281 11.2795 -0.364518 
-1.28248 -0.364518 11.3267 
11.8557 -1.28606 -1.18121 
-1.28606 8.57118 -1.68733 
-1.18121 -1.68733 11.0855 
12.1954 -1.02808 -1.9316 
-1.02808 5.13193 -2.61703 
-1.9316 -2.61703 14.185 
11.4154 -1.27112 -0.922405 
-1.27112 8.70848 -2.47107 
-0.922405 -2.47107 11.072 
10.6493 -1.56258 -1.21926 
-1.56258 9.77997 -1.13836 
-1.21926 -1.13836 10.7667 
10.4674 -2.10862 -0.751335 
-2.10862 9.00929 -1.27839 
-0.751335 -1.27839 11.7193 
10.5055 -0.984902 -0.47006 
-0.984902 10.5788 -0.805776 
-0.47006 -0.805776 10.1116 
9.72693 -0.00456596 -0.234272 
-0.00456596 9.72174 -0.237537 
-0.234272 -0.237537 9.72946 
9.73739 -0.00808929 -0.225453 
-0.00808929 9.72839 -0.256446 
-0.225453 -0.256446 9.71235 
9.74887 0.0630102 -0.18972 
0.0630102 9.70181 -0.255801 
-0.18972 -0.255801 9.72745 
9.71815 -0.0397711 -0.219372 
-0.0397711 9.7448 -0.262378 
-0.219372 -0.262378 9.71518 
9.76005 0.0118066 -0.191883 
0.0118066 9.73 -0.220006 
-0.191883 -0.220006 9.75621 
9.72443 0.00826384 -0.216497 
0.00826384 9.78609 -0.248288 
-0.216497 -0.248288 9.73574 
9.76501 -0.00351157 -0.195307 
-0.00351157 9.74991 -0.218683 
-0.195307 -0.218683 9.73134 
9.73985 0.0213103 -0.233829 
0.0213103 9.78193 -0.221384 
-0.233829 -0.221384 9.72448 
9.91536 -0.0054967 -0.0208281 
-0.0054967 9.88584 -0.0379783 
-0.0208281 -0.0379783 9.94629 
9.91647 -0.00480041 -0.0229496 
-0.00480041 9.89894 -0.0448928 
-0.0229496 -0.0448928 9.93207 
9.90605 0.0102341 -0.0188478 
0.0102341 9.91841 -0.0308192 
-0.0188478 -0.0308192 9.92302 
9.89939 0.00346718 -0.0450658 
0.00346718 9.89452 -0.0197836 
-0.0450658 -0.0197836 9.95357 
9.89775 0.0112262 -0.0494948 
0.0112262 9.88213 -0.0448585 
-0.0494948 -0.0448585 9.94149 
9.90549 0.000793776 -0.0479266 
0.000793776 9.90761 -0.036517 
-0.0479266 -0.036517 9.90826 
9.88431 0.0127237 -0.0507312 
0.0127237 9.90928 -0.0463438 
-0.0507312 -0.0463438 9.92777 
9.89359 -0.0122244 -0.0296134 
-0.0122244 9.90349 -0.0249286 
-0.0296134 -0.0249286 9.92429 
9.80435 0.0936248 0.121773 
0.0936248 9.63767 -0.265551 
0.121773 -0.265551 9.83298 
9.76425 0.0698363 0.0164672 
0.0698363 9.69024 -0.12747 
0.0164672 -0.12747 9.82051 
9.41903 0.150393 0.282687 
0.150393 9.46099 -0.0641979 
0.282687 -0.0641979 10.395 
9.77794 0.109423 0.0623016 
0.109423 9.72436 -0.0861356 
0.0623016 -0.0861356 9.77269 
9.57531 0.301412 0.192497 
0.301412 9.51391 -0.243375 
0.192497 -0.243375 10.0217 
9.76102 -0.0873132 0.0946524 
-0.0873132 9.57482 -0.166633 
0.0946524 -0.166633 9.77513 
9.70787 0.11774 0.169553 
0.11774 9.62647 -0.266794 
0.169553 -0.266794 9.77663 
9.64247 -0.101259 0.220422 
-0.101259 9.6606 -0.351333 
0.220422 -0.351333 9.80789 
9.85587 0.193099 0.157205 
0.193099 10.0667 -0.0279623 
0.157205 -0.0279623 10.0854 
10.0281 -0.0798988 -0.0242853 
-0.0798988 9.84382 0.0525776 
-0.0242853 0.0525776 10.1359 
10.0684 -0.0465979 0.0198915 
-0.0465979 9.99765 0.0201934 
0.0198915 0.0201934 9.94181 
9.72927 0.0298759 -0.1302 
0.0298759 10.2147 -0.209913 
-0.1302 -0.209913 10.0639 
10.2942 -0.0930711 -0.113098 
-0.0930711 10.2248 0.0889999 
-0.113098 0.0889999 9.95508 
10.0919 0.0772763 0.0175436 
0.0772763 10.0732 -0.000226067 
0.0175436 -0.000226067 10.309 
9.9864 -0.194678 -0.0654989 
-0.194678 10.3392 -0.241315 
-0.0654989 -0.241315 10.1484 
9.81892 -0.0491017 0.174854 
-0.0491017 10.2915 -0.000226067 
0.174854 -0.000226067 10.3636 
9.8508 -0.0393174 0.0187122 
-0.0393174 9.51302 0.138582 
0.0187122 0.138582 10.1637 
9.72566 0.0294694 -0.152137 
0.0294694 9.88241 0.22687 
-0.152137 0.22687 9.9194 
9.88342 0.0555497 -0.145669 
0.0555497 9.81524 0.23646 
-0.145669 0.23646 9.82882 
9.68394 0.187717 -0.0550295 
0.187717 9.93053 0.0815895 
-0.0550295 0.0815895 9.913 
9.80472 0.0383865 -0.198165 
0.0383865 9.77404 0.181462 
-0.198165 0.181462 9.71327 
9.74843 0.0489129 -0.201821 
0.0489129 9.71829 0.172359 
-0.201821 0.172359 9.8253 
9.72839 -0.0120267 -0.0882156 
-0.0120267 9.67772 0.126494 
-0.0882156 0.126494 9.88592 
9.7241 0.127132 -0.239142 
0.127132 9.72514 0.212854 
-0.239142 0.212854 9.84279 
9.5008 -0.0611762 0.124771 
-0.0611762 9.44239 0.297923 
0.124771 0.297923 9.57634 
9.5041 -0.024019 0.138813 
-0.024019 9.44834 0.254151 
0.138813 0.254151 9.56708 
9.55015 -0.0466733 0.122653 
-0.0466733 9.38584 0.223225 
0.122653 0.223225 9.58354 
9.4671 0.108127 0.177057 
0.108127 9.60195 0.317985 
0.177057 0.317985 9.45048 
9.59883 -0.108997 0.120313 
-0.108997 9.52421 0.406129 
0.120313 0.406129 9.61329 
9.66985 -0.0882628 0.100594 
-0.0882628 9.41315 0.157565 
0.100594 0.157565 9.65334 
9.50277 0.032789 0.0286386 
0.032789 9.49422 0.162845 
0.0286386 0.162845 9.73935 
9.38648 -0.0893437 0.134889 
-0.0893437 9.29961 0.342418 
0.134889 0.342418 10.0502 
13.0761 -1.40246 -0.680891 
-1.40246 10.7248 -0.874143 
-0.680891 -0.874143 15.9695 
12.2409 -1.21448 0.0787183 
-1.21448 11.6072 1.24616 
0.0787183 1.24616 15.9223 
12.2724 -1.51873 1.15917 
-1.51873 10.6587 1.43113 
1.15917 1.43113 16.8393 
15.7832 -0.730887 0.754004 
-0.730887 13.1678 -0.0737922 
0.754004 -0.0737922 10.8194 
11.3185 -1.30303 -0.28417 
-1.30303 4.92287 -1.49644 
-0.28417 -1.49644 10.7587 
10.2469 -1.93143 -1.46496 
-1.93143 6.83196 -4.88966 
-1.46496 -4.88966 9.92124 
9.64169 -0.712956 -1.15304 
-0.712956 7.0166 -3.92751 
-1.15304 -3.92751 10.3418 
7.19412 0.145203 -0.369167 
0.145203 12.7809 -1.45037 
-0.369167 -1.45037 7.02506 
10.0977 -0.698245 -0.55976 
-0.698245 9.10565 -0.0271179 
-0.55976 -0.0271179 10.0216 
10.2331 -0.146348 -0.223437 
-0.146348 9.51857 -0.632052 
-0.223437 -0.632052 9.47326 
10.2653 -0.496402 -0.208741 
-0.496402 8.70636 -0.314249 
-0.208741 -0.314249 10.2533 
9.87941 -0.569608 -0.353007 
-0.569608 8.90839 -0.354539 
-0.353007 -0.354539 10.4371 
9.89961 -0.112729 0.0797333 
-0.112729 9.86081 -0.0914088 
0.0797333 -0.0914088 10.1992 
9.9961 0.0125172 -0.0187925 
0.0125172 9.78783 0.1237 
-0.0187925 0.1237 10.1757 
9.74727 -0.214616 0.198136 
-0.214616 9.95392 -0.111247 
0.198136 -0.111247 10.2584 
10.1226 -0.136868 -0.103032 
-0.136868 9.79624 -0.257107 
-0.103032 -0.257107 10.0408 
7.89841 1.99292 0.146418 
1.99292 8.22152 1.16596 
0.146418 1.16596 4.38775 
8.32606 0.99122 1.58517 
0.99122 7.61865 0.713379 
1.58517 0.713379 4.56297 
8.09588 0.0699513 1.13334 
0.0699513 8.36603 2.10226 
1.13334 2.10226 4.04577 
7.58811 1.38789 0.952189 
1.38789 7.39579 1.72575 
0.952189 1.72575 5.52377 
5.33587 4.47511 0.134449 
4.47511 15.1437 3.8837 
0.134449 3.8837 -3.08185 
3.81817 -4.36355 2.65423 
-4.36355 4.46473 -1.5437 
2.65423 -1.5437 9.11478 
12.4584 0.340483 2.68576 
0.340483 0.703275 6.20946 
2.68576 6.20946 4.23598 
15.0301 -0.45546 -2.97604 
-0.45546 15.6204 6.02888 
-2.97604 6.02888 -13.2528 
9.18668 0.045511 0.754547 
0.045511 6.79875 2.34667 
0.754547 2.34667 2.06354 
5.64009 -0.140748 0.98309 
-0.140748 8.83291 1.9578 
0.98309 1.9578 3.57598 
6.26814 0.0790004 0.26838 
0.0790004 9.03002 2.61864 
0.26838 2.61864 2.75082 
7.79958 -0.00161049 0.482539 
-0.00161049 6.29245 2.85921 
0.482539 2.85921 3.95695 
8.82277 -1.40949 -0.13388 
-1.40949 4.66649 2.20417 
-0.13388 2.20417 0.174439 
4.77789 0.534188 -0.210613 
0.534188 5.85881 2.05858 
-0.210613 2.05858 3.02699 
5.03742 -0.796077 1.15241 
-0.796077 5.58321 1.07941 
1.15241 1.07941 3.04306 
9.31997 -0.185652 -0.788089 
-0.185652 9.90021 3.63939 
-0.788089 3.63939 -5.55649 
9.5196 -0.101836 -0.0177663 
-0.101836 9.7501 0.135638 
-0.0177663 0.135638 9.69878 
9.59552 -0.11749 -0.120684 
-0.11749 9.81438 0.0721758 
-0.120684 0.0721758 9.55857 
9.6515 -0.148584 -0.0344033 
-0.148584 9.79023 0.0107227 
-0.0344033 0.0107227 9.52675 
9.63422 -0.189744 -0.0160545 
-0.189744 9.78266 -0.0789413 
-0.0160545 -0.0789413 9.55159 
9.3589 -0.0946346 -0.130914 
-0.0946346 9.81548 0.110672 
-0.130914 0.110672 9.8174 
9.73396 -0.0913714 -0.127776 
-0.0913714 9.78656 0.182758 
-0.127776 0.182758 9.47126 
9.5608 -0.125073 -0.307144 
-0.125073 9.97126 0.0778066 
-0.307144 0.0778066 9.45972 
9.68839 -0.123864 -0.16295 
-0.123864 9.8777 0.301482 
-0.16295 0.301482 9.42568 
10.1008 0.0237628 -0.048467 
0.0237628 10.1067 0.0220934 
-0.048467 0.0220934 10.0212 
10.0726 -0.000791935 -0.0823043 
-0.000791935 10.1297 0.0194392 
-0.0823043 0.0194392 10.0263 
10.0595 0.00802416 -0.0167239 
0.00802416 10.1263 0.00481573 
-0.0167239 0.00481573 10.0429 
10.1606 -0.028816 -0.0610625 
-0.028816 10.1726 -0.0187361 
-0.0610625 -0.0187361 9.89541 
9.95578 -0.00102514 -0.0635364 
-0.00102514 9.91284 -0.0129582 
-0.0635364 -0.0129582 9.98844 
9.98071 0.00978462 -0.151375 
0.00978462 9.95571 -0.0191208 
-0.151375 -0.0191208 9.92064 
9.91405 -0.020516 -0.0581241 
-0.020516 10.0029 -0.00462276 
-0.0581241 -0.00462276 9.94012 
9.85249 -0.0630257 -0.113435 
-0.0630257 10.0125 0.00311922 
-0.113435 0.00311922 9.99209 
10.05 -0.0329445 0.0435955 
-0.0329445 10.1391 0.0352616 
0.0435955 0.0352616 9.96798 
10.1491 -0.0163556 0.0233716 
-0.0163556 10.06 0.0105911 
0.0233716 0.0105911 9.94792 
10.0479 0.0247011 -0.016921 
0.0247011 10.1434 -0.0082236 
-0.016921 -0.0082236 9.96574 
10.1194 -0.0140955 0.0268936 
-0.0140955 10.0515 -0.00949524 
0.0268936 -0.00949524 9.98625 
10.1737 -0.00407001 0.00405243 
-0.00407001 10.1728 0.0530826 
0.00405243 0.0530826 9.98994 
10.1575 0.00307562 -0.00747174 
0.00307562 10.1763 0.0291133 
-0.00747174 0.0291133 10.0027 
10.1224 -0.00555368 0.00156626 
-0.00555368 10.1865 0.0141406 
0.00156626 0.0141406 10.0276 
10.2136 -0.00919132 0.0173765 
-0.00919132 10.2264 0.0579136 
0.0173765 0.0579136 9.89655 
8.93538 -0.570846 0.508485 
-0.570846 9.10367 -0.97563 
0.508485 -0.97563 5.25041 
9.31813 0.592541 1.37096 
0.592541 9.31906 -1.4001 
1.37096 -1.4001 4.65227 
9.4886 0.155433 0.795387 
0.155433 9.03558 -1.06981 
0.795387 -1.06981 4.76528 
8.63913 0.741451 1.14904 
0.741451 8.77464 -1.43036 
1.14904 -1.43036 5.87569 
4.40515 -1.39125 0.142186 
-1.39125 7.98705 -4.26285 
0.142186 -4.26285 6.88804 
8.48366 0.727148 1.22693 
0.727148 7.54492 -1.68864 
1.22693 -1.68864 3.25165 
9.50821 1.73375 1.67231 
1.73375 5.67554 -1.2669 
1.67231 -1.2669 4.09649 
8.95771 -1.4487 4.14847 
-1.4487 10.1788 -0.647689 
4.14847 -0.647689 0.143718 
9.94803 -0.0246299 -0.038247 
-0.0246299 9.84444 -0.124292 
-0.038247 -0.124292 10.0042 
9.90316 -0.0266476 -0.120783 
-0.0266476 9.9185 -0.216162 
-0.120783 -0.216162 9.97499 
10.0045 -0.0265038 -0.0973241 
-0.0265038 9.98292 -0.0153152 
-0.0973241 -0.0153152 9.80921 
9.89399 -0.0746392 -0.00504704 
-0.0746392 9.74203 -0.0800031 
-0.00504704 -0.0800031 10.1606 
10.1707 0.0577839 -0.0991369 
0.0577839 9.78745 -0.0893889 
-0.0991369 -0.0893889 9.86743 
9.96064 0.0174875 -0.0902839 
0.0174875 9.81823 -0.242533 
-0.0902839 -0.242533 10.0467 
9.81407 -0.0745658 -0.0192702 
-0.0745658 9.95202 -0.0672534 
-0.0192702 -0.0672534 10.0595 
9.84154 -0.149684 -0.160289 
-0.149684 10.0487 -0.180656 
-0.160289 -0.180656 9.93537 
9.46451 0.587583 -0.278058 
0.587583 9.07238 0.0309322 
-0.278058 0.0309322 9.19278 
8.57726 0.54035 -0.919328 
0.54035 9.9671 0.0331035 
-0.919328 0.0331035 9.18532 
8.4995 0.493577 -0.450206 
0.493577 10.1785 -0.342163 
-0.450206 -0.342163 9.05168 
6.90313 0.0290924 -0.217875 
0.0290924 10.7422 -0.0357652 
-0.217875 -0.0357652 10.0843 
9.53149 0.361981 -0.100735 
0.361981 9.85021 0.106541 
-0.100735 0.106541 9.33493 
9.61214 0.106081 -0.530628 
0.106081 10.1074 -0.180507 
-0.530628 -0.180507 8.99706 
9.44287 0.552927 -0.234569 
0.552927 10.2281 0.244191 
-0.234569 0.244191 9.04567 
9.53215 0.181939 -0.257929 
0.181939 9.75422 0.162468 
-0.257929 0.162468 9.43027 
10.0857 0.0327266 0.0885323 
0.0327266 10.1135 0.000656311 
0.0885323 0.000656311 10.0264 
10.082 0.0118845 0.0380118 
0.0118845 10.1054 0.022286 
0.0380118 0.022286 10.0381 
10.0639 0.0121096 0.0228581 
0.0121096 10.1072 -0.013001 
0.0228581 -0.013001 10.0544 
10.1419 0.0355885 0.0467118 
0.0355885 10.1772 -0.0461932 
0.0467118 -0.0461932 9.90641 
10.0515 -0.0169828 0.179736 
-0.0169828 9.88871 -0.0467332 
0.179736 -0.0467332 9.87666 
9.90773 0.038698 0.0694554 
0.038698 9.99386 -0.00810752 
0.0694554 -0.00810752 9.91531 
9.93496 0.000688701 0.0853137 
0.000688701 9.92493 0.00256265 
0.0853137 0.00256265 9.95701 
9.78225 0.0582776 0.124881 
0.0582776 10.0168 -0.0454972 
0.124881 -0.0454972 10.0178 
9.45834 -0.00762128 0.287422 
-0.00762128 9.37036 0.0131853 
0.287422 0.0131853 8.70298 
9.61369 0.0448177 0.428436 
0.0448177 9.9273 0.0937901 
0.428436 0.0937901 7.99069 
9.58799 0.39832 0.201255 
0.39832 9.25477 0.394737 
0.201255 0.394737 8.68893 
8.96384 -0.0799026 0.772474 
-0.0799026 9.38657 -0.440945 
0.772474 -0.440945 9.18127 
10.0631 -0.175004 0.569933 
-0.175004 10.1207 0.189119 
0.569933 0.189119 8.51478 
10.259 0.0185726 0.581623 
0.0185726 10.0831 0.163874 
0.581623 0.163874 8.35643 
10.2591 -0.197701 0.713091 
-0.197701 10.294 0.0797013 
0.713091 0.0797013 8.14547 
10.5267 -0.947286 -0.196368 
-0.947286 10.205 0.512042 
-0.196368 0.512042 7.96681 
10.8835 0.0411437 -0.444449 
0.0411437 10.982 0.293479 
-0.444449 0.293479 12.4294 
11.1488 -0.25514 0.403054 
-0.25514 10.7344 -0.0472197 
0.403054 -0.0472197 12.4116 
11.0817 -0.342991 0.131543 
-0.342991 10.9722 -0.207119 
0.131543 -0.207119 12.241 
12.37 -0.167578 -0.592788 
-0.167578 12.2683 0.584116 
-0.592788 0.584116 9.6565 
10.1929 -0.450639 0.212824 
-0.450639 11.3945 -0.289105 
0.212824 -0.289105 11.2465 
10.3916 0.0125242 -0.0881685 
0.0125242 10.791 0.217404 
-0.0881685 0.217404 11.6513 
10.7009 -1.09603 0.0514409 
-1.09603 9.99136 -0.0179513 
0.0514409 -0.0179513 12.1417 
10.6158 -0.550719 0.184381 
-0.550719 10.8567 0.0433261 
0.184381 0.0433261 11.3615 
10.505 -0.0424402 0.161313 
-0.0424402 10.4944 -0.197023 
0.161313 -0.197023 9.80485 
10.4748 -0.252198 -0.283181 
-0.252198 10.2046 0.0287276 
-0.283181 0.0287276 10.1247 
9.91681 0.00782888 0.0155346 
0.00782888 10.0018 0.0164214 
0.0155346 0.0164214 10.8856 
10.0744 -0.0366493 0.0155346 
-0.0366493 10.3366 0.0550826 
0.0155346 0.0550826 10.3932 
10.0893 -0.0752091 0.0451288 
-0.0752091 10.3267 -0.0468187 
0.0451288 -0.0468187 10.1192 
10.2641 0.0983701 -0.0793361 
0.0983701 9.83452 -0.0867387 
-0.0793361 -0.0867387 10.4367 
10.1087 -0.0988012 -0.0180233 
-0.0988012 10.3545 0.0905831 
-0.0180233 0.0905831 10.072 
10.1753 -0.0451897 -0.0810211 
-0.0451897 10.1899 -0.0637702 
-0.0810211 -0.0637702 10.17 
9.84999 2.29941 -2.97062 
2.29941 11.3014 1.56353 
-2.97062 1.56353 7.17961 
7.54413 -2.56116 -0.596569 
-2.56116 10.6987 -0.893314 
-0.596569 -0.893314 10.0881 
11.6132 0.424895 -2.86995 
0.424895 8.80829 2.24347 
-2.86995 2.24347 7.90951 
5.29724 7.34565 -5.0265 
7.34565 8.64113 3.41919 
-5.0265 3.41919 14.3926 
8.27926 -0.100697 -1.51551 
-0.100697 9.64248 0.213885 
-1.51551 0.213885 8.82082 
7.86942 1.58362 -3.54265 
1.58362 10.7394 1.79454 
-3.54265 1.79454 8.13376 
6.91539 0.00371171 -1.311 
0.00371171 10.0018 0.733763 
-1.311 0.733763 9.82533 
9.7637 0.201034 0.605801 
0.201034 10.1041 0.934473 
0.605801 0.934473 6.87472 
9.61168 0.117363 -0.134272 
0.117363 9.51731 0.132555 
-0.134272 0.132555 9.83901 
9.61619 0.0821426 -0.15592 
0.0821426 9.57162 0.212736 
-0.15592 0.212736 9.7802 
9.6226 0.134987 -0.217856 
0.134987 9.53117 0.23653 
-0.217856 0.23653 9.81424 
9.75086 -0.189116 -0.137391 
-0.189116 9.60537 0.131529 
-0.137391 0.131529 9.61178 
9.63016 0.166256 -0.330718 
0.166256 9.39637 0.775715 
-0.330718 0.775715 9.26755 
9.29815 -0.0565448 0.191379 
-0.0565448 9.16366 0.402195 
0.191379 0.402195 9.83227 
9.46977 0.493055 -0.489001 
0.493055 9.40744 0.103812 
-0.489001 0.103812 9.41687 
9.63893 -0.0279552 -0.611874 
-0.0279552 9.54025 0.265562 
-0.611874 0.265562 9.11489 
9.69597 0.247968 -0.441763 
0.247968 9.41305 -0.122734 
-0.441763 -0.122734 9.72656 
9.70373 0.100616 -0.193387 
0.100616 9.39468 0.347401 
-0.193387 0.347401 9.73717 
9.71636 0.117617 -0.189324 
0.117617 9.41983 0.0314303 
-0.189324 0.0314303 9.6994 
9.36501 -0.110299 -0.0293977 
-0.110299 9.72554 0.0293795 
-0.0293977 0.0293795 9.74503 
9.24105 0.3186 -0.633501 
0.3186 9.70582 -0.108705 
-0.633501 -0.108705 9.51509 
9.3254 0.068537 -0.578476 
0.068537 9.41509 -0.24995 
-0.578476 -0.24995 9.72146 
9.25591 0.320685 -0.329915 
0.320685 9.37938 0.143392 
-0.329915 0.143392 9.82667 
9.15254 -0.188539 -0.502572 
-0.188539 9.46525 -0.438128 
-0.502572 -0.438128 9.84417 
9.71084 0.00291816 -0.216375 
0.00291816 9.6394 0.308514 
-0.216375 0.308514 9.57257 
9.72948 -0.0660939 -0.19027 
-0.0660939 9.65447 0.358422 
-0.19027 0.358422 9.53887 
9.73802 0.0043391 -0.253427 
0.0043391 9.5889 0.315945 
-0.253427 0.315945 9.59589 
9.60245 -0.00191623 -0.152694 
-0.00191623 9.63592 0.151909 
-0.152694 0.151909 9.68444 
9.76333 0.0850611 -0.226552 
0.0850611 9.39704 0.123676 
-0.226552 0.123676 9.49631 
9.55209 -0.00944137 -0.318923 
-0.00944137 9.55243 0.440801 
-0.318923 0.440801 9.55216 
9.6027 -0.0135784 -0.294161 
-0.0135784 9.63521 0.336052 
-0.294161 0.336052 9.41877 
9.69829 0.00237173 -0.255908 
0.00237173 9.69962 0.379255 
-0.255908 0.379255 9.25877 
3.1916 -0.725587 3.16794 
-0.725587 2.38606 -2.37711 
3.16794 -2.37711 10.4486 
-0.307752 4.79865 -8.66201 
4.79865 6.44367 1.15425 
-8.66201 1.15425 9.89037 
10.8795 -1.37873 -5.53478 
-1.37873 9.54346 1.30132 
-5.53478 1.30132 -4.3967 
21.3311 -5.72352 -8.44761 
-5.72352 8.59513 6.04923 
-8.44761 6.04923 -13.8999 
7.33658 -0.790466 -3.20821 
-0.790466 10.0119 1.01324 
-3.20821 1.01324 4.37645 
6.65551 -0.217257 -1.35894 
-0.217257 8.9108 2.14007 
-1.35894 2.14007 6.15864 
9.23087 0.572194 -2.30913 
0.572194 6.41018 0.732705 
-2.30913 0.732705 6.08389 
6.36513 -0.361235 -2.56713 
-0.361235 9.39477 0.518146 
-2.56713 0.518146 5.96505 
2.11369 0.387309 3.53006 
0.387309 10.7704 -4.687 
3.53006 -4.687 9.54905 
11.7209 -1.92903 -3.07766 
-1.92903 3.88695 -0.0374607 
-3.07766 -0.0374607 6.82531 
11.4867 -0.77136 -1.20365 
-0.77136 6.75705 -2.48945 
-1.20365 -2.48945 4.18938 
5.22955 0.210126 -8.36947 
0.210126 16.5796 -1.84454 
-8.36947 -1.84454 0.624014 
9.32318 0.140714 -0.52946 
0.140714 9.55306 -0.219741 
-0.52946 -0.219741 7.45259 
9.72287 -0.320028 -1.28999 
-0.320028 9.76807 -0.6414 
-1.28999 -0.6414 6.83788 
9.68303 -1.05695 -2.05632 
-1.05695 9.49975 -1.07536 
-2.05632 -1.07536 7.14605 
9.41415 -0.206778 -0.982982 
-0.206778 9.11688 -0.918908 
-0.982982 -0.918908 7.79779 
10.1069 -0.145988 -0.849741 
-0.145988 10.7501 -1.36156 
-0.849741 -1.36156 12.1463 
9.78984 -0.279985 -0.528041 
-0.279985 11.383 -0.00317799 
-0.528041 -0.00317799 11.8305 
9.526 0.0428958 -0.0268567 
0.0428958 10.5108 0.5231 
-0.0268567 0.5231 12.9665 
11.4013 0.906207 -0.190014 
0.906207 12.0674 -0.13823 
-0.190014 -0.13823 9.5347 
9.65014 0.0526381 0.459128 
0.0526381 10.3689 0.149747 
0.459128 0.149747 11.5367 
10.5247 0.0998097 -0.208476 
0.0998097 9.99279 -0.240343 
-0.208476 -0.240343 11.0382 
7.67467 -0.611475 -0.152423 
-0.611475 11.344 -0.937177 
-0.152423 -0.937177 12.5371 
9.78831 -0.448076 0.778441 
-0.448076 10.6548 0.394107 
0.778441 0.394107 11.1126 
9.97277 -0.0117732 -0.179327 
-0.0117732 9.87386 -0.110975 
-0.179327 -0.110975 9.95495 
9.8669 -0.0724948 -0.11764 
-0.0724948 9.88659 -0.0227511 
-0.11764 -0.0227511 10.0481 
9.94703 -0.0151394 -0.0152505 
-0.0151394 10.0403 -0.114643 
-0.0152505 -0.114643 9.81419 
9.78051 -0.0432718 -0.097742 
-0.0432718 9.87578 -0.0346401 
-0.097742 -0.0346401 10.1453 
9.90552 -0.0110512 -0.201485 
-0.0110512 9.854 -0.131094 
-0.201485 -0.131094 9.98269 
9.8066 0.207443 -0.0871363 
0.207443 10.1087 -0.0290735 
-0.0871363 -0.0290735 9.82694 
9.83556 -0.245611 -0.0460547 
-0.245611 9.72695 -0.0603445 
-0.0460547 -0.0603445 10.1797 
9.90193 -0.100537 -0.22274 
-0.100537 9.91891 -0.211358 
-0.22274 -0.211358 9.92138 
9.72439 0.0640918 0.0783555 
0.0640918 9.70904 -0.0891283 
0.0783555 -0.0891283 9.86181 
9.80822 0.0895418 0.140101 
0.0895418 9.65409 -0.23297 
0.140101 -0.23297 9.83292 
9.56069 0.0375264 -0.0850561 
0.0375264 9.29637 -0.246704 
-0.0850561 -0.246704 10.4382 
9.87664 0.107321 0.0354616 
0.107321 9.67407 -0.0674465 
0.0354616 -0.0674465 9.74452 
9.53783 0.0883605 0.0679876 
0.0883605 9.76948 -0.17067 
0.0679876 -0.17067 9.78199 
9.78742 0.122461 0.0870498 
0.122461 9.29912 -0.298132 
0.0870498 -0.298132 10.0028 
9.78959 0.082836 0.101271 
0.082836 9.51972 -0.26894 
0.101271 -0.26894 9.77999 
9.49456 -0.0596663 0.200221 
-0.0596663 9.78607 -0.385225 
0.200221 -0.385225 9.80867 
9.34536 -0.0777909 0.102986 
-0.0777909 10.155 -0.461707 
0.102986 -0.461707 9.88969 
9.40614 0.0835603 0.246184 
0.0835603 9.95003 -0.110699 
0.246184 -0.110699 10.0339 
9.73881 -0.428629 0.0463331 
-0.428629 9.80108 -0.606852 
0.0463331 -0.606852 9.85016 
9.33284 -0.540328 -0.0645303 
-0.540328 10.7811 -0.386554 
-0.0645303 -0.386554 9.27612 
9.32849 -0.134054 0.35213 
-0.134054 10.0445 -0.334741 
0.35213 -0.334741 9.51696 
9.37117 -0.227097 0.309968 
-0.227097 9.74938 -0.243586 
0.309968 -0.243586 9.7694 
9.47867 -0.251359 0.610543 
-0.251359 9.88431 0.0516275 
0.610543 0.0516275 9.52697 
9.72417 0.0363615 0.365238 
0.0363615 10.1658 -0.640827 
0.365238 -0.640827 8.99997 
9.50294 0.0536205 0.235303 
0.0536205 9.49869 -0.327388 
0.235303 -0.327388 9.61694 
9.52678 0.0353002 0.225221 
0.0353002 9.5132 -0.273375 
0.225221 -0.273375 9.57859 
9.51636 0.00681618 0.257068 
0.00681618 9.5471 -0.268611 
0.257068 -0.268611 9.55511 
9.55434 0.0219963 0.211298 
0.0219963 9.49413 -0.241636 
0.211298 -0.241636 9.5701 
9.59651 0.0273511 0.263215 
0.0273511 9.46445 -0.361437 
0.263215 -0.361437 9.631 
9.57531 0.023962 0.310467 
0.023962 9.52347 -0.323616 
0.310467 -0.323616 9.59318 
9.53009 0.0137778 0.279801 
0.0137778 9.56996 -0.297862 
0.279801 -0.297862 9.59191 
9.55082 0.175392 0.29489 
0.175392 9.47404 -0.350482 
0.29489 -0.350482 9.6671 
9.54758 0.00446918 0.240586 
0.00446918 9.5296 -0.234491 
0.240586 -0.234491 9.6044 
9.5695 -0.00567618 0.198559 
-0.00567618 9.59241 -0.257053 
0.198559 -0.257053 9.51967 
9.59647 -0.0159516 0.260226 
-0.0159516 9.57175 -0.272706 
0.260226 -0.272706 9.51335 
9.57264 0.0335555 0.225769 
0.0335555 9.53691 -0.243991 
0.225769 -0.243991 9.57201 
9.50253 0.0493773 0.280551 
0.0493773 9.57997 -0.240293 
0.280551 -0.240293 9.54505 
9.55226 0.0571228 0.264484 
0.0571228 9.53008 -0.260223 
0.264484 -0.260223 9.54522 
9.57093 0.0402611 0.25983 
0.0402611 9.51746 -0.2723 
0.25983 -0.2723 9.53917 
9.5548 0.0785867 0.329923 
0.0785867 9.55853 -0.244642 
0.329923 -0.244642 9.51423 
7.77697 -0.331926 1.07142 
-0.331926 9.00912 1.99075 
1.07142 1.99075 5.39636 
6.26961 -3.32778 2.93856 
-3.32778 5.55204 0.462179 
2.93856 0.462179 10.3608 
7.23572 -1.02351 1.64009 
-1.02351 9.12627 1.8655 
1.64009 1.8655 5.82047 
9.81678 -1.99071 0.287793 
-1.99071 9.14371 0.6805 
0.287793 0.6805 3.22197 
10.323 1.48716 -1.34121 
1.48716 7.3853 1.34945 
-1.34121 1.34945 11.3187 
11.0252 -0.0831986 2.35078 
-0.0831986 9.87954 3.34074 
2.35078 3.34074 8.12231 
10.5402 1.15988 0.482873 
1.15988 10.5632 1.931 
0.482873 1.931 7.92363 
11.2067 0.819855 0.612181 
0.819855 9.90459 1.97871 
0.612181 1.97871 7.91574 
4.54767 -0.541055 0.291227 
-0.541055 2.83918 1.15744 
0.291227 1.15744 3.67085 
4.67851 1.46896 1.58552 
1.46896 7.03173 -0.263314 
1.58552 -0.263314 -0.652539 
2.25168 -0.660648 1.25161 
-0.660648 6.24848 2.25033 
1.25161 2.25033 2.55754 
3.92977 -0.0243497 0.424385 
-0.0243497 4.81864 1.05277 
0.424385 1.05277 2.30929 
8.58713 -0.905699 0.785726 
-0.905699 6.73913 1.2355 
0.785726 1.2355 3.26319 
6.75475 -0.246695 0.336433 
-0.246695 8.72823 2.20764 
0.336433 2.20764 3.10648 
7.71592 -0.0512399 0.408606 
-0.0512399 8.9425 0.809404 
0.408606 0.809404 1.93103 
7.50378 0.082301 1.12858 
0.082301 8.17422 2.05367 
1.12858 2.05367 2.91146 
9.83685 0.0679982 -0.0803548 
0.0679982 9.73831 0.17153 
-0.0803548 0.17153 9.95235 
9.92031 0.130238 -0.131323 
0.130238 9.65257 0.34102 
-0.131323 0.34102 9.95462 
9.7991 -0.0373126 -0.0709103 
-0.0373126 9.90025 0.162022 
-0.0709103 0.162022 9.82815 
9.73444 0.0344552 -0.0697535 
0.0344552 9.71989 0.0818454 
-0.0697535 0.0818454 10.0732 
9.73498 0.00882657 -0.113083 
0.00882657 9.73893 0.293408 
-0.113083 0.293408 9.87603 
9.76148 0.00215692 -0.120818 
0.00215692 9.75114 0.253162 
-0.120818 0.253162 9.83733 
9.73294 -0.0211178 -0.148197 
-0.0211178 9.77397 0.218689 
-0.148197 0.218689 9.84304 
9.8274 0.0207628 -0.0719647 
0.0207628 9.73922 0.211078 
-0.0719647 0.211078 9.78334 
9.74973 0.0180202 0.0114392 
0.0180202 9.74539 -0.0987122 
0.0114392 -0.0987122 9.97233 
9.69001 -0.075238 -0.0716282 
-0.075238 9.83714 0.154838 
-0.0716282 0.154838 9.9403 
9.76553 -0.0734262 -0.0210421 
-0.0734262 9.69844 0.0993964 
-0.0210421 0.0993964 10.0035 
9.8077 0.0117346 -0.0391204 
0.0117346 9.85327 0.240108 
-0.0391204 0.240108 9.80647 
9.79082 0.0338722 -0.0476292 
0.0338722 9.89194 -0.0189114 
-0.0476292 -0.0189114 10.0545 
9.78766 0.121527 -0.0381392 
0.121527 9.81428 -0.0114961 
-0.0381392 -0.0114961 10.1353 
9.84048 -0.0919156 -0.0691381 
-0.0919156 9.91363 0.101893 
-0.0691381 0.101893 9.9831 
9.66055 -0.189433 0.000627224 
-0.189433 9.93704 -0.144447 
0.000627224 -0.144447 10.1396 
9.75044 -0.0163478 0.00492406 
-0.0163478 9.71791 0.0828388 
0.00492406 0.0828388 9.91332 
9.70152 -0.039692 0.0828281 
-0.039692 9.75629 -0.0918785 
0.0828281 -0.0918785 9.92385 
9.7013 -0.0736687 0.0327892 
-0.0736687 9.60229 -0.0749606 
0.0327892 -0.0749606 10.0781 
9.73733 -0.0336303 0.0701823 
-0.0336303 9.81979 -0.223264 
0.0701823 -0.223264 9.82455 
9.85786 -0.0151644 0.0609162 
-0.0151644 9.85911 0.02436 
0.0609162 0.02436 10.0714 
9.89718 -0.0715942 0.0510293 
-0.0715942 9.86514 -0.0558169 
0.0510293 -0.0558169 10.026 
9.83604 -0.0409372 0.0521412 
-0.0409372 9.87794 -0.0163469 
0.0521412 -0.0163469 10.0744 
9.78975 -0.150438 0.0270666 
-0.150438 9.90634 0.083448 
0.0270666 0.083448 10.0922 
9.97473 0.0404159 -0.0174787 
0.0404159 9.9621 -0.00708896 
-0.0174787 -0.00708896 9.90203 
9.96905 0.0308887 0.02803 
0.0308887 9.95419 0.0072627 
0.02803 0.0072627 9.91562 
9.81921 -0.195828 0.0521425 
-0.195828 9.95377 -0.035725 
0.0521425 -0.035725 10.0659 
10.0286 0.0560998 -0.0455462 
0.0560998 9.9166 -0.0178008 
-0.0455462 -0.0178008 9.89363 
10.0473 0.0189516 0.0134407 
0.0189516 10.0092 0.00532969 
0.0134407 0.00532969 10.01 
10.063 0.0427327 0.0355781 
0.0427327 10.015 0.0323347 
0.0355781 0.0323347 9.98849 
10.021 0.0354754 0.0514013 
0.0354754 10.0323 -0.01605 
0.0514013 -0.01605 10.0133 
9.96615 0.0265703 -0.0421856 
0.0265703 9.97726 -0.00795634 
-0.0421856 -0.00795634 10.1231 
10.0537 -0.0327264 0.0458287 
-0.0327264 10.0933 0.035062 
0.0458287 0.035062 10.0259 
10.0576 -0.0269262 0.00874803 
-0.0269262 10.0742 0.0112428 
0.00874803 0.0112428 10.0412 
10.0871 -0.0272717 0.0415129 
-0.0272717 10.0874 0.021441 
0.0415129 0.021441 9.99848 
10.1371 -0.00511252 0.0602551 
-0.00511252 10.1115 0.0161231 
0.0602551 0.0161231 9.92439 
9.90861 0.0403307 0.127164 
0.0403307 9.97612 0.131499 
0.127164 0.131499 9.87594 
9.93202 -0.0658593 0.0658232 
-0.0658593 9.94393 0.0426577 
0.0658232 0.0426577 9.88472 
9.86779 0.0174741 0.0688694 
0.0174741 9.93424 0.0851052 
0.0688694 0.0851052 9.95864 
9.92196 -0.117086 0.117394 
-0.117086 9.8531 0.0751347 
0.117394 0.0751347 9.9856 
9.86243 0.00533349 0.183366 
0.00533349 9.84953 0.10714 
0.183366 0.10714 9.82502 
9.85645 0.00166858 0.197932 
0.00166858 9.83354 0.113201 
0.197932 0.113201 9.84699 
9.85181 -0.00501223 0.196076 
-0.00501223 9.81565 0.11578 
0.196076 0.11578 9.86952 
9.85806 -0.000595277 0.183265 
-0.000595277 9.82214 0.121208 
0.183265 0.121208 9.85679 
9.85037 0.0266552 0.165211 
0.0266552 9.83897 0.118647 
0.165211 0.118647 9.82111 
9.81999 -0.0126927 0.189837 
-0.0126927 9.82795 0.11514 
0.189837 0.11514 9.86251 
9.84521 0.00973799 0.170661 
0.00973799 9.82948 0.119309 
0.170661 0.119309 9.83576 
9.84459 0.00714767 0.1849 
0.00714767 9.83857 0.11077 
0.1849 0.11077 9.82729 
9.60018 -0.021126 0.29552 
-0.021126 9.61101 0.084324 
0.29552 0.084324 9.66914 
9.58881 -0.0285292 0.329632 
-0.0285292 9.61379 0.10627 
0.329632 0.10627 9.67774 
9.63601 0.00440957 0.275704 
0.00440957 9.60134 0.115883 
0.275704 0.115883 9.64299 
9.64172 0.00141554 0.278279 
0.00141554 9.62832 0.105474 
0.278279 0.105474 9.61029 
9.5793 -0.00399205 0.366965 
-0.00399205 9.59775 0.141782 
0.366965 0.141782 9.62944 
9.55706 -0.0232751 0.341327 
-0.0232751 9.6299 0.103491 
0.341327 0.103491 9.61953 
9.58129 -0.00401453 0.346641 
-0.00401453 9.59495 0.12218 
0.346641 0.12218 9.63024 
9.62155 -0.0182541 0.360561 
-0.0182541 9.59519 0.1055 
0.360561 0.1055 9.58974 
9.2207 -0.299732 2.14541 
-0.299732 5.764 -2.1679 
2.14541 -2.1679 2.60068 
9.90127 -0.896797 0.678587 
-0.896797 7.61472 -1.37071 
0.678587 -1.37071 0.0693898 
8.44998 1.17141 3.86182 
1.17141 8.64377 0.610111 
3.86182 0.610111 0.491633 
6.22664 -0.295663 2.25258 
-0.295663 9.97962 -0.075319 
2.25258 -0.075319 1.37912 
9.02769 0.797852 1.69152 
0.797852 10.2412 0.345318 
1.69152 0.345318 6.90209 
9.19905 1.20749 1.60537 
1.20749 10.3776 -0.374093 
1.60537 -0.374093 6.59427 
8.95747 0.840461 3.03415 
0.840461 10.5433 1.36988 
3.03415 1.36988 6.67016 
8.76816 -0.306454 2.27587 
-0.306454 8.06543 -0.556737 
2.27587 -0.556737 9.33736 
10.8593 3.58548 0.683511 
3.58548 10.274 -1.91828 
0.683511 -1.91828 13.2436 
11.1512 -1.06587 3.75221 
-1.06587 10.4646 -0.997828 
3.75221 -0.997828 12.761 
2.50834 -5.72536 1.24156 
-5.72536 11.2365 3.07185 
1.24156 3.07185 20.6321 
10.5617 -6.17084 5.04323 
-6.17084 15.1473 2.80497 
5.04323 2.80497 8.66787 
11.6445 0.169671 -1.78582 
0.169671 17.6185 1.50728 
-1.78582 1.50728 12.3267 
10.809 -2.21345 -1.122 
-2.21345 14.7732 -0.160708 
-1.122 -0.160708 16.0075 
11.0752 -1.11547 -0.589797 
-1.11547 15.6102 -0.480364 
-0.589797 -0.480364 14.9043 
6.73318 -0.957096 -0.979449 
-0.957096 10.8089 -3.27981 
-0.979449 -3.27981 24.0477 
7.53098 0.130642 3.36534 
0.130642 8.93819 1.75835 
3.36534 1.75835 5.2445 
7.08073 0.0392669 3.07372 
0.0392669 9.80114 1.33962 
3.07372 1.33962 4.8318 
7.56899 -0.354364 3.66604 
-0.354364 8.52004 1.6844 
3.66604 1.6844 5.62465 
9.99453 -1.41641 4.05013 
-1.41641 3.56565 1.16685 
4.05013 1.16685 8.1535 
-2.88954 5.91307 0.784079 
5.91307 5.23449 -4.26209 
0.784079 -4.26209 14.4135 
6.12131 -6.5298 7.85965 
-6.5298 3.4171 4.50978 
7.85965 4.50978 7.22008 
15.1794 1.99676 2.31906 
1.99676 3.68072 3.98143 
2.31906 3.98143 -2.10166 
16.2419 1.78747 1.75512 
1.78747 15.526 9.155 
1.75512 9.155 -15.0095 
9.63136 0.0192449 -0.280793 
0.0192449 9.64013 -0.104484 
-0.280793 -0.104484 9.67171 
9.64511 0.0384417 -0.288102 
0.0384417 9.6655 -0.137454 
-0.288102 -0.137454 9.6326 
9.60555 -0.0224086 -0.285097 
-0.0224086 9.61553 -0.149132 
-0.285097 -0.149132 9.72211 
9.63823 0.0220923 -0.277665 
0.0220923 9.64626 -0.142245 
-0.277665 -0.142245 9.65871 
9.64264 -0.0243009 -0.303491 
-0.0243009 9.64084 -0.151851 
-0.303491 -0.151851 9.64218 
9.62142 0.00820692 -0.31555 
0.00820692 9.62716 -0.144696 
-0.31555 -0.144696 9.67707 
9.61321 0.00799191 -0.309958 
0.00799191 9.64858 -0.142102 
-0.309958 -0.142102 9.66386 
9.63609 0.0301176 -0.327126 
0.0301176 9.61916 -0.14124 
-0.327126 -0.14124 9.6704 
9.35291 -0.252753 -0.0954892 
-0.252753 9.44433 -0.22298 
-0.0954892 -0.22298 9.72479 
9.56113 -0.233461 -0.185276 
-0.233461 9.25324 -0.222459 
-0.185276 -0.222459 9.70766 
9.48188 -0.162277 -0.139742 
-0.162277 9.3746 -0.276033 
-0.139742 -0.276033 9.66555 
9.63923 0.246314 -0.191193 
0.246314 9.46906 -0.343937 
-0.191193 -0.343937 9.41374 
9.76078 -0.359292 -0.0589173 
-0.359292 9.90178 -0.178137 
-0.0589173 -0.178137 8.54607 
9.28231 -0.199913 -0.615863 
-0.199913 9.12409 -0.373438 
-0.615863 -0.373438 9.80223 
8.68059 -0.29643 -0.194046 
-0.29643 8.87822 -0.228188 
-0.194046 -0.228188 10.6498 
9.19423 -0.504097 -0.608496 
-0.504097 9.49165 -0.544223 
-0.608496 -0.544223 9.52275 
9.78154 -0.0185595 -0.291702 
-0.0185595 9.72972 0.101283 
-0.291702 0.101283 9.74166 
9.76643 -0.00580921 -0.319333 
-0.00580921 9.75204 0.091947 
-0.319333 0.091947 9.73445 
9.75842 -0.000706891 -0.317053 
-0.000706891 9.73747 0.0803907 
-0.317053 0.0803907 9.75704 
9.7294 0.0185591 -0.31869 
0.0185591 9.77246 0.0883583 
-0.31869 0.0883583 9.75107 
9.7684 -0.00292677 -0.301393 
-0.00292677 9.76961 0.0700867 
-0.301393 0.0700867 9.75556 
9.77955 -0.010301 -0.312798 
-0.010301 9.76351 0.0821029 
-0.312798 0.0821029 9.7505 
9.78135 -0.0139297 -0.300419 
-0.0139297 9.7559 0.0895113 
-0.300419 0.0895113 9.75632 
9.78873 -0.0103347 -0.31882 
-0.0103347 9.75622 0.0717816 
-0.31882 0.0717816 9.74861 
METADATA
COMPONENT_NAMES
XX
XY
XZ
YX
YY
YZ
ZX
ZY
ZZ

