# vtk DataFile Version 3.0
vtk output
ASCII
DATASET UNSTRUCTURED_GRID
POINTS 400 float
-1	-1	0	
-0.8	-1	0	
-0.8	-0.8	0	
-1	-0.8	0	
-1	-0.8	0	
-0.8	-0.8	0	
-0.8	-0.6	0	
-1	-0.6	0	
-1	-0.6	0	
-0.8	-0.6	0	
-0.8	-0.4	0	
-1	-0.4	0	
-1	-0.4	0	
-0.8	-0.4	0	
-0.8	-0.2	0	
-1	-0.2	0	
-1	-0.2	0	
-0.8	-0.2	0	
-0.8	2.20018e-12	0	
-1	2.75024e-12	0	
-1	2.75024e-12	0	
-0.8	2.20018e-12	0	
-0.8	0.2	0	
-1	0.2	0	
-1	0.2	0	
-0.8	0.2	0	
-0.8	0.4	0	
-1	0.4	0	
-1	0.4	0	
-0.8	0.4	0	
-0.8	0.6	0	
-1	0.6	0	
-1	0.6	0	
-0.8	0.6	0	
-0.8	0.8	0	
-1	0.8	0	
-1	0.8	0	
-0.8	0.8	0	
-0.8	1	0	
-1	1	0	
-0.8	-1	0	
-0.6	-1	0	
-0.6	-0.8	0	
-0.8	-0.8	0	
-0.8	-0.8	0	
-0.6	-0.8	0	
-0.6	-0.6	0	
-0.8	-0.6	0	
-0.8	-0.6	0	
-0.6	-0.6	0	
-0.6	-0.4	0	
-0.8	-0.4	0	
-0.8	-0.4	0	
-0.6	-0.4	0	
-0.6	-0.2	0	
-0.8	-0.2	0	
-0.8	-0.2	0	
-0.6	-0.2	0	
-0.6	1.65007e-12	0	
-0.8	2.20018e-12	0	
-0.8	2.20018e-12	0	
-0.6	1.65007e-12	0	
-0.6	0.2	0	
-0.8	0.2	0	
-0.8	0.2	0	
-0.6	0.2	0	
-0.6	0.4	0	
-0.8	0.4	0	
-0.8	0.4	0	
-0.6	0.4	0	
-0.6	0.6	0	
-0.8	0.6	0	
-0.8	0.6	0	
-0.6	0.6	0	
-0.6	0.8	0	
-0.8	0.8	0	
-0.8	0.8	0	
-0.6	0.8	0	
-0.6	1	0	
-0.8	1	0	
-0.6	-1	0	
-0.4	-1	0	
-0.4	-0.8	0	
-0.6	-0.8	0	
-0.6	-0.8	0	
-0.4	-0.8	0	
-0.4	-0.6	0	
-0.6	-0.6	0	
-0.6	-0.6	0	
-0.4	-0.6	0	
-0.4	-0.4	0	
-0.6	-0.4	0	
-0.6	-0.4	0	
-0.4	-0.4	0	
-0.4	-0.2	0	
-0.6	-0.2	0	
-0.6	-0.2	0	
-0.4	-0.2	0	
-0.4	1.10012e-12	0	
-0.6	1.65007e-12	0	
-0.6	1.65007e-12	0	
-0.4	1.10012e-12	0	
-0.4	0.2	0	
-0.6	0.2	0	
-0.6	0.2	0	
-0.4	0.2	0	
-0.4	0.4	0	
-0.6	0.4	0	
-0.6	0.4	0	
-0.4	0.4	0	
-0.4	0.6	0	
-0.6	0.6	0	
-0.6	0.6	0	
-0.4	0.6	0	
-0.4	0.8	0	
-0.6	0.8	0	
-0.6	0.8	0	
-0.4	0.8	0	
-0.4	1	0	
-0.6	1	0	
-0.4	-1	0	
-0.2	-1	0	
-0.2	-0.8	0	
-0.4	-0.8	0	
-0.4	-0.8	0	
-0.2	-0.8	0	
-0.2	-0.6	0	
-0.4	-0.6	0	
-0.4	-0.6	0	
-0.2	-0.6	0	
-0.2	-0.4	0	
-0.4	-0.4	0	
-0.4	-0.4	0	
-0.2	-0.4	0	
-0.2	-0.2	0	
-0.4	-0.2	0	
-0.4	-0.2	0	
-0.2	-0.2	0	
-0.2	5.50004e-13	0	
-0.4	1.10012e-12	0	
-0.4	1.10012e-12	0	
-0.2	5.50004e-13	0	
-0.2	0.2	0	
-0.4	0.2	0	
-0.4	0.2	0	
-0.2	0.2	0	
-0.2	0.4	0	
-0.4	0.4	0	
-0.4	0.4	0	
-0.2	0.4	0	
-0.2	0.6	0	
-0.4	0.6	0	
-0.4	0.6	0	
-0.2	0.6	0	
-0.2	0.8	0	
-0.4	0.8	0	
-0.4	0.8	0	
-0.2	0.8	0	
-0.2	1	0	
-0.4	1	0	
-0.2	-1	0	
-2.75024e-12	-1	0	
-2.20022e-12	-0.8	0	
-0.2	-0.8	0	
-0.2	-0.8	0	
-2.20022e-12	-0.8	0	
-1.6502e-12	-0.6	0	
-0.2	-0.6	0	
-0.2	-0.6	0	
-1.6502e-12	-0.6	0	
-1.10004e-12	-0.4	0	
-0.2	-0.4	0	
-0.2	-0.4	0	
-1.10004e-12	-0.4	0	
-5.50049e-13	-0.2	0	
-0.2	-0.2	0	
-0.2	-0.2	0	
-5.50049e-13	-0.2	0	
8.07794e-28	0	0	
-0.2	5.50004e-13	0	
-0.2	5.50004e-13	0	
8.07794e-28	0	0	
5.50049e-13	0.2	0	
-0.2	0.2	0	
-0.2	0.2	0	
5.50049e-13	0.2	0	
1.10015e-12	0.4	0	
-0.2	0.4	0	
-0.2	0.4	0	
1.10015e-12	0.4	0	
1.65009e-12	0.6	0	
-0.2	0.6	0	
-0.2	0.6	0	
1.65009e-12	0.6	0	
2.20014e-12	0.8	0	
-0.2	0.8	0	
-0.2	0.8	0	
2.20014e-12	0.8	0	
2.75024e-12	1	0	
-0.2	1	0	
-2.75024e-12	-1	0	
0.2	-1	0	
0.2	-0.8	0	
-2.20022e-12	-0.8	0	
-2.20022e-12	-0.8	0	
0.2	-0.8	0	
0.2	-0.6	0	
-1.6502e-12	-0.6	0	
-1.6502e-12	-0.6	0	
0.2	-0.6	0	
0.2	-0.4	0	
-1.10004e-12	-0.4	0	
-1.10004e-12	-0.4	0	
0.2	-0.4	0	
0.2	-0.2	0	
-5.50049e-13	-0.2	0	
-5.50049e-13	-0.2	0	
0.2	-0.2	0	
0.2	-5.50004e-13	0	
8.07794e-28	0	0	
8.07794e-28	0	0	
0.2	-5.50004e-13	0	
0.2	0.2	0	
5.50049e-13	0.2	0	
5.50049e-13	0.2	0	
0.2	0.2	0	
0.2	0.4	0	
1.10015e-12	0.4	0	
1.10015e-12	0.4	0	
0.2	0.4	0	
0.2	0.6	0	
1.65009e-12	0.6	0	
1.65009e-12	0.6	0	
0.2	0.6	0	
0.2	0.8	0	
2.20014e-12	0.8	0	
2.20014e-12	0.8	0	
0.2	0.8	0	
0.2	1	0	
2.75024e-12	1	0	
0.2	-1	0	
0.4	-1	0	
0.4	-0.8	0	
0.2	-0.8	0	
0.2	-0.8	0	
0.4	-0.8	0	
0.4	-0.6	0	
0.2	-0.6	0	
0.2	-0.6	0	
0.4	-0.6	0	
0.4	-0.4	0	
0.2	-0.4	0	
0.2	-0.4	0	
0.4	-0.4	0	
0.4	-0.2	0	
0.2	-0.2	0	
0.2	-0.2	0	
0.4	-0.2	0	
0.4	-1.10009e-12	0	
0.2	-5.50004e-13	0	
0.2	-5.50004e-13	0	
0.4	-1.10009e-12	0	
0.4	0.2	0	
0.2	0.2	0	
0.2	0.2	0	
0.4	0.2	0	
0.4	0.4	0	
0.2	0.4	0	
0.2	0.4	0	
0.4	0.4	0	
0.4	0.6	0	
0.2	0.6	0	
0.2	0.6	0	
0.4	0.6	0	
0.4	0.8	0	
0.2	0.8	0	
0.2	0.8	0	
0.4	0.8	0	
0.4	1	0	
0.2	1	0	
0.4	-1	0	
0.6	-1	0	
0.6	-0.8	0	
0.4	-0.8	0	
0.4	-0.8	0	
0.6	-0.8	0	
0.6	-0.6	0	
0.4	-0.6	0	
0.4	-0.6	0	
0.6	-0.6	0	
0.6	-0.4	0	
0.4	-0.4	0	
0.4	-0.4	0	
0.6	-0.4	0	
0.6	-0.2	0	
0.4	-0.2	0	
0.4	-0.2	0	
0.6	-0.2	0	
0.6	-1.65015e-12	0	
0.4	-1.10009e-12	0	
0.4	-1.10009e-12	0	
0.6	-1.65015e-12	0	
0.6	0.2	0	
0.4	0.2	0	
0.4	0.2	0	
0.6	0.2	0	
0.6	0.4	0	
0.4	0.4	0	
0.4	0.4	0	
0.6	0.4	0	
0.6	0.6	0	
0.4	0.6	0	
0.4	0.6	0	
0.6	0.6	0	
0.6	0.8	0	
0.4	0.8	0	
0.4	0.8	0	
0.6	0.8	0	
0.6	1	0	
0.4	1	0	
0.6	-1	0	
0.8	-1	0	
0.8	-0.8	0	
0.6	-0.8	0	
0.6	-0.8	0	
0.8	-0.8	0	
0.8	-0.6	0	
0.6	-0.6	0	
0.6	-0.6	0	
0.8	-0.6	0	
0.8	-0.4	0	
0.6	-0.4	0	
0.6	-0.4	0	
0.8	-0.4	0	
0.8	-0.2	0	
0.6	-0.2	0	
0.6	-0.2	0	
0.8	-0.2	0	
0.8	-2.20025e-12	0	
0.6	-1.65015e-12	0	
0.6	-1.65015e-12	0	
0.8	-2.20025e-12	0	
0.8	0.2	0	
0.6	0.2	0	
0.6	0.2	0	
0.8	0.2	0	
0.8	0.4	0	
0.6	0.4	0	
0.6	0.4	0	
0.8	0.4	0	
0.8	0.6	0	
0.6	0.6	0	
0.6	0.6	0	
0.8	0.6	0	
0.8	0.8	0	
0.6	0.8	0	
0.6	0.8	0	
0.8	0.8	0	
0.8	1	0	
0.6	1	0	
0.8	-1	0	
1	-1	0	
1	-0.8	0	
0.8	-0.8	0	
0.8	-0.8	0	
1	-0.8	0	
1	-0.6	0	
0.8	-0.6	0	
0.8	-0.6	0	
1	-0.6	0	
1	-0.4	0	
0.8	-0.4	0	
0.8	-0.4	0	
1	-0.4	0	
1	-0.2	0	
0.8	-0.2	0	
0.8	-0.2	0	
1	-0.2	0	
1	-2.75024e-12	0	
0.8	-2.20025e-12	0	
0.8	-2.20025e-12	0	
1	-2.75024e-12	0	
1	0.2	0	
0.8	0.2	0	
0.8	0.2	0	
1	0.2	0	
1	0.4	0	
0.8	0.4	0	
0.8	0.4	0	
1	0.4	0	
1	0.6	0	
0.8	0.6	0	
0.8	0.6	0	
1	0.6	0	
1	0.8	0	
0.8	0.8	0	
0.8	0.8	0	
1	0.8	0	
1	1	0	
0.8	1	0	
CELLS 100 500
4	0	1	2	3	
4	4	5	6	7	
4	8	9	10	11	
4	12	13	14	15	
4	16	17	18	19	
4	20	21	22	23	
4	24	25	26	27	
4	28	29	30	31	
4	32	33	34	35	
4	36	37	38	39	
4	40	41	42	43	
4	44	45	46	47	
4	48	49	50	51	
4	52	53	54	55	
4	56	57	58	59	
4	60	61	62	63	
4	64	65	66	67	
4	68	69	70	71	
4	72	73	74	75	
4	76	77	78	79	
4	80	81	82	83	
4	84	85	86	87	
4	88	89	90	91	
4	92	93	94	95	
4	96	97	98	99	
4	100	101	102	103	
4	104	105	106	107	
4	108	109	110	111	
4	112	113	114	115	
4	116	117	118	119	
4	120	121	122	123	
4	124	125	126	127	
4	128	129	130	131	
4	132	133	134	135	
4	136	137	138	139	
4	140	141	142	143	
4	144	145	146	147	
4	148	149	150	151	
4	152	153	154	155	
4	156	157	158	159	
4	160	161	162	163	
4	164	165	166	167	
4	168	169	170	171	
4	172	173	174	175	
4	176	177	178	179	
4	180	181	182	183	
4	184	185	186	187	
4	188	189	190	191	
4	192	193	194	195	
4	196	197	198	199	
4	200	201	202	203	
4	204	205	206	207	
4	208	209	210	211	
4	212	213	214	215	
4	216	217	218	219	
4	220	221	222	223	
4	224	225	226	227	
4	228	229	230	231	
4	232	233	234	235	
4	236	237	238	239	
4	240	241	242	243	
4	244	245	246	247	
4	248	249	250	251	
4	252	253	254	255	
4	256	257	258	259	
4	260	261	262	263	
4	264	265	266	267	
4	268	269	270	271	
4	272	273	274	275	
4	276	277	278	279	
4	280	281	282	283	
4	284	285	286	287	
4	288	289	290	291	
4	292	293	294	295	
4	296	297	298	299	
4	300	301	302	303	
4	304	305	306	307	
4	308	309	310	311	
4	312	313	314	315	
4	316	317	318	319	
4	320	321	322	323	
4	324	325	326	327	
4	328	329	330	331	
4	332	333	334	335	
4	336	337	338	339	
4	340	341	342	343	
4	344	345	346	347	
4	348	349	350	351	
4	352	353	354	355	
4	356	357	358	359	
4	360	361	362	363	
4	364	365	366	367	
4	368	369	370	371	
4	372	373	374	375	
4	376	377	378	379	
4	380	381	382	383	
4	384	385	386	387	
4	388	389	390	391	
4	392	393	394	395	
4	396	397	398	399	
CELL_TYPES 100
9
9
9
9
9
9
9
9
9
9
9
9
9
9
9
9
9
9
9
9
9
9
9
9
9
9
9
9
9
9
9
9
9
9
9
9
9
9
9
9
9
9
9
9
9
9
9
9
9
9
9
9
9
9
9
9
9
9
9
9
9
9
9
9
9
9
9
9
9
9
9
9
9
9
9
9
9
9
9
9
9
9
9
9
9
9
9
9
9
9
9
9
9
9
9
9
9
9
9
9
CELL_DATA 100
POINT_DATA 400
SCALARS Pressure float 
LOOKUP_TABLE default
0.9 0.9 0.9 0.9 0.9 0.9 0.9 0.9 0.9 0.9 0.9 0.9 0.9 0.9 0.9 0.9 0.9 0.9 0.9 0.9 0.9 0.9 0.9 0.9 0.9 0.9 0.9 0.9 0.9 0.9 0.9 0.9 0.9 0.9 0.9 0.9 0.9 0.9 0.9 0.9 0.7 0.7 0.7 0.7 0.7 0.7 0.7 0.7 0.7 0.7 0.7 0.7 0.7 0.7 0.7 0.7 0.7 0.7 0.7 0.7 0.7 0.7 0.7 0.7 0.7 0.7 0.7 0.7 0.7 0.7 0.7 0.7 0.7 0.7 0.7 0.7 0.7 0.7 0.7 0.7 0.5 0.5 0.5 0.5 0.5 0.5 0.5 0.5 0.5 0.5 0.5 0.5 0.5 0.5 0.5 0.5 0.5 0.5 0.5 0.5 0.5 0.5 0.5 0.5 0.5 0.5 0.5 0.5 0.5 0.5 0.5 0.5 0.5 0.5 0.5 0.5 0.5 0.5 0.5 0.5 0.3 0.3 0.3 0.3 0.3 0.3 0.3 0.3 0.3 0.3 0.3 0.3 0.3 0.3 0.3 0.3 0.3 0.3 0.3 0.3 0.3 0.3 0.3 0.3 0.3 0.3 0.3 0.3 0.3 0.3 0.3 0.3 0.3 0.3 0.3 0.3 0.3 0.3 0.3 0.3 0.1 0.1 0.1 0.1 0.1 0.1 0.1 0.1 0.1 0.1 0.1 0.1 0.1 0.1 0.1 0.1 0.1 0.1 0.1 0.1 0.1 0.1 0.1 0.1 0.1 0.1 0.1 0.1 0.1 0.1 0.1 0.1 0.1 0.1 0.1 0.1 0.1 0.1 0.1 0.1 -0.1 -0.1 -0.1 -0.1 -0.1 -0.1 -0.1 -0.1 -0.1 -0.1 -0.1 -0.1 -0.1 -0.1 -0.1 -0.1 -0.1 -0.1 -0.1 -0.1 -0.1 -0.1 -0.1 -0.1 -0.1 -0.1 -0.1 -0.1 -0.1 -0.1 -0.1 -0.1 -0.1 -0.1 -0.1 -0.1 -0.1 -0.1 -0.1 -0.1 -0.3 -0.3 -0.3 -0.3 -0.3 -0.3 -0.3 -0.3 -0.3 -0.3 -0.3 -0.3 -0.3 -0.3 -0.3 -0.3 -0.3 -0.3 -0.3 -0.3 -0.3 -0.3 -0.3 -0.3 -0.3 -0.3 -0.3 -0.3 -0.3 -0.3 -0.3 -0.3 -0.3 -0.3 -0.3 -0.3 -0.3 -0.3 -0.3 -0.3 -0.5 -0.5 -0.5 -0.5 -0.5 -0.5 -0.5 -0.5 -0.5 -0.5 -0.5 -0.5 -0.5 -0.5 -0.5 -0.5 -0.5 -0.5 -0.5 -0.5 -0.5 -0.5 -0.5 -0.5 -0.5 -0.5 -0.5 -0.5 -0.5 -0.5 -0.5 -0.5 -0.5 -0.5 -0.5 -0.5 -0.5 -0.5 -0.5 -0.5 -0.7 -0.7 -0.7 -0.7 -0.7 -0.7 -0.7 -0.7 -0.7 -0.7 -0.7 -0.7 -0.7 -0.7 -0.7 -0.7 -0.7 -0.7 -0.7 -0.7 -0.7 -0.7 -0.7 -0.7 -0.7 -0.7 -0.7 -0.7 -0.7 -0.7 -0.7 -0.7 -0.7 -0.7 -0.7 -0.7 -0.7 -0.7 -0.7 -0.7 -0.9 -0.9 -0.9 -0.9 -0.9 -0.9 -0.9 -0.9 -0.9 -0.9 -0.9 -0.9 -0.9 -0.9 -0.9 -0.9 -0.9 -0.9 -0.9 -0.9 -0.9 -0.9 -0.9 -0.9 -0.9 -0.9 -0.9 -0.9 -0.9 -0.9 -0.9 -0.9 -0.9 -0.9 -0.9 -0.9 -0.9 -0.9 -0.9 -0.9 
VECTORS Velocity float 
0.00201323 -9.52286e-12 0 
0.00201323 -8.47714e-12 0 
0.182013 -8.29342e-12 0 
0.182013 9.56078e-12 0 
0.182013 9.56078e-12 0 
0.182013 -8.29342e-12 0 
0.322013 -1.71212e-12 0 
0.322013 5.66509e-12 0 
0.322013 5.66509e-12 0 
0.322013 -1.71212e-12 0 
0.422013 -2.66113e-13 0 
0.422013 4.00674e-12 0 
0.422013 4.00674e-12 0 
0.422013 -2.66113e-13 0 
0.482013 1.27456e-13 0 
0.482013 1.98194e-12 0 
0.482013 1.98194e-12 0 
0.482013 1.27456e-13 0 
0.502013 -1.20409e-14 0 
0.502013 -6.88716e-15 0 
0.502013 -6.88716e-15 0 
0.502013 -1.20409e-14 0 
0.482013 -1.49093e-13 0 
0.482013 -1.9889e-12 0 
0.482013 -1.9889e-12 0 
0.482013 -1.49093e-13 0 
0.422013 2.50167e-13 0 
0.422013 -4.01233e-12 0 
0.422013 -4.01233e-12 0 
0.422013 2.50167e-13 0 
0.322013 1.70082e-12 0 
0.322013 -5.66859e-12 0 
0.322013 -5.66859e-12 0 
0.322013 1.70082e-12 0 
0.182013 8.28688e-12 0 
0.182013 -9.56228e-12 0 
0.182013 -9.56228e-12 0 
0.182013 8.28688e-12 0 
0.00201323 8.47714e-12 0 
0.00201323 9.52286e-12 0 
0.00201323 -7.52286e-12 0 
0.00201323 -6.47714e-12 0 
0.182013 -6.1464e-12 0 
0.182013 -7.06747e-12 0 
0.182013 -7.06747e-12 0 
0.182013 -6.1464e-12 0 
0.322013 -4.33431e-12 0 
0.322013 -2.03808e-12 0 
0.322013 -2.03808e-12 0 
0.322013 -4.33431e-12 0 
0.422013 -2.32252e-12 0 
0.422013 -2.49694e-13 0 
0.422013 -2.49694e-13 0 
0.422013 -2.32252e-12 0 
0.482013 -9.53835e-13 0 
0.482013 1.09571e-13 0 
0.482013 1.09571e-13 0 
0.482013 -9.53835e-13 0 
0.502013 -1.48635e-14 0 
0.502013 -1.43561e-14 0 
0.502013 -1.43561e-14 0 
0.502013 -1.48635e-14 0 
0.482013 9.28419e-13 0 
0.482013 -1.28493e-13 0 
0.482013 -1.28493e-13 0 
0.482013 9.28419e-13 0 
0.422013 2.30331e-12 0 
0.422013 2.34991e-13 0 
0.422013 2.34991e-13 0 
0.422013 2.30331e-12 0 
0.322013 4.32059e-12 0 
0.322013 2.0282e-12 0 
0.322013 2.0282e-12 0 
0.322013 4.32059e-12 0 
0.182013 6.1386e-12 0 
0.182013 7.06201e-12 0 
0.182013 7.06201e-12 0 
0.182013 6.1386e-12 0 
0.00201323 6.47714e-12 0 
0.00201323 7.52286e-12 0 
0.00201323 -5.52286e-12 0 
0.00201323 -4.47714e-12 0 
0.182013 -3.89641e-12 0 
0.182013 -5.93626e-12 0 
0.182013 -5.93626e-12 0 
0.182013 -3.89641e-12 0 
0.322013 -3.47064e-12 0 
0.322013 -4.29303e-12 0 
0.322013 -4.29303e-12 0 
0.322013 -3.47064e-12 0 
0.422013 -2.30509e-12 0 
0.422013 -2.30643e-12 0 
0.422013 -2.30643e-12 0 
0.422013 -2.30509e-12 0 
0.482013 -1.10609e-12 0 
0.482013 -9.5556e-13 0 
0.482013 -9.5556e-13 0 
0.482013 -1.10609e-12 0 
0.502013 -1.83112e-14 0 
0.502013 -1.66251e-14 0 
0.502013 -1.66251e-14 0 
0.502013 -1.83112e-14 0 
0.482013 1.07522e-12 0 
0.482013 9.30948e-13 0 
0.482013 9.30948e-13 0 
0.482013 1.07522e-12 0 
0.422013 2.28133e-12 0 
0.422013 2.28806e-12 0 
0.422013 2.28806e-12 0 
0.422013 2.28133e-12 0 
0.322013 3.45363e-12 0 
0.322013 4.28018e-12 0 
0.322013 4.28018e-12 0 
0.322013 3.45363e-12 0 
0.182013 3.88741e-12 0 
0.182013 5.9295e-12 0 
0.182013 5.9295e-12 0 
0.182013 3.88741e-12 0 
0.00201323 4.47714e-12 0 
0.00201323 5.52286e-12 0 
0.00201323 -3.52286e-12 0 
0.00201323 -2.47714e-12 0 
0.182013 -1.92167e-12 0 
0.182013 -4.03202e-12 0 
0.182013 -4.03202e-12 0 
0.182013 -1.92167e-12 0 
0.322013 -1.8234e-12 0 
0.322013 -3.38574e-12 0 
0.322013 -3.38574e-12 0 
0.322013 -1.8234e-12 0 
0.422013 -1.31206e-12 0 
0.422013 -2.28798e-12 0 
0.422013 -2.28798e-12 0 
0.422013 -1.31206e-12 0 
0.482013 -6.77507e-13 0 
0.482013 -1.09749e-12 0 
0.482013 -1.09749e-12 0 
0.482013 -6.77507e-13 0 
0.502013 -2.03415e-14 0 
0.502013 -1.91571e-14 0 
0.502013 -1.91571e-14 0 
0.502013 -2.03415e-14 0 
0.482013 6.42746e-13 0 
0.482013 1.06764e-12 0 
0.482013 1.06764e-12 0 
0.482013 6.42746e-13 0 
0.422013 1.28454e-12 0 
0.422013 2.2647e-12 0 
0.422013 2.2647e-12 0 
0.422013 1.28454e-12 0 
0.322013 1.80366e-12 0 
0.322013 3.36942e-12 0 
0.322013 3.36942e-12 0 
0.322013 1.80366e-12 0 
0.182013 1.91127e-12 0 
0.182013 4.02424e-12 0 
0.182013 4.02424e-12 0 
0.182013 1.91127e-12 0 
0.00201323 2.47714e-12 0 
0.00201323 3.52286e-12 0 
0.00201323 -1.52286e-12 0 
0.00201323 -4.77135e-13 0 
0.182013 7.0688e-14 0 
0.182013 -2.07225e-12 0 
0.182013 -2.07225e-12 0 
0.182013 7.0688e-14 0 
0.322013 -3.49196e-14 0 
0.322013 -1.76744e-12 0 
0.322013 -1.76744e-12 0 
0.322013 -3.49196e-14 0 
0.422013 -2.10846e-14 0 
0.422013 -1.29734e-12 0 
0.422013 -1.29734e-12 0 
0.422013 -2.10846e-14 0 
0.482013 -2.36129e-14 0 
0.482013 -6.66997e-13 0 
0.482013 -6.66997e-13 0 
0.482013 -2.36129e-14 0 
0.502013 -2.18978e-14 0 
0.502013 -2.05554e-14 0 
0.502013 -2.05554e-14 0 
0.502013 -2.18978e-14 0 
0.482013 -1.33874e-14 0 
0.482013 6.33287e-13 0 
0.482013 6.33287e-13 0 
0.482013 -1.33874e-14 0 
0.422013 -8.14695e-15 0 
0.422013 1.27056e-12 0 
0.422013 1.27056e-12 0 
0.422013 -8.14695e-15 0 
0.322013 1.34633e-14 0 
0.322013 1.74858e-12 0 
0.322013 1.74858e-12 0 
0.322013 1.34633e-14 0 
0.182013 -8.44572e-14 0 
0.182013 2.06239e-12 0 
0.182013 2.06239e-12 0 
0.182013 -8.44572e-14 0 
0.00201323 4.77135e-13 0 
0.00201323 1.52286e-12 0 
0.00201323 4.77135e-13 0 
0.00201323 1.52286e-12 0 
0.182013 2.06244e-12 0 
0.182013 -8.457e-14 0 
0.182013 -8.457e-14 0 
0.182013 2.06244e-12 0 
0.322013 1.74858e-12 0 
0.322013 1.31475e-14 0 
0.322013 1.31475e-14 0 
0.322013 1.74858e-12 0 
0.422013 1.27064e-12 0 
0.422013 -8.69847e-15 0 
0.422013 -8.69847e-15 0 
0.422013 1.27064e-12 0 
0.482013 6.32964e-13 0 
0.482013 -1.3468e-14 0 
0.482013 -1.3468e-14 0 
0.482013 6.32964e-13 0 
0.502013 -2.11565e-14 0 
0.502013 -2.20022e-14 0 
0.502013 -2.20022e-14 0 
0.502013 -2.11565e-14 0 
0.482013 -6.67429e-13 0 
0.482013 -2.34619e-14 0 
0.482013 -2.34619e-14 0 
0.482013 -6.67429e-13 0 
0.422013 -1.29723e-12 0 
0.422013 -2.05276e-14 0 
0.422013 -2.05276e-14 0 
0.422013 -1.29723e-12 0 
0.322013 -1.76691e-12 0 
0.322013 -3.45797e-14 0 
0.322013 -3.45797e-14 0 
0.322013 -1.76691e-12 0 
0.182013 -2.0721e-12 0 
0.182013 7.08309e-14 0 
0.182013 7.08309e-14 0 
0.182013 -2.0721e-12 0 
0.00201323 -1.52286e-12 0 
0.00201323 -4.77135e-13 0 
0.00201323 2.47714e-12 0 
0.00201323 3.52286e-12 0 
0.182013 4.02458e-12 0 
0.182013 1.91127e-12 0 
0.182013 1.91127e-12 0 
0.182013 4.02458e-12 0 
0.322013 3.37013e-12 0 
0.322013 1.80389e-12 0 
0.322013 1.80389e-12 0 
0.322013 3.37013e-12 0 
0.422013 2.26528e-12 0 
0.422013 1.28455e-12 0 
0.422013 1.28455e-12 0 
0.422013 2.26528e-12 0 
0.482013 1.06778e-12 0 
0.482013 6.42366e-13 0 
0.482013 6.42366e-13 0 
0.482013 1.06778e-12 0 
0.502013 -1.96122e-14 0 
0.502013 -2.09159e-14 0 
0.502013 -2.09159e-14 0 
0.502013 -1.96122e-14 0 
0.482013 -1.0977e-12 0 
0.482013 -6.77852e-13 0 
0.482013 -6.77852e-13 0 
0.482013 -1.0977e-12 0 
0.422013 -2.28805e-12 0 
0.422013 -1.31197e-12 0 
0.422013 -1.31197e-12 0 
0.422013 -2.28805e-12 0 
0.322013 -3.38596e-12 0 
0.322013 -1.82304e-12 0 
0.322013 -1.82304e-12 0 
0.322013 -3.38596e-12 0 
0.182013 -4.0321e-12 0 
0.182013 -1.92141e-12 0 
0.182013 -1.92141e-12 0 
0.182013 -4.0321e-12 0 
0.00201323 -3.52286e-12 0 
0.00201323 -2.47714e-12 0 
0.00201323 4.47714e-12 0 
0.00201323 5.52286e-12 0 
0.182013 5.92951e-12 0 
0.182013 3.88775e-12 0 
0.182013 3.88775e-12 0 
0.182013 5.92951e-12 0 
0.322013 4.28044e-12 0 
0.322013 3.45428e-12 0 
0.322013 3.45428e-12 0 
0.322013 4.28044e-12 0 
0.422013 2.28879e-12 0 
0.422013 2.28199e-12 0 
0.422013 2.28199e-12 0 
0.422013 2.28879e-12 0 
0.482013 9.3158e-13 0 
0.482013 1.07512e-12 0 
0.482013 1.07512e-12 0 
0.482013 9.3158e-13 0 
0.502013 -1.71689e-14 0 
0.502013 -1.85844e-14 0 
0.502013 -1.85844e-14 0 
0.502013 -1.71689e-14 0 
0.482013 -9.56132e-13 0 
0.482013 -1.10614e-12 0 
0.482013 -1.10614e-12 0 
0.482013 -9.56132e-13 0 
0.422013 -2.30732e-12 0 
0.422013 -2.30545e-12 0 
0.422013 -2.30545e-12 0 
0.422013 -2.30732e-12 0 
0.322013 -4.29377e-12 0 
0.322013 -3.47088e-12 0 
0.322013 -3.47088e-12 0 
0.322013 -4.29377e-12 0 
0.182013 -5.93645e-12 0 
0.182013 -3.89641e-12 0 
0.182013 -3.89641e-12 0 
0.182013 -5.93645e-12 0 
0.00201323 -5.52286e-12 0 
0.00201323 -4.47714e-12 0 
0.00201323 6.47714e-12 0 
0.00201323 7.52286e-12 0 
0.182013 7.06191e-12 0 
0.182013 6.13869e-12 0 
0.182013 6.13869e-12 0 
0.182013 7.06191e-12 0 
0.322013 2.02817e-12 0 
0.322013 4.32111e-12 0 
0.322013 4.32111e-12 0 
0.322013 2.02817e-12 0 
0.422013 2.35246e-13 0 
0.422013 2.30413e-12 0 
0.422013 2.30413e-12 0 
0.422013 2.35246e-13 0 
0.482013 -1.28085e-13 0 
0.482013 9.28808e-13 0 
0.482013 9.28808e-13 0 
0.482013 -1.28085e-13 0 
0.502013 -1.37978e-14 0 
0.502013 -1.49737e-14 0 
0.502013 -1.49737e-14 0 
0.502013 -1.37978e-14 0 
0.482013 1.09167e-13 0 
0.482013 -9.54822e-13 0 
0.482013 -9.54822e-13 0 
0.482013 1.09167e-13 0 
0.422013 -2.50046e-13 0 
0.422013 -2.32348e-12 0 
0.422013 -2.32348e-12 0 
0.422013 -2.50046e-13 0 
0.322013 -2.03867e-12 0 
0.322013 -4.33497e-12 0 
0.322013 -4.33497e-12 0 
0.322013 -2.03867e-12 0 
0.182013 -7.06785e-12 0 
0.182013 -6.14666e-12 0 
0.182013 -6.14666e-12 0 
0.182013 -7.06785e-12 0 
0.00201323 -7.52286e-12 0 
0.00201323 -6.47714e-12 0 
0.00201323 8.47714e-12 0 
0.00201323 9.52286e-12 0 
0.182013 -9.56245e-12 0 
0.182013 8.28675e-12 0 
0.182013 8.28675e-12 0 
0.182013 -9.56245e-12 0 
0.322013 -5.66867e-12 0 
0.322013 1.70076e-12 0 
0.322013 1.70076e-12 0 
0.322013 -5.66867e-12 0 
0.422013 -4.01243e-12 0 
0.422013 2.50424e-13 0 
0.422013 2.50424e-13 0 
0.422013 -4.01243e-12 0 
0.482013 -1.9889e-12 0 
0.482013 -1.4887e-13 0 
0.482013 -1.4887e-13 0 
0.482013 -1.9889e-12 0 
0.502013 -6.73145e-15 0 
0.502013 -1.15444e-14 0 
0.502013 -1.15444e-14 0 
0.502013 -6.73145e-15 0 
0.482013 1.98195e-12 0 
0.482013 1.27308e-13 0 
0.482013 1.27308e-13 0 
0.482013 1.98195e-12 0 
0.422013 4.00685e-12 0 
0.422013 -2.66748e-13 0 
0.422013 -2.66748e-13 0 
0.422013 4.00685e-12 0 
0.322013 5.66501e-12 0 
0.322013 -1.71252e-12 0 
0.322013 -1.71252e-12 0 
0.322013 5.66501e-12 0 
0.182013 9.56073e-12 0 
0.182013 -8.29375e-12 0 
0.182013 -8.29375e-12 0 
0.182013 9.56073e-12 0 
0.00201323 -9.52286e-12 0 
0.00201323 -8.47714e-12 0 
TENSORS Stress float 
-1.02683 0.9 0 
0.9 -0.773167 0 
0 0 0 
-0.773167 0.9 0 
0.9 -1.02683 0 
0 0 0 
-0.773167 0.9 0 
0.9 -1.02683 0 
0 0 0 
-1.02683 0.9 0 
0.9 -0.773167 0 
0 0 0 
-1.02683 0.7 0 
0.7 -0.773167 0 
0 0 0 
-0.773167 0.7 0 
0.7 -1.02683 0 
0 0 0 
-0.773167 0.7 0 
0.7 -1.02683 0 
0 0 0 
-1.02683 0.7 0 
0.7 -0.773167 0 
0 0 0 
-1.02683 0.5 0 
0.5 -0.773167 0 
0 0 0 
-0.773167 0.5 0 
0.5 -1.02683 0 
0 0 0 
-0.773167 0.5 0 
0.5 -1.02683 0 
0 0 0 
-1.02683 0.5 0 
0.5 -0.773167 0 
0 0 0 
-1.02683 0.3 0 
0.3 -0.773167 0 
0 0 0 
-0.773167 0.3 0 
0.3 -1.02683 0 
0 0 0 
-0.773167 0.3 0 
0.3 -1.02683 0 
0 0 0 
-1.02683 0.3 0 
0.3 -0.773167 0 
0 0 0 
-1.02683 0.1 0 
0.1 -0.773167 0 
0 0 0 
-0.773167 0.1 0 
0.1 -1.02683 0 
0 0 0 
-0.773167 0.1 0 
0.1 -1.02683 0 
0 0 0 
-1.02683 0.1 0 
0.1 -0.773167 0 
0 0 0 
-1.02683 -0.1 0 
-0.1 -0.773167 0 
0 0 0 
-0.773167 -0.1 0 
-0.1 -1.02683 0 
0 0 0 
-0.773167 -0.1 0 
-0.1 -1.02683 0 
0 0 0 
-1.02683 -0.1 0 
-0.1 -0.773167 0 
0 0 0 
-1.02683 -0.3 0 
-0.3 -0.773167 0 
0 0 0 
-0.773167 -0.3 0 
-0.3 -1.02683 0 
0 0 0 
-0.773167 -0.3 0 
-0.3 -1.02683 0 
0 0 0 
-1.02683 -0.3 0 
-0.3 -0.773167 0 
0 0 0 
-1.02683 -0.5 0 
-0.5 -0.773167 0 
0 0 0 
-0.773167 -0.5 0 
-0.5 -1.02683 0 
0 0 0 
-0.773167 -0.5 0 
-0.5 -1.02683 0 
0 0 0 
-1.02683 -0.5 0 
-0.5 -0.773167 0 
0 0 0 
-1.02683 -0.7 0 
-0.7 -0.773167 0 
0 0 0 
-0.773167 -0.7 0 
-0.7 -1.02683 0 
0 0 0 
-0.773167 -0.7 0 
-0.7 -1.02683 0 
0 0 0 
-1.02683 -0.7 0 
-0.7 -0.773167 0 
0 0 0 
-1.02683 -0.9 0 
-0.9 -0.773167 0 
0 0 0 
-0.773167 -0.9 0 
-0.9 -1.02683 0 
0 0 0 
-0.773167 -0.9 0 
-0.9 -1.02683 0 
0 0 0 
-1.02683 -0.9 0 
-0.9 -0.773167 0 
0 0 0 
-0.826833 0.9 0 
0.9 -0.573167 0 
0 0 0 
-0.573167 0.9 0 
0.9 -0.826833 0 
0 0 0 
-0.573167 0.9 0 
0.9 -0.826833 0 
0 0 0 
-0.826833 0.9 0 
0.9 -0.573167 0 
0 0 0 
-0.826833 0.7 0 
0.7 -0.573167 0 
0 0 0 
-0.573167 0.7 0 
0.7 -0.826833 0 
0 0 0 
-0.573167 0.7 0 
0.7 -0.826833 0 
0 0 0 
-0.826833 0.7 0 
0.7 -0.573167 0 
0 0 0 
-0.826833 0.5 0 
0.5 -0.573167 0 
0 0 0 
-0.573167 0.5 0 
0.5 -0.826833 0 
0 0 0 
-0.573167 0.5 0 
0.5 -0.826833 0 
0 0 0 
-0.826833 0.5 0 
0.5 -0.573167 0 
0 0 0 
-0.826833 0.3 0 
0.3 -0.573167 0 
0 0 0 
-0.573167 0.3 0 
0.3 -0.826833 0 
0 0 0 
-0.573167 0.3 0 
0.3 -0.826833 0 
0 0 0 
-0.826833 0.3 0 
0.3 -0.573167 0 
0 0 0 
-0.826833 0.1 0 
0.1 -0.573167 0 
0 0 0 
-0.573167 0.1 0 
0.1 -0.826833 0 
0 0 0 
-0.573167 0.1 0 
0.1 -0.826833 0 
0 0 0 
-0.826833 0.1 0 
0.1 -0.573167 0 
0 0 0 
-0.826833 -0.1 0 
-0.1 -0.573167 0 
0 0 0 
-0.573167 -0.1 0 
-0.1 -0.826833 0 
0 0 0 
-0.573167 -0.1 0 
-0.1 -0.826833 0 
0 0 0 
-0.826833 -0.1 0 
-0.1 -0.573167 0 
0 0 0 
-0.826833 -0.3 0 
-0.3 -0.573167 0 
0 0 0 
-0.573167 -0.3 0 
-0.3 -0.826833 0 
0 0 0 
-0.573167 -0.3 0 
-0.3 -0.826833 0 
0 0 0 
-0.826833 -0.3 0 
-0.3 -0.573167 0 
0 0 0 
-0.826833 -0.5 0 
-0.5 -0.573167 0 
0 0 0 
-0.573167 -0.5 0 
-0.5 -0.826833 0 
0 0 0 
-0.573167 -0.5 0 
-0.5 -0.826833 0 
0 0 0 
-0.826833 -0.5 0 
-0.5 -0.573167 0 
0 0 0 
-0.826833 -0.7 0 
-0.7 -0.573167 0 
0 0 0 
-0.573167 -0.7 0 
-0.7 -0.826833 0 
0 0 0 
-0.573167 -0.7 0 
-0.7 -0.826833 0 
0 0 0 
-0.826833 -0.7 0 
-0.7 -0.573167 0 
0 0 0 
-0.826833 -0.9 0 
-0.9 -0.573167 0 
0 0 0 
-0.573167 -0.9 0 
-0.9 -0.826833 0 
0 0 0 
-0.573167 -0.9 0 
-0.9 -0.826833 0 
0 0 0 
-0.826833 -0.9 0 
-0.9 -0.573167 0 
0 0 0 
-0.626833 0.9 0 
0.9 -0.373167 0 
0 0 0 
-0.373167 0.9 0 
0.9 -0.626833 0 
0 0 0 
-0.373167 0.9 0 
0.9 -0.626833 0 
0 0 0 
-0.626833 0.9 0 
0.9 -0.373167 0 
0 0 0 
-0.626833 0.7 0 
0.7 -0.373167 0 
0 0 0 
-0.373167 0.7 0 
0.7 -0.626833 0 
0 0 0 
-0.373167 0.7 0 
0.7 -0.626833 0 
0 0 0 
-0.626833 0.7 0 
0.7 -0.373167 0 
0 0 0 
-0.626833 0.5 0 
0.5 -0.373167 0 
0 0 0 
-0.373167 0.5 0 
0.5 -0.626833 0 
0 0 0 
-0.373167 0.5 0 
0.5 -0.626833 0 
0 0 0 
-0.626833 0.5 0 
0.5 -0.373167 0 
0 0 0 
-0.626833 0.3 0 
0.3 -0.373167 0 
0 0 0 
-0.373167 0.3 0 
0.3 -0.626833 0 
0 0 0 
-0.373167 0.3 0 
0.3 -0.626833 0 
0 0 0 
-0.626833 0.3 0 
0.3 -0.373167 0 
0 0 0 
-0.626833 0.1 0 
0.1 -0.373167 0 
0 0 0 
-0.373167 0.1 0 
0.1 -0.626833 0 
0 0 0 
-0.373167 0.1 0 
0.1 -0.626833 0 
0 0 0 
-0.626833 0.1 0 
0.1 -0.373167 0 
0 0 0 
-0.626833 -0.1 0 
-0.1 -0.373167 0 
0 0 0 
-0.373167 -0.1 0 
-0.1 -0.626833 0 
0 0 0 
-0.373167 -0.1 0 
-0.1 -0.626833 0 
0 0 0 
-0.626833 -0.1 0 
-0.1 -0.373167 0 
0 0 0 
-0.626833 -0.3 0 
-0.3 -0.373167 0 
0 0 0 
-0.373167 -0.3 0 
-0.3 -0.626833 0 
0 0 0 
-0.373167 -0.3 0 
-0.3 -0.626833 0 
0 0 0 
-0.626833 -0.3 0 
-0.3 -0.373167 0 
0 0 0 
-0.626833 -0.5 0 
-0.5 -0.373167 0 
0 0 0 
-0.373167 -0.5 0 
-0.5 -0.626833 0 
0 0 0 
-0.373167 -0.5 0 
-0.5 -0.626833 0 
0 0 0 
-0.626833 -0.5 0 
-0.5 -0.373167 0 
0 0 0 
-0.626833 -0.7 0 
-0.7 -0.373167 0 
0 0 0 
-0.373167 -0.7 0 
-0.7 -0.626833 0 
0 0 0 
-0.373167 -0.7 0 
-0.7 -0.626833 0 
0 0 0 
-0.626833 -0.7 0 
-0.7 -0.373167 0 
0 0 0 
-0.626833 -0.9 0 
-0.9 -0.373167 0 
0 0 0 
-0.373167 -0.9 0 
-0.9 -0.626833 0 
0 0 0 
-0.373167 -0.9 0 
-0.9 -0.626833 0 
0 0 0 
-0.626833 -0.9 0 
-0.9 -0.373167 0 
0 0 0 
-0.426833 0.9 0 
0.9 -0.173167 0 
0 0 0 
-0.173167 0.9 0 
0.9 -0.426833 0 
0 0 0 
-0.173167 0.9 0 
0.9 -0.426833 0 
0 0 0 
-0.426833 0.9 0 
0.9 -0.173167 0 
0 0 0 
-0.426833 0.7 0 
0.7 -0.173167 0 
0 0 0 
-0.173167 0.7 0 
0.7 -0.426833 0 
0 0 0 
-0.173167 0.7 0 
0.7 -0.426833 0 
0 0 0 
-0.426833 0.7 0 
0.7 -0.173167 0 
0 0 0 
-0.426833 0.5 0 
0.5 -0.173167 0 
0 0 0 
-0.173167 0.5 0 
0.5 -0.426833 0 
0 0 0 
-0.173167 0.5 0 
0.5 -0.426833 0 
0 0 0 
-0.426833 0.5 0 
0.5 -0.173167 0 
0 0 0 
-0.426833 0.3 0 
0.3 -0.173167 0 
0 0 0 
-0.173167 0.3 0 
0.3 -0.426833 0 
0 0 0 
-0.173167 0.3 0 
0.3 -0.426833 0 
0 0 0 
-0.426833 0.3 0 
0.3 -0.173167 0 
0 0 0 
-0.426833 0.1 0 
0.1 -0.173167 0 
0 0 0 
-0.173167 0.1 0 
0.1 -0.426833 0 
0 0 0 
-0.173167 0.1 0 
0.1 -0.426833 0 
0 0 0 
-0.426833 0.1 0 
0.1 -0.173167 0 
0 0 0 
-0.426833 -0.1 0 
-0.1 -0.173167 0 
0 0 0 
-0.173167 -0.1 0 
-0.1 -0.426833 0 
0 0 0 
-0.173167 -0.1 0 
-0.1 -0.426833 0 
0 0 0 
-0.426833 -0.1 0 
-0.1 -0.173167 0 
0 0 0 
-0.426833 -0.3 0 
-0.3 -0.173167 0 
0 0 0 
-0.173167 -0.3 0 
-0.3 -0.426833 0 
0 0 0 
-0.173167 -0.3 0 
-0.3 -0.426833 0 
0 0 0 
-0.426833 -0.3 0 
-0.3 -0.173167 0 
0 0 0 
-0.426833 -0.5 0 
-0.5 -0.173167 0 
0 0 0 
-0.173167 -0.5 0 
-0.5 -0.426833 0 
0 0 0 
-0.173167 -0.5 0 
-0.5 -0.426833 0 
0 0 0 
-0.426833 -0.5 0 
-0.5 -0.173167 0 
0 0 0 
-0.426833 -0.7 0 
-0.7 -0.173167 0 
0 0 0 
-0.173167 -0.7 0 
-0.7 -0.426833 0 
0 0 0 
-0.173167 -0.7 0 
-0.7 -0.426833 0 
0 0 0 
-0.426833 -0.7 0 
-0.7 -0.173167 0 
0 0 0 
-0.426833 -0.9 0 
-0.9 -0.173167 0 
0 0 0 
-0.173167 -0.9 0 
-0.9 -0.426833 0 
0 0 0 
-0.173167 -0.9 0 
-0.9 -0.426833 0 
0 0 0 
-0.426833 -0.9 0 
-0.9 -0.173167 0 
0 0 0 
-0.226833 0.9 0 
0.9 0.0268335 0 
0 0 0 
0.0268335 0.9 0 
0.9 -0.226833 0 
0 0 0 
0.0268335 0.9 0 
0.9 -0.226833 0 
0 0 0 
-0.226833 0.9 0 
0.9 0.0268335 0 
0 0 0 
-0.226833 0.7 0 
0.7 0.0268335 0 
0 0 0 
0.0268335 0.7 0 
0.7 -0.226833 0 
0 0 0 
0.0268335 0.7 0 
0.7 -0.226833 0 
0 0 0 
-0.226833 0.7 0 
0.7 0.0268335 0 
0 0 0 
-0.226833 0.5 0 
0.5 0.0268335 0 
0 0 0 
0.0268335 0.5 0 
0.5 -0.226833 0 
0 0 0 
0.0268335 0.5 0 
0.5 -0.226833 0 
0 0 0 
-0.226833 0.5 0 
0.5 0.0268335 0 
0 0 0 
-0.226833 0.3 0 
0.3 0.0268335 0 
0 0 0 
0.0268335 0.3 0 
0.3 -0.226833 0 
0 0 0 
0.0268335 0.3 0 
0.3 -0.226833 0 
0 0 0 
-0.226833 0.3 0 
0.3 0.0268335 0 
0 0 0 
-0.226833 0.1 0 
0.1 0.0268335 0 
0 0 0 
0.0268335 0.1 0 
0.1 -0.226833 0 
0 0 0 
0.0268335 0.1 0 
0.1 -0.226833 0 
0 0 0 
-0.226833 0.1 0 
0.1 0.0268335 0 
0 0 0 
-0.226833 -0.1 0 
-0.1 0.0268335 0 
0 0 0 
0.0268335 -0.1 0 
-0.1 -0.226833 0 
0 0 0 
0.0268335 -0.1 0 
-0.1 -0.226833 0 
0 0 0 
-0.226833 -0.1 0 
-0.1 0.0268335 0 
0 0 0 
-0.226833 -0.3 0 
-0.3 0.0268335 0 
0 0 0 
0.0268335 -0.3 0 
-0.3 -0.226833 0 
0 0 0 
0.0268335 -0.3 0 
-0.3 -0.226833 0 
0 0 0 
-0.226833 -0.3 0 
-0.3 0.0268335 0 
0 0 0 
-0.226833 -0.5 0 
-0.5 0.0268335 0 
0 0 0 
0.0268335 -0.5 0 
-0.5 -0.226833 0 
0 0 0 
0.0268335 -0.5 0 
-0.5 -0.226833 0 
0 0 0 
-0.226833 -0.5 0 
-0.5 0.0268335 0 
0 0 0 
-0.226833 -0.7 0 
-0.7 0.0268335 0 
0 0 0 
0.0268335 -0.7 0 
-0.7 -0.226833 0 
0 0 0 
0.0268335 -0.7 0 
-0.7 -0.226833 0 
0 0 0 
-0.226833 -0.7 0 
-0.7 0.0268335 0 
0 0 0 
-0.226833 -0.9 0 
-0.9 0.0268335 0 
0 0 0 
0.0268335 -0.9 0 
-0.9 -0.226833 0 
0 0 0 
0.0268335 -0.9 0 
-0.9 -0.226833 0 
0 0 0 
-0.226833 -0.9 0 
-0.9 0.0268335 0 
0 0 0 
-0.0268335 0.9 0 
0.9 0.226833 0 
0 0 0 
0.226833 0.9 0 
0.9 -0.0268335 0 
0 0 0 
0.226833 0.9 0 
0.9 -0.0268335 0 
0 0 0 
-0.0268335 0.9 0 
0.9 0.226833 0 
0 0 0 
-0.0268335 0.7 0 
0.7 0.226833 0 
0 0 0 
0.226833 0.7 0 
0.7 -0.0268335 0 
0 0 0 
0.226833 0.7 0 
0.7 -0.0268335 0 
0 0 0 
-0.0268335 0.7 0 
0.7 0.226833 0 
0 0 0 
-0.0268335 0.5 0 
0.5 0.226833 0 
0 0 0 
0.226833 0.5 0 
0.5 -0.0268335 0 
0 0 0 
0.226833 0.5 0 
0.5 -0.0268335 0 
0 0 0 
-0.0268335 0.5 0 
0.5 0.226833 0 
0 0 0 
-0.0268335 0.3 0 
0.3 0.226833 0 
0 0 0 
0.226833 0.3 0 
0.3 -0.0268335 0 
0 0 0 
0.226833 0.3 0 
0.3 -0.0268335 0 
0 0 0 
-0.0268335 0.3 0 
0.3 0.226833 0 
0 0 0 
-0.0268335 0.1 0 
0.1 0.226833 0 
0 0 0 
0.226833 0.1 0 
0.1 -0.0268335 0 
0 0 0 
0.226833 0.1 0 
0.1 -0.0268335 0 
0 0 0 
-0.0268335 0.1 0 
0.1 0.226833 0 
0 0 0 
-0.0268335 -0.1 0 
-0.1 0.226833 0 
0 0 0 
0.226833 -0.1 0 
-0.1 -0.0268335 0 
0 0 0 
0.226833 -0.1 0 
-0.1 -0.0268335 0 
0 0 0 
-0.0268335 -0.1 0 
-0.1 0.226833 0 
0 0 0 
-0.0268335 -0.3 0 
-0.3 0.226833 0 
0 0 0 
0.226833 -0.3 0 
-0.3 -0.0268335 0 
0 0 0 
0.226833 -0.3 0 
-0.3 -0.0268335 0 
0 0 0 
-0.0268335 -0.3 0 
-0.3 0.226833 0 
0 0 0 
-0.0268335 -0.5 0 
-0.5 0.226833 0 
0 0 0 
0.226833 -0.5 0 
-0.5 -0.0268335 0 
0 0 0 
0.226833 -0.5 0 
-0.5 -0.0268335 0 
0 0 0 
-0.0268335 -0.5 0 
-0.5 0.226833 0 
0 0 0 
-0.0268335 -0.7 0 
-0.7 0.226833 0 
0 0 0 
0.226833 -0.7 0 
-0.7 -0.0268335 0 
0 0 0 
0.226833 -0.7 0 
-0.7 -0.0268335 0 
0 0 0 
-0.0268335 -0.7 0 
-0.7 0.226833 0 
0 0 0 
-0.0268335 -0.9 0 
-0.9 0.226833 0 
0 0 0 
0.226833 -0.9 0 
-0.9 -0.0268335 0 
0 0 0 
0.226833 -0.9 0 
-0.9 -0.0268335 0 
0 0 0 
-0.0268335 -0.9 0 
-0.9 0.226833 0 
0 0 0 
0.173167 0.9 0 
0.9 0.426833 0 
0 0 0 
0.426833 0.9 0 
0.9 0.173167 0 
0 0 0 
0.426833 0.9 0 
0.9 0.173167 0 
0 0 0 
0.173167 0.9 0 
0.9 0.426833 0 
0 0 0 
0.173167 0.7 0 
0.7 0.426833 0 
0 0 0 
0.426833 0.7 0 
0.7 0.173167 0 
0 0 0 
0.426833 0.7 0 
0.7 0.173167 0 
0 0 0 
0.173167 0.7 0 
0.7 0.426833 0 
0 0 0 
0.173167 0.5 0 
0.5 0.426833 0 
0 0 0 
0.426833 0.5 0 
0.5 0.173167 0 
0 0 0 
0.426833 0.5 0 
0.5 0.173167 0 
0 0 0 
0.173167 0.5 0 
0.5 0.426833 0 
0 0 0 
0.173167 0.3 0 
0.3 0.426833 0 
0 0 0 
0.426833 0.3 0 
0.3 0.173167 0 
0 0 0 
0.426833 0.3 0 
0.3 0.173167 0 
0 0 0 
0.173167 0.3 0 
0.3 0.426833 0 
0 0 0 
0.173167 0.1 0 
0.1 0.426833 0 
0 0 0 
0.426833 0.1 0 
0.1 0.173167 0 
0 0 0 
0.426833 0.1 0 
0.1 0.173167 0 
0 0 0 
0.173167 0.1 0 
0.1 0.426833 0 
0 0 0 
0.173167 -0.1 0 
-0.1 0.426833 0 
0 0 0 
0.426833 -0.1 0 
-0.1 0.173167 0 
0 0 0 
0.426833 -0.1 0 
-0.1 0.173167 0 
0 0 0 
0.173167 -0.1 0 
-0.1 0.426833 0 
0 0 0 
0.173167 -0.3 0 
-0.3 0.426833 0 
0 0 0 
0.426833 -0.3 0 
-0.3 0.173167 0 
0 0 0 
0.426833 -0.3 0 
-0.3 0.173167 0 
0 0 0 
0.173167 -0.3 0 
-0.3 0.426833 0 
0 0 0 
0.173167 -0.5 0 
-0.5 0.426833 0 
0 0 0 
0.426833 -0.5 0 
-0.5 0.173167 0 
0 0 0 
0.426833 -0.5 0 
-0.5 0.173167 0 
0 0 0 
0.173167 -0.5 0 
-0.5 0.426833 0 
0 0 0 
0.173167 -0.7 0 
-0.7 0.426833 0 
0 0 0 
0.426833 -0.7 0 
-0.7 0.173167 0 
0 0 0 
0.426833 -0.7 0 
-0.7 0.173167 0 
0 0 0 
0.173167 -0.7 0 
-0.7 0.426833 0 
0 0 0 
0.173167 -0.9 0 
-0.9 0.426833 0 
0 0 0 
0.426833 -0.9 0 
-0.9 0.173167 0 
0 0 0 
0.426833 -0.9 0 
-0.9 0.173167 0 
0 0 0 
0.173167 -0.9 0 
-0.9 0.426833 0 
0 0 0 
0.373167 0.9 0 
0.9 0.626833 0 
0 0 0 
0.626833 0.9 0 
0.9 0.373167 0 
0 0 0 
0.626833 0.9 0 
0.9 0.373167 0 
0 0 0 
0.373167 0.9 0 
0.9 0.626833 0 
0 0 0 
0.373167 0.7 0 
0.7 0.626833 0 
0 0 0 
0.626833 0.7 0 
0.7 0.373167 0 
0 0 0 
0.626833 0.7 0 
0.7 0.373167 0 
0 0 0 
0.373167 0.7 0 
0.7 0.626833 0 
0 0 0 
0.373167 0.5 0 
0.5 0.626833 0 
0 0 0 
0.626833 0.5 0 
0.5 0.373167 0 
0 0 0 
0.626833 0.5 0 
0.5 0.373167 0 
0 0 0 
0.373167 0.5 0 
0.5 0.626833 0 
0 0 0 
0.373167 0.3 0 
0.3 0.626833 0 
0 0 0 
0.626833 0.3 0 
0.3 0.373167 0 
0 0 0 
0.626833 0.3 0 
0.3 0.373167 0 
0 0 0 
0.373167 0.3 0 
0.3 0.626833 0 
0 0 0 
0.373167 0.1 0 
0.1 0.626833 0 
0 0 0 
0.626833 0.1 0 
0.1 0.373167 0 
0 0 0 
0.626833 0.1 0 
0.1 0.373167 0 
0 0 0 
0.373167 0.1 0 
0.1 0.626833 0 
0 0 0 
0.373167 -0.1 0 
-0.1 0.626833 0 
0 0 0 
0.626833 -0.1 0 
-0.1 0.373167 0 
0 0 0 
0.626833 -0.1 0 
-0.1 0.373167 0 
0 0 0 
0.373167 -0.1 0 
-0.1 0.626833 0 
0 0 0 
0.373167 -0.3 0 
-0.3 0.626833 0 
0 0 0 
0.626833 -0.3 0 
-0.3 0.373167 0 
0 0 0 
0.626833 -0.3 0 
-0.3 0.373167 0 
0 0 0 
0.373167 -0.3 0 
-0.3 0.626833 0 
0 0 0 
0.373167 -0.5 0 
-0.5 0.626833 0 
0 0 0 
0.626833 -0.5 0 
-0.5 0.373167 0 
0 0 0 
0.626833 -0.5 0 
-0.5 0.373167 0 
0 0 0 
0.373167 -0.5 0 
-0.5 0.626833 0 
0 0 0 
0.373167 -0.7 0 
-0.7 0.626833 0 
0 0 0 
0.626833 -0.7 0 
-0.7 0.373167 0 
0 0 0 
0.626833 -0.7 0 
-0.7 0.373167 0 
0 0 0 
0.373167 -0.7 0 
-0.7 0.626833 0 
0 0 0 
0.373167 -0.9 0 
-0.9 0.626833 0 
0 0 0 
0.626833 -0.9 0 
-0.9 0.373167 0 
0 0 0 
0.626833 -0.9 0 
-0.9 0.373167 0 
0 0 0 
0.373167 -0.9 0 
-0.9 0.626833 0 
0 0 0 
0.573167 0.9 0 
0.9 0.826833 0 
0 0 0 
0.826833 0.9 0 
0.9 0.573167 0 
0 0 0 
0.826833 0.9 0 
0.9 0.573167 0 
0 0 0 
0.573167 0.9 0 
0.9 0.826833 0 
0 0 0 
0.573167 0.7 0 
0.7 0.826833 0 
0 0 0 
0.826833 0.7 0 
0.7 0.573167 0 
0 0 0 
0.826833 0.7 0 
0.7 0.573167 0 
0 0 0 
0.573167 0.7 0 
0.7 0.826833 0 
0 0 0 
0.573167 0.5 0 
0.5 0.826833 0 
0 0 0 
0.826833 0.5 0 
0.5 0.573167 0 
0 0 0 
0.826833 0.5 0 
0.5 0.573167 0 
0 0 0 
0.573167 0.5 0 
0.5 0.826833 0 
0 0 0 
0.573167 0.3 0 
0.3 0.826833 0 
0 0 0 
0.826833 0.3 0 
0.3 0.573167 0 
0 0 0 
0.826833 0.3 0 
0.3 0.573167 0 
0 0 0 
0.573167 0.3 0 
0.3 0.826833 0 
0 0 0 
0.573167 0.1 0 
0.1 0.826833 0 
0 0 0 
0.826833 0.1 0 
0.1 0.573167 0 
0 0 0 
0.826833 0.1 0 
0.1 0.573167 0 
0 0 0 
0.573167 0.1 0 
0.1 0.826833 0 
0 0 0 
0.573167 -0.1 0 
-0.1 0.826833 0 
0 0 0 
0.826833 -0.1 0 
-0.1 0.573167 0 
0 0 0 
0.826833 -0.1 0 
-0.1 0.573167 0 
0 0 0 
0.573167 -0.1 0 
-0.1 0.826833 0 
0 0 0 
0.573167 -0.3 0 
-0.3 0.826833 0 
0 0 0 
0.826833 -0.3 0 
-0.3 0.573167 0 
0 0 0 
0.826833 -0.3 0 
-0.3 0.573167 0 
0 0 0 
0.573167 -0.3 0 
-0.3 0.826833 0 
0 0 0 
0.573167 -0.5 0 
-0.5 0.826833 0 
0 0 0 
0.826833 -0.5 0 
-0.5 0.573167 0 
0 0 0 
0.826833 -0.5 0 
-0.5 0.573167 0 
0 0 0 
0.573167 -0.5 0 
-0.5 0.826833 0 
0 0 0 
0.573167 -0.7 0 
-0.7 0.826833 0 
0 0 0 
0.826833 -0.7 0 
-0.7 0.573167 0 
0 0 0 
0.826833 -0.7 0 
-0.7 0.573167 0 
0 0 0 
0.573167 -0.7 0 
-0.7 0.826833 0 
0 0 0 
0.573167 -0.9 0 
-0.9 0.826833 0 
0 0 0 
0.826833 -0.9 0 
-0.9 0.573167 0 
0 0 0 
0.826833 -0.9 0 
-0.9 0.573167 0 
0 0 0 
0.573167 -0.9 0 
-0.9 0.826833 0 
0 0 0 
0.773167 0.9 0 
0.9 1.02683 0 
0 0 0 
1.02683 0.9 0 
0.9 0.773167 0 
0 0 0 
1.02683 0.9 0 
0.9 0.773167 0 
0 0 0 
0.773167 0.9 0 
0.9 1.02683 0 
0 0 0 
0.773167 0.7 0 
0.7 1.02683 0 
0 0 0 
1.02683 0.7 0 
0.7 0.773167 0 
0 0 0 
1.02683 0.7 0 
0.7 0.773167 0 
0 0 0 
0.773167 0.7 0 
0.7 1.02683 0 
0 0 0 
0.773167 0.5 0 
0.5 1.02683 0 
0 0 0 
1.02683 0.5 0 
0.5 0.773167 0 
0 0 0 
1.02683 0.5 0 
0.5 0.773167 0 
0 0 0 
0.773167 0.5 0 
0.5 1.02683 0 
0 0 0 
0.773167 0.3 0 
0.3 1.02683 0 
0 0 0 
1.02683 0.3 0 
0.3 0.773167 0 
0 0 0 
1.02683 0.3 0 
0.3 0.773167 0 
0 0 0 
0.773167 0.3 0 
0.3 1.02683 0 
0 0 0 
0.773167 0.1 0 
0.1 1.02683 0 
0 0 0 
1.02683 0.1 0 
0.1 0.773167 0 
0 0 0 
1.02683 0.1 0 
0.1 0.773167 0 
0 0 0 
0.773167 0.1 0 
0.1 1.02683 0 
0 0 0 
0.773167 -0.1 0 
-0.1 1.02683 0 
0 0 0 
1.02683 -0.1 0 
-0.1 0.773167 0 
0 0 0 
1.02683 -0.1 0 
-0.1 0.773167 0 
0 0 0 
0.773167 -0.1 0 
-0.1 1.02683 0 
0 0 0 
0.773167 -0.3 0 
-0.3 1.02683 0 
0 0 0 
1.02683 -0.3 0 
-0.3 0.773167 0 
0 0 0 
1.02683 -0.3 0 
-0.3 0.773167 0 
0 0 0 
0.773167 -0.3 0 
-0.3 1.02683 0 
0 0 0 
0.773167 -0.5 0 
-0.5 1.02683 0 
0 0 0 
1.02683 -0.5 0 
-0.5 0.773167 0 
0 0 0 
1.02683 -0.5 0 
-0.5 0.773167 0 
0 0 0 
0.773167 -0.5 0 
-0.5 1.02683 0 
0 0 0 
0.773167 -0.7 0 
-0.7 1.02683 0 
0 0 0 
1.02683 -0.7 0 
-0.7 0.773167 0 
0 0 0 
1.02683 -0.7 0 
-0.7 0.773167 0 
0 0 0 
0.773167 -0.7 0 
-0.7 1.02683 0 
0 0 0 
0.773167 -0.9 0 
-0.9 1.02683 0 
0 0 0 
1.02683 -0.9 0 
-0.9 0.773167 0 
0 0 0 
1.02683 -0.9 0 
-0.9 0.773167 0 
0 0 0 
0.773167 -0.9 0 
-0.9 1.02683 0 
0 0 0 
METADATA
COMPONENT_NAMES
XX
XY
XZ
YX
YY
YZ
ZX
ZY
ZZ

